minimize
obj: 
subject to
c1_3: -1 x_7_ + 1 y_7_ <= 0
c1: [ 1 x_1_ ^ 2 + 1 y_1_ ^ 2 ] <= 2691.6499999999996
c2: [ 1 x_2_ ^ 2 + 1 y_2_ ^ 2 ] <= 29104.409475383512
c3: [ 1 x_3_ ^ 2 + 1 y_3_ ^ 2 ] <= 23334.81008189161
c4: [ 1 x_4_ ^ 2 + 1 y_4_ ^ 2 ] <= 16589.208862528765
c5: [ 1 x_5_ ^ 2 + 1 y_5_ ^ 2 ] <= 20709.333616068296
c6: [ 1 x_6_ ^ 2 + 1 y_6_ ^ 2 ] <= 33074.42097071765
c7: [ 1 x_7_ ^ 2 + 1 y_7_ ^ 2 ] <= 34779.04182408694
c8: [ 1 x_8_ ^ 2 + 1 y_8_ ^ 2 ] <= 19891.481443131757
c9: [ 1 x_9_ ^ 2 + 1 y_9_ ^ 2 ] <= 17330.5832073698
c10: [ 1 x_10_ ^ 2 + 1 y_10_ ^ 2 ] <= 14275.110554854606
c11: [ 1 x_11_ ^ 2 + 1 y_11_ ^ 2 ] <= 21746.37957001859
c12: [ 1 x_12_ ^ 2 + 1 y_12_ ^ 2 ] <= 13815.782308138649
c13: [ 1 x_13_ ^ 2 + 1 y_13_ ^ 2 ] <= 10433.163655186881
c14: [ 1 x_14_ ^ 2 + 1 y_14_ ^ 2 ] <= 9369.769999999997
c15: [ 1 x_15_ ^ 2 + 1 y_15_ ^ 2 ] <= 10232.29278022747
c16: [ 1 x_16_ ^ 2 + 1 y_16_ ^ 2 ] <= 18188.056742830217
c17: [ 1 x_17_ ^ 2 + 1 y_17_ ^ 2 ] <= 23870.27529728737
c18: [ 1 x_18_ ^ 2 + 1 y_18_ ^ 2 ] <= 14916.330383354827
c19: [ 1 x_19_ ^ 2 + 1 y_19_ ^ 2 ] <= 31193.657867004786
c20: [ 1 x_20_ ^ 2 + 1 y_20_ ^ 2 ] <= 12753.061941736312
c21: [ 1 x_21_ ^ 2 + 1 y_21_ ^ 2 ] <= 19284.85965751471
c22: [ 1 x_22_ ^ 2 + 1 y_22_ ^ 2 ] <= 3418.849999999999
c23: [ 1 x_23_ ^ 2 + 1 y_23_ ^ 2 ] <= 4272.509641330562
c24: [ 1 x_24_ ^ 2 + 1 y_24_ ^ 2 ] <= 10090.700037682811
c25: [ 1 x_25_ ^ 2 + 1 y_25_ ^ 2 ] <= 20967.143825485913
c26: [ 1 x_26_ ^ 2 + 1 y_26_ ^ 2 ] <= 20955.33689267046
c27: [ 1 x_27_ ^ 2 + 1 y_27_ ^ 2 ] <= 15182.194002649847
c28: [ 1 x_28_ ^ 2 + 1 y_28_ ^ 2 ] <= 10687.111156428127
c29: [ 1 x_29_ ^ 2 + 1 y_29_ ^ 2 ] <= 14980.6920209695
c30: [ 1 x_30_ ^ 2 + 1 y_30_ ^ 2 ] <= 29399.07187239039
c31: [ 1 x_31_ ^ 2 + 1 y_31_ ^ 2 ] <= 11722.534519983992
c32: [ 1 x_32_ ^ 2 + 1 y_32_ ^ 2 ] <= 26353.086944969888
c33: [ 1 x_33_ ^ 2 + 1 y_33_ ^ 2 ] <= 14800.228037184033
c34: [ 1 x_34_ ^ 2 + 1 y_34_ ^ 2 ] <= 7660.854964496942
c35: [ 1 x_35_ ^ 2 + 1 y_35_ ^ 2 ] <= 11206.889796438385
c36: [ 1 x_36_ ^ 2 + 1 y_36_ ^ 2 ] <= 12433.86485511309
c37: [ 1 x_37_ ^ 2 + 1 y_37_ ^ 2 ] <= 4186.45
c38: [ 1 x_38_ ^ 2 + 1 y_38_ ^ 2 ] <= 19733.07656971256
c39: [ 1 x_39_ ^ 2 + 1 y_39_ ^ 2 ] <= 15056.414138713739
c40: [ 1 x_40_ ^ 2 + 1 y_40_ ^ 2 ] <= 16194.94896991633
c41: [ 1 x_41_ ^ 2 + 1 y_41_ ^ 2 ] <= 23600.99093389155
c42: [ 1 x_42_ ^ 2 + 1 y_42_ ^ 2 ] <= 5398.45
c43: [ 1 x_43_ ^ 2 + 1 y_43_ ^ 2 ] <= 9728.415568920109
c44: [ 1 x_44_ ^ 2 + 1 y_44_ ^ 2 ] <= 11455.549573882747
c45: [ 1 x_45_ ^ 2 + 1 y_45_ ^ 2 ] <= 11699.125912077841
c46: [ 1 x_46_ ^ 2 + 1 y_46_ ^ 2 ] <= 29044.064951120665
c47: [ 1 x_47_ ^ 2 + 1 y_47_ ^ 2 ] <= 12539.507749982015
c48: [ 1 x_48_ ^ 2 + 1 y_48_ ^ 2 ] <= 10785.352430874733
c49: [ 1 x_49_ ^ 2 + 1 y_49_ ^ 2 ] <= 8816.028353684005
c50: [ 1 x_50_ ^ 2 + 1 y_50_ ^ 2 ] <= 7973.485322302721
c51: [ 1 x_51_ ^ 2 + 1 y_51_ ^ 2 ] <= 17166.38977508798
c52: [ 1 x_52_ ^ 2 + 1 y_52_ ^ 2 ] <= 8885.018171098334
c53: [ 1 x_53_ ^ 2 + 1 y_53_ ^ 2 ] <= 23249.653126040033
c54: [ 1 x_54_ ^ 2 + 1 y_54_ ^ 2 ] <= 3479.4500000000003
c55: [ 1 x_55_ ^ 2 + 1 y_55_ ^ 2 ] <= 5323.901395628846
c56: [ 1 x_56_ ^ 2 + 1 y_56_ ^ 2 ] <= 15195.646140842891
c57: [ 1 x_57_ ^ 2 + 1 y_57_ ^ 2 ] <= 13350.28116417102
c58: [ 1 x_58_ ^ 2 + 1 y_58_ ^ 2 ] <= 13883.043584228242
c59: [ 1 x_59_ ^ 2 + 1 y_59_ ^ 2 ] <= 21555.417869197932
c60: [ 1 x_60_ ^ 2 + 1 y_60_ ^ 2 ] <= 9980.095192454864
c61: [ 1 x_61_ ^ 2 + 1 y_61_ ^ 2 ] <= 23903.190242164113
c62: [ 1 x_62_ ^ 2 + 1 y_62_ ^ 2 ] <= 3743.059999999999
c63: [ 1 x_64_ ^ 2 + 1 y_64_ ^ 2 ] <= 597.9199999999998
c64: [ 1 x_65_ ^ 2 + 1 y_65_ ^ 2 ] <= 12038.765657108805
c65: [ 1 x_66_ ^ 2 + 1 y_66_ ^ 2 ] <= 10500.969999999998
c66: [ 1 x_67_ ^ 2 + 1 y_67_ ^ 2 ] <= 23448.877307837894
c67: [ 1 x_68_ ^ 2 + 1 y_68_ ^ 2 ] <= 11199.320158870527
c68: [ 1 x_69_ ^ 2 + 1 y_69_ ^ 2 ] <= 16081.730339300884
c69: [ 1 x_70_ ^ 2 + 1 y_70_ ^ 2 ] <= 21069.510177248143
c70: [ 1 x_71_ ^ 2 + 1 y_71_ ^ 2 ] <= 19308.537246150798
c71: [ 1 x_72_ ^ 2 + 1 y_72_ ^ 2 ] <= 21380.843842578717
c72: [ 1 x_73_ ^ 2 + 1 y_73_ ^ 2 ] <= 10418.49345971306
c73: [ 1 x_74_ ^ 2 + 1 y_74_ ^ 2 ] <= 23418.603313934847
c74: [ 1 x_75_ ^ 2 + 1 y_75_ ^ 2 ] <= 20851.40797311562
c75: [ 1 x_76_ ^ 2 + 1 y_76_ ^ 2 ] <= 19835.425213039984
c76: [ 1 x_77_ ^ 2 + 1 y_77_ ^ 2 ] <= 16473.68322159097
c77: [ 1 x_78_ ^ 2 + 1 y_78_ ^ 2 ] <= 17697.116938113773
c78: [ 1 x_79_ ^ 2 + 1 y_79_ ^ 2 ] <= 19998.113216935482
c79: [ 1 x_80_ ^ 2 + 1 y_80_ ^ 2 ] <= 11734.534107821903
c80: [ 1 x_81_ ^ 2 + 1 y_81_ ^ 2 ] <= 6919.124317898336
c81: [ 1 x_82_ ^ 2 + 1 y_82_ ^ 2 ] <= 16011.294268197502
c82: [ 1 x_83_ ^ 2 + 1 y_83_ ^ 2 ] <= 18931.174922521503
c83: [ 1 x_84_ ^ 2 + 1 y_84_ ^ 2 ] <= 16189.289999999999
c84: [ 1 x_85_ ^ 2 + 1 y_85_ ^ 2 ] <= 14117.779999999999
c85: [ 1 x_86_ ^ 2 + 1 y_86_ ^ 2 ] <= 11472.760606758718
c86: [ 1 x_87_ ^ 2 + 1 y_87_ ^ 2 ] <= 15725.759508642976
c87: [ 1 x_88_ ^ 2 + 1 y_88_ ^ 2 ] <= 9015.896813412874
c88: [ 1 x_89_ ^ 2 + 1 y_89_ ^ 2 ] <= 32136.387601353345
c89: [ 1 x_90_ ^ 2 + 1 y_90_ ^ 2 ] <= 28716.258729678826
c90: [ 1 x_91_ ^ 2 + 1 y_91_ ^ 2 ] <= 3675.1116755175594
c91: [ 1 x_92_ ^ 2 + 1 y_92_ ^ 2 ] <= 13218.013578357273
c92: [ 1 x_93_ ^ 2 + 1 y_93_ ^ 2 ] <= 18252.962900577506
c93: [ 1 x_94_ ^ 2 + 1 y_94_ ^ 2 ] <= 22445.379946770332
c94: [ 1 x_95_ ^ 2 + 1 y_95_ ^ 2 ] <= 8245.64
c95: [ 1 x_96_ ^ 2 + 1 y_96_ ^ 2 ] <= 11394.55131580321
c96: [ 1 x_97_ ^ 2 + 1 y_97_ ^ 2 ] <= 19508.923172432318
c97: [ 1 x_98_ ^ 2 + 1 y_98_ ^ 2 ] <= 497.92999999999995
c98: [ 1 x_99_ ^ 2 + 1 y_99_ ^ 2 ] <= 3324.764806707268
c99: [ 1 x_100_ ^ 2 + 1 y_100_ ^ 2 ] <= 18664.592982285336
quadratic_ranged_1_ub: [ 1 x_1_ ^ 2 - 2 x_2_ * x_1_ + 1 x_2_ ^ 2 + 1 y_1_ ^ 2 - 2 y_2_ * y_1_ + 1 y_2_ ^ 2 ] <= 20468.66
quadratic_ranged_2_ub: [ 1 x_2_ ^ 2 - 2 x_3_ * x_2_ + 1 x_3_ ^ 2 + 1 y_2_ ^ 2 - 2 y_3_ * y_2_ + 1 y_3_ ^ 2 ] <= 32365.45
quadratic_ranged_3_ub: [ 1 x_3_ ^ 2 - 2 x_4_ * x_3_ + 1 x_4_ ^ 2 + 1 y_3_ ^ 2 - 2 y_4_ * y_3_ + 1 y_4_ ^ 2 ] <= 25505.53
quadratic_ranged_4_ub: [ 1 x_3_ ^ 2 - 2 x_5_ * x_3_ + 1 x_5_ ^ 2 + 1 y_3_ ^ 2 - 2 y_5_ * y_3_ + 1 y_5_ ^ 2 ] <= 25537.85
quadratic_ranged_5_ub: [ 1 x_4_ ^ 2 - 2 x_5_ * x_4_ + 1 x_5_ ^ 2 + 1 y_4_ ^ 2 - 2 y_5_ * y_4_ + 1 y_5_ ^ 2 ] <= 228.26
quadratic_ranged_6_ub: [ 1 x_5_ ^ 2 - 2 x_6_ * x_5_ + 1 x_6_ ^ 2 + 1 y_5_ ^ 2 - 2 y_6_ * y_5_ + 1 y_6_ ^ 2 ] <= 8534.5
quadratic_ranged_7_ub: [ 1 x_4_ ^ 2 - 2 x_7_ * x_4_ + 1 x_7_ ^ 2 + 1 y_4_ ^ 2 - 2 y_7_ * y_4_ + 1 y_7_ ^ 2 ] <= 7680.04
quadratic_ranged_8_ub: [ 1 x_6_ ^ 2 - 2 x_7_ * x_6_ + 1 x_7_ ^ 2 + 1 y_6_ ^ 2 - 2 y_7_ * y_6_ + 1 y_7_ ^ 2 ] <= 9413.2
quadratic_ranged_9_ub: [ 1 x_7_ ^ 2 - 2 x_8_ * x_7_ + 1 x_8_ ^ 2 + 1 y_7_ ^ 2 - 2 y_8_ * y_7_ + 1 y_8_ ^ 2 ] <= 25888.32
quadratic_ranged_10_ub: [ 1 x_8_ ^ 2 - 2 x_9_ * x_8_ + 1 x_9_ ^ 2 + 1 y_8_ ^ 2 - 2 y_9_ * y_8_ + 1 y_9_ ^ 2 ] <= 26843.78
quadratic_ranged_11_ub: [ 1 x_9_ ^ 2 - 2 x_10_ * x_9_ + 1 x_10_ ^ 2 + 1 y_9_ ^ 2 - 2 y_10_ * y_9_ + 1 y_10_ ^ 2 ] <= 1010
quadratic_ranged_12_ub: [ 1 x_8_ ^ 2 - 2 x_11_ * x_8_ + 1 x_11_ ^ 2 + 1 y_8_ ^ 2 - 2 y_11_ * y_8_ + 1 y_11_ ^ 2 ] <= 17651.77
quadratic_ranged_13_ub: [ 1 x_10_ ^ 2 - 2 x_11_ * x_10_ + 1 x_11_ ^ 2 + 1 y_10_ ^ 2 - 2 y_11_ * y_10_ + 1 y_11_ ^ 2 ] <= 3915.77
quadratic_ranged_14_ub: [ 1 x_5_ ^ 2 - 2 x_12_ * x_5_ + 1 x_12_ ^ 2 + 1 y_5_ ^ 2 - 2 y_12_ * y_5_ + 1 y_12_ ^ 2 ] <= 5340.88
quadratic_ranged_15_ub: [ 1 x_11_ ^ 2 - 2 x_12_ * x_11_ + 1 x_12_ ^ 2 + 1 y_11_ ^ 2 - 2 y_12_ * y_11_ + 1 y_12_ ^ 2 ] <= 6618.53
quadratic_ranged_16_ub: [ 1 x_2_ ^ 2 - 2 x_13_ * x_2_ + 1 x_13_ ^ 2 + 1 y_2_ ^ 2 - 2 y_13_ * y_2_ + 1 y_13_ ^ 2 ] <= 4686.4
quadratic_ranged_17_ub: [ 1 x_4_ ^ 2 - 2 x_13_ * x_4_ + 1 x_13_ ^ 2 + 1 y_4_ ^ 2 - 2 y_13_ * y_4_ + 1 y_13_ ^ 2 ] <= 6581.16
quadratic_ranged_18_ub: [ 1 x_5_ ^ 2 - 2 x_13_ * x_5_ + 1 x_13_ ^ 2 + 1 y_5_ ^ 2 - 2 y_13_ * y_5_ + 1 y_13_ ^ 2 ] <= 8566.82
quadratic_ranged_19_ub: [ 1 x_10_ ^ 2 - 2 x_13_ * x_10_ + 1 x_13_ ^ 2 + 1 y_10_ ^ 2 - 2 y_13_ * y_10_ + 1 y_13_ ^ 2 ] <= 8995.06
quadratic_ranged_20_ub: [ 1 x_12_ ^ 2 - 2 x_13_ * x_12_ + 1 x_13_ ^ 2 + 1 y_12_ ^ 2 - 2 y_13_ * y_12_ + 1 y_13_ ^ 2 ] <= 583.78
quadratic_ranged_21_ub: [ 1 x_13_ ^ 2 - 2 x_14_ * x_13_ + 1 x_14_ ^ 2 + 1 y_13_ ^ 2 - 2 y_14_ * y_13_ + 1 y_14_ ^ 2 ] <= 21115.06
quadratic_ranged_22_ub: [ 1 x_1_ ^ 2 - 2 x_15_ * x_1_ + 1 x_15_ ^ 2 + 1 y_1_ ^ 2 - 2 y_15_ * y_1_ + 1 y_15_ ^ 2 ] <= 2492.68
quadratic_ranged_23_ub: [ 1 x_11_ ^ 2 - 2 x_15_ * x_11_ + 1 x_15_ ^ 2 + 1 y_11_ ^ 2 - 2 y_15_ * y_11_ + 1 y_15_ ^ 2 ] <= 8363.81
quadratic_ranged_24_ub: [ 1 x_14_ ^ 2 - 2 x_15_ * x_14_ + 1 x_15_ ^ 2 + 1 y_14_ ^ 2 - 2 y_15_ * y_14_ + 1 y_15_ ^ 2 ] <= 22805.8
quadratic_ranged_25_ub: [ 1 x_10_ ^ 2 - 2 x_16_ * x_10_ + 1 x_16_ ^ 2 + 1 y_10_ ^ 2 - 2 y_16_ * y_10_ + 1 y_16_ ^ 2 ] <= 16371.09
quadratic_ranged_26_ub: [ 1 x_15_ ^ 2 - 2 x_16_ * x_15_ + 1 x_16_ ^ 2 + 1 y_15_ ^ 2 - 2 y_16_ * y_15_ + 1 y_16_ ^ 2 ] <= 1136.25
quadratic_ranged_27_ub: [ 1 x_16_ ^ 2 - 2 x_17_ * x_16_ + 1 x_17_ ^ 2 + 1 y_16_ ^ 2 - 2 y_17_ * y_16_ + 1 y_17_ ^ 2 ] <= 808
quadratic_ranged_28_ub: [ 1 x_12_ ^ 2 - 2 x_18_ * x_12_ + 1 x_18_ ^ 2 + 1 y_12_ ^ 2 - 2 y_18_ * y_12_ + 1 y_18_ ^ 2 ] <= 1968.49
quadratic_ranged_29_ub: [ 1 x_17_ ^ 2 - 2 x_18_ * x_17_ + 1 x_18_ ^ 2 + 1 y_17_ ^ 2 - 2 y_18_ * y_17_ + 1 y_18_ ^ 2 ] <= 19078.9
quadratic_ranged_30_ub: [ 1 x_3_ ^ 2 - 2 x_19_ * x_3_ + 1 x_19_ ^ 2 + 1 y_3_ ^ 2 - 2 y_19_ * y_3_ + 1 y_19_ ^ 2 ] <= 30979.73
quadratic_ranged_31_ub: [ 1 x_14_ ^ 2 - 2 x_19_ * x_14_ + 1 x_19_ ^ 2 + 1 y_14_ ^ 2 - 2 y_19_ * y_14_ + 1 y_19_ ^ 2 ] <= 30843.38
quadratic_ranged_32_ub: [ 1 x_18_ ^ 2 - 2 x_19_ * x_18_ + 1 x_19_ ^ 2 + 1 y_18_ ^ 2 - 2 y_19_ * y_18_ + 1 y_19_ ^ 2 ] <= 31710.97
quadratic_ranged_33_ub: [ 1 x_1_ ^ 2 - 2 x_20_ * x_1_ + 1 x_20_ ^ 2 + 1 y_1_ ^ 2 - 2 y_20_ * y_1_ + 1 y_20_ ^ 2 ] <= 3726.9
quadratic_ranged_34_ub: [ 1 x_11_ ^ 2 - 2 x_20_ * x_11_ + 1 x_20_ ^ 2 + 1 y_11_ ^ 2 - 2 y_20_ * y_11_ + 1 y_20_ ^ 2 ] <= 1192.81
quadratic_ranged_35_ub: [ 1 x_16_ ^ 2 - 2 x_20_ * x_16_ + 1 x_20_ ^ 2 + 1 y_16_ ^ 2 - 2 y_20_ * y_16_ + 1 y_20_ ^ 2 ] <= 3216.85
quadratic_ranged_36_ub: [ 1 x_19_ ^ 2 - 2 x_20_ * x_19_ + 1 x_20_ ^ 2 + 1 y_19_ ^ 2 - 2 y_20_ * y_19_ + 1 y_20_ ^ 2 ] <= 7918.4
quadratic_ranged_37_ub: [ 1 x_10_ ^ 2 - 2 x_21_ * x_10_ + 1 x_21_ ^ 2 + 1 y_10_ ^ 2 - 2 y_21_ * y_10_ + 1 y_21_ ^ 2 ] <= 4803.56
quadratic_ranged_38_ub: [ 1 x_20_ ^ 2 - 2 x_21_ * x_20_ + 1 x_21_ ^ 2 + 1 y_20_ ^ 2 - 2 y_21_ * y_20_ + 1 y_21_ ^ 2 ] <= 1092.82
quadratic_ranged_39_ub: [ 1 x_10_ ^ 2 - 2 x_22_ * x_10_ + 1 x_22_ ^ 2 + 1 y_10_ ^ 2 - 2 y_22_ * y_10_ + 1 y_22_ ^ 2 ] <= 6807.4
quadratic_ranged_40_ub: [ 1 x_21_ ^ 2 - 2 x_22_ * x_21_ + 1 x_22_ ^ 2 + 1 y_21_ ^ 2 - 2 y_22_ * y_21_ + 1 y_22_ ^ 2 ] <= 6464
quadratic_ranged_41_ub: [ 1 x_1_ ^ 2 - 2 x_23_ * x_1_ + 1 x_23_ ^ 2 + 1 y_1_ ^ 2 - 2 y_23_ * y_1_ + 1 y_23_ ^ 2 ] <= 181.8
quadratic_ranged_42_ub: [ 1 x_2_ ^ 2 - 2 x_23_ * x_2_ + 1 x_23_ ^ 2 + 1 y_2_ ^ 2 - 2 y_23_ * y_2_ + 1 y_23_ ^ 2 ] <= 22674.5
quadratic_ranged_43_ub: [ 1 x_18_ ^ 2 - 2 x_23_ * x_18_ + 1 x_23_ ^ 2 + 1 y_18_ ^ 2 - 2 y_23_ * y_18_ + 1 y_23_ ^ 2 ] <= 20160.61
quadratic_ranged_44_ub: [ 1 x_22_ ^ 2 - 2 x_23_ * x_22_ + 1 x_23_ ^ 2 + 1 y_22_ ^ 2 - 2 y_23_ * y_22_ + 1 y_23_ ^ 2 ] <= 13691.56
quadratic_ranged_45_ub: [ 1 x_11_ ^ 2 - 2 x_24_ * x_11_ + 1 x_24_ ^ 2 + 1 y_11_ ^ 2 - 2 y_24_ * y_11_ + 1 y_24_ ^ 2 ] <= 4500.56
quadratic_ranged_46_ub: [ 1 x_22_ ^ 2 - 2 x_24_ * x_22_ + 1 x_24_ ^ 2 + 1 y_22_ ^ 2 - 2 y_24_ * y_22_ + 1 y_24_ ^ 2 ] <= 1762.45
quadratic_ranged_47_ub: [ 1 x_23_ ^ 2 - 2 x_24_ * x_23_ + 1 x_24_ ^ 2 + 1 y_23_ ^ 2 - 2 y_24_ * y_23_ + 1 y_24_ ^ 2 ] <= 18156.77
quadratic_ranged_48_ub: [ 1 x_17_ ^ 2 - 2 x_25_ * x_17_ + 1 x_25_ ^ 2 + 1 y_17_ ^ 2 - 2 y_25_ * y_17_ + 1 y_25_ ^ 2 ] <= 25222.73
quadratic_ranged_49_ub: [ 1 x_24_ ^ 2 - 2 x_25_ * x_24_ + 1 x_25_ ^ 2 + 1 y_24_ ^ 2 - 2 y_25_ * y_24_ + 1 y_25_ ^ 2 ] <= 14508.65
quadratic_ranged_50_ub: [ 1 x_1_ ^ 2 - 2 x_26_ * x_1_ + 1 x_26_ ^ 2 + 1 y_1_ ^ 2 - 2 y_26_ * y_1_ + 1 y_26_ ^ 2 ] <= 8626.41
quadratic_ranged_51_ub: [ 1 x_2_ ^ 2 - 2 x_26_ * x_2_ + 1 x_26_ ^ 2 + 1 y_2_ ^ 2 - 2 y_26_ * y_2_ + 1 y_26_ ^ 2 ] <= 47862.89
quadratic_ranged_52_ub: [ 1 x_6_ ^ 2 - 2 x_26_ * x_6_ + 1 x_26_ ^ 2 + 1 y_6_ ^ 2 - 2 y_26_ * y_6_ + 1 y_26_ ^ 2 ] <= 60920.17
quadratic_ranged_53_ub: [ 1 x_25_ ^ 2 - 2 x_26_ * x_25_ + 1 x_26_ ^ 2 + 1 y_25_ ^ 2 - 2 y_26_ * y_25_ + 1 y_26_ ^ 2 ] <= 26442.81
quadratic_ranged_54_ub: [ 1 x_10_ ^ 2 - 2 x_27_ * x_10_ + 1 x_27_ ^ 2 + 1 y_10_ ^ 2 - 2 y_27_ * y_10_ + 1 y_27_ ^ 2 ] <= 32198.8
quadratic_ranged_55_ub: [ 1 x_15_ ^ 2 - 2 x_27_ * x_15_ + 1 x_27_ ^ 2 + 1 y_15_ ^ 2 - 2 y_27_ * y_15_ + 1 y_27_ ^ 2 ] <= 28199.2
quadratic_ranged_56_ub: [ 1 x_19_ ^ 2 - 2 x_27_ * x_19_ + 1 x_27_ ^ 2 + 1 y_19_ ^ 2 - 2 y_27_ * y_19_ + 1 y_27_ ^ 2 ] <= 34382.42
quadratic_ranged_57_ub: [ 1 x_22_ ^ 2 - 2 x_27_ * x_22_ + 1 x_27_ ^ 2 + 1 y_22_ ^ 2 - 2 y_27_ * y_22_ + 1 y_27_ ^ 2 ] <= 9635.4
quadratic_ranged_58_ub: [ 1 x_26_ ^ 2 - 2 x_27_ * x_26_ + 1 x_27_ ^ 2 + 1 y_26_ ^ 2 - 2 y_27_ * y_26_ + 1 y_27_ ^ 2 ] <= 11664.49
quadratic_ranged_59_ub: [ 1 x_3_ ^ 2 - 2 x_28_ * x_3_ + 1 x_28_ ^ 2 + 1 y_3_ ^ 2 - 2 y_28_ * y_3_ + 1 y_28_ ^ 2 ] <= 2981.52
quadratic_ranged_60_ub: [ 1 x_4_ ^ 2 - 2 x_28_ * x_4_ + 1 x_28_ ^ 2 + 1 y_4_ ^ 2 - 2 y_28_ * y_4_ + 1 y_28_ ^ 2 ] <= 11046.37
quadratic_ranged_61_ub: [ 1 x_22_ ^ 2 - 2 x_28_ * x_22_ + 1 x_28_ ^ 2 + 1 y_22_ ^ 2 - 2 y_28_ * y_22_ + 1 y_28_ ^ 2 ] <= 4792.45
quadratic_ranged_62_ub: [ 1 x_27_ ^ 2 - 2 x_28_ * x_27_ + 1 x_28_ ^ 2 + 1 y_27_ ^ 2 - 2 y_28_ * y_27_ + 1 y_28_ ^ 2 ] <= 2550.25
quadratic_ranged_63_ub: [ 1 x_12_ ^ 2 - 2 x_29_ * x_12_ + 1 x_29_ ^ 2 + 1 y_12_ ^ 2 - 2 y_29_ * y_12_ + 1 y_29_ ^ 2 ] <= 207.05
quadratic_ranged_64_ub: [ 1 x_23_ ^ 2 - 2 x_29_ * x_23_ + 1 x_29_ ^ 2 + 1 y_23_ ^ 2 - 2 y_29_ * y_23_ + 1 y_29_ ^ 2 ] <= 14734.89
quadratic_ranged_65_ub: [ 1 x_28_ ^ 2 - 2 x_29_ * x_28_ + 1 x_29_ ^ 2 + 1 y_28_ ^ 2 - 2 y_29_ * y_28_ + 1 y_29_ ^ 2 ] <= 7427.54
quadratic_ranged_66_ub: [ 1 x_9_ ^ 2 - 2 x_30_ * x_9_ + 1 x_30_ ^ 2 + 1 y_9_ ^ 2 - 2 y_30_ * y_9_ + 1 y_30_ ^ 2 ] <= 9648.53
quadratic_ranged_67_ub: [ 1 x_26_ ^ 2 - 2 x_30_ * x_26_ + 1 x_30_ ^ 2 + 1 y_26_ ^ 2 - 2 y_30_ * y_26_ + 1 y_30_ ^ 2 ] <= 13657.22
quadratic_ranged_68_ub: [ 1 x_27_ ^ 2 - 2 x_30_ * x_27_ + 1 x_30_ ^ 2 + 1 y_27_ ^ 2 - 2 y_30_ * y_27_ + 1 y_30_ ^ 2 ] <= 2691.65
quadratic_ranged_69_ub: [ 1 x_29_ ^ 2 - 2 x_30_ * x_29_ + 1 x_30_ ^ 2 + 1 y_29_ ^ 2 - 2 y_30_ * y_29_ + 1 y_30_ ^ 2 ] <= 5003.54
quadratic_ranged_70_ub: [ 1 x_2_ ^ 2 - 2 x_31_ * x_2_ + 1 x_31_ ^ 2 + 1 y_2_ ^ 2 - 2 y_31_ * y_2_ + 1 y_31_ ^ 2 ] <= 37274.05
quadratic_ranged_71_ub: [ 1 x_17_ ^ 2 - 2 x_31_ * x_17_ + 1 x_31_ ^ 2 + 1 y_17_ ^ 2 - 2 y_31_ * y_17_ + 1 y_31_ ^ 2 ] <= 2137.16
quadratic_ranged_72_ub: [ 1 x_30_ ^ 2 - 2 x_31_ * x_30_ + 1 x_31_ ^ 2 + 1 y_30_ ^ 2 - 2 y_31_ * y_30_ + 1 y_31_ ^ 2 ] <= 18602.18
quadratic_ranged_73_ub: [ 1 x_8_ ^ 2 - 2 x_32_ * x_8_ + 1 x_32_ ^ 2 + 1 y_8_ ^ 2 - 2 y_32_ * y_8_ + 1 y_32_ ^ 2 ] <= 2328.05
quadratic_ranged_74_ub: [ 1 x_9_ ^ 2 - 2 x_32_ * x_9_ + 1 x_32_ ^ 2 + 1 y_9_ ^ 2 - 2 y_32_ * y_9_ + 1 y_32_ ^ 2 ] <= 39795.01
quadratic_ranged_75_ub: [ 1 x_28_ ^ 2 - 2 x_32_ * x_28_ + 1 x_32_ ^ 2 + 1 y_28_ ^ 2 - 2 y_32_ * y_28_ + 1 y_32_ ^ 2 ] <= 11449.36
quadratic_ranged_76_ub: [ 1 x_31_ ^ 2 - 2 x_32_ * x_31_ + 1 x_32_ ^ 2 + 1 y_31_ ^ 2 - 2 y_32_ * y_31_ + 1 y_32_ ^ 2 ] <= 7742.66
quadratic_ranged_77_ub: [ 1 x_3_ ^ 2 - 2 x_33_ * x_3_ + 1 x_33_ ^ 2 + 1 y_3_ ^ 2 - 2 y_33_ * y_3_ + 1 y_33_ ^ 2 ] <= 17105.36
quadratic_ranged_78_ub: [ 1 x_13_ ^ 2 - 2 x_33_ * x_13_ + 1 x_33_ ^ 2 + 1 y_13_ ^ 2 - 2 y_33_ * y_13_ + 1 y_33_ ^ 2 ] <= 380.77
quadratic_ranged_79_ub: [ 1 x_24_ ^ 2 - 2 x_33_ * x_24_ + 1 x_33_ ^ 2 + 1 y_24_ ^ 2 - 2 y_33_ * y_24_ + 1 y_33_ ^ 2 ] <= 3979.4
quadratic_ranged_80_ub: [ 1 x_32_ ^ 2 - 2 x_33_ * x_32_ + 1 x_33_ ^ 2 + 1 y_32_ ^ 2 - 2 y_33_ * y_32_ + 1 y_33_ ^ 2 ] <= 40181.840000000004
quadratic_ranged_81_ub: [ 1 x_1_ ^ 2 - 2 x_34_ * x_1_ + 1 x_34_ ^ 2 + 1 y_1_ ^ 2 - 2 y_34_ * y_1_ + 1 y_34_ ^ 2 ] <= 1270.58
quadratic_ranged_82_ub: [ 1 x_14_ ^ 2 - 2 x_34_ * x_14_ + 1 x_34_ ^ 2 + 1 y_14_ ^ 2 - 2 y_34_ * y_14_ + 1 y_34_ ^ 2 ] <= 6312.5
quadratic_ranged_83_ub: [ 1 x_33_ ^ 2 - 2 x_34_ * x_33_ + 1 x_34_ ^ 2 + 1 y_33_ ^ 2 - 2 y_34_ * y_33_ + 1 y_34_ ^ 2 ] <= 14508.65
quadratic_ranged_84_ub: [ 1 x_8_ ^ 2 - 2 x_35_ * x_8_ + 1 x_35_ ^ 2 + 1 y_8_ ^ 2 - 2 y_35_ * y_8_ + 1 y_35_ ^ 2 ] <= 1237.25
quadratic_ranged_85_ub: [ 1 x_18_ ^ 2 - 2 x_35_ * x_18_ + 1 x_35_ ^ 2 + 1 y_18_ ^ 2 - 2 y_35_ * y_18_ + 1 y_35_ ^ 2 ] <= 33459.28
quadratic_ranged_86_ub: [ 1 x_23_ ^ 2 - 2 x_35_ * x_23_ + 1 x_35_ ^ 2 + 1 y_23_ ^ 2 - 2 y_35_ * y_23_ + 1 y_35_ ^ 2 ] <= 2073.53
quadratic_ranged_87_ub: [ 1 x_28_ ^ 2 - 2 x_35_ * x_28_ + 1 x_35_ ^ 2 + 1 y_28_ ^ 2 - 2 y_35_ * y_28_ + 1 y_35_ ^ 2 ] <= 13808.72
quadratic_ranged_88_ub: [ 1 x_34_ ^ 2 - 2 x_35_ * x_34_ + 1 x_35_ ^ 2 + 1 y_34_ ^ 2 - 2 y_35_ * y_34_ + 1 y_35_ ^ 2 ] <= 6772.05
quadratic_ranged_89_ub: [ 1 x_22_ ^ 2 - 2 x_36_ * x_22_ + 1 x_36_ ^ 2 + 1 y_22_ ^ 2 - 2 y_36_ * y_22_ + 1 y_36_ ^ 2 ] <= 2812.85
quadratic_ranged_90_ub: [ 1 x_33_ ^ 2 - 2 x_36_ * x_33_ + 1 x_36_ ^ 2 + 1 y_33_ ^ 2 - 2 y_36_ * y_33_ + 1 y_36_ ^ 2 ] <= 9027.38
quadratic_ranged_91_ub: [ 1 x_35_ ^ 2 - 2 x_36_ * x_35_ + 1 x_36_ ^ 2 + 1 y_35_ ^ 2 - 2 y_36_ * y_35_ + 1 y_36_ ^ 2 ] <= 15071.22
quadratic_ranged_92_ub: [ 1 x_25_ ^ 2 - 2 x_37_ * x_25_ + 1 x_37_ ^ 2 + 1 y_25_ ^ 2 - 2 y_37_ * y_25_ + 1 y_37_ ^ 2 ] <= 9069.8
quadratic_ranged_93_ub: [ 1 x_28_ ^ 2 - 2 x_37_ * x_28_ + 1 x_37_ ^ 2 + 1 y_28_ ^ 2 - 2 y_37_ * y_28_ + 1 y_37_ ^ 2 ] <= 1495.81
quadratic_ranged_94_ub: [ 1 x_34_ ^ 2 - 2 x_37_ * x_34_ + 1 x_37_ ^ 2 + 1 y_34_ ^ 2 - 2 y_37_ * y_34_ + 1 y_37_ ^ 2 ] <= 2716.9
quadratic_ranged_95_ub: [ 1 x_36_ ^ 2 - 2 x_37_ * x_36_ + 1 x_37_ ^ 2 + 1 y_36_ ^ 2 - 2 y_37_ * y_36_ + 1 y_37_ ^ 2 ] <= 12840.130000000001
quadratic_ranged_96_ub: [ 1 x_2_ ^ 2 - 2 x_38_ * x_2_ + 1 x_38_ ^ 2 + 1 y_2_ ^ 2 - 2 y_38_ * y_2_ + 1 y_38_ ^ 2 ] <= 18781.96
quadratic_ranged_97_ub: [ 1 x_16_ ^ 2 - 2 x_38_ * x_16_ + 1 x_38_ ^ 2 + 1 y_16_ ^ 2 - 2 y_38_ * y_16_ + 1 y_38_ ^ 2 ] <= 26325.65
quadratic_ranged_98_ub: [ 1 x_22_ ^ 2 - 2 x_38_ * x_22_ + 1 x_38_ ^ 2 + 1 y_22_ ^ 2 - 2 y_38_ * y_22_ + 1 y_38_ ^ 2 ] <= 6724.58
quadratic_ranged_99_ub: [ 1 x_28_ ^ 2 - 2 x_38_ * x_28_ + 1 x_38_ ^ 2 + 1 y_28_ ^ 2 - 2 y_38_ * y_28_ + 1 y_38_ ^ 2 ] <= 5673.17
quadratic_ranged_100_ub: [ 1 x_30_ ^ 2 - 2 x_38_ * x_30_ + 1 x_38_ ^ 2 + 1 y_30_ ^ 2 - 2 y_38_ * y_30_ + 1 y_38_ ^ 2 ] <= 3871.33
quadratic_ranged_101_ub: [ 1 x_31_ ^ 2 - 2 x_38_ * x_31_ + 1 x_38_ ^ 2 + 1 y_31_ ^ 2 - 2 y_38_ * y_31_ + 1 y_38_ ^ 2 ] <= 38457.77
quadratic_ranged_102_ub: [ 1 x_32_ ^ 2 - 2 x_38_ * x_32_ + 1 x_38_ ^ 2 + 1 y_32_ ^ 2 - 2 y_38_ * y_32_ + 1 y_38_ ^ 2 ] <= 28180.010000000002
quadratic_ranged_103_ub: [ 1 x_37_ ^ 2 - 2 x_38_ * x_37_ + 1 x_38_ ^ 2 + 1 y_37_ ^ 2 - 2 y_38_ * y_37_ + 1 y_38_ ^ 2 ] <= 7766.9
quadratic_ranged_104_ub: [ 1 x_8_ ^ 2 - 2 x_39_ * x_8_ + 1 x_39_ ^ 2 + 1 y_8_ ^ 2 - 2 y_39_ * y_8_ + 1 y_39_ ^ 2 ] <= 14064.25
quadratic_ranged_105_ub: [ 1 x_25_ ^ 2 - 2 x_39_ * x_25_ + 1 x_39_ ^ 2 + 1 y_25_ ^ 2 - 2 y_39_ * y_25_ + 1 y_39_ ^ 2 ] <= 3568.33
quadratic_ranged_106_ub: [ 1 x_38_ ^ 2 - 2 x_39_ * x_38_ + 1 x_39_ ^ 2 + 1 y_38_ ^ 2 - 2 y_39_ * y_38_ + 1 y_39_ ^ 2 ] <= 2772.45
quadratic_ranged_107_ub: [ 1 x_22_ ^ 2 - 2 x_40_ * x_22_ + 1 x_40_ ^ 2 + 1 y_22_ ^ 2 - 2 y_40_ * y_22_ + 1 y_40_ ^ 2 ] <= 4731.85
quadratic_ranged_108_ub: [ 1 x_30_ ^ 2 - 2 x_40_ * x_30_ + 1 x_40_ ^ 2 + 1 y_30_ ^ 2 - 2 y_40_ * y_30_ + 1 y_40_ ^ 2 ] <= 3347.14
quadratic_ranged_109_ub: [ 1 x_39_ ^ 2 - 2 x_40_ * x_39_ + 1 x_40_ ^ 2 + 1 y_39_ ^ 2 - 2 y_40_ * y_39_ + 1 y_40_ ^ 2 ] <= 3573.38
quadratic_ranged_110_ub: [ 1 x_5_ ^ 2 - 2 x_41_ * x_5_ + 1 x_41_ ^ 2 + 1 y_5_ ^ 2 - 2 y_41_ * y_5_ + 1 y_41_ ^ 2 ] <= 1980.6100000000001
quadratic_ranged_111_ub: [ 1 x_35_ ^ 2 - 2 x_41_ * x_35_ + 1 x_41_ ^ 2 + 1 y_35_ ^ 2 - 2 y_41_ * y_35_ + 1 y_41_ ^ 2 ] <= 8585
quadratic_ranged_112_ub: [ 1 x_40_ ^ 2 - 2 x_41_ * x_40_ + 1 x_41_ ^ 2 + 1 y_40_ ^ 2 - 2 y_41_ * y_40_ + 1 y_41_ ^ 2 ] <= 22941.14
quadratic_ranged_113_ub: [ 1 x_1_ ^ 2 - 2 x_42_ * x_1_ + 1 x_42_ ^ 2 + 1 y_1_ ^ 2 - 2 y_42_ * y_1_ + 1 y_42_ ^ 2 ] <= 15675.2
quadratic_ranged_114_ub: [ 1 x_3_ ^ 2 - 2 x_42_ * x_3_ + 1 x_42_ ^ 2 + 1 y_3_ ^ 2 - 2 y_42_ * y_3_ + 1 y_42_ ^ 2 ] <= 11252.41
quadratic_ranged_115_ub: [ 1 x_15_ ^ 2 - 2 x_42_ * x_15_ + 1 x_42_ ^ 2 + 1 y_15_ ^ 2 - 2 y_42_ * y_15_ + 1 y_42_ ^ 2 ] <= 28461.8
quadratic_ranged_116_ub: [ 1 x_41_ ^ 2 - 2 x_42_ * x_41_ + 1 x_42_ ^ 2 + 1 y_41_ ^ 2 - 2 y_42_ * y_41_ + 1 y_42_ ^ 2 ] <= 15538.85
quadratic_ranged_117_ub: [ 1 x_3_ ^ 2 - 2 x_43_ * x_3_ + 1 x_43_ ^ 2 + 1 y_3_ ^ 2 - 2 y_43_ * y_3_ + 1 y_43_ ^ 2 ] <= 16806.4
quadratic_ranged_118_ub: [ 1 x_4_ ^ 2 - 2 x_43_ * x_4_ + 1 x_43_ ^ 2 + 1 y_4_ ^ 2 - 2 y_43_ * y_4_ + 1 y_43_ ^ 2 ] <= 910.01
quadratic_ranged_119_ub: [ 1 x_22_ ^ 2 - 2 x_43_ * x_22_ + 1 x_43_ ^ 2 + 1 y_22_ ^ 2 - 2 y_43_ * y_22_ + 1 y_43_ ^ 2 ] <= 1612.97
quadratic_ranged_120_ub: [ 1 x_23_ ^ 2 - 2 x_43_ * x_23_ + 1 x_43_ ^ 2 + 1 y_23_ ^ 2 - 2 y_43_ * y_23_ + 1 y_43_ ^ 2 ] <= 7761.85
quadratic_ranged_121_ub: [ 1 x_42_ ^ 2 - 2 x_43_ * x_42_ + 1 x_43_ ^ 2 + 1 y_42_ ^ 2 - 2 y_43_ * y_42_ + 1 y_43_ ^ 2 ] <= 5370.17
quadratic_ranged_122_ub: [ 1 x_14_ ^ 2 - 2 x_44_ * x_14_ + 1 x_44_ ^ 2 + 1 y_14_ ^ 2 - 2 y_44_ * y_14_ + 1 y_44_ ^ 2 ] <= 4137.97
quadratic_ranged_123_ub: [ 1 x_15_ ^ 2 - 2 x_44_ * x_15_ + 1 x_44_ ^ 2 + 1 y_15_ ^ 2 - 2 y_44_ * y_15_ + 1 y_44_ ^ 2 ] <= 16043.85
quadratic_ranged_124_ub: [ 1 x_18_ ^ 2 - 2 x_44_ * x_18_ + 1 x_44_ ^ 2 + 1 y_18_ ^ 2 - 2 y_44_ * y_18_ + 1 y_44_ ^ 2 ] <= 5633.78
quadratic_ranged_125_ub: [ 1 x_19_ ^ 2 - 2 x_44_ * x_19_ + 1 x_44_ ^ 2 + 1 y_19_ ^ 2 - 2 y_44_ * y_19_ + 1 y_44_ ^ 2 ] <= 20487.85
quadratic_ranged_126_ub: [ 1 x_26_ ^ 2 - 2 x_44_ * x_26_ + 1 x_44_ ^ 2 + 1 y_26_ ^ 2 - 2 y_44_ * y_26_ + 1 y_44_ ^ 2 ] <= 8746.6
quadratic_ranged_127_ub: [ 1 x_35_ ^ 2 - 2 x_44_ * x_35_ + 1 x_44_ ^ 2 + 1 y_35_ ^ 2 - 2 y_44_ * y_35_ + 1 y_44_ ^ 2 ] <= 14594.5
quadratic_ranged_128_ub: [ 1 x_43_ ^ 2 - 2 x_44_ * x_43_ + 1 x_44_ ^ 2 + 1 y_43_ ^ 2 - 2 y_44_ * y_43_ + 1 y_44_ ^ 2 ] <= 7039.7
quadratic_ranged_129_ub: [ 1 x_6_ ^ 2 - 2 x_45_ * x_6_ + 1 x_45_ ^ 2 + 1 y_6_ ^ 2 - 2 y_45_ * y_6_ + 1 y_45_ ^ 2 ] <= 13458.25
quadratic_ranged_130_ub: [ 1 x_19_ ^ 2 - 2 x_45_ * x_19_ + 1 x_45_ ^ 2 + 1 y_19_ ^ 2 - 2 y_45_ * y_19_ + 1 y_45_ ^ 2 ] <= 27117.49
quadratic_ranged_131_ub: [ 1 x_27_ ^ 2 - 2 x_45_ * x_27_ + 1 x_45_ ^ 2 + 1 y_27_ ^ 2 - 2 y_45_ * y_27_ + 1 y_45_ ^ 2 ] <= 4339.97
quadratic_ranged_132_ub: [ 1 x_29_ ^ 2 - 2 x_45_ * x_29_ + 1 x_45_ ^ 2 + 1 y_29_ ^ 2 - 2 y_45_ * y_29_ + 1 y_45_ ^ 2 ] <= 3080.5
quadratic_ranged_133_ub: [ 1 x_34_ ^ 2 - 2 x_45_ * x_34_ + 1 x_45_ ^ 2 + 1 y_34_ ^ 2 - 2 y_45_ * y_34_ + 1 y_45_ ^ 2 ] <= 6974.05
quadratic_ranged_134_ub: [ 1 x_39_ ^ 2 - 2 x_45_ * x_39_ + 1 x_45_ ^ 2 + 1 y_39_ ^ 2 - 2 y_45_ * y_39_ + 1 y_45_ ^ 2 ] <= 3854.16
quadratic_ranged_135_ub: [ 1 x_44_ ^ 2 - 2 x_45_ * x_44_ + 1 x_45_ ^ 2 + 1 y_44_ ^ 2 - 2 y_45_ * y_44_ + 1 y_45_ ^ 2 ] <= 3161.3
quadratic_ranged_136_ub: [ 1 x_16_ ^ 2 - 2 x_46_ * x_16_ + 1 x_46_ ^ 2 + 1 y_16_ ^ 2 - 2 y_46_ * y_16_ + 1 y_46_ ^ 2 ] <= 1264.52
quadratic_ranged_137_ub: [ 1 x_24_ ^ 2 - 2 x_46_ * x_24_ + 1 x_46_ ^ 2 + 1 y_24_ ^ 2 - 2 y_46_ * y_24_ + 1 y_46_ ^ 2 ] <= 8413.3
quadratic_ranged_138_ub: [ 1 x_35_ ^ 2 - 2 x_46_ * x_35_ + 1 x_46_ ^ 2 + 1 y_35_ ^ 2 - 2 y_46_ * y_35_ + 1 y_46_ ^ 2 ] <= 9439.460000000001
quadratic_ranged_139_ub: [ 1 x_37_ ^ 2 - 2 x_46_ * x_37_ + 1 x_46_ ^ 2 + 1 y_37_ ^ 2 - 2 y_46_ * y_37_ + 1 y_46_ ^ 2 ] <= 15567.130000000001
quadratic_ranged_140_ub: [ 1 x_45_ ^ 2 - 2 x_46_ * x_45_ + 1 x_46_ ^ 2 + 1 y_45_ ^ 2 - 2 y_46_ * y_45_ + 1 y_46_ ^ 2 ] <= 12808.82
quadratic_ranged_141_ub: [ 1 x_10_ ^ 2 - 2 x_47_ * x_10_ + 1 x_47_ ^ 2 + 1 y_10_ ^ 2 - 2 y_47_ * y_10_ + 1 y_47_ ^ 2 ] <= 28588.05
quadratic_ranged_142_ub: [ 1 x_11_ ^ 2 - 2 x_47_ * x_11_ + 1 x_47_ ^ 2 + 1 y_11_ ^ 2 - 2 y_47_ * y_11_ + 1 y_47_ ^ 2 ] <= 21001.94
quadratic_ranged_143_ub: [ 1 x_16_ ^ 2 - 2 x_47_ * x_16_ + 1 x_47_ ^ 2 + 1 y_16_ ^ 2 - 2 y_47_ * y_16_ + 1 y_47_ ^ 2 ] <= 18616.32
quadratic_ranged_144_ub: [ 1 x_27_ ^ 2 - 2 x_47_ * x_27_ + 1 x_47_ ^ 2 + 1 y_27_ ^ 2 - 2 y_47_ * y_27_ + 1 y_47_ ^ 2 ] <= 126.25
quadratic_ranged_145_ub: [ 1 x_37_ ^ 2 - 2 x_47_ * x_37_ + 1 x_47_ ^ 2 + 1 y_37_ ^ 2 - 2 y_47_ * y_37_ + 1 y_47_ ^ 2 ] <= 2235.13
quadratic_ranged_146_ub: [ 1 x_39_ ^ 2 - 2 x_47_ * x_39_ + 1 x_47_ ^ 2 + 1 y_39_ ^ 2 - 2 y_47_ * y_39_ + 1 y_47_ ^ 2 ] <= 131.3
quadratic_ranged_147_ub: [ 1 x_46_ ^ 2 - 2 x_47_ * x_46_ + 1 x_47_ ^ 2 + 1 y_46_ ^ 2 - 2 y_47_ * y_46_ + 1 y_47_ ^ 2 ] <= 19493
quadratic_ranged_148_ub: [ 1 x_3_ ^ 2 - 2 x_48_ * x_3_ + 1 x_48_ ^ 2 + 1 y_3_ ^ 2 - 2 y_48_ * y_3_ + 1 y_48_ ^ 2 ] <= 2391.68
quadratic_ranged_149_ub: [ 1 x_16_ ^ 2 - 2 x_48_ * x_16_ + 1 x_48_ ^ 2 + 1 y_16_ ^ 2 - 2 y_48_ * y_16_ + 1 y_48_ ^ 2 ] <= 9342.5
quadratic_ranged_150_ub: [ 1 x_18_ ^ 2 - 2 x_48_ * x_18_ + 1 x_48_ ^ 2 + 1 y_18_ ^ 2 - 2 y_48_ * y_18_ + 1 y_48_ ^ 2 ] <= 5308.56
quadratic_ranged_151_ub: [ 1 x_24_ ^ 2 - 2 x_48_ * x_24_ + 1 x_48_ ^ 2 + 1 y_24_ ^ 2 - 2 y_48_ * y_24_ + 1 y_48_ ^ 2 ] <= 12625
quadratic_ranged_152_ub: [ 1 x_33_ ^ 2 - 2 x_48_ * x_33_ + 1 x_48_ ^ 2 + 1 y_33_ ^ 2 - 2 y_48_ * y_33_ + 1 y_48_ ^ 2 ] <= 8928.4
quadratic_ranged_153_ub: [ 1 x_34_ ^ 2 - 2 x_48_ * x_34_ + 1 x_48_ ^ 2 + 1 y_34_ ^ 2 - 2 y_48_ * y_34_ + 1 y_48_ ^ 2 ] <= 1641.25
quadratic_ranged_154_ub: [ 1 x_35_ ^ 2 - 2 x_48_ * x_35_ + 1 x_48_ ^ 2 + 1 y_35_ ^ 2 - 2 y_48_ * y_35_ + 1 y_48_ ^ 2 ] <= 14624.8
quadratic_ranged_155_ub: [ 1 x_44_ ^ 2 - 2 x_48_ * x_44_ + 1 x_48_ ^ 2 + 1 y_44_ ^ 2 - 2 y_48_ * y_44_ + 1 y_48_ ^ 2 ] <= 10.1
quadratic_ranged_156_ub: [ 1 x_47_ ^ 2 - 2 x_48_ * x_47_ + 1 x_48_ ^ 2 + 1 y_47_ ^ 2 - 2 y_48_ * y_47_ + 1 y_48_ ^ 2 ] <= 1585.7
quadratic_ranged_157_ub: [ 1 x_11_ ^ 2 - 2 x_49_ * x_11_ + 1 x_49_ ^ 2 + 1 y_11_ ^ 2 - 2 y_49_ * y_11_ + 1 y_49_ ^ 2 ] <= 18054.76
quadratic_ranged_158_ub: [ 1 x_14_ ^ 2 - 2 x_49_ * x_14_ + 1 x_49_ ^ 2 + 1 y_14_ ^ 2 - 2 y_49_ * y_14_ + 1 y_49_ ^ 2 ] <= 3212.81
quadratic_ranged_159_ub: [ 1 x_19_ ^ 2 - 2 x_49_ * x_19_ + 1 x_49_ ^ 2 + 1 y_19_ ^ 2 - 2 y_49_ * y_19_ + 1 y_49_ ^ 2 ] <= 14912.65
quadratic_ranged_160_ub: [ 1 x_48_ ^ 2 - 2 x_49_ * x_48_ + 1 x_49_ ^ 2 + 1 y_48_ ^ 2 - 2 y_49_ * y_48_ + 1 y_49_ ^ 2 ] <= 4597.52
quadratic_ranged_161_ub: [ 1 x_5_ ^ 2 - 2 x_50_ * x_5_ + 1 x_50_ ^ 2 + 1 y_5_ ^ 2 - 2 y_50_ * y_5_ + 1 y_50_ ^ 2 ] <= 11862.45
quadratic_ranged_162_ub: [ 1 x_9_ ^ 2 - 2 x_50_ * x_9_ + 1 x_50_ ^ 2 + 1 y_9_ ^ 2 - 2 y_50_ * y_9_ + 1 y_50_ ^ 2 ] <= 18593.09
quadratic_ranged_163_ub: [ 1 x_11_ ^ 2 - 2 x_50_ * x_11_ + 1 x_50_ ^ 2 + 1 y_11_ ^ 2 - 2 y_50_ * y_11_ + 1 y_50_ ^ 2 ] <= 10182.82
quadratic_ranged_164_ub: [ 1 x_30_ ^ 2 - 2 x_50_ * x_30_ + 1 x_50_ ^ 2 + 1 y_30_ ^ 2 - 2 y_50_ * y_30_ + 1 y_50_ ^ 2 ] <= 11346.34
quadratic_ranged_165_ub: [ 1 x_45_ ^ 2 - 2 x_50_ * x_45_ + 1 x_50_ ^ 2 + 1 y_45_ ^ 2 - 2 y_50_ * y_45_ + 1 y_50_ ^ 2 ] <= 18634.5
quadratic_ranged_166_ub: [ 1 x_49_ ^ 2 - 2 x_50_ * x_49_ + 1 x_50_ ^ 2 + 1 y_49_ ^ 2 - 2 y_50_ * y_49_ + 1 y_50_ ^ 2 ] <= 3282.5
quadratic_ranged_167_ub: [ 1 x_4_ ^ 2 - 2 x_51_ * x_4_ + 1 x_51_ ^ 2 + 1 y_4_ ^ 2 - 2 y_51_ * y_4_ + 1 y_51_ ^ 2 ] <= 131.3
quadratic_ranged_168_ub: [ 1 x_6_ ^ 2 - 2 x_51_ * x_6_ + 1 x_51_ ^ 2 + 1 y_6_ ^ 2 - 2 y_51_ * y_6_ + 1 y_51_ ^ 2 ] <= 7225.54
quadratic_ranged_169_ub: [ 1 x_16_ ^ 2 - 2 x_51_ * x_16_ + 1 x_51_ ^ 2 + 1 y_16_ ^ 2 - 2 y_51_ * y_16_ + 1 y_51_ ^ 2 ] <= 6291.29
quadratic_ranged_170_ub: [ 1 x_29_ ^ 2 - 2 x_51_ * x_29_ + 1 x_51_ ^ 2 + 1 y_29_ ^ 2 - 2 y_51_ * y_29_ + 1 y_51_ ^ 2 ] <= 1786.69
quadratic_ranged_171_ub: [ 1 x_36_ ^ 2 - 2 x_51_ * x_36_ + 1 x_51_ ^ 2 + 1 y_36_ ^ 2 - 2 y_51_ * y_36_ + 1 y_51_ ^ 2 ] <= 380.77
quadratic_ranged_172_ub: [ 1 x_40_ ^ 2 - 2 x_51_ * x_40_ + 1 x_51_ ^ 2 + 1 y_40_ ^ 2 - 2 y_51_ * y_40_ + 1 y_51_ ^ 2 ] <= 14775.29
quadratic_ranged_173_ub: [ 1 x_45_ ^ 2 - 2 x_51_ * x_45_ + 1 x_51_ ^ 2 + 1 y_45_ ^ 2 - 2 y_51_ * y_45_ + 1 y_51_ ^ 2 ] <= 7462.89
quadratic_ranged_174_ub: [ 1 x_50_ ^ 2 - 2 x_51_ * x_50_ + 1 x_51_ ^ 2 + 1 y_50_ ^ 2 - 2 y_51_ * y_50_ + 1 y_51_ ^ 2 ] <= 12371.49
quadratic_ranged_175_ub: [ 1 x_2_ ^ 2 - 2 x_52_ * x_2_ + 1 x_52_ ^ 2 + 1 y_2_ ^ 2 - 2 y_52_ * y_2_ + 1 y_52_ ^ 2 ] <= 7648.7300000000005
quadratic_ranged_176_ub: [ 1 x_12_ ^ 2 - 2 x_52_ * x_12_ + 1 x_52_ ^ 2 + 1 y_12_ ^ 2 - 2 y_52_ * y_12_ + 1 y_52_ ^ 2 ] <= 1806.89
quadratic_ranged_177_ub: [ 1 x_21_ ^ 2 - 2 x_52_ * x_21_ + 1 x_52_ ^ 2 + 1 y_21_ ^ 2 - 2 y_52_ * y_21_ + 1 y_52_ ^ 2 ] <= 12791.65
quadratic_ranged_178_ub: [ 1 x_25_ ^ 2 - 2 x_52_ * x_25_ + 1 x_52_ ^ 2 + 1 y_25_ ^ 2 - 2 y_52_ * y_25_ + 1 y_52_ ^ 2 ] <= 2554.29
quadratic_ranged_179_ub: [ 1 x_44_ ^ 2 - 2 x_52_ * x_44_ + 1 x_52_ ^ 2 + 1 y_44_ ^ 2 - 2 y_52_ * y_44_ + 1 y_52_ ^ 2 ] <= 5050
quadratic_ranged_180_ub: [ 1 x_51_ ^ 2 - 2 x_52_ * x_51_ + 1 x_52_ ^ 2 + 1 y_51_ ^ 2 - 2 y_52_ * y_51_ + 1 y_52_ ^ 2 ] <= 7725.49
quadratic_ranged_181_ub: [ 1 x_3_ ^ 2 - 2 x_53_ * x_3_ + 1 x_53_ ^ 2 + 1 y_3_ ^ 2 - 2 y_53_ * y_3_ + 1 y_53_ ^ 2 ] <= 1325.1200000000001
quadratic_ranged_182_ub: [ 1 x_11_ ^ 2 - 2 x_53_ * x_11_ + 1 x_53_ ^ 2 + 1 y_11_ ^ 2 - 2 y_53_ * y_11_ + 1 y_53_ ^ 2 ] <= 24745
quadratic_ranged_183_ub: [ 1 x_15_ ^ 2 - 2 x_53_ * x_15_ + 1 x_53_ ^ 2 + 1 y_15_ ^ 2 - 2 y_53_ * y_15_ + 1 y_53_ ^ 2 ] <= 17469.97
quadratic_ranged_184_ub: [ 1 x_22_ ^ 2 - 2 x_53_ * x_22_ + 1 x_53_ ^ 2 + 1 y_22_ ^ 2 - 2 y_53_ * y_22_ + 1 y_53_ ^ 2 ] <= 18185.05
quadratic_ranged_185_ub: [ 1 x_25_ ^ 2 - 2 x_53_ * x_25_ + 1 x_53_ ^ 2 + 1 y_25_ ^ 2 - 2 y_53_ * y_25_ + 1 y_53_ ^ 2 ] <= 15280.29
quadratic_ranged_186_ub: [ 1 x_26_ ^ 2 - 2 x_53_ * x_26_ + 1 x_53_ ^ 2 + 1 y_26_ ^ 2 - 2 y_53_ * y_26_ + 1 y_53_ ^ 2 ] <= 1545.3
quadratic_ranged_187_ub: [ 1 x_30_ ^ 2 - 2 x_53_ * x_30_ + 1 x_53_ ^ 2 + 1 y_30_ ^ 2 - 2 y_53_ * y_30_ + 1 y_53_ ^ 2 ] <= 7033.64
quadratic_ranged_188_ub: [ 1 x_34_ ^ 2 - 2 x_53_ * x_34_ + 1 x_53_ ^ 2 + 1 y_34_ ^ 2 - 2 y_53_ * y_34_ + 1 y_53_ ^ 2 ] <= 4218.77
quadratic_ranged_189_ub: [ 1 x_39_ ^ 2 - 2 x_53_ * x_39_ + 1 x_53_ ^ 2 + 1 y_39_ ^ 2 - 2 y_53_ * y_39_ + 1 y_53_ ^ 2 ] <= 4080.4
quadratic_ranged_190_ub: [ 1 x_42_ ^ 2 - 2 x_53_ * x_42_ + 1 x_53_ ^ 2 + 1 y_42_ ^ 2 - 2 y_53_ * y_42_ + 1 y_53_ ^ 2 ] <= 17029.61
quadratic_ranged_191_ub: [ 1 x_52_ ^ 2 - 2 x_53_ * x_52_ + 1 x_53_ ^ 2 + 1 y_52_ ^ 2 - 2 y_53_ * y_52_ + 1 y_53_ ^ 2 ] <= 16816.5
quadratic_ranged_192_ub: [ 1 x_9_ ^ 2 - 2 x_54_ * x_9_ + 1 x_54_ ^ 2 + 1 y_9_ ^ 2 - 2 y_54_ * y_9_ + 1 y_54_ ^ 2 ] <= 10126.26
quadratic_ranged_193_ub: [ 1 x_12_ ^ 2 - 2 x_54_ * x_12_ + 1 x_54_ ^ 2 + 1 y_12_ ^ 2 - 2 y_54_ * y_12_ + 1 y_54_ ^ 2 ] <= 3928.9
quadratic_ranged_194_ub: [ 1 x_13_ ^ 2 - 2 x_54_ * x_13_ + 1 x_54_ ^ 2 + 1 y_13_ ^ 2 - 2 y_54_ * y_13_ + 1 y_54_ ^ 2 ] <= 1862.44
quadratic_ranged_195_ub: [ 1 x_29_ ^ 2 - 2 x_54_ * x_29_ + 1 x_54_ ^ 2 + 1 y_29_ ^ 2 - 2 y_54_ * y_29_ + 1 y_54_ ^ 2 ] <= 4533.89
quadratic_ranged_196_ub: [ 1 x_41_ ^ 2 - 2 x_54_ * x_41_ + 1 x_54_ ^ 2 + 1 y_41_ ^ 2 - 2 y_54_ * y_41_ + 1 y_54_ ^ 2 ] <= 14464.210000000001
quadratic_ranged_197_ub: [ 1 x_48_ ^ 2 - 2 x_54_ * x_48_ + 1 x_54_ ^ 2 + 1 y_48_ ^ 2 - 2 y_54_ * y_48_ + 1 y_54_ ^ 2 ] <= 2012.93
quadratic_ranged_198_ub: [ 1 x_49_ ^ 2 - 2 x_54_ * x_49_ + 1 x_54_ ^ 2 + 1 y_49_ ^ 2 - 2 y_54_ * y_49_ + 1 y_54_ ^ 2 ] <= 12682.57
quadratic_ranged_199_ub: [ 1 x_53_ ^ 2 - 2 x_54_ * x_53_ + 1 x_54_ ^ 2 + 1 y_53_ ^ 2 - 2 y_54_ * y_53_ + 1 y_54_ ^ 2 ] <= 10812.05
quadratic_ranged_200_ub: [ 1 x_9_ ^ 2 - 2 x_55_ * x_9_ + 1 x_55_ ^ 2 + 1 y_9_ ^ 2 - 2 y_55_ * y_9_ + 1 y_55_ ^ 2 ] <= 4318.76
quadratic_ranged_201_ub: [ 1 x_22_ ^ 2 - 2 x_55_ * x_22_ + 1 x_55_ ^ 2 + 1 y_22_ ^ 2 - 2 y_55_ * y_22_ + 1 y_55_ ^ 2 ] <= 210.08
quadratic_ranged_202_ub: [ 1 x_40_ ^ 2 - 2 x_55_ * x_40_ + 1 x_55_ ^ 2 + 1 y_40_ ^ 2 - 2 y_55_ * y_40_ + 1 y_55_ ^ 2 ] <= 3237.05
quadratic_ranged_203_ub: [ 1 x_52_ ^ 2 - 2 x_55_ * x_52_ + 1 x_55_ ^ 2 + 1 y_52_ ^ 2 - 2 y_55_ * y_52_ + 1 y_55_ ^ 2 ] <= 453.49
quadratic_ranged_204_ub: [ 1 x_54_ ^ 2 - 2 x_55_ * x_54_ + 1 x_55_ ^ 2 + 1 y_54_ ^ 2 - 2 y_55_ * y_54_ + 1 y_55_ ^ 2 ] <= 1658.42
quadratic_ranged_205_ub: [ 1 x_28_ ^ 2 - 2 x_56_ * x_28_ + 1 x_56_ ^ 2 + 1 y_28_ ^ 2 - 2 y_56_ * y_28_ + 1 y_56_ ^ 2 ] <= 1213.01
quadratic_ranged_206_ub: [ 1 x_45_ ^ 2 - 2 x_56_ * x_45_ + 1 x_56_ ^ 2 + 1 y_45_ ^ 2 - 2 y_56_ * y_45_ + 1 y_56_ ^ 2 ] <= 7398.25
quadratic_ranged_207_ub: [ 1 x_52_ ^ 2 - 2 x_56_ * x_52_ + 1 x_56_ ^ 2 + 1 y_52_ ^ 2 - 2 y_56_ * y_52_ + 1 y_56_ ^ 2 ] <= 10169.69
quadratic_ranged_208_ub: [ 1 x_55_ ^ 2 - 2 x_56_ * x_55_ + 1 x_56_ ^ 2 + 1 y_55_ ^ 2 - 2 y_56_ * y_55_ + 1 y_56_ ^ 2 ] <= 11413
quadratic_ranged_209_ub: [ 1 x_3_ ^ 2 - 2 x_57_ * x_3_ + 1 x_57_ ^ 2 + 1 y_3_ ^ 2 - 2 y_57_ * y_3_ + 1 y_57_ ^ 2 ] <= 16111.52
quadratic_ranged_210_ub: [ 1 x_9_ ^ 2 - 2 x_57_ * x_9_ + 1 x_57_ ^ 2 + 1 y_9_ ^ 2 - 2 y_57_ * y_9_ + 1 y_57_ ^ 2 ] <= 4873.25
quadratic_ranged_211_ub: [ 1 x_12_ ^ 2 - 2 x_57_ * x_12_ + 1 x_57_ ^ 2 + 1 y_12_ ^ 2 - 2 y_57_ * y_12_ + 1 y_57_ ^ 2 ] <= 7830.53
quadratic_ranged_212_ub: [ 1 x_20_ ^ 2 - 2 x_57_ * x_20_ + 1 x_57_ ^ 2 + 1 y_20_ ^ 2 - 2 y_57_ * y_20_ + 1 y_57_ ^ 2 ] <= 445.41
quadratic_ranged_213_ub: [ 1 x_22_ ^ 2 - 2 x_57_ * x_22_ + 1 x_57_ ^ 2 + 1 y_22_ ^ 2 - 2 y_57_ * y_22_ + 1 y_57_ ^ 2 ] <= 5822.65
quadratic_ranged_214_ub: [ 1 x_23_ ^ 2 - 2 x_57_ * x_23_ + 1 x_57_ ^ 2 + 1 y_23_ ^ 2 - 2 y_57_ * y_23_ + 1 y_57_ ^ 2 ] <= 2517.93
quadratic_ranged_215_ub: [ 1 x_39_ ^ 2 - 2 x_57_ * x_39_ + 1 x_57_ ^ 2 + 1 y_39_ ^ 2 - 2 y_57_ * y_39_ + 1 y_57_ ^ 2 ] <= 13873.36
quadratic_ranged_216_ub: [ 1 x_52_ ^ 2 - 2 x_57_ * x_52_ + 1 x_57_ ^ 2 + 1 y_52_ ^ 2 - 2 y_57_ * y_52_ + 1 y_57_ ^ 2 ] <= 10780.74
quadratic_ranged_217_ub: [ 1 x_56_ ^ 2 - 2 x_57_ * x_56_ + 1 x_57_ ^ 2 + 1 y_56_ ^ 2 - 2 y_57_ * y_56_ + 1 y_57_ ^ 2 ] <= 9151.61
quadratic_ranged_218_ub: [ 1 x_11_ ^ 2 - 2 x_58_ * x_11_ + 1 x_58_ ^ 2 + 1 y_11_ ^ 2 - 2 y_58_ * y_11_ + 1 y_58_ ^ 2 ] <= 1989.7
quadratic_ranged_219_ub: [ 1 x_15_ ^ 2 - 2 x_58_ * x_15_ + 1 x_58_ ^ 2 + 1 y_15_ ^ 2 - 2 y_58_ * y_15_ + 1 y_58_ ^ 2 ] <= 2279.57
quadratic_ranged_220_ub: [ 1 x_21_ ^ 2 - 2 x_58_ * x_21_ + 1 x_58_ ^ 2 + 1 y_21_ ^ 2 - 2 y_58_ * y_21_ + 1 y_58_ ^ 2 ] <= 1447.33
quadratic_ranged_221_ub: [ 1 x_23_ ^ 2 - 2 x_58_ * x_23_ + 1 x_58_ ^ 2 + 1 y_23_ ^ 2 - 2 y_58_ * y_23_ + 1 y_58_ ^ 2 ] <= 2752.25
quadratic_ranged_222_ub: [ 1 x_29_ ^ 2 - 2 x_58_ * x_29_ + 1 x_58_ ^ 2 + 1 y_29_ ^ 2 - 2 y_58_ * y_29_ + 1 y_58_ ^ 2 ] <= 10912.04
quadratic_ranged_223_ub: [ 1 x_32_ ^ 2 - 2 x_58_ * x_32_ + 1 x_58_ ^ 2 + 1 y_32_ ^ 2 - 2 y_58_ * y_32_ + 1 y_58_ ^ 2 ] <= 22036.18
quadratic_ranged_224_ub: [ 1 x_35_ ^ 2 - 2 x_58_ * x_35_ + 1 x_58_ ^ 2 + 1 y_35_ ^ 2 - 2 y_58_ * y_35_ + 1 y_58_ ^ 2 ] <= 7815.38
quadratic_ranged_225_ub: [ 1 x_38_ ^ 2 - 2 x_58_ * x_38_ + 1 x_58_ ^ 2 + 1 y_38_ ^ 2 - 2 y_58_ * y_38_ + 1 y_58_ ^ 2 ] <= 30373.73
quadratic_ranged_226_ub: [ 1 x_57_ ^ 2 - 2 x_58_ * x_57_ + 1 x_58_ ^ 2 + 1 y_57_ ^ 2 - 2 y_58_ * y_57_ + 1 y_58_ ^ 2 ] <= 1270.58
quadratic_ranged_227_ub: [ 1 x_13_ ^ 2 - 2 x_59_ * x_13_ + 1 x_59_ ^ 2 + 1 y_13_ ^ 2 - 2 y_59_ * y_13_ + 1 y_59_ ^ 2 ] <= 34622.8
quadratic_ranged_228_ub: [ 1 x_21_ ^ 2 - 2 x_59_ * x_21_ + 1 x_59_ ^ 2 + 1 y_21_ ^ 2 - 2 y_59_ * y_21_ + 1 y_59_ ^ 2 ] <= 7257.86
quadratic_ranged_229_ub: [ 1 x_36_ ^ 2 - 2 x_59_ * x_36_ + 1 x_59_ ^ 2 + 1 y_36_ ^ 2 - 2 y_59_ * y_36_ + 1 y_59_ ^ 2 ] <= 12125.05
quadratic_ranged_230_ub: [ 1 x_38_ ^ 2 - 2 x_59_ * x_38_ + 1 x_59_ ^ 2 + 1 y_38_ ^ 2 - 2 y_59_ * y_38_ + 1 y_59_ ^ 2 ] <= 52604.840000000004
quadratic_ranged_231_ub: [ 1 x_39_ ^ 2 - 2 x_59_ * x_39_ + 1 x_59_ ^ 2 + 1 y_39_ ^ 2 - 2 y_59_ * y_39_ + 1 y_59_ ^ 2 ] <= 41293.85
quadratic_ranged_232_ub: [ 1 x_58_ ^ 2 - 2 x_59_ * x_58_ + 1 x_59_ ^ 2 + 1 y_58_ ^ 2 - 2 y_59_ * y_58_ + 1 y_59_ ^ 2 ] <= 3055.25
quadratic_ranged_233_ub: [ 1 x_6_ ^ 2 - 2 x_60_ * x_6_ + 1 x_60_ ^ 2 + 1 y_6_ ^ 2 - 2 y_60_ * y_6_ + 1 y_60_ ^ 2 ] <= 52366.48
quadratic_ranged_234_ub: [ 1 x_16_ ^ 2 - 2 x_60_ * x_16_ + 1 x_60_ ^ 2 + 1 y_16_ ^ 2 - 2 y_60_ * y_16_ + 1 y_60_ ^ 2 ] <= 6780.13
quadratic_ranged_235_ub: [ 1 x_18_ ^ 2 - 2 x_60_ * x_18_ + 1 x_60_ ^ 2 + 1 y_18_ ^ 2 - 2 y_60_ * y_18_ + 1 y_60_ ^ 2 ] <= 27638.65
quadratic_ranged_236_ub: [ 1 x_29_ ^ 2 - 2 x_60_ * x_29_ + 1 x_60_ ^ 2 + 1 y_29_ ^ 2 - 2 y_60_ * y_29_ + 1 y_60_ ^ 2 ] <= 26879.13
quadratic_ranged_237_ub: [ 1 x_37_ ^ 2 - 2 x_60_ * x_37_ + 1 x_60_ ^ 2 + 1 y_37_ ^ 2 - 2 y_60_ * y_37_ + 1 y_60_ ^ 2 ] <= 6433.7
quadratic_ranged_238_ub: [ 1 x_41_ ^ 2 - 2 x_60_ * x_41_ + 1 x_60_ ^ 2 + 1 y_41_ ^ 2 - 2 y_60_ * y_41_ + 1 y_60_ ^ 2 ] <= 12525.01
quadratic_ranged_239_ub: [ 1 x_50_ ^ 2 - 2 x_60_ * x_50_ + 1 x_60_ ^ 2 + 1 y_50_ ^ 2 - 2 y_60_ * y_50_ + 1 y_60_ ^ 2 ] <= 2295.73
quadratic_ranged_240_ub: [ 1 x_55_ ^ 2 - 2 x_60_ * x_55_ + 1 x_60_ ^ 2 + 1 y_55_ ^ 2 - 2 y_60_ * y_55_ + 1 y_60_ ^ 2 ] <= 25938.82
quadratic_ranged_241_ub: [ 1 x_58_ ^ 2 - 2 x_60_ * x_58_ + 1 x_60_ ^ 2 + 1 y_58_ ^ 2 - 2 y_60_ * y_58_ + 1 y_60_ ^ 2 ] <= 12872.45
quadratic_ranged_242_ub: [ 1 x_59_ ^ 2 - 2 x_60_ * x_59_ + 1 x_60_ ^ 2 + 1 y_59_ ^ 2 - 2 y_60_ * y_59_ + 1 y_60_ ^ 2 ] <= 19860.64
quadratic_ranged_243_ub: [ 1 x_3_ ^ 2 - 2 x_61_ * x_3_ + 1 x_61_ ^ 2 + 1 y_3_ ^ 2 - 2 y_61_ * y_3_ + 1 y_61_ ^ 2 ] <= 5391.38
quadratic_ranged_244_ub: [ 1 x_11_ ^ 2 - 2 x_61_ * x_11_ + 1 x_61_ ^ 2 + 1 y_11_ ^ 2 - 2 y_61_ * y_11_ + 1 y_61_ ^ 2 ] <= 9964.66
quadratic_ranged_245_ub: [ 1 x_17_ ^ 2 - 2 x_61_ * x_17_ + 1 x_61_ ^ 2 + 1 y_17_ ^ 2 - 2 y_61_ * y_17_ + 1 y_61_ ^ 2 ] <= 1365.52
quadratic_ranged_246_ub: [ 1 x_42_ ^ 2 - 2 x_61_ * x_42_ + 1 x_61_ ^ 2 + 1 y_42_ ^ 2 - 2 y_61_ * y_42_ + 1 y_61_ ^ 2 ] <= 11822.05
quadratic_ranged_247_ub: [ 1 x_46_ ^ 2 - 2 x_61_ * x_46_ + 1 x_61_ ^ 2 + 1 y_46_ ^ 2 - 2 y_61_ * y_46_ + 1 y_61_ ^ 2 ] <= 6161
quadratic_ranged_248_ub: [ 1 x_60_ ^ 2 - 2 x_61_ * x_60_ + 1 x_61_ ^ 2 + 1 y_60_ ^ 2 - 2 y_61_ * y_60_ + 1 y_61_ ^ 2 ] <= 3059.29
quadratic_ranged_249_ub: [ 1 x_10_ ^ 2 - 2 x_62_ * x_10_ + 1 x_62_ ^ 2 + 1 y_10_ ^ 2 - 2 y_62_ * y_10_ + 1 y_62_ ^ 2 ] <= 3398.65
quadratic_ranged_250_ub: [ 1 x_12_ ^ 2 - 2 x_62_ * x_12_ + 1 x_62_ ^ 2 + 1 y_12_ ^ 2 - 2 y_62_ * y_12_ + 1 y_62_ ^ 2 ] <= 3176.45
quadratic_ranged_251_ub: [ 1 x_13_ ^ 2 - 2 x_62_ * x_13_ + 1 x_62_ ^ 2 + 1 y_13_ ^ 2 - 2 y_62_ * y_13_ + 1 y_62_ ^ 2 ] <= 5471.17
quadratic_ranged_252_ub: [ 1 x_31_ ^ 2 - 2 x_62_ * x_31_ + 1 x_62_ ^ 2 + 1 y_31_ ^ 2 - 2 y_62_ * y_31_ + 1 y_62_ ^ 2 ] <= 17624.5
quadratic_ranged_253_ub: [ 1 x_45_ ^ 2 - 2 x_62_ * x_45_ + 1 x_62_ ^ 2 + 1 y_45_ ^ 2 - 2 y_62_ * y_45_ + 1 y_62_ ^ 2 ] <= 6904.36
quadratic_ranged_254_ub: [ 1 x_61_ ^ 2 - 2 x_62_ * x_61_ + 1 x_62_ ^ 2 + 1 y_61_ ^ 2 - 2 y_62_ * y_61_ + 1 y_62_ ^ 2 ] <= 8728.42
quadratic_ranged_255_ub: [ 1 x_1_ ^ 2 - 2 x_63_ * x_1_ + 1 x_63_ ^ 2 + 1 y_1_ ^ 2 - 2 y_63_ * y_1_ + 1 y_63_ ^ 2 ] <= 2691.65
quadratic_ranged_256_ub: [ 1 x_14_ ^ 2 - 2 x_63_ * x_14_ + 1 x_63_ ^ 2 + 1 y_14_ ^ 2 - 2 y_63_ * y_14_ + 1 y_63_ ^ 2 ] <= 9369.77
quadratic_ranged_257_ub: [ 1 x_22_ ^ 2 - 2 x_63_ * x_22_ + 1 x_63_ ^ 2 + 1 y_22_ ^ 2 - 2 y_63_ * y_22_ + 1 y_63_ ^ 2 ] <= 3418.85
quadratic_ranged_258_ub: [ 1 x_37_ ^ 2 - 2 x_63_ * x_37_ + 1 x_63_ ^ 2 + 1 y_37_ ^ 2 - 2 y_63_ * y_37_ + 1 y_63_ ^ 2 ] <= 4186.45
quadratic_ranged_259_ub: [ 1 x_42_ ^ 2 - 2 x_63_ * x_42_ + 1 x_63_ ^ 2 + 1 y_42_ ^ 2 - 2 y_63_ * y_42_ + 1 y_63_ ^ 2 ] <= 5398.45
quadratic_ranged_260_ub: [ 1 x_54_ ^ 2 - 2 x_63_ * x_54_ + 1 x_63_ ^ 2 + 1 y_54_ ^ 2 - 2 y_63_ * y_54_ + 1 y_63_ ^ 2 ] <= 3479.45
quadratic_ranged_261_ub: [ 1 x_62_ ^ 2 - 2 x_63_ * x_62_ + 1 x_63_ ^ 2 + 1 y_62_ ^ 2 - 2 y_63_ * y_62_ + 1 y_63_ ^ 2 ] <= 3743.06
quadratic_ranged_262_ub: [ 1 x_6_ ^ 2 - 2 x_64_ * x_6_ + 1 x_64_ ^ 2 + 1 y_6_ ^ 2 - 2 y_64_ * y_6_ + 1 y_64_ ^ 2 ] <= 24778.33
quadratic_ranged_263_ub: [ 1 x_22_ ^ 2 - 2 x_64_ * x_22_ + 1 x_64_ ^ 2 + 1 y_22_ ^ 2 - 2 y_64_ * y_22_ + 1 y_64_ ^ 2 ] <= 6780.13
quadratic_ranged_264_ub: [ 1 x_35_ ^ 2 - 2 x_64_ * x_35_ + 1 x_64_ ^ 2 + 1 y_35_ ^ 2 - 2 y_64_ * y_35_ + 1 y_64_ ^ 2 ] <= 6627.62
quadratic_ranged_265_ub: [ 1 x_45_ ^ 2 - 2 x_64_ * x_45_ + 1 x_64_ ^ 2 + 1 y_45_ ^ 2 - 2 y_64_ * y_45_ + 1 y_64_ ^ 2 ] <= 7007.38
quadratic_ranged_266_ub: [ 1 x_59_ ^ 2 - 2 x_64_ * x_59_ + 1 x_64_ ^ 2 + 1 y_59_ ^ 2 - 2 y_64_ * y_59_ + 1 y_64_ ^ 2 ] <= 14973.25
quadratic_ranged_267_ub: [ 1 x_63_ ^ 2 - 2 x_64_ * x_63_ + 1 x_64_ ^ 2 + 1 y_63_ ^ 2 - 2 y_64_ * y_63_ + 1 y_64_ ^ 2 ] <= 597.92
quadratic_ranged_268_ub: [ 1 x_11_ ^ 2 - 2 x_65_ * x_11_ + 1 x_65_ ^ 2 + 1 y_11_ ^ 2 - 2 y_65_ * y_11_ + 1 y_65_ ^ 2 ] <= 8812.25
quadratic_ranged_269_ub: [ 1 x_24_ ^ 2 - 2 x_65_ * x_24_ + 1 x_65_ ^ 2 + 1 y_24_ ^ 2 - 2 y_65_ * y_24_ + 1 y_65_ ^ 2 ] <= 809.01
quadratic_ranged_270_ub: [ 1 x_28_ ^ 2 - 2 x_65_ * x_28_ + 1 x_65_ ^ 2 + 1 y_28_ ^ 2 - 2 y_65_ * y_28_ + 1 y_65_ ^ 2 ] <= 12137.17
quadratic_ranged_271_ub: [ 1 x_46_ ^ 2 - 2 x_65_ * x_46_ + 1 x_65_ ^ 2 + 1 y_46_ ^ 2 - 2 y_65_ * y_46_ + 1 y_65_ ^ 2 ] <= 13421.89
quadratic_ranged_272_ub: [ 1 x_47_ ^ 2 - 2 x_65_ * x_47_ + 1 x_65_ ^ 2 + 1 y_47_ ^ 2 - 2 y_65_ * y_47_ + 1 y_65_ ^ 2 ] <= 14714.69
quadratic_ranged_273_ub: [ 1 x_64_ ^ 2 - 2 x_65_ * x_64_ + 1 x_65_ ^ 2 + 1 y_64_ ^ 2 - 2 y_65_ * y_64_ + 1 y_65_ ^ 2 ] <= 14944.97
quadratic_ranged_274_ub: [ 1 x_13_ ^ 2 - 2 x_66_ * x_13_ + 1 x_66_ ^ 2 + 1 y_13_ ^ 2 - 2 y_66_ * y_13_ + 1 y_66_ ^ 2 ] <= 1262.5
quadratic_ranged_275_ub: [ 1 x_14_ ^ 2 - 2 x_66_ * x_14_ + 1 x_66_ ^ 2 + 1 y_14_ ^ 2 - 2 y_66_ * y_14_ + 1 y_66_ ^ 2 ] <= 32465.44
quadratic_ranged_276_ub: [ 1 x_18_ ^ 2 - 2 x_66_ * x_18_ + 1 x_66_ ^ 2 + 1 y_18_ ^ 2 - 2 y_66_ * y_18_ + 1 y_66_ ^ 2 ] <= 2824.97
quadratic_ranged_277_ub: [ 1 x_30_ ^ 2 - 2 x_66_ * x_30_ + 1 x_66_ ^ 2 + 1 y_30_ ^ 2 - 2 y_66_ * y_30_ + 1 y_66_ ^ 2 ] <= 8670.85
quadratic_ranged_278_ub: [ 1 x_33_ ^ 2 - 2 x_66_ * x_33_ + 1 x_66_ ^ 2 + 1 y_33_ ^ 2 - 2 y_66_ * y_33_ + 1 y_66_ ^ 2 ] <= 1241.29
quadratic_ranged_279_ub: [ 1 x_37_ ^ 2 - 2 x_66_ * x_37_ + 1 x_66_ ^ 2 + 1 y_37_ ^ 2 - 2 y_66_ * y_37_ + 1 y_66_ ^ 2 ] <= 21921.04
quadratic_ranged_280_ub: [ 1 x_39_ ^ 2 - 2 x_66_ * x_39_ + 1 x_66_ ^ 2 + 1 y_39_ ^ 2 - 2 y_66_ * y_39_ + 1 y_66_ ^ 2 ] <= 16326.65
quadratic_ranged_281_ub: [ 1 x_46_ ^ 2 - 2 x_66_ * x_46_ + 1 x_66_ ^ 2 + 1 y_46_ ^ 2 - 2 y_66_ * y_46_ + 1 y_66_ ^ 2 ] <= 14932.85
quadratic_ranged_282_ub: [ 1 x_54_ ^ 2 - 2 x_66_ * x_54_ + 1 x_66_ ^ 2 + 1 y_54_ ^ 2 - 2 y_66_ * y_54_ + 1 y_66_ ^ 2 ] <= 6191.3
quadratic_ranged_283_ub: [ 1 x_63_ ^ 2 - 2 x_66_ * x_63_ + 1 x_66_ ^ 2 + 1 y_63_ ^ 2 - 2 y_66_ * y_63_ + 1 y_66_ ^ 2 ] <= 10500.97
quadratic_ranged_284_ub: [ 1 x_65_ ^ 2 - 2 x_66_ * x_65_ + 1 x_66_ ^ 2 + 1 y_65_ ^ 2 - 2 y_66_ * y_65_ + 1 y_66_ ^ 2 ] <= 52.52
quadratic_ranged_285_ub: [ 1 x_52_ ^ 2 - 2 x_67_ * x_52_ + 1 x_67_ ^ 2 + 1 y_52_ ^ 2 - 2 y_67_ * y_52_ + 1 y_67_ ^ 2 ] <= 5367.14
quadratic_ranged_286_ub: [ 1 x_66_ ^ 2 - 2 x_67_ * x_66_ + 1 x_67_ ^ 2 + 1 y_66_ ^ 2 - 2 y_67_ * y_66_ + 1 y_67_ ^ 2 ] <= 2958.29
quadratic_ranged_287_ub: [ 1 x_2_ ^ 2 - 2 x_68_ * x_2_ + 1 x_68_ ^ 2 + 1 y_2_ ^ 2 - 2 y_68_ * y_2_ + 1 y_68_ ^ 2 ] <= 37370
quadratic_ranged_288_ub: [ 1 x_4_ ^ 2 - 2 x_68_ * x_4_ + 1 x_68_ ^ 2 + 1 y_4_ ^ 2 - 2 y_68_ * y_4_ + 1 y_68_ ^ 2 ] <= 21335.24
quadratic_ranged_289_ub: [ 1 x_9_ ^ 2 - 2 x_68_ * x_9_ + 1 x_68_ ^ 2 + 1 y_9_ ^ 2 - 2 y_68_ * y_9_ + 1 y_68_ ^ 2 ] <= 26472.1
quadratic_ranged_290_ub: [ 1 x_27_ ^ 2 - 2 x_68_ * x_27_ + 1 x_68_ ^ 2 + 1 y_27_ ^ 2 - 2 y_68_ * y_27_ + 1 y_68_ ^ 2 ] <= 22674.5
quadratic_ranged_291_ub: [ 1 x_33_ ^ 2 - 2 x_68_ * x_33_ + 1 x_68_ ^ 2 + 1 y_33_ ^ 2 - 2 y_68_ * y_33_ + 1 y_68_ ^ 2 ] <= 37948.73
quadratic_ranged_292_ub: [ 1 x_36_ ^ 2 - 2 x_68_ * x_36_ + 1 x_68_ ^ 2 + 1 y_36_ ^ 2 - 2 y_68_ * y_36_ + 1 y_68_ ^ 2 ] <= 14403.61
quadratic_ranged_293_ub: [ 1 x_66_ ^ 2 - 2 x_68_ * x_66_ + 1 x_68_ ^ 2 + 1 y_66_ ^ 2 - 2 y_68_ * y_66_ + 1 y_68_ ^ 2 ] <= 39682.9
quadratic_ranged_294_ub: [ 1 x_67_ ^ 2 - 2 x_68_ * x_67_ + 1 x_68_ ^ 2 + 1 y_67_ ^ 2 - 2 y_68_ * y_67_ + 1 y_68_ ^ 2 ] <= 24184.45
quadratic_ranged_295_ub: [ 1 x_27_ ^ 2 - 2 x_69_ * x_27_ + 1 x_69_ ^ 2 + 1 y_27_ ^ 2 - 2 y_69_ * y_27_ + 1 y_69_ ^ 2 ] <= 3918.8
quadratic_ranged_296_ub: [ 1 x_36_ ^ 2 - 2 x_69_ * x_36_ + 1 x_69_ ^ 2 + 1 y_36_ ^ 2 - 2 y_69_ * y_36_ + 1 y_69_ ^ 2 ] <= 14225.85
quadratic_ranged_297_ub: [ 1 x_49_ ^ 2 - 2 x_69_ * x_49_ + 1 x_69_ ^ 2 + 1 y_49_ ^ 2 - 2 y_69_ * y_49_ + 1 y_69_ ^ 2 ] <= 1083.73
quadratic_ranged_298_ub: [ 1 x_52_ ^ 2 - 2 x_69_ * x_52_ + 1 x_69_ ^ 2 + 1 y_52_ ^ 2 - 2 y_69_ * y_52_ + 1 y_69_ ^ 2 ] <= 13781.45
quadratic_ranged_299_ub: [ 1 x_55_ ^ 2 - 2 x_69_ * x_55_ + 1 x_69_ ^ 2 + 1 y_55_ ^ 2 - 2 y_69_ * y_55_ + 1 y_69_ ^ 2 ] <= 15339.880000000001
quadratic_ranged_300_ub: [ 1 x_60_ ^ 2 - 2 x_69_ * x_60_ + 1 x_69_ ^ 2 + 1 y_60_ ^ 2 - 2 y_69_ * y_60_ + 1 y_69_ ^ 2 ] <= 3815.78
quadratic_ranged_301_ub: [ 1 x_65_ ^ 2 - 2 x_69_ * x_65_ + 1 x_69_ ^ 2 + 1 y_65_ ^ 2 - 2 y_69_ * y_65_ + 1 y_69_ ^ 2 ] <= 26260
quadratic_ranged_302_ub: [ 1 x_68_ ^ 2 - 2 x_69_ * x_68_ + 1 x_69_ ^ 2 + 1 y_68_ ^ 2 - 2 y_69_ * y_68_ + 1 y_69_ ^ 2 ] <= 8898.1
quadratic_ranged_303_ub: [ 1 x_7_ ^ 2 - 2 x_70_ * x_7_ + 1 x_70_ ^ 2 + 1 y_7_ ^ 2 - 2 y_70_ * y_7_ + 1 y_70_ ^ 2 ] <= 3608.73
quadratic_ranged_304_ub: [ 1 x_16_ ^ 2 - 2 x_70_ * x_16_ + 1 x_70_ ^ 2 + 1 y_16_ ^ 2 - 2 y_70_ * y_16_ + 1 y_70_ ^ 2 ] <= 5213.62
quadratic_ranged_305_ub: [ 1 x_17_ ^ 2 - 2 x_70_ * x_17_ + 1 x_70_ ^ 2 + 1 y_17_ ^ 2 - 2 y_70_ * y_17_ + 1 y_70_ ^ 2 ] <= 5973.14
quadratic_ranged_306_ub: [ 1 x_25_ ^ 2 - 2 x_70_ * x_25_ + 1 x_70_ ^ 2 + 1 y_25_ ^ 2 - 2 y_70_ * y_25_ + 1 y_70_ ^ 2 ] <= 10917.09
quadratic_ranged_307_ub: [ 1 x_28_ ^ 2 - 2 x_70_ * x_28_ + 1 x_70_ ^ 2 + 1 y_28_ ^ 2 - 2 y_70_ * y_28_ + 1 y_70_ ^ 2 ] <= 2767.4
quadratic_ranged_308_ub: [ 1 x_30_ ^ 2 - 2 x_70_ * x_30_ + 1 x_70_ ^ 2 + 1 y_30_ ^ 2 - 2 y_70_ * y_30_ + 1 y_70_ ^ 2 ] <= 2100.8
quadratic_ranged_309_ub: [ 1 x_35_ ^ 2 - 2 x_70_ * x_35_ + 1 x_70_ ^ 2 + 1 y_35_ ^ 2 - 2 y_70_ * y_35_ + 1 y_70_ ^ 2 ] <= 15226.76
quadratic_ranged_310_ub: [ 1 x_38_ ^ 2 - 2 x_70_ * x_38_ + 1 x_70_ ^ 2 + 1 y_38_ ^ 2 - 2 y_70_ * y_38_ + 1 y_70_ ^ 2 ] <= 10101.01
quadratic_ranged_311_ub: [ 1 x_39_ ^ 2 - 2 x_70_ * x_39_ + 1 x_70_ ^ 2 + 1 y_39_ ^ 2 - 2 y_70_ * y_39_ + 1 y_70_ ^ 2 ] <= 8019.4
quadratic_ranged_312_ub: [ 1 x_58_ ^ 2 - 2 x_70_ * x_58_ + 1 x_70_ ^ 2 + 1 y_58_ ^ 2 - 2 y_70_ * y_58_ + 1 y_70_ ^ 2 ] <= 5706.5
quadratic_ranged_313_ub: [ 1 x_69_ ^ 2 - 2 x_70_ * x_69_ + 1 x_70_ ^ 2 + 1 y_69_ ^ 2 - 2 y_70_ * y_69_ + 1 y_70_ ^ 2 ] <= 9781.85
quadratic_ranged_314_ub: [ 1 x_1_ ^ 2 - 2 x_71_ * x_1_ + 1 x_71_ ^ 2 + 1 y_1_ ^ 2 - 2 y_71_ * y_1_ + 1 y_71_ ^ 2 ] <= 26068.1
quadratic_ranged_315_ub: [ 1 x_4_ ^ 2 - 2 x_71_ * x_4_ + 1 x_71_ ^ 2 + 1 y_4_ ^ 2 - 2 y_71_ * y_4_ + 1 y_71_ ^ 2 ] <= 4318.76
quadratic_ranged_316_ub: [ 1 x_7_ ^ 2 - 2 x_71_ * x_7_ + 1 x_71_ ^ 2 + 1 y_7_ ^ 2 - 2 y_71_ * y_7_ + 1 y_71_ ^ 2 ] <= 9372.8
quadratic_ranged_317_ub: [ 1 x_34_ ^ 2 - 2 x_71_ * x_34_ + 1 x_71_ ^ 2 + 1 y_34_ ^ 2 - 2 y_71_ * y_34_ + 1 y_71_ ^ 2 ] <= 24514.72
quadratic_ranged_318_ub: [ 1 x_35_ ^ 2 - 2 x_71_ * x_35_ + 1 x_71_ ^ 2 + 1 y_35_ ^ 2 - 2 y_71_ * y_35_ + 1 y_71_ ^ 2 ] <= 45491.41
quadratic_ranged_319_ub: [ 1 x_51_ ^ 2 - 2 x_71_ * x_51_ + 1 x_71_ ^ 2 + 1 y_51_ ^ 2 - 2 y_71_ * y_51_ + 1 y_71_ ^ 2 ] <= 5391.38
quadratic_ranged_320_ub: [ 1 x_54_ ^ 2 - 2 x_71_ * x_54_ + 1 x_71_ ^ 2 + 1 y_54_ ^ 2 - 2 y_71_ * y_54_ + 1 y_71_ ^ 2 ] <= 16212.52
quadratic_ranged_321_ub: [ 1 x_62_ ^ 2 - 2 x_71_ * x_62_ + 1 x_71_ ^ 2 + 1 y_62_ ^ 2 - 2 y_71_ * y_62_ + 1 y_71_ ^ 2 ] <= 6048.89
quadratic_ranged_322_ub: [ 1 x_70_ ^ 2 - 2 x_71_ * x_70_ + 1 x_71_ ^ 2 + 1 y_70_ ^ 2 - 2 y_71_ * y_70_ + 1 y_71_ ^ 2 ] <= 10412.09
quadratic_ranged_323_ub: [ 1 x_16_ ^ 2 - 2 x_72_ * x_16_ + 1 x_72_ ^ 2 + 1 y_16_ ^ 2 - 2 y_72_ * y_16_ + 1 y_72_ ^ 2 ] <= 7535.61
quadratic_ranged_324_ub: [ 1 x_19_ ^ 2 - 2 x_72_ * x_19_ + 1 x_72_ ^ 2 + 1 y_19_ ^ 2 - 2 y_72_ * y_19_ + 1 y_72_ ^ 2 ] <= 16267.06
quadratic_ranged_325_ub: [ 1 x_40_ ^ 2 - 2 x_72_ * x_40_ + 1 x_72_ ^ 2 + 1 y_40_ ^ 2 - 2 y_72_ * y_40_ + 1 y_72_ ^ 2 ] <= 5063.13
quadratic_ranged_326_ub: [ 1 x_49_ ^ 2 - 2 x_72_ * x_49_ + 1 x_72_ ^ 2 + 1 y_49_ ^ 2 - 2 y_72_ * y_49_ + 1 y_72_ ^ 2 ] <= 9301.09
quadratic_ranged_327_ub: [ 1 x_65_ ^ 2 - 2 x_72_ * x_65_ + 1 x_72_ ^ 2 + 1 y_65_ ^ 2 - 2 y_72_ * y_65_ + 1 y_72_ ^ 2 ] <= 5773.16
quadratic_ranged_328_ub: [ 1 x_71_ ^ 2 - 2 x_72_ * x_71_ + 1 x_72_ ^ 2 + 1 y_71_ ^ 2 - 2 y_72_ * y_71_ + 1 y_72_ ^ 2 ] <= 12558.34
quadratic_ranged_329_ub: [ 1 x_9_ ^ 2 - 2 x_73_ * x_9_ + 1 x_73_ ^ 2 + 1 y_9_ ^ 2 - 2 y_73_ * y_9_ + 1 y_73_ ^ 2 ] <= 874.66
quadratic_ranged_330_ub: [ 1 x_12_ ^ 2 - 2 x_73_ * x_12_ + 1 x_73_ ^ 2 + 1 y_12_ ^ 2 - 2 y_73_ * y_12_ + 1 y_73_ ^ 2 ] <= 1181.7
quadratic_ranged_331_ub: [ 1 x_29_ ^ 2 - 2 x_73_ * x_29_ + 1 x_73_ ^ 2 + 1 y_29_ ^ 2 - 2 y_73_ * y_29_ + 1 y_73_ ^ 2 ] <= 413.09000000000003
quadratic_ranged_332_ub: [ 1 x_34_ ^ 2 - 2 x_73_ * x_34_ + 1 x_73_ ^ 2 + 1 y_34_ ^ 2 - 2 y_73_ * y_34_ + 1 y_73_ ^ 2 ] <= 7280.08
quadratic_ranged_333_ub: [ 1 x_37_ ^ 2 - 2 x_73_ * x_37_ + 1 x_73_ ^ 2 + 1 y_37_ ^ 2 - 2 y_73_ * y_37_ + 1 y_73_ ^ 2 ] <= 14142.02
quadratic_ranged_334_ub: [ 1 x_64_ ^ 2 - 2 x_73_ * x_64_ + 1 x_73_ ^ 2 + 1 y_64_ ^ 2 - 2 y_73_ * y_64_ + 1 y_73_ ^ 2 ] <= 6024.65
quadratic_ranged_335_ub: [ 1 x_66_ ^ 2 - 2 x_73_ * x_66_ + 1 x_73_ ^ 2 + 1 y_66_ ^ 2 - 2 y_73_ * y_66_ + 1 y_73_ ^ 2 ] <= 3282.5
quadratic_ranged_336_ub: [ 1 x_72_ ^ 2 - 2 x_73_ * x_72_ + 1 x_73_ ^ 2 + 1 y_72_ ^ 2 - 2 y_73_ * y_72_ + 1 y_73_ ^ 2 ] <= 1949.3
quadratic_ranged_337_ub: [ 1 x_4_ ^ 2 - 2 x_74_ * x_4_ + 1 x_74_ ^ 2 + 1 y_4_ ^ 2 - 2 y_74_ * y_4_ + 1 y_74_ ^ 2 ] <= 22559.36
quadratic_ranged_338_ub: [ 1 x_8_ ^ 2 - 2 x_74_ * x_8_ + 1 x_74_ ^ 2 + 1 y_8_ ^ 2 - 2 y_74_ * y_8_ + 1 y_74_ ^ 2 ] <= 5595.4
quadratic_ranged_339_ub: [ 1 x_12_ ^ 2 - 2 x_74_ * x_12_ + 1 x_74_ ^ 2 + 1 y_12_ ^ 2 - 2 y_74_ * y_12_ + 1 y_74_ ^ 2 ] <= 19208.18
quadratic_ranged_340_ub: [ 1 x_13_ ^ 2 - 2 x_74_ * x_13_ + 1 x_74_ ^ 2 + 1 y_13_ ^ 2 - 2 y_74_ * y_13_ + 1 y_74_ ^ 2 ] <= 16050.92
quadratic_ranged_341_ub: [ 1 x_17_ ^ 2 - 2 x_74_ * x_17_ + 1 x_74_ ^ 2 + 1 y_17_ ^ 2 - 2 y_74_ * y_17_ + 1 y_74_ ^ 2 ] <= 7297.25
quadratic_ranged_342_ub: [ 1 x_28_ ^ 2 - 2 x_74_ * x_28_ + 1 x_74_ ^ 2 + 1 y_28_ ^ 2 - 2 y_74_ * y_28_ + 1 y_74_ ^ 2 ] <= 2465.41
quadratic_ranged_343_ub: [ 1 x_29_ ^ 2 - 2 x_74_ * x_29_ + 1 x_74_ ^ 2 + 1 y_29_ ^ 2 - 2 y_74_ * y_29_ + 1 y_74_ ^ 2 ] <= 18427.45
quadratic_ranged_344_ub: [ 1 x_39_ ^ 2 - 2 x_74_ * x_39_ + 1 x_74_ ^ 2 + 1 y_39_ ^ 2 - 2 y_74_ * y_39_ + 1 y_74_ ^ 2 ] <= 2441.17
quadratic_ranged_345_ub: [ 1 x_41_ ^ 2 - 2 x_74_ * x_41_ + 1 x_74_ ^ 2 + 1 y_41_ ^ 2 - 2 y_74_ * y_41_ + 1 y_74_ ^ 2 ] <= 16262.01
quadratic_ranged_346_ub: [ 1 x_46_ ^ 2 - 2 x_74_ * x_46_ + 1 x_74_ ^ 2 + 1 y_46_ ^ 2 - 2 y_74_ * y_46_ + 1 y_74_ ^ 2 ] <= 16391.29
quadratic_ranged_347_ub: [ 1 x_73_ ^ 2 - 2 x_74_ * x_73_ + 1 x_74_ ^ 2 + 1 y_73_ ^ 2 - 2 y_74_ * y_73_ + 1 y_74_ ^ 2 ] <= 16535.72
quadratic_ranged_348_ub: [ 1 x_4_ ^ 2 - 2 x_75_ * x_4_ + 1 x_75_ ^ 2 + 1 y_4_ ^ 2 - 2 y_75_ * y_4_ + 1 y_75_ ^ 2 ] <= 4027.88
quadratic_ranged_349_ub: [ 1 x_13_ ^ 2 - 2 x_75_ * x_13_ + 1 x_75_ ^ 2 + 1 y_13_ ^ 2 - 2 y_75_ * y_13_ + 1 y_75_ ^ 2 ] <= 1785.68
quadratic_ranged_350_ub: [ 1 x_28_ ^ 2 - 2 x_75_ * x_28_ + 1 x_75_ ^ 2 + 1 y_28_ ^ 2 - 2 y_75_ * y_28_ + 1 y_75_ ^ 2 ] <= 2315.93
quadratic_ranged_351_ub: [ 1 x_44_ ^ 2 - 2 x_75_ * x_44_ + 1 x_75_ ^ 2 + 1 y_44_ ^ 2 - 2 y_75_ * y_44_ + 1 y_75_ ^ 2 ] <= 3115.85
quadratic_ranged_352_ub: [ 1 x_51_ ^ 2 - 2 x_75_ * x_51_ + 1 x_75_ ^ 2 + 1 y_51_ ^ 2 - 2 y_75_ * y_51_ + 1 y_75_ ^ 2 ] <= 2854.26
quadratic_ranged_353_ub: [ 1 x_65_ ^ 2 - 2 x_75_ * x_65_ + 1 x_75_ ^ 2 + 1 y_65_ ^ 2 - 2 y_75_ * y_65_ + 1 y_75_ ^ 2 ] <= 4219.78
quadratic_ranged_354_ub: [ 1 x_74_ ^ 2 - 2 x_75_ * x_74_ + 1 x_75_ ^ 2 + 1 y_74_ ^ 2 - 2 y_75_ * y_74_ + 1 y_75_ ^ 2 ] <= 9522.28
quadratic_ranged_355_ub: [ 1 x_13_ ^ 2 - 2 x_76_ * x_13_ + 1 x_76_ ^ 2 + 1 y_13_ ^ 2 - 2 y_76_ * y_13_ + 1 y_76_ ^ 2 ] <= 4590.45
quadratic_ranged_356_ub: [ 1 x_15_ ^ 2 - 2 x_76_ * x_15_ + 1 x_76_ ^ 2 + 1 y_15_ ^ 2 - 2 y_76_ * y_15_ + 1 y_76_ ^ 2 ] <= 11470.57
quadratic_ranged_357_ub: [ 1 x_18_ ^ 2 - 2 x_76_ * x_18_ + 1 x_76_ ^ 2 + 1 y_18_ ^ 2 - 2 y_76_ * y_18_ + 1 y_76_ ^ 2 ] <= 6803.36
quadratic_ranged_358_ub: [ 1 x_35_ ^ 2 - 2 x_76_ * x_35_ + 1 x_76_ ^ 2 + 1 y_35_ ^ 2 - 2 y_76_ * y_35_ + 1 y_76_ ^ 2 ] <= 17978
quadratic_ranged_359_ub: [ 1 x_46_ ^ 2 - 2 x_76_ * x_46_ + 1 x_76_ ^ 2 + 1 y_46_ ^ 2 - 2 y_76_ * y_46_ + 1 y_76_ ^ 2 ] <= 2280.58
quadratic_ranged_360_ub: [ 1 x_49_ ^ 2 - 2 x_76_ * x_49_ + 1 x_76_ ^ 2 + 1 y_49_ ^ 2 - 2 y_76_ * y_49_ + 1 y_76_ ^ 2 ] <= 15335.84
quadratic_ranged_361_ub: [ 1 x_66_ ^ 2 - 2 x_76_ * x_66_ + 1 x_76_ ^ 2 + 1 y_66_ ^ 2 - 2 y_76_ * y_66_ + 1 y_76_ ^ 2 ] <= 5556.01
quadratic_ranged_362_ub: [ 1 x_74_ ^ 2 - 2 x_76_ * x_74_ + 1 x_76_ ^ 2 + 1 y_74_ ^ 2 - 2 y_76_ * y_74_ + 1 y_76_ ^ 2 ] <= 15926.69
quadratic_ranged_363_ub: [ 1 x_75_ ^ 2 - 2 x_76_ * x_75_ + 1 x_76_ ^ 2 + 1 y_75_ ^ 2 - 2 y_76_ * y_75_ + 1 y_76_ ^ 2 ] <= 1685.69
quadratic_ranged_364_ub: [ 1 x_5_ ^ 2 - 2 x_77_ * x_5_ + 1 x_77_ ^ 2 + 1 y_5_ ^ 2 - 2 y_77_ * y_5_ + 1 y_77_ ^ 2 ] <= 23611.78
quadratic_ranged_365_ub: [ 1 x_15_ ^ 2 - 2 x_77_ * x_15_ + 1 x_77_ ^ 2 + 1 y_15_ ^ 2 - 2 y_77_ * y_15_ + 1 y_77_ ^ 2 ] <= 6070.1
quadratic_ranged_366_ub: [ 1 x_35_ ^ 2 - 2 x_77_ * x_35_ + 1 x_77_ ^ 2 + 1 y_35_ ^ 2 - 2 y_77_ * y_35_ + 1 y_77_ ^ 2 ] <= 1217.05
quadratic_ranged_367_ub: [ 1 x_40_ ^ 2 - 2 x_77_ * x_40_ + 1 x_77_ ^ 2 + 1 y_40_ ^ 2 - 2 y_77_ * y_40_ + 1 y_77_ ^ 2 ] <= 32725.010000000002
quadratic_ranged_368_ub: [ 1 x_45_ ^ 2 - 2 x_77_ * x_45_ + 1 x_77_ ^ 2 + 1 y_45_ ^ 2 - 2 y_77_ * y_45_ + 1 y_77_ ^ 2 ] <= 25578.25
quadratic_ranged_369_ub: [ 1 x_55_ ^ 2 - 2 x_77_ * x_55_ + 1 x_77_ ^ 2 + 1 y_55_ ^ 2 - 2 y_77_ * y_55_ + 1 y_77_ ^ 2 ] <= 29671.78
quadratic_ranged_370_ub: [ 1 x_59_ ^ 2 - 2 x_77_ * x_59_ + 1 x_77_ ^ 2 + 1 y_59_ ^ 2 - 2 y_77_ * y_59_ + 1 y_77_ ^ 2 ] <= 18171.920000000002
quadratic_ranged_371_ub: [ 1 x_62_ ^ 2 - 2 x_77_ * x_62_ + 1 x_77_ ^ 2 + 1 y_62_ ^ 2 - 2 y_77_ * y_62_ + 1 y_77_ ^ 2 ] <= 22204.85
quadratic_ranged_372_ub: [ 1 x_72_ ^ 2 - 2 x_77_ * x_72_ + 1 x_77_ ^ 2 + 1 y_72_ ^ 2 - 2 y_77_ * y_72_ + 1 y_77_ ^ 2 ] <= 16978.1
quadratic_ranged_373_ub: [ 1 x_74_ ^ 2 - 2 x_77_ * x_74_ + 1 x_77_ ^ 2 + 1 y_74_ ^ 2 - 2 y_77_ * y_74_ + 1 y_77_ ^ 2 ] <= 7179.08
quadratic_ranged_374_ub: [ 1 x_76_ ^ 2 - 2 x_77_ * x_76_ + 1 x_77_ ^ 2 + 1 y_76_ ^ 2 - 2 y_77_ * y_76_ + 1 y_77_ ^ 2 ] <= 21178.69
quadratic_ranged_375_ub: [ 1 x_3_ ^ 2 - 2 x_78_ * x_3_ + 1 x_78_ ^ 2 + 1 y_3_ ^ 2 - 2 y_78_ * y_3_ + 1 y_78_ ^ 2 ] <= 26437.760000000002
quadratic_ranged_376_ub: [ 1 x_11_ ^ 2 - 2 x_78_ * x_11_ + 1 x_78_ ^ 2 + 1 y_11_ ^ 2 - 2 y_78_ * y_11_ + 1 y_78_ ^ 2 ] <= 1038.28
quadratic_ranged_377_ub: [ 1 x_27_ ^ 2 - 2 x_78_ * x_27_ + 1 x_78_ ^ 2 + 1 y_27_ ^ 2 - 2 y_78_ * y_27_ + 1 y_78_ ^ 2 ] <= 22487.65
quadratic_ranged_378_ub: [ 1 x_40_ ^ 2 - 2 x_78_ * x_40_ + 1 x_78_ ^ 2 + 1 y_40_ ^ 2 - 2 y_78_ * y_40_ + 1 y_78_ ^ 2 ] <= 16412.5
quadratic_ranged_379_ub: [ 1 x_52_ ^ 2 - 2 x_78_ * x_52_ + 1 x_78_ ^ 2 + 1 y_52_ ^ 2 - 2 y_78_ * y_52_ + 1 y_78_ ^ 2 ] <= 8671.86
quadratic_ranged_380_ub: [ 1 x_67_ ^ 2 - 2 x_78_ * x_67_ + 1 x_78_ ^ 2 + 1 y_67_ ^ 2 - 2 y_78_ * y_67_ + 1 y_78_ ^ 2 ] <= 404
quadratic_ranged_381_ub: [ 1 x_73_ ^ 2 - 2 x_78_ * x_73_ + 1 x_78_ ^ 2 + 1 y_73_ ^ 2 - 2 y_78_ * y_73_ + 1 y_78_ ^ 2 ] <= 958.49
quadratic_ranged_382_ub: [ 1 x_77_ ^ 2 - 2 x_78_ * x_77_ + 1 x_78_ ^ 2 + 1 y_77_ ^ 2 - 2 y_78_ * y_77_ + 1 y_78_ ^ 2 ] <= 28907.21
quadratic_ranged_383_ub: [ 1 x_4_ ^ 2 - 2 x_79_ * x_4_ + 1 x_79_ ^ 2 + 1 y_4_ ^ 2 - 2 y_79_ * y_4_ + 1 y_79_ ^ 2 ] <= 25380.29
quadratic_ranged_384_ub: [ 1 x_8_ ^ 2 - 2 x_79_ * x_8_ + 1 x_79_ ^ 2 + 1 y_8_ ^ 2 - 2 y_79_ * y_8_ + 1 y_79_ ^ 2 ] <= 400.97
quadratic_ranged_385_ub: [ 1 x_12_ ^ 2 - 2 x_79_ * x_12_ + 1 x_79_ ^ 2 + 1 y_12_ ^ 2 - 2 y_79_ * y_12_ + 1 y_79_ ^ 2 ] <= 33197.69
quadratic_ranged_386_ub: [ 1 x_25_ ^ 2 - 2 x_79_ * x_25_ + 1 x_79_ ^ 2 + 1 y_25_ ^ 2 - 2 y_79_ * y_25_ + 1 y_79_ ^ 2 ] <= 37197.29
quadratic_ranged_387_ub: [ 1 x_28_ ^ 2 - 2 x_79_ * x_28_ + 1 x_79_ ^ 2 + 1 y_28_ ^ 2 - 2 y_79_ * y_28_ + 1 y_79_ ^ 2 ] <= 12685.6
quadratic_ranged_388_ub: [ 1 x_29_ ^ 2 - 2 x_79_ * x_29_ + 1 x_79_ ^ 2 + 1 y_29_ ^ 2 - 2 y_79_ * y_29_ + 1 y_79_ ^ 2 ] <= 29704.1
quadratic_ranged_389_ub: [ 1 x_69_ ^ 2 - 2 x_79_ * x_69_ + 1 x_79_ ^ 2 + 1 y_69_ ^ 2 - 2 y_79_ * y_69_ + 1 y_79_ ^ 2 ] <= 7531.57
quadratic_ranged_390_ub: [ 1 x_77_ ^ 2 - 2 x_79_ * x_77_ + 1 x_79_ ^ 2 + 1 y_77_ ^ 2 - 2 y_79_ * y_77_ + 1 y_79_ ^ 2 ] <= 170.69
quadratic_ranged_391_ub: [ 1 x_78_ ^ 2 - 2 x_79_ * x_78_ + 1 x_79_ ^ 2 + 1 y_78_ ^ 2 - 2 y_79_ * y_78_ + 1 y_79_ ^ 2 ] <= 27577.04
quadratic_ranged_392_ub: [ 1 x_18_ ^ 2 - 2 x_80_ * x_18_ + 1 x_80_ ^ 2 + 1 y_18_ ^ 2 - 2 y_80_ * y_18_ + 1 y_80_ ^ 2 ] <= 27093.25
quadratic_ranged_393_ub: [ 1 x_22_ ^ 2 - 2 x_80_ * x_22_ + 1 x_80_ ^ 2 + 1 y_22_ ^ 2 - 2 y_80_ * y_22_ + 1 y_80_ ^ 2 ] <= 18717.32
quadratic_ranged_394_ub: [ 1 x_42_ ^ 2 - 2 x_80_ * x_42_ + 1 x_80_ ^ 2 + 1 y_42_ ^ 2 - 2 y_80_ * y_42_ + 1 y_80_ ^ 2 ] <= 25746.920000000002
quadratic_ranged_395_ub: [ 1 x_54_ ^ 2 - 2 x_80_ * x_54_ + 1 x_80_ ^ 2 + 1 y_54_ ^ 2 - 2 y_80_ * y_54_ + 1 y_80_ ^ 2 ] <= 21793.78
quadratic_ranged_396_ub: [ 1 x_60_ ^ 2 - 2 x_80_ * x_60_ + 1 x_80_ ^ 2 + 1 y_60_ ^ 2 - 2 y_80_ * y_60_ + 1 y_80_ ^ 2 ] <= 5383.3
quadratic_ranged_397_ub: [ 1 x_71_ ^ 2 - 2 x_80_ * x_71_ + 1 x_80_ ^ 2 + 1 y_71_ ^ 2 - 2 y_80_ * y_71_ + 1 y_80_ ^ 2 ] <= 31926.1
quadratic_ranged_398_ub: [ 1 x_79_ ^ 2 - 2 x_80_ * x_79_ + 1 x_80_ ^ 2 + 1 y_79_ ^ 2 - 2 y_80_ * y_79_ + 1 y_80_ ^ 2 ] <= 3459.25
quadratic_ranged_399_ub: [ 1 x_1_ ^ 2 - 2 x_81_ * x_1_ + 1 x_81_ ^ 2 + 1 y_1_ ^ 2 - 2 y_81_ * y_1_ + 1 y_81_ ^ 2 ] <= 979.7
quadratic_ranged_400_ub: [ 1 x_2_ ^ 2 - 2 x_81_ * x_2_ + 1 x_81_ ^ 2 + 1 y_2_ ^ 2 - 2 y_81_ * y_2_ + 1 y_81_ ^ 2 ] <= 29479.88
quadratic_ranged_401_ub: [ 1 x_13_ ^ 2 - 2 x_81_ * x_13_ + 1 x_81_ ^ 2 + 1 y_13_ ^ 2 - 2 y_81_ * y_13_ + 1 y_81_ ^ 2 ] <= 24680.36
quadratic_ranged_402_ub: [ 1 x_33_ ^ 2 - 2 x_81_ * x_33_ + 1 x_81_ ^ 2 + 1 y_33_ ^ 2 - 2 y_81_ * y_33_ + 1 y_81_ ^ 2 ] <= 30967.61
quadratic_ranged_403_ub: [ 1 x_50_ ^ 2 - 2 x_81_ * x_50_ + 1 x_81_ ^ 2 + 1 y_50_ ^ 2 - 2 y_81_ * y_50_ + 1 y_81_ ^ 2 ] <= 37.37
quadratic_ranged_404_ub: [ 1 x_53_ ^ 2 - 2 x_81_ * x_53_ + 1 x_81_ ^ 2 + 1 y_53_ ^ 2 - 2 y_81_ * y_53_ + 1 y_81_ ^ 2 ] <= 9551.57
quadratic_ranged_405_ub: [ 1 x_77_ ^ 2 - 2 x_81_ * x_77_ + 1 x_81_ ^ 2 + 1 y_77_ ^ 2 - 2 y_81_ * y_77_ + 1 y_81_ ^ 2 ] <= 2040.2
quadratic_ranged_406_ub: [ 1 x_80_ ^ 2 - 2 x_81_ * x_80_ + 1 x_81_ ^ 2 + 1 y_80_ ^ 2 - 2 y_81_ * y_80_ + 1 y_81_ ^ 2 ] <= 632.26
quadratic_ranged_407_ub: [ 1 x_3_ ^ 2 - 2 x_82_ * x_3_ + 1 x_82_ ^ 2 + 1 y_3_ ^ 2 - 2 y_82_ * y_3_ + 1 y_82_ ^ 2 ] <= 17357.86
quadratic_ranged_408_ub: [ 1 x_28_ ^ 2 - 2 x_82_ * x_28_ + 1 x_82_ ^ 2 + 1 y_28_ ^ 2 - 2 y_82_ * y_28_ + 1 y_82_ ^ 2 ] <= 8025.46
quadratic_ranged_409_ub: [ 1 x_53_ ^ 2 - 2 x_82_ * x_53_ + 1 x_82_ ^ 2 + 1 y_53_ ^ 2 - 2 y_82_ * y_53_ + 1 y_82_ ^ 2 ] <= 13721.86
quadratic_ranged_410_ub: [ 1 x_56_ ^ 2 - 2 x_82_ * x_56_ + 1 x_82_ ^ 2 + 1 y_56_ ^ 2 - 2 y_82_ * y_56_ + 1 y_82_ ^ 2 ] <= 9563.69
quadratic_ranged_411_ub: [ 1 x_61_ ^ 2 - 2 x_82_ * x_61_ + 1 x_82_ ^ 2 + 1 y_61_ ^ 2 - 2 y_82_ * y_61_ + 1 y_82_ ^ 2 ] <= 3494.6
quadratic_ranged_412_ub: [ 1 x_69_ ^ 2 - 2 x_82_ * x_69_ + 1 x_82_ ^ 2 + 1 y_69_ ^ 2 - 2 y_82_ * y_69_ + 1 y_82_ ^ 2 ] <= 11139.29
quadratic_ranged_413_ub: [ 1 x_81_ ^ 2 - 2 x_82_ * x_81_ + 1 x_82_ ^ 2 + 1 y_81_ ^ 2 - 2 y_82_ * y_81_ + 1 y_82_ ^ 2 ] <= 1879.6100000000001
quadratic_ranged_414_ub: [ 1 x_16_ ^ 2 - 2 x_83_ * x_16_ + 1 x_83_ ^ 2 + 1 y_16_ ^ 2 - 2 y_83_ * y_16_ + 1 y_83_ ^ 2 ] <= 186.85
quadratic_ranged_415_ub: [ 1 x_17_ ^ 2 - 2 x_83_ * x_17_ + 1 x_83_ ^ 2 + 1 y_17_ ^ 2 - 2 y_83_ * y_17_ + 1 y_83_ ^ 2 ] <= 1762.45
quadratic_ranged_416_ub: [ 1 x_19_ ^ 2 - 2 x_83_ * x_19_ + 1 x_83_ ^ 2 + 1 y_19_ ^ 2 - 2 y_83_ * y_19_ + 1 y_83_ ^ 2 ] <= 1523.08
quadratic_ranged_417_ub: [ 1 x_25_ ^ 2 - 2 x_83_ * x_25_ + 1 x_83_ ^ 2 + 1 y_25_ ^ 2 - 2 y_83_ * y_25_ + 1 y_83_ ^ 2 ] <= 29413.22
quadratic_ranged_418_ub: [ 1 x_32_ ^ 2 - 2 x_83_ * x_32_ + 1 x_83_ ^ 2 + 1 y_32_ ^ 2 - 2 y_83_ * y_32_ + 1 y_83_ ^ 2 ] <= 17134.65
quadratic_ranged_419_ub: [ 1 x_51_ ^ 2 - 2 x_83_ * x_51_ + 1 x_83_ ^ 2 + 1 y_51_ ^ 2 - 2 y_83_ * y_51_ + 1 y_83_ ^ 2 ] <= 5100.5
quadratic_ranged_420_ub: [ 1 x_52_ ^ 2 - 2 x_83_ * x_52_ + 1 x_83_ ^ 2 + 1 y_52_ ^ 2 - 2 y_83_ * y_52_ + 1 y_83_ ^ 2 ] <= 18156.77
quadratic_ranged_421_ub: [ 1 x_54_ ^ 2 - 2 x_83_ * x_54_ + 1 x_83_ ^ 2 + 1 y_54_ ^ 2 - 2 y_83_ * y_54_ + 1 y_83_ ^ 2 ] <= 16297.36
quadratic_ranged_422_ub: [ 1 x_61_ ^ 2 - 2 x_83_ * x_61_ + 1 x_83_ ^ 2 + 1 y_61_ ^ 2 - 2 y_83_ * y_61_ + 1 y_83_ ^ 2 ] <= 4861.13
quadratic_ranged_423_ub: [ 1 x_68_ ^ 2 - 2 x_83_ * x_68_ + 1 x_83_ ^ 2 + 1 y_68_ ^ 2 - 2 y_83_ * y_68_ + 1 y_83_ ^ 2 ] <= 5272.2
quadratic_ranged_424_ub: [ 1 x_82_ ^ 2 - 2 x_83_ * x_82_ + 1 x_83_ ^ 2 + 1 y_82_ ^ 2 - 2 y_83_ * y_82_ + 1 y_83_ ^ 2 ] <= 122.21000000000001
quadratic_ranged_425_ub: [ 1 x_18_ ^ 2 - 2 x_84_ * x_18_ + 1 x_84_ ^ 2 + 1 y_18_ ^ 2 - 2 y_84_ * y_18_ + 1 y_84_ ^ 2 ] <= 38825.41
quadratic_ranged_426_ub: [ 1 x_26_ ^ 2 - 2 x_84_ * x_26_ + 1 x_84_ ^ 2 + 1 y_26_ ^ 2 - 2 y_84_ * y_26_ + 1 y_84_ ^ 2 ] <= 25804.49
quadratic_ranged_427_ub: [ 1 x_27_ ^ 2 - 2 x_84_ * x_27_ + 1 x_84_ ^ 2 + 1 y_27_ ^ 2 - 2 y_84_ * y_27_ + 1 y_84_ ^ 2 ] <= 40781.78
quadratic_ranged_428_ub: [ 1 x_29_ ^ 2 - 2 x_84_ * x_29_ + 1 x_84_ ^ 2 + 1 y_29_ ^ 2 - 2 y_84_ * y_29_ + 1 y_84_ ^ 2 ] <= 25549.97
quadratic_ranged_429_ub: [ 1 x_63_ ^ 2 - 2 x_84_ * x_63_ + 1 x_84_ ^ 2 + 1 y_63_ ^ 2 - 2 y_84_ * y_63_ + 1 y_84_ ^ 2 ] <= 16189.29
quadratic_ranged_430_ub: [ 1 x_78_ ^ 2 - 2 x_84_ * x_78_ + 1 x_84_ ^ 2 + 1 y_78_ ^ 2 - 2 y_84_ * y_78_ + 1 y_84_ ^ 2 ] <= 16811.45
quadratic_ranged_431_ub: [ 1 x_83_ ^ 2 - 2 x_84_ * x_83_ + 1 x_84_ ^ 2 + 1 y_83_ ^ 2 - 2 y_84_ * y_83_ + 1 y_84_ ^ 2 ] <= 3316.84
quadratic_ranged_432_ub: [ 1 x_11_ ^ 2 - 2 x_85_ * x_11_ + 1 x_85_ ^ 2 + 1 y_11_ ^ 2 - 2 y_85_ * y_11_ + 1 y_85_ ^ 2 ] <= 9704.08
quadratic_ranged_433_ub: [ 1 x_31_ ^ 2 - 2 x_85_ * x_31_ + 1 x_85_ ^ 2 + 1 y_31_ ^ 2 - 2 y_85_ * y_31_ + 1 y_85_ ^ 2 ] <= 44530.9
quadratic_ranged_434_ub: [ 1 x_39_ ^ 2 - 2 x_85_ * x_39_ + 1 x_85_ ^ 2 + 1 y_39_ ^ 2 - 2 y_85_ * y_39_ + 1 y_85_ ^ 2 ] <= 23371.4
quadratic_ranged_435_ub: [ 1 x_48_ ^ 2 - 2 x_85_ * x_48_ + 1 x_85_ ^ 2 + 1 y_48_ ^ 2 - 2 y_85_ * y_48_ + 1 y_85_ ^ 2 ] <= 18571.88
quadratic_ranged_436_ub: [ 1 x_58_ ^ 2 - 2 x_85_ * x_58_ + 1 x_85_ ^ 2 + 1 y_58_ ^ 2 - 2 y_85_ * y_58_ + 1 y_85_ ^ 2 ] <= 20161.62
quadratic_ranged_437_ub: [ 1 x_60_ ^ 2 - 2 x_85_ * x_60_ + 1 x_85_ ^ 2 + 1 y_60_ ^ 2 - 2 y_85_ * y_60_ + 1 y_85_ ^ 2 ] <= 45232.85
quadratic_ranged_438_ub: [ 1 x_63_ ^ 2 - 2 x_85_ * x_63_ + 1 x_85_ ^ 2 + 1 y_63_ ^ 2 - 2 y_85_ * y_63_ + 1 y_85_ ^ 2 ] <= 14117.78
quadratic_ranged_439_ub: [ 1 x_84_ ^ 2 - 2 x_85_ * x_84_ + 1 x_85_ ^ 2 + 1 y_84_ ^ 2 - 2 y_85_ * y_84_ + 1 y_85_ ^ 2 ] <= 38409.29
quadratic_ranged_440_ub: [ 1 x_2_ ^ 2 - 2 x_86_ * x_2_ + 1 x_86_ ^ 2 + 1 y_2_ ^ 2 - 2 y_86_ * y_2_ + 1 y_86_ ^ 2 ] <= 4186.45
quadratic_ranged_441_ub: [ 1 x_14_ ^ 2 - 2 x_86_ * x_14_ + 1 x_86_ ^ 2 + 1 y_14_ ^ 2 - 2 y_86_ * y_14_ + 1 y_86_ ^ 2 ] <= 22596.73
quadratic_ranged_442_ub: [ 1 x_16_ ^ 2 - 2 x_86_ * x_16_ + 1 x_86_ ^ 2 + 1 y_16_ ^ 2 - 2 y_86_ * y_16_ + 1 y_86_ ^ 2 ] <= 18093.14
quadratic_ranged_443_ub: [ 1 x_18_ ^ 2 - 2 x_86_ * x_18_ + 1 x_86_ ^ 2 + 1 y_18_ ^ 2 - 2 y_86_ * y_18_ + 1 y_86_ ^ 2 ] <= 581.76
quadratic_ranged_444_ub: [ 1 x_30_ ^ 2 - 2 x_86_ * x_30_ + 1 x_86_ ^ 2 + 1 y_30_ ^ 2 - 2 y_86_ * y_30_ + 1 y_86_ ^ 2 ] <= 4141
quadratic_ranged_445_ub: [ 1 x_38_ ^ 2 - 2 x_86_ * x_38_ + 1 x_86_ ^ 2 + 1 y_38_ ^ 2 - 2 y_86_ * y_38_ + 1 y_86_ ^ 2 ] <= 5244.93
quadratic_ranged_446_ub: [ 1 x_45_ ^ 2 - 2 x_86_ * x_45_ + 1 x_86_ ^ 2 + 1 y_45_ ^ 2 - 2 y_86_ * y_45_ + 1 y_86_ ^ 2 ] <= 1236.24
quadratic_ranged_447_ub: [ 1 x_54_ ^ 2 - 2 x_86_ * x_54_ + 1 x_86_ ^ 2 + 1 y_54_ ^ 2 - 2 y_86_ * y_54_ + 1 y_86_ ^ 2 ] <= 2315.93
quadratic_ranged_448_ub: [ 1 x_58_ ^ 2 - 2 x_86_ * x_58_ + 1 x_86_ ^ 2 + 1 y_58_ ^ 2 - 2 y_86_ * y_58_ + 1 y_86_ ^ 2 ] <= 17826.5
quadratic_ranged_449_ub: [ 1 x_85_ ^ 2 - 2 x_86_ * x_85_ + 1 x_86_ ^ 2 + 1 y_85_ ^ 2 - 2 y_86_ * y_85_ + 1 y_86_ ^ 2 ] <= 3203.7200000000003
quadratic_ranged_450_ub: [ 1 x_28_ ^ 2 - 2 x_87_ * x_28_ + 1 x_87_ ^ 2 + 1 y_28_ ^ 2 - 2 y_87_ * y_28_ + 1 y_87_ ^ 2 ] <= 3571.36
quadratic_ranged_451_ub: [ 1 x_32_ ^ 2 - 2 x_87_ * x_32_ + 1 x_87_ ^ 2 + 1 y_32_ ^ 2 - 2 y_87_ * y_32_ + 1 y_87_ ^ 2 ] <= 18171.920000000002
quadratic_ranged_452_ub: [ 1 x_42_ ^ 2 - 2 x_87_ * x_42_ + 1 x_87_ ^ 2 + 1 y_42_ ^ 2 - 2 y_87_ * y_42_ + 1 y_87_ ^ 2 ] <= 5390.37
quadratic_ranged_453_ub: [ 1 x_49_ ^ 2 - 2 x_87_ * x_49_ + 1 x_87_ ^ 2 + 1 y_49_ ^ 2 - 2 y_87_ * y_49_ + 1 y_87_ ^ 2 ] <= 11505.92
quadratic_ranged_454_ub: [ 1 x_51_ ^ 2 - 2 x_87_ * x_51_ + 1 x_87_ ^ 2 + 1 y_51_ ^ 2 - 2 y_87_ * y_51_ + 1 y_87_ ^ 2 ] <= 19990.93
quadratic_ranged_455_ub: [ 1 x_64_ ^ 2 - 2 x_87_ * x_64_ + 1 x_87_ ^ 2 + 1 y_64_ ^ 2 - 2 y_87_ * y_64_ + 1 y_87_ ^ 2 ] <= 10190.9
quadratic_ranged_456_ub: [ 1 x_67_ ^ 2 - 2 x_87_ * x_67_ + 1 x_87_ ^ 2 + 1 y_67_ ^ 2 - 2 y_87_ * y_67_ + 1 y_87_ ^ 2 ] <= 18236.56
quadratic_ranged_457_ub: [ 1 x_76_ ^ 2 - 2 x_87_ * x_76_ + 1 x_87_ ^ 2 + 1 y_76_ ^ 2 - 2 y_87_ * y_76_ + 1 y_87_ ^ 2 ] <= 16564
quadratic_ranged_458_ub: [ 1 x_79_ ^ 2 - 2 x_87_ * x_79_ + 1 x_87_ ^ 2 + 1 y_79_ ^ 2 - 2 y_87_ * y_79_ + 1 y_87_ ^ 2 ] <= 25662.08
quadratic_ranged_459_ub: [ 1 x_86_ ^ 2 - 2 x_87_ * x_86_ + 1 x_87_ ^ 2 + 1 y_86_ ^ 2 - 2 y_87_ * y_86_ + 1 y_87_ ^ 2 ] <= 9340.48
quadratic_ranged_460_ub: [ 1 x_24_ ^ 2 - 2 x_88_ * x_24_ + 1 x_88_ ^ 2 + 1 y_24_ ^ 2 - 2 y_88_ * y_24_ + 1 y_88_ ^ 2 ] <= 27901.25
quadratic_ranged_461_ub: [ 1 x_45_ ^ 2 - 2 x_88_ * x_45_ + 1 x_88_ ^ 2 + 1 y_45_ ^ 2 - 2 y_88_ * y_45_ + 1 y_88_ ^ 2 ] <= 13066.37
quadratic_ranged_462_ub: [ 1 x_50_ ^ 2 - 2 x_88_ * x_50_ + 1 x_88_ ^ 2 + 1 y_50_ ^ 2 - 2 y_88_ * y_50_ + 1 y_88_ ^ 2 ] <= 6400.37
quadratic_ranged_463_ub: [ 1 x_56_ ^ 2 - 2 x_88_ * x_56_ + 1 x_88_ ^ 2 + 1 y_56_ ^ 2 - 2 y_88_ * y_56_ + 1 y_88_ ^ 2 ] <= 801.94
quadratic_ranged_464_ub: [ 1 x_60_ ^ 2 - 2 x_88_ * x_60_ + 1 x_88_ ^ 2 + 1 y_60_ ^ 2 - 2 y_88_ * y_60_ + 1 y_88_ ^ 2 ] <= 2537.12
quadratic_ranged_465_ub: [ 1 x_70_ ^ 2 - 2 x_88_ * x_70_ + 1 x_88_ ^ 2 + 1 y_70_ ^ 2 - 2 y_88_ * y_70_ + 1 y_88_ ^ 2 ] <= 11236.25
quadratic_ranged_466_ub: [ 1 x_78_ ^ 2 - 2 x_88_ * x_78_ + 1 x_88_ ^ 2 + 1 y_78_ ^ 2 - 2 y_88_ * y_78_ + 1 y_88_ ^ 2 ] <= 25477.25
quadratic_ranged_467_ub: [ 1 x_81_ ^ 2 - 2 x_88_ * x_81_ + 1 x_88_ ^ 2 + 1 y_81_ ^ 2 - 2 y_88_ * y_81_ + 1 y_88_ ^ 2 ] <= 7017.4800000000005
quadratic_ranged_468_ub: [ 1 x_87_ ^ 2 - 2 x_88_ * x_87_ + 1 x_88_ ^ 2 + 1 y_87_ ^ 2 - 2 y_88_ * y_87_ + 1 y_88_ ^ 2 ] <= 8036.57
quadratic_ranged_469_ub: [ 1 x_19_ ^ 2 - 2 x_89_ * x_19_ + 1 x_89_ ^ 2 + 1 y_19_ ^ 2 - 2 y_89_ * y_19_ + 1 y_89_ ^ 2 ] <= 23574.41
quadratic_ranged_470_ub: [ 1 x_20_ ^ 2 - 2 x_89_ * x_20_ + 1 x_89_ ^ 2 + 1 y_20_ ^ 2 - 2 y_89_ * y_20_ + 1 y_89_ ^ 2 ] <= 4400.57
quadratic_ranged_471_ub: [ 1 x_26_ ^ 2 - 2 x_89_ * x_26_ + 1 x_89_ ^ 2 + 1 y_26_ ^ 2 - 2 y_89_ * y_26_ + 1 y_89_ ^ 2 ] <= 34267.28
quadratic_ranged_472_ub: [ 1 x_34_ ^ 2 - 2 x_89_ * x_34_ + 1 x_89_ ^ 2 + 1 y_34_ ^ 2 - 2 y_89_ * y_34_ + 1 y_89_ ^ 2 ] <= 11236.25
quadratic_ranged_473_ub: [ 1 x_44_ ^ 2 - 2 x_89_ * x_44_ + 1 x_89_ ^ 2 + 1 y_44_ ^ 2 - 2 y_89_ * y_44_ + 1 y_89_ ^ 2 ] <= 9312.2
quadratic_ranged_474_ub: [ 1 x_47_ ^ 2 - 2 x_89_ * x_47_ + 1 x_89_ ^ 2 + 1 y_47_ ^ 2 - 2 y_89_ * y_47_ + 1 y_89_ ^ 2 ] <= 11190.8
quadratic_ranged_475_ub: [ 1 x_56_ ^ 2 - 2 x_89_ * x_56_ + 1 x_89_ ^ 2 + 1 y_56_ ^ 2 - 2 y_89_ * y_56_ + 1 y_89_ ^ 2 ] <= 15550.97
quadratic_ranged_476_ub: [ 1 x_88_ ^ 2 - 2 x_89_ * x_88_ + 1 x_89_ ^ 2 + 1 y_88_ ^ 2 - 2 y_89_ * y_88_ + 1 y_89_ ^ 2 ] <= 22911.85
quadratic_ranged_477_ub: [ 1 x_2_ ^ 2 - 2 x_90_ * x_2_ + 1 x_90_ ^ 2 + 1 y_2_ ^ 2 - 2 y_90_ * y_2_ + 1 y_90_ ^ 2 ] <= 10816.09
quadratic_ranged_478_ub: [ 1 x_12_ ^ 2 - 2 x_90_ * x_12_ + 1 x_90_ ^ 2 + 1 y_12_ ^ 2 - 2 y_90_ * y_12_ + 1 y_90_ ^ 2 ] <= 11337.25
quadratic_ranged_479_ub: [ 1 x_32_ ^ 2 - 2 x_90_ * x_32_ + 1 x_90_ ^ 2 + 1 y_32_ ^ 2 - 2 y_90_ * y_32_ + 1 y_90_ ^ 2 ] <= 26066.08
quadratic_ranged_480_ub: [ 1 x_33_ ^ 2 - 2 x_90_ * x_33_ + 1 x_90_ ^ 2 + 1 y_33_ ^ 2 - 2 y_90_ * y_33_ + 1 y_90_ ^ 2 ] <= 19917.2
quadratic_ranged_481_ub: [ 1 x_38_ ^ 2 - 2 x_90_ * x_38_ + 1 x_90_ ^ 2 + 1 y_38_ ^ 2 - 2 y_90_ * y_38_ + 1 y_90_ ^ 2 ] <= 28931.45
quadratic_ranged_482_ub: [ 1 x_59_ ^ 2 - 2 x_90_ * x_59_ + 1 x_90_ ^ 2 + 1 y_59_ ^ 2 - 2 y_90_ * y_59_ + 1 y_90_ ^ 2 ] <= 4097.57
quadratic_ranged_483_ub: [ 1 x_61_ ^ 2 - 2 x_90_ * x_61_ + 1 x_90_ ^ 2 + 1 y_61_ ^ 2 - 2 y_90_ * y_61_ + 1 y_90_ ^ 2 ] <= 8736.5
quadratic_ranged_484_ub: [ 1 x_65_ ^ 2 - 2 x_90_ * x_65_ + 1 x_90_ ^ 2 + 1 y_65_ ^ 2 - 2 y_90_ * y_65_ + 1 y_90_ ^ 2 ] <= 14597.53
quadratic_ranged_485_ub: [ 1 x_88_ ^ 2 - 2 x_90_ * x_88_ + 1 x_90_ ^ 2 + 1 y_88_ ^ 2 - 2 y_90_ * y_88_ + 1 y_90_ ^ 2 ] <= 19845.49
quadratic_ranged_486_ub: [ 1 x_89_ ^ 2 - 2 x_90_ * x_89_ + 1 x_90_ ^ 2 + 1 y_89_ ^ 2 - 2 y_90_ * y_89_ + 1 y_90_ ^ 2 ] <= 10998.9
quadratic_ranged_487_ub: [ 1 x_25_ ^ 2 - 2 x_91_ * x_25_ + 1 x_91_ ^ 2 + 1 y_25_ ^ 2 - 2 y_91_ * y_25_ + 1 y_91_ ^ 2 ] <= 12961.33
quadratic_ranged_488_ub: [ 1 x_39_ ^ 2 - 2 x_91_ * x_39_ + 1 x_91_ ^ 2 + 1 y_39_ ^ 2 - 2 y_91_ * y_39_ + 1 y_91_ ^ 2 ] <= 3854.16
quadratic_ranged_489_ub: [ 1 x_41_ ^ 2 - 2 x_91_ * x_41_ + 1 x_91_ ^ 2 + 1 y_41_ ^ 2 - 2 y_91_ * y_41_ + 1 y_91_ ^ 2 ] <= 8649.64
quadratic_ranged_490_ub: [ 1 x_49_ ^ 2 - 2 x_91_ * x_49_ + 1 x_91_ ^ 2 + 1 y_49_ ^ 2 - 2 y_91_ * y_49_ + 1 y_91_ ^ 2 ] <= 1106.96
quadratic_ranged_491_ub: [ 1 x_52_ ^ 2 - 2 x_91_ * x_52_ + 1 x_91_ ^ 2 + 1 y_52_ ^ 2 - 2 y_91_ * y_52_ + 1 y_91_ ^ 2 ] <= 10473.7
quadratic_ranged_492_ub: [ 1 x_59_ ^ 2 - 2 x_91_ * x_59_ + 1 x_91_ ^ 2 + 1 y_59_ ^ 2 - 2 y_91_ * y_59_ + 1 y_91_ ^ 2 ] <= 22132.13
quadratic_ranged_493_ub: [ 1 x_83_ ^ 2 - 2 x_91_ * x_83_ + 1 x_91_ ^ 2 + 1 y_83_ ^ 2 - 2 y_91_ * y_83_ + 1 y_91_ ^ 2 ] <= 7527.53
quadratic_ranged_494_ub: [ 1 x_90_ ^ 2 - 2 x_91_ * x_90_ + 1 x_91_ ^ 2 + 1 y_90_ ^ 2 - 2 y_91_ * y_90_ + 1 y_91_ ^ 2 ] <= 11845.28
quadratic_ranged_495_ub: [ 1 x_10_ ^ 2 - 2 x_92_ * x_10_ + 1 x_92_ ^ 2 + 1 y_10_ ^ 2 - 2 y_92_ * y_10_ + 1 y_92_ ^ 2 ] <= 12364.42
quadratic_ranged_496_ub: [ 1 x_22_ ^ 2 - 2 x_92_ * x_22_ + 1 x_92_ ^ 2 + 1 y_22_ ^ 2 - 2 y_92_ * y_22_ + 1 y_92_ ^ 2 ] <= 16905.38
quadratic_ranged_497_ub: [ 1 x_35_ ^ 2 - 2 x_92_ * x_35_ + 1 x_92_ ^ 2 + 1 y_35_ ^ 2 - 2 y_92_ * y_35_ + 1 y_92_ ^ 2 ] <= 10226.25
quadratic_ranged_498_ub: [ 1 x_38_ ^ 2 - 2 x_92_ * x_38_ + 1 x_92_ ^ 2 + 1 y_38_ ^ 2 - 2 y_92_ * y_38_ + 1 y_92_ ^ 2 ] <= 39592
quadratic_ranged_499_ub: [ 1 x_41_ ^ 2 - 2 x_92_ * x_41_ + 1 x_92_ ^ 2 + 1 y_41_ ^ 2 - 2 y_92_ * y_41_ + 1 y_92_ ^ 2 ] <= 1540.25
quadratic_ranged_500_ub: [ 1 x_74_ ^ 2 - 2 x_92_ * x_74_ + 1 x_92_ ^ 2 + 1 y_74_ ^ 2 - 2 y_92_ * y_74_ + 1 y_92_ ^ 2 ] <= 26195.36
quadratic_ranged_501_ub: [ 1 x_84_ ^ 2 - 2 x_92_ * x_84_ + 1 x_92_ ^ 2 + 1 y_84_ ^ 2 - 2 y_92_ * y_84_ + 1 y_92_ ^ 2 ] <= 1927.08
quadratic_ranged_502_ub: [ 1 x_85_ ^ 2 - 2 x_92_ * x_85_ + 1 x_92_ ^ 2 + 1 y_85_ ^ 2 - 2 y_92_ * y_85_ + 1 y_92_ ^ 2 ] <= 23841.05
quadratic_ranged_503_ub: [ 1 x_91_ ^ 2 - 2 x_92_ * x_91_ + 1 x_92_ ^ 2 + 1 y_91_ ^ 2 - 2 y_92_ * y_91_ + 1 y_92_ ^ 2 ] <= 16270.09
quadratic_ranged_504_ub: [ 1 x_3_ ^ 2 - 2 x_93_ * x_3_ + 1 x_93_ ^ 2 + 1 y_3_ ^ 2 - 2 y_93_ * y_3_ + 1 y_93_ ^ 2 ] <= 10027.28
quadratic_ranged_505_ub: [ 1 x_15_ ^ 2 - 2 x_93_ * x_15_ + 1 x_93_ ^ 2 + 1 y_15_ ^ 2 - 2 y_93_ * y_15_ + 1 y_93_ ^ 2 ] <= 12852.25
quadratic_ranged_506_ub: [ 1 x_45_ ^ 2 - 2 x_93_ * x_45_ + 1 x_93_ ^ 2 + 1 y_45_ ^ 2 - 2 y_93_ * y_45_ + 1 y_93_ ^ 2 ] <= 2141.2
quadratic_ranged_507_ub: [ 1 x_49_ ^ 2 - 2 x_93_ * x_49_ + 1 x_93_ ^ 2 + 1 y_49_ ^ 2 - 2 y_93_ * y_49_ + 1 y_93_ ^ 2 ] <= 9970.72
quadratic_ranged_508_ub: [ 1 x_52_ ^ 2 - 2 x_93_ * x_52_ + 1 x_93_ ^ 2 + 1 y_52_ ^ 2 - 2 y_93_ * y_52_ + 1 y_93_ ^ 2 ] <= 2991.62
quadratic_ranged_509_ub: [ 1 x_70_ ^ 2 - 2 x_93_ * x_70_ + 1 x_93_ ^ 2 + 1 y_70_ ^ 2 - 2 y_93_ * y_70_ + 1 y_93_ ^ 2 ] <= 101
quadratic_ranged_510_ub: [ 1 x_84_ ^ 2 - 2 x_93_ * x_84_ + 1 x_93_ ^ 2 + 1 y_84_ ^ 2 - 2 y_93_ * y_84_ + 1 y_93_ ^ 2 ] <= 18916.29
quadratic_ranged_511_ub: [ 1 x_92_ ^ 2 - 2 x_93_ * x_92_ + 1 x_93_ ^ 2 + 1 y_92_ ^ 2 - 2 y_93_ * y_92_ + 1 y_93_ ^ 2 ] <= 11862.45
quadratic_ranged_512_ub: [ 1 x_6_ ^ 2 - 2 x_94_ * x_6_ + 1 x_94_ ^ 2 + 1 y_6_ ^ 2 - 2 y_94_ * y_6_ + 1 y_94_ ^ 2 ] <= 71445.38
quadratic_ranged_513_ub: [ 1 x_7_ ^ 2 - 2 x_94_ * x_7_ + 1 x_94_ ^ 2 + 1 y_7_ ^ 2 - 2 y_94_ * y_7_ + 1 y_94_ ^ 2 ] <= 37533.62
quadratic_ranged_514_ub: [ 1 x_8_ ^ 2 - 2 x_94_ * x_8_ + 1 x_94_ ^ 2 + 1 y_8_ ^ 2 - 2 y_94_ * y_8_ + 1 y_94_ ^ 2 ] <= 3064.34
quadratic_ranged_515_ub: [ 1 x_10_ ^ 2 - 2 x_94_ * x_10_ + 1 x_94_ ^ 2 + 1 y_10_ ^ 2 - 2 y_94_ * y_10_ + 1 y_94_ ^ 2 ] <= 58584.04
quadratic_ranged_516_ub: [ 1 x_24_ ^ 2 - 2 x_94_ * x_24_ + 1 x_94_ ^ 2 + 1 y_24_ ^ 2 - 2 y_94_ * y_24_ + 1 y_94_ ^ 2 ] <= 48279.01
quadratic_ranged_517_ub: [ 1 x_31_ ^ 2 - 2 x_94_ * x_31_ + 1 x_94_ ^ 2 + 1 y_31_ ^ 2 - 2 y_94_ * y_31_ + 1 y_94_ ^ 2 ] <= 8230.49
quadratic_ranged_518_ub: [ 1 x_67_ ^ 2 - 2 x_94_ * x_67_ + 1 x_94_ ^ 2 + 1 y_67_ ^ 2 - 2 y_94_ * y_67_ + 1 y_94_ ^ 2 ] <= 40469.69
quadratic_ranged_519_ub: [ 1 x_73_ ^ 2 - 2 x_94_ * x_73_ + 1 x_94_ ^ 2 + 1 y_73_ ^ 2 - 2 y_94_ * y_73_ + 1 y_94_ ^ 2 ] <= 35198.5
quadratic_ranged_520_ub: [ 1 x_78_ ^ 2 - 2 x_94_ * x_78_ + 1 x_94_ ^ 2 + 1 y_78_ ^ 2 - 2 y_94_ * y_78_ + 1 y_94_ ^ 2 ] <= 42214.97
quadratic_ranged_521_ub: [ 1 x_80_ ^ 2 - 2 x_94_ * x_80_ + 1 x_94_ ^ 2 + 1 y_80_ ^ 2 - 2 y_94_ * y_80_ + 1 y_94_ ^ 2 ] <= 13384.52
quadratic_ranged_522_ub: [ 1 x_91_ ^ 2 - 2 x_94_ * x_91_ + 1 x_94_ ^ 2 + 1 y_91_ ^ 2 - 2 y_94_ * y_91_ + 1 y_94_ ^ 2 ] <= 7955.77
quadratic_ranged_523_ub: [ 1 x_93_ ^ 2 - 2 x_94_ * x_93_ + 1 x_94_ ^ 2 + 1 y_93_ ^ 2 - 2 y_94_ * y_93_ + 1 y_94_ ^ 2 ] <= 24443.01
quadratic_ranged_524_ub: [ 1 x_6_ ^ 2 - 2 x_95_ * x_6_ + 1 x_95_ ^ 2 + 1 y_6_ ^ 2 - 2 y_95_ * y_6_ + 1 y_95_ ^ 2 ] <= 45758.05
quadratic_ranged_525_ub: [ 1 x_7_ ^ 2 - 2 x_95_ * x_7_ + 1 x_95_ ^ 2 + 1 y_7_ ^ 2 - 2 y_95_ * y_7_ + 1 y_95_ ^ 2 ] <= 26677.13
quadratic_ranged_526_ub: [ 1 x_25_ ^ 2 - 2 x_95_ * x_25_ + 1 x_95_ ^ 2 + 1 y_25_ ^ 2 - 2 y_95_ * y_25_ + 1 y_95_ ^ 2 ] <= 33597.65
quadratic_ranged_527_ub: [ 1 x_32_ ^ 2 - 2 x_95_ * x_32_ + 1 x_95_ ^ 2 + 1 y_32_ ^ 2 - 2 y_95_ * y_32_ + 1 y_95_ ^ 2 ] <= 5116.66
quadratic_ranged_528_ub: [ 1 x_33_ ^ 2 - 2 x_95_ * x_33_ + 1 x_95_ ^ 2 + 1 y_33_ ^ 2 - 2 y_95_ * y_33_ + 1 y_95_ ^ 2 ] <= 34188.5
quadratic_ranged_529_ub: [ 1 x_49_ ^ 2 - 2 x_95_ * x_49_ + 1 x_95_ ^ 2 + 1 y_49_ ^ 2 - 2 y_95_ * y_49_ + 1 y_95_ ^ 2 ] <= 2935.06
quadratic_ranged_530_ub: [ 1 x_50_ ^ 2 - 2 x_95_ * x_50_ + 1 x_95_ ^ 2 + 1 y_50_ ^ 2 - 2 y_95_ * y_50_ + 1 y_95_ ^ 2 ] <= 343.4
quadratic_ranged_531_ub: [ 1 x_51_ ^ 2 - 2 x_95_ * x_51_ + 1 x_95_ ^ 2 + 1 y_51_ ^ 2 - 2 y_95_ * y_51_ + 1 y_95_ ^ 2 ] <= 16799.33
quadratic_ranged_532_ub: [ 1 x_59_ ^ 2 - 2 x_95_ * x_59_ + 1 x_95_ ^ 2 + 1 y_59_ ^ 2 - 2 y_95_ * y_59_ + 1 y_95_ ^ 2 ] <= 11139.29
quadratic_ranged_533_ub: [ 1 x_63_ ^ 2 - 2 x_95_ * x_63_ + 1 x_95_ ^ 2 + 1 y_63_ ^ 2 - 2 y_95_ * y_63_ + 1 y_95_ ^ 2 ] <= 8245.64
quadratic_ranged_534_ub: [ 1 x_94_ ^ 2 - 2 x_95_ * x_94_ + 1 x_95_ ^ 2 + 1 y_94_ ^ 2 - 2 y_95_ * y_94_ + 1 y_95_ ^ 2 ] <= 5915.57
quadratic_ranged_535_ub: [ 1 x_4_ ^ 2 - 2 x_96_ * x_4_ + 1 x_96_ ^ 2 + 1 y_4_ ^ 2 - 2 y_96_ * y_4_ + 1 y_96_ ^ 2 ] <= 25114.66
quadratic_ranged_536_ub: [ 1 x_7_ ^ 2 - 2 x_96_ * x_7_ + 1 x_96_ ^ 2 + 1 y_7_ ^ 2 - 2 y_96_ * y_7_ + 1 y_96_ ^ 2 ] <= 13923.86
quadratic_ranged_537_ub: [ 1 x_14_ ^ 2 - 2 x_96_ * x_14_ + 1 x_96_ ^ 2 + 1 y_14_ ^ 2 - 2 y_96_ * y_14_ + 1 y_96_ ^ 2 ] <= 343.4
quadratic_ranged_538_ub: [ 1 x_44_ ^ 2 - 2 x_96_ * x_44_ + 1 x_96_ ^ 2 + 1 y_44_ ^ 2 - 2 y_96_ * y_44_ + 1 y_96_ ^ 2 ] <= 2146.25
quadratic_ranged_539_ub: [ 1 x_57_ ^ 2 - 2 x_96_ * x_57_ + 1 x_96_ ^ 2 + 1 y_57_ ^ 2 - 2 y_96_ * y_57_ + 1 y_96_ ^ 2 ] <= 14932.85
quadratic_ranged_540_ub: [ 1 x_69_ ^ 2 - 2 x_96_ * x_69_ + 1 x_96_ ^ 2 + 1 y_69_ ^ 2 - 2 y_96_ * y_69_ + 1 y_96_ ^ 2 ] <= 525.2
quadratic_ranged_541_ub: [ 1 x_73_ ^ 2 - 2 x_96_ * x_73_ + 1 x_96_ ^ 2 + 1 y_73_ ^ 2 - 2 y_96_ * y_73_ + 1 y_96_ ^ 2 ] <= 18157.78
quadratic_ranged_542_ub: [ 1 x_86_ ^ 2 - 2 x_96_ * x_86_ + 1 x_96_ ^ 2 + 1 y_86_ ^ 2 - 2 y_96_ * y_86_ + 1 y_96_ ^ 2 ] <= 17368.97
quadratic_ranged_543_ub: [ 1 x_92_ ^ 2 - 2 x_96_ * x_92_ + 1 x_96_ ^ 2 + 1 y_92_ ^ 2 - 2 y_96_ * y_92_ + 1 y_96_ ^ 2 ] <= 30794.9
quadratic_ranged_544_ub: [ 1 x_95_ ^ 2 - 2 x_96_ * x_95_ + 1 x_96_ ^ 2 + 1 y_95_ ^ 2 - 2 y_96_ * y_95_ + 1 y_96_ ^ 2 ] <= 11862.45
quadratic_ranged_545_ub: [ 1 x_5_ ^ 2 - 2 x_97_ * x_5_ + 1 x_97_ ^ 2 + 1 y_5_ ^ 2 - 2 y_97_ * y_5_ + 1 y_97_ ^ 2 ] <= 26850.85
quadratic_ranged_546_ub: [ 1 x_6_ ^ 2 - 2 x_97_ * x_6_ + 1 x_97_ ^ 2 + 1 y_6_ ^ 2 - 2 y_97_ * y_6_ + 1 y_97_ ^ 2 ] <= 31840.25
quadratic_ranged_547_ub: [ 1 x_21_ ^ 2 - 2 x_97_ * x_21_ + 1 x_97_ ^ 2 + 1 y_21_ ^ 2 - 2 y_97_ * y_21_ + 1 y_97_ ^ 2 ] <= 27804.29
quadratic_ranged_548_ub: [ 1 x_29_ ^ 2 - 2 x_97_ * x_29_ + 1 x_97_ ^ 2 + 1 y_29_ ^ 2 - 2 y_97_ * y_29_ + 1 y_97_ ^ 2 ] <= 14645
quadratic_ranged_549_ub: [ 1 x_34_ ^ 2 - 2 x_97_ * x_34_ + 1 x_97_ ^ 2 + 1 y_34_ ^ 2 - 2 y_97_ * y_34_ + 1 y_97_ ^ 2 ] <= 11579.65
quadratic_ranged_550_ub: [ 1 x_44_ ^ 2 - 2 x_97_ * x_44_ + 1 x_97_ ^ 2 + 1 y_44_ ^ 2 - 2 y_97_ * y_44_ + 1 y_97_ ^ 2 ] <= 4403.6
quadratic_ranged_551_ub: [ 1 x_66_ ^ 2 - 2 x_97_ * x_66_ + 1 x_97_ ^ 2 + 1 y_66_ ^ 2 - 2 y_97_ * y_66_ + 1 y_97_ ^ 2 ] <= 15769.130000000001
quadratic_ranged_552_ub: [ 1 x_72_ ^ 2 - 2 x_97_ * x_72_ + 1 x_97_ ^ 2 + 1 y_72_ ^ 2 - 2 y_97_ * y_72_ + 1 y_97_ ^ 2 ] <= 8000.21
quadratic_ranged_553_ub: [ 1 x_87_ ^ 2 - 2 x_97_ * x_87_ + 1 x_97_ ^ 2 + 1 y_87_ ^ 2 - 2 y_97_ * y_87_ + 1 y_97_ ^ 2 ] <= 236.34
quadratic_ranged_554_ub: [ 1 x_92_ ^ 2 - 2 x_97_ * x_92_ + 1 x_97_ ^ 2 + 1 y_92_ ^ 2 - 2 y_97_ * y_92_ + 1 y_97_ ^ 2 ] <= 42364.45
quadratic_ranged_555_ub: [ 1 x_96_ ^ 2 - 2 x_97_ * x_96_ + 1 x_97_ ^ 2 + 1 y_96_ ^ 2 - 2 y_97_ * y_96_ + 1 y_97_ ^ 2 ] <= 5398.45
quadratic_ranged_556_ub: [ 1 x_18_ ^ 2 - 2 x_98_ * x_18_ + 1 x_98_ ^ 2 + 1 y_18_ ^ 2 - 2 y_98_ * y_18_ + 1 y_98_ ^ 2 ] <= 9963.65
quadratic_ranged_557_ub: [ 1 x_60_ ^ 2 - 2 x_98_ * x_60_ + 1 x_98_ ^ 2 + 1 y_60_ ^ 2 - 2 y_98_ * y_60_ + 1 y_98_ ^ 2 ] <= 6019.6
quadratic_ranged_558_ub: [ 1 x_63_ ^ 2 - 2 x_98_ * x_63_ + 1 x_98_ ^ 2 + 1 y_63_ ^ 2 - 2 y_98_ * y_63_ + 1 y_98_ ^ 2 ] <= 497.93
quadratic_ranged_559_ub: [ 1 x_88_ ^ 2 - 2 x_98_ * x_88_ + 1 x_98_ ^ 2 + 1 y_88_ ^ 2 - 2 y_98_ * y_88_ + 1 y_98_ ^ 2 ] <= 5276.24
quadratic_ranged_560_ub: [ 1 x_91_ ^ 2 - 2 x_98_ * x_91_ + 1 x_98_ ^ 2 + 1 y_91_ ^ 2 - 2 y_98_ * y_91_ + 1 y_98_ ^ 2 ] <= 1467.53
quadratic_ranged_561_ub: [ 1 x_92_ ^ 2 - 2 x_98_ * x_92_ + 1 x_98_ ^ 2 + 1 y_92_ ^ 2 - 2 y_98_ * y_92_ + 1 y_98_ ^ 2 ] <= 8585
quadratic_ranged_562_ub: [ 1 x_96_ ^ 2 - 2 x_98_ * x_96_ + 1 x_98_ ^ 2 + 1 y_96_ ^ 2 - 2 y_98_ * y_96_ + 1 y_98_ ^ 2 ] <= 7128.58
quadratic_ranged_563_ub: [ 1 x_97_ ^ 2 - 2 x_98_ * x_97_ + 1 x_98_ ^ 2 + 1 y_97_ ^ 2 - 2 y_98_ * y_97_ + 1 y_98_ ^ 2 ] <= 13773.37
quadratic_ranged_564_ub: [ 1 x_3_ ^ 2 - 2 x_99_ * x_3_ + 1 x_99_ ^ 2 + 1 y_3_ ^ 2 - 2 y_99_ * y_3_ + 1 y_99_ ^ 2 ] <= 12631.06
quadratic_ranged_565_ub: [ 1 x_7_ ^ 2 - 2 x_99_ * x_7_ + 1 x_99_ ^ 2 + 1 y_7_ ^ 2 - 2 y_99_ * y_7_ + 1 y_99_ ^ 2 ] <= 16597.33
quadratic_ranged_566_ub: [ 1 x_15_ ^ 2 - 2 x_99_ * x_15_ + 1 x_99_ ^ 2 + 1 y_15_ ^ 2 - 2 y_99_ * y_15_ + 1 y_99_ ^ 2 ] <= 1891.73
quadratic_ranged_567_ub: [ 1 x_24_ ^ 2 - 2 x_99_ * x_24_ + 1 x_99_ ^ 2 + 1 y_24_ ^ 2 - 2 y_99_ * y_24_ + 1 y_99_ ^ 2 ] <= 16662.98
quadratic_ranged_568_ub: [ 1 x_31_ ^ 2 - 2 x_99_ * x_31_ + 1 x_99_ ^ 2 + 1 y_31_ ^ 2 - 2 y_99_ * y_31_ + 1 y_99_ ^ 2 ] <= 2561.36
quadratic_ranged_569_ub: [ 1 x_55_ ^ 2 - 2 x_99_ * x_55_ + 1 x_99_ ^ 2 + 1 y_55_ ^ 2 - 2 y_99_ * y_55_ + 1 y_99_ ^ 2 ] <= 14803.57
quadratic_ranged_570_ub: [ 1 x_68_ ^ 2 - 2 x_99_ * x_68_ + 1 x_99_ ^ 2 + 1 y_68_ ^ 2 - 2 y_99_ * y_68_ + 1 y_99_ ^ 2 ] <= 2319.97
quadratic_ranged_571_ub: [ 1 x_69_ ^ 2 - 2 x_99_ * x_69_ + 1 x_99_ ^ 2 + 1 y_69_ ^ 2 - 2 y_99_ * y_69_ + 1 y_99_ ^ 2 ] <= 6994.25
quadratic_ranged_572_ub: [ 1 x_76_ ^ 2 - 2 x_99_ * x_76_ + 1 x_99_ ^ 2 + 1 y_76_ ^ 2 - 2 y_99_ * y_76_ + 1 y_99_ ^ 2 ] <= 6918.5
quadratic_ranged_573_ub: [ 1 x_93_ ^ 2 - 2 x_99_ * x_93_ + 1 x_99_ ^ 2 + 1 y_93_ ^ 2 - 2 y_99_ * y_93_ + 1 y_99_ ^ 2 ] <= 5997.38
quadratic_ranged_574_ub: [ 1 x_98_ ^ 2 - 2 x_99_ * x_98_ + 1 x_99_ ^ 2 + 1 y_98_ ^ 2 - 2 y_99_ * y_98_ + 1 y_99_ ^ 2 ] <= 1249.3700000000001
quadratic_ranged_575_ub: [ 1 x_1_ ^ 2 - 2 x_100_ * x_1_ + 1 x_100_ ^ 2 + 1 y_1_ ^ 2 - 2 y_100_ * y_1_ + 1 y_100_ ^ 2 ] <= 8663.78
quadratic_ranged_576_ub: [ 1 x_14_ ^ 2 - 2 x_100_ * x_14_ + 1 x_100_ ^ 2 + 1 y_14_ ^ 2 - 2 y_100_ * y_14_ + 1 y_100_ ^ 2 ] <= 1585.7
quadratic_ranged_577_ub: [ 1 x_17_ ^ 2 - 2 x_100_ * x_17_ + 1 x_100_ ^ 2 + 1 y_17_ ^ 2 - 2 y_100_ * y_17_ + 1 y_100_ ^ 2 ] <= 9490.97
quadratic_ranged_578_ub: [ 1 x_33_ ^ 2 - 2 x_100_ * x_33_ + 1 x_100_ ^ 2 + 1 y_33_ ^ 2 - 2 y_100_ * y_33_ + 1 y_100_ ^ 2 ] <= 13478.45
quadratic_ranged_579_ub: [ 1 x_55_ ^ 2 - 2 x_100_ * x_55_ + 1 x_100_ ^ 2 + 1 y_55_ ^ 2 - 2 y_100_ * y_55_ + 1 y_100_ ^ 2 ] <= 10142.42
quadratic_ranged_580_ub: [ 1 x_66_ ^ 2 - 2 x_100_ * x_66_ + 1 x_100_ ^ 2 + 1 y_66_ ^ 2 - 2 y_100_ * y_66_ + 1 y_100_ ^ 2 ] <= 19741.46
quadratic_ranged_581_ub: [ 1 x_67_ ^ 2 - 2 x_100_ * x_67_ + 1 x_100_ ^ 2 + 1 y_67_ ^ 2 - 2 y_100_ * y_67_ + 1 y_100_ ^ 2 ] <= 17134.65
quadratic_ranged_582_ub: [ 1 x_75_ ^ 2 - 2 x_100_ * x_75_ + 1 x_100_ ^ 2 + 1 y_75_ ^ 2 - 2 y_100_ * y_75_ + 1 y_100_ ^ 2 ] <= 6827.6
quadratic_ranged_583_ub: [ 1 x_79_ ^ 2 - 2 x_100_ * x_79_ + 1 x_100_ ^ 2 + 1 y_79_ ^ 2 - 2 y_100_ * y_79_ + 1 y_100_ ^ 2 ] <= 13615.81
quadratic_ranged_584_ub: [ 1 x_92_ ^ 2 - 2 x_100_ * x_92_ + 1 x_100_ ^ 2 + 1 y_92_ ^ 2 - 2 y_100_ * y_92_ + 1 y_100_ ^ 2 ] <= 27734.6
quadratic_ranged_585_ub: [ 1 x_99_ ^ 2 - 2 x_100_ * x_99_ + 1 x_100_ ^ 2 + 1 y_99_ ^ 2 - 2 y_100_ * y_99_ + 1 y_100_ ^ 2 ] <= 9870.73
c1_2: 1 x_7_ >= 0
c2_2: 1 y_7_ >= 0
quadratic_ranged_1_lb: [ 1 x_1_ ^ 2 - 2 x_2_ * x_1_ + 1 x_2_ ^ 2 + 1 y_1_ ^ 2 - 2 y_2_ * y_1_ + 1 y_2_ ^ 2 ] >= 20063.34
quadratic_ranged_2_lb: [ 1 x_2_ ^ 2 - 2 x_3_ * x_2_ + 1 x_3_ ^ 2 + 1 y_2_ ^ 2 - 2 y_3_ * y_2_ + 1 y_3_ ^ 2 ] >= 31724.55
quadratic_ranged_3_lb: [ 1 x_3_ ^ 2 - 2 x_4_ * x_3_ + 1 x_4_ ^ 2 + 1 y_3_ ^ 2 - 2 y_4_ * y_3_ + 1 y_4_ ^ 2 ] >= 25000.47
quadratic_ranged_4_lb: [ 1 x_3_ ^ 2 - 2 x_5_ * x_3_ + 1 x_5_ ^ 2 + 1 y_3_ ^ 2 - 2 y_5_ * y_3_ + 1 y_5_ ^ 2 ] >= 25032.15
quadratic_ranged_5_lb: [ 1 x_4_ ^ 2 - 2 x_5_ * x_4_ + 1 x_5_ ^ 2 + 1 y_4_ ^ 2 - 2 y_5_ * y_4_ + 1 y_5_ ^ 2 ] >= 223.74
quadratic_ranged_6_lb: [ 1 x_5_ ^ 2 - 2 x_6_ * x_5_ + 1 x_6_ ^ 2 + 1 y_5_ ^ 2 - 2 y_6_ * y_5_ + 1 y_6_ ^ 2 ] >= 8365.5
quadratic_ranged_7_lb: [ 1 x_4_ ^ 2 - 2 x_7_ * x_4_ + 1 x_7_ ^ 2 + 1 y_4_ ^ 2 - 2 y_7_ * y_4_ + 1 y_7_ ^ 2 ] >= 7527.96
quadratic_ranged_8_lb: [ 1 x_6_ ^ 2 - 2 x_7_ * x_6_ + 1 x_7_ ^ 2 + 1 y_6_ ^ 2 - 2 y_7_ * y_6_ + 1 y_7_ ^ 2 ] >= 9226.8
quadratic_ranged_9_lb: [ 1 x_7_ ^ 2 - 2 x_8_ * x_7_ + 1 x_8_ ^ 2 + 1 y_7_ ^ 2 - 2 y_8_ * y_7_ + 1 y_8_ ^ 2 ] >= 25375.68
quadratic_ranged_10_lb: [ 1 x_8_ ^ 2 - 2 x_9_ * x_8_ + 1 x_9_ ^ 2 + 1 y_8_ ^ 2 - 2 y_9_ * y_8_ + 1 y_9_ ^ 2 ] >= 26312.22
quadratic_ranged_11_lb: [ 1 x_9_ ^ 2 - 2 x_10_ * x_9_ + 1 x_10_ ^ 2 + 1 y_9_ ^ 2 - 2 y_10_ * y_9_ + 1 y_10_ ^ 2 ] >= 990
quadratic_ranged_12_lb: [ 1 x_8_ ^ 2 - 2 x_11_ * x_8_ + 1 x_11_ ^ 2 + 1 y_8_ ^ 2 - 2 y_11_ * y_8_ + 1 y_11_ ^ 2 ] >= 17302.23
quadratic_ranged_13_lb: [ 1 x_10_ ^ 2 - 2 x_11_ * x_10_ + 1 x_11_ ^ 2 + 1 y_10_ ^ 2 - 2 y_11_ * y_10_ + 1 y_11_ ^ 2 ] >= 3838.23
quadratic_ranged_14_lb: [ 1 x_5_ ^ 2 - 2 x_12_ * x_5_ + 1 x_12_ ^ 2 + 1 y_5_ ^ 2 - 2 y_12_ * y_5_ + 1 y_12_ ^ 2 ] >= 5235.12
quadratic_ranged_15_lb: [ 1 x_11_ ^ 2 - 2 x_12_ * x_11_ + 1 x_12_ ^ 2 + 1 y_11_ ^ 2 - 2 y_12_ * y_11_ + 1 y_12_ ^ 2 ] >= 6487.47
quadratic_ranged_16_lb: [ 1 x_2_ ^ 2 - 2 x_13_ * x_2_ + 1 x_13_ ^ 2 + 1 y_2_ ^ 2 - 2 y_13_ * y_2_ + 1 y_13_ ^ 2 ] >= 4593.6
quadratic_ranged_17_lb: [ 1 x_4_ ^ 2 - 2 x_13_ * x_4_ + 1 x_13_ ^ 2 + 1 y_4_ ^ 2 - 2 y_13_ * y_4_ + 1 y_13_ ^ 2 ] >= 6450.84
quadratic_ranged_18_lb: [ 1 x_5_ ^ 2 - 2 x_13_ * x_5_ + 1 x_13_ ^ 2 + 1 y_5_ ^ 2 - 2 y_13_ * y_5_ + 1 y_13_ ^ 2 ] >= 8397.18
quadratic_ranged_19_lb: [ 1 x_10_ ^ 2 - 2 x_13_ * x_10_ + 1 x_13_ ^ 2 + 1 y_10_ ^ 2 - 2 y_13_ * y_10_ + 1 y_13_ ^ 2 ] >= 8816.94
quadratic_ranged_20_lb: [ 1 x_12_ ^ 2 - 2 x_13_ * x_12_ + 1 x_13_ ^ 2 + 1 y_12_ ^ 2 - 2 y_13_ * y_12_ + 1 y_13_ ^ 2 ] >= 572.22
quadratic_ranged_21_lb: [ 1 x_13_ ^ 2 - 2 x_14_ * x_13_ + 1 x_14_ ^ 2 + 1 y_13_ ^ 2 - 2 y_14_ * y_13_ + 1 y_14_ ^ 2 ] >= 20696.94
quadratic_ranged_22_lb: [ 1 x_1_ ^ 2 - 2 x_15_ * x_1_ + 1 x_15_ ^ 2 + 1 y_1_ ^ 2 - 2 y_15_ * y_1_ + 1 y_15_ ^ 2 ] >= 2443.32
quadratic_ranged_23_lb: [ 1 x_11_ ^ 2 - 2 x_15_ * x_11_ + 1 x_15_ ^ 2 + 1 y_11_ ^ 2 - 2 y_15_ * y_11_ + 1 y_15_ ^ 2 ] >= 8198.19
quadratic_ranged_24_lb: [ 1 x_14_ ^ 2 - 2 x_15_ * x_14_ + 1 x_15_ ^ 2 + 1 y_14_ ^ 2 - 2 y_15_ * y_14_ + 1 y_15_ ^ 2 ] >= 22354.2
quadratic_ranged_25_lb: [ 1 x_10_ ^ 2 - 2 x_16_ * x_10_ + 1 x_16_ ^ 2 + 1 y_10_ ^ 2 - 2 y_16_ * y_10_ + 1 y_16_ ^ 2 ] >= 16046.91
quadratic_ranged_26_lb: [ 1 x_15_ ^ 2 - 2 x_16_ * x_15_ + 1 x_16_ ^ 2 + 1 y_15_ ^ 2 - 2 y_16_ * y_15_ + 1 y_16_ ^ 2 ] >= 1113.75
quadratic_ranged_27_lb: [ 1 x_16_ ^ 2 - 2 x_17_ * x_16_ + 1 x_17_ ^ 2 + 1 y_16_ ^ 2 - 2 y_17_ * y_16_ + 1 y_17_ ^ 2 ] >= 792
quadratic_ranged_28_lb: [ 1 x_12_ ^ 2 - 2 x_18_ * x_12_ + 1 x_18_ ^ 2 + 1 y_12_ ^ 2 - 2 y_18_ * y_12_ + 1 y_18_ ^ 2 ] >= 1929.51
quadratic_ranged_29_lb: [ 1 x_17_ ^ 2 - 2 x_18_ * x_17_ + 1 x_18_ ^ 2 + 1 y_17_ ^ 2 - 2 y_18_ * y_17_ + 1 y_18_ ^ 2 ] >= 18701.1
quadratic_ranged_30_lb: [ 1 x_3_ ^ 2 - 2 x_19_ * x_3_ + 1 x_19_ ^ 2 + 1 y_3_ ^ 2 - 2 y_19_ * y_3_ + 1 y_19_ ^ 2 ] >= 30366.27
quadratic_ranged_31_lb: [ 1 x_14_ ^ 2 - 2 x_19_ * x_14_ + 1 x_19_ ^ 2 + 1 y_14_ ^ 2 - 2 y_19_ * y_14_ + 1 y_19_ ^ 2 ] >= 30232.62
quadratic_ranged_32_lb: [ 1 x_18_ ^ 2 - 2 x_19_ * x_18_ + 1 x_19_ ^ 2 + 1 y_18_ ^ 2 - 2 y_19_ * y_18_ + 1 y_19_ ^ 2 ] >= 31083.03
quadratic_ranged_33_lb: [ 1 x_1_ ^ 2 - 2 x_20_ * x_1_ + 1 x_20_ ^ 2 + 1 y_1_ ^ 2 - 2 y_20_ * y_1_ + 1 y_20_ ^ 2 ] >= 3653.1
quadratic_ranged_34_lb: [ 1 x_11_ ^ 2 - 2 x_20_ * x_11_ + 1 x_20_ ^ 2 + 1 y_11_ ^ 2 - 2 y_20_ * y_11_ + 1 y_20_ ^ 2 ] >= 1169.19
quadratic_ranged_35_lb: [ 1 x_16_ ^ 2 - 2 x_20_ * x_16_ + 1 x_20_ ^ 2 + 1 y_16_ ^ 2 - 2 y_20_ * y_16_ + 1 y_20_ ^ 2 ] >= 3153.15
quadratic_ranged_36_lb: [ 1 x_19_ ^ 2 - 2 x_20_ * x_19_ + 1 x_20_ ^ 2 + 1 y_19_ ^ 2 - 2 y_20_ * y_19_ + 1 y_20_ ^ 2 ] >= 7761.6
quadratic_ranged_37_lb: [ 1 x_10_ ^ 2 - 2 x_21_ * x_10_ + 1 x_21_ ^ 2 + 1 y_10_ ^ 2 - 2 y_21_ * y_10_ + 1 y_21_ ^ 2 ] >= 4708.44
quadratic_ranged_38_lb: [ 1 x_20_ ^ 2 - 2 x_21_ * x_20_ + 1 x_21_ ^ 2 + 1 y_20_ ^ 2 - 2 y_21_ * y_20_ + 1 y_21_ ^ 2 ] >= 1071.18
quadratic_ranged_39_lb: [ 1 x_10_ ^ 2 - 2 x_22_ * x_10_ + 1 x_22_ ^ 2 + 1 y_10_ ^ 2 - 2 y_22_ * y_10_ + 1 y_22_ ^ 2 ] >= 6672.6
quadratic_ranged_40_lb: [ 1 x_21_ ^ 2 - 2 x_22_ * x_21_ + 1 x_22_ ^ 2 + 1 y_21_ ^ 2 - 2 y_22_ * y_21_ + 1 y_22_ ^ 2 ] >= 6336
quadratic_ranged_41_lb: [ 1 x_1_ ^ 2 - 2 x_23_ * x_1_ + 1 x_23_ ^ 2 + 1 y_1_ ^ 2 - 2 y_23_ * y_1_ + 1 y_23_ ^ 2 ] >= 178.2
quadratic_ranged_42_lb: [ 1 x_2_ ^ 2 - 2 x_23_ * x_2_ + 1 x_23_ ^ 2 + 1 y_2_ ^ 2 - 2 y_23_ * y_2_ + 1 y_23_ ^ 2 ] >= 22225.5
quadratic_ranged_43_lb: [ 1 x_18_ ^ 2 - 2 x_23_ * x_18_ + 1 x_23_ ^ 2 + 1 y_18_ ^ 2 - 2 y_23_ * y_18_ + 1 y_23_ ^ 2 ] >= 19761.39
quadratic_ranged_44_lb: [ 1 x_22_ ^ 2 - 2 x_23_ * x_22_ + 1 x_23_ ^ 2 + 1 y_22_ ^ 2 - 2 y_23_ * y_22_ + 1 y_23_ ^ 2 ] >= 13420.44
quadratic_ranged_45_lb: [ 1 x_11_ ^ 2 - 2 x_24_ * x_11_ + 1 x_24_ ^ 2 + 1 y_11_ ^ 2 - 2 y_24_ * y_11_ + 1 y_24_ ^ 2 ] >= 4411.44
quadratic_ranged_46_lb: [ 1 x_22_ ^ 2 - 2 x_24_ * x_22_ + 1 x_24_ ^ 2 + 1 y_22_ ^ 2 - 2 y_24_ * y_22_ + 1 y_24_ ^ 2 ] >= 1727.55
quadratic_ranged_47_lb: [ 1 x_23_ ^ 2 - 2 x_24_ * x_23_ + 1 x_24_ ^ 2 + 1 y_23_ ^ 2 - 2 y_24_ * y_23_ + 1 y_24_ ^ 2 ] >= 17797.23
quadratic_ranged_48_lb: [ 1 x_17_ ^ 2 - 2 x_25_ * x_17_ + 1 x_25_ ^ 2 + 1 y_17_ ^ 2 - 2 y_25_ * y_17_ + 1 y_25_ ^ 2 ] >= 24723.27
quadratic_ranged_49_lb: [ 1 x_24_ ^ 2 - 2 x_25_ * x_24_ + 1 x_25_ ^ 2 + 1 y_24_ ^ 2 - 2 y_25_ * y_24_ + 1 y_25_ ^ 2 ] >= 14221.35
quadratic_ranged_50_lb: [ 1 x_1_ ^ 2 - 2 x_26_ * x_1_ + 1 x_26_ ^ 2 + 1 y_1_ ^ 2 - 2 y_26_ * y_1_ + 1 y_26_ ^ 2 ] >= 8455.59
quadratic_ranged_51_lb: [ 1 x_2_ ^ 2 - 2 x_26_ * x_2_ + 1 x_26_ ^ 2 + 1 y_2_ ^ 2 - 2 y_26_ * y_2_ + 1 y_26_ ^ 2 ] >= 46915.11
quadratic_ranged_52_lb: [ 1 x_6_ ^ 2 - 2 x_26_ * x_6_ + 1 x_26_ ^ 2 + 1 y_6_ ^ 2 - 2 y_26_ * y_6_ + 1 y_26_ ^ 2 ] >= 59713.83
quadratic_ranged_53_lb: [ 1 x_25_ ^ 2 - 2 x_26_ * x_25_ + 1 x_26_ ^ 2 + 1 y_25_ ^ 2 - 2 y_26_ * y_25_ + 1 y_26_ ^ 2 ] >= 25919.19
quadratic_ranged_54_lb: [ 1 x_10_ ^ 2 - 2 x_27_ * x_10_ + 1 x_27_ ^ 2 + 1 y_10_ ^ 2 - 2 y_27_ * y_10_ + 1 y_27_ ^ 2 ] >= 31561.2
quadratic_ranged_55_lb: [ 1 x_15_ ^ 2 - 2 x_27_ * x_15_ + 1 x_27_ ^ 2 + 1 y_15_ ^ 2 - 2 y_27_ * y_15_ + 1 y_27_ ^ 2 ] >= 27640.8
quadratic_ranged_56_lb: [ 1 x_19_ ^ 2 - 2 x_27_ * x_19_ + 1 x_27_ ^ 2 + 1 y_19_ ^ 2 - 2 y_27_ * y_19_ + 1 y_27_ ^ 2 ] >= 33701.58
quadratic_ranged_57_lb: [ 1 x_22_ ^ 2 - 2 x_27_ * x_22_ + 1 x_27_ ^ 2 + 1 y_22_ ^ 2 - 2 y_27_ * y_22_ + 1 y_27_ ^ 2 ] >= 9444.6
quadratic_ranged_58_lb: [ 1 x_26_ ^ 2 - 2 x_27_ * x_26_ + 1 x_27_ ^ 2 + 1 y_26_ ^ 2 - 2 y_27_ * y_26_ + 1 y_27_ ^ 2 ] >= 11433.51
quadratic_ranged_59_lb: [ 1 x_3_ ^ 2 - 2 x_28_ * x_3_ + 1 x_28_ ^ 2 + 1 y_3_ ^ 2 - 2 y_28_ * y_3_ + 1 y_28_ ^ 2 ] >= 2922.48
quadratic_ranged_60_lb: [ 1 x_4_ ^ 2 - 2 x_28_ * x_4_ + 1 x_28_ ^ 2 + 1 y_4_ ^ 2 - 2 y_28_ * y_4_ + 1 y_28_ ^ 2 ] >= 10827.63
quadratic_ranged_61_lb: [ 1 x_22_ ^ 2 - 2 x_28_ * x_22_ + 1 x_28_ ^ 2 + 1 y_22_ ^ 2 - 2 y_28_ * y_22_ + 1 y_28_ ^ 2 ] >= 4697.55
quadratic_ranged_62_lb: [ 1 x_27_ ^ 2 - 2 x_28_ * x_27_ + 1 x_28_ ^ 2 + 1 y_27_ ^ 2 - 2 y_28_ * y_27_ + 1 y_28_ ^ 2 ] >= 2499.75
quadratic_ranged_63_lb: [ 1 x_12_ ^ 2 - 2 x_29_ * x_12_ + 1 x_29_ ^ 2 + 1 y_12_ ^ 2 - 2 y_29_ * y_12_ + 1 y_29_ ^ 2 ] >= 202.95
quadratic_ranged_64_lb: [ 1 x_23_ ^ 2 - 2 x_29_ * x_23_ + 1 x_29_ ^ 2 + 1 y_23_ ^ 2 - 2 y_29_ * y_23_ + 1 y_29_ ^ 2 ] >= 14443.11
quadratic_ranged_65_lb: [ 1 x_28_ ^ 2 - 2 x_29_ * x_28_ + 1 x_29_ ^ 2 + 1 y_28_ ^ 2 - 2 y_29_ * y_28_ + 1 y_29_ ^ 2 ] >= 7280.46
quadratic_ranged_66_lb: [ 1 x_9_ ^ 2 - 2 x_30_ * x_9_ + 1 x_30_ ^ 2 + 1 y_9_ ^ 2 - 2 y_30_ * y_9_ + 1 y_30_ ^ 2 ] >= 9457.47
quadratic_ranged_67_lb: [ 1 x_26_ ^ 2 - 2 x_30_ * x_26_ + 1 x_30_ ^ 2 + 1 y_26_ ^ 2 - 2 y_30_ * y_26_ + 1 y_30_ ^ 2 ] >= 13386.78
quadratic_ranged_68_lb: [ 1 x_27_ ^ 2 - 2 x_30_ * x_27_ + 1 x_30_ ^ 2 + 1 y_27_ ^ 2 - 2 y_30_ * y_27_ + 1 y_30_ ^ 2 ] >= 2638.35
quadratic_ranged_69_lb: [ 1 x_29_ ^ 2 - 2 x_30_ * x_29_ + 1 x_30_ ^ 2 + 1 y_29_ ^ 2 - 2 y_30_ * y_29_ + 1 y_30_ ^ 2 ] >= 4904.46
quadratic_ranged_70_lb: [ 1 x_2_ ^ 2 - 2 x_31_ * x_2_ + 1 x_31_ ^ 2 + 1 y_2_ ^ 2 - 2 y_31_ * y_2_ + 1 y_31_ ^ 2 ] >= 36535.95
quadratic_ranged_71_lb: [ 1 x_17_ ^ 2 - 2 x_31_ * x_17_ + 1 x_31_ ^ 2 + 1 y_17_ ^ 2 - 2 y_31_ * y_17_ + 1 y_31_ ^ 2 ] >= 2094.84
quadratic_ranged_72_lb: [ 1 x_30_ ^ 2 - 2 x_31_ * x_30_ + 1 x_31_ ^ 2 + 1 y_30_ ^ 2 - 2 y_31_ * y_30_ + 1 y_31_ ^ 2 ] >= 18233.82
quadratic_ranged_73_lb: [ 1 x_8_ ^ 2 - 2 x_32_ * x_8_ + 1 x_32_ ^ 2 + 1 y_8_ ^ 2 - 2 y_32_ * y_8_ + 1 y_32_ ^ 2 ] >= 2281.95
quadratic_ranged_74_lb: [ 1 x_9_ ^ 2 - 2 x_32_ * x_9_ + 1 x_32_ ^ 2 + 1 y_9_ ^ 2 - 2 y_32_ * y_9_ + 1 y_32_ ^ 2 ] >= 39006.99
quadratic_ranged_75_lb: [ 1 x_28_ ^ 2 - 2 x_32_ * x_28_ + 1 x_32_ ^ 2 + 1 y_28_ ^ 2 - 2 y_32_ * y_28_ + 1 y_32_ ^ 2 ] >= 11222.64
quadratic_ranged_76_lb: [ 1 x_31_ ^ 2 - 2 x_32_ * x_31_ + 1 x_32_ ^ 2 + 1 y_31_ ^ 2 - 2 y_32_ * y_31_ + 1 y_32_ ^ 2 ] >= 7589.34
quadratic_ranged_77_lb: [ 1 x_3_ ^ 2 - 2 x_33_ * x_3_ + 1 x_33_ ^ 2 + 1 y_3_ ^ 2 - 2 y_33_ * y_3_ + 1 y_33_ ^ 2 ] >= 16766.64
quadratic_ranged_78_lb: [ 1 x_13_ ^ 2 - 2 x_33_ * x_13_ + 1 x_33_ ^ 2 + 1 y_13_ ^ 2 - 2 y_33_ * y_13_ + 1 y_33_ ^ 2 ] >= 373.23
quadratic_ranged_79_lb: [ 1 x_24_ ^ 2 - 2 x_33_ * x_24_ + 1 x_33_ ^ 2 + 1 y_24_ ^ 2 - 2 y_33_ * y_24_ + 1 y_33_ ^ 2 ] >= 3900.6
quadratic_ranged_80_lb: [ 1 x_32_ ^ 2 - 2 x_33_ * x_32_ + 1 x_33_ ^ 2 + 1 y_32_ ^ 2 - 2 y_33_ * y_32_ + 1 y_33_ ^ 2 ] >= 39386.159999999996
quadratic_ranged_81_lb: [ 1 x_1_ ^ 2 - 2 x_34_ * x_1_ + 1 x_34_ ^ 2 + 1 y_1_ ^ 2 - 2 y_34_ * y_1_ + 1 y_34_ ^ 2 ] >= 1245.42
quadratic_ranged_82_lb: [ 1 x_14_ ^ 2 - 2 x_34_ * x_14_ + 1 x_34_ ^ 2 + 1 y_14_ ^ 2 - 2 y_34_ * y_14_ + 1 y_34_ ^ 2 ] >= 6187.5
quadratic_ranged_83_lb: [ 1 x_33_ ^ 2 - 2 x_34_ * x_33_ + 1 x_34_ ^ 2 + 1 y_33_ ^ 2 - 2 y_34_ * y_33_ + 1 y_34_ ^ 2 ] >= 14221.35
quadratic_ranged_84_lb: [ 1 x_8_ ^ 2 - 2 x_35_ * x_8_ + 1 x_35_ ^ 2 + 1 y_8_ ^ 2 - 2 y_35_ * y_8_ + 1 y_35_ ^ 2 ] >= 1212.75
quadratic_ranged_85_lb: [ 1 x_18_ ^ 2 - 2 x_35_ * x_18_ + 1 x_35_ ^ 2 + 1 y_18_ ^ 2 - 2 y_35_ * y_18_ + 1 y_35_ ^ 2 ] >= 32796.72
quadratic_ranged_86_lb: [ 1 x_23_ ^ 2 - 2 x_35_ * x_23_ + 1 x_35_ ^ 2 + 1 y_23_ ^ 2 - 2 y_35_ * y_23_ + 1 y_35_ ^ 2 ] >= 2032.47
quadratic_ranged_87_lb: [ 1 x_28_ ^ 2 - 2 x_35_ * x_28_ + 1 x_35_ ^ 2 + 1 y_28_ ^ 2 - 2 y_35_ * y_28_ + 1 y_35_ ^ 2 ] >= 13535.28
quadratic_ranged_88_lb: [ 1 x_34_ ^ 2 - 2 x_35_ * x_34_ + 1 x_35_ ^ 2 + 1 y_34_ ^ 2 - 2 y_35_ * y_34_ + 1 y_35_ ^ 2 ] >= 6637.95
quadratic_ranged_89_lb: [ 1 x_22_ ^ 2 - 2 x_36_ * x_22_ + 1 x_36_ ^ 2 + 1 y_22_ ^ 2 - 2 y_36_ * y_22_ + 1 y_36_ ^ 2 ] >= 2757.15
quadratic_ranged_90_lb: [ 1 x_33_ ^ 2 - 2 x_36_ * x_33_ + 1 x_36_ ^ 2 + 1 y_33_ ^ 2 - 2 y_36_ * y_33_ + 1 y_36_ ^ 2 ] >= 8848.62
quadratic_ranged_91_lb: [ 1 x_35_ ^ 2 - 2 x_36_ * x_35_ + 1 x_36_ ^ 2 + 1 y_35_ ^ 2 - 2 y_36_ * y_35_ + 1 y_36_ ^ 2 ] >= 14772.78
quadratic_ranged_92_lb: [ 1 x_25_ ^ 2 - 2 x_37_ * x_25_ + 1 x_37_ ^ 2 + 1 y_25_ ^ 2 - 2 y_37_ * y_25_ + 1 y_37_ ^ 2 ] >= 8890.2
quadratic_ranged_93_lb: [ 1 x_28_ ^ 2 - 2 x_37_ * x_28_ + 1 x_37_ ^ 2 + 1 y_28_ ^ 2 - 2 y_37_ * y_28_ + 1 y_37_ ^ 2 ] >= 1466.19
quadratic_ranged_94_lb: [ 1 x_34_ ^ 2 - 2 x_37_ * x_34_ + 1 x_37_ ^ 2 + 1 y_34_ ^ 2 - 2 y_37_ * y_34_ + 1 y_37_ ^ 2 ] >= 2663.1
quadratic_ranged_95_lb: [ 1 x_36_ ^ 2 - 2 x_37_ * x_36_ + 1 x_37_ ^ 2 + 1 y_36_ ^ 2 - 2 y_37_ * y_36_ + 1 y_37_ ^ 2 ] >= 12585.869999999999
quadratic_ranged_96_lb: [ 1 x_2_ ^ 2 - 2 x_38_ * x_2_ + 1 x_38_ ^ 2 + 1 y_2_ ^ 2 - 2 y_38_ * y_2_ + 1 y_38_ ^ 2 ] >= 18410.04
quadratic_ranged_97_lb: [ 1 x_16_ ^ 2 - 2 x_38_ * x_16_ + 1 x_38_ ^ 2 + 1 y_16_ ^ 2 - 2 y_38_ * y_16_ + 1 y_38_ ^ 2 ] >= 25804.35
quadratic_ranged_98_lb: [ 1 x_22_ ^ 2 - 2 x_38_ * x_22_ + 1 x_38_ ^ 2 + 1 y_22_ ^ 2 - 2 y_38_ * y_22_ + 1 y_38_ ^ 2 ] >= 6591.42
quadratic_ranged_99_lb: [ 1 x_28_ ^ 2 - 2 x_38_ * x_28_ + 1 x_38_ ^ 2 + 1 y_28_ ^ 2 - 2 y_38_ * y_28_ + 1 y_38_ ^ 2 ] >= 5560.83
quadratic_ranged_100_lb: [ 1 x_30_ ^ 2 - 2 x_38_ * x_30_ + 1 x_38_ ^ 2 + 1 y_30_ ^ 2 - 2 y_38_ * y_30_ + 1 y_38_ ^ 2 ] >= 3794.67
quadratic_ranged_101_lb: [ 1 x_31_ ^ 2 - 2 x_38_ * x_31_ + 1 x_38_ ^ 2 + 1 y_31_ ^ 2 - 2 y_38_ * y_31_ + 1 y_38_ ^ 2 ] >= 37696.23
quadratic_ranged_102_lb: [ 1 x_32_ ^ 2 - 2 x_38_ * x_32_ + 1 x_38_ ^ 2 + 1 y_32_ ^ 2 - 2 y_38_ * y_32_ + 1 y_38_ ^ 2 ] >= 27621.989999999998
quadratic_ranged_103_lb: [ 1 x_37_ ^ 2 - 2 x_38_ * x_37_ + 1 x_38_ ^ 2 + 1 y_37_ ^ 2 - 2 y_38_ * y_37_ + 1 y_38_ ^ 2 ] >= 7613.1
quadratic_ranged_104_lb: [ 1 x_8_ ^ 2 - 2 x_39_ * x_8_ + 1 x_39_ ^ 2 + 1 y_8_ ^ 2 - 2 y_39_ * y_8_ + 1 y_39_ ^ 2 ] >= 13785.75
quadratic_ranged_105_lb: [ 1 x_25_ ^ 2 - 2 x_39_ * x_25_ + 1 x_39_ ^ 2 + 1 y_25_ ^ 2 - 2 y_39_ * y_25_ + 1 y_39_ ^ 2 ] >= 3497.67
quadratic_ranged_106_lb: [ 1 x_38_ ^ 2 - 2 x_39_ * x_38_ + 1 x_39_ ^ 2 + 1 y_38_ ^ 2 - 2 y_39_ * y_38_ + 1 y_39_ ^ 2 ] >= 2717.55
quadratic_ranged_107_lb: [ 1 x_22_ ^ 2 - 2 x_40_ * x_22_ + 1 x_40_ ^ 2 + 1 y_22_ ^ 2 - 2 y_40_ * y_22_ + 1 y_40_ ^ 2 ] >= 4638.15
quadratic_ranged_108_lb: [ 1 x_30_ ^ 2 - 2 x_40_ * x_30_ + 1 x_40_ ^ 2 + 1 y_30_ ^ 2 - 2 y_40_ * y_30_ + 1 y_40_ ^ 2 ] >= 3280.86
quadratic_ranged_109_lb: [ 1 x_39_ ^ 2 - 2 x_40_ * x_39_ + 1 x_40_ ^ 2 + 1 y_39_ ^ 2 - 2 y_40_ * y_39_ + 1 y_40_ ^ 2 ] >= 3502.62
quadratic_ranged_110_lb: [ 1 x_5_ ^ 2 - 2 x_41_ * x_5_ + 1 x_41_ ^ 2 + 1 y_5_ ^ 2 - 2 y_41_ * y_5_ + 1 y_41_ ^ 2 ] >= 1941.3899999999999
quadratic_ranged_111_lb: [ 1 x_35_ ^ 2 - 2 x_41_ * x_35_ + 1 x_41_ ^ 2 + 1 y_35_ ^ 2 - 2 y_41_ * y_35_ + 1 y_41_ ^ 2 ] >= 8415
quadratic_ranged_112_lb: [ 1 x_40_ ^ 2 - 2 x_41_ * x_40_ + 1 x_41_ ^ 2 + 1 y_40_ ^ 2 - 2 y_41_ * y_40_ + 1 y_41_ ^ 2 ] >= 22486.86
quadratic_ranged_113_lb: [ 1 x_1_ ^ 2 - 2 x_42_ * x_1_ + 1 x_42_ ^ 2 + 1 y_1_ ^ 2 - 2 y_42_ * y_1_ + 1 y_42_ ^ 2 ] >= 15364.8
quadratic_ranged_114_lb: [ 1 x_3_ ^ 2 - 2 x_42_ * x_3_ + 1 x_42_ ^ 2 + 1 y_3_ ^ 2 - 2 y_42_ * y_3_ + 1 y_42_ ^ 2 ] >= 11029.59
quadratic_ranged_115_lb: [ 1 x_15_ ^ 2 - 2 x_42_ * x_15_ + 1 x_42_ ^ 2 + 1 y_15_ ^ 2 - 2 y_42_ * y_15_ + 1 y_42_ ^ 2 ] >= 27898.2
quadratic_ranged_116_lb: [ 1 x_41_ ^ 2 - 2 x_42_ * x_41_ + 1 x_42_ ^ 2 + 1 y_41_ ^ 2 - 2 y_42_ * y_41_ + 1 y_42_ ^ 2 ] >= 15231.15
quadratic_ranged_117_lb: [ 1 x_3_ ^ 2 - 2 x_43_ * x_3_ + 1 x_43_ ^ 2 + 1 y_3_ ^ 2 - 2 y_43_ * y_3_ + 1 y_43_ ^ 2 ] >= 16473.6
quadratic_ranged_118_lb: [ 1 x_4_ ^ 2 - 2 x_43_ * x_4_ + 1 x_43_ ^ 2 + 1 y_4_ ^ 2 - 2 y_43_ * y_4_ + 1 y_43_ ^ 2 ] >= 891.99
quadratic_ranged_119_lb: [ 1 x_22_ ^ 2 - 2 x_43_ * x_22_ + 1 x_43_ ^ 2 + 1 y_22_ ^ 2 - 2 y_43_ * y_22_ + 1 y_43_ ^ 2 ] >= 1581.03
quadratic_ranged_120_lb: [ 1 x_23_ ^ 2 - 2 x_43_ * x_23_ + 1 x_43_ ^ 2 + 1 y_23_ ^ 2 - 2 y_43_ * y_23_ + 1 y_43_ ^ 2 ] >= 7608.15
quadratic_ranged_121_lb: [ 1 x_42_ ^ 2 - 2 x_43_ * x_42_ + 1 x_43_ ^ 2 + 1 y_42_ ^ 2 - 2 y_43_ * y_42_ + 1 y_43_ ^ 2 ] >= 5263.83
quadratic_ranged_122_lb: [ 1 x_14_ ^ 2 - 2 x_44_ * x_14_ + 1 x_44_ ^ 2 + 1 y_14_ ^ 2 - 2 y_44_ * y_14_ + 1 y_44_ ^ 2 ] >= 4056.0299999999997
quadratic_ranged_123_lb: [ 1 x_15_ ^ 2 - 2 x_44_ * x_15_ + 1 x_44_ ^ 2 + 1 y_15_ ^ 2 - 2 y_44_ * y_15_ + 1 y_44_ ^ 2 ] >= 15726.15
quadratic_ranged_124_lb: [ 1 x_18_ ^ 2 - 2 x_44_ * x_18_ + 1 x_44_ ^ 2 + 1 y_18_ ^ 2 - 2 y_44_ * y_18_ + 1 y_44_ ^ 2 ] >= 5522.22
quadratic_ranged_125_lb: [ 1 x_19_ ^ 2 - 2 x_44_ * x_19_ + 1 x_44_ ^ 2 + 1 y_19_ ^ 2 - 2 y_44_ * y_19_ + 1 y_44_ ^ 2 ] >= 20082.15
quadratic_ranged_126_lb: [ 1 x_26_ ^ 2 - 2 x_44_ * x_26_ + 1 x_44_ ^ 2 + 1 y_26_ ^ 2 - 2 y_44_ * y_26_ + 1 y_44_ ^ 2 ] >= 8573.4
quadratic_ranged_127_lb: [ 1 x_35_ ^ 2 - 2 x_44_ * x_35_ + 1 x_44_ ^ 2 + 1 y_35_ ^ 2 - 2 y_44_ * y_35_ + 1 y_44_ ^ 2 ] >= 14305.5
quadratic_ranged_128_lb: [ 1 x_43_ ^ 2 - 2 x_44_ * x_43_ + 1 x_44_ ^ 2 + 1 y_43_ ^ 2 - 2 y_44_ * y_43_ + 1 y_44_ ^ 2 ] >= 6900.3
quadratic_ranged_129_lb: [ 1 x_6_ ^ 2 - 2 x_45_ * x_6_ + 1 x_45_ ^ 2 + 1 y_6_ ^ 2 - 2 y_45_ * y_6_ + 1 y_45_ ^ 2 ] >= 13191.75
quadratic_ranged_130_lb: [ 1 x_19_ ^ 2 - 2 x_45_ * x_19_ + 1 x_45_ ^ 2 + 1 y_19_ ^ 2 - 2 y_45_ * y_19_ + 1 y_45_ ^ 2 ] >= 26580.51
quadratic_ranged_131_lb: [ 1 x_27_ ^ 2 - 2 x_45_ * x_27_ + 1 x_45_ ^ 2 + 1 y_27_ ^ 2 - 2 y_45_ * y_27_ + 1 y_45_ ^ 2 ] >= 4254.03
quadratic_ranged_132_lb: [ 1 x_29_ ^ 2 - 2 x_45_ * x_29_ + 1 x_45_ ^ 2 + 1 y_29_ ^ 2 - 2 y_45_ * y_29_ + 1 y_45_ ^ 2 ] >= 3019.5
quadratic_ranged_133_lb: [ 1 x_34_ ^ 2 - 2 x_45_ * x_34_ + 1 x_45_ ^ 2 + 1 y_34_ ^ 2 - 2 y_45_ * y_34_ + 1 y_45_ ^ 2 ] >= 6835.95
quadratic_ranged_134_lb: [ 1 x_39_ ^ 2 - 2 x_45_ * x_39_ + 1 x_45_ ^ 2 + 1 y_39_ ^ 2 - 2 y_45_ * y_39_ + 1 y_45_ ^ 2 ] >= 3777.84
quadratic_ranged_135_lb: [ 1 x_44_ ^ 2 - 2 x_45_ * x_44_ + 1 x_45_ ^ 2 + 1 y_44_ ^ 2 - 2 y_45_ * y_44_ + 1 y_45_ ^ 2 ] >= 3098.7
quadratic_ranged_136_lb: [ 1 x_16_ ^ 2 - 2 x_46_ * x_16_ + 1 x_46_ ^ 2 + 1 y_16_ ^ 2 - 2 y_46_ * y_16_ + 1 y_46_ ^ 2 ] >= 1239.48
quadratic_ranged_137_lb: [ 1 x_24_ ^ 2 - 2 x_46_ * x_24_ + 1 x_46_ ^ 2 + 1 y_24_ ^ 2 - 2 y_46_ * y_24_ + 1 y_46_ ^ 2 ] >= 8246.7
quadratic_ranged_138_lb: [ 1 x_35_ ^ 2 - 2 x_46_ * x_35_ + 1 x_46_ ^ 2 + 1 y_35_ ^ 2 - 2 y_46_ * y_35_ + 1 y_46_ ^ 2 ] >= 9252.539999999999
quadratic_ranged_139_lb: [ 1 x_37_ ^ 2 - 2 x_46_ * x_37_ + 1 x_46_ ^ 2 + 1 y_37_ ^ 2 - 2 y_46_ * y_37_ + 1 y_46_ ^ 2 ] >= 15258.869999999999
quadratic_ranged_140_lb: [ 1 x_45_ ^ 2 - 2 x_46_ * x_45_ + 1 x_46_ ^ 2 + 1 y_45_ ^ 2 - 2 y_46_ * y_45_ + 1 y_46_ ^ 2 ] >= 12555.18
quadratic_ranged_141_lb: [ 1 x_10_ ^ 2 - 2 x_47_ * x_10_ + 1 x_47_ ^ 2 + 1 y_10_ ^ 2 - 2 y_47_ * y_10_ + 1 y_47_ ^ 2 ] >= 28021.95
quadratic_ranged_142_lb: [ 1 x_11_ ^ 2 - 2 x_47_ * x_11_ + 1 x_47_ ^ 2 + 1 y_11_ ^ 2 - 2 y_47_ * y_11_ + 1 y_47_ ^ 2 ] >= 20586.06
quadratic_ranged_143_lb: [ 1 x_16_ ^ 2 - 2 x_47_ * x_16_ + 1 x_47_ ^ 2 + 1 y_16_ ^ 2 - 2 y_47_ * y_16_ + 1 y_47_ ^ 2 ] >= 18247.68
quadratic_ranged_144_lb: [ 1 x_27_ ^ 2 - 2 x_47_ * x_27_ + 1 x_47_ ^ 2 + 1 y_27_ ^ 2 - 2 y_47_ * y_27_ + 1 y_47_ ^ 2 ] >= 123.75
quadratic_ranged_145_lb: [ 1 x_37_ ^ 2 - 2 x_47_ * x_37_ + 1 x_47_ ^ 2 + 1 y_37_ ^ 2 - 2 y_47_ * y_37_ + 1 y_47_ ^ 2 ] >= 2190.87
quadratic_ranged_146_lb: [ 1 x_39_ ^ 2 - 2 x_47_ * x_39_ + 1 x_47_ ^ 2 + 1 y_39_ ^ 2 - 2 y_47_ * y_39_ + 1 y_47_ ^ 2 ] >= 128.7
quadratic_ranged_147_lb: [ 1 x_46_ ^ 2 - 2 x_47_ * x_46_ + 1 x_47_ ^ 2 + 1 y_46_ ^ 2 - 2 y_47_ * y_46_ + 1 y_47_ ^ 2 ] >= 19107
quadratic_ranged_148_lb: [ 1 x_3_ ^ 2 - 2 x_48_ * x_3_ + 1 x_48_ ^ 2 + 1 y_3_ ^ 2 - 2 y_48_ * y_3_ + 1 y_48_ ^ 2 ] >= 2344.32
quadratic_ranged_149_lb: [ 1 x_16_ ^ 2 - 2 x_48_ * x_16_ + 1 x_48_ ^ 2 + 1 y_16_ ^ 2 - 2 y_48_ * y_16_ + 1 y_48_ ^ 2 ] >= 9157.5
quadratic_ranged_150_lb: [ 1 x_18_ ^ 2 - 2 x_48_ * x_18_ + 1 x_48_ ^ 2 + 1 y_18_ ^ 2 - 2 y_48_ * y_18_ + 1 y_48_ ^ 2 ] >= 5203.44
quadratic_ranged_151_lb: [ 1 x_24_ ^ 2 - 2 x_48_ * x_24_ + 1 x_48_ ^ 2 + 1 y_24_ ^ 2 - 2 y_48_ * y_24_ + 1 y_48_ ^ 2 ] >= 12375
quadratic_ranged_152_lb: [ 1 x_33_ ^ 2 - 2 x_48_ * x_33_ + 1 x_48_ ^ 2 + 1 y_33_ ^ 2 - 2 y_48_ * y_33_ + 1 y_48_ ^ 2 ] >= 8751.6
quadratic_ranged_153_lb: [ 1 x_34_ ^ 2 - 2 x_48_ * x_34_ + 1 x_48_ ^ 2 + 1 y_34_ ^ 2 - 2 y_48_ * y_34_ + 1 y_48_ ^ 2 ] >= 1608.75
quadratic_ranged_154_lb: [ 1 x_35_ ^ 2 - 2 x_48_ * x_35_ + 1 x_48_ ^ 2 + 1 y_35_ ^ 2 - 2 y_48_ * y_35_ + 1 y_48_ ^ 2 ] >= 14335.2
quadratic_ranged_155_lb: [ 1 x_44_ ^ 2 - 2 x_48_ * x_44_ + 1 x_48_ ^ 2 + 1 y_44_ ^ 2 - 2 y_48_ * y_44_ + 1 y_48_ ^ 2 ] >= 9.9
quadratic_ranged_156_lb: [ 1 x_47_ ^ 2 - 2 x_48_ * x_47_ + 1 x_48_ ^ 2 + 1 y_47_ ^ 2 - 2 y_48_ * y_47_ + 1 y_48_ ^ 2 ] >= 1554.3
quadratic_ranged_157_lb: [ 1 x_11_ ^ 2 - 2 x_49_ * x_11_ + 1 x_49_ ^ 2 + 1 y_11_ ^ 2 - 2 y_49_ * y_11_ + 1 y_49_ ^ 2 ] >= 17697.24
quadratic_ranged_158_lb: [ 1 x_14_ ^ 2 - 2 x_49_ * x_14_ + 1 x_49_ ^ 2 + 1 y_14_ ^ 2 - 2 y_49_ * y_14_ + 1 y_49_ ^ 2 ] >= 3149.19
quadratic_ranged_159_lb: [ 1 x_19_ ^ 2 - 2 x_49_ * x_19_ + 1 x_49_ ^ 2 + 1 y_19_ ^ 2 - 2 y_49_ * y_19_ + 1 y_49_ ^ 2 ] >= 14617.35
quadratic_ranged_160_lb: [ 1 x_48_ ^ 2 - 2 x_49_ * x_48_ + 1 x_49_ ^ 2 + 1 y_48_ ^ 2 - 2 y_49_ * y_48_ + 1 y_49_ ^ 2 ] >= 4506.48
quadratic_ranged_161_lb: [ 1 x_5_ ^ 2 - 2 x_50_ * x_5_ + 1 x_50_ ^ 2 + 1 y_5_ ^ 2 - 2 y_50_ * y_5_ + 1 y_50_ ^ 2 ] >= 11627.55
quadratic_ranged_162_lb: [ 1 x_9_ ^ 2 - 2 x_50_ * x_9_ + 1 x_50_ ^ 2 + 1 y_9_ ^ 2 - 2 y_50_ * y_9_ + 1 y_50_ ^ 2 ] >= 18224.91
quadratic_ranged_163_lb: [ 1 x_11_ ^ 2 - 2 x_50_ * x_11_ + 1 x_50_ ^ 2 + 1 y_11_ ^ 2 - 2 y_50_ * y_11_ + 1 y_50_ ^ 2 ] >= 9981.18
quadratic_ranged_164_lb: [ 1 x_30_ ^ 2 - 2 x_50_ * x_30_ + 1 x_50_ ^ 2 + 1 y_30_ ^ 2 - 2 y_50_ * y_30_ + 1 y_50_ ^ 2 ] >= 11121.66
quadratic_ranged_165_lb: [ 1 x_45_ ^ 2 - 2 x_50_ * x_45_ + 1 x_50_ ^ 2 + 1 y_45_ ^ 2 - 2 y_50_ * y_45_ + 1 y_50_ ^ 2 ] >= 18265.5
quadratic_ranged_166_lb: [ 1 x_49_ ^ 2 - 2 x_50_ * x_49_ + 1 x_50_ ^ 2 + 1 y_49_ ^ 2 - 2 y_50_ * y_49_ + 1 y_50_ ^ 2 ] >= 3217.5
quadratic_ranged_167_lb: [ 1 x_4_ ^ 2 - 2 x_51_ * x_4_ + 1 x_51_ ^ 2 + 1 y_4_ ^ 2 - 2 y_51_ * y_4_ + 1 y_51_ ^ 2 ] >= 128.7
quadratic_ranged_168_lb: [ 1 x_6_ ^ 2 - 2 x_51_ * x_6_ + 1 x_51_ ^ 2 + 1 y_6_ ^ 2 - 2 y_51_ * y_6_ + 1 y_51_ ^ 2 ] >= 7082.46
quadratic_ranged_169_lb: [ 1 x_16_ ^ 2 - 2 x_51_ * x_16_ + 1 x_51_ ^ 2 + 1 y_16_ ^ 2 - 2 y_51_ * y_16_ + 1 y_51_ ^ 2 ] >= 6166.71
quadratic_ranged_170_lb: [ 1 x_29_ ^ 2 - 2 x_51_ * x_29_ + 1 x_51_ ^ 2 + 1 y_29_ ^ 2 - 2 y_51_ * y_29_ + 1 y_51_ ^ 2 ] >= 1751.31
quadratic_ranged_171_lb: [ 1 x_36_ ^ 2 - 2 x_51_ * x_36_ + 1 x_51_ ^ 2 + 1 y_36_ ^ 2 - 2 y_51_ * y_36_ + 1 y_51_ ^ 2 ] >= 373.23
quadratic_ranged_172_lb: [ 1 x_40_ ^ 2 - 2 x_51_ * x_40_ + 1 x_51_ ^ 2 + 1 y_40_ ^ 2 - 2 y_51_ * y_40_ + 1 y_51_ ^ 2 ] >= 14482.71
quadratic_ranged_173_lb: [ 1 x_45_ ^ 2 - 2 x_51_ * x_45_ + 1 x_51_ ^ 2 + 1 y_45_ ^ 2 - 2 y_51_ * y_45_ + 1 y_51_ ^ 2 ] >= 7315.11
quadratic_ranged_174_lb: [ 1 x_50_ ^ 2 - 2 x_51_ * x_50_ + 1 x_51_ ^ 2 + 1 y_50_ ^ 2 - 2 y_51_ * y_50_ + 1 y_51_ ^ 2 ] >= 12126.51
quadratic_ranged_175_lb: [ 1 x_2_ ^ 2 - 2 x_52_ * x_2_ + 1 x_52_ ^ 2 + 1 y_2_ ^ 2 - 2 y_52_ * y_2_ + 1 y_52_ ^ 2 ] >= 7497.2699999999995
quadratic_ranged_176_lb: [ 1 x_12_ ^ 2 - 2 x_52_ * x_12_ + 1 x_52_ ^ 2 + 1 y_12_ ^ 2 - 2 y_52_ * y_12_ + 1 y_52_ ^ 2 ] >= 1771.11
quadratic_ranged_177_lb: [ 1 x_21_ ^ 2 - 2 x_52_ * x_21_ + 1 x_52_ ^ 2 + 1 y_21_ ^ 2 - 2 y_52_ * y_21_ + 1 y_52_ ^ 2 ] >= 12538.35
quadratic_ranged_178_lb: [ 1 x_25_ ^ 2 - 2 x_52_ * x_25_ + 1 x_52_ ^ 2 + 1 y_25_ ^ 2 - 2 y_52_ * y_25_ + 1 y_52_ ^ 2 ] >= 2503.71
quadratic_ranged_179_lb: [ 1 x_44_ ^ 2 - 2 x_52_ * x_44_ + 1 x_52_ ^ 2 + 1 y_44_ ^ 2 - 2 y_52_ * y_44_ + 1 y_52_ ^ 2 ] >= 4950
quadratic_ranged_180_lb: [ 1 x_51_ ^ 2 - 2 x_52_ * x_51_ + 1 x_52_ ^ 2 + 1 y_51_ ^ 2 - 2 y_52_ * y_51_ + 1 y_52_ ^ 2 ] >= 7572.51
quadratic_ranged_181_lb: [ 1 x_3_ ^ 2 - 2 x_53_ * x_3_ + 1 x_53_ ^ 2 + 1 y_3_ ^ 2 - 2 y_53_ * y_3_ + 1 y_53_ ^ 2 ] >= 1298.8799999999999
quadratic_ranged_182_lb: [ 1 x_11_ ^ 2 - 2 x_53_ * x_11_ + 1 x_53_ ^ 2 + 1 y_11_ ^ 2 - 2 y_53_ * y_11_ + 1 y_53_ ^ 2 ] >= 24255
quadratic_ranged_183_lb: [ 1 x_15_ ^ 2 - 2 x_53_ * x_15_ + 1 x_53_ ^ 2 + 1 y_15_ ^ 2 - 2 y_53_ * y_15_ + 1 y_53_ ^ 2 ] >= 17124.03
quadratic_ranged_184_lb: [ 1 x_22_ ^ 2 - 2 x_53_ * x_22_ + 1 x_53_ ^ 2 + 1 y_22_ ^ 2 - 2 y_53_ * y_22_ + 1 y_53_ ^ 2 ] >= 17824.95
quadratic_ranged_185_lb: [ 1 x_25_ ^ 2 - 2 x_53_ * x_25_ + 1 x_53_ ^ 2 + 1 y_25_ ^ 2 - 2 y_53_ * y_25_ + 1 y_53_ ^ 2 ] >= 14977.71
quadratic_ranged_186_lb: [ 1 x_26_ ^ 2 - 2 x_53_ * x_26_ + 1 x_53_ ^ 2 + 1 y_26_ ^ 2 - 2 y_53_ * y_26_ + 1 y_53_ ^ 2 ] >= 1514.7
quadratic_ranged_187_lb: [ 1 x_30_ ^ 2 - 2 x_53_ * x_30_ + 1 x_53_ ^ 2 + 1 y_30_ ^ 2 - 2 y_53_ * y_30_ + 1 y_53_ ^ 2 ] >= 6894.36
quadratic_ranged_188_lb: [ 1 x_34_ ^ 2 - 2 x_53_ * x_34_ + 1 x_53_ ^ 2 + 1 y_34_ ^ 2 - 2 y_53_ * y_34_ + 1 y_53_ ^ 2 ] >= 4135.23
quadratic_ranged_189_lb: [ 1 x_39_ ^ 2 - 2 x_53_ * x_39_ + 1 x_53_ ^ 2 + 1 y_39_ ^ 2 - 2 y_53_ * y_39_ + 1 y_53_ ^ 2 ] >= 3999.6
quadratic_ranged_190_lb: [ 1 x_42_ ^ 2 - 2 x_53_ * x_42_ + 1 x_53_ ^ 2 + 1 y_42_ ^ 2 - 2 y_53_ * y_42_ + 1 y_53_ ^ 2 ] >= 16692.39
quadratic_ranged_191_lb: [ 1 x_52_ ^ 2 - 2 x_53_ * x_52_ + 1 x_53_ ^ 2 + 1 y_52_ ^ 2 - 2 y_53_ * y_52_ + 1 y_53_ ^ 2 ] >= 16483.5
quadratic_ranged_192_lb: [ 1 x_9_ ^ 2 - 2 x_54_ * x_9_ + 1 x_54_ ^ 2 + 1 y_9_ ^ 2 - 2 y_54_ * y_9_ + 1 y_54_ ^ 2 ] >= 9925.74
quadratic_ranged_193_lb: [ 1 x_12_ ^ 2 - 2 x_54_ * x_12_ + 1 x_54_ ^ 2 + 1 y_12_ ^ 2 - 2 y_54_ * y_12_ + 1 y_54_ ^ 2 ] >= 3851.1
quadratic_ranged_194_lb: [ 1 x_13_ ^ 2 - 2 x_54_ * x_13_ + 1 x_54_ ^ 2 + 1 y_13_ ^ 2 - 2 y_54_ * y_13_ + 1 y_54_ ^ 2 ] >= 1825.56
quadratic_ranged_195_lb: [ 1 x_29_ ^ 2 - 2 x_54_ * x_29_ + 1 x_54_ ^ 2 + 1 y_29_ ^ 2 - 2 y_54_ * y_29_ + 1 y_54_ ^ 2 ] >= 4444.11
quadratic_ranged_196_lb: [ 1 x_41_ ^ 2 - 2 x_54_ * x_41_ + 1 x_54_ ^ 2 + 1 y_41_ ^ 2 - 2 y_54_ * y_41_ + 1 y_54_ ^ 2 ] >= 14177.789999999999
quadratic_ranged_197_lb: [ 1 x_48_ ^ 2 - 2 x_54_ * x_48_ + 1 x_54_ ^ 2 + 1 y_48_ ^ 2 - 2 y_54_ * y_48_ + 1 y_54_ ^ 2 ] >= 1973.07
quadratic_ranged_198_lb: [ 1 x_49_ ^ 2 - 2 x_54_ * x_49_ + 1 x_54_ ^ 2 + 1 y_49_ ^ 2 - 2 y_54_ * y_49_ + 1 y_54_ ^ 2 ] >= 12431.43
quadratic_ranged_199_lb: [ 1 x_53_ ^ 2 - 2 x_54_ * x_53_ + 1 x_54_ ^ 2 + 1 y_53_ ^ 2 - 2 y_54_ * y_53_ + 1 y_54_ ^ 2 ] >= 10597.95
quadratic_ranged_200_lb: [ 1 x_9_ ^ 2 - 2 x_55_ * x_9_ + 1 x_55_ ^ 2 + 1 y_9_ ^ 2 - 2 y_55_ * y_9_ + 1 y_55_ ^ 2 ] >= 4233.24
quadratic_ranged_201_lb: [ 1 x_22_ ^ 2 - 2 x_55_ * x_22_ + 1 x_55_ ^ 2 + 1 y_22_ ^ 2 - 2 y_55_ * y_22_ + 1 y_55_ ^ 2 ] >= 205.92
quadratic_ranged_202_lb: [ 1 x_40_ ^ 2 - 2 x_55_ * x_40_ + 1 x_55_ ^ 2 + 1 y_40_ ^ 2 - 2 y_55_ * y_40_ + 1 y_55_ ^ 2 ] >= 3172.95
quadratic_ranged_203_lb: [ 1 x_52_ ^ 2 - 2 x_55_ * x_52_ + 1 x_55_ ^ 2 + 1 y_52_ ^ 2 - 2 y_55_ * y_52_ + 1 y_55_ ^ 2 ] >= 444.51
quadratic_ranged_204_lb: [ 1 x_54_ ^ 2 - 2 x_55_ * x_54_ + 1 x_55_ ^ 2 + 1 y_54_ ^ 2 - 2 y_55_ * y_54_ + 1 y_55_ ^ 2 ] >= 1625.58
quadratic_ranged_205_lb: [ 1 x_28_ ^ 2 - 2 x_56_ * x_28_ + 1 x_56_ ^ 2 + 1 y_28_ ^ 2 - 2 y_56_ * y_28_ + 1 y_56_ ^ 2 ] >= 1188.99
quadratic_ranged_206_lb: [ 1 x_45_ ^ 2 - 2 x_56_ * x_45_ + 1 x_56_ ^ 2 + 1 y_45_ ^ 2 - 2 y_56_ * y_45_ + 1 y_56_ ^ 2 ] >= 7251.75
quadratic_ranged_207_lb: [ 1 x_52_ ^ 2 - 2 x_56_ * x_52_ + 1 x_56_ ^ 2 + 1 y_52_ ^ 2 - 2 y_56_ * y_52_ + 1 y_56_ ^ 2 ] >= 9968.31
quadratic_ranged_208_lb: [ 1 x_55_ ^ 2 - 2 x_56_ * x_55_ + 1 x_56_ ^ 2 + 1 y_55_ ^ 2 - 2 y_56_ * y_55_ + 1 y_56_ ^ 2 ] >= 11187
quadratic_ranged_209_lb: [ 1 x_3_ ^ 2 - 2 x_57_ * x_3_ + 1 x_57_ ^ 2 + 1 y_3_ ^ 2 - 2 y_57_ * y_3_ + 1 y_57_ ^ 2 ] >= 15792.48
quadratic_ranged_210_lb: [ 1 x_9_ ^ 2 - 2 x_57_ * x_9_ + 1 x_57_ ^ 2 + 1 y_9_ ^ 2 - 2 y_57_ * y_9_ + 1 y_57_ ^ 2 ] >= 4776.75
quadratic_ranged_211_lb: [ 1 x_12_ ^ 2 - 2 x_57_ * x_12_ + 1 x_57_ ^ 2 + 1 y_12_ ^ 2 - 2 y_57_ * y_12_ + 1 y_57_ ^ 2 ] >= 7675.47
quadratic_ranged_212_lb: [ 1 x_20_ ^ 2 - 2 x_57_ * x_20_ + 1 x_57_ ^ 2 + 1 y_20_ ^ 2 - 2 y_57_ * y_20_ + 1 y_57_ ^ 2 ] >= 436.59
quadratic_ranged_213_lb: [ 1 x_22_ ^ 2 - 2 x_57_ * x_22_ + 1 x_57_ ^ 2 + 1 y_22_ ^ 2 - 2 y_57_ * y_22_ + 1 y_57_ ^ 2 ] >= 5707.35
quadratic_ranged_214_lb: [ 1 x_23_ ^ 2 - 2 x_57_ * x_23_ + 1 x_57_ ^ 2 + 1 y_23_ ^ 2 - 2 y_57_ * y_23_ + 1 y_57_ ^ 2 ] >= 2468.07
quadratic_ranged_215_lb: [ 1 x_39_ ^ 2 - 2 x_57_ * x_39_ + 1 x_57_ ^ 2 + 1 y_39_ ^ 2 - 2 y_57_ * y_39_ + 1 y_57_ ^ 2 ] >= 13598.64
quadratic_ranged_216_lb: [ 1 x_52_ ^ 2 - 2 x_57_ * x_52_ + 1 x_57_ ^ 2 + 1 y_52_ ^ 2 - 2 y_57_ * y_52_ + 1 y_57_ ^ 2 ] >= 10567.26
quadratic_ranged_217_lb: [ 1 x_56_ ^ 2 - 2 x_57_ * x_56_ + 1 x_57_ ^ 2 + 1 y_56_ ^ 2 - 2 y_57_ * y_56_ + 1 y_57_ ^ 2 ] >= 8970.39
quadratic_ranged_218_lb: [ 1 x_11_ ^ 2 - 2 x_58_ * x_11_ + 1 x_58_ ^ 2 + 1 y_11_ ^ 2 - 2 y_58_ * y_11_ + 1 y_58_ ^ 2 ] >= 1950.3
quadratic_ranged_219_lb: [ 1 x_15_ ^ 2 - 2 x_58_ * x_15_ + 1 x_58_ ^ 2 + 1 y_15_ ^ 2 - 2 y_58_ * y_15_ + 1 y_58_ ^ 2 ] >= 2234.43
quadratic_ranged_220_lb: [ 1 x_21_ ^ 2 - 2 x_58_ * x_21_ + 1 x_58_ ^ 2 + 1 y_21_ ^ 2 - 2 y_58_ * y_21_ + 1 y_58_ ^ 2 ] >= 1418.67
quadratic_ranged_221_lb: [ 1 x_23_ ^ 2 - 2 x_58_ * x_23_ + 1 x_58_ ^ 2 + 1 y_23_ ^ 2 - 2 y_58_ * y_23_ + 1 y_58_ ^ 2 ] >= 2697.75
quadratic_ranged_222_lb: [ 1 x_29_ ^ 2 - 2 x_58_ * x_29_ + 1 x_58_ ^ 2 + 1 y_29_ ^ 2 - 2 y_58_ * y_29_ + 1 y_58_ ^ 2 ] >= 10695.96
quadratic_ranged_223_lb: [ 1 x_32_ ^ 2 - 2 x_58_ * x_32_ + 1 x_58_ ^ 2 + 1 y_32_ ^ 2 - 2 y_58_ * y_32_ + 1 y_58_ ^ 2 ] >= 21599.82
quadratic_ranged_224_lb: [ 1 x_35_ ^ 2 - 2 x_58_ * x_35_ + 1 x_58_ ^ 2 + 1 y_35_ ^ 2 - 2 y_58_ * y_35_ + 1 y_58_ ^ 2 ] >= 7660.62
quadratic_ranged_225_lb: [ 1 x_38_ ^ 2 - 2 x_58_ * x_38_ + 1 x_58_ ^ 2 + 1 y_38_ ^ 2 - 2 y_58_ * y_38_ + 1 y_58_ ^ 2 ] >= 29772.27
quadratic_ranged_226_lb: [ 1 x_57_ ^ 2 - 2 x_58_ * x_57_ + 1 x_58_ ^ 2 + 1 y_57_ ^ 2 - 2 y_58_ * y_57_ + 1 y_58_ ^ 2 ] >= 1245.42
quadratic_ranged_227_lb: [ 1 x_13_ ^ 2 - 2 x_59_ * x_13_ + 1 x_59_ ^ 2 + 1 y_13_ ^ 2 - 2 y_59_ * y_13_ + 1 y_59_ ^ 2 ] >= 33937.2
quadratic_ranged_228_lb: [ 1 x_21_ ^ 2 - 2 x_59_ * x_21_ + 1 x_59_ ^ 2 + 1 y_21_ ^ 2 - 2 y_59_ * y_21_ + 1 y_59_ ^ 2 ] >= 7114.14
quadratic_ranged_229_lb: [ 1 x_36_ ^ 2 - 2 x_59_ * x_36_ + 1 x_59_ ^ 2 + 1 y_36_ ^ 2 - 2 y_59_ * y_36_ + 1 y_59_ ^ 2 ] >= 11884.95
quadratic_ranged_230_lb: [ 1 x_38_ ^ 2 - 2 x_59_ * x_38_ + 1 x_59_ ^ 2 + 1 y_38_ ^ 2 - 2 y_59_ * y_38_ + 1 y_59_ ^ 2 ] >= 51563.159999999996
quadratic_ranged_231_lb: [ 1 x_39_ ^ 2 - 2 x_59_ * x_39_ + 1 x_59_ ^ 2 + 1 y_39_ ^ 2 - 2 y_59_ * y_39_ + 1 y_59_ ^ 2 ] >= 40476.15
quadratic_ranged_232_lb: [ 1 x_58_ ^ 2 - 2 x_59_ * x_58_ + 1 x_59_ ^ 2 + 1 y_58_ ^ 2 - 2 y_59_ * y_58_ + 1 y_59_ ^ 2 ] >= 2994.75
quadratic_ranged_233_lb: [ 1 x_6_ ^ 2 - 2 x_60_ * x_6_ + 1 x_60_ ^ 2 + 1 y_6_ ^ 2 - 2 y_60_ * y_6_ + 1 y_60_ ^ 2 ] >= 51329.52
quadratic_ranged_234_lb: [ 1 x_16_ ^ 2 - 2 x_60_ * x_16_ + 1 x_60_ ^ 2 + 1 y_16_ ^ 2 - 2 y_60_ * y_16_ + 1 y_60_ ^ 2 ] >= 6645.87
quadratic_ranged_235_lb: [ 1 x_18_ ^ 2 - 2 x_60_ * x_18_ + 1 x_60_ ^ 2 + 1 y_18_ ^ 2 - 2 y_60_ * y_18_ + 1 y_60_ ^ 2 ] >= 27091.35
quadratic_ranged_236_lb: [ 1 x_29_ ^ 2 - 2 x_60_ * x_29_ + 1 x_60_ ^ 2 + 1 y_29_ ^ 2 - 2 y_60_ * y_29_ + 1 y_60_ ^ 2 ] >= 26346.87
quadratic_ranged_237_lb: [ 1 x_37_ ^ 2 - 2 x_60_ * x_37_ + 1 x_60_ ^ 2 + 1 y_37_ ^ 2 - 2 y_60_ * y_37_ + 1 y_60_ ^ 2 ] >= 6306.3
quadratic_ranged_238_lb: [ 1 x_41_ ^ 2 - 2 x_60_ * x_41_ + 1 x_60_ ^ 2 + 1 y_41_ ^ 2 - 2 y_60_ * y_41_ + 1 y_60_ ^ 2 ] >= 12276.99
quadratic_ranged_239_lb: [ 1 x_50_ ^ 2 - 2 x_60_ * x_50_ + 1 x_60_ ^ 2 + 1 y_50_ ^ 2 - 2 y_60_ * y_50_ + 1 y_60_ ^ 2 ] >= 2250.27
quadratic_ranged_240_lb: [ 1 x_55_ ^ 2 - 2 x_60_ * x_55_ + 1 x_60_ ^ 2 + 1 y_55_ ^ 2 - 2 y_60_ * y_55_ + 1 y_60_ ^ 2 ] >= 25425.18
quadratic_ranged_241_lb: [ 1 x_58_ ^ 2 - 2 x_60_ * x_58_ + 1 x_60_ ^ 2 + 1 y_58_ ^ 2 - 2 y_60_ * y_58_ + 1 y_60_ ^ 2 ] >= 12617.55
quadratic_ranged_242_lb: [ 1 x_59_ ^ 2 - 2 x_60_ * x_59_ + 1 x_60_ ^ 2 + 1 y_59_ ^ 2 - 2 y_60_ * y_59_ + 1 y_60_ ^ 2 ] >= 19467.36
quadratic_ranged_243_lb: [ 1 x_3_ ^ 2 - 2 x_61_ * x_3_ + 1 x_61_ ^ 2 + 1 y_3_ ^ 2 - 2 y_61_ * y_3_ + 1 y_61_ ^ 2 ] >= 5284.62
quadratic_ranged_244_lb: [ 1 x_11_ ^ 2 - 2 x_61_ * x_11_ + 1 x_61_ ^ 2 + 1 y_11_ ^ 2 - 2 y_61_ * y_11_ + 1 y_61_ ^ 2 ] >= 9767.34
quadratic_ranged_245_lb: [ 1 x_17_ ^ 2 - 2 x_61_ * x_17_ + 1 x_61_ ^ 2 + 1 y_17_ ^ 2 - 2 y_61_ * y_17_ + 1 y_61_ ^ 2 ] >= 1338.48
quadratic_ranged_246_lb: [ 1 x_42_ ^ 2 - 2 x_61_ * x_42_ + 1 x_61_ ^ 2 + 1 y_42_ ^ 2 - 2 y_61_ * y_42_ + 1 y_61_ ^ 2 ] >= 11587.95
quadratic_ranged_247_lb: [ 1 x_46_ ^ 2 - 2 x_61_ * x_46_ + 1 x_61_ ^ 2 + 1 y_46_ ^ 2 - 2 y_61_ * y_46_ + 1 y_61_ ^ 2 ] >= 6039
quadratic_ranged_248_lb: [ 1 x_60_ ^ 2 - 2 x_61_ * x_60_ + 1 x_61_ ^ 2 + 1 y_60_ ^ 2 - 2 y_61_ * y_60_ + 1 y_61_ ^ 2 ] >= 2998.71
quadratic_ranged_249_lb: [ 1 x_10_ ^ 2 - 2 x_62_ * x_10_ + 1 x_62_ ^ 2 + 1 y_10_ ^ 2 - 2 y_62_ * y_10_ + 1 y_62_ ^ 2 ] >= 3331.35
quadratic_ranged_250_lb: [ 1 x_12_ ^ 2 - 2 x_62_ * x_12_ + 1 x_62_ ^ 2 + 1 y_12_ ^ 2 - 2 y_62_ * y_12_ + 1 y_62_ ^ 2 ] >= 3113.55
quadratic_ranged_251_lb: [ 1 x_13_ ^ 2 - 2 x_62_ * x_13_ + 1 x_62_ ^ 2 + 1 y_13_ ^ 2 - 2 y_62_ * y_13_ + 1 y_62_ ^ 2 ] >= 5362.83
quadratic_ranged_252_lb: [ 1 x_31_ ^ 2 - 2 x_62_ * x_31_ + 1 x_62_ ^ 2 + 1 y_31_ ^ 2 - 2 y_62_ * y_31_ + 1 y_62_ ^ 2 ] >= 17275.5
quadratic_ranged_253_lb: [ 1 x_45_ ^ 2 - 2 x_62_ * x_45_ + 1 x_62_ ^ 2 + 1 y_45_ ^ 2 - 2 y_62_ * y_45_ + 1 y_62_ ^ 2 ] >= 6767.64
quadratic_ranged_254_lb: [ 1 x_61_ ^ 2 - 2 x_62_ * x_61_ + 1 x_62_ ^ 2 + 1 y_61_ ^ 2 - 2 y_62_ * y_61_ + 1 y_62_ ^ 2 ] >= 8555.58
quadratic_ranged_255_lb: [ 1 x_1_ ^ 2 - 2 x_63_ * x_1_ + 1 x_63_ ^ 2 + 1 y_1_ ^ 2 - 2 y_63_ * y_1_ + 1 y_63_ ^ 2 ] >= 2638.35
quadratic_ranged_256_lb: [ 1 x_14_ ^ 2 - 2 x_63_ * x_14_ + 1 x_63_ ^ 2 + 1 y_14_ ^ 2 - 2 y_63_ * y_14_ + 1 y_63_ ^ 2 ] >= 9184.23
quadratic_ranged_257_lb: [ 1 x_22_ ^ 2 - 2 x_63_ * x_22_ + 1 x_63_ ^ 2 + 1 y_22_ ^ 2 - 2 y_63_ * y_22_ + 1 y_63_ ^ 2 ] >= 3351.15
quadratic_ranged_258_lb: [ 1 x_37_ ^ 2 - 2 x_63_ * x_37_ + 1 x_63_ ^ 2 + 1 y_37_ ^ 2 - 2 y_63_ * y_37_ + 1 y_63_ ^ 2 ] >= 4103.55
quadratic_ranged_259_lb: [ 1 x_42_ ^ 2 - 2 x_63_ * x_42_ + 1 x_63_ ^ 2 + 1 y_42_ ^ 2 - 2 y_63_ * y_42_ + 1 y_63_ ^ 2 ] >= 5291.55
quadratic_ranged_260_lb: [ 1 x_54_ ^ 2 - 2 x_63_ * x_54_ + 1 x_63_ ^ 2 + 1 y_54_ ^ 2 - 2 y_63_ * y_54_ + 1 y_63_ ^ 2 ] >= 3410.55
quadratic_ranged_261_lb: [ 1 x_62_ ^ 2 - 2 x_63_ * x_62_ + 1 x_63_ ^ 2 + 1 y_62_ ^ 2 - 2 y_63_ * y_62_ + 1 y_63_ ^ 2 ] >= 3668.94
quadratic_ranged_262_lb: [ 1 x_6_ ^ 2 - 2 x_64_ * x_6_ + 1 x_64_ ^ 2 + 1 y_6_ ^ 2 - 2 y_64_ * y_6_ + 1 y_64_ ^ 2 ] >= 24287.67
quadratic_ranged_263_lb: [ 1 x_22_ ^ 2 - 2 x_64_ * x_22_ + 1 x_64_ ^ 2 + 1 y_22_ ^ 2 - 2 y_64_ * y_22_ + 1 y_64_ ^ 2 ] >= 6645.87
quadratic_ranged_264_lb: [ 1 x_35_ ^ 2 - 2 x_64_ * x_35_ + 1 x_64_ ^ 2 + 1 y_35_ ^ 2 - 2 y_64_ * y_35_ + 1 y_64_ ^ 2 ] >= 6496.38
quadratic_ranged_265_lb: [ 1 x_45_ ^ 2 - 2 x_64_ * x_45_ + 1 x_64_ ^ 2 + 1 y_45_ ^ 2 - 2 y_64_ * y_45_ + 1 y_64_ ^ 2 ] >= 6868.62
quadratic_ranged_266_lb: [ 1 x_59_ ^ 2 - 2 x_64_ * x_59_ + 1 x_64_ ^ 2 + 1 y_59_ ^ 2 - 2 y_64_ * y_59_ + 1 y_64_ ^ 2 ] >= 14676.75
quadratic_ranged_267_lb: [ 1 x_63_ ^ 2 - 2 x_64_ * x_63_ + 1 x_64_ ^ 2 + 1 y_63_ ^ 2 - 2 y_64_ * y_63_ + 1 y_64_ ^ 2 ] >= 586.08
quadratic_ranged_268_lb: [ 1 x_11_ ^ 2 - 2 x_65_ * x_11_ + 1 x_65_ ^ 2 + 1 y_11_ ^ 2 - 2 y_65_ * y_11_ + 1 y_65_ ^ 2 ] >= 8637.75
quadratic_ranged_269_lb: [ 1 x_24_ ^ 2 - 2 x_65_ * x_24_ + 1 x_65_ ^ 2 + 1 y_24_ ^ 2 - 2 y_65_ * y_24_ + 1 y_65_ ^ 2 ] >= 792.99
quadratic_ranged_270_lb: [ 1 x_28_ ^ 2 - 2 x_65_ * x_28_ + 1 x_65_ ^ 2 + 1 y_28_ ^ 2 - 2 y_65_ * y_28_ + 1 y_65_ ^ 2 ] >= 11896.83
quadratic_ranged_271_lb: [ 1 x_46_ ^ 2 - 2 x_65_ * x_46_ + 1 x_65_ ^ 2 + 1 y_46_ ^ 2 - 2 y_65_ * y_46_ + 1 y_65_ ^ 2 ] >= 13156.11
quadratic_ranged_272_lb: [ 1 x_47_ ^ 2 - 2 x_65_ * x_47_ + 1 x_65_ ^ 2 + 1 y_47_ ^ 2 - 2 y_65_ * y_47_ + 1 y_65_ ^ 2 ] >= 14423.31
quadratic_ranged_273_lb: [ 1 x_64_ ^ 2 - 2 x_65_ * x_64_ + 1 x_65_ ^ 2 + 1 y_64_ ^ 2 - 2 y_65_ * y_64_ + 1 y_65_ ^ 2 ] >= 14649.03
quadratic_ranged_274_lb: [ 1 x_13_ ^ 2 - 2 x_66_ * x_13_ + 1 x_66_ ^ 2 + 1 y_13_ ^ 2 - 2 y_66_ * y_13_ + 1 y_66_ ^ 2 ] >= 1237.5
quadratic_ranged_275_lb: [ 1 x_14_ ^ 2 - 2 x_66_ * x_14_ + 1 x_66_ ^ 2 + 1 y_14_ ^ 2 - 2 y_66_ * y_14_ + 1 y_66_ ^ 2 ] >= 31822.56
quadratic_ranged_276_lb: [ 1 x_18_ ^ 2 - 2 x_66_ * x_18_ + 1 x_66_ ^ 2 + 1 y_18_ ^ 2 - 2 y_66_ * y_18_ + 1 y_66_ ^ 2 ] >= 2769.03
quadratic_ranged_277_lb: [ 1 x_30_ ^ 2 - 2 x_66_ * x_30_ + 1 x_66_ ^ 2 + 1 y_30_ ^ 2 - 2 y_66_ * y_30_ + 1 y_66_ ^ 2 ] >= 8499.15
quadratic_ranged_278_lb: [ 1 x_33_ ^ 2 - 2 x_66_ * x_33_ + 1 x_66_ ^ 2 + 1 y_33_ ^ 2 - 2 y_66_ * y_33_ + 1 y_66_ ^ 2 ] >= 1216.71
quadratic_ranged_279_lb: [ 1 x_37_ ^ 2 - 2 x_66_ * x_37_ + 1 x_66_ ^ 2 + 1 y_37_ ^ 2 - 2 y_66_ * y_37_ + 1 y_66_ ^ 2 ] >= 21486.96
quadratic_ranged_280_lb: [ 1 x_39_ ^ 2 - 2 x_66_ * x_39_ + 1 x_66_ ^ 2 + 1 y_39_ ^ 2 - 2 y_66_ * y_39_ + 1 y_66_ ^ 2 ] >= 16003.35
quadratic_ranged_281_lb: [ 1 x_46_ ^ 2 - 2 x_66_ * x_46_ + 1 x_66_ ^ 2 + 1 y_46_ ^ 2 - 2 y_66_ * y_46_ + 1 y_66_ ^ 2 ] >= 14637.15
quadratic_ranged_282_lb: [ 1 x_54_ ^ 2 - 2 x_66_ * x_54_ + 1 x_66_ ^ 2 + 1 y_54_ ^ 2 - 2 y_66_ * y_54_ + 1 y_66_ ^ 2 ] >= 6068.7
quadratic_ranged_283_lb: [ 1 x_63_ ^ 2 - 2 x_66_ * x_63_ + 1 x_66_ ^ 2 + 1 y_63_ ^ 2 - 2 y_66_ * y_63_ + 1 y_66_ ^ 2 ] >= 10293.03
quadratic_ranged_284_lb: [ 1 x_65_ ^ 2 - 2 x_66_ * x_65_ + 1 x_66_ ^ 2 + 1 y_65_ ^ 2 - 2 y_66_ * y_65_ + 1 y_66_ ^ 2 ] >= 51.48
quadratic_ranged_285_lb: [ 1 x_52_ ^ 2 - 2 x_67_ * x_52_ + 1 x_67_ ^ 2 + 1 y_52_ ^ 2 - 2 y_67_ * y_52_ + 1 y_67_ ^ 2 ] >= 5260.86
quadratic_ranged_286_lb: [ 1 x_66_ ^ 2 - 2 x_67_ * x_66_ + 1 x_67_ ^ 2 + 1 y_66_ ^ 2 - 2 y_67_ * y_66_ + 1 y_67_ ^ 2 ] >= 2899.71
quadratic_ranged_287_lb: [ 1 x_2_ ^ 2 - 2 x_68_ * x_2_ + 1 x_68_ ^ 2 + 1 y_2_ ^ 2 - 2 y_68_ * y_2_ + 1 y_68_ ^ 2 ] >= 36630
quadratic_ranged_288_lb: [ 1 x_4_ ^ 2 - 2 x_68_ * x_4_ + 1 x_68_ ^ 2 + 1 y_4_ ^ 2 - 2 y_68_ * y_4_ + 1 y_68_ ^ 2 ] >= 20912.76
quadratic_ranged_289_lb: [ 1 x_9_ ^ 2 - 2 x_68_ * x_9_ + 1 x_68_ ^ 2 + 1 y_9_ ^ 2 - 2 y_68_ * y_9_ + 1 y_68_ ^ 2 ] >= 25947.9
quadratic_ranged_290_lb: [ 1 x_27_ ^ 2 - 2 x_68_ * x_27_ + 1 x_68_ ^ 2 + 1 y_27_ ^ 2 - 2 y_68_ * y_27_ + 1 y_68_ ^ 2 ] >= 22225.5
quadratic_ranged_291_lb: [ 1 x_33_ ^ 2 - 2 x_68_ * x_33_ + 1 x_68_ ^ 2 + 1 y_33_ ^ 2 - 2 y_68_ * y_33_ + 1 y_68_ ^ 2 ] >= 37197.27
quadratic_ranged_292_lb: [ 1 x_36_ ^ 2 - 2 x_68_ * x_36_ + 1 x_68_ ^ 2 + 1 y_36_ ^ 2 - 2 y_68_ * y_36_ + 1 y_68_ ^ 2 ] >= 14118.39
quadratic_ranged_293_lb: [ 1 x_66_ ^ 2 - 2 x_68_ * x_66_ + 1 x_68_ ^ 2 + 1 y_66_ ^ 2 - 2 y_68_ * y_66_ + 1 y_68_ ^ 2 ] >= 38897.1
quadratic_ranged_294_lb: [ 1 x_67_ ^ 2 - 2 x_68_ * x_67_ + 1 x_68_ ^ 2 + 1 y_67_ ^ 2 - 2 y_68_ * y_67_ + 1 y_68_ ^ 2 ] >= 23705.55
quadratic_ranged_295_lb: [ 1 x_27_ ^ 2 - 2 x_69_ * x_27_ + 1 x_69_ ^ 2 + 1 y_27_ ^ 2 - 2 y_69_ * y_27_ + 1 y_69_ ^ 2 ] >= 3841.2
quadratic_ranged_296_lb: [ 1 x_36_ ^ 2 - 2 x_69_ * x_36_ + 1 x_69_ ^ 2 + 1 y_36_ ^ 2 - 2 y_69_ * y_36_ + 1 y_69_ ^ 2 ] >= 13944.15
quadratic_ranged_297_lb: [ 1 x_49_ ^ 2 - 2 x_69_ * x_49_ + 1 x_69_ ^ 2 + 1 y_49_ ^ 2 - 2 y_69_ * y_49_ + 1 y_69_ ^ 2 ] >= 1062.27
quadratic_ranged_298_lb: [ 1 x_52_ ^ 2 - 2 x_69_ * x_52_ + 1 x_69_ ^ 2 + 1 y_52_ ^ 2 - 2 y_69_ * y_52_ + 1 y_69_ ^ 2 ] >= 13508.55
quadratic_ranged_299_lb: [ 1 x_55_ ^ 2 - 2 x_69_ * x_55_ + 1 x_69_ ^ 2 + 1 y_55_ ^ 2 - 2 y_69_ * y_55_ + 1 y_69_ ^ 2 ] >= 15036.119999999999
quadratic_ranged_300_lb: [ 1 x_60_ ^ 2 - 2 x_69_ * x_60_ + 1 x_69_ ^ 2 + 1 y_60_ ^ 2 - 2 y_69_ * y_60_ + 1 y_69_ ^ 2 ] >= 3740.22
quadratic_ranged_301_lb: [ 1 x_65_ ^ 2 - 2 x_69_ * x_65_ + 1 x_69_ ^ 2 + 1 y_65_ ^ 2 - 2 y_69_ * y_65_ + 1 y_69_ ^ 2 ] >= 25740
quadratic_ranged_302_lb: [ 1 x_68_ ^ 2 - 2 x_69_ * x_68_ + 1 x_69_ ^ 2 + 1 y_68_ ^ 2 - 2 y_69_ * y_68_ + 1 y_69_ ^ 2 ] >= 8721.9
quadratic_ranged_303_lb: [ 1 x_7_ ^ 2 - 2 x_70_ * x_7_ + 1 x_70_ ^ 2 + 1 y_7_ ^ 2 - 2 y_70_ * y_7_ + 1 y_70_ ^ 2 ] >= 3537.27
quadratic_ranged_304_lb: [ 1 x_16_ ^ 2 - 2 x_70_ * x_16_ + 1 x_70_ ^ 2 + 1 y_16_ ^ 2 - 2 y_70_ * y_16_ + 1 y_70_ ^ 2 ] >= 5110.38
quadratic_ranged_305_lb: [ 1 x_17_ ^ 2 - 2 x_70_ * x_17_ + 1 x_70_ ^ 2 + 1 y_17_ ^ 2 - 2 y_70_ * y_17_ + 1 y_70_ ^ 2 ] >= 5854.86
quadratic_ranged_306_lb: [ 1 x_25_ ^ 2 - 2 x_70_ * x_25_ + 1 x_70_ ^ 2 + 1 y_25_ ^ 2 - 2 y_70_ * y_25_ + 1 y_70_ ^ 2 ] >= 10700.91
quadratic_ranged_307_lb: [ 1 x_28_ ^ 2 - 2 x_70_ * x_28_ + 1 x_70_ ^ 2 + 1 y_28_ ^ 2 - 2 y_70_ * y_28_ + 1 y_70_ ^ 2 ] >= 2712.6
quadratic_ranged_308_lb: [ 1 x_30_ ^ 2 - 2 x_70_ * x_30_ + 1 x_70_ ^ 2 + 1 y_30_ ^ 2 - 2 y_70_ * y_30_ + 1 y_70_ ^ 2 ] >= 2059.2
quadratic_ranged_309_lb: [ 1 x_35_ ^ 2 - 2 x_70_ * x_35_ + 1 x_70_ ^ 2 + 1 y_35_ ^ 2 - 2 y_70_ * y_35_ + 1 y_70_ ^ 2 ] >= 14925.24
quadratic_ranged_310_lb: [ 1 x_38_ ^ 2 - 2 x_70_ * x_38_ + 1 x_70_ ^ 2 + 1 y_38_ ^ 2 - 2 y_70_ * y_38_ + 1 y_70_ ^ 2 ] >= 9900.99
quadratic_ranged_311_lb: [ 1 x_39_ ^ 2 - 2 x_70_ * x_39_ + 1 x_70_ ^ 2 + 1 y_39_ ^ 2 - 2 y_70_ * y_39_ + 1 y_70_ ^ 2 ] >= 7860.6
quadratic_ranged_312_lb: [ 1 x_58_ ^ 2 - 2 x_70_ * x_58_ + 1 x_70_ ^ 2 + 1 y_58_ ^ 2 - 2 y_70_ * y_58_ + 1 y_70_ ^ 2 ] >= 5593.5
quadratic_ranged_313_lb: [ 1 x_69_ ^ 2 - 2 x_70_ * x_69_ + 1 x_70_ ^ 2 + 1 y_69_ ^ 2 - 2 y_70_ * y_69_ + 1 y_70_ ^ 2 ] >= 9588.15
quadratic_ranged_314_lb: [ 1 x_1_ ^ 2 - 2 x_71_ * x_1_ + 1 x_71_ ^ 2 + 1 y_1_ ^ 2 - 2 y_71_ * y_1_ + 1 y_71_ ^ 2 ] >= 25551.9
quadratic_ranged_315_lb: [ 1 x_4_ ^ 2 - 2 x_71_ * x_4_ + 1 x_71_ ^ 2 + 1 y_4_ ^ 2 - 2 y_71_ * y_4_ + 1 y_71_ ^ 2 ] >= 4233.24
quadratic_ranged_316_lb: [ 1 x_7_ ^ 2 - 2 x_71_ * x_7_ + 1 x_71_ ^ 2 + 1 y_7_ ^ 2 - 2 y_71_ * y_7_ + 1 y_71_ ^ 2 ] >= 9187.2
quadratic_ranged_317_lb: [ 1 x_34_ ^ 2 - 2 x_71_ * x_34_ + 1 x_71_ ^ 2 + 1 y_34_ ^ 2 - 2 y_71_ * y_34_ + 1 y_71_ ^ 2 ] >= 24029.28
quadratic_ranged_318_lb: [ 1 x_35_ ^ 2 - 2 x_71_ * x_35_ + 1 x_71_ ^ 2 + 1 y_35_ ^ 2 - 2 y_71_ * y_35_ + 1 y_71_ ^ 2 ] >= 44590.59
quadratic_ranged_319_lb: [ 1 x_51_ ^ 2 - 2 x_71_ * x_51_ + 1 x_71_ ^ 2 + 1 y_51_ ^ 2 - 2 y_71_ * y_51_ + 1 y_71_ ^ 2 ] >= 5284.62
quadratic_ranged_320_lb: [ 1 x_54_ ^ 2 - 2 x_71_ * x_54_ + 1 x_71_ ^ 2 + 1 y_54_ ^ 2 - 2 y_71_ * y_54_ + 1 y_71_ ^ 2 ] >= 15891.48
quadratic_ranged_321_lb: [ 1 x_62_ ^ 2 - 2 x_71_ * x_62_ + 1 x_71_ ^ 2 + 1 y_62_ ^ 2 - 2 y_71_ * y_62_ + 1 y_71_ ^ 2 ] >= 5929.11
quadratic_ranged_322_lb: [ 1 x_70_ ^ 2 - 2 x_71_ * x_70_ + 1 x_71_ ^ 2 + 1 y_70_ ^ 2 - 2 y_71_ * y_70_ + 1 y_71_ ^ 2 ] >= 10205.91
quadratic_ranged_323_lb: [ 1 x_16_ ^ 2 - 2 x_72_ * x_16_ + 1 x_72_ ^ 2 + 1 y_16_ ^ 2 - 2 y_72_ * y_16_ + 1 y_72_ ^ 2 ] >= 7386.39
quadratic_ranged_324_lb: [ 1 x_19_ ^ 2 - 2 x_72_ * x_19_ + 1 x_72_ ^ 2 + 1 y_19_ ^ 2 - 2 y_72_ * y_19_ + 1 y_72_ ^ 2 ] >= 15944.94
quadratic_ranged_325_lb: [ 1 x_40_ ^ 2 - 2 x_72_ * x_40_ + 1 x_72_ ^ 2 + 1 y_40_ ^ 2 - 2 y_72_ * y_40_ + 1 y_72_ ^ 2 ] >= 4962.87
quadratic_ranged_326_lb: [ 1 x_49_ ^ 2 - 2 x_72_ * x_49_ + 1 x_72_ ^ 2 + 1 y_49_ ^ 2 - 2 y_72_ * y_49_ + 1 y_72_ ^ 2 ] >= 9116.91
quadratic_ranged_327_lb: [ 1 x_65_ ^ 2 - 2 x_72_ * x_65_ + 1 x_72_ ^ 2 + 1 y_65_ ^ 2 - 2 y_72_ * y_65_ + 1 y_72_ ^ 2 ] >= 5658.84
quadratic_ranged_328_lb: [ 1 x_71_ ^ 2 - 2 x_72_ * x_71_ + 1 x_72_ ^ 2 + 1 y_71_ ^ 2 - 2 y_72_ * y_71_ + 1 y_72_ ^ 2 ] >= 12309.66
quadratic_ranged_329_lb: [ 1 x_9_ ^ 2 - 2 x_73_ * x_9_ + 1 x_73_ ^ 2 + 1 y_9_ ^ 2 - 2 y_73_ * y_9_ + 1 y_73_ ^ 2 ] >= 857.34
quadratic_ranged_330_lb: [ 1 x_12_ ^ 2 - 2 x_73_ * x_12_ + 1 x_73_ ^ 2 + 1 y_12_ ^ 2 - 2 y_73_ * y_12_ + 1 y_73_ ^ 2 ] >= 1158.3
quadratic_ranged_331_lb: [ 1 x_29_ ^ 2 - 2 x_73_ * x_29_ + 1 x_73_ ^ 2 + 1 y_29_ ^ 2 - 2 y_73_ * y_29_ + 1 y_73_ ^ 2 ] >= 404.90999999999997
quadratic_ranged_332_lb: [ 1 x_34_ ^ 2 - 2 x_73_ * x_34_ + 1 x_73_ ^ 2 + 1 y_34_ ^ 2 - 2 y_73_ * y_34_ + 1 y_73_ ^ 2 ] >= 7135.92
quadratic_ranged_333_lb: [ 1 x_37_ ^ 2 - 2 x_73_ * x_37_ + 1 x_73_ ^ 2 + 1 y_37_ ^ 2 - 2 y_73_ * y_37_ + 1 y_73_ ^ 2 ] >= 13861.98
quadratic_ranged_334_lb: [ 1 x_64_ ^ 2 - 2 x_73_ * x_64_ + 1 x_73_ ^ 2 + 1 y_64_ ^ 2 - 2 y_73_ * y_64_ + 1 y_73_ ^ 2 ] >= 5905.35
quadratic_ranged_335_lb: [ 1 x_66_ ^ 2 - 2 x_73_ * x_66_ + 1 x_73_ ^ 2 + 1 y_66_ ^ 2 - 2 y_73_ * y_66_ + 1 y_73_ ^ 2 ] >= 3217.5
quadratic_ranged_336_lb: [ 1 x_72_ ^ 2 - 2 x_73_ * x_72_ + 1 x_73_ ^ 2 + 1 y_72_ ^ 2 - 2 y_73_ * y_72_ + 1 y_73_ ^ 2 ] >= 1910.7
quadratic_ranged_337_lb: [ 1 x_4_ ^ 2 - 2 x_74_ * x_4_ + 1 x_74_ ^ 2 + 1 y_4_ ^ 2 - 2 y_74_ * y_4_ + 1 y_74_ ^ 2 ] >= 22112.64
quadratic_ranged_338_lb: [ 1 x_8_ ^ 2 - 2 x_74_ * x_8_ + 1 x_74_ ^ 2 + 1 y_8_ ^ 2 - 2 y_74_ * y_8_ + 1 y_74_ ^ 2 ] >= 5484.6
quadratic_ranged_339_lb: [ 1 x_12_ ^ 2 - 2 x_74_ * x_12_ + 1 x_74_ ^ 2 + 1 y_12_ ^ 2 - 2 y_74_ * y_12_ + 1 y_74_ ^ 2 ] >= 18827.82
quadratic_ranged_340_lb: [ 1 x_13_ ^ 2 - 2 x_74_ * x_13_ + 1 x_74_ ^ 2 + 1 y_13_ ^ 2 - 2 y_74_ * y_13_ + 1 y_74_ ^ 2 ] >= 15733.08
quadratic_ranged_341_lb: [ 1 x_17_ ^ 2 - 2 x_74_ * x_17_ + 1 x_74_ ^ 2 + 1 y_17_ ^ 2 - 2 y_74_ * y_17_ + 1 y_74_ ^ 2 ] >= 7152.75
quadratic_ranged_342_lb: [ 1 x_28_ ^ 2 - 2 x_74_ * x_28_ + 1 x_74_ ^ 2 + 1 y_28_ ^ 2 - 2 y_74_ * y_28_ + 1 y_74_ ^ 2 ] >= 2416.59
quadratic_ranged_343_lb: [ 1 x_29_ ^ 2 - 2 x_74_ * x_29_ + 1 x_74_ ^ 2 + 1 y_29_ ^ 2 - 2 y_74_ * y_29_ + 1 y_74_ ^ 2 ] >= 18062.55
quadratic_ranged_344_lb: [ 1 x_39_ ^ 2 - 2 x_74_ * x_39_ + 1 x_74_ ^ 2 + 1 y_39_ ^ 2 - 2 y_74_ * y_39_ + 1 y_74_ ^ 2 ] >= 2392.83
quadratic_ranged_345_lb: [ 1 x_41_ ^ 2 - 2 x_74_ * x_41_ + 1 x_74_ ^ 2 + 1 y_41_ ^ 2 - 2 y_74_ * y_41_ + 1 y_74_ ^ 2 ] >= 15939.99
quadratic_ranged_346_lb: [ 1 x_46_ ^ 2 - 2 x_74_ * x_46_ + 1 x_74_ ^ 2 + 1 y_46_ ^ 2 - 2 y_74_ * y_46_ + 1 y_74_ ^ 2 ] >= 16066.71
quadratic_ranged_347_lb: [ 1 x_73_ ^ 2 - 2 x_74_ * x_73_ + 1 x_74_ ^ 2 + 1 y_73_ ^ 2 - 2 y_74_ * y_73_ + 1 y_74_ ^ 2 ] >= 16208.28
quadratic_ranged_348_lb: [ 1 x_4_ ^ 2 - 2 x_75_ * x_4_ + 1 x_75_ ^ 2 + 1 y_4_ ^ 2 - 2 y_75_ * y_4_ + 1 y_75_ ^ 2 ] >= 3948.12
quadratic_ranged_349_lb: [ 1 x_13_ ^ 2 - 2 x_75_ * x_13_ + 1 x_75_ ^ 2 + 1 y_13_ ^ 2 - 2 y_75_ * y_13_ + 1 y_75_ ^ 2 ] >= 1750.32
quadratic_ranged_350_lb: [ 1 x_28_ ^ 2 - 2 x_75_ * x_28_ + 1 x_75_ ^ 2 + 1 y_28_ ^ 2 - 2 y_75_ * y_28_ + 1 y_75_ ^ 2 ] >= 2270.07
quadratic_ranged_351_lb: [ 1 x_44_ ^ 2 - 2 x_75_ * x_44_ + 1 x_75_ ^ 2 + 1 y_44_ ^ 2 - 2 y_75_ * y_44_ + 1 y_75_ ^ 2 ] >= 3054.15
quadratic_ranged_352_lb: [ 1 x_51_ ^ 2 - 2 x_75_ * x_51_ + 1 x_75_ ^ 2 + 1 y_51_ ^ 2 - 2 y_75_ * y_51_ + 1 y_75_ ^ 2 ] >= 2797.74
quadratic_ranged_353_lb: [ 1 x_65_ ^ 2 - 2 x_75_ * x_65_ + 1 x_75_ ^ 2 + 1 y_65_ ^ 2 - 2 y_75_ * y_65_ + 1 y_75_ ^ 2 ] >= 4136.22
quadratic_ranged_354_lb: [ 1 x_74_ ^ 2 - 2 x_75_ * x_74_ + 1 x_75_ ^ 2 + 1 y_74_ ^ 2 - 2 y_75_ * y_74_ + 1 y_75_ ^ 2 ] >= 9333.72
quadratic_ranged_355_lb: [ 1 x_13_ ^ 2 - 2 x_76_ * x_13_ + 1 x_76_ ^ 2 + 1 y_13_ ^ 2 - 2 y_76_ * y_13_ + 1 y_76_ ^ 2 ] >= 4499.55
quadratic_ranged_356_lb: [ 1 x_15_ ^ 2 - 2 x_76_ * x_15_ + 1 x_76_ ^ 2 + 1 y_15_ ^ 2 - 2 y_76_ * y_15_ + 1 y_76_ ^ 2 ] >= 11243.43
quadratic_ranged_357_lb: [ 1 x_18_ ^ 2 - 2 x_76_ * x_18_ + 1 x_76_ ^ 2 + 1 y_18_ ^ 2 - 2 y_76_ * y_18_ + 1 y_76_ ^ 2 ] >= 6668.64
quadratic_ranged_358_lb: [ 1 x_35_ ^ 2 - 2 x_76_ * x_35_ + 1 x_76_ ^ 2 + 1 y_35_ ^ 2 - 2 y_76_ * y_35_ + 1 y_76_ ^ 2 ] >= 17622
quadratic_ranged_359_lb: [ 1 x_46_ ^ 2 - 2 x_76_ * x_46_ + 1 x_76_ ^ 2 + 1 y_46_ ^ 2 - 2 y_76_ * y_46_ + 1 y_76_ ^ 2 ] >= 2235.42
quadratic_ranged_360_lb: [ 1 x_49_ ^ 2 - 2 x_76_ * x_49_ + 1 x_76_ ^ 2 + 1 y_49_ ^ 2 - 2 y_76_ * y_49_ + 1 y_76_ ^ 2 ] >= 15032.16
quadratic_ranged_361_lb: [ 1 x_66_ ^ 2 - 2 x_76_ * x_66_ + 1 x_76_ ^ 2 + 1 y_66_ ^ 2 - 2 y_76_ * y_66_ + 1 y_76_ ^ 2 ] >= 5445.99
quadratic_ranged_362_lb: [ 1 x_74_ ^ 2 - 2 x_76_ * x_74_ + 1 x_76_ ^ 2 + 1 y_74_ ^ 2 - 2 y_76_ * y_74_ + 1 y_76_ ^ 2 ] >= 15611.31
quadratic_ranged_363_lb: [ 1 x_75_ ^ 2 - 2 x_76_ * x_75_ + 1 x_76_ ^ 2 + 1 y_75_ ^ 2 - 2 y_76_ * y_75_ + 1 y_76_ ^ 2 ] >= 1652.31
quadratic_ranged_364_lb: [ 1 x_5_ ^ 2 - 2 x_77_ * x_5_ + 1 x_77_ ^ 2 + 1 y_5_ ^ 2 - 2 y_77_ * y_5_ + 1 y_77_ ^ 2 ] >= 23144.22
quadratic_ranged_365_lb: [ 1 x_15_ ^ 2 - 2 x_77_ * x_15_ + 1 x_77_ ^ 2 + 1 y_15_ ^ 2 - 2 y_77_ * y_15_ + 1 y_77_ ^ 2 ] >= 5949.9
quadratic_ranged_366_lb: [ 1 x_35_ ^ 2 - 2 x_77_ * x_35_ + 1 x_77_ ^ 2 + 1 y_35_ ^ 2 - 2 y_77_ * y_35_ + 1 y_77_ ^ 2 ] >= 1192.95
quadratic_ranged_367_lb: [ 1 x_40_ ^ 2 - 2 x_77_ * x_40_ + 1 x_77_ ^ 2 + 1 y_40_ ^ 2 - 2 y_77_ * y_40_ + 1 y_77_ ^ 2 ] >= 32076.989999999998
quadratic_ranged_368_lb: [ 1 x_45_ ^ 2 - 2 x_77_ * x_45_ + 1 x_77_ ^ 2 + 1 y_45_ ^ 2 - 2 y_77_ * y_45_ + 1 y_77_ ^ 2 ] >= 25071.75
quadratic_ranged_369_lb: [ 1 x_55_ ^ 2 - 2 x_77_ * x_55_ + 1 x_77_ ^ 2 + 1 y_55_ ^ 2 - 2 y_77_ * y_55_ + 1 y_77_ ^ 2 ] >= 29084.22
quadratic_ranged_370_lb: [ 1 x_59_ ^ 2 - 2 x_77_ * x_59_ + 1 x_77_ ^ 2 + 1 y_59_ ^ 2 - 2 y_77_ * y_59_ + 1 y_77_ ^ 2 ] >= 17812.079999999998
quadratic_ranged_371_lb: [ 1 x_62_ ^ 2 - 2 x_77_ * x_62_ + 1 x_77_ ^ 2 + 1 y_62_ ^ 2 - 2 y_77_ * y_62_ + 1 y_77_ ^ 2 ] >= 21765.15
quadratic_ranged_372_lb: [ 1 x_72_ ^ 2 - 2 x_77_ * x_72_ + 1 x_77_ ^ 2 + 1 y_72_ ^ 2 - 2 y_77_ * y_72_ + 1 y_77_ ^ 2 ] >= 16641.9
quadratic_ranged_373_lb: [ 1 x_74_ ^ 2 - 2 x_77_ * x_74_ + 1 x_77_ ^ 2 + 1 y_74_ ^ 2 - 2 y_77_ * y_74_ + 1 y_77_ ^ 2 ] >= 7036.92
quadratic_ranged_374_lb: [ 1 x_76_ ^ 2 - 2 x_77_ * x_76_ + 1 x_77_ ^ 2 + 1 y_76_ ^ 2 - 2 y_77_ * y_76_ + 1 y_77_ ^ 2 ] >= 20759.31
quadratic_ranged_375_lb: [ 1 x_3_ ^ 2 - 2 x_78_ * x_3_ + 1 x_78_ ^ 2 + 1 y_3_ ^ 2 - 2 y_78_ * y_3_ + 1 y_78_ ^ 2 ] >= 25914.239999999998
quadratic_ranged_376_lb: [ 1 x_11_ ^ 2 - 2 x_78_ * x_11_ + 1 x_78_ ^ 2 + 1 y_11_ ^ 2 - 2 y_78_ * y_11_ + 1 y_78_ ^ 2 ] >= 1017.72
quadratic_ranged_377_lb: [ 1 x_27_ ^ 2 - 2 x_78_ * x_27_ + 1 x_78_ ^ 2 + 1 y_27_ ^ 2 - 2 y_78_ * y_27_ + 1 y_78_ ^ 2 ] >= 22042.35
quadratic_ranged_378_lb: [ 1 x_40_ ^ 2 - 2 x_78_ * x_40_ + 1 x_78_ ^ 2 + 1 y_40_ ^ 2 - 2 y_78_ * y_40_ + 1 y_78_ ^ 2 ] >= 16087.5
quadratic_ranged_379_lb: [ 1 x_52_ ^ 2 - 2 x_78_ * x_52_ + 1 x_78_ ^ 2 + 1 y_52_ ^ 2 - 2 y_78_ * y_52_ + 1 y_78_ ^ 2 ] >= 8500.14
quadratic_ranged_380_lb: [ 1 x_67_ ^ 2 - 2 x_78_ * x_67_ + 1 x_78_ ^ 2 + 1 y_67_ ^ 2 - 2 y_78_ * y_67_ + 1 y_78_ ^ 2 ] >= 396
quadratic_ranged_381_lb: [ 1 x_73_ ^ 2 - 2 x_78_ * x_73_ + 1 x_78_ ^ 2 + 1 y_73_ ^ 2 - 2 y_78_ * y_73_ + 1 y_78_ ^ 2 ] >= 939.51
quadratic_ranged_382_lb: [ 1 x_77_ ^ 2 - 2 x_78_ * x_77_ + 1 x_78_ ^ 2 + 1 y_77_ ^ 2 - 2 y_78_ * y_77_ + 1 y_78_ ^ 2 ] >= 28334.79
quadratic_ranged_383_lb: [ 1 x_4_ ^ 2 - 2 x_79_ * x_4_ + 1 x_79_ ^ 2 + 1 y_4_ ^ 2 - 2 y_79_ * y_4_ + 1 y_79_ ^ 2 ] >= 24877.71
quadratic_ranged_384_lb: [ 1 x_8_ ^ 2 - 2 x_79_ * x_8_ + 1 x_79_ ^ 2 + 1 y_8_ ^ 2 - 2 y_79_ * y_8_ + 1 y_79_ ^ 2 ] >= 393.03
quadratic_ranged_385_lb: [ 1 x_12_ ^ 2 - 2 x_79_ * x_12_ + 1 x_79_ ^ 2 + 1 y_12_ ^ 2 - 2 y_79_ * y_12_ + 1 y_79_ ^ 2 ] >= 32540.31
quadratic_ranged_386_lb: [ 1 x_25_ ^ 2 - 2 x_79_ * x_25_ + 1 x_79_ ^ 2 + 1 y_25_ ^ 2 - 2 y_79_ * y_25_ + 1 y_79_ ^ 2 ] >= 36460.71
quadratic_ranged_387_lb: [ 1 x_28_ ^ 2 - 2 x_79_ * x_28_ + 1 x_79_ ^ 2 + 1 y_28_ ^ 2 - 2 y_79_ * y_28_ + 1 y_79_ ^ 2 ] >= 12434.4
quadratic_ranged_388_lb: [ 1 x_29_ ^ 2 - 2 x_79_ * x_29_ + 1 x_79_ ^ 2 + 1 y_29_ ^ 2 - 2 y_79_ * y_29_ + 1 y_79_ ^ 2 ] >= 29115.9
quadratic_ranged_389_lb: [ 1 x_69_ ^ 2 - 2 x_79_ * x_69_ + 1 x_79_ ^ 2 + 1 y_69_ ^ 2 - 2 y_79_ * y_69_ + 1 y_79_ ^ 2 ] >= 7382.43
quadratic_ranged_390_lb: [ 1 x_77_ ^ 2 - 2 x_79_ * x_77_ + 1 x_79_ ^ 2 + 1 y_77_ ^ 2 - 2 y_79_ * y_77_ + 1 y_79_ ^ 2 ] >= 167.31
quadratic_ranged_391_lb: [ 1 x_78_ ^ 2 - 2 x_79_ * x_78_ + 1 x_79_ ^ 2 + 1 y_78_ ^ 2 - 2 y_79_ * y_78_ + 1 y_79_ ^ 2 ] >= 27030.96
quadratic_ranged_392_lb: [ 1 x_18_ ^ 2 - 2 x_80_ * x_18_ + 1 x_80_ ^ 2 + 1 y_18_ ^ 2 - 2 y_80_ * y_18_ + 1 y_80_ ^ 2 ] >= 26556.75
quadratic_ranged_393_lb: [ 1 x_22_ ^ 2 - 2 x_80_ * x_22_ + 1 x_80_ ^ 2 + 1 y_22_ ^ 2 - 2 y_80_ * y_22_ + 1 y_80_ ^ 2 ] >= 18346.68
quadratic_ranged_394_lb: [ 1 x_42_ ^ 2 - 2 x_80_ * x_42_ + 1 x_80_ ^ 2 + 1 y_42_ ^ 2 - 2 y_80_ * y_42_ + 1 y_80_ ^ 2 ] >= 25237.079999999998
quadratic_ranged_395_lb: [ 1 x_54_ ^ 2 - 2 x_80_ * x_54_ + 1 x_80_ ^ 2 + 1 y_54_ ^ 2 - 2 y_80_ * y_54_ + 1 y_80_ ^ 2 ] >= 21362.22
quadratic_ranged_396_lb: [ 1 x_60_ ^ 2 - 2 x_80_ * x_60_ + 1 x_80_ ^ 2 + 1 y_60_ ^ 2 - 2 y_80_ * y_60_ + 1 y_80_ ^ 2 ] >= 5276.7
quadratic_ranged_397_lb: [ 1 x_71_ ^ 2 - 2 x_80_ * x_71_ + 1 x_80_ ^ 2 + 1 y_71_ ^ 2 - 2 y_80_ * y_71_ + 1 y_80_ ^ 2 ] >= 31293.9
quadratic_ranged_398_lb: [ 1 x_79_ ^ 2 - 2 x_80_ * x_79_ + 1 x_80_ ^ 2 + 1 y_79_ ^ 2 - 2 y_80_ * y_79_ + 1 y_80_ ^ 2 ] >= 3390.75
quadratic_ranged_399_lb: [ 1 x_1_ ^ 2 - 2 x_81_ * x_1_ + 1 x_81_ ^ 2 + 1 y_1_ ^ 2 - 2 y_81_ * y_1_ + 1 y_81_ ^ 2 ] >= 960.3
quadratic_ranged_400_lb: [ 1 x_2_ ^ 2 - 2 x_81_ * x_2_ + 1 x_81_ ^ 2 + 1 y_2_ ^ 2 - 2 y_81_ * y_2_ + 1 y_81_ ^ 2 ] >= 28896.12
quadratic_ranged_401_lb: [ 1 x_13_ ^ 2 - 2 x_81_ * x_13_ + 1 x_81_ ^ 2 + 1 y_13_ ^ 2 - 2 y_81_ * y_13_ + 1 y_81_ ^ 2 ] >= 24191.64
quadratic_ranged_402_lb: [ 1 x_33_ ^ 2 - 2 x_81_ * x_33_ + 1 x_81_ ^ 2 + 1 y_33_ ^ 2 - 2 y_81_ * y_33_ + 1 y_81_ ^ 2 ] >= 30354.39
quadratic_ranged_403_lb: [ 1 x_50_ ^ 2 - 2 x_81_ * x_50_ + 1 x_81_ ^ 2 + 1 y_50_ ^ 2 - 2 y_81_ * y_50_ + 1 y_81_ ^ 2 ] >= 36.63
quadratic_ranged_404_lb: [ 1 x_53_ ^ 2 - 2 x_81_ * x_53_ + 1 x_81_ ^ 2 + 1 y_53_ ^ 2 - 2 y_81_ * y_53_ + 1 y_81_ ^ 2 ] >= 9362.43
quadratic_ranged_405_lb: [ 1 x_77_ ^ 2 - 2 x_81_ * x_77_ + 1 x_81_ ^ 2 + 1 y_77_ ^ 2 - 2 y_81_ * y_77_ + 1 y_81_ ^ 2 ] >= 1999.8
quadratic_ranged_406_lb: [ 1 x_80_ ^ 2 - 2 x_81_ * x_80_ + 1 x_81_ ^ 2 + 1 y_80_ ^ 2 - 2 y_81_ * y_80_ + 1 y_81_ ^ 2 ] >= 619.74
quadratic_ranged_407_lb: [ 1 x_3_ ^ 2 - 2 x_82_ * x_3_ + 1 x_82_ ^ 2 + 1 y_3_ ^ 2 - 2 y_82_ * y_3_ + 1 y_82_ ^ 2 ] >= 17014.14
quadratic_ranged_408_lb: [ 1 x_28_ ^ 2 - 2 x_82_ * x_28_ + 1 x_82_ ^ 2 + 1 y_28_ ^ 2 - 2 y_82_ * y_28_ + 1 y_82_ ^ 2 ] >= 7866.54
quadratic_ranged_409_lb: [ 1 x_53_ ^ 2 - 2 x_82_ * x_53_ + 1 x_82_ ^ 2 + 1 y_53_ ^ 2 - 2 y_82_ * y_53_ + 1 y_82_ ^ 2 ] >= 13450.14
quadratic_ranged_410_lb: [ 1 x_56_ ^ 2 - 2 x_82_ * x_56_ + 1 x_82_ ^ 2 + 1 y_56_ ^ 2 - 2 y_82_ * y_56_ + 1 y_82_ ^ 2 ] >= 9374.31
quadratic_ranged_411_lb: [ 1 x_61_ ^ 2 - 2 x_82_ * x_61_ + 1 x_82_ ^ 2 + 1 y_61_ ^ 2 - 2 y_82_ * y_61_ + 1 y_82_ ^ 2 ] >= 3425.4
quadratic_ranged_412_lb: [ 1 x_69_ ^ 2 - 2 x_82_ * x_69_ + 1 x_82_ ^ 2 + 1 y_69_ ^ 2 - 2 y_82_ * y_69_ + 1 y_82_ ^ 2 ] >= 10918.71
quadratic_ranged_413_lb: [ 1 x_81_ ^ 2 - 2 x_82_ * x_81_ + 1 x_82_ ^ 2 + 1 y_81_ ^ 2 - 2 y_82_ * y_81_ + 1 y_82_ ^ 2 ] >= 1842.3899999999999
quadratic_ranged_414_lb: [ 1 x_16_ ^ 2 - 2 x_83_ * x_16_ + 1 x_83_ ^ 2 + 1 y_16_ ^ 2 - 2 y_83_ * y_16_ + 1 y_83_ ^ 2 ] >= 183.15
quadratic_ranged_415_lb: [ 1 x_17_ ^ 2 - 2 x_83_ * x_17_ + 1 x_83_ ^ 2 + 1 y_17_ ^ 2 - 2 y_83_ * y_17_ + 1 y_83_ ^ 2 ] >= 1727.55
quadratic_ranged_416_lb: [ 1 x_19_ ^ 2 - 2 x_83_ * x_19_ + 1 x_83_ ^ 2 + 1 y_19_ ^ 2 - 2 y_83_ * y_19_ + 1 y_83_ ^ 2 ] >= 1492.92
quadratic_ranged_417_lb: [ 1 x_25_ ^ 2 - 2 x_83_ * x_25_ + 1 x_83_ ^ 2 + 1 y_25_ ^ 2 - 2 y_83_ * y_25_ + 1 y_83_ ^ 2 ] >= 28830.78
quadratic_ranged_418_lb: [ 1 x_32_ ^ 2 - 2 x_83_ * x_32_ + 1 x_83_ ^ 2 + 1 y_32_ ^ 2 - 2 y_83_ * y_32_ + 1 y_83_ ^ 2 ] >= 16795.35
quadratic_ranged_419_lb: [ 1 x_51_ ^ 2 - 2 x_83_ * x_51_ + 1 x_83_ ^ 2 + 1 y_51_ ^ 2 - 2 y_83_ * y_51_ + 1 y_83_ ^ 2 ] >= 4999.5
quadratic_ranged_420_lb: [ 1 x_52_ ^ 2 - 2 x_83_ * x_52_ + 1 x_83_ ^ 2 + 1 y_52_ ^ 2 - 2 y_83_ * y_52_ + 1 y_83_ ^ 2 ] >= 17797.23
quadratic_ranged_421_lb: [ 1 x_54_ ^ 2 - 2 x_83_ * x_54_ + 1 x_83_ ^ 2 + 1 y_54_ ^ 2 - 2 y_83_ * y_54_ + 1 y_83_ ^ 2 ] >= 15974.64
quadratic_ranged_422_lb: [ 1 x_61_ ^ 2 - 2 x_83_ * x_61_ + 1 x_83_ ^ 2 + 1 y_61_ ^ 2 - 2 y_83_ * y_61_ + 1 y_83_ ^ 2 ] >= 4764.87
quadratic_ranged_423_lb: [ 1 x_68_ ^ 2 - 2 x_83_ * x_68_ + 1 x_83_ ^ 2 + 1 y_68_ ^ 2 - 2 y_83_ * y_68_ + 1 y_83_ ^ 2 ] >= 5167.8
quadratic_ranged_424_lb: [ 1 x_82_ ^ 2 - 2 x_83_ * x_82_ + 1 x_83_ ^ 2 + 1 y_82_ ^ 2 - 2 y_83_ * y_82_ + 1 y_83_ ^ 2 ] >= 119.78999999999999
quadratic_ranged_425_lb: [ 1 x_18_ ^ 2 - 2 x_84_ * x_18_ + 1 x_84_ ^ 2 + 1 y_18_ ^ 2 - 2 y_84_ * y_18_ + 1 y_84_ ^ 2 ] >= 38056.59
quadratic_ranged_426_lb: [ 1 x_26_ ^ 2 - 2 x_84_ * x_26_ + 1 x_84_ ^ 2 + 1 y_26_ ^ 2 - 2 y_84_ * y_26_ + 1 y_84_ ^ 2 ] >= 25293.51
quadratic_ranged_427_lb: [ 1 x_27_ ^ 2 - 2 x_84_ * x_27_ + 1 x_84_ ^ 2 + 1 y_27_ ^ 2 - 2 y_84_ * y_27_ + 1 y_84_ ^ 2 ] >= 39974.22
quadratic_ranged_428_lb: [ 1 x_29_ ^ 2 - 2 x_84_ * x_29_ + 1 x_84_ ^ 2 + 1 y_29_ ^ 2 - 2 y_84_ * y_29_ + 1 y_84_ ^ 2 ] >= 25044.03
quadratic_ranged_429_lb: [ 1 x_63_ ^ 2 - 2 x_84_ * x_63_ + 1 x_84_ ^ 2 + 1 y_63_ ^ 2 - 2 y_84_ * y_63_ + 1 y_84_ ^ 2 ] >= 15868.71
quadratic_ranged_430_lb: [ 1 x_78_ ^ 2 - 2 x_84_ * x_78_ + 1 x_84_ ^ 2 + 1 y_78_ ^ 2 - 2 y_84_ * y_78_ + 1 y_84_ ^ 2 ] >= 16478.55
quadratic_ranged_431_lb: [ 1 x_83_ ^ 2 - 2 x_84_ * x_83_ + 1 x_84_ ^ 2 + 1 y_83_ ^ 2 - 2 y_84_ * y_83_ + 1 y_84_ ^ 2 ] >= 3251.16
quadratic_ranged_432_lb: [ 1 x_11_ ^ 2 - 2 x_85_ * x_11_ + 1 x_85_ ^ 2 + 1 y_11_ ^ 2 - 2 y_85_ * y_11_ + 1 y_85_ ^ 2 ] >= 9511.92
quadratic_ranged_433_lb: [ 1 x_31_ ^ 2 - 2 x_85_ * x_31_ + 1 x_85_ ^ 2 + 1 y_31_ ^ 2 - 2 y_85_ * y_31_ + 1 y_85_ ^ 2 ] >= 43649.1
quadratic_ranged_434_lb: [ 1 x_39_ ^ 2 - 2 x_85_ * x_39_ + 1 x_85_ ^ 2 + 1 y_39_ ^ 2 - 2 y_85_ * y_39_ + 1 y_85_ ^ 2 ] >= 22908.6
quadratic_ranged_435_lb: [ 1 x_48_ ^ 2 - 2 x_85_ * x_48_ + 1 x_85_ ^ 2 + 1 y_48_ ^ 2 - 2 y_85_ * y_48_ + 1 y_85_ ^ 2 ] >= 18204.12
quadratic_ranged_436_lb: [ 1 x_58_ ^ 2 - 2 x_85_ * x_58_ + 1 x_85_ ^ 2 + 1 y_58_ ^ 2 - 2 y_85_ * y_58_ + 1 y_85_ ^ 2 ] >= 19762.38
quadratic_ranged_437_lb: [ 1 x_60_ ^ 2 - 2 x_85_ * x_60_ + 1 x_85_ ^ 2 + 1 y_60_ ^ 2 - 2 y_85_ * y_60_ + 1 y_85_ ^ 2 ] >= 44337.15
quadratic_ranged_438_lb: [ 1 x_63_ ^ 2 - 2 x_85_ * x_63_ + 1 x_85_ ^ 2 + 1 y_63_ ^ 2 - 2 y_85_ * y_63_ + 1 y_85_ ^ 2 ] >= 13838.22
quadratic_ranged_439_lb: [ 1 x_84_ ^ 2 - 2 x_85_ * x_84_ + 1 x_85_ ^ 2 + 1 y_84_ ^ 2 - 2 y_85_ * y_84_ + 1 y_85_ ^ 2 ] >= 37648.71
quadratic_ranged_440_lb: [ 1 x_2_ ^ 2 - 2 x_86_ * x_2_ + 1 x_86_ ^ 2 + 1 y_2_ ^ 2 - 2 y_86_ * y_2_ + 1 y_86_ ^ 2 ] >= 4103.55
quadratic_ranged_441_lb: [ 1 x_14_ ^ 2 - 2 x_86_ * x_14_ + 1 x_86_ ^ 2 + 1 y_14_ ^ 2 - 2 y_86_ * y_14_ + 1 y_86_ ^ 2 ] >= 22149.27
quadratic_ranged_442_lb: [ 1 x_16_ ^ 2 - 2 x_86_ * x_16_ + 1 x_86_ ^ 2 + 1 y_16_ ^ 2 - 2 y_86_ * y_16_ + 1 y_86_ ^ 2 ] >= 17734.86
quadratic_ranged_443_lb: [ 1 x_18_ ^ 2 - 2 x_86_ * x_18_ + 1 x_86_ ^ 2 + 1 y_18_ ^ 2 - 2 y_86_ * y_18_ + 1 y_86_ ^ 2 ] >= 570.24
quadratic_ranged_444_lb: [ 1 x_30_ ^ 2 - 2 x_86_ * x_30_ + 1 x_86_ ^ 2 + 1 y_30_ ^ 2 - 2 y_86_ * y_30_ + 1 y_86_ ^ 2 ] >= 4059
quadratic_ranged_445_lb: [ 1 x_38_ ^ 2 - 2 x_86_ * x_38_ + 1 x_86_ ^ 2 + 1 y_38_ ^ 2 - 2 y_86_ * y_38_ + 1 y_86_ ^ 2 ] >= 5141.07
quadratic_ranged_446_lb: [ 1 x_45_ ^ 2 - 2 x_86_ * x_45_ + 1 x_86_ ^ 2 + 1 y_45_ ^ 2 - 2 y_86_ * y_45_ + 1 y_86_ ^ 2 ] >= 1211.76
quadratic_ranged_447_lb: [ 1 x_54_ ^ 2 - 2 x_86_ * x_54_ + 1 x_86_ ^ 2 + 1 y_54_ ^ 2 - 2 y_86_ * y_54_ + 1 y_86_ ^ 2 ] >= 2270.07
quadratic_ranged_448_lb: [ 1 x_58_ ^ 2 - 2 x_86_ * x_58_ + 1 x_86_ ^ 2 + 1 y_58_ ^ 2 - 2 y_86_ * y_58_ + 1 y_86_ ^ 2 ] >= 17473.5
quadratic_ranged_449_lb: [ 1 x_85_ ^ 2 - 2 x_86_ * x_85_ + 1 x_86_ ^ 2 + 1 y_85_ ^ 2 - 2 y_86_ * y_85_ + 1 y_86_ ^ 2 ] >= 3140.2799999999997
quadratic_ranged_450_lb: [ 1 x_28_ ^ 2 - 2 x_87_ * x_28_ + 1 x_87_ ^ 2 + 1 y_28_ ^ 2 - 2 y_87_ * y_28_ + 1 y_87_ ^ 2 ] >= 3500.64
quadratic_ranged_451_lb: [ 1 x_32_ ^ 2 - 2 x_87_ * x_32_ + 1 x_87_ ^ 2 + 1 y_32_ ^ 2 - 2 y_87_ * y_32_ + 1 y_87_ ^ 2 ] >= 17812.079999999998
quadratic_ranged_452_lb: [ 1 x_42_ ^ 2 - 2 x_87_ * x_42_ + 1 x_87_ ^ 2 + 1 y_42_ ^ 2 - 2 y_87_ * y_42_ + 1 y_87_ ^ 2 ] >= 5283.63
quadratic_ranged_453_lb: [ 1 x_49_ ^ 2 - 2 x_87_ * x_49_ + 1 x_87_ ^ 2 + 1 y_49_ ^ 2 - 2 y_87_ * y_49_ + 1 y_87_ ^ 2 ] >= 11278.08
quadratic_ranged_454_lb: [ 1 x_51_ ^ 2 - 2 x_87_ * x_51_ + 1 x_87_ ^ 2 + 1 y_51_ ^ 2 - 2 y_87_ * y_51_ + 1 y_87_ ^ 2 ] >= 19595.07
quadratic_ranged_455_lb: [ 1 x_64_ ^ 2 - 2 x_87_ * x_64_ + 1 x_87_ ^ 2 + 1 y_64_ ^ 2 - 2 y_87_ * y_64_ + 1 y_87_ ^ 2 ] >= 9989.1
quadratic_ranged_456_lb: [ 1 x_67_ ^ 2 - 2 x_87_ * x_67_ + 1 x_87_ ^ 2 + 1 y_67_ ^ 2 - 2 y_87_ * y_67_ + 1 y_87_ ^ 2 ] >= 17875.44
quadratic_ranged_457_lb: [ 1 x_76_ ^ 2 - 2 x_87_ * x_76_ + 1 x_87_ ^ 2 + 1 y_76_ ^ 2 - 2 y_87_ * y_76_ + 1 y_87_ ^ 2 ] >= 16236
quadratic_ranged_458_lb: [ 1 x_79_ ^ 2 - 2 x_87_ * x_79_ + 1 x_87_ ^ 2 + 1 y_79_ ^ 2 - 2 y_87_ * y_79_ + 1 y_87_ ^ 2 ] >= 25153.92
quadratic_ranged_459_lb: [ 1 x_86_ ^ 2 - 2 x_87_ * x_86_ + 1 x_87_ ^ 2 + 1 y_86_ ^ 2 - 2 y_87_ * y_86_ + 1 y_87_ ^ 2 ] >= 9155.52
quadratic_ranged_460_lb: [ 1 x_24_ ^ 2 - 2 x_88_ * x_24_ + 1 x_88_ ^ 2 + 1 y_24_ ^ 2 - 2 y_88_ * y_24_ + 1 y_88_ ^ 2 ] >= 27348.75
quadratic_ranged_461_lb: [ 1 x_45_ ^ 2 - 2 x_88_ * x_45_ + 1 x_88_ ^ 2 + 1 y_45_ ^ 2 - 2 y_88_ * y_45_ + 1 y_88_ ^ 2 ] >= 12807.63
quadratic_ranged_462_lb: [ 1 x_50_ ^ 2 - 2 x_88_ * x_50_ + 1 x_88_ ^ 2 + 1 y_50_ ^ 2 - 2 y_88_ * y_50_ + 1 y_88_ ^ 2 ] >= 6273.63
quadratic_ranged_463_lb: [ 1 x_56_ ^ 2 - 2 x_88_ * x_56_ + 1 x_88_ ^ 2 + 1 y_56_ ^ 2 - 2 y_88_ * y_56_ + 1 y_88_ ^ 2 ] >= 786.06
quadratic_ranged_464_lb: [ 1 x_60_ ^ 2 - 2 x_88_ * x_60_ + 1 x_88_ ^ 2 + 1 y_60_ ^ 2 - 2 y_88_ * y_60_ + 1 y_88_ ^ 2 ] >= 2486.88
quadratic_ranged_465_lb: [ 1 x_70_ ^ 2 - 2 x_88_ * x_70_ + 1 x_88_ ^ 2 + 1 y_70_ ^ 2 - 2 y_88_ * y_70_ + 1 y_88_ ^ 2 ] >= 11013.75
quadratic_ranged_466_lb: [ 1 x_78_ ^ 2 - 2 x_88_ * x_78_ + 1 x_88_ ^ 2 + 1 y_78_ ^ 2 - 2 y_88_ * y_78_ + 1 y_88_ ^ 2 ] >= 24972.75
quadratic_ranged_467_lb: [ 1 x_81_ ^ 2 - 2 x_88_ * x_81_ + 1 x_88_ ^ 2 + 1 y_81_ ^ 2 - 2 y_88_ * y_81_ + 1 y_88_ ^ 2 ] >= 6878.5199999999995
quadratic_ranged_468_lb: [ 1 x_87_ ^ 2 - 2 x_88_ * x_87_ + 1 x_88_ ^ 2 + 1 y_87_ ^ 2 - 2 y_88_ * y_87_ + 1 y_88_ ^ 2 ] >= 7877.43
quadratic_ranged_469_lb: [ 1 x_19_ ^ 2 - 2 x_89_ * x_19_ + 1 x_89_ ^ 2 + 1 y_19_ ^ 2 - 2 y_89_ * y_19_ + 1 y_89_ ^ 2 ] >= 23107.59
quadratic_ranged_470_lb: [ 1 x_20_ ^ 2 - 2 x_89_ * x_20_ + 1 x_89_ ^ 2 + 1 y_20_ ^ 2 - 2 y_89_ * y_20_ + 1 y_89_ ^ 2 ] >= 4313.43
quadratic_ranged_471_lb: [ 1 x_26_ ^ 2 - 2 x_89_ * x_26_ + 1 x_89_ ^ 2 + 1 y_26_ ^ 2 - 2 y_89_ * y_26_ + 1 y_89_ ^ 2 ] >= 33588.72
quadratic_ranged_472_lb: [ 1 x_34_ ^ 2 - 2 x_89_ * x_34_ + 1 x_89_ ^ 2 + 1 y_34_ ^ 2 - 2 y_89_ * y_34_ + 1 y_89_ ^ 2 ] >= 11013.75
quadratic_ranged_473_lb: [ 1 x_44_ ^ 2 - 2 x_89_ * x_44_ + 1 x_89_ ^ 2 + 1 y_44_ ^ 2 - 2 y_89_ * y_44_ + 1 y_89_ ^ 2 ] >= 9127.8
quadratic_ranged_474_lb: [ 1 x_47_ ^ 2 - 2 x_89_ * x_47_ + 1 x_89_ ^ 2 + 1 y_47_ ^ 2 - 2 y_89_ * y_47_ + 1 y_89_ ^ 2 ] >= 10969.2
quadratic_ranged_475_lb: [ 1 x_56_ ^ 2 - 2 x_89_ * x_56_ + 1 x_89_ ^ 2 + 1 y_56_ ^ 2 - 2 y_89_ * y_56_ + 1 y_89_ ^ 2 ] >= 15243.03
quadratic_ranged_476_lb: [ 1 x_88_ ^ 2 - 2 x_89_ * x_88_ + 1 x_89_ ^ 2 + 1 y_88_ ^ 2 - 2 y_89_ * y_88_ + 1 y_89_ ^ 2 ] >= 22458.15
quadratic_ranged_477_lb: [ 1 x_2_ ^ 2 - 2 x_90_ * x_2_ + 1 x_90_ ^ 2 + 1 y_2_ ^ 2 - 2 y_90_ * y_2_ + 1 y_90_ ^ 2 ] >= 10601.91
quadratic_ranged_478_lb: [ 1 x_12_ ^ 2 - 2 x_90_ * x_12_ + 1 x_90_ ^ 2 + 1 y_12_ ^ 2 - 2 y_90_ * y_12_ + 1 y_90_ ^ 2 ] >= 11112.75
quadratic_ranged_479_lb: [ 1 x_32_ ^ 2 - 2 x_90_ * x_32_ + 1 x_90_ ^ 2 + 1 y_32_ ^ 2 - 2 y_90_ * y_32_ + 1 y_90_ ^ 2 ] >= 25549.92
quadratic_ranged_480_lb: [ 1 x_33_ ^ 2 - 2 x_90_ * x_33_ + 1 x_90_ ^ 2 + 1 y_33_ ^ 2 - 2 y_90_ * y_33_ + 1 y_90_ ^ 2 ] >= 19522.8
quadratic_ranged_481_lb: [ 1 x_38_ ^ 2 - 2 x_90_ * x_38_ + 1 x_90_ ^ 2 + 1 y_38_ ^ 2 - 2 y_90_ * y_38_ + 1 y_90_ ^ 2 ] >= 28358.55
quadratic_ranged_482_lb: [ 1 x_59_ ^ 2 - 2 x_90_ * x_59_ + 1 x_90_ ^ 2 + 1 y_59_ ^ 2 - 2 y_90_ * y_59_ + 1 y_90_ ^ 2 ] >= 4016.43
quadratic_ranged_483_lb: [ 1 x_61_ ^ 2 - 2 x_90_ * x_61_ + 1 x_90_ ^ 2 + 1 y_61_ ^ 2 - 2 y_90_ * y_61_ + 1 y_90_ ^ 2 ] >= 8563.5
quadratic_ranged_484_lb: [ 1 x_65_ ^ 2 - 2 x_90_ * x_65_ + 1 x_90_ ^ 2 + 1 y_65_ ^ 2 - 2 y_90_ * y_65_ + 1 y_90_ ^ 2 ] >= 14308.47
quadratic_ranged_485_lb: [ 1 x_88_ ^ 2 - 2 x_90_ * x_88_ + 1 x_90_ ^ 2 + 1 y_88_ ^ 2 - 2 y_90_ * y_88_ + 1 y_90_ ^ 2 ] >= 19452.51
quadratic_ranged_486_lb: [ 1 x_89_ ^ 2 - 2 x_90_ * x_89_ + 1 x_90_ ^ 2 + 1 y_89_ ^ 2 - 2 y_90_ * y_89_ + 1 y_90_ ^ 2 ] >= 10781.1
quadratic_ranged_487_lb: [ 1 x_25_ ^ 2 - 2 x_91_ * x_25_ + 1 x_91_ ^ 2 + 1 y_25_ ^ 2 - 2 y_91_ * y_25_ + 1 y_91_ ^ 2 ] >= 12704.67
quadratic_ranged_488_lb: [ 1 x_39_ ^ 2 - 2 x_91_ * x_39_ + 1 x_91_ ^ 2 + 1 y_39_ ^ 2 - 2 y_91_ * y_39_ + 1 y_91_ ^ 2 ] >= 3777.84
quadratic_ranged_489_lb: [ 1 x_41_ ^ 2 - 2 x_91_ * x_41_ + 1 x_91_ ^ 2 + 1 y_41_ ^ 2 - 2 y_91_ * y_41_ + 1 y_91_ ^ 2 ] >= 8478.36
quadratic_ranged_490_lb: [ 1 x_49_ ^ 2 - 2 x_91_ * x_49_ + 1 x_91_ ^ 2 + 1 y_49_ ^ 2 - 2 y_91_ * y_49_ + 1 y_91_ ^ 2 ] >= 1085.04
quadratic_ranged_491_lb: [ 1 x_52_ ^ 2 - 2 x_91_ * x_52_ + 1 x_91_ ^ 2 + 1 y_52_ ^ 2 - 2 y_91_ * y_52_ + 1 y_91_ ^ 2 ] >= 10266.3
quadratic_ranged_492_lb: [ 1 x_59_ ^ 2 - 2 x_91_ * x_59_ + 1 x_91_ ^ 2 + 1 y_59_ ^ 2 - 2 y_91_ * y_59_ + 1 y_91_ ^ 2 ] >= 21693.87
quadratic_ranged_493_lb: [ 1 x_83_ ^ 2 - 2 x_91_ * x_83_ + 1 x_91_ ^ 2 + 1 y_83_ ^ 2 - 2 y_91_ * y_83_ + 1 y_91_ ^ 2 ] >= 7378.47
quadratic_ranged_494_lb: [ 1 x_90_ ^ 2 - 2 x_91_ * x_90_ + 1 x_91_ ^ 2 + 1 y_90_ ^ 2 - 2 y_91_ * y_90_ + 1 y_91_ ^ 2 ] >= 11610.72
quadratic_ranged_495_lb: [ 1 x_10_ ^ 2 - 2 x_92_ * x_10_ + 1 x_92_ ^ 2 + 1 y_10_ ^ 2 - 2 y_92_ * y_10_ + 1 y_92_ ^ 2 ] >= 12119.58
quadratic_ranged_496_lb: [ 1 x_22_ ^ 2 - 2 x_92_ * x_22_ + 1 x_92_ ^ 2 + 1 y_22_ ^ 2 - 2 y_92_ * y_22_ + 1 y_92_ ^ 2 ] >= 16570.62
quadratic_ranged_497_lb: [ 1 x_35_ ^ 2 - 2 x_92_ * x_35_ + 1 x_92_ ^ 2 + 1 y_35_ ^ 2 - 2 y_92_ * y_35_ + 1 y_92_ ^ 2 ] >= 10023.75
quadratic_ranged_498_lb: [ 1 x_38_ ^ 2 - 2 x_92_ * x_38_ + 1 x_92_ ^ 2 + 1 y_38_ ^ 2 - 2 y_92_ * y_38_ + 1 y_92_ ^ 2 ] >= 38808
quadratic_ranged_499_lb: [ 1 x_41_ ^ 2 - 2 x_92_ * x_41_ + 1 x_92_ ^ 2 + 1 y_41_ ^ 2 - 2 y_92_ * y_41_ + 1 y_92_ ^ 2 ] >= 1509.75
quadratic_ranged_500_lb: [ 1 x_74_ ^ 2 - 2 x_92_ * x_74_ + 1 x_92_ ^ 2 + 1 y_74_ ^ 2 - 2 y_92_ * y_74_ + 1 y_92_ ^ 2 ] >= 25676.64
quadratic_ranged_501_lb: [ 1 x_84_ ^ 2 - 2 x_92_ * x_84_ + 1 x_92_ ^ 2 + 1 y_84_ ^ 2 - 2 y_92_ * y_84_ + 1 y_92_ ^ 2 ] >= 1888.92
quadratic_ranged_502_lb: [ 1 x_85_ ^ 2 - 2 x_92_ * x_85_ + 1 x_92_ ^ 2 + 1 y_85_ ^ 2 - 2 y_92_ * y_85_ + 1 y_92_ ^ 2 ] >= 23368.95
quadratic_ranged_503_lb: [ 1 x_91_ ^ 2 - 2 x_92_ * x_91_ + 1 x_92_ ^ 2 + 1 y_91_ ^ 2 - 2 y_92_ * y_91_ + 1 y_92_ ^ 2 ] >= 15947.91
quadratic_ranged_504_lb: [ 1 x_3_ ^ 2 - 2 x_93_ * x_3_ + 1 x_93_ ^ 2 + 1 y_3_ ^ 2 - 2 y_93_ * y_3_ + 1 y_93_ ^ 2 ] >= 9828.72
quadratic_ranged_505_lb: [ 1 x_15_ ^ 2 - 2 x_93_ * x_15_ + 1 x_93_ ^ 2 + 1 y_15_ ^ 2 - 2 y_93_ * y_15_ + 1 y_93_ ^ 2 ] >= 12597.75
quadratic_ranged_506_lb: [ 1 x_45_ ^ 2 - 2 x_93_ * x_45_ + 1 x_93_ ^ 2 + 1 y_45_ ^ 2 - 2 y_93_ * y_45_ + 1 y_93_ ^ 2 ] >= 2098.8
quadratic_ranged_507_lb: [ 1 x_49_ ^ 2 - 2 x_93_ * x_49_ + 1 x_93_ ^ 2 + 1 y_49_ ^ 2 - 2 y_93_ * y_49_ + 1 y_93_ ^ 2 ] >= 9773.28
quadratic_ranged_508_lb: [ 1 x_52_ ^ 2 - 2 x_93_ * x_52_ + 1 x_93_ ^ 2 + 1 y_52_ ^ 2 - 2 y_93_ * y_52_ + 1 y_93_ ^ 2 ] >= 2932.38
quadratic_ranged_509_lb: [ 1 x_70_ ^ 2 - 2 x_93_ * x_70_ + 1 x_93_ ^ 2 + 1 y_70_ ^ 2 - 2 y_93_ * y_70_ + 1 y_93_ ^ 2 ] >= 99
quadratic_ranged_510_lb: [ 1 x_84_ ^ 2 - 2 x_93_ * x_84_ + 1 x_93_ ^ 2 + 1 y_84_ ^ 2 - 2 y_93_ * y_84_ + 1 y_93_ ^ 2 ] >= 18541.71
quadratic_ranged_511_lb: [ 1 x_92_ ^ 2 - 2 x_93_ * x_92_ + 1 x_93_ ^ 2 + 1 y_92_ ^ 2 - 2 y_93_ * y_92_ + 1 y_93_ ^ 2 ] >= 11627.55
quadratic_ranged_512_lb: [ 1 x_6_ ^ 2 - 2 x_94_ * x_6_ + 1 x_94_ ^ 2 + 1 y_6_ ^ 2 - 2 y_94_ * y_6_ + 1 y_94_ ^ 2 ] >= 70030.62
quadratic_ranged_513_lb: [ 1 x_7_ ^ 2 - 2 x_94_ * x_7_ + 1 x_94_ ^ 2 + 1 y_7_ ^ 2 - 2 y_94_ * y_7_ + 1 y_94_ ^ 2 ] >= 36790.38
quadratic_ranged_514_lb: [ 1 x_8_ ^ 2 - 2 x_94_ * x_8_ + 1 x_94_ ^ 2 + 1 y_8_ ^ 2 - 2 y_94_ * y_8_ + 1 y_94_ ^ 2 ] >= 3003.66
quadratic_ranged_515_lb: [ 1 x_10_ ^ 2 - 2 x_94_ * x_10_ + 1 x_94_ ^ 2 + 1 y_10_ ^ 2 - 2 y_94_ * y_10_ + 1 y_94_ ^ 2 ] >= 57423.96
quadratic_ranged_516_lb: [ 1 x_24_ ^ 2 - 2 x_94_ * x_24_ + 1 x_94_ ^ 2 + 1 y_24_ ^ 2 - 2 y_94_ * y_24_ + 1 y_94_ ^ 2 ] >= 47322.99
quadratic_ranged_517_lb: [ 1 x_31_ ^ 2 - 2 x_94_ * x_31_ + 1 x_94_ ^ 2 + 1 y_31_ ^ 2 - 2 y_94_ * y_31_ + 1 y_94_ ^ 2 ] >= 8067.51
quadratic_ranged_518_lb: [ 1 x_67_ ^ 2 - 2 x_94_ * x_67_ + 1 x_94_ ^ 2 + 1 y_67_ ^ 2 - 2 y_94_ * y_67_ + 1 y_94_ ^ 2 ] >= 39668.31
quadratic_ranged_519_lb: [ 1 x_73_ ^ 2 - 2 x_94_ * x_73_ + 1 x_94_ ^ 2 + 1 y_73_ ^ 2 - 2 y_94_ * y_73_ + 1 y_94_ ^ 2 ] >= 34501.5
quadratic_ranged_520_lb: [ 1 x_78_ ^ 2 - 2 x_94_ * x_78_ + 1 x_94_ ^ 2 + 1 y_78_ ^ 2 - 2 y_94_ * y_78_ + 1 y_94_ ^ 2 ] >= 41379.03
quadratic_ranged_521_lb: [ 1 x_80_ ^ 2 - 2 x_94_ * x_80_ + 1 x_94_ ^ 2 + 1 y_80_ ^ 2 - 2 y_94_ * y_80_ + 1 y_94_ ^ 2 ] >= 13119.48
quadratic_ranged_522_lb: [ 1 x_91_ ^ 2 - 2 x_94_ * x_91_ + 1 x_94_ ^ 2 + 1 y_91_ ^ 2 - 2 y_94_ * y_91_ + 1 y_94_ ^ 2 ] >= 7798.23
quadratic_ranged_523_lb: [ 1 x_93_ ^ 2 - 2 x_94_ * x_93_ + 1 x_94_ ^ 2 + 1 y_93_ ^ 2 - 2 y_94_ * y_93_ + 1 y_94_ ^ 2 ] >= 23958.99
quadratic_ranged_524_lb: [ 1 x_6_ ^ 2 - 2 x_95_ * x_6_ + 1 x_95_ ^ 2 + 1 y_6_ ^ 2 - 2 y_95_ * y_6_ + 1 y_95_ ^ 2 ] >= 44851.95
quadratic_ranged_525_lb: [ 1 x_7_ ^ 2 - 2 x_95_ * x_7_ + 1 x_95_ ^ 2 + 1 y_7_ ^ 2 - 2 y_95_ * y_7_ + 1 y_95_ ^ 2 ] >= 26148.87
quadratic_ranged_526_lb: [ 1 x_25_ ^ 2 - 2 x_95_ * x_25_ + 1 x_95_ ^ 2 + 1 y_25_ ^ 2 - 2 y_95_ * y_25_ + 1 y_95_ ^ 2 ] >= 32932.35
quadratic_ranged_527_lb: [ 1 x_32_ ^ 2 - 2 x_95_ * x_32_ + 1 x_95_ ^ 2 + 1 y_32_ ^ 2 - 2 y_95_ * y_32_ + 1 y_95_ ^ 2 ] >= 5015.34
quadratic_ranged_528_lb: [ 1 x_33_ ^ 2 - 2 x_95_ * x_33_ + 1 x_95_ ^ 2 + 1 y_33_ ^ 2 - 2 y_95_ * y_33_ + 1 y_95_ ^ 2 ] >= 33511.5
quadratic_ranged_529_lb: [ 1 x_49_ ^ 2 - 2 x_95_ * x_49_ + 1 x_95_ ^ 2 + 1 y_49_ ^ 2 - 2 y_95_ * y_49_ + 1 y_95_ ^ 2 ] >= 2876.94
quadratic_ranged_530_lb: [ 1 x_50_ ^ 2 - 2 x_95_ * x_50_ + 1 x_95_ ^ 2 + 1 y_50_ ^ 2 - 2 y_95_ * y_50_ + 1 y_95_ ^ 2 ] >= 336.6
quadratic_ranged_531_lb: [ 1 x_51_ ^ 2 - 2 x_95_ * x_51_ + 1 x_95_ ^ 2 + 1 y_51_ ^ 2 - 2 y_95_ * y_51_ + 1 y_95_ ^ 2 ] >= 16466.67
quadratic_ranged_532_lb: [ 1 x_59_ ^ 2 - 2 x_95_ * x_59_ + 1 x_95_ ^ 2 + 1 y_59_ ^ 2 - 2 y_95_ * y_59_ + 1 y_95_ ^ 2 ] >= 10918.71
quadratic_ranged_533_lb: [ 1 x_63_ ^ 2 - 2 x_95_ * x_63_ + 1 x_95_ ^ 2 + 1 y_63_ ^ 2 - 2 y_95_ * y_63_ + 1 y_95_ ^ 2 ] >= 8082.36
quadratic_ranged_534_lb: [ 1 x_94_ ^ 2 - 2 x_95_ * x_94_ + 1 x_95_ ^ 2 + 1 y_94_ ^ 2 - 2 y_95_ * y_94_ + 1 y_95_ ^ 2 ] >= 5798.43
quadratic_ranged_535_lb: [ 1 x_4_ ^ 2 - 2 x_96_ * x_4_ + 1 x_96_ ^ 2 + 1 y_4_ ^ 2 - 2 y_96_ * y_4_ + 1 y_96_ ^ 2 ] >= 24617.34
quadratic_ranged_536_lb: [ 1 x_7_ ^ 2 - 2 x_96_ * x_7_ + 1 x_96_ ^ 2 + 1 y_7_ ^ 2 - 2 y_96_ * y_7_ + 1 y_96_ ^ 2 ] >= 13648.14
quadratic_ranged_537_lb: [ 1 x_14_ ^ 2 - 2 x_96_ * x_14_ + 1 x_96_ ^ 2 + 1 y_14_ ^ 2 - 2 y_96_ * y_14_ + 1 y_96_ ^ 2 ] >= 336.6
quadratic_ranged_538_lb: [ 1 x_44_ ^ 2 - 2 x_96_ * x_44_ + 1 x_96_ ^ 2 + 1 y_44_ ^ 2 - 2 y_96_ * y_44_ + 1 y_96_ ^ 2 ] >= 2103.75
quadratic_ranged_539_lb: [ 1 x_57_ ^ 2 - 2 x_96_ * x_57_ + 1 x_96_ ^ 2 + 1 y_57_ ^ 2 - 2 y_96_ * y_57_ + 1 y_96_ ^ 2 ] >= 14637.15
quadratic_ranged_540_lb: [ 1 x_69_ ^ 2 - 2 x_96_ * x_69_ + 1 x_96_ ^ 2 + 1 y_69_ ^ 2 - 2 y_96_ * y_69_ + 1 y_96_ ^ 2 ] >= 514.8
quadratic_ranged_541_lb: [ 1 x_73_ ^ 2 - 2 x_96_ * x_73_ + 1 x_96_ ^ 2 + 1 y_73_ ^ 2 - 2 y_96_ * y_73_ + 1 y_96_ ^ 2 ] >= 17798.22
quadratic_ranged_542_lb: [ 1 x_86_ ^ 2 - 2 x_96_ * x_86_ + 1 x_96_ ^ 2 + 1 y_86_ ^ 2 - 2 y_96_ * y_86_ + 1 y_96_ ^ 2 ] >= 17025.03
quadratic_ranged_543_lb: [ 1 x_92_ ^ 2 - 2 x_96_ * x_92_ + 1 x_96_ ^ 2 + 1 y_92_ ^ 2 - 2 y_96_ * y_92_ + 1 y_96_ ^ 2 ] >= 30185.1
quadratic_ranged_544_lb: [ 1 x_95_ ^ 2 - 2 x_96_ * x_95_ + 1 x_96_ ^ 2 + 1 y_95_ ^ 2 - 2 y_96_ * y_95_ + 1 y_96_ ^ 2 ] >= 11627.55
quadratic_ranged_545_lb: [ 1 x_5_ ^ 2 - 2 x_97_ * x_5_ + 1 x_97_ ^ 2 + 1 y_5_ ^ 2 - 2 y_97_ * y_5_ + 1 y_97_ ^ 2 ] >= 26319.15
quadratic_ranged_546_lb: [ 1 x_6_ ^ 2 - 2 x_97_ * x_6_ + 1 x_97_ ^ 2 + 1 y_6_ ^ 2 - 2 y_97_ * y_6_ + 1 y_97_ ^ 2 ] >= 31209.75
quadratic_ranged_547_lb: [ 1 x_21_ ^ 2 - 2 x_97_ * x_21_ + 1 x_97_ ^ 2 + 1 y_21_ ^ 2 - 2 y_97_ * y_21_ + 1 y_97_ ^ 2 ] >= 27253.71
quadratic_ranged_548_lb: [ 1 x_29_ ^ 2 - 2 x_97_ * x_29_ + 1 x_97_ ^ 2 + 1 y_29_ ^ 2 - 2 y_97_ * y_29_ + 1 y_97_ ^ 2 ] >= 14355
quadratic_ranged_549_lb: [ 1 x_34_ ^ 2 - 2 x_97_ * x_34_ + 1 x_97_ ^ 2 + 1 y_34_ ^ 2 - 2 y_97_ * y_34_ + 1 y_97_ ^ 2 ] >= 11350.35
quadratic_ranged_550_lb: [ 1 x_44_ ^ 2 - 2 x_97_ * x_44_ + 1 x_97_ ^ 2 + 1 y_44_ ^ 2 - 2 y_97_ * y_44_ + 1 y_97_ ^ 2 ] >= 4316.4
quadratic_ranged_551_lb: [ 1 x_66_ ^ 2 - 2 x_97_ * x_66_ + 1 x_97_ ^ 2 + 1 y_66_ ^ 2 - 2 y_97_ * y_66_ + 1 y_97_ ^ 2 ] >= 15456.869999999999
quadratic_ranged_552_lb: [ 1 x_72_ ^ 2 - 2 x_97_ * x_72_ + 1 x_97_ ^ 2 + 1 y_72_ ^ 2 - 2 y_97_ * y_72_ + 1 y_97_ ^ 2 ] >= 7841.79
quadratic_ranged_553_lb: [ 1 x_87_ ^ 2 - 2 x_97_ * x_87_ + 1 x_97_ ^ 2 + 1 y_87_ ^ 2 - 2 y_97_ * y_87_ + 1 y_97_ ^ 2 ] >= 231.66
quadratic_ranged_554_lb: [ 1 x_92_ ^ 2 - 2 x_97_ * x_92_ + 1 x_97_ ^ 2 + 1 y_92_ ^ 2 - 2 y_97_ * y_92_ + 1 y_97_ ^ 2 ] >= 41525.55
quadratic_ranged_555_lb: [ 1 x_96_ ^ 2 - 2 x_97_ * x_96_ + 1 x_97_ ^ 2 + 1 y_96_ ^ 2 - 2 y_97_ * y_96_ + 1 y_97_ ^ 2 ] >= 5291.55
quadratic_ranged_556_lb: [ 1 x_18_ ^ 2 - 2 x_98_ * x_18_ + 1 x_98_ ^ 2 + 1 y_18_ ^ 2 - 2 y_98_ * y_18_ + 1 y_98_ ^ 2 ] >= 9766.35
quadratic_ranged_557_lb: [ 1 x_60_ ^ 2 - 2 x_98_ * x_60_ + 1 x_98_ ^ 2 + 1 y_60_ ^ 2 - 2 y_98_ * y_60_ + 1 y_98_ ^ 2 ] >= 5900.4
quadratic_ranged_558_lb: [ 1 x_63_ ^ 2 - 2 x_98_ * x_63_ + 1 x_98_ ^ 2 + 1 y_63_ ^ 2 - 2 y_98_ * y_63_ + 1 y_98_ ^ 2 ] >= 488.07
quadratic_ranged_559_lb: [ 1 x_88_ ^ 2 - 2 x_98_ * x_88_ + 1 x_98_ ^ 2 + 1 y_88_ ^ 2 - 2 y_98_ * y_88_ + 1 y_98_ ^ 2 ] >= 5171.76
quadratic_ranged_560_lb: [ 1 x_91_ ^ 2 - 2 x_98_ * x_91_ + 1 x_98_ ^ 2 + 1 y_91_ ^ 2 - 2 y_98_ * y_91_ + 1 y_98_ ^ 2 ] >= 1438.47
quadratic_ranged_561_lb: [ 1 x_92_ ^ 2 - 2 x_98_ * x_92_ + 1 x_98_ ^ 2 + 1 y_92_ ^ 2 - 2 y_98_ * y_92_ + 1 y_98_ ^ 2 ] >= 8415
quadratic_ranged_562_lb: [ 1 x_96_ ^ 2 - 2 x_98_ * x_96_ + 1 x_98_ ^ 2 + 1 y_96_ ^ 2 - 2 y_98_ * y_96_ + 1 y_98_ ^ 2 ] >= 6987.42
quadratic_ranged_563_lb: [ 1 x_97_ ^ 2 - 2 x_98_ * x_97_ + 1 x_98_ ^ 2 + 1 y_97_ ^ 2 - 2 y_98_ * y_97_ + 1 y_98_ ^ 2 ] >= 13500.63
quadratic_ranged_564_lb: [ 1 x_3_ ^ 2 - 2 x_99_ * x_3_ + 1 x_99_ ^ 2 + 1 y_3_ ^ 2 - 2 y_99_ * y_3_ + 1 y_99_ ^ 2 ] >= 12380.94
quadratic_ranged_565_lb: [ 1 x_7_ ^ 2 - 2 x_99_ * x_7_ + 1 x_99_ ^ 2 + 1 y_7_ ^ 2 - 2 y_99_ * y_7_ + 1 y_99_ ^ 2 ] >= 16268.67
quadratic_ranged_566_lb: [ 1 x_15_ ^ 2 - 2 x_99_ * x_15_ + 1 x_99_ ^ 2 + 1 y_15_ ^ 2 - 2 y_99_ * y_15_ + 1 y_99_ ^ 2 ] >= 1854.27
quadratic_ranged_567_lb: [ 1 x_24_ ^ 2 - 2 x_99_ * x_24_ + 1 x_99_ ^ 2 + 1 y_24_ ^ 2 - 2 y_99_ * y_24_ + 1 y_99_ ^ 2 ] >= 16333.02
quadratic_ranged_568_lb: [ 1 x_31_ ^ 2 - 2 x_99_ * x_31_ + 1 x_99_ ^ 2 + 1 y_31_ ^ 2 - 2 y_99_ * y_31_ + 1 y_99_ ^ 2 ] >= 2510.64
quadratic_ranged_569_lb: [ 1 x_55_ ^ 2 - 2 x_99_ * x_55_ + 1 x_99_ ^ 2 + 1 y_55_ ^ 2 - 2 y_99_ * y_55_ + 1 y_99_ ^ 2 ] >= 14510.43
quadratic_ranged_570_lb: [ 1 x_68_ ^ 2 - 2 x_99_ * x_68_ + 1 x_99_ ^ 2 + 1 y_68_ ^ 2 - 2 y_99_ * y_68_ + 1 y_99_ ^ 2 ] >= 2274.03
quadratic_ranged_571_lb: [ 1 x_69_ ^ 2 - 2 x_99_ * x_69_ + 1 x_99_ ^ 2 + 1 y_69_ ^ 2 - 2 y_99_ * y_69_ + 1 y_99_ ^ 2 ] >= 6855.75
quadratic_ranged_572_lb: [ 1 x_76_ ^ 2 - 2 x_99_ * x_76_ + 1 x_99_ ^ 2 + 1 y_76_ ^ 2 - 2 y_99_ * y_76_ + 1 y_99_ ^ 2 ] >= 6781.5
quadratic_ranged_573_lb: [ 1 x_93_ ^ 2 - 2 x_99_ * x_93_ + 1 x_99_ ^ 2 + 1 y_93_ ^ 2 - 2 y_99_ * y_93_ + 1 y_99_ ^ 2 ] >= 5878.62
quadratic_ranged_574_lb: [ 1 x_98_ ^ 2 - 2 x_99_ * x_98_ + 1 x_99_ ^ 2 + 1 y_98_ ^ 2 - 2 y_99_ * y_98_ + 1 y_99_ ^ 2 ] >= 1224.6299999999999
quadratic_ranged_575_lb: [ 1 x_1_ ^ 2 - 2 x_100_ * x_1_ + 1 x_100_ ^ 2 + 1 y_1_ ^ 2 - 2 y_100_ * y_1_ + 1 y_100_ ^ 2 ] >= 8492.22
quadratic_ranged_576_lb: [ 1 x_14_ ^ 2 - 2 x_100_ * x_14_ + 1 x_100_ ^ 2 + 1 y_14_ ^ 2 - 2 y_100_ * y_14_ + 1 y_100_ ^ 2 ] >= 1554.3
quadratic_ranged_577_lb: [ 1 x_17_ ^ 2 - 2 x_100_ * x_17_ + 1 x_100_ ^ 2 + 1 y_17_ ^ 2 - 2 y_100_ * y_17_ + 1 y_100_ ^ 2 ] >= 9303.03
quadratic_ranged_578_lb: [ 1 x_33_ ^ 2 - 2 x_100_ * x_33_ + 1 x_100_ ^ 2 + 1 y_33_ ^ 2 - 2 y_100_ * y_33_ + 1 y_100_ ^ 2 ] >= 13211.55
quadratic_ranged_579_lb: [ 1 x_55_ ^ 2 - 2 x_100_ * x_55_ + 1 x_100_ ^ 2 + 1 y_55_ ^ 2 - 2 y_100_ * y_55_ + 1 y_100_ ^ 2 ] >= 9941.58
quadratic_ranged_580_lb: [ 1 x_66_ ^ 2 - 2 x_100_ * x_66_ + 1 x_100_ ^ 2 + 1 y_66_ ^ 2 - 2 y_100_ * y_66_ + 1 y_100_ ^ 2 ] >= 19350.54
quadratic_ranged_581_lb: [ 1 x_67_ ^ 2 - 2 x_100_ * x_67_ + 1 x_100_ ^ 2 + 1 y_67_ ^ 2 - 2 y_100_ * y_67_ + 1 y_100_ ^ 2 ] >= 16795.35
quadratic_ranged_582_lb: [ 1 x_75_ ^ 2 - 2 x_100_ * x_75_ + 1 x_100_ ^ 2 + 1 y_75_ ^ 2 - 2 y_100_ * y_75_ + 1 y_100_ ^ 2 ] >= 6692.4
quadratic_ranged_583_lb: [ 1 x_79_ ^ 2 - 2 x_100_ * x_79_ + 1 x_100_ ^ 2 + 1 y_79_ ^ 2 - 2 y_100_ * y_79_ + 1 y_100_ ^ 2 ] >= 13346.19
quadratic_ranged_584_lb: [ 1 x_92_ ^ 2 - 2 x_100_ * x_92_ + 1 x_100_ ^ 2 + 1 y_92_ ^ 2 - 2 y_100_ * y_92_ + 1 y_100_ ^ 2 ] >= 27185.4
quadratic_ranged_585_lb: [ 1 x_99_ ^ 2 - 2 x_100_ * x_99_ + 1 x_100_ ^ 2 + 1 y_99_ ^ 2 - 2 y_100_ * y_99_ + 1 y_100_ ^ 2 ] >= 9675.27
c1_1: 1 x_63_ = 0
c2_1: 1 y_63_ = 0
Bounds
-51 <= x_1_ <= 51
-170 <= x_2_ <= 170
-152 <= x_3_ <= 152
-128 <= x_4_ <= 128
-143 <= x_5_ <= 143
-181 <= x_6_ <= 181
-186 <= x_7_ <= 186
-141 <= x_8_ <= 141
-131 <= x_9_ <= 131
-119 <= x_10_ <= 119
-147 <= x_11_ <= 147
-117 <= x_12_ <= 117
-102 <= x_13_ <= 102
-96 <= x_14_ <= 96
-101 <= x_15_ <= 101
-134 <= x_16_ <= 134
-154 <= x_17_ <= 154
-122 <= x_18_ <= 122
-176 <= x_19_ <= 176
-112 <= x_20_ <= 112
-138 <= x_21_ <= 138
-58 <= x_22_ <= 58
-65 <= x_23_ <= 65
-100 <= x_24_ <= 100
-144 <= x_25_ <= 144
-144 <= x_26_ <= 144
-123 <= x_27_ <= 123
-103 <= x_28_ <= 103
-122 <= x_29_ <= 122
-171 <= x_30_ <= 171
-108 <= x_31_ <= 108
-162 <= x_32_ <= 162
-121 <= x_33_ <= 121
-87 <= x_34_ <= 87
-105 <= x_35_ <= 105
-111 <= x_36_ <= 111
-64 <= x_37_ <= 64
-140 <= x_38_ <= 140
-122 <= x_39_ <= 122
-127 <= x_40_ <= 127
-153 <= x_41_ <= 153
-73 <= x_42_ <= 73
-98 <= x_43_ <= 98
-107 <= x_44_ <= 107
-108 <= x_45_ <= 108
-170 <= x_46_ <= 170
-111 <= x_47_ <= 111
-103 <= x_48_ <= 103
-93 <= x_49_ <= 93
-89 <= x_50_ <= 89
-131 <= x_51_ <= 131
-94 <= x_52_ <= 94
-152 <= x_53_ <= 152
-58 <= x_54_ <= 58
-72 <= x_55_ <= 72
-123 <= x_56_ <= 123
-115 <= x_57_ <= 115
-117 <= x_58_ <= 117
-146 <= x_59_ <= 146
-99 <= x_60_ <= 99
-154 <= x_61_ <= 154
-61 <= x_62_ <= 61
x_63_ = 0
-24 <= x_64_ <= 24
-109 <= x_65_ <= 109
-102 <= x_66_ <= 102
-153 <= x_67_ <= 153
-105 <= x_68_ <= 105
-126 <= x_69_ <= 126
-145 <= x_70_ <= 145
-138 <= x_71_ <= 138
-146 <= x_72_ <= 146
-102 <= x_73_ <= 102
-153 <= x_74_ <= 153
-144 <= x_75_ <= 144
-140 <= x_76_ <= 140
-128 <= x_77_ <= 128
-133 <= x_78_ <= 133
-141 <= x_79_ <= 141
-108 <= x_80_ <= 108
-83 <= x_81_ <= 83
-126 <= x_82_ <= 126
-137 <= x_83_ <= 137
-127 <= x_84_ <= 127
-118 <= x_85_ <= 118
-107 <= x_86_ <= 107
-125 <= x_87_ <= 125
-94 <= x_88_ <= 94
-179 <= x_89_ <= 179
-169 <= x_90_ <= 169
-60 <= x_91_ <= 60
-114 <= x_92_ <= 114
-135 <= x_93_ <= 135
-149 <= x_94_ <= 149
-90 <= x_95_ <= 90
-106 <= x_96_ <= 106
-139 <= x_97_ <= 139
-22 <= x_98_ <= 22
-57 <= x_99_ <= 57
-136 <= x_100_ <= 136
-51 <= y_1_ <= 51
-170 <= y_2_ <= 170
-152 <= y_3_ <= 152
-128 <= y_4_ <= 128
-143 <= y_5_ <= 143
-181 <= y_6_ <= 181
-186 <= y_7_ <= 186
-141 <= y_8_ <= 141
-131 <= y_9_ <= 131
-119 <= y_10_ <= 119
-147 <= y_11_ <= 147
-117 <= y_12_ <= 117
-102 <= y_13_ <= 102
-96 <= y_14_ <= 96
-101 <= y_15_ <= 101
-134 <= y_16_ <= 134
-154 <= y_17_ <= 154
-122 <= y_18_ <= 122
-176 <= y_19_ <= 176
-112 <= y_20_ <= 112
-138 <= y_21_ <= 138
-58 <= y_22_ <= 58
-65 <= y_23_ <= 65
-100 <= y_24_ <= 100
-144 <= y_25_ <= 144
-144 <= y_26_ <= 144
-123 <= y_27_ <= 123
-103 <= y_28_ <= 103
-122 <= y_29_ <= 122
-171 <= y_30_ <= 171
-108 <= y_31_ <= 108
-162 <= y_32_ <= 162
-121 <= y_33_ <= 121
-87 <= y_34_ <= 87
-105 <= y_35_ <= 105
-111 <= y_36_ <= 111
-64 <= y_37_ <= 64
-140 <= y_38_ <= 140
-122 <= y_39_ <= 122
-127 <= y_40_ <= 127
-153 <= y_41_ <= 153
-73 <= y_42_ <= 73
-98 <= y_43_ <= 98
-107 <= y_44_ <= 107
-108 <= y_45_ <= 108
-170 <= y_46_ <= 170
-111 <= y_47_ <= 111
-103 <= y_48_ <= 103
-93 <= y_49_ <= 93
-89 <= y_50_ <= 89
-131 <= y_51_ <= 131
-94 <= y_52_ <= 94
-152 <= y_53_ <= 152
-58 <= y_54_ <= 58
-72 <= y_55_ <= 72
-123 <= y_56_ <= 123
-115 <= y_57_ <= 115
-117 <= y_58_ <= 117
-146 <= y_59_ <= 146
-99 <= y_60_ <= 99
-154 <= y_61_ <= 154
-61 <= y_62_ <= 61
y_63_ = 0
-24 <= y_64_ <= 24
-109 <= y_65_ <= 109
-102 <= y_66_ <= 102
-153 <= y_67_ <= 153
-105 <= y_68_ <= 105
-126 <= y_69_ <= 126
-145 <= y_70_ <= 145
-138 <= y_71_ <= 138
-146 <= y_72_ <= 146
-102 <= y_73_ <= 102
-153 <= y_74_ <= 153
-144 <= y_75_ <= 144
-140 <= y_76_ <= 140
-128 <= y_77_ <= 128
-133 <= y_78_ <= 133
-141 <= y_79_ <= 141
-108 <= y_80_ <= 108
-83 <= y_81_ <= 83
-126 <= y_82_ <= 126
-137 <= y_83_ <= 137
-127 <= y_84_ <= 127
-118 <= y_85_ <= 118
-107 <= y_86_ <= 107
-125 <= y_87_ <= 125
-94 <= y_88_ <= 94
-179 <= y_89_ <= 179
-169 <= y_90_ <= 169
-60 <= y_91_ <= 60
-114 <= y_92_ <= 114
-135 <= y_93_ <= 135
-149 <= y_94_ <= 149
-90 <= y_95_ <= 90
-106 <= y_96_ <= 106
-139 <= y_97_ <= 139
-22 <= y_98_ <= 22
-57 <= y_99_ <= 57
-136 <= y_100_ <= 136
General
x_1_
x_2_
x_3_
x_4_
x_5_
x_6_
x_7_
x_8_
x_9_
x_10_
x_11_
x_12_
x_13_
x_14_
x_15_
x_16_
x_17_
x_18_
x_19_
x_20_
x_21_
x_22_
x_23_
x_24_
x_25_
x_26_
x_27_
x_28_
x_29_
x_30_
x_31_
x_32_
x_33_
x_34_
x_35_
x_36_
x_37_
x_38_
x_39_
x_40_
x_41_
x_42_
x_43_
x_44_
x_45_
x_46_
x_47_
x_48_
x_49_
x_50_
x_51_
x_52_
x_53_
x_54_
x_55_
x_56_
x_57_
x_58_
x_59_
x_60_
x_61_
x_62_
x_63_
x_64_
x_65_
x_66_
x_67_
x_68_
x_69_
x_70_
x_71_
x_72_
x_73_
x_74_
x_75_
x_76_
x_77_
x_78_
x_79_
x_80_
x_81_
x_82_
x_83_
x_84_
x_85_
x_86_
x_87_
x_88_
x_89_
x_90_
x_91_
x_92_
x_93_
x_94_
x_95_
x_96_
x_97_
x_98_
x_99_
x_100_
y_1_
y_2_
y_3_
y_4_
y_5_
y_6_
y_7_
y_8_
y_9_
y_10_
y_11_
y_12_
y_13_
y_14_
y_15_
y_16_
y_17_
y_18_
y_19_
y_20_
y_21_
y_22_
y_23_
y_24_
y_25_
y_26_
y_27_
y_28_
y_29_
y_30_
y_31_
y_32_
y_33_
y_34_
y_35_
y_36_
y_37_
y_38_
y_39_
y_40_
y_41_
y_42_
y_43_
y_44_
y_45_
y_46_
y_47_
y_48_
y_49_
y_50_
y_51_
y_52_
y_53_
y_54_
y_55_
y_56_
y_57_
y_58_
y_59_
y_60_
y_61_
y_62_
y_63_
y_64_
y_65_
y_66_
y_67_
y_68_
y_69_
y_70_
y_71_
y_72_
y_73_
y_74_
y_75_
y_76_
y_77_
y_78_
y_79_
y_80_
y_81_
y_82_
y_83_
y_84_
y_85_
y_86_
y_87_
y_88_
y_89_
y_90_
y_91_
y_92_
y_93_
y_94_
y_95_
y_96_
y_97_
y_98_
y_99_
y_100_
End
