minimize
obj: 
subject to
c1_1: 120 x_1_ + 124 y_1_ + [ 1 x_1_ ^ 2 + 1 y_1_ ^ 2 ] <= 8255
c2_1: 120 x_2_ + 124 y_2_ + [ 1 x_2_ ^ 2 + 1 y_2_ ^ 2 ] <= 15522
c3_1: 120 x_3_ + 124 y_3_ + [ 1 x_3_ ^ 2 + 1 y_3_ ^ 2 ] <= 33540
c4_1: 120 x_4_ + 124 y_4_ + [ 1 x_4_ ^ 2 + 1 y_4_ ^ 2 ] <= 20054
c5_1: 120 x_5_ + 124 y_5_ + [ 1 x_5_ ^ 2 + 1 y_5_ ^ 2 ] <= 3356
c6_1: 120 x_6_ + 124 y_6_ + [ 1 x_6_ ^ 2 + 1 y_6_ ^ 2 ] <= 15710
c7_1: 120 x_7_ + 124 y_7_ + [ 1 x_7_ ^ 2 + 1 y_7_ ^ 2 ] <= 9861
c8_1: 120 x_8_ + 124 y_8_ + [ 1 x_8_ ^ 2 + 1 y_8_ ^ 2 ] <= -6743
c9_1: 120 x_9_ + 124 y_9_ + [ 1 x_9_ ^ 2 + 1 y_9_ ^ 2 ] <= 25103
c10_1: 120 x_10_ + 124 y_10_ + [ 1 x_10_ ^ 2 + 1 y_10_ ^ 2 ] <= 1946
c11_1: 120 x_11_ + 124 y_11_ + [ 1 x_11_ ^ 2 + 1 y_11_ ^ 2 ] <= 10092
c12_1: 120 x_12_ + 124 y_12_ + [ 1 x_12_ ^ 2 + 1 y_12_ ^ 2 ] <= 21955
c13_1: 120 x_13_ + 124 y_13_ + [ 1 x_13_ ^ 2 + 1 y_13_ ^ 2 ] <= 23113
c14_1: 120 x_14_ + 124 y_14_ + [ 1 x_14_ ^ 2 + 1 y_14_ ^ 2 ] <= 3001
c15_1: 120 x_15_ + 124 y_15_ + [ 1 x_15_ ^ 2 + 1 y_15_ ^ 2 ] <= 3562
c16_1: 120 x_16_ + 124 y_16_ + [ 1 x_16_ ^ 2 + 1 y_16_ ^ 2 ] <= 16815
c17_1: 120 x_17_ + 124 y_17_ + [ 1 x_17_ ^ 2 + 1 y_17_ ^ 2 ] <= -1770
c18_1: 120 x_18_ + 124 y_18_ + [ 1 x_18_ ^ 2 + 1 y_18_ ^ 2 ] <= 33089
c19_1: 120 x_19_ + 124 y_19_ + [ 1 x_19_ ^ 2 + 1 y_19_ ^ 2 ] <= 19537
c20_1: 120 x_20_ + 124 y_20_ + [ 1 x_20_ ^ 2 + 1 y_20_ ^ 2 ] <= 20207
c21_1: 120 x_21_ + 124 y_21_ + [ 1 x_21_ ^ 2 + 1 y_21_ ^ 2 ] <= 34753
c22_1: 120 x_22_ + 124 y_22_ + [ 1 x_22_ ^ 2 + 1 y_22_ ^ 2 ] <= 4926
c23_1: 120 x_23_ + 124 y_23_ + [ 1 x_23_ ^ 2 + 1 y_23_ ^ 2 ] <= 29297
c24_1: 120 x_24_ + 124 y_24_ + [ 1 x_24_ ^ 2 + 1 y_24_ ^ 2 ] <= 12559
c25_1: 120 x_25_ + 124 y_25_ + [ 1 x_25_ ^ 2 + 1 y_25_ ^ 2 ] <= 11933
c26_1: 120 x_26_ + 124 y_26_ + [ 1 x_26_ ^ 2 + 1 y_26_ ^ 2 ] <= -6999
c27_1: 120 x_27_ + 124 y_27_ + [ 1 x_27_ ^ 2 + 1 y_27_ ^ 2 ] <= 17950
c28_1: 120 x_28_ + 124 y_28_ + [ 1 x_28_ ^ 2 + 1 y_28_ ^ 2 ] <= 25100
c29_1: 120 x_29_ + 124 y_29_ + [ 1 x_29_ ^ 2 + 1 y_29_ ^ 2 ] <= 15353
c30_1: 120 x_30_ + 124 y_30_ + [ 1 x_30_ ^ 2 + 1 y_30_ ^ 2 ] <= 9516
c31_1: 120 x_31_ + 124 y_31_ + [ 1 x_31_ ^ 2 + 1 y_31_ ^ 2 ] <= 4705
c32_1: 120 x_32_ + 124 y_32_ + [ 1 x_32_ ^ 2 + 1 y_32_ ^ 2 ] <= -2738
c33_1: 120 x_33_ + 124 y_33_ + [ 1 x_33_ ^ 2 + 1 y_33_ ^ 2 ] <= 26782
c34_1: 120 x_34_ + 124 y_34_ + [ 1 x_34_ ^ 2 + 1 y_34_ ^ 2 ] <= 1469
c35_1: 120 x_35_ + 124 y_35_ + [ 1 x_35_ ^ 2 + 1 y_35_ ^ 2 ] <= 12573
c36_1: 120 x_36_ + 124 y_36_ + [ 1 x_36_ ^ 2 + 1 y_36_ ^ 2 ] <= 1665
c37_1: 120 x_37_ + 124 y_37_ + [ 1 x_37_ ^ 2 + 1 y_37_ ^ 2 ] <= 12601
c38_1: 120 x_38_ + 124 y_38_ + [ 1 x_38_ ^ 2 + 1 y_38_ ^ 2 ] <= 16540
c39_1: 120 x_39_ + 124 y_39_ + [ 1 x_39_ ^ 2 + 1 y_39_ ^ 2 ] <= 19402
c40_1: 120 x_40_ + 124 y_40_ + [ 1 x_40_ ^ 2 + 1 y_40_ ^ 2 ] <= 31121
c41_1: 120 x_41_ + 124 y_41_ + [ 1 x_41_ ^ 2 + 1 y_41_ ^ 2 ] <= 25716
c42_1: 120 x_42_ + 124 y_42_ + [ 1 x_42_ ^ 2 + 1 y_42_ ^ 2 ] <= 22409
c43_1: 120 x_43_ + 124 y_43_ + [ 1 x_43_ ^ 2 + 1 y_43_ ^ 2 ] <= 17071
c44_1: 120 x_44_ + 124 y_44_ + [ 1 x_44_ ^ 2 + 1 y_44_ ^ 2 ] <= 52818
c45_1: 120 x_45_ + 124 y_45_ + [ 1 x_45_ ^ 2 + 1 y_45_ ^ 2 ] <= 14656
c46_1: 120 x_46_ + 124 y_46_ + [ 1 x_46_ ^ 2 + 1 y_46_ ^ 2 ] <= 24117
c47_1: 120 x_47_ + 124 y_47_ + [ 1 x_47_ ^ 2 + 1 y_47_ ^ 2 ] <= -1562
c48_1: 120 x_48_ + 124 y_48_ + [ 1 x_48_ ^ 2 + 1 y_48_ ^ 2 ] <= 5197
c49_1: 120 x_49_ + 124 y_49_ + [ 1 x_49_ ^ 2 + 1 y_49_ ^ 2 ] <= -2072
c50_1: 120 x_50_ + 124 y_50_ + [ 1 x_50_ ^ 2 + 1 y_50_ ^ 2 ] <= 16326
c51_1: 120 x_51_ + 124 y_51_ + [ 1 x_51_ ^ 2 + 1 y_51_ ^ 2 ] <= 18871
c52_1: 120 x_52_ + 124 y_52_ + [ 1 x_52_ ^ 2 + 1 y_52_ ^ 2 ] <= 22442
c53_1: 120 x_53_ + 124 y_53_ + [ 1 x_53_ ^ 2 + 1 y_53_ ^ 2 ] <= 20114
c54_1: 120 x_54_ + 124 y_54_ + [ 1 x_54_ ^ 2 + 1 y_54_ ^ 2 ] <= 17181
c55_1: 120 x_55_ + 124 y_55_ + [ 1 x_55_ ^ 2 + 1 y_55_ ^ 2 ] <= 12321
c56_1: 120 x_56_ + 124 y_56_ + [ 1 x_56_ ^ 2 + 1 y_56_ ^ 2 ] <= 28196
c57_1: 120 x_57_ + 124 y_57_ + [ 1 x_57_ ^ 2 + 1 y_57_ ^ 2 ] <= 22400
c58_1: 120 x_58_ + 124 y_58_ + [ 1 x_58_ ^ 2 + 1 y_58_ ^ 2 ] <= 25022
c59_1: 120 x_59_ + 124 y_59_ + [ 1 x_59_ ^ 2 + 1 y_59_ ^ 2 ] <= 11983
c60_1: 120 x_60_ + 124 y_60_ + [ 1 x_60_ ^ 2 + 1 y_60_ ^ 2 ] <= 17351
c61_1: 120 x_61_ + 124 y_61_ + [ 1 x_61_ ^ 2 + 1 y_61_ ^ 2 ] <= 13559
c62_1: 120 x_62_ + 124 y_62_ + [ 1 x_62_ ^ 2 + 1 y_62_ ^ 2 ] <= 23582
c63_1: 120 x_63_ + 124 y_63_ + [ 1 x_63_ ^ 2 + 1 y_63_ ^ 2 ] <= 41217
c64_1: 120 x_64_ + 124 y_64_ + [ 1 x_64_ ^ 2 + 1 y_64_ ^ 2 ] <= 12388
c65_1: 120 x_65_ + 124 y_65_ + [ 1 x_65_ ^ 2 + 1 y_65_ ^ 2 ] <= 19319
c66_1: 120 x_66_ + 124 y_66_ + [ 1 x_66_ ^ 2 + 1 y_66_ ^ 2 ] <= 15904
c67_1: 120 x_67_ + 124 y_67_ + [ 1 x_67_ ^ 2 + 1 y_67_ ^ 2 ] <= 3249
c68_1: 120 x_68_ + 124 y_68_ + [ 1 x_68_ ^ 2 + 1 y_68_ ^ 2 ] <= 1428
c69_1: 120 x_69_ + 124 y_69_ + [ 1 x_69_ ^ 2 + 1 y_69_ ^ 2 ] <= 160
c70_1: 120 x_70_ + 124 y_70_ + [ 1 x_70_ ^ 2 + 1 y_70_ ^ 2 ] <= 13781
c71_1: 120 x_71_ + 124 y_71_ + [ 1 x_71_ ^ 2 + 1 y_71_ ^ 2 ] <= 45942
c72_1: 120 x_72_ + 124 y_72_ + [ 1 x_72_ ^ 2 + 1 y_72_ ^ 2 ] <= 33732
c73_1: 120 x_73_ + 124 y_73_ + [ 1 x_73_ ^ 2 + 1 y_73_ ^ 2 ] <= 108
c74_1: 120 x_74_ + 124 y_74_ + [ 1 x_74_ ^ 2 + 1 y_74_ ^ 2 ] <= 5132
c75_1: 120 x_75_ + 124 y_75_ + [ 1 x_75_ ^ 2 + 1 y_75_ ^ 2 ] <= 5271
c76_1: 120 x_76_ + 124 y_76_ + [ 1 x_76_ ^ 2 + 1 y_76_ ^ 2 ] <= 23156
c77_1: 120 x_77_ + 124 y_77_ + [ 1 x_77_ ^ 2 + 1 y_77_ ^ 2 ] <= 28983
c78_1: 120 x_78_ + 124 y_78_ + [ 1 x_78_ ^ 2 + 1 y_78_ ^ 2 ] <= 22951
c79_1: 120 x_79_ + 124 y_79_ + [ 1 x_79_ ^ 2 + 1 y_79_ ^ 2 ] <= 9500
c80_1: 120 x_80_ + 124 y_80_ + [ 1 x_80_ ^ 2 + 1 y_80_ ^ 2 ] <= 36112
c81_1: 120 x_81_ + 124 y_81_ + [ 1 x_81_ ^ 2 + 1 y_81_ ^ 2 ] <= 21784
c82_1: 120 x_82_ + 124 y_82_ + [ 1 x_82_ ^ 2 + 1 y_82_ ^ 2 ] <= 9045
c83_1: 120 x_83_ + 124 y_83_ + [ 1 x_83_ ^ 2 + 1 y_83_ ^ 2 ] <= 22026
c84_1: 120 x_84_ + 124 y_84_ + [ 1 x_84_ ^ 2 + 1 y_84_ ^ 2 ] <= 22905
c85_1: 120 x_85_ + 124 y_85_ + [ 1 x_85_ ^ 2 + 1 y_85_ ^ 2 ] <= 27595
c86_1: 120 x_86_ + 124 y_86_ + [ 1 x_86_ ^ 2 + 1 y_86_ ^ 2 ] <= 6224
c87_1: 120 x_87_ + 124 y_87_ + [ 1 x_87_ ^ 2 + 1 y_87_ ^ 2 ] <= 7901
c88_1: 120 x_88_ + 124 y_88_ + [ 1 x_88_ ^ 2 + 1 y_88_ ^ 2 ] <= 6560
c89_1: 120 x_89_ + 124 y_89_ + [ 1 x_89_ ^ 2 + 1 y_89_ ^ 2 ] <= 6390
c90_1: 120 x_91_ + 124 y_91_ + [ 1 x_91_ ^ 2 + 1 y_91_ ^ 2 ] <= 7366
c91_1: 120 x_92_ + 124 y_92_ + [ 1 x_92_ ^ 2 + 1 y_92_ ^ 2 ] <= 10286
c92_1: 120 x_93_ + 124 y_93_ + [ 1 x_93_ ^ 2 + 1 y_93_ ^ 2 ] <= 7415
c93_1: 120 x_94_ + 124 y_94_ + [ 1 x_94_ ^ 2 + 1 y_94_ ^ 2 ] <= -7055
c94_1: 120 x_95_ + 124 y_95_ + [ 1 x_95_ ^ 2 + 1 y_95_ ^ 2 ] <= 15881
c95_1: 120 x_96_ + 124 y_96_ + [ 1 x_96_ ^ 2 + 1 y_96_ ^ 2 ] <= 17088
c96_1: 120 x_97_ + 124 y_97_ + [ 1 x_97_ ^ 2 + 1 y_97_ ^ 2 ] <= 21660
c97_1: 120 x_98_ + 124 y_98_ + [ 1 x_98_ ^ 2 + 1 y_98_ ^ 2 ] <= 2700
c98_1: 120 x_99_ + 124 y_99_ + [ 1 x_99_ ^ 2 + 1 y_99_ ^ 2 ] <= 35310
c99_1: 120 x_100_ + 124 y_100_ + [ 1 x_100_ ^ 2 + 1 y_100_ ^ 2 ] <= 5461
c100_1: -58 x_1_ - 124 y_1_ + [ 1 x_1_ ^ 2 + 1 y_1_ ^ 2 ] <= 5977
c101_1: -58 x_2_ - 124 y_2_ + [ 1 x_2_ ^ 2 + 1 y_2_ ^ 2 ] <= 11790
c102_1: -58 x_3_ - 124 y_3_ + [ 1 x_3_ ^ 2 + 1 y_3_ ^ 2 ] <= 47660
c103_1: -58 x_4_ - 124 y_4_ + [ 1 x_4_ ^ 2 + 1 y_4_ ^ 2 ] <= 16793
c104_1: -58 x_5_ - 124 y_5_ + [ 1 x_5_ ^ 2 + 1 y_5_ ^ 2 ] <= 36462
c105_1: -58 x_6_ - 124 y_6_ + [ 1 x_6_ ^ 2 + 1 y_6_ ^ 2 ] <= 10785
c106_1: -58 x_7_ - 124 y_7_ + [ 1 x_7_ ^ 2 + 1 y_7_ ^ 2 ] <= 6991
c107_1: -58 x_8_ - 124 y_8_ + [ 1 x_8_ ^ 2 + 1 y_8_ ^ 2 ] <= 27429
c108_1: -58 x_9_ - 124 y_9_ + [ 1 x_9_ ^ 2 + 1 y_9_ ^ 2 ] <= 19769
c109_1: -58 x_10_ - 124 y_10_ + [ 1 x_10_ ^ 2 + 1 y_10_ ^ 2 ] <= 25969
c110_1: -58 x_11_ - 124 y_11_ + [ 1 x_11_ ^ 2 + 1 y_11_ ^ 2 ] <= 6555
c111_1: -58 x_12_ - 124 y_12_ + [ 1 x_12_ ^ 2 + 1 y_12_ ^ 2 ] <= 21936
c112_1: -58 x_13_ - 124 y_13_ + [ 1 x_13_ ^ 2 + 1 y_13_ ^ 2 ] <= 22592
c113_1: -58 x_14_ - 124 y_14_ + [ 1 x_14_ ^ 2 + 1 y_14_ ^ 2 ] <= 41747
c114_1: -58 x_15_ - 124 y_15_ + [ 1 x_15_ ^ 2 + 1 y_15_ ^ 2 ] <= 41274
c115_1: -58 x_16_ - 124 y_16_ + [ 1 x_16_ ^ 2 + 1 y_16_ ^ 2 ] <= 43341
c116_1: -58 x_17_ - 124 y_17_ + [ 1 x_17_ ^ 2 + 1 y_17_ ^ 2 ] <= 30889
c117_1: -58 x_18_ - 124 y_18_ + [ 1 x_18_ ^ 2 + 1 y_18_ ^ 2 ] <= -1785
c118_1: -58 x_19_ - 124 y_19_ + [ 1 x_19_ ^ 2 + 1 y_19_ ^ 2 ] <= 31046
c119_1: -58 x_20_ - 124 y_20_ + [ 1 x_20_ ^ 2 + 1 y_20_ ^ 2 ] <= 32677
c120_1: -58 x_21_ - 124 y_21_ + [ 1 x_21_ ^ 2 + 1 y_21_ ^ 2 ] <= 13705
c121_1: -58 x_22_ - 124 y_22_ + [ 1 x_22_ ^ 2 + 1 y_22_ ^ 2 ] <= 25651
c122_1: -58 x_23_ - 124 y_23_ + [ 1 x_23_ ^ 2 + 1 y_23_ ^ 2 ] <= 21567
c123_1: -58 x_24_ - 124 y_24_ + [ 1 x_24_ ^ 2 + 1 y_24_ ^ 2 ] <= 19602
c124_1: -58 x_25_ - 124 y_25_ + [ 1 x_25_ ^ 2 + 1 y_25_ ^ 2 ] <= 22617
c125_1: -58 x_26_ - 124 y_26_ + [ 1 x_26_ ^ 2 + 1 y_26_ ^ 2 ] <= 25529
c126_1: -58 x_27_ - 124 y_27_ + [ 1 x_27_ ^ 2 + 1 y_27_ ^ 2 ] <= -1020
c127_1: -58 x_28_ - 124 y_28_ + [ 1 x_28_ ^ 2 + 1 y_28_ ^ 2 ] <= 18384
c128_1: -58 x_29_ - 124 y_29_ + [ 1 x_29_ ^ 2 + 1 y_29_ ^ 2 ] <= 10094
c129_1: -58 x_30_ - 124 y_30_ + [ 1 x_30_ ^ 2 + 1 y_30_ ^ 2 ] <= 26482
c130_1: -58 x_31_ - 124 y_31_ + [ 1 x_31_ ^ 2 + 1 y_31_ ^ 2 ] <= 11175
c131_1: -58 x_32_ - 124 y_32_ + [ 1 x_32_ ^ 2 + 1 y_32_ ^ 2 ] <= 28396
c132_1: -58 x_33_ - 124 y_33_ + [ 1 x_33_ ^ 2 + 1 y_33_ ^ 2 ] <= 9788
c133_1: -58 x_34_ - 124 y_34_ + [ 1 x_34_ ^ 2 + 1 y_34_ ^ 2 ] <= 38449
c134_1: -58 x_35_ - 124 y_35_ + [ 1 x_35_ ^ 2 + 1 y_35_ ^ 2 ] <= 21556
c135_1: -58 x_36_ - 124 y_36_ + [ 1 x_36_ ^ 2 + 1 y_36_ ^ 2 ] <= 22406
c136_1: -58 x_37_ - 124 y_37_ + [ 1 x_37_ ^ 2 + 1 y_37_ ^ 2 ] <= 19467
c137_1: -58 x_38_ - 124 y_38_ + [ 1 x_38_ ^ 2 + 1 y_38_ ^ 2 ] <= 19024
c138_1: -58 x_39_ - 124 y_39_ + [ 1 x_39_ ^ 2 + 1 y_39_ ^ 2 ] <= 30069
c139_1: -58 x_40_ - 124 y_40_ + [ 1 x_40_ ^ 2 + 1 y_40_ ^ 2 ] <= 24573
c140_1: -58 x_41_ - 124 y_41_ + [ 1 x_41_ ^ 2 + 1 y_41_ ^ 2 ] <= 20713
c141_1: -58 x_42_ - 124 y_42_ + [ 1 x_42_ ^ 2 + 1 y_42_ ^ 2 ] <= 16401
c142_1: -58 x_43_ - 124 y_43_ + [ 1 x_43_ ^ 2 + 1 y_43_ ^ 2 ] <= 24063
c143_1: -58 x_44_ - 124 y_44_ + [ 1 x_44_ ^ 2 + 1 y_44_ ^ 2 ] <= 64195
c144_1: -58 x_45_ - 124 y_45_ + [ 1 x_45_ ^ 2 + 1 y_45_ ^ 2 ] <= 45011
c145_1: -58 x_46_ - 124 y_46_ + [ 1 x_46_ ^ 2 + 1 y_46_ ^ 2 ] <= 9624
c146_1: -58 x_47_ - 124 y_47_ + [ 1 x_47_ ^ 2 + 1 y_47_ ^ 2 ] <= 26278
c147_1: -58 x_48_ - 124 y_48_ + [ 1 x_48_ ^ 2 + 1 y_48_ ^ 2 ] <= 38971
c148_1: -58 x_49_ - 124 y_49_ + [ 1 x_49_ ^ 2 + 1 y_49_ ^ 2 ] <= 43108
c149_1: -58 x_50_ - 124 y_50_ + [ 1 x_50_ ^ 2 + 1 y_50_ ^ 2 ] <= 47301
c150_1: -58 x_51_ - 124 y_51_ + [ 1 x_51_ ^ 2 + 1 y_51_ ^ 2 ] <= 3155
c151_1: -58 x_52_ - 124 y_52_ + [ 1 x_52_ ^ 2 + 1 y_52_ ^ 2 ] <= 27883
c152_1: -58 x_53_ - 124 y_53_ + [ 1 x_53_ ^ 2 + 1 y_53_ ^ 2 ] <= 4603
c153_1: -58 x_54_ - 124 y_54_ + [ 1 x_54_ ^ 2 + 1 y_54_ ^ 2 ] <= -2939
c154_1: -58 x_55_ - 124 y_55_ + [ 1 x_55_ ^ 2 + 1 y_55_ ^ 2 ] <= 7875
c155_1: -58 x_56_ - 124 y_56_ + [ 1 x_56_ ^ 2 + 1 y_56_ ^ 2 ] <= 9729
c156_1: -58 x_57_ - 124 y_57_ + [ 1 x_57_ ^ 2 + 1 y_57_ ^ 2 ] <= 13835
c157_1: -58 x_58_ - 124 y_58_ + [ 1 x_58_ ^ 2 + 1 y_58_ ^ 2 ] <= 12923
c158_1: -58 x_59_ - 124 y_59_ + [ 1 x_59_ ^ 2 + 1 y_59_ ^ 2 ] <= 155
c159_1: -58 x_60_ - 124 y_60_ + [ 1 x_60_ ^ 2 + 1 y_60_ ^ 2 ] <= 4863
c160_1: -58 x_61_ - 124 y_61_ + [ 1 x_61_ ^ 2 + 1 y_61_ ^ 2 ] <= 25155
c161_1: -58 x_62_ - 124 y_62_ + [ 1 x_62_ ^ 2 + 1 y_62_ ^ 2 ] <= 13754
c162_1: -58 x_63_ - 124 y_63_ + [ 1 x_63_ ^ 2 + 1 y_63_ ^ 2 ] <= 21185
c163_1: -58 x_64_ - 124 y_64_ + [ 1 x_64_ ^ 2 + 1 y_64_ ^ 2 ] <= 10090
c164_1: -58 x_65_ - 124 y_65_ + [ 1 x_65_ ^ 2 + 1 y_65_ ^ 2 ] <= 13957
c165_1: -58 x_66_ - 124 y_66_ + [ 1 x_66_ ^ 2 + 1 y_66_ ^ 2 ] <= 6835
c166_1: -58 x_67_ - 124 y_67_ + [ 1 x_67_ ^ 2 + 1 y_67_ ^ 2 ] <= 27942
c167_1: -58 x_68_ - 124 y_68_ + [ 1 x_68_ ^ 2 + 1 y_68_ ^ 2 ] <= 24696
c168_1: -58 x_69_ - 124 y_69_ + [ 1 x_69_ ^ 2 + 1 y_69_ ^ 2 ] <= 17503
c169_1: -58 x_70_ - 124 y_70_ + [ 1 x_70_ ^ 2 + 1 y_70_ ^ 2 ] <= 11646
c170_1: -58 x_71_ - 124 y_71_ + [ 1 x_71_ ^ 2 + 1 y_71_ ^ 2 ] <= 16572
c171_1: -58 x_72_ - 124 y_72_ + [ 1 x_72_ ^ 2 + 1 y_72_ ^ 2 ] <= 31355
c172_1: -58 x_73_ - 124 y_73_ + [ 1 x_73_ ^ 2 + 1 y_73_ ^ 2 ] <= 35388
c173_1: -58 x_74_ - 124 y_74_ + [ 1 x_74_ ^ 2 + 1 y_74_ ^ 2 ] <= 31936
c174_1: -58 x_75_ - 124 y_75_ + [ 1 x_75_ ^ 2 + 1 y_75_ ^ 2 ] <= 18441
c175_1: -58 x_76_ - 124 y_76_ + [ 1 x_76_ ^ 2 + 1 y_76_ ^ 2 ] <= 19823
c176_1: -58 x_77_ - 124 y_77_ + [ 1 x_77_ ^ 2 + 1 y_77_ ^ 2 ] <= 20916
c177_1: -58 x_78_ - 124 y_78_ + [ 1 x_78_ ^ 2 + 1 y_78_ ^ 2 ] <= 5558
c178_1: -58 x_79_ - 124 y_79_ + [ 1 x_79_ ^ 2 + 1 y_79_ ^ 2 ] <= 25835
c179_1: -58 x_80_ - 124 y_80_ + [ 1 x_80_ ^ 2 + 1 y_80_ ^ 2 ] <= 12762
c180_1: -58 x_81_ - 124 y_81_ + [ 1 x_81_ ^ 2 + 1 y_81_ ^ 2 ] <= 13179
c181_1: -58 x_82_ - 124 y_82_ + [ 1 x_82_ ^ 2 + 1 y_82_ ^ 2 ] <= 36565
c182_1: -58 x_83_ - 124 y_83_ + [ 1 x_83_ ^ 2 + 1 y_83_ ^ 2 ] <= 15089
c183_1: -58 x_84_ - 124 y_84_ + [ 1 x_84_ ^ 2 + 1 y_84_ ^ 2 ] <= 3533
c184_1: -58 x_85_ - 124 y_85_ + [ 1 x_85_ ^ 2 + 1 y_85_ ^ 2 ] <= 506
c185_1: -58 x_86_ - 124 y_86_ + [ 1 x_86_ ^ 2 + 1 y_86_ ^ 2 ] <= 3787
c186_1: -58 x_87_ - 124 y_87_ + [ 1 x_87_ ^ 2 + 1 y_87_ ^ 2 ] <= 9582
c187_1: -58 x_88_ - 124 y_88_ + [ 1 x_88_ ^ 2 + 1 y_88_ ^ 2 ] <= 25889
c188_1: -58 x_89_ - 124 y_89_ + [ 1 x_89_ ^ 2 + 1 y_89_ ^ 2 ] <= 5259
c189_1: -58 x_90_ - 124 y_90_ + [ 1 x_90_ ^ 2 + 1 y_90_ ^ 2 ] <= 18640
c190_1: -58 x_91_ - 124 y_91_ + [ 1 x_91_ ^ 2 + 1 y_91_ ^ 2 ] <= 38518
c191_1: -58 x_92_ - 124 y_92_ + [ 1 x_92_ ^ 2 + 1 y_92_ ^ 2 ] <= -388
c192_1: -58 x_93_ - 124 y_93_ + [ 1 x_93_ ^ 2 + 1 y_93_ ^ 2 ] <= 2012
c193_1: -58 x_94_ - 124 y_94_ + [ 1 x_94_ ^ 2 + 1 y_94_ ^ 2 ] <= 13005
c194_1: -58 x_96_ - 124 y_96_ + [ 1 x_96_ ^ 2 + 1 y_96_ ^ 2 ] <= 1964
c195_1: -58 x_97_ - 124 y_97_ + [ 1 x_97_ ^ 2 + 1 y_97_ ^ 2 ] <= 10537
c196_1: -58 x_98_ - 124 y_98_ + [ 1 x_98_ ^ 2 + 1 y_98_ ^ 2 ] <= 22248
c197_1: -58 x_99_ - 124 y_99_ + [ 1 x_99_ ^ 2 + 1 y_99_ ^ 2 ] <= 46189
c198_1: -58 x_100_ - 124 y_100_ + [ 1 x_100_ ^ 2 + 1 y_100_ ^ 2 ] <= 15359
c199_1: -144 x_1_ - 34 y_1_ + [ 1 x_1_ ^ 2 + 1 y_1_ ^ 2 ] <= 2641
c200_1: -144 x_2_ - 34 y_2_ + [ 1 x_2_ ^ 2 + 1 y_2_ ^ 2 ] <= 8059
c201_1: -144 x_3_ - 34 y_3_ + [ 1 x_3_ ^ 2 + 1 y_3_ ^ 2 ] <= 2512
c202_1: -144 x_4_ - 34 y_4_ + [ 1 x_4_ ^ 2 + 1 y_4_ ^ 2 ] <= 19993
c203_1: -144 x_5_ - 34 y_5_ + [ 1 x_5_ ^ 2 + 1 y_5_ ^ 2 ] <= 30568
c204_1: -144 x_6_ - 34 y_6_ + [ 1 x_6_ ^ 2 + 1 y_6_ ^ 2 ] <= 5729
c205_1: -144 x_7_ - 34 y_7_ + [ 1 x_7_ ^ 2 + 1 y_7_ ^ 2 ] <= 1790
c206_1: -144 x_8_ - 34 y_8_ + [ 1 x_8_ ^ 2 + 1 y_8_ ^ 2 ] <= 28034
c207_1: -144 x_9_ - 34 y_9_ + [ 1 x_9_ ^ 2 + 1 y_9_ ^ 2 ] <= 15607
c208_1: -144 x_10_ - 34 y_10_ + [ 1 x_10_ ^ 2 + 1 y_10_ ^ 2 ] <= 27171
c209_1: -144 x_11_ - 34 y_11_ + [ 1 x_11_ ^ 2 + 1 y_11_ ^ 2 ] <= 29671
c210_1: -144 x_12_ - 34 y_12_ + [ 1 x_12_ ^ 2 + 1 y_12_ ^ 2 ] <= 30435
c211_1: -144 x_13_ - 34 y_13_ + [ 1 x_13_ ^ 2 + 1 y_13_ ^ 2 ] <= 22273
c212_1: -144 x_14_ - 34 y_14_ + [ 1 x_14_ ^ 2 + 1 y_14_ ^ 2 ] <= 42632
c213_1: -144 x_15_ - 34 y_15_ + [ 1 x_15_ ^ 2 + 1 y_15_ ^ 2 ] <= 30114
c214_1: -144 x_16_ - 34 y_16_ + [ 1 x_16_ ^ 2 + 1 y_16_ ^ 2 ] <= 37332
c215_1: -144 x_17_ - 34 y_17_ + [ 1 x_17_ ^ 2 + 1 y_17_ ^ 2 ] <= 31566
c216_1: -144 x_18_ - 34 y_18_ + [ 1 x_18_ ^ 2 + 1 y_18_ ^ 2 ] <= 7914
c217_1: -144 x_19_ - 34 y_19_ + [ 1 x_19_ ^ 2 + 1 y_19_ ^ 2 ] <= 28835
c218_1: -144 x_20_ - 34 y_20_ + [ 1 x_20_ ^ 2 + 1 y_20_ ^ 2 ] <= 30816
c219_1: -144 x_21_ - 34 y_21_ + [ 1 x_21_ ^ 2 + 1 y_21_ ^ 2 ] <= 26011
c220_1: -144 x_22_ - 34 y_22_ + [ 1 x_22_ ^ 2 + 1 y_22_ ^ 2 ] <= 32550
c221_1: -144 x_23_ - 34 y_23_ + [ 1 x_23_ ^ 2 + 1 y_23_ ^ 2 ] <= 36084
c222_1: -144 x_24_ - 34 y_24_ + [ 1 x_24_ ^ 2 + 1 y_24_ ^ 2 ] <= 13447
c223_1: -144 x_25_ - 34 y_25_ + [ 1 x_25_ ^ 2 + 1 y_25_ ^ 2 ] <= 17538
c224_1: -144 x_26_ - 34 y_26_ + [ 1 x_26_ ^ 2 + 1 y_26_ ^ 2 ] <= 26093
c225_1: -144 x_27_ - 34 y_27_ + [ 1 x_27_ ^ 2 + 1 y_27_ ^ 2 ] <= 12162
c226_1: -144 x_28_ - 34 y_28_ + [ 1 x_28_ ^ 2 + 1 y_28_ ^ 2 ] <= 22430
c227_1: -144 x_29_ - 34 y_29_ + [ 1 x_29_ ^ 2 + 1 y_29_ ^ 2 ] <= 15367
c228_1: -144 x_30_ - 34 y_30_ + [ 1 x_30_ ^ 2 + 1 y_30_ ^ 2 ] <= 36032
c229_1: -144 x_31_ - 34 y_31_ + [ 1 x_31_ ^ 2 + 1 y_31_ ^ 2 ] <= 17973
c230_1: -144 x_32_ - 34 y_32_ + [ 1 x_32_ ^ 2 + 1 y_32_ ^ 2 ] <= 29022
c231_1: -144 x_33_ - 34 y_33_ + [ 1 x_33_ ^ 2 + 1 y_33_ ^ 2 ] <= 13452
c232_1: -144 x_34_ - 34 y_34_ + [ 1 x_34_ ^ 2 + 1 y_34_ ^ 2 ] <= 39274
c233_1: -144 x_35_ - 34 y_35_ + [ 1 x_35_ ^ 2 + 1 y_35_ ^ 2 ] <= 30315
c234_1: -144 x_36_ - 34 y_36_ + [ 1 x_36_ ^ 2 + 1 y_36_ ^ 2 ] <= 35186
c235_1: -144 x_37_ - 34 y_37_ + [ 1 x_37_ ^ 2 + 1 y_37_ ^ 2 ] <= 33188
c236_1: -144 x_38_ - 34 y_38_ + [ 1 x_38_ ^ 2 + 1 y_38_ ^ 2 ] <= 18245
c237_1: -144 x_39_ - 34 y_39_ + [ 1 x_39_ ^ 2 + 1 y_39_ ^ 2 ] <= 32691
c238_1: -144 x_40_ - 34 y_40_ + [ 1 x_40_ ^ 2 + 1 y_40_ ^ 2 ] <= 47100
c239_1: -144 x_41_ - 34 y_41_ + [ 1 x_41_ ^ 2 + 1 y_41_ ^ 2 ] <= 14072
c240_1: -144 x_42_ - 34 y_42_ + [ 1 x_42_ ^ 2 + 1 y_42_ ^ 2 ] <= 8836
c241_1: -144 x_44_ - 34 y_44_ + [ 1 x_44_ ^ 2 + 1 y_44_ ^ 2 ] <= 13540
c242_1: -144 x_45_ - 34 y_45_ + [ 1 x_45_ ^ 2 + 1 y_45_ ^ 2 ] <= 59695
c243_1: -144 x_46_ - 34 y_46_ + [ 1 x_46_ ^ 2 + 1 y_46_ ^ 2 ] <= 16961
c244_1: -144 x_47_ - 34 y_47_ + [ 1 x_47_ ^ 2 + 1 y_47_ ^ 2 ] <= 31054
c245_1: -144 x_48_ - 34 y_48_ + [ 1 x_48_ ^ 2 + 1 y_48_ ^ 2 ] <= 40194
c246_1: -144 x_49_ - 34 y_49_ + [ 1 x_49_ ^ 2 + 1 y_49_ ^ 2 ] <= 47367
c247_1: -144 x_50_ - 34 y_50_ + [ 1 x_50_ ^ 2 + 1 y_50_ ^ 2 ] <= 45247
c248_1: -144 x_51_ - 34 y_51_ + [ 1 x_51_ ^ 2 + 1 y_51_ ^ 2 ] <= 13929
c249_1: -144 x_52_ - 34 y_52_ + [ 1 x_52_ ^ 2 + 1 y_52_ ^ 2 ] <= 32182
c250_1: -144 x_53_ - 34 y_53_ + [ 1 x_53_ ^ 2 + 1 y_53_ ^ 2 ] <= 22905
c251_1: -144 x_54_ - 34 y_54_ + [ 1 x_54_ ^ 2 + 1 y_54_ ^ 2 ] <= 18063
c252_1: -144 x_55_ - 34 y_55_ + [ 1 x_55_ ^ 2 + 1 y_55_ ^ 2 ] <= 10714
c253_1: -144 x_56_ - 34 y_56_ + [ 1 x_56_ ^ 2 + 1 y_56_ ^ 2 ] <= 20516
c254_1: -144 x_57_ - 34 y_57_ + [ 1 x_57_ ^ 2 + 1 y_57_ ^ 2 ] <= 15604
c255_1: -144 x_58_ - 34 y_58_ + [ 1 x_58_ ^ 2 + 1 y_58_ ^ 2 ] <= 24987
c256_1: -144 x_59_ - 34 y_59_ + [ 1 x_59_ ^ 2 + 1 y_59_ ^ 2 ] <= 6937
c257_1: -144 x_60_ - 34 y_60_ + [ 1 x_60_ ^ 2 + 1 y_60_ ^ 2 ] <= -292
c258_1: -144 x_61_ - 34 y_61_ + [ 1 x_61_ ^ 2 + 1 y_61_ ^ 2 ] <= 16138
c259_1: -144 x_62_ - 34 y_62_ + [ 1 x_62_ ^ 2 + 1 y_62_ ^ 2 ] <= 16717
c260_1: -144 x_63_ - 34 y_63_ + [ 1 x_63_ ^ 2 + 1 y_63_ ^ 2 ] <= 12781
c261_1: -144 x_64_ - 34 y_64_ + [ 1 x_64_ ^ 2 + 1 y_64_ ^ 2 ] <= 17501
c262_1: -144 x_65_ - 34 y_65_ + [ 1 x_65_ ^ 2 + 1 y_65_ ^ 2 ] <= 16940
c263_1: -144 x_66_ - 34 y_66_ + [ 1 x_66_ ^ 2 + 1 y_66_ ^ 2 ] <= 9048
c264_1: -144 x_67_ - 34 y_67_ + [ 1 x_67_ ^ 2 + 1 y_67_ ^ 2 ] <= 41978
c265_1: -144 x_68_ - 34 y_68_ + [ 1 x_68_ ^ 2 + 1 y_68_ ^ 2 ] <= 38046
c266_1: -144 x_69_ - 34 y_69_ + [ 1 x_69_ ^ 2 + 1 y_69_ ^ 2 ] <= 14761
c267_1: -144 x_70_ - 34 y_70_ + [ 1 x_70_ ^ 2 + 1 y_70_ ^ 2 ] <= 20559
c268_1: -144 x_71_ - 34 y_71_ + [ 1 x_71_ ^ 2 + 1 y_71_ ^ 2 ] <= 51476
c269_1: -144 x_72_ - 34 y_72_ + [ 1 x_72_ ^ 2 + 1 y_72_ ^ 2 ] <= 35059
c270_1: -144 x_73_ - 34 y_73_ + [ 1 x_73_ ^ 2 + 1 y_73_ ^ 2 ] <= 36155
c271_1: -144 x_74_ - 34 y_74_ + [ 1 x_74_ ^ 2 + 1 y_74_ ^ 2 ] <= 26806
c272_1: -144 x_75_ - 34 y_75_ + [ 1 x_75_ ^ 2 + 1 y_75_ ^ 2 ] <= 21390
c273_1: -144 x_76_ - 34 y_76_ + [ 1 x_76_ ^ 2 + 1 y_76_ ^ 2 ] <= 4793
c274_1: -144 x_77_ - 34 y_77_ + [ 1 x_77_ ^ 2 + 1 y_77_ ^ 2 ] <= 5695
c275_1: -144 x_78_ - 34 y_78_ + [ 1 x_78_ ^ 2 + 1 y_78_ ^ 2 ] <= 21579
c276_1: -144 x_79_ - 34 y_79_ + [ 1 x_79_ ^ 2 + 1 y_79_ ^ 2 ] <= 20653
c277_1: -144 x_80_ - 34 y_80_ + [ 1 x_80_ ^ 2 + 1 y_80_ ^ 2 ] <= 39195
c278_1: -144 x_81_ - 34 y_81_ + [ 1 x_81_ ^ 2 + 1 y_81_ ^ 2 ] <= 12953
c279_1: -144 x_82_ - 34 y_82_ + [ 1 x_82_ ^ 2 + 1 y_82_ ^ 2 ] <= 27025
c280_1: -144 x_83_ - 34 y_83_ + [ 1 x_83_ ^ 2 + 1 y_83_ ^ 2 ] <= 28576
c281_1: -144 x_84_ - 34 y_84_ + [ 1 x_84_ ^ 2 + 1 y_84_ ^ 2 ] <= 23397
c282_1: -144 x_85_ - 34 y_85_ + [ 1 x_85_ ^ 2 + 1 y_85_ ^ 2 ] <= 25776
c283_1: -144 x_86_ - 34 y_86_ + [ 1 x_86_ ^ 2 + 1 y_86_ ^ 2 ] <= 12449
c284_1: -144 x_87_ - 34 y_87_ + [ 1 x_87_ ^ 2 + 1 y_87_ ^ 2 ] <= 7899
c285_1: -144 x_88_ - 34 y_88_ + [ 1 x_88_ ^ 2 + 1 y_88_ ^ 2 ] <= 32972
c286_1: -144 x_89_ - 34 y_89_ + [ 1 x_89_ ^ 2 + 1 y_89_ ^ 2 ] <= 12850
c287_1: -144 x_90_ - 34 y_90_ + [ 1 x_90_ ^ 2 + 1 y_90_ ^ 2 ] <= 19042
c288_1: -144 x_91_ - 34 y_91_ + [ 1 x_91_ ^ 2 + 1 y_91_ ^ 2 ] <= 29928
c289_1: -144 x_92_ - 34 y_92_ + [ 1 x_92_ ^ 2 + 1 y_92_ ^ 2 ] <= 13843
c290_1: -144 x_93_ - 34 y_93_ + [ 1 x_93_ ^ 2 + 1 y_93_ ^ 2 ] <= 9583
c291_1: -144 x_94_ - 34 y_94_ + [ 1 x_94_ ^ 2 + 1 y_94_ ^ 2 ] <= 13255
c292_1: -144 x_95_ - 34 y_95_ + [ 1 x_95_ ^ 2 + 1 y_95_ ^ 2 ] <= 23275
c293_1: -144 x_96_ - 34 y_96_ + [ 1 x_96_ ^ 2 + 1 y_96_ ^ 2 ] <= 15079
c294_1: -144 x_97_ - 34 y_97_ + [ 1 x_97_ ^ 2 + 1 y_97_ ^ 2 ] <= -3341
c295_1: -144 x_98_ - 34 y_98_ + [ 1 x_98_ ^ 2 + 1 y_98_ ^ 2 ] <= 17588
c296_1: -144 x_99_ - 34 y_99_ + [ 1 x_99_ ^ 2 + 1 y_99_ ^ 2 ] <= 29377
c297_1: -144 x_100_ - 34 y_100_ + [ 1 x_100_ ^ 2 + 1 y_100_ ^ 2 ] <= 7947
c1_2: 1 x_90_ = -60
c2_2: 1 y_90_ = -62
c3_2: 1 x_95_ = 29
c4_2: 1 y_95_ = 62
c5_2: 1 x_43_ = 72
c6_2: 1 y_43_ = 17
c1: [ 1 x_1_ ^ 2 - 2 x_2_ * x_1_ + 1 x_2_ ^ 2 + 1 y_1_ ^ 2 - 2 y_2_ * y_1_ + 1 y_2_ ^ 2 ] = 689
c2: [ 1 x_2_ ^ 2 - 2 x_3_ * x_2_ + 1 x_3_ ^ 2 + 1 y_2_ ^ 2 - 2 y_3_ * y_2_ + 1 y_3_ ^ 2 ] = 29090
c3: [ 1 x_3_ ^ 2 - 2 x_4_ * x_3_ + 1 x_4_ ^ 2 + 1 y_3_ ^ 2 - 2 y_4_ * y_3_ + 1 y_4_ ^ 2 ] = 49748
c4: [ 1 x_4_ ^ 2 - 2 x_5_ * x_4_ + 1 x_5_ ^ 2 + 1 y_4_ ^ 2 - 2 y_5_ * y_4_ + 1 y_5_ ^ 2 ] = 36873
c5: [ 1 x_5_ ^ 2 - 2 x_6_ * x_5_ + 1 x_6_ ^ 2 + 1 y_5_ ^ 2 - 2 y_6_ * y_5_ + 1 y_6_ ^ 2 ] = 12260
c6: [ 1 x_6_ ^ 2 - 2 x_7_ * x_6_ + 1 x_7_ ^ 2 + 1 y_6_ ^ 2 - 2 y_7_ * y_6_ + 1 y_7_ ^ 2 ] = 425
c7: [ 1 x_7_ ^ 2 - 2 x_8_ * x_7_ + 1 x_8_ ^ 2 + 1 y_7_ ^ 2 - 2 y_8_ * y_7_ + 1 y_8_ ^ 2 ] = 24705
c8: [ 1 x_2_ ^ 2 - 2 x_9_ * x_2_ + 1 x_9_ ^ 2 + 1 y_2_ ^ 2 - 2 y_9_ * y_2_ + 1 y_9_ ^ 2 ] = 833
c9: [ 1 x_8_ ^ 2 - 2 x_9_ * x_8_ + 1 x_9_ ^ 2 + 1 y_8_ ^ 2 - 2 y_9_ * y_8_ + 1 y_9_ ^ 2 ] = 30740
c10: [ 1 x_6_ ^ 2 - 2 x_10_ * x_6_ + 1 x_10_ ^ 2 + 1 y_6_ ^ 2 - 2 y_10_ * y_6_ + 1 y_10_ ^ 2 ] = 16690
c11: [ 1 x_7_ ^ 2 - 2 x_10_ * x_7_ + 1 x_10_ ^ 2 + 1 y_7_ ^ 2 - 2 y_10_ * y_7_ + 1 y_10_ ^ 2 ] = 21905
c12: [ 1 x_9_ ^ 2 - 2 x_10_ * x_9_ + 1 x_10_ ^ 2 + 1 y_9_ ^ 2 - 2 y_10_ * y_9_ + 1 y_10_ ^ 2 ] = 25090
c13: [ 1 x_2_ ^ 2 - 2 x_11_ * x_2_ + 1 x_11_ ^ 2 + 1 y_2_ ^ 2 - 2 y_11_ * y_2_ + 1 y_11_ ^ 2 ] = 11101
c14: [ 1 x_3_ ^ 2 - 2 x_11_ * x_3_ + 1 x_11_ ^ 2 + 1 y_3_ ^ 2 - 2 y_11_ * y_3_ + 1 y_11_ ^ 2 ] = 15073
c15: [ 1 x_10_ ^ 2 - 2 x_11_ * x_10_ + 1 x_11_ ^ 2 + 1 y_10_ ^ 2 - 2 y_11_ * y_10_ + 1 y_11_ ^ 2 ] = 4770
c16: [ 1 x_1_ ^ 2 - 2 x_12_ * x_1_ + 1 x_12_ ^ 2 + 1 y_1_ ^ 2 - 2 y_12_ * y_1_ + 1 y_12_ ^ 2 ] = 18013
c17: [ 1 x_11_ ^ 2 - 2 x_12_ * x_11_ + 1 x_12_ ^ 2 + 1 y_11_ ^ 2 - 2 y_12_ * y_11_ + 1 y_12_ ^ 2 ] = 3265
c18: [ 1 x_12_ ^ 2 - 2 x_13_ * x_12_ + 1 x_13_ ^ 2 + 1 y_12_ ^ 2 - 2 y_13_ * y_12_ + 1 y_13_ ^ 2 ] = 9389
c19: [ 1 x_1_ ^ 2 - 2 x_14_ * x_1_ + 1 x_14_ ^ 2 + 1 y_1_ ^ 2 - 2 y_14_ * y_1_ + 1 y_14_ ^ 2 ] = 19600
c20: [ 1 x_12_ ^ 2 - 2 x_14_ * x_12_ + 1 x_14_ ^ 2 + 1 y_12_ ^ 2 - 2 y_14_ * y_12_ + 1 y_14_ ^ 2 ] = 4797
c21: [ 1 x_13_ ^ 2 - 2 x_14_ * x_13_ + 1 x_14_ ^ 2 + 1 y_13_ ^ 2 - 2 y_14_ * y_13_ + 1 y_14_ ^ 2 ] = 20090
c22: [ 1 x_8_ ^ 2 - 2 x_15_ * x_8_ + 1 x_15_ ^ 2 + 1 y_8_ ^ 2 - 2 y_15_ * y_8_ + 1 y_15_ ^ 2 ] = 6152
c23: [ 1 x_14_ ^ 2 - 2 x_15_ * x_14_ + 1 x_15_ ^ 2 + 1 y_14_ ^ 2 - 2 y_15_ * y_14_ + 1 y_15_ ^ 2 ] = 5252
c24: [ 1 x_15_ ^ 2 - 2 x_16_ * x_15_ + 1 x_16_ ^ 2 + 1 y_15_ ^ 2 - 2 y_16_ * y_15_ + 1 y_16_ ^ 2 ] = 23530
c25: [ 1 x_16_ ^ 2 - 2 x_17_ * x_16_ + 1 x_17_ ^ 2 + 1 y_16_ ^ 2 - 2 y_17_ * y_16_ + 1 y_17_ ^ 2 ] = 41252
c26: [ 1 x_10_ ^ 2 - 2 x_18_ * x_10_ + 1 x_18_ ^ 2 + 1 y_10_ ^ 2 - 2 y_18_ * y_10_ + 1 y_18_ ^ 2 ] = 48562
c27: [ 1 x_17_ ^ 2 - 2 x_18_ * x_17_ + 1 x_18_ ^ 2 + 1 y_17_ ^ 2 - 2 y_18_ * y_17_ + 1 y_18_ ^ 2 ] = 38194
c28: [ 1 x_13_ ^ 2 - 2 x_19_ * x_13_ + 1 x_19_ ^ 2 + 1 y_13_ ^ 2 - 2 y_19_ * y_13_ + 1 y_19_ ^ 2 ] = 12932
c29: [ 1 x_18_ ^ 2 - 2 x_19_ * x_18_ + 1 x_19_ ^ 2 + 1 y_18_ ^ 2 - 2 y_19_ * y_18_ + 1 y_19_ ^ 2 ] = 23290
c30: [ 1 x_16_ ^ 2 - 2 x_20_ * x_16_ + 1 x_20_ ^ 2 + 1 y_16_ ^ 2 - 2 y_20_ * y_16_ + 1 y_20_ ^ 2 ] = 5330
c31: [ 1 x_19_ ^ 2 - 2 x_20_ * x_19_ + 1 x_20_ ^ 2 + 1 y_19_ ^ 2 - 2 y_20_ * y_19_ + 1 y_20_ ^ 2 ] = 20354
c32: [ 1 x_18_ ^ 2 - 2 x_21_ * x_18_ + 1 x_21_ ^ 2 + 1 y_18_ ^ 2 - 2 y_21_ * y_18_ + 1 y_21_ ^ 2 ] = 15353
c33: [ 1 x_20_ ^ 2 - 2 x_21_ * x_20_ + 1 x_21_ ^ 2 + 1 y_20_ ^ 2 - 2 y_21_ * y_20_ + 1 y_21_ ^ 2 ] = 4165
c34: [ 1 x_2_ ^ 2 - 2 x_22_ * x_2_ + 1 x_22_ ^ 2 + 1 y_2_ ^ 2 - 2 y_22_ * y_2_ + 1 y_22_ ^ 2 ] = 24778
c35: [ 1 x_5_ ^ 2 - 2 x_22_ * x_5_ + 1 x_22_ ^ 2 + 1 y_5_ ^ 2 - 2 y_22_ * y_5_ + 1 y_22_ ^ 2 ] = 16453
c36: [ 1 x_7_ ^ 2 - 2 x_22_ * x_7_ + 1 x_22_ ^ 2 + 1 y_7_ ^ 2 - 2 y_22_ * y_7_ + 1 y_22_ ^ 2 ] = 20072
c37: [ 1 x_9_ ^ 2 - 2 x_22_ * x_9_ + 1 x_22_ ^ 2 + 1 y_9_ ^ 2 - 2 y_22_ * y_9_ + 1 y_22_ ^ 2 ] = 22181
c38: [ 1 x_10_ ^ 2 - 2 x_22_ * x_10_ + 1 x_22_ ^ 2 + 1 y_10_ ^ 2 - 2 y_22_ * y_10_ + 1 y_22_ ^ 2 ] = 205
c39: [ 1 x_11_ ^ 2 - 2 x_22_ * x_11_ + 1 x_22_ ^ 2 + 1 y_11_ ^ 2 - 2 y_22_ * y_11_ + 1 y_22_ ^ 2 ] = 4645
c40: [ 1 x_21_ ^ 2 - 2 x_22_ * x_21_ + 1 x_22_ ^ 2 + 1 y_21_ ^ 2 - 2 y_22_ * y_21_ + 1 y_22_ ^ 2 ] = 9992
c41: [ 1 x_21_ ^ 2 - 2 x_23_ * x_21_ + 1 x_23_ ^ 2 + 1 y_21_ ^ 2 - 2 y_23_ * y_21_ + 1 y_23_ ^ 2 ] = 1373
c42: [ 1 x_22_ ^ 2 - 2 x_23_ * x_22_ + 1 x_23_ ^ 2 + 1 y_22_ ^ 2 - 2 y_23_ * y_22_ + 1 y_23_ ^ 2 ] = 18185
c43: [ 1 x_3_ ^ 2 - 2 x_24_ * x_3_ + 1 x_24_ ^ 2 + 1 y_3_ ^ 2 - 2 y_24_ * y_3_ + 1 y_24_ ^ 2 ] = 39442
c44: [ 1 x_4_ ^ 2 - 2 x_24_ * x_4_ + 1 x_24_ ^ 2 + 1 y_4_ ^ 2 - 2 y_24_ * y_4_ + 1 y_24_ ^ 2 ] = 610
c45: [ 1 x_5_ ^ 2 - 2 x_24_ * x_5_ + 1 x_24_ ^ 2 + 1 y_5_ ^ 2 - 2 y_24_ * y_5_ + 1 y_24_ ^ 2 ] = 28009
c46: [ 1 x_7_ ^ 2 - 2 x_24_ * x_7_ + 1 x_24_ ^ 2 + 1 y_7_ ^ 2 - 2 y_24_ * y_7_ + 1 y_24_ ^ 2 ] = 2738
c47: [ 1 x_13_ ^ 2 - 2 x_24_ * x_13_ + 1 x_24_ ^ 2 + 1 y_13_ ^ 2 - 2 y_24_ * y_13_ + 1 y_24_ ^ 2 ] = 15669
c48: [ 1 x_23_ ^ 2 - 2 x_24_ * x_23_ + 1 x_24_ ^ 2 + 1 y_23_ ^ 2 - 2 y_24_ * y_23_ + 1 y_24_ ^ 2 ] = 16465
c49: [ 1 x_5_ ^ 2 - 2 x_25_ * x_5_ + 1 x_25_ ^ 2 + 1 y_5_ ^ 2 - 2 y_25_ * y_5_ + 1 y_25_ ^ 2 ] = 29861
c50: [ 1 x_24_ ^ 2 - 2 x_25_ * x_24_ + 1 x_25_ ^ 2 + 1 y_24_ ^ 2 - 2 y_25_ * y_24_ + 1 y_25_ ^ 2 ] = 200
c51: [ 1 x_1_ ^ 2 - 2 x_26_ * x_1_ + 1 x_26_ ^ 2 + 1 y_1_ ^ 2 - 2 y_26_ * y_1_ + 1 y_26_ ^ 2 ] = 10858
c52: [ 1 x_24_ ^ 2 - 2 x_26_ * x_24_ + 1 x_26_ ^ 2 + 1 y_24_ ^ 2 - 2 y_26_ * y_24_ + 1 y_26_ ^ 2 ] = 14481
c53: [ 1 x_25_ ^ 2 - 2 x_26_ * x_25_ + 1 x_26_ ^ 2 + 1 y_25_ ^ 2 - 2 y_26_ * y_25_ + 1 y_26_ ^ 2 ] = 13949
c54: [ 1 x_1_ ^ 2 - 2 x_27_ * x_1_ + 1 x_27_ ^ 2 + 1 y_1_ ^ 2 - 2 y_27_ * y_1_ + 1 y_27_ ^ 2 ] = 1825
c55: [ 1 x_12_ ^ 2 - 2 x_27_ * x_12_ + 1 x_27_ ^ 2 + 1 y_12_ ^ 2 - 2 y_27_ * y_12_ + 1 y_27_ ^ 2 ] = 30312
c56: [ 1 x_26_ ^ 2 - 2 x_27_ * x_26_ + 1 x_27_ ^ 2 + 1 y_26_ ^ 2 - 2 y_27_ * y_26_ + 1 y_27_ ^ 2 ] = 19181
c57: [ 1 x_15_ ^ 2 - 2 x_28_ * x_15_ + 1 x_28_ ^ 2 + 1 y_15_ ^ 2 - 2 y_28_ * y_15_ + 1 y_28_ ^ 2 ] = 7393
c58: [ 1 x_27_ ^ 2 - 2 x_28_ * x_27_ + 1 x_28_ ^ 2 + 1 y_27_ ^ 2 - 2 y_28_ * y_27_ + 1 y_28_ ^ 2 ] = 33002
c59: [ 1 x_7_ ^ 2 - 2 x_29_ * x_7_ + 1 x_29_ ^ 2 + 1 y_7_ ^ 2 - 2 y_29_ * y_7_ + 1 y_29_ ^ 2 ] = 3497
c60: [ 1 x_11_ ^ 2 - 2 x_29_ * x_11_ + 1 x_29_ ^ 2 + 1 y_11_ ^ 2 - 2 y_29_ * y_11_ + 1 y_29_ ^ 2 ] = 11290
c61: [ 1 x_28_ ^ 2 - 2 x_29_ * x_28_ + 1 x_29_ ^ 2 + 1 y_28_ ^ 2 - 2 y_29_ * y_28_ + 1 y_29_ ^ 2 ] = 17245
c62: [ 1 x_5_ ^ 2 - 2 x_30_ * x_5_ + 1 x_30_ ^ 2 + 1 y_5_ ^ 2 - 2 y_30_ * y_5_ + 1 y_30_ ^ 2 ] = 692
c63: [ 1 x_9_ ^ 2 - 2 x_30_ * x_9_ + 1 x_30_ ^ 2 + 1 y_9_ ^ 2 - 2 y_30_ * y_9_ + 1 y_30_ ^ 2 ] = 19240
c64: [ 1 x_20_ ^ 2 - 2 x_30_ * x_20_ + 1 x_30_ ^ 2 + 1 y_20_ ^ 2 - 2 y_30_ * y_20_ + 1 y_30_ ^ 2 ] = 1300
c65: [ 1 x_29_ ^ 2 - 2 x_30_ * x_29_ + 1 x_30_ ^ 2 + 1 y_29_ ^ 2 - 2 y_30_ * y_29_ + 1 y_30_ ^ 2 ] = 6970
c66: [ 1 x_7_ ^ 2 - 2 x_31_ * x_7_ + 1 x_31_ ^ 2 + 1 y_7_ ^ 2 - 2 y_31_ * y_7_ + 1 y_31_ ^ 2 ] = 4610
c67: [ 1 x_14_ ^ 2 - 2 x_31_ * x_14_ + 1 x_31_ ^ 2 + 1 y_14_ ^ 2 - 2 y_31_ * y_14_ + 1 y_31_ ^ 2 ] = 9125
c68: [ 1 x_20_ ^ 2 - 2 x_31_ * x_20_ + 1 x_31_ ^ 2 + 1 y_20_ ^ 2 - 2 y_31_ * y_20_ + 1 y_31_ ^ 2 ] = 5837
c69: [ 1 x_24_ ^ 2 - 2 x_31_ * x_24_ + 1 x_31_ ^ 2 + 1 y_24_ ^ 2 - 2 y_31_ * y_24_ + 1 y_31_ ^ 2 ] = 9396
c70: [ 1 x_30_ ^ 2 - 2 x_31_ * x_30_ + 1 x_31_ ^ 2 + 1 y_30_ ^ 2 - 2 y_31_ * y_30_ + 1 y_31_ ^ 2 ] = 2561
c71: [ 1 x_9_ ^ 2 - 2 x_32_ * x_9_ + 1 x_32_ ^ 2 + 1 y_9_ ^ 2 - 2 y_32_ * y_9_ + 1 y_32_ ^ 2 ] = 31177
c72: [ 1 x_10_ ^ 2 - 2 x_32_ * x_10_ + 1 x_32_ ^ 2 + 1 y_10_ ^ 2 - 2 y_32_ * y_10_ + 1 y_32_ ^ 2 ] = 801
c73: [ 1 x_13_ ^ 2 - 2 x_32_ * x_13_ + 1 x_32_ ^ 2 + 1 y_13_ ^ 2 - 2 y_32_ * y_13_ + 1 y_32_ ^ 2 ] = 18545
c74: [ 1 x_14_ ^ 2 - 2 x_32_ * x_14_ + 1 x_32_ ^ 2 + 1 y_14_ ^ 2 - 2 y_32_ * y_14_ + 1 y_32_ ^ 2 ] = 1129
c75: [ 1 x_25_ ^ 2 - 2 x_32_ * x_25_ + 1 x_32_ ^ 2 + 1 y_25_ ^ 2 - 2 y_32_ * y_25_ + 1 y_32_ ^ 2 ] = 27040
c76: [ 1 x_31_ ^ 2 - 2 x_32_ * x_31_ + 1 x_32_ ^ 2 + 1 y_31_ ^ 2 - 2 y_32_ * y_31_ + 1 y_32_ ^ 2 ] = 9620
c77: [ 1 x_16_ ^ 2 - 2 x_33_ * x_16_ + 1 x_33_ ^ 2 + 1 y_16_ ^ 2 - 2 y_33_ * y_16_ + 1 y_33_ ^ 2 ] = 27709
c78: [ 1 x_17_ ^ 2 - 2 x_33_ * x_17_ + 1 x_33_ ^ 2 + 1 y_17_ ^ 2 - 2 y_33_ * y_17_ + 1 y_33_ ^ 2 ] = 32485
c79: [ 1 x_24_ ^ 2 - 2 x_33_ * x_24_ + 1 x_33_ ^ 2 + 1 y_24_ ^ 2 - 2 y_33_ * y_24_ + 1 y_33_ ^ 2 ] = 13810
c80: [ 1 x_29_ ^ 2 - 2 x_33_ * x_29_ + 1 x_33_ ^ 2 + 1 y_29_ ^ 2 - 2 y_33_ * y_29_ + 1 y_33_ ^ 2 ] = 1157
c81: [ 1 x_32_ ^ 2 - 2 x_33_ * x_32_ + 1 x_33_ ^ 2 + 1 y_32_ ^ 2 - 2 y_33_ * y_32_ + 1 y_33_ ^ 2 ] = 44474
c82: [ 1 x_6_ ^ 2 - 2 x_34_ * x_6_ + 1 x_34_ ^ 2 + 1 y_6_ ^ 2 - 2 y_34_ * y_6_ + 1 y_34_ ^ 2 ] = 17293
c83: [ 1 x_13_ ^ 2 - 2 x_34_ * x_13_ + 1 x_34_ ^ 2 + 1 y_13_ ^ 2 - 2 y_34_ * y_13_ + 1 y_34_ ^ 2 ] = 19409
c84: [ 1 x_30_ ^ 2 - 2 x_34_ * x_30_ + 1 x_34_ ^ 2 + 1 y_30_ ^ 2 - 2 y_34_ * y_30_ + 1 y_34_ ^ 2 ] = 14265
c85: [ 1 x_32_ ^ 2 - 2 x_34_ * x_32_ + 1 x_34_ ^ 2 + 1 y_32_ ^ 2 - 2 y_34_ * y_32_ + 1 y_34_ ^ 2 ] = 666
c86: [ 1 x_33_ ^ 2 - 2 x_34_ * x_33_ + 1 x_34_ ^ 2 + 1 y_33_ ^ 2 - 2 y_34_ * y_33_ + 1 y_34_ ^ 2 ] = 42920
c87: [ 1 x_5_ ^ 2 - 2 x_35_ * x_5_ + 1 x_35_ ^ 2 + 1 y_5_ ^ 2 - 2 y_35_ * y_5_ + 1 y_35_ ^ 2 ] = 11417
c88: [ 1 x_9_ ^ 2 - 2 x_35_ * x_9_ + 1 x_35_ ^ 2 + 1 y_9_ ^ 2 - 2 y_35_ * y_9_ + 1 y_35_ ^ 2 ] = 3757
c89: [ 1 x_31_ ^ 2 - 2 x_35_ * x_31_ + 1 x_35_ ^ 2 + 1 y_31_ ^ 2 - 2 y_35_ * y_31_ + 1 y_35_ ^ 2 ] = 1300
c90: [ 1 x_34_ ^ 2 - 2 x_35_ * x_34_ + 1 x_35_ ^ 2 + 1 y_34_ ^ 2 - 2 y_35_ * y_34_ + 1 y_35_ ^ 2 ] = 12146
c91: [ 1 x_12_ ^ 2 - 2 x_36_ * x_12_ + 1 x_36_ ^ 2 + 1 y_12_ ^ 2 - 2 y_36_ * y_12_ + 1 y_36_ ^ 2 ] = 7848
c92: [ 1 x_15_ ^ 2 - 2 x_36_ * x_15_ + 1 x_36_ ^ 2 + 1 y_15_ ^ 2 - 2 y_36_ * y_15_ + 1 y_36_ ^ 2 ] = 2825
c93: [ 1 x_29_ ^ 2 - 2 x_36_ * x_29_ + 1 x_36_ ^ 2 + 1 y_29_ ^ 2 - 2 y_36_ * y_29_ + 1 y_36_ ^ 2 ] = 3281
c94: [ 1 x_35_ ^ 2 - 2 x_36_ * x_35_ + 1 x_36_ ^ 2 + 1 y_35_ ^ 2 - 2 y_36_ * y_35_ + 1 y_36_ ^ 2 ] = 2120
c95: [ 1 x_4_ ^ 2 - 2 x_37_ * x_4_ + 1 x_37_ ^ 2 + 1 y_4_ ^ 2 - 2 y_37_ * y_4_ + 1 y_37_ ^ 2 ] = 20485
c96: [ 1 x_11_ ^ 2 - 2 x_37_ * x_11_ + 1 x_37_ ^ 2 + 1 y_11_ ^ 2 - 2 y_37_ * y_11_ + 1 y_37_ ^ 2 ] = 9770
c97: [ 1 x_16_ ^ 2 - 2 x_37_ * x_16_ + 1 x_37_ ^ 2 + 1 y_16_ ^ 2 - 2 y_37_ * y_16_ + 1 y_37_ ^ 2 ] = 14612
c98: [ 1 x_19_ ^ 2 - 2 x_37_ * x_19_ + 1 x_37_ ^ 2 + 1 y_19_ ^ 2 - 2 y_37_ * y_19_ + 1 y_37_ ^ 2 ] = 15140
c99: [ 1 x_30_ ^ 2 - 2 x_37_ * x_30_ + 1 x_37_ ^ 2 + 1 y_30_ ^ 2 - 2 y_37_ * y_30_ + 1 y_37_ ^ 2 ] = 4562
c100: [ 1 x_36_ ^ 2 - 2 x_37_ * x_36_ + 1 x_37_ ^ 2 + 1 y_36_ ^ 2 - 2 y_37_ * y_36_ + 1 y_37_ ^ 2 ] = 2333
c101: [ 1 x_2_ ^ 2 - 2 x_38_ * x_2_ + 1 x_38_ ^ 2 + 1 y_2_ ^ 2 - 2 y_38_ * y_2_ + 1 y_38_ ^ 2 ] = 4073
c102: [ 1 x_6_ ^ 2 - 2 x_38_ * x_6_ + 1 x_38_ ^ 2 + 1 y_6_ ^ 2 - 2 y_38_ * y_6_ + 1 y_38_ ^ 2 ] = 2320
c103: [ 1 x_8_ ^ 2 - 2 x_38_ * x_8_ + 1 x_38_ ^ 2 + 1 y_8_ ^ 2 - 2 y_38_ * y_8_ + 1 y_38_ ^ 2 ] = 16484
c104: [ 1 x_10_ ^ 2 - 2 x_38_ * x_10_ + 1 x_38_ ^ 2 + 1 y_10_ ^ 2 - 2 y_38_ * y_10_ + 1 y_38_ ^ 2 ] = 11834
c105: [ 1 x_31_ ^ 2 - 2 x_38_ * x_31_ + 1 x_38_ ^ 2 + 1 y_31_ ^ 2 - 2 y_38_ * y_31_ + 1 y_38_ ^ 2 ] = 4365
c106: [ 1 x_33_ ^ 2 - 2 x_38_ * x_33_ + 1 x_38_ ^ 2 + 1 y_33_ ^ 2 - 2 y_38_ * y_33_ + 1 y_38_ ^ 2 ] = 15913
c107: [ 1 x_37_ ^ 2 - 2 x_38_ * x_37_ + 1 x_38_ ^ 2 + 1 y_37_ ^ 2 - 2 y_38_ * y_37_ + 1 y_38_ ^ 2 ] = 12762
c108: [ 1 x_18_ ^ 2 - 2 x_39_ * x_18_ + 1 x_39_ ^ 2 + 1 y_18_ ^ 2 - 2 y_39_ * y_18_ + 1 y_39_ ^ 2 ] = 23882
c109: [ 1 x_23_ ^ 2 - 2 x_39_ * x_23_ + 1 x_39_ ^ 2 + 1 y_23_ ^ 2 - 2 y_39_ * y_23_ + 1 y_39_ ^ 2 ] = 3050
c110: [ 1 x_28_ ^ 2 - 2 x_39_ * x_28_ + 1 x_39_ ^ 2 + 1 y_28_ ^ 2 - 2 y_39_ * y_28_ + 1 y_39_ ^ 2 ] = 1193
c111: [ 1 x_30_ ^ 2 - 2 x_39_ * x_30_ + 1 x_39_ ^ 2 + 1 y_30_ ^ 2 - 2 y_39_ * y_30_ + 1 y_39_ ^ 2 ] = 1130
c112: [ 1 x_38_ ^ 2 - 2 x_39_ * x_38_ + 1 x_39_ ^ 2 + 1 y_38_ ^ 2 - 2 y_39_ * y_38_ + 1 y_39_ ^ 2 ] = 21794
c113: [ 1 x_5_ ^ 2 - 2 x_40_ * x_5_ + 1 x_40_ ^ 2 + 1 y_5_ ^ 2 - 2 y_40_ * y_5_ + 1 y_40_ ^ 2 ] = 18405
c114: [ 1 x_11_ ^ 2 - 2 x_40_ * x_11_ + 1 x_40_ ^ 2 + 1 y_11_ ^ 2 - 2 y_40_ * y_11_ + 1 y_40_ ^ 2 ] = 4229
c115: [ 1 x_21_ ^ 2 - 2 x_40_ * x_21_ + 1 x_40_ ^ 2 + 1 y_21_ ^ 2 - 2 y_40_ * y_21_ + 1 y_40_ ^ 2 ] = 9316
c116: [ 1 x_23_ ^ 2 - 2 x_40_ * x_23_ + 1 x_40_ ^ 2 + 1 y_23_ ^ 2 - 2 y_40_ * y_23_ + 1 y_40_ ^ 2 ] = 17753
c117: [ 1 x_25_ ^ 2 - 2 x_40_ * x_25_ + 1 x_40_ ^ 2 + 1 y_25_ ^ 2 - 2 y_40_ * y_25_ + 1 y_40_ ^ 2 ] = 11834
c118: [ 1 x_39_ ^ 2 - 2 x_40_ * x_39_ + 1 x_40_ ^ 2 + 1 y_39_ ^ 2 - 2 y_40_ * y_39_ + 1 y_40_ ^ 2 ] = 21253
c119: [ 1 x_3_ ^ 2 - 2 x_41_ * x_3_ + 1 x_41_ ^ 2 + 1 y_3_ ^ 2 - 2 y_41_ * y_3_ + 1 y_41_ ^ 2 ] = 9305
c120: [ 1 x_8_ ^ 2 - 2 x_41_ * x_8_ + 1 x_41_ ^ 2 + 1 y_8_ ^ 2 - 2 y_41_ * y_8_ + 1 y_41_ ^ 2 ] = 24218
c121: [ 1 x_14_ ^ 2 - 2 x_41_ * x_14_ + 1 x_41_ ^ 2 + 1 y_14_ ^ 2 - 2 y_41_ * y_14_ + 1 y_41_ ^ 2 ] = 26690
c122: [ 1 x_20_ ^ 2 - 2 x_41_ * x_20_ + 1 x_41_ ^ 2 + 1 y_20_ ^ 2 - 2 y_41_ * y_20_ + 1 y_41_ ^ 2 ] = 2570
c123: [ 1 x_40_ ^ 2 - 2 x_41_ * x_40_ + 1 x_41_ ^ 2 + 1 y_40_ ^ 2 - 2 y_41_ * y_40_ + 1 y_41_ ^ 2 ] = 23341
c124: [ 1 x_5_ ^ 2 - 2 x_42_ * x_5_ + 1 x_42_ ^ 2 + 1 y_5_ ^ 2 - 2 y_42_ * y_5_ + 1 y_42_ ^ 2 ] = 27161
c125: [ 1 x_23_ ^ 2 - 2 x_42_ * x_23_ + 1 x_42_ ^ 2 + 1 y_23_ ^ 2 - 2 y_42_ * y_23_ + 1 y_42_ ^ 2 ] = 14625
c126: [ 1 x_41_ ^ 2 - 2 x_42_ * x_41_ + 1 x_42_ ^ 2 + 1 y_41_ ^ 2 - 2 y_42_ * y_41_ + 1 y_42_ ^ 2 ] = 9953
c127: [ 1 x_1_ ^ 2 - 2 x_43_ * x_1_ + 1 x_43_ ^ 2 + 1 y_1_ ^ 2 - 2 y_43_ * y_1_ + 1 y_43_ ^ 2 ] = 8114
c128: [ 1 x_3_ ^ 2 - 2 x_43_ * x_3_ + 1 x_43_ ^ 2 + 1 y_3_ ^ 2 - 2 y_43_ * y_3_ + 1 y_43_ ^ 2 ] = 7985
c129: [ 1 x_10_ ^ 2 - 2 x_43_ * x_10_ + 1 x_43_ ^ 2 + 1 y_10_ ^ 2 - 2 y_43_ * y_10_ + 1 y_43_ ^ 2 ] = 32644
c130: [ 1 x_42_ ^ 2 - 2 x_43_ * x_42_ + 1 x_43_ ^ 2 + 1 y_42_ ^ 2 - 2 y_43_ * y_42_ + 1 y_43_ ^ 2 ] = 14309
c131: [ 1 x_9_ ^ 2 - 2 x_44_ * x_9_ + 1 x_44_ ^ 2 + 1 y_9_ ^ 2 - 2 y_44_ * y_9_ + 1 y_44_ ^ 2 ] = 27261
c132: [ 1 x_29_ ^ 2 - 2 x_44_ * x_29_ + 1 x_44_ ^ 2 + 1 y_29_ ^ 2 - 2 y_44_ * y_29_ + 1 y_44_ ^ 2 ] = 20165
c133: [ 1 x_35_ ^ 2 - 2 x_44_ * x_35_ + 1 x_44_ ^ 2 + 1 y_35_ ^ 2 - 2 y_44_ * y_35_ + 1 y_44_ ^ 2 ] = 10816
c134: [ 1 x_40_ ^ 2 - 2 x_44_ * x_40_ + 1 x_44_ ^ 2 + 1 y_40_ ^ 2 - 2 y_44_ * y_40_ + 1 y_44_ ^ 2 ] = 8354
c135: [ 1 x_42_ ^ 2 - 2 x_44_ * x_42_ + 1 x_44_ ^ 2 + 1 y_42_ ^ 2 - 2 y_44_ * y_42_ + 1 y_44_ ^ 2 ] = 28224
c136: [ 1 x_43_ ^ 2 - 2 x_44_ * x_43_ + 1 x_44_ ^ 2 + 1 y_43_ ^ 2 - 2 y_44_ * y_43_ + 1 y_44_ ^ 2 ] = 19013
c137: [ 1 x_9_ ^ 2 - 2 x_45_ * x_9_ + 1 x_45_ ^ 2 + 1 y_9_ ^ 2 - 2 y_45_ * y_9_ + 1 y_45_ ^ 2 ] = 31585
c138: [ 1 x_23_ ^ 2 - 2 x_45_ * x_23_ + 1 x_45_ ^ 2 + 1 y_23_ ^ 2 - 2 y_45_ * y_23_ + 1 y_45_ ^ 2 ] = 3709
c139: [ 1 x_33_ ^ 2 - 2 x_45_ * x_33_ + 1 x_45_ ^ 2 + 1 y_33_ ^ 2 - 2 y_45_ * y_33_ + 1 y_45_ ^ 2 ] = 13856
c140: [ 1 x_40_ ^ 2 - 2 x_45_ * x_40_ + 1 x_45_ ^ 2 + 1 y_40_ ^ 2 - 2 y_45_ * y_40_ + 1 y_45_ ^ 2 ] = 35080
c141: [ 1 x_44_ ^ 2 - 2 x_45_ * x_44_ + 1 x_45_ ^ 2 + 1 y_44_ ^ 2 - 2 y_45_ * y_44_ + 1 y_45_ ^ 2 ] = 13858
c142: [ 1 x_3_ ^ 2 - 2 x_46_ * x_3_ + 1 x_46_ ^ 2 + 1 y_3_ ^ 2 - 2 y_46_ * y_3_ + 1 y_46_ ^ 2 ] = 30258
c143: [ 1 x_24_ ^ 2 - 2 x_46_ * x_24_ + 1 x_46_ ^ 2 + 1 y_24_ ^ 2 - 2 y_46_ * y_24_ + 1 y_46_ ^ 2 ] = 1312
c144: [ 1 x_31_ ^ 2 - 2 x_46_ * x_31_ + 1 x_46_ ^ 2 + 1 y_31_ ^ 2 - 2 y_46_ * y_31_ + 1 y_46_ ^ 2 ] = 7396
c145: [ 1 x_45_ ^ 2 - 2 x_46_ * x_45_ + 1 x_46_ ^ 2 + 1 y_45_ ^ 2 - 2 y_46_ * y_45_ + 1 y_46_ ^ 2 ] = 25330
c146: [ 1 x_4_ ^ 2 - 2 x_47_ * x_4_ + 1 x_47_ ^ 2 + 1 y_4_ ^ 2 - 2 y_47_ * y_4_ + 1 y_47_ ^ 2 ] = 41717
c147: [ 1 x_8_ ^ 2 - 2 x_47_ * x_8_ + 1 x_47_ ^ 2 + 1 y_8_ ^ 2 - 2 y_47_ * y_8_ + 1 y_47_ ^ 2 ] = 2522
c148: [ 1 x_15_ ^ 2 - 2 x_47_ * x_15_ + 1 x_47_ ^ 2 + 1 y_15_ ^ 2 - 2 y_47_ * y_15_ + 1 y_47_ ^ 2 ] = 7754
c149: [ 1 x_18_ ^ 2 - 2 x_47_ * x_18_ + 1 x_47_ ^ 2 + 1 y_18_ ^ 2 - 2 y_47_ * y_18_ + 1 y_47_ ^ 2 ] = 40034
c150: [ 1 x_34_ ^ 2 - 2 x_47_ * x_34_ + 1 x_47_ ^ 2 + 1 y_34_ ^ 2 - 2 y_47_ * y_34_ + 1 y_47_ ^ 2 ] = 6565
c151: [ 1 x_46_ ^ 2 - 2 x_47_ * x_46_ + 1 x_47_ ^ 2 + 1 y_46_ ^ 2 - 2 y_47_ * y_46_ + 1 y_47_ ^ 2 ] = 30285
c152: [ 1 x_4_ ^ 2 - 2 x_48_ * x_4_ + 1 x_48_ ^ 2 + 1 y_4_ ^ 2 - 2 y_48_ * y_4_ + 1 y_48_ ^ 2 ] = 41744
c153: [ 1 x_5_ ^ 2 - 2 x_48_ * x_5_ + 1 x_48_ ^ 2 + 1 y_5_ ^ 2 - 2 y_48_ * y_5_ + 1 y_48_ ^ 2 ] = 569
c154: [ 1 x_14_ ^ 2 - 2 x_48_ * x_14_ + 1 x_48_ ^ 2 + 1 y_14_ ^ 2 - 2 y_48_ * y_14_ + 1 y_48_ ^ 2 ] = 13553
c155: [ 1 x_25_ ^ 2 - 2 x_48_ * x_25_ + 1 x_48_ ^ 2 + 1 y_25_ ^ 2 - 2 y_48_ * y_25_ + 1 y_48_ ^ 2 ] = 33786
c156: [ 1 x_27_ ^ 2 - 2 x_48_ * x_27_ + 1 x_48_ ^ 2 + 1 y_27_ ^ 2 - 2 y_48_ * y_27_ + 1 y_48_ ^ 2 ] = 34442
c157: [ 1 x_31_ ^ 2 - 2 x_48_ * x_31_ + 1 x_48_ ^ 2 + 1 y_31_ ^ 2 - 2 y_48_ * y_31_ + 1 y_48_ ^ 2 ] = 6890
c158: [ 1 x_34_ ^ 2 - 2 x_48_ * x_34_ + 1 x_48_ ^ 2 + 1 y_34_ ^ 2 - 2 y_48_ * y_34_ + 1 y_48_ ^ 2 ] = 12148
c159: [ 1 x_47_ ^ 2 - 2 x_48_ * x_47_ + 1 x_48_ ^ 2 + 1 y_47_ ^ 2 - 2 y_48_ * y_47_ + 1 y_48_ ^ 2 ] = 1277
c160: [ 1 x_15_ ^ 2 - 2 x_49_ * x_15_ + 1 x_49_ ^ 2 + 1 y_15_ ^ 2 - 2 y_49_ * y_15_ + 1 y_49_ ^ 2 ] = 3737
c161: [ 1 x_26_ ^ 2 - 2 x_49_ * x_26_ + 1 x_49_ ^ 2 + 1 y_26_ ^ 2 - 2 y_49_ * y_26_ + 1 y_49_ ^ 2 ] = 2725
c162: [ 1 x_29_ ^ 2 - 2 x_49_ * x_29_ + 1 x_49_ ^ 2 + 1 y_29_ ^ 2 - 2 y_49_ * y_29_ + 1 y_49_ ^ 2 ] = 25925
c163: [ 1 x_41_ ^ 2 - 2 x_49_ * x_41_ + 1 x_49_ ^ 2 + 1 y_41_ ^ 2 - 2 y_49_ * y_41_ + 1 y_49_ ^ 2 ] = 22745
c164: [ 1 x_48_ ^ 2 - 2 x_49_ * x_48_ + 1 x_49_ ^ 2 + 1 y_48_ ^ 2 - 2 y_49_ * y_48_ + 1 y_49_ ^ 2 ] = 20008
c165: [ 1 x_4_ ^ 2 - 2 x_50_ * x_4_ + 1 x_50_ ^ 2 + 1 y_4_ ^ 2 - 2 y_50_ * y_4_ + 1 y_50_ ^ 2 ] = 45652
c166: [ 1 x_20_ ^ 2 - 2 x_50_ * x_20_ + 1 x_50_ ^ 2 + 1 y_20_ ^ 2 - 2 y_50_ * y_20_ + 1 y_50_ ^ 2 ] = 1205
c167: [ 1 x_26_ ^ 2 - 2 x_50_ * x_26_ + 1 x_50_ ^ 2 + 1 y_26_ ^ 2 - 2 y_50_ * y_26_ + 1 y_50_ ^ 2 ] = 20389
c168: [ 1 x_47_ ^ 2 - 2 x_50_ * x_47_ + 1 x_50_ ^ 2 + 1 y_47_ ^ 2 - 2 y_50_ * y_47_ + 1 y_50_ ^ 2 ] = 11849
c169: [ 1 x_49_ ^ 2 - 2 x_50_ * x_49_ + 1 x_50_ ^ 2 + 1 y_49_ ^ 2 - 2 y_50_ * y_49_ + 1 y_50_ ^ 2 ] = 35972
c170: [ 1 x_1_ ^ 2 - 2 x_51_ * x_1_ + 1 x_51_ ^ 2 + 1 y_1_ ^ 2 - 2 y_51_ * y_1_ + 1 y_51_ ^ 2 ] = 2548
c171: [ 1 x_2_ ^ 2 - 2 x_51_ * x_2_ + 1 x_51_ ^ 2 + 1 y_2_ ^ 2 - 2 y_51_ * y_2_ + 1 y_51_ ^ 2 ] = 1585
c172: [ 1 x_18_ ^ 2 - 2 x_51_ * x_18_ + 1 x_51_ ^ 2 + 1 y_18_ ^ 2 - 2 y_51_ * y_18_ + 1 y_51_ ^ 2 ] = 14724
c173: [ 1 x_23_ ^ 2 - 2 x_51_ * x_23_ + 1 x_51_ ^ 2 + 1 y_23_ ^ 2 - 2 y_51_ * y_23_ + 1 y_51_ ^ 2 ] = 18020
c174: [ 1 x_44_ ^ 2 - 2 x_51_ * x_44_ + 1 x_51_ ^ 2 + 1 y_44_ ^ 2 - 2 y_51_ * y_44_ + 1 y_51_ ^ 2 ] = 30821
c175: [ 1 x_50_ ^ 2 - 2 x_51_ * x_50_ + 1 x_51_ ^ 2 + 1 y_50_ ^ 2 - 2 y_51_ * y_50_ + 1 y_51_ ^ 2 ] = 37629
c176: [ 1 x_19_ ^ 2 - 2 x_52_ * x_19_ + 1 x_52_ ^ 2 + 1 y_19_ ^ 2 - 2 y_52_ * y_19_ + 1 y_52_ ^ 2 ] = 14752
c177: [ 1 x_34_ ^ 2 - 2 x_52_ * x_34_ + 1 x_52_ ^ 2 + 1 y_34_ ^ 2 - 2 y_52_ * y_34_ + 1 y_52_ ^ 2 ] = 38369
c178: [ 1 x_51_ ^ 2 - 2 x_52_ * x_51_ + 1 x_52_ ^ 2 + 1 y_51_ ^ 2 - 2 y_52_ * y_51_ + 1 y_52_ ^ 2 ] = 8450
c179: [ 1 x_11_ ^ 2 - 2 x_53_ * x_11_ + 1 x_53_ ^ 2 + 1 y_11_ ^ 2 - 2 y_53_ * y_11_ + 1 y_53_ ^ 2 ] = 6250
c180: [ 1 x_28_ ^ 2 - 2 x_53_ * x_28_ + 1 x_53_ ^ 2 + 1 y_28_ ^ 2 - 2 y_53_ * y_28_ + 1 y_53_ ^ 2 ] = 23125
c181: [ 1 x_42_ ^ 2 - 2 x_53_ * x_42_ + 1 x_53_ ^ 2 + 1 y_42_ ^ 2 - 2 y_53_ * y_42_ + 1 y_53_ ^ 2 ] = 2385
c182: [ 1 x_52_ ^ 2 - 2 x_53_ * x_52_ + 1 x_53_ ^ 2 + 1 y_52_ ^ 2 - 2 y_53_ * y_52_ + 1 y_53_ ^ 2 ] = 12064
c183: [ 1 x_27_ ^ 2 - 2 x_54_ * x_27_ + 1 x_54_ ^ 2 + 1 y_27_ ^ 2 - 2 y_54_ * y_27_ + 1 y_54_ ^ 2 ] = 425
c184: [ 1 x_33_ ^ 2 - 2 x_54_ * x_33_ + 1 x_54_ ^ 2 + 1 y_33_ ^ 2 - 2 y_54_ * y_33_ + 1 y_54_ ^ 2 ] = 6165
c185: [ 1 x_53_ ^ 2 - 2 x_54_ * x_53_ + 1 x_54_ ^ 2 + 1 y_53_ ^ 2 - 2 y_54_ * y_53_ + 1 y_54_ ^ 2 ] = 2980
c186: [ 1 x_12_ ^ 2 - 2 x_55_ * x_12_ + 1 x_55_ ^ 2 + 1 y_12_ ^ 2 - 2 y_55_ * y_12_ + 1 y_55_ ^ 2 ] = 3877
c187: [ 1 x_25_ ^ 2 - 2 x_55_ * x_25_ + 1 x_55_ ^ 2 + 1 y_25_ ^ 2 - 2 y_55_ * y_25_ + 1 y_55_ ^ 2 ] = 23873
c188: [ 1 x_28_ ^ 2 - 2 x_55_ * x_28_ + 1 x_55_ ^ 2 + 1 y_28_ ^ 2 - 2 y_55_ * y_28_ + 1 y_55_ ^ 2 ] = 1585
c189: [ 1 x_46_ ^ 2 - 2 x_55_ * x_46_ + 1 x_55_ ^ 2 + 1 y_46_ ^ 2 - 2 y_55_ * y_46_ + 1 y_55_ ^ 2 ] = 17069
c190: [ 1 x_47_ ^ 2 - 2 x_55_ * x_47_ + 1 x_55_ ^ 2 + 1 y_47_ ^ 2 - 2 y_55_ * y_47_ + 1 y_55_ ^ 2 ] = 4082
c191: [ 1 x_54_ ^ 2 - 2 x_55_ * x_54_ + 1 x_55_ ^ 2 + 1 y_54_ ^ 2 - 2 y_55_ * y_54_ + 1 y_55_ ^ 2 ] = 17354
c192: [ 1 x_28_ ^ 2 - 2 x_56_ * x_28_ + 1 x_56_ ^ 2 + 1 y_28_ ^ 2 - 2 y_56_ * y_28_ + 1 y_56_ ^ 2 ] = 23186
c193: [ 1 x_55_ ^ 2 - 2 x_56_ * x_55_ + 1 x_56_ ^ 2 + 1 y_55_ ^ 2 - 2 y_56_ * y_55_ + 1 y_56_ ^ 2 ] = 19433
c194: [ 1 x_11_ ^ 2 - 2 x_57_ * x_11_ + 1 x_57_ ^ 2 + 1 y_11_ ^ 2 - 2 y_57_ * y_11_ + 1 y_57_ ^ 2 ] = 4580
c195: [ 1 x_13_ ^ 2 - 2 x_57_ * x_13_ + 1 x_57_ ^ 2 + 1 y_13_ ^ 2 - 2 y_57_ * y_13_ + 1 y_57_ ^ 2 ] = 13730
c196: [ 1 x_18_ ^ 2 - 2 x_57_ * x_18_ + 1 x_57_ ^ 2 + 1 y_18_ ^ 2 - 2 y_57_ * y_18_ + 1 y_57_ ^ 2 ] = 25040
c197: [ 1 x_20_ ^ 2 - 2 x_57_ * x_20_ + 1 x_57_ ^ 2 + 1 y_20_ ^ 2 - 2 y_57_ * y_20_ + 1 y_57_ ^ 2 ] = 21268
c198: [ 1 x_35_ ^ 2 - 2 x_57_ * x_35_ + 1 x_57_ ^ 2 + 1 y_35_ ^ 2 - 2 y_57_ * y_35_ + 1 y_57_ ^ 2 ] = 2197
c199: [ 1 x_37_ ^ 2 - 2 x_57_ * x_37_ + 1 x_57_ ^ 2 + 1 y_37_ ^ 2 - 2 y_57_ * y_37_ + 1 y_57_ ^ 2 ] = 16298
c200: [ 1 x_38_ ^ 2 - 2 x_57_ * x_38_ + 1 x_57_ ^ 2 + 1 y_38_ ^ 2 - 2 y_57_ * y_38_ + 1 y_57_ ^ 2 ] = 320
c201: [ 1 x_39_ ^ 2 - 2 x_57_ * x_39_ + 1 x_57_ ^ 2 + 1 y_39_ ^ 2 - 2 y_57_ * y_39_ + 1 y_57_ ^ 2 ] = 23346
c202: [ 1 x_56_ ^ 2 - 2 x_57_ * x_56_ + 1 x_57_ ^ 2 + 1 y_56_ ^ 2 - 2 y_57_ * y_56_ + 1 y_57_ ^ 2 ] = 257
c203: [ 1 x_9_ ^ 2 - 2 x_58_ * x_9_ + 1 x_58_ ^ 2 + 1 y_9_ ^ 2 - 2 y_58_ * y_9_ + 1 y_58_ ^ 2 ] = 10673
c204: [ 1 x_11_ ^ 2 - 2 x_58_ * x_11_ + 1 x_58_ ^ 2 + 1 y_11_ ^ 2 - 2 y_58_ * y_11_ + 1 y_58_ ^ 2 ] = 2281
c205: [ 1 x_21_ ^ 2 - 2 x_58_ * x_21_ + 1 x_58_ ^ 2 + 1 y_21_ ^ 2 - 2 y_58_ * y_21_ + 1 y_58_ ^ 2 ] = 5840
c206: [ 1 x_25_ ^ 2 - 2 x_58_ * x_25_ + 1 x_58_ ^ 2 + 1 y_25_ ^ 2 - 2 y_58_ * y_25_ + 1 y_58_ ^ 2 ] = 7450
c207: [ 1 x_28_ ^ 2 - 2 x_58_ * x_28_ + 1 x_58_ ^ 2 + 1 y_28_ ^ 2 - 2 y_58_ * y_28_ + 1 y_58_ ^ 2 ] = 13480
c208: [ 1 x_54_ ^ 2 - 2 x_58_ * x_54_ + 1 x_58_ ^ 2 + 1 y_54_ ^ 2 - 2 y_58_ * y_54_ + 1 y_58_ ^ 2 ] = 11849
c209: [ 1 x_57_ ^ 2 - 2 x_58_ * x_57_ + 1 x_58_ ^ 2 + 1 y_57_ ^ 2 - 2 y_58_ * y_57_ + 1 y_58_ ^ 2 ] = 1649
c210: [ 1 x_7_ ^ 2 - 2 x_59_ * x_7_ + 1 x_59_ ^ 2 + 1 y_7_ ^ 2 - 2 y_59_ * y_7_ + 1 y_59_ ^ 2 ] = 1481
c211: [ 1 x_21_ ^ 2 - 2 x_59_ * x_21_ + 1 x_59_ ^ 2 + 1 y_21_ ^ 2 - 2 y_59_ * y_21_ + 1 y_59_ ^ 2 ] = 4361
c212: [ 1 x_23_ ^ 2 - 2 x_59_ * x_23_ + 1 x_59_ ^ 2 + 1 y_23_ ^ 2 - 2 y_59_ * y_23_ + 1 y_59_ ^ 2 ] = 8548
c213: [ 1 x_31_ ^ 2 - 2 x_59_ * x_31_ + 1 x_59_ ^ 2 + 1 y_31_ ^ 2 - 2 y_59_ * y_31_ + 1 y_59_ ^ 2 ] = 3177
c214: [ 1 x_43_ ^ 2 - 2 x_59_ * x_43_ + 1 x_59_ ^ 2 + 1 y_43_ ^ 2 - 2 y_59_ * y_43_ + 1 y_59_ ^ 2 ] = 12410
c215: [ 1 x_54_ ^ 2 - 2 x_59_ * x_54_ + 1 x_59_ ^ 2 + 1 y_54_ ^ 2 - 2 y_59_ * y_54_ + 1 y_59_ ^ 2 ] = 2098
c216: [ 1 x_56_ ^ 2 - 2 x_59_ * x_56_ + 1 x_59_ ^ 2 + 1 y_56_ ^ 2 - 2 y_59_ * y_56_ + 1 y_59_ ^ 2 ] = 2549
c217: [ 1 x_58_ ^ 2 - 2 x_59_ * x_58_ + 1 x_59_ ^ 2 + 1 y_58_ ^ 2 - 2 y_59_ * y_58_ + 1 y_59_ ^ 2 ] = 3985
c218: [ 1 x_18_ ^ 2 - 2 x_60_ * x_18_ + 1 x_60_ ^ 2 + 1 y_18_ ^ 2 - 2 y_60_ * y_18_ + 1 y_60_ ^ 2 ] = 1924
c219: [ 1 x_19_ ^ 2 - 2 x_60_ * x_19_ + 1 x_60_ ^ 2 + 1 y_19_ ^ 2 - 2 y_60_ * y_19_ + 1 y_60_ ^ 2 ] = 13346
c220: [ 1 x_47_ ^ 2 - 2 x_60_ * x_47_ + 1 x_60_ ^ 2 + 1 y_47_ ^ 2 - 2 y_60_ * y_47_ + 1 y_60_ ^ 2 ] = 25250
c221: [ 1 x_59_ ^ 2 - 2 x_60_ * x_59_ + 1 x_60_ ^ 2 + 1 y_59_ ^ 2 - 2 y_60_ * y_59_ + 1 y_60_ ^ 2 ] = 7432
c222: [ 1 x_7_ ^ 2 - 2 x_61_ * x_7_ + 1 x_61_ ^ 2 + 1 y_7_ ^ 2 - 2 y_61_ * y_7_ + 1 y_61_ ^ 2 ] = 6976
c223: [ 1 x_38_ ^ 2 - 2 x_61_ * x_38_ + 1 x_61_ ^ 2 + 1 y_38_ ^ 2 - 2 y_61_ * y_38_ + 1 y_61_ ^ 2 ] = 10025
c224: [ 1 x_47_ ^ 2 - 2 x_61_ * x_47_ + 1 x_61_ ^ 2 + 1 y_47_ ^ 2 - 2 y_61_ * y_47_ + 1 y_61_ ^ 2 ] = 7069
c225: [ 1 x_53_ ^ 2 - 2 x_61_ * x_53_ + 1 x_61_ ^ 2 + 1 y_53_ ^ 2 - 2 y_61_ * y_53_ + 1 y_61_ ^ 2 ] = 12025
c226: [ 1 x_60_ ^ 2 - 2 x_61_ * x_60_ + 1 x_61_ ^ 2 + 1 y_60_ ^ 2 - 2 y_61_ * y_60_ + 1 y_61_ ^ 2 ] = 5629
c227: [ 1 x_2_ ^ 2 - 2 x_62_ * x_2_ + 1 x_62_ ^ 2 + 1 y_2_ ^ 2 - 2 y_62_ * y_2_ + 1 y_62_ ^ 2 ] = 1108
c228: [ 1 x_4_ ^ 2 - 2 x_62_ * x_4_ + 1 x_62_ ^ 2 + 1 y_4_ ^ 2 - 2 y_62_ * y_4_ + 1 y_62_ ^ 2 ] = 2642
c229: [ 1 x_20_ ^ 2 - 2 x_62_ * x_20_ + 1 x_62_ ^ 2 + 1 y_20_ ^ 2 - 2 y_62_ * y_20_ + 1 y_62_ ^ 2 ] = 16385
c230: [ 1 x_31_ ^ 2 - 2 x_62_ * x_31_ + 1 x_62_ ^ 2 + 1 y_31_ ^ 2 - 2 y_62_ * y_31_ + 1 y_62_ ^ 2 ] = 5224
c231: [ 1 x_60_ ^ 2 - 2 x_62_ * x_60_ + 1 x_62_ ^ 2 + 1 y_60_ ^ 2 - 2 y_62_ * y_60_ + 1 y_62_ ^ 2 ] = 6569
c232: [ 1 x_61_ ^ 2 - 2 x_62_ * x_61_ + 1 x_62_ ^ 2 + 1 y_61_ ^ 2 - 2 y_62_ * y_61_ + 1 y_62_ ^ 2 ] = 9698
c233: [ 1 x_11_ ^ 2 - 2 x_63_ * x_11_ + 1 x_63_ ^ 2 + 1 y_11_ ^ 2 - 2 y_63_ * y_11_ + 1 y_63_ ^ 2 ] = 29221
c234: [ 1 x_16_ ^ 2 - 2 x_63_ * x_16_ + 1 x_63_ ^ 2 + 1 y_16_ ^ 2 - 2 y_63_ * y_16_ + 1 y_63_ ^ 2 ] = 33905
c235: [ 1 x_23_ ^ 2 - 2 x_63_ * x_23_ + 1 x_63_ ^ 2 + 1 y_23_ ^ 2 - 2 y_63_ * y_23_ + 1 y_63_ ^ 2 ] = 14869
c236: [ 1 x_50_ ^ 2 - 2 x_63_ * x_50_ + 1 x_63_ ^ 2 + 1 y_50_ ^ 2 - 2 y_63_ * y_50_ + 1 y_63_ ^ 2 ] = 20618
c237: [ 1 x_57_ ^ 2 - 2 x_63_ * x_57_ + 1 x_63_ ^ 2 + 1 y_57_ ^ 2 - 2 y_63_ * y_57_ + 1 y_63_ ^ 2 ] = 31249
c238: [ 1 x_60_ ^ 2 - 2 x_63_ * x_60_ + 1 x_63_ ^ 2 + 1 y_60_ ^ 2 - 2 y_63_ * y_60_ + 1 y_63_ ^ 2 ] = 3985
c239: [ 1 x_62_ ^ 2 - 2 x_63_ * x_62_ + 1 x_63_ ^ 2 + 1 y_62_ ^ 2 - 2 y_63_ * y_62_ + 1 y_63_ ^ 2 ] = 17168
c240: [ 1 x_4_ ^ 2 - 2 x_64_ * x_4_ + 1 x_64_ ^ 2 + 1 y_4_ ^ 2 - 2 y_64_ * y_4_ + 1 y_64_ ^ 2 ] = 625
c241: [ 1 x_42_ ^ 2 - 2 x_64_ * x_42_ + 1 x_64_ ^ 2 + 1 y_42_ ^ 2 - 2 y_64_ * y_42_ + 1 y_64_ ^ 2 ] = 1021
c242: [ 1 x_49_ ^ 2 - 2 x_64_ * x_49_ + 1 x_64_ ^ 2 + 1 y_49_ ^ 2 - 2 y_64_ * y_49_ + 1 y_64_ ^ 2 ] = 9421
c243: [ 1 x_53_ ^ 2 - 2 x_64_ * x_53_ + 1 x_64_ ^ 2 + 1 y_53_ ^ 2 - 2 y_64_ * y_53_ + 1 y_64_ ^ 2 ] = 634
c244: [ 1 x_63_ ^ 2 - 2 x_64_ * x_63_ + 1 x_64_ ^ 2 + 1 y_63_ ^ 2 - 2 y_64_ * y_63_ + 1 y_64_ ^ 2 ] = 23225
c245: [ 1 x_17_ ^ 2 - 2 x_65_ * x_17_ + 1 x_65_ ^ 2 + 1 y_17_ ^ 2 - 2 y_65_ * y_17_ + 1 y_65_ ^ 2 ] = 13576
c246: [ 1 x_22_ ^ 2 - 2 x_65_ * x_22_ + 1 x_65_ ^ 2 + 1 y_22_ ^ 2 - 2 y_65_ * y_22_ + 1 y_65_ ^ 2 ] = 21233
c247: [ 1 x_33_ ^ 2 - 2 x_65_ * x_33_ + 1 x_65_ ^ 2 + 1 y_33_ ^ 2 - 2 y_65_ * y_33_ + 1 y_65_ ^ 2 ] = 5209
c248: [ 1 x_36_ ^ 2 - 2 x_65_ * x_36_ + 1 x_65_ ^ 2 + 1 y_36_ ^ 2 - 2 y_65_ * y_36_ + 1 y_65_ ^ 2 ] = 4645
c249: [ 1 x_39_ ^ 2 - 2 x_65_ * x_39_ + 1 x_65_ ^ 2 + 1 y_39_ ^ 2 - 2 y_65_ * y_39_ + 1 y_65_ ^ 2 ] = 20432
c250: [ 1 x_40_ ^ 2 - 2 x_65_ * x_40_ + 1 x_65_ ^ 2 + 1 y_40_ ^ 2 - 2 y_65_ * y_40_ + 1 y_65_ ^ 2 ] = 16757
c251: [ 1 x_53_ ^ 2 - 2 x_65_ * x_53_ + 1 x_65_ ^ 2 + 1 y_53_ ^ 2 - 2 y_65_ * y_53_ + 1 y_65_ ^ 2 ] = 3060
c252: [ 1 x_64_ ^ 2 - 2 x_65_ * x_64_ + 1 x_65_ ^ 2 + 1 y_64_ ^ 2 - 2 y_65_ * y_64_ + 1 y_65_ ^ 2 ] = 2770
c253: [ 1 x_11_ ^ 2 - 2 x_66_ * x_11_ + 1 x_66_ ^ 2 + 1 y_11_ ^ 2 - 2 y_66_ * y_11_ + 1 y_66_ ^ 2 ] = 12221
c254: [ 1 x_18_ ^ 2 - 2 x_66_ * x_18_ + 1 x_66_ ^ 2 + 1 y_18_ ^ 2 - 2 y_66_ * y_18_ + 1 y_66_ ^ 2 ] = 10709
c255: [ 1 x_26_ ^ 2 - 2 x_66_ * x_26_ + 1 x_66_ ^ 2 + 1 y_26_ ^ 2 - 2 y_66_ * y_26_ + 1 y_66_ ^ 2 ] = 17425
c256: [ 1 x_28_ ^ 2 - 2 x_66_ * x_28_ + 1 x_66_ ^ 2 + 1 y_28_ ^ 2 - 2 y_66_ * y_28_ + 1 y_66_ ^ 2 ] = 30484
c257: [ 1 x_30_ ^ 2 - 2 x_66_ * x_30_ + 1 x_66_ ^ 2 + 1 y_30_ ^ 2 - 2 y_66_ * y_30_ + 1 y_66_ ^ 2 ] = 18785
c258: [ 1 x_31_ ^ 2 - 2 x_66_ * x_31_ + 1 x_66_ ^ 2 + 1 y_31_ ^ 2 - 2 y_66_ * y_31_ + 1 y_66_ ^ 2 ] = 9490
c259: [ 1 x_41_ ^ 2 - 2 x_66_ * x_41_ + 1 x_66_ ^ 2 + 1 y_41_ ^ 2 - 2 y_66_ * y_41_ + 1 y_66_ ^ 2 ] = 9389
c260: [ 1 x_51_ ^ 2 - 2 x_66_ * x_51_ + 1 x_66_ ^ 2 + 1 y_51_ ^ 2 - 2 y_66_ * y_51_ + 1 y_66_ ^ 2 ] = 353
c261: [ 1 x_52_ ^ 2 - 2 x_66_ * x_52_ + 1 x_66_ ^ 2 + 1 y_52_ ^ 2 - 2 y_66_ * y_52_ + 1 y_66_ ^ 2 ] = 5409
c262: [ 1 x_62_ ^ 2 - 2 x_66_ * x_62_ + 1 x_66_ ^ 2 + 1 y_62_ ^ 2 - 2 y_66_ * y_62_ + 1 y_66_ ^ 2 ] = 810
c263: [ 1 x_65_ ^ 2 - 2 x_66_ * x_65_ + 1 x_66_ ^ 2 + 1 y_65_ ^ 2 - 2 y_66_ * y_65_ + 1 y_66_ ^ 2 ] = 853
c264: [ 1 x_14_ ^ 2 - 2 x_67_ * x_14_ + 1 x_67_ ^ 2 + 1 y_14_ ^ 2 - 2 y_67_ * y_14_ + 1 y_67_ ^ 2 ] = 9125
c265: [ 1 x_24_ ^ 2 - 2 x_67_ * x_24_ + 1 x_67_ ^ 2 + 1 y_24_ ^ 2 - 2 y_67_ * y_24_ + 1 y_67_ ^ 2 ] = 26640
c266: [ 1 x_25_ ^ 2 - 2 x_67_ * x_25_ + 1 x_67_ ^ 2 + 1 y_25_ ^ 2 - 2 y_67_ * y_25_ + 1 y_67_ ^ 2 ] = 27560
c267: [ 1 x_30_ ^ 2 - 2 x_67_ * x_30_ + 1 x_67_ ^ 2 + 1 y_30_ ^ 2 - 2 y_67_ * y_30_ + 1 y_67_ ^ 2 ] = 2009
c268: [ 1 x_31_ ^ 2 - 2 x_67_ * x_31_ + 1 x_67_ ^ 2 + 1 y_31_ ^ 2 - 2 y_67_ * y_31_ + 1 y_67_ ^ 2 ] = 4500
c269: [ 1 x_34_ ^ 2 - 2 x_67_ * x_34_ + 1 x_67_ ^ 2 + 1 y_34_ ^ 2 - 2 y_67_ * y_34_ + 1 y_67_ ^ 2 ] = 8042
c270: [ 1 x_45_ ^ 2 - 2 x_67_ * x_45_ + 1 x_67_ ^ 2 + 1 y_45_ ^ 2 - 2 y_67_ * y_45_ + 1 y_67_ ^ 2 ] = 8762
c271: [ 1 x_52_ ^ 2 - 2 x_67_ * x_52_ + 1 x_67_ ^ 2 + 1 y_52_ ^ 2 - 2 y_67_ * y_52_ + 1 y_67_ ^ 2 ] = 24505
c272: [ 1 x_57_ ^ 2 - 2 x_67_ * x_57_ + 1 x_67_ ^ 2 + 1 y_57_ ^ 2 - 2 y_67_ * y_57_ + 1 y_67_ ^ 2 ] = 16781
c273: [ 1 x_66_ ^ 2 - 2 x_67_ * x_66_ + 1 x_67_ ^ 2 + 1 y_66_ ^ 2 - 2 y_67_ * y_66_ + 1 y_67_ ^ 2 ] = 27010
c274: [ 1 x_4_ ^ 2 - 2 x_68_ * x_4_ + 1 x_68_ ^ 2 + 1 y_4_ ^ 2 - 2 y_68_ * y_4_ + 1 y_68_ ^ 2 ] = 36881
c275: [ 1 x_11_ ^ 2 - 2 x_68_ * x_11_ + 1 x_68_ ^ 2 + 1 y_11_ ^ 2 - 2 y_68_ * y_11_ + 1 y_68_ ^ 2 ] = 4276
c276: [ 1 x_25_ ^ 2 - 2 x_68_ * x_25_ + 1 x_68_ ^ 2 + 1 y_25_ ^ 2 - 2 y_68_ * y_25_ + 1 y_68_ ^ 2 ] = 29057
c277: [ 1 x_31_ ^ 2 - 2 x_68_ * x_31_ + 1 x_68_ ^ 2 + 1 y_31_ ^ 2 - 2 y_68_ * y_31_ + 1 y_68_ ^ 2 ] = 5365
c278: [ 1 x_36_ ^ 2 - 2 x_68_ * x_36_ + 1 x_68_ ^ 2 + 1 y_36_ ^ 2 - 2 y_68_ * y_36_ + 1 y_68_ ^ 2 ] = 6961
c279: [ 1 x_42_ ^ 2 - 2 x_68_ * x_42_ + 1 x_68_ ^ 2 + 1 y_42_ ^ 2 - 2 y_68_ * y_42_ + 1 y_68_ ^ 2 ] = 29565
c280: [ 1 x_47_ ^ 2 - 2 x_68_ * x_47_ + 1 x_68_ ^ 2 + 1 y_47_ ^ 2 - 2 y_68_ * y_47_ + 1 y_68_ ^ 2 ] = 306
c281: [ 1 x_67_ ^ 2 - 2 x_68_ * x_67_ + 1 x_68_ ^ 2 + 1 y_67_ ^ 2 - 2 y_68_ * y_67_ + 1 y_68_ ^ 2 ] = 85
c282: [ 1 x_2_ ^ 2 - 2 x_69_ * x_2_ + 1 x_69_ ^ 2 + 1 y_2_ ^ 2 - 2 y_69_ * y_2_ + 1 y_69_ ^ 2 ] = 7738
c283: [ 1 x_11_ ^ 2 - 2 x_69_ * x_11_ + 1 x_69_ ^ 2 + 1 y_11_ ^ 2 - 2 y_69_ * y_11_ + 1 y_69_ ^ 2 ] = 2045
c284: [ 1 x_19_ ^ 2 - 2 x_69_ * x_19_ + 1 x_69_ ^ 2 + 1 y_19_ ^ 2 - 2 y_69_ * y_19_ + 1 y_69_ ^ 2 ] = 7801
c285: [ 1 x_29_ ^ 2 - 2 x_69_ * x_29_ + 1 x_69_ ^ 2 + 1 y_29_ ^ 2 - 2 y_69_ * y_29_ + 1 y_69_ ^ 2 ] = 4145
c286: [ 1 x_31_ ^ 2 - 2 x_69_ * x_31_ + 1 x_69_ ^ 2 + 1 y_31_ ^ 2 - 2 y_69_ * y_31_ + 1 y_69_ ^ 2 ] = 530
c287: [ 1 x_37_ ^ 2 - 2 x_69_ * x_37_ + 1 x_69_ ^ 2 + 1 y_37_ ^ 2 - 2 y_69_ * y_37_ + 1 y_69_ ^ 2 ] = 2957
c288: [ 1 x_38_ ^ 2 - 2 x_69_ * x_38_ + 1 x_69_ ^ 2 + 1 y_38_ ^ 2 - 2 y_69_ * y_38_ + 1 y_69_ ^ 2 ] = 6725
c289: [ 1 x_40_ ^ 2 - 2 x_69_ * x_40_ + 1 x_69_ ^ 2 + 1 y_40_ ^ 2 - 2 y_69_ * y_40_ + 1 y_69_ ^ 2 ] = 11920
c290: [ 1 x_47_ ^ 2 - 2 x_69_ * x_47_ + 1 x_69_ ^ 2 + 1 y_47_ ^ 2 - 2 y_69_ * y_47_ + 1 y_69_ ^ 2 ] = 8597
c291: [ 1 x_56_ ^ 2 - 2 x_69_ * x_56_ + 1 x_69_ ^ 2 + 1 y_56_ ^ 2 - 2 y_69_ * y_56_ + 1 y_69_ ^ 2 ] = 11258
c292: [ 1 x_68_ ^ 2 - 2 x_69_ * x_68_ + 1 x_69_ ^ 2 + 1 y_68_ ^ 2 - 2 y_69_ * y_68_ + 1 y_69_ ^ 2 ] = 5765
c293: [ 1 x_8_ ^ 2 - 2 x_70_ * x_8_ + 1 x_70_ ^ 2 + 1 y_8_ ^ 2 - 2 y_70_ * y_8_ + 1 y_70_ ^ 2 ] = 28881
c294: [ 1 x_20_ ^ 2 - 2 x_70_ * x_20_ + 1 x_70_ ^ 2 + 1 y_20_ ^ 2 - 2 y_70_ * y_20_ + 1 y_70_ ^ 2 ] = 14557
c295: [ 1 x_33_ ^ 2 - 2 x_70_ * x_33_ + 1 x_70_ ^ 2 + 1 y_33_ ^ 2 - 2 y_70_ * y_33_ + 1 y_70_ ^ 2 ] = 5338
c296: [ 1 x_39_ ^ 2 - 2 x_70_ * x_39_ + 1 x_70_ ^ 2 + 1 y_39_ ^ 2 - 2 y_70_ * y_39_ + 1 y_70_ ^ 2 ] = 22761
c297: [ 1 x_69_ ^ 2 - 2 x_70_ * x_69_ + 1 x_70_ ^ 2 + 1 y_69_ ^ 2 - 2 y_70_ * y_69_ + 1 y_70_ ^ 2 ] = 6786
c298: [ 1 x_12_ ^ 2 - 2 x_71_ * x_12_ + 1 x_71_ ^ 2 + 1 y_12_ ^ 2 - 2 y_71_ * y_12_ + 1 y_71_ ^ 2 ] = 15028
c299: [ 1 x_25_ ^ 2 - 2 x_71_ * x_25_ + 1 x_71_ ^ 2 + 1 y_25_ ^ 2 - 2 y_71_ * y_25_ + 1 y_71_ ^ 2 ] = 45652
c300: [ 1 x_31_ ^ 2 - 2 x_71_ * x_31_ + 1 x_71_ ^ 2 + 1 y_31_ ^ 2 - 2 y_71_ * y_31_ + 1 y_71_ ^ 2 ] = 14600
c301: [ 1 x_41_ ^ 2 - 2 x_71_ * x_41_ + 1 x_71_ ^ 2 + 1 y_41_ ^ 2 - 2 y_71_ * y_41_ + 1 y_71_ ^ 2 ] = 9769
c302: [ 1 x_53_ ^ 2 - 2 x_71_ * x_53_ + 1 x_71_ ^ 2 + 1 y_53_ ^ 2 - 2 y_71_ * y_53_ + 1 y_71_ ^ 2 ] = 37201
c303: [ 1 x_66_ ^ 2 - 2 x_71_ * x_66_ + 1 x_71_ ^ 2 + 1 y_66_ ^ 2 - 2 y_71_ * y_66_ + 1 y_71_ ^ 2 ] = 37250
c304: [ 1 x_70_ ^ 2 - 2 x_71_ * x_70_ + 1 x_71_ ^ 2 + 1 y_70_ ^ 2 - 2 y_71_ * y_70_ + 1 y_71_ ^ 2 ] = 29204
c305: [ 1 x_7_ ^ 2 - 2 x_72_ * x_7_ + 1 x_72_ ^ 2 + 1 y_7_ ^ 2 - 2 y_72_ * y_7_ + 1 y_72_ ^ 2 ] = 15210
c306: [ 1 x_28_ ^ 2 - 2 x_72_ * x_28_ + 1 x_72_ ^ 2 + 1 y_28_ ^ 2 - 2 y_72_ * y_28_ + 1 y_72_ ^ 2 ] = 10610
c307: [ 1 x_35_ ^ 2 - 2 x_72_ * x_35_ + 1 x_72_ ^ 2 + 1 y_35_ ^ 2 - 2 y_72_ * y_35_ + 1 y_72_ ^ 2 ] = 15760
c308: [ 1 x_41_ ^ 2 - 2 x_72_ * x_41_ + 1 x_72_ ^ 2 + 1 y_41_ ^ 2 - 2 y_72_ * y_41_ + 1 y_72_ ^ 2 ] = 3785
c309: [ 1 x_44_ ^ 2 - 2 x_72_ * x_44_ + 1 x_72_ ^ 2 + 1 y_44_ ^ 2 - 2 y_72_ * y_44_ + 1 y_72_ ^ 2 ] = 16592
c310: [ 1 x_53_ ^ 2 - 2 x_72_ * x_53_ + 1 x_72_ ^ 2 + 1 y_53_ ^ 2 - 2 y_72_ * y_53_ + 1 y_72_ ^ 2 ] = 27977
c311: [ 1 x_56_ ^ 2 - 2 x_72_ * x_56_ + 1 x_72_ ^ 2 + 1 y_56_ ^ 2 - 2 y_72_ * y_56_ + 1 y_72_ ^ 2 ] = 35048
c312: [ 1 x_62_ ^ 2 - 2 x_72_ * x_62_ + 1 x_72_ ^ 2 + 1 y_62_ ^ 2 - 2 y_72_ * y_62_ + 1 y_72_ ^ 2 ] = 21940
c313: [ 1 x_71_ ^ 2 - 2 x_72_ * x_71_ + 1 x_72_ ^ 2 + 1 y_71_ ^ 2 - 2 y_72_ * y_71_ + 1 y_72_ ^ 2 ] = 1940
c314: [ 1 x_1_ ^ 2 - 2 x_73_ * x_1_ + 1 x_73_ ^ 2 + 1 y_1_ ^ 2 - 2 y_73_ * y_1_ + 1 y_73_ ^ 2 ] = 21089
c315: [ 1 x_8_ ^ 2 - 2 x_73_ * x_8_ + 1 x_73_ ^ 2 + 1 y_8_ ^ 2 - 2 y_73_ * y_8_ + 1 y_73_ ^ 2 ] = 3869
c316: [ 1 x_14_ ^ 2 - 2 x_73_ * x_14_ + 1 x_73_ ^ 2 + 1 y_14_ ^ 2 - 2 y_73_ * y_14_ + 1 y_73_ ^ 2 ] = 9553
c317: [ 1 x_24_ ^ 2 - 2 x_73_ * x_24_ + 1 x_73_ ^ 2 + 1 y_24_ ^ 2 - 2 y_73_ * y_24_ + 1 y_73_ ^ 2 ] = 31700
c318: [ 1 x_38_ ^ 2 - 2 x_73_ * x_38_ + 1 x_73_ ^ 2 + 1 y_38_ ^ 2 - 2 y_73_ * y_38_ + 1 y_73_ ^ 2 ] = 20393
c319: [ 1 x_40_ ^ 2 - 2 x_73_ * x_40_ + 1 x_73_ ^ 2 + 1 y_40_ ^ 2 - 2 y_73_ * y_40_ + 1 y_73_ ^ 2 ] = 13514
c320: [ 1 x_54_ ^ 2 - 2 x_73_ * x_54_ + 1 x_73_ ^ 2 + 1 y_54_ ^ 2 - 2 y_73_ * y_54_ + 1 y_73_ ^ 2 ] = 28949
c321: [ 1 x_72_ ^ 2 - 2 x_73_ * x_72_ + 1 x_73_ ^ 2 + 1 y_72_ ^ 2 - 2 y_73_ * y_72_ + 1 y_73_ ^ 2 ] = 13460
c322: [ 1 x_7_ ^ 2 - 2 x_74_ * x_7_ + 1 x_74_ ^ 2 + 1 y_7_ ^ 2 - 2 y_74_ * y_7_ + 1 y_74_ ^ 2 ] = 16553
c323: [ 1 x_17_ ^ 2 - 2 x_74_ * x_17_ + 1 x_74_ ^ 2 + 1 y_17_ ^ 2 - 2 y_74_ * y_17_ + 1 y_74_ ^ 2 ] = 14746
c324: [ 1 x_20_ ^ 2 - 2 x_74_ * x_20_ + 1 x_74_ ^ 2 + 1 y_20_ ^ 2 - 2 y_74_ * y_20_ + 1 y_74_ ^ 2 ] = 4264
c325: [ 1 x_58_ ^ 2 - 2 x_74_ * x_58_ + 1 x_74_ ^ 2 + 1 y_58_ ^ 2 - 2 y_74_ * y_58_ + 1 y_74_ ^ 2 ] = 12017
c326: [ 1 x_73_ ^ 2 - 2 x_74_ * x_73_ + 1 x_74_ ^ 2 + 1 y_73_ ^ 2 - 2 y_74_ * y_73_ + 1 y_74_ ^ 2 ] = 637
c327: [ 1 x_19_ ^ 2 - 2 x_75_ * x_19_ + 1 x_75_ ^ 2 + 1 y_19_ ^ 2 - 2 y_75_ * y_19_ + 1 y_75_ ^ 2 ] = 26914
c328: [ 1 x_24_ ^ 2 - 2 x_75_ * x_24_ + 1 x_75_ ^ 2 + 1 y_24_ ^ 2 - 2 y_75_ * y_24_ + 1 y_75_ ^ 2 ] = 35525
c329: [ 1 x_27_ ^ 2 - 2 x_75_ * x_27_ + 1 x_75_ ^ 2 + 1 y_27_ ^ 2 - 2 y_75_ * y_27_ + 1 y_75_ ^ 2 ] = 35809
c330: [ 1 x_55_ ^ 2 - 2 x_75_ * x_55_ + 1 x_75_ ^ 2 + 1 y_55_ ^ 2 - 2 y_75_ * y_55_ + 1 y_75_ ^ 2 ] = 1600
c331: [ 1 x_58_ ^ 2 - 2 x_75_ * x_58_ + 1 x_75_ ^ 2 + 1 y_58_ ^ 2 - 2 y_75_ * y_58_ + 1 y_75_ ^ 2 ] = 21605
c332: [ 1 x_74_ ^ 2 - 2 x_75_ * x_74_ + 1 x_75_ ^ 2 + 1 y_74_ ^ 2 - 2 y_75_ * y_74_ + 1 y_75_ ^ 2 ] = 1544
c333: [ 1 x_6_ ^ 2 - 2 x_76_ * x_6_ + 1 x_76_ ^ 2 + 1 y_6_ ^ 2 - 2 y_76_ * y_6_ + 1 y_76_ ^ 2 ] = 8101
c334: [ 1 x_33_ ^ 2 - 2 x_76_ * x_33_ + 1 x_76_ ^ 2 + 1 y_33_ ^ 2 - 2 y_76_ * y_33_ + 1 y_76_ ^ 2 ] = 1314
c335: [ 1 x_39_ ^ 2 - 2 x_76_ * x_39_ + 1 x_76_ ^ 2 + 1 y_39_ ^ 2 - 2 y_76_ * y_39_ + 1 y_76_ ^ 2 ] = 13513
c336: [ 1 x_41_ ^ 2 - 2 x_76_ * x_41_ + 1 x_76_ ^ 2 + 1 y_41_ ^ 2 - 2 y_76_ * y_41_ + 1 y_76_ ^ 2 ] = 1481
c337: [ 1 x_44_ ^ 2 - 2 x_76_ * x_44_ + 1 x_76_ ^ 2 + 1 y_44_ ^ 2 - 2 y_76_ * y_44_ + 1 y_76_ ^ 2 ] = 25120
c338: [ 1 x_53_ ^ 2 - 2 x_76_ * x_53_ + 1 x_76_ ^ 2 + 1 y_53_ ^ 2 - 2 y_76_ * y_53_ + 1 y_76_ ^ 2 ] = 20137
c339: [ 1 x_75_ ^ 2 - 2 x_76_ * x_75_ + 1 x_76_ ^ 2 + 1 y_75_ ^ 2 - 2 y_76_ * y_75_ + 1 y_76_ ^ 2 ] = 14845
c340: [ 1 x_29_ ^ 2 - 2 x_77_ * x_29_ + 1 x_77_ ^ 2 + 1 y_29_ ^ 2 - 2 y_77_ * y_29_ + 1 y_77_ ^ 2 ] = 2305
c341: [ 1 x_32_ ^ 2 - 2 x_77_ * x_32_ + 1 x_77_ ^ 2 + 1 y_32_ ^ 2 - 2 y_77_ * y_32_ + 1 y_77_ ^ 2 ] = 45968
c342: [ 1 x_39_ ^ 2 - 2 x_77_ * x_39_ + 1 x_77_ ^ 2 + 1 y_39_ ^ 2 - 2 y_77_ * y_39_ + 1 y_77_ ^ 2 ] = 25133
c343: [ 1 x_51_ ^ 2 - 2 x_77_ * x_51_ + 1 x_77_ ^ 2 + 1 y_51_ ^ 2 - 2 y_77_ * y_51_ + 1 y_77_ ^ 2 ] = 8545
c344: [ 1 x_76_ ^ 2 - 2 x_77_ * x_76_ + 1 x_77_ ^ 2 + 1 y_76_ ^ 2 - 2 y_77_ * y_76_ + 1 y_77_ ^ 2 ] = 3400
c345: [ 1 x_9_ ^ 2 - 2 x_78_ * x_9_ + 1 x_78_ ^ 2 + 1 y_9_ ^ 2 - 2 y_78_ * y_9_ + 1 y_78_ ^ 2 ] = 3044
c346: [ 1 x_13_ ^ 2 - 2 x_78_ * x_13_ + 1 x_78_ ^ 2 + 1 y_13_ ^ 2 - 2 y_78_ * y_13_ + 1 y_78_ ^ 2 ] = 4090
c347: [ 1 x_20_ ^ 2 - 2 x_78_ * x_20_ + 1 x_78_ ^ 2 + 1 y_20_ ^ 2 - 2 y_78_ * y_20_ + 1 y_78_ ^ 2 ] = 8480
c348: [ 1 x_25_ ^ 2 - 2 x_78_ * x_25_ + 1 x_78_ ^ 2 + 1 y_25_ ^ 2 - 2 y_78_ * y_25_ + 1 y_78_ ^ 2 ] = 6145
c349: [ 1 x_32_ ^ 2 - 2 x_78_ * x_32_ + 1 x_78_ ^ 2 + 1 y_32_ ^ 2 - 2 y_78_ * y_32_ + 1 y_78_ ^ 2 ] = 24745
c350: [ 1 x_37_ ^ 2 - 2 x_78_ * x_37_ + 1 x_78_ ^ 2 + 1 y_37_ ^ 2 - 2 y_78_ * y_37_ + 1 y_78_ ^ 2 ] = 2938
c351: [ 1 x_47_ ^ 2 - 2 x_78_ * x_47_ + 1 x_78_ ^ 2 + 1 y_47_ ^ 2 - 2 y_78_ * y_47_ + 1 y_78_ ^ 2 ] = 21650
c352: [ 1 x_51_ ^ 2 - 2 x_78_ * x_51_ + 1 x_78_ ^ 2 + 1 y_51_ ^ 2 - 2 y_78_ * y_51_ + 1 y_78_ ^ 2 ] = 4608
c353: [ 1 x_70_ ^ 2 - 2 x_78_ * x_70_ + 1 x_78_ ^ 2 + 1 y_70_ ^ 2 - 2 y_78_ * y_70_ + 1 y_78_ ^ 2 ] = 821
c354: [ 1 x_71_ ^ 2 - 2 x_78_ * x_71_ + 1 x_78_ ^ 2 + 1 y_71_ ^ 2 - 2 y_78_ * y_71_ + 1 y_78_ ^ 2 ] = 20281
c355: [ 1 x_77_ ^ 2 - 2 x_78_ * x_77_ + 1 x_78_ ^ 2 + 1 y_77_ ^ 2 - 2 y_78_ * y_77_ + 1 y_78_ ^ 2 ] = 3457
c356: [ 1 x_3_ ^ 2 - 2 x_79_ * x_3_ + 1 x_79_ ^ 2 + 1 y_3_ ^ 2 - 2 y_79_ * y_3_ + 1 y_79_ ^ 2 ] = 5224
c357: [ 1 x_7_ ^ 2 - 2 x_79_ * x_7_ + 1 x_79_ ^ 2 + 1 y_7_ ^ 2 - 2 y_79_ * y_7_ + 1 y_79_ ^ 2 ] = 12244
c358: [ 1 x_25_ ^ 2 - 2 x_79_ * x_25_ + 1 x_79_ ^ 2 + 1 y_25_ ^ 2 - 2 y_79_ * y_25_ + 1 y_79_ ^ 2 ] = 22490
c359: [ 1 x_31_ ^ 2 - 2 x_79_ * x_31_ + 1 x_79_ ^ 2 + 1 y_31_ ^ 2 - 2 y_79_ * y_31_ + 1 y_79_ ^ 2 ] = 2378
c360: [ 1 x_61_ ^ 2 - 2 x_79_ * x_61_ + 1 x_79_ ^ 2 + 1 y_61_ ^ 2 - 2 y_79_ * y_61_ + 1 y_79_ ^ 2 ] = 1044
c361: [ 1 x_74_ ^ 2 - 2 x_79_ * x_74_ + 1 x_79_ ^ 2 + 1 y_74_ ^ 2 - 2 y_79_ * y_74_ + 1 y_79_ ^ 2 ] = 325
c362: [ 1 x_78_ ^ 2 - 2 x_79_ * x_78_ + 1 x_79_ ^ 2 + 1 y_78_ ^ 2 - 2 y_79_ * y_78_ + 1 y_79_ ^ 2 ] = 10001
c363: [ 1 x_11_ ^ 2 - 2 x_80_ * x_11_ + 1 x_80_ ^ 2 + 1 y_11_ ^ 2 - 2 y_80_ * y_11_ + 1 y_80_ ^ 2 ] = 26333
c364: [ 1 x_14_ ^ 2 - 2 x_80_ * x_14_ + 1 x_80_ ^ 2 + 1 y_14_ ^ 2 - 2 y_80_ * y_14_ + 1 y_80_ ^ 2 ] = 53525
c365: [ 1 x_27_ ^ 2 - 2 x_80_ * x_27_ + 1 x_80_ ^ 2 + 1 y_27_ ^ 2 - 2 y_80_ * y_27_ + 1 y_80_ ^ 2 ] = 9434
c366: [ 1 x_30_ ^ 2 - 2 x_80_ * x_30_ + 1 x_80_ ^ 2 + 1 y_30_ ^ 2 - 2 y_80_ * y_30_ + 1 y_80_ ^ 2 ] = 21809
c367: [ 1 x_37_ ^ 2 - 2 x_80_ * x_37_ + 1 x_80_ ^ 2 + 1 y_37_ ^ 2 - 2 y_80_ * y_37_ + 1 y_80_ ^ 2 ] = 6565
c368: [ 1 x_75_ ^ 2 - 2 x_80_ * x_75_ + 1 x_80_ ^ 2 + 1 y_75_ ^ 2 - 2 y_80_ * y_75_ + 1 y_80_ ^ 2 ] = 33025
c369: [ 1 x_79_ ^ 2 - 2 x_80_ * x_79_ + 1 x_80_ ^ 2 + 1 y_79_ ^ 2 - 2 y_80_ * y_79_ + 1 y_80_ ^ 2 ] = 27200
c370: [ 1 x_2_ ^ 2 - 2 x_81_ * x_2_ + 1 x_81_ ^ 2 + 1 y_2_ ^ 2 - 2 y_81_ * y_2_ + 1 y_81_ ^ 2 ] = 377
c371: [ 1 x_11_ ^ 2 - 2 x_81_ * x_11_ + 1 x_81_ ^ 2 + 1 y_11_ ^ 2 - 2 y_81_ * y_11_ + 1 y_81_ ^ 2 ] = 7586
c372: [ 1 x_19_ ^ 2 - 2 x_81_ * x_19_ + 1 x_81_ ^ 2 + 1 y_19_ ^ 2 - 2 y_81_ * y_19_ + 1 y_81_ ^ 2 ] = 3380
c373: [ 1 x_25_ ^ 2 - 2 x_81_ * x_25_ + 1 x_81_ ^ 2 + 1 y_25_ ^ 2 - 2 y_81_ * y_25_ + 1 y_81_ ^ 2 ] = 2657
c374: [ 1 x_38_ ^ 2 - 2 x_81_ * x_38_ + 1 x_81_ ^ 2 + 1 y_38_ ^ 2 - 2 y_81_ * y_38_ + 1 y_81_ ^ 2 ] = 2122
c375: [ 1 x_46_ ^ 2 - 2 x_81_ * x_46_ + 1 x_81_ ^ 2 + 1 y_46_ ^ 2 - 2 y_81_ * y_46_ + 1 y_81_ ^ 2 ] = 197
c376: [ 1 x_58_ ^ 2 - 2 x_81_ * x_58_ + 1 x_81_ ^ 2 + 1 y_58_ ^ 2 - 2 y_81_ * y_58_ + 1 y_81_ ^ 2 ] = 8857
c377: [ 1 x_61_ ^ 2 - 2 x_81_ * x_61_ + 1 x_81_ ^ 2 + 1 y_61_ ^ 2 - 2 y_81_ * y_61_ + 1 y_81_ ^ 2 ] = 8521
c378: [ 1 x_62_ ^ 2 - 2 x_81_ * x_62_ + 1 x_81_ ^ 2 + 1 y_62_ ^ 2 - 2 y_81_ * y_62_ + 1 y_81_ ^ 2 ] = 293
c379: [ 1 x_80_ ^ 2 - 2 x_81_ * x_80_ + 1 x_81_ ^ 2 + 1 y_80_ ^ 2 - 2 y_81_ * y_80_ + 1 y_81_ ^ 2 ] = 9113
c380: [ 1 x_7_ ^ 2 - 2 x_82_ * x_7_ + 1 x_82_ ^ 2 + 1 y_7_ ^ 2 - 2 y_82_ * y_7_ + 1 y_82_ ^ 2 ] = 9034
c381: [ 1 x_18_ ^ 2 - 2 x_82_ * x_18_ + 1 x_82_ ^ 2 + 1 y_18_ ^ 2 - 2 y_82_ * y_18_ + 1 y_82_ ^ 2 ] = 32213
c382: [ 1 x_19_ ^ 2 - 2 x_82_ * x_19_ + 1 x_82_ ^ 2 + 1 y_19_ ^ 2 - 2 y_82_ * y_19_ + 1 y_82_ ^ 2 ] = 1285
c383: [ 1 x_24_ ^ 2 - 2 x_82_ * x_24_ + 1 x_82_ ^ 2 + 1 y_24_ ^ 2 - 2 y_82_ * y_24_ + 1 y_82_ ^ 2 ] = 2980
c384: [ 1 x_34_ ^ 2 - 2 x_82_ * x_34_ + 1 x_82_ ^ 2 + 1 y_34_ ^ 2 - 2 y_82_ * y_34_ + 1 y_82_ ^ 2 ] = 14210
c385: [ 1 x_42_ ^ 2 - 2 x_82_ * x_42_ + 1 x_82_ ^ 2 + 1 y_42_ ^ 2 - 2 y_82_ * y_42_ + 1 y_82_ ^ 2 ] = 6340
c386: [ 1 x_65_ ^ 2 - 2 x_82_ * x_65_ + 1 x_82_ ^ 2 + 1 y_65_ ^ 2 - 2 y_82_ * y_65_ + 1 y_82_ ^ 2 ] = 8749
c387: [ 1 x_73_ ^ 2 - 2 x_82_ * x_73_ + 1 x_82_ ^ 2 + 1 y_73_ ^ 2 - 2 y_82_ * y_73_ + 1 y_82_ ^ 2 ] = 30152
c388: [ 1 x_76_ ^ 2 - 2 x_82_ * x_76_ + 1 x_82_ ^ 2 + 1 y_76_ ^ 2 - 2 y_82_ * y_76_ + 1 y_82_ ^ 2 ] = 32724
c389: [ 1 x_77_ ^ 2 - 2 x_82_ * x_77_ + 1 x_82_ ^ 2 + 1 y_77_ ^ 2 - 2 y_82_ * y_77_ + 1 y_82_ ^ 2 ] = 23524
c390: [ 1 x_81_ ^ 2 - 2 x_82_ * x_81_ + 1 x_82_ ^ 2 + 1 y_81_ ^ 2 - 2 y_82_ * y_81_ + 1 y_82_ ^ 2 ] = 6953
c391: [ 1 x_5_ ^ 2 - 2 x_83_ * x_5_ + 1 x_83_ ^ 2 + 1 y_5_ ^ 2 - 2 y_83_ * y_5_ + 1 y_83_ ^ 2 ] = 4589
c392: [ 1 x_9_ ^ 2 - 2 x_83_ * x_9_ + 1 x_83_ ^ 2 + 1 y_9_ ^ 2 - 2 y_83_ * y_9_ + 1 y_83_ ^ 2 ] = 12409
c393: [ 1 x_18_ ^ 2 - 2 x_83_ * x_18_ + 1 x_83_ ^ 2 + 1 y_18_ ^ 2 - 2 y_83_ * y_18_ + 1 y_83_ ^ 2 ] = 7529
c394: [ 1 x_29_ ^ 2 - 2 x_83_ * x_29_ + 1 x_83_ ^ 2 + 1 y_29_ ^ 2 - 2 y_83_ * y_29_ + 1 y_83_ ^ 2 ] = 1613
c395: [ 1 x_59_ ^ 2 - 2 x_83_ * x_59_ + 1 x_83_ ^ 2 + 1 y_59_ ^ 2 - 2 y_83_ * y_59_ + 1 y_83_ ^ 2 ] = 7765
c396: [ 1 x_75_ ^ 2 - 2 x_83_ * x_75_ + 1 x_83_ ^ 2 + 1 y_75_ ^ 2 - 2 y_83_ * y_75_ + 1 y_83_ ^ 2 ] = 6625
c397: [ 1 x_82_ ^ 2 - 2 x_83_ * x_82_ + 1 x_83_ ^ 2 + 1 y_82_ ^ 2 - 2 y_83_ * y_82_ + 1 y_83_ ^ 2 ] = 21960
c398: [ 1 x_14_ ^ 2 - 2 x_84_ * x_14_ + 1 x_84_ ^ 2 + 1 y_14_ ^ 2 - 2 y_84_ * y_14_ + 1 y_84_ ^ 2 ] = 37636
c399: [ 1 x_22_ ^ 2 - 2 x_84_ * x_22_ + 1 x_84_ ^ 2 + 1 y_22_ ^ 2 - 2 y_84_ * y_22_ + 1 y_84_ ^ 2 ] = 35117
c400: [ 1 x_29_ ^ 2 - 2 x_84_ * x_29_ + 1 x_84_ ^ 2 + 1 y_29_ ^ 2 - 2 y_84_ * y_29_ + 1 y_84_ ^ 2 ] = 2570
c401: [ 1 x_69_ ^ 2 - 2 x_84_ * x_69_ + 1 x_84_ ^ 2 + 1 y_69_ ^ 2 - 2 y_84_ * y_69_ + 1 y_84_ ^ 2 ] = 9461
c402: [ 1 x_71_ ^ 2 - 2 x_84_ * x_71_ + 1 x_84_ ^ 2 + 1 y_71_ ^ 2 - 2 y_84_ * y_71_ + 1 y_84_ ^ 2 ] = 26773
c403: [ 1 x_76_ ^ 2 - 2 x_84_ * x_76_ + 1 x_84_ ^ 2 + 1 y_76_ ^ 2 - 2 y_84_ * y_76_ + 1 y_84_ ^ 2 ] = 4705
c404: [ 1 x_80_ ^ 2 - 2 x_84_ * x_80_ + 1 x_84_ ^ 2 + 1 y_80_ ^ 2 - 2 y_84_ * y_80_ + 1 y_84_ ^ 2 ] = 1717
c405: [ 1 x_83_ ^ 2 - 2 x_84_ * x_83_ + 1 x_84_ ^ 2 + 1 y_83_ ^ 2 - 2 y_84_ * y_83_ + 1 y_84_ ^ 2 ] = 7261
c406: [ 1 x_10_ ^ 2 - 2 x_85_ * x_10_ + 1 x_85_ ^ 2 + 1 y_10_ ^ 2 - 2 y_85_ * y_10_ + 1 y_85_ ^ 2 ] = 30596
c407: [ 1 x_11_ ^ 2 - 2 x_85_ * x_11_ + 1 x_85_ ^ 2 + 1 y_11_ ^ 2 - 2 y_85_ * y_11_ + 1 y_85_ ^ 2 ] = 12218
c408: [ 1 x_18_ ^ 2 - 2 x_85_ * x_18_ + 1 x_85_ ^ 2 + 1 y_18_ ^ 2 - 2 y_85_ * y_18_ + 1 y_85_ ^ 2 ] = 3730
c409: [ 1 x_29_ ^ 2 - 2 x_85_ * x_29_ + 1 x_85_ ^ 2 + 1 y_29_ ^ 2 - 2 y_85_ * y_29_ + 1 y_85_ ^ 2 ] = 2452
c410: [ 1 x_30_ ^ 2 - 2 x_85_ * x_30_ + 1 x_85_ ^ 2 + 1 y_30_ ^ 2 - 2 y_85_ * y_30_ + 1 y_85_ ^ 2 ] = 13274
c411: [ 1 x_54_ ^ 2 - 2 x_85_ * x_54_ + 1 x_85_ ^ 2 + 1 y_54_ ^ 2 - 2 y_85_ * y_54_ + 1 y_85_ ^ 2 ] = 916
c412: [ 1 x_57_ ^ 2 - 2 x_85_ * x_57_ + 1 x_85_ ^ 2 + 1 y_57_ ^ 2 - 2 y_85_ * y_57_ + 1 y_85_ ^ 2 ] = 9962
c413: [ 1 x_64_ ^ 2 - 2 x_85_ * x_64_ + 1 x_85_ ^ 2 + 1 y_64_ ^ 2 - 2 y_85_ * y_64_ + 1 y_85_ ^ 2 ] = 5634
c414: [ 1 x_78_ ^ 2 - 2 x_85_ * x_78_ + 1 x_85_ ^ 2 + 1 y_78_ ^ 2 - 2 y_85_ * y_78_ + 1 y_85_ ^ 2 ] = 850
c415: [ 1 x_79_ ^ 2 - 2 x_85_ * x_79_ + 1 x_85_ ^ 2 + 1 y_79_ ^ 2 - 2 y_85_ * y_79_ + 1 y_85_ ^ 2 ] = 16229
c416: [ 1 x_84_ ^ 2 - 2 x_85_ * x_84_ + 1 x_85_ ^ 2 + 1 y_84_ ^ 2 - 2 y_85_ * y_84_ + 1 y_85_ ^ 2 ] = 346
c417: [ 1 x_5_ ^ 2 - 2 x_86_ * x_5_ + 1 x_86_ ^ 2 + 1 y_5_ ^ 2 - 2 y_86_ * y_5_ + 1 y_86_ ^ 2 ] = 21969
c418: [ 1 x_8_ ^ 2 - 2 x_86_ * x_8_ + 1 x_86_ ^ 2 + 1 y_8_ ^ 2 - 2 y_86_ * y_8_ + 1 y_86_ ^ 2 ] = 19681
c419: [ 1 x_23_ ^ 2 - 2 x_86_ * x_23_ + 1 x_86_ ^ 2 + 1 y_23_ ^ 2 - 2 y_86_ * y_23_ + 1 y_86_ ^ 2 ] = 13181
c420: [ 1 x_48_ ^ 2 - 2 x_86_ * x_48_ + 1 x_86_ ^ 2 + 1 y_48_ ^ 2 - 2 y_86_ * y_48_ + 1 y_86_ ^ 2 ] = 25076
c421: [ 1 x_51_ ^ 2 - 2 x_86_ * x_51_ + 1 x_86_ ^ 2 + 1 y_51_ ^ 2 - 2 y_86_ * y_51_ + 1 y_86_ ^ 2 ] = 2053
c422: [ 1 x_59_ ^ 2 - 2 x_86_ * x_59_ + 1 x_86_ ^ 2 + 1 y_59_ ^ 2 - 2 y_86_ * y_59_ + 1 y_86_ ^ 2 ] = 505
c423: [ 1 x_70_ ^ 2 - 2 x_86_ * x_70_ + 1 x_86_ ^ 2 + 1 y_70_ ^ 2 - 2 y_86_ * y_70_ + 1 y_86_ ^ 2 ] = 2962
c424: [ 1 x_72_ ^ 2 - 2 x_86_ * x_72_ + 1 x_86_ ^ 2 + 1 y_72_ ^ 2 - 2 y_86_ * y_72_ + 1 y_86_ ^ 2 ] = 27538
c425: [ 1 x_85_ ^ 2 - 2 x_86_ * x_85_ + 1 x_86_ ^ 2 + 1 y_85_ ^ 2 - 2 y_86_ * y_85_ + 1 y_86_ ^ 2 ] = 6217
c426: [ 1 x_1_ ^ 2 - 2 x_87_ * x_1_ + 1 x_87_ ^ 2 + 1 y_1_ ^ 2 - 2 y_87_ * y_1_ + 1 y_87_ ^ 2 ] = 872
c427: [ 1 x_7_ ^ 2 - 2 x_87_ * x_7_ + 1 x_87_ ^ 2 + 1 y_7_ ^ 2 - 2 y_87_ * y_7_ + 1 y_87_ ^ 2 ] = 925
c428: [ 1 x_13_ ^ 2 - 2 x_87_ * x_13_ + 1 x_87_ ^ 2 + 1 y_13_ ^ 2 - 2 y_87_ * y_13_ + 1 y_87_ ^ 2 ] = 2594
c429: [ 1 x_19_ ^ 2 - 2 x_87_ * x_19_ + 1 x_87_ ^ 2 + 1 y_19_ ^ 2 - 2 y_87_ * y_19_ + 1 y_87_ ^ 2 ] = 4842
c430: [ 1 x_22_ ^ 2 - 2 x_87_ * x_22_ + 1 x_87_ ^ 2 + 1 y_22_ ^ 2 - 2 y_87_ * y_22_ + 1 y_87_ ^ 2 ] = 15577
c431: [ 1 x_42_ ^ 2 - 2 x_87_ * x_42_ + 1 x_87_ ^ 2 + 1 y_42_ ^ 2 - 2 y_87_ * y_42_ + 1 y_87_ ^ 2 ] = 4505
c432: [ 1 x_64_ ^ 2 - 2 x_87_ * x_64_ + 1 x_87_ ^ 2 + 1 y_64_ ^ 2 - 2 y_87_ * y_64_ + 1 y_87_ ^ 2 ] = 5864
c433: [ 1 x_66_ ^ 2 - 2 x_87_ * x_66_ + 1 x_87_ ^ 2 + 1 y_66_ ^ 2 - 2 y_87_ * y_66_ + 1 y_87_ ^ 2 ] = 4225
c434: [ 1 x_69_ ^ 2 - 2 x_87_ * x_69_ + 1 x_87_ ^ 2 + 1 y_69_ ^ 2 - 2 y_87_ * y_69_ + 1 y_87_ ^ 2 ] = 1345
c435: [ 1 x_70_ ^ 2 - 2 x_87_ * x_70_ + 1 x_87_ ^ 2 + 1 y_70_ ^ 2 - 2 y_87_ * y_70_ + 1 y_87_ ^ 2 ] = 2089
c436: [ 1 x_73_ ^ 2 - 2 x_87_ * x_73_ + 1 x_87_ ^ 2 + 1 y_73_ ^ 2 - 2 y_87_ * y_73_ + 1 y_87_ ^ 2 ] = 14197
c437: [ 1 x_86_ ^ 2 - 2 x_87_ * x_86_ + 1 x_87_ ^ 2 + 1 y_86_ ^ 2 - 2 y_87_ * y_86_ + 1 y_87_ ^ 2 ] = 4157
c438: [ 1 x_9_ ^ 2 - 2 x_88_ * x_9_ + 1 x_88_ ^ 2 + 1 y_9_ ^ 2 - 2 y_88_ * y_9_ + 1 y_88_ ^ 2 ] = 5416
c439: [ 1 x_17_ ^ 2 - 2 x_88_ * x_17_ + 1 x_88_ ^ 2 + 1 y_17_ ^ 2 - 2 y_88_ * y_17_ + 1 y_88_ ^ 2 ] = 1850
c440: [ 1 x_22_ ^ 2 - 2 x_88_ * x_22_ + 1 x_88_ ^ 2 + 1 y_22_ ^ 2 - 2 y_88_ * y_22_ + 1 y_88_ ^ 2 ] = 6625
c441: [ 1 x_24_ ^ 2 - 2 x_88_ * x_24_ + 1 x_88_ ^ 2 + 1 y_24_ ^ 2 - 2 y_88_ * y_24_ + 1 y_88_ ^ 2 ] = 3425
c442: [ 1 x_32_ ^ 2 - 2 x_88_ * x_32_ + 1 x_88_ ^ 2 + 1 y_32_ ^ 2 - 2 y_88_ * y_32_ + 1 y_88_ ^ 2 ] = 13725
c443: [ 1 x_42_ ^ 2 - 2 x_88_ * x_42_ + 1 x_88_ ^ 2 + 1 y_42_ ^ 2 - 2 y_88_ * y_42_ + 1 y_88_ ^ 2 ] = 6385
c444: [ 1 x_52_ ^ 2 - 2 x_88_ * x_52_ + 1 x_88_ ^ 2 + 1 y_52_ ^ 2 - 2 y_88_ * y_52_ + 1 y_88_ ^ 2 ] = 18842
c445: [ 1 x_62_ ^ 2 - 2 x_88_ * x_62_ + 1 x_88_ ^ 2 + 1 y_62_ ^ 2 - 2 y_88_ * y_62_ + 1 y_88_ ^ 2 ] = 3341
c446: [ 1 x_65_ ^ 2 - 2 x_88_ * x_65_ + 1 x_88_ ^ 2 + 1 y_65_ ^ 2 - 2 y_88_ * y_65_ + 1 y_88_ ^ 2 ] = 7018
c447: [ 1 x_77_ ^ 2 - 2 x_88_ * x_77_ + 1 x_88_ ^ 2 + 1 y_77_ ^ 2 - 2 y_88_ * y_77_ + 1 y_88_ ^ 2 ] = 20981
c448: [ 1 x_80_ ^ 2 - 2 x_88_ * x_80_ + 1 x_88_ ^ 2 + 1 y_80_ ^ 2 - 2 y_88_ * y_80_ + 1 y_88_ ^ 2 ] = 28649
c449: [ 1 x_87_ ^ 2 - 2 x_88_ * x_87_ + 1 x_88_ ^ 2 + 1 y_87_ ^ 2 - 2 y_88_ * y_87_ + 1 y_88_ ^ 2 ] = 7072
c450: [ 1 x_12_ ^ 2 - 2 x_89_ * x_12_ + 1 x_89_ ^ 2 + 1 y_12_ ^ 2 - 2 y_89_ * y_12_ + 1 y_89_ ^ 2 ] = 15860
c451: [ 1 x_23_ ^ 2 - 2 x_89_ * x_23_ + 1 x_89_ ^ 2 + 1 y_23_ ^ 2 - 2 y_89_ * y_23_ + 1 y_89_ ^ 2 ] = 5485
c452: [ 1 x_25_ ^ 2 - 2 x_89_ * x_25_ + 1 x_89_ ^ 2 + 1 y_25_ ^ 2 - 2 y_89_ * y_25_ + 1 y_89_ ^ 2 ] = 4292
c453: [ 1 x_32_ ^ 2 - 2 x_89_ * x_32_ + 1 x_89_ ^ 2 + 1 y_32_ ^ 2 - 2 y_89_ * y_32_ + 1 y_89_ ^ 2 ] = 21524
c454: [ 1 x_59_ ^ 2 - 2 x_89_ * x_59_ + 1 x_89_ ^ 2 + 1 y_59_ ^ 2 - 2 y_89_ * y_59_ + 1 y_89_ ^ 2 ] = 909
c455: [ 1 x_63_ ^ 2 - 2 x_89_ * x_63_ + 1 x_89_ ^ 2 + 1 y_63_ ^ 2 - 2 y_89_ * y_63_ + 1 y_89_ ^ 2 ] = 12752
c456: [ 1 x_64_ ^ 2 - 2 x_89_ * x_64_ + 1 x_89_ ^ 2 + 1 y_64_ ^ 2 - 2 y_89_ * y_64_ + 1 y_89_ ^ 2 ] = 3393
c457: [ 1 x_68_ ^ 2 - 2 x_89_ * x_68_ + 1 x_89_ ^ 2 + 1 y_68_ ^ 2 - 2 y_89_ * y_68_ + 1 y_89_ ^ 2 ] = 16129
c458: [ 1 x_70_ ^ 2 - 2 x_89_ * x_70_ + 1 x_89_ ^ 2 + 1 y_70_ ^ 2 - 2 y_89_ * y_70_ + 1 y_89_ ^ 2 ] = 788
c459: [ 1 x_77_ ^ 2 - 2 x_89_ * x_77_ + 1 x_89_ ^ 2 + 1 y_77_ ^ 2 - 2 y_89_ * y_77_ + 1 y_89_ ^ 2 ] = 5364
c460: [ 1 x_87_ ^ 2 - 2 x_89_ * x_87_ + 1 x_89_ ^ 2 + 1 y_87_ ^ 2 - 2 y_89_ * y_87_ + 1 y_89_ ^ 2 ] = 389
c461: [ 1 x_88_ ^ 2 - 2 x_89_ * x_88_ + 1 x_89_ ^ 2 + 1 y_88_ ^ 2 - 2 y_89_ * y_88_ + 1 y_89_ ^ 2 ] = 5645
c462: [ 1 x_8_ ^ 2 - 2 x_90_ * x_8_ + 1 x_90_ ^ 2 + 1 y_8_ ^ 2 - 2 y_90_ * y_8_ + 1 y_90_ ^ 2 ] = 701
c463: [ 1 x_26_ ^ 2 - 2 x_90_ * x_26_ + 1 x_90_ ^ 2 + 1 y_26_ ^ 2 - 2 y_90_ * y_26_ + 1 y_90_ ^ 2 ] = 445
c464: [ 1 x_27_ ^ 2 - 2 x_90_ * x_27_ + 1 x_90_ ^ 2 + 1 y_27_ ^ 2 - 2 y_90_ * y_27_ + 1 y_90_ ^ 2 ] = 25394
c465: [ 1 x_29_ ^ 2 - 2 x_90_ * x_29_ + 1 x_90_ ^ 2 + 1 y_29_ ^ 2 - 2 y_90_ * y_29_ + 1 y_90_ ^ 2 ] = 22797
c466: [ 1 x_45_ ^ 2 - 2 x_90_ * x_45_ + 1 x_90_ ^ 2 + 1 y_45_ ^ 2 - 2 y_90_ * y_45_ + 1 y_90_ ^ 2 ] = 22100
c467: [ 1 x_66_ ^ 2 - 2 x_90_ * x_66_ + 1 x_90_ ^ 2 + 1 y_66_ ^ 2 - 2 y_90_ * y_66_ + 1 y_90_ ^ 2 ] = 23348
c468: [ 1 x_69_ ^ 2 - 2 x_90_ * x_69_ + 1 x_90_ ^ 2 + 1 y_69_ ^ 2 - 2 y_90_ * y_69_ + 1 y_90_ ^ 2 ] = 7604
c469: [ 1 x_80_ ^ 2 - 2 x_90_ * x_80_ + 1 x_90_ ^ 2 + 1 y_80_ ^ 2 - 2 y_90_ * y_80_ + 1 y_90_ ^ 2 ] = 43556
c470: [ 1 x_89_ ^ 2 - 2 x_90_ * x_89_ + 1 x_90_ ^ 2 + 1 y_89_ ^ 2 - 2 y_90_ * y_89_ + 1 y_90_ ^ 2 ] = 13834
c471: [ 1 x_14_ ^ 2 - 2 x_91_ * x_14_ + 1 x_91_ ^ 2 + 1 y_14_ ^ 2 - 2 y_91_ * y_14_ + 1 y_91_ ^ 2 ] = 24457
c472: [ 1 x_15_ ^ 2 - 2 x_91_ * x_15_ + 1 x_91_ ^ 2 + 1 y_15_ ^ 2 - 2 y_91_ * y_15_ + 1 y_91_ ^ 2 ] = 11225
c473: [ 1 x_16_ ^ 2 - 2 x_91_ * x_16_ + 1 x_91_ ^ 2 + 1 y_16_ ^ 2 - 2 y_91_ * y_16_ + 1 y_91_ ^ 2 ] = 3145
c474: [ 1 x_17_ ^ 2 - 2 x_91_ * x_17_ + 1 x_91_ ^ 2 + 1 y_17_ ^ 2 - 2 y_91_ * y_17_ + 1 y_91_ ^ 2 ] = 25469
c475: [ 1 x_25_ ^ 2 - 2 x_91_ * x_25_ + 1 x_91_ ^ 2 + 1 y_25_ ^ 2 - 2 y_91_ * y_25_ + 1 y_91_ ^ 2 ] = 31252
c476: [ 1 x_29_ ^ 2 - 2 x_91_ * x_29_ + 1 x_91_ ^ 2 + 1 y_29_ ^ 2 - 2 y_91_ * y_29_ + 1 y_91_ ^ 2 ] = 7445
c477: [ 1 x_36_ ^ 2 - 2 x_91_ * x_36_ + 1 x_91_ ^ 2 + 1 y_36_ ^ 2 - 2 y_91_ * y_36_ + 1 y_91_ ^ 2 ] = 4420
c478: [ 1 x_56_ ^ 2 - 2 x_91_ * x_56_ + 1 x_91_ ^ 2 + 1 y_56_ ^ 2 - 2 y_91_ * y_56_ + 1 y_91_ ^ 2 ] = 28628
c479: [ 1 x_76_ ^ 2 - 2 x_91_ * x_76_ + 1 x_91_ ^ 2 + 1 y_76_ ^ 2 - 2 y_91_ * y_76_ + 1 y_91_ ^ 2 ] = 7540
c480: [ 1 x_90_ ^ 2 - 2 x_91_ * x_90_ + 1 x_91_ ^ 2 + 1 y_90_ ^ 2 - 2 y_91_ * y_90_ + 1 y_91_ ^ 2 ] = 14810
c481: [ 1 x_12_ ^ 2 - 2 x_92_ * x_12_ + 1 x_92_ ^ 2 + 1 y_12_ ^ 2 - 2 y_92_ * y_12_ + 1 y_92_ ^ 2 ] = 22210
c482: [ 1 x_21_ ^ 2 - 2 x_92_ * x_21_ + 1 x_92_ ^ 2 + 1 y_21_ ^ 2 - 2 y_92_ * y_21_ + 1 y_92_ ^ 2 ] = 7956
c483: [ 1 x_26_ ^ 2 - 2 x_92_ * x_26_ + 1 x_92_ ^ 2 + 1 y_26_ ^ 2 - 2 y_92_ * y_26_ + 1 y_92_ ^ 2 ] = 12557
c484: [ 1 x_31_ ^ 2 - 2 x_92_ * x_31_ + 1 x_92_ ^ 2 + 1 y_31_ ^ 2 - 2 y_92_ * y_31_ + 1 y_92_ ^ 2 ] = 6602
c485: [ 1 x_41_ ^ 2 - 2 x_92_ * x_41_ + 1 x_92_ ^ 2 + 1 y_41_ ^ 2 - 2 y_92_ * y_41_ + 1 y_92_ ^ 2 ] = 8801
c486: [ 1 x_54_ ^ 2 - 2 x_92_ * x_54_ + 1 x_92_ ^ 2 + 1 y_54_ ^ 2 - 2 y_92_ * y_54_ + 1 y_92_ ^ 2 ] = 565
c487: [ 1 x_56_ ^ 2 - 2 x_92_ * x_56_ + 1 x_92_ ^ 2 + 1 y_56_ ^ 2 - 2 y_92_ * y_56_ + 1 y_92_ ^ 2 ] = 4250
c488: [ 1 x_60_ ^ 2 - 2 x_92_ * x_60_ + 1 x_92_ ^ 2 + 1 y_60_ ^ 2 - 2 y_92_ * y_60_ + 1 y_92_ ^ 2 ] = 7045
c489: [ 1 x_86_ ^ 2 - 2 x_92_ * x_86_ + 1 x_92_ ^ 2 + 1 y_86_ ^ 2 - 2 y_92_ * y_86_ + 1 y_92_ ^ 2 ] = 832
c490: [ 1 x_87_ ^ 2 - 2 x_92_ * x_87_ + 1 x_92_ ^ 2 + 1 y_87_ ^ 2 - 2 y_92_ * y_87_ + 1 y_92_ ^ 2 ] = 2989
c491: [ 1 x_91_ ^ 2 - 2 x_92_ * x_91_ + 1 x_92_ ^ 2 + 1 y_91_ ^ 2 - 2 y_92_ * y_91_ + 1 y_92_ ^ 2 ] = 22338
c492: [ 1 x_3_ ^ 2 - 2 x_93_ * x_3_ + 1 x_93_ ^ 2 + 1 y_3_ ^ 2 - 2 y_93_ * y_3_ + 1 y_93_ ^ 2 ] = 32017
c493: [ 1 x_6_ ^ 2 - 2 x_93_ * x_6_ + 1 x_93_ ^ 2 + 1 y_6_ ^ 2 - 2 y_93_ * y_6_ + 1 y_93_ ^ 2 ] = 1810
c494: [ 1 x_36_ ^ 2 - 2 x_93_ * x_36_ + 1 x_93_ ^ 2 + 1 y_36_ ^ 2 - 2 y_93_ * y_36_ + 1 y_93_ ^ 2 ] = 6849
c495: [ 1 x_43_ ^ 2 - 2 x_93_ * x_43_ + 1 x_93_ ^ 2 + 1 y_43_ ^ 2 - 2 y_93_ * y_43_ + 1 y_93_ ^ 2 ] = 15056
c496: [ 1 x_55_ ^ 2 - 2 x_93_ * x_55_ + 1 x_93_ ^ 2 + 1 y_55_ ^ 2 - 2 y_93_ * y_55_ + 1 y_93_ ^ 2 ] = 16210
c497: [ 1 x_68_ ^ 2 - 2 x_93_ * x_68_ + 1 x_93_ ^ 2 + 1 y_68_ ^ 2 - 2 y_93_ * y_68_ + 1 y_93_ ^ 2 ] = 21250
c498: [ 1 x_80_ ^ 2 - 2 x_93_ * x_80_ + 1 x_93_ ^ 2 + 1 y_80_ ^ 2 - 2 y_93_ * y_80_ + 1 y_93_ ^ 2 ] = 15605
c499: [ 1 x_92_ ^ 2 - 2 x_93_ * x_92_ + 1 x_93_ ^ 2 + 1 y_92_ ^ 2 - 2 y_93_ * y_92_ + 1 y_93_ ^ 2 ] = 265
c500: [ 1 x_5_ ^ 2 - 2 x_94_ * x_5_ + 1 x_94_ ^ 2 + 1 y_5_ ^ 2 - 2 y_94_ * y_5_ + 1 y_94_ ^ 2 ] = 7090
c501: [ 1 x_7_ ^ 2 - 2 x_94_ * x_7_ + 1 x_94_ ^ 2 + 1 y_7_ ^ 2 - 2 y_94_ * y_7_ + 1 y_94_ ^ 2 ] = 12505
c502: [ 1 x_17_ ^ 2 - 2 x_94_ * x_17_ + 1 x_94_ ^ 2 + 1 y_17_ ^ 2 - 2 y_94_ * y_17_ + 1 y_94_ ^ 2 ] = 3092
c503: [ 1 x_32_ ^ 2 - 2 x_94_ * x_32_ + 1 x_94_ ^ 2 + 1 y_32_ ^ 2 - 2 y_94_ * y_32_ + 1 y_94_ ^ 2 ] = 2389
c504: [ 1 x_36_ ^ 2 - 2 x_94_ * x_36_ + 1 x_94_ ^ 2 + 1 y_36_ ^ 2 - 2 y_94_ * y_36_ + 1 y_94_ ^ 2 ] = 5733
c505: [ 1 x_43_ ^ 2 - 2 x_94_ * x_43_ + 1 x_94_ ^ 2 + 1 y_43_ ^ 2 - 2 y_94_ * y_43_ + 1 y_94_ ^ 2 ] = 18728
c506: [ 1 x_50_ ^ 2 - 2 x_94_ * x_50_ + 1 x_94_ ^ 2 + 1 y_50_ ^ 2 - 2 y_94_ * y_50_ + 1 y_94_ ^ 2 ] = 18077
c507: [ 1 x_52_ ^ 2 - 2 x_94_ * x_52_ + 1 x_94_ ^ 2 + 1 y_52_ ^ 2 - 2 y_94_ * y_52_ + 1 y_94_ ^ 2 ] = 23456
c508: [ 1 x_64_ ^ 2 - 2 x_94_ * x_64_ + 1 x_94_ ^ 2 + 1 y_64_ ^ 2 - 2 y_94_ * y_64_ + 1 y_94_ ^ 2 ] = 14666
c509: [ 1 x_73_ ^ 2 - 2 x_94_ * x_73_ + 1 x_94_ ^ 2 + 1 y_73_ ^ 2 - 2 y_94_ * y_73_ + 1 y_94_ ^ 2 ] = 4513
c510: [ 1 x_76_ ^ 2 - 2 x_94_ * x_76_ + 1 x_94_ ^ 2 + 1 y_76_ ^ 2 - 2 y_94_ * y_76_ + 1 y_94_ ^ 2 ] = 24089
c511: [ 1 x_82_ ^ 2 - 2 x_94_ * x_82_ + 1 x_94_ ^ 2 + 1 y_82_ ^ 2 - 2 y_94_ * y_82_ + 1 y_94_ ^ 2 ] = 11813
c512: [ 1 x_84_ ^ 2 - 2 x_94_ * x_84_ + 1 x_94_ ^ 2 + 1 y_84_ ^ 2 - 2 y_94_ * y_84_ + 1 y_94_ ^ 2 ] = 23866
c513: [ 1 x_86_ ^ 2 - 2 x_94_ * x_86_ + 1 x_94_ ^ 2 + 1 y_86_ ^ 2 - 2 y_94_ * y_86_ + 1 y_94_ ^ 2 ] = 9445
c514: [ 1 x_90_ ^ 2 - 2 x_94_ * x_90_ + 1 x_94_ ^ 2 + 1 y_90_ ^ 2 - 2 y_94_ * y_90_ + 1 y_94_ ^ 2 ] = 389
c515: [ 1 x_93_ ^ 2 - 2 x_94_ * x_93_ + 1 x_94_ ^ 2 + 1 y_93_ ^ 2 - 2 y_94_ * y_93_ + 1 y_94_ ^ 2 ] = 10440
c516: [ 1 x_11_ ^ 2 - 2 x_95_ * x_11_ + 1 x_95_ ^ 2 + 1 y_11_ ^ 2 - 2 y_95_ * y_11_ + 1 y_95_ ^ 2 ] = 11240
c517: [ 1 x_18_ ^ 2 - 2 x_95_ * x_18_ + 1 x_95_ ^ 2 + 1 y_18_ ^ 2 - 2 y_95_ * y_18_ + 1 y_95_ ^ 2 ] = 2900
c518: [ 1 x_27_ ^ 2 - 2 x_95_ * x_27_ + 1 x_95_ ^ 2 + 1 y_27_ ^ 2 - 2 y_95_ * y_27_ + 1 y_95_ ^ 2 ] = 3665
c519: [ 1 x_54_ ^ 2 - 2 x_95_ * x_54_ + 1 x_95_ ^ 2 + 1 y_54_ ^ 2 - 2 y_95_ * y_54_ + 1 y_95_ ^ 2 ] = 1746
c520: [ 1 x_55_ ^ 2 - 2 x_95_ * x_55_ + 1 x_95_ ^ 2 + 1 y_55_ ^ 2 - 2 y_95_ * y_55_ + 1 y_95_ ^ 2 ] = 12560
c521: [ 1 x_59_ ^ 2 - 2 x_95_ * x_59_ + 1 x_95_ ^ 2 + 1 y_59_ ^ 2 - 2 y_95_ * y_59_ + 1 y_95_ ^ 2 ] = 4840
c522: [ 1 x_71_ ^ 2 - 2 x_95_ * x_71_ + 1 x_95_ ^ 2 + 1 y_71_ ^ 2 - 2 y_95_ * y_71_ + 1 y_95_ ^ 2 ] = 21257
c523: [ 1 x_94_ ^ 2 - 2 x_95_ * x_94_ + 1 x_95_ ^ 2 + 1 y_94_ ^ 2 - 2 y_95_ * y_94_ + 1 y_95_ ^ 2 ] = 17690
c524: [ 1 x_7_ ^ 2 - 2 x_96_ * x_7_ + 1 x_96_ ^ 2 + 1 y_7_ ^ 2 - 2 y_96_ * y_7_ + 1 y_96_ ^ 2 ] = 3380
c525: [ 1 x_18_ ^ 2 - 2 x_96_ * x_18_ + 1 x_96_ ^ 2 + 1 y_18_ ^ 2 - 2 y_96_ * y_18_ + 1 y_96_ ^ 2 ] = 16453
c526: [ 1 x_21_ ^ 2 - 2 x_96_ * x_21_ + 1 x_96_ ^ 2 + 1 y_21_ ^ 2 - 2 y_96_ * y_21_ + 1 y_96_ ^ 2 ] = 14036
c527: [ 1 x_26_ ^ 2 - 2 x_96_ * x_26_ + 1 x_96_ ^ 2 + 1 y_26_ ^ 2 - 2 y_96_ * y_26_ + 1 y_96_ ^ 2 ] = 18369
c528: [ 1 x_28_ ^ 2 - 2 x_96_ * x_28_ + 1 x_96_ ^ 2 + 1 y_28_ ^ 2 - 2 y_96_ * y_28_ + 1 y_96_ ^ 2 ] = 35316
c529: [ 1 x_30_ ^ 2 - 2 x_96_ * x_30_ + 1 x_96_ ^ 2 + 1 y_30_ ^ 2 - 2 y_96_ * y_30_ + 1 y_96_ ^ 2 ] = 23825
c530: [ 1 x_37_ ^ 2 - 2 x_96_ * x_37_ + 1 x_96_ ^ 2 + 1 y_37_ ^ 2 - 2 y_96_ * y_37_ + 1 y_96_ ^ 2 ] = 16029
c531: [ 1 x_46_ ^ 2 - 2 x_96_ * x_46_ + 1 x_96_ ^ 2 + 1 y_46_ ^ 2 - 2 y_96_ * y_46_ + 1 y_96_ ^ 2 ] = 1450
c532: [ 1 x_47_ ^ 2 - 2 x_96_ * x_47_ + 1 x_96_ ^ 2 + 1 y_47_ ^ 2 - 2 y_96_ * y_47_ + 1 y_96_ ^ 2 ] = 38149
c533: [ 1 x_51_ ^ 2 - 2 x_96_ * x_51_ + 1 x_96_ ^ 2 + 1 y_51_ ^ 2 - 2 y_96_ * y_51_ + 1 y_96_ ^ 2 ] = 49
c534: [ 1 x_95_ ^ 2 - 2 x_96_ * x_95_ + 1 x_96_ ^ 2 + 1 y_95_ ^ 2 - 2 y_96_ * y_95_ + 1 y_96_ ^ 2 ] = 6649
c535: [ 1 x_4_ ^ 2 - 2 x_97_ * x_4_ + 1 x_97_ ^ 2 + 1 y_4_ ^ 2 - 2 y_97_ * y_4_ + 1 y_97_ ^ 2 ] = 12861
c536: [ 1 x_7_ ^ 2 - 2 x_97_ * x_7_ + 1 x_97_ ^ 2 + 1 y_7_ ^ 2 - 2 y_97_ * y_7_ + 1 y_97_ ^ 2 ] = 1525
c537: [ 1 x_8_ ^ 2 - 2 x_97_ * x_8_ + 1 x_97_ ^ 2 + 1 y_8_ ^ 2 - 2 y_97_ * y_8_ + 1 y_97_ ^ 2 ] = 22810
c538: [ 1 x_18_ ^ 2 - 2 x_97_ * x_18_ + 1 x_97_ ^ 2 + 1 y_18_ ^ 2 - 2 y_97_ * y_18_ + 1 y_97_ ^ 2 ] = 4834
c539: [ 1 x_43_ ^ 2 - 2 x_97_ * x_43_ + 1 x_97_ ^ 2 + 1 y_43_ ^ 2 - 2 y_97_ * y_43_ + 1 y_97_ ^ 2 ] = 2132
c540: [ 1 x_55_ ^ 2 - 2 x_97_ * x_55_ + 1 x_97_ ^ 2 + 1 y_55_ ^ 2 - 2 y_97_ * y_55_ + 1 y_97_ ^ 2 ] = 6570
c541: [ 1 x_57_ ^ 2 - 2 x_97_ * x_57_ + 1 x_97_ ^ 2 + 1 y_57_ ^ 2 - 2 y_97_ * y_57_ + 1 y_97_ ^ 2 ] = 9802
c542: [ 1 x_60_ ^ 2 - 2 x_97_ * x_60_ + 1 x_97_ ^ 2 + 1 y_60_ ^ 2 - 2 y_97_ * y_60_ + 1 y_97_ ^ 2 ] = 666
c543: [ 1 x_66_ ^ 2 - 2 x_97_ * x_66_ + 1 x_97_ ^ 2 + 1 y_66_ ^ 2 - 2 y_97_ * y_66_ + 1 y_97_ ^ 2 ] = 5525
c544: [ 1 x_76_ ^ 2 - 2 x_97_ * x_76_ + 1 x_97_ ^ 2 + 1 y_76_ ^ 2 - 2 y_97_ * y_76_ + 1 y_97_ ^ 2 ] = 3041
c545: [ 1 x_77_ ^ 2 - 2 x_97_ * x_77_ + 1 x_97_ ^ 2 + 1 y_77_ ^ 2 - 2 y_97_ * y_77_ + 1 y_97_ ^ 2 ] = 3541
c546: [ 1 x_96_ ^ 2 - 2 x_97_ * x_96_ + 1 x_97_ ^ 2 + 1 y_96_ ^ 2 - 2 y_97_ * y_96_ + 1 y_97_ ^ 2 ] = 9445
c547: [ 1 x_11_ ^ 2 - 2 x_98_ * x_11_ + 1 x_98_ ^ 2 + 1 y_11_ ^ 2 - 2 y_98_ * y_11_ + 1 y_98_ ^ 2 ] = 7829
c548: [ 1 x_16_ ^ 2 - 2 x_98_ * x_16_ + 1 x_98_ ^ 2 + 1 y_16_ ^ 2 - 2 y_98_ * y_16_ + 1 y_98_ ^ 2 ] = 3029
c549: [ 1 x_19_ ^ 2 - 2 x_98_ * x_19_ + 1 x_98_ ^ 2 + 1 y_19_ ^ 2 - 2 y_98_ * y_19_ + 1 y_98_ ^ 2 ] = 23117
c550: [ 1 x_40_ ^ 2 - 2 x_98_ * x_40_ + 1 x_98_ ^ 2 + 1 y_40_ ^ 2 - 2 y_98_ * y_40_ + 1 y_98_ ^ 2 ] = 21348
c551: [ 1 x_51_ ^ 2 - 2 x_98_ * x_51_ + 1 x_98_ ^ 2 + 1 y_51_ ^ 2 - 2 y_98_ * y_51_ + 1 y_98_ ^ 2 ] = 34465
c552: [ 1 x_57_ ^ 2 - 2 x_98_ * x_57_ + 1 x_98_ ^ 2 + 1 y_57_ ^ 2 - 2 y_98_ * y_57_ + 1 y_98_ ^ 2 ] = 23557
c553: [ 1 x_75_ ^ 2 - 2 x_98_ * x_75_ + 1 x_98_ ^ 2 + 1 y_75_ ^ 2 - 2 y_98_ * y_75_ + 1 y_98_ ^ 2 ] = 145
c554: [ 1 x_86_ ^ 2 - 2 x_98_ * x_86_ + 1 x_98_ ^ 2 + 1 y_86_ ^ 2 - 2 y_98_ * y_86_ + 1 y_98_ ^ 2 ] = 25092
c555: [ 1 x_90_ ^ 2 - 2 x_98_ * x_90_ + 1 x_98_ ^ 2 + 1 y_90_ ^ 2 - 2 y_98_ * y_90_ + 1 y_98_ ^ 2 ] = 10144
c556: [ 1 x_92_ ^ 2 - 2 x_98_ * x_92_ + 1 x_98_ ^ 2 + 1 y_92_ ^ 2 - 2 y_98_ * y_92_ + 1 y_98_ ^ 2 ] = 25348
c557: [ 1 x_97_ ^ 2 - 2 x_98_ * x_97_ + 1 x_98_ ^ 2 + 1 y_97_ ^ 2 - 2 y_98_ * y_97_ + 1 y_98_ ^ 2 ] = 11169
c558: [ 1 x_9_ ^ 2 - 2 x_99_ * x_9_ + 1 x_99_ ^ 2 + 1 y_9_ ^ 2 - 2 y_99_ * y_9_ + 1 y_99_ ^ 2 ] = 28564
c559: [ 1 x_12_ ^ 2 - 2 x_99_ * x_12_ + 1 x_99_ ^ 2 + 1 y_12_ ^ 2 - 2 y_99_ * y_12_ + 1 y_99_ ^ 2 ] = 3893
c560: [ 1 x_18_ ^ 2 - 2 x_99_ * x_18_ + 1 x_99_ ^ 2 + 1 y_18_ ^ 2 - 2 y_99_ * y_18_ + 1 y_99_ ^ 2 ] = 52084
c561: [ 1 x_23_ ^ 2 - 2 x_99_ * x_23_ + 1 x_99_ ^ 2 + 1 y_23_ ^ 2 - 2 y_99_ * y_23_ + 1 y_99_ ^ 2 ] = 19012
c562: [ 1 x_38_ ^ 2 - 2 x_99_ * x_38_ + 1 x_99_ ^ 2 + 1 y_38_ ^ 2 - 2 y_99_ * y_38_ + 1 y_99_ ^ 2 ] = 14292
c563: [ 1 x_43_ ^ 2 - 2 x_99_ * x_43_ + 1 x_99_ ^ 2 + 1 y_43_ ^ 2 - 2 y_99_ * y_43_ + 1 y_99_ ^ 2 ] = 34850
c564: [ 1 x_48_ ^ 2 - 2 x_99_ * x_48_ + 1 x_99_ ^ 2 + 1 y_48_ ^ 2 - 2 y_99_ * y_48_ + 1 y_99_ ^ 2 ] = 12077
c565: [ 1 x_56_ ^ 2 - 2 x_99_ * x_56_ + 1 x_99_ ^ 2 + 1 y_56_ ^ 2 - 2 y_99_ * y_56_ + 1 y_99_ ^ 2 ] = 11465
c566: [ 1 x_69_ ^ 2 - 2 x_99_ * x_69_ + 1 x_99_ ^ 2 + 1 y_69_ ^ 2 - 2 y_99_ * y_69_ + 1 y_99_ ^ 2 ] = 14297
c567: [ 1 x_89_ ^ 2 - 2 x_99_ * x_89_ + 1 x_99_ ^ 2 + 1 y_89_ ^ 2 - 2 y_99_ * y_89_ + 1 y_99_ ^ 2 ] = 20745
c568: [ 1 x_98_ ^ 2 - 2 x_99_ * x_98_ + 1 x_99_ ^ 2 + 1 y_98_ ^ 2 - 2 y_99_ * y_98_ + 1 y_99_ ^ 2 ] = 17161
c569: [ 1 x_1_ ^ 2 - 2 x_100_ * x_1_ + 1 x_100_ ^ 2 + 1 y_1_ ^ 2 - 2 y_100_ * y_1_ + 1 y_100_ ^ 2 ] = 3880
c570: [ 1 x_3_ ^ 2 - 2 x_100_ * x_3_ + 1 x_100_ ^ 2 + 1 y_3_ ^ 2 - 2 y_100_ * y_3_ + 1 y_100_ ^ 2 ] = 8485
c571: [ 1 x_5_ ^ 2 - 2 x_100_ * x_5_ + 1 x_100_ ^ 2 + 1 y_5_ ^ 2 - 2 y_100_ * y_5_ + 1 y_100_ ^ 2 ] = 5476
c572: [ 1 x_7_ ^ 2 - 2 x_100_ * x_7_ + 1 x_100_ ^ 2 + 1 y_7_ ^ 2 - 2 y_100_ * y_7_ + 1 y_100_ ^ 2 ] = 3589
c573: [ 1 x_12_ ^ 2 - 2 x_100_ * x_12_ + 1 x_100_ ^ 2 + 1 y_12_ ^ 2 - 2 y_100_ * y_12_ + 1 y_100_ ^ 2 ] = 11169
c574: [ 1 x_15_ ^ 2 - 2 x_100_ * x_15_ + 1 x_100_ ^ 2 + 1 y_15_ ^ 2 - 2 y_100_ * y_15_ + 1 y_100_ ^ 2 ] = 5300
c575: [ 1 x_31_ ^ 2 - 2 x_100_ * x_31_ + 1 x_100_ ^ 2 + 1 y_31_ ^ 2 - 2 y_100_ * y_31_ + 1 y_100_ ^ 2 ] = 2225
c576: [ 1 x_33_ ^ 2 - 2 x_100_ * x_33_ + 1 x_100_ ^ 2 + 1 y_33_ ^ 2 - 2 y_100_ * y_33_ + 1 y_100_ ^ 2 ] = 5213
c577: [ 1 x_39_ ^ 2 - 2 x_100_ * x_39_ + 1 x_100_ ^ 2 + 1 y_39_ ^ 2 - 2 y_100_ * y_39_ + 1 y_100_ ^ 2 ] = 6322
c578: [ 1 x_42_ ^ 2 - 2 x_100_ * x_42_ + 1 x_100_ ^ 2 + 1 y_42_ ^ 2 - 2 y_100_ * y_42_ + 1 y_100_ ^ 2 ] = 9697
c579: [ 1 x_47_ ^ 2 - 2 x_100_ * x_47_ + 1 x_100_ ^ 2 + 1 y_47_ ^ 2 - 2 y_100_ * y_47_ + 1 y_100_ ^ 2 ] = 13234
c580: [ 1 x_60_ ^ 2 - 2 x_100_ * x_60_ + 1 x_100_ ^ 2 + 1 y_60_ ^ 2 - 2 y_100_ * y_60_ + 1 y_100_ ^ 2 ] = 1924
c581: [ 1 x_61_ ^ 2 - 2 x_100_ * x_61_ + 1 x_100_ ^ 2 + 1 y_61_ ^ 2 - 2 y_100_ * y_61_ + 1 y_100_ ^ 2 ] = 981
c582: [ 1 x_62_ ^ 2 - 2 x_100_ * x_62_ + 1 x_100_ ^ 2 + 1 y_62_ ^ 2 - 2 y_100_ * y_62_ + 1 y_100_ ^ 2 ] = 6653
c583: [ 1 x_69_ ^ 2 - 2 x_100_ * x_69_ + 1 x_100_ ^ 2 + 1 y_69_ ^ 2 - 2 y_100_ * y_69_ + 1 y_100_ ^ 2 ] = 697
c584: [ 1 x_98_ ^ 2 - 2 x_100_ * x_98_ + 1 x_100_ ^ 2 + 1 y_98_ ^ 2 - 2 y_100_ * y_98_ + 1 y_100_ ^ 2 ] = 6481
c585: [ 1 x_99_ ^ 2 - 2 x_100_ * x_99_ + 1 x_100_ ^ 2 + 1 y_99_ ^ 2 - 2 y_100_ * y_99_ + 1 y_100_ ^ 2 ] = 21284
Bounds
-18 <= x_1_ <= 65
-44 <= x_2_ <= 91
-17 <= x_3_ <= 142
-87 <= x_4_ <= 105
-117 <= x_5_ <= 43
-33 <= x_6_ <= 92
-13 <= x_7_ <= 71
-86 <= x_8_ <= -34
-73 <= x_9_ <= 120
-108 <= x_10_ <= 36
-77 <= x_11_ <= 72
-117 <= x_12_ <= 111
-94 <= x_13_ <= 114
-147 <= x_14_ <= 42
-116 <= x_15_ <= 44
-134 <= x_16_ <= 95
-120 <= x_17_ <= 15
-24 <= x_18_ <= 82
-113 <= x_19_ <= 104
-118 <= x_20_ <= 106
-105 <= x_21_ <= 145
-122 <= x_22_ <= 51
-131 <= x_23_ <= 131
-65 <= x_24_ <= 81
-79 <= x_25_ <= 79
-81 <= x_26_ <= -39
-31 <= x_27_ <= 89
-95 <= x_28_ <= 120
-72 <= x_29_ <= 90
-131 <= x_30_ <= 70
-81 <= x_31_ <= 50
-113 <= x_32_ <= 8
-65 <= x_33_ <= 125
-139 <= x_34_ <= 34
-117 <= x_35_ <= 81
-129 <= x_36_ <= 35
-124 <= x_37_ <= 81
-82 <= x_38_ <= 94
-123 <= x_39_ <= 103
-142 <= x_40_ <= 136
-67 <= x_41_ <= 122
-47 <= x_42_ <= 112
x_43_ = 72
-65 <= x_44_ <= 185
-183 <= x_45_ <= 88
-77 <= x_46_ <= 117
-119 <= x_47_ <= 16
-141 <= x_48_ <= 52
-133 <= x_49_ <= 13
-153 <= x_50_ <= 94
-59 <= x_51_ <= 102
-122 <= x_52_ <= 112
-67 <= x_53_ <= 106
-12 <= x_54_ <= 70
-55 <= x_55_ <= 80
-89 <= x_56_ <= 128
-73 <= x_57_ <= 112
-102 <= x_58_ <= 120
-39 <= x_59_ <= 79
1 <= x_60_ <= 97
-75 <= x_61_ <= 84
-76 <= x_62_ <= 116
-63 <= x_63_ <= 160
-79 <= x_64_ <= 80
-77 <= x_65_ <= 103
-48 <= x_66_ <= 92
-145 <= x_67_ <= 43
-136 <= x_68_ <= 34
-70 <= x_69_ <= 27
-89 <= x_70_ <= 85
-116 <= x_71_ <= 171
-129 <= x_72_ <= 142
-132 <= x_73_ <= 26
-107 <= x_74_ <= 52
-91 <= x_75_ <= 52
-29 <= x_76_ <= 114
-33 <= x_77_ <= 130
-72 <= x_78_ <= 114
-89 <= x_79_ <= 70
-103 <= x_80_ <= 148
-63 <= x_81_ <= 110
-108 <= x_82_ <= 68
-111 <= x_83_ <= 111
-61 <= x_84_ <= 114
-43 <= x_85_ <= 101
-61 <= x_86_ <= 56
-43 <= x_87_ <= 63
-124 <= x_88_ <= 58
-63 <= x_89_ <= 57
x_90_ = -60
-116 <= x_91_ <= 61
-36 <= x_92_ <= 73
-50 <= x_93_ <= 61
-64 <= x_94_ <= -41
x_95_ = 29
-52 <= x_96_ <= 96
26 <= x_97_ <= 110
-79 <= x_98_ <= 40
-114 <= x_99_ <= 146
-43 <= x_100_ <= 53
-41 <= y_1_ <= 63
-66 <= y_2_ <= 89
-72 <= y_3_ <= 106
-84 <= y_4_ <= 103
-140 <= y_5_ <= 41
-62 <= y_6_ <= 90
-46 <= y_7_ <= 69
-88 <= y_8_ <= -36
-94 <= y_9_ <= 118
-113 <= y_10_ <= 34
-44 <= y_11_ <= 70
-101 <= y_12_ <= 109
-103 <= y_13_ <= 112
-153 <= y_14_ <= 40
-152 <= y_15_ <= 42
-157 <= y_16_ <= 93
-126 <= y_17_ <= 13
9 <= y_18_ <= 115
-127 <= y_19_ <= 102
-131 <= y_20_ <= 104
-73 <= y_21_ <= 143
-112 <= y_22_ <= 49
-100 <= y_23_ <= 129
-93 <= y_24_ <= 79
-103 <= y_25_ <= 77
-83 <= y_26_ <= -41
2 <= y_27_ <= 97
-89 <= y_28_ <= 118
-59 <= y_29_ <= 88
-114 <= y_30_ <= 68
-63 <= y_31_ <= 48
-119 <= y_32_ <= 6
-58 <= y_33_ <= 123
-145 <= y_34_ <= 32
-99 <= y_35_ <= 79
-102 <= y_36_ <= 33
-93 <= y_37_ <= 79
-91 <= y_38_ <= 92
-124 <= y_39_ <= 101
-109 <= y_40_ <= 134
-97 <= y_41_ <= 120
-83 <= y_42_ <= 110
y_43_ = 17
-120 <= y_44_ <= 154
-160 <= y_45_ <= 86
-57 <= y_46_ <= 115
-113 <= y_47_ <= 14
-146 <= y_48_ <= 50
-135 <= y_49_ <= 11
-166 <= y_50_ <= 92
-26 <= y_51_ <= 100
-118 <= y_52_ <= 110
-34 <= y_53_ <= 104
21 <= y_54_ <= 94
-50 <= y_55_ <= 78
-58 <= y_56_ <= 126
-74 <= y_57_ <= 110
-70 <= y_58_ <= 118
-7 <= y_59_ <= 77
-35 <= y_60_ <= 88
-110 <= y_61_ <= 82
-73 <= y_62_ <= 114
-98 <= y_63_ <= 152
-59 <= y_64_ <= 78
-74 <= y_65_ <= 101
-45 <= y_66_ <= 90
-118 <= y_67_ <= 41
-109 <= y_68_ <= 32
-86 <= y_69_ <= 25
-65 <= y_70_ <= 83
-83 <= y_71_ <= 169
-127 <= y_72_ <= 140
-138 <= y_73_ <= 24
-129 <= y_74_ <= 50
-90 <= y_75_ <= 50
-84 <= y_76_ <= 112
-88 <= y_77_ <= 122
-39 <= y_78_ <= 112
-112 <= y_79_ <= 68
-70 <= y_80_ <= 146
-71 <= y_81_ <= 108
-141 <= y_82_ <= 66
-78 <= y_83_ <= 109
-28 <= y_84_ <= 112
-10 <= y_85_ <= 125
-30 <= y_86_ <= 54
-57 <= y_87_ <= 61
-112 <= y_88_ <= 56
-37 <= y_89_ <= 55
y_90_ = -62
-145 <= y_91_ <= 59
-3 <= y_92_ <= 71
-19 <= y_93_ <= 59
-71 <= y_94_ <= -43
y_95_ = 62
-19 <= y_96_ <= 94
-29 <= y_97_ <= 63
-102 <= y_98_ <= 38
-163 <= y_99_ <= 144
-79 <= y_100_ <= 51
General
x_1_
x_2_
x_3_
x_4_
x_5_
x_6_
x_7_
x_8_
x_9_
x_10_
x_11_
x_12_
x_13_
x_14_
x_15_
x_16_
x_17_
x_18_
x_19_
x_20_
x_21_
x_22_
x_23_
x_24_
x_25_
x_26_
x_27_
x_28_
x_29_
x_30_
x_31_
x_32_
x_33_
x_34_
x_35_
x_36_
x_37_
x_38_
x_39_
x_40_
x_41_
x_42_
x_43_
x_44_
x_45_
x_46_
x_47_
x_48_
x_49_
x_50_
x_51_
x_52_
x_53_
x_54_
x_55_
x_56_
x_57_
x_58_
x_59_
x_60_
x_61_
x_62_
x_63_
x_64_
x_65_
x_66_
x_67_
x_68_
x_69_
x_70_
x_71_
x_72_
x_73_
x_74_
x_75_
x_76_
x_77_
x_78_
x_79_
x_80_
x_81_
x_82_
x_83_
x_84_
x_85_
x_86_
x_87_
x_88_
x_89_
x_90_
x_91_
x_92_
x_93_
x_94_
x_95_
x_96_
x_97_
x_98_
x_99_
x_100_
y_1_
y_2_
y_3_
y_4_
y_5_
y_6_
y_7_
y_8_
y_9_
y_10_
y_11_
y_12_
y_13_
y_14_
y_15_
y_16_
y_17_
y_18_
y_19_
y_20_
y_21_
y_22_
y_23_
y_24_
y_25_
y_26_
y_27_
y_28_
y_29_
y_30_
y_31_
y_32_
y_33_
y_34_
y_35_
y_36_
y_37_
y_38_
y_39_
y_40_
y_41_
y_42_
y_43_
y_44_
y_45_
y_46_
y_47_
y_48_
y_49_
y_50_
y_51_
y_52_
y_53_
y_54_
y_55_
y_56_
y_57_
y_58_
y_59_
y_60_
y_61_
y_62_
y_63_
y_64_
y_65_
y_66_
y_67_
y_68_
y_69_
y_70_
y_71_
y_72_
y_73_
y_74_
y_75_
y_76_
y_77_
y_78_
y_79_
y_80_
y_81_
y_82_
y_83_
y_84_
y_85_
y_86_
y_87_
y_88_
y_89_
y_90_
y_91_
y_92_
y_93_
y_94_
y_95_
y_96_
y_97_
y_98_
y_99_
y_100_
End
