minimize
obj: 
subject to
c1: -156 x_1_ + 52 y_1_ + [ 1 x_1_ ^ 2 + 1 y_1_ ^ 2 ] <= 13633.451220675044
c2: -156 x_2_ + 52 y_2_ + [ 1 x_2_ ^ 2 + 1 y_2_ ^ 2 ] <= 35597.38
c3: -156 x_3_ + 52 y_3_ + [ 1 x_3_ ^ 2 + 1 y_3_ ^ 2 ] <= 4207.6733918633945
c4: -156 x_4_ + 52 y_4_ + [ 1 x_4_ ^ 2 + 1 y_4_ ^ 2 ] <= 30307.58940863776
c5: -156 x_5_ + 52 y_5_ + [ 1 x_5_ ^ 2 + 1 y_5_ ^ 2 ] <= 29468.34623971161
c6: -156 x_6_ + 52 y_6_ + [ 1 x_6_ ^ 2 + 1 y_6_ ^ 2 ] <= 36541.549847244605
c7: -156 x_7_ + 52 y_7_ + [ 1 x_7_ ^ 2 + 1 y_7_ ^ 2 ] <= 46669.31246301065
c8: -156 x_8_ + 52 y_8_ + [ 1 x_8_ ^ 2 + 1 y_8_ ^ 2 ] <= -3624.9600000000005
c9: -156 x_10_ + 52 y_10_ + [ 1 x_10_ ^ 2 + 1 y_10_ ^ 2 ] <= -4946.04
c10: -156 x_11_ + 52 y_11_ + [ 1 x_11_ ^ 2 + 1 y_11_ ^ 2 ] <= 3214.9957167240445
c11: -156 x_12_ + 52 y_12_ + [ 1 x_12_ ^ 2 + 1 y_12_ ^ 2 ] <= 10111.039999999997
c12: -156 x_13_ + 52 y_13_ + [ 1 x_13_ ^ 2 + 1 y_13_ ^ 2 ] <= 24029.34757378313
c13: -156 x_14_ + 52 y_14_ + [ 1 x_14_ ^ 2 + 1 y_14_ ^ 2 ] <= 44786.64557346755
c14: -156 x_15_ + 52 y_15_ + [ 1 x_15_ ^ 2 + 1 y_15_ ^ 2 ] <= 2841.059999999996
c15: -156 x_16_ + 52 y_16_ + [ 1 x_16_ ^ 2 + 1 y_16_ ^ 2 ] <= 33605.480337440305
c16: -156 x_17_ + 52 y_17_ + [ 1 x_17_ ^ 2 + 1 y_17_ ^ 2 ] <= 63999.07841653099
c17: -156 x_18_ + 52 y_18_ + [ 1 x_18_ ^ 2 + 1 y_18_ ^ 2 ] <= 59367.21417804496
c18: -156 x_19_ + 52 y_19_ + [ 1 x_19_ ^ 2 + 1 y_19_ ^ 2 ] <= 47134.15949721115
c19: -156 x_20_ + 52 y_20_ + [ 1 x_20_ ^ 2 + 1 y_20_ ^ 2 ] <= 31641.209999999992
c20: 118 x_1_ + 4 y_1_ + [ 1 x_1_ ^ 2 + 1 y_1_ ^ 2 ] <= 54588.98986263328
c21: 118 x_2_ + 4 y_2_ + [ 1 x_2_ ^ 2 + 1 y_2_ ^ 2 ] <= 4434.409999999997
c22: 118 x_3_ + 4 y_3_ + [ 1 x_3_ ^ 2 + 1 y_3_ ^ 2 ] <= 32396.130371821077
c23: 118 x_4_ + 4 y_4_ + [ 1 x_4_ ^ 2 + 1 y_4_ ^ 2 ] <= 22347.793666139984
c24: 118 x_5_ + 4 y_5_ + [ 1 x_5_ ^ 2 + 1 y_5_ ^ 2 ] <= 979.1999999999998
c25: 118 x_6_ + 4 y_6_ + [ 1 x_6_ ^ 2 + 1 y_6_ ^ 2 ] <= 8647.118651084988
c26: 118 x_7_ + 4 y_7_ + [ 1 x_7_ ^ 2 + 1 y_7_ ^ 2 ] <= 23329.215709568885
c27: 118 x_8_ + 4 y_8_ + [ 1 x_8_ ^ 2 + 1 y_8_ ^ 2 ] <= 48519.44739891238
c28: 118 x_9_ + 4 y_9_ + [ 1 x_9_ ^ 2 + 1 y_9_ ^ 2 ] <= 62642.21417804496
c29: 118 x_10_ + 4 y_10_ + [ 1 x_10_ ^ 2 + 1 y_10_ ^ 2 ] <= 42551.643009320396
c30: 118 x_11_ + 4 y_11_ + [ 1 x_11_ ^ 2 + 1 y_11_ ^ 2 ] <= 48514.28301891932
c31: 118 x_12_ + 4 y_12_ + [ 1 x_12_ ^ 2 + 1 y_12_ ^ 2 ] <= 38248.27927616753
c32: 118 x_13_ + 4 y_13_ + [ 1 x_13_ ^ 2 + 1 y_13_ ^ 2 ] <= 21702.87324914248
c33: 118 x_14_ + 4 y_14_ + [ 1 x_14_ ^ 2 + 1 y_14_ ^ 2 ] <= 96291.51629276053
c34: 118 x_15_ + 4 y_15_ + [ 1 x_15_ ^ 2 + 1 y_15_ ^ 2 ] <= 34995.633915033715
c35: 118 x_16_ + 4 y_16_ + [ 1 x_16_ ^ 2 + 1 y_16_ ^ 2 ] <= 6382.699999999999
c36: 118 x_17_ + 4 y_17_ + [ 1 x_17_ ^ 2 + 1 y_17_ ^ 2 ] <= -756.9900000000007
c37: 118 x_19_ + 4 y_19_ + [ 1 x_19_ ^ 2 + 1 y_19_ ^ 2 ] <= 17977.499999999993
c38: 118 x_20_ + 4 y_20_ + [ 1 x_20_ ^ 2 + 1 y_20_ ^ 2 ] <= 59302.990541937084
c39: -74 x_1_ + 84 y_1_ + [ 1 x_1_ ^ 2 + 1 y_1_ ^ 2 ] <= -474.32879776069876
c40: -74 x_2_ + 84 y_2_ + [ 1 x_2_ ^ 2 + 1 y_2_ ^ 2 ] <= 29850.57
c41: -74 x_4_ + 84 y_4_ + [ 1 x_4_ ^ 2 + 1 y_4_ ^ 2 ] <= 4576.329999999998
c42: -74 x_5_ + 84 y_5_ + [ 1 x_5_ ^ 2 + 1 y_5_ ^ 2 ] <= 11899.839999999997
c43: -74 x_6_ + 84 y_6_ + [ 1 x_6_ ^ 2 + 1 y_6_ ^ 2 ] <= 10629.370849537272
c44: -74 x_7_ + 84 y_7_ + [ 1 x_7_ ^ 2 + 1 y_7_ ^ 2 ] <= 17072.049999999996
c45: -74 x_8_ + 84 y_8_ + [ 1 x_8_ ^ 2 + 1 y_8_ ^ 2 ] <= -757.8771177728299
c46: -74 x_9_ + 84 y_9_ + [ 1 x_9_ ^ 2 + 1 y_9_ ^ 2 ] <= 7834.6733918633945
c47: -74 x_10_ + 84 y_10_ + [ 1 x_10_ ^ 2 + 1 y_10_ ^ 2 ] <= 738.1486466815113
c48: -74 x_11_ + 84 y_11_ + [ 1 x_11_ ^ 2 + 1 y_11_ ^ 2 ] <= -1642.2400000000005
c49: -74 x_12_ + 84 y_12_ + [ 1 x_12_ ^ 2 + 1 y_12_ ^ 2 ] <= 28846.014774348045
c50: -74 x_13_ + 84 y_13_ + [ 1 x_13_ ^ 2 + 1 y_13_ ^ 2 ] <= 14621.604314938548
c51: -74 x_14_ + 84 y_14_ + [ 1 x_14_ ^ 2 + 1 y_14_ ^ 2 ] <= 15307.424946661773
c52: -74 x_15_ + 84 y_15_ + [ 1 x_15_ ^ 2 + 1 y_15_ ^ 2 ] <= -3087.55
c53: -74 x_16_ + 84 y_16_ + [ 1 x_16_ ^ 2 + 1 y_16_ ^ 2 ] <= 8894.132924754984
c54: -74 x_17_ + 84 y_17_ + [ 1 x_17_ ^ 2 + 1 y_17_ ^ 2 ] <= 27572.088041606075
c55: -74 x_18_ + 84 y_18_ + [ 1 x_18_ ^ 2 + 1 y_18_ ^ 2 ] <= 32748.130371821077
c56: -74 x_19_ + 84 y_19_ + [ 1 x_19_ ^ 2 + 1 y_19_ ^ 2 ] <= 16503.419999999995
c57: -74 x_20_ + 84 y_20_ + [ 1 x_20_ ^ 2 + 1 y_20_ ^ 2 ] <= 28427.33104013668
quadratic_ranged_1_ub: [ 1 x_1_ ^ 2 - 2 x_2_ * x_1_ + 1 x_2_ ^ 2 + 1 y_1_ ^ 2 - 2 y_2_ * y_1_ + 1 y_2_ ^ 2 ] <= 52302.85
quadratic_ranged_2_ub: [ 1 x_2_ ^ 2 - 2 x_3_ * x_2_ + 1 x_3_ ^ 2 + 1 y_2_ ^ 2 - 2 y_3_ * y_2_ + 1 y_3_ ^ 2 ] <= 32983.57
quadratic_ranged_3_ub: [ 1 x_1_ ^ 2 - 2 x_4_ * x_1_ + 1 x_4_ ^ 2 + 1 y_1_ ^ 2 - 2 y_4_ * y_1_ + 1 y_4_ ^ 2 ] <= 17841.65
quadratic_ranged_4_ub: [ 1 x_3_ ^ 2 - 2 x_4_ * x_3_ + 1 x_4_ ^ 2 + 1 y_3_ ^ 2 - 2 y_4_ * y_3_ + 1 y_4_ ^ 2 ] <= 7709.33
quadratic_ranged_5_ub: [ 1 x_3_ ^ 2 - 2 x_5_ * x_3_ + 1 x_5_ ^ 2 + 1 y_3_ ^ 2 - 2 y_5_ * y_3_ + 1 y_5_ ^ 2 ] <= 15032.84
quadratic_ranged_6_ub: [ 1 x_4_ ^ 2 - 2 x_5_ * x_4_ + 1 x_5_ ^ 2 + 1 y_4_ ^ 2 - 2 y_5_ * y_4_ + 1 y_5_ ^ 2 ] <= 14351.09
quadratic_ranged_7_ub: [ 1 x_1_ ^ 2 - 2 x_6_ * x_1_ + 1 x_6_ ^ 2 + 1 y_1_ ^ 2 - 2 y_6_ * y_1_ + 1 y_6_ ^ 2 ] <= 22706.82
quadratic_ranged_8_ub: [ 1 x_4_ ^ 2 - 2 x_6_ * x_4_ + 1 x_6_ ^ 2 + 1 y_4_ ^ 2 - 2 y_6_ * y_4_ + 1 y_6_ ^ 2 ] <= 2558.33
quadratic_ranged_9_ub: [ 1 x_5_ ^ 2 - 2 x_6_ * x_5_ + 1 x_6_ ^ 2 + 1 y_5_ ^ 2 - 2 y_6_ * y_5_ + 1 y_6_ ^ 2 ] <= 29001.14
quadratic_ranged_10_ub: [ 1 x_3_ ^ 2 - 2 x_7_ * x_3_ + 1 x_7_ ^ 2 + 1 y_3_ ^ 2 - 2 y_7_ * y_3_ + 1 y_7_ ^ 2 ] <= 20205.05
quadratic_ranged_11_ub: [ 1 x_6_ ^ 2 - 2 x_7_ * x_6_ + 1 x_7_ ^ 2 + 1 y_6_ ^ 2 - 2 y_7_ * y_6_ + 1 y_7_ ^ 2 ] <= 2873.45
quadratic_ranged_12_ub: [ 1 x_2_ ^ 2 - 2 x_8_ * x_2_ + 1 x_8_ ^ 2 + 1 y_2_ ^ 2 - 2 y_8_ * y_2_ + 1 y_8_ ^ 2 ] <= 49160.74
quadratic_ranged_13_ub: [ 1 x_6_ ^ 2 - 2 x_8_ * x_6_ + 1 x_8_ ^ 2 + 1 y_6_ ^ 2 - 2 y_8_ * y_6_ + 1 y_8_ ^ 2 ] <= 23134.05
quadratic_ranged_14_ub: [ 1 x_7_ ^ 2 - 2 x_8_ * x_7_ + 1 x_8_ ^ 2 + 1 y_7_ ^ 2 - 2 y_8_ * y_7_ + 1 y_8_ ^ 2 ] <= 30679.760000000002
quadratic_ranged_15_ub: [ 1 x_2_ ^ 2 - 2 x_9_ * x_2_ + 1 x_9_ ^ 2 + 1 y_2_ ^ 2 - 2 y_9_ * y_2_ + 1 y_9_ ^ 2 ] <= 42357.38
quadratic_ranged_16_ub: [ 1 x_8_ ^ 2 - 2 x_9_ * x_8_ + 1 x_9_ ^ 2 + 1 y_8_ ^ 2 - 2 y_9_ * y_8_ + 1 y_9_ ^ 2 ] <= 3135.04
quadratic_ranged_17_ub: [ 1 x_5_ ^ 2 - 2 x_10_ * x_5_ + 1 x_10_ ^ 2 + 1 y_5_ ^ 2 - 2 y_10_ * y_5_ + 1 y_10_ ^ 2 ] <= 21829.13
quadratic_ranged_18_ub: [ 1 x_8_ ^ 2 - 2 x_10_ * x_8_ + 1 x_10_ ^ 2 + 1 y_8_ ^ 2 - 2 y_10_ * y_8_ + 1 y_10_ ^ 2 ] <= 181.8
quadratic_ranged_19_ub: [ 1 x_9_ ^ 2 - 2 x_10_ * x_9_ + 1 x_10_ ^ 2 + 1 y_9_ ^ 2 - 2 y_10_ * y_9_ + 1 y_10_ ^ 2 ] <= 1813.96
quadratic_ranged_20_ub: [ 1 x_3_ ^ 2 - 2 x_11_ * x_3_ + 1 x_11_ ^ 2 + 1 y_3_ ^ 2 - 2 y_11_ * y_3_ + 1 y_11_ ^ 2 ] <= 1490.76
quadratic_ranged_21_ub: [ 1 x_10_ ^ 2 - 2 x_11_ * x_10_ + 1 x_11_ ^ 2 + 1 y_10_ ^ 2 - 2 y_11_ * y_10_ + 1 y_11_ ^ 2 ] <= 3281.4900000000002
quadratic_ranged_22_ub: [ 1 x_9_ ^ 2 - 2 x_12_ * x_9_ + 1 x_12_ ^ 2 + 1 y_9_ ^ 2 - 2 y_12_ * y_9_ + 1 y_12_ ^ 2 ] <= 16871.04
quadratic_ranged_23_ub: [ 1 x_11_ ^ 2 - 2 x_12_ * x_11_ + 1 x_12_ ^ 2 + 1 y_11_ ^ 2 - 2 y_12_ * y_11_ + 1 y_12_ ^ 2 ] <= 26390.29
quadratic_ranged_24_ub: [ 1 x_6_ ^ 2 - 2 x_13_ * x_6_ + 1 x_13_ ^ 2 + 1 y_6_ ^ 2 - 2 y_13_ * y_6_ + 1 y_13_ ^ 2 ] <= 2929
quadratic_ranged_25_ub: [ 1 x_12_ ^ 2 - 2 x_13_ * x_12_ + 1 x_13_ ^ 2 + 1 y_12_ ^ 2 - 2 y_13_ * y_12_ + 1 y_13_ ^ 2 ] <= 2077.57
quadratic_ranged_26_ub: [ 1 x_13_ ^ 2 - 2 x_14_ * x_13_ + 1 x_14_ ^ 2 + 1 y_13_ ^ 2 - 2 y_14_ * y_13_ + 1 y_14_ ^ 2 ] <= 24701.57
quadratic_ranged_27_ub: [ 1 x_1_ ^ 2 - 2 x_15_ * x_1_ + 1 x_15_ ^ 2 + 1 y_1_ ^ 2 - 2 y_15_ * y_1_ + 1 y_15_ ^ 2 ] <= 2008.89
quadratic_ranged_28_ub: [ 1 x_3_ ^ 2 - 2 x_15_ * x_3_ + 1 x_15_ ^ 2 + 1 y_3_ ^ 2 - 2 y_15_ * y_3_ + 1 y_15_ ^ 2 ] <= 45.45
quadratic_ranged_29_ub: [ 1 x_6_ ^ 2 - 2 x_15_ * x_6_ + 1 x_15_ ^ 2 + 1 y_6_ ^ 2 - 2 y_15_ * y_6_ + 1 y_15_ ^ 2 ] <= 12226.05
quadratic_ranged_30_ub: [ 1 x_8_ ^ 2 - 2 x_15_ * x_8_ + 1 x_15_ ^ 2 + 1 y_8_ ^ 2 - 2 y_15_ * y_8_ + 1 y_15_ ^ 2 ] <= 1763.46
quadratic_ranged_31_ub: [ 1 x_13_ ^ 2 - 2 x_15_ * x_13_ + 1 x_15_ ^ 2 + 1 y_13_ ^ 2 - 2 y_15_ * y_13_ + 1 y_15_ ^ 2 ] <= 16003.45
quadratic_ranged_32_ub: [ 1 x_14_ ^ 2 - 2 x_15_ * x_14_ + 1 x_15_ ^ 2 + 1 y_14_ ^ 2 - 2 y_15_ * y_14_ + 1 y_15_ ^ 2 ] <= 16654.9
quadratic_ranged_33_ub: [ 1 x_2_ ^ 2 - 2 x_16_ * x_2_ + 1 x_16_ ^ 2 + 1 y_2_ ^ 2 - 2 y_16_ * y_2_ + 1 y_16_ ^ 2 ] <= 34801.57
quadratic_ranged_34_ub: [ 1 x_15_ ^ 2 - 2 x_16_ * x_15_ + 1 x_16_ ^ 2 + 1 y_15_ ^ 2 - 2 y_16_ * y_15_ + 1 y_16_ ^ 2 ] <= 10593.89
quadratic_ranged_35_ub: [ 1 x_6_ ^ 2 - 2 x_17_ * x_6_ + 1 x_17_ ^ 2 + 1 y_6_ ^ 2 - 2 y_17_ * y_6_ + 1 y_17_ ^ 2 ] <= 3354.21
quadratic_ranged_36_ub: [ 1 x_13_ ^ 2 - 2 x_17_ * x_13_ + 1 x_17_ ^ 2 + 1 y_13_ ^ 2 - 2 y_17_ * y_13_ + 1 y_17_ ^ 2 ] <= 11337.25
quadratic_ranged_37_ub: [ 1 x_16_ ^ 2 - 2 x_17_ * x_16_ + 1 x_17_ ^ 2 + 1 y_16_ ^ 2 - 2 y_17_ * y_16_ + 1 y_17_ ^ 2 ] <= 15963.05
quadratic_ranged_38_ub: [ 1 x_2_ ^ 2 - 2 x_18_ * x_2_ + 1 x_18_ ^ 2 + 1 y_2_ ^ 2 - 2 y_18_ * y_2_ + 1 y_18_ ^ 2 ] <= 7919.41
quadratic_ranged_39_ub: [ 1 x_5_ ^ 2 - 2 x_18_ * x_5_ + 1 x_18_ ^ 2 + 1 y_5_ ^ 2 - 2 y_18_ * y_5_ + 1 y_18_ ^ 2 ] <= 4464.2
quadratic_ranged_40_ub: [ 1 x_16_ ^ 2 - 2 x_18_ * x_16_ + 1 x_18_ ^ 2 + 1 y_16_ ^ 2 - 2 y_18_ * y_16_ + 1 y_18_ ^ 2 ] <= 9867.7
quadratic_ranged_41_ub: [ 1 x_17_ ^ 2 - 2 x_18_ * x_17_ + 1 x_18_ ^ 2 + 1 y_17_ ^ 2 - 2 y_18_ * y_17_ + 1 y_18_ ^ 2 ] <= 2728.01
quadratic_ranged_42_ub: [ 1 x_1_ ^ 2 - 2 x_19_ * x_1_ + 1 x_19_ ^ 2 + 1 y_1_ ^ 2 - 2 y_19_ * y_1_ + 1 y_19_ ^ 2 ] <= 29477.86
quadratic_ranged_43_ub: [ 1 x_3_ ^ 2 - 2 x_19_ * x_3_ + 1 x_19_ ^ 2 + 1 y_3_ ^ 2 - 2 y_19_ * y_3_ + 1 y_19_ ^ 2 ] <= 19636.420000000002
quadratic_ranged_44_ub: [ 1 x_6_ ^ 2 - 2 x_19_ * x_6_ + 1 x_19_ ^ 2 + 1 y_6_ ^ 2 - 2 y_19_ * y_6_ + 1 y_19_ ^ 2 ] <= 1474.6
quadratic_ranged_45_ub: [ 1 x_8_ ^ 2 - 2 x_19_ * x_8_ + 1 x_19_ ^ 2 + 1 y_8_ ^ 2 - 2 y_19_ * y_8_ + 1 y_19_ ^ 2 ] <= 31032.25
quadratic_ranged_46_ub: [ 1 x_11_ ^ 2 - 2 x_19_ * x_11_ + 1 x_19_ ^ 2 + 1 y_11_ ^ 2 - 2 y_19_ * y_11_ + 1 y_19_ ^ 2 ] <= 28532.5
quadratic_ranged_47_ub: [ 1 x_17_ ^ 2 - 2 x_19_ * x_17_ + 1 x_19_ ^ 2 + 1 y_17_ ^ 2 - 2 y_19_ * y_17_ + 1 y_19_ ^ 2 ] <= 9264.73
quadratic_ranged_48_ub: [ 1 x_18_ ^ 2 - 2 x_19_ * x_18_ + 1 x_19_ ^ 2 + 1 y_18_ ^ 2 - 2 y_19_ * y_18_ + 1 y_19_ ^ 2 ] <= 21462.5
quadratic_ranged_49_ub: [ 1 x_1_ ^ 2 - 2 x_20_ * x_1_ + 1 x_20_ ^ 2 + 1 y_1_ ^ 2 - 2 y_20_ * y_1_ + 1 y_20_ ^ 2 ] <= 49158.72
quadratic_ranged_50_ub: [ 1 x_4_ ^ 2 - 2 x_20_ * x_4_ + 1 x_20_ ^ 2 + 1 y_4_ ^ 2 - 2 y_20_ * y_4_ + 1 y_20_ ^ 2 ] <= 8072.93
quadratic_ranged_51_ub: [ 1 x_9_ ^ 2 - 2 x_20_ * x_9_ + 1 x_20_ ^ 2 + 1 y_9_ ^ 2 - 2 y_20_ * y_9_ + 1 y_20_ ^ 2 ] <= 38401.21
quadratic_ranged_52_ub: [ 1 x_10_ ^ 2 - 2 x_20_ * x_10_ + 1 x_20_ ^ 2 + 1 y_10_ ^ 2 - 2 y_20_ * y_10_ + 1 y_20_ ^ 2 ] <= 44550.090000000004
quadratic_ranged_53_ub: [ 1 x_16_ ^ 2 - 2 x_20_ * x_16_ + 1 x_20_ ^ 2 + 1 y_16_ ^ 2 - 2 y_20_ * y_16_ + 1 y_20_ ^ 2 ] <= 35691.38
quadratic_ranged_54_ub: [ 1 x_19_ ^ 2 - 2 x_20_ * x_19_ + 1 x_20_ ^ 2 + 1 y_19_ ^ 2 - 2 y_20_ * y_19_ + 1 y_20_ ^ 2 ] <= 17503.3
quadratic_ranged_1_lb: [ 1 x_1_ ^ 2 - 2 x_2_ * x_1_ + 1 x_2_ ^ 2 + 1 y_1_ ^ 2 - 2 y_2_ * y_1_ + 1 y_2_ ^ 2 ] >= 51267.15
quadratic_ranged_2_lb: [ 1 x_2_ ^ 2 - 2 x_3_ * x_2_ + 1 x_3_ ^ 2 + 1 y_2_ ^ 2 - 2 y_3_ * y_2_ + 1 y_3_ ^ 2 ] >= 32330.43
quadratic_ranged_3_lb: [ 1 x_1_ ^ 2 - 2 x_4_ * x_1_ + 1 x_4_ ^ 2 + 1 y_1_ ^ 2 - 2 y_4_ * y_1_ + 1 y_4_ ^ 2 ] >= 17488.35
quadratic_ranged_4_lb: [ 1 x_3_ ^ 2 - 2 x_4_ * x_3_ + 1 x_4_ ^ 2 + 1 y_3_ ^ 2 - 2 y_4_ * y_3_ + 1 y_4_ ^ 2 ] >= 7556.67
quadratic_ranged_5_lb: [ 1 x_3_ ^ 2 - 2 x_5_ * x_3_ + 1 x_5_ ^ 2 + 1 y_3_ ^ 2 - 2 y_5_ * y_3_ + 1 y_5_ ^ 2 ] >= 14735.16
quadratic_ranged_6_lb: [ 1 x_4_ ^ 2 - 2 x_5_ * x_4_ + 1 x_5_ ^ 2 + 1 y_4_ ^ 2 - 2 y_5_ * y_4_ + 1 y_5_ ^ 2 ] >= 14066.91
quadratic_ranged_7_lb: [ 1 x_1_ ^ 2 - 2 x_6_ * x_1_ + 1 x_6_ ^ 2 + 1 y_1_ ^ 2 - 2 y_6_ * y_1_ + 1 y_6_ ^ 2 ] >= 22257.18
quadratic_ranged_8_lb: [ 1 x_4_ ^ 2 - 2 x_6_ * x_4_ + 1 x_6_ ^ 2 + 1 y_4_ ^ 2 - 2 y_6_ * y_4_ + 1 y_6_ ^ 2 ] >= 2507.67
quadratic_ranged_9_lb: [ 1 x_5_ ^ 2 - 2 x_6_ * x_5_ + 1 x_6_ ^ 2 + 1 y_5_ ^ 2 - 2 y_6_ * y_5_ + 1 y_6_ ^ 2 ] >= 28426.86
quadratic_ranged_10_lb: [ 1 x_3_ ^ 2 - 2 x_7_ * x_3_ + 1 x_7_ ^ 2 + 1 y_3_ ^ 2 - 2 y_7_ * y_3_ + 1 y_7_ ^ 2 ] >= 19804.95
quadratic_ranged_11_lb: [ 1 x_6_ ^ 2 - 2 x_7_ * x_6_ + 1 x_7_ ^ 2 + 1 y_6_ ^ 2 - 2 y_7_ * y_6_ + 1 y_7_ ^ 2 ] >= 2816.55
quadratic_ranged_12_lb: [ 1 x_2_ ^ 2 - 2 x_8_ * x_2_ + 1 x_8_ ^ 2 + 1 y_2_ ^ 2 - 2 y_8_ * y_2_ + 1 y_8_ ^ 2 ] >= 48187.26
quadratic_ranged_13_lb: [ 1 x_6_ ^ 2 - 2 x_8_ * x_6_ + 1 x_8_ ^ 2 + 1 y_6_ ^ 2 - 2 y_8_ * y_6_ + 1 y_8_ ^ 2 ] >= 22675.95
quadratic_ranged_14_lb: [ 1 x_7_ ^ 2 - 2 x_8_ * x_7_ + 1 x_8_ ^ 2 + 1 y_7_ ^ 2 - 2 y_8_ * y_7_ + 1 y_8_ ^ 2 ] >= 30072.239999999998
quadratic_ranged_15_lb: [ 1 x_2_ ^ 2 - 2 x_9_ * x_2_ + 1 x_9_ ^ 2 + 1 y_2_ ^ 2 - 2 y_9_ * y_2_ + 1 y_9_ ^ 2 ] >= 41518.62
quadratic_ranged_16_lb: [ 1 x_8_ ^ 2 - 2 x_9_ * x_8_ + 1 x_9_ ^ 2 + 1 y_8_ ^ 2 - 2 y_9_ * y_8_ + 1 y_9_ ^ 2 ] >= 3072.96
quadratic_ranged_17_lb: [ 1 x_5_ ^ 2 - 2 x_10_ * x_5_ + 1 x_10_ ^ 2 + 1 y_5_ ^ 2 - 2 y_10_ * y_5_ + 1 y_10_ ^ 2 ] >= 21396.87
quadratic_ranged_18_lb: [ 1 x_8_ ^ 2 - 2 x_10_ * x_8_ + 1 x_10_ ^ 2 + 1 y_8_ ^ 2 - 2 y_10_ * y_8_ + 1 y_10_ ^ 2 ] >= 178.2
quadratic_ranged_19_lb: [ 1 x_9_ ^ 2 - 2 x_10_ * x_9_ + 1 x_10_ ^ 2 + 1 y_9_ ^ 2 - 2 y_10_ * y_9_ + 1 y_10_ ^ 2 ] >= 1778.04
quadratic_ranged_20_lb: [ 1 x_3_ ^ 2 - 2 x_11_ * x_3_ + 1 x_11_ ^ 2 + 1 y_3_ ^ 2 - 2 y_11_ * y_3_ + 1 y_11_ ^ 2 ] >= 1461.24
quadratic_ranged_21_lb: [ 1 x_10_ ^ 2 - 2 x_11_ * x_10_ + 1 x_11_ ^ 2 + 1 y_10_ ^ 2 - 2 y_11_ * y_10_ + 1 y_11_ ^ 2 ] >= 3216.5099999999998
quadratic_ranged_22_lb: [ 1 x_9_ ^ 2 - 2 x_12_ * x_9_ + 1 x_12_ ^ 2 + 1 y_9_ ^ 2 - 2 y_12_ * y_9_ + 1 y_12_ ^ 2 ] >= 16536.96
quadratic_ranged_23_lb: [ 1 x_11_ ^ 2 - 2 x_12_ * x_11_ + 1 x_12_ ^ 2 + 1 y_11_ ^ 2 - 2 y_12_ * y_11_ + 1 y_12_ ^ 2 ] >= 25867.71
quadratic_ranged_24_lb: [ 1 x_6_ ^ 2 - 2 x_13_ * x_6_ + 1 x_13_ ^ 2 + 1 y_6_ ^ 2 - 2 y_13_ * y_6_ + 1 y_13_ ^ 2 ] >= 2871
quadratic_ranged_25_lb: [ 1 x_12_ ^ 2 - 2 x_13_ * x_12_ + 1 x_13_ ^ 2 + 1 y_12_ ^ 2 - 2 y_13_ * y_12_ + 1 y_13_ ^ 2 ] >= 2036.43
quadratic_ranged_26_lb: [ 1 x_13_ ^ 2 - 2 x_14_ * x_13_ + 1 x_14_ ^ 2 + 1 y_13_ ^ 2 - 2 y_14_ * y_13_ + 1 y_14_ ^ 2 ] >= 24212.43
quadratic_ranged_27_lb: [ 1 x_1_ ^ 2 - 2 x_15_ * x_1_ + 1 x_15_ ^ 2 + 1 y_1_ ^ 2 - 2 y_15_ * y_1_ + 1 y_15_ ^ 2 ] >= 1969.11
quadratic_ranged_28_lb: [ 1 x_3_ ^ 2 - 2 x_15_ * x_3_ + 1 x_15_ ^ 2 + 1 y_3_ ^ 2 - 2 y_15_ * y_3_ + 1 y_15_ ^ 2 ] >= 44.55
quadratic_ranged_29_lb: [ 1 x_6_ ^ 2 - 2 x_15_ * x_6_ + 1 x_15_ ^ 2 + 1 y_6_ ^ 2 - 2 y_15_ * y_6_ + 1 y_15_ ^ 2 ] >= 11983.95
quadratic_ranged_30_lb: [ 1 x_8_ ^ 2 - 2 x_15_ * x_8_ + 1 x_15_ ^ 2 + 1 y_8_ ^ 2 - 2 y_15_ * y_8_ + 1 y_15_ ^ 2 ] >= 1728.54
quadratic_ranged_31_lb: [ 1 x_13_ ^ 2 - 2 x_15_ * x_13_ + 1 x_15_ ^ 2 + 1 y_13_ ^ 2 - 2 y_15_ * y_13_ + 1 y_15_ ^ 2 ] >= 15686.55
quadratic_ranged_32_lb: [ 1 x_14_ ^ 2 - 2 x_15_ * x_14_ + 1 x_15_ ^ 2 + 1 y_14_ ^ 2 - 2 y_15_ * y_14_ + 1 y_15_ ^ 2 ] >= 16325.1
quadratic_ranged_33_lb: [ 1 x_2_ ^ 2 - 2 x_16_ * x_2_ + 1 x_16_ ^ 2 + 1 y_2_ ^ 2 - 2 y_16_ * y_2_ + 1 y_16_ ^ 2 ] >= 34112.43
quadratic_ranged_34_lb: [ 1 x_15_ ^ 2 - 2 x_16_ * x_15_ + 1 x_16_ ^ 2 + 1 y_15_ ^ 2 - 2 y_16_ * y_15_ + 1 y_16_ ^ 2 ] >= 10384.11
quadratic_ranged_35_lb: [ 1 x_6_ ^ 2 - 2 x_17_ * x_6_ + 1 x_17_ ^ 2 + 1 y_6_ ^ 2 - 2 y_17_ * y_6_ + 1 y_17_ ^ 2 ] >= 3287.79
quadratic_ranged_36_lb: [ 1 x_13_ ^ 2 - 2 x_17_ * x_13_ + 1 x_17_ ^ 2 + 1 y_13_ ^ 2 - 2 y_17_ * y_13_ + 1 y_17_ ^ 2 ] >= 11112.75
quadratic_ranged_37_lb: [ 1 x_16_ ^ 2 - 2 x_17_ * x_16_ + 1 x_17_ ^ 2 + 1 y_16_ ^ 2 - 2 y_17_ * y_16_ + 1 y_17_ ^ 2 ] >= 15646.95
quadratic_ranged_38_lb: [ 1 x_2_ ^ 2 - 2 x_18_ * x_2_ + 1 x_18_ ^ 2 + 1 y_2_ ^ 2 - 2 y_18_ * y_2_ + 1 y_18_ ^ 2 ] >= 7762.59
quadratic_ranged_39_lb: [ 1 x_5_ ^ 2 - 2 x_18_ * x_5_ + 1 x_18_ ^ 2 + 1 y_5_ ^ 2 - 2 y_18_ * y_5_ + 1 y_18_ ^ 2 ] >= 4375.8
quadratic_ranged_40_lb: [ 1 x_16_ ^ 2 - 2 x_18_ * x_16_ + 1 x_18_ ^ 2 + 1 y_16_ ^ 2 - 2 y_18_ * y_16_ + 1 y_18_ ^ 2 ] >= 9672.3
quadratic_ranged_41_lb: [ 1 x_17_ ^ 2 - 2 x_18_ * x_17_ + 1 x_18_ ^ 2 + 1 y_17_ ^ 2 - 2 y_18_ * y_17_ + 1 y_18_ ^ 2 ] >= 2673.99
quadratic_ranged_42_lb: [ 1 x_1_ ^ 2 - 2 x_19_ * x_1_ + 1 x_19_ ^ 2 + 1 y_1_ ^ 2 - 2 y_19_ * y_1_ + 1 y_19_ ^ 2 ] >= 28894.14
quadratic_ranged_43_lb: [ 1 x_3_ ^ 2 - 2 x_19_ * x_3_ + 1 x_19_ ^ 2 + 1 y_3_ ^ 2 - 2 y_19_ * y_3_ + 1 y_19_ ^ 2 ] >= 19247.579999999998
quadratic_ranged_44_lb: [ 1 x_6_ ^ 2 - 2 x_19_ * x_6_ + 1 x_19_ ^ 2 + 1 y_6_ ^ 2 - 2 y_19_ * y_6_ + 1 y_19_ ^ 2 ] >= 1445.4
quadratic_ranged_45_lb: [ 1 x_8_ ^ 2 - 2 x_19_ * x_8_ + 1 x_19_ ^ 2 + 1 y_8_ ^ 2 - 2 y_19_ * y_8_ + 1 y_19_ ^ 2 ] >= 30417.75
quadratic_ranged_46_lb: [ 1 x_11_ ^ 2 - 2 x_19_ * x_11_ + 1 x_19_ ^ 2 + 1 y_11_ ^ 2 - 2 y_19_ * y_11_ + 1 y_19_ ^ 2 ] >= 27967.5
quadratic_ranged_47_lb: [ 1 x_17_ ^ 2 - 2 x_19_ * x_17_ + 1 x_19_ ^ 2 + 1 y_17_ ^ 2 - 2 y_19_ * y_17_ + 1 y_19_ ^ 2 ] >= 9081.27
quadratic_ranged_48_lb: [ 1 x_18_ ^ 2 - 2 x_19_ * x_18_ + 1 x_19_ ^ 2 + 1 y_18_ ^ 2 - 2 y_19_ * y_18_ + 1 y_19_ ^ 2 ] >= 21037.5
quadratic_ranged_49_lb: [ 1 x_1_ ^ 2 - 2 x_20_ * x_1_ + 1 x_20_ ^ 2 + 1 y_1_ ^ 2 - 2 y_20_ * y_1_ + 1 y_20_ ^ 2 ] >= 48185.28
quadratic_ranged_50_lb: [ 1 x_4_ ^ 2 - 2 x_20_ * x_4_ + 1 x_20_ ^ 2 + 1 y_4_ ^ 2 - 2 y_20_ * y_4_ + 1 y_20_ ^ 2 ] >= 7913.07
quadratic_ranged_51_lb: [ 1 x_9_ ^ 2 - 2 x_20_ * x_9_ + 1 x_20_ ^ 2 + 1 y_9_ ^ 2 - 2 y_20_ * y_9_ + 1 y_20_ ^ 2 ] >= 37640.79
quadratic_ranged_52_lb: [ 1 x_10_ ^ 2 - 2 x_20_ * x_10_ + 1 x_20_ ^ 2 + 1 y_10_ ^ 2 - 2 y_20_ * y_10_ + 1 y_20_ ^ 2 ] >= 43667.909999999996
quadratic_ranged_53_lb: [ 1 x_16_ ^ 2 - 2 x_20_ * x_16_ + 1 x_20_ ^ 2 + 1 y_16_ ^ 2 - 2 y_20_ * y_16_ + 1 y_20_ ^ 2 ] >= 34984.62
quadratic_ranged_54_lb: [ 1 x_19_ ^ 2 - 2 x_20_ * x_19_ + 1 x_20_ ^ 2 + 1 y_19_ ^ 2 - 2 y_20_ * y_19_ + 1 y_20_ ^ 2 ] >= 17156.7
c1_1: 1 x_9_ = 78
c2_1: 1 y_9_ = -26
c3_1: 1 x_18_ = -59
c4_1: 1 y_18_ = -2
c5_1: 1 x_3_ = 37
c6_1: 1 y_3_ = -42
Bounds
-14 <= x_1_ <= 88
-127 <= x_2_ <= 29
x_3_ = 37
-50 <= x_4_ <= 101
-85 <= x_5_ <= 7
-80 <= x_6_ <= 51
-105 <= x_7_ <= 104
23 <= x_8_ <= 85
x_9_ = 78
36 <= x_10_ <= 99
-1 <= x_11_ <= 75
-51 <= x_12_ <= 145
-96 <= x_13_ <= 99
-98 <= x_14_ <= 172
31 <= x_15_ <= 43
-72 <= x_16_ <= 40
-111 <= x_17_ <= -7
x_18_ = -59
-103 <= x_19_ <= 87
-117 <= x_20_ <= 191
-93 <= y_1_ <= 9
-90 <= y_2_ <= 86
y_3_ = -42
-129 <= y_4_ <= 45
-68 <= y_5_ <= 64
-112 <= y_6_ <= 75
-165 <= y_7_ <= 100
-81 <= y_8_ <= 6
y_9_ = -26
-68 <= y_10_ <= 16
-80 <= y_11_ <= -4
-155 <= y_12_ <= 103
-160 <= y_13_ <= 91
-177 <= y_14_ <= 93
-48 <= y_15_ <= -36
-101 <= y_16_ <= 67
-54 <= y_17_ <= 50
y_18_ = -2
-148 <= y_19_ <= 98
-219 <= y_20_ <= 135
General
x_1_
x_2_
x_3_
x_4_
x_5_
x_6_
x_7_
x_8_
x_9_
x_10_
x_11_
x_12_
x_13_
x_14_
x_15_
x_16_
x_17_
x_18_
x_19_
x_20_
y_1_
y_2_
y_3_
y_4_
y_5_
y_6_
y_7_
y_8_
y_9_
y_10_
y_11_
y_12_
y_13_
y_14_
y_15_
y_16_
y_17_
y_18_
y_19_
y_20_
End
