minimize
obj: 
subject to
c1: -4 x_1_ + 36 y_1_ + [ 1 x_1_ ^ 2 + 1 y_1_ ^ 2 ] <= 17609.288002836096
c2: -4 x_2_ + 36 y_2_ + [ 1 x_2_ ^ 2 + 1 y_2_ ^ 2 ] <= 19721.204352759116
c3: -4 x_3_ + 36 y_3_ + [ 1 x_3_ ^ 2 + 1 y_3_ ^ 2 ] <= 13600.845134207686
c4: -4 x_4_ + 36 y_4_ + [ 1 x_4_ ^ 2 + 1 y_4_ ^ 2 ] <= 2985.8099999999995
c5: -4 x_5_ + 36 y_5_ + [ 1 x_5_ ^ 2 + 1 y_5_ ^ 2 ] <= 4008.6230531954116
c6: -4 x_6_ + 36 y_6_ + [ 1 x_6_ ^ 2 + 1 y_6_ ^ 2 ] <= 10946.301585457573
c7: -4 x_7_ + 36 y_7_ + [ 1 x_7_ ^ 2 + 1 y_7_ ^ 2 ] <= 13272.29722083077
c8: -4 x_8_ + 36 y_8_ + [ 1 x_8_ ^ 2 + 1 y_8_ ^ 2 ] <= 7770.067889449504
c9: -4 x_9_ + 36 y_9_ + [ 1 x_9_ ^ 2 + 1 y_9_ ^ 2 ] <= 24523.90545018797
c10: -4 x_10_ + 36 y_10_ + [ 1 x_10_ ^ 2 + 1 y_10_ ^ 2 ] <= 3944.7069678579182
c11: -4 x_11_ + 36 y_11_ + [ 1 x_11_ ^ 2 + 1 y_11_ ^ 2 ] <= 6111.760000000001
c12: -4 x_12_ + 36 y_12_ + [ 1 x_12_ ^ 2 + 1 y_12_ ^ 2 ] <= 22475.063987243957
c13: -4 x_13_ + 36 y_13_ + [ 1 x_13_ ^ 2 + 1 y_13_ ^ 2 ] <= 29410.55842281621
c14: -4 x_14_ + 36 y_14_ + [ 1 x_14_ ^ 2 + 1 y_14_ ^ 2 ] <= 27679.3586589135
c15: -4 x_15_ + 36 y_15_ + [ 1 x_15_ ^ 2 + 1 y_15_ ^ 2 ] <= 15594.34740350046
c16: -4 x_16_ + 36 y_16_ + [ 1 x_16_ ^ 2 + 1 y_16_ ^ 2 ] <= 21017.34700087061
c17: -4 x_17_ + 36 y_17_ + [ 1 x_17_ ^ 2 + 1 y_17_ ^ 2 ] <= 17874.365525559788
c18: -4 x_18_ + 36 y_18_ + [ 1 x_18_ ^ 2 + 1 y_18_ ^ 2 ] <= 4352.3663113962
c19: -4 x_19_ + 36 y_19_ + [ 1 x_19_ ^ 2 + 1 y_19_ ^ 2 ] <= 17710.510303191153
c20: -4 x_20_ + 36 y_20_ + [ 1 x_20_ ^ 2 + 1 y_20_ ^ 2 ] <= 30833.42806655461
c21: -4 x_21_ + 36 y_21_ + [ 1 x_21_ ^ 2 + 1 y_21_ ^ 2 ] <= 15240.30811220237
c22: -4 x_22_ + 36 y_22_ + [ 1 x_22_ ^ 2 + 1 y_22_ ^ 2 ] <= 24243.5159680726
c23: -4 x_23_ + 36 y_23_ + [ 1 x_23_ ^ 2 + 1 y_23_ ^ 2 ] <= 17556.1692651658
c24: -4 x_24_ + 36 y_24_ + [ 1 x_24_ ^ 2 + 1 y_24_ ^ 2 ] <= 5130.8968167368985
c25: -4 x_25_ + 36 y_25_ + [ 1 x_25_ ^ 2 + 1 y_25_ ^ 2 ] <= 29083.41442168711
c26: -4 x_26_ + 36 y_26_ + [ 1 x_26_ ^ 2 + 1 y_26_ ^ 2 ] <= 24439.286798274206
c27: -4 x_27_ + 36 y_27_ + [ 1 x_27_ ^ 2 + 1 y_27_ ^ 2 ] <= 14468.5
c28: -4 x_28_ + 36 y_28_ + [ 1 x_28_ ^ 2 + 1 y_28_ ^ 2 ] <= 2303.575219379197
c29: -4 x_29_ + 36 y_29_ + [ 1 x_29_ ^ 2 + 1 y_29_ ^ 2 ] <= 8079.239999999998
c30: -4 x_30_ + 36 y_30_ + [ 1 x_30_ ^ 2 + 1 y_30_ ^ 2 ] <= 31647.53349411654
c31: -4 x_31_ + 36 y_31_ + [ 1 x_31_ ^ 2 + 1 y_31_ ^ 2 ] <= 18407.309582684447
c32: -4 x_32_ + 36 y_32_ + [ 1 x_32_ ^ 2 + 1 y_32_ ^ 2 ] <= 8705.890997460227
c33: -4 x_33_ + 36 y_33_ + [ 1 x_33_ ^ 2 + 1 y_33_ ^ 2 ] <= 12680.290095798024
c34: -4 x_34_ + 36 y_34_ + [ 1 x_34_ ^ 2 + 1 y_34_ ^ 2 ] <= 32882.73295222152
c35: -4 x_35_ + 36 y_35_ + [ 1 x_35_ ^ 2 + 1 y_35_ ^ 2 ] <= 25011.554267438634
c36: -4 x_36_ + 36 y_36_ + [ 1 x_36_ ^ 2 + 1 y_36_ ^ 2 ] <= 19653.58042328976
c37: -4 x_37_ + 36 y_37_ + [ 1 x_37_ ^ 2 + 1 y_37_ ^ 2 ] <= 7518.689999999999
c38: -4 x_38_ + 36 y_38_ + [ 1 x_38_ ^ 2 + 1 y_38_ ^ 2 ] <= 14754.142915207649
c39: -4 x_39_ + 36 y_39_ + [ 1 x_39_ ^ 2 + 1 y_39_ ^ 2 ] <= 7707.559999999999
c40: -4 x_40_ + 36 y_40_ + [ 1 x_40_ ^ 2 + 1 y_40_ ^ 2 ] <= 20016.66308577581
c41: -4 x_41_ + 36 y_41_ + [ 1 x_41_ ^ 2 + 1 y_41_ ^ 2 ] <= 9129.639999999996
c42: -4 x_42_ + 36 y_42_ + [ 1 x_42_ ^ 2 + 1 y_42_ ^ 2 ] <= 22888.26859191925
c43: -4 x_43_ + 36 y_43_ + [ 1 x_43_ ^ 2 + 1 y_43_ ^ 2 ] <= 21418.351469991525
c44: -4 x_44_ + 36 y_44_ + [ 1 x_44_ ^ 2 + 1 y_44_ ^ 2 ] <= 16656.119690449497
c45: -4 x_45_ + 36 y_45_ + [ 1 x_45_ ^ 2 + 1 y_45_ ^ 2 ] <= 15710.369754929905
c46: -4 x_46_ + 36 y_46_ + [ 1 x_46_ ^ 2 + 1 y_46_ ^ 2 ] <= 7952.543064218893
c47: -4 x_47_ + 36 y_47_ + [ 1 x_47_ ^ 2 + 1 y_47_ ^ 2 ] <= 10311.745359914312
c48: -4 x_48_ + 36 y_48_ + [ 1 x_48_ ^ 2 + 1 y_48_ ^ 2 ] <= 10947.750444957075
c49: -4 x_49_ + 36 y_49_ + [ 1 x_49_ ^ 2 + 1 y_49_ ^ 2 ] <= 21069.364829749444
c50: -4 x_50_ + 36 y_50_ + [ 1 x_50_ ^ 2 + 1 y_50_ ^ 2 ] <= 11047.50799010552
c51: -4 x_51_ + 36 y_51_ + [ 1 x_51_ ^ 2 + 1 y_51_ ^ 2 ] <= 10340.040832655452
c52: -4 x_52_ + 36 y_52_ + [ 1 x_52_ ^ 2 + 1 y_52_ ^ 2 ] <= 8238.678089881538
c53: -4 x_53_ + 36 y_53_ + [ 1 x_53_ ^ 2 + 1 y_53_ ^ 2 ] <= 2148.52
c54: -4 x_54_ + 36 y_54_ + [ 1 x_54_ ^ 2 + 1 y_54_ ^ 2 ] <= 9506.784175669241
c55: -4 x_55_ + 36 y_55_ + [ 1 x_55_ ^ 2 + 1 y_55_ ^ 2 ] <= 8879.415692175733
c56: -4 x_56_ + 36 y_56_ + [ 1 x_56_ ^ 2 + 1 y_56_ ^ 2 ] <= 6811.067682739962
c57: -4 x_57_ + 36 y_57_ + [ 1 x_57_ ^ 2 + 1 y_57_ ^ 2 ] <= 13303.846627130477
c58: -4 x_58_ + 36 y_58_ + [ 1 x_58_ ^ 2 + 1 y_58_ ^ 2 ] <= 19750.701887993015
c59: -4 x_59_ + 36 y_59_ + [ 1 x_59_ ^ 2 + 1 y_59_ ^ 2 ] <= 7235.094486779031
c60: -4 x_60_ + 36 y_60_ + [ 1 x_60_ ^ 2 + 1 y_60_ ^ 2 ] <= 19238.207848494367
c61: -4 x_61_ + 36 y_61_ + [ 1 x_61_ ^ 2 + 1 y_61_ ^ 2 ] <= 22071.206658432406
c62: -4 x_62_ + 36 y_62_ + [ 1 x_62_ ^ 2 + 1 y_62_ ^ 2 ] <= 18886.184239346094
c63: -4 x_63_ + 36 y_63_ + [ 1 x_63_ ^ 2 + 1 y_63_ ^ 2 ] <= 8270.74264513609
c64: -4 x_64_ + 36 y_64_ + [ 1 x_64_ ^ 2 + 1 y_64_ ^ 2 ] <= 12472.96155742279
c65: -4 x_65_ + 36 y_65_ + [ 1 x_65_ ^ 2 + 1 y_65_ ^ 2 ] <= 16646.328255068533
c66: -4 x_66_ + 36 y_66_ + [ 1 x_66_ ^ 2 + 1 y_66_ ^ 2 ] <= 23870.23712309889
c67: -4 x_67_ + 36 y_67_ + [ 1 x_67_ ^ 2 + 1 y_67_ ^ 2 ] <= 15881.44378041373
c68: -4 x_68_ + 36 y_68_ + [ 1 x_68_ ^ 2 + 1 y_68_ ^ 2 ] <= 15989.152761165535
c69: -4 x_69_ + 36 y_69_ + [ 1 x_69_ ^ 2 + 1 y_69_ ^ 2 ] <= 21936.57987683977
c70: -4 x_70_ + 36 y_70_ + [ 1 x_70_ ^ 2 + 1 y_70_ ^ 2 ] <= 3155.49
c71: -4 x_71_ + 36 y_71_ + [ 1 x_71_ ^ 2 + 1 y_71_ ^ 2 ] <= 18788.851219364515
c72: -4 x_72_ + 36 y_72_ + [ 1 x_72_ ^ 2 + 1 y_72_ ^ 2 ] <= 13165.67773150416
c73: -4 x_73_ + 36 y_73_ + [ 1 x_73_ ^ 2 + 1 y_73_ ^ 2 ] <= 15852.199999999999
c74: -4 x_75_ + 36 y_75_ + [ 1 x_75_ ^ 2 + 1 y_75_ ^ 2 ] <= 451.7199999999998
c75: -4 x_76_ + 36 y_76_ + [ 1 x_76_ ^ 2 + 1 y_76_ ^ 2 ] <= 3349.6330350325843
c76: -4 x_77_ + 36 y_77_ + [ 1 x_77_ ^ 2 + 1 y_77_ ^ 2 ] <= 11107.824690648502
c77: -4 x_78_ + 36 y_78_ + [ 1 x_78_ ^ 2 + 1 y_78_ ^ 2 ] <= 32007.03937343145
c78: -4 x_79_ + 36 y_79_ + [ 1 x_79_ ^ 2 + 1 y_79_ ^ 2 ] <= 5147.984216276906
c79: -4 x_80_ + 36 y_80_ + [ 1 x_80_ ^ 2 + 1 y_80_ ^ 2 ] <= 1825.3199999999993
c80: -4 x_81_ + 36 y_81_ + [ 1 x_81_ ^ 2 + 1 y_81_ ^ 2 ] <= 17243.557911684056
c81: -4 x_82_ + 36 y_82_ + [ 1 x_82_ ^ 2 + 1 y_82_ ^ 2 ] <= 17848.943289933024
c82: -4 x_83_ + 36 y_83_ + [ 1 x_83_ ^ 2 + 1 y_83_ ^ 2 ] <= 13686.860956853661
c83: -4 x_84_ + 36 y_84_ + [ 1 x_84_ ^ 2 + 1 y_84_ ^ 2 ] <= 19544.16439428982
c84: -4 x_85_ + 36 y_85_ + [ 1 x_85_ ^ 2 + 1 y_85_ ^ 2 ] <= 16944.498177422065
c85: -4 x_86_ + 36 y_86_ + [ 1 x_86_ ^ 2 + 1 y_86_ ^ 2 ] <= 15044.992480530282
c86: -4 x_87_ + 36 y_87_ + [ 1 x_87_ ^ 2 + 1 y_87_ ^ 2 ] <= 24132.46120951967
c87: -4 x_88_ + 36 y_88_ + [ 1 x_88_ ^ 2 + 1 y_88_ ^ 2 ] <= 6849.3389719061115
c88: -4 x_89_ + 36 y_89_ + [ 1 x_89_ ^ 2 + 1 y_89_ ^ 2 ] <= 5542.119999999999
c89: -4 x_90_ + 36 y_90_ + [ 1 x_90_ ^ 2 + 1 y_90_ ^ 2 ] <= 18493.83694589015
c90: -4 x_91_ + 36 y_91_ + [ 1 x_91_ ^ 2 + 1 y_91_ ^ 2 ] <= 14284.014626448228
c91: -4 x_92_ + 36 y_92_ + [ 1 x_92_ ^ 2 + 1 y_92_ ^ 2 ] <= 6778.781277443796
c92: -4 x_93_ + 36 y_93_ + [ 1 x_93_ ^ 2 + 1 y_93_ ^ 2 ] <= 14679.578493661124
c93: -4 x_94_ + 36 y_94_ + [ 1 x_94_ ^ 2 + 1 y_94_ ^ 2 ] <= 15441.435991640901
c94: -4 x_95_ + 36 y_95_ + [ 1 x_95_ ^ 2 + 1 y_95_ ^ 2 ] <= 22653.947901475825
c95: -4 x_96_ + 36 y_96_ + [ 1 x_96_ ^ 2 + 1 y_96_ ^ 2 ] <= 7267.531168758566
c96: -4 x_97_ + 36 y_97_ + [ 1 x_97_ ^ 2 + 1 y_97_ ^ 2 ] <= 28072.672049570974
c97: -4 x_98_ + 36 y_98_ + [ 1 x_98_ ^ 2 + 1 y_98_ ^ 2 ] <= 18535.925391323755
c98: -4 x_99_ + 36 y_99_ + [ 1 x_99_ ^ 2 + 1 y_99_ ^ 2 ] <= 16960.17
c99: -4 x_100_ + 36 y_100_ + [ 1 x_100_ ^ 2 + 1 y_100_ ^ 2 ] <= 23079.029832743225
c100: 68 x_1_ + 104 y_1_ + [ 1 x_1_ ^ 2 + 1 y_1_ ^ 2 ] <= 10571.522908463341
c101: 68 x_2_ + 104 y_2_ + [ 1 x_2_ ^ 2 + 1 y_2_ ^ 2 ] <= 4572.853025212695
c102: 68 x_3_ + 104 y_3_ + [ 1 x_3_ ^ 2 + 1 y_3_ ^ 2 ] <= 19419.358589684292
c103: 68 x_4_ + 104 y_4_ + [ 1 x_4_ ^ 2 + 1 y_4_ ^ 2 ] <= 90.82980552941535
c104: 68 x_5_ + 104 y_5_ + [ 1 x_5_ ^ 2 + 1 y_5_ ^ 2 ] <= 1201.3216715469998
c105: 68 x_6_ + 104 y_6_ + [ 1 x_6_ ^ 2 + 1 y_6_ ^ 2 ] <= 4530.057150106422
c106: 68 x_7_ + 104 y_7_ + [ 1 x_7_ ^ 2 + 1 y_7_ ^ 2 ] <= 20652.298800189135
c107: 68 x_8_ + 104 y_8_ + [ 1 x_8_ ^ 2 + 1 y_8_ ^ 2 ] <= -2241.98
c108: 68 x_9_ + 104 y_9_ + [ 1 x_9_ ^ 2 + 1 y_9_ ^ 2 ] <= 22556.243614761115
c109: 68 x_10_ + 104 y_10_ + [ 1 x_10_ ^ 2 + 1 y_10_ ^ 2 ] <= 9395.053359651507
c110: 68 x_11_ + 104 y_11_ + [ 1 x_11_ ^ 2 + 1 y_11_ ^ 2 ] <= 13043.318108134954
c111: 68 x_12_ + 104 y_12_ + [ 1 x_12_ ^ 2 + 1 y_12_ ^ 2 ] <= 36449.18731210777
c112: 68 x_13_ + 104 y_13_ + [ 1 x_13_ ^ 2 + 1 y_13_ ^ 2 ] <= 14036.696711455574
c113: 68 x_14_ + 104 y_14_ + [ 1 x_14_ ^ 2 + 1 y_14_ ^ 2 ] <= 43280.50303073295
c114: 68 x_15_ + 104 y_15_ + [ 1 x_15_ ^ 2 + 1 y_15_ ^ 2 ] <= 13319.255667435606
c115: 68 x_16_ + 104 y_16_ + [ 1 x_16_ ^ 2 + 1 y_16_ ^ 2 ] <= 9027.582717276136
c116: 68 x_17_ + 104 y_17_ + [ 1 x_17_ ^ 2 + 1 y_17_ ^ 2 ] <= 3390.777353317605
c117: 68 x_18_ + 104 y_18_ + [ 1 x_18_ ^ 2 + 1 y_18_ ^ 2 ] <= 10106.003956876828
c118: 68 x_19_ + 104 y_19_ + [ 1 x_19_ ^ 2 + 1 y_19_ ^ 2 ] <= 5680.6351963126635
c119: 68 x_20_ + 104 y_20_ + [ 1 x_20_ ^ 2 + 1 y_20_ ^ 2 ] <= 18908.654460287893
c120: 68 x_21_ + 104 y_21_ + [ 1 x_21_ ^ 2 + 1 y_21_ ^ 2 ] <= 22706.317700045354
c121: 68 x_22_ + 104 y_22_ + [ 1 x_22_ ^ 2 + 1 y_22_ ^ 2 ] <= 12194.72089218301
c122: 68 x_23_ + 104 y_23_ + [ 1 x_23_ ^ 2 + 1 y_23_ ^ 2 ] <= 29797.630873902162
c123: 68 x_24_ + 104 y_24_ + [ 1 x_24_ ^ 2 + 1 y_24_ ^ 2 ] <= -3278.2400000000002
c124: 68 x_25_ + 104 y_25_ + [ 1 x_25_ ^ 2 + 1 y_25_ ^ 2 ] <= 10958.903278286318
c125: 68 x_26_ + 104 y_26_ + [ 1 x_26_ ^ 2 + 1 y_26_ ^ 2 ] <= 17128.677259062602
c126: 68 x_27_ + 104 y_27_ + [ 1 x_27_ ^ 2 + 1 y_27_ ^ 2 ] <= 25519.849176956282
c127: 68 x_28_ + 104 y_28_ + [ 1 x_28_ ^ 2 + 1 y_28_ ^ 2 ] <= 6353.836561161785
c128: 68 x_29_ + 104 y_29_ + [ 1 x_29_ ^ 2 + 1 y_29_ ^ 2 ] <= 9330.541775028118
c129: 68 x_30_ + 104 y_30_ + [ 1 x_30_ ^ 2 + 1 y_30_ ^ 2 ] <= 18272.876770032784
c130: 68 x_31_ + 104 y_31_ + [ 1 x_31_ ^ 2 + 1 y_31_ ^ 2 ] <= 16351.430905499179
c131: 68 x_32_ + 104 y_32_ + [ 1 x_32_ ^ 2 + 1 y_32_ ^ 2 ] <= 13081.000423446058
c132: 68 x_33_ + 104 y_33_ + [ 1 x_33_ ^ 2 + 1 y_33_ ^ 2 ] <= 22976.513155347413
c133: 68 x_34_ + 104 y_34_ + [ 1 x_34_ ^ 2 + 1 y_34_ ^ 2 ] <= 18788.777948310028
c134: 68 x_35_ + 104 y_35_ + [ 1 x_35_ ^ 2 + 1 y_35_ ^ 2 ] <= 17622.019467643513
c135: 68 x_36_ + 104 y_36_ + [ 1 x_36_ ^ 2 + 1 y_36_ ^ 2 ] <= 28481.205327880172
c136: 68 x_37_ + 104 y_37_ + [ 1 x_37_ ^ 2 + 1 y_37_ ^ 2 ] <= 15279.668408862366
c137: 68 x_38_ + 104 y_38_ + [ 1 x_38_ ^ 2 + 1 y_38_ ^ 2 ] <= 19365.959999999992
c138: 68 x_39_ + 104 y_39_ + [ 1 x_39_ ^ 2 + 1 y_39_ ^ 2 ] <= 2604
c139: 68 x_40_ + 104 y_40_ + [ 1 x_40_ ^ 2 + 1 y_40_ ^ 2 ] <= 15682.75122664456
c140: 68 x_41_ + 104 y_41_ + [ 1 x_41_ ^ 2 + 1 y_41_ ^ 2 ] <= 11244.476534880454
c141: 68 x_42_ + 104 y_42_ + [ 1 x_42_ ^ 2 + 1 y_42_ ^ 2 ] <= 36997.95308074163
c142: 68 x_43_ + 104 y_43_ + [ 1 x_43_ ^ 2 + 1 y_43_ ^ 2 ] <= 7035.86634649697
c143: 68 x_44_ + 104 y_44_ + [ 1 x_44_ ^ 2 + 1 y_44_ ^ 2 ] <= 2629.6702439058818
c144: 68 x_45_ + 104 y_45_ + [ 1 x_45_ ^ 2 + 1 y_45_ ^ 2 ] <= 27259.546587304045
c145: 68 x_46_ + 104 y_46_ + [ 1 x_46_ ^ 2 + 1 y_46_ ^ 2 ] <= 15953.978766465301
c146: 68 x_47_ + 104 y_47_ + [ 1 x_47_ ^ 2 + 1 y_47_ ^ 2 ] <= 19522.62638585432
c147: 68 x_48_ + 104 y_48_ + [ 1 x_48_ ^ 2 + 1 y_48_ ^ 2 ] <= -676.4800000000009
c148: 68 x_49_ + 104 y_49_ + [ 1 x_49_ ^ 2 + 1 y_49_ ^ 2 ] <= 18515.213144597143
c149: 68 x_50_ + 104 y_50_ + [ 1 x_50_ ^ 2 + 1 y_50_ ^ 2 ] <= 8671.896078261874
c150: 68 x_51_ + 104 y_51_ + [ 1 x_51_ ^ 2 + 1 y_51_ ^ 2 ] <= 14243.372955144558
c151: 68 x_52_ + 104 y_52_ + [ 1 x_52_ ^ 2 + 1 y_52_ ^ 2 ] <= -2028.8700000000008
c152: 68 x_54_ + 104 y_54_ + [ 1 x_54_ ^ 2 + 1 y_54_ ^ 2 ] <= 7276.259999999998
c153: 68 x_55_ + 104 y_55_ + [ 1 x_55_ ^ 2 + 1 y_55_ ^ 2 ] <= 15611.517512631188
c154: 68 x_56_ + 104 y_56_ + [ 1 x_56_ ^ 2 + 1 y_56_ ^ 2 ] <= 9888.920313507675
c155: 68 x_57_ + 104 y_57_ + [ 1 x_57_ ^ 2 + 1 y_57_ ^ 2 ] <= 23868.958833902234
c156: 68 x_58_ + 104 y_58_ + [ 1 x_58_ ^ 2 + 1 y_58_ ^ 2 ] <= 30773.377451933397
c157: 68 x_59_ + 104 y_59_ + [ 1 x_59_ ^ 2 + 1 y_59_ ^ 2 ] <= 11876.809999999998
c158: 68 x_60_ + 104 y_60_ + [ 1 x_60_ ^ 2 + 1 y_60_ ^ 2 ] <= 21928.1394285146
c159: 68 x_61_ + 104 y_61_ + [ 1 x_61_ ^ 2 + 1 y_61_ ^ 2 ] <= 6119.809999999998
c160: 68 x_62_ + 104 y_62_ + [ 1 x_62_ ^ 2 + 1 y_62_ ^ 2 ] <= 12013.478489592004
c161: 68 x_63_ + 104 y_63_ + [ 1 x_63_ ^ 2 + 1 y_63_ ^ 2 ] <= 16444.55473836456
c162: 68 x_64_ + 104 y_64_ + [ 1 x_64_ ^ 2 + 1 y_64_ ^ 2 ] <= 15148.235472553137
c163: 68 x_65_ + 104 y_65_ + [ 1 x_65_ ^ 2 + 1 y_65_ ^ 2 ] <= 22543.24820827496
c164: 68 x_66_ + 104 y_66_ + [ 1 x_66_ ^ 2 + 1 y_66_ ^ 2 ] <= 38297.31740234171
c165: 68 x_67_ + 104 y_67_ + [ 1 x_67_ ^ 2 + 1 y_67_ ^ 2 ] <= 23863.77911672859
c166: 68 x_68_ + 104 y_68_ + [ 1 x_68_ ^ 2 + 1 y_68_ ^ 2 ] <= 14813.553060391965
c167: 68 x_69_ + 104 y_69_ + [ 1 x_69_ ^ 2 + 1 y_69_ ^ 2 ] <= 16749.792224277484
c168: 68 x_70_ + 104 y_70_ + [ 1 x_70_ ^ 2 + 1 y_70_ ^ 2 ] <= 7974.33809938294
c169: 68 x_71_ + 104 y_71_ + [ 1 x_71_ ^ 2 + 1 y_71_ ^ 2 ] <= 18389.185654157696
c170: 68 x_72_ + 104 y_72_ + [ 1 x_72_ ^ 2 + 1 y_72_ ^ 2 ] <= 23671.748280738408
c171: 68 x_73_ + 104 y_73_ + [ 1 x_73_ ^ 2 + 1 y_73_ ^ 2 ] <= 18351.16635710767
c172: 68 x_74_ + 104 y_74_ + [ 1 x_74_ ^ 2 + 1 y_74_ ^ 2 ] <= -1383.48
c173: 68 x_75_ + 104 y_75_ + [ 1 x_75_ ^ 2 + 1 y_75_ ^ 2 ] <= 2175.4428888873863
c174: 68 x_76_ + 104 y_76_ + [ 1 x_76_ ^ 2 + 1 y_76_ ^ 2 ] <= 7174.369029233158
c175: 68 x_77_ + 104 y_77_ + [ 1 x_77_ ^ 2 + 1 y_77_ ^ 2 ] <= 19043.653061683915
c176: 68 x_78_ + 104 y_78_ + [ 1 x_78_ ^ 2 + 1 y_78_ ^ 2 ] <= 13088.809999999998
c177: 68 x_79_ + 104 y_79_ + [ 1 x_79_ ^ 2 + 1 y_79_ ^ 2 ] <= 11457.661222422554
c178: 68 x_80_ + 104 y_80_ + [ 1 x_80_ ^ 2 + 1 y_80_ ^ 2 ] <= 5388.385245594114
c179: 68 x_81_ + 104 y_81_ + [ 1 x_81_ ^ 2 + 1 y_81_ ^ 2 ] <= 29381.457251253392
c180: 68 x_82_ + 104 y_82_ + [ 1 x_82_ ^ 2 + 1 y_82_ ^ 2 ] <= 11982.48591167114
c181: 68 x_83_ + 104 y_83_ + [ 1 x_83_ ^ 2 + 1 y_83_ ^ 2 ] <= 14913.775793821475
c182: 68 x_84_ + 104 y_84_ + [ 1 x_84_ ^ 2 + 1 y_84_ ^ 2 ] <= 9234.944039049078
c183: 68 x_85_ + 104 y_85_ + [ 1 x_85_ ^ 2 + 1 y_85_ ^ 2 ] <= 19373.07350354867
c184: 68 x_86_ + 104 y_86_ + [ 1 x_86_ ^ 2 + 1 y_86_ ^ 2 ] <= 4624.453614696493
c185: 68 x_87_ + 104 y_87_ + [ 1 x_87_ ^ 2 + 1 y_87_ ^ 2 ] <= 30880.49486556449
c186: 68 x_88_ + 104 y_88_ + [ 1 x_88_ ^ 2 + 1 y_88_ ^ 2 ] <= 12601.9874910291
c187: 68 x_89_ + 104 y_89_ + [ 1 x_89_ ^ 2 + 1 y_89_ ^ 2 ] <= 12112.246751570658
c188: 68 x_90_ + 104 y_90_ + [ 1 x_90_ ^ 2 + 1 y_90_ ^ 2 ] <= 31093.049272447483
c189: 68 x_91_ + 104 y_91_ + [ 1 x_91_ ^ 2 + 1 y_91_ ^ 2 ] <= 6864.6836894924545
c190: 68 x_92_ + 104 y_92_ + [ 1 x_92_ ^ 2 + 1 y_92_ ^ 2 ] <= -2667.1900000000005
c191: 68 x_93_ + 104 y_93_ + [ 1 x_93_ ^ 2 + 1 y_93_ ^ 2 ] <= 8215.559999999998
c192: 68 x_94_ + 104 y_94_ + [ 1 x_94_ ^ 2 + 1 y_94_ ^ 2 ] <= 23054.63495809747
c193: 68 x_95_ + 104 y_95_ + [ 1 x_95_ ^ 2 + 1 y_95_ ^ 2 ] <= 9356.41705822849
c194: 68 x_96_ + 104 y_96_ + [ 1 x_96_ ^ 2 + 1 y_96_ ^ 2 ] <= -2462.16
c195: 68 x_97_ + 104 y_97_ + [ 1 x_97_ ^ 2 + 1 y_97_ ^ 2 ] <= 38635.636026121174
c196: 68 x_98_ + 104 y_98_ + [ 1 x_98_ ^ 2 + 1 y_98_ ^ 2 ] <= 19754.057058715553
c197: 68 x_99_ + 104 y_99_ + [ 1 x_99_ ^ 2 + 1 y_99_ ^ 2 ] <= 28978.129999999997
c198: 68 x_100_ + 104 y_100_ + [ 1 x_100_ ^ 2 + 1 y_100_ ^ 2 ] <= 8791.441891853425
c199: 148 x_1_ - 78 y_1_ + [ 1 x_1_ ^ 2 + 1 y_1_ ^ 2 ] <= 3167.6399999999994
c200: 148 x_2_ - 78 y_2_ + [ 1 x_2_ ^ 2 + 1 y_2_ ^ 2 ] <= 9675.115405129101
c201: 148 x_3_ - 78 y_3_ + [ 1 x_3_ ^ 2 + 1 y_3_ ^ 2 ] <= 22525.46910955335
c202: 148 x_4_ - 78 y_4_ + [ 1 x_4_ ^ 2 + 1 y_4_ ^ 2 ] <= 18212.030092839086
c203: 148 x_5_ - 78 y_5_ + [ 1 x_5_ ^ 2 + 1 y_5_ ^ 2 ] <= 20912.330268150243
c204: 148 x_6_ - 78 y_6_ + [ 1 x_6_ ^ 2 + 1 y_6_ ^ 2 ] <= 8857.370204714167
c205: 148 x_7_ - 78 y_7_ + [ 1 x_7_ ^ 2 + 1 y_7_ ^ 2 ] <= 15547.205933971822
c206: 148 x_8_ - 78 y_8_ + [ 1 x_8_ ^ 2 + 1 y_8_ ^ 2 ] <= 12637.628411357597
c207: 148 x_9_ - 78 y_9_ + [ 1 x_9_ ^ 2 + 1 y_9_ ^ 2 ] <= 101.94968388941561
c208: 148 x_10_ - 78 y_10_ + [ 1 x_10_ ^ 2 + 1 y_10_ ^ 2 ] <= 11014.989201432258
c209: 148 x_11_ - 78 y_11_ + [ 1 x_11_ ^ 2 + 1 y_11_ ^ 2 ] <= 4802.596057838193
c210: 148 x_12_ - 78 y_12_ + [ 1 x_12_ ^ 2 + 1 y_12_ ^ 2 ] <= 30887.350443078496
c211: 148 x_13_ - 78 y_13_ + [ 1 x_13_ ^ 2 + 1 y_13_ ^ 2 ] <= 29271.117854888646
c212: 148 x_14_ - 78 y_14_ + [ 1 x_14_ ^ 2 + 1 y_14_ ^ 2 ] <= 32775.49006189572
c213: 148 x_15_ - 78 y_15_ + [ 1 x_15_ ^ 2 + 1 y_15_ ^ 2 ] <= -4209.774775023791
c214: 148 x_16_ - 78 y_16_ + [ 1 x_16_ ^ 2 + 1 y_16_ ^ 2 ] <= 9264.353942187185
c215: 148 x_17_ - 78 y_17_ + [ 1 x_17_ ^ 2 + 1 y_17_ ^ 2 ] <= 2833.329999999998
c216: 148 x_18_ - 78 y_18_ + [ 1 x_18_ ^ 2 + 1 y_18_ ^ 2 ] <= 2275.347622644338
c217: 148 x_19_ - 78 y_19_ + [ 1 x_19_ ^ 2 + 1 y_19_ ^ 2 ] <= 20092.15448340265
c218: 148 x_20_ - 78 y_20_ + [ 1 x_20_ ^ 2 + 1 y_20_ ^ 2 ] <= 23045.449999999997
c219: 148 x_21_ - 78 y_21_ + [ 1 x_21_ ^ 2 + 1 y_21_ ^ 2 ] <= 27927.693764029216
c220: 148 x_22_ - 78 y_22_ + [ 1 x_22_ ^ 2 + 1 y_22_ ^ 2 ] <= 44353.38079749071
c221: 148 x_23_ - 78 y_23_ + [ 1 x_23_ ^ 2 + 1 y_23_ ^ 2 ] <= 23045.449999999997
c222: 148 x_24_ - 78 y_24_ + [ 1 x_24_ ^ 2 + 1 y_24_ ^ 2 ] <= 8383.638069907289
c223: 148 x_25_ - 78 y_25_ + [ 1 x_25_ ^ 2 + 1 y_25_ ^ 2 ] <= 42123.70654575306
c224: 148 x_26_ - 78 y_26_ + [ 1 x_26_ ^ 2 + 1 y_26_ ^ 2 ] <= 28022.523638554776
c225: 148 x_27_ - 78 y_27_ + [ 1 x_27_ ^ 2 + 1 y_27_ ^ 2 ] <= 40774.40529250399
c226: 148 x_28_ - 78 y_28_ + [ 1 x_28_ ^ 2 + 1 y_28_ ^ 2 ] <= 5864.227366922221
c227: 148 x_29_ - 78 y_29_ + [ 1 x_29_ ^ 2 + 1 y_29_ ^ 2 ] <= 21408.203897331132
c228: 148 x_30_ - 78 y_30_ + [ 1 x_30_ ^ 2 + 1 y_30_ ^ 2 ] <= 36252.21
c229: 148 x_31_ - 78 y_31_ + [ 1 x_31_ ^ 2 + 1 y_31_ ^ 2 ] <= 21979.90019002374
c230: 148 x_32_ - 78 y_32_ + [ 1 x_32_ ^ 2 + 1 y_32_ ^ 2 ] <= 16482.71483992498
c231: 148 x_33_ - 78 y_33_ + [ 1 x_33_ ^ 2 + 1 y_33_ ^ 2 ] <= 24371.376281816647
c232: 148 x_34_ - 78 y_34_ + [ 1 x_34_ ^ 2 + 1 y_34_ ^ 2 ] <= 42071.25991587621
c233: 148 x_35_ - 78 y_35_ + [ 1 x_35_ ^ 2 + 1 y_35_ ^ 2 ] <= 28182.45011853874
c234: 148 x_36_ - 78 y_36_ + [ 1 x_36_ ^ 2 + 1 y_36_ ^ 2 ] <= 17245.393548338514
c235: 148 x_37_ - 78 y_37_ + [ 1 x_37_ ^ 2 + 1 y_37_ ^ 2 ] <= 40657.31612865155
c236: 148 x_38_ - 78 y_38_ + [ 1 x_38_ ^ 2 + 1 y_38_ ^ 2 ] <= 34499.395604640245
c237: 148 x_39_ - 78 y_39_ + [ 1 x_39_ ^ 2 + 1 y_39_ ^ 2 ] <= 25510.37023302431
c238: 148 x_40_ - 78 y_40_ + [ 1 x_40_ ^ 2 + 1 y_40_ ^ 2 ] <= 26147.29127760687
c239: 148 x_41_ - 78 y_41_ + [ 1 x_41_ ^ 2 + 1 y_41_ ^ 2 ] <= 33386.59888220491
c240: 148 x_42_ - 78 y_42_ + [ 1 x_42_ ^ 2 + 1 y_42_ ^ 2 ] <= 37957.10106869422
c241: 148 x_43_ - 78 y_43_ + [ 1 x_43_ ^ 2 + 1 y_43_ ^ 2 ] <= 8960.446488007572
c242: 148 x_44_ - 78 y_44_ + [ 1 x_44_ ^ 2 + 1 y_44_ ^ 2 ] <= 15547.290948192738
c243: 148 x_45_ - 78 y_45_ + [ 1 x_45_ ^ 2 + 1 y_45_ ^ 2 ] <= 4961.284070297312
c244: 148 x_46_ - 78 y_46_ + [ 1 x_46_ ^ 2 + 1 y_46_ ^ 2 ] <= -1564.0211453888087
c245: 148 x_47_ - 78 y_47_ + [ 1 x_47_ ^ 2 + 1 y_47_ ^ 2 ] <= 25859.332109861287
c246: 148 x_48_ - 78 y_48_ + [ 1 x_48_ ^ 2 + 1 y_48_ ^ 2 ] <= 9244.24596749999
c247: 148 x_49_ - 78 y_49_ + [ 1 x_49_ ^ 2 + 1 y_49_ ^ 2 ] <= 32611.182181061275
c248: 148 x_50_ - 78 y_50_ + [ 1 x_50_ ^ 2 + 1 y_50_ ^ 2 ] <= 15806.929697864278
c249: 148 x_51_ - 78 y_51_ + [ 1 x_51_ ^ 2 + 1 y_51_ ^ 2 ] <= 32363.017082015096
c250: 148 x_52_ - 78 y_52_ + [ 1 x_52_ ^ 2 + 1 y_52_ ^ 2 ] <= 13363.636950255015
c251: 148 x_53_ - 78 y_53_ + [ 1 x_53_ ^ 2 + 1 y_53_ ^ 2 ] <= 2982.8099999999977
c252: 148 x_54_ - 78 y_54_ + [ 1 x_54_ ^ 2 + 1 y_54_ ^ 2 ] <= 19013.89989490632
c253: 148 x_55_ - 78 y_55_ + [ 1 x_55_ ^ 2 + 1 y_55_ ^ 2 ] <= 35645.06774877602
c254: 148 x_56_ - 78 y_56_ + [ 1 x_56_ ^ 2 + 1 y_56_ ^ 2 ] <= 5630.653140965738
c255: 148 x_57_ - 78 y_57_ + [ 1 x_57_ ^ 2 + 1 y_57_ ^ 2 ] <= 12555.998665439547
c256: 148 x_58_ - 78 y_58_ + [ 1 x_58_ ^ 2 + 1 y_58_ ^ 2 ] <= 32759.498051812792
c257: 148 x_59_ - 78 y_59_ + [ 1 x_59_ ^ 2 + 1 y_59_ ^ 2 ] <= 3266.619999999997
c258: 148 x_60_ - 78 y_60_ + [ 1 x_60_ ^ 2 + 1 y_60_ ^ 2 ] <= 25303.809999999994
c259: 148 x_62_ - 78 y_62_ + [ 1 x_62_ ^ 2 + 1 y_62_ ^ 2 ] <= -6316.26
c260: 148 x_63_ - 78 y_63_ + [ 1 x_63_ ^ 2 + 1 y_63_ ^ 2 ] <= 10244.780602930889
c261: 148 x_64_ - 78 y_64_ + [ 1 x_64_ ^ 2 + 1 y_64_ ^ 2 ] <= 5030.079999999998
c262: 148 x_65_ - 78 y_65_ + [ 1 x_65_ ^ 2 + 1 y_65_ ^ 2 ] <= 13920.558149147153
c263: 148 x_66_ - 78 y_66_ + [ 1 x_66_ ^ 2 + 1 y_66_ ^ 2 ] <= 26006.619286458983
c264: 148 x_67_ - 78 y_67_ + [ 1 x_67_ ^ 2 + 1 y_67_ ^ 2 ] <= 34535.2271517399
c265: 148 x_68_ - 78 y_68_ + [ 1 x_68_ ^ 2 + 1 y_68_ ^ 2 ] <= 23258.537087440884
c266: 148 x_69_ - 78 y_69_ + [ 1 x_69_ ^ 2 + 1 y_69_ ^ 2 ] <= 24364.941267341143
c267: 148 x_70_ - 78 y_70_ + [ 1 x_70_ ^ 2 + 1 y_70_ ^ 2 ] <= 19829.60101973624
c268: 148 x_71_ - 78 y_71_ + [ 1 x_71_ ^ 2 + 1 y_71_ ^ 2 ] <= 33152.007288467954
c269: 148 x_72_ - 78 y_72_ + [ 1 x_72_ ^ 2 + 1 y_72_ ^ 2 ] <= 26223.682983125058
c270: 148 x_73_ - 78 y_73_ + [ 1 x_73_ ^ 2 + 1 y_73_ ^ 2 ] <= 34939.72518176822
c271: 148 x_74_ - 78 y_74_ + [ 1 x_74_ ^ 2 + 1 y_74_ ^ 2 ] <= 15402.206658432406
c272: 148 x_75_ - 78 y_75_ + [ 1 x_75_ ^ 2 + 1 y_75_ ^ 2 ] <= 11712.525047950545
c273: 148 x_76_ - 78 y_76_ + [ 1 x_76_ ^ 2 + 1 y_76_ ^ 2 ] <= 7006.047002247467
c274: 148 x_77_ - 78 y_77_ + [ 1 x_77_ ^ 2 + 1 y_77_ ^ 2 ] <= 2210.379569748835
c275: 148 x_78_ - 78 y_78_ + [ 1 x_78_ ^ 2 + 1 y_78_ ^ 2 ] <= 36392.98673176079
c276: 148 x_79_ - 78 y_79_ + [ 1 x_79_ ^ 2 + 1 y_79_ ^ 2 ] <= 12710.528830824394
c277: 148 x_80_ - 78 y_80_ + [ 1 x_80_ ^ 2 + 1 y_80_ ^ 2 ] <= 13130.579320467881
c278: 148 x_81_ - 78 y_81_ + [ 1 x_81_ ^ 2 + 1 y_81_ ^ 2 ] <= 32222.94688377854
c279: 148 x_82_ - 78 y_82_ + [ 1 x_82_ ^ 2 + 1 y_82_ ^ 2 ] <= 34849.91964846096
c280: 148 x_83_ - 78 y_83_ + [ 1 x_83_ ^ 2 + 1 y_83_ ^ 2 ] <= 13999.005556160118
c281: 148 x_84_ - 78 y_84_ + [ 1 x_84_ ^ 2 + 1 y_84_ ^ 2 ] <= 7964.129999999997
c282: 148 x_85_ - 78 y_85_ + [ 1 x_85_ ^ 2 + 1 y_85_ ^ 2 ] <= 6303.9922282373445
c283: 148 x_86_ - 78 y_86_ + [ 1 x_86_ ^ 2 + 1 y_86_ ^ 2 ] <= 29870.87576323779
c284: 148 x_87_ - 78 y_87_ + [ 1 x_87_ ^ 2 + 1 y_87_ ^ 2 ] <= 25214.255302879967
c285: 148 x_88_ - 78 y_88_ + [ 1 x_88_ ^ 2 + 1 y_88_ ^ 2 ] <= 32492.673120319036
c286: 148 x_89_ - 78 y_89_ + [ 1 x_89_ ^ 2 + 1 y_89_ ^ 2 ] <= 29338.076520849398
c287: 148 x_90_ - 78 y_90_ + [ 1 x_90_ ^ 2 + 1 y_90_ ^ 2 ] <= 47133.91808210673
c288: 148 x_91_ - 78 y_91_ + [ 1 x_91_ ^ 2 + 1 y_91_ ^ 2 ] <= 14266.58755992429
c289: 148 x_92_ - 78 y_92_ + [ 1 x_92_ ^ 2 + 1 y_92_ ^ 2 ] <= 10021.499999999996
c290: 148 x_93_ - 78 y_93_ + [ 1 x_93_ ^ 2 + 1 y_93_ ^ 2 ] <= 15768.755933870922
c291: 148 x_94_ - 78 y_94_ + [ 1 x_94_ ^ 2 + 1 y_94_ ^ 2 ] <= 12580.574782491352
c292: 148 x_95_ - 78 y_95_ + [ 1 x_95_ ^ 2 + 1 y_95_ ^ 2 ] <= 26082.713072325823
c293: 148 x_96_ - 78 y_96_ + [ 1 x_96_ ^ 2 + 1 y_96_ ^ 2 ] <= 11850.637312010644
c294: 148 x_97_ - 78 y_97_ + [ 1 x_97_ ^ 2 + 1 y_97_ ^ 2 ] <= 26443.874195988188
c295: 148 x_98_ - 78 y_98_ + [ 1 x_98_ ^ 2 + 1 y_98_ ^ 2 ] <= -1062.2399999999998
c296: 148 x_99_ - 78 y_99_ + [ 1 x_99_ ^ 2 + 1 y_99_ ^ 2 ] <= 22980.853533199373
c297: 148 x_100_ - 78 y_100_ + [ 1 x_100_ ^ 2 + 1 y_100_ ^ 2 ] <= 27025.345555727603
quadratic_ranged_1_ub: [ 1 x_1_ ^ 2 - 2 x_2_ * x_1_ + 1 x_2_ ^ 2 + 1 y_1_ ^ 2 - 2 y_2_ * y_1_ + 1 y_2_ ^ 2 ] <= 800.9300000000001
quadratic_ranged_2_ub: [ 1 x_2_ ^ 2 - 2 x_3_ * x_2_ + 1 x_3_ ^ 2 + 1 y_2_ ^ 2 - 2 y_3_ * y_2_ + 1 y_3_ ^ 2 ] <= 10702.97
quadratic_ranged_3_ub: [ 1 x_3_ ^ 2 - 2 x_4_ * x_3_ + 1 x_4_ ^ 2 + 1 y_3_ ^ 2 - 2 y_4_ * y_3_ + 1 y_4_ ^ 2 ] <= 8049.7
quadratic_ranged_4_ub: [ 1 x_4_ ^ 2 - 2 x_5_ * x_4_ + 1 x_5_ ^ 2 + 1 y_4_ ^ 2 - 2 y_5_ * y_4_ + 1 y_5_ ^ 2 ] <= 68.68
quadratic_ranged_5_ub: [ 1 x_4_ ^ 2 - 2 x_6_ * x_4_ + 1 x_6_ ^ 2 + 1 y_4_ ^ 2 - 2 y_6_ * y_4_ + 1 y_6_ ^ 2 ] <= 2363.4
quadratic_ranged_6_ub: [ 1 x_5_ ^ 2 - 2 x_6_ * x_5_ + 1 x_6_ ^ 2 + 1 y_5_ ^ 2 - 2 y_6_ * y_5_ + 1 y_6_ ^ 2 ] <= 1874.56
quadratic_ranged_7_ub: [ 1 x_6_ ^ 2 - 2 x_7_ * x_6_ + 1 x_7_ ^ 2 + 1 y_6_ ^ 2 - 2 y_7_ * y_6_ + 1 y_7_ ^ 2 ] <= 17275.04
quadratic_ranged_8_ub: [ 1 x_7_ ^ 2 - 2 x_8_ * x_7_ + 1 x_8_ ^ 2 + 1 y_7_ ^ 2 - 2 y_8_ * y_7_ + 1 y_8_ ^ 2 ] <= 30369.69
quadratic_ranged_9_ub: [ 1 x_3_ ^ 2 - 2 x_9_ * x_3_ + 1 x_9_ ^ 2 + 1 y_3_ ^ 2 - 2 y_9_ * y_3_ + 1 y_9_ ^ 2 ] <= 26835.7
quadratic_ranged_10_ub: [ 1 x_8_ ^ 2 - 2 x_9_ * x_8_ + 1 x_9_ ^ 2 + 1 y_8_ ^ 2 - 2 y_9_ * y_8_ + 1 y_9_ ^ 2 ] <= 20968.61
quadratic_ranged_11_ub: [ 1 x_5_ ^ 2 - 2 x_10_ * x_5_ + 1 x_10_ ^ 2 + 1 y_5_ ^ 2 - 2 y_10_ * y_5_ + 1 y_10_ ^ 2 ] <= 13308.77
quadratic_ranged_12_ub: [ 1 x_6_ ^ 2 - 2 x_10_ * x_6_ + 1 x_10_ ^ 2 + 1 y_6_ ^ 2 - 2 y_10_ * y_6_ + 1 y_10_ ^ 2 ] <= 7539.65
quadratic_ranged_13_ub: [ 1 x_7_ ^ 2 - 2 x_10_ * x_7_ + 1 x_10_ ^ 2 + 1 y_7_ ^ 2 - 2 y_10_ * y_7_ + 1 y_10_ ^ 2 ] <= 2627.01
quadratic_ranged_14_ub: [ 1 x_9_ ^ 2 - 2 x_10_ * x_9_ + 1 x_10_ ^ 2 + 1 y_9_ ^ 2 - 2 y_10_ * y_9_ + 1 y_10_ ^ 2 ] <= 10593.89
quadratic_ranged_15_ub: [ 1 x_10_ ^ 2 - 2 x_11_ * x_10_ + 1 x_11_ ^ 2 + 1 y_10_ ^ 2 - 2 y_11_ * y_10_ + 1 y_11_ ^ 2 ] <= 654.48
quadratic_ranged_16_ub: [ 1 x_2_ ^ 2 - 2 x_12_ * x_2_ + 1 x_12_ ^ 2 + 1 y_2_ ^ 2 - 2 y_12_ * y_2_ + 1 y_12_ ^ 2 ] <= 16771.05
quadratic_ranged_17_ub: [ 1 x_7_ ^ 2 - 2 x_12_ * x_7_ + 1 x_12_ ^ 2 + 1 y_7_ ^ 2 - 2 y_12_ * y_7_ + 1 y_12_ ^ 2 ] <= 6401.38
quadratic_ranged_18_ub: [ 1 x_11_ ^ 2 - 2 x_12_ * x_11_ + 1 x_12_ ^ 2 + 1 y_11_ ^ 2 - 2 y_12_ * y_11_ + 1 y_12_ ^ 2 ] <= 7398.25
quadratic_ranged_19_ub: [ 1 x_6_ ^ 2 - 2 x_13_ * x_6_ + 1 x_13_ ^ 2 + 1 y_6_ ^ 2 - 2 y_13_ * y_6_ + 1 y_13_ ^ 2 ] <= 14512.69
quadratic_ranged_20_ub: [ 1 x_7_ ^ 2 - 2 x_13_ * x_7_ + 1 x_13_ ^ 2 + 1 y_7_ ^ 2 - 2 y_13_ * y_7_ + 1 y_13_ ^ 2 ] <= 29614.21
quadratic_ranged_21_ub: [ 1 x_9_ ^ 2 - 2 x_13_ * x_9_ + 1 x_13_ ^ 2 + 1 y_9_ ^ 2 - 2 y_13_ * y_9_ + 1 y_13_ ^ 2 ] <= 47596.25
quadratic_ranged_22_ub: [ 1 x_12_ ^ 2 - 2 x_13_ * x_12_ + 1 x_13_ ^ 2 + 1 y_12_ ^ 2 - 2 y_13_ * y_12_ + 1 y_13_ ^ 2 ] <= 30373.73
quadratic_ranged_23_ub: [ 1 x_1_ ^ 2 - 2 x_14_ * x_1_ + 1 x_14_ ^ 2 + 1 y_1_ ^ 2 - 2 y_14_ * y_1_ + 1 y_14_ ^ 2 ] <= 27425.54
quadratic_ranged_24_ub: [ 1 x_9_ ^ 2 - 2 x_14_ * x_9_ + 1 x_14_ ^ 2 + 1 y_9_ ^ 2 - 2 y_14_ * y_9_ + 1 y_14_ ^ 2 ] <= 22504.82
quadratic_ranged_25_ub: [ 1 x_13_ ^ 2 - 2 x_14_ * x_13_ + 1 x_14_ ^ 2 + 1 y_13_ ^ 2 - 2 y_14_ * y_13_ + 1 y_14_ ^ 2 ] <= 21251.41
quadratic_ranged_26_ub: [ 1 x_9_ ^ 2 - 2 x_15_ * x_9_ + 1 x_15_ ^ 2 + 1 y_9_ ^ 2 - 2 y_15_ * y_9_ + 1 y_15_ ^ 2 ] <= 989.8
quadratic_ranged_27_ub: [ 1 x_14_ ^ 2 - 2 x_15_ * x_14_ + 1 x_15_ ^ 2 + 1 y_14_ ^ 2 - 2 y_15_ * y_14_ + 1 y_15_ ^ 2 ] <= 27199.3
quadratic_ranged_28_ub: [ 1 x_15_ ^ 2 - 2 x_16_ * x_15_ + 1 x_16_ ^ 2 + 1 y_15_ ^ 2 - 2 y_16_ * y_15_ + 1 y_16_ ^ 2 ] <= 7766.9
quadratic_ranged_29_ub: [ 1 x_3_ ^ 2 - 2 x_17_ * x_3_ + 1 x_17_ ^ 2 + 1 y_3_ ^ 2 - 2 y_17_ * y_3_ + 1 y_17_ ^ 2 ] <= 23190.61
quadratic_ranged_30_ub: [ 1 x_6_ ^ 2 - 2 x_17_ * x_6_ + 1 x_17_ ^ 2 + 1 y_6_ ^ 2 - 2 y_17_ * y_6_ + 1 y_17_ ^ 2 ] <= 3681.45
quadratic_ranged_31_ub: [ 1 x_7_ ^ 2 - 2 x_17_ * x_7_ + 1 x_17_ ^ 2 + 1 y_7_ ^ 2 - 2 y_17_ * y_7_ + 1 y_17_ ^ 2 ] <= 33173.45
quadratic_ranged_32_ub: [ 1 x_14_ ^ 2 - 2 x_17_ * x_14_ + 1 x_17_ ^ 2 + 1 y_14_ ^ 2 - 2 y_17_ * y_14_ + 1 y_17_ ^ 2 ] <= 44432.93
quadratic_ranged_33_ub: [ 1 x_16_ ^ 2 - 2 x_17_ * x_16_ + 1 x_17_ ^ 2 + 1 y_16_ ^ 2 - 2 y_17_ * y_16_ + 1 y_17_ ^ 2 ] <= 804.97
quadratic_ranged_34_ub: [ 1 x_3_ ^ 2 - 2 x_18_ * x_3_ + 1 x_18_ ^ 2 + 1 y_3_ ^ 2 - 2 y_18_ * y_3_ + 1 y_18_ ^ 2 ] <= 5704.4800000000005
quadratic_ranged_35_ub: [ 1 x_8_ ^ 2 - 2 x_18_ * x_8_ + 1 x_18_ ^ 2 + 1 y_8_ ^ 2 - 2 y_18_ * y_8_ + 1 y_18_ ^ 2 ] <= 9701.05
quadratic_ranged_36_ub: [ 1 x_14_ ^ 2 - 2 x_18_ * x_14_ + 1 x_18_ ^ 2 + 1 y_14_ ^ 2 - 2 y_18_ * y_14_ + 1 y_18_ ^ 2 ] <= 10637.32
quadratic_ranged_37_ub: [ 1 x_15_ ^ 2 - 2 x_18_ * x_15_ + 1 x_18_ ^ 2 + 1 y_15_ ^ 2 - 2 y_18_ * y_15_ + 1 y_18_ ^ 2 ] <= 7370.9800000000005
quadratic_ranged_38_ub: [ 1 x_17_ ^ 2 - 2 x_18_ * x_17_ + 1 x_18_ ^ 2 + 1 y_17_ ^ 2 - 2 y_18_ * y_17_ + 1 y_18_ ^ 2 ] <= 11822.05
quadratic_ranged_39_ub: [ 1 x_3_ ^ 2 - 2 x_19_ * x_3_ + 1 x_19_ ^ 2 + 1 y_3_ ^ 2 - 2 y_19_ * y_3_ + 1 y_19_ ^ 2 ] <= 15806.5
quadratic_ranged_40_ub: [ 1 x_18_ ^ 2 - 2 x_19_ * x_18_ + 1 x_19_ ^ 2 + 1 y_18_ ^ 2 - 2 y_19_ * y_18_ + 1 y_19_ ^ 2 ] <= 4664.18
quadratic_ranged_41_ub: [ 1 x_3_ ^ 2 - 2 x_20_ * x_3_ + 1 x_20_ ^ 2 + 1 y_3_ ^ 2 - 2 y_20_ * y_3_ + 1 y_20_ ^ 2 ] <= 3422.89
quadratic_ranged_42_ub: [ 1 x_11_ ^ 2 - 2 x_20_ * x_11_ + 1 x_20_ ^ 2 + 1 y_11_ ^ 2 - 2 y_20_ * y_11_ + 1 y_20_ ^ 2 ] <= 17230.6
quadratic_ranged_43_ub: [ 1 x_13_ ^ 2 - 2 x_20_ * x_13_ + 1 x_20_ ^ 2 + 1 y_13_ ^ 2 - 2 y_20_ * y_13_ + 1 y_20_ ^ 2 ] <= 292.9
quadratic_ranged_44_ub: [ 1 x_16_ ^ 2 - 2 x_20_ * x_16_ + 1 x_20_ ^ 2 + 1 y_16_ ^ 2 - 2 y_20_ * y_16_ + 1 y_20_ ^ 2 ] <= 21130.21
quadratic_ranged_45_ub: [ 1 x_19_ ^ 2 - 2 x_20_ * x_19_ + 1 x_20_ ^ 2 + 1 y_19_ ^ 2 - 2 y_20_ * y_19_ + 1 y_20_ ^ 2 ] <= 19906.09
quadratic_ranged_46_ub: [ 1 x_20_ ^ 2 - 2 x_21_ * x_20_ + 1 x_21_ ^ 2 + 1 y_20_ ^ 2 - 2 y_21_ * y_20_ + 1 y_21_ ^ 2 ] <= 19848.52
quadratic_ranged_47_ub: [ 1 x_5_ ^ 2 - 2 x_22_ * x_5_ + 1 x_22_ ^ 2 + 1 y_5_ ^ 2 - 2 y_22_ * y_5_ + 1 y_22_ ^ 2 ] <= 8262.81
quadratic_ranged_48_ub: [ 1 x_6_ ^ 2 - 2 x_22_ * x_6_ + 1 x_22_ ^ 2 + 1 y_6_ ^ 2 - 2 y_22_ * y_6_ + 1 y_22_ ^ 2 ] <= 13773.37
quadratic_ranged_49_ub: [ 1 x_7_ ^ 2 - 2 x_22_ * x_7_ + 1 x_22_ ^ 2 + 1 y_7_ ^ 2 - 2 y_22_ * y_7_ + 1 y_22_ ^ 2 ] <= 31791.77
quadratic_ranged_50_ub: [ 1 x_9_ ^ 2 - 2 x_22_ * x_9_ + 1 x_22_ ^ 2 + 1 y_9_ ^ 2 - 2 y_22_ * y_9_ + 1 y_22_ ^ 2 ] <= 48363.85
quadratic_ranged_51_ub: [ 1 x_17_ ^ 2 - 2 x_22_ * x_17_ + 1 x_22_ ^ 2 + 1 y_17_ ^ 2 - 2 y_22_ * y_17_ + 1 y_22_ ^ 2 ] <= 26344.84
quadratic_ranged_52_ub: [ 1 x_21_ ^ 2 - 2 x_22_ * x_21_ + 1 x_22_ ^ 2 + 1 y_21_ ^ 2 - 2 y_22_ * y_21_ + 1 y_22_ ^ 2 ] <= 22898.72
quadratic_ranged_53_ub: [ 1 x_22_ ^ 2 - 2 x_23_ * x_22_ + 1 x_23_ ^ 2 + 1 y_22_ ^ 2 - 2 y_23_ * y_22_ + 1 y_23_ ^ 2 ] <= 25896.4
quadratic_ranged_54_ub: [ 1 x_13_ ^ 2 - 2 x_24_ * x_13_ + 1 x_24_ ^ 2 + 1 y_13_ ^ 2 - 2 y_24_ * y_13_ + 1 y_24_ ^ 2 ] <= 12025.06
quadratic_ranged_55_ub: [ 1 x_17_ ^ 2 - 2 x_24_ * x_17_ + 1 x_24_ ^ 2 + 1 y_17_ ^ 2 - 2 y_24_ * y_17_ + 1 y_24_ ^ 2 ] <= 3724.88
quadratic_ranged_56_ub: [ 1 x_22_ ^ 2 - 2 x_24_ * x_22_ + 1 x_24_ ^ 2 + 1 y_22_ ^ 2 - 2 y_24_ * y_22_ + 1 y_24_ ^ 2 ] <= 10524.2
quadratic_ranged_57_ub: [ 1 x_23_ ^ 2 - 2 x_24_ * x_23_ + 1 x_24_ ^ 2 + 1 y_23_ ^ 2 - 2 y_24_ * y_23_ + 1 y_24_ ^ 2 ] <= 40501
quadratic_ranged_58_ub: [ 1 x_24_ ^ 2 - 2 x_25_ * x_24_ + 1 x_25_ ^ 2 + 1 y_24_ ^ 2 - 2 y_25_ * y_24_ + 1 y_25_ ^ 2 ] <= 9528.34
quadratic_ranged_59_ub: [ 1 x_12_ ^ 2 - 2 x_26_ * x_12_ + 1 x_26_ ^ 2 + 1 y_12_ ^ 2 - 2 y_26_ * y_12_ + 1 y_26_ ^ 2 ] <= 20144.45
quadratic_ranged_60_ub: [ 1 x_14_ ^ 2 - 2 x_26_ * x_14_ + 1 x_26_ ^ 2 + 1 y_14_ ^ 2 - 2 y_26_ * y_14_ + 1 y_26_ ^ 2 ] <= 19780.85
quadratic_ranged_61_ub: [ 1 x_19_ ^ 2 - 2 x_26_ * x_19_ + 1 x_26_ ^ 2 + 1 y_19_ ^ 2 - 2 y_26_ * y_19_ + 1 y_26_ ^ 2 ] <= 14088.49
quadratic_ranged_62_ub: [ 1 x_25_ ^ 2 - 2 x_26_ * x_25_ + 1 x_26_ ^ 2 + 1 y_25_ ^ 2 - 2 y_26_ * y_25_ + 1 y_26_ ^ 2 ] <= 19394.02
quadratic_ranged_63_ub: [ 1 x_3_ ^ 2 - 2 x_27_ * x_3_ + 1 x_27_ ^ 2 + 1 y_3_ ^ 2 - 2 y_27_ * y_3_ + 1 y_27_ ^ 2 ] <= 13300.69
quadratic_ranged_64_ub: [ 1 x_13_ ^ 2 - 2 x_27_ * x_13_ + 1 x_27_ ^ 2 + 1 y_13_ ^ 2 - 2 y_27_ * y_13_ + 1 y_27_ ^ 2 ] <= 30970.64
quadratic_ranged_65_ub: [ 1 x_14_ ^ 2 - 2 x_27_ * x_14_ + 1 x_27_ ^ 2 + 1 y_14_ ^ 2 - 2 y_27_ * y_14_ + 1 y_27_ ^ 2 ] <= 2089.69
quadratic_ranged_66_ub: [ 1 x_26_ ^ 2 - 2 x_27_ * x_26_ + 1 x_27_ ^ 2 + 1 y_26_ ^ 2 - 2 y_27_ * y_26_ + 1 y_27_ ^ 2 ] <= 26205.46
quadratic_ranged_67_ub: [ 1 x_4_ ^ 2 - 2 x_28_ * x_4_ + 1 x_28_ ^ 2 + 1 y_4_ ^ 2 - 2 y_28_ * y_4_ + 1 y_28_ ^ 2 ] <= 8508.24
quadratic_ranged_68_ub: [ 1 x_7_ ^ 2 - 2 x_28_ * x_7_ + 1 x_28_ ^ 2 + 1 y_7_ ^ 2 - 2 y_28_ * y_7_ + 1 y_28_ ^ 2 ] <= 7373
quadratic_ranged_69_ub: [ 1 x_17_ ^ 2 - 2 x_28_ * x_17_ + 1 x_28_ ^ 2 + 1 y_17_ ^ 2 - 2 y_28_ * y_17_ + 1 y_28_ ^ 2 ] <= 9317.25
quadratic_ranged_70_ub: [ 1 x_18_ ^ 2 - 2 x_28_ * x_18_ + 1 x_28_ ^ 2 + 1 y_18_ ^ 2 - 2 y_28_ * y_18_ + 1 y_28_ ^ 2 ] <= 292.9
quadratic_ranged_71_ub: [ 1 x_21_ ^ 2 - 2 x_28_ * x_21_ + 1 x_28_ ^ 2 + 1 y_21_ ^ 2 - 2 y_28_ * y_21_ + 1 y_28_ ^ 2 ] <= 5398.45
quadratic_ranged_72_ub: [ 1 x_24_ ^ 2 - 2 x_28_ * x_24_ + 1 x_28_ ^ 2 + 1 y_24_ ^ 2 - 2 y_28_ * y_24_ + 1 y_28_ ^ 2 ] <= 8739.53
quadratic_ranged_73_ub: [ 1 x_26_ ^ 2 - 2 x_28_ * x_26_ + 1 x_28_ ^ 2 + 1 y_26_ ^ 2 - 2 y_28_ * y_26_ + 1 y_28_ ^ 2 ] <= 11252.41
quadratic_ranged_74_ub: [ 1 x_27_ ^ 2 - 2 x_28_ * x_27_ + 1 x_28_ ^ 2 + 1 y_27_ ^ 2 - 2 y_28_ * y_27_ + 1 y_28_ ^ 2 ] <= 11058.49
quadratic_ranged_75_ub: [ 1 x_7_ ^ 2 - 2 x_29_ * x_7_ + 1 x_29_ ^ 2 + 1 y_7_ ^ 2 - 2 y_29_ * y_7_ + 1 y_29_ ^ 2 ] <= 38809.25
quadratic_ranged_76_ub: [ 1 x_12_ ^ 2 - 2 x_29_ * x_12_ + 1 x_29_ ^ 2 + 1 y_12_ ^ 2 - 2 y_29_ * y_12_ + 1 y_29_ ^ 2 ] <= 21756.41
quadratic_ranged_77_ub: [ 1 x_28_ ^ 2 - 2 x_29_ * x_28_ + 1 x_29_ ^ 2 + 1 y_28_ ^ 2 - 2 y_29_ * y_28_ + 1 y_29_ ^ 2 ] <= 13862.25
quadratic_ranged_78_ub: [ 1 x_9_ ^ 2 - 2 x_30_ * x_9_ + 1 x_30_ ^ 2 + 1 y_9_ ^ 2 - 2 y_30_ * y_9_ + 1 y_30_ ^ 2 ] <= 58076.01
quadratic_ranged_79_ub: [ 1 x_13_ ^ 2 - 2 x_30_ * x_13_ + 1 x_30_ ^ 2 + 1 y_13_ ^ 2 - 2 y_30_ * y_13_ + 1 y_30_ ^ 2 ] <= 549.44
quadratic_ranged_80_ub: [ 1 x_15_ ^ 2 - 2 x_30_ * x_15_ + 1 x_30_ ^ 2 + 1 y_15_ ^ 2 - 2 y_30_ * y_15_ + 1 y_30_ ^ 2 ] <= 53890.57
quadratic_ranged_81_ub: [ 1 x_20_ ^ 2 - 2 x_30_ * x_20_ + 1 x_30_ ^ 2 + 1 y_20_ ^ 2 - 2 y_30_ * y_20_ + 1 y_30_ ^ 2 ] <= 1214.02
quadratic_ranged_82_ub: [ 1 x_22_ ^ 2 - 2 x_30_ * x_22_ + 1 x_30_ ^ 2 + 1 y_22_ ^ 2 - 2 y_30_ * y_22_ + 1 y_30_ ^ 2 ] <= 486.82
quadratic_ranged_83_ub: [ 1 x_29_ ^ 2 - 2 x_30_ * x_29_ + 1 x_30_ ^ 2 + 1 y_29_ ^ 2 - 2 y_30_ * y_29_ + 1 y_30_ ^ 2 ] <= 15863.06
quadratic_ranged_84_ub: [ 1 x_4_ ^ 2 - 2 x_31_ * x_4_ + 1 x_31_ ^ 2 + 1 y_4_ ^ 2 - 2 y_31_ * y_4_ + 1 y_31_ ^ 2 ] <= 6290.28
quadratic_ranged_85_ub: [ 1 x_6_ ^ 2 - 2 x_31_ * x_6_ + 1 x_31_ ^ 2 + 1 y_6_ ^ 2 - 2 y_31_ * y_6_ + 1 y_31_ ^ 2 ] <= 2617.92
quadratic_ranged_86_ub: [ 1 x_11_ ^ 2 - 2 x_31_ * x_11_ + 1 x_31_ ^ 2 + 1 y_11_ ^ 2 - 2 y_31_ * y_11_ + 1 y_31_ ^ 2 ] <= 3794.57
quadratic_ranged_87_ub: [ 1 x_20_ ^ 2 - 2 x_31_ * x_20_ + 1 x_31_ ^ 2 + 1 y_20_ ^ 2 - 2 y_31_ * y_20_ + 1 y_31_ ^ 2 ] <= 9624.29
quadratic_ranged_88_ub: [ 1 x_30_ ^ 2 - 2 x_31_ * x_30_ + 1 x_31_ ^ 2 + 1 y_30_ ^ 2 - 2 y_31_ * y_30_ + 1 y_31_ ^ 2 ] <= 17308.37
quadratic_ranged_89_ub: [ 1 x_11_ ^ 2 - 2 x_32_ * x_11_ + 1 x_32_ ^ 2 + 1 y_11_ ^ 2 - 2 y_32_ * y_11_ + 1 y_32_ ^ 2 ] <= 29851.56
quadratic_ranged_90_ub: [ 1 x_16_ ^ 2 - 2 x_32_ * x_16_ + 1 x_32_ ^ 2 + 1 y_16_ ^ 2 - 2 y_32_ * y_16_ + 1 y_32_ ^ 2 ] <= 4731.85
quadratic_ranged_91_ub: [ 1 x_17_ ^ 2 - 2 x_32_ * x_17_ + 1 x_32_ ^ 2 + 1 y_17_ ^ 2 - 2 y_32_ * y_17_ + 1 y_32_ ^ 2 ] <= 2924.96
quadratic_ranged_92_ub: [ 1 x_19_ ^ 2 - 2 x_32_ * x_19_ + 1 x_32_ ^ 2 + 1 y_19_ ^ 2 - 2 y_32_ * y_19_ + 1 y_32_ ^ 2 ] <= 6085.25
quadratic_ranged_93_ub: [ 1 x_21_ ^ 2 - 2 x_32_ * x_21_ + 1 x_32_ ^ 2 + 1 y_21_ ^ 2 - 2 y_32_ * y_21_ + 1 y_32_ ^ 2 ] <= 31047.4
quadratic_ranged_94_ub: [ 1 x_29_ ^ 2 - 2 x_32_ * x_29_ + 1 x_32_ ^ 2 + 1 y_29_ ^ 2 - 2 y_32_ * y_29_ + 1 y_32_ ^ 2 ] <= 234.32
quadratic_ranged_95_ub: [ 1 x_31_ ^ 2 - 2 x_32_ * x_31_ + 1 x_32_ ^ 2 + 1 y_31_ ^ 2 - 2 y_32_ * y_31_ + 1 y_32_ ^ 2 ] <= 12424.01
quadratic_ranged_96_ub: [ 1 x_2_ ^ 2 - 2 x_33_ * x_2_ + 1 x_33_ ^ 2 + 1 y_2_ ^ 2 - 2 y_33_ * y_2_ + 1 y_33_ ^ 2 ] <= 26026.69
quadratic_ranged_97_ub: [ 1 x_12_ ^ 2 - 2 x_33_ * x_12_ + 1 x_33_ ^ 2 + 1 y_12_ ^ 2 - 2 y_33_ * y_12_ + 1 y_33_ ^ 2 ] <= 1365.52
quadratic_ranged_98_ub: [ 1 x_19_ ^ 2 - 2 x_33_ * x_19_ + 1 x_33_ ^ 2 + 1 y_19_ ^ 2 - 2 y_33_ * y_19_ + 1 y_33_ ^ 2 ] <= 10998.9
quadratic_ranged_99_ub: [ 1 x_28_ ^ 2 - 2 x_33_ * x_28_ + 1 x_33_ ^ 2 + 1 y_28_ ^ 2 - 2 y_33_ * y_28_ + 1 y_33_ ^ 2 ] <= 4058.18
quadratic_ranged_100_ub: [ 1 x_32_ ^ 2 - 2 x_33_ * x_32_ + 1 x_33_ ^ 2 + 1 y_32_ ^ 2 - 2 y_33_ * y_32_ + 1 y_33_ ^ 2 ] <= 30749.45
quadratic_ranged_101_ub: [ 1 x_23_ ^ 2 - 2 x_34_ * x_23_ + 1 x_34_ ^ 2 + 1 y_23_ ^ 2 - 2 y_34_ * y_23_ + 1 y_34_ ^ 2 ] <= 3912.7400000000002
quadratic_ranged_102_ub: [ 1 x_25_ ^ 2 - 2 x_34_ * x_25_ + 1 x_34_ ^ 2 + 1 y_25_ ^ 2 - 2 y_34_ * y_25_ + 1 y_34_ ^ 2 ] <= 18180
quadratic_ranged_103_ub: [ 1 x_27_ ^ 2 - 2 x_34_ * x_27_ + 1 x_34_ ^ 2 + 1 y_27_ ^ 2 - 2 y_34_ * y_27_ + 1 y_34_ ^ 2 ] <= 4726.8
quadratic_ranged_104_ub: [ 1 x_33_ ^ 2 - 2 x_34_ * x_33_ + 1 x_34_ ^ 2 + 1 y_33_ ^ 2 - 2 y_34_ * y_33_ + 1 y_34_ ^ 2 ] <= 10412.09
quadratic_ranged_105_ub: [ 1 x_9_ ^ 2 - 2 x_35_ * x_9_ + 1 x_35_ ^ 2 + 1 y_9_ ^ 2 - 2 y_35_ * y_9_ + 1 y_35_ ^ 2 ] <= 32256.37
quadratic_ranged_106_ub: [ 1 x_34_ ^ 2 - 2 x_35_ * x_34_ + 1 x_35_ ^ 2 + 1 y_34_ ^ 2 - 2 y_35_ * y_34_ + 1 y_35_ ^ 2 ] <= 1682.66
quadratic_ranged_107_ub: [ 1 x_14_ ^ 2 - 2 x_36_ * x_14_ + 1 x_36_ ^ 2 + 1 y_14_ ^ 2 - 2 y_36_ * y_14_ + 1 y_36_ ^ 2 ] <= 5640.85
quadratic_ranged_108_ub: [ 1 x_15_ ^ 2 - 2 x_36_ * x_15_ + 1 x_36_ ^ 2 + 1 y_15_ ^ 2 - 2 y_36_ * y_15_ + 1 y_36_ ^ 2 ] <= 20023.25
quadratic_ranged_109_ub: [ 1 x_16_ ^ 2 - 2 x_36_ * x_16_ + 1 x_36_ ^ 2 + 1 y_16_ ^ 2 - 2 y_36_ * y_16_ + 1 y_36_ ^ 2 ] <= 16245.85
quadratic_ranged_110_ub: [ 1 x_22_ ^ 2 - 2 x_36_ * x_22_ + 1 x_36_ ^ 2 + 1 y_22_ ^ 2 - 2 y_36_ * y_22_ + 1 y_36_ ^ 2 ] <= 8261.8
quadratic_ranged_111_ub: [ 1 x_25_ ^ 2 - 2 x_36_ * x_25_ + 1 x_36_ ^ 2 + 1 y_25_ ^ 2 - 2 y_36_ * y_25_ + 1 y_36_ ^ 2 ] <= 14796.5
quadratic_ranged_112_ub: [ 1 x_30_ ^ 2 - 2 x_36_ * x_30_ + 1 x_36_ ^ 2 + 1 y_30_ ^ 2 - 2 y_36_ * y_30_ + 1 y_36_ ^ 2 ] <= 11734.18
quadratic_ranged_113_ub: [ 1 x_35_ ^ 2 - 2 x_36_ * x_35_ + 1 x_36_ ^ 2 + 1 y_35_ ^ 2 - 2 y_36_ * y_35_ + 1 y_36_ ^ 2 ] <= 2173.52
quadratic_ranged_114_ub: [ 1 x_18_ ^ 2 - 2 x_37_ * x_18_ + 1 x_37_ ^ 2 + 1 y_18_ ^ 2 - 2 y_37_ * y_18_ + 1 y_37_ ^ 2 ] <= 14885.380000000001
quadratic_ranged_115_ub: [ 1 x_27_ ^ 2 - 2 x_37_ * x_27_ + 1 x_37_ ^ 2 + 1 y_27_ ^ 2 - 2 y_37_ * y_27_ + 1 y_37_ ^ 2 ] <= 26378.170000000002
quadratic_ranged_116_ub: [ 1 x_36_ ^ 2 - 2 x_37_ * x_36_ + 1 x_37_ ^ 2 + 1 y_36_ ^ 2 - 2 y_37_ * y_36_ + 1 y_37_ ^ 2 ] <= 5539.85
quadratic_ranged_117_ub: [ 1 x_2_ ^ 2 - 2 x_38_ * x_2_ + 1 x_38_ ^ 2 + 1 y_2_ ^ 2 - 2 y_38_ * y_2_ + 1 y_38_ ^ 2 ] <= 28914.28
quadratic_ranged_118_ub: [ 1 x_4_ ^ 2 - 2 x_38_ * x_4_ + 1 x_38_ ^ 2 + 1 y_4_ ^ 2 - 2 y_38_ * y_4_ + 1 y_38_ ^ 2 ] <= 24871.25
quadratic_ranged_119_ub: [ 1 x_9_ ^ 2 - 2 x_38_ * x_9_ + 1 x_38_ ^ 2 + 1 y_9_ ^ 2 - 2 y_38_ * y_9_ + 1 y_38_ ^ 2 ] <= 21388.77
quadratic_ranged_120_ub: [ 1 x_22_ ^ 2 - 2 x_38_ * x_22_ + 1 x_38_ ^ 2 + 1 y_22_ ^ 2 - 2 y_38_ * y_22_ + 1 y_38_ ^ 2 ] <= 20369.68
quadratic_ranged_121_ub: [ 1 x_37_ ^ 2 - 2 x_38_ * x_37_ + 1 x_38_ ^ 2 + 1 y_37_ ^ 2 - 2 y_38_ * y_37_ + 1 y_38_ ^ 2 ] <= 14084.45
quadratic_ranged_122_ub: [ 1 x_3_ ^ 2 - 2 x_39_ * x_3_ + 1 x_39_ ^ 2 + 1 y_3_ ^ 2 - 2 y_39_ * y_3_ + 1 y_39_ ^ 2 ] <= 19090.01
quadratic_ranged_123_ub: [ 1 x_6_ ^ 2 - 2 x_39_ * x_6_ + 1 x_39_ ^ 2 + 1 y_6_ ^ 2 - 2 y_39_ * y_6_ + 1 y_39_ ^ 2 ] <= 3822.85
quadratic_ranged_124_ub: [ 1 x_32_ ^ 2 - 2 x_39_ * x_32_ + 1 x_39_ ^ 2 + 1 y_32_ ^ 2 - 2 y_39_ * y_32_ + 1 y_39_ ^ 2 ] <= 12257.36
quadratic_ranged_125_ub: [ 1 x_35_ ^ 2 - 2 x_39_ * x_35_ + 1 x_39_ ^ 2 + 1 y_35_ ^ 2 - 2 y_39_ * y_35_ + 1 y_39_ ^ 2 ] <= 28506.24
quadratic_ranged_126_ub: [ 1 x_38_ ^ 2 - 2 x_39_ * x_38_ + 1 x_39_ ^ 2 + 1 y_38_ ^ 2 - 2 y_39_ * y_38_ + 1 y_39_ ^ 2 ] <= 24648.04
quadratic_ranged_127_ub: [ 1 x_21_ ^ 2 - 2 x_40_ * x_21_ + 1 x_40_ ^ 2 + 1 y_21_ ^ 2 - 2 y_40_ * y_21_ + 1 y_40_ ^ 2 ] <= 12736.1
quadratic_ranged_128_ub: [ 1 x_38_ ^ 2 - 2 x_40_ * x_38_ + 1 x_40_ ^ 2 + 1 y_38_ ^ 2 - 2 y_40_ * y_38_ + 1 y_40_ ^ 2 ] <= 12631.06
quadratic_ranged_129_ub: [ 1 x_39_ ^ 2 - 2 x_40_ * x_39_ + 1 x_40_ ^ 2 + 1 y_39_ ^ 2 - 2 y_40_ * y_39_ + 1 y_40_ ^ 2 ] <= 18796.1
quadratic_ranged_130_ub: [ 1 x_20_ ^ 2 - 2 x_41_ * x_20_ + 1 x_41_ ^ 2 + 1 y_20_ ^ 2 - 2 y_41_ * y_20_ + 1 y_41_ ^ 2 ] <= 22704.8
quadratic_ranged_131_ub: [ 1 x_28_ ^ 2 - 2 x_41_ * x_28_ + 1 x_41_ ^ 2 + 1 y_28_ ^ 2 - 2 y_41_ * y_28_ + 1 y_41_ ^ 2 ] <= 7664.89
quadratic_ranged_132_ub: [ 1 x_40_ ^ 2 - 2 x_41_ * x_40_ + 1 x_41_ ^ 2 + 1 y_40_ ^ 2 - 2 y_41_ * y_40_ + 1 y_41_ ^ 2 ] <= 17333.62
quadratic_ranged_133_ub: [ 1 x_3_ ^ 2 - 2 x_42_ * x_3_ + 1 x_42_ ^ 2 + 1 y_3_ ^ 2 - 2 y_42_ * y_3_ + 1 y_42_ ^ 2 ] <= 9801.04
quadratic_ranged_134_ub: [ 1 x_8_ ^ 2 - 2 x_42_ * x_8_ + 1 x_42_ ^ 2 + 1 y_8_ ^ 2 - 2 y_42_ * y_8_ + 1 y_42_ ^ 2 ] <= 34825.81
quadratic_ranged_135_ub: [ 1 x_28_ ^ 2 - 2 x_42_ * x_28_ + 1 x_42_ ^ 2 + 1 y_28_ ^ 2 - 2 y_42_ * y_28_ + 1 y_42_ ^ 2 ] <= 10215.14
quadratic_ranged_136_ub: [ 1 x_36_ ^ 2 - 2 x_42_ * x_36_ + 1 x_42_ ^ 2 + 1 y_36_ ^ 2 - 2 y_42_ * y_36_ + 1 y_42_ ^ 2 ] <= 6153.93
quadratic_ranged_137_ub: [ 1 x_41_ ^ 2 - 2 x_42_ * x_41_ + 1 x_42_ ^ 2 + 1 y_41_ ^ 2 - 2 y_42_ * y_41_ + 1 y_42_ ^ 2 ] <= 35464.13
quadratic_ranged_138_ub: [ 1 x_30_ ^ 2 - 2 x_43_ * x_30_ + 1 x_43_ ^ 2 + 1 y_30_ ^ 2 - 2 y_43_ * y_30_ + 1 y_43_ ^ 2 ] <= 13430.98
quadratic_ranged_139_ub: [ 1 x_42_ ^ 2 - 2 x_43_ * x_42_ + 1 x_43_ ^ 2 + 1 y_42_ ^ 2 - 2 y_43_ * y_42_ + 1 y_43_ ^ 2 ] <= 28143.65
quadratic_ranged_140_ub: [ 1 x_3_ ^ 2 - 2 x_44_ * x_3_ + 1 x_44_ ^ 2 + 1 y_3_ ^ 2 - 2 y_44_ * y_3_ + 1 y_44_ ^ 2 ] <= 5770.13
quadratic_ranged_141_ub: [ 1 x_15_ ^ 2 - 2 x_44_ * x_15_ + 1 x_44_ ^ 2 + 1 y_15_ ^ 2 - 2 y_44_ * y_15_ + 1 y_44_ ^ 2 ] <= 16496.33
quadratic_ranged_142_ub: [ 1 x_16_ ^ 2 - 2 x_44_ * x_16_ + 1 x_44_ ^ 2 + 1 y_16_ ^ 2 - 2 y_44_ * y_16_ + 1 y_44_ ^ 2 ] <= 4626.81
quadratic_ranged_143_ub: [ 1 x_21_ ^ 2 - 2 x_44_ * x_21_ + 1 x_44_ ^ 2 + 1 y_21_ ^ 2 - 2 y_44_ * y_21_ + 1 y_44_ ^ 2 ] <= 13980.42
quadratic_ranged_144_ub: [ 1 x_39_ ^ 2 - 2 x_44_ * x_39_ + 1 x_44_ ^ 2 + 1 y_39_ ^ 2 - 2 y_44_ * y_39_ + 1 y_44_ ^ 2 ] <= 8049.7
quadratic_ranged_145_ub: [ 1 x_41_ ^ 2 - 2 x_44_ * x_41_ + 1 x_44_ ^ 2 + 1 y_41_ ^ 2 - 2 y_44_ * y_41_ + 1 y_44_ ^ 2 ] <= 5682.26
quadratic_ranged_146_ub: [ 1 x_43_ ^ 2 - 2 x_44_ * x_43_ + 1 x_44_ ^ 2 + 1 y_43_ ^ 2 - 2 y_44_ * y_43_ + 1 y_44_ ^ 2 ] <= 567.62
quadratic_ranged_147_ub: [ 1 x_4_ ^ 2 - 2 x_45_ * x_4_ + 1 x_45_ ^ 2 + 1 y_4_ ^ 2 - 2 y_45_ * y_4_ + 1 y_45_ ^ 2 ] <= 18936.49
quadratic_ranged_148_ub: [ 1 x_17_ ^ 2 - 2 x_45_ * x_17_ + 1 x_45_ ^ 2 + 1 y_17_ ^ 2 - 2 y_45_ * y_17_ + 1 y_45_ ^ 2 ] <= 14594.5
quadratic_ranged_149_ub: [ 1 x_30_ ^ 2 - 2 x_45_ * x_30_ + 1 x_45_ ^ 2 + 1 y_30_ ^ 2 - 2 y_45_ * y_30_ + 1 y_45_ ^ 2 ] <= 43066.4
quadratic_ranged_150_ub: [ 1 x_36_ ^ 2 - 2 x_45_ * x_36_ + 1 x_45_ ^ 2 + 1 y_36_ ^ 2 - 2 y_45_ * y_36_ + 1 y_45_ ^ 2 ] <= 12130.1
quadratic_ranged_151_ub: [ 1 x_38_ ^ 2 - 2 x_45_ * x_38_ + 1 x_45_ ^ 2 + 1 y_38_ ^ 2 - 2 y_45_ * y_38_ + 1 y_45_ ^ 2 ] <= 15305.54
quadratic_ranged_152_ub: [ 1 x_44_ ^ 2 - 2 x_45_ * x_44_ + 1 x_45_ ^ 2 + 1 y_44_ ^ 2 - 2 y_45_ * y_44_ + 1 y_45_ ^ 2 ] <= 12705.8
quadratic_ranged_153_ub: [ 1 x_7_ ^ 2 - 2 x_46_ * x_7_ + 1 x_46_ ^ 2 + 1 y_7_ ^ 2 - 2 y_46_ * y_7_ + 1 y_46_ ^ 2 ] <= 5842.85
quadratic_ranged_154_ub: [ 1 x_15_ ^ 2 - 2 x_46_ * x_15_ + 1 x_46_ ^ 2 + 1 y_15_ ^ 2 - 2 y_46_ * y_15_ + 1 y_46_ ^ 2 ] <= 4028.89
quadratic_ranged_155_ub: [ 1 x_18_ ^ 2 - 2 x_46_ * x_18_ + 1 x_46_ ^ 2 + 1 y_18_ ^ 2 - 2 y_46_ * y_18_ + 1 y_46_ ^ 2 ] <= 510.05
quadratic_ranged_156_ub: [ 1 x_20_ ^ 2 - 2 x_46_ * x_20_ + 1 x_46_ ^ 2 + 1 y_20_ ^ 2 - 2 y_46_ * y_20_ + 1 y_46_ ^ 2 ] <= 19056.68
quadratic_ranged_157_ub: [ 1 x_45_ ^ 2 - 2 x_46_ * x_45_ + 1 x_46_ ^ 2 + 1 y_45_ ^ 2 - 2 y_46_ * y_45_ + 1 y_46_ ^ 2 ] <= 1270.58
quadratic_ranged_158_ub: [ 1 x_12_ ^ 2 - 2 x_47_ * x_12_ + 1 x_47_ ^ 2 + 1 y_12_ ^ 2 - 2 y_47_ * y_12_ + 1 y_47_ ^ 2 ] <= 17751.76
quadratic_ranged_159_ub: [ 1 x_21_ ^ 2 - 2 x_47_ * x_21_ + 1 x_47_ ^ 2 + 1 y_21_ ^ 2 - 2 y_47_ * y_21_ + 1 y_47_ ^ 2 ] <= 9648.53
quadratic_ranged_160_ub: [ 1 x_46_ ^ 2 - 2 x_47_ * x_46_ + 1 x_47_ ^ 2 + 1 y_46_ ^ 2 - 2 y_47_ * y_46_ + 1 y_47_ ^ 2 ] <= 11761.45
quadratic_ranged_161_ub: [ 1 x_6_ ^ 2 - 2 x_48_ * x_6_ + 1 x_48_ ^ 2 + 1 y_6_ ^ 2 - 2 y_48_ * y_6_ + 1 y_48_ ^ 2 ] <= 1237.25
quadratic_ranged_162_ub: [ 1 x_7_ ^ 2 - 2 x_48_ * x_7_ + 1 x_48_ ^ 2 + 1 y_7_ ^ 2 - 2 y_48_ * y_7_ + 1 y_48_ ^ 2 ] <= 10028.29
quadratic_ranged_163_ub: [ 1 x_15_ ^ 2 - 2 x_48_ * x_15_ + 1 x_48_ ^ 2 + 1 y_15_ ^ 2 - 2 y_48_ * y_15_ + 1 y_48_ ^ 2 ] <= 5572.17
quadratic_ranged_164_ub: [ 1 x_19_ ^ 2 - 2 x_48_ * x_19_ + 1 x_48_ ^ 2 + 1 y_19_ ^ 2 - 2 y_48_ * y_19_ + 1 y_48_ ^ 2 ] <= 1701.85
quadratic_ranged_165_ub: [ 1 x_30_ ^ 2 - 2 x_48_ * x_30_ + 1 x_48_ ^ 2 + 1 y_30_ ^ 2 - 2 y_48_ * y_30_ + 1 y_48_ ^ 2 ] <= 24896.5
quadratic_ranged_166_ub: [ 1 x_34_ ^ 2 - 2 x_48_ * x_34_ + 1 x_48_ ^ 2 + 1 y_34_ ^ 2 - 2 y_48_ * y_34_ + 1 y_48_ ^ 2 ] <= 8849.62
quadratic_ranged_167_ub: [ 1 x_47_ ^ 2 - 2 x_48_ * x_47_ + 1 x_48_ ^ 2 + 1 y_47_ ^ 2 - 2 y_48_ * y_47_ + 1 y_48_ ^ 2 ] <= 10149.49
quadratic_ranged_168_ub: [ 1 x_17_ ^ 2 - 2 x_49_ * x_17_ + 1 x_49_ ^ 2 + 1 y_17_ ^ 2 - 2 y_49_ * y_17_ + 1 y_49_ ^ 2 ] <= 20988.81
quadratic_ranged_169_ub: [ 1 x_22_ ^ 2 - 2 x_49_ * x_22_ + 1 x_49_ ^ 2 + 1 y_22_ ^ 2 - 2 y_49_ * y_22_ + 1 y_49_ ^ 2 ] <= 3095.65
quadratic_ranged_170_ub: [ 1 x_48_ ^ 2 - 2 x_49_ * x_48_ + 1 x_49_ ^ 2 + 1 y_48_ ^ 2 - 2 y_49_ * y_48_ + 1 y_49_ ^ 2 ] <= 8678.93
quadratic_ranged_171_ub: [ 1 x_4_ ^ 2 - 2 x_50_ * x_4_ + 1 x_50_ ^ 2 + 1 y_4_ ^ 2 - 2 y_50_ * y_4_ + 1 y_50_ ^ 2 ] <= 2409.86
quadratic_ranged_172_ub: [ 1 x_29_ ^ 2 - 2 x_50_ * x_29_ + 1 x_50_ ^ 2 + 1 y_29_ ^ 2 - 2 y_50_ * y_29_ + 1 y_50_ ^ 2 ] <= 5261.09
quadratic_ranged_173_ub: [ 1 x_43_ ^ 2 - 2 x_50_ * x_43_ + 1 x_50_ ^ 2 + 1 y_43_ ^ 2 - 2 y_50_ * y_43_ + 1 y_50_ ^ 2 ] <= 1665.49
quadratic_ranged_174_ub: [ 1 x_45_ ^ 2 - 2 x_50_ * x_45_ + 1 x_50_ ^ 2 + 1 y_45_ ^ 2 - 2 y_50_ * y_45_ + 1 y_50_ ^ 2 ] <= 7879.01
quadratic_ranged_175_ub: [ 1 x_49_ ^ 2 - 2 x_50_ * x_49_ + 1 x_50_ ^ 2 + 1 y_49_ ^ 2 - 2 y_50_ * y_49_ + 1 y_50_ ^ 2 ] <= 6791.24
quadratic_ranged_176_ub: [ 1 x_11_ ^ 2 - 2 x_51_ * x_11_ + 1 x_51_ ^ 2 + 1 y_11_ ^ 2 - 2 y_51_ * y_11_ + 1 y_51_ ^ 2 ] <= 32159.41
quadratic_ranged_177_ub: [ 1 x_36_ ^ 2 - 2 x_51_ * x_36_ + 1 x_51_ ^ 2 + 1 y_36_ ^ 2 - 2 y_51_ * y_36_ + 1 y_51_ ^ 2 ] <= 21784.69
quadratic_ranged_178_ub: [ 1 x_50_ ^ 2 - 2 x_51_ * x_50_ + 1 x_51_ ^ 2 + 1 y_50_ ^ 2 - 2 y_51_ * y_50_ + 1 y_51_ ^ 2 ] <= 5294.42
quadratic_ranged_179_ub: [ 1 x_2_ ^ 2 - 2 x_52_ * x_2_ + 1 x_52_ ^ 2 + 1 y_2_ ^ 2 - 2 y_52_ * y_2_ + 1 y_52_ ^ 2 ] <= 2404.81
quadratic_ranged_180_ub: [ 1 x_29_ ^ 2 - 2 x_52_ * x_29_ + 1 x_52_ ^ 2 + 1 y_29_ ^ 2 - 2 y_52_ * y_29_ + 1 y_52_ ^ 2 ] <= 5192.41
quadratic_ranged_181_ub: [ 1 x_51_ ^ 2 - 2 x_52_ * x_51_ + 1 x_52_ ^ 2 + 1 y_51_ ^ 2 - 2 y_52_ * y_51_ + 1 y_52_ ^ 2 ] <= 8419.36
quadratic_ranged_182_ub: [ 1 x_8_ ^ 2 - 2 x_53_ * x_8_ + 1 x_53_ ^ 2 + 1 y_8_ ^ 2 - 2 y_53_ * y_8_ + 1 y_53_ ^ 2 ] <= 1618.02
quadratic_ranged_183_ub: [ 1 x_24_ ^ 2 - 2 x_53_ * x_24_ + 1 x_53_ ^ 2 + 1 y_24_ ^ 2 - 2 y_53_ * y_24_ + 1 y_53_ ^ 2 ] <= 581.76
quadratic_ranged_184_ub: [ 1 x_38_ ^ 2 - 2 x_53_ * x_38_ + 1 x_53_ ^ 2 + 1 y_38_ ^ 2 - 2 y_53_ * y_38_ + 1 y_53_ ^ 2 ] <= 23225.96
quadratic_ranged_185_ub: [ 1 x_39_ ^ 2 - 2 x_53_ * x_39_ + 1 x_53_ ^ 2 + 1 y_39_ ^ 2 - 2 y_53_ * y_39_ + 1 y_53_ ^ 2 ] <= 6464
quadratic_ranged_186_ub: [ 1 x_48_ ^ 2 - 2 x_53_ * x_48_ + 1 x_53_ ^ 2 + 1 y_48_ ^ 2 - 2 y_53_ * y_48_ + 1 y_53_ ^ 2 ] <= 3183.52
quadratic_ranged_187_ub: [ 1 x_52_ ^ 2 - 2 x_53_ * x_52_ + 1 x_53_ ^ 2 + 1 y_52_ ^ 2 - 2 y_53_ * y_52_ + 1 y_53_ ^ 2 ] <= 1831.13
quadratic_ranged_188_ub: [ 1 x_19_ ^ 2 - 2 x_54_ * x_19_ + 1 x_54_ ^ 2 + 1 y_19_ ^ 2 - 2 y_54_ * y_19_ + 1 y_54_ ^ 2 ] <= 4408.65
quadratic_ranged_189_ub: [ 1 x_28_ ^ 2 - 2 x_54_ * x_28_ + 1 x_54_ ^ 2 + 1 y_28_ ^ 2 - 2 y_54_ * y_28_ + 1 y_54_ ^ 2 ] <= 2291.69
quadratic_ranged_190_ub: [ 1 x_31_ ^ 2 - 2 x_54_ * x_31_ + 1 x_54_ ^ 2 + 1 y_31_ ^ 2 - 2 y_54_ * y_31_ + 1 y_54_ ^ 2 ] <= 6315.53
quadratic_ranged_191_ub: [ 1 x_39_ ^ 2 - 2 x_54_ * x_39_ + 1 x_54_ ^ 2 + 1 y_39_ ^ 2 - 2 y_54_ * y_39_ + 1 y_54_ ^ 2 ] <= 1407.94
quadratic_ranged_192_ub: [ 1 x_53_ ^ 2 - 2 x_54_ * x_53_ + 1 x_54_ ^ 2 + 1 y_53_ ^ 2 - 2 y_54_ * y_53_ + 1 y_54_ ^ 2 ] <= 11136.26
quadratic_ranged_193_ub: [ 1 x_5_ ^ 2 - 2 x_55_ * x_5_ + 1 x_55_ ^ 2 + 1 y_5_ ^ 2 - 2 y_55_ * y_5_ + 1 y_55_ ^ 2 ] <= 18185.05
quadratic_ranged_194_ub: [ 1 x_8_ ^ 2 - 2 x_55_ * x_8_ + 1 x_55_ ^ 2 + 1 y_8_ ^ 2 - 2 y_55_ * y_8_ + 1 y_55_ ^ 2 ] <= 31920.04
quadratic_ranged_195_ub: [ 1 x_22_ ^ 2 - 2 x_55_ * x_22_ + 1 x_55_ ^ 2 + 1 y_22_ ^ 2 - 2 y_55_ * y_22_ + 1 y_55_ ^ 2 ] <= 5940.82
quadratic_ranged_196_ub: [ 1 x_37_ ^ 2 - 2 x_55_ * x_37_ + 1 x_55_ ^ 2 + 1 y_37_ ^ 2 - 2 y_55_ * y_37_ + 1 y_55_ ^ 2 ] <= 2364.41
quadratic_ranged_197_ub: [ 1 x_44_ ^ 2 - 2 x_55_ * x_44_ + 1 x_55_ ^ 2 + 1 y_44_ ^ 2 - 2 y_55_ * y_44_ + 1 y_55_ ^ 2 ] <= 14127.880000000001
quadratic_ranged_198_ub: [ 1 x_46_ ^ 2 - 2 x_55_ * x_46_ + 1 x_55_ ^ 2 + 1 y_46_ ^ 2 - 2 y_55_ * y_46_ + 1 y_55_ ^ 2 ] <= 18868.82
quadratic_ranged_199_ub: [ 1 x_49_ ^ 2 - 2 x_55_ * x_49_ + 1 x_55_ ^ 2 + 1 y_49_ ^ 2 - 2 y_55_ * y_49_ + 1 y_55_ ^ 2 ] <= 2691.65
quadratic_ranged_200_ub: [ 1 x_54_ ^ 2 - 2 x_55_ * x_54_ + 1 x_55_ ^ 2 + 1 y_54_ ^ 2 - 2 y_55_ * y_54_ + 1 y_55_ ^ 2 ] <= 30998.920000000002
quadratic_ranged_201_ub: [ 1 x_10_ ^ 2 - 2 x_56_ * x_10_ + 1 x_56_ ^ 2 + 1 y_10_ ^ 2 - 2 y_56_ * y_10_ + 1 y_56_ ^ 2 ] <= 2449.25
quadratic_ranged_202_ub: [ 1 x_11_ ^ 2 - 2 x_56_ * x_11_ + 1 x_56_ ^ 2 + 1 y_11_ ^ 2 - 2 y_56_ * y_11_ + 1 y_56_ ^ 2 ] <= 5467.13
quadratic_ranged_203_ub: [ 1 x_13_ ^ 2 - 2 x_56_ * x_13_ + 1 x_56_ ^ 2 + 1 y_13_ ^ 2 - 2 y_56_ * y_13_ + 1 y_56_ ^ 2 ] <= 19348.57
quadratic_ranged_204_ub: [ 1 x_18_ ^ 2 - 2 x_56_ * x_18_ + 1 x_56_ ^ 2 + 1 y_18_ ^ 2 - 2 y_56_ * y_18_ + 1 y_56_ ^ 2 ] <= 258.56
quadratic_ranged_205_ub: [ 1 x_42_ ^ 2 - 2 x_56_ * x_42_ + 1 x_56_ ^ 2 + 1 y_42_ ^ 2 - 2 y_56_ * y_42_ + 1 y_56_ ^ 2 ] <= 9930.32
quadratic_ranged_206_ub: [ 1 x_52_ ^ 2 - 2 x_56_ * x_52_ + 1 x_56_ ^ 2 + 1 y_52_ ^ 2 - 2 y_56_ * y_52_ + 1 y_56_ ^ 2 ] <= 5544.9
quadratic_ranged_207_ub: [ 1 x_55_ ^ 2 - 2 x_56_ * x_55_ + 1 x_56_ ^ 2 + 1 y_55_ ^ 2 - 2 y_56_ * y_55_ + 1 y_56_ ^ 2 ] <= 17284.13
quadratic_ranged_208_ub: [ 1 x_19_ ^ 2 - 2 x_57_ * x_19_ + 1 x_57_ ^ 2 + 1 y_19_ ^ 2 - 2 y_57_ * y_19_ + 1 y_57_ ^ 2 ] <= 16460.98
quadratic_ranged_209_ub: [ 1 x_32_ ^ 2 - 2 x_57_ * x_32_ + 1 x_57_ ^ 2 + 1 y_32_ ^ 2 - 2 y_57_ * y_32_ + 1 y_57_ ^ 2 ] <= 33888.53
quadratic_ranged_210_ub: [ 1 x_35_ ^ 2 - 2 x_57_ * x_35_ + 1 x_57_ ^ 2 + 1 y_35_ ^ 2 - 2 y_57_ * y_35_ + 1 y_57_ ^ 2 ] <= 10080.81
quadratic_ranged_211_ub: [ 1 x_46_ ^ 2 - 2 x_57_ * x_46_ + 1 x_57_ ^ 2 + 1 y_46_ ^ 2 - 2 y_57_ * y_46_ + 1 y_57_ ^ 2 ] <= 4372.29
quadratic_ranged_212_ub: [ 1 x_54_ ^ 2 - 2 x_57_ * x_54_ + 1 x_57_ ^ 2 + 1 y_54_ ^ 2 - 2 y_57_ * y_54_ + 1 y_57_ ^ 2 ] <= 7434.61
quadratic_ranged_213_ub: [ 1 x_56_ ^ 2 - 2 x_57_ * x_56_ + 1 x_57_ ^ 2 + 1 y_56_ ^ 2 - 2 y_57_ * y_56_ + 1 y_57_ ^ 2 ] <= 5417.64
quadratic_ranged_214_ub: [ 1 x_10_ ^ 2 - 2 x_58_ * x_10_ + 1 x_58_ ^ 2 + 1 y_10_ ^ 2 - 2 y_58_ * y_10_ + 1 y_58_ ^ 2 ] <= 21784.69
quadratic_ranged_215_ub: [ 1 x_14_ ^ 2 - 2 x_58_ * x_14_ + 1 x_58_ ^ 2 + 1 y_14_ ^ 2 - 2 y_58_ * y_14_ + 1 y_58_ ^ 2 ] <= 45458.08
quadratic_ranged_216_ub: [ 1 x_18_ ^ 2 - 2 x_58_ * x_18_ + 1 x_58_ ^ 2 + 1 y_18_ ^ 2 - 2 y_58_ * y_18_ + 1 y_58_ ^ 2 ] <= 12948.2
quadratic_ranged_217_ub: [ 1 x_33_ ^ 2 - 2 x_58_ * x_33_ + 1 x_58_ ^ 2 + 1 y_33_ ^ 2 - 2 y_58_ * y_33_ + 1 y_58_ ^ 2 ] <= 25734.8
quadratic_ranged_218_ub: [ 1 x_55_ ^ 2 - 2 x_58_ * x_55_ + 1 x_58_ ^ 2 + 1 y_55_ ^ 2 - 2 y_58_ * y_55_ + 1 y_58_ ^ 2 ] <= 36268.090000000004
quadratic_ranged_219_ub: [ 1 x_56_ ^ 2 - 2 x_58_ * x_56_ + 1 x_58_ ^ 2 + 1 y_56_ ^ 2 - 2 y_58_ * y_56_ + 1 y_58_ ^ 2 ] <= 11073.64
quadratic_ranged_220_ub: [ 1 x_57_ ^ 2 - 2 x_58_ * x_57_ + 1 x_58_ ^ 2 + 1 y_57_ ^ 2 - 2 y_58_ * y_57_ + 1 y_58_ ^ 2 ] <= 31883.68
quadratic_ranged_221_ub: [ 1 x_3_ ^ 2 - 2 x_59_ * x_3_ + 1 x_59_ ^ 2 + 1 y_3_ ^ 2 - 2 y_59_ * y_3_ + 1 y_59_ ^ 2 ] <= 6027.68
quadratic_ranged_222_ub: [ 1 x_11_ ^ 2 - 2 x_59_ * x_11_ + 1 x_59_ ^ 2 + 1 y_11_ ^ 2 - 2 y_59_ * y_11_ + 1 y_59_ ^ 2 ] <= 53.53
quadratic_ranged_223_ub: [ 1 x_36_ ^ 2 - 2 x_59_ * x_36_ + 1 x_59_ ^ 2 + 1 y_36_ ^ 2 - 2 y_59_ * y_36_ + 1 y_59_ ^ 2 ] <= 2958.29
quadratic_ranged_224_ub: [ 1 x_45_ ^ 2 - 2 x_59_ * x_45_ + 1 x_59_ ^ 2 + 1 y_45_ ^ 2 - 2 y_59_ * y_45_ + 1 y_59_ ^ 2 ] <= 6792.25
quadratic_ranged_225_ub: [ 1 x_53_ ^ 2 - 2 x_59_ * x_53_ + 1 x_59_ ^ 2 + 1 y_53_ ^ 2 - 2 y_59_ * y_53_ + 1 y_59_ ^ 2 ] <= 15736.81
quadratic_ranged_226_ub: [ 1 x_58_ ^ 2 - 2 x_59_ * x_58_ + 1 x_59_ ^ 2 + 1 y_58_ ^ 2 - 2 y_59_ * y_58_ + 1 y_59_ ^ 2 ] <= 28946.6
quadratic_ranged_227_ub: [ 1 x_5_ ^ 2 - 2 x_60_ * x_5_ + 1 x_60_ ^ 2 + 1 y_5_ ^ 2 - 2 y_60_ * y_5_ + 1 y_60_ ^ 2 ] <= 8000.21
quadratic_ranged_228_ub: [ 1 x_6_ ^ 2 - 2 x_60_ * x_6_ + 1 x_60_ ^ 2 + 1 y_6_ ^ 2 - 2 y_60_ * y_6_ + 1 y_60_ ^ 2 ] <= 12751.25
quadratic_ranged_229_ub: [ 1 x_21_ ^ 2 - 2 x_60_ * x_21_ + 1 x_60_ ^ 2 + 1 y_21_ ^ 2 - 2 y_60_ * y_21_ + 1 y_60_ ^ 2 ] <= 20274.74
quadratic_ranged_230_ub: [ 1 x_27_ ^ 2 - 2 x_60_ * x_27_ + 1 x_60_ ^ 2 + 1 y_27_ ^ 2 - 2 y_60_ * y_27_ + 1 y_60_ ^ 2 ] <= 30356.56
quadratic_ranged_231_ub: [ 1 x_50_ ^ 2 - 2 x_60_ * x_50_ + 1 x_60_ ^ 2 + 1 y_50_ ^ 2 - 2 y_60_ * y_50_ + 1 y_60_ ^ 2 ] <= 11967.49
quadratic_ranged_232_ub: [ 1 x_59_ ^ 2 - 2 x_60_ * x_59_ + 1 x_60_ ^ 2 + 1 y_59_ ^ 2 - 2 y_60_ * y_59_ + 1 y_60_ ^ 2 ] <= 18589.05
quadratic_ranged_233_ub: [ 1 x_1_ ^ 2 - 2 x_61_ * x_1_ + 1 x_61_ ^ 2 + 1 y_1_ ^ 2 - 2 y_61_ * y_1_ + 1 y_61_ ^ 2 ] <= 10164.64
quadratic_ranged_234_ub: [ 1 x_17_ ^ 2 - 2 x_61_ * x_17_ + 1 x_61_ ^ 2 + 1 y_17_ ^ 2 - 2 y_61_ * y_17_ + 1 y_61_ ^ 2 ] <= 9830.33
quadratic_ranged_235_ub: [ 1 x_20_ ^ 2 - 2 x_61_ * x_20_ + 1 x_61_ ^ 2 + 1 y_20_ ^ 2 - 2 y_61_ * y_20_ + 1 y_61_ ^ 2 ] <= 30042.45
quadratic_ranged_236_ub: [ 1 x_23_ ^ 2 - 2 x_61_ * x_23_ + 1 x_61_ ^ 2 + 1 y_23_ ^ 2 - 2 y_61_ * y_23_ + 1 y_61_ ^ 2 ] <= 30042.45
quadratic_ranged_237_ub: [ 1 x_30_ ^ 2 - 2 x_61_ * x_30_ + 1 x_61_ ^ 2 + 1 y_30_ ^ 2 - 2 y_61_ * y_30_ + 1 y_61_ ^ 2 ] <= 43249.21
quadratic_ranged_238_ub: [ 1 x_53_ ^ 2 - 2 x_61_ * x_53_ + 1 x_61_ ^ 2 + 1 y_53_ ^ 2 - 2 y_61_ * y_53_ + 1 y_61_ ^ 2 ] <= 9979.81
quadratic_ranged_239_ub: [ 1 x_59_ ^ 2 - 2 x_61_ * x_59_ + 1 x_61_ ^ 2 + 1 y_59_ ^ 2 - 2 y_61_ * y_59_ + 1 y_61_ ^ 2 ] <= 10263.62
quadratic_ranged_240_ub: [ 1 x_60_ ^ 2 - 2 x_61_ * x_60_ + 1 x_61_ ^ 2 + 1 y_60_ ^ 2 - 2 y_61_ * y_60_ + 1 y_61_ ^ 2 ] <= 32300.81
quadratic_ranged_241_ub: [ 1 x_1_ ^ 2 - 2 x_62_ * x_1_ + 1 x_62_ ^ 2 + 1 y_1_ ^ 2 - 2 y_62_ * y_1_ + 1 y_62_ ^ 2 ] <= 14925.78
quadratic_ranged_242_ub: [ 1 x_6_ ^ 2 - 2 x_62_ * x_6_ + 1 x_62_ ^ 2 + 1 y_6_ ^ 2 - 2 y_62_ * y_6_ + 1 y_62_ ^ 2 ] <= 9964.66
quadratic_ranged_243_ub: [ 1 x_15_ ^ 2 - 2 x_62_ * x_15_ + 1 x_62_ ^ 2 + 1 y_15_ ^ 2 - 2 y_62_ * y_15_ + 1 y_62_ ^ 2 ] <= 713.0600000000001
quadratic_ranged_244_ub: [ 1 x_26_ ^ 2 - 2 x_62_ * x_26_ + 1 x_62_ ^ 2 + 1 y_26_ ^ 2 - 2 y_62_ * y_26_ + 1 y_62_ ^ 2 ] <= 27170.010000000002
quadratic_ranged_245_ub: [ 1 x_46_ ^ 2 - 2 x_62_ * x_46_ + 1 x_62_ ^ 2 + 1 y_46_ ^ 2 - 2 y_62_ * y_46_ + 1 y_62_ ^ 2 ] <= 2267.45
quadratic_ranged_246_ub: [ 1 x_47_ ^ 2 - 2 x_62_ * x_47_ + 1 x_62_ ^ 2 + 1 y_47_ ^ 2 - 2 y_62_ * y_47_ + 1 y_62_ ^ 2 ] <= 24078.4
quadratic_ranged_247_ub: [ 1 x_55_ ^ 2 - 2 x_62_ * x_55_ + 1 x_62_ ^ 2 + 1 y_55_ ^ 2 - 2 y_62_ * y_55_ + 1 y_62_ ^ 2 ] <= 32547.25
quadratic_ranged_248_ub: [ 1 x_61_ ^ 2 - 2 x_62_ * x_61_ + 1 x_62_ ^ 2 + 1 y_61_ ^ 2 - 2 y_62_ * y_61_ + 1 y_62_ ^ 2 ] <= 680.74
quadratic_ranged_249_ub: [ 1 x_10_ ^ 2 - 2 x_63_ * x_10_ + 1 x_63_ ^ 2 + 1 y_10_ ^ 2 - 2 y_63_ * y_10_ + 1 y_63_ ^ 2 ] <= 6191.3
quadratic_ranged_250_ub: [ 1 x_17_ ^ 2 - 2 x_63_ * x_17_ + 1 x_63_ ^ 2 + 1 y_17_ ^ 2 - 2 y_63_ * y_17_ + 1 y_63_ ^ 2 ] <= 5544.9
quadratic_ranged_251_ub: [ 1 x_20_ ^ 2 - 2 x_63_ * x_20_ + 1 x_63_ ^ 2 + 1 y_20_ ^ 2 - 2 y_63_ * y_20_ + 1 y_63_ ^ 2 ] <= 8324.42
quadratic_ranged_252_ub: [ 1 x_23_ ^ 2 - 2 x_63_ * x_23_ + 1 x_63_ ^ 2 + 1 y_23_ ^ 2 - 2 y_63_ * y_23_ + 1 y_63_ ^ 2 ] <= 25825.7
quadratic_ranged_253_ub: [ 1 x_39_ ^ 2 - 2 x_63_ * x_39_ + 1 x_63_ ^ 2 + 1 y_39_ ^ 2 - 2 y_63_ * y_39_ + 1 y_63_ ^ 2 ] <= 5383.3
quadratic_ranged_254_ub: [ 1 x_62_ ^ 2 - 2 x_63_ * x_62_ + 1 x_63_ ^ 2 + 1 y_62_ ^ 2 - 2 y_63_ * y_62_ + 1 y_63_ ^ 2 ] <= 11070.61
quadratic_ranged_255_ub: [ 1 x_6_ ^ 2 - 2 x_64_ * x_6_ + 1 x_64_ ^ 2 + 1 y_6_ ^ 2 - 2 y_64_ * y_6_ + 1 y_64_ ^ 2 ] <= 2141.2
quadratic_ranged_256_ub: [ 1 x_20_ ^ 2 - 2 x_64_ * x_20_ + 1 x_64_ ^ 2 + 1 y_20_ ^ 2 - 2 y_64_ * y_20_ + 1 y_64_ ^ 2 ] <= 4061.21
quadratic_ranged_257_ub: [ 1 x_29_ ^ 2 - 2 x_64_ * x_29_ + 1 x_64_ ^ 2 + 1 y_29_ ^ 2 - 2 y_64_ * y_29_ + 1 y_64_ ^ 2 ] <= 6671.05
quadratic_ranged_258_ub: [ 1 x_41_ ^ 2 - 2 x_64_ * x_41_ + 1 x_64_ ^ 2 + 1 y_41_ ^ 2 - 2 y_64_ * y_41_ + 1 y_64_ ^ 2 ] <= 9927.29
quadratic_ranged_259_ub: [ 1 x_58_ ^ 2 - 2 x_64_ * x_58_ + 1 x_64_ ^ 2 + 1 y_58_ ^ 2 - 2 y_64_ * y_58_ + 1 y_64_ ^ 2 ] <= 9698.02
quadratic_ranged_260_ub: [ 1 x_60_ ^ 2 - 2 x_64_ * x_60_ + 1 x_64_ ^ 2 + 1 y_60_ ^ 2 - 2 y_64_ * y_60_ + 1 y_64_ ^ 2 ] <= 4974.25
quadratic_ranged_261_ub: [ 1 x_61_ ^ 2 - 2 x_64_ * x_61_ + 1 x_64_ ^ 2 + 1 y_61_ ^ 2 - 2 y_64_ * y_61_ + 1 y_64_ ^ 2 ] <= 12027.08
quadratic_ranged_262_ub: [ 1 x_63_ ^ 2 - 2 x_64_ * x_63_ + 1 x_64_ ^ 2 + 1 y_63_ ^ 2 - 2 y_64_ * y_63_ + 1 y_64_ ^ 2 ] <= 974.65
quadratic_ranged_263_ub: [ 1 x_8_ ^ 2 - 2 x_65_ * x_8_ + 1 x_65_ ^ 2 + 1 y_8_ ^ 2 - 2 y_65_ * y_8_ + 1 y_65_ ^ 2 ] <= 14949.01
quadratic_ranged_264_ub: [ 1 x_26_ ^ 2 - 2 x_65_ * x_26_ + 1 x_65_ ^ 2 + 1 y_26_ ^ 2 - 2 y_65_ * y_26_ + 1 y_65_ ^ 2 ] <= 6246.85
quadratic_ranged_265_ub: [ 1 x_39_ ^ 2 - 2 x_65_ * x_39_ + 1 x_65_ ^ 2 + 1 y_39_ ^ 2 - 2 y_65_ * y_39_ + 1 y_65_ ^ 2 ] <= 10933.25
quadratic_ranged_266_ub: [ 1 x_40_ ^ 2 - 2 x_65_ * x_40_ + 1 x_65_ ^ 2 + 1 y_40_ ^ 2 - 2 y_65_ * y_40_ + 1 y_65_ ^ 2 ] <= 4247.05
quadratic_ranged_267_ub: [ 1 x_59_ ^ 2 - 2 x_65_ * x_59_ + 1 x_65_ ^ 2 + 1 y_59_ ^ 2 - 2 y_65_ * y_59_ + 1 y_65_ ^ 2 ] <= 1876.58
quadratic_ranged_268_ub: [ 1 x_60_ ^ 2 - 2 x_65_ * x_60_ + 1 x_65_ ^ 2 + 1 y_60_ ^ 2 - 2 y_65_ * y_60_ + 1 y_65_ ^ 2 ] <= 9515.210000000001
quadratic_ranged_269_ub: [ 1 x_64_ ^ 2 - 2 x_65_ * x_64_ + 1 x_65_ ^ 2 + 1 y_64_ ^ 2 - 2 y_65_ * y_64_ + 1 y_65_ ^ 2 ] <= 2525
quadratic_ranged_270_ub: [ 1 x_1_ ^ 2 - 2 x_66_ * x_1_ + 1 x_66_ ^ 2 + 1 y_1_ ^ 2 - 2 y_66_ * y_1_ + 1 y_66_ ^ 2 ] <= 20083.85
quadratic_ranged_271_ub: [ 1 x_12_ ^ 2 - 2 x_66_ * x_12_ + 1 x_66_ ^ 2 + 1 y_12_ ^ 2 - 2 y_66_ * y_12_ + 1 y_66_ ^ 2 ] <= 10735.29
quadratic_ranged_272_ub: [ 1 x_16_ ^ 2 - 2 x_66_ * x_16_ + 1 x_66_ ^ 2 + 1 y_16_ ^ 2 - 2 y_66_ * y_16_ + 1 y_66_ ^ 2 ] <= 25804.49
quadratic_ranged_273_ub: [ 1 x_22_ ^ 2 - 2 x_66_ * x_22_ + 1 x_66_ ^ 2 + 1 y_22_ ^ 2 - 2 y_66_ * y_22_ + 1 y_66_ ^ 2 ] <= 20444.420000000002
quadratic_ranged_274_ub: [ 1 x_32_ ^ 2 - 2 x_66_ * x_32_ + 1 x_66_ ^ 2 + 1 y_32_ ^ 2 - 2 y_66_ * y_32_ + 1 y_66_ ^ 2 ] <= 34568.26
quadratic_ranged_275_ub: [ 1 x_37_ ^ 2 - 2 x_66_ * x_37_ + 1 x_66_ ^ 2 + 1 y_37_ ^ 2 - 2 y_66_ * y_37_ + 1 y_66_ ^ 2 ] <= 14690.45
quadratic_ranged_276_ub: [ 1 x_40_ ^ 2 - 2 x_66_ * x_40_ + 1 x_66_ ^ 2 + 1 y_40_ ^ 2 - 2 y_66_ * y_40_ + 1 y_66_ ^ 2 ] <= 11845.28
quadratic_ranged_277_ub: [ 1 x_57_ ^ 2 - 2 x_66_ * x_57_ + 1 x_66_ ^ 2 + 1 y_57_ ^ 2 - 2 y_66_ * y_57_ + 1 y_66_ ^ 2 ] <= 1750.33
quadratic_ranged_278_ub: [ 1 x_60_ ^ 2 - 2 x_66_ * x_60_ + 1 x_66_ ^ 2 + 1 y_60_ ^ 2 - 2 y_66_ * y_60_ + 1 y_66_ ^ 2 ] <= 17925.48
quadratic_ranged_279_ub: [ 1 x_65_ ^ 2 - 2 x_66_ * x_65_ + 1 x_66_ ^ 2 + 1 y_65_ ^ 2 - 2 y_66_ * y_65_ + 1 y_66_ ^ 2 ] <= 2873.45
quadratic_ranged_280_ub: [ 1 x_2_ ^ 2 - 2 x_67_ * x_2_ + 1 x_67_ ^ 2 + 1 y_2_ ^ 2 - 2 y_67_ * y_2_ + 1 y_67_ ^ 2 ] <= 5576.21
quadratic_ranged_281_ub: [ 1 x_11_ ^ 2 - 2 x_67_ * x_11_ + 1 x_67_ ^ 2 + 1 y_11_ ^ 2 - 2 y_67_ * y_11_ + 1 y_67_ ^ 2 ] <= 10149.49
quadratic_ranged_282_ub: [ 1 x_14_ ^ 2 - 2 x_67_ * x_14_ + 1 x_67_ ^ 2 + 1 y_14_ ^ 2 - 2 y_67_ * y_14_ + 1 y_67_ ^ 2 ] <= 15097.48
quadratic_ranged_283_ub: [ 1 x_30_ ^ 2 - 2 x_67_ * x_30_ + 1 x_67_ ^ 2 + 1 y_30_ ^ 2 - 2 y_67_ * y_30_ + 1 y_67_ ^ 2 ] <= 4558.13
quadratic_ranged_284_ub: [ 1 x_33_ ^ 2 - 2 x_67_ * x_33_ + 1 x_67_ ^ 2 + 1 y_33_ ^ 2 - 2 y_67_ * y_33_ + 1 y_67_ ^ 2 ] <= 21674.6
quadratic_ranged_285_ub: [ 1 x_35_ ^ 2 - 2 x_67_ * x_35_ + 1 x_67_ ^ 2 + 1 y_35_ ^ 2 - 2 y_67_ * y_35_ + 1 y_67_ ^ 2 ] <= 5398.45
quadratic_ranged_286_ub: [ 1 x_49_ ^ 2 - 2 x_67_ * x_49_ + 1 x_67_ ^ 2 + 1 y_49_ ^ 2 - 2 y_67_ * y_49_ + 1 y_67_ ^ 2 ] <= 359.56
quadratic_ranged_287_ub: [ 1 x_57_ ^ 2 - 2 x_67_ * x_57_ + 1 x_67_ ^ 2 + 1 y_57_ ^ 2 - 2 y_67_ * y_57_ + 1 y_67_ ^ 2 ] <= 15824.68
quadratic_ranged_288_ub: [ 1 x_58_ ^ 2 - 2 x_67_ * x_58_ + 1 x_67_ ^ 2 + 1 y_58_ ^ 2 - 2 y_67_ * y_58_ + 1 y_67_ ^ 2 ] <= 15453
quadratic_ranged_289_ub: [ 1 x_66_ ^ 2 - 2 x_67_ * x_66_ + 1 x_67_ ^ 2 + 1 y_66_ ^ 2 - 2 y_67_ * y_66_ + 1 y_67_ ^ 2 ] <= 11236.25
quadratic_ranged_290_ub: [ 1 x_2_ ^ 2 - 2 x_68_ * x_2_ + 1 x_68_ ^ 2 + 1 y_2_ ^ 2 - 2 y_68_ * y_2_ + 1 y_68_ ^ 2 ] <= 2008.89
quadratic_ranged_291_ub: [ 1 x_28_ ^ 2 - 2 x_68_ * x_28_ + 1 x_68_ ^ 2 + 1 y_28_ ^ 2 - 2 y_68_ * y_28_ + 1 y_68_ ^ 2 ] <= 8100.2
quadratic_ranged_292_ub: [ 1 x_45_ ^ 2 - 2 x_68_ * x_45_ + 1 x_68_ ^ 2 + 1 y_45_ ^ 2 - 2 y_68_ * y_45_ + 1 y_68_ ^ 2 ] <= 15155.05
quadratic_ranged_293_ub: [ 1 x_51_ ^ 2 - 2 x_68_ * x_51_ + 1 x_68_ ^ 2 + 1 y_51_ ^ 2 - 2 y_68_ * y_51_ + 1 y_68_ ^ 2 ] <= 597.92
quadratic_ranged_294_ub: [ 1 x_56_ ^ 2 - 2 x_68_ * x_56_ + 1 x_68_ ^ 2 + 1 y_56_ ^ 2 - 2 y_68_ * y_56_ + 1 y_68_ ^ 2 ] <= 8340.58
quadratic_ranged_295_ub: [ 1 x_57_ ^ 2 - 2 x_68_ * x_57_ + 1 x_68_ ^ 2 + 1 y_57_ ^ 2 - 2 y_68_ * y_57_ + 1 y_68_ ^ 2 ] <= 26956.9
quadratic_ranged_296_ub: [ 1 x_66_ ^ 2 - 2 x_68_ * x_66_ + 1 x_68_ ^ 2 + 1 y_66_ ^ 2 - 2 y_68_ * y_66_ + 1 y_68_ ^ 2 ] <= 29860.65
quadratic_ranged_297_ub: [ 1 x_67_ ^ 2 - 2 x_68_ * x_67_ + 1 x_68_ ^ 2 + 1 y_67_ ^ 2 - 2 y_68_ * y_67_ + 1 y_68_ ^ 2 ] <= 12008.9
quadratic_ranged_298_ub: [ 1 x_18_ ^ 2 - 2 x_69_ * x_18_ + 1 x_69_ ^ 2 + 1 y_18_ ^ 2 - 2 y_69_ * y_18_ + 1 y_69_ ^ 2 ] <= 6528.64
quadratic_ranged_299_ub: [ 1 x_20_ ^ 2 - 2 x_69_ * x_20_ + 1 x_69_ ^ 2 + 1 y_20_ ^ 2 - 2 y_69_ * y_20_ + 1 y_69_ ^ 2 ] <= 33343.13
quadratic_ranged_300_ub: [ 1 x_24_ ^ 2 - 2 x_69_ * x_24_ + 1 x_69_ ^ 2 + 1 y_24_ ^ 2 - 2 y_69_ * y_24_ + 1 y_69_ ^ 2 ] <= 14266.25
quadratic_ranged_301_ub: [ 1 x_51_ ^ 2 - 2 x_69_ * x_51_ + 1 x_69_ ^ 2 + 1 y_51_ ^ 2 - 2 y_69_ * y_51_ + 1 y_69_ ^ 2 ] <= 13891.54
quadratic_ranged_302_ub: [ 1 x_55_ ^ 2 - 2 x_69_ * x_55_ + 1 x_69_ ^ 2 + 1 y_55_ ^ 2 - 2 y_69_ * y_55_ + 1 y_69_ ^ 2 ] <= 38469.89
quadratic_ranged_303_ub: [ 1 x_68_ ^ 2 - 2 x_69_ * x_68_ + 1 x_69_ ^ 2 + 1 y_68_ ^ 2 - 2 y_69_ * y_68_ + 1 y_69_ ^ 2 ] <= 9100.1
quadratic_ranged_304_ub: [ 1 x_12_ ^ 2 - 2 x_70_ * x_12_ + 1 x_70_ ^ 2 + 1 y_12_ ^ 2 - 2 y_70_ * y_12_ + 1 y_70_ ^ 2 ] <= 11790.74
quadratic_ranged_305_ub: [ 1 x_32_ ^ 2 - 2 x_70_ * x_32_ + 1 x_70_ ^ 2 + 1 y_32_ ^ 2 - 2 y_70_ * y_32_ + 1 y_70_ ^ 2 ] <= 1297.85
quadratic_ranged_306_ub: [ 1 x_36_ ^ 2 - 2 x_70_ * x_36_ + 1 x_70_ ^ 2 + 1 y_36_ ^ 2 - 2 y_70_ * y_36_ + 1 y_70_ ^ 2 ] <= 10678.73
quadratic_ranged_307_ub: [ 1 x_51_ ^ 2 - 2 x_70_ * x_51_ + 1 x_70_ ^ 2 + 1 y_51_ ^ 2 - 2 y_70_ * y_51_ + 1 y_70_ ^ 2 ] <= 1959.4
quadratic_ranged_308_ub: [ 1 x_63_ ^ 2 - 2 x_70_ * x_63_ + 1 x_70_ ^ 2 + 1 y_63_ ^ 2 - 2 y_70_ * y_63_ + 1 y_70_ ^ 2 ] <= 1136.25
quadratic_ranged_309_ub: [ 1 x_64_ ^ 2 - 2 x_70_ * x_64_ + 1 x_70_ ^ 2 + 1 y_64_ ^ 2 - 2 y_70_ * y_64_ + 1 y_70_ ^ 2 ] <= 2929
quadratic_ranged_310_ub: [ 1 x_69_ ^ 2 - 2 x_70_ * x_69_ + 1 x_70_ ^ 2 + 1 y_69_ ^ 2 - 2 y_70_ * y_69_ + 1 y_70_ ^ 2 ] <= 10926.18
quadratic_ranged_311_ub: [ 1 x_24_ ^ 2 - 2 x_71_ * x_24_ + 1 x_71_ ^ 2 + 1 y_24_ ^ 2 - 2 y_71_ * y_24_ + 1 y_71_ ^ 2 ] <= 29634.41
quadratic_ranged_312_ub: [ 1 x_28_ ^ 2 - 2 x_71_ * x_28_ + 1 x_71_ ^ 2 + 1 y_28_ ^ 2 - 2 y_71_ * y_28_ + 1 y_71_ ^ 2 ] <= 7562.88
quadratic_ranged_313_ub: [ 1 x_38_ ^ 2 - 2 x_71_ * x_38_ + 1 x_71_ ^ 2 + 1 y_38_ ^ 2 - 2 y_71_ * y_38_ + 1 y_71_ ^ 2 ] <= 22265.45
quadratic_ranged_314_ub: [ 1 x_54_ ^ 2 - 2 x_71_ * x_54_ + 1 x_71_ ^ 2 + 1 y_54_ ^ 2 - 2 y_71_ * y_54_ + 1 y_71_ ^ 2 ] <= 1903.85
quadratic_ranged_315_ub: [ 1 x_55_ ^ 2 - 2 x_71_ * x_55_ + 1 x_71_ ^ 2 + 1 y_55_ ^ 2 - 2 y_71_ * y_55_ + 1 y_71_ ^ 2 ] <= 41342.33
quadratic_ranged_316_ub: [ 1 x_70_ ^ 2 - 2 x_71_ * x_70_ + 1 x_71_ ^ 2 + 1 y_70_ ^ 2 - 2 y_71_ * y_70_ + 1 y_71_ ^ 2 ] <= 24506.64
quadratic_ranged_317_ub: [ 1 x_23_ ^ 2 - 2 x_72_ * x_23_ + 1 x_72_ ^ 2 + 1 y_23_ ^ 2 - 2 y_72_ * y_23_ + 1 y_72_ ^ 2 ] <= 35791.37
quadratic_ranged_318_ub: [ 1 x_32_ ^ 2 - 2 x_72_ * x_32_ + 1 x_72_ ^ 2 + 1 y_32_ ^ 2 - 2 y_72_ * y_32_ + 1 y_72_ ^ 2 ] <= 22269.49
quadratic_ranged_319_ub: [ 1 x_33_ ^ 2 - 2 x_72_ * x_33_ + 1 x_72_ ^ 2 + 1 y_33_ ^ 2 - 2 y_72_ * y_33_ + 1 y_72_ ^ 2 ] <= 3807.7
quadratic_ranged_320_ub: [ 1 x_34_ ^ 2 - 2 x_72_ * x_34_ + 1 x_72_ ^ 2 + 1 y_34_ ^ 2 - 2 y_72_ * y_34_ + 1 y_72_ ^ 2 ] <= 20912.05
quadratic_ranged_321_ub: [ 1 x_40_ ^ 2 - 2 x_72_ * x_40_ + 1 x_72_ ^ 2 + 1 y_40_ ^ 2 - 2 y_72_ * y_40_ + 1 y_72_ ^ 2 ] <= 27174.05
quadratic_ranged_322_ub: [ 1 x_58_ ^ 2 - 2 x_72_ * x_58_ + 1 x_72_ ^ 2 + 1 y_58_ ^ 2 - 2 y_72_ * y_58_ + 1 y_72_ ^ 2 ] <= 15402.5
quadratic_ranged_323_ub: [ 1 x_59_ ^ 2 - 2 x_72_ * x_59_ + 1 x_72_ ^ 2 + 1 y_59_ ^ 2 - 2 y_72_ * y_59_ + 1 y_72_ ^ 2 ] <= 13907.7
quadratic_ranged_324_ub: [ 1 x_71_ ^ 2 - 2 x_72_ * x_71_ + 1 x_72_ ^ 2 + 1 y_71_ ^ 2 - 2 y_72_ * y_71_ + 1 y_72_ ^ 2 ] <= 1761.44
quadratic_ranged_325_ub: [ 1 x_10_ ^ 2 - 2 x_73_ * x_10_ + 1 x_73_ ^ 2 + 1 y_10_ ^ 2 - 2 y_73_ * y_10_ + 1 y_73_ ^ 2 ] <= 8875.88
quadratic_ranged_326_ub: [ 1 x_49_ ^ 2 - 2 x_73_ * x_49_ + 1 x_73_ ^ 2 + 1 y_49_ ^ 2 - 2 y_73_ * y_49_ + 1 y_73_ ^ 2 ] <= 26959.93
quadratic_ranged_327_ub: [ 1 x_54_ ^ 2 - 2 x_73_ * x_54_ + 1 x_73_ ^ 2 + 1 y_54_ ^ 2 - 2 y_73_ * y_54_ + 1 y_73_ ^ 2 ] <= 1892.74
quadratic_ranged_328_ub: [ 1 x_57_ ^ 2 - 2 x_73_ * x_57_ + 1 x_73_ ^ 2 + 1 y_57_ ^ 2 - 2 y_73_ * y_57_ + 1 y_73_ ^ 2 ] <= 5826.69
quadratic_ranged_329_ub: [ 1 x_69_ ^ 2 - 2 x_73_ * x_69_ + 1 x_73_ ^ 2 + 1 y_69_ ^ 2 - 2 y_73_ * y_69_ + 1 y_73_ ^ 2 ] <= 5107.57
quadratic_ranged_330_ub: [ 1 x_71_ ^ 2 - 2 x_73_ * x_71_ + 1 x_73_ ^ 2 + 1 y_71_ ^ 2 - 2 y_73_ * y_71_ + 1 y_73_ ^ 2 ] <= 259.57
quadratic_ranged_331_ub: [ 1 x_72_ ^ 2 - 2 x_73_ * x_72_ + 1 x_73_ ^ 2 + 1 y_72_ ^ 2 - 2 y_73_ * y_72_ + 1 y_73_ ^ 2 ] <= 2489.65
quadratic_ranged_332_ub: [ 1 x_4_ ^ 2 - 2 x_74_ * x_4_ + 1 x_74_ ^ 2 + 1 y_4_ ^ 2 - 2 y_74_ * y_4_ + 1 y_74_ ^ 2 ] <= 3313.81
quadratic_ranged_333_ub: [ 1 x_11_ ^ 2 - 2 x_74_ * x_11_ + 1 x_74_ ^ 2 + 1 y_11_ ^ 2 - 2 y_74_ * y_11_ + 1 y_74_ ^ 2 ] <= 6439.76
quadratic_ranged_334_ub: [ 1 x_27_ ^ 2 - 2 x_74_ * x_27_ + 1 x_74_ ^ 2 + 1 y_27_ ^ 2 - 2 y_74_ * y_27_ + 1 y_74_ ^ 2 ] <= 14796.5
quadratic_ranged_335_ub: [ 1 x_29_ ^ 2 - 2 x_74_ * x_29_ + 1 x_74_ ^ 2 + 1 y_29_ ^ 2 - 2 y_74_ * y_29_ + 1 y_74_ ^ 2 ] <= 8407.24
quadratic_ranged_336_ub: [ 1 x_37_ ^ 2 - 2 x_74_ * x_37_ + 1 x_74_ ^ 2 + 1 y_37_ ^ 2 - 2 y_74_ * y_37_ + 1 y_74_ ^ 2 ] <= 7846.6900000000005
quadratic_ranged_337_ub: [ 1 x_39_ ^ 2 - 2 x_74_ * x_39_ + 1 x_74_ ^ 2 + 1 y_39_ ^ 2 - 2 y_74_ * y_39_ + 1 y_74_ ^ 2 ] <= 8035.56
quadratic_ranged_338_ub: [ 1 x_41_ ^ 2 - 2 x_74_ * x_41_ + 1 x_74_ ^ 2 + 1 y_41_ ^ 2 - 2 y_74_ * y_41_ + 1 y_74_ ^ 2 ] <= 9457.64
quadratic_ranged_339_ub: [ 1 x_53_ ^ 2 - 2 x_74_ * x_53_ + 1 x_74_ ^ 2 + 1 y_53_ ^ 2 - 2 y_74_ * y_53_ + 1 y_74_ ^ 2 ] <= 2476.52
quadratic_ranged_340_ub: [ 1 x_70_ ^ 2 - 2 x_74_ * x_70_ + 1 x_74_ ^ 2 + 1 y_70_ ^ 2 - 2 y_74_ * y_70_ + 1 y_74_ ^ 2 ] <= 3483.4900000000002
quadratic_ranged_341_ub: [ 1 x_73_ ^ 2 - 2 x_74_ * x_73_ + 1 x_74_ ^ 2 + 1 y_73_ ^ 2 - 2 y_74_ * y_73_ + 1 y_74_ ^ 2 ] <= 16180.2
quadratic_ranged_342_ub: [ 1 x_28_ ^ 2 - 2 x_75_ * x_28_ + 1 x_75_ ^ 2 + 1 y_28_ ^ 2 - 2 y_75_ * y_28_ + 1 y_75_ ^ 2 ] <= 546.41
quadratic_ranged_343_ub: [ 1 x_33_ ^ 2 - 2 x_75_ * x_33_ + 1 x_75_ ^ 2 + 1 y_33_ ^ 2 - 2 y_75_ * y_33_ + 1 y_75_ ^ 2 ] <= 7418.45
quadratic_ranged_344_ub: [ 1 x_51_ ^ 2 - 2 x_75_ * x_51_ + 1 x_75_ ^ 2 + 1 y_51_ ^ 2 - 2 y_75_ * y_51_ + 1 y_75_ ^ 2 ] <= 9822.25
quadratic_ranged_345_ub: [ 1 x_57_ ^ 2 - 2 x_75_ * x_57_ + 1 x_75_ ^ 2 + 1 y_57_ ^ 2 - 2 y_75_ * y_57_ + 1 y_75_ ^ 2 ] <= 7891.13
quadratic_ranged_346_ub: [ 1 x_60_ ^ 2 - 2 x_75_ * x_60_ + 1 x_75_ ^ 2 + 1 y_60_ ^ 2 - 2 y_75_ * y_60_ + 1 y_75_ ^ 2 ] <= 12534.1
quadratic_ranged_347_ub: [ 1 x_72_ ^ 2 - 2 x_75_ * x_72_ + 1 x_75_ ^ 2 + 1 y_72_ ^ 2 - 2 y_75_ * y_72_ + 1 y_75_ ^ 2 ] <= 7786.09
quadratic_ranged_348_ub: [ 1 x_74_ ^ 2 - 2 x_75_ * x_74_ + 1 x_75_ ^ 2 + 1 y_74_ ^ 2 - 2 y_75_ * y_74_ + 1 y_75_ ^ 2 ] <= 779.72
quadratic_ranged_349_ub: [ 1 x_2_ ^ 2 - 2 x_76_ * x_2_ + 1 x_76_ ^ 2 + 1 y_2_ ^ 2 - 2 y_76_ * y_2_ + 1 y_76_ ^ 2 ] <= 7583.08
quadratic_ranged_350_ub: [ 1 x_13_ ^ 2 - 2 x_76_ * x_13_ + 1 x_76_ ^ 2 + 1 y_13_ ^ 2 - 2 y_76_ * y_13_ + 1 y_76_ ^ 2 ] <= 22189.7
quadratic_ranged_351_ub: [ 1 x_15_ ^ 2 - 2 x_76_ * x_15_ + 1 x_76_ ^ 2 + 1 y_15_ ^ 2 - 2 y_76_ * y_15_ + 1 y_76_ ^ 2 ] <= 4295.53
quadratic_ranged_352_ub: [ 1 x_24_ ^ 2 - 2 x_76_ * x_24_ + 1 x_76_ ^ 2 + 1 y_24_ ^ 2 - 2 y_76_ * y_24_ + 1 y_76_ ^ 2 ] <= 6548.84
quadratic_ranged_353_ub: [ 1 x_54_ ^ 2 - 2 x_76_ * x_54_ + 1 x_76_ ^ 2 + 1 y_54_ ^ 2 - 2 y_76_ * y_54_ + 1 y_76_ ^ 2 ] <= 2272.5
quadratic_ranged_354_ub: [ 1 x_58_ ^ 2 - 2 x_76_ * x_58_ + 1 x_76_ ^ 2 + 1 y_58_ ^ 2 - 2 y_76_ * y_58_ + 1 y_76_ ^ 2 ] <= 6570.05
quadratic_ranged_355_ub: [ 1 x_59_ ^ 2 - 2 x_76_ * x_59_ + 1 x_76_ ^ 2 + 1 y_59_ ^ 2 - 2 y_76_ * y_59_ + 1 y_76_ ^ 2 ] <= 9470.77
quadratic_ranged_356_ub: [ 1 x_75_ ^ 2 - 2 x_76_ * x_75_ + 1 x_76_ ^ 2 + 1 y_75_ ^ 2 - 2 y_76_ * y_75_ + 1 y_76_ ^ 2 ] <= 1070.6
quadratic_ranged_357_ub: [ 1 x_41_ ^ 2 - 2 x_77_ * x_41_ + 1 x_77_ ^ 2 + 1 y_41_ ^ 2 - 2 y_77_ * y_41_ + 1 y_77_ ^ 2 ] <= 11079.7
quadratic_ranged_358_ub: [ 1 x_46_ ^ 2 - 2 x_77_ * x_46_ + 1 x_77_ ^ 2 + 1 y_46_ ^ 2 - 2 y_77_ * y_46_ + 1 y_77_ ^ 2 ] <= 494.9
quadratic_ranged_359_ub: [ 1 x_50_ ^ 2 - 2 x_77_ * x_50_ + 1 x_77_ ^ 2 + 1 y_50_ ^ 2 - 2 y_77_ * y_50_ + 1 y_77_ ^ 2 ] <= 3031.01
quadratic_ranged_360_ub: [ 1 x_59_ ^ 2 - 2 x_77_ * x_59_ + 1 x_77_ ^ 2 + 1 y_59_ ^ 2 - 2 y_77_ * y_59_ + 1 y_77_ ^ 2 ] <= 2695.69
quadratic_ranged_361_ub: [ 1 x_76_ ^ 2 - 2 x_77_ * x_76_ + 1 x_77_ ^ 2 + 1 y_76_ ^ 2 - 2 y_77_ * y_76_ + 1 y_77_ ^ 2 ] <= 2143.22
quadratic_ranged_362_ub: [ 1 x_28_ ^ 2 - 2 x_78_ * x_28_ + 1 x_78_ ^ 2 + 1 y_28_ ^ 2 - 2 y_78_ * y_28_ + 1 y_78_ ^ 2 ] <= 16517.54
quadratic_ranged_363_ub: [ 1 x_39_ ^ 2 - 2 x_78_ * x_39_ + 1 x_78_ ^ 2 + 1 y_39_ ^ 2 - 2 y_78_ * y_39_ + 1 y_78_ ^ 2 ] <= 31137.29
quadratic_ranged_364_ub: [ 1 x_53_ ^ 2 - 2 x_78_ * x_53_ + 1 x_78_ ^ 2 + 1 y_53_ ^ 2 - 2 y_78_ * y_53_ + 1 y_78_ ^ 2 ] <= 16948.81
quadratic_ranged_365_ub: [ 1 x_57_ ^ 2 - 2 x_78_ * x_57_ + 1 x_78_ ^ 2 + 1 y_57_ ^ 2 - 2 y_78_ * y_57_ + 1 y_78_ ^ 2 ] <= 15772.16
quadratic_ranged_366_ub: [ 1 x_77_ ^ 2 - 2 x_78_ * x_77_ + 1 x_78_ ^ 2 + 1 y_77_ ^ 2 - 2 y_78_ * y_77_ + 1 y_78_ ^ 2 ] <= 12621.97
quadratic_ranged_367_ub: [ 1 x_10_ ^ 2 - 2 x_79_ * x_10_ + 1 x_79_ ^ 2 + 1 y_10_ ^ 2 - 2 y_79_ * y_10_ + 1 y_79_ ^ 2 ] <= 2070.5
quadratic_ranged_368_ub: [ 1 x_19_ ^ 2 - 2 x_79_ * x_19_ + 1 x_79_ ^ 2 + 1 y_19_ ^ 2 - 2 y_79_ * y_19_ + 1 y_79_ ^ 2 ] <= 3637.01
quadratic_ranged_369_ub: [ 1 x_66_ ^ 2 - 2 x_79_ * x_66_ + 1 x_79_ ^ 2 + 1 y_66_ ^ 2 - 2 y_79_ * y_66_ + 1 y_79_ ^ 2 ] <= 7566.92
quadratic_ranged_370_ub: [ 1 x_78_ ^ 2 - 2 x_79_ * x_78_ + 1 x_79_ ^ 2 + 1 y_78_ ^ 2 - 2 y_79_ * y_78_ + 1 y_79_ ^ 2 ] <= 12314.93
quadratic_ranged_371_ub: [ 1 x_1_ ^ 2 - 2 x_80_ * x_1_ + 1 x_80_ ^ 2 + 1 y_1_ ^ 2 - 2 y_80_ * y_1_ + 1 y_80_ ^ 2 ] <= 7660.85
quadratic_ranged_372_ub: [ 1 x_4_ ^ 2 - 2 x_80_ * x_4_ + 1 x_80_ ^ 2 + 1 y_4_ ^ 2 - 2 y_80_ * y_4_ + 1 y_80_ ^ 2 ] <= 10448.45
quadratic_ranged_373_ub: [ 1 x_5_ ^ 2 - 2 x_80_ * x_5_ + 1 x_80_ ^ 2 + 1 y_5_ ^ 2 - 2 y_80_ * y_5_ + 1 y_80_ ^ 2 ] <= 10303.01
quadratic_ranged_374_ub: [ 1 x_8_ ^ 2 - 2 x_80_ * x_8_ + 1 x_80_ ^ 2 + 1 y_8_ ^ 2 - 2 y_80_ * y_8_ + 1 y_80_ ^ 2 ] <= 13091.62
quadratic_ranged_375_ub: [ 1 x_10_ ^ 2 - 2 x_80_ * x_10_ + 1 x_80_ ^ 2 + 1 y_10_ ^ 2 - 2 y_80_ * y_10_ + 1 y_80_ ^ 2 ] <= 359.56
quadratic_ranged_376_ub: [ 1 x_13_ ^ 2 - 2 x_80_ * x_13_ + 1 x_80_ ^ 2 + 1 y_13_ ^ 2 - 2 y_80_ * y_13_ + 1 y_80_ ^ 2 ] <= 15887.3
quadratic_ranged_377_ub: [ 1 x_16_ ^ 2 - 2 x_80_ * x_16_ + 1 x_80_ ^ 2 + 1 y_16_ ^ 2 - 2 y_80_ * y_16_ + 1 y_80_ ^ 2 ] <= 9939.41
quadratic_ranged_378_ub: [ 1 x_24_ ^ 2 - 2 x_80_ * x_24_ + 1 x_80_ ^ 2 + 1 y_24_ ^ 2 - 2 y_80_ * y_24_ + 1 y_80_ ^ 2 ] <= 11958.4
quadratic_ranged_379_ub: [ 1 x_37_ ^ 2 - 2 x_80_ * x_37_ + 1 x_80_ ^ 2 + 1 y_37_ ^ 2 - 2 y_80_ * y_37_ + 1 y_80_ ^ 2 ] <= 14084.45
quadratic_ranged_380_ub: [ 1 x_38_ ^ 2 - 2 x_80_ * x_38_ + 1 x_80_ ^ 2 + 1 y_38_ ^ 2 - 2 y_80_ * y_38_ + 1 y_80_ ^ 2 ] <= 5837.8
quadratic_ranged_381_ub: [ 1 x_59_ ^ 2 - 2 x_80_ * x_59_ + 1 x_80_ ^ 2 + 1 y_59_ ^ 2 - 2 y_80_ * y_59_ + 1 y_80_ ^ 2 ] <= 1645.29
quadratic_ranged_382_ub: [ 1 x_74_ ^ 2 - 2 x_80_ * x_74_ + 1 x_80_ ^ 2 + 1 y_74_ ^ 2 - 2 y_80_ * y_74_ + 1 y_80_ ^ 2 ] <= 2153.32
quadratic_ranged_383_ub: [ 1 x_79_ ^ 2 - 2 x_80_ * x_79_ + 1 x_80_ ^ 2 + 1 y_79_ ^ 2 - 2 y_80_ * y_79_ + 1 y_80_ ^ 2 ] <= 761.54
quadratic_ranged_384_ub: [ 1 x_16_ ^ 2 - 2 x_81_ * x_16_ + 1 x_81_ ^ 2 + 1 y_16_ ^ 2 - 2 y_81_ * y_16_ + 1 y_81_ ^ 2 ] <= 33477.46
quadratic_ranged_385_ub: [ 1 x_17_ ^ 2 - 2 x_81_ * x_17_ + 1 x_81_ ^ 2 + 1 y_17_ ^ 2 - 2 y_81_ * y_17_ + 1 y_81_ ^ 2 ] <= 42324.05
quadratic_ranged_386_ub: [ 1 x_18_ ^ 2 - 2 x_81_ * x_18_ + 1 x_81_ ^ 2 + 1 y_18_ ^ 2 - 2 y_81_ * y_18_ + 1 y_81_ ^ 2 ] <= 10352.5
quadratic_ranged_387_ub: [ 1 x_25_ ^ 2 - 2 x_81_ * x_25_ + 1 x_81_ ^ 2 + 1 y_25_ ^ 2 - 2 y_81_ * y_25_ + 1 y_81_ ^ 2 ] <= 28135.57
quadratic_ranged_388_ub: [ 1 x_36_ ^ 2 - 2 x_81_ * x_36_ + 1 x_81_ ^ 2 + 1 y_36_ ^ 2 - 2 y_81_ * y_36_ + 1 y_81_ ^ 2 ] <= 3847.09
quadratic_ranged_389_ub: [ 1 x_80_ ^ 2 - 2 x_81_ * x_80_ + 1 x_81_ ^ 2 + 1 y_80_ ^ 2 - 2 y_81_ * y_80_ + 1 y_81_ ^ 2 ] <= 7422.49
quadratic_ranged_390_ub: [ 1 x_17_ ^ 2 - 2 x_82_ * x_17_ + 1 x_82_ ^ 2 + 1 y_17_ ^ 2 - 2 y_82_ * y_17_ + 1 y_82_ ^ 2 ] <= 22036.18
quadratic_ranged_391_ub: [ 1 x_23_ ^ 2 - 2 x_82_ * x_23_ + 1 x_82_ ^ 2 + 1 y_23_ ^ 2 - 2 y_82_ * y_23_ + 1 y_82_ ^ 2 ] <= 11766.5
quadratic_ranged_392_ub: [ 1 x_24_ ^ 2 - 2 x_82_ * x_24_ + 1 x_82_ ^ 2 + 1 y_24_ ^ 2 - 2 y_82_ * y_24_ + 1 y_82_ ^ 2 ] <= 10352.5
quadratic_ranged_393_ub: [ 1 x_28_ ^ 2 - 2 x_82_ * x_28_ + 1 x_82_ ^ 2 + 1 y_28_ ^ 2 - 2 y_82_ * y_28_ + 1 y_82_ ^ 2 ] <= 8416.33
quadratic_ranged_394_ub: [ 1 x_37_ ^ 2 - 2 x_82_ * x_37_ + 1 x_82_ ^ 2 + 1 y_37_ ^ 2 - 2 y_82_ * y_37_ + 1 y_82_ ^ 2 ] <= 2138.17
quadratic_ranged_395_ub: [ 1 x_41_ ^ 2 - 2 x_82_ * x_41_ + 1 x_82_ ^ 2 + 1 y_41_ ^ 2 - 2 y_82_ * y_41_ + 1 y_82_ ^ 2 ] <= 20816.1
quadratic_ranged_396_ub: [ 1 x_68_ ^ 2 - 2 x_82_ * x_68_ + 1 x_82_ ^ 2 + 1 y_68_ ^ 2 - 2 y_82_ * y_68_ + 1 y_82_ ^ 2 ] <= 16257.97
quadratic_ranged_397_ub: [ 1 x_81_ ^ 2 - 2 x_82_ * x_81_ + 1 x_82_ ^ 2 + 1 y_81_ ^ 2 - 2 y_82_ * y_81_ + 1 y_82_ ^ 2 ] <= 6380.17
quadratic_ranged_398_ub: [ 1 x_13_ ^ 2 - 2 x_83_ * x_13_ + 1 x_83_ ^ 2 + 1 y_13_ ^ 2 - 2 y_83_ * y_13_ + 1 y_83_ ^ 2 ] <= 10480.77
quadratic_ranged_399_ub: [ 1 x_14_ ^ 2 - 2 x_83_ * x_14_ + 1 x_83_ ^ 2 + 1 y_14_ ^ 2 - 2 y_83_ * y_14_ + 1 y_83_ ^ 2 ] <= 23902.66
quadratic_ranged_400_ub: [ 1 x_15_ ^ 2 - 2 x_83_ * x_15_ + 1 x_83_ ^ 2 + 1 y_15_ ^ 2 - 2 y_83_ * y_15_ + 1 y_83_ ^ 2 ] <= 15178.28
quadratic_ranged_401_ub: [ 1 x_17_ ^ 2 - 2 x_83_ * x_17_ + 1 x_83_ ^ 2 + 1 y_17_ ^ 2 - 2 y_83_ * y_17_ + 1 y_83_ ^ 2 ] <= 4792.45
quadratic_ranged_402_ub: [ 1 x_21_ ^ 2 - 2 x_83_ * x_21_ + 1 x_83_ ^ 2 + 1 y_21_ ^ 2 - 2 y_83_ * y_21_ + 1 y_83_ ^ 2 ] <= 14771.25
quadratic_ranged_403_ub: [ 1 x_35_ ^ 2 - 2 x_83_ * x_35_ + 1 x_83_ ^ 2 + 1 y_35_ ^ 2 - 2 y_83_ * y_35_ + 1 y_83_ ^ 2 ] <= 15736.81
quadratic_ranged_404_ub: [ 1 x_45_ ^ 2 - 2 x_83_ * x_45_ + 1 x_83_ ^ 2 + 1 y_45_ ^ 2 - 2 y_83_ * y_45_ + 1 y_83_ ^ 2 ] <= 12024.05
quadratic_ranged_405_ub: [ 1 x_73_ ^ 2 - 2 x_83_ * x_73_ + 1 x_83_ ^ 2 + 1 y_73_ ^ 2 - 2 y_83_ * y_73_ + 1 y_83_ ^ 2 ] <= 20572.69
quadratic_ranged_406_ub: [ 1 x_76_ ^ 2 - 2 x_83_ * x_76_ + 1 x_83_ ^ 2 + 1 y_76_ ^ 2 - 2 y_83_ * y_76_ + 1 y_83_ ^ 2 ] <= 3334.01
quadratic_ranged_407_ub: [ 1 x_82_ ^ 2 - 2 x_83_ * x_82_ + 1 x_83_ ^ 2 + 1 y_82_ ^ 2 - 2 y_83_ * y_82_ + 1 y_83_ ^ 2 ] <= 6364.01
quadratic_ranged_408_ub: [ 1 x_3_ ^ 2 - 2 x_84_ * x_3_ + 1 x_84_ ^ 2 + 1 y_3_ ^ 2 - 2 y_84_ * y_3_ + 1 y_84_ ^ 2 ] <= 7753.77
quadratic_ranged_409_ub: [ 1 x_9_ ^ 2 - 2 x_84_ * x_9_ + 1 x_84_ ^ 2 + 1 y_9_ ^ 2 - 2 y_84_ * y_9_ + 1 y_84_ ^ 2 ] <= 26911.45
quadratic_ranged_410_ub: [ 1 x_15_ ^ 2 - 2 x_84_ * x_15_ + 1 x_84_ ^ 2 + 1 y_15_ ^ 2 - 2 y_84_ * y_15_ + 1 y_84_ ^ 2 ] <= 21114.05
quadratic_ranged_411_ub: [ 1 x_25_ ^ 2 - 2 x_84_ * x_25_ + 1 x_84_ ^ 2 + 1 y_25_ ^ 2 - 2 y_84_ * y_25_ + 1 y_84_ ^ 2 ] <= 10255.54
quadratic_ranged_412_ub: [ 1 x_42_ ^ 2 - 2 x_84_ * x_42_ + 1 x_84_ ^ 2 + 1 y_42_ ^ 2 - 2 y_84_ * y_42_ + 1 y_84_ ^ 2 ] <= 26850.85
quadratic_ranged_413_ub: [ 1 x_43_ ^ 2 - 2 x_84_ * x_43_ + 1 x_84_ ^ 2 + 1 y_43_ ^ 2 - 2 y_84_ * y_43_ + 1 y_84_ ^ 2 ] <= 101
quadratic_ranged_414_ub: [ 1 x_49_ ^ 2 - 2 x_84_ * x_49_ + 1 x_84_ ^ 2 + 1 y_49_ ^ 2 - 2 y_84_ * y_49_ + 1 y_84_ ^ 2 ] <= 5883.25
quadratic_ranged_415_ub: [ 1 x_59_ ^ 2 - 2 x_84_ * x_59_ + 1 x_84_ ^ 2 + 1 y_59_ ^ 2 - 2 y_84_ * y_59_ + 1 y_84_ ^ 2 ] <= 17732.57
quadratic_ranged_416_ub: [ 1 x_61_ ^ 2 - 2 x_84_ * x_61_ + 1 x_84_ ^ 2 + 1 y_61_ ^ 2 - 2 y_84_ * y_61_ + 1 y_84_ ^ 2 ] <= 14961.130000000001
quadratic_ranged_417_ub: [ 1 x_68_ ^ 2 - 2 x_84_ * x_68_ + 1 x_84_ ^ 2 + 1 y_68_ ^ 2 - 2 y_84_ * y_68_ + 1 y_84_ ^ 2 ] <= 2740.13
quadratic_ranged_418_ub: [ 1 x_77_ ^ 2 - 2 x_84_ * x_77_ + 1 x_84_ ^ 2 + 1 y_77_ ^ 2 - 2 y_84_ * y_77_ + 1 y_84_ ^ 2 ] <= 8372.9
quadratic_ranged_419_ub: [ 1 x_80_ ^ 2 - 2 x_84_ * x_80_ + 1 x_84_ ^ 2 + 1 y_80_ ^ 2 - 2 y_84_ * y_80_ + 1 y_84_ ^ 2 ] <= 9506.12
quadratic_ranged_420_ub: [ 1 x_81_ ^ 2 - 2 x_84_ * x_81_ + 1 x_84_ ^ 2 + 1 y_81_ ^ 2 - 2 y_84_ * y_81_ + 1 y_84_ ^ 2 ] <= 24095.57
quadratic_ranged_421_ub: [ 1 x_82_ ^ 2 - 2 x_84_ * x_82_ + 1 x_84_ ^ 2 + 1 y_82_ ^ 2 - 2 y_84_ * y_82_ + 1 y_84_ ^ 2 ] <= 6764.9800000000005
quadratic_ranged_422_ub: [ 1 x_83_ ^ 2 - 2 x_84_ * x_83_ + 1 x_84_ ^ 2 + 1 y_83_ ^ 2 - 2 y_84_ * y_83_ + 1 y_84_ ^ 2 ] <= 510.05
quadratic_ranged_423_ub: [ 1 x_15_ ^ 2 - 2 x_85_ * x_15_ + 1 x_85_ ^ 2 + 1 y_15_ ^ 2 - 2 y_85_ * y_15_ + 1 y_85_ ^ 2 ] <= 3910.7200000000003
quadratic_ranged_424_ub: [ 1 x_37_ ^ 2 - 2 x_85_ * x_37_ + 1 x_85_ ^ 2 + 1 y_37_ ^ 2 - 2 y_85_ * y_37_ + 1 y_85_ ^ 2 ] <= 41022.16
quadratic_ranged_425_ub: [ 1 x_48_ ^ 2 - 2 x_85_ * x_48_ + 1 x_85_ ^ 2 + 1 y_48_ ^ 2 - 2 y_85_ * y_48_ + 1 y_85_ ^ 2 ] <= 9216.25
quadratic_ranged_426_ub: [ 1 x_54_ ^ 2 - 2 x_85_ * x_54_ + 1 x_85_ ^ 2 + 1 y_54_ ^ 2 - 2 y_85_ * y_54_ + 1 y_85_ ^ 2 ] <= 3176.45
quadratic_ranged_427_ub: [ 1 x_72_ ^ 2 - 2 x_85_ * x_72_ + 1 x_85_ ^ 2 + 1 y_72_ ^ 2 - 2 y_85_ * y_72_ + 1 y_85_ ^ 2 ] <= 4480.36
quadratic_ranged_428_ub: [ 1 x_80_ ^ 2 - 2 x_85_ * x_80_ + 1 x_85_ ^ 2 + 1 y_80_ ^ 2 - 2 y_85_ * y_80_ + 1 y_85_ ^ 2 ] <= 7228.57
quadratic_ranged_429_ub: [ 1 x_84_ ^ 2 - 2 x_85_ * x_84_ + 1 x_85_ ^ 2 + 1 y_84_ ^ 2 - 2 y_85_ * y_84_ + 1 y_85_ ^ 2 ] <= 29202.13
quadratic_ranged_430_ub: [ 1 x_10_ ^ 2 - 2 x_86_ * x_10_ + 1 x_86_ ^ 2 + 1 y_10_ ^ 2 - 2 y_86_ * y_10_ + 1 y_86_ ^ 2 ] <= 13688.53
quadratic_ranged_431_ub: [ 1 x_27_ ^ 2 - 2 x_86_ * x_27_ + 1 x_86_ ^ 2 + 1 y_27_ ^ 2 - 2 y_86_ * y_27_ + 1 y_86_ ^ 2 ] <= 30660.57
quadratic_ranged_432_ub: [ 1 x_38_ ^ 2 - 2 x_86_ * x_38_ + 1 x_86_ ^ 2 + 1 y_38_ ^ 2 - 2 y_86_ * y_38_ + 1 y_86_ ^ 2 ] <= 19538.45
quadratic_ranged_433_ub: [ 1 x_56_ ^ 2 - 2 x_86_ * x_56_ + 1 x_86_ ^ 2 + 1 y_56_ ^ 2 - 2 y_86_ * y_56_ + 1 y_86_ ^ 2 ] <= 14117.78
quadratic_ranged_434_ub: [ 1 x_57_ ^ 2 - 2 x_86_ * x_57_ + 1 x_86_ ^ 2 + 1 y_57_ ^ 2 - 2 y_86_ * y_57_ + 1 y_86_ ^ 2 ] <= 24613.7
quadratic_ranged_435_ub: [ 1 x_65_ ^ 2 - 2 x_86_ * x_65_ + 1 x_86_ ^ 2 + 1 y_65_ ^ 2 - 2 y_86_ * y_65_ + 1 y_86_ ^ 2 ] <= 8585
quadratic_ranged_436_ub: [ 1 x_75_ ^ 2 - 2 x_86_ * x_75_ + 1 x_86_ ^ 2 + 1 y_75_ ^ 2 - 2 y_86_ * y_75_ + 1 y_86_ ^ 2 ] <= 9228.37
quadratic_ranged_437_ub: [ 1 x_79_ ^ 2 - 2 x_86_ * x_79_ + 1 x_86_ ^ 2 + 1 y_79_ ^ 2 - 2 y_86_ * y_79_ + 1 y_86_ ^ 2 ] <= 9979.81
quadratic_ranged_438_ub: [ 1 x_85_ ^ 2 - 2 x_86_ * x_85_ + 1 x_86_ ^ 2 + 1 y_85_ ^ 2 - 2 y_86_ * y_85_ + 1 y_86_ ^ 2 ] <= 38759.76
quadratic_ranged_439_ub: [ 1 x_12_ ^ 2 - 2 x_87_ * x_12_ + 1 x_87_ ^ 2 + 1 y_12_ ^ 2 - 2 y_87_ * y_12_ + 1 y_87_ ^ 2 ] <= 1054.44
quadratic_ranged_440_ub: [ 1 x_22_ ^ 2 - 2 x_87_ * x_22_ + 1 x_87_ ^ 2 + 1 y_22_ ^ 2 - 2 y_87_ * y_22_ + 1 y_87_ ^ 2 ] <= 27598.25
quadratic_ranged_441_ub: [ 1 x_44_ ^ 2 - 2 x_87_ * x_44_ + 1 x_87_ ^ 2 + 1 y_44_ ^ 2 - 2 y_87_ * y_44_ + 1 y_87_ ^ 2 ] <= 11199.89
quadratic_ranged_442_ub: [ 1 x_49_ ^ 2 - 2 x_87_ * x_49_ + 1 x_87_ ^ 2 + 1 y_49_ ^ 2 - 2 y_87_ * y_49_ + 1 y_87_ ^ 2 ] <= 12705.8
quadratic_ranged_443_ub: [ 1 x_57_ ^ 2 - 2 x_87_ * x_57_ + 1 x_87_ ^ 2 + 1 y_57_ ^ 2 - 2 y_87_ * y_57_ + 1 y_87_ ^ 2 ] <= 1571.56
quadratic_ranged_444_ub: [ 1 x_66_ ^ 2 - 2 x_87_ * x_66_ + 1 x_87_ ^ 2 + 1 y_66_ ^ 2 - 2 y_87_ * y_66_ + 1 y_87_ ^ 2 ] <= 5244.93
quadratic_ranged_445_ub: [ 1 x_81_ ^ 2 - 2 x_87_ * x_81_ + 1 x_87_ ^ 2 + 1 y_81_ ^ 2 - 2 y_87_ * y_81_ + 1 y_87_ ^ 2 ] <= 10740.34
quadratic_ranged_446_ub: [ 1 x_86_ ^ 2 - 2 x_87_ * x_86_ + 1 x_87_ ^ 2 + 1 y_86_ ^ 2 - 2 y_87_ * y_86_ + 1 y_87_ ^ 2 ] <= 22133.14
quadratic_ranged_447_ub: [ 1 x_2_ ^ 2 - 2 x_88_ * x_2_ + 1 x_88_ ^ 2 + 1 y_2_ ^ 2 - 2 y_88_ * y_2_ + 1 y_88_ ^ 2 ] <= 17478.05
quadratic_ranged_448_ub: [ 1 x_3_ ^ 2 - 2 x_88_ * x_3_ + 1 x_88_ ^ 2 + 1 y_3_ ^ 2 - 2 y_88_ * y_3_ + 1 y_88_ ^ 2 ] <= 1108.98
quadratic_ranged_449_ub: [ 1 x_21_ ^ 2 - 2 x_88_ * x_21_ + 1 x_88_ ^ 2 + 1 y_21_ ^ 2 - 2 y_88_ * y_21_ + 1 y_88_ ^ 2 ] <= 9563.69
quadratic_ranged_450_ub: [ 1 x_27_ ^ 2 - 2 x_88_ * x_27_ + 1 x_88_ ^ 2 + 1 y_27_ ^ 2 - 2 y_88_ * y_27_ + 1 y_88_ ^ 2 ] <= 15058.09
quadratic_ranged_451_ub: [ 1 x_31_ ^ 2 - 2 x_88_ * x_31_ + 1 x_88_ ^ 2 + 1 y_31_ ^ 2 - 2 y_88_ * y_31_ + 1 y_88_ ^ 2 ] <= 8080
quadratic_ranged_452_ub: [ 1 x_37_ ^ 2 - 2 x_88_ * x_37_ + 1 x_88_ ^ 2 + 1 y_37_ ^ 2 - 2 y_88_ * y_37_ + 1 y_88_ ^ 2 ] <= 1971.52
quadratic_ranged_453_ub: [ 1 x_40_ ^ 2 - 2 x_88_ * x_40_ + 1 x_88_ ^ 2 + 1 y_40_ ^ 2 - 2 y_88_ * y_40_ + 1 y_88_ ^ 2 ] <= 3354.21
quadratic_ranged_454_ub: [ 1 x_48_ ^ 2 - 2 x_88_ * x_48_ + 1 x_88_ ^ 2 + 1 y_48_ ^ 2 - 2 y_88_ * y_48_ + 1 y_88_ ^ 2 ] <= 15757.01
quadratic_ranged_455_ub: [ 1 x_52_ ^ 2 - 2 x_88_ * x_52_ + 1 x_88_ ^ 2 + 1 y_52_ ^ 2 - 2 y_88_ * y_52_ + 1 y_88_ ^ 2 ] <= 7312.4
quadratic_ranged_456_ub: [ 1 x_55_ ^ 2 - 2 x_88_ * x_55_ + 1 x_88_ ^ 2 + 1 y_55_ ^ 2 - 2 y_88_ * y_55_ + 1 y_88_ ^ 2 ] <= 126.25
quadratic_ranged_457_ub: [ 1 x_85_ ^ 2 - 2 x_88_ * x_85_ + 1 x_88_ ^ 2 + 1 y_85_ ^ 2 - 2 y_88_ * y_85_ + 1 y_88_ ^ 2 ] <= 30356.56
quadratic_ranged_458_ub: [ 1 x_86_ ^ 2 - 2 x_88_ * x_86_ + 1 x_88_ ^ 2 + 1 y_86_ ^ 2 - 2 y_88_ * y_86_ + 1 y_88_ ^ 2 ] <= 6092.32
quadratic_ranged_459_ub: [ 1 x_87_ ^ 2 - 2 x_88_ * x_87_ + 1 x_88_ ^ 2 + 1 y_87_ ^ 2 - 2 y_88_ * y_87_ + 1 y_88_ ^ 2 ] <= 16808.420000000002
quadratic_ranged_460_ub: [ 1 x_47_ ^ 2 - 2 x_89_ * x_47_ + 1 x_89_ ^ 2 + 1 y_47_ ^ 2 - 2 y_89_ * y_47_ + 1 y_89_ ^ 2 ] <= 703.97
quadratic_ranged_461_ub: [ 1 x_54_ ^ 2 - 2 x_89_ * x_54_ + 1 x_89_ ^ 2 + 1 y_54_ ^ 2 - 2 y_89_ * y_54_ + 1 y_89_ ^ 2 ] <= 25340.9
quadratic_ranged_462_ub: [ 1 x_62_ ^ 2 - 2 x_89_ * x_62_ + 1 x_89_ ^ 2 + 1 y_62_ ^ 2 - 2 y_89_ * y_62_ + 1 y_89_ ^ 2 ] <= 27069.010000000002
quadratic_ranged_463_ub: [ 1 x_65_ ^ 2 - 2 x_89_ * x_65_ + 1 x_89_ ^ 2 + 1 y_65_ ^ 2 - 2 y_89_ * y_65_ + 1 y_89_ ^ 2 ] <= 3903.65
quadratic_ranged_464_ub: [ 1 x_66_ ^ 2 - 2 x_89_ * x_66_ + 1 x_89_ ^ 2 + 1 y_66_ ^ 2 - 2 y_89_ * y_66_ + 1 y_89_ ^ 2 ] <= 6231.7
quadratic_ranged_465_ub: [ 1 x_67_ ^ 2 - 2 x_89_ * x_67_ + 1 x_89_ ^ 2 + 1 y_67_ ^ 2 - 2 y_89_ * y_67_ + 1 y_89_ ^ 2 ] <= 2570.45
quadratic_ranged_466_ub: [ 1 x_70_ ^ 2 - 2 x_89_ * x_70_ + 1 x_89_ ^ 2 + 1 y_70_ ^ 2 - 2 y_89_ * y_70_ + 1 y_89_ ^ 2 ] <= 16015.57
quadratic_ranged_467_ub: [ 1 x_72_ ^ 2 - 2 x_89_ * x_72_ + 1 x_89_ ^ 2 + 1 y_72_ ^ 2 - 2 y_89_ * y_72_ + 1 y_89_ ^ 2 ] <= 32947.21
quadratic_ranged_468_ub: [ 1 x_74_ ^ 2 - 2 x_89_ * x_74_ + 1 x_89_ ^ 2 + 1 y_74_ ^ 2 - 2 y_89_ * y_74_ + 1 y_89_ ^ 2 ] <= 5870.12
quadratic_ranged_469_ub: [ 1 x_88_ ^ 2 - 2 x_89_ * x_88_ + 1 x_89_ ^ 2 + 1 y_88_ ^ 2 - 2 y_89_ * y_88_ + 1 y_89_ ^ 2 ] <= 65.65
quadratic_ranged_470_ub: [ 1 x_3_ ^ 2 - 2 x_90_ * x_3_ + 1 x_90_ ^ 2 + 1 y_3_ ^ 2 - 2 y_90_ * y_3_ + 1 y_90_ ^ 2 ] <= 7474
quadratic_ranged_471_ub: [ 1 x_8_ ^ 2 - 2 x_90_ * x_8_ + 1 x_90_ ^ 2 + 1 y_8_ ^ 2 - 2 y_90_ * y_8_ + 1 y_90_ ^ 2 ] <= 40142.45
quadratic_ranged_472_ub: [ 1 x_13_ ^ 2 - 2 x_90_ * x_13_ + 1 x_90_ ^ 2 + 1 y_13_ ^ 2 - 2 y_90_ * y_13_ + 1 y_90_ ^ 2 ] <= 19530.37
quadratic_ranged_473_ub: [ 1 x_33_ ^ 2 - 2 x_90_ * x_33_ + 1 x_90_ ^ 2 + 1 y_33_ ^ 2 - 2 y_90_ * y_33_ + 1 y_90_ ^ 2 ] <= 14208.68
quadratic_ranged_474_ub: [ 1 x_34_ ^ 2 - 2 x_90_ * x_34_ + 1 x_90_ ^ 2 + 1 y_34_ ^ 2 - 2 y_90_ * y_34_ + 1 y_90_ ^ 2 ] <= 2029.09
quadratic_ranged_475_ub: [ 1 x_80_ ^ 2 - 2 x_90_ * x_80_ + 1 x_90_ ^ 2 + 1 y_80_ ^ 2 - 2 y_90_ * y_80_ + 1 y_90_ ^ 2 ] <= 8242.61
quadratic_ranged_476_ub: [ 1 x_82_ ^ 2 - 2 x_90_ * x_82_ + 1 x_90_ ^ 2 + 1 y_82_ ^ 2 - 2 y_90_ * y_82_ + 1 y_90_ ^ 2 ] <= 8792.05
quadratic_ranged_477_ub: [ 1 x_89_ ^ 2 - 2 x_90_ * x_89_ + 1 x_90_ ^ 2 + 1 y_89_ ^ 2 - 2 y_90_ * y_89_ + 1 y_90_ ^ 2 ] <= 6465.01
quadratic_ranged_478_ub: [ 1 x_1_ ^ 2 - 2 x_91_ * x_1_ + 1 x_91_ ^ 2 + 1 y_1_ ^ 2 - 2 y_91_ * y_1_ + 1 y_91_ ^ 2 ] <= 2025.05
quadratic_ranged_479_ub: [ 1 x_13_ ^ 2 - 2 x_91_ * x_13_ + 1 x_91_ ^ 2 + 1 y_13_ ^ 2 - 2 y_91_ * y_13_ + 1 y_91_ ^ 2 ] <= 5979.2
quadratic_ranged_480_ub: [ 1 x_14_ ^ 2 - 2 x_91_ * x_14_ + 1 x_91_ ^ 2 + 1 y_14_ ^ 2 - 2 y_91_ * y_14_ + 1 y_91_ ^ 2 ] <= 16136.77
quadratic_ranged_481_ub: [ 1 x_20_ ^ 2 - 2 x_91_ * x_20_ + 1 x_91_ ^ 2 + 1 y_20_ ^ 2 - 2 y_91_ * y_20_ + 1 y_91_ ^ 2 ] <= 4009.7
quadratic_ranged_482_ub: [ 1 x_26_ ^ 2 - 2 x_91_ * x_26_ + 1 x_91_ ^ 2 + 1 y_26_ ^ 2 - 2 y_91_ * y_26_ + 1 y_91_ ^ 2 ] <= 1706.9
quadratic_ranged_483_ub: [ 1 x_35_ ^ 2 - 2 x_91_ * x_35_ + 1 x_91_ ^ 2 + 1 y_35_ ^ 2 - 2 y_91_ * y_35_ + 1 y_91_ ^ 2 ] <= 8534.5
quadratic_ranged_484_ub: [ 1 x_40_ ^ 2 - 2 x_91_ * x_40_ + 1 x_91_ ^ 2 + 1 y_40_ ^ 2 - 2 y_91_ * y_40_ + 1 y_91_ ^ 2 ] <= 1313
quadratic_ranged_485_ub: [ 1 x_79_ ^ 2 - 2 x_91_ * x_79_ + 1 x_91_ ^ 2 + 1 y_79_ ^ 2 - 2 y_91_ * y_79_ + 1 y_91_ ^ 2 ] <= 2197.76
quadratic_ranged_486_ub: [ 1 x_90_ ^ 2 - 2 x_91_ * x_90_ + 1 x_91_ ^ 2 + 1 y_90_ ^ 2 - 2 y_91_ * y_90_ + 1 y_91_ ^ 2 ] <= 15950.93
quadratic_ranged_487_ub: [ 1 x_4_ ^ 2 - 2 x_92_ * x_4_ + 1 x_92_ ^ 2 + 1 y_4_ ^ 2 - 2 y_92_ * y_4_ + 1 y_92_ ^ 2 ] <= 801.94
quadratic_ranged_488_ub: [ 1 x_8_ ^ 2 - 2 x_92_ * x_8_ + 1 x_92_ ^ 2 + 1 y_8_ ^ 2 - 2 y_92_ * y_8_ + 1 y_92_ ^ 2 ] <= 1798.81
quadratic_ranged_489_ub: [ 1 x_9_ ^ 2 - 2 x_92_ * x_9_ + 1 x_92_ ^ 2 + 1 y_9_ ^ 2 - 2 y_92_ * y_9_ + 1 y_92_ ^ 2 ] <= 30382.82
quadratic_ranged_490_ub: [ 1 x_14_ ^ 2 - 2 x_92_ * x_14_ + 1 x_92_ ^ 2 + 1 y_14_ ^ 2 - 2 y_92_ * y_14_ + 1 y_92_ ^ 2 ] <= 38077
quadratic_ranged_491_ub: [ 1 x_30_ ^ 2 - 2 x_92_ * x_30_ + 1 x_92_ ^ 2 + 1 y_30_ ^ 2 - 2 y_92_ * y_30_ + 1 y_92_ ^ 2 ] <= 16060.01
quadratic_ranged_492_ub: [ 1 x_37_ ^ 2 - 2 x_92_ * x_37_ + 1 x_92_ ^ 2 + 1 y_37_ ^ 2 - 2 y_92_ * y_37_ + 1 y_92_ ^ 2 ] <= 15758.02
quadratic_ranged_493_ub: [ 1 x_39_ ^ 2 - 2 x_92_ * x_39_ + 1 x_92_ ^ 2 + 1 y_39_ ^ 2 - 2 y_92_ * y_39_ + 1 y_92_ ^ 2 ] <= 11567.53
quadratic_ranged_494_ub: [ 1 x_44_ ^ 2 - 2 x_92_ * x_44_ + 1 x_92_ ^ 2 + 1 y_44_ ^ 2 - 2 y_92_ * y_44_ + 1 y_92_ ^ 2 ] <= 2117.97
quadratic_ranged_495_ub: [ 1 x_52_ ^ 2 - 2 x_92_ * x_52_ + 1 x_92_ ^ 2 + 1 y_52_ ^ 2 - 2 y_92_ * y_52_ + 1 y_92_ ^ 2 ] <= 3928.9
quadratic_ranged_496_ub: [ 1 x_53_ ^ 2 - 2 x_92_ * x_53_ + 1 x_92_ ^ 2 + 1 y_53_ ^ 2 - 2 y_92_ * y_53_ + 1 y_92_ ^ 2 ] <= 1192.81
quadratic_ranged_497_ub: [ 1 x_54_ ^ 2 - 2 x_92_ * x_54_ + 1 x_92_ ^ 2 + 1 y_54_ ^ 2 - 2 y_92_ * y_54_ + 1 y_92_ ^ 2 ] <= 18774.89
quadratic_ranged_498_ub: [ 1 x_61_ ^ 2 - 2 x_92_ * x_61_ + 1 x_92_ ^ 2 + 1 y_61_ ^ 2 - 2 y_92_ * y_61_ + 1 y_92_ ^ 2 ] <= 17018.5
quadratic_ranged_499_ub: [ 1 x_85_ ^ 2 - 2 x_92_ * x_85_ + 1 x_92_ ^ 2 + 1 y_85_ ^ 2 - 2 y_92_ * y_85_ + 1 y_92_ ^ 2 ] <= 34649.06
quadratic_ranged_500_ub: [ 1 x_88_ ^ 2 - 2 x_92_ * x_88_ + 1 x_92_ ^ 2 + 1 y_88_ ^ 2 - 2 y_92_ * y_88_ + 1 y_92_ ^ 2 ] <= 21462.5
quadratic_ranged_501_ub: [ 1 x_90_ ^ 2 - 2 x_92_ * x_90_ + 1 x_92_ ^ 2 + 1 y_90_ ^ 2 - 2 y_92_ * y_90_ + 1 y_92_ ^ 2 ] <= 38016.4
quadratic_ranged_502_ub: [ 1 x_91_ ^ 2 - 2 x_92_ * x_91_ + 1 x_92_ ^ 2 + 1 y_91_ ^ 2 - 2 y_92_ * y_91_ + 1 y_92_ ^ 2 ] <= 4764.17
quadratic_ranged_503_ub: [ 1 x_11_ ^ 2 - 2 x_93_ * x_11_ + 1 x_93_ ^ 2 + 1 y_11_ ^ 2 - 2 y_93_ * y_11_ + 1 y_93_ ^ 2 ] <= 1785.68
quadratic_ranged_504_ub: [ 1 x_21_ ^ 2 - 2 x_93_ * x_21_ + 1 x_93_ ^ 2 + 1 y_21_ ^ 2 - 2 y_93_ * y_21_ + 1 y_93_ ^ 2 ] <= 2819.92
quadratic_ranged_505_ub: [ 1 x_25_ ^ 2 - 2 x_93_ * x_25_ + 1 x_93_ ^ 2 + 1 y_25_ ^ 2 - 2 y_93_ * y_25_ + 1 y_93_ ^ 2 ] <= 17414.420000000002
quadratic_ranged_506_ub: [ 1 x_26_ ^ 2 - 2 x_93_ * x_26_ + 1 x_93_ ^ 2 + 1 y_26_ ^ 2 - 2 y_93_ * y_26_ + 1 y_93_ ^ 2 ] <= 6609.4400000000005
quadratic_ranged_507_ub: [ 1 x_35_ ^ 2 - 2 x_93_ * x_35_ + 1 x_93_ ^ 2 + 1 y_35_ ^ 2 - 2 y_93_ * y_35_ + 1 y_93_ ^ 2 ] <= 1345.32
quadratic_ranged_508_ub: [ 1 x_51_ ^ 2 - 2 x_93_ * x_51_ + 1 x_93_ ^ 2 + 1 y_51_ ^ 2 - 2 y_93_ * y_51_ + 1 y_93_ ^ 2 ] <= 26596.33
quadratic_ranged_509_ub: [ 1 x_52_ ^ 2 - 2 x_93_ * x_52_ + 1 x_93_ ^ 2 + 1 y_52_ ^ 2 - 2 y_93_ * y_52_ + 1 y_93_ ^ 2 ] <= 5790.33
quadratic_ranged_510_ub: [ 1 x_53_ ^ 2 - 2 x_93_ * x_53_ + 1 x_93_ ^ 2 + 1 y_53_ ^ 2 - 2 y_93_ * y_53_ + 1 y_93_ ^ 2 ] <= 12075.56
quadratic_ranged_511_ub: [ 1 x_54_ ^ 2 - 2 x_93_ * x_54_ + 1 x_93_ ^ 2 + 1 y_54_ ^ 2 - 2 y_93_ * y_54_ + 1 y_93_ ^ 2 ] <= 15152.02
quadratic_ranged_512_ub: [ 1 x_64_ ^ 2 - 2 x_93_ * x_64_ + 1 x_93_ ^ 2 + 1 y_64_ ^ 2 - 2 y_93_ * y_64_ + 1 y_93_ ^ 2 ] <= 4408.65
quadratic_ranged_513_ub: [ 1 x_67_ ^ 2 - 2 x_93_ * x_67_ + 1 x_93_ ^ 2 + 1 y_67_ ^ 2 - 2 y_93_ * y_67_ + 1 y_93_ ^ 2 ] <= 4004.65
quadratic_ranged_514_ub: [ 1 x_86_ ^ 2 - 2 x_93_ * x_86_ + 1 x_93_ ^ 2 + 1 y_86_ ^ 2 - 2 y_93_ * y_86_ + 1 y_93_ ^ 2 ] <= 8800.13
quadratic_ranged_515_ub: [ 1 x_87_ ^ 2 - 2 x_93_ * x_87_ + 1 x_93_ ^ 2 + 1 y_87_ ^ 2 - 2 y_93_ * y_87_ + 1 y_93_ ^ 2 ] <= 6998.29
quadratic_ranged_516_ub: [ 1 x_92_ ^ 2 - 2 x_93_ * x_92_ + 1 x_93_ ^ 2 + 1 y_92_ ^ 2 - 2 y_93_ * y_92_ + 1 y_93_ ^ 2 ] <= 18924.37
quadratic_ranged_517_ub: [ 1 x_5_ ^ 2 - 2 x_94_ * x_5_ + 1 x_94_ ^ 2 + 1 y_5_ ^ 2 - 2 y_94_ * y_5_ + 1 y_94_ ^ 2 ] <= 29631.38
quadratic_ranged_518_ub: [ 1 x_36_ ^ 2 - 2 x_94_ * x_36_ + 1 x_94_ ^ 2 + 1 y_36_ ^ 2 - 2 y_94_ * y_36_ + 1 y_94_ ^ 2 ] <= 6061.01
quadratic_ranged_519_ub: [ 1 x_39_ ^ 2 - 2 x_94_ * x_39_ + 1 x_94_ ^ 2 + 1 y_39_ ^ 2 - 2 y_94_ * y_39_ + 1 y_94_ ^ 2 ] <= 23905.69
quadratic_ranged_520_ub: [ 1 x_40_ ^ 2 - 2 x_94_ * x_40_ + 1 x_94_ ^ 2 + 1 y_40_ ^ 2 - 2 y_94_ * y_40_ + 1 y_94_ ^ 2 ] <= 17005.37
quadratic_ranged_521_ub: [ 1 x_41_ ^ 2 - 2 x_94_ * x_41_ + 1 x_94_ ^ 2 + 1 y_41_ ^ 2 - 2 y_94_ * y_41_ + 1 y_94_ ^ 2 ] <= 38304.25
quadratic_ranged_522_ub: [ 1 x_54_ ^ 2 - 2 x_94_ * x_54_ + 1 x_94_ ^ 2 + 1 y_54_ ^ 2 - 2 y_94_ * y_54_ + 1 y_94_ ^ 2 ] <= 16767.01
quadratic_ranged_523_ub: [ 1 x_55_ ^ 2 - 2 x_94_ * x_55_ + 1 x_94_ ^ 2 + 1 y_55_ ^ 2 - 2 y_94_ * y_55_ + 1 y_94_ ^ 2 ] <= 10145.45
quadratic_ranged_524_ub: [ 1 x_59_ ^ 2 - 2 x_94_ * x_59_ + 1 x_94_ ^ 2 + 1 y_59_ ^ 2 - 2 y_94_ * y_59_ + 1 y_94_ ^ 2 ] <= 1490.76
quadratic_ranged_525_ub: [ 1 x_93_ ^ 2 - 2 x_94_ * x_93_ + 1 x_94_ ^ 2 + 1 y_93_ ^ 2 - 2 y_94_ * y_93_ + 1 y_94_ ^ 2 ] <= 4162.21
quadratic_ranged_526_ub: [ 1 x_13_ ^ 2 - 2 x_95_ * x_13_ + 1 x_95_ ^ 2 + 1 y_13_ ^ 2 - 2 y_95_ * y_13_ + 1 y_95_ ^ 2 ] <= 27961.85
quadratic_ranged_527_ub: [ 1 x_19_ ^ 2 - 2 x_95_ * x_19_ + 1 x_95_ ^ 2 + 1 y_19_ ^ 2 - 2 y_95_ * y_19_ + 1 y_95_ ^ 2 ] <= 298.96
quadratic_ranged_528_ub: [ 1 x_23_ ^ 2 - 2 x_95_ * x_23_ + 1 x_95_ ^ 2 + 1 y_23_ ^ 2 - 2 y_95_ * y_23_ + 1 y_95_ ^ 2 ] <= 44287.49
quadratic_ranged_529_ub: [ 1 x_27_ ^ 2 - 2 x_95_ * x_27_ + 1 x_95_ ^ 2 + 1 y_27_ ^ 2 - 2 y_95_ * y_27_ + 1 y_95_ ^ 2 ] <= 30850.45
quadratic_ranged_530_ub: [ 1 x_47_ ^ 2 - 2 x_95_ * x_47_ + 1 x_95_ ^ 2 + 1 y_47_ ^ 2 - 2 y_95_ * y_47_ + 1 y_95_ ^ 2 ] <= 20654.5
quadratic_ranged_531_ub: [ 1 x_48_ ^ 2 - 2 x_95_ * x_48_ + 1 x_95_ ^ 2 + 1 y_48_ ^ 2 - 2 y_95_ * y_48_ + 1 y_95_ ^ 2 ] <= 3426.93
quadratic_ranged_532_ub: [ 1 x_94_ ^ 2 - 2 x_95_ * x_94_ + 1 x_95_ ^ 2 + 1 y_94_ ^ 2 - 2 y_95_ * y_94_ + 1 y_95_ ^ 2 ] <= 32524.02
quadratic_ranged_533_ub: [ 1 x_16_ ^ 2 - 2 x_96_ * x_16_ + 1 x_96_ ^ 2 + 1 y_16_ ^ 2 - 2 y_96_ * y_16_ + 1 y_96_ ^ 2 ] <= 7333.61
quadratic_ranged_534_ub: [ 1 x_34_ ^ 2 - 2 x_96_ * x_34_ + 1 x_96_ ^ 2 + 1 y_34_ ^ 2 - 2 y_96_ * y_34_ + 1 y_96_ ^ 2 ] <= 17365.94
quadratic_ranged_535_ub: [ 1 x_41_ ^ 2 - 2 x_96_ * x_41_ + 1 x_96_ ^ 2 + 1 y_41_ ^ 2 - 2 y_96_ * y_41_ + 1 y_96_ ^ 2 ] <= 7312.4
quadratic_ranged_536_ub: [ 1 x_53_ ^ 2 - 2 x_96_ * x_53_ + 1 x_96_ ^ 2 + 1 y_53_ ^ 2 - 2 y_96_ * y_53_ + 1 y_96_ ^ 2 ] <= 1397.84
quadratic_ranged_537_ub: [ 1 x_59_ ^ 2 - 2 x_96_ * x_59_ + 1 x_96_ ^ 2 + 1 y_59_ ^ 2 - 2 y_96_ * y_59_ + 1 y_96_ ^ 2 ] <= 21178.69
quadratic_ranged_538_ub: [ 1 x_72_ ^ 2 - 2 x_96_ * x_72_ + 1 x_96_ ^ 2 + 1 y_72_ ^ 2 - 2 y_96_ * y_72_ + 1 y_96_ ^ 2 ] <= 23796.61
quadratic_ranged_539_ub: [ 1 x_76_ ^ 2 - 2 x_96_ * x_76_ + 1 x_96_ ^ 2 + 1 y_76_ ^ 2 - 2 y_96_ * y_76_ + 1 y_96_ ^ 2 ] <= 8908.2
quadratic_ranged_540_ub: [ 1 x_85_ ^ 2 - 2 x_96_ * x_85_ + 1 x_96_ ^ 2 + 1 y_85_ ^ 2 - 2 y_96_ * y_85_ + 1 y_96_ ^ 2 ] <= 34397.57
quadratic_ranged_541_ub: [ 1 x_86_ ^ 2 - 2 x_96_ * x_86_ + 1 x_96_ ^ 2 + 1 y_86_ ^ 2 - 2 y_96_ * y_86_ + 1 y_96_ ^ 2 ] <= 2994.65
quadratic_ranged_542_ub: [ 1 x_95_ ^ 2 - 2 x_96_ * x_95_ + 1 x_96_ ^ 2 + 1 y_95_ ^ 2 - 2 y_96_ * y_95_ + 1 y_96_ ^ 2 ] <= 8367.85
quadratic_ranged_543_ub: [ 1 x_6_ ^ 2 - 2 x_97_ * x_6_ + 1 x_97_ ^ 2 + 1 y_6_ ^ 2 - 2 y_97_ * y_6_ + 1 y_97_ ^ 2 ] <= 33778.44
quadratic_ranged_544_ub: [ 1 x_22_ ^ 2 - 2 x_97_ * x_22_ + 1 x_97_ ^ 2 + 1 y_22_ ^ 2 - 2 y_97_ * y_22_ + 1 y_97_ ^ 2 ] <= 29880.85
quadratic_ranged_545_ub: [ 1 x_26_ ^ 2 - 2 x_97_ * x_26_ + 1 x_97_ ^ 2 + 1 y_26_ ^ 2 - 2 y_97_ * y_26_ + 1 y_97_ ^ 2 ] <= 26911.45
quadratic_ranged_546_ub: [ 1 x_44_ ^ 2 - 2 x_97_ * x_44_ + 1 x_97_ ^ 2 + 1 y_44_ ^ 2 - 2 y_97_ * y_44_ + 1 y_97_ ^ 2 ] <= 32038.21
quadratic_ranged_547_ub: [ 1 x_52_ ^ 2 - 2 x_97_ * x_52_ + 1 x_97_ ^ 2 + 1 y_52_ ^ 2 - 2 y_97_ * y_52_ + 1 y_97_ ^ 2 ] <= 26684.2
quadratic_ranged_548_ub: [ 1 x_59_ ^ 2 - 2 x_97_ * x_59_ + 1 x_97_ ^ 2 + 1 y_59_ ^ 2 - 2 y_97_ * y_59_ + 1 y_97_ ^ 2 ] <= 6651.86
quadratic_ranged_549_ub: [ 1 x_68_ ^ 2 - 2 x_97_ * x_68_ + 1 x_97_ ^ 2 + 1 y_68_ ^ 2 - 2 y_97_ * y_68_ + 1 y_97_ ^ 2 ] <= 52459.4
quadratic_ranged_550_ub: [ 1 x_85_ ^ 2 - 2 x_97_ * x_85_ + 1 x_97_ ^ 2 + 1 y_85_ ^ 2 - 2 y_97_ * y_85_ + 1 y_97_ ^ 2 ] <= 22224.04
quadratic_ranged_551_ub: [ 1 x_92_ ^ 2 - 2 x_97_ * x_92_ + 1 x_97_ ^ 2 + 1 y_92_ ^ 2 - 2 y_97_ * y_92_ + 1 y_97_ ^ 2 ] <= 50445.46
quadratic_ranged_552_ub: [ 1 x_96_ ^ 2 - 2 x_97_ * x_96_ + 1 x_97_ ^ 2 + 1 y_96_ ^ 2 - 2 y_97_ * y_96_ + 1 y_97_ ^ 2 ] <= 42202.85
quadratic_ranged_553_ub: [ 1 x_7_ ^ 2 - 2 x_98_ * x_7_ + 1 x_98_ ^ 2 + 1 y_7_ ^ 2 - 2 y_98_ * y_7_ + 1 y_98_ ^ 2 ] <= 22179.6
quadratic_ranged_554_ub: [ 1 x_14_ ^ 2 - 2 x_98_ * x_14_ + 1 x_98_ ^ 2 + 1 y_14_ ^ 2 - 2 y_98_ * y_14_ + 1 y_98_ ^ 2 ] <= 30851.46
quadratic_ranged_555_ub: [ 1 x_15_ ^ 2 - 2 x_98_ * x_15_ + 1 x_98_ ^ 2 + 1 y_15_ ^ 2 - 2 y_98_ * y_15_ + 1 y_98_ ^ 2 ] <= 9340.48
quadratic_ranged_556_ub: [ 1 x_36_ ^ 2 - 2 x_98_ * x_36_ + 1 x_98_ ^ 2 + 1 y_36_ ^ 2 - 2 y_98_ * y_36_ + 1 y_98_ ^ 2 ] <= 12791.65
quadratic_ranged_557_ub: [ 1 x_43_ ^ 2 - 2 x_98_ * x_43_ + 1 x_98_ ^ 2 + 1 y_43_ ^ 2 - 2 y_98_ * y_43_ + 1 y_98_ ^ 2 ] <= 2429.05
quadratic_ranged_558_ub: [ 1 x_56_ ^ 2 - 2 x_98_ * x_56_ + 1 x_98_ ^ 2 + 1 y_56_ ^ 2 - 2 y_98_ * y_56_ + 1 y_98_ ^ 2 ] <= 4155.14
quadratic_ranged_559_ub: [ 1 x_61_ ^ 2 - 2 x_98_ * x_61_ + 1 x_98_ ^ 2 + 1 y_61_ ^ 2 - 2 y_98_ * y_61_ + 1 y_98_ ^ 2 ] <= 5934.76
quadratic_ranged_560_ub: [ 1 x_78_ ^ 2 - 2 x_98_ * x_78_ + 1 x_98_ ^ 2 + 1 y_78_ ^ 2 - 2 y_98_ * y_78_ + 1 y_98_ ^ 2 ] <= 24629.86
quadratic_ranged_561_ub: [ 1 x_79_ ^ 2 - 2 x_98_ * x_79_ + 1 x_98_ ^ 2 + 1 y_79_ ^ 2 - 2 y_98_ * y_79_ + 1 y_98_ ^ 2 ] <= 4012.73
quadratic_ranged_562_ub: [ 1 x_97_ ^ 2 - 2 x_98_ * x_97_ + 1 x_98_ ^ 2 + 1 y_97_ ^ 2 - 2 y_98_ * y_97_ + 1 y_98_ ^ 2 ] <= 43199.72
quadratic_ranged_563_ub: [ 1 x_3_ ^ 2 - 2 x_99_ * x_3_ + 1 x_99_ ^ 2 + 1 y_3_ ^ 2 - 2 y_99_ * y_3_ + 1 y_99_ ^ 2 ] <= 9797
quadratic_ranged_564_ub: [ 1 x_10_ ^ 2 - 2 x_99_ * x_10_ + 1 x_99_ ^ 2 + 1 y_10_ ^ 2 - 2 y_99_ * y_10_ + 1 y_99_ ^ 2 ] <= 7761.85
quadratic_ranged_565_ub: [ 1 x_11_ ^ 2 - 2 x_99_ * x_11_ + 1 x_99_ ^ 2 + 1 y_11_ ^ 2 - 2 y_99_ * y_11_ + 1 y_99_ ^ 2 ] <= 4162.21
quadratic_ranged_566_ub: [ 1 x_16_ ^ 2 - 2 x_99_ * x_16_ + 1 x_99_ ^ 2 + 1 y_16_ ^ 2 - 2 y_99_ * y_16_ + 1 y_99_ ^ 2 ] <= 42359.4
quadratic_ranged_567_ub: [ 1 x_23_ ^ 2 - 2 x_99_ * x_23_ + 1 x_99_ ^ 2 + 1 y_23_ ^ 2 - 2 y_99_ * y_23_ + 1 y_99_ ^ 2 ] <= 5.05
quadratic_ranged_568_ub: [ 1 x_30_ ^ 2 - 2 x_99_ * x_30_ + 1 x_99_ ^ 2 + 1 y_30_ ^ 2 - 2 y_99_ * y_30_ + 1 y_99_ ^ 2 ] <= 28204.25
quadratic_ranged_569_ub: [ 1 x_33_ ^ 2 - 2 x_99_ * x_33_ + 1 x_99_ ^ 2 + 1 y_33_ ^ 2 - 2 y_99_ * y_33_ + 1 y_99_ ^ 2 ] <= 17614.4
quadratic_ranged_570_ub: [ 1 x_38_ ^ 2 - 2 x_99_ * x_38_ + 1 x_99_ ^ 2 + 1 y_38_ ^ 2 - 2 y_99_ * y_38_ + 1 y_99_ ^ 2 ] <= 934.25
quadratic_ranged_571_ub: [ 1 x_39_ ^ 2 - 2 x_99_ * x_39_ + 1 x_99_ ^ 2 + 1 y_39_ ^ 2 - 2 y_99_ * y_39_ + 1 y_99_ ^ 2 ] <= 35068.21
quadratic_ranged_572_ub: [ 1 x_41_ ^ 2 - 2 x_99_ * x_41_ + 1 x_99_ ^ 2 + 1 y_41_ ^ 2 - 2 y_99_ * y_41_ + 1 y_99_ ^ 2 ] <= 49353.65
quadratic_ranged_573_ub: [ 1 x_53_ ^ 2 - 2 x_99_ * x_53_ + 1 x_99_ ^ 2 + 1 y_53_ ^ 2 - 2 y_99_ * y_53_ + 1 y_99_ ^ 2 ] <= 32838.13
quadratic_ranged_574_ub: [ 1 x_58_ ^ 2 - 2 x_99_ * x_58_ + 1 x_99_ ^ 2 + 1 y_58_ ^ 2 - 2 y_99_ * y_58_ + 1 y_99_ ^ 2 ] <= 53303.76
quadratic_ranged_575_ub: [ 1 x_60_ ^ 2 - 2 x_99_ * x_60_ + 1 x_99_ ^ 2 + 1 y_60_ ^ 2 - 2 y_99_ * y_60_ + 1 y_99_ ^ 2 ] <= 22507.85
quadratic_ranged_576_ub: [ 1 x_74_ ^ 2 - 2 x_99_ * x_74_ + 1 x_99_ ^ 2 + 1 y_74_ ^ 2 - 2 y_99_ * y_74_ + 1 y_99_ ^ 2 ] <= 17288.170000000002
quadratic_ranged_577_ub: [ 1 x_98_ ^ 2 - 2 x_99_ * x_98_ + 1 x_99_ ^ 2 + 1 y_98_ ^ 2 - 2 y_99_ * y_98_ + 1 y_99_ ^ 2 ] <= 37792.18
quadratic_ranged_578_ub: [ 1 x_1_ ^ 2 - 2 x_100_ * x_1_ + 1 x_100_ ^ 2 + 1 y_1_ ^ 2 - 2 y_100_ * y_1_ + 1 y_100_ ^ 2 ] <= 6994.25
quadratic_ranged_579_ub: [ 1 x_24_ ^ 2 - 2 x_100_ * x_24_ + 1 x_100_ ^ 2 + 1 y_24_ ^ 2 - 2 y_100_ * y_24_ + 1 y_100_ ^ 2 ] <= 7807.3
quadratic_ranged_580_ub: [ 1 x_31_ ^ 2 - 2 x_100_ * x_31_ + 1 x_100_ ^ 2 + 1 y_31_ ^ 2 - 2 y_100_ * y_31_ + 1 y_100_ ^ 2 ] <= 5358.05
quadratic_ranged_581_ub: [ 1 x_42_ ^ 2 - 2 x_100_ * x_42_ + 1 x_100_ ^ 2 + 1 y_42_ ^ 2 - 2 y_100_ * y_42_ + 1 y_100_ ^ 2 ] <= 17368.97
quadratic_ranged_582_ub: [ 1 x_48_ ^ 2 - 2 x_100_ * x_48_ + 1 x_100_ ^ 2 + 1 y_48_ ^ 2 - 2 y_100_ * y_48_ + 1 y_100_ ^ 2 ] <= 10271.7
quadratic_ranged_583_ub: [ 1 x_85_ ^ 2 - 2 x_100_ * x_85_ + 1 x_100_ ^ 2 + 1 y_85_ ^ 2 - 2 y_100_ * y_85_ + 1 y_100_ ^ 2 ] <= 31032.25
quadratic_ranged_584_ub: [ 1 x_86_ ^ 2 - 2 x_100_ * x_86_ + 1 x_100_ ^ 2 + 1 y_86_ ^ 2 - 2 y_100_ * y_86_ + 1 y_100_ ^ 2 ] <= 841.33
quadratic_ranged_585_ub: [ 1 x_99_ ^ 2 - 2 x_100_ * x_99_ + 1 x_100_ ^ 2 + 1 y_99_ ^ 2 - 2 y_100_ * y_99_ + 1 y_100_ ^ 2 ] <= 17235.65
quadratic_ranged_1_lb: [ 1 x_1_ ^ 2 - 2 x_2_ * x_1_ + 1 x_2_ ^ 2 + 1 y_1_ ^ 2 - 2 y_2_ * y_1_ + 1 y_2_ ^ 2 ] >= 785.0699999999999
quadratic_ranged_2_lb: [ 1 x_2_ ^ 2 - 2 x_3_ * x_2_ + 1 x_3_ ^ 2 + 1 y_2_ ^ 2 - 2 y_3_ * y_2_ + 1 y_3_ ^ 2 ] >= 10491.03
quadratic_ranged_3_lb: [ 1 x_3_ ^ 2 - 2 x_4_ * x_3_ + 1 x_4_ ^ 2 + 1 y_3_ ^ 2 - 2 y_4_ * y_3_ + 1 y_4_ ^ 2 ] >= 7890.3
quadratic_ranged_4_lb: [ 1 x_4_ ^ 2 - 2 x_5_ * x_4_ + 1 x_5_ ^ 2 + 1 y_4_ ^ 2 - 2 y_5_ * y_4_ + 1 y_5_ ^ 2 ] >= 67.32
quadratic_ranged_5_lb: [ 1 x_4_ ^ 2 - 2 x_6_ * x_4_ + 1 x_6_ ^ 2 + 1 y_4_ ^ 2 - 2 y_6_ * y_4_ + 1 y_6_ ^ 2 ] >= 2316.6
quadratic_ranged_6_lb: [ 1 x_5_ ^ 2 - 2 x_6_ * x_5_ + 1 x_6_ ^ 2 + 1 y_5_ ^ 2 - 2 y_6_ * y_5_ + 1 y_6_ ^ 2 ] >= 1837.44
quadratic_ranged_7_lb: [ 1 x_6_ ^ 2 - 2 x_7_ * x_6_ + 1 x_7_ ^ 2 + 1 y_6_ ^ 2 - 2 y_7_ * y_6_ + 1 y_7_ ^ 2 ] >= 16932.96
quadratic_ranged_8_lb: [ 1 x_7_ ^ 2 - 2 x_8_ * x_7_ + 1 x_8_ ^ 2 + 1 y_7_ ^ 2 - 2 y_8_ * y_7_ + 1 y_8_ ^ 2 ] >= 29768.31
quadratic_ranged_9_lb: [ 1 x_3_ ^ 2 - 2 x_9_ * x_3_ + 1 x_9_ ^ 2 + 1 y_3_ ^ 2 - 2 y_9_ * y_3_ + 1 y_9_ ^ 2 ] >= 26304.3
quadratic_ranged_10_lb: [ 1 x_8_ ^ 2 - 2 x_9_ * x_8_ + 1 x_9_ ^ 2 + 1 y_8_ ^ 2 - 2 y_9_ * y_8_ + 1 y_9_ ^ 2 ] >= 20553.39
quadratic_ranged_11_lb: [ 1 x_5_ ^ 2 - 2 x_10_ * x_5_ + 1 x_10_ ^ 2 + 1 y_5_ ^ 2 - 2 y_10_ * y_5_ + 1 y_10_ ^ 2 ] >= 13045.23
quadratic_ranged_12_lb: [ 1 x_6_ ^ 2 - 2 x_10_ * x_6_ + 1 x_10_ ^ 2 + 1 y_6_ ^ 2 - 2 y_10_ * y_6_ + 1 y_10_ ^ 2 ] >= 7390.35
quadratic_ranged_13_lb: [ 1 x_7_ ^ 2 - 2 x_10_ * x_7_ + 1 x_10_ ^ 2 + 1 y_7_ ^ 2 - 2 y_10_ * y_7_ + 1 y_10_ ^ 2 ] >= 2574.99
quadratic_ranged_14_lb: [ 1 x_9_ ^ 2 - 2 x_10_ * x_9_ + 1 x_10_ ^ 2 + 1 y_9_ ^ 2 - 2 y_10_ * y_9_ + 1 y_10_ ^ 2 ] >= 10384.11
quadratic_ranged_15_lb: [ 1 x_10_ ^ 2 - 2 x_11_ * x_10_ + 1 x_11_ ^ 2 + 1 y_10_ ^ 2 - 2 y_11_ * y_10_ + 1 y_11_ ^ 2 ] >= 641.52
quadratic_ranged_16_lb: [ 1 x_2_ ^ 2 - 2 x_12_ * x_2_ + 1 x_12_ ^ 2 + 1 y_2_ ^ 2 - 2 y_12_ * y_2_ + 1 y_12_ ^ 2 ] >= 16438.95
quadratic_ranged_17_lb: [ 1 x_7_ ^ 2 - 2 x_12_ * x_7_ + 1 x_12_ ^ 2 + 1 y_7_ ^ 2 - 2 y_12_ * y_7_ + 1 y_12_ ^ 2 ] >= 6274.62
quadratic_ranged_18_lb: [ 1 x_11_ ^ 2 - 2 x_12_ * x_11_ + 1 x_12_ ^ 2 + 1 y_11_ ^ 2 - 2 y_12_ * y_11_ + 1 y_12_ ^ 2 ] >= 7251.75
quadratic_ranged_19_lb: [ 1 x_6_ ^ 2 - 2 x_13_ * x_6_ + 1 x_13_ ^ 2 + 1 y_6_ ^ 2 - 2 y_13_ * y_6_ + 1 y_13_ ^ 2 ] >= 14225.31
quadratic_ranged_20_lb: [ 1 x_7_ ^ 2 - 2 x_13_ * x_7_ + 1 x_13_ ^ 2 + 1 y_7_ ^ 2 - 2 y_13_ * y_7_ + 1 y_13_ ^ 2 ] >= 29027.79
quadratic_ranged_21_lb: [ 1 x_9_ ^ 2 - 2 x_13_ * x_9_ + 1 x_13_ ^ 2 + 1 y_9_ ^ 2 - 2 y_13_ * y_9_ + 1 y_13_ ^ 2 ] >= 46653.75
quadratic_ranged_22_lb: [ 1 x_12_ ^ 2 - 2 x_13_ * x_12_ + 1 x_13_ ^ 2 + 1 y_12_ ^ 2 - 2 y_13_ * y_12_ + 1 y_13_ ^ 2 ] >= 29772.27
quadratic_ranged_23_lb: [ 1 x_1_ ^ 2 - 2 x_14_ * x_1_ + 1 x_14_ ^ 2 + 1 y_1_ ^ 2 - 2 y_14_ * y_1_ + 1 y_14_ ^ 2 ] >= 26882.46
quadratic_ranged_24_lb: [ 1 x_9_ ^ 2 - 2 x_14_ * x_9_ + 1 x_14_ ^ 2 + 1 y_9_ ^ 2 - 2 y_14_ * y_9_ + 1 y_14_ ^ 2 ] >= 22059.18
quadratic_ranged_25_lb: [ 1 x_13_ ^ 2 - 2 x_14_ * x_13_ + 1 x_14_ ^ 2 + 1 y_13_ ^ 2 - 2 y_14_ * y_13_ + 1 y_14_ ^ 2 ] >= 20830.59
quadratic_ranged_26_lb: [ 1 x_9_ ^ 2 - 2 x_15_ * x_9_ + 1 x_15_ ^ 2 + 1 y_9_ ^ 2 - 2 y_15_ * y_9_ + 1 y_15_ ^ 2 ] >= 970.2
quadratic_ranged_27_lb: [ 1 x_14_ ^ 2 - 2 x_15_ * x_14_ + 1 x_15_ ^ 2 + 1 y_14_ ^ 2 - 2 y_15_ * y_14_ + 1 y_15_ ^ 2 ] >= 26660.7
quadratic_ranged_28_lb: [ 1 x_15_ ^ 2 - 2 x_16_ * x_15_ + 1 x_16_ ^ 2 + 1 y_15_ ^ 2 - 2 y_16_ * y_15_ + 1 y_16_ ^ 2 ] >= 7613.1
quadratic_ranged_29_lb: [ 1 x_3_ ^ 2 - 2 x_17_ * x_3_ + 1 x_17_ ^ 2 + 1 y_3_ ^ 2 - 2 y_17_ * y_3_ + 1 y_17_ ^ 2 ] >= 22731.39
quadratic_ranged_30_lb: [ 1 x_6_ ^ 2 - 2 x_17_ * x_6_ + 1 x_17_ ^ 2 + 1 y_6_ ^ 2 - 2 y_17_ * y_6_ + 1 y_17_ ^ 2 ] >= 3608.55
quadratic_ranged_31_lb: [ 1 x_7_ ^ 2 - 2 x_17_ * x_7_ + 1 x_17_ ^ 2 + 1 y_7_ ^ 2 - 2 y_17_ * y_7_ + 1 y_17_ ^ 2 ] >= 32516.55
quadratic_ranged_32_lb: [ 1 x_14_ ^ 2 - 2 x_17_ * x_14_ + 1 x_17_ ^ 2 + 1 y_14_ ^ 2 - 2 y_17_ * y_14_ + 1 y_17_ ^ 2 ] >= 43553.07
quadratic_ranged_33_lb: [ 1 x_16_ ^ 2 - 2 x_17_ * x_16_ + 1 x_17_ ^ 2 + 1 y_16_ ^ 2 - 2 y_17_ * y_16_ + 1 y_17_ ^ 2 ] >= 789.03
quadratic_ranged_34_lb: [ 1 x_3_ ^ 2 - 2 x_18_ * x_3_ + 1 x_18_ ^ 2 + 1 y_3_ ^ 2 - 2 y_18_ * y_3_ + 1 y_18_ ^ 2 ] >= 5591.5199999999995
quadratic_ranged_35_lb: [ 1 x_8_ ^ 2 - 2 x_18_ * x_8_ + 1 x_18_ ^ 2 + 1 y_8_ ^ 2 - 2 y_18_ * y_8_ + 1 y_18_ ^ 2 ] >= 9508.95
quadratic_ranged_36_lb: [ 1 x_14_ ^ 2 - 2 x_18_ * x_14_ + 1 x_18_ ^ 2 + 1 y_14_ ^ 2 - 2 y_18_ * y_14_ + 1 y_18_ ^ 2 ] >= 10426.68
quadratic_ranged_37_lb: [ 1 x_15_ ^ 2 - 2 x_18_ * x_15_ + 1 x_18_ ^ 2 + 1 y_15_ ^ 2 - 2 y_18_ * y_15_ + 1 y_18_ ^ 2 ] >= 7225.0199999999995
quadratic_ranged_38_lb: [ 1 x_17_ ^ 2 - 2 x_18_ * x_17_ + 1 x_18_ ^ 2 + 1 y_17_ ^ 2 - 2 y_18_ * y_17_ + 1 y_18_ ^ 2 ] >= 11587.95
quadratic_ranged_39_lb: [ 1 x_3_ ^ 2 - 2 x_19_ * x_3_ + 1 x_19_ ^ 2 + 1 y_3_ ^ 2 - 2 y_19_ * y_3_ + 1 y_19_ ^ 2 ] >= 15493.5
quadratic_ranged_40_lb: [ 1 x_18_ ^ 2 - 2 x_19_ * x_18_ + 1 x_19_ ^ 2 + 1 y_18_ ^ 2 - 2 y_19_ * y_18_ + 1 y_19_ ^ 2 ] >= 4571.82
quadratic_ranged_41_lb: [ 1 x_3_ ^ 2 - 2 x_20_ * x_3_ + 1 x_20_ ^ 2 + 1 y_3_ ^ 2 - 2 y_20_ * y_3_ + 1 y_20_ ^ 2 ] >= 3355.11
quadratic_ranged_42_lb: [ 1 x_11_ ^ 2 - 2 x_20_ * x_11_ + 1 x_20_ ^ 2 + 1 y_11_ ^ 2 - 2 y_20_ * y_11_ + 1 y_20_ ^ 2 ] >= 16889.4
quadratic_ranged_43_lb: [ 1 x_13_ ^ 2 - 2 x_20_ * x_13_ + 1 x_20_ ^ 2 + 1 y_13_ ^ 2 - 2 y_20_ * y_13_ + 1 y_20_ ^ 2 ] >= 287.1
quadratic_ranged_44_lb: [ 1 x_16_ ^ 2 - 2 x_20_ * x_16_ + 1 x_20_ ^ 2 + 1 y_16_ ^ 2 - 2 y_20_ * y_16_ + 1 y_20_ ^ 2 ] >= 20711.79
quadratic_ranged_45_lb: [ 1 x_19_ ^ 2 - 2 x_20_ * x_19_ + 1 x_20_ ^ 2 + 1 y_19_ ^ 2 - 2 y_20_ * y_19_ + 1 y_20_ ^ 2 ] >= 19511.91
quadratic_ranged_46_lb: [ 1 x_20_ ^ 2 - 2 x_21_ * x_20_ + 1 x_21_ ^ 2 + 1 y_20_ ^ 2 - 2 y_21_ * y_20_ + 1 y_21_ ^ 2 ] >= 19455.48
quadratic_ranged_47_lb: [ 1 x_5_ ^ 2 - 2 x_22_ * x_5_ + 1 x_22_ ^ 2 + 1 y_5_ ^ 2 - 2 y_22_ * y_5_ + 1 y_22_ ^ 2 ] >= 8099.19
quadratic_ranged_48_lb: [ 1 x_6_ ^ 2 - 2 x_22_ * x_6_ + 1 x_22_ ^ 2 + 1 y_6_ ^ 2 - 2 y_22_ * y_6_ + 1 y_22_ ^ 2 ] >= 13500.63
quadratic_ranged_49_lb: [ 1 x_7_ ^ 2 - 2 x_22_ * x_7_ + 1 x_22_ ^ 2 + 1 y_7_ ^ 2 - 2 y_22_ * y_7_ + 1 y_22_ ^ 2 ] >= 31162.23
quadratic_ranged_50_lb: [ 1 x_9_ ^ 2 - 2 x_22_ * x_9_ + 1 x_22_ ^ 2 + 1 y_9_ ^ 2 - 2 y_22_ * y_9_ + 1 y_22_ ^ 2 ] >= 47406.15
quadratic_ranged_51_lb: [ 1 x_17_ ^ 2 - 2 x_22_ * x_17_ + 1 x_22_ ^ 2 + 1 y_17_ ^ 2 - 2 y_22_ * y_17_ + 1 y_22_ ^ 2 ] >= 25823.16
quadratic_ranged_52_lb: [ 1 x_21_ ^ 2 - 2 x_22_ * x_21_ + 1 x_22_ ^ 2 + 1 y_21_ ^ 2 - 2 y_22_ * y_21_ + 1 y_22_ ^ 2 ] >= 22445.28
quadratic_ranged_53_lb: [ 1 x_22_ ^ 2 - 2 x_23_ * x_22_ + 1 x_23_ ^ 2 + 1 y_22_ ^ 2 - 2 y_23_ * y_22_ + 1 y_23_ ^ 2 ] >= 25383.6
quadratic_ranged_54_lb: [ 1 x_13_ ^ 2 - 2 x_24_ * x_13_ + 1 x_24_ ^ 2 + 1 y_13_ ^ 2 - 2 y_24_ * y_13_ + 1 y_24_ ^ 2 ] >= 11786.94
quadratic_ranged_55_lb: [ 1 x_17_ ^ 2 - 2 x_24_ * x_17_ + 1 x_24_ ^ 2 + 1 y_17_ ^ 2 - 2 y_24_ * y_17_ + 1 y_24_ ^ 2 ] >= 3651.12
quadratic_ranged_56_lb: [ 1 x_22_ ^ 2 - 2 x_24_ * x_22_ + 1 x_24_ ^ 2 + 1 y_22_ ^ 2 - 2 y_24_ * y_22_ + 1 y_24_ ^ 2 ] >= 10315.8
quadratic_ranged_57_lb: [ 1 x_23_ ^ 2 - 2 x_24_ * x_23_ + 1 x_24_ ^ 2 + 1 y_23_ ^ 2 - 2 y_24_ * y_23_ + 1 y_24_ ^ 2 ] >= 39699
quadratic_ranged_58_lb: [ 1 x_24_ ^ 2 - 2 x_25_ * x_24_ + 1 x_25_ ^ 2 + 1 y_24_ ^ 2 - 2 y_25_ * y_24_ + 1 y_25_ ^ 2 ] >= 9339.66
quadratic_ranged_59_lb: [ 1 x_12_ ^ 2 - 2 x_26_ * x_12_ + 1 x_26_ ^ 2 + 1 y_12_ ^ 2 - 2 y_26_ * y_12_ + 1 y_26_ ^ 2 ] >= 19745.55
quadratic_ranged_60_lb: [ 1 x_14_ ^ 2 - 2 x_26_ * x_14_ + 1 x_26_ ^ 2 + 1 y_14_ ^ 2 - 2 y_26_ * y_14_ + 1 y_26_ ^ 2 ] >= 19389.15
quadratic_ranged_61_lb: [ 1 x_19_ ^ 2 - 2 x_26_ * x_19_ + 1 x_26_ ^ 2 + 1 y_19_ ^ 2 - 2 y_26_ * y_19_ + 1 y_26_ ^ 2 ] >= 13809.51
quadratic_ranged_62_lb: [ 1 x_25_ ^ 2 - 2 x_26_ * x_25_ + 1 x_26_ ^ 2 + 1 y_25_ ^ 2 - 2 y_26_ * y_25_ + 1 y_26_ ^ 2 ] >= 19009.98
quadratic_ranged_63_lb: [ 1 x_3_ ^ 2 - 2 x_27_ * x_3_ + 1 x_27_ ^ 2 + 1 y_3_ ^ 2 - 2 y_27_ * y_3_ + 1 y_27_ ^ 2 ] >= 13037.31
quadratic_ranged_64_lb: [ 1 x_13_ ^ 2 - 2 x_27_ * x_13_ + 1 x_27_ ^ 2 + 1 y_13_ ^ 2 - 2 y_27_ * y_13_ + 1 y_27_ ^ 2 ] >= 30357.36
quadratic_ranged_65_lb: [ 1 x_14_ ^ 2 - 2 x_27_ * x_14_ + 1 x_27_ ^ 2 + 1 y_14_ ^ 2 - 2 y_27_ * y_14_ + 1 y_27_ ^ 2 ] >= 2048.31
quadratic_ranged_66_lb: [ 1 x_26_ ^ 2 - 2 x_27_ * x_26_ + 1 x_27_ ^ 2 + 1 y_26_ ^ 2 - 2 y_27_ * y_26_ + 1 y_27_ ^ 2 ] >= 25686.54
quadratic_ranged_67_lb: [ 1 x_4_ ^ 2 - 2 x_28_ * x_4_ + 1 x_28_ ^ 2 + 1 y_4_ ^ 2 - 2 y_28_ * y_4_ + 1 y_28_ ^ 2 ] >= 8339.76
quadratic_ranged_68_lb: [ 1 x_7_ ^ 2 - 2 x_28_ * x_7_ + 1 x_28_ ^ 2 + 1 y_7_ ^ 2 - 2 y_28_ * y_7_ + 1 y_28_ ^ 2 ] >= 7227
quadratic_ranged_69_lb: [ 1 x_17_ ^ 2 - 2 x_28_ * x_17_ + 1 x_28_ ^ 2 + 1 y_17_ ^ 2 - 2 y_28_ * y_17_ + 1 y_28_ ^ 2 ] >= 9132.75
quadratic_ranged_70_lb: [ 1 x_18_ ^ 2 - 2 x_28_ * x_18_ + 1 x_28_ ^ 2 + 1 y_18_ ^ 2 - 2 y_28_ * y_18_ + 1 y_28_ ^ 2 ] >= 287.1
quadratic_ranged_71_lb: [ 1 x_21_ ^ 2 - 2 x_28_ * x_21_ + 1 x_28_ ^ 2 + 1 y_21_ ^ 2 - 2 y_28_ * y_21_ + 1 y_28_ ^ 2 ] >= 5291.55
quadratic_ranged_72_lb: [ 1 x_24_ ^ 2 - 2 x_28_ * x_24_ + 1 x_28_ ^ 2 + 1 y_24_ ^ 2 - 2 y_28_ * y_24_ + 1 y_28_ ^ 2 ] >= 8566.47
quadratic_ranged_73_lb: [ 1 x_26_ ^ 2 - 2 x_28_ * x_26_ + 1 x_28_ ^ 2 + 1 y_26_ ^ 2 - 2 y_28_ * y_26_ + 1 y_28_ ^ 2 ] >= 11029.59
quadratic_ranged_74_lb: [ 1 x_27_ ^ 2 - 2 x_28_ * x_27_ + 1 x_28_ ^ 2 + 1 y_27_ ^ 2 - 2 y_28_ * y_27_ + 1 y_28_ ^ 2 ] >= 10839.51
quadratic_ranged_75_lb: [ 1 x_7_ ^ 2 - 2 x_29_ * x_7_ + 1 x_29_ ^ 2 + 1 y_7_ ^ 2 - 2 y_29_ * y_7_ + 1 y_29_ ^ 2 ] >= 38040.75
quadratic_ranged_76_lb: [ 1 x_12_ ^ 2 - 2 x_29_ * x_12_ + 1 x_29_ ^ 2 + 1 y_12_ ^ 2 - 2 y_29_ * y_12_ + 1 y_29_ ^ 2 ] >= 21325.59
quadratic_ranged_77_lb: [ 1 x_28_ ^ 2 - 2 x_29_ * x_28_ + 1 x_29_ ^ 2 + 1 y_28_ ^ 2 - 2 y_29_ * y_28_ + 1 y_29_ ^ 2 ] >= 13587.75
quadratic_ranged_78_lb: [ 1 x_9_ ^ 2 - 2 x_30_ * x_9_ + 1 x_30_ ^ 2 + 1 y_9_ ^ 2 - 2 y_30_ * y_9_ + 1 y_30_ ^ 2 ] >= 56925.99
quadratic_ranged_79_lb: [ 1 x_13_ ^ 2 - 2 x_30_ * x_13_ + 1 x_30_ ^ 2 + 1 y_13_ ^ 2 - 2 y_30_ * y_13_ + 1 y_30_ ^ 2 ] >= 538.56
quadratic_ranged_80_lb: [ 1 x_15_ ^ 2 - 2 x_30_ * x_15_ + 1 x_30_ ^ 2 + 1 y_15_ ^ 2 - 2 y_30_ * y_15_ + 1 y_30_ ^ 2 ] >= 52823.43
quadratic_ranged_81_lb: [ 1 x_20_ ^ 2 - 2 x_30_ * x_20_ + 1 x_30_ ^ 2 + 1 y_20_ ^ 2 - 2 y_30_ * y_20_ + 1 y_30_ ^ 2 ] >= 1189.98
quadratic_ranged_82_lb: [ 1 x_22_ ^ 2 - 2 x_30_ * x_22_ + 1 x_30_ ^ 2 + 1 y_22_ ^ 2 - 2 y_30_ * y_22_ + 1 y_30_ ^ 2 ] >= 477.18
quadratic_ranged_83_lb: [ 1 x_29_ ^ 2 - 2 x_30_ * x_29_ + 1 x_30_ ^ 2 + 1 y_29_ ^ 2 - 2 y_30_ * y_29_ + 1 y_30_ ^ 2 ] >= 15548.94
quadratic_ranged_84_lb: [ 1 x_4_ ^ 2 - 2 x_31_ * x_4_ + 1 x_31_ ^ 2 + 1 y_4_ ^ 2 - 2 y_31_ * y_4_ + 1 y_31_ ^ 2 ] >= 6165.72
quadratic_ranged_85_lb: [ 1 x_6_ ^ 2 - 2 x_31_ * x_6_ + 1 x_31_ ^ 2 + 1 y_6_ ^ 2 - 2 y_31_ * y_6_ + 1 y_31_ ^ 2 ] >= 2566.08
quadratic_ranged_86_lb: [ 1 x_11_ ^ 2 - 2 x_31_ * x_11_ + 1 x_31_ ^ 2 + 1 y_11_ ^ 2 - 2 y_31_ * y_11_ + 1 y_31_ ^ 2 ] >= 3719.43
quadratic_ranged_87_lb: [ 1 x_20_ ^ 2 - 2 x_31_ * x_20_ + 1 x_31_ ^ 2 + 1 y_20_ ^ 2 - 2 y_31_ * y_20_ + 1 y_31_ ^ 2 ] >= 9433.71
quadratic_ranged_88_lb: [ 1 x_30_ ^ 2 - 2 x_31_ * x_30_ + 1 x_31_ ^ 2 + 1 y_30_ ^ 2 - 2 y_31_ * y_30_ + 1 y_31_ ^ 2 ] >= 16965.63
quadratic_ranged_89_lb: [ 1 x_11_ ^ 2 - 2 x_32_ * x_11_ + 1 x_32_ ^ 2 + 1 y_11_ ^ 2 - 2 y_32_ * y_11_ + 1 y_32_ ^ 2 ] >= 29260.44
quadratic_ranged_90_lb: [ 1 x_16_ ^ 2 - 2 x_32_ * x_16_ + 1 x_32_ ^ 2 + 1 y_16_ ^ 2 - 2 y_32_ * y_16_ + 1 y_32_ ^ 2 ] >= 4638.15
quadratic_ranged_91_lb: [ 1 x_17_ ^ 2 - 2 x_32_ * x_17_ + 1 x_32_ ^ 2 + 1 y_17_ ^ 2 - 2 y_32_ * y_17_ + 1 y_32_ ^ 2 ] >= 2867.04
quadratic_ranged_92_lb: [ 1 x_19_ ^ 2 - 2 x_32_ * x_19_ + 1 x_32_ ^ 2 + 1 y_19_ ^ 2 - 2 y_32_ * y_19_ + 1 y_32_ ^ 2 ] >= 5964.75
quadratic_ranged_93_lb: [ 1 x_21_ ^ 2 - 2 x_32_ * x_21_ + 1 x_32_ ^ 2 + 1 y_21_ ^ 2 - 2 y_32_ * y_21_ + 1 y_32_ ^ 2 ] >= 30432.6
quadratic_ranged_94_lb: [ 1 x_29_ ^ 2 - 2 x_32_ * x_29_ + 1 x_32_ ^ 2 + 1 y_29_ ^ 2 - 2 y_32_ * y_29_ + 1 y_32_ ^ 2 ] >= 229.68
quadratic_ranged_95_lb: [ 1 x_31_ ^ 2 - 2 x_32_ * x_31_ + 1 x_32_ ^ 2 + 1 y_31_ ^ 2 - 2 y_32_ * y_31_ + 1 y_32_ ^ 2 ] >= 12177.99
quadratic_ranged_96_lb: [ 1 x_2_ ^ 2 - 2 x_33_ * x_2_ + 1 x_33_ ^ 2 + 1 y_2_ ^ 2 - 2 y_33_ * y_2_ + 1 y_33_ ^ 2 ] >= 25511.31
quadratic_ranged_97_lb: [ 1 x_12_ ^ 2 - 2 x_33_ * x_12_ + 1 x_33_ ^ 2 + 1 y_12_ ^ 2 - 2 y_33_ * y_12_ + 1 y_33_ ^ 2 ] >= 1338.48
quadratic_ranged_98_lb: [ 1 x_19_ ^ 2 - 2 x_33_ * x_19_ + 1 x_33_ ^ 2 + 1 y_19_ ^ 2 - 2 y_33_ * y_19_ + 1 y_33_ ^ 2 ] >= 10781.1
quadratic_ranged_99_lb: [ 1 x_28_ ^ 2 - 2 x_33_ * x_28_ + 1 x_33_ ^ 2 + 1 y_28_ ^ 2 - 2 y_33_ * y_28_ + 1 y_33_ ^ 2 ] >= 3977.82
quadratic_ranged_100_lb: [ 1 x_32_ ^ 2 - 2 x_33_ * x_32_ + 1 x_33_ ^ 2 + 1 y_32_ ^ 2 - 2 y_33_ * y_32_ + 1 y_33_ ^ 2 ] >= 30140.55
quadratic_ranged_101_lb: [ 1 x_23_ ^ 2 - 2 x_34_ * x_23_ + 1 x_34_ ^ 2 + 1 y_23_ ^ 2 - 2 y_34_ * y_23_ + 1 y_34_ ^ 2 ] >= 3835.2599999999998
quadratic_ranged_102_lb: [ 1 x_25_ ^ 2 - 2 x_34_ * x_25_ + 1 x_34_ ^ 2 + 1 y_25_ ^ 2 - 2 y_34_ * y_25_ + 1 y_34_ ^ 2 ] >= 17820
quadratic_ranged_103_lb: [ 1 x_27_ ^ 2 - 2 x_34_ * x_27_ + 1 x_34_ ^ 2 + 1 y_27_ ^ 2 - 2 y_34_ * y_27_ + 1 y_34_ ^ 2 ] >= 4633.2
quadratic_ranged_104_lb: [ 1 x_33_ ^ 2 - 2 x_34_ * x_33_ + 1 x_34_ ^ 2 + 1 y_33_ ^ 2 - 2 y_34_ * y_33_ + 1 y_34_ ^ 2 ] >= 10205.91
quadratic_ranged_105_lb: [ 1 x_9_ ^ 2 - 2 x_35_ * x_9_ + 1 x_35_ ^ 2 + 1 y_9_ ^ 2 - 2 y_35_ * y_9_ + 1 y_35_ ^ 2 ] >= 31617.63
quadratic_ranged_106_lb: [ 1 x_34_ ^ 2 - 2 x_35_ * x_34_ + 1 x_35_ ^ 2 + 1 y_34_ ^ 2 - 2 y_35_ * y_34_ + 1 y_35_ ^ 2 ] >= 1649.34
quadratic_ranged_107_lb: [ 1 x_14_ ^ 2 - 2 x_36_ * x_14_ + 1 x_36_ ^ 2 + 1 y_14_ ^ 2 - 2 y_36_ * y_14_ + 1 y_36_ ^ 2 ] >= 5529.15
quadratic_ranged_108_lb: [ 1 x_15_ ^ 2 - 2 x_36_ * x_15_ + 1 x_36_ ^ 2 + 1 y_15_ ^ 2 - 2 y_36_ * y_15_ + 1 y_36_ ^ 2 ] >= 19626.75
quadratic_ranged_109_lb: [ 1 x_16_ ^ 2 - 2 x_36_ * x_16_ + 1 x_36_ ^ 2 + 1 y_16_ ^ 2 - 2 y_36_ * y_16_ + 1 y_36_ ^ 2 ] >= 15924.15
quadratic_ranged_110_lb: [ 1 x_22_ ^ 2 - 2 x_36_ * x_22_ + 1 x_36_ ^ 2 + 1 y_22_ ^ 2 - 2 y_36_ * y_22_ + 1 y_36_ ^ 2 ] >= 8098.2
quadratic_ranged_111_lb: [ 1 x_25_ ^ 2 - 2 x_36_ * x_25_ + 1 x_36_ ^ 2 + 1 y_25_ ^ 2 - 2 y_36_ * y_25_ + 1 y_36_ ^ 2 ] >= 14503.5
quadratic_ranged_112_lb: [ 1 x_30_ ^ 2 - 2 x_36_ * x_30_ + 1 x_36_ ^ 2 + 1 y_30_ ^ 2 - 2 y_36_ * y_30_ + 1 y_36_ ^ 2 ] >= 11501.82
quadratic_ranged_113_lb: [ 1 x_35_ ^ 2 - 2 x_36_ * x_35_ + 1 x_36_ ^ 2 + 1 y_35_ ^ 2 - 2 y_36_ * y_35_ + 1 y_36_ ^ 2 ] >= 2130.48
quadratic_ranged_114_lb: [ 1 x_18_ ^ 2 - 2 x_37_ * x_18_ + 1 x_37_ ^ 2 + 1 y_18_ ^ 2 - 2 y_37_ * y_18_ + 1 y_37_ ^ 2 ] >= 14590.619999999999
quadratic_ranged_115_lb: [ 1 x_27_ ^ 2 - 2 x_37_ * x_27_ + 1 x_37_ ^ 2 + 1 y_27_ ^ 2 - 2 y_37_ * y_27_ + 1 y_37_ ^ 2 ] >= 25855.829999999998
quadratic_ranged_116_lb: [ 1 x_36_ ^ 2 - 2 x_37_ * x_36_ + 1 x_37_ ^ 2 + 1 y_36_ ^ 2 - 2 y_37_ * y_36_ + 1 y_37_ ^ 2 ] >= 5430.15
quadratic_ranged_117_lb: [ 1 x_2_ ^ 2 - 2 x_38_ * x_2_ + 1 x_38_ ^ 2 + 1 y_2_ ^ 2 - 2 y_38_ * y_2_ + 1 y_38_ ^ 2 ] >= 28341.72
quadratic_ranged_118_lb: [ 1 x_4_ ^ 2 - 2 x_38_ * x_4_ + 1 x_38_ ^ 2 + 1 y_4_ ^ 2 - 2 y_38_ * y_4_ + 1 y_38_ ^ 2 ] >= 24378.75
quadratic_ranged_119_lb: [ 1 x_9_ ^ 2 - 2 x_38_ * x_9_ + 1 x_38_ ^ 2 + 1 y_9_ ^ 2 - 2 y_38_ * y_9_ + 1 y_38_ ^ 2 ] >= 20965.23
quadratic_ranged_120_lb: [ 1 x_22_ ^ 2 - 2 x_38_ * x_22_ + 1 x_38_ ^ 2 + 1 y_22_ ^ 2 - 2 y_38_ * y_22_ + 1 y_38_ ^ 2 ] >= 19966.32
quadratic_ranged_121_lb: [ 1 x_37_ ^ 2 - 2 x_38_ * x_37_ + 1 x_38_ ^ 2 + 1 y_37_ ^ 2 - 2 y_38_ * y_37_ + 1 y_38_ ^ 2 ] >= 13805.55
quadratic_ranged_122_lb: [ 1 x_3_ ^ 2 - 2 x_39_ * x_3_ + 1 x_39_ ^ 2 + 1 y_3_ ^ 2 - 2 y_39_ * y_3_ + 1 y_39_ ^ 2 ] >= 18711.99
quadratic_ranged_123_lb: [ 1 x_6_ ^ 2 - 2 x_39_ * x_6_ + 1 x_39_ ^ 2 + 1 y_6_ ^ 2 - 2 y_39_ * y_6_ + 1 y_39_ ^ 2 ] >= 3747.15
quadratic_ranged_124_lb: [ 1 x_32_ ^ 2 - 2 x_39_ * x_32_ + 1 x_39_ ^ 2 + 1 y_32_ ^ 2 - 2 y_39_ * y_32_ + 1 y_39_ ^ 2 ] >= 12014.64
quadratic_ranged_125_lb: [ 1 x_35_ ^ 2 - 2 x_39_ * x_35_ + 1 x_39_ ^ 2 + 1 y_35_ ^ 2 - 2 y_39_ * y_35_ + 1 y_39_ ^ 2 ] >= 27941.76
quadratic_ranged_126_lb: [ 1 x_38_ ^ 2 - 2 x_39_ * x_38_ + 1 x_39_ ^ 2 + 1 y_38_ ^ 2 - 2 y_39_ * y_38_ + 1 y_39_ ^ 2 ] >= 24159.96
quadratic_ranged_127_lb: [ 1 x_21_ ^ 2 - 2 x_40_ * x_21_ + 1 x_40_ ^ 2 + 1 y_21_ ^ 2 - 2 y_40_ * y_21_ + 1 y_40_ ^ 2 ] >= 12483.9
quadratic_ranged_128_lb: [ 1 x_38_ ^ 2 - 2 x_40_ * x_38_ + 1 x_40_ ^ 2 + 1 y_38_ ^ 2 - 2 y_40_ * y_38_ + 1 y_40_ ^ 2 ] >= 12380.94
quadratic_ranged_129_lb: [ 1 x_39_ ^ 2 - 2 x_40_ * x_39_ + 1 x_40_ ^ 2 + 1 y_39_ ^ 2 - 2 y_40_ * y_39_ + 1 y_40_ ^ 2 ] >= 18423.9
quadratic_ranged_130_lb: [ 1 x_20_ ^ 2 - 2 x_41_ * x_20_ + 1 x_41_ ^ 2 + 1 y_20_ ^ 2 - 2 y_41_ * y_20_ + 1 y_41_ ^ 2 ] >= 22255.2
quadratic_ranged_131_lb: [ 1 x_28_ ^ 2 - 2 x_41_ * x_28_ + 1 x_41_ ^ 2 + 1 y_28_ ^ 2 - 2 y_41_ * y_28_ + 1 y_41_ ^ 2 ] >= 7513.11
quadratic_ranged_132_lb: [ 1 x_40_ ^ 2 - 2 x_41_ * x_40_ + 1 x_41_ ^ 2 + 1 y_40_ ^ 2 - 2 y_41_ * y_40_ + 1 y_41_ ^ 2 ] >= 16990.38
quadratic_ranged_133_lb: [ 1 x_3_ ^ 2 - 2 x_42_ * x_3_ + 1 x_42_ ^ 2 + 1 y_3_ ^ 2 - 2 y_42_ * y_3_ + 1 y_42_ ^ 2 ] >= 9606.96
quadratic_ranged_134_lb: [ 1 x_8_ ^ 2 - 2 x_42_ * x_8_ + 1 x_42_ ^ 2 + 1 y_8_ ^ 2 - 2 y_42_ * y_8_ + 1 y_42_ ^ 2 ] >= 34136.19
quadratic_ranged_135_lb: [ 1 x_28_ ^ 2 - 2 x_42_ * x_28_ + 1 x_42_ ^ 2 + 1 y_28_ ^ 2 - 2 y_42_ * y_28_ + 1 y_42_ ^ 2 ] >= 10012.86
quadratic_ranged_136_lb: [ 1 x_36_ ^ 2 - 2 x_42_ * x_36_ + 1 x_42_ ^ 2 + 1 y_36_ ^ 2 - 2 y_42_ * y_36_ + 1 y_42_ ^ 2 ] >= 6032.07
quadratic_ranged_137_lb: [ 1 x_41_ ^ 2 - 2 x_42_ * x_41_ + 1 x_42_ ^ 2 + 1 y_41_ ^ 2 - 2 y_42_ * y_41_ + 1 y_42_ ^ 2 ] >= 34761.87
quadratic_ranged_138_lb: [ 1 x_30_ ^ 2 - 2 x_43_ * x_30_ + 1 x_43_ ^ 2 + 1 y_30_ ^ 2 - 2 y_43_ * y_30_ + 1 y_43_ ^ 2 ] >= 13165.02
quadratic_ranged_139_lb: [ 1 x_42_ ^ 2 - 2 x_43_ * x_42_ + 1 x_43_ ^ 2 + 1 y_42_ ^ 2 - 2 y_43_ * y_42_ + 1 y_43_ ^ 2 ] >= 27586.35
quadratic_ranged_140_lb: [ 1 x_3_ ^ 2 - 2 x_44_ * x_3_ + 1 x_44_ ^ 2 + 1 y_3_ ^ 2 - 2 y_44_ * y_3_ + 1 y_44_ ^ 2 ] >= 5655.87
quadratic_ranged_141_lb: [ 1 x_15_ ^ 2 - 2 x_44_ * x_15_ + 1 x_44_ ^ 2 + 1 y_15_ ^ 2 - 2 y_44_ * y_15_ + 1 y_44_ ^ 2 ] >= 16169.67
quadratic_ranged_142_lb: [ 1 x_16_ ^ 2 - 2 x_44_ * x_16_ + 1 x_44_ ^ 2 + 1 y_16_ ^ 2 - 2 y_44_ * y_16_ + 1 y_44_ ^ 2 ] >= 4535.19
quadratic_ranged_143_lb: [ 1 x_21_ ^ 2 - 2 x_44_ * x_21_ + 1 x_44_ ^ 2 + 1 y_21_ ^ 2 - 2 y_44_ * y_21_ + 1 y_44_ ^ 2 ] >= 13703.58
quadratic_ranged_144_lb: [ 1 x_39_ ^ 2 - 2 x_44_ * x_39_ + 1 x_44_ ^ 2 + 1 y_39_ ^ 2 - 2 y_44_ * y_39_ + 1 y_44_ ^ 2 ] >= 7890.3
quadratic_ranged_145_lb: [ 1 x_41_ ^ 2 - 2 x_44_ * x_41_ + 1 x_44_ ^ 2 + 1 y_41_ ^ 2 - 2 y_44_ * y_41_ + 1 y_44_ ^ 2 ] >= 5569.74
quadratic_ranged_146_lb: [ 1 x_43_ ^ 2 - 2 x_44_ * x_43_ + 1 x_44_ ^ 2 + 1 y_43_ ^ 2 - 2 y_44_ * y_43_ + 1 y_44_ ^ 2 ] >= 556.38
quadratic_ranged_147_lb: [ 1 x_4_ ^ 2 - 2 x_45_ * x_4_ + 1 x_45_ ^ 2 + 1 y_4_ ^ 2 - 2 y_45_ * y_4_ + 1 y_45_ ^ 2 ] >= 18561.51
quadratic_ranged_148_lb: [ 1 x_17_ ^ 2 - 2 x_45_ * x_17_ + 1 x_45_ ^ 2 + 1 y_17_ ^ 2 - 2 y_45_ * y_17_ + 1 y_45_ ^ 2 ] >= 14305.5
quadratic_ranged_149_lb: [ 1 x_30_ ^ 2 - 2 x_45_ * x_30_ + 1 x_45_ ^ 2 + 1 y_30_ ^ 2 - 2 y_45_ * y_30_ + 1 y_45_ ^ 2 ] >= 42213.6
quadratic_ranged_150_lb: [ 1 x_36_ ^ 2 - 2 x_45_ * x_36_ + 1 x_45_ ^ 2 + 1 y_36_ ^ 2 - 2 y_45_ * y_36_ + 1 y_45_ ^ 2 ] >= 11889.9
quadratic_ranged_151_lb: [ 1 x_38_ ^ 2 - 2 x_45_ * x_38_ + 1 x_45_ ^ 2 + 1 y_38_ ^ 2 - 2 y_45_ * y_38_ + 1 y_45_ ^ 2 ] >= 15002.46
quadratic_ranged_152_lb: [ 1 x_44_ ^ 2 - 2 x_45_ * x_44_ + 1 x_45_ ^ 2 + 1 y_44_ ^ 2 - 2 y_45_ * y_44_ + 1 y_45_ ^ 2 ] >= 12454.2
quadratic_ranged_153_lb: [ 1 x_7_ ^ 2 - 2 x_46_ * x_7_ + 1 x_46_ ^ 2 + 1 y_7_ ^ 2 - 2 y_46_ * y_7_ + 1 y_46_ ^ 2 ] >= 5727.15
quadratic_ranged_154_lb: [ 1 x_15_ ^ 2 - 2 x_46_ * x_15_ + 1 x_46_ ^ 2 + 1 y_15_ ^ 2 - 2 y_46_ * y_15_ + 1 y_46_ ^ 2 ] >= 3949.11
quadratic_ranged_155_lb: [ 1 x_18_ ^ 2 - 2 x_46_ * x_18_ + 1 x_46_ ^ 2 + 1 y_18_ ^ 2 - 2 y_46_ * y_18_ + 1 y_46_ ^ 2 ] >= 499.95
quadratic_ranged_156_lb: [ 1 x_20_ ^ 2 - 2 x_46_ * x_20_ + 1 x_46_ ^ 2 + 1 y_20_ ^ 2 - 2 y_46_ * y_20_ + 1 y_46_ ^ 2 ] >= 18679.32
quadratic_ranged_157_lb: [ 1 x_45_ ^ 2 - 2 x_46_ * x_45_ + 1 x_46_ ^ 2 + 1 y_45_ ^ 2 - 2 y_46_ * y_45_ + 1 y_46_ ^ 2 ] >= 1245.42
quadratic_ranged_158_lb: [ 1 x_12_ ^ 2 - 2 x_47_ * x_12_ + 1 x_47_ ^ 2 + 1 y_12_ ^ 2 - 2 y_47_ * y_12_ + 1 y_47_ ^ 2 ] >= 17400.24
quadratic_ranged_159_lb: [ 1 x_21_ ^ 2 - 2 x_47_ * x_21_ + 1 x_47_ ^ 2 + 1 y_21_ ^ 2 - 2 y_47_ * y_21_ + 1 y_47_ ^ 2 ] >= 9457.47
quadratic_ranged_160_lb: [ 1 x_46_ ^ 2 - 2 x_47_ * x_46_ + 1 x_47_ ^ 2 + 1 y_46_ ^ 2 - 2 y_47_ * y_46_ + 1 y_47_ ^ 2 ] >= 11528.55
quadratic_ranged_161_lb: [ 1 x_6_ ^ 2 - 2 x_48_ * x_6_ + 1 x_48_ ^ 2 + 1 y_6_ ^ 2 - 2 y_48_ * y_6_ + 1 y_48_ ^ 2 ] >= 1212.75
quadratic_ranged_162_lb: [ 1 x_7_ ^ 2 - 2 x_48_ * x_7_ + 1 x_48_ ^ 2 + 1 y_7_ ^ 2 - 2 y_48_ * y_7_ + 1 y_48_ ^ 2 ] >= 9829.71
quadratic_ranged_163_lb: [ 1 x_15_ ^ 2 - 2 x_48_ * x_15_ + 1 x_48_ ^ 2 + 1 y_15_ ^ 2 - 2 y_48_ * y_15_ + 1 y_48_ ^ 2 ] >= 5461.83
quadratic_ranged_164_lb: [ 1 x_19_ ^ 2 - 2 x_48_ * x_19_ + 1 x_48_ ^ 2 + 1 y_19_ ^ 2 - 2 y_48_ * y_19_ + 1 y_48_ ^ 2 ] >= 1668.15
quadratic_ranged_165_lb: [ 1 x_30_ ^ 2 - 2 x_48_ * x_30_ + 1 x_48_ ^ 2 + 1 y_30_ ^ 2 - 2 y_48_ * y_30_ + 1 y_48_ ^ 2 ] >= 24403.5
quadratic_ranged_166_lb: [ 1 x_34_ ^ 2 - 2 x_48_ * x_34_ + 1 x_48_ ^ 2 + 1 y_34_ ^ 2 - 2 y_48_ * y_34_ + 1 y_48_ ^ 2 ] >= 8674.38
quadratic_ranged_167_lb: [ 1 x_47_ ^ 2 - 2 x_48_ * x_47_ + 1 x_48_ ^ 2 + 1 y_47_ ^ 2 - 2 y_48_ * y_47_ + 1 y_48_ ^ 2 ] >= 9948.51
quadratic_ranged_168_lb: [ 1 x_17_ ^ 2 - 2 x_49_ * x_17_ + 1 x_49_ ^ 2 + 1 y_17_ ^ 2 - 2 y_49_ * y_17_ + 1 y_49_ ^ 2 ] >= 20573.19
quadratic_ranged_169_lb: [ 1 x_22_ ^ 2 - 2 x_49_ * x_22_ + 1 x_49_ ^ 2 + 1 y_22_ ^ 2 - 2 y_49_ * y_22_ + 1 y_49_ ^ 2 ] >= 3034.35
quadratic_ranged_170_lb: [ 1 x_48_ ^ 2 - 2 x_49_ * x_48_ + 1 x_49_ ^ 2 + 1 y_48_ ^ 2 - 2 y_49_ * y_48_ + 1 y_49_ ^ 2 ] >= 8507.07
quadratic_ranged_171_lb: [ 1 x_4_ ^ 2 - 2 x_50_ * x_4_ + 1 x_50_ ^ 2 + 1 y_4_ ^ 2 - 2 y_50_ * y_4_ + 1 y_50_ ^ 2 ] >= 2362.14
quadratic_ranged_172_lb: [ 1 x_29_ ^ 2 - 2 x_50_ * x_29_ + 1 x_50_ ^ 2 + 1 y_29_ ^ 2 - 2 y_50_ * y_29_ + 1 y_50_ ^ 2 ] >= 5156.91
quadratic_ranged_173_lb: [ 1 x_43_ ^ 2 - 2 x_50_ * x_43_ + 1 x_50_ ^ 2 + 1 y_43_ ^ 2 - 2 y_50_ * y_43_ + 1 y_50_ ^ 2 ] >= 1632.51
quadratic_ranged_174_lb: [ 1 x_45_ ^ 2 - 2 x_50_ * x_45_ + 1 x_50_ ^ 2 + 1 y_45_ ^ 2 - 2 y_50_ * y_45_ + 1 y_50_ ^ 2 ] >= 7722.99
quadratic_ranged_175_lb: [ 1 x_49_ ^ 2 - 2 x_50_ * x_49_ + 1 x_50_ ^ 2 + 1 y_49_ ^ 2 - 2 y_50_ * y_49_ + 1 y_50_ ^ 2 ] >= 6656.76
quadratic_ranged_176_lb: [ 1 x_11_ ^ 2 - 2 x_51_ * x_11_ + 1 x_51_ ^ 2 + 1 y_11_ ^ 2 - 2 y_51_ * y_11_ + 1 y_51_ ^ 2 ] >= 31522.59
quadratic_ranged_177_lb: [ 1 x_36_ ^ 2 - 2 x_51_ * x_36_ + 1 x_51_ ^ 2 + 1 y_36_ ^ 2 - 2 y_51_ * y_36_ + 1 y_51_ ^ 2 ] >= 21353.31
quadratic_ranged_178_lb: [ 1 x_50_ ^ 2 - 2 x_51_ * x_50_ + 1 x_51_ ^ 2 + 1 y_50_ ^ 2 - 2 y_51_ * y_50_ + 1 y_51_ ^ 2 ] >= 5189.58
quadratic_ranged_179_lb: [ 1 x_2_ ^ 2 - 2 x_52_ * x_2_ + 1 x_52_ ^ 2 + 1 y_2_ ^ 2 - 2 y_52_ * y_2_ + 1 y_52_ ^ 2 ] >= 2357.19
quadratic_ranged_180_lb: [ 1 x_29_ ^ 2 - 2 x_52_ * x_29_ + 1 x_52_ ^ 2 + 1 y_29_ ^ 2 - 2 y_52_ * y_29_ + 1 y_52_ ^ 2 ] >= 5089.59
quadratic_ranged_181_lb: [ 1 x_51_ ^ 2 - 2 x_52_ * x_51_ + 1 x_52_ ^ 2 + 1 y_51_ ^ 2 - 2 y_52_ * y_51_ + 1 y_52_ ^ 2 ] >= 8252.64
quadratic_ranged_182_lb: [ 1 x_8_ ^ 2 - 2 x_53_ * x_8_ + 1 x_53_ ^ 2 + 1 y_8_ ^ 2 - 2 y_53_ * y_8_ + 1 y_53_ ^ 2 ] >= 1585.98
quadratic_ranged_183_lb: [ 1 x_24_ ^ 2 - 2 x_53_ * x_24_ + 1 x_53_ ^ 2 + 1 y_24_ ^ 2 - 2 y_53_ * y_24_ + 1 y_53_ ^ 2 ] >= 570.24
quadratic_ranged_184_lb: [ 1 x_38_ ^ 2 - 2 x_53_ * x_38_ + 1 x_53_ ^ 2 + 1 y_38_ ^ 2 - 2 y_53_ * y_38_ + 1 y_53_ ^ 2 ] >= 22766.04
quadratic_ranged_185_lb: [ 1 x_39_ ^ 2 - 2 x_53_ * x_39_ + 1 x_53_ ^ 2 + 1 y_39_ ^ 2 - 2 y_53_ * y_39_ + 1 y_53_ ^ 2 ] >= 6336
quadratic_ranged_186_lb: [ 1 x_48_ ^ 2 - 2 x_53_ * x_48_ + 1 x_53_ ^ 2 + 1 y_48_ ^ 2 - 2 y_53_ * y_48_ + 1 y_53_ ^ 2 ] >= 3120.48
quadratic_ranged_187_lb: [ 1 x_52_ ^ 2 - 2 x_53_ * x_52_ + 1 x_53_ ^ 2 + 1 y_52_ ^ 2 - 2 y_53_ * y_52_ + 1 y_53_ ^ 2 ] >= 1794.87
quadratic_ranged_188_lb: [ 1 x_19_ ^ 2 - 2 x_54_ * x_19_ + 1 x_54_ ^ 2 + 1 y_19_ ^ 2 - 2 y_54_ * y_19_ + 1 y_54_ ^ 2 ] >= 4321.35
quadratic_ranged_189_lb: [ 1 x_28_ ^ 2 - 2 x_54_ * x_28_ + 1 x_54_ ^ 2 + 1 y_28_ ^ 2 - 2 y_54_ * y_28_ + 1 y_54_ ^ 2 ] >= 2246.31
quadratic_ranged_190_lb: [ 1 x_31_ ^ 2 - 2 x_54_ * x_31_ + 1 x_54_ ^ 2 + 1 y_31_ ^ 2 - 2 y_54_ * y_31_ + 1 y_54_ ^ 2 ] >= 6190.47
quadratic_ranged_191_lb: [ 1 x_39_ ^ 2 - 2 x_54_ * x_39_ + 1 x_54_ ^ 2 + 1 y_39_ ^ 2 - 2 y_54_ * y_39_ + 1 y_54_ ^ 2 ] >= 1380.06
quadratic_ranged_192_lb: [ 1 x_53_ ^ 2 - 2 x_54_ * x_53_ + 1 x_54_ ^ 2 + 1 y_53_ ^ 2 - 2 y_54_ * y_53_ + 1 y_54_ ^ 2 ] >= 10915.74
quadratic_ranged_193_lb: [ 1 x_5_ ^ 2 - 2 x_55_ * x_5_ + 1 x_55_ ^ 2 + 1 y_5_ ^ 2 - 2 y_55_ * y_5_ + 1 y_55_ ^ 2 ] >= 17824.95
quadratic_ranged_194_lb: [ 1 x_8_ ^ 2 - 2 x_55_ * x_8_ + 1 x_55_ ^ 2 + 1 y_8_ ^ 2 - 2 y_55_ * y_8_ + 1 y_55_ ^ 2 ] >= 31287.96
quadratic_ranged_195_lb: [ 1 x_22_ ^ 2 - 2 x_55_ * x_22_ + 1 x_55_ ^ 2 + 1 y_22_ ^ 2 - 2 y_55_ * y_22_ + 1 y_55_ ^ 2 ] >= 5823.18
quadratic_ranged_196_lb: [ 1 x_37_ ^ 2 - 2 x_55_ * x_37_ + 1 x_55_ ^ 2 + 1 y_37_ ^ 2 - 2 y_55_ * y_37_ + 1 y_55_ ^ 2 ] >= 2317.59
quadratic_ranged_197_lb: [ 1 x_44_ ^ 2 - 2 x_55_ * x_44_ + 1 x_55_ ^ 2 + 1 y_44_ ^ 2 - 2 y_55_ * y_44_ + 1 y_55_ ^ 2 ] >= 13848.119999999999
quadratic_ranged_198_lb: [ 1 x_46_ ^ 2 - 2 x_55_ * x_46_ + 1 x_55_ ^ 2 + 1 y_46_ ^ 2 - 2 y_55_ * y_46_ + 1 y_55_ ^ 2 ] >= 18495.18
quadratic_ranged_199_lb: [ 1 x_49_ ^ 2 - 2 x_55_ * x_49_ + 1 x_55_ ^ 2 + 1 y_49_ ^ 2 - 2 y_55_ * y_49_ + 1 y_55_ ^ 2 ] >= 2638.35
quadratic_ranged_200_lb: [ 1 x_54_ ^ 2 - 2 x_55_ * x_54_ + 1 x_55_ ^ 2 + 1 y_54_ ^ 2 - 2 y_55_ * y_54_ + 1 y_55_ ^ 2 ] >= 30385.079999999998
quadratic_ranged_201_lb: [ 1 x_10_ ^ 2 - 2 x_56_ * x_10_ + 1 x_56_ ^ 2 + 1 y_10_ ^ 2 - 2 y_56_ * y_10_ + 1 y_56_ ^ 2 ] >= 2400.75
quadratic_ranged_202_lb: [ 1 x_11_ ^ 2 - 2 x_56_ * x_11_ + 1 x_56_ ^ 2 + 1 y_11_ ^ 2 - 2 y_56_ * y_11_ + 1 y_56_ ^ 2 ] >= 5358.87
quadratic_ranged_203_lb: [ 1 x_13_ ^ 2 - 2 x_56_ * x_13_ + 1 x_56_ ^ 2 + 1 y_13_ ^ 2 - 2 y_56_ * y_13_ + 1 y_56_ ^ 2 ] >= 18965.43
quadratic_ranged_204_lb: [ 1 x_18_ ^ 2 - 2 x_56_ * x_18_ + 1 x_56_ ^ 2 + 1 y_18_ ^ 2 - 2 y_56_ * y_18_ + 1 y_56_ ^ 2 ] >= 253.44
quadratic_ranged_205_lb: [ 1 x_42_ ^ 2 - 2 x_56_ * x_42_ + 1 x_56_ ^ 2 + 1 y_42_ ^ 2 - 2 y_56_ * y_42_ + 1 y_56_ ^ 2 ] >= 9733.68
quadratic_ranged_206_lb: [ 1 x_52_ ^ 2 - 2 x_56_ * x_52_ + 1 x_56_ ^ 2 + 1 y_52_ ^ 2 - 2 y_56_ * y_52_ + 1 y_56_ ^ 2 ] >= 5435.1
quadratic_ranged_207_lb: [ 1 x_55_ ^ 2 - 2 x_56_ * x_55_ + 1 x_56_ ^ 2 + 1 y_55_ ^ 2 - 2 y_56_ * y_55_ + 1 y_56_ ^ 2 ] >= 16941.87
quadratic_ranged_208_lb: [ 1 x_19_ ^ 2 - 2 x_57_ * x_19_ + 1 x_57_ ^ 2 + 1 y_19_ ^ 2 - 2 y_57_ * y_19_ + 1 y_57_ ^ 2 ] >= 16135.02
quadratic_ranged_209_lb: [ 1 x_32_ ^ 2 - 2 x_57_ * x_32_ + 1 x_57_ ^ 2 + 1 y_32_ ^ 2 - 2 y_57_ * y_32_ + 1 y_57_ ^ 2 ] >= 33217.47
quadratic_ranged_210_lb: [ 1 x_35_ ^ 2 - 2 x_57_ * x_35_ + 1 x_57_ ^ 2 + 1 y_35_ ^ 2 - 2 y_57_ * y_35_ + 1 y_57_ ^ 2 ] >= 9881.19
quadratic_ranged_211_lb: [ 1 x_46_ ^ 2 - 2 x_57_ * x_46_ + 1 x_57_ ^ 2 + 1 y_46_ ^ 2 - 2 y_57_ * y_46_ + 1 y_57_ ^ 2 ] >= 4285.71
quadratic_ranged_212_lb: [ 1 x_54_ ^ 2 - 2 x_57_ * x_54_ + 1 x_57_ ^ 2 + 1 y_54_ ^ 2 - 2 y_57_ * y_54_ + 1 y_57_ ^ 2 ] >= 7287.39
quadratic_ranged_213_lb: [ 1 x_56_ ^ 2 - 2 x_57_ * x_56_ + 1 x_57_ ^ 2 + 1 y_56_ ^ 2 - 2 y_57_ * y_56_ + 1 y_57_ ^ 2 ] >= 5310.36
quadratic_ranged_214_lb: [ 1 x_10_ ^ 2 - 2 x_58_ * x_10_ + 1 x_58_ ^ 2 + 1 y_10_ ^ 2 - 2 y_58_ * y_10_ + 1 y_58_ ^ 2 ] >= 21353.31
quadratic_ranged_215_lb: [ 1 x_14_ ^ 2 - 2 x_58_ * x_14_ + 1 x_58_ ^ 2 + 1 y_14_ ^ 2 - 2 y_58_ * y_14_ + 1 y_58_ ^ 2 ] >= 44557.92
quadratic_ranged_216_lb: [ 1 x_18_ ^ 2 - 2 x_58_ * x_18_ + 1 x_58_ ^ 2 + 1 y_18_ ^ 2 - 2 y_58_ * y_18_ + 1 y_58_ ^ 2 ] >= 12691.8
quadratic_ranged_217_lb: [ 1 x_33_ ^ 2 - 2 x_58_ * x_33_ + 1 x_58_ ^ 2 + 1 y_33_ ^ 2 - 2 y_58_ * y_33_ + 1 y_58_ ^ 2 ] >= 25225.2
quadratic_ranged_218_lb: [ 1 x_55_ ^ 2 - 2 x_58_ * x_55_ + 1 x_58_ ^ 2 + 1 y_55_ ^ 2 - 2 y_58_ * y_55_ + 1 y_58_ ^ 2 ] >= 35549.909999999996
quadratic_ranged_219_lb: [ 1 x_56_ ^ 2 - 2 x_58_ * x_56_ + 1 x_58_ ^ 2 + 1 y_56_ ^ 2 - 2 y_58_ * y_56_ + 1 y_58_ ^ 2 ] >= 10854.36
quadratic_ranged_220_lb: [ 1 x_57_ ^ 2 - 2 x_58_ * x_57_ + 1 x_58_ ^ 2 + 1 y_57_ ^ 2 - 2 y_58_ * y_57_ + 1 y_58_ ^ 2 ] >= 31252.32
quadratic_ranged_221_lb: [ 1 x_3_ ^ 2 - 2 x_59_ * x_3_ + 1 x_59_ ^ 2 + 1 y_3_ ^ 2 - 2 y_59_ * y_3_ + 1 y_59_ ^ 2 ] >= 5908.32
quadratic_ranged_222_lb: [ 1 x_11_ ^ 2 - 2 x_59_ * x_11_ + 1 x_59_ ^ 2 + 1 y_11_ ^ 2 - 2 y_59_ * y_11_ + 1 y_59_ ^ 2 ] >= 52.47
quadratic_ranged_223_lb: [ 1 x_36_ ^ 2 - 2 x_59_ * x_36_ + 1 x_59_ ^ 2 + 1 y_36_ ^ 2 - 2 y_59_ * y_36_ + 1 y_59_ ^ 2 ] >= 2899.71
quadratic_ranged_224_lb: [ 1 x_45_ ^ 2 - 2 x_59_ * x_45_ + 1 x_59_ ^ 2 + 1 y_45_ ^ 2 - 2 y_59_ * y_45_ + 1 y_59_ ^ 2 ] >= 6657.75
quadratic_ranged_225_lb: [ 1 x_53_ ^ 2 - 2 x_59_ * x_53_ + 1 x_59_ ^ 2 + 1 y_53_ ^ 2 - 2 y_59_ * y_53_ + 1 y_59_ ^ 2 ] >= 15425.19
quadratic_ranged_226_lb: [ 1 x_58_ ^ 2 - 2 x_59_ * x_58_ + 1 x_59_ ^ 2 + 1 y_58_ ^ 2 - 2 y_59_ * y_58_ + 1 y_59_ ^ 2 ] >= 28373.4
quadratic_ranged_227_lb: [ 1 x_5_ ^ 2 - 2 x_60_ * x_5_ + 1 x_60_ ^ 2 + 1 y_5_ ^ 2 - 2 y_60_ * y_5_ + 1 y_60_ ^ 2 ] >= 7841.79
quadratic_ranged_228_lb: [ 1 x_6_ ^ 2 - 2 x_60_ * x_6_ + 1 x_60_ ^ 2 + 1 y_6_ ^ 2 - 2 y_60_ * y_6_ + 1 y_60_ ^ 2 ] >= 12498.75
quadratic_ranged_229_lb: [ 1 x_21_ ^ 2 - 2 x_60_ * x_21_ + 1 x_60_ ^ 2 + 1 y_21_ ^ 2 - 2 y_60_ * y_21_ + 1 y_60_ ^ 2 ] >= 19873.26
quadratic_ranged_230_lb: [ 1 x_27_ ^ 2 - 2 x_60_ * x_27_ + 1 x_60_ ^ 2 + 1 y_27_ ^ 2 - 2 y_60_ * y_27_ + 1 y_60_ ^ 2 ] >= 29755.44
quadratic_ranged_231_lb: [ 1 x_50_ ^ 2 - 2 x_60_ * x_50_ + 1 x_60_ ^ 2 + 1 y_50_ ^ 2 - 2 y_60_ * y_50_ + 1 y_60_ ^ 2 ] >= 11730.51
quadratic_ranged_232_lb: [ 1 x_59_ ^ 2 - 2 x_60_ * x_59_ + 1 x_60_ ^ 2 + 1 y_59_ ^ 2 - 2 y_60_ * y_59_ + 1 y_60_ ^ 2 ] >= 18220.95
quadratic_ranged_233_lb: [ 1 x_1_ ^ 2 - 2 x_61_ * x_1_ + 1 x_61_ ^ 2 + 1 y_1_ ^ 2 - 2 y_61_ * y_1_ + 1 y_61_ ^ 2 ] >= 9963.36
quadratic_ranged_234_lb: [ 1 x_17_ ^ 2 - 2 x_61_ * x_17_ + 1 x_61_ ^ 2 + 1 y_17_ ^ 2 - 2 y_61_ * y_17_ + 1 y_61_ ^ 2 ] >= 9635.67
quadratic_ranged_235_lb: [ 1 x_20_ ^ 2 - 2 x_61_ * x_20_ + 1 x_61_ ^ 2 + 1 y_20_ ^ 2 - 2 y_61_ * y_20_ + 1 y_61_ ^ 2 ] >= 29447.55
quadratic_ranged_236_lb: [ 1 x_23_ ^ 2 - 2 x_61_ * x_23_ + 1 x_61_ ^ 2 + 1 y_23_ ^ 2 - 2 y_61_ * y_23_ + 1 y_61_ ^ 2 ] >= 29447.55
quadratic_ranged_237_lb: [ 1 x_30_ ^ 2 - 2 x_61_ * x_30_ + 1 x_61_ ^ 2 + 1 y_30_ ^ 2 - 2 y_61_ * y_30_ + 1 y_61_ ^ 2 ] >= 42392.79
quadratic_ranged_238_lb: [ 1 x_53_ ^ 2 - 2 x_61_ * x_53_ + 1 x_61_ ^ 2 + 1 y_53_ ^ 2 - 2 y_61_ * y_53_ + 1 y_61_ ^ 2 ] >= 9782.19
quadratic_ranged_239_lb: [ 1 x_59_ ^ 2 - 2 x_61_ * x_59_ + 1 x_61_ ^ 2 + 1 y_59_ ^ 2 - 2 y_61_ * y_59_ + 1 y_61_ ^ 2 ] >= 10060.38
quadratic_ranged_240_lb: [ 1 x_60_ ^ 2 - 2 x_61_ * x_60_ + 1 x_61_ ^ 2 + 1 y_60_ ^ 2 - 2 y_61_ * y_60_ + 1 y_61_ ^ 2 ] >= 31661.19
quadratic_ranged_241_lb: [ 1 x_1_ ^ 2 - 2 x_62_ * x_1_ + 1 x_62_ ^ 2 + 1 y_1_ ^ 2 - 2 y_62_ * y_1_ + 1 y_62_ ^ 2 ] >= 14630.22
quadratic_ranged_242_lb: [ 1 x_6_ ^ 2 - 2 x_62_ * x_6_ + 1 x_62_ ^ 2 + 1 y_6_ ^ 2 - 2 y_62_ * y_6_ + 1 y_62_ ^ 2 ] >= 9767.34
quadratic_ranged_243_lb: [ 1 x_15_ ^ 2 - 2 x_62_ * x_15_ + 1 x_62_ ^ 2 + 1 y_15_ ^ 2 - 2 y_62_ * y_15_ + 1 y_62_ ^ 2 ] >= 698.9399999999999
quadratic_ranged_244_lb: [ 1 x_26_ ^ 2 - 2 x_62_ * x_26_ + 1 x_62_ ^ 2 + 1 y_26_ ^ 2 - 2 y_62_ * y_26_ + 1 y_62_ ^ 2 ] >= 26631.989999999998
quadratic_ranged_245_lb: [ 1 x_46_ ^ 2 - 2 x_62_ * x_46_ + 1 x_62_ ^ 2 + 1 y_46_ ^ 2 - 2 y_62_ * y_46_ + 1 y_62_ ^ 2 ] >= 2222.55
quadratic_ranged_246_lb: [ 1 x_47_ ^ 2 - 2 x_62_ * x_47_ + 1 x_62_ ^ 2 + 1 y_47_ ^ 2 - 2 y_62_ * y_47_ + 1 y_62_ ^ 2 ] >= 23601.6
quadratic_ranged_247_lb: [ 1 x_55_ ^ 2 - 2 x_62_ * x_55_ + 1 x_62_ ^ 2 + 1 y_55_ ^ 2 - 2 y_62_ * y_55_ + 1 y_62_ ^ 2 ] >= 31902.75
quadratic_ranged_248_lb: [ 1 x_61_ ^ 2 - 2 x_62_ * x_61_ + 1 x_62_ ^ 2 + 1 y_61_ ^ 2 - 2 y_62_ * y_61_ + 1 y_62_ ^ 2 ] >= 667.26
quadratic_ranged_249_lb: [ 1 x_10_ ^ 2 - 2 x_63_ * x_10_ + 1 x_63_ ^ 2 + 1 y_10_ ^ 2 - 2 y_63_ * y_10_ + 1 y_63_ ^ 2 ] >= 6068.7
quadratic_ranged_250_lb: [ 1 x_17_ ^ 2 - 2 x_63_ * x_17_ + 1 x_63_ ^ 2 + 1 y_17_ ^ 2 - 2 y_63_ * y_17_ + 1 y_63_ ^ 2 ] >= 5435.1
quadratic_ranged_251_lb: [ 1 x_20_ ^ 2 - 2 x_63_ * x_20_ + 1 x_63_ ^ 2 + 1 y_20_ ^ 2 - 2 y_63_ * y_20_ + 1 y_63_ ^ 2 ] >= 8159.58
quadratic_ranged_252_lb: [ 1 x_23_ ^ 2 - 2 x_63_ * x_23_ + 1 x_63_ ^ 2 + 1 y_23_ ^ 2 - 2 y_63_ * y_23_ + 1 y_63_ ^ 2 ] >= 25314.3
quadratic_ranged_253_lb: [ 1 x_39_ ^ 2 - 2 x_63_ * x_39_ + 1 x_63_ ^ 2 + 1 y_39_ ^ 2 - 2 y_63_ * y_39_ + 1 y_63_ ^ 2 ] >= 5276.7
quadratic_ranged_254_lb: [ 1 x_62_ ^ 2 - 2 x_63_ * x_62_ + 1 x_63_ ^ 2 + 1 y_62_ ^ 2 - 2 y_63_ * y_62_ + 1 y_63_ ^ 2 ] >= 10851.39
quadratic_ranged_255_lb: [ 1 x_6_ ^ 2 - 2 x_64_ * x_6_ + 1 x_64_ ^ 2 + 1 y_6_ ^ 2 - 2 y_64_ * y_6_ + 1 y_64_ ^ 2 ] >= 2098.8
quadratic_ranged_256_lb: [ 1 x_20_ ^ 2 - 2 x_64_ * x_20_ + 1 x_64_ ^ 2 + 1 y_20_ ^ 2 - 2 y_64_ * y_20_ + 1 y_64_ ^ 2 ] >= 3980.79
quadratic_ranged_257_lb: [ 1 x_29_ ^ 2 - 2 x_64_ * x_29_ + 1 x_64_ ^ 2 + 1 y_29_ ^ 2 - 2 y_64_ * y_29_ + 1 y_64_ ^ 2 ] >= 6538.95
quadratic_ranged_258_lb: [ 1 x_41_ ^ 2 - 2 x_64_ * x_41_ + 1 x_64_ ^ 2 + 1 y_41_ ^ 2 - 2 y_64_ * y_41_ + 1 y_64_ ^ 2 ] >= 9730.71
quadratic_ranged_259_lb: [ 1 x_58_ ^ 2 - 2 x_64_ * x_58_ + 1 x_64_ ^ 2 + 1 y_58_ ^ 2 - 2 y_64_ * y_58_ + 1 y_64_ ^ 2 ] >= 9505.98
quadratic_ranged_260_lb: [ 1 x_60_ ^ 2 - 2 x_64_ * x_60_ + 1 x_64_ ^ 2 + 1 y_60_ ^ 2 - 2 y_64_ * y_60_ + 1 y_64_ ^ 2 ] >= 4875.75
quadratic_ranged_261_lb: [ 1 x_61_ ^ 2 - 2 x_64_ * x_61_ + 1 x_64_ ^ 2 + 1 y_61_ ^ 2 - 2 y_64_ * y_61_ + 1 y_64_ ^ 2 ] >= 11788.92
quadratic_ranged_262_lb: [ 1 x_63_ ^ 2 - 2 x_64_ * x_63_ + 1 x_64_ ^ 2 + 1 y_63_ ^ 2 - 2 y_64_ * y_63_ + 1 y_64_ ^ 2 ] >= 955.35
quadratic_ranged_263_lb: [ 1 x_8_ ^ 2 - 2 x_65_ * x_8_ + 1 x_65_ ^ 2 + 1 y_8_ ^ 2 - 2 y_65_ * y_8_ + 1 y_65_ ^ 2 ] >= 14652.99
quadratic_ranged_264_lb: [ 1 x_26_ ^ 2 - 2 x_65_ * x_26_ + 1 x_65_ ^ 2 + 1 y_26_ ^ 2 - 2 y_65_ * y_26_ + 1 y_65_ ^ 2 ] >= 6123.15
quadratic_ranged_265_lb: [ 1 x_39_ ^ 2 - 2 x_65_ * x_39_ + 1 x_65_ ^ 2 + 1 y_39_ ^ 2 - 2 y_65_ * y_39_ + 1 y_65_ ^ 2 ] >= 10716.75
quadratic_ranged_266_lb: [ 1 x_40_ ^ 2 - 2 x_65_ * x_40_ + 1 x_65_ ^ 2 + 1 y_40_ ^ 2 - 2 y_65_ * y_40_ + 1 y_65_ ^ 2 ] >= 4162.95
quadratic_ranged_267_lb: [ 1 x_59_ ^ 2 - 2 x_65_ * x_59_ + 1 x_65_ ^ 2 + 1 y_59_ ^ 2 - 2 y_65_ * y_59_ + 1 y_65_ ^ 2 ] >= 1839.42
quadratic_ranged_268_lb: [ 1 x_60_ ^ 2 - 2 x_65_ * x_60_ + 1 x_65_ ^ 2 + 1 y_60_ ^ 2 - 2 y_65_ * y_60_ + 1 y_65_ ^ 2 ] >= 9326.789999999999
quadratic_ranged_269_lb: [ 1 x_64_ ^ 2 - 2 x_65_ * x_64_ + 1 x_65_ ^ 2 + 1 y_64_ ^ 2 - 2 y_65_ * y_64_ + 1 y_65_ ^ 2 ] >= 2475
quadratic_ranged_270_lb: [ 1 x_1_ ^ 2 - 2 x_66_ * x_1_ + 1 x_66_ ^ 2 + 1 y_1_ ^ 2 - 2 y_66_ * y_1_ + 1 y_66_ ^ 2 ] >= 19686.15
quadratic_ranged_271_lb: [ 1 x_12_ ^ 2 - 2 x_66_ * x_12_ + 1 x_66_ ^ 2 + 1 y_12_ ^ 2 - 2 y_66_ * y_12_ + 1 y_66_ ^ 2 ] >= 10522.71
quadratic_ranged_272_lb: [ 1 x_16_ ^ 2 - 2 x_66_ * x_16_ + 1 x_66_ ^ 2 + 1 y_16_ ^ 2 - 2 y_66_ * y_16_ + 1 y_66_ ^ 2 ] >= 25293.51
quadratic_ranged_273_lb: [ 1 x_22_ ^ 2 - 2 x_66_ * x_22_ + 1 x_66_ ^ 2 + 1 y_22_ ^ 2 - 2 y_66_ * y_22_ + 1 y_66_ ^ 2 ] >= 20039.579999999998
quadratic_ranged_274_lb: [ 1 x_32_ ^ 2 - 2 x_66_ * x_32_ + 1 x_66_ ^ 2 + 1 y_32_ ^ 2 - 2 y_66_ * y_32_ + 1 y_66_ ^ 2 ] >= 33883.74
quadratic_ranged_275_lb: [ 1 x_37_ ^ 2 - 2 x_66_ * x_37_ + 1 x_66_ ^ 2 + 1 y_37_ ^ 2 - 2 y_66_ * y_37_ + 1 y_66_ ^ 2 ] >= 14399.55
quadratic_ranged_276_lb: [ 1 x_40_ ^ 2 - 2 x_66_ * x_40_ + 1 x_66_ ^ 2 + 1 y_40_ ^ 2 - 2 y_66_ * y_40_ + 1 y_66_ ^ 2 ] >= 11610.72
quadratic_ranged_277_lb: [ 1 x_57_ ^ 2 - 2 x_66_ * x_57_ + 1 x_66_ ^ 2 + 1 y_57_ ^ 2 - 2 y_66_ * y_57_ + 1 y_66_ ^ 2 ] >= 1715.67
quadratic_ranged_278_lb: [ 1 x_60_ ^ 2 - 2 x_66_ * x_60_ + 1 x_66_ ^ 2 + 1 y_60_ ^ 2 - 2 y_66_ * y_60_ + 1 y_66_ ^ 2 ] >= 17570.52
quadratic_ranged_279_lb: [ 1 x_65_ ^ 2 - 2 x_66_ * x_65_ + 1 x_66_ ^ 2 + 1 y_65_ ^ 2 - 2 y_66_ * y_65_ + 1 y_66_ ^ 2 ] >= 2816.55
quadratic_ranged_280_lb: [ 1 x_2_ ^ 2 - 2 x_67_ * x_2_ + 1 x_67_ ^ 2 + 1 y_2_ ^ 2 - 2 y_67_ * y_2_ + 1 y_67_ ^ 2 ] >= 5465.79
quadratic_ranged_281_lb: [ 1 x_11_ ^ 2 - 2 x_67_ * x_11_ + 1 x_67_ ^ 2 + 1 y_11_ ^ 2 - 2 y_67_ * y_11_ + 1 y_67_ ^ 2 ] >= 9948.51
quadratic_ranged_282_lb: [ 1 x_14_ ^ 2 - 2 x_67_ * x_14_ + 1 x_67_ ^ 2 + 1 y_14_ ^ 2 - 2 y_67_ * y_14_ + 1 y_67_ ^ 2 ] >= 14798.52
quadratic_ranged_283_lb: [ 1 x_30_ ^ 2 - 2 x_67_ * x_30_ + 1 x_67_ ^ 2 + 1 y_30_ ^ 2 - 2 y_67_ * y_30_ + 1 y_67_ ^ 2 ] >= 4467.87
quadratic_ranged_284_lb: [ 1 x_33_ ^ 2 - 2 x_67_ * x_33_ + 1 x_67_ ^ 2 + 1 y_33_ ^ 2 - 2 y_67_ * y_33_ + 1 y_67_ ^ 2 ] >= 21245.4
quadratic_ranged_285_lb: [ 1 x_35_ ^ 2 - 2 x_67_ * x_35_ + 1 x_67_ ^ 2 + 1 y_35_ ^ 2 - 2 y_67_ * y_35_ + 1 y_67_ ^ 2 ] >= 5291.55
quadratic_ranged_286_lb: [ 1 x_49_ ^ 2 - 2 x_67_ * x_49_ + 1 x_67_ ^ 2 + 1 y_49_ ^ 2 - 2 y_67_ * y_49_ + 1 y_67_ ^ 2 ] >= 352.44
quadratic_ranged_287_lb: [ 1 x_57_ ^ 2 - 2 x_67_ * x_57_ + 1 x_67_ ^ 2 + 1 y_57_ ^ 2 - 2 y_67_ * y_57_ + 1 y_67_ ^ 2 ] >= 15511.32
quadratic_ranged_288_lb: [ 1 x_58_ ^ 2 - 2 x_67_ * x_58_ + 1 x_67_ ^ 2 + 1 y_58_ ^ 2 - 2 y_67_ * y_58_ + 1 y_67_ ^ 2 ] >= 15147
quadratic_ranged_289_lb: [ 1 x_66_ ^ 2 - 2 x_67_ * x_66_ + 1 x_67_ ^ 2 + 1 y_66_ ^ 2 - 2 y_67_ * y_66_ + 1 y_67_ ^ 2 ] >= 11013.75
quadratic_ranged_290_lb: [ 1 x_2_ ^ 2 - 2 x_68_ * x_2_ + 1 x_68_ ^ 2 + 1 y_2_ ^ 2 - 2 y_68_ * y_2_ + 1 y_68_ ^ 2 ] >= 1969.11
quadratic_ranged_291_lb: [ 1 x_28_ ^ 2 - 2 x_68_ * x_28_ + 1 x_68_ ^ 2 + 1 y_28_ ^ 2 - 2 y_68_ * y_28_ + 1 y_68_ ^ 2 ] >= 7939.8
quadratic_ranged_292_lb: [ 1 x_45_ ^ 2 - 2 x_68_ * x_45_ + 1 x_68_ ^ 2 + 1 y_45_ ^ 2 - 2 y_68_ * y_45_ + 1 y_68_ ^ 2 ] >= 14854.95
quadratic_ranged_293_lb: [ 1 x_51_ ^ 2 - 2 x_68_ * x_51_ + 1 x_68_ ^ 2 + 1 y_51_ ^ 2 - 2 y_68_ * y_51_ + 1 y_68_ ^ 2 ] >= 586.08
quadratic_ranged_294_lb: [ 1 x_56_ ^ 2 - 2 x_68_ * x_56_ + 1 x_68_ ^ 2 + 1 y_56_ ^ 2 - 2 y_68_ * y_56_ + 1 y_68_ ^ 2 ] >= 8175.42
quadratic_ranged_295_lb: [ 1 x_57_ ^ 2 - 2 x_68_ * x_57_ + 1 x_68_ ^ 2 + 1 y_57_ ^ 2 - 2 y_68_ * y_57_ + 1 y_68_ ^ 2 ] >= 26423.1
quadratic_ranged_296_lb: [ 1 x_66_ ^ 2 - 2 x_68_ * x_66_ + 1 x_68_ ^ 2 + 1 y_66_ ^ 2 - 2 y_68_ * y_66_ + 1 y_68_ ^ 2 ] >= 29269.35
quadratic_ranged_297_lb: [ 1 x_67_ ^ 2 - 2 x_68_ * x_67_ + 1 x_68_ ^ 2 + 1 y_67_ ^ 2 - 2 y_68_ * y_67_ + 1 y_68_ ^ 2 ] >= 11771.1
quadratic_ranged_298_lb: [ 1 x_18_ ^ 2 - 2 x_69_ * x_18_ + 1 x_69_ ^ 2 + 1 y_18_ ^ 2 - 2 y_69_ * y_18_ + 1 y_69_ ^ 2 ] >= 6399.36
quadratic_ranged_299_lb: [ 1 x_20_ ^ 2 - 2 x_69_ * x_20_ + 1 x_69_ ^ 2 + 1 y_20_ ^ 2 - 2 y_69_ * y_20_ + 1 y_69_ ^ 2 ] >= 32682.87
quadratic_ranged_300_lb: [ 1 x_24_ ^ 2 - 2 x_69_ * x_24_ + 1 x_69_ ^ 2 + 1 y_24_ ^ 2 - 2 y_69_ * y_24_ + 1 y_69_ ^ 2 ] >= 13983.75
quadratic_ranged_301_lb: [ 1 x_51_ ^ 2 - 2 x_69_ * x_51_ + 1 x_69_ ^ 2 + 1 y_51_ ^ 2 - 2 y_69_ * y_51_ + 1 y_69_ ^ 2 ] >= 13616.46
quadratic_ranged_302_lb: [ 1 x_55_ ^ 2 - 2 x_69_ * x_55_ + 1 x_69_ ^ 2 + 1 y_55_ ^ 2 - 2 y_69_ * y_55_ + 1 y_69_ ^ 2 ] >= 37708.11
quadratic_ranged_303_lb: [ 1 x_68_ ^ 2 - 2 x_69_ * x_68_ + 1 x_69_ ^ 2 + 1 y_68_ ^ 2 - 2 y_69_ * y_68_ + 1 y_69_ ^ 2 ] >= 8919.9
quadratic_ranged_304_lb: [ 1 x_12_ ^ 2 - 2 x_70_ * x_12_ + 1 x_70_ ^ 2 + 1 y_12_ ^ 2 - 2 y_70_ * y_12_ + 1 y_70_ ^ 2 ] >= 11557.26
quadratic_ranged_305_lb: [ 1 x_32_ ^ 2 - 2 x_70_ * x_32_ + 1 x_70_ ^ 2 + 1 y_32_ ^ 2 - 2 y_70_ * y_32_ + 1 y_70_ ^ 2 ] >= 1272.15
quadratic_ranged_306_lb: [ 1 x_36_ ^ 2 - 2 x_70_ * x_36_ + 1 x_70_ ^ 2 + 1 y_36_ ^ 2 - 2 y_70_ * y_36_ + 1 y_70_ ^ 2 ] >= 10467.27
quadratic_ranged_307_lb: [ 1 x_51_ ^ 2 - 2 x_70_ * x_51_ + 1 x_70_ ^ 2 + 1 y_51_ ^ 2 - 2 y_70_ * y_51_ + 1 y_70_ ^ 2 ] >= 1920.6
quadratic_ranged_308_lb: [ 1 x_63_ ^ 2 - 2 x_70_ * x_63_ + 1 x_70_ ^ 2 + 1 y_63_ ^ 2 - 2 y_70_ * y_63_ + 1 y_70_ ^ 2 ] >= 1113.75
quadratic_ranged_309_lb: [ 1 x_64_ ^ 2 - 2 x_70_ * x_64_ + 1 x_70_ ^ 2 + 1 y_64_ ^ 2 - 2 y_70_ * y_64_ + 1 y_70_ ^ 2 ] >= 2871
quadratic_ranged_310_lb: [ 1 x_69_ ^ 2 - 2 x_70_ * x_69_ + 1 x_70_ ^ 2 + 1 y_69_ ^ 2 - 2 y_70_ * y_69_ + 1 y_70_ ^ 2 ] >= 10709.82
quadratic_ranged_311_lb: [ 1 x_24_ ^ 2 - 2 x_71_ * x_24_ + 1 x_71_ ^ 2 + 1 y_24_ ^ 2 - 2 y_71_ * y_24_ + 1 y_71_ ^ 2 ] >= 29047.59
quadratic_ranged_312_lb: [ 1 x_28_ ^ 2 - 2 x_71_ * x_28_ + 1 x_71_ ^ 2 + 1 y_28_ ^ 2 - 2 y_71_ * y_28_ + 1 y_71_ ^ 2 ] >= 7413.12
quadratic_ranged_313_lb: [ 1 x_38_ ^ 2 - 2 x_71_ * x_38_ + 1 x_71_ ^ 2 + 1 y_38_ ^ 2 - 2 y_71_ * y_38_ + 1 y_71_ ^ 2 ] >= 21824.55
quadratic_ranged_314_lb: [ 1 x_54_ ^ 2 - 2 x_71_ * x_54_ + 1 x_71_ ^ 2 + 1 y_54_ ^ 2 - 2 y_71_ * y_54_ + 1 y_71_ ^ 2 ] >= 1866.15
quadratic_ranged_315_lb: [ 1 x_55_ ^ 2 - 2 x_71_ * x_55_ + 1 x_71_ ^ 2 + 1 y_55_ ^ 2 - 2 y_71_ * y_55_ + 1 y_71_ ^ 2 ] >= 40523.67
quadratic_ranged_316_lb: [ 1 x_70_ ^ 2 - 2 x_71_ * x_70_ + 1 x_71_ ^ 2 + 1 y_70_ ^ 2 - 2 y_71_ * y_70_ + 1 y_71_ ^ 2 ] >= 24021.36
quadratic_ranged_317_lb: [ 1 x_23_ ^ 2 - 2 x_72_ * x_23_ + 1 x_72_ ^ 2 + 1 y_23_ ^ 2 - 2 y_72_ * y_23_ + 1 y_72_ ^ 2 ] >= 35082.63
quadratic_ranged_318_lb: [ 1 x_32_ ^ 2 - 2 x_72_ * x_32_ + 1 x_72_ ^ 2 + 1 y_32_ ^ 2 - 2 y_72_ * y_32_ + 1 y_72_ ^ 2 ] >= 21828.51
quadratic_ranged_319_lb: [ 1 x_33_ ^ 2 - 2 x_72_ * x_33_ + 1 x_72_ ^ 2 + 1 y_33_ ^ 2 - 2 y_72_ * y_33_ + 1 y_72_ ^ 2 ] >= 3732.3
quadratic_ranged_320_lb: [ 1 x_34_ ^ 2 - 2 x_72_ * x_34_ + 1 x_72_ ^ 2 + 1 y_34_ ^ 2 - 2 y_72_ * y_34_ + 1 y_72_ ^ 2 ] >= 20497.95
quadratic_ranged_321_lb: [ 1 x_40_ ^ 2 - 2 x_72_ * x_40_ + 1 x_72_ ^ 2 + 1 y_40_ ^ 2 - 2 y_72_ * y_40_ + 1 y_72_ ^ 2 ] >= 26635.95
quadratic_ranged_322_lb: [ 1 x_58_ ^ 2 - 2 x_72_ * x_58_ + 1 x_72_ ^ 2 + 1 y_58_ ^ 2 - 2 y_72_ * y_58_ + 1 y_72_ ^ 2 ] >= 15097.5
quadratic_ranged_323_lb: [ 1 x_59_ ^ 2 - 2 x_72_ * x_59_ + 1 x_72_ ^ 2 + 1 y_59_ ^ 2 - 2 y_72_ * y_59_ + 1 y_72_ ^ 2 ] >= 13632.3
quadratic_ranged_324_lb: [ 1 x_71_ ^ 2 - 2 x_72_ * x_71_ + 1 x_72_ ^ 2 + 1 y_71_ ^ 2 - 2 y_72_ * y_71_ + 1 y_72_ ^ 2 ] >= 1726.56
quadratic_ranged_325_lb: [ 1 x_10_ ^ 2 - 2 x_73_ * x_10_ + 1 x_73_ ^ 2 + 1 y_10_ ^ 2 - 2 y_73_ * y_10_ + 1 y_73_ ^ 2 ] >= 8700.12
quadratic_ranged_326_lb: [ 1 x_49_ ^ 2 - 2 x_73_ * x_49_ + 1 x_73_ ^ 2 + 1 y_49_ ^ 2 - 2 y_73_ * y_49_ + 1 y_73_ ^ 2 ] >= 26426.07
quadratic_ranged_327_lb: [ 1 x_54_ ^ 2 - 2 x_73_ * x_54_ + 1 x_73_ ^ 2 + 1 y_54_ ^ 2 - 2 y_73_ * y_54_ + 1 y_73_ ^ 2 ] >= 1855.26
quadratic_ranged_328_lb: [ 1 x_57_ ^ 2 - 2 x_73_ * x_57_ + 1 x_73_ ^ 2 + 1 y_57_ ^ 2 - 2 y_73_ * y_57_ + 1 y_73_ ^ 2 ] >= 5711.31
quadratic_ranged_329_lb: [ 1 x_69_ ^ 2 - 2 x_73_ * x_69_ + 1 x_73_ ^ 2 + 1 y_69_ ^ 2 - 2 y_73_ * y_69_ + 1 y_73_ ^ 2 ] >= 5006.43
quadratic_ranged_330_lb: [ 1 x_71_ ^ 2 - 2 x_73_ * x_71_ + 1 x_73_ ^ 2 + 1 y_71_ ^ 2 - 2 y_73_ * y_71_ + 1 y_73_ ^ 2 ] >= 254.43
quadratic_ranged_331_lb: [ 1 x_72_ ^ 2 - 2 x_73_ * x_72_ + 1 x_73_ ^ 2 + 1 y_72_ ^ 2 - 2 y_73_ * y_72_ + 1 y_73_ ^ 2 ] >= 2440.35
quadratic_ranged_332_lb: [ 1 x_4_ ^ 2 - 2 x_74_ * x_4_ + 1 x_74_ ^ 2 + 1 y_4_ ^ 2 - 2 y_74_ * y_4_ + 1 y_74_ ^ 2 ] >= 3248.19
quadratic_ranged_333_lb: [ 1 x_11_ ^ 2 - 2 x_74_ * x_11_ + 1 x_74_ ^ 2 + 1 y_11_ ^ 2 - 2 y_74_ * y_11_ + 1 y_74_ ^ 2 ] >= 6312.24
quadratic_ranged_334_lb: [ 1 x_27_ ^ 2 - 2 x_74_ * x_27_ + 1 x_74_ ^ 2 + 1 y_27_ ^ 2 - 2 y_74_ * y_27_ + 1 y_74_ ^ 2 ] >= 14503.5
quadratic_ranged_335_lb: [ 1 x_29_ ^ 2 - 2 x_74_ * x_29_ + 1 x_74_ ^ 2 + 1 y_29_ ^ 2 - 2 y_74_ * y_29_ + 1 y_74_ ^ 2 ] >= 8240.76
quadratic_ranged_336_lb: [ 1 x_37_ ^ 2 - 2 x_74_ * x_37_ + 1 x_74_ ^ 2 + 1 y_37_ ^ 2 - 2 y_74_ * y_37_ + 1 y_74_ ^ 2 ] >= 7691.3099999999995
quadratic_ranged_337_lb: [ 1 x_39_ ^ 2 - 2 x_74_ * x_39_ + 1 x_74_ ^ 2 + 1 y_39_ ^ 2 - 2 y_74_ * y_39_ + 1 y_74_ ^ 2 ] >= 7876.44
quadratic_ranged_338_lb: [ 1 x_41_ ^ 2 - 2 x_74_ * x_41_ + 1 x_74_ ^ 2 + 1 y_41_ ^ 2 - 2 y_74_ * y_41_ + 1 y_74_ ^ 2 ] >= 9270.36
quadratic_ranged_339_lb: [ 1 x_53_ ^ 2 - 2 x_74_ * x_53_ + 1 x_74_ ^ 2 + 1 y_53_ ^ 2 - 2 y_74_ * y_53_ + 1 y_74_ ^ 2 ] >= 2427.48
quadratic_ranged_340_lb: [ 1 x_70_ ^ 2 - 2 x_74_ * x_70_ + 1 x_74_ ^ 2 + 1 y_70_ ^ 2 - 2 y_74_ * y_70_ + 1 y_74_ ^ 2 ] >= 3414.5099999999998
quadratic_ranged_341_lb: [ 1 x_73_ ^ 2 - 2 x_74_ * x_73_ + 1 x_74_ ^ 2 + 1 y_73_ ^ 2 - 2 y_74_ * y_73_ + 1 y_74_ ^ 2 ] >= 15859.8
quadratic_ranged_342_lb: [ 1 x_28_ ^ 2 - 2 x_75_ * x_28_ + 1 x_75_ ^ 2 + 1 y_28_ ^ 2 - 2 y_75_ * y_28_ + 1 y_75_ ^ 2 ] >= 535.59
quadratic_ranged_343_lb: [ 1 x_33_ ^ 2 - 2 x_75_ * x_33_ + 1 x_75_ ^ 2 + 1 y_33_ ^ 2 - 2 y_75_ * y_33_ + 1 y_75_ ^ 2 ] >= 7271.55
quadratic_ranged_344_lb: [ 1 x_51_ ^ 2 - 2 x_75_ * x_51_ + 1 x_75_ ^ 2 + 1 y_51_ ^ 2 - 2 y_75_ * y_51_ + 1 y_75_ ^ 2 ] >= 9627.75
quadratic_ranged_345_lb: [ 1 x_57_ ^ 2 - 2 x_75_ * x_57_ + 1 x_75_ ^ 2 + 1 y_57_ ^ 2 - 2 y_75_ * y_57_ + 1 y_75_ ^ 2 ] >= 7734.87
quadratic_ranged_346_lb: [ 1 x_60_ ^ 2 - 2 x_75_ * x_60_ + 1 x_75_ ^ 2 + 1 y_60_ ^ 2 - 2 y_75_ * y_60_ + 1 y_75_ ^ 2 ] >= 12285.9
quadratic_ranged_347_lb: [ 1 x_72_ ^ 2 - 2 x_75_ * x_72_ + 1 x_75_ ^ 2 + 1 y_72_ ^ 2 - 2 y_75_ * y_72_ + 1 y_75_ ^ 2 ] >= 7631.91
quadratic_ranged_348_lb: [ 1 x_74_ ^ 2 - 2 x_75_ * x_74_ + 1 x_75_ ^ 2 + 1 y_74_ ^ 2 - 2 y_75_ * y_74_ + 1 y_75_ ^ 2 ] >= 764.28
quadratic_ranged_349_lb: [ 1 x_2_ ^ 2 - 2 x_76_ * x_2_ + 1 x_76_ ^ 2 + 1 y_2_ ^ 2 - 2 y_76_ * y_2_ + 1 y_76_ ^ 2 ] >= 7432.92
quadratic_ranged_350_lb: [ 1 x_13_ ^ 2 - 2 x_76_ * x_13_ + 1 x_76_ ^ 2 + 1 y_13_ ^ 2 - 2 y_76_ * y_13_ + 1 y_76_ ^ 2 ] >= 21750.3
quadratic_ranged_351_lb: [ 1 x_15_ ^ 2 - 2 x_76_ * x_15_ + 1 x_76_ ^ 2 + 1 y_15_ ^ 2 - 2 y_76_ * y_15_ + 1 y_76_ ^ 2 ] >= 4210.47
quadratic_ranged_352_lb: [ 1 x_24_ ^ 2 - 2 x_76_ * x_24_ + 1 x_76_ ^ 2 + 1 y_24_ ^ 2 - 2 y_76_ * y_24_ + 1 y_76_ ^ 2 ] >= 6419.16
quadratic_ranged_353_lb: [ 1 x_54_ ^ 2 - 2 x_76_ * x_54_ + 1 x_76_ ^ 2 + 1 y_54_ ^ 2 - 2 y_76_ * y_54_ + 1 y_76_ ^ 2 ] >= 2227.5
quadratic_ranged_354_lb: [ 1 x_58_ ^ 2 - 2 x_76_ * x_58_ + 1 x_76_ ^ 2 + 1 y_58_ ^ 2 - 2 y_76_ * y_58_ + 1 y_76_ ^ 2 ] >= 6439.95
quadratic_ranged_355_lb: [ 1 x_59_ ^ 2 - 2 x_76_ * x_59_ + 1 x_76_ ^ 2 + 1 y_59_ ^ 2 - 2 y_76_ * y_59_ + 1 y_76_ ^ 2 ] >= 9283.23
quadratic_ranged_356_lb: [ 1 x_75_ ^ 2 - 2 x_76_ * x_75_ + 1 x_76_ ^ 2 + 1 y_75_ ^ 2 - 2 y_76_ * y_75_ + 1 y_76_ ^ 2 ] >= 1049.4
quadratic_ranged_357_lb: [ 1 x_41_ ^ 2 - 2 x_77_ * x_41_ + 1 x_77_ ^ 2 + 1 y_41_ ^ 2 - 2 y_77_ * y_41_ + 1 y_77_ ^ 2 ] >= 10860.3
quadratic_ranged_358_lb: [ 1 x_46_ ^ 2 - 2 x_77_ * x_46_ + 1 x_77_ ^ 2 + 1 y_46_ ^ 2 - 2 y_77_ * y_46_ + 1 y_77_ ^ 2 ] >= 485.1
quadratic_ranged_359_lb: [ 1 x_50_ ^ 2 - 2 x_77_ * x_50_ + 1 x_77_ ^ 2 + 1 y_50_ ^ 2 - 2 y_77_ * y_50_ + 1 y_77_ ^ 2 ] >= 2970.99
quadratic_ranged_360_lb: [ 1 x_59_ ^ 2 - 2 x_77_ * x_59_ + 1 x_77_ ^ 2 + 1 y_59_ ^ 2 - 2 y_77_ * y_59_ + 1 y_77_ ^ 2 ] >= 2642.31
quadratic_ranged_361_lb: [ 1 x_76_ ^ 2 - 2 x_77_ * x_76_ + 1 x_77_ ^ 2 + 1 y_76_ ^ 2 - 2 y_77_ * y_76_ + 1 y_77_ ^ 2 ] >= 2100.78
quadratic_ranged_362_lb: [ 1 x_28_ ^ 2 - 2 x_78_ * x_28_ + 1 x_78_ ^ 2 + 1 y_28_ ^ 2 - 2 y_78_ * y_28_ + 1 y_78_ ^ 2 ] >= 16190.46
quadratic_ranged_363_lb: [ 1 x_39_ ^ 2 - 2 x_78_ * x_39_ + 1 x_78_ ^ 2 + 1 y_39_ ^ 2 - 2 y_78_ * y_39_ + 1 y_78_ ^ 2 ] >= 30520.71
quadratic_ranged_364_lb: [ 1 x_53_ ^ 2 - 2 x_78_ * x_53_ + 1 x_78_ ^ 2 + 1 y_53_ ^ 2 - 2 y_78_ * y_53_ + 1 y_78_ ^ 2 ] >= 16613.19
quadratic_ranged_365_lb: [ 1 x_57_ ^ 2 - 2 x_78_ * x_57_ + 1 x_78_ ^ 2 + 1 y_57_ ^ 2 - 2 y_78_ * y_57_ + 1 y_78_ ^ 2 ] >= 15459.84
quadratic_ranged_366_lb: [ 1 x_77_ ^ 2 - 2 x_78_ * x_77_ + 1 x_78_ ^ 2 + 1 y_77_ ^ 2 - 2 y_78_ * y_77_ + 1 y_78_ ^ 2 ] >= 12372.03
quadratic_ranged_367_lb: [ 1 x_10_ ^ 2 - 2 x_79_ * x_10_ + 1 x_79_ ^ 2 + 1 y_10_ ^ 2 - 2 y_79_ * y_10_ + 1 y_79_ ^ 2 ] >= 2029.5
quadratic_ranged_368_lb: [ 1 x_19_ ^ 2 - 2 x_79_ * x_19_ + 1 x_79_ ^ 2 + 1 y_19_ ^ 2 - 2 y_79_ * y_19_ + 1 y_79_ ^ 2 ] >= 3564.99
quadratic_ranged_369_lb: [ 1 x_66_ ^ 2 - 2 x_79_ * x_66_ + 1 x_79_ ^ 2 + 1 y_66_ ^ 2 - 2 y_79_ * y_66_ + 1 y_79_ ^ 2 ] >= 7417.08
quadratic_ranged_370_lb: [ 1 x_78_ ^ 2 - 2 x_79_ * x_78_ + 1 x_79_ ^ 2 + 1 y_78_ ^ 2 - 2 y_79_ * y_78_ + 1 y_79_ ^ 2 ] >= 12071.07
quadratic_ranged_371_lb: [ 1 x_1_ ^ 2 - 2 x_80_ * x_1_ + 1 x_80_ ^ 2 + 1 y_1_ ^ 2 - 2 y_80_ * y_1_ + 1 y_80_ ^ 2 ] >= 7509.15
quadratic_ranged_372_lb: [ 1 x_4_ ^ 2 - 2 x_80_ * x_4_ + 1 x_80_ ^ 2 + 1 y_4_ ^ 2 - 2 y_80_ * y_4_ + 1 y_80_ ^ 2 ] >= 10241.55
quadratic_ranged_373_lb: [ 1 x_5_ ^ 2 - 2 x_80_ * x_5_ + 1 x_80_ ^ 2 + 1 y_5_ ^ 2 - 2 y_80_ * y_5_ + 1 y_80_ ^ 2 ] >= 10098.99
quadratic_ranged_374_lb: [ 1 x_8_ ^ 2 - 2 x_80_ * x_8_ + 1 x_80_ ^ 2 + 1 y_8_ ^ 2 - 2 y_80_ * y_8_ + 1 y_80_ ^ 2 ] >= 12832.38
quadratic_ranged_375_lb: [ 1 x_10_ ^ 2 - 2 x_80_ * x_10_ + 1 x_80_ ^ 2 + 1 y_10_ ^ 2 - 2 y_80_ * y_10_ + 1 y_80_ ^ 2 ] >= 352.44
quadratic_ranged_376_lb: [ 1 x_13_ ^ 2 - 2 x_80_ * x_13_ + 1 x_80_ ^ 2 + 1 y_13_ ^ 2 - 2 y_80_ * y_13_ + 1 y_80_ ^ 2 ] >= 15572.7
quadratic_ranged_377_lb: [ 1 x_16_ ^ 2 - 2 x_80_ * x_16_ + 1 x_80_ ^ 2 + 1 y_16_ ^ 2 - 2 y_80_ * y_16_ + 1 y_80_ ^ 2 ] >= 9742.59
quadratic_ranged_378_lb: [ 1 x_24_ ^ 2 - 2 x_80_ * x_24_ + 1 x_80_ ^ 2 + 1 y_24_ ^ 2 - 2 y_80_ * y_24_ + 1 y_80_ ^ 2 ] >= 11721.6
quadratic_ranged_379_lb: [ 1 x_37_ ^ 2 - 2 x_80_ * x_37_ + 1 x_80_ ^ 2 + 1 y_37_ ^ 2 - 2 y_80_ * y_37_ + 1 y_80_ ^ 2 ] >= 13805.55
quadratic_ranged_380_lb: [ 1 x_38_ ^ 2 - 2 x_80_ * x_38_ + 1 x_80_ ^ 2 + 1 y_38_ ^ 2 - 2 y_80_ * y_38_ + 1 y_80_ ^ 2 ] >= 5722.2
quadratic_ranged_381_lb: [ 1 x_59_ ^ 2 - 2 x_80_ * x_59_ + 1 x_80_ ^ 2 + 1 y_59_ ^ 2 - 2 y_80_ * y_59_ + 1 y_80_ ^ 2 ] >= 1612.71
quadratic_ranged_382_lb: [ 1 x_74_ ^ 2 - 2 x_80_ * x_74_ + 1 x_80_ ^ 2 + 1 y_74_ ^ 2 - 2 y_80_ * y_74_ + 1 y_80_ ^ 2 ] >= 2110.68
quadratic_ranged_383_lb: [ 1 x_79_ ^ 2 - 2 x_80_ * x_79_ + 1 x_80_ ^ 2 + 1 y_79_ ^ 2 - 2 y_80_ * y_79_ + 1 y_80_ ^ 2 ] >= 746.46
quadratic_ranged_384_lb: [ 1 x_16_ ^ 2 - 2 x_81_ * x_16_ + 1 x_81_ ^ 2 + 1 y_16_ ^ 2 - 2 y_81_ * y_16_ + 1 y_81_ ^ 2 ] >= 32814.54
quadratic_ranged_385_lb: [ 1 x_17_ ^ 2 - 2 x_81_ * x_17_ + 1 x_81_ ^ 2 + 1 y_17_ ^ 2 - 2 y_81_ * y_17_ + 1 y_81_ ^ 2 ] >= 41485.95
quadratic_ranged_386_lb: [ 1 x_18_ ^ 2 - 2 x_81_ * x_18_ + 1 x_81_ ^ 2 + 1 y_18_ ^ 2 - 2 y_81_ * y_18_ + 1 y_81_ ^ 2 ] >= 10147.5
quadratic_ranged_387_lb: [ 1 x_25_ ^ 2 - 2 x_81_ * x_25_ + 1 x_81_ ^ 2 + 1 y_25_ ^ 2 - 2 y_81_ * y_25_ + 1 y_81_ ^ 2 ] >= 27578.43
quadratic_ranged_388_lb: [ 1 x_36_ ^ 2 - 2 x_81_ * x_36_ + 1 x_81_ ^ 2 + 1 y_36_ ^ 2 - 2 y_81_ * y_36_ + 1 y_81_ ^ 2 ] >= 3770.91
quadratic_ranged_389_lb: [ 1 x_80_ ^ 2 - 2 x_81_ * x_80_ + 1 x_81_ ^ 2 + 1 y_80_ ^ 2 - 2 y_81_ * y_80_ + 1 y_81_ ^ 2 ] >= 7275.51
quadratic_ranged_390_lb: [ 1 x_17_ ^ 2 - 2 x_82_ * x_17_ + 1 x_82_ ^ 2 + 1 y_17_ ^ 2 - 2 y_82_ * y_17_ + 1 y_82_ ^ 2 ] >= 21599.82
quadratic_ranged_391_lb: [ 1 x_23_ ^ 2 - 2 x_82_ * x_23_ + 1 x_82_ ^ 2 + 1 y_23_ ^ 2 - 2 y_82_ * y_23_ + 1 y_82_ ^ 2 ] >= 11533.5
quadratic_ranged_392_lb: [ 1 x_24_ ^ 2 - 2 x_82_ * x_24_ + 1 x_82_ ^ 2 + 1 y_24_ ^ 2 - 2 y_82_ * y_24_ + 1 y_82_ ^ 2 ] >= 10147.5
quadratic_ranged_393_lb: [ 1 x_28_ ^ 2 - 2 x_82_ * x_28_ + 1 x_82_ ^ 2 + 1 y_28_ ^ 2 - 2 y_82_ * y_28_ + 1 y_82_ ^ 2 ] >= 8249.67
quadratic_ranged_394_lb: [ 1 x_37_ ^ 2 - 2 x_82_ * x_37_ + 1 x_82_ ^ 2 + 1 y_37_ ^ 2 - 2 y_82_ * y_37_ + 1 y_82_ ^ 2 ] >= 2095.83
quadratic_ranged_395_lb: [ 1 x_41_ ^ 2 - 2 x_82_ * x_41_ + 1 x_82_ ^ 2 + 1 y_41_ ^ 2 - 2 y_82_ * y_41_ + 1 y_82_ ^ 2 ] >= 20403.9
quadratic_ranged_396_lb: [ 1 x_68_ ^ 2 - 2 x_82_ * x_68_ + 1 x_82_ ^ 2 + 1 y_68_ ^ 2 - 2 y_82_ * y_68_ + 1 y_82_ ^ 2 ] >= 15936.03
quadratic_ranged_397_lb: [ 1 x_81_ ^ 2 - 2 x_82_ * x_81_ + 1 x_82_ ^ 2 + 1 y_81_ ^ 2 - 2 y_82_ * y_81_ + 1 y_82_ ^ 2 ] >= 6253.83
quadratic_ranged_398_lb: [ 1 x_13_ ^ 2 - 2 x_83_ * x_13_ + 1 x_83_ ^ 2 + 1 y_13_ ^ 2 - 2 y_83_ * y_13_ + 1 y_83_ ^ 2 ] >= 10273.23
quadratic_ranged_399_lb: [ 1 x_14_ ^ 2 - 2 x_83_ * x_14_ + 1 x_83_ ^ 2 + 1 y_14_ ^ 2 - 2 y_83_ * y_14_ + 1 y_83_ ^ 2 ] >= 23429.34
quadratic_ranged_400_lb: [ 1 x_15_ ^ 2 - 2 x_83_ * x_15_ + 1 x_83_ ^ 2 + 1 y_15_ ^ 2 - 2 y_83_ * y_15_ + 1 y_83_ ^ 2 ] >= 14877.72
quadratic_ranged_401_lb: [ 1 x_17_ ^ 2 - 2 x_83_ * x_17_ + 1 x_83_ ^ 2 + 1 y_17_ ^ 2 - 2 y_83_ * y_17_ + 1 y_83_ ^ 2 ] >= 4697.55
quadratic_ranged_402_lb: [ 1 x_21_ ^ 2 - 2 x_83_ * x_21_ + 1 x_83_ ^ 2 + 1 y_21_ ^ 2 - 2 y_83_ * y_21_ + 1 y_83_ ^ 2 ] >= 14478.75
quadratic_ranged_403_lb: [ 1 x_35_ ^ 2 - 2 x_83_ * x_35_ + 1 x_83_ ^ 2 + 1 y_35_ ^ 2 - 2 y_83_ * y_35_ + 1 y_83_ ^ 2 ] >= 15425.19
quadratic_ranged_404_lb: [ 1 x_45_ ^ 2 - 2 x_83_ * x_45_ + 1 x_83_ ^ 2 + 1 y_45_ ^ 2 - 2 y_83_ * y_45_ + 1 y_83_ ^ 2 ] >= 11785.95
quadratic_ranged_405_lb: [ 1 x_73_ ^ 2 - 2 x_83_ * x_73_ + 1 x_83_ ^ 2 + 1 y_73_ ^ 2 - 2 y_83_ * y_73_ + 1 y_83_ ^ 2 ] >= 20165.31
quadratic_ranged_406_lb: [ 1 x_76_ ^ 2 - 2 x_83_ * x_76_ + 1 x_83_ ^ 2 + 1 y_76_ ^ 2 - 2 y_83_ * y_76_ + 1 y_83_ ^ 2 ] >= 3267.99
quadratic_ranged_407_lb: [ 1 x_82_ ^ 2 - 2 x_83_ * x_82_ + 1 x_83_ ^ 2 + 1 y_82_ ^ 2 - 2 y_83_ * y_82_ + 1 y_83_ ^ 2 ] >= 6237.99
quadratic_ranged_408_lb: [ 1 x_3_ ^ 2 - 2 x_84_ * x_3_ + 1 x_84_ ^ 2 + 1 y_3_ ^ 2 - 2 y_84_ * y_3_ + 1 y_84_ ^ 2 ] >= 7600.23
quadratic_ranged_409_lb: [ 1 x_9_ ^ 2 - 2 x_84_ * x_9_ + 1 x_84_ ^ 2 + 1 y_9_ ^ 2 - 2 y_84_ * y_9_ + 1 y_84_ ^ 2 ] >= 26378.55
quadratic_ranged_410_lb: [ 1 x_15_ ^ 2 - 2 x_84_ * x_15_ + 1 x_84_ ^ 2 + 1 y_15_ ^ 2 - 2 y_84_ * y_15_ + 1 y_84_ ^ 2 ] >= 20695.95
quadratic_ranged_411_lb: [ 1 x_25_ ^ 2 - 2 x_84_ * x_25_ + 1 x_84_ ^ 2 + 1 y_25_ ^ 2 - 2 y_84_ * y_25_ + 1 y_84_ ^ 2 ] >= 10052.46
quadratic_ranged_412_lb: [ 1 x_42_ ^ 2 - 2 x_84_ * x_42_ + 1 x_84_ ^ 2 + 1 y_42_ ^ 2 - 2 y_84_ * y_42_ + 1 y_84_ ^ 2 ] >= 26319.15
quadratic_ranged_413_lb: [ 1 x_43_ ^ 2 - 2 x_84_ * x_43_ + 1 x_84_ ^ 2 + 1 y_43_ ^ 2 - 2 y_84_ * y_43_ + 1 y_84_ ^ 2 ] >= 99
quadratic_ranged_414_lb: [ 1 x_49_ ^ 2 - 2 x_84_ * x_49_ + 1 x_84_ ^ 2 + 1 y_49_ ^ 2 - 2 y_84_ * y_49_ + 1 y_84_ ^ 2 ] >= 5766.75
quadratic_ranged_415_lb: [ 1 x_59_ ^ 2 - 2 x_84_ * x_59_ + 1 x_84_ ^ 2 + 1 y_59_ ^ 2 - 2 y_84_ * y_59_ + 1 y_84_ ^ 2 ] >= 17381.43
quadratic_ranged_416_lb: [ 1 x_61_ ^ 2 - 2 x_84_ * x_61_ + 1 x_84_ ^ 2 + 1 y_61_ ^ 2 - 2 y_84_ * y_61_ + 1 y_84_ ^ 2 ] >= 14664.869999999999
quadratic_ranged_417_lb: [ 1 x_68_ ^ 2 - 2 x_84_ * x_68_ + 1 x_84_ ^ 2 + 1 y_68_ ^ 2 - 2 y_84_ * y_68_ + 1 y_84_ ^ 2 ] >= 2685.87
quadratic_ranged_418_lb: [ 1 x_77_ ^ 2 - 2 x_84_ * x_77_ + 1 x_84_ ^ 2 + 1 y_77_ ^ 2 - 2 y_84_ * y_77_ + 1 y_84_ ^ 2 ] >= 8207.1
quadratic_ranged_419_lb: [ 1 x_80_ ^ 2 - 2 x_84_ * x_80_ + 1 x_84_ ^ 2 + 1 y_80_ ^ 2 - 2 y_84_ * y_80_ + 1 y_84_ ^ 2 ] >= 9317.88
quadratic_ranged_420_lb: [ 1 x_81_ ^ 2 - 2 x_84_ * x_81_ + 1 x_84_ ^ 2 + 1 y_81_ ^ 2 - 2 y_84_ * y_81_ + 1 y_84_ ^ 2 ] >= 23618.43
quadratic_ranged_421_lb: [ 1 x_82_ ^ 2 - 2 x_84_ * x_82_ + 1 x_84_ ^ 2 + 1 y_82_ ^ 2 - 2 y_84_ * y_82_ + 1 y_84_ ^ 2 ] >= 6631.0199999999995
quadratic_ranged_422_lb: [ 1 x_83_ ^ 2 - 2 x_84_ * x_83_ + 1 x_84_ ^ 2 + 1 y_83_ ^ 2 - 2 y_84_ * y_83_ + 1 y_84_ ^ 2 ] >= 499.95
quadratic_ranged_423_lb: [ 1 x_15_ ^ 2 - 2 x_85_ * x_15_ + 1 x_85_ ^ 2 + 1 y_15_ ^ 2 - 2 y_85_ * y_15_ + 1 y_85_ ^ 2 ] >= 3833.2799999999997
quadratic_ranged_424_lb: [ 1 x_37_ ^ 2 - 2 x_85_ * x_37_ + 1 x_85_ ^ 2 + 1 y_37_ ^ 2 - 2 y_85_ * y_37_ + 1 y_85_ ^ 2 ] >= 40209.84
quadratic_ranged_425_lb: [ 1 x_48_ ^ 2 - 2 x_85_ * x_48_ + 1 x_85_ ^ 2 + 1 y_48_ ^ 2 - 2 y_85_ * y_48_ + 1 y_85_ ^ 2 ] >= 9033.75
quadratic_ranged_426_lb: [ 1 x_54_ ^ 2 - 2 x_85_ * x_54_ + 1 x_85_ ^ 2 + 1 y_54_ ^ 2 - 2 y_85_ * y_54_ + 1 y_85_ ^ 2 ] >= 3113.55
quadratic_ranged_427_lb: [ 1 x_72_ ^ 2 - 2 x_85_ * x_72_ + 1 x_85_ ^ 2 + 1 y_72_ ^ 2 - 2 y_85_ * y_72_ + 1 y_85_ ^ 2 ] >= 4391.64
quadratic_ranged_428_lb: [ 1 x_80_ ^ 2 - 2 x_85_ * x_80_ + 1 x_85_ ^ 2 + 1 y_80_ ^ 2 - 2 y_85_ * y_80_ + 1 y_85_ ^ 2 ] >= 7085.43
quadratic_ranged_429_lb: [ 1 x_84_ ^ 2 - 2 x_85_ * x_84_ + 1 x_85_ ^ 2 + 1 y_84_ ^ 2 - 2 y_85_ * y_84_ + 1 y_85_ ^ 2 ] >= 28623.87
quadratic_ranged_430_lb: [ 1 x_10_ ^ 2 - 2 x_86_ * x_10_ + 1 x_86_ ^ 2 + 1 y_10_ ^ 2 - 2 y_86_ * y_10_ + 1 y_86_ ^ 2 ] >= 13417.47
quadratic_ranged_431_lb: [ 1 x_27_ ^ 2 - 2 x_86_ * x_27_ + 1 x_86_ ^ 2 + 1 y_27_ ^ 2 - 2 y_86_ * y_27_ + 1 y_86_ ^ 2 ] >= 30053.43
quadratic_ranged_432_lb: [ 1 x_38_ ^ 2 - 2 x_86_ * x_38_ + 1 x_86_ ^ 2 + 1 y_38_ ^ 2 - 2 y_86_ * y_38_ + 1 y_86_ ^ 2 ] >= 19151.55
quadratic_ranged_433_lb: [ 1 x_56_ ^ 2 - 2 x_86_ * x_56_ + 1 x_86_ ^ 2 + 1 y_56_ ^ 2 - 2 y_86_ * y_56_ + 1 y_86_ ^ 2 ] >= 13838.22
quadratic_ranged_434_lb: [ 1 x_57_ ^ 2 - 2 x_86_ * x_57_ + 1 x_86_ ^ 2 + 1 y_57_ ^ 2 - 2 y_86_ * y_57_ + 1 y_86_ ^ 2 ] >= 24126.3
quadratic_ranged_435_lb: [ 1 x_65_ ^ 2 - 2 x_86_ * x_65_ + 1 x_86_ ^ 2 + 1 y_65_ ^ 2 - 2 y_86_ * y_65_ + 1 y_86_ ^ 2 ] >= 8415
quadratic_ranged_436_lb: [ 1 x_75_ ^ 2 - 2 x_86_ * x_75_ + 1 x_86_ ^ 2 + 1 y_75_ ^ 2 - 2 y_86_ * y_75_ + 1 y_86_ ^ 2 ] >= 9045.63
quadratic_ranged_437_lb: [ 1 x_79_ ^ 2 - 2 x_86_ * x_79_ + 1 x_86_ ^ 2 + 1 y_79_ ^ 2 - 2 y_86_ * y_79_ + 1 y_86_ ^ 2 ] >= 9782.19
quadratic_ranged_438_lb: [ 1 x_85_ ^ 2 - 2 x_86_ * x_85_ + 1 x_86_ ^ 2 + 1 y_85_ ^ 2 - 2 y_86_ * y_85_ + 1 y_86_ ^ 2 ] >= 37992.24
quadratic_ranged_439_lb: [ 1 x_12_ ^ 2 - 2 x_87_ * x_12_ + 1 x_87_ ^ 2 + 1 y_12_ ^ 2 - 2 y_87_ * y_12_ + 1 y_87_ ^ 2 ] >= 1033.56
quadratic_ranged_440_lb: [ 1 x_22_ ^ 2 - 2 x_87_ * x_22_ + 1 x_87_ ^ 2 + 1 y_22_ ^ 2 - 2 y_87_ * y_22_ + 1 y_87_ ^ 2 ] >= 27051.75
quadratic_ranged_441_lb: [ 1 x_44_ ^ 2 - 2 x_87_ * x_44_ + 1 x_87_ ^ 2 + 1 y_44_ ^ 2 - 2 y_87_ * y_44_ + 1 y_87_ ^ 2 ] >= 10978.11
quadratic_ranged_442_lb: [ 1 x_49_ ^ 2 - 2 x_87_ * x_49_ + 1 x_87_ ^ 2 + 1 y_49_ ^ 2 - 2 y_87_ * y_49_ + 1 y_87_ ^ 2 ] >= 12454.2
quadratic_ranged_443_lb: [ 1 x_57_ ^ 2 - 2 x_87_ * x_57_ + 1 x_87_ ^ 2 + 1 y_57_ ^ 2 - 2 y_87_ * y_57_ + 1 y_87_ ^ 2 ] >= 1540.44
quadratic_ranged_444_lb: [ 1 x_66_ ^ 2 - 2 x_87_ * x_66_ + 1 x_87_ ^ 2 + 1 y_66_ ^ 2 - 2 y_87_ * y_66_ + 1 y_87_ ^ 2 ] >= 5141.07
quadratic_ranged_445_lb: [ 1 x_81_ ^ 2 - 2 x_87_ * x_81_ + 1 x_87_ ^ 2 + 1 y_81_ ^ 2 - 2 y_87_ * y_81_ + 1 y_87_ ^ 2 ] >= 10527.66
quadratic_ranged_446_lb: [ 1 x_86_ ^ 2 - 2 x_87_ * x_86_ + 1 x_87_ ^ 2 + 1 y_86_ ^ 2 - 2 y_87_ * y_86_ + 1 y_87_ ^ 2 ] >= 21694.86
quadratic_ranged_447_lb: [ 1 x_2_ ^ 2 - 2 x_88_ * x_2_ + 1 x_88_ ^ 2 + 1 y_2_ ^ 2 - 2 y_88_ * y_2_ + 1 y_88_ ^ 2 ] >= 17131.95
quadratic_ranged_448_lb: [ 1 x_3_ ^ 2 - 2 x_88_ * x_3_ + 1 x_88_ ^ 2 + 1 y_3_ ^ 2 - 2 y_88_ * y_3_ + 1 y_88_ ^ 2 ] >= 1087.02
quadratic_ranged_449_lb: [ 1 x_21_ ^ 2 - 2 x_88_ * x_21_ + 1 x_88_ ^ 2 + 1 y_21_ ^ 2 - 2 y_88_ * y_21_ + 1 y_88_ ^ 2 ] >= 9374.31
quadratic_ranged_450_lb: [ 1 x_27_ ^ 2 - 2 x_88_ * x_27_ + 1 x_88_ ^ 2 + 1 y_27_ ^ 2 - 2 y_88_ * y_27_ + 1 y_88_ ^ 2 ] >= 14759.91
quadratic_ranged_451_lb: [ 1 x_31_ ^ 2 - 2 x_88_ * x_31_ + 1 x_88_ ^ 2 + 1 y_31_ ^ 2 - 2 y_88_ * y_31_ + 1 y_88_ ^ 2 ] >= 7920
quadratic_ranged_452_lb: [ 1 x_37_ ^ 2 - 2 x_88_ * x_37_ + 1 x_88_ ^ 2 + 1 y_37_ ^ 2 - 2 y_88_ * y_37_ + 1 y_88_ ^ 2 ] >= 1932.48
quadratic_ranged_453_lb: [ 1 x_40_ ^ 2 - 2 x_88_ * x_40_ + 1 x_88_ ^ 2 + 1 y_40_ ^ 2 - 2 y_88_ * y_40_ + 1 y_88_ ^ 2 ] >= 3287.79
quadratic_ranged_454_lb: [ 1 x_48_ ^ 2 - 2 x_88_ * x_48_ + 1 x_88_ ^ 2 + 1 y_48_ ^ 2 - 2 y_88_ * y_48_ + 1 y_88_ ^ 2 ] >= 15444.99
quadratic_ranged_455_lb: [ 1 x_52_ ^ 2 - 2 x_88_ * x_52_ + 1 x_88_ ^ 2 + 1 y_52_ ^ 2 - 2 y_88_ * y_52_ + 1 y_88_ ^ 2 ] >= 7167.6
quadratic_ranged_456_lb: [ 1 x_55_ ^ 2 - 2 x_88_ * x_55_ + 1 x_88_ ^ 2 + 1 y_55_ ^ 2 - 2 y_88_ * y_55_ + 1 y_88_ ^ 2 ] >= 123.75
quadratic_ranged_457_lb: [ 1 x_85_ ^ 2 - 2 x_88_ * x_85_ + 1 x_88_ ^ 2 + 1 y_85_ ^ 2 - 2 y_88_ * y_85_ + 1 y_88_ ^ 2 ] >= 29755.44
quadratic_ranged_458_lb: [ 1 x_86_ ^ 2 - 2 x_88_ * x_86_ + 1 x_88_ ^ 2 + 1 y_86_ ^ 2 - 2 y_88_ * y_86_ + 1 y_88_ ^ 2 ] >= 5971.68
quadratic_ranged_459_lb: [ 1 x_87_ ^ 2 - 2 x_88_ * x_87_ + 1 x_88_ ^ 2 + 1 y_87_ ^ 2 - 2 y_88_ * y_87_ + 1 y_88_ ^ 2 ] >= 16475.579999999998
quadratic_ranged_460_lb: [ 1 x_47_ ^ 2 - 2 x_89_ * x_47_ + 1 x_89_ ^ 2 + 1 y_47_ ^ 2 - 2 y_89_ * y_47_ + 1 y_89_ ^ 2 ] >= 690.03
quadratic_ranged_461_lb: [ 1 x_54_ ^ 2 - 2 x_89_ * x_54_ + 1 x_89_ ^ 2 + 1 y_54_ ^ 2 - 2 y_89_ * y_54_ + 1 y_89_ ^ 2 ] >= 24839.1
quadratic_ranged_462_lb: [ 1 x_62_ ^ 2 - 2 x_89_ * x_62_ + 1 x_89_ ^ 2 + 1 y_62_ ^ 2 - 2 y_89_ * y_62_ + 1 y_89_ ^ 2 ] >= 26532.989999999998
quadratic_ranged_463_lb: [ 1 x_65_ ^ 2 - 2 x_89_ * x_65_ + 1 x_89_ ^ 2 + 1 y_65_ ^ 2 - 2 y_89_ * y_65_ + 1 y_89_ ^ 2 ] >= 3826.35
quadratic_ranged_464_lb: [ 1 x_66_ ^ 2 - 2 x_89_ * x_66_ + 1 x_89_ ^ 2 + 1 y_66_ ^ 2 - 2 y_89_ * y_66_ + 1 y_89_ ^ 2 ] >= 6108.3
quadratic_ranged_465_lb: [ 1 x_67_ ^ 2 - 2 x_89_ * x_67_ + 1 x_89_ ^ 2 + 1 y_67_ ^ 2 - 2 y_89_ * y_67_ + 1 y_89_ ^ 2 ] >= 2519.55
quadratic_ranged_466_lb: [ 1 x_70_ ^ 2 - 2 x_89_ * x_70_ + 1 x_89_ ^ 2 + 1 y_70_ ^ 2 - 2 y_89_ * y_70_ + 1 y_89_ ^ 2 ] >= 15698.43
quadratic_ranged_467_lb: [ 1 x_72_ ^ 2 - 2 x_89_ * x_72_ + 1 x_89_ ^ 2 + 1 y_72_ ^ 2 - 2 y_89_ * y_72_ + 1 y_89_ ^ 2 ] >= 32294.79
quadratic_ranged_468_lb: [ 1 x_74_ ^ 2 - 2 x_89_ * x_74_ + 1 x_89_ ^ 2 + 1 y_74_ ^ 2 - 2 y_89_ * y_74_ + 1 y_89_ ^ 2 ] >= 5753.88
quadratic_ranged_469_lb: [ 1 x_88_ ^ 2 - 2 x_89_ * x_88_ + 1 x_89_ ^ 2 + 1 y_88_ ^ 2 - 2 y_89_ * y_88_ + 1 y_89_ ^ 2 ] >= 64.35
quadratic_ranged_470_lb: [ 1 x_3_ ^ 2 - 2 x_90_ * x_3_ + 1 x_90_ ^ 2 + 1 y_3_ ^ 2 - 2 y_90_ * y_3_ + 1 y_90_ ^ 2 ] >= 7326
quadratic_ranged_471_lb: [ 1 x_8_ ^ 2 - 2 x_90_ * x_8_ + 1 x_90_ ^ 2 + 1 y_8_ ^ 2 - 2 y_90_ * y_8_ + 1 y_90_ ^ 2 ] >= 39347.55
quadratic_ranged_472_lb: [ 1 x_13_ ^ 2 - 2 x_90_ * x_13_ + 1 x_90_ ^ 2 + 1 y_13_ ^ 2 - 2 y_90_ * y_13_ + 1 y_90_ ^ 2 ] >= 19143.63
quadratic_ranged_473_lb: [ 1 x_33_ ^ 2 - 2 x_90_ * x_33_ + 1 x_90_ ^ 2 + 1 y_33_ ^ 2 - 2 y_90_ * y_33_ + 1 y_90_ ^ 2 ] >= 13927.32
quadratic_ranged_474_lb: [ 1 x_34_ ^ 2 - 2 x_90_ * x_34_ + 1 x_90_ ^ 2 + 1 y_34_ ^ 2 - 2 y_90_ * y_34_ + 1 y_90_ ^ 2 ] >= 1988.91
quadratic_ranged_475_lb: [ 1 x_80_ ^ 2 - 2 x_90_ * x_80_ + 1 x_90_ ^ 2 + 1 y_80_ ^ 2 - 2 y_90_ * y_80_ + 1 y_90_ ^ 2 ] >= 8079.39
quadratic_ranged_476_lb: [ 1 x_82_ ^ 2 - 2 x_90_ * x_82_ + 1 x_90_ ^ 2 + 1 y_82_ ^ 2 - 2 y_90_ * y_82_ + 1 y_90_ ^ 2 ] >= 8617.95
quadratic_ranged_477_lb: [ 1 x_89_ ^ 2 - 2 x_90_ * x_89_ + 1 x_90_ ^ 2 + 1 y_89_ ^ 2 - 2 y_90_ * y_89_ + 1 y_90_ ^ 2 ] >= 6336.99
quadratic_ranged_478_lb: [ 1 x_1_ ^ 2 - 2 x_91_ * x_1_ + 1 x_91_ ^ 2 + 1 y_1_ ^ 2 - 2 y_91_ * y_1_ + 1 y_91_ ^ 2 ] >= 1984.95
quadratic_ranged_479_lb: [ 1 x_13_ ^ 2 - 2 x_91_ * x_13_ + 1 x_91_ ^ 2 + 1 y_13_ ^ 2 - 2 y_91_ * y_13_ + 1 y_91_ ^ 2 ] >= 5860.8
quadratic_ranged_480_lb: [ 1 x_14_ ^ 2 - 2 x_91_ * x_14_ + 1 x_91_ ^ 2 + 1 y_14_ ^ 2 - 2 y_91_ * y_14_ + 1 y_91_ ^ 2 ] >= 15817.23
quadratic_ranged_481_lb: [ 1 x_20_ ^ 2 - 2 x_91_ * x_20_ + 1 x_91_ ^ 2 + 1 y_20_ ^ 2 - 2 y_91_ * y_20_ + 1 y_91_ ^ 2 ] >= 3930.3
quadratic_ranged_482_lb: [ 1 x_26_ ^ 2 - 2 x_91_ * x_26_ + 1 x_91_ ^ 2 + 1 y_26_ ^ 2 - 2 y_91_ * y_26_ + 1 y_91_ ^ 2 ] >= 1673.1
quadratic_ranged_483_lb: [ 1 x_35_ ^ 2 - 2 x_91_ * x_35_ + 1 x_91_ ^ 2 + 1 y_35_ ^ 2 - 2 y_91_ * y_35_ + 1 y_91_ ^ 2 ] >= 8365.5
quadratic_ranged_484_lb: [ 1 x_40_ ^ 2 - 2 x_91_ * x_40_ + 1 x_91_ ^ 2 + 1 y_40_ ^ 2 - 2 y_91_ * y_40_ + 1 y_91_ ^ 2 ] >= 1287
quadratic_ranged_485_lb: [ 1 x_79_ ^ 2 - 2 x_91_ * x_79_ + 1 x_91_ ^ 2 + 1 y_79_ ^ 2 - 2 y_91_ * y_79_ + 1 y_91_ ^ 2 ] >= 2154.24
quadratic_ranged_486_lb: [ 1 x_90_ ^ 2 - 2 x_91_ * x_90_ + 1 x_91_ ^ 2 + 1 y_90_ ^ 2 - 2 y_91_ * y_90_ + 1 y_91_ ^ 2 ] >= 15635.07
quadratic_ranged_487_lb: [ 1 x_4_ ^ 2 - 2 x_92_ * x_4_ + 1 x_92_ ^ 2 + 1 y_4_ ^ 2 - 2 y_92_ * y_4_ + 1 y_92_ ^ 2 ] >= 786.06
quadratic_ranged_488_lb: [ 1 x_8_ ^ 2 - 2 x_92_ * x_8_ + 1 x_92_ ^ 2 + 1 y_8_ ^ 2 - 2 y_92_ * y_8_ + 1 y_92_ ^ 2 ] >= 1763.19
quadratic_ranged_489_lb: [ 1 x_9_ ^ 2 - 2 x_92_ * x_9_ + 1 x_92_ ^ 2 + 1 y_9_ ^ 2 - 2 y_92_ * y_9_ + 1 y_92_ ^ 2 ] >= 29781.18
quadratic_ranged_490_lb: [ 1 x_14_ ^ 2 - 2 x_92_ * x_14_ + 1 x_92_ ^ 2 + 1 y_14_ ^ 2 - 2 y_92_ * y_14_ + 1 y_92_ ^ 2 ] >= 37323
quadratic_ranged_491_lb: [ 1 x_30_ ^ 2 - 2 x_92_ * x_30_ + 1 x_92_ ^ 2 + 1 y_30_ ^ 2 - 2 y_92_ * y_30_ + 1 y_92_ ^ 2 ] >= 15741.99
quadratic_ranged_492_lb: [ 1 x_37_ ^ 2 - 2 x_92_ * x_37_ + 1 x_92_ ^ 2 + 1 y_37_ ^ 2 - 2 y_92_ * y_37_ + 1 y_92_ ^ 2 ] >= 15445.98
quadratic_ranged_493_lb: [ 1 x_39_ ^ 2 - 2 x_92_ * x_39_ + 1 x_92_ ^ 2 + 1 y_39_ ^ 2 - 2 y_92_ * y_39_ + 1 y_92_ ^ 2 ] >= 11338.47
quadratic_ranged_494_lb: [ 1 x_44_ ^ 2 - 2 x_92_ * x_44_ + 1 x_92_ ^ 2 + 1 y_44_ ^ 2 - 2 y_92_ * y_44_ + 1 y_92_ ^ 2 ] >= 2076.03
quadratic_ranged_495_lb: [ 1 x_52_ ^ 2 - 2 x_92_ * x_52_ + 1 x_92_ ^ 2 + 1 y_52_ ^ 2 - 2 y_92_ * y_52_ + 1 y_92_ ^ 2 ] >= 3851.1
quadratic_ranged_496_lb: [ 1 x_53_ ^ 2 - 2 x_92_ * x_53_ + 1 x_92_ ^ 2 + 1 y_53_ ^ 2 - 2 y_92_ * y_53_ + 1 y_92_ ^ 2 ] >= 1169.19
quadratic_ranged_497_lb: [ 1 x_54_ ^ 2 - 2 x_92_ * x_54_ + 1 x_92_ ^ 2 + 1 y_54_ ^ 2 - 2 y_92_ * y_54_ + 1 y_92_ ^ 2 ] >= 18403.11
quadratic_ranged_498_lb: [ 1 x_61_ ^ 2 - 2 x_92_ * x_61_ + 1 x_92_ ^ 2 + 1 y_61_ ^ 2 - 2 y_92_ * y_61_ + 1 y_92_ ^ 2 ] >= 16681.5
quadratic_ranged_499_lb: [ 1 x_85_ ^ 2 - 2 x_92_ * x_85_ + 1 x_92_ ^ 2 + 1 y_85_ ^ 2 - 2 y_92_ * y_85_ + 1 y_92_ ^ 2 ] >= 33962.94
quadratic_ranged_500_lb: [ 1 x_88_ ^ 2 - 2 x_92_ * x_88_ + 1 x_92_ ^ 2 + 1 y_88_ ^ 2 - 2 y_92_ * y_88_ + 1 y_92_ ^ 2 ] >= 21037.5
quadratic_ranged_501_lb: [ 1 x_90_ ^ 2 - 2 x_92_ * x_90_ + 1 x_92_ ^ 2 + 1 y_90_ ^ 2 - 2 y_92_ * y_90_ + 1 y_92_ ^ 2 ] >= 37263.6
quadratic_ranged_502_lb: [ 1 x_91_ ^ 2 - 2 x_92_ * x_91_ + 1 x_92_ ^ 2 + 1 y_91_ ^ 2 - 2 y_92_ * y_91_ + 1 y_92_ ^ 2 ] >= 4669.83
quadratic_ranged_503_lb: [ 1 x_11_ ^ 2 - 2 x_93_ * x_11_ + 1 x_93_ ^ 2 + 1 y_11_ ^ 2 - 2 y_93_ * y_11_ + 1 y_93_ ^ 2 ] >= 1750.32
quadratic_ranged_504_lb: [ 1 x_21_ ^ 2 - 2 x_93_ * x_21_ + 1 x_93_ ^ 2 + 1 y_21_ ^ 2 - 2 y_93_ * y_21_ + 1 y_93_ ^ 2 ] >= 2764.08
quadratic_ranged_505_lb: [ 1 x_25_ ^ 2 - 2 x_93_ * x_25_ + 1 x_93_ ^ 2 + 1 y_25_ ^ 2 - 2 y_93_ * y_25_ + 1 y_93_ ^ 2 ] >= 17069.579999999998
quadratic_ranged_506_lb: [ 1 x_26_ ^ 2 - 2 x_93_ * x_26_ + 1 x_93_ ^ 2 + 1 y_26_ ^ 2 - 2 y_93_ * y_26_ + 1 y_93_ ^ 2 ] >= 6478.5599999999995
quadratic_ranged_507_lb: [ 1 x_35_ ^ 2 - 2 x_93_ * x_35_ + 1 x_93_ ^ 2 + 1 y_35_ ^ 2 - 2 y_93_ * y_35_ + 1 y_93_ ^ 2 ] >= 1318.68
quadratic_ranged_508_lb: [ 1 x_51_ ^ 2 - 2 x_93_ * x_51_ + 1 x_93_ ^ 2 + 1 y_51_ ^ 2 - 2 y_93_ * y_51_ + 1 y_93_ ^ 2 ] >= 26069.67
quadratic_ranged_509_lb: [ 1 x_52_ ^ 2 - 2 x_93_ * x_52_ + 1 x_93_ ^ 2 + 1 y_52_ ^ 2 - 2 y_93_ * y_52_ + 1 y_93_ ^ 2 ] >= 5675.67
quadratic_ranged_510_lb: [ 1 x_53_ ^ 2 - 2 x_93_ * x_53_ + 1 x_93_ ^ 2 + 1 y_53_ ^ 2 - 2 y_93_ * y_53_ + 1 y_93_ ^ 2 ] >= 11836.44
quadratic_ranged_511_lb: [ 1 x_54_ ^ 2 - 2 x_93_ * x_54_ + 1 x_93_ ^ 2 + 1 y_54_ ^ 2 - 2 y_93_ * y_54_ + 1 y_93_ ^ 2 ] >= 14851.98
quadratic_ranged_512_lb: [ 1 x_64_ ^ 2 - 2 x_93_ * x_64_ + 1 x_93_ ^ 2 + 1 y_64_ ^ 2 - 2 y_93_ * y_64_ + 1 y_93_ ^ 2 ] >= 4321.35
quadratic_ranged_513_lb: [ 1 x_67_ ^ 2 - 2 x_93_ * x_67_ + 1 x_93_ ^ 2 + 1 y_67_ ^ 2 - 2 y_93_ * y_67_ + 1 y_93_ ^ 2 ] >= 3925.35
quadratic_ranged_514_lb: [ 1 x_86_ ^ 2 - 2 x_93_ * x_86_ + 1 x_93_ ^ 2 + 1 y_86_ ^ 2 - 2 y_93_ * y_86_ + 1 y_93_ ^ 2 ] >= 8625.87
quadratic_ranged_515_lb: [ 1 x_87_ ^ 2 - 2 x_93_ * x_87_ + 1 x_93_ ^ 2 + 1 y_87_ ^ 2 - 2 y_93_ * y_87_ + 1 y_93_ ^ 2 ] >= 6859.71
quadratic_ranged_516_lb: [ 1 x_92_ ^ 2 - 2 x_93_ * x_92_ + 1 x_93_ ^ 2 + 1 y_92_ ^ 2 - 2 y_93_ * y_92_ + 1 y_93_ ^ 2 ] >= 18549.63
quadratic_ranged_517_lb: [ 1 x_5_ ^ 2 - 2 x_94_ * x_5_ + 1 x_94_ ^ 2 + 1 y_5_ ^ 2 - 2 y_94_ * y_5_ + 1 y_94_ ^ 2 ] >= 29044.62
quadratic_ranged_518_lb: [ 1 x_36_ ^ 2 - 2 x_94_ * x_36_ + 1 x_94_ ^ 2 + 1 y_36_ ^ 2 - 2 y_94_ * y_36_ + 1 y_94_ ^ 2 ] >= 5940.99
quadratic_ranged_519_lb: [ 1 x_39_ ^ 2 - 2 x_94_ * x_39_ + 1 x_94_ ^ 2 + 1 y_39_ ^ 2 - 2 y_94_ * y_39_ + 1 y_94_ ^ 2 ] >= 23432.31
quadratic_ranged_520_lb: [ 1 x_40_ ^ 2 - 2 x_94_ * x_40_ + 1 x_94_ ^ 2 + 1 y_40_ ^ 2 - 2 y_94_ * y_40_ + 1 y_94_ ^ 2 ] >= 16668.63
quadratic_ranged_521_lb: [ 1 x_41_ ^ 2 - 2 x_94_ * x_41_ + 1 x_94_ ^ 2 + 1 y_41_ ^ 2 - 2 y_94_ * y_41_ + 1 y_94_ ^ 2 ] >= 37545.75
quadratic_ranged_522_lb: [ 1 x_54_ ^ 2 - 2 x_94_ * x_54_ + 1 x_94_ ^ 2 + 1 y_54_ ^ 2 - 2 y_94_ * y_54_ + 1 y_94_ ^ 2 ] >= 16434.99
quadratic_ranged_523_lb: [ 1 x_55_ ^ 2 - 2 x_94_ * x_55_ + 1 x_94_ ^ 2 + 1 y_55_ ^ 2 - 2 y_94_ * y_55_ + 1 y_94_ ^ 2 ] >= 9944.55
quadratic_ranged_524_lb: [ 1 x_59_ ^ 2 - 2 x_94_ * x_59_ + 1 x_94_ ^ 2 + 1 y_59_ ^ 2 - 2 y_94_ * y_59_ + 1 y_94_ ^ 2 ] >= 1461.24
quadratic_ranged_525_lb: [ 1 x_93_ ^ 2 - 2 x_94_ * x_93_ + 1 x_94_ ^ 2 + 1 y_93_ ^ 2 - 2 y_94_ * y_93_ + 1 y_94_ ^ 2 ] >= 4079.79
quadratic_ranged_526_lb: [ 1 x_13_ ^ 2 - 2 x_95_ * x_13_ + 1 x_95_ ^ 2 + 1 y_13_ ^ 2 - 2 y_95_ * y_13_ + 1 y_95_ ^ 2 ] >= 27408.15
quadratic_ranged_527_lb: [ 1 x_19_ ^ 2 - 2 x_95_ * x_19_ + 1 x_95_ ^ 2 + 1 y_19_ ^ 2 - 2 y_95_ * y_19_ + 1 y_95_ ^ 2 ] >= 293.04
quadratic_ranged_528_lb: [ 1 x_23_ ^ 2 - 2 x_95_ * x_23_ + 1 x_95_ ^ 2 + 1 y_23_ ^ 2 - 2 y_95_ * y_23_ + 1 y_95_ ^ 2 ] >= 43410.51
quadratic_ranged_529_lb: [ 1 x_27_ ^ 2 - 2 x_95_ * x_27_ + 1 x_95_ ^ 2 + 1 y_27_ ^ 2 - 2 y_95_ * y_27_ + 1 y_95_ ^ 2 ] >= 30239.55
quadratic_ranged_530_lb: [ 1 x_47_ ^ 2 - 2 x_95_ * x_47_ + 1 x_95_ ^ 2 + 1 y_47_ ^ 2 - 2 y_95_ * y_47_ + 1 y_95_ ^ 2 ] >= 20245.5
quadratic_ranged_531_lb: [ 1 x_48_ ^ 2 - 2 x_95_ * x_48_ + 1 x_95_ ^ 2 + 1 y_48_ ^ 2 - 2 y_95_ * y_48_ + 1 y_95_ ^ 2 ] >= 3359.07
quadratic_ranged_532_lb: [ 1 x_94_ ^ 2 - 2 x_95_ * x_94_ + 1 x_95_ ^ 2 + 1 y_94_ ^ 2 - 2 y_95_ * y_94_ + 1 y_95_ ^ 2 ] >= 31879.98
quadratic_ranged_533_lb: [ 1 x_16_ ^ 2 - 2 x_96_ * x_16_ + 1 x_96_ ^ 2 + 1 y_16_ ^ 2 - 2 y_96_ * y_16_ + 1 y_96_ ^ 2 ] >= 7188.39
quadratic_ranged_534_lb: [ 1 x_34_ ^ 2 - 2 x_96_ * x_34_ + 1 x_96_ ^ 2 + 1 y_34_ ^ 2 - 2 y_96_ * y_34_ + 1 y_96_ ^ 2 ] >= 17022.06
quadratic_ranged_535_lb: [ 1 x_41_ ^ 2 - 2 x_96_ * x_41_ + 1 x_96_ ^ 2 + 1 y_41_ ^ 2 - 2 y_96_ * y_41_ + 1 y_96_ ^ 2 ] >= 7167.6
quadratic_ranged_536_lb: [ 1 x_53_ ^ 2 - 2 x_96_ * x_53_ + 1 x_96_ ^ 2 + 1 y_53_ ^ 2 - 2 y_96_ * y_53_ + 1 y_96_ ^ 2 ] >= 1370.16
quadratic_ranged_537_lb: [ 1 x_59_ ^ 2 - 2 x_96_ * x_59_ + 1 x_96_ ^ 2 + 1 y_59_ ^ 2 - 2 y_96_ * y_59_ + 1 y_96_ ^ 2 ] >= 20759.31
quadratic_ranged_538_lb: [ 1 x_72_ ^ 2 - 2 x_96_ * x_72_ + 1 x_96_ ^ 2 + 1 y_72_ ^ 2 - 2 y_96_ * y_72_ + 1 y_96_ ^ 2 ] >= 23325.39
quadratic_ranged_539_lb: [ 1 x_76_ ^ 2 - 2 x_96_ * x_76_ + 1 x_96_ ^ 2 + 1 y_76_ ^ 2 - 2 y_96_ * y_76_ + 1 y_96_ ^ 2 ] >= 8731.8
quadratic_ranged_540_lb: [ 1 x_85_ ^ 2 - 2 x_96_ * x_85_ + 1 x_96_ ^ 2 + 1 y_85_ ^ 2 - 2 y_96_ * y_85_ + 1 y_96_ ^ 2 ] >= 33716.43
quadratic_ranged_541_lb: [ 1 x_86_ ^ 2 - 2 x_96_ * x_86_ + 1 x_96_ ^ 2 + 1 y_86_ ^ 2 - 2 y_96_ * y_86_ + 1 y_96_ ^ 2 ] >= 2935.35
quadratic_ranged_542_lb: [ 1 x_95_ ^ 2 - 2 x_96_ * x_95_ + 1 x_96_ ^ 2 + 1 y_95_ ^ 2 - 2 y_96_ * y_95_ + 1 y_96_ ^ 2 ] >= 8202.15
quadratic_ranged_543_lb: [ 1 x_6_ ^ 2 - 2 x_97_ * x_6_ + 1 x_97_ ^ 2 + 1 y_6_ ^ 2 - 2 y_97_ * y_6_ + 1 y_97_ ^ 2 ] >= 33109.56
quadratic_ranged_544_lb: [ 1 x_22_ ^ 2 - 2 x_97_ * x_22_ + 1 x_97_ ^ 2 + 1 y_22_ ^ 2 - 2 y_97_ * y_22_ + 1 y_97_ ^ 2 ] >= 29289.15
quadratic_ranged_545_lb: [ 1 x_26_ ^ 2 - 2 x_97_ * x_26_ + 1 x_97_ ^ 2 + 1 y_26_ ^ 2 - 2 y_97_ * y_26_ + 1 y_97_ ^ 2 ] >= 26378.55
quadratic_ranged_546_lb: [ 1 x_44_ ^ 2 - 2 x_97_ * x_44_ + 1 x_97_ ^ 2 + 1 y_44_ ^ 2 - 2 y_97_ * y_44_ + 1 y_97_ ^ 2 ] >= 31403.79
quadratic_ranged_547_lb: [ 1 x_52_ ^ 2 - 2 x_97_ * x_52_ + 1 x_97_ ^ 2 + 1 y_52_ ^ 2 - 2 y_97_ * y_52_ + 1 y_97_ ^ 2 ] >= 26155.8
quadratic_ranged_548_lb: [ 1 x_59_ ^ 2 - 2 x_97_ * x_59_ + 1 x_97_ ^ 2 + 1 y_59_ ^ 2 - 2 y_97_ * y_59_ + 1 y_97_ ^ 2 ] >= 6520.14
quadratic_ranged_549_lb: [ 1 x_68_ ^ 2 - 2 x_97_ * x_68_ + 1 x_97_ ^ 2 + 1 y_68_ ^ 2 - 2 y_97_ * y_68_ + 1 y_97_ ^ 2 ] >= 51420.6
quadratic_ranged_550_lb: [ 1 x_85_ ^ 2 - 2 x_97_ * x_85_ + 1 x_97_ ^ 2 + 1 y_85_ ^ 2 - 2 y_97_ * y_85_ + 1 y_97_ ^ 2 ] >= 21783.96
quadratic_ranged_551_lb: [ 1 x_92_ ^ 2 - 2 x_97_ * x_92_ + 1 x_97_ ^ 2 + 1 y_92_ ^ 2 - 2 y_97_ * y_92_ + 1 y_97_ ^ 2 ] >= 49446.54
quadratic_ranged_552_lb: [ 1 x_96_ ^ 2 - 2 x_97_ * x_96_ + 1 x_97_ ^ 2 + 1 y_96_ ^ 2 - 2 y_97_ * y_96_ + 1 y_97_ ^ 2 ] >= 41367.15
quadratic_ranged_553_lb: [ 1 x_7_ ^ 2 - 2 x_98_ * x_7_ + 1 x_98_ ^ 2 + 1 y_7_ ^ 2 - 2 y_98_ * y_7_ + 1 y_98_ ^ 2 ] >= 21740.4
quadratic_ranged_554_lb: [ 1 x_14_ ^ 2 - 2 x_98_ * x_14_ + 1 x_98_ ^ 2 + 1 y_14_ ^ 2 - 2 y_98_ * y_14_ + 1 y_98_ ^ 2 ] >= 30240.54
quadratic_ranged_555_lb: [ 1 x_15_ ^ 2 - 2 x_98_ * x_15_ + 1 x_98_ ^ 2 + 1 y_15_ ^ 2 - 2 y_98_ * y_15_ + 1 y_98_ ^ 2 ] >= 9155.52
quadratic_ranged_556_lb: [ 1 x_36_ ^ 2 - 2 x_98_ * x_36_ + 1 x_98_ ^ 2 + 1 y_36_ ^ 2 - 2 y_98_ * y_36_ + 1 y_98_ ^ 2 ] >= 12538.35
quadratic_ranged_557_lb: [ 1 x_43_ ^ 2 - 2 x_98_ * x_43_ + 1 x_98_ ^ 2 + 1 y_43_ ^ 2 - 2 y_98_ * y_43_ + 1 y_98_ ^ 2 ] >= 2380.95
quadratic_ranged_558_lb: [ 1 x_56_ ^ 2 - 2 x_98_ * x_56_ + 1 x_98_ ^ 2 + 1 y_56_ ^ 2 - 2 y_98_ * y_56_ + 1 y_98_ ^ 2 ] >= 4072.86
quadratic_ranged_559_lb: [ 1 x_61_ ^ 2 - 2 x_98_ * x_61_ + 1 x_98_ ^ 2 + 1 y_61_ ^ 2 - 2 y_98_ * y_61_ + 1 y_98_ ^ 2 ] >= 5817.24
quadratic_ranged_560_lb: [ 1 x_78_ ^ 2 - 2 x_98_ * x_78_ + 1 x_98_ ^ 2 + 1 y_78_ ^ 2 - 2 y_98_ * y_78_ + 1 y_98_ ^ 2 ] >= 24142.14
quadratic_ranged_561_lb: [ 1 x_79_ ^ 2 - 2 x_98_ * x_79_ + 1 x_98_ ^ 2 + 1 y_79_ ^ 2 - 2 y_98_ * y_79_ + 1 y_98_ ^ 2 ] >= 3933.27
quadratic_ranged_562_lb: [ 1 x_97_ ^ 2 - 2 x_98_ * x_97_ + 1 x_98_ ^ 2 + 1 y_97_ ^ 2 - 2 y_98_ * y_97_ + 1 y_98_ ^ 2 ] >= 42344.28
quadratic_ranged_563_lb: [ 1 x_3_ ^ 2 - 2 x_99_ * x_3_ + 1 x_99_ ^ 2 + 1 y_3_ ^ 2 - 2 y_99_ * y_3_ + 1 y_99_ ^ 2 ] >= 9603
quadratic_ranged_564_lb: [ 1 x_10_ ^ 2 - 2 x_99_ * x_10_ + 1 x_99_ ^ 2 + 1 y_10_ ^ 2 - 2 y_99_ * y_10_ + 1 y_99_ ^ 2 ] >= 7608.15
quadratic_ranged_565_lb: [ 1 x_11_ ^ 2 - 2 x_99_ * x_11_ + 1 x_99_ ^ 2 + 1 y_11_ ^ 2 - 2 y_99_ * y_11_ + 1 y_99_ ^ 2 ] >= 4079.79
quadratic_ranged_566_lb: [ 1 x_16_ ^ 2 - 2 x_99_ * x_16_ + 1 x_99_ ^ 2 + 1 y_16_ ^ 2 - 2 y_99_ * y_16_ + 1 y_99_ ^ 2 ] >= 41520.6
quadratic_ranged_567_lb: [ 1 x_23_ ^ 2 - 2 x_99_ * x_23_ + 1 x_99_ ^ 2 + 1 y_23_ ^ 2 - 2 y_99_ * y_23_ + 1 y_99_ ^ 2 ] >= 4.95
quadratic_ranged_568_lb: [ 1 x_30_ ^ 2 - 2 x_99_ * x_30_ + 1 x_99_ ^ 2 + 1 y_30_ ^ 2 - 2 y_99_ * y_30_ + 1 y_99_ ^ 2 ] >= 27645.75
quadratic_ranged_569_lb: [ 1 x_33_ ^ 2 - 2 x_99_ * x_33_ + 1 x_99_ ^ 2 + 1 y_33_ ^ 2 - 2 y_99_ * y_33_ + 1 y_99_ ^ 2 ] >= 17265.6
quadratic_ranged_570_lb: [ 1 x_38_ ^ 2 - 2 x_99_ * x_38_ + 1 x_99_ ^ 2 + 1 y_38_ ^ 2 - 2 y_99_ * y_38_ + 1 y_99_ ^ 2 ] >= 915.75
quadratic_ranged_571_lb: [ 1 x_39_ ^ 2 - 2 x_99_ * x_39_ + 1 x_99_ ^ 2 + 1 y_39_ ^ 2 - 2 y_99_ * y_39_ + 1 y_99_ ^ 2 ] >= 34373.79
quadratic_ranged_572_lb: [ 1 x_41_ ^ 2 - 2 x_99_ * x_41_ + 1 x_99_ ^ 2 + 1 y_41_ ^ 2 - 2 y_99_ * y_41_ + 1 y_99_ ^ 2 ] >= 48376.35
quadratic_ranged_573_lb: [ 1 x_53_ ^ 2 - 2 x_99_ * x_53_ + 1 x_99_ ^ 2 + 1 y_53_ ^ 2 - 2 y_99_ * y_53_ + 1 y_99_ ^ 2 ] >= 32187.87
quadratic_ranged_574_lb: [ 1 x_58_ ^ 2 - 2 x_99_ * x_58_ + 1 x_99_ ^ 2 + 1 y_58_ ^ 2 - 2 y_99_ * y_58_ + 1 y_99_ ^ 2 ] >= 52248.24
quadratic_ranged_575_lb: [ 1 x_60_ ^ 2 - 2 x_99_ * x_60_ + 1 x_99_ ^ 2 + 1 y_60_ ^ 2 - 2 y_99_ * y_60_ + 1 y_99_ ^ 2 ] >= 22062.15
quadratic_ranged_576_lb: [ 1 x_74_ ^ 2 - 2 x_99_ * x_74_ + 1 x_99_ ^ 2 + 1 y_74_ ^ 2 - 2 y_99_ * y_74_ + 1 y_99_ ^ 2 ] >= 16945.829999999998
quadratic_ranged_577_lb: [ 1 x_98_ ^ 2 - 2 x_99_ * x_98_ + 1 x_99_ ^ 2 + 1 y_98_ ^ 2 - 2 y_99_ * y_98_ + 1 y_99_ ^ 2 ] >= 37043.82
quadratic_ranged_578_lb: [ 1 x_1_ ^ 2 - 2 x_100_ * x_1_ + 1 x_100_ ^ 2 + 1 y_1_ ^ 2 - 2 y_100_ * y_1_ + 1 y_100_ ^ 2 ] >= 6855.75
quadratic_ranged_579_lb: [ 1 x_24_ ^ 2 - 2 x_100_ * x_24_ + 1 x_100_ ^ 2 + 1 y_24_ ^ 2 - 2 y_100_ * y_24_ + 1 y_100_ ^ 2 ] >= 7652.7
quadratic_ranged_580_lb: [ 1 x_31_ ^ 2 - 2 x_100_ * x_31_ + 1 x_100_ ^ 2 + 1 y_31_ ^ 2 - 2 y_100_ * y_31_ + 1 y_100_ ^ 2 ] >= 5251.95
quadratic_ranged_581_lb: [ 1 x_42_ ^ 2 - 2 x_100_ * x_42_ + 1 x_100_ ^ 2 + 1 y_42_ ^ 2 - 2 y_100_ * y_42_ + 1 y_100_ ^ 2 ] >= 17025.03
quadratic_ranged_582_lb: [ 1 x_48_ ^ 2 - 2 x_100_ * x_48_ + 1 x_100_ ^ 2 + 1 y_48_ ^ 2 - 2 y_100_ * y_48_ + 1 y_100_ ^ 2 ] >= 10068.3
quadratic_ranged_583_lb: [ 1 x_85_ ^ 2 - 2 x_100_ * x_85_ + 1 x_100_ ^ 2 + 1 y_85_ ^ 2 - 2 y_100_ * y_85_ + 1 y_100_ ^ 2 ] >= 30417.75
quadratic_ranged_584_lb: [ 1 x_86_ ^ 2 - 2 x_100_ * x_86_ + 1 x_100_ ^ 2 + 1 y_86_ ^ 2 - 2 y_100_ * y_86_ + 1 y_100_ ^ 2 ] >= 824.67
quadratic_ranged_585_lb: [ 1 x_99_ ^ 2 - 2 x_100_ * x_99_ + 1 x_100_ ^ 2 + 1 y_99_ ^ 2 - 2 y_100_ * y_99_ + 1 y_100_ ^ 2 ] >= 16894.35
c1_1: 1 x_74_ = 2
c2_1: 1 y_74_ = -18
c3_1: 1 x_53_ = -34
c4_1: 1 y_53_ = -52
c5_1: 1 x_61_ = -74
c6_1: 1 y_61_ = 39
Bounds
-131 <= x_1_ <= 26
-125 <= x_2_ <= 55
-116 <= x_3_ <= 97
-55 <= x_4_ <= 28
-63 <= x_5_ <= 37
-104 <= x_6_ <= 51
-114 <= x_7_ <= 76
-74 <= x_8_ <= 6
-155 <= x_9_ <= 10
-63 <= x_10_ <= 60
-78 <= x_11_ <= 34
-149 <= x_12_ <= 120
-167 <= x_13_ <= 99
-165 <= x_14_ <= 125
-124 <= x_15_ <= -22
-144 <= x_16_ <= 53
-119 <= x_17_ <= 25
-66 <= x_18_ <= 22
-131 <= x_19_ <= 63
-174 <= x_20_ <= 99
-122 <= x_21_ <= 112
-154 <= x_22_ <= 92
-131 <= x_23_ <= 99
-58 <= x_24_ <= -10
-155 <= x_25_ <= 87
-155 <= x_26_ <= 110
-119 <= x_27_ <= 123
-49 <= x_28_ <= 39
-89 <= x_29_ <= 80
-176 <= x_30_ <= 114
-134 <= x_31_ <= 96
-93 <= x_32_ <= 79
-112 <= x_33_ <= 103
-180 <= x_34_ <= 116
-157 <= x_35_ <= 112
-139 <= x_36_ <= 81
-86 <= x_37_ <= 90
-120 <= x_38_ <= 118
-87 <= x_39_ <= 46
-140 <= x_40_ <= 105
-95 <= x_41_ <= 88
-150 <= x_42_ <= 138
-138 <= x_43_ <= 52
-114 <= x_44_ <= 46
-124 <= x_45_ <= 35
-88 <= x_46_ <= -1
-101 <= x_47_ <= 105
-90 <= x_48_ <= 22
-144 <= x_49_ <= 115
-104 <= x_50_ <= 77
-101 <= x_51_ <= 100
-76 <= x_52_ <= 8
x_53_ = -34
-97 <= x_54_ <= 71
-93 <= x_55_ <= 97
-82 <= x_56_ <= 38
-114 <= x_57_ <= 65
-139 <= x_58_ <= 125
-84 <= x_59_ <= 27
-137 <= x_60_ <= 105
x_61_ = -74
-100 <= x_62_ <= -48
-90 <= x_63_ <= 57
-111 <= x_64_ <= 35
-128 <= x_65_ <= 70
-153 <= x_66_ <= 107
-125 <= x_67_ <= 129
-125 <= x_68_ <= 99
-147 <= x_69_ <= 103
-57 <= x_70_ <= 61
-136 <= x_71_ <= 115
-114 <= x_72_ <= 108
-125 <= x_73_ <= 115
x_74_ = 2
-25 <= x_75_ <= 29
-58 <= x_76_ <= 44
-104 <= x_77_ <= 21
-164 <= x_78_ <= 96
-71 <= x_79_ <= 66
-44 <= x_80_ <= 48
-130 <= x_81_ <= 124
-132 <= x_82_ <= 91
-116 <= x_83_ <= 70
-138 <= x_84_ <= 48
-129 <= x_85_ <= 41
-121 <= x_86_ <= 58
-154 <= x_87_ <= 105
-82 <= x_88_ <= 86
-74 <= x_89_ <= 78
-135 <= x_90_ <= 139
-118 <= x_91_ <= 69
-68 <= x_92_ <= 0
-120 <= x_93_ <= 75
-123 <= x_94_ <= 65
-148 <= x_95_ <= 80
-71 <= x_96_ <= 3
-166 <= x_97_ <= 108
-135 <= x_98_ <= 3
-129 <= x_99_ <= 99
-146 <= x_100_ <= 78
-61 <= y_1_ <= 68
-90 <= y_2_ <= 39
-132 <= y_3_ <= 100
-75 <= y_4_ <= 10
-83 <= y_5_ <= 19
-86 <= y_6_ <= 39
-111 <= y_7_ <= 98
-92 <= y_8_ <= -12
-45 <= y_9_ <= 110
-83 <= y_10_ <= 47
-69 <= y_11_ <= 62
-155 <= y_12_ <= 133
-151 <= y_13_ <= 81
-160 <= y_14_ <= 149
-13 <= y_15_ <= 79
-88 <= y_16_ <= 61
-60 <= y_17_ <= 33
-57 <= y_18_ <= 50
-125 <= y_19_ <= 45
-134 <= y_20_ <= 98
-142 <= y_21_ <= 106
-174 <= y_22_ <= 74
-134 <= y_23_ <= 115
-76 <= y_24_ <= -28
-173 <= y_25_ <= 69
-148 <= y_26_ <= 92
-139 <= y_27_ <= 103
-69 <= y_28_ <= 33
-109 <= y_29_ <= 62
-168 <= y_30_ <= 96
-131 <= y_31_ <= 90
-113 <= y_32_ <= 77
-132 <= y_33_ <= 96
-182 <= y_34_ <= 98
-148 <= y_35_ <= 94
-116 <= y_36_ <= 123
-106 <= y_37_ <= 70
-140 <= y_38_ <= 100
-107 <= y_39_ <= 28
-143 <= y_40_ <= 87
-115 <= y_41_ <= 70
-170 <= y_42_ <= 134
-87 <= y_43_ <= 52
-111 <= y_44_ <= 28
-70 <= y_45_ <= 108
-34 <= y_46_ <= 72
-121 <= y_47_ <= 85
-88 <= y_48_ <= 4
-160 <= y_49_ <= 97
-112 <= y_50_ <= 59
-121 <= y_51_ <= 82
-94 <= y_52_ <= -10
y_53_ = -52
-117 <= y_54_ <= 53
-113 <= y_55_ <= 77
-73 <= y_56_ <= 65
-100 <= y_57_ <= 98
-159 <= y_58_ <= 123
-62 <= y_59_ <= 68
-140 <= y_60_ <= 108
y_61_ = 39
13 <= y_62_ <= 65
-92 <= y_63_ <= 74
-70 <= y_64_ <= 85
-105 <= y_65_ <= 110
-142 <= y_66_ <= 137
-145 <= y_67_ <= 109
-134 <= y_68_ <= 84
-138 <= y_69_ <= 91
-77 <= y_70_ <= 41
-156 <= y_71_ <= 97
-134 <= y_72_ <= 98
-145 <= y_73_ <= 97
y_74_ = -18
-45 <= y_75_ <= 9
-78 <= y_76_ <= 42
-56 <= y_77_ <= 88
-169 <= y_78_ <= 78
-91 <= y_79_ <= 55
-64 <= y_80_ <= 28
-150 <= y_81_ <= 114
-152 <= y_82_ <= 73
-105 <= y_83_ <= 85
-83 <= y_84_ <= 62
-76 <= y_85_ <= 100
-141 <= y_86_ <= 40
-140 <= y_87_ <= 134
-102 <= y_88_ <= 66
-94 <= y_89_ <= 58
-155 <= y_90_ <= 119
-106 <= y_91_ <= 51
-86 <= y_92_ <= -18
-111 <= y_93_ <= 57
-100 <= y_94_ <= 107
-142 <= y_95_ <= 62
-89 <= y_96_ <= -15
-143 <= y_97_ <= 150
-38 <= y_98_ <= 101
-134 <= y_99_ <= 113
-145 <= y_100_ <= 60
General
x_1_
x_2_
x_3_
x_4_
x_5_
x_6_
x_7_
x_8_
x_9_
x_10_
x_11_
x_12_
x_13_
x_14_
x_15_
x_16_
x_17_
x_18_
x_19_
x_20_
x_21_
x_22_
x_23_
x_24_
x_25_
x_26_
x_27_
x_28_
x_29_
x_30_
x_31_
x_32_
x_33_
x_34_
x_35_
x_36_
x_37_
x_38_
x_39_
x_40_
x_41_
x_42_
x_43_
x_44_
x_45_
x_46_
x_47_
x_48_
x_49_
x_50_
x_51_
x_52_
x_53_
x_54_
x_55_
x_56_
x_57_
x_58_
x_59_
x_60_
x_61_
x_62_
x_63_
x_64_
x_65_
x_66_
x_67_
x_68_
x_69_
x_70_
x_71_
x_72_
x_73_
x_74_
x_75_
x_76_
x_77_
x_78_
x_79_
x_80_
x_81_
x_82_
x_83_
x_84_
x_85_
x_86_
x_87_
x_88_
x_89_
x_90_
x_91_
x_92_
x_93_
x_94_
x_95_
x_96_
x_97_
x_98_
x_99_
x_100_
y_1_
y_2_
y_3_
y_4_
y_5_
y_6_
y_7_
y_8_
y_9_
y_10_
y_11_
y_12_
y_13_
y_14_
y_15_
y_16_
y_17_
y_18_
y_19_
y_20_
y_21_
y_22_
y_23_
y_24_
y_25_
y_26_
y_27_
y_28_
y_29_
y_30_
y_31_
y_32_
y_33_
y_34_
y_35_
y_36_
y_37_
y_38_
y_39_
y_40_
y_41_
y_42_
y_43_
y_44_
y_45_
y_46_
y_47_
y_48_
y_49_
y_50_
y_51_
y_52_
y_53_
y_54_
y_55_
y_56_
y_57_
y_58_
y_59_
y_60_
y_61_
y_62_
y_63_
y_64_
y_65_
y_66_
y_67_
y_68_
y_69_
y_70_
y_71_
y_72_
y_73_
y_74_
y_75_
y_76_
y_77_
y_78_
y_79_
y_80_
y_81_
y_82_
y_83_
y_84_
y_85_
y_86_
y_87_
y_88_
y_89_
y_90_
y_91_
y_92_
y_93_
y_94_
y_95_
y_96_
y_97_
y_98_
y_99_
y_100_
End
