minimize
obj: 
subject to
c1_1: -110 x_1_ - 148 y_1_ + [ 1 x_1_ ^ 2 + 1 y_1_ ^ 2 ] <= 18297
c2_1: -110 x_2_ - 148 y_2_ + [ 1 x_2_ ^ 2 + 1 y_2_ ^ 2 ] <= 11486
c3_1: -110 x_3_ - 148 y_3_ + [ 1 x_3_ ^ 2 + 1 y_3_ ^ 2 ] <= 13276
c4_1: -110 x_4_ - 148 y_4_ + [ 1 x_4_ ^ 2 + 1 y_4_ ^ 2 ] <= -2059
c5_1: -110 x_6_ - 148 y_6_ + [ 1 x_6_ ^ 2 + 1 y_6_ ^ 2 ] <= 3132
c6_1: -110 x_7_ - 148 y_7_ + [ 1 x_7_ ^ 2 + 1 y_7_ ^ 2 ] <= 4540
c7_1: -110 x_8_ - 148 y_8_ + [ 1 x_8_ ^ 2 + 1 y_8_ ^ 2 ] <= -6181
c8_1: -110 x_9_ - 148 y_9_ + [ 1 x_9_ ^ 2 + 1 y_9_ ^ 2 ] <= -1874
c9_1: -110 x_10_ - 148 y_10_ + [ 1 x_10_ ^ 2 + 1 y_10_ ^ 2 ] <= 3312
c10_1: -110 x_11_ - 148 y_11_ + [ 1 x_11_ ^ 2 + 1 y_11_ ^ 2 ] <= 21262
c11_1: -110 x_12_ - 148 y_12_ + [ 1 x_12_ ^ 2 + 1 y_12_ ^ 2 ] <= 10953
c12_1: -110 x_13_ - 148 y_13_ + [ 1 x_13_ ^ 2 + 1 y_13_ ^ 2 ] <= 16271
c13_1: -110 x_14_ - 148 y_14_ + [ 1 x_14_ ^ 2 + 1 y_14_ ^ 2 ] <= -7140
c14_1: -110 x_15_ - 148 y_15_ + [ 1 x_15_ ^ 2 + 1 y_15_ ^ 2 ] <= 2348
c15_1: -110 x_16_ - 148 y_16_ + [ 1 x_16_ ^ 2 + 1 y_16_ ^ 2 ] <= 344
c16_1: -110 x_17_ - 148 y_17_ + [ 1 x_17_ ^ 2 + 1 y_17_ ^ 2 ] <= 7206
c17_1: -110 x_18_ - 148 y_18_ + [ 1 x_18_ ^ 2 + 1 y_18_ ^ 2 ] <= 32883
c18_1: -110 x_19_ - 148 y_19_ + [ 1 x_19_ ^ 2 + 1 y_19_ ^ 2 ] <= -99
c19_1: -110 x_20_ - 148 y_20_ + [ 1 x_20_ ^ 2 + 1 y_20_ ^ 2 ] <= 42137
c20_1: -176 x_1_ + 178 y_1_ + [ 1 x_1_ ^ 2 + 1 y_1_ ^ 2 ] <= 5772
c21_1: -176 x_2_ + 178 y_2_ + [ 1 x_2_ ^ 2 + 1 y_2_ ^ 2 ] <= 3836
c22_1: -176 x_3_ + 178 y_3_ + [ 1 x_3_ ^ 2 + 1 y_3_ ^ 2 ] <= 36920
c23_1: -176 x_4_ + 178 y_4_ + [ 1 x_4_ ^ 2 + 1 y_4_ ^ 2 ] <= 9623
c24_1: -176 x_5_ + 178 y_5_ + [ 1 x_5_ ^ 2 + 1 y_5_ ^ 2 ] <= 25719
c25_1: -176 x_6_ + 178 y_6_ + [ 1 x_6_ ^ 2 + 1 y_6_ ^ 2 ] <= 22046
c26_1: -176 x_7_ + 178 y_7_ + [ 1 x_7_ ^ 2 + 1 y_7_ ^ 2 ] <= 33306
c27_1: -176 x_8_ + 178 y_8_ + [ 1 x_8_ ^ 2 + 1 y_8_ ^ 2 ] <= 8442
c28_1: -176 x_9_ + 178 y_9_ + [ 1 x_9_ ^ 2 + 1 y_9_ ^ 2 ] <= 17792
c29_1: -176 x_10_ + 178 y_10_ + [ 1 x_10_ ^ 2 + 1 y_10_ ^ 2 ] <= -5040
c30_1: -176 x_11_ + 178 y_11_ + [ 1 x_11_ ^ 2 + 1 y_11_ ^ 2 ] <= 12686
c31_1: -176 x_12_ + 178 y_12_ + [ 1 x_12_ ^ 2 + 1 y_12_ ^ 2 ] <= 26919
c32_1: -176 x_13_ + 178 y_13_ + [ 1 x_13_ ^ 2 + 1 y_13_ ^ 2 ] <= 6772
c33_1: -176 x_14_ + 178 y_14_ + [ 1 x_14_ ^ 2 + 1 y_14_ ^ 2 ] <= 42090
c34_1: -176 x_15_ + 178 y_15_ + [ 1 x_15_ ^ 2 + 1 y_15_ ^ 2 ] <= 15615
c35_1: -176 x_16_ + 178 y_16_ + [ 1 x_16_ ^ 2 + 1 y_16_ ^ 2 ] <= 24305
c36_1: -176 x_17_ + 178 y_17_ + [ 1 x_17_ ^ 2 + 1 y_17_ ^ 2 ] <= -9565
c37_1: -176 x_19_ + 178 y_19_ + [ 1 x_19_ ^ 2 + 1 y_19_ ^ 2 ] <= 8241
c38_1: -176 x_20_ + 178 y_20_ + [ 1 x_20_ ^ 2 + 1 y_20_ ^ 2 ] <= -11273
c39_1: 36 x_2_ - 24 y_2_ + [ 1 x_2_ ^ 2 + 1 y_2_ ^ 2 ] <= 3398
c40_1: 36 x_3_ - 24 y_3_ + [ 1 x_3_ ^ 2 + 1 y_3_ ^ 2 ] <= 29636
c41_1: 36 x_4_ - 24 y_4_ + [ 1 x_4_ ^ 2 + 1 y_4_ ^ 2 ] <= 12630
c42_1: 36 x_5_ - 24 y_5_ + [ 1 x_5_ ^ 2 + 1 y_5_ ^ 2 ] <= 26330
c43_1: 36 x_6_ - 24 y_6_ + [ 1 x_6_ ^ 2 + 1 y_6_ ^ 2 ] <= 5816
c44_1: 36 x_7_ - 24 y_7_ + [ 1 x_7_ ^ 2 + 1 y_7_ ^ 2 ] <= 46313
c45_1: 36 x_8_ - 24 y_8_ + [ 1 x_8_ ^ 2 + 1 y_8_ ^ 2 ] <= 26598
c46_1: 36 x_9_ - 24 y_9_ + [ 1 x_9_ ^ 2 + 1 y_9_ ^ 2 ] <= 16765
c47_1: 36 x_10_ - 24 y_10_ + [ 1 x_10_ ^ 2 + 1 y_10_ ^ 2 ] <= 5459
c48_1: 36 x_11_ - 24 y_11_ + [ 1 x_11_ ^ 2 + 1 y_11_ ^ 2 ] <= 8241
c49_1: 36 x_12_ - 24 y_12_ + [ 1 x_12_ ^ 2 + 1 y_12_ ^ 2 ] <= 6732
c50_1: 36 x_13_ - 24 y_13_ + [ 1 x_13_ ^ 2 + 1 y_13_ ^ 2 ] <= 332
c51_1: 36 x_14_ - 24 y_14_ + [ 1 x_14_ ^ 2 + 1 y_14_ ^ 2 ] <= 15612
c52_1: 36 x_15_ - 24 y_15_ + [ 1 x_15_ ^ 2 + 1 y_15_ ^ 2 ] <= 3077
c53_1: 36 x_16_ - 24 y_16_ + [ 1 x_16_ ^ 2 + 1 y_16_ ^ 2 ] <= 20185
c54_1: 36 x_17_ - 24 y_17_ + [ 1 x_17_ ^ 2 + 1 y_17_ ^ 2 ] <= 42382
c55: 36 x_18_ - 24 y_18_ + [ 1 x_18_ ^ 2 + 1 y_18_ ^ 2 ] <= 20969
c56: 36 x_19_ - 24 y_19_ + [ 1 x_19_ ^ 2 + 1 y_19_ ^ 2 ] <= 15370
c57: 36 x_20_ - 24 y_20_ + [ 1 x_20_ ^ 2 + 1 y_20_ ^ 2 ] <= 12581
c1_2: 1 x_5_ = 55
c2_2: 1 y_5_ = 74
c3_2: 1 x_18_ = 88
c4_2: 1 y_18_ = -89
c5_2: 1 x_1_ = -18
c6_2: 1 y_1_ = 12
c1: [ 1 x_1_ ^ 2 - 2 x_2_ * x_1_ + 1 x_2_ ^ 2 + 1 y_1_ ^ 2 - 2 y_2_ * y_1_ + 1 y_2_ ^ 2 ] = 3866
c2: [ 1 x_2_ ^ 2 - 2 x_3_ * x_2_ + 1 x_3_ ^ 2 + 1 y_2_ ^ 2 - 2 y_3_ * y_2_ + 1 y_3_ ^ 2 ] = 12394
c3: [ 1 x_3_ ^ 2 - 2 x_4_ * x_3_ + 1 x_4_ ^ 2 + 1 y_3_ ^ 2 - 2 y_4_ * y_3_ + 1 y_4_ ^ 2 ] = 4941
c4: [ 1 x_4_ ^ 2 - 2 x_5_ * x_4_ + 1 x_5_ ^ 2 + 1 y_4_ ^ 2 - 2 y_5_ * y_4_ + 1 y_5_ ^ 2 ] = 6442
c5: [ 1 x_4_ ^ 2 - 2 x_6_ * x_4_ + 1 x_6_ ^ 2 + 1 y_4_ ^ 2 - 2 y_6_ * y_4_ + 1 y_6_ ^ 2 ] = 1237
c6: [ 1 x_5_ ^ 2 - 2 x_6_ * x_5_ + 1 x_6_ ^ 2 + 1 y_5_ ^ 2 - 2 y_6_ * y_5_ + 1 y_6_ ^ 2 ] = 11633
c7: [ 1 x_6_ ^ 2 - 2 x_7_ * x_6_ + 1 x_7_ ^ 2 + 1 y_6_ ^ 2 - 2 y_7_ * y_6_ + 1 y_7_ ^ 2 ] = 18773
c8: [ 1 x_3_ ^ 2 - 2 x_8_ * x_3_ + 1 x_8_ ^ 2 + 1 y_3_ ^ 2 - 2 y_8_ * y_3_ + 1 y_8_ ^ 2 ] = 9881
c9: [ 1 x_5_ ^ 2 - 2 x_8_ * x_5_ + 1 x_8_ ^ 2 + 1 y_5_ ^ 2 - 2 y_8_ * y_5_ + 1 y_8_ ^ 2 ] = 2320
c10: [ 1 x_7_ ^ 2 - 2 x_8_ * x_7_ + 1 x_8_ ^ 2 + 1 y_7_ ^ 2 - 2 y_8_ * y_7_ + 1 y_8_ ^ 2 ] = 4360
c11: [ 1 x_6_ ^ 2 - 2 x_9_ * x_6_ + 1 x_9_ ^ 2 + 1 y_6_ ^ 2 - 2 y_9_ * y_6_ + 1 y_9_ ^ 2 ] = 2704
c12: [ 1 x_8_ ^ 2 - 2 x_9_ * x_8_ + 1 x_9_ ^ 2 + 1 y_8_ ^ 2 - 2 y_9_ * y_8_ + 1 y_9_ ^ 2 ] = 1105
c13: [ 1 x_3_ ^ 2 - 2 x_10_ * x_3_ + 1 x_10_ ^ 2 + 1 y_3_ ^ 2 - 2 y_10_ * y_3_ + 1 y_10_ ^ 2 ] = 16180
c14: [ 1 x_5_ ^ 2 - 2 x_10_ * x_5_ + 1 x_10_ ^ 2 + 1 y_5_ ^ 2 - 2 y_10_ * y_5_ + 1 y_10_ ^ 2 ] = 11813
c15: [ 1 x_9_ ^ 2 - 2 x_10_ * x_9_ + 1 x_10_ ^ 2 + 1 y_9_ ^ 2 - 2 y_10_ * y_9_ + 1 y_10_ ^ 2 ] = 7460
c16: [ 1 x_2_ ^ 2 - 2 x_11_ * x_2_ + 1 x_11_ ^ 2 + 1 y_2_ ^ 2 - 2 y_11_ * y_2_ + 1 y_11_ ^ 2 ] = 970
c17: [ 1 x_10_ ^ 2 - 2 x_11_ * x_10_ + 1 x_11_ ^ 2 + 1 y_10_ ^ 2 - 2 y_11_ * y_10_ + 1 y_11_ ^ 2 ] = 4264
c18: [ 1 x_4_ ^ 2 - 2 x_12_ * x_4_ + 1 x_12_ ^ 2 + 1 y_4_ ^ 2 - 2 y_12_ * y_4_ + 1 y_12_ ^ 2 ] = 4097
c19: [ 1 x_6_ ^ 2 - 2 x_12_ * x_6_ + 1 x_12_ ^ 2 + 1 y_6_ ^ 2 - 2 y_12_ * y_6_ + 1 y_12_ ^ 2 ] = 1000
c20: [ 1 x_9_ ^ 2 - 2 x_12_ * x_9_ + 1 x_12_ ^ 2 + 1 y_9_ ^ 2 - 2 y_12_ * y_9_ + 1 y_12_ ^ 2 ] = 6984
c21: [ 1 x_11_ ^ 2 - 2 x_12_ * x_11_ + 1 x_12_ ^ 2 + 1 y_11_ ^ 2 - 2 y_12_ * y_11_ + 1 y_12_ ^ 2 ] = 18692
c22: [ 1 x_1_ ^ 2 - 2 x_13_ * x_1_ + 1 x_13_ ^ 2 + 1 y_1_ ^ 2 - 2 y_13_ * y_1_ + 1 y_13_ ^ 2 ] = 800
c23: [ 1 x_2_ ^ 2 - 2 x_13_ * x_2_ + 1 x_13_ ^ 2 + 1 y_2_ ^ 2 - 2 y_13_ * y_2_ + 1 y_13_ ^ 2 ] = 8026
c24: [ 1 x_6_ ^ 2 - 2 x_13_ * x_6_ + 1 x_13_ ^ 2 + 1 y_6_ ^ 2 - 2 y_13_ * y_6_ + 1 y_13_ ^ 2 ] = 2600
c25: [ 1 x_10_ ^ 2 - 2 x_13_ * x_10_ + 1 x_13_ ^ 2 + 1 y_10_ ^ 2 - 2 y_13_ * y_10_ + 1 y_13_ ^ 2 ] = 2372
c26: [ 1 x_12_ ^ 2 - 2 x_13_ * x_12_ + 1 x_13_ ^ 2 + 1 y_12_ ^ 2 - 2 y_13_ * y_12_ + 1 y_13_ ^ 2 ] = 3200
c27: [ 1 x_5_ ^ 2 - 2 x_14_ * x_5_ + 1 x_14_ ^ 2 + 1 y_5_ ^ 2 - 2 y_14_ * y_5_ + 1 y_14_ ^ 2 ] = 1361
c28: [ 1 x_13_ ^ 2 - 2 x_14_ * x_13_ + 1 x_14_ ^ 2 + 1 y_13_ ^ 2 - 2 y_14_ * y_13_ + 1 y_14_ ^ 2 ] = 19220
c29: [ 1 x_1_ ^ 2 - 2 x_15_ * x_1_ + 1 x_15_ ^ 2 + 1 y_1_ ^ 2 - 2 y_15_ * y_1_ + 1 y_15_ ^ 2 ] = 3545
c30: [ 1 x_2_ ^ 2 - 2 x_15_ * x_2_ + 1 x_15_ ^ 2 + 1 y_2_ ^ 2 - 2 y_15_ * y_2_ + 1 y_15_ ^ 2 ] = 1385
c31: [ 1 x_13_ ^ 2 - 2 x_15_ * x_13_ + 1 x_15_ ^ 2 + 1 y_13_ ^ 2 - 2 y_15_ * y_13_ + 1 y_15_ ^ 2 ] = 6385
c32: [ 1 x_14_ ^ 2 - 2 x_15_ * x_14_ + 1 x_15_ ^ 2 + 1 y_14_ ^ 2 - 2 y_15_ * y_14_ + 1 y_15_ ^ 2 ] = 4525
c33: [ 1 x_4_ ^ 2 - 2 x_16_ * x_4_ + 1 x_16_ ^ 2 + 1 y_4_ ^ 2 - 2 y_16_ * y_4_ + 1 y_16_ ^ 2 ] = 2745
c34: [ 1 x_8_ ^ 2 - 2 x_16_ * x_8_ + 1 x_16_ ^ 2 + 1 y_8_ ^ 2 - 2 y_16_ * y_8_ + 1 y_16_ ^ 2 ] = 2105
c35: [ 1 x_14_ ^ 2 - 2 x_16_ * x_14_ + 1 x_16_ ^ 2 + 1 y_14_ ^ 2 - 2 y_16_ * y_14_ + 1 y_16_ ^ 2 ] = 6970
c36: [ 1 x_15_ ^ 2 - 2 x_16_ * x_15_ + 1 x_16_ ^ 2 + 1 y_15_ ^ 2 - 2 y_16_ * y_15_ + 1 y_16_ ^ 2 ] = 7085
c37: [ 1 x_8_ ^ 2 - 2 x_17_ * x_8_ + 1 x_17_ ^ 2 + 1 y_8_ ^ 2 - 2 y_17_ * y_8_ + 1 y_17_ ^ 2 ] = 5954
c38: [ 1 x_9_ ^ 2 - 2 x_17_ * x_9_ + 1 x_17_ ^ 2 + 1 y_9_ ^ 2 - 2 y_17_ * y_9_ + 1 y_17_ ^ 2 ] = 10985
c39: [ 1 x_16_ ^ 2 - 2 x_17_ * x_16_ + 1 x_17_ ^ 2 + 1 y_16_ ^ 2 - 2 y_17_ * y_16_ + 1 y_17_ ^ 2 ] = 14841
c40: [ 1 x_1_ ^ 2 - 2 x_18_ * x_1_ + 1 x_18_ ^ 2 + 1 y_1_ ^ 2 - 2 y_18_ * y_1_ + 1 y_18_ ^ 2 ] = 21437
c41: [ 1 x_2_ ^ 2 - 2 x_18_ * x_2_ + 1 x_18_ ^ 2 + 1 y_2_ ^ 2 - 2 y_18_ * y_2_ + 1 y_18_ ^ 2 ] = 19501
c42: [ 1 x_4_ ^ 2 - 2 x_18_ * x_4_ + 1 x_18_ ^ 2 + 1 y_4_ ^ 2 - 2 y_18_ * y_4_ + 1 y_18_ ^ 2 ] = 25288
c43: [ 1 x_10_ ^ 2 - 2 x_18_ * x_10_ + 1 x_18_ ^ 2 + 1 y_10_ ^ 2 - 2 y_18_ * y_10_ + 1 y_18_ ^ 2 ] = 10625
c44: [ 1 x_13_ ^ 2 - 2 x_18_ * x_13_ + 1 x_18_ ^ 2 + 1 y_13_ ^ 2 - 2 y_18_ * y_13_ + 1 y_18_ ^ 2 ] = 22437
c45: [ 1 x_17_ ^ 2 - 2 x_18_ * x_17_ + 1 x_18_ ^ 2 + 1 y_17_ ^ 2 - 2 y_18_ * y_17_ + 1 y_18_ ^ 2 ] = 6100
c46: [ 1 x_4_ ^ 2 - 2 x_19_ * x_4_ + 1 x_19_ ^ 2 + 1 y_4_ ^ 2 - 2 y_19_ * y_4_ + 1 y_19_ ^ 2 ] = 130
c47: [ 1 x_16_ ^ 2 - 2 x_19_ * x_16_ + 1 x_19_ ^ 2 + 1 y_16_ ^ 2 - 2 y_19_ * y_16_ + 1 y_19_ ^ 2 ] = 2125
c48: [ 1 x_17_ ^ 2 - 2 x_19_ * x_17_ + 1 x_19_ ^ 2 + 1 y_17_ ^ 2 - 2 y_19_ * y_17_ + 1 y_19_ ^ 2 ] = 6586
c49: [ 1 x_18_ ^ 2 - 2 x_19_ * x_18_ + 1 x_19_ ^ 2 + 1 y_18_ ^ 2 - 2 y_19_ * y_18_ + 1 y_19_ ^ 2 ] = 23906
c50: [ 1 x_1_ ^ 2 - 2 x_20_ * x_1_ + 1 x_20_ ^ 2 + 1 y_1_ ^ 2 - 2 y_20_ * y_1_ + 1 y_20_ ^ 2 ] = 13049
c51: [ 1 x_3_ ^ 2 - 2 x_20_ * x_3_ + 1 x_20_ ^ 2 + 1 y_3_ ^ 2 - 2 y_20_ * y_3_ + 1 y_20_ ^ 2 ] = 38029
c52: [ 1 x_9_ ^ 2 - 2 x_20_ * x_9_ + 1 x_20_ ^ 2 + 1 y_9_ ^ 2 - 2 y_20_ * y_9_ + 1 y_20_ ^ 2 ] = 25133
c53: [ 1 x_18_ ^ 2 - 2 x_20_ * x_18_ + 1 x_20_ ^ 2 + 1 y_18_ ^ 2 - 2 y_20_ * y_18_ + 1 y_20_ ^ 2 ] = 4392
c54: [ 1 x_19_ ^ 2 - 2 x_20_ * x_19_ + 1 x_20_ ^ 2 + 1 y_19_ ^ 2 - 2 y_20_ * y_19_ + 1 y_20_ ^ 2 ] = 17786
Bounds
x_1_ = -18
-51 <= x_2_ <= 44
-92 <= x_3_ <= 155
-25 <= x_4_ <= 96
x_5_ = 55
-52 <= x_6_ <= 61
-59 <= x_7_ <= 169
7 <= x_8_ <= 103
-26 <= x_9_ <= 113
-15 <= x_10_ <= 58
-80 <= x_11_ <= 75
-84 <= x_12_ <= 66
-46 <= x_13_ <= 10
19 <= x_14_ <= 91
-49 <= x_15_ <= 41
-39 <= x_16_ <= 125
10 <= x_17_ <= 166
x_18_ = 88
-36 <= x_19_ <= 107
22 <= x_20_ <= 96
y_1_ = 12
-50 <= y_2_ <= 50
-73 <= y_3_ <= 140
-6 <= y_4_ <= 70
y_5_ = 74
-33 <= y_6_ <= 91
-40 <= y_7_ <= 132
26 <= y_8_ <= 66
-7 <= y_9_ <= 93
-34 <= y_10_ <= 14
-81 <= y_11_ <= 79
-65 <= y_12_ <= 96
-16 <= y_13_ <= 40
38 <= y_14_ <= 110
-30 <= y_15_ <= 71
-20 <= y_16_ <= 110
-51 <= y_17_ <= -11
y_18_ = -89
-17 <= y_19_ <= 65
-102 <= y_20_ <= -23
General
x_1_
x_2_
x_3_
x_4_
x_5_
x_6_
x_7_
x_8_
x_9_
x_10_
x_11_
x_12_
x_13_
x_14_
x_15_
x_16_
x_17_
x_18_
x_19_
x_20_
y_1_
y_2_
y_3_
y_4_
y_5_
y_6_
y_7_
y_8_
y_9_
y_10_
y_11_
y_12_
y_13_
y_14_
y_15_
y_16_
y_17_
y_18_
y_19_
y_20_
End
