minimize
obj: 
subject to
c1_3: -1 x_60_ + 1 y_60_ <= 0
c1: [ 1 x_1_ ^ 2 + 1 y_1_ ^ 2 ] <= 12125.684908456447
c2: [ 1 x_2_ ^ 2 + 1 y_2_ ^ 2 ] <= 12679.750243026316
c3: [ 1 x_3_ ^ 2 + 1 y_3_ ^ 2 ] <= 18629.027655375074
c4: [ 1 x_4_ ^ 2 + 1 y_4_ ^ 2 ] <= 24370.590869392738
c5: [ 1 x_5_ ^ 2 + 1 y_5_ ^ 2 ] <= 6946.153358059526
c6: [ 1 x_6_ ^ 2 + 1 y_6_ ^ 2 ] <= 18789.652324389892
c7: [ 1 x_7_ ^ 2 + 1 y_7_ ^ 2 ] <= 6764.979999999998
c8: [ 1 x_8_ ^ 2 + 1 y_8_ ^ 2 ] <= 14546.511267867301
c9: [ 1 x_9_ ^ 2 + 1 y_9_ ^ 2 ] <= 9302.096916970764
c10: [ 1 x_10_ ^ 2 + 1 y_10_ ^ 2 ] <= 1035.25
c11: [ 1 x_11_ ^ 2 + 1 y_11_ ^ 2 ] <= 5774.969454890697
c12: [ 1 x_12_ ^ 2 + 1 y_12_ ^ 2 ] <= 15923.056273616005
c13: [ 1 x_13_ ^ 2 + 1 y_13_ ^ 2 ] <= 19252.018435090948
c14: [ 1 x_14_ ^ 2 + 1 y_14_ ^ 2 ] <= 22297.49140116226
c15: [ 1 x_15_ ^ 2 + 1 y_15_ ^ 2 ] <= 14282.892243026165
c16: [ 1 x_16_ ^ 2 + 1 y_16_ ^ 2 ] <= 25637.867212329515
c17: [ 1 x_17_ ^ 2 + 1 y_17_ ^ 2 ] <= 21862.89614653569
c18: [ 1 x_18_ ^ 2 + 1 y_18_ ^ 2 ] <= 10322.956715688497
c19: [ 1 x_19_ ^ 2 + 1 y_19_ ^ 2 ] <= 11369.293699389953
c20: [ 1 x_20_ ^ 2 + 1 y_20_ ^ 2 ] <= 12145.611341881811
c21: [ 1 x_21_ ^ 2 + 1 y_21_ ^ 2 ] <= 5708.824105119821
c22: [ 1 x_22_ ^ 2 + 1 y_22_ ^ 2 ] <= 15759.8035057333
c23: [ 1 x_23_ ^ 2 + 1 y_23_ ^ 2 ] <= 16597.987248549274
c24: [ 1 x_24_ ^ 2 + 1 y_24_ ^ 2 ] <= 13802.911496224835
c25: [ 1 x_25_ ^ 2 + 1 y_25_ ^ 2 ] <= 23518.35444238502
c26: [ 1 x_26_ ^ 2 + 1 y_26_ ^ 2 ] <= 3983.4399999999996
c27: [ 1 x_27_ ^ 2 + 1 y_27_ ^ 2 ] <= 25675.359722257945
c28: [ 1 x_28_ ^ 2 + 1 y_28_ ^ 2 ] <= 7156.936548267853
c29: [ 1 x_29_ ^ 2 + 1 y_29_ ^ 2 ] <= 15143.853071514604
c30: [ 1 x_30_ ^ 2 + 1 y_30_ ^ 2 ] <= 9504.795851693385
c31: [ 1 x_31_ ^ 2 + 1 y_31_ ^ 2 ] <= 6322.599999999998
c32: [ 1 x_32_ ^ 2 + 1 y_32_ ^ 2 ] <= 21862.734894579786
c33: [ 1 x_33_ ^ 2 + 1 y_33_ ^ 2 ] <= 3354.2099999999996
c34: [ 1 x_34_ ^ 2 + 1 y_34_ ^ 2 ] <= 22893.150109768765
c35: [ 1 x_35_ ^ 2 + 1 y_35_ ^ 2 ] <= 14898.957673820587
c36: [ 1 x_36_ ^ 2 + 1 y_36_ ^ 2 ] <= 2356.33
c37: [ 1 x_37_ ^ 2 + 1 y_37_ ^ 2 ] <= 20329.69237358769
c38: [ 1 x_38_ ^ 2 + 1 y_38_ ^ 2 ] <= 20043.4065803693
c39: [ 1 x_39_ ^ 2 + 1 y_39_ ^ 2 ] <= 18141.79023163073
c40: [ 1 x_40_ ^ 2 + 1 y_40_ ^ 2 ] <= 22182.0485023472
c41: [ 1 x_41_ ^ 2 + 1 y_41_ ^ 2 ] <= 13080.087565670454
c42: [ 1 x_42_ ^ 2 + 1 y_42_ ^ 2 ] <= 12874.896543125033
c43: [ 1 x_43_ ^ 2 + 1 y_43_ ^ 2 ] <= 5179.28
c44: [ 1 x_45_ ^ 2 + 1 y_45_ ^ 2 ] <= 8340.579999999998
c45: [ 1 x_46_ ^ 2 + 1 y_46_ ^ 2 ] <= 12775.150830234572
c46: [ 1 x_47_ ^ 2 + 1 y_47_ ^ 2 ] <= 373.69999999999993
c47: [ 1 x_48_ ^ 2 + 1 y_48_ ^ 2 ] <= 11398.816394998119
c48: [ 1 x_49_ ^ 2 + 1 y_49_ ^ 2 ] <= 24348.227393987425
c49: [ 1 x_50_ ^ 2 + 1 y_50_ ^ 2 ] <= 8834.578744295766
c50: [ 1 x_51_ ^ 2 + 1 y_51_ ^ 2 ] <= 11645.299999999997
c51: [ 1 x_52_ ^ 2 + 1 y_52_ ^ 2 ] <= 6615.802469575027
c52: [ 1 x_53_ ^ 2 + 1 y_53_ ^ 2 ] <= 21398.367897189273
c53: [ 1 x_54_ ^ 2 + 1 y_54_ ^ 2 ] <= 10933.278031138556
c54: [ 1 x_55_ ^ 2 + 1 y_55_ ^ 2 ] <= 11152.579315344437
c55: [ 1 x_56_ ^ 2 + 1 y_56_ ^ 2 ] <= 9252.609999999997
c56: [ 1 x_57_ ^ 2 + 1 y_57_ ^ 2 ] <= 19707.400217654755
c57: [ 1 x_58_ ^ 2 + 1 y_58_ ^ 2 ] <= 30236.627069609025
c58: [ 1 x_59_ ^ 2 + 1 y_59_ ^ 2 ] <= 22255.775015037612
c59: [ 1 x_60_ ^ 2 + 1 y_60_ ^ 2 ] <= 33523.40066331555
c60: [ 1 x_61_ ^ 2 + 1 y_61_ ^ 2 ] <= 10534.277843953656
c61: [ 1 x_62_ ^ 2 + 1 y_62_ ^ 2 ] <= 4310.7582808306315
c62: [ 1 x_63_ ^ 2 + 1 y_63_ ^ 2 ] <= 4800.505214490707
c63: [ 1 x_64_ ^ 2 + 1 y_64_ ^ 2 ] <= 9689.939999999999
c64: [ 1 x_65_ ^ 2 + 1 y_65_ ^ 2 ] <= 9207.28930334916
c65: [ 1 x_66_ ^ 2 + 1 y_66_ ^ 2 ] <= 14437.927330192262
c66: [ 1 x_67_ ^ 2 + 1 y_67_ ^ 2 ] <= 28125.071628581347
c67: [ 1 x_68_ ^ 2 + 1 y_68_ ^ 2 ] <= 20236.00055684606
c68: [ 1 x_69_ ^ 2 + 1 y_69_ ^ 2 ] <= 12184.64
c69: [ 1 x_70_ ^ 2 + 1 y_70_ ^ 2 ] <= 21593.80769035223
c70: [ 1 x_71_ ^ 2 + 1 y_71_ ^ 2 ] <= 12991.917417981622
c71: [ 1 x_72_ ^ 2 + 1 y_72_ ^ 2 ] <= 13697.473039080824
c72: [ 1 x_73_ ^ 2 + 1 y_73_ ^ 2 ] <= 17618.4770979869
c73: [ 1 x_74_ ^ 2 + 1 y_74_ ^ 2 ] <= 7579.5725174544605
c74: [ 1 x_75_ ^ 2 + 1 y_75_ ^ 2 ] <= 7755.473959095873
c75: [ 1 x_76_ ^ 2 + 1 y_76_ ^ 2 ] <= 33231.71717475741
c76: [ 1 x_77_ ^ 2 + 1 y_77_ ^ 2 ] <= 16259.101534529007
c77: [ 1 x_78_ ^ 2 + 1 y_78_ ^ 2 ] <= 16978.118532066765
c78: [ 1 x_79_ ^ 2 + 1 y_79_ ^ 2 ] <= 24104.659999999996
c79: [ 1 x_80_ ^ 2 + 1 y_80_ ^ 2 ] <= 17493.323161696644
c80: [ 1 x_81_ ^ 2 + 1 y_81_ ^ 2 ] <= 2484.745265028682
c81: [ 1 x_82_ ^ 2 + 1 y_82_ ^ 2 ] <= 14771.263239648732
c82: [ 1 x_83_ ^ 2 + 1 y_83_ ^ 2 ] <= 25853.046658794763
c83: [ 1 x_84_ ^ 2 + 1 y_84_ ^ 2 ] <= 13676.327001935517
c84: [ 1 x_85_ ^ 2 + 1 y_85_ ^ 2 ] <= 17348.055905902555
c85: [ 1 x_86_ ^ 2 + 1 y_86_ ^ 2 ] <= 14693.721117832287
c86: [ 1 x_87_ ^ 2 + 1 y_87_ ^ 2 ] <= 12705.800000000001
c87: [ 1 x_88_ ^ 2 + 1 y_88_ ^ 2 ] <= 16808.41999999999
c88: [ 1 x_89_ ^ 2 + 1 y_89_ ^ 2 ] <= 26211.761849659037
c89: [ 1 x_90_ ^ 2 + 1 y_90_ ^ 2 ] <= 14990.8693743091
c90: [ 1 x_91_ ^ 2 + 1 y_91_ ^ 2 ] <= 17343.283834688154
c91: [ 1 x_92_ ^ 2 + 1 y_92_ ^ 2 ] <= 17354.709216662475
c92: [ 1 x_93_ ^ 2 + 1 y_93_ ^ 2 ] <= 7446.729999999999
c93: [ 1 x_94_ ^ 2 + 1 y_94_ ^ 2 ] <= 17083.9310384159
c94: [ 1 x_95_ ^ 2 + 1 y_95_ ^ 2 ] <= 9295.350258352666
c95: [ 1 x_96_ ^ 2 + 1 y_96_ ^ 2 ] <= 33258.42100867781
c96: [ 1 x_97_ ^ 2 + 1 y_97_ ^ 2 ] <= 4674.482043042827
c97: [ 1 x_98_ ^ 2 + 1 y_98_ ^ 2 ] <= 6118.802529388495
c98: [ 1 x_99_ ^ 2 + 1 y_99_ ^ 2 ] <= 15302.261318708937
c99: [ 1 x_100_ ^ 2 + 1 y_100_ ^ 2 ] <= 22193.930873375808
quadratic_ranged_1_ub: [ 1 x_1_ ^ 2 - 2 x_2_ * x_1_ + 1 x_2_ ^ 2 + 1 y_1_ ^ 2 - 2 y_2_ * y_1_ + 1 y_2_ ^ 2 ] <= 5107.57
quadratic_ranged_2_ub: [ 1 x_2_ ^ 2 - 2 x_3_ * x_2_ + 1 x_3_ ^ 2 + 1 y_2_ ^ 2 - 2 y_3_ * y_2_ + 1 y_3_ ^ 2 ] <= 5115.65
quadratic_ranged_3_ub: [ 1 x_3_ ^ 2 - 2 x_4_ * x_3_ + 1 x_4_ ^ 2 + 1 y_3_ ^ 2 - 2 y_4_ * y_3_ + 1 y_4_ ^ 2 ] <= 17866.9
quadratic_ranged_4_ub: [ 1 x_4_ ^ 2 - 2 x_5_ * x_4_ + 1 x_5_ ^ 2 + 1 y_4_ ^ 2 - 2 y_5_ * y_4_ + 1 y_5_ ^ 2 ] <= 12916.89
quadratic_ranged_5_ub: [ 1 x_5_ ^ 2 - 2 x_6_ * x_5_ + 1 x_6_ ^ 2 + 1 y_5_ ^ 2 - 2 y_6_ * y_5_ + 1 y_6_ ^ 2 ] <= 3140.09
quadratic_ranged_6_ub: [ 1 x_6_ ^ 2 - 2 x_7_ * x_6_ + 1 x_7_ ^ 2 + 1 y_6_ ^ 2 - 2 y_7_ * y_6_ + 1 y_7_ ^ 2 ] <= 11402.9
quadratic_ranged_7_ub: [ 1 x_7_ ^ 2 - 2 x_8_ * x_7_ + 1 x_8_ ^ 2 + 1 y_7_ ^ 2 - 2 y_8_ * y_7_ + 1 y_8_ ^ 2 ] <= 3503.69
quadratic_ranged_8_ub: [ 1 x_1_ ^ 2 - 2 x_9_ * x_1_ + 1 x_9_ ^ 2 + 1 y_1_ ^ 2 - 2 y_9_ * y_1_ + 1 y_9_ ^ 2 ] <= 186.85
quadratic_ranged_9_ub: [ 1 x_8_ ^ 2 - 2 x_9_ * x_8_ + 1 x_9_ ^ 2 + 1 y_8_ ^ 2 - 2 y_9_ * y_8_ + 1 y_9_ ^ 2 ] <= 583.78
quadratic_ranged_10_ub: [ 1 x_9_ ^ 2 - 2 x_10_ * x_9_ + 1 x_10_ ^ 2 + 1 y_9_ ^ 2 - 2 y_10_ * y_9_ + 1 y_10_ ^ 2 ] <= 4130.9
quadratic_ranged_11_ub: [ 1 x_6_ ^ 2 - 2 x_11_ * x_6_ + 1 x_11_ ^ 2 + 1 y_6_ ^ 2 - 2 y_11_ * y_6_ + 1 y_11_ ^ 2 ] <= 13826.9
quadratic_ranged_12_ub: [ 1 x_10_ ^ 2 - 2 x_11_ * x_10_ + 1 x_11_ ^ 2 + 1 y_10_ ^ 2 - 2 y_11_ * y_10_ + 1 y_11_ ^ 2 ] <= 1920.01
quadratic_ranged_13_ub: [ 1 x_3_ ^ 2 - 2 x_12_ * x_3_ + 1 x_12_ ^ 2 + 1 y_3_ ^ 2 - 2 y_12_ * y_3_ + 1 y_12_ ^ 2 ] <= 31110.02
quadratic_ranged_14_ub: [ 1 x_11_ ^ 2 - 2 x_12_ * x_11_ + 1 x_12_ ^ 2 + 1 y_11_ ^ 2 - 2 y_12_ * y_11_ + 1 y_12_ ^ 2 ] <= 3203.7200000000003
quadratic_ranged_15_ub: [ 1 x_4_ ^ 2 - 2 x_13_ * x_4_ + 1 x_13_ ^ 2 + 1 y_4_ ^ 2 - 2 y_13_ * y_4_ + 1 y_13_ ^ 2 ] <= 828.2
quadratic_ranged_16_ub: [ 1 x_12_ ^ 2 - 2 x_13_ * x_12_ + 1 x_13_ ^ 2 + 1 y_12_ ^ 2 - 2 y_13_ * y_12_ + 1 y_13_ ^ 2 ] <= 8863.76
quadratic_ranged_17_ub: [ 1 x_4_ ^ 2 - 2 x_14_ * x_4_ + 1 x_14_ ^ 2 + 1 y_4_ ^ 2 - 2 y_14_ * y_4_ + 1 y_14_ ^ 2 ] <= 8206.25
quadratic_ranged_18_ub: [ 1 x_13_ ^ 2 - 2 x_14_ * x_13_ + 1 x_14_ ^ 2 + 1 y_13_ ^ 2 - 2 y_14_ * y_13_ + 1 y_14_ ^ 2 ] <= 4590.45
quadratic_ranged_19_ub: [ 1 x_14_ ^ 2 - 2 x_15_ * x_14_ + 1 x_15_ ^ 2 + 1 y_14_ ^ 2 - 2 y_15_ * y_14_ + 1 y_15_ ^ 2 ] <= 10766.6
quadratic_ranged_20_ub: [ 1 x_5_ ^ 2 - 2 x_16_ * x_5_ + 1 x_16_ ^ 2 + 1 y_5_ ^ 2 - 2 y_16_ * y_5_ + 1 y_16_ ^ 2 ] <= 34592.5
quadratic_ranged_21_ub: [ 1 x_15_ ^ 2 - 2 x_16_ * x_15_ + 1 x_16_ ^ 2 + 1 y_15_ ^ 2 - 2 y_16_ * y_15_ + 1 y_16_ ^ 2 ] <= 28069.920000000002
quadratic_ranged_22_ub: [ 1 x_6_ ^ 2 - 2 x_17_ * x_6_ + 1 x_17_ ^ 2 + 1 y_6_ ^ 2 - 2 y_17_ * y_6_ + 1 y_17_ ^ 2 ] <= 5383.3
quadratic_ranged_23_ub: [ 1 x_13_ ^ 2 - 2 x_17_ * x_13_ + 1 x_17_ ^ 2 + 1 y_13_ ^ 2 - 2 y_17_ * y_13_ + 1 y_17_ ^ 2 ] <= 7049.8
quadratic_ranged_24_ub: [ 1 x_16_ ^ 2 - 2 x_17_ * x_16_ + 1 x_17_ ^ 2 + 1 y_16_ ^ 2 - 2 y_17_ * y_16_ + 1 y_17_ ^ 2 ] <= 15041.93
quadratic_ranged_25_ub: [ 1 x_2_ ^ 2 - 2 x_18_ * x_2_ + 1 x_18_ ^ 2 + 1 y_2_ ^ 2 - 2 y_18_ * y_2_ + 1 y_18_ ^ 2 ] <= 5631.76
quadratic_ranged_26_ub: [ 1 x_3_ ^ 2 - 2 x_18_ * x_3_ + 1 x_18_ ^ 2 + 1 y_3_ ^ 2 - 2 y_18_ * y_3_ + 1 y_18_ ^ 2 ] <= 1217.05
quadratic_ranged_27_ub: [ 1 x_17_ ^ 2 - 2 x_18_ * x_17_ + 1 x_18_ ^ 2 + 1 y_17_ ^ 2 - 2 y_18_ * y_17_ + 1 y_18_ ^ 2 ] <= 4954.05
quadratic_ranged_28_ub: [ 1 x_16_ ^ 2 - 2 x_19_ * x_16_ + 1 x_19_ ^ 2 + 1 y_16_ ^ 2 - 2 y_19_ * y_16_ + 1 y_19_ ^ 2 ] <= 2861.33
quadratic_ranged_29_ub: [ 1 x_17_ ^ 2 - 2 x_19_ * x_17_ + 1 x_19_ ^ 2 + 1 y_17_ ^ 2 - 2 y_19_ * y_17_ + 1 y_19_ ^ 2 ] <= 4900.52
quadratic_ranged_30_ub: [ 1 x_18_ ^ 2 - 2 x_19_ * x_18_ + 1 x_19_ ^ 2 + 1 y_18_ ^ 2 - 2 y_19_ * y_18_ + 1 y_19_ ^ 2 ] <= 25.25
quadratic_ranged_31_ub: [ 1 x_12_ ^ 2 - 2 x_20_ * x_12_ + 1 x_20_ ^ 2 + 1 y_12_ ^ 2 - 2 y_20_ * y_12_ + 1 y_20_ ^ 2 ] <= 17170
quadratic_ranged_32_ub: [ 1 x_19_ ^ 2 - 2 x_20_ * x_19_ + 1 x_20_ ^ 2 + 1 y_19_ ^ 2 - 2 y_20_ * y_19_ + 1 y_20_ ^ 2 ] <= 8637.52
quadratic_ranged_33_ub: [ 1 x_1_ ^ 2 - 2 x_21_ * x_1_ + 1 x_21_ ^ 2 + 1 y_1_ ^ 2 - 2 y_21_ * y_1_ + 1 y_21_ ^ 2 ] <= 12744.18
quadratic_ranged_34_ub: [ 1 x_8_ ^ 2 - 2 x_21_ * x_8_ + 1 x_21_ ^ 2 + 1 y_8_ ^ 2 - 2 y_21_ * y_8_ + 1 y_21_ ^ 2 ] <= 21206.97
quadratic_ranged_35_ub: [ 1 x_14_ ^ 2 - 2 x_21_ * x_14_ + 1 x_21_ ^ 2 + 1 y_14_ ^ 2 - 2 y_21_ * y_14_ + 1 y_21_ ^ 2 ] <= 15845.89
quadratic_ranged_36_ub: [ 1 x_16_ ^ 2 - 2 x_21_ * x_16_ + 1 x_21_ ^ 2 + 1 y_16_ ^ 2 - 2 y_21_ * y_16_ + 1 y_21_ ^ 2 ] <= 22544.21
quadratic_ranged_37_ub: [ 1 x_20_ ^ 2 - 2 x_21_ * x_20_ + 1 x_21_ ^ 2 + 1 y_20_ ^ 2 - 2 y_21_ * y_20_ + 1 y_21_ ^ 2 ] <= 16832.66
quadratic_ranged_38_ub: [ 1 x_8_ ^ 2 - 2 x_22_ * x_8_ + 1 x_22_ ^ 2 + 1 y_8_ ^ 2 - 2 y_22_ * y_8_ + 1 y_22_ ^ 2 ] <= 9389.97
quadratic_ranged_39_ub: [ 1 x_12_ ^ 2 - 2 x_22_ * x_12_ + 1 x_22_ ^ 2 + 1 y_12_ ^ 2 - 2 y_22_ * y_12_ + 1 y_22_ ^ 2 ] <= 6795.28
quadratic_ranged_40_ub: [ 1 x_21_ ^ 2 - 2 x_22_ * x_21_ + 1 x_22_ ^ 2 + 1 y_21_ ^ 2 - 2 y_22_ * y_21_ + 1 y_22_ ^ 2 ] <= 4381.38
quadratic_ranged_41_ub: [ 1 x_5_ ^ 2 - 2 x_23_ * x_5_ + 1 x_23_ ^ 2 + 1 y_5_ ^ 2 - 2 y_23_ * y_5_ + 1 y_23_ ^ 2 ] <= 2395.72
quadratic_ranged_42_ub: [ 1 x_22_ ^ 2 - 2 x_23_ * x_22_ + 1 x_23_ ^ 2 + 1 y_22_ ^ 2 - 2 y_23_ * y_22_ + 1 y_23_ ^ 2 ] <= 12900.73
quadratic_ranged_43_ub: [ 1 x_2_ ^ 2 - 2 x_24_ * x_2_ + 1 x_24_ ^ 2 + 1 y_2_ ^ 2 - 2 y_24_ * y_2_ + 1 y_24_ ^ 2 ] <= 18366.85
quadratic_ranged_44_ub: [ 1 x_10_ ^ 2 - 2 x_24_ * x_10_ + 1 x_24_ ^ 2 + 1 y_10_ ^ 2 - 2 y_24_ * y_10_ + 1 y_24_ ^ 2 ] <= 15926.69
quadratic_ranged_45_ub: [ 1 x_14_ ^ 2 - 2 x_24_ * x_14_ + 1 x_24_ ^ 2 + 1 y_14_ ^ 2 - 2 y_24_ * y_14_ + 1 y_24_ ^ 2 ] <= 29343.53
quadratic_ranged_46_ub: [ 1 x_23_ ^ 2 - 2 x_24_ * x_23_ + 1 x_24_ ^ 2 + 1 y_23_ ^ 2 - 2 y_24_ * y_23_ + 1 y_24_ ^ 2 ] <= 1047.3700000000001
quadratic_ranged_47_ub: [ 1 x_3_ ^ 2 - 2 x_25_ * x_3_ + 1 x_25_ ^ 2 + 1 y_3_ ^ 2 - 2 y_25_ * y_3_ + 1 y_25_ ^ 2 ] <= 30643.4
quadratic_ranged_48_ub: [ 1 x_8_ ^ 2 - 2 x_25_ * x_8_ + 1 x_25_ ^ 2 + 1 y_8_ ^ 2 - 2 y_25_ * y_8_ + 1 y_25_ ^ 2 ] <= 22936.09
quadratic_ranged_49_ub: [ 1 x_16_ ^ 2 - 2 x_25_ * x_16_ + 1 x_25_ ^ 2 + 1 y_16_ ^ 2 - 2 y_25_ * y_16_ + 1 y_25_ ^ 2 ] <= 40542.41
quadratic_ranged_50_ub: [ 1 x_24_ ^ 2 - 2 x_25_ * x_24_ + 1 x_25_ ^ 2 + 1 y_24_ ^ 2 - 2 y_25_ * y_24_ + 1 y_25_ ^ 2 ] <= 1286.74
quadratic_ranged_51_ub: [ 1 x_2_ ^ 2 - 2 x_26_ * x_2_ + 1 x_26_ ^ 2 + 1 y_2_ ^ 2 - 2 y_26_ * y_2_ + 1 y_26_ ^ 2 ] <= 2449.25
quadratic_ranged_52_ub: [ 1 x_11_ ^ 2 - 2 x_26_ * x_11_ + 1 x_26_ ^ 2 + 1 y_11_ ^ 2 - 2 y_26_ * y_11_ + 1 y_26_ ^ 2 ] <= 12267.460000000001
quadratic_ranged_53_ub: [ 1 x_18_ ^ 2 - 2 x_26_ * x_18_ + 1 x_26_ ^ 2 + 1 y_18_ ^ 2 - 2 y_26_ * y_18_ + 1 y_26_ ^ 2 ] <= 2138.17
quadratic_ranged_54_ub: [ 1 x_25_ ^ 2 - 2 x_26_ * x_25_ + 1 x_26_ ^ 2 + 1 y_25_ ^ 2 - 2 y_26_ * y_25_ + 1 y_26_ ^ 2 ] <= 28122.44
quadratic_ranged_55_ub: [ 1 x_10_ ^ 2 - 2 x_27_ * x_10_ + 1 x_27_ ^ 2 + 1 y_10_ ^ 2 - 2 y_27_ * y_10_ + 1 y_27_ ^ 2 ] <= 16399.37
quadratic_ranged_56_ub: [ 1 x_11_ ^ 2 - 2 x_27_ * x_11_ + 1 x_27_ ^ 2 + 1 y_11_ ^ 2 - 2 y_27_ * y_11_ + 1 y_27_ ^ 2 ] <= 19377.86
quadratic_ranged_57_ub: [ 1 x_12_ ^ 2 - 2 x_27_ * x_12_ + 1 x_27_ ^ 2 + 1 y_12_ ^ 2 - 2 y_27_ * y_12_ + 1 y_27_ ^ 2 ] <= 23563.3
quadratic_ranged_58_ub: [ 1 x_26_ ^ 2 - 2 x_27_ * x_26_ + 1 x_27_ ^ 2 + 1 y_26_ ^ 2 - 2 y_27_ * y_26_ + 1 y_27_ ^ 2 ] <= 11445.32
quadratic_ranged_59_ub: [ 1 x_6_ ^ 2 - 2 x_28_ * x_6_ + 1 x_28_ ^ 2 + 1 y_6_ ^ 2 - 2 y_28_ * y_6_ + 1 y_28_ ^ 2 ] <= 32559.37
quadratic_ranged_60_ub: [ 1 x_12_ ^ 2 - 2 x_28_ * x_12_ + 1 x_28_ ^ 2 + 1 y_12_ ^ 2 - 2 y_28_ * y_12_ + 1 y_28_ ^ 2 ] <= 30099.010000000002
quadratic_ranged_61_ub: [ 1 x_18_ ^ 2 - 2 x_28_ * x_18_ + 1 x_28_ ^ 2 + 1 y_18_ ^ 2 - 2 y_28_ * y_18_ + 1 y_28_ ^ 2 ] <= 4292.5
quadratic_ranged_62_ub: [ 1 x_26_ ^ 2 - 2 x_28_ * x_26_ + 1 x_28_ ^ 2 + 1 y_26_ ^ 2 - 2 y_28_ * y_26_ + 1 y_28_ ^ 2 ] <= 461.57
quadratic_ranged_63_ub: [ 1 x_27_ ^ 2 - 2 x_28_ * x_27_ + 1 x_28_ ^ 2 + 1 y_27_ ^ 2 - 2 y_28_ * y_27_ + 1 y_28_ ^ 2 ] <= 16350.89
quadratic_ranged_64_ub: [ 1 x_20_ ^ 2 - 2 x_29_ * x_20_ + 1 x_29_ ^ 2 + 1 y_20_ ^ 2 - 2 y_29_ * y_20_ + 1 y_29_ ^ 2 ] <= 918.09
quadratic_ranged_65_ub: [ 1 x_24_ ^ 2 - 2 x_29_ * x_24_ + 1 x_29_ ^ 2 + 1 y_24_ ^ 2 - 2 y_29_ * y_24_ + 1 y_29_ ^ 2 ] <= 26378.170000000002
quadratic_ranged_66_ub: [ 1 x_28_ ^ 2 - 2 x_29_ * x_28_ + 1 x_29_ ^ 2 + 1 y_28_ ^ 2 - 2 y_29_ * y_28_ + 1 y_29_ ^ 2 ] <= 7524.5
quadratic_ranged_67_ub: [ 1 x_1_ ^ 2 - 2 x_30_ * x_1_ + 1 x_30_ ^ 2 + 1 y_1_ ^ 2 - 2 y_30_ * y_1_ + 1 y_30_ ^ 2 ] <= 18044.66
quadratic_ranged_68_ub: [ 1 x_29_ ^ 2 - 2 x_30_ * x_29_ + 1 x_30_ ^ 2 + 1 y_29_ ^ 2 - 2 y_30_ * y_29_ + 1 y_30_ ^ 2 ] <= 13126.97
quadratic_ranged_69_ub: [ 1 x_4_ ^ 2 - 2 x_31_ * x_4_ + 1 x_31_ ^ 2 + 1 y_4_ ^ 2 - 2 y_31_ * y_4_ + 1 y_31_ ^ 2 ] <= 21260.5
quadratic_ranged_70_ub: [ 1 x_9_ ^ 2 - 2 x_31_ * x_9_ + 1 x_31_ ^ 2 + 1 y_9_ ^ 2 - 2 y_31_ * y_9_ + 1 y_31_ ^ 2 ] <= 26184.25
quadratic_ranged_71_ub: [ 1 x_14_ ^ 2 - 2 x_31_ * x_14_ + 1 x_31_ ^ 2 + 1 y_14_ ^ 2 - 2 y_31_ * y_14_ + 1 y_31_ ^ 2 ] <= 4873.25
quadratic_ranged_72_ub: [ 1 x_30_ ^ 2 - 2 x_31_ * x_30_ + 1 x_31_ ^ 2 + 1 y_30_ ^ 2 - 2 y_31_ * y_30_ + 1 y_31_ ^ 2 ] <= 323.2
quadratic_ranged_73_ub: [ 1 x_1_ ^ 2 - 2 x_32_ * x_1_ + 1 x_32_ ^ 2 + 1 y_1_ ^ 2 - 2 y_32_ * y_1_ + 1 y_32_ ^ 2 ] <= 38506.25
quadratic_ranged_74_ub: [ 1 x_4_ ^ 2 - 2 x_32_ * x_4_ + 1 x_32_ ^ 2 + 1 y_4_ ^ 2 - 2 y_32_ * y_4_ + 1 y_32_ ^ 2 ] <= 46586.25
quadratic_ranged_75_ub: [ 1 x_31_ ^ 2 - 2 x_32_ * x_31_ + 1 x_32_ ^ 2 + 1 y_31_ ^ 2 - 2 y_32_ * y_31_ + 1 y_32_ ^ 2 ] <= 18972.85
quadratic_ranged_76_ub: [ 1 x_14_ ^ 2 - 2 x_33_ * x_14_ + 1 x_33_ ^ 2 + 1 y_14_ ^ 2 - 2 y_33_ * y_14_ + 1 y_33_ ^ 2 ] <= 10912.04
quadratic_ranged_77_ub: [ 1 x_32_ ^ 2 - 2 x_33_ * x_32_ + 1 x_33_ ^ 2 + 1 y_32_ ^ 2 - 2 y_33_ * y_32_ + 1 y_33_ ^ 2 ] <= 8090.1
quadratic_ranged_78_ub: [ 1 x_2_ ^ 2 - 2 x_34_ * x_2_ + 1 x_34_ ^ 2 + 1 y_2_ ^ 2 - 2 y_34_ * y_2_ + 1 y_34_ ^ 2 ] <= 13114.85
quadratic_ranged_79_ub: [ 1 x_4_ ^ 2 - 2 x_34_ * x_4_ + 1 x_34_ ^ 2 + 1 y_4_ ^ 2 - 2 y_34_ * y_4_ + 1 y_34_ ^ 2 ] <= 6548.84
quadratic_ranged_80_ub: [ 1 x_5_ ^ 2 - 2 x_34_ * x_5_ + 1 x_34_ ^ 2 + 1 y_5_ ^ 2 - 2 y_34_ * y_5_ + 1 y_34_ ^ 2 ] <= 4618.7300000000005
quadratic_ranged_81_ub: [ 1 x_6_ ^ 2 - 2 x_34_ * x_6_ + 1 x_34_ ^ 2 + 1 y_6_ ^ 2 - 2 y_34_ * y_6_ + 1 y_34_ ^ 2 ] <= 15281.3
quadratic_ranged_82_ub: [ 1 x_15_ ^ 2 - 2 x_34_ * x_15_ + 1 x_34_ ^ 2 + 1 y_15_ ^ 2 - 2 y_34_ * y_15_ + 1 y_34_ ^ 2 ] <= 2267.45
quadratic_ranged_83_ub: [ 1 x_27_ ^ 2 - 2 x_34_ * x_27_ + 1 x_34_ ^ 2 + 1 y_27_ ^ 2 - 2 y_34_ * y_27_ + 1 y_34_ ^ 2 ] <= 30253.54
quadratic_ranged_84_ub: [ 1 x_29_ ^ 2 - 2 x_34_ * x_29_ + 1 x_34_ ^ 2 + 1 y_29_ ^ 2 - 2 y_34_ * y_29_ + 1 y_34_ ^ 2 ] <= 13021.93
quadratic_ranged_85_ub: [ 1 x_33_ ^ 2 - 2 x_34_ * x_33_ + 1 x_34_ ^ 2 + 1 y_33_ ^ 2 - 2 y_34_ * y_33_ + 1 y_34_ ^ 2 ] <= 15817.61
quadratic_ranged_86_ub: [ 1 x_13_ ^ 2 - 2 x_35_ * x_13_ + 1 x_35_ ^ 2 + 1 y_13_ ^ 2 - 2 y_35_ * y_13_ + 1 y_35_ ^ 2 ] <= 6013.54
quadratic_ranged_87_ub: [ 1 x_34_ ^ 2 - 2 x_35_ * x_34_ + 1 x_35_ ^ 2 + 1 y_34_ ^ 2 - 2 y_35_ * y_34_ + 1 y_35_ ^ 2 ] <= 1892.74
quadratic_ranged_88_ub: [ 1 x_1_ ^ 2 - 2 x_36_ * x_1_ + 1 x_36_ ^ 2 + 1 y_1_ ^ 2 - 2 y_36_ * y_1_ + 1 y_36_ ^ 2 ] <= 10690.85
quadratic_ranged_89_ub: [ 1 x_29_ ^ 2 - 2 x_36_ * x_29_ + 1 x_36_ ^ 2 + 1 y_29_ ^ 2 - 2 y_36_ * y_29_ + 1 y_36_ ^ 2 ] <= 5552.9800000000005
quadratic_ranged_90_ub: [ 1 x_31_ ^ 2 - 2 x_36_ * x_31_ + 1 x_36_ ^ 2 + 1 y_31_ ^ 2 - 2 y_36_ * y_31_ + 1 y_36_ ^ 2 ] <= 3390.57
quadratic_ranged_91_ub: [ 1 x_35_ ^ 2 - 2 x_36_ * x_35_ + 1 x_36_ ^ 2 + 1 y_35_ ^ 2 - 2 y_36_ * y_35_ + 1 y_36_ ^ 2 ] <= 14569.25
quadratic_ranged_92_ub: [ 1 x_10_ ^ 2 - 2 x_37_ * x_10_ + 1 x_37_ ^ 2 + 1 y_10_ ^ 2 - 2 y_37_ * y_10_ + 1 y_37_ ^ 2 ] <= 12189.69
quadratic_ranged_93_ub: [ 1 x_30_ ^ 2 - 2 x_37_ * x_30_ + 1 x_37_ ^ 2 + 1 y_30_ ^ 2 - 2 y_37_ * y_30_ + 1 y_37_ ^ 2 ] <= 10588.84
quadratic_ranged_94_ub: [ 1 x_36_ ^ 2 - 2 x_37_ * x_36_ + 1 x_37_ ^ 2 + 1 y_36_ ^ 2 - 2 y_37_ * y_36_ + 1 y_37_ ^ 2 ] <= 13155.25
quadratic_ranged_95_ub: [ 1 x_2_ ^ 2 - 2 x_38_ * x_2_ + 1 x_38_ ^ 2 + 1 y_2_ ^ 2 - 2 y_38_ * y_2_ + 1 y_38_ ^ 2 ] <= 2267.45
quadratic_ranged_96_ub: [ 1 x_4_ ^ 2 - 2 x_38_ * x_4_ + 1 x_38_ ^ 2 + 1 y_4_ ^ 2 - 2 y_38_ * y_4_ + 1 y_38_ ^ 2 ] <= 10602.98
quadratic_ranged_97_ub: [ 1 x_13_ ^ 2 - 2 x_38_ * x_13_ + 1 x_38_ ^ 2 + 1 y_13_ ^ 2 - 2 y_38_ * y_13_ + 1 y_38_ ^ 2 ] <= 6344.82
quadratic_ranged_98_ub: [ 1 x_17_ ^ 2 - 2 x_38_ * x_17_ + 1 x_38_ ^ 2 + 1 y_17_ ^ 2 - 2 y_38_ * y_17_ + 1 y_38_ ^ 2 ] <= 9164.74
quadratic_ranged_99_ub: [ 1 x_29_ ^ 2 - 2 x_38_ * x_29_ + 1 x_38_ ^ 2 + 1 y_29_ ^ 2 - 2 y_38_ * y_29_ + 1 y_38_ ^ 2 ] <= 6319.57
quadratic_ranged_100_ub: [ 1 x_30_ ^ 2 - 2 x_38_ * x_30_ + 1 x_38_ ^ 2 + 1 y_30_ ^ 2 - 2 y_38_ * y_30_ + 1 y_38_ ^ 2 ] <= 1943.24
quadratic_ranged_101_ub: [ 1 x_35_ ^ 2 - 2 x_38_ * x_35_ + 1 x_38_ ^ 2 + 1 y_35_ ^ 2 - 2 y_38_ * y_35_ + 1 y_38_ ^ 2 ] <= 19121.32
quadratic_ranged_102_ub: [ 1 x_37_ ^ 2 - 2 x_38_ * x_37_ + 1 x_38_ ^ 2 + 1 y_37_ ^ 2 - 2 y_38_ * y_37_ + 1 y_38_ ^ 2 ] <= 17170
quadratic_ranged_103_ub: [ 1 x_7_ ^ 2 - 2 x_39_ * x_7_ + 1 x_39_ ^ 2 + 1 y_7_ ^ 2 - 2 y_39_ * y_7_ + 1 y_39_ ^ 2 ] <= 5131.81
quadratic_ranged_104_ub: [ 1 x_25_ ^ 2 - 2 x_39_ * x_25_ + 1 x_39_ ^ 2 + 1 y_25_ ^ 2 - 2 y_39_ * y_25_ + 1 y_39_ ^ 2 ] <= 667.61
quadratic_ranged_105_ub: [ 1 x_32_ ^ 2 - 2 x_39_ * x_32_ + 1 x_39_ ^ 2 + 1 y_32_ ^ 2 - 2 y_39_ * y_32_ + 1 y_39_ ^ 2 ] <= 11039.3
quadratic_ranged_106_ub: [ 1 x_38_ ^ 2 - 2 x_39_ * x_38_ + 1 x_39_ ^ 2 + 1 y_38_ ^ 2 - 2 y_39_ * y_38_ + 1 y_39_ ^ 2 ] <= 23134.05
quadratic_ranged_107_ub: [ 1 x_9_ ^ 2 - 2 x_40_ * x_9_ + 1 x_40_ ^ 2 + 1 y_9_ ^ 2 - 2 y_40_ * y_9_ + 1 y_40_ ^ 2 ] <= 20563.6
quadratic_ranged_108_ub: [ 1 x_30_ ^ 2 - 2 x_40_ * x_30_ + 1 x_40_ ^ 2 + 1 y_30_ ^ 2 - 2 y_40_ * y_30_ + 1 y_40_ ^ 2 ] <= 13300.69
quadratic_ranged_109_ub: [ 1 x_39_ ^ 2 - 2 x_40_ * x_39_ + 1 x_40_ ^ 2 + 1 y_39_ ^ 2 - 2 y_40_ * y_39_ + 1 y_40_ ^ 2 ] <= 2343.2
quadratic_ranged_110_ub: [ 1 x_4_ ^ 2 - 2 x_41_ * x_4_ + 1 x_41_ ^ 2 + 1 y_4_ ^ 2 - 2 y_41_ * y_4_ + 1 y_41_ ^ 2 ] <= 8051.72
quadratic_ranged_111_ub: [ 1 x_20_ ^ 2 - 2 x_41_ * x_20_ + 1 x_41_ ^ 2 + 1 y_20_ ^ 2 - 2 y_41_ * y_20_ + 1 y_41_ ^ 2 ] <= 3983.44
quadratic_ranged_112_ub: [ 1 x_40_ ^ 2 - 2 x_41_ * x_40_ + 1 x_41_ ^ 2 + 1 y_40_ ^ 2 - 2 y_41_ * y_40_ + 1 y_41_ ^ 2 ] <= 8004.25
quadratic_ranged_113_ub: [ 1 x_13_ ^ 2 - 2 x_42_ * x_13_ + 1 x_42_ ^ 2 + 1 y_13_ ^ 2 - 2 y_42_ * y_13_ + 1 y_42_ ^ 2 ] <= 1956.3700000000001
quadratic_ranged_114_ub: [ 1 x_21_ ^ 2 - 2 x_42_ * x_21_ + 1 x_42_ ^ 2 + 1 y_21_ ^ 2 - 2 y_42_ * y_21_ + 1 y_42_ ^ 2 ] <= 8953.65
quadratic_ranged_115_ub: [ 1 x_32_ ^ 2 - 2 x_42_ * x_32_ + 1 x_42_ ^ 2 + 1 y_32_ ^ 2 - 2 y_42_ * y_32_ + 1 y_42_ ^ 2 ] <= 31649.36
quadratic_ranged_116_ub: [ 1 x_38_ ^ 2 - 2 x_42_ * x_38_ + 1 x_42_ ^ 2 + 1 y_38_ ^ 2 - 2 y_42_ * y_38_ + 1 y_42_ ^ 2 ] <= 13761.25
quadratic_ranged_117_ub: [ 1 x_41_ ^ 2 - 2 x_42_ * x_41_ + 1 x_42_ ^ 2 + 1 y_41_ ^ 2 - 2 y_42_ * y_41_ + 1 y_42_ ^ 2 ] <= 6065.05
quadratic_ranged_118_ub: [ 1 x_15_ ^ 2 - 2 x_43_ * x_15_ + 1 x_43_ ^ 2 + 1 y_15_ ^ 2 - 2 y_43_ * y_15_ + 1 y_43_ ^ 2 ] <= 16641.77
quadratic_ranged_119_ub: [ 1 x_24_ ^ 2 - 2 x_43_ * x_24_ + 1 x_43_ ^ 2 + 1 y_24_ ^ 2 - 2 y_43_ * y_24_ + 1 y_43_ ^ 2 ] <= 30940.34
quadratic_ranged_120_ub: [ 1 x_35_ ^ 2 - 2 x_43_ * x_35_ + 1 x_43_ ^ 2 + 1 y_35_ ^ 2 - 2 y_43_ * y_35_ + 1 y_43_ ^ 2 ] <= 20624.2
quadratic_ranged_121_ub: [ 1 x_42_ ^ 2 - 2 x_43_ * x_42_ + 1 x_43_ ^ 2 + 1 y_42_ ^ 2 - 2 y_43_ * y_42_ + 1 y_43_ ^ 2 ] <= 17239.69
quadratic_ranged_122_ub: [ 1 x_7_ ^ 2 - 2 x_44_ * x_7_ + 1 x_44_ ^ 2 + 1 y_7_ ^ 2 - 2 y_44_ * y_7_ + 1 y_44_ ^ 2 ] <= 6764.9800000000005
quadratic_ranged_123_ub: [ 1 x_10_ ^ 2 - 2 x_44_ * x_10_ + 1 x_44_ ^ 2 + 1 y_10_ ^ 2 - 2 y_44_ * y_10_ + 1 y_44_ ^ 2 ] <= 1035.25
quadratic_ranged_124_ub: [ 1 x_26_ ^ 2 - 2 x_44_ * x_26_ + 1 x_44_ ^ 2 + 1 y_26_ ^ 2 - 2 y_44_ * y_26_ + 1 y_44_ ^ 2 ] <= 3983.44
quadratic_ranged_125_ub: [ 1 x_31_ ^ 2 - 2 x_44_ * x_31_ + 1 x_44_ ^ 2 + 1 y_31_ ^ 2 - 2 y_44_ * y_31_ + 1 y_44_ ^ 2 ] <= 6322.6
quadratic_ranged_126_ub: [ 1 x_33_ ^ 2 - 2 x_44_ * x_33_ + 1 x_44_ ^ 2 + 1 y_33_ ^ 2 - 2 y_44_ * y_33_ + 1 y_44_ ^ 2 ] <= 3354.21
quadratic_ranged_127_ub: [ 1 x_36_ ^ 2 - 2 x_44_ * x_36_ + 1 x_44_ ^ 2 + 1 y_36_ ^ 2 - 2 y_44_ * y_36_ + 1 y_44_ ^ 2 ] <= 2356.33
quadratic_ranged_128_ub: [ 1 x_43_ ^ 2 - 2 x_44_ * x_43_ + 1 x_44_ ^ 2 + 1 y_43_ ^ 2 - 2 y_44_ * y_43_ + 1 y_44_ ^ 2 ] <= 5179.28
quadratic_ranged_129_ub: [ 1 x_20_ ^ 2 - 2 x_45_ * x_20_ + 1 x_45_ ^ 2 + 1 y_20_ ^ 2 - 2 y_45_ * y_20_ + 1 y_45_ ^ 2 ] <= 22078.6
quadratic_ranged_130_ub: [ 1 x_24_ ^ 2 - 2 x_45_ * x_24_ + 1 x_45_ ^ 2 + 1 y_24_ ^ 2 - 2 y_45_ * y_24_ + 1 y_45_ ^ 2 ] <= 6019.6
quadratic_ranged_131_ub: [ 1 x_44_ ^ 2 - 2 x_45_ * x_44_ + 1 x_45_ ^ 2 + 1 y_44_ ^ 2 - 2 y_45_ * y_44_ + 1 y_45_ ^ 2 ] <= 8340.58
quadratic_ranged_132_ub: [ 1 x_21_ ^ 2 - 2 x_46_ * x_21_ + 1 x_46_ ^ 2 + 1 y_21_ ^ 2 - 2 y_46_ * y_21_ + 1 y_46_ ^ 2 ] <= 10813.06
quadratic_ranged_133_ub: [ 1 x_23_ ^ 2 - 2 x_46_ * x_23_ + 1 x_46_ ^ 2 + 1 y_23_ ^ 2 - 2 y_46_ * y_23_ + 1 y_46_ ^ 2 ] <= 29004.170000000002
quadratic_ranged_134_ub: [ 1 x_24_ ^ 2 - 2 x_46_ * x_24_ + 1 x_46_ ^ 2 + 1 y_24_ ^ 2 - 2 y_46_ * y_24_ + 1 y_46_ ^ 2 ] <= 29576.84
quadratic_ranged_135_ub: [ 1 x_28_ ^ 2 - 2 x_46_ * x_28_ + 1 x_46_ ^ 2 + 1 y_28_ ^ 2 - 2 y_46_ * y_28_ + 1 y_46_ ^ 2 ] <= 5370.17
quadratic_ranged_136_ub: [ 1 x_29_ ^ 2 - 2 x_46_ * x_29_ + 1 x_46_ ^ 2 + 1 y_29_ ^ 2 - 2 y_46_ * y_29_ + 1 y_46_ ^ 2 ] <= 19671.77
quadratic_ranged_137_ub: [ 1 x_45_ ^ 2 - 2 x_46_ * x_45_ + 1 x_46_ ^ 2 + 1 y_45_ ^ 2 - 2 y_46_ * y_45_ + 1 y_46_ ^ 2 ] <= 12237.16
quadratic_ranged_138_ub: [ 1 x_5_ ^ 2 - 2 x_47_ * x_5_ + 1 x_47_ ^ 2 + 1 y_5_ ^ 2 - 2 y_47_ * y_5_ + 1 y_47_ ^ 2 ] <= 4097.57
quadratic_ranged_139_ub: [ 1 x_7_ ^ 2 - 2 x_47_ * x_7_ + 1 x_47_ ^ 2 + 1 y_7_ ^ 2 - 2 y_47_ * y_7_ + 1 y_47_ ^ 2 ] <= 4928.8
quadratic_ranged_140_ub: [ 1 x_8_ ^ 2 - 2 x_47_ * x_8_ + 1 x_47_ ^ 2 + 1 y_8_ ^ 2 - 2 y_47_ * y_8_ + 1 y_47_ ^ 2 ] <= 10799.93
quadratic_ranged_141_ub: [ 1 x_21_ ^ 2 - 2 x_47_ * x_21_ + 1 x_47_ ^ 2 + 1 y_21_ ^ 2 - 2 y_47_ * y_21_ + 1 y_47_ ^ 2 ] <= 3161.3
quadratic_ranged_142_ub: [ 1 x_44_ ^ 2 - 2 x_47_ * x_44_ + 1 x_47_ ^ 2 + 1 y_44_ ^ 2 - 2 y_47_ * y_44_ + 1 y_47_ ^ 2 ] <= 373.7
quadratic_ranged_143_ub: [ 1 x_46_ ^ 2 - 2 x_47_ * x_46_ + 1 x_47_ ^ 2 + 1 y_46_ ^ 2 - 2 y_47_ * y_46_ + 1 y_47_ ^ 2 ] <= 8778.92
quadratic_ranged_144_ub: [ 1 x_12_ ^ 2 - 2 x_48_ * x_12_ + 1 x_48_ ^ 2 + 1 y_12_ ^ 2 - 2 y_48_ * y_12_ + 1 y_48_ ^ 2 ] <= 12912.85
quadratic_ranged_145_ub: [ 1 x_13_ ^ 2 - 2 x_48_ * x_13_ + 1 x_48_ ^ 2 + 1 y_13_ ^ 2 - 2 y_48_ * y_13_ + 1 y_48_ ^ 2 ] <= 1023.13
quadratic_ranged_146_ub: [ 1 x_15_ ^ 2 - 2 x_48_ * x_15_ + 1 x_48_ ^ 2 + 1 y_15_ ^ 2 - 2 y_48_ * y_15_ + 1 y_48_ ^ 2 ] <= 3807.7
quadratic_ranged_147_ub: [ 1 x_23_ ^ 2 - 2 x_48_ * x_23_ + 1 x_48_ ^ 2 + 1 y_23_ ^ 2 - 2 y_48_ * y_23_ + 1 y_48_ ^ 2 ] <= 31237.28
quadratic_ranged_148_ub: [ 1 x_34_ ^ 2 - 2 x_48_ * x_34_ + 1 x_48_ ^ 2 + 1 y_34_ ^ 2 - 2 y_48_ * y_34_ + 1 y_48_ ^ 2 ] <= 9798.01
quadratic_ranged_149_ub: [ 1 x_42_ ^ 2 - 2 x_48_ * x_42_ + 1 x_48_ ^ 2 + 1 y_42_ ^ 2 - 2 y_48_ * y_42_ + 1 y_48_ ^ 2 ] <= 4173.32
quadratic_ranged_150_ub: [ 1 x_46_ ^ 2 - 2 x_48_ * x_46_ + 1 x_48_ ^ 2 + 1 y_46_ ^ 2 - 2 y_48_ * y_46_ + 1 y_48_ ^ 2 ] <= 22265.45
quadratic_ranged_151_ub: [ 1 x_47_ ^ 2 - 2 x_48_ * x_47_ + 1 x_48_ ^ 2 + 1 y_47_ ^ 2 - 2 y_48_ * y_47_ + 1 y_48_ ^ 2 ] <= 7644.6900000000005
quadratic_ranged_152_ub: [ 1 x_6_ ^ 2 - 2 x_49_ * x_6_ + 1 x_49_ ^ 2 + 1 y_6_ ^ 2 - 2 y_49_ * y_6_ + 1 y_49_ ^ 2 ] <= 15782.26
quadratic_ranged_153_ub: [ 1 x_15_ ^ 2 - 2 x_49_ * x_15_ + 1 x_49_ ^ 2 + 1 y_15_ ^ 2 - 2 y_49_ * y_15_ + 1 y_49_ ^ 2 ] <= 10973.65
quadratic_ranged_154_ub: [ 1 x_26_ ^ 2 - 2 x_49_ * x_26_ + 1 x_49_ ^ 2 + 1 y_26_ ^ 2 - 2 y_49_ * y_26_ + 1 y_49_ ^ 2 ] <= 46187.3
quadratic_ranged_155_ub: [ 1 x_40_ ^ 2 - 2 x_49_ * x_40_ + 1 x_49_ ^ 2 + 1 y_40_ ^ 2 - 2 y_49_ * y_40_ + 1 y_49_ ^ 2 ] <= 21918.01
quadratic_ranged_156_ub: [ 1 x_47_ ^ 2 - 2 x_49_ * x_47_ + 1 x_49_ ^ 2 + 1 y_47_ ^ 2 - 2 y_49_ * y_47_ + 1 y_49_ ^ 2 ] <= 18689.04
quadratic_ranged_157_ub: [ 1 x_48_ ^ 2 - 2 x_49_ * x_48_ + 1 x_49_ ^ 2 + 1 y_48_ ^ 2 - 2 y_49_ * y_48_ + 1 y_49_ ^ 2 ] <= 25424.73
quadratic_ranged_158_ub: [ 1 x_28_ ^ 2 - 2 x_50_ * x_28_ + 1 x_50_ ^ 2 + 1 y_28_ ^ 2 - 2 y_50_ * y_28_ + 1 y_50_ ^ 2 ] <= 8219.38
quadratic_ranged_159_ub: [ 1 x_35_ ^ 2 - 2 x_50_ * x_35_ + 1 x_50_ ^ 2 + 1 y_35_ ^ 2 - 2 y_50_ * y_35_ + 1 y_50_ ^ 2 ] <= 3681.45
quadratic_ranged_160_ub: [ 1 x_37_ ^ 2 - 2 x_50_ * x_37_ + 1 x_50_ ^ 2 + 1 y_37_ ^ 2 - 2 y_50_ * y_37_ + 1 y_50_ ^ 2 ] <= 7951.7300000000005
quadratic_ranged_161_ub: [ 1 x_42_ ^ 2 - 2 x_50_ * x_42_ + 1 x_50_ ^ 2 + 1 y_42_ ^ 2 - 2 y_50_ * y_42_ + 1 y_50_ ^ 2 ] <= 1785.68
quadratic_ranged_162_ub: [ 1 x_49_ ^ 2 - 2 x_50_ * x_49_ + 1 x_50_ ^ 2 + 1 y_49_ ^ 2 - 2 y_50_ * y_49_ + 1 y_50_ ^ 2 ] <= 19033.45
quadratic_ranged_163_ub: [ 1 x_4_ ^ 2 - 2 x_51_ * x_4_ + 1 x_51_ ^ 2 + 1 y_4_ ^ 2 - 2 y_51_ * y_4_ + 1 y_51_ ^ 2 ] <= 21771.56
quadratic_ranged_164_ub: [ 1 x_6_ ^ 2 - 2 x_51_ * x_6_ + 1 x_51_ ^ 2 + 1 y_6_ ^ 2 - 2 y_51_ * y_6_ + 1 y_51_ ^ 2 ] <= 850.42
quadratic_ranged_165_ub: [ 1 x_41_ ^ 2 - 2 x_51_ * x_41_ + 1 x_51_ ^ 2 + 1 y_41_ ^ 2 - 2 y_51_ * y_41_ + 1 y_51_ ^ 2 ] <= 12903.76
quadratic_ranged_166_ub: [ 1 x_44_ ^ 2 - 2 x_51_ * x_44_ + 1 x_51_ ^ 2 + 1 y_44_ ^ 2 - 2 y_51_ * y_44_ + 1 y_51_ ^ 2 ] <= 11645.3
quadratic_ranged_167_ub: [ 1 x_47_ ^ 2 - 2 x_51_ * x_47_ + 1 x_51_ ^ 2 + 1 y_47_ ^ 2 - 2 y_51_ * y_47_ + 1 y_51_ ^ 2 ] <= 7857.8
quadratic_ranged_168_ub: [ 1 x_50_ ^ 2 - 2 x_51_ * x_50_ + 1 x_51_ ^ 2 + 1 y_50_ ^ 2 - 2 y_51_ * y_50_ + 1 y_51_ ^ 2 ] <= 11236.25
quadratic_ranged_169_ub: [ 1 x_10_ ^ 2 - 2 x_52_ * x_10_ + 1 x_52_ ^ 2 + 1 y_10_ ^ 2 - 2 y_52_ * y_10_ + 1 y_52_ ^ 2 ] <= 2416.93
quadratic_ranged_170_ub: [ 1 x_12_ ^ 2 - 2 x_52_ * x_12_ + 1 x_52_ ^ 2 + 1 y_12_ ^ 2 - 2 y_52_ * y_12_ + 1 y_52_ ^ 2 ] <= 2832.04
quadratic_ranged_171_ub: [ 1 x_22_ ^ 2 - 2 x_52_ * x_22_ + 1 x_52_ ^ 2 + 1 y_22_ ^ 2 - 2 y_52_ * y_22_ + 1 y_52_ ^ 2 ] <= 2363.4
quadratic_ranged_172_ub: [ 1 x_24_ ^ 2 - 2 x_52_ * x_24_ + 1 x_52_ ^ 2 + 1 y_24_ ^ 2 - 2 y_52_ * y_24_ + 1 y_52_ ^ 2 ] <= 8225.44
quadratic_ranged_173_ub: [ 1 x_35_ ^ 2 - 2 x_52_ * x_35_ + 1 x_52_ ^ 2 + 1 y_35_ ^ 2 - 2 y_52_ * y_35_ + 1 y_52_ ^ 2 ] <= 1658.42
quadratic_ranged_174_ub: [ 1 x_38_ ^ 2 - 2 x_52_ * x_38_ + 1 x_52_ ^ 2 + 1 y_38_ ^ 2 - 2 y_52_ * y_38_ + 1 y_52_ ^ 2 ] <= 13285.54
quadratic_ranged_175_ub: [ 1 x_49_ ^ 2 - 2 x_52_ * x_49_ + 1 x_52_ ^ 2 + 1 y_49_ ^ 2 - 2 y_52_ * y_49_ + 1 y_52_ ^ 2 ] <= 10875.68
quadratic_ranged_176_ub: [ 1 x_51_ ^ 2 - 2 x_52_ * x_51_ + 1 x_52_ ^ 2 + 1 y_51_ ^ 2 - 2 y_52_ * y_51_ + 1 y_52_ ^ 2 ] <= 10508.04
quadratic_ranged_177_ub: [ 1 x_1_ ^ 2 - 2 x_53_ * x_1_ + 1 x_53_ ^ 2 + 1 y_1_ ^ 2 - 2 y_53_ * y_1_ + 1 y_53_ ^ 2 ] <= 13034.05
quadratic_ranged_178_ub: [ 1 x_5_ ^ 2 - 2 x_53_ * x_5_ + 1 x_53_ ^ 2 + 1 y_5_ ^ 2 - 2 y_53_ * y_5_ + 1 y_53_ ^ 2 ] <= 3961.2200000000003
quadratic_ranged_179_ub: [ 1 x_17_ ^ 2 - 2 x_53_ * x_17_ + 1 x_53_ ^ 2 + 1 y_17_ ^ 2 - 2 y_53_ * y_17_ + 1 y_53_ ^ 2 ] <= 611.05
quadratic_ranged_180_ub: [ 1 x_19_ ^ 2 - 2 x_53_ * x_19_ + 1 x_53_ ^ 2 + 1 y_19_ ^ 2 - 2 y_53_ * y_19_ + 1 y_53_ ^ 2 ] <= 6933.65
quadratic_ranged_181_ub: [ 1 x_32_ ^ 2 - 2 x_53_ * x_32_ + 1 x_53_ ^ 2 + 1 y_32_ ^ 2 - 2 y_53_ * y_32_ + 1 y_53_ ^ 2 ] <= 7039.7
quadratic_ranged_182_ub: [ 1 x_39_ ^ 2 - 2 x_53_ * x_39_ + 1 x_53_ ^ 2 + 1 y_39_ ^ 2 - 2 y_53_ * y_39_ + 1 y_53_ ^ 2 ] <= 2525
quadratic_ranged_183_ub: [ 1 x_40_ ^ 2 - 2 x_53_ * x_40_ + 1 x_53_ ^ 2 + 1 y_40_ ^ 2 - 2 y_53_ * y_40_ + 1 y_53_ ^ 2 ] <= 747.4
quadratic_ranged_184_ub: [ 1 x_42_ ^ 2 - 2 x_53_ * x_42_ + 1 x_53_ ^ 2 + 1 y_42_ ^ 2 - 2 y_53_ * y_42_ + 1 y_53_ ^ 2 ] <= 9382.9
quadratic_ranged_185_ub: [ 1 x_48_ ^ 2 - 2 x_53_ * x_48_ + 1 x_53_ ^ 2 + 1 y_48_ ^ 2 - 2 y_53_ * y_48_ + 1 y_53_ ^ 2 ] <= 19418.26
quadratic_ranged_186_ub: [ 1 x_52_ ^ 2 - 2 x_53_ * x_52_ + 1 x_53_ ^ 2 + 1 y_52_ ^ 2 - 2 y_53_ * y_52_ + 1 y_53_ ^ 2 ] <= 9616.210000000001
quadratic_ranged_187_ub: [ 1 x_9_ ^ 2 - 2 x_54_ * x_9_ + 1 x_54_ ^ 2 + 1 y_9_ ^ 2 - 2 y_54_ * y_9_ + 1 y_54_ ^ 2 ] <= 5383.3
quadratic_ranged_188_ub: [ 1 x_10_ ^ 2 - 2 x_54_ * x_10_ + 1 x_54_ ^ 2 + 1 y_10_ ^ 2 - 2 y_54_ * y_10_ + 1 y_54_ ^ 2 ] <= 5239.88
quadratic_ranged_189_ub: [ 1 x_26_ ^ 2 - 2 x_54_ * x_26_ + 1 x_54_ ^ 2 + 1 y_26_ ^ 2 - 2 y_54_ * y_26_ + 1 y_54_ ^ 2 ] <= 14266.25
quadratic_ranged_190_ub: [ 1 x_41_ ^ 2 - 2 x_54_ * x_41_ + 1 x_54_ ^ 2 + 1 y_41_ ^ 2 - 2 y_54_ * y_41_ + 1 y_54_ ^ 2 ] <= 4671.25
quadratic_ranged_191_ub: [ 1 x_53_ ^ 2 - 2 x_54_ * x_53_ + 1 x_54_ ^ 2 + 1 y_53_ ^ 2 - 2 y_54_ * y_53_ + 1 y_54_ ^ 2 ] <= 3080.5
quadratic_ranged_192_ub: [ 1 x_12_ ^ 2 - 2 x_55_ * x_12_ + 1 x_55_ ^ 2 + 1 y_12_ ^ 2 - 2 y_55_ * y_12_ + 1 y_55_ ^ 2 ] <= 36315.56
quadratic_ranged_193_ub: [ 1 x_21_ ^ 2 - 2 x_55_ * x_21_ + 1 x_55_ ^ 2 + 1 y_21_ ^ 2 - 2 y_55_ * y_21_ + 1 y_55_ ^ 2 ] <= 16873.06
quadratic_ranged_194_ub: [ 1 x_31_ ^ 2 - 2 x_55_ * x_31_ + 1 x_55_ ^ 2 + 1 y_31_ ^ 2 - 2 y_55_ * y_31_ + 1 y_55_ ^ 2 ] <= 680.74
quadratic_ranged_195_ub: [ 1 x_49_ ^ 2 - 2 x_55_ * x_49_ + 1 x_55_ ^ 2 + 1 y_49_ ^ 2 - 2 y_55_ * y_49_ + 1 y_55_ ^ 2 ] <= 60276.8
quadratic_ranged_196_ub: [ 1 x_53_ ^ 2 - 2 x_55_ * x_53_ + 1 x_55_ ^ 2 + 1 y_53_ ^ 2 - 2 y_55_ * y_53_ + 1 y_55_ ^ 2 ] <= 13551.17
quadratic_ranged_197_ub: [ 1 x_54_ ^ 2 - 2 x_55_ * x_54_ + 1 x_55_ ^ 2 + 1 y_54_ ^ 2 - 2 y_55_ * y_54_ + 1 y_55_ ^ 2 ] <= 21247.37
quadratic_ranged_198_ub: [ 1 x_4_ ^ 2 - 2 x_56_ * x_4_ + 1 x_56_ ^ 2 + 1 y_4_ ^ 2 - 2 y_56_ * y_4_ + 1 y_56_ ^ 2 ] <= 13300.69
quadratic_ranged_199_ub: [ 1 x_24_ ^ 2 - 2 x_56_ * x_24_ + 1 x_56_ ^ 2 + 1 y_24_ ^ 2 - 2 y_56_ * y_24_ + 1 y_56_ ^ 2 ] <= 453.49
quadratic_ranged_200_ub: [ 1 x_36_ ^ 2 - 2 x_56_ * x_36_ + 1 x_56_ ^ 2 + 1 y_36_ ^ 2 - 2 y_56_ * y_36_ + 1 y_56_ ^ 2 ] <= 20947.4
quadratic_ranged_201_ub: [ 1 x_44_ ^ 2 - 2 x_56_ * x_44_ + 1 x_56_ ^ 2 + 1 y_44_ ^ 2 - 2 y_56_ * y_44_ + 1 y_56_ ^ 2 ] <= 9252.61
quadratic_ranged_202_ub: [ 1 x_55_ ^ 2 - 2 x_56_ * x_55_ + 1 x_56_ ^ 2 + 1 y_55_ ^ 2 - 2 y_56_ * y_55_ + 1 y_56_ ^ 2 ] <= 33888.53
quadratic_ranged_203_ub: [ 1 x_5_ ^ 2 - 2 x_57_ * x_5_ + 1 x_57_ ^ 2 + 1 y_5_ ^ 2 - 2 y_57_ * y_5_ + 1 y_57_ ^ 2 ] <= 17226.56
quadratic_ranged_204_ub: [ 1 x_11_ ^ 2 - 2 x_57_ * x_11_ + 1 x_57_ ^ 2 + 1 y_11_ ^ 2 - 2 y_57_ * y_11_ + 1 y_57_ ^ 2 ] <= 4146.05
quadratic_ranged_205_ub: [ 1 x_22_ ^ 2 - 2 x_57_ * x_22_ + 1 x_57_ ^ 2 + 1 y_22_ ^ 2 - 2 y_57_ * y_22_ + 1 y_57_ ^ 2 ] <= 8569.85
quadratic_ranged_206_ub: [ 1 x_24_ ^ 2 - 2 x_57_ * x_24_ + 1 x_57_ ^ 2 + 1 y_24_ ^ 2 - 2 y_57_ * y_24_ + 1 y_57_ ^ 2 ] <= 23178.49
quadratic_ranged_207_ub: [ 1 x_28_ ^ 2 - 2 x_57_ * x_28_ + 1 x_57_ ^ 2 + 1 y_28_ ^ 2 - 2 y_57_ * y_28_ + 1 y_57_ ^ 2 ] <= 15887.3
quadratic_ranged_208_ub: [ 1 x_31_ ^ 2 - 2 x_57_ * x_31_ + 1 x_57_ ^ 2 + 1 y_31_ ^ 2 - 2 y_57_ * y_31_ + 1 y_57_ ^ 2 ] <= 27093.25
quadratic_ranged_209_ub: [ 1 x_56_ ^ 2 - 2 x_57_ * x_56_ + 1 x_57_ ^ 2 + 1 y_56_ ^ 2 - 2 y_57_ * y_56_ + 1 y_57_ ^ 2 ] <= 17147.78
quadratic_ranged_210_ub: [ 1 x_6_ ^ 2 - 2 x_58_ * x_6_ + 1 x_58_ ^ 2 + 1 y_6_ ^ 2 - 2 y_58_ * y_6_ + 1 y_58_ ^ 2 ] <= 8670.85
quadratic_ranged_211_ub: [ 1 x_16_ ^ 2 - 2 x_58_ * x_16_ + 1 x_58_ ^ 2 + 1 y_16_ ^ 2 - 2 y_58_ * y_16_ + 1 y_58_ ^ 2 ] <= 10126.26
quadratic_ranged_212_ub: [ 1 x_57_ ^ 2 - 2 x_58_ * x_57_ + 1 x_58_ ^ 2 + 1 y_57_ ^ 2 - 2 y_58_ * y_57_ + 1 y_58_ ^ 2 ] <= 30805
quadratic_ranged_213_ub: [ 1 x_5_ ^ 2 - 2 x_59_ * x_5_ + 1 x_59_ ^ 2 + 1 y_5_ ^ 2 - 2 y_59_ * y_5_ + 1 y_59_ ^ 2 ] <= 4334.92
quadratic_ranged_214_ub: [ 1 x_9_ ^ 2 - 2 x_59_ * x_9_ + 1 x_59_ ^ 2 + 1 y_9_ ^ 2 - 2 y_59_ * y_9_ + 1 y_59_ ^ 2 ] <= 3137.06
quadratic_ranged_215_ub: [ 1 x_16_ ^ 2 - 2 x_59_ * x_16_ + 1 x_59_ ^ 2 + 1 y_16_ ^ 2 - 2 y_59_ * y_16_ + 1 y_59_ ^ 2 ] <= 49694.020000000004
quadratic_ranged_216_ub: [ 1 x_46_ ^ 2 - 2 x_59_ * x_46_ + 1 x_59_ ^ 2 + 1 y_46_ ^ 2 - 2 y_59_ * y_46_ + 1 y_59_ ^ 2 ] <= 37205.37
quadratic_ranged_217_ub: [ 1 x_53_ ^ 2 - 2 x_59_ * x_53_ + 1 x_59_ ^ 2 + 1 y_53_ ^ 2 - 2 y_59_ * y_53_ + 1 y_59_ ^ 2 ] <= 15329.78
quadratic_ranged_218_ub: [ 1 x_58_ ^ 2 - 2 x_59_ * x_58_ + 1 x_59_ ^ 2 + 1 y_58_ ^ 2 - 2 y_59_ * y_58_ + 1 y_59_ ^ 2 ] <= 28199.2
quadratic_ranged_219_ub: [ 1 x_2_ ^ 2 - 2 x_60_ * x_2_ + 1 x_60_ ^ 2 + 1 y_2_ ^ 2 - 2 y_60_ * y_2_ + 1 y_60_ ^ 2 ] <= 26829.64
quadratic_ranged_220_ub: [ 1 x_8_ ^ 2 - 2 x_60_ * x_8_ + 1 x_60_ ^ 2 + 1 y_8_ ^ 2 - 2 y_60_ * y_8_ + 1 y_60_ ^ 2 ] <= 13529.960000000001
quadratic_ranged_221_ub: [ 1 x_11_ ^ 2 - 2 x_60_ * x_11_ + 1 x_60_ ^ 2 + 1 y_11_ ^ 2 - 2 y_60_ * y_11_ + 1 y_60_ ^ 2 ] <= 11470.57
quadratic_ranged_222_ub: [ 1 x_32_ ^ 2 - 2 x_60_ * x_32_ + 1 x_60_ ^ 2 + 1 y_32_ ^ 2 - 2 y_60_ * y_32_ + 1 y_60_ ^ 2 ] <= 32004.88
quadratic_ranged_223_ub: [ 1 x_34_ ^ 2 - 2 x_60_ * x_34_ + 1 x_60_ ^ 2 + 1 y_34_ ^ 2 - 2 y_60_ * y_34_ + 1 y_60_ ^ 2 ] <= 4283.41
quadratic_ranged_224_ub: [ 1 x_59_ ^ 2 - 2 x_60_ * x_59_ + 1 x_60_ ^ 2 + 1 y_59_ ^ 2 - 2 y_60_ * y_59_ + 1 y_60_ ^ 2 ] <= 2767.4
quadratic_ranged_225_ub: [ 1 x_6_ ^ 2 - 2 x_61_ * x_6_ + 1 x_61_ ^ 2 + 1 y_6_ ^ 2 - 2 y_61_ * y_6_ + 1 y_61_ ^ 2 ] <= 12682.57
quadratic_ranged_226_ub: [ 1 x_16_ ^ 2 - 2 x_61_ * x_16_ + 1 x_61_ ^ 2 + 1 y_16_ ^ 2 - 2 y_61_ * y_16_ + 1 y_61_ ^ 2 ] <= 13323.92
quadratic_ranged_227_ub: [ 1 x_17_ ^ 2 - 2 x_61_ * x_17_ + 1 x_61_ ^ 2 + 1 y_17_ ^ 2 - 2 y_61_ * y_17_ + 1 y_61_ ^ 2 ] <= 2045.25
quadratic_ranged_228_ub: [ 1 x_26_ ^ 2 - 2 x_61_ * x_26_ + 1 x_61_ ^ 2 + 1 y_26_ ^ 2 - 2 y_61_ * y_26_ + 1 y_61_ ^ 2 ] <= 4380.37
quadratic_ranged_229_ub: [ 1 x_28_ ^ 2 - 2 x_61_ * x_28_ + 1 x_61_ ^ 2 + 1 y_28_ ^ 2 - 2 y_61_ * y_28_ + 1 y_61_ ^ 2 ] <= 6565
quadratic_ranged_230_ub: [ 1 x_39_ ^ 2 - 2 x_61_ * x_39_ + 1 x_61_ ^ 2 + 1 y_39_ ^ 2 - 2 y_61_ * y_39_ + 1 y_61_ ^ 2 ] <= 7825.4800000000005
quadratic_ranged_231_ub: [ 1 x_46_ ^ 2 - 2 x_61_ * x_46_ + 1 x_61_ ^ 2 + 1 y_46_ ^ 2 - 2 y_61_ * y_46_ + 1 y_61_ ^ 2 ] <= 8258.77
quadratic_ranged_232_ub: [ 1 x_53_ ^ 2 - 2 x_61_ * x_53_ + 1 x_61_ ^ 2 + 1 y_53_ ^ 2 - 2 y_61_ * y_53_ + 1 y_61_ ^ 2 ] <= 4856.08
quadratic_ranged_233_ub: [ 1 x_60_ ^ 2 - 2 x_61_ * x_60_ + 1 x_61_ ^ 2 + 1 y_60_ ^ 2 - 2 y_61_ * y_60_ + 1 y_61_ ^ 2 ] <= 20129.3
quadratic_ranged_234_ub: [ 1 x_4_ ^ 2 - 2 x_62_ * x_4_ + 1 x_62_ ^ 2 + 1 y_4_ ^ 2 - 2 y_62_ * y_4_ + 1 y_62_ ^ 2 ] <= 8182.01
quadratic_ranged_235_ub: [ 1 x_11_ ^ 2 - 2 x_62_ * x_11_ + 1 x_62_ ^ 2 + 1 y_11_ ^ 2 - 2 y_62_ * y_11_ + 1 y_62_ ^ 2 ] <= 6933.65
quadratic_ranged_236_ub: [ 1 x_19_ ^ 2 - 2 x_62_ * x_19_ + 1 x_62_ ^ 2 + 1 y_19_ ^ 2 - 2 y_62_ * y_19_ + 1 y_62_ ^ 2 ] <= 2004.85
quadratic_ranged_237_ub: [ 1 x_26_ ^ 2 - 2 x_62_ * x_26_ + 1 x_62_ ^ 2 + 1 y_26_ ^ 2 - 2 y_62_ * y_26_ + 1 y_62_ ^ 2 ] <= 873.65
quadratic_ranged_238_ub: [ 1 x_30_ ^ 2 - 2 x_62_ * x_30_ + 1 x_62_ ^ 2 + 1 y_30_ ^ 2 - 2 y_62_ * y_30_ + 1 y_62_ ^ 2 ] <= 1552.3700000000001
quadratic_ranged_239_ub: [ 1 x_36_ ^ 2 - 2 x_62_ * x_36_ + 1 x_62_ ^ 2 + 1 y_36_ ^ 2 - 2 y_62_ * y_36_ + 1 y_62_ ^ 2 ] <= 292.9
quadratic_ranged_240_ub: [ 1 x_37_ ^ 2 - 2 x_62_ * x_37_ + 1 x_62_ ^ 2 + 1 y_37_ ^ 2 - 2 y_62_ * y_37_ + 1 y_62_ ^ 2 ] <= 9600.05
quadratic_ranged_241_ub: [ 1 x_52_ ^ 2 - 2 x_62_ * x_52_ + 1 x_62_ ^ 2 + 1 y_52_ ^ 2 - 2 y_62_ * y_52_ + 1 y_62_ ^ 2 ] <= 8012.33
quadratic_ranged_242_ub: [ 1 x_61_ ^ 2 - 2 x_62_ * x_61_ + 1 x_62_ ^ 2 + 1 y_61_ ^ 2 - 2 y_62_ * y_61_ + 1 y_62_ ^ 2 ] <= 1367.54
quadratic_ranged_243_ub: [ 1 x_10_ ^ 2 - 2 x_63_ * x_10_ + 1 x_63_ ^ 2 + 1 y_10_ ^ 2 - 2 y_63_ * y_10_ + 1 y_63_ ^ 2 ] <= 8219.38
quadratic_ranged_244_ub: [ 1 x_22_ ^ 2 - 2 x_63_ * x_22_ + 1 x_63_ ^ 2 + 1 y_22_ ^ 2 - 2 y_63_ * y_22_ + 1 y_63_ ^ 2 ] <= 3164.33
quadratic_ranged_245_ub: [ 1 x_31_ ^ 2 - 2 x_63_ * x_31_ + 1 x_63_ ^ 2 + 1 y_31_ ^ 2 - 2 y_63_ * y_31_ + 1 y_63_ ^ 2 ] <= 8008.29
quadratic_ranged_246_ub: [ 1 x_33_ ^ 2 - 2 x_63_ * x_33_ + 1 x_63_ ^ 2 + 1 y_33_ ^ 2 - 2 y_63_ * y_33_ + 1 y_63_ ^ 2 ] <= 129.28
quadratic_ranged_247_ub: [ 1 x_35_ ^ 2 - 2 x_63_ * x_35_ + 1 x_63_ ^ 2 + 1 y_35_ ^ 2 - 2 y_63_ * y_35_ + 1 y_63_ ^ 2 ] <= 5539.85
quadratic_ranged_248_ub: [ 1 x_38_ ^ 2 - 2 x_63_ * x_38_ + 1 x_63_ ^ 2 + 1 y_38_ ^ 2 - 2 y_63_ * y_38_ + 1 y_63_ ^ 2 ] <= 12896.69
quadratic_ranged_249_ub: [ 1 x_59_ ^ 2 - 2 x_63_ * x_59_ + 1 x_63_ ^ 2 + 1 y_59_ ^ 2 - 2 y_63_ * y_59_ + 1 y_63_ ^ 2 ] <= 14424.82
quadratic_ranged_250_ub: [ 1 x_62_ ^ 2 - 2 x_63_ * x_62_ + 1 x_63_ ^ 2 + 1 y_62_ ^ 2 - 2 y_63_ * y_62_ + 1 y_63_ ^ 2 ] <= 6352.9
quadratic_ranged_251_ub: [ 1 x_10_ ^ 2 - 2 x_64_ * x_10_ + 1 x_64_ ^ 2 + 1 y_10_ ^ 2 - 2 y_64_ * y_10_ + 1 y_64_ ^ 2 ] <= 11967.49
quadratic_ranged_252_ub: [ 1 x_12_ ^ 2 - 2 x_64_ * x_12_ + 1 x_64_ ^ 2 + 1 y_12_ ^ 2 - 2 y_64_ * y_12_ + 1 y_64_ ^ 2 ] <= 37963.88
quadratic_ranged_253_ub: [ 1 x_19_ ^ 2 - 2 x_64_ * x_19_ + 1 x_64_ ^ 2 + 1 y_19_ ^ 2 - 2 y_64_ * y_19_ + 1 y_64_ ^ 2 ] <= 2056.36
quadratic_ranged_254_ub: [ 1 x_20_ ^ 2 - 2 x_64_ * x_20_ + 1 x_64_ ^ 2 + 1 y_20_ ^ 2 - 2 y_64_ * y_20_ + 1 y_64_ ^ 2 ] <= 9409.16
quadratic_ranged_255_ub: [ 1 x_23_ ^ 2 - 2 x_64_ * x_23_ + 1 x_64_ ^ 2 + 1 y_23_ ^ 2 - 2 y_64_ * y_23_ + 1 y_64_ ^ 2 ] <= 42788.65
quadratic_ranged_256_ub: [ 1 x_44_ ^ 2 - 2 x_64_ * x_44_ + 1 x_64_ ^ 2 + 1 y_44_ ^ 2 - 2 y_64_ * y_44_ + 1 y_64_ ^ 2 ] <= 9689.94
quadratic_ranged_257_ub: [ 1 x_46_ ^ 2 - 2 x_64_ * x_46_ + 1 x_64_ ^ 2 + 1 y_46_ ^ 2 - 2 y_64_ * y_46_ + 1 y_64_ ^ 2 ] <= 2201.8
quadratic_ranged_258_ub: [ 1 x_63_ ^ 2 - 2 x_64_ * x_63_ + 1 x_64_ ^ 2 + 1 y_63_ ^ 2 - 2 y_64_ * y_63_ + 1 y_64_ ^ 2 ] <= 15821.65
quadratic_ranged_259_ub: [ 1 x_15_ ^ 2 - 2 x_65_ * x_15_ + 1 x_65_ ^ 2 + 1 y_15_ ^ 2 - 2 y_65_ * y_15_ + 1 y_65_ ^ 2 ] <= 16616.52
quadratic_ranged_260_ub: [ 1 x_46_ ^ 2 - 2 x_65_ * x_46_ + 1 x_65_ ^ 2 + 1 y_46_ ^ 2 - 2 y_65_ * y_46_ + 1 y_65_ ^ 2 ] <= 3568.33
quadratic_ranged_261_ub: [ 1 x_47_ ^ 2 - 2 x_65_ * x_47_ + 1 x_65_ ^ 2 + 1 y_47_ ^ 2 - 2 y_65_ * y_47_ + 1 y_65_ ^ 2 ] <= 5871.13
quadratic_ranged_262_ub: [ 1 x_64_ ^ 2 - 2 x_65_ * x_64_ + 1 x_65_ ^ 2 + 1 y_64_ ^ 2 - 2 y_65_ * y_64_ + 1 y_65_ ^ 2 ] <= 10949.41
quadratic_ranged_263_ub: [ 1 x_4_ ^ 2 - 2 x_66_ * x_4_ + 1 x_66_ ^ 2 + 1 y_4_ ^ 2 - 2 y_66_ * y_4_ + 1 y_66_ ^ 2 ] <= 21913.97
quadratic_ranged_264_ub: [ 1 x_29_ ^ 2 - 2 x_66_ * x_29_ + 1 x_66_ ^ 2 + 1 y_29_ ^ 2 - 2 y_66_ * y_29_ + 1 y_66_ ^ 2 ] <= 23611.78
quadratic_ranged_265_ub: [ 1 x_36_ ^ 2 - 2 x_66_ * x_36_ + 1 x_66_ ^ 2 + 1 y_36_ ^ 2 - 2 y_66_ * y_36_ + 1 y_66_ ^ 2 ] <= 11009
quadratic_ranged_266_ub: [ 1 x_38_ ^ 2 - 2 x_66_ * x_38_ + 1 x_66_ ^ 2 + 1 y_38_ ^ 2 - 2 y_66_ * y_38_ + 1 y_66_ ^ 2 ] <= 14407.65
quadratic_ranged_267_ub: [ 1 x_40_ ^ 2 - 2 x_66_ * x_40_ + 1 x_66_ ^ 2 + 1 y_40_ ^ 2 - 2 y_66_ * y_40_ + 1 y_66_ ^ 2 ] <= 828.2
quadratic_ranged_268_ub: [ 1 x_41_ ^ 2 - 2 x_66_ * x_41_ + 1 x_66_ ^ 2 + 1 y_41_ ^ 2 - 2 y_66_ * y_41_ + 1 y_66_ ^ 2 ] <= 4873.25
quadratic_ranged_269_ub: [ 1 x_65_ ^ 2 - 2 x_66_ * x_65_ + 1 x_66_ ^ 2 + 1 y_65_ ^ 2 - 2 y_66_ * y_65_ + 1 y_66_ ^ 2 ] <= 585.8
quadratic_ranged_270_ub: [ 1 x_1_ ^ 2 - 2 x_67_ * x_1_ + 1 x_67_ ^ 2 + 1 y_1_ ^ 2 - 2 y_67_ * y_1_ + 1 y_67_ ^ 2 ] <= 10064.65
quadratic_ranged_271_ub: [ 1 x_13_ ^ 2 - 2 x_67_ * x_13_ + 1 x_67_ ^ 2 + 1 y_13_ ^ 2 - 2 y_67_ * y_13_ + 1 y_67_ ^ 2 ] <= 3863.25
quadratic_ranged_272_ub: [ 1 x_16_ ^ 2 - 2 x_67_ * x_16_ + 1 x_67_ ^ 2 + 1 y_16_ ^ 2 - 2 y_67_ * y_16_ + 1 y_67_ ^ 2 ] <= 8185.04
quadratic_ranged_273_ub: [ 1 x_46_ ^ 2 - 2 x_67_ * x_46_ + 1 x_67_ ^ 2 + 1 y_46_ ^ 2 - 2 y_67_ * y_46_ + 1 y_67_ ^ 2 ] <= 10028.29
quadratic_ranged_274_ub: [ 1 x_61_ ^ 2 - 2 x_67_ * x_61_ + 1 x_67_ ^ 2 + 1 y_61_ ^ 2 - 2 y_67_ * y_61_ + 1 y_67_ ^ 2 ] <= 4686.4
quadratic_ranged_275_ub: [ 1 x_66_ ^ 2 - 2 x_67_ * x_66_ + 1 x_67_ ^ 2 + 1 y_66_ ^ 2 - 2 y_67_ * y_66_ + 1 y_67_ ^ 2 ] <= 18979.920000000002
quadratic_ranged_276_ub: [ 1 x_29_ ^ 2 - 2 x_68_ * x_29_ + 1 x_68_ ^ 2 + 1 y_29_ ^ 2 - 2 y_68_ * y_29_ + 1 y_68_ ^ 2 ] <= 20968.61
quadratic_ranged_277_ub: [ 1 x_37_ ^ 2 - 2 x_68_ * x_37_ + 1 x_68_ ^ 2 + 1 y_37_ ^ 2 - 2 y_68_ * y_37_ + 1 y_68_ ^ 2 ] <= 17842.66
quadratic_ranged_278_ub: [ 1 x_51_ ^ 2 - 2 x_68_ * x_51_ + 1 x_68_ ^ 2 + 1 y_51_ ^ 2 - 2 y_68_ * y_51_ + 1 y_68_ ^ 2 ] <= 35721.68
quadratic_ranged_279_ub: [ 1 x_62_ ^ 2 - 2 x_68_ * x_62_ + 1 x_68_ ^ 2 + 1 y_62_ ^ 2 - 2 y_68_ * y_62_ + 1 y_68_ ^ 2 ] <= 5867.09
quadratic_ranged_280_ub: [ 1 x_67_ ^ 2 - 2 x_68_ * x_67_ + 1 x_68_ ^ 2 + 1 y_67_ ^ 2 - 2 y_68_ * y_67_ + 1 y_68_ ^ 2 ] <= 9442.49
quadratic_ranged_281_ub: [ 1 x_1_ ^ 2 - 2 x_69_ * x_1_ + 1 x_69_ ^ 2 + 1 y_1_ ^ 2 - 2 y_69_ * y_1_ + 1 y_69_ ^ 2 ] <= 13140.1
quadratic_ranged_282_ub: [ 1 x_3_ ^ 2 - 2 x_69_ * x_3_ + 1 x_69_ ^ 2 + 1 y_3_ ^ 2 - 2 y_69_ * y_3_ + 1 y_69_ ^ 2 ] <= 32004.88
quadratic_ranged_283_ub: [ 1 x_4_ ^ 2 - 2 x_69_ * x_4_ + 1 x_69_ ^ 2 + 1 y_4_ ^ 2 - 2 y_69_ * y_4_ + 1 y_69_ ^ 2 ] <= 20832.26
quadratic_ranged_284_ub: [ 1 x_14_ ^ 2 - 2 x_69_ * x_14_ + 1 x_69_ ^ 2 + 1 y_14_ ^ 2 - 2 y_69_ * y_14_ + 1 y_69_ ^ 2 ] <= 28806.21
quadratic_ranged_285_ub: [ 1 x_23_ ^ 2 - 2 x_69_ * x_23_ + 1 x_69_ ^ 2 + 1 y_23_ ^ 2 - 2 y_69_ * y_23_ + 1 y_69_ ^ 2 ] <= 340.37
quadratic_ranged_286_ub: [ 1 x_38_ ^ 2 - 2 x_69_ * x_38_ + 1 x_69_ ^ 2 + 1 y_38_ ^ 2 - 2 y_69_ * y_38_ + 1 y_69_ ^ 2 ] <= 30833.28
quadratic_ranged_287_ub: [ 1 x_39_ ^ 2 - 2 x_69_ * x_39_ + 1 x_69_ ^ 2 + 1 y_39_ ^ 2 - 2 y_69_ * y_39_ + 1 y_69_ ^ 2 ] <= 590.85
quadratic_ranged_288_ub: [ 1 x_44_ ^ 2 - 2 x_69_ * x_44_ + 1 x_69_ ^ 2 + 1 y_44_ ^ 2 - 2 y_69_ * y_44_ + 1 y_69_ ^ 2 ] <= 12184.64
quadratic_ranged_289_ub: [ 1 x_49_ ^ 2 - 2 x_69_ * x_49_ + 1 x_69_ ^ 2 + 1 y_49_ ^ 2 - 2 y_69_ * y_49_ + 1 y_69_ ^ 2 ] <= 7298.26
quadratic_ranged_290_ub: [ 1 x_68_ ^ 2 - 2 x_69_ * x_68_ + 1 x_69_ ^ 2 + 1 y_68_ ^ 2 - 2 y_69_ * y_68_ + 1 y_69_ ^ 2 ] <= 38430.5
quadratic_ranged_291_ub: [ 1 x_8_ ^ 2 - 2 x_70_ * x_8_ + 1 x_70_ ^ 2 + 1 y_8_ ^ 2 - 2 y_70_ * y_8_ + 1 y_70_ ^ 2 ] <= 23214.85
quadratic_ranged_292_ub: [ 1 x_17_ ^ 2 - 2 x_70_ * x_17_ + 1 x_70_ ^ 2 + 1 y_17_ ^ 2 - 2 y_70_ * y_17_ + 1 y_70_ ^ 2 ] <= 4292.5
quadratic_ranged_293_ub: [ 1 x_22_ ^ 2 - 2 x_70_ * x_22_ + 1 x_70_ ^ 2 + 1 y_22_ ^ 2 - 2 y_70_ * y_22_ + 1 y_70_ ^ 2 ] <= 4219.78
quadratic_ranged_294_ub: [ 1 x_32_ ^ 2 - 2 x_70_ * x_32_ + 1 x_70_ ^ 2 + 1 y_32_ ^ 2 - 2 y_70_ * y_32_ + 1 y_70_ ^ 2 ] <= 22221.01
quadratic_ranged_295_ub: [ 1 x_41_ ^ 2 - 2 x_70_ * x_41_ + 1 x_70_ ^ 2 + 1 y_41_ ^ 2 - 2 y_70_ * y_41_ + 1 y_70_ ^ 2 ] <= 1270.58
quadratic_ranged_296_ub: [ 1 x_46_ ^ 2 - 2 x_70_ * x_46_ + 1 x_70_ ^ 2 + 1 y_46_ ^ 2 - 2 y_70_ * y_46_ + 1 y_70_ ^ 2 ] <= 1618.02
quadratic_ranged_297_ub: [ 1 x_52_ ^ 2 - 2 x_70_ * x_52_ + 1 x_70_ ^ 2 + 1 y_52_ ^ 2 - 2 y_70_ * y_52_ + 1 y_70_ ^ 2 ] <= 12170.5
quadratic_ranged_298_ub: [ 1 x_53_ ^ 2 - 2 x_70_ * x_53_ + 1 x_70_ ^ 2 + 1 y_53_ ^ 2 - 2 y_70_ * y_53_ + 1 y_70_ ^ 2 ] <= 7103.33
quadratic_ranged_299_ub: [ 1 x_60_ ^ 2 - 2 x_70_ * x_60_ + 1 x_70_ ^ 2 + 1 y_60_ ^ 2 - 2 y_70_ * y_60_ + 1 y_70_ ^ 2 ] <= 37173.05
quadratic_ranged_300_ub: [ 1 x_64_ ^ 2 - 2 x_70_ * x_64_ + 1 x_70_ ^ 2 + 1 y_64_ ^ 2 - 2 y_70_ * y_64_ + 1 y_70_ ^ 2 ] <= 2353.3
quadratic_ranged_301_ub: [ 1 x_69_ ^ 2 - 2 x_70_ * x_69_ + 1 x_70_ ^ 2 + 1 y_69_ ^ 2 - 2 y_70_ * y_69_ + 1 y_70_ ^ 2 ] <= 22272.52
quadratic_ranged_302_ub: [ 1 x_36_ ^ 2 - 2 x_71_ * x_36_ + 1 x_71_ ^ 2 + 1 y_36_ ^ 2 - 2 y_71_ * y_36_ + 1 y_71_ ^ 2 ] <= 4282.4
quadratic_ranged_303_ub: [ 1 x_46_ ^ 2 - 2 x_71_ * x_46_ + 1 x_71_ ^ 2 + 1 y_46_ ^ 2 - 2 y_71_ * y_46_ + 1 y_71_ ^ 2 ] <= 11624.09
quadratic_ranged_304_ub: [ 1 x_55_ ^ 2 - 2 x_71_ * x_55_ + 1 x_71_ ^ 2 + 1 y_55_ ^ 2 - 2 y_71_ * y_55_ + 1 y_71_ ^ 2 ] <= 13866.29
quadratic_ranged_305_ub: [ 1 x_64_ ^ 2 - 2 x_71_ * x_64_ + 1 x_71_ ^ 2 + 1 y_64_ ^ 2 - 2 y_71_ * y_64_ + 1 y_71_ ^ 2 ] <= 14173.33
quadratic_ranged_306_ub: [ 1 x_70_ ^ 2 - 2 x_71_ * x_70_ + 1 x_71_ ^ 2 + 1 y_70_ ^ 2 - 2 y_71_ * y_70_ + 1 y_71_ ^ 2 ] <= 5370.17
quadratic_ranged_307_ub: [ 1 x_1_ ^ 2 - 2 x_72_ * x_1_ + 1 x_72_ ^ 2 + 1 y_1_ ^ 2 - 2 y_72_ * y_1_ + 1 y_72_ ^ 2 ] <= 4898.5
quadratic_ranged_308_ub: [ 1 x_12_ ^ 2 - 2 x_72_ * x_12_ + 1 x_72_ ^ 2 + 1 y_12_ ^ 2 - 2 y_72_ * y_12_ + 1 y_72_ ^ 2 ] <= 17341.7
quadratic_ranged_309_ub: [ 1 x_19_ ^ 2 - 2 x_72_ * x_19_ + 1 x_72_ ^ 2 + 1 y_19_ ^ 2 - 2 y_72_ * y_19_ + 1 y_72_ ^ 2 ] <= 13697.62
quadratic_ranged_310_ub: [ 1 x_21_ ^ 2 - 2 x_72_ * x_21_ + 1 x_72_ ^ 2 + 1 y_21_ ^ 2 - 2 y_72_ * y_21_ + 1 y_72_ ^ 2 ] <= 21218.08
quadratic_ranged_311_ub: [ 1 x_25_ ^ 2 - 2 x_72_ * x_25_ + 1 x_72_ ^ 2 + 1 y_25_ ^ 2 - 2 y_72_ * y_25_ + 1 y_72_ ^ 2 ] <= 31661.48
quadratic_ranged_312_ub: [ 1 x_29_ ^ 2 - 2 x_72_ * x_29_ + 1 x_72_ ^ 2 + 1 y_29_ ^ 2 - 2 y_72_ * y_29_ + 1 y_72_ ^ 2 ] <= 65.65
quadratic_ranged_313_ub: [ 1 x_36_ ^ 2 - 2 x_72_ * x_36_ + 1 x_72_ ^ 2 + 1 y_36_ ^ 2 - 2 y_72_ * y_36_ + 1 y_72_ ^ 2 ] <= 4691.45
quadratic_ranged_314_ub: [ 1 x_39_ ^ 2 - 2 x_72_ * x_39_ + 1 x_72_ ^ 2 + 1 y_39_ ^ 2 - 2 y_72_ * y_39_ + 1 y_72_ ^ 2 ] <= 23134.05
quadratic_ranged_315_ub: [ 1 x_43_ ^ 2 - 2 x_72_ * x_43_ + 1 x_72_ ^ 2 + 1 y_43_ ^ 2 - 2 y_72_ * y_43_ + 1 y_72_ ^ 2 ] <= 10835.28
quadratic_ranged_316_ub: [ 1 x_57_ ^ 2 - 2 x_72_ * x_57_ + 1 x_72_ ^ 2 + 1 y_57_ ^ 2 - 2 y_72_ * y_57_ + 1 y_72_ ^ 2 ] <= 2356.33
quadratic_ranged_317_ub: [ 1 x_69_ ^ 2 - 2 x_72_ * x_69_ + 1 x_72_ ^ 2 + 1 y_69_ ^ 2 - 2 y_72_ * y_69_ + 1 y_72_ ^ 2 ] <= 29088
quadratic_ranged_318_ub: [ 1 x_71_ ^ 2 - 2 x_72_ * x_71_ + 1 x_72_ ^ 2 + 1 y_71_ ^ 2 - 2 y_72_ * y_71_ + 1 y_72_ ^ 2 ] <= 4756.09
quadratic_ranged_319_ub: [ 1 x_6_ ^ 2 - 2 x_73_ * x_6_ + 1 x_73_ ^ 2 + 1 y_6_ ^ 2 - 2 y_73_ * y_6_ + 1 y_73_ ^ 2 ] <= 31047.4
quadratic_ranged_320_ub: [ 1 x_9_ ^ 2 - 2 x_73_ * x_9_ + 1 x_73_ ^ 2 + 1 y_9_ ^ 2 - 2 y_73_ * y_9_ + 1 y_73_ ^ 2 ] <= 4198.57
quadratic_ranged_321_ub: [ 1 x_50_ ^ 2 - 2 x_73_ * x_50_ + 1 x_73_ ^ 2 + 1 y_50_ ^ 2 - 2 y_73_ * y_50_ + 1 y_73_ ^ 2 ] <= 4113.7300000000005
quadratic_ranged_322_ub: [ 1 x_55_ ^ 2 - 2 x_73_ * x_55_ + 1 x_73_ ^ 2 + 1 y_55_ ^ 2 - 2 y_73_ * y_55_ + 1 y_73_ ^ 2 ] <= 19523.3
quadratic_ranged_323_ub: [ 1 x_72_ ^ 2 - 2 x_73_ * x_72_ + 1 x_73_ ^ 2 + 1 y_72_ ^ 2 - 2 y_73_ * y_72_ + 1 y_73_ ^ 2 ] <= 246.44
quadratic_ranged_324_ub: [ 1 x_36_ ^ 2 - 2 x_74_ * x_36_ + 1 x_74_ ^ 2 + 1 y_36_ ^ 2 - 2 y_74_ * y_36_ + 1 y_74_ ^ 2 ] <= 1483.69
quadratic_ranged_325_ub: [ 1 x_45_ ^ 2 - 2 x_74_ * x_45_ + 1 x_74_ ^ 2 + 1 y_45_ ^ 2 - 2 y_74_ * y_45_ + 1 y_74_ ^ 2 ] <= 17866.9
quadratic_ranged_326_ub: [ 1 x_53_ ^ 2 - 2 x_74_ * x_53_ + 1 x_74_ ^ 2 + 1 y_53_ ^ 2 - 2 y_74_ * y_53_ + 1 y_74_ ^ 2 ] <= 11927.09
quadratic_ranged_327_ub: [ 1 x_61_ ^ 2 - 2 x_74_ * x_61_ + 1 x_74_ ^ 2 + 1 y_61_ ^ 2 - 2 y_74_ * y_61_ + 1 y_74_ ^ 2 ] <= 6630.65
quadratic_ranged_328_ub: [ 1 x_62_ ^ 2 - 2 x_74_ * x_62_ + 1 x_74_ ^ 2 + 1 y_62_ ^ 2 - 2 y_74_ * y_62_ + 1 y_74_ ^ 2 ] <= 2025.05
quadratic_ranged_329_ub: [ 1 x_71_ ^ 2 - 2 x_74_ * x_71_ + 1 x_74_ ^ 2 + 1 y_71_ ^ 2 - 2 y_74_ * y_71_ + 1 y_74_ ^ 2 ] <= 9628.33
quadratic_ranged_330_ub: [ 1 x_73_ ^ 2 - 2 x_74_ * x_73_ + 1 x_74_ ^ 2 + 1 y_73_ ^ 2 - 2 y_74_ * y_73_ + 1 y_74_ ^ 2 ] <= 13594.6
quadratic_ranged_331_ub: [ 1 x_10_ ^ 2 - 2 x_75_ * x_10_ + 1 x_75_ ^ 2 + 1 y_10_ ^ 2 - 2 y_75_ * y_10_ + 1 y_75_ ^ 2 ] <= 4995.46
quadratic_ranged_332_ub: [ 1 x_33_ ^ 2 - 2 x_75_ * x_33_ + 1 x_75_ ^ 2 + 1 y_33_ ^ 2 - 2 y_75_ * y_33_ + 1 y_75_ ^ 2 ] <= 909
quadratic_ranged_333_ub: [ 1 x_41_ ^ 2 - 2 x_75_ * x_41_ + 1 x_75_ ^ 2 + 1 y_41_ ^ 2 - 2 y_75_ * y_41_ + 1 y_75_ ^ 2 ] <= 691.85
quadratic_ranged_334_ub: [ 1 x_49_ ^ 2 - 2 x_75_ * x_49_ + 1 x_75_ ^ 2 + 1 y_49_ ^ 2 - 2 y_75_ * y_49_ + 1 y_75_ ^ 2 ] <= 29004.170000000002
quadratic_ranged_335_ub: [ 1 x_51_ ^ 2 - 2 x_75_ * x_51_ + 1 x_75_ ^ 2 + 1 y_51_ ^ 2 - 2 y_75_ * y_51_ + 1 y_75_ ^ 2 ] <= 10593.89
quadratic_ranged_336_ub: [ 1 x_55_ ^ 2 - 2 x_75_ * x_55_ + 1 x_75_ ^ 2 + 1 y_55_ ^ 2 - 2 y_75_ * y_55_ + 1 y_75_ ^ 2 ] <= 6113.53
quadratic_ranged_337_ub: [ 1 x_72_ ^ 2 - 2 x_75_ * x_72_ + 1 x_75_ ^ 2 + 1 y_72_ ^ 2 - 2 y_75_ * y_72_ + 1 y_75_ ^ 2 ] <= 12145.25
quadratic_ranged_338_ub: [ 1 x_74_ ^ 2 - 2 x_75_ * x_74_ + 1 x_75_ ^ 2 + 1 y_74_ ^ 2 - 2 y_75_ * y_74_ + 1 y_75_ ^ 2 ] <= 4590.45
quadratic_ranged_339_ub: [ 1 x_10_ ^ 2 - 2 x_76_ * x_10_ + 1 x_76_ ^ 2 + 1 y_10_ ^ 2 - 2 y_76_ * y_10_ + 1 y_76_ ^ 2 ] <= 22536.13
quadratic_ranged_340_ub: [ 1 x_19_ ^ 2 - 2 x_76_ * x_19_ + 1 x_76_ ^ 2 + 1 y_19_ ^ 2 - 2 y_76_ * y_19_ + 1 y_76_ ^ 2 ] <= 42811.88
quadratic_ranged_341_ub: [ 1 x_21_ ^ 2 - 2 x_76_ * x_21_ + 1 x_76_ ^ 2 + 1 y_21_ ^ 2 - 2 y_76_ * y_21_ + 1 y_76_ ^ 2 ] <= 15871.14
quadratic_ranged_342_ub: [ 1 x_32_ ^ 2 - 2 x_76_ * x_32_ + 1 x_76_ ^ 2 + 1 y_32_ ^ 2 - 2 y_76_ * y_32_ + 1 y_76_ ^ 2 ] <= 34942.97
quadratic_ranged_343_ub: [ 1 x_42_ ^ 2 - 2 x_76_ * x_42_ + 1 x_76_ ^ 2 + 1 y_42_ ^ 2 - 2 y_76_ * y_42_ + 1 y_76_ ^ 2 ] <= 10044.45
quadratic_ranged_344_ub: [ 1 x_52_ ^ 2 - 2 x_76_ * x_52_ + 1 x_76_ ^ 2 + 1 y_52_ ^ 2 - 2 y_76_ * y_52_ + 1 y_76_ ^ 2 ] <= 10617.12
quadratic_ranged_345_ub: [ 1 x_71_ ^ 2 - 2 x_76_ * x_71_ + 1 x_76_ ^ 2 + 1 y_71_ ^ 2 - 2 y_76_ * y_71_ + 1 y_76_ ^ 2 ] <= 16872.05
quadratic_ranged_346_ub: [ 1 x_72_ ^ 2 - 2 x_76_ * x_72_ + 1 x_76_ ^ 2 + 1 y_72_ ^ 2 - 2 y_76_ * y_72_ + 1 y_76_ ^ 2 ] <= 32653.3
quadratic_ranged_347_ub: [ 1 x_75_ ^ 2 - 2 x_76_ * x_75_ + 1 x_76_ ^ 2 + 1 y_75_ ^ 2 - 2 y_76_ * y_75_ + 1 y_76_ ^ 2 ] <= 26507.45
quadratic_ranged_348_ub: [ 1 x_3_ ^ 2 - 2 x_77_ * x_3_ + 1 x_77_ ^ 2 + 1 y_3_ ^ 2 - 2 y_77_ * y_3_ + 1 y_77_ ^ 2 ] <= 1253.41
quadratic_ranged_349_ub: [ 1 x_29_ ^ 2 - 2 x_77_ * x_29_ + 1 x_77_ ^ 2 + 1 y_29_ ^ 2 - 2 y_77_ * y_29_ + 1 y_77_ ^ 2 ] <= 9972.74
quadratic_ranged_350_ub: [ 1 x_34_ ^ 2 - 2 x_77_ * x_34_ + 1 x_77_ ^ 2 + 1 y_34_ ^ 2 - 2 y_77_ * y_34_ + 1 y_77_ ^ 2 ] <= 22568.45
quadratic_ranged_351_ub: [ 1 x_35_ ^ 2 - 2 x_77_ * x_35_ + 1 x_77_ ^ 2 + 1 y_35_ ^ 2 - 2 y_77_ * y_35_ + 1 y_77_ ^ 2 ] <= 13809.73
quadratic_ranged_352_ub: [ 1 x_37_ ^ 2 - 2 x_77_ * x_37_ + 1 x_77_ ^ 2 + 1 y_37_ ^ 2 - 2 y_77_ * y_37_ + 1 y_77_ ^ 2 ] <= 8379.97
quadratic_ranged_353_ub: [ 1 x_46_ ^ 2 - 2 x_77_ * x_46_ + 1 x_77_ ^ 2 + 1 y_46_ ^ 2 - 2 y_77_ * y_46_ + 1 y_77_ ^ 2 ] <= 1713.97
quadratic_ranged_354_ub: [ 1 x_67_ ^ 2 - 2 x_77_ * x_67_ + 1 x_77_ ^ 2 + 1 y_67_ ^ 2 - 2 y_77_ * y_67_ + 1 y_77_ ^ 2 ] <= 4282.4
quadratic_ranged_355_ub: [ 1 x_68_ ^ 2 - 2 x_77_ * x_68_ + 1 x_77_ ^ 2 + 1 y_68_ ^ 2 - 2 y_77_ * y_68_ + 1 y_77_ ^ 2 ] <= 3536.01
quadratic_ranged_356_ub: [ 1 x_73_ ^ 2 - 2 x_77_ * x_73_ + 1 x_77_ ^ 2 + 1 y_73_ ^ 2 - 2 y_77_ * y_73_ + 1 y_77_ ^ 2 ] <= 10549.45
quadratic_ranged_357_ub: [ 1 x_76_ ^ 2 - 2 x_77_ * x_76_ + 1 x_77_ ^ 2 + 1 y_76_ ^ 2 - 2 y_77_ * y_76_ + 1 y_77_ ^ 2 ] <= 36542.81
quadratic_ranged_358_ub: [ 1 x_4_ ^ 2 - 2 x_78_ * x_4_ + 1 x_78_ ^ 2 + 1 y_4_ ^ 2 - 2 y_78_ * y_4_ + 1 y_78_ ^ 2 ] <= 27298.28
quadratic_ranged_359_ub: [ 1 x_19_ ^ 2 - 2 x_78_ * x_19_ + 1 x_78_ ^ 2 + 1 y_19_ ^ 2 - 2 y_78_ * y_19_ + 1 y_78_ ^ 2 ] <= 8185.04
quadratic_ranged_360_ub: [ 1 x_23_ ^ 2 - 2 x_78_ * x_23_ + 1 x_78_ ^ 2 + 1 y_23_ ^ 2 - 2 y_78_ * y_23_ + 1 y_78_ ^ 2 ] <= 8367.85
quadratic_ranged_361_ub: [ 1 x_42_ ^ 2 - 2 x_78_ * x_42_ + 1 x_78_ ^ 2 + 1 y_42_ ^ 2 - 2 y_78_ * y_42_ + 1 y_78_ ^ 2 ] <= 17171.01
quadratic_ranged_362_ub: [ 1 x_55_ ^ 2 - 2 x_78_ * x_55_ + 1 x_78_ ^ 2 + 1 y_55_ ^ 2 - 2 y_78_ * y_55_ + 1 y_78_ ^ 2 ] <= 14467.24
quadratic_ranged_363_ub: [ 1 x_70_ ^ 2 - 2 x_78_ * x_70_ + 1 x_78_ ^ 2 + 1 y_70_ ^ 2 - 2 y_78_ * y_70_ + 1 y_78_ ^ 2 ] <= 9867.7
quadratic_ranged_364_ub: [ 1 x_77_ ^ 2 - 2 x_78_ * x_77_ + 1 x_78_ ^ 2 + 1 y_77_ ^ 2 - 2 y_78_ * y_77_ + 1 y_78_ ^ 2 ] <= 8994.05
quadratic_ranged_365_ub: [ 1 x_4_ ^ 2 - 2 x_79_ * x_4_ + 1 x_79_ ^ 2 + 1 y_4_ ^ 2 - 2 y_79_ * y_4_ + 1 y_79_ ^ 2 ] <= 24837.920000000002
quadratic_ranged_366_ub: [ 1 x_11_ ^ 2 - 2 x_79_ * x_11_ + 1 x_79_ ^ 2 + 1 y_11_ ^ 2 - 2 y_79_ * y_11_ + 1 y_79_ ^ 2 ] <= 14293.52
quadratic_ranged_367_ub: [ 1 x_14_ ^ 2 - 2 x_79_ * x_14_ + 1 x_79_ ^ 2 + 1 y_14_ ^ 2 - 2 y_79_ * y_14_ + 1 y_79_ ^ 2 ] <= 45244.97
quadratic_ranged_368_ub: [ 1 x_17_ ^ 2 - 2 x_79_ * x_17_ + 1 x_79_ ^ 2 + 1 y_17_ ^ 2 - 2 y_79_ * y_17_ + 1 y_79_ ^ 2 ] <= 20272.72
quadratic_ranged_369_ub: [ 1 x_25_ ^ 2 - 2 x_79_ * x_25_ + 1 x_79_ ^ 2 + 1 y_25_ ^ 2 - 2 y_79_ * y_25_ + 1 y_79_ ^ 2 ] <= 7249.78
quadratic_ranged_370_ub: [ 1 x_31_ ^ 2 - 2 x_79_ * x_31_ + 1 x_79_ ^ 2 + 1 y_31_ ^ 2 - 2 y_79_ * y_31_ + 1 y_79_ ^ 2 ] <= 49209.22
quadratic_ranged_371_ub: [ 1 x_35_ ^ 2 - 2 x_79_ * x_35_ + 1 x_79_ ^ 2 + 1 y_35_ ^ 2 - 2 y_79_ * y_35_ + 1 y_79_ ^ 2 ] <= 6918.5
quadratic_ranged_372_ub: [ 1 x_36_ ^ 2 - 2 x_79_ * x_36_ + 1 x_79_ ^ 2 + 1 y_36_ ^ 2 - 2 y_79_ * y_36_ + 1 y_79_ ^ 2 ] <= 41443.33
quadratic_ranged_373_ub: [ 1 x_44_ ^ 2 - 2 x_79_ * x_44_ + 1 x_79_ ^ 2 + 1 y_44_ ^ 2 - 2 y_79_ * y_44_ + 1 y_79_ ^ 2 ] <= 24104.66
quadratic_ranged_374_ub: [ 1 x_49_ ^ 2 - 2 x_79_ * x_49_ + 1 x_79_ ^ 2 + 1 y_49_ ^ 2 - 2 y_79_ * y_49_ + 1 y_79_ ^ 2 ] <= 808
quadratic_ranged_375_ub: [ 1 x_53_ ^ 2 - 2 x_79_ * x_53_ + 1 x_79_ ^ 2 + 1 y_53_ ^ 2 - 2 y_79_ * y_53_ + 1 y_79_ ^ 2 ] <= 19061.73
quadratic_ranged_376_ub: [ 1 x_54_ ^ 2 - 2 x_79_ * x_54_ + 1 x_79_ ^ 2 + 1 y_54_ ^ 2 - 2 y_79_ * y_54_ + 1 y_79_ ^ 2 ] <= 9870.73
quadratic_ranged_377_ub: [ 1 x_70_ ^ 2 - 2 x_79_ * x_70_ + 1 x_79_ ^ 2 + 1 y_70_ ^ 2 - 2 y_79_ * y_70_ + 1 y_79_ ^ 2 ] <= 41072.66
quadratic_ranged_378_ub: [ 1 x_74_ ^ 2 - 2 x_79_ * x_74_ + 1 x_79_ ^ 2 + 1 y_74_ ^ 2 - 2 y_79_ * y_74_ + 1 y_79_ ^ 2 ] <= 52877.54
quadratic_ranged_379_ub: [ 1 x_78_ ^ 2 - 2 x_79_ * x_78_ + 1 x_79_ ^ 2 + 1 y_78_ ^ 2 - 2 y_79_ * y_78_ + 1 y_79_ ^ 2 ] <= 25520.68
quadratic_ranged_380_ub: [ 1 x_18_ ^ 2 - 2 x_80_ * x_18_ + 1 x_80_ ^ 2 + 1 y_18_ ^ 2 - 2 y_80_ * y_18_ + 1 y_80_ ^ 2 ] <= 22147.28
quadratic_ranged_381_ub: [ 1 x_36_ ^ 2 - 2 x_80_ * x_36_ + 1 x_80_ ^ 2 + 1 y_36_ ^ 2 - 2 y_80_ * y_36_ + 1 y_80_ ^ 2 ] <= 13923.86
quadratic_ranged_382_ub: [ 1 x_37_ ^ 2 - 2 x_80_ * x_37_ + 1 x_80_ ^ 2 + 1 y_37_ ^ 2 - 2 y_80_ * y_37_ + 1 y_80_ ^ 2 ] <= 14399.57
quadratic_ranged_383_ub: [ 1 x_41_ ^ 2 - 2 x_80_ * x_41_ + 1 x_80_ ^ 2 + 1 y_41_ ^ 2 - 2 y_80_ * y_41_ + 1 y_80_ ^ 2 ] <= 9030.41
quadratic_ranged_384_ub: [ 1 x_58_ ^ 2 - 2 x_80_ * x_58_ + 1 x_80_ ^ 2 + 1 y_58_ ^ 2 - 2 y_80_ * y_58_ + 1 y_80_ ^ 2 ] <= 21565.52
quadratic_ranged_385_ub: [ 1 x_73_ ^ 2 - 2 x_80_ * x_73_ + 1 x_80_ ^ 2 + 1 y_73_ ^ 2 - 2 y_80_ * y_73_ + 1 y_80_ ^ 2 ] <= 6125.65
quadratic_ranged_386_ub: [ 1 x_79_ ^ 2 - 2 x_80_ * x_79_ + 1 x_80_ ^ 2 + 1 y_79_ ^ 2 - 2 y_80_ * y_79_ + 1 y_80_ ^ 2 ] <= 10860.53
quadratic_ranged_387_ub: [ 1 x_12_ ^ 2 - 2 x_81_ * x_12_ + 1 x_81_ ^ 2 + 1 y_12_ ^ 2 - 2 y_81_ * y_12_ + 1 y_81_ ^ 2 ] <= 5827.7
quadratic_ranged_388_ub: [ 1 x_15_ ^ 2 - 2 x_81_ * x_15_ + 1 x_81_ ^ 2 + 1 y_15_ ^ 2 - 2 y_81_ * y_15_ + 1 y_81_ ^ 2 ] <= 4853.05
quadratic_ranged_389_ub: [ 1 x_26_ ^ 2 - 2 x_81_ * x_26_ + 1 x_81_ ^ 2 + 1 y_26_ ^ 2 - 2 y_81_ * y_26_ + 1 y_81_ ^ 2 ] <= 10734.28
quadratic_ranged_390_ub: [ 1 x_47_ ^ 2 - 2 x_81_ * x_47_ + 1 x_81_ ^ 2 + 1 y_47_ ^ 2 - 2 y_81_ * y_47_ + 1 y_81_ ^ 2 ] <= 931.22
quadratic_ranged_391_ub: [ 1 x_51_ ^ 2 - 2 x_81_ * x_51_ + 1 x_81_ ^ 2 + 1 y_51_ ^ 2 - 2 y_81_ * y_51_ + 1 y_81_ ^ 2 ] <= 3743.06
quadratic_ranged_392_ub: [ 1 x_52_ ^ 2 - 2 x_81_ * x_52_ + 1 x_81_ ^ 2 + 1 y_52_ ^ 2 - 2 y_81_ * y_52_ + 1 y_81_ ^ 2 ] <= 4979.3
quadratic_ranged_393_ub: [ 1 x_67_ ^ 2 - 2 x_81_ * x_67_ + 1 x_81_ ^ 2 + 1 y_67_ ^ 2 - 2 y_81_ * y_67_ + 1 y_81_ ^ 2 ] <= 13890.53
quadratic_ranged_394_ub: [ 1 x_75_ ^ 2 - 2 x_81_ * x_75_ + 1 x_81_ ^ 2 + 1 y_75_ ^ 2 - 2 y_81_ * y_75_ + 1 y_81_ ^ 2 ] <= 2008.89
quadratic_ranged_395_ub: [ 1 x_80_ ^ 2 - 2 x_81_ * x_80_ + 1 x_81_ ^ 2 + 1 y_80_ ^ 2 - 2 y_81_ * y_80_ + 1 y_81_ ^ 2 ] <= 6792.25
quadratic_ranged_396_ub: [ 1 x_21_ ^ 2 - 2 x_82_ * x_21_ + 1 x_82_ ^ 2 + 1 y_21_ ^ 2 - 2 y_82_ * y_21_ + 1 y_82_ ^ 2 ] <= 12960.32
quadratic_ranged_397_ub: [ 1 x_35_ ^ 2 - 2 x_82_ * x_35_ + 1 x_82_ ^ 2 + 1 y_35_ ^ 2 - 2 y_82_ * y_35_ + 1 y_82_ ^ 2 ] <= 5272.2
quadratic_ranged_398_ub: [ 1 x_48_ ^ 2 - 2 x_82_ * x_48_ + 1 x_82_ ^ 2 + 1 y_48_ ^ 2 - 2 y_82_ * y_48_ + 1 y_82_ ^ 2 ] <= 914.05
quadratic_ranged_399_ub: [ 1 x_49_ ^ 2 - 2 x_82_ * x_49_ + 1 x_82_ ^ 2 + 1 y_49_ ^ 2 - 2 y_82_ * y_49_ + 1 y_82_ ^ 2 ] <= 18618.34
quadratic_ranged_400_ub: [ 1 x_53_ ^ 2 - 2 x_82_ * x_53_ + 1 x_82_ ^ 2 + 1 y_53_ ^ 2 - 2 y_82_ * y_53_ + 1 y_82_ ^ 2 ] <= 12508.85
quadratic_ranged_401_ub: [ 1 x_62_ ^ 2 - 2 x_82_ * x_62_ + 1 x_82_ ^ 2 + 1 y_62_ ^ 2 - 2 y_82_ * y_62_ + 1 y_82_ ^ 2 ] <= 5483.29
quadratic_ranged_402_ub: [ 1 x_71_ ^ 2 - 2 x_82_ * x_71_ + 1 x_82_ ^ 2 + 1 y_71_ ^ 2 - 2 y_82_ * y_71_ + 1 y_82_ ^ 2 ] <= 1354.41
quadratic_ranged_403_ub: [ 1 x_81_ ^ 2 - 2 x_82_ * x_81_ + 1 x_82_ ^ 2 + 1 y_81_ ^ 2 - 2 y_82_ * y_81_ + 1 y_82_ ^ 2 ] <= 7534.6
quadratic_ranged_404_ub: [ 1 x_21_ ^ 2 - 2 x_83_ * x_21_ + 1 x_83_ ^ 2 + 1 y_21_ ^ 2 - 2 y_83_ * y_21_ + 1 y_83_ ^ 2 ] <= 11930.12
quadratic_ranged_405_ub: [ 1 x_52_ ^ 2 - 2 x_83_ * x_52_ + 1 x_83_ ^ 2 + 1 y_52_ ^ 2 - 2 y_83_ * y_52_ + 1 y_83_ ^ 2 ] <= 6312.5
quadratic_ranged_406_ub: [ 1 x_68_ ^ 2 - 2 x_83_ * x_68_ + 1 x_83_ ^ 2 + 1 y_68_ ^ 2 - 2 y_83_ * y_68_ + 1 y_83_ ^ 2 ] <= 51584.74
quadratic_ranged_407_ub: [ 1 x_82_ ^ 2 - 2 x_83_ * x_82_ + 1 x_83_ ^ 2 + 1 y_82_ ^ 2 - 2 y_83_ * y_82_ + 1 y_83_ ^ 2 ] <= 12689.64
quadratic_ranged_408_ub: [ 1 x_1_ ^ 2 - 2 x_84_ * x_1_ + 1 x_84_ ^ 2 + 1 y_1_ ^ 2 - 2 y_84_ * y_1_ + 1 y_84_ ^ 2 ] <= 4437.94
quadratic_ranged_409_ub: [ 1 x_5_ ^ 2 - 2 x_84_ * x_5_ + 1 x_84_ ^ 2 + 1 y_5_ ^ 2 - 2 y_84_ * y_5_ + 1 y_84_ ^ 2 ] <= 4170.29
quadratic_ranged_410_ub: [ 1 x_12_ ^ 2 - 2 x_84_ * x_12_ + 1 x_84_ ^ 2 + 1 y_12_ ^ 2 - 2 y_84_ * y_12_ + 1 y_84_ ^ 2 ] <= 6635.7
quadratic_ranged_411_ub: [ 1 x_13_ ^ 2 - 2 x_84_ * x_13_ + 1 x_84_ ^ 2 + 1 y_13_ ^ 2 - 2 y_84_ * y_13_ + 1 y_84_ ^ 2 ] <= 2918.9
quadratic_ranged_412_ub: [ 1 x_19_ ^ 2 - 2 x_84_ * x_19_ + 1 x_84_ ^ 2 + 1 y_19_ ^ 2 - 2 y_84_ * y_19_ + 1 y_84_ ^ 2 ] <= 6191.3
quadratic_ranged_413_ub: [ 1 x_54_ ^ 2 - 2 x_84_ * x_54_ + 1 x_84_ ^ 2 + 1 y_54_ ^ 2 - 2 y_84_ * y_54_ + 1 y_84_ ^ 2 ] <= 1532.17
quadratic_ranged_414_ub: [ 1 x_57_ ^ 2 - 2 x_84_ * x_57_ + 1 x_84_ ^ 2 + 1 y_57_ ^ 2 - 2 y_84_ * y_57_ + 1 y_84_ ^ 2 ] <= 10125.25
quadratic_ranged_415_ub: [ 1 x_58_ ^ 2 - 2 x_84_ * x_58_ + 1 x_84_ ^ 2 + 1 y_58_ ^ 2 - 2 y_84_ * y_58_ + 1 y_84_ ^ 2 ] <= 6186.25
quadratic_ranged_416_ub: [ 1 x_63_ ^ 2 - 2 x_84_ * x_63_ + 1 x_84_ ^ 2 + 1 y_63_ ^ 2 - 2 y_84_ * y_63_ + 1 y_84_ ^ 2 ] <= 2271.4900000000002
quadratic_ranged_417_ub: [ 1 x_75_ ^ 2 - 2 x_84_ * x_75_ + 1 x_84_ ^ 2 + 1 y_75_ ^ 2 - 2 y_84_ * y_75_ + 1 y_84_ ^ 2 ] <= 1625.09
quadratic_ranged_418_ub: [ 1 x_78_ ^ 2 - 2 x_84_ * x_78_ + 1 x_84_ ^ 2 + 1 y_78_ ^ 2 - 2 y_84_ * y_78_ + 1 y_84_ ^ 2 ] <= 7370.9800000000005
quadratic_ranged_419_ub: [ 1 x_83_ ^ 2 - 2 x_84_ * x_83_ + 1 x_84_ ^ 2 + 1 y_83_ ^ 2 - 2 y_84_ * y_83_ + 1 y_84_ ^ 2 ] <= 11675.6
quadratic_ranged_420_ub: [ 1 x_1_ ^ 2 - 2 x_85_ * x_1_ + 1 x_85_ ^ 2 + 1 y_1_ ^ 2 - 2 y_85_ * y_1_ + 1 y_85_ ^ 2 ] <= 7531.57
quadratic_ranged_421_ub: [ 1 x_15_ ^ 2 - 2 x_85_ * x_15_ + 1 x_85_ ^ 2 + 1 y_15_ ^ 2 - 2 y_85_ * y_15_ + 1 y_85_ ^ 2 ] <= 4928.8
quadratic_ranged_422_ub: [ 1 x_16_ ^ 2 - 2 x_85_ * x_16_ + 1 x_85_ ^ 2 + 1 y_16_ ^ 2 - 2 y_85_ * y_16_ + 1 y_85_ ^ 2 ] <= 35713.6
quadratic_ranged_423_ub: [ 1 x_33_ ^ 2 - 2 x_85_ * x_33_ + 1 x_85_ ^ 2 + 1 y_33_ ^ 2 - 2 y_85_ * y_33_ + 1 y_85_ ^ 2 ] <= 5445.92
quadratic_ranged_424_ub: [ 1 x_34_ ^ 2 - 2 x_85_ * x_34_ + 1 x_85_ ^ 2 + 1 y_34_ ^ 2 - 2 y_85_ * y_34_ + 1 y_85_ ^ 2 ] <= 4667.21
quadratic_ranged_425_ub: [ 1 x_36_ ^ 2 - 2 x_85_ * x_36_ + 1 x_85_ ^ 2 + 1 y_36_ ^ 2 - 2 y_85_ * y_36_ + 1 y_85_ ^ 2 ] <= 18054.76
quadratic_ranged_426_ub: [ 1 x_39_ ^ 2 - 2 x_85_ * x_39_ + 1 x_85_ ^ 2 + 1 y_39_ ^ 2 - 2 y_85_ * y_39_ + 1 y_85_ ^ 2 ] <= 440.36
quadratic_ranged_427_ub: [ 1 x_57_ ^ 2 - 2 x_85_ * x_57_ + 1 x_85_ ^ 2 + 1 y_57_ ^ 2 - 2 y_85_ * y_57_ + 1 y_85_ ^ 2 ] <= 17818.420000000002
quadratic_ranged_428_ub: [ 1 x_60_ ^ 2 - 2 x_85_ * x_60_ + 1 x_85_ ^ 2 + 1 y_60_ ^ 2 - 2 y_85_ * y_60_ + 1 y_85_ ^ 2 ] <= 4518.74
quadratic_ranged_429_ub: [ 1 x_66_ ^ 2 - 2 x_85_ * x_66_ + 1 x_85_ ^ 2 + 1 y_66_ ^ 2 - 2 y_85_ * y_66_ + 1 y_85_ ^ 2 ] <= 7045.76
quadratic_ranged_430_ub: [ 1 x_82_ ^ 2 - 2 x_85_ * x_82_ + 1 x_85_ ^ 2 + 1 y_82_ ^ 2 - 2 y_85_ * y_82_ + 1 y_85_ ^ 2 ] <= 10084.85
quadratic_ranged_431_ub: [ 1 x_84_ ^ 2 - 2 x_85_ * x_84_ + 1 x_85_ ^ 2 + 1 y_84_ ^ 2 - 2 y_85_ * y_84_ + 1 y_85_ ^ 2 ] <= 4590.45
quadratic_ranged_432_ub: [ 1 x_2_ ^ 2 - 2 x_86_ * x_2_ + 1 x_86_ ^ 2 + 1 y_2_ ^ 2 - 2 y_86_ * y_2_ + 1 y_86_ ^ 2 ] <= 4771.24
quadratic_ranged_433_ub: [ 1 x_11_ ^ 2 - 2 x_86_ * x_11_ + 1 x_86_ ^ 2 + 1 y_11_ ^ 2 - 2 y_86_ * y_11_ + 1 y_86_ ^ 2 ] <= 2045.25
quadratic_ranged_434_ub: [ 1 x_30_ ^ 2 - 2 x_86_ * x_30_ + 1 x_86_ ^ 2 + 1 y_30_ ^ 2 - 2 y_86_ * y_30_ + 1 y_86_ ^ 2 ] <= 10917.09
quadratic_ranged_435_ub: [ 1 x_48_ ^ 2 - 2 x_86_ * x_48_ + 1 x_86_ ^ 2 + 1 y_48_ ^ 2 - 2 y_86_ * y_48_ + 1 y_86_ ^ 2 ] <= 9797
quadratic_ranged_436_ub: [ 1 x_50_ ^ 2 - 2 x_86_ * x_50_ + 1 x_86_ ^ 2 + 1 y_50_ ^ 2 - 2 y_86_ * y_50_ + 1 y_86_ ^ 2 ] <= 1632.16
quadratic_ranged_437_ub: [ 1 x_56_ ^ 2 - 2 x_86_ * x_56_ + 1 x_86_ ^ 2 + 1 y_56_ ^ 2 - 2 y_86_ * y_56_ + 1 y_86_ ^ 2 ] <= 2716.9
quadratic_ranged_438_ub: [ 1 x_62_ ^ 2 - 2 x_86_ * x_62_ + 1 x_86_ ^ 2 + 1 y_62_ ^ 2 - 2 y_86_ * y_62_ + 1 y_86_ ^ 2 ] <= 5979.2
quadratic_ranged_439_ub: [ 1 x_72_ ^ 2 - 2 x_86_ * x_72_ + 1 x_86_ ^ 2 + 1 y_72_ ^ 2 - 2 y_86_ * y_72_ + 1 y_86_ ^ 2 ] <= 11357.45
quadratic_ranged_440_ub: [ 1 x_76_ ^ 2 - 2 x_86_ * x_76_ + 1 x_86_ ^ 2 + 1 y_76_ ^ 2 - 2 y_86_ * y_76_ + 1 y_86_ ^ 2 ] <= 11236.25
quadratic_ranged_441_ub: [ 1 x_85_ ^ 2 - 2 x_86_ * x_85_ + 1 x_86_ ^ 2 + 1 y_85_ ^ 2 - 2 y_86_ * y_85_ + 1 y_86_ ^ 2 ] <= 1706.9
quadratic_ranged_442_ub: [ 1 x_9_ ^ 2 - 2 x_87_ * x_9_ + 1 x_87_ ^ 2 + 1 y_9_ ^ 2 - 2 y_87_ * y_9_ + 1 y_87_ ^ 2 ] <= 29941.45
quadratic_ranged_443_ub: [ 1 x_28_ ^ 2 - 2 x_87_ * x_28_ + 1 x_87_ ^ 2 + 1 y_28_ ^ 2 - 2 y_87_ * y_28_ + 1 y_87_ ^ 2 ] <= 26353.93
quadratic_ranged_444_ub: [ 1 x_31_ ^ 2 - 2 x_87_ * x_31_ + 1 x_87_ ^ 2 + 1 y_31_ ^ 2 - 2 y_87_ * y_31_ + 1 y_87_ ^ 2 ] <= 11796.8
quadratic_ranged_445_ub: [ 1 x_39_ ^ 2 - 2 x_87_ * x_39_ + 1 x_87_ ^ 2 + 1 y_39_ ^ 2 - 2 y_87_ * y_39_ + 1 y_87_ ^ 2 ] <= 6465.01
quadratic_ranged_446_ub: [ 1 x_42_ ^ 2 - 2 x_87_ * x_42_ + 1 x_87_ ^ 2 + 1 y_42_ ^ 2 - 2 y_87_ * y_42_ + 1 y_87_ ^ 2 ] <= 21206.97
quadratic_ranged_447_ub: [ 1 x_44_ ^ 2 - 2 x_87_ * x_44_ + 1 x_87_ ^ 2 + 1 y_44_ ^ 2 - 2 y_87_ * y_44_ + 1 y_87_ ^ 2 ] <= 12705.8
quadratic_ranged_448_ub: [ 1 x_45_ ^ 2 - 2 x_87_ * x_45_ + 1 x_87_ ^ 2 + 1 y_45_ ^ 2 - 2 y_87_ * y_45_ + 1 y_87_ ^ 2 ] <= 1246.34
quadratic_ranged_449_ub: [ 1 x_47_ ^ 2 - 2 x_87_ * x_47_ + 1 x_87_ ^ 2 + 1 y_47_ ^ 2 - 2 y_87_ * y_47_ + 1 y_87_ ^ 2 ] <= 10215.14
quadratic_ranged_450_ub: [ 1 x_64_ ^ 2 - 2 x_87_ * x_64_ + 1 x_87_ ^ 2 + 1 y_64_ ^ 2 - 2 y_87_ * y_64_ + 1 y_87_ ^ 2 ] <= 22432.1
quadratic_ranged_451_ub: [ 1 x_69_ ^ 2 - 2 x_87_ * x_69_ + 1 x_87_ ^ 2 + 1 y_69_ ^ 2 - 2 y_87_ * y_69_ + 1 y_87_ ^ 2 ] <= 9037.48
quadratic_ranged_452_ub: [ 1 x_77_ ^ 2 - 2 x_87_ * x_77_ + 1 x_87_ ^ 2 + 1 y_77_ ^ 2 - 2 y_87_ * y_77_ + 1 y_87_ ^ 2 ] <= 12472.49
quadratic_ranged_453_ub: [ 1 x_78_ ^ 2 - 2 x_87_ * x_78_ + 1 x_87_ ^ 2 + 1 y_78_ ^ 2 - 2 y_87_ * y_78_ + 1 y_87_ ^ 2 ] <= 309.06
quadratic_ranged_454_ub: [ 1 x_86_ ^ 2 - 2 x_87_ * x_86_ + 1 x_87_ ^ 2 + 1 y_86_ ^ 2 - 2 y_87_ * y_86_ + 1 y_87_ ^ 2 ] <= 9600.05
quadratic_ranged_455_ub: [ 1 x_2_ ^ 2 - 2 x_88_ * x_2_ + 1 x_88_ ^ 2 + 1 y_2_ ^ 2 - 2 y_88_ * y_2_ + 1 y_88_ ^ 2 ] <= 23938.01
quadratic_ranged_456_ub: [ 1 x_10_ ^ 2 - 2 x_88_ * x_10_ + 1 x_88_ ^ 2 + 1 y_10_ ^ 2 - 2 y_88_ * y_10_ + 1 y_88_ ^ 2 ] <= 25731.77
quadratic_ranged_457_ub: [ 1 x_19_ ^ 2 - 2 x_88_ * x_19_ + 1 x_88_ ^ 2 + 1 y_19_ ^ 2 - 2 y_88_ * y_19_ + 1 y_88_ ^ 2 ] <= 16564
quadratic_ranged_458_ub: [ 1 x_28_ ^ 2 - 2 x_88_ * x_28_ + 1 x_88_ ^ 2 + 1 y_28_ ^ 2 - 2 y_88_ * y_28_ + 1 y_88_ ^ 2 ] <= 33961.25
quadratic_ranged_459_ub: [ 1 x_44_ ^ 2 - 2 x_88_ * x_44_ + 1 x_88_ ^ 2 + 1 y_44_ ^ 2 - 2 y_88_ * y_44_ + 1 y_88_ ^ 2 ] <= 16808.420000000002
quadratic_ranged_460_ub: [ 1 x_45_ ^ 2 - 2 x_88_ * x_45_ + 1 x_88_ ^ 2 + 1 y_45_ ^ 2 - 2 y_88_ * y_45_ + 1 y_88_ ^ 2 ] <= 1717
quadratic_ranged_461_ub: [ 1 x_66_ ^ 2 - 2 x_88_ * x_66_ + 1 x_88_ ^ 2 + 1 y_66_ ^ 2 - 2 y_88_ * y_66_ + 1 y_88_ ^ 2 ] <= 3022.93
quadratic_ranged_462_ub: [ 1 x_83_ ^ 2 - 2 x_88_ * x_83_ + 1 x_88_ ^ 2 + 1 y_83_ ^ 2 - 2 y_88_ * y_83_ + 1 y_88_ ^ 2 ] <= 23320.9
quadratic_ranged_463_ub: [ 1 x_87_ ^ 2 - 2 x_88_ * x_87_ + 1 x_88_ ^ 2 + 1 y_87_ ^ 2 - 2 y_88_ * y_87_ + 1 y_88_ ^ 2 ] <= 543.38
quadratic_ranged_464_ub: [ 1 x_1_ ^ 2 - 2 x_89_ * x_1_ + 1 x_89_ ^ 2 + 1 y_1_ ^ 2 - 2 y_89_ * y_1_ + 1 y_89_ ^ 2 ] <= 6571.06
quadratic_ranged_465_ub: [ 1 x_2_ ^ 2 - 2 x_89_ * x_2_ + 1 x_89_ ^ 2 + 1 y_2_ ^ 2 - 2 y_89_ * y_2_ + 1 y_89_ ^ 2 ] <= 7495.21
quadratic_ranged_466_ub: [ 1 x_14_ ^ 2 - 2 x_89_ * x_14_ + 1 x_89_ ^ 2 + 1 y_14_ ^ 2 - 2 y_89_ * y_14_ + 1 y_89_ ^ 2 ] <= 14508.65
quadratic_ranged_467_ub: [ 1 x_28_ ^ 2 - 2 x_89_ * x_28_ + 1 x_89_ ^ 2 + 1 y_28_ ^ 2 - 2 y_89_ * y_28_ + 1 y_89_ ^ 2 ] <= 19287.97
quadratic_ranged_468_ub: [ 1 x_39_ ^ 2 - 2 x_89_ * x_39_ + 1 x_89_ ^ 2 + 1 y_39_ ^ 2 - 2 y_89_ * y_39_ + 1 y_89_ ^ 2 ] <= 740.33
quadratic_ranged_469_ub: [ 1 x_88_ ^ 2 - 2 x_89_ * x_88_ + 1 x_89_ ^ 2 + 1 y_88_ ^ 2 - 2 y_89_ * y_88_ + 1 y_89_ ^ 2 ] <= 8728.42
quadratic_ranged_470_ub: [ 1 x_9_ ^ 2 - 2 x_90_ * x_9_ + 1 x_90_ ^ 2 + 1 y_9_ ^ 2 - 2 y_90_ * y_9_ + 1 y_90_ ^ 2 ] <= 23033.05
quadratic_ranged_471_ub: [ 1 x_18_ ^ 2 - 2 x_90_ * x_18_ + 1 x_90_ ^ 2 + 1 y_18_ ^ 2 - 2 y_90_ * y_18_ + 1 y_90_ ^ 2 ] <= 534.29
quadratic_ranged_472_ub: [ 1 x_27_ ^ 2 - 2 x_90_ * x_27_ + 1 x_90_ ^ 2 + 1 y_27_ ^ 2 - 2 y_90_ * y_27_ + 1 y_90_ ^ 2 ] <= 1763.46
quadratic_ranged_473_ub: [ 1 x_43_ ^ 2 - 2 x_90_ * x_43_ + 1 x_90_ ^ 2 + 1 y_43_ ^ 2 - 2 y_90_ * y_43_ + 1 y_90_ ^ 2 ] <= 2547.22
quadratic_ranged_474_ub: [ 1 x_51_ ^ 2 - 2 x_90_ * x_51_ + 1 x_90_ ^ 2 + 1 y_51_ ^ 2 - 2 y_90_ * y_51_ + 1 y_90_ ^ 2 ] <= 16244.84
quadratic_ranged_475_ub: [ 1 x_68_ ^ 2 - 2 x_90_ * x_68_ + 1 x_90_ ^ 2 + 1 y_68_ ^ 2 - 2 y_90_ * y_68_ + 1 y_90_ ^ 2 ] <= 3979.4
quadratic_ranged_476_ub: [ 1 x_72_ ^ 2 - 2 x_90_ * x_72_ + 1 x_90_ ^ 2 + 1 y_72_ ^ 2 - 2 y_90_ * y_72_ + 1 y_90_ ^ 2 ] <= 17430.58
quadratic_ranged_477_ub: [ 1 x_89_ ^ 2 - 2 x_90_ * x_89_ + 1 x_90_ ^ 2 + 1 y_89_ ^ 2 - 2 y_90_ * y_89_ + 1 y_90_ ^ 2 ] <= 9140.5
quadratic_ranged_478_ub: [ 1 x_4_ ^ 2 - 2 x_91_ * x_4_ + 1 x_91_ ^ 2 + 1 y_4_ ^ 2 - 2 y_91_ * y_4_ + 1 y_91_ ^ 2 ] <= 4731.85
quadratic_ranged_479_ub: [ 1 x_5_ ^ 2 - 2 x_91_ * x_5_ + 1 x_91_ ^ 2 + 1 y_5_ ^ 2 - 2 y_91_ * y_5_ + 1 y_91_ ^ 2 ] <= 14933.86
quadratic_ranged_480_ub: [ 1 x_11_ ^ 2 - 2 x_91_ * x_11_ + 1 x_91_ ^ 2 + 1 y_11_ ^ 2 - 2 y_91_ * y_11_ + 1 y_91_ ^ 2 ] <= 5592.37
quadratic_ranged_481_ub: [ 1 x_28_ ^ 2 - 2 x_91_ * x_28_ + 1 x_91_ ^ 2 + 1 y_28_ ^ 2 - 2 y_91_ * y_28_ + 1 y_91_ ^ 2 ] <= 2217.96
quadratic_ranged_482_ub: [ 1 x_31_ ^ 2 - 2 x_91_ * x_31_ + 1 x_91_ ^ 2 + 1 y_31_ ^ 2 - 2 y_91_ * y_31_ + 1 y_91_ ^ 2 ] <= 6509.45
quadratic_ranged_483_ub: [ 1 x_63_ ^ 2 - 2 x_91_ * x_63_ + 1 x_91_ ^ 2 + 1 y_63_ ^ 2 - 2 y_91_ * y_63_ + 1 y_91_ ^ 2 ] <= 9833.36
quadratic_ranged_484_ub: [ 1 x_68_ ^ 2 - 2 x_91_ * x_68_ + 1 x_91_ ^ 2 + 1 y_68_ ^ 2 - 2 y_91_ * y_68_ + 1 y_91_ ^ 2 ] <= 9216.25
quadratic_ranged_485_ub: [ 1 x_69_ ^ 2 - 2 x_91_ * x_69_ + 1 x_91_ ^ 2 + 1 y_69_ ^ 2 - 2 y_91_ * y_69_ + 1 y_91_ ^ 2 ] <= 22750.25
quadratic_ranged_486_ub: [ 1 x_77_ ^ 2 - 2 x_91_ * x_77_ + 1 x_91_ ^ 2 + 1 y_77_ ^ 2 - 2 y_91_ * y_77_ + 1 y_91_ ^ 2 ] <= 2359.36
quadratic_ranged_487_ub: [ 1 x_87_ ^ 2 - 2 x_91_ * x_87_ + 1 x_91_ ^ 2 + 1 y_87_ ^ 2 - 2 y_91_ * y_87_ + 1 y_91_ ^ 2 ] <= 21821.05
quadratic_ranged_488_ub: [ 1 x_90_ ^ 2 - 2 x_91_ * x_90_ + 1 x_91_ ^ 2 + 1 y_90_ ^ 2 - 2 y_91_ * y_90_ + 1 y_91_ ^ 2 ] <= 7418.45
quadratic_ranged_489_ub: [ 1 x_13_ ^ 2 - 2 x_92_ * x_13_ + 1 x_92_ ^ 2 + 1 y_13_ ^ 2 - 2 y_92_ * y_13_ + 1 y_92_ ^ 2 ] <= 4222.81
quadratic_ranged_490_ub: [ 1 x_21_ ^ 2 - 2 x_92_ * x_21_ + 1 x_92_ ^ 2 + 1 y_21_ ^ 2 - 2 y_92_ * y_21_ + 1 y_92_ ^ 2 ] <= 3156.25
quadratic_ranged_491_ub: [ 1 x_27_ ^ 2 - 2 x_92_ * x_27_ + 1 x_92_ ^ 2 + 1 y_27_ ^ 2 - 2 y_92_ * y_27_ + 1 y_92_ ^ 2 ] <= 6048.89
quadratic_ranged_492_ub: [ 1 x_43_ ^ 2 - 2 x_92_ * x_43_ + 1 x_92_ ^ 2 + 1 y_43_ ^ 2 - 2 y_92_ * y_43_ + 1 y_92_ ^ 2 ] <= 5010.61
quadratic_ranged_493_ub: [ 1 x_52_ ^ 2 - 2 x_92_ * x_52_ + 1 x_92_ ^ 2 + 1 y_52_ ^ 2 - 2 y_92_ * y_52_ + 1 y_92_ ^ 2 ] <= 5107.57
quadratic_ranged_494_ub: [ 1 x_68_ ^ 2 - 2 x_92_ * x_68_ + 1 x_92_ ^ 2 + 1 y_68_ ^ 2 - 2 y_92_ * y_68_ + 1 y_92_ ^ 2 ] <= 10440.37
quadratic_ranged_495_ub: [ 1 x_87_ ^ 2 - 2 x_92_ * x_87_ + 1 x_92_ ^ 2 + 1 y_87_ ^ 2 - 2 y_92_ * y_87_ + 1 y_92_ ^ 2 ] <= 8779.93
quadratic_ranged_496_ub: [ 1 x_91_ ^ 2 - 2 x_92_ * x_91_ + 1 x_92_ ^ 2 + 1 y_91_ ^ 2 - 2 y_92_ * y_91_ + 1 y_92_ ^ 2 ] <= 3203.7200000000003
quadratic_ranged_497_ub: [ 1 x_4_ ^ 2 - 2 x_93_ * x_4_ + 1 x_93_ ^ 2 + 1 y_4_ ^ 2 - 2 y_93_ * y_4_ + 1 y_93_ ^ 2 ] <= 23360.29
quadratic_ranged_498_ub: [ 1 x_17_ ^ 2 - 2 x_93_ * x_17_ + 1 x_93_ ^ 2 + 1 y_17_ ^ 2 - 2 y_93_ * y_17_ + 1 y_93_ ^ 2 ] <= 7163.93
quadratic_ranged_499_ub: [ 1 x_18_ ^ 2 - 2 x_93_ * x_18_ + 1 x_93_ ^ 2 + 1 y_18_ ^ 2 - 2 y_93_ * y_18_ + 1 y_93_ ^ 2 ] <= 234.32
quadratic_ranged_500_ub: [ 1 x_20_ ^ 2 - 2 x_93_ * x_20_ + 1 x_93_ ^ 2 + 1 y_20_ ^ 2 - 2 y_93_ * y_20_ + 1 y_93_ ^ 2 ] <= 11894.77
quadratic_ranged_501_ub: [ 1 x_21_ ^ 2 - 2 x_93_ * x_21_ + 1 x_93_ ^ 2 + 1 y_21_ ^ 2 - 2 y_93_ * y_21_ + 1 y_93_ ^ 2 ] <= 11696.81
quadratic_ranged_502_ub: [ 1 x_23_ ^ 2 - 2 x_93_ * x_23_ + 1 x_93_ ^ 2 + 1 y_23_ ^ 2 - 2 y_93_ * y_23_ + 1 y_93_ ^ 2 ] <= 30453.52
quadratic_ranged_503_ub: [ 1 x_36_ ^ 2 - 2 x_93_ * x_36_ + 1 x_93_ ^ 2 + 1 y_36_ ^ 2 - 2 y_93_ * y_36_ + 1 y_93_ ^ 2 ] <= 4203.62
quadratic_ranged_504_ub: [ 1 x_44_ ^ 2 - 2 x_93_ * x_44_ + 1 x_93_ ^ 2 + 1 y_44_ ^ 2 - 2 y_93_ * y_44_ + 1 y_93_ ^ 2 ] <= 7446.7300000000005
quadratic_ranged_505_ub: [ 1 x_47_ ^ 2 - 2 x_93_ * x_47_ + 1 x_93_ ^ 2 + 1 y_47_ ^ 2 - 2 y_93_ * y_47_ + 1 y_93_ ^ 2 ] <= 9167.77
quadratic_ranged_506_ub: [ 1 x_56_ ^ 2 - 2 x_93_ * x_56_ + 1 x_93_ ^ 2 + 1 y_56_ ^ 2 - 2 y_93_ * y_56_ + 1 y_93_ ^ 2 ] <= 27853.78
quadratic_ranged_507_ub: [ 1 x_77_ ^ 2 - 2 x_93_ * x_77_ + 1 x_93_ ^ 2 + 1 y_77_ ^ 2 - 2 y_93_ * y_77_ + 1 y_93_ ^ 2 ] <= 1698.82
quadratic_ranged_508_ub: [ 1 x_88_ ^ 2 - 2 x_93_ * x_88_ + 1 x_93_ ^ 2 + 1 y_88_ ^ 2 - 2 y_93_ * y_88_ + 1 y_93_ ^ 2 ] <= 17530.57
quadratic_ranged_509_ub: [ 1 x_92_ ^ 2 - 2 x_93_ * x_92_ + 1 x_93_ ^ 2 + 1 y_92_ ^ 2 - 2 y_93_ * y_92_ + 1 y_93_ ^ 2 ] <= 6045.86
quadratic_ranged_510_ub: [ 1 x_32_ ^ 2 - 2 x_94_ * x_32_ + 1 x_94_ ^ 2 + 1 y_32_ ^ 2 - 2 y_94_ * y_32_ + 1 y_94_ ^ 2 ] <= 44046.1
quadratic_ranged_511_ub: [ 1 x_33_ ^ 2 - 2 x_94_ * x_33_ + 1 x_94_ ^ 2 + 1 y_33_ ^ 2 - 2 y_94_ * y_33_ + 1 y_94_ ^ 2 ] <= 14382.4
quadratic_ranged_512_ub: [ 1 x_52_ ^ 2 - 2 x_94_ * x_52_ + 1 x_94_ ^ 2 + 1 y_52_ ^ 2 - 2 y_94_ * y_52_ + 1 y_94_ ^ 2 ] <= 4428.85
quadratic_ranged_513_ub: [ 1 x_71_ ^ 2 - 2 x_94_ * x_71_ + 1 x_94_ ^ 2 + 1 y_71_ ^ 2 - 2 y_94_ * y_71_ + 1 y_94_ ^ 2 ] <= 3058.28
quadratic_ranged_514_ub: [ 1 x_72_ ^ 2 - 2 x_94_ * x_72_ + 1 x_94_ ^ 2 + 1 y_72_ ^ 2 - 2 y_94_ * y_72_ + 1 y_94_ ^ 2 ] <= 186.85
quadratic_ranged_515_ub: [ 1 x_75_ ^ 2 - 2 x_94_ * x_75_ + 1 x_94_ ^ 2 + 1 y_75_ ^ 2 - 2 y_94_ * y_75_ + 1 y_94_ ^ 2 ] <= 9716.2
quadratic_ranged_516_ub: [ 1 x_86_ ^ 2 - 2 x_94_ * x_86_ + 1 x_94_ ^ 2 + 1 y_86_ ^ 2 - 2 y_94_ * y_86_ + 1 y_94_ ^ 2 ] <= 8631.460000000001
quadratic_ranged_517_ub: [ 1 x_91_ ^ 2 - 2 x_94_ * x_91_ + 1 x_94_ ^ 2 + 1 y_91_ ^ 2 - 2 y_94_ * y_91_ + 1 y_94_ ^ 2 ] <= 1494.8
quadratic_ranged_518_ub: [ 1 x_93_ ^ 2 - 2 x_94_ * x_93_ + 1 x_94_ ^ 2 + 1 y_93_ ^ 2 - 2 y_94_ * y_93_ + 1 y_94_ ^ 2 ] <= 15911.54
quadratic_ranged_519_ub: [ 1 x_40_ ^ 2 - 2 x_95_ * x_40_ + 1 x_95_ ^ 2 + 1 y_40_ ^ 2 - 2 y_95_ * y_40_ + 1 y_95_ ^ 2 ] <= 12978.5
quadratic_ranged_520_ub: [ 1 x_42_ ^ 2 - 2 x_95_ * x_42_ + 1 x_95_ ^ 2 + 1 y_42_ ^ 2 - 2 y_95_ * y_42_ + 1 y_95_ ^ 2 ] <= 290.88
quadratic_ranged_521_ub: [ 1 x_52_ ^ 2 - 2 x_95_ * x_52_ + 1 x_95_ ^ 2 + 1 y_52_ ^ 2 - 2 y_95_ * y_52_ + 1 y_95_ ^ 2 ] <= 227.25
quadratic_ranged_522_ub: [ 1 x_58_ ^ 2 - 2 x_95_ * x_58_ + 1 x_95_ ^ 2 + 1 y_58_ ^ 2 - 2 y_95_ * y_58_ + 1 y_95_ ^ 2 ] <= 14645
quadratic_ranged_523_ub: [ 1 x_67_ ^ 2 - 2 x_95_ * x_67_ + 1 x_95_ ^ 2 + 1 y_67_ ^ 2 - 2 y_95_ * y_67_ + 1 y_95_ ^ 2 ] <= 7855.78
quadratic_ranged_524_ub: [ 1 x_82_ ^ 2 - 2 x_95_ * x_82_ + 1 x_95_ ^ 2 + 1 y_82_ ^ 2 - 2 y_95_ * y_82_ + 1 y_95_ ^ 2 ] <= 631.25
quadratic_ranged_525_ub: [ 1 x_85_ ^ 2 - 2 x_95_ * x_85_ + 1 x_95_ ^ 2 + 1 y_85_ ^ 2 - 2 y_95_ * y_85_ + 1 y_95_ ^ 2 ] <= 5674.18
quadratic_ranged_526_ub: [ 1 x_92_ ^ 2 - 2 x_95_ * x_92_ + 1 x_95_ ^ 2 + 1 y_92_ ^ 2 - 2 y_95_ * y_92_ + 1 y_95_ ^ 2 ] <= 3541.06
quadratic_ranged_527_ub: [ 1 x_94_ ^ 2 - 2 x_95_ * x_94_ + 1 x_95_ ^ 2 + 1 y_94_ ^ 2 - 2 y_95_ * y_94_ + 1 y_95_ ^ 2 ] <= 3080.5
quadratic_ranged_528_ub: [ 1 x_3_ ^ 2 - 2 x_96_ * x_3_ + 1 x_96_ ^ 2 + 1 y_3_ ^ 2 - 2 y_96_ * y_3_ + 1 y_96_ ^ 2 ] <= 43903.69
quadratic_ranged_529_ub: [ 1 x_14_ ^ 2 - 2 x_96_ * x_14_ + 1 x_96_ ^ 2 + 1 y_14_ ^ 2 - 2 y_96_ * y_14_ + 1 y_96_ ^ 2 ] <= 32782.58
quadratic_ranged_530_ub: [ 1 x_19_ ^ 2 - 2 x_96_ * x_19_ + 1 x_96_ ^ 2 + 1 y_19_ ^ 2 - 2 y_96_ * y_19_ + 1 y_96_ ^ 2 ] <= 37730.57
quadratic_ranged_531_ub: [ 1 x_27_ ^ 2 - 2 x_96_ * x_27_ + 1 x_96_ ^ 2 + 1 y_27_ ^ 2 - 2 y_96_ * y_27_ + 1 y_96_ ^ 2 ] <= 35734.81
quadratic_ranged_532_ub: [ 1 x_35_ ^ 2 - 2 x_96_ * x_35_ + 1 x_96_ ^ 2 + 1 y_35_ ^ 2 - 2 y_96_ * y_35_ + 1 y_96_ ^ 2 ] <= 3637.01
quadratic_ranged_533_ub: [ 1 x_40_ ^ 2 - 2 x_96_ * x_40_ + 1 x_96_ ^ 2 + 1 y_40_ ^ 2 - 2 y_96_ * y_40_ + 1 y_96_ ^ 2 ] <= 20088.9
quadratic_ranged_534_ub: [ 1 x_62_ ^ 2 - 2 x_96_ * x_62_ + 1 x_96_ ^ 2 + 1 y_62_ ^ 2 - 2 y_96_ * y_62_ + 1 y_96_ ^ 2 ] <= 26381.2
quadratic_ranged_535_ub: [ 1 x_63_ ^ 2 - 2 x_96_ * x_63_ + 1 x_96_ ^ 2 + 1 y_63_ ^ 2 - 2 y_96_ * y_63_ + 1 y_96_ ^ 2 ] <= 17543.7
quadratic_ranged_536_ub: [ 1 x_65_ ^ 2 - 2 x_96_ * x_65_ + 1 x_96_ ^ 2 + 1 y_65_ ^ 2 - 2 y_96_ * y_65_ + 1 y_96_ ^ 2 ] <= 31069.62
quadratic_ranged_537_ub: [ 1 x_69_ ^ 2 - 2 x_96_ * x_69_ + 1 x_96_ ^ 2 + 1 y_69_ ^ 2 - 2 y_96_ * y_69_ + 1 y_96_ ^ 2 ] <= 7418.45
quadratic_ranged_538_ub: [ 1 x_75_ ^ 2 - 2 x_96_ * x_75_ + 1 x_96_ ^ 2 + 1 y_75_ ^ 2 - 2 y_96_ * y_75_ + 1 y_96_ ^ 2 ] <= 23223.94
quadratic_ranged_539_ub: [ 1 x_80_ ^ 2 - 2 x_96_ * x_80_ + 1 x_96_ ^ 2 + 1 y_80_ ^ 2 - 2 y_96_ * y_80_ + 1 y_96_ ^ 2 ] <= 3737
quadratic_ranged_540_ub: [ 1 x_84_ ^ 2 - 2 x_96_ * x_84_ + 1 x_96_ ^ 2 + 1 y_84_ ^ 2 - 2 y_96_ * y_84_ + 1 y_96_ ^ 2 ] <= 13385.53
quadratic_ranged_541_ub: [ 1 x_85_ ^ 2 - 2 x_96_ * x_85_ + 1 x_96_ ^ 2 + 1 y_85_ ^ 2 - 2 y_96_ * y_85_ + 1 y_96_ ^ 2 ] <= 5383.3
quadratic_ranged_542_ub: [ 1 x_95_ ^ 2 - 2 x_96_ * x_95_ + 1 x_96_ ^ 2 + 1 y_95_ ^ 2 - 2 y_96_ * y_95_ + 1 y_96_ ^ 2 ] <= 8403.2
quadratic_ranged_543_ub: [ 1 x_9_ ^ 2 - 2 x_97_ * x_9_ + 1 x_97_ ^ 2 + 1 y_9_ ^ 2 - 2 y_97_ * y_9_ + 1 y_97_ ^ 2 ] <= 2537.12
quadratic_ranged_544_ub: [ 1 x_20_ ^ 2 - 2 x_97_ * x_20_ + 1 x_97_ ^ 2 + 1 y_20_ ^ 2 - 2 y_97_ * y_20_ + 1 y_97_ ^ 2 ] <= 1750.33
quadratic_ranged_545_ub: [ 1 x_32_ ^ 2 - 2 x_97_ * x_32_ + 1 x_97_ ^ 2 + 1 y_32_ ^ 2 - 2 y_97_ * y_32_ + 1 y_97_ ^ 2 ] <= 34140.02
quadratic_ranged_546_ub: [ 1 x_33_ ^ 2 - 2 x_97_ * x_33_ + 1 x_97_ ^ 2 + 1 y_33_ ^ 2 - 2 y_97_ * y_33_ + 1 y_97_ ^ 2 ] <= 9166.76
quadratic_ranged_547_ub: [ 1 x_47_ ^ 2 - 2 x_97_ * x_47_ + 1 x_97_ ^ 2 + 1 y_47_ ^ 2 - 2 y_97_ * y_47_ + 1 y_97_ ^ 2 ] <= 2404.81
quadratic_ranged_548_ub: [ 1 x_48_ ^ 2 - 2 x_97_ * x_48_ + 1 x_97_ ^ 2 + 1 y_48_ ^ 2 - 2 y_97_ * y_48_ + 1 y_97_ ^ 2 ] <= 1480.66
quadratic_ranged_549_ub: [ 1 x_50_ ^ 2 - 2 x_97_ * x_50_ + 1 x_97_ ^ 2 + 1 y_50_ ^ 2 - 2 y_97_ * y_50_ + 1 y_97_ ^ 2 ] <= 656.5
quadratic_ranged_550_ub: [ 1 x_62_ ^ 2 - 2 x_97_ * x_62_ + 1 x_97_ ^ 2 + 1 y_62_ ^ 2 - 2 y_97_ * y_62_ + 1 y_97_ ^ 2 ] <= 3638.02
quadratic_ranged_551_ub: [ 1 x_63_ ^ 2 - 2 x_97_ * x_63_ + 1 x_97_ ^ 2 + 1 y_63_ ^ 2 - 2 y_97_ * y_63_ + 1 y_97_ ^ 2 ] <= 9069.8
quadratic_ranged_552_ub: [ 1 x_65_ ^ 2 - 2 x_97_ * x_65_ + 1 x_97_ ^ 2 + 1 y_65_ ^ 2 - 2 y_97_ * y_65_ + 1 y_97_ ^ 2 ] <= 14948
quadratic_ranged_553_ub: [ 1 x_75_ ^ 2 - 2 x_97_ * x_75_ + 1 x_97_ ^ 2 + 1 y_75_ ^ 2 - 2 y_97_ * y_75_ + 1 y_97_ ^ 2 ] <= 6439.76
quadratic_ranged_554_ub: [ 1 x_96_ ^ 2 - 2 x_97_ * x_96_ + 1 x_97_ ^ 2 + 1 y_96_ ^ 2 - 2 y_97_ * y_96_ + 1 y_97_ ^ 2 ] <= 13123.94
quadratic_ranged_555_ub: [ 1 x_26_ ^ 2 - 2 x_98_ * x_26_ + 1 x_98_ ^ 2 + 1 y_26_ ^ 2 - 2 y_98_ * y_26_ + 1 y_98_ ^ 2 ] <= 228.26
quadratic_ranged_556_ub: [ 1 x_29_ ^ 2 - 2 x_98_ * x_29_ + 1 x_98_ ^ 2 + 1 y_29_ ^ 2 - 2 y_98_ * y_29_ + 1 y_98_ ^ 2 ] <= 5580.25
quadratic_ranged_557_ub: [ 1 x_37_ ^ 2 - 2 x_98_ * x_37_ + 1 x_98_ ^ 2 + 1 y_37_ ^ 2 - 2 y_98_ * y_37_ + 1 y_98_ ^ 2 ] <= 14529.86
quadratic_ranged_558_ub: [ 1 x_39_ ^ 2 - 2 x_98_ * x_39_ + 1 x_98_ ^ 2 + 1 y_39_ ^ 2 - 2 y_98_ * y_39_ + 1 y_98_ ^ 2 ] <= 19651.57
quadratic_ranged_559_ub: [ 1 x_43_ ^ 2 - 2 x_98_ * x_43_ + 1 x_98_ ^ 2 + 1 y_43_ ^ 2 - 2 y_98_ * y_43_ + 1 y_98_ ^ 2 ] <= 1286.74
quadratic_ranged_560_ub: [ 1 x_58_ ^ 2 - 2 x_98_ * x_58_ + 1 x_98_ ^ 2 + 1 y_58_ ^ 2 - 2 y_98_ * y_58_ + 1 y_98_ ^ 2 ] <= 9151.61
quadratic_ranged_561_ub: [ 1 x_75_ ^ 2 - 2 x_98_ * x_75_ + 1 x_98_ ^ 2 + 1 y_75_ ^ 2 - 2 y_98_ * y_75_ + 1 y_98_ ^ 2 ] <= 4307.65
quadratic_ranged_562_ub: [ 1 x_81_ ^ 2 - 2 x_98_ * x_81_ + 1 x_98_ ^ 2 + 1 y_81_ ^ 2 - 2 y_98_ * y_81_ + 1 y_98_ ^ 2 ] <= 9794.98
quadratic_ranged_563_ub: [ 1 x_88_ ^ 2 - 2 x_98_ * x_88_ + 1 x_98_ ^ 2 + 1 y_88_ ^ 2 - 2 y_98_ * y_88_ + 1 y_98_ ^ 2 ] <= 27350.8
quadratic_ranged_564_ub: [ 1 x_97_ ^ 2 - 2 x_98_ * x_97_ + 1 x_98_ ^ 2 + 1 y_97_ ^ 2 - 2 y_98_ * y_97_ + 1 y_98_ ^ 2 ] <= 4925.77
quadratic_ranged_565_ub: [ 1 x_9_ ^ 2 - 2 x_99_ * x_9_ + 1 x_99_ ^ 2 + 1 y_9_ ^ 2 - 2 y_99_ * y_9_ + 1 y_99_ ^ 2 ] <= 3928.9
quadratic_ranged_566_ub: [ 1 x_19_ ^ 2 - 2 x_99_ * x_19_ + 1 x_99_ ^ 2 + 1 y_19_ ^ 2 - 2 y_99_ * y_19_ + 1 y_99_ ^ 2 ] <= 17029.61
quadratic_ranged_567_ub: [ 1 x_45_ ^ 2 - 2 x_99_ * x_45_ + 1 x_99_ ^ 2 + 1 y_45_ ^ 2 - 2 y_99_ * y_45_ + 1 y_99_ ^ 2 ] <= 6881.13
quadratic_ranged_568_ub: [ 1 x_46_ ^ 2 - 2 x_99_ * x_46_ + 1 x_99_ ^ 2 + 1 y_46_ ^ 2 - 2 y_99_ * y_46_ + 1 y_99_ ^ 2 ] <= 20912.05
quadratic_ranged_569_ub: [ 1 x_52_ ^ 2 - 2 x_99_ * x_52_ + 1 x_99_ ^ 2 + 1 y_52_ ^ 2 - 2 y_99_ * y_52_ + 1 y_99_ ^ 2 ] <= 1794.77
quadratic_ranged_570_ub: [ 1 x_86_ ^ 2 - 2 x_99_ * x_86_ + 1 x_99_ ^ 2 + 1 y_86_ ^ 2 - 2 y_99_ * y_86_ + 1 y_99_ ^ 2 ] <= 880.72
quadratic_ranged_571_ub: [ 1 x_93_ ^ 2 - 2 x_99_ * x_93_ + 1 x_99_ ^ 2 + 1 y_93_ ^ 2 - 2 y_99_ * y_93_ + 1 y_99_ ^ 2 ] <= 21674.6
quadratic_ranged_572_ub: [ 1 x_98_ ^ 2 - 2 x_99_ * x_98_ + 1 x_99_ ^ 2 + 1 y_98_ ^ 2 - 2 y_99_ * y_98_ + 1 y_99_ ^ 2 ] <= 15272.210000000001
quadratic_ranged_573_ub: [ 1 x_1_ ^ 2 - 2 x_100_ * x_1_ + 1 x_100_ ^ 2 + 1 y_1_ ^ 2 - 2 y_100_ * y_1_ + 1 y_100_ ^ 2 ] <= 10594.9
quadratic_ranged_574_ub: [ 1 x_3_ ^ 2 - 2 x_100_ * x_3_ + 1 x_100_ ^ 2 + 1 y_3_ ^ 2 - 2 y_100_ * y_3_ + 1 y_100_ ^ 2 ] <= 46702.4
quadratic_ranged_575_ub: [ 1 x_5_ ^ 2 - 2 x_100_ * x_5_ + 1 x_100_ ^ 2 + 1 y_5_ ^ 2 - 2 y_100_ * y_5_ + 1 y_100_ ^ 2 ] <= 4307.65
quadratic_ranged_576_ub: [ 1 x_16_ ^ 2 - 2 x_100_ * x_16_ + 1 x_100_ ^ 2 + 1 y_16_ ^ 2 - 2 y_100_ * y_16_ + 1 y_100_ ^ 2 ] <= 60807.05
quadratic_ranged_577_ub: [ 1 x_17_ ^ 2 - 2 x_100_ * x_17_ + 1 x_100_ ^ 2 + 1 y_17_ ^ 2 - 2 y_100_ * y_17_ + 1 y_100_ ^ 2 ] <= 16654.9
quadratic_ranged_578_ub: [ 1 x_32_ ^ 2 - 2 x_100_ * x_32_ + 1 x_100_ ^ 2 + 1 y_32_ ^ 2 - 2 y_100_ * y_32_ + 1 y_100_ ^ 2 ] <= 32426.05
quadratic_ranged_579_ub: [ 1 x_57_ ^ 2 - 2 x_100_ * x_57_ + 1 x_100_ ^ 2 + 1 y_57_ ^ 2 - 2 y_100_ * y_57_ + 1 y_100_ ^ 2 ] <= 20944.37
quadratic_ranged_580_ub: [ 1 x_70_ ^ 2 - 2 x_100_ * x_70_ + 1 x_100_ ^ 2 + 1 y_70_ ^ 2 - 2 y_100_ * y_70_ + 1 y_100_ ^ 2 ] <= 34667.24
quadratic_ranged_581_ub: [ 1 x_78_ ^ 2 - 2 x_100_ * x_78_ + 1 x_100_ ^ 2 + 1 y_78_ ^ 2 - 2 y_100_ * y_78_ + 1 y_100_ ^ 2 ] <= 23660.26
quadratic_ranged_582_ub: [ 1 x_89_ ^ 2 - 2 x_100_ * x_89_ + 1 x_100_ ^ 2 + 1 y_89_ ^ 2 - 2 y_100_ * y_89_ + 1 y_100_ ^ 2 ] <= 7970.92
quadratic_ranged_583_ub: [ 1 x_94_ ^ 2 - 2 x_100_ * x_94_ + 1 x_100_ ^ 2 + 1 y_94_ ^ 2 - 2 y_100_ * y_94_ + 1 y_100_ ^ 2 ] <= 25780.25
quadratic_ranged_584_ub: [ 1 x_98_ ^ 2 - 2 x_100_ * x_98_ + 1 x_100_ ^ 2 + 1 y_98_ ^ 2 - 2 y_100_ * y_98_ + 1 y_100_ ^ 2 ] <= 36265.06
quadratic_ranged_585_ub: [ 1 x_99_ ^ 2 - 2 x_100_ * x_99_ + 1 x_100_ ^ 2 + 1 y_99_ ^ 2 - 2 y_100_ * y_99_ + 1 y_100_ ^ 2 ] <= 4570.25
c1_2: 1 x_60_ >= 0
c2_2: 1 y_60_ >= 0
quadratic_ranged_1_lb: [ 1 x_1_ ^ 2 - 2 x_2_ * x_1_ + 1 x_2_ ^ 2 + 1 y_1_ ^ 2 - 2 y_2_ * y_1_ + 1 y_2_ ^ 2 ] >= 5006.43
quadratic_ranged_2_lb: [ 1 x_2_ ^ 2 - 2 x_3_ * x_2_ + 1 x_3_ ^ 2 + 1 y_2_ ^ 2 - 2 y_3_ * y_2_ + 1 y_3_ ^ 2 ] >= 5014.35
quadratic_ranged_3_lb: [ 1 x_3_ ^ 2 - 2 x_4_ * x_3_ + 1 x_4_ ^ 2 + 1 y_3_ ^ 2 - 2 y_4_ * y_3_ + 1 y_4_ ^ 2 ] >= 17513.1
quadratic_ranged_4_lb: [ 1 x_4_ ^ 2 - 2 x_5_ * x_4_ + 1 x_5_ ^ 2 + 1 y_4_ ^ 2 - 2 y_5_ * y_4_ + 1 y_5_ ^ 2 ] >= 12661.11
quadratic_ranged_5_lb: [ 1 x_5_ ^ 2 - 2 x_6_ * x_5_ + 1 x_6_ ^ 2 + 1 y_5_ ^ 2 - 2 y_6_ * y_5_ + 1 y_6_ ^ 2 ] >= 3077.91
quadratic_ranged_6_lb: [ 1 x_6_ ^ 2 - 2 x_7_ * x_6_ + 1 x_7_ ^ 2 + 1 y_6_ ^ 2 - 2 y_7_ * y_6_ + 1 y_7_ ^ 2 ] >= 11177.1
quadratic_ranged_7_lb: [ 1 x_7_ ^ 2 - 2 x_8_ * x_7_ + 1 x_8_ ^ 2 + 1 y_7_ ^ 2 - 2 y_8_ * y_7_ + 1 y_8_ ^ 2 ] >= 3434.31
quadratic_ranged_8_lb: [ 1 x_1_ ^ 2 - 2 x_9_ * x_1_ + 1 x_9_ ^ 2 + 1 y_1_ ^ 2 - 2 y_9_ * y_1_ + 1 y_9_ ^ 2 ] >= 183.15
quadratic_ranged_9_lb: [ 1 x_8_ ^ 2 - 2 x_9_ * x_8_ + 1 x_9_ ^ 2 + 1 y_8_ ^ 2 - 2 y_9_ * y_8_ + 1 y_9_ ^ 2 ] >= 572.22
quadratic_ranged_10_lb: [ 1 x_9_ ^ 2 - 2 x_10_ * x_9_ + 1 x_10_ ^ 2 + 1 y_9_ ^ 2 - 2 y_10_ * y_9_ + 1 y_10_ ^ 2 ] >= 4049.1
quadratic_ranged_11_lb: [ 1 x_6_ ^ 2 - 2 x_11_ * x_6_ + 1 x_11_ ^ 2 + 1 y_6_ ^ 2 - 2 y_11_ * y_6_ + 1 y_11_ ^ 2 ] >= 13553.1
quadratic_ranged_12_lb: [ 1 x_10_ ^ 2 - 2 x_11_ * x_10_ + 1 x_11_ ^ 2 + 1 y_10_ ^ 2 - 2 y_11_ * y_10_ + 1 y_11_ ^ 2 ] >= 1881.99
quadratic_ranged_13_lb: [ 1 x_3_ ^ 2 - 2 x_12_ * x_3_ + 1 x_12_ ^ 2 + 1 y_3_ ^ 2 - 2 y_12_ * y_3_ + 1 y_12_ ^ 2 ] >= 30493.98
quadratic_ranged_14_lb: [ 1 x_11_ ^ 2 - 2 x_12_ * x_11_ + 1 x_12_ ^ 2 + 1 y_11_ ^ 2 - 2 y_12_ * y_11_ + 1 y_12_ ^ 2 ] >= 3140.2799999999997
quadratic_ranged_15_lb: [ 1 x_4_ ^ 2 - 2 x_13_ * x_4_ + 1 x_13_ ^ 2 + 1 y_4_ ^ 2 - 2 y_13_ * y_4_ + 1 y_13_ ^ 2 ] >= 811.8
quadratic_ranged_16_lb: [ 1 x_12_ ^ 2 - 2 x_13_ * x_12_ + 1 x_13_ ^ 2 + 1 y_12_ ^ 2 - 2 y_13_ * y_12_ + 1 y_13_ ^ 2 ] >= 8688.24
quadratic_ranged_17_lb: [ 1 x_4_ ^ 2 - 2 x_14_ * x_4_ + 1 x_14_ ^ 2 + 1 y_4_ ^ 2 - 2 y_14_ * y_4_ + 1 y_14_ ^ 2 ] >= 8043.75
quadratic_ranged_18_lb: [ 1 x_13_ ^ 2 - 2 x_14_ * x_13_ + 1 x_14_ ^ 2 + 1 y_13_ ^ 2 - 2 y_14_ * y_13_ + 1 y_14_ ^ 2 ] >= 4499.55
quadratic_ranged_19_lb: [ 1 x_14_ ^ 2 - 2 x_15_ * x_14_ + 1 x_15_ ^ 2 + 1 y_14_ ^ 2 - 2 y_15_ * y_14_ + 1 y_15_ ^ 2 ] >= 10553.4
quadratic_ranged_20_lb: [ 1 x_5_ ^ 2 - 2 x_16_ * x_5_ + 1 x_16_ ^ 2 + 1 y_5_ ^ 2 - 2 y_16_ * y_5_ + 1 y_16_ ^ 2 ] >= 33907.5
quadratic_ranged_21_lb: [ 1 x_15_ ^ 2 - 2 x_16_ * x_15_ + 1 x_16_ ^ 2 + 1 y_15_ ^ 2 - 2 y_16_ * y_15_ + 1 y_16_ ^ 2 ] >= 27514.079999999998
quadratic_ranged_22_lb: [ 1 x_6_ ^ 2 - 2 x_17_ * x_6_ + 1 x_17_ ^ 2 + 1 y_6_ ^ 2 - 2 y_17_ * y_6_ + 1 y_17_ ^ 2 ] >= 5276.7
quadratic_ranged_23_lb: [ 1 x_13_ ^ 2 - 2 x_17_ * x_13_ + 1 x_17_ ^ 2 + 1 y_13_ ^ 2 - 2 y_17_ * y_13_ + 1 y_17_ ^ 2 ] >= 6910.2
quadratic_ranged_24_lb: [ 1 x_16_ ^ 2 - 2 x_17_ * x_16_ + 1 x_17_ ^ 2 + 1 y_16_ ^ 2 - 2 y_17_ * y_16_ + 1 y_17_ ^ 2 ] >= 14744.07
quadratic_ranged_25_lb: [ 1 x_2_ ^ 2 - 2 x_18_ * x_2_ + 1 x_18_ ^ 2 + 1 y_2_ ^ 2 - 2 y_18_ * y_2_ + 1 y_18_ ^ 2 ] >= 5520.24
quadratic_ranged_26_lb: [ 1 x_3_ ^ 2 - 2 x_18_ * x_3_ + 1 x_18_ ^ 2 + 1 y_3_ ^ 2 - 2 y_18_ * y_3_ + 1 y_18_ ^ 2 ] >= 1192.95
quadratic_ranged_27_lb: [ 1 x_17_ ^ 2 - 2 x_18_ * x_17_ + 1 x_18_ ^ 2 + 1 y_17_ ^ 2 - 2 y_18_ * y_17_ + 1 y_18_ ^ 2 ] >= 4855.95
quadratic_ranged_28_lb: [ 1 x_16_ ^ 2 - 2 x_19_ * x_16_ + 1 x_19_ ^ 2 + 1 y_16_ ^ 2 - 2 y_19_ * y_16_ + 1 y_19_ ^ 2 ] >= 2804.67
quadratic_ranged_29_lb: [ 1 x_17_ ^ 2 - 2 x_19_ * x_17_ + 1 x_19_ ^ 2 + 1 y_17_ ^ 2 - 2 y_19_ * y_17_ + 1 y_19_ ^ 2 ] >= 4803.48
quadratic_ranged_30_lb: [ 1 x_18_ ^ 2 - 2 x_19_ * x_18_ + 1 x_19_ ^ 2 + 1 y_18_ ^ 2 - 2 y_19_ * y_18_ + 1 y_19_ ^ 2 ] >= 24.75
quadratic_ranged_31_lb: [ 1 x_12_ ^ 2 - 2 x_20_ * x_12_ + 1 x_20_ ^ 2 + 1 y_12_ ^ 2 - 2 y_20_ * y_12_ + 1 y_20_ ^ 2 ] >= 16830
quadratic_ranged_32_lb: [ 1 x_19_ ^ 2 - 2 x_20_ * x_19_ + 1 x_20_ ^ 2 + 1 y_19_ ^ 2 - 2 y_20_ * y_19_ + 1 y_20_ ^ 2 ] >= 8466.48
quadratic_ranged_33_lb: [ 1 x_1_ ^ 2 - 2 x_21_ * x_1_ + 1 x_21_ ^ 2 + 1 y_1_ ^ 2 - 2 y_21_ * y_1_ + 1 y_21_ ^ 2 ] >= 12491.82
quadratic_ranged_34_lb: [ 1 x_8_ ^ 2 - 2 x_21_ * x_8_ + 1 x_21_ ^ 2 + 1 y_8_ ^ 2 - 2 y_21_ * y_8_ + 1 y_21_ ^ 2 ] >= 20787.03
quadratic_ranged_35_lb: [ 1 x_14_ ^ 2 - 2 x_21_ * x_14_ + 1 x_21_ ^ 2 + 1 y_14_ ^ 2 - 2 y_21_ * y_14_ + 1 y_21_ ^ 2 ] >= 15532.11
quadratic_ranged_36_lb: [ 1 x_16_ ^ 2 - 2 x_21_ * x_16_ + 1 x_21_ ^ 2 + 1 y_16_ ^ 2 - 2 y_21_ * y_16_ + 1 y_21_ ^ 2 ] >= 22097.79
quadratic_ranged_37_lb: [ 1 x_20_ ^ 2 - 2 x_21_ * x_20_ + 1 x_21_ ^ 2 + 1 y_20_ ^ 2 - 2 y_21_ * y_20_ + 1 y_21_ ^ 2 ] >= 16499.34
quadratic_ranged_38_lb: [ 1 x_8_ ^ 2 - 2 x_22_ * x_8_ + 1 x_22_ ^ 2 + 1 y_8_ ^ 2 - 2 y_22_ * y_8_ + 1 y_22_ ^ 2 ] >= 9204.03
quadratic_ranged_39_lb: [ 1 x_12_ ^ 2 - 2 x_22_ * x_12_ + 1 x_22_ ^ 2 + 1 y_12_ ^ 2 - 2 y_22_ * y_12_ + 1 y_22_ ^ 2 ] >= 6660.72
quadratic_ranged_40_lb: [ 1 x_21_ ^ 2 - 2 x_22_ * x_21_ + 1 x_22_ ^ 2 + 1 y_21_ ^ 2 - 2 y_22_ * y_21_ + 1 y_22_ ^ 2 ] >= 4294.62
quadratic_ranged_41_lb: [ 1 x_5_ ^ 2 - 2 x_23_ * x_5_ + 1 x_23_ ^ 2 + 1 y_5_ ^ 2 - 2 y_23_ * y_5_ + 1 y_23_ ^ 2 ] >= 2348.28
quadratic_ranged_42_lb: [ 1 x_22_ ^ 2 - 2 x_23_ * x_22_ + 1 x_23_ ^ 2 + 1 y_22_ ^ 2 - 2 y_23_ * y_22_ + 1 y_23_ ^ 2 ] >= 12645.27
quadratic_ranged_43_lb: [ 1 x_2_ ^ 2 - 2 x_24_ * x_2_ + 1 x_24_ ^ 2 + 1 y_2_ ^ 2 - 2 y_24_ * y_2_ + 1 y_24_ ^ 2 ] >= 18003.15
quadratic_ranged_44_lb: [ 1 x_10_ ^ 2 - 2 x_24_ * x_10_ + 1 x_24_ ^ 2 + 1 y_10_ ^ 2 - 2 y_24_ * y_10_ + 1 y_24_ ^ 2 ] >= 15611.31
quadratic_ranged_45_lb: [ 1 x_14_ ^ 2 - 2 x_24_ * x_14_ + 1 x_24_ ^ 2 + 1 y_14_ ^ 2 - 2 y_24_ * y_14_ + 1 y_24_ ^ 2 ] >= 28762.47
quadratic_ranged_46_lb: [ 1 x_23_ ^ 2 - 2 x_24_ * x_23_ + 1 x_24_ ^ 2 + 1 y_23_ ^ 2 - 2 y_24_ * y_23_ + 1 y_24_ ^ 2 ] >= 1026.6299999999999
quadratic_ranged_47_lb: [ 1 x_3_ ^ 2 - 2 x_25_ * x_3_ + 1 x_25_ ^ 2 + 1 y_3_ ^ 2 - 2 y_25_ * y_3_ + 1 y_25_ ^ 2 ] >= 30036.6
quadratic_ranged_48_lb: [ 1 x_8_ ^ 2 - 2 x_25_ * x_8_ + 1 x_25_ ^ 2 + 1 y_8_ ^ 2 - 2 y_25_ * y_8_ + 1 y_25_ ^ 2 ] >= 22481.91
quadratic_ranged_49_lb: [ 1 x_16_ ^ 2 - 2 x_25_ * x_16_ + 1 x_25_ ^ 2 + 1 y_16_ ^ 2 - 2 y_25_ * y_16_ + 1 y_25_ ^ 2 ] >= 39739.59
quadratic_ranged_50_lb: [ 1 x_24_ ^ 2 - 2 x_25_ * x_24_ + 1 x_25_ ^ 2 + 1 y_24_ ^ 2 - 2 y_25_ * y_24_ + 1 y_25_ ^ 2 ] >= 1261.26
quadratic_ranged_51_lb: [ 1 x_2_ ^ 2 - 2 x_26_ * x_2_ + 1 x_26_ ^ 2 + 1 y_2_ ^ 2 - 2 y_26_ * y_2_ + 1 y_26_ ^ 2 ] >= 2400.75
quadratic_ranged_52_lb: [ 1 x_11_ ^ 2 - 2 x_26_ * x_11_ + 1 x_26_ ^ 2 + 1 y_11_ ^ 2 - 2 y_26_ * y_11_ + 1 y_26_ ^ 2 ] >= 12024.539999999999
quadratic_ranged_53_lb: [ 1 x_18_ ^ 2 - 2 x_26_ * x_18_ + 1 x_26_ ^ 2 + 1 y_18_ ^ 2 - 2 y_26_ * y_18_ + 1 y_26_ ^ 2 ] >= 2095.83
quadratic_ranged_54_lb: [ 1 x_25_ ^ 2 - 2 x_26_ * x_25_ + 1 x_26_ ^ 2 + 1 y_25_ ^ 2 - 2 y_26_ * y_25_ + 1 y_26_ ^ 2 ] >= 27565.56
quadratic_ranged_55_lb: [ 1 x_10_ ^ 2 - 2 x_27_ * x_10_ + 1 x_27_ ^ 2 + 1 y_10_ ^ 2 - 2 y_27_ * y_10_ + 1 y_27_ ^ 2 ] >= 16074.63
quadratic_ranged_56_lb: [ 1 x_11_ ^ 2 - 2 x_27_ * x_11_ + 1 x_27_ ^ 2 + 1 y_11_ ^ 2 - 2 y_27_ * y_11_ + 1 y_27_ ^ 2 ] >= 18994.14
quadratic_ranged_57_lb: [ 1 x_12_ ^ 2 - 2 x_27_ * x_12_ + 1 x_27_ ^ 2 + 1 y_12_ ^ 2 - 2 y_27_ * y_12_ + 1 y_27_ ^ 2 ] >= 23096.7
quadratic_ranged_58_lb: [ 1 x_26_ ^ 2 - 2 x_27_ * x_26_ + 1 x_27_ ^ 2 + 1 y_26_ ^ 2 - 2 y_27_ * y_26_ + 1 y_27_ ^ 2 ] >= 11218.68
quadratic_ranged_59_lb: [ 1 x_6_ ^ 2 - 2 x_28_ * x_6_ + 1 x_28_ ^ 2 + 1 y_6_ ^ 2 - 2 y_28_ * y_6_ + 1 y_28_ ^ 2 ] >= 31914.63
quadratic_ranged_60_lb: [ 1 x_12_ ^ 2 - 2 x_28_ * x_12_ + 1 x_28_ ^ 2 + 1 y_12_ ^ 2 - 2 y_28_ * y_12_ + 1 y_28_ ^ 2 ] >= 29502.989999999998
quadratic_ranged_61_lb: [ 1 x_18_ ^ 2 - 2 x_28_ * x_18_ + 1 x_28_ ^ 2 + 1 y_18_ ^ 2 - 2 y_28_ * y_18_ + 1 y_28_ ^ 2 ] >= 4207.5
quadratic_ranged_62_lb: [ 1 x_26_ ^ 2 - 2 x_28_ * x_26_ + 1 x_28_ ^ 2 + 1 y_26_ ^ 2 - 2 y_28_ * y_26_ + 1 y_28_ ^ 2 ] >= 452.43
quadratic_ranged_63_lb: [ 1 x_27_ ^ 2 - 2 x_28_ * x_27_ + 1 x_28_ ^ 2 + 1 y_27_ ^ 2 - 2 y_28_ * y_27_ + 1 y_28_ ^ 2 ] >= 16027.11
quadratic_ranged_64_lb: [ 1 x_20_ ^ 2 - 2 x_29_ * x_20_ + 1 x_29_ ^ 2 + 1 y_20_ ^ 2 - 2 y_29_ * y_20_ + 1 y_29_ ^ 2 ] >= 899.91
quadratic_ranged_65_lb: [ 1 x_24_ ^ 2 - 2 x_29_ * x_24_ + 1 x_29_ ^ 2 + 1 y_24_ ^ 2 - 2 y_29_ * y_24_ + 1 y_29_ ^ 2 ] >= 25855.829999999998
quadratic_ranged_66_lb: [ 1 x_28_ ^ 2 - 2 x_29_ * x_28_ + 1 x_29_ ^ 2 + 1 y_28_ ^ 2 - 2 y_29_ * y_28_ + 1 y_29_ ^ 2 ] >= 7375.5
quadratic_ranged_67_lb: [ 1 x_1_ ^ 2 - 2 x_30_ * x_1_ + 1 x_30_ ^ 2 + 1 y_1_ ^ 2 - 2 y_30_ * y_1_ + 1 y_30_ ^ 2 ] >= 17687.34
quadratic_ranged_68_lb: [ 1 x_29_ ^ 2 - 2 x_30_ * x_29_ + 1 x_30_ ^ 2 + 1 y_29_ ^ 2 - 2 y_30_ * y_29_ + 1 y_30_ ^ 2 ] >= 12867.03
quadratic_ranged_69_lb: [ 1 x_4_ ^ 2 - 2 x_31_ * x_4_ + 1 x_31_ ^ 2 + 1 y_4_ ^ 2 - 2 y_31_ * y_4_ + 1 y_31_ ^ 2 ] >= 20839.5
quadratic_ranged_70_lb: [ 1 x_9_ ^ 2 - 2 x_31_ * x_9_ + 1 x_31_ ^ 2 + 1 y_9_ ^ 2 - 2 y_31_ * y_9_ + 1 y_31_ ^ 2 ] >= 25665.75
quadratic_ranged_71_lb: [ 1 x_14_ ^ 2 - 2 x_31_ * x_14_ + 1 x_31_ ^ 2 + 1 y_14_ ^ 2 - 2 y_31_ * y_14_ + 1 y_31_ ^ 2 ] >= 4776.75
quadratic_ranged_72_lb: [ 1 x_30_ ^ 2 - 2 x_31_ * x_30_ + 1 x_31_ ^ 2 + 1 y_30_ ^ 2 - 2 y_31_ * y_30_ + 1 y_31_ ^ 2 ] >= 316.8
quadratic_ranged_73_lb: [ 1 x_1_ ^ 2 - 2 x_32_ * x_1_ + 1 x_32_ ^ 2 + 1 y_1_ ^ 2 - 2 y_32_ * y_1_ + 1 y_32_ ^ 2 ] >= 37743.75
quadratic_ranged_74_lb: [ 1 x_4_ ^ 2 - 2 x_32_ * x_4_ + 1 x_32_ ^ 2 + 1 y_4_ ^ 2 - 2 y_32_ * y_4_ + 1 y_32_ ^ 2 ] >= 45663.75
quadratic_ranged_75_lb: [ 1 x_31_ ^ 2 - 2 x_32_ * x_31_ + 1 x_32_ ^ 2 + 1 y_31_ ^ 2 - 2 y_32_ * y_31_ + 1 y_32_ ^ 2 ] >= 18597.15
quadratic_ranged_76_lb: [ 1 x_14_ ^ 2 - 2 x_33_ * x_14_ + 1 x_33_ ^ 2 + 1 y_14_ ^ 2 - 2 y_33_ * y_14_ + 1 y_33_ ^ 2 ] >= 10695.96
quadratic_ranged_77_lb: [ 1 x_32_ ^ 2 - 2 x_33_ * x_32_ + 1 x_33_ ^ 2 + 1 y_32_ ^ 2 - 2 y_33_ * y_32_ + 1 y_33_ ^ 2 ] >= 7929.9
quadratic_ranged_78_lb: [ 1 x_2_ ^ 2 - 2 x_34_ * x_2_ + 1 x_34_ ^ 2 + 1 y_2_ ^ 2 - 2 y_34_ * y_2_ + 1 y_34_ ^ 2 ] >= 12855.15
quadratic_ranged_79_lb: [ 1 x_4_ ^ 2 - 2 x_34_ * x_4_ + 1 x_34_ ^ 2 + 1 y_4_ ^ 2 - 2 y_34_ * y_4_ + 1 y_34_ ^ 2 ] >= 6419.16
quadratic_ranged_80_lb: [ 1 x_5_ ^ 2 - 2 x_34_ * x_5_ + 1 x_34_ ^ 2 + 1 y_5_ ^ 2 - 2 y_34_ * y_5_ + 1 y_34_ ^ 2 ] >= 4527.2699999999995
quadratic_ranged_81_lb: [ 1 x_6_ ^ 2 - 2 x_34_ * x_6_ + 1 x_34_ ^ 2 + 1 y_6_ ^ 2 - 2 y_34_ * y_6_ + 1 y_34_ ^ 2 ] >= 14978.7
quadratic_ranged_82_lb: [ 1 x_15_ ^ 2 - 2 x_34_ * x_15_ + 1 x_34_ ^ 2 + 1 y_15_ ^ 2 - 2 y_34_ * y_15_ + 1 y_34_ ^ 2 ] >= 2222.55
quadratic_ranged_83_lb: [ 1 x_27_ ^ 2 - 2 x_34_ * x_27_ + 1 x_34_ ^ 2 + 1 y_27_ ^ 2 - 2 y_34_ * y_27_ + 1 y_34_ ^ 2 ] >= 29654.46
quadratic_ranged_84_lb: [ 1 x_29_ ^ 2 - 2 x_34_ * x_29_ + 1 x_34_ ^ 2 + 1 y_29_ ^ 2 - 2 y_34_ * y_29_ + 1 y_34_ ^ 2 ] >= 12764.07
quadratic_ranged_85_lb: [ 1 x_33_ ^ 2 - 2 x_34_ * x_33_ + 1 x_34_ ^ 2 + 1 y_33_ ^ 2 - 2 y_34_ * y_33_ + 1 y_34_ ^ 2 ] >= 15504.39
quadratic_ranged_86_lb: [ 1 x_13_ ^ 2 - 2 x_35_ * x_13_ + 1 x_35_ ^ 2 + 1 y_13_ ^ 2 - 2 y_35_ * y_13_ + 1 y_35_ ^ 2 ] >= 5894.46
quadratic_ranged_87_lb: [ 1 x_34_ ^ 2 - 2 x_35_ * x_34_ + 1 x_35_ ^ 2 + 1 y_34_ ^ 2 - 2 y_35_ * y_34_ + 1 y_35_ ^ 2 ] >= 1855.26
quadratic_ranged_88_lb: [ 1 x_1_ ^ 2 - 2 x_36_ * x_1_ + 1 x_36_ ^ 2 + 1 y_1_ ^ 2 - 2 y_36_ * y_1_ + 1 y_36_ ^ 2 ] >= 10479.15
quadratic_ranged_89_lb: [ 1 x_29_ ^ 2 - 2 x_36_ * x_29_ + 1 x_36_ ^ 2 + 1 y_29_ ^ 2 - 2 y_36_ * y_29_ + 1 y_36_ ^ 2 ] >= 5443.0199999999995
quadratic_ranged_90_lb: [ 1 x_31_ ^ 2 - 2 x_36_ * x_31_ + 1 x_36_ ^ 2 + 1 y_31_ ^ 2 - 2 y_36_ * y_31_ + 1 y_36_ ^ 2 ] >= 3323.43
quadratic_ranged_91_lb: [ 1 x_35_ ^ 2 - 2 x_36_ * x_35_ + 1 x_36_ ^ 2 + 1 y_35_ ^ 2 - 2 y_36_ * y_35_ + 1 y_36_ ^ 2 ] >= 14280.75
quadratic_ranged_92_lb: [ 1 x_10_ ^ 2 - 2 x_37_ * x_10_ + 1 x_37_ ^ 2 + 1 y_10_ ^ 2 - 2 y_37_ * y_10_ + 1 y_37_ ^ 2 ] >= 11948.31
quadratic_ranged_93_lb: [ 1 x_30_ ^ 2 - 2 x_37_ * x_30_ + 1 x_37_ ^ 2 + 1 y_30_ ^ 2 - 2 y_37_ * y_30_ + 1 y_37_ ^ 2 ] >= 10379.16
quadratic_ranged_94_lb: [ 1 x_36_ ^ 2 - 2 x_37_ * x_36_ + 1 x_37_ ^ 2 + 1 y_36_ ^ 2 - 2 y_37_ * y_36_ + 1 y_37_ ^ 2 ] >= 12894.75
quadratic_ranged_95_lb: [ 1 x_2_ ^ 2 - 2 x_38_ * x_2_ + 1 x_38_ ^ 2 + 1 y_2_ ^ 2 - 2 y_38_ * y_2_ + 1 y_38_ ^ 2 ] >= 2222.55
quadratic_ranged_96_lb: [ 1 x_4_ ^ 2 - 2 x_38_ * x_4_ + 1 x_38_ ^ 2 + 1 y_4_ ^ 2 - 2 y_38_ * y_4_ + 1 y_38_ ^ 2 ] >= 10393.02
quadratic_ranged_97_lb: [ 1 x_13_ ^ 2 - 2 x_38_ * x_13_ + 1 x_38_ ^ 2 + 1 y_13_ ^ 2 - 2 y_38_ * y_13_ + 1 y_38_ ^ 2 ] >= 6219.18
quadratic_ranged_98_lb: [ 1 x_17_ ^ 2 - 2 x_38_ * x_17_ + 1 x_38_ ^ 2 + 1 y_17_ ^ 2 - 2 y_38_ * y_17_ + 1 y_38_ ^ 2 ] >= 8983.26
quadratic_ranged_99_lb: [ 1 x_29_ ^ 2 - 2 x_38_ * x_29_ + 1 x_38_ ^ 2 + 1 y_29_ ^ 2 - 2 y_38_ * y_29_ + 1 y_38_ ^ 2 ] >= 6194.43
quadratic_ranged_100_lb: [ 1 x_30_ ^ 2 - 2 x_38_ * x_30_ + 1 x_38_ ^ 2 + 1 y_30_ ^ 2 - 2 y_38_ * y_30_ + 1 y_38_ ^ 2 ] >= 1904.76
quadratic_ranged_101_lb: [ 1 x_35_ ^ 2 - 2 x_38_ * x_35_ + 1 x_38_ ^ 2 + 1 y_35_ ^ 2 - 2 y_38_ * y_35_ + 1 y_38_ ^ 2 ] >= 18742.68
quadratic_ranged_102_lb: [ 1 x_37_ ^ 2 - 2 x_38_ * x_37_ + 1 x_38_ ^ 2 + 1 y_37_ ^ 2 - 2 y_38_ * y_37_ + 1 y_38_ ^ 2 ] >= 16830
quadratic_ranged_103_lb: [ 1 x_7_ ^ 2 - 2 x_39_ * x_7_ + 1 x_39_ ^ 2 + 1 y_7_ ^ 2 - 2 y_39_ * y_7_ + 1 y_39_ ^ 2 ] >= 5030.19
quadratic_ranged_104_lb: [ 1 x_25_ ^ 2 - 2 x_39_ * x_25_ + 1 x_39_ ^ 2 + 1 y_25_ ^ 2 - 2 y_39_ * y_25_ + 1 y_39_ ^ 2 ] >= 654.39
quadratic_ranged_105_lb: [ 1 x_32_ ^ 2 - 2 x_39_ * x_32_ + 1 x_39_ ^ 2 + 1 y_32_ ^ 2 - 2 y_39_ * y_32_ + 1 y_39_ ^ 2 ] >= 10820.7
quadratic_ranged_106_lb: [ 1 x_38_ ^ 2 - 2 x_39_ * x_38_ + 1 x_39_ ^ 2 + 1 y_38_ ^ 2 - 2 y_39_ * y_38_ + 1 y_39_ ^ 2 ] >= 22675.95
quadratic_ranged_107_lb: [ 1 x_9_ ^ 2 - 2 x_40_ * x_9_ + 1 x_40_ ^ 2 + 1 y_9_ ^ 2 - 2 y_40_ * y_9_ + 1 y_40_ ^ 2 ] >= 20156.4
quadratic_ranged_108_lb: [ 1 x_30_ ^ 2 - 2 x_40_ * x_30_ + 1 x_40_ ^ 2 + 1 y_30_ ^ 2 - 2 y_40_ * y_30_ + 1 y_40_ ^ 2 ] >= 13037.31
quadratic_ranged_109_lb: [ 1 x_39_ ^ 2 - 2 x_40_ * x_39_ + 1 x_40_ ^ 2 + 1 y_39_ ^ 2 - 2 y_40_ * y_39_ + 1 y_40_ ^ 2 ] >= 2296.8
quadratic_ranged_110_lb: [ 1 x_4_ ^ 2 - 2 x_41_ * x_4_ + 1 x_41_ ^ 2 + 1 y_4_ ^ 2 - 2 y_41_ * y_4_ + 1 y_41_ ^ 2 ] >= 7892.28
quadratic_ranged_111_lb: [ 1 x_20_ ^ 2 - 2 x_41_ * x_20_ + 1 x_41_ ^ 2 + 1 y_20_ ^ 2 - 2 y_41_ * y_20_ + 1 y_41_ ^ 2 ] >= 3904.56
quadratic_ranged_112_lb: [ 1 x_40_ ^ 2 - 2 x_41_ * x_40_ + 1 x_41_ ^ 2 + 1 y_40_ ^ 2 - 2 y_41_ * y_40_ + 1 y_41_ ^ 2 ] >= 7845.75
quadratic_ranged_113_lb: [ 1 x_13_ ^ 2 - 2 x_42_ * x_13_ + 1 x_42_ ^ 2 + 1 y_13_ ^ 2 - 2 y_42_ * y_13_ + 1 y_42_ ^ 2 ] >= 1917.6299999999999
quadratic_ranged_114_lb: [ 1 x_21_ ^ 2 - 2 x_42_ * x_21_ + 1 x_42_ ^ 2 + 1 y_21_ ^ 2 - 2 y_42_ * y_21_ + 1 y_42_ ^ 2 ] >= 8776.35
quadratic_ranged_115_lb: [ 1 x_32_ ^ 2 - 2 x_42_ * x_32_ + 1 x_42_ ^ 2 + 1 y_32_ ^ 2 - 2 y_42_ * y_32_ + 1 y_42_ ^ 2 ] >= 31022.64
quadratic_ranged_116_lb: [ 1 x_38_ ^ 2 - 2 x_42_ * x_38_ + 1 x_42_ ^ 2 + 1 y_38_ ^ 2 - 2 y_42_ * y_38_ + 1 y_42_ ^ 2 ] >= 13488.75
quadratic_ranged_117_lb: [ 1 x_41_ ^ 2 - 2 x_42_ * x_41_ + 1 x_42_ ^ 2 + 1 y_41_ ^ 2 - 2 y_42_ * y_41_ + 1 y_42_ ^ 2 ] >= 5944.95
quadratic_ranged_118_lb: [ 1 x_15_ ^ 2 - 2 x_43_ * x_15_ + 1 x_43_ ^ 2 + 1 y_15_ ^ 2 - 2 y_43_ * y_15_ + 1 y_43_ ^ 2 ] >= 16312.23
quadratic_ranged_119_lb: [ 1 x_24_ ^ 2 - 2 x_43_ * x_24_ + 1 x_43_ ^ 2 + 1 y_24_ ^ 2 - 2 y_43_ * y_24_ + 1 y_43_ ^ 2 ] >= 30327.66
quadratic_ranged_120_lb: [ 1 x_35_ ^ 2 - 2 x_43_ * x_35_ + 1 x_43_ ^ 2 + 1 y_35_ ^ 2 - 2 y_43_ * y_35_ + 1 y_43_ ^ 2 ] >= 20215.8
quadratic_ranged_121_lb: [ 1 x_42_ ^ 2 - 2 x_43_ * x_42_ + 1 x_43_ ^ 2 + 1 y_42_ ^ 2 - 2 y_43_ * y_42_ + 1 y_43_ ^ 2 ] >= 16898.31
quadratic_ranged_122_lb: [ 1 x_7_ ^ 2 - 2 x_44_ * x_7_ + 1 x_44_ ^ 2 + 1 y_7_ ^ 2 - 2 y_44_ * y_7_ + 1 y_44_ ^ 2 ] >= 6631.0199999999995
quadratic_ranged_123_lb: [ 1 x_10_ ^ 2 - 2 x_44_ * x_10_ + 1 x_44_ ^ 2 + 1 y_10_ ^ 2 - 2 y_44_ * y_10_ + 1 y_44_ ^ 2 ] >= 1014.75
quadratic_ranged_124_lb: [ 1 x_26_ ^ 2 - 2 x_44_ * x_26_ + 1 x_44_ ^ 2 + 1 y_26_ ^ 2 - 2 y_44_ * y_26_ + 1 y_44_ ^ 2 ] >= 3904.56
quadratic_ranged_125_lb: [ 1 x_31_ ^ 2 - 2 x_44_ * x_31_ + 1 x_44_ ^ 2 + 1 y_31_ ^ 2 - 2 y_44_ * y_31_ + 1 y_44_ ^ 2 ] >= 6197.4
quadratic_ranged_126_lb: [ 1 x_33_ ^ 2 - 2 x_44_ * x_33_ + 1 x_44_ ^ 2 + 1 y_33_ ^ 2 - 2 y_44_ * y_33_ + 1 y_44_ ^ 2 ] >= 3287.79
quadratic_ranged_127_lb: [ 1 x_36_ ^ 2 - 2 x_44_ * x_36_ + 1 x_44_ ^ 2 + 1 y_36_ ^ 2 - 2 y_44_ * y_36_ + 1 y_44_ ^ 2 ] >= 2309.67
quadratic_ranged_128_lb: [ 1 x_43_ ^ 2 - 2 x_44_ * x_43_ + 1 x_44_ ^ 2 + 1 y_43_ ^ 2 - 2 y_44_ * y_43_ + 1 y_44_ ^ 2 ] >= 5076.72
quadratic_ranged_129_lb: [ 1 x_20_ ^ 2 - 2 x_45_ * x_20_ + 1 x_45_ ^ 2 + 1 y_20_ ^ 2 - 2 y_45_ * y_20_ + 1 y_45_ ^ 2 ] >= 21641.4
quadratic_ranged_130_lb: [ 1 x_24_ ^ 2 - 2 x_45_ * x_24_ + 1 x_45_ ^ 2 + 1 y_24_ ^ 2 - 2 y_45_ * y_24_ + 1 y_45_ ^ 2 ] >= 5900.4
quadratic_ranged_131_lb: [ 1 x_44_ ^ 2 - 2 x_45_ * x_44_ + 1 x_45_ ^ 2 + 1 y_44_ ^ 2 - 2 y_45_ * y_44_ + 1 y_45_ ^ 2 ] >= 8175.42
quadratic_ranged_132_lb: [ 1 x_21_ ^ 2 - 2 x_46_ * x_21_ + 1 x_46_ ^ 2 + 1 y_21_ ^ 2 - 2 y_46_ * y_21_ + 1 y_46_ ^ 2 ] >= 10598.94
quadratic_ranged_133_lb: [ 1 x_23_ ^ 2 - 2 x_46_ * x_23_ + 1 x_46_ ^ 2 + 1 y_23_ ^ 2 - 2 y_46_ * y_23_ + 1 y_46_ ^ 2 ] >= 28429.829999999998
quadratic_ranged_134_lb: [ 1 x_24_ ^ 2 - 2 x_46_ * x_24_ + 1 x_46_ ^ 2 + 1 y_24_ ^ 2 - 2 y_46_ * y_24_ + 1 y_46_ ^ 2 ] >= 28991.16
quadratic_ranged_135_lb: [ 1 x_28_ ^ 2 - 2 x_46_ * x_28_ + 1 x_46_ ^ 2 + 1 y_28_ ^ 2 - 2 y_46_ * y_28_ + 1 y_46_ ^ 2 ] >= 5263.83
quadratic_ranged_136_lb: [ 1 x_29_ ^ 2 - 2 x_46_ * x_29_ + 1 x_46_ ^ 2 + 1 y_29_ ^ 2 - 2 y_46_ * y_29_ + 1 y_46_ ^ 2 ] >= 19282.23
quadratic_ranged_137_lb: [ 1 x_45_ ^ 2 - 2 x_46_ * x_45_ + 1 x_46_ ^ 2 + 1 y_45_ ^ 2 - 2 y_46_ * y_45_ + 1 y_46_ ^ 2 ] >= 11994.84
quadratic_ranged_138_lb: [ 1 x_5_ ^ 2 - 2 x_47_ * x_5_ + 1 x_47_ ^ 2 + 1 y_5_ ^ 2 - 2 y_47_ * y_5_ + 1 y_47_ ^ 2 ] >= 4016.43
quadratic_ranged_139_lb: [ 1 x_7_ ^ 2 - 2 x_47_ * x_7_ + 1 x_47_ ^ 2 + 1 y_7_ ^ 2 - 2 y_47_ * y_7_ + 1 y_47_ ^ 2 ] >= 4831.2
quadratic_ranged_140_lb: [ 1 x_8_ ^ 2 - 2 x_47_ * x_8_ + 1 x_47_ ^ 2 + 1 y_8_ ^ 2 - 2 y_47_ * y_8_ + 1 y_47_ ^ 2 ] >= 10586.07
quadratic_ranged_141_lb: [ 1 x_21_ ^ 2 - 2 x_47_ * x_21_ + 1 x_47_ ^ 2 + 1 y_21_ ^ 2 - 2 y_47_ * y_21_ + 1 y_47_ ^ 2 ] >= 3098.7
quadratic_ranged_142_lb: [ 1 x_44_ ^ 2 - 2 x_47_ * x_44_ + 1 x_47_ ^ 2 + 1 y_44_ ^ 2 - 2 y_47_ * y_44_ + 1 y_47_ ^ 2 ] >= 366.3
quadratic_ranged_143_lb: [ 1 x_46_ ^ 2 - 2 x_47_ * x_46_ + 1 x_47_ ^ 2 + 1 y_46_ ^ 2 - 2 y_47_ * y_46_ + 1 y_47_ ^ 2 ] >= 8605.08
quadratic_ranged_144_lb: [ 1 x_12_ ^ 2 - 2 x_48_ * x_12_ + 1 x_48_ ^ 2 + 1 y_12_ ^ 2 - 2 y_48_ * y_12_ + 1 y_48_ ^ 2 ] >= 12657.15
quadratic_ranged_145_lb: [ 1 x_13_ ^ 2 - 2 x_48_ * x_13_ + 1 x_48_ ^ 2 + 1 y_13_ ^ 2 - 2 y_48_ * y_13_ + 1 y_48_ ^ 2 ] >= 1002.87
quadratic_ranged_146_lb: [ 1 x_15_ ^ 2 - 2 x_48_ * x_15_ + 1 x_48_ ^ 2 + 1 y_15_ ^ 2 - 2 y_48_ * y_15_ + 1 y_48_ ^ 2 ] >= 3732.3
quadratic_ranged_147_lb: [ 1 x_23_ ^ 2 - 2 x_48_ * x_23_ + 1 x_48_ ^ 2 + 1 y_23_ ^ 2 - 2 y_48_ * y_23_ + 1 y_48_ ^ 2 ] >= 30618.72
quadratic_ranged_148_lb: [ 1 x_34_ ^ 2 - 2 x_48_ * x_34_ + 1 x_48_ ^ 2 + 1 y_34_ ^ 2 - 2 y_48_ * y_34_ + 1 y_48_ ^ 2 ] >= 9603.99
quadratic_ranged_149_lb: [ 1 x_42_ ^ 2 - 2 x_48_ * x_42_ + 1 x_48_ ^ 2 + 1 y_42_ ^ 2 - 2 y_48_ * y_42_ + 1 y_48_ ^ 2 ] >= 4090.68
quadratic_ranged_150_lb: [ 1 x_46_ ^ 2 - 2 x_48_ * x_46_ + 1 x_48_ ^ 2 + 1 y_46_ ^ 2 - 2 y_48_ * y_46_ + 1 y_48_ ^ 2 ] >= 21824.55
quadratic_ranged_151_lb: [ 1 x_47_ ^ 2 - 2 x_48_ * x_47_ + 1 x_48_ ^ 2 + 1 y_47_ ^ 2 - 2 y_48_ * y_47_ + 1 y_48_ ^ 2 ] >= 7493.3099999999995
quadratic_ranged_152_lb: [ 1 x_6_ ^ 2 - 2 x_49_ * x_6_ + 1 x_49_ ^ 2 + 1 y_6_ ^ 2 - 2 y_49_ * y_6_ + 1 y_49_ ^ 2 ] >= 15469.74
quadratic_ranged_153_lb: [ 1 x_15_ ^ 2 - 2 x_49_ * x_15_ + 1 x_49_ ^ 2 + 1 y_15_ ^ 2 - 2 y_49_ * y_15_ + 1 y_49_ ^ 2 ] >= 10756.35
quadratic_ranged_154_lb: [ 1 x_26_ ^ 2 - 2 x_49_ * x_26_ + 1 x_49_ ^ 2 + 1 y_26_ ^ 2 - 2 y_49_ * y_26_ + 1 y_49_ ^ 2 ] >= 45272.7
quadratic_ranged_155_lb: [ 1 x_40_ ^ 2 - 2 x_49_ * x_40_ + 1 x_49_ ^ 2 + 1 y_40_ ^ 2 - 2 y_49_ * y_40_ + 1 y_49_ ^ 2 ] >= 21483.99
quadratic_ranged_156_lb: [ 1 x_47_ ^ 2 - 2 x_49_ * x_47_ + 1 x_49_ ^ 2 + 1 y_47_ ^ 2 - 2 y_49_ * y_47_ + 1 y_49_ ^ 2 ] >= 18318.96
quadratic_ranged_157_lb: [ 1 x_48_ ^ 2 - 2 x_49_ * x_48_ + 1 x_49_ ^ 2 + 1 y_48_ ^ 2 - 2 y_49_ * y_48_ + 1 y_49_ ^ 2 ] >= 24921.27
quadratic_ranged_158_lb: [ 1 x_28_ ^ 2 - 2 x_50_ * x_28_ + 1 x_50_ ^ 2 + 1 y_28_ ^ 2 - 2 y_50_ * y_28_ + 1 y_50_ ^ 2 ] >= 8056.62
quadratic_ranged_159_lb: [ 1 x_35_ ^ 2 - 2 x_50_ * x_35_ + 1 x_50_ ^ 2 + 1 y_35_ ^ 2 - 2 y_50_ * y_35_ + 1 y_50_ ^ 2 ] >= 3608.55
quadratic_ranged_160_lb: [ 1 x_37_ ^ 2 - 2 x_50_ * x_37_ + 1 x_50_ ^ 2 + 1 y_37_ ^ 2 - 2 y_50_ * y_37_ + 1 y_50_ ^ 2 ] >= 7794.2699999999995
quadratic_ranged_161_lb: [ 1 x_42_ ^ 2 - 2 x_50_ * x_42_ + 1 x_50_ ^ 2 + 1 y_42_ ^ 2 - 2 y_50_ * y_42_ + 1 y_50_ ^ 2 ] >= 1750.32
quadratic_ranged_162_lb: [ 1 x_49_ ^ 2 - 2 x_50_ * x_49_ + 1 x_50_ ^ 2 + 1 y_49_ ^ 2 - 2 y_50_ * y_49_ + 1 y_50_ ^ 2 ] >= 18656.55
quadratic_ranged_163_lb: [ 1 x_4_ ^ 2 - 2 x_51_ * x_4_ + 1 x_51_ ^ 2 + 1 y_4_ ^ 2 - 2 y_51_ * y_4_ + 1 y_51_ ^ 2 ] >= 21340.44
quadratic_ranged_164_lb: [ 1 x_6_ ^ 2 - 2 x_51_ * x_6_ + 1 x_51_ ^ 2 + 1 y_6_ ^ 2 - 2 y_51_ * y_6_ + 1 y_51_ ^ 2 ] >= 833.58
quadratic_ranged_165_lb: [ 1 x_41_ ^ 2 - 2 x_51_ * x_41_ + 1 x_51_ ^ 2 + 1 y_41_ ^ 2 - 2 y_51_ * y_41_ + 1 y_51_ ^ 2 ] >= 12648.24
quadratic_ranged_166_lb: [ 1 x_44_ ^ 2 - 2 x_51_ * x_44_ + 1 x_51_ ^ 2 + 1 y_44_ ^ 2 - 2 y_51_ * y_44_ + 1 y_51_ ^ 2 ] >= 11414.7
quadratic_ranged_167_lb: [ 1 x_47_ ^ 2 - 2 x_51_ * x_47_ + 1 x_51_ ^ 2 + 1 y_47_ ^ 2 - 2 y_51_ * y_47_ + 1 y_51_ ^ 2 ] >= 7702.2
quadratic_ranged_168_lb: [ 1 x_50_ ^ 2 - 2 x_51_ * x_50_ + 1 x_51_ ^ 2 + 1 y_50_ ^ 2 - 2 y_51_ * y_50_ + 1 y_51_ ^ 2 ] >= 11013.75
quadratic_ranged_169_lb: [ 1 x_10_ ^ 2 - 2 x_52_ * x_10_ + 1 x_52_ ^ 2 + 1 y_10_ ^ 2 - 2 y_52_ * y_10_ + 1 y_52_ ^ 2 ] >= 2369.07
quadratic_ranged_170_lb: [ 1 x_12_ ^ 2 - 2 x_52_ * x_12_ + 1 x_52_ ^ 2 + 1 y_12_ ^ 2 - 2 y_52_ * y_12_ + 1 y_52_ ^ 2 ] >= 2775.96
quadratic_ranged_171_lb: [ 1 x_22_ ^ 2 - 2 x_52_ * x_22_ + 1 x_52_ ^ 2 + 1 y_22_ ^ 2 - 2 y_52_ * y_22_ + 1 y_52_ ^ 2 ] >= 2316.6
quadratic_ranged_172_lb: [ 1 x_24_ ^ 2 - 2 x_52_ * x_24_ + 1 x_52_ ^ 2 + 1 y_24_ ^ 2 - 2 y_52_ * y_24_ + 1 y_52_ ^ 2 ] >= 8062.5599999999995
quadratic_ranged_173_lb: [ 1 x_35_ ^ 2 - 2 x_52_ * x_35_ + 1 x_52_ ^ 2 + 1 y_35_ ^ 2 - 2 y_52_ * y_35_ + 1 y_52_ ^ 2 ] >= 1625.58
quadratic_ranged_174_lb: [ 1 x_38_ ^ 2 - 2 x_52_ * x_38_ + 1 x_52_ ^ 2 + 1 y_38_ ^ 2 - 2 y_52_ * y_38_ + 1 y_52_ ^ 2 ] >= 13022.46
quadratic_ranged_175_lb: [ 1 x_49_ ^ 2 - 2 x_52_ * x_49_ + 1 x_52_ ^ 2 + 1 y_49_ ^ 2 - 2 y_52_ * y_49_ + 1 y_52_ ^ 2 ] >= 10660.32
quadratic_ranged_176_lb: [ 1 x_51_ ^ 2 - 2 x_52_ * x_51_ + 1 x_52_ ^ 2 + 1 y_51_ ^ 2 - 2 y_52_ * y_51_ + 1 y_52_ ^ 2 ] >= 10299.96
quadratic_ranged_177_lb: [ 1 x_1_ ^ 2 - 2 x_53_ * x_1_ + 1 x_53_ ^ 2 + 1 y_1_ ^ 2 - 2 y_53_ * y_1_ + 1 y_53_ ^ 2 ] >= 12775.95
quadratic_ranged_178_lb: [ 1 x_5_ ^ 2 - 2 x_53_ * x_5_ + 1 x_53_ ^ 2 + 1 y_5_ ^ 2 - 2 y_53_ * y_5_ + 1 y_53_ ^ 2 ] >= 3882.7799999999997
quadratic_ranged_179_lb: [ 1 x_17_ ^ 2 - 2 x_53_ * x_17_ + 1 x_53_ ^ 2 + 1 y_17_ ^ 2 - 2 y_53_ * y_17_ + 1 y_53_ ^ 2 ] >= 598.95
quadratic_ranged_180_lb: [ 1 x_19_ ^ 2 - 2 x_53_ * x_19_ + 1 x_53_ ^ 2 + 1 y_19_ ^ 2 - 2 y_53_ * y_19_ + 1 y_53_ ^ 2 ] >= 6796.35
quadratic_ranged_181_lb: [ 1 x_32_ ^ 2 - 2 x_53_ * x_32_ + 1 x_53_ ^ 2 + 1 y_32_ ^ 2 - 2 y_53_ * y_32_ + 1 y_53_ ^ 2 ] >= 6900.3
quadratic_ranged_182_lb: [ 1 x_39_ ^ 2 - 2 x_53_ * x_39_ + 1 x_53_ ^ 2 + 1 y_39_ ^ 2 - 2 y_53_ * y_39_ + 1 y_53_ ^ 2 ] >= 2475
quadratic_ranged_183_lb: [ 1 x_40_ ^ 2 - 2 x_53_ * x_40_ + 1 x_53_ ^ 2 + 1 y_40_ ^ 2 - 2 y_53_ * y_40_ + 1 y_53_ ^ 2 ] >= 732.6
quadratic_ranged_184_lb: [ 1 x_42_ ^ 2 - 2 x_53_ * x_42_ + 1 x_53_ ^ 2 + 1 y_42_ ^ 2 - 2 y_53_ * y_42_ + 1 y_53_ ^ 2 ] >= 9197.1
quadratic_ranged_185_lb: [ 1 x_48_ ^ 2 - 2 x_53_ * x_48_ + 1 x_53_ ^ 2 + 1 y_48_ ^ 2 - 2 y_53_ * y_48_ + 1 y_53_ ^ 2 ] >= 19033.74
quadratic_ranged_186_lb: [ 1 x_52_ ^ 2 - 2 x_53_ * x_52_ + 1 x_53_ ^ 2 + 1 y_52_ ^ 2 - 2 y_53_ * y_52_ + 1 y_53_ ^ 2 ] >= 9425.789999999999
quadratic_ranged_187_lb: [ 1 x_9_ ^ 2 - 2 x_54_ * x_9_ + 1 x_54_ ^ 2 + 1 y_9_ ^ 2 - 2 y_54_ * y_9_ + 1 y_54_ ^ 2 ] >= 5276.7
quadratic_ranged_188_lb: [ 1 x_10_ ^ 2 - 2 x_54_ * x_10_ + 1 x_54_ ^ 2 + 1 y_10_ ^ 2 - 2 y_54_ * y_10_ + 1 y_54_ ^ 2 ] >= 5136.12
quadratic_ranged_189_lb: [ 1 x_26_ ^ 2 - 2 x_54_ * x_26_ + 1 x_54_ ^ 2 + 1 y_26_ ^ 2 - 2 y_54_ * y_26_ + 1 y_54_ ^ 2 ] >= 13983.75
quadratic_ranged_190_lb: [ 1 x_41_ ^ 2 - 2 x_54_ * x_41_ + 1 x_54_ ^ 2 + 1 y_41_ ^ 2 - 2 y_54_ * y_41_ + 1 y_54_ ^ 2 ] >= 4578.75
quadratic_ranged_191_lb: [ 1 x_53_ ^ 2 - 2 x_54_ * x_53_ + 1 x_54_ ^ 2 + 1 y_53_ ^ 2 - 2 y_54_ * y_53_ + 1 y_54_ ^ 2 ] >= 3019.5
quadratic_ranged_192_lb: [ 1 x_12_ ^ 2 - 2 x_55_ * x_12_ + 1 x_55_ ^ 2 + 1 y_12_ ^ 2 - 2 y_55_ * y_12_ + 1 y_55_ ^ 2 ] >= 35596.44
quadratic_ranged_193_lb: [ 1 x_21_ ^ 2 - 2 x_55_ * x_21_ + 1 x_55_ ^ 2 + 1 y_21_ ^ 2 - 2 y_55_ * y_21_ + 1 y_55_ ^ 2 ] >= 16538.94
quadratic_ranged_194_lb: [ 1 x_31_ ^ 2 - 2 x_55_ * x_31_ + 1 x_55_ ^ 2 + 1 y_31_ ^ 2 - 2 y_55_ * y_31_ + 1 y_55_ ^ 2 ] >= 667.26
quadratic_ranged_195_lb: [ 1 x_49_ ^ 2 - 2 x_55_ * x_49_ + 1 x_55_ ^ 2 + 1 y_49_ ^ 2 - 2 y_55_ * y_49_ + 1 y_55_ ^ 2 ] >= 59083.2
quadratic_ranged_196_lb: [ 1 x_53_ ^ 2 - 2 x_55_ * x_53_ + 1 x_55_ ^ 2 + 1 y_53_ ^ 2 - 2 y_55_ * y_53_ + 1 y_55_ ^ 2 ] >= 13282.83
quadratic_ranged_197_lb: [ 1 x_54_ ^ 2 - 2 x_55_ * x_54_ + 1 x_55_ ^ 2 + 1 y_54_ ^ 2 - 2 y_55_ * y_54_ + 1 y_55_ ^ 2 ] >= 20826.63
quadratic_ranged_198_lb: [ 1 x_4_ ^ 2 - 2 x_56_ * x_4_ + 1 x_56_ ^ 2 + 1 y_4_ ^ 2 - 2 y_56_ * y_4_ + 1 y_56_ ^ 2 ] >= 13037.31
quadratic_ranged_199_lb: [ 1 x_24_ ^ 2 - 2 x_56_ * x_24_ + 1 x_56_ ^ 2 + 1 y_24_ ^ 2 - 2 y_56_ * y_24_ + 1 y_56_ ^ 2 ] >= 444.51
quadratic_ranged_200_lb: [ 1 x_36_ ^ 2 - 2 x_56_ * x_36_ + 1 x_56_ ^ 2 + 1 y_36_ ^ 2 - 2 y_56_ * y_36_ + 1 y_56_ ^ 2 ] >= 20532.6
quadratic_ranged_201_lb: [ 1 x_44_ ^ 2 - 2 x_56_ * x_44_ + 1 x_56_ ^ 2 + 1 y_44_ ^ 2 - 2 y_56_ * y_44_ + 1 y_56_ ^ 2 ] >= 9069.39
quadratic_ranged_202_lb: [ 1 x_55_ ^ 2 - 2 x_56_ * x_55_ + 1 x_56_ ^ 2 + 1 y_55_ ^ 2 - 2 y_56_ * y_55_ + 1 y_56_ ^ 2 ] >= 33217.47
quadratic_ranged_203_lb: [ 1 x_5_ ^ 2 - 2 x_57_ * x_5_ + 1 x_57_ ^ 2 + 1 y_5_ ^ 2 - 2 y_57_ * y_5_ + 1 y_57_ ^ 2 ] >= 16885.44
quadratic_ranged_204_lb: [ 1 x_11_ ^ 2 - 2 x_57_ * x_11_ + 1 x_57_ ^ 2 + 1 y_11_ ^ 2 - 2 y_57_ * y_11_ + 1 y_57_ ^ 2 ] >= 4063.95
quadratic_ranged_205_lb: [ 1 x_22_ ^ 2 - 2 x_57_ * x_22_ + 1 x_57_ ^ 2 + 1 y_22_ ^ 2 - 2 y_57_ * y_22_ + 1 y_57_ ^ 2 ] >= 8400.15
quadratic_ranged_206_lb: [ 1 x_24_ ^ 2 - 2 x_57_ * x_24_ + 1 x_57_ ^ 2 + 1 y_24_ ^ 2 - 2 y_57_ * y_24_ + 1 y_57_ ^ 2 ] >= 22719.51
quadratic_ranged_207_lb: [ 1 x_28_ ^ 2 - 2 x_57_ * x_28_ + 1 x_57_ ^ 2 + 1 y_28_ ^ 2 - 2 y_57_ * y_28_ + 1 y_57_ ^ 2 ] >= 15572.7
quadratic_ranged_208_lb: [ 1 x_31_ ^ 2 - 2 x_57_ * x_31_ + 1 x_57_ ^ 2 + 1 y_31_ ^ 2 - 2 y_57_ * y_31_ + 1 y_57_ ^ 2 ] >= 26556.75
quadratic_ranged_209_lb: [ 1 x_56_ ^ 2 - 2 x_57_ * x_56_ + 1 x_57_ ^ 2 + 1 y_56_ ^ 2 - 2 y_57_ * y_56_ + 1 y_57_ ^ 2 ] >= 16808.22
quadratic_ranged_210_lb: [ 1 x_6_ ^ 2 - 2 x_58_ * x_6_ + 1 x_58_ ^ 2 + 1 y_6_ ^ 2 - 2 y_58_ * y_6_ + 1 y_58_ ^ 2 ] >= 8499.15
quadratic_ranged_211_lb: [ 1 x_16_ ^ 2 - 2 x_58_ * x_16_ + 1 x_58_ ^ 2 + 1 y_16_ ^ 2 - 2 y_58_ * y_16_ + 1 y_58_ ^ 2 ] >= 9925.74
quadratic_ranged_212_lb: [ 1 x_57_ ^ 2 - 2 x_58_ * x_57_ + 1 x_58_ ^ 2 + 1 y_57_ ^ 2 - 2 y_58_ * y_57_ + 1 y_58_ ^ 2 ] >= 30195
quadratic_ranged_213_lb: [ 1 x_5_ ^ 2 - 2 x_59_ * x_5_ + 1 x_59_ ^ 2 + 1 y_5_ ^ 2 - 2 y_59_ * y_5_ + 1 y_59_ ^ 2 ] >= 4249.08
quadratic_ranged_214_lb: [ 1 x_9_ ^ 2 - 2 x_59_ * x_9_ + 1 x_59_ ^ 2 + 1 y_9_ ^ 2 - 2 y_59_ * y_9_ + 1 y_59_ ^ 2 ] >= 3074.94
quadratic_ranged_215_lb: [ 1 x_16_ ^ 2 - 2 x_59_ * x_16_ + 1 x_59_ ^ 2 + 1 y_16_ ^ 2 - 2 y_59_ * y_16_ + 1 y_59_ ^ 2 ] >= 48709.979999999996
quadratic_ranged_216_lb: [ 1 x_46_ ^ 2 - 2 x_59_ * x_46_ + 1 x_59_ ^ 2 + 1 y_46_ ^ 2 - 2 y_59_ * y_46_ + 1 y_59_ ^ 2 ] >= 36468.63
quadratic_ranged_217_lb: [ 1 x_53_ ^ 2 - 2 x_59_ * x_53_ + 1 x_59_ ^ 2 + 1 y_53_ ^ 2 - 2 y_59_ * y_53_ + 1 y_59_ ^ 2 ] >= 15026.22
quadratic_ranged_218_lb: [ 1 x_58_ ^ 2 - 2 x_59_ * x_58_ + 1 x_59_ ^ 2 + 1 y_58_ ^ 2 - 2 y_59_ * y_58_ + 1 y_59_ ^ 2 ] >= 27640.8
quadratic_ranged_219_lb: [ 1 x_2_ ^ 2 - 2 x_60_ * x_2_ + 1 x_60_ ^ 2 + 1 y_2_ ^ 2 - 2 y_60_ * y_2_ + 1 y_60_ ^ 2 ] >= 26298.36
quadratic_ranged_220_lb: [ 1 x_8_ ^ 2 - 2 x_60_ * x_8_ + 1 x_60_ ^ 2 + 1 y_8_ ^ 2 - 2 y_60_ * y_8_ + 1 y_60_ ^ 2 ] >= 13262.039999999999
quadratic_ranged_221_lb: [ 1 x_11_ ^ 2 - 2 x_60_ * x_11_ + 1 x_60_ ^ 2 + 1 y_11_ ^ 2 - 2 y_60_ * y_11_ + 1 y_60_ ^ 2 ] >= 11243.43
quadratic_ranged_222_lb: [ 1 x_32_ ^ 2 - 2 x_60_ * x_32_ + 1 x_60_ ^ 2 + 1 y_32_ ^ 2 - 2 y_60_ * y_32_ + 1 y_60_ ^ 2 ] >= 31371.12
quadratic_ranged_223_lb: [ 1 x_34_ ^ 2 - 2 x_60_ * x_34_ + 1 x_60_ ^ 2 + 1 y_34_ ^ 2 - 2 y_60_ * y_34_ + 1 y_60_ ^ 2 ] >= 4198.59
quadratic_ranged_224_lb: [ 1 x_59_ ^ 2 - 2 x_60_ * x_59_ + 1 x_60_ ^ 2 + 1 y_59_ ^ 2 - 2 y_60_ * y_59_ + 1 y_60_ ^ 2 ] >= 2712.6
quadratic_ranged_225_lb: [ 1 x_6_ ^ 2 - 2 x_61_ * x_6_ + 1 x_61_ ^ 2 + 1 y_6_ ^ 2 - 2 y_61_ * y_6_ + 1 y_61_ ^ 2 ] >= 12431.43
quadratic_ranged_226_lb: [ 1 x_16_ ^ 2 - 2 x_61_ * x_16_ + 1 x_61_ ^ 2 + 1 y_16_ ^ 2 - 2 y_61_ * y_16_ + 1 y_61_ ^ 2 ] >= 13060.08
quadratic_ranged_227_lb: [ 1 x_17_ ^ 2 - 2 x_61_ * x_17_ + 1 x_61_ ^ 2 + 1 y_17_ ^ 2 - 2 y_61_ * y_17_ + 1 y_61_ ^ 2 ] >= 2004.75
quadratic_ranged_228_lb: [ 1 x_26_ ^ 2 - 2 x_61_ * x_26_ + 1 x_61_ ^ 2 + 1 y_26_ ^ 2 - 2 y_61_ * y_26_ + 1 y_61_ ^ 2 ] >= 4293.63
quadratic_ranged_229_lb: [ 1 x_28_ ^ 2 - 2 x_61_ * x_28_ + 1 x_61_ ^ 2 + 1 y_28_ ^ 2 - 2 y_61_ * y_28_ + 1 y_61_ ^ 2 ] >= 6435
quadratic_ranged_230_lb: [ 1 x_39_ ^ 2 - 2 x_61_ * x_39_ + 1 x_61_ ^ 2 + 1 y_39_ ^ 2 - 2 y_61_ * y_39_ + 1 y_61_ ^ 2 ] >= 7670.5199999999995
quadratic_ranged_231_lb: [ 1 x_46_ ^ 2 - 2 x_61_ * x_46_ + 1 x_61_ ^ 2 + 1 y_46_ ^ 2 - 2 y_61_ * y_46_ + 1 y_61_ ^ 2 ] >= 8095.23
quadratic_ranged_232_lb: [ 1 x_53_ ^ 2 - 2 x_61_ * x_53_ + 1 x_61_ ^ 2 + 1 y_53_ ^ 2 - 2 y_61_ * y_53_ + 1 y_61_ ^ 2 ] >= 4759.92
quadratic_ranged_233_lb: [ 1 x_60_ ^ 2 - 2 x_61_ * x_60_ + 1 x_61_ ^ 2 + 1 y_60_ ^ 2 - 2 y_61_ * y_60_ + 1 y_61_ ^ 2 ] >= 19730.7
quadratic_ranged_234_lb: [ 1 x_4_ ^ 2 - 2 x_62_ * x_4_ + 1 x_62_ ^ 2 + 1 y_4_ ^ 2 - 2 y_62_ * y_4_ + 1 y_62_ ^ 2 ] >= 8019.99
quadratic_ranged_235_lb: [ 1 x_11_ ^ 2 - 2 x_62_ * x_11_ + 1 x_62_ ^ 2 + 1 y_11_ ^ 2 - 2 y_62_ * y_11_ + 1 y_62_ ^ 2 ] >= 6796.35
quadratic_ranged_236_lb: [ 1 x_19_ ^ 2 - 2 x_62_ * x_19_ + 1 x_62_ ^ 2 + 1 y_19_ ^ 2 - 2 y_62_ * y_19_ + 1 y_62_ ^ 2 ] >= 1965.15
quadratic_ranged_237_lb: [ 1 x_26_ ^ 2 - 2 x_62_ * x_26_ + 1 x_62_ ^ 2 + 1 y_26_ ^ 2 - 2 y_62_ * y_26_ + 1 y_62_ ^ 2 ] >= 856.35
quadratic_ranged_238_lb: [ 1 x_30_ ^ 2 - 2 x_62_ * x_30_ + 1 x_62_ ^ 2 + 1 y_30_ ^ 2 - 2 y_62_ * y_30_ + 1 y_62_ ^ 2 ] >= 1521.6299999999999
quadratic_ranged_239_lb: [ 1 x_36_ ^ 2 - 2 x_62_ * x_36_ + 1 x_62_ ^ 2 + 1 y_36_ ^ 2 - 2 y_62_ * y_36_ + 1 y_62_ ^ 2 ] >= 287.1
quadratic_ranged_240_lb: [ 1 x_37_ ^ 2 - 2 x_62_ * x_37_ + 1 x_62_ ^ 2 + 1 y_37_ ^ 2 - 2 y_62_ * y_37_ + 1 y_62_ ^ 2 ] >= 9409.95
quadratic_ranged_241_lb: [ 1 x_52_ ^ 2 - 2 x_62_ * x_52_ + 1 x_62_ ^ 2 + 1 y_52_ ^ 2 - 2 y_62_ * y_52_ + 1 y_62_ ^ 2 ] >= 7853.67
quadratic_ranged_242_lb: [ 1 x_61_ ^ 2 - 2 x_62_ * x_61_ + 1 x_62_ ^ 2 + 1 y_61_ ^ 2 - 2 y_62_ * y_61_ + 1 y_62_ ^ 2 ] >= 1340.46
quadratic_ranged_243_lb: [ 1 x_10_ ^ 2 - 2 x_63_ * x_10_ + 1 x_63_ ^ 2 + 1 y_10_ ^ 2 - 2 y_63_ * y_10_ + 1 y_63_ ^ 2 ] >= 8056.62
quadratic_ranged_244_lb: [ 1 x_22_ ^ 2 - 2 x_63_ * x_22_ + 1 x_63_ ^ 2 + 1 y_22_ ^ 2 - 2 y_63_ * y_22_ + 1 y_63_ ^ 2 ] >= 3101.67
quadratic_ranged_245_lb: [ 1 x_31_ ^ 2 - 2 x_63_ * x_31_ + 1 x_63_ ^ 2 + 1 y_31_ ^ 2 - 2 y_63_ * y_31_ + 1 y_63_ ^ 2 ] >= 7849.71
quadratic_ranged_246_lb: [ 1 x_33_ ^ 2 - 2 x_63_ * x_33_ + 1 x_63_ ^ 2 + 1 y_33_ ^ 2 - 2 y_63_ * y_33_ + 1 y_63_ ^ 2 ] >= 126.72
quadratic_ranged_247_lb: [ 1 x_35_ ^ 2 - 2 x_63_ * x_35_ + 1 x_63_ ^ 2 + 1 y_35_ ^ 2 - 2 y_63_ * y_35_ + 1 y_63_ ^ 2 ] >= 5430.15
quadratic_ranged_248_lb: [ 1 x_38_ ^ 2 - 2 x_63_ * x_38_ + 1 x_63_ ^ 2 + 1 y_38_ ^ 2 - 2 y_63_ * y_38_ + 1 y_63_ ^ 2 ] >= 12641.31
quadratic_ranged_249_lb: [ 1 x_59_ ^ 2 - 2 x_63_ * x_59_ + 1 x_63_ ^ 2 + 1 y_59_ ^ 2 - 2 y_63_ * y_59_ + 1 y_63_ ^ 2 ] >= 14139.18
quadratic_ranged_250_lb: [ 1 x_62_ ^ 2 - 2 x_63_ * x_62_ + 1 x_63_ ^ 2 + 1 y_62_ ^ 2 - 2 y_63_ * y_62_ + 1 y_63_ ^ 2 ] >= 6227.1
quadratic_ranged_251_lb: [ 1 x_10_ ^ 2 - 2 x_64_ * x_10_ + 1 x_64_ ^ 2 + 1 y_10_ ^ 2 - 2 y_64_ * y_10_ + 1 y_64_ ^ 2 ] >= 11730.51
quadratic_ranged_252_lb: [ 1 x_12_ ^ 2 - 2 x_64_ * x_12_ + 1 x_64_ ^ 2 + 1 y_12_ ^ 2 - 2 y_64_ * y_12_ + 1 y_64_ ^ 2 ] >= 37212.12
quadratic_ranged_253_lb: [ 1 x_19_ ^ 2 - 2 x_64_ * x_19_ + 1 x_64_ ^ 2 + 1 y_19_ ^ 2 - 2 y_64_ * y_19_ + 1 y_64_ ^ 2 ] >= 2015.6399999999999
quadratic_ranged_254_lb: [ 1 x_20_ ^ 2 - 2 x_64_ * x_20_ + 1 x_64_ ^ 2 + 1 y_20_ ^ 2 - 2 y_64_ * y_20_ + 1 y_64_ ^ 2 ] >= 9222.84
quadratic_ranged_255_lb: [ 1 x_23_ ^ 2 - 2 x_64_ * x_23_ + 1 x_64_ ^ 2 + 1 y_23_ ^ 2 - 2 y_64_ * y_23_ + 1 y_64_ ^ 2 ] >= 41941.35
quadratic_ranged_256_lb: [ 1 x_44_ ^ 2 - 2 x_64_ * x_44_ + 1 x_64_ ^ 2 + 1 y_44_ ^ 2 - 2 y_64_ * y_44_ + 1 y_64_ ^ 2 ] >= 9498.06
quadratic_ranged_257_lb: [ 1 x_46_ ^ 2 - 2 x_64_ * x_46_ + 1 x_64_ ^ 2 + 1 y_46_ ^ 2 - 2 y_64_ * y_46_ + 1 y_64_ ^ 2 ] >= 2158.2
quadratic_ranged_258_lb: [ 1 x_63_ ^ 2 - 2 x_64_ * x_63_ + 1 x_64_ ^ 2 + 1 y_63_ ^ 2 - 2 y_64_ * y_63_ + 1 y_64_ ^ 2 ] >= 15508.35
quadratic_ranged_259_lb: [ 1 x_15_ ^ 2 - 2 x_65_ * x_15_ + 1 x_65_ ^ 2 + 1 y_15_ ^ 2 - 2 y_65_ * y_15_ + 1 y_65_ ^ 2 ] >= 16287.48
quadratic_ranged_260_lb: [ 1 x_46_ ^ 2 - 2 x_65_ * x_46_ + 1 x_65_ ^ 2 + 1 y_46_ ^ 2 - 2 y_65_ * y_46_ + 1 y_65_ ^ 2 ] >= 3497.67
quadratic_ranged_261_lb: [ 1 x_47_ ^ 2 - 2 x_65_ * x_47_ + 1 x_65_ ^ 2 + 1 y_47_ ^ 2 - 2 y_65_ * y_47_ + 1 y_65_ ^ 2 ] >= 5754.87
quadratic_ranged_262_lb: [ 1 x_64_ ^ 2 - 2 x_65_ * x_64_ + 1 x_65_ ^ 2 + 1 y_64_ ^ 2 - 2 y_65_ * y_64_ + 1 y_65_ ^ 2 ] >= 10732.59
quadratic_ranged_263_lb: [ 1 x_4_ ^ 2 - 2 x_66_ * x_4_ + 1 x_66_ ^ 2 + 1 y_4_ ^ 2 - 2 y_66_ * y_4_ + 1 y_66_ ^ 2 ] >= 21480.03
quadratic_ranged_264_lb: [ 1 x_29_ ^ 2 - 2 x_66_ * x_29_ + 1 x_66_ ^ 2 + 1 y_29_ ^ 2 - 2 y_66_ * y_29_ + 1 y_66_ ^ 2 ] >= 23144.22
quadratic_ranged_265_lb: [ 1 x_36_ ^ 2 - 2 x_66_ * x_36_ + 1 x_66_ ^ 2 + 1 y_36_ ^ 2 - 2 y_66_ * y_36_ + 1 y_66_ ^ 2 ] >= 10791
quadratic_ranged_266_lb: [ 1 x_38_ ^ 2 - 2 x_66_ * x_38_ + 1 x_66_ ^ 2 + 1 y_38_ ^ 2 - 2 y_66_ * y_38_ + 1 y_66_ ^ 2 ] >= 14122.35
quadratic_ranged_267_lb: [ 1 x_40_ ^ 2 - 2 x_66_ * x_40_ + 1 x_66_ ^ 2 + 1 y_40_ ^ 2 - 2 y_66_ * y_40_ + 1 y_66_ ^ 2 ] >= 811.8
quadratic_ranged_268_lb: [ 1 x_41_ ^ 2 - 2 x_66_ * x_41_ + 1 x_66_ ^ 2 + 1 y_41_ ^ 2 - 2 y_66_ * y_41_ + 1 y_66_ ^ 2 ] >= 4776.75
quadratic_ranged_269_lb: [ 1 x_65_ ^ 2 - 2 x_66_ * x_65_ + 1 x_66_ ^ 2 + 1 y_65_ ^ 2 - 2 y_66_ * y_65_ + 1 y_66_ ^ 2 ] >= 574.2
quadratic_ranged_270_lb: [ 1 x_1_ ^ 2 - 2 x_67_ * x_1_ + 1 x_67_ ^ 2 + 1 y_1_ ^ 2 - 2 y_67_ * y_1_ + 1 y_67_ ^ 2 ] >= 9865.35
quadratic_ranged_271_lb: [ 1 x_13_ ^ 2 - 2 x_67_ * x_13_ + 1 x_67_ ^ 2 + 1 y_13_ ^ 2 - 2 y_67_ * y_13_ + 1 y_67_ ^ 2 ] >= 3786.75
quadratic_ranged_272_lb: [ 1 x_16_ ^ 2 - 2 x_67_ * x_16_ + 1 x_67_ ^ 2 + 1 y_16_ ^ 2 - 2 y_67_ * y_16_ + 1 y_67_ ^ 2 ] >= 8022.96
quadratic_ranged_273_lb: [ 1 x_46_ ^ 2 - 2 x_67_ * x_46_ + 1 x_67_ ^ 2 + 1 y_46_ ^ 2 - 2 y_67_ * y_46_ + 1 y_67_ ^ 2 ] >= 9829.71
quadratic_ranged_274_lb: [ 1 x_61_ ^ 2 - 2 x_67_ * x_61_ + 1 x_67_ ^ 2 + 1 y_61_ ^ 2 - 2 y_67_ * y_61_ + 1 y_67_ ^ 2 ] >= 4593.6
quadratic_ranged_275_lb: [ 1 x_66_ ^ 2 - 2 x_67_ * x_66_ + 1 x_67_ ^ 2 + 1 y_66_ ^ 2 - 2 y_67_ * y_66_ + 1 y_67_ ^ 2 ] >= 18604.079999999998
quadratic_ranged_276_lb: [ 1 x_29_ ^ 2 - 2 x_68_ * x_29_ + 1 x_68_ ^ 2 + 1 y_29_ ^ 2 - 2 y_68_ * y_29_ + 1 y_68_ ^ 2 ] >= 20553.39
quadratic_ranged_277_lb: [ 1 x_37_ ^ 2 - 2 x_68_ * x_37_ + 1 x_68_ ^ 2 + 1 y_37_ ^ 2 - 2 y_68_ * y_37_ + 1 y_68_ ^ 2 ] >= 17489.34
quadratic_ranged_278_lb: [ 1 x_51_ ^ 2 - 2 x_68_ * x_51_ + 1 x_68_ ^ 2 + 1 y_51_ ^ 2 - 2 y_68_ * y_51_ + 1 y_68_ ^ 2 ] >= 35014.32
quadratic_ranged_279_lb: [ 1 x_62_ ^ 2 - 2 x_68_ * x_62_ + 1 x_68_ ^ 2 + 1 y_62_ ^ 2 - 2 y_68_ * y_62_ + 1 y_68_ ^ 2 ] >= 5750.91
quadratic_ranged_280_lb: [ 1 x_67_ ^ 2 - 2 x_68_ * x_67_ + 1 x_68_ ^ 2 + 1 y_67_ ^ 2 - 2 y_68_ * y_67_ + 1 y_68_ ^ 2 ] >= 9255.51
quadratic_ranged_281_lb: [ 1 x_1_ ^ 2 - 2 x_69_ * x_1_ + 1 x_69_ ^ 2 + 1 y_1_ ^ 2 - 2 y_69_ * y_1_ + 1 y_69_ ^ 2 ] >= 12879.9
quadratic_ranged_282_lb: [ 1 x_3_ ^ 2 - 2 x_69_ * x_3_ + 1 x_69_ ^ 2 + 1 y_3_ ^ 2 - 2 y_69_ * y_3_ + 1 y_69_ ^ 2 ] >= 31371.12
quadratic_ranged_283_lb: [ 1 x_4_ ^ 2 - 2 x_69_ * x_4_ + 1 x_69_ ^ 2 + 1 y_4_ ^ 2 - 2 y_69_ * y_4_ + 1 y_69_ ^ 2 ] >= 20419.74
quadratic_ranged_284_lb: [ 1 x_14_ ^ 2 - 2 x_69_ * x_14_ + 1 x_69_ ^ 2 + 1 y_14_ ^ 2 - 2 y_69_ * y_14_ + 1 y_69_ ^ 2 ] >= 28235.79
quadratic_ranged_285_lb: [ 1 x_23_ ^ 2 - 2 x_69_ * x_23_ + 1 x_69_ ^ 2 + 1 y_23_ ^ 2 - 2 y_69_ * y_23_ + 1 y_69_ ^ 2 ] >= 333.63
quadratic_ranged_286_lb: [ 1 x_38_ ^ 2 - 2 x_69_ * x_38_ + 1 x_69_ ^ 2 + 1 y_38_ ^ 2 - 2 y_69_ * y_38_ + 1 y_69_ ^ 2 ] >= 30222.72
quadratic_ranged_287_lb: [ 1 x_39_ ^ 2 - 2 x_69_ * x_39_ + 1 x_69_ ^ 2 + 1 y_39_ ^ 2 - 2 y_69_ * y_39_ + 1 y_69_ ^ 2 ] >= 579.15
quadratic_ranged_288_lb: [ 1 x_44_ ^ 2 - 2 x_69_ * x_44_ + 1 x_69_ ^ 2 + 1 y_44_ ^ 2 - 2 y_69_ * y_44_ + 1 y_69_ ^ 2 ] >= 11943.36
quadratic_ranged_289_lb: [ 1 x_49_ ^ 2 - 2 x_69_ * x_49_ + 1 x_69_ ^ 2 + 1 y_49_ ^ 2 - 2 y_69_ * y_49_ + 1 y_69_ ^ 2 ] >= 7153.74
quadratic_ranged_290_lb: [ 1 x_68_ ^ 2 - 2 x_69_ * x_68_ + 1 x_69_ ^ 2 + 1 y_68_ ^ 2 - 2 y_69_ * y_68_ + 1 y_69_ ^ 2 ] >= 37669.5
quadratic_ranged_291_lb: [ 1 x_8_ ^ 2 - 2 x_70_ * x_8_ + 1 x_70_ ^ 2 + 1 y_8_ ^ 2 - 2 y_70_ * y_8_ + 1 y_70_ ^ 2 ] >= 22755.15
quadratic_ranged_292_lb: [ 1 x_17_ ^ 2 - 2 x_70_ * x_17_ + 1 x_70_ ^ 2 + 1 y_17_ ^ 2 - 2 y_70_ * y_17_ + 1 y_70_ ^ 2 ] >= 4207.5
quadratic_ranged_293_lb: [ 1 x_22_ ^ 2 - 2 x_70_ * x_22_ + 1 x_70_ ^ 2 + 1 y_22_ ^ 2 - 2 y_70_ * y_22_ + 1 y_70_ ^ 2 ] >= 4136.22
quadratic_ranged_294_lb: [ 1 x_32_ ^ 2 - 2 x_70_ * x_32_ + 1 x_70_ ^ 2 + 1 y_32_ ^ 2 - 2 y_70_ * y_32_ + 1 y_70_ ^ 2 ] >= 21780.99
quadratic_ranged_295_lb: [ 1 x_41_ ^ 2 - 2 x_70_ * x_41_ + 1 x_70_ ^ 2 + 1 y_41_ ^ 2 - 2 y_70_ * y_41_ + 1 y_70_ ^ 2 ] >= 1245.42
quadratic_ranged_296_lb: [ 1 x_46_ ^ 2 - 2 x_70_ * x_46_ + 1 x_70_ ^ 2 + 1 y_46_ ^ 2 - 2 y_70_ * y_46_ + 1 y_70_ ^ 2 ] >= 1585.98
quadratic_ranged_297_lb: [ 1 x_52_ ^ 2 - 2 x_70_ * x_52_ + 1 x_70_ ^ 2 + 1 y_52_ ^ 2 - 2 y_70_ * y_52_ + 1 y_70_ ^ 2 ] >= 11929.5
quadratic_ranged_298_lb: [ 1 x_53_ ^ 2 - 2 x_70_ * x_53_ + 1 x_70_ ^ 2 + 1 y_53_ ^ 2 - 2 y_70_ * y_53_ + 1 y_70_ ^ 2 ] >= 6962.67
quadratic_ranged_299_lb: [ 1 x_60_ ^ 2 - 2 x_70_ * x_60_ + 1 x_70_ ^ 2 + 1 y_60_ ^ 2 - 2 y_70_ * y_60_ + 1 y_70_ ^ 2 ] >= 36436.95
quadratic_ranged_300_lb: [ 1 x_64_ ^ 2 - 2 x_70_ * x_64_ + 1 x_70_ ^ 2 + 1 y_64_ ^ 2 - 2 y_70_ * y_64_ + 1 y_70_ ^ 2 ] >= 2306.7
quadratic_ranged_301_lb: [ 1 x_69_ ^ 2 - 2 x_70_ * x_69_ + 1 x_70_ ^ 2 + 1 y_69_ ^ 2 - 2 y_70_ * y_69_ + 1 y_70_ ^ 2 ] >= 21831.48
quadratic_ranged_302_lb: [ 1 x_36_ ^ 2 - 2 x_71_ * x_36_ + 1 x_71_ ^ 2 + 1 y_36_ ^ 2 - 2 y_71_ * y_36_ + 1 y_71_ ^ 2 ] >= 4197.6
quadratic_ranged_303_lb: [ 1 x_46_ ^ 2 - 2 x_71_ * x_46_ + 1 x_71_ ^ 2 + 1 y_46_ ^ 2 - 2 y_71_ * y_46_ + 1 y_71_ ^ 2 ] >= 11393.91
quadratic_ranged_304_lb: [ 1 x_55_ ^ 2 - 2 x_71_ * x_55_ + 1 x_71_ ^ 2 + 1 y_55_ ^ 2 - 2 y_71_ * y_55_ + 1 y_71_ ^ 2 ] >= 13591.71
quadratic_ranged_305_lb: [ 1 x_64_ ^ 2 - 2 x_71_ * x_64_ + 1 x_71_ ^ 2 + 1 y_64_ ^ 2 - 2 y_71_ * y_64_ + 1 y_71_ ^ 2 ] >= 13892.67
quadratic_ranged_306_lb: [ 1 x_70_ ^ 2 - 2 x_71_ * x_70_ + 1 x_71_ ^ 2 + 1 y_70_ ^ 2 - 2 y_71_ * y_70_ + 1 y_71_ ^ 2 ] >= 5263.83
quadratic_ranged_307_lb: [ 1 x_1_ ^ 2 - 2 x_72_ * x_1_ + 1 x_72_ ^ 2 + 1 y_1_ ^ 2 - 2 y_72_ * y_1_ + 1 y_72_ ^ 2 ] >= 4801.5
quadratic_ranged_308_lb: [ 1 x_12_ ^ 2 - 2 x_72_ * x_12_ + 1 x_72_ ^ 2 + 1 y_12_ ^ 2 - 2 y_72_ * y_12_ + 1 y_72_ ^ 2 ] >= 16998.3
quadratic_ranged_309_lb: [ 1 x_19_ ^ 2 - 2 x_72_ * x_19_ + 1 x_72_ ^ 2 + 1 y_19_ ^ 2 - 2 y_72_ * y_19_ + 1 y_72_ ^ 2 ] >= 13426.38
quadratic_ranged_310_lb: [ 1 x_21_ ^ 2 - 2 x_72_ * x_21_ + 1 x_72_ ^ 2 + 1 y_21_ ^ 2 - 2 y_72_ * y_21_ + 1 y_72_ ^ 2 ] >= 20797.92
quadratic_ranged_311_lb: [ 1 x_25_ ^ 2 - 2 x_72_ * x_25_ + 1 x_72_ ^ 2 + 1 y_25_ ^ 2 - 2 y_72_ * y_25_ + 1 y_72_ ^ 2 ] >= 31034.52
quadratic_ranged_312_lb: [ 1 x_29_ ^ 2 - 2 x_72_ * x_29_ + 1 x_72_ ^ 2 + 1 y_29_ ^ 2 - 2 y_72_ * y_29_ + 1 y_72_ ^ 2 ] >= 64.35
quadratic_ranged_313_lb: [ 1 x_36_ ^ 2 - 2 x_72_ * x_36_ + 1 x_72_ ^ 2 + 1 y_36_ ^ 2 - 2 y_72_ * y_36_ + 1 y_72_ ^ 2 ] >= 4598.55
quadratic_ranged_314_lb: [ 1 x_39_ ^ 2 - 2 x_72_ * x_39_ + 1 x_72_ ^ 2 + 1 y_39_ ^ 2 - 2 y_72_ * y_39_ + 1 y_72_ ^ 2 ] >= 22675.95
quadratic_ranged_315_lb: [ 1 x_43_ ^ 2 - 2 x_72_ * x_43_ + 1 x_72_ ^ 2 + 1 y_43_ ^ 2 - 2 y_72_ * y_43_ + 1 y_72_ ^ 2 ] >= 10620.72
quadratic_ranged_316_lb: [ 1 x_57_ ^ 2 - 2 x_72_ * x_57_ + 1 x_72_ ^ 2 + 1 y_57_ ^ 2 - 2 y_72_ * y_57_ + 1 y_72_ ^ 2 ] >= 2309.67
quadratic_ranged_317_lb: [ 1 x_69_ ^ 2 - 2 x_72_ * x_69_ + 1 x_72_ ^ 2 + 1 y_69_ ^ 2 - 2 y_72_ * y_69_ + 1 y_72_ ^ 2 ] >= 28512
quadratic_ranged_318_lb: [ 1 x_71_ ^ 2 - 2 x_72_ * x_71_ + 1 x_72_ ^ 2 + 1 y_71_ ^ 2 - 2 y_72_ * y_71_ + 1 y_72_ ^ 2 ] >= 4661.91
quadratic_ranged_319_lb: [ 1 x_6_ ^ 2 - 2 x_73_ * x_6_ + 1 x_73_ ^ 2 + 1 y_6_ ^ 2 - 2 y_73_ * y_6_ + 1 y_73_ ^ 2 ] >= 30432.6
quadratic_ranged_320_lb: [ 1 x_9_ ^ 2 - 2 x_73_ * x_9_ + 1 x_73_ ^ 2 + 1 y_9_ ^ 2 - 2 y_73_ * y_9_ + 1 y_73_ ^ 2 ] >= 4115.43
quadratic_ranged_321_lb: [ 1 x_50_ ^ 2 - 2 x_73_ * x_50_ + 1 x_73_ ^ 2 + 1 y_50_ ^ 2 - 2 y_73_ * y_50_ + 1 y_73_ ^ 2 ] >= 4032.27
quadratic_ranged_322_lb: [ 1 x_55_ ^ 2 - 2 x_73_ * x_55_ + 1 x_73_ ^ 2 + 1 y_55_ ^ 2 - 2 y_73_ * y_55_ + 1 y_73_ ^ 2 ] >= 19136.7
quadratic_ranged_323_lb: [ 1 x_72_ ^ 2 - 2 x_73_ * x_72_ + 1 x_73_ ^ 2 + 1 y_72_ ^ 2 - 2 y_73_ * y_72_ + 1 y_73_ ^ 2 ] >= 241.56
quadratic_ranged_324_lb: [ 1 x_36_ ^ 2 - 2 x_74_ * x_36_ + 1 x_74_ ^ 2 + 1 y_36_ ^ 2 - 2 y_74_ * y_36_ + 1 y_74_ ^ 2 ] >= 1454.31
quadratic_ranged_325_lb: [ 1 x_45_ ^ 2 - 2 x_74_ * x_45_ + 1 x_74_ ^ 2 + 1 y_45_ ^ 2 - 2 y_74_ * y_45_ + 1 y_74_ ^ 2 ] >= 17513.1
quadratic_ranged_326_lb: [ 1 x_53_ ^ 2 - 2 x_74_ * x_53_ + 1 x_74_ ^ 2 + 1 y_53_ ^ 2 - 2 y_74_ * y_53_ + 1 y_74_ ^ 2 ] >= 11690.91
quadratic_ranged_327_lb: [ 1 x_61_ ^ 2 - 2 x_74_ * x_61_ + 1 x_74_ ^ 2 + 1 y_61_ ^ 2 - 2 y_74_ * y_61_ + 1 y_74_ ^ 2 ] >= 6499.35
quadratic_ranged_328_lb: [ 1 x_62_ ^ 2 - 2 x_74_ * x_62_ + 1 x_74_ ^ 2 + 1 y_62_ ^ 2 - 2 y_74_ * y_62_ + 1 y_74_ ^ 2 ] >= 1984.95
quadratic_ranged_329_lb: [ 1 x_71_ ^ 2 - 2 x_74_ * x_71_ + 1 x_74_ ^ 2 + 1 y_71_ ^ 2 - 2 y_74_ * y_71_ + 1 y_74_ ^ 2 ] >= 9437.67
quadratic_ranged_330_lb: [ 1 x_73_ ^ 2 - 2 x_74_ * x_73_ + 1 x_74_ ^ 2 + 1 y_73_ ^ 2 - 2 y_74_ * y_73_ + 1 y_74_ ^ 2 ] >= 13325.4
quadratic_ranged_331_lb: [ 1 x_10_ ^ 2 - 2 x_75_ * x_10_ + 1 x_75_ ^ 2 + 1 y_10_ ^ 2 - 2 y_75_ * y_10_ + 1 y_75_ ^ 2 ] >= 4896.54
quadratic_ranged_332_lb: [ 1 x_33_ ^ 2 - 2 x_75_ * x_33_ + 1 x_75_ ^ 2 + 1 y_33_ ^ 2 - 2 y_75_ * y_33_ + 1 y_75_ ^ 2 ] >= 891
quadratic_ranged_333_lb: [ 1 x_41_ ^ 2 - 2 x_75_ * x_41_ + 1 x_75_ ^ 2 + 1 y_41_ ^ 2 - 2 y_75_ * y_41_ + 1 y_75_ ^ 2 ] >= 678.15
quadratic_ranged_334_lb: [ 1 x_49_ ^ 2 - 2 x_75_ * x_49_ + 1 x_75_ ^ 2 + 1 y_49_ ^ 2 - 2 y_75_ * y_49_ + 1 y_75_ ^ 2 ] >= 28429.829999999998
quadratic_ranged_335_lb: [ 1 x_51_ ^ 2 - 2 x_75_ * x_51_ + 1 x_75_ ^ 2 + 1 y_51_ ^ 2 - 2 y_75_ * y_51_ + 1 y_75_ ^ 2 ] >= 10384.11
quadratic_ranged_336_lb: [ 1 x_55_ ^ 2 - 2 x_75_ * x_55_ + 1 x_75_ ^ 2 + 1 y_55_ ^ 2 - 2 y_75_ * y_55_ + 1 y_75_ ^ 2 ] >= 5992.47
quadratic_ranged_337_lb: [ 1 x_72_ ^ 2 - 2 x_75_ * x_72_ + 1 x_75_ ^ 2 + 1 y_72_ ^ 2 - 2 y_75_ * y_72_ + 1 y_75_ ^ 2 ] >= 11904.75
quadratic_ranged_338_lb: [ 1 x_74_ ^ 2 - 2 x_75_ * x_74_ + 1 x_75_ ^ 2 + 1 y_74_ ^ 2 - 2 y_75_ * y_74_ + 1 y_75_ ^ 2 ] >= 4499.55
quadratic_ranged_339_lb: [ 1 x_10_ ^ 2 - 2 x_76_ * x_10_ + 1 x_76_ ^ 2 + 1 y_10_ ^ 2 - 2 y_76_ * y_10_ + 1 y_76_ ^ 2 ] >= 22089.87
quadratic_ranged_340_lb: [ 1 x_19_ ^ 2 - 2 x_76_ * x_19_ + 1 x_76_ ^ 2 + 1 y_19_ ^ 2 - 2 y_76_ * y_19_ + 1 y_76_ ^ 2 ] >= 41964.12
quadratic_ranged_341_lb: [ 1 x_21_ ^ 2 - 2 x_76_ * x_21_ + 1 x_76_ ^ 2 + 1 y_21_ ^ 2 - 2 y_76_ * y_21_ + 1 y_76_ ^ 2 ] >= 15556.86
quadratic_ranged_342_lb: [ 1 x_32_ ^ 2 - 2 x_76_ * x_32_ + 1 x_76_ ^ 2 + 1 y_32_ ^ 2 - 2 y_76_ * y_32_ + 1 y_76_ ^ 2 ] >= 34251.03
quadratic_ranged_343_lb: [ 1 x_42_ ^ 2 - 2 x_76_ * x_42_ + 1 x_76_ ^ 2 + 1 y_42_ ^ 2 - 2 y_76_ * y_42_ + 1 y_76_ ^ 2 ] >= 9845.55
quadratic_ranged_344_lb: [ 1 x_52_ ^ 2 - 2 x_76_ * x_52_ + 1 x_76_ ^ 2 + 1 y_52_ ^ 2 - 2 y_76_ * y_52_ + 1 y_76_ ^ 2 ] >= 10406.88
quadratic_ranged_345_lb: [ 1 x_71_ ^ 2 - 2 x_76_ * x_71_ + 1 x_76_ ^ 2 + 1 y_71_ ^ 2 - 2 y_76_ * y_71_ + 1 y_76_ ^ 2 ] >= 16537.95
quadratic_ranged_346_lb: [ 1 x_72_ ^ 2 - 2 x_76_ * x_72_ + 1 x_76_ ^ 2 + 1 y_72_ ^ 2 - 2 y_76_ * y_72_ + 1 y_76_ ^ 2 ] >= 32006.7
quadratic_ranged_347_lb: [ 1 x_75_ ^ 2 - 2 x_76_ * x_75_ + 1 x_76_ ^ 2 + 1 y_75_ ^ 2 - 2 y_76_ * y_75_ + 1 y_76_ ^ 2 ] >= 25982.55
quadratic_ranged_348_lb: [ 1 x_3_ ^ 2 - 2 x_77_ * x_3_ + 1 x_77_ ^ 2 + 1 y_3_ ^ 2 - 2 y_77_ * y_3_ + 1 y_77_ ^ 2 ] >= 1228.59
quadratic_ranged_349_lb: [ 1 x_29_ ^ 2 - 2 x_77_ * x_29_ + 1 x_77_ ^ 2 + 1 y_29_ ^ 2 - 2 y_77_ * y_29_ + 1 y_77_ ^ 2 ] >= 9775.26
quadratic_ranged_350_lb: [ 1 x_34_ ^ 2 - 2 x_77_ * x_34_ + 1 x_77_ ^ 2 + 1 y_34_ ^ 2 - 2 y_77_ * y_34_ + 1 y_77_ ^ 2 ] >= 22121.55
quadratic_ranged_351_lb: [ 1 x_35_ ^ 2 - 2 x_77_ * x_35_ + 1 x_77_ ^ 2 + 1 y_35_ ^ 2 - 2 y_77_ * y_35_ + 1 y_77_ ^ 2 ] >= 13536.27
quadratic_ranged_352_lb: [ 1 x_37_ ^ 2 - 2 x_77_ * x_37_ + 1 x_77_ ^ 2 + 1 y_37_ ^ 2 - 2 y_77_ * y_37_ + 1 y_77_ ^ 2 ] >= 8214.03
quadratic_ranged_353_lb: [ 1 x_46_ ^ 2 - 2 x_77_ * x_46_ + 1 x_77_ ^ 2 + 1 y_46_ ^ 2 - 2 y_77_ * y_46_ + 1 y_77_ ^ 2 ] >= 1680.03
quadratic_ranged_354_lb: [ 1 x_67_ ^ 2 - 2 x_77_ * x_67_ + 1 x_77_ ^ 2 + 1 y_67_ ^ 2 - 2 y_77_ * y_67_ + 1 y_77_ ^ 2 ] >= 4197.6
quadratic_ranged_355_lb: [ 1 x_68_ ^ 2 - 2 x_77_ * x_68_ + 1 x_77_ ^ 2 + 1 y_68_ ^ 2 - 2 y_77_ * y_68_ + 1 y_77_ ^ 2 ] >= 3465.99
quadratic_ranged_356_lb: [ 1 x_73_ ^ 2 - 2 x_77_ * x_73_ + 1 x_77_ ^ 2 + 1 y_73_ ^ 2 - 2 y_77_ * y_73_ + 1 y_77_ ^ 2 ] >= 10340.55
quadratic_ranged_357_lb: [ 1 x_76_ ^ 2 - 2 x_77_ * x_76_ + 1 x_77_ ^ 2 + 1 y_76_ ^ 2 - 2 y_77_ * y_76_ + 1 y_77_ ^ 2 ] >= 35819.19
quadratic_ranged_358_lb: [ 1 x_4_ ^ 2 - 2 x_78_ * x_4_ + 1 x_78_ ^ 2 + 1 y_4_ ^ 2 - 2 y_78_ * y_4_ + 1 y_78_ ^ 2 ] >= 26757.72
quadratic_ranged_359_lb: [ 1 x_19_ ^ 2 - 2 x_78_ * x_19_ + 1 x_78_ ^ 2 + 1 y_19_ ^ 2 - 2 y_78_ * y_19_ + 1 y_78_ ^ 2 ] >= 8022.96
quadratic_ranged_360_lb: [ 1 x_23_ ^ 2 - 2 x_78_ * x_23_ + 1 x_78_ ^ 2 + 1 y_23_ ^ 2 - 2 y_78_ * y_23_ + 1 y_78_ ^ 2 ] >= 8202.15
quadratic_ranged_361_lb: [ 1 x_42_ ^ 2 - 2 x_78_ * x_42_ + 1 x_78_ ^ 2 + 1 y_42_ ^ 2 - 2 y_78_ * y_42_ + 1 y_78_ ^ 2 ] >= 16830.99
quadratic_ranged_362_lb: [ 1 x_55_ ^ 2 - 2 x_78_ * x_55_ + 1 x_78_ ^ 2 + 1 y_55_ ^ 2 - 2 y_78_ * y_55_ + 1 y_78_ ^ 2 ] >= 14180.76
quadratic_ranged_363_lb: [ 1 x_70_ ^ 2 - 2 x_78_ * x_70_ + 1 x_78_ ^ 2 + 1 y_70_ ^ 2 - 2 y_78_ * y_70_ + 1 y_78_ ^ 2 ] >= 9672.3
quadratic_ranged_364_lb: [ 1 x_77_ ^ 2 - 2 x_78_ * x_77_ + 1 x_78_ ^ 2 + 1 y_77_ ^ 2 - 2 y_78_ * y_77_ + 1 y_78_ ^ 2 ] >= 8815.95
quadratic_ranged_365_lb: [ 1 x_4_ ^ 2 - 2 x_79_ * x_4_ + 1 x_79_ ^ 2 + 1 y_4_ ^ 2 - 2 y_79_ * y_4_ + 1 y_79_ ^ 2 ] >= 24346.079999999998
quadratic_ranged_366_lb: [ 1 x_11_ ^ 2 - 2 x_79_ * x_11_ + 1 x_79_ ^ 2 + 1 y_11_ ^ 2 - 2 y_79_ * y_11_ + 1 y_79_ ^ 2 ] >= 14010.48
quadratic_ranged_367_lb: [ 1 x_14_ ^ 2 - 2 x_79_ * x_14_ + 1 x_79_ ^ 2 + 1 y_14_ ^ 2 - 2 y_79_ * y_14_ + 1 y_79_ ^ 2 ] >= 44349.03
quadratic_ranged_368_lb: [ 1 x_17_ ^ 2 - 2 x_79_ * x_17_ + 1 x_79_ ^ 2 + 1 y_17_ ^ 2 - 2 y_79_ * y_17_ + 1 y_79_ ^ 2 ] >= 19871.28
quadratic_ranged_369_lb: [ 1 x_25_ ^ 2 - 2 x_79_ * x_25_ + 1 x_79_ ^ 2 + 1 y_25_ ^ 2 - 2 y_79_ * y_25_ + 1 y_79_ ^ 2 ] >= 7106.22
quadratic_ranged_370_lb: [ 1 x_31_ ^ 2 - 2 x_79_ * x_31_ + 1 x_79_ ^ 2 + 1 y_31_ ^ 2 - 2 y_79_ * y_31_ + 1 y_79_ ^ 2 ] >= 48234.78
quadratic_ranged_371_lb: [ 1 x_35_ ^ 2 - 2 x_79_ * x_35_ + 1 x_79_ ^ 2 + 1 y_35_ ^ 2 - 2 y_79_ * y_35_ + 1 y_79_ ^ 2 ] >= 6781.5
quadratic_ranged_372_lb: [ 1 x_36_ ^ 2 - 2 x_79_ * x_36_ + 1 x_79_ ^ 2 + 1 y_36_ ^ 2 - 2 y_79_ * y_36_ + 1 y_79_ ^ 2 ] >= 40622.67
quadratic_ranged_373_lb: [ 1 x_44_ ^ 2 - 2 x_79_ * x_44_ + 1 x_79_ ^ 2 + 1 y_44_ ^ 2 - 2 y_79_ * y_44_ + 1 y_79_ ^ 2 ] >= 23627.34
quadratic_ranged_374_lb: [ 1 x_49_ ^ 2 - 2 x_79_ * x_49_ + 1 x_79_ ^ 2 + 1 y_49_ ^ 2 - 2 y_79_ * y_49_ + 1 y_79_ ^ 2 ] >= 792
quadratic_ranged_375_lb: [ 1 x_53_ ^ 2 - 2 x_79_ * x_53_ + 1 x_79_ ^ 2 + 1 y_53_ ^ 2 - 2 y_79_ * y_53_ + 1 y_79_ ^ 2 ] >= 18684.27
quadratic_ranged_376_lb: [ 1 x_54_ ^ 2 - 2 x_79_ * x_54_ + 1 x_79_ ^ 2 + 1 y_54_ ^ 2 - 2 y_79_ * y_54_ + 1 y_79_ ^ 2 ] >= 9675.27
quadratic_ranged_377_lb: [ 1 x_70_ ^ 2 - 2 x_79_ * x_70_ + 1 x_79_ ^ 2 + 1 y_70_ ^ 2 - 2 y_79_ * y_70_ + 1 y_79_ ^ 2 ] >= 40259.34
quadratic_ranged_378_lb: [ 1 x_74_ ^ 2 - 2 x_79_ * x_74_ + 1 x_79_ ^ 2 + 1 y_74_ ^ 2 - 2 y_79_ * y_74_ + 1 y_79_ ^ 2 ] >= 51830.46
quadratic_ranged_379_lb: [ 1 x_78_ ^ 2 - 2 x_79_ * x_78_ + 1 x_79_ ^ 2 + 1 y_78_ ^ 2 - 2 y_79_ * y_78_ + 1 y_79_ ^ 2 ] >= 25015.32
quadratic_ranged_380_lb: [ 1 x_18_ ^ 2 - 2 x_80_ * x_18_ + 1 x_80_ ^ 2 + 1 y_18_ ^ 2 - 2 y_80_ * y_18_ + 1 y_80_ ^ 2 ] >= 21708.72
quadratic_ranged_381_lb: [ 1 x_36_ ^ 2 - 2 x_80_ * x_36_ + 1 x_80_ ^ 2 + 1 y_36_ ^ 2 - 2 y_80_ * y_36_ + 1 y_80_ ^ 2 ] >= 13648.14
quadratic_ranged_382_lb: [ 1 x_37_ ^ 2 - 2 x_80_ * x_37_ + 1 x_80_ ^ 2 + 1 y_37_ ^ 2 - 2 y_80_ * y_37_ + 1 y_80_ ^ 2 ] >= 14114.43
quadratic_ranged_383_lb: [ 1 x_41_ ^ 2 - 2 x_80_ * x_41_ + 1 x_80_ ^ 2 + 1 y_41_ ^ 2 - 2 y_80_ * y_41_ + 1 y_80_ ^ 2 ] >= 8851.59
quadratic_ranged_384_lb: [ 1 x_58_ ^ 2 - 2 x_80_ * x_58_ + 1 x_80_ ^ 2 + 1 y_58_ ^ 2 - 2 y_80_ * y_58_ + 1 y_80_ ^ 2 ] >= 21138.48
quadratic_ranged_385_lb: [ 1 x_73_ ^ 2 - 2 x_80_ * x_73_ + 1 x_80_ ^ 2 + 1 y_73_ ^ 2 - 2 y_80_ * y_73_ + 1 y_80_ ^ 2 ] >= 6004.35
quadratic_ranged_386_lb: [ 1 x_79_ ^ 2 - 2 x_80_ * x_79_ + 1 x_80_ ^ 2 + 1 y_79_ ^ 2 - 2 y_80_ * y_79_ + 1 y_80_ ^ 2 ] >= 10645.47
quadratic_ranged_387_lb: [ 1 x_12_ ^ 2 - 2 x_81_ * x_12_ + 1 x_81_ ^ 2 + 1 y_12_ ^ 2 - 2 y_81_ * y_12_ + 1 y_81_ ^ 2 ] >= 5712.3
quadratic_ranged_388_lb: [ 1 x_15_ ^ 2 - 2 x_81_ * x_15_ + 1 x_81_ ^ 2 + 1 y_15_ ^ 2 - 2 y_81_ * y_15_ + 1 y_81_ ^ 2 ] >= 4756.95
quadratic_ranged_389_lb: [ 1 x_26_ ^ 2 - 2 x_81_ * x_26_ + 1 x_81_ ^ 2 + 1 y_26_ ^ 2 - 2 y_81_ * y_26_ + 1 y_81_ ^ 2 ] >= 10521.72
quadratic_ranged_390_lb: [ 1 x_47_ ^ 2 - 2 x_81_ * x_47_ + 1 x_81_ ^ 2 + 1 y_47_ ^ 2 - 2 y_81_ * y_47_ + 1 y_81_ ^ 2 ] >= 912.78
quadratic_ranged_391_lb: [ 1 x_51_ ^ 2 - 2 x_81_ * x_51_ + 1 x_81_ ^ 2 + 1 y_51_ ^ 2 - 2 y_81_ * y_51_ + 1 y_81_ ^ 2 ] >= 3668.94
quadratic_ranged_392_lb: [ 1 x_52_ ^ 2 - 2 x_81_ * x_52_ + 1 x_81_ ^ 2 + 1 y_52_ ^ 2 - 2 y_81_ * y_52_ + 1 y_81_ ^ 2 ] >= 4880.7
quadratic_ranged_393_lb: [ 1 x_67_ ^ 2 - 2 x_81_ * x_67_ + 1 x_81_ ^ 2 + 1 y_67_ ^ 2 - 2 y_81_ * y_67_ + 1 y_81_ ^ 2 ] >= 13615.47
quadratic_ranged_394_lb: [ 1 x_75_ ^ 2 - 2 x_81_ * x_75_ + 1 x_81_ ^ 2 + 1 y_75_ ^ 2 - 2 y_81_ * y_75_ + 1 y_81_ ^ 2 ] >= 1969.11
quadratic_ranged_395_lb: [ 1 x_80_ ^ 2 - 2 x_81_ * x_80_ + 1 x_81_ ^ 2 + 1 y_80_ ^ 2 - 2 y_81_ * y_80_ + 1 y_81_ ^ 2 ] >= 6657.75
quadratic_ranged_396_lb: [ 1 x_21_ ^ 2 - 2 x_82_ * x_21_ + 1 x_82_ ^ 2 + 1 y_21_ ^ 2 - 2 y_82_ * y_21_ + 1 y_82_ ^ 2 ] >= 12703.68
quadratic_ranged_397_lb: [ 1 x_35_ ^ 2 - 2 x_82_ * x_35_ + 1 x_82_ ^ 2 + 1 y_35_ ^ 2 - 2 y_82_ * y_35_ + 1 y_82_ ^ 2 ] >= 5167.8
quadratic_ranged_398_lb: [ 1 x_48_ ^ 2 - 2 x_82_ * x_48_ + 1 x_82_ ^ 2 + 1 y_48_ ^ 2 - 2 y_82_ * y_48_ + 1 y_82_ ^ 2 ] >= 895.95
quadratic_ranged_399_lb: [ 1 x_49_ ^ 2 - 2 x_82_ * x_49_ + 1 x_82_ ^ 2 + 1 y_49_ ^ 2 - 2 y_82_ * y_49_ + 1 y_82_ ^ 2 ] >= 18249.66
quadratic_ranged_400_lb: [ 1 x_53_ ^ 2 - 2 x_82_ * x_53_ + 1 x_82_ ^ 2 + 1 y_53_ ^ 2 - 2 y_82_ * y_53_ + 1 y_82_ ^ 2 ] >= 12261.15
quadratic_ranged_401_lb: [ 1 x_62_ ^ 2 - 2 x_82_ * x_62_ + 1 x_82_ ^ 2 + 1 y_62_ ^ 2 - 2 y_82_ * y_62_ + 1 y_82_ ^ 2 ] >= 5374.71
quadratic_ranged_402_lb: [ 1 x_71_ ^ 2 - 2 x_82_ * x_71_ + 1 x_82_ ^ 2 + 1 y_71_ ^ 2 - 2 y_82_ * y_71_ + 1 y_82_ ^ 2 ] >= 1327.59
quadratic_ranged_403_lb: [ 1 x_81_ ^ 2 - 2 x_82_ * x_81_ + 1 x_82_ ^ 2 + 1 y_81_ ^ 2 - 2 y_82_ * y_81_ + 1 y_82_ ^ 2 ] >= 7385.4
quadratic_ranged_404_lb: [ 1 x_21_ ^ 2 - 2 x_83_ * x_21_ + 1 x_83_ ^ 2 + 1 y_21_ ^ 2 - 2 y_83_ * y_21_ + 1 y_83_ ^ 2 ] >= 11693.88
quadratic_ranged_405_lb: [ 1 x_52_ ^ 2 - 2 x_83_ * x_52_ + 1 x_83_ ^ 2 + 1 y_52_ ^ 2 - 2 y_83_ * y_52_ + 1 y_83_ ^ 2 ] >= 6187.5
quadratic_ranged_406_lb: [ 1 x_68_ ^ 2 - 2 x_83_ * x_68_ + 1 x_83_ ^ 2 + 1 y_68_ ^ 2 - 2 y_83_ * y_68_ + 1 y_83_ ^ 2 ] >= 50563.26
quadratic_ranged_407_lb: [ 1 x_82_ ^ 2 - 2 x_83_ * x_82_ + 1 x_83_ ^ 2 + 1 y_82_ ^ 2 - 2 y_83_ * y_82_ + 1 y_83_ ^ 2 ] >= 12438.36
quadratic_ranged_408_lb: [ 1 x_1_ ^ 2 - 2 x_84_ * x_1_ + 1 x_84_ ^ 2 + 1 y_1_ ^ 2 - 2 y_84_ * y_1_ + 1 y_84_ ^ 2 ] >= 4350.06
quadratic_ranged_409_lb: [ 1 x_5_ ^ 2 - 2 x_84_ * x_5_ + 1 x_84_ ^ 2 + 1 y_5_ ^ 2 - 2 y_84_ * y_5_ + 1 y_84_ ^ 2 ] >= 4087.71
quadratic_ranged_410_lb: [ 1 x_12_ ^ 2 - 2 x_84_ * x_12_ + 1 x_84_ ^ 2 + 1 y_12_ ^ 2 - 2 y_84_ * y_12_ + 1 y_84_ ^ 2 ] >= 6504.3
quadratic_ranged_411_lb: [ 1 x_13_ ^ 2 - 2 x_84_ * x_13_ + 1 x_84_ ^ 2 + 1 y_13_ ^ 2 - 2 y_84_ * y_13_ + 1 y_84_ ^ 2 ] >= 2861.1
quadratic_ranged_412_lb: [ 1 x_19_ ^ 2 - 2 x_84_ * x_19_ + 1 x_84_ ^ 2 + 1 y_19_ ^ 2 - 2 y_84_ * y_19_ + 1 y_84_ ^ 2 ] >= 6068.7
quadratic_ranged_413_lb: [ 1 x_54_ ^ 2 - 2 x_84_ * x_54_ + 1 x_84_ ^ 2 + 1 y_54_ ^ 2 - 2 y_84_ * y_54_ + 1 y_84_ ^ 2 ] >= 1501.83
quadratic_ranged_414_lb: [ 1 x_57_ ^ 2 - 2 x_84_ * x_57_ + 1 x_84_ ^ 2 + 1 y_57_ ^ 2 - 2 y_84_ * y_57_ + 1 y_84_ ^ 2 ] >= 9924.75
quadratic_ranged_415_lb: [ 1 x_58_ ^ 2 - 2 x_84_ * x_58_ + 1 x_84_ ^ 2 + 1 y_58_ ^ 2 - 2 y_84_ * y_58_ + 1 y_84_ ^ 2 ] >= 6063.75
quadratic_ranged_416_lb: [ 1 x_63_ ^ 2 - 2 x_84_ * x_63_ + 1 x_84_ ^ 2 + 1 y_63_ ^ 2 - 2 y_84_ * y_63_ + 1 y_84_ ^ 2 ] >= 2226.5099999999998
quadratic_ranged_417_lb: [ 1 x_75_ ^ 2 - 2 x_84_ * x_75_ + 1 x_84_ ^ 2 + 1 y_75_ ^ 2 - 2 y_84_ * y_75_ + 1 y_84_ ^ 2 ] >= 1592.91
quadratic_ranged_418_lb: [ 1 x_78_ ^ 2 - 2 x_84_ * x_78_ + 1 x_84_ ^ 2 + 1 y_78_ ^ 2 - 2 y_84_ * y_78_ + 1 y_84_ ^ 2 ] >= 7225.0199999999995
quadratic_ranged_419_lb: [ 1 x_83_ ^ 2 - 2 x_84_ * x_83_ + 1 x_84_ ^ 2 + 1 y_83_ ^ 2 - 2 y_84_ * y_83_ + 1 y_84_ ^ 2 ] >= 11444.4
quadratic_ranged_420_lb: [ 1 x_1_ ^ 2 - 2 x_85_ * x_1_ + 1 x_85_ ^ 2 + 1 y_1_ ^ 2 - 2 y_85_ * y_1_ + 1 y_85_ ^ 2 ] >= 7382.43
quadratic_ranged_421_lb: [ 1 x_15_ ^ 2 - 2 x_85_ * x_15_ + 1 x_85_ ^ 2 + 1 y_15_ ^ 2 - 2 y_85_ * y_15_ + 1 y_85_ ^ 2 ] >= 4831.2
quadratic_ranged_422_lb: [ 1 x_16_ ^ 2 - 2 x_85_ * x_16_ + 1 x_85_ ^ 2 + 1 y_16_ ^ 2 - 2 y_85_ * y_16_ + 1 y_85_ ^ 2 ] >= 35006.4
quadratic_ranged_423_lb: [ 1 x_33_ ^ 2 - 2 x_85_ * x_33_ + 1 x_85_ ^ 2 + 1 y_33_ ^ 2 - 2 y_85_ * y_33_ + 1 y_85_ ^ 2 ] >= 5338.08
quadratic_ranged_424_lb: [ 1 x_34_ ^ 2 - 2 x_85_ * x_34_ + 1 x_85_ ^ 2 + 1 y_34_ ^ 2 - 2 y_85_ * y_34_ + 1 y_85_ ^ 2 ] >= 4574.79
quadratic_ranged_425_lb: [ 1 x_36_ ^ 2 - 2 x_85_ * x_36_ + 1 x_85_ ^ 2 + 1 y_36_ ^ 2 - 2 y_85_ * y_36_ + 1 y_85_ ^ 2 ] >= 17697.24
quadratic_ranged_426_lb: [ 1 x_39_ ^ 2 - 2 x_85_ * x_39_ + 1 x_85_ ^ 2 + 1 y_39_ ^ 2 - 2 y_85_ * y_39_ + 1 y_85_ ^ 2 ] >= 431.64
quadratic_ranged_427_lb: [ 1 x_57_ ^ 2 - 2 x_85_ * x_57_ + 1 x_85_ ^ 2 + 1 y_57_ ^ 2 - 2 y_85_ * y_57_ + 1 y_85_ ^ 2 ] >= 17465.579999999998
quadratic_ranged_428_lb: [ 1 x_60_ ^ 2 - 2 x_85_ * x_60_ + 1 x_85_ ^ 2 + 1 y_60_ ^ 2 - 2 y_85_ * y_60_ + 1 y_85_ ^ 2 ] >= 4429.26
quadratic_ranged_429_lb: [ 1 x_66_ ^ 2 - 2 x_85_ * x_66_ + 1 x_85_ ^ 2 + 1 y_66_ ^ 2 - 2 y_85_ * y_66_ + 1 y_85_ ^ 2 ] >= 6906.24
quadratic_ranged_430_lb: [ 1 x_82_ ^ 2 - 2 x_85_ * x_82_ + 1 x_85_ ^ 2 + 1 y_82_ ^ 2 - 2 y_85_ * y_82_ + 1 y_85_ ^ 2 ] >= 9885.15
quadratic_ranged_431_lb: [ 1 x_84_ ^ 2 - 2 x_85_ * x_84_ + 1 x_85_ ^ 2 + 1 y_84_ ^ 2 - 2 y_85_ * y_84_ + 1 y_85_ ^ 2 ] >= 4499.55
quadratic_ranged_432_lb: [ 1 x_2_ ^ 2 - 2 x_86_ * x_2_ + 1 x_86_ ^ 2 + 1 y_2_ ^ 2 - 2 y_86_ * y_2_ + 1 y_86_ ^ 2 ] >= 4676.76
quadratic_ranged_433_lb: [ 1 x_11_ ^ 2 - 2 x_86_ * x_11_ + 1 x_86_ ^ 2 + 1 y_11_ ^ 2 - 2 y_86_ * y_11_ + 1 y_86_ ^ 2 ] >= 2004.75
quadratic_ranged_434_lb: [ 1 x_30_ ^ 2 - 2 x_86_ * x_30_ + 1 x_86_ ^ 2 + 1 y_30_ ^ 2 - 2 y_86_ * y_30_ + 1 y_86_ ^ 2 ] >= 10700.91
quadratic_ranged_435_lb: [ 1 x_48_ ^ 2 - 2 x_86_ * x_48_ + 1 x_86_ ^ 2 + 1 y_48_ ^ 2 - 2 y_86_ * y_48_ + 1 y_86_ ^ 2 ] >= 9603
quadratic_ranged_436_lb: [ 1 x_50_ ^ 2 - 2 x_86_ * x_50_ + 1 x_86_ ^ 2 + 1 y_50_ ^ 2 - 2 y_86_ * y_50_ + 1 y_86_ ^ 2 ] >= 1599.84
quadratic_ranged_437_lb: [ 1 x_56_ ^ 2 - 2 x_86_ * x_56_ + 1 x_86_ ^ 2 + 1 y_56_ ^ 2 - 2 y_86_ * y_56_ + 1 y_86_ ^ 2 ] >= 2663.1
quadratic_ranged_438_lb: [ 1 x_62_ ^ 2 - 2 x_86_ * x_62_ + 1 x_86_ ^ 2 + 1 y_62_ ^ 2 - 2 y_86_ * y_62_ + 1 y_86_ ^ 2 ] >= 5860.8
quadratic_ranged_439_lb: [ 1 x_72_ ^ 2 - 2 x_86_ * x_72_ + 1 x_86_ ^ 2 + 1 y_72_ ^ 2 - 2 y_86_ * y_72_ + 1 y_86_ ^ 2 ] >= 11132.55
quadratic_ranged_440_lb: [ 1 x_76_ ^ 2 - 2 x_86_ * x_76_ + 1 x_86_ ^ 2 + 1 y_76_ ^ 2 - 2 y_86_ * y_76_ + 1 y_86_ ^ 2 ] >= 11013.75
quadratic_ranged_441_lb: [ 1 x_85_ ^ 2 - 2 x_86_ * x_85_ + 1 x_86_ ^ 2 + 1 y_85_ ^ 2 - 2 y_86_ * y_85_ + 1 y_86_ ^ 2 ] >= 1673.1
quadratic_ranged_442_lb: [ 1 x_9_ ^ 2 - 2 x_87_ * x_9_ + 1 x_87_ ^ 2 + 1 y_9_ ^ 2 - 2 y_87_ * y_9_ + 1 y_87_ ^ 2 ] >= 29348.55
quadratic_ranged_443_lb: [ 1 x_28_ ^ 2 - 2 x_87_ * x_28_ + 1 x_87_ ^ 2 + 1 y_28_ ^ 2 - 2 y_87_ * y_28_ + 1 y_87_ ^ 2 ] >= 25832.07
quadratic_ranged_444_lb: [ 1 x_31_ ^ 2 - 2 x_87_ * x_31_ + 1 x_87_ ^ 2 + 1 y_31_ ^ 2 - 2 y_87_ * y_31_ + 1 y_87_ ^ 2 ] >= 11563.2
quadratic_ranged_445_lb: [ 1 x_39_ ^ 2 - 2 x_87_ * x_39_ + 1 x_87_ ^ 2 + 1 y_39_ ^ 2 - 2 y_87_ * y_39_ + 1 y_87_ ^ 2 ] >= 6336.99
quadratic_ranged_446_lb: [ 1 x_42_ ^ 2 - 2 x_87_ * x_42_ + 1 x_87_ ^ 2 + 1 y_42_ ^ 2 - 2 y_87_ * y_42_ + 1 y_87_ ^ 2 ] >= 20787.03
quadratic_ranged_447_lb: [ 1 x_44_ ^ 2 - 2 x_87_ * x_44_ + 1 x_87_ ^ 2 + 1 y_44_ ^ 2 - 2 y_87_ * y_44_ + 1 y_87_ ^ 2 ] >= 12454.2
quadratic_ranged_448_lb: [ 1 x_45_ ^ 2 - 2 x_87_ * x_45_ + 1 x_87_ ^ 2 + 1 y_45_ ^ 2 - 2 y_87_ * y_45_ + 1 y_87_ ^ 2 ] >= 1221.66
quadratic_ranged_449_lb: [ 1 x_47_ ^ 2 - 2 x_87_ * x_47_ + 1 x_87_ ^ 2 + 1 y_47_ ^ 2 - 2 y_87_ * y_47_ + 1 y_87_ ^ 2 ] >= 10012.86
quadratic_ranged_450_lb: [ 1 x_64_ ^ 2 - 2 x_87_ * x_64_ + 1 x_87_ ^ 2 + 1 y_64_ ^ 2 - 2 y_87_ * y_64_ + 1 y_87_ ^ 2 ] >= 21987.9
quadratic_ranged_451_lb: [ 1 x_69_ ^ 2 - 2 x_87_ * x_69_ + 1 x_87_ ^ 2 + 1 y_69_ ^ 2 - 2 y_87_ * y_69_ + 1 y_87_ ^ 2 ] >= 8858.52
quadratic_ranged_452_lb: [ 1 x_77_ ^ 2 - 2 x_87_ * x_77_ + 1 x_87_ ^ 2 + 1 y_77_ ^ 2 - 2 y_87_ * y_77_ + 1 y_87_ ^ 2 ] >= 12225.51
quadratic_ranged_453_lb: [ 1 x_78_ ^ 2 - 2 x_87_ * x_78_ + 1 x_87_ ^ 2 + 1 y_78_ ^ 2 - 2 y_87_ * y_78_ + 1 y_87_ ^ 2 ] >= 302.94
quadratic_ranged_454_lb: [ 1 x_86_ ^ 2 - 2 x_87_ * x_86_ + 1 x_87_ ^ 2 + 1 y_86_ ^ 2 - 2 y_87_ * y_86_ + 1 y_87_ ^ 2 ] >= 9409.95
quadratic_ranged_455_lb: [ 1 x_2_ ^ 2 - 2 x_88_ * x_2_ + 1 x_88_ ^ 2 + 1 y_2_ ^ 2 - 2 y_88_ * y_2_ + 1 y_88_ ^ 2 ] >= 23463.99
quadratic_ranged_456_lb: [ 1 x_10_ ^ 2 - 2 x_88_ * x_10_ + 1 x_88_ ^ 2 + 1 y_10_ ^ 2 - 2 y_88_ * y_10_ + 1 y_88_ ^ 2 ] >= 25222.23
quadratic_ranged_457_lb: [ 1 x_19_ ^ 2 - 2 x_88_ * x_19_ + 1 x_88_ ^ 2 + 1 y_19_ ^ 2 - 2 y_88_ * y_19_ + 1 y_88_ ^ 2 ] >= 16236
quadratic_ranged_458_lb: [ 1 x_28_ ^ 2 - 2 x_88_ * x_28_ + 1 x_88_ ^ 2 + 1 y_28_ ^ 2 - 2 y_88_ * y_28_ + 1 y_88_ ^ 2 ] >= 33288.75
quadratic_ranged_459_lb: [ 1 x_44_ ^ 2 - 2 x_88_ * x_44_ + 1 x_88_ ^ 2 + 1 y_44_ ^ 2 - 2 y_88_ * y_44_ + 1 y_88_ ^ 2 ] >= 16475.579999999998
quadratic_ranged_460_lb: [ 1 x_45_ ^ 2 - 2 x_88_ * x_45_ + 1 x_88_ ^ 2 + 1 y_45_ ^ 2 - 2 y_88_ * y_45_ + 1 y_88_ ^ 2 ] >= 1683
quadratic_ranged_461_lb: [ 1 x_66_ ^ 2 - 2 x_88_ * x_66_ + 1 x_88_ ^ 2 + 1 y_66_ ^ 2 - 2 y_88_ * y_66_ + 1 y_88_ ^ 2 ] >= 2963.07
quadratic_ranged_462_lb: [ 1 x_83_ ^ 2 - 2 x_88_ * x_83_ + 1 x_88_ ^ 2 + 1 y_83_ ^ 2 - 2 y_88_ * y_83_ + 1 y_88_ ^ 2 ] >= 22859.1
quadratic_ranged_463_lb: [ 1 x_87_ ^ 2 - 2 x_88_ * x_87_ + 1 x_88_ ^ 2 + 1 y_87_ ^ 2 - 2 y_88_ * y_87_ + 1 y_88_ ^ 2 ] >= 532.62
quadratic_ranged_464_lb: [ 1 x_1_ ^ 2 - 2 x_89_ * x_1_ + 1 x_89_ ^ 2 + 1 y_1_ ^ 2 - 2 y_89_ * y_1_ + 1 y_89_ ^ 2 ] >= 6440.94
quadratic_ranged_465_lb: [ 1 x_2_ ^ 2 - 2 x_89_ * x_2_ + 1 x_89_ ^ 2 + 1 y_2_ ^ 2 - 2 y_89_ * y_2_ + 1 y_89_ ^ 2 ] >= 7346.79
quadratic_ranged_466_lb: [ 1 x_14_ ^ 2 - 2 x_89_ * x_14_ + 1 x_89_ ^ 2 + 1 y_14_ ^ 2 - 2 y_89_ * y_14_ + 1 y_89_ ^ 2 ] >= 14221.35
quadratic_ranged_467_lb: [ 1 x_28_ ^ 2 - 2 x_89_ * x_28_ + 1 x_89_ ^ 2 + 1 y_28_ ^ 2 - 2 y_89_ * y_28_ + 1 y_89_ ^ 2 ] >= 18906.03
quadratic_ranged_468_lb: [ 1 x_39_ ^ 2 - 2 x_89_ * x_39_ + 1 x_89_ ^ 2 + 1 y_39_ ^ 2 - 2 y_89_ * y_39_ + 1 y_89_ ^ 2 ] >= 725.67
quadratic_ranged_469_lb: [ 1 x_88_ ^ 2 - 2 x_89_ * x_88_ + 1 x_89_ ^ 2 + 1 y_88_ ^ 2 - 2 y_89_ * y_88_ + 1 y_89_ ^ 2 ] >= 8555.58
quadratic_ranged_470_lb: [ 1 x_9_ ^ 2 - 2 x_90_ * x_9_ + 1 x_90_ ^ 2 + 1 y_9_ ^ 2 - 2 y_90_ * y_9_ + 1 y_90_ ^ 2 ] >= 22576.95
quadratic_ranged_471_lb: [ 1 x_18_ ^ 2 - 2 x_90_ * x_18_ + 1 x_90_ ^ 2 + 1 y_18_ ^ 2 - 2 y_90_ * y_18_ + 1 y_90_ ^ 2 ] >= 523.71
quadratic_ranged_472_lb: [ 1 x_27_ ^ 2 - 2 x_90_ * x_27_ + 1 x_90_ ^ 2 + 1 y_27_ ^ 2 - 2 y_90_ * y_27_ + 1 y_90_ ^ 2 ] >= 1728.54
quadratic_ranged_473_lb: [ 1 x_43_ ^ 2 - 2 x_90_ * x_43_ + 1 x_90_ ^ 2 + 1 y_43_ ^ 2 - 2 y_90_ * y_43_ + 1 y_90_ ^ 2 ] >= 2496.78
quadratic_ranged_474_lb: [ 1 x_51_ ^ 2 - 2 x_90_ * x_51_ + 1 x_90_ ^ 2 + 1 y_51_ ^ 2 - 2 y_90_ * y_51_ + 1 y_90_ ^ 2 ] >= 15923.16
quadratic_ranged_475_lb: [ 1 x_68_ ^ 2 - 2 x_90_ * x_68_ + 1 x_90_ ^ 2 + 1 y_68_ ^ 2 - 2 y_90_ * y_68_ + 1 y_90_ ^ 2 ] >= 3900.6
quadratic_ranged_476_lb: [ 1 x_72_ ^ 2 - 2 x_90_ * x_72_ + 1 x_90_ ^ 2 + 1 y_72_ ^ 2 - 2 y_90_ * y_72_ + 1 y_90_ ^ 2 ] >= 17085.42
quadratic_ranged_477_lb: [ 1 x_89_ ^ 2 - 2 x_90_ * x_89_ + 1 x_90_ ^ 2 + 1 y_89_ ^ 2 - 2 y_90_ * y_89_ + 1 y_90_ ^ 2 ] >= 8959.5
quadratic_ranged_478_lb: [ 1 x_4_ ^ 2 - 2 x_91_ * x_4_ + 1 x_91_ ^ 2 + 1 y_4_ ^ 2 - 2 y_91_ * y_4_ + 1 y_91_ ^ 2 ] >= 4638.15
quadratic_ranged_479_lb: [ 1 x_5_ ^ 2 - 2 x_91_ * x_5_ + 1 x_91_ ^ 2 + 1 y_5_ ^ 2 - 2 y_91_ * y_5_ + 1 y_91_ ^ 2 ] >= 14638.14
quadratic_ranged_480_lb: [ 1 x_11_ ^ 2 - 2 x_91_ * x_11_ + 1 x_91_ ^ 2 + 1 y_11_ ^ 2 - 2 y_91_ * y_11_ + 1 y_91_ ^ 2 ] >= 5481.63
quadratic_ranged_481_lb: [ 1 x_28_ ^ 2 - 2 x_91_ * x_28_ + 1 x_91_ ^ 2 + 1 y_28_ ^ 2 - 2 y_91_ * y_28_ + 1 y_91_ ^ 2 ] >= 2174.04
quadratic_ranged_482_lb: [ 1 x_31_ ^ 2 - 2 x_91_ * x_31_ + 1 x_91_ ^ 2 + 1 y_31_ ^ 2 - 2 y_91_ * y_31_ + 1 y_91_ ^ 2 ] >= 6380.55
quadratic_ranged_483_lb: [ 1 x_63_ ^ 2 - 2 x_91_ * x_63_ + 1 x_91_ ^ 2 + 1 y_63_ ^ 2 - 2 y_91_ * y_63_ + 1 y_91_ ^ 2 ] >= 9638.64
quadratic_ranged_484_lb: [ 1 x_68_ ^ 2 - 2 x_91_ * x_68_ + 1 x_91_ ^ 2 + 1 y_68_ ^ 2 - 2 y_91_ * y_68_ + 1 y_91_ ^ 2 ] >= 9033.75
quadratic_ranged_485_lb: [ 1 x_69_ ^ 2 - 2 x_91_ * x_69_ + 1 x_91_ ^ 2 + 1 y_69_ ^ 2 - 2 y_91_ * y_69_ + 1 y_91_ ^ 2 ] >= 22299.75
quadratic_ranged_486_lb: [ 1 x_77_ ^ 2 - 2 x_91_ * x_77_ + 1 x_91_ ^ 2 + 1 y_77_ ^ 2 - 2 y_91_ * y_77_ + 1 y_91_ ^ 2 ] >= 2312.64
quadratic_ranged_487_lb: [ 1 x_87_ ^ 2 - 2 x_91_ * x_87_ + 1 x_91_ ^ 2 + 1 y_87_ ^ 2 - 2 y_91_ * y_87_ + 1 y_91_ ^ 2 ] >= 21388.95
quadratic_ranged_488_lb: [ 1 x_90_ ^ 2 - 2 x_91_ * x_90_ + 1 x_91_ ^ 2 + 1 y_90_ ^ 2 - 2 y_91_ * y_90_ + 1 y_91_ ^ 2 ] >= 7271.55
quadratic_ranged_489_lb: [ 1 x_13_ ^ 2 - 2 x_92_ * x_13_ + 1 x_92_ ^ 2 + 1 y_13_ ^ 2 - 2 y_92_ * y_13_ + 1 y_92_ ^ 2 ] >= 4139.19
quadratic_ranged_490_lb: [ 1 x_21_ ^ 2 - 2 x_92_ * x_21_ + 1 x_92_ ^ 2 + 1 y_21_ ^ 2 - 2 y_92_ * y_21_ + 1 y_92_ ^ 2 ] >= 3093.75
quadratic_ranged_491_lb: [ 1 x_27_ ^ 2 - 2 x_92_ * x_27_ + 1 x_92_ ^ 2 + 1 y_27_ ^ 2 - 2 y_92_ * y_27_ + 1 y_92_ ^ 2 ] >= 5929.11
quadratic_ranged_492_lb: [ 1 x_43_ ^ 2 - 2 x_92_ * x_43_ + 1 x_92_ ^ 2 + 1 y_43_ ^ 2 - 2 y_92_ * y_43_ + 1 y_92_ ^ 2 ] >= 4911.39
quadratic_ranged_493_lb: [ 1 x_52_ ^ 2 - 2 x_92_ * x_52_ + 1 x_92_ ^ 2 + 1 y_52_ ^ 2 - 2 y_92_ * y_52_ + 1 y_92_ ^ 2 ] >= 5006.43
quadratic_ranged_494_lb: [ 1 x_68_ ^ 2 - 2 x_92_ * x_68_ + 1 x_92_ ^ 2 + 1 y_68_ ^ 2 - 2 y_92_ * y_68_ + 1 y_92_ ^ 2 ] >= 10233.63
quadratic_ranged_495_lb: [ 1 x_87_ ^ 2 - 2 x_92_ * x_87_ + 1 x_92_ ^ 2 + 1 y_87_ ^ 2 - 2 y_92_ * y_87_ + 1 y_92_ ^ 2 ] >= 8606.07
quadratic_ranged_496_lb: [ 1 x_91_ ^ 2 - 2 x_92_ * x_91_ + 1 x_92_ ^ 2 + 1 y_91_ ^ 2 - 2 y_92_ * y_91_ + 1 y_92_ ^ 2 ] >= 3140.2799999999997
quadratic_ranged_497_lb: [ 1 x_4_ ^ 2 - 2 x_93_ * x_4_ + 1 x_93_ ^ 2 + 1 y_4_ ^ 2 - 2 y_93_ * y_4_ + 1 y_93_ ^ 2 ] >= 22897.71
quadratic_ranged_498_lb: [ 1 x_17_ ^ 2 - 2 x_93_ * x_17_ + 1 x_93_ ^ 2 + 1 y_17_ ^ 2 - 2 y_93_ * y_17_ + 1 y_93_ ^ 2 ] >= 7022.07
quadratic_ranged_499_lb: [ 1 x_18_ ^ 2 - 2 x_93_ * x_18_ + 1 x_93_ ^ 2 + 1 y_18_ ^ 2 - 2 y_93_ * y_18_ + 1 y_93_ ^ 2 ] >= 229.68
quadratic_ranged_500_lb: [ 1 x_20_ ^ 2 - 2 x_93_ * x_20_ + 1 x_93_ ^ 2 + 1 y_20_ ^ 2 - 2 y_93_ * y_20_ + 1 y_93_ ^ 2 ] >= 11659.23
quadratic_ranged_501_lb: [ 1 x_21_ ^ 2 - 2 x_93_ * x_21_ + 1 x_93_ ^ 2 + 1 y_21_ ^ 2 - 2 y_93_ * y_21_ + 1 y_93_ ^ 2 ] >= 11465.19
quadratic_ranged_502_lb: [ 1 x_23_ ^ 2 - 2 x_93_ * x_23_ + 1 x_93_ ^ 2 + 1 y_23_ ^ 2 - 2 y_93_ * y_23_ + 1 y_93_ ^ 2 ] >= 29850.48
quadratic_ranged_503_lb: [ 1 x_36_ ^ 2 - 2 x_93_ * x_36_ + 1 x_93_ ^ 2 + 1 y_36_ ^ 2 - 2 y_93_ * y_36_ + 1 y_93_ ^ 2 ] >= 4120.38
quadratic_ranged_504_lb: [ 1 x_44_ ^ 2 - 2 x_93_ * x_44_ + 1 x_93_ ^ 2 + 1 y_44_ ^ 2 - 2 y_93_ * y_44_ + 1 y_93_ ^ 2 ] >= 7299.2699999999995
quadratic_ranged_505_lb: [ 1 x_47_ ^ 2 - 2 x_93_ * x_47_ + 1 x_93_ ^ 2 + 1 y_47_ ^ 2 - 2 y_93_ * y_47_ + 1 y_93_ ^ 2 ] >= 8986.23
quadratic_ranged_506_lb: [ 1 x_56_ ^ 2 - 2 x_93_ * x_56_ + 1 x_93_ ^ 2 + 1 y_56_ ^ 2 - 2 y_93_ * y_56_ + 1 y_93_ ^ 2 ] >= 27302.22
quadratic_ranged_507_lb: [ 1 x_77_ ^ 2 - 2 x_93_ * x_77_ + 1 x_93_ ^ 2 + 1 y_77_ ^ 2 - 2 y_93_ * y_77_ + 1 y_93_ ^ 2 ] >= 1665.18
quadratic_ranged_508_lb: [ 1 x_88_ ^ 2 - 2 x_93_ * x_88_ + 1 x_93_ ^ 2 + 1 y_88_ ^ 2 - 2 y_93_ * y_88_ + 1 y_93_ ^ 2 ] >= 17183.43
quadratic_ranged_509_lb: [ 1 x_92_ ^ 2 - 2 x_93_ * x_92_ + 1 x_93_ ^ 2 + 1 y_92_ ^ 2 - 2 y_93_ * y_92_ + 1 y_93_ ^ 2 ] >= 5926.14
quadratic_ranged_510_lb: [ 1 x_32_ ^ 2 - 2 x_94_ * x_32_ + 1 x_94_ ^ 2 + 1 y_32_ ^ 2 - 2 y_94_ * y_32_ + 1 y_94_ ^ 2 ] >= 43173.9
quadratic_ranged_511_lb: [ 1 x_33_ ^ 2 - 2 x_94_ * x_33_ + 1 x_94_ ^ 2 + 1 y_33_ ^ 2 - 2 y_94_ * y_33_ + 1 y_94_ ^ 2 ] >= 14097.6
quadratic_ranged_512_lb: [ 1 x_52_ ^ 2 - 2 x_94_ * x_52_ + 1 x_94_ ^ 2 + 1 y_52_ ^ 2 - 2 y_94_ * y_52_ + 1 y_94_ ^ 2 ] >= 4341.15
quadratic_ranged_513_lb: [ 1 x_71_ ^ 2 - 2 x_94_ * x_71_ + 1 x_94_ ^ 2 + 1 y_71_ ^ 2 - 2 y_94_ * y_71_ + 1 y_94_ ^ 2 ] >= 2997.72
quadratic_ranged_514_lb: [ 1 x_72_ ^ 2 - 2 x_94_ * x_72_ + 1 x_94_ ^ 2 + 1 y_72_ ^ 2 - 2 y_94_ * y_72_ + 1 y_94_ ^ 2 ] >= 183.15
quadratic_ranged_515_lb: [ 1 x_75_ ^ 2 - 2 x_94_ * x_75_ + 1 x_94_ ^ 2 + 1 y_75_ ^ 2 - 2 y_94_ * y_75_ + 1 y_94_ ^ 2 ] >= 9523.8
quadratic_ranged_516_lb: [ 1 x_86_ ^ 2 - 2 x_94_ * x_86_ + 1 x_94_ ^ 2 + 1 y_86_ ^ 2 - 2 y_94_ * y_86_ + 1 y_94_ ^ 2 ] >= 8460.539999999999
quadratic_ranged_517_lb: [ 1 x_91_ ^ 2 - 2 x_94_ * x_91_ + 1 x_94_ ^ 2 + 1 y_91_ ^ 2 - 2 y_94_ * y_91_ + 1 y_94_ ^ 2 ] >= 1465.2
quadratic_ranged_518_lb: [ 1 x_93_ ^ 2 - 2 x_94_ * x_93_ + 1 x_94_ ^ 2 + 1 y_93_ ^ 2 - 2 y_94_ * y_93_ + 1 y_94_ ^ 2 ] >= 15596.46
quadratic_ranged_519_lb: [ 1 x_40_ ^ 2 - 2 x_95_ * x_40_ + 1 x_95_ ^ 2 + 1 y_40_ ^ 2 - 2 y_95_ * y_40_ + 1 y_95_ ^ 2 ] >= 12721.5
quadratic_ranged_520_lb: [ 1 x_42_ ^ 2 - 2 x_95_ * x_42_ + 1 x_95_ ^ 2 + 1 y_42_ ^ 2 - 2 y_95_ * y_42_ + 1 y_95_ ^ 2 ] >= 285.12
quadratic_ranged_521_lb: [ 1 x_52_ ^ 2 - 2 x_95_ * x_52_ + 1 x_95_ ^ 2 + 1 y_52_ ^ 2 - 2 y_95_ * y_52_ + 1 y_95_ ^ 2 ] >= 222.75
quadratic_ranged_522_lb: [ 1 x_58_ ^ 2 - 2 x_95_ * x_58_ + 1 x_95_ ^ 2 + 1 y_58_ ^ 2 - 2 y_95_ * y_58_ + 1 y_95_ ^ 2 ] >= 14355
quadratic_ranged_523_lb: [ 1 x_67_ ^ 2 - 2 x_95_ * x_67_ + 1 x_95_ ^ 2 + 1 y_67_ ^ 2 - 2 y_95_ * y_67_ + 1 y_95_ ^ 2 ] >= 7700.22
quadratic_ranged_524_lb: [ 1 x_82_ ^ 2 - 2 x_95_ * x_82_ + 1 x_95_ ^ 2 + 1 y_82_ ^ 2 - 2 y_95_ * y_82_ + 1 y_95_ ^ 2 ] >= 618.75
quadratic_ranged_525_lb: [ 1 x_85_ ^ 2 - 2 x_95_ * x_85_ + 1 x_95_ ^ 2 + 1 y_85_ ^ 2 - 2 y_95_ * y_85_ + 1 y_95_ ^ 2 ] >= 5561.82
quadratic_ranged_526_lb: [ 1 x_92_ ^ 2 - 2 x_95_ * x_92_ + 1 x_95_ ^ 2 + 1 y_92_ ^ 2 - 2 y_95_ * y_92_ + 1 y_95_ ^ 2 ] >= 3470.94
quadratic_ranged_527_lb: [ 1 x_94_ ^ 2 - 2 x_95_ * x_94_ + 1 x_95_ ^ 2 + 1 y_94_ ^ 2 - 2 y_95_ * y_94_ + 1 y_95_ ^ 2 ] >= 3019.5
quadratic_ranged_528_lb: [ 1 x_3_ ^ 2 - 2 x_96_ * x_3_ + 1 x_96_ ^ 2 + 1 y_3_ ^ 2 - 2 y_96_ * y_3_ + 1 y_96_ ^ 2 ] >= 43034.31
quadratic_ranged_529_lb: [ 1 x_14_ ^ 2 - 2 x_96_ * x_14_ + 1 x_96_ ^ 2 + 1 y_14_ ^ 2 - 2 y_96_ * y_14_ + 1 y_96_ ^ 2 ] >= 32133.42
quadratic_ranged_530_lb: [ 1 x_19_ ^ 2 - 2 x_96_ * x_19_ + 1 x_96_ ^ 2 + 1 y_19_ ^ 2 - 2 y_96_ * y_19_ + 1 y_96_ ^ 2 ] >= 36983.43
quadratic_ranged_531_lb: [ 1 x_27_ ^ 2 - 2 x_96_ * x_27_ + 1 x_96_ ^ 2 + 1 y_27_ ^ 2 - 2 y_96_ * y_27_ + 1 y_96_ ^ 2 ] >= 35027.19
quadratic_ranged_532_lb: [ 1 x_35_ ^ 2 - 2 x_96_ * x_35_ + 1 x_96_ ^ 2 + 1 y_35_ ^ 2 - 2 y_96_ * y_35_ + 1 y_96_ ^ 2 ] >= 3564.99
quadratic_ranged_533_lb: [ 1 x_40_ ^ 2 - 2 x_96_ * x_40_ + 1 x_96_ ^ 2 + 1 y_40_ ^ 2 - 2 y_96_ * y_40_ + 1 y_96_ ^ 2 ] >= 19691.1
quadratic_ranged_534_lb: [ 1 x_62_ ^ 2 - 2 x_96_ * x_62_ + 1 x_96_ ^ 2 + 1 y_62_ ^ 2 - 2 y_96_ * y_62_ + 1 y_96_ ^ 2 ] >= 25858.8
quadratic_ranged_535_lb: [ 1 x_63_ ^ 2 - 2 x_96_ * x_63_ + 1 x_96_ ^ 2 + 1 y_63_ ^ 2 - 2 y_96_ * y_63_ + 1 y_96_ ^ 2 ] >= 17196.3
quadratic_ranged_536_lb: [ 1 x_65_ ^ 2 - 2 x_96_ * x_65_ + 1 x_96_ ^ 2 + 1 y_65_ ^ 2 - 2 y_96_ * y_65_ + 1 y_96_ ^ 2 ] >= 30454.38
quadratic_ranged_537_lb: [ 1 x_69_ ^ 2 - 2 x_96_ * x_69_ + 1 x_96_ ^ 2 + 1 y_69_ ^ 2 - 2 y_96_ * y_69_ + 1 y_96_ ^ 2 ] >= 7271.55
quadratic_ranged_538_lb: [ 1 x_75_ ^ 2 - 2 x_96_ * x_75_ + 1 x_96_ ^ 2 + 1 y_75_ ^ 2 - 2 y_96_ * y_75_ + 1 y_96_ ^ 2 ] >= 22764.06
quadratic_ranged_539_lb: [ 1 x_80_ ^ 2 - 2 x_96_ * x_80_ + 1 x_96_ ^ 2 + 1 y_80_ ^ 2 - 2 y_96_ * y_80_ + 1 y_96_ ^ 2 ] >= 3663
quadratic_ranged_540_lb: [ 1 x_84_ ^ 2 - 2 x_96_ * x_84_ + 1 x_96_ ^ 2 + 1 y_84_ ^ 2 - 2 y_96_ * y_84_ + 1 y_96_ ^ 2 ] >= 13120.47
quadratic_ranged_541_lb: [ 1 x_85_ ^ 2 - 2 x_96_ * x_85_ + 1 x_96_ ^ 2 + 1 y_85_ ^ 2 - 2 y_96_ * y_85_ + 1 y_96_ ^ 2 ] >= 5276.7
quadratic_ranged_542_lb: [ 1 x_95_ ^ 2 - 2 x_96_ * x_95_ + 1 x_96_ ^ 2 + 1 y_95_ ^ 2 - 2 y_96_ * y_95_ + 1 y_96_ ^ 2 ] >= 8236.8
quadratic_ranged_543_lb: [ 1 x_9_ ^ 2 - 2 x_97_ * x_9_ + 1 x_97_ ^ 2 + 1 y_9_ ^ 2 - 2 y_97_ * y_9_ + 1 y_97_ ^ 2 ] >= 2486.88
quadratic_ranged_544_lb: [ 1 x_20_ ^ 2 - 2 x_97_ * x_20_ + 1 x_97_ ^ 2 + 1 y_20_ ^ 2 - 2 y_97_ * y_20_ + 1 y_97_ ^ 2 ] >= 1715.67
quadratic_ranged_545_lb: [ 1 x_32_ ^ 2 - 2 x_97_ * x_32_ + 1 x_97_ ^ 2 + 1 y_32_ ^ 2 - 2 y_97_ * y_32_ + 1 y_97_ ^ 2 ] >= 33463.98
quadratic_ranged_546_lb: [ 1 x_33_ ^ 2 - 2 x_97_ * x_33_ + 1 x_97_ ^ 2 + 1 y_33_ ^ 2 - 2 y_97_ * y_33_ + 1 y_97_ ^ 2 ] >= 8985.24
quadratic_ranged_547_lb: [ 1 x_47_ ^ 2 - 2 x_97_ * x_47_ + 1 x_97_ ^ 2 + 1 y_47_ ^ 2 - 2 y_97_ * y_47_ + 1 y_97_ ^ 2 ] >= 2357.19
quadratic_ranged_548_lb: [ 1 x_48_ ^ 2 - 2 x_97_ * x_48_ + 1 x_97_ ^ 2 + 1 y_48_ ^ 2 - 2 y_97_ * y_48_ + 1 y_97_ ^ 2 ] >= 1451.34
quadratic_ranged_549_lb: [ 1 x_50_ ^ 2 - 2 x_97_ * x_50_ + 1 x_97_ ^ 2 + 1 y_50_ ^ 2 - 2 y_97_ * y_50_ + 1 y_97_ ^ 2 ] >= 643.5
quadratic_ranged_550_lb: [ 1 x_62_ ^ 2 - 2 x_97_ * x_62_ + 1 x_97_ ^ 2 + 1 y_62_ ^ 2 - 2 y_97_ * y_62_ + 1 y_97_ ^ 2 ] >= 3565.98
quadratic_ranged_551_lb: [ 1 x_63_ ^ 2 - 2 x_97_ * x_63_ + 1 x_97_ ^ 2 + 1 y_63_ ^ 2 - 2 y_97_ * y_63_ + 1 y_97_ ^ 2 ] >= 8890.2
quadratic_ranged_552_lb: [ 1 x_65_ ^ 2 - 2 x_97_ * x_65_ + 1 x_97_ ^ 2 + 1 y_65_ ^ 2 - 2 y_97_ * y_65_ + 1 y_97_ ^ 2 ] >= 14652
quadratic_ranged_553_lb: [ 1 x_75_ ^ 2 - 2 x_97_ * x_75_ + 1 x_97_ ^ 2 + 1 y_75_ ^ 2 - 2 y_97_ * y_75_ + 1 y_97_ ^ 2 ] >= 6312.24
quadratic_ranged_554_lb: [ 1 x_96_ ^ 2 - 2 x_97_ * x_96_ + 1 x_97_ ^ 2 + 1 y_96_ ^ 2 - 2 y_97_ * y_96_ + 1 y_97_ ^ 2 ] >= 12864.06
quadratic_ranged_555_lb: [ 1 x_26_ ^ 2 - 2 x_98_ * x_26_ + 1 x_98_ ^ 2 + 1 y_26_ ^ 2 - 2 y_98_ * y_26_ + 1 y_98_ ^ 2 ] >= 223.74
quadratic_ranged_556_lb: [ 1 x_29_ ^ 2 - 2 x_98_ * x_29_ + 1 x_98_ ^ 2 + 1 y_29_ ^ 2 - 2 y_98_ * y_29_ + 1 y_98_ ^ 2 ] >= 5469.75
quadratic_ranged_557_lb: [ 1 x_37_ ^ 2 - 2 x_98_ * x_37_ + 1 x_98_ ^ 2 + 1 y_37_ ^ 2 - 2 y_98_ * y_37_ + 1 y_98_ ^ 2 ] >= 14242.14
quadratic_ranged_558_lb: [ 1 x_39_ ^ 2 - 2 x_98_ * x_39_ + 1 x_98_ ^ 2 + 1 y_39_ ^ 2 - 2 y_98_ * y_39_ + 1 y_98_ ^ 2 ] >= 19262.43
quadratic_ranged_559_lb: [ 1 x_43_ ^ 2 - 2 x_98_ * x_43_ + 1 x_98_ ^ 2 + 1 y_43_ ^ 2 - 2 y_98_ * y_43_ + 1 y_98_ ^ 2 ] >= 1261.26
quadratic_ranged_560_lb: [ 1 x_58_ ^ 2 - 2 x_98_ * x_58_ + 1 x_98_ ^ 2 + 1 y_58_ ^ 2 - 2 y_98_ * y_58_ + 1 y_98_ ^ 2 ] >= 8970.39
quadratic_ranged_561_lb: [ 1 x_75_ ^ 2 - 2 x_98_ * x_75_ + 1 x_98_ ^ 2 + 1 y_75_ ^ 2 - 2 y_98_ * y_75_ + 1 y_98_ ^ 2 ] >= 4222.35
quadratic_ranged_562_lb: [ 1 x_81_ ^ 2 - 2 x_98_ * x_81_ + 1 x_98_ ^ 2 + 1 y_81_ ^ 2 - 2 y_98_ * y_81_ + 1 y_98_ ^ 2 ] >= 9601.02
quadratic_ranged_563_lb: [ 1 x_88_ ^ 2 - 2 x_98_ * x_88_ + 1 x_98_ ^ 2 + 1 y_88_ ^ 2 - 2 y_98_ * y_88_ + 1 y_98_ ^ 2 ] >= 26809.2
quadratic_ranged_564_lb: [ 1 x_97_ ^ 2 - 2 x_98_ * x_97_ + 1 x_98_ ^ 2 + 1 y_97_ ^ 2 - 2 y_98_ * y_97_ + 1 y_98_ ^ 2 ] >= 4828.23
quadratic_ranged_565_lb: [ 1 x_9_ ^ 2 - 2 x_99_ * x_9_ + 1 x_99_ ^ 2 + 1 y_9_ ^ 2 - 2 y_99_ * y_9_ + 1 y_99_ ^ 2 ] >= 3851.1
quadratic_ranged_566_lb: [ 1 x_19_ ^ 2 - 2 x_99_ * x_19_ + 1 x_99_ ^ 2 + 1 y_19_ ^ 2 - 2 y_99_ * y_19_ + 1 y_99_ ^ 2 ] >= 16692.39
quadratic_ranged_567_lb: [ 1 x_45_ ^ 2 - 2 x_99_ * x_45_ + 1 x_99_ ^ 2 + 1 y_45_ ^ 2 - 2 y_99_ * y_45_ + 1 y_99_ ^ 2 ] >= 6744.87
quadratic_ranged_568_lb: [ 1 x_46_ ^ 2 - 2 x_99_ * x_46_ + 1 x_99_ ^ 2 + 1 y_46_ ^ 2 - 2 y_99_ * y_46_ + 1 y_99_ ^ 2 ] >= 20497.95
quadratic_ranged_569_lb: [ 1 x_52_ ^ 2 - 2 x_99_ * x_52_ + 1 x_99_ ^ 2 + 1 y_52_ ^ 2 - 2 y_99_ * y_52_ + 1 y_99_ ^ 2 ] >= 1759.23
quadratic_ranged_570_lb: [ 1 x_86_ ^ 2 - 2 x_99_ * x_86_ + 1 x_99_ ^ 2 + 1 y_86_ ^ 2 - 2 y_99_ * y_86_ + 1 y_99_ ^ 2 ] >= 863.28
quadratic_ranged_571_lb: [ 1 x_93_ ^ 2 - 2 x_99_ * x_93_ + 1 x_99_ ^ 2 + 1 y_93_ ^ 2 - 2 y_99_ * y_93_ + 1 y_99_ ^ 2 ] >= 21245.4
quadratic_ranged_572_lb: [ 1 x_98_ ^ 2 - 2 x_99_ * x_98_ + 1 x_99_ ^ 2 + 1 y_98_ ^ 2 - 2 y_99_ * y_98_ + 1 y_99_ ^ 2 ] >= 14969.789999999999
quadratic_ranged_573_lb: [ 1 x_1_ ^ 2 - 2 x_100_ * x_1_ + 1 x_100_ ^ 2 + 1 y_1_ ^ 2 - 2 y_100_ * y_1_ + 1 y_100_ ^ 2 ] >= 10385.1
quadratic_ranged_574_lb: [ 1 x_3_ ^ 2 - 2 x_100_ * x_3_ + 1 x_100_ ^ 2 + 1 y_3_ ^ 2 - 2 y_100_ * y_3_ + 1 y_100_ ^ 2 ] >= 45777.6
quadratic_ranged_575_lb: [ 1 x_5_ ^ 2 - 2 x_100_ * x_5_ + 1 x_100_ ^ 2 + 1 y_5_ ^ 2 - 2 y_100_ * y_5_ + 1 y_100_ ^ 2 ] >= 4222.35
quadratic_ranged_576_lb: [ 1 x_16_ ^ 2 - 2 x_100_ * x_16_ + 1 x_100_ ^ 2 + 1 y_16_ ^ 2 - 2 y_100_ * y_16_ + 1 y_100_ ^ 2 ] >= 59602.95
quadratic_ranged_577_lb: [ 1 x_17_ ^ 2 - 2 x_100_ * x_17_ + 1 x_100_ ^ 2 + 1 y_17_ ^ 2 - 2 y_100_ * y_17_ + 1 y_100_ ^ 2 ] >= 16325.1
quadratic_ranged_578_lb: [ 1 x_32_ ^ 2 - 2 x_100_ * x_32_ + 1 x_100_ ^ 2 + 1 y_32_ ^ 2 - 2 y_100_ * y_32_ + 1 y_100_ ^ 2 ] >= 31783.95
quadratic_ranged_579_lb: [ 1 x_57_ ^ 2 - 2 x_100_ * x_57_ + 1 x_100_ ^ 2 + 1 y_57_ ^ 2 - 2 y_100_ * y_57_ + 1 y_100_ ^ 2 ] >= 20529.63
quadratic_ranged_580_lb: [ 1 x_70_ ^ 2 - 2 x_100_ * x_70_ + 1 x_100_ ^ 2 + 1 y_70_ ^ 2 - 2 y_100_ * y_70_ + 1 y_100_ ^ 2 ] >= 33980.76
quadratic_ranged_581_lb: [ 1 x_78_ ^ 2 - 2 x_100_ * x_78_ + 1 x_100_ ^ 2 + 1 y_78_ ^ 2 - 2 y_100_ * y_78_ + 1 y_100_ ^ 2 ] >= 23191.74
quadratic_ranged_582_lb: [ 1 x_89_ ^ 2 - 2 x_100_ * x_89_ + 1 x_100_ ^ 2 + 1 y_89_ ^ 2 - 2 y_100_ * y_89_ + 1 y_100_ ^ 2 ] >= 7813.08
quadratic_ranged_583_lb: [ 1 x_94_ ^ 2 - 2 x_100_ * x_94_ + 1 x_100_ ^ 2 + 1 y_94_ ^ 2 - 2 y_100_ * y_94_ + 1 y_100_ ^ 2 ] >= 25269.75
quadratic_ranged_584_lb: [ 1 x_98_ ^ 2 - 2 x_100_ * x_98_ + 1 x_100_ ^ 2 + 1 y_98_ ^ 2 - 2 y_100_ * y_98_ + 1 y_100_ ^ 2 ] >= 35546.94
quadratic_ranged_585_lb: [ 1 x_99_ ^ 2 - 2 x_100_ * x_99_ + 1 x_100_ ^ 2 + 1 y_99_ ^ 2 - 2 y_100_ * y_99_ + 1 y_100_ ^ 2 ] >= 4479.75
c1_1: 1 x_44_ = 0
c2_1: 1 y_44_ = 0
Bounds
-110 <= x_1_ <= 110
-112 <= x_2_ <= 112
-136 <= x_3_ <= 136
-156 <= x_4_ <= 156
-83 <= x_5_ <= 83
-137 <= x_6_ <= 137
-82 <= x_7_ <= 82
-120 <= x_8_ <= 120
-96 <= x_9_ <= 96
-32 <= x_10_ <= 32
-75 <= x_11_ <= 75
-126 <= x_12_ <= 126
-138 <= x_13_ <= 138
-149 <= x_14_ <= 149
-119 <= x_15_ <= 119
-160 <= x_16_ <= 160
-147 <= x_17_ <= 147
-101 <= x_18_ <= 101
-106 <= x_19_ <= 106
-110 <= x_20_ <= 110
-75 <= x_21_ <= 75
-125 <= x_22_ <= 125
-128 <= x_23_ <= 128
-117 <= x_24_ <= 117
-153 <= x_25_ <= 153
-63 <= x_26_ <= 63
-160 <= x_27_ <= 160
-84 <= x_28_ <= 84
-123 <= x_29_ <= 123
-97 <= x_30_ <= 97
-79 <= x_31_ <= 79
-147 <= x_32_ <= 147
-57 <= x_33_ <= 57
-151 <= x_34_ <= 151
-122 <= x_35_ <= 122
-48 <= x_36_ <= 48
-142 <= x_37_ <= 142
-141 <= x_38_ <= 141
-134 <= x_39_ <= 134
-148 <= x_40_ <= 148
-114 <= x_41_ <= 114
-113 <= x_42_ <= 113
-71 <= x_43_ <= 71
x_44_ = 0
-91 <= x_45_ <= 91
-113 <= x_46_ <= 113
-19 <= x_47_ <= 19
-106 <= x_48_ <= 106
-156 <= x_49_ <= 156
-93 <= x_50_ <= 93
-107 <= x_51_ <= 107
-81 <= x_52_ <= 81
-146 <= x_53_ <= 146
-104 <= x_54_ <= 104
-105 <= x_55_ <= 105
-96 <= x_56_ <= 96
-140 <= x_57_ <= 140
-173 <= x_58_ <= 173
-149 <= x_59_ <= 149
-183 <= x_60_ <= 183
-102 <= x_61_ <= 102
-65 <= x_62_ <= 65
-69 <= x_63_ <= 69
-98 <= x_64_ <= 98
-95 <= x_65_ <= 95
-120 <= x_66_ <= 120
-167 <= x_67_ <= 167
-142 <= x_68_ <= 142
-110 <= x_69_ <= 110
-146 <= x_70_ <= 146
-113 <= x_71_ <= 113
-117 <= x_72_ <= 117
-132 <= x_73_ <= 132
-87 <= x_74_ <= 87
-88 <= x_75_ <= 88
-182 <= x_76_ <= 182
-127 <= x_77_ <= 127
-130 <= x_78_ <= 130
-155 <= x_79_ <= 155
-132 <= x_80_ <= 132
-49 <= x_81_ <= 49
-121 <= x_82_ <= 121
-160 <= x_83_ <= 160
-116 <= x_84_ <= 116
-131 <= x_85_ <= 131
-121 <= x_86_ <= 121
-112 <= x_87_ <= 112
-129 <= x_88_ <= 129
-161 <= x_89_ <= 161
-122 <= x_90_ <= 122
-131 <= x_91_ <= 131
-131 <= x_92_ <= 131
-86 <= x_93_ <= 86
-130 <= x_94_ <= 130
-96 <= x_95_ <= 96
-182 <= x_96_ <= 182
-68 <= x_97_ <= 68
-78 <= x_98_ <= 78
-123 <= x_99_ <= 123
-148 <= x_100_ <= 148
-110 <= y_1_ <= 110
-112 <= y_2_ <= 112
-136 <= y_3_ <= 136
-156 <= y_4_ <= 156
-83 <= y_5_ <= 83
-137 <= y_6_ <= 137
-82 <= y_7_ <= 82
-120 <= y_8_ <= 120
-96 <= y_9_ <= 96
-32 <= y_10_ <= 32
-75 <= y_11_ <= 75
-126 <= y_12_ <= 126
-138 <= y_13_ <= 138
-149 <= y_14_ <= 149
-119 <= y_15_ <= 119
-160 <= y_16_ <= 160
-147 <= y_17_ <= 147
-101 <= y_18_ <= 101
-106 <= y_19_ <= 106
-110 <= y_20_ <= 110
-75 <= y_21_ <= 75
-125 <= y_22_ <= 125
-128 <= y_23_ <= 128
-117 <= y_24_ <= 117
-153 <= y_25_ <= 153
-63 <= y_26_ <= 63
-160 <= y_27_ <= 160
-84 <= y_28_ <= 84
-123 <= y_29_ <= 123
-97 <= y_30_ <= 97
-79 <= y_31_ <= 79
-147 <= y_32_ <= 147
-57 <= y_33_ <= 57
-151 <= y_34_ <= 151
-122 <= y_35_ <= 122
-48 <= y_36_ <= 48
-142 <= y_37_ <= 142
-141 <= y_38_ <= 141
-134 <= y_39_ <= 134
-148 <= y_40_ <= 148
-114 <= y_41_ <= 114
-113 <= y_42_ <= 113
-71 <= y_43_ <= 71
y_44_ = 0
-91 <= y_45_ <= 91
-113 <= y_46_ <= 113
-19 <= y_47_ <= 19
-106 <= y_48_ <= 106
-156 <= y_49_ <= 156
-93 <= y_50_ <= 93
-107 <= y_51_ <= 107
-81 <= y_52_ <= 81
-146 <= y_53_ <= 146
-104 <= y_54_ <= 104
-105 <= y_55_ <= 105
-96 <= y_56_ <= 96
-140 <= y_57_ <= 140
-173 <= y_58_ <= 173
-149 <= y_59_ <= 149
-183 <= y_60_ <= 183
-102 <= y_61_ <= 102
-65 <= y_62_ <= 65
-69 <= y_63_ <= 69
-98 <= y_64_ <= 98
-95 <= y_65_ <= 95
-120 <= y_66_ <= 120
-167 <= y_67_ <= 167
-142 <= y_68_ <= 142
-110 <= y_69_ <= 110
-146 <= y_70_ <= 146
-113 <= y_71_ <= 113
-117 <= y_72_ <= 117
-132 <= y_73_ <= 132
-87 <= y_74_ <= 87
-88 <= y_75_ <= 88
-182 <= y_76_ <= 182
-127 <= y_77_ <= 127
-130 <= y_78_ <= 130
-155 <= y_79_ <= 155
-132 <= y_80_ <= 132
-49 <= y_81_ <= 49
-121 <= y_82_ <= 121
-160 <= y_83_ <= 160
-116 <= y_84_ <= 116
-131 <= y_85_ <= 131
-121 <= y_86_ <= 121
-112 <= y_87_ <= 112
-129 <= y_88_ <= 129
-161 <= y_89_ <= 161
-122 <= y_90_ <= 122
-131 <= y_91_ <= 131
-131 <= y_92_ <= 131
-86 <= y_93_ <= 86
-130 <= y_94_ <= 130
-96 <= y_95_ <= 96
-182 <= y_96_ <= 182
-68 <= y_97_ <= 68
-78 <= y_98_ <= 78
-123 <= y_99_ <= 123
-148 <= y_100_ <= 148
General
x_1_
x_2_
x_3_
x_4_
x_5_
x_6_
x_7_
x_8_
x_9_
x_10_
x_11_
x_12_
x_13_
x_14_
x_15_
x_16_
x_17_
x_18_
x_19_
x_20_
x_21_
x_22_
x_23_
x_24_
x_25_
x_26_
x_27_
x_28_
x_29_
x_30_
x_31_
x_32_
x_33_
x_34_
x_35_
x_36_
x_37_
x_38_
x_39_
x_40_
x_41_
x_42_
x_43_
x_44_
x_45_
x_46_
x_47_
x_48_
x_49_
x_50_
x_51_
x_52_
x_53_
x_54_
x_55_
x_56_
x_57_
x_58_
x_59_
x_60_
x_61_
x_62_
x_63_
x_64_
x_65_
x_66_
x_67_
x_68_
x_69_
x_70_
x_71_
x_72_
x_73_
x_74_
x_75_
x_76_
x_77_
x_78_
x_79_
x_80_
x_81_
x_82_
x_83_
x_84_
x_85_
x_86_
x_87_
x_88_
x_89_
x_90_
x_91_
x_92_
x_93_
x_94_
x_95_
x_96_
x_97_
x_98_
x_99_
x_100_
y_1_
y_2_
y_3_
y_4_
y_5_
y_6_
y_7_
y_8_
y_9_
y_10_
y_11_
y_12_
y_13_
y_14_
y_15_
y_16_
y_17_
y_18_
y_19_
y_20_
y_21_
y_22_
y_23_
y_24_
y_25_
y_26_
y_27_
y_28_
y_29_
y_30_
y_31_
y_32_
y_33_
y_34_
y_35_
y_36_
y_37_
y_38_
y_39_
y_40_
y_41_
y_42_
y_43_
y_44_
y_45_
y_46_
y_47_
y_48_
y_49_
y_50_
y_51_
y_52_
y_53_
y_54_
y_55_
y_56_
y_57_
y_58_
y_59_
y_60_
y_61_
y_62_
y_63_
y_64_
y_65_
y_66_
y_67_
y_68_
y_69_
y_70_
y_71_
y_72_
y_73_
y_74_
y_75_
y_76_
y_77_
y_78_
y_79_
y_80_
y_81_
y_82_
y_83_
y_84_
y_85_
y_86_
y_87_
y_88_
y_89_
y_90_
y_91_
y_92_
y_93_
y_94_
y_95_
y_96_
y_97_
y_98_
y_99_
y_100_
End
