minimize
obj: 
subject to
c1: -40 x_1_ + 134 y_1_ + [ 1 x_1_ ^ 2 + 1 y_1_ ^ 2 ] <= 15617.306103632338
c2: -40 x_2_ + 134 y_2_ + [ 1 x_2_ ^ 2 + 1 y_2_ ^ 2 ] <= 27083.053020915555
c3: -40 x_3_ + 134 y_3_ + [ 1 x_3_ ^ 2 + 1 y_3_ ^ 2 ] <= 7793.699430547886
c4: -40 x_4_ + 134 y_4_ + [ 1 x_4_ ^ 2 + 1 y_4_ ^ 2 ] <= 31160.589874228484
c5: -40 x_5_ + 134 y_5_ + [ 1 x_5_ ^ 2 + 1 y_5_ ^ 2 ] <= 27727.998576890983
c6: -40 x_6_ + 134 y_6_ + [ 1 x_6_ ^ 2 + 1 y_6_ ^ 2 ] <= 9495.809041231389
c7: -40 x_7_ + 134 y_7_ + [ 1 x_7_ ^ 2 + 1 y_7_ ^ 2 ] <= 21301.2283484282
c8: -40 x_8_ + 134 y_8_ + [ 1 x_8_ ^ 2 + 1 y_8_ ^ 2 ] <= 480.2571984897031
c9: -40 x_9_ + 134 y_9_ + [ 1 x_9_ ^ 2 + 1 y_9_ ^ 2 ] <= -2751.4389018397537
c10: -40 x_10_ + 134 y_10_ + [ 1 x_10_ ^ 2 + 1 y_10_ ^ 2 ] <= 23024.37
c11: -40 x_11_ + 134 y_11_ + [ 1 x_11_ ^ 2 + 1 y_11_ ^ 2 ] <= 17462.3
c12: -40 x_12_ + 134 y_12_ + [ 1 x_12_ ^ 2 + 1 y_12_ ^ 2 ] <= 23636.3609980561
c13: -40 x_13_ + 134 y_13_ + [ 1 x_13_ ^ 2 + 1 y_13_ ^ 2 ] <= 7814.379084382739
c14: -40 x_14_ + 134 y_14_ + [ 1 x_14_ ^ 2 + 1 y_14_ ^ 2 ] <= -4571.860000000001
c15: -40 x_15_ + 134 y_15_ + [ 1 x_15_ ^ 2 + 1 y_15_ ^ 2 ] <= 11323.678479432021
c16: -40 x_16_ + 134 y_16_ + [ 1 x_16_ ^ 2 + 1 y_16_ ^ 2 ] <= 19431.122716358
c17: -40 x_17_ + 134 y_17_ + [ 1 x_17_ ^ 2 + 1 y_17_ ^ 2 ] <= 9491.325126473299
c18: -40 x_18_ + 134 y_18_ + [ 1 x_18_ ^ 2 + 1 y_18_ ^ 2 ] <= 14277.911027304675
c19: -40 x_19_ + 134 y_19_ + [ 1 x_19_ ^ 2 + 1 y_19_ ^ 2 ] <= 2334.7124848704943
c20: -40 x_20_ + 134 y_20_ + [ 1 x_20_ ^ 2 + 1 y_20_ ^ 2 ] <= 7183.46048689284
c21: -40 x_21_ + 134 y_21_ + [ 1 x_21_ ^ 2 + 1 y_21_ ^ 2 ] <= 21628.473826472615
c22: -40 x_22_ + 134 y_22_ + [ 1 x_22_ ^ 2 + 1 y_22_ ^ 2 ] <= -1729.5544117976278
c23: -40 x_23_ + 134 y_23_ + [ 1 x_23_ ^ 2 + 1 y_23_ ^ 2 ] <= 26410.369353522638
c24: -40 x_24_ + 134 y_24_ + [ 1 x_24_ ^ 2 + 1 y_24_ ^ 2 ] <= 12606.243790506887
c25: -40 x_25_ + 134 y_25_ + [ 1 x_25_ ^ 2 + 1 y_25_ ^ 2 ] <= 12069.74158978778
c26: -40 x_26_ + 134 y_26_ + [ 1 x_26_ ^ 2 + 1 y_26_ ^ 2 ] <= 28608.93834605984
c27: -40 x_27_ + 134 y_27_ + [ 1 x_27_ ^ 2 + 1 y_27_ ^ 2 ] <= 20907.680292369383
c28: -40 x_28_ + 134 y_28_ + [ 1 x_28_ ^ 2 + 1 y_28_ ^ 2 ] <= 17429.495099882337
c29: -40 x_29_ + 134 y_29_ + [ 1 x_29_ ^ 2 + 1 y_29_ ^ 2 ] <= 5592.009111903346
c30: -40 x_30_ + 134 y_30_ + [ 1 x_30_ ^ 2 + 1 y_30_ ^ 2 ] <= 6530.798534998206
c31: -40 x_31_ + 134 y_31_ + [ 1 x_31_ ^ 2 + 1 y_31_ ^ 2 ] <= 20552.627374517677
c32: -40 x_32_ + 134 y_32_ + [ 1 x_32_ ^ 2 + 1 y_32_ ^ 2 ] <= 19516.568275879654
c33: -40 x_33_ + 134 y_33_ + [ 1 x_33_ ^ 2 + 1 y_33_ ^ 2 ] <= 638.7299999999996
c34: -40 x_34_ + 134 y_34_ + [ 1 x_34_ ^ 2 + 1 y_34_ ^ 2 ] <= 16589.106248066728
c35: -40 x_35_ + 134 y_35_ + [ 1 x_35_ ^ 2 + 1 y_35_ ^ 2 ] <= -4520.35
c36: -40 x_36_ + 134 y_36_ + [ 1 x_36_ ^ 2 + 1 y_36_ ^ 2 ] <= 10961.674981570199
c37: -40 x_37_ + 134 y_37_ + [ 1 x_37_ ^ 2 + 1 y_37_ ^ 2 ] <= -1591.3500000000004
c38: -40 x_38_ + 134 y_38_ + [ 1 x_38_ ^ 2 + 1 y_38_ ^ 2 ] <= 18114.550354879357
c39: -40 x_39_ + 134 y_39_ + [ 1 x_39_ ^ 2 + 1 y_39_ ^ 2 ] <= 5616.960854517245
c40: -40 x_40_ + 134 y_40_ + [ 1 x_40_ ^ 2 + 1 y_40_ ^ 2 ] <= 16414.28877225764
c41: -40 x_41_ + 134 y_41_ + [ 1 x_41_ ^ 2 + 1 y_41_ ^ 2 ] <= 10625.069900024055
c42: -40 x_42_ + 134 y_42_ + [ 1 x_42_ ^ 2 + 1 y_42_ ^ 2 ] <= 596.1657093447602
c43: -40 x_43_ + 134 y_43_ + [ 1 x_43_ ^ 2 + 1 y_43_ ^ 2 ] <= 8173.797658627216
c44: -40 x_44_ + 134 y_44_ + [ 1 x_44_ ^ 2 + 1 y_44_ ^ 2 ] <= 29912.06881672836
c45: -40 x_45_ + 134 y_45_ + [ 1 x_45_ ^ 2 + 1 y_45_ ^ 2 ] <= 21268.630499158826
c46: -40 x_46_ + 134 y_46_ + [ 1 x_46_ ^ 2 + 1 y_46_ ^ 2 ] <= 10255.24585783167
c47: -40 x_47_ + 134 y_47_ + [ 1 x_47_ ^ 2 + 1 y_47_ ^ 2 ] <= 12054.839639432965
c48: -40 x_48_ + 134 y_48_ + [ 1 x_48_ ^ 2 + 1 y_48_ ^ 2 ] <= 14420.575645670033
c49: -40 x_49_ + 134 y_49_ + [ 1 x_49_ ^ 2 + 1 y_49_ ^ 2 ] <= 40477.73157465033
c50: -40 x_50_ + 134 y_50_ + [ 1 x_50_ ^ 2 + 1 y_50_ ^ 2 ] <= 32456.486065457568
c51: -40 x_51_ + 134 y_51_ + [ 1 x_51_ ^ 2 + 1 y_51_ ^ 2 ] <= 30556.101863074015
c52: -40 x_52_ + 134 y_52_ + [ 1 x_52_ ^ 2 + 1 y_52_ ^ 2 ] <= 8177.356792510618
c53: -40 x_53_ + 134 y_53_ + [ 1 x_53_ ^ 2 + 1 y_53_ ^ 2 ] <= 28786.76383682155
c54: -40 x_54_ + 134 y_54_ + [ 1 x_54_ ^ 2 + 1 y_54_ ^ 2 ] <= 14937.892883299359
c55: -40 x_55_ + 134 y_55_ + [ 1 x_55_ ^ 2 + 1 y_55_ ^ 2 ] <= 26263.609969036617
c56: -40 x_56_ + 134 y_56_ + [ 1 x_56_ ^ 2 + 1 y_56_ ^ 2 ] <= 34697.71378093882
c57: -40 x_57_ + 134 y_57_ + [ 1 x_57_ ^ 2 + 1 y_57_ ^ 2 ] <= 7847.0999999999985
c58: -40 x_59_ + 134 y_59_ + [ 1 x_59_ ^ 2 + 1 y_59_ ^ 2 ] <= 17949.12
c59: -40 x_60_ + 134 y_60_ + [ 1 x_60_ ^ 2 + 1 y_60_ ^ 2 ] <= 28075.334203171347
c60: -40 x_61_ + 134 y_61_ + [ 1 x_61_ ^ 2 + 1 y_61_ ^ 2 ] <= 4263.251432174569
c61: -40 x_62_ + 134 y_62_ + [ 1 x_62_ ^ 2 + 1 y_62_ ^ 2 ] <= 6966.008507114417
c62: -40 x_63_ + 134 y_63_ + [ 1 x_63_ ^ 2 + 1 y_63_ ^ 2 ] <= 21556.91602300714
c63: -40 x_64_ + 134 y_64_ + [ 1 x_64_ ^ 2 + 1 y_64_ ^ 2 ] <= 13476.295461950504
c64: -40 x_65_ + 134 y_65_ + [ 1 x_65_ ^ 2 + 1 y_65_ ^ 2 ] <= 20017.982034180164
c65: -40 x_66_ + 134 y_66_ + [ 1 x_66_ ^ 2 + 1 y_66_ ^ 2 ] <= 29576.403023987732
c66: -40 x_67_ + 134 y_67_ + [ 1 x_67_ ^ 2 + 1 y_67_ ^ 2 ] <= 26148.309112196708
c67: -40 x_68_ + 134 y_68_ + [ 1 x_68_ ^ 2 + 1 y_68_ ^ 2 ] <= 6400.708596497598
c68: -40 x_69_ + 134 y_69_ + [ 1 x_69_ ^ 2 + 1 y_69_ ^ 2 ] <= 23780.521347988775
c69: -40 x_70_ + 134 y_70_ + [ 1 x_70_ ^ 2 + 1 y_70_ ^ 2 ] <= 2728.848473382589
c70: -40 x_71_ + 134 y_71_ + [ 1 x_71_ ^ 2 + 1 y_71_ ^ 2 ] <= 11850.41041281297
c71: -40 x_72_ + 134 y_72_ + [ 1 x_72_ ^ 2 + 1 y_72_ ^ 2 ] <= 25860.90468948184
c72: -40 x_73_ + 134 y_73_ + [ 1 x_73_ ^ 2 + 1 y_73_ ^ 2 ] <= -2574.5794466684765
c73: -40 x_74_ + 134 y_74_ + [ 1 x_74_ ^ 2 + 1 y_74_ ^ 2 ] <= 4440.788114702747
c74: -40 x_75_ + 134 y_75_ + [ 1 x_75_ ^ 2 + 1 y_75_ ^ 2 ] <= -595.1287292205925
c75: -40 x_76_ + 134 y_76_ + [ 1 x_76_ ^ 2 + 1 y_76_ ^ 2 ] <= 17111.35566930628
c76: -40 x_77_ + 134 y_77_ + [ 1 x_77_ ^ 2 + 1 y_77_ ^ 2 ] <= 14599.455744508905
c77: -40 x_78_ + 134 y_78_ + [ 1 x_78_ ^ 2 + 1 y_78_ ^ 2 ] <= 5846.007614185022
c78: -40 x_79_ + 134 y_79_ + [ 1 x_79_ ^ 2 + 1 y_79_ ^ 2 ] <= 20713.81271377713
c79: -40 x_80_ + 134 y_80_ + [ 1 x_80_ ^ 2 + 1 y_80_ ^ 2 ] <= 2951.063000339568
c80: -40 x_81_ + 134 y_81_ + [ 1 x_81_ ^ 2 + 1 y_81_ ^ 2 ] <= 16360.99119042186
c81: -40 x_82_ + 134 y_82_ + [ 1 x_82_ ^ 2 + 1 y_82_ ^ 2 ] <= 17373.582742337465
c82: -40 x_83_ + 134 y_83_ + [ 1 x_83_ ^ 2 + 1 y_83_ ^ 2 ] <= 3795.2290112846786
c83: -40 x_84_ + 134 y_84_ + [ 1 x_84_ ^ 2 + 1 y_84_ ^ 2 ] <= 12950.78812447055
c84: -40 x_85_ + 134 y_85_ + [ 1 x_85_ ^ 2 + 1 y_85_ ^ 2 ] <= 3728.1674685748258
c85: -40 x_86_ + 134 y_86_ + [ 1 x_86_ ^ 2 + 1 y_86_ ^ 2 ] <= 18028.750956399024
c86: -40 x_87_ + 134 y_87_ + [ 1 x_87_ ^ 2 + 1 y_87_ ^ 2 ] <= 16463.323338725822
c87: -40 x_88_ + 134 y_88_ + [ 1 x_88_ ^ 2 + 1 y_88_ ^ 2 ] <= 32413.248802002592
c88: -40 x_89_ + 134 y_89_ + [ 1 x_89_ ^ 2 + 1 y_89_ ^ 2 ] <= 22068.601563402648
c89: -40 x_90_ + 134 y_90_ + [ 1 x_90_ ^ 2 + 1 y_90_ ^ 2 ] <= 25389.18945132614
c90: -40 x_91_ + 134 y_91_ + [ 1 x_91_ ^ 2 + 1 y_91_ ^ 2 ] <= 11655.605706592229
c91: -40 x_92_ + 134 y_92_ + [ 1 x_92_ ^ 2 + 1 y_92_ ^ 2 ] <= 19427.838200510563
c92: -40 x_93_ + 134 y_93_ + [ 1 x_93_ ^ 2 + 1 y_93_ ^ 2 ] <= 5986.845280458621
c93: -40 x_94_ + 134 y_94_ + [ 1 x_94_ ^ 2 + 1 y_94_ ^ 2 ] <= 19577.07189905065
c94: -40 x_95_ + 134 y_95_ + [ 1 x_95_ ^ 2 + 1 y_95_ ^ 2 ] <= 3884.561065472224
c95: -40 x_96_ + 134 y_96_ + [ 1 x_96_ ^ 2 + 1 y_96_ ^ 2 ] <= 29555.240585826366
c96: -40 x_97_ + 134 y_97_ + [ 1 x_97_ ^ 2 + 1 y_97_ ^ 2 ] <= 40250.8373797586
c97: -40 x_98_ + 134 y_98_ + [ 1 x_98_ ^ 2 + 1 y_98_ ^ 2 ] <= 18171.59022266994
c98: -40 x_99_ + 134 y_99_ + [ 1 x_99_ ^ 2 + 1 y_99_ ^ 2 ] <= 30743.11719407988
c99: -40 x_100_ + 134 y_100_ + [ 1 x_100_ ^ 2 + 1 y_100_ ^ 2 ] <= 19780.42108422442
c100: -120 x_1_ - 80 y_1_ + [ 1 x_1_ ^ 2 + 1 y_1_ ^ 2 ] <= 16270.580000000002
c101: -120 x_2_ - 80 y_2_ + [ 1 x_2_ ^ 2 + 1 y_2_ ^ 2 ] <= 12321.410905521923
c102: -120 x_3_ - 80 y_3_ + [ 1 x_3_ ^ 2 + 1 y_3_ ^ 2 ] <= 22877.023811997115
c103: -120 x_4_ - 80 y_4_ + [ 1 x_4_ ^ 2 + 1 y_4_ ^ 2 ] <= 11238.759999999998
c104: -120 x_5_ - 80 y_5_ + [ 1 x_5_ ^ 2 + 1 y_5_ ^ 2 ] <= 13700.545643909569
c105: -120 x_6_ - 80 y_6_ + [ 1 x_6_ ^ 2 + 1 y_6_ ^ 2 ] <= 17212.3474942575
c106: -120 x_7_ - 80 y_7_ + [ 1 x_7_ ^ 2 + 1 y_7_ ^ 2 ] <= 33755.47002319153
c107: -120 x_8_ - 80 y_8_ + [ 1 x_8_ ^ 2 + 1 y_8_ ^ 2 ] <= 30026.156371488127
c108: -120 x_9_ - 80 y_9_ + [ 1 x_9_ ^ 2 + 1 y_9_ ^ 2 ] <= 22917.232220852435
c109: -120 x_10_ - 80 y_10_ + [ 1 x_10_ ^ 2 + 1 y_10_ ^ 2 ] <= 14119.966969919726
c110: -120 x_11_ - 80 y_11_ + [ 1 x_11_ ^ 2 + 1 y_11_ ^ 2 ] <= 11317.904981683514
c111: -120 x_12_ - 80 y_12_ + [ 1 x_12_ ^ 2 + 1 y_12_ ^ 2 ] <= 27715.004422657345
c112: -120 x_13_ - 80 y_13_ + [ 1 x_13_ ^ 2 + 1 y_13_ ^ 2 ] <= 20214.32186705213
c113: -120 x_14_ - 80 y_14_ + [ 1 x_14_ ^ 2 + 1 y_14_ ^ 2 ] <= 14192.39976990717
c114: -120 x_15_ - 80 y_15_ + [ 1 x_15_ ^ 2 + 1 y_15_ ^ 2 ] <= 16510.89466779815
c115: -120 x_16_ - 80 y_16_ + [ 1 x_16_ ^ 2 + 1 y_16_ ^ 2 ] <= 17622.485095800123
c116: -120 x_17_ - 80 y_17_ + [ 1 x_17_ ^ 2 + 1 y_17_ ^ 2 ] <= 9541.379858865037
c117: -120 x_18_ - 80 y_18_ + [ 1 x_18_ ^ 2 + 1 y_18_ ^ 2 ] <= -1927.6000000000004
c118: -120 x_19_ - 80 y_19_ + [ 1 x_19_ ^ 2 + 1 y_19_ ^ 2 ] <= 3607.2095114641616
c119: -120 x_20_ - 80 y_20_ + [ 1 x_20_ ^ 2 + 1 y_20_ ^ 2 ] <= -443.90999999999985
c120: -120 x_21_ - 80 y_21_ + [ 1 x_21_ ^ 2 + 1 y_21_ ^ 2 ] <= 16902.618001892733
c121: -120 x_22_ - 80 y_22_ + [ 1 x_22_ ^ 2 + 1 y_22_ ^ 2 ] <= 26362.05146696879
c122: -120 x_23_ - 80 y_23_ + [ 1 x_23_ ^ 2 + 1 y_23_ ^ 2 ] <= 52280.77362472048
c123: -120 x_24_ - 80 y_24_ + [ 1 x_24_ ^ 2 + 1 y_24_ ^ 2 ] <= 14715.953926201571
c124: -120 x_25_ - 80 y_25_ + [ 1 x_25_ ^ 2 + 1 y_25_ ^ 2 ] <= 41068.399897932104
c125: -120 x_26_ - 80 y_26_ + [ 1 x_26_ ^ 2 + 1 y_26_ ^ 2 ] <= 7940.051479451886
c126: -120 x_27_ - 80 y_27_ + [ 1 x_27_ ^ 2 + 1 y_27_ ^ 2 ] <= 34648.68351411343
c127: -120 x_28_ - 80 y_28_ + [ 1 x_28_ ^ 2 + 1 y_28_ ^ 2 ] <= 13537.24064563178
c128: -120 x_29_ - 80 y_29_ + [ 1 x_29_ ^ 2 + 1 y_29_ ^ 2 ] <= 30123.53267061175
c129: -120 x_30_ - 80 y_30_ + [ 1 x_30_ ^ 2 + 1 y_30_ ^ 2 ] <= 22424.38079355937
c130: -120 x_31_ - 80 y_31_ + [ 1 x_31_ ^ 2 + 1 y_31_ ^ 2 ] <= 27027.959621663904
c131: -120 x_32_ - 80 y_32_ + [ 1 x_32_ ^ 2 + 1 y_32_ ^ 2 ] <= 37329.53358147238
c132: -120 x_33_ - 80 y_33_ + [ 1 x_33_ ^ 2 + 1 y_33_ ^ 2 ] <= 11516.73510065068
c133: -120 x_34_ - 80 y_34_ + [ 1 x_34_ ^ 2 + 1 y_34_ ^ 2 ] <= 23164.233179447976
c134: -120 x_35_ - 80 y_35_ + [ 1 x_35_ ^ 2 + 1 y_35_ ^ 2 ] <= 21491.201494041467
c135: -120 x_36_ - 80 y_36_ + [ 1 x_36_ ^ 2 + 1 y_36_ ^ 2 ] <= 26866.852329607038
c136: -120 x_37_ - 80 y_37_ + [ 1 x_37_ ^ 2 + 1 y_37_ ^ 2 ] <= 16747.3
c137: -120 x_38_ - 80 y_38_ + [ 1 x_38_ ^ 2 + 1 y_38_ ^ 2 ] <= 25365.47744978532
c138: -120 x_39_ - 80 y_39_ + [ 1 x_39_ ^ 2 + 1 y_39_ ^ 2 ] <= 19741.73312679367
c139: -120 x_40_ - 80 y_40_ + [ 1 x_40_ ^ 2 + 1 y_40_ ^ 2 ] <= 5813.460687030116
c140: -120 x_41_ - 80 y_41_ + [ 1 x_41_ ^ 2 + 1 y_41_ ^ 2 ] <= 8180.012815393418
c141: -120 x_42_ - 80 y_42_ + [ 1 x_42_ ^ 2 + 1 y_42_ ^ 2 ] <= 23424.85483547828
c142: -120 x_43_ - 80 y_43_ + [ 1 x_43_ ^ 2 + 1 y_43_ ^ 2 ] <= 9965.1601624263
c143: -120 x_44_ - 80 y_44_ + [ 1 x_44_ ^ 2 + 1 y_44_ ^ 2 ] <= 42372.43287604894
c144: -120 x_45_ - 80 y_45_ + [ 1 x_45_ ^ 2 + 1 y_45_ ^ 2 ] <= 36267.674474025145
c145: -120 x_46_ - 80 y_46_ + [ 1 x_46_ ^ 2 + 1 y_46_ ^ 2 ] <= 21834.359387839773
c146: -120 x_47_ - 80 y_47_ + [ 1 x_47_ ^ 2 + 1 y_47_ ^ 2 ] <= 16521.69910034552
c147: -120 x_48_ - 80 y_48_ + [ 1 x_48_ ^ 2 + 1 y_48_ ^ 2 ] <= 26867.364824496522
c148: -120 x_49_ - 80 y_49_ + [ 1 x_49_ ^ 2 + 1 y_49_ ^ 2 ] <= 21813.386608776855
c149: -120 x_50_ - 80 y_50_ + [ 1 x_50_ ^ 2 + 1 y_50_ ^ 2 ] <= 22823.539183610254
c150: -120 x_51_ - 80 y_51_ + [ 1 x_51_ ^ 2 + 1 y_51_ ^ 2 ] <= 19836.244939842793
c151: -120 x_52_ - 80 y_52_ + [ 1 x_52_ ^ 2 + 1 y_52_ ^ 2 ] <= 39134.40772967234
c152: -120 x_53_ - 80 y_53_ + [ 1 x_53_ ^ 2 + 1 y_53_ ^ 2 ] <= 59788.68636263138
c153: -120 x_54_ - 80 y_54_ + [ 1 x_54_ ^ 2 + 1 y_54_ ^ 2 ] <= 47578.48279649274
c154: -120 x_55_ - 80 y_55_ + [ 1 x_55_ ^ 2 + 1 y_55_ ^ 2 ] <= 28365.335287787377
c155: -120 x_56_ - 80 y_56_ + [ 1 x_56_ ^ 2 + 1 y_56_ ^ 2 ] <= 50737.80761505656
c156: -120 x_57_ - 80 y_57_ + [ 1 x_57_ ^ 2 + 1 y_57_ ^ 2 ] <= 28140.801675062605
c157: -120 x_58_ - 80 y_58_ + [ 1 x_58_ ^ 2 + 1 y_58_ ^ 2 ] <= 19469.42108422442
c158: -120 x_59_ - 80 y_59_ + [ 1 x_59_ ^ 2 + 1 y_59_ ^ 2 ] <= 14715.448054069715
c159: -120 x_60_ - 80 y_60_ + [ 1 x_60_ ^ 2 + 1 y_60_ ^ 2 ] <= 16618.00707617915
c160: -120 x_61_ - 80 y_61_ + [ 1 x_61_ ^ 2 + 1 y_61_ ^ 2 ] <= 32459.771870304015
c161: -120 x_62_ - 80 y_62_ + [ 1 x_62_ ^ 2 + 1 y_62_ ^ 2 ] <= 8661.53394554923
c162: -120 x_63_ - 80 y_63_ + [ 1 x_63_ ^ 2 + 1 y_63_ ^ 2 ] <= 37413.553849947886
c163: -120 x_64_ - 80 y_64_ + [ 1 x_64_ ^ 2 + 1 y_64_ ^ 2 ] <= 40517.48659130623
c164: -120 x_65_ - 80 y_65_ + [ 1 x_65_ ^ 2 + 1 y_65_ ^ 2 ] <= 14353.833775676212
c165: -120 x_66_ - 80 y_66_ + [ 1 x_66_ ^ 2 + 1 y_66_ ^ 2 ] <= 21741.508943075143
c166: -120 x_67_ - 80 y_67_ + [ 1 x_67_ ^ 2 + 1 y_67_ ^ 2 ] <= 24142.357472023166
c167: -120 x_68_ - 80 y_68_ + [ 1 x_68_ ^ 2 + 1 y_68_ ^ 2 ] <= 31329.994002451924
c168: -120 x_69_ - 80 y_69_ + [ 1 x_69_ ^ 2 + 1 y_69_ ^ 2 ] <= 18909.620161310846
c169: -120 x_70_ - 80 y_70_ + [ 1 x_70_ ^ 2 + 1 y_70_ ^ 2 ] <= 47575.839708895815
c170: -120 x_71_ - 80 y_71_ + [ 1 x_71_ ^ 2 + 1 y_71_ ^ 2 ] <= 20702.161260439934
c171: -120 x_72_ - 80 y_72_ + [ 1 x_72_ ^ 2 + 1 y_72_ ^ 2 ] <= 17152.950787408146
c172: -120 x_73_ - 80 y_73_ + [ 1 x_73_ ^ 2 + 1 y_73_ ^ 2 ] <= 6671.539999999997
c173: -120 x_74_ - 80 y_74_ + [ 1 x_74_ ^ 2 + 1 y_74_ ^ 2 ] <= 24296.15303880616
c174: -120 x_75_ - 80 y_75_ + [ 1 x_75_ ^ 2 + 1 y_75_ ^ 2 ] <= 19213.65010205356
c175: -120 x_76_ - 80 y_76_ + [ 1 x_76_ ^ 2 + 1 y_76_ ^ 2 ] <= 6593.769999999999
c176: -120 x_77_ - 80 y_77_ + [ 1 x_77_ ^ 2 + 1 y_77_ ^ 2 ] <= 27542.67976061194
c177: -120 x_78_ - 80 y_78_ + [ 1 x_78_ ^ 2 + 1 y_78_ ^ 2 ] <= 31870.712801725538
c178: -120 x_79_ - 80 y_79_ + [ 1 x_79_ ^ 2 + 1 y_79_ ^ 2 ] <= -3296.1500000000005
c179: -120 x_80_ - 80 y_80_ + [ 1 x_80_ ^ 2 + 1 y_80_ ^ 2 ] <= 11672.049999999996
c180: -120 x_81_ - 80 y_81_ + [ 1 x_81_ ^ 2 + 1 y_81_ ^ 2 ] <= 39123.04765121818
c181: -120 x_82_ - 80 y_82_ + [ 1 x_82_ ^ 2 + 1 y_82_ ^ 2 ] <= 14481.21066867734
c182: -120 x_83_ - 80 y_83_ + [ 1 x_83_ ^ 2 + 1 y_83_ ^ 2 ] <= 18431.51826260861
c183: -120 x_84_ - 80 y_84_ + [ 1 x_84_ ^ 2 + 1 y_84_ ^ 2 ] <= 15083.450081696079
c184: -120 x_85_ - 80 y_85_ + [ 1 x_85_ ^ 2 + 1 y_85_ ^ 2 ] <= 12806.426447107075
c185: -120 x_86_ - 80 y_86_ + [ 1 x_86_ ^ 2 + 1 y_86_ ^ 2 ] <= 35302.227823954076
c186: -120 x_87_ - 80 y_87_ + [ 1 x_87_ ^ 2 + 1 y_87_ ^ 2 ] <= 19102.64279630098
c187: -120 x_88_ - 80 y_88_ + [ 1 x_88_ ^ 2 + 1 y_88_ ^ 2 ] <= 30256.975797909596
c188: -120 x_89_ - 80 y_89_ + [ 1 x_89_ ^ 2 + 1 y_89_ ^ 2 ] <= 18573.612977834837
c189: -120 x_90_ - 80 y_90_ + [ 1 x_90_ ^ 2 + 1 y_90_ ^ 2 ] <= 41177.610928403046
c190: -120 x_91_ - 80 y_91_ + [ 1 x_91_ ^ 2 + 1 y_91_ ^ 2 ] <= 41752.00072229233
c191: -120 x_92_ - 80 y_92_ + [ 1 x_92_ ^ 2 + 1 y_92_ ^ 2 ] <= 9705.221338274514
c192: -120 x_93_ - 80 y_93_ + [ 1 x_93_ ^ 2 + 1 y_93_ ^ 2 ] <= 16012.945979111359
c193: -120 x_94_ - 80 y_94_ + [ 1 x_94_ ^ 2 + 1 y_94_ ^ 2 ] <= 20467.784593712742
c194: -120 x_95_ - 80 y_95_ + [ 1 x_95_ ^ 2 + 1 y_95_ ^ 2 ] <= 28651.617817547572
c195: -120 x_96_ - 80 y_96_ + [ 1 x_96_ ^ 2 + 1 y_96_ ^ 2 ] <= -496.4300000000003
c196: -120 x_97_ - 80 y_97_ + [ 1 x_97_ ^ 2 + 1 y_97_ ^ 2 ] <= 37933.251186755944
c197: -120 x_98_ - 80 y_98_ + [ 1 x_98_ ^ 2 + 1 y_98_ ^ 2 ] <= 2609.319999999999
c198: -120 x_99_ - 80 y_99_ + [ 1 x_99_ ^ 2 + 1 y_99_ ^ 2 ] <= 21242.81
c199: 46 x_1_ - 154 y_1_ + [ 1 x_1_ ^ 2 + 1 y_1_ ^ 2 ] <= 34760.36327001355
c200: 46 x_2_ - 154 y_2_ + [ 1 x_2_ ^ 2 + 1 y_2_ ^ 2 ] <= 46015.68140616066
c201: 46 x_3_ - 154 y_3_ + [ 1 x_3_ ^ 2 + 1 y_3_ ^ 2 ] <= 18905.26878900364
c202: 46 x_4_ - 154 y_4_ + [ 1 x_4_ ^ 2 + 1 y_4_ ^ 2 ] <= 1100.6931183050337
c203: 46 x_5_ - 154 y_5_ + [ 1 x_5_ ^ 2 + 1 y_5_ ^ 2 ] <= 2797.6468445827522
c204: 46 x_6_ - 154 y_6_ + [ 1 x_6_ ^ 2 + 1 y_6_ ^ 2 ] <= 8340.034571693575
c205: 46 x_7_ - 154 y_7_ + [ 1 x_7_ ^ 2 + 1 y_7_ ^ 2 ] <= -2805.21820085034
c206: 46 x_8_ - 154 y_8_ + [ 1 x_8_ ^ 2 + 1 y_8_ ^ 2 ] <= 15742.10165432989
c207: 46 x_9_ - 154 y_9_ + [ 1 x_9_ ^ 2 + 1 y_9_ ^ 2 ] <= 15724.990770602653
c208: 46 x_10_ - 154 y_10_ + [ 1 x_10_ ^ 2 + 1 y_10_ ^ 2 ] <= 13954.33299259391
c209: 46 x_11_ - 154 y_11_ + [ 1 x_11_ ^ 2 + 1 y_11_ ^ 2 ] <= 13581.439369959695
c210: 46 x_12_ - 154 y_12_ + [ 1 x_12_ ^ 2 + 1 y_12_ ^ 2 ] <= 21633.39062254882
c211: 46 x_13_ - 154 y_13_ + [ 1 x_13_ ^ 2 + 1 y_13_ ^ 2 ] <= 22858.964062938205
c212: 46 x_14_ - 154 y_14_ + [ 1 x_14_ ^ 2 + 1 y_14_ ^ 2 ] <= 18621.683072943266
c213: 46 x_15_ - 154 y_15_ + [ 1 x_15_ ^ 2 + 1 y_15_ ^ 2 ] <= 18179.1941134893
c214: 46 x_16_ - 154 y_16_ + [ 1 x_16_ ^ 2 + 1 y_16_ ^ 2 ] <= -6048.95
c215: 46 x_17_ - 154 y_17_ + [ 1 x_17_ ^ 2 + 1 y_17_ ^ 2 ] <= 11127.008909118176
c216: 46 x_18_ - 154 y_18_ + [ 1 x_18_ ^ 2 + 1 y_18_ ^ 2 ] <= 6558.805477853102
c217: 46 x_19_ - 154 y_19_ + [ 1 x_19_ ^ 2 + 1 y_19_ ^ 2 ] <= 1856.0953888193708
c218: 46 x_20_ - 154 y_20_ + [ 1 x_20_ ^ 2 + 1 y_20_ ^ 2 ] <= 7012.848501454329
c219: 46 x_21_ - 154 y_21_ + [ 1 x_21_ ^ 2 + 1 y_21_ ^ 2 ] <= -2610.910000000001
c220: 46 x_22_ - 154 y_22_ + [ 1 x_22_ ^ 2 + 1 y_22_ ^ 2 ] <= 21987.46567610567
c221: 46 x_23_ - 154 y_23_ + [ 1 x_23_ ^ 2 + 1 y_23_ ^ 2 ] <= 36518.16919920869
c222: 46 x_24_ - 154 y_24_ + [ 1 x_24_ ^ 2 + 1 y_24_ ^ 2 ] <= 12328.327680742761
c223: 46 x_25_ - 154 y_25_ + [ 1 x_25_ ^ 2 + 1 y_25_ ^ 2 ] <= 25172.870218684835
c224: 46 x_26_ - 154 y_26_ + [ 1 x_26_ ^ 2 + 1 y_26_ ^ 2 ] <= -3246.9591281253383
c225: 46 x_27_ - 154 y_27_ + [ 1 x_27_ ^ 2 + 1 y_27_ ^ 2 ] <= 22684.70812144743
c226: 46 x_28_ - 154 y_28_ + [ 1 x_28_ ^ 2 + 1 y_28_ ^ 2 ] <= 5200.610438568985
c227: 46 x_29_ - 154 y_29_ + [ 1 x_29_ ^ 2 + 1 y_29_ ^ 2 ] <= 30761.9414157052
c228: 46 x_30_ - 154 y_30_ + [ 1 x_30_ ^ 2 + 1 y_30_ ^ 2 ] <= 20287.58212561799
c229: 46 x_31_ - 154 y_31_ + [ 1 x_31_ ^ 2 + 1 y_31_ ^ 2 ] <= 28411.962041522936
c230: 46 x_32_ - 154 y_32_ + [ 1 x_32_ ^ 2 + 1 y_32_ ^ 2 ] <= 27212.73549534473
c231: 46 x_33_ - 154 y_33_ + [ 1 x_33_ ^ 2 + 1 y_33_ ^ 2 ] <= 8180.510051656918
c232: 46 x_34_ - 154 y_34_ + [ 1 x_34_ ^ 2 + 1 y_34_ ^ 2 ] <= 26226.094248519854
c233: 46 x_35_ - 154 y_35_ + [ 1 x_35_ ^ 2 + 1 y_35_ ^ 2 ] <= 23708.705068970005
c234: 46 x_36_ - 154 y_36_ + [ 1 x_36_ ^ 2 + 1 y_36_ ^ 2 ] <= 16611.897197261704
c235: 46 x_37_ - 154 y_37_ + [ 1 x_37_ ^ 2 + 1 y_37_ ^ 2 ] <= 27455.45429944963
c236: 46 x_38_ - 154 y_38_ + [ 1 x_38_ ^ 2 + 1 y_38_ ^ 2 ] <= 23182.71153237163
c237: 46 x_39_ - 154 y_39_ + [ 1 x_39_ ^ 2 + 1 y_39_ ^ 2 ] <= 23446.377598354786
c238: 46 x_40_ - 154 y_40_ + [ 1 x_40_ ^ 2 + 1 y_40_ ^ 2 ] <= 7172.1678204898035
c239: 46 x_41_ - 154 y_41_ + [ 1 x_41_ ^ 2 + 1 y_41_ ^ 2 ] <= 7910.974528047902
c240: 46 x_42_ - 154 y_42_ + [ 1 x_42_ ^ 2 + 1 y_42_ ^ 2 ] <= 34269.24
c241: 46 x_43_ - 154 y_43_ + [ 1 x_43_ ^ 2 + 1 y_43_ ^ 2 ] <= 8057.871871016949
c242: 46 x_44_ - 154 y_44_ + [ 1 x_44_ ^ 2 + 1 y_44_ ^ 2 ] <= 33825.292874024526
c243: 46 x_45_ - 154 y_45_ + [ 1 x_45_ ^ 2 + 1 y_45_ ^ 2 ] <= 24170.25
c244: 46 x_46_ - 154 y_46_ + [ 1 x_46_ ^ 2 + 1 y_46_ ^ 2 ] <= 13493.85500038094
c245: 46 x_47_ - 154 y_47_ + [ 1 x_47_ ^ 2 + 1 y_47_ ^ 2 ] <= 15417.276848217462
c246: 46 x_48_ - 154 y_48_ + [ 1 x_48_ ^ 2 + 1 y_48_ ^ 2 ] <= 17985.009999999995
c247: 46 x_49_ - 154 y_49_ + [ 1 x_49_ ^ 2 + 1 y_49_ ^ 2 ] <= 59.857404842630785
c248: 46 x_50_ - 154 y_50_ + [ 1 x_50_ ^ 2 + 1 y_50_ ^ 2 ] <= -911.0800000000008
c249: 46 x_51_ - 154 y_51_ + [ 1 x_51_ ^ 2 + 1 y_51_ ^ 2 ] <= -6004.51
c250: 46 x_52_ - 154 y_52_ + [ 1 x_52_ ^ 2 + 1 y_52_ ^ 2 ] <= 2615.6740369876516
c251: 46 x_53_ - 154 y_53_ + [ 1 x_53_ ^ 2 + 1 y_53_ ^ 2 ] <= 55113.580070451564
c252: 46 x_54_ - 154 y_54_ + [ 1 x_54_ ^ 2 + 1 y_54_ ^ 2 ] <= 35405.21242670417
c253: 46 x_55_ - 154 y_55_ + [ 1 x_55_ ^ 2 + 1 y_55_ ^ 2 ] <= 27058.057844824558
c254: 46 x_56_ - 154 y_56_ + [ 1 x_56_ ^ 2 + 1 y_56_ ^ 2 ] <= 29025.143565001774
c255: 46 x_57_ - 154 y_57_ + [ 1 x_57_ ^ 2 + 1 y_57_ ^ 2 ] <= 31808.406104931448
c256: 46 x_58_ - 154 y_58_ + [ 1 x_58_ ^ 2 + 1 y_58_ ^ 2 ] <= 24579.309112196697
c257: 46 x_59_ - 154 y_59_ + [ 1 x_59_ ^ 2 + 1 y_59_ ^ 2 ] <= -4185.169662439708
c258: 46 x_60_ - 154 y_60_ + [ 1 x_60_ ^ 2 + 1 y_60_ ^ 2 ] <= 5532.9969383688895
c259: 46 x_61_ - 154 y_61_ + [ 1 x_61_ ^ 2 + 1 y_61_ ^ 2 ] <= 24776.250000000004
c260: 46 x_62_ - 154 y_62_ + [ 1 x_62_ ^ 2 + 1 y_62_ ^ 2 ] <= 1741.4103365213778
c261: 46 x_63_ - 154 y_63_ + [ 1 x_63_ ^ 2 + 1 y_63_ ^ 2 ] <= 6221.539999999995
c262: 46 x_64_ - 154 y_64_ + [ 1 x_64_ ^ 2 + 1 y_64_ ^ 2 ] <= 25133.13512326697
c263: 46 x_65_ - 154 y_65_ + [ 1 x_65_ ^ 2 + 1 y_65_ ^ 2 ] <= -5468.2
c264: 46 x_66_ - 154 y_66_ + [ 1 x_66_ ^ 2 + 1 y_66_ ^ 2 ] <= 6997.219999999999
c265: 46 x_68_ - 154 y_68_ + [ 1 x_68_ ^ 2 + 1 y_68_ ^ 2 ] <= 17220.43999999999
c266: 46 x_69_ - 154 y_69_ + [ 1 x_69_ ^ 2 + 1 y_69_ ^ 2 ] <= 24493.831547547936
c267: 46 x_70_ - 154 y_70_ + [ 1 x_70_ ^ 2 + 1 y_70_ ^ 2 ] <= 51992.642378078956
c268: 46 x_71_ - 154 y_71_ + [ 1 x_71_ ^ 2 + 1 y_71_ ^ 2 ] <= 41910.66729250388
c269: 46 x_72_ - 154 y_72_ + [ 1 x_72_ ^ 2 + 1 y_72_ ^ 2 ] <= -2148.6761780874967
c270: 46 x_73_ - 154 y_73_ + [ 1 x_73_ ^ 2 + 1 y_73_ ^ 2 ] <= 23817.385901831294
c271: 46 x_74_ - 154 y_74_ + [ 1 x_74_ ^ 2 + 1 y_74_ ^ 2 ] <= 2814.7428659127236
c272: 46 x_75_ - 154 y_75_ + [ 1 x_75_ ^ 2 + 1 y_75_ ^ 2 ] <= 30505.341739573232
c273: 46 x_76_ - 154 y_76_ + [ 1 x_76_ ^ 2 + 1 y_76_ ^ 2 ] <= 23939.315042371752
c274: 46 x_77_ - 154 y_77_ + [ 1 x_77_ ^ 2 + 1 y_77_ ^ 2 ] <= 19550.325751140776
c275: 46 x_78_ - 154 y_78_ + [ 1 x_78_ ^ 2 + 1 y_78_ ^ 2 ] <= 40271.21886359492
c276: 46 x_79_ - 154 y_79_ + [ 1 x_79_ ^ 2 + 1 y_79_ ^ 2 ] <= 13236.195380277299
c277: 46 x_80_ - 154 y_80_ + [ 1 x_80_ ^ 2 + 1 y_80_ ^ 2 ] <= 34195.51815275845
c278: 46 x_81_ - 154 y_81_ + [ 1 x_81_ ^ 2 + 1 y_81_ ^ 2 ] <= 12173.715073526
c279: 46 x_82_ - 154 y_82_ + [ 1 x_82_ ^ 2 + 1 y_82_ ^ 2 ] <= -4550.110000000001
c280: 46 x_83_ - 154 y_83_ + [ 1 x_83_ ^ 2 + 1 y_83_ ^ 2 ] <= 11598.267516249893
c281: 46 x_84_ - 154 y_84_ + [ 1 x_84_ ^ 2 + 1 y_84_ ^ 2 ] <= 13073.433509488863
c282: 46 x_85_ - 154 y_85_ + [ 1 x_85_ ^ 2 + 1 y_85_ ^ 2 ] <= 22948.863509377028
c283: 46 x_86_ - 154 y_86_ + [ 1 x_86_ ^ 2 + 1 y_86_ ^ 2 ] <= 32756.73393346314
c284: 46 x_87_ - 154 y_87_ + [ 1 x_87_ ^ 2 + 1 y_87_ ^ 2 ] <= 4466.927685002782
c285: 46 x_88_ - 154 y_88_ + [ 1 x_88_ ^ 2 + 1 y_88_ ^ 2 ] <= 13186.31473928093
c286: 46 x_89_ - 154 y_89_ + [ 1 x_89_ ^ 2 + 1 y_89_ ^ 2 ] <= -2768.7679617349813
c287: 46 x_90_ - 154 y_90_ + [ 1 x_90_ ^ 2 + 1 y_90_ ^ 2 ] <= 26160.97202737845
c288: 46 x_91_ - 154 y_91_ + [ 1 x_91_ ^ 2 + 1 y_91_ ^ 2 ] <= 26356.887539807474
c289: 46 x_92_ - 154 y_92_ + [ 1 x_92_ ^ 2 + 1 y_92_ ^ 2 ] <= 11800.945767339592
c290: 46 x_93_ - 154 y_93_ + [ 1 x_93_ ^ 2 + 1 y_93_ ^ 2 ] <= 24467.426198120505
c291: 46 x_94_ - 154 y_94_ + [ 1 x_94_ ^ 2 + 1 y_94_ ^ 2 ] <= 19552.668734590075
c292: 46 x_95_ - 154 y_95_ + [ 1 x_95_ ^ 2 + 1 y_95_ ^ 2 ] <= 26420.037156824583
c293: 46 x_96_ - 154 y_96_ + [ 1 x_96_ ^ 2 + 1 y_96_ ^ 2 ] <= 21071.05336266343
c294: 46 x_97_ - 154 y_97_ + [ 1 x_97_ ^ 2 + 1 y_97_ ^ 2 ] <= 52101.43894904789
c295: 46 x_98_ - 154 y_98_ + [ 1 x_98_ ^ 2 + 1 y_98_ ^ 2 ] <= 11317.019448042003
c296: 46 x_99_ - 154 y_99_ + [ 1 x_99_ ^ 2 + 1 y_99_ ^ 2 ] <= -208.52094910541564
c297: 46 x_100_ - 154 y_100_ + [ 1 x_100_ ^ 2 + 1 y_100_ ^ 2 ] <= 22884.357472023166
quadratic_ranged_1_ub: [ 1 x_1_ ^ 2 - 2 x_2_ * x_1_ + 1 x_2_ ^ 2 + 1 y_1_ ^ 2 - 2 y_2_ * y_1_ + 1 y_2_ ^ 2 ] <= 23966.29
quadratic_ranged_2_ub: [ 1 x_2_ ^ 2 - 2 x_3_ * x_2_ + 1 x_3_ ^ 2 + 1 y_2_ ^ 2 - 2 y_3_ * y_2_ + 1 y_3_ ^ 2 ] <= 18350.69
quadratic_ranged_3_ub: [ 1 x_3_ ^ 2 - 2 x_4_ * x_3_ + 1 x_4_ ^ 2 + 1 y_3_ ^ 2 - 2 y_4_ * y_3_ + 1 y_4_ ^ 2 ] <= 24211.72
quadratic_ranged_4_ub: [ 1 x_4_ ^ 2 - 2 x_5_ * x_4_ + 1 x_5_ ^ 2 + 1 y_4_ ^ 2 - 2 y_5_ * y_4_ + 1 y_5_ ^ 2 ] <= 85.85
quadratic_ranged_5_ub: [ 1 x_5_ ^ 2 - 2 x_6_ * x_5_ + 1 x_6_ ^ 2 + 1 y_5_ ^ 2 - 2 y_6_ * y_5_ + 1 y_6_ ^ 2 ] <= 6304.42
quadratic_ranged_6_ub: [ 1 x_6_ ^ 2 - 2 x_7_ * x_6_ + 1 x_7_ ^ 2 + 1 y_6_ ^ 2 - 2 y_7_ * y_6_ + 1 y_7_ ^ 2 ] <= 5927.69
quadratic_ranged_7_ub: [ 1 x_7_ ^ 2 - 2 x_8_ * x_7_ + 1 x_8_ ^ 2 + 1 y_7_ ^ 2 - 2 y_8_ * y_7_ + 1 y_8_ ^ 2 ] <= 7842.65
quadratic_ranged_8_ub: [ 1 x_5_ ^ 2 - 2 x_9_ * x_5_ + 1 x_9_ ^ 2 + 1 y_5_ ^ 2 - 2 y_9_ * y_5_ + 1 y_9_ ^ 2 ] <= 18054.76
quadratic_ranged_9_ub: [ 1 x_8_ ^ 2 - 2 x_9_ * x_8_ + 1 x_9_ ^ 2 + 1 y_8_ ^ 2 - 2 y_9_ * y_8_ + 1 y_9_ ^ 2 ] <= 731.24
quadratic_ranged_10_ub: [ 1 x_7_ ^ 2 - 2 x_10_ * x_7_ + 1 x_10_ ^ 2 + 1 y_7_ ^ 2 - 2 y_10_ * y_7_ + 1 y_10_ ^ 2 ] <= 6795.28
quadratic_ranged_11_ub: [ 1 x_9_ ^ 2 - 2 x_10_ * x_9_ + 1 x_10_ ^ 2 + 1 y_9_ ^ 2 - 2 y_10_ * y_9_ + 1 y_10_ ^ 2 ] <= 30442.41
quadratic_ranged_12_ub: [ 1 x_8_ ^ 2 - 2 x_11_ * x_8_ + 1 x_11_ ^ 2 + 1 y_8_ ^ 2 - 2 y_11_ * y_8_ + 1 y_11_ ^ 2 ] <= 27653.8
quadratic_ranged_13_ub: [ 1 x_10_ ^ 2 - 2 x_11_ * x_10_ + 1 x_11_ ^ 2 + 1 y_10_ ^ 2 - 2 y_11_ * y_10_ + 1 y_11_ ^ 2 ] <= 2691.65
quadratic_ranged_14_ub: [ 1 x_11_ ^ 2 - 2 x_12_ * x_11_ + 1 x_12_ ^ 2 + 1 y_11_ ^ 2 - 2 y_12_ * y_11_ + 1 y_12_ ^ 2 ] <= 8408.25
quadratic_ranged_15_ub: [ 1 x_9_ ^ 2 - 2 x_13_ * x_9_ + 1 x_13_ ^ 2 + 1 y_9_ ^ 2 - 2 y_13_ * y_9_ + 1 y_13_ ^ 2 ] <= 5265.13
quadratic_ranged_16_ub: [ 1 x_12_ ^ 2 - 2 x_13_ * x_12_ + 1 x_13_ ^ 2 + 1 y_12_ ^ 2 - 2 y_13_ * y_12_ + 1 y_13_ ^ 2 ] <= 16620.56
quadratic_ranged_17_ub: [ 1 x_2_ ^ 2 - 2 x_14_ * x_2_ + 1 x_14_ ^ 2 + 1 y_2_ ^ 2 - 2 y_14_ * y_2_ + 1 y_14_ ^ 2 ] <= 25920.64
quadratic_ranged_18_ub: [ 1 x_9_ ^ 2 - 2 x_14_ * x_9_ + 1 x_14_ ^ 2 + 1 y_9_ ^ 2 - 2 y_14_ * y_9_ + 1 y_14_ ^ 2 ] <= 808
quadratic_ranged_19_ub: [ 1 x_12_ ^ 2 - 2 x_14_ * x_12_ + 1 x_14_ ^ 2 + 1 y_12_ ^ 2 - 2 y_14_ * y_12_ + 1 y_14_ ^ 2 ] <= 22827.01
quadratic_ranged_20_ub: [ 1 x_13_ ^ 2 - 2 x_14_ * x_13_ + 1 x_14_ ^ 2 + 1 y_13_ ^ 2 - 2 y_14_ * y_13_ + 1 y_14_ ^ 2 ] <= 9006.17
quadratic_ranged_21_ub: [ 1 x_7_ ^ 2 - 2 x_15_ * x_7_ + 1 x_15_ ^ 2 + 1 y_7_ ^ 2 - 2 y_15_ * y_7_ + 1 y_15_ ^ 2 ] <= 13518.85
quadratic_ranged_22_ub: [ 1 x_8_ ^ 2 - 2 x_15_ * x_8_ + 1 x_15_ ^ 2 + 1 y_8_ ^ 2 - 2 y_15_ * y_8_ + 1 y_15_ ^ 2 ] <= 19432.4
quadratic_ranged_23_ub: [ 1 x_9_ ^ 2 - 2 x_15_ * x_9_ + 1 x_15_ ^ 2 + 1 y_9_ ^ 2 - 2 y_15_ * y_9_ + 1 y_15_ ^ 2 ] <= 17925.48
quadratic_ranged_24_ub: [ 1 x_14_ ^ 2 - 2 x_15_ * x_14_ + 1 x_15_ ^ 2 + 1 y_14_ ^ 2 - 2 y_15_ * y_14_ + 1 y_15_ ^ 2 ] <= 11994.76
quadratic_ranged_25_ub: [ 1 x_15_ ^ 2 - 2 x_16_ * x_15_ + 1 x_16_ ^ 2 + 1 y_15_ ^ 2 - 2 y_16_ * y_15_ + 1 y_16_ ^ 2 ] <= 18697.12
quadratic_ranged_26_ub: [ 1 x_6_ ^ 2 - 2 x_17_ * x_6_ + 1 x_17_ ^ 2 + 1 y_6_ ^ 2 - 2 y_17_ * y_6_ + 1 y_17_ ^ 2 ] <= 23715.81
quadratic_ranged_27_ub: [ 1 x_14_ ^ 2 - 2 x_17_ * x_14_ + 1 x_17_ ^ 2 + 1 y_14_ ^ 2 - 2 y_17_ * y_14_ + 1 y_17_ ^ 2 ] <= 14439.97
quadratic_ranged_28_ub: [ 1 x_16_ ^ 2 - 2 x_17_ * x_16_ + 1 x_17_ ^ 2 + 1 y_16_ ^ 2 - 2 y_17_ * y_16_ + 1 y_17_ ^ 2 ] <= 12630.05
quadratic_ranged_29_ub: [ 1 x_9_ ^ 2 - 2 x_18_ * x_9_ + 1 x_18_ ^ 2 + 1 y_9_ ^ 2 - 2 y_18_ * y_9_ + 1 y_18_ ^ 2 ] <= 16500.37
quadratic_ranged_30_ub: [ 1 x_14_ ^ 2 - 2 x_18_ * x_14_ + 1 x_18_ ^ 2 + 1 y_14_ ^ 2 - 2 y_18_ * y_14_ + 1 y_18_ ^ 2 ] <= 14553.09
quadratic_ranged_31_ub: [ 1 x_15_ ^ 2 - 2 x_18_ * x_15_ + 1 x_18_ ^ 2 + 1 y_15_ ^ 2 - 2 y_18_ * y_15_ + 1 y_18_ ^ 2 ] <= 8125.45
quadratic_ranged_32_ub: [ 1 x_17_ ^ 2 - 2 x_18_ * x_17_ + 1 x_18_ ^ 2 + 1 y_17_ ^ 2 - 2 y_18_ * y_17_ + 1 y_18_ ^ 2 ] <= 4122.82
quadratic_ranged_33_ub: [ 1 x_10_ ^ 2 - 2 x_19_ * x_10_ + 1 x_19_ ^ 2 + 1 y_10_ ^ 2 - 2 y_19_ * y_10_ + 1 y_19_ ^ 2 ] <= 12526.02
quadratic_ranged_34_ub: [ 1 x_12_ ^ 2 - 2 x_19_ * x_12_ + 1 x_19_ ^ 2 + 1 y_12_ ^ 2 - 2 y_19_ * y_12_ + 1 y_19_ ^ 2 ] <= 7669.9400000000005
quadratic_ranged_35_ub: [ 1 x_14_ ^ 2 - 2 x_19_ * x_14_ + 1 x_19_ ^ 2 + 1 y_14_ ^ 2 - 2 y_19_ * y_14_ + 1 y_19_ ^ 2 ] <= 4513.69
quadratic_ranged_36_ub: [ 1 x_16_ ^ 2 - 2 x_19_ * x_16_ + 1 x_19_ ^ 2 + 1 y_16_ ^ 2 - 2 y_19_ * y_16_ + 1 y_19_ ^ 2 ] <= 5034.85
quadratic_ranged_37_ub: [ 1 x_18_ ^ 2 - 2 x_19_ * x_18_ + 1 x_19_ ^ 2 + 1 y_18_ ^ 2 - 2 y_19_ * y_18_ + 1 y_19_ ^ 2 ] <= 4189.4800000000005
quadratic_ranged_38_ub: [ 1 x_17_ ^ 2 - 2 x_20_ * x_17_ + 1 x_20_ ^ 2 + 1 y_17_ ^ 2 - 2 y_20_ * y_17_ + 1 y_20_ ^ 2 ] <= 5681.25
quadratic_ranged_39_ub: [ 1 x_19_ ^ 2 - 2 x_20_ * x_19_ + 1 x_20_ ^ 2 + 1 y_19_ ^ 2 - 2 y_20_ * y_19_ + 1 y_20_ ^ 2 ] <= 619.13
quadratic_ranged_40_ub: [ 1 x_9_ ^ 2 - 2 x_21_ * x_9_ + 1 x_21_ ^ 2 + 1 y_9_ ^ 2 - 2 y_21_ * y_9_ + 1 y_21_ ^ 2 ] <= 16194.34
quadratic_ranged_41_ub: [ 1 x_11_ ^ 2 - 2 x_21_ * x_11_ + 1 x_21_ ^ 2 + 1 y_11_ ^ 2 - 2 y_21_ * y_11_ + 1 y_21_ ^ 2 ] <= 23563.3
quadratic_ranged_42_ub: [ 1 x_20_ ^ 2 - 2 x_21_ * x_20_ + 1 x_21_ ^ 2 + 1 y_20_ ^ 2 - 2 y_21_ * y_20_ + 1 y_21_ ^ 2 ] <= 6352.9
quadratic_ranged_43_ub: [ 1 x_14_ ^ 2 - 2 x_22_ * x_14_ + 1 x_22_ ^ 2 + 1 y_14_ ^ 2 - 2 y_22_ * y_14_ + 1 y_22_ ^ 2 ] <= 1474.6
quadratic_ranged_44_ub: [ 1 x_21_ ^ 2 - 2 x_22_ * x_21_ + 1 x_22_ ^ 2 + 1 y_21_ ^ 2 - 2 y_22_ * y_21_ + 1 y_22_ ^ 2 ] <= 11370.58
quadratic_ranged_45_ub: [ 1 x_12_ ^ 2 - 2 x_23_ * x_12_ + 1 x_23_ ^ 2 + 1 y_12_ ^ 2 - 2 y_23_ * y_12_ + 1 y_23_ ^ 2 ] <= 15963.05
quadratic_ranged_46_ub: [ 1 x_22_ ^ 2 - 2 x_23_ * x_22_ + 1 x_23_ ^ 2 + 1 y_22_ ^ 2 - 2 y_23_ * y_22_ + 1 y_23_ ^ 2 ] <= 14570.26
quadratic_ranged_47_ub: [ 1 x_19_ ^ 2 - 2 x_24_ * x_19_ + 1 x_24_ ^ 2 + 1 y_19_ ^ 2 - 2 y_24_ * y_19_ + 1 y_24_ ^ 2 ] <= 2235.13
quadratic_ranged_48_ub: [ 1 x_23_ ^ 2 - 2 x_24_ * x_23_ + 1 x_24_ ^ 2 + 1 y_23_ ^ 2 - 2 y_24_ * y_23_ + 1 y_24_ ^ 2 ] <= 30714.1
quadratic_ranged_49_ub: [ 1 x_5_ ^ 2 - 2 x_25_ * x_5_ + 1 x_25_ ^ 2 + 1 y_5_ ^ 2 - 2 y_25_ * y_5_ + 1 y_25_ ^ 2 ] <= 20614.1
quadratic_ranged_50_ub: [ 1 x_24_ ^ 2 - 2 x_25_ * x_24_ + 1 x_25_ ^ 2 + 1 y_24_ ^ 2 - 2 y_25_ * y_24_ + 1 y_25_ ^ 2 ] <= 7476.02
quadratic_ranged_51_ub: [ 1 x_13_ ^ 2 - 2 x_26_ * x_13_ + 1 x_26_ ^ 2 + 1 y_13_ ^ 2 - 2 y_26_ * y_13_ + 1 y_26_ ^ 2 ] <= 14367.25
quadratic_ranged_52_ub: [ 1 x_18_ ^ 2 - 2 x_26_ * x_18_ + 1 x_26_ ^ 2 + 1 y_18_ ^ 2 - 2 y_26_ * y_18_ + 1 y_26_ ^ 2 ] <= 3297.65
quadratic_ranged_53_ub: [ 1 x_23_ ^ 2 - 2 x_26_ * x_23_ + 1 x_26_ ^ 2 + 1 y_23_ ^ 2 - 2 y_26_ * y_23_ + 1 y_26_ ^ 2 ] <= 22692.68
quadratic_ranged_54_ub: [ 1 x_24_ ^ 2 - 2 x_26_ * x_24_ + 1 x_26_ ^ 2 + 1 y_24_ ^ 2 - 2 y_26_ * y_24_ + 1 y_26_ ^ 2 ] <= 9100.1
quadratic_ranged_55_ub: [ 1 x_25_ ^ 2 - 2 x_26_ * x_25_ + 1 x_26_ ^ 2 + 1 y_25_ ^ 2 - 2 y_26_ * y_25_ + 1 y_26_ ^ 2 ] <= 33047.2
quadratic_ranged_56_ub: [ 1 x_11_ ^ 2 - 2 x_27_ * x_11_ + 1 x_27_ ^ 2 + 1 y_11_ ^ 2 - 2 y_27_ * y_11_ + 1 y_27_ ^ 2 ] <= 25892.36
quadratic_ranged_57_ub: [ 1 x_26_ ^ 2 - 2 x_27_ * x_26_ + 1 x_27_ ^ 2 + 1 y_26_ ^ 2 - 2 y_27_ * y_26_ + 1 y_27_ ^ 2 ] <= 28225.46
quadratic_ranged_58_ub: [ 1 x_12_ ^ 2 - 2 x_28_ * x_12_ + 1 x_28_ ^ 2 + 1 y_12_ ^ 2 - 2 y_28_ * y_12_ + 1 y_28_ ^ 2 ] <= 12039.2
quadratic_ranged_59_ub: [ 1 x_15_ ^ 2 - 2 x_28_ * x_15_ + 1 x_28_ ^ 2 + 1 y_15_ ^ 2 - 2 y_28_ * y_15_ + 1 y_28_ ^ 2 ] <= 14690.45
quadratic_ranged_60_ub: [ 1 x_18_ ^ 2 - 2 x_28_ * x_18_ + 1 x_28_ ^ 2 + 1 y_18_ ^ 2 - 2 y_28_ * y_18_ + 1 y_28_ ^ 2 ] <= 7839.62
quadratic_ranged_61_ub: [ 1 x_27_ ^ 2 - 2 x_28_ * x_27_ + 1 x_28_ ^ 2 + 1 y_27_ ^ 2 - 2 y_28_ * y_27_ + 1 y_28_ ^ 2 ] <= 3935.9700000000003
quadratic_ranged_62_ub: [ 1 x_14_ ^ 2 - 2 x_29_ * x_14_ + 1 x_29_ ^ 2 + 1 y_14_ ^ 2 - 2 y_29_ * y_14_ + 1 y_29_ ^ 2 ] <= 7151.81
quadratic_ranged_63_ub: [ 1 x_21_ ^ 2 - 2 x_29_ * x_21_ + 1 x_29_ ^ 2 + 1 y_21_ ^ 2 - 2 y_29_ * y_21_ + 1 y_29_ ^ 2 ] <= 38845.61
quadratic_ranged_64_ub: [ 1 x_28_ ^ 2 - 2 x_29_ * x_28_ + 1 x_29_ ^ 2 + 1 y_28_ ^ 2 - 2 y_29_ * y_28_ + 1 y_29_ ^ 2 ] <= 15852.960000000001
quadratic_ranged_65_ub: [ 1 x_8_ ^ 2 - 2 x_30_ * x_8_ + 1 x_30_ ^ 2 + 1 y_8_ ^ 2 - 2 y_30_ * y_8_ + 1 y_30_ ^ 2 ] <= 1128.17
quadratic_ranged_66_ub: [ 1 x_12_ ^ 2 - 2 x_30_ * x_12_ + 1 x_30_ ^ 2 + 1 y_12_ ^ 2 - 2 y_30_ * y_12_ + 1 y_30_ ^ 2 ] <= 25559.06
quadratic_ranged_67_ub: [ 1 x_19_ ^ 2 - 2 x_30_ * x_19_ + 1 x_30_ ^ 2 + 1 y_19_ ^ 2 - 2 y_30_ * y_19_ + 1 y_30_ ^ 2 ] <= 5235.84
quadratic_ranged_68_ub: [ 1 x_23_ ^ 2 - 2 x_30_ * x_23_ + 1 x_30_ ^ 2 + 1 y_23_ ^ 2 - 2 y_30_ * y_23_ + 1 y_30_ ^ 2 ] <= 27929.53
quadratic_ranged_69_ub: [ 1 x_24_ ^ 2 - 2 x_30_ * x_24_ + 1 x_30_ ^ 2 + 1 y_24_ ^ 2 - 2 y_30_ * y_24_ + 1 y_30_ ^ 2 ] <= 7180.09
quadratic_ranged_70_ub: [ 1 x_29_ ^ 2 - 2 x_30_ * x_29_ + 1 x_30_ ^ 2 + 1 y_29_ ^ 2 - 2 y_30_ * y_29_ + 1 y_30_ ^ 2 ] <= 12227.06
quadratic_ranged_71_ub: [ 1 x_10_ ^ 2 - 2 x_31_ * x_10_ + 1 x_31_ ^ 2 + 1 y_10_ ^ 2 - 2 y_31_ * y_10_ + 1 y_31_ ^ 2 ] <= 17357.86
quadratic_ranged_72_ub: [ 1 x_15_ ^ 2 - 2 x_31_ * x_15_ + 1 x_31_ ^ 2 + 1 y_15_ ^ 2 - 2 y_31_ * y_15_ + 1 y_31_ ^ 2 ] <= 1035.25
quadratic_ranged_73_ub: [ 1 x_27_ ^ 2 - 2 x_31_ * x_27_ + 1 x_31_ ^ 2 + 1 y_27_ ^ 2 - 2 y_31_ * y_27_ + 1 y_31_ ^ 2 ] <= 9357.65
quadratic_ranged_74_ub: [ 1 x_30_ ^ 2 - 2 x_31_ * x_30_ + 1 x_31_ ^ 2 + 1 y_30_ ^ 2 - 2 y_31_ * y_30_ + 1 y_31_ ^ 2 ] <= 14079.4
quadratic_ranged_75_ub: [ 1 x_5_ ^ 2 - 2 x_32_ * x_5_ + 1 x_32_ ^ 2 + 1 y_5_ ^ 2 - 2 y_32_ * y_5_ + 1 y_32_ ^ 2 ] <= 41791.78
quadratic_ranged_76_ub: [ 1 x_19_ ^ 2 - 2 x_32_ * x_19_ + 1 x_32_ ^ 2 + 1 y_19_ ^ 2 - 2 y_32_ * y_19_ + 1 y_32_ ^ 2 ] <= 16969.01
quadratic_ranged_77_ub: [ 1 x_22_ ^ 2 - 2 x_32_ * x_22_ + 1 x_32_ ^ 2 + 1 y_22_ ^ 2 - 2 y_32_ * y_22_ + 1 y_32_ ^ 2 ] <= 10530.26
quadratic_ranged_78_ub: [ 1 x_31_ ^ 2 - 2 x_32_ * x_31_ + 1 x_32_ ^ 2 + 1 y_31_ ^ 2 - 2 y_32_ * y_31_ + 1 y_32_ ^ 2 ] <= 1047.3700000000001
quadratic_ranged_79_ub: [ 1 x_3_ ^ 2 - 2 x_33_ * x_3_ + 1 x_33_ ^ 2 + 1 y_3_ ^ 2 - 2 y_33_ * y_3_ + 1 y_33_ ^ 2 ] <= 1464.5
quadratic_ranged_80_ub: [ 1 x_16_ ^ 2 - 2 x_33_ * x_16_ + 1 x_33_ ^ 2 + 1 y_16_ ^ 2 - 2 y_33_ * y_16_ + 1 y_33_ ^ 2 ] <= 10153.53
quadratic_ranged_81_ub: [ 1 x_17_ ^ 2 - 2 x_33_ * x_17_ + 1 x_33_ ^ 2 + 1 y_17_ ^ 2 - 2 y_33_ * y_17_ + 1 y_33_ ^ 2 ] <= 2076.56
quadratic_ranged_82_ub: [ 1 x_28_ ^ 2 - 2 x_33_ * x_28_ + 1 x_33_ ^ 2 + 1 y_28_ ^ 2 - 2 y_33_ * y_28_ + 1 y_33_ ^ 2 ] <= 5631.76
quadratic_ranged_83_ub: [ 1 x_32_ ^ 2 - 2 x_33_ * x_32_ + 1 x_33_ ^ 2 + 1 y_32_ ^ 2 - 2 y_33_ * y_32_ + 1 y_33_ ^ 2 ] <= 6703.37
quadratic_ranged_84_ub: [ 1 x_4_ ^ 2 - 2 x_34_ * x_4_ + 1 x_34_ ^ 2 + 1 y_4_ ^ 2 - 2 y_34_ * y_4_ + 1 y_34_ ^ 2 ] <= 8807.2
quadratic_ranged_85_ub: [ 1 x_33_ ^ 2 - 2 x_34_ * x_33_ + 1 x_34_ ^ 2 + 1 y_33_ ^ 2 - 2 y_34_ * y_33_ + 1 y_34_ ^ 2 ] <= 5213.62
quadratic_ranged_86_ub: [ 1 x_2_ ^ 2 - 2 x_35_ * x_2_ + 1 x_35_ ^ 2 + 1 y_2_ ^ 2 - 2 y_35_ * y_2_ + 1 y_35_ ^ 2 ] <= 28790.05
quadratic_ranged_87_ub: [ 1 x_20_ ^ 2 - 2 x_35_ * x_20_ + 1 x_35_ ^ 2 + 1 y_20_ ^ 2 - 2 y_35_ * y_20_ + 1 y_35_ ^ 2 ] <= 8913.25
quadratic_ranged_88_ub: [ 1 x_24_ ^ 2 - 2 x_35_ * x_24_ + 1 x_35_ ^ 2 + 1 y_24_ ^ 2 - 2 y_35_ * y_24_ + 1 y_35_ ^ 2 ] <= 15789.33
quadratic_ranged_89_ub: [ 1 x_34_ ^ 2 - 2 x_35_ * x_34_ + 1 x_35_ ^ 2 + 1 y_34_ ^ 2 - 2 y_35_ * y_34_ + 1 y_35_ ^ 2 ] <= 20250.5
quadratic_ranged_90_ub: [ 1 x_35_ ^ 2 - 2 x_36_ * x_35_ + 1 x_36_ ^ 2 + 1 y_35_ ^ 2 - 2 y_36_ * y_35_ + 1 y_36_ ^ 2 ] <= 11384.72
quadratic_ranged_91_ub: [ 1 x_6_ ^ 2 - 2 x_37_ * x_6_ + 1 x_37_ ^ 2 + 1 y_6_ ^ 2 - 2 y_37_ * y_6_ + 1 y_37_ ^ 2 ] <= 3907.69
quadratic_ranged_92_ub: [ 1 x_36_ ^ 2 - 2 x_37_ * x_36_ + 1 x_37_ ^ 2 + 1 y_36_ ^ 2 - 2 y_37_ * y_36_ + 1 y_37_ ^ 2 ] <= 19460.68
quadratic_ranged_93_ub: [ 1 x_15_ ^ 2 - 2 x_38_ * x_15_ + 1 x_38_ ^ 2 + 1 y_15_ ^ 2 - 2 y_38_ * y_15_ + 1 y_38_ ^ 2 ] <= 3426.93
quadratic_ranged_94_ub: [ 1 x_37_ ^ 2 - 2 x_38_ * x_37_ + 1 x_38_ ^ 2 + 1 y_37_ ^ 2 - 2 y_38_ * y_37_ + 1 y_38_ ^ 2 ] <= 8881.94
quadratic_ranged_95_ub: [ 1 x_18_ ^ 2 - 2 x_39_ * x_18_ + 1 x_39_ ^ 2 + 1 y_18_ ^ 2 - 2 y_39_ * y_18_ + 1 y_39_ ^ 2 ] <= 10145.45
quadratic_ranged_96_ub: [ 1 x_33_ ^ 2 - 2 x_39_ * x_33_ + 1 x_39_ ^ 2 + 1 y_33_ ^ 2 - 2 y_39_ * y_33_ + 1 y_39_ ^ 2 ] <= 4776.29
quadratic_ranged_97_ub: [ 1 x_38_ ^ 2 - 2 x_39_ * x_38_ + 1 x_39_ ^ 2 + 1 y_38_ ^ 2 - 2 y_39_ * y_38_ + 1 y_39_ ^ 2 ] <= 4283.41
quadratic_ranged_98_ub: [ 1 x_3_ ^ 2 - 2 x_40_ * x_3_ + 1 x_40_ ^ 2 + 1 y_3_ ^ 2 - 2 y_40_ * y_3_ + 1 y_40_ ^ 2 ] <= 12802.76
quadratic_ranged_99_ub: [ 1 x_13_ ^ 2 - 2 x_40_ * x_13_ + 1 x_40_ ^ 2 + 1 y_13_ ^ 2 - 2 y_40_ * y_13_ + 1 y_40_ ^ 2 ] <= 2967.38
quadratic_ranged_100_ub: [ 1 x_20_ ^ 2 - 2 x_40_ * x_20_ + 1 x_40_ ^ 2 + 1 y_20_ ^ 2 - 2 y_40_ * y_20_ + 1 y_40_ ^ 2 ] <= 1301.89
quadratic_ranged_101_ub: [ 1 x_21_ ^ 2 - 2 x_40_ * x_21_ + 1 x_40_ ^ 2 + 1 y_21_ ^ 2 - 2 y_40_ * y_21_ + 1 y_40_ ^ 2 ] <= 2994.65
quadratic_ranged_102_ub: [ 1 x_28_ ^ 2 - 2 x_40_ * x_28_ + 1 x_40_ ^ 2 + 1 y_28_ ^ 2 - 2 y_40_ * y_28_ + 1 y_40_ ^ 2 ] <= 1020.1
quadratic_ranged_103_ub: [ 1 x_33_ ^ 2 - 2 x_40_ * x_33_ + 1 x_40_ ^ 2 + 1 y_33_ ^ 2 - 2 y_40_ * y_33_ + 1 y_40_ ^ 2 ] <= 6013.54
quadratic_ranged_104_ub: [ 1 x_39_ ^ 2 - 2 x_40_ * x_39_ + 1 x_40_ ^ 2 + 1 y_39_ ^ 2 - 2 y_40_ * y_39_ + 1 y_40_ ^ 2 ] <= 3156.25
quadratic_ranged_105_ub: [ 1 x_5_ ^ 2 - 2 x_41_ * x_5_ + 1 x_41_ ^ 2 + 1 y_5_ ^ 2 - 2 y_41_ * y_5_ + 1 y_41_ ^ 2 ] <= 3237.05
quadratic_ranged_106_ub: [ 1 x_15_ ^ 2 - 2 x_41_ * x_15_ + 1 x_41_ ^ 2 + 1 y_15_ ^ 2 - 2 y_41_ * y_15_ + 1 y_41_ ^ 2 ] <= 11773.57
quadratic_ranged_107_ub: [ 1 x_21_ ^ 2 - 2 x_41_ * x_21_ + 1 x_41_ ^ 2 + 1 y_21_ ^ 2 - 2 y_41_ * y_21_ + 1 y_41_ ^ 2 ] <= 3346.13
quadratic_ranged_108_ub: [ 1 x_22_ ^ 2 - 2 x_41_ * x_22_ + 1 x_41_ ^ 2 + 1 y_22_ ^ 2 - 2 y_41_ * y_22_ + 1 y_41_ ^ 2 ] <= 4671.25
quadratic_ranged_109_ub: [ 1 x_35_ ^ 2 - 2 x_41_ * x_35_ + 1 x_41_ ^ 2 + 1 y_35_ ^ 2 - 2 y_41_ * y_35_ + 1 y_41_ ^ 2 ] <= 14984.36
quadratic_ranged_110_ub: [ 1 x_39_ ^ 2 - 2 x_41_ * x_39_ + 1 x_41_ ^ 2 + 1 y_39_ ^ 2 - 2 y_41_ * y_39_ + 1 y_41_ ^ 2 ] <= 6662.97
quadratic_ranged_111_ub: [ 1 x_40_ ^ 2 - 2 x_41_ * x_40_ + 1 x_41_ ^ 2 + 1 y_40_ ^ 2 - 2 y_41_ * y_40_ + 1 y_41_ ^ 2 ] <= 1335.22
quadratic_ranged_112_ub: [ 1 x_6_ ^ 2 - 2 x_42_ * x_6_ + 1 x_42_ ^ 2 + 1 y_6_ ^ 2 - 2 y_42_ * y_6_ + 1 y_42_ ^ 2 ] <= 31129.21
quadratic_ranged_113_ub: [ 1 x_18_ ^ 2 - 2 x_42_ * x_18_ + 1 x_42_ ^ 2 + 1 y_18_ ^ 2 - 2 y_42_ * y_18_ + 1 y_42_ ^ 2 ] <= 29049.62
quadratic_ranged_114_ub: [ 1 x_23_ ^ 2 - 2 x_42_ * x_23_ + 1 x_42_ ^ 2 + 1 y_23_ ^ 2 - 2 y_42_ * y_23_ + 1 y_42_ ^ 2 ] <= 17768.93
quadratic_ranged_115_ub: [ 1 x_26_ ^ 2 - 2 x_42_ * x_26_ + 1 x_42_ ^ 2 + 1 y_26_ ^ 2 - 2 y_42_ * y_26_ + 1 y_42_ ^ 2 ] <= 49531.41
quadratic_ranged_116_ub: [ 1 x_27_ ^ 2 - 2 x_42_ * x_27_ + 1 x_42_ ^ 2 + 1 y_27_ ^ 2 - 2 y_42_ * y_27_ + 1 y_42_ ^ 2 ] <= 7491.17
quadratic_ranged_117_ub: [ 1 x_30_ ^ 2 - 2 x_42_ * x_30_ + 1 x_42_ ^ 2 + 1 y_30_ ^ 2 - 2 y_42_ * y_30_ + 1 y_42_ ^ 2 ] <= 12364.42
quadratic_ranged_118_ub: [ 1 x_35_ ^ 2 - 2 x_42_ * x_35_ + 1 x_42_ ^ 2 + 1 y_35_ ^ 2 - 2 y_42_ * y_35_ + 1 y_42_ ^ 2 ] <= 3009.8
quadratic_ranged_119_ub: [ 1 x_41_ ^ 2 - 2 x_42_ * x_41_ + 1 x_42_ ^ 2 + 1 y_41_ ^ 2 - 2 y_42_ * y_41_ + 1 y_42_ ^ 2 ] <= 29378.88
quadratic_ranged_120_ub: [ 1 x_19_ ^ 2 - 2 x_43_ * x_19_ + 1 x_43_ ^ 2 + 1 y_19_ ^ 2 - 2 y_43_ * y_19_ + 1 y_43_ ^ 2 ] <= 858.5
quadratic_ranged_121_ub: [ 1 x_42_ ^ 2 - 2 x_43_ * x_42_ + 1 x_43_ ^ 2 + 1 y_42_ ^ 2 - 2 y_43_ * y_42_ + 1 y_43_ ^ 2 ] <= 18680.96
quadratic_ranged_122_ub: [ 1 x_10_ ^ 2 - 2 x_44_ * x_10_ + 1 x_44_ ^ 2 + 1 y_10_ ^ 2 - 2 y_44_ * y_10_ + 1 y_44_ ^ 2 ] <= 38470.9
quadratic_ranged_123_ub: [ 1 x_17_ ^ 2 - 2 x_44_ * x_17_ + 1 x_44_ ^ 2 + 1 y_17_ ^ 2 - 2 y_44_ * y_17_ + 1 y_44_ ^ 2 ] <= 17947.7
quadratic_ranged_124_ub: [ 1 x_27_ ^ 2 - 2 x_44_ * x_27_ + 1 x_44_ ^ 2 + 1 y_27_ ^ 2 - 2 y_44_ * y_27_ + 1 y_44_ ^ 2 ] <= 3544.09
quadratic_ranged_125_ub: [ 1 x_30_ ^ 2 - 2 x_44_ * x_30_ + 1 x_44_ ^ 2 + 1 y_30_ ^ 2 - 2 y_44_ * y_30_ + 1 y_44_ ^ 2 ] <= 6952.84
quadratic_ranged_126_ub: [ 1 x_43_ ^ 2 - 2 x_44_ * x_43_ + 1 x_44_ ^ 2 + 1 y_43_ ^ 2 - 2 y_44_ * y_43_ + 1 y_44_ ^ 2 ] <= 12897.7
quadratic_ranged_127_ub: [ 1 x_1_ ^ 2 - 2 x_45_ * x_1_ + 1 x_45_ ^ 2 + 1 y_1_ ^ 2 - 2 y_45_ * y_1_ + 1 y_45_ ^ 2 ] <= 3261.29
quadratic_ranged_128_ub: [ 1 x_7_ ^ 2 - 2 x_45_ * x_7_ + 1 x_45_ ^ 2 + 1 y_7_ ^ 2 - 2 y_45_ * y_7_ + 1 y_45_ ^ 2 ] <= 19235.45
quadratic_ranged_129_ub: [ 1 x_21_ ^ 2 - 2 x_45_ * x_21_ + 1 x_45_ ^ 2 + 1 y_21_ ^ 2 - 2 y_45_ * y_21_ + 1 y_45_ ^ 2 ] <= 23856.2
quadratic_ranged_130_ub: [ 1 x_39_ ^ 2 - 2 x_45_ * x_39_ + 1 x_45_ ^ 2 + 1 y_39_ ^ 2 - 2 y_45_ * y_39_ + 1 y_45_ ^ 2 ] <= 3508.7400000000002
quadratic_ranged_131_ub: [ 1 x_41_ ^ 2 - 2 x_45_ * x_41_ + 1 x_45_ ^ 2 + 1 y_41_ ^ 2 - 2 y_45_ * y_41_ + 1 y_45_ ^ 2 ] <= 19316.25
quadratic_ranged_132_ub: [ 1 x_44_ ^ 2 - 2 x_45_ * x_44_ + 1 x_45_ ^ 2 + 1 y_44_ ^ 2 - 2 y_45_ * y_44_ + 1 y_45_ ^ 2 ] <= 7830.53
quadratic_ranged_133_ub: [ 1 x_3_ ^ 2 - 2 x_46_ * x_3_ + 1 x_46_ ^ 2 + 1 y_3_ ^ 2 - 2 y_46_ * y_3_ + 1 y_46_ ^ 2 ] <= 14352.1
quadratic_ranged_134_ub: [ 1 x_15_ ^ 2 - 2 x_46_ * x_15_ + 1 x_46_ ^ 2 + 1 y_15_ ^ 2 - 2 y_46_ * y_15_ + 1 y_46_ ^ 2 ] <= 17962.85
quadratic_ranged_135_ub: [ 1 x_31_ ^ 2 - 2 x_46_ * x_31_ + 1 x_46_ ^ 2 + 1 y_31_ ^ 2 - 2 y_46_ * y_31_ + 1 y_46_ ^ 2 ] <= 18036.58
quadratic_ranged_136_ub: [ 1 x_35_ ^ 2 - 2 x_46_ * x_35_ + 1 x_46_ ^ 2 + 1 y_35_ ^ 2 - 2 y_46_ * y_35_ + 1 y_46_ ^ 2 ] <= 11219.08
quadratic_ranged_137_ub: [ 1 x_42_ ^ 2 - 2 x_46_ * x_42_ + 1 x_46_ ^ 2 + 1 y_42_ ^ 2 - 2 y_46_ * y_42_ + 1 y_46_ ^ 2 ] <= 25807.52
quadratic_ranged_138_ub: [ 1 x_45_ ^ 2 - 2 x_46_ * x_45_ + 1 x_46_ ^ 2 + 1 y_45_ ^ 2 - 2 y_46_ * y_45_ + 1 y_46_ ^ 2 ] <= 8545.61
quadratic_ranged_139_ub: [ 1 x_5_ ^ 2 - 2 x_47_ * x_5_ + 1 x_47_ ^ 2 + 1 y_5_ ^ 2 - 2 y_47_ * y_5_ + 1 y_47_ ^ 2 ] <= 29447.56
quadratic_ranged_140_ub: [ 1 x_31_ ^ 2 - 2 x_47_ * x_31_ + 1 x_47_ ^ 2 + 1 y_31_ ^ 2 - 2 y_47_ * y_31_ + 1 y_47_ ^ 2 ] <= 1507.93
quadratic_ranged_141_ub: [ 1 x_32_ ^ 2 - 2 x_47_ * x_32_ + 1 x_47_ ^ 2 + 1 y_32_ ^ 2 - 2 y_47_ * y_32_ + 1 y_47_ ^ 2 ] <= 4583.38
quadratic_ranged_142_ub: [ 1 x_33_ ^ 2 - 2 x_47_ * x_33_ + 1 x_47_ ^ 2 + 1 y_33_ ^ 2 - 2 y_47_ * y_33_ + 1 y_47_ ^ 2 ] <= 3115.85
quadratic_ranged_143_ub: [ 1 x_46_ ^ 2 - 2 x_47_ * x_46_ + 1 x_47_ ^ 2 + 1 y_46_ ^ 2 - 2 y_47_ * y_46_ + 1 y_47_ ^ 2 ] <= 20427.25
quadratic_ranged_144_ub: [ 1 x_16_ ^ 2 - 2 x_48_ * x_16_ + 1 x_48_ ^ 2 + 1 y_16_ ^ 2 - 2 y_48_ * y_16_ + 1 y_48_ ^ 2 ] <= 27415.44
quadratic_ranged_145_ub: [ 1 x_19_ ^ 2 - 2 x_48_ * x_19_ + 1 x_48_ ^ 2 + 1 y_19_ ^ 2 - 2 y_48_ * y_19_ + 1 y_48_ ^ 2 ] <= 14791.45
quadratic_ranged_146_ub: [ 1 x_20_ ^ 2 - 2 x_48_ * x_20_ + 1 x_48_ ^ 2 + 1 y_20_ ^ 2 - 2 y_48_ * y_20_ + 1 y_48_ ^ 2 ] <= 12124.04
quadratic_ranged_147_ub: [ 1 x_29_ ^ 2 - 2 x_48_ * x_29_ + 1 x_48_ ^ 2 + 1 y_29_ ^ 2 - 2 y_48_ * y_29_ + 1 y_48_ ^ 2 ] <= 1338.25
quadratic_ranged_148_ub: [ 1 x_32_ ^ 2 - 2 x_48_ * x_32_ + 1 x_48_ ^ 2 + 1 y_32_ ^ 2 - 2 y_48_ * y_32_ + 1 y_48_ ^ 2 ] <= 737.3
quadratic_ranged_149_ub: [ 1 x_47_ ^ 2 - 2 x_48_ * x_47_ + 1 x_48_ ^ 2 + 1 y_47_ ^ 2 - 2 y_48_ * y_47_ + 1 y_48_ ^ 2 ] <= 1652.3600000000001
quadratic_ranged_150_ub: [ 1 x_7_ ^ 2 - 2 x_49_ * x_7_ + 1 x_49_ ^ 2 + 1 y_7_ ^ 2 - 2 y_49_ * y_7_ + 1 y_49_ ^ 2 ] <= 7524.5
quadratic_ranged_151_ub: [ 1 x_16_ ^ 2 - 2 x_49_ * x_16_ + 1 x_49_ ^ 2 + 1 y_16_ ^ 2 - 2 y_49_ * y_16_ + 1 y_49_ ^ 2 ] <= 3661.25
quadratic_ranged_152_ub: [ 1 x_18_ ^ 2 - 2 x_49_ * x_18_ + 1 x_49_ ^ 2 + 1 y_18_ ^ 2 - 2 y_49_ * y_18_ + 1 y_49_ ^ 2 ] <= 11481.68
quadratic_ranged_153_ub: [ 1 x_20_ ^ 2 - 2 x_49_ * x_20_ + 1 x_49_ ^ 2 + 1 y_20_ ^ 2 - 2 y_49_ * y_20_ + 1 y_49_ ^ 2 ] <= 14435.93
quadratic_ranged_154_ub: [ 1 x_28_ ^ 2 - 2 x_49_ * x_28_ + 1 x_49_ ^ 2 + 1 y_28_ ^ 2 - 2 y_49_ * y_28_ + 1 y_49_ ^ 2 ] <= 18303.22
quadratic_ranged_155_ub: [ 1 x_35_ ^ 2 - 2 x_49_ * x_35_ + 1 x_49_ ^ 2 + 1 y_35_ ^ 2 - 2 y_49_ * y_35_ + 1 y_49_ ^ 2 ] <= 44829.86
quadratic_ranged_156_ub: [ 1 x_40_ ^ 2 - 2 x_49_ * x_40_ + 1 x_49_ ^ 2 + 1 y_40_ ^ 2 - 2 y_49_ * y_40_ + 1 y_49_ ^ 2 ] <= 10912.04
quadratic_ranged_157_ub: [ 1 x_48_ ^ 2 - 2 x_49_ * x_48_ + 1 x_49_ ^ 2 + 1 y_48_ ^ 2 - 2 y_49_ * y_48_ + 1 y_49_ ^ 2 ] <= 51111.05
quadratic_ranged_158_ub: [ 1 x_3_ ^ 2 - 2 x_50_ * x_3_ + 1 x_50_ ^ 2 + 1 y_3_ ^ 2 - 2 y_50_ * y_3_ + 1 y_50_ ^ 2 ] <= 37283.14
quadratic_ranged_159_ub: [ 1 x_22_ ^ 2 - 2 x_50_ * x_22_ + 1 x_50_ ^ 2 + 1 y_22_ ^ 2 - 2 y_50_ * y_22_ + 1 y_50_ ^ 2 ] <= 20443.41
quadratic_ranged_160_ub: [ 1 x_23_ ^ 2 - 2 x_50_ * x_23_ + 1 x_50_ ^ 2 + 1 y_23_ ^ 2 - 2 y_50_ * y_23_ + 1 y_50_ ^ 2 ] <= 40813.090000000004
quadratic_ranged_161_ub: [ 1 x_40_ ^ 2 - 2 x_50_ * x_40_ + 1 x_50_ ^ 2 + 1 y_40_ ^ 2 - 2 y_50_ * y_40_ + 1 y_50_ ^ 2 ] <= 8372.9
quadratic_ranged_162_ub: [ 1 x_45_ ^ 2 - 2 x_50_ * x_45_ + 1 x_50_ ^ 2 + 1 y_45_ ^ 2 - 2 y_50_ * y_45_ + 1 y_50_ ^ 2 ] <= 36534.73
quadratic_ranged_163_ub: [ 1 x_49_ ^ 2 - 2 x_50_ * x_49_ + 1 x_50_ ^ 2 + 1 y_49_ ^ 2 - 2 y_50_ * y_49_ + 1 y_50_ ^ 2 ] <= 389.86
quadratic_ranged_164_ub: [ 1 x_7_ ^ 2 - 2 x_51_ * x_7_ + 1 x_51_ ^ 2 + 1 y_7_ ^ 2 - 2 y_51_ * y_7_ + 1 y_51_ ^ 2 ] <= 1532.17
quadratic_ranged_165_ub: [ 1 x_21_ ^ 2 - 2 x_51_ * x_21_ + 1 x_51_ ^ 2 + 1 y_21_ ^ 2 - 2 y_51_ * y_21_ + 1 y_51_ ^ 2 ] <= 6126.66
quadratic_ranged_166_ub: [ 1 x_26_ ^ 2 - 2 x_51_ * x_26_ + 1 x_51_ ^ 2 + 1 y_26_ ^ 2 - 2 y_51_ * y_26_ + 1 y_51_ ^ 2 ] <= 1900.82
quadratic_ranged_167_ub: [ 1 x_42_ ^ 2 - 2 x_51_ * x_42_ + 1 x_51_ ^ 2 + 1 y_42_ ^ 2 - 2 y_51_ * y_42_ + 1 y_51_ ^ 2 ] <= 34361.21
quadratic_ranged_168_ub: [ 1 x_50_ ^ 2 - 2 x_51_ * x_50_ + 1 x_51_ ^ 2 + 1 y_50_ ^ 2 - 2 y_51_ * y_50_ + 1 y_51_ ^ 2 ] <= 9046.57
quadratic_ranged_169_ub: [ 1 x_14_ ^ 2 - 2 x_52_ * x_14_ + 1 x_52_ ^ 2 + 1 y_14_ ^ 2 - 2 y_52_ * y_14_ + 1 y_52_ ^ 2 ] <= 9312.2
quadratic_ranged_170_ub: [ 1 x_25_ ^ 2 - 2 x_52_ * x_25_ + 1 x_52_ ^ 2 + 1 y_25_ ^ 2 - 2 y_52_ * y_25_ + 1 y_52_ ^ 2 ] <= 11944.26
quadratic_ranged_171_ub: [ 1 x_29_ ^ 2 - 2 x_52_ * x_29_ + 1 x_52_ ^ 2 + 1 y_29_ ^ 2 - 2 y_52_ * y_29_ + 1 y_52_ ^ 2 ] <= 25178.29
quadratic_ranged_172_ub: [ 1 x_30_ ^ 2 - 2 x_52_ * x_30_ + 1 x_52_ ^ 2 + 1 y_30_ ^ 2 - 2 y_52_ * y_30_ + 1 y_52_ ^ 2 ] <= 8792.05
quadratic_ranged_173_ub: [ 1 x_37_ ^ 2 - 2 x_52_ * x_37_ + 1 x_52_ ^ 2 + 1 y_37_ ^ 2 - 2 y_52_ * y_37_ + 1 y_52_ ^ 2 ] <= 7903.25
quadratic_ranged_174_ub: [ 1 x_51_ ^ 2 - 2 x_52_ * x_51_ + 1 x_52_ ^ 2 + 1 y_51_ ^ 2 - 2 y_52_ * y_51_ + 1 y_52_ ^ 2 ] <= 5470.16
quadratic_ranged_175_ub: [ 1 x_12_ ^ 2 - 2 x_53_ * x_12_ + 1 x_53_ ^ 2 + 1 y_12_ ^ 2 - 2 y_53_ * y_12_ + 1 y_53_ ^ 2 ] <= 12631.06
quadratic_ranged_176_ub: [ 1 x_22_ ^ 2 - 2 x_53_ * x_22_ + 1 x_53_ ^ 2 + 1 y_22_ ^ 2 - 2 y_53_ * y_22_ + 1 y_53_ ^ 2 ] <= 16205.45
quadratic_ranged_177_ub: [ 1 x_31_ ^ 2 - 2 x_53_ * x_31_ + 1 x_53_ ^ 2 + 1 y_31_ ^ 2 - 2 y_53_ * y_31_ + 1 y_53_ ^ 2 ] <= 6855.88
quadratic_ranged_178_ub: [ 1 x_52_ ^ 2 - 2 x_53_ * x_52_ + 1 x_53_ ^ 2 + 1 y_52_ ^ 2 - 2 y_53_ * y_52_ + 1 y_53_ ^ 2 ] <= 23372.41
quadratic_ranged_179_ub: [ 1 x_9_ ^ 2 - 2 x_54_ * x_9_ + 1 x_54_ ^ 2 + 1 y_9_ ^ 2 - 2 y_54_ * y_9_ + 1 y_54_ ^ 2 ] <= 14225.85
quadratic_ranged_180_ub: [ 1 x_30_ ^ 2 - 2 x_54_ * x_30_ + 1 x_54_ ^ 2 + 1 y_30_ ^ 2 - 2 y_54_ * y_30_ + 1 y_54_ ^ 2 ] <= 13980.42
quadratic_ranged_181_ub: [ 1 x_37_ ^ 2 - 2 x_54_ * x_37_ + 1 x_54_ ^ 2 + 1 y_37_ ^ 2 - 2 y_54_ * y_37_ + 1 y_54_ ^ 2 ] <= 17493.2
quadratic_ranged_182_ub: [ 1 x_52_ ^ 2 - 2 x_54_ * x_52_ + 1 x_54_ ^ 2 + 1 y_52_ ^ 2 - 2 y_54_ * y_52_ + 1 y_54_ ^ 2 ] <= 22790.65
quadratic_ranged_183_ub: [ 1 x_53_ ^ 2 - 2 x_54_ * x_53_ + 1 x_54_ ^ 2 + 1 y_53_ ^ 2 - 2 y_54_ * y_53_ + 1 y_54_ ^ 2 ] <= 9124.34
quadratic_ranged_184_ub: [ 1 x_5_ ^ 2 - 2 x_55_ * x_5_ + 1 x_55_ ^ 2 + 1 y_5_ ^ 2 - 2 y_55_ * y_5_ + 1 y_55_ ^ 2 ] <= 16641.77
quadratic_ranged_185_ub: [ 1 x_6_ ^ 2 - 2 x_55_ * x_6_ + 1 x_55_ ^ 2 + 1 y_6_ ^ 2 - 2 y_55_ * y_6_ + 1 y_55_ ^ 2 ] <= 13300.69
quadratic_ranged_186_ub: [ 1 x_25_ ^ 2 - 2 x_55_ * x_25_ + 1 x_55_ ^ 2 + 1 y_25_ ^ 2 - 2 y_55_ * y_25_ + 1 y_55_ ^ 2 ] <= 25747.93
quadratic_ranged_187_ub: [ 1 x_28_ ^ 2 - 2 x_55_ * x_28_ + 1 x_55_ ^ 2 + 1 y_28_ ^ 2 - 2 y_55_ * y_28_ + 1 y_55_ ^ 2 ] <= 5639.84
quadratic_ranged_188_ub: [ 1 x_29_ ^ 2 - 2 x_55_ * x_29_ + 1 x_55_ ^ 2 + 1 y_29_ ^ 2 - 2 y_55_ * y_29_ + 1 y_55_ ^ 2 ] <= 5494.4
quadratic_ranged_189_ub: [ 1 x_43_ ^ 2 - 2 x_55_ * x_43_ + 1 x_55_ ^ 2 + 1 y_43_ ^ 2 - 2 y_55_ * y_43_ + 1 y_55_ ^ 2 ] <= 5918.6
quadratic_ranged_190_ub: [ 1 x_54_ ^ 2 - 2 x_55_ * x_54_ + 1 x_55_ ^ 2 + 1 y_54_ ^ 2 - 2 y_55_ * y_54_ + 1 y_55_ ^ 2 ] <= 3559.2400000000002
quadratic_ranged_191_ub: [ 1 x_27_ ^ 2 - 2 x_56_ * x_27_ + 1 x_56_ ^ 2 + 1 y_27_ ^ 2 - 2 y_56_ * y_27_ + 1 y_56_ ^ 2 ] <= 19679.85
quadratic_ranged_192_ub: [ 1 x_42_ ^ 2 - 2 x_56_ * x_42_ + 1 x_56_ ^ 2 + 1 y_42_ ^ 2 - 2 y_56_ * y_42_ + 1 y_56_ ^ 2 ] <= 43090.64
quadratic_ranged_193_ub: [ 1 x_55_ ^ 2 - 2 x_56_ * x_55_ + 1 x_56_ ^ 2 + 1 y_55_ ^ 2 - 2 y_56_ * y_55_ + 1 y_56_ ^ 2 ] <= 13239.08
quadratic_ranged_194_ub: [ 1 x_8_ ^ 2 - 2 x_57_ * x_8_ + 1 x_57_ ^ 2 + 1 y_8_ ^ 2 - 2 y_57_ * y_8_ + 1 y_57_ ^ 2 ] <= 2173.52
quadratic_ranged_195_ub: [ 1 x_15_ ^ 2 - 2 x_57_ * x_15_ + 1 x_57_ ^ 2 + 1 y_15_ ^ 2 - 2 y_57_ * y_15_ + 1 y_57_ ^ 2 ] <= 32610.88
quadratic_ranged_196_ub: [ 1 x_17_ ^ 2 - 2 x_57_ * x_17_ + 1 x_57_ ^ 2 + 1 y_17_ ^ 2 - 2 y_57_ * y_17_ + 1 y_57_ ^ 2 ] <= 30882.77
quadratic_ranged_197_ub: [ 1 x_56_ ^ 2 - 2 x_57_ * x_56_ + 1 x_57_ ^ 2 + 1 y_56_ ^ 2 - 2 y_57_ * y_56_ + 1 y_57_ ^ 2 ] <= 9046.57
quadratic_ranged_198_ub: [ 1 x_10_ ^ 2 - 2 x_58_ * x_10_ + 1 x_58_ ^ 2 + 1 y_10_ ^ 2 - 2 y_58_ * y_10_ + 1 y_58_ ^ 2 ] <= 27913.37
quadratic_ranged_199_ub: [ 1 x_11_ ^ 2 - 2 x_58_ * x_11_ + 1 x_58_ ^ 2 + 1 y_11_ ^ 2 - 2 y_58_ * y_11_ + 1 y_58_ ^ 2 ] <= 22351.3
quadratic_ranged_200_ub: [ 1 x_14_ ^ 2 - 2 x_58_ * x_14_ + 1 x_58_ ^ 2 + 1 y_14_ ^ 2 - 2 y_58_ * y_14_ + 1 y_58_ ^ 2 ] <= 317.14
quadratic_ranged_201_ub: [ 1 x_33_ ^ 2 - 2 x_58_ * x_33_ + 1 x_58_ ^ 2 + 1 y_33_ ^ 2 - 2 y_58_ * y_33_ + 1 y_58_ ^ 2 ] <= 5527.7300000000005
quadratic_ranged_202_ub: [ 1 x_35_ ^ 2 - 2 x_58_ * x_35_ + 1 x_58_ ^ 2 + 1 y_35_ ^ 2 - 2 y_58_ * y_35_ + 1 y_58_ ^ 2 ] <= 368.65
quadratic_ranged_203_ub: [ 1 x_37_ ^ 2 - 2 x_58_ * x_37_ + 1 x_58_ ^ 2 + 1 y_37_ ^ 2 - 2 y_58_ * y_37_ + 1 y_58_ ^ 2 ] <= 3297.65
quadratic_ranged_204_ub: [ 1 x_57_ ^ 2 - 2 x_58_ * x_57_ + 1 x_58_ ^ 2 + 1 y_57_ ^ 2 - 2 y_58_ * y_57_ + 1 y_58_ ^ 2 ] <= 12736.1
quadratic_ranged_205_ub: [ 1 x_5_ ^ 2 - 2 x_59_ * x_5_ + 1 x_59_ ^ 2 + 1 y_5_ ^ 2 - 2 y_59_ * y_5_ + 1 y_59_ ^ 2 ] <= 3961.2200000000003
quadratic_ranged_206_ub: [ 1 x_16_ ^ 2 - 2 x_59_ * x_16_ + 1 x_59_ ^ 2 + 1 y_16_ ^ 2 - 2 y_59_ * y_16_ + 1 y_59_ ^ 2 ] <= 753.46
quadratic_ranged_207_ub: [ 1 x_29_ ^ 2 - 2 x_59_ * x_29_ + 1 x_59_ ^ 2 + 1 y_29_ ^ 2 - 2 y_59_ * y_29_ + 1 y_59_ ^ 2 ] <= 29396.05
quadratic_ranged_208_ub: [ 1 x_58_ ^ 2 - 2 x_59_ * x_58_ + 1 x_59_ ^ 2 + 1 y_58_ ^ 2 - 2 y_59_ * y_58_ + 1 y_59_ ^ 2 ] <= 22838.12
quadratic_ranged_209_ub: [ 1 x_1_ ^ 2 - 2 x_60_ * x_1_ + 1 x_60_ ^ 2 + 1 y_1_ ^ 2 - 2 y_60_ * y_1_ + 1 y_60_ ^ 2 ] <= 28643.6
quadratic_ranged_210_ub: [ 1 x_5_ ^ 2 - 2 x_60_ * x_5_ + 1 x_60_ ^ 2 + 1 y_5_ ^ 2 - 2 y_60_ * y_5_ + 1 y_60_ ^ 2 ] <= 15393.41
quadratic_ranged_211_ub: [ 1 x_7_ ^ 2 - 2 x_60_ * x_7_ + 1 x_60_ ^ 2 + 1 y_7_ ^ 2 - 2 y_60_ * y_7_ + 1 y_60_ ^ 2 ] <= 7667.92
quadratic_ranged_212_ub: [ 1 x_20_ ^ 2 - 2 x_60_ * x_20_ + 1 x_60_ ^ 2 + 1 y_20_ ^ 2 - 2 y_60_ * y_20_ + 1 y_60_ ^ 2 ] <= 7333.61
quadratic_ranged_213_ub: [ 1 x_40_ ^ 2 - 2 x_60_ * x_40_ + 1 x_60_ ^ 2 + 1 y_40_ ^ 2 - 2 y_60_ * y_40_ + 1 y_60_ ^ 2 ] <= 13285.54
quadratic_ranged_214_ub: [ 1 x_42_ ^ 2 - 2 x_60_ * x_42_ + 1 x_60_ ^ 2 + 1 y_42_ ^ 2 - 2 y_60_ * y_42_ + 1 y_60_ ^ 2 ] <= 33782.48
quadratic_ranged_215_ub: [ 1 x_54_ ^ 2 - 2 x_60_ * x_54_ + 1 x_60_ ^ 2 + 1 y_54_ ^ 2 - 2 y_60_ * y_54_ + 1 y_60_ ^ 2 ] <= 16499.36
quadratic_ranged_216_ub: [ 1 x_59_ ^ 2 - 2 x_60_ * x_59_ + 1 x_60_ ^ 2 + 1 y_59_ ^ 2 - 2 y_60_ * y_59_ + 1 y_60_ ^ 2 ] <= 3822.85
quadratic_ranged_217_ub: [ 1 x_1_ ^ 2 - 2 x_61_ * x_1_ + 1 x_61_ ^ 2 + 1 y_1_ ^ 2 - 2 y_61_ * y_1_ + 1 y_61_ ^ 2 ] <= 2259.37
quadratic_ranged_218_ub: [ 1 x_14_ ^ 2 - 2 x_61_ * x_14_ + 1 x_61_ ^ 2 + 1 y_14_ ^ 2 - 2 y_61_ * y_14_ + 1 y_61_ ^ 2 ] <= 6062.02
quadratic_ranged_219_ub: [ 1 x_40_ ^ 2 - 2 x_61_ * x_40_ + 1 x_61_ ^ 2 + 1 y_40_ ^ 2 - 2 y_61_ * y_40_ + 1 y_61_ ^ 2 ] <= 11506.93
quadratic_ranged_220_ub: [ 1 x_60_ ^ 2 - 2 x_61_ * x_60_ + 1 x_61_ ^ 2 + 1 y_60_ ^ 2 - 2 y_61_ * y_60_ + 1 y_61_ ^ 2 ] <= 45620.69
quadratic_ranged_221_ub: [ 1 x_19_ ^ 2 - 2 x_62_ * x_19_ + 1 x_62_ ^ 2 + 1 y_19_ ^ 2 - 2 y_62_ * y_19_ + 1 y_62_ ^ 2 ] <= 570.65
quadratic_ranged_222_ub: [ 1 x_36_ ^ 2 - 2 x_62_ * x_36_ + 1 x_62_ ^ 2 + 1 y_36_ ^ 2 - 2 y_62_ * y_36_ + 1 y_62_ ^ 2 ] <= 3762.25
quadratic_ranged_223_ub: [ 1 x_61_ ^ 2 - 2 x_62_ * x_61_ + 1 x_62_ ^ 2 + 1 y_61_ ^ 2 - 2 y_62_ * y_61_ + 1 y_62_ ^ 2 ] <= 16412.5
quadratic_ranged_224_ub: [ 1 x_44_ ^ 2 - 2 x_63_ * x_44_ + 1 x_63_ ^ 2 + 1 y_44_ ^ 2 - 2 y_63_ * y_44_ + 1 y_63_ ^ 2 ] <= 31423.12
quadratic_ranged_225_ub: [ 1 x_46_ ^ 2 - 2 x_63_ * x_46_ + 1 x_63_ ^ 2 + 1 y_46_ ^ 2 - 2 y_63_ * y_46_ + 1 y_63_ ^ 2 ] <= 2232.1
quadratic_ranged_226_ub: [ 1 x_52_ ^ 2 - 2 x_63_ * x_52_ + 1 x_63_ ^ 2 + 1 y_52_ ^ 2 - 2 y_63_ * y_52_ + 1 y_63_ ^ 2 ] <= 2449.25
quadratic_ranged_227_ub: [ 1 x_55_ ^ 2 - 2 x_63_ * x_55_ + 1 x_63_ ^ 2 + 1 y_55_ ^ 2 - 2 y_63_ * y_55_ + 1 y_63_ ^ 2 ] <= 18456.74
quadratic_ranged_228_ub: [ 1 x_62_ ^ 2 - 2 x_63_ * x_62_ + 1 x_63_ ^ 2 + 1 y_62_ ^ 2 - 2 y_63_ * y_62_ + 1 y_63_ ^ 2 ] <= 7866.89
quadratic_ranged_229_ub: [ 1 x_4_ ^ 2 - 2 x_64_ * x_4_ + 1 x_64_ ^ 2 + 1 y_4_ ^ 2 - 2 y_64_ * y_4_ + 1 y_64_ ^ 2 ] <= 21317.06
quadratic_ranged_230_ub: [ 1 x_16_ ^ 2 - 2 x_64_ * x_16_ + 1 x_64_ ^ 2 + 1 y_16_ ^ 2 - 2 y_64_ * y_16_ + 1 y_64_ ^ 2 ] <= 24810.65
quadratic_ranged_231_ub: [ 1 x_17_ ^ 2 - 2 x_64_ * x_17_ + 1 x_64_ ^ 2 + 1 y_17_ ^ 2 - 2 y_64_ * y_17_ + 1 y_64_ ^ 2 ] <= 35895.4
quadratic_ranged_232_ub: [ 1 x_18_ ^ 2 - 2 x_64_ * x_18_ + 1 x_64_ ^ 2 + 1 y_18_ ^ 2 - 2 y_64_ * y_18_ + 1 y_64_ ^ 2 ] <= 27280.1
quadratic_ranged_233_ub: [ 1 x_28_ ^ 2 - 2 x_64_ * x_28_ + 1 x_64_ ^ 2 + 1 y_28_ ^ 2 - 2 y_64_ * y_28_ + 1 y_64_ ^ 2 ] <= 5918.6
quadratic_ranged_234_ub: [ 1 x_35_ ^ 2 - 2 x_64_ * x_35_ + 1 x_64_ ^ 2 + 1 y_35_ ^ 2 - 2 y_64_ * y_35_ + 1 y_64_ ^ 2 ] <= 13529.960000000001
quadratic_ranged_235_ub: [ 1 x_36_ ^ 2 - 2 x_64_ * x_36_ + 1 x_64_ ^ 2 + 1 y_36_ ^ 2 - 2 y_64_ * y_36_ + 1 y_64_ ^ 2 ] <= 30578.760000000002
quadratic_ranged_236_ub: [ 1 x_38_ ^ 2 - 2 x_64_ * x_38_ + 1 x_64_ ^ 2 + 1 y_38_ ^ 2 - 2 y_64_ * y_38_ + 1 y_64_ ^ 2 ] <= 18206.26
quadratic_ranged_237_ub: [ 1 x_45_ ^ 2 - 2 x_64_ * x_45_ + 1 x_64_ ^ 2 + 1 y_45_ ^ 2 - 2 y_64_ * y_45_ + 1 y_64_ ^ 2 ] <= 2190.69
quadratic_ranged_238_ub: [ 1 x_63_ ^ 2 - 2 x_64_ * x_63_ + 1 x_64_ ^ 2 + 1 y_63_ ^ 2 - 2 y_64_ * y_63_ + 1 y_64_ ^ 2 ] <= 6433.7
quadratic_ranged_239_ub: [ 1 x_6_ ^ 2 - 2 x_65_ * x_6_ + 1 x_65_ ^ 2 + 1 y_6_ ^ 2 - 2 y_65_ * y_6_ + 1 y_65_ ^ 2 ] <= 8133.53
quadratic_ranged_240_ub: [ 1 x_14_ ^ 2 - 2 x_65_ * x_14_ + 1 x_65_ ^ 2 + 1 y_14_ ^ 2 - 2 y_65_ * y_14_ + 1 y_65_ ^ 2 ] <= 19603.09
quadratic_ranged_241_ub: [ 1 x_16_ ^ 2 - 2 x_65_ * x_16_ + 1 x_65_ ^ 2 + 1 y_16_ ^ 2 - 2 y_65_ * y_16_ + 1 y_65_ ^ 2 ] <= 126.25
quadratic_ranged_242_ub: [ 1 x_26_ ^ 2 - 2 x_65_ * x_26_ + 1 x_65_ ^ 2 + 1 y_26_ ^ 2 - 2 y_65_ * y_26_ + 1 y_65_ ^ 2 ] <= 635.29
quadratic_ranged_243_ub: [ 1 x_35_ ^ 2 - 2 x_65_ * x_35_ + 1 x_65_ ^ 2 + 1 y_35_ ^ 2 - 2 y_65_ * y_35_ + 1 y_65_ ^ 2 ] <= 25696.420000000002
quadratic_ranged_244_ub: [ 1 x_38_ ^ 2 - 2 x_65_ * x_38_ + 1 x_65_ ^ 2 + 1 y_38_ ^ 2 - 2 y_65_ * y_38_ + 1 y_65_ ^ 2 ] <= 21016.08
quadratic_ranged_245_ub: [ 1 x_54_ ^ 2 - 2 x_65_ * x_54_ + 1 x_65_ ^ 2 + 1 y_54_ ^ 2 - 2 y_65_ * y_54_ + 1 y_65_ ^ 2 ] <= 29978.82
quadratic_ranged_246_ub: [ 1 x_62_ ^ 2 - 2 x_65_ * x_62_ + 1 x_65_ ^ 2 + 1 y_62_ ^ 2 - 2 y_65_ * y_62_ + 1 y_65_ ^ 2 ] <= 3491.57
quadratic_ranged_247_ub: [ 1 x_64_ ^ 2 - 2 x_65_ * x_64_ + 1 x_65_ ^ 2 + 1 y_64_ ^ 2 - 2 y_65_ * y_64_ + 1 y_65_ ^ 2 ] <= 23563.3
quadratic_ranged_248_ub: [ 1 x_3_ ^ 2 - 2 x_66_ * x_3_ + 1 x_66_ ^ 2 + 1 y_3_ ^ 2 - 2 y_66_ * y_3_ + 1 y_66_ ^ 2 ] <= 27164.96
quadratic_ranged_249_ub: [ 1 x_30_ ^ 2 - 2 x_66_ * x_30_ + 1 x_66_ ^ 2 + 1 y_30_ ^ 2 - 2 y_66_ * y_30_ + 1 y_66_ ^ 2 ] <= 8633.48
quadratic_ranged_250_ub: [ 1 x_48_ ^ 2 - 2 x_66_ * x_48_ + 1 x_66_ ^ 2 + 1 y_48_ ^ 2 - 2 y_66_ * y_48_ + 1 y_66_ ^ 2 ] <= 36910.45
quadratic_ranged_251_ub: [ 1 x_51_ ^ 2 - 2 x_66_ * x_51_ + 1 x_66_ ^ 2 + 1 y_51_ ^ 2 - 2 y_66_ * y_51_ + 1 y_66_ ^ 2 ] <= 15490.37
quadratic_ranged_252_ub: [ 1 x_53_ ^ 2 - 2 x_66_ * x_53_ + 1 x_66_ ^ 2 + 1 y_53_ ^ 2 - 2 y_66_ * y_53_ + 1 y_66_ ^ 2 ] <= 40775.72
quadratic_ranged_253_ub: [ 1 x_54_ ^ 2 - 2 x_66_ * x_54_ + 1 x_66_ ^ 2 + 1 y_54_ ^ 2 - 2 y_66_ * y_54_ + 1 y_66_ ^ 2 ] <= 34188.5
quadratic_ranged_254_ub: [ 1 x_56_ ^ 2 - 2 x_66_ * x_56_ + 1 x_66_ ^ 2 + 1 y_56_ ^ 2 - 2 y_66_ * y_56_ + 1 y_66_ ^ 2 ] <= 5237.86
quadratic_ranged_255_ub: [ 1 x_59_ ^ 2 - 2 x_66_ * x_59_ + 1 x_66_ ^ 2 + 1 y_59_ ^ 2 - 2 y_66_ * y_59_ + 1 y_66_ ^ 2 ] <= 14880.33
quadratic_ranged_256_ub: [ 1 x_65_ ^ 2 - 2 x_66_ * x_65_ + 1 x_66_ ^ 2 + 1 y_65_ ^ 2 - 2 y_66_ * y_65_ + 1 y_66_ ^ 2 ] <= 8245.64
quadratic_ranged_257_ub: [ 1 x_16_ ^ 2 - 2 x_67_ * x_16_ + 1 x_67_ ^ 2 + 1 y_16_ ^ 2 - 2 y_67_ * y_16_ + 1 y_67_ ^ 2 ] <= 409.05
quadratic_ranged_258_ub: [ 1 x_21_ ^ 2 - 2 x_67_ * x_21_ + 1 x_67_ ^ 2 + 1 y_21_ ^ 2 - 2 y_67_ * y_21_ + 1 y_67_ ^ 2 ] <= 3847.09
quadratic_ranged_259_ub: [ 1 x_42_ ^ 2 - 2 x_67_ * x_42_ + 1 x_67_ ^ 2 + 1 y_42_ ^ 2 - 2 y_67_ * y_42_ + 1 y_67_ ^ 2 ] <= 40727.24
quadratic_ranged_260_ub: [ 1 x_45_ ^ 2 - 2 x_67_ * x_45_ + 1 x_67_ ^ 2 + 1 y_45_ ^ 2 - 2 y_67_ * y_45_ + 1 y_67_ ^ 2 ] <= 30628.25
quadratic_ranged_261_ub: [ 1 x_48_ ^ 2 - 2 x_67_ * x_48_ + 1 x_67_ ^ 2 + 1 y_48_ ^ 2 - 2 y_67_ * y_48_ + 1 y_67_ ^ 2 ] <= 24443.01
quadratic_ranged_262_ub: [ 1 x_50_ ^ 2 - 2 x_67_ * x_50_ + 1 x_67_ ^ 2 + 1 y_50_ ^ 2 - 2 y_67_ * y_50_ + 1 y_67_ ^ 2 ] <= 5546.92
quadratic_ranged_263_ub: [ 1 x_51_ ^ 2 - 2 x_67_ * x_51_ + 1 x_67_ ^ 2 + 1 y_51_ ^ 2 - 2 y_67_ * y_51_ + 1 y_67_ ^ 2 ] <= 453.49
quadratic_ranged_264_ub: [ 1 x_61_ ^ 2 - 2 x_67_ * x_61_ + 1 x_67_ ^ 2 + 1 y_61_ ^ 2 - 2 y_67_ * y_61_ + 1 y_67_ ^ 2 ] <= 31234.25
quadratic_ranged_265_ub: [ 1 x_63_ ^ 2 - 2 x_67_ * x_63_ + 1 x_67_ ^ 2 + 1 y_63_ ^ 2 - 2 y_67_ * y_63_ + 1 y_67_ ^ 2 ] <= 12679.54
quadratic_ranged_266_ub: [ 1 x_66_ ^ 2 - 2 x_67_ * x_66_ + 1 x_67_ ^ 2 + 1 y_66_ ^ 2 - 2 y_67_ * y_66_ + 1 y_67_ ^ 2 ] <= 13455.22
quadratic_ranged_267_ub: [ 1 x_4_ ^ 2 - 2 x_68_ * x_4_ + 1 x_68_ ^ 2 + 1 y_4_ ^ 2 - 2 y_68_ * y_4_ + 1 y_68_ ^ 2 ] <= 15644.9
quadratic_ranged_268_ub: [ 1 x_9_ ^ 2 - 2 x_68_ * x_9_ + 1 x_68_ ^ 2 + 1 y_9_ ^ 2 - 2 y_68_ * y_9_ + 1 y_68_ ^ 2 ] <= 3645.09
quadratic_ranged_269_ub: [ 1 x_14_ ^ 2 - 2 x_68_ * x_14_ + 1 x_68_ ^ 2 + 1 y_14_ ^ 2 - 2 y_68_ * y_14_ + 1 y_68_ ^ 2 ] <= 7822.45
quadratic_ranged_270_ub: [ 1 x_18_ ^ 2 - 2 x_68_ * x_18_ + 1 x_68_ ^ 2 + 1 y_18_ ^ 2 - 2 y_68_ * y_18_ + 1 y_68_ ^ 2 ] <= 23151.22
quadratic_ranged_271_ub: [ 1 x_23_ ^ 2 - 2 x_68_ * x_23_ + 1 x_68_ ^ 2 + 1 y_23_ ^ 2 - 2 y_68_ * y_23_ + 1 y_68_ ^ 2 ] <= 45491.41
quadratic_ranged_272_ub: [ 1 x_25_ ^ 2 - 2 x_68_ * x_25_ + 1 x_68_ ^ 2 + 1 y_25_ ^ 2 - 2 y_68_ * y_25_ + 1 y_68_ ^ 2 ] <= 574.69
quadratic_ranged_273_ub: [ 1 x_28_ ^ 2 - 2 x_68_ * x_28_ + 1 x_68_ ^ 2 + 1 y_28_ ^ 2 - 2 y_68_ * y_28_ + 1 y_68_ ^ 2 ] <= 4512.68
quadratic_ranged_274_ub: [ 1 x_40_ ^ 2 - 2 x_68_ * x_40_ + 1 x_68_ ^ 2 + 1 y_40_ ^ 2 - 2 y_68_ * y_40_ + 1 y_68_ ^ 2 ] <= 7427.54
quadratic_ranged_275_ub: [ 1 x_61_ ^ 2 - 2 x_68_ * x_61_ + 1 x_68_ ^ 2 + 1 y_61_ ^ 2 - 2 y_68_ * y_61_ + 1 y_68_ ^ 2 ] <= 1200.89
quadratic_ranged_276_ub: [ 1 x_63_ ^ 2 - 2 x_68_ * x_63_ + 1 x_68_ ^ 2 + 1 y_63_ ^ 2 - 2 y_68_ * y_63_ + 1 y_68_ ^ 2 ] <= 3177.46
quadratic_ranged_277_ub: [ 1 x_67_ ^ 2 - 2 x_68_ * x_67_ + 1 x_68_ ^ 2 + 1 y_67_ ^ 2 - 2 y_68_ * y_67_ + 1 y_68_ ^ 2 ] <= 23678.44
quadratic_ranged_278_ub: [ 1 x_8_ ^ 2 - 2 x_69_ * x_8_ + 1 x_69_ ^ 2 + 1 y_8_ ^ 2 - 2 y_69_ * y_8_ + 1 y_69_ ^ 2 ] <= 9958.6
quadratic_ranged_279_ub: [ 1 x_17_ ^ 2 - 2 x_69_ * x_17_ + 1 x_69_ ^ 2 + 1 y_17_ ^ 2 - 2 y_69_ * y_17_ + 1 y_69_ ^ 2 ] <= 4954.05
quadratic_ranged_280_ub: [ 1 x_23_ ^ 2 - 2 x_69_ * x_23_ + 1 x_69_ ^ 2 + 1 y_23_ ^ 2 - 2 y_69_ * y_23_ + 1 y_69_ ^ 2 ] <= 7136.66
quadratic_ranged_281_ub: [ 1 x_26_ ^ 2 - 2 x_69_ * x_26_ + 1 x_69_ ^ 2 + 1 y_26_ ^ 2 - 2 y_69_ * y_26_ + 1 y_69_ ^ 2 ] <= 23805.7
quadratic_ranged_282_ub: [ 1 x_28_ ^ 2 - 2 x_69_ * x_28_ + 1 x_69_ ^ 2 + 1 y_28_ ^ 2 - 2 y_69_ * y_28_ + 1 y_69_ ^ 2 ] <= 7903.25
quadratic_ranged_283_ub: [ 1 x_30_ ^ 2 - 2 x_69_ * x_30_ + 1 x_69_ ^ 2 + 1 y_30_ ^ 2 - 2 y_69_ * y_30_ + 1 y_69_ ^ 2 ] <= 7769.93
quadratic_ranged_284_ub: [ 1 x_39_ ^ 2 - 2 x_69_ * x_39_ + 1 x_69_ ^ 2 + 1 y_39_ ^ 2 - 2 y_69_ * y_39_ + 1 y_69_ ^ 2 ] <= 5050
quadratic_ranged_285_ub: [ 1 x_53_ ^ 2 - 2 x_69_ * x_53_ + 1 x_69_ ^ 2 + 1 y_53_ ^ 2 - 2 y_69_ * y_53_ + 1 y_69_ ^ 2 ] <= 9931.33
quadratic_ranged_286_ub: [ 1 x_56_ ^ 2 - 2 x_69_ * x_56_ + 1 x_69_ ^ 2 + 1 y_56_ ^ 2 - 2 y_69_ * y_56_ + 1 y_69_ ^ 2 ] <= 20689.85
quadratic_ranged_287_ub: [ 1 x_62_ ^ 2 - 2 x_69_ * x_62_ + 1 x_69_ ^ 2 + 1 y_62_ ^ 2 - 2 y_69_ * y_62_ + 1 y_69_ ^ 2 ] <= 7401.28
quadratic_ranged_288_ub: [ 1 x_65_ ^ 2 - 2 x_69_ * x_65_ + 1 x_69_ ^ 2 + 1 y_65_ ^ 2 - 2 y_69_ * y_65_ + 1 y_69_ ^ 2 ] <= 20871.65
quadratic_ranged_289_ub: [ 1 x_68_ ^ 2 - 2 x_69_ * x_68_ + 1 x_69_ ^ 2 + 1 y_68_ ^ 2 - 2 y_69_ * y_68_ + 1 y_69_ ^ 2 ] <= 20895.89
quadratic_ranged_290_ub: [ 1 x_1_ ^ 2 - 2 x_70_ * x_1_ + 1 x_70_ ^ 2 + 1 y_1_ ^ 2 - 2 y_70_ * y_1_ + 1 y_70_ ^ 2 ] <= 26790.25
quadratic_ranged_291_ub: [ 1 x_26_ ^ 2 - 2 x_70_ * x_26_ + 1 x_70_ ^ 2 + 1 y_26_ ^ 2 - 2 y_70_ * y_26_ + 1 y_70_ ^ 2 ] <= 55592.42
quadratic_ranged_292_ub: [ 1 x_35_ ^ 2 - 2 x_70_ * x_35_ + 1 x_70_ ^ 2 + 1 y_35_ ^ 2 - 2 y_70_ * y_35_ + 1 y_70_ ^ 2 ] <= 4634.89
quadratic_ranged_293_ub: [ 1 x_69_ ^ 2 - 2 x_70_ * x_69_ + 1 x_70_ ^ 2 + 1 y_69_ ^ 2 - 2 y_70_ * y_69_ + 1 y_70_ ^ 2 ] <= 6730.64
quadratic_ranged_294_ub: [ 1 x_8_ ^ 2 - 2 x_71_ * x_8_ + 1 x_71_ ^ 2 + 1 y_8_ ^ 2 - 2 y_71_ * y_8_ + 1 y_71_ ^ 2 ] <= 12508.85
quadratic_ranged_295_ub: [ 1 x_11_ ^ 2 - 2 x_71_ * x_11_ + 1 x_71_ ^ 2 + 1 y_11_ ^ 2 - 2 y_71_ * y_11_ + 1 y_71_ ^ 2 ] <= 12246.25
quadratic_ranged_296_ub: [ 1 x_29_ ^ 2 - 2 x_71_ * x_29_ + 1 x_71_ ^ 2 + 1 y_29_ ^ 2 - 2 y_71_ * y_29_ + 1 y_71_ ^ 2 ] <= 729.22
quadratic_ranged_297_ub: [ 1 x_34_ ^ 2 - 2 x_71_ * x_34_ + 1 x_71_ ^ 2 + 1 y_34_ ^ 2 - 2 y_71_ * y_34_ + 1 y_71_ ^ 2 ] <= 14907.6
quadratic_ranged_298_ub: [ 1 x_44_ ^ 2 - 2 x_71_ * x_44_ + 1 x_71_ ^ 2 + 1 y_44_ ^ 2 - 2 y_71_ * y_44_ + 1 y_71_ ^ 2 ] <= 3268.36
quadratic_ranged_299_ub: [ 1 x_49_ ^ 2 - 2 x_71_ * x_49_ + 1 x_71_ ^ 2 + 1 y_49_ ^ 2 - 2 y_71_ * y_49_ + 1 y_71_ ^ 2 ] <= 45090.44
quadratic_ranged_300_ub: [ 1 x_70_ ^ 2 - 2 x_71_ * x_70_ + 1 x_71_ ^ 2 + 1 y_70_ ^ 2 - 2 y_71_ * y_70_ + 1 y_71_ ^ 2 ] <= 4731.85
quadratic_ranged_301_ub: [ 1 x_4_ ^ 2 - 2 x_72_ * x_4_ + 1 x_72_ ^ 2 + 1 y_4_ ^ 2 - 2 y_72_ * y_4_ + 1 y_72_ ^ 2 ] <= 453.49
quadratic_ranged_302_ub: [ 1 x_24_ ^ 2 - 2 x_72_ * x_24_ + 1 x_72_ ^ 2 + 1 y_24_ ^ 2 - 2 y_72_ * y_24_ + 1 y_72_ ^ 2 ] <= 5100.5
quadratic_ranged_303_ub: [ 1 x_26_ ^ 2 - 2 x_72_ * x_26_ + 1 x_72_ ^ 2 + 1 y_26_ ^ 2 - 2 y_72_ * y_26_ + 1 y_72_ ^ 2 ] <= 2444.2
quadratic_ranged_304_ub: [ 1 x_28_ ^ 2 - 2 x_72_ * x_28_ + 1 x_72_ ^ 2 + 1 y_28_ ^ 2 - 2 y_72_ * y_28_ + 1 y_72_ ^ 2 ] <= 10658.53
quadratic_ranged_305_ub: [ 1 x_45_ ^ 2 - 2 x_72_ * x_45_ + 1 x_72_ ^ 2 + 1 y_45_ ^ 2 - 2 y_72_ * y_45_ + 1 y_72_ ^ 2 ] <= 30332.32
quadratic_ranged_306_ub: [ 1 x_50_ ^ 2 - 2 x_72_ * x_50_ + 1 x_72_ ^ 2 + 1 y_50_ ^ 2 - 2 y_72_ * y_50_ + 1 y_72_ ^ 2 ] <= 320.17
quadratic_ranged_307_ub: [ 1 x_52_ ^ 2 - 2 x_72_ * x_52_ + 1 x_72_ ^ 2 + 1 y_52_ ^ 2 - 2 y_72_ * y_52_ + 1 y_72_ ^ 2 ] <= 3726.9
quadratic_ranged_308_ub: [ 1 x_62_ ^ 2 - 2 x_72_ * x_62_ + 1 x_72_ ^ 2 + 1 y_62_ ^ 2 - 2 y_72_ * y_62_ + 1 y_72_ ^ 2 ] <= 7427.54
quadratic_ranged_309_ub: [ 1 x_65_ ^ 2 - 2 x_72_ * x_65_ + 1 x_72_ ^ 2 + 1 y_65_ ^ 2 - 2 y_72_ * y_65_ + 1 y_72_ ^ 2 ] <= 1168.57
quadratic_ranged_310_ub: [ 1 x_69_ ^ 2 - 2 x_72_ * x_69_ + 1 x_72_ ^ 2 + 1 y_69_ ^ 2 - 2 y_72_ * y_69_ + 1 y_72_ ^ 2 ] <= 29582.9
quadratic_ranged_311_ub: [ 1 x_71_ ^ 2 - 2 x_72_ * x_71_ + 1 x_72_ ^ 2 + 1 y_71_ ^ 2 - 2 y_72_ * y_71_ + 1 y_72_ ^ 2 ] <= 35088.41
quadratic_ranged_312_ub: [ 1 x_4_ ^ 2 - 2 x_73_ * x_4_ + 1 x_73_ ^ 2 + 1 y_4_ ^ 2 - 2 y_73_ * y_4_ + 1 y_73_ ^ 2 ] <= 25680.260000000002
quadratic_ranged_313_ub: [ 1 x_7_ ^ 2 - 2 x_73_ * x_7_ + 1 x_73_ ^ 2 + 1 y_7_ ^ 2 - 2 y_73_ * y_7_ + 1 y_73_ ^ 2 ] <= 15230.8
quadratic_ranged_314_ub: [ 1 x_8_ ^ 2 - 2 x_73_ * x_8_ + 1 x_73_ ^ 2 + 1 y_8_ ^ 2 - 2 y_73_ * y_8_ + 1 y_73_ ^ 2 ] <= 6198.37
quadratic_ranged_315_ub: [ 1 x_14_ ^ 2 - 2 x_73_ * x_14_ + 1 x_73_ ^ 2 + 1 y_14_ ^ 2 - 2 y_73_ * y_14_ + 1 y_73_ ^ 2 ] <= 918.09
quadratic_ranged_316_ub: [ 1 x_26_ ^ 2 - 2 x_73_ * x_26_ + 1 x_73_ ^ 2 + 1 y_26_ ^ 2 - 2 y_73_ * y_26_ + 1 y_73_ ^ 2 ] <= 29634.41
quadratic_ranged_317_ub: [ 1 x_39_ ^ 2 - 2 x_73_ * x_39_ + 1 x_73_ ^ 2 + 1 y_39_ ^ 2 - 2 y_73_ * y_39_ + 1 y_73_ ^ 2 ] <= 2958.29
quadratic_ranged_318_ub: [ 1 x_42_ ^ 2 - 2 x_73_ * x_42_ + 1 x_73_ ^ 2 + 1 y_42_ ^ 2 - 2 y_73_ * y_42_ + 1 y_73_ ^ 2 ] <= 3627.92
quadratic_ranged_319_ub: [ 1 x_66_ ^ 2 - 2 x_73_ * x_66_ + 1 x_73_ ^ 2 + 1 y_66_ ^ 2 - 2 y_73_ * y_66_ + 1 y_73_ ^ 2 ] <= 18917.3
quadratic_ranged_320_ub: [ 1 x_72_ ^ 2 - 2 x_73_ * x_72_ + 1 x_73_ ^ 2 + 1 y_72_ ^ 2 - 2 y_73_ * y_72_ + 1 y_73_ ^ 2 ] <= 31900.85
quadratic_ranged_321_ub: [ 1 x_4_ ^ 2 - 2 x_74_ * x_4_ + 1 x_74_ ^ 2 + 1 y_4_ ^ 2 - 2 y_74_ * y_4_ + 1 y_74_ ^ 2 ] <= 13675.4
quadratic_ranged_322_ub: [ 1 x_11_ ^ 2 - 2 x_74_ * x_11_ + 1 x_74_ ^ 2 + 1 y_11_ ^ 2 - 2 y_74_ * y_11_ + 1 y_74_ ^ 2 ] <= 4735.89
quadratic_ranged_323_ub: [ 1 x_25_ ^ 2 - 2 x_74_ * x_25_ + 1 x_74_ ^ 2 + 1 y_25_ ^ 2 - 2 y_74_ * y_25_ + 1 y_74_ ^ 2 ] <= 28349.69
quadratic_ranged_324_ub: [ 1 x_35_ ^ 2 - 2 x_74_ * x_35_ + 1 x_74_ ^ 2 + 1 y_35_ ^ 2 - 2 y_74_ * y_35_ + 1 y_74_ ^ 2 ] <= 5989.3
quadratic_ranged_325_ub: [ 1 x_47_ ^ 2 - 2 x_74_ * x_47_ + 1 x_74_ ^ 2 + 1 y_47_ ^ 2 - 2 y_74_ * y_47_ + 1 y_74_ ^ 2 ] <= 2663.37
quadratic_ranged_326_ub: [ 1 x_49_ ^ 2 - 2 x_74_ * x_49_ + 1 x_74_ ^ 2 + 1 y_49_ ^ 2 - 2 y_74_ * y_49_ + 1 y_74_ ^ 2 ] <= 25419.68
quadratic_ranged_327_ub: [ 1 x_61_ ^ 2 - 2 x_74_ * x_61_ + 1 x_74_ ^ 2 + 1 y_61_ ^ 2 - 2 y_74_ * y_61_ + 1 y_74_ ^ 2 ] <= 22915.89
quadratic_ranged_328_ub: [ 1 x_63_ ^ 2 - 2 x_74_ * x_63_ + 1 x_74_ ^ 2 + 1 y_63_ ^ 2 - 2 y_74_ * y_63_ + 1 y_74_ ^ 2 ] <= 19084.96
quadratic_ranged_329_ub: [ 1 x_66_ ^ 2 - 2 x_74_ * x_66_ + 1 x_74_ ^ 2 + 1 y_66_ ^ 2 - 2 y_74_ * y_66_ + 1 y_74_ ^ 2 ] <= 18818.32
quadratic_ranged_330_ub: [ 1 x_73_ ^ 2 - 2 x_74_ * x_73_ + 1 x_74_ ^ 2 + 1 y_73_ ^ 2 - 2 y_74_ * y_73_ + 1 y_74_ ^ 2 ] <= 6037.78
quadratic_ranged_331_ub: [ 1 x_23_ ^ 2 - 2 x_75_ * x_23_ + 1 x_75_ ^ 2 + 1 y_23_ ^ 2 - 2 y_75_ * y_23_ + 1 y_75_ ^ 2 ] <= 33224.96
quadratic_ranged_332_ub: [ 1 x_29_ ^ 2 - 2 x_75_ * x_29_ + 1 x_75_ ^ 2 + 1 y_29_ ^ 2 - 2 y_75_ * y_29_ + 1 y_75_ ^ 2 ] <= 15769.130000000001
quadratic_ranged_333_ub: [ 1 x_37_ ^ 2 - 2 x_75_ * x_37_ + 1 x_75_ ^ 2 + 1 y_37_ ^ 2 - 2 y_75_ * y_37_ + 1 y_75_ ^ 2 ] <= 65.65
quadratic_ranged_334_ub: [ 1 x_39_ ^ 2 - 2 x_75_ * x_39_ + 1 x_75_ ^ 2 + 1 y_39_ ^ 2 - 2 y_75_ * y_39_ + 1 y_75_ ^ 2 ] <= 1981.6200000000001
quadratic_ranged_335_ub: [ 1 x_56_ ^ 2 - 2 x_75_ * x_56_ + 1 x_75_ ^ 2 + 1 y_56_ ^ 2 - 2 y_75_ * y_56_ + 1 y_75_ ^ 2 ] <= 17805.29
quadratic_ranged_336_ub: [ 1 x_71_ ^ 2 - 2 x_75_ * x_71_ + 1 x_75_ ^ 2 + 1 y_71_ ^ 2 - 2 y_75_ * y_71_ + 1 y_75_ ^ 2 ] <= 12621.97
quadratic_ranged_337_ub: [ 1 x_73_ ^ 2 - 2 x_75_ * x_73_ + 1 x_75_ ^ 2 + 1 y_73_ ^ 2 - 2 y_75_ * y_73_ + 1 y_75_ ^ 2 ] <= 5006.57
quadratic_ranged_338_ub: [ 1 x_74_ ^ 2 - 2 x_75_ * x_74_ + 1 x_75_ ^ 2 + 1 y_74_ ^ 2 - 2 y_75_ * y_74_ + 1 y_75_ ^ 2 ] <= 14197.57
quadratic_ranged_339_ub: [ 1 x_10_ ^ 2 - 2 x_76_ * x_10_ + 1 x_76_ ^ 2 + 1 y_10_ ^ 2 - 2 y_76_ * y_10_ + 1 y_76_ ^ 2 ] <= 12145.25
quadratic_ranged_340_ub: [ 1 x_37_ ^ 2 - 2 x_76_ * x_37_ + 1 x_76_ ^ 2 + 1 y_37_ ^ 2 - 2 y_76_ * y_37_ + 1 y_76_ ^ 2 ] <= 8262.81
quadratic_ranged_341_ub: [ 1 x_49_ ^ 2 - 2 x_76_ * x_49_ + 1 x_76_ ^ 2 + 1 y_49_ ^ 2 - 2 y_76_ * y_49_ + 1 y_76_ ^ 2 ] <= 8763.77
quadratic_ranged_342_ub: [ 1 x_74_ ^ 2 - 2 x_76_ * x_74_ + 1 x_76_ ^ 2 + 1 y_74_ ^ 2 - 2 y_76_ * y_74_ + 1 y_76_ ^ 2 ] <= 7519.45
quadratic_ranged_343_ub: [ 1 x_75_ ^ 2 - 2 x_76_ * x_75_ + 1 x_76_ ^ 2 + 1 y_75_ ^ 2 - 2 y_76_ * y_75_ + 1 y_76_ ^ 2 ] <= 9801.04
quadratic_ranged_344_ub: [ 1 x_15_ ^ 2 - 2 x_77_ * x_15_ + 1 x_77_ ^ 2 + 1 y_15_ ^ 2 - 2 y_77_ * y_15_ + 1 y_77_ ^ 2 ] <= 5681.25
quadratic_ranged_345_ub: [ 1 x_16_ ^ 2 - 2 x_77_ * x_16_ + 1 x_77_ ^ 2 + 1 y_16_ ^ 2 - 2 y_77_ * y_16_ + 1 y_77_ ^ 2 ] <= 19893.97
quadratic_ranged_346_ub: [ 1 x_26_ ^ 2 - 2 x_77_ * x_26_ + 1 x_77_ ^ 2 + 1 y_26_ ^ 2 - 2 y_77_ * y_26_ + 1 y_77_ ^ 2 ] <= 25420.69
quadratic_ranged_347_ub: [ 1 x_38_ ^ 2 - 2 x_77_ * x_38_ + 1 x_77_ ^ 2 + 1 y_38_ ^ 2 - 2 y_77_ * y_38_ + 1 y_77_ ^ 2 ] <= 290.88
quadratic_ranged_348_ub: [ 1 x_64_ ^ 2 - 2 x_77_ * x_64_ + 1 x_77_ ^ 2 + 1 y_64_ ^ 2 - 2 y_77_ * y_64_ + 1 y_77_ ^ 2 ] <= 14279.380000000001
quadratic_ranged_349_ub: [ 1 x_66_ ^ 2 - 2 x_77_ * x_66_ + 1 x_77_ ^ 2 + 1 y_66_ ^ 2 - 2 y_77_ * y_66_ + 1 y_77_ ^ 2 ] <= 18765.8
quadratic_ranged_350_ub: [ 1 x_75_ ^ 2 - 2 x_77_ * x_75_ + 1 x_77_ ^ 2 + 1 y_75_ ^ 2 - 2 y_77_ * y_75_ + 1 y_77_ ^ 2 ] <= 6501.37
quadratic_ranged_351_ub: [ 1 x_76_ ^ 2 - 2 x_77_ * x_76_ + 1 x_77_ ^ 2 + 1 y_76_ ^ 2 - 2 y_77_ * y_76_ + 1 y_77_ ^ 2 ] <= 11660.45
quadratic_ranged_352_ub: [ 1 x_10_ ^ 2 - 2 x_78_ * x_10_ + 1 x_78_ ^ 2 + 1 y_10_ ^ 2 - 2 y_78_ * y_10_ + 1 y_78_ ^ 2 ] <= 32362.420000000002
quadratic_ranged_353_ub: [ 1 x_14_ ^ 2 - 2 x_78_ * x_14_ + 1 x_78_ ^ 2 + 1 y_14_ ^ 2 - 2 y_78_ * y_14_ + 1 y_78_ ^ 2 ] <= 7361.89
quadratic_ranged_354_ub: [ 1 x_30_ ^ 2 - 2 x_78_ * x_30_ + 1 x_78_ ^ 2 + 1 y_30_ ^ 2 - 2 y_78_ * y_30_ + 1 y_78_ ^ 2 ] <= 12225.04
quadratic_ranged_355_ub: [ 1 x_37_ ^ 2 - 2 x_78_ * x_37_ + 1 x_78_ ^ 2 + 1 y_37_ ^ 2 - 2 y_78_ * y_37_ + 1 y_78_ ^ 2 ] <= 15782.26
quadratic_ranged_356_ub: [ 1 x_53_ ^ 2 - 2 x_78_ * x_53_ + 1 x_78_ ^ 2 + 1 y_53_ ^ 2 - 2 y_78_ * y_53_ + 1 y_78_ ^ 2 ] <= 17614.4
quadratic_ranged_357_ub: [ 1 x_54_ ^ 2 - 2 x_78_ * x_54_ + 1 x_78_ ^ 2 + 1 y_54_ ^ 2 - 2 y_78_ * y_54_ + 1 y_78_ ^ 2 ] <= 1383.7
quadratic_ranged_358_ub: [ 1 x_77_ ^ 2 - 2 x_78_ * x_77_ + 1 x_78_ ^ 2 + 1 y_77_ ^ 2 - 2 y_78_ * y_77_ + 1 y_78_ ^ 2 ] <= 3013.84
quadratic_ranged_359_ub: [ 1 x_1_ ^ 2 - 2 x_79_ * x_1_ + 1 x_79_ ^ 2 + 1 y_1_ ^ 2 - 2 y_79_ * y_1_ + 1 y_79_ ^ 2 ] <= 35015.69
quadratic_ranged_360_ub: [ 1 x_2_ ^ 2 - 2 x_79_ * x_2_ + 1 x_79_ ^ 2 + 1 y_2_ ^ 2 - 2 y_79_ * y_2_ + 1 y_79_ ^ 2 ] <= 7873.96
quadratic_ranged_361_ub: [ 1 x_8_ ^ 2 - 2 x_79_ * x_8_ + 1 x_79_ ^ 2 + 1 y_8_ ^ 2 - 2 y_79_ * y_8_ + 1 y_79_ ^ 2 ] <= 31059.52
quadratic_ranged_362_ub: [ 1 x_21_ ^ 2 - 2 x_79_ * x_21_ + 1 x_79_ ^ 2 + 1 y_21_ ^ 2 - 2 y_79_ * y_21_ + 1 y_79_ ^ 2 ] <= 26383.22
quadratic_ranged_363_ub: [ 1 x_33_ ^ 2 - 2 x_79_ * x_33_ + 1 x_79_ ^ 2 + 1 y_33_ ^ 2 - 2 y_79_ * y_33_ + 1 y_79_ ^ 2 ] <= 7337.65
quadratic_ranged_364_ub: [ 1 x_59_ ^ 2 - 2 x_79_ * x_59_ + 1 x_79_ ^ 2 + 1 y_59_ ^ 2 - 2 y_79_ * y_59_ + 1 y_79_ ^ 2 ] <= 9504.1
quadratic_ranged_365_ub: [ 1 x_63_ ^ 2 - 2 x_79_ * x_63_ + 1 x_79_ ^ 2 + 1 y_63_ ^ 2 - 2 y_79_ * y_63_ + 1 y_79_ ^ 2 ] <= 39112.25
quadratic_ranged_366_ub: [ 1 x_66_ ^ 2 - 2 x_79_ * x_66_ + 1 x_79_ ^ 2 + 1 y_66_ ^ 2 - 2 y_79_ * y_66_ + 1 y_79_ ^ 2 ] <= 39479.89
quadratic_ranged_367_ub: [ 1 x_69_ ^ 2 - 2 x_79_ * x_69_ + 1 x_79_ ^ 2 + 1 y_69_ ^ 2 - 2 y_79_ * y_69_ + 1 y_79_ ^ 2 ] <= 12463.4
quadratic_ranged_368_ub: [ 1 x_71_ ^ 2 - 2 x_79_ * x_71_ + 1 x_79_ ^ 2 + 1 y_71_ ^ 2 - 2 y_79_ * y_71_ + 1 y_79_ ^ 2 ] <= 13761.25
quadratic_ranged_369_ub: [ 1 x_78_ ^ 2 - 2 x_79_ * x_78_ + 1 x_79_ ^ 2 + 1 y_78_ ^ 2 - 2 y_79_ * y_78_ + 1 y_79_ ^ 2 ] <= 22172.53
quadratic_ranged_370_ub: [ 1 x_9_ ^ 2 - 2 x_80_ * x_9_ + 1 x_80_ ^ 2 + 1 y_9_ ^ 2 - 2 y_80_ * y_9_ + 1 y_80_ ^ 2 ] <= 9269.78
quadratic_ranged_371_ub: [ 1 x_14_ ^ 2 - 2 x_80_ * x_14_ + 1 x_80_ ^ 2 + 1 y_14_ ^ 2 - 2 y_80_ * y_14_ + 1 y_80_ ^ 2 ] <= 5003.54
quadratic_ranged_372_ub: [ 1 x_50_ ^ 2 - 2 x_80_ * x_50_ + 1 x_80_ ^ 2 + 1 y_50_ ^ 2 - 2 y_80_ * y_50_ + 1 y_80_ ^ 2 ] <= 56686.25
quadratic_ranged_373_ub: [ 1 x_71_ ^ 2 - 2 x_80_ * x_71_ + 1 x_80_ ^ 2 + 1 y_71_ ^ 2 - 2 y_80_ * y_71_ + 1 y_80_ ^ 2 ] <= 2627.01
quadratic_ranged_374_ub: [ 1 x_74_ ^ 2 - 2 x_80_ * x_74_ + 1 x_80_ ^ 2 + 1 y_74_ ^ 2 - 2 y_80_ * y_74_ + 1 y_80_ ^ 2 ] <= 11094.85
quadratic_ranged_375_ub: [ 1 x_77_ ^ 2 - 2 x_80_ * x_77_ + 1 x_80_ ^ 2 + 1 y_77_ ^ 2 - 2 y_80_ * y_77_ + 1 y_80_ ^ 2 ] <= 2606.81
quadratic_ranged_376_ub: [ 1 x_79_ ^ 2 - 2 x_80_ * x_79_ + 1 x_80_ ^ 2 + 1 y_79_ ^ 2 - 2 y_80_ * y_79_ + 1 y_80_ ^ 2 ] <= 28338.58
quadratic_ranged_377_ub: [ 1 x_8_ ^ 2 - 2 x_81_ * x_8_ + 1 x_81_ ^ 2 + 1 y_8_ ^ 2 - 2 y_81_ * y_8_ + 1 y_81_ ^ 2 ] <= 5256.04
quadratic_ranged_378_ub: [ 1 x_26_ ^ 2 - 2 x_81_ * x_26_ + 1 x_81_ ^ 2 + 1 y_26_ ^ 2 - 2 y_81_ * y_26_ + 1 y_81_ ^ 2 ] <= 9584.9
quadratic_ranged_379_ub: [ 1 x_46_ ^ 2 - 2 x_81_ * x_46_ + 1 x_81_ ^ 2 + 1 y_46_ ^ 2 - 2 y_81_ * y_46_ + 1 y_81_ ^ 2 ] <= 2126.05
quadratic_ranged_380_ub: [ 1 x_56_ ^ 2 - 2 x_81_ * x_56_ + 1 x_81_ ^ 2 + 1 y_56_ ^ 2 - 2 y_81_ * y_56_ + 1 y_81_ ^ 2 ] <= 2954.25
quadratic_ranged_381_ub: [ 1 x_64_ ^ 2 - 2 x_81_ * x_64_ + 1 x_81_ ^ 2 + 1 y_64_ ^ 2 - 2 y_81_ * y_64_ + 1 y_81_ ^ 2 ] <= 8691.05
quadratic_ranged_382_ub: [ 1 x_80_ ^ 2 - 2 x_81_ * x_80_ + 1 x_81_ ^ 2 + 1 y_80_ ^ 2 - 2 y_81_ * y_80_ + 1 y_81_ ^ 2 ] <= 35295.46
quadratic_ranged_383_ub: [ 1 x_5_ ^ 2 - 2 x_82_ * x_5_ + 1 x_82_ ^ 2 + 1 y_5_ ^ 2 - 2 y_82_ * y_5_ + 1 y_82_ ^ 2 ] <= 5254.02
quadratic_ranged_384_ub: [ 1 x_6_ ^ 2 - 2 x_82_ * x_6_ + 1 x_82_ ^ 2 + 1 y_6_ ^ 2 - 2 y_82_ * y_6_ + 1 y_82_ ^ 2 ] <= 8067.88
quadratic_ranged_385_ub: [ 1 x_9_ ^ 2 - 2 x_82_ * x_9_ + 1 x_82_ ^ 2 + 1 y_9_ ^ 2 - 2 y_82_ * y_9_ + 1 y_82_ ^ 2 ] <= 11079.7
quadratic_ranged_386_ub: [ 1 x_16_ ^ 2 - 2 x_82_ * x_16_ + 1 x_82_ ^ 2 + 1 y_16_ ^ 2 - 2 y_82_ * y_16_ + 1 y_82_ ^ 2 ] <= 2207.86
quadratic_ranged_387_ub: [ 1 x_28_ ^ 2 - 2 x_82_ * x_28_ + 1 x_82_ ^ 2 + 1 y_28_ ^ 2 - 2 y_82_ * y_28_ + 1 y_82_ ^ 2 ] <= 4133.93
quadratic_ranged_388_ub: [ 1 x_66_ ^ 2 - 2 x_82_ * x_66_ + 1 x_82_ ^ 2 + 1 y_66_ ^ 2 - 2 y_82_ * y_66_ + 1 y_82_ ^ 2 ] <= 10448.45
quadratic_ranged_389_ub: [ 1 x_67_ ^ 2 - 2 x_82_ * x_67_ + 1 x_82_ ^ 2 + 1 y_67_ ^ 2 - 2 y_82_ * y_67_ + 1 y_82_ ^ 2 ] <= 1907.89
quadratic_ranged_390_ub: [ 1 x_74_ ^ 2 - 2 x_82_ * x_74_ + 1 x_82_ ^ 2 + 1 y_74_ ^ 2 - 2 y_82_ * y_74_ + 1 y_82_ ^ 2 ] <= 2768.41
quadratic_ranged_391_ub: [ 1 x_79_ ^ 2 - 2 x_82_ * x_79_ + 1 x_82_ ^ 2 + 1 y_79_ ^ 2 - 2 y_82_ * y_79_ + 1 y_82_ ^ 2 ] <= 9342.5
quadratic_ranged_392_ub: [ 1 x_81_ ^ 2 - 2 x_82_ * x_81_ + 1 x_82_ ^ 2 + 1 y_81_ ^ 2 - 2 y_82_ * y_81_ + 1 y_82_ ^ 2 ] <= 8615.3
quadratic_ranged_393_ub: [ 1 x_4_ ^ 2 - 2 x_83_ * x_4_ + 1 x_83_ ^ 2 + 1 y_4_ ^ 2 - 2 y_83_ * y_4_ + 1 y_83_ ^ 2 ] <= 14060.210000000001
quadratic_ranged_394_ub: [ 1 x_6_ ^ 2 - 2 x_83_ * x_6_ + 1 x_83_ ^ 2 + 1 y_6_ ^ 2 - 2 y_83_ * y_6_ + 1 y_83_ ^ 2 ] <= 3236.04
quadratic_ranged_395_ub: [ 1 x_11_ ^ 2 - 2 x_83_ * x_11_ + 1 x_83_ ^ 2 + 1 y_11_ ^ 2 - 2 y_83_ * y_11_ + 1 y_83_ ^ 2 ] <= 25179.3
quadratic_ranged_396_ub: [ 1 x_15_ ^ 2 - 2 x_83_ * x_15_ + 1 x_83_ ^ 2 + 1 y_15_ ^ 2 - 2 y_83_ * y_15_ + 1 y_83_ ^ 2 ] <= 16008.5
quadratic_ranged_397_ub: [ 1 x_22_ ^ 2 - 2 x_83_ * x_22_ + 1 x_83_ ^ 2 + 1 y_22_ ^ 2 - 2 y_83_ * y_22_ + 1 y_83_ ^ 2 ] <= 1367.54
quadratic_ranged_398_ub: [ 1 x_51_ ^ 2 - 2 x_83_ * x_51_ + 1 x_83_ ^ 2 + 1 y_51_ ^ 2 - 2 y_83_ * y_51_ + 1 y_83_ ^ 2 ] <= 15321.7
quadratic_ranged_399_ub: [ 1 x_53_ ^ 2 - 2 x_83_ * x_53_ + 1 x_83_ ^ 2 + 1 y_53_ ^ 2 - 2 y_83_ * y_53_ + 1 y_83_ ^ 2 ] <= 26959.93
quadratic_ranged_400_ub: [ 1 x_59_ ^ 2 - 2 x_83_ * x_59_ + 1 x_83_ ^ 2 + 1 y_59_ ^ 2 - 2 y_83_ * y_59_ + 1 y_83_ ^ 2 ] <= 17170
quadratic_ranged_401_ub: [ 1 x_60_ ^ 2 - 2 x_83_ * x_60_ + 1 x_83_ ^ 2 + 1 y_60_ ^ 2 - 2 y_83_ * y_60_ + 1 y_83_ ^ 2 ] <= 24325.85
quadratic_ranged_402_ub: [ 1 x_62_ ^ 2 - 2 x_83_ * x_62_ + 1 x_83_ ^ 2 + 1 y_62_ ^ 2 - 2 y_83_ * y_62_ + 1 y_83_ ^ 2 ] <= 5552.9800000000005
quadratic_ranged_403_ub: [ 1 x_79_ ^ 2 - 2 x_83_ * x_79_ + 1 x_83_ ^ 2 + 1 y_79_ ^ 2 - 2 y_83_ * y_79_ + 1 y_83_ ^ 2 ] <= 28370.9
quadratic_ranged_404_ub: [ 1 x_82_ ^ 2 - 2 x_83_ * x_82_ + 1 x_83_ ^ 2 + 1 y_82_ ^ 2 - 2 y_83_ * y_82_ + 1 y_83_ ^ 2 ] <= 8225.44
quadratic_ranged_405_ub: [ 1 x_2_ ^ 2 - 2 x_84_ * x_2_ + 1 x_84_ ^ 2 + 1 y_2_ ^ 2 - 2 y_84_ * y_2_ + 1 y_84_ ^ 2 ] <= 14799.53
quadratic_ranged_406_ub: [ 1 x_6_ ^ 2 - 2 x_84_ * x_6_ + 1 x_84_ ^ 2 + 1 y_6_ ^ 2 - 2 y_84_ * y_6_ + 1 y_84_ ^ 2 ] <= 9309.17
quadratic_ranged_407_ub: [ 1 x_19_ ^ 2 - 2 x_84_ * x_19_ + 1 x_84_ ^ 2 + 1 y_19_ ^ 2 - 2 y_84_ * y_19_ + 1 y_84_ ^ 2 ] <= 2359.36
quadratic_ranged_408_ub: [ 1 x_24_ ^ 2 - 2 x_84_ * x_24_ + 1 x_84_ ^ 2 + 1 y_24_ ^ 2 - 2 y_84_ * y_24_ + 1 y_84_ ^ 2 ] <= 8691.05
quadratic_ranged_409_ub: [ 1 x_38_ ^ 2 - 2 x_84_ * x_38_ + 1 x_84_ ^ 2 + 1 y_38_ ^ 2 - 2 y_84_ * y_38_ + 1 y_84_ ^ 2 ] <= 1050.4
quadratic_ranged_410_ub: [ 1 x_50_ ^ 2 - 2 x_84_ * x_50_ + 1 x_84_ ^ 2 + 1 y_50_ ^ 2 - 2 y_84_ * y_50_ + 1 y_84_ ^ 2 ] <= 24605.62
quadratic_ranged_411_ub: [ 1 x_59_ ^ 2 - 2 x_84_ * x_59_ + 1 x_84_ ^ 2 + 1 y_59_ ^ 2 - 2 y_84_ * y_59_ + 1 y_84_ ^ 2 ] <= 11357.45
quadratic_ranged_412_ub: [ 1 x_83_ ^ 2 - 2 x_84_ * x_83_ + 1 x_84_ ^ 2 + 1 y_83_ ^ 2 - 2 y_84_ * y_83_ + 1 y_84_ ^ 2 ] <= 3297.65
quadratic_ranged_413_ub: [ 1 x_12_ ^ 2 - 2 x_85_ * x_12_ + 1 x_85_ ^ 2 + 1 y_12_ ^ 2 - 2 y_85_ * y_12_ + 1 y_85_ ^ 2 ] <= 15862.05
quadratic_ranged_414_ub: [ 1 x_13_ ^ 2 - 2 x_85_ * x_13_ + 1 x_85_ ^ 2 + 1 y_13_ ^ 2 - 2 y_85_ * y_13_ + 1 y_85_ ^ 2 ] <= 1952.33
quadratic_ranged_415_ub: [ 1 x_20_ ^ 2 - 2 x_85_ * x_20_ + 1 x_85_ ^ 2 + 1 y_20_ ^ 2 - 2 y_85_ * y_20_ + 1 y_85_ ^ 2 ] <= 4254.12
quadratic_ranged_416_ub: [ 1 x_32_ ^ 2 - 2 x_85_ * x_32_ + 1 x_85_ ^ 2 + 1 y_32_ ^ 2 - 2 y_85_ * y_32_ + 1 y_85_ ^ 2 ] <= 19684.9
quadratic_ranged_417_ub: [ 1 x_37_ ^ 2 - 2 x_85_ * x_37_ + 1 x_85_ ^ 2 + 1 y_37_ ^ 2 - 2 y_85_ * y_37_ + 1 y_85_ ^ 2 ] <= 1253.41
quadratic_ranged_418_ub: [ 1 x_46_ ^ 2 - 2 x_85_ * x_46_ + 1 x_85_ ^ 2 + 1 y_46_ ^ 2 - 2 y_85_ * y_46_ + 1 y_85_ ^ 2 ] <= 914.05
quadratic_ranged_419_ub: [ 1 x_49_ ^ 2 - 2 x_85_ * x_49_ + 1 x_85_ ^ 2 + 1 y_49_ ^ 2 - 2 y_85_ * y_49_ + 1 y_85_ ^ 2 ] <= 21307.97
quadratic_ranged_420_ub: [ 1 x_55_ ^ 2 - 2 x_85_ * x_55_ + 1 x_85_ ^ 2 + 1 y_55_ ^ 2 - 2 y_85_ * y_55_ + 1 y_85_ ^ 2 ] <= 7701.25
quadratic_ranged_421_ub: [ 1 x_57_ ^ 2 - 2 x_85_ * x_57_ + 1 x_85_ ^ 2 + 1 y_57_ ^ 2 - 2 y_85_ * y_57_ + 1 y_85_ ^ 2 ] <= 2343.2
quadratic_ranged_422_ub: [ 1 x_78_ ^ 2 - 2 x_85_ * x_78_ + 1 x_85_ ^ 2 + 1 y_78_ ^ 2 - 2 y_85_ * y_78_ + 1 y_85_ ^ 2 ] <= 17974.97
quadratic_ranged_423_ub: [ 1 x_84_ ^ 2 - 2 x_85_ * x_84_ + 1 x_85_ ^ 2 + 1 y_84_ ^ 2 - 2 y_85_ * y_84_ + 1 y_85_ ^ 2 ] <= 4267.25
quadratic_ranged_424_ub: [ 1 x_1_ ^ 2 - 2 x_86_ * x_1_ + 1 x_86_ ^ 2 + 1 y_1_ ^ 2 - 2 y_86_ * y_1_ + 1 y_86_ ^ 2 ] <= 6019.6
quadratic_ranged_425_ub: [ 1 x_3_ ^ 2 - 2 x_86_ * x_3_ + 1 x_86_ ^ 2 + 1 y_3_ ^ 2 - 2 y_86_ * y_3_ + 1 y_86_ ^ 2 ] <= 5892.34
quadratic_ranged_426_ub: [ 1 x_13_ ^ 2 - 2 x_86_ * x_13_ + 1 x_86_ ^ 2 + 1 y_13_ ^ 2 - 2 y_86_ * y_13_ + 1 y_86_ ^ 2 ] <= 12237.16
quadratic_ranged_427_ub: [ 1 x_29_ ^ 2 - 2 x_86_ * x_29_ + 1 x_86_ ^ 2 + 1 y_29_ ^ 2 - 2 y_86_ * y_29_ + 1 y_86_ ^ 2 ] <= 5094.44
quadratic_ranged_428_ub: [ 1 x_33_ ^ 2 - 2 x_86_ * x_33_ + 1 x_86_ ^ 2 + 1 y_33_ ^ 2 - 2 y_86_ * y_33_ + 1 y_86_ ^ 2 ] <= 5934.76
quadratic_ranged_429_ub: [ 1 x_40_ ^ 2 - 2 x_86_ * x_40_ + 1 x_86_ ^ 2 + 1 y_40_ ^ 2 - 2 y_86_ * y_40_ + 1 y_86_ ^ 2 ] <= 9584.9
quadratic_ranged_430_ub: [ 1 x_56_ ^ 2 - 2 x_86_ * x_56_ + 1 x_86_ ^ 2 + 1 y_56_ ^ 2 - 2 y_86_ * y_56_ + 1 y_86_ ^ 2 ] <= 21008
quadratic_ranged_431_ub: [ 1 x_68_ ^ 2 - 2 x_86_ * x_68_ + 1 x_86_ ^ 2 + 1 y_68_ ^ 2 - 2 y_86_ * y_68_ + 1 y_86_ ^ 2 ] <= 10544.4
quadratic_ranged_432_ub: [ 1 x_69_ ^ 2 - 2 x_86_ * x_69_ + 1 x_86_ ^ 2 + 1 y_69_ ^ 2 - 2 y_86_ * y_69_ + 1 y_86_ ^ 2 ] <= 2994.65
quadratic_ranged_433_ub: [ 1 x_85_ ^ 2 - 2 x_86_ * x_85_ + 1 x_86_ ^ 2 + 1 y_85_ ^ 2 - 2 y_86_ * y_85_ + 1 y_86_ ^ 2 ] <= 4497.53
quadratic_ranged_434_ub: [ 1 x_12_ ^ 2 - 2 x_87_ * x_12_ + 1 x_87_ ^ 2 + 1 y_12_ ^ 2 - 2 y_87_ * y_12_ + 1 y_87_ ^ 2 ] <= 3979.4
quadratic_ranged_435_ub: [ 1 x_21_ ^ 2 - 2 x_87_ * x_21_ + 1 x_87_ ^ 2 + 1 y_21_ ^ 2 - 2 y_87_ * y_21_ + 1 y_87_ ^ 2 ] <= 7701.25
quadratic_ranged_436_ub: [ 1 x_25_ ^ 2 - 2 x_87_ * x_25_ + 1 x_87_ ^ 2 + 1 y_25_ ^ 2 - 2 y_87_ * y_25_ + 1 y_87_ ^ 2 ] <= 23804.69
quadratic_ranged_437_ub: [ 1 x_26_ ^ 2 - 2 x_87_ * x_26_ + 1 x_87_ ^ 2 + 1 y_26_ ^ 2 - 2 y_87_ * y_26_ + 1 y_87_ ^ 2 ] <= 6061.01
quadratic_ranged_438_ub: [ 1 x_40_ ^ 2 - 2 x_87_ * x_40_ + 1 x_87_ ^ 2 + 1 y_40_ ^ 2 - 2 y_87_ * y_40_ + 1 y_87_ ^ 2 ] <= 2595.7
quadratic_ranged_439_ub: [ 1 x_43_ ^ 2 - 2 x_87_ * x_43_ + 1 x_87_ ^ 2 + 1 y_43_ ^ 2 - 2 y_87_ * y_43_ + 1 y_87_ ^ 2 ] <= 4783.36
quadratic_ranged_440_ub: [ 1 x_46_ ^ 2 - 2 x_87_ * x_46_ + 1 x_87_ ^ 2 + 1 y_46_ ^ 2 - 2 y_87_ * y_46_ + 1 y_87_ ^ 2 ] <= 4476.32
quadratic_ranged_441_ub: [ 1 x_61_ ^ 2 - 2 x_87_ * x_61_ + 1 x_87_ ^ 2 + 1 y_61_ ^ 2 - 2 y_87_ * y_61_ + 1 y_87_ ^ 2 ] <= 20714.09
quadratic_ranged_442_ub: [ 1 x_72_ ^ 2 - 2 x_87_ * x_72_ + 1 x_87_ ^ 2 + 1 y_72_ ^ 2 - 2 y_87_ * y_72_ + 1 y_87_ ^ 2 ] <= 10193.93
quadratic_ranged_443_ub: [ 1 x_73_ ^ 2 - 2 x_87_ * x_73_ + 1 x_87_ ^ 2 + 1 y_73_ ^ 2 - 2 y_87_ * y_73_ + 1 y_87_ ^ 2 ] <= 9607.12
quadratic_ranged_444_ub: [ 1 x_86_ ^ 2 - 2 x_87_ * x_86_ + 1 x_87_ ^ 2 + 1 y_86_ ^ 2 - 2 y_87_ * y_86_ + 1 y_87_ ^ 2 ] <= 9801.04
quadratic_ranged_445_ub: [ 1 x_12_ ^ 2 - 2 x_88_ * x_12_ + 1 x_88_ ^ 2 + 1 y_12_ ^ 2 - 2 y_88_ * y_12_ + 1 y_88_ ^ 2 ] <= 20478.76
quadratic_ranged_446_ub: [ 1 x_26_ ^ 2 - 2 x_88_ * x_26_ + 1 x_88_ ^ 2 + 1 y_26_ ^ 2 - 2 y_88_ * y_26_ + 1 y_88_ ^ 2 ] <= 18080.01
quadratic_ranged_447_ub: [ 1 x_27_ ^ 2 - 2 x_88_ * x_27_ + 1 x_88_ ^ 2 + 1 y_27_ ^ 2 - 2 y_88_ * y_27_ + 1 y_88_ ^ 2 ] <= 9418.25
quadratic_ranged_448_ub: [ 1 x_34_ ^ 2 - 2 x_88_ * x_34_ + 1 x_88_ ^ 2 + 1 y_34_ ^ 2 - 2 y_88_ * y_34_ + 1 y_88_ ^ 2 ] <= 25793.38
quadratic_ranged_449_ub: [ 1 x_41_ ^ 2 - 2 x_88_ * x_41_ + 1 x_88_ ^ 2 + 1 y_41_ ^ 2 - 2 y_88_ * y_41_ + 1 y_88_ ^ 2 ] <= 10544.4
quadratic_ranged_450_ub: [ 1 x_54_ ^ 2 - 2 x_88_ * x_54_ + 1 x_88_ ^ 2 + 1 y_54_ ^ 2 - 2 y_88_ * y_54_ + 1 y_88_ ^ 2 ] <= 31301.920000000002
quadratic_ranged_451_ub: [ 1 x_55_ ^ 2 - 2 x_88_ * x_55_ + 1 x_88_ ^ 2 + 1 y_55_ ^ 2 - 2 y_88_ * y_55_ + 1 y_88_ ^ 2 ] <= 17343.72
quadratic_ranged_452_ub: [ 1 x_63_ ^ 2 - 2 x_88_ * x_63_ + 1 x_88_ ^ 2 + 1 y_63_ ^ 2 - 2 y_88_ * y_63_ + 1 y_88_ ^ 2 ] <= 931.22
quadratic_ranged_453_ub: [ 1 x_66_ ^ 2 - 2 x_88_ * x_66_ + 1 x_88_ ^ 2 + 1 y_66_ ^ 2 - 2 y_88_ * y_66_ + 1 y_88_ ^ 2 ] <= 583.78
quadratic_ranged_454_ub: [ 1 x_69_ ^ 2 - 2 x_88_ * x_69_ + 1 x_88_ ^ 2 + 1 y_69_ ^ 2 - 2 y_88_ * y_69_ + 1 y_88_ ^ 2 ] <= 20415.13
quadratic_ranged_455_ub: [ 1 x_77_ ^ 2 - 2 x_88_ * x_77_ + 1 x_88_ ^ 2 + 1 y_77_ ^ 2 - 2 y_88_ * y_77_ + 1 y_88_ ^ 2 ] <= 15903.460000000001
quadratic_ranged_456_ub: [ 1 x_86_ ^ 2 - 2 x_88_ * x_86_ + 1 x_88_ ^ 2 + 1 y_86_ ^ 2 - 2 y_88_ * y_86_ + 1 y_88_ ^ 2 ] <= 11958.4
quadratic_ranged_457_ub: [ 1 x_87_ ^ 2 - 2 x_88_ * x_87_ + 1 x_88_ ^ 2 + 1 y_87_ ^ 2 - 2 y_88_ * y_87_ + 1 y_88_ ^ 2 ] <= 13323.92
quadratic_ranged_458_ub: [ 1 x_24_ ^ 2 - 2 x_89_ * x_24_ + 1 x_89_ ^ 2 + 1 y_24_ ^ 2 - 2 y_89_ * y_24_ + 1 y_89_ ^ 2 ] <= 7507.33
quadratic_ranged_459_ub: [ 1 x_46_ ^ 2 - 2 x_89_ * x_46_ + 1 x_89_ ^ 2 + 1 y_46_ ^ 2 - 2 y_89_ * y_46_ + 1 y_89_ ^ 2 ] <= 6482.18
quadratic_ranged_460_ub: [ 1 x_52_ ^ 2 - 2 x_89_ * x_52_ + 1 x_89_ ^ 2 + 1 y_52_ ^ 2 - 2 y_89_ * y_52_ + 1 y_89_ ^ 2 ] <= 3907.69
quadratic_ranged_461_ub: [ 1 x_59_ ^ 2 - 2 x_89_ * x_59_ + 1 x_89_ ^ 2 + 1 y_59_ ^ 2 - 2 y_89_ * y_59_ + 1 y_89_ ^ 2 ] <= 170.69
quadratic_ranged_462_ub: [ 1 x_87_ ^ 2 - 2 x_89_ * x_87_ + 1 x_89_ ^ 2 + 1 y_87_ ^ 2 - 2 y_89_ * y_87_ + 1 y_89_ ^ 2 ] <= 1916.98
quadratic_ranged_463_ub: [ 1 x_88_ ^ 2 - 2 x_89_ * x_88_ + 1 x_89_ ^ 2 + 1 y_88_ ^ 2 - 2 y_89_ * y_88_ + 1 y_89_ ^ 2 ] <= 15806.5
quadratic_ranged_464_ub: [ 1 x_1_ ^ 2 - 2 x_90_ * x_1_ + 1 x_90_ ^ 2 + 1 y_1_ ^ 2 - 2 y_90_ * y_1_ + 1 y_90_ ^ 2 ] <= 11136.26
quadratic_ranged_465_ub: [ 1 x_44_ ^ 2 - 2 x_90_ * x_44_ + 1 x_90_ ^ 2 + 1 y_44_ ^ 2 - 2 y_90_ * y_44_ + 1 y_90_ ^ 2 ] <= 404
quadratic_ranged_466_ub: [ 1 x_51_ ^ 2 - 2 x_90_ * x_51_ + 1 x_90_ ^ 2 + 1 y_51_ ^ 2 - 2 y_90_ * y_51_ + 1 y_90_ ^ 2 ] <= 25380.29
quadratic_ranged_467_ub: [ 1 x_68_ ^ 2 - 2 x_90_ * x_68_ + 1 x_90_ ^ 2 + 1 y_68_ ^ 2 - 2 y_90_ * y_68_ + 1 y_90_ ^ 2 ] <= 16654.9
quadratic_ranged_468_ub: [ 1 x_77_ ^ 2 - 2 x_90_ * x_77_ + 1 x_90_ ^ 2 + 1 y_77_ ^ 2 - 2 y_90_ * y_77_ + 1 y_90_ ^ 2 ] <= 1183.72
quadratic_ranged_469_ub: [ 1 x_89_ ^ 2 - 2 x_90_ * x_89_ + 1 x_90_ ^ 2 + 1 y_89_ ^ 2 - 2 y_90_ * y_89_ + 1 y_90_ ^ 2 ] <= 25520.68
quadratic_ranged_470_ub: [ 1 x_3_ ^ 2 - 2 x_91_ * x_3_ + 1 x_91_ ^ 2 + 1 y_3_ ^ 2 - 2 y_91_ * y_3_ + 1 y_91_ ^ 2 ] <= 31113.05
quadratic_ranged_471_ub: [ 1 x_4_ ^ 2 - 2 x_91_ * x_4_ + 1 x_91_ ^ 2 + 1 y_4_ ^ 2 - 2 y_91_ * y_4_ + 1 y_91_ ^ 2 ] <= 17518.45
quadratic_ranged_472_ub: [ 1 x_21_ ^ 2 - 2 x_91_ * x_21_ + 1 x_91_ ^ 2 + 1 y_21_ ^ 2 - 2 y_91_ * y_21_ + 1 y_91_ ^ 2 ] <= 14190.5
quadratic_ranged_473_ub: [ 1 x_28_ ^ 2 - 2 x_91_ * x_28_ + 1 x_91_ ^ 2 + 1 y_28_ ^ 2 - 2 y_91_ * y_28_ + 1 y_91_ ^ 2 ] <= 6368.05
quadratic_ranged_474_ub: [ 1 x_31_ ^ 2 - 2 x_91_ * x_31_ + 1 x_91_ ^ 2 + 1 y_31_ ^ 2 - 2 y_91_ * y_31_ + 1 y_91_ ^ 2 ] <= 35415.65
quadratic_ranged_475_ub: [ 1 x_32_ ^ 2 - 2 x_91_ * x_32_ + 1 x_91_ ^ 2 + 1 y_32_ ^ 2 - 2 y_91_ * y_32_ + 1 y_91_ ^ 2 ] <= 38769.86
quadratic_ranged_476_ub: [ 1 x_41_ ^ 2 - 2 x_91_ * x_41_ + 1 x_91_ ^ 2 + 1 y_41_ ^ 2 - 2 y_91_ * y_41_ + 1 y_91_ ^ 2 ] <= 17833.57
quadratic_ranged_477_ub: [ 1 x_59_ ^ 2 - 2 x_91_ * x_59_ + 1 x_91_ ^ 2 + 1 y_59_ ^ 2 - 2 y_91_ * y_59_ + 1 y_91_ ^ 2 ] <= 28451.7
quadratic_ranged_478_ub: [ 1 x_69_ ^ 2 - 2 x_91_ * x_69_ + 1 x_91_ ^ 2 + 1 y_69_ ^ 2 - 2 y_91_ * y_69_ + 1 y_91_ ^ 2 ] <= 24793.48
quadratic_ranged_479_ub: [ 1 x_82_ ^ 2 - 2 x_91_ * x_82_ + 1 x_91_ ^ 2 + 1 y_82_ ^ 2 - 2 y_91_ * y_82_ + 1 y_91_ ^ 2 ] <= 19499.06
quadratic_ranged_480_ub: [ 1 x_90_ ^ 2 - 2 x_91_ * x_90_ + 1 x_91_ ^ 2 + 1 y_90_ ^ 2 - 2 y_91_ * y_90_ + 1 y_91_ ^ 2 ] <= 19712.170000000002
quadratic_ranged_481_ub: [ 1 x_4_ ^ 2 - 2 x_92_ * x_4_ + 1 x_92_ ^ 2 + 1 y_4_ ^ 2 - 2 y_92_ * y_4_ + 1 y_92_ ^ 2 ] <= 18394.12
quadratic_ranged_482_ub: [ 1 x_10_ ^ 2 - 2 x_92_ * x_10_ + 1 x_92_ ^ 2 + 1 y_10_ ^ 2 - 2 y_92_ * y_10_ + 1 y_92_ ^ 2 ] <= 2070.5
quadratic_ranged_483_ub: [ 1 x_11_ ^ 2 - 2 x_92_ * x_11_ + 1 x_92_ ^ 2 + 1 y_11_ ^ 2 - 2 y_92_ * y_11_ + 1 y_92_ ^ 2 ] <= 41.410000000000004
quadratic_ranged_484_ub: [ 1 x_15_ ^ 2 - 2 x_92_ * x_15_ + 1 x_92_ ^ 2 + 1 y_15_ ^ 2 - 2 y_92_ * y_15_ + 1 y_92_ ^ 2 ] <= 4364.21
quadratic_ranged_485_ub: [ 1 x_18_ ^ 2 - 2 x_92_ * x_18_ + 1 x_92_ ^ 2 + 1 y_18_ ^ 2 - 2 y_92_ * y_18_ + 1 y_92_ ^ 2 ] <= 4209.68
quadratic_ranged_486_ub: [ 1 x_19_ ^ 2 - 2 x_92_ * x_19_ + 1 x_92_ ^ 2 + 1 y_19_ ^ 2 - 2 y_92_ * y_19_ + 1 y_92_ ^ 2 ] <= 14014.76
quadratic_ranged_487_ub: [ 1 x_50_ ^ 2 - 2 x_92_ * x_50_ + 1 x_92_ ^ 2 + 1 y_50_ ^ 2 - 2 y_92_ * y_50_ + 1 y_92_ ^ 2 ] <= 27522.5
quadratic_ranged_488_ub: [ 1 x_60_ ^ 2 - 2 x_92_ * x_60_ + 1 x_92_ ^ 2 + 1 y_60_ ^ 2 - 2 y_92_ * y_60_ + 1 y_92_ ^ 2 ] <= 656.5
quadratic_ranged_489_ub: [ 1 x_68_ ^ 2 - 2 x_92_ * x_68_ + 1 x_92_ ^ 2 + 1 y_68_ ^ 2 - 2 y_92_ * y_68_ + 1 y_92_ ^ 2 ] <= 43157.3
quadratic_ranged_490_ub: [ 1 x_71_ ^ 2 - 2 x_92_ * x_71_ + 1 x_92_ ^ 2 + 1 y_71_ ^ 2 - 2 y_92_ * y_71_ + 1 y_92_ ^ 2 ] <= 13125.960000000001
quadratic_ranged_491_ub: [ 1 x_72_ ^ 2 - 2 x_92_ * x_72_ + 1 x_92_ ^ 2 + 1 y_72_ ^ 2 - 2 y_92_ * y_72_ + 1 y_92_ ^ 2 ] <= 24034.97
quadratic_ranged_492_ub: [ 1 x_75_ ^ 2 - 2 x_92_ * x_75_ + 1 x_92_ ^ 2 + 1 y_75_ ^ 2 - 2 y_92_ * y_75_ + 1 y_92_ ^ 2 ] <= 35189.41
quadratic_ranged_493_ub: [ 1 x_88_ ^ 2 - 2 x_92_ * x_88_ + 1 x_92_ ^ 2 + 1 y_88_ ^ 2 - 2 y_92_ * y_88_ + 1 y_92_ ^ 2 ] <= 37161.94
quadratic_ranged_494_ub: [ 1 x_91_ ^ 2 - 2 x_92_ * x_91_ + 1 x_92_ ^ 2 + 1 y_91_ ^ 2 - 2 y_92_ * y_91_ + 1 y_92_ ^ 2 ] <= 48440.61
quadratic_ranged_495_ub: [ 1 x_10_ ^ 2 - 2 x_93_ * x_10_ + 1 x_93_ ^ 2 + 1 y_10_ ^ 2 - 2 y_93_ * y_10_ + 1 y_93_ ^ 2 ] <= 20063.65
quadratic_ranged_496_ub: [ 1 x_13_ ^ 2 - 2 x_93_ * x_13_ + 1 x_93_ ^ 2 + 1 y_13_ ^ 2 - 2 y_93_ * y_13_ + 1 y_93_ ^ 2 ] <= 2049.29
quadratic_ranged_497_ub: [ 1 x_23_ ^ 2 - 2 x_93_ * x_23_ + 1 x_93_ ^ 2 + 1 y_23_ ^ 2 - 2 y_93_ * y_23_ + 1 y_93_ ^ 2 ] <= 23634
quadratic_ranged_498_ub: [ 1 x_24_ ^ 2 - 2 x_93_ * x_24_ + 1 x_93_ ^ 2 + 1 y_24_ ^ 2 - 2 y_93_ * y_24_ + 1 y_93_ ^ 2 ] <= 1504.9
quadratic_ranged_499_ub: [ 1 x_29_ ^ 2 - 2 x_93_ * x_29_ + 1 x_93_ ^ 2 + 1 y_29_ ^ 2 - 2 y_93_ * y_29_ + 1 y_93_ ^ 2 ] <= 16815.49
quadratic_ranged_500_ub: [ 1 x_70_ ^ 2 - 2 x_93_ * x_70_ + 1 x_93_ ^ 2 + 1 y_70_ ^ 2 - 2 y_93_ * y_70_ + 1 y_93_ ^ 2 ] <= 24088.5
quadratic_ranged_501_ub: [ 1 x_79_ ^ 2 - 2 x_93_ * x_79_ + 1 x_93_ ^ 2 + 1 y_79_ ^ 2 - 2 y_93_ * y_79_ + 1 y_93_ ^ 2 ] <= 25017.7
quadratic_ranged_502_ub: [ 1 x_85_ ^ 2 - 2 x_93_ * x_85_ + 1 x_93_ ^ 2 + 1 y_85_ ^ 2 - 2 y_93_ * y_85_ + 1 y_93_ ^ 2 ] <= 131.3
quadratic_ranged_503_ub: [ 1 x_86_ ^ 2 - 2 x_93_ * x_86_ + 1 x_93_ ^ 2 + 1 y_86_ ^ 2 - 2 y_93_ * y_86_ + 1 y_93_ ^ 2 ] <= 5010.61
quadratic_ranged_504_ub: [ 1 x_92_ ^ 2 - 2 x_93_ * x_92_ + 1 x_93_ ^ 2 + 1 y_92_ ^ 2 - 2 y_93_ * y_92_ + 1 y_93_ ^ 2 ] <= 21651.37
quadratic_ranged_505_ub: [ 1 x_9_ ^ 2 - 2 x_94_ * x_9_ + 1 x_94_ ^ 2 + 1 y_9_ ^ 2 - 2 y_94_ * y_9_ + 1 y_94_ ^ 2 ] <= 12140.2
quadratic_ranged_506_ub: [ 1 x_45_ ^ 2 - 2 x_94_ * x_45_ + 1 x_94_ ^ 2 + 1 y_45_ ^ 2 - 2 y_94_ * y_45_ + 1 y_94_ ^ 2 ] <= 15960.02
quadratic_ranged_507_ub: [ 1 x_49_ ^ 2 - 2 x_94_ * x_49_ + 1 x_94_ ^ 2 + 1 y_49_ ^ 2 - 2 y_94_ * y_49_ + 1 y_94_ ^ 2 ] <= 49462.73
quadratic_ranged_508_ub: [ 1 x_63_ ^ 2 - 2 x_94_ * x_63_ + 1 x_94_ ^ 2 + 1 y_63_ ^ 2 - 2 y_94_ * y_63_ + 1 y_94_ ^ 2 ] <= 32551.29
quadratic_ranged_509_ub: [ 1 x_72_ ^ 2 - 2 x_94_ * x_72_ + 1 x_94_ ^ 2 + 1 y_72_ ^ 2 - 2 y_94_ * y_72_ + 1 y_94_ ^ 2 ] <= 39303.14
quadratic_ranged_510_ub: [ 1 x_74_ ^ 2 - 2 x_94_ * x_74_ + 1 x_94_ ^ 2 + 1 y_74_ ^ 2 - 2 y_94_ * y_74_ + 1 y_94_ ^ 2 ] <= 4222.81
quadratic_ranged_511_ub: [ 1 x_79_ ^ 2 - 2 x_94_ * x_79_ + 1 x_94_ ^ 2 + 1 y_79_ ^ 2 - 2 y_94_ * y_79_ + 1 y_94_ ^ 2 ] <= 13590.56
quadratic_ranged_512_ub: [ 1 x_85_ ^ 2 - 2 x_94_ * x_85_ + 1 x_94_ ^ 2 + 1 y_85_ ^ 2 - 2 y_94_ * y_85_ + 1 y_94_ ^ 2 ] <= 15036.880000000001
quadratic_ranged_513_ub: [ 1 x_93_ ^ 2 - 2 x_94_ * x_93_ + 1 x_94_ ^ 2 + 1 y_93_ ^ 2 - 2 y_94_ * y_93_ + 1 y_94_ ^ 2 ] <= 14473.3
quadratic_ranged_514_ub: [ 1 x_7_ ^ 2 - 2 x_95_ * x_7_ + 1 x_95_ ^ 2 + 1 y_7_ ^ 2 - 2 y_95_ * y_7_ + 1 y_95_ ^ 2 ] <= 15781.25
quadratic_ranged_515_ub: [ 1 x_8_ ^ 2 - 2 x_95_ * x_8_ + 1 x_95_ ^ 2 + 1 y_8_ ^ 2 - 2 y_95_ * y_8_ + 1 y_95_ ^ 2 ] <= 1545.3
quadratic_ranged_516_ub: [ 1 x_11_ ^ 2 - 2 x_95_ * x_11_ + 1 x_95_ ^ 2 + 1 y_11_ ^ 2 - 2 y_95_ * y_11_ + 1 y_95_ ^ 2 ] <= 41985.7
quadratic_ranged_517_ub: [ 1 x_13_ ^ 2 - 2 x_95_ * x_13_ + 1 x_95_ ^ 2 + 1 y_13_ ^ 2 - 2 y_95_ * y_13_ + 1 y_95_ ^ 2 ] <= 3531.9700000000003
quadratic_ranged_518_ub: [ 1 x_26_ ^ 2 - 2 x_95_ * x_26_ + 1 x_95_ ^ 2 + 1 y_26_ ^ 2 - 2 y_95_ * y_26_ + 1 y_95_ ^ 2 ] <= 28995.08
quadratic_ranged_519_ub: [ 1 x_31_ ^ 2 - 2 x_95_ * x_31_ + 1 x_95_ ^ 2 + 1 y_31_ ^ 2 - 2 y_95_ * y_31_ + 1 y_95_ ^ 2 ] <= 25638.85
quadratic_ranged_520_ub: [ 1 x_43_ ^ 2 - 2 x_95_ * x_43_ + 1 x_95_ ^ 2 + 1 y_43_ ^ 2 - 2 y_95_ * y_43_ + 1 y_95_ ^ 2 ] <= 3701.65
quadratic_ranged_521_ub: [ 1 x_75_ ^ 2 - 2 x_95_ * x_75_ + 1 x_95_ ^ 2 + 1 y_75_ ^ 2 - 2 y_95_ * y_75_ + 1 y_95_ ^ 2 ] <= 791.84
quadratic_ranged_522_ub: [ 1 x_81_ ^ 2 - 2 x_95_ * x_81_ + 1 x_95_ ^ 2 + 1 y_81_ ^ 2 - 2 y_95_ * y_81_ + 1 y_95_ ^ 2 ] <= 8146.66
quadratic_ranged_523_ub: [ 1 x_86_ ^ 2 - 2 x_95_ * x_86_ + 1 x_95_ ^ 2 + 1 y_86_ ^ 2 - 2 y_95_ * y_86_ + 1 y_95_ ^ 2 ] <= 6727.61
quadratic_ranged_524_ub: [ 1 x_91_ ^ 2 - 2 x_95_ * x_91_ + 1 x_95_ ^ 2 + 1 y_91_ ^ 2 - 2 y_95_ * y_91_ + 1 y_95_ ^ 2 ] <= 1222.1
quadratic_ranged_525_ub: [ 1 x_94_ ^ 2 - 2 x_95_ * x_94_ + 1 x_95_ ^ 2 + 1 y_94_ ^ 2 - 2 y_95_ * y_94_ + 1 y_95_ ^ 2 ] <= 22933.06
quadratic_ranged_526_ub: [ 1 x_3_ ^ 2 - 2 x_96_ * x_3_ + 1 x_96_ ^ 2 + 1 y_3_ ^ 2 - 2 y_96_ * y_3_ + 1 y_96_ ^ 2 ] <= 13070.41
quadratic_ranged_527_ub: [ 1 x_7_ ^ 2 - 2 x_96_ * x_7_ + 1 x_96_ ^ 2 + 1 y_7_ ^ 2 - 2 y_96_ * y_7_ + 1 y_96_ ^ 2 ] <= 19603.09
quadratic_ranged_528_ub: [ 1 x_10_ ^ 2 - 2 x_96_ * x_10_ + 1 x_96_ ^ 2 + 1 y_10_ ^ 2 - 2 y_96_ * y_10_ + 1 y_96_ ^ 2 ] <= 4958.09
quadratic_ranged_529_ub: [ 1 x_18_ ^ 2 - 2 x_96_ * x_18_ + 1 x_96_ ^ 2 + 1 y_18_ ^ 2 - 2 y_96_ * y_18_ + 1 y_96_ ^ 2 ] <= 10193.93
quadratic_ranged_530_ub: [ 1 x_21_ ^ 2 - 2 x_96_ * x_21_ + 1 x_96_ ^ 2 + 1 y_21_ ^ 2 - 2 y_96_ * y_21_ + 1 y_96_ ^ 2 ] <= 33873.38
quadratic_ranged_531_ub: [ 1 x_28_ ^ 2 - 2 x_96_ * x_28_ + 1 x_96_ ^ 2 + 1 y_28_ ^ 2 - 2 y_96_ * y_28_ + 1 y_96_ ^ 2 ] <= 31424.13
quadratic_ranged_532_ub: [ 1 x_31_ ^ 2 - 2 x_96_ * x_31_ + 1 x_96_ ^ 2 + 1 y_31_ ^ 2 - 2 y_96_ * y_31_ + 1 y_96_ ^ 2 ] <= 13817.81
quadratic_ranged_533_ub: [ 1 x_43_ ^ 2 - 2 x_96_ * x_43_ + 1 x_96_ ^ 2 + 1 y_43_ ^ 2 - 2 y_96_ * y_43_ + 1 y_96_ ^ 2 ] <= 32878.53
quadratic_ranged_534_ub: [ 1 x_47_ ^ 2 - 2 x_96_ * x_47_ + 1 x_96_ ^ 2 + 1 y_47_ ^ 2 - 2 y_96_ * y_47_ + 1 y_96_ ^ 2 ] <= 6209.4800000000005
quadratic_ranged_535_ub: [ 1 x_55_ ^ 2 - 2 x_96_ * x_55_ + 1 x_96_ ^ 2 + 1 y_55_ ^ 2 - 2 y_96_ * y_55_ + 1 y_96_ ^ 2 ] <= 13139.09
quadratic_ranged_536_ub: [ 1 x_74_ ^ 2 - 2 x_96_ * x_74_ + 1 x_96_ ^ 2 + 1 y_74_ ^ 2 - 2 y_96_ * y_74_ + 1 y_96_ ^ 2 ] <= 10642.37
quadratic_ranged_537_ub: [ 1 x_79_ ^ 2 - 2 x_96_ * x_79_ + 1 x_96_ ^ 2 + 1 y_79_ ^ 2 - 2 y_96_ * y_79_ + 1 y_96_ ^ 2 ] <= 654.48
quadratic_ranged_538_ub: [ 1 x_81_ ^ 2 - 2 x_96_ * x_81_ + 1 x_96_ ^ 2 + 1 y_81_ ^ 2 - 2 y_96_ * y_81_ + 1 y_96_ ^ 2 ] <= 45413.64
quadratic_ranged_539_ub: [ 1 x_95_ ^ 2 - 2 x_96_ * x_95_ + 1 x_96_ ^ 2 + 1 y_95_ ^ 2 - 2 y_96_ * y_95_ + 1 y_96_ ^ 2 ] <= 57765.94
quadratic_ranged_540_ub: [ 1 x_10_ ^ 2 - 2 x_97_ * x_10_ + 1 x_97_ ^ 2 + 1 y_10_ ^ 2 - 2 y_97_ * y_10_ + 1 y_97_ ^ 2 ] <= 37339.7
quadratic_ranged_541_ub: [ 1 x_15_ ^ 2 - 2 x_97_ * x_15_ + 1 x_97_ ^ 2 + 1 y_15_ ^ 2 - 2 y_97_ * y_15_ + 1 y_97_ ^ 2 ] <= 9333.41
quadratic_ranged_542_ub: [ 1 x_20_ ^ 2 - 2 x_97_ * x_20_ + 1 x_97_ ^ 2 + 1 y_20_ ^ 2 - 2 y_97_ * y_20_ + 1 y_97_ ^ 2 ] <= 19243.53
quadratic_ranged_543_ub: [ 1 x_28_ ^ 2 - 2 x_97_ * x_28_ + 1 x_97_ ^ 2 + 1 y_28_ ^ 2 - 2 y_97_ * y_28_ + 1 y_97_ ^ 2 ] <= 18796.1
quadratic_ranged_544_ub: [ 1 x_59_ ^ 2 - 2 x_97_ * x_59_ + 1 x_97_ ^ 2 + 1 y_59_ ^ 2 - 2 y_97_ * y_59_ + 1 y_97_ ^ 2 ] <= 37758.85
quadratic_ranged_545_ub: [ 1 x_83_ ^ 2 - 2 x_97_ * x_83_ + 1 x_97_ ^ 2 + 1 y_83_ ^ 2 - 2 y_97_ * y_83_ + 1 y_97_ ^ 2 ] <= 14225.85
quadratic_ranged_546_ub: [ 1 x_96_ ^ 2 - 2 x_97_ * x_96_ + 1 x_97_ ^ 2 + 1 y_96_ ^ 2 - 2 y_97_ * y_96_ + 1 y_97_ ^ 2 ] <= 32846.21
quadratic_ranged_547_ub: [ 1 x_1_ ^ 2 - 2 x_98_ * x_1_ + 1 x_98_ ^ 2 + 1 y_1_ ^ 2 - 2 y_98_ * y_1_ + 1 y_98_ ^ 2 ] <= 4858.1
quadratic_ranged_548_ub: [ 1 x_6_ ^ 2 - 2 x_98_ * x_6_ + 1 x_98_ ^ 2 + 1 y_6_ ^ 2 - 2 y_98_ * y_6_ + 1 y_98_ ^ 2 ] <= 3762.25
quadratic_ranged_549_ub: [ 1 x_26_ ^ 2 - 2 x_98_ * x_26_ + 1 x_98_ ^ 2 + 1 y_26_ ^ 2 - 2 y_98_ * y_26_ + 1 y_98_ ^ 2 ] <= 6008.49
quadratic_ranged_550_ub: [ 1 x_34_ ^ 2 - 2 x_98_ * x_34_ + 1 x_98_ ^ 2 + 1 y_34_ ^ 2 - 2 y_98_ * y_34_ + 1 y_98_ ^ 2 ] <= 6407.4400000000005
quadratic_ranged_551_ub: [ 1 x_40_ ^ 2 - 2 x_98_ * x_40_ + 1 x_98_ ^ 2 + 1 y_40_ ^ 2 - 2 y_98_ * y_40_ + 1 y_98_ ^ 2 ] <= 274.72
quadratic_ranged_552_ub: [ 1 x_41_ ^ 2 - 2 x_98_ * x_41_ + 1 x_98_ ^ 2 + 1 y_41_ ^ 2 - 2 y_98_ * y_41_ + 1 y_98_ ^ 2 ] <= 745.38
quadratic_ranged_553_ub: [ 1 x_42_ ^ 2 - 2 x_98_ * x_42_ + 1 x_98_ ^ 2 + 1 y_42_ ^ 2 - 2 y_98_ * y_42_ + 1 y_98_ ^ 2 ] <= 23579.46
quadratic_ranged_554_ub: [ 1 x_44_ ^ 2 - 2 x_98_ * x_44_ + 1 x_98_ ^ 2 + 1 y_44_ ^ 2 - 2 y_98_ * y_44_ + 1 y_98_ ^ 2 ] <= 18571.88
quadratic_ranged_555_ub: [ 1 x_50_ ^ 2 - 2 x_98_ * x_50_ + 1 x_98_ ^ 2 + 1 y_50_ ^ 2 - 2 y_98_ * y_50_ + 1 y_98_ ^ 2 ] <= 9916.18
quadratic_ranged_556_ub: [ 1 x_66_ ^ 2 - 2 x_98_ * x_66_ + 1 x_98_ ^ 2 + 1 y_66_ ^ 2 - 2 y_98_ * y_66_ + 1 y_98_ ^ 2 ] <= 5740.84
quadratic_ranged_557_ub: [ 1 x_83_ ^ 2 - 2 x_98_ * x_83_ + 1 x_98_ ^ 2 + 1 y_83_ ^ 2 - 2 y_98_ * y_83_ + 1 y_98_ ^ 2 ] <= 4271.29
quadratic_ranged_558_ub: [ 1 x_92_ ^ 2 - 2 x_98_ * x_92_ + 1 x_98_ ^ 2 + 1 y_92_ ^ 2 - 2 y_98_ * y_92_ + 1 y_98_ ^ 2 ] <= 12431.08
quadratic_ranged_559_ub: [ 1 x_95_ ^ 2 - 2 x_98_ * x_95_ + 1 x_98_ ^ 2 + 1 y_95_ ^ 2 - 2 y_98_ * y_95_ + 1 y_98_ ^ 2 ] <= 10351.49
quadratic_ranged_560_ub: [ 1 x_97_ ^ 2 - 2 x_98_ * x_97_ + 1 x_98_ ^ 2 + 1 y_97_ ^ 2 - 2 y_98_ * y_97_ + 1 y_98_ ^ 2 ] <= 22369.48
quadratic_ranged_561_ub: [ 1 x_7_ ^ 2 - 2 x_99_ * x_7_ + 1 x_99_ ^ 2 + 1 y_7_ ^ 2 - 2 y_99_ * y_7_ + 1 y_99_ ^ 2 ] <= 5798.41
quadratic_ranged_562_ub: [ 1 x_13_ ^ 2 - 2 x_99_ * x_13_ + 1 x_99_ ^ 2 + 1 y_13_ ^ 2 - 2 y_99_ * y_13_ + 1 y_99_ ^ 2 ] <= 8994.05
quadratic_ranged_563_ub: [ 1 x_19_ ^ 2 - 2 x_99_ * x_19_ + 1 x_99_ ^ 2 + 1 y_19_ ^ 2 - 2 y_99_ * y_19_ + 1 y_99_ ^ 2 ] <= 10937.29
quadratic_ranged_564_ub: [ 1 x_23_ ^ 2 - 2 x_99_ * x_23_ + 1 x_99_ ^ 2 + 1 y_23_ ^ 2 - 2 y_99_ * y_23_ + 1 y_99_ ^ 2 ] <= 40846.42
quadratic_ranged_565_ub: [ 1 x_24_ ^ 2 - 2 x_99_ * x_24_ + 1 x_99_ ^ 2 + 1 y_24_ ^ 2 - 2 y_99_ * y_24_ + 1 y_99_ ^ 2 ] <= 6144.84
quadratic_ranged_566_ub: [ 1 x_25_ ^ 2 - 2 x_99_ * x_25_ + 1 x_99_ ^ 2 + 1 y_25_ ^ 2 - 2 y_99_ * y_25_ + 1 y_99_ ^ 2 ] <= 23644.1
quadratic_ranged_567_ub: [ 1 x_26_ ^ 2 - 2 x_99_ * x_26_ + 1 x_99_ ^ 2 + 1 y_26_ ^ 2 - 2 y_99_ * y_26_ + 1 y_99_ ^ 2 ] <= 3646.1
quadratic_ranged_568_ub: [ 1 x_61_ ^ 2 - 2 x_99_ * x_61_ + 1 x_99_ ^ 2 + 1 y_61_ ^ 2 - 2 y_99_ * y_61_ + 1 y_99_ ^ 2 ] <= 27805.3
quadratic_ranged_569_ub: [ 1 x_72_ ^ 2 - 2 x_99_ * x_72_ + 1 x_99_ ^ 2 + 1 y_72_ ^ 2 - 2 y_99_ * y_72_ + 1 y_99_ ^ 2 ] <= 179.78
quadratic_ranged_570_ub: [ 1 x_82_ ^ 2 - 2 x_99_ * x_82_ + 1 x_99_ ^ 2 + 1 y_82_ ^ 2 - 2 y_99_ * y_82_ + 1 y_99_ ^ 2 ] <= 9835.38
quadratic_ranged_571_ub: [ 1 x_89_ ^ 2 - 2 x_99_ * x_89_ + 1 x_99_ ^ 2 + 1 y_89_ ^ 2 - 2 y_99_ * y_89_ + 1 y_99_ ^ 2 ] <= 6974.05
quadratic_ranged_572_ub: [ 1 x_92_ ^ 2 - 2 x_99_ * x_92_ + 1 x_99_ ^ 2 + 1 y_92_ ^ 2 - 2 y_99_ * y_92_ + 1 y_99_ ^ 2 ] <= 28204.25
quadratic_ranged_573_ub: [ 1 x_98_ ^ 2 - 2 x_99_ * x_98_ + 1 x_99_ ^ 2 + 1 y_98_ ^ 2 - 2 y_99_ * y_98_ + 1 y_99_ ^ 2 ] <= 8848.61
quadratic_ranged_574_ub: [ 1 x_1_ ^ 2 - 2 x_100_ * x_1_ + 1 x_100_ ^ 2 + 1 y_1_ ^ 2 - 2 y_100_ * y_1_ + 1 y_100_ ^ 2 ] <= 21470.58
quadratic_ranged_575_ub: [ 1 x_4_ ^ 2 - 2 x_100_ * x_4_ + 1 x_100_ ^ 2 + 1 y_4_ ^ 2 - 2 y_100_ * y_4_ + 1 y_100_ ^ 2 ] <= 16438.76
quadratic_ranged_576_ub: [ 1 x_18_ ^ 2 - 2 x_100_ * x_18_ + 1 x_100_ ^ 2 + 1 y_18_ ^ 2 - 2 y_100_ * y_18_ + 1 y_100_ ^ 2 ] <= 3272.4
quadratic_ranged_577_ub: [ 1 x_20_ ^ 2 - 2 x_100_ * x_20_ + 1 x_100_ ^ 2 + 1 y_20_ ^ 2 - 2 y_100_ * y_20_ + 1 y_100_ ^ 2 ] <= 4756.09
quadratic_ranged_578_ub: [ 1 x_37_ ^ 2 - 2 x_100_ * x_37_ + 1 x_100_ ^ 2 + 1 y_37_ ^ 2 - 2 y_100_ * y_37_ + 1 y_100_ ^ 2 ] <= 21947.3
quadratic_ranged_579_ub: [ 1 x_73_ ^ 2 - 2 x_100_ * x_73_ + 1 x_100_ ^ 2 + 1 y_73_ ^ 2 - 2 y_100_ * y_73_ + 1 y_100_ ^ 2 ] <= 11871.54
quadratic_ranged_580_ub: [ 1 x_76_ ^ 2 - 2 x_100_ * x_76_ + 1 x_100_ ^ 2 + 1 y_76_ ^ 2 - 2 y_100_ * y_76_ + 1 y_100_ ^ 2 ] <= 11793.77
quadratic_ranged_581_ub: [ 1 x_79_ ^ 2 - 2 x_100_ * x_79_ + 1 x_100_ ^ 2 + 1 y_79_ ^ 2 - 2 y_100_ * y_79_ + 1 y_100_ ^ 2 ] <= 1903.85
quadratic_ranged_582_ub: [ 1 x_80_ ^ 2 - 2 x_100_ * x_80_ + 1 x_100_ ^ 2 + 1 y_80_ ^ 2 - 2 y_100_ * y_80_ + 1 y_100_ ^ 2 ] <= 16872.05
quadratic_ranged_583_ub: [ 1 x_96_ ^ 2 - 2 x_100_ * x_96_ + 1 x_100_ ^ 2 + 1 y_96_ ^ 2 - 2 y_100_ * y_96_ + 1 y_100_ ^ 2 ] <= 4703.57
quadratic_ranged_584_ub: [ 1 x_98_ ^ 2 - 2 x_100_ * x_98_ + 1 x_100_ ^ 2 + 1 y_98_ ^ 2 - 2 y_100_ * y_98_ + 1 y_100_ ^ 2 ] <= 7809.32
quadratic_ranged_585_ub: [ 1 x_99_ ^ 2 - 2 x_100_ * x_99_ + 1 x_100_ ^ 2 + 1 y_99_ ^ 2 - 2 y_100_ * y_99_ + 1 y_100_ ^ 2 ] <= 26442.81
quadratic_ranged_1_lb: [ 1 x_1_ ^ 2 - 2 x_2_ * x_1_ + 1 x_2_ ^ 2 + 1 y_1_ ^ 2 - 2 y_2_ * y_1_ + 1 y_2_ ^ 2 ] >= 23491.71
quadratic_ranged_2_lb: [ 1 x_2_ ^ 2 - 2 x_3_ * x_2_ + 1 x_3_ ^ 2 + 1 y_2_ ^ 2 - 2 y_3_ * y_2_ + 1 y_3_ ^ 2 ] >= 17987.31
quadratic_ranged_3_lb: [ 1 x_3_ ^ 2 - 2 x_4_ * x_3_ + 1 x_4_ ^ 2 + 1 y_3_ ^ 2 - 2 y_4_ * y_3_ + 1 y_4_ ^ 2 ] >= 23732.28
quadratic_ranged_4_lb: [ 1 x_4_ ^ 2 - 2 x_5_ * x_4_ + 1 x_5_ ^ 2 + 1 y_4_ ^ 2 - 2 y_5_ * y_4_ + 1 y_5_ ^ 2 ] >= 84.15
quadratic_ranged_5_lb: [ 1 x_5_ ^ 2 - 2 x_6_ * x_5_ + 1 x_6_ ^ 2 + 1 y_5_ ^ 2 - 2 y_6_ * y_5_ + 1 y_6_ ^ 2 ] >= 6179.58
quadratic_ranged_6_lb: [ 1 x_6_ ^ 2 - 2 x_7_ * x_6_ + 1 x_7_ ^ 2 + 1 y_6_ ^ 2 - 2 y_7_ * y_6_ + 1 y_7_ ^ 2 ] >= 5810.31
quadratic_ranged_7_lb: [ 1 x_7_ ^ 2 - 2 x_8_ * x_7_ + 1 x_8_ ^ 2 + 1 y_7_ ^ 2 - 2 y_8_ * y_7_ + 1 y_8_ ^ 2 ] >= 7687.35
quadratic_ranged_8_lb: [ 1 x_5_ ^ 2 - 2 x_9_ * x_5_ + 1 x_9_ ^ 2 + 1 y_5_ ^ 2 - 2 y_9_ * y_5_ + 1 y_9_ ^ 2 ] >= 17697.24
quadratic_ranged_9_lb: [ 1 x_8_ ^ 2 - 2 x_9_ * x_8_ + 1 x_9_ ^ 2 + 1 y_8_ ^ 2 - 2 y_9_ * y_8_ + 1 y_9_ ^ 2 ] >= 716.76
quadratic_ranged_10_lb: [ 1 x_7_ ^ 2 - 2 x_10_ * x_7_ + 1 x_10_ ^ 2 + 1 y_7_ ^ 2 - 2 y_10_ * y_7_ + 1 y_10_ ^ 2 ] >= 6660.72
quadratic_ranged_11_lb: [ 1 x_9_ ^ 2 - 2 x_10_ * x_9_ + 1 x_10_ ^ 2 + 1 y_9_ ^ 2 - 2 y_10_ * y_9_ + 1 y_10_ ^ 2 ] >= 29839.59
quadratic_ranged_12_lb: [ 1 x_8_ ^ 2 - 2 x_11_ * x_8_ + 1 x_11_ ^ 2 + 1 y_8_ ^ 2 - 2 y_11_ * y_8_ + 1 y_11_ ^ 2 ] >= 27106.2
quadratic_ranged_13_lb: [ 1 x_10_ ^ 2 - 2 x_11_ * x_10_ + 1 x_11_ ^ 2 + 1 y_10_ ^ 2 - 2 y_11_ * y_10_ + 1 y_11_ ^ 2 ] >= 2638.35
quadratic_ranged_14_lb: [ 1 x_11_ ^ 2 - 2 x_12_ * x_11_ + 1 x_12_ ^ 2 + 1 y_11_ ^ 2 - 2 y_12_ * y_11_ + 1 y_12_ ^ 2 ] >= 8241.75
quadratic_ranged_15_lb: [ 1 x_9_ ^ 2 - 2 x_13_ * x_9_ + 1 x_13_ ^ 2 + 1 y_9_ ^ 2 - 2 y_13_ * y_9_ + 1 y_13_ ^ 2 ] >= 5160.87
quadratic_ranged_16_lb: [ 1 x_12_ ^ 2 - 2 x_13_ * x_12_ + 1 x_13_ ^ 2 + 1 y_12_ ^ 2 - 2 y_13_ * y_12_ + 1 y_13_ ^ 2 ] >= 16291.44
quadratic_ranged_17_lb: [ 1 x_2_ ^ 2 - 2 x_14_ * x_2_ + 1 x_14_ ^ 2 + 1 y_2_ ^ 2 - 2 y_14_ * y_2_ + 1 y_14_ ^ 2 ] >= 25407.36
quadratic_ranged_18_lb: [ 1 x_9_ ^ 2 - 2 x_14_ * x_9_ + 1 x_14_ ^ 2 + 1 y_9_ ^ 2 - 2 y_14_ * y_9_ + 1 y_14_ ^ 2 ] >= 792
quadratic_ranged_19_lb: [ 1 x_12_ ^ 2 - 2 x_14_ * x_12_ + 1 x_14_ ^ 2 + 1 y_12_ ^ 2 - 2 y_14_ * y_12_ + 1 y_14_ ^ 2 ] >= 22374.99
quadratic_ranged_20_lb: [ 1 x_13_ ^ 2 - 2 x_14_ * x_13_ + 1 x_14_ ^ 2 + 1 y_13_ ^ 2 - 2 y_14_ * y_13_ + 1 y_14_ ^ 2 ] >= 8827.83
quadratic_ranged_21_lb: [ 1 x_7_ ^ 2 - 2 x_15_ * x_7_ + 1 x_15_ ^ 2 + 1 y_7_ ^ 2 - 2 y_15_ * y_7_ + 1 y_15_ ^ 2 ] >= 13251.15
quadratic_ranged_22_lb: [ 1 x_8_ ^ 2 - 2 x_15_ * x_8_ + 1 x_15_ ^ 2 + 1 y_8_ ^ 2 - 2 y_15_ * y_8_ + 1 y_15_ ^ 2 ] >= 19047.6
quadratic_ranged_23_lb: [ 1 x_9_ ^ 2 - 2 x_15_ * x_9_ + 1 x_15_ ^ 2 + 1 y_9_ ^ 2 - 2 y_15_ * y_9_ + 1 y_15_ ^ 2 ] >= 17570.52
quadratic_ranged_24_lb: [ 1 x_14_ ^ 2 - 2 x_15_ * x_14_ + 1 x_15_ ^ 2 + 1 y_14_ ^ 2 - 2 y_15_ * y_14_ + 1 y_15_ ^ 2 ] >= 11757.24
quadratic_ranged_25_lb: [ 1 x_15_ ^ 2 - 2 x_16_ * x_15_ + 1 x_16_ ^ 2 + 1 y_15_ ^ 2 - 2 y_16_ * y_15_ + 1 y_16_ ^ 2 ] >= 18326.88
quadratic_ranged_26_lb: [ 1 x_6_ ^ 2 - 2 x_17_ * x_6_ + 1 x_17_ ^ 2 + 1 y_6_ ^ 2 - 2 y_17_ * y_6_ + 1 y_17_ ^ 2 ] >= 23246.19
quadratic_ranged_27_lb: [ 1 x_14_ ^ 2 - 2 x_17_ * x_14_ + 1 x_17_ ^ 2 + 1 y_14_ ^ 2 - 2 y_17_ * y_14_ + 1 y_17_ ^ 2 ] >= 14154.03
quadratic_ranged_28_lb: [ 1 x_16_ ^ 2 - 2 x_17_ * x_16_ + 1 x_17_ ^ 2 + 1 y_16_ ^ 2 - 2 y_17_ * y_16_ + 1 y_17_ ^ 2 ] >= 12379.95
quadratic_ranged_29_lb: [ 1 x_9_ ^ 2 - 2 x_18_ * x_9_ + 1 x_18_ ^ 2 + 1 y_9_ ^ 2 - 2 y_18_ * y_9_ + 1 y_18_ ^ 2 ] >= 16173.63
quadratic_ranged_30_lb: [ 1 x_14_ ^ 2 - 2 x_18_ * x_14_ + 1 x_18_ ^ 2 + 1 y_14_ ^ 2 - 2 y_18_ * y_14_ + 1 y_18_ ^ 2 ] >= 14264.91
quadratic_ranged_31_lb: [ 1 x_15_ ^ 2 - 2 x_18_ * x_15_ + 1 x_18_ ^ 2 + 1 y_15_ ^ 2 - 2 y_18_ * y_15_ + 1 y_18_ ^ 2 ] >= 7964.55
quadratic_ranged_32_lb: [ 1 x_17_ ^ 2 - 2 x_18_ * x_17_ + 1 x_18_ ^ 2 + 1 y_17_ ^ 2 - 2 y_18_ * y_17_ + 1 y_18_ ^ 2 ] >= 4041.18
quadratic_ranged_33_lb: [ 1 x_10_ ^ 2 - 2 x_19_ * x_10_ + 1 x_19_ ^ 2 + 1 y_10_ ^ 2 - 2 y_19_ * y_10_ + 1 y_19_ ^ 2 ] >= 12277.98
quadratic_ranged_34_lb: [ 1 x_12_ ^ 2 - 2 x_19_ * x_12_ + 1 x_19_ ^ 2 + 1 y_12_ ^ 2 - 2 y_19_ * y_12_ + 1 y_19_ ^ 2 ] >= 7518.0599999999995
quadratic_ranged_35_lb: [ 1 x_14_ ^ 2 - 2 x_19_ * x_14_ + 1 x_19_ ^ 2 + 1 y_14_ ^ 2 - 2 y_19_ * y_14_ + 1 y_19_ ^ 2 ] >= 4424.31
quadratic_ranged_36_lb: [ 1 x_16_ ^ 2 - 2 x_19_ * x_16_ + 1 x_19_ ^ 2 + 1 y_16_ ^ 2 - 2 y_19_ * y_16_ + 1 y_19_ ^ 2 ] >= 4935.15
quadratic_ranged_37_lb: [ 1 x_18_ ^ 2 - 2 x_19_ * x_18_ + 1 x_19_ ^ 2 + 1 y_18_ ^ 2 - 2 y_19_ * y_18_ + 1 y_19_ ^ 2 ] >= 4106.5199999999995
quadratic_ranged_38_lb: [ 1 x_17_ ^ 2 - 2 x_20_ * x_17_ + 1 x_20_ ^ 2 + 1 y_17_ ^ 2 - 2 y_20_ * y_17_ + 1 y_20_ ^ 2 ] >= 5568.75
quadratic_ranged_39_lb: [ 1 x_19_ ^ 2 - 2 x_20_ * x_19_ + 1 x_20_ ^ 2 + 1 y_19_ ^ 2 - 2 y_20_ * y_19_ + 1 y_20_ ^ 2 ] >= 606.87
quadratic_ranged_40_lb: [ 1 x_9_ ^ 2 - 2 x_21_ * x_9_ + 1 x_21_ ^ 2 + 1 y_9_ ^ 2 - 2 y_21_ * y_9_ + 1 y_21_ ^ 2 ] >= 15873.66
quadratic_ranged_41_lb: [ 1 x_11_ ^ 2 - 2 x_21_ * x_11_ + 1 x_21_ ^ 2 + 1 y_11_ ^ 2 - 2 y_21_ * y_11_ + 1 y_21_ ^ 2 ] >= 23096.7
quadratic_ranged_42_lb: [ 1 x_20_ ^ 2 - 2 x_21_ * x_20_ + 1 x_21_ ^ 2 + 1 y_20_ ^ 2 - 2 y_21_ * y_20_ + 1 y_21_ ^ 2 ] >= 6227.1
quadratic_ranged_43_lb: [ 1 x_14_ ^ 2 - 2 x_22_ * x_14_ + 1 x_22_ ^ 2 + 1 y_14_ ^ 2 - 2 y_22_ * y_14_ + 1 y_22_ ^ 2 ] >= 1445.4
quadratic_ranged_44_lb: [ 1 x_21_ ^ 2 - 2 x_22_ * x_21_ + 1 x_22_ ^ 2 + 1 y_21_ ^ 2 - 2 y_22_ * y_21_ + 1 y_22_ ^ 2 ] >= 11145.42
quadratic_ranged_45_lb: [ 1 x_12_ ^ 2 - 2 x_23_ * x_12_ + 1 x_23_ ^ 2 + 1 y_12_ ^ 2 - 2 y_23_ * y_12_ + 1 y_23_ ^ 2 ] >= 15646.95
quadratic_ranged_46_lb: [ 1 x_22_ ^ 2 - 2 x_23_ * x_22_ + 1 x_23_ ^ 2 + 1 y_22_ ^ 2 - 2 y_23_ * y_22_ + 1 y_23_ ^ 2 ] >= 14281.74
quadratic_ranged_47_lb: [ 1 x_19_ ^ 2 - 2 x_24_ * x_19_ + 1 x_24_ ^ 2 + 1 y_19_ ^ 2 - 2 y_24_ * y_19_ + 1 y_24_ ^ 2 ] >= 2190.87
quadratic_ranged_48_lb: [ 1 x_23_ ^ 2 - 2 x_24_ * x_23_ + 1 x_24_ ^ 2 + 1 y_23_ ^ 2 - 2 y_24_ * y_23_ + 1 y_24_ ^ 2 ] >= 30105.9
quadratic_ranged_49_lb: [ 1 x_5_ ^ 2 - 2 x_25_ * x_5_ + 1 x_25_ ^ 2 + 1 y_5_ ^ 2 - 2 y_25_ * y_5_ + 1 y_25_ ^ 2 ] >= 20205.9
quadratic_ranged_50_lb: [ 1 x_24_ ^ 2 - 2 x_25_ * x_24_ + 1 x_25_ ^ 2 + 1 y_24_ ^ 2 - 2 y_25_ * y_24_ + 1 y_25_ ^ 2 ] >= 7327.98
quadratic_ranged_51_lb: [ 1 x_13_ ^ 2 - 2 x_26_ * x_13_ + 1 x_26_ ^ 2 + 1 y_13_ ^ 2 - 2 y_26_ * y_13_ + 1 y_26_ ^ 2 ] >= 14082.75
quadratic_ranged_52_lb: [ 1 x_18_ ^ 2 - 2 x_26_ * x_18_ + 1 x_26_ ^ 2 + 1 y_18_ ^ 2 - 2 y_26_ * y_18_ + 1 y_26_ ^ 2 ] >= 3232.35
quadratic_ranged_53_lb: [ 1 x_23_ ^ 2 - 2 x_26_ * x_23_ + 1 x_26_ ^ 2 + 1 y_23_ ^ 2 - 2 y_26_ * y_23_ + 1 y_26_ ^ 2 ] >= 22243.32
quadratic_ranged_54_lb: [ 1 x_24_ ^ 2 - 2 x_26_ * x_24_ + 1 x_26_ ^ 2 + 1 y_24_ ^ 2 - 2 y_26_ * y_24_ + 1 y_26_ ^ 2 ] >= 8919.9
quadratic_ranged_55_lb: [ 1 x_25_ ^ 2 - 2 x_26_ * x_25_ + 1 x_26_ ^ 2 + 1 y_25_ ^ 2 - 2 y_26_ * y_25_ + 1 y_26_ ^ 2 ] >= 32392.8
quadratic_ranged_56_lb: [ 1 x_11_ ^ 2 - 2 x_27_ * x_11_ + 1 x_27_ ^ 2 + 1 y_11_ ^ 2 - 2 y_27_ * y_11_ + 1 y_27_ ^ 2 ] >= 25379.64
quadratic_ranged_57_lb: [ 1 x_26_ ^ 2 - 2 x_27_ * x_26_ + 1 x_27_ ^ 2 + 1 y_26_ ^ 2 - 2 y_27_ * y_26_ + 1 y_27_ ^ 2 ] >= 27666.54
quadratic_ranged_58_lb: [ 1 x_12_ ^ 2 - 2 x_28_ * x_12_ + 1 x_28_ ^ 2 + 1 y_12_ ^ 2 - 2 y_28_ * y_12_ + 1 y_28_ ^ 2 ] >= 11800.8
quadratic_ranged_59_lb: [ 1 x_15_ ^ 2 - 2 x_28_ * x_15_ + 1 x_28_ ^ 2 + 1 y_15_ ^ 2 - 2 y_28_ * y_15_ + 1 y_28_ ^ 2 ] >= 14399.55
quadratic_ranged_60_lb: [ 1 x_18_ ^ 2 - 2 x_28_ * x_18_ + 1 x_28_ ^ 2 + 1 y_18_ ^ 2 - 2 y_28_ * y_18_ + 1 y_28_ ^ 2 ] >= 7684.38
quadratic_ranged_61_lb: [ 1 x_27_ ^ 2 - 2 x_28_ * x_27_ + 1 x_28_ ^ 2 + 1 y_27_ ^ 2 - 2 y_28_ * y_27_ + 1 y_28_ ^ 2 ] >= 3858.0299999999997
quadratic_ranged_62_lb: [ 1 x_14_ ^ 2 - 2 x_29_ * x_14_ + 1 x_29_ ^ 2 + 1 y_14_ ^ 2 - 2 y_29_ * y_14_ + 1 y_29_ ^ 2 ] >= 7010.19
quadratic_ranged_63_lb: [ 1 x_21_ ^ 2 - 2 x_29_ * x_21_ + 1 x_29_ ^ 2 + 1 y_21_ ^ 2 - 2 y_29_ * y_21_ + 1 y_29_ ^ 2 ] >= 38076.39
quadratic_ranged_64_lb: [ 1 x_28_ ^ 2 - 2 x_29_ * x_28_ + 1 x_29_ ^ 2 + 1 y_28_ ^ 2 - 2 y_29_ * y_28_ + 1 y_29_ ^ 2 ] >= 15539.039999999999
quadratic_ranged_65_lb: [ 1 x_8_ ^ 2 - 2 x_30_ * x_8_ + 1 x_30_ ^ 2 + 1 y_8_ ^ 2 - 2 y_30_ * y_8_ + 1 y_30_ ^ 2 ] >= 1105.83
quadratic_ranged_66_lb: [ 1 x_12_ ^ 2 - 2 x_30_ * x_12_ + 1 x_30_ ^ 2 + 1 y_12_ ^ 2 - 2 y_30_ * y_12_ + 1 y_30_ ^ 2 ] >= 25052.94
quadratic_ranged_67_lb: [ 1 x_19_ ^ 2 - 2 x_30_ * x_19_ + 1 x_30_ ^ 2 + 1 y_19_ ^ 2 - 2 y_30_ * y_19_ + 1 y_30_ ^ 2 ] >= 5132.16
quadratic_ranged_68_lb: [ 1 x_23_ ^ 2 - 2 x_30_ * x_23_ + 1 x_30_ ^ 2 + 1 y_23_ ^ 2 - 2 y_30_ * y_23_ + 1 y_30_ ^ 2 ] >= 27376.47
quadratic_ranged_69_lb: [ 1 x_24_ ^ 2 - 2 x_30_ * x_24_ + 1 x_30_ ^ 2 + 1 y_24_ ^ 2 - 2 y_30_ * y_24_ + 1 y_30_ ^ 2 ] >= 7037.91
quadratic_ranged_70_lb: [ 1 x_29_ ^ 2 - 2 x_30_ * x_29_ + 1 x_30_ ^ 2 + 1 y_29_ ^ 2 - 2 y_30_ * y_29_ + 1 y_30_ ^ 2 ] >= 11984.94
quadratic_ranged_71_lb: [ 1 x_10_ ^ 2 - 2 x_31_ * x_10_ + 1 x_31_ ^ 2 + 1 y_10_ ^ 2 - 2 y_31_ * y_10_ + 1 y_31_ ^ 2 ] >= 17014.14
quadratic_ranged_72_lb: [ 1 x_15_ ^ 2 - 2 x_31_ * x_15_ + 1 x_31_ ^ 2 + 1 y_15_ ^ 2 - 2 y_31_ * y_15_ + 1 y_31_ ^ 2 ] >= 1014.75
quadratic_ranged_73_lb: [ 1 x_27_ ^ 2 - 2 x_31_ * x_27_ + 1 x_31_ ^ 2 + 1 y_27_ ^ 2 - 2 y_31_ * y_27_ + 1 y_31_ ^ 2 ] >= 9172.35
quadratic_ranged_74_lb: [ 1 x_30_ ^ 2 - 2 x_31_ * x_30_ + 1 x_31_ ^ 2 + 1 y_30_ ^ 2 - 2 y_31_ * y_30_ + 1 y_31_ ^ 2 ] >= 13800.6
quadratic_ranged_75_lb: [ 1 x_5_ ^ 2 - 2 x_32_ * x_5_ + 1 x_32_ ^ 2 + 1 y_5_ ^ 2 - 2 y_32_ * y_5_ + 1 y_32_ ^ 2 ] >= 40964.22
quadratic_ranged_76_lb: [ 1 x_19_ ^ 2 - 2 x_32_ * x_19_ + 1 x_32_ ^ 2 + 1 y_19_ ^ 2 - 2 y_32_ * y_19_ + 1 y_32_ ^ 2 ] >= 16632.99
quadratic_ranged_77_lb: [ 1 x_22_ ^ 2 - 2 x_32_ * x_22_ + 1 x_32_ ^ 2 + 1 y_22_ ^ 2 - 2 y_32_ * y_22_ + 1 y_32_ ^ 2 ] >= 10321.74
quadratic_ranged_78_lb: [ 1 x_31_ ^ 2 - 2 x_32_ * x_31_ + 1 x_32_ ^ 2 + 1 y_31_ ^ 2 - 2 y_32_ * y_31_ + 1 y_32_ ^ 2 ] >= 1026.6299999999999
quadratic_ranged_79_lb: [ 1 x_3_ ^ 2 - 2 x_33_ * x_3_ + 1 x_33_ ^ 2 + 1 y_3_ ^ 2 - 2 y_33_ * y_3_ + 1 y_33_ ^ 2 ] >= 1435.5
quadratic_ranged_80_lb: [ 1 x_16_ ^ 2 - 2 x_33_ * x_16_ + 1 x_33_ ^ 2 + 1 y_16_ ^ 2 - 2 y_33_ * y_16_ + 1 y_33_ ^ 2 ] >= 9952.47
quadratic_ranged_81_lb: [ 1 x_17_ ^ 2 - 2 x_33_ * x_17_ + 1 x_33_ ^ 2 + 1 y_17_ ^ 2 - 2 y_33_ * y_17_ + 1 y_33_ ^ 2 ] >= 2035.44
quadratic_ranged_82_lb: [ 1 x_28_ ^ 2 - 2 x_33_ * x_28_ + 1 x_33_ ^ 2 + 1 y_28_ ^ 2 - 2 y_33_ * y_28_ + 1 y_33_ ^ 2 ] >= 5520.24
quadratic_ranged_83_lb: [ 1 x_32_ ^ 2 - 2 x_33_ * x_32_ + 1 x_33_ ^ 2 + 1 y_32_ ^ 2 - 2 y_33_ * y_32_ + 1 y_33_ ^ 2 ] >= 6570.63
quadratic_ranged_84_lb: [ 1 x_4_ ^ 2 - 2 x_34_ * x_4_ + 1 x_34_ ^ 2 + 1 y_4_ ^ 2 - 2 y_34_ * y_4_ + 1 y_34_ ^ 2 ] >= 8632.8
quadratic_ranged_85_lb: [ 1 x_33_ ^ 2 - 2 x_34_ * x_33_ + 1 x_34_ ^ 2 + 1 y_33_ ^ 2 - 2 y_34_ * y_33_ + 1 y_34_ ^ 2 ] >= 5110.38
quadratic_ranged_86_lb: [ 1 x_2_ ^ 2 - 2 x_35_ * x_2_ + 1 x_35_ ^ 2 + 1 y_2_ ^ 2 - 2 y_35_ * y_2_ + 1 y_35_ ^ 2 ] >= 28219.95
quadratic_ranged_87_lb: [ 1 x_20_ ^ 2 - 2 x_35_ * x_20_ + 1 x_35_ ^ 2 + 1 y_20_ ^ 2 - 2 y_35_ * y_20_ + 1 y_35_ ^ 2 ] >= 8736.75
quadratic_ranged_88_lb: [ 1 x_24_ ^ 2 - 2 x_35_ * x_24_ + 1 x_35_ ^ 2 + 1 y_24_ ^ 2 - 2 y_35_ * y_24_ + 1 y_35_ ^ 2 ] >= 15476.67
quadratic_ranged_89_lb: [ 1 x_34_ ^ 2 - 2 x_35_ * x_34_ + 1 x_35_ ^ 2 + 1 y_34_ ^ 2 - 2 y_35_ * y_34_ + 1 y_35_ ^ 2 ] >= 19849.5
quadratic_ranged_90_lb: [ 1 x_35_ ^ 2 - 2 x_36_ * x_35_ + 1 x_36_ ^ 2 + 1 y_35_ ^ 2 - 2 y_36_ * y_35_ + 1 y_36_ ^ 2 ] >= 11159.28
quadratic_ranged_91_lb: [ 1 x_6_ ^ 2 - 2 x_37_ * x_6_ + 1 x_37_ ^ 2 + 1 y_6_ ^ 2 - 2 y_37_ * y_6_ + 1 y_37_ ^ 2 ] >= 3830.31
quadratic_ranged_92_lb: [ 1 x_36_ ^ 2 - 2 x_37_ * x_36_ + 1 x_37_ ^ 2 + 1 y_36_ ^ 2 - 2 y_37_ * y_36_ + 1 y_37_ ^ 2 ] >= 19075.32
quadratic_ranged_93_lb: [ 1 x_15_ ^ 2 - 2 x_38_ * x_15_ + 1 x_38_ ^ 2 + 1 y_15_ ^ 2 - 2 y_38_ * y_15_ + 1 y_38_ ^ 2 ] >= 3359.07
quadratic_ranged_94_lb: [ 1 x_37_ ^ 2 - 2 x_38_ * x_37_ + 1 x_38_ ^ 2 + 1 y_37_ ^ 2 - 2 y_38_ * y_37_ + 1 y_38_ ^ 2 ] >= 8706.06
quadratic_ranged_95_lb: [ 1 x_18_ ^ 2 - 2 x_39_ * x_18_ + 1 x_39_ ^ 2 + 1 y_18_ ^ 2 - 2 y_39_ * y_18_ + 1 y_39_ ^ 2 ] >= 9944.55
quadratic_ranged_96_lb: [ 1 x_33_ ^ 2 - 2 x_39_ * x_33_ + 1 x_39_ ^ 2 + 1 y_33_ ^ 2 - 2 y_39_ * y_33_ + 1 y_39_ ^ 2 ] >= 4681.71
quadratic_ranged_97_lb: [ 1 x_38_ ^ 2 - 2 x_39_ * x_38_ + 1 x_39_ ^ 2 + 1 y_38_ ^ 2 - 2 y_39_ * y_38_ + 1 y_39_ ^ 2 ] >= 4198.59
quadratic_ranged_98_lb: [ 1 x_3_ ^ 2 - 2 x_40_ * x_3_ + 1 x_40_ ^ 2 + 1 y_3_ ^ 2 - 2 y_40_ * y_3_ + 1 y_40_ ^ 2 ] >= 12549.24
quadratic_ranged_99_lb: [ 1 x_13_ ^ 2 - 2 x_40_ * x_13_ + 1 x_40_ ^ 2 + 1 y_13_ ^ 2 - 2 y_40_ * y_13_ + 1 y_40_ ^ 2 ] >= 2908.62
quadratic_ranged_100_lb: [ 1 x_20_ ^ 2 - 2 x_40_ * x_20_ + 1 x_40_ ^ 2 + 1 y_20_ ^ 2 - 2 y_40_ * y_20_ + 1 y_40_ ^ 2 ] >= 1276.11
quadratic_ranged_101_lb: [ 1 x_21_ ^ 2 - 2 x_40_ * x_21_ + 1 x_40_ ^ 2 + 1 y_21_ ^ 2 - 2 y_40_ * y_21_ + 1 y_40_ ^ 2 ] >= 2935.35
quadratic_ranged_102_lb: [ 1 x_28_ ^ 2 - 2 x_40_ * x_28_ + 1 x_40_ ^ 2 + 1 y_28_ ^ 2 - 2 y_40_ * y_28_ + 1 y_40_ ^ 2 ] >= 999.9
quadratic_ranged_103_lb: [ 1 x_33_ ^ 2 - 2 x_40_ * x_33_ + 1 x_40_ ^ 2 + 1 y_33_ ^ 2 - 2 y_40_ * y_33_ + 1 y_40_ ^ 2 ] >= 5894.46
quadratic_ranged_104_lb: [ 1 x_39_ ^ 2 - 2 x_40_ * x_39_ + 1 x_40_ ^ 2 + 1 y_39_ ^ 2 - 2 y_40_ * y_39_ + 1 y_40_ ^ 2 ] >= 3093.75
quadratic_ranged_105_lb: [ 1 x_5_ ^ 2 - 2 x_41_ * x_5_ + 1 x_41_ ^ 2 + 1 y_5_ ^ 2 - 2 y_41_ * y_5_ + 1 y_41_ ^ 2 ] >= 3172.95
quadratic_ranged_106_lb: [ 1 x_15_ ^ 2 - 2 x_41_ * x_15_ + 1 x_41_ ^ 2 + 1 y_15_ ^ 2 - 2 y_41_ * y_15_ + 1 y_41_ ^ 2 ] >= 11540.43
quadratic_ranged_107_lb: [ 1 x_21_ ^ 2 - 2 x_41_ * x_21_ + 1 x_41_ ^ 2 + 1 y_21_ ^ 2 - 2 y_41_ * y_21_ + 1 y_41_ ^ 2 ] >= 3279.87
quadratic_ranged_108_lb: [ 1 x_22_ ^ 2 - 2 x_41_ * x_22_ + 1 x_41_ ^ 2 + 1 y_22_ ^ 2 - 2 y_41_ * y_22_ + 1 y_41_ ^ 2 ] >= 4578.75
quadratic_ranged_109_lb: [ 1 x_35_ ^ 2 - 2 x_41_ * x_35_ + 1 x_41_ ^ 2 + 1 y_35_ ^ 2 - 2 y_41_ * y_35_ + 1 y_41_ ^ 2 ] >= 14687.64
quadratic_ranged_110_lb: [ 1 x_39_ ^ 2 - 2 x_41_ * x_39_ + 1 x_41_ ^ 2 + 1 y_39_ ^ 2 - 2 y_41_ * y_39_ + 1 y_41_ ^ 2 ] >= 6531.03
quadratic_ranged_111_lb: [ 1 x_40_ ^ 2 - 2 x_41_ * x_40_ + 1 x_41_ ^ 2 + 1 y_40_ ^ 2 - 2 y_41_ * y_40_ + 1 y_41_ ^ 2 ] >= 1308.78
quadratic_ranged_112_lb: [ 1 x_6_ ^ 2 - 2 x_42_ * x_6_ + 1 x_42_ ^ 2 + 1 y_6_ ^ 2 - 2 y_42_ * y_6_ + 1 y_42_ ^ 2 ] >= 30512.79
quadratic_ranged_113_lb: [ 1 x_18_ ^ 2 - 2 x_42_ * x_18_ + 1 x_42_ ^ 2 + 1 y_18_ ^ 2 - 2 y_42_ * y_18_ + 1 y_42_ ^ 2 ] >= 28474.38
quadratic_ranged_114_lb: [ 1 x_23_ ^ 2 - 2 x_42_ * x_23_ + 1 x_42_ ^ 2 + 1 y_23_ ^ 2 - 2 y_42_ * y_23_ + 1 y_42_ ^ 2 ] >= 17417.07
quadratic_ranged_115_lb: [ 1 x_26_ ^ 2 - 2 x_42_ * x_26_ + 1 x_42_ ^ 2 + 1 y_26_ ^ 2 - 2 y_42_ * y_26_ + 1 y_42_ ^ 2 ] >= 48550.59
quadratic_ranged_116_lb: [ 1 x_27_ ^ 2 - 2 x_42_ * x_27_ + 1 x_42_ ^ 2 + 1 y_27_ ^ 2 - 2 y_42_ * y_27_ + 1 y_42_ ^ 2 ] >= 7342.83
quadratic_ranged_117_lb: [ 1 x_30_ ^ 2 - 2 x_42_ * x_30_ + 1 x_42_ ^ 2 + 1 y_30_ ^ 2 - 2 y_42_ * y_30_ + 1 y_42_ ^ 2 ] >= 12119.58
quadratic_ranged_118_lb: [ 1 x_35_ ^ 2 - 2 x_42_ * x_35_ + 1 x_42_ ^ 2 + 1 y_35_ ^ 2 - 2 y_42_ * y_35_ + 1 y_42_ ^ 2 ] >= 2950.2
quadratic_ranged_119_lb: [ 1 x_41_ ^ 2 - 2 x_42_ * x_41_ + 1 x_42_ ^ 2 + 1 y_41_ ^ 2 - 2 y_42_ * y_41_ + 1 y_42_ ^ 2 ] >= 28797.12
quadratic_ranged_120_lb: [ 1 x_19_ ^ 2 - 2 x_43_ * x_19_ + 1 x_43_ ^ 2 + 1 y_19_ ^ 2 - 2 y_43_ * y_19_ + 1 y_43_ ^ 2 ] >= 841.5
quadratic_ranged_121_lb: [ 1 x_42_ ^ 2 - 2 x_43_ * x_42_ + 1 x_43_ ^ 2 + 1 y_42_ ^ 2 - 2 y_43_ * y_42_ + 1 y_43_ ^ 2 ] >= 18311.04
quadratic_ranged_122_lb: [ 1 x_10_ ^ 2 - 2 x_44_ * x_10_ + 1 x_44_ ^ 2 + 1 y_10_ ^ 2 - 2 y_44_ * y_10_ + 1 y_44_ ^ 2 ] >= 37709.1
quadratic_ranged_123_lb: [ 1 x_17_ ^ 2 - 2 x_44_ * x_17_ + 1 x_44_ ^ 2 + 1 y_17_ ^ 2 - 2 y_44_ * y_17_ + 1 y_44_ ^ 2 ] >= 17592.3
quadratic_ranged_124_lb: [ 1 x_27_ ^ 2 - 2 x_44_ * x_27_ + 1 x_44_ ^ 2 + 1 y_27_ ^ 2 - 2 y_44_ * y_27_ + 1 y_44_ ^ 2 ] >= 3473.91
quadratic_ranged_125_lb: [ 1 x_30_ ^ 2 - 2 x_44_ * x_30_ + 1 x_44_ ^ 2 + 1 y_30_ ^ 2 - 2 y_44_ * y_30_ + 1 y_44_ ^ 2 ] >= 6815.16
quadratic_ranged_126_lb: [ 1 x_43_ ^ 2 - 2 x_44_ * x_43_ + 1 x_44_ ^ 2 + 1 y_43_ ^ 2 - 2 y_44_ * y_43_ + 1 y_44_ ^ 2 ] >= 12642.3
quadratic_ranged_127_lb: [ 1 x_1_ ^ 2 - 2 x_45_ * x_1_ + 1 x_45_ ^ 2 + 1 y_1_ ^ 2 - 2 y_45_ * y_1_ + 1 y_45_ ^ 2 ] >= 3196.71
quadratic_ranged_128_lb: [ 1 x_7_ ^ 2 - 2 x_45_ * x_7_ + 1 x_45_ ^ 2 + 1 y_7_ ^ 2 - 2 y_45_ * y_7_ + 1 y_45_ ^ 2 ] >= 18854.55
quadratic_ranged_129_lb: [ 1 x_21_ ^ 2 - 2 x_45_ * x_21_ + 1 x_45_ ^ 2 + 1 y_21_ ^ 2 - 2 y_45_ * y_21_ + 1 y_45_ ^ 2 ] >= 23383.8
quadratic_ranged_130_lb: [ 1 x_39_ ^ 2 - 2 x_45_ * x_39_ + 1 x_45_ ^ 2 + 1 y_39_ ^ 2 - 2 y_45_ * y_39_ + 1 y_45_ ^ 2 ] >= 3439.2599999999998
quadratic_ranged_131_lb: [ 1 x_41_ ^ 2 - 2 x_45_ * x_41_ + 1 x_45_ ^ 2 + 1 y_41_ ^ 2 - 2 y_45_ * y_41_ + 1 y_45_ ^ 2 ] >= 18933.75
quadratic_ranged_132_lb: [ 1 x_44_ ^ 2 - 2 x_45_ * x_44_ + 1 x_45_ ^ 2 + 1 y_44_ ^ 2 - 2 y_45_ * y_44_ + 1 y_45_ ^ 2 ] >= 7675.47
quadratic_ranged_133_lb: [ 1 x_3_ ^ 2 - 2 x_46_ * x_3_ + 1 x_46_ ^ 2 + 1 y_3_ ^ 2 - 2 y_46_ * y_3_ + 1 y_46_ ^ 2 ] >= 14067.9
quadratic_ranged_134_lb: [ 1 x_15_ ^ 2 - 2 x_46_ * x_15_ + 1 x_46_ ^ 2 + 1 y_15_ ^ 2 - 2 y_46_ * y_15_ + 1 y_46_ ^ 2 ] >= 17607.15
quadratic_ranged_135_lb: [ 1 x_31_ ^ 2 - 2 x_46_ * x_31_ + 1 x_46_ ^ 2 + 1 y_31_ ^ 2 - 2 y_46_ * y_31_ + 1 y_46_ ^ 2 ] >= 17679.42
quadratic_ranged_136_lb: [ 1 x_35_ ^ 2 - 2 x_46_ * x_35_ + 1 x_46_ ^ 2 + 1 y_35_ ^ 2 - 2 y_46_ * y_35_ + 1 y_46_ ^ 2 ] >= 10996.92
quadratic_ranged_137_lb: [ 1 x_42_ ^ 2 - 2 x_46_ * x_42_ + 1 x_46_ ^ 2 + 1 y_42_ ^ 2 - 2 y_46_ * y_42_ + 1 y_46_ ^ 2 ] >= 25296.48
quadratic_ranged_138_lb: [ 1 x_45_ ^ 2 - 2 x_46_ * x_45_ + 1 x_46_ ^ 2 + 1 y_45_ ^ 2 - 2 y_46_ * y_45_ + 1 y_46_ ^ 2 ] >= 8376.39
quadratic_ranged_139_lb: [ 1 x_5_ ^ 2 - 2 x_47_ * x_5_ + 1 x_47_ ^ 2 + 1 y_5_ ^ 2 - 2 y_47_ * y_5_ + 1 y_47_ ^ 2 ] >= 28864.44
quadratic_ranged_140_lb: [ 1 x_31_ ^ 2 - 2 x_47_ * x_31_ + 1 x_47_ ^ 2 + 1 y_31_ ^ 2 - 2 y_47_ * y_31_ + 1 y_47_ ^ 2 ] >= 1478.07
quadratic_ranged_141_lb: [ 1 x_32_ ^ 2 - 2 x_47_ * x_32_ + 1 x_47_ ^ 2 + 1 y_32_ ^ 2 - 2 y_47_ * y_32_ + 1 y_47_ ^ 2 ] >= 4492.62
quadratic_ranged_142_lb: [ 1 x_33_ ^ 2 - 2 x_47_ * x_33_ + 1 x_47_ ^ 2 + 1 y_33_ ^ 2 - 2 y_47_ * y_33_ + 1 y_47_ ^ 2 ] >= 3054.15
quadratic_ranged_143_lb: [ 1 x_46_ ^ 2 - 2 x_47_ * x_46_ + 1 x_47_ ^ 2 + 1 y_46_ ^ 2 - 2 y_47_ * y_46_ + 1 y_47_ ^ 2 ] >= 20022.75
quadratic_ranged_144_lb: [ 1 x_16_ ^ 2 - 2 x_48_ * x_16_ + 1 x_48_ ^ 2 + 1 y_16_ ^ 2 - 2 y_48_ * y_16_ + 1 y_48_ ^ 2 ] >= 26872.56
quadratic_ranged_145_lb: [ 1 x_19_ ^ 2 - 2 x_48_ * x_19_ + 1 x_48_ ^ 2 + 1 y_19_ ^ 2 - 2 y_48_ * y_19_ + 1 y_48_ ^ 2 ] >= 14498.55
quadratic_ranged_146_lb: [ 1 x_20_ ^ 2 - 2 x_48_ * x_20_ + 1 x_48_ ^ 2 + 1 y_20_ ^ 2 - 2 y_48_ * y_20_ + 1 y_48_ ^ 2 ] >= 11883.96
quadratic_ranged_147_lb: [ 1 x_29_ ^ 2 - 2 x_48_ * x_29_ + 1 x_48_ ^ 2 + 1 y_29_ ^ 2 - 2 y_48_ * y_29_ + 1 y_48_ ^ 2 ] >= 1311.75
quadratic_ranged_148_lb: [ 1 x_32_ ^ 2 - 2 x_48_ * x_32_ + 1 x_48_ ^ 2 + 1 y_32_ ^ 2 - 2 y_48_ * y_32_ + 1 y_48_ ^ 2 ] >= 722.7
quadratic_ranged_149_lb: [ 1 x_47_ ^ 2 - 2 x_48_ * x_47_ + 1 x_48_ ^ 2 + 1 y_47_ ^ 2 - 2 y_48_ * y_47_ + 1 y_48_ ^ 2 ] >= 1619.6399999999999
quadratic_ranged_150_lb: [ 1 x_7_ ^ 2 - 2 x_49_ * x_7_ + 1 x_49_ ^ 2 + 1 y_7_ ^ 2 - 2 y_49_ * y_7_ + 1 y_49_ ^ 2 ] >= 7375.5
quadratic_ranged_151_lb: [ 1 x_16_ ^ 2 - 2 x_49_ * x_16_ + 1 x_49_ ^ 2 + 1 y_16_ ^ 2 - 2 y_49_ * y_16_ + 1 y_49_ ^ 2 ] >= 3588.75
quadratic_ranged_152_lb: [ 1 x_18_ ^ 2 - 2 x_49_ * x_18_ + 1 x_49_ ^ 2 + 1 y_18_ ^ 2 - 2 y_49_ * y_18_ + 1 y_49_ ^ 2 ] >= 11254.32
quadratic_ranged_153_lb: [ 1 x_20_ ^ 2 - 2 x_49_ * x_20_ + 1 x_49_ ^ 2 + 1 y_20_ ^ 2 - 2 y_49_ * y_20_ + 1 y_49_ ^ 2 ] >= 14150.07
quadratic_ranged_154_lb: [ 1 x_28_ ^ 2 - 2 x_49_ * x_28_ + 1 x_49_ ^ 2 + 1 y_28_ ^ 2 - 2 y_49_ * y_28_ + 1 y_49_ ^ 2 ] >= 17940.78
quadratic_ranged_155_lb: [ 1 x_35_ ^ 2 - 2 x_49_ * x_35_ + 1 x_49_ ^ 2 + 1 y_35_ ^ 2 - 2 y_49_ * y_35_ + 1 y_49_ ^ 2 ] >= 43942.14
quadratic_ranged_156_lb: [ 1 x_40_ ^ 2 - 2 x_49_ * x_40_ + 1 x_49_ ^ 2 + 1 y_40_ ^ 2 - 2 y_49_ * y_40_ + 1 y_49_ ^ 2 ] >= 10695.96
quadratic_ranged_157_lb: [ 1 x_48_ ^ 2 - 2 x_49_ * x_48_ + 1 x_49_ ^ 2 + 1 y_48_ ^ 2 - 2 y_49_ * y_48_ + 1 y_49_ ^ 2 ] >= 50098.95
quadratic_ranged_158_lb: [ 1 x_3_ ^ 2 - 2 x_50_ * x_3_ + 1 x_50_ ^ 2 + 1 y_3_ ^ 2 - 2 y_50_ * y_3_ + 1 y_50_ ^ 2 ] >= 36544.86
quadratic_ranged_159_lb: [ 1 x_22_ ^ 2 - 2 x_50_ * x_22_ + 1 x_50_ ^ 2 + 1 y_22_ ^ 2 - 2 y_50_ * y_22_ + 1 y_50_ ^ 2 ] >= 20038.59
quadratic_ranged_160_lb: [ 1 x_23_ ^ 2 - 2 x_50_ * x_23_ + 1 x_50_ ^ 2 + 1 y_23_ ^ 2 - 2 y_50_ * y_23_ + 1 y_50_ ^ 2 ] >= 40004.909999999996
quadratic_ranged_161_lb: [ 1 x_40_ ^ 2 - 2 x_50_ * x_40_ + 1 x_50_ ^ 2 + 1 y_40_ ^ 2 - 2 y_50_ * y_40_ + 1 y_50_ ^ 2 ] >= 8207.1
quadratic_ranged_162_lb: [ 1 x_45_ ^ 2 - 2 x_50_ * x_45_ + 1 x_50_ ^ 2 + 1 y_45_ ^ 2 - 2 y_50_ * y_45_ + 1 y_50_ ^ 2 ] >= 35811.27
quadratic_ranged_163_lb: [ 1 x_49_ ^ 2 - 2 x_50_ * x_49_ + 1 x_50_ ^ 2 + 1 y_49_ ^ 2 - 2 y_50_ * y_49_ + 1 y_50_ ^ 2 ] >= 382.14
quadratic_ranged_164_lb: [ 1 x_7_ ^ 2 - 2 x_51_ * x_7_ + 1 x_51_ ^ 2 + 1 y_7_ ^ 2 - 2 y_51_ * y_7_ + 1 y_51_ ^ 2 ] >= 1501.83
quadratic_ranged_165_lb: [ 1 x_21_ ^ 2 - 2 x_51_ * x_21_ + 1 x_51_ ^ 2 + 1 y_21_ ^ 2 - 2 y_51_ * y_21_ + 1 y_51_ ^ 2 ] >= 6005.34
quadratic_ranged_166_lb: [ 1 x_26_ ^ 2 - 2 x_51_ * x_26_ + 1 x_51_ ^ 2 + 1 y_26_ ^ 2 - 2 y_51_ * y_26_ + 1 y_51_ ^ 2 ] >= 1863.18
quadratic_ranged_167_lb: [ 1 x_42_ ^ 2 - 2 x_51_ * x_42_ + 1 x_51_ ^ 2 + 1 y_42_ ^ 2 - 2 y_51_ * y_42_ + 1 y_51_ ^ 2 ] >= 33680.79
quadratic_ranged_168_lb: [ 1 x_50_ ^ 2 - 2 x_51_ * x_50_ + 1 x_51_ ^ 2 + 1 y_50_ ^ 2 - 2 y_51_ * y_50_ + 1 y_51_ ^ 2 ] >= 8867.43
quadratic_ranged_169_lb: [ 1 x_14_ ^ 2 - 2 x_52_ * x_14_ + 1 x_52_ ^ 2 + 1 y_14_ ^ 2 - 2 y_52_ * y_14_ + 1 y_52_ ^ 2 ] >= 9127.8
quadratic_ranged_170_lb: [ 1 x_25_ ^ 2 - 2 x_52_ * x_25_ + 1 x_52_ ^ 2 + 1 y_25_ ^ 2 - 2 y_52_ * y_25_ + 1 y_52_ ^ 2 ] >= 11707.74
quadratic_ranged_171_lb: [ 1 x_29_ ^ 2 - 2 x_52_ * x_29_ + 1 x_52_ ^ 2 + 1 y_29_ ^ 2 - 2 y_52_ * y_29_ + 1 y_52_ ^ 2 ] >= 24679.71
quadratic_ranged_172_lb: [ 1 x_30_ ^ 2 - 2 x_52_ * x_30_ + 1 x_52_ ^ 2 + 1 y_30_ ^ 2 - 2 y_52_ * y_30_ + 1 y_52_ ^ 2 ] >= 8617.95
quadratic_ranged_173_lb: [ 1 x_37_ ^ 2 - 2 x_52_ * x_37_ + 1 x_52_ ^ 2 + 1 y_37_ ^ 2 - 2 y_52_ * y_37_ + 1 y_52_ ^ 2 ] >= 7746.75
quadratic_ranged_174_lb: [ 1 x_51_ ^ 2 - 2 x_52_ * x_51_ + 1 x_52_ ^ 2 + 1 y_51_ ^ 2 - 2 y_52_ * y_51_ + 1 y_52_ ^ 2 ] >= 5361.84
quadratic_ranged_175_lb: [ 1 x_12_ ^ 2 - 2 x_53_ * x_12_ + 1 x_53_ ^ 2 + 1 y_12_ ^ 2 - 2 y_53_ * y_12_ + 1 y_53_ ^ 2 ] >= 12380.94
quadratic_ranged_176_lb: [ 1 x_22_ ^ 2 - 2 x_53_ * x_22_ + 1 x_53_ ^ 2 + 1 y_22_ ^ 2 - 2 y_53_ * y_22_ + 1 y_53_ ^ 2 ] >= 15884.55
quadratic_ranged_177_lb: [ 1 x_31_ ^ 2 - 2 x_53_ * x_31_ + 1 x_53_ ^ 2 + 1 y_31_ ^ 2 - 2 y_53_ * y_31_ + 1 y_53_ ^ 2 ] >= 6720.12
quadratic_ranged_178_lb: [ 1 x_52_ ^ 2 - 2 x_53_ * x_52_ + 1 x_53_ ^ 2 + 1 y_52_ ^ 2 - 2 y_53_ * y_52_ + 1 y_53_ ^ 2 ] >= 22909.59
quadratic_ranged_179_lb: [ 1 x_9_ ^ 2 - 2 x_54_ * x_9_ + 1 x_54_ ^ 2 + 1 y_9_ ^ 2 - 2 y_54_ * y_9_ + 1 y_54_ ^ 2 ] >= 13944.15
quadratic_ranged_180_lb: [ 1 x_30_ ^ 2 - 2 x_54_ * x_30_ + 1 x_54_ ^ 2 + 1 y_30_ ^ 2 - 2 y_54_ * y_30_ + 1 y_54_ ^ 2 ] >= 13703.58
quadratic_ranged_181_lb: [ 1 x_37_ ^ 2 - 2 x_54_ * x_37_ + 1 x_54_ ^ 2 + 1 y_37_ ^ 2 - 2 y_54_ * y_37_ + 1 y_54_ ^ 2 ] >= 17146.8
quadratic_ranged_182_lb: [ 1 x_52_ ^ 2 - 2 x_54_ * x_52_ + 1 x_54_ ^ 2 + 1 y_52_ ^ 2 - 2 y_54_ * y_52_ + 1 y_54_ ^ 2 ] >= 22339.35
quadratic_ranged_183_lb: [ 1 x_53_ ^ 2 - 2 x_54_ * x_53_ + 1 x_54_ ^ 2 + 1 y_53_ ^ 2 - 2 y_54_ * y_53_ + 1 y_54_ ^ 2 ] >= 8943.66
quadratic_ranged_184_lb: [ 1 x_5_ ^ 2 - 2 x_55_ * x_5_ + 1 x_55_ ^ 2 + 1 y_5_ ^ 2 - 2 y_55_ * y_5_ + 1 y_55_ ^ 2 ] >= 16312.23
quadratic_ranged_185_lb: [ 1 x_6_ ^ 2 - 2 x_55_ * x_6_ + 1 x_55_ ^ 2 + 1 y_6_ ^ 2 - 2 y_55_ * y_6_ + 1 y_55_ ^ 2 ] >= 13037.31
quadratic_ranged_186_lb: [ 1 x_25_ ^ 2 - 2 x_55_ * x_25_ + 1 x_55_ ^ 2 + 1 y_25_ ^ 2 - 2 y_55_ * y_25_ + 1 y_55_ ^ 2 ] >= 25238.07
quadratic_ranged_187_lb: [ 1 x_28_ ^ 2 - 2 x_55_ * x_28_ + 1 x_55_ ^ 2 + 1 y_28_ ^ 2 - 2 y_55_ * y_28_ + 1 y_55_ ^ 2 ] >= 5528.16
quadratic_ranged_188_lb: [ 1 x_29_ ^ 2 - 2 x_55_ * x_29_ + 1 x_55_ ^ 2 + 1 y_29_ ^ 2 - 2 y_55_ * y_29_ + 1 y_55_ ^ 2 ] >= 5385.6
quadratic_ranged_189_lb: [ 1 x_43_ ^ 2 - 2 x_55_ * x_43_ + 1 x_55_ ^ 2 + 1 y_43_ ^ 2 - 2 y_55_ * y_43_ + 1 y_55_ ^ 2 ] >= 5801.4
quadratic_ranged_190_lb: [ 1 x_54_ ^ 2 - 2 x_55_ * x_54_ + 1 x_55_ ^ 2 + 1 y_54_ ^ 2 - 2 y_55_ * y_54_ + 1 y_55_ ^ 2 ] >= 3488.7599999999998
quadratic_ranged_191_lb: [ 1 x_27_ ^ 2 - 2 x_56_ * x_27_ + 1 x_56_ ^ 2 + 1 y_27_ ^ 2 - 2 y_56_ * y_27_ + 1 y_56_ ^ 2 ] >= 19290.15
quadratic_ranged_192_lb: [ 1 x_42_ ^ 2 - 2 x_56_ * x_42_ + 1 x_56_ ^ 2 + 1 y_42_ ^ 2 - 2 y_56_ * y_42_ + 1 y_56_ ^ 2 ] >= 42237.36
quadratic_ranged_193_lb: [ 1 x_55_ ^ 2 - 2 x_56_ * x_55_ + 1 x_56_ ^ 2 + 1 y_55_ ^ 2 - 2 y_56_ * y_55_ + 1 y_56_ ^ 2 ] >= 12976.92
quadratic_ranged_194_lb: [ 1 x_8_ ^ 2 - 2 x_57_ * x_8_ + 1 x_57_ ^ 2 + 1 y_8_ ^ 2 - 2 y_57_ * y_8_ + 1 y_57_ ^ 2 ] >= 2130.48
quadratic_ranged_195_lb: [ 1 x_15_ ^ 2 - 2 x_57_ * x_15_ + 1 x_57_ ^ 2 + 1 y_15_ ^ 2 - 2 y_57_ * y_15_ + 1 y_57_ ^ 2 ] >= 31965.12
quadratic_ranged_196_lb: [ 1 x_17_ ^ 2 - 2 x_57_ * x_17_ + 1 x_57_ ^ 2 + 1 y_17_ ^ 2 - 2 y_57_ * y_17_ + 1 y_57_ ^ 2 ] >= 30271.23
quadratic_ranged_197_lb: [ 1 x_56_ ^ 2 - 2 x_57_ * x_56_ + 1 x_57_ ^ 2 + 1 y_56_ ^ 2 - 2 y_57_ * y_56_ + 1 y_57_ ^ 2 ] >= 8867.43
quadratic_ranged_198_lb: [ 1 x_10_ ^ 2 - 2 x_58_ * x_10_ + 1 x_58_ ^ 2 + 1 y_10_ ^ 2 - 2 y_58_ * y_10_ + 1 y_58_ ^ 2 ] >= 27360.63
quadratic_ranged_199_lb: [ 1 x_11_ ^ 2 - 2 x_58_ * x_11_ + 1 x_58_ ^ 2 + 1 y_11_ ^ 2 - 2 y_58_ * y_11_ + 1 y_58_ ^ 2 ] >= 21908.7
quadratic_ranged_200_lb: [ 1 x_14_ ^ 2 - 2 x_58_ * x_14_ + 1 x_58_ ^ 2 + 1 y_14_ ^ 2 - 2 y_58_ * y_14_ + 1 y_58_ ^ 2 ] >= 310.86
quadratic_ranged_201_lb: [ 1 x_33_ ^ 2 - 2 x_58_ * x_33_ + 1 x_58_ ^ 2 + 1 y_33_ ^ 2 - 2 y_58_ * y_33_ + 1 y_58_ ^ 2 ] >= 5418.2699999999995
quadratic_ranged_202_lb: [ 1 x_35_ ^ 2 - 2 x_58_ * x_35_ + 1 x_58_ ^ 2 + 1 y_35_ ^ 2 - 2 y_58_ * y_35_ + 1 y_58_ ^ 2 ] >= 361.35
quadratic_ranged_203_lb: [ 1 x_37_ ^ 2 - 2 x_58_ * x_37_ + 1 x_58_ ^ 2 + 1 y_37_ ^ 2 - 2 y_58_ * y_37_ + 1 y_58_ ^ 2 ] >= 3232.35
quadratic_ranged_204_lb: [ 1 x_57_ ^ 2 - 2 x_58_ * x_57_ + 1 x_58_ ^ 2 + 1 y_57_ ^ 2 - 2 y_58_ * y_57_ + 1 y_58_ ^ 2 ] >= 12483.9
quadratic_ranged_205_lb: [ 1 x_5_ ^ 2 - 2 x_59_ * x_5_ + 1 x_59_ ^ 2 + 1 y_5_ ^ 2 - 2 y_59_ * y_5_ + 1 y_59_ ^ 2 ] >= 3882.7799999999997
quadratic_ranged_206_lb: [ 1 x_16_ ^ 2 - 2 x_59_ * x_16_ + 1 x_59_ ^ 2 + 1 y_16_ ^ 2 - 2 y_59_ * y_16_ + 1 y_59_ ^ 2 ] >= 738.54
quadratic_ranged_207_lb: [ 1 x_29_ ^ 2 - 2 x_59_ * x_29_ + 1 x_59_ ^ 2 + 1 y_29_ ^ 2 - 2 y_59_ * y_29_ + 1 y_59_ ^ 2 ] >= 28813.95
quadratic_ranged_208_lb: [ 1 x_58_ ^ 2 - 2 x_59_ * x_58_ + 1 x_59_ ^ 2 + 1 y_58_ ^ 2 - 2 y_59_ * y_58_ + 1 y_59_ ^ 2 ] >= 22385.88
quadratic_ranged_209_lb: [ 1 x_1_ ^ 2 - 2 x_60_ * x_1_ + 1 x_60_ ^ 2 + 1 y_1_ ^ 2 - 2 y_60_ * y_1_ + 1 y_60_ ^ 2 ] >= 28076.4
quadratic_ranged_210_lb: [ 1 x_5_ ^ 2 - 2 x_60_ * x_5_ + 1 x_60_ ^ 2 + 1 y_5_ ^ 2 - 2 y_60_ * y_5_ + 1 y_60_ ^ 2 ] >= 15088.59
quadratic_ranged_211_lb: [ 1 x_7_ ^ 2 - 2 x_60_ * x_7_ + 1 x_60_ ^ 2 + 1 y_7_ ^ 2 - 2 y_60_ * y_7_ + 1 y_60_ ^ 2 ] >= 7516.08
quadratic_ranged_212_lb: [ 1 x_20_ ^ 2 - 2 x_60_ * x_20_ + 1 x_60_ ^ 2 + 1 y_20_ ^ 2 - 2 y_60_ * y_20_ + 1 y_60_ ^ 2 ] >= 7188.39
quadratic_ranged_213_lb: [ 1 x_40_ ^ 2 - 2 x_60_ * x_40_ + 1 x_60_ ^ 2 + 1 y_40_ ^ 2 - 2 y_60_ * y_40_ + 1 y_60_ ^ 2 ] >= 13022.46
quadratic_ranged_214_lb: [ 1 x_42_ ^ 2 - 2 x_60_ * x_42_ + 1 x_60_ ^ 2 + 1 y_42_ ^ 2 - 2 y_60_ * y_42_ + 1 y_60_ ^ 2 ] >= 33113.52
quadratic_ranged_215_lb: [ 1 x_54_ ^ 2 - 2 x_60_ * x_54_ + 1 x_60_ ^ 2 + 1 y_54_ ^ 2 - 2 y_60_ * y_54_ + 1 y_60_ ^ 2 ] >= 16172.64
quadratic_ranged_216_lb: [ 1 x_59_ ^ 2 - 2 x_60_ * x_59_ + 1 x_60_ ^ 2 + 1 y_59_ ^ 2 - 2 y_60_ * y_59_ + 1 y_60_ ^ 2 ] >= 3747.15
quadratic_ranged_217_lb: [ 1 x_1_ ^ 2 - 2 x_61_ * x_1_ + 1 x_61_ ^ 2 + 1 y_1_ ^ 2 - 2 y_61_ * y_1_ + 1 y_61_ ^ 2 ] >= 2214.63
quadratic_ranged_218_lb: [ 1 x_14_ ^ 2 - 2 x_61_ * x_14_ + 1 x_61_ ^ 2 + 1 y_14_ ^ 2 - 2 y_61_ * y_14_ + 1 y_61_ ^ 2 ] >= 5941.98
quadratic_ranged_219_lb: [ 1 x_40_ ^ 2 - 2 x_61_ * x_40_ + 1 x_61_ ^ 2 + 1 y_40_ ^ 2 - 2 y_61_ * y_40_ + 1 y_61_ ^ 2 ] >= 11279.07
quadratic_ranged_220_lb: [ 1 x_60_ ^ 2 - 2 x_61_ * x_60_ + 1 x_61_ ^ 2 + 1 y_60_ ^ 2 - 2 y_61_ * y_60_ + 1 y_61_ ^ 2 ] >= 44717.31
quadratic_ranged_221_lb: [ 1 x_19_ ^ 2 - 2 x_62_ * x_19_ + 1 x_62_ ^ 2 + 1 y_19_ ^ 2 - 2 y_62_ * y_19_ + 1 y_62_ ^ 2 ] >= 559.35
quadratic_ranged_222_lb: [ 1 x_36_ ^ 2 - 2 x_62_ * x_36_ + 1 x_62_ ^ 2 + 1 y_36_ ^ 2 - 2 y_62_ * y_36_ + 1 y_62_ ^ 2 ] >= 3687.75
quadratic_ranged_223_lb: [ 1 x_61_ ^ 2 - 2 x_62_ * x_61_ + 1 x_62_ ^ 2 + 1 y_61_ ^ 2 - 2 y_62_ * y_61_ + 1 y_62_ ^ 2 ] >= 16087.5
quadratic_ranged_224_lb: [ 1 x_44_ ^ 2 - 2 x_63_ * x_44_ + 1 x_63_ ^ 2 + 1 y_44_ ^ 2 - 2 y_63_ * y_44_ + 1 y_63_ ^ 2 ] >= 30800.88
quadratic_ranged_225_lb: [ 1 x_46_ ^ 2 - 2 x_63_ * x_46_ + 1 x_63_ ^ 2 + 1 y_46_ ^ 2 - 2 y_63_ * y_46_ + 1 y_63_ ^ 2 ] >= 2187.9
quadratic_ranged_226_lb: [ 1 x_52_ ^ 2 - 2 x_63_ * x_52_ + 1 x_63_ ^ 2 + 1 y_52_ ^ 2 - 2 y_63_ * y_52_ + 1 y_63_ ^ 2 ] >= 2400.75
quadratic_ranged_227_lb: [ 1 x_55_ ^ 2 - 2 x_63_ * x_55_ + 1 x_63_ ^ 2 + 1 y_55_ ^ 2 - 2 y_63_ * y_55_ + 1 y_63_ ^ 2 ] >= 18091.26
quadratic_ranged_228_lb: [ 1 x_62_ ^ 2 - 2 x_63_ * x_62_ + 1 x_63_ ^ 2 + 1 y_62_ ^ 2 - 2 y_63_ * y_62_ + 1 y_63_ ^ 2 ] >= 7711.11
quadratic_ranged_229_lb: [ 1 x_4_ ^ 2 - 2 x_64_ * x_4_ + 1 x_64_ ^ 2 + 1 y_4_ ^ 2 - 2 y_64_ * y_4_ + 1 y_64_ ^ 2 ] >= 20894.94
quadratic_ranged_230_lb: [ 1 x_16_ ^ 2 - 2 x_64_ * x_16_ + 1 x_64_ ^ 2 + 1 y_16_ ^ 2 - 2 y_64_ * y_16_ + 1 y_64_ ^ 2 ] >= 24319.35
quadratic_ranged_231_lb: [ 1 x_17_ ^ 2 - 2 x_64_ * x_17_ + 1 x_64_ ^ 2 + 1 y_17_ ^ 2 - 2 y_64_ * y_17_ + 1 y_64_ ^ 2 ] >= 35184.6
quadratic_ranged_232_lb: [ 1 x_18_ ^ 2 - 2 x_64_ * x_18_ + 1 x_64_ ^ 2 + 1 y_18_ ^ 2 - 2 y_64_ * y_18_ + 1 y_64_ ^ 2 ] >= 26739.9
quadratic_ranged_233_lb: [ 1 x_28_ ^ 2 - 2 x_64_ * x_28_ + 1 x_64_ ^ 2 + 1 y_28_ ^ 2 - 2 y_64_ * y_28_ + 1 y_64_ ^ 2 ] >= 5801.4
quadratic_ranged_234_lb: [ 1 x_35_ ^ 2 - 2 x_64_ * x_35_ + 1 x_64_ ^ 2 + 1 y_35_ ^ 2 - 2 y_64_ * y_35_ + 1 y_64_ ^ 2 ] >= 13262.039999999999
quadratic_ranged_235_lb: [ 1 x_36_ ^ 2 - 2 x_64_ * x_36_ + 1 x_64_ ^ 2 + 1 y_36_ ^ 2 - 2 y_64_ * y_36_ + 1 y_64_ ^ 2 ] >= 29973.239999999998
quadratic_ranged_236_lb: [ 1 x_38_ ^ 2 - 2 x_64_ * x_38_ + 1 x_64_ ^ 2 + 1 y_38_ ^ 2 - 2 y_64_ * y_38_ + 1 y_64_ ^ 2 ] >= 17845.74
quadratic_ranged_237_lb: [ 1 x_45_ ^ 2 - 2 x_64_ * x_45_ + 1 x_64_ ^ 2 + 1 y_45_ ^ 2 - 2 y_64_ * y_45_ + 1 y_64_ ^ 2 ] >= 2147.31
quadratic_ranged_238_lb: [ 1 x_63_ ^ 2 - 2 x_64_ * x_63_ + 1 x_64_ ^ 2 + 1 y_63_ ^ 2 - 2 y_64_ * y_63_ + 1 y_64_ ^ 2 ] >= 6306.3
quadratic_ranged_239_lb: [ 1 x_6_ ^ 2 - 2 x_65_ * x_6_ + 1 x_65_ ^ 2 + 1 y_6_ ^ 2 - 2 y_65_ * y_6_ + 1 y_65_ ^ 2 ] >= 7972.47
quadratic_ranged_240_lb: [ 1 x_14_ ^ 2 - 2 x_65_ * x_14_ + 1 x_65_ ^ 2 + 1 y_14_ ^ 2 - 2 y_65_ * y_14_ + 1 y_65_ ^ 2 ] >= 19214.91
quadratic_ranged_241_lb: [ 1 x_16_ ^ 2 - 2 x_65_ * x_16_ + 1 x_65_ ^ 2 + 1 y_16_ ^ 2 - 2 y_65_ * y_16_ + 1 y_65_ ^ 2 ] >= 123.75
quadratic_ranged_242_lb: [ 1 x_26_ ^ 2 - 2 x_65_ * x_26_ + 1 x_65_ ^ 2 + 1 y_26_ ^ 2 - 2 y_65_ * y_26_ + 1 y_65_ ^ 2 ] >= 622.71
quadratic_ranged_243_lb: [ 1 x_35_ ^ 2 - 2 x_65_ * x_35_ + 1 x_65_ ^ 2 + 1 y_35_ ^ 2 - 2 y_65_ * y_35_ + 1 y_65_ ^ 2 ] >= 25187.579999999998
quadratic_ranged_244_lb: [ 1 x_38_ ^ 2 - 2 x_65_ * x_38_ + 1 x_65_ ^ 2 + 1 y_38_ ^ 2 - 2 y_65_ * y_38_ + 1 y_65_ ^ 2 ] >= 20599.92
quadratic_ranged_245_lb: [ 1 x_54_ ^ 2 - 2 x_65_ * x_54_ + 1 x_65_ ^ 2 + 1 y_54_ ^ 2 - 2 y_65_ * y_54_ + 1 y_65_ ^ 2 ] >= 29385.18
quadratic_ranged_246_lb: [ 1 x_62_ ^ 2 - 2 x_65_ * x_62_ + 1 x_65_ ^ 2 + 1 y_62_ ^ 2 - 2 y_65_ * y_62_ + 1 y_65_ ^ 2 ] >= 3422.43
quadratic_ranged_247_lb: [ 1 x_64_ ^ 2 - 2 x_65_ * x_64_ + 1 x_65_ ^ 2 + 1 y_64_ ^ 2 - 2 y_65_ * y_64_ + 1 y_65_ ^ 2 ] >= 23096.7
quadratic_ranged_248_lb: [ 1 x_3_ ^ 2 - 2 x_66_ * x_3_ + 1 x_66_ ^ 2 + 1 y_3_ ^ 2 - 2 y_66_ * y_3_ + 1 y_66_ ^ 2 ] >= 26627.04
quadratic_ranged_249_lb: [ 1 x_30_ ^ 2 - 2 x_66_ * x_30_ + 1 x_66_ ^ 2 + 1 y_30_ ^ 2 - 2 y_66_ * y_30_ + 1 y_66_ ^ 2 ] >= 8462.52
quadratic_ranged_250_lb: [ 1 x_48_ ^ 2 - 2 x_66_ * x_48_ + 1 x_66_ ^ 2 + 1 y_48_ ^ 2 - 2 y_66_ * y_48_ + 1 y_66_ ^ 2 ] >= 36179.55
quadratic_ranged_251_lb: [ 1 x_51_ ^ 2 - 2 x_66_ * x_51_ + 1 x_66_ ^ 2 + 1 y_51_ ^ 2 - 2 y_66_ * y_51_ + 1 y_66_ ^ 2 ] >= 15183.63
quadratic_ranged_252_lb: [ 1 x_53_ ^ 2 - 2 x_66_ * x_53_ + 1 x_66_ ^ 2 + 1 y_53_ ^ 2 - 2 y_66_ * y_53_ + 1 y_66_ ^ 2 ] >= 39968.28
quadratic_ranged_253_lb: [ 1 x_54_ ^ 2 - 2 x_66_ * x_54_ + 1 x_66_ ^ 2 + 1 y_54_ ^ 2 - 2 y_66_ * y_54_ + 1 y_66_ ^ 2 ] >= 33511.5
quadratic_ranged_254_lb: [ 1 x_56_ ^ 2 - 2 x_66_ * x_56_ + 1 x_66_ ^ 2 + 1 y_56_ ^ 2 - 2 y_66_ * y_56_ + 1 y_66_ ^ 2 ] >= 5134.14
quadratic_ranged_255_lb: [ 1 x_59_ ^ 2 - 2 x_66_ * x_59_ + 1 x_66_ ^ 2 + 1 y_59_ ^ 2 - 2 y_66_ * y_59_ + 1 y_66_ ^ 2 ] >= 14585.67
quadratic_ranged_256_lb: [ 1 x_65_ ^ 2 - 2 x_66_ * x_65_ + 1 x_66_ ^ 2 + 1 y_65_ ^ 2 - 2 y_66_ * y_65_ + 1 y_66_ ^ 2 ] >= 8082.36
quadratic_ranged_257_lb: [ 1 x_16_ ^ 2 - 2 x_67_ * x_16_ + 1 x_67_ ^ 2 + 1 y_16_ ^ 2 - 2 y_67_ * y_16_ + 1 y_67_ ^ 2 ] >= 400.95
quadratic_ranged_258_lb: [ 1 x_21_ ^ 2 - 2 x_67_ * x_21_ + 1 x_67_ ^ 2 + 1 y_21_ ^ 2 - 2 y_67_ * y_21_ + 1 y_67_ ^ 2 ] >= 3770.91
quadratic_ranged_259_lb: [ 1 x_42_ ^ 2 - 2 x_67_ * x_42_ + 1 x_67_ ^ 2 + 1 y_42_ ^ 2 - 2 y_67_ * y_42_ + 1 y_67_ ^ 2 ] >= 39920.76
quadratic_ranged_260_lb: [ 1 x_45_ ^ 2 - 2 x_67_ * x_45_ + 1 x_67_ ^ 2 + 1 y_45_ ^ 2 - 2 y_67_ * y_45_ + 1 y_67_ ^ 2 ] >= 30021.75
quadratic_ranged_261_lb: [ 1 x_48_ ^ 2 - 2 x_67_ * x_48_ + 1 x_67_ ^ 2 + 1 y_48_ ^ 2 - 2 y_67_ * y_48_ + 1 y_67_ ^ 2 ] >= 23958.99
quadratic_ranged_262_lb: [ 1 x_50_ ^ 2 - 2 x_67_ * x_50_ + 1 x_67_ ^ 2 + 1 y_50_ ^ 2 - 2 y_67_ * y_50_ + 1 y_67_ ^ 2 ] >= 5437.08
quadratic_ranged_263_lb: [ 1 x_51_ ^ 2 - 2 x_67_ * x_51_ + 1 x_67_ ^ 2 + 1 y_51_ ^ 2 - 2 y_67_ * y_51_ + 1 y_67_ ^ 2 ] >= 444.51
quadratic_ranged_264_lb: [ 1 x_61_ ^ 2 - 2 x_67_ * x_61_ + 1 x_67_ ^ 2 + 1 y_61_ ^ 2 - 2 y_67_ * y_61_ + 1 y_67_ ^ 2 ] >= 30615.75
quadratic_ranged_265_lb: [ 1 x_63_ ^ 2 - 2 x_67_ * x_63_ + 1 x_67_ ^ 2 + 1 y_63_ ^ 2 - 2 y_67_ * y_63_ + 1 y_67_ ^ 2 ] >= 12428.46
quadratic_ranged_266_lb: [ 1 x_66_ ^ 2 - 2 x_67_ * x_66_ + 1 x_67_ ^ 2 + 1 y_66_ ^ 2 - 2 y_67_ * y_66_ + 1 y_67_ ^ 2 ] >= 13188.78
quadratic_ranged_267_lb: [ 1 x_4_ ^ 2 - 2 x_68_ * x_4_ + 1 x_68_ ^ 2 + 1 y_4_ ^ 2 - 2 y_68_ * y_4_ + 1 y_68_ ^ 2 ] >= 15335.1
quadratic_ranged_268_lb: [ 1 x_9_ ^ 2 - 2 x_68_ * x_9_ + 1 x_68_ ^ 2 + 1 y_9_ ^ 2 - 2 y_68_ * y_9_ + 1 y_68_ ^ 2 ] >= 3572.91
quadratic_ranged_269_lb: [ 1 x_14_ ^ 2 - 2 x_68_ * x_14_ + 1 x_68_ ^ 2 + 1 y_14_ ^ 2 - 2 y_68_ * y_14_ + 1 y_68_ ^ 2 ] >= 7667.55
quadratic_ranged_270_lb: [ 1 x_18_ ^ 2 - 2 x_68_ * x_18_ + 1 x_68_ ^ 2 + 1 y_18_ ^ 2 - 2 y_68_ * y_18_ + 1 y_68_ ^ 2 ] >= 22692.78
quadratic_ranged_271_lb: [ 1 x_23_ ^ 2 - 2 x_68_ * x_23_ + 1 x_68_ ^ 2 + 1 y_23_ ^ 2 - 2 y_68_ * y_23_ + 1 y_68_ ^ 2 ] >= 44590.59
quadratic_ranged_272_lb: [ 1 x_25_ ^ 2 - 2 x_68_ * x_25_ + 1 x_68_ ^ 2 + 1 y_25_ ^ 2 - 2 y_68_ * y_25_ + 1 y_68_ ^ 2 ] >= 563.31
quadratic_ranged_273_lb: [ 1 x_28_ ^ 2 - 2 x_68_ * x_28_ + 1 x_68_ ^ 2 + 1 y_28_ ^ 2 - 2 y_68_ * y_28_ + 1 y_68_ ^ 2 ] >= 4423.32
quadratic_ranged_274_lb: [ 1 x_40_ ^ 2 - 2 x_68_ * x_40_ + 1 x_68_ ^ 2 + 1 y_40_ ^ 2 - 2 y_68_ * y_40_ + 1 y_68_ ^ 2 ] >= 7280.46
quadratic_ranged_275_lb: [ 1 x_61_ ^ 2 - 2 x_68_ * x_61_ + 1 x_68_ ^ 2 + 1 y_61_ ^ 2 - 2 y_68_ * y_61_ + 1 y_68_ ^ 2 ] >= 1177.11
quadratic_ranged_276_lb: [ 1 x_63_ ^ 2 - 2 x_68_ * x_63_ + 1 x_68_ ^ 2 + 1 y_63_ ^ 2 - 2 y_68_ * y_63_ + 1 y_68_ ^ 2 ] >= 3114.54
quadratic_ranged_277_lb: [ 1 x_67_ ^ 2 - 2 x_68_ * x_67_ + 1 x_68_ ^ 2 + 1 y_67_ ^ 2 - 2 y_68_ * y_67_ + 1 y_68_ ^ 2 ] >= 23209.56
quadratic_ranged_278_lb: [ 1 x_8_ ^ 2 - 2 x_69_ * x_8_ + 1 x_69_ ^ 2 + 1 y_8_ ^ 2 - 2 y_69_ * y_8_ + 1 y_69_ ^ 2 ] >= 9761.4
quadratic_ranged_279_lb: [ 1 x_17_ ^ 2 - 2 x_69_ * x_17_ + 1 x_69_ ^ 2 + 1 y_17_ ^ 2 - 2 y_69_ * y_17_ + 1 y_69_ ^ 2 ] >= 4855.95
quadratic_ranged_280_lb: [ 1 x_23_ ^ 2 - 2 x_69_ * x_23_ + 1 x_69_ ^ 2 + 1 y_23_ ^ 2 - 2 y_69_ * y_23_ + 1 y_69_ ^ 2 ] >= 6995.34
quadratic_ranged_281_lb: [ 1 x_26_ ^ 2 - 2 x_69_ * x_26_ + 1 x_69_ ^ 2 + 1 y_26_ ^ 2 - 2 y_69_ * y_26_ + 1 y_69_ ^ 2 ] >= 23334.3
quadratic_ranged_282_lb: [ 1 x_28_ ^ 2 - 2 x_69_ * x_28_ + 1 x_69_ ^ 2 + 1 y_28_ ^ 2 - 2 y_69_ * y_28_ + 1 y_69_ ^ 2 ] >= 7746.75
quadratic_ranged_283_lb: [ 1 x_30_ ^ 2 - 2 x_69_ * x_30_ + 1 x_69_ ^ 2 + 1 y_30_ ^ 2 - 2 y_69_ * y_30_ + 1 y_69_ ^ 2 ] >= 7616.07
quadratic_ranged_284_lb: [ 1 x_39_ ^ 2 - 2 x_69_ * x_39_ + 1 x_69_ ^ 2 + 1 y_39_ ^ 2 - 2 y_69_ * y_39_ + 1 y_69_ ^ 2 ] >= 4950
quadratic_ranged_285_lb: [ 1 x_53_ ^ 2 - 2 x_69_ * x_53_ + 1 x_69_ ^ 2 + 1 y_53_ ^ 2 - 2 y_69_ * y_53_ + 1 y_69_ ^ 2 ] >= 9734.67
quadratic_ranged_286_lb: [ 1 x_56_ ^ 2 - 2 x_69_ * x_56_ + 1 x_69_ ^ 2 + 1 y_56_ ^ 2 - 2 y_69_ * y_56_ + 1 y_69_ ^ 2 ] >= 20280.15
quadratic_ranged_287_lb: [ 1 x_62_ ^ 2 - 2 x_69_ * x_62_ + 1 x_69_ ^ 2 + 1 y_62_ ^ 2 - 2 y_69_ * y_62_ + 1 y_69_ ^ 2 ] >= 7254.72
quadratic_ranged_288_lb: [ 1 x_65_ ^ 2 - 2 x_69_ * x_65_ + 1 x_69_ ^ 2 + 1 y_65_ ^ 2 - 2 y_69_ * y_65_ + 1 y_69_ ^ 2 ] >= 20458.35
quadratic_ranged_289_lb: [ 1 x_68_ ^ 2 - 2 x_69_ * x_68_ + 1 x_69_ ^ 2 + 1 y_68_ ^ 2 - 2 y_69_ * y_68_ + 1 y_69_ ^ 2 ] >= 20482.11
quadratic_ranged_290_lb: [ 1 x_1_ ^ 2 - 2 x_70_ * x_1_ + 1 x_70_ ^ 2 + 1 y_1_ ^ 2 - 2 y_70_ * y_1_ + 1 y_70_ ^ 2 ] >= 26259.75
quadratic_ranged_291_lb: [ 1 x_26_ ^ 2 - 2 x_70_ * x_26_ + 1 x_70_ ^ 2 + 1 y_26_ ^ 2 - 2 y_70_ * y_26_ + 1 y_70_ ^ 2 ] >= 54491.58
quadratic_ranged_292_lb: [ 1 x_35_ ^ 2 - 2 x_70_ * x_35_ + 1 x_70_ ^ 2 + 1 y_35_ ^ 2 - 2 y_70_ * y_35_ + 1 y_70_ ^ 2 ] >= 4543.11
quadratic_ranged_293_lb: [ 1 x_69_ ^ 2 - 2 x_70_ * x_69_ + 1 x_70_ ^ 2 + 1 y_69_ ^ 2 - 2 y_70_ * y_69_ + 1 y_70_ ^ 2 ] >= 6597.36
quadratic_ranged_294_lb: [ 1 x_8_ ^ 2 - 2 x_71_ * x_8_ + 1 x_71_ ^ 2 + 1 y_8_ ^ 2 - 2 y_71_ * y_8_ + 1 y_71_ ^ 2 ] >= 12261.15
quadratic_ranged_295_lb: [ 1 x_11_ ^ 2 - 2 x_71_ * x_11_ + 1 x_71_ ^ 2 + 1 y_11_ ^ 2 - 2 y_71_ * y_11_ + 1 y_71_ ^ 2 ] >= 12003.75
quadratic_ranged_296_lb: [ 1 x_29_ ^ 2 - 2 x_71_ * x_29_ + 1 x_71_ ^ 2 + 1 y_29_ ^ 2 - 2 y_71_ * y_29_ + 1 y_71_ ^ 2 ] >= 714.78
quadratic_ranged_297_lb: [ 1 x_34_ ^ 2 - 2 x_71_ * x_34_ + 1 x_71_ ^ 2 + 1 y_34_ ^ 2 - 2 y_71_ * y_34_ + 1 y_71_ ^ 2 ] >= 14612.4
quadratic_ranged_298_lb: [ 1 x_44_ ^ 2 - 2 x_71_ * x_44_ + 1 x_71_ ^ 2 + 1 y_44_ ^ 2 - 2 y_71_ * y_44_ + 1 y_71_ ^ 2 ] >= 3203.64
quadratic_ranged_299_lb: [ 1 x_49_ ^ 2 - 2 x_71_ * x_49_ + 1 x_71_ ^ 2 + 1 y_49_ ^ 2 - 2 y_71_ * y_49_ + 1 y_71_ ^ 2 ] >= 44197.56
quadratic_ranged_300_lb: [ 1 x_70_ ^ 2 - 2 x_71_ * x_70_ + 1 x_71_ ^ 2 + 1 y_70_ ^ 2 - 2 y_71_ * y_70_ + 1 y_71_ ^ 2 ] >= 4638.15
quadratic_ranged_301_lb: [ 1 x_4_ ^ 2 - 2 x_72_ * x_4_ + 1 x_72_ ^ 2 + 1 y_4_ ^ 2 - 2 y_72_ * y_4_ + 1 y_72_ ^ 2 ] >= 444.51
quadratic_ranged_302_lb: [ 1 x_24_ ^ 2 - 2 x_72_ * x_24_ + 1 x_72_ ^ 2 + 1 y_24_ ^ 2 - 2 y_72_ * y_24_ + 1 y_72_ ^ 2 ] >= 4999.5
quadratic_ranged_303_lb: [ 1 x_26_ ^ 2 - 2 x_72_ * x_26_ + 1 x_72_ ^ 2 + 1 y_26_ ^ 2 - 2 y_72_ * y_26_ + 1 y_72_ ^ 2 ] >= 2395.8
quadratic_ranged_304_lb: [ 1 x_28_ ^ 2 - 2 x_72_ * x_28_ + 1 x_72_ ^ 2 + 1 y_28_ ^ 2 - 2 y_72_ * y_28_ + 1 y_72_ ^ 2 ] >= 10447.47
quadratic_ranged_305_lb: [ 1 x_45_ ^ 2 - 2 x_72_ * x_45_ + 1 x_72_ ^ 2 + 1 y_45_ ^ 2 - 2 y_72_ * y_45_ + 1 y_72_ ^ 2 ] >= 29731.68
quadratic_ranged_306_lb: [ 1 x_50_ ^ 2 - 2 x_72_ * x_50_ + 1 x_72_ ^ 2 + 1 y_50_ ^ 2 - 2 y_72_ * y_50_ + 1 y_72_ ^ 2 ] >= 313.83
quadratic_ranged_307_lb: [ 1 x_52_ ^ 2 - 2 x_72_ * x_52_ + 1 x_72_ ^ 2 + 1 y_52_ ^ 2 - 2 y_72_ * y_52_ + 1 y_72_ ^ 2 ] >= 3653.1
quadratic_ranged_308_lb: [ 1 x_62_ ^ 2 - 2 x_72_ * x_62_ + 1 x_72_ ^ 2 + 1 y_62_ ^ 2 - 2 y_72_ * y_62_ + 1 y_72_ ^ 2 ] >= 7280.46
quadratic_ranged_309_lb: [ 1 x_65_ ^ 2 - 2 x_72_ * x_65_ + 1 x_72_ ^ 2 + 1 y_65_ ^ 2 - 2 y_72_ * y_65_ + 1 y_72_ ^ 2 ] >= 1145.43
quadratic_ranged_310_lb: [ 1 x_69_ ^ 2 - 2 x_72_ * x_69_ + 1 x_72_ ^ 2 + 1 y_69_ ^ 2 - 2 y_72_ * y_69_ + 1 y_72_ ^ 2 ] >= 28997.1
quadratic_ranged_311_lb: [ 1 x_71_ ^ 2 - 2 x_72_ * x_71_ + 1 x_72_ ^ 2 + 1 y_71_ ^ 2 - 2 y_72_ * y_71_ + 1 y_72_ ^ 2 ] >= 34393.59
quadratic_ranged_312_lb: [ 1 x_4_ ^ 2 - 2 x_73_ * x_4_ + 1 x_73_ ^ 2 + 1 y_4_ ^ 2 - 2 y_73_ * y_4_ + 1 y_73_ ^ 2 ] >= 25171.739999999998
quadratic_ranged_313_lb: [ 1 x_7_ ^ 2 - 2 x_73_ * x_7_ + 1 x_73_ ^ 2 + 1 y_7_ ^ 2 - 2 y_73_ * y_7_ + 1 y_73_ ^ 2 ] >= 14929.2
quadratic_ranged_314_lb: [ 1 x_8_ ^ 2 - 2 x_73_ * x_8_ + 1 x_73_ ^ 2 + 1 y_8_ ^ 2 - 2 y_73_ * y_8_ + 1 y_73_ ^ 2 ] >= 6075.63
quadratic_ranged_315_lb: [ 1 x_14_ ^ 2 - 2 x_73_ * x_14_ + 1 x_73_ ^ 2 + 1 y_14_ ^ 2 - 2 y_73_ * y_14_ + 1 y_73_ ^ 2 ] >= 899.91
quadratic_ranged_316_lb: [ 1 x_26_ ^ 2 - 2 x_73_ * x_26_ + 1 x_73_ ^ 2 + 1 y_26_ ^ 2 - 2 y_73_ * y_26_ + 1 y_73_ ^ 2 ] >= 29047.59
quadratic_ranged_317_lb: [ 1 x_39_ ^ 2 - 2 x_73_ * x_39_ + 1 x_73_ ^ 2 + 1 y_39_ ^ 2 - 2 y_73_ * y_39_ + 1 y_73_ ^ 2 ] >= 2899.71
quadratic_ranged_318_lb: [ 1 x_42_ ^ 2 - 2 x_73_ * x_42_ + 1 x_73_ ^ 2 + 1 y_42_ ^ 2 - 2 y_73_ * y_42_ + 1 y_73_ ^ 2 ] >= 3556.08
quadratic_ranged_319_lb: [ 1 x_66_ ^ 2 - 2 x_73_ * x_66_ + 1 x_73_ ^ 2 + 1 y_66_ ^ 2 - 2 y_73_ * y_66_ + 1 y_73_ ^ 2 ] >= 18542.7
quadratic_ranged_320_lb: [ 1 x_72_ ^ 2 - 2 x_73_ * x_72_ + 1 x_73_ ^ 2 + 1 y_72_ ^ 2 - 2 y_73_ * y_72_ + 1 y_73_ ^ 2 ] >= 31269.15
quadratic_ranged_321_lb: [ 1 x_4_ ^ 2 - 2 x_74_ * x_4_ + 1 x_74_ ^ 2 + 1 y_4_ ^ 2 - 2 y_74_ * y_4_ + 1 y_74_ ^ 2 ] >= 13404.6
quadratic_ranged_322_lb: [ 1 x_11_ ^ 2 - 2 x_74_ * x_11_ + 1 x_74_ ^ 2 + 1 y_11_ ^ 2 - 2 y_74_ * y_11_ + 1 y_74_ ^ 2 ] >= 4642.11
quadratic_ranged_323_lb: [ 1 x_25_ ^ 2 - 2 x_74_ * x_25_ + 1 x_74_ ^ 2 + 1 y_25_ ^ 2 - 2 y_74_ * y_25_ + 1 y_74_ ^ 2 ] >= 27788.31
quadratic_ranged_324_lb: [ 1 x_35_ ^ 2 - 2 x_74_ * x_35_ + 1 x_74_ ^ 2 + 1 y_35_ ^ 2 - 2 y_74_ * y_35_ + 1 y_74_ ^ 2 ] >= 5870.7
quadratic_ranged_325_lb: [ 1 x_47_ ^ 2 - 2 x_74_ * x_47_ + 1 x_74_ ^ 2 + 1 y_47_ ^ 2 - 2 y_74_ * y_47_ + 1 y_74_ ^ 2 ] >= 2610.63
quadratic_ranged_326_lb: [ 1 x_49_ ^ 2 - 2 x_74_ * x_49_ + 1 x_74_ ^ 2 + 1 y_49_ ^ 2 - 2 y_74_ * y_49_ + 1 y_74_ ^ 2 ] >= 24916.32
quadratic_ranged_327_lb: [ 1 x_61_ ^ 2 - 2 x_74_ * x_61_ + 1 x_74_ ^ 2 + 1 y_61_ ^ 2 - 2 y_74_ * y_61_ + 1 y_74_ ^ 2 ] >= 22462.11
quadratic_ranged_328_lb: [ 1 x_63_ ^ 2 - 2 x_74_ * x_63_ + 1 x_74_ ^ 2 + 1 y_63_ ^ 2 - 2 y_74_ * y_63_ + 1 y_74_ ^ 2 ] >= 18707.04
quadratic_ranged_329_lb: [ 1 x_66_ ^ 2 - 2 x_74_ * x_66_ + 1 x_74_ ^ 2 + 1 y_66_ ^ 2 - 2 y_74_ * y_66_ + 1 y_74_ ^ 2 ] >= 18445.68
quadratic_ranged_330_lb: [ 1 x_73_ ^ 2 - 2 x_74_ * x_73_ + 1 x_74_ ^ 2 + 1 y_73_ ^ 2 - 2 y_74_ * y_73_ + 1 y_74_ ^ 2 ] >= 5918.22
quadratic_ranged_331_lb: [ 1 x_23_ ^ 2 - 2 x_75_ * x_23_ + 1 x_75_ ^ 2 + 1 y_23_ ^ 2 - 2 y_75_ * y_23_ + 1 y_75_ ^ 2 ] >= 32567.04
quadratic_ranged_332_lb: [ 1 x_29_ ^ 2 - 2 x_75_ * x_29_ + 1 x_75_ ^ 2 + 1 y_29_ ^ 2 - 2 y_75_ * y_29_ + 1 y_75_ ^ 2 ] >= 15456.869999999999
quadratic_ranged_333_lb: [ 1 x_37_ ^ 2 - 2 x_75_ * x_37_ + 1 x_75_ ^ 2 + 1 y_37_ ^ 2 - 2 y_75_ * y_37_ + 1 y_75_ ^ 2 ] >= 64.35
quadratic_ranged_334_lb: [ 1 x_39_ ^ 2 - 2 x_75_ * x_39_ + 1 x_75_ ^ 2 + 1 y_39_ ^ 2 - 2 y_75_ * y_39_ + 1 y_75_ ^ 2 ] >= 1942.3799999999999
quadratic_ranged_335_lb: [ 1 x_56_ ^ 2 - 2 x_75_ * x_56_ + 1 x_75_ ^ 2 + 1 y_56_ ^ 2 - 2 y_75_ * y_56_ + 1 y_75_ ^ 2 ] >= 17452.71
quadratic_ranged_336_lb: [ 1 x_71_ ^ 2 - 2 x_75_ * x_71_ + 1 x_75_ ^ 2 + 1 y_71_ ^ 2 - 2 y_75_ * y_71_ + 1 y_75_ ^ 2 ] >= 12372.03
quadratic_ranged_337_lb: [ 1 x_73_ ^ 2 - 2 x_75_ * x_73_ + 1 x_75_ ^ 2 + 1 y_73_ ^ 2 - 2 y_75_ * y_73_ + 1 y_75_ ^ 2 ] >= 4907.43
quadratic_ranged_338_lb: [ 1 x_74_ ^ 2 - 2 x_75_ * x_74_ + 1 x_75_ ^ 2 + 1 y_74_ ^ 2 - 2 y_75_ * y_74_ + 1 y_75_ ^ 2 ] >= 13916.43
quadratic_ranged_339_lb: [ 1 x_10_ ^ 2 - 2 x_76_ * x_10_ + 1 x_76_ ^ 2 + 1 y_10_ ^ 2 - 2 y_76_ * y_10_ + 1 y_76_ ^ 2 ] >= 11904.75
quadratic_ranged_340_lb: [ 1 x_37_ ^ 2 - 2 x_76_ * x_37_ + 1 x_76_ ^ 2 + 1 y_37_ ^ 2 - 2 y_76_ * y_37_ + 1 y_76_ ^ 2 ] >= 8099.19
quadratic_ranged_341_lb: [ 1 x_49_ ^ 2 - 2 x_76_ * x_49_ + 1 x_76_ ^ 2 + 1 y_49_ ^ 2 - 2 y_76_ * y_49_ + 1 y_76_ ^ 2 ] >= 8590.23
quadratic_ranged_342_lb: [ 1 x_74_ ^ 2 - 2 x_76_ * x_74_ + 1 x_76_ ^ 2 + 1 y_74_ ^ 2 - 2 y_76_ * y_74_ + 1 y_76_ ^ 2 ] >= 7370.55
quadratic_ranged_343_lb: [ 1 x_75_ ^ 2 - 2 x_76_ * x_75_ + 1 x_76_ ^ 2 + 1 y_75_ ^ 2 - 2 y_76_ * y_75_ + 1 y_76_ ^ 2 ] >= 9606.96
quadratic_ranged_344_lb: [ 1 x_15_ ^ 2 - 2 x_77_ * x_15_ + 1 x_77_ ^ 2 + 1 y_15_ ^ 2 - 2 y_77_ * y_15_ + 1 y_77_ ^ 2 ] >= 5568.75
quadratic_ranged_345_lb: [ 1 x_16_ ^ 2 - 2 x_77_ * x_16_ + 1 x_77_ ^ 2 + 1 y_16_ ^ 2 - 2 y_77_ * y_16_ + 1 y_77_ ^ 2 ] >= 19500.03
quadratic_ranged_346_lb: [ 1 x_26_ ^ 2 - 2 x_77_ * x_26_ + 1 x_77_ ^ 2 + 1 y_26_ ^ 2 - 2 y_77_ * y_26_ + 1 y_77_ ^ 2 ] >= 24917.31
quadratic_ranged_347_lb: [ 1 x_38_ ^ 2 - 2 x_77_ * x_38_ + 1 x_77_ ^ 2 + 1 y_38_ ^ 2 - 2 y_77_ * y_38_ + 1 y_77_ ^ 2 ] >= 285.12
quadratic_ranged_348_lb: [ 1 x_64_ ^ 2 - 2 x_77_ * x_64_ + 1 x_77_ ^ 2 + 1 y_64_ ^ 2 - 2 y_77_ * y_64_ + 1 y_77_ ^ 2 ] >= 13996.619999999999
quadratic_ranged_349_lb: [ 1 x_66_ ^ 2 - 2 x_77_ * x_66_ + 1 x_77_ ^ 2 + 1 y_66_ ^ 2 - 2 y_77_ * y_66_ + 1 y_77_ ^ 2 ] >= 18394.2
quadratic_ranged_350_lb: [ 1 x_75_ ^ 2 - 2 x_77_ * x_75_ + 1 x_77_ ^ 2 + 1 y_75_ ^ 2 - 2 y_77_ * y_75_ + 1 y_77_ ^ 2 ] >= 6372.63
quadratic_ranged_351_lb: [ 1 x_76_ ^ 2 - 2 x_77_ * x_76_ + 1 x_77_ ^ 2 + 1 y_76_ ^ 2 - 2 y_77_ * y_76_ + 1 y_77_ ^ 2 ] >= 11429.55
quadratic_ranged_352_lb: [ 1 x_10_ ^ 2 - 2 x_78_ * x_10_ + 1 x_78_ ^ 2 + 1 y_10_ ^ 2 - 2 y_78_ * y_10_ + 1 y_78_ ^ 2 ] >= 31721.579999999998
quadratic_ranged_353_lb: [ 1 x_14_ ^ 2 - 2 x_78_ * x_14_ + 1 x_78_ ^ 2 + 1 y_14_ ^ 2 - 2 y_78_ * y_14_ + 1 y_78_ ^ 2 ] >= 7216.11
quadratic_ranged_354_lb: [ 1 x_30_ ^ 2 - 2 x_78_ * x_30_ + 1 x_78_ ^ 2 + 1 y_30_ ^ 2 - 2 y_78_ * y_30_ + 1 y_78_ ^ 2 ] >= 11982.96
quadratic_ranged_355_lb: [ 1 x_37_ ^ 2 - 2 x_78_ * x_37_ + 1 x_78_ ^ 2 + 1 y_37_ ^ 2 - 2 y_78_ * y_37_ + 1 y_78_ ^ 2 ] >= 15469.74
quadratic_ranged_356_lb: [ 1 x_53_ ^ 2 - 2 x_78_ * x_53_ + 1 x_78_ ^ 2 + 1 y_53_ ^ 2 - 2 y_78_ * y_53_ + 1 y_78_ ^ 2 ] >= 17265.6
quadratic_ranged_357_lb: [ 1 x_54_ ^ 2 - 2 x_78_ * x_54_ + 1 x_78_ ^ 2 + 1 y_54_ ^ 2 - 2 y_78_ * y_54_ + 1 y_78_ ^ 2 ] >= 1356.3
quadratic_ranged_358_lb: [ 1 x_77_ ^ 2 - 2 x_78_ * x_77_ + 1 x_78_ ^ 2 + 1 y_77_ ^ 2 - 2 y_78_ * y_77_ + 1 y_78_ ^ 2 ] >= 2954.16
quadratic_ranged_359_lb: [ 1 x_1_ ^ 2 - 2 x_79_ * x_1_ + 1 x_79_ ^ 2 + 1 y_1_ ^ 2 - 2 y_79_ * y_1_ + 1 y_79_ ^ 2 ] >= 34322.31
quadratic_ranged_360_lb: [ 1 x_2_ ^ 2 - 2 x_79_ * x_2_ + 1 x_79_ ^ 2 + 1 y_2_ ^ 2 - 2 y_79_ * y_2_ + 1 y_79_ ^ 2 ] >= 7718.04
quadratic_ranged_361_lb: [ 1 x_8_ ^ 2 - 2 x_79_ * x_8_ + 1 x_79_ ^ 2 + 1 y_8_ ^ 2 - 2 y_79_ * y_8_ + 1 y_79_ ^ 2 ] >= 30444.48
quadratic_ranged_362_lb: [ 1 x_21_ ^ 2 - 2 x_79_ * x_21_ + 1 x_79_ ^ 2 + 1 y_21_ ^ 2 - 2 y_79_ * y_21_ + 1 y_79_ ^ 2 ] >= 25860.78
quadratic_ranged_363_lb: [ 1 x_33_ ^ 2 - 2 x_79_ * x_33_ + 1 x_79_ ^ 2 + 1 y_33_ ^ 2 - 2 y_79_ * y_33_ + 1 y_79_ ^ 2 ] >= 7192.35
quadratic_ranged_364_lb: [ 1 x_59_ ^ 2 - 2 x_79_ * x_59_ + 1 x_79_ ^ 2 + 1 y_59_ ^ 2 - 2 y_79_ * y_59_ + 1 y_79_ ^ 2 ] >= 9315.9
quadratic_ranged_365_lb: [ 1 x_63_ ^ 2 - 2 x_79_ * x_63_ + 1 x_79_ ^ 2 + 1 y_63_ ^ 2 - 2 y_79_ * y_63_ + 1 y_79_ ^ 2 ] >= 38337.75
quadratic_ranged_366_lb: [ 1 x_66_ ^ 2 - 2 x_79_ * x_66_ + 1 x_79_ ^ 2 + 1 y_66_ ^ 2 - 2 y_79_ * y_66_ + 1 y_79_ ^ 2 ] >= 38698.11
quadratic_ranged_367_lb: [ 1 x_69_ ^ 2 - 2 x_79_ * x_69_ + 1 x_79_ ^ 2 + 1 y_69_ ^ 2 - 2 y_79_ * y_69_ + 1 y_79_ ^ 2 ] >= 12216.6
quadratic_ranged_368_lb: [ 1 x_71_ ^ 2 - 2 x_79_ * x_71_ + 1 x_79_ ^ 2 + 1 y_71_ ^ 2 - 2 y_79_ * y_71_ + 1 y_79_ ^ 2 ] >= 13488.75
quadratic_ranged_369_lb: [ 1 x_78_ ^ 2 - 2 x_79_ * x_78_ + 1 x_79_ ^ 2 + 1 y_78_ ^ 2 - 2 y_79_ * y_78_ + 1 y_79_ ^ 2 ] >= 21733.47
quadratic_ranged_370_lb: [ 1 x_9_ ^ 2 - 2 x_80_ * x_9_ + 1 x_80_ ^ 2 + 1 y_9_ ^ 2 - 2 y_80_ * y_9_ + 1 y_80_ ^ 2 ] >= 9086.22
quadratic_ranged_371_lb: [ 1 x_14_ ^ 2 - 2 x_80_ * x_14_ + 1 x_80_ ^ 2 + 1 y_14_ ^ 2 - 2 y_80_ * y_14_ + 1 y_80_ ^ 2 ] >= 4904.46
quadratic_ranged_372_lb: [ 1 x_50_ ^ 2 - 2 x_80_ * x_50_ + 1 x_80_ ^ 2 + 1 y_50_ ^ 2 - 2 y_80_ * y_50_ + 1 y_80_ ^ 2 ] >= 55563.75
quadratic_ranged_373_lb: [ 1 x_71_ ^ 2 - 2 x_80_ * x_71_ + 1 x_80_ ^ 2 + 1 y_71_ ^ 2 - 2 y_80_ * y_71_ + 1 y_80_ ^ 2 ] >= 2574.99
quadratic_ranged_374_lb: [ 1 x_74_ ^ 2 - 2 x_80_ * x_74_ + 1 x_80_ ^ 2 + 1 y_74_ ^ 2 - 2 y_80_ * y_74_ + 1 y_80_ ^ 2 ] >= 10875.15
quadratic_ranged_375_lb: [ 1 x_77_ ^ 2 - 2 x_80_ * x_77_ + 1 x_80_ ^ 2 + 1 y_77_ ^ 2 - 2 y_80_ * y_77_ + 1 y_80_ ^ 2 ] >= 2555.19
quadratic_ranged_376_lb: [ 1 x_79_ ^ 2 - 2 x_80_ * x_79_ + 1 x_80_ ^ 2 + 1 y_79_ ^ 2 - 2 y_80_ * y_79_ + 1 y_80_ ^ 2 ] >= 27777.42
quadratic_ranged_377_lb: [ 1 x_8_ ^ 2 - 2 x_81_ * x_8_ + 1 x_81_ ^ 2 + 1 y_8_ ^ 2 - 2 y_81_ * y_8_ + 1 y_81_ ^ 2 ] >= 5151.96
quadratic_ranged_378_lb: [ 1 x_26_ ^ 2 - 2 x_81_ * x_26_ + 1 x_81_ ^ 2 + 1 y_26_ ^ 2 - 2 y_81_ * y_26_ + 1 y_81_ ^ 2 ] >= 9395.1
quadratic_ranged_379_lb: [ 1 x_46_ ^ 2 - 2 x_81_ * x_46_ + 1 x_81_ ^ 2 + 1 y_46_ ^ 2 - 2 y_81_ * y_46_ + 1 y_81_ ^ 2 ] >= 2083.95
quadratic_ranged_380_lb: [ 1 x_56_ ^ 2 - 2 x_81_ * x_56_ + 1 x_81_ ^ 2 + 1 y_56_ ^ 2 - 2 y_81_ * y_56_ + 1 y_81_ ^ 2 ] >= 2895.75
quadratic_ranged_381_lb: [ 1 x_64_ ^ 2 - 2 x_81_ * x_64_ + 1 x_81_ ^ 2 + 1 y_64_ ^ 2 - 2 y_81_ * y_64_ + 1 y_81_ ^ 2 ] >= 8518.95
quadratic_ranged_382_lb: [ 1 x_80_ ^ 2 - 2 x_81_ * x_80_ + 1 x_81_ ^ 2 + 1 y_80_ ^ 2 - 2 y_81_ * y_80_ + 1 y_81_ ^ 2 ] >= 34596.54
quadratic_ranged_383_lb: [ 1 x_5_ ^ 2 - 2 x_82_ * x_5_ + 1 x_82_ ^ 2 + 1 y_5_ ^ 2 - 2 y_82_ * y_5_ + 1 y_82_ ^ 2 ] >= 5149.98
quadratic_ranged_384_lb: [ 1 x_6_ ^ 2 - 2 x_82_ * x_6_ + 1 x_82_ ^ 2 + 1 y_6_ ^ 2 - 2 y_82_ * y_6_ + 1 y_82_ ^ 2 ] >= 7908.12
quadratic_ranged_385_lb: [ 1 x_9_ ^ 2 - 2 x_82_ * x_9_ + 1 x_82_ ^ 2 + 1 y_9_ ^ 2 - 2 y_82_ * y_9_ + 1 y_82_ ^ 2 ] >= 10860.3
quadratic_ranged_386_lb: [ 1 x_16_ ^ 2 - 2 x_82_ * x_16_ + 1 x_82_ ^ 2 + 1 y_16_ ^ 2 - 2 y_82_ * y_16_ + 1 y_82_ ^ 2 ] >= 2164.14
quadratic_ranged_387_lb: [ 1 x_28_ ^ 2 - 2 x_82_ * x_28_ + 1 x_82_ ^ 2 + 1 y_28_ ^ 2 - 2 y_82_ * y_28_ + 1 y_82_ ^ 2 ] >= 4052.07
quadratic_ranged_388_lb: [ 1 x_66_ ^ 2 - 2 x_82_ * x_66_ + 1 x_82_ ^ 2 + 1 y_66_ ^ 2 - 2 y_82_ * y_66_ + 1 y_82_ ^ 2 ] >= 10241.55
quadratic_ranged_389_lb: [ 1 x_67_ ^ 2 - 2 x_82_ * x_67_ + 1 x_82_ ^ 2 + 1 y_67_ ^ 2 - 2 y_82_ * y_67_ + 1 y_82_ ^ 2 ] >= 1870.11
quadratic_ranged_390_lb: [ 1 x_74_ ^ 2 - 2 x_82_ * x_74_ + 1 x_82_ ^ 2 + 1 y_74_ ^ 2 - 2 y_82_ * y_74_ + 1 y_82_ ^ 2 ] >= 2713.59
quadratic_ranged_391_lb: [ 1 x_79_ ^ 2 - 2 x_82_ * x_79_ + 1 x_82_ ^ 2 + 1 y_79_ ^ 2 - 2 y_82_ * y_79_ + 1 y_82_ ^ 2 ] >= 9157.5
quadratic_ranged_392_lb: [ 1 x_81_ ^ 2 - 2 x_82_ * x_81_ + 1 x_82_ ^ 2 + 1 y_81_ ^ 2 - 2 y_82_ * y_81_ + 1 y_82_ ^ 2 ] >= 8444.7
quadratic_ranged_393_lb: [ 1 x_4_ ^ 2 - 2 x_83_ * x_4_ + 1 x_83_ ^ 2 + 1 y_4_ ^ 2 - 2 y_83_ * y_4_ + 1 y_83_ ^ 2 ] >= 13781.789999999999
quadratic_ranged_394_lb: [ 1 x_6_ ^ 2 - 2 x_83_ * x_6_ + 1 x_83_ ^ 2 + 1 y_6_ ^ 2 - 2 y_83_ * y_6_ + 1 y_83_ ^ 2 ] >= 3171.96
quadratic_ranged_395_lb: [ 1 x_11_ ^ 2 - 2 x_83_ * x_11_ + 1 x_83_ ^ 2 + 1 y_11_ ^ 2 - 2 y_83_ * y_11_ + 1 y_83_ ^ 2 ] >= 24680.7
quadratic_ranged_396_lb: [ 1 x_15_ ^ 2 - 2 x_83_ * x_15_ + 1 x_83_ ^ 2 + 1 y_15_ ^ 2 - 2 y_83_ * y_15_ + 1 y_83_ ^ 2 ] >= 15691.5
quadratic_ranged_397_lb: [ 1 x_22_ ^ 2 - 2 x_83_ * x_22_ + 1 x_83_ ^ 2 + 1 y_22_ ^ 2 - 2 y_83_ * y_22_ + 1 y_83_ ^ 2 ] >= 1340.46
quadratic_ranged_398_lb: [ 1 x_51_ ^ 2 - 2 x_83_ * x_51_ + 1 x_83_ ^ 2 + 1 y_51_ ^ 2 - 2 y_83_ * y_51_ + 1 y_83_ ^ 2 ] >= 15018.3
quadratic_ranged_399_lb: [ 1 x_53_ ^ 2 - 2 x_83_ * x_53_ + 1 x_83_ ^ 2 + 1 y_53_ ^ 2 - 2 y_83_ * y_53_ + 1 y_83_ ^ 2 ] >= 26426.07
quadratic_ranged_400_lb: [ 1 x_59_ ^ 2 - 2 x_83_ * x_59_ + 1 x_83_ ^ 2 + 1 y_59_ ^ 2 - 2 y_83_ * y_59_ + 1 y_83_ ^ 2 ] >= 16830
quadratic_ranged_401_lb: [ 1 x_60_ ^ 2 - 2 x_83_ * x_60_ + 1 x_83_ ^ 2 + 1 y_60_ ^ 2 - 2 y_83_ * y_60_ + 1 y_83_ ^ 2 ] >= 23844.15
quadratic_ranged_402_lb: [ 1 x_62_ ^ 2 - 2 x_83_ * x_62_ + 1 x_83_ ^ 2 + 1 y_62_ ^ 2 - 2 y_83_ * y_62_ + 1 y_83_ ^ 2 ] >= 5443.0199999999995
quadratic_ranged_403_lb: [ 1 x_79_ ^ 2 - 2 x_83_ * x_79_ + 1 x_83_ ^ 2 + 1 y_79_ ^ 2 - 2 y_83_ * y_79_ + 1 y_83_ ^ 2 ] >= 27809.1
quadratic_ranged_404_lb: [ 1 x_82_ ^ 2 - 2 x_83_ * x_82_ + 1 x_83_ ^ 2 + 1 y_82_ ^ 2 - 2 y_83_ * y_82_ + 1 y_83_ ^ 2 ] >= 8062.5599999999995
quadratic_ranged_405_lb: [ 1 x_2_ ^ 2 - 2 x_84_ * x_2_ + 1 x_84_ ^ 2 + 1 y_2_ ^ 2 - 2 y_84_ * y_2_ + 1 y_84_ ^ 2 ] >= 14506.47
quadratic_ranged_406_lb: [ 1 x_6_ ^ 2 - 2 x_84_ * x_6_ + 1 x_84_ ^ 2 + 1 y_6_ ^ 2 - 2 y_84_ * y_6_ + 1 y_84_ ^ 2 ] >= 9124.83
quadratic_ranged_407_lb: [ 1 x_19_ ^ 2 - 2 x_84_ * x_19_ + 1 x_84_ ^ 2 + 1 y_19_ ^ 2 - 2 y_84_ * y_19_ + 1 y_84_ ^ 2 ] >= 2312.64
quadratic_ranged_408_lb: [ 1 x_24_ ^ 2 - 2 x_84_ * x_24_ + 1 x_84_ ^ 2 + 1 y_24_ ^ 2 - 2 y_84_ * y_24_ + 1 y_84_ ^ 2 ] >= 8518.95
quadratic_ranged_409_lb: [ 1 x_38_ ^ 2 - 2 x_84_ * x_38_ + 1 x_84_ ^ 2 + 1 y_38_ ^ 2 - 2 y_84_ * y_38_ + 1 y_84_ ^ 2 ] >= 1029.6
quadratic_ranged_410_lb: [ 1 x_50_ ^ 2 - 2 x_84_ * x_50_ + 1 x_84_ ^ 2 + 1 y_50_ ^ 2 - 2 y_84_ * y_50_ + 1 y_84_ ^ 2 ] >= 24118.38
quadratic_ranged_411_lb: [ 1 x_59_ ^ 2 - 2 x_84_ * x_59_ + 1 x_84_ ^ 2 + 1 y_59_ ^ 2 - 2 y_84_ * y_59_ + 1 y_84_ ^ 2 ] >= 11132.55
quadratic_ranged_412_lb: [ 1 x_83_ ^ 2 - 2 x_84_ * x_83_ + 1 x_84_ ^ 2 + 1 y_83_ ^ 2 - 2 y_84_ * y_83_ + 1 y_84_ ^ 2 ] >= 3232.35
quadratic_ranged_413_lb: [ 1 x_12_ ^ 2 - 2 x_85_ * x_12_ + 1 x_85_ ^ 2 + 1 y_12_ ^ 2 - 2 y_85_ * y_12_ + 1 y_85_ ^ 2 ] >= 15547.95
quadratic_ranged_414_lb: [ 1 x_13_ ^ 2 - 2 x_85_ * x_13_ + 1 x_85_ ^ 2 + 1 y_13_ ^ 2 - 2 y_85_ * y_13_ + 1 y_85_ ^ 2 ] >= 1913.67
quadratic_ranged_415_lb: [ 1 x_20_ ^ 2 - 2 x_85_ * x_20_ + 1 x_85_ ^ 2 + 1 y_20_ ^ 2 - 2 y_85_ * y_20_ + 1 y_85_ ^ 2 ] >= 4169.88
quadratic_ranged_416_lb: [ 1 x_32_ ^ 2 - 2 x_85_ * x_32_ + 1 x_85_ ^ 2 + 1 y_32_ ^ 2 - 2 y_85_ * y_32_ + 1 y_85_ ^ 2 ] >= 19295.1
quadratic_ranged_417_lb: [ 1 x_37_ ^ 2 - 2 x_85_ * x_37_ + 1 x_85_ ^ 2 + 1 y_37_ ^ 2 - 2 y_85_ * y_37_ + 1 y_85_ ^ 2 ] >= 1228.59
quadratic_ranged_418_lb: [ 1 x_46_ ^ 2 - 2 x_85_ * x_46_ + 1 x_85_ ^ 2 + 1 y_46_ ^ 2 - 2 y_85_ * y_46_ + 1 y_85_ ^ 2 ] >= 895.95
quadratic_ranged_419_lb: [ 1 x_49_ ^ 2 - 2 x_85_ * x_49_ + 1 x_85_ ^ 2 + 1 y_49_ ^ 2 - 2 y_85_ * y_49_ + 1 y_85_ ^ 2 ] >= 20886.03
quadratic_ranged_420_lb: [ 1 x_55_ ^ 2 - 2 x_85_ * x_55_ + 1 x_85_ ^ 2 + 1 y_55_ ^ 2 - 2 y_85_ * y_55_ + 1 y_85_ ^ 2 ] >= 7548.75
quadratic_ranged_421_lb: [ 1 x_57_ ^ 2 - 2 x_85_ * x_57_ + 1 x_85_ ^ 2 + 1 y_57_ ^ 2 - 2 y_85_ * y_57_ + 1 y_85_ ^ 2 ] >= 2296.8
quadratic_ranged_422_lb: [ 1 x_78_ ^ 2 - 2 x_85_ * x_78_ + 1 x_85_ ^ 2 + 1 y_78_ ^ 2 - 2 y_85_ * y_78_ + 1 y_85_ ^ 2 ] >= 17619.03
quadratic_ranged_423_lb: [ 1 x_84_ ^ 2 - 2 x_85_ * x_84_ + 1 x_85_ ^ 2 + 1 y_84_ ^ 2 - 2 y_85_ * y_84_ + 1 y_85_ ^ 2 ] >= 4182.75
quadratic_ranged_424_lb: [ 1 x_1_ ^ 2 - 2 x_86_ * x_1_ + 1 x_86_ ^ 2 + 1 y_1_ ^ 2 - 2 y_86_ * y_1_ + 1 y_86_ ^ 2 ] >= 5900.4
quadratic_ranged_425_lb: [ 1 x_3_ ^ 2 - 2 x_86_ * x_3_ + 1 x_86_ ^ 2 + 1 y_3_ ^ 2 - 2 y_86_ * y_3_ + 1 y_86_ ^ 2 ] >= 5775.66
quadratic_ranged_426_lb: [ 1 x_13_ ^ 2 - 2 x_86_ * x_13_ + 1 x_86_ ^ 2 + 1 y_13_ ^ 2 - 2 y_86_ * y_13_ + 1 y_86_ ^ 2 ] >= 11994.84
quadratic_ranged_427_lb: [ 1 x_29_ ^ 2 - 2 x_86_ * x_29_ + 1 x_86_ ^ 2 + 1 y_29_ ^ 2 - 2 y_86_ * y_29_ + 1 y_86_ ^ 2 ] >= 4993.56
quadratic_ranged_428_lb: [ 1 x_33_ ^ 2 - 2 x_86_ * x_33_ + 1 x_86_ ^ 2 + 1 y_33_ ^ 2 - 2 y_86_ * y_33_ + 1 y_86_ ^ 2 ] >= 5817.24
quadratic_ranged_429_lb: [ 1 x_40_ ^ 2 - 2 x_86_ * x_40_ + 1 x_86_ ^ 2 + 1 y_40_ ^ 2 - 2 y_86_ * y_40_ + 1 y_86_ ^ 2 ] >= 9395.1
quadratic_ranged_430_lb: [ 1 x_56_ ^ 2 - 2 x_86_ * x_56_ + 1 x_86_ ^ 2 + 1 y_56_ ^ 2 - 2 y_86_ * y_56_ + 1 y_86_ ^ 2 ] >= 20592
quadratic_ranged_431_lb: [ 1 x_68_ ^ 2 - 2 x_86_ * x_68_ + 1 x_86_ ^ 2 + 1 y_68_ ^ 2 - 2 y_86_ * y_68_ + 1 y_86_ ^ 2 ] >= 10335.6
quadratic_ranged_432_lb: [ 1 x_69_ ^ 2 - 2 x_86_ * x_69_ + 1 x_86_ ^ 2 + 1 y_69_ ^ 2 - 2 y_86_ * y_69_ + 1 y_86_ ^ 2 ] >= 2935.35
quadratic_ranged_433_lb: [ 1 x_85_ ^ 2 - 2 x_86_ * x_85_ + 1 x_86_ ^ 2 + 1 y_85_ ^ 2 - 2 y_86_ * y_85_ + 1 y_86_ ^ 2 ] >= 4408.47
quadratic_ranged_434_lb: [ 1 x_12_ ^ 2 - 2 x_87_ * x_12_ + 1 x_87_ ^ 2 + 1 y_12_ ^ 2 - 2 y_87_ * y_12_ + 1 y_87_ ^ 2 ] >= 3900.6
quadratic_ranged_435_lb: [ 1 x_21_ ^ 2 - 2 x_87_ * x_21_ + 1 x_87_ ^ 2 + 1 y_21_ ^ 2 - 2 y_87_ * y_21_ + 1 y_87_ ^ 2 ] >= 7548.75
quadratic_ranged_436_lb: [ 1 x_25_ ^ 2 - 2 x_87_ * x_25_ + 1 x_87_ ^ 2 + 1 y_25_ ^ 2 - 2 y_87_ * y_25_ + 1 y_87_ ^ 2 ] >= 23333.31
quadratic_ranged_437_lb: [ 1 x_26_ ^ 2 - 2 x_87_ * x_26_ + 1 x_87_ ^ 2 + 1 y_26_ ^ 2 - 2 y_87_ * y_26_ + 1 y_87_ ^ 2 ] >= 5940.99
quadratic_ranged_438_lb: [ 1 x_40_ ^ 2 - 2 x_87_ * x_40_ + 1 x_87_ ^ 2 + 1 y_40_ ^ 2 - 2 y_87_ * y_40_ + 1 y_87_ ^ 2 ] >= 2544.3
quadratic_ranged_439_lb: [ 1 x_43_ ^ 2 - 2 x_87_ * x_43_ + 1 x_87_ ^ 2 + 1 y_43_ ^ 2 - 2 y_87_ * y_43_ + 1 y_87_ ^ 2 ] >= 4688.64
quadratic_ranged_440_lb: [ 1 x_46_ ^ 2 - 2 x_87_ * x_46_ + 1 x_87_ ^ 2 + 1 y_46_ ^ 2 - 2 y_87_ * y_46_ + 1 y_87_ ^ 2 ] >= 4387.68
quadratic_ranged_441_lb: [ 1 x_61_ ^ 2 - 2 x_87_ * x_61_ + 1 x_87_ ^ 2 + 1 y_61_ ^ 2 - 2 y_87_ * y_61_ + 1 y_87_ ^ 2 ] >= 20303.91
quadratic_ranged_442_lb: [ 1 x_72_ ^ 2 - 2 x_87_ * x_72_ + 1 x_87_ ^ 2 + 1 y_72_ ^ 2 - 2 y_87_ * y_72_ + 1 y_87_ ^ 2 ] >= 9992.07
quadratic_ranged_443_lb: [ 1 x_73_ ^ 2 - 2 x_87_ * x_73_ + 1 x_87_ ^ 2 + 1 y_73_ ^ 2 - 2 y_87_ * y_73_ + 1 y_87_ ^ 2 ] >= 9416.88
quadratic_ranged_444_lb: [ 1 x_86_ ^ 2 - 2 x_87_ * x_86_ + 1 x_87_ ^ 2 + 1 y_86_ ^ 2 - 2 y_87_ * y_86_ + 1 y_87_ ^ 2 ] >= 9606.96
quadratic_ranged_445_lb: [ 1 x_12_ ^ 2 - 2 x_88_ * x_12_ + 1 x_88_ ^ 2 + 1 y_12_ ^ 2 - 2 y_88_ * y_12_ + 1 y_88_ ^ 2 ] >= 20073.24
quadratic_ranged_446_lb: [ 1 x_26_ ^ 2 - 2 x_88_ * x_26_ + 1 x_88_ ^ 2 + 1 y_26_ ^ 2 - 2 y_88_ * y_26_ + 1 y_88_ ^ 2 ] >= 17721.99
quadratic_ranged_447_lb: [ 1 x_27_ ^ 2 - 2 x_88_ * x_27_ + 1 x_88_ ^ 2 + 1 y_27_ ^ 2 - 2 y_88_ * y_27_ + 1 y_88_ ^ 2 ] >= 9231.75
quadratic_ranged_448_lb: [ 1 x_34_ ^ 2 - 2 x_88_ * x_34_ + 1 x_88_ ^ 2 + 1 y_34_ ^ 2 - 2 y_88_ * y_34_ + 1 y_88_ ^ 2 ] >= 25282.62
quadratic_ranged_449_lb: [ 1 x_41_ ^ 2 - 2 x_88_ * x_41_ + 1 x_88_ ^ 2 + 1 y_41_ ^ 2 - 2 y_88_ * y_41_ + 1 y_88_ ^ 2 ] >= 10335.6
quadratic_ranged_450_lb: [ 1 x_54_ ^ 2 - 2 x_88_ * x_54_ + 1 x_88_ ^ 2 + 1 y_54_ ^ 2 - 2 y_88_ * y_54_ + 1 y_88_ ^ 2 ] >= 30682.079999999998
quadratic_ranged_451_lb: [ 1 x_55_ ^ 2 - 2 x_88_ * x_55_ + 1 x_88_ ^ 2 + 1 y_55_ ^ 2 - 2 y_88_ * y_55_ + 1 y_88_ ^ 2 ] >= 17000.28
quadratic_ranged_452_lb: [ 1 x_63_ ^ 2 - 2 x_88_ * x_63_ + 1 x_88_ ^ 2 + 1 y_63_ ^ 2 - 2 y_88_ * y_63_ + 1 y_88_ ^ 2 ] >= 912.78
quadratic_ranged_453_lb: [ 1 x_66_ ^ 2 - 2 x_88_ * x_66_ + 1 x_88_ ^ 2 + 1 y_66_ ^ 2 - 2 y_88_ * y_66_ + 1 y_88_ ^ 2 ] >= 572.22
quadratic_ranged_454_lb: [ 1 x_69_ ^ 2 - 2 x_88_ * x_69_ + 1 x_88_ ^ 2 + 1 y_69_ ^ 2 - 2 y_88_ * y_69_ + 1 y_88_ ^ 2 ] >= 20010.87
quadratic_ranged_455_lb: [ 1 x_77_ ^ 2 - 2 x_88_ * x_77_ + 1 x_88_ ^ 2 + 1 y_77_ ^ 2 - 2 y_88_ * y_77_ + 1 y_88_ ^ 2 ] >= 15588.539999999999
quadratic_ranged_456_lb: [ 1 x_86_ ^ 2 - 2 x_88_ * x_86_ + 1 x_88_ ^ 2 + 1 y_86_ ^ 2 - 2 y_88_ * y_86_ + 1 y_88_ ^ 2 ] >= 11721.6
quadratic_ranged_457_lb: [ 1 x_87_ ^ 2 - 2 x_88_ * x_87_ + 1 x_88_ ^ 2 + 1 y_87_ ^ 2 - 2 y_88_ * y_87_ + 1 y_88_ ^ 2 ] >= 13060.08
quadratic_ranged_458_lb: [ 1 x_24_ ^ 2 - 2 x_89_ * x_24_ + 1 x_89_ ^ 2 + 1 y_24_ ^ 2 - 2 y_89_ * y_24_ + 1 y_89_ ^ 2 ] >= 7358.67
quadratic_ranged_459_lb: [ 1 x_46_ ^ 2 - 2 x_89_ * x_46_ + 1 x_89_ ^ 2 + 1 y_46_ ^ 2 - 2 y_89_ * y_46_ + 1 y_89_ ^ 2 ] >= 6353.82
quadratic_ranged_460_lb: [ 1 x_52_ ^ 2 - 2 x_89_ * x_52_ + 1 x_89_ ^ 2 + 1 y_52_ ^ 2 - 2 y_89_ * y_52_ + 1 y_89_ ^ 2 ] >= 3830.31
quadratic_ranged_461_lb: [ 1 x_59_ ^ 2 - 2 x_89_ * x_59_ + 1 x_89_ ^ 2 + 1 y_59_ ^ 2 - 2 y_89_ * y_59_ + 1 y_89_ ^ 2 ] >= 167.31
quadratic_ranged_462_lb: [ 1 x_87_ ^ 2 - 2 x_89_ * x_87_ + 1 x_89_ ^ 2 + 1 y_87_ ^ 2 - 2 y_89_ * y_87_ + 1 y_89_ ^ 2 ] >= 1879.02
quadratic_ranged_463_lb: [ 1 x_88_ ^ 2 - 2 x_89_ * x_88_ + 1 x_89_ ^ 2 + 1 y_88_ ^ 2 - 2 y_89_ * y_88_ + 1 y_89_ ^ 2 ] >= 15493.5
quadratic_ranged_464_lb: [ 1 x_1_ ^ 2 - 2 x_90_ * x_1_ + 1 x_90_ ^ 2 + 1 y_1_ ^ 2 - 2 y_90_ * y_1_ + 1 y_90_ ^ 2 ] >= 10915.74
quadratic_ranged_465_lb: [ 1 x_44_ ^ 2 - 2 x_90_ * x_44_ + 1 x_90_ ^ 2 + 1 y_44_ ^ 2 - 2 y_90_ * y_44_ + 1 y_90_ ^ 2 ] >= 396
quadratic_ranged_466_lb: [ 1 x_51_ ^ 2 - 2 x_90_ * x_51_ + 1 x_90_ ^ 2 + 1 y_51_ ^ 2 - 2 y_90_ * y_51_ + 1 y_90_ ^ 2 ] >= 24877.71
quadratic_ranged_467_lb: [ 1 x_68_ ^ 2 - 2 x_90_ * x_68_ + 1 x_90_ ^ 2 + 1 y_68_ ^ 2 - 2 y_90_ * y_68_ + 1 y_90_ ^ 2 ] >= 16325.1
quadratic_ranged_468_lb: [ 1 x_77_ ^ 2 - 2 x_90_ * x_77_ + 1 x_90_ ^ 2 + 1 y_77_ ^ 2 - 2 y_90_ * y_77_ + 1 y_90_ ^ 2 ] >= 1160.28
quadratic_ranged_469_lb: [ 1 x_89_ ^ 2 - 2 x_90_ * x_89_ + 1 x_90_ ^ 2 + 1 y_89_ ^ 2 - 2 y_90_ * y_89_ + 1 y_90_ ^ 2 ] >= 25015.32
quadratic_ranged_470_lb: [ 1 x_3_ ^ 2 - 2 x_91_ * x_3_ + 1 x_91_ ^ 2 + 1 y_3_ ^ 2 - 2 y_91_ * y_3_ + 1 y_91_ ^ 2 ] >= 30496.95
quadratic_ranged_471_lb: [ 1 x_4_ ^ 2 - 2 x_91_ * x_4_ + 1 x_91_ ^ 2 + 1 y_4_ ^ 2 - 2 y_91_ * y_4_ + 1 y_91_ ^ 2 ] >= 17171.55
quadratic_ranged_472_lb: [ 1 x_21_ ^ 2 - 2 x_91_ * x_21_ + 1 x_91_ ^ 2 + 1 y_21_ ^ 2 - 2 y_91_ * y_21_ + 1 y_91_ ^ 2 ] >= 13909.5
quadratic_ranged_473_lb: [ 1 x_28_ ^ 2 - 2 x_91_ * x_28_ + 1 x_91_ ^ 2 + 1 y_28_ ^ 2 - 2 y_91_ * y_28_ + 1 y_91_ ^ 2 ] >= 6241.95
quadratic_ranged_474_lb: [ 1 x_31_ ^ 2 - 2 x_91_ * x_31_ + 1 x_91_ ^ 2 + 1 y_31_ ^ 2 - 2 y_91_ * y_31_ + 1 y_91_ ^ 2 ] >= 34714.35
quadratic_ranged_475_lb: [ 1 x_32_ ^ 2 - 2 x_91_ * x_32_ + 1 x_91_ ^ 2 + 1 y_32_ ^ 2 - 2 y_91_ * y_32_ + 1 y_91_ ^ 2 ] >= 38002.14
quadratic_ranged_476_lb: [ 1 x_41_ ^ 2 - 2 x_91_ * x_41_ + 1 x_91_ ^ 2 + 1 y_41_ ^ 2 - 2 y_91_ * y_41_ + 1 y_91_ ^ 2 ] >= 17480.43
quadratic_ranged_477_lb: [ 1 x_59_ ^ 2 - 2 x_91_ * x_59_ + 1 x_91_ ^ 2 + 1 y_59_ ^ 2 - 2 y_91_ * y_59_ + 1 y_91_ ^ 2 ] >= 27888.3
quadratic_ranged_478_lb: [ 1 x_69_ ^ 2 - 2 x_91_ * x_69_ + 1 x_91_ ^ 2 + 1 y_69_ ^ 2 - 2 y_91_ * y_69_ + 1 y_91_ ^ 2 ] >= 24302.52
quadratic_ranged_479_lb: [ 1 x_82_ ^ 2 - 2 x_91_ * x_82_ + 1 x_91_ ^ 2 + 1 y_82_ ^ 2 - 2 y_91_ * y_82_ + 1 y_91_ ^ 2 ] >= 19112.94
quadratic_ranged_480_lb: [ 1 x_90_ ^ 2 - 2 x_91_ * x_90_ + 1 x_91_ ^ 2 + 1 y_90_ ^ 2 - 2 y_91_ * y_90_ + 1 y_91_ ^ 2 ] >= 19321.829999999998
quadratic_ranged_481_lb: [ 1 x_4_ ^ 2 - 2 x_92_ * x_4_ + 1 x_92_ ^ 2 + 1 y_4_ ^ 2 - 2 y_92_ * y_4_ + 1 y_92_ ^ 2 ] >= 18029.88
quadratic_ranged_482_lb: [ 1 x_10_ ^ 2 - 2 x_92_ * x_10_ + 1 x_92_ ^ 2 + 1 y_10_ ^ 2 - 2 y_92_ * y_10_ + 1 y_92_ ^ 2 ] >= 2029.5
quadratic_ranged_483_lb: [ 1 x_11_ ^ 2 - 2 x_92_ * x_11_ + 1 x_92_ ^ 2 + 1 y_11_ ^ 2 - 2 y_92_ * y_11_ + 1 y_92_ ^ 2 ] >= 40.589999999999996
quadratic_ranged_484_lb: [ 1 x_15_ ^ 2 - 2 x_92_ * x_15_ + 1 x_92_ ^ 2 + 1 y_15_ ^ 2 - 2 y_92_ * y_15_ + 1 y_92_ ^ 2 ] >= 4277.79
quadratic_ranged_485_lb: [ 1 x_18_ ^ 2 - 2 x_92_ * x_18_ + 1 x_92_ ^ 2 + 1 y_18_ ^ 2 - 2 y_92_ * y_18_ + 1 y_92_ ^ 2 ] >= 4126.32
quadratic_ranged_486_lb: [ 1 x_19_ ^ 2 - 2 x_92_ * x_19_ + 1 x_92_ ^ 2 + 1 y_19_ ^ 2 - 2 y_92_ * y_19_ + 1 y_92_ ^ 2 ] >= 13737.24
quadratic_ranged_487_lb: [ 1 x_50_ ^ 2 - 2 x_92_ * x_50_ + 1 x_92_ ^ 2 + 1 y_50_ ^ 2 - 2 y_92_ * y_50_ + 1 y_92_ ^ 2 ] >= 26977.5
quadratic_ranged_488_lb: [ 1 x_60_ ^ 2 - 2 x_92_ * x_60_ + 1 x_92_ ^ 2 + 1 y_60_ ^ 2 - 2 y_92_ * y_60_ + 1 y_92_ ^ 2 ] >= 643.5
quadratic_ranged_489_lb: [ 1 x_68_ ^ 2 - 2 x_92_ * x_68_ + 1 x_92_ ^ 2 + 1 y_68_ ^ 2 - 2 y_92_ * y_68_ + 1 y_92_ ^ 2 ] >= 42302.7
quadratic_ranged_490_lb: [ 1 x_71_ ^ 2 - 2 x_92_ * x_71_ + 1 x_92_ ^ 2 + 1 y_71_ ^ 2 - 2 y_92_ * y_71_ + 1 y_92_ ^ 2 ] >= 12866.039999999999
quadratic_ranged_491_lb: [ 1 x_72_ ^ 2 - 2 x_92_ * x_72_ + 1 x_92_ ^ 2 + 1 y_72_ ^ 2 - 2 y_92_ * y_72_ + 1 y_92_ ^ 2 ] >= 23559.03
quadratic_ranged_492_lb: [ 1 x_75_ ^ 2 - 2 x_92_ * x_75_ + 1 x_92_ ^ 2 + 1 y_75_ ^ 2 - 2 y_92_ * y_75_ + 1 y_92_ ^ 2 ] >= 34492.59
quadratic_ranged_493_lb: [ 1 x_88_ ^ 2 - 2 x_92_ * x_88_ + 1 x_92_ ^ 2 + 1 y_88_ ^ 2 - 2 y_92_ * y_88_ + 1 y_92_ ^ 2 ] >= 36426.06
quadratic_ranged_494_lb: [ 1 x_91_ ^ 2 - 2 x_92_ * x_91_ + 1 x_92_ ^ 2 + 1 y_91_ ^ 2 - 2 y_92_ * y_91_ + 1 y_92_ ^ 2 ] >= 47481.39
quadratic_ranged_495_lb: [ 1 x_10_ ^ 2 - 2 x_93_ * x_10_ + 1 x_93_ ^ 2 + 1 y_10_ ^ 2 - 2 y_93_ * y_10_ + 1 y_93_ ^ 2 ] >= 19666.35
quadratic_ranged_496_lb: [ 1 x_13_ ^ 2 - 2 x_93_ * x_13_ + 1 x_93_ ^ 2 + 1 y_13_ ^ 2 - 2 y_93_ * y_13_ + 1 y_93_ ^ 2 ] >= 2008.71
quadratic_ranged_497_lb: [ 1 x_23_ ^ 2 - 2 x_93_ * x_23_ + 1 x_93_ ^ 2 + 1 y_23_ ^ 2 - 2 y_93_ * y_23_ + 1 y_93_ ^ 2 ] >= 23166
quadratic_ranged_498_lb: [ 1 x_24_ ^ 2 - 2 x_93_ * x_24_ + 1 x_93_ ^ 2 + 1 y_24_ ^ 2 - 2 y_93_ * y_24_ + 1 y_93_ ^ 2 ] >= 1475.1
quadratic_ranged_499_lb: [ 1 x_29_ ^ 2 - 2 x_93_ * x_29_ + 1 x_93_ ^ 2 + 1 y_29_ ^ 2 - 2 y_93_ * y_29_ + 1 y_93_ ^ 2 ] >= 16482.51
quadratic_ranged_500_lb: [ 1 x_70_ ^ 2 - 2 x_93_ * x_70_ + 1 x_93_ ^ 2 + 1 y_70_ ^ 2 - 2 y_93_ * y_70_ + 1 y_93_ ^ 2 ] >= 23611.5
quadratic_ranged_501_lb: [ 1 x_79_ ^ 2 - 2 x_93_ * x_79_ + 1 x_93_ ^ 2 + 1 y_79_ ^ 2 - 2 y_93_ * y_79_ + 1 y_93_ ^ 2 ] >= 24522.3
quadratic_ranged_502_lb: [ 1 x_85_ ^ 2 - 2 x_93_ * x_85_ + 1 x_93_ ^ 2 + 1 y_85_ ^ 2 - 2 y_93_ * y_85_ + 1 y_93_ ^ 2 ] >= 128.7
quadratic_ranged_503_lb: [ 1 x_86_ ^ 2 - 2 x_93_ * x_86_ + 1 x_93_ ^ 2 + 1 y_86_ ^ 2 - 2 y_93_ * y_86_ + 1 y_93_ ^ 2 ] >= 4911.39
quadratic_ranged_504_lb: [ 1 x_92_ ^ 2 - 2 x_93_ * x_92_ + 1 x_93_ ^ 2 + 1 y_92_ ^ 2 - 2 y_93_ * y_92_ + 1 y_93_ ^ 2 ] >= 21222.63
quadratic_ranged_505_lb: [ 1 x_9_ ^ 2 - 2 x_94_ * x_9_ + 1 x_94_ ^ 2 + 1 y_9_ ^ 2 - 2 y_94_ * y_9_ + 1 y_94_ ^ 2 ] >= 11899.8
quadratic_ranged_506_lb: [ 1 x_45_ ^ 2 - 2 x_94_ * x_45_ + 1 x_94_ ^ 2 + 1 y_45_ ^ 2 - 2 y_94_ * y_45_ + 1 y_94_ ^ 2 ] >= 15643.98
quadratic_ranged_507_lb: [ 1 x_49_ ^ 2 - 2 x_94_ * x_49_ + 1 x_94_ ^ 2 + 1 y_49_ ^ 2 - 2 y_94_ * y_49_ + 1 y_94_ ^ 2 ] >= 48483.27
quadratic_ranged_508_lb: [ 1 x_63_ ^ 2 - 2 x_94_ * x_63_ + 1 x_94_ ^ 2 + 1 y_63_ ^ 2 - 2 y_94_ * y_63_ + 1 y_94_ ^ 2 ] >= 31906.71
quadratic_ranged_509_lb: [ 1 x_72_ ^ 2 - 2 x_94_ * x_72_ + 1 x_94_ ^ 2 + 1 y_72_ ^ 2 - 2 y_94_ * y_72_ + 1 y_94_ ^ 2 ] >= 38524.86
quadratic_ranged_510_lb: [ 1 x_74_ ^ 2 - 2 x_94_ * x_74_ + 1 x_94_ ^ 2 + 1 y_74_ ^ 2 - 2 y_94_ * y_74_ + 1 y_94_ ^ 2 ] >= 4139.19
quadratic_ranged_511_lb: [ 1 x_79_ ^ 2 - 2 x_94_ * x_79_ + 1 x_94_ ^ 2 + 1 y_79_ ^ 2 - 2 y_94_ * y_79_ + 1 y_94_ ^ 2 ] >= 13321.44
quadratic_ranged_512_lb: [ 1 x_85_ ^ 2 - 2 x_94_ * x_85_ + 1 x_94_ ^ 2 + 1 y_85_ ^ 2 - 2 y_94_ * y_85_ + 1 y_94_ ^ 2 ] >= 14739.119999999999
quadratic_ranged_513_lb: [ 1 x_93_ ^ 2 - 2 x_94_ * x_93_ + 1 x_94_ ^ 2 + 1 y_93_ ^ 2 - 2 y_94_ * y_93_ + 1 y_94_ ^ 2 ] >= 14186.7
quadratic_ranged_514_lb: [ 1 x_7_ ^ 2 - 2 x_95_ * x_7_ + 1 x_95_ ^ 2 + 1 y_7_ ^ 2 - 2 y_95_ * y_7_ + 1 y_95_ ^ 2 ] >= 15468.75
quadratic_ranged_515_lb: [ 1 x_8_ ^ 2 - 2 x_95_ * x_8_ + 1 x_95_ ^ 2 + 1 y_8_ ^ 2 - 2 y_95_ * y_8_ + 1 y_95_ ^ 2 ] >= 1514.7
quadratic_ranged_516_lb: [ 1 x_11_ ^ 2 - 2 x_95_ * x_11_ + 1 x_95_ ^ 2 + 1 y_11_ ^ 2 - 2 y_95_ * y_11_ + 1 y_95_ ^ 2 ] >= 41154.3
quadratic_ranged_517_lb: [ 1 x_13_ ^ 2 - 2 x_95_ * x_13_ + 1 x_95_ ^ 2 + 1 y_13_ ^ 2 - 2 y_95_ * y_13_ + 1 y_95_ ^ 2 ] >= 3462.0299999999997
quadratic_ranged_518_lb: [ 1 x_26_ ^ 2 - 2 x_95_ * x_26_ + 1 x_95_ ^ 2 + 1 y_26_ ^ 2 - 2 y_95_ * y_26_ + 1 y_95_ ^ 2 ] >= 28420.92
quadratic_ranged_519_lb: [ 1 x_31_ ^ 2 - 2 x_95_ * x_31_ + 1 x_95_ ^ 2 + 1 y_31_ ^ 2 - 2 y_95_ * y_31_ + 1 y_95_ ^ 2 ] >= 25131.15
quadratic_ranged_520_lb: [ 1 x_43_ ^ 2 - 2 x_95_ * x_43_ + 1 x_95_ ^ 2 + 1 y_43_ ^ 2 - 2 y_95_ * y_43_ + 1 y_95_ ^ 2 ] >= 3628.35
quadratic_ranged_521_lb: [ 1 x_75_ ^ 2 - 2 x_95_ * x_75_ + 1 x_95_ ^ 2 + 1 y_75_ ^ 2 - 2 y_95_ * y_75_ + 1 y_95_ ^ 2 ] >= 776.16
quadratic_ranged_522_lb: [ 1 x_81_ ^ 2 - 2 x_95_ * x_81_ + 1 x_95_ ^ 2 + 1 y_81_ ^ 2 - 2 y_95_ * y_81_ + 1 y_95_ ^ 2 ] >= 7985.34
quadratic_ranged_523_lb: [ 1 x_86_ ^ 2 - 2 x_95_ * x_86_ + 1 x_95_ ^ 2 + 1 y_86_ ^ 2 - 2 y_95_ * y_86_ + 1 y_95_ ^ 2 ] >= 6594.39
quadratic_ranged_524_lb: [ 1 x_91_ ^ 2 - 2 x_95_ * x_91_ + 1 x_95_ ^ 2 + 1 y_91_ ^ 2 - 2 y_95_ * y_91_ + 1 y_95_ ^ 2 ] >= 1197.9
quadratic_ranged_525_lb: [ 1 x_94_ ^ 2 - 2 x_95_ * x_94_ + 1 x_95_ ^ 2 + 1 y_94_ ^ 2 - 2 y_95_ * y_94_ + 1 y_95_ ^ 2 ] >= 22478.94
quadratic_ranged_526_lb: [ 1 x_3_ ^ 2 - 2 x_96_ * x_3_ + 1 x_96_ ^ 2 + 1 y_3_ ^ 2 - 2 y_96_ * y_3_ + 1 y_96_ ^ 2 ] >= 12811.59
quadratic_ranged_527_lb: [ 1 x_7_ ^ 2 - 2 x_96_ * x_7_ + 1 x_96_ ^ 2 + 1 y_7_ ^ 2 - 2 y_96_ * y_7_ + 1 y_96_ ^ 2 ] >= 19214.91
quadratic_ranged_528_lb: [ 1 x_10_ ^ 2 - 2 x_96_ * x_10_ + 1 x_96_ ^ 2 + 1 y_10_ ^ 2 - 2 y_96_ * y_10_ + 1 y_96_ ^ 2 ] >= 4859.91
quadratic_ranged_529_lb: [ 1 x_18_ ^ 2 - 2 x_96_ * x_18_ + 1 x_96_ ^ 2 + 1 y_18_ ^ 2 - 2 y_96_ * y_18_ + 1 y_96_ ^ 2 ] >= 9992.07
quadratic_ranged_530_lb: [ 1 x_21_ ^ 2 - 2 x_96_ * x_21_ + 1 x_96_ ^ 2 + 1 y_21_ ^ 2 - 2 y_96_ * y_21_ + 1 y_96_ ^ 2 ] >= 33202.62
quadratic_ranged_531_lb: [ 1 x_28_ ^ 2 - 2 x_96_ * x_28_ + 1 x_96_ ^ 2 + 1 y_28_ ^ 2 - 2 y_96_ * y_28_ + 1 y_96_ ^ 2 ] >= 30801.87
quadratic_ranged_532_lb: [ 1 x_31_ ^ 2 - 2 x_96_ * x_31_ + 1 x_96_ ^ 2 + 1 y_31_ ^ 2 - 2 y_96_ * y_31_ + 1 y_96_ ^ 2 ] >= 13544.19
quadratic_ranged_533_lb: [ 1 x_43_ ^ 2 - 2 x_96_ * x_43_ + 1 x_96_ ^ 2 + 1 y_43_ ^ 2 - 2 y_96_ * y_43_ + 1 y_96_ ^ 2 ] >= 32227.47
quadratic_ranged_534_lb: [ 1 x_47_ ^ 2 - 2 x_96_ * x_47_ + 1 x_96_ ^ 2 + 1 y_47_ ^ 2 - 2 y_96_ * y_47_ + 1 y_96_ ^ 2 ] >= 6086.5199999999995
quadratic_ranged_535_lb: [ 1 x_55_ ^ 2 - 2 x_96_ * x_55_ + 1 x_96_ ^ 2 + 1 y_55_ ^ 2 - 2 y_96_ * y_55_ + 1 y_96_ ^ 2 ] >= 12878.91
quadratic_ranged_536_lb: [ 1 x_74_ ^ 2 - 2 x_96_ * x_74_ + 1 x_96_ ^ 2 + 1 y_74_ ^ 2 - 2 y_96_ * y_74_ + 1 y_96_ ^ 2 ] >= 10431.63
quadratic_ranged_537_lb: [ 1 x_79_ ^ 2 - 2 x_96_ * x_79_ + 1 x_96_ ^ 2 + 1 y_79_ ^ 2 - 2 y_96_ * y_79_ + 1 y_96_ ^ 2 ] >= 641.52
quadratic_ranged_538_lb: [ 1 x_81_ ^ 2 - 2 x_96_ * x_81_ + 1 x_96_ ^ 2 + 1 y_81_ ^ 2 - 2 y_96_ * y_81_ + 1 y_96_ ^ 2 ] >= 44514.36
quadratic_ranged_539_lb: [ 1 x_95_ ^ 2 - 2 x_96_ * x_95_ + 1 x_96_ ^ 2 + 1 y_95_ ^ 2 - 2 y_96_ * y_95_ + 1 y_96_ ^ 2 ] >= 56622.06
quadratic_ranged_540_lb: [ 1 x_10_ ^ 2 - 2 x_97_ * x_10_ + 1 x_97_ ^ 2 + 1 y_10_ ^ 2 - 2 y_97_ * y_10_ + 1 y_97_ ^ 2 ] >= 36600.3
quadratic_ranged_541_lb: [ 1 x_15_ ^ 2 - 2 x_97_ * x_15_ + 1 x_97_ ^ 2 + 1 y_15_ ^ 2 - 2 y_97_ * y_15_ + 1 y_97_ ^ 2 ] >= 9148.59
quadratic_ranged_542_lb: [ 1 x_20_ ^ 2 - 2 x_97_ * x_20_ + 1 x_97_ ^ 2 + 1 y_20_ ^ 2 - 2 y_97_ * y_20_ + 1 y_97_ ^ 2 ] >= 18862.47
quadratic_ranged_543_lb: [ 1 x_28_ ^ 2 - 2 x_97_ * x_28_ + 1 x_97_ ^ 2 + 1 y_28_ ^ 2 - 2 y_97_ * y_28_ + 1 y_97_ ^ 2 ] >= 18423.9
quadratic_ranged_544_lb: [ 1 x_59_ ^ 2 - 2 x_97_ * x_59_ + 1 x_97_ ^ 2 + 1 y_59_ ^ 2 - 2 y_97_ * y_59_ + 1 y_97_ ^ 2 ] >= 37011.15
quadratic_ranged_545_lb: [ 1 x_83_ ^ 2 - 2 x_97_ * x_83_ + 1 x_97_ ^ 2 + 1 y_83_ ^ 2 - 2 y_97_ * y_83_ + 1 y_97_ ^ 2 ] >= 13944.15
quadratic_ranged_546_lb: [ 1 x_96_ ^ 2 - 2 x_97_ * x_96_ + 1 x_97_ ^ 2 + 1 y_96_ ^ 2 - 2 y_97_ * y_96_ + 1 y_97_ ^ 2 ] >= 32195.79
quadratic_ranged_547_lb: [ 1 x_1_ ^ 2 - 2 x_98_ * x_1_ + 1 x_98_ ^ 2 + 1 y_1_ ^ 2 - 2 y_98_ * y_1_ + 1 y_98_ ^ 2 ] >= 4761.9
quadratic_ranged_548_lb: [ 1 x_6_ ^ 2 - 2 x_98_ * x_6_ + 1 x_98_ ^ 2 + 1 y_6_ ^ 2 - 2 y_98_ * y_6_ + 1 y_98_ ^ 2 ] >= 3687.75
quadratic_ranged_549_lb: [ 1 x_26_ ^ 2 - 2 x_98_ * x_26_ + 1 x_98_ ^ 2 + 1 y_26_ ^ 2 - 2 y_98_ * y_26_ + 1 y_98_ ^ 2 ] >= 5889.51
quadratic_ranged_550_lb: [ 1 x_34_ ^ 2 - 2 x_98_ * x_34_ + 1 x_98_ ^ 2 + 1 y_34_ ^ 2 - 2 y_98_ * y_34_ + 1 y_98_ ^ 2 ] >= 6280.5599999999995
quadratic_ranged_551_lb: [ 1 x_40_ ^ 2 - 2 x_98_ * x_40_ + 1 x_98_ ^ 2 + 1 y_40_ ^ 2 - 2 y_98_ * y_40_ + 1 y_98_ ^ 2 ] >= 269.28
quadratic_ranged_552_lb: [ 1 x_41_ ^ 2 - 2 x_98_ * x_41_ + 1 x_98_ ^ 2 + 1 y_41_ ^ 2 - 2 y_98_ * y_41_ + 1 y_98_ ^ 2 ] >= 730.62
quadratic_ranged_553_lb: [ 1 x_42_ ^ 2 - 2 x_98_ * x_42_ + 1 x_98_ ^ 2 + 1 y_42_ ^ 2 - 2 y_98_ * y_42_ + 1 y_98_ ^ 2 ] >= 23112.54
quadratic_ranged_554_lb: [ 1 x_44_ ^ 2 - 2 x_98_ * x_44_ + 1 x_98_ ^ 2 + 1 y_44_ ^ 2 - 2 y_98_ * y_44_ + 1 y_98_ ^ 2 ] >= 18204.12
quadratic_ranged_555_lb: [ 1 x_50_ ^ 2 - 2 x_98_ * x_50_ + 1 x_98_ ^ 2 + 1 y_50_ ^ 2 - 2 y_98_ * y_50_ + 1 y_98_ ^ 2 ] >= 9719.82
quadratic_ranged_556_lb: [ 1 x_66_ ^ 2 - 2 x_98_ * x_66_ + 1 x_98_ ^ 2 + 1 y_66_ ^ 2 - 2 y_98_ * y_66_ + 1 y_98_ ^ 2 ] >= 5627.16
quadratic_ranged_557_lb: [ 1 x_83_ ^ 2 - 2 x_98_ * x_83_ + 1 x_98_ ^ 2 + 1 y_83_ ^ 2 - 2 y_98_ * y_83_ + 1 y_98_ ^ 2 ] >= 4186.71
quadratic_ranged_558_lb: [ 1 x_92_ ^ 2 - 2 x_98_ * x_92_ + 1 x_98_ ^ 2 + 1 y_92_ ^ 2 - 2 y_98_ * y_92_ + 1 y_98_ ^ 2 ] >= 12184.92
quadratic_ranged_559_lb: [ 1 x_95_ ^ 2 - 2 x_98_ * x_95_ + 1 x_98_ ^ 2 + 1 y_95_ ^ 2 - 2 y_98_ * y_95_ + 1 y_98_ ^ 2 ] >= 10146.51
quadratic_ranged_560_lb: [ 1 x_97_ ^ 2 - 2 x_98_ * x_97_ + 1 x_98_ ^ 2 + 1 y_97_ ^ 2 - 2 y_98_ * y_97_ + 1 y_98_ ^ 2 ] >= 21926.52
quadratic_ranged_561_lb: [ 1 x_7_ ^ 2 - 2 x_99_ * x_7_ + 1 x_99_ ^ 2 + 1 y_7_ ^ 2 - 2 y_99_ * y_7_ + 1 y_99_ ^ 2 ] >= 5683.59
quadratic_ranged_562_lb: [ 1 x_13_ ^ 2 - 2 x_99_ * x_13_ + 1 x_99_ ^ 2 + 1 y_13_ ^ 2 - 2 y_99_ * y_13_ + 1 y_99_ ^ 2 ] >= 8815.95
quadratic_ranged_563_lb: [ 1 x_19_ ^ 2 - 2 x_99_ * x_19_ + 1 x_99_ ^ 2 + 1 y_19_ ^ 2 - 2 y_99_ * y_19_ + 1 y_99_ ^ 2 ] >= 10720.71
quadratic_ranged_564_lb: [ 1 x_23_ ^ 2 - 2 x_99_ * x_23_ + 1 x_99_ ^ 2 + 1 y_23_ ^ 2 - 2 y_99_ * y_23_ + 1 y_99_ ^ 2 ] >= 40037.58
quadratic_ranged_565_lb: [ 1 x_24_ ^ 2 - 2 x_99_ * x_24_ + 1 x_99_ ^ 2 + 1 y_24_ ^ 2 - 2 y_99_ * y_24_ + 1 y_99_ ^ 2 ] >= 6023.16
quadratic_ranged_566_lb: [ 1 x_25_ ^ 2 - 2 x_99_ * x_25_ + 1 x_99_ ^ 2 + 1 y_25_ ^ 2 - 2 y_99_ * y_25_ + 1 y_99_ ^ 2 ] >= 23175.9
quadratic_ranged_567_lb: [ 1 x_26_ ^ 2 - 2 x_99_ * x_26_ + 1 x_99_ ^ 2 + 1 y_26_ ^ 2 - 2 y_99_ * y_26_ + 1 y_99_ ^ 2 ] >= 3573.9
quadratic_ranged_568_lb: [ 1 x_61_ ^ 2 - 2 x_99_ * x_61_ + 1 x_99_ ^ 2 + 1 y_61_ ^ 2 - 2 y_99_ * y_61_ + 1 y_99_ ^ 2 ] >= 27254.7
quadratic_ranged_569_lb: [ 1 x_72_ ^ 2 - 2 x_99_ * x_72_ + 1 x_99_ ^ 2 + 1 y_72_ ^ 2 - 2 y_99_ * y_72_ + 1 y_99_ ^ 2 ] >= 176.22
quadratic_ranged_570_lb: [ 1 x_82_ ^ 2 - 2 x_99_ * x_82_ + 1 x_99_ ^ 2 + 1 y_82_ ^ 2 - 2 y_99_ * y_82_ + 1 y_99_ ^ 2 ] >= 9640.62
quadratic_ranged_571_lb: [ 1 x_89_ ^ 2 - 2 x_99_ * x_89_ + 1 x_99_ ^ 2 + 1 y_89_ ^ 2 - 2 y_99_ * y_89_ + 1 y_99_ ^ 2 ] >= 6835.95
quadratic_ranged_572_lb: [ 1 x_92_ ^ 2 - 2 x_99_ * x_92_ + 1 x_99_ ^ 2 + 1 y_92_ ^ 2 - 2 y_99_ * y_92_ + 1 y_99_ ^ 2 ] >= 27645.75
quadratic_ranged_573_lb: [ 1 x_98_ ^ 2 - 2 x_99_ * x_98_ + 1 x_99_ ^ 2 + 1 y_98_ ^ 2 - 2 y_99_ * y_98_ + 1 y_99_ ^ 2 ] >= 8673.39
quadratic_ranged_574_lb: [ 1 x_1_ ^ 2 - 2 x_100_ * x_1_ + 1 x_100_ ^ 2 + 1 y_1_ ^ 2 - 2 y_100_ * y_1_ + 1 y_100_ ^ 2 ] >= 21045.42
quadratic_ranged_575_lb: [ 1 x_4_ ^ 2 - 2 x_100_ * x_4_ + 1 x_100_ ^ 2 + 1 y_4_ ^ 2 - 2 y_100_ * y_4_ + 1 y_100_ ^ 2 ] >= 16113.24
quadratic_ranged_576_lb: [ 1 x_18_ ^ 2 - 2 x_100_ * x_18_ + 1 x_100_ ^ 2 + 1 y_18_ ^ 2 - 2 y_100_ * y_18_ + 1 y_100_ ^ 2 ] >= 3207.6
quadratic_ranged_577_lb: [ 1 x_20_ ^ 2 - 2 x_100_ * x_20_ + 1 x_100_ ^ 2 + 1 y_20_ ^ 2 - 2 y_100_ * y_20_ + 1 y_100_ ^ 2 ] >= 4661.91
quadratic_ranged_578_lb: [ 1 x_37_ ^ 2 - 2 x_100_ * x_37_ + 1 x_100_ ^ 2 + 1 y_37_ ^ 2 - 2 y_100_ * y_37_ + 1 y_100_ ^ 2 ] >= 21512.7
quadratic_ranged_579_lb: [ 1 x_73_ ^ 2 - 2 x_100_ * x_73_ + 1 x_100_ ^ 2 + 1 y_73_ ^ 2 - 2 y_100_ * y_73_ + 1 y_100_ ^ 2 ] >= 11636.46
quadratic_ranged_580_lb: [ 1 x_76_ ^ 2 - 2 x_100_ * x_76_ + 1 x_100_ ^ 2 + 1 y_76_ ^ 2 - 2 y_100_ * y_76_ + 1 y_100_ ^ 2 ] >= 11560.23
quadratic_ranged_581_lb: [ 1 x_79_ ^ 2 - 2 x_100_ * x_79_ + 1 x_100_ ^ 2 + 1 y_79_ ^ 2 - 2 y_100_ * y_79_ + 1 y_100_ ^ 2 ] >= 1866.15
quadratic_ranged_582_lb: [ 1 x_80_ ^ 2 - 2 x_100_ * x_80_ + 1 x_100_ ^ 2 + 1 y_80_ ^ 2 - 2 y_100_ * y_80_ + 1 y_100_ ^ 2 ] >= 16537.95
quadratic_ranged_583_lb: [ 1 x_96_ ^ 2 - 2 x_100_ * x_96_ + 1 x_100_ ^ 2 + 1 y_96_ ^ 2 - 2 y_100_ * y_96_ + 1 y_100_ ^ 2 ] >= 4610.43
quadratic_ranged_584_lb: [ 1 x_98_ ^ 2 - 2 x_100_ * x_98_ + 1 x_100_ ^ 2 + 1 y_98_ ^ 2 - 2 y_100_ * y_98_ + 1 y_100_ ^ 2 ] >= 7654.68
quadratic_ranged_585_lb: [ 1 x_99_ ^ 2 - 2 x_100_ * x_99_ + 1 x_100_ ^ 2 + 1 y_99_ ^ 2 - 2 y_100_ * y_99_ + 1 y_100_ ^ 2 ] >= 25919.19
c1_1: 1 x_58_ = 20
c2_1: 1 y_58_ = -67
c3_1: 1 x_100_ = 60
c4_1: 1 y_100_ = 40
c5_1: 1 x_67_ = -23
c6_1: 1 y_67_ = 77
Bounds
-86 <= x_1_ <= 163
-72 <= x_2_ <= 192
-92 <= x_3_ <= 132
-68 <= x_4_ <= 63
-77 <= x_5_ <= 73
-89 <= x_6_ <= 98
-83 <= x_7_ <= 37
-53 <= x_8_ <= 93
-26 <= x_9_ <= 66
-78 <= x_10_ <= 119
-68 <= x_11_ <= 118
-121 <= x_12_ <= 144
-92 <= x_13_ <= 132
3 <= x_14_ <= 37
-87 <= x_15_ <= 133
-43 <= x_16_ <= -3
-61 <= x_17_ <= 109
3 <= x_18_ <= 91
-33 <= x_19_ <= 68
-8 <= x_20_ <= 93
-85 <= x_21_ <= 39
-36 <= x_22_ <= 76
-156 <= x_23_ <= 184
-81 <= x_24_ <= 114
-110 <= x_25_ <= 150
-54 <= x_26_ <= 33
-139 <= x_27_ <= 147
-76 <= x_28_ <= 84
-82 <= x_29_ <= 122
-86 <= x_30_ <= 126
-119 <= x_31_ <= 163
-136 <= x_32_ <= 160
-54 <= x_33_ <= 94
-108 <= x_34_ <= 157
1 <= x_35_ <= 39
-105 <= x_36_ <= 128
-37 <= x_37_ <= 77
-114 <= x_38_ <= 149
-82 <= x_39_ <= 122
-44 <= x_40_ <= 93
-55 <= x_41_ <= 96
-54 <= x_42_ <= 94
-63 <= x_43_ <= 97
-158 <= x_44_ <= 177
-141 <= x_45_ <= 152
-103 <= x_46_ <= 118
-87 <= x_47_ <= 124
-118 <= x_48_ <= 133
-103 <= x_49_ <= 57
-97 <= x_50_ <= 51
-44 <= x_51_ <= -2
-94 <= x_52_ <= 72
-163 <= x_53_ <= 203
-120 <= x_54_ <= 160
-123 <= x_55_ <= 160
-176 <= x_56_ <= 165
-92 <= x_57_ <= 132
x_58_ = 20
-70 <= x_59_ <= 24
-87 <= x_60_ <= 86
-75 <= x_61_ <= 115
-57 <= x_62_ <= 67
-135 <= x_63_ <= 89
-115 <= x_64_ <= 154
-54 <= x_65_ <= 8
-104 <= x_66_ <= 92
x_67_ = -23
-86 <= x_68_ <= 126
-95 <= x_69_ <= 152
-67 <= x_70_ <= 107
-100 <= x_71_ <= 149
-88 <= x_72_ <= 42
-28 <= x_73_ <= 68
-76 <= x_74_ <= 73
-45 <= x_75_ <= 85
-48 <= x_76_ <= 151
-119 <= x_77_ <= 138
-83 <= x_78_ <= 123
17 <= x_79_ <= 103
-68 <= x_80_ <= 108
-125 <= x_81_ <= 113
-66 <= x_82_ <= 20
-73 <= x_83_ <= 111
-82 <= x_84_ <= 116
-72 <= x_85_ <= 112
-131 <= x_86_ <= 171
-95 <= x_87_ <= 81
-128 <= x_88_ <= 117
-83 <= x_89_ <= 37
-154 <= x_90_ <= 157
-108 <= x_91_ <= 148
-62 <= x_92_ <= 112
-84 <= x_93_ <= 124
-100 <= x_94_ <= 138
-73 <= x_95_ <= 113
-8 <= x_96_ <= 128
-147 <= x_97_ <= 218
-28 <= x_98_ <= 110
-102 <= x_99_ <= 56
x_100_ = 60
-106 <= y_1_ <= 76
-92 <= y_2_ <= 111
-82 <= y_3_ <= 45
-9 <= y_4_ <= 122
-19 <= y_5_ <= 113
-44 <= y_6_ <= 52
17 <= y_7_ <= 94
-71 <= y_8_ <= 6
-71 <= y_9_ <= -21
-65 <= y_10_ <= 100
-64 <= y_11_ <= 82
-90 <= y_12_ <= 101
-94 <= y_13_ <= 45
-81 <= y_14_ <= -50
-79 <= y_15_ <= 60
57 <= y_16_ <= 88
-55 <= y_17_ <= 52
-17 <= y_18_ <= 71
-14 <= y_19_ <= 17
-28 <= y_20_ <= 42
15 <= y_21_ <= 95
-91 <= y_22_ <= -11
-130 <= y_23_ <= 109
-60 <= y_24_ <= 65
-100 <= y_25_ <= 63
21 <= y_26_ <= 116
-93 <= y_27_ <= 93
-30 <= y_28_ <= 82
-115 <= y_29_ <= 35
-86 <= y_30_ <= 39
-109 <= y_31_ <= 92
-106 <= y_32_ <= 89
-43 <= y_33_ <= 7
-103 <= y_34_ <= 79
-86 <= y_35_ <= -48
-74 <= y_36_ <= 58
-107 <= y_37_ <= -10
-95 <= y_38_ <= 84
-95 <= y_39_ <= 35
-39 <= y_40_ <= 78
-42 <= y_41_ <= 57
-124 <= y_42_ <= 7
-43 <= y_43_ <= 47
-123 <= y_44_ <= 119
-98 <= y_45_ <= 94
-64 <= y_46_ <= 56
-70 <= y_47_ <= 63
-79 <= y_48_ <= 71
-3 <= y_49_ <= 145
3 <= y_50_ <= 126
56 <= y_51_ <= 98
-18 <= y_52_ <= 47
-171 <= y_53_ <= 116
-127 <= y_54_ <= 73
-106 <= y_55_ <= 109
-111 <= y_56_ <= 131
-118 <= y_57_ <= 45
y_58_ = -67
30 <= y_59_ <= 84
-32 <= y_60_ <= 114
-99 <= y_61_ <= 28
-13 <= y_62_ <= 41
-35 <= y_63_ <= 95
-100 <= y_64_ <= 68
46 <= y_65_ <= 90
-38 <= y_66_ <= 118
y_67_ = 77
-76 <= y_68_ <= 39
-98 <= y_69_ <= 102
-154 <= y_70_ <= 20
-120 <= y_71_ <= 62
12 <= y_72_ <= 108
-68 <= y_73_ <= -19
-19 <= y_74_ <= 29
-115 <= y_75_ <= -2
-68 <= y_76_ <= 81
-84 <= y_77_ <= 72
-139 <= y_78_ <= 36
-3 <= y_79_ <= 83
-89 <= y_80_ <= 21
-59 <= y_81_ <= 78
34 <= y_82_ <= 82
-57 <= y_83_ <= 26
-62 <= y_84_ <= 66
-94 <= y_85_ <= 25
-121 <= y_86_ <= 84
-27 <= y_87_ <= 79
-63 <= y_88_ <= 126
17 <= y_89_ <= 97
-103 <= y_90_ <= 107
-104 <= y_91_ <= 61
-58 <= y_92_ <= 88
-98 <= y_93_ <= 37
-84 <= y_94_ <= 89
-104 <= y_95_ <= 26
-28 <= y_96_ <= 108
-164 <= y_97_ <= 145
-48 <= y_98_ <= 84
-2 <= y_99_ <= 121
y_100_ = 40
General
x_1_
x_2_
x_3_
x_4_
x_5_
x_6_
x_7_
x_8_
x_9_
x_10_
x_11_
x_12_
x_13_
x_14_
x_15_
x_16_
x_17_
x_18_
x_19_
x_20_
x_21_
x_22_
x_23_
x_24_
x_25_
x_26_
x_27_
x_28_
x_29_
x_30_
x_31_
x_32_
x_33_
x_34_
x_35_
x_36_
x_37_
x_38_
x_39_
x_40_
x_41_
x_42_
x_43_
x_44_
x_45_
x_46_
x_47_
x_48_
x_49_
x_50_
x_51_
x_52_
x_53_
x_54_
x_55_
x_56_
x_57_
x_58_
x_59_
x_60_
x_61_
x_62_
x_63_
x_64_
x_65_
x_66_
x_67_
x_68_
x_69_
x_70_
x_71_
x_72_
x_73_
x_74_
x_75_
x_76_
x_77_
x_78_
x_79_
x_80_
x_81_
x_82_
x_83_
x_84_
x_85_
x_86_
x_87_
x_88_
x_89_
x_90_
x_91_
x_92_
x_93_
x_94_
x_95_
x_96_
x_97_
x_98_
x_99_
x_100_
y_1_
y_2_
y_3_
y_4_
y_5_
y_6_
y_7_
y_8_
y_9_
y_10_
y_11_
y_12_
y_13_
y_14_
y_15_
y_16_
y_17_
y_18_
y_19_
y_20_
y_21_
y_22_
y_23_
y_24_
y_25_
y_26_
y_27_
y_28_
y_29_
y_30_
y_31_
y_32_
y_33_
y_34_
y_35_
y_36_
y_37_
y_38_
y_39_
y_40_
y_41_
y_42_
y_43_
y_44_
y_45_
y_46_
y_47_
y_48_
y_49_
y_50_
y_51_
y_52_
y_53_
y_54_
y_55_
y_56_
y_57_
y_58_
y_59_
y_60_
y_61_
y_62_
y_63_
y_64_
y_65_
y_66_
y_67_
y_68_
y_69_
y_70_
y_71_
y_72_
y_73_
y_74_
y_75_
y_76_
y_77_
y_78_
y_79_
y_80_
y_81_
y_82_
y_83_
y_84_
y_85_
y_86_
y_87_
y_88_
y_89_
y_90_
y_91_
y_92_
y_93_
y_94_
y_95_
y_96_
y_97_
y_98_
y_99_
y_100_
End
