minimize
obj: 
subject to
c1_3: -1 x_30_ + 1 y_30_ <= 0
c1: [ 1 x_1_ ^ 2 + 1 y_1_ ^ 2 ] <= 24526.29258307038
c2: [ 1 x_2_ ^ 2 + 1 y_2_ ^ 2 ] <= 17711.359999999997
c3: [ 1 x_3_ ^ 2 + 1 y_3_ ^ 2 ] <= 24651.2771787002
c4: [ 1 x_4_ ^ 2 + 1 y_4_ ^ 2 ] <= 33288.551597640544
c5: [ 1 x_5_ ^ 2 + 1 y_5_ ^ 2 ] <= 30914.551715226648
c6: [ 1 x_6_ ^ 2 + 1 y_6_ ^ 2 ] <= 18552.825557353575
c7: [ 1 x_7_ ^ 2 + 1 y_7_ ^ 2 ] <= 14830.382286822745
c8: [ 1 x_8_ ^ 2 + 1 y_8_ ^ 2 ] <= 9016.557854579742
c9: [ 1 x_9_ ^ 2 + 1 y_9_ ^ 2 ] <= 8832.958264193983
c10: [ 1 x_10_ ^ 2 + 1 y_10_ ^ 2 ] <= 17155.613309543685
c11: [ 1 x_11_ ^ 2 + 1 y_11_ ^ 2 ] <= 2458.3399999999997
c12: [ 1 x_12_ ^ 2 + 1 y_12_ ^ 2 ] <= 15117.34799908847
c13: [ 1 x_13_ ^ 2 + 1 y_13_ ^ 2 ] <= 9603.148288604263
c14: [ 1 x_14_ ^ 2 + 1 y_14_ ^ 2 ] <= 6258.969999999999
c15: [ 1 x_16_ ^ 2 + 1 y_16_ ^ 2 ] <= 27055.879999999997
c16: [ 1 x_17_ ^ 2 + 1 y_17_ ^ 2 ] <= 20134.440969526877
c17: [ 1 x_18_ ^ 2 + 1 y_18_ ^ 2 ] <= 21752.914416560114
c18: [ 1 x_19_ ^ 2 + 1 y_19_ ^ 2 ] <= 14498.71813500662
c19: [ 1 x_20_ ^ 2 + 1 y_20_ ^ 2 ] <= 23380.087840722546
c20: [ 1 x_21_ ^ 2 + 1 y_21_ ^ 2 ] <= 21354.280755366242
c21: [ 1 x_22_ ^ 2 + 1 y_22_ ^ 2 ] <= 17018.499999999996
c22: [ 1 x_23_ ^ 2 + 1 y_23_ ^ 2 ] <= 17681.39252720902
c23: [ 1 x_24_ ^ 2 + 1 y_24_ ^ 2 ] <= 14239.911493429416
c24: [ 1 x_25_ ^ 2 + 1 y_25_ ^ 2 ] <= 28734.338321243118
c25: [ 1 x_26_ ^ 2 + 1 y_26_ ^ 2 ] <= 12813.532523903685
c26: [ 1 x_27_ ^ 2 + 1 y_27_ ^ 2 ] <= 24084.074529356923
c27: [ 1 x_28_ ^ 2 + 1 y_28_ ^ 2 ] <= 25407.81379920704
c28: [ 1 x_29_ ^ 2 + 1 y_29_ ^ 2 ] <= 18427.09752341469
c29: [ 1 x_30_ ^ 2 + 1 y_30_ ^ 2 ] <= 40800.64878695904
c30: [ 1 x_31_ ^ 2 + 1 y_31_ ^ 2 ] <= 7891.138211246424
c31: [ 1 x_32_ ^ 2 + 1 y_32_ ^ 2 ] <= 7640.649999999999
c32: [ 1 x_33_ ^ 2 + 1 y_33_ ^ 2 ] <= 13987.050518311784
c33: [ 1 x_34_ ^ 2 + 1 y_34_ ^ 2 ] <= 3767.5853313219377
c34: [ 1 x_35_ ^ 2 + 1 y_35_ ^ 2 ] <= 20743.28805987163
c35: [ 1 x_36_ ^ 2 + 1 y_36_ ^ 2 ] <= 15687.16107092015
c36: [ 1 x_37_ ^ 2 + 1 y_37_ ^ 2 ] <= 25220.574827164462
c37: [ 1 x_38_ ^ 2 + 1 y_38_ ^ 2 ] <= 8251.021665566306
c38: [ 1 x_39_ ^ 2 + 1 y_39_ ^ 2 ] <= 17697.949250525806
c39: [ 1 x_40_ ^ 2 + 1 y_40_ ^ 2 ] <= 23741.266319324463
c40: [ 1 x_41_ ^ 2 + 1 y_41_ ^ 2 ] <= 29211.882926817092
c41: [ 1 x_42_ ^ 2 + 1 y_42_ ^ 2 ] <= 30732.009093077013
c42: [ 1 x_43_ ^ 2 + 1 y_43_ ^ 2 ] <= 20148.39251057235
c43: [ 1 x_44_ ^ 2 + 1 y_44_ ^ 2 ] <= 6763.969999999999
c44: [ 1 x_45_ ^ 2 + 1 y_45_ ^ 2 ] <= 4400.57
c45: [ 1 x_46_ ^ 2 + 1 y_46_ ^ 2 ] <= 25605.28428185385
c46: [ 1 x_47_ ^ 2 + 1 y_47_ ^ 2 ] <= 10117.95711493097
c47: [ 1 x_48_ ^ 2 + 1 y_48_ ^ 2 ] <= 17238.903721877996
c48: [ 1 x_49_ ^ 2 + 1 y_49_ ^ 2 ] <= 18140.59567881265
c49: [ 1 x_50_ ^ 2 + 1 y_50_ ^ 2 ] <= 18566.59065371944
c50: [ 1 x_51_ ^ 2 + 1 y_51_ ^ 2 ] <= 16531.254944631044
c51: [ 1 x_52_ ^ 2 + 1 y_52_ ^ 2 ] <= 38976.025691101066
c52: [ 1 x_53_ ^ 2 + 1 y_53_ ^ 2 ] <= 17835.00873812591
c53: [ 1 x_54_ ^ 2 + 1 y_54_ ^ 2 ] <= 26062.021191814456
c54: [ 1 x_55_ ^ 2 + 1 y_55_ ^ 2 ] <= 11899.18447199517
c55: [ 1 x_56_ ^ 2 + 1 y_56_ ^ 2 ] <= 10419.2901436239
c56: [ 1 x_57_ ^ 2 + 1 y_57_ ^ 2 ] <= 30876.52111943912
c57: [ 1 x_58_ ^ 2 + 1 y_58_ ^ 2 ] <= 27762.765433006087
c58: [ 1 x_59_ ^ 2 + 1 y_59_ ^ 2 ] <= 449.45000000000005
c59: [ 1 x_60_ ^ 2 + 1 y_60_ ^ 2 ] <= 9938.549427601281
c60: [ 1 x_61_ ^ 2 + 1 y_61_ ^ 2 ] <= 21346.24447599746
c61: [ 1 x_62_ ^ 2 + 1 y_62_ ^ 2 ] <= 16071.745921181988
c62: [ 1 x_63_ ^ 2 + 1 y_63_ ^ 2 ] <= 16245.868649715492
c63: [ 1 x_64_ ^ 2 + 1 y_64_ ^ 2 ] <= 12088.689999999997
c64: [ 1 x_65_ ^ 2 + 1 y_65_ ^ 2 ] <= 29286.362651272328
c65: [ 1 x_66_ ^ 2 + 1 y_66_ ^ 2 ] <= 16597.3185757566
c66: [ 1 x_67_ ^ 2 + 1 y_67_ ^ 2 ] <= 10577.727294297045
c67: [ 1 x_68_ ^ 2 + 1 y_68_ ^ 2 ] <= 25608.406424666995
c68: [ 1 x_69_ ^ 2 + 1 y_69_ ^ 2 ] <= 21721.059999999994
c69: [ 1 x_70_ ^ 2 + 1 y_70_ ^ 2 ] <= 6538.592886832697
c70: [ 1 x_71_ ^ 2 + 1 y_71_ ^ 2 ] <= 2886.5799999999995
c71: [ 1 x_72_ ^ 2 + 1 y_72_ ^ 2 ] <= 11241.278217067775
c72: [ 1 x_73_ ^ 2 + 1 y_73_ ^ 2 ] <= 11117.092837297918
c73: [ 1 x_74_ ^ 2 + 1 y_74_ ^ 2 ] <= 9200.09
c74: [ 1 x_75_ ^ 2 + 1 y_75_ ^ 2 ] <= 20383.626056212284
c75: [ 1 x_76_ ^ 2 + 1 y_76_ ^ 2 ] <= 25908.28923359911
c76: [ 1 x_77_ ^ 2 + 1 y_77_ ^ 2 ] <= 25215.84414414146
c77: [ 1 x_78_ ^ 2 + 1 y_78_ ^ 2 ] <= 14831.994283982203
c78: [ 1 x_79_ ^ 2 + 1 y_79_ ^ 2 ] <= 17231.37744302148
c79: [ 1 x_80_ ^ 2 + 1 y_80_ ^ 2 ] <= 17739.973292124858
c80: [ 1 x_81_ ^ 2 + 1 y_81_ ^ 2 ] <= 21173.256712449238
c81: [ 1 x_82_ ^ 2 + 1 y_82_ ^ 2 ] <= 13230.47039359078
c82: [ 1 x_83_ ^ 2 + 1 y_83_ ^ 2 ] <= 19260.937761753346
c83: [ 1 x_84_ ^ 2 + 1 y_84_ ^ 2 ] <= 14648.865057738218
c84: [ 1 x_85_ ^ 2 + 1 y_85_ ^ 2 ] <= 7346.770718346417
c85: [ 1 x_86_ ^ 2 + 1 y_86_ ^ 2 ] <= 22483.21005993251
c86: [ 1 x_87_ ^ 2 + 1 y_87_ ^ 2 ] <= 22497.420749392637
c87: [ 1 x_88_ ^ 2 + 1 y_88_ ^ 2 ] <= 26292.05468033546
c88: [ 1 x_89_ ^ 2 + 1 y_89_ ^ 2 ] <= 10969.610503238635
c89: [ 1 x_90_ ^ 2 + 1 y_90_ ^ 2 ] <= 23566.19438673963
c90: [ 1 x_91_ ^ 2 + 1 y_91_ ^ 2 ] <= 11008.999999999998
c91: [ 1 x_92_ ^ 2 + 1 y_92_ ^ 2 ] <= 16637.191282333966
c92: [ 1 x_93_ ^ 2 + 1 y_93_ ^ 2 ] <= 6014.262920789251
c93: [ 1 x_94_ ^ 2 + 1 y_94_ ^ 2 ] <= 18303.22
c94: [ 1 x_95_ ^ 2 + 1 y_95_ ^ 2 ] <= 19945.975419372775
c95: [ 1 x_96_ ^ 2 + 1 y_96_ ^ 2 ] <= 17738.130524521002
c96: [ 1 x_97_ ^ 2 + 1 y_97_ ^ 2 ] <= 12733.326871097988
c97: [ 1 x_98_ ^ 2 + 1 y_98_ ^ 2 ] <= 16228.506037345498
c98: [ 1 x_99_ ^ 2 + 1 y_99_ ^ 2 ] <= 23964.29758891981
c99: [ 1 x_100_ ^ 2 + 1 y_100_ ^ 2 ] <= 11766.5
quadratic_ranged_1_ub: [ 1 x_1_ ^ 2 - 2 x_2_ * x_1_ + 1 x_2_ ^ 2 + 1 y_1_ ^ 2 - 2 y_2_ * y_1_ + 1 y_2_ ^ 2 ] <= 7476.02
quadratic_ranged_2_ub: [ 1 x_2_ ^ 2 - 2 x_3_ * x_2_ + 1 x_3_ ^ 2 + 1 y_2_ ^ 2 - 2 y_3_ * y_2_ + 1 y_3_ ^ 2 ] <= 28570.88
quadratic_ranged_3_ub: [ 1 x_1_ ^ 2 - 2 x_4_ * x_1_ + 1 x_4_ ^ 2 + 1 y_1_ ^ 2 - 2 y_4_ * y_1_ + 1 y_4_ ^ 2 ] <= 9095.05
quadratic_ranged_4_ub: [ 1 x_3_ ^ 2 - 2 x_4_ * x_3_ + 1 x_4_ ^ 2 + 1 y_3_ ^ 2 - 2 y_4_ * y_3_ + 1 y_4_ ^ 2 ] <= 647.41
quadratic_ranged_5_ub: [ 1 x_4_ ^ 2 - 2 x_5_ * x_4_ + 1 x_5_ ^ 2 + 1 y_4_ ^ 2 - 2 y_5_ * y_4_ + 1 y_5_ ^ 2 ] <= 31262.53
quadratic_ranged_6_ub: [ 1 x_1_ ^ 2 - 2 x_6_ * x_1_ + 1 x_6_ ^ 2 + 1 y_1_ ^ 2 - 2 y_6_ * y_1_ + 1 y_6_ ^ 2 ] <= 14629.85
quadratic_ranged_7_ub: [ 1 x_5_ ^ 2 - 2 x_6_ * x_5_ + 1 x_6_ ^ 2 + 1 y_5_ ^ 2 - 2 y_6_ * y_5_ + 1 y_6_ ^ 2 ] <= 1891.73
quadratic_ranged_8_ub: [ 1 x_6_ ^ 2 - 2 x_7_ * x_6_ + 1 x_7_ ^ 2 + 1 y_6_ ^ 2 - 2 y_7_ * y_6_ + 1 y_7_ ^ 2 ] <= 14321.8
quadratic_ranged_9_ub: [ 1 x_7_ ^ 2 - 2 x_8_ * x_7_ + 1 x_8_ ^ 2 + 1 y_7_ ^ 2 - 2 y_8_ * y_7_ + 1 y_8_ ^ 2 ] <= 8170.9
quadratic_ranged_10_ub: [ 1 x_7_ ^ 2 - 2 x_9_ * x_7_ + 1 x_9_ ^ 2 + 1 y_7_ ^ 2 - 2 y_9_ * y_7_ + 1 y_9_ ^ 2 ] <= 4335.93
quadratic_ranged_11_ub: [ 1 x_8_ ^ 2 - 2 x_9_ * x_8_ + 1 x_9_ ^ 2 + 1 y_8_ ^ 2 - 2 y_9_ * y_8_ + 1 y_9_ ^ 2 ] <= 20851.45
quadratic_ranged_12_ub: [ 1 x_2_ ^ 2 - 2 x_10_ * x_2_ + 1 x_10_ ^ 2 + 1 y_2_ ^ 2 - 2 y_10_ * y_2_ + 1 y_10_ ^ 2 ] <= 25825.7
quadratic_ranged_13_ub: [ 1 x_3_ ^ 2 - 2 x_10_ * x_3_ + 1 x_10_ ^ 2 + 1 y_3_ ^ 2 - 2 y_10_ * y_3_ + 1 y_10_ ^ 2 ] <= 16452.9
quadratic_ranged_14_ub: [ 1 x_9_ ^ 2 - 2 x_10_ * x_9_ + 1 x_10_ ^ 2 + 1 y_9_ ^ 2 - 2 y_10_ * y_9_ + 1 y_10_ ^ 2 ] <= 14311.7
quadratic_ranged_15_ub: [ 1 x_3_ ^ 2 - 2 x_11_ * x_3_ + 1 x_11_ ^ 2 + 1 y_3_ ^ 2 - 2 y_11_ * y_3_ + 1 y_11_ ^ 2 ] <= 11540.26
quadratic_ranged_16_ub: [ 1 x_7_ ^ 2 - 2 x_11_ * x_7_ + 1 x_11_ ^ 2 + 1 y_7_ ^ 2 - 2 y_11_ * y_7_ + 1 y_11_ ^ 2 ] <= 5212.61
quadratic_ranged_17_ub: [ 1 x_8_ ^ 2 - 2 x_11_ * x_8_ + 1 x_11_ ^ 2 + 1 y_8_ ^ 2 - 2 y_11_ * y_8_ + 1 y_11_ ^ 2 ] <= 4109.69
quadratic_ranged_18_ub: [ 1 x_10_ ^ 2 - 2 x_11_ * x_10_ + 1 x_11_ ^ 2 + 1 y_10_ ^ 2 - 2 y_11_ * y_10_ + 1 y_11_ ^ 2 ] <= 6625.6
quadratic_ranged_19_ub: [ 1 x_3_ ^ 2 - 2 x_12_ * x_3_ + 1 x_12_ ^ 2 + 1 y_3_ ^ 2 - 2 y_12_ * y_3_ + 1 y_12_ ^ 2 ] <= 19335.44
quadratic_ranged_20_ub: [ 1 x_8_ ^ 2 - 2 x_12_ * x_8_ + 1 x_12_ ^ 2 + 1 y_8_ ^ 2 - 2 y_12_ * y_8_ + 1 y_12_ ^ 2 ] <= 16132.73
quadratic_ranged_21_ub: [ 1 x_11_ ^ 2 - 2 x_12_ * x_11_ + 1 x_12_ ^ 2 + 1 y_11_ ^ 2 - 2 y_12_ * y_11_ + 1 y_12_ ^ 2 ] <= 5383.3
quadratic_ranged_22_ub: [ 1 x_12_ ^ 2 - 2 x_13_ * x_12_ + 1 x_13_ ^ 2 + 1 y_12_ ^ 2 - 2 y_13_ * y_12_ + 1 y_13_ ^ 2 ] <= 2731.04
quadratic_ranged_23_ub: [ 1 x_2_ ^ 2 - 2 x_14_ * x_2_ + 1 x_14_ ^ 2 + 1 y_2_ ^ 2 - 2 y_14_ * y_2_ + 1 y_14_ ^ 2 ] <= 7697.21
quadratic_ranged_24_ub: [ 1 x_8_ ^ 2 - 2 x_14_ * x_8_ + 1 x_14_ ^ 2 + 1 y_8_ ^ 2 - 2 y_14_ * y_8_ + 1 y_14_ ^ 2 ] <= 14836.9
quadratic_ranged_25_ub: [ 1 x_13_ ^ 2 - 2 x_14_ * x_13_ + 1 x_14_ ^ 2 + 1 y_13_ ^ 2 - 2 y_14_ * y_13_ + 1 y_14_ ^ 2 ] <= 356.53000000000003
quadratic_ranged_26_ub: [ 1 x_2_ ^ 2 - 2 x_15_ * x_2_ + 1 x_15_ ^ 2 + 1 y_2_ ^ 2 - 2 y_15_ * y_2_ + 1 y_15_ ^ 2 ] <= 17711.36
quadratic_ranged_27_ub: [ 1 x_11_ ^ 2 - 2 x_15_ * x_11_ + 1 x_15_ ^ 2 + 1 y_11_ ^ 2 - 2 y_15_ * y_11_ + 1 y_15_ ^ 2 ] <= 2458.34
quadratic_ranged_28_ub: [ 1 x_14_ ^ 2 - 2 x_15_ * x_14_ + 1 x_15_ ^ 2 + 1 y_14_ ^ 2 - 2 y_15_ * y_14_ + 1 y_15_ ^ 2 ] <= 6258.97
quadratic_ranged_29_ub: [ 1 x_2_ ^ 2 - 2 x_16_ * x_2_ + 1 x_16_ ^ 2 + 1 y_2_ ^ 2 - 2 y_16_ * y_2_ + 1 y_16_ ^ 2 ] <= 1361.48
quadratic_ranged_30_ub: [ 1 x_6_ ^ 2 - 2 x_16_ * x_6_ + 1 x_16_ ^ 2 + 1 y_6_ ^ 2 - 2 y_16_ * y_6_ + 1 y_16_ ^ 2 ] <= 13781.45
quadratic_ranged_31_ub: [ 1 x_7_ ^ 2 - 2 x_16_ * x_7_ + 1 x_16_ ^ 2 + 1 y_7_ ^ 2 - 2 y_16_ * y_7_ + 1 y_16_ ^ 2 ] <= 34591.49
quadratic_ranged_32_ub: [ 1 x_12_ ^ 2 - 2 x_16_ * x_12_ + 1 x_16_ ^ 2 + 1 y_12_ ^ 2 - 2 y_16_ * y_12_ + 1 y_16_ ^ 2 ] <= 2525
quadratic_ranged_33_ub: [ 1 x_15_ ^ 2 - 2 x_16_ * x_15_ + 1 x_16_ ^ 2 + 1 y_15_ ^ 2 - 2 y_16_ * y_15_ + 1 y_16_ ^ 2 ] <= 27055.88
quadratic_ranged_34_ub: [ 1 x_1_ ^ 2 - 2 x_17_ * x_1_ + 1 x_17_ ^ 2 + 1 y_1_ ^ 2 - 2 y_17_ * y_1_ + 1 y_17_ ^ 2 ] <= 29786.920000000002
quadratic_ranged_35_ub: [ 1 x_11_ ^ 2 - 2 x_17_ * x_11_ + 1 x_17_ ^ 2 + 1 y_11_ ^ 2 - 2 y_17_ * y_11_ + 1 y_17_ ^ 2 ] <= 10617.12
quadratic_ranged_36_ub: [ 1 x_14_ ^ 2 - 2 x_17_ * x_14_ + 1 x_17_ ^ 2 + 1 y_14_ ^ 2 - 2 y_17_ * y_14_ + 1 y_17_ ^ 2 ] <= 25760.05
quadratic_ranged_37_ub: [ 1 x_16_ ^ 2 - 2 x_17_ * x_16_ + 1 x_17_ ^ 2 + 1 y_16_ ^ 2 - 2 y_17_ * y_16_ + 1 y_17_ ^ 2 ] <= 31901.86
quadratic_ranged_38_ub: [ 1 x_13_ ^ 2 - 2 x_18_ * x_13_ + 1 x_18_ ^ 2 + 1 y_13_ ^ 2 - 2 y_18_ * y_13_ + 1 y_18_ ^ 2 ] <= 16185.25
quadratic_ranged_39_ub: [ 1 x_17_ ^ 2 - 2 x_18_ * x_17_ + 1 x_18_ ^ 2 + 1 y_17_ ^ 2 - 2 y_18_ * y_17_ + 1 y_18_ ^ 2 ] <= 18762.77
quadratic_ranged_40_ub: [ 1 x_10_ ^ 2 - 2 x_19_ * x_10_ + 1 x_19_ ^ 2 + 1 y_10_ ^ 2 - 2 y_19_ * y_10_ + 1 y_19_ ^ 2 ] <= 7894.16
quadratic_ranged_41_ub: [ 1 x_18_ ^ 2 - 2 x_19_ * x_18_ + 1 x_19_ ^ 2 + 1 y_18_ ^ 2 - 2 y_19_ * y_18_ + 1 y_19_ ^ 2 ] <= 15761.05
quadratic_ranged_42_ub: [ 1 x_2_ ^ 2 - 2 x_20_ * x_2_ + 1 x_20_ ^ 2 + 1 y_2_ ^ 2 - 2 y_20_ * y_2_ + 1 y_20_ ^ 2 ] <= 392.89
quadratic_ranged_43_ub: [ 1 x_19_ ^ 2 - 2 x_20_ * x_19_ + 1 x_20_ ^ 2 + 1 y_19_ ^ 2 - 2 y_20_ * y_19_ + 1 y_20_ ^ 2 ] <= 8517.33
quadratic_ranged_44_ub: [ 1 x_7_ ^ 2 - 2 x_21_ * x_7_ + 1 x_21_ ^ 2 + 1 y_7_ ^ 2 - 2 y_21_ * y_7_ + 1 y_21_ ^ 2 ] <= 19926.29
quadratic_ranged_45_ub: [ 1 x_8_ ^ 2 - 2 x_21_ * x_8_ + 1 x_21_ ^ 2 + 1 y_8_ ^ 2 - 2 y_21_ * y_8_ + 1 y_21_ ^ 2 ] <= 2618.93
quadratic_ranged_46_ub: [ 1 x_20_ ^ 2 - 2 x_21_ * x_20_ + 1 x_21_ ^ 2 + 1 y_20_ ^ 2 - 2 y_21_ * y_20_ + 1 y_21_ ^ 2 ] <= 19865.69
quadratic_ranged_47_ub: [ 1 x_15_ ^ 2 - 2 x_22_ * x_15_ + 1 x_22_ ^ 2 + 1 y_15_ ^ 2 - 2 y_22_ * y_15_ + 1 y_22_ ^ 2 ] <= 17018.5
quadratic_ranged_48_ub: [ 1 x_21_ ^ 2 - 2 x_22_ * x_21_ + 1 x_22_ ^ 2 + 1 y_21_ ^ 2 - 2 y_22_ * y_21_ + 1 y_22_ ^ 2 ] <= 1313
quadratic_ranged_49_ub: [ 1 x_6_ ^ 2 - 2 x_23_ * x_6_ + 1 x_23_ ^ 2 + 1 y_6_ ^ 2 - 2 y_23_ * y_6_ + 1 y_23_ ^ 2 ] <= 1361.48
quadratic_ranged_50_ub: [ 1 x_11_ ^ 2 - 2 x_23_ * x_11_ + 1 x_23_ ^ 2 + 1 y_11_ ^ 2 - 2 y_23_ * y_11_ + 1 y_23_ ^ 2 ] <= 6953.85
quadratic_ranged_51_ub: [ 1 x_16_ ^ 2 - 2 x_23_ * x_16_ + 1 x_23_ ^ 2 + 1 y_16_ ^ 2 - 2 y_23_ * y_16_ + 1 y_23_ ^ 2 ] <= 8464.81
quadratic_ranged_52_ub: [ 1 x_22_ ^ 2 - 2 x_23_ * x_22_ + 1 x_23_ ^ 2 + 1 y_22_ ^ 2 - 2 y_23_ * y_22_ + 1 y_23_ ^ 2 ] <= 1043.33
quadratic_ranged_53_ub: [ 1 x_1_ ^ 2 - 2 x_24_ * x_1_ + 1 x_24_ ^ 2 + 1 y_1_ ^ 2 - 2 y_24_ * y_1_ + 1 y_24_ ^ 2 ] <= 29851.56
quadratic_ranged_54_ub: [ 1 x_3_ ^ 2 - 2 x_24_ * x_3_ + 1 x_24_ ^ 2 + 1 y_3_ ^ 2 - 2 y_24_ * y_3_ + 1 y_24_ ^ 2 ] <= 16816.5
quadratic_ranged_55_ub: [ 1 x_4_ ^ 2 - 2 x_24_ * x_4_ + 1 x_24_ ^ 2 + 1 y_4_ ^ 2 - 2 y_24_ * y_4_ + 1 y_24_ ^ 2 ] <= 10925.17
quadratic_ranged_56_ub: [ 1 x_18_ ^ 2 - 2 x_24_ * x_18_ + 1 x_24_ ^ 2 + 1 y_18_ ^ 2 - 2 y_24_ * y_18_ + 1 y_24_ ^ 2 ] <= 792.85
quadratic_ranged_57_ub: [ 1 x_22_ ^ 2 - 2 x_24_ * x_22_ + 1 x_24_ ^ 2 + 1 y_22_ ^ 2 - 2 y_24_ * y_22_ + 1 y_24_ ^ 2 ] <= 30098
quadratic_ranged_58_ub: [ 1 x_23_ ^ 2 - 2 x_24_ * x_23_ + 1 x_24_ ^ 2 + 1 y_23_ ^ 2 - 2 y_24_ * y_23_ + 1 y_24_ ^ 2 ] <= 34110.73
quadratic_ranged_59_ub: [ 1 x_1_ ^ 2 - 2 x_25_ * x_1_ + 1 x_25_ ^ 2 + 1 y_1_ ^ 2 - 2 y_25_ * y_1_ + 1 y_25_ ^ 2 ] <= 19379.88
quadratic_ranged_60_ub: [ 1 x_17_ ^ 2 - 2 x_25_ * x_17_ + 1 x_25_ ^ 2 + 1 y_17_ ^ 2 - 2 y_25_ * y_17_ + 1 y_25_ ^ 2 ] <= 1826.08
quadratic_ranged_61_ub: [ 1 x_23_ ^ 2 - 2 x_25_ * x_23_ + 1 x_25_ ^ 2 + 1 y_23_ ^ 2 - 2 y_25_ * y_23_ + 1 y_25_ ^ 2 ] <= 8513.29
quadratic_ranged_62_ub: [ 1 x_24_ ^ 2 - 2 x_25_ * x_24_ + 1 x_25_ ^ 2 + 1 y_24_ ^ 2 - 2 y_25_ * y_24_ + 1 y_25_ ^ 2 ] <= 9453.6
quadratic_ranged_63_ub: [ 1 x_23_ ^ 2 - 2 x_26_ * x_23_ + 1 x_26_ ^ 2 + 1 y_23_ ^ 2 - 2 y_26_ * y_23_ + 1 y_26_ ^ 2 ] <= 20596.93
quadratic_ranged_64_ub: [ 1 x_25_ ^ 2 - 2 x_26_ * x_25_ + 1 x_26_ ^ 2 + 1 y_25_ ^ 2 - 2 y_26_ * y_25_ + 1 y_26_ ^ 2 ] <= 3171.4
quadratic_ranged_65_ub: [ 1 x_6_ ^ 2 - 2 x_27_ * x_6_ + 1 x_27_ ^ 2 + 1 y_6_ ^ 2 - 2 y_27_ * y_6_ + 1 y_27_ ^ 2 ] <= 13615.81
quadratic_ranged_66_ub: [ 1 x_21_ ^ 2 - 2 x_27_ * x_21_ + 1 x_27_ ^ 2 + 1 y_21_ ^ 2 - 2 y_27_ * y_21_ + 1 y_27_ ^ 2 ] <= 18206.26
quadratic_ranged_67_ub: [ 1 x_26_ ^ 2 - 2 x_27_ * x_26_ + 1 x_27_ ^ 2 + 1 y_26_ ^ 2 - 2 y_27_ * y_26_ + 1 y_27_ ^ 2 ] <= 1763.46
quadratic_ranged_68_ub: [ 1 x_27_ ^ 2 - 2 x_28_ * x_27_ + 1 x_28_ ^ 2 + 1 y_27_ ^ 2 - 2 y_28_ * y_27_ + 1 y_28_ ^ 2 ] <= 10634.29
quadratic_ranged_69_ub: [ 1 x_6_ ^ 2 - 2 x_29_ * x_6_ + 1 x_29_ ^ 2 + 1 y_6_ ^ 2 - 2 y_29_ * y_6_ + 1 y_29_ ^ 2 ] <= 2967.38
quadratic_ranged_70_ub: [ 1 x_10_ ^ 2 - 2 x_29_ * x_10_ + 1 x_29_ ^ 2 + 1 y_10_ ^ 2 - 2 y_29_ * y_10_ + 1 y_29_ ^ 2 ] <= 4626.81
quadratic_ranged_71_ub: [ 1 x_28_ ^ 2 - 2 x_29_ * x_28_ + 1 x_29_ ^ 2 + 1 y_28_ ^ 2 - 2 y_29_ * y_28_ + 1 y_29_ ^ 2 ] <= 5803.46
quadratic_ranged_72_ub: [ 1 x_19_ ^ 2 - 2 x_30_ * x_19_ + 1 x_30_ ^ 2 + 1 y_19_ ^ 2 - 2 y_30_ * y_19_ + 1 y_30_ ^ 2 ] <= 16008.5
quadratic_ranged_73_ub: [ 1 x_26_ ^ 2 - 2 x_30_ * x_26_ + 1 x_30_ ^ 2 + 1 y_26_ ^ 2 - 2 y_30_ * y_26_ + 1 y_30_ ^ 2 ] <= 15273.22
quadratic_ranged_74_ub: [ 1 x_29_ ^ 2 - 2 x_30_ * x_29_ + 1 x_30_ ^ 2 + 1 y_29_ ^ 2 - 2 y_30_ * y_29_ + 1 y_30_ ^ 2 ] <= 28733.49
quadratic_ranged_75_ub: [ 1 x_10_ ^ 2 - 2 x_31_ * x_10_ + 1 x_31_ ^ 2 + 1 y_10_ ^ 2 - 2 y_31_ * y_10_ + 1 y_31_ ^ 2 ] <= 3382.4900000000002
quadratic_ranged_76_ub: [ 1 x_28_ ^ 2 - 2 x_31_ * x_28_ + 1 x_31_ ^ 2 + 1 y_28_ ^ 2 - 2 y_31_ * y_28_ + 1 y_31_ ^ 2 ] <= 5353
quadratic_ranged_77_ub: [ 1 x_30_ ^ 2 - 2 x_31_ * x_30_ + 1 x_31_ ^ 2 + 1 y_30_ ^ 2 - 2 y_31_ * y_30_ + 1 y_31_ ^ 2 ] <= 25598.45
quadratic_ranged_78_ub: [ 1 x_15_ ^ 2 - 2 x_32_ * x_15_ + 1 x_32_ ^ 2 + 1 y_15_ ^ 2 - 2 y_32_ * y_15_ + 1 y_32_ ^ 2 ] <= 7640.65
quadratic_ranged_79_ub: [ 1 x_31_ ^ 2 - 2 x_32_ * x_31_ + 1 x_32_ ^ 2 + 1 y_31_ ^ 2 - 2 y_32_ * y_31_ + 1 y_32_ ^ 2 ] <= 2.02
quadratic_ranged_80_ub: [ 1 x_14_ ^ 2 - 2 x_33_ * x_14_ + 1 x_33_ ^ 2 + 1 y_14_ ^ 2 - 2 y_33_ * y_14_ + 1 y_33_ ^ 2 ] <= 31686.73
quadratic_ranged_81_ub: [ 1 x_28_ ^ 2 - 2 x_33_ * x_28_ + 1 x_33_ ^ 2 + 1 y_28_ ^ 2 - 2 y_33_ * y_28_ + 1 y_33_ ^ 2 ] <= 25283.33
quadratic_ranged_82_ub: [ 1 x_32_ ^ 2 - 2 x_33_ * x_32_ + 1 x_33_ ^ 2 + 1 y_32_ ^ 2 - 2 y_33_ * y_32_ + 1 y_33_ ^ 2 ] <= 12581.57
quadratic_ranged_83_ub: [ 1 x_3_ ^ 2 - 2 x_34_ * x_3_ + 1 x_34_ ^ 2 + 1 y_3_ ^ 2 - 2 y_34_ * y_3_ + 1 y_34_ ^ 2 ] <= 16871.04
quadratic_ranged_84_ub: [ 1 x_13_ ^ 2 - 2 x_34_ * x_13_ + 1 x_34_ ^ 2 + 1 y_13_ ^ 2 - 2 y_34_ * y_13_ + 1 y_34_ ^ 2 ] <= 14002.64
quadratic_ranged_85_ub: [ 1 x_14_ ^ 2 - 2 x_34_ * x_14_ + 1 x_34_ ^ 2 + 1 y_14_ ^ 2 - 2 y_34_ * y_14_ + 1 y_34_ ^ 2 ] <= 17457.85
quadratic_ranged_86_ub: [ 1 x_16_ ^ 2 - 2 x_34_ * x_16_ + 1 x_34_ ^ 2 + 1 y_16_ ^ 2 - 2 y_34_ * y_16_ + 1 y_34_ ^ 2 ] <= 40177.8
quadratic_ranged_87_ub: [ 1 x_31_ ^ 2 - 2 x_34_ * x_31_ + 1 x_34_ ^ 2 + 1 y_31_ ^ 2 - 2 y_34_ * y_31_ + 1 y_34_ ^ 2 ] <= 3685.4900000000002
quadratic_ranged_88_ub: [ 1 x_33_ ^ 2 - 2 x_34_ * x_33_ + 1 x_34_ ^ 2 + 1 y_33_ ^ 2 - 2 y_34_ * y_33_ + 1 y_34_ ^ 2 ] <= 3236.04
quadratic_ranged_89_ub: [ 1 x_8_ ^ 2 - 2 x_35_ * x_8_ + 1 x_35_ ^ 2 + 1 y_8_ ^ 2 - 2 y_35_ * y_8_ + 1 y_35_ ^ 2 ] <= 2407.84
quadratic_ranged_90_ub: [ 1 x_12_ ^ 2 - 2 x_35_ * x_12_ + 1 x_35_ ^ 2 + 1 y_12_ ^ 2 - 2 y_35_ * y_12_ + 1 y_35_ ^ 2 ] <= 6816.49
quadratic_ranged_91_ub: [ 1 x_17_ ^ 2 - 2 x_35_ * x_17_ + 1 x_35_ ^ 2 + 1 y_17_ ^ 2 - 2 y_35_ * y_17_ + 1 y_35_ ^ 2 ] <= 5386.33
quadratic_ranged_92_ub: [ 1 x_25_ ^ 2 - 2 x_35_ * x_25_ + 1 x_35_ ^ 2 + 1 y_25_ ^ 2 - 2 y_35_ * y_25_ + 1 y_35_ ^ 2 ] <= 3212.81
quadratic_ranged_93_ub: [ 1 x_34_ ^ 2 - 2 x_35_ * x_34_ + 1 x_35_ ^ 2 + 1 y_34_ ^ 2 - 2 y_35_ * y_34_ + 1 y_35_ ^ 2 ] <= 9624.29
quadratic_ranged_94_ub: [ 1 x_19_ ^ 2 - 2 x_36_ * x_19_ + 1 x_36_ ^ 2 + 1 y_19_ ^ 2 - 2 y_36_ * y_19_ + 1 y_36_ ^ 2 ] <= 9216.25
quadratic_ranged_95_ub: [ 1 x_27_ ^ 2 - 2 x_36_ * x_27_ + 1 x_36_ ^ 2 + 1 y_27_ ^ 2 - 2 y_36_ * y_27_ + 1 y_36_ ^ 2 ] <= 18277.97
quadratic_ranged_96_ub: [ 1 x_33_ ^ 2 - 2 x_36_ * x_33_ + 1 x_36_ ^ 2 + 1 y_33_ ^ 2 - 2 y_36_ * y_33_ + 1 y_36_ ^ 2 ] <= 44012.77
quadratic_ranged_97_ub: [ 1 x_35_ ^ 2 - 2 x_36_ * x_35_ + 1 x_36_ ^ 2 + 1 y_35_ ^ 2 - 2 y_36_ * y_35_ + 1 y_36_ ^ 2 ] <= 11564.5
quadratic_ranged_98_ub: [ 1 x_4_ ^ 2 - 2 x_37_ * x_4_ + 1 x_37_ ^ 2 + 1 y_4_ ^ 2 - 2 y_37_ * y_4_ + 1 y_37_ ^ 2 ] <= 23962.25
quadratic_ranged_99_ub: [ 1 x_29_ ^ 2 - 2 x_37_ * x_29_ + 1 x_37_ ^ 2 + 1 y_29_ ^ 2 - 2 y_37_ * y_29_ + 1 y_37_ ^ 2 ] <= 24810.65
quadratic_ranged_100_ub: [ 1 x_36_ ^ 2 - 2 x_37_ * x_36_ + 1 x_37_ ^ 2 + 1 y_36_ ^ 2 - 2 y_37_ * y_36_ + 1 y_37_ ^ 2 ] <= 2332.09
quadratic_ranged_101_ub: [ 1 x_10_ ^ 2 - 2 x_38_ * x_10_ + 1 x_38_ ^ 2 + 1 y_10_ ^ 2 - 2 y_38_ * y_10_ + 1 y_38_ ^ 2 ] <= 2517.93
quadratic_ranged_102_ub: [ 1 x_11_ ^ 2 - 2 x_38_ * x_11_ + 1 x_38_ ^ 2 + 1 y_11_ ^ 2 - 2 y_38_ * y_11_ + 1 y_38_ ^ 2 ] <= 1701.85
quadratic_ranged_103_ub: [ 1 x_34_ ^ 2 - 2 x_38_ * x_34_ + 1 x_38_ ^ 2 + 1 y_34_ ^ 2 - 2 y_38_ * y_34_ + 1 y_38_ ^ 2 ] <= 2954.25
quadratic_ranged_104_ub: [ 1 x_36_ ^ 2 - 2 x_38_ * x_36_ + 1 x_38_ ^ 2 + 1 y_36_ ^ 2 - 2 y_38_ * y_36_ + 1 y_38_ ^ 2 ] <= 14909.62
quadratic_ranged_105_ub: [ 1 x_37_ ^ 2 - 2 x_38_ * x_37_ + 1 x_38_ ^ 2 + 1 y_37_ ^ 2 - 2 y_38_ * y_37_ + 1 y_38_ ^ 2 ] <= 15841.85
quadratic_ranged_106_ub: [ 1 x_5_ ^ 2 - 2 x_39_ * x_5_ + 1 x_39_ ^ 2 + 1 y_5_ ^ 2 - 2 y_39_ * y_5_ + 1 y_39_ ^ 2 ] <= 1831.13
quadratic_ranged_107_ub: [ 1 x_12_ ^ 2 - 2 x_39_ * x_12_ + 1 x_39_ ^ 2 + 1 y_12_ ^ 2 - 2 y_39_ * y_12_ + 1 y_39_ ^ 2 ] <= 5539.85
quadratic_ranged_108_ub: [ 1 x_38_ ^ 2 - 2 x_39_ * x_38_ + 1 x_39_ ^ 2 + 1 y_38_ ^ 2 - 2 y_39_ * y_38_ + 1 y_39_ ^ 2 ] <= 2464.4
quadratic_ranged_109_ub: [ 1 x_7_ ^ 2 - 2 x_40_ * x_7_ + 1 x_40_ ^ 2 + 1 y_7_ ^ 2 - 2 y_40_ * y_7_ + 1 y_40_ ^ 2 ] <= 16071.12
quadratic_ranged_110_ub: [ 1 x_14_ ^ 2 - 2 x_40_ * x_14_ + 1 x_40_ ^ 2 + 1 y_14_ ^ 2 - 2 y_40_ * y_14_ + 1 y_40_ ^ 2 ] <= 20466.64
quadratic_ranged_111_ub: [ 1 x_21_ ^ 2 - 2 x_40_ * x_21_ + 1 x_40_ ^ 2 + 1 y_21_ ^ 2 - 2 y_40_ * y_21_ + 1 y_40_ ^ 2 ] <= 207.05
quadratic_ranged_112_ub: [ 1 x_24_ ^ 2 - 2 x_40_ * x_24_ + 1 x_40_ ^ 2 + 1 y_24_ ^ 2 - 2 y_40_ * y_24_ + 1 y_40_ ^ 2 ] <= 18993.05
quadratic_ranged_113_ub: [ 1 x_27_ ^ 2 - 2 x_40_ * x_27_ + 1 x_40_ ^ 2 + 1 y_27_ ^ 2 - 2 y_40_ * y_27_ + 1 y_40_ ^ 2 ] <= 14536.93
quadratic_ranged_114_ub: [ 1 x_39_ ^ 2 - 2 x_40_ * x_39_ + 1 x_40_ ^ 2 + 1 y_39_ ^ 2 - 2 y_40_ * y_39_ + 1 y_40_ ^ 2 ] <= 3541.06
quadratic_ranged_115_ub: [ 1 x_2_ ^ 2 - 2 x_41_ * x_2_ + 1 x_41_ ^ 2 + 1 y_2_ ^ 2 - 2 y_41_ * y_2_ + 1 y_41_ ^ 2 ] <= 1431.17
quadratic_ranged_116_ub: [ 1 x_5_ ^ 2 - 2 x_41_ * x_5_ + 1 x_41_ ^ 2 + 1 y_5_ ^ 2 - 2 y_41_ * y_5_ + 1 y_41_ ^ 2 ] <= 6840.7300000000005
quadratic_ranged_117_ub: [ 1 x_26_ ^ 2 - 2 x_41_ * x_26_ + 1 x_41_ ^ 2 + 1 y_26_ ^ 2 - 2 y_41_ * y_26_ + 1 y_41_ ^ 2 ] <= 27715.41
quadratic_ranged_118_ub: [ 1 x_29_ ^ 2 - 2 x_41_ * x_29_ + 1 x_41_ ^ 2 + 1 y_29_ ^ 2 - 2 y_41_ * y_29_ + 1 y_41_ ^ 2 ] <= 22611.88
quadratic_ranged_119_ub: [ 1 x_40_ ^ 2 - 2 x_41_ * x_40_ + 1 x_41_ ^ 2 + 1 y_40_ ^ 2 - 2 y_41_ * y_40_ + 1 y_41_ ^ 2 ] <= 19515.22
quadratic_ranged_120_ub: [ 1 x_2_ ^ 2 - 2 x_42_ * x_2_ + 1 x_42_ ^ 2 + 1 y_2_ ^ 2 - 2 y_42_ * y_2_ + 1 y_42_ ^ 2 ] <= 1782.65
quadratic_ranged_121_ub: [ 1 x_23_ ^ 2 - 2 x_42_ * x_23_ + 1 x_42_ ^ 2 + 1 y_23_ ^ 2 - 2 y_42_ * y_23_ + 1 y_42_ ^ 2 ] <= 6161
quadratic_ranged_122_ub: [ 1 x_35_ ^ 2 - 2 x_42_ * x_35_ + 1 x_42_ ^ 2 + 1 y_35_ ^ 2 - 2 y_42_ * y_35_ + 1 y_42_ ^ 2 ] <= 4316.74
quadratic_ranged_123_ub: [ 1 x_39_ ^ 2 - 2 x_42_ * x_39_ + 1 x_42_ ^ 2 + 1 y_39_ ^ 2 - 2 y_42_ * y_39_ + 1 y_42_ ^ 2 ] <= 3363.3
quadratic_ranged_124_ub: [ 1 x_41_ ^ 2 - 2 x_42_ * x_41_ + 1 x_42_ ^ 2 + 1 y_41_ ^ 2 - 2 y_42_ * y_41_ + 1 y_42_ ^ 2 ] <= 704.98
quadratic_ranged_125_ub: [ 1 x_3_ ^ 2 - 2 x_43_ * x_3_ + 1 x_43_ ^ 2 + 1 y_3_ ^ 2 - 2 y_43_ * y_3_ + 1 y_43_ ^ 2 ] <= 47914.4
quadratic_ranged_126_ub: [ 1 x_4_ ^ 2 - 2 x_43_ * x_4_ + 1 x_43_ ^ 2 + 1 y_4_ ^ 2 - 2 y_43_ * y_4_ + 1 y_43_ ^ 2 ] <= 39455.65
quadratic_ranged_127_ub: [ 1 x_8_ ^ 2 - 2 x_43_ * x_8_ + 1 x_43_ ^ 2 + 1 y_8_ ^ 2 - 2 y_43_ * y_8_ + 1 y_43_ ^ 2 ] <= 4186.45
quadratic_ranged_128_ub: [ 1 x_18_ ^ 2 - 2 x_43_ * x_18_ + 1 x_43_ ^ 2 + 1 y_18_ ^ 2 - 2 y_43_ * y_18_ + 1 y_43_ ^ 2 ] <= 25780.25
quadratic_ranged_129_ub: [ 1 x_19_ ^ 2 - 2 x_43_ * x_19_ + 1 x_43_ ^ 2 + 1 y_19_ ^ 2 - 2 y_43_ * y_19_ + 1 y_43_ ^ 2 ] <= 9706.1
quadratic_ranged_130_ub: [ 1 x_28_ ^ 2 - 2 x_43_ * x_28_ + 1 x_43_ ^ 2 + 1 y_28_ ^ 2 - 2 y_43_ * y_28_ + 1 y_43_ ^ 2 ] <= 10480.77
quadratic_ranged_131_ub: [ 1 x_34_ ^ 2 - 2 x_43_ * x_34_ + 1 x_43_ ^ 2 + 1 y_34_ ^ 2 - 2 y_43_ * y_34_ + 1 y_43_ ^ 2 ] <= 12233.12
quadratic_ranged_132_ub: [ 1 x_36_ ^ 2 - 2 x_43_ * x_36_ + 1 x_43_ ^ 2 + 1 y_36_ ^ 2 - 2 y_43_ * y_36_ + 1 y_43_ ^ 2 ] <= 37645.73
quadratic_ranged_133_ub: [ 1 x_42_ ^ 2 - 2 x_43_ * x_42_ + 1 x_43_ ^ 2 + 1 y_42_ ^ 2 - 2 y_43_ * y_42_ + 1 y_43_ ^ 2 ] <= 23105.77
quadratic_ranged_134_ub: [ 1 x_3_ ^ 2 - 2 x_44_ * x_3_ + 1 x_44_ ^ 2 + 1 y_3_ ^ 2 - 2 y_44_ * y_3_ + 1 y_44_ ^ 2 ] <= 25606.53
quadratic_ranged_135_ub: [ 1 x_8_ ^ 2 - 2 x_44_ * x_8_ + 1 x_44_ ^ 2 + 1 y_8_ ^ 2 - 2 y_44_ * y_8_ + 1 y_44_ ^ 2 ] <= 161.6
quadratic_ranged_136_ub: [ 1 x_15_ ^ 2 - 2 x_44_ * x_15_ + 1 x_44_ ^ 2 + 1 y_15_ ^ 2 - 2 y_44_ * y_15_ + 1 y_44_ ^ 2 ] <= 6763.97
quadratic_ranged_137_ub: [ 1 x_22_ ^ 2 - 2 x_44_ * x_22_ + 1 x_44_ ^ 2 + 1 y_22_ ^ 2 - 2 y_44_ * y_22_ + 1 y_44_ ^ 2 ] <= 3249.17
quadratic_ranged_138_ub: [ 1 x_26_ ^ 2 - 2 x_44_ * x_26_ + 1 x_44_ ^ 2 + 1 y_26_ ^ 2 - 2 y_44_ * y_26_ + 1 y_44_ ^ 2 ] <= 5652.97
quadratic_ranged_139_ub: [ 1 x_27_ ^ 2 - 2 x_44_ * x_27_ + 1 x_44_ ^ 2 + 1 y_27_ ^ 2 - 2 y_44_ * y_27_ + 1 y_44_ ^ 2 ] <= 8792.05
quadratic_ranged_140_ub: [ 1 x_43_ ^ 2 - 2 x_44_ * x_43_ + 1 x_44_ ^ 2 + 1 y_43_ ^ 2 - 2 y_44_ * y_43_ + 1 y_44_ ^ 2 ] <= 3564.29
quadratic_ranged_141_ub: [ 1 x_15_ ^ 2 - 2 x_45_ * x_15_ + 1 x_45_ ^ 2 + 1 y_15_ ^ 2 - 2 y_45_ * y_15_ + 1 y_45_ ^ 2 ] <= 4400.57
quadratic_ranged_142_ub: [ 1 x_26_ ^ 2 - 2 x_45_ * x_26_ + 1 x_45_ ^ 2 + 1 y_26_ ^ 2 - 2 y_45_ * y_26_ + 1 y_45_ ^ 2 ] <= 8258.77
quadratic_ranged_143_ub: [ 1 x_29_ ^ 2 - 2 x_45_ * x_29_ + 1 x_45_ ^ 2 + 1 y_29_ ^ 2 - 2 y_45_ * y_29_ + 1 y_45_ ^ 2 ] <= 4817.7
quadratic_ranged_144_ub: [ 1 x_44_ ^ 2 - 2 x_45_ * x_44_ + 1 x_45_ ^ 2 + 1 y_44_ ^ 2 - 2 y_45_ * y_44_ + 1 y_45_ ^ 2 ] <= 2054.34
quadratic_ranged_145_ub: [ 1 x_22_ ^ 2 - 2 x_46_ * x_22_ + 1 x_46_ ^ 2 + 1 y_22_ ^ 2 - 2 y_46_ * y_22_ + 1 y_46_ ^ 2 ] <= 23474.420000000002
quadratic_ranged_146_ub: [ 1 x_37_ ^ 2 - 2 x_46_ * x_37_ + 1 x_46_ ^ 2 + 1 y_37_ ^ 2 - 2 y_46_ * y_37_ + 1 y_46_ ^ 2 ] <= 26706.420000000002
quadratic_ranged_147_ub: [ 1 x_43_ ^ 2 - 2 x_46_ * x_43_ + 1 x_46_ ^ 2 + 1 y_43_ ^ 2 - 2 y_46_ * y_43_ + 1 y_46_ ^ 2 ] <= 23213.84
quadratic_ranged_148_ub: [ 1 x_45_ ^ 2 - 2 x_46_ * x_45_ + 1 x_46_ ^ 2 + 1 y_45_ ^ 2 - 2 y_46_ * y_45_ + 1 y_46_ ^ 2 ] <= 8775.89
quadratic_ranged_149_ub: [ 1 x_6_ ^ 2 - 2 x_47_ * x_6_ + 1 x_47_ ^ 2 + 1 y_6_ ^ 2 - 2 y_47_ * y_6_ + 1 y_47_ ^ 2 ] <= 4590.45
quadratic_ranged_150_ub: [ 1 x_14_ ^ 2 - 2 x_47_ * x_14_ + 1 x_47_ ^ 2 + 1 y_14_ ^ 2 - 2 y_47_ * y_14_ + 1 y_47_ ^ 2 ] <= 16573.09
quadratic_ranged_151_ub: [ 1 x_18_ ^ 2 - 2 x_47_ * x_18_ + 1 x_47_ ^ 2 + 1 y_18_ ^ 2 - 2 y_47_ * y_18_ + 1 y_47_ ^ 2 ] <= 7701.25
quadratic_ranged_152_ub: [ 1 x_34_ ^ 2 - 2 x_47_ * x_34_ + 1 x_47_ ^ 2 + 1 y_34_ ^ 2 - 2 y_47_ * y_34_ + 1 y_47_ ^ 2 ] <= 1537.22
quadratic_ranged_153_ub: [ 1 x_46_ ^ 2 - 2 x_47_ * x_46_ + 1 x_47_ ^ 2 + 1 y_46_ ^ 2 - 2 y_47_ * y_46_ + 1 y_47_ ^ 2 ] <= 6134.74
quadratic_ranged_154_ub: [ 1 x_13_ ^ 2 - 2 x_48_ * x_13_ + 1 x_48_ ^ 2 + 1 y_13_ ^ 2 - 2 y_48_ * y_13_ + 1 y_48_ ^ 2 ] <= 1108.98
quadratic_ranged_155_ub: [ 1 x_27_ ^ 2 - 2 x_48_ * x_27_ + 1 x_48_ ^ 2 + 1 y_27_ ^ 2 - 2 y_48_ * y_27_ + 1 y_48_ ^ 2 ] <= 5649.94
quadratic_ranged_156_ub: [ 1 x_30_ ^ 2 - 2 x_48_ * x_30_ + 1 x_48_ ^ 2 + 1 y_30_ ^ 2 - 2 y_48_ * y_30_ + 1 y_48_ ^ 2 ] <= 8494.1
quadratic_ranged_157_ub: [ 1 x_40_ ^ 2 - 2 x_48_ * x_40_ + 1 x_48_ ^ 2 + 1 y_40_ ^ 2 - 2 y_48_ * y_40_ + 1 y_48_ ^ 2 ] <= 8695.09
quadratic_ranged_158_ub: [ 1 x_47_ ^ 2 - 2 x_48_ * x_47_ + 1 x_48_ ^ 2 + 1 y_47_ ^ 2 - 2 y_48_ * y_47_ + 1 y_48_ ^ 2 ] <= 6181.2
quadratic_ranged_159_ub: [ 1 x_4_ ^ 2 - 2 x_49_ * x_4_ + 1 x_49_ ^ 2 + 1 y_4_ ^ 2 - 2 y_49_ * y_4_ + 1 y_49_ ^ 2 ] <= 25068.2
quadratic_ranged_160_ub: [ 1 x_12_ ^ 2 - 2 x_49_ * x_12_ + 1 x_49_ ^ 2 + 1 y_12_ ^ 2 - 2 y_49_ * y_12_ + 1 y_49_ ^ 2 ] <= 14791.45
quadratic_ranged_161_ub: [ 1 x_33_ ^ 2 - 2 x_49_ * x_33_ + 1 x_49_ ^ 2 + 1 y_33_ ^ 2 - 2 y_49_ * y_33_ + 1 y_49_ ^ 2 ] <= 20217.170000000002
quadratic_ranged_162_ub: [ 1 x_36_ ^ 2 - 2 x_49_ * x_36_ + 1 x_49_ ^ 2 + 1 y_36_ ^ 2 - 2 y_49_ * y_36_ + 1 y_49_ ^ 2 ] <= 21399.88
quadratic_ranged_163_ub: [ 1 x_48_ ^ 2 - 2 x_49_ * x_48_ + 1 x_49_ ^ 2 + 1 y_48_ ^ 2 - 2 y_49_ * y_48_ + 1 y_49_ ^ 2 ] <= 6537.7300000000005
quadratic_ranged_164_ub: [ 1 x_1_ ^ 2 - 2 x_50_ * x_1_ + 1 x_50_ ^ 2 + 1 y_1_ ^ 2 - 2 y_50_ * y_1_ + 1 y_50_ ^ 2 ] <= 414.1
quadratic_ranged_165_ub: [ 1 x_5_ ^ 2 - 2 x_50_ * x_5_ + 1 x_50_ ^ 2 + 1 y_5_ ^ 2 - 2 y_50_ * y_5_ + 1 y_50_ ^ 2 ] <= 13382.5
quadratic_ranged_166_ub: [ 1 x_12_ ^ 2 - 2 x_50_ * x_12_ + 1 x_50_ ^ 2 + 1 y_12_ ^ 2 - 2 y_50_ * y_12_ + 1 y_50_ ^ 2 ] <= 1656.4
quadratic_ranged_167_ub: [ 1 x_38_ ^ 2 - 2 x_50_ * x_38_ + 1 x_50_ ^ 2 + 1 y_38_ ^ 2 - 2 y_50_ * y_38_ + 1 y_50_ ^ 2 ] <= 15155.05
quadratic_ranged_168_ub: [ 1 x_39_ ^ 2 - 2 x_50_ * x_39_ + 1 x_50_ ^ 2 + 1 y_39_ ^ 2 - 2 y_50_ * y_39_ + 1 y_50_ ^ 2 ] <= 10278.77
quadratic_ranged_169_ub: [ 1 x_43_ ^ 2 - 2 x_50_ * x_43_ + 1 x_50_ ^ 2 + 1 y_43_ ^ 2 - 2 y_50_ * y_43_ + 1 y_50_ ^ 2 ] <= 38024.48
quadratic_ranged_170_ub: [ 1 x_48_ ^ 2 - 2 x_50_ * x_48_ + 1 x_50_ ^ 2 + 1 y_48_ ^ 2 - 2 y_50_ * y_48_ + 1 y_50_ ^ 2 ] <= 5803.46
quadratic_ranged_171_ub: [ 1 x_49_ ^ 2 - 2 x_50_ * x_49_ + 1 x_50_ ^ 2 + 1 y_49_ ^ 2 - 2 y_50_ * y_49_ + 1 y_50_ ^ 2 ] <= 21687.73
quadratic_ranged_172_ub: [ 1 x_10_ ^ 2 - 2 x_51_ * x_10_ + 1 x_51_ ^ 2 + 1 y_10_ ^ 2 - 2 y_51_ * y_10_ + 1 y_51_ ^ 2 ] <= 8389.06
quadratic_ranged_173_ub: [ 1 x_11_ ^ 2 - 2 x_51_ * x_11_ + 1 x_51_ ^ 2 + 1 y_11_ ^ 2 - 2 y_51_ * y_11_ + 1 y_51_ ^ 2 ] <= 6239.78
quadratic_ranged_174_ub: [ 1 x_37_ ^ 2 - 2 x_51_ * x_37_ + 1 x_51_ ^ 2 + 1 y_37_ ^ 2 - 2 y_51_ * y_37_ + 1 y_51_ ^ 2 ] <= 17947.7
quadratic_ranged_175_ub: [ 1 x_47_ ^ 2 - 2 x_51_ * x_47_ + 1 x_51_ ^ 2 + 1 y_47_ ^ 2 - 2 y_51_ * y_47_ + 1 y_51_ ^ 2 ] <= 3137.06
quadratic_ranged_176_ub: [ 1 x_49_ ^ 2 - 2 x_51_ * x_49_ + 1 x_51_ ^ 2 + 1 y_49_ ^ 2 - 2 y_51_ * y_49_ + 1 y_51_ ^ 2 ] <= 37.37
quadratic_ranged_177_ub: [ 1 x_50_ ^ 2 - 2 x_51_ * x_50_ + 1 x_51_ ^ 2 + 1 y_50_ ^ 2 - 2 y_51_ * y_50_ + 1 y_51_ ^ 2 ] <= 22401.8
quadratic_ranged_178_ub: [ 1 x_5_ ^ 2 - 2 x_52_ * x_5_ + 1 x_52_ ^ 2 + 1 y_5_ ^ 2 - 2 y_52_ * y_5_ + 1 y_52_ ^ 2 ] <= 8282
quadratic_ranged_179_ub: [ 1 x_30_ ^ 2 - 2 x_52_ * x_30_ + 1 x_52_ ^ 2 + 1 y_30_ ^ 2 - 2 y_52_ * y_30_ + 1 y_52_ ^ 2 ] <= 7766.9
quadratic_ranged_180_ub: [ 1 x_39_ ^ 2 - 2 x_52_ * x_39_ + 1 x_52_ ^ 2 + 1 y_39_ ^ 2 - 2 y_52_ * y_39_ + 1 y_52_ ^ 2 ] <= 4146.05
quadratic_ranged_181_ub: [ 1 x_41_ ^ 2 - 2 x_52_ * x_41_ + 1 x_52_ ^ 2 + 1 y_41_ ^ 2 - 2 y_52_ * y_41_ + 1 y_52_ ^ 2 ] <= 2352.29
quadratic_ranged_182_ub: [ 1 x_43_ ^ 2 - 2 x_52_ * x_43_ + 1 x_52_ ^ 2 + 1 y_43_ ^ 2 - 2 y_52_ * y_43_ + 1 y_52_ ^ 2 ] <= 24072.34
quadratic_ranged_183_ub: [ 1 x_51_ ^ 2 - 2 x_52_ * x_51_ + 1 x_52_ ^ 2 + 1 y_51_ ^ 2 - 2 y_52_ * y_51_ + 1 y_52_ ^ 2 ] <= 12170.5
quadratic_ranged_184_ub: [ 1 x_4_ ^ 2 - 2 x_53_ * x_4_ + 1 x_53_ ^ 2 + 1 y_4_ ^ 2 - 2 y_53_ * y_4_ + 1 y_53_ ^ 2 ] <= 3172.41
quadratic_ranged_185_ub: [ 1 x_9_ ^ 2 - 2 x_53_ * x_9_ + 1 x_53_ ^ 2 + 1 y_9_ ^ 2 - 2 y_53_ * y_9_ + 1 y_53_ ^ 2 ] <= 1601.8600000000001
quadratic_ranged_186_ub: [ 1 x_22_ ^ 2 - 2 x_53_ * x_22_ + 1 x_53_ ^ 2 + 1 y_22_ ^ 2 - 2 y_53_ * y_22_ + 1 y_53_ ^ 2 ] <= 50742.4
quadratic_ranged_187_ub: [ 1 x_41_ ^ 2 - 2 x_53_ * x_41_ + 1 x_53_ ^ 2 + 1 y_41_ ^ 2 - 2 y_53_ * y_41_ + 1 y_53_ ^ 2 ] <= 22895.69
quadratic_ranged_188_ub: [ 1 x_52_ ^ 2 - 2 x_53_ * x_52_ + 1 x_53_ ^ 2 + 1 y_52_ ^ 2 - 2 y_53_ * y_52_ + 1 y_53_ ^ 2 ] <= 13837
quadratic_ranged_189_ub: [ 1 x_2_ ^ 2 - 2 x_54_ * x_2_ + 1 x_54_ ^ 2 + 1 y_2_ ^ 2 - 2 y_54_ * y_2_ + 1 y_54_ ^ 2 ] <= 17570.97
quadratic_ranged_190_ub: [ 1 x_8_ ^ 2 - 2 x_54_ * x_8_ + 1 x_54_ ^ 2 + 1 y_8_ ^ 2 - 2 y_54_ * y_8_ + 1 y_54_ ^ 2 ] <= 24662.18
quadratic_ranged_191_ub: [ 1 x_13_ ^ 2 - 2 x_54_ * x_13_ + 1 x_54_ ^ 2 + 1 y_13_ ^ 2 - 2 y_54_ * y_13_ + 1 y_54_ ^ 2 ] <= 4024.85
quadratic_ranged_192_ub: [ 1 x_20_ ^ 2 - 2 x_54_ * x_20_ + 1 x_54_ ^ 2 + 1 y_20_ ^ 2 - 2 y_54_ * y_20_ + 1 y_54_ ^ 2 ] <= 19169.8
quadratic_ranged_193_ub: [ 1 x_22_ ^ 2 - 2 x_54_ * x_22_ + 1 x_54_ ^ 2 + 1 y_22_ ^ 2 - 2 y_54_ * y_22_ + 1 y_54_ ^ 2 ] <= 34401.61
quadratic_ranged_194_ub: [ 1 x_53_ ^ 2 - 2 x_54_ * x_53_ + 1 x_54_ ^ 2 + 1 y_53_ ^ 2 - 2 y_54_ * y_53_ + 1 y_54_ ^ 2 ] <= 2841.13
quadratic_ranged_195_ub: [ 1 x_10_ ^ 2 - 2 x_55_ * x_10_ + 1 x_55_ ^ 2 + 1 y_10_ ^ 2 - 2 y_55_ * y_10_ + 1 y_55_ ^ 2 ] <= 3524.9
quadratic_ranged_196_ub: [ 1 x_17_ ^ 2 - 2 x_55_ * x_17_ + 1 x_55_ ^ 2 + 1 y_17_ ^ 2 - 2 y_55_ * y_17_ + 1 y_55_ ^ 2 ] <= 1076.66
quadratic_ranged_197_ub: [ 1 x_24_ ^ 2 - 2 x_55_ * x_24_ + 1 x_55_ ^ 2 + 1 y_24_ ^ 2 - 2 y_55_ * y_24_ + 1 y_55_ ^ 2 ] <= 11645.3
quadratic_ranged_198_ub: [ 1 x_54_ ^ 2 - 2 x_55_ * x_54_ + 1 x_55_ ^ 2 + 1 y_54_ ^ 2 - 2 y_55_ * y_54_ + 1 y_55_ ^ 2 ] <= 27699.25
quadratic_ranged_199_ub: [ 1 x_2_ ^ 2 - 2 x_56_ * x_2_ + 1 x_56_ ^ 2 + 1 y_2_ ^ 2 - 2 y_56_ * y_2_ + 1 y_56_ ^ 2 ] <= 4303.61
quadratic_ranged_200_ub: [ 1 x_8_ ^ 2 - 2 x_56_ * x_8_ + 1 x_56_ ^ 2 + 1 y_8_ ^ 2 - 2 y_56_ * y_8_ + 1 y_56_ ^ 2 ] <= 12225.04
quadratic_ranged_201_ub: [ 1 x_14_ ^ 2 - 2 x_56_ * x_14_ + 1 x_56_ ^ 2 + 1 y_14_ ^ 2 - 2 y_56_ * y_14_ + 1 y_56_ ^ 2 ] <= 527.22
quadratic_ranged_202_ub: [ 1 x_26_ ^ 2 - 2 x_56_ * x_26_ + 1 x_56_ ^ 2 + 1 y_26_ ^ 2 - 2 y_56_ * y_26_ + 1 y_56_ ^ 2 ] <= 17461.89
quadratic_ranged_203_ub: [ 1 x_32_ ^ 2 - 2 x_56_ * x_32_ + 1 x_56_ ^ 2 + 1 y_32_ ^ 2 - 2 y_56_ * y_32_ + 1 y_56_ ^ 2 ] <= 15566.12
quadratic_ranged_204_ub: [ 1 x_35_ ^ 2 - 2 x_56_ * x_35_ + 1 x_56_ ^ 2 + 1 y_35_ ^ 2 - 2 y_56_ * y_35_ + 1 y_56_ ^ 2 ] <= 5858
quadratic_ranged_205_ub: [ 1 x_43_ ^ 2 - 2 x_56_ * x_43_ + 1 x_56_ ^ 2 + 1 y_43_ ^ 2 - 2 y_56_ * y_43_ + 1 y_56_ ^ 2 ] <= 26378.170000000002
quadratic_ranged_206_ub: [ 1 x_50_ ^ 2 - 2 x_56_ * x_50_ + 1 x_56_ ^ 2 + 1 y_50_ ^ 2 - 2 y_56_ * y_50_ + 1 y_56_ ^ 2 ] <= 1168.57
quadratic_ranged_207_ub: [ 1 x_55_ ^ 2 - 2 x_56_ * x_55_ + 1 x_56_ ^ 2 + 1 y_55_ ^ 2 - 2 y_56_ * y_55_ + 1 y_56_ ^ 2 ] <= 14112.73
quadratic_ranged_208_ub: [ 1 x_1_ ^ 2 - 2 x_57_ * x_1_ + 1 x_57_ ^ 2 + 1 y_1_ ^ 2 - 2 y_57_ * y_1_ + 1 y_57_ ^ 2 ] <= 12049.3
quadratic_ranged_209_ub: [ 1 x_42_ ^ 2 - 2 x_57_ * x_42_ + 1 x_57_ ^ 2 + 1 y_42_ ^ 2 - 2 y_57_ * y_42_ + 1 y_57_ ^ 2 ] <= 15276.25
quadratic_ranged_210_ub: [ 1 x_43_ ^ 2 - 2 x_57_ * x_43_ + 1 x_57_ ^ 2 + 1 y_43_ ^ 2 - 2 y_57_ * y_43_ + 1 y_57_ ^ 2 ] <= 27605.32
quadratic_ranged_211_ub: [ 1 x_56_ ^ 2 - 2 x_57_ * x_56_ + 1 x_57_ ^ 2 + 1 y_56_ ^ 2 - 2 y_57_ * y_56_ + 1 y_57_ ^ 2 ] <= 11280.69
quadratic_ranged_212_ub: [ 1 x_16_ ^ 2 - 2 x_58_ * x_16_ + 1 x_58_ ^ 2 + 1 y_16_ ^ 2 - 2 y_58_ * y_16_ + 1 y_58_ ^ 2 ] <= 25113.65
quadratic_ranged_213_ub: [ 1 x_24_ ^ 2 - 2 x_58_ * x_24_ + 1 x_58_ ^ 2 + 1 y_24_ ^ 2 - 2 y_58_ * y_24_ + 1 y_58_ ^ 2 ] <= 25865.09
quadratic_ranged_214_ub: [ 1 x_57_ ^ 2 - 2 x_58_ * x_57_ + 1 x_58_ ^ 2 + 1 y_57_ ^ 2 - 2 y_58_ * y_57_ + 1 y_58_ ^ 2 ] <= 26774.09
quadratic_ranged_215_ub: [ 1 x_6_ ^ 2 - 2 x_59_ * x_6_ + 1 x_59_ ^ 2 + 1 y_6_ ^ 2 - 2 y_59_ * y_6_ + 1 y_59_ ^ 2 ] <= 13226.960000000001
quadratic_ranged_216_ub: [ 1 x_9_ ^ 2 - 2 x_59_ * x_9_ + 1 x_59_ ^ 2 + 1 y_9_ ^ 2 - 2 y_59_ * y_9_ + 1 y_59_ ^ 2 ] <= 5297.45
quadratic_ranged_217_ub: [ 1 x_15_ ^ 2 - 2 x_59_ * x_15_ + 1 x_59_ ^ 2 + 1 y_15_ ^ 2 - 2 y_59_ * y_15_ + 1 y_59_ ^ 2 ] <= 449.45
quadratic_ranged_218_ub: [ 1 x_21_ ^ 2 - 2 x_59_ * x_21_ + 1 x_59_ ^ 2 + 1 y_21_ ^ 2 - 2 y_59_ * y_21_ + 1 y_59_ ^ 2 ] <= 18225.45
quadratic_ranged_219_ub: [ 1 x_23_ ^ 2 - 2 x_59_ * x_23_ + 1 x_59_ ^ 2 + 1 y_23_ ^ 2 - 2 y_59_ * y_23_ + 1 y_59_ ^ 2 ] <= 21593.8
quadratic_ranged_220_ub: [ 1 x_53_ ^ 2 - 2 x_59_ * x_53_ + 1 x_59_ ^ 2 + 1 y_53_ ^ 2 - 2 y_59_ * y_53_ + 1 y_59_ ^ 2 ] <= 12621.97
quadratic_ranged_221_ub: [ 1 x_58_ ^ 2 - 2 x_59_ * x_58_ + 1 x_59_ ^ 2 + 1 y_58_ ^ 2 - 2 y_59_ * y_58_ + 1 y_59_ ^ 2 ] <= 21147.38
quadratic_ranged_222_ub: [ 1 x_7_ ^ 2 - 2 x_60_ * x_7_ + 1 x_60_ ^ 2 + 1 y_7_ ^ 2 - 2 y_60_ * y_7_ + 1 y_60_ ^ 2 ] <= 6892.24
quadratic_ranged_223_ub: [ 1 x_9_ ^ 2 - 2 x_60_ * x_9_ + 1 x_60_ ^ 2 + 1 y_9_ ^ 2 - 2 y_60_ * y_9_ + 1 y_60_ ^ 2 ] <= 15482.29
quadratic_ranged_224_ub: [ 1 x_19_ ^ 2 - 2 x_60_ * x_19_ + 1 x_60_ ^ 2 + 1 y_19_ ^ 2 - 2 y_60_ * y_19_ + 1 y_60_ ^ 2 ] <= 429.25
quadratic_ranged_225_ub: [ 1 x_41_ ^ 2 - 2 x_60_ * x_41_ + 1 x_60_ ^ 2 + 1 y_41_ ^ 2 - 2 y_60_ * y_41_ + 1 y_60_ ^ 2 ] <= 10085.86
quadratic_ranged_226_ub: [ 1 x_55_ ^ 2 - 2 x_60_ * x_55_ + 1 x_60_ ^ 2 + 1 y_55_ ^ 2 - 2 y_60_ * y_55_ + 1 y_60_ ^ 2 ] <= 1701.85
quadratic_ranged_227_ub: [ 1 x_59_ ^ 2 - 2 x_60_ * x_59_ + 1 x_60_ ^ 2 + 1 y_59_ ^ 2 - 2 y_60_ * y_59_ + 1 y_60_ ^ 2 ] <= 6161
quadratic_ranged_228_ub: [ 1 x_4_ ^ 2 - 2 x_61_ * x_4_ + 1 x_61_ ^ 2 + 1 y_4_ ^ 2 - 2 y_61_ * y_4_ + 1 y_61_ ^ 2 ] <= 40061.65
quadratic_ranged_229_ub: [ 1 x_10_ ^ 2 - 2 x_61_ * x_10_ + 1 x_61_ ^ 2 + 1 y_10_ ^ 2 - 2 y_61_ * y_10_ + 1 y_61_ ^ 2 ] <= 14271.3
quadratic_ranged_230_ub: [ 1 x_20_ ^ 2 - 2 x_61_ * x_20_ + 1 x_61_ ^ 2 + 1 y_20_ ^ 2 - 2 y_61_ * y_20_ + 1 y_61_ ^ 2 ] <= 21926.09
quadratic_ranged_231_ub: [ 1 x_25_ ^ 2 - 2 x_61_ * x_25_ + 1 x_61_ ^ 2 + 1 y_25_ ^ 2 - 2 y_61_ * y_25_ + 1 y_61_ ^ 2 ] <= 5254.02
quadratic_ranged_232_ub: [ 1 x_31_ ^ 2 - 2 x_61_ * x_31_ + 1 x_61_ ^ 2 + 1 y_31_ ^ 2 - 2 y_61_ * y_31_ + 1 y_61_ ^ 2 ] <= 3758.21
quadratic_ranged_233_ub: [ 1 x_53_ ^ 2 - 2 x_61_ * x_53_ + 1 x_61_ ^ 2 + 1 y_53_ ^ 2 - 2 y_61_ * y_53_ + 1 y_61_ ^ 2 ] <= 60529.3
quadratic_ranged_234_ub: [ 1 x_55_ ^ 2 - 2 x_61_ * x_55_ + 1 x_61_ ^ 2 + 1 y_55_ ^ 2 - 2 y_61_ * y_55_ + 1 y_61_ ^ 2 ] <= 3724.88
quadratic_ranged_235_ub: [ 1 x_60_ ^ 2 - 2 x_61_ * x_60_ + 1 x_61_ ^ 2 + 1 y_60_ ^ 2 - 2 y_61_ * y_60_ + 1 y_61_ ^ 2 ] <= 7151.81
quadratic_ranged_236_ub: [ 1 x_6_ ^ 2 - 2 x_62_ * x_6_ + 1 x_62_ ^ 2 + 1 y_6_ ^ 2 - 2 y_62_ * y_6_ + 1 y_62_ ^ 2 ] <= 9644.49
quadratic_ranged_237_ub: [ 1 x_23_ ^ 2 - 2 x_62_ * x_23_ + 1 x_62_ ^ 2 + 1 y_23_ ^ 2 - 2 y_62_ * y_23_ + 1 y_62_ ^ 2 ] <= 15926.69
quadratic_ranged_238_ub: [ 1 x_33_ ^ 2 - 2 x_62_ * x_33_ + 1 x_62_ ^ 2 + 1 y_33_ ^ 2 - 2 y_62_ * y_33_ + 1 y_62_ ^ 2 ] <= 11742.26
quadratic_ranged_239_ub: [ 1 x_34_ ^ 2 - 2 x_62_ * x_34_ + 1 x_62_ ^ 2 + 1 y_34_ ^ 2 - 2 y_62_ * y_34_ + 1 y_62_ ^ 2 ] <= 4276.34
quadratic_ranged_240_ub: [ 1 x_35_ ^ 2 - 2 x_62_ * x_35_ + 1 x_62_ ^ 2 + 1 y_35_ ^ 2 - 2 y_62_ * y_35_ + 1 y_62_ ^ 2 ] <= 7083.13
quadratic_ranged_241_ub: [ 1 x_36_ ^ 2 - 2 x_62_ * x_36_ + 1 x_62_ ^ 2 + 1 y_36_ ^ 2 - 2 y_62_ * y_36_ + 1 y_62_ ^ 2 ] <= 10307.05
quadratic_ranged_242_ub: [ 1 x_38_ ^ 2 - 2 x_62_ * x_38_ + 1 x_62_ ^ 2 + 1 y_38_ ^ 2 - 2 y_62_ * y_38_ + 1 y_62_ ^ 2 ] <= 3018.89
quadratic_ranged_243_ub: [ 1 x_48_ ^ 2 - 2 x_62_ * x_48_ + 1 x_62_ ^ 2 + 1 y_48_ ^ 2 - 2 y_62_ * y_48_ + 1 y_62_ ^ 2 ] <= 1927.08
quadratic_ranged_244_ub: [ 1 x_50_ ^ 2 - 2 x_62_ * x_50_ + 1 x_62_ ^ 2 + 1 y_50_ ^ 2 - 2 y_62_ * y_50_ + 1 y_62_ ^ 2 ] <= 10481.78
quadratic_ranged_245_ub: [ 1 x_61_ ^ 2 - 2 x_62_ * x_61_ + 1 x_62_ ^ 2 + 1 y_61_ ^ 2 - 2 y_62_ * y_61_ + 1 y_62_ ^ 2 ] <= 20783.78
quadratic_ranged_246_ub: [ 1 x_28_ ^ 2 - 2 x_63_ * x_28_ + 1 x_63_ ^ 2 + 1 y_28_ ^ 2 - 2 y_63_ * y_28_ + 1 y_63_ ^ 2 ] <= 1020.1
quadratic_ranged_247_ub: [ 1 x_32_ ^ 2 - 2 x_63_ * x_32_ + 1 x_63_ ^ 2 + 1 y_32_ ^ 2 - 2 y_63_ * y_32_ + 1 y_63_ ^ 2 ] <= 1603.88
quadratic_ranged_248_ub: [ 1 x_61_ ^ 2 - 2 x_63_ * x_61_ + 1 x_63_ ^ 2 + 1 y_61_ ^ 2 - 2 y_63_ * y_61_ + 1 y_63_ ^ 2 ] <= 4756.09
quadratic_ranged_249_ub: [ 1 x_62_ ^ 2 - 2 x_63_ * x_62_ + 1 x_63_ ^ 2 + 1 y_62_ ^ 2 - 2 y_63_ * y_62_ + 1 y_63_ ^ 2 ] <= 6048.89
quadratic_ranged_250_ub: [ 1 x_15_ ^ 2 - 2 x_64_ * x_15_ + 1 x_64_ ^ 2 + 1 y_15_ ^ 2 - 2 y_64_ * y_15_ + 1 y_64_ ^ 2 ] <= 12088.69
quadratic_ranged_251_ub: [ 1 x_38_ ^ 2 - 2 x_64_ * x_38_ + 1 x_64_ ^ 2 + 1 y_38_ ^ 2 - 2 y_64_ * y_38_ + 1 y_64_ ^ 2 ] <= 3403.7
quadratic_ranged_252_ub: [ 1 x_63_ ^ 2 - 2 x_64_ * x_63_ + 1 x_64_ ^ 2 + 1 y_63_ ^ 2 - 2 y_64_ * y_63_ + 1 y_64_ ^ 2 ] <= 1925.06
quadratic_ranged_253_ub: [ 1 x_8_ ^ 2 - 2 x_65_ * x_8_ + 1 x_65_ ^ 2 + 1 y_8_ ^ 2 - 2 y_65_ * y_8_ + 1 y_65_ ^ 2 ] <= 10815.08
quadratic_ranged_254_ub: [ 1 x_22_ ^ 2 - 2 x_65_ * x_22_ + 1 x_65_ ^ 2 + 1 y_22_ ^ 2 - 2 y_65_ * y_22_ + 1 y_65_ ^ 2 ] <= 4267.25
quadratic_ranged_255_ub: [ 1 x_29_ ^ 2 - 2 x_65_ * x_29_ + 1 x_65_ ^ 2 + 1 y_29_ ^ 2 - 2 y_65_ * y_29_ + 1 y_65_ ^ 2 ] <= 12867.4
quadratic_ranged_256_ub: [ 1 x_37_ ^ 2 - 2 x_65_ * x_37_ + 1 x_65_ ^ 2 + 1 y_37_ ^ 2 - 2 y_65_ * y_37_ + 1 y_65_ ^ 2 ] <= 3544.09
quadratic_ranged_257_ub: [ 1 x_43_ ^ 2 - 2 x_65_ * x_43_ + 1 x_65_ ^ 2 + 1 y_43_ ^ 2 - 2 y_65_ * y_43_ + 1 y_65_ ^ 2 ] <= 15478.25
quadratic_ranged_258_ub: [ 1 x_46_ ^ 2 - 2 x_65_ * x_46_ + 1 x_65_ ^ 2 + 1 y_46_ ^ 2 - 2 y_65_ * y_46_ + 1 y_65_ ^ 2 ] <= 24984.37
quadratic_ranged_259_ub: [ 1 x_47_ ^ 2 - 2 x_65_ * x_47_ + 1 x_65_ ^ 2 + 1 y_47_ ^ 2 - 2 y_65_ * y_47_ + 1 y_65_ ^ 2 ] <= 15114.65
quadratic_ranged_260_ub: [ 1 x_58_ ^ 2 - 2 x_65_ * x_58_ + 1 x_65_ ^ 2 + 1 y_58_ ^ 2 - 2 y_65_ * y_58_ + 1 y_65_ ^ 2 ] <= 9801.04
quadratic_ranged_261_ub: [ 1 x_64_ ^ 2 - 2 x_65_ * x_64_ + 1 x_65_ ^ 2 + 1 y_64_ ^ 2 - 2 y_65_ * y_64_ + 1 y_65_ ^ 2 ] <= 10497.94
quadratic_ranged_262_ub: [ 1 x_6_ ^ 2 - 2 x_66_ * x_6_ + 1 x_66_ ^ 2 + 1 y_6_ ^ 2 - 2 y_66_ * y_6_ + 1 y_66_ ^ 2 ] <= 3362.29
quadratic_ranged_263_ub: [ 1 x_13_ ^ 2 - 2 x_66_ * x_13_ + 1 x_66_ ^ 2 + 1 y_13_ ^ 2 - 2 y_66_ * y_13_ + 1 y_66_ ^ 2 ] <= 17139.7
quadratic_ranged_264_ub: [ 1 x_19_ ^ 2 - 2 x_66_ * x_19_ + 1 x_66_ ^ 2 + 1 y_19_ ^ 2 - 2 y_66_ * y_19_ + 1 y_66_ ^ 2 ] <= 5534.8
quadratic_ranged_265_ub: [ 1 x_22_ ^ 2 - 2 x_66_ * x_22_ + 1 x_66_ ^ 2 + 1 y_22_ ^ 2 - 2 y_66_ * y_22_ + 1 y_66_ ^ 2 ] <= 4403.6
quadratic_ranged_266_ub: [ 1 x_45_ ^ 2 - 2 x_66_ * x_45_ + 1 x_66_ ^ 2 + 1 y_45_ ^ 2 - 2 y_66_ * y_45_ + 1 y_66_ ^ 2 ] <= 5556.01
quadratic_ranged_267_ub: [ 1 x_60_ ^ 2 - 2 x_66_ * x_60_ + 1 x_66_ ^ 2 + 1 y_60_ ^ 2 - 2 y_66_ * y_60_ + 1 y_66_ ^ 2 ] <= 3519.85
quadratic_ranged_268_ub: [ 1 x_64_ ^ 2 - 2 x_66_ * x_64_ + 1 x_66_ ^ 2 + 1 y_64_ ^ 2 - 2 y_66_ * y_64_ + 1 y_66_ ^ 2 ] <= 356.53000000000003
quadratic_ranged_269_ub: [ 1 x_65_ ^ 2 - 2 x_66_ * x_65_ + 1 x_66_ ^ 2 + 1 y_65_ ^ 2 - 2 y_66_ * y_65_ + 1 y_66_ ^ 2 ] <= 13660.25
quadratic_ranged_270_ub: [ 1 x_17_ ^ 2 - 2 x_67_ * x_17_ + 1 x_67_ ^ 2 + 1 y_17_ ^ 2 - 2 y_67_ * y_17_ + 1 y_67_ ^ 2 ] <= 14072.33
quadratic_ranged_271_ub: [ 1 x_24_ ^ 2 - 2 x_67_ * x_24_ + 1 x_67_ ^ 2 + 1 y_24_ ^ 2 - 2 y_67_ * y_24_ + 1 y_67_ ^ 2 ] <= 271.69
quadratic_ranged_272_ub: [ 1 x_30_ ^ 2 - 2 x_67_ * x_30_ + 1 x_67_ ^ 2 + 1 y_30_ ^ 2 - 2 y_67_ * y_30_ + 1 y_67_ ^ 2 ] <= 20366.65
quadratic_ranged_273_ub: [ 1 x_31_ ^ 2 - 2 x_67_ * x_31_ + 1 x_67_ ^ 2 + 1 y_31_ ^ 2 - 2 y_67_ * y_31_ + 1 y_67_ ^ 2 ] <= 9342.5
quadratic_ranged_274_ub: [ 1 x_39_ ^ 2 - 2 x_67_ * x_39_ + 1 x_67_ ^ 2 + 1 y_39_ ^ 2 - 2 y_67_ * y_39_ + 1 y_67_ ^ 2 ] <= 21177.68
quadratic_ranged_275_ub: [ 1 x_63_ ^ 2 - 2 x_67_ * x_63_ + 1 x_67_ ^ 2 + 1 y_63_ ^ 2 - 2 y_67_ * y_63_ + 1 y_67_ ^ 2 ] <= 14725.8
quadratic_ranged_276_ub: [ 1 x_65_ ^ 2 - 2 x_67_ * x_65_ + 1 x_67_ ^ 2 + 1 y_65_ ^ 2 - 2 y_67_ * y_65_ + 1 y_67_ ^ 2 ] <= 37636.64
quadratic_ranged_277_ub: [ 1 x_66_ ^ 2 - 2 x_67_ * x_66_ + 1 x_67_ ^ 2 + 1 y_66_ ^ 2 - 2 y_67_ * y_66_ + 1 y_67_ ^ 2 ] <= 11373.61
quadratic_ranged_278_ub: [ 1 x_7_ ^ 2 - 2 x_68_ * x_7_ + 1 x_68_ ^ 2 + 1 y_7_ ^ 2 - 2 y_68_ * y_7_ + 1 y_68_ ^ 2 ] <= 3608.73
quadratic_ranged_279_ub: [ 1 x_17_ ^ 2 - 2 x_68_ * x_17_ + 1 x_68_ ^ 2 + 1 y_17_ ^ 2 - 2 y_68_ * y_17_ + 1 y_68_ ^ 2 ] <= 25510.58
quadratic_ranged_280_ub: [ 1 x_34_ ^ 2 - 2 x_68_ * x_34_ + 1 x_68_ ^ 2 + 1 y_34_ ^ 2 - 2 y_68_ * y_34_ + 1 y_68_ ^ 2 ] <= 11796.8
quadratic_ranged_281_ub: [ 1 x_40_ ^ 2 - 2 x_68_ * x_40_ + 1 x_68_ ^ 2 + 1 y_40_ ^ 2 - 2 y_68_ * y_40_ + 1 y_68_ ^ 2 ] <= 21752.37
quadratic_ranged_282_ub: [ 1 x_46_ ^ 2 - 2 x_68_ * x_46_ + 1 x_68_ ^ 2 + 1 y_46_ ^ 2 - 2 y_68_ * y_46_ + 1 y_68_ ^ 2 ] <= 4888.4
quadratic_ranged_283_ub: [ 1 x_50_ ^ 2 - 2 x_68_ * x_50_ + 1 x_68_ ^ 2 + 1 y_50_ ^ 2 - 2 y_68_ * y_50_ + 1 y_68_ ^ 2 ] <= 5591.36
quadratic_ranged_284_ub: [ 1 x_56_ ^ 2 - 2 x_68_ * x_56_ + 1 x_68_ ^ 2 + 1 y_56_ ^ 2 - 2 y_68_ * y_56_ + 1 y_68_ ^ 2 ] <= 3616.81
quadratic_ranged_285_ub: [ 1 x_64_ ^ 2 - 2 x_68_ * x_64_ + 1 x_68_ ^ 2 + 1 y_64_ ^ 2 - 2 y_68_ * y_64_ + 1 y_68_ ^ 2 ] <= 22374.53
quadratic_ranged_286_ub: [ 1 x_67_ ^ 2 - 2 x_68_ * x_67_ + 1 x_68_ ^ 2 + 1 y_67_ ^ 2 - 2 y_68_ * y_67_ + 1 y_68_ ^ 2 ] <= 18039.61
quadratic_ranged_287_ub: [ 1 x_5_ ^ 2 - 2 x_69_ * x_5_ + 1 x_69_ ^ 2 + 1 y_5_ ^ 2 - 2 y_69_ * y_5_ + 1 y_69_ ^ 2 ] <= 7324.52
quadratic_ranged_288_ub: [ 1 x_11_ ^ 2 - 2 x_69_ * x_11_ + 1 x_69_ ^ 2 + 1 y_11_ ^ 2 - 2 y_69_ * y_11_ + 1 y_69_ ^ 2 ] <= 10504
quadratic_ranged_289_ub: [ 1 x_13_ ^ 2 - 2 x_69_ * x_13_ + 1 x_69_ ^ 2 + 1 y_13_ ^ 2 - 2 y_69_ * y_13_ + 1 y_69_ ^ 2 ] <= 6764.9800000000005
quadratic_ranged_290_ub: [ 1 x_15_ ^ 2 - 2 x_69_ * x_15_ + 1 x_69_ ^ 2 + 1 y_15_ ^ 2 - 2 y_69_ * y_15_ + 1 y_69_ ^ 2 ] <= 21721.06
quadratic_ranged_291_ub: [ 1 x_19_ ^ 2 - 2 x_69_ * x_19_ + 1 x_69_ ^ 2 + 1 y_19_ ^ 2 - 2 y_69_ * y_19_ + 1 y_69_ ^ 2 ] <= 9962.64
quadratic_ranged_292_ub: [ 1 x_26_ ^ 2 - 2 x_69_ * x_26_ + 1 x_69_ ^ 2 + 1 y_26_ ^ 2 - 2 y_69_ * y_26_ + 1 y_69_ ^ 2 ] <= 36073.16
quadratic_ranged_293_ub: [ 1 x_41_ ^ 2 - 2 x_69_ * x_41_ + 1 x_69_ ^ 2 + 1 y_41_ ^ 2 - 2 y_69_ * y_41_ + 1 y_69_ ^ 2 ] <= 703.97
quadratic_ranged_294_ub: [ 1 x_54_ ^ 2 - 2 x_69_ * x_54_ + 1 x_69_ ^ 2 + 1 y_54_ ^ 2 - 2 y_69_ * y_54_ + 1 y_69_ ^ 2 ] <= 14803.57
quadratic_ranged_295_ub: [ 1 x_58_ ^ 2 - 2 x_69_ * x_58_ + 1 x_69_ ^ 2 + 1 y_58_ ^ 2 - 2 y_69_ * y_58_ + 1 y_69_ ^ 2 ] <= 25533.81
quadratic_ranged_296_ub: [ 1 x_67_ ^ 2 - 2 x_69_ * x_67_ + 1 x_69_ ^ 2 + 1 y_67_ ^ 2 - 2 y_69_ * y_67_ + 1 y_69_ ^ 2 ] <= 51571.61
quadratic_ranged_297_ub: [ 1 x_68_ ^ 2 - 2 x_69_ * x_68_ + 1 x_69_ ^ 2 + 1 y_68_ ^ 2 - 2 y_69_ * y_68_ + 1 y_69_ ^ 2 ] <= 15838.82
quadratic_ranged_298_ub: [ 1 x_3_ ^ 2 - 2 x_70_ * x_3_ + 1 x_70_ ^ 2 + 1 y_3_ ^ 2 - 2 y_70_ * y_3_ + 1 y_70_ ^ 2 ] <= 11236.25
quadratic_ranged_299_ub: [ 1 x_12_ ^ 2 - 2 x_70_ * x_12_ + 1 x_70_ ^ 2 + 1 y_12_ ^ 2 - 2 y_70_ * y_12_ + 1 y_70_ ^ 2 ] <= 17057.89
quadratic_ranged_300_ub: [ 1 x_14_ ^ 2 - 2 x_70_ * x_14_ + 1 x_70_ ^ 2 + 1 y_14_ ^ 2 - 2 y_70_ * y_14_ + 1 y_70_ ^ 2 ] <= 10239.38
quadratic_ranged_301_ub: [ 1 x_17_ ^ 2 - 2 x_70_ * x_17_ + 1 x_70_ ^ 2 + 1 y_17_ ^ 2 - 2 y_70_ * y_17_ + 1 y_70_ ^ 2 ] <= 8889.01
quadratic_ranged_302_ub: [ 1 x_68_ ^ 2 - 2 x_70_ * x_68_ + 1 x_70_ ^ 2 + 1 y_68_ ^ 2 - 2 y_70_ * y_68_ + 1 y_70_ ^ 2 ] <= 6267.05
quadratic_ranged_303_ub: [ 1 x_69_ ^ 2 - 2 x_70_ * x_69_ + 1 x_70_ ^ 2 + 1 y_69_ ^ 2 - 2 y_70_ * y_69_ + 1 y_70_ ^ 2 ] <= 25606.53
quadratic_ranged_304_ub: [ 1 x_12_ ^ 2 - 2 x_71_ * x_12_ + 1 x_71_ ^ 2 + 1 y_12_ ^ 2 - 2 y_71_ * y_12_ + 1 y_71_ ^ 2 ] <= 23248.18
quadratic_ranged_305_ub: [ 1 x_15_ ^ 2 - 2 x_71_ * x_15_ + 1 x_71_ ^ 2 + 1 y_15_ ^ 2 - 2 y_71_ * y_15_ + 1 y_71_ ^ 2 ] <= 2886.58
quadratic_ranged_306_ub: [ 1 x_31_ ^ 2 - 2 x_71_ * x_31_ + 1 x_71_ ^ 2 + 1 y_31_ ^ 2 - 2 y_71_ * y_31_ + 1 y_71_ ^ 2 ] <= 2938.09
quadratic_ranged_307_ub: [ 1 x_34_ ^ 2 - 2 x_71_ * x_34_ + 1 x_71_ ^ 2 + 1 y_34_ ^ 2 - 2 y_71_ * y_34_ + 1 y_71_ ^ 2 ] <= 58.58
quadratic_ranged_308_ub: [ 1 x_38_ ^ 2 - 2 x_71_ * x_38_ + 1 x_71_ ^ 2 + 1 y_38_ ^ 2 - 2 y_71_ * y_38_ + 1 y_71_ ^ 2 ] <= 2194.73
quadratic_ranged_309_ub: [ 1 x_49_ ^ 2 - 2 x_71_ * x_49_ + 1 x_71_ ^ 2 + 1 y_49_ ^ 2 - 2 y_71_ * y_49_ + 1 y_71_ ^ 2 ] <= 6662.97
quadratic_ranged_310_ub: [ 1 x_55_ ^ 2 - 2 x_71_ * x_55_ + 1 x_71_ ^ 2 + 1 y_55_ ^ 2 - 2 y_71_ * y_55_ + 1 y_71_ ^ 2 ] <= 3064.34
quadratic_ranged_311_ub: [ 1 x_67_ ^ 2 - 2 x_71_ * x_67_ + 1 x_71_ ^ 2 + 1 y_67_ ^ 2 - 2 y_71_ * y_67_ + 1 y_71_ ^ 2 ] <= 2412.89
quadratic_ranged_312_ub: [ 1 x_70_ ^ 2 - 2 x_71_ * x_70_ + 1 x_71_ ^ 2 + 1 y_70_ ^ 2 - 2 y_71_ * y_70_ + 1 y_71_ ^ 2 ] <= 736.29
quadratic_ranged_313_ub: [ 1 x_4_ ^ 2 - 2 x_72_ * x_4_ + 1 x_72_ ^ 2 + 1 y_4_ ^ 2 - 2 y_72_ * y_4_ + 1 y_72_ ^ 2 ] <= 8925.37
quadratic_ranged_314_ub: [ 1 x_14_ ^ 2 - 2 x_72_ * x_14_ + 1 x_72_ ^ 2 + 1 y_14_ ^ 2 - 2 y_72_ * y_14_ + 1 y_72_ ^ 2 ] <= 22338.170000000002
quadratic_ranged_315_ub: [ 1 x_19_ ^ 2 - 2 x_72_ * x_19_ + 1 x_72_ ^ 2 + 1 y_19_ ^ 2 - 2 y_72_ * y_19_ + 1 y_72_ ^ 2 ] <= 17230.6
quadratic_ranged_316_ub: [ 1 x_34_ ^ 2 - 2 x_72_ * x_34_ + 1 x_72_ ^ 2 + 1 y_34_ ^ 2 - 2 y_72_ * y_34_ + 1 y_72_ ^ 2 ] <= 2046.26
quadratic_ranged_317_ub: [ 1 x_36_ ^ 2 - 2 x_72_ * x_36_ + 1 x_72_ ^ 2 + 1 y_36_ ^ 2 - 2 y_72_ * y_36_ + 1 y_72_ ^ 2 ] <= 33028.01
quadratic_ranged_318_ub: [ 1 x_44_ ^ 2 - 2 x_72_ * x_44_ + 1 x_72_ ^ 2 + 1 y_44_ ^ 2 - 2 y_72_ * y_44_ + 1 y_72_ ^ 2 ] <= 13248.17
quadratic_ranged_319_ub: [ 1 x_55_ ^ 2 - 2 x_72_ * x_55_ + 1 x_72_ ^ 2 + 1 y_55_ ^ 2 - 2 y_72_ * y_55_ + 1 y_72_ ^ 2 ] <= 11564.5
quadratic_ranged_320_ub: [ 1 x_64_ ^ 2 - 2 x_72_ * x_64_ + 1 x_72_ ^ 2 + 1 y_64_ ^ 2 - 2 y_72_ * y_64_ + 1 y_72_ ^ 2 ] <= 17966.89
quadratic_ranged_321_ub: [ 1 x_66_ ^ 2 - 2 x_72_ * x_66_ + 1 x_72_ ^ 2 + 1 y_66_ ^ 2 - 2 y_72_ * y_66_ + 1 y_72_ ^ 2 ] <= 13917.8
quadratic_ranged_322_ub: [ 1 x_71_ ^ 2 - 2 x_72_ * x_71_ + 1 x_72_ ^ 2 + 1 y_71_ ^ 2 - 2 y_72_ * y_71_ + 1 y_72_ ^ 2 ] <= 2735.08
quadratic_ranged_323_ub: [ 1 x_10_ ^ 2 - 2 x_73_ * x_10_ + 1 x_73_ ^ 2 + 1 y_10_ ^ 2 - 2 y_73_ * y_10_ + 1 y_73_ ^ 2 ] <= 15732.77
quadratic_ranged_324_ub: [ 1 x_11_ ^ 2 - 2 x_73_ * x_11_ + 1 x_73_ ^ 2 + 1 y_11_ ^ 2 - 2 y_73_ * y_11_ + 1 y_73_ ^ 2 ] <= 3119.89
quadratic_ranged_325_ub: [ 1 x_30_ ^ 2 - 2 x_73_ * x_30_ + 1 x_73_ ^ 2 + 1 y_30_ ^ 2 - 2 y_73_ * y_30_ + 1 y_73_ ^ 2 ] <= 20932.25
quadratic_ranged_326_ub: [ 1 x_32_ ^ 2 - 2 x_73_ * x_32_ + 1 x_73_ ^ 2 + 1 y_32_ ^ 2 - 2 y_73_ * y_32_ + 1 y_73_ ^ 2 ] <= 8995.06
quadratic_ranged_327_ub: [ 1 x_36_ ^ 2 - 2 x_73_ * x_36_ + 1 x_73_ ^ 2 + 1 y_36_ ^ 2 - 2 y_73_ * y_36_ + 1 y_73_ ^ 2 ] <= 7373
quadratic_ranged_328_ub: [ 1 x_39_ ^ 2 - 2 x_73_ * x_39_ + 1 x_73_ ^ 2 + 1 y_39_ ^ 2 - 2 y_73_ * y_39_ + 1 y_73_ ^ 2 ] <= 761.54
quadratic_ranged_329_ub: [ 1 x_72_ ^ 2 - 2 x_73_ * x_72_ + 1 x_73_ ^ 2 + 1 y_72_ ^ 2 - 2 y_73_ * y_72_ + 1 y_73_ ^ 2 ] <= 27969.93
quadratic_ranged_330_ub: [ 1 x_8_ ^ 2 - 2 x_74_ * x_8_ + 1 x_74_ ^ 2 + 1 y_8_ ^ 2 - 2 y_74_ * y_8_ + 1 y_74_ ^ 2 ] <= 28704.2
quadratic_ranged_331_ub: [ 1 x_15_ ^ 2 - 2 x_74_ * x_15_ + 1 x_74_ ^ 2 + 1 y_15_ ^ 2 - 2 y_74_ * y_15_ + 1 y_74_ ^ 2 ] <= 9200.09
quadratic_ranged_332_ub: [ 1 x_29_ ^ 2 - 2 x_74_ * x_29_ + 1 x_74_ ^ 2 + 1 y_29_ ^ 2 - 2 y_74_ * y_29_ + 1 y_74_ ^ 2 ] <= 37058.92
quadratic_ranged_333_ub: [ 1 x_36_ ^ 2 - 2 x_74_ * x_36_ + 1 x_74_ ^ 2 + 1 y_36_ ^ 2 - 2 y_74_ * y_36_ + 1 y_74_ ^ 2 ] <= 12736.1
quadratic_ranged_334_ub: [ 1 x_46_ ^ 2 - 2 x_74_ * x_46_ + 1 x_74_ ^ 2 + 1 y_46_ ^ 2 - 2 y_74_ * y_46_ + 1 y_74_ ^ 2 ] <= 9398.05
quadratic_ranged_335_ub: [ 1 x_57_ ^ 2 - 2 x_74_ * x_57_ + 1 x_74_ ^ 2 + 1 y_57_ ^ 2 - 2 y_74_ * y_57_ + 1 y_74_ ^ 2 ] <= 6368.05
quadratic_ranged_336_ub: [ 1 x_65_ ^ 2 - 2 x_74_ * x_65_ + 1 x_74_ ^ 2 + 1 y_65_ ^ 2 - 2 y_74_ * y_65_ + 1 y_74_ ^ 2 ] <= 35051.04
quadratic_ranged_337_ub: [ 1 x_73_ ^ 2 - 2 x_74_ * x_73_ + 1 x_74_ ^ 2 + 1 y_73_ ^ 2 - 2 y_74_ * y_73_ + 1 y_74_ ^ 2 ] <= 27950.74
quadratic_ranged_338_ub: [ 1 x_22_ ^ 2 - 2 x_75_ * x_22_ + 1 x_75_ ^ 2 + 1 y_22_ ^ 2 - 2 y_75_ * y_22_ + 1 y_75_ ^ 2 ] <= 35980.24
quadratic_ranged_339_ub: [ 1 x_24_ ^ 2 - 2 x_75_ * x_24_ + 1 x_75_ ^ 2 + 1 y_24_ ^ 2 - 2 y_75_ * y_24_ + 1 y_75_ ^ 2 ] <= 549.44
quadratic_ranged_340_ub: [ 1 x_37_ ^ 2 - 2 x_75_ * x_37_ + 1 x_75_ ^ 2 + 1 y_37_ ^ 2 - 2 y_75_ * y_37_ + 1 y_75_ ^ 2 ] <= 55045
quadratic_ranged_341_ub: [ 1 x_42_ ^ 2 - 2 x_75_ * x_42_ + 1 x_75_ ^ 2 + 1 y_42_ ^ 2 - 2 y_75_ * y_42_ + 1 y_75_ ^ 2 ] <= 38772.89
quadratic_ranged_342_ub: [ 1 x_49_ ^ 2 - 2 x_75_ * x_49_ + 1 x_75_ ^ 2 + 1 y_49_ ^ 2 - 2 y_75_ * y_49_ + 1 y_75_ ^ 2 ] <= 22693.69
quadratic_ranged_343_ub: [ 1 x_50_ ^ 2 - 2 x_75_ * x_50_ + 1 x_75_ ^ 2 + 1 y_50_ ^ 2 - 2 y_75_ * y_50_ + 1 y_75_ ^ 2 ] <= 45985.3
quadratic_ranged_344_ub: [ 1 x_51_ ^ 2 - 2 x_75_ * x_51_ + 1 x_75_ ^ 2 + 1 y_51_ ^ 2 - 2 y_75_ * y_51_ + 1 y_75_ ^ 2 ] <= 24411.7
quadratic_ranged_345_ub: [ 1 x_64_ ^ 2 - 2 x_75_ * x_64_ + 1 x_75_ ^ 2 + 1 y_64_ ^ 2 - 2 y_75_ * y_64_ + 1 y_75_ ^ 2 ] <= 21639.25
quadratic_ranged_346_ub: [ 1 x_73_ ^ 2 - 2 x_75_ * x_73_ + 1 x_75_ ^ 2 + 1 y_73_ ^ 2 - 2 y_75_ * y_73_ + 1 y_75_ ^ 2 ] <= 37314.45
quadratic_ranged_347_ub: [ 1 x_74_ ^ 2 - 2 x_75_ * x_74_ + 1 x_75_ ^ 2 + 1 y_74_ ^ 2 - 2 y_75_ * y_74_ + 1 y_75_ ^ 2 ] <= 26838.73
quadratic_ranged_348_ub: [ 1 x_10_ ^ 2 - 2 x_76_ * x_10_ + 1 x_76_ ^ 2 + 1 y_10_ ^ 2 - 2 y_76_ * y_10_ + 1 y_76_ ^ 2 ] <= 30851.46
quadratic_ranged_349_ub: [ 1 x_16_ ^ 2 - 2 x_76_ * x_16_ + 1 x_76_ ^ 2 + 1 y_16_ ^ 2 - 2 y_76_ * y_16_ + 1 y_76_ ^ 2 ] <= 618.12
quadratic_ranged_350_ub: [ 1 x_32_ ^ 2 - 2 x_76_ * x_32_ + 1 x_76_ ^ 2 + 1 y_32_ ^ 2 - 2 y_76_ * y_32_ + 1 y_76_ ^ 2 ] <= 23780.45
quadratic_ranged_351_ub: [ 1 x_33_ ^ 2 - 2 x_76_ * x_33_ + 1 x_76_ ^ 2 + 1 y_33_ ^ 2 - 2 y_76_ * y_33_ + 1 y_76_ ^ 2 ] <= 55012.68
quadratic_ranged_352_ub: [ 1 x_42_ ^ 2 - 2 x_76_ * x_42_ + 1 x_76_ ^ 2 + 1 y_42_ ^ 2 - 2 y_76_ * y_42_ + 1 y_76_ ^ 2 ] <= 1940.21
quadratic_ranged_353_ub: [ 1 x_44_ ^ 2 - 2 x_76_ * x_44_ + 1 x_76_ ^ 2 + 1 y_44_ ^ 2 - 2 y_76_ * y_44_ + 1 y_76_ ^ 2 ] <= 18080.01
quadratic_ranged_354_ub: [ 1 x_45_ ^ 2 - 2 x_76_ * x_45_ + 1 x_76_ ^ 2 + 1 y_45_ ^ 2 - 2 y_76_ * y_45_ + 1 y_76_ ^ 2 ] <= 8953.65
quadratic_ranged_355_ub: [ 1 x_52_ ^ 2 - 2 x_76_ * x_52_ + 1 x_76_ ^ 2 + 1 y_52_ ^ 2 - 2 y_76_ * y_52_ + 1 y_76_ ^ 2 ] <= 4858.1
quadratic_ranged_356_ub: [ 1 x_73_ ^ 2 - 2 x_76_ * x_73_ + 1 x_76_ ^ 2 + 1 y_73_ ^ 2 - 2 y_76_ * y_73_ + 1 y_76_ ^ 2 ] <= 3661.25
quadratic_ranged_357_ub: [ 1 x_75_ ^ 2 - 2 x_76_ * x_75_ + 1 x_76_ ^ 2 + 1 y_75_ ^ 2 - 2 y_76_ * y_75_ + 1 y_76_ ^ 2 ] <= 57701.3
quadratic_ranged_358_ub: [ 1 x_25_ ^ 2 - 2 x_77_ * x_25_ + 1 x_77_ ^ 2 + 1 y_25_ ^ 2 - 2 y_77_ * y_25_ + 1 y_77_ ^ 2 ] <= 9528.34
quadratic_ranged_359_ub: [ 1 x_27_ ^ 2 - 2 x_77_ * x_27_ + 1 x_77_ ^ 2 + 1 y_27_ ^ 2 - 2 y_77_ * y_27_ + 1 y_77_ ^ 2 ] <= 8035.56
quadratic_ranged_360_ub: [ 1 x_29_ ^ 2 - 2 x_77_ * x_29_ + 1 x_77_ ^ 2 + 1 y_29_ ^ 2 - 2 y_77_ * y_29_ + 1 y_77_ ^ 2 ] <= 13203.73
quadratic_ranged_361_ub: [ 1 x_50_ ^ 2 - 2 x_77_ * x_50_ + 1 x_77_ ^ 2 + 1 y_50_ ^ 2 - 2 y_77_ * y_50_ + 1 y_77_ ^ 2 ] <= 2832.04
quadratic_ranged_362_ub: [ 1 x_71_ ^ 2 - 2 x_77_ * x_71_ + 1 x_77_ ^ 2 + 1 y_71_ ^ 2 - 2 y_77_ * y_71_ + 1 y_77_ ^ 2 ] <= 11039.3
quadratic_ranged_363_ub: [ 1 x_76_ ^ 2 - 2 x_77_ * x_76_ + 1 x_77_ ^ 2 + 1 y_76_ ^ 2 - 2 y_77_ * y_76_ + 1 y_77_ ^ 2 ] <= 6128.68
quadratic_ranged_364_ub: [ 1 x_26_ ^ 2 - 2 x_78_ * x_26_ + 1 x_78_ ^ 2 + 1 y_26_ ^ 2 - 2 y_78_ * y_26_ + 1 y_78_ ^ 2 ] <= 7297.25
quadratic_ranged_365_ub: [ 1 x_32_ ^ 2 - 2 x_78_ * x_32_ + 1 x_78_ ^ 2 + 1 y_32_ ^ 2 - 2 y_78_ * y_32_ + 1 y_78_ ^ 2 ] <= 1181.7
quadratic_ranged_366_ub: [ 1 x_51_ ^ 2 - 2 x_78_ * x_51_ + 1 x_78_ ^ 2 + 1 y_51_ ^ 2 - 2 y_78_ * y_51_ + 1 y_78_ ^ 2 ] <= 2812.85
quadratic_ranged_367_ub: [ 1 x_77_ ^ 2 - 2 x_78_ * x_77_ + 1 x_78_ ^ 2 + 1 y_77_ ^ 2 - 2 y_78_ * y_77_ + 1 y_78_ ^ 2 ] <= 20095.97
quadratic_ranged_368_ub: [ 1 x_2_ ^ 2 - 2 x_79_ * x_2_ + 1 x_79_ ^ 2 + 1 y_2_ ^ 2 - 2 y_79_ * y_2_ + 1 y_79_ ^ 2 ] <= 18489.06
quadratic_ranged_369_ub: [ 1 x_5_ ^ 2 - 2 x_79_ * x_5_ + 1 x_79_ ^ 2 + 1 y_5_ ^ 2 - 2 y_79_ * y_5_ + 1 y_79_ ^ 2 ] <= 24341
quadratic_ranged_370_ub: [ 1 x_7_ ^ 2 - 2 x_79_ * x_7_ + 1 x_79_ ^ 2 + 1 y_7_ ^ 2 - 2 y_79_ * y_7_ + 1 y_79_ ^ 2 ] <= 4998.49
quadratic_ranged_371_ub: [ 1 x_10_ ^ 2 - 2 x_79_ * x_10_ + 1 x_79_ ^ 2 + 1 y_10_ ^ 2 - 2 y_79_ * y_10_ + 1 y_79_ ^ 2 ] <= 14390.48
quadratic_ranged_372_ub: [ 1 x_21_ ^ 2 - 2 x_79_ * x_21_ + 1 x_79_ ^ 2 + 1 y_21_ ^ 2 - 2 y_79_ * y_21_ + 1 y_79_ ^ 2 ] <= 31613
quadratic_ranged_373_ub: [ 1 x_25_ ^ 2 - 2 x_79_ * x_25_ + 1 x_79_ ^ 2 + 1 y_25_ ^ 2 - 2 y_79_ * y_25_ + 1 y_79_ ^ 2 ] <= 18462.8
quadratic_ranged_374_ub: [ 1 x_34_ ^ 2 - 2 x_79_ * x_34_ + 1 x_79_ ^ 2 + 1 y_34_ ^ 2 - 2 y_79_ * y_34_ + 1 y_79_ ^ 2 ] <= 15014.66
quadratic_ranged_375_ub: [ 1 x_39_ ^ 2 - 2 x_79_ * x_39_ + 1 x_79_ ^ 2 + 1 y_39_ ^ 2 - 2 y_79_ * y_39_ + 1 y_79_ ^ 2 ] <= 14775.29
quadratic_ranged_376_ub: [ 1 x_54_ ^ 2 - 2 x_79_ * x_54_ + 1 x_79_ ^ 2 + 1 y_54_ ^ 2 - 2 y_79_ * y_54_ + 1 y_79_ ^ 2 ] <= 990.8100000000001
quadratic_ranged_377_ub: [ 1 x_78_ ^ 2 - 2 x_79_ * x_78_ + 1 x_79_ ^ 2 + 1 y_78_ ^ 2 - 2 y_79_ * y_78_ + 1 y_79_ ^ 2 ] <= 33153.25
quadratic_ranged_378_ub: [ 1 x_21_ ^ 2 - 2 x_80_ * x_21_ + 1 x_80_ ^ 2 + 1 y_21_ ^ 2 - 2 y_80_ * y_21_ + 1 y_80_ ^ 2 ] <= 18408.26
quadratic_ranged_379_ub: [ 1 x_36_ ^ 2 - 2 x_80_ * x_36_ + 1 x_80_ ^ 2 + 1 y_36_ ^ 2 - 2 y_80_ * y_36_ + 1 y_80_ ^ 2 ] <= 33003.77
quadratic_ranged_380_ub: [ 1 x_40_ ^ 2 - 2 x_80_ * x_40_ + 1 x_80_ ^ 2 + 1 y_40_ ^ 2 - 2 y_80_ * y_40_ + 1 y_80_ ^ 2 ] <= 15058.09
quadratic_ranged_381_ub: [ 1 x_44_ ^ 2 - 2 x_80_ * x_44_ + 1 x_80_ ^ 2 + 1 y_44_ ^ 2 - 2 y_80_ * y_44_ + 1 y_80_ ^ 2 ] <= 10303.01
quadratic_ranged_382_ub: [ 1 x_54_ ^ 2 - 2 x_80_ * x_54_ + 1 x_80_ ^ 2 + 1 y_54_ ^ 2 - 2 y_80_ * y_54_ + 1 y_80_ ^ 2 ] <= 26115.57
quadratic_ranged_383_ub: [ 1 x_79_ ^ 2 - 2 x_80_ * x_79_ + 1 x_80_ ^ 2 + 1 y_79_ ^ 2 - 2 y_80_ * y_79_ + 1 y_80_ ^ 2 ] <= 17034.66
quadratic_ranged_384_ub: [ 1 x_10_ ^ 2 - 2 x_81_ * x_10_ + 1 x_81_ ^ 2 + 1 y_10_ ^ 2 - 2 y_81_ * y_10_ + 1 y_81_ ^ 2 ] <= 15134.85
quadratic_ranged_385_ub: [ 1 x_35_ ^ 2 - 2 x_81_ * x_35_ + 1 x_81_ ^ 2 + 1 y_35_ ^ 2 - 2 y_81_ * y_35_ + 1 y_81_ ^ 2 ] <= 1028.18
quadratic_ranged_386_ub: [ 1 x_36_ ^ 2 - 2 x_81_ * x_36_ + 1 x_81_ ^ 2 + 1 y_36_ ^ 2 - 2 y_81_ * y_36_ + 1 y_81_ ^ 2 ] <= 7970.92
quadratic_ranged_387_ub: [ 1 x_38_ ^ 2 - 2 x_81_ * x_38_ + 1 x_81_ ^ 2 + 1 y_38_ ^ 2 - 2 y_81_ * y_38_ + 1 y_81_ ^ 2 ] <= 5326.74
quadratic_ranged_388_ub: [ 1 x_39_ ^ 2 - 2 x_81_ * x_39_ + 1 x_81_ ^ 2 + 1 y_39_ ^ 2 - 2 y_81_ * y_39_ + 1 y_81_ ^ 2 ] <= 591.86
quadratic_ranged_389_ub: [ 1 x_48_ ^ 2 - 2 x_81_ * x_48_ + 1 x_81_ ^ 2 + 1 y_48_ ^ 2 - 2 y_81_ * y_48_ + 1 y_81_ ^ 2 ] <= 3285.53
quadratic_ranged_390_ub: [ 1 x_59_ ^ 2 - 2 x_81_ * x_59_ + 1 x_81_ ^ 2 + 1 y_59_ ^ 2 - 2 y_81_ * y_59_ + 1 y_81_ ^ 2 ] <= 15453
quadratic_ranged_391_ub: [ 1 x_61_ ^ 2 - 2 x_81_ * x_61_ + 1 x_81_ ^ 2 + 1 y_61_ ^ 2 - 2 y_81_ * y_61_ + 1 y_81_ ^ 2 ] <= 9062.73
quadratic_ranged_392_ub: [ 1 x_65_ ^ 2 - 2 x_81_ * x_65_ + 1 x_81_ ^ 2 + 1 y_65_ ^ 2 - 2 y_81_ * y_65_ + 1 y_81_ ^ 2 ] <= 656.5
quadratic_ranged_393_ub: [ 1 x_74_ ^ 2 - 2 x_81_ * x_74_ + 1 x_81_ ^ 2 + 1 y_74_ ^ 2 - 2 y_81_ * y_74_ + 1 y_81_ ^ 2 ] <= 28411.3
quadratic_ranged_394_ub: [ 1 x_80_ ^ 2 - 2 x_81_ * x_80_ + 1 x_81_ ^ 2 + 1 y_80_ ^ 2 - 2 y_81_ * y_80_ + 1 y_81_ ^ 2 ] <= 24556.13
quadratic_ranged_395_ub: [ 1 x_20_ ^ 2 - 2 x_82_ * x_20_ + 1 x_82_ ^ 2 + 1 y_20_ ^ 2 - 2 y_82_ * y_20_ + 1 y_82_ ^ 2 ] <= 11606.92
quadratic_ranged_396_ub: [ 1 x_60_ ^ 2 - 2 x_82_ * x_60_ + 1 x_82_ ^ 2 + 1 y_60_ ^ 2 - 2 y_82_ * y_60_ + 1 y_82_ ^ 2 ] <= 14293.52
quadratic_ranged_397_ub: [ 1 x_61_ ^ 2 - 2 x_82_ * x_61_ + 1 x_82_ ^ 2 + 1 y_61_ ^ 2 - 2 y_82_ * y_61_ + 1 y_82_ ^ 2 ] <= 39152.65
quadratic_ranged_398_ub: [ 1 x_81_ ^ 2 - 2 x_82_ * x_81_ + 1 x_82_ ^ 2 + 1 y_81_ ^ 2 - 2 y_82_ * y_81_ + 1 y_82_ ^ 2 ] <= 12297.76
quadratic_ranged_399_ub: [ 1 x_3_ ^ 2 - 2 x_83_ * x_3_ + 1 x_83_ ^ 2 + 1 y_3_ ^ 2 - 2 y_83_ * y_3_ + 1 y_83_ ^ 2 ] <= 33778.44
quadratic_ranged_400_ub: [ 1 x_6_ ^ 2 - 2 x_83_ * x_6_ + 1 x_83_ ^ 2 + 1 y_6_ ^ 2 - 2 y_83_ * y_6_ + 1 y_83_ ^ 2 ] <= 1273.61
quadratic_ranged_401_ub: [ 1 x_10_ ^ 2 - 2 x_83_ * x_10_ + 1 x_83_ ^ 2 + 1 y_10_ ^ 2 - 2 y_83_ * y_10_ + 1 y_83_ ^ 2 ] <= 7653.78
quadratic_ranged_402_ub: [ 1 x_59_ ^ 2 - 2 x_83_ * x_59_ + 1 x_83_ ^ 2 + 1 y_59_ ^ 2 - 2 y_83_ * y_59_ + 1 y_83_ ^ 2 ] <= 13825.89
quadratic_ranged_403_ub: [ 1 x_60_ ^ 2 - 2 x_83_ * x_60_ + 1 x_83_ ^ 2 + 1 y_60_ ^ 2 - 2 y_83_ * y_60_ + 1 y_83_ ^ 2 ] <= 2606.81
quadratic_ranged_404_ub: [ 1 x_70_ ^ 2 - 2 x_83_ * x_70_ + 1 x_83_ ^ 2 + 1 y_70_ ^ 2 - 2 y_83_ * y_70_ + 1 y_83_ ^ 2 ] <= 7866.89
quadratic_ranged_405_ub: [ 1 x_73_ ^ 2 - 2 x_83_ * x_73_ + 1 x_83_ ^ 2 + 1 y_73_ ^ 2 - 2 y_83_ * y_73_ + 1 y_83_ ^ 2 ] <= 6448.85
quadratic_ranged_406_ub: [ 1 x_75_ ^ 2 - 2 x_83_ * x_75_ + 1 x_83_ ^ 2 + 1 y_75_ ^ 2 - 2 y_83_ * y_75_ + 1 y_83_ ^ 2 ] <= 22674.5
quadratic_ranged_407_ub: [ 1 x_82_ ^ 2 - 2 x_83_ * x_82_ + 1 x_83_ ^ 2 + 1 y_82_ ^ 2 - 2 y_83_ * y_82_ + 1 y_83_ ^ 2 ] <= 28402.21
quadratic_ranged_408_ub: [ 1 x_4_ ^ 2 - 2 x_84_ * x_4_ + 1 x_84_ ^ 2 + 1 y_4_ ^ 2 - 2 y_84_ * y_4_ + 1 y_84_ ^ 2 ] <= 16978.1
quadratic_ranged_409_ub: [ 1 x_9_ ^ 2 - 2 x_84_ * x_9_ + 1 x_84_ ^ 2 + 1 y_9_ ^ 2 - 2 y_84_ * y_9_ + 1 y_84_ ^ 2 ] <= 15817.61
quadratic_ranged_410_ub: [ 1 x_19_ ^ 2 - 2 x_84_ * x_19_ + 1 x_84_ ^ 2 + 1 y_19_ ^ 2 - 2 y_84_ * y_19_ + 1 y_84_ ^ 2 ] <= 2772.45
quadratic_ranged_411_ub: [ 1 x_23_ ^ 2 - 2 x_84_ * x_23_ + 1 x_84_ ^ 2 + 1 y_23_ ^ 2 - 2 y_84_ * y_23_ + 1 y_84_ ^ 2 ] <= 4922.74
quadratic_ranged_412_ub: [ 1 x_30_ ^ 2 - 2 x_84_ * x_30_ + 1 x_84_ ^ 2 + 1 y_30_ ^ 2 - 2 y_84_ * y_30_ + 1 y_84_ ^ 2 ] <= 14932.85
quadratic_ranged_413_ub: [ 1 x_31_ ^ 2 - 2 x_84_ * x_31_ + 1 x_84_ ^ 2 + 1 y_31_ ^ 2 - 2 y_84_ * y_31_ + 1 y_84_ ^ 2 ] <= 13988.5
quadratic_ranged_414_ub: [ 1 x_37_ ^ 2 - 2 x_84_ * x_37_ + 1 x_84_ ^ 2 + 1 y_37_ ^ 2 - 2 y_84_ * y_37_ + 1 y_84_ ^ 2 ] <= 1427.13
quadratic_ranged_415_ub: [ 1 x_40_ ^ 2 - 2 x_84_ * x_40_ + 1 x_84_ ^ 2 + 1 y_40_ ^ 2 - 2 y_84_ * y_40_ + 1 y_84_ ^ 2 ] <= 12493.7
quadratic_ranged_416_ub: [ 1 x_45_ ^ 2 - 2 x_84_ * x_45_ + 1 x_84_ ^ 2 + 1 y_45_ ^ 2 - 2 y_84_ * y_45_ + 1 y_84_ ^ 2 ] <= 2991.62
quadratic_ranged_417_ub: [ 1 x_50_ ^ 2 - 2 x_84_ * x_50_ + 1 x_84_ ^ 2 + 1 y_50_ ^ 2 - 2 y_84_ * y_50_ + 1 y_84_ ^ 2 ] <= 2804.77
quadratic_ranged_418_ub: [ 1 x_68_ ^ 2 - 2 x_84_ * x_68_ + 1 x_84_ ^ 2 + 1 y_68_ ^ 2 - 2 y_84_ * y_68_ + 1 y_84_ ^ 2 ] <= 8000.21
quadratic_ranged_419_ub: [ 1 x_83_ ^ 2 - 2 x_84_ * x_83_ + 1 x_84_ ^ 2 + 1 y_83_ ^ 2 - 2 y_84_ * y_83_ + 1 y_84_ ^ 2 ] <= 11805.89
quadratic_ranged_420_ub: [ 1 x_3_ ^ 2 - 2 x_85_ * x_3_ + 1 x_85_ ^ 2 + 1 y_3_ ^ 2 - 2 y_85_ * y_3_ + 1 y_85_ ^ 2 ] <= 15260.09
quadratic_ranged_421_ub: [ 1 x_26_ ^ 2 - 2 x_85_ * x_26_ + 1 x_85_ ^ 2 + 1 y_26_ ^ 2 - 2 y_85_ * y_26_ + 1 y_85_ ^ 2 ] <= 1819.01
quadratic_ranged_422_ub: [ 1 x_29_ ^ 2 - 2 x_85_ * x_29_ + 1 x_85_ ^ 2 + 1 y_29_ ^ 2 - 2 y_85_ * y_29_ + 1 y_85_ ^ 2 ] <= 2918.9
quadratic_ranged_423_ub: [ 1 x_39_ ^ 2 - 2 x_85_ * x_39_ + 1 x_85_ ^ 2 + 1 y_39_ ^ 2 - 2 y_85_ * y_39_ + 1 y_85_ ^ 2 ] <= 4252.1
quadratic_ranged_424_ub: [ 1 x_40_ ^ 2 - 2 x_85_ * x_40_ + 1 x_85_ ^ 2 + 1 y_40_ ^ 2 - 2 y_85_ * y_40_ + 1 y_85_ ^ 2 ] <= 4674.28
quadratic_ranged_425_ub: [ 1 x_44_ ^ 2 - 2 x_85_ * x_44_ + 1 x_85_ ^ 2 + 1 y_44_ ^ 2 - 2 y_85_ * y_44_ + 1 y_85_ ^ 2 ] <= 1706.9
quadratic_ranged_426_ub: [ 1 x_66_ ^ 2 - 2 x_85_ * x_66_ + 1 x_85_ ^ 2 + 1 y_66_ ^ 2 - 2 y_85_ * y_66_ + 1 y_85_ ^ 2 ] <= 3479.45
quadratic_ranged_427_ub: [ 1 x_71_ ^ 2 - 2 x_85_ * x_71_ + 1 x_85_ ^ 2 + 1 y_71_ ^ 2 - 2 y_85_ * y_71_ + 1 y_85_ ^ 2 ] <= 1023.13
quadratic_ranged_428_ub: [ 1 x_77_ ^ 2 - 2 x_85_ * x_77_ + 1 x_85_ ^ 2 + 1 y_77_ ^ 2 - 2 y_85_ * y_77_ + 1 y_85_ ^ 2 ] <= 5939.81
quadratic_ranged_429_ub: [ 1 x_82_ ^ 2 - 2 x_85_ * x_82_ + 1 x_85_ ^ 2 + 1 y_82_ ^ 2 - 2 y_85_ * y_82_ + 1 y_85_ ^ 2 ] <= 17085.16
quadratic_ranged_430_ub: [ 1 x_83_ ^ 2 - 2 x_85_ * x_83_ + 1 x_85_ ^ 2 + 1 y_83_ ^ 2 - 2 y_85_ * y_83_ + 1 y_85_ ^ 2 ] <= 4267.25
quadratic_ranged_431_ub: [ 1 x_84_ ^ 2 - 2 x_85_ * x_84_ + 1 x_85_ ^ 2 + 1 y_84_ ^ 2 - 2 y_85_ * y_84_ + 1 y_85_ ^ 2 ] <= 10013.14
quadratic_ranged_432_ub: [ 1 x_4_ ^ 2 - 2 x_86_ * x_4_ + 1 x_86_ ^ 2 + 1 y_4_ ^ 2 - 2 y_86_ * y_4_ + 1 y_86_ ^ 2 ] <= 40905
quadratic_ranged_433_ub: [ 1 x_6_ ^ 2 - 2 x_86_ * x_6_ + 1 x_86_ ^ 2 + 1 y_6_ ^ 2 - 2 y_86_ * y_6_ + 1 y_86_ ^ 2 ] <= 2525
quadratic_ranged_434_ub: [ 1 x_14_ ^ 2 - 2 x_86_ * x_14_ + 1 x_86_ ^ 2 + 1 y_14_ ^ 2 - 2 y_86_ * y_14_ + 1 y_86_ ^ 2 ] <= 25540.88
quadratic_ranged_435_ub: [ 1 x_30_ ^ 2 - 2 x_86_ * x_30_ + 1 x_86_ ^ 2 + 1 y_30_ ^ 2 - 2 y_86_ * y_30_ + 1 y_86_ ^ 2 ] <= 43237.090000000004
quadratic_ranged_436_ub: [ 1 x_44_ ^ 2 - 2 x_86_ * x_44_ + 1 x_86_ ^ 2 + 1 y_44_ ^ 2 - 2 y_86_ * y_44_ + 1 y_86_ ^ 2 ] <= 4583.38
quadratic_ranged_437_ub: [ 1 x_68_ ^ 2 - 2 x_86_ * x_68_ + 1 x_86_ ^ 2 + 1 y_68_ ^ 2 - 2 y_86_ * y_68_ + 1 y_86_ ^ 2 ] <= 30511.09
quadratic_ranged_438_ub: [ 1 x_71_ ^ 2 - 2 x_86_ * x_71_ + 1 x_86_ ^ 2 + 1 y_71_ ^ 2 - 2 y_86_ * y_71_ + 1 y_86_ ^ 2 ] <= 16811.45
quadratic_ranged_439_ub: [ 1 x_75_ ^ 2 - 2 x_86_ * x_75_ + 1 x_86_ ^ 2 + 1 y_75_ ^ 2 - 2 y_86_ * y_75_ + 1 y_86_ ^ 2 ] <= 38789.05
quadratic_ranged_440_ub: [ 1 x_78_ ^ 2 - 2 x_86_ * x_78_ + 1 x_86_ ^ 2 + 1 y_78_ ^ 2 - 2 y_86_ * y_78_ + 1 y_86_ ^ 2 ] <= 6354.92
quadratic_ranged_441_ub: [ 1 x_81_ ^ 2 - 2 x_86_ * x_81_ + 1 x_86_ ^ 2 + 1 y_81_ ^ 2 - 2 y_86_ * y_81_ + 1 y_86_ ^ 2 ] <= 6116.56
quadratic_ranged_442_ub: [ 1 x_85_ ^ 2 - 2 x_86_ * x_85_ + 1 x_86_ ^ 2 + 1 y_85_ ^ 2 - 2 y_86_ * y_85_ + 1 y_86_ ^ 2 ] <= 11752.36
quadratic_ranged_443_ub: [ 1 x_7_ ^ 2 - 2 x_87_ * x_7_ + 1 x_87_ ^ 2 + 1 y_7_ ^ 2 - 2 y_87_ * y_7_ + 1 y_87_ ^ 2 ] <= 795.88
quadratic_ranged_444_ub: [ 1 x_19_ ^ 2 - 2 x_87_ * x_19_ + 1 x_87_ ^ 2 + 1 y_19_ ^ 2 - 2 y_87_ * y_19_ + 1 y_87_ ^ 2 ] <= 9991.93
quadratic_ranged_445_ub: [ 1 x_24_ ^ 2 - 2 x_87_ * x_24_ + 1 x_87_ ^ 2 + 1 y_24_ ^ 2 - 2 y_87_ * y_24_ + 1 y_87_ ^ 2 ] <= 8266.85
quadratic_ranged_446_ub: [ 1 x_35_ ^ 2 - 2 x_87_ * x_35_ + 1 x_87_ ^ 2 + 1 y_35_ ^ 2 - 2 y_87_ * y_35_ + 1 y_87_ ^ 2 ] <= 12970.42
quadratic_ranged_447_ub: [ 1 x_47_ ^ 2 - 2 x_87_ * x_47_ + 1 x_87_ ^ 2 + 1 y_47_ ^ 2 - 2 y_87_ * y_47_ + 1 y_87_ ^ 2 ] <= 10472.69
quadratic_ranged_448_ub: [ 1 x_58_ ^ 2 - 2 x_87_ * x_58_ + 1 x_87_ ^ 2 + 1 y_58_ ^ 2 - 2 y_87_ * y_58_ + 1 y_87_ ^ 2 ] <= 27878.02
quadratic_ranged_449_ub: [ 1 x_86_ ^ 2 - 2 x_87_ * x_86_ + 1 x_87_ ^ 2 + 1 y_86_ ^ 2 - 2 y_87_ * y_86_ + 1 y_87_ ^ 2 ] <= 31386.760000000002
quadratic_ranged_450_ub: [ 1 x_14_ ^ 2 - 2 x_88_ * x_14_ + 1 x_88_ ^ 2 + 1 y_14_ ^ 2 - 2 y_88_ * y_14_ + 1 y_88_ ^ 2 ] <= 7313.41
quadratic_ranged_451_ub: [ 1 x_21_ ^ 2 - 2 x_88_ * x_21_ + 1 x_88_ ^ 2 + 1 y_21_ ^ 2 - 2 y_88_ * y_21_ + 1 y_88_ ^ 2 ] <= 8308.26
quadratic_ranged_452_ub: [ 1 x_22_ ^ 2 - 2 x_88_ * x_22_ + 1 x_88_ ^ 2 + 1 y_22_ ^ 2 - 2 y_88_ * y_22_ + 1 y_88_ ^ 2 ] <= 9560.66
quadratic_ranged_453_ub: [ 1 x_37_ ^ 2 - 2 x_88_ * x_37_ + 1 x_88_ ^ 2 + 1 y_37_ ^ 2 - 2 y_88_ * y_37_ + 1 y_88_ ^ 2 ] <= 15281.3
quadratic_ranged_454_ub: [ 1 x_53_ ^ 2 - 2 x_88_ * x_53_ + 1 x_88_ ^ 2 + 1 y_53_ ^ 2 - 2 y_88_ * y_53_ + 1 y_88_ ^ 2 ] <= 19563.7
quadratic_ranged_455_ub: [ 1 x_55_ ^ 2 - 2 x_88_ * x_55_ + 1 x_88_ ^ 2 + 1 y_55_ ^ 2 - 2 y_88_ * y_55_ + 1 y_88_ ^ 2 ] <= 2815.88
quadratic_ranged_456_ub: [ 1 x_69_ ^ 2 - 2 x_88_ * x_69_ + 1 x_88_ ^ 2 + 1 y_69_ ^ 2 - 2 y_88_ * y_69_ + 1 y_88_ ^ 2 ] <= 18432.5
quadratic_ranged_457_ub: [ 1 x_87_ ^ 2 - 2 x_88_ * x_87_ + 1 x_88_ ^ 2 + 1 y_87_ ^ 2 - 2 y_88_ * y_87_ + 1 y_88_ ^ 2 ] <= 4327.85
quadratic_ranged_458_ub: [ 1 x_14_ ^ 2 - 2 x_89_ * x_14_ + 1 x_89_ ^ 2 + 1 y_14_ ^ 2 - 2 y_89_ * y_14_ + 1 y_89_ ^ 2 ] <= 656.5
quadratic_ranged_459_ub: [ 1 x_39_ ^ 2 - 2 x_89_ * x_39_ + 1 x_89_ ^ 2 + 1 y_39_ ^ 2 - 2 y_89_ * y_39_ + 1 y_89_ ^ 2 ] <= 11978.6
quadratic_ranged_460_ub: [ 1 x_42_ ^ 2 - 2 x_89_ * x_42_ + 1 x_89_ ^ 2 + 1 y_42_ ^ 2 - 2 y_89_ * y_42_ + 1 y_89_ ^ 2 ] <= 5173.22
quadratic_ranged_461_ub: [ 1 x_44_ ^ 2 - 2 x_89_ * x_44_ + 1 x_89_ ^ 2 + 1 y_44_ ^ 2 - 2 y_89_ * y_44_ + 1 y_89_ ^ 2 ] <= 18180
quadratic_ranged_462_ub: [ 1 x_53_ ^ 2 - 2 x_89_ * x_53_ + 1 x_89_ ^ 2 + 1 y_53_ ^ 2 - 2 y_89_ * y_53_ + 1 y_89_ ^ 2 ] <= 4962.13
quadratic_ranged_463_ub: [ 1 x_58_ ^ 2 - 2 x_89_ * x_58_ + 1 x_89_ ^ 2 + 1 y_58_ ^ 2 - 2 y_89_ * y_58_ + 1 y_89_ ^ 2 ] <= 32291.72
quadratic_ranged_464_ub: [ 1 x_62_ ^ 2 - 2 x_89_ * x_62_ + 1 x_89_ ^ 2 + 1 y_62_ ^ 2 - 2 y_89_ * y_62_ + 1 y_89_ ^ 2 ] <= 4570.25
quadratic_ranged_465_ub: [ 1 x_79_ ^ 2 - 2 x_89_ * x_79_ + 1 x_89_ ^ 2 + 1 y_79_ ^ 2 - 2 y_89_ * y_79_ + 1 y_89_ ^ 2 ] <= 703.97
quadratic_ranged_466_ub: [ 1 x_88_ ^ 2 - 2 x_89_ * x_88_ + 1 x_89_ ^ 2 + 1 y_88_ ^ 2 - 2 y_89_ * y_88_ + 1 y_89_ ^ 2 ] <= 8626.41
quadratic_ranged_467_ub: [ 1 x_7_ ^ 2 - 2 x_90_ * x_7_ + 1 x_90_ ^ 2 + 1 y_7_ ^ 2 - 2 y_90_ * y_7_ + 1 y_90_ ^ 2 ] <= 1006.97
quadratic_ranged_468_ub: [ 1 x_17_ ^ 2 - 2 x_90_ * x_17_ + 1 x_90_ ^ 2 + 1 y_17_ ^ 2 - 2 y_90_ * y_17_ + 1 y_90_ ^ 2 ] <= 10479.76
quadratic_ranged_469_ub: [ 1 x_19_ ^ 2 - 2 x_90_ * x_19_ + 1 x_90_ ^ 2 + 1 y_19_ ^ 2 - 2 y_90_ * y_19_ + 1 y_90_ ^ 2 ] <= 4282.4
quadratic_ranged_470_ub: [ 1 x_27_ ^ 2 - 2 x_90_ * x_27_ + 1 x_90_ ^ 2 + 1 y_27_ ^ 2 - 2 y_90_ * y_27_ + 1 y_90_ ^ 2 ] <= 874.66
quadratic_ranged_471_ub: [ 1 x_30_ ^ 2 - 2 x_90_ * x_30_ + 1 x_90_ ^ 2 + 1 y_30_ ^ 2 - 2 y_90_ * y_30_ + 1 y_90_ ^ 2 ] <= 7726.5
quadratic_ranged_472_ub: [ 1 x_37_ ^ 2 - 2 x_90_ * x_37_ + 1 x_90_ ^ 2 + 1 y_37_ ^ 2 - 2 y_90_ * y_37_ + 1 y_90_ ^ 2 ] <= 18232.52
quadratic_ranged_473_ub: [ 1 x_49_ ^ 2 - 2 x_90_ * x_49_ + 1 x_90_ ^ 2 + 1 y_49_ ^ 2 - 2 y_90_ * y_49_ + 1 y_90_ ^ 2 ] <= 7612.37
quadratic_ranged_474_ub: [ 1 x_68_ ^ 2 - 2 x_90_ * x_68_ + 1 x_90_ ^ 2 + 1 y_68_ ^ 2 - 2 y_90_ * y_68_ + 1 y_90_ ^ 2 ] <= 4179.38
quadratic_ranged_475_ub: [ 1 x_76_ ^ 2 - 2 x_90_ * x_76_ + 1 x_90_ ^ 2 + 1 y_76_ ^ 2 - 2 y_90_ * y_76_ + 1 y_90_ ^ 2 ] <= 19870.74
quadratic_ranged_476_ub: [ 1 x_86_ ^ 2 - 2 x_90_ * x_86_ + 1 x_90_ ^ 2 + 1 y_86_ ^ 2 - 2 y_90_ * y_86_ + 1 y_90_ ^ 2 ] <= 17906.29
quadratic_ranged_477_ub: [ 1 x_89_ ^ 2 - 2 x_90_ * x_89_ + 1 x_90_ ^ 2 + 1 y_89_ ^ 2 - 2 y_90_ * y_89_ + 1 y_90_ ^ 2 ] <= 7644.6900000000005
quadratic_ranged_478_ub: [ 1 x_7_ ^ 2 - 2 x_91_ * x_7_ + 1 x_91_ ^ 2 + 1 y_7_ ^ 2 - 2 y_91_ * y_7_ + 1 y_91_ ^ 2 ] <= 14112.73
quadratic_ranged_479_ub: [ 1 x_12_ ^ 2 - 2 x_91_ * x_12_ + 1 x_91_ ^ 2 + 1 y_12_ ^ 2 - 2 y_91_ * y_12_ + 1 y_91_ ^ 2 ] <= 3526.92
quadratic_ranged_480_ub: [ 1 x_15_ ^ 2 - 2 x_91_ * x_15_ + 1 x_91_ ^ 2 + 1 y_15_ ^ 2 - 2 y_91_ * y_15_ + 1 y_91_ ^ 2 ] <= 11009
quadratic_ranged_481_ub: [ 1 x_25_ ^ 2 - 2 x_91_ * x_25_ + 1 x_91_ ^ 2 + 1 y_25_ ^ 2 - 2 y_91_ * y_25_ + 1 y_91_ ^ 2 ] <= 23256.26
quadratic_ranged_482_ub: [ 1 x_26_ ^ 2 - 2 x_91_ * x_26_ + 1 x_91_ ^ 2 + 1 y_26_ ^ 2 - 2 y_91_ * y_26_ + 1 y_91_ ^ 2 ] <= 25340.9
quadratic_ranged_483_ub: [ 1 x_31_ ^ 2 - 2 x_91_ * x_31_ + 1 x_91_ ^ 2 + 1 y_31_ ^ 2 - 2 y_91_ * y_31_ + 1 y_91_ ^ 2 ] <= 26761.97
quadratic_ranged_484_ub: [ 1 x_32_ ^ 2 - 2 x_91_ * x_32_ + 1 x_91_ ^ 2 + 1 y_32_ ^ 2 - 2 y_91_ * y_32_ + 1 y_91_ ^ 2 ] <= 26487.25
quadratic_ranged_485_ub: [ 1 x_36_ ^ 2 - 2 x_91_ * x_36_ + 1 x_91_ ^ 2 + 1 y_36_ ^ 2 - 2 y_91_ * y_36_ + 1 y_91_ ^ 2 ] <= 413.09000000000003
quadratic_ranged_486_ub: [ 1 x_43_ ^ 2 - 2 x_91_ * x_43_ + 1 x_91_ ^ 2 + 1 y_43_ ^ 2 - 2 y_91_ * y_43_ + 1 y_91_ ^ 2 ] <= 41131.24
quadratic_ranged_487_ub: [ 1 x_47_ ^ 2 - 2 x_91_ * x_47_ + 1 x_91_ ^ 2 + 1 y_47_ ^ 2 - 2 y_91_ * y_47_ + 1 y_91_ ^ 2 ] <= 24274.34
quadratic_ranged_488_ub: [ 1 x_55_ ^ 2 - 2 x_91_ * x_55_ + 1 x_91_ ^ 2 + 1 y_55_ ^ 2 - 2 y_91_ * y_55_ + 1 y_91_ ^ 2 ] <= 24635.920000000002
quadratic_ranged_489_ub: [ 1 x_59_ ^ 2 - 2 x_91_ * x_59_ + 1 x_91_ ^ 2 + 1 y_59_ ^ 2 - 2 y_91_ * y_59_ + 1 y_91_ ^ 2 ] <= 14944.97
quadratic_ranged_490_ub: [ 1 x_63_ ^ 2 - 2 x_91_ * x_63_ + 1 x_91_ ^ 2 + 1 y_63_ ^ 2 - 2 y_91_ * y_63_ + 1 y_91_ ^ 2 ] <= 16415.53
quadratic_ranged_491_ub: [ 1 x_81_ ^ 2 - 2 x_91_ * x_81_ + 1 x_91_ ^ 2 + 1 y_81_ ^ 2 - 2 y_91_ * y_81_ + 1 y_91_ ^ 2 ] <= 10702.97
quadratic_ranged_492_ub: [ 1 x_82_ ^ 2 - 2 x_91_ * x_82_ + 1 x_91_ ^ 2 + 1 y_82_ ^ 2 - 2 y_91_ * y_82_ + 1 y_91_ ^ 2 ] <= 102.01
quadratic_ranged_493_ub: [ 1 x_90_ ^ 2 - 2 x_91_ * x_90_ + 1 x_91_ ^ 2 + 1 y_90_ ^ 2 - 2 y_91_ * y_90_ + 1 y_91_ ^ 2 ] <= 12736.1
quadratic_ranged_494_ub: [ 1 x_50_ ^ 2 - 2 x_92_ * x_50_ + 1 x_92_ ^ 2 + 1 y_50_ ^ 2 - 2 y_92_ * y_50_ + 1 y_92_ ^ 2 ] <= 7534.6
quadratic_ranged_495_ub: [ 1 x_73_ ^ 2 - 2 x_92_ * x_73_ + 1 x_92_ ^ 2 + 1 y_73_ ^ 2 - 2 y_92_ * y_73_ + 1 y_92_ ^ 2 ] <= 554.49
quadratic_ranged_496_ub: [ 1 x_78_ ^ 2 - 2 x_92_ * x_78_ + 1 x_92_ ^ 2 + 1 y_78_ ^ 2 - 2 y_92_ * y_78_ + 1 y_92_ ^ 2 ] <= 20390.89
quadratic_ranged_497_ub: [ 1 x_88_ ^ 2 - 2 x_92_ * x_88_ + 1 x_92_ ^ 2 + 1 y_88_ ^ 2 - 2 y_92_ * y_88_ + 1 y_92_ ^ 2 ] <= 10912.04
quadratic_ranged_498_ub: [ 1 x_90_ ^ 2 - 2 x_92_ * x_90_ + 1 x_92_ ^ 2 + 1 y_90_ ^ 2 - 2 y_92_ * y_90_ + 1 y_92_ ^ 2 ] <= 14869.22
quadratic_ranged_499_ub: [ 1 x_91_ ^ 2 - 2 x_92_ * x_91_ + 1 x_92_ ^ 2 + 1 y_91_ ^ 2 - 2 y_92_ * y_91_ + 1 y_92_ ^ 2 ] <= 10762.56
quadratic_ranged_500_ub: [ 1 x_2_ ^ 2 - 2 x_93_ * x_2_ + 1 x_93_ ^ 2 + 1 y_2_ ^ 2 - 2 y_93_ * y_2_ + 1 y_93_ ^ 2 ] <= 18248.68
quadratic_ranged_501_ub: [ 1 x_24_ ^ 2 - 2 x_93_ * x_24_ + 1 x_93_ ^ 2 + 1 y_24_ ^ 2 - 2 y_93_ * y_24_ + 1 y_93_ ^ 2 ] <= 5916.58
quadratic_ranged_502_ub: [ 1 x_26_ ^ 2 - 2 x_93_ * x_26_ + 1 x_93_ ^ 2 + 1 y_26_ ^ 2 - 2 y_93_ * y_26_ + 1 y_93_ ^ 2 ] <= 1270.58
quadratic_ranged_503_ub: [ 1 x_30_ ^ 2 - 2 x_93_ * x_30_ + 1 x_93_ ^ 2 + 1 y_30_ ^ 2 - 2 y_93_ * y_30_ + 1 y_93_ ^ 2 ] <= 15485.32
quadratic_ranged_504_ub: [ 1 x_41_ ^ 2 - 2 x_93_ * x_41_ + 1 x_93_ ^ 2 + 1 y_41_ ^ 2 - 2 y_93_ * y_41_ + 1 y_93_ ^ 2 ] <= 19041.53
quadratic_ranged_505_ub: [ 1 x_71_ ^ 2 - 2 x_93_ * x_71_ + 1 x_93_ ^ 2 + 1 y_71_ ^ 2 - 2 y_93_ * y_71_ + 1 y_93_ ^ 2 ] <= 567.62
quadratic_ranged_506_ub: [ 1 x_74_ ^ 2 - 2 x_93_ * x_74_ + 1 x_93_ ^ 2 + 1 y_74_ ^ 2 - 2 y_93_ * y_74_ + 1 y_93_ ^ 2 ] <= 21501.89
quadratic_ranged_507_ub: [ 1 x_92_ ^ 2 - 2 x_93_ * x_92_ + 1 x_93_ ^ 2 + 1 y_92_ ^ 2 - 2 y_93_ * y_92_ + 1 y_93_ ^ 2 ] <= 15012.64
quadratic_ranged_508_ub: [ 1 x_9_ ^ 2 - 2 x_94_ * x_9_ + 1 x_94_ ^ 2 + 1 y_9_ ^ 2 - 2 y_94_ * y_9_ + 1 y_94_ ^ 2 ] <= 21050.420000000002
quadratic_ranged_509_ub: [ 1 x_15_ ^ 2 - 2 x_94_ * x_15_ + 1 x_94_ ^ 2 + 1 y_15_ ^ 2 - 2 y_94_ * y_15_ + 1 y_94_ ^ 2 ] <= 18303.22
quadratic_ranged_510_ub: [ 1 x_23_ ^ 2 - 2 x_94_ * x_23_ + 1 x_94_ ^ 2 + 1 y_23_ ^ 2 - 2 y_94_ * y_23_ + 1 y_94_ ^ 2 ] <= 9284.93
quadratic_ranged_511_ub: [ 1 x_30_ ^ 2 - 2 x_94_ * x_30_ + 1 x_94_ ^ 2 + 1 y_30_ ^ 2 - 2 y_94_ * y_30_ + 1 y_94_ ^ 2 ] <= 19587.94
quadratic_ranged_512_ub: [ 1 x_35_ ^ 2 - 2 x_94_ * x_35_ + 1 x_94_ ^ 2 + 1 y_35_ ^ 2 - 2 y_94_ * y_35_ + 1 y_94_ ^ 2 ] <= 9761.65
quadratic_ranged_513_ub: [ 1 x_44_ ^ 2 - 2 x_94_ * x_44_ + 1 x_94_ ^ 2 + 1 y_44_ ^ 2 - 2 y_94_ * y_44_ + 1 y_94_ ^ 2 ] <= 18900.13
quadratic_ranged_514_ub: [ 1 x_54_ ^ 2 - 2 x_94_ * x_54_ + 1 x_94_ ^ 2 + 1 y_54_ ^ 2 - 2 y_94_ * y_54_ + 1 y_94_ ^ 2 ] <= 11599.85
quadratic_ranged_515_ub: [ 1 x_60_ ^ 2 - 2 x_94_ * x_60_ + 1 x_94_ ^ 2 + 1 y_60_ ^ 2 - 2 y_94_ * y_60_ + 1 y_94_ ^ 2 ] <= 12621.97
quadratic_ranged_516_ub: [ 1 x_70_ ^ 2 - 2 x_94_ * x_70_ + 1 x_94_ ^ 2 + 1 y_70_ ^ 2 - 2 y_94_ * y_70_ + 1 y_94_ ^ 2 ] <= 22281.61
quadratic_ranged_517_ub: [ 1 x_82_ ^ 2 - 2 x_94_ * x_82_ + 1 x_94_ ^ 2 + 1 y_82_ ^ 2 - 2 y_94_ * y_82_ + 1 y_94_ ^ 2 ] <= 5782.25
quadratic_ranged_518_ub: [ 1 x_92_ ^ 2 - 2 x_94_ * x_92_ + 1 x_94_ ^ 2 + 1 y_92_ ^ 2 - 2 y_94_ * y_92_ + 1 y_94_ ^ 2 ] <= 2991.62
quadratic_ranged_519_ub: [ 1 x_93_ ^ 2 - 2 x_94_ * x_93_ + 1 x_94_ ^ 2 + 1 y_93_ ^ 2 - 2 y_94_ * y_93_ + 1 y_94_ ^ 2 ] <= 22714.9
quadratic_ranged_520_ub: [ 1 x_8_ ^ 2 - 2 x_95_ * x_8_ + 1 x_95_ ^ 2 + 1 y_8_ ^ 2 - 2 y_95_ * y_8_ + 1 y_95_ ^ 2 ] <= 4295.53
quadratic_ranged_521_ub: [ 1 x_9_ ^ 2 - 2 x_95_ * x_9_ + 1 x_95_ ^ 2 + 1 y_9_ ^ 2 - 2 y_95_ * y_9_ + 1 y_95_ ^ 2 ] <= 43668.36
quadratic_ranged_522_ub: [ 1 x_13_ ^ 2 - 2 x_95_ * x_13_ + 1 x_95_ ^ 2 + 1 y_13_ ^ 2 - 2 y_95_ * y_13_ + 1 y_95_ ^ 2 ] <= 24466.24
quadratic_ranged_523_ub: [ 1 x_16_ ^ 2 - 2 x_95_ * x_16_ + 1 x_95_ ^ 2 + 1 y_16_ ^ 2 - 2 y_95_ * y_16_ + 1 y_95_ ^ 2 ] <= 31370.6
quadratic_ranged_524_ub: [ 1 x_17_ ^ 2 - 2 x_95_ * x_17_ + 1 x_95_ ^ 2 + 1 y_17_ ^ 2 - 2 y_95_ * y_17_ + 1 y_95_ ^ 2 ] <= 761.54
quadratic_ranged_525_ub: [ 1 x_34_ ^ 2 - 2 x_95_ * x_34_ + 1 x_95_ ^ 2 + 1 y_34_ ^ 2 - 2 y_95_ * y_34_ + 1 y_95_ ^ 2 ] <= 13130
quadratic_ranged_526_ub: [ 1 x_38_ ^ 2 - 2 x_95_ * x_38_ + 1 x_95_ ^ 2 + 1 y_38_ ^ 2 - 2 y_95_ * y_38_ + 1 y_95_ ^ 2 ] <= 7903.25
quadratic_ranged_527_ub: [ 1 x_39_ ^ 2 - 2 x_95_ * x_39_ + 1 x_95_ ^ 2 + 1 y_39_ ^ 2 - 2 y_95_ * y_39_ + 1 y_95_ ^ 2 ] <= 8004.25
quadratic_ranged_528_ub: [ 1 x_44_ ^ 2 - 2 x_95_ * x_44_ + 1 x_95_ ^ 2 + 1 y_44_ ^ 2 - 2 y_95_ * y_44_ + 1 y_95_ ^ 2 ] <= 3479.45
quadratic_ranged_529_ub: [ 1 x_52_ ^ 2 - 2 x_95_ * x_52_ + 1 x_95_ ^ 2 + 1 y_52_ ^ 2 - 2 y_95_ * y_52_ + 1 y_95_ ^ 2 ] <= 23030.02
quadratic_ranged_530_ub: [ 1 x_59_ ^ 2 - 2 x_95_ * x_59_ + 1 x_95_ ^ 2 + 1 y_59_ ^ 2 - 2 y_95_ * y_59_ + 1 y_95_ ^ 2 ] <= 22229.09
quadratic_ranged_531_ub: [ 1 x_81_ ^ 2 - 2 x_95_ * x_81_ + 1 x_95_ ^ 2 + 1 y_81_ ^ 2 - 2 y_95_ * y_81_ + 1 y_95_ ^ 2 ] <= 11199.89
quadratic_ranged_532_ub: [ 1 x_94_ ^ 2 - 2 x_95_ * x_94_ + 1 x_95_ ^ 2 + 1 y_94_ ^ 2 - 2 y_95_ * y_94_ + 1 y_95_ ^ 2 ] <= 31013.06
quadratic_ranged_533_ub: [ 1 x_9_ ^ 2 - 2 x_96_ * x_9_ + 1 x_96_ ^ 2 + 1 y_9_ ^ 2 - 2 y_96_ * y_9_ + 1 y_96_ ^ 2 ] <= 13834.98
quadratic_ranged_534_ub: [ 1 x_12_ ^ 2 - 2 x_96_ * x_12_ + 1 x_96_ ^ 2 + 1 y_12_ ^ 2 - 2 y_96_ * y_12_ + 1 y_96_ ^ 2 ] <= 535.3
quadratic_ranged_535_ub: [ 1 x_13_ ^ 2 - 2 x_96_ * x_13_ + 1 x_96_ ^ 2 + 1 y_13_ ^ 2 - 2 y_96_ * y_13_ + 1 y_96_ ^ 2 ] <= 1238.26
quadratic_ranged_536_ub: [ 1 x_16_ ^ 2 - 2 x_96_ * x_16_ + 1 x_96_ ^ 2 + 1 y_16_ ^ 2 - 2 y_96_ * y_16_ + 1 y_96_ ^ 2 ] <= 4858.1
quadratic_ranged_537_ub: [ 1 x_17_ ^ 2 - 2 x_96_ * x_17_ + 1 x_96_ ^ 2 + 1 y_17_ ^ 2 - 2 y_96_ * y_17_ + 1 y_96_ ^ 2 ] <= 18717.32
quadratic_ranged_538_ub: [ 1 x_33_ ^ 2 - 2 x_96_ * x_33_ + 1 x_96_ ^ 2 + 1 y_33_ ^ 2 - 2 y_96_ * y_33_ + 1 y_96_ ^ 2 ] <= 35861.06
quadratic_ranged_539_ub: [ 1 x_58_ ^ 2 - 2 x_96_ * x_58_ + 1 x_96_ ^ 2 + 1 y_58_ ^ 2 - 2 y_96_ * y_58_ + 1 y_96_ ^ 2 ] <= 16738.73
quadratic_ranged_540_ub: [ 1 x_61_ ^ 2 - 2 x_96_ * x_61_ + 1 x_96_ ^ 2 + 1 y_61_ ^ 2 - 2 y_96_ * y_61_ + 1 y_96_ ^ 2 ] <= 18674.9
quadratic_ranged_541_ub: [ 1 x_65_ ^ 2 - 2 x_96_ * x_65_ + 1 x_96_ ^ 2 + 1 y_65_ ^ 2 - 2 y_96_ * y_65_ + 1 y_96_ ^ 2 ] <= 2958.29
quadratic_ranged_542_ub: [ 1 x_66_ ^ 2 - 2 x_96_ * x_66_ + 1 x_96_ ^ 2 + 1 y_66_ ^ 2 - 2 y_96_ * y_66_ + 1 y_96_ ^ 2 ] <= 16584.2
quadratic_ranged_543_ub: [ 1 x_67_ ^ 2 - 2 x_96_ * x_67_ + 1 x_96_ ^ 2 + 1 y_67_ ^ 2 - 2 y_96_ * y_67_ + 1 y_96_ ^ 2 ] <= 30535.33
quadratic_ranged_544_ub: [ 1 x_68_ ^ 2 - 2 x_96_ * x_68_ + 1 x_96_ ^ 2 + 1 y_68_ ^ 2 - 2 y_96_ * y_68_ + 1 y_96_ ^ 2 ] <= 6635.7
quadratic_ranged_545_ub: [ 1 x_69_ ^ 2 - 2 x_96_ * x_69_ + 1 x_96_ ^ 2 + 1 y_69_ ^ 2 - 2 y_96_ * y_69_ + 1 y_96_ ^ 2 ] <= 2767.4
quadratic_ranged_546_ub: [ 1 x_79_ ^ 2 - 2 x_96_ * x_79_ + 1 x_96_ ^ 2 + 1 y_79_ ^ 2 - 2 y_96_ * y_79_ + 1 y_96_ ^ 2 ] <= 8649.64
quadratic_ranged_547_ub: [ 1 x_82_ ^ 2 - 2 x_96_ * x_82_ + 1 x_96_ ^ 2 + 1 y_82_ ^ 2 - 2 y_96_ * y_82_ + 1 y_96_ ^ 2 ] <= 4582.37
quadratic_ranged_548_ub: [ 1 x_95_ ^ 2 - 2 x_96_ * x_95_ + 1 x_96_ ^ 2 + 1 y_95_ ^ 2 - 2 y_96_ * y_95_ + 1 y_96_ ^ 2 ] <= 21179.7
quadratic_ranged_549_ub: [ 1 x_7_ ^ 2 - 2 x_97_ * x_7_ + 1 x_97_ ^ 2 + 1 y_7_ ^ 2 - 2 y_97_ * y_7_ + 1 y_97_ ^ 2 ] <= 5135.85
quadratic_ranged_550_ub: [ 1 x_17_ ^ 2 - 2 x_97_ * x_17_ + 1 x_97_ ^ 2 + 1 y_17_ ^ 2 - 2 y_97_ * y_17_ + 1 y_97_ ^ 2 ] <= 17699.24
quadratic_ranged_551_ub: [ 1 x_30_ ^ 2 - 2 x_97_ * x_30_ + 1 x_97_ ^ 2 + 1 y_30_ ^ 2 - 2 y_97_ * y_30_ + 1 y_97_ ^ 2 ] <= 18577.94
quadratic_ranged_552_ub: [ 1 x_36_ ^ 2 - 2 x_97_ * x_36_ + 1 x_97_ ^ 2 + 1 y_36_ ^ 2 - 2 y_97_ * y_36_ + 1 y_97_ ^ 2 ] <= 38966.81
quadratic_ranged_553_ub: [ 1 x_45_ ^ 2 - 2 x_97_ * x_45_ + 1 x_97_ ^ 2 + 1 y_45_ ^ 2 - 2 y_97_ * y_45_ + 1 y_97_ ^ 2 ] <= 18593.09
quadratic_ranged_554_ub: [ 1 x_55_ ^ 2 - 2 x_97_ * x_55_ + 1 x_97_ ^ 2 + 1 y_55_ ^ 2 - 2 y_97_ * y_55_ + 1 y_97_ ^ 2 ] <= 12671.460000000001
quadratic_ranged_555_ub: [ 1 x_66_ ^ 2 - 2 x_97_ * x_66_ + 1 x_97_ ^ 2 + 1 y_66_ ^ 2 - 2 y_97_ * y_66_ + 1 y_97_ ^ 2 ] <= 14548.04
quadratic_ranged_556_ub: [ 1 x_71_ ^ 2 - 2 x_97_ * x_71_ + 1 x_97_ ^ 2 + 1 y_71_ ^ 2 - 2 y_97_ * y_71_ + 1 y_97_ ^ 2 ] <= 3494.6
quadratic_ranged_557_ub: [ 1 x_80_ ^ 2 - 2 x_97_ * x_80_ + 1 x_97_ ^ 2 + 1 y_80_ ^ 2 - 2 y_97_ * y_80_ + 1 y_97_ ^ 2 ] <= 414.1
quadratic_ranged_558_ub: [ 1 x_82_ ^ 2 - 2 x_97_ * x_82_ + 1 x_97_ ^ 2 + 1 y_82_ ^ 2 - 2 y_97_ * y_82_ + 1 y_97_ ^ 2 ] <= 34870.25
quadratic_ranged_559_ub: [ 1 x_96_ ^ 2 - 2 x_97_ * x_96_ + 1 x_97_ ^ 2 + 1 y_96_ ^ 2 - 2 y_97_ * y_96_ + 1 y_97_ ^ 2 ] <= 32069.52
quadratic_ranged_560_ub: [ 1 x_9_ ^ 2 - 2 x_98_ * x_9_ + 1 x_98_ ^ 2 + 1 y_9_ ^ 2 - 2 y_98_ * y_9_ + 1 y_98_ ^ 2 ] <= 1116.05
quadratic_ranged_561_ub: [ 1 x_28_ ^ 2 - 2 x_98_ * x_28_ + 1 x_98_ ^ 2 + 1 y_28_ ^ 2 - 2 y_98_ * y_28_ + 1 y_98_ ^ 2 ] <= 10100
quadratic_ranged_562_ub: [ 1 x_31_ ^ 2 - 2 x_98_ * x_31_ + 1 x_98_ ^ 2 + 1 y_31_ ^ 2 - 2 y_98_ * y_31_ + 1 y_98_ ^ 2 ] <= 15533.8
quadratic_ranged_563_ub: [ 1 x_32_ ^ 2 - 2 x_98_ * x_32_ + 1 x_98_ ^ 2 + 1 y_32_ ^ 2 - 2 y_98_ * y_32_ + 1 y_98_ ^ 2 ] <= 15491.380000000001
quadratic_ranged_564_ub: [ 1 x_47_ ^ 2 - 2 x_98_ * x_47_ + 1 x_98_ ^ 2 + 1 y_47_ ^ 2 - 2 y_98_ * y_47_ + 1 y_98_ ^ 2 ] <= 11603.89
quadratic_ranged_565_ub: [ 1 x_63_ ^ 2 - 2 x_98_ * x_63_ + 1 x_98_ ^ 2 + 1 y_63_ ^ 2 - 2 y_98_ * y_63_ + 1 y_98_ ^ 2 ] <= 11516.02
quadratic_ranged_566_ub: [ 1 x_65_ ^ 2 - 2 x_98_ * x_65_ + 1 x_98_ ^ 2 + 1 y_65_ ^ 2 - 2 y_98_ * y_65_ + 1 y_98_ ^ 2 ] <= 20105.06
quadratic_ranged_567_ub: [ 1 x_69_ ^ 2 - 2 x_98_ * x_69_ + 1 x_98_ ^ 2 + 1 y_69_ ^ 2 - 2 y_98_ * y_69_ + 1 y_98_ ^ 2 ] <= 20499.97
quadratic_ranged_568_ub: [ 1 x_91_ ^ 2 - 2 x_98_ * x_91_ + 1 x_98_ ^ 2 + 1 y_91_ ^ 2 - 2 y_98_ * y_91_ + 1 y_98_ ^ 2 ] <= 6739.7300000000005
quadratic_ranged_569_ub: [ 1 x_97_ ^ 2 - 2 x_98_ * x_97_ + 1 x_98_ ^ 2 + 1 y_97_ ^ 2 - 2 y_98_ * y_97_ + 1 y_98_ ^ 2 ] <= 12448.25
quadratic_ranged_570_ub: [ 1 x_2_ ^ 2 - 2 x_99_ * x_2_ + 1 x_99_ ^ 2 + 1 y_2_ ^ 2 - 2 y_99_ * y_2_ + 1 y_99_ ^ 2 ] <= 26705.41
quadratic_ranged_571_ub: [ 1 x_13_ ^ 2 - 2 x_99_ * x_13_ + 1 x_99_ ^ 2 + 1 y_13_ ^ 2 - 2 y_99_ * y_13_ + 1 y_99_ ^ 2 ] <= 7761.85
quadratic_ranged_572_ub: [ 1 x_26_ ^ 2 - 2 x_99_ * x_26_ + 1 x_99_ ^ 2 + 1 y_26_ ^ 2 - 2 y_99_ * y_26_ + 1 y_99_ ^ 2 ] <= 21033.25
quadratic_ranged_573_ub: [ 1 x_49_ ^ 2 - 2 x_99_ * x_49_ + 1 x_99_ ^ 2 + 1 y_49_ ^ 2 - 2 y_99_ * y_49_ + 1 y_99_ ^ 2 ] <= 34146.08
quadratic_ranged_574_ub: [ 1 x_79_ ^ 2 - 2 x_99_ * x_79_ + 1 x_99_ ^ 2 + 1 y_79_ ^ 2 - 2 y_99_ * y_79_ + 1 y_99_ ^ 2 ] <= 1035.25
quadratic_ranged_575_ub: [ 1 x_84_ ^ 2 - 2 x_99_ * x_84_ + 1 x_99_ ^ 2 + 1 y_84_ ^ 2 - 2 y_99_ * y_84_ + 1 y_99_ ^ 2 ] <= 16881.14
quadratic_ranged_576_ub: [ 1 x_89_ ^ 2 - 2 x_99_ * x_89_ + 1 x_99_ ^ 2 + 1 y_89_ ^ 2 - 2 y_99_ * y_89_ + 1 y_99_ ^ 2 ] <= 2506.82
quadratic_ranged_577_ub: [ 1 x_98_ ^ 2 - 2 x_99_ * x_98_ + 1 x_99_ ^ 2 + 1 y_98_ ^ 2 - 2 y_99_ * y_98_ + 1 y_99_ ^ 2 ] <= 3106.76
quadratic_ranged_578_ub: [ 1 x_1_ ^ 2 - 2 x_100_ * x_1_ + 1 x_100_ ^ 2 + 1 y_1_ ^ 2 - 2 y_100_ * y_1_ + 1 y_100_ ^ 2 ] <= 20183.84
quadratic_ranged_579_ub: [ 1 x_15_ ^ 2 - 2 x_100_ * x_15_ + 1 x_100_ ^ 2 + 1 y_15_ ^ 2 - 2 y_100_ * y_15_ + 1 y_100_ ^ 2 ] <= 11766.5
quadratic_ranged_580_ub: [ 1 x_39_ ^ 2 - 2 x_100_ * x_39_ + 1 x_100_ ^ 2 + 1 y_39_ ^ 2 - 2 y_100_ * y_39_ + 1 y_100_ ^ 2 ] <= 2012.93
quadratic_ranged_581_ub: [ 1 x_47_ ^ 2 - 2 x_100_ * x_47_ + 1 x_100_ ^ 2 + 1 y_47_ ^ 2 - 2 y_100_ * y_47_ + 1 y_100_ ^ 2 ] <= 3833.96
quadratic_ranged_582_ub: [ 1 x_61_ ^ 2 - 2 x_100_ * x_61_ + 1 x_100_ ^ 2 + 1 y_61_ ^ 2 - 2 y_100_ * y_61_ + 1 y_100_ ^ 2 ] <= 1416.02
quadratic_ranged_583_ub: [ 1 x_70_ ^ 2 - 2 x_100_ * x_70_ + 1 x_100_ ^ 2 + 1 y_70_ ^ 2 - 2 y_100_ * y_70_ + 1 y_100_ ^ 2 ] <= 8840.53
quadratic_ranged_584_ub: [ 1 x_81_ ^ 2 - 2 x_100_ * x_81_ + 1 x_100_ ^ 2 + 1 y_81_ ^ 2 - 2 y_100_ * y_81_ + 1 y_100_ ^ 2 ] <= 3891.53
quadratic_ranged_585_ub: [ 1 x_99_ ^ 2 - 2 x_100_ * x_99_ + 1 x_100_ ^ 2 + 1 y_99_ ^ 2 - 2 y_100_ * y_99_ + 1 y_100_ ^ 2 ] <= 36062.05
c1_2: 1 x_30_ >= 0
c2_2: 1 y_30_ >= 0
quadratic_ranged_1_lb: [ 1 x_1_ ^ 2 - 2 x_2_ * x_1_ + 1 x_2_ ^ 2 + 1 y_1_ ^ 2 - 2 y_2_ * y_1_ + 1 y_2_ ^ 2 ] >= 7327.98
quadratic_ranged_2_lb: [ 1 x_2_ ^ 2 - 2 x_3_ * x_2_ + 1 x_3_ ^ 2 + 1 y_2_ ^ 2 - 2 y_3_ * y_2_ + 1 y_3_ ^ 2 ] >= 28005.12
quadratic_ranged_3_lb: [ 1 x_1_ ^ 2 - 2 x_4_ * x_1_ + 1 x_4_ ^ 2 + 1 y_1_ ^ 2 - 2 y_4_ * y_1_ + 1 y_4_ ^ 2 ] >= 8914.95
quadratic_ranged_4_lb: [ 1 x_3_ ^ 2 - 2 x_4_ * x_3_ + 1 x_4_ ^ 2 + 1 y_3_ ^ 2 - 2 y_4_ * y_3_ + 1 y_4_ ^ 2 ] >= 634.59
quadratic_ranged_5_lb: [ 1 x_4_ ^ 2 - 2 x_5_ * x_4_ + 1 x_5_ ^ 2 + 1 y_4_ ^ 2 - 2 y_5_ * y_4_ + 1 y_5_ ^ 2 ] >= 30643.47
quadratic_ranged_6_lb: [ 1 x_1_ ^ 2 - 2 x_6_ * x_1_ + 1 x_6_ ^ 2 + 1 y_1_ ^ 2 - 2 y_6_ * y_1_ + 1 y_6_ ^ 2 ] >= 14340.15
quadratic_ranged_7_lb: [ 1 x_5_ ^ 2 - 2 x_6_ * x_5_ + 1 x_6_ ^ 2 + 1 y_5_ ^ 2 - 2 y_6_ * y_5_ + 1 y_6_ ^ 2 ] >= 1854.27
quadratic_ranged_8_lb: [ 1 x_6_ ^ 2 - 2 x_7_ * x_6_ + 1 x_7_ ^ 2 + 1 y_6_ ^ 2 - 2 y_7_ * y_6_ + 1 y_7_ ^ 2 ] >= 14038.2
quadratic_ranged_9_lb: [ 1 x_7_ ^ 2 - 2 x_8_ * x_7_ + 1 x_8_ ^ 2 + 1 y_7_ ^ 2 - 2 y_8_ * y_7_ + 1 y_8_ ^ 2 ] >= 8009.1
quadratic_ranged_10_lb: [ 1 x_7_ ^ 2 - 2 x_9_ * x_7_ + 1 x_9_ ^ 2 + 1 y_7_ ^ 2 - 2 y_9_ * y_7_ + 1 y_9_ ^ 2 ] >= 4250.07
quadratic_ranged_11_lb: [ 1 x_8_ ^ 2 - 2 x_9_ * x_8_ + 1 x_9_ ^ 2 + 1 y_8_ ^ 2 - 2 y_9_ * y_8_ + 1 y_9_ ^ 2 ] >= 20438.55
quadratic_ranged_12_lb: [ 1 x_2_ ^ 2 - 2 x_10_ * x_2_ + 1 x_10_ ^ 2 + 1 y_2_ ^ 2 - 2 y_10_ * y_2_ + 1 y_10_ ^ 2 ] >= 25314.3
quadratic_ranged_13_lb: [ 1 x_3_ ^ 2 - 2 x_10_ * x_3_ + 1 x_10_ ^ 2 + 1 y_3_ ^ 2 - 2 y_10_ * y_3_ + 1 y_10_ ^ 2 ] >= 16127.1
quadratic_ranged_14_lb: [ 1 x_9_ ^ 2 - 2 x_10_ * x_9_ + 1 x_10_ ^ 2 + 1 y_9_ ^ 2 - 2 y_10_ * y_9_ + 1 y_10_ ^ 2 ] >= 14028.3
quadratic_ranged_15_lb: [ 1 x_3_ ^ 2 - 2 x_11_ * x_3_ + 1 x_11_ ^ 2 + 1 y_3_ ^ 2 - 2 y_11_ * y_3_ + 1 y_11_ ^ 2 ] >= 11311.74
quadratic_ranged_16_lb: [ 1 x_7_ ^ 2 - 2 x_11_ * x_7_ + 1 x_11_ ^ 2 + 1 y_7_ ^ 2 - 2 y_11_ * y_7_ + 1 y_11_ ^ 2 ] >= 5109.39
quadratic_ranged_17_lb: [ 1 x_8_ ^ 2 - 2 x_11_ * x_8_ + 1 x_11_ ^ 2 + 1 y_8_ ^ 2 - 2 y_11_ * y_8_ + 1 y_11_ ^ 2 ] >= 4028.31
quadratic_ranged_18_lb: [ 1 x_10_ ^ 2 - 2 x_11_ * x_10_ + 1 x_11_ ^ 2 + 1 y_10_ ^ 2 - 2 y_11_ * y_10_ + 1 y_11_ ^ 2 ] >= 6494.4
quadratic_ranged_19_lb: [ 1 x_3_ ^ 2 - 2 x_12_ * x_3_ + 1 x_12_ ^ 2 + 1 y_3_ ^ 2 - 2 y_12_ * y_3_ + 1 y_12_ ^ 2 ] >= 18952.56
quadratic_ranged_20_lb: [ 1 x_8_ ^ 2 - 2 x_12_ * x_8_ + 1 x_12_ ^ 2 + 1 y_8_ ^ 2 - 2 y_12_ * y_8_ + 1 y_12_ ^ 2 ] >= 15813.27
quadratic_ranged_21_lb: [ 1 x_11_ ^ 2 - 2 x_12_ * x_11_ + 1 x_12_ ^ 2 + 1 y_11_ ^ 2 - 2 y_12_ * y_11_ + 1 y_12_ ^ 2 ] >= 5276.7
quadratic_ranged_22_lb: [ 1 x_12_ ^ 2 - 2 x_13_ * x_12_ + 1 x_13_ ^ 2 + 1 y_12_ ^ 2 - 2 y_13_ * y_12_ + 1 y_13_ ^ 2 ] >= 2676.96
quadratic_ranged_23_lb: [ 1 x_2_ ^ 2 - 2 x_14_ * x_2_ + 1 x_14_ ^ 2 + 1 y_2_ ^ 2 - 2 y_14_ * y_2_ + 1 y_14_ ^ 2 ] >= 7544.79
quadratic_ranged_24_lb: [ 1 x_8_ ^ 2 - 2 x_14_ * x_8_ + 1 x_14_ ^ 2 + 1 y_8_ ^ 2 - 2 y_14_ * y_8_ + 1 y_14_ ^ 2 ] >= 14543.1
quadratic_ranged_25_lb: [ 1 x_13_ ^ 2 - 2 x_14_ * x_13_ + 1 x_14_ ^ 2 + 1 y_13_ ^ 2 - 2 y_14_ * y_13_ + 1 y_14_ ^ 2 ] >= 349.46999999999997
quadratic_ranged_26_lb: [ 1 x_2_ ^ 2 - 2 x_15_ * x_2_ + 1 x_15_ ^ 2 + 1 y_2_ ^ 2 - 2 y_15_ * y_2_ + 1 y_15_ ^ 2 ] >= 17360.64
quadratic_ranged_27_lb: [ 1 x_11_ ^ 2 - 2 x_15_ * x_11_ + 1 x_15_ ^ 2 + 1 y_11_ ^ 2 - 2 y_15_ * y_11_ + 1 y_15_ ^ 2 ] >= 2409.66
quadratic_ranged_28_lb: [ 1 x_14_ ^ 2 - 2 x_15_ * x_14_ + 1 x_15_ ^ 2 + 1 y_14_ ^ 2 - 2 y_15_ * y_14_ + 1 y_15_ ^ 2 ] >= 6135.03
quadratic_ranged_29_lb: [ 1 x_2_ ^ 2 - 2 x_16_ * x_2_ + 1 x_16_ ^ 2 + 1 y_2_ ^ 2 - 2 y_16_ * y_2_ + 1 y_16_ ^ 2 ] >= 1334.52
quadratic_ranged_30_lb: [ 1 x_6_ ^ 2 - 2 x_16_ * x_6_ + 1 x_16_ ^ 2 + 1 y_6_ ^ 2 - 2 y_16_ * y_6_ + 1 y_16_ ^ 2 ] >= 13508.55
quadratic_ranged_31_lb: [ 1 x_7_ ^ 2 - 2 x_16_ * x_7_ + 1 x_16_ ^ 2 + 1 y_7_ ^ 2 - 2 y_16_ * y_7_ + 1 y_16_ ^ 2 ] >= 33906.51
quadratic_ranged_32_lb: [ 1 x_12_ ^ 2 - 2 x_16_ * x_12_ + 1 x_16_ ^ 2 + 1 y_12_ ^ 2 - 2 y_16_ * y_12_ + 1 y_16_ ^ 2 ] >= 2475
quadratic_ranged_33_lb: [ 1 x_15_ ^ 2 - 2 x_16_ * x_15_ + 1 x_16_ ^ 2 + 1 y_15_ ^ 2 - 2 y_16_ * y_15_ + 1 y_16_ ^ 2 ] >= 26520.12
quadratic_ranged_34_lb: [ 1 x_1_ ^ 2 - 2 x_17_ * x_1_ + 1 x_17_ ^ 2 + 1 y_1_ ^ 2 - 2 y_17_ * y_1_ + 1 y_17_ ^ 2 ] >= 29197.079999999998
quadratic_ranged_35_lb: [ 1 x_11_ ^ 2 - 2 x_17_ * x_11_ + 1 x_17_ ^ 2 + 1 y_11_ ^ 2 - 2 y_17_ * y_11_ + 1 y_17_ ^ 2 ] >= 10406.88
quadratic_ranged_36_lb: [ 1 x_14_ ^ 2 - 2 x_17_ * x_14_ + 1 x_17_ ^ 2 + 1 y_14_ ^ 2 - 2 y_17_ * y_14_ + 1 y_17_ ^ 2 ] >= 25249.95
quadratic_ranged_37_lb: [ 1 x_16_ ^ 2 - 2 x_17_ * x_16_ + 1 x_17_ ^ 2 + 1 y_16_ ^ 2 - 2 y_17_ * y_16_ + 1 y_17_ ^ 2 ] >= 31270.14
quadratic_ranged_38_lb: [ 1 x_13_ ^ 2 - 2 x_18_ * x_13_ + 1 x_18_ ^ 2 + 1 y_13_ ^ 2 - 2 y_18_ * y_13_ + 1 y_18_ ^ 2 ] >= 15864.75
quadratic_ranged_39_lb: [ 1 x_17_ ^ 2 - 2 x_18_ * x_17_ + 1 x_18_ ^ 2 + 1 y_17_ ^ 2 - 2 y_18_ * y_17_ + 1 y_18_ ^ 2 ] >= 18391.23
quadratic_ranged_40_lb: [ 1 x_10_ ^ 2 - 2 x_19_ * x_10_ + 1 x_19_ ^ 2 + 1 y_10_ ^ 2 - 2 y_19_ * y_10_ + 1 y_19_ ^ 2 ] >= 7737.84
quadratic_ranged_41_lb: [ 1 x_18_ ^ 2 - 2 x_19_ * x_18_ + 1 x_19_ ^ 2 + 1 y_18_ ^ 2 - 2 y_19_ * y_18_ + 1 y_19_ ^ 2 ] >= 15448.95
quadratic_ranged_42_lb: [ 1 x_2_ ^ 2 - 2 x_20_ * x_2_ + 1 x_20_ ^ 2 + 1 y_2_ ^ 2 - 2 y_20_ * y_2_ + 1 y_20_ ^ 2 ] >= 385.11
quadratic_ranged_43_lb: [ 1 x_19_ ^ 2 - 2 x_20_ * x_19_ + 1 x_20_ ^ 2 + 1 y_19_ ^ 2 - 2 y_20_ * y_19_ + 1 y_20_ ^ 2 ] >= 8348.67
quadratic_ranged_44_lb: [ 1 x_7_ ^ 2 - 2 x_21_ * x_7_ + 1 x_21_ ^ 2 + 1 y_7_ ^ 2 - 2 y_21_ * y_7_ + 1 y_21_ ^ 2 ] >= 19531.71
quadratic_ranged_45_lb: [ 1 x_8_ ^ 2 - 2 x_21_ * x_8_ + 1 x_21_ ^ 2 + 1 y_8_ ^ 2 - 2 y_21_ * y_8_ + 1 y_21_ ^ 2 ] >= 2567.07
quadratic_ranged_46_lb: [ 1 x_20_ ^ 2 - 2 x_21_ * x_20_ + 1 x_21_ ^ 2 + 1 y_20_ ^ 2 - 2 y_21_ * y_20_ + 1 y_21_ ^ 2 ] >= 19472.31
quadratic_ranged_47_lb: [ 1 x_15_ ^ 2 - 2 x_22_ * x_15_ + 1 x_22_ ^ 2 + 1 y_15_ ^ 2 - 2 y_22_ * y_15_ + 1 y_22_ ^ 2 ] >= 16681.5
quadratic_ranged_48_lb: [ 1 x_21_ ^ 2 - 2 x_22_ * x_21_ + 1 x_22_ ^ 2 + 1 y_21_ ^ 2 - 2 y_22_ * y_21_ + 1 y_22_ ^ 2 ] >= 1287
quadratic_ranged_49_lb: [ 1 x_6_ ^ 2 - 2 x_23_ * x_6_ + 1 x_23_ ^ 2 + 1 y_6_ ^ 2 - 2 y_23_ * y_6_ + 1 y_23_ ^ 2 ] >= 1334.52
quadratic_ranged_50_lb: [ 1 x_11_ ^ 2 - 2 x_23_ * x_11_ + 1 x_23_ ^ 2 + 1 y_11_ ^ 2 - 2 y_23_ * y_11_ + 1 y_23_ ^ 2 ] >= 6816.15
quadratic_ranged_51_lb: [ 1 x_16_ ^ 2 - 2 x_23_ * x_16_ + 1 x_23_ ^ 2 + 1 y_16_ ^ 2 - 2 y_23_ * y_16_ + 1 y_23_ ^ 2 ] >= 8297.19
quadratic_ranged_52_lb: [ 1 x_22_ ^ 2 - 2 x_23_ * x_22_ + 1 x_23_ ^ 2 + 1 y_22_ ^ 2 - 2 y_23_ * y_22_ + 1 y_23_ ^ 2 ] >= 1022.67
quadratic_ranged_53_lb: [ 1 x_1_ ^ 2 - 2 x_24_ * x_1_ + 1 x_24_ ^ 2 + 1 y_1_ ^ 2 - 2 y_24_ * y_1_ + 1 y_24_ ^ 2 ] >= 29260.44
quadratic_ranged_54_lb: [ 1 x_3_ ^ 2 - 2 x_24_ * x_3_ + 1 x_24_ ^ 2 + 1 y_3_ ^ 2 - 2 y_24_ * y_3_ + 1 y_24_ ^ 2 ] >= 16483.5
quadratic_ranged_55_lb: [ 1 x_4_ ^ 2 - 2 x_24_ * x_4_ + 1 x_24_ ^ 2 + 1 y_4_ ^ 2 - 2 y_24_ * y_4_ + 1 y_24_ ^ 2 ] >= 10708.83
quadratic_ranged_56_lb: [ 1 x_18_ ^ 2 - 2 x_24_ * x_18_ + 1 x_24_ ^ 2 + 1 y_18_ ^ 2 - 2 y_24_ * y_18_ + 1 y_24_ ^ 2 ] >= 777.15
quadratic_ranged_57_lb: [ 1 x_22_ ^ 2 - 2 x_24_ * x_22_ + 1 x_24_ ^ 2 + 1 y_22_ ^ 2 - 2 y_24_ * y_22_ + 1 y_24_ ^ 2 ] >= 29502
quadratic_ranged_58_lb: [ 1 x_23_ ^ 2 - 2 x_24_ * x_23_ + 1 x_24_ ^ 2 + 1 y_23_ ^ 2 - 2 y_24_ * y_23_ + 1 y_24_ ^ 2 ] >= 33435.27
quadratic_ranged_59_lb: [ 1 x_1_ ^ 2 - 2 x_25_ * x_1_ + 1 x_25_ ^ 2 + 1 y_1_ ^ 2 - 2 y_25_ * y_1_ + 1 y_25_ ^ 2 ] >= 18996.12
quadratic_ranged_60_lb: [ 1 x_17_ ^ 2 - 2 x_25_ * x_17_ + 1 x_25_ ^ 2 + 1 y_17_ ^ 2 - 2 y_25_ * y_17_ + 1 y_25_ ^ 2 ] >= 1789.92
quadratic_ranged_61_lb: [ 1 x_23_ ^ 2 - 2 x_25_ * x_23_ + 1 x_25_ ^ 2 + 1 y_23_ ^ 2 - 2 y_25_ * y_23_ + 1 y_25_ ^ 2 ] >= 8344.71
quadratic_ranged_62_lb: [ 1 x_24_ ^ 2 - 2 x_25_ * x_24_ + 1 x_25_ ^ 2 + 1 y_24_ ^ 2 - 2 y_25_ * y_24_ + 1 y_25_ ^ 2 ] >= 9266.4
quadratic_ranged_63_lb: [ 1 x_23_ ^ 2 - 2 x_26_ * x_23_ + 1 x_26_ ^ 2 + 1 y_23_ ^ 2 - 2 y_26_ * y_23_ + 1 y_26_ ^ 2 ] >= 20189.07
quadratic_ranged_64_lb: [ 1 x_25_ ^ 2 - 2 x_26_ * x_25_ + 1 x_26_ ^ 2 + 1 y_25_ ^ 2 - 2 y_26_ * y_25_ + 1 y_26_ ^ 2 ] >= 3108.6
quadratic_ranged_65_lb: [ 1 x_6_ ^ 2 - 2 x_27_ * x_6_ + 1 x_27_ ^ 2 + 1 y_6_ ^ 2 - 2 y_27_ * y_6_ + 1 y_27_ ^ 2 ] >= 13346.19
quadratic_ranged_66_lb: [ 1 x_21_ ^ 2 - 2 x_27_ * x_21_ + 1 x_27_ ^ 2 + 1 y_21_ ^ 2 - 2 y_27_ * y_21_ + 1 y_27_ ^ 2 ] >= 17845.74
quadratic_ranged_67_lb: [ 1 x_26_ ^ 2 - 2 x_27_ * x_26_ + 1 x_27_ ^ 2 + 1 y_26_ ^ 2 - 2 y_27_ * y_26_ + 1 y_27_ ^ 2 ] >= 1728.54
quadratic_ranged_68_lb: [ 1 x_27_ ^ 2 - 2 x_28_ * x_27_ + 1 x_28_ ^ 2 + 1 y_27_ ^ 2 - 2 y_28_ * y_27_ + 1 y_28_ ^ 2 ] >= 10423.71
quadratic_ranged_69_lb: [ 1 x_6_ ^ 2 - 2 x_29_ * x_6_ + 1 x_29_ ^ 2 + 1 y_6_ ^ 2 - 2 y_29_ * y_6_ + 1 y_29_ ^ 2 ] >= 2908.62
quadratic_ranged_70_lb: [ 1 x_10_ ^ 2 - 2 x_29_ * x_10_ + 1 x_29_ ^ 2 + 1 y_10_ ^ 2 - 2 y_29_ * y_10_ + 1 y_29_ ^ 2 ] >= 4535.19
quadratic_ranged_71_lb: [ 1 x_28_ ^ 2 - 2 x_29_ * x_28_ + 1 x_29_ ^ 2 + 1 y_28_ ^ 2 - 2 y_29_ * y_28_ + 1 y_29_ ^ 2 ] >= 5688.54
quadratic_ranged_72_lb: [ 1 x_19_ ^ 2 - 2 x_30_ * x_19_ + 1 x_30_ ^ 2 + 1 y_19_ ^ 2 - 2 y_30_ * y_19_ + 1 y_30_ ^ 2 ] >= 15691.5
quadratic_ranged_73_lb: [ 1 x_26_ ^ 2 - 2 x_30_ * x_26_ + 1 x_30_ ^ 2 + 1 y_26_ ^ 2 - 2 y_30_ * y_26_ + 1 y_30_ ^ 2 ] >= 14970.78
quadratic_ranged_74_lb: [ 1 x_29_ ^ 2 - 2 x_30_ * x_29_ + 1 x_30_ ^ 2 + 1 y_29_ ^ 2 - 2 y_30_ * y_29_ + 1 y_30_ ^ 2 ] >= 28164.51
quadratic_ranged_75_lb: [ 1 x_10_ ^ 2 - 2 x_31_ * x_10_ + 1 x_31_ ^ 2 + 1 y_10_ ^ 2 - 2 y_31_ * y_10_ + 1 y_31_ ^ 2 ] >= 3315.5099999999998
quadratic_ranged_76_lb: [ 1 x_28_ ^ 2 - 2 x_31_ * x_28_ + 1 x_31_ ^ 2 + 1 y_28_ ^ 2 - 2 y_31_ * y_28_ + 1 y_31_ ^ 2 ] >= 5247
quadratic_ranged_77_lb: [ 1 x_30_ ^ 2 - 2 x_31_ * x_30_ + 1 x_31_ ^ 2 + 1 y_30_ ^ 2 - 2 y_31_ * y_30_ + 1 y_31_ ^ 2 ] >= 25091.55
quadratic_ranged_78_lb: [ 1 x_15_ ^ 2 - 2 x_32_ * x_15_ + 1 x_32_ ^ 2 + 1 y_15_ ^ 2 - 2 y_32_ * y_15_ + 1 y_32_ ^ 2 ] >= 7489.35
quadratic_ranged_79_lb: [ 1 x_31_ ^ 2 - 2 x_32_ * x_31_ + 1 x_32_ ^ 2 + 1 y_31_ ^ 2 - 2 y_32_ * y_31_ + 1 y_32_ ^ 2 ] >= 1.98
quadratic_ranged_80_lb: [ 1 x_14_ ^ 2 - 2 x_33_ * x_14_ + 1 x_33_ ^ 2 + 1 y_14_ ^ 2 - 2 y_33_ * y_14_ + 1 y_33_ ^ 2 ] >= 31059.27
quadratic_ranged_81_lb: [ 1 x_28_ ^ 2 - 2 x_33_ * x_28_ + 1 x_33_ ^ 2 + 1 y_28_ ^ 2 - 2 y_33_ * y_28_ + 1 y_33_ ^ 2 ] >= 24782.67
quadratic_ranged_82_lb: [ 1 x_32_ ^ 2 - 2 x_33_ * x_32_ + 1 x_33_ ^ 2 + 1 y_32_ ^ 2 - 2 y_33_ * y_32_ + 1 y_33_ ^ 2 ] >= 12332.43
quadratic_ranged_83_lb: [ 1 x_3_ ^ 2 - 2 x_34_ * x_3_ + 1 x_34_ ^ 2 + 1 y_3_ ^ 2 - 2 y_34_ * y_3_ + 1 y_34_ ^ 2 ] >= 16536.96
quadratic_ranged_84_lb: [ 1 x_13_ ^ 2 - 2 x_34_ * x_13_ + 1 x_34_ ^ 2 + 1 y_13_ ^ 2 - 2 y_34_ * y_13_ + 1 y_34_ ^ 2 ] >= 13725.36
quadratic_ranged_85_lb: [ 1 x_14_ ^ 2 - 2 x_34_ * x_14_ + 1 x_34_ ^ 2 + 1 y_14_ ^ 2 - 2 y_34_ * y_14_ + 1 y_34_ ^ 2 ] >= 17112.15
quadratic_ranged_86_lb: [ 1 x_16_ ^ 2 - 2 x_34_ * x_16_ + 1 x_34_ ^ 2 + 1 y_16_ ^ 2 - 2 y_34_ * y_16_ + 1 y_34_ ^ 2 ] >= 39382.2
quadratic_ranged_87_lb: [ 1 x_31_ ^ 2 - 2 x_34_ * x_31_ + 1 x_34_ ^ 2 + 1 y_31_ ^ 2 - 2 y_34_ * y_31_ + 1 y_34_ ^ 2 ] >= 3612.5099999999998
quadratic_ranged_88_lb: [ 1 x_33_ ^ 2 - 2 x_34_ * x_33_ + 1 x_34_ ^ 2 + 1 y_33_ ^ 2 - 2 y_34_ * y_33_ + 1 y_34_ ^ 2 ] >= 3171.96
quadratic_ranged_89_lb: [ 1 x_8_ ^ 2 - 2 x_35_ * x_8_ + 1 x_35_ ^ 2 + 1 y_8_ ^ 2 - 2 y_35_ * y_8_ + 1 y_35_ ^ 2 ] >= 2360.16
quadratic_ranged_90_lb: [ 1 x_12_ ^ 2 - 2 x_35_ * x_12_ + 1 x_35_ ^ 2 + 1 y_12_ ^ 2 - 2 y_35_ * y_12_ + 1 y_35_ ^ 2 ] >= 6681.51
quadratic_ranged_91_lb: [ 1 x_17_ ^ 2 - 2 x_35_ * x_17_ + 1 x_35_ ^ 2 + 1 y_17_ ^ 2 - 2 y_35_ * y_17_ + 1 y_35_ ^ 2 ] >= 5279.67
quadratic_ranged_92_lb: [ 1 x_25_ ^ 2 - 2 x_35_ * x_25_ + 1 x_35_ ^ 2 + 1 y_25_ ^ 2 - 2 y_35_ * y_25_ + 1 y_35_ ^ 2 ] >= 3149.19
quadratic_ranged_93_lb: [ 1 x_34_ ^ 2 - 2 x_35_ * x_34_ + 1 x_35_ ^ 2 + 1 y_34_ ^ 2 - 2 y_35_ * y_34_ + 1 y_35_ ^ 2 ] >= 9433.71
quadratic_ranged_94_lb: [ 1 x_19_ ^ 2 - 2 x_36_ * x_19_ + 1 x_36_ ^ 2 + 1 y_19_ ^ 2 - 2 y_36_ * y_19_ + 1 y_36_ ^ 2 ] >= 9033.75
quadratic_ranged_95_lb: [ 1 x_27_ ^ 2 - 2 x_36_ * x_27_ + 1 x_36_ ^ 2 + 1 y_27_ ^ 2 - 2 y_36_ * y_27_ + 1 y_36_ ^ 2 ] >= 17916.03
quadratic_ranged_96_lb: [ 1 x_33_ ^ 2 - 2 x_36_ * x_33_ + 1 x_36_ ^ 2 + 1 y_33_ ^ 2 - 2 y_36_ * y_33_ + 1 y_36_ ^ 2 ] >= 43141.23
quadratic_ranged_97_lb: [ 1 x_35_ ^ 2 - 2 x_36_ * x_35_ + 1 x_36_ ^ 2 + 1 y_35_ ^ 2 - 2 y_36_ * y_35_ + 1 y_36_ ^ 2 ] >= 11335.5
quadratic_ranged_98_lb: [ 1 x_4_ ^ 2 - 2 x_37_ * x_4_ + 1 x_37_ ^ 2 + 1 y_4_ ^ 2 - 2 y_37_ * y_4_ + 1 y_37_ ^ 2 ] >= 23487.75
quadratic_ranged_99_lb: [ 1 x_29_ ^ 2 - 2 x_37_ * x_29_ + 1 x_37_ ^ 2 + 1 y_29_ ^ 2 - 2 y_37_ * y_29_ + 1 y_37_ ^ 2 ] >= 24319.35
quadratic_ranged_100_lb: [ 1 x_36_ ^ 2 - 2 x_37_ * x_36_ + 1 x_37_ ^ 2 + 1 y_36_ ^ 2 - 2 y_37_ * y_36_ + 1 y_37_ ^ 2 ] >= 2285.91
quadratic_ranged_101_lb: [ 1 x_10_ ^ 2 - 2 x_38_ * x_10_ + 1 x_38_ ^ 2 + 1 y_10_ ^ 2 - 2 y_38_ * y_10_ + 1 y_38_ ^ 2 ] >= 2468.07
quadratic_ranged_102_lb: [ 1 x_11_ ^ 2 - 2 x_38_ * x_11_ + 1 x_38_ ^ 2 + 1 y_11_ ^ 2 - 2 y_38_ * y_11_ + 1 y_38_ ^ 2 ] >= 1668.15
quadratic_ranged_103_lb: [ 1 x_34_ ^ 2 - 2 x_38_ * x_34_ + 1 x_38_ ^ 2 + 1 y_34_ ^ 2 - 2 y_38_ * y_34_ + 1 y_38_ ^ 2 ] >= 2895.75
quadratic_ranged_104_lb: [ 1 x_36_ ^ 2 - 2 x_38_ * x_36_ + 1 x_38_ ^ 2 + 1 y_36_ ^ 2 - 2 y_38_ * y_36_ + 1 y_38_ ^ 2 ] >= 14614.38
quadratic_ranged_105_lb: [ 1 x_37_ ^ 2 - 2 x_38_ * x_37_ + 1 x_38_ ^ 2 + 1 y_37_ ^ 2 - 2 y_38_ * y_37_ + 1 y_38_ ^ 2 ] >= 15528.15
quadratic_ranged_106_lb: [ 1 x_5_ ^ 2 - 2 x_39_ * x_5_ + 1 x_39_ ^ 2 + 1 y_5_ ^ 2 - 2 y_39_ * y_5_ + 1 y_39_ ^ 2 ] >= 1794.87
quadratic_ranged_107_lb: [ 1 x_12_ ^ 2 - 2 x_39_ * x_12_ + 1 x_39_ ^ 2 + 1 y_12_ ^ 2 - 2 y_39_ * y_12_ + 1 y_39_ ^ 2 ] >= 5430.15
quadratic_ranged_108_lb: [ 1 x_38_ ^ 2 - 2 x_39_ * x_38_ + 1 x_39_ ^ 2 + 1 y_38_ ^ 2 - 2 y_39_ * y_38_ + 1 y_39_ ^ 2 ] >= 2415.6
quadratic_ranged_109_lb: [ 1 x_7_ ^ 2 - 2 x_40_ * x_7_ + 1 x_40_ ^ 2 + 1 y_7_ ^ 2 - 2 y_40_ * y_7_ + 1 y_40_ ^ 2 ] >= 15752.88
quadratic_ranged_110_lb: [ 1 x_14_ ^ 2 - 2 x_40_ * x_14_ + 1 x_40_ ^ 2 + 1 y_14_ ^ 2 - 2 y_40_ * y_14_ + 1 y_40_ ^ 2 ] >= 20061.36
quadratic_ranged_111_lb: [ 1 x_21_ ^ 2 - 2 x_40_ * x_21_ + 1 x_40_ ^ 2 + 1 y_21_ ^ 2 - 2 y_40_ * y_21_ + 1 y_40_ ^ 2 ] >= 202.95
quadratic_ranged_112_lb: [ 1 x_24_ ^ 2 - 2 x_40_ * x_24_ + 1 x_40_ ^ 2 + 1 y_24_ ^ 2 - 2 y_40_ * y_24_ + 1 y_40_ ^ 2 ] >= 18616.95
quadratic_ranged_113_lb: [ 1 x_27_ ^ 2 - 2 x_40_ * x_27_ + 1 x_40_ ^ 2 + 1 y_27_ ^ 2 - 2 y_40_ * y_27_ + 1 y_40_ ^ 2 ] >= 14249.07
quadratic_ranged_114_lb: [ 1 x_39_ ^ 2 - 2 x_40_ * x_39_ + 1 x_40_ ^ 2 + 1 y_39_ ^ 2 - 2 y_40_ * y_39_ + 1 y_40_ ^ 2 ] >= 3470.94
quadratic_ranged_115_lb: [ 1 x_2_ ^ 2 - 2 x_41_ * x_2_ + 1 x_41_ ^ 2 + 1 y_2_ ^ 2 - 2 y_41_ * y_2_ + 1 y_41_ ^ 2 ] >= 1402.83
quadratic_ranged_116_lb: [ 1 x_5_ ^ 2 - 2 x_41_ * x_5_ + 1 x_41_ ^ 2 + 1 y_5_ ^ 2 - 2 y_41_ * y_5_ + 1 y_41_ ^ 2 ] >= 6705.2699999999995
quadratic_ranged_117_lb: [ 1 x_26_ ^ 2 - 2 x_41_ * x_26_ + 1 x_41_ ^ 2 + 1 y_26_ ^ 2 - 2 y_41_ * y_26_ + 1 y_41_ ^ 2 ] >= 27166.59
quadratic_ranged_118_lb: [ 1 x_29_ ^ 2 - 2 x_41_ * x_29_ + 1 x_41_ ^ 2 + 1 y_29_ ^ 2 - 2 y_41_ * y_29_ + 1 y_41_ ^ 2 ] >= 22164.12
quadratic_ranged_119_lb: [ 1 x_40_ ^ 2 - 2 x_41_ * x_40_ + 1 x_41_ ^ 2 + 1 y_40_ ^ 2 - 2 y_41_ * y_40_ + 1 y_41_ ^ 2 ] >= 19128.78
quadratic_ranged_120_lb: [ 1 x_2_ ^ 2 - 2 x_42_ * x_2_ + 1 x_42_ ^ 2 + 1 y_2_ ^ 2 - 2 y_42_ * y_2_ + 1 y_42_ ^ 2 ] >= 1747.35
quadratic_ranged_121_lb: [ 1 x_23_ ^ 2 - 2 x_42_ * x_23_ + 1 x_42_ ^ 2 + 1 y_23_ ^ 2 - 2 y_42_ * y_23_ + 1 y_42_ ^ 2 ] >= 6039
quadratic_ranged_122_lb: [ 1 x_35_ ^ 2 - 2 x_42_ * x_35_ + 1 x_42_ ^ 2 + 1 y_35_ ^ 2 - 2 y_42_ * y_35_ + 1 y_42_ ^ 2 ] >= 4231.26
quadratic_ranged_123_lb: [ 1 x_39_ ^ 2 - 2 x_42_ * x_39_ + 1 x_42_ ^ 2 + 1 y_39_ ^ 2 - 2 y_42_ * y_39_ + 1 y_42_ ^ 2 ] >= 3296.7
quadratic_ranged_124_lb: [ 1 x_41_ ^ 2 - 2 x_42_ * x_41_ + 1 x_42_ ^ 2 + 1 y_41_ ^ 2 - 2 y_42_ * y_41_ + 1 y_42_ ^ 2 ] >= 691.02
quadratic_ranged_125_lb: [ 1 x_3_ ^ 2 - 2 x_43_ * x_3_ + 1 x_43_ ^ 2 + 1 y_3_ ^ 2 - 2 y_43_ * y_3_ + 1 y_43_ ^ 2 ] >= 46965.6
quadratic_ranged_126_lb: [ 1 x_4_ ^ 2 - 2 x_43_ * x_4_ + 1 x_43_ ^ 2 + 1 y_4_ ^ 2 - 2 y_43_ * y_4_ + 1 y_43_ ^ 2 ] >= 38674.35
quadratic_ranged_127_lb: [ 1 x_8_ ^ 2 - 2 x_43_ * x_8_ + 1 x_43_ ^ 2 + 1 y_8_ ^ 2 - 2 y_43_ * y_8_ + 1 y_43_ ^ 2 ] >= 4103.55
quadratic_ranged_128_lb: [ 1 x_18_ ^ 2 - 2 x_43_ * x_18_ + 1 x_43_ ^ 2 + 1 y_18_ ^ 2 - 2 y_43_ * y_18_ + 1 y_43_ ^ 2 ] >= 25269.75
quadratic_ranged_129_lb: [ 1 x_19_ ^ 2 - 2 x_43_ * x_19_ + 1 x_43_ ^ 2 + 1 y_19_ ^ 2 - 2 y_43_ * y_19_ + 1 y_43_ ^ 2 ] >= 9513.9
quadratic_ranged_130_lb: [ 1 x_28_ ^ 2 - 2 x_43_ * x_28_ + 1 x_43_ ^ 2 + 1 y_28_ ^ 2 - 2 y_43_ * y_28_ + 1 y_43_ ^ 2 ] >= 10273.23
quadratic_ranged_131_lb: [ 1 x_34_ ^ 2 - 2 x_43_ * x_34_ + 1 x_43_ ^ 2 + 1 y_34_ ^ 2 - 2 y_43_ * y_34_ + 1 y_43_ ^ 2 ] >= 11990.88
quadratic_ranged_132_lb: [ 1 x_36_ ^ 2 - 2 x_43_ * x_36_ + 1 x_43_ ^ 2 + 1 y_36_ ^ 2 - 2 y_43_ * y_36_ + 1 y_43_ ^ 2 ] >= 36900.27
quadratic_ranged_133_lb: [ 1 x_42_ ^ 2 - 2 x_43_ * x_42_ + 1 x_43_ ^ 2 + 1 y_42_ ^ 2 - 2 y_43_ * y_42_ + 1 y_43_ ^ 2 ] >= 22648.23
quadratic_ranged_134_lb: [ 1 x_3_ ^ 2 - 2 x_44_ * x_3_ + 1 x_44_ ^ 2 + 1 y_3_ ^ 2 - 2 y_44_ * y_3_ + 1 y_44_ ^ 2 ] >= 25099.47
quadratic_ranged_135_lb: [ 1 x_8_ ^ 2 - 2 x_44_ * x_8_ + 1 x_44_ ^ 2 + 1 y_8_ ^ 2 - 2 y_44_ * y_8_ + 1 y_44_ ^ 2 ] >= 158.4
quadratic_ranged_136_lb: [ 1 x_15_ ^ 2 - 2 x_44_ * x_15_ + 1 x_44_ ^ 2 + 1 y_15_ ^ 2 - 2 y_44_ * y_15_ + 1 y_44_ ^ 2 ] >= 6630.03
quadratic_ranged_137_lb: [ 1 x_22_ ^ 2 - 2 x_44_ * x_22_ + 1 x_44_ ^ 2 + 1 y_22_ ^ 2 - 2 y_44_ * y_22_ + 1 y_44_ ^ 2 ] >= 3184.83
quadratic_ranged_138_lb: [ 1 x_26_ ^ 2 - 2 x_44_ * x_26_ + 1 x_44_ ^ 2 + 1 y_26_ ^ 2 - 2 y_44_ * y_26_ + 1 y_44_ ^ 2 ] >= 5541.03
quadratic_ranged_139_lb: [ 1 x_27_ ^ 2 - 2 x_44_ * x_27_ + 1 x_44_ ^ 2 + 1 y_27_ ^ 2 - 2 y_44_ * y_27_ + 1 y_44_ ^ 2 ] >= 8617.95
quadratic_ranged_140_lb: [ 1 x_43_ ^ 2 - 2 x_44_ * x_43_ + 1 x_44_ ^ 2 + 1 y_43_ ^ 2 - 2 y_44_ * y_43_ + 1 y_44_ ^ 2 ] >= 3493.71
quadratic_ranged_141_lb: [ 1 x_15_ ^ 2 - 2 x_45_ * x_15_ + 1 x_45_ ^ 2 + 1 y_15_ ^ 2 - 2 y_45_ * y_15_ + 1 y_45_ ^ 2 ] >= 4313.43
quadratic_ranged_142_lb: [ 1 x_26_ ^ 2 - 2 x_45_ * x_26_ + 1 x_45_ ^ 2 + 1 y_26_ ^ 2 - 2 y_45_ * y_26_ + 1 y_45_ ^ 2 ] >= 8095.23
quadratic_ranged_143_lb: [ 1 x_29_ ^ 2 - 2 x_45_ * x_29_ + 1 x_45_ ^ 2 + 1 y_29_ ^ 2 - 2 y_45_ * y_29_ + 1 y_45_ ^ 2 ] >= 4722.3
quadratic_ranged_144_lb: [ 1 x_44_ ^ 2 - 2 x_45_ * x_44_ + 1 x_45_ ^ 2 + 1 y_44_ ^ 2 - 2 y_45_ * y_44_ + 1 y_45_ ^ 2 ] >= 2013.66
quadratic_ranged_145_lb: [ 1 x_22_ ^ 2 - 2 x_46_ * x_22_ + 1 x_46_ ^ 2 + 1 y_22_ ^ 2 - 2 y_46_ * y_22_ + 1 y_46_ ^ 2 ] >= 23009.579999999998
quadratic_ranged_146_lb: [ 1 x_37_ ^ 2 - 2 x_46_ * x_37_ + 1 x_46_ ^ 2 + 1 y_37_ ^ 2 - 2 y_46_ * y_37_ + 1 y_46_ ^ 2 ] >= 26177.579999999998
quadratic_ranged_147_lb: [ 1 x_43_ ^ 2 - 2 x_46_ * x_43_ + 1 x_46_ ^ 2 + 1 y_43_ ^ 2 - 2 y_46_ * y_43_ + 1 y_46_ ^ 2 ] >= 22754.16
quadratic_ranged_148_lb: [ 1 x_45_ ^ 2 - 2 x_46_ * x_45_ + 1 x_46_ ^ 2 + 1 y_45_ ^ 2 - 2 y_46_ * y_45_ + 1 y_46_ ^ 2 ] >= 8602.11
quadratic_ranged_149_lb: [ 1 x_6_ ^ 2 - 2 x_47_ * x_6_ + 1 x_47_ ^ 2 + 1 y_6_ ^ 2 - 2 y_47_ * y_6_ + 1 y_47_ ^ 2 ] >= 4499.55
quadratic_ranged_150_lb: [ 1 x_14_ ^ 2 - 2 x_47_ * x_14_ + 1 x_47_ ^ 2 + 1 y_14_ ^ 2 - 2 y_47_ * y_14_ + 1 y_47_ ^ 2 ] >= 16244.91
quadratic_ranged_151_lb: [ 1 x_18_ ^ 2 - 2 x_47_ * x_18_ + 1 x_47_ ^ 2 + 1 y_18_ ^ 2 - 2 y_47_ * y_18_ + 1 y_47_ ^ 2 ] >= 7548.75
quadratic_ranged_152_lb: [ 1 x_34_ ^ 2 - 2 x_47_ * x_34_ + 1 x_47_ ^ 2 + 1 y_34_ ^ 2 - 2 y_47_ * y_34_ + 1 y_47_ ^ 2 ] >= 1506.78
quadratic_ranged_153_lb: [ 1 x_46_ ^ 2 - 2 x_47_ * x_46_ + 1 x_47_ ^ 2 + 1 y_46_ ^ 2 - 2 y_47_ * y_46_ + 1 y_47_ ^ 2 ] >= 6013.26
quadratic_ranged_154_lb: [ 1 x_13_ ^ 2 - 2 x_48_ * x_13_ + 1 x_48_ ^ 2 + 1 y_13_ ^ 2 - 2 y_48_ * y_13_ + 1 y_48_ ^ 2 ] >= 1087.02
quadratic_ranged_155_lb: [ 1 x_27_ ^ 2 - 2 x_48_ * x_27_ + 1 x_48_ ^ 2 + 1 y_27_ ^ 2 - 2 y_48_ * y_27_ + 1 y_48_ ^ 2 ] >= 5538.06
quadratic_ranged_156_lb: [ 1 x_30_ ^ 2 - 2 x_48_ * x_30_ + 1 x_48_ ^ 2 + 1 y_30_ ^ 2 - 2 y_48_ * y_30_ + 1 y_48_ ^ 2 ] >= 8325.9
quadratic_ranged_157_lb: [ 1 x_40_ ^ 2 - 2 x_48_ * x_40_ + 1 x_48_ ^ 2 + 1 y_40_ ^ 2 - 2 y_48_ * y_40_ + 1 y_48_ ^ 2 ] >= 8522.91
quadratic_ranged_158_lb: [ 1 x_47_ ^ 2 - 2 x_48_ * x_47_ + 1 x_48_ ^ 2 + 1 y_47_ ^ 2 - 2 y_48_ * y_47_ + 1 y_48_ ^ 2 ] >= 6058.8
quadratic_ranged_159_lb: [ 1 x_4_ ^ 2 - 2 x_49_ * x_4_ + 1 x_49_ ^ 2 + 1 y_4_ ^ 2 - 2 y_49_ * y_4_ + 1 y_49_ ^ 2 ] >= 24571.8
quadratic_ranged_160_lb: [ 1 x_12_ ^ 2 - 2 x_49_ * x_12_ + 1 x_49_ ^ 2 + 1 y_12_ ^ 2 - 2 y_49_ * y_12_ + 1 y_49_ ^ 2 ] >= 14498.55
quadratic_ranged_161_lb: [ 1 x_33_ ^ 2 - 2 x_49_ * x_33_ + 1 x_49_ ^ 2 + 1 y_33_ ^ 2 - 2 y_49_ * y_33_ + 1 y_49_ ^ 2 ] >= 19816.829999999998
quadratic_ranged_162_lb: [ 1 x_36_ ^ 2 - 2 x_49_ * x_36_ + 1 x_49_ ^ 2 + 1 y_36_ ^ 2 - 2 y_49_ * y_36_ + 1 y_49_ ^ 2 ] >= 20976.12
quadratic_ranged_163_lb: [ 1 x_48_ ^ 2 - 2 x_49_ * x_48_ + 1 x_49_ ^ 2 + 1 y_48_ ^ 2 - 2 y_49_ * y_48_ + 1 y_49_ ^ 2 ] >= 6408.2699999999995
quadratic_ranged_164_lb: [ 1 x_1_ ^ 2 - 2 x_50_ * x_1_ + 1 x_50_ ^ 2 + 1 y_1_ ^ 2 - 2 y_50_ * y_1_ + 1 y_50_ ^ 2 ] >= 405.9
quadratic_ranged_165_lb: [ 1 x_5_ ^ 2 - 2 x_50_ * x_5_ + 1 x_50_ ^ 2 + 1 y_5_ ^ 2 - 2 y_50_ * y_5_ + 1 y_50_ ^ 2 ] >= 13117.5
quadratic_ranged_166_lb: [ 1 x_12_ ^ 2 - 2 x_50_ * x_12_ + 1 x_50_ ^ 2 + 1 y_12_ ^ 2 - 2 y_50_ * y_12_ + 1 y_50_ ^ 2 ] >= 1623.6
quadratic_ranged_167_lb: [ 1 x_38_ ^ 2 - 2 x_50_ * x_38_ + 1 x_50_ ^ 2 + 1 y_38_ ^ 2 - 2 y_50_ * y_38_ + 1 y_50_ ^ 2 ] >= 14854.95
quadratic_ranged_168_lb: [ 1 x_39_ ^ 2 - 2 x_50_ * x_39_ + 1 x_50_ ^ 2 + 1 y_39_ ^ 2 - 2 y_50_ * y_39_ + 1 y_50_ ^ 2 ] >= 10075.23
quadratic_ranged_169_lb: [ 1 x_43_ ^ 2 - 2 x_50_ * x_43_ + 1 x_50_ ^ 2 + 1 y_43_ ^ 2 - 2 y_50_ * y_43_ + 1 y_50_ ^ 2 ] >= 37271.52
quadratic_ranged_170_lb: [ 1 x_48_ ^ 2 - 2 x_50_ * x_48_ + 1 x_50_ ^ 2 + 1 y_48_ ^ 2 - 2 y_50_ * y_48_ + 1 y_50_ ^ 2 ] >= 5688.54
quadratic_ranged_171_lb: [ 1 x_49_ ^ 2 - 2 x_50_ * x_49_ + 1 x_50_ ^ 2 + 1 y_49_ ^ 2 - 2 y_50_ * y_49_ + 1 y_50_ ^ 2 ] >= 21258.27
quadratic_ranged_172_lb: [ 1 x_10_ ^ 2 - 2 x_51_ * x_10_ + 1 x_51_ ^ 2 + 1 y_10_ ^ 2 - 2 y_51_ * y_10_ + 1 y_51_ ^ 2 ] >= 8222.94
quadratic_ranged_173_lb: [ 1 x_11_ ^ 2 - 2 x_51_ * x_11_ + 1 x_51_ ^ 2 + 1 y_11_ ^ 2 - 2 y_51_ * y_11_ + 1 y_51_ ^ 2 ] >= 6116.22
quadratic_ranged_174_lb: [ 1 x_37_ ^ 2 - 2 x_51_ * x_37_ + 1 x_51_ ^ 2 + 1 y_37_ ^ 2 - 2 y_51_ * y_37_ + 1 y_51_ ^ 2 ] >= 17592.3
quadratic_ranged_175_lb: [ 1 x_47_ ^ 2 - 2 x_51_ * x_47_ + 1 x_51_ ^ 2 + 1 y_47_ ^ 2 - 2 y_51_ * y_47_ + 1 y_51_ ^ 2 ] >= 3074.94
quadratic_ranged_176_lb: [ 1 x_49_ ^ 2 - 2 x_51_ * x_49_ + 1 x_51_ ^ 2 + 1 y_49_ ^ 2 - 2 y_51_ * y_49_ + 1 y_51_ ^ 2 ] >= 36.63
quadratic_ranged_177_lb: [ 1 x_50_ ^ 2 - 2 x_51_ * x_50_ + 1 x_51_ ^ 2 + 1 y_50_ ^ 2 - 2 y_51_ * y_50_ + 1 y_51_ ^ 2 ] >= 21958.2
quadratic_ranged_178_lb: [ 1 x_5_ ^ 2 - 2 x_52_ * x_5_ + 1 x_52_ ^ 2 + 1 y_5_ ^ 2 - 2 y_52_ * y_5_ + 1 y_52_ ^ 2 ] >= 8118
quadratic_ranged_179_lb: [ 1 x_30_ ^ 2 - 2 x_52_ * x_30_ + 1 x_52_ ^ 2 + 1 y_30_ ^ 2 - 2 y_52_ * y_30_ + 1 y_52_ ^ 2 ] >= 7613.1
quadratic_ranged_180_lb: [ 1 x_39_ ^ 2 - 2 x_52_ * x_39_ + 1 x_52_ ^ 2 + 1 y_39_ ^ 2 - 2 y_52_ * y_39_ + 1 y_52_ ^ 2 ] >= 4063.95
quadratic_ranged_181_lb: [ 1 x_41_ ^ 2 - 2 x_52_ * x_41_ + 1 x_52_ ^ 2 + 1 y_41_ ^ 2 - 2 y_52_ * y_41_ + 1 y_52_ ^ 2 ] >= 2305.71
quadratic_ranged_182_lb: [ 1 x_43_ ^ 2 - 2 x_52_ * x_43_ + 1 x_52_ ^ 2 + 1 y_43_ ^ 2 - 2 y_52_ * y_43_ + 1 y_52_ ^ 2 ] >= 23595.66
quadratic_ranged_183_lb: [ 1 x_51_ ^ 2 - 2 x_52_ * x_51_ + 1 x_52_ ^ 2 + 1 y_51_ ^ 2 - 2 y_52_ * y_51_ + 1 y_52_ ^ 2 ] >= 11929.5
quadratic_ranged_184_lb: [ 1 x_4_ ^ 2 - 2 x_53_ * x_4_ + 1 x_53_ ^ 2 + 1 y_4_ ^ 2 - 2 y_53_ * y_4_ + 1 y_53_ ^ 2 ] >= 3109.59
quadratic_ranged_185_lb: [ 1 x_9_ ^ 2 - 2 x_53_ * x_9_ + 1 x_53_ ^ 2 + 1 y_9_ ^ 2 - 2 y_53_ * y_9_ + 1 y_53_ ^ 2 ] >= 1570.1399999999999
quadratic_ranged_186_lb: [ 1 x_22_ ^ 2 - 2 x_53_ * x_22_ + 1 x_53_ ^ 2 + 1 y_22_ ^ 2 - 2 y_53_ * y_22_ + 1 y_53_ ^ 2 ] >= 49737.6
quadratic_ranged_187_lb: [ 1 x_41_ ^ 2 - 2 x_53_ * x_41_ + 1 x_53_ ^ 2 + 1 y_41_ ^ 2 - 2 y_53_ * y_41_ + 1 y_53_ ^ 2 ] >= 22442.31
quadratic_ranged_188_lb: [ 1 x_52_ ^ 2 - 2 x_53_ * x_52_ + 1 x_53_ ^ 2 + 1 y_52_ ^ 2 - 2 y_53_ * y_52_ + 1 y_53_ ^ 2 ] >= 13563
quadratic_ranged_189_lb: [ 1 x_2_ ^ 2 - 2 x_54_ * x_2_ + 1 x_54_ ^ 2 + 1 y_2_ ^ 2 - 2 y_54_ * y_2_ + 1 y_54_ ^ 2 ] >= 17223.03
quadratic_ranged_190_lb: [ 1 x_8_ ^ 2 - 2 x_54_ * x_8_ + 1 x_54_ ^ 2 + 1 y_8_ ^ 2 - 2 y_54_ * y_8_ + 1 y_54_ ^ 2 ] >= 24173.82
quadratic_ranged_191_lb: [ 1 x_13_ ^ 2 - 2 x_54_ * x_13_ + 1 x_54_ ^ 2 + 1 y_13_ ^ 2 - 2 y_54_ * y_13_ + 1 y_54_ ^ 2 ] >= 3945.15
quadratic_ranged_192_lb: [ 1 x_20_ ^ 2 - 2 x_54_ * x_20_ + 1 x_54_ ^ 2 + 1 y_20_ ^ 2 - 2 y_54_ * y_20_ + 1 y_54_ ^ 2 ] >= 18790.2
quadratic_ranged_193_lb: [ 1 x_22_ ^ 2 - 2 x_54_ * x_22_ + 1 x_54_ ^ 2 + 1 y_22_ ^ 2 - 2 y_54_ * y_22_ + 1 y_54_ ^ 2 ] >= 33720.39
quadratic_ranged_194_lb: [ 1 x_53_ ^ 2 - 2 x_54_ * x_53_ + 1 x_54_ ^ 2 + 1 y_53_ ^ 2 - 2 y_54_ * y_53_ + 1 y_54_ ^ 2 ] >= 2784.87
quadratic_ranged_195_lb: [ 1 x_10_ ^ 2 - 2 x_55_ * x_10_ + 1 x_55_ ^ 2 + 1 y_10_ ^ 2 - 2 y_55_ * y_10_ + 1 y_55_ ^ 2 ] >= 3455.1
quadratic_ranged_196_lb: [ 1 x_17_ ^ 2 - 2 x_55_ * x_17_ + 1 x_55_ ^ 2 + 1 y_17_ ^ 2 - 2 y_55_ * y_17_ + 1 y_55_ ^ 2 ] >= 1055.34
quadratic_ranged_197_lb: [ 1 x_24_ ^ 2 - 2 x_55_ * x_24_ + 1 x_55_ ^ 2 + 1 y_24_ ^ 2 - 2 y_55_ * y_24_ + 1 y_55_ ^ 2 ] >= 11414.7
quadratic_ranged_198_lb: [ 1 x_54_ ^ 2 - 2 x_55_ * x_54_ + 1 x_55_ ^ 2 + 1 y_54_ ^ 2 - 2 y_55_ * y_54_ + 1 y_55_ ^ 2 ] >= 27150.75
quadratic_ranged_199_lb: [ 1 x_2_ ^ 2 - 2 x_56_ * x_2_ + 1 x_56_ ^ 2 + 1 y_2_ ^ 2 - 2 y_56_ * y_2_ + 1 y_56_ ^ 2 ] >= 4218.39
quadratic_ranged_200_lb: [ 1 x_8_ ^ 2 - 2 x_56_ * x_8_ + 1 x_56_ ^ 2 + 1 y_8_ ^ 2 - 2 y_56_ * y_8_ + 1 y_56_ ^ 2 ] >= 11982.96
quadratic_ranged_201_lb: [ 1 x_14_ ^ 2 - 2 x_56_ * x_14_ + 1 x_56_ ^ 2 + 1 y_14_ ^ 2 - 2 y_56_ * y_14_ + 1 y_56_ ^ 2 ] >= 516.78
quadratic_ranged_202_lb: [ 1 x_26_ ^ 2 - 2 x_56_ * x_26_ + 1 x_56_ ^ 2 + 1 y_26_ ^ 2 - 2 y_56_ * y_26_ + 1 y_56_ ^ 2 ] >= 17116.11
quadratic_ranged_203_lb: [ 1 x_32_ ^ 2 - 2 x_56_ * x_32_ + 1 x_56_ ^ 2 + 1 y_32_ ^ 2 - 2 y_56_ * y_32_ + 1 y_56_ ^ 2 ] >= 15257.88
quadratic_ranged_204_lb: [ 1 x_35_ ^ 2 - 2 x_56_ * x_35_ + 1 x_56_ ^ 2 + 1 y_35_ ^ 2 - 2 y_56_ * y_35_ + 1 y_56_ ^ 2 ] >= 5742
quadratic_ranged_205_lb: [ 1 x_43_ ^ 2 - 2 x_56_ * x_43_ + 1 x_56_ ^ 2 + 1 y_43_ ^ 2 - 2 y_56_ * y_43_ + 1 y_56_ ^ 2 ] >= 25855.829999999998
quadratic_ranged_206_lb: [ 1 x_50_ ^ 2 - 2 x_56_ * x_50_ + 1 x_56_ ^ 2 + 1 y_50_ ^ 2 - 2 y_56_ * y_50_ + 1 y_56_ ^ 2 ] >= 1145.43
quadratic_ranged_207_lb: [ 1 x_55_ ^ 2 - 2 x_56_ * x_55_ + 1 x_56_ ^ 2 + 1 y_55_ ^ 2 - 2 y_56_ * y_55_ + 1 y_56_ ^ 2 ] >= 13833.27
quadratic_ranged_208_lb: [ 1 x_1_ ^ 2 - 2 x_57_ * x_1_ + 1 x_57_ ^ 2 + 1 y_1_ ^ 2 - 2 y_57_ * y_1_ + 1 y_57_ ^ 2 ] >= 11810.7
quadratic_ranged_209_lb: [ 1 x_42_ ^ 2 - 2 x_57_ * x_42_ + 1 x_57_ ^ 2 + 1 y_42_ ^ 2 - 2 y_57_ * y_42_ + 1 y_57_ ^ 2 ] >= 14973.75
quadratic_ranged_210_lb: [ 1 x_43_ ^ 2 - 2 x_57_ * x_43_ + 1 x_57_ ^ 2 + 1 y_43_ ^ 2 - 2 y_57_ * y_43_ + 1 y_57_ ^ 2 ] >= 27058.68
quadratic_ranged_211_lb: [ 1 x_56_ ^ 2 - 2 x_57_ * x_56_ + 1 x_57_ ^ 2 + 1 y_56_ ^ 2 - 2 y_57_ * y_56_ + 1 y_57_ ^ 2 ] >= 11057.31
quadratic_ranged_212_lb: [ 1 x_16_ ^ 2 - 2 x_58_ * x_16_ + 1 x_58_ ^ 2 + 1 y_16_ ^ 2 - 2 y_58_ * y_16_ + 1 y_58_ ^ 2 ] >= 24616.35
quadratic_ranged_213_lb: [ 1 x_24_ ^ 2 - 2 x_58_ * x_24_ + 1 x_58_ ^ 2 + 1 y_24_ ^ 2 - 2 y_58_ * y_24_ + 1 y_58_ ^ 2 ] >= 25352.91
quadratic_ranged_214_lb: [ 1 x_57_ ^ 2 - 2 x_58_ * x_57_ + 1 x_58_ ^ 2 + 1 y_57_ ^ 2 - 2 y_58_ * y_57_ + 1 y_58_ ^ 2 ] >= 26243.91
quadratic_ranged_215_lb: [ 1 x_6_ ^ 2 - 2 x_59_ * x_6_ + 1 x_59_ ^ 2 + 1 y_6_ ^ 2 - 2 y_59_ * y_6_ + 1 y_59_ ^ 2 ] >= 12965.039999999999
quadratic_ranged_216_lb: [ 1 x_9_ ^ 2 - 2 x_59_ * x_9_ + 1 x_59_ ^ 2 + 1 y_9_ ^ 2 - 2 y_59_ * y_9_ + 1 y_59_ ^ 2 ] >= 5192.55
quadratic_ranged_217_lb: [ 1 x_15_ ^ 2 - 2 x_59_ * x_15_ + 1 x_59_ ^ 2 + 1 y_15_ ^ 2 - 2 y_59_ * y_15_ + 1 y_59_ ^ 2 ] >= 440.55
quadratic_ranged_218_lb: [ 1 x_21_ ^ 2 - 2 x_59_ * x_21_ + 1 x_59_ ^ 2 + 1 y_21_ ^ 2 - 2 y_59_ * y_21_ + 1 y_59_ ^ 2 ] >= 17864.55
quadratic_ranged_219_lb: [ 1 x_23_ ^ 2 - 2 x_59_ * x_23_ + 1 x_59_ ^ 2 + 1 y_23_ ^ 2 - 2 y_59_ * y_23_ + 1 y_59_ ^ 2 ] >= 21166.2
quadratic_ranged_220_lb: [ 1 x_53_ ^ 2 - 2 x_59_ * x_53_ + 1 x_59_ ^ 2 + 1 y_53_ ^ 2 - 2 y_59_ * y_53_ + 1 y_59_ ^ 2 ] >= 12372.03
quadratic_ranged_221_lb: [ 1 x_58_ ^ 2 - 2 x_59_ * x_58_ + 1 x_59_ ^ 2 + 1 y_58_ ^ 2 - 2 y_59_ * y_58_ + 1 y_59_ ^ 2 ] >= 20728.62
quadratic_ranged_222_lb: [ 1 x_7_ ^ 2 - 2 x_60_ * x_7_ + 1 x_60_ ^ 2 + 1 y_7_ ^ 2 - 2 y_60_ * y_7_ + 1 y_60_ ^ 2 ] >= 6755.76
quadratic_ranged_223_lb: [ 1 x_9_ ^ 2 - 2 x_60_ * x_9_ + 1 x_60_ ^ 2 + 1 y_9_ ^ 2 - 2 y_60_ * y_9_ + 1 y_60_ ^ 2 ] >= 15175.71
quadratic_ranged_224_lb: [ 1 x_19_ ^ 2 - 2 x_60_ * x_19_ + 1 x_60_ ^ 2 + 1 y_19_ ^ 2 - 2 y_60_ * y_19_ + 1 y_60_ ^ 2 ] >= 420.75
quadratic_ranged_225_lb: [ 1 x_41_ ^ 2 - 2 x_60_ * x_41_ + 1 x_60_ ^ 2 + 1 y_41_ ^ 2 - 2 y_60_ * y_41_ + 1 y_60_ ^ 2 ] >= 9886.14
quadratic_ranged_226_lb: [ 1 x_55_ ^ 2 - 2 x_60_ * x_55_ + 1 x_60_ ^ 2 + 1 y_55_ ^ 2 - 2 y_60_ * y_55_ + 1 y_60_ ^ 2 ] >= 1668.15
quadratic_ranged_227_lb: [ 1 x_59_ ^ 2 - 2 x_60_ * x_59_ + 1 x_60_ ^ 2 + 1 y_59_ ^ 2 - 2 y_60_ * y_59_ + 1 y_60_ ^ 2 ] >= 6039
quadratic_ranged_228_lb: [ 1 x_4_ ^ 2 - 2 x_61_ * x_4_ + 1 x_61_ ^ 2 + 1 y_4_ ^ 2 - 2 y_61_ * y_4_ + 1 y_61_ ^ 2 ] >= 39268.35
quadratic_ranged_229_lb: [ 1 x_10_ ^ 2 - 2 x_61_ * x_10_ + 1 x_61_ ^ 2 + 1 y_10_ ^ 2 - 2 y_61_ * y_10_ + 1 y_61_ ^ 2 ] >= 13988.7
quadratic_ranged_230_lb: [ 1 x_20_ ^ 2 - 2 x_61_ * x_20_ + 1 x_61_ ^ 2 + 1 y_20_ ^ 2 - 2 y_61_ * y_20_ + 1 y_61_ ^ 2 ] >= 21491.91
quadratic_ranged_231_lb: [ 1 x_25_ ^ 2 - 2 x_61_ * x_25_ + 1 x_61_ ^ 2 + 1 y_25_ ^ 2 - 2 y_61_ * y_25_ + 1 y_61_ ^ 2 ] >= 5149.98
quadratic_ranged_232_lb: [ 1 x_31_ ^ 2 - 2 x_61_ * x_31_ + 1 x_61_ ^ 2 + 1 y_31_ ^ 2 - 2 y_61_ * y_31_ + 1 y_61_ ^ 2 ] >= 3683.79
quadratic_ranged_233_lb: [ 1 x_53_ ^ 2 - 2 x_61_ * x_53_ + 1 x_61_ ^ 2 + 1 y_53_ ^ 2 - 2 y_61_ * y_53_ + 1 y_61_ ^ 2 ] >= 59330.7
quadratic_ranged_234_lb: [ 1 x_55_ ^ 2 - 2 x_61_ * x_55_ + 1 x_61_ ^ 2 + 1 y_55_ ^ 2 - 2 y_61_ * y_55_ + 1 y_61_ ^ 2 ] >= 3651.12
quadratic_ranged_235_lb: [ 1 x_60_ ^ 2 - 2 x_61_ * x_60_ + 1 x_61_ ^ 2 + 1 y_60_ ^ 2 - 2 y_61_ * y_60_ + 1 y_61_ ^ 2 ] >= 7010.19
quadratic_ranged_236_lb: [ 1 x_6_ ^ 2 - 2 x_62_ * x_6_ + 1 x_62_ ^ 2 + 1 y_6_ ^ 2 - 2 y_62_ * y_6_ + 1 y_62_ ^ 2 ] >= 9453.51
quadratic_ranged_237_lb: [ 1 x_23_ ^ 2 - 2 x_62_ * x_23_ + 1 x_62_ ^ 2 + 1 y_23_ ^ 2 - 2 y_62_ * y_23_ + 1 y_62_ ^ 2 ] >= 15611.31
quadratic_ranged_238_lb: [ 1 x_33_ ^ 2 - 2 x_62_ * x_33_ + 1 x_62_ ^ 2 + 1 y_33_ ^ 2 - 2 y_62_ * y_33_ + 1 y_62_ ^ 2 ] >= 11509.74
quadratic_ranged_239_lb: [ 1 x_34_ ^ 2 - 2 x_62_ * x_34_ + 1 x_62_ ^ 2 + 1 y_34_ ^ 2 - 2 y_62_ * y_34_ + 1 y_62_ ^ 2 ] >= 4191.66
quadratic_ranged_240_lb: [ 1 x_35_ ^ 2 - 2 x_62_ * x_35_ + 1 x_62_ ^ 2 + 1 y_35_ ^ 2 - 2 y_62_ * y_35_ + 1 y_62_ ^ 2 ] >= 6942.87
quadratic_ranged_241_lb: [ 1 x_36_ ^ 2 - 2 x_62_ * x_36_ + 1 x_62_ ^ 2 + 1 y_36_ ^ 2 - 2 y_62_ * y_36_ + 1 y_62_ ^ 2 ] >= 10102.95
quadratic_ranged_242_lb: [ 1 x_38_ ^ 2 - 2 x_62_ * x_38_ + 1 x_62_ ^ 2 + 1 y_38_ ^ 2 - 2 y_62_ * y_38_ + 1 y_62_ ^ 2 ] >= 2959.11
quadratic_ranged_243_lb: [ 1 x_48_ ^ 2 - 2 x_62_ * x_48_ + 1 x_62_ ^ 2 + 1 y_48_ ^ 2 - 2 y_62_ * y_48_ + 1 y_62_ ^ 2 ] >= 1888.92
quadratic_ranged_244_lb: [ 1 x_50_ ^ 2 - 2 x_62_ * x_50_ + 1 x_62_ ^ 2 + 1 y_50_ ^ 2 - 2 y_62_ * y_50_ + 1 y_62_ ^ 2 ] >= 10274.22
quadratic_ranged_245_lb: [ 1 x_61_ ^ 2 - 2 x_62_ * x_61_ + 1 x_62_ ^ 2 + 1 y_61_ ^ 2 - 2 y_62_ * y_61_ + 1 y_62_ ^ 2 ] >= 20372.22
quadratic_ranged_246_lb: [ 1 x_28_ ^ 2 - 2 x_63_ * x_28_ + 1 x_63_ ^ 2 + 1 y_28_ ^ 2 - 2 y_63_ * y_28_ + 1 y_63_ ^ 2 ] >= 999.9
quadratic_ranged_247_lb: [ 1 x_32_ ^ 2 - 2 x_63_ * x_32_ + 1 x_63_ ^ 2 + 1 y_32_ ^ 2 - 2 y_63_ * y_32_ + 1 y_63_ ^ 2 ] >= 1572.12
quadratic_ranged_248_lb: [ 1 x_61_ ^ 2 - 2 x_63_ * x_61_ + 1 x_63_ ^ 2 + 1 y_61_ ^ 2 - 2 y_63_ * y_61_ + 1 y_63_ ^ 2 ] >= 4661.91
quadratic_ranged_249_lb: [ 1 x_62_ ^ 2 - 2 x_63_ * x_62_ + 1 x_63_ ^ 2 + 1 y_62_ ^ 2 - 2 y_63_ * y_62_ + 1 y_63_ ^ 2 ] >= 5929.11
quadratic_ranged_250_lb: [ 1 x_15_ ^ 2 - 2 x_64_ * x_15_ + 1 x_64_ ^ 2 + 1 y_15_ ^ 2 - 2 y_64_ * y_15_ + 1 y_64_ ^ 2 ] >= 11849.31
quadratic_ranged_251_lb: [ 1 x_38_ ^ 2 - 2 x_64_ * x_38_ + 1 x_64_ ^ 2 + 1 y_38_ ^ 2 - 2 y_64_ * y_38_ + 1 y_64_ ^ 2 ] >= 3336.3
quadratic_ranged_252_lb: [ 1 x_63_ ^ 2 - 2 x_64_ * x_63_ + 1 x_64_ ^ 2 + 1 y_63_ ^ 2 - 2 y_64_ * y_63_ + 1 y_64_ ^ 2 ] >= 1886.94
quadratic_ranged_253_lb: [ 1 x_8_ ^ 2 - 2 x_65_ * x_8_ + 1 x_65_ ^ 2 + 1 y_8_ ^ 2 - 2 y_65_ * y_8_ + 1 y_65_ ^ 2 ] >= 10600.92
quadratic_ranged_254_lb: [ 1 x_22_ ^ 2 - 2 x_65_ * x_22_ + 1 x_65_ ^ 2 + 1 y_22_ ^ 2 - 2 y_65_ * y_22_ + 1 y_65_ ^ 2 ] >= 4182.75
quadratic_ranged_255_lb: [ 1 x_29_ ^ 2 - 2 x_65_ * x_29_ + 1 x_65_ ^ 2 + 1 y_29_ ^ 2 - 2 y_65_ * y_29_ + 1 y_65_ ^ 2 ] >= 12612.6
quadratic_ranged_256_lb: [ 1 x_37_ ^ 2 - 2 x_65_ * x_37_ + 1 x_65_ ^ 2 + 1 y_37_ ^ 2 - 2 y_65_ * y_37_ + 1 y_65_ ^ 2 ] >= 3473.91
quadratic_ranged_257_lb: [ 1 x_43_ ^ 2 - 2 x_65_ * x_43_ + 1 x_65_ ^ 2 + 1 y_43_ ^ 2 - 2 y_65_ * y_43_ + 1 y_65_ ^ 2 ] >= 15171.75
quadratic_ranged_258_lb: [ 1 x_46_ ^ 2 - 2 x_65_ * x_46_ + 1 x_65_ ^ 2 + 1 y_46_ ^ 2 - 2 y_65_ * y_46_ + 1 y_65_ ^ 2 ] >= 24489.63
quadratic_ranged_259_lb: [ 1 x_47_ ^ 2 - 2 x_65_ * x_47_ + 1 x_65_ ^ 2 + 1 y_47_ ^ 2 - 2 y_65_ * y_47_ + 1 y_65_ ^ 2 ] >= 14815.35
quadratic_ranged_260_lb: [ 1 x_58_ ^ 2 - 2 x_65_ * x_58_ + 1 x_65_ ^ 2 + 1 y_58_ ^ 2 - 2 y_65_ * y_58_ + 1 y_65_ ^ 2 ] >= 9606.96
quadratic_ranged_261_lb: [ 1 x_64_ ^ 2 - 2 x_65_ * x_64_ + 1 x_65_ ^ 2 + 1 y_64_ ^ 2 - 2 y_65_ * y_64_ + 1 y_65_ ^ 2 ] >= 10290.06
quadratic_ranged_262_lb: [ 1 x_6_ ^ 2 - 2 x_66_ * x_6_ + 1 x_66_ ^ 2 + 1 y_6_ ^ 2 - 2 y_66_ * y_6_ + 1 y_66_ ^ 2 ] >= 3295.71
quadratic_ranged_263_lb: [ 1 x_13_ ^ 2 - 2 x_66_ * x_13_ + 1 x_66_ ^ 2 + 1 y_13_ ^ 2 - 2 y_66_ * y_13_ + 1 y_66_ ^ 2 ] >= 16800.3
quadratic_ranged_264_lb: [ 1 x_19_ ^ 2 - 2 x_66_ * x_19_ + 1 x_66_ ^ 2 + 1 y_19_ ^ 2 - 2 y_66_ * y_19_ + 1 y_66_ ^ 2 ] >= 5425.2
quadratic_ranged_265_lb: [ 1 x_22_ ^ 2 - 2 x_66_ * x_22_ + 1 x_66_ ^ 2 + 1 y_22_ ^ 2 - 2 y_66_ * y_22_ + 1 y_66_ ^ 2 ] >= 4316.4
quadratic_ranged_266_lb: [ 1 x_45_ ^ 2 - 2 x_66_ * x_45_ + 1 x_66_ ^ 2 + 1 y_45_ ^ 2 - 2 y_66_ * y_45_ + 1 y_66_ ^ 2 ] >= 5445.99
quadratic_ranged_267_lb: [ 1 x_60_ ^ 2 - 2 x_66_ * x_60_ + 1 x_66_ ^ 2 + 1 y_60_ ^ 2 - 2 y_66_ * y_60_ + 1 y_66_ ^ 2 ] >= 3450.15
quadratic_ranged_268_lb: [ 1 x_64_ ^ 2 - 2 x_66_ * x_64_ + 1 x_66_ ^ 2 + 1 y_64_ ^ 2 - 2 y_66_ * y_64_ + 1 y_66_ ^ 2 ] >= 349.46999999999997
quadratic_ranged_269_lb: [ 1 x_65_ ^ 2 - 2 x_66_ * x_65_ + 1 x_66_ ^ 2 + 1 y_65_ ^ 2 - 2 y_66_ * y_65_ + 1 y_66_ ^ 2 ] >= 13389.75
quadratic_ranged_270_lb: [ 1 x_17_ ^ 2 - 2 x_67_ * x_17_ + 1 x_67_ ^ 2 + 1 y_17_ ^ 2 - 2 y_67_ * y_17_ + 1 y_67_ ^ 2 ] >= 13793.67
quadratic_ranged_271_lb: [ 1 x_24_ ^ 2 - 2 x_67_ * x_24_ + 1 x_67_ ^ 2 + 1 y_24_ ^ 2 - 2 y_67_ * y_24_ + 1 y_67_ ^ 2 ] >= 266.31
quadratic_ranged_272_lb: [ 1 x_30_ ^ 2 - 2 x_67_ * x_30_ + 1 x_67_ ^ 2 + 1 y_30_ ^ 2 - 2 y_67_ * y_30_ + 1 y_67_ ^ 2 ] >= 19963.35
quadratic_ranged_273_lb: [ 1 x_31_ ^ 2 - 2 x_67_ * x_31_ + 1 x_67_ ^ 2 + 1 y_31_ ^ 2 - 2 y_67_ * y_31_ + 1 y_67_ ^ 2 ] >= 9157.5
quadratic_ranged_274_lb: [ 1 x_39_ ^ 2 - 2 x_67_ * x_39_ + 1 x_67_ ^ 2 + 1 y_39_ ^ 2 - 2 y_67_ * y_39_ + 1 y_67_ ^ 2 ] >= 20758.32
quadratic_ranged_275_lb: [ 1 x_63_ ^ 2 - 2 x_67_ * x_63_ + 1 x_67_ ^ 2 + 1 y_63_ ^ 2 - 2 y_67_ * y_63_ + 1 y_67_ ^ 2 ] >= 14434.2
quadratic_ranged_276_lb: [ 1 x_65_ ^ 2 - 2 x_67_ * x_65_ + 1 x_67_ ^ 2 + 1 y_65_ ^ 2 - 2 y_67_ * y_65_ + 1 y_67_ ^ 2 ] >= 36891.36
quadratic_ranged_277_lb: [ 1 x_66_ ^ 2 - 2 x_67_ * x_66_ + 1 x_67_ ^ 2 + 1 y_66_ ^ 2 - 2 y_67_ * y_66_ + 1 y_67_ ^ 2 ] >= 11148.39
quadratic_ranged_278_lb: [ 1 x_7_ ^ 2 - 2 x_68_ * x_7_ + 1 x_68_ ^ 2 + 1 y_7_ ^ 2 - 2 y_68_ * y_7_ + 1 y_68_ ^ 2 ] >= 3537.27
quadratic_ranged_279_lb: [ 1 x_17_ ^ 2 - 2 x_68_ * x_17_ + 1 x_68_ ^ 2 + 1 y_17_ ^ 2 - 2 y_68_ * y_17_ + 1 y_68_ ^ 2 ] >= 25005.42
quadratic_ranged_280_lb: [ 1 x_34_ ^ 2 - 2 x_68_ * x_34_ + 1 x_68_ ^ 2 + 1 y_34_ ^ 2 - 2 y_68_ * y_34_ + 1 y_68_ ^ 2 ] >= 11563.2
quadratic_ranged_281_lb: [ 1 x_40_ ^ 2 - 2 x_68_ * x_40_ + 1 x_68_ ^ 2 + 1 y_40_ ^ 2 - 2 y_68_ * y_40_ + 1 y_68_ ^ 2 ] >= 21321.63
quadratic_ranged_282_lb: [ 1 x_46_ ^ 2 - 2 x_68_ * x_46_ + 1 x_68_ ^ 2 + 1 y_46_ ^ 2 - 2 y_68_ * y_46_ + 1 y_68_ ^ 2 ] >= 4791.6
quadratic_ranged_283_lb: [ 1 x_50_ ^ 2 - 2 x_68_ * x_50_ + 1 x_68_ ^ 2 + 1 y_50_ ^ 2 - 2 y_68_ * y_50_ + 1 y_68_ ^ 2 ] >= 5480.64
quadratic_ranged_284_lb: [ 1 x_56_ ^ 2 - 2 x_68_ * x_56_ + 1 x_68_ ^ 2 + 1 y_56_ ^ 2 - 2 y_68_ * y_56_ + 1 y_68_ ^ 2 ] >= 3545.19
quadratic_ranged_285_lb: [ 1 x_64_ ^ 2 - 2 x_68_ * x_64_ + 1 x_68_ ^ 2 + 1 y_64_ ^ 2 - 2 y_68_ * y_64_ + 1 y_68_ ^ 2 ] >= 21931.47
quadratic_ranged_286_lb: [ 1 x_67_ ^ 2 - 2 x_68_ * x_67_ + 1 x_68_ ^ 2 + 1 y_67_ ^ 2 - 2 y_68_ * y_67_ + 1 y_68_ ^ 2 ] >= 17682.39
quadratic_ranged_287_lb: [ 1 x_5_ ^ 2 - 2 x_69_ * x_5_ + 1 x_69_ ^ 2 + 1 y_5_ ^ 2 - 2 y_69_ * y_5_ + 1 y_69_ ^ 2 ] >= 7179.48
quadratic_ranged_288_lb: [ 1 x_11_ ^ 2 - 2 x_69_ * x_11_ + 1 x_69_ ^ 2 + 1 y_11_ ^ 2 - 2 y_69_ * y_11_ + 1 y_69_ ^ 2 ] >= 10296
quadratic_ranged_289_lb: [ 1 x_13_ ^ 2 - 2 x_69_ * x_13_ + 1 x_69_ ^ 2 + 1 y_13_ ^ 2 - 2 y_69_ * y_13_ + 1 y_69_ ^ 2 ] >= 6631.0199999999995
quadratic_ranged_290_lb: [ 1 x_15_ ^ 2 - 2 x_69_ * x_15_ + 1 x_69_ ^ 2 + 1 y_15_ ^ 2 - 2 y_69_ * y_15_ + 1 y_69_ ^ 2 ] >= 21290.94
quadratic_ranged_291_lb: [ 1 x_19_ ^ 2 - 2 x_69_ * x_19_ + 1 x_69_ ^ 2 + 1 y_19_ ^ 2 - 2 y_69_ * y_19_ + 1 y_69_ ^ 2 ] >= 9765.36
quadratic_ranged_292_lb: [ 1 x_26_ ^ 2 - 2 x_69_ * x_26_ + 1 x_69_ ^ 2 + 1 y_26_ ^ 2 - 2 y_69_ * y_26_ + 1 y_69_ ^ 2 ] >= 35358.84
quadratic_ranged_293_lb: [ 1 x_41_ ^ 2 - 2 x_69_ * x_41_ + 1 x_69_ ^ 2 + 1 y_41_ ^ 2 - 2 y_69_ * y_41_ + 1 y_69_ ^ 2 ] >= 690.03
quadratic_ranged_294_lb: [ 1 x_54_ ^ 2 - 2 x_69_ * x_54_ + 1 x_69_ ^ 2 + 1 y_54_ ^ 2 - 2 y_69_ * y_54_ + 1 y_69_ ^ 2 ] >= 14510.43
quadratic_ranged_295_lb: [ 1 x_58_ ^ 2 - 2 x_69_ * x_58_ + 1 x_69_ ^ 2 + 1 y_58_ ^ 2 - 2 y_69_ * y_58_ + 1 y_69_ ^ 2 ] >= 25028.19
quadratic_ranged_296_lb: [ 1 x_67_ ^ 2 - 2 x_69_ * x_67_ + 1 x_69_ ^ 2 + 1 y_67_ ^ 2 - 2 y_69_ * y_67_ + 1 y_69_ ^ 2 ] >= 50550.39
quadratic_ranged_297_lb: [ 1 x_68_ ^ 2 - 2 x_69_ * x_68_ + 1 x_69_ ^ 2 + 1 y_68_ ^ 2 - 2 y_69_ * y_68_ + 1 y_69_ ^ 2 ] >= 15525.18
quadratic_ranged_298_lb: [ 1 x_3_ ^ 2 - 2 x_70_ * x_3_ + 1 x_70_ ^ 2 + 1 y_3_ ^ 2 - 2 y_70_ * y_3_ + 1 y_70_ ^ 2 ] >= 11013.75
quadratic_ranged_299_lb: [ 1 x_12_ ^ 2 - 2 x_70_ * x_12_ + 1 x_70_ ^ 2 + 1 y_12_ ^ 2 - 2 y_70_ * y_12_ + 1 y_70_ ^ 2 ] >= 16720.11
quadratic_ranged_300_lb: [ 1 x_14_ ^ 2 - 2 x_70_ * x_14_ + 1 x_70_ ^ 2 + 1 y_14_ ^ 2 - 2 y_70_ * y_14_ + 1 y_70_ ^ 2 ] >= 10036.62
quadratic_ranged_301_lb: [ 1 x_17_ ^ 2 - 2 x_70_ * x_17_ + 1 x_70_ ^ 2 + 1 y_17_ ^ 2 - 2 y_70_ * y_17_ + 1 y_70_ ^ 2 ] >= 8712.99
quadratic_ranged_302_lb: [ 1 x_68_ ^ 2 - 2 x_70_ * x_68_ + 1 x_70_ ^ 2 + 1 y_68_ ^ 2 - 2 y_70_ * y_68_ + 1 y_70_ ^ 2 ] >= 6142.95
quadratic_ranged_303_lb: [ 1 x_69_ ^ 2 - 2 x_70_ * x_69_ + 1 x_70_ ^ 2 + 1 y_69_ ^ 2 - 2 y_70_ * y_69_ + 1 y_70_ ^ 2 ] >= 25099.47
quadratic_ranged_304_lb: [ 1 x_12_ ^ 2 - 2 x_71_ * x_12_ + 1 x_71_ ^ 2 + 1 y_12_ ^ 2 - 2 y_71_ * y_12_ + 1 y_71_ ^ 2 ] >= 22787.82
quadratic_ranged_305_lb: [ 1 x_15_ ^ 2 - 2 x_71_ * x_15_ + 1 x_71_ ^ 2 + 1 y_15_ ^ 2 - 2 y_71_ * y_15_ + 1 y_71_ ^ 2 ] >= 2829.42
quadratic_ranged_306_lb: [ 1 x_31_ ^ 2 - 2 x_71_ * x_31_ + 1 x_71_ ^ 2 + 1 y_31_ ^ 2 - 2 y_71_ * y_31_ + 1 y_71_ ^ 2 ] >= 2879.91
quadratic_ranged_307_lb: [ 1 x_34_ ^ 2 - 2 x_71_ * x_34_ + 1 x_71_ ^ 2 + 1 y_34_ ^ 2 - 2 y_71_ * y_34_ + 1 y_71_ ^ 2 ] >= 57.42
quadratic_ranged_308_lb: [ 1 x_38_ ^ 2 - 2 x_71_ * x_38_ + 1 x_71_ ^ 2 + 1 y_38_ ^ 2 - 2 y_71_ * y_38_ + 1 y_71_ ^ 2 ] >= 2151.27
quadratic_ranged_309_lb: [ 1 x_49_ ^ 2 - 2 x_71_ * x_49_ + 1 x_71_ ^ 2 + 1 y_49_ ^ 2 - 2 y_71_ * y_49_ + 1 y_71_ ^ 2 ] >= 6531.03
quadratic_ranged_310_lb: [ 1 x_55_ ^ 2 - 2 x_71_ * x_55_ + 1 x_71_ ^ 2 + 1 y_55_ ^ 2 - 2 y_71_ * y_55_ + 1 y_71_ ^ 2 ] >= 3003.66
quadratic_ranged_311_lb: [ 1 x_67_ ^ 2 - 2 x_71_ * x_67_ + 1 x_71_ ^ 2 + 1 y_67_ ^ 2 - 2 y_71_ * y_67_ + 1 y_71_ ^ 2 ] >= 2365.11
quadratic_ranged_312_lb: [ 1 x_70_ ^ 2 - 2 x_71_ * x_70_ + 1 x_71_ ^ 2 + 1 y_70_ ^ 2 - 2 y_71_ * y_70_ + 1 y_71_ ^ 2 ] >= 721.71
quadratic_ranged_313_lb: [ 1 x_4_ ^ 2 - 2 x_72_ * x_4_ + 1 x_72_ ^ 2 + 1 y_4_ ^ 2 - 2 y_72_ * y_4_ + 1 y_72_ ^ 2 ] >= 8748.63
quadratic_ranged_314_lb: [ 1 x_14_ ^ 2 - 2 x_72_ * x_14_ + 1 x_72_ ^ 2 + 1 y_14_ ^ 2 - 2 y_72_ * y_14_ + 1 y_72_ ^ 2 ] >= 21895.829999999998
quadratic_ranged_315_lb: [ 1 x_19_ ^ 2 - 2 x_72_ * x_19_ + 1 x_72_ ^ 2 + 1 y_19_ ^ 2 - 2 y_72_ * y_19_ + 1 y_72_ ^ 2 ] >= 16889.4
quadratic_ranged_316_lb: [ 1 x_34_ ^ 2 - 2 x_72_ * x_34_ + 1 x_72_ ^ 2 + 1 y_34_ ^ 2 - 2 y_72_ * y_34_ + 1 y_72_ ^ 2 ] >= 2005.74
quadratic_ranged_317_lb: [ 1 x_36_ ^ 2 - 2 x_72_ * x_36_ + 1 x_72_ ^ 2 + 1 y_36_ ^ 2 - 2 y_72_ * y_36_ + 1 y_72_ ^ 2 ] >= 32373.989999999998
quadratic_ranged_318_lb: [ 1 x_44_ ^ 2 - 2 x_72_ * x_44_ + 1 x_72_ ^ 2 + 1 y_44_ ^ 2 - 2 y_72_ * y_44_ + 1 y_72_ ^ 2 ] >= 12985.83
quadratic_ranged_319_lb: [ 1 x_55_ ^ 2 - 2 x_72_ * x_55_ + 1 x_72_ ^ 2 + 1 y_55_ ^ 2 - 2 y_72_ * y_55_ + 1 y_72_ ^ 2 ] >= 11335.5
quadratic_ranged_320_lb: [ 1 x_64_ ^ 2 - 2 x_72_ * x_64_ + 1 x_72_ ^ 2 + 1 y_64_ ^ 2 - 2 y_72_ * y_64_ + 1 y_72_ ^ 2 ] >= 17611.11
quadratic_ranged_321_lb: [ 1 x_66_ ^ 2 - 2 x_72_ * x_66_ + 1 x_72_ ^ 2 + 1 y_66_ ^ 2 - 2 y_72_ * y_66_ + 1 y_72_ ^ 2 ] >= 13642.2
quadratic_ranged_322_lb: [ 1 x_71_ ^ 2 - 2 x_72_ * x_71_ + 1 x_72_ ^ 2 + 1 y_71_ ^ 2 - 2 y_72_ * y_71_ + 1 y_72_ ^ 2 ] >= 2680.92
quadratic_ranged_323_lb: [ 1 x_10_ ^ 2 - 2 x_73_ * x_10_ + 1 x_73_ ^ 2 + 1 y_10_ ^ 2 - 2 y_73_ * y_10_ + 1 y_73_ ^ 2 ] >= 15421.23
quadratic_ranged_324_lb: [ 1 x_11_ ^ 2 - 2 x_73_ * x_11_ + 1 x_73_ ^ 2 + 1 y_11_ ^ 2 - 2 y_73_ * y_11_ + 1 y_73_ ^ 2 ] >= 3058.11
quadratic_ranged_325_lb: [ 1 x_30_ ^ 2 - 2 x_73_ * x_30_ + 1 x_73_ ^ 2 + 1 y_30_ ^ 2 - 2 y_73_ * y_30_ + 1 y_73_ ^ 2 ] >= 20517.75
quadratic_ranged_326_lb: [ 1 x_32_ ^ 2 - 2 x_73_ * x_32_ + 1 x_73_ ^ 2 + 1 y_32_ ^ 2 - 2 y_73_ * y_32_ + 1 y_73_ ^ 2 ] >= 8816.94
quadratic_ranged_327_lb: [ 1 x_36_ ^ 2 - 2 x_73_ * x_36_ + 1 x_73_ ^ 2 + 1 y_36_ ^ 2 - 2 y_73_ * y_36_ + 1 y_73_ ^ 2 ] >= 7227
quadratic_ranged_328_lb: [ 1 x_39_ ^ 2 - 2 x_73_ * x_39_ + 1 x_73_ ^ 2 + 1 y_39_ ^ 2 - 2 y_73_ * y_39_ + 1 y_73_ ^ 2 ] >= 746.46
quadratic_ranged_329_lb: [ 1 x_72_ ^ 2 - 2 x_73_ * x_72_ + 1 x_73_ ^ 2 + 1 y_72_ ^ 2 - 2 y_73_ * y_72_ + 1 y_73_ ^ 2 ] >= 27416.07
quadratic_ranged_330_lb: [ 1 x_8_ ^ 2 - 2 x_74_ * x_8_ + 1 x_74_ ^ 2 + 1 y_8_ ^ 2 - 2 y_74_ * y_8_ + 1 y_74_ ^ 2 ] >= 28135.8
quadratic_ranged_331_lb: [ 1 x_15_ ^ 2 - 2 x_74_ * x_15_ + 1 x_74_ ^ 2 + 1 y_15_ ^ 2 - 2 y_74_ * y_15_ + 1 y_74_ ^ 2 ] >= 9017.91
quadratic_ranged_332_lb: [ 1 x_29_ ^ 2 - 2 x_74_ * x_29_ + 1 x_74_ ^ 2 + 1 y_29_ ^ 2 - 2 y_74_ * y_29_ + 1 y_74_ ^ 2 ] >= 36325.08
quadratic_ranged_333_lb: [ 1 x_36_ ^ 2 - 2 x_74_ * x_36_ + 1 x_74_ ^ 2 + 1 y_36_ ^ 2 - 2 y_74_ * y_36_ + 1 y_74_ ^ 2 ] >= 12483.9
quadratic_ranged_334_lb: [ 1 x_46_ ^ 2 - 2 x_74_ * x_46_ + 1 x_74_ ^ 2 + 1 y_46_ ^ 2 - 2 y_74_ * y_46_ + 1 y_74_ ^ 2 ] >= 9211.95
quadratic_ranged_335_lb: [ 1 x_57_ ^ 2 - 2 x_74_ * x_57_ + 1 x_74_ ^ 2 + 1 y_57_ ^ 2 - 2 y_74_ * y_57_ + 1 y_74_ ^ 2 ] >= 6241.95
quadratic_ranged_336_lb: [ 1 x_65_ ^ 2 - 2 x_74_ * x_65_ + 1 x_74_ ^ 2 + 1 y_65_ ^ 2 - 2 y_74_ * y_65_ + 1 y_74_ ^ 2 ] >= 34356.96
quadratic_ranged_337_lb: [ 1 x_73_ ^ 2 - 2 x_74_ * x_73_ + 1 x_74_ ^ 2 + 1 y_73_ ^ 2 - 2 y_74_ * y_73_ + 1 y_74_ ^ 2 ] >= 27397.26
quadratic_ranged_338_lb: [ 1 x_22_ ^ 2 - 2 x_75_ * x_22_ + 1 x_75_ ^ 2 + 1 y_22_ ^ 2 - 2 y_75_ * y_22_ + 1 y_75_ ^ 2 ] >= 35267.76
quadratic_ranged_339_lb: [ 1 x_24_ ^ 2 - 2 x_75_ * x_24_ + 1 x_75_ ^ 2 + 1 y_24_ ^ 2 - 2 y_75_ * y_24_ + 1 y_75_ ^ 2 ] >= 538.56
quadratic_ranged_340_lb: [ 1 x_37_ ^ 2 - 2 x_75_ * x_37_ + 1 x_75_ ^ 2 + 1 y_37_ ^ 2 - 2 y_75_ * y_37_ + 1 y_75_ ^ 2 ] >= 53955
quadratic_ranged_341_lb: [ 1 x_42_ ^ 2 - 2 x_75_ * x_42_ + 1 x_75_ ^ 2 + 1 y_42_ ^ 2 - 2 y_75_ * y_42_ + 1 y_75_ ^ 2 ] >= 38005.11
quadratic_ranged_342_lb: [ 1 x_49_ ^ 2 - 2 x_75_ * x_49_ + 1 x_75_ ^ 2 + 1 y_49_ ^ 2 - 2 y_75_ * y_49_ + 1 y_75_ ^ 2 ] >= 22244.31
quadratic_ranged_343_lb: [ 1 x_50_ ^ 2 - 2 x_75_ * x_50_ + 1 x_75_ ^ 2 + 1 y_50_ ^ 2 - 2 y_75_ * y_50_ + 1 y_75_ ^ 2 ] >= 45074.7
quadratic_ranged_344_lb: [ 1 x_51_ ^ 2 - 2 x_75_ * x_51_ + 1 x_75_ ^ 2 + 1 y_51_ ^ 2 - 2 y_75_ * y_51_ + 1 y_75_ ^ 2 ] >= 23928.3
quadratic_ranged_345_lb: [ 1 x_64_ ^ 2 - 2 x_75_ * x_64_ + 1 x_75_ ^ 2 + 1 y_64_ ^ 2 - 2 y_75_ * y_64_ + 1 y_75_ ^ 2 ] >= 21210.75
quadratic_ranged_346_lb: [ 1 x_73_ ^ 2 - 2 x_75_ * x_73_ + 1 x_75_ ^ 2 + 1 y_73_ ^ 2 - 2 y_75_ * y_73_ + 1 y_75_ ^ 2 ] >= 36575.55
quadratic_ranged_347_lb: [ 1 x_74_ ^ 2 - 2 x_75_ * x_74_ + 1 x_75_ ^ 2 + 1 y_74_ ^ 2 - 2 y_75_ * y_74_ + 1 y_75_ ^ 2 ] >= 26307.27
quadratic_ranged_348_lb: [ 1 x_10_ ^ 2 - 2 x_76_ * x_10_ + 1 x_76_ ^ 2 + 1 y_10_ ^ 2 - 2 y_76_ * y_10_ + 1 y_76_ ^ 2 ] >= 30240.54
quadratic_ranged_349_lb: [ 1 x_16_ ^ 2 - 2 x_76_ * x_16_ + 1 x_76_ ^ 2 + 1 y_16_ ^ 2 - 2 y_76_ * y_16_ + 1 y_76_ ^ 2 ] >= 605.88
quadratic_ranged_350_lb: [ 1 x_32_ ^ 2 - 2 x_76_ * x_32_ + 1 x_76_ ^ 2 + 1 y_32_ ^ 2 - 2 y_76_ * y_32_ + 1 y_76_ ^ 2 ] >= 23309.55
quadratic_ranged_351_lb: [ 1 x_33_ ^ 2 - 2 x_76_ * x_33_ + 1 x_76_ ^ 2 + 1 y_33_ ^ 2 - 2 y_76_ * y_33_ + 1 y_76_ ^ 2 ] >= 53923.32
quadratic_ranged_352_lb: [ 1 x_42_ ^ 2 - 2 x_76_ * x_42_ + 1 x_76_ ^ 2 + 1 y_42_ ^ 2 - 2 y_76_ * y_42_ + 1 y_76_ ^ 2 ] >= 1901.79
quadratic_ranged_353_lb: [ 1 x_44_ ^ 2 - 2 x_76_ * x_44_ + 1 x_76_ ^ 2 + 1 y_44_ ^ 2 - 2 y_76_ * y_44_ + 1 y_76_ ^ 2 ] >= 17721.99
quadratic_ranged_354_lb: [ 1 x_45_ ^ 2 - 2 x_76_ * x_45_ + 1 x_76_ ^ 2 + 1 y_45_ ^ 2 - 2 y_76_ * y_45_ + 1 y_76_ ^ 2 ] >= 8776.35
quadratic_ranged_355_lb: [ 1 x_52_ ^ 2 - 2 x_76_ * x_52_ + 1 x_76_ ^ 2 + 1 y_52_ ^ 2 - 2 y_76_ * y_52_ + 1 y_76_ ^ 2 ] >= 4761.9
quadratic_ranged_356_lb: [ 1 x_73_ ^ 2 - 2 x_76_ * x_73_ + 1 x_76_ ^ 2 + 1 y_73_ ^ 2 - 2 y_76_ * y_73_ + 1 y_76_ ^ 2 ] >= 3588.75
quadratic_ranged_357_lb: [ 1 x_75_ ^ 2 - 2 x_76_ * x_75_ + 1 x_76_ ^ 2 + 1 y_75_ ^ 2 - 2 y_76_ * y_75_ + 1 y_76_ ^ 2 ] >= 56558.7
quadratic_ranged_358_lb: [ 1 x_25_ ^ 2 - 2 x_77_ * x_25_ + 1 x_77_ ^ 2 + 1 y_25_ ^ 2 - 2 y_77_ * y_25_ + 1 y_77_ ^ 2 ] >= 9339.66
quadratic_ranged_359_lb: [ 1 x_27_ ^ 2 - 2 x_77_ * x_27_ + 1 x_77_ ^ 2 + 1 y_27_ ^ 2 - 2 y_77_ * y_27_ + 1 y_77_ ^ 2 ] >= 7876.44
quadratic_ranged_360_lb: [ 1 x_29_ ^ 2 - 2 x_77_ * x_29_ + 1 x_77_ ^ 2 + 1 y_29_ ^ 2 - 2 y_77_ * y_29_ + 1 y_77_ ^ 2 ] >= 12942.27
quadratic_ranged_361_lb: [ 1 x_50_ ^ 2 - 2 x_77_ * x_50_ + 1 x_77_ ^ 2 + 1 y_50_ ^ 2 - 2 y_77_ * y_50_ + 1 y_77_ ^ 2 ] >= 2775.96
quadratic_ranged_362_lb: [ 1 x_71_ ^ 2 - 2 x_77_ * x_71_ + 1 x_77_ ^ 2 + 1 y_71_ ^ 2 - 2 y_77_ * y_71_ + 1 y_77_ ^ 2 ] >= 10820.7
quadratic_ranged_363_lb: [ 1 x_76_ ^ 2 - 2 x_77_ * x_76_ + 1 x_77_ ^ 2 + 1 y_76_ ^ 2 - 2 y_77_ * y_76_ + 1 y_77_ ^ 2 ] >= 6007.32
quadratic_ranged_364_lb: [ 1 x_26_ ^ 2 - 2 x_78_ * x_26_ + 1 x_78_ ^ 2 + 1 y_26_ ^ 2 - 2 y_78_ * y_26_ + 1 y_78_ ^ 2 ] >= 7152.75
quadratic_ranged_365_lb: [ 1 x_32_ ^ 2 - 2 x_78_ * x_32_ + 1 x_78_ ^ 2 + 1 y_32_ ^ 2 - 2 y_78_ * y_32_ + 1 y_78_ ^ 2 ] >= 1158.3
quadratic_ranged_366_lb: [ 1 x_51_ ^ 2 - 2 x_78_ * x_51_ + 1 x_78_ ^ 2 + 1 y_51_ ^ 2 - 2 y_78_ * y_51_ + 1 y_78_ ^ 2 ] >= 2757.15
quadratic_ranged_367_lb: [ 1 x_77_ ^ 2 - 2 x_78_ * x_77_ + 1 x_78_ ^ 2 + 1 y_77_ ^ 2 - 2 y_78_ * y_77_ + 1 y_78_ ^ 2 ] >= 19698.03
quadratic_ranged_368_lb: [ 1 x_2_ ^ 2 - 2 x_79_ * x_2_ + 1 x_79_ ^ 2 + 1 y_2_ ^ 2 - 2 y_79_ * y_2_ + 1 y_79_ ^ 2 ] >= 18122.94
quadratic_ranged_369_lb: [ 1 x_5_ ^ 2 - 2 x_79_ * x_5_ + 1 x_79_ ^ 2 + 1 y_5_ ^ 2 - 2 y_79_ * y_5_ + 1 y_79_ ^ 2 ] >= 23859
quadratic_ranged_370_lb: [ 1 x_7_ ^ 2 - 2 x_79_ * x_7_ + 1 x_79_ ^ 2 + 1 y_7_ ^ 2 - 2 y_79_ * y_7_ + 1 y_79_ ^ 2 ] >= 4899.51
quadratic_ranged_371_lb: [ 1 x_10_ ^ 2 - 2 x_79_ * x_10_ + 1 x_79_ ^ 2 + 1 y_10_ ^ 2 - 2 y_79_ * y_10_ + 1 y_79_ ^ 2 ] >= 14105.52
quadratic_ranged_372_lb: [ 1 x_21_ ^ 2 - 2 x_79_ * x_21_ + 1 x_79_ ^ 2 + 1 y_21_ ^ 2 - 2 y_79_ * y_21_ + 1 y_79_ ^ 2 ] >= 30987
quadratic_ranged_373_lb: [ 1 x_25_ ^ 2 - 2 x_79_ * x_25_ + 1 x_79_ ^ 2 + 1 y_25_ ^ 2 - 2 y_79_ * y_25_ + 1 y_79_ ^ 2 ] >= 18097.2
quadratic_ranged_374_lb: [ 1 x_34_ ^ 2 - 2 x_79_ * x_34_ + 1 x_79_ ^ 2 + 1 y_34_ ^ 2 - 2 y_79_ * y_34_ + 1 y_79_ ^ 2 ] >= 14717.34
quadratic_ranged_375_lb: [ 1 x_39_ ^ 2 - 2 x_79_ * x_39_ + 1 x_79_ ^ 2 + 1 y_39_ ^ 2 - 2 y_79_ * y_39_ + 1 y_79_ ^ 2 ] >= 14482.71
quadratic_ranged_376_lb: [ 1 x_54_ ^ 2 - 2 x_79_ * x_54_ + 1 x_79_ ^ 2 + 1 y_54_ ^ 2 - 2 y_79_ * y_54_ + 1 y_79_ ^ 2 ] >= 971.1899999999999
quadratic_ranged_377_lb: [ 1 x_78_ ^ 2 - 2 x_79_ * x_78_ + 1 x_79_ ^ 2 + 1 y_78_ ^ 2 - 2 y_79_ * y_78_ + 1 y_79_ ^ 2 ] >= 32496.75
quadratic_ranged_378_lb: [ 1 x_21_ ^ 2 - 2 x_80_ * x_21_ + 1 x_80_ ^ 2 + 1 y_21_ ^ 2 - 2 y_80_ * y_21_ + 1 y_80_ ^ 2 ] >= 18043.74
quadratic_ranged_379_lb: [ 1 x_36_ ^ 2 - 2 x_80_ * x_36_ + 1 x_80_ ^ 2 + 1 y_36_ ^ 2 - 2 y_80_ * y_36_ + 1 y_80_ ^ 2 ] >= 32350.23
quadratic_ranged_380_lb: [ 1 x_40_ ^ 2 - 2 x_80_ * x_40_ + 1 x_80_ ^ 2 + 1 y_40_ ^ 2 - 2 y_80_ * y_40_ + 1 y_80_ ^ 2 ] >= 14759.91
quadratic_ranged_381_lb: [ 1 x_44_ ^ 2 - 2 x_80_ * x_44_ + 1 x_80_ ^ 2 + 1 y_44_ ^ 2 - 2 y_80_ * y_44_ + 1 y_80_ ^ 2 ] >= 10098.99
quadratic_ranged_382_lb: [ 1 x_54_ ^ 2 - 2 x_80_ * x_54_ + 1 x_80_ ^ 2 + 1 y_54_ ^ 2 - 2 y_80_ * y_54_ + 1 y_80_ ^ 2 ] >= 25598.43
quadratic_ranged_383_lb: [ 1 x_79_ ^ 2 - 2 x_80_ * x_79_ + 1 x_80_ ^ 2 + 1 y_79_ ^ 2 - 2 y_80_ * y_79_ + 1 y_80_ ^ 2 ] >= 16697.34
quadratic_ranged_384_lb: [ 1 x_10_ ^ 2 - 2 x_81_ * x_10_ + 1 x_81_ ^ 2 + 1 y_10_ ^ 2 - 2 y_81_ * y_10_ + 1 y_81_ ^ 2 ] >= 14835.15
quadratic_ranged_385_lb: [ 1 x_35_ ^ 2 - 2 x_81_ * x_35_ + 1 x_81_ ^ 2 + 1 y_35_ ^ 2 - 2 y_81_ * y_35_ + 1 y_81_ ^ 2 ] >= 1007.8199999999999
quadratic_ranged_386_lb: [ 1 x_36_ ^ 2 - 2 x_81_ * x_36_ + 1 x_81_ ^ 2 + 1 y_36_ ^ 2 - 2 y_81_ * y_36_ + 1 y_81_ ^ 2 ] >= 7813.08
quadratic_ranged_387_lb: [ 1 x_38_ ^ 2 - 2 x_81_ * x_38_ + 1 x_81_ ^ 2 + 1 y_38_ ^ 2 - 2 y_81_ * y_38_ + 1 y_81_ ^ 2 ] >= 5221.26
quadratic_ranged_388_lb: [ 1 x_39_ ^ 2 - 2 x_81_ * x_39_ + 1 x_81_ ^ 2 + 1 y_39_ ^ 2 - 2 y_81_ * y_39_ + 1 y_81_ ^ 2 ] >= 580.14
quadratic_ranged_389_lb: [ 1 x_48_ ^ 2 - 2 x_81_ * x_48_ + 1 x_81_ ^ 2 + 1 y_48_ ^ 2 - 2 y_81_ * y_48_ + 1 y_81_ ^ 2 ] >= 3220.47
quadratic_ranged_390_lb: [ 1 x_59_ ^ 2 - 2 x_81_ * x_59_ + 1 x_81_ ^ 2 + 1 y_59_ ^ 2 - 2 y_81_ * y_59_ + 1 y_81_ ^ 2 ] >= 15147
quadratic_ranged_391_lb: [ 1 x_61_ ^ 2 - 2 x_81_ * x_61_ + 1 x_81_ ^ 2 + 1 y_61_ ^ 2 - 2 y_81_ * y_61_ + 1 y_81_ ^ 2 ] >= 8883.27
quadratic_ranged_392_lb: [ 1 x_65_ ^ 2 - 2 x_81_ * x_65_ + 1 x_81_ ^ 2 + 1 y_65_ ^ 2 - 2 y_81_ * y_65_ + 1 y_81_ ^ 2 ] >= 643.5
quadratic_ranged_393_lb: [ 1 x_74_ ^ 2 - 2 x_81_ * x_74_ + 1 x_81_ ^ 2 + 1 y_74_ ^ 2 - 2 y_81_ * y_74_ + 1 y_81_ ^ 2 ] >= 27848.7
quadratic_ranged_394_lb: [ 1 x_80_ ^ 2 - 2 x_81_ * x_80_ + 1 x_81_ ^ 2 + 1 y_80_ ^ 2 - 2 y_81_ * y_80_ + 1 y_81_ ^ 2 ] >= 24069.87
quadratic_ranged_395_lb: [ 1 x_20_ ^ 2 - 2 x_82_ * x_20_ + 1 x_82_ ^ 2 + 1 y_20_ ^ 2 - 2 y_82_ * y_20_ + 1 y_82_ ^ 2 ] >= 11377.08
quadratic_ranged_396_lb: [ 1 x_60_ ^ 2 - 2 x_82_ * x_60_ + 1 x_82_ ^ 2 + 1 y_60_ ^ 2 - 2 y_82_ * y_60_ + 1 y_82_ ^ 2 ] >= 14010.48
quadratic_ranged_397_lb: [ 1 x_61_ ^ 2 - 2 x_82_ * x_61_ + 1 x_82_ ^ 2 + 1 y_61_ ^ 2 - 2 y_82_ * y_61_ + 1 y_82_ ^ 2 ] >= 38377.35
quadratic_ranged_398_lb: [ 1 x_81_ ^ 2 - 2 x_82_ * x_81_ + 1 x_82_ ^ 2 + 1 y_81_ ^ 2 - 2 y_82_ * y_81_ + 1 y_82_ ^ 2 ] >= 12054.24
quadratic_ranged_399_lb: [ 1 x_3_ ^ 2 - 2 x_83_ * x_3_ + 1 x_83_ ^ 2 + 1 y_3_ ^ 2 - 2 y_83_ * y_3_ + 1 y_83_ ^ 2 ] >= 33109.56
quadratic_ranged_400_lb: [ 1 x_6_ ^ 2 - 2 x_83_ * x_6_ + 1 x_83_ ^ 2 + 1 y_6_ ^ 2 - 2 y_83_ * y_6_ + 1 y_83_ ^ 2 ] >= 1248.39
quadratic_ranged_401_lb: [ 1 x_10_ ^ 2 - 2 x_83_ * x_10_ + 1 x_83_ ^ 2 + 1 y_10_ ^ 2 - 2 y_83_ * y_10_ + 1 y_83_ ^ 2 ] >= 7502.22
quadratic_ranged_402_lb: [ 1 x_59_ ^ 2 - 2 x_83_ * x_59_ + 1 x_83_ ^ 2 + 1 y_59_ ^ 2 - 2 y_83_ * y_59_ + 1 y_83_ ^ 2 ] >= 13552.11
quadratic_ranged_403_lb: [ 1 x_60_ ^ 2 - 2 x_83_ * x_60_ + 1 x_83_ ^ 2 + 1 y_60_ ^ 2 - 2 y_83_ * y_60_ + 1 y_83_ ^ 2 ] >= 2555.19
quadratic_ranged_404_lb: [ 1 x_70_ ^ 2 - 2 x_83_ * x_70_ + 1 x_83_ ^ 2 + 1 y_70_ ^ 2 - 2 y_83_ * y_70_ + 1 y_83_ ^ 2 ] >= 7711.11
quadratic_ranged_405_lb: [ 1 x_73_ ^ 2 - 2 x_83_ * x_73_ + 1 x_83_ ^ 2 + 1 y_73_ ^ 2 - 2 y_83_ * y_73_ + 1 y_83_ ^ 2 ] >= 6321.15
quadratic_ranged_406_lb: [ 1 x_75_ ^ 2 - 2 x_83_ * x_75_ + 1 x_83_ ^ 2 + 1 y_75_ ^ 2 - 2 y_83_ * y_75_ + 1 y_83_ ^ 2 ] >= 22225.5
quadratic_ranged_407_lb: [ 1 x_82_ ^ 2 - 2 x_83_ * x_82_ + 1 x_83_ ^ 2 + 1 y_82_ ^ 2 - 2 y_83_ * y_82_ + 1 y_83_ ^ 2 ] >= 27839.79
quadratic_ranged_408_lb: [ 1 x_4_ ^ 2 - 2 x_84_ * x_4_ + 1 x_84_ ^ 2 + 1 y_4_ ^ 2 - 2 y_84_ * y_4_ + 1 y_84_ ^ 2 ] >= 16641.9
quadratic_ranged_409_lb: [ 1 x_9_ ^ 2 - 2 x_84_ * x_9_ + 1 x_84_ ^ 2 + 1 y_9_ ^ 2 - 2 y_84_ * y_9_ + 1 y_84_ ^ 2 ] >= 15504.39
quadratic_ranged_410_lb: [ 1 x_19_ ^ 2 - 2 x_84_ * x_19_ + 1 x_84_ ^ 2 + 1 y_19_ ^ 2 - 2 y_84_ * y_19_ + 1 y_84_ ^ 2 ] >= 2717.55
quadratic_ranged_411_lb: [ 1 x_23_ ^ 2 - 2 x_84_ * x_23_ + 1 x_84_ ^ 2 + 1 y_23_ ^ 2 - 2 y_84_ * y_23_ + 1 y_84_ ^ 2 ] >= 4825.26
quadratic_ranged_412_lb: [ 1 x_30_ ^ 2 - 2 x_84_ * x_30_ + 1 x_84_ ^ 2 + 1 y_30_ ^ 2 - 2 y_84_ * y_30_ + 1 y_84_ ^ 2 ] >= 14637.15
quadratic_ranged_413_lb: [ 1 x_31_ ^ 2 - 2 x_84_ * x_31_ + 1 x_84_ ^ 2 + 1 y_31_ ^ 2 - 2 y_84_ * y_31_ + 1 y_84_ ^ 2 ] >= 13711.5
quadratic_ranged_414_lb: [ 1 x_37_ ^ 2 - 2 x_84_ * x_37_ + 1 x_84_ ^ 2 + 1 y_37_ ^ 2 - 2 y_84_ * y_37_ + 1 y_84_ ^ 2 ] >= 1398.87
quadratic_ranged_415_lb: [ 1 x_40_ ^ 2 - 2 x_84_ * x_40_ + 1 x_84_ ^ 2 + 1 y_40_ ^ 2 - 2 y_84_ * y_40_ + 1 y_84_ ^ 2 ] >= 12246.3
quadratic_ranged_416_lb: [ 1 x_45_ ^ 2 - 2 x_84_ * x_45_ + 1 x_84_ ^ 2 + 1 y_45_ ^ 2 - 2 y_84_ * y_45_ + 1 y_84_ ^ 2 ] >= 2932.38
quadratic_ranged_417_lb: [ 1 x_50_ ^ 2 - 2 x_84_ * x_50_ + 1 x_84_ ^ 2 + 1 y_50_ ^ 2 - 2 y_84_ * y_50_ + 1 y_84_ ^ 2 ] >= 2749.23
quadratic_ranged_418_lb: [ 1 x_68_ ^ 2 - 2 x_84_ * x_68_ + 1 x_84_ ^ 2 + 1 y_68_ ^ 2 - 2 y_84_ * y_68_ + 1 y_84_ ^ 2 ] >= 7841.79
quadratic_ranged_419_lb: [ 1 x_83_ ^ 2 - 2 x_84_ * x_83_ + 1 x_84_ ^ 2 + 1 y_83_ ^ 2 - 2 y_84_ * y_83_ + 1 y_84_ ^ 2 ] >= 11572.11
quadratic_ranged_420_lb: [ 1 x_3_ ^ 2 - 2 x_85_ * x_3_ + 1 x_85_ ^ 2 + 1 y_3_ ^ 2 - 2 y_85_ * y_3_ + 1 y_85_ ^ 2 ] >= 14957.91
quadratic_ranged_421_lb: [ 1 x_26_ ^ 2 - 2 x_85_ * x_26_ + 1 x_85_ ^ 2 + 1 y_26_ ^ 2 - 2 y_85_ * y_26_ + 1 y_85_ ^ 2 ] >= 1782.99
quadratic_ranged_422_lb: [ 1 x_29_ ^ 2 - 2 x_85_ * x_29_ + 1 x_85_ ^ 2 + 1 y_29_ ^ 2 - 2 y_85_ * y_29_ + 1 y_85_ ^ 2 ] >= 2861.1
quadratic_ranged_423_lb: [ 1 x_39_ ^ 2 - 2 x_85_ * x_39_ + 1 x_85_ ^ 2 + 1 y_39_ ^ 2 - 2 y_85_ * y_39_ + 1 y_85_ ^ 2 ] >= 4167.9
quadratic_ranged_424_lb: [ 1 x_40_ ^ 2 - 2 x_85_ * x_40_ + 1 x_85_ ^ 2 + 1 y_40_ ^ 2 - 2 y_85_ * y_40_ + 1 y_85_ ^ 2 ] >= 4581.72
quadratic_ranged_425_lb: [ 1 x_44_ ^ 2 - 2 x_85_ * x_44_ + 1 x_85_ ^ 2 + 1 y_44_ ^ 2 - 2 y_85_ * y_44_ + 1 y_85_ ^ 2 ] >= 1673.1
quadratic_ranged_426_lb: [ 1 x_66_ ^ 2 - 2 x_85_ * x_66_ + 1 x_85_ ^ 2 + 1 y_66_ ^ 2 - 2 y_85_ * y_66_ + 1 y_85_ ^ 2 ] >= 3410.55
quadratic_ranged_427_lb: [ 1 x_71_ ^ 2 - 2 x_85_ * x_71_ + 1 x_85_ ^ 2 + 1 y_71_ ^ 2 - 2 y_85_ * y_71_ + 1 y_85_ ^ 2 ] >= 1002.87
quadratic_ranged_428_lb: [ 1 x_77_ ^ 2 - 2 x_85_ * x_77_ + 1 x_85_ ^ 2 + 1 y_77_ ^ 2 - 2 y_85_ * y_77_ + 1 y_85_ ^ 2 ] >= 5822.19
quadratic_ranged_429_lb: [ 1 x_82_ ^ 2 - 2 x_85_ * x_82_ + 1 x_85_ ^ 2 + 1 y_82_ ^ 2 - 2 y_85_ * y_82_ + 1 y_85_ ^ 2 ] >= 16746.84
quadratic_ranged_430_lb: [ 1 x_83_ ^ 2 - 2 x_85_ * x_83_ + 1 x_85_ ^ 2 + 1 y_83_ ^ 2 - 2 y_85_ * y_83_ + 1 y_85_ ^ 2 ] >= 4182.75
quadratic_ranged_431_lb: [ 1 x_84_ ^ 2 - 2 x_85_ * x_84_ + 1 x_85_ ^ 2 + 1 y_84_ ^ 2 - 2 y_85_ * y_84_ + 1 y_85_ ^ 2 ] >= 9814.86
quadratic_ranged_432_lb: [ 1 x_4_ ^ 2 - 2 x_86_ * x_4_ + 1 x_86_ ^ 2 + 1 y_4_ ^ 2 - 2 y_86_ * y_4_ + 1 y_86_ ^ 2 ] >= 40095
quadratic_ranged_433_lb: [ 1 x_6_ ^ 2 - 2 x_86_ * x_6_ + 1 x_86_ ^ 2 + 1 y_6_ ^ 2 - 2 y_86_ * y_6_ + 1 y_86_ ^ 2 ] >= 2475
quadratic_ranged_434_lb: [ 1 x_14_ ^ 2 - 2 x_86_ * x_14_ + 1 x_86_ ^ 2 + 1 y_14_ ^ 2 - 2 y_86_ * y_14_ + 1 y_86_ ^ 2 ] >= 25035.12
quadratic_ranged_435_lb: [ 1 x_30_ ^ 2 - 2 x_86_ * x_30_ + 1 x_86_ ^ 2 + 1 y_30_ ^ 2 - 2 y_86_ * y_30_ + 1 y_86_ ^ 2 ] >= 42380.909999999996
quadratic_ranged_436_lb: [ 1 x_44_ ^ 2 - 2 x_86_ * x_44_ + 1 x_86_ ^ 2 + 1 y_44_ ^ 2 - 2 y_86_ * y_44_ + 1 y_86_ ^ 2 ] >= 4492.62
quadratic_ranged_437_lb: [ 1 x_68_ ^ 2 - 2 x_86_ * x_68_ + 1 x_86_ ^ 2 + 1 y_68_ ^ 2 - 2 y_86_ * y_68_ + 1 y_86_ ^ 2 ] >= 29906.91
quadratic_ranged_438_lb: [ 1 x_71_ ^ 2 - 2 x_86_ * x_71_ + 1 x_86_ ^ 2 + 1 y_71_ ^ 2 - 2 y_86_ * y_71_ + 1 y_86_ ^ 2 ] >= 16478.55
quadratic_ranged_439_lb: [ 1 x_75_ ^ 2 - 2 x_86_ * x_75_ + 1 x_86_ ^ 2 + 1 y_75_ ^ 2 - 2 y_86_ * y_75_ + 1 y_86_ ^ 2 ] >= 38020.95
quadratic_ranged_440_lb: [ 1 x_78_ ^ 2 - 2 x_86_ * x_78_ + 1 x_86_ ^ 2 + 1 y_78_ ^ 2 - 2 y_86_ * y_78_ + 1 y_86_ ^ 2 ] >= 6229.08
quadratic_ranged_441_lb: [ 1 x_81_ ^ 2 - 2 x_86_ * x_81_ + 1 x_86_ ^ 2 + 1 y_81_ ^ 2 - 2 y_86_ * y_81_ + 1 y_86_ ^ 2 ] >= 5995.44
quadratic_ranged_442_lb: [ 1 x_85_ ^ 2 - 2 x_86_ * x_85_ + 1 x_86_ ^ 2 + 1 y_85_ ^ 2 - 2 y_86_ * y_85_ + 1 y_86_ ^ 2 ] >= 11519.64
quadratic_ranged_443_lb: [ 1 x_7_ ^ 2 - 2 x_87_ * x_7_ + 1 x_87_ ^ 2 + 1 y_7_ ^ 2 - 2 y_87_ * y_7_ + 1 y_87_ ^ 2 ] >= 780.12
quadratic_ranged_444_lb: [ 1 x_19_ ^ 2 - 2 x_87_ * x_19_ + 1 x_87_ ^ 2 + 1 y_19_ ^ 2 - 2 y_87_ * y_19_ + 1 y_87_ ^ 2 ] >= 9794.07
quadratic_ranged_445_lb: [ 1 x_24_ ^ 2 - 2 x_87_ * x_24_ + 1 x_87_ ^ 2 + 1 y_24_ ^ 2 - 2 y_87_ * y_24_ + 1 y_87_ ^ 2 ] >= 8103.15
quadratic_ranged_446_lb: [ 1 x_35_ ^ 2 - 2 x_87_ * x_35_ + 1 x_87_ ^ 2 + 1 y_35_ ^ 2 - 2 y_87_ * y_35_ + 1 y_87_ ^ 2 ] >= 12713.58
quadratic_ranged_447_lb: [ 1 x_47_ ^ 2 - 2 x_87_ * x_47_ + 1 x_87_ ^ 2 + 1 y_47_ ^ 2 - 2 y_87_ * y_47_ + 1 y_87_ ^ 2 ] >= 10265.31
quadratic_ranged_448_lb: [ 1 x_58_ ^ 2 - 2 x_87_ * x_58_ + 1 x_87_ ^ 2 + 1 y_58_ ^ 2 - 2 y_87_ * y_58_ + 1 y_87_ ^ 2 ] >= 27325.98
quadratic_ranged_449_lb: [ 1 x_86_ ^ 2 - 2 x_87_ * x_86_ + 1 x_87_ ^ 2 + 1 y_86_ ^ 2 - 2 y_87_ * y_86_ + 1 y_87_ ^ 2 ] >= 30765.239999999998
quadratic_ranged_450_lb: [ 1 x_14_ ^ 2 - 2 x_88_ * x_14_ + 1 x_88_ ^ 2 + 1 y_14_ ^ 2 - 2 y_88_ * y_14_ + 1 y_88_ ^ 2 ] >= 7168.59
quadratic_ranged_451_lb: [ 1 x_21_ ^ 2 - 2 x_88_ * x_21_ + 1 x_88_ ^ 2 + 1 y_21_ ^ 2 - 2 y_88_ * y_21_ + 1 y_88_ ^ 2 ] >= 8143.74
quadratic_ranged_452_lb: [ 1 x_22_ ^ 2 - 2 x_88_ * x_22_ + 1 x_88_ ^ 2 + 1 y_22_ ^ 2 - 2 y_88_ * y_22_ + 1 y_88_ ^ 2 ] >= 9371.34
quadratic_ranged_453_lb: [ 1 x_37_ ^ 2 - 2 x_88_ * x_37_ + 1 x_88_ ^ 2 + 1 y_37_ ^ 2 - 2 y_88_ * y_37_ + 1 y_88_ ^ 2 ] >= 14978.7
quadratic_ranged_454_lb: [ 1 x_53_ ^ 2 - 2 x_88_ * x_53_ + 1 x_88_ ^ 2 + 1 y_53_ ^ 2 - 2 y_88_ * y_53_ + 1 y_88_ ^ 2 ] >= 19176.3
quadratic_ranged_455_lb: [ 1 x_55_ ^ 2 - 2 x_88_ * x_55_ + 1 x_88_ ^ 2 + 1 y_55_ ^ 2 - 2 y_88_ * y_55_ + 1 y_88_ ^ 2 ] >= 2760.12
quadratic_ranged_456_lb: [ 1 x_69_ ^ 2 - 2 x_88_ * x_69_ + 1 x_88_ ^ 2 + 1 y_69_ ^ 2 - 2 y_88_ * y_69_ + 1 y_88_ ^ 2 ] >= 18067.5
quadratic_ranged_457_lb: [ 1 x_87_ ^ 2 - 2 x_88_ * x_87_ + 1 x_88_ ^ 2 + 1 y_87_ ^ 2 - 2 y_88_ * y_87_ + 1 y_88_ ^ 2 ] >= 4242.15
quadratic_ranged_458_lb: [ 1 x_14_ ^ 2 - 2 x_89_ * x_14_ + 1 x_89_ ^ 2 + 1 y_14_ ^ 2 - 2 y_89_ * y_14_ + 1 y_89_ ^ 2 ] >= 643.5
quadratic_ranged_459_lb: [ 1 x_39_ ^ 2 - 2 x_89_ * x_39_ + 1 x_89_ ^ 2 + 1 y_39_ ^ 2 - 2 y_89_ * y_39_ + 1 y_89_ ^ 2 ] >= 11741.4
quadratic_ranged_460_lb: [ 1 x_42_ ^ 2 - 2 x_89_ * x_42_ + 1 x_89_ ^ 2 + 1 y_42_ ^ 2 - 2 y_89_ * y_42_ + 1 y_89_ ^ 2 ] >= 5070.78
quadratic_ranged_461_lb: [ 1 x_44_ ^ 2 - 2 x_89_ * x_44_ + 1 x_89_ ^ 2 + 1 y_44_ ^ 2 - 2 y_89_ * y_44_ + 1 y_89_ ^ 2 ] >= 17820
quadratic_ranged_462_lb: [ 1 x_53_ ^ 2 - 2 x_89_ * x_53_ + 1 x_89_ ^ 2 + 1 y_53_ ^ 2 - 2 y_89_ * y_53_ + 1 y_89_ ^ 2 ] >= 4863.87
quadratic_ranged_463_lb: [ 1 x_58_ ^ 2 - 2 x_89_ * x_58_ + 1 x_89_ ^ 2 + 1 y_58_ ^ 2 - 2 y_89_ * y_58_ + 1 y_89_ ^ 2 ] >= 31652.28
quadratic_ranged_464_lb: [ 1 x_62_ ^ 2 - 2 x_89_ * x_62_ + 1 x_89_ ^ 2 + 1 y_62_ ^ 2 - 2 y_89_ * y_62_ + 1 y_89_ ^ 2 ] >= 4479.75
quadratic_ranged_465_lb: [ 1 x_79_ ^ 2 - 2 x_89_ * x_79_ + 1 x_89_ ^ 2 + 1 y_79_ ^ 2 - 2 y_89_ * y_79_ + 1 y_89_ ^ 2 ] >= 690.03
quadratic_ranged_466_lb: [ 1 x_88_ ^ 2 - 2 x_89_ * x_88_ + 1 x_89_ ^ 2 + 1 y_88_ ^ 2 - 2 y_89_ * y_88_ + 1 y_89_ ^ 2 ] >= 8455.59
quadratic_ranged_467_lb: [ 1 x_7_ ^ 2 - 2 x_90_ * x_7_ + 1 x_90_ ^ 2 + 1 y_7_ ^ 2 - 2 y_90_ * y_7_ + 1 y_90_ ^ 2 ] >= 987.03
quadratic_ranged_468_lb: [ 1 x_17_ ^ 2 - 2 x_90_ * x_17_ + 1 x_90_ ^ 2 + 1 y_17_ ^ 2 - 2 y_90_ * y_17_ + 1 y_90_ ^ 2 ] >= 10272.24
quadratic_ranged_469_lb: [ 1 x_19_ ^ 2 - 2 x_90_ * x_19_ + 1 x_90_ ^ 2 + 1 y_19_ ^ 2 - 2 y_90_ * y_19_ + 1 y_90_ ^ 2 ] >= 4197.6
quadratic_ranged_470_lb: [ 1 x_27_ ^ 2 - 2 x_90_ * x_27_ + 1 x_90_ ^ 2 + 1 y_27_ ^ 2 - 2 y_90_ * y_27_ + 1 y_90_ ^ 2 ] >= 857.34
quadratic_ranged_471_lb: [ 1 x_30_ ^ 2 - 2 x_90_ * x_30_ + 1 x_90_ ^ 2 + 1 y_30_ ^ 2 - 2 y_90_ * y_30_ + 1 y_90_ ^ 2 ] >= 7573.5
quadratic_ranged_472_lb: [ 1 x_37_ ^ 2 - 2 x_90_ * x_37_ + 1 x_90_ ^ 2 + 1 y_37_ ^ 2 - 2 y_90_ * y_37_ + 1 y_90_ ^ 2 ] >= 17871.48
quadratic_ranged_473_lb: [ 1 x_49_ ^ 2 - 2 x_90_ * x_49_ + 1 x_90_ ^ 2 + 1 y_49_ ^ 2 - 2 y_90_ * y_49_ + 1 y_90_ ^ 2 ] >= 7461.63
quadratic_ranged_474_lb: [ 1 x_68_ ^ 2 - 2 x_90_ * x_68_ + 1 x_90_ ^ 2 + 1 y_68_ ^ 2 - 2 y_90_ * y_68_ + 1 y_90_ ^ 2 ] >= 4096.62
quadratic_ranged_475_lb: [ 1 x_76_ ^ 2 - 2 x_90_ * x_76_ + 1 x_90_ ^ 2 + 1 y_76_ ^ 2 - 2 y_90_ * y_76_ + 1 y_90_ ^ 2 ] >= 19477.26
quadratic_ranged_476_lb: [ 1 x_86_ ^ 2 - 2 x_90_ * x_86_ + 1 x_90_ ^ 2 + 1 y_86_ ^ 2 - 2 y_90_ * y_86_ + 1 y_90_ ^ 2 ] >= 17551.71
quadratic_ranged_477_lb: [ 1 x_89_ ^ 2 - 2 x_90_ * x_89_ + 1 x_90_ ^ 2 + 1 y_89_ ^ 2 - 2 y_90_ * y_89_ + 1 y_90_ ^ 2 ] >= 7493.3099999999995
quadratic_ranged_478_lb: [ 1 x_7_ ^ 2 - 2 x_91_ * x_7_ + 1 x_91_ ^ 2 + 1 y_7_ ^ 2 - 2 y_91_ * y_7_ + 1 y_91_ ^ 2 ] >= 13833.27
quadratic_ranged_479_lb: [ 1 x_12_ ^ 2 - 2 x_91_ * x_12_ + 1 x_91_ ^ 2 + 1 y_12_ ^ 2 - 2 y_91_ * y_12_ + 1 y_91_ ^ 2 ] >= 3457.08
quadratic_ranged_480_lb: [ 1 x_15_ ^ 2 - 2 x_91_ * x_15_ + 1 x_91_ ^ 2 + 1 y_15_ ^ 2 - 2 y_91_ * y_15_ + 1 y_91_ ^ 2 ] >= 10791
quadratic_ranged_481_lb: [ 1 x_25_ ^ 2 - 2 x_91_ * x_25_ + 1 x_91_ ^ 2 + 1 y_25_ ^ 2 - 2 y_91_ * y_25_ + 1 y_91_ ^ 2 ] >= 22795.74
quadratic_ranged_482_lb: [ 1 x_26_ ^ 2 - 2 x_91_ * x_26_ + 1 x_91_ ^ 2 + 1 y_26_ ^ 2 - 2 y_91_ * y_26_ + 1 y_91_ ^ 2 ] >= 24839.1
quadratic_ranged_483_lb: [ 1 x_31_ ^ 2 - 2 x_91_ * x_31_ + 1 x_91_ ^ 2 + 1 y_31_ ^ 2 - 2 y_91_ * y_31_ + 1 y_91_ ^ 2 ] >= 26232.03
quadratic_ranged_484_lb: [ 1 x_32_ ^ 2 - 2 x_91_ * x_32_ + 1 x_91_ ^ 2 + 1 y_32_ ^ 2 - 2 y_91_ * y_32_ + 1 y_91_ ^ 2 ] >= 25962.75
quadratic_ranged_485_lb: [ 1 x_36_ ^ 2 - 2 x_91_ * x_36_ + 1 x_91_ ^ 2 + 1 y_36_ ^ 2 - 2 y_91_ * y_36_ + 1 y_91_ ^ 2 ] >= 404.90999999999997
quadratic_ranged_486_lb: [ 1 x_43_ ^ 2 - 2 x_91_ * x_43_ + 1 x_91_ ^ 2 + 1 y_43_ ^ 2 - 2 y_91_ * y_43_ + 1 y_91_ ^ 2 ] >= 40316.76
quadratic_ranged_487_lb: [ 1 x_47_ ^ 2 - 2 x_91_ * x_47_ + 1 x_91_ ^ 2 + 1 y_47_ ^ 2 - 2 y_91_ * y_47_ + 1 y_91_ ^ 2 ] >= 23793.66
quadratic_ranged_488_lb: [ 1 x_55_ ^ 2 - 2 x_91_ * x_55_ + 1 x_91_ ^ 2 + 1 y_55_ ^ 2 - 2 y_91_ * y_55_ + 1 y_91_ ^ 2 ] >= 24148.079999999998
quadratic_ranged_489_lb: [ 1 x_59_ ^ 2 - 2 x_91_ * x_59_ + 1 x_91_ ^ 2 + 1 y_59_ ^ 2 - 2 y_91_ * y_59_ + 1 y_91_ ^ 2 ] >= 14649.03
quadratic_ranged_490_lb: [ 1 x_63_ ^ 2 - 2 x_91_ * x_63_ + 1 x_91_ ^ 2 + 1 y_63_ ^ 2 - 2 y_91_ * y_63_ + 1 y_91_ ^ 2 ] >= 16090.47
quadratic_ranged_491_lb: [ 1 x_81_ ^ 2 - 2 x_91_ * x_81_ + 1 x_91_ ^ 2 + 1 y_81_ ^ 2 - 2 y_91_ * y_81_ + 1 y_91_ ^ 2 ] >= 10491.03
quadratic_ranged_492_lb: [ 1 x_82_ ^ 2 - 2 x_91_ * x_82_ + 1 x_91_ ^ 2 + 1 y_82_ ^ 2 - 2 y_91_ * y_82_ + 1 y_91_ ^ 2 ] >= 99.99
quadratic_ranged_493_lb: [ 1 x_90_ ^ 2 - 2 x_91_ * x_90_ + 1 x_91_ ^ 2 + 1 y_90_ ^ 2 - 2 y_91_ * y_90_ + 1 y_91_ ^ 2 ] >= 12483.9
quadratic_ranged_494_lb: [ 1 x_50_ ^ 2 - 2 x_92_ * x_50_ + 1 x_92_ ^ 2 + 1 y_50_ ^ 2 - 2 y_92_ * y_50_ + 1 y_92_ ^ 2 ] >= 7385.4
quadratic_ranged_495_lb: [ 1 x_73_ ^ 2 - 2 x_92_ * x_73_ + 1 x_92_ ^ 2 + 1 y_73_ ^ 2 - 2 y_92_ * y_73_ + 1 y_92_ ^ 2 ] >= 543.51
quadratic_ranged_496_lb: [ 1 x_78_ ^ 2 - 2 x_92_ * x_78_ + 1 x_92_ ^ 2 + 1 y_78_ ^ 2 - 2 y_92_ * y_78_ + 1 y_92_ ^ 2 ] >= 19987.11
quadratic_ranged_497_lb: [ 1 x_88_ ^ 2 - 2 x_92_ * x_88_ + 1 x_92_ ^ 2 + 1 y_88_ ^ 2 - 2 y_92_ * y_88_ + 1 y_92_ ^ 2 ] >= 10695.96
quadratic_ranged_498_lb: [ 1 x_90_ ^ 2 - 2 x_92_ * x_90_ + 1 x_92_ ^ 2 + 1 y_90_ ^ 2 - 2 y_92_ * y_90_ + 1 y_92_ ^ 2 ] >= 14574.78
quadratic_ranged_499_lb: [ 1 x_91_ ^ 2 - 2 x_92_ * x_91_ + 1 x_92_ ^ 2 + 1 y_91_ ^ 2 - 2 y_92_ * y_91_ + 1 y_92_ ^ 2 ] >= 10549.44
quadratic_ranged_500_lb: [ 1 x_2_ ^ 2 - 2 x_93_ * x_2_ + 1 x_93_ ^ 2 + 1 y_2_ ^ 2 - 2 y_93_ * y_2_ + 1 y_93_ ^ 2 ] >= 17887.32
quadratic_ranged_501_lb: [ 1 x_24_ ^ 2 - 2 x_93_ * x_24_ + 1 x_93_ ^ 2 + 1 y_24_ ^ 2 - 2 y_93_ * y_24_ + 1 y_93_ ^ 2 ] >= 5799.42
quadratic_ranged_502_lb: [ 1 x_26_ ^ 2 - 2 x_93_ * x_26_ + 1 x_93_ ^ 2 + 1 y_26_ ^ 2 - 2 y_93_ * y_26_ + 1 y_93_ ^ 2 ] >= 1245.42
quadratic_ranged_503_lb: [ 1 x_30_ ^ 2 - 2 x_93_ * x_30_ + 1 x_93_ ^ 2 + 1 y_30_ ^ 2 - 2 y_93_ * y_30_ + 1 y_93_ ^ 2 ] >= 15178.68
quadratic_ranged_504_lb: [ 1 x_41_ ^ 2 - 2 x_93_ * x_41_ + 1 x_93_ ^ 2 + 1 y_41_ ^ 2 - 2 y_93_ * y_41_ + 1 y_93_ ^ 2 ] >= 18664.47
quadratic_ranged_505_lb: [ 1 x_71_ ^ 2 - 2 x_93_ * x_71_ + 1 x_93_ ^ 2 + 1 y_71_ ^ 2 - 2 y_93_ * y_71_ + 1 y_93_ ^ 2 ] >= 556.38
quadratic_ranged_506_lb: [ 1 x_74_ ^ 2 - 2 x_93_ * x_74_ + 1 x_93_ ^ 2 + 1 y_74_ ^ 2 - 2 y_93_ * y_74_ + 1 y_93_ ^ 2 ] >= 21076.11
quadratic_ranged_507_lb: [ 1 x_92_ ^ 2 - 2 x_93_ * x_92_ + 1 x_93_ ^ 2 + 1 y_92_ ^ 2 - 2 y_93_ * y_92_ + 1 y_93_ ^ 2 ] >= 14715.36
quadratic_ranged_508_lb: [ 1 x_9_ ^ 2 - 2 x_94_ * x_9_ + 1 x_94_ ^ 2 + 1 y_9_ ^ 2 - 2 y_94_ * y_9_ + 1 y_94_ ^ 2 ] >= 20633.579999999998
quadratic_ranged_509_lb: [ 1 x_15_ ^ 2 - 2 x_94_ * x_15_ + 1 x_94_ ^ 2 + 1 y_15_ ^ 2 - 2 y_94_ * y_15_ + 1 y_94_ ^ 2 ] >= 17940.78
quadratic_ranged_510_lb: [ 1 x_23_ ^ 2 - 2 x_94_ * x_23_ + 1 x_94_ ^ 2 + 1 y_23_ ^ 2 - 2 y_94_ * y_23_ + 1 y_94_ ^ 2 ] >= 9101.07
quadratic_ranged_511_lb: [ 1 x_30_ ^ 2 - 2 x_94_ * x_30_ + 1 x_94_ ^ 2 + 1 y_30_ ^ 2 - 2 y_94_ * y_30_ + 1 y_94_ ^ 2 ] >= 19200.06
quadratic_ranged_512_lb: [ 1 x_35_ ^ 2 - 2 x_94_ * x_35_ + 1 x_94_ ^ 2 + 1 y_35_ ^ 2 - 2 y_94_ * y_35_ + 1 y_94_ ^ 2 ] >= 9568.35
quadratic_ranged_513_lb: [ 1 x_44_ ^ 2 - 2 x_94_ * x_44_ + 1 x_94_ ^ 2 + 1 y_44_ ^ 2 - 2 y_94_ * y_44_ + 1 y_94_ ^ 2 ] >= 18525.87
quadratic_ranged_514_lb: [ 1 x_54_ ^ 2 - 2 x_94_ * x_54_ + 1 x_94_ ^ 2 + 1 y_54_ ^ 2 - 2 y_94_ * y_54_ + 1 y_94_ ^ 2 ] >= 11370.15
quadratic_ranged_515_lb: [ 1 x_60_ ^ 2 - 2 x_94_ * x_60_ + 1 x_94_ ^ 2 + 1 y_60_ ^ 2 - 2 y_94_ * y_60_ + 1 y_94_ ^ 2 ] >= 12372.03
quadratic_ranged_516_lb: [ 1 x_70_ ^ 2 - 2 x_94_ * x_70_ + 1 x_94_ ^ 2 + 1 y_70_ ^ 2 - 2 y_94_ * y_70_ + 1 y_94_ ^ 2 ] >= 21840.39
quadratic_ranged_517_lb: [ 1 x_82_ ^ 2 - 2 x_94_ * x_82_ + 1 x_94_ ^ 2 + 1 y_82_ ^ 2 - 2 y_94_ * y_82_ + 1 y_94_ ^ 2 ] >= 5667.75
quadratic_ranged_518_lb: [ 1 x_92_ ^ 2 - 2 x_94_ * x_92_ + 1 x_94_ ^ 2 + 1 y_92_ ^ 2 - 2 y_94_ * y_92_ + 1 y_94_ ^ 2 ] >= 2932.38
quadratic_ranged_519_lb: [ 1 x_93_ ^ 2 - 2 x_94_ * x_93_ + 1 x_94_ ^ 2 + 1 y_93_ ^ 2 - 2 y_94_ * y_93_ + 1 y_94_ ^ 2 ] >= 22265.1
quadratic_ranged_520_lb: [ 1 x_8_ ^ 2 - 2 x_95_ * x_8_ + 1 x_95_ ^ 2 + 1 y_8_ ^ 2 - 2 y_95_ * y_8_ + 1 y_95_ ^ 2 ] >= 4210.47
quadratic_ranged_521_lb: [ 1 x_9_ ^ 2 - 2 x_95_ * x_9_ + 1 x_95_ ^ 2 + 1 y_9_ ^ 2 - 2 y_95_ * y_9_ + 1 y_95_ ^ 2 ] >= 42803.64
quadratic_ranged_522_lb: [ 1 x_13_ ^ 2 - 2 x_95_ * x_13_ + 1 x_95_ ^ 2 + 1 y_13_ ^ 2 - 2 y_95_ * y_13_ + 1 y_95_ ^ 2 ] >= 23981.76
quadratic_ranged_523_lb: [ 1 x_16_ ^ 2 - 2 x_95_ * x_16_ + 1 x_95_ ^ 2 + 1 y_16_ ^ 2 - 2 y_95_ * y_16_ + 1 y_95_ ^ 2 ] >= 30749.4
quadratic_ranged_524_lb: [ 1 x_17_ ^ 2 - 2 x_95_ * x_17_ + 1 x_95_ ^ 2 + 1 y_17_ ^ 2 - 2 y_95_ * y_17_ + 1 y_95_ ^ 2 ] >= 746.46
quadratic_ranged_525_lb: [ 1 x_34_ ^ 2 - 2 x_95_ * x_34_ + 1 x_95_ ^ 2 + 1 y_34_ ^ 2 - 2 y_95_ * y_34_ + 1 y_95_ ^ 2 ] >= 12870
quadratic_ranged_526_lb: [ 1 x_38_ ^ 2 - 2 x_95_ * x_38_ + 1 x_95_ ^ 2 + 1 y_38_ ^ 2 - 2 y_95_ * y_38_ + 1 y_95_ ^ 2 ] >= 7746.75
quadratic_ranged_527_lb: [ 1 x_39_ ^ 2 - 2 x_95_ * x_39_ + 1 x_95_ ^ 2 + 1 y_39_ ^ 2 - 2 y_95_ * y_39_ + 1 y_95_ ^ 2 ] >= 7845.75
quadratic_ranged_528_lb: [ 1 x_44_ ^ 2 - 2 x_95_ * x_44_ + 1 x_95_ ^ 2 + 1 y_44_ ^ 2 - 2 y_95_ * y_44_ + 1 y_95_ ^ 2 ] >= 3410.55
quadratic_ranged_529_lb: [ 1 x_52_ ^ 2 - 2 x_95_ * x_52_ + 1 x_95_ ^ 2 + 1 y_52_ ^ 2 - 2 y_95_ * y_52_ + 1 y_95_ ^ 2 ] >= 22573.98
quadratic_ranged_530_lb: [ 1 x_59_ ^ 2 - 2 x_95_ * x_59_ + 1 x_95_ ^ 2 + 1 y_59_ ^ 2 - 2 y_95_ * y_59_ + 1 y_95_ ^ 2 ] >= 21788.91
quadratic_ranged_531_lb: [ 1 x_81_ ^ 2 - 2 x_95_ * x_81_ + 1 x_95_ ^ 2 + 1 y_81_ ^ 2 - 2 y_95_ * y_81_ + 1 y_95_ ^ 2 ] >= 10978.11
quadratic_ranged_532_lb: [ 1 x_94_ ^ 2 - 2 x_95_ * x_94_ + 1 x_95_ ^ 2 + 1 y_94_ ^ 2 - 2 y_95_ * y_94_ + 1 y_95_ ^ 2 ] >= 30398.94
quadratic_ranged_533_lb: [ 1 x_9_ ^ 2 - 2 x_96_ * x_9_ + 1 x_96_ ^ 2 + 1 y_9_ ^ 2 - 2 y_96_ * y_9_ + 1 y_96_ ^ 2 ] >= 13561.02
quadratic_ranged_534_lb: [ 1 x_12_ ^ 2 - 2 x_96_ * x_12_ + 1 x_96_ ^ 2 + 1 y_12_ ^ 2 - 2 y_96_ * y_12_ + 1 y_96_ ^ 2 ] >= 524.7
quadratic_ranged_535_lb: [ 1 x_13_ ^ 2 - 2 x_96_ * x_13_ + 1 x_96_ ^ 2 + 1 y_13_ ^ 2 - 2 y_96_ * y_13_ + 1 y_96_ ^ 2 ] >= 1213.74
quadratic_ranged_536_lb: [ 1 x_16_ ^ 2 - 2 x_96_ * x_16_ + 1 x_96_ ^ 2 + 1 y_16_ ^ 2 - 2 y_96_ * y_16_ + 1 y_96_ ^ 2 ] >= 4761.9
quadratic_ranged_537_lb: [ 1 x_17_ ^ 2 - 2 x_96_ * x_17_ + 1 x_96_ ^ 2 + 1 y_17_ ^ 2 - 2 y_96_ * y_17_ + 1 y_96_ ^ 2 ] >= 18346.68
quadratic_ranged_538_lb: [ 1 x_33_ ^ 2 - 2 x_96_ * x_33_ + 1 x_96_ ^ 2 + 1 y_33_ ^ 2 - 2 y_96_ * y_33_ + 1 y_96_ ^ 2 ] >= 35150.94
quadratic_ranged_539_lb: [ 1 x_58_ ^ 2 - 2 x_96_ * x_58_ + 1 x_96_ ^ 2 + 1 y_58_ ^ 2 - 2 y_96_ * y_58_ + 1 y_96_ ^ 2 ] >= 16407.27
quadratic_ranged_540_lb: [ 1 x_61_ ^ 2 - 2 x_96_ * x_61_ + 1 x_96_ ^ 2 + 1 y_61_ ^ 2 - 2 y_96_ * y_61_ + 1 y_96_ ^ 2 ] >= 18305.1
quadratic_ranged_541_lb: [ 1 x_65_ ^ 2 - 2 x_96_ * x_65_ + 1 x_96_ ^ 2 + 1 y_65_ ^ 2 - 2 y_96_ * y_65_ + 1 y_96_ ^ 2 ] >= 2899.71
quadratic_ranged_542_lb: [ 1 x_66_ ^ 2 - 2 x_96_ * x_66_ + 1 x_96_ ^ 2 + 1 y_66_ ^ 2 - 2 y_96_ * y_66_ + 1 y_96_ ^ 2 ] >= 16255.8
quadratic_ranged_543_lb: [ 1 x_67_ ^ 2 - 2 x_96_ * x_67_ + 1 x_96_ ^ 2 + 1 y_67_ ^ 2 - 2 y_96_ * y_67_ + 1 y_96_ ^ 2 ] >= 29930.67
quadratic_ranged_544_lb: [ 1 x_68_ ^ 2 - 2 x_96_ * x_68_ + 1 x_96_ ^ 2 + 1 y_68_ ^ 2 - 2 y_96_ * y_68_ + 1 y_96_ ^ 2 ] >= 6504.3
quadratic_ranged_545_lb: [ 1 x_69_ ^ 2 - 2 x_96_ * x_69_ + 1 x_96_ ^ 2 + 1 y_69_ ^ 2 - 2 y_96_ * y_69_ + 1 y_96_ ^ 2 ] >= 2712.6
quadratic_ranged_546_lb: [ 1 x_79_ ^ 2 - 2 x_96_ * x_79_ + 1 x_96_ ^ 2 + 1 y_79_ ^ 2 - 2 y_96_ * y_79_ + 1 y_96_ ^ 2 ] >= 8478.36
quadratic_ranged_547_lb: [ 1 x_82_ ^ 2 - 2 x_96_ * x_82_ + 1 x_96_ ^ 2 + 1 y_82_ ^ 2 - 2 y_96_ * y_82_ + 1 y_96_ ^ 2 ] >= 4491.63
quadratic_ranged_548_lb: [ 1 x_95_ ^ 2 - 2 x_96_ * x_95_ + 1 x_96_ ^ 2 + 1 y_95_ ^ 2 - 2 y_96_ * y_95_ + 1 y_96_ ^ 2 ] >= 20760.3
quadratic_ranged_549_lb: [ 1 x_7_ ^ 2 - 2 x_97_ * x_7_ + 1 x_97_ ^ 2 + 1 y_7_ ^ 2 - 2 y_97_ * y_7_ + 1 y_97_ ^ 2 ] >= 5034.15
quadratic_ranged_550_lb: [ 1 x_17_ ^ 2 - 2 x_97_ * x_17_ + 1 x_97_ ^ 2 + 1 y_17_ ^ 2 - 2 y_97_ * y_17_ + 1 y_97_ ^ 2 ] >= 17348.76
quadratic_ranged_551_lb: [ 1 x_30_ ^ 2 - 2 x_97_ * x_30_ + 1 x_97_ ^ 2 + 1 y_30_ ^ 2 - 2 y_97_ * y_30_ + 1 y_97_ ^ 2 ] >= 18210.06
quadratic_ranged_552_lb: [ 1 x_36_ ^ 2 - 2 x_97_ * x_36_ + 1 x_97_ ^ 2 + 1 y_36_ ^ 2 - 2 y_97_ * y_36_ + 1 y_97_ ^ 2 ] >= 38195.19
quadratic_ranged_553_lb: [ 1 x_45_ ^ 2 - 2 x_97_ * x_45_ + 1 x_97_ ^ 2 + 1 y_45_ ^ 2 - 2 y_97_ * y_45_ + 1 y_97_ ^ 2 ] >= 18224.91
quadratic_ranged_554_lb: [ 1 x_55_ ^ 2 - 2 x_97_ * x_55_ + 1 x_97_ ^ 2 + 1 y_55_ ^ 2 - 2 y_97_ * y_55_ + 1 y_97_ ^ 2 ] >= 12420.539999999999
quadratic_ranged_555_lb: [ 1 x_66_ ^ 2 - 2 x_97_ * x_66_ + 1 x_97_ ^ 2 + 1 y_66_ ^ 2 - 2 y_97_ * y_66_ + 1 y_97_ ^ 2 ] >= 14259.96
quadratic_ranged_556_lb: [ 1 x_71_ ^ 2 - 2 x_97_ * x_71_ + 1 x_97_ ^ 2 + 1 y_71_ ^ 2 - 2 y_97_ * y_71_ + 1 y_97_ ^ 2 ] >= 3425.4
quadratic_ranged_557_lb: [ 1 x_80_ ^ 2 - 2 x_97_ * x_80_ + 1 x_97_ ^ 2 + 1 y_80_ ^ 2 - 2 y_97_ * y_80_ + 1 y_97_ ^ 2 ] >= 405.9
quadratic_ranged_558_lb: [ 1 x_82_ ^ 2 - 2 x_97_ * x_82_ + 1 x_97_ ^ 2 + 1 y_82_ ^ 2 - 2 y_97_ * y_82_ + 1 y_97_ ^ 2 ] >= 34179.75
quadratic_ranged_559_lb: [ 1 x_96_ ^ 2 - 2 x_97_ * x_96_ + 1 x_97_ ^ 2 + 1 y_96_ ^ 2 - 2 y_97_ * y_96_ + 1 y_97_ ^ 2 ] >= 31434.48
quadratic_ranged_560_lb: [ 1 x_9_ ^ 2 - 2 x_98_ * x_9_ + 1 x_98_ ^ 2 + 1 y_9_ ^ 2 - 2 y_98_ * y_9_ + 1 y_98_ ^ 2 ] >= 1093.95
quadratic_ranged_561_lb: [ 1 x_28_ ^ 2 - 2 x_98_ * x_28_ + 1 x_98_ ^ 2 + 1 y_28_ ^ 2 - 2 y_98_ * y_28_ + 1 y_98_ ^ 2 ] >= 9900
quadratic_ranged_562_lb: [ 1 x_31_ ^ 2 - 2 x_98_ * x_31_ + 1 x_98_ ^ 2 + 1 y_31_ ^ 2 - 2 y_98_ * y_31_ + 1 y_98_ ^ 2 ] >= 15226.2
quadratic_ranged_563_lb: [ 1 x_32_ ^ 2 - 2 x_98_ * x_32_ + 1 x_98_ ^ 2 + 1 y_32_ ^ 2 - 2 y_98_ * y_32_ + 1 y_98_ ^ 2 ] >= 15184.619999999999
quadratic_ranged_564_lb: [ 1 x_47_ ^ 2 - 2 x_98_ * x_47_ + 1 x_98_ ^ 2 + 1 y_47_ ^ 2 - 2 y_98_ * y_47_ + 1 y_98_ ^ 2 ] >= 11374.11
quadratic_ranged_565_lb: [ 1 x_63_ ^ 2 - 2 x_98_ * x_63_ + 1 x_98_ ^ 2 + 1 y_63_ ^ 2 - 2 y_98_ * y_63_ + 1 y_98_ ^ 2 ] >= 11287.98
quadratic_ranged_566_lb: [ 1 x_65_ ^ 2 - 2 x_98_ * x_65_ + 1 x_98_ ^ 2 + 1 y_65_ ^ 2 - 2 y_98_ * y_65_ + 1 y_98_ ^ 2 ] >= 19706.94
quadratic_ranged_567_lb: [ 1 x_69_ ^ 2 - 2 x_98_ * x_69_ + 1 x_98_ ^ 2 + 1 y_69_ ^ 2 - 2 y_98_ * y_69_ + 1 y_98_ ^ 2 ] >= 20094.03
quadratic_ranged_568_lb: [ 1 x_91_ ^ 2 - 2 x_98_ * x_91_ + 1 x_98_ ^ 2 + 1 y_91_ ^ 2 - 2 y_98_ * y_91_ + 1 y_98_ ^ 2 ] >= 6606.2699999999995
quadratic_ranged_569_lb: [ 1 x_97_ ^ 2 - 2 x_98_ * x_97_ + 1 x_98_ ^ 2 + 1 y_97_ ^ 2 - 2 y_98_ * y_97_ + 1 y_98_ ^ 2 ] >= 12201.75
quadratic_ranged_570_lb: [ 1 x_2_ ^ 2 - 2 x_99_ * x_2_ + 1 x_99_ ^ 2 + 1 y_2_ ^ 2 - 2 y_99_ * y_2_ + 1 y_99_ ^ 2 ] >= 26176.59
quadratic_ranged_571_lb: [ 1 x_13_ ^ 2 - 2 x_99_ * x_13_ + 1 x_99_ ^ 2 + 1 y_13_ ^ 2 - 2 y_99_ * y_13_ + 1 y_99_ ^ 2 ] >= 7608.15
quadratic_ranged_572_lb: [ 1 x_26_ ^ 2 - 2 x_99_ * x_26_ + 1 x_99_ ^ 2 + 1 y_26_ ^ 2 - 2 y_99_ * y_26_ + 1 y_99_ ^ 2 ] >= 20616.75
quadratic_ranged_573_lb: [ 1 x_49_ ^ 2 - 2 x_99_ * x_49_ + 1 x_99_ ^ 2 + 1 y_49_ ^ 2 - 2 y_99_ * y_49_ + 1 y_99_ ^ 2 ] >= 33469.92
quadratic_ranged_574_lb: [ 1 x_79_ ^ 2 - 2 x_99_ * x_79_ + 1 x_99_ ^ 2 + 1 y_79_ ^ 2 - 2 y_99_ * y_79_ + 1 y_99_ ^ 2 ] >= 1014.75
quadratic_ranged_575_lb: [ 1 x_84_ ^ 2 - 2 x_99_ * x_84_ + 1 x_99_ ^ 2 + 1 y_84_ ^ 2 - 2 y_99_ * y_84_ + 1 y_99_ ^ 2 ] >= 16546.86
quadratic_ranged_576_lb: [ 1 x_89_ ^ 2 - 2 x_99_ * x_89_ + 1 x_99_ ^ 2 + 1 y_89_ ^ 2 - 2 y_99_ * y_89_ + 1 y_99_ ^ 2 ] >= 2457.18
quadratic_ranged_577_lb: [ 1 x_98_ ^ 2 - 2 x_99_ * x_98_ + 1 x_99_ ^ 2 + 1 y_98_ ^ 2 - 2 y_99_ * y_98_ + 1 y_99_ ^ 2 ] >= 3045.24
quadratic_ranged_578_lb: [ 1 x_1_ ^ 2 - 2 x_100_ * x_1_ + 1 x_100_ ^ 2 + 1 y_1_ ^ 2 - 2 y_100_ * y_1_ + 1 y_100_ ^ 2 ] >= 19784.16
quadratic_ranged_579_lb: [ 1 x_15_ ^ 2 - 2 x_100_ * x_15_ + 1 x_100_ ^ 2 + 1 y_15_ ^ 2 - 2 y_100_ * y_15_ + 1 y_100_ ^ 2 ] >= 11533.5
quadratic_ranged_580_lb: [ 1 x_39_ ^ 2 - 2 x_100_ * x_39_ + 1 x_100_ ^ 2 + 1 y_39_ ^ 2 - 2 y_100_ * y_39_ + 1 y_100_ ^ 2 ] >= 1973.07
quadratic_ranged_581_lb: [ 1 x_47_ ^ 2 - 2 x_100_ * x_47_ + 1 x_100_ ^ 2 + 1 y_47_ ^ 2 - 2 y_100_ * y_47_ + 1 y_100_ ^ 2 ] >= 3758.04
quadratic_ranged_582_lb: [ 1 x_61_ ^ 2 - 2 x_100_ * x_61_ + 1 x_100_ ^ 2 + 1 y_61_ ^ 2 - 2 y_100_ * y_61_ + 1 y_100_ ^ 2 ] >= 1387.98
quadratic_ranged_583_lb: [ 1 x_70_ ^ 2 - 2 x_100_ * x_70_ + 1 x_100_ ^ 2 + 1 y_70_ ^ 2 - 2 y_100_ * y_70_ + 1 y_100_ ^ 2 ] >= 8665.47
quadratic_ranged_584_lb: [ 1 x_81_ ^ 2 - 2 x_100_ * x_81_ + 1 x_100_ ^ 2 + 1 y_81_ ^ 2 - 2 y_100_ * y_81_ + 1 y_100_ ^ 2 ] >= 3814.47
quadratic_ranged_585_lb: [ 1 x_99_ ^ 2 - 2 x_100_ * x_99_ + 1 x_100_ ^ 2 + 1 y_99_ ^ 2 - 2 y_100_ * y_99_ + 1 y_100_ ^ 2 ] >= 35347.95
c1_1: 1 x_15_ = 0
c2_1: 1 y_15_ = 0
Bounds
-156 <= x_1_ <= 156
-133 <= x_2_ <= 133
-157 <= x_3_ <= 157
-182 <= x_4_ <= 182
-175 <= x_5_ <= 175
-136 <= x_6_ <= 136
-121 <= x_7_ <= 121
-94 <= x_8_ <= 94
-93 <= x_9_ <= 93
-130 <= x_10_ <= 130
-49 <= x_11_ <= 49
-122 <= x_12_ <= 122
-97 <= x_13_ <= 97
-79 <= x_14_ <= 79
x_15_ = 0
-164 <= x_16_ <= 164
-141 <= x_17_ <= 141
-147 <= x_18_ <= 147
-120 <= x_19_ <= 120
-152 <= x_20_ <= 152
-146 <= x_21_ <= 146
-130 <= x_22_ <= 130
-132 <= x_23_ <= 132
-119 <= x_24_ <= 119
-169 <= x_25_ <= 169
-113 <= x_26_ <= 113
-155 <= x_27_ <= 155
-159 <= x_28_ <= 159
-135 <= x_29_ <= 135
-201 <= x_30_ <= 201
-88 <= x_31_ <= 88
-87 <= x_32_ <= 87
-118 <= x_33_ <= 118
-61 <= x_34_ <= 61
-144 <= x_35_ <= 144
-125 <= x_36_ <= 125
-158 <= x_37_ <= 158
-90 <= x_38_ <= 90
-133 <= x_39_ <= 133
-154 <= x_40_ <= 154
-170 <= x_41_ <= 170
-175 <= x_42_ <= 175
-141 <= x_43_ <= 141
-82 <= x_44_ <= 82
-66 <= x_45_ <= 66
-160 <= x_46_ <= 160
-100 <= x_47_ <= 100
-131 <= x_48_ <= 131
-134 <= x_49_ <= 134
-136 <= x_50_ <= 136
-128 <= x_51_ <= 128
-197 <= x_52_ <= 197
-133 <= x_53_ <= 133
-161 <= x_54_ <= 161
-109 <= x_55_ <= 109
-102 <= x_56_ <= 102
-175 <= x_57_ <= 175
-166 <= x_58_ <= 166
-21 <= x_59_ <= 21
-99 <= x_60_ <= 99
-146 <= x_61_ <= 146
-126 <= x_62_ <= 126
-127 <= x_63_ <= 127
-109 <= x_64_ <= 109
-171 <= x_65_ <= 171
-128 <= x_66_ <= 128
-102 <= x_67_ <= 102
-160 <= x_68_ <= 160
-147 <= x_69_ <= 147
-80 <= x_70_ <= 80
-53 <= x_71_ <= 53
-106 <= x_72_ <= 106
-105 <= x_73_ <= 105
-95 <= x_74_ <= 95
-142 <= x_75_ <= 142
-160 <= x_76_ <= 160
-158 <= x_77_ <= 158
-121 <= x_78_ <= 121
-131 <= x_79_ <= 131
-133 <= x_80_ <= 133
-145 <= x_81_ <= 145
-115 <= x_82_ <= 115
-138 <= x_83_ <= 138
-121 <= x_84_ <= 121
-85 <= x_85_ <= 85
-149 <= x_86_ <= 149
-149 <= x_87_ <= 149
-162 <= x_88_ <= 162
-104 <= x_89_ <= 104
-153 <= x_90_ <= 153
-104 <= x_91_ <= 104
-128 <= x_92_ <= 128
-77 <= x_93_ <= 77
-135 <= x_94_ <= 135
-141 <= x_95_ <= 141
-133 <= x_96_ <= 133
-112 <= x_97_ <= 112
-127 <= x_98_ <= 127
-154 <= x_99_ <= 154
-108 <= x_100_ <= 108
-156 <= y_1_ <= 156
-133 <= y_2_ <= 133
-157 <= y_3_ <= 157
-182 <= y_4_ <= 182
-175 <= y_5_ <= 175
-136 <= y_6_ <= 136
-121 <= y_7_ <= 121
-94 <= y_8_ <= 94
-93 <= y_9_ <= 93
-130 <= y_10_ <= 130
-49 <= y_11_ <= 49
-122 <= y_12_ <= 122
-97 <= y_13_ <= 97
-79 <= y_14_ <= 79
y_15_ = 0
-164 <= y_16_ <= 164
-141 <= y_17_ <= 141
-147 <= y_18_ <= 147
-120 <= y_19_ <= 120
-152 <= y_20_ <= 152
-146 <= y_21_ <= 146
-130 <= y_22_ <= 130
-132 <= y_23_ <= 132
-119 <= y_24_ <= 119
-169 <= y_25_ <= 169
-113 <= y_26_ <= 113
-155 <= y_27_ <= 155
-159 <= y_28_ <= 159
-135 <= y_29_ <= 135
-201 <= y_30_ <= 201
-88 <= y_31_ <= 88
-87 <= y_32_ <= 87
-118 <= y_33_ <= 118
-61 <= y_34_ <= 61
-144 <= y_35_ <= 144
-125 <= y_36_ <= 125
-158 <= y_37_ <= 158
-90 <= y_38_ <= 90
-133 <= y_39_ <= 133
-154 <= y_40_ <= 154
-170 <= y_41_ <= 170
-175 <= y_42_ <= 175
-141 <= y_43_ <= 141
-82 <= y_44_ <= 82
-66 <= y_45_ <= 66
-160 <= y_46_ <= 160
-100 <= y_47_ <= 100
-131 <= y_48_ <= 131
-134 <= y_49_ <= 134
-136 <= y_50_ <= 136
-128 <= y_51_ <= 128
-197 <= y_52_ <= 197
-133 <= y_53_ <= 133
-161 <= y_54_ <= 161
-109 <= y_55_ <= 109
-102 <= y_56_ <= 102
-175 <= y_57_ <= 175
-166 <= y_58_ <= 166
-21 <= y_59_ <= 21
-99 <= y_60_ <= 99
-146 <= y_61_ <= 146
-126 <= y_62_ <= 126
-127 <= y_63_ <= 127
-109 <= y_64_ <= 109
-171 <= y_65_ <= 171
-128 <= y_66_ <= 128
-102 <= y_67_ <= 102
-160 <= y_68_ <= 160
-147 <= y_69_ <= 147
-80 <= y_70_ <= 80
-53 <= y_71_ <= 53
-106 <= y_72_ <= 106
-105 <= y_73_ <= 105
-95 <= y_74_ <= 95
-142 <= y_75_ <= 142
-160 <= y_76_ <= 160
-158 <= y_77_ <= 158
-121 <= y_78_ <= 121
-131 <= y_79_ <= 131
-133 <= y_80_ <= 133
-145 <= y_81_ <= 145
-115 <= y_82_ <= 115
-138 <= y_83_ <= 138
-121 <= y_84_ <= 121
-85 <= y_85_ <= 85
-149 <= y_86_ <= 149
-149 <= y_87_ <= 149
-162 <= y_88_ <= 162
-104 <= y_89_ <= 104
-153 <= y_90_ <= 153
-104 <= y_91_ <= 104
-128 <= y_92_ <= 128
-77 <= y_93_ <= 77
-135 <= y_94_ <= 135
-141 <= y_95_ <= 141
-133 <= y_96_ <= 133
-112 <= y_97_ <= 112
-127 <= y_98_ <= 127
-154 <= y_99_ <= 154
-108 <= y_100_ <= 108
General
x_1_
x_2_
x_3_
x_4_
x_5_
x_6_
x_7_
x_8_
x_9_
x_10_
x_11_
x_12_
x_13_
x_14_
x_15_
x_16_
x_17_
x_18_
x_19_
x_20_
x_21_
x_22_
x_23_
x_24_
x_25_
x_26_
x_27_
x_28_
x_29_
x_30_
x_31_
x_32_
x_33_
x_34_
x_35_
x_36_
x_37_
x_38_
x_39_
x_40_
x_41_
x_42_
x_43_
x_44_
x_45_
x_46_
x_47_
x_48_
x_49_
x_50_
x_51_
x_52_
x_53_
x_54_
x_55_
x_56_
x_57_
x_58_
x_59_
x_60_
x_61_
x_62_
x_63_
x_64_
x_65_
x_66_
x_67_
x_68_
x_69_
x_70_
x_71_
x_72_
x_73_
x_74_
x_75_
x_76_
x_77_
x_78_
x_79_
x_80_
x_81_
x_82_
x_83_
x_84_
x_85_
x_86_
x_87_
x_88_
x_89_
x_90_
x_91_
x_92_
x_93_
x_94_
x_95_
x_96_
x_97_
x_98_
x_99_
x_100_
y_1_
y_2_
y_3_
y_4_
y_5_
y_6_
y_7_
y_8_
y_9_
y_10_
y_11_
y_12_
y_13_
y_14_
y_15_
y_16_
y_17_
y_18_
y_19_
y_20_
y_21_
y_22_
y_23_
y_24_
y_25_
y_26_
y_27_
y_28_
y_29_
y_30_
y_31_
y_32_
y_33_
y_34_
y_35_
y_36_
y_37_
y_38_
y_39_
y_40_
y_41_
y_42_
y_43_
y_44_
y_45_
y_46_
y_47_
y_48_
y_49_
y_50_
y_51_
y_52_
y_53_
y_54_
y_55_
y_56_
y_57_
y_58_
y_59_
y_60_
y_61_
y_62_
y_63_
y_64_
y_65_
y_66_
y_67_
y_68_
y_69_
y_70_
y_71_
y_72_
y_73_
y_74_
y_75_
y_76_
y_77_
y_78_
y_79_
y_80_
y_81_
y_82_
y_83_
y_84_
y_85_
y_86_
y_87_
y_88_
y_89_
y_90_
y_91_
y_92_
y_93_
y_94_
y_95_
y_96_
y_97_
y_98_
y_99_
y_100_
End
