minimize
obj: 
subject to
c1_3: -1 x_2_ + 1 y_2_ <= 0
c1: [ 1 x_1_ ^ 2 + 1 y_1_ ^ 2 ] <= 16532.221776086273
c2: [ 1 x_2_ ^ 2 + 1 y_2_ ^ 2 ] <= 44325.391926229684
c3: [ 1 x_3_ ^ 2 + 1 y_3_ ^ 2 ] <= 30355.325796240544
c4: [ 1 x_4_ ^ 2 + 1 y_4_ ^ 2 ] <= 28240.38041550446
c5: [ 1 x_5_ ^ 2 + 1 y_5_ ^ 2 ] <= 12683.113397607012
c6: [ 1 x_6_ ^ 2 + 1 y_6_ ^ 2 ] <= 24778.857301735457
c7: [ 1 x_7_ ^ 2 + 1 y_7_ ^ 2 ] <= 36668.13631646974
c8: [ 1 x_8_ ^ 2 + 1 y_8_ ^ 2 ] <= 23158.434350366828
c9: [ 1 x_9_ ^ 2 + 1 y_9_ ^ 2 ] <= 11348.829055445976
c10: [ 1 x_10_ ^ 2 + 1 y_10_ ^ 2 ] <= 30775.056855027262
c11: [ 1 x_11_ ^ 2 + 1 y_11_ ^ 2 ] <= 33175.74155735142
c12: [ 1 x_12_ ^ 2 + 1 y_12_ ^ 2 ] <= 13318.153158802845
c13: [ 1 x_13_ ^ 2 + 1 y_13_ ^ 2 ] <= 18228.011564202872
c14: [ 1 x_14_ ^ 2 + 1 y_14_ ^ 2 ] <= 20426.519036538346
c15: [ 1 x_15_ ^ 2 + 1 y_15_ ^ 2 ] <= 27424.49631512931
c16: [ 1 x_16_ ^ 2 + 1 y_16_ ^ 2 ] <= 16527.2418255146
c17: [ 1 x_17_ ^ 2 + 1 y_17_ ^ 2 ] <= 19809.53346307772
c18: [ 1 x_18_ ^ 2 + 1 y_18_ ^ 2 ] <= 23469.65404331262
c19: [ 1 x_19_ ^ 2 + 1 y_19_ ^ 2 ] <= 11599.849999999999
c20: [ 1 x_20_ ^ 2 + 1 y_20_ ^ 2 ] <= 30678.80807979182
c21: [ 1 x_21_ ^ 2 + 1 y_21_ ^ 2 ] <= 23369.11663810372
c22: [ 1 x_22_ ^ 2 + 1 y_22_ ^ 2 ] <= 27673.735669283556
c23: [ 1 x_23_ ^ 2 + 1 y_23_ ^ 2 ] <= 4182.41
c24: [ 1 x_24_ ^ 2 + 1 y_24_ ^ 2 ] <= 12997.859130395544
c25: [ 1 x_25_ ^ 2 + 1 y_25_ ^ 2 ] <= 9006.169999999998
c26: [ 1 x_27_ ^ 2 + 1 y_27_ ^ 2 ] <= 2812.85
c27: [ 1 x_28_ ^ 2 + 1 y_28_ ^ 2 ] <= 11094.849999999999
c28: [ 1 x_29_ ^ 2 + 1 y_29_ ^ 2 ] <= 24898.94164064976
c29: [ 1 x_30_ ^ 2 + 1 y_30_ ^ 2 ] <= 31136.124110292767
c30: [ 1 x_31_ ^ 2 + 1 y_31_ ^ 2 ] <= 19374.59821324654
c31: [ 1 x_32_ ^ 2 + 1 y_32_ ^ 2 ] <= 19596.019999999997
c32: [ 1 x_33_ ^ 2 + 1 y_33_ ^ 2 ] <= 14225.822284104373
c33: [ 1 x_34_ ^ 2 + 1 y_34_ ^ 2 ] <= 17253.98932673959
c34: [ 1 x_35_ ^ 2 + 1 y_35_ ^ 2 ] <= 22535.756516124045
c35: [ 1 x_36_ ^ 2 + 1 y_36_ ^ 2 ] <= 22059.970782241562
c36: [ 1 x_37_ ^ 2 + 1 y_37_ ^ 2 ] <= 29863.611256872817
c37: [ 1 x_38_ ^ 2 + 1 y_38_ ^ 2 ] <= 16034.21224179587
c38: [ 1 x_39_ ^ 2 + 1 y_39_ ^ 2 ] <= 11850.378635534
c39: [ 1 x_40_ ^ 2 + 1 y_40_ ^ 2 ] <= 24956.823195302113
c40: [ 1 x_41_ ^ 2 + 1 y_41_ ^ 2 ] <= 23135.37254503434
c41: [ 1 x_42_ ^ 2 + 1 y_42_ ^ 2 ] <= 13788.897581990786
c42: [ 1 x_43_ ^ 2 + 1 y_43_ ^ 2 ] <= 22452.605528856446
c43: [ 1 x_44_ ^ 2 + 1 y_44_ ^ 2 ] <= 21227.905214052393
c44: [ 1 x_45_ ^ 2 + 1 y_45_ ^ 2 ] <= 15388.37733438606
c45: [ 1 x_46_ ^ 2 + 1 y_46_ ^ 2 ] <= 2482.5799999999995
c46: [ 1 x_47_ ^ 2 + 1 y_47_ ^ 2 ] <= 14948.444553255096
c47: [ 1 x_48_ ^ 2 + 1 y_48_ ^ 2 ] <= 36628.16385965933
c48: [ 1 x_49_ ^ 2 + 1 y_49_ ^ 2 ] <= 19833.827061311553
c49: [ 1 x_50_ ^ 2 + 1 y_50_ ^ 2 ] <= 8266.532569770758
c50: [ 1 x_51_ ^ 2 + 1 y_51_ ^ 2 ] <= 23952.778478962235
c51: [ 1 x_52_ ^ 2 + 1 y_52_ ^ 2 ] <= 41027.65250750468
c52: [ 1 x_53_ ^ 2 + 1 y_53_ ^ 2 ] <= 14131.912810065227
c53: [ 1 x_54_ ^ 2 + 1 y_54_ ^ 2 ] <= 8365.57133346463
c54: [ 1 x_55_ ^ 2 + 1 y_55_ ^ 2 ] <= 15371.840314706405
c55: [ 1 x_56_ ^ 2 + 1 y_56_ ^ 2 ] <= 19661.170806473358
c56: [ 1 x_57_ ^ 2 + 1 y_57_ ^ 2 ] <= 2040.1999999999998
c57: [ 1 x_58_ ^ 2 + 1 y_58_ ^ 2 ] <= 22927.167446187486
c58: [ 1 x_59_ ^ 2 + 1 y_59_ ^ 2 ] <= 16485.676685191887
c59: [ 1 x_60_ ^ 2 + 1 y_60_ ^ 2 ] <= 11967.553050013858
c60: [ 1 x_61_ ^ 2 + 1 y_61_ ^ 2 ] <= 16667.836506003925
c61: [ 1 x_62_ ^ 2 + 1 y_62_ ^ 2 ] <= 18261.171181916543
c62: [ 1 x_63_ ^ 2 + 1 y_63_ ^ 2 ] <= 2722.5301501390663
c63: [ 1 x_64_ ^ 2 + 1 y_64_ ^ 2 ] <= 15076.144464234716
c64: [ 1 x_65_ ^ 2 + 1 y_65_ ^ 2 ] <= 22498.18742760178
c65: [ 1 x_66_ ^ 2 + 1 y_66_ ^ 2 ] <= 25691.59406651734
c66: [ 1 x_67_ ^ 2 + 1 y_67_ ^ 2 ] <= 26925.52702542208
c67: [ 1 x_68_ ^ 2 + 1 y_68_ ^ 2 ] <= 26723.09110542724
c68: [ 1 x_69_ ^ 2 + 1 y_69_ ^ 2 ] <= 24237.567811555924
c69: [ 1 x_70_ ^ 2 + 1 y_70_ ^ 2 ] <= 23613.070517688968
c70: [ 1 x_71_ ^ 2 + 1 y_71_ ^ 2 ] <= 15806.5
c71: [ 1 x_72_ ^ 2 + 1 y_72_ ^ 2 ] <= 39439.821390065066
c72: [ 1 x_73_ ^ 2 + 1 y_73_ ^ 2 ] <= 17666.14330832691
c73: [ 1 x_74_ ^ 2 + 1 y_74_ ^ 2 ] <= 39615.46589395366
c74: [ 1 x_75_ ^ 2 + 1 y_75_ ^ 2 ] <= 8554.31300881101
c75: [ 1 x_76_ ^ 2 + 1 y_76_ ^ 2 ] <= 21217.95814975514
c76: [ 1 x_77_ ^ 2 + 1 y_77_ ^ 2 ] <= 425.21
c77: [ 1 x_78_ ^ 2 + 1 y_78_ ^ 2 ] <= 13223.431519716867
c78: [ 1 x_79_ ^ 2 + 1 y_79_ ^ 2 ] <= 26831.774905200986
c79: [ 1 x_80_ ^ 2 + 1 y_80_ ^ 2 ] <= 7626.979549966585
c80: [ 1 x_81_ ^ 2 + 1 y_81_ ^ 2 ] <= 16785.23928053291
c81: [ 1 x_82_ ^ 2 + 1 y_82_ ^ 2 ] <= 6117.57
c82: [ 1 x_83_ ^ 2 + 1 y_83_ ^ 2 ] <= 26456.534648998793
c83: [ 1 x_84_ ^ 2 + 1 y_84_ ^ 2 ] <= 14448.193573486318
c84: [ 1 x_85_ ^ 2 + 1 y_85_ ^ 2 ] <= 30667.787745118196
c85: [ 1 x_86_ ^ 2 + 1 y_86_ ^ 2 ] <= 27976.64220967397
c86: [ 1 x_87_ ^ 2 + 1 y_87_ ^ 2 ] <= 25528.63186487874
c87: [ 1 x_88_ ^ 2 + 1 y_88_ ^ 2 ] <= 36762.43076695174
c88: [ 1 x_89_ ^ 2 + 1 y_89_ ^ 2 ] <= 20090.07633203474
c89: [ 1 x_90_ ^ 2 + 1 y_90_ ^ 2 ] <= 17280.090000000004
c90: [ 1 x_91_ ^ 2 + 1 y_91_ ^ 2 ] <= 19208.459449657796
c91: [ 1 x_92_ ^ 2 + 1 y_92_ ^ 2 ] <= 16829.4455750693
c92: [ 1 x_93_ ^ 2 + 1 y_93_ ^ 2 ] <= 33829.02197377865
c93: [ 1 x_94_ ^ 2 + 1 y_94_ ^ 2 ] <= 26878.818092077337
c94: [ 1 x_95_ ^ 2 + 1 y_95_ ^ 2 ] <= 7563.8899999999985
c95: [ 1 x_96_ ^ 2 + 1 y_96_ ^ 2 ] <= 28563.99940110967
c96: [ 1 x_97_ ^ 2 + 1 y_97_ ^ 2 ] <= 34577.559867311735
c97: [ 1 x_98_ ^ 2 + 1 y_98_ ^ 2 ] <= 31497.283857933577
c98: [ 1 x_99_ ^ 2 + 1 y_99_ ^ 2 ] <= 4112.739056497773
c99: [ 1 x_100_ ^ 2 + 1 y_100_ ^ 2 ] <= 36387.86551997719
quadratic_ranged_1_ub: [ 1 x_1_ ^ 2 - 2 x_2_ * x_1_ + 1 x_2_ ^ 2 + 1 y_1_ ^ 2 - 2 y_2_ * y_1_ + 1 y_2_ ^ 2 ] <= 13544.1
quadratic_ranged_2_ub: [ 1 x_2_ ^ 2 - 2 x_3_ * x_2_ + 1 x_3_ ^ 2 + 1 y_2_ ^ 2 - 2 y_3_ * y_2_ + 1 y_3_ ^ 2 ] <= 51148.42
quadratic_ranged_3_ub: [ 1 x_1_ ^ 2 - 2 x_4_ * x_1_ + 1 x_4_ ^ 2 + 1 y_1_ ^ 2 - 2 y_4_ * y_1_ + 1 y_4_ ^ 2 ] <= 3859.21
quadratic_ranged_4_ub: [ 1 x_3_ ^ 2 - 2 x_4_ * x_3_ + 1 x_4_ ^ 2 + 1 y_3_ ^ 2 - 2 y_4_ * y_3_ + 1 y_4_ ^ 2 ] <= 24960.13
quadratic_ranged_5_ub: [ 1 x_4_ ^ 2 - 2 x_5_ * x_4_ + 1 x_5_ ^ 2 + 1 y_4_ ^ 2 - 2 y_5_ * y_4_ + 1 y_5_ ^ 2 ] <= 3072.42
quadratic_ranged_6_ub: [ 1 x_5_ ^ 2 - 2 x_6_ * x_5_ + 1 x_6_ ^ 2 + 1 y_5_ ^ 2 - 2 y_6_ * y_5_ + 1 y_6_ ^ 2 ] <= 31077.7
quadratic_ranged_7_ub: [ 1 x_6_ ^ 2 - 2 x_7_ * x_6_ + 1 x_7_ ^ 2 + 1 y_6_ ^ 2 - 2 y_7_ * y_6_ + 1 y_7_ ^ 2 ] <= 2458.34
quadratic_ranged_8_ub: [ 1 x_3_ ^ 2 - 2 x_8_ * x_3_ + 1 x_8_ ^ 2 + 1 y_3_ ^ 2 - 2 y_8_ * y_3_ + 1 y_8_ ^ 2 ] <= 1023.13
quadratic_ranged_9_ub: [ 1 x_7_ ^ 2 - 2 x_8_ * x_7_ + 1 x_8_ ^ 2 + 1 y_7_ ^ 2 - 2 y_8_ * y_7_ + 1 y_8_ ^ 2 ] <= 1545.3
quadratic_ranged_10_ub: [ 1 x_3_ ^ 2 - 2 x_9_ * x_3_ + 1 x_9_ ^ 2 + 1 y_3_ ^ 2 - 2 y_9_ * y_3_ + 1 y_9_ ^ 2 ] <= 25659.05
quadratic_ranged_11_ub: [ 1 x_8_ ^ 2 - 2 x_9_ * x_8_ + 1 x_9_ ^ 2 + 1 y_8_ ^ 2 - 2 y_9_ * y_8_ + 1 y_9_ ^ 2 ] <= 18685
quadratic_ranged_12_ub: [ 1 x_2_ ^ 2 - 2 x_10_ * x_2_ + 1 x_10_ ^ 2 + 1 y_2_ ^ 2 - 2 y_10_ * y_2_ + 1 y_10_ ^ 2 ] <= 27522.5
quadratic_ranged_13_ub: [ 1 x_6_ ^ 2 - 2 x_10_ * x_6_ + 1 x_10_ ^ 2 + 1 y_6_ ^ 2 - 2 y_10_ * y_6_ + 1 y_10_ ^ 2 ] <= 792.85
quadratic_ranged_14_ub: [ 1 x_9_ ^ 2 - 2 x_10_ * x_9_ + 1 x_10_ ^ 2 + 1 y_9_ ^ 2 - 2 y_10_ * y_9_ + 1 y_10_ ^ 2 ] <= 10517.13
quadratic_ranged_15_ub: [ 1 x_2_ ^ 2 - 2 x_11_ * x_2_ + 1 x_11_ ^ 2 + 1 y_2_ ^ 2 - 2 y_11_ * y_2_ + 1 y_11_ ^ 2 ] <= 37568.97
quadratic_ranged_16_ub: [ 1 x_7_ ^ 2 - 2 x_11_ * x_7_ + 1 x_11_ ^ 2 + 1 y_7_ ^ 2 - 2 y_11_ * y_7_ + 1 y_11_ ^ 2 ] <= 30164.66
quadratic_ranged_17_ub: [ 1 x_9_ ^ 2 - 2 x_11_ * x_9_ + 1 x_11_ ^ 2 + 1 y_9_ ^ 2 - 2 y_11_ * y_9_ + 1 y_11_ ^ 2 ] <= 8148.68
quadratic_ranged_18_ub: [ 1 x_10_ ^ 2 - 2 x_11_ * x_10_ + 1 x_11_ ^ 2 + 1 y_10_ ^ 2 - 2 y_11_ * y_10_ + 1 y_11_ ^ 2 ] <= 15490.37
quadratic_ranged_19_ub: [ 1 x_11_ ^ 2 - 2 x_12_ * x_11_ + 1 x_12_ ^ 2 + 1 y_11_ ^ 2 - 2 y_12_ * y_11_ + 1 y_12_ ^ 2 ] <= 31158.5
quadratic_ranged_20_ub: [ 1 x_3_ ^ 2 - 2 x_13_ * x_3_ + 1 x_13_ ^ 2 + 1 y_3_ ^ 2 - 2 y_13_ * y_3_ + 1 y_13_ ^ 2 ] <= 27465.94
quadratic_ranged_21_ub: [ 1 x_5_ ^ 2 - 2 x_13_ * x_5_ + 1 x_13_ ^ 2 + 1 y_5_ ^ 2 - 2 y_13_ * y_5_ + 1 y_13_ ^ 2 ] <= 11207.97
quadratic_ranged_22_ub: [ 1 x_12_ ^ 2 - 2 x_13_ * x_12_ + 1 x_13_ ^ 2 + 1 y_12_ ^ 2 - 2 y_13_ * y_12_ + 1 y_13_ ^ 2 ] <= 7022.53
quadratic_ranged_23_ub: [ 1 x_1_ ^ 2 - 2 x_14_ * x_1_ + 1 x_14_ ^ 2 + 1 y_1_ ^ 2 - 2 y_14_ * y_1_ + 1 y_14_ ^ 2 ] <= 3365.32
quadratic_ranged_24_ub: [ 1 x_13_ ^ 2 - 2 x_14_ * x_13_ + 1 x_14_ ^ 2 + 1 y_13_ ^ 2 - 2 y_14_ * y_13_ + 1 y_14_ ^ 2 ] <= 1900.82
quadratic_ranged_25_ub: [ 1 x_4_ ^ 2 - 2 x_15_ * x_4_ + 1 x_15_ ^ 2 + 1 y_4_ ^ 2 - 2 y_15_ * y_4_ + 1 y_15_ ^ 2 ] <= 21034.26
quadratic_ranged_26_ub: [ 1 x_14_ ^ 2 - 2 x_15_ * x_14_ + 1 x_15_ ^ 2 + 1 y_14_ ^ 2 - 2 y_15_ * y_14_ + 1 y_15_ ^ 2 ] <= 21732.170000000002
quadratic_ranged_27_ub: [ 1 x_15_ ^ 2 - 2 x_16_ * x_15_ + 1 x_16_ ^ 2 + 1 y_15_ ^ 2 - 2 y_16_ * y_15_ + 1 y_16_ ^ 2 ] <= 18366.85
quadratic_ranged_28_ub: [ 1 x_2_ ^ 2 - 2 x_17_ * x_2_ + 1 x_17_ ^ 2 + 1 y_2_ ^ 2 - 2 y_17_ * y_2_ + 1 y_17_ ^ 2 ] <= 49858.65
quadratic_ranged_29_ub: [ 1 x_5_ ^ 2 - 2 x_17_ * x_5_ + 1 x_17_ ^ 2 + 1 y_5_ ^ 2 - 2 y_17_ * y_5_ + 1 y_17_ ^ 2 ] <= 41379.7
quadratic_ranged_30_ub: [ 1 x_16_ ^ 2 - 2 x_17_ * x_16_ + 1 x_17_ ^ 2 + 1 y_16_ ^ 2 - 2 y_17_ * y_16_ + 1 y_17_ ^ 2 ] <= 20205.05
quadratic_ranged_31_ub: [ 1 x_5_ ^ 2 - 2 x_18_ * x_5_ + 1 x_18_ ^ 2 + 1 y_5_ ^ 2 - 2 y_18_ * y_5_ + 1 y_18_ ^ 2 ] <= 44630.89
quadratic_ranged_32_ub: [ 1 x_13_ ^ 2 - 2 x_18_ * x_13_ + 1 x_18_ ^ 2 + 1 y_13_ ^ 2 - 2 y_18_ * y_13_ + 1 y_18_ ^ 2 ] <= 16170.1
quadratic_ranged_33_ub: [ 1 x_17_ ^ 2 - 2 x_18_ * x_17_ + 1 x_18_ ^ 2 + 1 y_17_ ^ 2 - 2 y_18_ * y_17_ + 1 y_18_ ^ 2 ] <= 6990.21
quadratic_ranged_34_ub: [ 1 x_4_ ^ 2 - 2 x_19_ * x_4_ + 1 x_19_ ^ 2 + 1 y_4_ ^ 2 - 2 y_19_ * y_4_ + 1 y_19_ ^ 2 ] <= 30244.45
quadratic_ranged_35_ub: [ 1 x_7_ ^ 2 - 2 x_19_ * x_7_ + 1 x_19_ ^ 2 + 1 y_7_ ^ 2 - 2 y_19_ * y_7_ + 1 y_19_ ^ 2 ] <= 14205.65
quadratic_ranged_36_ub: [ 1 x_18_ ^ 2 - 2 x_19_ * x_18_ + 1 x_19_ ^ 2 + 1 y_18_ ^ 2 - 2 y_19_ * y_18_ + 1 y_19_ ^ 2 ] <= 9924.26
quadratic_ranged_37_ub: [ 1 x_19_ ^ 2 - 2 x_20_ * x_19_ + 1 x_20_ ^ 2 + 1 y_19_ ^ 2 - 2 y_20_ * y_19_ + 1 y_20_ ^ 2 ] <= 15769.130000000001
quadratic_ranged_38_ub: [ 1 x_5_ ^ 2 - 2 x_21_ * x_5_ + 1 x_21_ ^ 2 + 1 y_5_ ^ 2 - 2 y_21_ * y_5_ + 1 y_21_ ^ 2 ] <= 43375.46
quadratic_ranged_39_ub: [ 1 x_9_ ^ 2 - 2 x_21_ * x_9_ + 1 x_21_ ^ 2 + 1 y_9_ ^ 2 - 2 y_21_ * y_9_ + 1 y_21_ ^ 2 ] <= 11413
quadratic_ranged_40_ub: [ 1 x_20_ ^ 2 - 2 x_21_ * x_20_ + 1 x_21_ ^ 2 + 1 y_20_ ^ 2 - 2 y_21_ * y_20_ + 1 y_21_ ^ 2 ] <= 6807.4
quadratic_ranged_41_ub: [ 1 x_1_ ^ 2 - 2 x_22_ * x_1_ + 1 x_22_ ^ 2 + 1 y_1_ ^ 2 - 2 y_22_ * y_1_ + 1 y_22_ ^ 2 ] <= 8630.45
quadratic_ranged_42_ub: [ 1 x_21_ ^ 2 - 2 x_22_ * x_21_ + 1 x_22_ ^ 2 + 1 y_21_ ^ 2 - 2 y_22_ * y_21_ + 1 y_22_ ^ 2 ] <= 20161.62
quadratic_ranged_43_ub: [ 1 x_22_ ^ 2 - 2 x_23_ * x_22_ + 1 x_23_ ^ 2 + 1 y_22_ ^ 2 - 2 y_23_ * y_22_ + 1 y_23_ ^ 2 ] <= 10339.37
quadratic_ranged_44_ub: [ 1 x_9_ ^ 2 - 2 x_24_ * x_9_ + 1 x_24_ ^ 2 + 1 y_9_ ^ 2 - 2 y_24_ * y_9_ + 1 y_24_ ^ 2 ] <= 9333.41
quadratic_ranged_45_ub: [ 1 x_23_ ^ 2 - 2 x_24_ * x_23_ + 1 x_24_ ^ 2 + 1 y_23_ ^ 2 - 2 y_24_ * y_23_ + 1 y_24_ ^ 2 ] <= 2434.1
quadratic_ranged_46_ub: [ 1 x_1_ ^ 2 - 2 x_25_ * x_1_ + 1 x_25_ ^ 2 + 1 y_1_ ^ 2 - 2 y_25_ * y_1_ + 1 y_25_ ^ 2 ] <= 13237.06
quadratic_ranged_47_ub: [ 1 x_17_ ^ 2 - 2 x_25_ * x_17_ + 1 x_25_ ^ 2 + 1 y_17_ ^ 2 - 2 y_25_ * y_17_ + 1 y_25_ ^ 2 ] <= 2101.81
quadratic_ranged_48_ub: [ 1 x_24_ ^ 2 - 2 x_25_ * x_24_ + 1 x_25_ ^ 2 + 1 y_24_ ^ 2 - 2 y_25_ * y_24_ + 1 y_25_ ^ 2 ] <= 13251.2
quadratic_ranged_49_ub: [ 1 x_19_ ^ 2 - 2 x_26_ * x_19_ + 1 x_26_ ^ 2 + 1 y_19_ ^ 2 - 2 y_26_ * y_19_ + 1 y_26_ ^ 2 ] <= 11599.85
quadratic_ranged_50_ub: [ 1 x_23_ ^ 2 - 2 x_26_ * x_23_ + 1 x_26_ ^ 2 + 1 y_23_ ^ 2 - 2 y_26_ * y_23_ + 1 y_26_ ^ 2 ] <= 4182.41
quadratic_ranged_51_ub: [ 1 x_25_ ^ 2 - 2 x_26_ * x_25_ + 1 x_26_ ^ 2 + 1 y_25_ ^ 2 - 2 y_26_ * y_25_ + 1 y_26_ ^ 2 ] <= 9006.17
quadratic_ranged_52_ub: [ 1 x_1_ ^ 2 - 2 x_27_ * x_1_ + 1 x_27_ ^ 2 + 1 y_1_ ^ 2 - 2 y_27_ * y_1_ + 1 y_27_ ^ 2 ] <= 5706.5
quadratic_ranged_53_ub: [ 1 x_20_ ^ 2 - 2 x_27_ * x_20_ + 1 x_27_ ^ 2 + 1 y_20_ ^ 2 - 2 y_27_ * y_20_ + 1 y_27_ ^ 2 ] <= 14912.65
quadratic_ranged_54_ub: [ 1 x_26_ ^ 2 - 2 x_27_ * x_26_ + 1 x_27_ ^ 2 + 1 y_26_ ^ 2 - 2 y_27_ * y_26_ + 1 y_27_ ^ 2 ] <= 2812.85
quadratic_ranged_55_ub: [ 1 x_3_ ^ 2 - 2 x_28_ * x_3_ + 1 x_28_ ^ 2 + 1 y_3_ ^ 2 - 2 y_28_ * y_3_ + 1 y_28_ ^ 2 ] <= 24460.18
quadratic_ranged_56_ub: [ 1 x_8_ ^ 2 - 2 x_28_ * x_8_ + 1 x_28_ ^ 2 + 1 y_8_ ^ 2 - 2 y_28_ * y_8_ + 1 y_28_ ^ 2 ] <= 15478.25
quadratic_ranged_57_ub: [ 1 x_26_ ^ 2 - 2 x_28_ * x_26_ + 1 x_28_ ^ 2 + 1 y_26_ ^ 2 - 2 y_28_ * y_26_ + 1 y_28_ ^ 2 ] <= 11094.85
quadratic_ranged_58_ub: [ 1 x_27_ ^ 2 - 2 x_28_ * x_27_ + 1 x_28_ ^ 2 + 1 y_27_ ^ 2 - 2 y_28_ * y_27_ + 1 y_28_ ^ 2 ] <= 12802.76
quadratic_ranged_59_ub: [ 1 x_7_ ^ 2 - 2 x_29_ * x_7_ + 1 x_29_ ^ 2 + 1 y_7_ ^ 2 - 2 y_29_ * y_7_ + 1 y_29_ ^ 2 ] <= 4534.9
quadratic_ranged_60_ub: [ 1 x_9_ ^ 2 - 2 x_29_ * x_9_ + 1 x_29_ ^ 2 + 1 y_9_ ^ 2 - 2 y_29_ * y_9_ + 1 y_29_ ^ 2 ] <= 6181.2
quadratic_ranged_61_ub: [ 1 x_20_ ^ 2 - 2 x_29_ * x_20_ + 1 x_29_ ^ 2 + 1 y_20_ ^ 2 - 2 y_29_ * y_20_ + 1 y_29_ ^ 2 ] <= 8637.52
quadratic_ranged_62_ub: [ 1 x_23_ ^ 2 - 2 x_29_ * x_23_ + 1 x_29_ ^ 2 + 1 y_23_ ^ 2 - 2 y_29_ * y_23_ + 1 y_29_ ^ 2 ] <= 17324.53
quadratic_ranged_63_ub: [ 1 x_28_ ^ 2 - 2 x_29_ * x_28_ + 1 x_29_ ^ 2 + 1 y_28_ ^ 2 - 2 y_29_ * y_28_ + 1 y_29_ ^ 2 ] <= 2752.25
quadratic_ranged_64_ub: [ 1 x_22_ ^ 2 - 2 x_30_ * x_22_ + 1 x_30_ ^ 2 + 1 y_22_ ^ 2 - 2 y_30_ * y_22_ + 1 y_30_ ^ 2 ] <= 13606.72
quadratic_ranged_65_ub: [ 1 x_25_ ^ 2 - 2 x_30_ * x_25_ + 1 x_30_ ^ 2 + 1 y_25_ ^ 2 - 2 y_30_ * y_25_ + 1 y_30_ ^ 2 ] <= 11397.85
quadratic_ranged_66_ub: [ 1 x_29_ ^ 2 - 2 x_30_ * x_29_ + 1 x_30_ ^ 2 + 1 y_29_ ^ 2 - 2 y_30_ * y_29_ + 1 y_30_ ^ 2 ] <= 462.58
quadratic_ranged_67_ub: [ 1 x_5_ ^ 2 - 2 x_31_ * x_5_ + 1 x_31_ ^ 2 + 1 y_5_ ^ 2 - 2 y_31_ * y_5_ + 1 y_31_ ^ 2 ] <= 33638.05
quadratic_ranged_68_ub: [ 1 x_21_ ^ 2 - 2 x_31_ * x_21_ + 1 x_31_ ^ 2 + 1 y_21_ ^ 2 - 2 y_31_ * y_21_ + 1 y_31_ ^ 2 ] <= 16884.170000000002
quadratic_ranged_69_ub: [ 1 x_30_ ^ 2 - 2 x_31_ * x_30_ + 1 x_31_ ^ 2 + 1 y_30_ ^ 2 - 2 y_31_ * y_30_ + 1 y_31_ ^ 2 ] <= 10327.25
quadratic_ranged_70_ub: [ 1 x_24_ ^ 2 - 2 x_32_ * x_24_ + 1 x_32_ ^ 2 + 1 y_24_ ^ 2 - 2 y_32_ * y_24_ + 1 y_32_ ^ 2 ] <= 44093.57
quadratic_ranged_71_ub: [ 1 x_26_ ^ 2 - 2 x_32_ * x_26_ + 1 x_32_ ^ 2 + 1 y_26_ ^ 2 - 2 y_32_ * y_26_ + 1 y_32_ ^ 2 ] <= 19596.02
quadratic_ranged_72_ub: [ 1 x_28_ ^ 2 - 2 x_32_ * x_28_ + 1 x_32_ ^ 2 + 1 y_28_ ^ 2 - 2 y_32_ * y_28_ + 1 y_32_ ^ 2 ] <= 9769.73
quadratic_ranged_73_ub: [ 1 x_31_ ^ 2 - 2 x_32_ * x_31_ + 1 x_32_ ^ 2 + 1 y_31_ ^ 2 - 2 y_32_ * y_31_ + 1 y_32_ ^ 2 ] <= 9095.05
quadratic_ranged_74_ub: [ 1 x_11_ ^ 2 - 2 x_33_ * x_11_ + 1 x_33_ ^ 2 + 1 y_11_ ^ 2 - 2 y_33_ * y_11_ + 1 y_33_ ^ 2 ] <= 35200.52
quadratic_ranged_75_ub: [ 1 x_20_ ^ 2 - 2 x_33_ * x_20_ + 1 x_33_ ^ 2 + 1 y_20_ ^ 2 - 2 y_33_ * y_20_ + 1 y_33_ ^ 2 ] <= 23213.84
quadratic_ranged_76_ub: [ 1 x_32_ ^ 2 - 2 x_33_ * x_32_ + 1 x_33_ ^ 2 + 1 y_32_ ^ 2 - 2 y_33_ * y_32_ + 1 y_33_ ^ 2 ] <= 21824.08
quadratic_ranged_77_ub: [ 1 x_15_ ^ 2 - 2 x_34_ * x_15_ + 1 x_34_ ^ 2 + 1 y_15_ ^ 2 - 2 y_34_ * y_15_ + 1 y_34_ ^ 2 ] <= 10188.88
quadratic_ranged_78_ub: [ 1 x_25_ ^ 2 - 2 x_34_ * x_25_ + 1 x_34_ ^ 2 + 1 y_25_ ^ 2 - 2 y_34_ * y_25_ + 1 y_34_ ^ 2 ] <= 12052.33
quadratic_ranged_79_ub: [ 1 x_27_ ^ 2 - 2 x_34_ * x_27_ + 1 x_34_ ^ 2 + 1 y_27_ ^ 2 - 2 y_34_ * y_27_ + 1 y_34_ ^ 2 ] <= 6133.7300000000005
quadratic_ranged_80_ub: [ 1 x_33_ ^ 2 - 2 x_34_ * x_33_ + 1 x_34_ ^ 2 + 1 y_33_ ^ 2 - 2 y_34_ * y_33_ + 1 y_34_ ^ 2 ] <= 8833.460000000001
quadratic_ranged_81_ub: [ 1 x_11_ ^ 2 - 2 x_35_ * x_11_ + 1 x_35_ ^ 2 + 1 y_11_ ^ 2 - 2 y_35_ * y_11_ + 1 y_35_ ^ 2 ] <= 15844.880000000001
quadratic_ranged_82_ub: [ 1 x_20_ ^ 2 - 2 x_35_ * x_20_ + 1 x_35_ ^ 2 + 1 y_20_ ^ 2 - 2 y_35_ * y_20_ + 1 y_35_ ^ 2 ] <= 33422.92
quadratic_ranged_83_ub: [ 1 x_23_ ^ 2 - 2 x_35_ * x_23_ + 1 x_35_ ^ 2 + 1 y_23_ ^ 2 - 2 y_35_ * y_23_ + 1 y_35_ ^ 2 ] <= 7301.29
quadratic_ranged_84_ub: [ 1 x_34_ ^ 2 - 2 x_35_ * x_34_ + 1 x_35_ ^ 2 + 1 y_34_ ^ 2 - 2 y_35_ * y_34_ + 1 y_35_ ^ 2 ] <= 13293.62
quadratic_ranged_85_ub: [ 1 x_4_ ^ 2 - 2 x_36_ * x_4_ + 1 x_36_ ^ 2 + 1 y_4_ ^ 2 - 2 y_36_ * y_4_ + 1 y_36_ ^ 2 ] <= 33019.93
quadratic_ranged_86_ub: [ 1 x_5_ ^ 2 - 2 x_36_ * x_5_ + 1 x_36_ ^ 2 + 1 y_5_ ^ 2 - 2 y_36_ * y_5_ + 1 y_36_ ^ 2 ] <= 55211.65
quadratic_ranged_87_ub: [ 1 x_8_ ^ 2 - 2 x_36_ * x_8_ + 1 x_36_ ^ 2 + 1 y_8_ ^ 2 - 2 y_36_ * y_8_ + 1 y_36_ ^ 2 ] <= 1903.85
quadratic_ranged_88_ub: [ 1 x_13_ ^ 2 - 2 x_36_ * x_13_ + 1 x_36_ ^ 2 + 1 y_13_ ^ 2 - 2 y_36_ * y_13_ + 1 y_36_ ^ 2 ] <= 24951.04
quadratic_ranged_89_ub: [ 1 x_23_ ^ 2 - 2 x_36_ * x_23_ + 1 x_36_ ^ 2 + 1 y_23_ ^ 2 - 2 y_36_ * y_23_ + 1 y_36_ ^ 2 ] <= 38745.62
quadratic_ranged_90_ub: [ 1 x_27_ ^ 2 - 2 x_36_ * x_27_ + 1 x_36_ ^ 2 + 1 y_27_ ^ 2 - 2 y_36_ * y_27_ + 1 y_36_ ^ 2 ] <= 9118.28
quadratic_ranged_91_ub: [ 1 x_35_ ^ 2 - 2 x_36_ * x_35_ + 1 x_36_ ^ 2 + 1 y_35_ ^ 2 - 2 y_36_ * y_35_ + 1 y_36_ ^ 2 ] <= 29731.37
quadratic_ranged_92_ub: [ 1 x_16_ ^ 2 - 2 x_37_ * x_16_ + 1 x_37_ ^ 2 + 1 y_16_ ^ 2 - 2 y_37_ * y_16_ + 1 y_37_ ^ 2 ] <= 3362.29
quadratic_ranged_93_ub: [ 1 x_36_ ^ 2 - 2 x_37_ * x_36_ + 1 x_37_ ^ 2 + 1 y_36_ ^ 2 - 2 y_37_ * y_36_ + 1 y_37_ ^ 2 ] <= 11761.45
quadratic_ranged_94_ub: [ 1 x_4_ ^ 2 - 2 x_38_ * x_4_ + 1 x_38_ ^ 2 + 1 y_4_ ^ 2 - 2 y_38_ * y_4_ + 1 y_38_ ^ 2 ] <= 18281
quadratic_ranged_95_ub: [ 1 x_8_ ^ 2 - 2 x_38_ * x_8_ + 1 x_38_ ^ 2 + 1 y_8_ ^ 2 - 2 y_38_ * y_8_ + 1 y_38_ ^ 2 ] <= 2561.36
quadratic_ranged_96_ub: [ 1 x_22_ ^ 2 - 2 x_38_ * x_22_ + 1 x_38_ ^ 2 + 1 y_22_ ^ 2 - 2 y_38_ * y_22_ + 1 y_38_ ^ 2 ] <= 4179.38
quadratic_ranged_97_ub: [ 1 x_37_ ^ 2 - 2 x_38_ * x_37_ + 1 x_38_ ^ 2 + 1 y_37_ ^ 2 - 2 y_38_ * y_37_ + 1 y_38_ ^ 2 ] <= 26377.16
quadratic_ranged_98_ub: [ 1 x_8_ ^ 2 - 2 x_39_ * x_8_ + 1 x_39_ ^ 2 + 1 y_8_ ^ 2 - 2 y_39_ * y_8_ + 1 y_39_ ^ 2 ] <= 1876.58
quadratic_ranged_99_ub: [ 1 x_9_ ^ 2 - 2 x_39_ * x_9_ + 1 x_39_ ^ 2 + 1 y_9_ ^ 2 - 2 y_39_ * y_9_ + 1 y_39_ ^ 2 ] <= 8736.5
quadratic_ranged_100_ub: [ 1 x_11_ ^ 2 - 2 x_39_ * x_11_ + 1 x_39_ ^ 2 + 1 y_11_ ^ 2 - 2 y_39_ * y_11_ + 1 y_39_ ^ 2 ] <= 13325.94
quadratic_ranged_101_ub: [ 1 x_15_ ^ 2 - 2 x_39_ * x_15_ + 1 x_39_ ^ 2 + 1 y_15_ ^ 2 - 2 y_39_ * y_15_ + 1 y_39_ ^ 2 ] <= 3219.88
quadratic_ranged_102_ub: [ 1 x_16_ ^ 2 - 2 x_39_ * x_16_ + 1 x_39_ ^ 2 + 1 y_16_ ^ 2 - 2 y_39_ * y_16_ + 1 y_39_ ^ 2 ] <= 6206.45
quadratic_ranged_103_ub: [ 1 x_18_ ^ 2 - 2 x_39_ * x_18_ + 1 x_39_ ^ 2 + 1 y_18_ ^ 2 - 2 y_39_ * y_18_ + 1 y_39_ ^ 2 ] <= 2772.45
quadratic_ranged_104_ub: [ 1 x_25_ ^ 2 - 2 x_39_ * x_25_ + 1 x_39_ ^ 2 + 1 y_25_ ^ 2 - 2 y_39_ * y_25_ + 1 y_39_ ^ 2 ] <= 2489.65
quadratic_ranged_105_ub: [ 1 x_38_ ^ 2 - 2 x_39_ * x_38_ + 1 x_39_ ^ 2 + 1 y_38_ ^ 2 - 2 y_39_ * y_38_ + 1 y_39_ ^ 2 ] <= 4656.1
quadratic_ranged_106_ub: [ 1 x_12_ ^ 2 - 2 x_40_ * x_12_ + 1 x_40_ ^ 2 + 1 y_12_ ^ 2 - 2 y_40_ * y_12_ + 1 y_40_ ^ 2 ] <= 25424.73
quadratic_ranged_107_ub: [ 1 x_19_ ^ 2 - 2 x_40_ * x_19_ + 1 x_40_ ^ 2 + 1 y_19_ ^ 2 - 2 y_40_ * y_19_ + 1 y_40_ ^ 2 ] <= 27423.52
quadratic_ranged_108_ub: [ 1 x_39_ ^ 2 - 2 x_40_ * x_39_ + 1 x_40_ ^ 2 + 1 y_39_ ^ 2 - 2 y_40_ * y_39_ + 1 y_40_ ^ 2 ] <= 6594.29
quadratic_ranged_109_ub: [ 1 x_10_ ^ 2 - 2 x_41_ * x_10_ + 1 x_41_ ^ 2 + 1 y_10_ ^ 2 - 2 y_41_ * y_10_ + 1 y_41_ ^ 2 ] <= 10731.25
quadratic_ranged_110_ub: [ 1 x_29_ ^ 2 - 2 x_41_ * x_29_ + 1 x_41_ ^ 2 + 1 y_29_ ^ 2 - 2 y_41_ * y_29_ + 1 y_41_ ^ 2 ] <= 3007.78
quadratic_ranged_111_ub: [ 1 x_40_ ^ 2 - 2 x_41_ * x_40_ + 1 x_41_ ^ 2 + 1 y_40_ ^ 2 - 2 y_41_ * y_40_ + 1 y_41_ ^ 2 ] <= 15821.65
quadratic_ranged_112_ub: [ 1 x_8_ ^ 2 - 2 x_42_ * x_8_ + 1 x_42_ ^ 2 + 1 y_8_ ^ 2 - 2 y_42_ * y_8_ + 1 y_42_ ^ 2 ] <= 13384.52
quadratic_ranged_113_ub: [ 1 x_18_ ^ 2 - 2 x_42_ * x_18_ + 1 x_42_ ^ 2 + 1 y_18_ ^ 2 - 2 y_42_ * y_18_ + 1 y_42_ ^ 2 ] <= 9398.05
quadratic_ranged_114_ub: [ 1 x_27_ ^ 2 - 2 x_42_ * x_27_ + 1 x_42_ ^ 2 + 1 y_27_ ^ 2 - 2 y_42_ * y_27_ + 1 y_42_ ^ 2 ] <= 4146.05
quadratic_ranged_115_ub: [ 1 x_41_ ^ 2 - 2 x_42_ * x_41_ + 1 x_42_ ^ 2 + 1 y_41_ ^ 2 - 2 y_42_ * y_41_ + 1 y_42_ ^ 2 ] <= 1464.5
quadratic_ranged_116_ub: [ 1 x_12_ ^ 2 - 2 x_43_ * x_12_ + 1 x_43_ ^ 2 + 1 y_12_ ^ 2 - 2 y_43_ * y_12_ + 1 y_43_ ^ 2 ] <= 12833.06
quadratic_ranged_117_ub: [ 1 x_18_ ^ 2 - 2 x_43_ * x_18_ + 1 x_43_ ^ 2 + 1 y_18_ ^ 2 - 2 y_43_ * y_18_ + 1 y_43_ ^ 2 ] <= 37.37
quadratic_ranged_118_ub: [ 1 x_35_ ^ 2 - 2 x_43_ * x_35_ + 1 x_43_ ^ 2 + 1 y_35_ ^ 2 - 2 y_43_ * y_35_ + 1 y_43_ ^ 2 ] <= 17856.8
quadratic_ranged_119_ub: [ 1 x_39_ ^ 2 - 2 x_43_ * x_39_ + 1 x_43_ ^ 2 + 1 y_39_ ^ 2 - 2 y_43_ * y_39_ + 1 y_43_ ^ 2 ] <= 2458.34
quadratic_ranged_120_ub: [ 1 x_42_ ^ 2 - 2 x_43_ * x_42_ + 1 x_43_ ^ 2 + 1 y_42_ ^ 2 - 2 y_43_ * y_42_ + 1 y_43_ ^ 2 ] <= 8261.8
quadratic_ranged_121_ub: [ 1 x_2_ ^ 2 - 2 x_44_ * x_2_ + 1 x_44_ ^ 2 + 1 y_2_ ^ 2 - 2 y_44_ * y_2_ + 1 y_44_ ^ 2 ] <= 36498.37
quadratic_ranged_122_ub: [ 1 x_35_ ^ 2 - 2 x_44_ * x_35_ + 1 x_44_ ^ 2 + 1 y_35_ ^ 2 - 2 y_44_ * y_35_ + 1 y_44_ ^ 2 ] <= 29205.16
quadratic_ranged_123_ub: [ 1 x_43_ ^ 2 - 2 x_44_ * x_43_ + 1 x_44_ ^ 2 + 1 y_43_ ^ 2 - 2 y_44_ * y_43_ + 1 y_44_ ^ 2 ] <= 1603.88
quadratic_ranged_124_ub: [ 1 x_4_ ^ 2 - 2 x_45_ * x_4_ + 1 x_45_ ^ 2 + 1 y_4_ ^ 2 - 2 y_45_ * y_4_ + 1 y_45_ ^ 2 ] <= 24369.28
quadratic_ranged_125_ub: [ 1 x_25_ ^ 2 - 2 x_45_ * x_25_ + 1 x_45_ ^ 2 + 1 y_25_ ^ 2 - 2 y_45_ * y_25_ + 1 y_45_ ^ 2 ] <= 4731.85
quadratic_ranged_126_ub: [ 1 x_27_ ^ 2 - 2 x_45_ * x_27_ + 1 x_45_ ^ 2 + 1 y_27_ ^ 2 - 2 y_45_ * y_27_ + 1 y_45_ ^ 2 ] <= 5042.93
quadratic_ranged_127_ub: [ 1 x_31_ ^ 2 - 2 x_45_ * x_31_ + 1 x_45_ ^ 2 + 1 y_31_ ^ 2 - 2 y_45_ * y_31_ + 1 y_45_ ^ 2 ] <= 2376.53
quadratic_ranged_128_ub: [ 1 x_34_ ^ 2 - 2 x_45_ * x_34_ + 1 x_45_ ^ 2 + 1 y_34_ ^ 2 - 2 y_45_ * y_34_ + 1 y_45_ ^ 2 ] <= 4672.26
quadratic_ranged_129_ub: [ 1 x_37_ ^ 2 - 2 x_45_ * x_37_ + 1 x_45_ ^ 2 + 1 y_37_ ^ 2 - 2 y_45_ * y_37_ + 1 y_45_ ^ 2 ] <= 13218.880000000001
quadratic_ranged_130_ub: [ 1 x_42_ ^ 2 - 2 x_45_ * x_42_ + 1 x_45_ ^ 2 + 1 y_42_ ^ 2 - 2 y_45_ * y_42_ + 1 y_45_ ^ 2 ] <= 13606.72
quadratic_ranged_131_ub: [ 1 x_44_ ^ 2 - 2 x_45_ * x_44_ + 1 x_45_ ^ 2 + 1 y_44_ ^ 2 - 2 y_45_ * y_44_ + 1 y_45_ ^ 2 ] <= 468.64
quadratic_ranged_132_ub: [ 1 x_12_ ^ 2 - 2 x_46_ * x_12_ + 1 x_46_ ^ 2 + 1 y_12_ ^ 2 - 2 y_46_ * y_12_ + 1 y_46_ ^ 2 ] <= 4300.58
quadratic_ranged_133_ub: [ 1 x_20_ ^ 2 - 2 x_46_ * x_20_ + 1 x_46_ ^ 2 + 1 y_20_ ^ 2 - 2 y_46_ * y_20_ + 1 y_46_ ^ 2 ] <= 30562.6
quadratic_ranged_134_ub: [ 1 x_22_ ^ 2 - 2 x_46_ * x_22_ + 1 x_46_ ^ 2 + 1 y_22_ ^ 2 - 2 y_46_ * y_22_ + 1 y_46_ ^ 2 ] <= 16032.74
quadratic_ranged_135_ub: [ 1 x_26_ ^ 2 - 2 x_46_ * x_26_ + 1 x_46_ ^ 2 + 1 y_26_ ^ 2 - 2 y_46_ * y_26_ + 1 y_46_ ^ 2 ] <= 2482.58
quadratic_ranged_136_ub: [ 1 x_39_ ^ 2 - 2 x_46_ * x_39_ + 1 x_46_ ^ 2 + 1 y_39_ ^ 2 - 2 y_46_ * y_39_ + 1 y_46_ ^ 2 ] <= 12194.74
quadratic_ranged_137_ub: [ 1 x_40_ ^ 2 - 2 x_46_ * x_40_ + 1 x_46_ ^ 2 + 1 y_40_ ^ 2 - 2 y_46_ * y_40_ + 1 y_46_ ^ 2 ] <= 11696.81
quadratic_ranged_138_ub: [ 1 x_45_ ^ 2 - 2 x_46_ * x_45_ + 1 x_46_ ^ 2 + 1 y_45_ ^ 2 - 2 y_46_ * y_45_ + 1 y_46_ ^ 2 ] <= 23436.04
quadratic_ranged_139_ub: [ 1 x_4_ ^ 2 - 2 x_47_ * x_4_ + 1 x_47_ ^ 2 + 1 y_4_ ^ 2 - 2 y_47_ * y_4_ + 1 y_47_ ^ 2 ] <= 14208.68
quadratic_ranged_140_ub: [ 1 x_9_ ^ 2 - 2 x_47_ * x_9_ + 1 x_47_ ^ 2 + 1 y_9_ ^ 2 - 2 y_47_ * y_9_ + 1 y_47_ ^ 2 ] <= 20430.28
quadratic_ranged_141_ub: [ 1 x_17_ ^ 2 - 2 x_47_ * x_17_ + 1 x_47_ ^ 2 + 1 y_17_ ^ 2 - 2 y_47_ * y_17_ + 1 y_47_ ^ 2 ] <= 1656.4
quadratic_ranged_142_ub: [ 1 x_23_ ^ 2 - 2 x_47_ * x_23_ + 1 x_47_ ^ 2 + 1 y_23_ ^ 2 - 2 y_47_ * y_23_ + 1 y_47_ ^ 2 ] <= 22774.49
quadratic_ranged_143_ub: [ 1 x_27_ ^ 2 - 2 x_47_ * x_27_ + 1 x_47_ ^ 2 + 1 y_27_ ^ 2 - 2 y_47_ * y_27_ + 1 y_47_ ^ 2 ] <= 4792.45
quadratic_ranged_144_ub: [ 1 x_32_ ^ 2 - 2 x_47_ * x_32_ + 1 x_47_ ^ 2 + 1 y_32_ ^ 2 - 2 y_47_ * y_32_ + 1 y_47_ ^ 2 ] <= 15291.4
quadratic_ranged_145_ub: [ 1 x_40_ ^ 2 - 2 x_47_ * x_40_ + 1 x_47_ ^ 2 + 1 y_40_ ^ 2 - 2 y_47_ * y_40_ + 1 y_47_ ^ 2 ] <= 6974.05
quadratic_ranged_146_ub: [ 1 x_46_ ^ 2 - 2 x_47_ * x_46_ + 1 x_47_ ^ 2 + 1 y_46_ ^ 2 - 2 y_47_ * y_46_ + 1 y_47_ ^ 2 ] <= 27835.6
quadratic_ranged_147_ub: [ 1 x_47_ ^ 2 - 2 x_48_ * x_47_ + 1 x_48_ ^ 2 + 1 y_47_ ^ 2 - 2 y_48_ * y_47_ + 1 y_48_ ^ 2 ] <= 39900.05
quadratic_ranged_148_ub: [ 1 x_23_ ^ 2 - 2 x_49_ * x_23_ + 1 x_49_ ^ 2 + 1 y_23_ ^ 2 - 2 y_49_ * y_23_ + 1 y_49_ ^ 2 ] <= 24387.46
quadratic_ranged_149_ub: [ 1 x_34_ ^ 2 - 2 x_49_ * x_34_ + 1 x_49_ ^ 2 + 1 y_34_ ^ 2 - 2 y_49_ * y_34_ + 1 y_49_ ^ 2 ] <= 17918.41
quadratic_ranged_150_ub: [ 1 x_39_ ^ 2 - 2 x_49_ * x_39_ + 1 x_49_ ^ 2 + 1 y_39_ ^ 2 - 2 y_49_ * y_39_ + 1 y_49_ ^ 2 ] <= 5883.25
quadratic_ranged_151_ub: [ 1 x_42_ ^ 2 - 2 x_49_ * x_42_ + 1 x_49_ ^ 2 + 1 y_42_ ^ 2 - 2 y_49_ * y_42_ + 1 y_49_ ^ 2 ] <= 19570.77
quadratic_ranged_152_ub: [ 1 x_48_ ^ 2 - 2 x_49_ * x_48_ + 1 x_49_ ^ 2 + 1 y_48_ ^ 2 - 2 y_49_ * y_48_ + 1 y_49_ ^ 2 ] <= 42488.68
quadratic_ranged_153_ub: [ 1 x_3_ ^ 2 - 2 x_50_ * x_3_ + 1 x_50_ ^ 2 + 1 y_3_ ^ 2 - 2 y_50_ * y_3_ + 1 y_50_ ^ 2 ] <= 10961.53
quadratic_ranged_154_ub: [ 1 x_27_ ^ 2 - 2 x_50_ * x_27_ + 1 x_50_ ^ 2 + 1 y_27_ ^ 2 - 2 y_50_ * y_27_ + 1 y_50_ ^ 2 ] <= 1435.21
quadratic_ranged_155_ub: [ 1 x_36_ ^ 2 - 2 x_50_ * x_36_ + 1 x_50_ ^ 2 + 1 y_36_ ^ 2 - 2 y_50_ * y_36_ + 1 y_50_ ^ 2 ] <= 8206.25
quadratic_ranged_156_ub: [ 1 x_49_ ^ 2 - 2 x_50_ * x_49_ + 1 x_50_ ^ 2 + 1 y_49_ ^ 2 - 2 y_50_ * y_49_ + 1 y_50_ ^ 2 ] <= 12193.73
quadratic_ranged_157_ub: [ 1 x_1_ ^ 2 - 2 x_51_ * x_1_ + 1 x_51_ ^ 2 + 1 y_1_ ^ 2 - 2 y_51_ * y_1_ + 1 y_51_ ^ 2 ] <= 8440.57
quadratic_ranged_158_ub: [ 1 x_16_ ^ 2 - 2 x_51_ * x_16_ + 1 x_51_ ^ 2 + 1 y_16_ ^ 2 - 2 y_51_ * y_16_ + 1 y_51_ ^ 2 ] <= 1968.49
quadratic_ranged_159_ub: [ 1 x_34_ ^ 2 - 2 x_51_ * x_34_ + 1 x_51_ ^ 2 + 1 y_34_ ^ 2 - 2 y_51_ * y_34_ + 1 y_51_ ^ 2 ] <= 3365.32
quadratic_ranged_160_ub: [ 1 x_35_ ^ 2 - 2 x_51_ * x_35_ + 1 x_51_ ^ 2 + 1 y_35_ ^ 2 - 2 y_51_ * y_35_ + 1 y_51_ ^ 2 ] <= 4922.74
quadratic_ranged_161_ub: [ 1 x_39_ ^ 2 - 2 x_51_ * x_39_ + 1 x_51_ ^ 2 + 1 y_39_ ^ 2 - 2 y_51_ * y_39_ + 1 y_51_ ^ 2 ] <= 9413.2
quadratic_ranged_162_ub: [ 1 x_50_ ^ 2 - 2 x_51_ * x_50_ + 1 x_51_ ^ 2 + 1 y_50_ ^ 2 - 2 y_51_ * y_50_ + 1 y_51_ ^ 2 ] <= 4076.36
quadratic_ranged_163_ub: [ 1 x_5_ ^ 2 - 2 x_52_ * x_5_ + 1 x_52_ ^ 2 + 1 y_5_ ^ 2 - 2 y_52_ * y_5_ + 1 y_52_ ^ 2 ] <= 69594.05
quadratic_ranged_164_ub: [ 1 x_8_ ^ 2 - 2 x_52_ * x_8_ + 1 x_52_ ^ 2 + 1 y_8_ ^ 2 - 2 y_52_ * y_8_ + 1 y_52_ ^ 2 ] <= 9119.29
quadratic_ranged_165_ub: [ 1 x_9_ ^ 2 - 2 x_52_ * x_9_ + 1 x_52_ ^ 2 + 1 y_9_ ^ 2 - 2 y_52_ * y_9_ + 1 y_52_ ^ 2 ] <= 28737.53
quadratic_ranged_166_ub: [ 1 x_14_ ^ 2 - 2 x_52_ * x_14_ + 1 x_52_ ^ 2 + 1 y_14_ ^ 2 - 2 y_52_ * y_14_ + 1 y_52_ ^ 2 ] <= 18474.920000000002
quadratic_ranged_167_ub: [ 1 x_16_ ^ 2 - 2 x_52_ * x_16_ + 1 x_52_ ^ 2 + 1 y_16_ ^ 2 - 2 y_52_ * y_16_ + 1 y_52_ ^ 2 ] <= 18359.78
quadratic_ranged_168_ub: [ 1 x_24_ ^ 2 - 2 x_52_ * x_24_ + 1 x_52_ ^ 2 + 1 y_24_ ^ 2 - 2 y_52_ * y_24_ + 1 y_52_ ^ 2 ] <= 55487.38
quadratic_ranged_169_ub: [ 1 x_36_ ^ 2 - 2 x_52_ * x_36_ + 1 x_52_ ^ 2 + 1 y_36_ ^ 2 - 2 y_52_ * y_36_ + 1 y_52_ ^ 2 ] <= 2918.9
quadratic_ranged_170_ub: [ 1 x_42_ ^ 2 - 2 x_52_ * x_42_ + 1 x_52_ ^ 2 + 1 y_42_ ^ 2 - 2 y_52_ * y_42_ + 1 y_52_ ^ 2 ] <= 19893.97
quadratic_ranged_171_ub: [ 1 x_51_ ^ 2 - 2 x_52_ * x_51_ + 1 x_52_ ^ 2 + 1 y_51_ ^ 2 - 2 y_52_ * y_51_ + 1 y_52_ ^ 2 ] <= 12145.25
quadratic_ranged_172_ub: [ 1 x_5_ ^ 2 - 2 x_53_ * x_5_ + 1 x_53_ ^ 2 + 1 y_5_ ^ 2 - 2 y_53_ * y_5_ + 1 y_53_ ^ 2 ] <= 36554.93
quadratic_ranged_173_ub: [ 1 x_11_ ^ 2 - 2 x_53_ * x_11_ + 1 x_53_ ^ 2 + 1 y_11_ ^ 2 - 2 y_53_ * y_11_ + 1 y_53_ ^ 2 ] <= 31335.25
quadratic_ranged_174_ub: [ 1 x_17_ ^ 2 - 2 x_53_ * x_17_ + 1 x_53_ ^ 2 + 1 y_17_ ^ 2 - 2 y_53_ * y_17_ + 1 y_53_ ^ 2 ] <= 33104.77
quadratic_ranged_175_ub: [ 1 x_27_ ^ 2 - 2 x_53_ * x_27_ + 1 x_53_ ^ 2 + 1 y_27_ ^ 2 - 2 y_53_ * y_27_ + 1 y_53_ ^ 2 ] <= 15485.32
quadratic_ranged_176_ub: [ 1 x_28_ ^ 2 - 2 x_53_ * x_28_ + 1 x_53_ ^ 2 + 1 y_28_ ^ 2 - 2 y_53_ * y_28_ + 1 y_53_ ^ 2 ] <= 1632.16
quadratic_ranged_177_ub: [ 1 x_30_ ^ 2 - 2 x_53_ * x_30_ + 1 x_53_ ^ 2 + 1 y_30_ ^ 2 - 2 y_53_ * y_30_ + 1 y_53_ ^ 2 ] <= 6335.7300000000005
quadratic_ranged_178_ub: [ 1 x_35_ ^ 2 - 2 x_53_ * x_35_ + 1 x_53_ ^ 2 + 1 y_35_ ^ 2 - 2 y_53_ * y_35_ + 1 y_53_ ^ 2 ] <= 4634.89
quadratic_ranged_179_ub: [ 1 x_41_ ^ 2 - 2 x_53_ * x_41_ + 1 x_53_ ^ 2 + 1 y_41_ ^ 2 - 2 y_53_ * y_41_ + 1 y_53_ ^ 2 ] <= 1103.93
quadratic_ranged_180_ub: [ 1 x_46_ ^ 2 - 2 x_53_ * x_46_ + 1 x_53_ ^ 2 + 1 y_46_ ^ 2 - 2 y_53_ * y_46_ + 1 y_53_ ^ 2 ] <= 4768.21
quadratic_ranged_181_ub: [ 1 x_52_ ^ 2 - 2 x_53_ * x_52_ + 1 x_53_ ^ 2 + 1 y_52_ ^ 2 - 2 y_53_ * y_52_ + 1 y_53_ ^ 2 ] <= 16372.1
quadratic_ranged_182_ub: [ 1 x_13_ ^ 2 - 2 x_54_ * x_13_ + 1 x_54_ ^ 2 + 1 y_13_ ^ 2 - 2 y_54_ * y_13_ + 1 y_54_ ^ 2 ] <= 13575.41
quadratic_ranged_183_ub: [ 1 x_28_ ^ 2 - 2 x_54_ * x_28_ + 1 x_54_ ^ 2 + 1 y_28_ ^ 2 - 2 y_54_ * y_28_ + 1 y_54_ ^ 2 ] <= 34276.37
quadratic_ranged_184_ub: [ 1 x_53_ ^ 2 - 2 x_54_ * x_53_ + 1 x_54_ ^ 2 + 1 y_53_ ^ 2 - 2 y_54_ * y_53_ + 1 y_54_ ^ 2 ] <= 35149.01
quadratic_ranged_185_ub: [ 1 x_1_ ^ 2 - 2 x_55_ * x_1_ + 1 x_55_ ^ 2 + 1 y_1_ ^ 2 - 2 y_55_ * y_1_ + 1 y_55_ ^ 2 ] <= 828.2
quadratic_ranged_186_ub: [ 1 x_2_ ^ 2 - 2 x_55_ * x_2_ + 1 x_55_ ^ 2 + 1 y_2_ ^ 2 - 2 y_55_ * y_2_ + 1 y_55_ ^ 2 ] <= 7694.18
quadratic_ranged_187_ub: [ 1 x_7_ ^ 2 - 2 x_55_ * x_7_ + 1 x_55_ ^ 2 + 1 y_7_ ^ 2 - 2 y_55_ * y_7_ + 1 y_55_ ^ 2 ] <= 20196.97
quadratic_ranged_188_ub: [ 1 x_15_ ^ 2 - 2 x_55_ * x_15_ + 1 x_55_ ^ 2 + 1 y_15_ ^ 2 - 2 y_55_ * y_15_ + 1 y_55_ ^ 2 ] <= 24487.45
quadratic_ranged_189_ub: [ 1 x_18_ ^ 2 - 2 x_55_ * x_18_ + 1 x_55_ ^ 2 + 1 y_18_ ^ 2 - 2 y_55_ * y_18_ + 1 y_55_ ^ 2 ] <= 15578.24
quadratic_ranged_190_ub: [ 1 x_19_ ^ 2 - 2 x_55_ * x_19_ + 1 x_55_ ^ 2 + 1 y_19_ ^ 2 - 2 y_55_ * y_19_ + 1 y_55_ ^ 2 ] <= 8195.14
quadratic_ranged_191_ub: [ 1 x_48_ ^ 2 - 2 x_55_ * x_48_ + 1 x_55_ ^ 2 + 1 y_48_ ^ 2 - 2 y_55_ * y_48_ + 1 y_55_ ^ 2 ] <= 4542.9800000000005
quadratic_ranged_192_ub: [ 1 x_51_ ^ 2 - 2 x_55_ * x_51_ + 1 x_55_ ^ 2 + 1 y_51_ ^ 2 - 2 y_55_ * y_51_ + 1 y_55_ ^ 2 ] <= 4780.33
quadratic_ranged_193_ub: [ 1 x_53_ ^ 2 - 2 x_55_ * x_53_ + 1 x_55_ ^ 2 + 1 y_53_ ^ 2 - 2 y_55_ * y_53_ + 1 y_55_ ^ 2 ] <= 5674.18
quadratic_ranged_194_ub: [ 1 x_54_ ^ 2 - 2 x_55_ * x_54_ + 1 x_55_ ^ 2 + 1 y_54_ ^ 2 - 2 y_55_ * y_54_ + 1 y_55_ ^ 2 ] <= 15963.05
quadratic_ranged_195_ub: [ 1 x_16_ ^ 2 - 2 x_56_ * x_16_ + 1 x_56_ ^ 2 + 1 y_16_ ^ 2 - 2 y_56_ * y_16_ + 1 y_56_ ^ 2 ] <= 13988.5
quadratic_ranged_196_ub: [ 1 x_28_ ^ 2 - 2 x_56_ * x_28_ + 1 x_56_ ^ 2 + 1 y_28_ ^ 2 - 2 y_56_ * y_28_ + 1 y_56_ ^ 2 ] <= 18432.5
quadratic_ranged_197_ub: [ 1 x_40_ ^ 2 - 2 x_56_ * x_40_ + 1 x_56_ ^ 2 + 1 y_40_ ^ 2 - 2 y_56_ * y_40_ + 1 y_56_ ^ 2 ] <= 9188.98
quadratic_ranged_198_ub: [ 1 x_53_ ^ 2 - 2 x_56_ * x_53_ + 1 x_56_ ^ 2 + 1 y_53_ ^ 2 - 2 y_56_ * y_53_ + 1 y_56_ ^ 2 ] <= 25389.38
quadratic_ranged_199_ub: [ 1 x_55_ ^ 2 - 2 x_56_ * x_55_ + 1 x_56_ ^ 2 + 1 y_55_ ^ 2 - 2 y_56_ * y_55_ + 1 y_56_ ^ 2 ] <= 19303.12
quadratic_ranged_200_ub: [ 1 x_14_ ^ 2 - 2 x_57_ * x_14_ + 1 x_57_ ^ 2 + 1 y_14_ ^ 2 - 2 y_57_ * y_14_ + 1 y_57_ ^ 2 ] <= 9555.61
quadratic_ranged_201_ub: [ 1 x_16_ ^ 2 - 2 x_57_ * x_16_ + 1 x_57_ ^ 2 + 1 y_16_ ^ 2 - 2 y_57_ * y_16_ + 1 y_57_ ^ 2 ] <= 6953.85
quadratic_ranged_202_ub: [ 1 x_26_ ^ 2 - 2 x_57_ * x_26_ + 1 x_57_ ^ 2 + 1 y_26_ ^ 2 - 2 y_57_ * y_26_ + 1 y_57_ ^ 2 ] <= 2040.2
quadratic_ranged_203_ub: [ 1 x_31_ ^ 2 - 2 x_57_ * x_31_ + 1 x_57_ ^ 2 + 1 y_31_ ^ 2 - 2 y_57_ * y_31_ + 1 y_57_ ^ 2 ] <= 8840.53
quadratic_ranged_204_ub: [ 1 x_41_ ^ 2 - 2 x_57_ * x_41_ + 1 x_57_ ^ 2 + 1 y_41_ ^ 2 - 2 y_57_ * y_41_ + 1 y_57_ ^ 2 ] <= 12031.12
quadratic_ranged_205_ub: [ 1 x_45_ ^ 2 - 2 x_57_ * x_45_ + 1 x_57_ ^ 2 + 1 y_45_ ^ 2 - 2 y_57_ * y_45_ + 1 y_57_ ^ 2 ] <= 14166.26
quadratic_ranged_206_ub: [ 1 x_49_ ^ 2 - 2 x_57_ * x_49_ + 1 x_57_ ^ 2 + 1 y_49_ ^ 2 - 2 y_57_ * y_49_ + 1 y_57_ ^ 2 ] <= 9151.61
quadratic_ranged_207_ub: [ 1 x_54_ ^ 2 - 2 x_57_ * x_54_ + 1 x_57_ ^ 2 + 1 y_54_ ^ 2 - 2 y_57_ * y_54_ + 1 y_57_ ^ 2 ] <= 2143.22
quadratic_ranged_208_ub: [ 1 x_56_ ^ 2 - 2 x_57_ * x_56_ + 1 x_57_ ^ 2 + 1 y_56_ ^ 2 - 2 y_57_ * y_56_ + 1 y_57_ ^ 2 ] <= 9034.45
quadratic_ranged_209_ub: [ 1 x_4_ ^ 2 - 2 x_58_ * x_4_ + 1 x_58_ ^ 2 + 1 y_4_ ^ 2 - 2 y_58_ * y_4_ + 1 y_58_ ^ 2 ] <= 19647.53
quadratic_ranged_210_ub: [ 1 x_20_ ^ 2 - 2 x_58_ * x_20_ + 1 x_58_ ^ 2 + 1 y_20_ ^ 2 - 2 y_58_ * y_20_ + 1 y_58_ ^ 2 ] <= 11862.45
quadratic_ranged_211_ub: [ 1 x_21_ ^ 2 - 2 x_58_ * x_21_ + 1 x_58_ ^ 2 + 1 y_21_ ^ 2 - 2 y_58_ * y_21_ + 1 y_58_ ^ 2 ] <= 18051.73
quadratic_ranged_212_ub: [ 1 x_34_ ^ 2 - 2 x_58_ * x_34_ + 1 x_58_ ^ 2 + 1 y_34_ ^ 2 - 2 y_58_ * y_34_ + 1 y_58_ ^ 2 ] <= 11531.17
quadratic_ranged_213_ub: [ 1 x_46_ ^ 2 - 2 x_58_ * x_46_ + 1 x_58_ ^ 2 + 1 y_46_ ^ 2 - 2 y_58_ * y_46_ + 1 y_58_ ^ 2 ] <= 28062.85
quadratic_ranged_214_ub: [ 1 x_50_ ^ 2 - 2 x_58_ * x_50_ + 1 x_58_ ^ 2 + 1 y_50_ ^ 2 - 2 y_58_ * y_50_ + 1 y_58_ ^ 2 ] <= 9216.25
quadratic_ranged_215_ub: [ 1 x_51_ ^ 2 - 2 x_58_ * x_51_ + 1 x_58_ ^ 2 + 1 y_51_ ^ 2 - 2 y_58_ * y_51_ + 1 y_58_ ^ 2 ] <= 23804.69
quadratic_ranged_216_ub: [ 1 x_57_ ^ 2 - 2 x_58_ * x_57_ + 1 x_58_ ^ 2 + 1 y_57_ ^ 2 - 2 y_58_ * y_57_ + 1 y_58_ ^ 2 ] <= 11288.77
quadratic_ranged_217_ub: [ 1 x_19_ ^ 2 - 2 x_59_ * x_19_ + 1 x_59_ ^ 2 + 1 y_19_ ^ 2 - 2 y_59_ * y_19_ + 1 y_59_ ^ 2 ] <= 428.24
quadratic_ranged_218_ub: [ 1 x_21_ ^ 2 - 2 x_59_ * x_21_ + 1 x_59_ ^ 2 + 1 y_21_ ^ 2 - 2 y_59_ * y_21_ + 1 y_59_ ^ 2 ] <= 598.93
quadratic_ranged_219_ub: [ 1 x_34_ ^ 2 - 2 x_59_ * x_34_ + 1 x_59_ ^ 2 + 1 y_34_ ^ 2 - 2 y_59_ * y_34_ + 1 y_59_ ^ 2 ] <= 2465.41
quadratic_ranged_220_ub: [ 1 x_42_ ^ 2 - 2 x_59_ * x_42_ + 1 x_59_ ^ 2 + 1 y_42_ ^ 2 - 2 y_59_ * y_42_ + 1 y_59_ ^ 2 ] <= 5580.25
quadratic_ranged_221_ub: [ 1 x_57_ ^ 2 - 2 x_59_ * x_57_ + 1 x_59_ ^ 2 + 1 y_57_ ^ 2 - 2 y_59_ * y_57_ + 1 y_59_ ^ 2 ] <= 19578.85
quadratic_ranged_222_ub: [ 1 x_58_ ^ 2 - 2 x_59_ * x_58_ + 1 x_59_ ^ 2 + 1 y_58_ ^ 2 - 2 y_59_ * y_58_ + 1 y_59_ ^ 2 ] <= 23852.16
quadratic_ranged_223_ub: [ 1 x_15_ ^ 2 - 2 x_60_ * x_15_ + 1 x_60_ ^ 2 + 1 y_15_ ^ 2 - 2 y_60_ * y_15_ + 1 y_60_ ^ 2 ] <= 8009.3
quadratic_ranged_224_ub: [ 1 x_27_ ^ 2 - 2 x_60_ * x_27_ + 1 x_60_ ^ 2 + 1 y_27_ ^ 2 - 2 y_60_ * y_27_ + 1 y_60_ ^ 2 ] <= 3176.45
quadratic_ranged_225_ub: [ 1 x_31_ ^ 2 - 2 x_60_ * x_31_ + 1 x_60_ ^ 2 + 1 y_31_ ^ 2 - 2 y_60_ * y_31_ + 1 y_60_ ^ 2 ] <= 5131.81
quadratic_ranged_226_ub: [ 1 x_41_ ^ 2 - 2 x_60_ * x_41_ + 1 x_60_ ^ 2 + 1 y_41_ ^ 2 - 2 y_60_ * y_41_ + 1 y_60_ ^ 2 ] <= 20323.22
quadratic_ranged_227_ub: [ 1 x_42_ ^ 2 - 2 x_60_ * x_42_ + 1 x_60_ ^ 2 + 1 y_42_ ^ 2 - 2 y_60_ * y_42_ + 1 y_60_ ^ 2 ] <= 11073.64
quadratic_ranged_228_ub: [ 1 x_59_ ^ 2 - 2 x_60_ * x_59_ + 1 x_60_ ^ 2 + 1 y_59_ ^ 2 - 2 y_60_ * y_59_ + 1 y_60_ ^ 2 ] <= 27137.69
quadratic_ranged_229_ub: [ 1 x_2_ ^ 2 - 2 x_61_ * x_2_ + 1 x_61_ ^ 2 + 1 y_2_ ^ 2 - 2 y_61_ * y_2_ + 1 y_61_ ^ 2 ] <= 30971.65
quadratic_ranged_230_ub: [ 1 x_27_ ^ 2 - 2 x_61_ * x_27_ + 1 x_61_ ^ 2 + 1 y_27_ ^ 2 - 2 y_61_ * y_27_ + 1 y_61_ ^ 2 ] <= 5786.29
quadratic_ranged_231_ub: [ 1 x_37_ ^ 2 - 2 x_61_ * x_37_ + 1 x_61_ ^ 2 + 1 y_37_ ^ 2 - 2 y_61_ * y_37_ + 1 y_61_ ^ 2 ] <= 9453.6
quadratic_ranged_232_ub: [ 1 x_46_ ^ 2 - 2 x_61_ * x_46_ + 1 x_61_ ^ 2 + 1 y_46_ ^ 2 - 2 y_61_ * y_46_ + 1 y_61_ ^ 2 ] <= 21044.36
quadratic_ranged_233_ub: [ 1 x_60_ ^ 2 - 2 x_61_ * x_60_ + 1 x_61_ ^ 2 + 1 y_60_ ^ 2 - 2 y_61_ * y_60_ + 1 y_61_ ^ 2 ] <= 15178.28
quadratic_ranged_234_ub: [ 1 x_14_ ^ 2 - 2 x_62_ * x_14_ + 1 x_62_ ^ 2 + 1 y_14_ ^ 2 - 2 y_62_ * y_14_ + 1 y_62_ ^ 2 ] <= 15114.65
quadratic_ranged_235_ub: [ 1 x_24_ ^ 2 - 2 x_62_ * x_24_ + 1 x_62_ ^ 2 + 1 y_24_ ^ 2 - 2 y_62_ * y_24_ + 1 y_62_ ^ 2 ] <= 34401.61
quadratic_ranged_236_ub: [ 1 x_41_ ^ 2 - 2 x_62_ * x_41_ + 1 x_62_ ^ 2 + 1 y_41_ ^ 2 - 2 y_62_ * y_41_ + 1 y_62_ ^ 2 ] <= 15725.7
quadratic_ranged_237_ub: [ 1 x_56_ ^ 2 - 2 x_62_ * x_56_ + 1 x_62_ ^ 2 + 1 y_56_ ^ 2 - 2 y_62_ * y_56_ + 1 y_62_ ^ 2 ] <= 2901.73
quadratic_ranged_238_ub: [ 1 x_61_ ^ 2 - 2 x_62_ * x_61_ + 1 x_62_ ^ 2 + 1 y_61_ ^ 2 - 2 y_62_ * y_61_ + 1 y_62_ ^ 2 ] <= 36.36
quadratic_ranged_239_ub: [ 1 x_5_ ^ 2 - 2 x_63_ * x_5_ + 1 x_63_ ^ 2 + 1 y_5_ ^ 2 - 2 y_63_ * y_5_ + 1 y_63_ ^ 2 ] <= 3653.17
quadratic_ranged_240_ub: [ 1 x_9_ ^ 2 - 2 x_63_ * x_9_ + 1 x_63_ ^ 2 + 1 y_9_ ^ 2 - 2 y_63_ * y_9_ + 1 y_63_ ^ 2 ] <= 2954.25
quadratic_ranged_241_ub: [ 1 x_16_ ^ 2 - 2 x_63_ * x_16_ + 1 x_63_ ^ 2 + 1 y_16_ ^ 2 - 2 y_63_ * y_16_ + 1 y_63_ ^ 2 ] <= 7453.8
quadratic_ranged_242_ub: [ 1 x_33_ ^ 2 - 2 x_63_ * x_33_ + 1 x_63_ ^ 2 + 1 y_33_ ^ 2 - 2 y_63_ * y_33_ + 1 y_63_ ^ 2 ] <= 23336.05
quadratic_ranged_243_ub: [ 1 x_36_ ^ 2 - 2 x_63_ * x_36_ + 1 x_63_ ^ 2 + 1 y_36_ ^ 2 - 2 y_63_ * y_36_ + 1 y_63_ ^ 2 ] <= 30643.4
quadratic_ranged_244_ub: [ 1 x_53_ ^ 2 - 2 x_63_ * x_53_ + 1 x_63_ ^ 2 + 1 y_53_ ^ 2 - 2 y_63_ * y_53_ + 1 y_63_ ^ 2 ] <= 20430.28
quadratic_ranged_245_ub: [ 1 x_56_ ^ 2 - 2 x_63_ * x_56_ + 1 x_63_ ^ 2 + 1 y_56_ ^ 2 - 2 y_63_ * y_56_ + 1 y_63_ ^ 2 ] <= 17018.5
quadratic_ranged_246_ub: [ 1 x_59_ ^ 2 - 2 x_63_ * x_59_ + 1 x_63_ ^ 2 + 1 y_59_ ^ 2 - 2 y_63_ * y_59_ + 1 y_63_ ^ 2 ] <= 22321
quadratic_ranged_247_ub: [ 1 x_60_ ^ 2 - 2 x_63_ * x_60_ + 1 x_63_ ^ 2 + 1 y_60_ ^ 2 - 2 y_63_ * y_60_ + 1 y_63_ ^ 2 ] <= 5212.61
quadratic_ranged_248_ub: [ 1 x_62_ ^ 2 - 2 x_63_ * x_62_ + 1 x_63_ ^ 2 + 1 y_62_ ^ 2 - 2 y_63_ * y_62_ + 1 y_63_ ^ 2 ] <= 25687.33
quadratic_ranged_249_ub: [ 1 x_2_ ^ 2 - 2 x_64_ * x_2_ + 1 x_64_ ^ 2 + 1 y_2_ ^ 2 - 2 y_64_ * y_2_ + 1 y_64_ ^ 2 ] <= 7700.24
quadratic_ranged_250_ub: [ 1 x_6_ ^ 2 - 2 x_64_ * x_6_ + 1 x_64_ ^ 2 + 1 y_6_ ^ 2 - 2 y_64_ * y_6_ + 1 y_64_ ^ 2 ] <= 8101.21
quadratic_ranged_251_ub: [ 1 x_12_ ^ 2 - 2 x_64_ * x_12_ + 1 x_64_ ^ 2 + 1 y_12_ ^ 2 - 2 y_64_ * y_12_ + 1 y_64_ ^ 2 ] <= 5127.77
quadratic_ranged_252_ub: [ 1 x_13_ ^ 2 - 2 x_64_ * x_13_ + 1 x_64_ ^ 2 + 1 y_13_ ^ 2 - 2 y_64_ * y_13_ + 1 y_64_ ^ 2 ] <= 149.48
quadratic_ranged_253_ub: [ 1 x_16_ ^ 2 - 2 x_64_ * x_16_ + 1 x_64_ ^ 2 + 1 y_16_ ^ 2 - 2 y_64_ * y_16_ + 1 y_64_ ^ 2 ] <= 779.72
quadratic_ranged_254_ub: [ 1 x_17_ ^ 2 - 2 x_64_ * x_17_ + 1 x_64_ ^ 2 + 1 y_17_ ^ 2 - 2 y_64_ * y_17_ + 1 y_64_ ^ 2 ] <= 25598.45
quadratic_ranged_255_ub: [ 1 x_21_ ^ 2 - 2 x_64_ * x_21_ + 1 x_64_ ^ 2 + 1 y_21_ ^ 2 - 2 y_64_ * y_21_ + 1 y_64_ ^ 2 ] <= 9519.25
quadratic_ranged_256_ub: [ 1 x_37_ ^ 2 - 2 x_64_ * x_37_ + 1 x_64_ ^ 2 + 1 y_37_ ^ 2 - 2 y_64_ * y_37_ + 1 y_64_ ^ 2 ] <= 6824.57
quadratic_ranged_257_ub: [ 1 x_40_ ^ 2 - 2 x_64_ * x_40_ + 1 x_64_ ^ 2 + 1 y_40_ ^ 2 - 2 y_64_ * y_40_ + 1 y_64_ ^ 2 ] <= 9118.28
quadratic_ranged_258_ub: [ 1 x_63_ ^ 2 - 2 x_64_ * x_63_ + 1 x_64_ ^ 2 + 1 y_63_ ^ 2 - 2 y_64_ * y_63_ + 1 y_64_ ^ 2 ] <= 4985.36
quadratic_ranged_259_ub: [ 1 x_15_ ^ 2 - 2 x_65_ * x_15_ + 1 x_65_ ^ 2 + 1 y_15_ ^ 2 - 2 y_65_ * y_15_ + 1 y_65_ ^ 2 ] <= 16485.22
quadratic_ranged_260_ub: [ 1 x_20_ ^ 2 - 2 x_65_ * x_20_ + 1 x_65_ ^ 2 + 1 y_20_ ^ 2 - 2 y_65_ * y_20_ + 1 y_65_ ^ 2 ] <= 19945.48
quadratic_ranged_261_ub: [ 1 x_23_ ^ 2 - 2 x_65_ * x_23_ + 1 x_65_ ^ 2 + 1 y_23_ ^ 2 - 2 y_65_ * y_23_ + 1 y_65_ ^ 2 ] <= 7519.45
quadratic_ranged_262_ub: [ 1 x_36_ ^ 2 - 2 x_65_ * x_36_ + 1 x_65_ ^ 2 + 1 y_36_ ^ 2 - 2 y_65_ * y_36_ + 1 y_65_ ^ 2 ] <= 15963.05
quadratic_ranged_263_ub: [ 1 x_55_ ^ 2 - 2 x_65_ * x_55_ + 1 x_65_ ^ 2 + 1 y_55_ ^ 2 - 2 y_65_ * y_55_ + 1 y_65_ ^ 2 ] <= 918.09
quadratic_ranged_264_ub: [ 1 x_64_ ^ 2 - 2 x_65_ * x_64_ + 1 x_65_ ^ 2 + 1 y_64_ ^ 2 - 2 y_65_ * y_64_ + 1 y_65_ ^ 2 ] <= 740.33
quadratic_ranged_265_ub: [ 1 x_8_ ^ 2 - 2 x_66_ * x_8_ + 1 x_66_ ^ 2 + 1 y_8_ ^ 2 - 2 y_66_ * y_8_ + 1 y_66_ ^ 2 ] <= 7761.85
quadratic_ranged_266_ub: [ 1 x_9_ ^ 2 - 2 x_66_ * x_9_ + 1 x_66_ ^ 2 + 1 y_9_ ^ 2 - 2 y_66_ * y_9_ + 1 y_66_ ^ 2 ] <= 2889.61
quadratic_ranged_267_ub: [ 1 x_47_ ^ 2 - 2 x_66_ * x_47_ + 1 x_66_ ^ 2 + 1 y_47_ ^ 2 - 2 y_66_ * y_47_ + 1 y_66_ ^ 2 ] <= 12771.45
quadratic_ranged_268_ub: [ 1 x_65_ ^ 2 - 2 x_66_ * x_65_ + 1 x_66_ ^ 2 + 1 y_65_ ^ 2 - 2 y_66_ * y_65_ + 1 y_66_ ^ 2 ] <= 683.77
quadratic_ranged_269_ub: [ 1 x_3_ ^ 2 - 2 x_67_ * x_3_ + 1 x_67_ ^ 2 + 1 y_3_ ^ 2 - 2 y_67_ * y_3_ + 1 y_67_ ^ 2 ] <= 29673.8
quadratic_ranged_270_ub: [ 1 x_8_ ^ 2 - 2 x_67_ * x_8_ + 1 x_67_ ^ 2 + 1 y_8_ ^ 2 - 2 y_67_ * y_8_ + 1 y_67_ ^ 2 ] <= 21651.37
quadratic_ranged_271_ub: [ 1 x_16_ ^ 2 - 2 x_67_ * x_16_ + 1 x_67_ ^ 2 + 1 y_16_ ^ 2 - 2 y_67_ * y_16_ + 1 y_67_ ^ 2 ] <= 1262.5
quadratic_ranged_272_ub: [ 1 x_25_ ^ 2 - 2 x_67_ * x_25_ + 1 x_67_ ^ 2 + 1 y_25_ ^ 2 - 2 y_67_ * y_25_ + 1 y_67_ ^ 2 ] <= 18060.82
quadratic_ranged_273_ub: [ 1 x_44_ ^ 2 - 2 x_67_ * x_44_ + 1 x_67_ ^ 2 + 1 y_44_ ^ 2 - 2 y_67_ * y_44_ + 1 y_67_ ^ 2 ] <= 25024.77
quadratic_ranged_274_ub: [ 1 x_58_ ^ 2 - 2 x_67_ * x_58_ + 1 x_67_ ^ 2 + 1 y_58_ ^ 2 - 2 y_67_ * y_58_ + 1 y_67_ ^ 2 ] <= 25688.34
quadratic_ranged_275_ub: [ 1 x_66_ ^ 2 - 2 x_67_ * x_66_ + 1 x_67_ ^ 2 + 1 y_66_ ^ 2 - 2 y_67_ * y_66_ + 1 y_67_ ^ 2 ] <= 3672.36
quadratic_ranged_276_ub: [ 1 x_18_ ^ 2 - 2 x_68_ * x_18_ + 1 x_68_ ^ 2 + 1 y_18_ ^ 2 - 2 y_68_ * y_18_ + 1 y_68_ ^ 2 ] <= 10384.82
quadratic_ranged_277_ub: [ 1 x_33_ ^ 2 - 2 x_68_ * x_33_ + 1 x_68_ ^ 2 + 1 y_33_ ^ 2 - 2 y_68_ * y_33_ + 1 y_68_ ^ 2 ] <= 34050.13
quadratic_ranged_278_ub: [ 1 x_39_ ^ 2 - 2 x_68_ * x_39_ + 1 x_68_ ^ 2 + 1 y_39_ ^ 2 - 2 y_68_ * y_39_ + 1 y_68_ ^ 2 ] <= 2982.53
quadratic_ranged_279_ub: [ 1 x_51_ ^ 2 - 2 x_68_ * x_51_ + 1 x_68_ ^ 2 + 1 y_51_ ^ 2 - 2 y_68_ * y_51_ + 1 y_68_ ^ 2 ] <= 21821.05
quadratic_ranged_280_ub: [ 1 x_67_ ^ 2 - 2 x_68_ * x_67_ + 1 x_68_ ^ 2 + 1 y_67_ ^ 2 - 2 y_68_ * y_67_ + 1 y_68_ ^ 2 ] <= 17891.14
quadratic_ranged_281_ub: [ 1 x_3_ ^ 2 - 2 x_69_ * x_3_ + 1 x_69_ ^ 2 + 1 y_3_ ^ 2 - 2 y_69_ * y_3_ + 1 y_69_ ^ 2 ] <= 5390.37
quadratic_ranged_282_ub: [ 1 x_10_ ^ 2 - 2 x_69_ * x_10_ + 1 x_69_ ^ 2 + 1 y_10_ ^ 2 - 2 y_69_ * y_10_ + 1 y_69_ ^ 2 ] <= 3079.4900000000002
quadratic_ranged_283_ub: [ 1 x_13_ ^ 2 - 2 x_69_ * x_13_ + 1 x_69_ ^ 2 + 1 y_13_ ^ 2 - 2 y_69_ * y_13_ + 1 y_69_ ^ 2 ] <= 21469.57
quadratic_ranged_284_ub: [ 1 x_14_ ^ 2 - 2 x_69_ * x_14_ + 1 x_69_ ^ 2 + 1 y_14_ ^ 2 - 2 y_69_ * y_14_ + 1 y_69_ ^ 2 ] <= 14569.25
quadratic_ranged_285_ub: [ 1 x_15_ ^ 2 - 2 x_69_ * x_15_ + 1 x_69_ ^ 2 + 1 y_15_ ^ 2 - 2 y_69_ * y_15_ + 1 y_69_ ^ 2 ] <= 5213.62
quadratic_ranged_286_ub: [ 1 x_16_ ^ 2 - 2 x_69_ * x_16_ + 1 x_69_ ^ 2 + 1 y_16_ ^ 2 - 2 y_69_ * y_16_ + 1 y_69_ ^ 2 ] <= 13223.93
quadratic_ranged_287_ub: [ 1 x_19_ ^ 2 - 2 x_69_ * x_19_ + 1 x_69_ ^ 2 + 1 y_19_ ^ 2 - 2 y_69_ * y_19_ + 1 y_69_ ^ 2 ] <= 13660.25
quadratic_ranged_288_ub: [ 1 x_32_ ^ 2 - 2 x_69_ * x_32_ + 1 x_69_ ^ 2 + 1 y_32_ ^ 2 - 2 y_69_ * y_32_ + 1 y_69_ ^ 2 ] <= 246.44
quadratic_ranged_289_ub: [ 1 x_47_ ^ 2 - 2 x_69_ * x_47_ + 1 x_69_ ^ 2 + 1 y_47_ ^ 2 - 2 y_69_ * y_47_ + 1 y_69_ ^ 2 ] <= 12257.36
quadratic_ranged_290_ub: [ 1 x_52_ ^ 2 - 2 x_69_ * x_52_ + 1 x_69_ ^ 2 + 1 y_52_ ^ 2 - 2 y_69_ * y_52_ + 1 y_69_ ^ 2 ] <= 2441.17
quadratic_ranged_291_ub: [ 1 x_66_ ^ 2 - 2 x_69_ * x_66_ + 1 x_69_ ^ 2 + 1 y_66_ ^ 2 - 2 y_69_ * y_66_ + 1 y_69_ ^ 2 ] <= 7975.97
quadratic_ranged_292_ub: [ 1 x_68_ ^ 2 - 2 x_69_ * x_68_ + 1 x_69_ ^ 2 + 1 y_68_ ^ 2 - 2 y_69_ * y_68_ + 1 y_69_ ^ 2 ] <= 11357.45
quadratic_ranged_293_ub: [ 1 x_1_ ^ 2 - 2 x_70_ * x_1_ + 1 x_70_ ^ 2 + 1 y_1_ ^ 2 - 2 y_70_ * y_1_ + 1 y_70_ ^ 2 ] <= 21771.56
quadratic_ranged_294_ub: [ 1 x_10_ ^ 2 - 2 x_70_ * x_10_ + 1 x_70_ ^ 2 + 1 y_10_ ^ 2 - 2 y_70_ * y_10_ + 1 y_70_ ^ 2 ] <= 5728.72
quadratic_ranged_295_ub: [ 1 x_17_ ^ 2 - 2 x_70_ * x_17_ + 1 x_70_ ^ 2 + 1 y_17_ ^ 2 - 2 y_70_ * y_17_ + 1 y_70_ ^ 2 ] <= 12302.81
quadratic_ranged_296_ub: [ 1 x_20_ ^ 2 - 2 x_70_ * x_20_ + 1 x_70_ ^ 2 + 1 y_20_ ^ 2 - 2 y_70_ * y_20_ + 1 y_70_ ^ 2 ] <= 1309.97
quadratic_ranged_297_ub: [ 1 x_21_ ^ 2 - 2 x_70_ * x_21_ + 1 x_70_ ^ 2 + 1 y_21_ ^ 2 - 2 y_70_ * y_21_ + 1 y_70_ ^ 2 ] <= 2146.25
quadratic_ranged_298_ub: [ 1 x_51_ ^ 2 - 2 x_70_ * x_51_ + 1 x_70_ ^ 2 + 1 y_51_ ^ 2 - 2 y_70_ * y_51_ + 1 y_70_ ^ 2 ] <= 7313.41
quadratic_ranged_299_ub: [ 1 x_53_ ^ 2 - 2 x_70_ * x_53_ + 1 x_70_ ^ 2 + 1 y_53_ ^ 2 - 2 y_70_ * y_53_ + 1 y_70_ ^ 2 ] <= 11257.460000000001
quadratic_ranged_300_ub: [ 1 x_56_ ^ 2 - 2 x_70_ * x_56_ + 1 x_70_ ^ 2 + 1 y_56_ ^ 2 - 2 y_70_ * y_56_ + 1 y_70_ ^ 2 ] <= 9453.6
quadratic_ranged_301_ub: [ 1 x_64_ ^ 2 - 2 x_70_ * x_64_ + 1 x_70_ ^ 2 + 1 y_64_ ^ 2 - 2 y_70_ * y_64_ + 1 y_70_ ^ 2 ] <= 18060.82
quadratic_ranged_302_ub: [ 1 x_69_ ^ 2 - 2 x_70_ * x_69_ + 1 x_70_ ^ 2 + 1 y_69_ ^ 2 - 2 y_70_ * y_69_ + 1 y_70_ ^ 2 ] <= 1176.65
quadratic_ranged_303_ub: [ 1 x_11_ ^ 2 - 2 x_71_ * x_11_ + 1 x_71_ ^ 2 + 1 y_11_ ^ 2 - 2 y_71_ * y_11_ + 1 y_71_ ^ 2 ] <= 39289
quadratic_ranged_304_ub: [ 1 x_26_ ^ 2 - 2 x_71_ * x_26_ + 1 x_71_ ^ 2 + 1 y_26_ ^ 2 - 2 y_71_ * y_26_ + 1 y_71_ ^ 2 ] <= 15806.5
quadratic_ranged_305_ub: [ 1 x_28_ ^ 2 - 2 x_71_ * x_28_ + 1 x_71_ ^ 2 + 1 y_28_ ^ 2 - 2 y_71_ * y_28_ + 1 y_71_ ^ 2 ] <= 1871.53
quadratic_ranged_306_ub: [ 1 x_57_ ^ 2 - 2 x_71_ * x_57_ + 1 x_71_ ^ 2 + 1 y_57_ ^ 2 - 2 y_71_ * y_57_ + 1 y_71_ ^ 2 ] <= 24290.5
quadratic_ranged_307_ub: [ 1 x_70_ ^ 2 - 2 x_71_ * x_70_ + 1 x_71_ ^ 2 + 1 y_70_ ^ 2 - 2 y_71_ * y_70_ + 1 y_71_ ^ 2 ] <= 780.73
quadratic_ranged_308_ub: [ 1 x_2_ ^ 2 - 2 x_72_ * x_2_ + 1 x_72_ ^ 2 + 1 y_2_ ^ 2 - 2 y_72_ * y_2_ + 1 y_72_ ^ 2 ] <= 24854.08
quadratic_ranged_309_ub: [ 1 x_3_ ^ 2 - 2 x_72_ * x_3_ + 1 x_72_ ^ 2 + 1 y_3_ ^ 2 - 2 y_72_ * y_3_ + 1 y_72_ ^ 2 ] <= 20363.62
quadratic_ranged_310_ub: [ 1 x_11_ ^ 2 - 2 x_72_ * x_11_ + 1 x_72_ ^ 2 + 1 y_11_ ^ 2 - 2 y_72_ * y_11_ + 1 y_72_ ^ 2 ] <= 1459.45
quadratic_ranged_311_ub: [ 1 x_29_ ^ 2 - 2 x_72_ * x_29_ + 1 x_72_ ^ 2 + 1 y_29_ ^ 2 - 2 y_72_ * y_29_ + 1 y_72_ ^ 2 ] <= 10779.73
quadratic_ranged_312_ub: [ 1 x_36_ ^ 2 - 2 x_72_ * x_36_ + 1 x_72_ ^ 2 + 1 y_36_ ^ 2 - 2 y_72_ * y_36_ + 1 y_72_ ^ 2 ] <= 25472.2
quadratic_ranged_313_ub: [ 1 x_59_ ^ 2 - 2 x_72_ * x_59_ + 1 x_72_ ^ 2 + 1 y_59_ ^ 2 - 2 y_72_ * y_59_ + 1 y_72_ ^ 2 ] <= 20026.28
quadratic_ranged_314_ub: [ 1 x_68_ ^ 2 - 2 x_72_ * x_68_ + 1 x_72_ ^ 2 + 1 y_68_ ^ 2 - 2 y_72_ * y_68_ + 1 y_72_ ^ 2 ] <= 7486.12
quadratic_ranged_315_ub: [ 1 x_71_ ^ 2 - 2 x_72_ * x_71_ + 1 x_72_ ^ 2 + 1 y_71_ ^ 2 - 2 y_72_ * y_71_ + 1 y_72_ ^ 2 ] <= 26624.61
quadratic_ranged_316_ub: [ 1 x_1_ ^ 2 - 2 x_73_ * x_1_ + 1 x_73_ ^ 2 + 1 y_1_ ^ 2 - 2 y_73_ * y_1_ + 1 y_73_ ^ 2 ] <= 10642.37
quadratic_ranged_317_ub: [ 1 x_19_ ^ 2 - 2 x_73_ * x_19_ + 1 x_73_ ^ 2 + 1 y_19_ ^ 2 - 2 y_73_ * y_19_ + 1 y_73_ ^ 2 ] <= 4012.73
quadratic_ranged_318_ub: [ 1 x_22_ ^ 2 - 2 x_73_ * x_22_ + 1 x_73_ ^ 2 + 1 y_22_ ^ 2 - 2 y_73_ * y_22_ + 1 y_73_ ^ 2 ] <= 13834.98
quadratic_ranged_319_ub: [ 1 x_24_ ^ 2 - 2 x_73_ * x_24_ + 1 x_73_ ^ 2 + 1 y_24_ ^ 2 - 2 y_73_ * y_24_ + 1 y_73_ ^ 2 ] <= 28426.45
quadratic_ranged_320_ub: [ 1 x_37_ ^ 2 - 2 x_73_ * x_37_ + 1 x_73_ ^ 2 + 1 y_37_ ^ 2 - 2 y_73_ * y_37_ + 1 y_73_ ^ 2 ] <= 1591.76
quadratic_ranged_321_ub: [ 1 x_42_ ^ 2 - 2 x_73_ * x_42_ + 1 x_73_ ^ 2 + 1 y_42_ ^ 2 - 2 y_73_ * y_42_ + 1 y_73_ ^ 2 ] <= 4403.6
quadratic_ranged_322_ub: [ 1 x_50_ ^ 2 - 2 x_73_ * x_50_ + 1 x_73_ ^ 2 + 1 y_50_ ^ 2 - 2 y_73_ * y_50_ + 1 y_73_ ^ 2 ] <= 1763.46
quadratic_ranged_323_ub: [ 1 x_60_ ^ 2 - 2 x_73_ * x_60_ + 1 x_73_ ^ 2 + 1 y_60_ ^ 2 - 2 y_73_ * y_60_ + 1 y_73_ ^ 2 ] <= 17085.16
quadratic_ranged_324_ub: [ 1 x_70_ ^ 2 - 2 x_73_ * x_70_ + 1 x_73_ ^ 2 + 1 y_70_ ^ 2 - 2 y_73_ * y_70_ + 1 y_73_ ^ 2 ] <= 2061.41
quadratic_ranged_325_ub: [ 1 x_72_ ^ 2 - 2 x_73_ * x_72_ + 1 x_73_ ^ 2 + 1 y_72_ ^ 2 - 2 y_73_ * y_72_ + 1 y_73_ ^ 2 ] <= 14629.85
quadratic_ranged_326_ub: [ 1 x_3_ ^ 2 - 2 x_74_ * x_3_ + 1 x_74_ ^ 2 + 1 y_3_ ^ 2 - 2 y_74_ * y_3_ + 1 y_74_ ^ 2 ] <= 9915.17
quadratic_ranged_327_ub: [ 1 x_9_ ^ 2 - 2 x_74_ * x_9_ + 1 x_74_ ^ 2 + 1 y_9_ ^ 2 - 2 y_74_ * y_9_ + 1 y_74_ ^ 2 ] <= 30098
quadratic_ranged_328_ub: [ 1 x_22_ ^ 2 - 2 x_74_ * x_22_ + 1 x_74_ ^ 2 + 1 y_22_ ^ 2 - 2 y_74_ * y_22_ + 1 y_74_ ^ 2 ] <= 25195.46
quadratic_ranged_329_ub: [ 1 x_28_ ^ 2 - 2 x_74_ * x_28_ + 1 x_74_ ^ 2 + 1 y_28_ ^ 2 - 2 y_74_ * y_28_ + 1 y_74_ ^ 2 ] <= 10913.05
quadratic_ranged_330_ub: [ 1 x_37_ ^ 2 - 2 x_74_ * x_37_ + 1 x_74_ ^ 2 + 1 y_37_ ^ 2 - 2 y_74_ * y_37_ + 1 y_74_ ^ 2 ] <= 11796.8
quadratic_ranged_331_ub: [ 1 x_41_ ^ 2 - 2 x_74_ * x_41_ + 1 x_74_ ^ 2 + 1 y_41_ ^ 2 - 2 y_74_ * y_41_ + 1 y_74_ ^ 2 ] <= 20614.1
quadratic_ranged_332_ub: [ 1 x_47_ ^ 2 - 2 x_74_ * x_47_ + 1 x_74_ ^ 2 + 1 y_47_ ^ 2 - 2 y_74_ * y_47_ + 1 y_74_ ^ 2 ] <= 20478.76
quadratic_ranged_333_ub: [ 1 x_60_ ^ 2 - 2 x_74_ * x_60_ + 1 x_74_ ^ 2 + 1 y_60_ ^ 2 - 2 y_74_ * y_60_ + 1 y_74_ ^ 2 ] <= 30126.28
quadratic_ranged_334_ub: [ 1 x_73_ ^ 2 - 2 x_74_ * x_73_ + 1 x_74_ ^ 2 + 1 y_73_ ^ 2 - 2 y_74_ * y_73_ + 1 y_74_ ^ 2 ] <= 6633.68
quadratic_ranged_335_ub: [ 1 x_12_ ^ 2 - 2 x_75_ * x_12_ + 1 x_75_ ^ 2 + 1 y_12_ ^ 2 - 2 y_75_ * y_12_ + 1 y_75_ ^ 2 ] <= 32551.29
quadratic_ranged_336_ub: [ 1 x_32_ ^ 2 - 2 x_75_ * x_32_ + 1 x_75_ ^ 2 + 1 y_32_ ^ 2 - 2 y_75_ * y_32_ + 1 y_75_ ^ 2 ] <= 35169.21
quadratic_ranged_337_ub: [ 1 x_38_ ^ 2 - 2 x_75_ * x_38_ + 1 x_75_ ^ 2 + 1 y_38_ ^ 2 - 2 y_75_ * y_38_ + 1 y_75_ ^ 2 ] <= 13781.45
quadratic_ranged_338_ub: [ 1 x_45_ ^ 2 - 2 x_75_ * x_45_ + 1 x_75_ ^ 2 + 1 y_45_ ^ 2 - 2 y_75_ * y_45_ + 1 y_75_ ^ 2 ] <= 22059.41
quadratic_ranged_339_ub: [ 1 x_50_ ^ 2 - 2 x_75_ * x_50_ + 1 x_75_ ^ 2 + 1 y_50_ ^ 2 - 2 y_75_ * y_50_ + 1 y_75_ ^ 2 ] <= 12355.33
quadratic_ranged_340_ub: [ 1 x_61_ ^ 2 - 2 x_75_ * x_61_ + 1 x_75_ ^ 2 + 1 y_61_ ^ 2 - 2 y_75_ * y_61_ + 1 y_75_ ^ 2 ] <= 25032.85
quadratic_ranged_341_ub: [ 1 x_74_ ^ 2 - 2 x_75_ * x_74_ + 1 x_75_ ^ 2 + 1 y_74_ ^ 2 - 2 y_75_ * y_74_ + 1 y_75_ ^ 2 ] <= 43293.65
quadratic_ranged_342_ub: [ 1 x_15_ ^ 2 - 2 x_76_ * x_15_ + 1 x_76_ ^ 2 + 1 y_15_ ^ 2 - 2 y_76_ * y_15_ + 1 y_76_ ^ 2 ] <= 47045.8
quadratic_ranged_343_ub: [ 1 x_22_ ^ 2 - 2 x_76_ * x_22_ + 1 x_76_ ^ 2 + 1 y_22_ ^ 2 - 2 y_76_ * y_22_ + 1 y_76_ ^ 2 ] <= 37543.72
quadratic_ranged_344_ub: [ 1 x_25_ ^ 2 - 2 x_76_ * x_25_ + 1 x_76_ ^ 2 + 1 y_25_ ^ 2 - 2 y_76_ * y_25_ + 1 y_76_ ^ 2 ] <= 41608.97
quadratic_ranged_345_ub: [ 1 x_27_ ^ 2 - 2 x_76_ * x_27_ + 1 x_76_ ^ 2 + 1 y_27_ ^ 2 - 2 y_76_ * y_27_ + 1 y_76_ ^ 2 ] <= 25113.65
quadratic_ranged_346_ub: [ 1 x_35_ ^ 2 - 2 x_76_ * x_35_ + 1 x_76_ ^ 2 + 1 y_35_ ^ 2 - 2 y_76_ * y_35_ + 1 y_76_ ^ 2 ] <= 4179.38
quadratic_ranged_347_ub: [ 1 x_59_ ^ 2 - 2 x_76_ * x_59_ + 1 x_76_ ^ 2 + 1 y_59_ ^ 2 - 2 y_76_ * y_59_ + 1 y_76_ ^ 2 ] <= 7151.81
quadratic_ranged_348_ub: [ 1 x_75_ ^ 2 - 2 x_76_ * x_75_ + 1 x_76_ ^ 2 + 1 y_75_ ^ 2 - 2 y_76_ * y_75_ + 1 y_76_ ^ 2 ] <= 38772.89
quadratic_ranged_349_ub: [ 1 x_26_ ^ 2 - 2 x_77_ * x_26_ + 1 x_77_ ^ 2 + 1 y_26_ ^ 2 - 2 y_77_ * y_26_ + 1 y_77_ ^ 2 ] <= 425.21
quadratic_ranged_350_ub: [ 1 x_39_ ^ 2 - 2 x_77_ * x_39_ + 1 x_77_ ^ 2 + 1 y_39_ ^ 2 - 2 y_77_ * y_39_ + 1 y_77_ ^ 2 ] <= 7786.09
quadratic_ranged_351_ub: [ 1 x_45_ ^ 2 - 2 x_77_ * x_45_ + 1 x_77_ ^ 2 + 1 y_45_ ^ 2 - 2 y_77_ * y_45_ + 1 y_77_ ^ 2 ] <= 18451.69
quadratic_ranged_352_ub: [ 1 x_63_ ^ 2 - 2 x_77_ * x_63_ + 1 x_77_ ^ 2 + 1 y_63_ ^ 2 - 2 y_77_ * y_63_ + 1 y_77_ ^ 2 ] <= 995.86
quadratic_ranged_353_ub: [ 1 x_74_ ^ 2 - 2 x_77_ * x_74_ + 1 x_77_ ^ 2 + 1 y_74_ ^ 2 - 2 y_77_ * y_74_ + 1 y_77_ ^ 2 ] <= 31832.170000000002
quadratic_ranged_354_ub: [ 1 x_75_ ^ 2 - 2 x_77_ * x_75_ + 1 x_77_ ^ 2 + 1 y_75_ ^ 2 - 2 y_77_ * y_75_ + 1 y_77_ ^ 2 ] <= 5165.14
quadratic_ranged_355_ub: [ 1 x_76_ ^ 2 - 2 x_77_ * x_76_ + 1 x_77_ ^ 2 + 1 y_76_ ^ 2 - 2 y_77_ * y_76_ + 1 y_77_ ^ 2 ] <= 15635.81
quadratic_ranged_356_ub: [ 1 x_3_ ^ 2 - 2 x_78_ * x_3_ + 1 x_78_ ^ 2 + 1 y_3_ ^ 2 - 2 y_78_ * y_3_ + 1 y_78_ ^ 2 ] <= 3508.7400000000002
quadratic_ranged_357_ub: [ 1 x_9_ ^ 2 - 2 x_78_ * x_9_ + 1 x_78_ ^ 2 + 1 y_9_ ^ 2 - 2 y_78_ * y_9_ + 1 y_78_ ^ 2 ] <= 11611.97
quadratic_ranged_358_ub: [ 1 x_20_ ^ 2 - 2 x_78_ * x_20_ + 1 x_78_ ^ 2 + 1 y_20_ ^ 2 - 2 y_78_ * y_20_ + 1 y_78_ ^ 2 ] <= 15296.45
quadratic_ranged_359_ub: [ 1 x_30_ ^ 2 - 2 x_78_ * x_30_ + 1 x_78_ ^ 2 + 1 y_30_ ^ 2 - 2 y_78_ * y_30_ + 1 y_78_ ^ 2 ] <= 8691.05
quadratic_ranged_360_ub: [ 1 x_34_ ^ 2 - 2 x_78_ * x_34_ + 1 x_78_ ^ 2 + 1 y_34_ ^ 2 - 2 y_78_ * y_34_ + 1 y_78_ ^ 2 ] <= 9313.210000000001
quadratic_ranged_361_ub: [ 1 x_42_ ^ 2 - 2 x_78_ * x_42_ + 1 x_78_ ^ 2 + 1 y_42_ ^ 2 - 2 y_78_ * y_42_ + 1 y_78_ ^ 2 ] <= 9248.57
quadratic_ranged_362_ub: [ 1 x_50_ ^ 2 - 2 x_78_ * x_50_ + 1 x_78_ ^ 2 + 1 y_50_ ^ 2 - 2 y_78_ * y_50_ + 1 y_78_ ^ 2 ] <= 4453.09
quadratic_ranged_363_ub: [ 1 x_54_ ^ 2 - 2 x_78_ * x_54_ + 1 x_78_ ^ 2 + 1 y_54_ ^ 2 - 2 y_78_ * y_54_ + 1 y_78_ ^ 2 ] <= 4865.17
quadratic_ranged_364_ub: [ 1 x_62_ ^ 2 - 2 x_78_ * x_62_ + 1 x_78_ ^ 2 + 1 y_62_ ^ 2 - 2 y_78_ * y_62_ + 1 y_78_ ^ 2 ] <= 6186.25
quadratic_ranged_365_ub: [ 1 x_65_ ^ 2 - 2 x_78_ * x_65_ + 1 x_78_ ^ 2 + 1 y_65_ ^ 2 - 2 y_78_ * y_65_ + 1 y_78_ ^ 2 ] <= 8933.45
quadratic_ranged_366_ub: [ 1 x_71_ ^ 2 - 2 x_78_ * x_71_ + 1 x_78_ ^ 2 + 1 y_71_ ^ 2 - 2 y_78_ * y_71_ + 1 y_78_ ^ 2 ] <= 17118.49
quadratic_ranged_367_ub: [ 1 x_72_ ^ 2 - 2 x_78_ * x_72_ + 1 x_78_ ^ 2 + 1 y_72_ ^ 2 - 2 y_78_ * y_72_ + 1 y_78_ ^ 2 ] <= 6989.2
quadratic_ranged_368_ub: [ 1 x_77_ ^ 2 - 2 x_78_ * x_77_ + 1 x_78_ ^ 2 + 1 y_77_ ^ 2 - 2 y_78_ * y_77_ + 1 y_78_ ^ 2 ] <= 8906.18
quadratic_ranged_369_ub: [ 1 x_14_ ^ 2 - 2 x_79_ * x_14_ + 1 x_79_ ^ 2 + 1 y_14_ ^ 2 - 2 y_79_ * y_14_ + 1 y_79_ ^ 2 ] <= 1601.8600000000001
quadratic_ranged_370_ub: [ 1 x_24_ ^ 2 - 2 x_79_ * x_24_ + 1 x_79_ ^ 2 + 1 y_24_ ^ 2 - 2 y_79_ * y_24_ + 1 y_79_ ^ 2 ] <= 11716
quadratic_ranged_371_ub: [ 1 x_30_ ^ 2 - 2 x_79_ * x_30_ + 1 x_79_ ^ 2 + 1 y_30_ ^ 2 - 2 y_79_ * y_30_ + 1 y_79_ ^ 2 ] <= 4756.09
quadratic_ranged_372_ub: [ 1 x_54_ ^ 2 - 2 x_79_ * x_54_ + 1 x_79_ ^ 2 + 1 y_54_ ^ 2 - 2 y_79_ * y_54_ + 1 y_79_ ^ 2 ] <= 10836.29
quadratic_ranged_373_ub: [ 1 x_55_ ^ 2 - 2 x_79_ * x_55_ + 1 x_79_ ^ 2 + 1 y_55_ ^ 2 - 2 y_79_ * y_55_ + 1 y_79_ ^ 2 ] <= 1585.7
quadratic_ranged_374_ub: [ 1 x_56_ ^ 2 - 2 x_79_ * x_56_ + 1 x_79_ ^ 2 + 1 y_56_ ^ 2 - 2 y_79_ * y_56_ + 1 y_79_ ^ 2 ] <= 9851.54
quadratic_ranged_375_ub: [ 1 x_58_ ^ 2 - 2 x_79_ * x_58_ + 1 x_79_ ^ 2 + 1 y_58_ ^ 2 - 2 y_79_ * y_58_ + 1 y_79_ ^ 2 ] <= 13837
quadratic_ranged_376_ub: [ 1 x_70_ ^ 2 - 2 x_79_ * x_70_ + 1 x_79_ ^ 2 + 1 y_70_ ^ 2 - 2 y_79_ * y_70_ + 1 y_79_ ^ 2 ] <= 11766.5
quadratic_ranged_377_ub: [ 1 x_78_ ^ 2 - 2 x_79_ * x_78_ + 1 x_79_ ^ 2 + 1 y_78_ ^ 2 - 2 y_79_ * y_78_ + 1 y_79_ ^ 2 ] <= 6625.6
quadratic_ranged_378_ub: [ 1 x_10_ ^ 2 - 2 x_80_ * x_10_ + 1 x_80_ ^ 2 + 1 y_10_ ^ 2 - 2 y_80_ * y_10_ + 1 y_80_ ^ 2 ] <= 7760.84
quadratic_ranged_379_ub: [ 1 x_14_ ^ 2 - 2 x_80_ * x_14_ + 1 x_80_ ^ 2 + 1 y_14_ ^ 2 - 2 y_80_ * y_14_ + 1 y_80_ ^ 2 ] <= 14127.880000000001
quadratic_ranged_380_ub: [ 1 x_15_ ^ 2 - 2 x_80_ * x_15_ + 1 x_80_ ^ 2 + 1 y_15_ ^ 2 - 2 y_80_ * y_15_ + 1 y_80_ ^ 2 ] <= 10872.65
quadratic_ranged_381_ub: [ 1 x_19_ ^ 2 - 2 x_80_ * x_19_ + 1 x_80_ ^ 2 + 1 y_19_ ^ 2 - 2 y_80_ * y_19_ + 1 y_80_ ^ 2 ] <= 28702.18
quadratic_ranged_382_ub: [ 1 x_33_ ^ 2 - 2 x_80_ * x_33_ + 1 x_80_ ^ 2 + 1 y_33_ ^ 2 - 2 y_80_ * y_33_ + 1 y_80_ ^ 2 ] <= 30692.89
quadratic_ranged_383_ub: [ 1 x_46_ ^ 2 - 2 x_80_ * x_46_ + 1 x_80_ ^ 2 + 1 y_46_ ^ 2 - 2 y_80_ * y_46_ + 1 y_80_ ^ 2 ] <= 13135.05
quadratic_ranged_384_ub: [ 1 x_79_ ^ 2 - 2 x_80_ * x_79_ + 1 x_80_ ^ 2 + 1 y_79_ ^ 2 - 2 y_80_ * y_79_ + 1 y_80_ ^ 2 ] <= 6352.9
quadratic_ranged_385_ub: [ 1 x_44_ ^ 2 - 2 x_81_ * x_44_ + 1 x_81_ ^ 2 + 1 y_44_ ^ 2 - 2 y_81_ * y_44_ + 1 y_81_ ^ 2 ] <= 27137.69
quadratic_ranged_386_ub: [ 1 x_75_ ^ 2 - 2 x_81_ * x_75_ + 1 x_81_ ^ 2 + 1 y_75_ ^ 2 - 2 y_81_ * y_75_ + 1 y_81_ ^ 2 ] <= 12324.02
quadratic_ranged_387_ub: [ 1 x_80_ ^ 2 - 2 x_81_ * x_80_ + 1 x_81_ ^ 2 + 1 y_80_ ^ 2 - 2 y_81_ * y_80_ + 1 y_81_ ^ 2 ] <= 10815.08
quadratic_ranged_388_ub: [ 1 x_4_ ^ 2 - 2 x_82_ * x_4_ + 1 x_82_ ^ 2 + 1 y_4_ ^ 2 - 2 y_82_ * y_4_ + 1 y_82_ ^ 2 ] <= 18669.85
quadratic_ranged_389_ub: [ 1 x_9_ ^ 2 - 2 x_82_ * x_9_ + 1 x_82_ ^ 2 + 1 y_9_ ^ 2 - 2 y_82_ * y_9_ + 1 y_82_ ^ 2 ] <= 3806.69
quadratic_ranged_390_ub: [ 1 x_22_ ^ 2 - 2 x_82_ * x_22_ + 1 x_82_ ^ 2 + 1 y_22_ ^ 2 - 2 y_82_ * y_22_ + 1 y_82_ ^ 2 ] <= 23336.05
quadratic_ranged_391_ub: [ 1 x_26_ ^ 2 - 2 x_82_ * x_26_ + 1 x_82_ ^ 2 + 1 y_26_ ^ 2 - 2 y_82_ * y_26_ + 1 y_82_ ^ 2 ] <= 6117.57
quadratic_ranged_392_ub: [ 1 x_33_ ^ 2 - 2 x_82_ * x_33_ + 1 x_82_ ^ 2 + 1 y_33_ ^ 2 - 2 y_82_ * y_33_ + 1 y_82_ ^ 2 ] <= 1685.69
quadratic_ranged_393_ub: [ 1 x_34_ ^ 2 - 2 x_82_ * x_34_ + 1 x_82_ ^ 2 + 1 y_34_ ^ 2 - 2 y_82_ * y_34_ + 1 y_82_ ^ 2 ] <= 10101.01
quadratic_ranged_394_ub: [ 1 x_54_ ^ 2 - 2 x_82_ * x_54_ + 1 x_82_ ^ 2 + 1 y_54_ ^ 2 - 2 y_82_ * y_54_ + 1 y_82_ ^ 2 ] <= 28717.33
quadratic_ranged_395_ub: [ 1 x_55_ ^ 2 - 2 x_82_ * x_55_ + 1 x_82_ ^ 2 + 1 y_55_ ^ 2 - 2 y_82_ * y_55_ + 1 y_82_ ^ 2 ] <= 2094.7400000000002
quadratic_ranged_396_ub: [ 1 x_60_ ^ 2 - 2 x_82_ * x_60_ + 1 x_82_ ^ 2 + 1 y_60_ ^ 2 - 2 y_82_ * y_60_ + 1 y_82_ ^ 2 ] <= 25432.81
quadratic_ranged_397_ub: [ 1 x_68_ ^ 2 - 2 x_82_ * x_68_ + 1 x_82_ ^ 2 + 1 y_68_ ^ 2 - 2 y_82_ * y_68_ + 1 y_82_ ^ 2 ] <= 27189.2
quadratic_ranged_398_ub: [ 1 x_73_ ^ 2 - 2 x_82_ * x_73_ + 1 x_82_ ^ 2 + 1 y_73_ ^ 2 - 2 y_82_ * y_73_ + 1 y_82_ ^ 2 ] <= 8016.37
quadratic_ranged_399_ub: [ 1 x_81_ ^ 2 - 2 x_82_ * x_81_ + 1 x_82_ ^ 2 + 1 y_81_ ^ 2 - 2 y_82_ * y_81_ + 1 y_82_ ^ 2 ] <= 2636.1
quadratic_ranged_400_ub: [ 1 x_22_ ^ 2 - 2 x_83_ * x_22_ + 1 x_83_ ^ 2 + 1 y_22_ ^ 2 - 2 y_83_ * y_22_ + 1 y_83_ ^ 2 ] <= 2391.68
quadratic_ranged_401_ub: [ 1 x_29_ ^ 2 - 2 x_83_ * x_29_ + 1 x_83_ ^ 2 + 1 y_29_ ^ 2 - 2 y_83_ * y_29_ + 1 y_83_ ^ 2 ] <= 16202.42
quadratic_ranged_402_ub: [ 1 x_34_ ^ 2 - 2 x_83_ * x_34_ + 1 x_83_ ^ 2 + 1 y_34_ ^ 2 - 2 y_83_ * y_34_ + 1 y_83_ ^ 2 ] <= 18163.84
quadratic_ranged_403_ub: [ 1 x_40_ ^ 2 - 2 x_83_ * x_40_ + 1 x_83_ ^ 2 + 1 y_40_ ^ 2 - 2 y_83_ * y_40_ + 1 y_83_ ^ 2 ] <= 6800.33
quadratic_ranged_404_ub: [ 1 x_54_ ^ 2 - 2 x_83_ * x_54_ + 1 x_83_ ^ 2 + 1 y_54_ ^ 2 - 2 y_83_ * y_54_ + 1 y_83_ ^ 2 ] <= 5068.18
quadratic_ranged_405_ub: [ 1 x_59_ ^ 2 - 2 x_83_ * x_59_ + 1 x_83_ ^ 2 + 1 y_59_ ^ 2 - 2 y_83_ * y_59_ + 1 y_83_ ^ 2 ] <= 31359.49
quadratic_ranged_406_ub: [ 1 x_62_ ^ 2 - 2 x_83_ * x_62_ + 1 x_83_ ^ 2 + 1 y_62_ ^ 2 - 2 y_83_ * y_62_ + 1 y_83_ ^ 2 ] <= 10796.9
quadratic_ranged_407_ub: [ 1 x_69_ ^ 2 - 2 x_83_ * x_69_ + 1 x_83_ ^ 2 + 1 y_69_ ^ 2 - 2 y_83_ * y_69_ + 1 y_83_ ^ 2 ] <= 13875.380000000001
quadratic_ranged_408_ub: [ 1 x_79_ ^ 2 - 2 x_83_ * x_79_ + 1 x_83_ ^ 2 + 1 y_79_ ^ 2 - 2 y_83_ * y_79_ + 1 y_83_ ^ 2 ] <= 14912.65
quadratic_ranged_409_ub: [ 1 x_80_ ^ 2 - 2 x_83_ * x_80_ + 1 x_83_ ^ 2 + 1 y_80_ ^ 2 - 2 y_83_ * y_80_ + 1 y_83_ ^ 2 ] <= 5681.25
quadratic_ranged_410_ub: [ 1 x_82_ ^ 2 - 2 x_83_ * x_82_ + 1 x_83_ ^ 2 + 1 y_82_ ^ 2 - 2 y_83_ * y_82_ + 1 y_83_ ^ 2 ] <= 36603.41
quadratic_ranged_411_ub: [ 1 x_4_ ^ 2 - 2 x_84_ * x_4_ + 1 x_84_ ^ 2 + 1 y_4_ ^ 2 - 2 y_84_ * y_4_ + 1 y_84_ ^ 2 ] <= 5349.97
quadratic_ranged_412_ub: [ 1 x_6_ ^ 2 - 2 x_84_ * x_6_ + 1 x_84_ ^ 2 + 1 y_6_ ^ 2 - 2 y_84_ * y_6_ + 1 y_84_ ^ 2 ] <= 13615.81
quadratic_ranged_413_ub: [ 1 x_7_ ^ 2 - 2 x_84_ * x_7_ + 1 x_84_ ^ 2 + 1 y_7_ ^ 2 - 2 y_84_ * y_7_ + 1 y_84_ ^ 2 ] <= 20063.65
quadratic_ranged_414_ub: [ 1 x_10_ ^ 2 - 2 x_84_ * x_10_ + 1 x_84_ ^ 2 + 1 y_10_ ^ 2 - 2 y_84_ * y_10_ + 1 y_84_ ^ 2 ] <= 9180.9
quadratic_ranged_415_ub: [ 1 x_36_ ^ 2 - 2 x_84_ * x_36_ + 1 x_84_ ^ 2 + 1 y_36_ ^ 2 - 2 y_84_ * y_36_ + 1 y_84_ ^ 2 ] <= 22535.12
quadratic_ranged_416_ub: [ 1 x_43_ ^ 2 - 2 x_84_ * x_43_ + 1 x_84_ ^ 2 + 1 y_43_ ^ 2 - 2 y_84_ * y_43_ + 1 y_84_ ^ 2 ] <= 19417.25
quadratic_ranged_417_ub: [ 1 x_61_ ^ 2 - 2 x_84_ * x_61_ + 1 x_84_ ^ 2 + 1 y_61_ ^ 2 - 2 y_84_ * y_61_ + 1 y_84_ ^ 2 ] <= 17954.77
quadratic_ranged_418_ub: [ 1 x_67_ ^ 2 - 2 x_84_ * x_67_ + 1 x_84_ ^ 2 + 1 y_67_ ^ 2 - 2 y_84_ * y_67_ + 1 y_84_ ^ 2 ] <= 19078.9
quadratic_ranged_419_ub: [ 1 x_75_ ^ 2 - 2 x_84_ * x_75_ + 1 x_84_ ^ 2 + 1 y_75_ ^ 2 - 2 y_84_ * y_75_ + 1 y_84_ ^ 2 ] <= 2327.04
quadratic_ranged_420_ub: [ 1 x_77_ ^ 2 - 2 x_84_ * x_77_ + 1 x_84_ ^ 2 + 1 y_77_ ^ 2 - 2 y_84_ * y_77_ + 1 y_84_ ^ 2 ] <= 9916.18
quadratic_ranged_421_ub: [ 1 x_83_ ^ 2 - 2 x_84_ * x_83_ + 1 x_84_ ^ 2 + 1 y_83_ ^ 2 - 2 y_84_ * y_83_ + 1 y_84_ ^ 2 ] <= 2582.57
quadratic_ranged_422_ub: [ 1 x_2_ ^ 2 - 2 x_85_ * x_2_ + 1 x_85_ ^ 2 + 1 y_2_ ^ 2 - 2 y_85_ * y_2_ + 1 y_85_ ^ 2 ] <= 62766.45
quadratic_ranged_423_ub: [ 1 x_7_ ^ 2 - 2 x_85_ * x_7_ + 1 x_85_ ^ 2 + 1 y_7_ ^ 2 - 2 y_85_ * y_7_ + 1 y_85_ ^ 2 ] <= 11190.8
quadratic_ranged_424_ub: [ 1 x_17_ ^ 2 - 2 x_85_ * x_17_ + 1 x_85_ ^ 2 + 1 y_17_ ^ 2 - 2 y_85_ * y_17_ + 1 y_85_ ^ 2 ] <= 1181.7
quadratic_ranged_425_ub: [ 1 x_23_ ^ 2 - 2 x_85_ * x_23_ + 1 x_85_ ^ 2 + 1 y_23_ ^ 2 - 2 y_85_ * y_23_ + 1 y_85_ ^ 2 ] <= 33124.97
quadratic_ranged_426_ub: [ 1 x_41_ ^ 2 - 2 x_85_ * x_41_ + 1 x_85_ ^ 2 + 1 y_41_ ^ 2 - 2 y_85_ * y_41_ + 1 y_85_ ^ 2 ] <= 35119.72
quadratic_ranged_427_ub: [ 1 x_44_ ^ 2 - 2 x_85_ * x_44_ + 1 x_85_ ^ 2 + 1 y_44_ ^ 2 - 2 y_85_ * y_44_ + 1 y_85_ ^ 2 ] <= 9285.94
quadratic_ranged_428_ub: [ 1 x_45_ ^ 2 - 2 x_85_ * x_45_ + 1 x_85_ ^ 2 + 1 y_45_ ^ 2 - 2 y_85_ * y_45_ + 1 y_85_ ^ 2 ] <= 6126.66
quadratic_ranged_429_ub: [ 1 x_61_ ^ 2 - 2 x_85_ * x_61_ + 1 x_85_ ^ 2 + 1 y_61_ ^ 2 - 2 y_85_ * y_61_ + 1 y_85_ ^ 2 ] <= 9964.66
quadratic_ranged_430_ub: [ 1 x_62_ ^ 2 - 2 x_85_ * x_62_ + 1 x_85_ ^ 2 + 1 y_62_ ^ 2 - 2 y_85_ * y_62_ + 1 y_85_ ^ 2 ] <= 9649.54
quadratic_ranged_431_ub: [ 1 x_65_ ^ 2 - 2 x_85_ * x_65_ + 1 x_85_ ^ 2 + 1 y_65_ ^ 2 - 2 y_85_ * y_65_ + 1 y_85_ ^ 2 ] <= 24710.66
quadratic_ranged_432_ub: [ 1 x_77_ ^ 2 - 2 x_85_ * x_77_ + 1 x_85_ ^ 2 + 1 y_77_ ^ 2 - 2 y_85_ * y_77_ + 1 y_85_ ^ 2 ] <= 24487.45
quadratic_ranged_433_ub: [ 1 x_79_ ^ 2 - 2 x_85_ * x_79_ + 1 x_85_ ^ 2 + 1 y_79_ ^ 2 - 2 y_85_ * y_79_ + 1 y_85_ ^ 2 ] <= 20843.37
quadratic_ranged_434_ub: [ 1 x_82_ ^ 2 - 2 x_85_ * x_82_ + 1 x_85_ ^ 2 + 1 y_82_ ^ 2 - 2 y_85_ * y_82_ + 1 y_85_ ^ 2 ] <= 44667.25
quadratic_ranged_435_ub: [ 1 x_84_ ^ 2 - 2 x_85_ * x_84_ + 1 x_85_ ^ 2 + 1 y_84_ ^ 2 - 2 y_85_ * y_84_ + 1 y_85_ ^ 2 ] <= 6994.25
quadratic_ranged_436_ub: [ 1 x_2_ ^ 2 - 2 x_86_ * x_2_ + 1 x_86_ ^ 2 + 1 y_2_ ^ 2 - 2 y_86_ * y_2_ + 1 y_86_ ^ 2 ] <= 41439.29
quadratic_ranged_437_ub: [ 1 x_16_ ^ 2 - 2 x_86_ * x_16_ + 1 x_86_ ^ 2 + 1 y_16_ ^ 2 - 2 y_86_ * y_16_ + 1 y_86_ ^ 2 ] <= 15954.97
quadratic_ranged_438_ub: [ 1 x_33_ ^ 2 - 2 x_86_ * x_33_ + 1 x_86_ ^ 2 + 1 y_33_ ^ 2 - 2 y_86_ * y_33_ + 1 y_86_ ^ 2 ] <= 30304.04
quadratic_ranged_439_ub: [ 1 x_42_ ^ 2 - 2 x_86_ * x_42_ + 1 x_86_ ^ 2 + 1 y_42_ ^ 2 - 2 y_86_ * y_42_ + 1 y_86_ ^ 2 ] <= 15032.84
quadratic_ranged_440_ub: [ 1 x_69_ ^ 2 - 2 x_86_ * x_69_ + 1 x_86_ ^ 2 + 1 y_69_ ^ 2 - 2 y_86_ * y_69_ + 1 y_86_ ^ 2 ] <= 2795.68
quadratic_ranged_441_ub: [ 1 x_78_ ^ 2 - 2 x_86_ * x_78_ + 1 x_86_ ^ 2 + 1 y_78_ ^ 2 - 2 y_86_ * y_78_ + 1 y_86_ ^ 2 ] <= 2732.05
quadratic_ranged_442_ub: [ 1 x_85_ ^ 2 - 2 x_86_ * x_85_ + 1 x_86_ ^ 2 + 1 y_85_ ^ 2 - 2 y_86_ * y_85_ + 1 y_86_ ^ 2 ] <= 3573.38
quadratic_ranged_443_ub: [ 1 x_1_ ^ 2 - 2 x_87_ * x_1_ + 1 x_87_ ^ 2 + 1 y_1_ ^ 2 - 2 y_87_ * y_1_ + 1 y_87_ ^ 2 ] <= 18390.08
quadratic_ranged_444_ub: [ 1 x_22_ ^ 2 - 2 x_87_ * x_22_ + 1 x_87_ ^ 2 + 1 y_22_ ^ 2 - 2 y_87_ * y_22_ + 1 y_87_ ^ 2 ] <= 8670.85
quadratic_ranged_445_ub: [ 1 x_23_ ^ 2 - 2 x_87_ * x_23_ + 1 x_87_ ^ 2 + 1 y_23_ ^ 2 - 2 y_87_ * y_23_ + 1 y_87_ ^ 2 ] <= 28902.16
quadratic_ranged_446_ub: [ 1 x_33_ ^ 2 - 2 x_87_ * x_33_ + 1 x_87_ ^ 2 + 1 y_33_ ^ 2 - 2 y_87_ * y_33_ + 1 y_87_ ^ 2 ] <= 24026.89
quadratic_ranged_447_ub: [ 1 x_50_ ^ 2 - 2 x_87_ * x_50_ + 1 x_87_ ^ 2 + 1 y_50_ ^ 2 - 2 y_87_ * y_50_ + 1 y_87_ ^ 2 ] <= 5095.45
quadratic_ranged_448_ub: [ 1 x_53_ ^ 2 - 2 x_87_ * x_53_ + 1 x_87_ ^ 2 + 1 y_53_ ^ 2 - 2 y_87_ * y_53_ + 1 y_87_ ^ 2 ] <= 20169.7
quadratic_ranged_449_ub: [ 1 x_57_ ^ 2 - 2 x_87_ * x_57_ + 1 x_87_ ^ 2 + 1 y_57_ ^ 2 - 2 y_87_ * y_57_ + 1 y_87_ ^ 2 ] <= 13135.05
quadratic_ranged_450_ub: [ 1 x_67_ ^ 2 - 2 x_87_ * x_67_ + 1 x_87_ ^ 2 + 1 y_67_ ^ 2 - 2 y_87_ * y_67_ + 1 y_87_ ^ 2 ] <= 20369.68
quadratic_ranged_451_ub: [ 1 x_73_ ^ 2 - 2 x_87_ * x_73_ + 1 x_87_ ^ 2 + 1 y_73_ ^ 2 - 2 y_87_ * y_73_ + 1 y_87_ ^ 2 ] <= 4865.17
quadratic_ranged_452_ub: [ 1 x_82_ ^ 2 - 2 x_87_ * x_82_ + 1 x_87_ ^ 2 + 1 y_82_ ^ 2 - 2 y_87_ * y_82_ + 1 y_87_ ^ 2 ] <= 23280.5
quadratic_ranged_453_ub: [ 1 x_84_ ^ 2 - 2 x_87_ * x_84_ + 1 x_87_ ^ 2 + 1 y_84_ ^ 2 - 2 y_87_ * y_84_ + 1 y_87_ ^ 2 ] <= 13762.26
quadratic_ranged_454_ub: [ 1 x_86_ ^ 2 - 2 x_87_ * x_86_ + 1 x_87_ ^ 2 + 1 y_86_ ^ 2 - 2 y_87_ * y_86_ + 1 y_87_ ^ 2 ] <= 465.61
quadratic_ranged_455_ub: [ 1 x_9_ ^ 2 - 2 x_88_ * x_9_ + 1 x_88_ ^ 2 + 1 y_9_ ^ 2 - 2 y_88_ * y_9_ + 1 y_88_ ^ 2 ] <= 22365.44
quadratic_ranged_456_ub: [ 1 x_30_ ^ 2 - 2 x_88_ * x_30_ + 1 x_88_ ^ 2 + 1 y_30_ ^ 2 - 2 y_88_ * y_30_ + 1 y_88_ ^ 2 ] <= 2482.58
quadratic_ranged_457_ub: [ 1 x_40_ ^ 2 - 2 x_88_ * x_40_ + 1 x_88_ ^ 2 + 1 y_40_ ^ 2 - 2 y_88_ * y_40_ + 1 y_88_ ^ 2 ] <= 29634.41
quadratic_ranged_458_ub: [ 1 x_62_ ^ 2 - 2 x_88_ * x_62_ + 1 x_88_ ^ 2 + 1 y_62_ ^ 2 - 2 y_88_ * y_62_ + 1 y_88_ ^ 2 ] <= 3203.7200000000003
quadratic_ranged_459_ub: [ 1 x_83_ ^ 2 - 2 x_88_ * x_83_ + 1 x_88_ ^ 2 + 1 y_83_ ^ 2 - 2 y_88_ * y_83_ + 1 y_88_ ^ 2 ] <= 24944.98
quadratic_ranged_460_ub: [ 1 x_84_ ^ 2 - 2 x_88_ * x_84_ + 1 x_88_ ^ 2 + 1 y_84_ ^ 2 - 2 y_88_ * y_84_ + 1 y_88_ ^ 2 ] <= 33537.05
quadratic_ranged_461_ub: [ 1 x_87_ ^ 2 - 2 x_88_ * x_87_ + 1 x_88_ ^ 2 + 1 y_87_ ^ 2 - 2 y_88_ * y_87_ + 1 y_88_ ^ 2 ] <= 5527.7300000000005
quadratic_ranged_462_ub: [ 1 x_18_ ^ 2 - 2 x_89_ * x_18_ + 1 x_89_ ^ 2 + 1 y_18_ ^ 2 - 2 y_89_ * y_18_ + 1 y_89_ ^ 2 ] <= 131.3
quadratic_ranged_463_ub: [ 1 x_19_ ^ 2 - 2 x_89_ * x_19_ + 1 x_89_ ^ 2 + 1 y_19_ ^ 2 - 2 y_89_ * y_19_ + 1 y_89_ ^ 2 ] <= 9780.84
quadratic_ranged_464_ub: [ 1 x_29_ ^ 2 - 2 x_89_ * x_29_ + 1 x_89_ ^ 2 + 1 y_29_ ^ 2 - 2 y_89_ * y_29_ + 1 y_89_ ^ 2 ] <= 1713.97
quadratic_ranged_465_ub: [ 1 x_37_ ^ 2 - 2 x_89_ * x_37_ + 1 x_89_ ^ 2 + 1 y_37_ ^ 2 - 2 y_89_ * y_37_ + 1 y_89_ ^ 2 ] <= 5713.57
quadratic_ranged_466_ub: [ 1 x_39_ ^ 2 - 2 x_89_ * x_39_ + 1 x_89_ ^ 2 + 1 y_39_ ^ 2 - 2 y_89_ * y_39_ + 1 y_89_ ^ 2 ] <= 1734.17
quadratic_ranged_467_ub: [ 1 x_42_ ^ 2 - 2 x_89_ * x_42_ + 1 x_89_ ^ 2 + 1 y_42_ ^ 2 - 2 y_89_ * y_42_ + 1 y_89_ ^ 2 ] <= 7701.25
quadratic_ranged_468_ub: [ 1 x_43_ ^ 2 - 2 x_89_ * x_43_ + 1 x_89_ ^ 2 + 1 y_43_ ^ 2 - 2 y_89_ * y_43_ + 1 y_89_ ^ 2 ] <= 65.65
quadratic_ranged_469_ub: [ 1 x_50_ ^ 2 - 2 x_89_ * x_50_ + 1 x_89_ ^ 2 + 1 y_50_ ^ 2 - 2 y_89_ * y_50_ + 1 y_89_ ^ 2 ] <= 2582.57
quadratic_ranged_470_ub: [ 1 x_66_ ^ 2 - 2 x_89_ * x_66_ + 1 x_89_ ^ 2 + 1 y_66_ ^ 2 - 2 y_89_ * y_66_ + 1 y_89_ ^ 2 ] <= 3646.1
quadratic_ranged_471_ub: [ 1 x_79_ ^ 2 - 2 x_89_ * x_79_ + 1 x_89_ ^ 2 + 1 y_79_ ^ 2 - 2 y_89_ * y_79_ + 1 y_89_ ^ 2 ] <= 6439.76
quadratic_ranged_472_ub: [ 1 x_88_ ^ 2 - 2 x_89_ * x_88_ + 1 x_89_ ^ 2 + 1 y_88_ ^ 2 - 2 y_89_ * y_88_ + 1 y_89_ ^ 2 ] <= 2695.69
quadratic_ranged_473_ub: [ 1 x_26_ ^ 2 - 2 x_90_ * x_26_ + 1 x_90_ ^ 2 + 1 y_26_ ^ 2 - 2 y_90_ * y_26_ + 1 y_90_ ^ 2 ] <= 17280.09
quadratic_ranged_474_ub: [ 1 x_30_ ^ 2 - 2 x_90_ * x_30_ + 1 x_90_ ^ 2 + 1 y_30_ ^ 2 - 2 y_90_ * y_30_ + 1 y_90_ ^ 2 ] <= 2025.05
quadratic_ranged_475_ub: [ 1 x_44_ ^ 2 - 2 x_90_ * x_44_ + 1 x_90_ ^ 2 + 1 y_44_ ^ 2 - 2 y_90_ * y_44_ + 1 y_90_ ^ 2 ] <= 5927.69
quadratic_ranged_476_ub: [ 1 x_53_ ^ 2 - 2 x_90_ * x_53_ + 1 x_90_ ^ 2 + 1 y_53_ ^ 2 - 2 y_90_ * y_53_ + 1 y_90_ ^ 2 ] <= 8245.64
quadratic_ranged_477_ub: [ 1 x_68_ ^ 2 - 2 x_90_ * x_68_ + 1 x_90_ ^ 2 + 1 y_68_ ^ 2 - 2 y_90_ * y_68_ + 1 y_90_ ^ 2 ] <= 22741.16
quadratic_ranged_478_ub: [ 1 x_75_ ^ 2 - 2 x_90_ * x_75_ + 1 x_90_ ^ 2 + 1 y_75_ ^ 2 - 2 y_90_ * y_75_ + 1 y_90_ ^ 2 ] <= 39612.2
quadratic_ranged_479_ub: [ 1 x_81_ ^ 2 - 2 x_90_ * x_81_ + 1 x_90_ ^ 2 + 1 y_81_ ^ 2 - 2 y_90_ * y_81_ + 1 y_90_ ^ 2 ] <= 21470.58
quadratic_ranged_480_ub: [ 1 x_89_ ^ 2 - 2 x_90_ * x_89_ + 1 x_90_ ^ 2 + 1 y_89_ ^ 2 - 2 y_90_ * y_89_ + 1 y_90_ ^ 2 ] <= 3434
quadratic_ranged_481_ub: [ 1 x_24_ ^ 2 - 2 x_91_ * x_24_ + 1 x_91_ ^ 2 + 1 y_24_ ^ 2 - 2 y_91_ * y_24_ + 1 y_91_ ^ 2 ] <= 15757.01
quadratic_ranged_482_ub: [ 1 x_38_ ^ 2 - 2 x_91_ * x_38_ + 1 x_91_ ^ 2 + 1 y_38_ ^ 2 - 2 y_91_ * y_38_ + 1 y_91_ ^ 2 ] <= 29168.8
quadratic_ranged_483_ub: [ 1 x_39_ ^ 2 - 2 x_91_ * x_39_ + 1 x_91_ ^ 2 + 1 y_39_ ^ 2 - 2 y_91_ * y_39_ + 1 y_91_ ^ 2 ] <= 11564.5
quadratic_ranged_484_ub: [ 1 x_41_ ^ 2 - 2 x_91_ * x_41_ + 1 x_91_ ^ 2 + 1 y_41_ ^ 2 - 2 y_91_ * y_41_ + 1 y_91_ ^ 2 ] <= 1270.58
quadratic_ranged_485_ub: [ 1 x_47_ ^ 2 - 2 x_91_ * x_47_ + 1 x_91_ ^ 2 + 1 y_47_ ^ 2 - 2 y_91_ * y_47_ + 1 y_91_ ^ 2 ] <= 27415.44
quadratic_ranged_486_ub: [ 1 x_56_ ^ 2 - 2 x_91_ * x_56_ + 1 x_91_ ^ 2 + 1 y_56_ ^ 2 - 2 y_91_ * y_56_ + 1 y_91_ ^ 2 ] <= 21465.53
quadratic_ranged_487_ub: [ 1 x_57_ ^ 2 - 2 x_91_ * x_57_ + 1 x_91_ ^ 2 + 1 y_57_ ^ 2 - 2 y_91_ * y_57_ + 1 y_91_ ^ 2 ] <= 8728.42
quadratic_ranged_488_ub: [ 1 x_81_ ^ 2 - 2 x_91_ * x_81_ + 1 x_91_ ^ 2 + 1 y_81_ ^ 2 - 2 y_91_ * y_81_ + 1 y_91_ ^ 2 ] <= 400.97
quadratic_ranged_489_ub: [ 1 x_90_ ^ 2 - 2 x_91_ * x_90_ + 1 x_91_ ^ 2 + 1 y_90_ ^ 2 - 2 y_91_ * y_90_ + 1 y_91_ ^ 2 ] <= 17114.45
quadratic_ranged_490_ub: [ 1 x_7_ ^ 2 - 2 x_92_ * x_7_ + 1 x_92_ ^ 2 + 1 y_7_ ^ 2 - 2 y_92_ * y_7_ + 1 y_92_ ^ 2 ] <= 21874.58
quadratic_ranged_491_ub: [ 1 x_8_ ^ 2 - 2 x_92_ * x_8_ + 1 x_92_ ^ 2 + 1 y_8_ ^ 2 - 2 y_92_ * y_8_ + 1 y_92_ ^ 2 ] <= 13323.92
quadratic_ranged_492_ub: [ 1 x_10_ ^ 2 - 2 x_92_ * x_10_ + 1 x_92_ ^ 2 + 1 y_10_ ^ 2 - 2 y_92_ * y_10_ + 1 y_92_ ^ 2 ] <= 10149.49
quadratic_ranged_493_ub: [ 1 x_11_ ^ 2 - 2 x_92_ * x_11_ + 1 x_92_ ^ 2 + 1 y_11_ ^ 2 - 2 y_92_ * y_11_ + 1 y_92_ ^ 2 ] <= 2747.2
quadratic_ranged_494_ub: [ 1 x_12_ ^ 2 - 2 x_92_ * x_12_ + 1 x_92_ ^ 2 + 1 y_12_ ^ 2 - 2 y_92_ * y_12_ + 1 y_92_ ^ 2 ] <= 36895.3
quadratic_ranged_495_ub: [ 1 x_23_ ^ 2 - 2 x_92_ * x_23_ + 1 x_92_ ^ 2 + 1 y_23_ ^ 2 - 2 y_92_ * y_23_ + 1 y_92_ ^ 2 ] <= 9931.33
quadratic_ranged_496_ub: [ 1 x_24_ ^ 2 - 2 x_92_ * x_24_ + 1 x_92_ ^ 2 + 1 y_24_ ^ 2 - 2 y_92_ * y_24_ + 1 y_92_ ^ 2 ] <= 4283.41
quadratic_ranged_497_ub: [ 1 x_64_ ^ 2 - 2 x_92_ * x_64_ + 1 x_92_ ^ 2 + 1 y_64_ ^ 2 - 2 y_92_ * y_64_ + 1 y_92_ ^ 2 ] <= 17162.93
quadratic_ranged_498_ub: [ 1 x_73_ ^ 2 - 2 x_92_ * x_73_ + 1 x_92_ ^ 2 + 1 y_73_ ^ 2 - 2 y_92_ * y_73_ + 1 y_92_ ^ 2 ] <= 22159.4
quadratic_ranged_499_ub: [ 1 x_75_ ^ 2 - 2 x_92_ * x_75_ + 1 x_92_ ^ 2 + 1 y_75_ ^ 2 - 2 y_92_ * y_75_ + 1 y_92_ ^ 2 ] <= 1386.73
quadratic_ranged_500_ub: [ 1 x_91_ ^ 2 - 2 x_92_ * x_91_ + 1 x_92_ ^ 2 + 1 y_91_ ^ 2 - 2 y_92_ * y_91_ + 1 y_92_ ^ 2 ] <= 21008
quadratic_ranged_501_ub: [ 1 x_3_ ^ 2 - 2 x_93_ * x_3_ + 1 x_93_ ^ 2 + 1 y_3_ ^ 2 - 2 y_93_ * y_3_ + 1 y_93_ ^ 2 ] <= 880.72
quadratic_ranged_502_ub: [ 1 x_13_ ^ 2 - 2 x_93_ * x_13_ + 1 x_93_ ^ 2 + 1 y_13_ ^ 2 - 2 y_93_ * y_13_ + 1 y_93_ ^ 2 ] <= 19078.9
quadratic_ranged_503_ub: [ 1 x_14_ ^ 2 - 2 x_93_ * x_14_ + 1 x_93_ ^ 2 + 1 y_14_ ^ 2 - 2 y_93_ * y_14_ + 1 y_93_ ^ 2 ] <= 16588.24
quadratic_ranged_504_ub: [ 1 x_59_ ^ 2 - 2 x_93_ * x_59_ + 1 x_93_ ^ 2 + 1 y_59_ ^ 2 - 2 y_93_ * y_59_ + 1 y_93_ ^ 2 ] <= 16412.5
quadratic_ranged_505_ub: [ 1 x_74_ ^ 2 - 2 x_93_ * x_74_ + 1 x_93_ ^ 2 + 1 y_74_ ^ 2 - 2 y_93_ * y_74_ + 1 y_93_ ^ 2 ] <= 7786.09
quadratic_ranged_506_ub: [ 1 x_92_ ^ 2 - 2 x_93_ * x_92_ + 1 x_93_ ^ 2 + 1 y_92_ ^ 2 - 2 y_93_ * y_92_ + 1 y_93_ ^ 2 ] <= 11179.69
quadratic_ranged_507_ub: [ 1 x_6_ ^ 2 - 2 x_94_ * x_6_ + 1 x_94_ ^ 2 + 1 y_6_ ^ 2 - 2 y_94_ * y_6_ + 1 y_94_ ^ 2 ] <= 429.25
quadratic_ranged_508_ub: [ 1 x_9_ ^ 2 - 2 x_94_ * x_9_ + 1 x_94_ ^ 2 + 1 y_9_ ^ 2 - 2 y_94_ * y_9_ + 1 y_94_ ^ 2 ] <= 10969.61
quadratic_ranged_509_ub: [ 1 x_12_ ^ 2 - 2 x_94_ * x_12_ + 1 x_94_ ^ 2 + 1 y_12_ ^ 2 - 2 y_94_ * y_12_ + 1 y_94_ ^ 2 ] <= 10145.45
quadratic_ranged_510_ub: [ 1 x_15_ ^ 2 - 2 x_94_ * x_15_ + 1 x_94_ ^ 2 + 1 y_15_ ^ 2 - 2 y_94_ * y_15_ + 1 y_94_ ^ 2 ] <= 7297.25
quadratic_ranged_511_ub: [ 1 x_23_ ^ 2 - 2 x_94_ * x_23_ + 1 x_94_ ^ 2 + 1 y_23_ ^ 2 - 2 y_94_ * y_23_ + 1 y_94_ ^ 2 ] <= 23690.56
quadratic_ranged_512_ub: [ 1 x_28_ ^ 2 - 2 x_94_ * x_28_ + 1 x_94_ ^ 2 + 1 y_28_ ^ 2 - 2 y_94_ * y_28_ + 1 y_94_ ^ 2 ] <= 4098.58
quadratic_ranged_513_ub: [ 1 x_30_ ^ 2 - 2 x_94_ * x_30_ + 1 x_94_ ^ 2 + 1 y_30_ ^ 2 - 2 y_94_ * y_30_ + 1 y_94_ ^ 2 ] <= 223.21
quadratic_ranged_514_ub: [ 1 x_43_ ^ 2 - 2 x_94_ * x_43_ + 1 x_94_ ^ 2 + 1 y_43_ ^ 2 - 2 y_94_ * y_43_ + 1 y_94_ ^ 2 ] <= 198.97
quadratic_ranged_515_ub: [ 1 x_44_ ^ 2 - 2 x_94_ * x_44_ + 1 x_94_ ^ 2 + 1 y_44_ ^ 2 - 2 y_94_ * y_44_ + 1 y_94_ ^ 2 ] <= 2853.25
quadratic_ranged_516_ub: [ 1 x_56_ ^ 2 - 2 x_94_ * x_56_ + 1 x_94_ ^ 2 + 1 y_56_ ^ 2 - 2 y_94_ * y_56_ + 1 y_94_ ^ 2 ] <= 5304.52
quadratic_ranged_517_ub: [ 1 x_78_ ^ 2 - 2 x_94_ * x_78_ + 1 x_94_ ^ 2 + 1 y_78_ ^ 2 - 2 y_94_ * y_78_ + 1 y_94_ ^ 2 ] <= 6676.1
quadratic_ranged_518_ub: [ 1 x_93_ ^ 2 - 2 x_94_ * x_93_ + 1 x_94_ ^ 2 + 1 y_93_ ^ 2 - 2 y_94_ * y_93_ + 1 y_94_ ^ 2 ] <= 4189.4800000000005
quadratic_ranged_519_ub: [ 1 x_6_ ^ 2 - 2 x_95_ * x_6_ + 1 x_95_ ^ 2 + 1 y_6_ ^ 2 - 2 y_95_ * y_6_ + 1 y_95_ ^ 2 ] <= 4962.13
quadratic_ranged_520_ub: [ 1 x_14_ ^ 2 - 2 x_95_ * x_14_ + 1 x_95_ ^ 2 + 1 y_14_ ^ 2 - 2 y_95_ * y_14_ + 1 y_95_ ^ 2 ] <= 15297.460000000001
quadratic_ranged_521_ub: [ 1 x_26_ ^ 2 - 2 x_95_ * x_26_ + 1 x_95_ ^ 2 + 1 y_26_ ^ 2 - 2 y_95_ * y_26_ + 1 y_95_ ^ 2 ] <= 7563.89
quadratic_ranged_522_ub: [ 1 x_28_ ^ 2 - 2 x_95_ * x_28_ + 1 x_95_ ^ 2 + 1 y_28_ ^ 2 - 2 y_95_ * y_28_ + 1 y_95_ ^ 2 ] <= 20866.6
quadratic_ranged_523_ub: [ 1 x_36_ ^ 2 - 2 x_95_ * x_36_ + 1 x_95_ ^ 2 + 1 y_36_ ^ 2 - 2 y_95_ * y_36_ + 1 y_95_ ^ 2 ] <= 9425.32
quadratic_ranged_524_ub: [ 1 x_38_ ^ 2 - 2 x_95_ * x_38_ + 1 x_95_ ^ 2 + 1 y_38_ ^ 2 - 2 y_95_ * y_38_ + 1 y_95_ ^ 2 ] <= 1572.57
quadratic_ranged_525_ub: [ 1 x_51_ ^ 2 - 2 x_95_ * x_51_ + 1 x_95_ ^ 2 + 1 y_51_ ^ 2 - 2 y_95_ * y_51_ + 1 y_95_ ^ 2 ] <= 18593.09
quadratic_ranged_526_ub: [ 1 x_53_ ^ 2 - 2 x_95_ * x_53_ + 1 x_95_ ^ 2 + 1 y_53_ ^ 2 - 2 y_95_ * y_53_ + 1 y_95_ ^ 2 ] <= 25617.64
quadratic_ranged_527_ub: [ 1 x_89_ ^ 2 - 2 x_95_ * x_89_ + 1 x_95_ ^ 2 + 1 y_89_ ^ 2 - 2 y_95_ * y_89_ + 1 y_95_ ^ 2 ] <= 6480.16
quadratic_ranged_528_ub: [ 1 x_94_ ^ 2 - 2 x_95_ * x_94_ + 1 x_95_ ^ 2 + 1 y_94_ ^ 2 - 2 y_95_ * y_94_ + 1 y_95_ ^ 2 ] <= 7726.5
quadratic_ranged_529_ub: [ 1 x_12_ ^ 2 - 2 x_96_ * x_12_ + 1 x_96_ ^ 2 + 1 y_12_ ^ 2 - 2 y_96_ * y_12_ + 1 y_96_ ^ 2 ] <= 2873.45
quadratic_ranged_530_ub: [ 1 x_40_ ^ 2 - 2 x_96_ * x_40_ + 1 x_96_ ^ 2 + 1 y_40_ ^ 2 - 2 y_96_ * y_40_ + 1 y_96_ ^ 2 ] <= 16050.92
quadratic_ranged_531_ub: [ 1 x_45_ ^ 2 - 2 x_96_ * x_45_ + 1 x_96_ ^ 2 + 1 y_45_ ^ 2 - 2 y_96_ * y_45_ + 1 y_96_ ^ 2 ] <= 10137.37
quadratic_ranged_532_ub: [ 1 x_48_ ^ 2 - 2 x_96_ * x_48_ + 1 x_96_ ^ 2 + 1 y_48_ ^ 2 - 2 y_96_ * y_48_ + 1 y_96_ ^ 2 ] <= 3886.48
quadratic_ranged_533_ub: [ 1 x_60_ ^ 2 - 2 x_96_ * x_60_ + 1 x_96_ ^ 2 + 1 y_60_ ^ 2 - 2 y_96_ * y_60_ + 1 y_96_ ^ 2 ] <= 18669.85
quadratic_ranged_534_ub: [ 1 x_63_ ^ 2 - 2 x_96_ * x_63_ + 1 x_96_ ^ 2 + 1 y_63_ ^ 2 - 2 y_96_ * y_63_ + 1 y_96_ ^ 2 ] <= 15263.12
quadratic_ranged_535_ub: [ 1 x_64_ ^ 2 - 2 x_96_ * x_64_ + 1 x_96_ ^ 2 + 1 y_64_ ^ 2 - 2 y_96_ * y_64_ + 1 y_96_ ^ 2 ] <= 4686.4
quadratic_ranged_536_ub: [ 1 x_66_ ^ 2 - 2 x_96_ * x_66_ + 1 x_96_ ^ 2 + 1 y_66_ ^ 2 - 2 y_96_ * y_66_ + 1 y_96_ ^ 2 ] <= 1698.82
quadratic_ranged_537_ub: [ 1 x_71_ ^ 2 - 2 x_96_ * x_71_ + 1 x_96_ ^ 2 + 1 y_71_ ^ 2 - 2 y_96_ * y_71_ + 1 y_96_ ^ 2 ] <= 3212.81
quadratic_ranged_538_ub: [ 1 x_72_ ^ 2 - 2 x_96_ * x_72_ + 1 x_96_ ^ 2 + 1 y_72_ ^ 2 - 2 y_96_ * y_72_ + 1 y_96_ ^ 2 ] <= 13130
quadratic_ranged_539_ub: [ 1 x_87_ ^ 2 - 2 x_96_ * x_87_ + 1 x_96_ ^ 2 + 1 y_87_ ^ 2 - 2 y_96_ * y_87_ + 1 y_96_ ^ 2 ] <= 9003.14
quadratic_ranged_540_ub: [ 1 x_88_ ^ 2 - 2 x_96_ * x_88_ + 1 x_96_ ^ 2 + 1 y_88_ ^ 2 - 2 y_96_ * y_88_ + 1 y_96_ ^ 2 ] <= 5883.25
quadratic_ranged_541_ub: [ 1 x_95_ ^ 2 - 2 x_96_ * x_95_ + 1 x_96_ ^ 2 + 1 y_95_ ^ 2 - 2 y_96_ * y_95_ + 1 y_96_ ^ 2 ] <= 13453.2
quadratic_ranged_542_ub: [ 1 x_8_ ^ 2 - 2 x_97_ * x_8_ + 1 x_97_ ^ 2 + 1 y_8_ ^ 2 - 2 y_97_ * y_8_ + 1 y_97_ ^ 2 ] <= 21206.97
quadratic_ranged_543_ub: [ 1 x_32_ ^ 2 - 2 x_97_ * x_32_ + 1 x_97_ ^ 2 + 1 y_32_ ^ 2 - 2 y_97_ * y_32_ + 1 y_97_ ^ 2 ] <= 34486.45
quadratic_ranged_544_ub: [ 1 x_35_ ^ 2 - 2 x_97_ * x_35_ + 1 x_97_ ^ 2 + 1 y_35_ ^ 2 - 2 y_97_ * y_35_ + 1 y_97_ ^ 2 ] <= 9894.97
quadratic_ranged_545_ub: [ 1 x_52_ ^ 2 - 2 x_97_ * x_52_ + 1 x_97_ ^ 2 + 1 y_52_ ^ 2 - 2 y_97_ * y_52_ + 1 y_97_ ^ 2 ] <= 43512.82
quadratic_ranged_546_ub: [ 1 x_88_ ^ 2 - 2 x_97_ * x_88_ + 1 x_97_ ^ 2 + 1 y_88_ ^ 2 - 2 y_97_ * y_88_ + 1 y_97_ ^ 2 ] <= 36231.73
quadratic_ranged_547_ub: [ 1 x_92_ ^ 2 - 2 x_97_ * x_92_ + 1 x_97_ ^ 2 + 1 y_92_ ^ 2 - 2 y_97_ * y_92_ + 1 y_97_ ^ 2 ] <= 4800.53
quadratic_ranged_548_ub: [ 1 x_95_ ^ 2 - 2 x_97_ * x_95_ + 1 x_97_ ^ 2 + 1 y_95_ ^ 2 - 2 y_97_ * y_95_ + 1 y_97_ ^ 2 ] <= 9797
quadratic_ranged_549_ub: [ 1 x_96_ ^ 2 - 2 x_97_ * x_96_ + 1 x_97_ ^ 2 + 1 y_96_ ^ 2 - 2 y_97_ * y_96_ + 1 y_97_ ^ 2 ] <= 17311.4
quadratic_ranged_550_ub: [ 1 x_12_ ^ 2 - 2 x_98_ * x_12_ + 1 x_98_ ^ 2 + 1 y_12_ ^ 2 - 2 y_98_ * y_12_ + 1 y_98_ ^ 2 ] <= 10561.57
quadratic_ranged_551_ub: [ 1 x_14_ ^ 2 - 2 x_98_ * x_14_ + 1 x_98_ ^ 2 + 1 y_14_ ^ 2 - 2 y_98_ * y_14_ + 1 y_98_ ^ 2 ] <= 8972.84
quadratic_ranged_552_ub: [ 1 x_30_ ^ 2 - 2 x_98_ * x_30_ + 1 x_98_ ^ 2 + 1 y_30_ ^ 2 - 2 y_98_ * y_30_ + 1 y_98_ ^ 2 ] <= 703.97
quadratic_ranged_553_ub: [ 1 x_33_ ^ 2 - 2 x_98_ * x_33_ + 1 x_98_ ^ 2 + 1 y_33_ ^ 2 - 2 y_98_ * y_33_ + 1 y_98_ ^ 2 ] <= 11244.33
quadratic_ranged_554_ub: [ 1 x_46_ ^ 2 - 2 x_98_ * x_46_ + 1 x_98_ ^ 2 + 1 y_46_ ^ 2 - 2 y_98_ * y_46_ + 1 y_98_ ^ 2 ] <= 16294.33
quadratic_ranged_555_ub: [ 1 x_51_ ^ 2 - 2 x_98_ * x_51_ + 1 x_98_ ^ 2 + 1 y_51_ ^ 2 - 2 y_98_ * y_51_ + 1 y_98_ ^ 2 ] <= 5386.33
quadratic_ranged_556_ub: [ 1 x_56_ ^ 2 - 2 x_98_ * x_56_ + 1 x_98_ ^ 2 + 1 y_56_ ^ 2 - 2 y_98_ * y_56_ + 1 y_98_ ^ 2 ] <= 8762.76
quadratic_ranged_557_ub: [ 1 x_58_ ^ 2 - 2 x_98_ * x_58_ + 1 x_98_ ^ 2 + 1 y_58_ ^ 2 - 2 y_98_ * y_58_ + 1 y_98_ ^ 2 ] <= 12251.3
quadratic_ranged_558_ub: [ 1 x_62_ ^ 2 - 2 x_98_ * x_62_ + 1 x_98_ ^ 2 + 1 y_62_ ^ 2 - 2 y_98_ * y_62_ + 1 y_98_ ^ 2 ] <= 2416.93
quadratic_ranged_559_ub: [ 1 x_64_ ^ 2 - 2 x_98_ * x_64_ + 1 x_98_ ^ 2 + 1 y_64_ ^ 2 - 2 y_98_ * y_64_ + 1 y_98_ ^ 2 ] <= 14618.74
quadratic_ranged_560_ub: [ 1 x_72_ ^ 2 - 2 x_98_ * x_72_ + 1 x_98_ ^ 2 + 1 y_72_ ^ 2 - 2 y_98_ * y_72_ + 1 y_98_ ^ 2 ] <= 22084.66
quadratic_ranged_561_ub: [ 1 x_92_ ^ 2 - 2 x_98_ * x_92_ + 1 x_98_ ^ 2 + 1 y_92_ ^ 2 - 2 y_98_ * y_92_ + 1 y_98_ ^ 2 ] <= 28002.25
quadratic_ranged_562_ub: [ 1 x_97_ ^ 2 - 2 x_98_ * x_97_ + 1 x_98_ ^ 2 + 1 y_97_ ^ 2 - 2 y_98_ * y_97_ + 1 y_98_ ^ 2 ] <= 27910.34
quadratic_ranged_563_ub: [ 1 x_5_ ^ 2 - 2 x_99_ * x_5_ + 1 x_99_ ^ 2 + 1 y_5_ ^ 2 - 2 y_99_ * y_5_ + 1 y_99_ ^ 2 ] <= 5740.84
quadratic_ranged_564_ub: [ 1 x_18_ ^ 2 - 2 x_99_ * x_18_ + 1 x_99_ ^ 2 + 1 y_18_ ^ 2 - 2 y_99_ * y_18_ + 1 y_99_ ^ 2 ] <= 20423.21
quadratic_ranged_565_ub: [ 1 x_37_ ^ 2 - 2 x_99_ * x_37_ + 1 x_99_ ^ 2 + 1 y_37_ ^ 2 - 2 y_99_ * y_37_ + 1 y_99_ ^ 2 ] <= 22714.9
quadratic_ranged_566_ub: [ 1 x_46_ ^ 2 - 2 x_99_ * x_46_ + 1 x_99_ ^ 2 + 1 y_46_ ^ 2 - 2 y_99_ * y_46_ + 1 y_99_ ^ 2 ] <= 10231.3
quadratic_ranged_567_ub: [ 1 x_47_ ^ 2 - 2 x_99_ * x_47_ + 1 x_99_ ^ 2 + 1 y_47_ ^ 2 - 2 y_99_ * y_47_ + 1 y_99_ ^ 2 ] <= 9924.26
quadratic_ranged_568_ub: [ 1 x_57_ ^ 2 - 2 x_99_ * x_57_ + 1 x_99_ ^ 2 + 1 y_57_ ^ 2 - 2 y_99_ * y_57_ + 1 y_99_ ^ 2 ] <= 359.56
quadratic_ranged_569_ub: [ 1 x_58_ ^ 2 - 2 x_99_ * x_58_ + 1 x_99_ ^ 2 + 1 y_58_ ^ 2 - 2 y_99_ * y_58_ + 1 y_99_ ^ 2 ] <= 14363.210000000001
quadratic_ranged_570_ub: [ 1 x_80_ ^ 2 - 2 x_99_ * x_80_ + 1 x_99_ ^ 2 + 1 y_80_ ^ 2 - 2 y_99_ * y_80_ + 1 y_99_ ^ 2 ] <= 538.33
quadratic_ranged_571_ub: [ 1 x_91_ ^ 2 - 2 x_99_ * x_91_ + 1 x_99_ ^ 2 + 1 y_91_ ^ 2 - 2 y_99_ * y_91_ + 1 y_99_ ^ 2 ] <= 10651.460000000001
quadratic_ranged_572_ub: [ 1 x_93_ ^ 2 - 2 x_99_ * x_93_ + 1 x_99_ ^ 2 + 1 y_93_ ^ 2 - 2 y_99_ * y_93_ + 1 y_99_ ^ 2 ] <= 14351.09
quadratic_ranged_573_ub: [ 1 x_98_ ^ 2 - 2 x_99_ * x_98_ + 1 x_99_ ^ 2 + 1 y_98_ ^ 2 - 2 y_99_ * y_98_ + 1 y_99_ ^ 2 ] <= 24915.69
quadratic_ranged_574_ub: [ 1 x_1_ ^ 2 - 2 x_100_ * x_1_ + 1 x_100_ ^ 2 + 1 y_1_ ^ 2 - 2 y_100_ * y_1_ + 1 y_100_ ^ 2 ] <= 4849.01
quadratic_ranged_575_ub: [ 1 x_2_ ^ 2 - 2 x_100_ * x_2_ + 1 x_100_ ^ 2 + 1 y_2_ ^ 2 - 2 y_100_ * y_2_ + 1 y_100_ ^ 2 ] <= 2218.97
quadratic_ranged_576_ub: [ 1 x_5_ ^ 2 - 2 x_100_ * x_5_ + 1 x_100_ ^ 2 + 1 y_5_ ^ 2 - 2 y_100_ * y_5_ + 1 y_100_ ^ 2 ] <= 22116.98
quadratic_ranged_577_ub: [ 1 x_18_ ^ 2 - 2 x_100_ * x_18_ + 1 x_100_ ^ 2 + 1 y_18_ ^ 2 - 2 y_100_ * y_18_ + 1 y_100_ ^ 2 ] <= 19259.69
quadratic_ranged_578_ub: [ 1 x_28_ ^ 2 - 2 x_100_ * x_28_ + 1 x_100_ ^ 2 + 1 y_28_ ^ 2 - 2 y_100_ * y_28_ + 1 y_100_ ^ 2 ] <= 7297.25
quadratic_ranged_579_ub: [ 1 x_32_ ^ 2 - 2 x_100_ * x_32_ + 1 x_100_ ^ 2 + 1 y_32_ ^ 2 - 2 y_100_ * y_32_ + 1 y_100_ ^ 2 ] <= 28570.88
quadratic_ranged_580_ub: [ 1 x_51_ ^ 2 - 2 x_100_ * x_51_ + 1 x_100_ ^ 2 + 1 y_51_ ^ 2 - 2 y_100_ * y_51_ + 1 y_100_ ^ 2 ] <= 3500.66
quadratic_ranged_581_ub: [ 1 x_62_ ^ 2 - 2 x_100_ * x_62_ + 1 x_100_ ^ 2 + 1 y_62_ ^ 2 - 2 y_100_ * y_62_ + 1 y_100_ ^ 2 ] <= 26183.24
quadratic_ranged_582_ub: [ 1 x_69_ ^ 2 - 2 x_100_ * x_69_ + 1 x_100_ ^ 2 + 1 y_69_ ^ 2 - 2 y_100_ * y_69_ + 1 y_100_ ^ 2 ] <= 25229.8
quadratic_ranged_583_ub: [ 1 x_78_ ^ 2 - 2 x_100_ * x_78_ + 1 x_100_ ^ 2 + 1 y_78_ ^ 2 - 2 y_100_ * y_78_ + 1 y_100_ ^ 2 ] <= 23602.69
quadratic_ranged_584_ub: [ 1 x_79_ ^ 2 - 2 x_100_ * x_79_ + 1 x_100_ ^ 2 + 1 y_79_ ^ 2 - 2 y_100_ * y_79_ + 1 y_100_ ^ 2 ] <= 5236.85
quadratic_ranged_585_ub: [ 1 x_99_ ^ 2 - 2 x_100_ * x_99_ + 1 x_100_ ^ 2 + 1 y_99_ ^ 2 - 2 y_100_ * y_99_ + 1 y_100_ ^ 2 ] <= 17139.7
c1_2: 1 x_2_ >= 0
c2_2: 1 y_2_ >= 0
quadratic_ranged_1_lb: [ 1 x_1_ ^ 2 - 2 x_2_ * x_1_ + 1 x_2_ ^ 2 + 1 y_1_ ^ 2 - 2 y_2_ * y_1_ + 1 y_2_ ^ 2 ] >= 13275.9
quadratic_ranged_2_lb: [ 1 x_2_ ^ 2 - 2 x_3_ * x_2_ + 1 x_3_ ^ 2 + 1 y_2_ ^ 2 - 2 y_3_ * y_2_ + 1 y_3_ ^ 2 ] >= 50135.58
quadratic_ranged_3_lb: [ 1 x_1_ ^ 2 - 2 x_4_ * x_1_ + 1 x_4_ ^ 2 + 1 y_1_ ^ 2 - 2 y_4_ * y_1_ + 1 y_4_ ^ 2 ] >= 3782.79
quadratic_ranged_4_lb: [ 1 x_3_ ^ 2 - 2 x_4_ * x_3_ + 1 x_4_ ^ 2 + 1 y_3_ ^ 2 - 2 y_4_ * y_3_ + 1 y_4_ ^ 2 ] >= 24465.87
quadratic_ranged_5_lb: [ 1 x_4_ ^ 2 - 2 x_5_ * x_4_ + 1 x_5_ ^ 2 + 1 y_4_ ^ 2 - 2 y_5_ * y_4_ + 1 y_5_ ^ 2 ] >= 3011.58
quadratic_ranged_6_lb: [ 1 x_5_ ^ 2 - 2 x_6_ * x_5_ + 1 x_6_ ^ 2 + 1 y_5_ ^ 2 - 2 y_6_ * y_5_ + 1 y_6_ ^ 2 ] >= 30462.3
quadratic_ranged_7_lb: [ 1 x_6_ ^ 2 - 2 x_7_ * x_6_ + 1 x_7_ ^ 2 + 1 y_6_ ^ 2 - 2 y_7_ * y_6_ + 1 y_7_ ^ 2 ] >= 2409.66
quadratic_ranged_8_lb: [ 1 x_3_ ^ 2 - 2 x_8_ * x_3_ + 1 x_8_ ^ 2 + 1 y_3_ ^ 2 - 2 y_8_ * y_3_ + 1 y_8_ ^ 2 ] >= 1002.87
quadratic_ranged_9_lb: [ 1 x_7_ ^ 2 - 2 x_8_ * x_7_ + 1 x_8_ ^ 2 + 1 y_7_ ^ 2 - 2 y_8_ * y_7_ + 1 y_8_ ^ 2 ] >= 1514.7
quadratic_ranged_10_lb: [ 1 x_3_ ^ 2 - 2 x_9_ * x_3_ + 1 x_9_ ^ 2 + 1 y_3_ ^ 2 - 2 y_9_ * y_3_ + 1 y_9_ ^ 2 ] >= 25150.95
quadratic_ranged_11_lb: [ 1 x_8_ ^ 2 - 2 x_9_ * x_8_ + 1 x_9_ ^ 2 + 1 y_8_ ^ 2 - 2 y_9_ * y_8_ + 1 y_9_ ^ 2 ] >= 18315
quadratic_ranged_12_lb: [ 1 x_2_ ^ 2 - 2 x_10_ * x_2_ + 1 x_10_ ^ 2 + 1 y_2_ ^ 2 - 2 y_10_ * y_2_ + 1 y_10_ ^ 2 ] >= 26977.5
quadratic_ranged_13_lb: [ 1 x_6_ ^ 2 - 2 x_10_ * x_6_ + 1 x_10_ ^ 2 + 1 y_6_ ^ 2 - 2 y_10_ * y_6_ + 1 y_10_ ^ 2 ] >= 777.15
quadratic_ranged_14_lb: [ 1 x_9_ ^ 2 - 2 x_10_ * x_9_ + 1 x_10_ ^ 2 + 1 y_9_ ^ 2 - 2 y_10_ * y_9_ + 1 y_10_ ^ 2 ] >= 10308.87
quadratic_ranged_15_lb: [ 1 x_2_ ^ 2 - 2 x_11_ * x_2_ + 1 x_11_ ^ 2 + 1 y_2_ ^ 2 - 2 y_11_ * y_2_ + 1 y_11_ ^ 2 ] >= 36825.03
quadratic_ranged_16_lb: [ 1 x_7_ ^ 2 - 2 x_11_ * x_7_ + 1 x_11_ ^ 2 + 1 y_7_ ^ 2 - 2 y_11_ * y_7_ + 1 y_11_ ^ 2 ] >= 29567.34
quadratic_ranged_17_lb: [ 1 x_9_ ^ 2 - 2 x_11_ * x_9_ + 1 x_11_ ^ 2 + 1 y_9_ ^ 2 - 2 y_11_ * y_9_ + 1 y_11_ ^ 2 ] >= 7987.32
quadratic_ranged_18_lb: [ 1 x_10_ ^ 2 - 2 x_11_ * x_10_ + 1 x_11_ ^ 2 + 1 y_10_ ^ 2 - 2 y_11_ * y_10_ + 1 y_11_ ^ 2 ] >= 15183.63
quadratic_ranged_19_lb: [ 1 x_11_ ^ 2 - 2 x_12_ * x_11_ + 1 x_12_ ^ 2 + 1 y_11_ ^ 2 - 2 y_12_ * y_11_ + 1 y_12_ ^ 2 ] >= 30541.5
quadratic_ranged_20_lb: [ 1 x_3_ ^ 2 - 2 x_13_ * x_3_ + 1 x_13_ ^ 2 + 1 y_3_ ^ 2 - 2 y_13_ * y_3_ + 1 y_13_ ^ 2 ] >= 26922.06
quadratic_ranged_21_lb: [ 1 x_5_ ^ 2 - 2 x_13_ * x_5_ + 1 x_13_ ^ 2 + 1 y_5_ ^ 2 - 2 y_13_ * y_5_ + 1 y_13_ ^ 2 ] >= 10986.03
quadratic_ranged_22_lb: [ 1 x_12_ ^ 2 - 2 x_13_ * x_12_ + 1 x_13_ ^ 2 + 1 y_12_ ^ 2 - 2 y_13_ * y_12_ + 1 y_13_ ^ 2 ] >= 6883.47
quadratic_ranged_23_lb: [ 1 x_1_ ^ 2 - 2 x_14_ * x_1_ + 1 x_14_ ^ 2 + 1 y_1_ ^ 2 - 2 y_14_ * y_1_ + 1 y_14_ ^ 2 ] >= 3298.68
quadratic_ranged_24_lb: [ 1 x_13_ ^ 2 - 2 x_14_ * x_13_ + 1 x_14_ ^ 2 + 1 y_13_ ^ 2 - 2 y_14_ * y_13_ + 1 y_14_ ^ 2 ] >= 1863.18
quadratic_ranged_25_lb: [ 1 x_4_ ^ 2 - 2 x_15_ * x_4_ + 1 x_15_ ^ 2 + 1 y_4_ ^ 2 - 2 y_15_ * y_4_ + 1 y_15_ ^ 2 ] >= 20617.74
quadratic_ranged_26_lb: [ 1 x_14_ ^ 2 - 2 x_15_ * x_14_ + 1 x_15_ ^ 2 + 1 y_14_ ^ 2 - 2 y_15_ * y_14_ + 1 y_15_ ^ 2 ] >= 21301.829999999998
quadratic_ranged_27_lb: [ 1 x_15_ ^ 2 - 2 x_16_ * x_15_ + 1 x_16_ ^ 2 + 1 y_15_ ^ 2 - 2 y_16_ * y_15_ + 1 y_16_ ^ 2 ] >= 18003.15
quadratic_ranged_28_lb: [ 1 x_2_ ^ 2 - 2 x_17_ * x_2_ + 1 x_17_ ^ 2 + 1 y_2_ ^ 2 - 2 y_17_ * y_2_ + 1 y_17_ ^ 2 ] >= 48871.35
quadratic_ranged_29_lb: [ 1 x_5_ ^ 2 - 2 x_17_ * x_5_ + 1 x_17_ ^ 2 + 1 y_5_ ^ 2 - 2 y_17_ * y_5_ + 1 y_17_ ^ 2 ] >= 40560.3
quadratic_ranged_30_lb: [ 1 x_16_ ^ 2 - 2 x_17_ * x_16_ + 1 x_17_ ^ 2 + 1 y_16_ ^ 2 - 2 y_17_ * y_16_ + 1 y_17_ ^ 2 ] >= 19804.95
quadratic_ranged_31_lb: [ 1 x_5_ ^ 2 - 2 x_18_ * x_5_ + 1 x_18_ ^ 2 + 1 y_5_ ^ 2 - 2 y_18_ * y_5_ + 1 y_18_ ^ 2 ] >= 43747.11
quadratic_ranged_32_lb: [ 1 x_13_ ^ 2 - 2 x_18_ * x_13_ + 1 x_18_ ^ 2 + 1 y_13_ ^ 2 - 2 y_18_ * y_13_ + 1 y_18_ ^ 2 ] >= 15849.9
quadratic_ranged_33_lb: [ 1 x_17_ ^ 2 - 2 x_18_ * x_17_ + 1 x_18_ ^ 2 + 1 y_17_ ^ 2 - 2 y_18_ * y_17_ + 1 y_18_ ^ 2 ] >= 6851.79
quadratic_ranged_34_lb: [ 1 x_4_ ^ 2 - 2 x_19_ * x_4_ + 1 x_19_ ^ 2 + 1 y_4_ ^ 2 - 2 y_19_ * y_4_ + 1 y_19_ ^ 2 ] >= 29645.55
quadratic_ranged_35_lb: [ 1 x_7_ ^ 2 - 2 x_19_ * x_7_ + 1 x_19_ ^ 2 + 1 y_7_ ^ 2 - 2 y_19_ * y_7_ + 1 y_19_ ^ 2 ] >= 13924.35
quadratic_ranged_36_lb: [ 1 x_18_ ^ 2 - 2 x_19_ * x_18_ + 1 x_19_ ^ 2 + 1 y_18_ ^ 2 - 2 y_19_ * y_18_ + 1 y_19_ ^ 2 ] >= 9727.74
quadratic_ranged_37_lb: [ 1 x_19_ ^ 2 - 2 x_20_ * x_19_ + 1 x_20_ ^ 2 + 1 y_19_ ^ 2 - 2 y_20_ * y_19_ + 1 y_20_ ^ 2 ] >= 15456.869999999999
quadratic_ranged_38_lb: [ 1 x_5_ ^ 2 - 2 x_21_ * x_5_ + 1 x_21_ ^ 2 + 1 y_5_ ^ 2 - 2 y_21_ * y_5_ + 1 y_21_ ^ 2 ] >= 42516.54
quadratic_ranged_39_lb: [ 1 x_9_ ^ 2 - 2 x_21_ * x_9_ + 1 x_21_ ^ 2 + 1 y_9_ ^ 2 - 2 y_21_ * y_9_ + 1 y_21_ ^ 2 ] >= 11187
quadratic_ranged_40_lb: [ 1 x_20_ ^ 2 - 2 x_21_ * x_20_ + 1 x_21_ ^ 2 + 1 y_20_ ^ 2 - 2 y_21_ * y_20_ + 1 y_21_ ^ 2 ] >= 6672.6
quadratic_ranged_41_lb: [ 1 x_1_ ^ 2 - 2 x_22_ * x_1_ + 1 x_22_ ^ 2 + 1 y_1_ ^ 2 - 2 y_22_ * y_1_ + 1 y_22_ ^ 2 ] >= 8459.55
quadratic_ranged_42_lb: [ 1 x_21_ ^ 2 - 2 x_22_ * x_21_ + 1 x_22_ ^ 2 + 1 y_21_ ^ 2 - 2 y_22_ * y_21_ + 1 y_22_ ^ 2 ] >= 19762.38
quadratic_ranged_43_lb: [ 1 x_22_ ^ 2 - 2 x_23_ * x_22_ + 1 x_23_ ^ 2 + 1 y_22_ ^ 2 - 2 y_23_ * y_22_ + 1 y_23_ ^ 2 ] >= 10134.63
quadratic_ranged_44_lb: [ 1 x_9_ ^ 2 - 2 x_24_ * x_9_ + 1 x_24_ ^ 2 + 1 y_9_ ^ 2 - 2 y_24_ * y_9_ + 1 y_24_ ^ 2 ] >= 9148.59
quadratic_ranged_45_lb: [ 1 x_23_ ^ 2 - 2 x_24_ * x_23_ + 1 x_24_ ^ 2 + 1 y_23_ ^ 2 - 2 y_24_ * y_23_ + 1 y_24_ ^ 2 ] >= 2385.9
quadratic_ranged_46_lb: [ 1 x_1_ ^ 2 - 2 x_25_ * x_1_ + 1 x_25_ ^ 2 + 1 y_1_ ^ 2 - 2 y_25_ * y_1_ + 1 y_25_ ^ 2 ] >= 12974.94
quadratic_ranged_47_lb: [ 1 x_17_ ^ 2 - 2 x_25_ * x_17_ + 1 x_25_ ^ 2 + 1 y_17_ ^ 2 - 2 y_25_ * y_17_ + 1 y_25_ ^ 2 ] >= 2060.19
quadratic_ranged_48_lb: [ 1 x_24_ ^ 2 - 2 x_25_ * x_24_ + 1 x_25_ ^ 2 + 1 y_24_ ^ 2 - 2 y_25_ * y_24_ + 1 y_25_ ^ 2 ] >= 12988.8
quadratic_ranged_49_lb: [ 1 x_19_ ^ 2 - 2 x_26_ * x_19_ + 1 x_26_ ^ 2 + 1 y_19_ ^ 2 - 2 y_26_ * y_19_ + 1 y_26_ ^ 2 ] >= 11370.15
quadratic_ranged_50_lb: [ 1 x_23_ ^ 2 - 2 x_26_ * x_23_ + 1 x_26_ ^ 2 + 1 y_23_ ^ 2 - 2 y_26_ * y_23_ + 1 y_26_ ^ 2 ] >= 4099.59
quadratic_ranged_51_lb: [ 1 x_25_ ^ 2 - 2 x_26_ * x_25_ + 1 x_26_ ^ 2 + 1 y_25_ ^ 2 - 2 y_26_ * y_25_ + 1 y_26_ ^ 2 ] >= 8827.83
quadratic_ranged_52_lb: [ 1 x_1_ ^ 2 - 2 x_27_ * x_1_ + 1 x_27_ ^ 2 + 1 y_1_ ^ 2 - 2 y_27_ * y_1_ + 1 y_27_ ^ 2 ] >= 5593.5
quadratic_ranged_53_lb: [ 1 x_20_ ^ 2 - 2 x_27_ * x_20_ + 1 x_27_ ^ 2 + 1 y_20_ ^ 2 - 2 y_27_ * y_20_ + 1 y_27_ ^ 2 ] >= 14617.35
quadratic_ranged_54_lb: [ 1 x_26_ ^ 2 - 2 x_27_ * x_26_ + 1 x_27_ ^ 2 + 1 y_26_ ^ 2 - 2 y_27_ * y_26_ + 1 y_27_ ^ 2 ] >= 2757.15
quadratic_ranged_55_lb: [ 1 x_3_ ^ 2 - 2 x_28_ * x_3_ + 1 x_28_ ^ 2 + 1 y_3_ ^ 2 - 2 y_28_ * y_3_ + 1 y_28_ ^ 2 ] >= 23975.82
quadratic_ranged_56_lb: [ 1 x_8_ ^ 2 - 2 x_28_ * x_8_ + 1 x_28_ ^ 2 + 1 y_8_ ^ 2 - 2 y_28_ * y_8_ + 1 y_28_ ^ 2 ] >= 15171.75
quadratic_ranged_57_lb: [ 1 x_26_ ^ 2 - 2 x_28_ * x_26_ + 1 x_28_ ^ 2 + 1 y_26_ ^ 2 - 2 y_28_ * y_26_ + 1 y_28_ ^ 2 ] >= 10875.15
quadratic_ranged_58_lb: [ 1 x_27_ ^ 2 - 2 x_28_ * x_27_ + 1 x_28_ ^ 2 + 1 y_27_ ^ 2 - 2 y_28_ * y_27_ + 1 y_28_ ^ 2 ] >= 12549.24
quadratic_ranged_59_lb: [ 1 x_7_ ^ 2 - 2 x_29_ * x_7_ + 1 x_29_ ^ 2 + 1 y_7_ ^ 2 - 2 y_29_ * y_7_ + 1 y_29_ ^ 2 ] >= 4445.1
quadratic_ranged_60_lb: [ 1 x_9_ ^ 2 - 2 x_29_ * x_9_ + 1 x_29_ ^ 2 + 1 y_9_ ^ 2 - 2 y_29_ * y_9_ + 1 y_29_ ^ 2 ] >= 6058.8
quadratic_ranged_61_lb: [ 1 x_20_ ^ 2 - 2 x_29_ * x_20_ + 1 x_29_ ^ 2 + 1 y_20_ ^ 2 - 2 y_29_ * y_20_ + 1 y_29_ ^ 2 ] >= 8466.48
quadratic_ranged_62_lb: [ 1 x_23_ ^ 2 - 2 x_29_ * x_23_ + 1 x_29_ ^ 2 + 1 y_23_ ^ 2 - 2 y_29_ * y_23_ + 1 y_29_ ^ 2 ] >= 16981.47
quadratic_ranged_63_lb: [ 1 x_28_ ^ 2 - 2 x_29_ * x_28_ + 1 x_29_ ^ 2 + 1 y_28_ ^ 2 - 2 y_29_ * y_28_ + 1 y_29_ ^ 2 ] >= 2697.75
quadratic_ranged_64_lb: [ 1 x_22_ ^ 2 - 2 x_30_ * x_22_ + 1 x_30_ ^ 2 + 1 y_22_ ^ 2 - 2 y_30_ * y_22_ + 1 y_30_ ^ 2 ] >= 13337.28
quadratic_ranged_65_lb: [ 1 x_25_ ^ 2 - 2 x_30_ * x_25_ + 1 x_30_ ^ 2 + 1 y_25_ ^ 2 - 2 y_30_ * y_25_ + 1 y_30_ ^ 2 ] >= 11172.15
quadratic_ranged_66_lb: [ 1 x_29_ ^ 2 - 2 x_30_ * x_29_ + 1 x_30_ ^ 2 + 1 y_29_ ^ 2 - 2 y_30_ * y_29_ + 1 y_30_ ^ 2 ] >= 453.42
quadratic_ranged_67_lb: [ 1 x_5_ ^ 2 - 2 x_31_ * x_5_ + 1 x_31_ ^ 2 + 1 y_5_ ^ 2 - 2 y_31_ * y_5_ + 1 y_31_ ^ 2 ] >= 32971.95
quadratic_ranged_68_lb: [ 1 x_21_ ^ 2 - 2 x_31_ * x_21_ + 1 x_31_ ^ 2 + 1 y_21_ ^ 2 - 2 y_31_ * y_21_ + 1 y_31_ ^ 2 ] >= 16549.829999999998
quadratic_ranged_69_lb: [ 1 x_30_ ^ 2 - 2 x_31_ * x_30_ + 1 x_31_ ^ 2 + 1 y_30_ ^ 2 - 2 y_31_ * y_30_ + 1 y_31_ ^ 2 ] >= 10122.75
quadratic_ranged_70_lb: [ 1 x_24_ ^ 2 - 2 x_32_ * x_24_ + 1 x_32_ ^ 2 + 1 y_24_ ^ 2 - 2 y_32_ * y_24_ + 1 y_32_ ^ 2 ] >= 43220.43
quadratic_ranged_71_lb: [ 1 x_26_ ^ 2 - 2 x_32_ * x_26_ + 1 x_32_ ^ 2 + 1 y_26_ ^ 2 - 2 y_32_ * y_26_ + 1 y_32_ ^ 2 ] >= 19207.98
quadratic_ranged_72_lb: [ 1 x_28_ ^ 2 - 2 x_32_ * x_28_ + 1 x_32_ ^ 2 + 1 y_28_ ^ 2 - 2 y_32_ * y_28_ + 1 y_32_ ^ 2 ] >= 9576.27
quadratic_ranged_73_lb: [ 1 x_31_ ^ 2 - 2 x_32_ * x_31_ + 1 x_32_ ^ 2 + 1 y_31_ ^ 2 - 2 y_32_ * y_31_ + 1 y_32_ ^ 2 ] >= 8914.95
quadratic_ranged_74_lb: [ 1 x_11_ ^ 2 - 2 x_33_ * x_11_ + 1 x_33_ ^ 2 + 1 y_11_ ^ 2 - 2 y_33_ * y_11_ + 1 y_33_ ^ 2 ] >= 34503.48
quadratic_ranged_75_lb: [ 1 x_20_ ^ 2 - 2 x_33_ * x_20_ + 1 x_33_ ^ 2 + 1 y_20_ ^ 2 - 2 y_33_ * y_20_ + 1 y_33_ ^ 2 ] >= 22754.16
quadratic_ranged_76_lb: [ 1 x_32_ ^ 2 - 2 x_33_ * x_32_ + 1 x_33_ ^ 2 + 1 y_32_ ^ 2 - 2 y_33_ * y_32_ + 1 y_33_ ^ 2 ] >= 21391.92
quadratic_ranged_77_lb: [ 1 x_15_ ^ 2 - 2 x_34_ * x_15_ + 1 x_34_ ^ 2 + 1 y_15_ ^ 2 - 2 y_34_ * y_15_ + 1 y_34_ ^ 2 ] >= 9987.12
quadratic_ranged_78_lb: [ 1 x_25_ ^ 2 - 2 x_34_ * x_25_ + 1 x_34_ ^ 2 + 1 y_25_ ^ 2 - 2 y_34_ * y_25_ + 1 y_34_ ^ 2 ] >= 11813.67
quadratic_ranged_79_lb: [ 1 x_27_ ^ 2 - 2 x_34_ * x_27_ + 1 x_34_ ^ 2 + 1 y_27_ ^ 2 - 2 y_34_ * y_27_ + 1 y_34_ ^ 2 ] >= 6012.2699999999995
quadratic_ranged_80_lb: [ 1 x_33_ ^ 2 - 2 x_34_ * x_33_ + 1 x_34_ ^ 2 + 1 y_33_ ^ 2 - 2 y_34_ * y_33_ + 1 y_34_ ^ 2 ] >= 8658.539999999999
quadratic_ranged_81_lb: [ 1 x_11_ ^ 2 - 2 x_35_ * x_11_ + 1 x_35_ ^ 2 + 1 y_11_ ^ 2 - 2 y_35_ * y_11_ + 1 y_35_ ^ 2 ] >= 15531.119999999999
quadratic_ranged_82_lb: [ 1 x_20_ ^ 2 - 2 x_35_ * x_20_ + 1 x_35_ ^ 2 + 1 y_20_ ^ 2 - 2 y_35_ * y_20_ + 1 y_35_ ^ 2 ] >= 32761.079999999998
quadratic_ranged_83_lb: [ 1 x_23_ ^ 2 - 2 x_35_ * x_23_ + 1 x_35_ ^ 2 + 1 y_23_ ^ 2 - 2 y_35_ * y_23_ + 1 y_35_ ^ 2 ] >= 7156.71
quadratic_ranged_84_lb: [ 1 x_34_ ^ 2 - 2 x_35_ * x_34_ + 1 x_35_ ^ 2 + 1 y_34_ ^ 2 - 2 y_35_ * y_34_ + 1 y_35_ ^ 2 ] >= 13030.38
quadratic_ranged_85_lb: [ 1 x_4_ ^ 2 - 2 x_36_ * x_4_ + 1 x_36_ ^ 2 + 1 y_4_ ^ 2 - 2 y_36_ * y_4_ + 1 y_36_ ^ 2 ] >= 32366.07
quadratic_ranged_86_lb: [ 1 x_5_ ^ 2 - 2 x_36_ * x_5_ + 1 x_36_ ^ 2 + 1 y_5_ ^ 2 - 2 y_36_ * y_5_ + 1 y_36_ ^ 2 ] >= 54118.35
quadratic_ranged_87_lb: [ 1 x_8_ ^ 2 - 2 x_36_ * x_8_ + 1 x_36_ ^ 2 + 1 y_8_ ^ 2 - 2 y_36_ * y_8_ + 1 y_36_ ^ 2 ] >= 1866.15
quadratic_ranged_88_lb: [ 1 x_13_ ^ 2 - 2 x_36_ * x_13_ + 1 x_36_ ^ 2 + 1 y_13_ ^ 2 - 2 y_36_ * y_13_ + 1 y_36_ ^ 2 ] >= 24456.96
quadratic_ranged_89_lb: [ 1 x_23_ ^ 2 - 2 x_36_ * x_23_ + 1 x_36_ ^ 2 + 1 y_23_ ^ 2 - 2 y_36_ * y_23_ + 1 y_36_ ^ 2 ] >= 37978.38
quadratic_ranged_90_lb: [ 1 x_27_ ^ 2 - 2 x_36_ * x_27_ + 1 x_36_ ^ 2 + 1 y_27_ ^ 2 - 2 y_36_ * y_27_ + 1 y_36_ ^ 2 ] >= 8937.72
quadratic_ranged_91_lb: [ 1 x_35_ ^ 2 - 2 x_36_ * x_35_ + 1 x_36_ ^ 2 + 1 y_35_ ^ 2 - 2 y_36_ * y_35_ + 1 y_36_ ^ 2 ] >= 29142.63
quadratic_ranged_92_lb: [ 1 x_16_ ^ 2 - 2 x_37_ * x_16_ + 1 x_37_ ^ 2 + 1 y_16_ ^ 2 - 2 y_37_ * y_16_ + 1 y_37_ ^ 2 ] >= 3295.71
quadratic_ranged_93_lb: [ 1 x_36_ ^ 2 - 2 x_37_ * x_36_ + 1 x_37_ ^ 2 + 1 y_36_ ^ 2 - 2 y_37_ * y_36_ + 1 y_37_ ^ 2 ] >= 11528.55
quadratic_ranged_94_lb: [ 1 x_4_ ^ 2 - 2 x_38_ * x_4_ + 1 x_38_ ^ 2 + 1 y_4_ ^ 2 - 2 y_38_ * y_4_ + 1 y_38_ ^ 2 ] >= 17919
quadratic_ranged_95_lb: [ 1 x_8_ ^ 2 - 2 x_38_ * x_8_ + 1 x_38_ ^ 2 + 1 y_8_ ^ 2 - 2 y_38_ * y_8_ + 1 y_38_ ^ 2 ] >= 2510.64
quadratic_ranged_96_lb: [ 1 x_22_ ^ 2 - 2 x_38_ * x_22_ + 1 x_38_ ^ 2 + 1 y_22_ ^ 2 - 2 y_38_ * y_22_ + 1 y_38_ ^ 2 ] >= 4096.62
quadratic_ranged_97_lb: [ 1 x_37_ ^ 2 - 2 x_38_ * x_37_ + 1 x_38_ ^ 2 + 1 y_37_ ^ 2 - 2 y_38_ * y_37_ + 1 y_38_ ^ 2 ] >= 25854.84
quadratic_ranged_98_lb: [ 1 x_8_ ^ 2 - 2 x_39_ * x_8_ + 1 x_39_ ^ 2 + 1 y_8_ ^ 2 - 2 y_39_ * y_8_ + 1 y_39_ ^ 2 ] >= 1839.42
quadratic_ranged_99_lb: [ 1 x_9_ ^ 2 - 2 x_39_ * x_9_ + 1 x_39_ ^ 2 + 1 y_9_ ^ 2 - 2 y_39_ * y_9_ + 1 y_39_ ^ 2 ] >= 8563.5
quadratic_ranged_100_lb: [ 1 x_11_ ^ 2 - 2 x_39_ * x_11_ + 1 x_39_ ^ 2 + 1 y_11_ ^ 2 - 2 y_39_ * y_11_ + 1 y_39_ ^ 2 ] >= 13062.06
quadratic_ranged_101_lb: [ 1 x_15_ ^ 2 - 2 x_39_ * x_15_ + 1 x_39_ ^ 2 + 1 y_15_ ^ 2 - 2 y_39_ * y_15_ + 1 y_39_ ^ 2 ] >= 3156.12
quadratic_ranged_102_lb: [ 1 x_16_ ^ 2 - 2 x_39_ * x_16_ + 1 x_39_ ^ 2 + 1 y_16_ ^ 2 - 2 y_39_ * y_16_ + 1 y_39_ ^ 2 ] >= 6083.55
quadratic_ranged_103_lb: [ 1 x_18_ ^ 2 - 2 x_39_ * x_18_ + 1 x_39_ ^ 2 + 1 y_18_ ^ 2 - 2 y_39_ * y_18_ + 1 y_39_ ^ 2 ] >= 2717.55
quadratic_ranged_104_lb: [ 1 x_25_ ^ 2 - 2 x_39_ * x_25_ + 1 x_39_ ^ 2 + 1 y_25_ ^ 2 - 2 y_39_ * y_25_ + 1 y_39_ ^ 2 ] >= 2440.35
quadratic_ranged_105_lb: [ 1 x_38_ ^ 2 - 2 x_39_ * x_38_ + 1 x_39_ ^ 2 + 1 y_38_ ^ 2 - 2 y_39_ * y_38_ + 1 y_39_ ^ 2 ] >= 4563.9
quadratic_ranged_106_lb: [ 1 x_12_ ^ 2 - 2 x_40_ * x_12_ + 1 x_40_ ^ 2 + 1 y_12_ ^ 2 - 2 y_40_ * y_12_ + 1 y_40_ ^ 2 ] >= 24921.27
quadratic_ranged_107_lb: [ 1 x_19_ ^ 2 - 2 x_40_ * x_19_ + 1 x_40_ ^ 2 + 1 y_19_ ^ 2 - 2 y_40_ * y_19_ + 1 y_40_ ^ 2 ] >= 26880.48
quadratic_ranged_108_lb: [ 1 x_39_ ^ 2 - 2 x_40_ * x_39_ + 1 x_40_ ^ 2 + 1 y_39_ ^ 2 - 2 y_40_ * y_39_ + 1 y_40_ ^ 2 ] >= 6463.71
quadratic_ranged_109_lb: [ 1 x_10_ ^ 2 - 2 x_41_ * x_10_ + 1 x_41_ ^ 2 + 1 y_10_ ^ 2 - 2 y_41_ * y_10_ + 1 y_41_ ^ 2 ] >= 10518.75
quadratic_ranged_110_lb: [ 1 x_29_ ^ 2 - 2 x_41_ * x_29_ + 1 x_41_ ^ 2 + 1 y_29_ ^ 2 - 2 y_41_ * y_29_ + 1 y_41_ ^ 2 ] >= 2948.22
quadratic_ranged_111_lb: [ 1 x_40_ ^ 2 - 2 x_41_ * x_40_ + 1 x_41_ ^ 2 + 1 y_40_ ^ 2 - 2 y_41_ * y_40_ + 1 y_41_ ^ 2 ] >= 15508.35
quadratic_ranged_112_lb: [ 1 x_8_ ^ 2 - 2 x_42_ * x_8_ + 1 x_42_ ^ 2 + 1 y_8_ ^ 2 - 2 y_42_ * y_8_ + 1 y_42_ ^ 2 ] >= 13119.48
quadratic_ranged_113_lb: [ 1 x_18_ ^ 2 - 2 x_42_ * x_18_ + 1 x_42_ ^ 2 + 1 y_18_ ^ 2 - 2 y_42_ * y_18_ + 1 y_42_ ^ 2 ] >= 9211.95
quadratic_ranged_114_lb: [ 1 x_27_ ^ 2 - 2 x_42_ * x_27_ + 1 x_42_ ^ 2 + 1 y_27_ ^ 2 - 2 y_42_ * y_27_ + 1 y_42_ ^ 2 ] >= 4063.95
quadratic_ranged_115_lb: [ 1 x_41_ ^ 2 - 2 x_42_ * x_41_ + 1 x_42_ ^ 2 + 1 y_41_ ^ 2 - 2 y_42_ * y_41_ + 1 y_42_ ^ 2 ] >= 1435.5
quadratic_ranged_116_lb: [ 1 x_12_ ^ 2 - 2 x_43_ * x_12_ + 1 x_43_ ^ 2 + 1 y_12_ ^ 2 - 2 y_43_ * y_12_ + 1 y_43_ ^ 2 ] >= 12578.94
quadratic_ranged_117_lb: [ 1 x_18_ ^ 2 - 2 x_43_ * x_18_ + 1 x_43_ ^ 2 + 1 y_18_ ^ 2 - 2 y_43_ * y_18_ + 1 y_43_ ^ 2 ] >= 36.63
quadratic_ranged_118_lb: [ 1 x_35_ ^ 2 - 2 x_43_ * x_35_ + 1 x_43_ ^ 2 + 1 y_35_ ^ 2 - 2 y_43_ * y_35_ + 1 y_43_ ^ 2 ] >= 17503.2
quadratic_ranged_119_lb: [ 1 x_39_ ^ 2 - 2 x_43_ * x_39_ + 1 x_43_ ^ 2 + 1 y_39_ ^ 2 - 2 y_43_ * y_39_ + 1 y_43_ ^ 2 ] >= 2409.66
quadratic_ranged_120_lb: [ 1 x_42_ ^ 2 - 2 x_43_ * x_42_ + 1 x_43_ ^ 2 + 1 y_42_ ^ 2 - 2 y_43_ * y_42_ + 1 y_43_ ^ 2 ] >= 8098.2
quadratic_ranged_121_lb: [ 1 x_2_ ^ 2 - 2 x_44_ * x_2_ + 1 x_44_ ^ 2 + 1 y_2_ ^ 2 - 2 y_44_ * y_2_ + 1 y_44_ ^ 2 ] >= 35775.63
quadratic_ranged_122_lb: [ 1 x_35_ ^ 2 - 2 x_44_ * x_35_ + 1 x_44_ ^ 2 + 1 y_35_ ^ 2 - 2 y_44_ * y_35_ + 1 y_44_ ^ 2 ] >= 28626.84
quadratic_ranged_123_lb: [ 1 x_43_ ^ 2 - 2 x_44_ * x_43_ + 1 x_44_ ^ 2 + 1 y_43_ ^ 2 - 2 y_44_ * y_43_ + 1 y_44_ ^ 2 ] >= 1572.12
quadratic_ranged_124_lb: [ 1 x_4_ ^ 2 - 2 x_45_ * x_4_ + 1 x_45_ ^ 2 + 1 y_4_ ^ 2 - 2 y_45_ * y_4_ + 1 y_45_ ^ 2 ] >= 23886.72
quadratic_ranged_125_lb: [ 1 x_25_ ^ 2 - 2 x_45_ * x_25_ + 1 x_45_ ^ 2 + 1 y_25_ ^ 2 - 2 y_45_ * y_25_ + 1 y_45_ ^ 2 ] >= 4638.15
quadratic_ranged_126_lb: [ 1 x_27_ ^ 2 - 2 x_45_ * x_27_ + 1 x_45_ ^ 2 + 1 y_27_ ^ 2 - 2 y_45_ * y_27_ + 1 y_45_ ^ 2 ] >= 4943.07
quadratic_ranged_127_lb: [ 1 x_31_ ^ 2 - 2 x_45_ * x_31_ + 1 x_45_ ^ 2 + 1 y_31_ ^ 2 - 2 y_45_ * y_31_ + 1 y_45_ ^ 2 ] >= 2329.47
quadratic_ranged_128_lb: [ 1 x_34_ ^ 2 - 2 x_45_ * x_34_ + 1 x_45_ ^ 2 + 1 y_34_ ^ 2 - 2 y_45_ * y_34_ + 1 y_45_ ^ 2 ] >= 4579.74
quadratic_ranged_129_lb: [ 1 x_37_ ^ 2 - 2 x_45_ * x_37_ + 1 x_45_ ^ 2 + 1 y_37_ ^ 2 - 2 y_45_ * y_37_ + 1 y_45_ ^ 2 ] >= 12957.119999999999
quadratic_ranged_130_lb: [ 1 x_42_ ^ 2 - 2 x_45_ * x_42_ + 1 x_45_ ^ 2 + 1 y_42_ ^ 2 - 2 y_45_ * y_42_ + 1 y_45_ ^ 2 ] >= 13337.28
quadratic_ranged_131_lb: [ 1 x_44_ ^ 2 - 2 x_45_ * x_44_ + 1 x_45_ ^ 2 + 1 y_44_ ^ 2 - 2 y_45_ * y_44_ + 1 y_45_ ^ 2 ] >= 459.36
quadratic_ranged_132_lb: [ 1 x_12_ ^ 2 - 2 x_46_ * x_12_ + 1 x_46_ ^ 2 + 1 y_12_ ^ 2 - 2 y_46_ * y_12_ + 1 y_46_ ^ 2 ] >= 4215.42
quadratic_ranged_133_lb: [ 1 x_20_ ^ 2 - 2 x_46_ * x_20_ + 1 x_46_ ^ 2 + 1 y_20_ ^ 2 - 2 y_46_ * y_20_ + 1 y_46_ ^ 2 ] >= 29957.4
quadratic_ranged_134_lb: [ 1 x_22_ ^ 2 - 2 x_46_ * x_22_ + 1 x_46_ ^ 2 + 1 y_22_ ^ 2 - 2 y_46_ * y_22_ + 1 y_46_ ^ 2 ] >= 15715.26
quadratic_ranged_135_lb: [ 1 x_26_ ^ 2 - 2 x_46_ * x_26_ + 1 x_46_ ^ 2 + 1 y_26_ ^ 2 - 2 y_46_ * y_26_ + 1 y_46_ ^ 2 ] >= 2433.42
quadratic_ranged_136_lb: [ 1 x_39_ ^ 2 - 2 x_46_ * x_39_ + 1 x_46_ ^ 2 + 1 y_39_ ^ 2 - 2 y_46_ * y_39_ + 1 y_46_ ^ 2 ] >= 11953.26
quadratic_ranged_137_lb: [ 1 x_40_ ^ 2 - 2 x_46_ * x_40_ + 1 x_46_ ^ 2 + 1 y_40_ ^ 2 - 2 y_46_ * y_40_ + 1 y_46_ ^ 2 ] >= 11465.19
quadratic_ranged_138_lb: [ 1 x_45_ ^ 2 - 2 x_46_ * x_45_ + 1 x_46_ ^ 2 + 1 y_45_ ^ 2 - 2 y_46_ * y_45_ + 1 y_46_ ^ 2 ] >= 22971.96
quadratic_ranged_139_lb: [ 1 x_4_ ^ 2 - 2 x_47_ * x_4_ + 1 x_47_ ^ 2 + 1 y_4_ ^ 2 - 2 y_47_ * y_4_ + 1 y_47_ ^ 2 ] >= 13927.32
quadratic_ranged_140_lb: [ 1 x_9_ ^ 2 - 2 x_47_ * x_9_ + 1 x_47_ ^ 2 + 1 y_9_ ^ 2 - 2 y_47_ * y_9_ + 1 y_47_ ^ 2 ] >= 20025.72
quadratic_ranged_141_lb: [ 1 x_17_ ^ 2 - 2 x_47_ * x_17_ + 1 x_47_ ^ 2 + 1 y_17_ ^ 2 - 2 y_47_ * y_17_ + 1 y_47_ ^ 2 ] >= 1623.6
quadratic_ranged_142_lb: [ 1 x_23_ ^ 2 - 2 x_47_ * x_23_ + 1 x_47_ ^ 2 + 1 y_23_ ^ 2 - 2 y_47_ * y_23_ + 1 y_47_ ^ 2 ] >= 22323.51
quadratic_ranged_143_lb: [ 1 x_27_ ^ 2 - 2 x_47_ * x_27_ + 1 x_47_ ^ 2 + 1 y_27_ ^ 2 - 2 y_47_ * y_27_ + 1 y_47_ ^ 2 ] >= 4697.55
quadratic_ranged_144_lb: [ 1 x_32_ ^ 2 - 2 x_47_ * x_32_ + 1 x_47_ ^ 2 + 1 y_32_ ^ 2 - 2 y_47_ * y_32_ + 1 y_47_ ^ 2 ] >= 14988.6
quadratic_ranged_145_lb: [ 1 x_40_ ^ 2 - 2 x_47_ * x_40_ + 1 x_47_ ^ 2 + 1 y_40_ ^ 2 - 2 y_47_ * y_40_ + 1 y_47_ ^ 2 ] >= 6835.95
quadratic_ranged_146_lb: [ 1 x_46_ ^ 2 - 2 x_47_ * x_46_ + 1 x_47_ ^ 2 + 1 y_46_ ^ 2 - 2 y_47_ * y_46_ + 1 y_47_ ^ 2 ] >= 27284.4
quadratic_ranged_147_lb: [ 1 x_47_ ^ 2 - 2 x_48_ * x_47_ + 1 x_48_ ^ 2 + 1 y_47_ ^ 2 - 2 y_48_ * y_47_ + 1 y_48_ ^ 2 ] >= 39109.95
quadratic_ranged_148_lb: [ 1 x_23_ ^ 2 - 2 x_49_ * x_23_ + 1 x_49_ ^ 2 + 1 y_23_ ^ 2 - 2 y_49_ * y_23_ + 1 y_49_ ^ 2 ] >= 23904.54
quadratic_ranged_149_lb: [ 1 x_34_ ^ 2 - 2 x_49_ * x_34_ + 1 x_49_ ^ 2 + 1 y_34_ ^ 2 - 2 y_49_ * y_34_ + 1 y_49_ ^ 2 ] >= 17563.59
quadratic_ranged_150_lb: [ 1 x_39_ ^ 2 - 2 x_49_ * x_39_ + 1 x_49_ ^ 2 + 1 y_39_ ^ 2 - 2 y_49_ * y_39_ + 1 y_49_ ^ 2 ] >= 5766.75
quadratic_ranged_151_lb: [ 1 x_42_ ^ 2 - 2 x_49_ * x_42_ + 1 x_49_ ^ 2 + 1 y_42_ ^ 2 - 2 y_49_ * y_42_ + 1 y_49_ ^ 2 ] >= 19183.23
quadratic_ranged_152_lb: [ 1 x_48_ ^ 2 - 2 x_49_ * x_48_ + 1 x_49_ ^ 2 + 1 y_48_ ^ 2 - 2 y_49_ * y_48_ + 1 y_49_ ^ 2 ] >= 41647.32
quadratic_ranged_153_lb: [ 1 x_3_ ^ 2 - 2 x_50_ * x_3_ + 1 x_50_ ^ 2 + 1 y_3_ ^ 2 - 2 y_50_ * y_3_ + 1 y_50_ ^ 2 ] >= 10744.47
quadratic_ranged_154_lb: [ 1 x_27_ ^ 2 - 2 x_50_ * x_27_ + 1 x_50_ ^ 2 + 1 y_27_ ^ 2 - 2 y_50_ * y_27_ + 1 y_50_ ^ 2 ] >= 1406.79
quadratic_ranged_155_lb: [ 1 x_36_ ^ 2 - 2 x_50_ * x_36_ + 1 x_50_ ^ 2 + 1 y_36_ ^ 2 - 2 y_50_ * y_36_ + 1 y_50_ ^ 2 ] >= 8043.75
quadratic_ranged_156_lb: [ 1 x_49_ ^ 2 - 2 x_50_ * x_49_ + 1 x_50_ ^ 2 + 1 y_49_ ^ 2 - 2 y_50_ * y_49_ + 1 y_50_ ^ 2 ] >= 11952.27
quadratic_ranged_157_lb: [ 1 x_1_ ^ 2 - 2 x_51_ * x_1_ + 1 x_51_ ^ 2 + 1 y_1_ ^ 2 - 2 y_51_ * y_1_ + 1 y_51_ ^ 2 ] >= 8273.43
quadratic_ranged_158_lb: [ 1 x_16_ ^ 2 - 2 x_51_ * x_16_ + 1 x_51_ ^ 2 + 1 y_16_ ^ 2 - 2 y_51_ * y_16_ + 1 y_51_ ^ 2 ] >= 1929.51
quadratic_ranged_159_lb: [ 1 x_34_ ^ 2 - 2 x_51_ * x_34_ + 1 x_51_ ^ 2 + 1 y_34_ ^ 2 - 2 y_51_ * y_34_ + 1 y_51_ ^ 2 ] >= 3298.68
quadratic_ranged_160_lb: [ 1 x_35_ ^ 2 - 2 x_51_ * x_35_ + 1 x_51_ ^ 2 + 1 y_35_ ^ 2 - 2 y_51_ * y_35_ + 1 y_51_ ^ 2 ] >= 4825.26
quadratic_ranged_161_lb: [ 1 x_39_ ^ 2 - 2 x_51_ * x_39_ + 1 x_51_ ^ 2 + 1 y_39_ ^ 2 - 2 y_51_ * y_39_ + 1 y_51_ ^ 2 ] >= 9226.8
quadratic_ranged_162_lb: [ 1 x_50_ ^ 2 - 2 x_51_ * x_50_ + 1 x_51_ ^ 2 + 1 y_50_ ^ 2 - 2 y_51_ * y_50_ + 1 y_51_ ^ 2 ] >= 3995.64
quadratic_ranged_163_lb: [ 1 x_5_ ^ 2 - 2 x_52_ * x_5_ + 1 x_52_ ^ 2 + 1 y_5_ ^ 2 - 2 y_52_ * y_5_ + 1 y_52_ ^ 2 ] >= 68215.95
quadratic_ranged_164_lb: [ 1 x_8_ ^ 2 - 2 x_52_ * x_8_ + 1 x_52_ ^ 2 + 1 y_8_ ^ 2 - 2 y_52_ * y_8_ + 1 y_52_ ^ 2 ] >= 8938.71
quadratic_ranged_165_lb: [ 1 x_9_ ^ 2 - 2 x_52_ * x_9_ + 1 x_52_ ^ 2 + 1 y_9_ ^ 2 - 2 y_52_ * y_9_ + 1 y_52_ ^ 2 ] >= 28168.47
quadratic_ranged_166_lb: [ 1 x_14_ ^ 2 - 2 x_52_ * x_14_ + 1 x_52_ ^ 2 + 1 y_14_ ^ 2 - 2 y_52_ * y_14_ + 1 y_52_ ^ 2 ] >= 18109.079999999998
quadratic_ranged_167_lb: [ 1 x_16_ ^ 2 - 2 x_52_ * x_16_ + 1 x_52_ ^ 2 + 1 y_16_ ^ 2 - 2 y_52_ * y_16_ + 1 y_52_ ^ 2 ] >= 17996.22
quadratic_ranged_168_lb: [ 1 x_24_ ^ 2 - 2 x_52_ * x_24_ + 1 x_52_ ^ 2 + 1 y_24_ ^ 2 - 2 y_52_ * y_24_ + 1 y_52_ ^ 2 ] >= 54388.62
quadratic_ranged_169_lb: [ 1 x_36_ ^ 2 - 2 x_52_ * x_36_ + 1 x_52_ ^ 2 + 1 y_36_ ^ 2 - 2 y_52_ * y_36_ + 1 y_52_ ^ 2 ] >= 2861.1
quadratic_ranged_170_lb: [ 1 x_42_ ^ 2 - 2 x_52_ * x_42_ + 1 x_52_ ^ 2 + 1 y_42_ ^ 2 - 2 y_52_ * y_42_ + 1 y_52_ ^ 2 ] >= 19500.03
quadratic_ranged_171_lb: [ 1 x_51_ ^ 2 - 2 x_52_ * x_51_ + 1 x_52_ ^ 2 + 1 y_51_ ^ 2 - 2 y_52_ * y_51_ + 1 y_52_ ^ 2 ] >= 11904.75
quadratic_ranged_172_lb: [ 1 x_5_ ^ 2 - 2 x_53_ * x_5_ + 1 x_53_ ^ 2 + 1 y_5_ ^ 2 - 2 y_53_ * y_5_ + 1 y_53_ ^ 2 ] >= 35831.07
quadratic_ranged_173_lb: [ 1 x_11_ ^ 2 - 2 x_53_ * x_11_ + 1 x_53_ ^ 2 + 1 y_11_ ^ 2 - 2 y_53_ * y_11_ + 1 y_53_ ^ 2 ] >= 30714.75
quadratic_ranged_174_lb: [ 1 x_17_ ^ 2 - 2 x_53_ * x_17_ + 1 x_53_ ^ 2 + 1 y_17_ ^ 2 - 2 y_53_ * y_17_ + 1 y_53_ ^ 2 ] >= 32449.23
quadratic_ranged_175_lb: [ 1 x_27_ ^ 2 - 2 x_53_ * x_27_ + 1 x_53_ ^ 2 + 1 y_27_ ^ 2 - 2 y_53_ * y_27_ + 1 y_53_ ^ 2 ] >= 15178.68
quadratic_ranged_176_lb: [ 1 x_28_ ^ 2 - 2 x_53_ * x_28_ + 1 x_53_ ^ 2 + 1 y_28_ ^ 2 - 2 y_53_ * y_28_ + 1 y_53_ ^ 2 ] >= 1599.84
quadratic_ranged_177_lb: [ 1 x_30_ ^ 2 - 2 x_53_ * x_30_ + 1 x_53_ ^ 2 + 1 y_30_ ^ 2 - 2 y_53_ * y_30_ + 1 y_53_ ^ 2 ] >= 6210.2699999999995
quadratic_ranged_178_lb: [ 1 x_35_ ^ 2 - 2 x_53_ * x_35_ + 1 x_53_ ^ 2 + 1 y_35_ ^ 2 - 2 y_53_ * y_35_ + 1 y_53_ ^ 2 ] >= 4543.11
quadratic_ranged_179_lb: [ 1 x_41_ ^ 2 - 2 x_53_ * x_41_ + 1 x_53_ ^ 2 + 1 y_41_ ^ 2 - 2 y_53_ * y_41_ + 1 y_53_ ^ 2 ] >= 1082.07
quadratic_ranged_180_lb: [ 1 x_46_ ^ 2 - 2 x_53_ * x_46_ + 1 x_53_ ^ 2 + 1 y_46_ ^ 2 - 2 y_53_ * y_46_ + 1 y_53_ ^ 2 ] >= 4673.79
quadratic_ranged_181_lb: [ 1 x_52_ ^ 2 - 2 x_53_ * x_52_ + 1 x_53_ ^ 2 + 1 y_52_ ^ 2 - 2 y_53_ * y_52_ + 1 y_53_ ^ 2 ] >= 16047.9
quadratic_ranged_182_lb: [ 1 x_13_ ^ 2 - 2 x_54_ * x_13_ + 1 x_54_ ^ 2 + 1 y_13_ ^ 2 - 2 y_54_ * y_13_ + 1 y_54_ ^ 2 ] >= 13306.59
quadratic_ranged_183_lb: [ 1 x_28_ ^ 2 - 2 x_54_ * x_28_ + 1 x_54_ ^ 2 + 1 y_28_ ^ 2 - 2 y_54_ * y_28_ + 1 y_54_ ^ 2 ] >= 33597.63
quadratic_ranged_184_lb: [ 1 x_53_ ^ 2 - 2 x_54_ * x_53_ + 1 x_54_ ^ 2 + 1 y_53_ ^ 2 - 2 y_54_ * y_53_ + 1 y_54_ ^ 2 ] >= 34452.99
quadratic_ranged_185_lb: [ 1 x_1_ ^ 2 - 2 x_55_ * x_1_ + 1 x_55_ ^ 2 + 1 y_1_ ^ 2 - 2 y_55_ * y_1_ + 1 y_55_ ^ 2 ] >= 811.8
quadratic_ranged_186_lb: [ 1 x_2_ ^ 2 - 2 x_55_ * x_2_ + 1 x_55_ ^ 2 + 1 y_2_ ^ 2 - 2 y_55_ * y_2_ + 1 y_55_ ^ 2 ] >= 7541.82
quadratic_ranged_187_lb: [ 1 x_7_ ^ 2 - 2 x_55_ * x_7_ + 1 x_55_ ^ 2 + 1 y_7_ ^ 2 - 2 y_55_ * y_7_ + 1 y_55_ ^ 2 ] >= 19797.03
quadratic_ranged_188_lb: [ 1 x_15_ ^ 2 - 2 x_55_ * x_15_ + 1 x_55_ ^ 2 + 1 y_15_ ^ 2 - 2 y_55_ * y_15_ + 1 y_55_ ^ 2 ] >= 24002.55
quadratic_ranged_189_lb: [ 1 x_18_ ^ 2 - 2 x_55_ * x_18_ + 1 x_55_ ^ 2 + 1 y_18_ ^ 2 - 2 y_55_ * y_18_ + 1 y_55_ ^ 2 ] >= 15269.76
quadratic_ranged_190_lb: [ 1 x_19_ ^ 2 - 2 x_55_ * x_19_ + 1 x_55_ ^ 2 + 1 y_19_ ^ 2 - 2 y_55_ * y_19_ + 1 y_55_ ^ 2 ] >= 8032.86
quadratic_ranged_191_lb: [ 1 x_48_ ^ 2 - 2 x_55_ * x_48_ + 1 x_55_ ^ 2 + 1 y_48_ ^ 2 - 2 y_55_ * y_48_ + 1 y_55_ ^ 2 ] >= 4453.0199999999995
quadratic_ranged_192_lb: [ 1 x_51_ ^ 2 - 2 x_55_ * x_51_ + 1 x_55_ ^ 2 + 1 y_51_ ^ 2 - 2 y_55_ * y_51_ + 1 y_55_ ^ 2 ] >= 4685.67
quadratic_ranged_193_lb: [ 1 x_53_ ^ 2 - 2 x_55_ * x_53_ + 1 x_55_ ^ 2 + 1 y_53_ ^ 2 - 2 y_55_ * y_53_ + 1 y_55_ ^ 2 ] >= 5561.82
quadratic_ranged_194_lb: [ 1 x_54_ ^ 2 - 2 x_55_ * x_54_ + 1 x_55_ ^ 2 + 1 y_54_ ^ 2 - 2 y_55_ * y_54_ + 1 y_55_ ^ 2 ] >= 15646.95
quadratic_ranged_195_lb: [ 1 x_16_ ^ 2 - 2 x_56_ * x_16_ + 1 x_56_ ^ 2 + 1 y_16_ ^ 2 - 2 y_56_ * y_16_ + 1 y_56_ ^ 2 ] >= 13711.5
quadratic_ranged_196_lb: [ 1 x_28_ ^ 2 - 2 x_56_ * x_28_ + 1 x_56_ ^ 2 + 1 y_28_ ^ 2 - 2 y_56_ * y_28_ + 1 y_56_ ^ 2 ] >= 18067.5
quadratic_ranged_197_lb: [ 1 x_40_ ^ 2 - 2 x_56_ * x_40_ + 1 x_56_ ^ 2 + 1 y_40_ ^ 2 - 2 y_56_ * y_40_ + 1 y_56_ ^ 2 ] >= 9007.02
quadratic_ranged_198_lb: [ 1 x_53_ ^ 2 - 2 x_56_ * x_53_ + 1 x_56_ ^ 2 + 1 y_53_ ^ 2 - 2 y_56_ * y_53_ + 1 y_56_ ^ 2 ] >= 24886.62
quadratic_ranged_199_lb: [ 1 x_55_ ^ 2 - 2 x_56_ * x_55_ + 1 x_56_ ^ 2 + 1 y_55_ ^ 2 - 2 y_56_ * y_55_ + 1 y_56_ ^ 2 ] >= 18920.88
quadratic_ranged_200_lb: [ 1 x_14_ ^ 2 - 2 x_57_ * x_14_ + 1 x_57_ ^ 2 + 1 y_14_ ^ 2 - 2 y_57_ * y_14_ + 1 y_57_ ^ 2 ] >= 9366.39
quadratic_ranged_201_lb: [ 1 x_16_ ^ 2 - 2 x_57_ * x_16_ + 1 x_57_ ^ 2 + 1 y_16_ ^ 2 - 2 y_57_ * y_16_ + 1 y_57_ ^ 2 ] >= 6816.15
quadratic_ranged_202_lb: [ 1 x_26_ ^ 2 - 2 x_57_ * x_26_ + 1 x_57_ ^ 2 + 1 y_26_ ^ 2 - 2 y_57_ * y_26_ + 1 y_57_ ^ 2 ] >= 1999.8
quadratic_ranged_203_lb: [ 1 x_31_ ^ 2 - 2 x_57_ * x_31_ + 1 x_57_ ^ 2 + 1 y_31_ ^ 2 - 2 y_57_ * y_31_ + 1 y_57_ ^ 2 ] >= 8665.47
quadratic_ranged_204_lb: [ 1 x_41_ ^ 2 - 2 x_57_ * x_41_ + 1 x_57_ ^ 2 + 1 y_41_ ^ 2 - 2 y_57_ * y_41_ + 1 y_57_ ^ 2 ] >= 11792.88
quadratic_ranged_205_lb: [ 1 x_45_ ^ 2 - 2 x_57_ * x_45_ + 1 x_57_ ^ 2 + 1 y_45_ ^ 2 - 2 y_57_ * y_45_ + 1 y_57_ ^ 2 ] >= 13885.74
quadratic_ranged_206_lb: [ 1 x_49_ ^ 2 - 2 x_57_ * x_49_ + 1 x_57_ ^ 2 + 1 y_49_ ^ 2 - 2 y_57_ * y_49_ + 1 y_57_ ^ 2 ] >= 8970.39
quadratic_ranged_207_lb: [ 1 x_54_ ^ 2 - 2 x_57_ * x_54_ + 1 x_57_ ^ 2 + 1 y_54_ ^ 2 - 2 y_57_ * y_54_ + 1 y_57_ ^ 2 ] >= 2100.78
quadratic_ranged_208_lb: [ 1 x_56_ ^ 2 - 2 x_57_ * x_56_ + 1 x_57_ ^ 2 + 1 y_56_ ^ 2 - 2 y_57_ * y_56_ + 1 y_57_ ^ 2 ] >= 8855.55
quadratic_ranged_209_lb: [ 1 x_4_ ^ 2 - 2 x_58_ * x_4_ + 1 x_58_ ^ 2 + 1 y_4_ ^ 2 - 2 y_58_ * y_4_ + 1 y_58_ ^ 2 ] >= 19258.47
quadratic_ranged_210_lb: [ 1 x_20_ ^ 2 - 2 x_58_ * x_20_ + 1 x_58_ ^ 2 + 1 y_20_ ^ 2 - 2 y_58_ * y_20_ + 1 y_58_ ^ 2 ] >= 11627.55
quadratic_ranged_211_lb: [ 1 x_21_ ^ 2 - 2 x_58_ * x_21_ + 1 x_58_ ^ 2 + 1 y_21_ ^ 2 - 2 y_58_ * y_21_ + 1 y_58_ ^ 2 ] >= 17694.27
quadratic_ranged_212_lb: [ 1 x_34_ ^ 2 - 2 x_58_ * x_34_ + 1 x_58_ ^ 2 + 1 y_34_ ^ 2 - 2 y_58_ * y_34_ + 1 y_58_ ^ 2 ] >= 11302.83
quadratic_ranged_213_lb: [ 1 x_46_ ^ 2 - 2 x_58_ * x_46_ + 1 x_58_ ^ 2 + 1 y_46_ ^ 2 - 2 y_58_ * y_46_ + 1 y_58_ ^ 2 ] >= 27507.15
quadratic_ranged_214_lb: [ 1 x_50_ ^ 2 - 2 x_58_ * x_50_ + 1 x_58_ ^ 2 + 1 y_50_ ^ 2 - 2 y_58_ * y_50_ + 1 y_58_ ^ 2 ] >= 9033.75
quadratic_ranged_215_lb: [ 1 x_51_ ^ 2 - 2 x_58_ * x_51_ + 1 x_58_ ^ 2 + 1 y_51_ ^ 2 - 2 y_58_ * y_51_ + 1 y_58_ ^ 2 ] >= 23333.31
quadratic_ranged_216_lb: [ 1 x_57_ ^ 2 - 2 x_58_ * x_57_ + 1 x_58_ ^ 2 + 1 y_57_ ^ 2 - 2 y_58_ * y_57_ + 1 y_58_ ^ 2 ] >= 11065.23
quadratic_ranged_217_lb: [ 1 x_19_ ^ 2 - 2 x_59_ * x_19_ + 1 x_59_ ^ 2 + 1 y_19_ ^ 2 - 2 y_59_ * y_19_ + 1 y_59_ ^ 2 ] >= 419.76
quadratic_ranged_218_lb: [ 1 x_21_ ^ 2 - 2 x_59_ * x_21_ + 1 x_59_ ^ 2 + 1 y_21_ ^ 2 - 2 y_59_ * y_21_ + 1 y_59_ ^ 2 ] >= 587.07
quadratic_ranged_219_lb: [ 1 x_34_ ^ 2 - 2 x_59_ * x_34_ + 1 x_59_ ^ 2 + 1 y_34_ ^ 2 - 2 y_59_ * y_34_ + 1 y_59_ ^ 2 ] >= 2416.59
quadratic_ranged_220_lb: [ 1 x_42_ ^ 2 - 2 x_59_ * x_42_ + 1 x_59_ ^ 2 + 1 y_42_ ^ 2 - 2 y_59_ * y_42_ + 1 y_59_ ^ 2 ] >= 5469.75
quadratic_ranged_221_lb: [ 1 x_57_ ^ 2 - 2 x_59_ * x_57_ + 1 x_59_ ^ 2 + 1 y_57_ ^ 2 - 2 y_59_ * y_57_ + 1 y_59_ ^ 2 ] >= 19191.15
quadratic_ranged_222_lb: [ 1 x_58_ ^ 2 - 2 x_59_ * x_58_ + 1 x_59_ ^ 2 + 1 y_58_ ^ 2 - 2 y_59_ * y_58_ + 1 y_59_ ^ 2 ] >= 23379.84
quadratic_ranged_223_lb: [ 1 x_15_ ^ 2 - 2 x_60_ * x_15_ + 1 x_60_ ^ 2 + 1 y_15_ ^ 2 - 2 y_60_ * y_15_ + 1 y_60_ ^ 2 ] >= 7850.7
quadratic_ranged_224_lb: [ 1 x_27_ ^ 2 - 2 x_60_ * x_27_ + 1 x_60_ ^ 2 + 1 y_27_ ^ 2 - 2 y_60_ * y_27_ + 1 y_60_ ^ 2 ] >= 3113.55
quadratic_ranged_225_lb: [ 1 x_31_ ^ 2 - 2 x_60_ * x_31_ + 1 x_60_ ^ 2 + 1 y_31_ ^ 2 - 2 y_60_ * y_31_ + 1 y_60_ ^ 2 ] >= 5030.19
quadratic_ranged_226_lb: [ 1 x_41_ ^ 2 - 2 x_60_ * x_41_ + 1 x_60_ ^ 2 + 1 y_41_ ^ 2 - 2 y_60_ * y_41_ + 1 y_60_ ^ 2 ] >= 19920.78
quadratic_ranged_227_lb: [ 1 x_42_ ^ 2 - 2 x_60_ * x_42_ + 1 x_60_ ^ 2 + 1 y_42_ ^ 2 - 2 y_60_ * y_42_ + 1 y_60_ ^ 2 ] >= 10854.36
quadratic_ranged_228_lb: [ 1 x_59_ ^ 2 - 2 x_60_ * x_59_ + 1 x_60_ ^ 2 + 1 y_59_ ^ 2 - 2 y_60_ * y_59_ + 1 y_60_ ^ 2 ] >= 26600.31
quadratic_ranged_229_lb: [ 1 x_2_ ^ 2 - 2 x_61_ * x_2_ + 1 x_61_ ^ 2 + 1 y_2_ ^ 2 - 2 y_61_ * y_2_ + 1 y_61_ ^ 2 ] >= 30358.35
quadratic_ranged_230_lb: [ 1 x_27_ ^ 2 - 2 x_61_ * x_27_ + 1 x_61_ ^ 2 + 1 y_27_ ^ 2 - 2 y_61_ * y_27_ + 1 y_61_ ^ 2 ] >= 5671.71
quadratic_ranged_231_lb: [ 1 x_37_ ^ 2 - 2 x_61_ * x_37_ + 1 x_61_ ^ 2 + 1 y_37_ ^ 2 - 2 y_61_ * y_37_ + 1 y_61_ ^ 2 ] >= 9266.4
quadratic_ranged_232_lb: [ 1 x_46_ ^ 2 - 2 x_61_ * x_46_ + 1 x_61_ ^ 2 + 1 y_46_ ^ 2 - 2 y_61_ * y_46_ + 1 y_61_ ^ 2 ] >= 20627.64
quadratic_ranged_233_lb: [ 1 x_60_ ^ 2 - 2 x_61_ * x_60_ + 1 x_61_ ^ 2 + 1 y_60_ ^ 2 - 2 y_61_ * y_60_ + 1 y_61_ ^ 2 ] >= 14877.72
quadratic_ranged_234_lb: [ 1 x_14_ ^ 2 - 2 x_62_ * x_14_ + 1 x_62_ ^ 2 + 1 y_14_ ^ 2 - 2 y_62_ * y_14_ + 1 y_62_ ^ 2 ] >= 14815.35
quadratic_ranged_235_lb: [ 1 x_24_ ^ 2 - 2 x_62_ * x_24_ + 1 x_62_ ^ 2 + 1 y_24_ ^ 2 - 2 y_62_ * y_24_ + 1 y_62_ ^ 2 ] >= 33720.39
quadratic_ranged_236_lb: [ 1 x_41_ ^ 2 - 2 x_62_ * x_41_ + 1 x_62_ ^ 2 + 1 y_41_ ^ 2 - 2 y_62_ * y_41_ + 1 y_62_ ^ 2 ] >= 15414.3
quadratic_ranged_237_lb: [ 1 x_56_ ^ 2 - 2 x_62_ * x_56_ + 1 x_62_ ^ 2 + 1 y_56_ ^ 2 - 2 y_62_ * y_56_ + 1 y_62_ ^ 2 ] >= 2844.27
quadratic_ranged_238_lb: [ 1 x_61_ ^ 2 - 2 x_62_ * x_61_ + 1 x_62_ ^ 2 + 1 y_61_ ^ 2 - 2 y_62_ * y_61_ + 1 y_62_ ^ 2 ] >= 35.64
quadratic_ranged_239_lb: [ 1 x_5_ ^ 2 - 2 x_63_ * x_5_ + 1 x_63_ ^ 2 + 1 y_5_ ^ 2 - 2 y_63_ * y_5_ + 1 y_63_ ^ 2 ] >= 3580.83
quadratic_ranged_240_lb: [ 1 x_9_ ^ 2 - 2 x_63_ * x_9_ + 1 x_63_ ^ 2 + 1 y_9_ ^ 2 - 2 y_63_ * y_9_ + 1 y_63_ ^ 2 ] >= 2895.75
quadratic_ranged_241_lb: [ 1 x_16_ ^ 2 - 2 x_63_ * x_16_ + 1 x_63_ ^ 2 + 1 y_16_ ^ 2 - 2 y_63_ * y_16_ + 1 y_63_ ^ 2 ] >= 7306.2
quadratic_ranged_242_lb: [ 1 x_33_ ^ 2 - 2 x_63_ * x_33_ + 1 x_63_ ^ 2 + 1 y_33_ ^ 2 - 2 y_63_ * y_33_ + 1 y_63_ ^ 2 ] >= 22873.95
quadratic_ranged_243_lb: [ 1 x_36_ ^ 2 - 2 x_63_ * x_36_ + 1 x_63_ ^ 2 + 1 y_36_ ^ 2 - 2 y_63_ * y_36_ + 1 y_63_ ^ 2 ] >= 30036.6
quadratic_ranged_244_lb: [ 1 x_53_ ^ 2 - 2 x_63_ * x_53_ + 1 x_63_ ^ 2 + 1 y_53_ ^ 2 - 2 y_63_ * y_53_ + 1 y_63_ ^ 2 ] >= 20025.72
quadratic_ranged_245_lb: [ 1 x_56_ ^ 2 - 2 x_63_ * x_56_ + 1 x_63_ ^ 2 + 1 y_56_ ^ 2 - 2 y_63_ * y_56_ + 1 y_63_ ^ 2 ] >= 16681.5
quadratic_ranged_246_lb: [ 1 x_59_ ^ 2 - 2 x_63_ * x_59_ + 1 x_63_ ^ 2 + 1 y_59_ ^ 2 - 2 y_63_ * y_59_ + 1 y_63_ ^ 2 ] >= 21879
quadratic_ranged_247_lb: [ 1 x_60_ ^ 2 - 2 x_63_ * x_60_ + 1 x_63_ ^ 2 + 1 y_60_ ^ 2 - 2 y_63_ * y_60_ + 1 y_63_ ^ 2 ] >= 5109.39
quadratic_ranged_248_lb: [ 1 x_62_ ^ 2 - 2 x_63_ * x_62_ + 1 x_63_ ^ 2 + 1 y_62_ ^ 2 - 2 y_63_ * y_62_ + 1 y_63_ ^ 2 ] >= 25178.67
quadratic_ranged_249_lb: [ 1 x_2_ ^ 2 - 2 x_64_ * x_2_ + 1 x_64_ ^ 2 + 1 y_2_ ^ 2 - 2 y_64_ * y_2_ + 1 y_64_ ^ 2 ] >= 7547.76
quadratic_ranged_250_lb: [ 1 x_6_ ^ 2 - 2 x_64_ * x_6_ + 1 x_64_ ^ 2 + 1 y_6_ ^ 2 - 2 y_64_ * y_6_ + 1 y_64_ ^ 2 ] >= 7940.79
quadratic_ranged_251_lb: [ 1 x_12_ ^ 2 - 2 x_64_ * x_12_ + 1 x_64_ ^ 2 + 1 y_12_ ^ 2 - 2 y_64_ * y_12_ + 1 y_64_ ^ 2 ] >= 5026.23
quadratic_ranged_252_lb: [ 1 x_13_ ^ 2 - 2 x_64_ * x_13_ + 1 x_64_ ^ 2 + 1 y_13_ ^ 2 - 2 y_64_ * y_13_ + 1 y_64_ ^ 2 ] >= 146.52
quadratic_ranged_253_lb: [ 1 x_16_ ^ 2 - 2 x_64_ * x_16_ + 1 x_64_ ^ 2 + 1 y_16_ ^ 2 - 2 y_64_ * y_16_ + 1 y_64_ ^ 2 ] >= 764.28
quadratic_ranged_254_lb: [ 1 x_17_ ^ 2 - 2 x_64_ * x_17_ + 1 x_64_ ^ 2 + 1 y_17_ ^ 2 - 2 y_64_ * y_17_ + 1 y_64_ ^ 2 ] >= 25091.55
quadratic_ranged_255_lb: [ 1 x_21_ ^ 2 - 2 x_64_ * x_21_ + 1 x_64_ ^ 2 + 1 y_21_ ^ 2 - 2 y_64_ * y_21_ + 1 y_64_ ^ 2 ] >= 9330.75
quadratic_ranged_256_lb: [ 1 x_37_ ^ 2 - 2 x_64_ * x_37_ + 1 x_64_ ^ 2 + 1 y_37_ ^ 2 - 2 y_64_ * y_37_ + 1 y_64_ ^ 2 ] >= 6689.43
quadratic_ranged_257_lb: [ 1 x_40_ ^ 2 - 2 x_64_ * x_40_ + 1 x_64_ ^ 2 + 1 y_40_ ^ 2 - 2 y_64_ * y_40_ + 1 y_64_ ^ 2 ] >= 8937.72
quadratic_ranged_258_lb: [ 1 x_63_ ^ 2 - 2 x_64_ * x_63_ + 1 x_64_ ^ 2 + 1 y_63_ ^ 2 - 2 y_64_ * y_63_ + 1 y_64_ ^ 2 ] >= 4886.64
quadratic_ranged_259_lb: [ 1 x_15_ ^ 2 - 2 x_65_ * x_15_ + 1 x_65_ ^ 2 + 1 y_15_ ^ 2 - 2 y_65_ * y_15_ + 1 y_65_ ^ 2 ] >= 16158.78
quadratic_ranged_260_lb: [ 1 x_20_ ^ 2 - 2 x_65_ * x_20_ + 1 x_65_ ^ 2 + 1 y_20_ ^ 2 - 2 y_65_ * y_20_ + 1 y_65_ ^ 2 ] >= 19550.52
quadratic_ranged_261_lb: [ 1 x_23_ ^ 2 - 2 x_65_ * x_23_ + 1 x_65_ ^ 2 + 1 y_23_ ^ 2 - 2 y_65_ * y_23_ + 1 y_65_ ^ 2 ] >= 7370.55
quadratic_ranged_262_lb: [ 1 x_36_ ^ 2 - 2 x_65_ * x_36_ + 1 x_65_ ^ 2 + 1 y_36_ ^ 2 - 2 y_65_ * y_36_ + 1 y_65_ ^ 2 ] >= 15646.95
quadratic_ranged_263_lb: [ 1 x_55_ ^ 2 - 2 x_65_ * x_55_ + 1 x_65_ ^ 2 + 1 y_55_ ^ 2 - 2 y_65_ * y_55_ + 1 y_65_ ^ 2 ] >= 899.91
quadratic_ranged_264_lb: [ 1 x_64_ ^ 2 - 2 x_65_ * x_64_ + 1 x_65_ ^ 2 + 1 y_64_ ^ 2 - 2 y_65_ * y_64_ + 1 y_65_ ^ 2 ] >= 725.67
quadratic_ranged_265_lb: [ 1 x_8_ ^ 2 - 2 x_66_ * x_8_ + 1 x_66_ ^ 2 + 1 y_8_ ^ 2 - 2 y_66_ * y_8_ + 1 y_66_ ^ 2 ] >= 7608.15
quadratic_ranged_266_lb: [ 1 x_9_ ^ 2 - 2 x_66_ * x_9_ + 1 x_66_ ^ 2 + 1 y_9_ ^ 2 - 2 y_66_ * y_9_ + 1 y_66_ ^ 2 ] >= 2832.39
quadratic_ranged_267_lb: [ 1 x_47_ ^ 2 - 2 x_66_ * x_47_ + 1 x_66_ ^ 2 + 1 y_47_ ^ 2 - 2 y_66_ * y_47_ + 1 y_66_ ^ 2 ] >= 12518.55
quadratic_ranged_268_lb: [ 1 x_65_ ^ 2 - 2 x_66_ * x_65_ + 1 x_66_ ^ 2 + 1 y_65_ ^ 2 - 2 y_66_ * y_65_ + 1 y_66_ ^ 2 ] >= 670.23
quadratic_ranged_269_lb: [ 1 x_3_ ^ 2 - 2 x_67_ * x_3_ + 1 x_67_ ^ 2 + 1 y_3_ ^ 2 - 2 y_67_ * y_3_ + 1 y_67_ ^ 2 ] >= 29086.2
quadratic_ranged_270_lb: [ 1 x_8_ ^ 2 - 2 x_67_ * x_8_ + 1 x_67_ ^ 2 + 1 y_8_ ^ 2 - 2 y_67_ * y_8_ + 1 y_67_ ^ 2 ] >= 21222.63
quadratic_ranged_271_lb: [ 1 x_16_ ^ 2 - 2 x_67_ * x_16_ + 1 x_67_ ^ 2 + 1 y_16_ ^ 2 - 2 y_67_ * y_16_ + 1 y_67_ ^ 2 ] >= 1237.5
quadratic_ranged_272_lb: [ 1 x_25_ ^ 2 - 2 x_67_ * x_25_ + 1 x_67_ ^ 2 + 1 y_25_ ^ 2 - 2 y_67_ * y_25_ + 1 y_67_ ^ 2 ] >= 17703.18
quadratic_ranged_273_lb: [ 1 x_44_ ^ 2 - 2 x_67_ * x_44_ + 1 x_67_ ^ 2 + 1 y_44_ ^ 2 - 2 y_67_ * y_44_ + 1 y_67_ ^ 2 ] >= 24529.23
quadratic_ranged_274_lb: [ 1 x_58_ ^ 2 - 2 x_67_ * x_58_ + 1 x_67_ ^ 2 + 1 y_58_ ^ 2 - 2 y_67_ * y_58_ + 1 y_67_ ^ 2 ] >= 25179.66
quadratic_ranged_275_lb: [ 1 x_66_ ^ 2 - 2 x_67_ * x_66_ + 1 x_67_ ^ 2 + 1 y_66_ ^ 2 - 2 y_67_ * y_66_ + 1 y_67_ ^ 2 ] >= 3599.64
quadratic_ranged_276_lb: [ 1 x_18_ ^ 2 - 2 x_68_ * x_18_ + 1 x_68_ ^ 2 + 1 y_18_ ^ 2 - 2 y_68_ * y_18_ + 1 y_68_ ^ 2 ] >= 10179.18
quadratic_ranged_277_lb: [ 1 x_33_ ^ 2 - 2 x_68_ * x_33_ + 1 x_68_ ^ 2 + 1 y_33_ ^ 2 - 2 y_68_ * y_33_ + 1 y_68_ ^ 2 ] >= 33375.87
quadratic_ranged_278_lb: [ 1 x_39_ ^ 2 - 2 x_68_ * x_39_ + 1 x_68_ ^ 2 + 1 y_39_ ^ 2 - 2 y_68_ * y_39_ + 1 y_68_ ^ 2 ] >= 2923.47
quadratic_ranged_279_lb: [ 1 x_51_ ^ 2 - 2 x_68_ * x_51_ + 1 x_68_ ^ 2 + 1 y_51_ ^ 2 - 2 y_68_ * y_51_ + 1 y_68_ ^ 2 ] >= 21388.95
quadratic_ranged_280_lb: [ 1 x_67_ ^ 2 - 2 x_68_ * x_67_ + 1 x_68_ ^ 2 + 1 y_67_ ^ 2 - 2 y_68_ * y_67_ + 1 y_68_ ^ 2 ] >= 17536.86
quadratic_ranged_281_lb: [ 1 x_3_ ^ 2 - 2 x_69_ * x_3_ + 1 x_69_ ^ 2 + 1 y_3_ ^ 2 - 2 y_69_ * y_3_ + 1 y_69_ ^ 2 ] >= 5283.63
quadratic_ranged_282_lb: [ 1 x_10_ ^ 2 - 2 x_69_ * x_10_ + 1 x_69_ ^ 2 + 1 y_10_ ^ 2 - 2 y_69_ * y_10_ + 1 y_69_ ^ 2 ] >= 3018.5099999999998
quadratic_ranged_283_lb: [ 1 x_13_ ^ 2 - 2 x_69_ * x_13_ + 1 x_69_ ^ 2 + 1 y_13_ ^ 2 - 2 y_69_ * y_13_ + 1 y_69_ ^ 2 ] >= 21044.43
quadratic_ranged_284_lb: [ 1 x_14_ ^ 2 - 2 x_69_ * x_14_ + 1 x_69_ ^ 2 + 1 y_14_ ^ 2 - 2 y_69_ * y_14_ + 1 y_69_ ^ 2 ] >= 14280.75
quadratic_ranged_285_lb: [ 1 x_15_ ^ 2 - 2 x_69_ * x_15_ + 1 x_69_ ^ 2 + 1 y_15_ ^ 2 - 2 y_69_ * y_15_ + 1 y_69_ ^ 2 ] >= 5110.38
quadratic_ranged_286_lb: [ 1 x_16_ ^ 2 - 2 x_69_ * x_16_ + 1 x_69_ ^ 2 + 1 y_16_ ^ 2 - 2 y_69_ * y_16_ + 1 y_69_ ^ 2 ] >= 12962.07
quadratic_ranged_287_lb: [ 1 x_19_ ^ 2 - 2 x_69_ * x_19_ + 1 x_69_ ^ 2 + 1 y_19_ ^ 2 - 2 y_69_ * y_19_ + 1 y_69_ ^ 2 ] >= 13389.75
quadratic_ranged_288_lb: [ 1 x_32_ ^ 2 - 2 x_69_ * x_32_ + 1 x_69_ ^ 2 + 1 y_32_ ^ 2 - 2 y_69_ * y_32_ + 1 y_69_ ^ 2 ] >= 241.56
quadratic_ranged_289_lb: [ 1 x_47_ ^ 2 - 2 x_69_ * x_47_ + 1 x_69_ ^ 2 + 1 y_47_ ^ 2 - 2 y_69_ * y_47_ + 1 y_69_ ^ 2 ] >= 12014.64
quadratic_ranged_290_lb: [ 1 x_52_ ^ 2 - 2 x_69_ * x_52_ + 1 x_69_ ^ 2 + 1 y_52_ ^ 2 - 2 y_69_ * y_52_ + 1 y_69_ ^ 2 ] >= 2392.83
quadratic_ranged_291_lb: [ 1 x_66_ ^ 2 - 2 x_69_ * x_66_ + 1 x_69_ ^ 2 + 1 y_66_ ^ 2 - 2 y_69_ * y_66_ + 1 y_69_ ^ 2 ] >= 7818.03
quadratic_ranged_292_lb: [ 1 x_68_ ^ 2 - 2 x_69_ * x_68_ + 1 x_69_ ^ 2 + 1 y_68_ ^ 2 - 2 y_69_ * y_68_ + 1 y_69_ ^ 2 ] >= 11132.55
quadratic_ranged_293_lb: [ 1 x_1_ ^ 2 - 2 x_70_ * x_1_ + 1 x_70_ ^ 2 + 1 y_1_ ^ 2 - 2 y_70_ * y_1_ + 1 y_70_ ^ 2 ] >= 21340.44
quadratic_ranged_294_lb: [ 1 x_10_ ^ 2 - 2 x_70_ * x_10_ + 1 x_70_ ^ 2 + 1 y_10_ ^ 2 - 2 y_70_ * y_10_ + 1 y_70_ ^ 2 ] >= 5615.28
quadratic_ranged_295_lb: [ 1 x_17_ ^ 2 - 2 x_70_ * x_17_ + 1 x_70_ ^ 2 + 1 y_17_ ^ 2 - 2 y_70_ * y_17_ + 1 y_70_ ^ 2 ] >= 12059.19
quadratic_ranged_296_lb: [ 1 x_20_ ^ 2 - 2 x_70_ * x_20_ + 1 x_70_ ^ 2 + 1 y_20_ ^ 2 - 2 y_70_ * y_20_ + 1 y_70_ ^ 2 ] >= 1284.03
quadratic_ranged_297_lb: [ 1 x_21_ ^ 2 - 2 x_70_ * x_21_ + 1 x_70_ ^ 2 + 1 y_21_ ^ 2 - 2 y_70_ * y_21_ + 1 y_70_ ^ 2 ] >= 2103.75
quadratic_ranged_298_lb: [ 1 x_51_ ^ 2 - 2 x_70_ * x_51_ + 1 x_70_ ^ 2 + 1 y_51_ ^ 2 - 2 y_70_ * y_51_ + 1 y_70_ ^ 2 ] >= 7168.59
quadratic_ranged_299_lb: [ 1 x_53_ ^ 2 - 2 x_70_ * x_53_ + 1 x_70_ ^ 2 + 1 y_53_ ^ 2 - 2 y_70_ * y_53_ + 1 y_70_ ^ 2 ] >= 11034.539999999999
quadratic_ranged_300_lb: [ 1 x_56_ ^ 2 - 2 x_70_ * x_56_ + 1 x_70_ ^ 2 + 1 y_56_ ^ 2 - 2 y_70_ * y_56_ + 1 y_70_ ^ 2 ] >= 9266.4
quadratic_ranged_301_lb: [ 1 x_64_ ^ 2 - 2 x_70_ * x_64_ + 1 x_70_ ^ 2 + 1 y_64_ ^ 2 - 2 y_70_ * y_64_ + 1 y_70_ ^ 2 ] >= 17703.18
quadratic_ranged_302_lb: [ 1 x_69_ ^ 2 - 2 x_70_ * x_69_ + 1 x_70_ ^ 2 + 1 y_69_ ^ 2 - 2 y_70_ * y_69_ + 1 y_70_ ^ 2 ] >= 1153.35
quadratic_ranged_303_lb: [ 1 x_11_ ^ 2 - 2 x_71_ * x_11_ + 1 x_71_ ^ 2 + 1 y_11_ ^ 2 - 2 y_71_ * y_11_ + 1 y_71_ ^ 2 ] >= 38511
quadratic_ranged_304_lb: [ 1 x_26_ ^ 2 - 2 x_71_ * x_26_ + 1 x_71_ ^ 2 + 1 y_26_ ^ 2 - 2 y_71_ * y_26_ + 1 y_71_ ^ 2 ] >= 15493.5
quadratic_ranged_305_lb: [ 1 x_28_ ^ 2 - 2 x_71_ * x_28_ + 1 x_71_ ^ 2 + 1 y_28_ ^ 2 - 2 y_71_ * y_28_ + 1 y_71_ ^ 2 ] >= 1834.47
quadratic_ranged_306_lb: [ 1 x_57_ ^ 2 - 2 x_71_ * x_57_ + 1 x_71_ ^ 2 + 1 y_57_ ^ 2 - 2 y_71_ * y_57_ + 1 y_71_ ^ 2 ] >= 23809.5
quadratic_ranged_307_lb: [ 1 x_70_ ^ 2 - 2 x_71_ * x_70_ + 1 x_71_ ^ 2 + 1 y_70_ ^ 2 - 2 y_71_ * y_70_ + 1 y_71_ ^ 2 ] >= 765.27
quadratic_ranged_308_lb: [ 1 x_2_ ^ 2 - 2 x_72_ * x_2_ + 1 x_72_ ^ 2 + 1 y_2_ ^ 2 - 2 y_72_ * y_2_ + 1 y_72_ ^ 2 ] >= 24361.92
quadratic_ranged_309_lb: [ 1 x_3_ ^ 2 - 2 x_72_ * x_3_ + 1 x_72_ ^ 2 + 1 y_3_ ^ 2 - 2 y_72_ * y_3_ + 1 y_72_ ^ 2 ] >= 19960.38
quadratic_ranged_310_lb: [ 1 x_11_ ^ 2 - 2 x_72_ * x_11_ + 1 x_72_ ^ 2 + 1 y_11_ ^ 2 - 2 y_72_ * y_11_ + 1 y_72_ ^ 2 ] >= 1430.55
quadratic_ranged_311_lb: [ 1 x_29_ ^ 2 - 2 x_72_ * x_29_ + 1 x_72_ ^ 2 + 1 y_29_ ^ 2 - 2 y_72_ * y_29_ + 1 y_72_ ^ 2 ] >= 10566.27
quadratic_ranged_312_lb: [ 1 x_36_ ^ 2 - 2 x_72_ * x_36_ + 1 x_72_ ^ 2 + 1 y_36_ ^ 2 - 2 y_72_ * y_36_ + 1 y_72_ ^ 2 ] >= 24967.8
quadratic_ranged_313_lb: [ 1 x_59_ ^ 2 - 2 x_72_ * x_59_ + 1 x_72_ ^ 2 + 1 y_59_ ^ 2 - 2 y_72_ * y_59_ + 1 y_72_ ^ 2 ] >= 19629.72
quadratic_ranged_314_lb: [ 1 x_68_ ^ 2 - 2 x_72_ * x_68_ + 1 x_72_ ^ 2 + 1 y_68_ ^ 2 - 2 y_72_ * y_68_ + 1 y_72_ ^ 2 ] >= 7337.88
quadratic_ranged_315_lb: [ 1 x_71_ ^ 2 - 2 x_72_ * x_71_ + 1 x_72_ ^ 2 + 1 y_71_ ^ 2 - 2 y_72_ * y_71_ + 1 y_72_ ^ 2 ] >= 26097.39
quadratic_ranged_316_lb: [ 1 x_1_ ^ 2 - 2 x_73_ * x_1_ + 1 x_73_ ^ 2 + 1 y_1_ ^ 2 - 2 y_73_ * y_1_ + 1 y_73_ ^ 2 ] >= 10431.63
quadratic_ranged_317_lb: [ 1 x_19_ ^ 2 - 2 x_73_ * x_19_ + 1 x_73_ ^ 2 + 1 y_19_ ^ 2 - 2 y_73_ * y_19_ + 1 y_73_ ^ 2 ] >= 3933.27
quadratic_ranged_318_lb: [ 1 x_22_ ^ 2 - 2 x_73_ * x_22_ + 1 x_73_ ^ 2 + 1 y_22_ ^ 2 - 2 y_73_ * y_22_ + 1 y_73_ ^ 2 ] >= 13561.02
quadratic_ranged_319_lb: [ 1 x_24_ ^ 2 - 2 x_73_ * x_24_ + 1 x_73_ ^ 2 + 1 y_24_ ^ 2 - 2 y_73_ * y_24_ + 1 y_73_ ^ 2 ] >= 27863.55
quadratic_ranged_320_lb: [ 1 x_37_ ^ 2 - 2 x_73_ * x_37_ + 1 x_73_ ^ 2 + 1 y_37_ ^ 2 - 2 y_73_ * y_37_ + 1 y_73_ ^ 2 ] >= 1560.24
quadratic_ranged_321_lb: [ 1 x_42_ ^ 2 - 2 x_73_ * x_42_ + 1 x_73_ ^ 2 + 1 y_42_ ^ 2 - 2 y_73_ * y_42_ + 1 y_73_ ^ 2 ] >= 4316.4
quadratic_ranged_322_lb: [ 1 x_50_ ^ 2 - 2 x_73_ * x_50_ + 1 x_73_ ^ 2 + 1 y_50_ ^ 2 - 2 y_73_ * y_50_ + 1 y_73_ ^ 2 ] >= 1728.54
quadratic_ranged_323_lb: [ 1 x_60_ ^ 2 - 2 x_73_ * x_60_ + 1 x_73_ ^ 2 + 1 y_60_ ^ 2 - 2 y_73_ * y_60_ + 1 y_73_ ^ 2 ] >= 16746.84
quadratic_ranged_324_lb: [ 1 x_70_ ^ 2 - 2 x_73_ * x_70_ + 1 x_73_ ^ 2 + 1 y_70_ ^ 2 - 2 y_73_ * y_70_ + 1 y_73_ ^ 2 ] >= 2020.59
quadratic_ranged_325_lb: [ 1 x_72_ ^ 2 - 2 x_73_ * x_72_ + 1 x_73_ ^ 2 + 1 y_72_ ^ 2 - 2 y_73_ * y_72_ + 1 y_73_ ^ 2 ] >= 14340.15
quadratic_ranged_326_lb: [ 1 x_3_ ^ 2 - 2 x_74_ * x_3_ + 1 x_74_ ^ 2 + 1 y_3_ ^ 2 - 2 y_74_ * y_3_ + 1 y_74_ ^ 2 ] >= 9718.83
quadratic_ranged_327_lb: [ 1 x_9_ ^ 2 - 2 x_74_ * x_9_ + 1 x_74_ ^ 2 + 1 y_9_ ^ 2 - 2 y_74_ * y_9_ + 1 y_74_ ^ 2 ] >= 29502
quadratic_ranged_328_lb: [ 1 x_22_ ^ 2 - 2 x_74_ * x_22_ + 1 x_74_ ^ 2 + 1 y_22_ ^ 2 - 2 y_74_ * y_22_ + 1 y_74_ ^ 2 ] >= 24696.54
quadratic_ranged_329_lb: [ 1 x_28_ ^ 2 - 2 x_74_ * x_28_ + 1 x_74_ ^ 2 + 1 y_28_ ^ 2 - 2 y_74_ * y_28_ + 1 y_74_ ^ 2 ] >= 10696.95
quadratic_ranged_330_lb: [ 1 x_37_ ^ 2 - 2 x_74_ * x_37_ + 1 x_74_ ^ 2 + 1 y_37_ ^ 2 - 2 y_74_ * y_37_ + 1 y_74_ ^ 2 ] >= 11563.2
quadratic_ranged_331_lb: [ 1 x_41_ ^ 2 - 2 x_74_ * x_41_ + 1 x_74_ ^ 2 + 1 y_41_ ^ 2 - 2 y_74_ * y_41_ + 1 y_74_ ^ 2 ] >= 20205.9
quadratic_ranged_332_lb: [ 1 x_47_ ^ 2 - 2 x_74_ * x_47_ + 1 x_74_ ^ 2 + 1 y_47_ ^ 2 - 2 y_74_ * y_47_ + 1 y_74_ ^ 2 ] >= 20073.24
quadratic_ranged_333_lb: [ 1 x_60_ ^ 2 - 2 x_74_ * x_60_ + 1 x_74_ ^ 2 + 1 y_60_ ^ 2 - 2 y_74_ * y_60_ + 1 y_74_ ^ 2 ] >= 29529.72
quadratic_ranged_334_lb: [ 1 x_73_ ^ 2 - 2 x_74_ * x_73_ + 1 x_74_ ^ 2 + 1 y_73_ ^ 2 - 2 y_74_ * y_73_ + 1 y_74_ ^ 2 ] >= 6502.32
quadratic_ranged_335_lb: [ 1 x_12_ ^ 2 - 2 x_75_ * x_12_ + 1 x_75_ ^ 2 + 1 y_12_ ^ 2 - 2 y_75_ * y_12_ + 1 y_75_ ^ 2 ] >= 31906.71
quadratic_ranged_336_lb: [ 1 x_32_ ^ 2 - 2 x_75_ * x_32_ + 1 x_75_ ^ 2 + 1 y_32_ ^ 2 - 2 y_75_ * y_32_ + 1 y_75_ ^ 2 ] >= 34472.79
quadratic_ranged_337_lb: [ 1 x_38_ ^ 2 - 2 x_75_ * x_38_ + 1 x_75_ ^ 2 + 1 y_38_ ^ 2 - 2 y_75_ * y_38_ + 1 y_75_ ^ 2 ] >= 13508.55
quadratic_ranged_338_lb: [ 1 x_45_ ^ 2 - 2 x_75_ * x_45_ + 1 x_75_ ^ 2 + 1 y_45_ ^ 2 - 2 y_75_ * y_45_ + 1 y_75_ ^ 2 ] >= 21622.59
quadratic_ranged_339_lb: [ 1 x_50_ ^ 2 - 2 x_75_ * x_50_ + 1 x_75_ ^ 2 + 1 y_50_ ^ 2 - 2 y_75_ * y_50_ + 1 y_75_ ^ 2 ] >= 12110.67
quadratic_ranged_340_lb: [ 1 x_61_ ^ 2 - 2 x_75_ * x_61_ + 1 x_75_ ^ 2 + 1 y_61_ ^ 2 - 2 y_75_ * y_61_ + 1 y_75_ ^ 2 ] >= 24537.15
quadratic_ranged_341_lb: [ 1 x_74_ ^ 2 - 2 x_75_ * x_74_ + 1 x_75_ ^ 2 + 1 y_74_ ^ 2 - 2 y_75_ * y_74_ + 1 y_75_ ^ 2 ] >= 42436.35
quadratic_ranged_342_lb: [ 1 x_15_ ^ 2 - 2 x_76_ * x_15_ + 1 x_76_ ^ 2 + 1 y_15_ ^ 2 - 2 y_76_ * y_15_ + 1 y_76_ ^ 2 ] >= 46114.2
quadratic_ranged_343_lb: [ 1 x_22_ ^ 2 - 2 x_76_ * x_22_ + 1 x_76_ ^ 2 + 1 y_22_ ^ 2 - 2 y_76_ * y_22_ + 1 y_76_ ^ 2 ] >= 36800.28
quadratic_ranged_344_lb: [ 1 x_25_ ^ 2 - 2 x_76_ * x_25_ + 1 x_76_ ^ 2 + 1 y_25_ ^ 2 - 2 y_76_ * y_25_ + 1 y_76_ ^ 2 ] >= 40785.03
quadratic_ranged_345_lb: [ 1 x_27_ ^ 2 - 2 x_76_ * x_27_ + 1 x_76_ ^ 2 + 1 y_27_ ^ 2 - 2 y_76_ * y_27_ + 1 y_76_ ^ 2 ] >= 24616.35
quadratic_ranged_346_lb: [ 1 x_35_ ^ 2 - 2 x_76_ * x_35_ + 1 x_76_ ^ 2 + 1 y_35_ ^ 2 - 2 y_76_ * y_35_ + 1 y_76_ ^ 2 ] >= 4096.62
quadratic_ranged_347_lb: [ 1 x_59_ ^ 2 - 2 x_76_ * x_59_ + 1 x_76_ ^ 2 + 1 y_59_ ^ 2 - 2 y_76_ * y_59_ + 1 y_76_ ^ 2 ] >= 7010.19
quadratic_ranged_348_lb: [ 1 x_75_ ^ 2 - 2 x_76_ * x_75_ + 1 x_76_ ^ 2 + 1 y_75_ ^ 2 - 2 y_76_ * y_75_ + 1 y_76_ ^ 2 ] >= 38005.11
quadratic_ranged_349_lb: [ 1 x_26_ ^ 2 - 2 x_77_ * x_26_ + 1 x_77_ ^ 2 + 1 y_26_ ^ 2 - 2 y_77_ * y_26_ + 1 y_77_ ^ 2 ] >= 416.79
quadratic_ranged_350_lb: [ 1 x_39_ ^ 2 - 2 x_77_ * x_39_ + 1 x_77_ ^ 2 + 1 y_39_ ^ 2 - 2 y_77_ * y_39_ + 1 y_77_ ^ 2 ] >= 7631.91
quadratic_ranged_351_lb: [ 1 x_45_ ^ 2 - 2 x_77_ * x_45_ + 1 x_77_ ^ 2 + 1 y_45_ ^ 2 - 2 y_77_ * y_45_ + 1 y_77_ ^ 2 ] >= 18086.31
quadratic_ranged_352_lb: [ 1 x_63_ ^ 2 - 2 x_77_ * x_63_ + 1 x_77_ ^ 2 + 1 y_63_ ^ 2 - 2 y_77_ * y_63_ + 1 y_77_ ^ 2 ] >= 976.14
quadratic_ranged_353_lb: [ 1 x_74_ ^ 2 - 2 x_77_ * x_74_ + 1 x_77_ ^ 2 + 1 y_74_ ^ 2 - 2 y_77_ * y_74_ + 1 y_77_ ^ 2 ] >= 31201.829999999998
quadratic_ranged_354_lb: [ 1 x_75_ ^ 2 - 2 x_77_ * x_75_ + 1 x_77_ ^ 2 + 1 y_75_ ^ 2 - 2 y_77_ * y_75_ + 1 y_77_ ^ 2 ] >= 5062.86
quadratic_ranged_355_lb: [ 1 x_76_ ^ 2 - 2 x_77_ * x_76_ + 1 x_77_ ^ 2 + 1 y_76_ ^ 2 - 2 y_77_ * y_76_ + 1 y_77_ ^ 2 ] >= 15326.19
quadratic_ranged_356_lb: [ 1 x_3_ ^ 2 - 2 x_78_ * x_3_ + 1 x_78_ ^ 2 + 1 y_3_ ^ 2 - 2 y_78_ * y_3_ + 1 y_78_ ^ 2 ] >= 3439.2599999999998
quadratic_ranged_357_lb: [ 1 x_9_ ^ 2 - 2 x_78_ * x_9_ + 1 x_78_ ^ 2 + 1 y_9_ ^ 2 - 2 y_78_ * y_9_ + 1 y_78_ ^ 2 ] >= 11382.03
quadratic_ranged_358_lb: [ 1 x_20_ ^ 2 - 2 x_78_ * x_20_ + 1 x_78_ ^ 2 + 1 y_20_ ^ 2 - 2 y_78_ * y_20_ + 1 y_78_ ^ 2 ] >= 14993.55
quadratic_ranged_359_lb: [ 1 x_30_ ^ 2 - 2 x_78_ * x_30_ + 1 x_78_ ^ 2 + 1 y_30_ ^ 2 - 2 y_78_ * y_30_ + 1 y_78_ ^ 2 ] >= 8518.95
quadratic_ranged_360_lb: [ 1 x_34_ ^ 2 - 2 x_78_ * x_34_ + 1 x_78_ ^ 2 + 1 y_34_ ^ 2 - 2 y_78_ * y_34_ + 1 y_78_ ^ 2 ] >= 9128.789999999999
quadratic_ranged_361_lb: [ 1 x_42_ ^ 2 - 2 x_78_ * x_42_ + 1 x_78_ ^ 2 + 1 y_42_ ^ 2 - 2 y_78_ * y_42_ + 1 y_78_ ^ 2 ] >= 9065.43
quadratic_ranged_362_lb: [ 1 x_50_ ^ 2 - 2 x_78_ * x_50_ + 1 x_78_ ^ 2 + 1 y_50_ ^ 2 - 2 y_78_ * y_50_ + 1 y_78_ ^ 2 ] >= 4364.91
quadratic_ranged_363_lb: [ 1 x_54_ ^ 2 - 2 x_78_ * x_54_ + 1 x_78_ ^ 2 + 1 y_54_ ^ 2 - 2 y_78_ * y_54_ + 1 y_78_ ^ 2 ] >= 4768.83
quadratic_ranged_364_lb: [ 1 x_62_ ^ 2 - 2 x_78_ * x_62_ + 1 x_78_ ^ 2 + 1 y_62_ ^ 2 - 2 y_78_ * y_62_ + 1 y_78_ ^ 2 ] >= 6063.75
quadratic_ranged_365_lb: [ 1 x_65_ ^ 2 - 2 x_78_ * x_65_ + 1 x_78_ ^ 2 + 1 y_65_ ^ 2 - 2 y_78_ * y_65_ + 1 y_78_ ^ 2 ] >= 8756.55
quadratic_ranged_366_lb: [ 1 x_71_ ^ 2 - 2 x_78_ * x_71_ + 1 x_78_ ^ 2 + 1 y_71_ ^ 2 - 2 y_78_ * y_71_ + 1 y_78_ ^ 2 ] >= 16779.51
quadratic_ranged_367_lb: [ 1 x_72_ ^ 2 - 2 x_78_ * x_72_ + 1 x_78_ ^ 2 + 1 y_72_ ^ 2 - 2 y_78_ * y_72_ + 1 y_78_ ^ 2 ] >= 6850.8
quadratic_ranged_368_lb: [ 1 x_77_ ^ 2 - 2 x_78_ * x_77_ + 1 x_78_ ^ 2 + 1 y_77_ ^ 2 - 2 y_78_ * y_77_ + 1 y_78_ ^ 2 ] >= 8729.82
quadratic_ranged_369_lb: [ 1 x_14_ ^ 2 - 2 x_79_ * x_14_ + 1 x_79_ ^ 2 + 1 y_14_ ^ 2 - 2 y_79_ * y_14_ + 1 y_79_ ^ 2 ] >= 1570.1399999999999
quadratic_ranged_370_lb: [ 1 x_24_ ^ 2 - 2 x_79_ * x_24_ + 1 x_79_ ^ 2 + 1 y_24_ ^ 2 - 2 y_79_ * y_24_ + 1 y_79_ ^ 2 ] >= 11484
quadratic_ranged_371_lb: [ 1 x_30_ ^ 2 - 2 x_79_ * x_30_ + 1 x_79_ ^ 2 + 1 y_30_ ^ 2 - 2 y_79_ * y_30_ + 1 y_79_ ^ 2 ] >= 4661.91
quadratic_ranged_372_lb: [ 1 x_54_ ^ 2 - 2 x_79_ * x_54_ + 1 x_79_ ^ 2 + 1 y_54_ ^ 2 - 2 y_79_ * y_54_ + 1 y_79_ ^ 2 ] >= 10621.71
quadratic_ranged_373_lb: [ 1 x_55_ ^ 2 - 2 x_79_ * x_55_ + 1 x_79_ ^ 2 + 1 y_55_ ^ 2 - 2 y_79_ * y_55_ + 1 y_79_ ^ 2 ] >= 1554.3
quadratic_ranged_374_lb: [ 1 x_56_ ^ 2 - 2 x_79_ * x_56_ + 1 x_79_ ^ 2 + 1 y_56_ ^ 2 - 2 y_79_ * y_56_ + 1 y_79_ ^ 2 ] >= 9656.46
quadratic_ranged_375_lb: [ 1 x_58_ ^ 2 - 2 x_79_ * x_58_ + 1 x_79_ ^ 2 + 1 y_58_ ^ 2 - 2 y_79_ * y_58_ + 1 y_79_ ^ 2 ] >= 13563
quadratic_ranged_376_lb: [ 1 x_70_ ^ 2 - 2 x_79_ * x_70_ + 1 x_79_ ^ 2 + 1 y_70_ ^ 2 - 2 y_79_ * y_70_ + 1 y_79_ ^ 2 ] >= 11533.5
quadratic_ranged_377_lb: [ 1 x_78_ ^ 2 - 2 x_79_ * x_78_ + 1 x_79_ ^ 2 + 1 y_78_ ^ 2 - 2 y_79_ * y_78_ + 1 y_79_ ^ 2 ] >= 6494.4
quadratic_ranged_378_lb: [ 1 x_10_ ^ 2 - 2 x_80_ * x_10_ + 1 x_80_ ^ 2 + 1 y_10_ ^ 2 - 2 y_80_ * y_10_ + 1 y_80_ ^ 2 ] >= 7607.16
quadratic_ranged_379_lb: [ 1 x_14_ ^ 2 - 2 x_80_ * x_14_ + 1 x_80_ ^ 2 + 1 y_14_ ^ 2 - 2 y_80_ * y_14_ + 1 y_80_ ^ 2 ] >= 13848.119999999999
quadratic_ranged_380_lb: [ 1 x_15_ ^ 2 - 2 x_80_ * x_15_ + 1 x_80_ ^ 2 + 1 y_15_ ^ 2 - 2 y_80_ * y_15_ + 1 y_80_ ^ 2 ] >= 10657.35
quadratic_ranged_381_lb: [ 1 x_19_ ^ 2 - 2 x_80_ * x_19_ + 1 x_80_ ^ 2 + 1 y_19_ ^ 2 - 2 y_80_ * y_19_ + 1 y_80_ ^ 2 ] >= 28133.82
quadratic_ranged_382_lb: [ 1 x_33_ ^ 2 - 2 x_80_ * x_33_ + 1 x_80_ ^ 2 + 1 y_33_ ^ 2 - 2 y_80_ * y_33_ + 1 y_80_ ^ 2 ] >= 30085.11
quadratic_ranged_383_lb: [ 1 x_46_ ^ 2 - 2 x_80_ * x_46_ + 1 x_80_ ^ 2 + 1 y_46_ ^ 2 - 2 y_80_ * y_46_ + 1 y_80_ ^ 2 ] >= 12874.95
quadratic_ranged_384_lb: [ 1 x_79_ ^ 2 - 2 x_80_ * x_79_ + 1 x_80_ ^ 2 + 1 y_79_ ^ 2 - 2 y_80_ * y_79_ + 1 y_80_ ^ 2 ] >= 6227.1
quadratic_ranged_385_lb: [ 1 x_44_ ^ 2 - 2 x_81_ * x_44_ + 1 x_81_ ^ 2 + 1 y_44_ ^ 2 - 2 y_81_ * y_44_ + 1 y_81_ ^ 2 ] >= 26600.31
quadratic_ranged_386_lb: [ 1 x_75_ ^ 2 - 2 x_81_ * x_75_ + 1 x_81_ ^ 2 + 1 y_75_ ^ 2 - 2 y_81_ * y_75_ + 1 y_81_ ^ 2 ] >= 12079.98
quadratic_ranged_387_lb: [ 1 x_80_ ^ 2 - 2 x_81_ * x_80_ + 1 x_81_ ^ 2 + 1 y_80_ ^ 2 - 2 y_81_ * y_80_ + 1 y_81_ ^ 2 ] >= 10600.92
quadratic_ranged_388_lb: [ 1 x_4_ ^ 2 - 2 x_82_ * x_4_ + 1 x_82_ ^ 2 + 1 y_4_ ^ 2 - 2 y_82_ * y_4_ + 1 y_82_ ^ 2 ] >= 18300.15
quadratic_ranged_389_lb: [ 1 x_9_ ^ 2 - 2 x_82_ * x_9_ + 1 x_82_ ^ 2 + 1 y_9_ ^ 2 - 2 y_82_ * y_9_ + 1 y_82_ ^ 2 ] >= 3731.31
quadratic_ranged_390_lb: [ 1 x_22_ ^ 2 - 2 x_82_ * x_22_ + 1 x_82_ ^ 2 + 1 y_22_ ^ 2 - 2 y_82_ * y_22_ + 1 y_82_ ^ 2 ] >= 22873.95
quadratic_ranged_391_lb: [ 1 x_26_ ^ 2 - 2 x_82_ * x_26_ + 1 x_82_ ^ 2 + 1 y_26_ ^ 2 - 2 y_82_ * y_26_ + 1 y_82_ ^ 2 ] >= 5996.43
quadratic_ranged_392_lb: [ 1 x_33_ ^ 2 - 2 x_82_ * x_33_ + 1 x_82_ ^ 2 + 1 y_33_ ^ 2 - 2 y_82_ * y_33_ + 1 y_82_ ^ 2 ] >= 1652.31
quadratic_ranged_393_lb: [ 1 x_34_ ^ 2 - 2 x_82_ * x_34_ + 1 x_82_ ^ 2 + 1 y_34_ ^ 2 - 2 y_82_ * y_34_ + 1 y_82_ ^ 2 ] >= 9900.99
quadratic_ranged_394_lb: [ 1 x_54_ ^ 2 - 2 x_82_ * x_54_ + 1 x_82_ ^ 2 + 1 y_54_ ^ 2 - 2 y_82_ * y_54_ + 1 y_82_ ^ 2 ] >= 28148.67
quadratic_ranged_395_lb: [ 1 x_55_ ^ 2 - 2 x_82_ * x_55_ + 1 x_82_ ^ 2 + 1 y_55_ ^ 2 - 2 y_82_ * y_55_ + 1 y_82_ ^ 2 ] >= 2053.2599999999998
quadratic_ranged_396_lb: [ 1 x_60_ ^ 2 - 2 x_82_ * x_60_ + 1 x_82_ ^ 2 + 1 y_60_ ^ 2 - 2 y_82_ * y_60_ + 1 y_82_ ^ 2 ] >= 24929.19
quadratic_ranged_397_lb: [ 1 x_68_ ^ 2 - 2 x_82_ * x_68_ + 1 x_82_ ^ 2 + 1 y_68_ ^ 2 - 2 y_82_ * y_68_ + 1 y_82_ ^ 2 ] >= 26650.8
quadratic_ranged_398_lb: [ 1 x_73_ ^ 2 - 2 x_82_ * x_73_ + 1 x_82_ ^ 2 + 1 y_73_ ^ 2 - 2 y_82_ * y_73_ + 1 y_82_ ^ 2 ] >= 7857.63
quadratic_ranged_399_lb: [ 1 x_81_ ^ 2 - 2 x_82_ * x_81_ + 1 x_82_ ^ 2 + 1 y_81_ ^ 2 - 2 y_82_ * y_81_ + 1 y_82_ ^ 2 ] >= 2583.9
quadratic_ranged_400_lb: [ 1 x_22_ ^ 2 - 2 x_83_ * x_22_ + 1 x_83_ ^ 2 + 1 y_22_ ^ 2 - 2 y_83_ * y_22_ + 1 y_83_ ^ 2 ] >= 2344.32
quadratic_ranged_401_lb: [ 1 x_29_ ^ 2 - 2 x_83_ * x_29_ + 1 x_83_ ^ 2 + 1 y_29_ ^ 2 - 2 y_83_ * y_29_ + 1 y_83_ ^ 2 ] >= 15881.58
quadratic_ranged_402_lb: [ 1 x_34_ ^ 2 - 2 x_83_ * x_34_ + 1 x_83_ ^ 2 + 1 y_34_ ^ 2 - 2 y_83_ * y_34_ + 1 y_83_ ^ 2 ] >= 17804.16
quadratic_ranged_403_lb: [ 1 x_40_ ^ 2 - 2 x_83_ * x_40_ + 1 x_83_ ^ 2 + 1 y_40_ ^ 2 - 2 y_83_ * y_40_ + 1 y_83_ ^ 2 ] >= 6665.67
quadratic_ranged_404_lb: [ 1 x_54_ ^ 2 - 2 x_83_ * x_54_ + 1 x_83_ ^ 2 + 1 y_54_ ^ 2 - 2 y_83_ * y_54_ + 1 y_83_ ^ 2 ] >= 4967.82
quadratic_ranged_405_lb: [ 1 x_59_ ^ 2 - 2 x_83_ * x_59_ + 1 x_83_ ^ 2 + 1 y_59_ ^ 2 - 2 y_83_ * y_59_ + 1 y_83_ ^ 2 ] >= 30738.51
quadratic_ranged_406_lb: [ 1 x_62_ ^ 2 - 2 x_83_ * x_62_ + 1 x_83_ ^ 2 + 1 y_62_ ^ 2 - 2 y_83_ * y_62_ + 1 y_83_ ^ 2 ] >= 10583.1
quadratic_ranged_407_lb: [ 1 x_69_ ^ 2 - 2 x_83_ * x_69_ + 1 x_83_ ^ 2 + 1 y_69_ ^ 2 - 2 y_83_ * y_69_ + 1 y_83_ ^ 2 ] >= 13600.619999999999
quadratic_ranged_408_lb: [ 1 x_79_ ^ 2 - 2 x_83_ * x_79_ + 1 x_83_ ^ 2 + 1 y_79_ ^ 2 - 2 y_83_ * y_79_ + 1 y_83_ ^ 2 ] >= 14617.35
quadratic_ranged_409_lb: [ 1 x_80_ ^ 2 - 2 x_83_ * x_80_ + 1 x_83_ ^ 2 + 1 y_80_ ^ 2 - 2 y_83_ * y_80_ + 1 y_83_ ^ 2 ] >= 5568.75
quadratic_ranged_410_lb: [ 1 x_82_ ^ 2 - 2 x_83_ * x_82_ + 1 x_83_ ^ 2 + 1 y_82_ ^ 2 - 2 y_83_ * y_82_ + 1 y_83_ ^ 2 ] >= 35878.59
quadratic_ranged_411_lb: [ 1 x_4_ ^ 2 - 2 x_84_ * x_4_ + 1 x_84_ ^ 2 + 1 y_4_ ^ 2 - 2 y_84_ * y_4_ + 1 y_84_ ^ 2 ] >= 5244.03
quadratic_ranged_412_lb: [ 1 x_6_ ^ 2 - 2 x_84_ * x_6_ + 1 x_84_ ^ 2 + 1 y_6_ ^ 2 - 2 y_84_ * y_6_ + 1 y_84_ ^ 2 ] >= 13346.19
quadratic_ranged_413_lb: [ 1 x_7_ ^ 2 - 2 x_84_ * x_7_ + 1 x_84_ ^ 2 + 1 y_7_ ^ 2 - 2 y_84_ * y_7_ + 1 y_84_ ^ 2 ] >= 19666.35
quadratic_ranged_414_lb: [ 1 x_10_ ^ 2 - 2 x_84_ * x_10_ + 1 x_84_ ^ 2 + 1 y_10_ ^ 2 - 2 y_84_ * y_10_ + 1 y_84_ ^ 2 ] >= 8999.1
quadratic_ranged_415_lb: [ 1 x_36_ ^ 2 - 2 x_84_ * x_36_ + 1 x_84_ ^ 2 + 1 y_36_ ^ 2 - 2 y_84_ * y_36_ + 1 y_84_ ^ 2 ] >= 22088.88
quadratic_ranged_416_lb: [ 1 x_43_ ^ 2 - 2 x_84_ * x_43_ + 1 x_84_ ^ 2 + 1 y_43_ ^ 2 - 2 y_84_ * y_43_ + 1 y_84_ ^ 2 ] >= 19032.75
quadratic_ranged_417_lb: [ 1 x_61_ ^ 2 - 2 x_84_ * x_61_ + 1 x_84_ ^ 2 + 1 y_61_ ^ 2 - 2 y_84_ * y_61_ + 1 y_84_ ^ 2 ] >= 17599.23
quadratic_ranged_418_lb: [ 1 x_67_ ^ 2 - 2 x_84_ * x_67_ + 1 x_84_ ^ 2 + 1 y_67_ ^ 2 - 2 y_84_ * y_67_ + 1 y_84_ ^ 2 ] >= 18701.1
quadratic_ranged_419_lb: [ 1 x_75_ ^ 2 - 2 x_84_ * x_75_ + 1 x_84_ ^ 2 + 1 y_75_ ^ 2 - 2 y_84_ * y_75_ + 1 y_84_ ^ 2 ] >= 2280.96
quadratic_ranged_420_lb: [ 1 x_77_ ^ 2 - 2 x_84_ * x_77_ + 1 x_84_ ^ 2 + 1 y_77_ ^ 2 - 2 y_84_ * y_77_ + 1 y_84_ ^ 2 ] >= 9719.82
quadratic_ranged_421_lb: [ 1 x_83_ ^ 2 - 2 x_84_ * x_83_ + 1 x_84_ ^ 2 + 1 y_83_ ^ 2 - 2 y_84_ * y_83_ + 1 y_84_ ^ 2 ] >= 2531.43
quadratic_ranged_422_lb: [ 1 x_2_ ^ 2 - 2 x_85_ * x_2_ + 1 x_85_ ^ 2 + 1 y_2_ ^ 2 - 2 y_85_ * y_2_ + 1 y_85_ ^ 2 ] >= 61523.55
quadratic_ranged_423_lb: [ 1 x_7_ ^ 2 - 2 x_85_ * x_7_ + 1 x_85_ ^ 2 + 1 y_7_ ^ 2 - 2 y_85_ * y_7_ + 1 y_85_ ^ 2 ] >= 10969.2
quadratic_ranged_424_lb: [ 1 x_17_ ^ 2 - 2 x_85_ * x_17_ + 1 x_85_ ^ 2 + 1 y_17_ ^ 2 - 2 y_85_ * y_17_ + 1 y_85_ ^ 2 ] >= 1158.3
quadratic_ranged_425_lb: [ 1 x_23_ ^ 2 - 2 x_85_ * x_23_ + 1 x_85_ ^ 2 + 1 y_23_ ^ 2 - 2 y_85_ * y_23_ + 1 y_85_ ^ 2 ] >= 32469.03
quadratic_ranged_426_lb: [ 1 x_41_ ^ 2 - 2 x_85_ * x_41_ + 1 x_85_ ^ 2 + 1 y_41_ ^ 2 - 2 y_85_ * y_41_ + 1 y_85_ ^ 2 ] >= 34424.28
quadratic_ranged_427_lb: [ 1 x_44_ ^ 2 - 2 x_85_ * x_44_ + 1 x_85_ ^ 2 + 1 y_44_ ^ 2 - 2 y_85_ * y_44_ + 1 y_85_ ^ 2 ] >= 9102.06
quadratic_ranged_428_lb: [ 1 x_45_ ^ 2 - 2 x_85_ * x_45_ + 1 x_85_ ^ 2 + 1 y_45_ ^ 2 - 2 y_85_ * y_45_ + 1 y_85_ ^ 2 ] >= 6005.34
quadratic_ranged_429_lb: [ 1 x_61_ ^ 2 - 2 x_85_ * x_61_ + 1 x_85_ ^ 2 + 1 y_61_ ^ 2 - 2 y_85_ * y_61_ + 1 y_85_ ^ 2 ] >= 9767.34
quadratic_ranged_430_lb: [ 1 x_62_ ^ 2 - 2 x_85_ * x_62_ + 1 x_85_ ^ 2 + 1 y_62_ ^ 2 - 2 y_85_ * y_62_ + 1 y_85_ ^ 2 ] >= 9458.46
quadratic_ranged_431_lb: [ 1 x_65_ ^ 2 - 2 x_85_ * x_65_ + 1 x_85_ ^ 2 + 1 y_65_ ^ 2 - 2 y_85_ * y_65_ + 1 y_85_ ^ 2 ] >= 24221.34
quadratic_ranged_432_lb: [ 1 x_77_ ^ 2 - 2 x_85_ * x_77_ + 1 x_85_ ^ 2 + 1 y_77_ ^ 2 - 2 y_85_ * y_77_ + 1 y_85_ ^ 2 ] >= 24002.55
quadratic_ranged_433_lb: [ 1 x_79_ ^ 2 - 2 x_85_ * x_79_ + 1 x_85_ ^ 2 + 1 y_79_ ^ 2 - 2 y_85_ * y_79_ + 1 y_85_ ^ 2 ] >= 20430.63
quadratic_ranged_434_lb: [ 1 x_82_ ^ 2 - 2 x_85_ * x_82_ + 1 x_85_ ^ 2 + 1 y_82_ ^ 2 - 2 y_85_ * y_82_ + 1 y_85_ ^ 2 ] >= 43782.75
quadratic_ranged_435_lb: [ 1 x_84_ ^ 2 - 2 x_85_ * x_84_ + 1 x_85_ ^ 2 + 1 y_84_ ^ 2 - 2 y_85_ * y_84_ + 1 y_85_ ^ 2 ] >= 6855.75
quadratic_ranged_436_lb: [ 1 x_2_ ^ 2 - 2 x_86_ * x_2_ + 1 x_86_ ^ 2 + 1 y_2_ ^ 2 - 2 y_86_ * y_2_ + 1 y_86_ ^ 2 ] >= 40618.71
quadratic_ranged_437_lb: [ 1 x_16_ ^ 2 - 2 x_86_ * x_16_ + 1 x_86_ ^ 2 + 1 y_16_ ^ 2 - 2 y_86_ * y_16_ + 1 y_86_ ^ 2 ] >= 15639.03
quadratic_ranged_438_lb: [ 1 x_33_ ^ 2 - 2 x_86_ * x_33_ + 1 x_86_ ^ 2 + 1 y_33_ ^ 2 - 2 y_86_ * y_33_ + 1 y_86_ ^ 2 ] >= 29703.96
quadratic_ranged_439_lb: [ 1 x_42_ ^ 2 - 2 x_86_ * x_42_ + 1 x_86_ ^ 2 + 1 y_42_ ^ 2 - 2 y_86_ * y_42_ + 1 y_86_ ^ 2 ] >= 14735.16
quadratic_ranged_440_lb: [ 1 x_69_ ^ 2 - 2 x_86_ * x_69_ + 1 x_86_ ^ 2 + 1 y_69_ ^ 2 - 2 y_86_ * y_69_ + 1 y_86_ ^ 2 ] >= 2740.32
quadratic_ranged_441_lb: [ 1 x_78_ ^ 2 - 2 x_86_ * x_78_ + 1 x_86_ ^ 2 + 1 y_78_ ^ 2 - 2 y_86_ * y_78_ + 1 y_86_ ^ 2 ] >= 2677.95
quadratic_ranged_442_lb: [ 1 x_85_ ^ 2 - 2 x_86_ * x_85_ + 1 x_86_ ^ 2 + 1 y_85_ ^ 2 - 2 y_86_ * y_85_ + 1 y_86_ ^ 2 ] >= 3502.62
quadratic_ranged_443_lb: [ 1 x_1_ ^ 2 - 2 x_87_ * x_1_ + 1 x_87_ ^ 2 + 1 y_1_ ^ 2 - 2 y_87_ * y_1_ + 1 y_87_ ^ 2 ] >= 18025.92
quadratic_ranged_444_lb: [ 1 x_22_ ^ 2 - 2 x_87_ * x_22_ + 1 x_87_ ^ 2 + 1 y_22_ ^ 2 - 2 y_87_ * y_22_ + 1 y_87_ ^ 2 ] >= 8499.15
quadratic_ranged_445_lb: [ 1 x_23_ ^ 2 - 2 x_87_ * x_23_ + 1 x_87_ ^ 2 + 1 y_23_ ^ 2 - 2 y_87_ * y_23_ + 1 y_87_ ^ 2 ] >= 28329.84
quadratic_ranged_446_lb: [ 1 x_33_ ^ 2 - 2 x_87_ * x_33_ + 1 x_87_ ^ 2 + 1 y_33_ ^ 2 - 2 y_87_ * y_33_ + 1 y_87_ ^ 2 ] >= 23551.11
quadratic_ranged_447_lb: [ 1 x_50_ ^ 2 - 2 x_87_ * x_50_ + 1 x_87_ ^ 2 + 1 y_50_ ^ 2 - 2 y_87_ * y_50_ + 1 y_87_ ^ 2 ] >= 4994.55
quadratic_ranged_448_lb: [ 1 x_53_ ^ 2 - 2 x_87_ * x_53_ + 1 x_87_ ^ 2 + 1 y_53_ ^ 2 - 2 y_87_ * y_53_ + 1 y_87_ ^ 2 ] >= 19770.3
quadratic_ranged_449_lb: [ 1 x_57_ ^ 2 - 2 x_87_ * x_57_ + 1 x_87_ ^ 2 + 1 y_57_ ^ 2 - 2 y_87_ * y_57_ + 1 y_87_ ^ 2 ] >= 12874.95
quadratic_ranged_450_lb: [ 1 x_67_ ^ 2 - 2 x_87_ * x_67_ + 1 x_87_ ^ 2 + 1 y_67_ ^ 2 - 2 y_87_ * y_67_ + 1 y_87_ ^ 2 ] >= 19966.32
quadratic_ranged_451_lb: [ 1 x_73_ ^ 2 - 2 x_87_ * x_73_ + 1 x_87_ ^ 2 + 1 y_73_ ^ 2 - 2 y_87_ * y_73_ + 1 y_87_ ^ 2 ] >= 4768.83
quadratic_ranged_452_lb: [ 1 x_82_ ^ 2 - 2 x_87_ * x_82_ + 1 x_87_ ^ 2 + 1 y_82_ ^ 2 - 2 y_87_ * y_82_ + 1 y_87_ ^ 2 ] >= 22819.5
quadratic_ranged_453_lb: [ 1 x_84_ ^ 2 - 2 x_87_ * x_84_ + 1 x_87_ ^ 2 + 1 y_84_ ^ 2 - 2 y_87_ * y_84_ + 1 y_87_ ^ 2 ] >= 13489.74
quadratic_ranged_454_lb: [ 1 x_86_ ^ 2 - 2 x_87_ * x_86_ + 1 x_87_ ^ 2 + 1 y_86_ ^ 2 - 2 y_87_ * y_86_ + 1 y_87_ ^ 2 ] >= 456.39
quadratic_ranged_455_lb: [ 1 x_9_ ^ 2 - 2 x_88_ * x_9_ + 1 x_88_ ^ 2 + 1 y_9_ ^ 2 - 2 y_88_ * y_9_ + 1 y_88_ ^ 2 ] >= 21922.56
quadratic_ranged_456_lb: [ 1 x_30_ ^ 2 - 2 x_88_ * x_30_ + 1 x_88_ ^ 2 + 1 y_30_ ^ 2 - 2 y_88_ * y_30_ + 1 y_88_ ^ 2 ] >= 2433.42
quadratic_ranged_457_lb: [ 1 x_40_ ^ 2 - 2 x_88_ * x_40_ + 1 x_88_ ^ 2 + 1 y_40_ ^ 2 - 2 y_88_ * y_40_ + 1 y_88_ ^ 2 ] >= 29047.59
quadratic_ranged_458_lb: [ 1 x_62_ ^ 2 - 2 x_88_ * x_62_ + 1 x_88_ ^ 2 + 1 y_62_ ^ 2 - 2 y_88_ * y_62_ + 1 y_88_ ^ 2 ] >= 3140.2799999999997
quadratic_ranged_459_lb: [ 1 x_83_ ^ 2 - 2 x_88_ * x_83_ + 1 x_88_ ^ 2 + 1 y_83_ ^ 2 - 2 y_88_ * y_83_ + 1 y_88_ ^ 2 ] >= 24451.02
quadratic_ranged_460_lb: [ 1 x_84_ ^ 2 - 2 x_88_ * x_84_ + 1 x_88_ ^ 2 + 1 y_84_ ^ 2 - 2 y_88_ * y_84_ + 1 y_88_ ^ 2 ] >= 32872.95
quadratic_ranged_461_lb: [ 1 x_87_ ^ 2 - 2 x_88_ * x_87_ + 1 x_88_ ^ 2 + 1 y_87_ ^ 2 - 2 y_88_ * y_87_ + 1 y_88_ ^ 2 ] >= 5418.2699999999995
quadratic_ranged_462_lb: [ 1 x_18_ ^ 2 - 2 x_89_ * x_18_ + 1 x_89_ ^ 2 + 1 y_18_ ^ 2 - 2 y_89_ * y_18_ + 1 y_89_ ^ 2 ] >= 128.7
quadratic_ranged_463_lb: [ 1 x_19_ ^ 2 - 2 x_89_ * x_19_ + 1 x_89_ ^ 2 + 1 y_19_ ^ 2 - 2 y_89_ * y_19_ + 1 y_89_ ^ 2 ] >= 9587.16
quadratic_ranged_464_lb: [ 1 x_29_ ^ 2 - 2 x_89_ * x_29_ + 1 x_89_ ^ 2 + 1 y_29_ ^ 2 - 2 y_89_ * y_29_ + 1 y_89_ ^ 2 ] >= 1680.03
quadratic_ranged_465_lb: [ 1 x_37_ ^ 2 - 2 x_89_ * x_37_ + 1 x_89_ ^ 2 + 1 y_37_ ^ 2 - 2 y_89_ * y_37_ + 1 y_89_ ^ 2 ] >= 5600.43
quadratic_ranged_466_lb: [ 1 x_39_ ^ 2 - 2 x_89_ * x_39_ + 1 x_89_ ^ 2 + 1 y_39_ ^ 2 - 2 y_89_ * y_39_ + 1 y_89_ ^ 2 ] >= 1699.83
quadratic_ranged_467_lb: [ 1 x_42_ ^ 2 - 2 x_89_ * x_42_ + 1 x_89_ ^ 2 + 1 y_42_ ^ 2 - 2 y_89_ * y_42_ + 1 y_89_ ^ 2 ] >= 7548.75
quadratic_ranged_468_lb: [ 1 x_43_ ^ 2 - 2 x_89_ * x_43_ + 1 x_89_ ^ 2 + 1 y_43_ ^ 2 - 2 y_89_ * y_43_ + 1 y_89_ ^ 2 ] >= 64.35
quadratic_ranged_469_lb: [ 1 x_50_ ^ 2 - 2 x_89_ * x_50_ + 1 x_89_ ^ 2 + 1 y_50_ ^ 2 - 2 y_89_ * y_50_ + 1 y_89_ ^ 2 ] >= 2531.43
quadratic_ranged_470_lb: [ 1 x_66_ ^ 2 - 2 x_89_ * x_66_ + 1 x_89_ ^ 2 + 1 y_66_ ^ 2 - 2 y_89_ * y_66_ + 1 y_89_ ^ 2 ] >= 3573.9
quadratic_ranged_471_lb: [ 1 x_79_ ^ 2 - 2 x_89_ * x_79_ + 1 x_89_ ^ 2 + 1 y_79_ ^ 2 - 2 y_89_ * y_79_ + 1 y_89_ ^ 2 ] >= 6312.24
quadratic_ranged_472_lb: [ 1 x_88_ ^ 2 - 2 x_89_ * x_88_ + 1 x_89_ ^ 2 + 1 y_88_ ^ 2 - 2 y_89_ * y_88_ + 1 y_89_ ^ 2 ] >= 2642.31
quadratic_ranged_473_lb: [ 1 x_26_ ^ 2 - 2 x_90_ * x_26_ + 1 x_90_ ^ 2 + 1 y_26_ ^ 2 - 2 y_90_ * y_26_ + 1 y_90_ ^ 2 ] >= 16937.91
quadratic_ranged_474_lb: [ 1 x_30_ ^ 2 - 2 x_90_ * x_30_ + 1 x_90_ ^ 2 + 1 y_30_ ^ 2 - 2 y_90_ * y_30_ + 1 y_90_ ^ 2 ] >= 1984.95
quadratic_ranged_475_lb: [ 1 x_44_ ^ 2 - 2 x_90_ * x_44_ + 1 x_90_ ^ 2 + 1 y_44_ ^ 2 - 2 y_90_ * y_44_ + 1 y_90_ ^ 2 ] >= 5810.31
quadratic_ranged_476_lb: [ 1 x_53_ ^ 2 - 2 x_90_ * x_53_ + 1 x_90_ ^ 2 + 1 y_53_ ^ 2 - 2 y_90_ * y_53_ + 1 y_90_ ^ 2 ] >= 8082.36
quadratic_ranged_477_lb: [ 1 x_68_ ^ 2 - 2 x_90_ * x_68_ + 1 x_90_ ^ 2 + 1 y_68_ ^ 2 - 2 y_90_ * y_68_ + 1 y_90_ ^ 2 ] >= 22290.84
quadratic_ranged_478_lb: [ 1 x_75_ ^ 2 - 2 x_90_ * x_75_ + 1 x_90_ ^ 2 + 1 y_75_ ^ 2 - 2 y_90_ * y_75_ + 1 y_90_ ^ 2 ] >= 38827.8
quadratic_ranged_479_lb: [ 1 x_81_ ^ 2 - 2 x_90_ * x_81_ + 1 x_90_ ^ 2 + 1 y_81_ ^ 2 - 2 y_90_ * y_81_ + 1 y_90_ ^ 2 ] >= 21045.42
quadratic_ranged_480_lb: [ 1 x_89_ ^ 2 - 2 x_90_ * x_89_ + 1 x_90_ ^ 2 + 1 y_89_ ^ 2 - 2 y_90_ * y_89_ + 1 y_90_ ^ 2 ] >= 3366
quadratic_ranged_481_lb: [ 1 x_24_ ^ 2 - 2 x_91_ * x_24_ + 1 x_91_ ^ 2 + 1 y_24_ ^ 2 - 2 y_91_ * y_24_ + 1 y_91_ ^ 2 ] >= 15444.99
quadratic_ranged_482_lb: [ 1 x_38_ ^ 2 - 2 x_91_ * x_38_ + 1 x_91_ ^ 2 + 1 y_38_ ^ 2 - 2 y_91_ * y_38_ + 1 y_91_ ^ 2 ] >= 28591.2
quadratic_ranged_483_lb: [ 1 x_39_ ^ 2 - 2 x_91_ * x_39_ + 1 x_91_ ^ 2 + 1 y_39_ ^ 2 - 2 y_91_ * y_39_ + 1 y_91_ ^ 2 ] >= 11335.5
quadratic_ranged_484_lb: [ 1 x_41_ ^ 2 - 2 x_91_ * x_41_ + 1 x_91_ ^ 2 + 1 y_41_ ^ 2 - 2 y_91_ * y_41_ + 1 y_91_ ^ 2 ] >= 1245.42
quadratic_ranged_485_lb: [ 1 x_47_ ^ 2 - 2 x_91_ * x_47_ + 1 x_91_ ^ 2 + 1 y_47_ ^ 2 - 2 y_91_ * y_47_ + 1 y_91_ ^ 2 ] >= 26872.56
quadratic_ranged_486_lb: [ 1 x_56_ ^ 2 - 2 x_91_ * x_56_ + 1 x_91_ ^ 2 + 1 y_56_ ^ 2 - 2 y_91_ * y_56_ + 1 y_91_ ^ 2 ] >= 21040.47
quadratic_ranged_487_lb: [ 1 x_57_ ^ 2 - 2 x_91_ * x_57_ + 1 x_91_ ^ 2 + 1 y_57_ ^ 2 - 2 y_91_ * y_57_ + 1 y_91_ ^ 2 ] >= 8555.58
quadratic_ranged_488_lb: [ 1 x_81_ ^ 2 - 2 x_91_ * x_81_ + 1 x_91_ ^ 2 + 1 y_81_ ^ 2 - 2 y_91_ * y_81_ + 1 y_91_ ^ 2 ] >= 393.03
quadratic_ranged_489_lb: [ 1 x_90_ ^ 2 - 2 x_91_ * x_90_ + 1 x_91_ ^ 2 + 1 y_90_ ^ 2 - 2 y_91_ * y_90_ + 1 y_91_ ^ 2 ] >= 16775.55
quadratic_ranged_490_lb: [ 1 x_7_ ^ 2 - 2 x_92_ * x_7_ + 1 x_92_ ^ 2 + 1 y_7_ ^ 2 - 2 y_92_ * y_7_ + 1 y_92_ ^ 2 ] >= 21441.42
quadratic_ranged_491_lb: [ 1 x_8_ ^ 2 - 2 x_92_ * x_8_ + 1 x_92_ ^ 2 + 1 y_8_ ^ 2 - 2 y_92_ * y_8_ + 1 y_92_ ^ 2 ] >= 13060.08
quadratic_ranged_492_lb: [ 1 x_10_ ^ 2 - 2 x_92_ * x_10_ + 1 x_92_ ^ 2 + 1 y_10_ ^ 2 - 2 y_92_ * y_10_ + 1 y_92_ ^ 2 ] >= 9948.51
quadratic_ranged_493_lb: [ 1 x_11_ ^ 2 - 2 x_92_ * x_11_ + 1 x_92_ ^ 2 + 1 y_11_ ^ 2 - 2 y_92_ * y_11_ + 1 y_92_ ^ 2 ] >= 2692.8
quadratic_ranged_494_lb: [ 1 x_12_ ^ 2 - 2 x_92_ * x_12_ + 1 x_92_ ^ 2 + 1 y_12_ ^ 2 - 2 y_92_ * y_12_ + 1 y_92_ ^ 2 ] >= 36164.7
quadratic_ranged_495_lb: [ 1 x_23_ ^ 2 - 2 x_92_ * x_23_ + 1 x_92_ ^ 2 + 1 y_23_ ^ 2 - 2 y_92_ * y_23_ + 1 y_92_ ^ 2 ] >= 9734.67
quadratic_ranged_496_lb: [ 1 x_24_ ^ 2 - 2 x_92_ * x_24_ + 1 x_92_ ^ 2 + 1 y_24_ ^ 2 - 2 y_92_ * y_24_ + 1 y_92_ ^ 2 ] >= 4198.59
quadratic_ranged_497_lb: [ 1 x_64_ ^ 2 - 2 x_92_ * x_64_ + 1 x_92_ ^ 2 + 1 y_64_ ^ 2 - 2 y_92_ * y_64_ + 1 y_92_ ^ 2 ] >= 16823.07
quadratic_ranged_498_lb: [ 1 x_73_ ^ 2 - 2 x_92_ * x_73_ + 1 x_92_ ^ 2 + 1 y_73_ ^ 2 - 2 y_92_ * y_73_ + 1 y_92_ ^ 2 ] >= 21720.6
quadratic_ranged_499_lb: [ 1 x_75_ ^ 2 - 2 x_92_ * x_75_ + 1 x_92_ ^ 2 + 1 y_75_ ^ 2 - 2 y_92_ * y_75_ + 1 y_92_ ^ 2 ] >= 1359.27
quadratic_ranged_500_lb: [ 1 x_91_ ^ 2 - 2 x_92_ * x_91_ + 1 x_92_ ^ 2 + 1 y_91_ ^ 2 - 2 y_92_ * y_91_ + 1 y_92_ ^ 2 ] >= 20592
quadratic_ranged_501_lb: [ 1 x_3_ ^ 2 - 2 x_93_ * x_3_ + 1 x_93_ ^ 2 + 1 y_3_ ^ 2 - 2 y_93_ * y_3_ + 1 y_93_ ^ 2 ] >= 863.28
quadratic_ranged_502_lb: [ 1 x_13_ ^ 2 - 2 x_93_ * x_13_ + 1 x_93_ ^ 2 + 1 y_13_ ^ 2 - 2 y_93_ * y_13_ + 1 y_93_ ^ 2 ] >= 18701.1
quadratic_ranged_503_lb: [ 1 x_14_ ^ 2 - 2 x_93_ * x_14_ + 1 x_93_ ^ 2 + 1 y_14_ ^ 2 - 2 y_93_ * y_14_ + 1 y_93_ ^ 2 ] >= 16259.76
quadratic_ranged_504_lb: [ 1 x_59_ ^ 2 - 2 x_93_ * x_59_ + 1 x_93_ ^ 2 + 1 y_59_ ^ 2 - 2 y_93_ * y_59_ + 1 y_93_ ^ 2 ] >= 16087.5
quadratic_ranged_505_lb: [ 1 x_74_ ^ 2 - 2 x_93_ * x_74_ + 1 x_93_ ^ 2 + 1 y_74_ ^ 2 - 2 y_93_ * y_74_ + 1 y_93_ ^ 2 ] >= 7631.91
quadratic_ranged_506_lb: [ 1 x_92_ ^ 2 - 2 x_93_ * x_92_ + 1 x_93_ ^ 2 + 1 y_92_ ^ 2 - 2 y_93_ * y_92_ + 1 y_93_ ^ 2 ] >= 10958.31
quadratic_ranged_507_lb: [ 1 x_6_ ^ 2 - 2 x_94_ * x_6_ + 1 x_94_ ^ 2 + 1 y_6_ ^ 2 - 2 y_94_ * y_6_ + 1 y_94_ ^ 2 ] >= 420.75
quadratic_ranged_508_lb: [ 1 x_9_ ^ 2 - 2 x_94_ * x_9_ + 1 x_94_ ^ 2 + 1 y_9_ ^ 2 - 2 y_94_ * y_9_ + 1 y_94_ ^ 2 ] >= 10752.39
quadratic_ranged_509_lb: [ 1 x_12_ ^ 2 - 2 x_94_ * x_12_ + 1 x_94_ ^ 2 + 1 y_12_ ^ 2 - 2 y_94_ * y_12_ + 1 y_94_ ^ 2 ] >= 9944.55
quadratic_ranged_510_lb: [ 1 x_15_ ^ 2 - 2 x_94_ * x_15_ + 1 x_94_ ^ 2 + 1 y_15_ ^ 2 - 2 y_94_ * y_15_ + 1 y_94_ ^ 2 ] >= 7152.75
quadratic_ranged_511_lb: [ 1 x_23_ ^ 2 - 2 x_94_ * x_23_ + 1 x_94_ ^ 2 + 1 y_23_ ^ 2 - 2 y_94_ * y_23_ + 1 y_94_ ^ 2 ] >= 23221.44
quadratic_ranged_512_lb: [ 1 x_28_ ^ 2 - 2 x_94_ * x_28_ + 1 x_94_ ^ 2 + 1 y_28_ ^ 2 - 2 y_94_ * y_28_ + 1 y_94_ ^ 2 ] >= 4017.42
quadratic_ranged_513_lb: [ 1 x_30_ ^ 2 - 2 x_94_ * x_30_ + 1 x_94_ ^ 2 + 1 y_30_ ^ 2 - 2 y_94_ * y_30_ + 1 y_94_ ^ 2 ] >= 218.79
quadratic_ranged_514_lb: [ 1 x_43_ ^ 2 - 2 x_94_ * x_43_ + 1 x_94_ ^ 2 + 1 y_43_ ^ 2 - 2 y_94_ * y_43_ + 1 y_94_ ^ 2 ] >= 195.03
quadratic_ranged_515_lb: [ 1 x_44_ ^ 2 - 2 x_94_ * x_44_ + 1 x_94_ ^ 2 + 1 y_44_ ^ 2 - 2 y_94_ * y_44_ + 1 y_94_ ^ 2 ] >= 2796.75
quadratic_ranged_516_lb: [ 1 x_56_ ^ 2 - 2 x_94_ * x_56_ + 1 x_94_ ^ 2 + 1 y_56_ ^ 2 - 2 y_94_ * y_56_ + 1 y_94_ ^ 2 ] >= 5199.48
quadratic_ranged_517_lb: [ 1 x_78_ ^ 2 - 2 x_94_ * x_78_ + 1 x_94_ ^ 2 + 1 y_78_ ^ 2 - 2 y_94_ * y_78_ + 1 y_94_ ^ 2 ] >= 6543.9
quadratic_ranged_518_lb: [ 1 x_93_ ^ 2 - 2 x_94_ * x_93_ + 1 x_94_ ^ 2 + 1 y_93_ ^ 2 - 2 y_94_ * y_93_ + 1 y_94_ ^ 2 ] >= 4106.5199999999995
quadratic_ranged_519_lb: [ 1 x_6_ ^ 2 - 2 x_95_ * x_6_ + 1 x_95_ ^ 2 + 1 y_6_ ^ 2 - 2 y_95_ * y_6_ + 1 y_95_ ^ 2 ] >= 4863.87
quadratic_ranged_520_lb: [ 1 x_14_ ^ 2 - 2 x_95_ * x_14_ + 1 x_95_ ^ 2 + 1 y_14_ ^ 2 - 2 y_95_ * y_14_ + 1 y_95_ ^ 2 ] >= 14994.539999999999
quadratic_ranged_521_lb: [ 1 x_26_ ^ 2 - 2 x_95_ * x_26_ + 1 x_95_ ^ 2 + 1 y_26_ ^ 2 - 2 y_95_ * y_26_ + 1 y_95_ ^ 2 ] >= 7414.11
quadratic_ranged_522_lb: [ 1 x_28_ ^ 2 - 2 x_95_ * x_28_ + 1 x_95_ ^ 2 + 1 y_28_ ^ 2 - 2 y_95_ * y_28_ + 1 y_95_ ^ 2 ] >= 20453.4
quadratic_ranged_523_lb: [ 1 x_36_ ^ 2 - 2 x_95_ * x_36_ + 1 x_95_ ^ 2 + 1 y_36_ ^ 2 - 2 y_95_ * y_36_ + 1 y_95_ ^ 2 ] >= 9238.68
quadratic_ranged_524_lb: [ 1 x_38_ ^ 2 - 2 x_95_ * x_38_ + 1 x_95_ ^ 2 + 1 y_38_ ^ 2 - 2 y_95_ * y_38_ + 1 y_95_ ^ 2 ] >= 1541.43
quadratic_ranged_525_lb: [ 1 x_51_ ^ 2 - 2 x_95_ * x_51_ + 1 x_95_ ^ 2 + 1 y_51_ ^ 2 - 2 y_95_ * y_51_ + 1 y_95_ ^ 2 ] >= 18224.91
quadratic_ranged_526_lb: [ 1 x_53_ ^ 2 - 2 x_95_ * x_53_ + 1 x_95_ ^ 2 + 1 y_53_ ^ 2 - 2 y_95_ * y_53_ + 1 y_95_ ^ 2 ] >= 25110.36
quadratic_ranged_527_lb: [ 1 x_89_ ^ 2 - 2 x_95_ * x_89_ + 1 x_95_ ^ 2 + 1 y_89_ ^ 2 - 2 y_95_ * y_89_ + 1 y_95_ ^ 2 ] >= 6351.84
quadratic_ranged_528_lb: [ 1 x_94_ ^ 2 - 2 x_95_ * x_94_ + 1 x_95_ ^ 2 + 1 y_94_ ^ 2 - 2 y_95_ * y_94_ + 1 y_95_ ^ 2 ] >= 7573.5
quadratic_ranged_529_lb: [ 1 x_12_ ^ 2 - 2 x_96_ * x_12_ + 1 x_96_ ^ 2 + 1 y_12_ ^ 2 - 2 y_96_ * y_12_ + 1 y_96_ ^ 2 ] >= 2816.55
quadratic_ranged_530_lb: [ 1 x_40_ ^ 2 - 2 x_96_ * x_40_ + 1 x_96_ ^ 2 + 1 y_40_ ^ 2 - 2 y_96_ * y_40_ + 1 y_96_ ^ 2 ] >= 15733.08
quadratic_ranged_531_lb: [ 1 x_45_ ^ 2 - 2 x_96_ * x_45_ + 1 x_96_ ^ 2 + 1 y_45_ ^ 2 - 2 y_96_ * y_45_ + 1 y_96_ ^ 2 ] >= 9936.63
quadratic_ranged_532_lb: [ 1 x_48_ ^ 2 - 2 x_96_ * x_48_ + 1 x_96_ ^ 2 + 1 y_48_ ^ 2 - 2 y_96_ * y_48_ + 1 y_96_ ^ 2 ] >= 3809.52
quadratic_ranged_533_lb: [ 1 x_60_ ^ 2 - 2 x_96_ * x_60_ + 1 x_96_ ^ 2 + 1 y_60_ ^ 2 - 2 y_96_ * y_60_ + 1 y_96_ ^ 2 ] >= 18300.15
quadratic_ranged_534_lb: [ 1 x_63_ ^ 2 - 2 x_96_ * x_63_ + 1 x_96_ ^ 2 + 1 y_63_ ^ 2 - 2 y_96_ * y_63_ + 1 y_96_ ^ 2 ] >= 14960.88
quadratic_ranged_535_lb: [ 1 x_64_ ^ 2 - 2 x_96_ * x_64_ + 1 x_96_ ^ 2 + 1 y_64_ ^ 2 - 2 y_96_ * y_64_ + 1 y_96_ ^ 2 ] >= 4593.6
quadratic_ranged_536_lb: [ 1 x_66_ ^ 2 - 2 x_96_ * x_66_ + 1 x_96_ ^ 2 + 1 y_66_ ^ 2 - 2 y_96_ * y_66_ + 1 y_96_ ^ 2 ] >= 1665.18
quadratic_ranged_537_lb: [ 1 x_71_ ^ 2 - 2 x_96_ * x_71_ + 1 x_96_ ^ 2 + 1 y_71_ ^ 2 - 2 y_96_ * y_71_ + 1 y_96_ ^ 2 ] >= 3149.19
quadratic_ranged_538_lb: [ 1 x_72_ ^ 2 - 2 x_96_ * x_72_ + 1 x_96_ ^ 2 + 1 y_72_ ^ 2 - 2 y_96_ * y_72_ + 1 y_96_ ^ 2 ] >= 12870
quadratic_ranged_539_lb: [ 1 x_87_ ^ 2 - 2 x_96_ * x_87_ + 1 x_96_ ^ 2 + 1 y_87_ ^ 2 - 2 y_96_ * y_87_ + 1 y_96_ ^ 2 ] >= 8824.86
quadratic_ranged_540_lb: [ 1 x_88_ ^ 2 - 2 x_96_ * x_88_ + 1 x_96_ ^ 2 + 1 y_88_ ^ 2 - 2 y_96_ * y_88_ + 1 y_96_ ^ 2 ] >= 5766.75
quadratic_ranged_541_lb: [ 1 x_95_ ^ 2 - 2 x_96_ * x_95_ + 1 x_96_ ^ 2 + 1 y_95_ ^ 2 - 2 y_96_ * y_95_ + 1 y_96_ ^ 2 ] >= 13186.8
quadratic_ranged_542_lb: [ 1 x_8_ ^ 2 - 2 x_97_ * x_8_ + 1 x_97_ ^ 2 + 1 y_8_ ^ 2 - 2 y_97_ * y_8_ + 1 y_97_ ^ 2 ] >= 20787.03
quadratic_ranged_543_lb: [ 1 x_32_ ^ 2 - 2 x_97_ * x_32_ + 1 x_97_ ^ 2 + 1 y_32_ ^ 2 - 2 y_97_ * y_32_ + 1 y_97_ ^ 2 ] >= 33803.55
quadratic_ranged_544_lb: [ 1 x_35_ ^ 2 - 2 x_97_ * x_35_ + 1 x_97_ ^ 2 + 1 y_35_ ^ 2 - 2 y_97_ * y_35_ + 1 y_97_ ^ 2 ] >= 9699.03
quadratic_ranged_545_lb: [ 1 x_52_ ^ 2 - 2 x_97_ * x_52_ + 1 x_97_ ^ 2 + 1 y_52_ ^ 2 - 2 y_97_ * y_52_ + 1 y_97_ ^ 2 ] >= 42651.18
quadratic_ranged_546_lb: [ 1 x_88_ ^ 2 - 2 x_97_ * x_88_ + 1 x_97_ ^ 2 + 1 y_88_ ^ 2 - 2 y_97_ * y_88_ + 1 y_97_ ^ 2 ] >= 35514.27
quadratic_ranged_547_lb: [ 1 x_92_ ^ 2 - 2 x_97_ * x_92_ + 1 x_97_ ^ 2 + 1 y_92_ ^ 2 - 2 y_97_ * y_92_ + 1 y_97_ ^ 2 ] >= 4705.47
quadratic_ranged_548_lb: [ 1 x_95_ ^ 2 - 2 x_97_ * x_95_ + 1 x_97_ ^ 2 + 1 y_95_ ^ 2 - 2 y_97_ * y_95_ + 1 y_97_ ^ 2 ] >= 9603
quadratic_ranged_549_lb: [ 1 x_96_ ^ 2 - 2 x_97_ * x_96_ + 1 x_97_ ^ 2 + 1 y_96_ ^ 2 - 2 y_97_ * y_96_ + 1 y_97_ ^ 2 ] >= 16968.6
quadratic_ranged_550_lb: [ 1 x_12_ ^ 2 - 2 x_98_ * x_12_ + 1 x_98_ ^ 2 + 1 y_12_ ^ 2 - 2 y_98_ * y_12_ + 1 y_98_ ^ 2 ] >= 10352.43
quadratic_ranged_551_lb: [ 1 x_14_ ^ 2 - 2 x_98_ * x_14_ + 1 x_98_ ^ 2 + 1 y_14_ ^ 2 - 2 y_98_ * y_14_ + 1 y_98_ ^ 2 ] >= 8795.16
quadratic_ranged_552_lb: [ 1 x_30_ ^ 2 - 2 x_98_ * x_30_ + 1 x_98_ ^ 2 + 1 y_30_ ^ 2 - 2 y_98_ * y_30_ + 1 y_98_ ^ 2 ] >= 690.03
quadratic_ranged_553_lb: [ 1 x_33_ ^ 2 - 2 x_98_ * x_33_ + 1 x_98_ ^ 2 + 1 y_33_ ^ 2 - 2 y_98_ * y_33_ + 1 y_98_ ^ 2 ] >= 11021.67
quadratic_ranged_554_lb: [ 1 x_46_ ^ 2 - 2 x_98_ * x_46_ + 1 x_98_ ^ 2 + 1 y_46_ ^ 2 - 2 y_98_ * y_46_ + 1 y_98_ ^ 2 ] >= 15971.67
quadratic_ranged_555_lb: [ 1 x_51_ ^ 2 - 2 x_98_ * x_51_ + 1 x_98_ ^ 2 + 1 y_51_ ^ 2 - 2 y_98_ * y_51_ + 1 y_98_ ^ 2 ] >= 5279.67
quadratic_ranged_556_lb: [ 1 x_56_ ^ 2 - 2 x_98_ * x_56_ + 1 x_98_ ^ 2 + 1 y_56_ ^ 2 - 2 y_98_ * y_56_ + 1 y_98_ ^ 2 ] >= 8589.24
quadratic_ranged_557_lb: [ 1 x_58_ ^ 2 - 2 x_98_ * x_58_ + 1 x_98_ ^ 2 + 1 y_58_ ^ 2 - 2 y_98_ * y_58_ + 1 y_98_ ^ 2 ] >= 12008.7
quadratic_ranged_558_lb: [ 1 x_62_ ^ 2 - 2 x_98_ * x_62_ + 1 x_98_ ^ 2 + 1 y_62_ ^ 2 - 2 y_98_ * y_62_ + 1 y_98_ ^ 2 ] >= 2369.07
quadratic_ranged_559_lb: [ 1 x_64_ ^ 2 - 2 x_98_ * x_64_ + 1 x_98_ ^ 2 + 1 y_64_ ^ 2 - 2 y_98_ * y_64_ + 1 y_98_ ^ 2 ] >= 14329.26
quadratic_ranged_560_lb: [ 1 x_72_ ^ 2 - 2 x_98_ * x_72_ + 1 x_98_ ^ 2 + 1 y_72_ ^ 2 - 2 y_98_ * y_72_ + 1 y_98_ ^ 2 ] >= 21647.34
quadratic_ranged_561_lb: [ 1 x_92_ ^ 2 - 2 x_98_ * x_92_ + 1 x_98_ ^ 2 + 1 y_92_ ^ 2 - 2 y_98_ * y_92_ + 1 y_98_ ^ 2 ] >= 27447.75
quadratic_ranged_562_lb: [ 1 x_97_ ^ 2 - 2 x_98_ * x_97_ + 1 x_98_ ^ 2 + 1 y_97_ ^ 2 - 2 y_98_ * y_97_ + 1 y_98_ ^ 2 ] >= 27357.66
quadratic_ranged_563_lb: [ 1 x_5_ ^ 2 - 2 x_99_ * x_5_ + 1 x_99_ ^ 2 + 1 y_5_ ^ 2 - 2 y_99_ * y_5_ + 1 y_99_ ^ 2 ] >= 5627.16
quadratic_ranged_564_lb: [ 1 x_18_ ^ 2 - 2 x_99_ * x_18_ + 1 x_99_ ^ 2 + 1 y_18_ ^ 2 - 2 y_99_ * y_18_ + 1 y_99_ ^ 2 ] >= 20018.79
quadratic_ranged_565_lb: [ 1 x_37_ ^ 2 - 2 x_99_ * x_37_ + 1 x_99_ ^ 2 + 1 y_37_ ^ 2 - 2 y_99_ * y_37_ + 1 y_99_ ^ 2 ] >= 22265.1
quadratic_ranged_566_lb: [ 1 x_46_ ^ 2 - 2 x_99_ * x_46_ + 1 x_99_ ^ 2 + 1 y_46_ ^ 2 - 2 y_99_ * y_46_ + 1 y_99_ ^ 2 ] >= 10028.7
quadratic_ranged_567_lb: [ 1 x_47_ ^ 2 - 2 x_99_ * x_47_ + 1 x_99_ ^ 2 + 1 y_47_ ^ 2 - 2 y_99_ * y_47_ + 1 y_99_ ^ 2 ] >= 9727.74
quadratic_ranged_568_lb: [ 1 x_57_ ^ 2 - 2 x_99_ * x_57_ + 1 x_99_ ^ 2 + 1 y_57_ ^ 2 - 2 y_99_ * y_57_ + 1 y_99_ ^ 2 ] >= 352.44
quadratic_ranged_569_lb: [ 1 x_58_ ^ 2 - 2 x_99_ * x_58_ + 1 x_99_ ^ 2 + 1 y_58_ ^ 2 - 2 y_99_ * y_58_ + 1 y_99_ ^ 2 ] >= 14078.789999999999
quadratic_ranged_570_lb: [ 1 x_80_ ^ 2 - 2 x_99_ * x_80_ + 1 x_99_ ^ 2 + 1 y_80_ ^ 2 - 2 y_99_ * y_80_ + 1 y_99_ ^ 2 ] >= 527.67
quadratic_ranged_571_lb: [ 1 x_91_ ^ 2 - 2 x_99_ * x_91_ + 1 x_99_ ^ 2 + 1 y_91_ ^ 2 - 2 y_99_ * y_91_ + 1 y_99_ ^ 2 ] >= 10440.539999999999
quadratic_ranged_572_lb: [ 1 x_93_ ^ 2 - 2 x_99_ * x_93_ + 1 x_99_ ^ 2 + 1 y_93_ ^ 2 - 2 y_99_ * y_93_ + 1 y_99_ ^ 2 ] >= 14066.91
quadratic_ranged_573_lb: [ 1 x_98_ ^ 2 - 2 x_99_ * x_98_ + 1 x_99_ ^ 2 + 1 y_98_ ^ 2 - 2 y_99_ * y_98_ + 1 y_99_ ^ 2 ] >= 24422.31
quadratic_ranged_574_lb: [ 1 x_1_ ^ 2 - 2 x_100_ * x_1_ + 1 x_100_ ^ 2 + 1 y_1_ ^ 2 - 2 y_100_ * y_1_ + 1 y_100_ ^ 2 ] >= 4752.99
quadratic_ranged_575_lb: [ 1 x_2_ ^ 2 - 2 x_100_ * x_2_ + 1 x_100_ ^ 2 + 1 y_2_ ^ 2 - 2 y_100_ * y_2_ + 1 y_100_ ^ 2 ] >= 2175.03
quadratic_ranged_576_lb: [ 1 x_5_ ^ 2 - 2 x_100_ * x_5_ + 1 x_100_ ^ 2 + 1 y_5_ ^ 2 - 2 y_100_ * y_5_ + 1 y_100_ ^ 2 ] >= 21679.02
quadratic_ranged_577_lb: [ 1 x_18_ ^ 2 - 2 x_100_ * x_18_ + 1 x_100_ ^ 2 + 1 y_18_ ^ 2 - 2 y_100_ * y_18_ + 1 y_100_ ^ 2 ] >= 18878.31
quadratic_ranged_578_lb: [ 1 x_28_ ^ 2 - 2 x_100_ * x_28_ + 1 x_100_ ^ 2 + 1 y_28_ ^ 2 - 2 y_100_ * y_28_ + 1 y_100_ ^ 2 ] >= 7152.75
quadratic_ranged_579_lb: [ 1 x_32_ ^ 2 - 2 x_100_ * x_32_ + 1 x_100_ ^ 2 + 1 y_32_ ^ 2 - 2 y_100_ * y_32_ + 1 y_100_ ^ 2 ] >= 28005.12
quadratic_ranged_580_lb: [ 1 x_51_ ^ 2 - 2 x_100_ * x_51_ + 1 x_100_ ^ 2 + 1 y_51_ ^ 2 - 2 y_100_ * y_51_ + 1 y_100_ ^ 2 ] >= 3431.34
quadratic_ranged_581_lb: [ 1 x_62_ ^ 2 - 2 x_100_ * x_62_ + 1 x_100_ ^ 2 + 1 y_62_ ^ 2 - 2 y_100_ * y_62_ + 1 y_100_ ^ 2 ] >= 25664.76
quadratic_ranged_582_lb: [ 1 x_69_ ^ 2 - 2 x_100_ * x_69_ + 1 x_100_ ^ 2 + 1 y_69_ ^ 2 - 2 y_100_ * y_69_ + 1 y_100_ ^ 2 ] >= 24730.2
quadratic_ranged_583_lb: [ 1 x_78_ ^ 2 - 2 x_100_ * x_78_ + 1 x_100_ ^ 2 + 1 y_78_ ^ 2 - 2 y_100_ * y_78_ + 1 y_100_ ^ 2 ] >= 23135.31
quadratic_ranged_584_lb: [ 1 x_79_ ^ 2 - 2 x_100_ * x_79_ + 1 x_100_ ^ 2 + 1 y_79_ ^ 2 - 2 y_100_ * y_79_ + 1 y_100_ ^ 2 ] >= 5133.15
quadratic_ranged_585_lb: [ 1 x_99_ ^ 2 - 2 x_100_ * x_99_ + 1 x_100_ ^ 2 + 1 y_99_ ^ 2 - 2 y_100_ * y_99_ + 1 y_100_ ^ 2 ] >= 16800.3
c1_1: 1 x_26_ = 0
c2_1: 1 y_26_ = 0
Bounds
-128 <= x_1_ <= 128
-210 <= x_2_ <= 210
-174 <= x_3_ <= 174
-168 <= x_4_ <= 168
-112 <= x_5_ <= 112
-157 <= x_6_ <= 157
-191 <= x_7_ <= 191
-152 <= x_8_ <= 152
-106 <= x_9_ <= 106
-175 <= x_10_ <= 175
-182 <= x_11_ <= 182
-115 <= x_12_ <= 115
-135 <= x_13_ <= 135
-142 <= x_14_ <= 142
-165 <= x_15_ <= 165
-128 <= x_16_ <= 128
-140 <= x_17_ <= 140
-153 <= x_18_ <= 153
-107 <= x_19_ <= 107
-175 <= x_20_ <= 175
-152 <= x_21_ <= 152
-166 <= x_22_ <= 166
-64 <= x_23_ <= 64
-114 <= x_24_ <= 114
-94 <= x_25_ <= 94
x_26_ = 0
-53 <= x_27_ <= 53
-105 <= x_28_ <= 105
-157 <= x_29_ <= 157
-176 <= x_30_ <= 176
-139 <= x_31_ <= 139
-139 <= x_32_ <= 139
-119 <= x_33_ <= 119
-131 <= x_34_ <= 131
-150 <= x_35_ <= 150
-148 <= x_36_ <= 148
-172 <= x_37_ <= 172
-126 <= x_38_ <= 126
-108 <= x_39_ <= 108
-157 <= x_40_ <= 157
-152 <= x_41_ <= 152
-117 <= x_42_ <= 117
-149 <= x_43_ <= 149
-145 <= x_44_ <= 145
-124 <= x_45_ <= 124
-49 <= x_46_ <= 49
-122 <= x_47_ <= 122
-191 <= x_48_ <= 191
-140 <= x_49_ <= 140
-90 <= x_50_ <= 90
-154 <= x_51_ <= 154
-202 <= x_52_ <= 202
-118 <= x_53_ <= 118
-91 <= x_54_ <= 91
-123 <= x_55_ <= 123
-140 <= x_56_ <= 140
-45 <= x_57_ <= 45
-151 <= x_58_ <= 151
-128 <= x_59_ <= 128
-109 <= x_60_ <= 109
-129 <= x_61_ <= 129
-135 <= x_62_ <= 135
-52 <= x_63_ <= 52
-122 <= x_64_ <= 122
-149 <= x_65_ <= 149
-160 <= x_66_ <= 160
-164 <= x_67_ <= 164
-163 <= x_68_ <= 163
-155 <= x_69_ <= 155
-153 <= x_70_ <= 153
-125 <= x_71_ <= 125
-198 <= x_72_ <= 198
-132 <= x_73_ <= 132
-199 <= x_74_ <= 199
-92 <= x_75_ <= 92
-145 <= x_76_ <= 145
-20 <= x_77_ <= 20
-114 <= x_78_ <= 114
-163 <= x_79_ <= 163
-87 <= x_80_ <= 87
-129 <= x_81_ <= 129
-78 <= x_82_ <= 78
-162 <= x_83_ <= 162
-120 <= x_84_ <= 120
-175 <= x_85_ <= 175
-167 <= x_86_ <= 167
-159 <= x_87_ <= 159
-191 <= x_88_ <= 191
-141 <= x_89_ <= 141
-131 <= x_90_ <= 131
-138 <= x_91_ <= 138
-129 <= x_92_ <= 129
-183 <= x_93_ <= 183
-163 <= x_94_ <= 163
-86 <= x_95_ <= 86
-169 <= x_96_ <= 169
-185 <= x_97_ <= 185
-177 <= x_98_ <= 177
-64 <= x_99_ <= 64
-190 <= x_100_ <= 190
-128 <= y_1_ <= 128
-210 <= y_2_ <= 210
-174 <= y_3_ <= 174
-168 <= y_4_ <= 168
-112 <= y_5_ <= 112
-157 <= y_6_ <= 157
-191 <= y_7_ <= 191
-152 <= y_8_ <= 152
-106 <= y_9_ <= 106
-175 <= y_10_ <= 175
-182 <= y_11_ <= 182
-115 <= y_12_ <= 115
-135 <= y_13_ <= 135
-142 <= y_14_ <= 142
-165 <= y_15_ <= 165
-128 <= y_16_ <= 128
-140 <= y_17_ <= 140
-153 <= y_18_ <= 153
-107 <= y_19_ <= 107
-175 <= y_20_ <= 175
-152 <= y_21_ <= 152
-166 <= y_22_ <= 166
-64 <= y_23_ <= 64
-114 <= y_24_ <= 114
-94 <= y_25_ <= 94
y_26_ = 0
-53 <= y_27_ <= 53
-105 <= y_28_ <= 105
-157 <= y_29_ <= 157
-176 <= y_30_ <= 176
-139 <= y_31_ <= 139
-139 <= y_32_ <= 139
-119 <= y_33_ <= 119
-131 <= y_34_ <= 131
-150 <= y_35_ <= 150
-148 <= y_36_ <= 148
-172 <= y_37_ <= 172
-126 <= y_38_ <= 126
-108 <= y_39_ <= 108
-157 <= y_40_ <= 157
-152 <= y_41_ <= 152
-117 <= y_42_ <= 117
-149 <= y_43_ <= 149
-145 <= y_44_ <= 145
-124 <= y_45_ <= 124
-49 <= y_46_ <= 49
-122 <= y_47_ <= 122
-191 <= y_48_ <= 191
-140 <= y_49_ <= 140
-90 <= y_50_ <= 90
-154 <= y_51_ <= 154
-202 <= y_52_ <= 202
-118 <= y_53_ <= 118
-91 <= y_54_ <= 91
-123 <= y_55_ <= 123
-140 <= y_56_ <= 140
-45 <= y_57_ <= 45
-151 <= y_58_ <= 151
-128 <= y_59_ <= 128
-109 <= y_60_ <= 109
-129 <= y_61_ <= 129
-135 <= y_62_ <= 135
-52 <= y_63_ <= 52
-122 <= y_64_ <= 122
-149 <= y_65_ <= 149
-160 <= y_66_ <= 160
-164 <= y_67_ <= 164
-163 <= y_68_ <= 163
-155 <= y_69_ <= 155
-153 <= y_70_ <= 153
-125 <= y_71_ <= 125
-198 <= y_72_ <= 198
-132 <= y_73_ <= 132
-199 <= y_74_ <= 199
-92 <= y_75_ <= 92
-145 <= y_76_ <= 145
-20 <= y_77_ <= 20
-114 <= y_78_ <= 114
-163 <= y_79_ <= 163
-87 <= y_80_ <= 87
-129 <= y_81_ <= 129
-78 <= y_82_ <= 78
-162 <= y_83_ <= 162
-120 <= y_84_ <= 120
-175 <= y_85_ <= 175
-167 <= y_86_ <= 167
-159 <= y_87_ <= 159
-191 <= y_88_ <= 191
-141 <= y_89_ <= 141
-131 <= y_90_ <= 131
-138 <= y_91_ <= 138
-129 <= y_92_ <= 129
-183 <= y_93_ <= 183
-163 <= y_94_ <= 163
-86 <= y_95_ <= 86
-169 <= y_96_ <= 169
-185 <= y_97_ <= 185
-177 <= y_98_ <= 177
-64 <= y_99_ <= 64
-190 <= y_100_ <= 190
General
x_1_
x_2_
x_3_
x_4_
x_5_
x_6_
x_7_
x_8_
x_9_
x_10_
x_11_
x_12_
x_13_
x_14_
x_15_
x_16_
x_17_
x_18_
x_19_
x_20_
x_21_
x_22_
x_23_
x_24_
x_25_
x_26_
x_27_
x_28_
x_29_
x_30_
x_31_
x_32_
x_33_
x_34_
x_35_
x_36_
x_37_
x_38_
x_39_
x_40_
x_41_
x_42_
x_43_
x_44_
x_45_
x_46_
x_47_
x_48_
x_49_
x_50_
x_51_
x_52_
x_53_
x_54_
x_55_
x_56_
x_57_
x_58_
x_59_
x_60_
x_61_
x_62_
x_63_
x_64_
x_65_
x_66_
x_67_
x_68_
x_69_
x_70_
x_71_
x_72_
x_73_
x_74_
x_75_
x_76_
x_77_
x_78_
x_79_
x_80_
x_81_
x_82_
x_83_
x_84_
x_85_
x_86_
x_87_
x_88_
x_89_
x_90_
x_91_
x_92_
x_93_
x_94_
x_95_
x_96_
x_97_
x_98_
x_99_
x_100_
y_1_
y_2_
y_3_
y_4_
y_5_
y_6_
y_7_
y_8_
y_9_
y_10_
y_11_
y_12_
y_13_
y_14_
y_15_
y_16_
y_17_
y_18_
y_19_
y_20_
y_21_
y_22_
y_23_
y_24_
y_25_
y_26_
y_27_
y_28_
y_29_
y_30_
y_31_
y_32_
y_33_
y_34_
y_35_
y_36_
y_37_
y_38_
y_39_
y_40_
y_41_
y_42_
y_43_
y_44_
y_45_
y_46_
y_47_
y_48_
y_49_
y_50_
y_51_
y_52_
y_53_
y_54_
y_55_
y_56_
y_57_
y_58_
y_59_
y_60_
y_61_
y_62_
y_63_
y_64_
y_65_
y_66_
y_67_
y_68_
y_69_
y_70_
y_71_
y_72_
y_73_
y_74_
y_75_
y_76_
y_77_
y_78_
y_79_
y_80_
y_81_
y_82_
y_83_
y_84_
y_85_
y_86_
y_87_
y_88_
y_89_
y_90_
y_91_
y_92_
y_93_
y_94_
y_95_
y_96_
y_97_
y_98_
y_99_
y_100_
End
