minimize
obj: 
subject to
c1: 80 x_1_ - 24 y_1_ + [ 1 x_1_ ^ 2 + 1 y_1_ ^ 2 ] <= 23716.838858862626
c2: 80 x_2_ - 24 y_2_ + [ 1 x_2_ ^ 2 + 1 y_2_ ^ 2 ] <= 6187.756741602287
c3: 80 x_3_ - 24 y_3_ + [ 1 x_3_ ^ 2 + 1 y_3_ ^ 2 ] <= 13780.32492810445
c4: 80 x_4_ - 24 y_4_ + [ 1 x_4_ ^ 2 + 1 y_4_ ^ 2 ] <= 402.25
c5: 80 x_5_ - 24 y_5_ + [ 1 x_5_ ^ 2 + 1 y_5_ ^ 2 ] <= 4478.61
c6: 80 x_6_ - 24 y_6_ + [ 1 x_6_ ^ 2 + 1 y_6_ ^ 2 ] <= 8737.9574237888
c7: 80 x_7_ - 24 y_7_ + [ 1 x_7_ ^ 2 + 1 y_7_ ^ 2 ] <= 16925.929953793486
c8: 80 x_8_ - 24 y_8_ + [ 1 x_8_ ^ 2 + 1 y_8_ ^ 2 ] <= 18994.539996273306
c9: 80 x_9_ - 24 y_9_ + [ 1 x_9_ ^ 2 + 1 y_9_ ^ 2 ] <= 7209.972081075615
c10: 80 x_10_ - 24 y_10_ + [ 1 x_10_ ^ 2 + 1 y_10_ ^ 2 ] <= 1845.6069652658716
c11: 80 x_11_ - 24 y_11_ + [ 1 x_11_ ^ 2 + 1 y_11_ ^ 2 ] <= 19274.11584849629
c12: 80 x_12_ - 24 y_12_ + [ 1 x_12_ ^ 2 + 1 y_12_ ^ 2 ] <= 23532.351985798152
c13: 80 x_13_ - 24 y_13_ + [ 1 x_13_ ^ 2 + 1 y_13_ ^ 2 ] <= 26297.278412846914
c14: 80 x_14_ - 24 y_14_ + [ 1 x_14_ ^ 2 + 1 y_14_ ^ 2 ] <= 19085.112034828802
c15: 80 x_15_ - 24 y_15_ + [ 1 x_15_ ^ 2 + 1 y_15_ ^ 2 ] <= 4657.379999999999
c16: 80 x_16_ - 24 y_16_ + [ 1 x_16_ ^ 2 + 1 y_16_ ^ 2 ] <= 13883.295106082736
c17: 80 x_17_ - 24 y_17_ + [ 1 x_17_ ^ 2 + 1 y_17_ ^ 2 ] <= 23660.20297924306
c18: 80 x_18_ - 24 y_18_ + [ 1 x_18_ ^ 2 + 1 y_18_ ^ 2 ] <= 28401.673133694076
c19: 80 x_19_ - 24 y_19_ + [ 1 x_19_ ^ 2 + 1 y_19_ ^ 2 ] <= 5516.427074946857
c20: 80 x_20_ - 24 y_20_ + [ 1 x_20_ ^ 2 + 1 y_20_ ^ 2 ] <= 7804.485140531631
c21: 80 x_21_ - 24 y_21_ + [ 1 x_21_ ^ 2 + 1 y_21_ ^ 2 ] <= 27215.45240524536
c22: 80 x_22_ - 24 y_22_ + [ 1 x_22_ ^ 2 + 1 y_22_ ^ 2 ] <= 3756.9557892870425
c23: 80 x_23_ - 24 y_23_ + [ 1 x_23_ ^ 2 + 1 y_23_ ^ 2 ] <= 16870.057605915517
c24: 80 x_24_ - 24 y_24_ + [ 1 x_24_ ^ 2 + 1 y_24_ ^ 2 ] <= 32206.163310743534
c25: 80 x_25_ - 24 y_25_ + [ 1 x_25_ ^ 2 + 1 y_25_ ^ 2 ] <= 30770.9632329095
c26: 80 x_26_ - 24 y_26_ + [ 1 x_26_ ^ 2 + 1 y_26_ ^ 2 ] <= 9808.156786704878
c27: 80 x_27_ - 24 y_27_ + [ 1 x_27_ ^ 2 + 1 y_27_ ^ 2 ] <= 2094.955185300288
c28: 80 x_28_ - 24 y_28_ + [ 1 x_28_ ^ 2 + 1 y_28_ ^ 2 ] <= 28832.849950029395
c29: 80 x_29_ - 24 y_29_ + [ 1 x_29_ ^ 2 + 1 y_29_ ^ 2 ] <= 14683.561694341282
c30: 80 x_30_ - 24 y_30_ + [ 1 x_30_ ^ 2 + 1 y_30_ ^ 2 ] <= 23826.635408720733
c31: 80 x_31_ - 24 y_31_ + [ 1 x_31_ ^ 2 + 1 y_31_ ^ 2 ] <= 23439.123836003495
c32: 80 x_32_ - 24 y_32_ + [ 1 x_32_ ^ 2 + 1 y_32_ ^ 2 ] <= 13078.953548139145
c33: 80 x_33_ - 24 y_33_ + [ 1 x_33_ ^ 2 + 1 y_33_ ^ 2 ] <= 16306.807640040228
c34: 80 x_34_ - 24 y_34_ + [ 1 x_34_ ^ 2 + 1 y_34_ ^ 2 ] <= 19757.890000000003
c35: 80 x_35_ - 24 y_35_ + [ 1 x_35_ ^ 2 + 1 y_35_ ^ 2 ] <= 2454.55994263725
c36: 80 x_36_ - 24 y_36_ + [ 1 x_36_ ^ 2 + 1 y_36_ ^ 2 ] <= 28770.901171335714
c37: 80 x_37_ - 24 y_37_ + [ 1 x_37_ ^ 2 + 1 y_37_ ^ 2 ] <= 14538.793818722408
c38: 80 x_38_ - 24 y_38_ + [ 1 x_38_ ^ 2 + 1 y_38_ ^ 2 ] <= 2462.6499999999987
c39: 80 x_39_ - 24 y_39_ + [ 1 x_39_ ^ 2 + 1 y_39_ ^ 2 ] <= 12211.290750187349
c40: 80 x_40_ - 24 y_40_ + [ 1 x_40_ ^ 2 + 1 y_40_ ^ 2 ] <= 34074.98083831186
c41: 80 x_41_ - 24 y_41_ + [ 1 x_41_ ^ 2 + 1 y_41_ ^ 2 ] <= 10813.394934858945
c42: 80 x_42_ - 24 y_42_ + [ 1 x_42_ ^ 2 + 1 y_42_ ^ 2 ] <= 18128.18174611869
c43: 80 x_43_ - 24 y_43_ + [ 1 x_43_ ^ 2 + 1 y_43_ ^ 2 ] <= 19568.51446418782
c44: 80 x_44_ - 24 y_44_ + [ 1 x_44_ ^ 2 + 1 y_44_ ^ 2 ] <= 12957.305276282652
c45: 80 x_45_ - 24 y_45_ + [ 1 x_45_ ^ 2 + 1 y_45_ ^ 2 ] <= 14854.630864142488
c46: 80 x_46_ - 24 y_46_ + [ 1 x_46_ ^ 2 + 1 y_46_ ^ 2 ] <= 12461.649999999996
c47: 80 x_47_ - 24 y_47_ + [ 1 x_47_ ^ 2 + 1 y_47_ ^ 2 ] <= 8068.125774305316
c48: 80 x_48_ - 24 y_48_ + [ 1 x_48_ ^ 2 + 1 y_48_ ^ 2 ] <= 4291.712201244728
c49: 80 x_49_ - 24 y_49_ + [ 1 x_49_ ^ 2 + 1 y_49_ ^ 2 ] <= 35903.25411396859
c50: 80 x_50_ - 24 y_50_ + [ 1 x_50_ ^ 2 + 1 y_50_ ^ 2 ] <= 3193.973556178051
c51: 80 x_51_ - 24 y_51_ + [ 1 x_51_ ^ 2 + 1 y_51_ ^ 2 ] <= 21504.135478778415
c52: 80 x_52_ - 24 y_52_ + [ 1 x_52_ ^ 2 + 1 y_52_ ^ 2 ] <= -463.32000000000016
c53: 80 x_53_ - 24 y_53_ + [ 1 x_53_ ^ 2 + 1 y_53_ ^ 2 ] <= 20362.73289887495
c54: 80 x_54_ - 24 y_54_ + [ 1 x_54_ ^ 2 + 1 y_54_ ^ 2 ] <= 28592.632064515263
c55: 80 x_55_ - 24 y_55_ + [ 1 x_55_ ^ 2 + 1 y_55_ ^ 2 ] <= 4723.898054348986
c56: 80 x_56_ - 24 y_56_ + [ 1 x_56_ ^ 2 + 1 y_56_ ^ 2 ] <= 6400.724851737268
c57: 80 x_57_ - 24 y_57_ + [ 1 x_57_ ^ 2 + 1 y_57_ ^ 2 ] <= 6199.182303743158
c58: 80 x_58_ - 24 y_58_ + [ 1 x_58_ ^ 2 + 1 y_58_ ^ 2 ] <= 14373.658382410531
c59: 80 x_59_ - 24 y_59_ + [ 1 x_59_ ^ 2 + 1 y_59_ ^ 2 ] <= 26181.41308311066
c60: 80 x_60_ - 24 y_60_ + [ 1 x_60_ ^ 2 + 1 y_60_ ^ 2 ] <= 21985.599328775315
c61: 80 x_61_ - 24 y_61_ + [ 1 x_61_ ^ 2 + 1 y_61_ ^ 2 ] <= 20279.487568744207
c62: 80 x_62_ - 24 y_62_ + [ 1 x_62_ ^ 2 + 1 y_62_ ^ 2 ] <= 9528.609999999999
c63: 80 x_63_ - 24 y_63_ + [ 1 x_63_ ^ 2 + 1 y_63_ ^ 2 ] <= 5822.5625408720725
c64: 80 x_64_ - 24 y_64_ + [ 1 x_64_ ^ 2 + 1 y_64_ ^ 2 ] <= 6453.493179213265
c65: 80 x_65_ - 24 y_65_ + [ 1 x_65_ ^ 2 + 1 y_65_ ^ 2 ] <= 13911.37902826084
c66: 80 x_66_ - 24 y_66_ + [ 1 x_66_ ^ 2 + 1 y_66_ ^ 2 ] <= 11524.037481831028
c67: 80 x_67_ - 24 y_67_ + [ 1 x_67_ ^ 2 + 1 y_67_ ^ 2 ] <= 28220.478779771034
c68: 80 x_68_ - 24 y_68_ + [ 1 x_68_ ^ 2 + 1 y_68_ ^ 2 ] <= 9293.775096262141
c69: 80 x_69_ - 24 y_69_ + [ 1 x_69_ ^ 2 + 1 y_69_ ^ 2 ] <= 11552.33119428544
c70: 80 x_70_ - 24 y_70_ + [ 1 x_70_ ^ 2 + 1 y_70_ ^ 2 ] <= 20915.982754466615
c71: 80 x_71_ - 24 y_71_ + [ 1 x_71_ ^ 2 + 1 y_71_ ^ 2 ] <= 16838.096342005112
c72: 80 x_72_ - 24 y_72_ + [ 1 x_72_ ^ 2 + 1 y_72_ ^ 2 ] <= 8562.242574498308
c73: 80 x_73_ - 24 y_73_ + [ 1 x_73_ ^ 2 + 1 y_73_ ^ 2 ] <= 12297.42550655583
c74: 80 x_74_ - 24 y_74_ + [ 1 x_74_ ^ 2 + 1 y_74_ ^ 2 ] <= 18130.441061025092
c75: 80 x_75_ - 24 y_75_ + [ 1 x_75_ ^ 2 + 1 y_75_ ^ 2 ] <= 24944.80364299338
c76: 80 x_76_ - 24 y_76_ + [ 1 x_76_ ^ 2 + 1 y_76_ ^ 2 ] <= 12150.304253340593
c77: 80 x_77_ - 24 y_77_ + [ 1 x_77_ ^ 2 + 1 y_77_ ^ 2 ] <= 4876.982397341299
c78: 80 x_78_ - 24 y_78_ + [ 1 x_78_ ^ 2 + 1 y_78_ ^ 2 ] <= 7434.037027539189
c79: 80 x_79_ - 24 y_79_ + [ 1 x_79_ ^ 2 + 1 y_79_ ^ 2 ] <= 7858.668332000156
c80: 80 x_80_ - 24 y_80_ + [ 1 x_80_ ^ 2 + 1 y_80_ ^ 2 ] <= 12825.336670274262
c81: 80 x_81_ - 24 y_81_ + [ 1 x_81_ ^ 2 + 1 y_81_ ^ 2 ] <= 18805.636923312406
c82: 80 x_82_ - 24 y_82_ + [ 1 x_82_ ^ 2 + 1 y_82_ ^ 2 ] <= 1849.7782129382667
c83: 80 x_83_ - 24 y_83_ + [ 1 x_83_ ^ 2 + 1 y_83_ ^ 2 ] <= 8030.992919359993
c84: 80 x_84_ - 24 y_84_ + [ 1 x_84_ ^ 2 + 1 y_84_ ^ 2 ] <= 1039.56
c85: 80 x_85_ - 24 y_85_ + [ 1 x_85_ ^ 2 + 1 y_85_ ^ 2 ] <= 7003.359155420976
c86: 80 x_86_ - 24 y_86_ + [ 1 x_86_ ^ 2 + 1 y_86_ ^ 2 ] <= -106.79000000000019
c87: 80 x_87_ - 24 y_87_ + [ 1 x_87_ ^ 2 + 1 y_87_ ^ 2 ] <= 3428.995434365248
c88: 80 x_88_ - 24 y_88_ + [ 1 x_88_ ^ 2 + 1 y_88_ ^ 2 ] <= 16672.699186906182
c89: 80 x_89_ - 24 y_89_ + [ 1 x_89_ ^ 2 + 1 y_89_ ^ 2 ] <= 20885.546504569953
c90: 80 x_90_ - 24 y_90_ + [ 1 x_90_ ^ 2 + 1 y_90_ ^ 2 ] <= 21439.930055988087
c91: 80 x_91_ - 24 y_91_ + [ 1 x_91_ ^ 2 + 1 y_91_ ^ 2 ] <= 3378.7199999999993
c92: 80 x_92_ - 24 y_92_ + [ 1 x_92_ ^ 2 + 1 y_92_ ^ 2 ] <= 17475.003077222733
c93: 80 x_93_ - 24 y_93_ + [ 1 x_93_ ^ 2 + 1 y_93_ ^ 2 ] <= 9738.297866363904
c94: 80 x_94_ - 24 y_94_ + [ 1 x_94_ ^ 2 + 1 y_94_ ^ 2 ] <= 16204.995501336689
c95: 80 x_95_ - 24 y_95_ + [ 1 x_95_ ^ 2 + 1 y_95_ ^ 2 ] <= 24016.925294433084
c96: 80 x_96_ - 24 y_96_ + [ 1 x_96_ ^ 2 + 1 y_96_ ^ 2 ] <= -111.84000000000015
c97: 80 x_98_ - 24 y_98_ + [ 1 x_98_ ^ 2 + 1 y_98_ ^ 2 ] <= -1426.8600000000001
c98: 80 x_99_ - 24 y_99_ + [ 1 x_99_ ^ 2 + 1 y_99_ ^ 2 ] <= 14996.33883994415
c99: 80 x_100_ - 24 y_100_ + [ 1 x_100_ ^ 2 + 1 y_100_ ^ 2 ] <= 10075.110680326863
c100: 156 x_1_ + 68 y_1_ + [ 1 x_1_ ^ 2 + 1 y_1_ ^ 2 ] <= 31126.343790928804
c101: 156 x_2_ + 68 y_2_ + [ 1 x_2_ ^ 2 + 1 y_2_ ^ 2 ] <= -3191.6434061350533
c102: 156 x_3_ + 68 y_3_ + [ 1 x_3_ ^ 2 + 1 y_3_ ^ 2 ] <= 14278.014582046257
c103: 156 x_4_ + 68 y_4_ + [ 1 x_4_ ^ 2 + 1 y_4_ ^ 2 ] <= -4395.693343391473
c104: 156 x_5_ + 68 y_5_ + [ 1 x_5_ ^ 2 + 1 y_5_ ^ 2 ] <= 3479.1299999999956
c105: 156 x_6_ + 68 y_6_ + [ 1 x_6_ ^ 2 + 1 y_6_ ^ 2 ] <= -2764.904179867888
c106: 156 x_7_ + 68 y_7_ + [ 1 x_7_ ^ 2 + 1 y_7_ ^ 2 ] <= 13166.845954391112
c107: 156 x_8_ + 68 y_8_ + [ 1 x_8_ ^ 2 + 1 y_8_ ^ 2 ] <= 33112.270061455856
c108: 156 x_9_ + 68 y_9_ + [ 1 x_9_ ^ 2 + 1 y_9_ ^ 2 ] <= -2258.732425531475
c109: 156 x_10_ + 68 y_10_ + [ 1 x_10_ ^ 2 + 1 y_10_ ^ 2 ] <= -1153.9650361354134
c110: 156 x_11_ + 68 y_11_ + [ 1 x_11_ ^ 2 + 1 y_11_ ^ 2 ] <= 20040.099999999995
c111: 156 x_12_ + 68 y_12_ + [ 1 x_12_ ^ 2 + 1 y_12_ ^ 2 ] <= 22814.761299772566
c112: 156 x_13_ + 68 y_13_ + [ 1 x_13_ ^ 2 + 1 y_13_ ^ 2 ] <= 37773.59075564581
c113: 156 x_14_ + 68 y_14_ + [ 1 x_14_ ^ 2 + 1 y_14_ ^ 2 ] <= 5974.846820455556
c114: 156 x_15_ + 68 y_15_ + [ 1 x_15_ ^ 2 + 1 y_15_ ^ 2 ] <= 11643.904890629598
c115: 156 x_16_ + 68 y_16_ + [ 1 x_16_ ^ 2 + 1 y_16_ ^ 2 ] <= 19972.18569967152
c116: 156 x_17_ + 68 y_17_ + [ 1 x_17_ ^ 2 + 1 y_17_ ^ 2 ] <= 39731.05024036939
c117: 156 x_18_ + 68 y_18_ + [ 1 x_18_ ^ 2 + 1 y_18_ ^ 2 ] <= 9878.886733599524
c118: 156 x_19_ + 68 y_19_ + [ 1 x_19_ ^ 2 + 1 y_19_ ^ 2 ] <= 1227.2206605432311
c119: 156 x_20_ + 68 y_20_ + [ 1 x_20_ ^ 2 + 1 y_20_ ^ 2 ] <= -5796.71
c120: 156 x_21_ + 68 y_21_ + [ 1 x_21_ ^ 2 + 1 y_21_ ^ 2 ] <= 25212.808861902045
c121: 156 x_22_ + 68 y_22_ + [ 1 x_22_ ^ 2 + 1 y_22_ ^ 2 ] <= -1437.8458281349522
c122: 156 x_23_ + 68 y_23_ + [ 1 x_23_ ^ 2 + 1 y_23_ ^ 2 ] <= 20971.529948378564
c123: 156 x_24_ + 68 y_24_ + [ 1 x_24_ ^ 2 + 1 y_24_ ^ 2 ] <= 9426.373106692008
c124: 156 x_25_ + 68 y_25_ + [ 1 x_25_ ^ 2 + 1 y_25_ ^ 2 ] <= 32130.009998753492
c125: 156 x_26_ + 68 y_26_ + [ 1 x_26_ ^ 2 + 1 y_26_ ^ 2 ] <= 5672.849999999997
c126: 156 x_28_ + 68 y_28_ + [ 1 x_28_ ^ 2 + 1 y_28_ ^ 2 ] <= 9057.359999999995
c127: 156 x_29_ + 68 y_29_ + [ 1 x_29_ ^ 2 + 1 y_29_ ^ 2 ] <= 14045.261383662899
c128: 156 x_30_ + 68 y_30_ + [ 1 x_30_ ^ 2 + 1 y_30_ ^ 2 ] <= 26012.060889199027
c129: 156 x_31_ + 68 y_31_ + [ 1 x_31_ ^ 2 + 1 y_31_ ^ 2 ] <= 26997.717174561476
c130: 156 x_32_ + 68 y_32_ + [ 1 x_32_ ^ 2 + 1 y_32_ ^ 2 ] <= 2036.7408628527082
c131: 156 x_33_ + 68 y_33_ + [ 1 x_33_ ^ 2 + 1 y_33_ ^ 2 ] <= -1999.1100000000015
c132: 156 x_34_ + 68 y_34_ + [ 1 x_34_ ^ 2 + 1 y_34_ ^ 2 ] <= 19356.329999999987
c133: 156 x_35_ + 68 y_35_ + [ 1 x_35_ ^ 2 + 1 y_35_ ^ 2 ] <= -6117.040456219572
c134: 156 x_36_ + 68 y_36_ + [ 1 x_36_ ^ 2 + 1 y_36_ ^ 2 ] <= 13323.3998139527
c135: 156 x_37_ + 68 y_37_ + [ 1 x_37_ ^ 2 + 1 y_37_ ^ 2 ] <= 10497.504393872754
c136: 156 x_38_ + 68 y_38_ + [ 1 x_38_ ^ 2 + 1 y_38_ ^ 2 ] <= -419.9927089768735
c137: 156 x_39_ + 68 y_39_ + [ 1 x_39_ ^ 2 + 1 y_39_ ^ 2 ] <= -829.2775116714465
c138: 156 x_40_ + 68 y_40_ + [ 1 x_40_ ^ 2 + 1 y_40_ ^ 2 ] <= 14214.36933171576
c139: 156 x_41_ + 68 y_41_ + [ 1 x_41_ ^ 2 + 1 y_41_ ^ 2 ] <= -3797.259602082537
c140: 156 x_42_ + 68 y_42_ + [ 1 x_42_ ^ 2 + 1 y_42_ ^ 2 ] <= 19096.815047247932
c141: 156 x_43_ + 68 y_43_ + [ 1 x_43_ ^ 2 + 1 y_43_ ^ 2 ] <= 955.2901930321295
c142: 156 x_44_ + 68 y_44_ + [ 1 x_44_ ^ 2 + 1 y_44_ ^ 2 ] <= 12869.440283352887
c143: 156 x_45_ + 68 y_45_ + [ 1 x_45_ ^ 2 + 1 y_45_ ^ 2 ] <= 16840.250971552086
c144: 156 x_46_ + 68 y_46_ + [ 1 x_46_ ^ 2 + 1 y_46_ ^ 2 ] <= 23922.33019229551
c145: 156 x_47_ + 68 y_47_ + [ 1 x_47_ ^ 2 + 1 y_47_ ^ 2 ] <= -5863.822073834293
c146: 156 x_48_ + 68 y_48_ + [ 1 x_48_ ^ 2 + 1 y_48_ ^ 2 ] <= -6992.55
c147: 156 x_49_ + 68 y_49_ + [ 1 x_49_ ^ 2 + 1 y_49_ ^ 2 ] <= 10605.923715052857
c148: 156 x_50_ + 68 y_50_ + [ 1 x_50_ ^ 2 + 1 y_50_ ^ 2 ] <= -800.62192647353
c149: 156 x_51_ + 68 y_51_ + [ 1 x_51_ ^ 2 + 1 y_51_ ^ 2 ] <= 20557.97137736873
c150: 156 x_52_ + 68 y_52_ + [ 1 x_52_ ^ 2 + 1 y_52_ ^ 2 ] <= 124.75275412048723
c151: 156 x_53_ + 68 y_53_ + [ 1 x_53_ ^ 2 + 1 y_53_ ^ 2 ] <= 17234.32
c152: 156 x_54_ + 68 y_54_ + [ 1 x_54_ ^ 2 + 1 y_54_ ^ 2 ] <= 5352.170377724346
c153: 156 x_55_ + 68 y_55_ + [ 1 x_55_ ^ 2 + 1 y_55_ ^ 2 ] <= -6898.62
c154: 156 x_56_ + 68 y_56_ + [ 1 x_56_ ^ 2 + 1 y_56_ ^ 2 ] <= 5159.922774704382
c155: 156 x_57_ + 68 y_57_ + [ 1 x_57_ ^ 2 + 1 y_57_ ^ 2 ] <= 5313.312143653246
c156: 156 x_58_ + 68 y_58_ + [ 1 x_58_ ^ 2 + 1 y_58_ ^ 2 ] <= 15221.72786160485
c157: 156 x_59_ + 68 y_59_ + [ 1 x_59_ ^ 2 + 1 y_59_ ^ 2 ] <= 20422.889999999996
c158: 156 x_60_ + 68 y_60_ + [ 1 x_60_ ^ 2 + 1 y_60_ ^ 2 ] <= 24939.510829684245
c159: 156 x_61_ + 68 y_61_ + [ 1 x_61_ ^ 2 + 1 y_61_ ^ 2 ] <= 15382.136074904225
c160: 156 x_62_ + 68 y_62_ + [ 1 x_62_ ^ 2 + 1 y_62_ ^ 2 ] <= 20452.841844907132
c161: 156 x_63_ + 68 y_63_ + [ 1 x_63_ ^ 2 + 1 y_63_ ^ 2 ] <= 5222.529545671221
c162: 156 x_64_ + 68 y_64_ + [ 1 x_64_ ^ 2 + 1 y_64_ ^ 2 ] <= 4481.234785493229
c163: 156 x_65_ + 68 y_65_ + [ 1 x_65_ ^ 2 + 1 y_65_ ^ 2 ] <= 13272.304073889958
c164: 156 x_66_ + 68 y_66_ + [ 1 x_66_ ^ 2 + 1 y_66_ ^ 2 ] <= 7556.5
c165: 156 x_67_ + 68 y_67_ + [ 1 x_67_ ^ 2 + 1 y_67_ ^ 2 ] <= 25000.503222755255
c166: 156 x_68_ + 68 y_68_ + [ 1 x_68_ ^ 2 + 1 y_68_ ^ 2 ] <= -5381.179170557148
c167: 156 x_69_ + 68 y_69_ + [ 1 x_69_ ^ 2 + 1 y_69_ ^ 2 ] <= -4392.395904840963
c168: 156 x_70_ + 68 y_70_ + [ 1 x_70_ ^ 2 + 1 y_70_ ^ 2 ] <= 9739.010809786872
c169: 156 x_71_ + 68 y_71_ + [ 1 x_71_ ^ 2 + 1 y_71_ ^ 2 ] <= 17365.822638687907
c170: 156 x_72_ + 68 y_72_ + [ 1 x_72_ ^ 2 + 1 y_72_ ^ 2 ] <= 4537.473762123054
c171: 156 x_73_ + 68 y_73_ + [ 1 x_73_ ^ 2 + 1 y_73_ ^ 2 ] <= 12757.792936079099
c172: 156 x_74_ + 68 y_74_ + [ 1 x_74_ ^ 2 + 1 y_74_ ^ 2 ] <= 4792.12254883192
c173: 156 x_75_ + 68 y_75_ + [ 1 x_75_ ^ 2 + 1 y_75_ ^ 2 ] <= 6898.895465998521
c174: 156 x_76_ + 68 y_76_ + [ 1 x_76_ ^ 2 + 1 y_76_ ^ 2 ] <= 13558.415057004178
c175: 156 x_77_ + 68 y_77_ + [ 1 x_77_ ^ 2 + 1 y_77_ ^ 2 ] <= 1656.2749015122463
c176: 156 x_78_ + 68 y_78_ + [ 1 x_78_ ^ 2 + 1 y_78_ ^ 2 ] <= -2288.294094581158
c177: 156 x_79_ + 68 y_79_ + [ 1 x_79_ ^ 2 + 1 y_79_ ^ 2 ] <= 2759.3299303754648
c178: 156 x_80_ + 68 y_80_ + [ 1 x_80_ ^ 2 + 1 y_80_ ^ 2 ] <= 9069.31060849154
c179: 156 x_81_ + 68 y_81_ + [ 1 x_81_ ^ 2 + 1 y_81_ ^ 2 ] <= 21556.019084904165
c180: 156 x_82_ + 68 y_82_ + [ 1 x_82_ ^ 2 + 1 y_82_ ^ 2 ] <= 4855.529432585738
c181: 156 x_83_ + 68 y_83_ + [ 1 x_83_ ^ 2 + 1 y_83_ ^ 2 ] <= 16698.39067594496
c182: 156 x_84_ + 68 y_84_ + [ 1 x_84_ ^ 2 + 1 y_84_ ^ 2 ] <= 4556.404301363806
c183: 156 x_85_ + 68 y_85_ + [ 1 x_85_ ^ 2 + 1 y_85_ ^ 2 ] <= -5986.59
c184: 156 x_86_ + 68 y_86_ + [ 1 x_86_ ^ 2 + 1 y_86_ ^ 2 ] <= 586.6572435895832
c185: 156 x_87_ + 68 y_87_ + [ 1 x_87_ ^ 2 + 1 y_87_ ^ 2 ] <= 4997.626380120559
c186: 156 x_88_ + 68 y_88_ + [ 1 x_88_ ^ 2 + 1 y_88_ ^ 2 ] <= 5422.844357696864
c187: 156 x_89_ + 68 y_89_ + [ 1 x_89_ ^ 2 + 1 y_89_ ^ 2 ] <= 25869.710766578035
c188: 156 x_90_ + 68 y_90_ + [ 1 x_90_ ^ 2 + 1 y_90_ ^ 2 ] <= 17950.958527552993
c189: 156 x_91_ + 68 y_91_ + [ 1 x_91_ ^ 2 + 1 y_91_ ^ 2 ] <= 1688.3999999999996
c190: 156 x_92_ + 68 y_92_ + [ 1 x_92_ ^ 2 + 1 y_92_ ^ 2 ] <= 4180.981984069127
c191: 156 x_93_ + 68 y_93_ + [ 1 x_93_ ^ 2 + 1 y_93_ ^ 2 ] <= -1556.0674554957395
c192: 156 x_94_ + 68 y_94_ + [ 1 x_94_ ^ 2 + 1 y_94_ ^ 2 ] <= 17921.43724982464
c193: 156 x_95_ + 68 y_95_ + [ 1 x_95_ ^ 2 + 1 y_95_ ^ 2 ] <= 38036.77154881632
c194: 156 x_96_ + 68 y_96_ + [ 1 x_96_ ^ 2 + 1 y_96_ ^ 2 ] <= -3817.7833716518717
c195: 156 x_97_ + 68 y_97_ + [ 1 x_97_ ^ 2 + 1 y_97_ ^ 2 ] <= -3401.044814699712
c196: 156 x_98_ + 68 y_98_ + [ 1 x_98_ ^ 2 + 1 y_98_ ^ 2 ] <= -5290.700000000001
c197: 156 x_99_ + 68 y_99_ + [ 1 x_99_ ^ 2 + 1 y_99_ ^ 2 ] <= 17167.311559842405
c198: 156 x_100_ + 68 y_100_ + [ 1 x_100_ ^ 2 + 1 y_100_ ^ 2 ] <= 14951.204454712672
c199: 64 y_1_ + [ 1 x_1_ ^ 2 + 1 y_1_ ^ 2 ] <= 36029.90239474152
c200: 64 y_2_ + [ 1 x_2_ ^ 2 + 1 y_2_ ^ 2 ] <= 3349.3
c201: 64 y_3_ + [ 1 x_3_ ^ 2 + 1 y_3_ ^ 2 ] <= 7527.013082601532
c202: 64 y_4_ + [ 1 x_4_ ^ 2 + 1 y_4_ ^ 2 ] <= 3480.9047640230747
c203: 64 y_5_ + [ 1 x_5_ ^ 2 + 1 y_5_ ^ 2 ] <= 1162.3630069760902
c204: 64 y_6_ + [ 1 x_6_ ^ 2 + 1 y_6_ ^ 2 ] <= 10774.387113414083
c205: 64 y_7_ + [ 1 x_7_ ^ 2 + 1 y_7_ ^ 2 ] <= 3380.6099999999988
c206: 64 y_8_ + [ 1 x_8_ ^ 2 + 1 y_8_ ^ 2 ] <= 18844.358335324992
c207: 64 y_9_ + [ 1 x_9_ ^ 2 + 1 y_9_ ^ 2 ] <= 4477.312205768046
c208: 64 y_10_ + [ 1 x_10_ ^ 2 + 1 y_10_ ^ 2 ] <= 10642.369488422615
c209: 64 y_11_ + [ 1 x_11_ ^ 2 + 1 y_11_ ^ 2 ] <= 6904.499999999998
c210: 64 y_12_ + [ 1 x_12_ ^ 2 + 1 y_12_ ^ 2 ] <= 11574.730001210093
c211: 64 y_13_ + [ 1 x_13_ ^ 2 + 1 y_13_ ^ 2 ] <= 17199.043598841243
c212: 64 y_14_ + [ 1 x_14_ ^ 2 + 1 y_14_ ^ 2 ] <= 15808.490738944522
c213: 64 y_15_ + [ 1 x_15_ ^ 2 + 1 y_15_ ^ 2 ] <= 16281.747065164978
c214: 64 y_16_ + [ 1 x_16_ ^ 2 + 1 y_16_ ^ 2 ] <= 6467.033031314924
c215: 64 y_17_ + [ 1 x_17_ ^ 2 + 1 y_17_ ^ 2 ] <= 26276.36369614476
c216: 64 y_18_ + [ 1 x_18_ ^ 2 + 1 y_18_ ^ 2 ] <= 12012.712669984823
c217: 64 y_19_ + [ 1 x_19_ ^ 2 + 1 y_19_ ^ 2 ] <= -360.346621291691
c218: 64 y_20_ + [ 1 x_20_ ^ 2 + 1 y_20_ ^ 2 ] <= 1934.2899999999995
c219: 64 y_21_ + [ 1 x_21_ ^ 2 + 1 y_21_ ^ 2 ] <= 8956.82
c220: 64 y_22_ + [ 1 x_22_ ^ 2 + 1 y_22_ ^ 2 ] <= 8781.403607593149
c221: 64 y_23_ + [ 1 x_23_ ^ 2 + 1 y_23_ ^ 2 ] <= 7312.060819118216
c222: 64 y_24_ + [ 1 x_24_ ^ 2 + 1 y_24_ ^ 2 ] <= 11968.576733464122
c223: 64 y_25_ + [ 1 x_25_ ^ 2 + 1 y_25_ ^ 2 ] <= 16938.849999999995
c224: 64 y_26_ + [ 1 x_26_ ^ 2 + 1 y_26_ ^ 2 ] <= 16950.97
c225: 64 y_27_ + [ 1 x_27_ ^ 2 + 1 y_27_ ^ 2 ] <= 5415.37807352647
c226: 64 y_28_ + [ 1 x_28_ ^ 2 + 1 y_28_ ^ 2 ] <= 12296.785054747892
c227: 64 y_29_ + [ 1 x_29_ ^ 2 + 1 y_29_ ^ 2 ] <= 3440.2
c228: 64 y_30_ + [ 1 x_30_ ^ 2 + 1 y_30_ ^ 2 ] <= 10144.79604407157
c229: 64 y_31_ + [ 1 x_31_ ^ 2 + 1 y_31_ ^ 2 ] <= 19487.530502692
c230: 64 y_32_ + [ 1 x_32_ ^ 2 + 1 y_32_ ^ 2 ] <= 8741.40676133732
c231: 64 y_33_ + [ 1 x_33_ ^ 2 + 1 y_33_ ^ 2 ] <= 14970.896540260215
c232: 64 y_34_ + [ 1 x_34_ ^ 2 + 1 y_34_ ^ 2 ] <= 7243.282126154927
c233: 64 y_35_ + [ 1 x_35_ ^ 2 + 1 y_35_ ^ 2 ] <= 5748.506033485806
c234: 64 y_36_ + [ 1 x_36_ ^ 2 + 1 y_36_ ^ 2 ] <= 35910.72442664619
c235: 64 y_37_ + [ 1 x_37_ ^ 2 + 1 y_37_ ^ 2 ] <= 3621.428727250116
c236: 64 y_38_ + [ 1 x_38_ ^ 2 + 1 y_38_ ^ 2 ] <= -994.71
c237: 64 y_39_ + [ 1 x_39_ ^ 2 + 1 y_39_ ^ 2 ] <= 2420.028358072023
c238: 64 y_40_ + [ 1 x_40_ ^ 2 + 1 y_40_ ^ 2 ] <= 15827.249368804452
c239: 64 y_41_ + [ 1 x_41_ ^ 2 + 1 y_41_ ^ 2 ] <= 4372.241158027017
c240: 64 y_42_ + [ 1 x_42_ ^ 2 + 1 y_42_ ^ 2 ] <= 5706.639999999999
c241: 64 y_43_ + [ 1 x_43_ ^ 2 + 1 y_43_ ^ 2 ] <= 12067.619999999999
c242: 64 y_44_ + [ 1 x_44_ ^ 2 + 1 y_44_ ^ 2 ] <= 3153.8702046541657
c243: 64 y_45_ + [ 1 x_45_ ^ 2 + 1 y_45_ ^ 2 ] <= 27768.007433492192
c244: 64 y_46_ + [ 1 x_46_ ^ 2 + 1 y_46_ ^ 2 ] <= 23177.01078952193
c245: 64 y_47_ + [ 1 x_47_ ^ 2 + 1 y_47_ ^ 2 ] <= 1667.6499999999996
c246: 64 y_48_ + [ 1 x_48_ ^ 2 + 1 y_48_ ^ 2 ] <= 3138.21
c247: 64 y_49_ + [ 1 x_49_ ^ 2 + 1 y_49_ ^ 2 ] <= 19244.68
c248: 64 y_51_ + [ 1 x_51_ ^ 2 + 1 y_51_ ^ 2 ] <= 6455.049999999999
c249: 64 y_52_ + [ 1 x_52_ ^ 2 + 1 y_52_ ^ 2 ] <= 10224.152129167649
c250: 64 y_53_ + [ 1 x_53_ ^ 2 + 1 y_53_ ^ 2 ] <= 6939.181850943753
c251: 64 y_54_ + [ 1 x_54_ ^ 2 + 1 y_54_ ^ 2 ] <= 26628.956232783243
c252: 64 y_55_ + [ 1 x_55_ ^ 2 + 1 y_55_ ^ 2 ] <= 3808.8757273250776
c253: 64 y_56_ + [ 1 x_56_ ^ 2 + 1 y_56_ ^ 2 ] <= 14882.489999999996
c254: 64 y_57_ + [ 1 x_57_ ^ 2 + 1 y_57_ ^ 2 ] <= 107.05453403323827
c255: 64 y_58_ + [ 1 x_58_ ^ 2 + 1 y_58_ ^ 2 ] <= 4082.8119799445403
c256: 64 y_59_ + [ 1 x_59_ ^ 2 + 1 y_59_ ^ 2 ] <= 18275.322796427503
c257: 64 y_60_ + [ 1 x_60_ ^ 2 + 1 y_60_ ^ 2 ] <= 22075.99979812446
c258: 64 y_61_ + [ 1 x_61_ ^ 2 + 1 y_61_ ^ 2 ] <= 19539.599275190245
c259: 64 y_62_ + [ 1 x_62_ ^ 2 + 1 y_62_ ^ 2 ] <= 16446.634529595867
c260: 64 y_63_ + [ 1 x_63_ ^ 2 + 1 y_63_ ^ 2 ] <= 470.29345091862524
c261: 64 y_64_ + [ 1 x_64_ ^ 2 + 1 y_64_ ^ 2 ] <= -57.204219040579005
c262: 64 y_65_ + [ 1 x_65_ ^ 2 + 1 y_65_ ^ 2 ] <= 9157.214996532799
c263: 64 y_66_ + [ 1 x_66_ ^ 2 + 1 y_66_ ^ 2 ] <= 16297.769548852084
c264: 64 y_67_ + [ 1 x_67_ ^ 2 + 1 y_67_ ^ 2 ] <= 17949.882951901032
c265: 64 y_68_ + [ 1 x_68_ ^ 2 + 1 y_68_ ^ 2 ] <= 7837.582274116117
c266: 64 y_69_ + [ 1 x_69_ ^ 2 + 1 y_69_ ^ 2 ] <= 9872.203163400789
c267: 64 y_70_ + [ 1 x_70_ ^ 2 + 1 y_70_ ^ 2 ] <= 7272.597886706937
c268: 64 y_71_ + [ 1 x_71_ ^ 2 + 1 y_71_ ^ 2 ] <= 5508.322547981695
c269: 64 y_72_ + [ 1 x_72_ ^ 2 + 1 y_72_ ^ 2 ] <= 4568.369999999999
c270: 64 y_73_ + [ 1 x_73_ ^ 2 + 1 y_73_ ^ 2 ] <= 2945.3959942691886
c271: 64 y_74_ + [ 1 x_74_ ^ 2 + 1 y_74_ ^ 2 ] <= 10949.891249024473
c272: 64 y_75_ + [ 1 x_75_ ^ 2 + 1 y_75_ ^ 2 ] <= 16849.37156846011
c273: 64 y_76_ + [ 1 x_76_ ^ 2 + 1 y_76_ ^ 2 ] <= 10026.272481490147
c274: 64 y_77_ + [ 1 x_77_ ^ 2 + 1 y_77_ ^ 2 ] <= 707.1399999999996
c275: 64 y_78_ + [ 1 x_78_ ^ 2 + 1 y_78_ ^ 2 ] <= 3243.25
c276: 64 y_79_ + [ 1 x_79_ ^ 2 + 1 y_79_ ^ 2 ] <= 7623.1805105225685
c277: 64 y_80_ + [ 1 x_80_ ^ 2 + 1 y_80_ ^ 2 ] <= 18996.681379902275
c278: 64 y_81_ + [ 1 x_81_ ^ 2 + 1 y_81_ ^ 2 ] <= 15328.783364908224
c279: 64 y_82_ + [ 1 x_82_ ^ 2 + 1 y_82_ ^ 2 ] <= 15932.947738886505
c280: 64 y_83_ + [ 1 x_83_ ^ 2 + 1 y_83_ ^ 2 ] <= 19887.477787236865
c281: 64 y_84_ + [ 1 x_84_ ^ 2 + 1 y_84_ ^ 2 ] <= 14112.42281281162
c282: 64 y_85_ + [ 1 x_85_ ^ 2 + 1 y_85_ ^ 2 ] <= 10932.415606003247
c283: 64 y_86_ + [ 1 x_86_ ^ 2 + 1 y_86_ ^ 2 ] <= 11157.58370212726
c284: 64 y_87_ + [ 1 x_87_ ^ 2 + 1 y_87_ ^ 2 ] <= 5202.649999999998
c285: 64 y_88_ + [ 1 x_88_ ^ 2 + 1 y_88_ ^ 2 ] <= 4791.81193132953
c286: 64 y_89_ + [ 1 x_89_ ^ 2 + 1 y_89_ ^ 2 ] <= 10064.066355756919
c287: 64 y_90_ + [ 1 x_90_ ^ 2 + 1 y_90_ ^ 2 ] <= 11812.417270683183
c288: 64 y_91_ + [ 1 x_91_ ^ 2 + 1 y_91_ ^ 2 ] <= -765.44
c289: 64 y_92_ + [ 1 x_92_ ^ 2 + 1 y_92_ ^ 2 ] <= 7285.870854089722
c290: 64 y_93_ + [ 1 x_93_ ^ 2 + 1 y_93_ ^ 2 ] <= 7395.359999999999
c291: 64 y_94_ + [ 1 x_94_ ^ 2 + 1 y_94_ ^ 2 ] <= 5552.061487822024
c292: 64 y_95_ + [ 1 x_95_ ^ 2 + 1 y_95_ ^ 2 ] <= 35465.833895703836
c293: 64 y_96_ + [ 1 x_96_ ^ 2 + 1 y_96_ ^ 2 ] <= 10975.478421312984
c294: 64 y_97_ + [ 1 x_97_ ^ 2 + 1 y_97_ ^ 2 ] <= 3913.973556178051
c295: 64 y_98_ + [ 1 x_98_ ^ 2 + 1 y_98_ ^ 2 ] <= 6733.935110828965
c296: 64 y_99_ + [ 1 x_99_ ^ 2 + 1 y_99_ ^ 2 ] <= 12555.449999999997
c297: 64 y_100_ + [ 1 x_100_ ^ 2 + 1 y_100_ ^ 2 ] <= 22250.511212006502
quadratic_ranged_1_ub: [ 1 x_1_ ^ 2 - 2 x_2_ * x_1_ + 1 x_2_ ^ 2 + 1 y_1_ ^ 2 - 2 y_2_ * y_1_ + 1 y_2_ ^ 2 ] <= 17489.16
quadratic_ranged_2_ub: [ 1 x_2_ ^ 2 - 2 x_3_ * x_2_ + 1 x_3_ ^ 2 + 1 y_2_ ^ 2 - 2 y_3_ * y_2_ + 1 y_3_ ^ 2 ] <= 17990.12
quadratic_ranged_3_ub: [ 1 x_3_ ^ 2 - 2 x_4_ * x_3_ + 1 x_4_ ^ 2 + 1 y_3_ ^ 2 - 2 y_4_ * y_3_ + 1 y_4_ ^ 2 ] <= 15769.130000000001
quadratic_ranged_4_ub: [ 1 x_3_ ^ 2 - 2 x_5_ * x_3_ + 1 x_5_ ^ 2 + 1 y_3_ ^ 2 - 2 y_5_ * y_3_ + 1 y_5_ ^ 2 ] <= 2089.69
quadratic_ranged_5_ub: [ 1 x_4_ ^ 2 - 2 x_5_ * x_4_ + 1 x_5_ ^ 2 + 1 y_4_ ^ 2 - 2 y_5_ * y_4_ + 1 y_5_ ^ 2 ] <= 7130.6
quadratic_ranged_6_ub: [ 1 x_5_ ^ 2 - 2 x_6_ * x_5_ + 1 x_6_ ^ 2 + 1 y_5_ ^ 2 - 2 y_6_ * y_5_ + 1 y_6_ ^ 2 ] <= 17479.06
quadratic_ranged_7_ub: [ 1 x_6_ ^ 2 - 2 x_7_ * x_6_ + 1 x_7_ ^ 2 + 1 y_6_ ^ 2 - 2 y_7_ * y_6_ + 1 y_7_ ^ 2 ] <= 30413.12
quadratic_ranged_8_ub: [ 1 x_3_ ^ 2 - 2 x_8_ * x_3_ + 1 x_8_ ^ 2 + 1 y_3_ ^ 2 - 2 y_8_ * y_3_ + 1 y_8_ ^ 2 ] <= 18989.01
quadratic_ranged_9_ub: [ 1 x_4_ ^ 2 - 2 x_8_ * x_4_ + 1 x_8_ ^ 2 + 1 y_4_ ^ 2 - 2 y_8_ * y_4_ + 1 y_8_ ^ 2 ] <= 33309.8
quadratic_ranged_10_ub: [ 1 x_7_ ^ 2 - 2 x_8_ * x_7_ + 1 x_8_ ^ 2 + 1 y_7_ ^ 2 - 2 y_8_ * y_7_ + 1 y_8_ ^ 2 ] <= 22205.86
quadratic_ranged_11_ub: [ 1 x_2_ ^ 2 - 2 x_9_ * x_2_ + 1 x_9_ ^ 2 + 1 y_2_ ^ 2 - 2 y_9_ * y_2_ + 1 y_9_ ^ 2 ] <= 64.64
quadratic_ranged_12_ub: [ 1 x_8_ ^ 2 - 2 x_9_ * x_8_ + 1 x_9_ ^ 2 + 1 y_8_ ^ 2 - 2 y_9_ * y_8_ + 1 y_9_ ^ 2 ] <= 29682.89
quadratic_ranged_13_ub: [ 1 x_9_ ^ 2 - 2 x_10_ * x_9_ + 1 x_10_ ^ 2 + 1 y_9_ ^ 2 - 2 y_10_ * y_9_ + 1 y_10_ ^ 2 ] <= 1204.93
quadratic_ranged_14_ub: [ 1 x_2_ ^ 2 - 2 x_11_ * x_2_ + 1 x_11_ ^ 2 + 1 y_2_ ^ 2 - 2 y_11_ * y_2_ + 1 y_11_ ^ 2 ] <= 21674.6
quadratic_ranged_15_ub: [ 1 x_5_ ^ 2 - 2 x_11_ * x_5_ + 1 x_11_ ^ 2 + 1 y_5_ ^ 2 - 2 y_11_ * y_5_ + 1 y_11_ ^ 2 ] <= 4368.25
quadratic_ranged_16_ub: [ 1 x_10_ ^ 2 - 2 x_11_ * x_10_ + 1 x_11_ ^ 2 + 1 y_10_ ^ 2 - 2 y_11_ * y_10_ + 1 y_11_ ^ 2 ] <= 26325.65
quadratic_ranged_17_ub: [ 1 x_7_ ^ 2 - 2 x_12_ * x_7_ + 1 x_12_ ^ 2 + 1 y_7_ ^ 2 - 2 y_12_ * y_7_ + 1 y_12_ ^ 2 ] <= 8849.62
quadratic_ranged_18_ub: [ 1 x_8_ ^ 2 - 2 x_12_ * x_8_ + 1 x_12_ ^ 2 + 1 y_8_ ^ 2 - 2 y_12_ * y_8_ + 1 y_12_ ^ 2 ] <= 3171.4
quadratic_ranged_19_ub: [ 1 x_11_ ^ 2 - 2 x_12_ * x_11_ + 1 x_12_ ^ 2 + 1 y_11_ ^ 2 - 2 y_12_ * y_11_ + 1 y_12_ ^ 2 ] <= 538.33
quadratic_ranged_20_ub: [ 1 x_3_ ^ 2 - 2 x_13_ * x_3_ + 1 x_13_ ^ 2 + 1 y_3_ ^ 2 - 2 y_13_ * y_3_ + 1 y_13_ ^ 2 ] <= 16447.85
quadratic_ranged_21_ub: [ 1 x_12_ ^ 2 - 2 x_13_ * x_12_ + 1 x_13_ ^ 2 + 1 y_12_ ^ 2 - 2 y_13_ * y_12_ + 1 y_13_ ^ 2 ] <= 34131.94
quadratic_ranged_22_ub: [ 1 x_4_ ^ 2 - 2 x_14_ * x_4_ + 1 x_14_ ^ 2 + 1 y_4_ ^ 2 - 2 y_14_ * y_4_ + 1 y_14_ ^ 2 ] <= 9603.08
quadratic_ranged_23_ub: [ 1 x_13_ ^ 2 - 2 x_14_ * x_13_ + 1 x_14_ ^ 2 + 1 y_13_ ^ 2 - 2 y_14_ * y_13_ + 1 y_14_ ^ 2 ] <= 24290.5
quadratic_ranged_24_ub: [ 1 x_14_ ^ 2 - 2 x_15_ * x_14_ + 1 x_15_ ^ 2 + 1 y_14_ ^ 2 - 2 y_15_ * y_14_ + 1 y_15_ ^ 2 ] <= 9955.57
quadratic_ranged_25_ub: [ 1 x_2_ ^ 2 - 2 x_16_ * x_2_ + 1 x_16_ ^ 2 + 1 y_2_ ^ 2 - 2 y_16_ * y_2_ + 1 y_16_ ^ 2 ] <= 18641.57
quadratic_ranged_26_ub: [ 1 x_15_ ^ 2 - 2 x_16_ * x_15_ + 1 x_16_ ^ 2 + 1 y_15_ ^ 2 - 2 y_16_ * y_15_ + 1 y_16_ ^ 2 ] <= 2025.05
quadratic_ranged_27_ub: [ 1 x_7_ ^ 2 - 2 x_17_ * x_7_ + 1 x_17_ ^ 2 + 1 y_7_ ^ 2 - 2 y_17_ * y_7_ + 1 y_17_ ^ 2 ] <= 27472
quadratic_ranged_28_ub: [ 1 x_13_ ^ 2 - 2 x_17_ * x_13_ + 1 x_17_ ^ 2 + 1 y_13_ ^ 2 - 2 y_17_ * y_13_ + 1 y_17_ ^ 2 ] <= 58773.92
quadratic_ranged_29_ub: [ 1 x_16_ ^ 2 - 2 x_17_ * x_16_ + 1 x_17_ ^ 2 + 1 y_16_ ^ 2 - 2 y_17_ * y_16_ + 1 y_17_ ^ 2 ] <= 21157.48
quadratic_ranged_30_ub: [ 1 x_6_ ^ 2 - 2 x_18_ * x_6_ + 1 x_18_ ^ 2 + 1 y_6_ ^ 2 - 2 y_18_ * y_6_ + 1 y_18_ ^ 2 ] <= 12997.69
quadratic_ranged_31_ub: [ 1 x_11_ ^ 2 - 2 x_18_ * x_11_ + 1 x_18_ ^ 2 + 1 y_11_ ^ 2 - 2 y_18_ * y_11_ + 1 y_18_ ^ 2 ] <= 13057.28
quadratic_ranged_32_ub: [ 1 x_12_ ^ 2 - 2 x_18_ * x_12_ + 1 x_18_ ^ 2 + 1 y_12_ ^ 2 - 2 y_18_ * y_12_ + 1 y_18_ ^ 2 ] <= 10606.01
quadratic_ranged_33_ub: [ 1 x_17_ ^ 2 - 2 x_18_ * x_17_ + 1 x_18_ ^ 2 + 1 y_17_ ^ 2 - 2 y_18_ * y_17_ + 1 y_18_ ^ 2 ] <= 10791.85
quadratic_ranged_34_ub: [ 1 x_4_ ^ 2 - 2 x_19_ * x_4_ + 1 x_19_ ^ 2 + 1 y_4_ ^ 2 - 2 y_19_ * y_4_ + 1 y_19_ ^ 2 ] <= 2626
quadratic_ranged_35_ub: [ 1 x_10_ ^ 2 - 2 x_19_ * x_10_ + 1 x_19_ ^ 2 + 1 y_10_ ^ 2 - 2 y_19_ * y_10_ + 1 y_19_ ^ 2 ] <= 6764.9800000000005
quadratic_ranged_36_ub: [ 1 x_18_ ^ 2 - 2 x_19_ * x_18_ + 1 x_19_ ^ 2 + 1 y_18_ ^ 2 - 2 y_19_ * y_18_ + 1 y_19_ ^ 2 ] <= 8379.97
quadratic_ranged_37_ub: [ 1 x_18_ ^ 2 - 2 x_20_ * x_18_ + 1 x_20_ ^ 2 + 1 y_18_ ^ 2 - 2 y_20_ * y_18_ + 1 y_20_ ^ 2 ] <= 18415.33
quadratic_ranged_38_ub: [ 1 x_19_ ^ 2 - 2 x_20_ * x_19_ + 1 x_20_ ^ 2 + 1 y_19_ ^ 2 - 2 y_20_ * y_19_ + 1 y_20_ ^ 2 ] <= 2918.9
quadratic_ranged_39_ub: [ 1 x_1_ ^ 2 - 2 x_21_ * x_1_ + 1 x_21_ ^ 2 + 1 y_1_ ^ 2 - 2 y_21_ * y_1_ + 1 y_21_ ^ 2 ] <= 8572.88
quadratic_ranged_40_ub: [ 1 x_20_ ^ 2 - 2 x_21_ * x_20_ + 1 x_21_ ^ 2 + 1 y_20_ ^ 2 - 2 y_21_ * y_20_ + 1 y_21_ ^ 2 ] <= 22083.65
quadratic_ranged_41_ub: [ 1 x_3_ ^ 2 - 2 x_22_ * x_3_ + 1 x_22_ ^ 2 + 1 y_3_ ^ 2 - 2 y_22_ * y_3_ + 1 y_22_ ^ 2 ] <= 18972.85
quadratic_ranged_42_ub: [ 1 x_10_ ^ 2 - 2 x_22_ * x_10_ + 1 x_22_ ^ 2 + 1 y_10_ ^ 2 - 2 y_22_ * y_10_ + 1 y_22_ ^ 2 ] <= 6468.04
quadratic_ranged_43_ub: [ 1 x_15_ ^ 2 - 2 x_22_ * x_15_ + 1 x_22_ ^ 2 + 1 y_15_ ^ 2 - 2 y_22_ * y_15_ + 1 y_22_ ^ 2 ] <= 10791.85
quadratic_ranged_44_ub: [ 1 x_19_ ^ 2 - 2 x_22_ * x_19_ + 1 x_22_ ^ 2 + 1 y_19_ ^ 2 - 2 y_22_ * y_19_ + 1 y_22_ ^ 2 ] <= 5367.14
quadratic_ranged_45_ub: [ 1 x_21_ ^ 2 - 2 x_22_ * x_21_ + 1 x_22_ ^ 2 + 1 y_21_ ^ 2 - 2 y_22_ * y_21_ + 1 y_22_ ^ 2 ] <= 30373.73
quadratic_ranged_46_ub: [ 1 x_12_ ^ 2 - 2 x_23_ * x_12_ + 1 x_23_ ^ 2 + 1 y_12_ ^ 2 - 2 y_23_ * y_12_ + 1 y_23_ ^ 2 ] <= 792.85
quadratic_ranged_47_ub: [ 1 x_13_ ^ 2 - 2 x_23_ * x_13_ + 1 x_23_ ^ 2 + 1 y_13_ ^ 2 - 2 y_23_ * y_13_ + 1 y_23_ ^ 2 ] <= 28826.41
quadratic_ranged_48_ub: [ 1 x_22_ ^ 2 - 2 x_23_ * x_22_ + 1 x_23_ ^ 2 + 1 y_22_ ^ 2 - 2 y_23_ * y_22_ + 1 y_23_ ^ 2 ] <= 28087.09
quadratic_ranged_49_ub: [ 1 x_2_ ^ 2 - 2 x_24_ * x_2_ + 1 x_24_ ^ 2 + 1 y_2_ ^ 2 - 2 y_24_ * y_2_ + 1 y_24_ ^ 2 ] <= 14941.94
quadratic_ranged_50_ub: [ 1 x_7_ ^ 2 - 2 x_24_ * x_7_ + 1 x_24_ ^ 2 + 1 y_7_ ^ 2 - 2 y_24_ * y_7_ + 1 y_24_ ^ 2 ] <= 2267.45
quadratic_ranged_51_ub: [ 1 x_14_ ^ 2 - 2 x_24_ * x_14_ + 1 x_24_ ^ 2 + 1 y_14_ ^ 2 - 2 y_24_ * y_14_ + 1 y_24_ ^ 2 ] <= 26749.85
quadratic_ranged_52_ub: [ 1 x_23_ ^ 2 - 2 x_24_ * x_23_ + 1 x_24_ ^ 2 + 1 y_23_ ^ 2 - 2 y_24_ * y_23_ + 1 y_24_ ^ 2 ] <= 13061.32
quadratic_ranged_53_ub: [ 1 x_5_ ^ 2 - 2 x_25_ * x_5_ + 1 x_25_ ^ 2 + 1 y_5_ ^ 2 - 2 y_25_ * y_5_ + 1 y_25_ ^ 2 ] <= 17634.6
quadratic_ranged_54_ub: [ 1 x_10_ ^ 2 - 2 x_25_ * x_10_ + 1 x_25_ ^ 2 + 1 y_10_ ^ 2 - 2 y_25_ * y_10_ + 1 y_25_ ^ 2 ] <= 14497.54
quadratic_ranged_55_ub: [ 1 x_19_ ^ 2 - 2 x_25_ * x_19_ + 1 x_25_ ^ 2 + 1 y_19_ ^ 2 - 2 y_25_ * y_19_ + 1 y_25_ ^ 2 ] <= 15335.84
quadratic_ranged_56_ub: [ 1 x_24_ ^ 2 - 2 x_25_ * x_24_ + 1 x_25_ ^ 2 + 1 y_24_ ^ 2 - 2 y_25_ * y_24_ + 1 y_25_ ^ 2 ] <= 40409.090000000004
quadratic_ranged_57_ub: [ 1 x_5_ ^ 2 - 2 x_26_ * x_5_ + 1 x_26_ ^ 2 + 1 y_5_ ^ 2 - 2 y_26_ * y_5_ + 1 y_26_ ^ 2 ] <= 22343.22
quadratic_ranged_58_ub: [ 1 x_17_ ^ 2 - 2 x_26_ * x_17_ + 1 x_26_ ^ 2 + 1 y_17_ ^ 2 - 2 y_26_ * y_17_ + 1 y_26_ ^ 2 ] <= 29386.96
quadratic_ranged_59_ub: [ 1 x_19_ ^ 2 - 2 x_26_ * x_19_ + 1 x_26_ ^ 2 + 1 y_19_ ^ 2 - 2 y_26_ * y_19_ + 1 y_26_ ^ 2 ] <= 14166.26
quadratic_ranged_60_ub: [ 1 x_25_ ^ 2 - 2 x_26_ * x_25_ + 1 x_26_ ^ 2 + 1 y_25_ ^ 2 - 2 y_26_ * y_25_ + 1 y_26_ ^ 2 ] <= 9180.9
quadratic_ranged_61_ub: [ 1 x_5_ ^ 2 - 2 x_27_ * x_5_ + 1 x_27_ ^ 2 + 1 y_5_ ^ 2 - 2 y_27_ * y_5_ + 1 y_27_ ^ 2 ] <= 10719.13
quadratic_ranged_62_ub: [ 1 x_11_ ^ 2 - 2 x_27_ * x_11_ + 1 x_27_ ^ 2 + 1 y_11_ ^ 2 - 2 y_27_ * y_11_ + 1 y_27_ ^ 2 ] <= 27280.1
quadratic_ranged_63_ub: [ 1 x_20_ ^ 2 - 2 x_27_ * x_20_ + 1 x_27_ ^ 2 + 1 y_20_ ^ 2 - 2 y_27_ * y_20_ + 1 y_27_ ^ 2 ] <= 1443.29
quadratic_ranged_64_ub: [ 1 x_26_ ^ 2 - 2 x_27_ * x_26_ + 1 x_27_ ^ 2 + 1 y_26_ ^ 2 - 2 y_27_ * y_26_ + 1 y_27_ ^ 2 ] <= 12912.85
quadratic_ranged_65_ub: [ 1 x_18_ ^ 2 - 2 x_28_ * x_18_ + 1 x_28_ ^ 2 + 1 y_18_ ^ 2 - 2 y_28_ * y_18_ + 1 y_28_ ^ 2 ] <= 10.1
quadratic_ranged_66_ub: [ 1 x_24_ ^ 2 - 2 x_28_ * x_24_ + 1 x_28_ ^ 2 + 1 y_24_ ^ 2 - 2 y_28_ * y_24_ + 1 y_28_ ^ 2 ] <= 30788.84
quadratic_ranged_67_ub: [ 1 x_27_ ^ 2 - 2 x_28_ * x_27_ + 1 x_28_ ^ 2 + 1 y_27_ ^ 2 - 2 y_28_ * y_27_ + 1 y_28_ ^ 2 ] <= 16297.36
quadratic_ranged_68_ub: [ 1 x_25_ ^ 2 - 2 x_29_ * x_25_ + 1 x_29_ ^ 2 + 1 y_25_ ^ 2 - 2 y_29_ * y_25_ + 1 y_29_ ^ 2 ] <= 33460.29
quadratic_ranged_69_ub: [ 1 x_28_ ^ 2 - 2 x_29_ * x_28_ + 1 x_29_ ^ 2 + 1 y_28_ ^ 2 - 2 y_29_ * y_28_ + 1 y_29_ ^ 2 ] <= 26280.2
quadratic_ranged_70_ub: [ 1 x_5_ ^ 2 - 2 x_30_ * x_5_ + 1 x_30_ ^ 2 + 1 y_5_ ^ 2 - 2 y_30_ * y_5_ + 1 y_30_ ^ 2 ] <= 6565
quadratic_ranged_71_ub: [ 1 x_9_ ^ 2 - 2 x_30_ * x_9_ + 1 x_30_ ^ 2 + 1 y_9_ ^ 2 - 2 y_30_ * y_9_ + 1 y_30_ ^ 2 ] <= 25384.33
quadratic_ranged_72_ub: [ 1 x_29_ ^ 2 - 2 x_30_ * x_29_ + 1 x_30_ ^ 2 + 1 y_29_ ^ 2 - 2 y_30_ * y_29_ + 1 y_30_ ^ 2 ] <= 10246.45
quadratic_ranged_73_ub: [ 1 x_3_ ^ 2 - 2 x_31_ * x_3_ + 1 x_31_ ^ 2 + 1 y_3_ ^ 2 - 2 y_31_ * y_3_ + 1 y_31_ ^ 2 ] <= 11079.7
quadratic_ranged_74_ub: [ 1 x_20_ ^ 2 - 2 x_31_ * x_20_ + 1 x_31_ ^ 2 + 1 y_20_ ^ 2 - 2 y_31_ * y_20_ + 1 y_31_ ^ 2 ] <= 27784.09
quadratic_ranged_75_ub: [ 1 x_29_ ^ 2 - 2 x_31_ * x_29_ + 1 x_31_ ^ 2 + 1 y_29_ ^ 2 - 2 y_31_ * y_29_ + 1 y_31_ ^ 2 ] <= 17343.72
quadratic_ranged_76_ub: [ 1 x_30_ ^ 2 - 2 x_31_ * x_30_ + 1 x_31_ ^ 2 + 1 y_30_ ^ 2 - 2 y_31_ * y_30_ + 1 y_31_ ^ 2 ] <= 1629.13
quadratic_ranged_77_ub: [ 1 x_2_ ^ 2 - 2 x_32_ * x_2_ + 1 x_32_ ^ 2 + 1 y_2_ ^ 2 - 2 y_32_ * y_2_ + 1 y_32_ ^ 2 ] <= 1068.58
quadratic_ranged_78_ub: [ 1 x_19_ ^ 2 - 2 x_32_ * x_19_ + 1 x_32_ ^ 2 + 1 y_19_ ^ 2 - 2 y_32_ * y_19_ + 1 y_32_ ^ 2 ] <= 6897.29
quadratic_ranged_79_ub: [ 1 x_28_ ^ 2 - 2 x_32_ * x_28_ + 1 x_32_ ^ 2 + 1 y_28_ ^ 2 - 2 y_32_ * y_28_ + 1 y_32_ ^ 2 ] <= 10027.28
quadratic_ranged_80_ub: [ 1 x_30_ ^ 2 - 2 x_32_ * x_30_ + 1 x_32_ ^ 2 + 1 y_30_ ^ 2 - 2 y_32_ * y_30_ + 1 y_32_ ^ 2 ] <= 33092.65
quadratic_ranged_81_ub: [ 1 x_31_ ^ 2 - 2 x_32_ * x_31_ + 1 x_32_ ^ 2 + 1 y_31_ ^ 2 - 2 y_32_ * y_31_ + 1 y_32_ ^ 2 ] <= 29815.2
quadratic_ranged_82_ub: [ 1 x_23_ ^ 2 - 2 x_33_ * x_23_ + 1 x_33_ ^ 2 + 1 y_23_ ^ 2 - 2 y_33_ * y_23_ + 1 y_33_ ^ 2 ] <= 34870.25
quadratic_ranged_83_ub: [ 1 x_27_ ^ 2 - 2 x_33_ * x_27_ + 1 x_33_ ^ 2 + 1 y_27_ ^ 2 - 2 y_33_ * y_27_ + 1 y_33_ ^ 2 ] <= 5240.89
quadratic_ranged_84_ub: [ 1 x_32_ ^ 2 - 2 x_33_ * x_32_ + 1 x_33_ ^ 2 + 1 y_32_ ^ 2 - 2 y_33_ * y_32_ + 1 y_33_ ^ 2 ] <= 764.57
quadratic_ranged_85_ub: [ 1 x_12_ ^ 2 - 2 x_34_ * x_12_ + 1 x_34_ ^ 2 + 1 y_12_ ^ 2 - 2 y_34_ * y_12_ + 1 y_34_ ^ 2 ] <= 8760.74
quadratic_ranged_86_ub: [ 1 x_15_ ^ 2 - 2 x_34_ * x_15_ + 1 x_34_ ^ 2 + 1 y_15_ ^ 2 - 2 y_34_ * y_15_ + 1 y_34_ ^ 2 ] <= 4453.09
quadratic_ranged_87_ub: [ 1 x_18_ ^ 2 - 2 x_34_ * x_18_ + 1 x_34_ ^ 2 + 1 y_18_ ^ 2 - 2 y_34_ * y_18_ + 1 y_34_ ^ 2 ] <= 27662.89
quadratic_ranged_88_ub: [ 1 x_24_ ^ 2 - 2 x_34_ * x_24_ + 1 x_34_ ^ 2 + 1 y_24_ ^ 2 - 2 y_34_ * y_24_ + 1 y_34_ ^ 2 ] <= 4247.05
quadratic_ranged_89_ub: [ 1 x_27_ ^ 2 - 2 x_34_ * x_27_ + 1 x_34_ ^ 2 + 1 y_27_ ^ 2 - 2 y_34_ * y_27_ + 1 y_34_ ^ 2 ] <= 26596.33
quadratic_ranged_90_ub: [ 1 x_30_ ^ 2 - 2 x_34_ * x_30_ + 1 x_34_ ^ 2 + 1 y_30_ ^ 2 - 2 y_34_ * y_30_ + 1 y_34_ ^ 2 ] <= 6530.66
quadratic_ranged_91_ub: [ 1 x_33_ ^ 2 - 2 x_34_ * x_33_ + 1 x_34_ ^ 2 + 1 y_33_ ^ 2 - 2 y_34_ * y_33_ + 1 y_34_ ^ 2 ] <= 42494.74
quadratic_ranged_92_ub: [ 1 x_2_ ^ 2 - 2 x_35_ * x_2_ + 1 x_35_ ^ 2 + 1 y_2_ ^ 2 - 2 y_35_ * y_2_ + 1 y_35_ ^ 2 ] <= 906.98
quadratic_ranged_93_ub: [ 1 x_4_ ^ 2 - 2 x_35_ * x_4_ + 1 x_35_ ^ 2 + 1 y_4_ ^ 2 - 2 y_35_ * y_4_ + 1 y_35_ ^ 2 ] <= 392.89
quadratic_ranged_94_ub: [ 1 x_12_ ^ 2 - 2 x_35_ * x_12_ + 1 x_35_ ^ 2 + 1 y_12_ ^ 2 - 2 y_35_ * y_12_ + 1 y_35_ ^ 2 ] <= 30062.65
quadratic_ranged_95_ub: [ 1 x_15_ ^ 2 - 2 x_35_ * x_15_ + 1 x_35_ ^ 2 + 1 y_15_ ^ 2 - 2 y_35_ * y_15_ + 1 y_35_ ^ 2 ] <= 10796.9
quadratic_ranged_96_ub: [ 1 x_20_ ^ 2 - 2 x_35_ * x_20_ + 1 x_35_ ^ 2 + 1 y_20_ ^ 2 - 2 y_35_ * y_20_ + 1 y_35_ ^ 2 ] <= 1083.73
quadratic_ranged_97_ub: [ 1 x_29_ ^ 2 - 2 x_35_ * x_29_ + 1 x_35_ ^ 2 + 1 y_29_ ^ 2 - 2 y_35_ * y_29_ + 1 y_35_ ^ 2 ] <= 16648.84
quadratic_ranged_98_ub: [ 1 x_34_ ^ 2 - 2 x_35_ * x_34_ + 1 x_35_ ^ 2 + 1 y_34_ ^ 2 - 2 y_35_ * y_34_ + 1 y_35_ ^ 2 ] <= 25549.97
quadratic_ranged_99_ub: [ 1 x_35_ ^ 2 - 2 x_36_ * x_35_ + 1 x_36_ ^ 2 + 1 y_35_ ^ 2 - 2 y_36_ * y_35_ + 1 y_36_ ^ 2 ] <= 12075.56
quadratic_ranged_100_ub: [ 1 x_7_ ^ 2 - 2 x_37_ * x_7_ + 1 x_37_ ^ 2 + 1 y_7_ ^ 2 - 2 y_37_ * y_7_ + 1 y_37_ ^ 2 ] <= 8178.9800000000005
quadratic_ranged_101_ub: [ 1 x_9_ ^ 2 - 2 x_37_ * x_9_ + 1 x_37_ ^ 2 + 1 y_9_ ^ 2 - 2 y_37_ * y_9_ + 1 y_37_ ^ 2 ] <= 8331.49
quadratic_ranged_102_ub: [ 1 x_22_ ^ 2 - 2 x_37_ * x_22_ + 1 x_37_ ^ 2 + 1 y_22_ ^ 2 - 2 y_37_ * y_22_ + 1 y_37_ ^ 2 ] <= 3250.18
quadratic_ranged_103_ub: [ 1 x_36_ ^ 2 - 2 x_37_ * x_36_ + 1 x_37_ ^ 2 + 1 y_36_ ^ 2 - 2 y_37_ * y_36_ + 1 y_37_ ^ 2 ] <= 18766.81
quadratic_ranged_104_ub: [ 1 x_4_ ^ 2 - 2 x_38_ * x_4_ + 1 x_38_ ^ 2 + 1 y_4_ ^ 2 - 2 y_38_ * y_4_ + 1 y_38_ ^ 2 ] <= 3807.7
quadratic_ranged_105_ub: [ 1 x_6_ ^ 2 - 2 x_38_ * x_6_ + 1 x_38_ ^ 2 + 1 y_6_ ^ 2 - 2 y_38_ * y_6_ + 1 y_38_ ^ 2 ] <= 12645.2
quadratic_ranged_106_ub: [ 1 x_18_ ^ 2 - 2 x_38_ * x_18_ + 1 x_38_ ^ 2 + 1 y_18_ ^ 2 - 2 y_38_ * y_18_ + 1 y_38_ ^ 2 ] <= 11830.13
quadratic_ranged_107_ub: [ 1 x_19_ ^ 2 - 2 x_38_ * x_19_ + 1 x_38_ ^ 2 + 1 y_19_ ^ 2 - 2 y_38_ * y_19_ + 1 y_38_ ^ 2 ] <= 414.1
quadratic_ranged_108_ub: [ 1 x_26_ ^ 2 - 2 x_38_ * x_26_ + 1 x_38_ ^ 2 + 1 y_26_ ^ 2 - 2 y_38_ * y_26_ + 1 y_38_ ^ 2 ] <= 19424.32
quadratic_ranged_109_ub: [ 1 x_28_ ^ 2 - 2 x_38_ * x_28_ + 1 x_38_ ^ 2 + 1 y_28_ ^ 2 - 2 y_38_ * y_28_ + 1 y_38_ ^ 2 ] <= 12100.81
quadratic_ranged_110_ub: [ 1 x_34_ ^ 2 - 2 x_38_ * x_34_ + 1 x_38_ ^ 2 + 1 y_34_ ^ 2 - 2 y_38_ * y_34_ + 1 y_38_ ^ 2 ] <= 7312.4
quadratic_ranged_111_ub: [ 1 x_37_ ^ 2 - 2 x_38_ * x_37_ + 1 x_38_ ^ 2 + 1 y_37_ ^ 2 - 2 y_38_ * y_37_ + 1 y_38_ ^ 2 ] <= 3936.98
quadratic_ranged_112_ub: [ 1 x_12_ ^ 2 - 2 x_39_ * x_12_ + 1 x_39_ ^ 2 + 1 y_12_ ^ 2 - 2 y_39_ * y_12_ + 1 y_39_ ^ 2 ] <= 22078.6
quadratic_ranged_113_ub: [ 1 x_32_ ^ 2 - 2 x_39_ * x_32_ + 1 x_39_ ^ 2 + 1 y_32_ ^ 2 - 2 y_39_ * y_32_ + 1 y_39_ ^ 2 ] <= 3374.41
quadratic_ranged_114_ub: [ 1 x_38_ ^ 2 - 2 x_39_ * x_38_ + 1 x_39_ ^ 2 + 1 y_38_ ^ 2 - 2 y_39_ * y_38_ + 1 y_39_ ^ 2 ] <= 2838.1
quadratic_ranged_115_ub: [ 1 x_18_ ^ 2 - 2 x_40_ * x_18_ + 1 x_40_ ^ 2 + 1 y_18_ ^ 2 - 2 y_40_ * y_18_ + 1 y_40_ ^ 2 ] <= 244.42000000000002
quadratic_ranged_116_ub: [ 1 x_20_ ^ 2 - 2 x_40_ * x_20_ + 1 x_40_ ^ 2 + 1 y_20_ ^ 2 - 2 y_40_ * y_20_ + 1 y_40_ ^ 2 ] <= 20548.45
quadratic_ranged_117_ub: [ 1 x_29_ ^ 2 - 2 x_40_ * x_29_ + 1 x_40_ ^ 2 + 1 y_29_ ^ 2 - 2 y_40_ * y_29_ + 1 y_40_ ^ 2 ] <= 30388.88
quadratic_ranged_118_ub: [ 1 x_31_ ^ 2 - 2 x_40_ * x_31_ + 1 x_40_ ^ 2 + 1 y_31_ ^ 2 - 2 y_40_ * y_31_ + 1 y_40_ ^ 2 ] <= 11009
quadratic_ranged_119_ub: [ 1 x_39_ ^ 2 - 2 x_40_ * x_39_ + 1 x_40_ ^ 2 + 1 y_39_ ^ 2 - 2 y_40_ * y_39_ + 1 y_40_ ^ 2 ] <= 15300.49
quadratic_ranged_120_ub: [ 1 x_34_ ^ 2 - 2 x_41_ * x_34_ + 1 x_41_ ^ 2 + 1 y_34_ ^ 2 - 2 y_41_ * y_34_ + 1 y_41_ ^ 2 ] <= 15599.45
quadratic_ranged_121_ub: [ 1 x_40_ ^ 2 - 2 x_41_ * x_40_ + 1 x_41_ ^ 2 + 1 y_40_ ^ 2 - 2 y_41_ * y_40_ + 1 y_41_ ^ 2 ] <= 13614.8
quadratic_ranged_122_ub: [ 1 x_1_ ^ 2 - 2 x_42_ * x_1_ + 1 x_42_ ^ 2 + 1 y_1_ ^ 2 - 2 y_42_ * y_1_ + 1 y_42_ ^ 2 ] <= 13527.94
quadratic_ranged_123_ub: [ 1 x_22_ ^ 2 - 2 x_42_ * x_22_ + 1 x_42_ ^ 2 + 1 y_22_ ^ 2 - 2 y_42_ * y_22_ + 1 y_42_ ^ 2 ] <= 21388.77
quadratic_ranged_124_ub: [ 1 x_25_ ^ 2 - 2 x_42_ * x_25_ + 1 x_42_ ^ 2 + 1 y_25_ ^ 2 - 2 y_42_ * y_25_ + 1 y_42_ ^ 2 ] <= 33205.77
quadratic_ranged_125_ub: [ 1 x_29_ ^ 2 - 2 x_42_ * x_29_ + 1 x_42_ ^ 2 + 1 y_29_ ^ 2 - 2 y_42_ * y_29_ + 1 y_42_ ^ 2 ] <= 618.12
quadratic_ranged_126_ub: [ 1 x_30_ ^ 2 - 2 x_42_ * x_30_ + 1 x_42_ ^ 2 + 1 y_30_ ^ 2 - 2 y_42_ * y_30_ + 1 y_42_ ^ 2 ] <= 7422.49
quadratic_ranged_127_ub: [ 1 x_31_ ^ 2 - 2 x_42_ * x_31_ + 1 x_42_ ^ 2 + 1 y_31_ ^ 2 - 2 y_42_ * y_31_ + 1 y_42_ ^ 2 ] <= 14689.44
quadratic_ranged_128_ub: [ 1 x_41_ ^ 2 - 2 x_42_ * x_41_ + 1 x_42_ ^ 2 + 1 y_41_ ^ 2 - 2 y_42_ * y_41_ + 1 y_42_ ^ 2 ] <= 13562.28
quadratic_ranged_129_ub: [ 1 x_9_ ^ 2 - 2 x_43_ * x_9_ + 1 x_43_ ^ 2 + 1 y_9_ ^ 2 - 2 y_43_ * y_9_ + 1 y_43_ ^ 2 ] <= 2638.12
quadratic_ranged_130_ub: [ 1 x_22_ ^ 2 - 2 x_43_ * x_22_ + 1 x_43_ ^ 2 + 1 y_22_ ^ 2 - 2 y_43_ * y_22_ + 1 y_43_ ^ 2 ] <= 8775.89
quadratic_ranged_131_ub: [ 1 x_36_ ^ 2 - 2 x_43_ * x_36_ + 1 x_43_ ^ 2 + 1 y_36_ ^ 2 - 2 y_43_ * y_36_ + 1 y_43_ ^ 2 ] <= 6983.14
quadratic_ranged_132_ub: [ 1 x_42_ ^ 2 - 2 x_43_ * x_42_ + 1 x_43_ ^ 2 + 1 y_42_ ^ 2 - 2 y_43_ * y_42_ + 1 y_43_ ^ 2 ] <= 38430.5
quadratic_ranged_133_ub: [ 1 x_13_ ^ 2 - 2 x_44_ * x_13_ + 1 x_44_ ^ 2 + 1 y_13_ ^ 2 - 2 y_44_ * y_13_ + 1 y_44_ ^ 2 ] <= 4950.01
quadratic_ranged_134_ub: [ 1 x_14_ ^ 2 - 2 x_44_ * x_14_ + 1 x_44_ ^ 2 + 1 y_14_ ^ 2 - 2 y_44_ * y_14_ + 1 y_44_ ^ 2 ] <= 23461.29
quadratic_ranged_135_ub: [ 1 x_37_ ^ 2 - 2 x_44_ * x_37_ + 1 x_44_ ^ 2 + 1 y_37_ ^ 2 - 2 y_44_ * y_37_ + 1 y_44_ ^ 2 ] <= 1701.85
quadratic_ranged_136_ub: [ 1 x_43_ ^ 2 - 2 x_44_ * x_43_ + 1 x_44_ ^ 2 + 1 y_43_ ^ 2 - 2 y_44_ * y_43_ + 1 y_44_ ^ 2 ] <= 27231.62
quadratic_ranged_137_ub: [ 1 x_4_ ^ 2 - 2 x_45_ * x_4_ + 1 x_45_ ^ 2 + 1 y_4_ ^ 2 - 2 y_45_ * y_4_ + 1 y_45_ ^ 2 ] <= 17147.78
quadratic_ranged_138_ub: [ 1 x_13_ ^ 2 - 2 x_45_ * x_13_ + 1 x_45_ ^ 2 + 1 y_13_ ^ 2 - 2 y_45_ * y_13_ + 1 y_45_ ^ 2 ] <= 26453.920000000002
quadratic_ranged_139_ub: [ 1 x_42_ ^ 2 - 2 x_45_ * x_42_ + 1 x_45_ ^ 2 + 1 y_42_ ^ 2 - 2 y_45_ * y_42_ + 1 y_45_ ^ 2 ] <= 7681.05
quadratic_ranged_140_ub: [ 1 x_44_ ^ 2 - 2 x_45_ * x_44_ + 1 x_45_ ^ 2 + 1 y_44_ ^ 2 - 2 y_45_ * y_44_ + 1 y_45_ ^ 2 ] <= 14080.41
quadratic_ranged_141_ub: [ 1 x_5_ ^ 2 - 2 x_46_ * x_5_ + 1 x_46_ ^ 2 + 1 y_5_ ^ 2 - 2 y_46_ * y_5_ + 1 y_46_ ^ 2 ] <= 11839.22
quadratic_ranged_142_ub: [ 1 x_8_ ^ 2 - 2 x_46_ * x_8_ + 1 x_46_ ^ 2 + 1 y_8_ ^ 2 - 2 y_46_ * y_8_ + 1 y_46_ ^ 2 ] <= 616.1
quadratic_ranged_143_ub: [ 1 x_17_ ^ 2 - 2 x_46_ * x_17_ + 1 x_46_ ^ 2 + 1 y_17_ ^ 2 - 2 y_46_ * y_17_ + 1 y_46_ ^ 2 ] <= 1616
quadratic_ranged_144_ub: [ 1 x_36_ ^ 2 - 2 x_46_ * x_36_ + 1 x_46_ ^ 2 + 1 y_36_ ^ 2 - 2 y_46_ * y_36_ + 1 y_46_ ^ 2 ] <= 5580.25
quadratic_ranged_145_ub: [ 1 x_44_ ^ 2 - 2 x_46_ * x_44_ + 1 x_46_ ^ 2 + 1 y_44_ ^ 2 - 2 y_46_ * y_44_ + 1 y_46_ ^ 2 ] <= 29125.37
quadratic_ranged_146_ub: [ 1 x_45_ ^ 2 - 2 x_46_ * x_45_ + 1 x_46_ ^ 2 + 1 y_45_ ^ 2 - 2 y_46_ * y_45_ + 1 y_46_ ^ 2 ] <= 3167.36
quadratic_ranged_147_ub: [ 1 x_14_ ^ 2 - 2 x_47_ * x_14_ + 1 x_47_ ^ 2 + 1 y_14_ ^ 2 - 2 y_47_ * y_14_ + 1 y_47_ ^ 2 ] <= 6062.02
quadratic_ranged_148_ub: [ 1 x_21_ ^ 2 - 2 x_47_ * x_21_ + 1 x_47_ ^ 2 + 1 y_21_ ^ 2 - 2 y_47_ * y_21_ + 1 y_47_ ^ 2 ] <= 22616.93
quadratic_ranged_149_ub: [ 1 x_23_ ^ 2 - 2 x_47_ * x_23_ + 1 x_47_ ^ 2 + 1 y_23_ ^ 2 - 2 y_47_ * y_23_ + 1 y_47_ ^ 2 ] <= 18185.05
quadratic_ranged_150_ub: [ 1 x_30_ ^ 2 - 2 x_47_ * x_30_ + 1 x_47_ ^ 2 + 1 y_30_ ^ 2 - 2 y_47_ * y_30_ + 1 y_47_ ^ 2 ] <= 21098.9
quadratic_ranged_151_ub: [ 1 x_41_ ^ 2 - 2 x_47_ * x_41_ + 1 x_47_ ^ 2 + 1 y_41_ ^ 2 - 2 y_47_ * y_41_ + 1 y_47_ ^ 2 ] <= 465.61
quadratic_ranged_152_ub: [ 1 x_46_ ^ 2 - 2 x_47_ * x_46_ + 1 x_47_ ^ 2 + 1 y_46_ ^ 2 - 2 y_47_ * y_46_ + 1 y_47_ ^ 2 ] <= 19460.68
quadratic_ranged_153_ub: [ 1 x_6_ ^ 2 - 2 x_48_ * x_6_ + 1 x_48_ ^ 2 + 1 y_6_ ^ 2 - 2 y_48_ * y_6_ + 1 y_48_ ^ 2 ] <= 2617.92
quadratic_ranged_154_ub: [ 1 x_7_ ^ 2 - 2 x_48_ * x_7_ + 1 x_48_ ^ 2 + 1 y_7_ ^ 2 - 2 y_48_ * y_7_ + 1 y_48_ ^ 2 ] <= 16160
quadratic_ranged_155_ub: [ 1 x_12_ ^ 2 - 2 x_48_ * x_12_ + 1 x_48_ ^ 2 + 1 y_12_ ^ 2 - 2 y_48_ * y_12_ + 1 y_48_ ^ 2 ] <= 24848.02
quadratic_ranged_156_ub: [ 1 x_21_ ^ 2 - 2 x_48_ * x_21_ + 1 x_48_ ^ 2 + 1 y_21_ ^ 2 - 2 y_48_ * y_21_ + 1 y_48_ ^ 2 ] <= 27032.65
quadratic_ranged_157_ub: [ 1 x_24_ ^ 2 - 2 x_48_ * x_24_ + 1 x_48_ ^ 2 + 1 y_24_ ^ 2 - 2 y_48_ * y_24_ + 1 y_48_ ^ 2 ] <= 12852.25
quadratic_ranged_158_ub: [ 1 x_27_ ^ 2 - 2 x_48_ * x_27_ + 1 x_48_ ^ 2 + 1 y_27_ ^ 2 - 2 y_48_ * y_27_ + 1 y_48_ ^ 2 ] <= 247.45
quadratic_ranged_159_ub: [ 1 x_35_ ^ 2 - 2 x_48_ * x_35_ + 1 x_48_ ^ 2 + 1 y_35_ ^ 2 - 2 y_48_ * y_35_ + 1 y_48_ ^ 2 ] <= 316.13
quadratic_ranged_160_ub: [ 1 x_46_ ^ 2 - 2 x_48_ * x_46_ + 1 x_48_ ^ 2 + 1 y_46_ ^ 2 - 2 y_48_ * y_46_ + 1 y_48_ ^ 2 ] <= 25856
quadratic_ranged_161_ub: [ 1 x_47_ ^ 2 - 2 x_48_ * x_47_ + 1 x_48_ ^ 2 + 1 y_47_ ^ 2 - 2 y_48_ * y_47_ + 1 y_48_ ^ 2 ] <= 456.52
quadratic_ranged_162_ub: [ 1 x_32_ ^ 2 - 2 x_49_ * x_32_ + 1 x_49_ ^ 2 + 1 y_32_ ^ 2 - 2 y_49_ * y_32_ + 1 y_49_ ^ 2 ] <= 6661.96
quadratic_ranged_163_ub: [ 1 x_38_ ^ 2 - 2 x_49_ * x_38_ + 1 x_49_ ^ 2 + 1 y_38_ ^ 2 - 2 y_49_ * y_38_ + 1 y_49_ ^ 2 ] <= 21821.05
quadratic_ranged_164_ub: [ 1 x_40_ ^ 2 - 2 x_49_ * x_40_ + 1 x_49_ ^ 2 + 1 y_40_ ^ 2 - 2 y_49_ * y_40_ + 1 y_49_ ^ 2 ] <= 3232
quadratic_ranged_165_ub: [ 1 x_48_ ^ 2 - 2 x_49_ * x_48_ + 1 x_49_ ^ 2 + 1 y_48_ ^ 2 - 2 y_49_ * y_48_ + 1 y_49_ ^ 2 ] <= 13890.53
quadratic_ranged_166_ub: [ 1 x_2_ ^ 2 - 2 x_50_ * x_2_ + 1 x_50_ ^ 2 + 1 y_2_ ^ 2 - 2 y_50_ * y_2_ + 1 y_50_ ^ 2 ] <= 4373.3
quadratic_ranged_167_ub: [ 1 x_7_ ^ 2 - 2 x_50_ * x_7_ + 1 x_50_ ^ 2 + 1 y_7_ ^ 2 - 2 y_50_ * y_7_ + 1 y_50_ ^ 2 ] <= 4404.61
quadratic_ranged_168_ub: [ 1 x_11_ ^ 2 - 2 x_50_ * x_11_ + 1 x_50_ ^ 2 + 1 y_11_ ^ 2 - 2 y_50_ * y_11_ + 1 y_50_ ^ 2 ] <= 7928.5
quadratic_ranged_169_ub: [ 1 x_20_ ^ 2 - 2 x_50_ * x_20_ + 1 x_50_ ^ 2 + 1 y_20_ ^ 2 - 2 y_50_ * y_20_ + 1 y_50_ ^ 2 ] <= 2958.29
quadratic_ranged_170_ub: [ 1 x_21_ ^ 2 - 2 x_50_ * x_21_ + 1 x_50_ ^ 2 + 1 y_21_ ^ 2 - 2 y_50_ * y_21_ + 1 y_50_ ^ 2 ] <= 9980.82
quadratic_ranged_171_ub: [ 1 x_25_ ^ 2 - 2 x_50_ * x_25_ + 1 x_50_ ^ 2 + 1 y_25_ ^ 2 - 2 y_50_ * y_25_ + 1 y_50_ ^ 2 ] <= 17962.85
quadratic_ranged_172_ub: [ 1 x_26_ ^ 2 - 2 x_50_ * x_26_ + 1 x_50_ ^ 2 + 1 y_26_ ^ 2 - 2 y_50_ * y_26_ + 1 y_50_ ^ 2 ] <= 17974.97
quadratic_ranged_173_ub: [ 1 x_29_ ^ 2 - 2 x_50_ * x_29_ + 1 x_50_ ^ 2 + 1 y_29_ ^ 2 - 2 y_50_ * y_29_ + 1 y_50_ ^ 2 ] <= 4464.2
quadratic_ranged_174_ub: [ 1 x_38_ ^ 2 - 2 x_50_ * x_38_ + 1 x_50_ ^ 2 + 1 y_38_ ^ 2 - 2 y_50_ * y_38_ + 1 y_50_ ^ 2 ] <= 29.29
quadratic_ranged_175_ub: [ 1 x_42_ ^ 2 - 2 x_50_ * x_42_ + 1 x_50_ ^ 2 + 1 y_42_ ^ 2 - 2 y_50_ * y_42_ + 1 y_50_ ^ 2 ] <= 6730.64
quadratic_ranged_176_ub: [ 1 x_43_ ^ 2 - 2 x_50_ * x_43_ + 1 x_50_ ^ 2 + 1 y_43_ ^ 2 - 2 y_50_ * y_43_ + 1 y_50_ ^ 2 ] <= 13091.62
quadratic_ranged_177_ub: [ 1 x_47_ ^ 2 - 2 x_50_ * x_47_ + 1 x_50_ ^ 2 + 1 y_47_ ^ 2 - 2 y_50_ * y_47_ + 1 y_50_ ^ 2 ] <= 2691.65
quadratic_ranged_178_ub: [ 1 x_48_ ^ 2 - 2 x_50_ * x_48_ + 1 x_50_ ^ 2 + 1 y_48_ ^ 2 - 2 y_50_ * y_48_ + 1 y_50_ ^ 2 ] <= 4162.21
quadratic_ranged_179_ub: [ 1 x_49_ ^ 2 - 2 x_50_ * x_49_ + 1 x_50_ ^ 2 + 1 y_49_ ^ 2 - 2 y_50_ * y_49_ + 1 y_50_ ^ 2 ] <= 20268.68
quadratic_ranged_180_ub: [ 1 x_8_ ^ 2 - 2 x_51_ * x_8_ + 1 x_51_ ^ 2 + 1 y_8_ ^ 2 - 2 y_51_ * y_8_ + 1 y_51_ ^ 2 ] <= 2967.38
quadratic_ranged_181_ub: [ 1 x_20_ ^ 2 - 2 x_51_ * x_20_ + 1 x_51_ ^ 2 + 1 y_20_ ^ 2 - 2 y_51_ * y_20_ + 1 y_51_ ^ 2 ] <= 19056.68
quadratic_ranged_182_ub: [ 1 x_38_ ^ 2 - 2 x_51_ * x_38_ + 1 x_51_ ^ 2 + 1 y_38_ ^ 2 - 2 y_51_ * y_38_ + 1 y_51_ ^ 2 ] <= 7966.88
quadratic_ranged_183_ub: [ 1 x_50_ ^ 2 - 2 x_51_ * x_50_ + 1 x_51_ ^ 2 + 1 y_50_ ^ 2 - 2 y_51_ * y_50_ + 1 y_51_ ^ 2 ] <= 7479.05
quadratic_ranged_184_ub: [ 1 x_2_ ^ 2 - 2 x_52_ * x_2_ + 1 x_52_ ^ 2 + 1 y_2_ ^ 2 - 2 y_52_ * y_2_ + 1 y_52_ ^ 2 ] <= 2838.1
quadratic_ranged_185_ub: [ 1 x_3_ ^ 2 - 2 x_52_ * x_3_ + 1 x_52_ ^ 2 + 1 y_3_ ^ 2 - 2 y_52_ * y_3_ + 1 y_52_ ^ 2 ] <= 25284.34
quadratic_ranged_186_ub: [ 1 x_13_ ^ 2 - 2 x_52_ * x_13_ + 1 x_52_ ^ 2 + 1 y_13_ ^ 2 - 2 y_52_ * y_13_ + 1 y_52_ ^ 2 ] <= 17336.65
quadratic_ranged_187_ub: [ 1 x_34_ ^ 2 - 2 x_52_ * x_34_ + 1 x_52_ ^ 2 + 1 y_34_ ^ 2 - 2 y_52_ * y_34_ + 1 y_52_ ^ 2 ] <= 32809.85
quadratic_ranged_188_ub: [ 1 x_41_ ^ 2 - 2 x_52_ * x_41_ + 1 x_52_ ^ 2 + 1 y_41_ ^ 2 - 2 y_52_ * y_41_ + 1 y_52_ ^ 2 ] <= 5817.6
quadratic_ranged_189_ub: [ 1 x_46_ ^ 2 - 2 x_52_ * x_46_ + 1 x_52_ ^ 2 + 1 y_46_ ^ 2 - 2 y_52_ * y_46_ + 1 y_52_ ^ 2 ] <= 16884.170000000002
quadratic_ranged_190_ub: [ 1 x_51_ ^ 2 - 2 x_52_ * x_51_ + 1 x_52_ ^ 2 + 1 y_51_ ^ 2 - 2 y_52_ * y_51_ + 1 y_52_ ^ 2 ] <= 13615.81
quadratic_ranged_191_ub: [ 1 x_14_ ^ 2 - 2 x_53_ * x_14_ + 1 x_53_ ^ 2 + 1 y_14_ ^ 2 - 2 y_53_ * y_14_ + 1 y_53_ ^ 2 ] <= 28826.41
quadratic_ranged_192_ub: [ 1 x_27_ ^ 2 - 2 x_53_ * x_27_ + 1 x_53_ ^ 2 + 1 y_27_ ^ 2 - 2 y_53_ * y_27_ + 1 y_53_ ^ 2 ] <= 24474.32
quadratic_ranged_193_ub: [ 1 x_38_ ^ 2 - 2 x_53_ * x_38_ + 1 x_53_ ^ 2 + 1 y_38_ ^ 2 - 2 y_53_ * y_38_ + 1 y_53_ ^ 2 ] <= 7026.57
quadratic_ranged_194_ub: [ 1 x_52_ ^ 2 - 2 x_53_ * x_52_ + 1 x_53_ ^ 2 + 1 y_52_ ^ 2 - 2 y_53_ * y_52_ + 1 y_53_ ^ 2 ] <= 33616.840000000004
quadratic_ranged_195_ub: [ 1 x_20_ ^ 2 - 2 x_54_ * x_20_ + 1 x_54_ ^ 2 + 1 y_20_ ^ 2 - 2 y_54_ * y_20_ + 1 y_54_ ^ 2 ] <= 19214.24
quadratic_ranged_196_ub: [ 1 x_33_ ^ 2 - 2 x_54_ * x_33_ + 1 x_54_ ^ 2 + 1 y_33_ ^ 2 - 2 y_54_ * y_33_ + 1 y_54_ ^ 2 ] <= 1585.7
quadratic_ranged_197_ub: [ 1 x_37_ ^ 2 - 2 x_54_ * x_37_ + 1 x_54_ ^ 2 + 1 y_37_ ^ 2 - 2 y_54_ * y_37_ + 1 y_54_ ^ 2 ] <= 30778.74
quadratic_ranged_198_ub: [ 1 x_41_ ^ 2 - 2 x_54_ * x_41_ + 1 x_54_ ^ 2 + 1 y_41_ ^ 2 - 2 y_54_ * y_41_ + 1 y_54_ ^ 2 ] <= 14088.49
quadratic_ranged_199_ub: [ 1 x_51_ ^ 2 - 2 x_54_ * x_51_ + 1 x_54_ ^ 2 + 1 y_51_ ^ 2 - 2 y_54_ * y_51_ + 1 y_54_ ^ 2 ] <= 21981.64
quadratic_ranged_200_ub: [ 1 x_53_ ^ 2 - 2 x_54_ * x_53_ + 1 x_54_ ^ 2 + 1 y_53_ ^ 2 - 2 y_54_ * y_53_ + 1 y_54_ ^ 2 ] <= 51414.05
quadratic_ranged_201_ub: [ 1 x_3_ ^ 2 - 2 x_55_ * x_3_ + 1 x_55_ ^ 2 + 1 y_3_ ^ 2 - 2 y_55_ * y_3_ + 1 y_55_ ^ 2 ] <= 16438.76
quadratic_ranged_202_ub: [ 1 x_17_ ^ 2 - 2 x_55_ * x_17_ + 1 x_55_ ^ 2 + 1 y_17_ ^ 2 - 2 y_55_ * y_17_ + 1 y_55_ ^ 2 ] <= 39439.49
quadratic_ranged_203_ub: [ 1 x_27_ ^ 2 - 2 x_55_ * x_27_ + 1 x_55_ ^ 2 + 1 y_27_ ^ 2 - 2 y_55_ * y_27_ + 1 y_55_ ^ 2 ] <= 341.38
quadratic_ranged_204_ub: [ 1 x_33_ ^ 2 - 2 x_55_ * x_33_ + 1 x_55_ ^ 2 + 1 y_33_ ^ 2 - 2 y_55_ * y_33_ + 1 y_55_ ^ 2 ] <= 5176.25
quadratic_ranged_205_ub: [ 1 x_34_ ^ 2 - 2 x_55_ * x_34_ + 1 x_55_ ^ 2 + 1 y_34_ ^ 2 - 2 y_55_ * y_34_ + 1 y_55_ ^ 2 ] <= 22035.170000000002
quadratic_ranged_206_ub: [ 1 x_38_ ^ 2 - 2 x_55_ * x_38_ + 1 x_55_ ^ 2 + 1 y_38_ ^ 2 - 2 y_55_ * y_38_ + 1 y_55_ ^ 2 ] <= 4109.69
quadratic_ranged_207_ub: [ 1 x_43_ ^ 2 - 2 x_55_ * x_43_ + 1 x_55_ ^ 2 + 1 y_43_ ^ 2 - 2 y_55_ * y_43_ + 1 y_55_ ^ 2 ] <= 5191.4
quadratic_ranged_208_ub: [ 1 x_52_ ^ 2 - 2 x_55_ * x_52_ + 1 x_55_ ^ 2 + 1 y_52_ ^ 2 - 2 y_55_ * y_52_ + 1 y_55_ ^ 2 ] <= 4534.9
quadratic_ranged_209_ub: [ 1 x_54_ ^ 2 - 2 x_55_ * x_54_ + 1 x_55_ ^ 2 + 1 y_54_ ^ 2 - 2 y_55_ * y_54_ + 1 y_55_ ^ 2 ] <= 11244.33
quadratic_ranged_210_ub: [ 1 x_2_ ^ 2 - 2 x_56_ * x_2_ + 1 x_56_ ^ 2 + 1 y_2_ ^ 2 - 2 y_56_ * y_2_ + 1 y_56_ ^ 2 ] <= 6198.37
quadratic_ranged_211_ub: [ 1 x_16_ ^ 2 - 2 x_56_ * x_16_ + 1 x_56_ ^ 2 + 1 y_16_ ^ 2 - 2 y_56_ * y_16_ + 1 y_56_ ^ 2 ] <= 35394.44
quadratic_ranged_212_ub: [ 1 x_34_ ^ 2 - 2 x_56_ * x_34_ + 1 x_56_ ^ 2 + 1 y_34_ ^ 2 - 2 y_56_ * y_34_ + 1 y_56_ ^ 2 ] <= 44642
quadratic_ranged_213_ub: [ 1 x_50_ ^ 2 - 2 x_56_ * x_50_ + 1 x_56_ ^ 2 + 1 y_50_ ^ 2 - 2 y_56_ * y_50_ + 1 y_56_ ^ 2 ] <= 15906.49
quadratic_ranged_214_ub: [ 1 x_55_ ^ 2 - 2 x_56_ * x_55_ + 1 x_56_ ^ 2 + 1 y_55_ ^ 2 - 2 y_56_ * y_55_ + 1 y_56_ ^ 2 ] <= 8626.41
quadratic_ranged_215_ub: [ 1 x_4_ ^ 2 - 2 x_57_ * x_4_ + 1 x_57_ ^ 2 + 1 y_4_ ^ 2 - 2 y_57_ * y_4_ + 1 y_57_ ^ 2 ] <= 8552.68
quadratic_ranged_216_ub: [ 1 x_18_ ^ 2 - 2 x_57_ * x_18_ + 1 x_57_ ^ 2 + 1 y_18_ ^ 2 - 2 y_57_ * y_18_ + 1 y_57_ ^ 2 ] <= 11357.45
quadratic_ranged_217_ub: [ 1 x_23_ ^ 2 - 2 x_57_ * x_23_ + 1 x_57_ ^ 2 + 1 y_23_ ^ 2 - 2 y_57_ * y_23_ + 1 y_57_ ^ 2 ] <= 3325.93
quadratic_ranged_218_ub: [ 1 x_28_ ^ 2 - 2 x_57_ * x_28_ + 1 x_57_ ^ 2 + 1 y_28_ ^ 2 - 2 y_57_ * y_28_ + 1 y_57_ ^ 2 ] <= 11797.81
quadratic_ranged_219_ub: [ 1 x_30_ ^ 2 - 2 x_57_ * x_30_ + 1 x_57_ ^ 2 + 1 y_30_ ^ 2 - 2 y_57_ * y_30_ + 1 y_57_ ^ 2 ] <= 5191.4
quadratic_ranged_220_ub: [ 1 x_47_ ^ 2 - 2 x_57_ * x_47_ + 1 x_57_ ^ 2 + 1 y_47_ ^ 2 - 2 y_57_ * y_47_ + 1 y_57_ ^ 2 ] <= 6853.86
quadratic_ranged_221_ub: [ 1 x_54_ ^ 2 - 2 x_57_ * x_54_ + 1 x_57_ ^ 2 + 1 y_54_ ^ 2 - 2 y_57_ * y_54_ + 1 y_57_ ^ 2 ] <= 25502.5
quadratic_ranged_222_ub: [ 1 x_56_ ^ 2 - 2 x_57_ * x_56_ + 1 x_57_ ^ 2 + 1 y_56_ ^ 2 - 2 y_57_ * y_56_ + 1 y_57_ ^ 2 ] <= 21721.06
quadratic_ranged_223_ub: [ 1 x_6_ ^ 2 - 2 x_58_ * x_6_ + 1 x_58_ ^ 2 + 1 y_6_ ^ 2 - 2 y_58_ * y_6_ + 1 y_58_ ^ 2 ] <= 26325.65
quadratic_ranged_224_ub: [ 1 x_25_ ^ 2 - 2 x_58_ * x_25_ + 1 x_58_ ^ 2 + 1 y_25_ ^ 2 - 2 y_58_ * y_25_ + 1 y_58_ ^ 2 ] <= 27796.21
quadratic_ranged_225_ub: [ 1 x_49_ ^ 2 - 2 x_58_ * x_49_ + 1 x_58_ ^ 2 + 1 y_49_ ^ 2 - 2 y_58_ * y_49_ + 1 y_58_ ^ 2 ] <= 37543.72
quadratic_ranged_226_ub: [ 1 x_56_ ^ 2 - 2 x_58_ * x_56_ + 1 x_58_ ^ 2 + 1 y_56_ ^ 2 - 2 y_58_ * y_56_ + 1 y_58_ ^ 2 ] <= 32325.05
quadratic_ranged_227_ub: [ 1 x_57_ ^ 2 - 2 x_58_ * x_57_ + 1 x_58_ ^ 2 + 1 y_57_ ^ 2 - 2 y_58_ * y_57_ + 1 y_58_ ^ 2 ] <= 1431.17
quadratic_ranged_228_ub: [ 1 x_3_ ^ 2 - 2 x_59_ * x_3_ + 1 x_59_ ^ 2 + 1 y_3_ ^ 2 - 2 y_59_ * y_3_ + 1 y_59_ ^ 2 ] <= 11781.65
quadratic_ranged_229_ub: [ 1 x_5_ ^ 2 - 2 x_59_ * x_5_ + 1 x_59_ ^ 2 + 1 y_5_ ^ 2 - 2 y_59_ * y_5_ + 1 y_59_ ^ 2 ] <= 8494.1
quadratic_ranged_230_ub: [ 1 x_13_ ^ 2 - 2 x_59_ * x_13_ + 1 x_59_ ^ 2 + 1 y_13_ ^ 2 - 2 y_59_ * y_13_ + 1 y_59_ ^ 2 ] <= 35895.4
quadratic_ranged_231_ub: [ 1 x_27_ ^ 2 - 2 x_59_ * x_27_ + 1 x_59_ ^ 2 + 1 y_27_ ^ 2 - 2 y_59_ * y_27_ + 1 y_59_ ^ 2 ] <= 27662.89
quadratic_ranged_232_ub: [ 1 x_58_ ^ 2 - 2 x_59_ * x_58_ + 1 x_59_ ^ 2 + 1 y_58_ ^ 2 - 2 y_59_ * y_58_ + 1 y_59_ ^ 2 ] <= 13761.25
quadratic_ranged_233_ub: [ 1 x_28_ ^ 2 - 2 x_60_ * x_28_ + 1 x_60_ ^ 2 + 1 y_28_ ^ 2 - 2 y_60_ * y_28_ + 1 y_60_ ^ 2 ] <= 7742.66
quadratic_ranged_234_ub: [ 1 x_43_ ^ 2 - 2 x_60_ * x_43_ + 1 x_60_ ^ 2 + 1 y_43_ ^ 2 - 2 y_60_ * y_43_ + 1 y_60_ ^ 2 ] <= 27977
quadratic_ranged_235_ub: [ 1 x_49_ ^ 2 - 2 x_60_ * x_49_ + 1 x_60_ ^ 2 + 1 y_49_ ^ 2 - 2 y_60_ * y_49_ + 1 y_60_ ^ 2 ] <= 23959.22
quadratic_ranged_236_ub: [ 1 x_59_ ^ 2 - 2 x_60_ * x_59_ + 1 x_60_ ^ 2 + 1 y_59_ ^ 2 - 2 y_60_ * y_59_ + 1 y_60_ ^ 2 ] <= 170.69
quadratic_ranged_237_ub: [ 1 x_21_ ^ 2 - 2 x_61_ * x_21_ + 1 x_61_ ^ 2 + 1 y_21_ ^ 2 - 2 y_61_ * y_21_ + 1 y_61_ ^ 2 ] <= 18160.81
quadratic_ranged_238_ub: [ 1 x_58_ ^ 2 - 2 x_61_ * x_58_ + 1 x_61_ ^ 2 + 1 y_58_ ^ 2 - 2 y_61_ * y_58_ + 1 y_61_ ^ 2 ] <= 7095.25
quadratic_ranged_239_ub: [ 1 x_59_ ^ 2 - 2 x_61_ * x_59_ + 1 x_61_ ^ 2 + 1 y_59_ ^ 2 - 2 y_61_ * y_59_ + 1 y_61_ ^ 2 ] <= 17543.7
quadratic_ranged_240_ub: [ 1 x_60_ ^ 2 - 2 x_61_ * x_60_ + 1 x_61_ ^ 2 + 1 y_60_ ^ 2 - 2 y_61_ * y_60_ + 1 y_61_ ^ 2 ] <= 20314.13
quadratic_ranged_241_ub: [ 1 x_22_ ^ 2 - 2 x_62_ * x_22_ + 1 x_62_ ^ 2 + 1 y_22_ ^ 2 - 2 y_62_ * y_22_ + 1 y_62_ ^ 2 ] <= 31261.52
quadratic_ranged_242_ub: [ 1 x_34_ ^ 2 - 2 x_62_ * x_34_ + 1 x_62_ ^ 2 + 1 y_34_ ^ 2 - 2 y_62_ * y_34_ + 1 y_62_ ^ 2 ] <= 24951.04
quadratic_ranged_243_ub: [ 1 x_48_ ^ 2 - 2 x_62_ * x_48_ + 1 x_62_ ^ 2 + 1 y_48_ ^ 2 - 2 y_62_ * y_48_ + 1 y_62_ ^ 2 ] <= 22704.8
quadratic_ranged_244_ub: [ 1 x_54_ ^ 2 - 2 x_62_ * x_54_ + 1 x_62_ ^ 2 + 1 y_54_ ^ 2 - 2 y_62_ * y_54_ + 1 y_62_ ^ 2 ] <= 16584.2
quadratic_ranged_245_ub: [ 1 x_60_ ^ 2 - 2 x_62_ * x_60_ + 1 x_62_ ^ 2 + 1 y_60_ ^ 2 - 2 y_62_ * y_60_ + 1 y_62_ ^ 2 ] <= 2291.69
quadratic_ranged_246_ub: [ 1 x_61_ ^ 2 - 2 x_62_ * x_61_ + 1 x_62_ ^ 2 + 1 y_61_ ^ 2 - 2 y_62_ * y_61_ + 1 y_62_ ^ 2 ] <= 19507.14
quadratic_ranged_247_ub: [ 1 x_2_ ^ 2 - 2 x_63_ * x_2_ + 1 x_63_ ^ 2 + 1 y_2_ ^ 2 - 2 y_63_ * y_2_ + 1 y_63_ ^ 2 ] <= 9712.16
quadratic_ranged_248_ub: [ 1 x_5_ ^ 2 - 2 x_63_ * x_5_ + 1 x_63_ ^ 2 + 1 y_5_ ^ 2 - 2 y_63_ * y_5_ + 1 y_63_ ^ 2 ] <= 65.65
quadratic_ranged_249_ub: [ 1 x_37_ ^ 2 - 2 x_63_ * x_37_ + 1 x_63_ ^ 2 + 1 y_37_ ^ 2 - 2 y_63_ * y_37_ + 1 y_63_ ^ 2 ] <= 7418.45
quadratic_ranged_250_ub: [ 1 x_41_ ^ 2 - 2 x_63_ * x_41_ + 1 x_63_ ^ 2 + 1 y_41_ ^ 2 - 2 y_63_ * y_41_ + 1 y_63_ ^ 2 ] <= 5092.42
quadratic_ranged_251_ub: [ 1 x_52_ ^ 2 - 2 x_63_ * x_52_ + 1 x_63_ ^ 2 + 1 y_52_ ^ 2 - 2 y_63_ * y_52_ + 1 y_63_ ^ 2 ] <= 14497.54
quadratic_ranged_252_ub: [ 1 x_56_ ^ 2 - 2 x_63_ * x_56_ + 1 x_63_ ^ 2 + 1 y_56_ ^ 2 - 2 y_63_ * y_56_ + 1 y_63_ ^ 2 ] <= 22665.41
quadratic_ranged_253_ub: [ 1 x_57_ ^ 2 - 2 x_63_ * x_57_ + 1 x_63_ ^ 2 + 1 y_57_ ^ 2 - 2 y_63_ * y_57_ + 1 y_63_ ^ 2 ] <= 25.25
quadratic_ranged_254_ub: [ 1 x_62_ ^ 2 - 2 x_63_ * x_62_ + 1 x_63_ ^ 2 + 1 y_62_ ^ 2 - 2 y_63_ * y_62_ + 1 y_63_ ^ 2 ] <= 13175.45
quadratic_ranged_255_ub: [ 1 x_8_ ^ 2 - 2 x_64_ * x_8_ + 1 x_64_ ^ 2 + 1 y_8_ ^ 2 - 2 y_64_ * y_8_ + 1 y_64_ ^ 2 ] <= 24192.53
quadratic_ranged_256_ub: [ 1 x_29_ ^ 2 - 2 x_64_ * x_29_ + 1 x_64_ ^ 2 + 1 y_29_ ^ 2 - 2 y_64_ * y_29_ + 1 y_64_ ^ 2 ] <= 1416.02
quadratic_ranged_257_ub: [ 1 x_38_ ^ 2 - 2 x_64_ * x_38_ + 1 x_64_ ^ 2 + 1 y_38_ ^ 2 - 2 y_64_ * y_38_ + 1 y_64_ ^ 2 ] <= 659.53
quadratic_ranged_258_ub: [ 1 x_39_ ^ 2 - 2 x_64_ * x_39_ + 1 x_64_ ^ 2 + 1 y_39_ ^ 2 - 2 y_64_ * y_39_ + 1 y_64_ ^ 2 ] <= 4933.85
quadratic_ranged_259_ub: [ 1 x_44_ ^ 2 - 2 x_64_ * x_44_ + 1 x_64_ ^ 2 + 1 y_44_ ^ 2 - 2 y_64_ * y_44_ + 1 y_64_ ^ 2 ] <= 1125.14
quadratic_ranged_260_ub: [ 1 x_47_ ^ 2 - 2 x_64_ * x_47_ + 1 x_64_ ^ 2 + 1 y_47_ ^ 2 - 2 y_64_ * y_47_ + 1 y_64_ ^ 2 ] <= 6145.85
quadratic_ranged_261_ub: [ 1 x_63_ ^ 2 - 2 x_64_ * x_63_ + 1 x_64_ ^ 2 + 1 y_63_ ^ 2 - 2 y_64_ * y_63_ + 1 y_64_ ^ 2 ] <= 1010
quadratic_ranged_262_ub: [ 1 x_8_ ^ 2 - 2 x_65_ * x_8_ + 1 x_65_ ^ 2 + 1 y_8_ ^ 2 - 2 y_65_ * y_8_ + 1 y_65_ ^ 2 ] <= 30901.96
quadratic_ranged_263_ub: [ 1 x_10_ ^ 2 - 2 x_65_ * x_10_ + 1 x_65_ ^ 2 + 1 y_10_ ^ 2 - 2 y_65_ * y_10_ + 1 y_65_ ^ 2 ] <= 4252.1
quadratic_ranged_264_ub: [ 1 x_18_ ^ 2 - 2 x_65_ * x_18_ + 1 x_65_ ^ 2 + 1 y_18_ ^ 2 - 2 y_65_ * y_18_ + 1 y_65_ ^ 2 ] <= 12670.45
quadratic_ranged_265_ub: [ 1 x_26_ ^ 2 - 2 x_65_ * x_26_ + 1 x_65_ ^ 2 + 1 y_26_ ^ 2 - 2 y_65_ * y_26_ + 1 y_65_ ^ 2 ] <= 13075.460000000001
quadratic_ranged_266_ub: [ 1 x_64_ ^ 2 - 2 x_65_ * x_64_ + 1 x_65_ ^ 2 + 1 y_64_ ^ 2 - 2 y_65_ * y_64_ + 1 y_65_ ^ 2 ] <= 4873.25
quadratic_ranged_267_ub: [ 1 x_21_ ^ 2 - 2 x_66_ * x_21_ + 1 x_66_ ^ 2 + 1 y_21_ ^ 2 - 2 y_66_ * y_21_ + 1 y_66_ ^ 2 ] <= 13582.48
quadratic_ranged_268_ub: [ 1 x_27_ ^ 2 - 2 x_66_ * x_27_ + 1 x_66_ ^ 2 + 1 y_27_ ^ 2 - 2 y_66_ * y_27_ + 1 y_66_ ^ 2 ] <= 14796.5
quadratic_ranged_269_ub: [ 1 x_33_ ^ 2 - 2 x_66_ * x_33_ + 1 x_66_ ^ 2 + 1 y_33_ ^ 2 - 2 y_66_ * y_33_ + 1 y_66_ ^ 2 ] <= 12694.69
quadratic_ranged_270_ub: [ 1 x_43_ ^ 2 - 2 x_66_ * x_43_ + 1 x_66_ ^ 2 + 1 y_43_ ^ 2 - 2 y_66_ * y_43_ + 1 y_66_ ^ 2 ] <= 11352.4
quadratic_ranged_271_ub: [ 1 x_52_ ^ 2 - 2 x_66_ * x_52_ + 1 x_66_ ^ 2 + 1 y_52_ ^ 2 - 2 y_66_ * y_52_ + 1 y_66_ ^ 2 ] <= 6304.42
quadratic_ranged_272_ub: [ 1 x_64_ ^ 2 - 2 x_66_ * x_64_ + 1 x_66_ ^ 2 + 1 y_64_ ^ 2 - 2 y_66_ * y_64_ + 1 y_66_ ^ 2 ] <= 10104.04
quadratic_ranged_273_ub: [ 1 x_65_ ^ 2 - 2 x_66_ * x_65_ + 1 x_66_ ^ 2 + 1 y_65_ ^ 2 - 2 y_66_ * y_65_ + 1 y_66_ ^ 2 ] <= 9781.85
quadratic_ranged_274_ub: [ 1 x_2_ ^ 2 - 2 x_67_ * x_2_ + 1 x_67_ ^ 2 + 1 y_2_ ^ 2 - 2 y_67_ * y_2_ + 1 y_67_ ^ 2 ] <= 23489.57
quadratic_ranged_275_ub: [ 1 x_9_ ^ 2 - 2 x_67_ * x_9_ + 1 x_67_ ^ 2 + 1 y_9_ ^ 2 - 2 y_67_ * y_9_ + 1 y_67_ ^ 2 ] <= 21954.37
quadratic_ranged_276_ub: [ 1 x_12_ ^ 2 - 2 x_67_ * x_12_ + 1 x_67_ ^ 2 + 1 y_12_ ^ 2 - 2 y_67_ * y_12_ + 1 y_67_ ^ 2 ] <= 5171.2
quadratic_ranged_277_ub: [ 1 x_16_ ^ 2 - 2 x_67_ * x_16_ + 1 x_67_ ^ 2 + 1 y_16_ ^ 2 - 2 y_67_ * y_16_ + 1 y_67_ ^ 2 ] <= 18634.5
quadratic_ranged_278_ub: [ 1 x_23_ ^ 2 - 2 x_67_ * x_23_ + 1 x_67_ ^ 2 + 1 y_23_ ^ 2 - 2 y_67_ * y_23_ + 1 y_67_ ^ 2 ] <= 9648.53
quadratic_ranged_279_ub: [ 1 x_34_ ^ 2 - 2 x_67_ * x_34_ + 1 x_67_ ^ 2 + 1 y_34_ ^ 2 - 2 y_67_ * y_34_ + 1 y_67_ ^ 2 ] <= 25631.78
quadratic_ranged_280_ub: [ 1 x_51_ ^ 2 - 2 x_67_ * x_51_ + 1 x_67_ ^ 2 + 1 y_51_ ^ 2 - 2 y_67_ * y_51_ + 1 y_67_ ^ 2 ] <= 2628.02
quadratic_ranged_281_ub: [ 1 x_66_ ^ 2 - 2 x_67_ * x_66_ + 1 x_67_ ^ 2 + 1 y_66_ ^ 2 - 2 y_67_ * y_66_ + 1 y_67_ ^ 2 ] <= 3354.21
quadratic_ranged_282_ub: [ 1 x_5_ ^ 2 - 2 x_68_ * x_5_ + 1 x_68_ ^ 2 + 1 y_5_ ^ 2 - 2 y_68_ * y_5_ + 1 y_68_ ^ 2 ] <= 12322
quadratic_ranged_283_ub: [ 1 x_6_ ^ 2 - 2 x_68_ * x_6_ + 1 x_68_ ^ 2 + 1 y_6_ ^ 2 - 2 y_68_ * y_6_ + 1 y_68_ ^ 2 ] <= 1197.86
quadratic_ranged_284_ub: [ 1 x_9_ ^ 2 - 2 x_68_ * x_9_ + 1 x_68_ ^ 2 + 1 y_9_ ^ 2 - 2 y_68_ * y_9_ + 1 y_68_ ^ 2 ] <= 780.73
quadratic_ranged_285_ub: [ 1 x_10_ ^ 2 - 2 x_68_ * x_10_ + 1 x_68_ ^ 2 + 1 y_10_ ^ 2 - 2 y_68_ * y_10_ + 1 y_68_ ^ 2 ] <= 2506.82
quadratic_ranged_286_ub: [ 1 x_12_ ^ 2 - 2 x_68_ * x_12_ + 1 x_68_ ^ 2 + 1 y_12_ ^ 2 - 2 y_68_ * y_12_ + 1 y_68_ ^ 2 ] <= 31144.36
quadratic_ranged_287_ub: [ 1 x_22_ ^ 2 - 2 x_68_ * x_22_ + 1 x_68_ ^ 2 + 1 y_22_ ^ 2 - 2 y_68_ * y_22_ + 1 y_68_ ^ 2 ] <= 1092.82
quadratic_ranged_288_ub: [ 1 x_38_ ^ 2 - 2 x_68_ * x_38_ + 1 x_68_ ^ 2 + 1 y_38_ ^ 2 - 2 y_68_ * y_38_ + 1 y_68_ ^ 2 ] <= 7871.9400000000005
quadratic_ranged_289_ub: [ 1 x_39_ ^ 2 - 2 x_68_ * x_39_ + 1 x_68_ ^ 2 + 1 y_39_ ^ 2 - 2 y_68_ * y_39_ + 1 y_68_ ^ 2 ] <= 1365.52
quadratic_ranged_290_ub: [ 1 x_44_ ^ 2 - 2 x_68_ * x_44_ + 1 x_68_ ^ 2 + 1 y_44_ ^ 2 - 2 y_68_ * y_44_ + 1 y_68_ ^ 2 ] <= 14064.25
quadratic_ranged_291_ub: [ 1 x_55_ ^ 2 - 2 x_68_ * x_55_ + 1 x_68_ ^ 2 + 1 y_55_ ^ 2 - 2 y_68_ * y_55_ + 1 y_68_ ^ 2 ] <= 607.01
quadratic_ranged_292_ub: [ 1 x_56_ ^ 2 - 2 x_68_ * x_56_ + 1 x_68_ ^ 2 + 1 y_56_ ^ 2 - 2 y_68_ * y_56_ + 1 y_68_ ^ 2 ] <= 7306.34
quadratic_ranged_293_ub: [ 1 x_58_ ^ 2 - 2 x_68_ * x_58_ + 1 x_68_ ^ 2 + 1 y_58_ ^ 2 - 2 y_68_ * y_58_ + 1 y_68_ ^ 2 ] <= 18589.05
quadratic_ranged_294_ub: [ 1 x_66_ ^ 2 - 2 x_68_ * x_66_ + 1 x_68_ ^ 2 + 1 y_66_ ^ 2 - 2 y_68_ * y_66_ + 1 y_68_ ^ 2 ] <= 14516.73
quadratic_ranged_295_ub: [ 1 x_67_ ^ 2 - 2 x_68_ * x_67_ + 1 x_68_ ^ 2 + 1 y_67_ ^ 2 - 2 y_68_ * y_67_ + 1 y_68_ ^ 2 ] <= 31015.08
quadratic_ranged_296_ub: [ 1 x_7_ ^ 2 - 2 x_69_ * x_7_ + 1 x_69_ ^ 2 + 1 y_7_ ^ 2 - 2 y_69_ * y_7_ + 1 y_69_ ^ 2 ] <= 20751.46
quadratic_ranged_297_ub: [ 1 x_11_ ^ 2 - 2 x_69_ * x_11_ + 1 x_69_ ^ 2 + 1 y_11_ ^ 2 - 2 y_69_ * y_11_ + 1 y_69_ ^ 2 ] <= 28802.170000000002
quadratic_ranged_298_ub: [ 1 x_18_ ^ 2 - 2 x_69_ * x_18_ + 1 x_69_ ^ 2 + 1 y_18_ ^ 2 - 2 y_69_ * y_18_ + 1 y_69_ ^ 2 ] <= 16859.93
quadratic_ranged_299_ub: [ 1 x_28_ ^ 2 - 2 x_69_ * x_28_ + 1 x_69_ ^ 2 + 1 y_28_ ^ 2 - 2 y_69_ * y_28_ + 1 y_69_ ^ 2 ] <= 16605.41
quadratic_ranged_300_ub: [ 1 x_40_ ^ 2 - 2 x_69_ * x_40_ + 1 x_69_ ^ 2 + 1 y_40_ ^ 2 - 2 y_69_ * y_40_ + 1 y_69_ ^ 2 ] <= 17659.85
quadratic_ranged_301_ub: [ 1 x_68_ ^ 2 - 2 x_69_ * x_68_ + 1 x_69_ ^ 2 + 1 y_68_ ^ 2 - 2 y_69_ * y_68_ + 1 y_69_ ^ 2 ] <= 105.04
quadratic_ranged_302_ub: [ 1 x_4_ ^ 2 - 2 x_70_ * x_4_ + 1 x_70_ ^ 2 + 1 y_4_ ^ 2 - 2 y_70_ * y_4_ + 1 y_70_ ^ 2 ] <= 11882.65
quadratic_ranged_303_ub: [ 1 x_11_ ^ 2 - 2 x_70_ * x_11_ + 1 x_70_ ^ 2 + 1 y_11_ ^ 2 - 2 y_70_ * y_11_ + 1 y_70_ ^ 2 ] <= 4040
quadratic_ranged_304_ub: [ 1 x_14_ ^ 2 - 2 x_70_ * x_14_ + 1 x_70_ ^ 2 + 1 y_14_ ^ 2 - 2 y_70_ * y_14_ + 1 y_70_ ^ 2 ] <= 16581.170000000002
quadratic_ranged_305_ub: [ 1 x_17_ ^ 2 - 2 x_70_ * x_17_ + 1 x_70_ ^ 2 + 1 y_17_ ^ 2 - 2 y_70_ * y_17_ + 1 y_70_ ^ 2 ] <= 23954.170000000002
quadratic_ranged_306_ub: [ 1 x_19_ ^ 2 - 2 x_70_ * x_19_ + 1 x_70_ ^ 2 + 1 y_19_ ^ 2 - 2 y_70_ * y_19_ + 1 y_70_ ^ 2 ] <= 4267.25
quadratic_ranged_307_ub: [ 1 x_48_ ^ 2 - 2 x_70_ * x_48_ + 1 x_70_ ^ 2 + 1 y_48_ ^ 2 - 2 y_70_ * y_48_ + 1 y_70_ ^ 2 ] <= 13126.97
quadratic_ranged_308_ub: [ 1 x_53_ ^ 2 - 2 x_70_ * x_53_ + 1 x_70_ ^ 2 + 1 y_53_ ^ 2 - 2 y_70_ * y_53_ + 1 y_70_ ^ 2 ] <= 1682.66
quadratic_ranged_309_ub: [ 1 x_69_ ^ 2 - 2 x_70_ * x_69_ + 1 x_70_ ^ 2 + 1 y_69_ ^ 2 - 2 y_70_ * y_69_ + 1 y_70_ ^ 2 ] <= 17514.41
quadratic_ranged_310_ub: [ 1 x_2_ ^ 2 - 2 x_71_ * x_2_ + 1 x_71_ ^ 2 + 1 y_2_ ^ 2 - 2 y_71_ * y_2_ + 1 y_71_ ^ 2 ] <= 19270.8
quadratic_ranged_311_ub: [ 1 x_13_ ^ 2 - 2 x_71_ * x_13_ + 1 x_71_ ^ 2 + 1 y_13_ ^ 2 - 2 y_71_ * y_13_ + 1 y_71_ ^ 2 ] <= 25533.81
quadratic_ranged_312_ub: [ 1 x_14_ ^ 2 - 2 x_71_ * x_14_ + 1 x_71_ ^ 2 + 1 y_14_ ^ 2 - 2 y_71_ * y_14_ + 1 y_71_ ^ 2 ] <= 12815.89
quadratic_ranged_313_ub: [ 1 x_19_ ^ 2 - 2 x_71_ * x_19_ + 1 x_71_ ^ 2 + 1 y_19_ ^ 2 - 2 y_71_ * y_19_ + 1 y_71_ ^ 2 ] <= 7297.25
quadratic_ranged_314_ub: [ 1 x_23_ ^ 2 - 2 x_71_ * x_23_ + 1 x_71_ ^ 2 + 1 y_23_ ^ 2 - 2 y_71_ * y_23_ + 1 y_71_ ^ 2 ] <= 123.22
quadratic_ranged_315_ub: [ 1 x_43_ ^ 2 - 2 x_71_ * x_43_ + 1 x_71_ ^ 2 + 1 y_43_ ^ 2 - 2 y_71_ * y_43_ + 1 y_71_ ^ 2 ] <= 29302.12
quadratic_ranged_316_ub: [ 1 x_48_ ^ 2 - 2 x_71_ * x_48_ + 1 x_71_ ^ 2 + 1 y_48_ ^ 2 - 2 y_71_ * y_48_ + 1 y_71_ ^ 2 ] <= 19918.21
quadratic_ranged_317_ub: [ 1 x_52_ ^ 2 - 2 x_71_ * x_52_ + 1 x_71_ ^ 2 + 1 y_52_ ^ 2 - 2 y_71_ * y_52_ + 1 y_71_ ^ 2 ] <= 21187.78
quadratic_ranged_318_ub: [ 1 x_53_ ^ 2 - 2 x_71_ * x_53_ + 1 x_71_ ^ 2 + 1 y_53_ ^ 2 - 2 y_71_ * y_53_ + 1 y_71_ ^ 2 ] <= 6676.1
quadratic_ranged_319_ub: [ 1 x_57_ ^ 2 - 2 x_71_ * x_57_ + 1 x_71_ ^ 2 + 1 y_57_ ^ 2 - 2 y_71_ * y_57_ + 1 y_71_ ^ 2 ] <= 2227.05
quadratic_ranged_320_ub: [ 1 x_61_ ^ 2 - 2 x_71_ * x_61_ + 1 x_71_ ^ 2 + 1 y_61_ ^ 2 - 2 y_71_ * y_61_ + 1 y_71_ ^ 2 ] <= 13070.41
quadratic_ranged_321_ub: [ 1 x_70_ ^ 2 - 2 x_71_ * x_70_ + 1 x_71_ ^ 2 + 1 y_70_ ^ 2 - 2 y_71_ * y_70_ + 1 y_71_ ^ 2 ] <= 2929
quadratic_ranged_322_ub: [ 1 x_4_ ^ 2 - 2 x_72_ * x_4_ + 1 x_72_ ^ 2 + 1 y_4_ ^ 2 - 2 y_72_ * y_4_ + 1 y_72_ ^ 2 ] <= 3046.16
quadratic_ranged_323_ub: [ 1 x_20_ ^ 2 - 2 x_72_ * x_20_ + 1 x_72_ ^ 2 + 1 y_20_ ^ 2 - 2 y_72_ * y_20_ + 1 y_72_ ^ 2 ] <= 6627.62
quadratic_ranged_324_ub: [ 1 x_24_ ^ 2 - 2 x_72_ * x_24_ + 1 x_72_ ^ 2 + 1 y_24_ ^ 2 - 2 y_72_ * y_24_ + 1 y_72_ ^ 2 ] <= 20621.170000000002
quadratic_ranged_325_ub: [ 1 x_38_ ^ 2 - 2 x_72_ * x_38_ + 1 x_72_ ^ 2 + 1 y_38_ ^ 2 - 2 y_72_ * y_38_ + 1 y_72_ ^ 2 ] <= 6385.22
quadratic_ranged_326_ub: [ 1 x_42_ ^ 2 - 2 x_72_ * x_42_ + 1 x_72_ ^ 2 + 1 y_42_ ^ 2 - 2 y_72_ * y_42_ + 1 y_72_ ^ 2 ] <= 24002.65
quadratic_ranged_327_ub: [ 1 x_50_ ^ 2 - 2 x_72_ * x_50_ + 1 x_72_ ^ 2 + 1 y_50_ ^ 2 - 2 y_72_ * y_50_ + 1 y_72_ ^ 2 ] <= 5592.37
quadratic_ranged_328_ub: [ 1 x_51_ ^ 2 - 2 x_72_ * x_51_ + 1 x_72_ ^ 2 + 1 y_51_ ^ 2 - 2 y_72_ * y_51_ + 1 y_72_ ^ 2 ] <= 10837.3
quadratic_ranged_329_ub: [ 1 x_58_ ^ 2 - 2 x_72_ * x_58_ + 1 x_72_ ^ 2 + 1 y_58_ ^ 2 - 2 y_72_ * y_58_ + 1 y_72_ ^ 2 ] <= 16556.93
quadratic_ranged_330_ub: [ 1 x_63_ ^ 2 - 2 x_72_ * x_63_ + 1 x_72_ ^ 2 + 1 y_63_ ^ 2 - 2 y_72_ * y_63_ + 1 y_72_ ^ 2 ] <= 10072.73
quadratic_ranged_331_ub: [ 1 x_71_ ^ 2 - 2 x_72_ * x_71_ + 1 x_72_ ^ 2 + 1 y_71_ ^ 2 - 2 y_72_ * y_71_ + 1 y_72_ ^ 2 ] <= 16500.37
quadratic_ranged_332_ub: [ 1 x_6_ ^ 2 - 2 x_73_ * x_6_ + 1 x_73_ ^ 2 + 1 y_6_ ^ 2 - 2 y_73_ * y_6_ + 1 y_73_ ^ 2 ] <= 28107.29
quadratic_ranged_333_ub: [ 1 x_16_ ^ 2 - 2 x_73_ * x_16_ + 1 x_73_ ^ 2 + 1 y_16_ ^ 2 - 2 y_73_ * y_16_ + 1 y_73_ ^ 2 ] <= 554.49
quadratic_ranged_334_ub: [ 1 x_17_ ^ 2 - 2 x_73_ * x_17_ + 1 x_73_ ^ 2 + 1 y_17_ ^ 2 - 2 y_73_ * y_17_ + 1 y_73_ ^ 2 ] <= 27032.65
quadratic_ranged_335_ub: [ 1 x_34_ ^ 2 - 2 x_73_ * x_34_ + 1 x_73_ ^ 2 + 1 y_34_ ^ 2 - 2 y_73_ * y_34_ + 1 y_73_ ^ 2 ] <= 958.49
quadratic_ranged_336_ub: [ 1 x_42_ ^ 2 - 2 x_73_ * x_42_ + 1 x_73_ ^ 2 + 1 y_42_ ^ 2 - 2 y_73_ * y_42_ + 1 y_73_ ^ 2 ] <= 505
quadratic_ranged_337_ub: [ 1 x_46_ ^ 2 - 2 x_73_ * x_46_ + 1 x_73_ ^ 2 + 1 y_46_ ^ 2 - 2 y_73_ * y_46_ + 1 y_73_ ^ 2 ] <= 18063.85
quadratic_ranged_338_ub: [ 1 x_62_ ^ 2 - 2 x_73_ * x_62_ + 1 x_73_ ^ 2 + 1 y_62_ ^ 2 - 2 y_73_ * y_62_ + 1 y_73_ ^ 2 ] <= 21336.25
quadratic_ranged_339_ub: [ 1 x_68_ ^ 2 - 2 x_73_ * x_68_ + 1 x_73_ ^ 2 + 1 y_68_ ^ 2 - 2 y_73_ * y_68_ + 1 y_73_ ^ 2 ] <= 20188.89
quadratic_ranged_340_ub: [ 1 x_72_ ^ 2 - 2 x_73_ * x_72_ + 1 x_73_ ^ 2 + 1 y_72_ ^ 2 - 2 y_73_ * y_72_ + 1 y_73_ ^ 2 ] <= 17720.45
quadratic_ranged_341_ub: [ 1 x_7_ ^ 2 - 2 x_74_ * x_7_ + 1 x_74_ ^ 2 + 1 y_7_ ^ 2 - 2 y_74_ * y_7_ + 1 y_74_ ^ 2 ] <= 4739.93
quadratic_ranged_342_ub: [ 1 x_26_ ^ 2 - 2 x_74_ * x_26_ + 1 x_74_ ^ 2 + 1 y_26_ ^ 2 - 2 y_74_ * y_26_ + 1 y_74_ ^ 2 ] <= 17162.93
quadratic_ranged_343_ub: [ 1 x_30_ ^ 2 - 2 x_74_ * x_30_ + 1 x_74_ ^ 2 + 1 y_30_ ^ 2 - 2 y_74_ * y_30_ + 1 y_74_ ^ 2 ] <= 10690.85
quadratic_ranged_344_ub: [ 1 x_35_ ^ 2 - 2 x_74_ * x_35_ + 1 x_74_ ^ 2 + 1 y_35_ ^ 2 - 2 y_74_ * y_35_ + 1 y_74_ ^ 2 ] <= 5803.46
quadratic_ranged_345_ub: [ 1 x_39_ ^ 2 - 2 x_74_ * x_39_ + 1 x_74_ ^ 2 + 1 y_39_ ^ 2 - 2 y_74_ * y_39_ + 1 y_74_ ^ 2 ] <= 2574.4900000000002
quadratic_ranged_346_ub: [ 1 x_62_ ^ 2 - 2 x_74_ * x_62_ + 1 x_74_ ^ 2 + 1 y_62_ ^ 2 - 2 y_74_ * y_62_ + 1 y_74_ ^ 2 ] <= 13918.81
quadratic_ranged_347_ub: [ 1 x_70_ ^ 2 - 2 x_74_ * x_70_ + 1 x_74_ ^ 2 + 1 y_70_ ^ 2 - 2 y_74_ * y_70_ + 1 y_74_ ^ 2 ] <= 2908.8
quadratic_ranged_348_ub: [ 1 x_73_ ^ 2 - 2 x_74_ * x_73_ + 1 x_74_ ^ 2 + 1 y_73_ ^ 2 - 2 y_74_ * y_73_ + 1 y_74_ ^ 2 ] <= 3864.26
quadratic_ranged_349_ub: [ 1 x_12_ ^ 2 - 2 x_75_ * x_12_ + 1 x_75_ ^ 2 + 1 y_12_ ^ 2 - 2 y_75_ * y_12_ + 1 y_75_ ^ 2 ] <= 5600.45
quadratic_ranged_350_ub: [ 1 x_13_ ^ 2 - 2 x_75_ * x_13_ + 1 x_75_ ^ 2 + 1 y_13_ ^ 2 - 2 y_75_ * y_13_ + 1 y_75_ ^ 2 ] <= 13131.01
quadratic_ranged_351_ub: [ 1 x_33_ ^ 2 - 2 x_75_ * x_33_ + 1 x_75_ ^ 2 + 1 y_33_ ^ 2 - 2 y_75_ * y_33_ + 1 y_75_ ^ 2 ] <= 14225.85
quadratic_ranged_352_ub: [ 1 x_35_ ^ 2 - 2 x_75_ * x_35_ + 1 x_75_ ^ 2 + 1 y_35_ ^ 2 - 2 y_75_ * y_35_ + 1 y_75_ ^ 2 ] <= 9716.2
quadratic_ranged_353_ub: [ 1 x_41_ ^ 2 - 2 x_75_ * x_41_ + 1 x_75_ ^ 2 + 1 y_41_ ^ 2 - 2 y_75_ * y_41_ + 1 y_75_ ^ 2 ] <= 3627.92
quadratic_ranged_354_ub: [ 1 x_67_ ^ 2 - 2 x_75_ * x_67_ + 1 x_75_ ^ 2 + 1 y_67_ ^ 2 - 2 y_75_ * y_67_ + 1 y_75_ ^ 2 ] <= 9931.33
quadratic_ranged_355_ub: [ 1 x_74_ ^ 2 - 2 x_75_ * x_74_ + 1 x_75_ ^ 2 + 1 y_74_ ^ 2 - 2 y_75_ * y_74_ + 1 y_75_ ^ 2 ] <= 826.1800000000001
quadratic_ranged_356_ub: [ 1 x_17_ ^ 2 - 2 x_76_ * x_17_ + 1 x_76_ ^ 2 + 1 y_17_ ^ 2 - 2 y_76_ * y_17_ + 1 y_76_ ^ 2 ] <= 27040.73
quadratic_ranged_357_ub: [ 1 x_35_ ^ 2 - 2 x_76_ * x_35_ + 1 x_76_ ^ 2 + 1 y_35_ ^ 2 - 2 y_76_ * y_35_ + 1 y_76_ ^ 2 ] <= 13529.960000000001
quadratic_ranged_358_ub: [ 1 x_67_ ^ 2 - 2 x_76_ * x_67_ + 1 x_76_ ^ 2 + 1 y_67_ ^ 2 - 2 y_76_ * y_67_ + 1 y_76_ ^ 2 ] <= 21756.41
quadratic_ranged_359_ub: [ 1 x_68_ ^ 2 - 2 x_76_ * x_68_ + 1 x_76_ ^ 2 + 1 y_68_ ^ 2 - 2 y_76_ * y_68_ + 1 y_76_ ^ 2 ] <= 16738.73
quadratic_ranged_360_ub: [ 1 x_69_ ^ 2 - 2 x_76_ * x_69_ + 1 x_76_ ^ 2 + 1 y_69_ ^ 2 - 2 y_76_ * y_69_ + 1 y_76_ ^ 2 ] <= 15579.25
quadratic_ranged_361_ub: [ 1 x_71_ ^ 2 - 2 x_76_ * x_71_ + 1 x_76_ ^ 2 + 1 y_71_ ^ 2 - 2 y_76_ * y_71_ + 1 y_76_ ^ 2 ] <= 4219.78
quadratic_ranged_362_ub: [ 1 x_74_ ^ 2 - 2 x_76_ * x_74_ + 1 x_76_ ^ 2 + 1 y_74_ ^ 2 - 2 y_76_ * y_74_ + 1 y_76_ ^ 2 ] <= 2506.82
quadratic_ranged_363_ub: [ 1 x_75_ ^ 2 - 2 x_76_ * x_75_ + 1 x_76_ ^ 2 + 1 y_75_ ^ 2 - 2 y_76_ * y_75_ + 1 y_76_ ^ 2 ] <= 3434
quadratic_ranged_364_ub: [ 1 x_11_ ^ 2 - 2 x_77_ * x_11_ + 1 x_77_ ^ 2 + 1 y_11_ ^ 2 - 2 y_77_ * y_11_ + 1 y_77_ ^ 2 ] <= 15917.6
quadratic_ranged_365_ub: [ 1 x_26_ ^ 2 - 2 x_77_ * x_26_ + 1 x_77_ ^ 2 + 1 y_26_ ^ 2 - 2 y_77_ * y_26_ + 1 y_77_ ^ 2 ] <= 23368.37
quadratic_ranged_366_ub: [ 1 x_29_ ^ 2 - 2 x_77_ * x_29_ + 1 x_77_ ^ 2 + 1 y_29_ ^ 2 - 2 y_77_ * y_29_ + 1 y_77_ ^ 2 ] <= 5318.66
quadratic_ranged_367_ub: [ 1 x_41_ ^ 2 - 2 x_77_ * x_41_ + 1 x_77_ ^ 2 + 1 y_41_ ^ 2 - 2 y_77_ * y_41_ + 1 y_77_ ^ 2 ] <= 1270.58
quadratic_ranged_368_ub: [ 1 x_42_ ^ 2 - 2 x_77_ * x_42_ + 1 x_77_ ^ 2 + 1 y_42_ ^ 2 - 2 y_77_ * y_42_ + 1 y_77_ ^ 2 ] <= 9197.06
quadratic_ranged_369_ub: [ 1 x_46_ ^ 2 - 2 x_77_ * x_46_ + 1 x_77_ ^ 2 + 1 y_46_ ^ 2 - 2 y_77_ * y_46_ + 1 y_77_ ^ 2 ] <= 26135.77
quadratic_ranged_370_ub: [ 1 x_50_ ^ 2 - 2 x_77_ * x_50_ + 1 x_77_ ^ 2 + 1 y_50_ ^ 2 - 2 y_77_ * y_50_ + 1 y_77_ ^ 2 ] <= 1731.14
quadratic_ranged_371_ub: [ 1 x_53_ ^ 2 - 2 x_77_ * x_53_ + 1 x_77_ ^ 2 + 1 y_53_ ^ 2 - 2 y_77_ * y_53_ + 1 y_77_ ^ 2 ] <= 9269.78
quadratic_ranged_372_ub: [ 1 x_63_ ^ 2 - 2 x_77_ * x_63_ + 1 x_77_ ^ 2 + 1 y_63_ ^ 2 - 2 y_77_ * y_63_ + 1 y_77_ ^ 2 ] <= 4431.88
quadratic_ranged_373_ub: [ 1 x_66_ ^ 2 - 2 x_77_ * x_66_ + 1 x_77_ ^ 2 + 1 y_66_ ^ 2 - 2 y_77_ * y_66_ + 1 y_77_ ^ 2 ] <= 13130
quadratic_ranged_374_ub: [ 1 x_76_ ^ 2 - 2 x_77_ * x_76_ + 1 x_77_ ^ 2 + 1 y_76_ ^ 2 - 2 y_77_ * y_76_ + 1 y_77_ ^ 2 ] <= 4033.94
quadratic_ranged_375_ub: [ 1 x_2_ ^ 2 - 2 x_78_ * x_2_ + 1 x_78_ ^ 2 + 1 y_2_ ^ 2 - 2 y_78_ * y_2_ + 1 y_78_ ^ 2 ] <= 45.45
quadratic_ranged_376_ub: [ 1 x_6_ ^ 2 - 2 x_78_ * x_6_ + 1 x_78_ ^ 2 + 1 y_6_ ^ 2 - 2 y_78_ * y_6_ + 1 y_78_ ^ 2 ] <= 1874.56
quadratic_ranged_377_ub: [ 1 x_8_ ^ 2 - 2 x_78_ * x_8_ + 1 x_78_ ^ 2 + 1 y_8_ ^ 2 - 2 y_78_ * y_8_ + 1 y_78_ ^ 2 ] <= 29122.34
quadratic_ranged_378_ub: [ 1 x_18_ ^ 2 - 2 x_78_ * x_18_ + 1 x_78_ ^ 2 + 1 y_18_ ^ 2 - 2 y_78_ * y_18_ + 1 y_78_ ^ 2 ] <= 9200.09
quadratic_ranged_379_ub: [ 1 x_20_ ^ 2 - 2 x_78_ * x_20_ + 1 x_78_ ^ 2 + 1 y_20_ ^ 2 - 2 y_78_ * y_20_ + 1 y_78_ ^ 2 ] <= 2670.44
quadratic_ranged_380_ub: [ 1 x_21_ ^ 2 - 2 x_78_ * x_21_ + 1 x_78_ ^ 2 + 1 y_21_ ^ 2 - 2 y_78_ * y_21_ + 1 y_78_ ^ 2 ] <= 26701.37
quadratic_ranged_381_ub: [ 1 x_23_ ^ 2 - 2 x_78_ * x_23_ + 1 x_78_ ^ 2 + 1 y_23_ ^ 2 - 2 y_78_ * y_23_ + 1 y_78_ ^ 2 ] <= 21530.170000000002
quadratic_ranged_382_ub: [ 1 x_46_ ^ 2 - 2 x_78_ * x_46_ + 1 x_78_ ^ 2 + 1 y_46_ ^ 2 - 2 y_78_ * y_46_ + 1 y_78_ ^ 2 ] <= 21363.52
quadratic_ranged_383_ub: [ 1 x_49_ ^ 2 - 2 x_78_ * x_49_ + 1 x_78_ ^ 2 + 1 y_49_ ^ 2 - 2 y_78_ * y_49_ + 1 y_78_ ^ 2 ] <= 9648.53
quadratic_ranged_384_ub: [ 1 x_50_ ^ 2 - 2 x_78_ * x_50_ + 1 x_78_ ^ 2 + 1 y_50_ ^ 2 - 2 y_78_ * y_50_ + 1 y_78_ ^ 2 ] <= 4267.25
quadratic_ranged_385_ub: [ 1 x_68_ ^ 2 - 2 x_78_ * x_68_ + 1 x_78_ ^ 2 + 1 y_68_ ^ 2 - 2 y_78_ * y_68_ + 1 y_78_ ^ 2 ] <= 858.5
quadratic_ranged_386_ub: [ 1 x_77_ ^ 2 - 2 x_78_ * x_77_ + 1 x_78_ ^ 2 + 1 y_77_ ^ 2 - 2 y_78_ * y_77_ + 1 y_78_ ^ 2 ] <= 4634.89
quadratic_ranged_387_ub: [ 1 x_15_ ^ 2 - 2 x_79_ * x_15_ + 1 x_79_ ^ 2 + 1 y_15_ ^ 2 - 2 y_79_ * y_15_ + 1 y_79_ ^ 2 ] <= 12670.45
quadratic_ranged_388_ub: [ 1 x_22_ ^ 2 - 2 x_79_ * x_22_ + 1 x_79_ ^ 2 + 1 y_22_ ^ 2 - 2 y_79_ * y_22_ + 1 y_79_ ^ 2 ] <= 567.62
quadratic_ranged_389_ub: [ 1 x_38_ ^ 2 - 2 x_79_ * x_38_ + 1 x_79_ ^ 2 + 1 y_38_ ^ 2 - 2 y_79_ * y_38_ + 1 y_79_ ^ 2 ] <= 7669.9400000000005
quadratic_ranged_390_ub: [ 1 x_61_ ^ 2 - 2 x_79_ * x_61_ + 1 x_79_ ^ 2 + 1 y_61_ ^ 2 - 2 y_79_ * y_61_ + 1 y_79_ ^ 2 ] <= 2541.16
quadratic_ranged_391_ub: [ 1 x_71_ ^ 2 - 2 x_79_ * x_71_ + 1 x_79_ ^ 2 + 1 y_71_ ^ 2 - 2 y_79_ * y_71_ + 1 y_79_ ^ 2 ] <= 26487.25
quadratic_ranged_392_ub: [ 1 x_72_ ^ 2 - 2 x_79_ * x_72_ + 1 x_79_ ^ 2 + 1 y_72_ ^ 2 - 2 y_79_ * y_72_ + 1 y_79_ ^ 2 ] <= 4476.32
quadratic_ranged_393_ub: [ 1 x_74_ ^ 2 - 2 x_79_ * x_74_ + 1 x_79_ ^ 2 + 1 y_74_ ^ 2 - 2 y_79_ * y_74_ + 1 y_79_ ^ 2 ] <= 7135.65
quadratic_ranged_394_ub: [ 1 x_75_ ^ 2 - 2 x_79_ * x_75_ + 1 x_79_ ^ 2 + 1 y_75_ ^ 2 - 2 y_79_ * y_75_ + 1 y_79_ ^ 2 ] <= 10985.77
quadratic_ranged_395_ub: [ 1 x_78_ ^ 2 - 2 x_79_ * x_78_ + 1 x_79_ ^ 2 + 1 y_78_ ^ 2 - 2 y_79_ * y_78_ + 1 y_79_ ^ 2 ] <= 1262.5
quadratic_ranged_396_ub: [ 1 x_1_ ^ 2 - 2 x_80_ * x_1_ + 1 x_80_ ^ 2 + 1 y_1_ ^ 2 - 2 y_80_ * y_1_ + 1 y_80_ ^ 2 ] <= 6730.64
quadratic_ranged_397_ub: [ 1 x_4_ ^ 2 - 2 x_80_ * x_4_ + 1 x_80_ ^ 2 + 1 y_4_ ^ 2 - 2 y_80_ * y_4_ + 1 y_80_ ^ 2 ] <= 5531.77
quadratic_ranged_398_ub: [ 1 x_6_ ^ 2 - 2 x_80_ * x_6_ + 1 x_80_ ^ 2 + 1 y_6_ ^ 2 - 2 y_80_ * y_6_ + 1 y_80_ ^ 2 ] <= 14815.69
quadratic_ranged_399_ub: [ 1 x_10_ ^ 2 - 2 x_80_ * x_10_ + 1 x_80_ ^ 2 + 1 y_10_ ^ 2 - 2 y_80_ * y_10_ + 1 y_80_ ^ 2 ] <= 11531.17
quadratic_ranged_400_ub: [ 1 x_22_ ^ 2 - 2 x_80_ * x_22_ + 1 x_80_ ^ 2 + 1 y_22_ ^ 2 - 2 y_80_ * y_22_ + 1 y_80_ ^ 2 ] <= 8581.97
quadratic_ranged_401_ub: [ 1 x_23_ ^ 2 - 2 x_80_ * x_23_ + 1 x_80_ ^ 2 + 1 y_23_ ^ 2 - 2 y_80_ * y_23_ + 1 y_80_ ^ 2 ] <= 5625.7
quadratic_ranged_402_ub: [ 1 x_25_ ^ 2 - 2 x_80_ * x_25_ + 1 x_80_ ^ 2 + 1 y_25_ ^ 2 - 2 y_80_ * y_25_ + 1 y_80_ ^ 2 ] <= 16823.57
quadratic_ranged_403_ub: [ 1 x_32_ ^ 2 - 2 x_80_ * x_32_ + 1 x_80_ ^ 2 + 1 y_32_ ^ 2 - 2 y_80_ * y_32_ + 1 y_80_ ^ 2 ] <= 11839.22
quadratic_ranged_404_ub: [ 1 x_34_ ^ 2 - 2 x_80_ * x_34_ + 1 x_80_ ^ 2 + 1 y_34_ ^ 2 - 2 y_80_ * y_34_ + 1 y_80_ ^ 2 ] <= 6048.89
quadratic_ranged_405_ub: [ 1 x_43_ ^ 2 - 2 x_80_ * x_43_ + 1 x_80_ ^ 2 + 1 y_43_ ^ 2 - 2 y_80_ * y_43_ + 1 y_80_ ^ 2 ] <= 15594.4
quadratic_ranged_406_ub: [ 1 x_61_ ^ 2 - 2 x_80_ * x_61_ + 1 x_80_ ^ 2 + 1 y_61_ ^ 2 - 2 y_80_ * y_61_ + 1 y_80_ ^ 2 ] <= 2574.4900000000002
quadratic_ranged_407_ub: [ 1 x_79_ ^ 2 - 2 x_80_ * x_79_ + 1 x_80_ ^ 2 + 1 y_79_ ^ 2 - 2 y_80_ * y_79_ + 1 y_80_ ^ 2 ] <= 10109.09
quadratic_ranged_408_ub: [ 1 x_4_ ^ 2 - 2 x_81_ * x_4_ + 1 x_81_ ^ 2 + 1 y_4_ ^ 2 - 2 y_81_ * y_4_ + 1 y_81_ ^ 2 ] <= 21874.58
quadratic_ranged_409_ub: [ 1 x_10_ ^ 2 - 2 x_81_ * x_10_ + 1 x_81_ ^ 2 + 1 y_10_ ^ 2 - 2 y_81_ * y_10_ + 1 y_81_ ^ 2 ] <= 22761.36
quadratic_ranged_410_ub: [ 1 x_12_ ^ 2 - 2 x_81_ * x_12_ + 1 x_81_ ^ 2 + 1 y_12_ ^ 2 - 2 y_81_ * y_12_ + 1 y_81_ ^ 2 ] <= 244.42000000000002
quadratic_ranged_411_ub: [ 1 x_18_ ^ 2 - 2 x_81_ * x_18_ + 1 x_81_ ^ 2 + 1 y_18_ ^ 2 - 2 y_81_ * y_18_ + 1 y_81_ ^ 2 ] <= 7761.85
quadratic_ranged_412_ub: [ 1 x_29_ ^ 2 - 2 x_81_ * x_29_ + 1 x_81_ ^ 2 + 1 y_29_ ^ 2 - 2 y_81_ * y_29_ + 1 y_81_ ^ 2 ] <= 13688.53
quadratic_ranged_413_ub: [ 1 x_31_ ^ 2 - 2 x_81_ * x_31_ + 1 x_81_ ^ 2 + 1 y_31_ ^ 2 - 2 y_81_ * y_31_ + 1 y_81_ ^ 2 ] <= 235.33
quadratic_ranged_414_ub: [ 1 x_69_ ^ 2 - 2 x_81_ * x_69_ + 1 x_81_ ^ 2 + 1 y_69_ ^ 2 - 2 y_81_ * y_69_ + 1 y_81_ ^ 2 ] <= 29162.74
quadratic_ranged_415_ub: [ 1 x_80_ ^ 2 - 2 x_81_ * x_80_ + 1 x_81_ ^ 2 + 1 y_80_ ^ 2 - 2 y_81_ * y_80_ + 1 y_81_ ^ 2 ] <= 7398.25
quadratic_ranged_416_ub: [ 1 x_3_ ^ 2 - 2 x_82_ * x_3_ + 1 x_82_ ^ 2 + 1 y_3_ ^ 2 - 2 y_82_ * y_3_ + 1 y_82_ ^ 2 ] <= 30304.04
quadratic_ranged_417_ub: [ 1 x_8_ ^ 2 - 2 x_82_ * x_8_ + 1 x_82_ ^ 2 + 1 y_8_ ^ 2 - 2 y_82_ * y_8_ + 1 y_82_ ^ 2 ] <= 31925.09
quadratic_ranged_418_ub: [ 1 x_13_ ^ 2 - 2 x_82_ * x_13_ + 1 x_82_ ^ 2 + 1 y_13_ ^ 2 - 2 y_82_ * y_13_ + 1 y_82_ ^ 2 ] <= 16161.01
quadratic_ranged_419_ub: [ 1 x_23_ ^ 2 - 2 x_82_ * x_23_ + 1 x_82_ ^ 2 + 1 y_23_ ^ 2 - 2 y_82_ * y_23_ + 1 y_82_ ^ 2 ] <= 31069.62
quadratic_ranged_420_ub: [ 1 x_25_ ^ 2 - 2 x_82_ * x_25_ + 1 x_82_ ^ 2 + 1 y_25_ ^ 2 - 2 y_82_ * y_25_ + 1 y_82_ ^ 2 ] <= 15458.05
quadratic_ranged_421_ub: [ 1 x_26_ ^ 2 - 2 x_82_ * x_26_ + 1 x_82_ ^ 2 + 1 y_26_ ^ 2 - 2 y_82_ * y_26_ + 1 y_82_ ^ 2 ] <= 2259.37
quadratic_ranged_422_ub: [ 1 x_39_ ^ 2 - 2 x_82_ * x_39_ + 1 x_82_ ^ 2 + 1 y_39_ ^ 2 - 2 y_82_ * y_39_ + 1 y_82_ ^ 2 ] <= 5976.17
quadratic_ranged_423_ub: [ 1 x_52_ ^ 2 - 2 x_82_ * x_52_ + 1 x_82_ ^ 2 + 1 y_52_ ^ 2 - 2 y_82_ * y_52_ + 1 y_82_ ^ 2 ] <= 583.78
quadratic_ranged_424_ub: [ 1 x_56_ ^ 2 - 2 x_82_ * x_56_ + 1 x_82_ ^ 2 + 1 y_56_ ^ 2 - 2 y_82_ * y_56_ + 1 y_82_ ^ 2 ] <= 918.09
quadratic_ranged_425_ub: [ 1 x_81_ ^ 2 - 2 x_82_ * x_81_ + 1 x_82_ ^ 2 + 1 y_81_ ^ 2 - 2 y_82_ * y_81_ + 1 y_82_ ^ 2 ] <= 25533.81
quadratic_ranged_426_ub: [ 1 x_17_ ^ 2 - 2 x_83_ * x_17_ + 1 x_83_ ^ 2 + 1 y_17_ ^ 2 - 2 y_83_ * y_17_ + 1 y_83_ ^ 2 ] <= 10344.42
quadratic_ranged_427_ub: [ 1 x_21_ ^ 2 - 2 x_83_ * x_21_ + 1 x_83_ ^ 2 + 1 y_21_ ^ 2 - 2 y_83_ * y_21_ + 1 y_83_ ^ 2 ] <= 23404.73
quadratic_ranged_428_ub: [ 1 x_26_ ^ 2 - 2 x_83_ * x_26_ + 1 x_83_ ^ 2 + 1 y_26_ ^ 2 - 2 y_83_ * y_26_ + 1 y_83_ ^ 2 ] <= 5140.9
quadratic_ranged_429_ub: [ 1 x_51_ ^ 2 - 2 x_83_ * x_51_ + 1 x_83_ ^ 2 + 1 y_51_ ^ 2 - 2 y_83_ * y_51_ + 1 y_83_ ^ 2 ] <= 4664.18
quadratic_ranged_430_ub: [ 1 x_59_ ^ 2 - 2 x_83_ * x_59_ + 1 x_83_ ^ 2 + 1 y_59_ ^ 2 - 2 y_83_ * y_59_ + 1 y_83_ ^ 2 ] <= 4979.3
quadratic_ranged_431_ub: [ 1 x_70_ ^ 2 - 2 x_83_ * x_70_ + 1 x_83_ ^ 2 + 1 y_70_ ^ 2 - 2 y_83_ * y_70_ + 1 y_83_ ^ 2 ] <= 18306.25
quadratic_ranged_432_ub: [ 1 x_82_ ^ 2 - 2 x_83_ * x_82_ + 1 x_83_ ^ 2 + 1 y_82_ ^ 2 - 2 y_83_ * y_82_ + 1 y_83_ ^ 2 ] <= 8327.45
quadratic_ranged_433_ub: [ 1 x_2_ ^ 2 - 2 x_84_ * x_2_ + 1 x_84_ ^ 2 + 1 y_2_ ^ 2 - 2 y_84_ * y_2_ + 1 y_84_ ^ 2 ] <= 7080.1
quadratic_ranged_434_ub: [ 1 x_8_ ^ 2 - 2 x_84_ * x_8_ + 1 x_84_ ^ 2 + 1 y_8_ ^ 2 - 2 y_84_ * y_8_ + 1 y_84_ ^ 2 ] <= 8513.29
quadratic_ranged_435_ub: [ 1 x_10_ ^ 2 - 2 x_84_ * x_10_ + 1 x_84_ ^ 2 + 1 y_10_ ^ 2 - 2 y_84_ * y_10_ + 1 y_84_ ^ 2 ] <= 7470.97
quadratic_ranged_436_ub: [ 1 x_13_ ^ 2 - 2 x_84_ * x_13_ + 1 x_84_ ^ 2 + 1 y_13_ ^ 2 - 2 y_84_ * y_13_ + 1 y_84_ ^ 2 ] <= 19251.61
quadratic_ranged_437_ub: [ 1 x_23_ ^ 2 - 2 x_84_ * x_23_ + 1 x_84_ ^ 2 + 1 y_23_ ^ 2 - 2 y_84_ * y_23_ + 1 y_84_ ^ 2 ] <= 7001.32
quadratic_ranged_438_ub: [ 1 x_43_ ^ 2 - 2 x_84_ * x_43_ + 1 x_84_ ^ 2 + 1 y_43_ ^ 2 - 2 y_84_ * y_43_ + 1 y_84_ ^ 2 ] <= 10021.22
quadratic_ranged_439_ub: [ 1 x_77_ ^ 2 - 2 x_84_ * x_77_ + 1 x_84_ ^ 2 + 1 y_77_ ^ 2 - 2 y_84_ * y_77_ + 1 y_84_ ^ 2 ] <= 9972.74
quadratic_ranged_440_ub: [ 1 x_83_ ^ 2 - 2 x_84_ * x_83_ + 1 x_84_ ^ 2 + 1 y_83_ ^ 2 - 2 y_84_ * y_83_ + 1 y_84_ ^ 2 ] <= 2126.05
quadratic_ranged_441_ub: [ 1 x_9_ ^ 2 - 2 x_85_ * x_9_ + 1 x_85_ ^ 2 + 1 y_9_ ^ 2 - 2 y_85_ * y_9_ + 1 y_85_ ^ 2 ] <= 1237.25
quadratic_ranged_442_ub: [ 1 x_15_ ^ 2 - 2 x_85_ * x_15_ + 1 x_85_ ^ 2 + 1 y_15_ ^ 2 - 2 y_85_ * y_15_ + 1 y_85_ ^ 2 ] <= 16464.01
quadratic_ranged_443_ub: [ 1 x_27_ ^ 2 - 2 x_85_ * x_27_ + 1 x_85_ ^ 2 + 1 y_27_ ^ 2 - 2 y_85_ * y_27_ + 1 y_85_ ^ 2 ] <= 1253.41
quadratic_ranged_444_ub: [ 1 x_46_ ^ 2 - 2 x_85_ * x_46_ + 1 x_85_ ^ 2 + 1 y_46_ ^ 2 - 2 y_85_ * y_46_ + 1 y_85_ ^ 2 ] <= 32037.2
quadratic_ranged_445_ub: [ 1 x_55_ ^ 2 - 2 x_85_ * x_55_ + 1 x_85_ ^ 2 + 1 y_55_ ^ 2 - 2 y_85_ * y_55_ + 1 y_85_ ^ 2 ] <= 1871.53
quadratic_ranged_446_ub: [ 1 x_84_ ^ 2 - 2 x_85_ * x_84_ + 1 x_85_ ^ 2 + 1 y_84_ ^ 2 - 2 y_85_ * y_84_ + 1 y_85_ ^ 2 ] <= 12880.53
quadratic_ranged_447_ub: [ 1 x_6_ ^ 2 - 2 x_86_ * x_6_ + 1 x_86_ ^ 2 + 1 y_6_ ^ 2 - 2 y_86_ * y_6_ + 1 y_86_ ^ 2 ] <= 3833.96
quadratic_ranged_448_ub: [ 1 x_12_ ^ 2 - 2 x_86_ * x_12_ + 1 x_86_ ^ 2 + 1 y_12_ ^ 2 - 2 y_86_ * y_12_ + 1 y_86_ ^ 2 ] <= 20832.26
quadratic_ranged_449_ub: [ 1 x_26_ ^ 2 - 2 x_86_ * x_26_ + 1 x_86_ ^ 2 + 1 y_26_ ^ 2 - 2 y_86_ * y_26_ + 1 y_86_ ^ 2 ] <= 11930.12
quadratic_ranged_450_ub: [ 1 x_42_ ^ 2 - 2 x_86_ * x_42_ + 1 x_86_ ^ 2 + 1 y_42_ ^ 2 - 2 y_86_ * y_42_ + 1 y_86_ ^ 2 ] <= 16775.09
quadratic_ranged_451_ub: [ 1 x_52_ ^ 2 - 2 x_86_ * x_52_ + 1 x_86_ ^ 2 + 1 y_52_ ^ 2 - 2 y_86_ * y_52_ + 1 y_86_ ^ 2 ] <= 4679.33
quadratic_ranged_452_ub: [ 1 x_56_ ^ 2 - 2 x_86_ * x_56_ + 1 x_86_ ^ 2 + 1 y_56_ ^ 2 - 2 y_86_ * y_56_ + 1 y_86_ ^ 2 ] <= 9215.24
quadratic_ranged_453_ub: [ 1 x_58_ ^ 2 - 2 x_86_ * x_58_ + 1 x_86_ ^ 2 + 1 y_58_ ^ 2 - 2 y_86_ * y_58_ + 1 y_86_ ^ 2 ] <= 10307.05
quadratic_ranged_454_ub: [ 1 x_85_ ^ 2 - 2 x_86_ * x_85_ + 1 x_86_ ^ 2 + 1 y_85_ ^ 2 - 2 y_86_ * y_85_ + 1 y_86_ ^ 2 ] <= 2815.88
quadratic_ranged_455_ub: [ 1 x_8_ ^ 2 - 2 x_87_ * x_8_ + 1 x_87_ ^ 2 + 1 y_8_ ^ 2 - 2 y_87_ * y_8_ + 1 y_87_ ^ 2 ] <= 41799.86
quadratic_ranged_456_ub: [ 1 x_24_ ^ 2 - 2 x_87_ * x_24_ + 1 x_87_ ^ 2 + 1 y_24_ ^ 2 - 2 y_87_ * y_24_ + 1 y_87_ ^ 2 ] <= 13615.81
quadratic_ranged_457_ub: [ 1 x_25_ ^ 2 - 2 x_87_ * x_25_ + 1 x_87_ ^ 2 + 1 y_25_ ^ 2 - 2 y_87_ * y_25_ + 1 y_87_ ^ 2 ] <= 29582.9
quadratic_ranged_458_ub: [ 1 x_26_ ^ 2 - 2 x_87_ * x_26_ + 1 x_87_ ^ 2 + 1 y_26_ ^ 2 - 2 y_87_ * y_26_ + 1 y_87_ ^ 2 ] <= 14560.16
quadratic_ranged_459_ub: [ 1 x_29_ ^ 2 - 2 x_87_ * x_29_ + 1 x_87_ ^ 2 + 1 y_29_ ^ 2 - 2 y_87_ * y_29_ + 1 y_87_ ^ 2 ] <= 17065.97
quadratic_ranged_460_ub: [ 1 x_50_ ^ 2 - 2 x_87_ * x_50_ + 1 x_87_ ^ 2 + 1 y_50_ ^ 2 - 2 y_87_ * y_50_ + 1 y_87_ ^ 2 ] <= 6226.65
quadratic_ranged_461_ub: [ 1 x_56_ ^ 2 - 2 x_87_ * x_56_ + 1 x_87_ ^ 2 + 1 y_56_ ^ 2 - 2 y_87_ * y_56_ + 1 y_87_ ^ 2 ] <= 10940.32
quadratic_ranged_462_ub: [ 1 x_60_ ^ 2 - 2 x_87_ * x_60_ + 1 x_87_ ^ 2 + 1 y_60_ ^ 2 - 2 y_87_ * y_60_ + 1 y_87_ ^ 2 ] <= 32813.89
quadratic_ranged_463_ub: [ 1 x_86_ ^ 2 - 2 x_87_ * x_86_ + 1 x_87_ ^ 2 + 1 y_86_ ^ 2 - 2 y_87_ * y_86_ + 1 y_87_ ^ 2 ] <= 989.8
quadratic_ranged_464_ub: [ 1 x_12_ ^ 2 - 2 x_88_ * x_12_ + 1 x_88_ ^ 2 + 1 y_12_ ^ 2 - 2 y_88_ * y_12_ + 1 y_88_ ^ 2 ] <= 16573.09
quadratic_ranged_465_ub: [ 1 x_19_ ^ 2 - 2 x_88_ * x_19_ + 1 x_88_ ^ 2 + 1 y_19_ ^ 2 - 2 y_88_ * y_19_ + 1 y_88_ ^ 2 ] <= 2550.25
quadratic_ranged_466_ub: [ 1 x_20_ ^ 2 - 2 x_88_ * x_20_ + 1 x_88_ ^ 2 + 1 y_20_ ^ 2 - 2 y_88_ * y_20_ + 1 y_88_ ^ 2 ] <= 5556.01
quadratic_ranged_467_ub: [ 1 x_29_ ^ 2 - 2 x_88_ * x_29_ + 1 x_88_ ^ 2 + 1 y_29_ ^ 2 - 2 y_88_ * y_29_ + 1 y_88_ ^ 2 ] <= 17503.3
quadratic_ranged_468_ub: [ 1 x_32_ ^ 2 - 2 x_88_ * x_32_ + 1 x_88_ ^ 2 + 1 y_32_ ^ 2 - 2 y_88_ * y_32_ + 1 y_88_ ^ 2 ] <= 1916.98
quadratic_ranged_469_ub: [ 1 x_39_ ^ 2 - 2 x_88_ * x_39_ + 1 x_88_ ^ 2 + 1 y_39_ ^ 2 - 2 y_88_ * y_39_ + 1 y_88_ ^ 2 ] <= 2901.73
quadratic_ranged_470_ub: [ 1 x_43_ ^ 2 - 2 x_88_ * x_43_ + 1 x_88_ ^ 2 + 1 y_43_ ^ 2 - 2 y_88_ * y_43_ + 1 y_88_ ^ 2 ] <= 2626
quadratic_ranged_471_ub: [ 1 x_63_ ^ 2 - 2 x_88_ * x_63_ + 1 x_88_ ^ 2 + 1 y_63_ ^ 2 - 2 y_88_ * y_63_ + 1 y_88_ ^ 2 ] <= 8358.76
quadratic_ranged_472_ub: [ 1 x_79_ ^ 2 - 2 x_88_ * x_79_ + 1 x_88_ ^ 2 + 1 y_79_ ^ 2 - 2 y_88_ * y_79_ + 1 y_88_ ^ 2 ] <= 4206.65
quadratic_ranged_473_ub: [ 1 x_83_ ^ 2 - 2 x_88_ * x_83_ + 1 x_88_ ^ 2 + 1 y_83_ ^ 2 - 2 y_88_ * y_83_ + 1 y_88_ ^ 2 ] <= 4671.25
quadratic_ranged_474_ub: [ 1 x_87_ ^ 2 - 2 x_88_ * x_87_ + 1 x_88_ ^ 2 + 1 y_87_ ^ 2 - 2 y_88_ * y_87_ + 1 y_88_ ^ 2 ] <= 4634.89
quadratic_ranged_475_ub: [ 1 x_2_ ^ 2 - 2 x_89_ * x_2_ + 1 x_89_ ^ 2 + 1 y_2_ ^ 2 - 2 y_89_ * y_2_ + 1 y_89_ ^ 2 ] <= 23989.52
quadratic_ranged_476_ub: [ 1 x_3_ ^ 2 - 2 x_89_ * x_3_ + 1 x_89_ ^ 2 + 1 y_3_ ^ 2 - 2 y_89_ * y_3_ + 1 y_89_ ^ 2 ] <= 2250.28
quadratic_ranged_477_ub: [ 1 x_11_ ^ 2 - 2 x_89_ * x_11_ + 1 x_89_ ^ 2 + 1 y_11_ ^ 2 - 2 y_89_ * y_11_ + 1 y_89_ ^ 2 ] <= 391.88
quadratic_ranged_478_ub: [ 1 x_16_ ^ 2 - 2 x_89_ * x_16_ + 1 x_89_ ^ 2 + 1 y_16_ ^ 2 - 2 y_89_ * y_16_ + 1 y_89_ ^ 2 ] <= 1443.29
quadratic_ranged_479_ub: [ 1 x_23_ ^ 2 - 2 x_89_ * x_23_ + 1 x_89_ ^ 2 + 1 y_23_ ^ 2 - 2 y_89_ * y_23_ + 1 y_89_ ^ 2 ] <= 195.94
quadratic_ranged_480_ub: [ 1 x_33_ ^ 2 - 2 x_89_ * x_33_ + 1 x_89_ ^ 2 + 1 y_33_ ^ 2 - 2 y_89_ * y_33_ + 1 y_89_ ^ 2 ] <= 37997.21
quadratic_ranged_481_ub: [ 1 x_51_ ^ 2 - 2 x_89_ * x_51_ + 1 x_89_ ^ 2 + 1 y_51_ ^ 2 - 2 y_89_ * y_51_ + 1 y_89_ ^ 2 ] <= 4327.85
quadratic_ranged_482_ub: [ 1 x_73_ ^ 2 - 2 x_89_ * x_73_ + 1 x_89_ ^ 2 + 1 y_73_ ^ 2 - 2 y_89_ * y_73_ + 1 y_89_ ^ 2 ] <= 3743.06
quadratic_ranged_483_ub: [ 1 x_77_ ^ 2 - 2 x_89_ * x_77_ + 1 x_89_ ^ 2 + 1 y_77_ ^ 2 - 2 y_89_ * y_77_ + 1 y_89_ ^ 2 ] <= 15727.72
quadratic_ranged_484_ub: [ 1 x_79_ ^ 2 - 2 x_89_ * x_79_ + 1 x_89_ ^ 2 + 1 y_79_ ^ 2 - 2 y_89_ * y_79_ + 1 y_89_ ^ 2 ] <= 31456.45
quadratic_ranged_485_ub: [ 1 x_86_ ^ 2 - 2 x_89_ * x_86_ + 1 x_89_ ^ 2 + 1 y_86_ ^ 2 - 2 y_89_ * y_86_ + 1 y_89_ ^ 2 ] <= 20144.45
quadratic_ranged_486_ub: [ 1 x_88_ ^ 2 - 2 x_89_ * x_88_ + 1 x_89_ ^ 2 + 1 y_88_ ^ 2 - 2 y_89_ * y_88_ + 1 y_89_ ^ 2 ] <= 19444.52
quadratic_ranged_487_ub: [ 1 x_2_ ^ 2 - 2 x_90_ * x_2_ + 1 x_90_ ^ 2 + 1 y_2_ ^ 2 - 2 y_90_ * y_2_ + 1 y_90_ ^ 2 ] <= 17974.97
quadratic_ranged_488_ub: [ 1 x_51_ ^ 2 - 2 x_90_ * x_51_ + 1 x_90_ ^ 2 + 1 y_51_ ^ 2 - 2 y_90_ * y_51_ + 1 y_90_ ^ 2 ] <= 719.12
quadratic_ranged_489_ub: [ 1 x_66_ ^ 2 - 2 x_90_ * x_66_ + 1 x_90_ ^ 2 + 1 y_66_ ^ 2 - 2 y_90_ * y_66_ + 1 y_90_ ^ 2 ] <= 1374.61
quadratic_ranged_490_ub: [ 1 x_89_ ^ 2 - 2 x_90_ * x_89_ + 1 x_90_ ^ 2 + 1 y_89_ ^ 2 - 2 y_90_ * y_89_ + 1 y_90_ ^ 2 ] <= 8331.49
quadratic_ranged_491_ub: [ 1 x_10_ ^ 2 - 2 x_91_ * x_10_ + 1 x_91_ ^ 2 + 1 y_10_ ^ 2 - 2 y_91_ * y_10_ + 1 y_91_ ^ 2 ] <= 12064.45
quadratic_ranged_492_ub: [ 1 x_17_ ^ 2 - 2 x_91_ * x_17_ + 1 x_91_ ^ 2 + 1 y_17_ ^ 2 - 2 y_91_ * y_17_ + 1 y_91_ ^ 2 ] <= 22245.25
quadratic_ranged_493_ub: [ 1 x_25_ ^ 2 - 2 x_91_ * x_25_ + 1 x_91_ ^ 2 + 1 y_25_ ^ 2 - 2 y_91_ * y_25_ + 1 y_91_ ^ 2 ] <= 17607.33
quadratic_ranged_494_ub: [ 1 x_27_ ^ 2 - 2 x_91_ * x_27_ + 1 x_91_ ^ 2 + 1 y_27_ ^ 2 - 2 y_91_ * y_27_ + 1 y_91_ ^ 2 ] <= 8928.4
quadratic_ranged_495_ub: [ 1 x_48_ ^ 2 - 2 x_91_ * x_48_ + 1 x_91_ ^ 2 + 1 y_48_ ^ 2 - 2 y_91_ * y_48_ + 1 y_91_ ^ 2 ] <= 6489.25
quadratic_ranged_496_ub: [ 1 x_50_ ^ 2 - 2 x_91_ * x_50_ + 1 x_91_ ^ 2 + 1 y_50_ ^ 2 - 2 y_91_ * y_50_ + 1 y_91_ ^ 2 ] <= 258.56
quadratic_ranged_497_ub: [ 1 x_57_ ^ 2 - 2 x_91_ * x_57_ + 1 x_91_ ^ 2 + 1 y_57_ ^ 2 - 2 y_91_ * y_57_ + 1 y_91_ ^ 2 ] <= 308.05
quadratic_ranged_498_ub: [ 1 x_62_ ^ 2 - 2 x_91_ * x_62_ + 1 x_91_ ^ 2 + 1 y_62_ ^ 2 - 2 y_91_ * y_62_ + 1 y_91_ ^ 2 ] <= 13478.45
quadratic_ranged_499_ub: [ 1 x_64_ ^ 2 - 2 x_91_ * x_64_ + 1 x_91_ ^ 2 + 1 y_64_ ^ 2 - 2 y_91_ * y_64_ + 1 y_91_ ^ 2 ] <= 737.3
quadratic_ranged_500_ub: [ 1 x_73_ ^ 2 - 2 x_91_ * x_73_ + 1 x_91_ ^ 2 + 1 y_73_ ^ 2 - 2 y_91_ * y_73_ + 1 y_91_ ^ 2 ] <= 2201.8
quadratic_ranged_501_ub: [ 1 x_90_ ^ 2 - 2 x_91_ * x_90_ + 1 x_91_ ^ 2 + 1 y_90_ ^ 2 - 2 y_91_ * y_90_ + 1 y_91_ ^ 2 ] <= 9769.73
quadratic_ranged_502_ub: [ 1 x_9_ ^ 2 - 2 x_92_ * x_9_ + 1 x_92_ ^ 2 + 1 y_9_ ^ 2 - 2 y_92_ * y_9_ + 1 y_92_ ^ 2 ] <= 4053.13
quadratic_ranged_503_ub: [ 1 x_10_ ^ 2 - 2 x_92_ * x_10_ + 1 x_92_ ^ 2 + 1 y_10_ ^ 2 - 2 y_92_ * y_10_ + 1 y_92_ ^ 2 ] <= 9607.12
quadratic_ranged_504_ub: [ 1 x_14_ ^ 2 - 2 x_92_ * x_14_ + 1 x_92_ ^ 2 + 1 y_14_ ^ 2 - 2 y_92_ * y_14_ + 1 y_92_ ^ 2 ] <= 16881.14
quadratic_ranged_505_ub: [ 1 x_26_ ^ 2 - 2 x_92_ * x_26_ + 1 x_92_ ^ 2 + 1 y_26_ ^ 2 - 2 y_92_ * y_26_ + 1 y_92_ ^ 2 ] <= 22110.920000000002
quadratic_ranged_506_ub: [ 1 x_58_ ^ 2 - 2 x_92_ * x_58_ + 1 x_92_ ^ 2 + 1 y_58_ ^ 2 - 2 y_92_ * y_58_ + 1 y_92_ ^ 2 ] <= 8933.45
quadratic_ranged_507_ub: [ 1 x_60_ ^ 2 - 2 x_92_ * x_60_ + 1 x_92_ ^ 2 + 1 y_60_ ^ 2 - 2 y_92_ * y_60_ + 1 y_92_ ^ 2 ] <= 30353.53
quadratic_ranged_508_ub: [ 1 x_67_ ^ 2 - 2 x_92_ * x_67_ + 1 x_92_ ^ 2 + 1 y_67_ ^ 2 - 2 y_92_ * y_67_ + 1 y_92_ ^ 2 ] <= 34358.18
quadratic_ranged_509_ub: [ 1 x_72_ ^ 2 - 2 x_92_ * x_72_ + 1 x_92_ ^ 2 + 1 y_72_ ^ 2 - 2 y_92_ * y_72_ + 1 y_92_ ^ 2 ] <= 8364.82
quadratic_ranged_510_ub: [ 1 x_91_ ^ 2 - 2 x_92_ * x_91_ + 1 x_92_ ^ 2 + 1 y_91_ ^ 2 - 2 y_92_ * y_91_ + 1 y_92_ ^ 2 ] <= 5636.81
quadratic_ranged_511_ub: [ 1 x_14_ ^ 2 - 2 x_93_ * x_14_ + 1 x_93_ ^ 2 + 1 y_14_ ^ 2 - 2 y_93_ * y_14_ + 1 y_93_ ^ 2 ] <= 22144.25
quadratic_ranged_512_ub: [ 1 x_20_ ^ 2 - 2 x_93_ * x_20_ + 1 x_93_ ^ 2 + 1 y_20_ ^ 2 - 2 y_93_ * y_20_ + 1 y_93_ ^ 2 ] <= 1398.85
quadratic_ranged_513_ub: [ 1 x_50_ ^ 2 - 2 x_93_ * x_50_ + 1 x_93_ ^ 2 + 1 y_50_ ^ 2 - 2 y_93_ * y_50_ + 1 y_93_ ^ 2 ] <= 8419.36
quadratic_ranged_514_ub: [ 1 x_54_ ^ 2 - 2 x_93_ * x_54_ + 1 x_93_ ^ 2 + 1 y_54_ ^ 2 - 2 y_93_ * y_54_ + 1 y_93_ ^ 2 ] <= 23093.65
quadratic_ranged_515_ub: [ 1 x_63_ ^ 2 - 2 x_93_ * x_63_ + 1 x_93_ ^ 2 + 1 y_63_ ^ 2 - 2 y_93_ * y_63_ + 1 y_93_ ^ 2 ] <= 14764.18
quadratic_ranged_516_ub: [ 1 x_66_ ^ 2 - 2 x_93_ * x_66_ + 1 x_93_ ^ 2 + 1 y_66_ ^ 2 - 2 y_93_ * y_66_ + 1 y_93_ ^ 2 ] <= 23328.98
quadratic_ranged_517_ub: [ 1 x_73_ ^ 2 - 2 x_93_ * x_73_ + 1 x_93_ ^ 2 + 1 y_73_ ^ 2 - 2 y_93_ * y_73_ + 1 y_93_ ^ 2 ] <= 17214.44
quadratic_ranged_518_ub: [ 1 x_75_ ^ 2 - 2 x_93_ * x_75_ + 1 x_93_ ^ 2 + 1 y_75_ ^ 2 - 2 y_93_ * y_75_ + 1 y_93_ ^ 2 ] <= 14257.16
quadratic_ranged_519_ub: [ 1 x_84_ ^ 2 - 2 x_93_ * x_84_ + 1 x_93_ ^ 2 + 1 y_84_ ^ 2 - 2 y_93_ * y_84_ + 1 y_93_ ^ 2 ] <= 19105.16
quadratic_ranged_520_ub: [ 1 x_87_ ^ 2 - 2 x_93_ * x_87_ + 1 x_93_ ^ 2 + 1 y_87_ ^ 2 - 2 y_93_ * y_87_ + 1 y_93_ ^ 2 ] <= 1241.29
quadratic_ranged_521_ub: [ 1 x_92_ ^ 2 - 2 x_93_ * x_92_ + 1 x_93_ ^ 2 + 1 y_92_ ^ 2 - 2 y_93_ * y_92_ + 1 y_93_ ^ 2 ] <= 990.8100000000001
quadratic_ranged_522_ub: [ 1 x_10_ ^ 2 - 2 x_94_ * x_10_ + 1 x_94_ ^ 2 + 1 y_10_ ^ 2 - 2 y_94_ * y_10_ + 1 y_94_ ^ 2 ] <= 29307.170000000002
quadratic_ranged_523_ub: [ 1 x_12_ ^ 2 - 2 x_94_ * x_12_ + 1 x_94_ ^ 2 + 1 y_12_ ^ 2 - 2 y_94_ * y_12_ + 1 y_94_ ^ 2 ] <= 7761.85
quadratic_ranged_524_ub: [ 1 x_28_ ^ 2 - 2 x_94_ * x_28_ + 1 x_94_ ^ 2 + 1 y_28_ ^ 2 - 2 y_94_ * y_28_ + 1 y_94_ ^ 2 ] <= 24514.72
quadratic_ranged_525_ub: [ 1 x_33_ ^ 2 - 2 x_94_ * x_33_ + 1 x_94_ ^ 2 + 1 y_33_ ^ 2 - 2 y_94_ * y_33_ + 1 y_94_ ^ 2 ] <= 36934.69
quadratic_ranged_526_ub: [ 1 x_53_ ^ 2 - 2 x_94_ * x_53_ + 1 x_94_ ^ 2 + 1 y_53_ ^ 2 - 2 y_94_ * y_53_ + 1 y_94_ ^ 2 ] <= 581.76
quadratic_ranged_527_ub: [ 1 x_54_ ^ 2 - 2 x_94_ * x_54_ + 1 x_94_ ^ 2 + 1 y_54_ ^ 2 - 2 y_94_ * y_54_ + 1 y_94_ ^ 2 ] <= 44093.57
quadratic_ranged_528_ub: [ 1 x_63_ ^ 2 - 2 x_94_ * x_63_ + 1 x_94_ ^ 2 + 1 y_63_ ^ 2 - 2 y_94_ * y_63_ + 1 y_94_ ^ 2 ] <= 2207.86
quadratic_ranged_529_ub: [ 1 x_71_ ^ 2 - 2 x_94_ * x_71_ + 1 x_94_ ^ 2 + 1 y_71_ ^ 2 - 2 y_94_ * y_71_ + 1 y_94_ ^ 2 ] <= 3330.98
quadratic_ranged_530_ub: [ 1 x_73_ ^ 2 - 2 x_94_ * x_73_ + 1 x_94_ ^ 2 + 1 y_73_ ^ 2 - 2 y_94_ * y_73_ + 1 y_94_ ^ 2 ] <= 327.24
quadratic_ranged_531_ub: [ 1 x_74_ ^ 2 - 2 x_94_ * x_74_ + 1 x_94_ ^ 2 + 1 y_74_ ^ 2 - 2 y_94_ * y_74_ + 1 y_94_ ^ 2 ] <= 6045.86
quadratic_ranged_532_ub: [ 1 x_79_ ^ 2 - 2 x_94_ * x_79_ + 1 x_94_ ^ 2 + 1 y_79_ ^ 2 - 2 y_94_ * y_79_ + 1 y_94_ ^ 2 ] <= 24677.33
quadratic_ranged_533_ub: [ 1 x_90_ ^ 2 - 2 x_94_ * x_90_ + 1 x_94_ ^ 2 + 1 y_90_ ^ 2 - 2 y_94_ * y_90_ + 1 y_94_ ^ 2 ] <= 16185.25
quadratic_ranged_534_ub: [ 1 x_93_ ^ 2 - 2 x_94_ * x_93_ + 1 x_94_ ^ 2 + 1 y_93_ ^ 2 - 2 y_94_ * y_93_ + 1 y_94_ ^ 2 ] <= 22268.48
quadratic_ranged_535_ub: [ 1 x_9_ ^ 2 - 2 x_95_ * x_9_ + 1 x_95_ ^ 2 + 1 y_9_ ^ 2 - 2 y_95_ * y_9_ + 1 y_95_ ^ 2 ] <= 27444.73
quadratic_ranged_536_ub: [ 1 x_20_ ^ 2 - 2 x_95_ * x_20_ + 1 x_95_ ^ 2 + 1 y_20_ ^ 2 - 2 y_95_ * y_20_ + 1 y_95_ ^ 2 ] <= 30552.5
quadratic_ranged_537_ub: [ 1 x_43_ ^ 2 - 2 x_95_ * x_43_ + 1 x_95_ ^ 2 + 1 y_43_ ^ 2 - 2 y_95_ * y_43_ + 1 y_95_ ^ 2 ] <= 34203.65
quadratic_ranged_538_ub: [ 1 x_46_ ^ 2 - 2 x_95_ * x_46_ + 1 x_95_ ^ 2 + 1 y_46_ ^ 2 - 2 y_95_ * y_46_ + 1 y_95_ ^ 2 ] <= 1706.9
quadratic_ranged_539_ub: [ 1 x_69_ ^ 2 - 2 x_95_ * x_69_ + 1 x_95_ ^ 2 + 1 y_69_ ^ 2 - 2 y_95_ * y_69_ + 1 y_95_ ^ 2 ] <= 37531.6
quadratic_ranged_540_ub: [ 1 x_94_ ^ 2 - 2 x_95_ * x_94_ + 1 x_95_ ^ 2 + 1 y_94_ ^ 2 - 2 y_95_ * y_94_ + 1 y_95_ ^ 2 ] <= 12084.65
quadratic_ranged_541_ub: [ 1 x_10_ ^ 2 - 2 x_96_ * x_10_ + 1 x_96_ ^ 2 + 1 y_10_ ^ 2 - 2 y_96_ * y_10_ + 1 y_96_ ^ 2 ] <= 380.77
quadratic_ranged_542_ub: [ 1 x_17_ ^ 2 - 2 x_96_ * x_17_ + 1 x_96_ ^ 2 + 1 y_17_ ^ 2 - 2 y_96_ * y_17_ + 1 y_96_ ^ 2 ] <= 38583.01
quadratic_ranged_543_ub: [ 1 x_46_ ^ 2 - 2 x_96_ * x_46_ + 1 x_96_ ^ 2 + 1 y_46_ ^ 2 - 2 y_96_ * y_46_ + 1 y_96_ ^ 2 ] <= 24701.57
quadratic_ranged_544_ub: [ 1 x_55_ ^ 2 - 2 x_96_ * x_55_ + 1 x_96_ ^ 2 + 1 y_55_ ^ 2 - 2 y_96_ * y_55_ + 1 y_96_ ^ 2 ] <= 1601.8600000000001
quadratic_ranged_545_ub: [ 1 x_57_ ^ 2 - 2 x_96_ * x_57_ + 1 x_96_ ^ 2 + 1 y_57_ ^ 2 - 2 y_96_ * y_57_ + 1 y_96_ ^ 2 ] <= 14205.65
quadratic_ranged_546_ub: [ 1 x_66_ ^ 2 - 2 x_96_ * x_66_ + 1 x_96_ ^ 2 + 1 y_66_ ^ 2 - 2 y_96_ * y_66_ + 1 y_96_ ^ 2 ] <= 10602.98
quadratic_ranged_547_ub: [ 1 x_95_ ^ 2 - 2 x_96_ * x_95_ + 1 x_96_ ^ 2 + 1 y_95_ ^ 2 - 2 y_96_ * y_95_ + 1 y_96_ ^ 2 ] <= 32098.81
quadratic_ranged_548_ub: [ 1 x_4_ ^ 2 - 2 x_97_ * x_4_ + 1 x_97_ ^ 2 + 1 y_4_ ^ 2 - 2 y_97_ * y_4_ + 1 y_97_ ^ 2 ] <= 2146.25
quadratic_ranged_549_ub: [ 1 x_5_ ^ 2 - 2 x_97_ * x_5_ + 1 x_97_ ^ 2 + 1 y_5_ ^ 2 - 2 y_97_ * y_5_ + 1 y_97_ ^ 2 ] <= 6222.61
quadratic_ranged_550_ub: [ 1 x_15_ ^ 2 - 2 x_97_ * x_15_ + 1 x_97_ ^ 2 + 1 y_15_ ^ 2 - 2 y_97_ * y_15_ + 1 y_97_ ^ 2 ] <= 6401.38
quadratic_ranged_551_ub: [ 1 x_34_ ^ 2 - 2 x_97_ * x_34_ + 1 x_97_ ^ 2 + 1 y_34_ ^ 2 - 2 y_97_ * y_34_ + 1 y_97_ ^ 2 ] <= 21501.89
quadratic_ranged_552_ub: [ 1 x_38_ ^ 2 - 2 x_97_ * x_38_ + 1 x_97_ ^ 2 + 1 y_38_ ^ 2 - 2 y_97_ * y_38_ + 1 y_97_ ^ 2 ] <= 4206.65
quadratic_ranged_553_ub: [ 1 x_46_ ^ 2 - 2 x_97_ * x_46_ + 1 x_97_ ^ 2 + 1 y_46_ ^ 2 - 2 y_97_ * y_46_ + 1 y_97_ ^ 2 ] <= 14205.65
quadratic_ranged_554_ub: [ 1 x_52_ ^ 2 - 2 x_97_ * x_52_ + 1 x_97_ ^ 2 + 1 y_52_ ^ 2 - 2 y_97_ * y_52_ + 1 y_97_ ^ 2 ] <= 1280.68
quadratic_ranged_555_ub: [ 1 x_62_ ^ 2 - 2 x_97_ * x_62_ + 1 x_97_ ^ 2 + 1 y_62_ ^ 2 - 2 y_97_ * y_62_ + 1 y_97_ ^ 2 ] <= 11272.61
quadratic_ranged_556_ub: [ 1 x_84_ ^ 2 - 2 x_97_ * x_84_ + 1 x_97_ ^ 2 + 1 y_84_ ^ 2 - 2 y_97_ * y_84_ + 1 y_97_ ^ 2 ] <= 2783.56
quadratic_ranged_557_ub: [ 1 x_86_ ^ 2 - 2 x_97_ * x_86_ + 1 x_97_ ^ 2 + 1 y_86_ ^ 2 - 2 y_97_ * y_86_ + 1 y_97_ ^ 2 ] <= 1637.21
quadratic_ranged_558_ub: [ 1 x_91_ ^ 2 - 2 x_97_ * x_91_ + 1 x_97_ ^ 2 + 1 y_91_ ^ 2 - 2 y_97_ * y_91_ + 1 y_97_ ^ 2 ] <= 5122.72
quadratic_ranged_559_ub: [ 1 x_96_ ^ 2 - 2 x_97_ * x_96_ + 1 x_97_ ^ 2 + 1 y_96_ ^ 2 - 2 y_97_ * y_96_ + 1 y_97_ ^ 2 ] <= 1632.16
quadratic_ranged_560_ub: [ 1 x_3_ ^ 2 - 2 x_98_ * x_3_ + 1 x_98_ ^ 2 + 1 y_3_ ^ 2 - 2 y_98_ * y_3_ + 1 y_98_ ^ 2 ] <= 14511.68
quadratic_ranged_561_ub: [ 1 x_10_ ^ 2 - 2 x_98_ * x_10_ + 1 x_98_ ^ 2 + 1 y_10_ ^ 2 - 2 y_98_ * y_10_ + 1 y_98_ ^ 2 ] <= 2004.85
quadratic_ranged_562_ub: [ 1 x_22_ ^ 2 - 2 x_98_ * x_22_ + 1 x_98_ ^ 2 + 1 y_22_ ^ 2 - 2 y_98_ * y_22_ + 1 y_98_ ^ 2 ] <= 3176.45
quadratic_ranged_563_ub: [ 1 x_27_ ^ 2 - 2 x_98_ * x_27_ + 1 x_98_ ^ 2 + 1 y_27_ ^ 2 - 2 y_98_ * y_27_ + 1 y_98_ ^ 2 ] <= 1949.3
quadratic_ranged_564_ub: [ 1 x_35_ ^ 2 - 2 x_98_ * x_35_ + 1 x_98_ ^ 2 + 1 y_35_ ^ 2 - 2 y_98_ * y_35_ + 1 y_98_ ^ 2 ] <= 2207.86
quadratic_ranged_565_ub: [ 1 x_44_ ^ 2 - 2 x_98_ * x_44_ + 1 x_98_ ^ 2 + 1 y_44_ ^ 2 - 2 y_98_ * y_44_ + 1 y_98_ ^ 2 ] <= 10699.94
quadratic_ranged_566_ub: [ 1 x_45_ ^ 2 - 2 x_98_ * x_45_ + 1 x_98_ ^ 2 + 1 y_45_ ^ 2 - 2 y_98_ * y_45_ + 1 y_98_ ^ 2 ] <= 12327.05
quadratic_ranged_567_ub: [ 1 x_52_ ^ 2 - 2 x_98_ * x_52_ + 1 x_98_ ^ 2 + 1 y_52_ ^ 2 - 2 y_98_ * y_52_ + 1 y_98_ ^ 2 ] <= 2337.14
quadratic_ranged_568_ub: [ 1 x_76_ ^ 2 - 2 x_98_ * x_76_ + 1 x_98_ ^ 2 + 1 y_76_ ^ 2 - 2 y_98_ * y_76_ + 1 y_98_ ^ 2 ] <= 10013.14
quadratic_ranged_569_ub: [ 1 x_77_ ^ 2 - 2 x_98_ * x_77_ + 1 x_98_ ^ 2 + 1 y_77_ ^ 2 - 2 y_98_ * y_77_ + 1 y_98_ ^ 2 ] <= 4040
quadratic_ranged_570_ub: [ 1 x_81_ ^ 2 - 2 x_98_ * x_81_ + 1 x_98_ ^ 2 + 1 y_81_ ^ 2 - 2 y_98_ * y_81_ + 1 y_98_ ^ 2 ] <= 15761.05
quadratic_ranged_571_ub: [ 1 x_84_ ^ 2 - 2 x_98_ * x_84_ + 1 x_98_ ^ 2 + 1 y_84_ ^ 2 - 2 y_98_ * y_84_ + 1 y_98_ ^ 2 ] <= 4155.14
quadratic_ranged_572_ub: [ 1 x_97_ ^ 2 - 2 x_98_ * x_97_ + 1 x_98_ ^ 2 + 1 y_97_ ^ 2 - 2 y_98_ * y_97_ + 1 y_98_ ^ 2 ] <= 317.14
quadratic_ranged_573_ub: [ 1 x_24_ ^ 2 - 2 x_99_ * x_24_ + 1 x_99_ ^ 2 + 1 y_24_ ^ 2 - 2 y_99_ * y_24_ + 1 y_99_ ^ 2 ] <= 33104.77
quadratic_ranged_574_ub: [ 1 x_30_ ^ 2 - 2 x_99_ * x_30_ + 1 x_99_ ^ 2 + 1 y_30_ ^ 2 - 2 y_99_ * y_30_ + 1 y_99_ ^ 2 ] <= 10190.9
quadratic_ranged_575_ub: [ 1 x_42_ ^ 2 - 2 x_99_ * x_42_ + 1 x_99_ ^ 2 + 1 y_42_ ^ 2 - 2 y_99_ * y_42_ + 1 y_99_ ^ 2 ] <= 26220.61
quadratic_ranged_576_ub: [ 1 x_50_ ^ 2 - 2 x_99_ * x_50_ + 1 x_99_ ^ 2 + 1 y_50_ ^ 2 - 2 y_99_ * y_50_ + 1 y_99_ ^ 2 ] <= 13579.45
quadratic_ranged_577_ub: [ 1 x_83_ ^ 2 - 2 x_99_ * x_83_ + 1 x_99_ ^ 2 + 1 y_83_ ^ 2 - 2 y_99_ * y_83_ + 1 y_99_ ^ 2 ] <= 931.22
quadratic_ranged_578_ub: [ 1 x_98_ ^ 2 - 2 x_99_ * x_98_ + 1 x_99_ ^ 2 + 1 y_98_ ^ 2 - 2 y_99_ * y_98_ + 1 y_99_ ^ 2 ] <= 12561.37
quadratic_ranged_579_ub: [ 1 x_1_ ^ 2 - 2 x_100_ * x_1_ + 1 x_100_ ^ 2 + 1 y_1_ ^ 2 - 2 y_100_ * y_1_ + 1 y_100_ ^ 2 ] <= 2585.6
quadratic_ranged_580_ub: [ 1 x_9_ ^ 2 - 2 x_100_ * x_9_ + 1 x_100_ ^ 2 + 1 y_9_ ^ 2 - 2 y_100_ * y_9_ + 1 y_100_ ^ 2 ] <= 6144.84
quadratic_ranged_581_ub: [ 1 x_11_ ^ 2 - 2 x_100_ * x_11_ + 1 x_100_ ^ 2 + 1 y_11_ ^ 2 - 2 y_100_ * y_11_ + 1 y_100_ ^ 2 ] <= 6213.52
quadratic_ranged_582_ub: [ 1 x_13_ ^ 2 - 2 x_100_ * x_13_ + 1 x_100_ ^ 2 + 1 y_13_ ^ 2 - 2 y_100_ * y_13_ + 1 y_100_ ^ 2 ] <= 18399.170000000002
quadratic_ranged_583_ub: [ 1 x_52_ ^ 2 - 2 x_100_ * x_52_ + 1 x_100_ ^ 2 + 1 y_52_ ^ 2 - 2 y_100_ * y_52_ + 1 y_100_ ^ 2 ] <= 5318.66
quadratic_ranged_584_ub: [ 1 x_95_ ^ 2 - 2 x_100_ * x_95_ + 1 x_100_ ^ 2 + 1 y_95_ ^ 2 - 2 y_100_ * y_95_ + 1 y_100_ ^ 2 ] <= 7761.85
quadratic_ranged_585_ub: [ 1 x_99_ ^ 2 - 2 x_100_ * x_99_ + 1 x_100_ ^ 2 + 1 y_99_ ^ 2 - 2 y_100_ * y_99_ + 1 y_100_ ^ 2 ] <= 3459.25
quadratic_ranged_1_lb: [ 1 x_1_ ^ 2 - 2 x_2_ * x_1_ + 1 x_2_ ^ 2 + 1 y_1_ ^ 2 - 2 y_2_ * y_1_ + 1 y_2_ ^ 2 ] >= 17142.84
quadratic_ranged_2_lb: [ 1 x_2_ ^ 2 - 2 x_3_ * x_2_ + 1 x_3_ ^ 2 + 1 y_2_ ^ 2 - 2 y_3_ * y_2_ + 1 y_3_ ^ 2 ] >= 17633.88
quadratic_ranged_3_lb: [ 1 x_3_ ^ 2 - 2 x_4_ * x_3_ + 1 x_4_ ^ 2 + 1 y_3_ ^ 2 - 2 y_4_ * y_3_ + 1 y_4_ ^ 2 ] >= 15456.869999999999
quadratic_ranged_4_lb: [ 1 x_3_ ^ 2 - 2 x_5_ * x_3_ + 1 x_5_ ^ 2 + 1 y_3_ ^ 2 - 2 y_5_ * y_3_ + 1 y_5_ ^ 2 ] >= 2048.31
quadratic_ranged_5_lb: [ 1 x_4_ ^ 2 - 2 x_5_ * x_4_ + 1 x_5_ ^ 2 + 1 y_4_ ^ 2 - 2 y_5_ * y_4_ + 1 y_5_ ^ 2 ] >= 6989.4
quadratic_ranged_6_lb: [ 1 x_5_ ^ 2 - 2 x_6_ * x_5_ + 1 x_6_ ^ 2 + 1 y_5_ ^ 2 - 2 y_6_ * y_5_ + 1 y_6_ ^ 2 ] >= 17132.94
quadratic_ranged_7_lb: [ 1 x_6_ ^ 2 - 2 x_7_ * x_6_ + 1 x_7_ ^ 2 + 1 y_6_ ^ 2 - 2 y_7_ * y_6_ + 1 y_7_ ^ 2 ] >= 29810.88
quadratic_ranged_8_lb: [ 1 x_3_ ^ 2 - 2 x_8_ * x_3_ + 1 x_8_ ^ 2 + 1 y_3_ ^ 2 - 2 y_8_ * y_3_ + 1 y_8_ ^ 2 ] >= 18612.99
quadratic_ranged_9_lb: [ 1 x_4_ ^ 2 - 2 x_8_ * x_4_ + 1 x_8_ ^ 2 + 1 y_4_ ^ 2 - 2 y_8_ * y_4_ + 1 y_8_ ^ 2 ] >= 32650.2
quadratic_ranged_10_lb: [ 1 x_7_ ^ 2 - 2 x_8_ * x_7_ + 1 x_8_ ^ 2 + 1 y_7_ ^ 2 - 2 y_8_ * y_7_ + 1 y_8_ ^ 2 ] >= 21766.14
quadratic_ranged_11_lb: [ 1 x_2_ ^ 2 - 2 x_9_ * x_2_ + 1 x_9_ ^ 2 + 1 y_2_ ^ 2 - 2 y_9_ * y_2_ + 1 y_9_ ^ 2 ] >= 63.36
quadratic_ranged_12_lb: [ 1 x_8_ ^ 2 - 2 x_9_ * x_8_ + 1 x_9_ ^ 2 + 1 y_8_ ^ 2 - 2 y_9_ * y_8_ + 1 y_9_ ^ 2 ] >= 29095.11
quadratic_ranged_13_lb: [ 1 x_9_ ^ 2 - 2 x_10_ * x_9_ + 1 x_10_ ^ 2 + 1 y_9_ ^ 2 - 2 y_10_ * y_9_ + 1 y_10_ ^ 2 ] >= 1181.07
quadratic_ranged_14_lb: [ 1 x_2_ ^ 2 - 2 x_11_ * x_2_ + 1 x_11_ ^ 2 + 1 y_2_ ^ 2 - 2 y_11_ * y_2_ + 1 y_11_ ^ 2 ] >= 21245.4
quadratic_ranged_15_lb: [ 1 x_5_ ^ 2 - 2 x_11_ * x_5_ + 1 x_11_ ^ 2 + 1 y_5_ ^ 2 - 2 y_11_ * y_5_ + 1 y_11_ ^ 2 ] >= 4281.75
quadratic_ranged_16_lb: [ 1 x_10_ ^ 2 - 2 x_11_ * x_10_ + 1 x_11_ ^ 2 + 1 y_10_ ^ 2 - 2 y_11_ * y_10_ + 1 y_11_ ^ 2 ] >= 25804.35
quadratic_ranged_17_lb: [ 1 x_7_ ^ 2 - 2 x_12_ * x_7_ + 1 x_12_ ^ 2 + 1 y_7_ ^ 2 - 2 y_12_ * y_7_ + 1 y_12_ ^ 2 ] >= 8674.38
quadratic_ranged_18_lb: [ 1 x_8_ ^ 2 - 2 x_12_ * x_8_ + 1 x_12_ ^ 2 + 1 y_8_ ^ 2 - 2 y_12_ * y_8_ + 1 y_12_ ^ 2 ] >= 3108.6
quadratic_ranged_19_lb: [ 1 x_11_ ^ 2 - 2 x_12_ * x_11_ + 1 x_12_ ^ 2 + 1 y_11_ ^ 2 - 2 y_12_ * y_11_ + 1 y_12_ ^ 2 ] >= 527.67
quadratic_ranged_20_lb: [ 1 x_3_ ^ 2 - 2 x_13_ * x_3_ + 1 x_13_ ^ 2 + 1 y_3_ ^ 2 - 2 y_13_ * y_3_ + 1 y_13_ ^ 2 ] >= 16122.15
quadratic_ranged_21_lb: [ 1 x_12_ ^ 2 - 2 x_13_ * x_12_ + 1 x_13_ ^ 2 + 1 y_12_ ^ 2 - 2 y_13_ * y_12_ + 1 y_13_ ^ 2 ] >= 33456.06
quadratic_ranged_22_lb: [ 1 x_4_ ^ 2 - 2 x_14_ * x_4_ + 1 x_14_ ^ 2 + 1 y_4_ ^ 2 - 2 y_14_ * y_4_ + 1 y_14_ ^ 2 ] >= 9412.92
quadratic_ranged_23_lb: [ 1 x_13_ ^ 2 - 2 x_14_ * x_13_ + 1 x_14_ ^ 2 + 1 y_13_ ^ 2 - 2 y_14_ * y_13_ + 1 y_14_ ^ 2 ] >= 23809.5
quadratic_ranged_24_lb: [ 1 x_14_ ^ 2 - 2 x_15_ * x_14_ + 1 x_15_ ^ 2 + 1 y_14_ ^ 2 - 2 y_15_ * y_14_ + 1 y_15_ ^ 2 ] >= 9758.43
quadratic_ranged_25_lb: [ 1 x_2_ ^ 2 - 2 x_16_ * x_2_ + 1 x_16_ ^ 2 + 1 y_2_ ^ 2 - 2 y_16_ * y_2_ + 1 y_16_ ^ 2 ] >= 18272.43
quadratic_ranged_26_lb: [ 1 x_15_ ^ 2 - 2 x_16_ * x_15_ + 1 x_16_ ^ 2 + 1 y_15_ ^ 2 - 2 y_16_ * y_15_ + 1 y_16_ ^ 2 ] >= 1984.95
quadratic_ranged_27_lb: [ 1 x_7_ ^ 2 - 2 x_17_ * x_7_ + 1 x_17_ ^ 2 + 1 y_7_ ^ 2 - 2 y_17_ * y_7_ + 1 y_17_ ^ 2 ] >= 26928
quadratic_ranged_28_lb: [ 1 x_13_ ^ 2 - 2 x_17_ * x_13_ + 1 x_17_ ^ 2 + 1 y_13_ ^ 2 - 2 y_17_ * y_13_ + 1 y_17_ ^ 2 ] >= 57610.08
quadratic_ranged_29_lb: [ 1 x_16_ ^ 2 - 2 x_17_ * x_16_ + 1 x_17_ ^ 2 + 1 y_16_ ^ 2 - 2 y_17_ * y_16_ + 1 y_17_ ^ 2 ] >= 20738.52
quadratic_ranged_30_lb: [ 1 x_6_ ^ 2 - 2 x_18_ * x_6_ + 1 x_18_ ^ 2 + 1 y_6_ ^ 2 - 2 y_18_ * y_6_ + 1 y_18_ ^ 2 ] >= 12740.31
quadratic_ranged_31_lb: [ 1 x_11_ ^ 2 - 2 x_18_ * x_11_ + 1 x_18_ ^ 2 + 1 y_11_ ^ 2 - 2 y_18_ * y_11_ + 1 y_18_ ^ 2 ] >= 12798.72
quadratic_ranged_32_lb: [ 1 x_12_ ^ 2 - 2 x_18_ * x_12_ + 1 x_18_ ^ 2 + 1 y_12_ ^ 2 - 2 y_18_ * y_12_ + 1 y_18_ ^ 2 ] >= 10395.99
quadratic_ranged_33_lb: [ 1 x_17_ ^ 2 - 2 x_18_ * x_17_ + 1 x_18_ ^ 2 + 1 y_17_ ^ 2 - 2 y_18_ * y_17_ + 1 y_18_ ^ 2 ] >= 10578.15
quadratic_ranged_34_lb: [ 1 x_4_ ^ 2 - 2 x_19_ * x_4_ + 1 x_19_ ^ 2 + 1 y_4_ ^ 2 - 2 y_19_ * y_4_ + 1 y_19_ ^ 2 ] >= 2574
quadratic_ranged_35_lb: [ 1 x_10_ ^ 2 - 2 x_19_ * x_10_ + 1 x_19_ ^ 2 + 1 y_10_ ^ 2 - 2 y_19_ * y_10_ + 1 y_19_ ^ 2 ] >= 6631.0199999999995
quadratic_ranged_36_lb: [ 1 x_18_ ^ 2 - 2 x_19_ * x_18_ + 1 x_19_ ^ 2 + 1 y_18_ ^ 2 - 2 y_19_ * y_18_ + 1 y_19_ ^ 2 ] >= 8214.03
quadratic_ranged_37_lb: [ 1 x_18_ ^ 2 - 2 x_20_ * x_18_ + 1 x_20_ ^ 2 + 1 y_18_ ^ 2 - 2 y_20_ * y_18_ + 1 y_20_ ^ 2 ] >= 18050.67
quadratic_ranged_38_lb: [ 1 x_19_ ^ 2 - 2 x_20_ * x_19_ + 1 x_20_ ^ 2 + 1 y_19_ ^ 2 - 2 y_20_ * y_19_ + 1 y_20_ ^ 2 ] >= 2861.1
quadratic_ranged_39_lb: [ 1 x_1_ ^ 2 - 2 x_21_ * x_1_ + 1 x_21_ ^ 2 + 1 y_1_ ^ 2 - 2 y_21_ * y_1_ + 1 y_21_ ^ 2 ] >= 8403.12
quadratic_ranged_40_lb: [ 1 x_20_ ^ 2 - 2 x_21_ * x_20_ + 1 x_21_ ^ 2 + 1 y_20_ ^ 2 - 2 y_21_ * y_20_ + 1 y_21_ ^ 2 ] >= 21646.35
quadratic_ranged_41_lb: [ 1 x_3_ ^ 2 - 2 x_22_ * x_3_ + 1 x_22_ ^ 2 + 1 y_3_ ^ 2 - 2 y_22_ * y_3_ + 1 y_22_ ^ 2 ] >= 18597.15
quadratic_ranged_42_lb: [ 1 x_10_ ^ 2 - 2 x_22_ * x_10_ + 1 x_22_ ^ 2 + 1 y_10_ ^ 2 - 2 y_22_ * y_10_ + 1 y_22_ ^ 2 ] >= 6339.96
quadratic_ranged_43_lb: [ 1 x_15_ ^ 2 - 2 x_22_ * x_15_ + 1 x_22_ ^ 2 + 1 y_15_ ^ 2 - 2 y_22_ * y_15_ + 1 y_22_ ^ 2 ] >= 10578.15
quadratic_ranged_44_lb: [ 1 x_19_ ^ 2 - 2 x_22_ * x_19_ + 1 x_22_ ^ 2 + 1 y_19_ ^ 2 - 2 y_22_ * y_19_ + 1 y_22_ ^ 2 ] >= 5260.86
quadratic_ranged_45_lb: [ 1 x_21_ ^ 2 - 2 x_22_ * x_21_ + 1 x_22_ ^ 2 + 1 y_21_ ^ 2 - 2 y_22_ * y_21_ + 1 y_22_ ^ 2 ] >= 29772.27
quadratic_ranged_46_lb: [ 1 x_12_ ^ 2 - 2 x_23_ * x_12_ + 1 x_23_ ^ 2 + 1 y_12_ ^ 2 - 2 y_23_ * y_12_ + 1 y_23_ ^ 2 ] >= 777.15
quadratic_ranged_47_lb: [ 1 x_13_ ^ 2 - 2 x_23_ * x_13_ + 1 x_23_ ^ 2 + 1 y_13_ ^ 2 - 2 y_23_ * y_13_ + 1 y_23_ ^ 2 ] >= 28255.59
quadratic_ranged_48_lb: [ 1 x_22_ ^ 2 - 2 x_23_ * x_22_ + 1 x_23_ ^ 2 + 1 y_22_ ^ 2 - 2 y_23_ * y_22_ + 1 y_23_ ^ 2 ] >= 27530.91
quadratic_ranged_49_lb: [ 1 x_2_ ^ 2 - 2 x_24_ * x_2_ + 1 x_24_ ^ 2 + 1 y_2_ ^ 2 - 2 y_24_ * y_2_ + 1 y_24_ ^ 2 ] >= 14646.06
quadratic_ranged_50_lb: [ 1 x_7_ ^ 2 - 2 x_24_ * x_7_ + 1 x_24_ ^ 2 + 1 y_7_ ^ 2 - 2 y_24_ * y_7_ + 1 y_24_ ^ 2 ] >= 2222.55
quadratic_ranged_51_lb: [ 1 x_14_ ^ 2 - 2 x_24_ * x_14_ + 1 x_24_ ^ 2 + 1 y_14_ ^ 2 - 2 y_24_ * y_14_ + 1 y_24_ ^ 2 ] >= 26220.15
quadratic_ranged_52_lb: [ 1 x_23_ ^ 2 - 2 x_24_ * x_23_ + 1 x_24_ ^ 2 + 1 y_23_ ^ 2 - 2 y_24_ * y_23_ + 1 y_24_ ^ 2 ] >= 12802.68
quadratic_ranged_53_lb: [ 1 x_5_ ^ 2 - 2 x_25_ * x_5_ + 1 x_25_ ^ 2 + 1 y_5_ ^ 2 - 2 y_25_ * y_5_ + 1 y_25_ ^ 2 ] >= 17285.4
quadratic_ranged_54_lb: [ 1 x_10_ ^ 2 - 2 x_25_ * x_10_ + 1 x_25_ ^ 2 + 1 y_10_ ^ 2 - 2 y_25_ * y_10_ + 1 y_25_ ^ 2 ] >= 14210.46
quadratic_ranged_55_lb: [ 1 x_19_ ^ 2 - 2 x_25_ * x_19_ + 1 x_25_ ^ 2 + 1 y_19_ ^ 2 - 2 y_25_ * y_19_ + 1 y_25_ ^ 2 ] >= 15032.16
quadratic_ranged_56_lb: [ 1 x_24_ ^ 2 - 2 x_25_ * x_24_ + 1 x_25_ ^ 2 + 1 y_24_ ^ 2 - 2 y_25_ * y_24_ + 1 y_25_ ^ 2 ] >= 39608.909999999996
quadratic_ranged_57_lb: [ 1 x_5_ ^ 2 - 2 x_26_ * x_5_ + 1 x_26_ ^ 2 + 1 y_5_ ^ 2 - 2 y_26_ * y_5_ + 1 y_26_ ^ 2 ] >= 21900.78
quadratic_ranged_58_lb: [ 1 x_17_ ^ 2 - 2 x_26_ * x_17_ + 1 x_26_ ^ 2 + 1 y_17_ ^ 2 - 2 y_26_ * y_17_ + 1 y_26_ ^ 2 ] >= 28805.04
quadratic_ranged_59_lb: [ 1 x_19_ ^ 2 - 2 x_26_ * x_19_ + 1 x_26_ ^ 2 + 1 y_19_ ^ 2 - 2 y_26_ * y_19_ + 1 y_26_ ^ 2 ] >= 13885.74
quadratic_ranged_60_lb: [ 1 x_25_ ^ 2 - 2 x_26_ * x_25_ + 1 x_26_ ^ 2 + 1 y_25_ ^ 2 - 2 y_26_ * y_25_ + 1 y_26_ ^ 2 ] >= 8999.1
quadratic_ranged_61_lb: [ 1 x_5_ ^ 2 - 2 x_27_ * x_5_ + 1 x_27_ ^ 2 + 1 y_5_ ^ 2 - 2 y_27_ * y_5_ + 1 y_27_ ^ 2 ] >= 10506.87
quadratic_ranged_62_lb: [ 1 x_11_ ^ 2 - 2 x_27_ * x_11_ + 1 x_27_ ^ 2 + 1 y_11_ ^ 2 - 2 y_27_ * y_11_ + 1 y_27_ ^ 2 ] >= 26739.9
quadratic_ranged_63_lb: [ 1 x_20_ ^ 2 - 2 x_27_ * x_20_ + 1 x_27_ ^ 2 + 1 y_20_ ^ 2 - 2 y_27_ * y_20_ + 1 y_27_ ^ 2 ] >= 1414.71
quadratic_ranged_64_lb: [ 1 x_26_ ^ 2 - 2 x_27_ * x_26_ + 1 x_27_ ^ 2 + 1 y_26_ ^ 2 - 2 y_27_ * y_26_ + 1 y_27_ ^ 2 ] >= 12657.15
quadratic_ranged_65_lb: [ 1 x_18_ ^ 2 - 2 x_28_ * x_18_ + 1 x_28_ ^ 2 + 1 y_18_ ^ 2 - 2 y_28_ * y_18_ + 1 y_28_ ^ 2 ] >= 9.9
quadratic_ranged_66_lb: [ 1 x_24_ ^ 2 - 2 x_28_ * x_24_ + 1 x_28_ ^ 2 + 1 y_24_ ^ 2 - 2 y_28_ * y_24_ + 1 y_28_ ^ 2 ] >= 30179.16
quadratic_ranged_67_lb: [ 1 x_27_ ^ 2 - 2 x_28_ * x_27_ + 1 x_28_ ^ 2 + 1 y_27_ ^ 2 - 2 y_28_ * y_27_ + 1 y_28_ ^ 2 ] >= 15974.64
quadratic_ranged_68_lb: [ 1 x_25_ ^ 2 - 2 x_29_ * x_25_ + 1 x_29_ ^ 2 + 1 y_25_ ^ 2 - 2 y_29_ * y_25_ + 1 y_29_ ^ 2 ] >= 32797.71
quadratic_ranged_69_lb: [ 1 x_28_ ^ 2 - 2 x_29_ * x_28_ + 1 x_29_ ^ 2 + 1 y_28_ ^ 2 - 2 y_29_ * y_28_ + 1 y_29_ ^ 2 ] >= 25759.8
quadratic_ranged_70_lb: [ 1 x_5_ ^ 2 - 2 x_30_ * x_5_ + 1 x_30_ ^ 2 + 1 y_5_ ^ 2 - 2 y_30_ * y_5_ + 1 y_30_ ^ 2 ] >= 6435
quadratic_ranged_71_lb: [ 1 x_9_ ^ 2 - 2 x_30_ * x_9_ + 1 x_30_ ^ 2 + 1 y_9_ ^ 2 - 2 y_30_ * y_9_ + 1 y_30_ ^ 2 ] >= 24881.67
quadratic_ranged_72_lb: [ 1 x_29_ ^ 2 - 2 x_30_ * x_29_ + 1 x_30_ ^ 2 + 1 y_29_ ^ 2 - 2 y_30_ * y_29_ + 1 y_30_ ^ 2 ] >= 10043.55
quadratic_ranged_73_lb: [ 1 x_3_ ^ 2 - 2 x_31_ * x_3_ + 1 x_31_ ^ 2 + 1 y_3_ ^ 2 - 2 y_31_ * y_3_ + 1 y_31_ ^ 2 ] >= 10860.3
quadratic_ranged_74_lb: [ 1 x_20_ ^ 2 - 2 x_31_ * x_20_ + 1 x_31_ ^ 2 + 1 y_20_ ^ 2 - 2 y_31_ * y_20_ + 1 y_31_ ^ 2 ] >= 27233.91
quadratic_ranged_75_lb: [ 1 x_29_ ^ 2 - 2 x_31_ * x_29_ + 1 x_31_ ^ 2 + 1 y_29_ ^ 2 - 2 y_31_ * y_29_ + 1 y_31_ ^ 2 ] >= 17000.28
quadratic_ranged_76_lb: [ 1 x_30_ ^ 2 - 2 x_31_ * x_30_ + 1 x_31_ ^ 2 + 1 y_30_ ^ 2 - 2 y_31_ * y_30_ + 1 y_31_ ^ 2 ] >= 1596.87
quadratic_ranged_77_lb: [ 1 x_2_ ^ 2 - 2 x_32_ * x_2_ + 1 x_32_ ^ 2 + 1 y_2_ ^ 2 - 2 y_32_ * y_2_ + 1 y_32_ ^ 2 ] >= 1047.42
quadratic_ranged_78_lb: [ 1 x_19_ ^ 2 - 2 x_32_ * x_19_ + 1 x_32_ ^ 2 + 1 y_19_ ^ 2 - 2 y_32_ * y_19_ + 1 y_32_ ^ 2 ] >= 6760.71
quadratic_ranged_79_lb: [ 1 x_28_ ^ 2 - 2 x_32_ * x_28_ + 1 x_32_ ^ 2 + 1 y_28_ ^ 2 - 2 y_32_ * y_28_ + 1 y_32_ ^ 2 ] >= 9828.72
quadratic_ranged_80_lb: [ 1 x_30_ ^ 2 - 2 x_32_ * x_30_ + 1 x_32_ ^ 2 + 1 y_30_ ^ 2 - 2 y_32_ * y_30_ + 1 y_32_ ^ 2 ] >= 32437.35
quadratic_ranged_81_lb: [ 1 x_31_ ^ 2 - 2 x_32_ * x_31_ + 1 x_32_ ^ 2 + 1 y_31_ ^ 2 - 2 y_32_ * y_31_ + 1 y_32_ ^ 2 ] >= 29224.8
quadratic_ranged_82_lb: [ 1 x_23_ ^ 2 - 2 x_33_ * x_23_ + 1 x_33_ ^ 2 + 1 y_23_ ^ 2 - 2 y_33_ * y_23_ + 1 y_33_ ^ 2 ] >= 34179.75
quadratic_ranged_83_lb: [ 1 x_27_ ^ 2 - 2 x_33_ * x_27_ + 1 x_33_ ^ 2 + 1 y_27_ ^ 2 - 2 y_33_ * y_27_ + 1 y_33_ ^ 2 ] >= 5137.11
quadratic_ranged_84_lb: [ 1 x_32_ ^ 2 - 2 x_33_ * x_32_ + 1 x_33_ ^ 2 + 1 y_32_ ^ 2 - 2 y_33_ * y_32_ + 1 y_33_ ^ 2 ] >= 749.43
quadratic_ranged_85_lb: [ 1 x_12_ ^ 2 - 2 x_34_ * x_12_ + 1 x_34_ ^ 2 + 1 y_12_ ^ 2 - 2 y_34_ * y_12_ + 1 y_34_ ^ 2 ] >= 8587.26
quadratic_ranged_86_lb: [ 1 x_15_ ^ 2 - 2 x_34_ * x_15_ + 1 x_34_ ^ 2 + 1 y_15_ ^ 2 - 2 y_34_ * y_15_ + 1 y_34_ ^ 2 ] >= 4364.91
quadratic_ranged_87_lb: [ 1 x_18_ ^ 2 - 2 x_34_ * x_18_ + 1 x_34_ ^ 2 + 1 y_18_ ^ 2 - 2 y_34_ * y_18_ + 1 y_34_ ^ 2 ] >= 27115.11
quadratic_ranged_88_lb: [ 1 x_24_ ^ 2 - 2 x_34_ * x_24_ + 1 x_34_ ^ 2 + 1 y_24_ ^ 2 - 2 y_34_ * y_24_ + 1 y_34_ ^ 2 ] >= 4162.95
quadratic_ranged_89_lb: [ 1 x_27_ ^ 2 - 2 x_34_ * x_27_ + 1 x_34_ ^ 2 + 1 y_27_ ^ 2 - 2 y_34_ * y_27_ + 1 y_34_ ^ 2 ] >= 26069.67
quadratic_ranged_90_lb: [ 1 x_30_ ^ 2 - 2 x_34_ * x_30_ + 1 x_34_ ^ 2 + 1 y_30_ ^ 2 - 2 y_34_ * y_30_ + 1 y_34_ ^ 2 ] >= 6401.34
quadratic_ranged_91_lb: [ 1 x_33_ ^ 2 - 2 x_34_ * x_33_ + 1 x_34_ ^ 2 + 1 y_33_ ^ 2 - 2 y_34_ * y_33_ + 1 y_34_ ^ 2 ] >= 41653.26
quadratic_ranged_92_lb: [ 1 x_2_ ^ 2 - 2 x_35_ * x_2_ + 1 x_35_ ^ 2 + 1 y_2_ ^ 2 - 2 y_35_ * y_2_ + 1 y_35_ ^ 2 ] >= 889.02
quadratic_ranged_93_lb: [ 1 x_4_ ^ 2 - 2 x_35_ * x_4_ + 1 x_35_ ^ 2 + 1 y_4_ ^ 2 - 2 y_35_ * y_4_ + 1 y_35_ ^ 2 ] >= 385.11
quadratic_ranged_94_lb: [ 1 x_12_ ^ 2 - 2 x_35_ * x_12_ + 1 x_35_ ^ 2 + 1 y_12_ ^ 2 - 2 y_35_ * y_12_ + 1 y_35_ ^ 2 ] >= 29467.35
quadratic_ranged_95_lb: [ 1 x_15_ ^ 2 - 2 x_35_ * x_15_ + 1 x_35_ ^ 2 + 1 y_15_ ^ 2 - 2 y_35_ * y_15_ + 1 y_35_ ^ 2 ] >= 10583.1
quadratic_ranged_96_lb: [ 1 x_20_ ^ 2 - 2 x_35_ * x_20_ + 1 x_35_ ^ 2 + 1 y_20_ ^ 2 - 2 y_35_ * y_20_ + 1 y_35_ ^ 2 ] >= 1062.27
quadratic_ranged_97_lb: [ 1 x_29_ ^ 2 - 2 x_35_ * x_29_ + 1 x_35_ ^ 2 + 1 y_29_ ^ 2 - 2 y_35_ * y_29_ + 1 y_35_ ^ 2 ] >= 16319.16
quadratic_ranged_98_lb: [ 1 x_34_ ^ 2 - 2 x_35_ * x_34_ + 1 x_35_ ^ 2 + 1 y_34_ ^ 2 - 2 y_35_ * y_34_ + 1 y_35_ ^ 2 ] >= 25044.03
quadratic_ranged_99_lb: [ 1 x_35_ ^ 2 - 2 x_36_ * x_35_ + 1 x_36_ ^ 2 + 1 y_35_ ^ 2 - 2 y_36_ * y_35_ + 1 y_36_ ^ 2 ] >= 11836.44
quadratic_ranged_100_lb: [ 1 x_7_ ^ 2 - 2 x_37_ * x_7_ + 1 x_37_ ^ 2 + 1 y_7_ ^ 2 - 2 y_37_ * y_7_ + 1 y_37_ ^ 2 ] >= 8017.0199999999995
quadratic_ranged_101_lb: [ 1 x_9_ ^ 2 - 2 x_37_ * x_9_ + 1 x_37_ ^ 2 + 1 y_9_ ^ 2 - 2 y_37_ * y_9_ + 1 y_37_ ^ 2 ] >= 8166.51
quadratic_ranged_102_lb: [ 1 x_22_ ^ 2 - 2 x_37_ * x_22_ + 1 x_37_ ^ 2 + 1 y_22_ ^ 2 - 2 y_37_ * y_22_ + 1 y_37_ ^ 2 ] >= 3185.82
quadratic_ranged_103_lb: [ 1 x_36_ ^ 2 - 2 x_37_ * x_36_ + 1 x_37_ ^ 2 + 1 y_36_ ^ 2 - 2 y_37_ * y_36_ + 1 y_37_ ^ 2 ] >= 18395.19
quadratic_ranged_104_lb: [ 1 x_4_ ^ 2 - 2 x_38_ * x_4_ + 1 x_38_ ^ 2 + 1 y_4_ ^ 2 - 2 y_38_ * y_4_ + 1 y_38_ ^ 2 ] >= 3732.3
quadratic_ranged_105_lb: [ 1 x_6_ ^ 2 - 2 x_38_ * x_6_ + 1 x_38_ ^ 2 + 1 y_6_ ^ 2 - 2 y_38_ * y_6_ + 1 y_38_ ^ 2 ] >= 12394.8
quadratic_ranged_106_lb: [ 1 x_18_ ^ 2 - 2 x_38_ * x_18_ + 1 x_38_ ^ 2 + 1 y_18_ ^ 2 - 2 y_38_ * y_18_ + 1 y_38_ ^ 2 ] >= 11595.87
quadratic_ranged_107_lb: [ 1 x_19_ ^ 2 - 2 x_38_ * x_19_ + 1 x_38_ ^ 2 + 1 y_19_ ^ 2 - 2 y_38_ * y_19_ + 1 y_38_ ^ 2 ] >= 405.9
quadratic_ranged_108_lb: [ 1 x_26_ ^ 2 - 2 x_38_ * x_26_ + 1 x_38_ ^ 2 + 1 y_26_ ^ 2 - 2 y_38_ * y_26_ + 1 y_38_ ^ 2 ] >= 19039.68
quadratic_ranged_109_lb: [ 1 x_28_ ^ 2 - 2 x_38_ * x_28_ + 1 x_38_ ^ 2 + 1 y_28_ ^ 2 - 2 y_38_ * y_28_ + 1 y_38_ ^ 2 ] >= 11861.19
quadratic_ranged_110_lb: [ 1 x_34_ ^ 2 - 2 x_38_ * x_34_ + 1 x_38_ ^ 2 + 1 y_34_ ^ 2 - 2 y_38_ * y_34_ + 1 y_38_ ^ 2 ] >= 7167.6
quadratic_ranged_111_lb: [ 1 x_37_ ^ 2 - 2 x_38_ * x_37_ + 1 x_38_ ^ 2 + 1 y_37_ ^ 2 - 2 y_38_ * y_37_ + 1 y_38_ ^ 2 ] >= 3859.02
quadratic_ranged_112_lb: [ 1 x_12_ ^ 2 - 2 x_39_ * x_12_ + 1 x_39_ ^ 2 + 1 y_12_ ^ 2 - 2 y_39_ * y_12_ + 1 y_39_ ^ 2 ] >= 21641.4
quadratic_ranged_113_lb: [ 1 x_32_ ^ 2 - 2 x_39_ * x_32_ + 1 x_39_ ^ 2 + 1 y_32_ ^ 2 - 2 y_39_ * y_32_ + 1 y_39_ ^ 2 ] >= 3307.59
quadratic_ranged_114_lb: [ 1 x_38_ ^ 2 - 2 x_39_ * x_38_ + 1 x_39_ ^ 2 + 1 y_38_ ^ 2 - 2 y_39_ * y_38_ + 1 y_39_ ^ 2 ] >= 2781.9
quadratic_ranged_115_lb: [ 1 x_18_ ^ 2 - 2 x_40_ * x_18_ + 1 x_40_ ^ 2 + 1 y_18_ ^ 2 - 2 y_40_ * y_18_ + 1 y_40_ ^ 2 ] >= 239.57999999999998
quadratic_ranged_116_lb: [ 1 x_20_ ^ 2 - 2 x_40_ * x_20_ + 1 x_40_ ^ 2 + 1 y_20_ ^ 2 - 2 y_40_ * y_20_ + 1 y_40_ ^ 2 ] >= 20141.55
quadratic_ranged_117_lb: [ 1 x_29_ ^ 2 - 2 x_40_ * x_29_ + 1 x_40_ ^ 2 + 1 y_29_ ^ 2 - 2 y_40_ * y_29_ + 1 y_40_ ^ 2 ] >= 29787.12
quadratic_ranged_118_lb: [ 1 x_31_ ^ 2 - 2 x_40_ * x_31_ + 1 x_40_ ^ 2 + 1 y_31_ ^ 2 - 2 y_40_ * y_31_ + 1 y_40_ ^ 2 ] >= 10791
quadratic_ranged_119_lb: [ 1 x_39_ ^ 2 - 2 x_40_ * x_39_ + 1 x_40_ ^ 2 + 1 y_39_ ^ 2 - 2 y_40_ * y_39_ + 1 y_40_ ^ 2 ] >= 14997.51
quadratic_ranged_120_lb: [ 1 x_34_ ^ 2 - 2 x_41_ * x_34_ + 1 x_41_ ^ 2 + 1 y_34_ ^ 2 - 2 y_41_ * y_34_ + 1 y_41_ ^ 2 ] >= 15290.55
quadratic_ranged_121_lb: [ 1 x_40_ ^ 2 - 2 x_41_ * x_40_ + 1 x_41_ ^ 2 + 1 y_40_ ^ 2 - 2 y_41_ * y_40_ + 1 y_41_ ^ 2 ] >= 13345.2
quadratic_ranged_122_lb: [ 1 x_1_ ^ 2 - 2 x_42_ * x_1_ + 1 x_42_ ^ 2 + 1 y_1_ ^ 2 - 2 y_42_ * y_1_ + 1 y_42_ ^ 2 ] >= 13260.06
quadratic_ranged_123_lb: [ 1 x_22_ ^ 2 - 2 x_42_ * x_22_ + 1 x_42_ ^ 2 + 1 y_22_ ^ 2 - 2 y_42_ * y_22_ + 1 y_42_ ^ 2 ] >= 20965.23
quadratic_ranged_124_lb: [ 1 x_25_ ^ 2 - 2 x_42_ * x_25_ + 1 x_42_ ^ 2 + 1 y_25_ ^ 2 - 2 y_42_ * y_25_ + 1 y_42_ ^ 2 ] >= 32548.23
quadratic_ranged_125_lb: [ 1 x_29_ ^ 2 - 2 x_42_ * x_29_ + 1 x_42_ ^ 2 + 1 y_29_ ^ 2 - 2 y_42_ * y_29_ + 1 y_42_ ^ 2 ] >= 605.88
quadratic_ranged_126_lb: [ 1 x_30_ ^ 2 - 2 x_42_ * x_30_ + 1 x_42_ ^ 2 + 1 y_30_ ^ 2 - 2 y_42_ * y_30_ + 1 y_42_ ^ 2 ] >= 7275.51
quadratic_ranged_127_lb: [ 1 x_31_ ^ 2 - 2 x_42_ * x_31_ + 1 x_42_ ^ 2 + 1 y_31_ ^ 2 - 2 y_42_ * y_31_ + 1 y_42_ ^ 2 ] >= 14398.56
quadratic_ranged_128_lb: [ 1 x_41_ ^ 2 - 2 x_42_ * x_41_ + 1 x_42_ ^ 2 + 1 y_41_ ^ 2 - 2 y_42_ * y_41_ + 1 y_42_ ^ 2 ] >= 13293.72
quadratic_ranged_129_lb: [ 1 x_9_ ^ 2 - 2 x_43_ * x_9_ + 1 x_43_ ^ 2 + 1 y_9_ ^ 2 - 2 y_43_ * y_9_ + 1 y_43_ ^ 2 ] >= 2585.88
quadratic_ranged_130_lb: [ 1 x_22_ ^ 2 - 2 x_43_ * x_22_ + 1 x_43_ ^ 2 + 1 y_22_ ^ 2 - 2 y_43_ * y_22_ + 1 y_43_ ^ 2 ] >= 8602.11
quadratic_ranged_131_lb: [ 1 x_36_ ^ 2 - 2 x_43_ * x_36_ + 1 x_43_ ^ 2 + 1 y_36_ ^ 2 - 2 y_43_ * y_36_ + 1 y_43_ ^ 2 ] >= 6844.86
quadratic_ranged_132_lb: [ 1 x_42_ ^ 2 - 2 x_43_ * x_42_ + 1 x_43_ ^ 2 + 1 y_42_ ^ 2 - 2 y_43_ * y_42_ + 1 y_43_ ^ 2 ] >= 37669.5
quadratic_ranged_133_lb: [ 1 x_13_ ^ 2 - 2 x_44_ * x_13_ + 1 x_44_ ^ 2 + 1 y_13_ ^ 2 - 2 y_44_ * y_13_ + 1 y_44_ ^ 2 ] >= 4851.99
quadratic_ranged_134_lb: [ 1 x_14_ ^ 2 - 2 x_44_ * x_14_ + 1 x_44_ ^ 2 + 1 y_14_ ^ 2 - 2 y_44_ * y_14_ + 1 y_44_ ^ 2 ] >= 22996.71
quadratic_ranged_135_lb: [ 1 x_37_ ^ 2 - 2 x_44_ * x_37_ + 1 x_44_ ^ 2 + 1 y_37_ ^ 2 - 2 y_44_ * y_37_ + 1 y_44_ ^ 2 ] >= 1668.15
quadratic_ranged_136_lb: [ 1 x_43_ ^ 2 - 2 x_44_ * x_43_ + 1 x_44_ ^ 2 + 1 y_43_ ^ 2 - 2 y_44_ * y_43_ + 1 y_44_ ^ 2 ] >= 26692.38
quadratic_ranged_137_lb: [ 1 x_4_ ^ 2 - 2 x_45_ * x_4_ + 1 x_45_ ^ 2 + 1 y_4_ ^ 2 - 2 y_45_ * y_4_ + 1 y_45_ ^ 2 ] >= 16808.22
quadratic_ranged_138_lb: [ 1 x_13_ ^ 2 - 2 x_45_ * x_13_ + 1 x_45_ ^ 2 + 1 y_13_ ^ 2 - 2 y_45_ * y_13_ + 1 y_45_ ^ 2 ] >= 25930.079999999998
quadratic_ranged_139_lb: [ 1 x_42_ ^ 2 - 2 x_45_ * x_42_ + 1 x_45_ ^ 2 + 1 y_42_ ^ 2 - 2 y_45_ * y_42_ + 1 y_45_ ^ 2 ] >= 7528.95
quadratic_ranged_140_lb: [ 1 x_44_ ^ 2 - 2 x_45_ * x_44_ + 1 x_45_ ^ 2 + 1 y_44_ ^ 2 - 2 y_45_ * y_44_ + 1 y_45_ ^ 2 ] >= 13801.59
quadratic_ranged_141_lb: [ 1 x_5_ ^ 2 - 2 x_46_ * x_5_ + 1 x_46_ ^ 2 + 1 y_5_ ^ 2 - 2 y_46_ * y_5_ + 1 y_46_ ^ 2 ] >= 11604.78
quadratic_ranged_142_lb: [ 1 x_8_ ^ 2 - 2 x_46_ * x_8_ + 1 x_46_ ^ 2 + 1 y_8_ ^ 2 - 2 y_46_ * y_8_ + 1 y_46_ ^ 2 ] >= 603.9
quadratic_ranged_143_lb: [ 1 x_17_ ^ 2 - 2 x_46_ * x_17_ + 1 x_46_ ^ 2 + 1 y_17_ ^ 2 - 2 y_46_ * y_17_ + 1 y_46_ ^ 2 ] >= 1584
quadratic_ranged_144_lb: [ 1 x_36_ ^ 2 - 2 x_46_ * x_36_ + 1 x_46_ ^ 2 + 1 y_36_ ^ 2 - 2 y_46_ * y_36_ + 1 y_46_ ^ 2 ] >= 5469.75
quadratic_ranged_145_lb: [ 1 x_44_ ^ 2 - 2 x_46_ * x_44_ + 1 x_46_ ^ 2 + 1 y_44_ ^ 2 - 2 y_46_ * y_44_ + 1 y_46_ ^ 2 ] >= 28548.63
quadratic_ranged_146_lb: [ 1 x_45_ ^ 2 - 2 x_46_ * x_45_ + 1 x_46_ ^ 2 + 1 y_45_ ^ 2 - 2 y_46_ * y_45_ + 1 y_46_ ^ 2 ] >= 3104.64
quadratic_ranged_147_lb: [ 1 x_14_ ^ 2 - 2 x_47_ * x_14_ + 1 x_47_ ^ 2 + 1 y_14_ ^ 2 - 2 y_47_ * y_14_ + 1 y_47_ ^ 2 ] >= 5941.98
quadratic_ranged_148_lb: [ 1 x_21_ ^ 2 - 2 x_47_ * x_21_ + 1 x_47_ ^ 2 + 1 y_21_ ^ 2 - 2 y_47_ * y_21_ + 1 y_47_ ^ 2 ] >= 22169.07
quadratic_ranged_149_lb: [ 1 x_23_ ^ 2 - 2 x_47_ * x_23_ + 1 x_47_ ^ 2 + 1 y_23_ ^ 2 - 2 y_47_ * y_23_ + 1 y_47_ ^ 2 ] >= 17824.95
quadratic_ranged_150_lb: [ 1 x_30_ ^ 2 - 2 x_47_ * x_30_ + 1 x_47_ ^ 2 + 1 y_30_ ^ 2 - 2 y_47_ * y_30_ + 1 y_47_ ^ 2 ] >= 20681.1
quadratic_ranged_151_lb: [ 1 x_41_ ^ 2 - 2 x_47_ * x_41_ + 1 x_47_ ^ 2 + 1 y_41_ ^ 2 - 2 y_47_ * y_41_ + 1 y_47_ ^ 2 ] >= 456.39
quadratic_ranged_152_lb: [ 1 x_46_ ^ 2 - 2 x_47_ * x_46_ + 1 x_47_ ^ 2 + 1 y_46_ ^ 2 - 2 y_47_ * y_46_ + 1 y_47_ ^ 2 ] >= 19075.32
quadratic_ranged_153_lb: [ 1 x_6_ ^ 2 - 2 x_48_ * x_6_ + 1 x_48_ ^ 2 + 1 y_6_ ^ 2 - 2 y_48_ * y_6_ + 1 y_48_ ^ 2 ] >= 2566.08
quadratic_ranged_154_lb: [ 1 x_7_ ^ 2 - 2 x_48_ * x_7_ + 1 x_48_ ^ 2 + 1 y_7_ ^ 2 - 2 y_48_ * y_7_ + 1 y_48_ ^ 2 ] >= 15840
quadratic_ranged_155_lb: [ 1 x_12_ ^ 2 - 2 x_48_ * x_12_ + 1 x_48_ ^ 2 + 1 y_12_ ^ 2 - 2 y_48_ * y_12_ + 1 y_48_ ^ 2 ] >= 24355.98
quadratic_ranged_156_lb: [ 1 x_21_ ^ 2 - 2 x_48_ * x_21_ + 1 x_48_ ^ 2 + 1 y_21_ ^ 2 - 2 y_48_ * y_21_ + 1 y_48_ ^ 2 ] >= 26497.35
quadratic_ranged_157_lb: [ 1 x_24_ ^ 2 - 2 x_48_ * x_24_ + 1 x_48_ ^ 2 + 1 y_24_ ^ 2 - 2 y_48_ * y_24_ + 1 y_48_ ^ 2 ] >= 12597.75
quadratic_ranged_158_lb: [ 1 x_27_ ^ 2 - 2 x_48_ * x_27_ + 1 x_48_ ^ 2 + 1 y_27_ ^ 2 - 2 y_48_ * y_27_ + 1 y_48_ ^ 2 ] >= 242.55
quadratic_ranged_159_lb: [ 1 x_35_ ^ 2 - 2 x_48_ * x_35_ + 1 x_48_ ^ 2 + 1 y_35_ ^ 2 - 2 y_48_ * y_35_ + 1 y_48_ ^ 2 ] >= 309.87
quadratic_ranged_160_lb: [ 1 x_46_ ^ 2 - 2 x_48_ * x_46_ + 1 x_48_ ^ 2 + 1 y_46_ ^ 2 - 2 y_48_ * y_46_ + 1 y_48_ ^ 2 ] >= 25344
quadratic_ranged_161_lb: [ 1 x_47_ ^ 2 - 2 x_48_ * x_47_ + 1 x_48_ ^ 2 + 1 y_47_ ^ 2 - 2 y_48_ * y_47_ + 1 y_48_ ^ 2 ] >= 447.48
quadratic_ranged_162_lb: [ 1 x_32_ ^ 2 - 2 x_49_ * x_32_ + 1 x_49_ ^ 2 + 1 y_32_ ^ 2 - 2 y_49_ * y_32_ + 1 y_49_ ^ 2 ] >= 6530.04
quadratic_ranged_163_lb: [ 1 x_38_ ^ 2 - 2 x_49_ * x_38_ + 1 x_49_ ^ 2 + 1 y_38_ ^ 2 - 2 y_49_ * y_38_ + 1 y_49_ ^ 2 ] >= 21388.95
quadratic_ranged_164_lb: [ 1 x_40_ ^ 2 - 2 x_49_ * x_40_ + 1 x_49_ ^ 2 + 1 y_40_ ^ 2 - 2 y_49_ * y_40_ + 1 y_49_ ^ 2 ] >= 3168
quadratic_ranged_165_lb: [ 1 x_48_ ^ 2 - 2 x_49_ * x_48_ + 1 x_49_ ^ 2 + 1 y_48_ ^ 2 - 2 y_49_ * y_48_ + 1 y_49_ ^ 2 ] >= 13615.47
quadratic_ranged_166_lb: [ 1 x_2_ ^ 2 - 2 x_50_ * x_2_ + 1 x_50_ ^ 2 + 1 y_2_ ^ 2 - 2 y_50_ * y_2_ + 1 y_50_ ^ 2 ] >= 4286.7
quadratic_ranged_167_lb: [ 1 x_7_ ^ 2 - 2 x_50_ * x_7_ + 1 x_50_ ^ 2 + 1 y_7_ ^ 2 - 2 y_50_ * y_7_ + 1 y_50_ ^ 2 ] >= 4317.39
quadratic_ranged_168_lb: [ 1 x_11_ ^ 2 - 2 x_50_ * x_11_ + 1 x_50_ ^ 2 + 1 y_11_ ^ 2 - 2 y_50_ * y_11_ + 1 y_50_ ^ 2 ] >= 7771.5
quadratic_ranged_169_lb: [ 1 x_20_ ^ 2 - 2 x_50_ * x_20_ + 1 x_50_ ^ 2 + 1 y_20_ ^ 2 - 2 y_50_ * y_20_ + 1 y_50_ ^ 2 ] >= 2899.71
quadratic_ranged_170_lb: [ 1 x_21_ ^ 2 - 2 x_50_ * x_21_ + 1 x_50_ ^ 2 + 1 y_21_ ^ 2 - 2 y_50_ * y_21_ + 1 y_50_ ^ 2 ] >= 9783.18
quadratic_ranged_171_lb: [ 1 x_25_ ^ 2 - 2 x_50_ * x_25_ + 1 x_50_ ^ 2 + 1 y_25_ ^ 2 - 2 y_50_ * y_25_ + 1 y_50_ ^ 2 ] >= 17607.15
quadratic_ranged_172_lb: [ 1 x_26_ ^ 2 - 2 x_50_ * x_26_ + 1 x_50_ ^ 2 + 1 y_26_ ^ 2 - 2 y_50_ * y_26_ + 1 y_50_ ^ 2 ] >= 17619.03
quadratic_ranged_173_lb: [ 1 x_29_ ^ 2 - 2 x_50_ * x_29_ + 1 x_50_ ^ 2 + 1 y_29_ ^ 2 - 2 y_50_ * y_29_ + 1 y_50_ ^ 2 ] >= 4375.8
quadratic_ranged_174_lb: [ 1 x_38_ ^ 2 - 2 x_50_ * x_38_ + 1 x_50_ ^ 2 + 1 y_38_ ^ 2 - 2 y_50_ * y_38_ + 1 y_50_ ^ 2 ] >= 28.71
quadratic_ranged_175_lb: [ 1 x_42_ ^ 2 - 2 x_50_ * x_42_ + 1 x_50_ ^ 2 + 1 y_42_ ^ 2 - 2 y_50_ * y_42_ + 1 y_50_ ^ 2 ] >= 6597.36
quadratic_ranged_176_lb: [ 1 x_43_ ^ 2 - 2 x_50_ * x_43_ + 1 x_50_ ^ 2 + 1 y_43_ ^ 2 - 2 y_50_ * y_43_ + 1 y_50_ ^ 2 ] >= 12832.38
quadratic_ranged_177_lb: [ 1 x_47_ ^ 2 - 2 x_50_ * x_47_ + 1 x_50_ ^ 2 + 1 y_47_ ^ 2 - 2 y_50_ * y_47_ + 1 y_50_ ^ 2 ] >= 2638.35
quadratic_ranged_178_lb: [ 1 x_48_ ^ 2 - 2 x_50_ * x_48_ + 1 x_50_ ^ 2 + 1 y_48_ ^ 2 - 2 y_50_ * y_48_ + 1 y_50_ ^ 2 ] >= 4079.79
quadratic_ranged_179_lb: [ 1 x_49_ ^ 2 - 2 x_50_ * x_49_ + 1 x_50_ ^ 2 + 1 y_49_ ^ 2 - 2 y_50_ * y_49_ + 1 y_50_ ^ 2 ] >= 19867.32
quadratic_ranged_180_lb: [ 1 x_8_ ^ 2 - 2 x_51_ * x_8_ + 1 x_51_ ^ 2 + 1 y_8_ ^ 2 - 2 y_51_ * y_8_ + 1 y_51_ ^ 2 ] >= 2908.62
quadratic_ranged_181_lb: [ 1 x_20_ ^ 2 - 2 x_51_ * x_20_ + 1 x_51_ ^ 2 + 1 y_20_ ^ 2 - 2 y_51_ * y_20_ + 1 y_51_ ^ 2 ] >= 18679.32
quadratic_ranged_182_lb: [ 1 x_38_ ^ 2 - 2 x_51_ * x_38_ + 1 x_51_ ^ 2 + 1 y_38_ ^ 2 - 2 y_51_ * y_38_ + 1 y_51_ ^ 2 ] >= 7809.12
quadratic_ranged_183_lb: [ 1 x_50_ ^ 2 - 2 x_51_ * x_50_ + 1 x_51_ ^ 2 + 1 y_50_ ^ 2 - 2 y_51_ * y_50_ + 1 y_51_ ^ 2 ] >= 7330.95
quadratic_ranged_184_lb: [ 1 x_2_ ^ 2 - 2 x_52_ * x_2_ + 1 x_52_ ^ 2 + 1 y_2_ ^ 2 - 2 y_52_ * y_2_ + 1 y_52_ ^ 2 ] >= 2781.9
quadratic_ranged_185_lb: [ 1 x_3_ ^ 2 - 2 x_52_ * x_3_ + 1 x_52_ ^ 2 + 1 y_3_ ^ 2 - 2 y_52_ * y_3_ + 1 y_52_ ^ 2 ] >= 24783.66
quadratic_ranged_186_lb: [ 1 x_13_ ^ 2 - 2 x_52_ * x_13_ + 1 x_52_ ^ 2 + 1 y_13_ ^ 2 - 2 y_52_ * y_13_ + 1 y_52_ ^ 2 ] >= 16993.35
quadratic_ranged_187_lb: [ 1 x_34_ ^ 2 - 2 x_52_ * x_34_ + 1 x_52_ ^ 2 + 1 y_34_ ^ 2 - 2 y_52_ * y_34_ + 1 y_52_ ^ 2 ] >= 32160.15
quadratic_ranged_188_lb: [ 1 x_41_ ^ 2 - 2 x_52_ * x_41_ + 1 x_52_ ^ 2 + 1 y_41_ ^ 2 - 2 y_52_ * y_41_ + 1 y_52_ ^ 2 ] >= 5702.4
quadratic_ranged_189_lb: [ 1 x_46_ ^ 2 - 2 x_52_ * x_46_ + 1 x_52_ ^ 2 + 1 y_46_ ^ 2 - 2 y_52_ * y_46_ + 1 y_52_ ^ 2 ] >= 16549.829999999998
quadratic_ranged_190_lb: [ 1 x_51_ ^ 2 - 2 x_52_ * x_51_ + 1 x_52_ ^ 2 + 1 y_51_ ^ 2 - 2 y_52_ * y_51_ + 1 y_52_ ^ 2 ] >= 13346.19
quadratic_ranged_191_lb: [ 1 x_14_ ^ 2 - 2 x_53_ * x_14_ + 1 x_53_ ^ 2 + 1 y_14_ ^ 2 - 2 y_53_ * y_14_ + 1 y_53_ ^ 2 ] >= 28255.59
quadratic_ranged_192_lb: [ 1 x_27_ ^ 2 - 2 x_53_ * x_27_ + 1 x_53_ ^ 2 + 1 y_27_ ^ 2 - 2 y_53_ * y_27_ + 1 y_53_ ^ 2 ] >= 23989.68
quadratic_ranged_193_lb: [ 1 x_38_ ^ 2 - 2 x_53_ * x_38_ + 1 x_53_ ^ 2 + 1 y_38_ ^ 2 - 2 y_53_ * y_38_ + 1 y_53_ ^ 2 ] >= 6887.43
quadratic_ranged_194_lb: [ 1 x_52_ ^ 2 - 2 x_53_ * x_52_ + 1 x_53_ ^ 2 + 1 y_52_ ^ 2 - 2 y_53_ * y_52_ + 1 y_53_ ^ 2 ] >= 32951.159999999996
quadratic_ranged_195_lb: [ 1 x_20_ ^ 2 - 2 x_54_ * x_20_ + 1 x_54_ ^ 2 + 1 y_20_ ^ 2 - 2 y_54_ * y_20_ + 1 y_54_ ^ 2 ] >= 18833.76
quadratic_ranged_196_lb: [ 1 x_33_ ^ 2 - 2 x_54_ * x_33_ + 1 x_54_ ^ 2 + 1 y_33_ ^ 2 - 2 y_54_ * y_33_ + 1 y_54_ ^ 2 ] >= 1554.3
quadratic_ranged_197_lb: [ 1 x_37_ ^ 2 - 2 x_54_ * x_37_ + 1 x_54_ ^ 2 + 1 y_37_ ^ 2 - 2 y_54_ * y_37_ + 1 y_54_ ^ 2 ] >= 30169.26
quadratic_ranged_198_lb: [ 1 x_41_ ^ 2 - 2 x_54_ * x_41_ + 1 x_54_ ^ 2 + 1 y_41_ ^ 2 - 2 y_54_ * y_41_ + 1 y_54_ ^ 2 ] >= 13809.51
quadratic_ranged_199_lb: [ 1 x_51_ ^ 2 - 2 x_54_ * x_51_ + 1 x_54_ ^ 2 + 1 y_51_ ^ 2 - 2 y_54_ * y_51_ + 1 y_54_ ^ 2 ] >= 21546.36
quadratic_ranged_200_lb: [ 1 x_53_ ^ 2 - 2 x_54_ * x_53_ + 1 x_54_ ^ 2 + 1 y_53_ ^ 2 - 2 y_54_ * y_53_ + 1 y_54_ ^ 2 ] >= 50395.95
quadratic_ranged_201_lb: [ 1 x_3_ ^ 2 - 2 x_55_ * x_3_ + 1 x_55_ ^ 2 + 1 y_3_ ^ 2 - 2 y_55_ * y_3_ + 1 y_55_ ^ 2 ] >= 16113.24
quadratic_ranged_202_lb: [ 1 x_17_ ^ 2 - 2 x_55_ * x_17_ + 1 x_55_ ^ 2 + 1 y_17_ ^ 2 - 2 y_55_ * y_17_ + 1 y_55_ ^ 2 ] >= 38658.51
quadratic_ranged_203_lb: [ 1 x_27_ ^ 2 - 2 x_55_ * x_27_ + 1 x_55_ ^ 2 + 1 y_27_ ^ 2 - 2 y_55_ * y_27_ + 1 y_55_ ^ 2 ] >= 334.62
quadratic_ranged_204_lb: [ 1 x_33_ ^ 2 - 2 x_55_ * x_33_ + 1 x_55_ ^ 2 + 1 y_33_ ^ 2 - 2 y_55_ * y_33_ + 1 y_55_ ^ 2 ] >= 5073.75
quadratic_ranged_205_lb: [ 1 x_34_ ^ 2 - 2 x_55_ * x_34_ + 1 x_55_ ^ 2 + 1 y_34_ ^ 2 - 2 y_55_ * y_34_ + 1 y_55_ ^ 2 ] >= 21598.829999999998
quadratic_ranged_206_lb: [ 1 x_38_ ^ 2 - 2 x_55_ * x_38_ + 1 x_55_ ^ 2 + 1 y_38_ ^ 2 - 2 y_55_ * y_38_ + 1 y_55_ ^ 2 ] >= 4028.31
quadratic_ranged_207_lb: [ 1 x_43_ ^ 2 - 2 x_55_ * x_43_ + 1 x_55_ ^ 2 + 1 y_43_ ^ 2 - 2 y_55_ * y_43_ + 1 y_55_ ^ 2 ] >= 5088.6
quadratic_ranged_208_lb: [ 1 x_52_ ^ 2 - 2 x_55_ * x_52_ + 1 x_55_ ^ 2 + 1 y_52_ ^ 2 - 2 y_55_ * y_52_ + 1 y_55_ ^ 2 ] >= 4445.1
quadratic_ranged_209_lb: [ 1 x_54_ ^ 2 - 2 x_55_ * x_54_ + 1 x_55_ ^ 2 + 1 y_54_ ^ 2 - 2 y_55_ * y_54_ + 1 y_55_ ^ 2 ] >= 11021.67
quadratic_ranged_210_lb: [ 1 x_2_ ^ 2 - 2 x_56_ * x_2_ + 1 x_56_ ^ 2 + 1 y_2_ ^ 2 - 2 y_56_ * y_2_ + 1 y_56_ ^ 2 ] >= 6075.63
quadratic_ranged_211_lb: [ 1 x_16_ ^ 2 - 2 x_56_ * x_16_ + 1 x_56_ ^ 2 + 1 y_16_ ^ 2 - 2 y_56_ * y_16_ + 1 y_56_ ^ 2 ] >= 34693.56
quadratic_ranged_212_lb: [ 1 x_34_ ^ 2 - 2 x_56_ * x_34_ + 1 x_56_ ^ 2 + 1 y_34_ ^ 2 - 2 y_56_ * y_34_ + 1 y_56_ ^ 2 ] >= 43758
quadratic_ranged_213_lb: [ 1 x_50_ ^ 2 - 2 x_56_ * x_50_ + 1 x_56_ ^ 2 + 1 y_50_ ^ 2 - 2 y_56_ * y_50_ + 1 y_56_ ^ 2 ] >= 15591.51
quadratic_ranged_214_lb: [ 1 x_55_ ^ 2 - 2 x_56_ * x_55_ + 1 x_56_ ^ 2 + 1 y_55_ ^ 2 - 2 y_56_ * y_55_ + 1 y_56_ ^ 2 ] >= 8455.59
quadratic_ranged_215_lb: [ 1 x_4_ ^ 2 - 2 x_57_ * x_4_ + 1 x_57_ ^ 2 + 1 y_4_ ^ 2 - 2 y_57_ * y_4_ + 1 y_57_ ^ 2 ] >= 8383.32
quadratic_ranged_216_lb: [ 1 x_18_ ^ 2 - 2 x_57_ * x_18_ + 1 x_57_ ^ 2 + 1 y_18_ ^ 2 - 2 y_57_ * y_18_ + 1 y_57_ ^ 2 ] >= 11132.55
quadratic_ranged_217_lb: [ 1 x_23_ ^ 2 - 2 x_57_ * x_23_ + 1 x_57_ ^ 2 + 1 y_23_ ^ 2 - 2 y_57_ * y_23_ + 1 y_57_ ^ 2 ] >= 3260.07
quadratic_ranged_218_lb: [ 1 x_28_ ^ 2 - 2 x_57_ * x_28_ + 1 x_57_ ^ 2 + 1 y_28_ ^ 2 - 2 y_57_ * y_28_ + 1 y_57_ ^ 2 ] >= 11564.19
quadratic_ranged_219_lb: [ 1 x_30_ ^ 2 - 2 x_57_ * x_30_ + 1 x_57_ ^ 2 + 1 y_30_ ^ 2 - 2 y_57_ * y_30_ + 1 y_57_ ^ 2 ] >= 5088.6
quadratic_ranged_220_lb: [ 1 x_47_ ^ 2 - 2 x_57_ * x_47_ + 1 x_57_ ^ 2 + 1 y_47_ ^ 2 - 2 y_57_ * y_47_ + 1 y_57_ ^ 2 ] >= 6718.14
quadratic_ranged_221_lb: [ 1 x_54_ ^ 2 - 2 x_57_ * x_54_ + 1 x_57_ ^ 2 + 1 y_54_ ^ 2 - 2 y_57_ * y_54_ + 1 y_57_ ^ 2 ] >= 24997.5
quadratic_ranged_222_lb: [ 1 x_56_ ^ 2 - 2 x_57_ * x_56_ + 1 x_57_ ^ 2 + 1 y_56_ ^ 2 - 2 y_57_ * y_56_ + 1 y_57_ ^ 2 ] >= 21290.94
quadratic_ranged_223_lb: [ 1 x_6_ ^ 2 - 2 x_58_ * x_6_ + 1 x_58_ ^ 2 + 1 y_6_ ^ 2 - 2 y_58_ * y_6_ + 1 y_58_ ^ 2 ] >= 25804.35
quadratic_ranged_224_lb: [ 1 x_25_ ^ 2 - 2 x_58_ * x_25_ + 1 x_58_ ^ 2 + 1 y_25_ ^ 2 - 2 y_58_ * y_25_ + 1 y_58_ ^ 2 ] >= 27245.79
quadratic_ranged_225_lb: [ 1 x_49_ ^ 2 - 2 x_58_ * x_49_ + 1 x_58_ ^ 2 + 1 y_49_ ^ 2 - 2 y_58_ * y_49_ + 1 y_58_ ^ 2 ] >= 36800.28
quadratic_ranged_226_lb: [ 1 x_56_ ^ 2 - 2 x_58_ * x_56_ + 1 x_58_ ^ 2 + 1 y_56_ ^ 2 - 2 y_58_ * y_56_ + 1 y_58_ ^ 2 ] >= 31684.95
quadratic_ranged_227_lb: [ 1 x_57_ ^ 2 - 2 x_58_ * x_57_ + 1 x_58_ ^ 2 + 1 y_57_ ^ 2 - 2 y_58_ * y_57_ + 1 y_58_ ^ 2 ] >= 1402.83
quadratic_ranged_228_lb: [ 1 x_3_ ^ 2 - 2 x_59_ * x_3_ + 1 x_59_ ^ 2 + 1 y_3_ ^ 2 - 2 y_59_ * y_3_ + 1 y_59_ ^ 2 ] >= 11548.35
quadratic_ranged_229_lb: [ 1 x_5_ ^ 2 - 2 x_59_ * x_5_ + 1 x_59_ ^ 2 + 1 y_5_ ^ 2 - 2 y_59_ * y_5_ + 1 y_59_ ^ 2 ] >= 8325.9
quadratic_ranged_230_lb: [ 1 x_13_ ^ 2 - 2 x_59_ * x_13_ + 1 x_59_ ^ 2 + 1 y_13_ ^ 2 - 2 y_59_ * y_13_ + 1 y_59_ ^ 2 ] >= 35184.6
quadratic_ranged_231_lb: [ 1 x_27_ ^ 2 - 2 x_59_ * x_27_ + 1 x_59_ ^ 2 + 1 y_27_ ^ 2 - 2 y_59_ * y_27_ + 1 y_59_ ^ 2 ] >= 27115.11
quadratic_ranged_232_lb: [ 1 x_58_ ^ 2 - 2 x_59_ * x_58_ + 1 x_59_ ^ 2 + 1 y_58_ ^ 2 - 2 y_59_ * y_58_ + 1 y_59_ ^ 2 ] >= 13488.75
quadratic_ranged_233_lb: [ 1 x_28_ ^ 2 - 2 x_60_ * x_28_ + 1 x_60_ ^ 2 + 1 y_28_ ^ 2 - 2 y_60_ * y_28_ + 1 y_60_ ^ 2 ] >= 7589.34
quadratic_ranged_234_lb: [ 1 x_43_ ^ 2 - 2 x_60_ * x_43_ + 1 x_60_ ^ 2 + 1 y_43_ ^ 2 - 2 y_60_ * y_43_ + 1 y_60_ ^ 2 ] >= 27423
quadratic_ranged_235_lb: [ 1 x_49_ ^ 2 - 2 x_60_ * x_49_ + 1 x_60_ ^ 2 + 1 y_49_ ^ 2 - 2 y_60_ * y_49_ + 1 y_60_ ^ 2 ] >= 23484.78
quadratic_ranged_236_lb: [ 1 x_59_ ^ 2 - 2 x_60_ * x_59_ + 1 x_60_ ^ 2 + 1 y_59_ ^ 2 - 2 y_60_ * y_59_ + 1 y_60_ ^ 2 ] >= 167.31
quadratic_ranged_237_lb: [ 1 x_21_ ^ 2 - 2 x_61_ * x_21_ + 1 x_61_ ^ 2 + 1 y_21_ ^ 2 - 2 y_61_ * y_21_ + 1 y_61_ ^ 2 ] >= 17801.19
quadratic_ranged_238_lb: [ 1 x_58_ ^ 2 - 2 x_61_ * x_58_ + 1 x_61_ ^ 2 + 1 y_58_ ^ 2 - 2 y_61_ * y_58_ + 1 y_61_ ^ 2 ] >= 6954.75
quadratic_ranged_239_lb: [ 1 x_59_ ^ 2 - 2 x_61_ * x_59_ + 1 x_61_ ^ 2 + 1 y_59_ ^ 2 - 2 y_61_ * y_59_ + 1 y_61_ ^ 2 ] >= 17196.3
quadratic_ranged_240_lb: [ 1 x_60_ ^ 2 - 2 x_61_ * x_60_ + 1 x_61_ ^ 2 + 1 y_60_ ^ 2 - 2 y_61_ * y_60_ + 1 y_61_ ^ 2 ] >= 19911.87
quadratic_ranged_241_lb: [ 1 x_22_ ^ 2 - 2 x_62_ * x_22_ + 1 x_62_ ^ 2 + 1 y_22_ ^ 2 - 2 y_62_ * y_22_ + 1 y_62_ ^ 2 ] >= 30642.48
quadratic_ranged_242_lb: [ 1 x_34_ ^ 2 - 2 x_62_ * x_34_ + 1 x_62_ ^ 2 + 1 y_34_ ^ 2 - 2 y_62_ * y_34_ + 1 y_62_ ^ 2 ] >= 24456.96
quadratic_ranged_243_lb: [ 1 x_48_ ^ 2 - 2 x_62_ * x_48_ + 1 x_62_ ^ 2 + 1 y_48_ ^ 2 - 2 y_62_ * y_48_ + 1 y_62_ ^ 2 ] >= 22255.2
quadratic_ranged_244_lb: [ 1 x_54_ ^ 2 - 2 x_62_ * x_54_ + 1 x_62_ ^ 2 + 1 y_54_ ^ 2 - 2 y_62_ * y_54_ + 1 y_62_ ^ 2 ] >= 16255.8
quadratic_ranged_245_lb: [ 1 x_60_ ^ 2 - 2 x_62_ * x_60_ + 1 x_62_ ^ 2 + 1 y_60_ ^ 2 - 2 y_62_ * y_60_ + 1 y_62_ ^ 2 ] >= 2246.31
quadratic_ranged_246_lb: [ 1 x_61_ ^ 2 - 2 x_62_ * x_61_ + 1 x_62_ ^ 2 + 1 y_61_ ^ 2 - 2 y_62_ * y_61_ + 1 y_62_ ^ 2 ] >= 19120.86
quadratic_ranged_247_lb: [ 1 x_2_ ^ 2 - 2 x_63_ * x_2_ + 1 x_63_ ^ 2 + 1 y_2_ ^ 2 - 2 y_63_ * y_2_ + 1 y_63_ ^ 2 ] >= 9519.84
quadratic_ranged_248_lb: [ 1 x_5_ ^ 2 - 2 x_63_ * x_5_ + 1 x_63_ ^ 2 + 1 y_5_ ^ 2 - 2 y_63_ * y_5_ + 1 y_63_ ^ 2 ] >= 64.35
quadratic_ranged_249_lb: [ 1 x_37_ ^ 2 - 2 x_63_ * x_37_ + 1 x_63_ ^ 2 + 1 y_37_ ^ 2 - 2 y_63_ * y_37_ + 1 y_63_ ^ 2 ] >= 7271.55
quadratic_ranged_250_lb: [ 1 x_41_ ^ 2 - 2 x_63_ * x_41_ + 1 x_63_ ^ 2 + 1 y_41_ ^ 2 - 2 y_63_ * y_41_ + 1 y_63_ ^ 2 ] >= 4991.58
quadratic_ranged_251_lb: [ 1 x_52_ ^ 2 - 2 x_63_ * x_52_ + 1 x_63_ ^ 2 + 1 y_52_ ^ 2 - 2 y_63_ * y_52_ + 1 y_63_ ^ 2 ] >= 14210.46
quadratic_ranged_252_lb: [ 1 x_56_ ^ 2 - 2 x_63_ * x_56_ + 1 x_63_ ^ 2 + 1 y_56_ ^ 2 - 2 y_63_ * y_56_ + 1 y_63_ ^ 2 ] >= 22216.59
quadratic_ranged_253_lb: [ 1 x_57_ ^ 2 - 2 x_63_ * x_57_ + 1 x_63_ ^ 2 + 1 y_57_ ^ 2 - 2 y_63_ * y_57_ + 1 y_63_ ^ 2 ] >= 24.75
quadratic_ranged_254_lb: [ 1 x_62_ ^ 2 - 2 x_63_ * x_62_ + 1 x_63_ ^ 2 + 1 y_62_ ^ 2 - 2 y_63_ * y_62_ + 1 y_63_ ^ 2 ] >= 12914.55
quadratic_ranged_255_lb: [ 1 x_8_ ^ 2 - 2 x_64_ * x_8_ + 1 x_64_ ^ 2 + 1 y_8_ ^ 2 - 2 y_64_ * y_8_ + 1 y_64_ ^ 2 ] >= 23713.47
quadratic_ranged_256_lb: [ 1 x_29_ ^ 2 - 2 x_64_ * x_29_ + 1 x_64_ ^ 2 + 1 y_29_ ^ 2 - 2 y_64_ * y_29_ + 1 y_64_ ^ 2 ] >= 1387.98
quadratic_ranged_257_lb: [ 1 x_38_ ^ 2 - 2 x_64_ * x_38_ + 1 x_64_ ^ 2 + 1 y_38_ ^ 2 - 2 y_64_ * y_38_ + 1 y_64_ ^ 2 ] >= 646.47
quadratic_ranged_258_lb: [ 1 x_39_ ^ 2 - 2 x_64_ * x_39_ + 1 x_64_ ^ 2 + 1 y_39_ ^ 2 - 2 y_64_ * y_39_ + 1 y_64_ ^ 2 ] >= 4836.15
quadratic_ranged_259_lb: [ 1 x_44_ ^ 2 - 2 x_64_ * x_44_ + 1 x_64_ ^ 2 + 1 y_44_ ^ 2 - 2 y_64_ * y_44_ + 1 y_64_ ^ 2 ] >= 1102.86
quadratic_ranged_260_lb: [ 1 x_47_ ^ 2 - 2 x_64_ * x_47_ + 1 x_64_ ^ 2 + 1 y_47_ ^ 2 - 2 y_64_ * y_47_ + 1 y_64_ ^ 2 ] >= 6024.15
quadratic_ranged_261_lb: [ 1 x_63_ ^ 2 - 2 x_64_ * x_63_ + 1 x_64_ ^ 2 + 1 y_63_ ^ 2 - 2 y_64_ * y_63_ + 1 y_64_ ^ 2 ] >= 990
quadratic_ranged_262_lb: [ 1 x_8_ ^ 2 - 2 x_65_ * x_8_ + 1 x_65_ ^ 2 + 1 y_8_ ^ 2 - 2 y_65_ * y_8_ + 1 y_65_ ^ 2 ] >= 30290.04
quadratic_ranged_263_lb: [ 1 x_10_ ^ 2 - 2 x_65_ * x_10_ + 1 x_65_ ^ 2 + 1 y_10_ ^ 2 - 2 y_65_ * y_10_ + 1 y_65_ ^ 2 ] >= 4167.9
quadratic_ranged_264_lb: [ 1 x_18_ ^ 2 - 2 x_65_ * x_18_ + 1 x_65_ ^ 2 + 1 y_18_ ^ 2 - 2 y_65_ * y_18_ + 1 y_65_ ^ 2 ] >= 12419.55
quadratic_ranged_265_lb: [ 1 x_26_ ^ 2 - 2 x_65_ * x_26_ + 1 x_65_ ^ 2 + 1 y_26_ ^ 2 - 2 y_65_ * y_26_ + 1 y_65_ ^ 2 ] >= 12816.539999999999
quadratic_ranged_266_lb: [ 1 x_64_ ^ 2 - 2 x_65_ * x_64_ + 1 x_65_ ^ 2 + 1 y_64_ ^ 2 - 2 y_65_ * y_64_ + 1 y_65_ ^ 2 ] >= 4776.75
quadratic_ranged_267_lb: [ 1 x_21_ ^ 2 - 2 x_66_ * x_21_ + 1 x_66_ ^ 2 + 1 y_21_ ^ 2 - 2 y_66_ * y_21_ + 1 y_66_ ^ 2 ] >= 13313.52
quadratic_ranged_268_lb: [ 1 x_27_ ^ 2 - 2 x_66_ * x_27_ + 1 x_66_ ^ 2 + 1 y_27_ ^ 2 - 2 y_66_ * y_27_ + 1 y_66_ ^ 2 ] >= 14503.5
quadratic_ranged_269_lb: [ 1 x_33_ ^ 2 - 2 x_66_ * x_33_ + 1 x_66_ ^ 2 + 1 y_33_ ^ 2 - 2 y_66_ * y_33_ + 1 y_66_ ^ 2 ] >= 12443.31
quadratic_ranged_270_lb: [ 1 x_43_ ^ 2 - 2 x_66_ * x_43_ + 1 x_66_ ^ 2 + 1 y_43_ ^ 2 - 2 y_66_ * y_43_ + 1 y_66_ ^ 2 ] >= 11127.6
quadratic_ranged_271_lb: [ 1 x_52_ ^ 2 - 2 x_66_ * x_52_ + 1 x_66_ ^ 2 + 1 y_52_ ^ 2 - 2 y_66_ * y_52_ + 1 y_66_ ^ 2 ] >= 6179.58
quadratic_ranged_272_lb: [ 1 x_64_ ^ 2 - 2 x_66_ * x_64_ + 1 x_66_ ^ 2 + 1 y_64_ ^ 2 - 2 y_66_ * y_64_ + 1 y_66_ ^ 2 ] >= 9903.96
quadratic_ranged_273_lb: [ 1 x_65_ ^ 2 - 2 x_66_ * x_65_ + 1 x_66_ ^ 2 + 1 y_65_ ^ 2 - 2 y_66_ * y_65_ + 1 y_66_ ^ 2 ] >= 9588.15
quadratic_ranged_274_lb: [ 1 x_2_ ^ 2 - 2 x_67_ * x_2_ + 1 x_67_ ^ 2 + 1 y_2_ ^ 2 - 2 y_67_ * y_2_ + 1 y_67_ ^ 2 ] >= 23024.43
quadratic_ranged_275_lb: [ 1 x_9_ ^ 2 - 2 x_67_ * x_9_ + 1 x_67_ ^ 2 + 1 y_9_ ^ 2 - 2 y_67_ * y_9_ + 1 y_67_ ^ 2 ] >= 21519.63
quadratic_ranged_276_lb: [ 1 x_12_ ^ 2 - 2 x_67_ * x_12_ + 1 x_67_ ^ 2 + 1 y_12_ ^ 2 - 2 y_67_ * y_12_ + 1 y_67_ ^ 2 ] >= 5068.8
quadratic_ranged_277_lb: [ 1 x_16_ ^ 2 - 2 x_67_ * x_16_ + 1 x_67_ ^ 2 + 1 y_16_ ^ 2 - 2 y_67_ * y_16_ + 1 y_67_ ^ 2 ] >= 18265.5
quadratic_ranged_278_lb: [ 1 x_23_ ^ 2 - 2 x_67_ * x_23_ + 1 x_67_ ^ 2 + 1 y_23_ ^ 2 - 2 y_67_ * y_23_ + 1 y_67_ ^ 2 ] >= 9457.47
quadratic_ranged_279_lb: [ 1 x_34_ ^ 2 - 2 x_67_ * x_34_ + 1 x_67_ ^ 2 + 1 y_34_ ^ 2 - 2 y_67_ * y_34_ + 1 y_67_ ^ 2 ] >= 25124.22
quadratic_ranged_280_lb: [ 1 x_51_ ^ 2 - 2 x_67_ * x_51_ + 1 x_67_ ^ 2 + 1 y_51_ ^ 2 - 2 y_67_ * y_51_ + 1 y_67_ ^ 2 ] >= 2575.98
quadratic_ranged_281_lb: [ 1 x_66_ ^ 2 - 2 x_67_ * x_66_ + 1 x_67_ ^ 2 + 1 y_66_ ^ 2 - 2 y_67_ * y_66_ + 1 y_67_ ^ 2 ] >= 3287.79
quadratic_ranged_282_lb: [ 1 x_5_ ^ 2 - 2 x_68_ * x_5_ + 1 x_68_ ^ 2 + 1 y_5_ ^ 2 - 2 y_68_ * y_5_ + 1 y_68_ ^ 2 ] >= 12078
quadratic_ranged_283_lb: [ 1 x_6_ ^ 2 - 2 x_68_ * x_6_ + 1 x_68_ ^ 2 + 1 y_6_ ^ 2 - 2 y_68_ * y_6_ + 1 y_68_ ^ 2 ] >= 1174.14
quadratic_ranged_284_lb: [ 1 x_9_ ^ 2 - 2 x_68_ * x_9_ + 1 x_68_ ^ 2 + 1 y_9_ ^ 2 - 2 y_68_ * y_9_ + 1 y_68_ ^ 2 ] >= 765.27
quadratic_ranged_285_lb: [ 1 x_10_ ^ 2 - 2 x_68_ * x_10_ + 1 x_68_ ^ 2 + 1 y_10_ ^ 2 - 2 y_68_ * y_10_ + 1 y_68_ ^ 2 ] >= 2457.18
quadratic_ranged_286_lb: [ 1 x_12_ ^ 2 - 2 x_68_ * x_12_ + 1 x_68_ ^ 2 + 1 y_12_ ^ 2 - 2 y_68_ * y_12_ + 1 y_68_ ^ 2 ] >= 30527.64
quadratic_ranged_287_lb: [ 1 x_22_ ^ 2 - 2 x_68_ * x_22_ + 1 x_68_ ^ 2 + 1 y_22_ ^ 2 - 2 y_68_ * y_22_ + 1 y_68_ ^ 2 ] >= 1071.18
quadratic_ranged_288_lb: [ 1 x_38_ ^ 2 - 2 x_68_ * x_38_ + 1 x_68_ ^ 2 + 1 y_38_ ^ 2 - 2 y_68_ * y_38_ + 1 y_68_ ^ 2 ] >= 7716.0599999999995
quadratic_ranged_289_lb: [ 1 x_39_ ^ 2 - 2 x_68_ * x_39_ + 1 x_68_ ^ 2 + 1 y_39_ ^ 2 - 2 y_68_ * y_39_ + 1 y_68_ ^ 2 ] >= 1338.48
quadratic_ranged_290_lb: [ 1 x_44_ ^ 2 - 2 x_68_ * x_44_ + 1 x_68_ ^ 2 + 1 y_44_ ^ 2 - 2 y_68_ * y_44_ + 1 y_68_ ^ 2 ] >= 13785.75
quadratic_ranged_291_lb: [ 1 x_55_ ^ 2 - 2 x_68_ * x_55_ + 1 x_68_ ^ 2 + 1 y_55_ ^ 2 - 2 y_68_ * y_55_ + 1 y_68_ ^ 2 ] >= 594.99
quadratic_ranged_292_lb: [ 1 x_56_ ^ 2 - 2 x_68_ * x_56_ + 1 x_68_ ^ 2 + 1 y_56_ ^ 2 - 2 y_68_ * y_56_ + 1 y_68_ ^ 2 ] >= 7161.66
quadratic_ranged_293_lb: [ 1 x_58_ ^ 2 - 2 x_68_ * x_58_ + 1 x_68_ ^ 2 + 1 y_58_ ^ 2 - 2 y_68_ * y_58_ + 1 y_68_ ^ 2 ] >= 18220.95
quadratic_ranged_294_lb: [ 1 x_66_ ^ 2 - 2 x_68_ * x_66_ + 1 x_68_ ^ 2 + 1 y_66_ ^ 2 - 2 y_68_ * y_66_ + 1 y_68_ ^ 2 ] >= 14229.27
quadratic_ranged_295_lb: [ 1 x_67_ ^ 2 - 2 x_68_ * x_67_ + 1 x_68_ ^ 2 + 1 y_67_ ^ 2 - 2 y_68_ * y_67_ + 1 y_68_ ^ 2 ] >= 30400.92
quadratic_ranged_296_lb: [ 1 x_7_ ^ 2 - 2 x_69_ * x_7_ + 1 x_69_ ^ 2 + 1 y_7_ ^ 2 - 2 y_69_ * y_7_ + 1 y_69_ ^ 2 ] >= 20340.54
quadratic_ranged_297_lb: [ 1 x_11_ ^ 2 - 2 x_69_ * x_11_ + 1 x_69_ ^ 2 + 1 y_11_ ^ 2 - 2 y_69_ * y_11_ + 1 y_69_ ^ 2 ] >= 28231.829999999998
quadratic_ranged_298_lb: [ 1 x_18_ ^ 2 - 2 x_69_ * x_18_ + 1 x_69_ ^ 2 + 1 y_18_ ^ 2 - 2 y_69_ * y_18_ + 1 y_69_ ^ 2 ] >= 16526.07
quadratic_ranged_299_lb: [ 1 x_28_ ^ 2 - 2 x_69_ * x_28_ + 1 x_69_ ^ 2 + 1 y_28_ ^ 2 - 2 y_69_ * y_28_ + 1 y_69_ ^ 2 ] >= 16276.59
quadratic_ranged_300_lb: [ 1 x_40_ ^ 2 - 2 x_69_ * x_40_ + 1 x_69_ ^ 2 + 1 y_40_ ^ 2 - 2 y_69_ * y_40_ + 1 y_69_ ^ 2 ] >= 17310.15
quadratic_ranged_301_lb: [ 1 x_68_ ^ 2 - 2 x_69_ * x_68_ + 1 x_69_ ^ 2 + 1 y_68_ ^ 2 - 2 y_69_ * y_68_ + 1 y_69_ ^ 2 ] >= 102.96
quadratic_ranged_302_lb: [ 1 x_4_ ^ 2 - 2 x_70_ * x_4_ + 1 x_70_ ^ 2 + 1 y_4_ ^ 2 - 2 y_70_ * y_4_ + 1 y_70_ ^ 2 ] >= 11647.35
quadratic_ranged_303_lb: [ 1 x_11_ ^ 2 - 2 x_70_ * x_11_ + 1 x_70_ ^ 2 + 1 y_11_ ^ 2 - 2 y_70_ * y_11_ + 1 y_70_ ^ 2 ] >= 3960
quadratic_ranged_304_lb: [ 1 x_14_ ^ 2 - 2 x_70_ * x_14_ + 1 x_70_ ^ 2 + 1 y_14_ ^ 2 - 2 y_70_ * y_14_ + 1 y_70_ ^ 2 ] >= 16252.83
quadratic_ranged_305_lb: [ 1 x_17_ ^ 2 - 2 x_70_ * x_17_ + 1 x_70_ ^ 2 + 1 y_17_ ^ 2 - 2 y_70_ * y_17_ + 1 y_70_ ^ 2 ] >= 23479.829999999998
quadratic_ranged_306_lb: [ 1 x_19_ ^ 2 - 2 x_70_ * x_19_ + 1 x_70_ ^ 2 + 1 y_19_ ^ 2 - 2 y_70_ * y_19_ + 1 y_70_ ^ 2 ] >= 4182.75
quadratic_ranged_307_lb: [ 1 x_48_ ^ 2 - 2 x_70_ * x_48_ + 1 x_70_ ^ 2 + 1 y_48_ ^ 2 - 2 y_70_ * y_48_ + 1 y_70_ ^ 2 ] >= 12867.03
quadratic_ranged_308_lb: [ 1 x_53_ ^ 2 - 2 x_70_ * x_53_ + 1 x_70_ ^ 2 + 1 y_53_ ^ 2 - 2 y_70_ * y_53_ + 1 y_70_ ^ 2 ] >= 1649.34
quadratic_ranged_309_lb: [ 1 x_69_ ^ 2 - 2 x_70_ * x_69_ + 1 x_70_ ^ 2 + 1 y_69_ ^ 2 - 2 y_70_ * y_69_ + 1 y_70_ ^ 2 ] >= 17167.59
quadratic_ranged_310_lb: [ 1 x_2_ ^ 2 - 2 x_71_ * x_2_ + 1 x_71_ ^ 2 + 1 y_2_ ^ 2 - 2 y_71_ * y_2_ + 1 y_71_ ^ 2 ] >= 18889.2
quadratic_ranged_311_lb: [ 1 x_13_ ^ 2 - 2 x_71_ * x_13_ + 1 x_71_ ^ 2 + 1 y_13_ ^ 2 - 2 y_71_ * y_13_ + 1 y_71_ ^ 2 ] >= 25028.19
quadratic_ranged_312_lb: [ 1 x_14_ ^ 2 - 2 x_71_ * x_14_ + 1 x_71_ ^ 2 + 1 y_14_ ^ 2 - 2 y_71_ * y_14_ + 1 y_71_ ^ 2 ] >= 12562.11
quadratic_ranged_313_lb: [ 1 x_19_ ^ 2 - 2 x_71_ * x_19_ + 1 x_71_ ^ 2 + 1 y_19_ ^ 2 - 2 y_71_ * y_19_ + 1 y_71_ ^ 2 ] >= 7152.75
quadratic_ranged_314_lb: [ 1 x_23_ ^ 2 - 2 x_71_ * x_23_ + 1 x_71_ ^ 2 + 1 y_23_ ^ 2 - 2 y_71_ * y_23_ + 1 y_71_ ^ 2 ] >= 120.78
quadratic_ranged_315_lb: [ 1 x_43_ ^ 2 - 2 x_71_ * x_43_ + 1 x_71_ ^ 2 + 1 y_43_ ^ 2 - 2 y_71_ * y_43_ + 1 y_71_ ^ 2 ] >= 28721.88
quadratic_ranged_316_lb: [ 1 x_48_ ^ 2 - 2 x_71_ * x_48_ + 1 x_71_ ^ 2 + 1 y_48_ ^ 2 - 2 y_71_ * y_48_ + 1 y_71_ ^ 2 ] >= 19523.79
quadratic_ranged_317_lb: [ 1 x_52_ ^ 2 - 2 x_71_ * x_52_ + 1 x_71_ ^ 2 + 1 y_52_ ^ 2 - 2 y_71_ * y_52_ + 1 y_71_ ^ 2 ] >= 20768.22
quadratic_ranged_318_lb: [ 1 x_53_ ^ 2 - 2 x_71_ * x_53_ + 1 x_71_ ^ 2 + 1 y_53_ ^ 2 - 2 y_71_ * y_53_ + 1 y_71_ ^ 2 ] >= 6543.9
quadratic_ranged_319_lb: [ 1 x_57_ ^ 2 - 2 x_71_ * x_57_ + 1 x_71_ ^ 2 + 1 y_57_ ^ 2 - 2 y_71_ * y_57_ + 1 y_71_ ^ 2 ] >= 2182.95
quadratic_ranged_320_lb: [ 1 x_61_ ^ 2 - 2 x_71_ * x_61_ + 1 x_71_ ^ 2 + 1 y_61_ ^ 2 - 2 y_71_ * y_61_ + 1 y_71_ ^ 2 ] >= 12811.59
quadratic_ranged_321_lb: [ 1 x_70_ ^ 2 - 2 x_71_ * x_70_ + 1 x_71_ ^ 2 + 1 y_70_ ^ 2 - 2 y_71_ * y_70_ + 1 y_71_ ^ 2 ] >= 2871
quadratic_ranged_322_lb: [ 1 x_4_ ^ 2 - 2 x_72_ * x_4_ + 1 x_72_ ^ 2 + 1 y_4_ ^ 2 - 2 y_72_ * y_4_ + 1 y_72_ ^ 2 ] >= 2985.84
quadratic_ranged_323_lb: [ 1 x_20_ ^ 2 - 2 x_72_ * x_20_ + 1 x_72_ ^ 2 + 1 y_20_ ^ 2 - 2 y_72_ * y_20_ + 1 y_72_ ^ 2 ] >= 6496.38
quadratic_ranged_324_lb: [ 1 x_24_ ^ 2 - 2 x_72_ * x_24_ + 1 x_72_ ^ 2 + 1 y_24_ ^ 2 - 2 y_72_ * y_24_ + 1 y_72_ ^ 2 ] >= 20212.829999999998
quadratic_ranged_325_lb: [ 1 x_38_ ^ 2 - 2 x_72_ * x_38_ + 1 x_72_ ^ 2 + 1 y_38_ ^ 2 - 2 y_72_ * y_38_ + 1 y_72_ ^ 2 ] >= 6258.78
quadratic_ranged_326_lb: [ 1 x_42_ ^ 2 - 2 x_72_ * x_42_ + 1 x_72_ ^ 2 + 1 y_42_ ^ 2 - 2 y_72_ * y_42_ + 1 y_72_ ^ 2 ] >= 23527.35
quadratic_ranged_327_lb: [ 1 x_50_ ^ 2 - 2 x_72_ * x_50_ + 1 x_72_ ^ 2 + 1 y_50_ ^ 2 - 2 y_72_ * y_50_ + 1 y_72_ ^ 2 ] >= 5481.63
quadratic_ranged_328_lb: [ 1 x_51_ ^ 2 - 2 x_72_ * x_51_ + 1 x_72_ ^ 2 + 1 y_51_ ^ 2 - 2 y_72_ * y_51_ + 1 y_72_ ^ 2 ] >= 10622.7
quadratic_ranged_329_lb: [ 1 x_58_ ^ 2 - 2 x_72_ * x_58_ + 1 x_72_ ^ 2 + 1 y_58_ ^ 2 - 2 y_72_ * y_58_ + 1 y_72_ ^ 2 ] >= 16229.07
quadratic_ranged_330_lb: [ 1 x_63_ ^ 2 - 2 x_72_ * x_63_ + 1 x_72_ ^ 2 + 1 y_63_ ^ 2 - 2 y_72_ * y_63_ + 1 y_72_ ^ 2 ] >= 9873.27
quadratic_ranged_331_lb: [ 1 x_71_ ^ 2 - 2 x_72_ * x_71_ + 1 x_72_ ^ 2 + 1 y_71_ ^ 2 - 2 y_72_ * y_71_ + 1 y_72_ ^ 2 ] >= 16173.63
quadratic_ranged_332_lb: [ 1 x_6_ ^ 2 - 2 x_73_ * x_6_ + 1 x_73_ ^ 2 + 1 y_6_ ^ 2 - 2 y_73_ * y_6_ + 1 y_73_ ^ 2 ] >= 27550.71
quadratic_ranged_333_lb: [ 1 x_16_ ^ 2 - 2 x_73_ * x_16_ + 1 x_73_ ^ 2 + 1 y_16_ ^ 2 - 2 y_73_ * y_16_ + 1 y_73_ ^ 2 ] >= 543.51
quadratic_ranged_334_lb: [ 1 x_17_ ^ 2 - 2 x_73_ * x_17_ + 1 x_73_ ^ 2 + 1 y_17_ ^ 2 - 2 y_73_ * y_17_ + 1 y_73_ ^ 2 ] >= 26497.35
quadratic_ranged_335_lb: [ 1 x_34_ ^ 2 - 2 x_73_ * x_34_ + 1 x_73_ ^ 2 + 1 y_34_ ^ 2 - 2 y_73_ * y_34_ + 1 y_73_ ^ 2 ] >= 939.51
quadratic_ranged_336_lb: [ 1 x_42_ ^ 2 - 2 x_73_ * x_42_ + 1 x_73_ ^ 2 + 1 y_42_ ^ 2 - 2 y_73_ * y_42_ + 1 y_73_ ^ 2 ] >= 495
quadratic_ranged_337_lb: [ 1 x_46_ ^ 2 - 2 x_73_ * x_46_ + 1 x_73_ ^ 2 + 1 y_46_ ^ 2 - 2 y_73_ * y_46_ + 1 y_73_ ^ 2 ] >= 17706.15
quadratic_ranged_338_lb: [ 1 x_62_ ^ 2 - 2 x_73_ * x_62_ + 1 x_73_ ^ 2 + 1 y_62_ ^ 2 - 2 y_73_ * y_62_ + 1 y_73_ ^ 2 ] >= 20913.75
quadratic_ranged_339_lb: [ 1 x_68_ ^ 2 - 2 x_73_ * x_68_ + 1 x_73_ ^ 2 + 1 y_68_ ^ 2 - 2 y_73_ * y_68_ + 1 y_73_ ^ 2 ] >= 19789.11
quadratic_ranged_340_lb: [ 1 x_72_ ^ 2 - 2 x_73_ * x_72_ + 1 x_73_ ^ 2 + 1 y_72_ ^ 2 - 2 y_73_ * y_72_ + 1 y_73_ ^ 2 ] >= 17369.55
quadratic_ranged_341_lb: [ 1 x_7_ ^ 2 - 2 x_74_ * x_7_ + 1 x_74_ ^ 2 + 1 y_7_ ^ 2 - 2 y_74_ * y_7_ + 1 y_74_ ^ 2 ] >= 4646.07
quadratic_ranged_342_lb: [ 1 x_26_ ^ 2 - 2 x_74_ * x_26_ + 1 x_74_ ^ 2 + 1 y_26_ ^ 2 - 2 y_74_ * y_26_ + 1 y_74_ ^ 2 ] >= 16823.07
quadratic_ranged_343_lb: [ 1 x_30_ ^ 2 - 2 x_74_ * x_30_ + 1 x_74_ ^ 2 + 1 y_30_ ^ 2 - 2 y_74_ * y_30_ + 1 y_74_ ^ 2 ] >= 10479.15
quadratic_ranged_344_lb: [ 1 x_35_ ^ 2 - 2 x_74_ * x_35_ + 1 x_74_ ^ 2 + 1 y_35_ ^ 2 - 2 y_74_ * y_35_ + 1 y_74_ ^ 2 ] >= 5688.54
quadratic_ranged_345_lb: [ 1 x_39_ ^ 2 - 2 x_74_ * x_39_ + 1 x_74_ ^ 2 + 1 y_39_ ^ 2 - 2 y_74_ * y_39_ + 1 y_74_ ^ 2 ] >= 2523.5099999999998
quadratic_ranged_346_lb: [ 1 x_62_ ^ 2 - 2 x_74_ * x_62_ + 1 x_74_ ^ 2 + 1 y_62_ ^ 2 - 2 y_74_ * y_62_ + 1 y_74_ ^ 2 ] >= 13643.19
quadratic_ranged_347_lb: [ 1 x_70_ ^ 2 - 2 x_74_ * x_70_ + 1 x_74_ ^ 2 + 1 y_70_ ^ 2 - 2 y_74_ * y_70_ + 1 y_74_ ^ 2 ] >= 2851.2
quadratic_ranged_348_lb: [ 1 x_73_ ^ 2 - 2 x_74_ * x_73_ + 1 x_74_ ^ 2 + 1 y_73_ ^ 2 - 2 y_74_ * y_73_ + 1 y_74_ ^ 2 ] >= 3787.74
quadratic_ranged_349_lb: [ 1 x_12_ ^ 2 - 2 x_75_ * x_12_ + 1 x_75_ ^ 2 + 1 y_12_ ^ 2 - 2 y_75_ * y_12_ + 1 y_75_ ^ 2 ] >= 5489.55
quadratic_ranged_350_lb: [ 1 x_13_ ^ 2 - 2 x_75_ * x_13_ + 1 x_75_ ^ 2 + 1 y_13_ ^ 2 - 2 y_75_ * y_13_ + 1 y_75_ ^ 2 ] >= 12870.99
quadratic_ranged_351_lb: [ 1 x_33_ ^ 2 - 2 x_75_ * x_33_ + 1 x_75_ ^ 2 + 1 y_33_ ^ 2 - 2 y_75_ * y_33_ + 1 y_75_ ^ 2 ] >= 13944.15
quadratic_ranged_352_lb: [ 1 x_35_ ^ 2 - 2 x_75_ * x_35_ + 1 x_75_ ^ 2 + 1 y_35_ ^ 2 - 2 y_75_ * y_35_ + 1 y_75_ ^ 2 ] >= 9523.8
quadratic_ranged_353_lb: [ 1 x_41_ ^ 2 - 2 x_75_ * x_41_ + 1 x_75_ ^ 2 + 1 y_41_ ^ 2 - 2 y_75_ * y_41_ + 1 y_75_ ^ 2 ] >= 3556.08
quadratic_ranged_354_lb: [ 1 x_67_ ^ 2 - 2 x_75_ * x_67_ + 1 x_75_ ^ 2 + 1 y_67_ ^ 2 - 2 y_75_ * y_67_ + 1 y_75_ ^ 2 ] >= 9734.67
quadratic_ranged_355_lb: [ 1 x_74_ ^ 2 - 2 x_75_ * x_74_ + 1 x_75_ ^ 2 + 1 y_74_ ^ 2 - 2 y_75_ * y_74_ + 1 y_75_ ^ 2 ] >= 809.8199999999999
quadratic_ranged_356_lb: [ 1 x_17_ ^ 2 - 2 x_76_ * x_17_ + 1 x_76_ ^ 2 + 1 y_17_ ^ 2 - 2 y_76_ * y_17_ + 1 y_76_ ^ 2 ] >= 26505.27
quadratic_ranged_357_lb: [ 1 x_35_ ^ 2 - 2 x_76_ * x_35_ + 1 x_76_ ^ 2 + 1 y_35_ ^ 2 - 2 y_76_ * y_35_ + 1 y_76_ ^ 2 ] >= 13262.039999999999
quadratic_ranged_358_lb: [ 1 x_67_ ^ 2 - 2 x_76_ * x_67_ + 1 x_76_ ^ 2 + 1 y_67_ ^ 2 - 2 y_76_ * y_67_ + 1 y_76_ ^ 2 ] >= 21325.59
quadratic_ranged_359_lb: [ 1 x_68_ ^ 2 - 2 x_76_ * x_68_ + 1 x_76_ ^ 2 + 1 y_68_ ^ 2 - 2 y_76_ * y_68_ + 1 y_76_ ^ 2 ] >= 16407.27
quadratic_ranged_360_lb: [ 1 x_69_ ^ 2 - 2 x_76_ * x_69_ + 1 x_76_ ^ 2 + 1 y_69_ ^ 2 - 2 y_76_ * y_69_ + 1 y_76_ ^ 2 ] >= 15270.75
quadratic_ranged_361_lb: [ 1 x_71_ ^ 2 - 2 x_76_ * x_71_ + 1 x_76_ ^ 2 + 1 y_71_ ^ 2 - 2 y_76_ * y_71_ + 1 y_76_ ^ 2 ] >= 4136.22
quadratic_ranged_362_lb: [ 1 x_74_ ^ 2 - 2 x_76_ * x_74_ + 1 x_76_ ^ 2 + 1 y_74_ ^ 2 - 2 y_76_ * y_74_ + 1 y_76_ ^ 2 ] >= 2457.18
quadratic_ranged_363_lb: [ 1 x_75_ ^ 2 - 2 x_76_ * x_75_ + 1 x_76_ ^ 2 + 1 y_75_ ^ 2 - 2 y_76_ * y_75_ + 1 y_76_ ^ 2 ] >= 3366
quadratic_ranged_364_lb: [ 1 x_11_ ^ 2 - 2 x_77_ * x_11_ + 1 x_77_ ^ 2 + 1 y_11_ ^ 2 - 2 y_77_ * y_11_ + 1 y_77_ ^ 2 ] >= 15602.4
quadratic_ranged_365_lb: [ 1 x_26_ ^ 2 - 2 x_77_ * x_26_ + 1 x_77_ ^ 2 + 1 y_26_ ^ 2 - 2 y_77_ * y_26_ + 1 y_77_ ^ 2 ] >= 22905.63
quadratic_ranged_366_lb: [ 1 x_29_ ^ 2 - 2 x_77_ * x_29_ + 1 x_77_ ^ 2 + 1 y_29_ ^ 2 - 2 y_77_ * y_29_ + 1 y_77_ ^ 2 ] >= 5213.34
quadratic_ranged_367_lb: [ 1 x_41_ ^ 2 - 2 x_77_ * x_41_ + 1 x_77_ ^ 2 + 1 y_41_ ^ 2 - 2 y_77_ * y_41_ + 1 y_77_ ^ 2 ] >= 1245.42
quadratic_ranged_368_lb: [ 1 x_42_ ^ 2 - 2 x_77_ * x_42_ + 1 x_77_ ^ 2 + 1 y_42_ ^ 2 - 2 y_77_ * y_42_ + 1 y_77_ ^ 2 ] >= 9014.94
quadratic_ranged_369_lb: [ 1 x_46_ ^ 2 - 2 x_77_ * x_46_ + 1 x_77_ ^ 2 + 1 y_46_ ^ 2 - 2 y_77_ * y_46_ + 1 y_77_ ^ 2 ] >= 25618.23
quadratic_ranged_370_lb: [ 1 x_50_ ^ 2 - 2 x_77_ * x_50_ + 1 x_77_ ^ 2 + 1 y_50_ ^ 2 - 2 y_77_ * y_50_ + 1 y_77_ ^ 2 ] >= 1696.86
quadratic_ranged_371_lb: [ 1 x_53_ ^ 2 - 2 x_77_ * x_53_ + 1 x_77_ ^ 2 + 1 y_53_ ^ 2 - 2 y_77_ * y_53_ + 1 y_77_ ^ 2 ] >= 9086.22
quadratic_ranged_372_lb: [ 1 x_63_ ^ 2 - 2 x_77_ * x_63_ + 1 x_77_ ^ 2 + 1 y_63_ ^ 2 - 2 y_77_ * y_63_ + 1 y_77_ ^ 2 ] >= 4344.12
quadratic_ranged_373_lb: [ 1 x_66_ ^ 2 - 2 x_77_ * x_66_ + 1 x_77_ ^ 2 + 1 y_66_ ^ 2 - 2 y_77_ * y_66_ + 1 y_77_ ^ 2 ] >= 12870
quadratic_ranged_374_lb: [ 1 x_76_ ^ 2 - 2 x_77_ * x_76_ + 1 x_77_ ^ 2 + 1 y_76_ ^ 2 - 2 y_77_ * y_76_ + 1 y_77_ ^ 2 ] >= 3954.06
quadratic_ranged_375_lb: [ 1 x_2_ ^ 2 - 2 x_78_ * x_2_ + 1 x_78_ ^ 2 + 1 y_2_ ^ 2 - 2 y_78_ * y_2_ + 1 y_78_ ^ 2 ] >= 44.55
quadratic_ranged_376_lb: [ 1 x_6_ ^ 2 - 2 x_78_ * x_6_ + 1 x_78_ ^ 2 + 1 y_6_ ^ 2 - 2 y_78_ * y_6_ + 1 y_78_ ^ 2 ] >= 1837.44
quadratic_ranged_377_lb: [ 1 x_8_ ^ 2 - 2 x_78_ * x_8_ + 1 x_78_ ^ 2 + 1 y_8_ ^ 2 - 2 y_78_ * y_8_ + 1 y_78_ ^ 2 ] >= 28545.66
quadratic_ranged_378_lb: [ 1 x_18_ ^ 2 - 2 x_78_ * x_18_ + 1 x_78_ ^ 2 + 1 y_18_ ^ 2 - 2 y_78_ * y_18_ + 1 y_78_ ^ 2 ] >= 9017.91
quadratic_ranged_379_lb: [ 1 x_20_ ^ 2 - 2 x_78_ * x_20_ + 1 x_78_ ^ 2 + 1 y_20_ ^ 2 - 2 y_78_ * y_20_ + 1 y_78_ ^ 2 ] >= 2617.56
quadratic_ranged_380_lb: [ 1 x_21_ ^ 2 - 2 x_78_ * x_21_ + 1 x_78_ ^ 2 + 1 y_21_ ^ 2 - 2 y_78_ * y_21_ + 1 y_78_ ^ 2 ] >= 26172.63
quadratic_ranged_381_lb: [ 1 x_23_ ^ 2 - 2 x_78_ * x_23_ + 1 x_78_ ^ 2 + 1 y_23_ ^ 2 - 2 y_78_ * y_23_ + 1 y_78_ ^ 2 ] >= 21103.829999999998
quadratic_ranged_382_lb: [ 1 x_46_ ^ 2 - 2 x_78_ * x_46_ + 1 x_78_ ^ 2 + 1 y_46_ ^ 2 - 2 y_78_ * y_46_ + 1 y_78_ ^ 2 ] >= 20940.48
quadratic_ranged_383_lb: [ 1 x_49_ ^ 2 - 2 x_78_ * x_49_ + 1 x_78_ ^ 2 + 1 y_49_ ^ 2 - 2 y_78_ * y_49_ + 1 y_78_ ^ 2 ] >= 9457.47
quadratic_ranged_384_lb: [ 1 x_50_ ^ 2 - 2 x_78_ * x_50_ + 1 x_78_ ^ 2 + 1 y_50_ ^ 2 - 2 y_78_ * y_50_ + 1 y_78_ ^ 2 ] >= 4182.75
quadratic_ranged_385_lb: [ 1 x_68_ ^ 2 - 2 x_78_ * x_68_ + 1 x_78_ ^ 2 + 1 y_68_ ^ 2 - 2 y_78_ * y_68_ + 1 y_78_ ^ 2 ] >= 841.5
quadratic_ranged_386_lb: [ 1 x_77_ ^ 2 - 2 x_78_ * x_77_ + 1 x_78_ ^ 2 + 1 y_77_ ^ 2 - 2 y_78_ * y_77_ + 1 y_78_ ^ 2 ] >= 4543.11
quadratic_ranged_387_lb: [ 1 x_15_ ^ 2 - 2 x_79_ * x_15_ + 1 x_79_ ^ 2 + 1 y_15_ ^ 2 - 2 y_79_ * y_15_ + 1 y_79_ ^ 2 ] >= 12419.55
quadratic_ranged_388_lb: [ 1 x_22_ ^ 2 - 2 x_79_ * x_22_ + 1 x_79_ ^ 2 + 1 y_22_ ^ 2 - 2 y_79_ * y_22_ + 1 y_79_ ^ 2 ] >= 556.38
quadratic_ranged_389_lb: [ 1 x_38_ ^ 2 - 2 x_79_ * x_38_ + 1 x_79_ ^ 2 + 1 y_38_ ^ 2 - 2 y_79_ * y_38_ + 1 y_79_ ^ 2 ] >= 7518.0599999999995
quadratic_ranged_390_lb: [ 1 x_61_ ^ 2 - 2 x_79_ * x_61_ + 1 x_79_ ^ 2 + 1 y_61_ ^ 2 - 2 y_79_ * y_61_ + 1 y_79_ ^ 2 ] >= 2490.84
quadratic_ranged_391_lb: [ 1 x_71_ ^ 2 - 2 x_79_ * x_71_ + 1 x_79_ ^ 2 + 1 y_71_ ^ 2 - 2 y_79_ * y_71_ + 1 y_79_ ^ 2 ] >= 25962.75
quadratic_ranged_392_lb: [ 1 x_72_ ^ 2 - 2 x_79_ * x_72_ + 1 x_79_ ^ 2 + 1 y_72_ ^ 2 - 2 y_79_ * y_72_ + 1 y_79_ ^ 2 ] >= 4387.68
quadratic_ranged_393_lb: [ 1 x_74_ ^ 2 - 2 x_79_ * x_74_ + 1 x_79_ ^ 2 + 1 y_74_ ^ 2 - 2 y_79_ * y_74_ + 1 y_79_ ^ 2 ] >= 6994.35
quadratic_ranged_394_lb: [ 1 x_75_ ^ 2 - 2 x_79_ * x_75_ + 1 x_79_ ^ 2 + 1 y_75_ ^ 2 - 2 y_79_ * y_75_ + 1 y_79_ ^ 2 ] >= 10768.23
quadratic_ranged_395_lb: [ 1 x_78_ ^ 2 - 2 x_79_ * x_78_ + 1 x_79_ ^ 2 + 1 y_78_ ^ 2 - 2 y_79_ * y_78_ + 1 y_79_ ^ 2 ] >= 1237.5
quadratic_ranged_396_lb: [ 1 x_1_ ^ 2 - 2 x_80_ * x_1_ + 1 x_80_ ^ 2 + 1 y_1_ ^ 2 - 2 y_80_ * y_1_ + 1 y_80_ ^ 2 ] >= 6597.36
quadratic_ranged_397_lb: [ 1 x_4_ ^ 2 - 2 x_80_ * x_4_ + 1 x_80_ ^ 2 + 1 y_4_ ^ 2 - 2 y_80_ * y_4_ + 1 y_80_ ^ 2 ] >= 5422.23
quadratic_ranged_398_lb: [ 1 x_6_ ^ 2 - 2 x_80_ * x_6_ + 1 x_80_ ^ 2 + 1 y_6_ ^ 2 - 2 y_80_ * y_6_ + 1 y_80_ ^ 2 ] >= 14522.31
quadratic_ranged_399_lb: [ 1 x_10_ ^ 2 - 2 x_80_ * x_10_ + 1 x_80_ ^ 2 + 1 y_10_ ^ 2 - 2 y_80_ * y_10_ + 1 y_80_ ^ 2 ] >= 11302.83
quadratic_ranged_400_lb: [ 1 x_22_ ^ 2 - 2 x_80_ * x_22_ + 1 x_80_ ^ 2 + 1 y_22_ ^ 2 - 2 y_80_ * y_22_ + 1 y_80_ ^ 2 ] >= 8412.03
quadratic_ranged_401_lb: [ 1 x_23_ ^ 2 - 2 x_80_ * x_23_ + 1 x_80_ ^ 2 + 1 y_23_ ^ 2 - 2 y_80_ * y_23_ + 1 y_80_ ^ 2 ] >= 5514.3
quadratic_ranged_402_lb: [ 1 x_25_ ^ 2 - 2 x_80_ * x_25_ + 1 x_80_ ^ 2 + 1 y_25_ ^ 2 - 2 y_80_ * y_25_ + 1 y_80_ ^ 2 ] >= 16490.43
quadratic_ranged_403_lb: [ 1 x_32_ ^ 2 - 2 x_80_ * x_32_ + 1 x_80_ ^ 2 + 1 y_32_ ^ 2 - 2 y_80_ * y_32_ + 1 y_80_ ^ 2 ] >= 11604.78
quadratic_ranged_404_lb: [ 1 x_34_ ^ 2 - 2 x_80_ * x_34_ + 1 x_80_ ^ 2 + 1 y_34_ ^ 2 - 2 y_80_ * y_34_ + 1 y_80_ ^ 2 ] >= 5929.11
quadratic_ranged_405_lb: [ 1 x_43_ ^ 2 - 2 x_80_ * x_43_ + 1 x_80_ ^ 2 + 1 y_43_ ^ 2 - 2 y_80_ * y_43_ + 1 y_80_ ^ 2 ] >= 15285.6
quadratic_ranged_406_lb: [ 1 x_61_ ^ 2 - 2 x_80_ * x_61_ + 1 x_80_ ^ 2 + 1 y_61_ ^ 2 - 2 y_80_ * y_61_ + 1 y_80_ ^ 2 ] >= 2523.5099999999998
quadratic_ranged_407_lb: [ 1 x_79_ ^ 2 - 2 x_80_ * x_79_ + 1 x_80_ ^ 2 + 1 y_79_ ^ 2 - 2 y_80_ * y_79_ + 1 y_80_ ^ 2 ] >= 9908.91
quadratic_ranged_408_lb: [ 1 x_4_ ^ 2 - 2 x_81_ * x_4_ + 1 x_81_ ^ 2 + 1 y_4_ ^ 2 - 2 y_81_ * y_4_ + 1 y_81_ ^ 2 ] >= 21441.42
quadratic_ranged_409_lb: [ 1 x_10_ ^ 2 - 2 x_81_ * x_10_ + 1 x_81_ ^ 2 + 1 y_10_ ^ 2 - 2 y_81_ * y_10_ + 1 y_81_ ^ 2 ] >= 22310.64
quadratic_ranged_410_lb: [ 1 x_12_ ^ 2 - 2 x_81_ * x_12_ + 1 x_81_ ^ 2 + 1 y_12_ ^ 2 - 2 y_81_ * y_12_ + 1 y_81_ ^ 2 ] >= 239.57999999999998
quadratic_ranged_411_lb: [ 1 x_18_ ^ 2 - 2 x_81_ * x_18_ + 1 x_81_ ^ 2 + 1 y_18_ ^ 2 - 2 y_81_ * y_18_ + 1 y_81_ ^ 2 ] >= 7608.15
quadratic_ranged_412_lb: [ 1 x_29_ ^ 2 - 2 x_81_ * x_29_ + 1 x_81_ ^ 2 + 1 y_29_ ^ 2 - 2 y_81_ * y_29_ + 1 y_81_ ^ 2 ] >= 13417.47
quadratic_ranged_413_lb: [ 1 x_31_ ^ 2 - 2 x_81_ * x_31_ + 1 x_81_ ^ 2 + 1 y_31_ ^ 2 - 2 y_81_ * y_31_ + 1 y_81_ ^ 2 ] >= 230.67
quadratic_ranged_414_lb: [ 1 x_69_ ^ 2 - 2 x_81_ * x_69_ + 1 x_81_ ^ 2 + 1 y_69_ ^ 2 - 2 y_81_ * y_69_ + 1 y_81_ ^ 2 ] >= 28585.26
quadratic_ranged_415_lb: [ 1 x_80_ ^ 2 - 2 x_81_ * x_80_ + 1 x_81_ ^ 2 + 1 y_80_ ^ 2 - 2 y_81_ * y_80_ + 1 y_81_ ^ 2 ] >= 7251.75
quadratic_ranged_416_lb: [ 1 x_3_ ^ 2 - 2 x_82_ * x_3_ + 1 x_82_ ^ 2 + 1 y_3_ ^ 2 - 2 y_82_ * y_3_ + 1 y_82_ ^ 2 ] >= 29703.96
quadratic_ranged_417_lb: [ 1 x_8_ ^ 2 - 2 x_82_ * x_8_ + 1 x_82_ ^ 2 + 1 y_8_ ^ 2 - 2 y_82_ * y_8_ + 1 y_82_ ^ 2 ] >= 31292.91
quadratic_ranged_418_lb: [ 1 x_13_ ^ 2 - 2 x_82_ * x_13_ + 1 x_82_ ^ 2 + 1 y_13_ ^ 2 - 2 y_82_ * y_13_ + 1 y_82_ ^ 2 ] >= 15840.99
quadratic_ranged_419_lb: [ 1 x_23_ ^ 2 - 2 x_82_ * x_23_ + 1 x_82_ ^ 2 + 1 y_23_ ^ 2 - 2 y_82_ * y_23_ + 1 y_82_ ^ 2 ] >= 30454.38
quadratic_ranged_420_lb: [ 1 x_25_ ^ 2 - 2 x_82_ * x_25_ + 1 x_82_ ^ 2 + 1 y_25_ ^ 2 - 2 y_82_ * y_25_ + 1 y_82_ ^ 2 ] >= 15151.95
quadratic_ranged_421_lb: [ 1 x_26_ ^ 2 - 2 x_82_ * x_26_ + 1 x_82_ ^ 2 + 1 y_26_ ^ 2 - 2 y_82_ * y_26_ + 1 y_82_ ^ 2 ] >= 2214.63
quadratic_ranged_422_lb: [ 1 x_39_ ^ 2 - 2 x_82_ * x_39_ + 1 x_82_ ^ 2 + 1 y_39_ ^ 2 - 2 y_82_ * y_39_ + 1 y_82_ ^ 2 ] >= 5857.83
quadratic_ranged_423_lb: [ 1 x_52_ ^ 2 - 2 x_82_ * x_52_ + 1 x_82_ ^ 2 + 1 y_52_ ^ 2 - 2 y_82_ * y_52_ + 1 y_82_ ^ 2 ] >= 572.22
quadratic_ranged_424_lb: [ 1 x_56_ ^ 2 - 2 x_82_ * x_56_ + 1 x_82_ ^ 2 + 1 y_56_ ^ 2 - 2 y_82_ * y_56_ + 1 y_82_ ^ 2 ] >= 899.91
quadratic_ranged_425_lb: [ 1 x_81_ ^ 2 - 2 x_82_ * x_81_ + 1 x_82_ ^ 2 + 1 y_81_ ^ 2 - 2 y_82_ * y_81_ + 1 y_82_ ^ 2 ] >= 25028.19
quadratic_ranged_426_lb: [ 1 x_17_ ^ 2 - 2 x_83_ * x_17_ + 1 x_83_ ^ 2 + 1 y_17_ ^ 2 - 2 y_83_ * y_17_ + 1 y_83_ ^ 2 ] >= 10139.58
quadratic_ranged_427_lb: [ 1 x_21_ ^ 2 - 2 x_83_ * x_21_ + 1 x_83_ ^ 2 + 1 y_21_ ^ 2 - 2 y_83_ * y_21_ + 1 y_83_ ^ 2 ] >= 22941.27
quadratic_ranged_428_lb: [ 1 x_26_ ^ 2 - 2 x_83_ * x_26_ + 1 x_83_ ^ 2 + 1 y_26_ ^ 2 - 2 y_83_ * y_26_ + 1 y_83_ ^ 2 ] >= 5039.1
quadratic_ranged_429_lb: [ 1 x_51_ ^ 2 - 2 x_83_ * x_51_ + 1 x_83_ ^ 2 + 1 y_51_ ^ 2 - 2 y_83_ * y_51_ + 1 y_83_ ^ 2 ] >= 4571.82
quadratic_ranged_430_lb: [ 1 x_59_ ^ 2 - 2 x_83_ * x_59_ + 1 x_83_ ^ 2 + 1 y_59_ ^ 2 - 2 y_83_ * y_59_ + 1 y_83_ ^ 2 ] >= 4880.7
quadratic_ranged_431_lb: [ 1 x_70_ ^ 2 - 2 x_83_ * x_70_ + 1 x_83_ ^ 2 + 1 y_70_ ^ 2 - 2 y_83_ * y_70_ + 1 y_83_ ^ 2 ] >= 17943.75
quadratic_ranged_432_lb: [ 1 x_82_ ^ 2 - 2 x_83_ * x_82_ + 1 x_83_ ^ 2 + 1 y_82_ ^ 2 - 2 y_83_ * y_82_ + 1 y_83_ ^ 2 ] >= 8162.55
quadratic_ranged_433_lb: [ 1 x_2_ ^ 2 - 2 x_84_ * x_2_ + 1 x_84_ ^ 2 + 1 y_2_ ^ 2 - 2 y_84_ * y_2_ + 1 y_84_ ^ 2 ] >= 6939.9
quadratic_ranged_434_lb: [ 1 x_8_ ^ 2 - 2 x_84_ * x_8_ + 1 x_84_ ^ 2 + 1 y_8_ ^ 2 - 2 y_84_ * y_8_ + 1 y_84_ ^ 2 ] >= 8344.71
quadratic_ranged_435_lb: [ 1 x_10_ ^ 2 - 2 x_84_ * x_10_ + 1 x_84_ ^ 2 + 1 y_10_ ^ 2 - 2 y_84_ * y_10_ + 1 y_84_ ^ 2 ] >= 7323.03
quadratic_ranged_436_lb: [ 1 x_13_ ^ 2 - 2 x_84_ * x_13_ + 1 x_84_ ^ 2 + 1 y_13_ ^ 2 - 2 y_84_ * y_13_ + 1 y_84_ ^ 2 ] >= 18870.39
quadratic_ranged_437_lb: [ 1 x_23_ ^ 2 - 2 x_84_ * x_23_ + 1 x_84_ ^ 2 + 1 y_23_ ^ 2 - 2 y_84_ * y_23_ + 1 y_84_ ^ 2 ] >= 6862.68
quadratic_ranged_438_lb: [ 1 x_43_ ^ 2 - 2 x_84_ * x_43_ + 1 x_84_ ^ 2 + 1 y_43_ ^ 2 - 2 y_84_ * y_43_ + 1 y_84_ ^ 2 ] >= 9822.78
quadratic_ranged_439_lb: [ 1 x_77_ ^ 2 - 2 x_84_ * x_77_ + 1 x_84_ ^ 2 + 1 y_77_ ^ 2 - 2 y_84_ * y_77_ + 1 y_84_ ^ 2 ] >= 9775.26
quadratic_ranged_440_lb: [ 1 x_83_ ^ 2 - 2 x_84_ * x_83_ + 1 x_84_ ^ 2 + 1 y_83_ ^ 2 - 2 y_84_ * y_83_ + 1 y_84_ ^ 2 ] >= 2083.95
quadratic_ranged_441_lb: [ 1 x_9_ ^ 2 - 2 x_85_ * x_9_ + 1 x_85_ ^ 2 + 1 y_9_ ^ 2 - 2 y_85_ * y_9_ + 1 y_85_ ^ 2 ] >= 1212.75
quadratic_ranged_442_lb: [ 1 x_15_ ^ 2 - 2 x_85_ * x_15_ + 1 x_85_ ^ 2 + 1 y_15_ ^ 2 - 2 y_85_ * y_15_ + 1 y_85_ ^ 2 ] >= 16137.99
quadratic_ranged_443_lb: [ 1 x_27_ ^ 2 - 2 x_85_ * x_27_ + 1 x_85_ ^ 2 + 1 y_27_ ^ 2 - 2 y_85_ * y_27_ + 1 y_85_ ^ 2 ] >= 1228.59
quadratic_ranged_444_lb: [ 1 x_46_ ^ 2 - 2 x_85_ * x_46_ + 1 x_85_ ^ 2 + 1 y_46_ ^ 2 - 2 y_85_ * y_46_ + 1 y_85_ ^ 2 ] >= 31402.8
quadratic_ranged_445_lb: [ 1 x_55_ ^ 2 - 2 x_85_ * x_55_ + 1 x_85_ ^ 2 + 1 y_55_ ^ 2 - 2 y_85_ * y_55_ + 1 y_85_ ^ 2 ] >= 1834.47
quadratic_ranged_446_lb: [ 1 x_84_ ^ 2 - 2 x_85_ * x_84_ + 1 x_85_ ^ 2 + 1 y_84_ ^ 2 - 2 y_85_ * y_84_ + 1 y_85_ ^ 2 ] >= 12625.47
quadratic_ranged_447_lb: [ 1 x_6_ ^ 2 - 2 x_86_ * x_6_ + 1 x_86_ ^ 2 + 1 y_6_ ^ 2 - 2 y_86_ * y_6_ + 1 y_86_ ^ 2 ] >= 3758.04
quadratic_ranged_448_lb: [ 1 x_12_ ^ 2 - 2 x_86_ * x_12_ + 1 x_86_ ^ 2 + 1 y_12_ ^ 2 - 2 y_86_ * y_12_ + 1 y_86_ ^ 2 ] >= 20419.74
quadratic_ranged_449_lb: [ 1 x_26_ ^ 2 - 2 x_86_ * x_26_ + 1 x_86_ ^ 2 + 1 y_26_ ^ 2 - 2 y_86_ * y_26_ + 1 y_86_ ^ 2 ] >= 11693.88
quadratic_ranged_450_lb: [ 1 x_42_ ^ 2 - 2 x_86_ * x_42_ + 1 x_86_ ^ 2 + 1 y_42_ ^ 2 - 2 y_86_ * y_42_ + 1 y_86_ ^ 2 ] >= 16442.91
quadratic_ranged_451_lb: [ 1 x_52_ ^ 2 - 2 x_86_ * x_52_ + 1 x_86_ ^ 2 + 1 y_52_ ^ 2 - 2 y_86_ * y_52_ + 1 y_86_ ^ 2 ] >= 4586.67
quadratic_ranged_452_lb: [ 1 x_56_ ^ 2 - 2 x_86_ * x_56_ + 1 x_86_ ^ 2 + 1 y_56_ ^ 2 - 2 y_86_ * y_56_ + 1 y_86_ ^ 2 ] >= 9032.76
quadratic_ranged_453_lb: [ 1 x_58_ ^ 2 - 2 x_86_ * x_58_ + 1 x_86_ ^ 2 + 1 y_58_ ^ 2 - 2 y_86_ * y_58_ + 1 y_86_ ^ 2 ] >= 10102.95
quadratic_ranged_454_lb: [ 1 x_85_ ^ 2 - 2 x_86_ * x_85_ + 1 x_86_ ^ 2 + 1 y_85_ ^ 2 - 2 y_86_ * y_85_ + 1 y_86_ ^ 2 ] >= 2760.12
quadratic_ranged_455_lb: [ 1 x_8_ ^ 2 - 2 x_87_ * x_8_ + 1 x_87_ ^ 2 + 1 y_8_ ^ 2 - 2 y_87_ * y_8_ + 1 y_87_ ^ 2 ] >= 40972.14
quadratic_ranged_456_lb: [ 1 x_24_ ^ 2 - 2 x_87_ * x_24_ + 1 x_87_ ^ 2 + 1 y_24_ ^ 2 - 2 y_87_ * y_24_ + 1 y_87_ ^ 2 ] >= 13346.19
quadratic_ranged_457_lb: [ 1 x_25_ ^ 2 - 2 x_87_ * x_25_ + 1 x_87_ ^ 2 + 1 y_25_ ^ 2 - 2 y_87_ * y_25_ + 1 y_87_ ^ 2 ] >= 28997.1
quadratic_ranged_458_lb: [ 1 x_26_ ^ 2 - 2 x_87_ * x_26_ + 1 x_87_ ^ 2 + 1 y_26_ ^ 2 - 2 y_87_ * y_26_ + 1 y_87_ ^ 2 ] >= 14271.84
quadratic_ranged_459_lb: [ 1 x_29_ ^ 2 - 2 x_87_ * x_29_ + 1 x_87_ ^ 2 + 1 y_29_ ^ 2 - 2 y_87_ * y_29_ + 1 y_87_ ^ 2 ] >= 16728.03
quadratic_ranged_460_lb: [ 1 x_50_ ^ 2 - 2 x_87_ * x_50_ + 1 x_87_ ^ 2 + 1 y_50_ ^ 2 - 2 y_87_ * y_50_ + 1 y_87_ ^ 2 ] >= 6103.35
quadratic_ranged_461_lb: [ 1 x_56_ ^ 2 - 2 x_87_ * x_56_ + 1 x_87_ ^ 2 + 1 y_56_ ^ 2 - 2 y_87_ * y_56_ + 1 y_87_ ^ 2 ] >= 10723.68
quadratic_ranged_462_lb: [ 1 x_60_ ^ 2 - 2 x_87_ * x_60_ + 1 x_87_ ^ 2 + 1 y_60_ ^ 2 - 2 y_87_ * y_60_ + 1 y_87_ ^ 2 ] >= 32164.11
quadratic_ranged_463_lb: [ 1 x_86_ ^ 2 - 2 x_87_ * x_86_ + 1 x_87_ ^ 2 + 1 y_86_ ^ 2 - 2 y_87_ * y_86_ + 1 y_87_ ^ 2 ] >= 970.2
quadratic_ranged_464_lb: [ 1 x_12_ ^ 2 - 2 x_88_ * x_12_ + 1 x_88_ ^ 2 + 1 y_12_ ^ 2 - 2 y_88_ * y_12_ + 1 y_88_ ^ 2 ] >= 16244.91
quadratic_ranged_465_lb: [ 1 x_19_ ^ 2 - 2 x_88_ * x_19_ + 1 x_88_ ^ 2 + 1 y_19_ ^ 2 - 2 y_88_ * y_19_ + 1 y_88_ ^ 2 ] >= 2499.75
quadratic_ranged_466_lb: [ 1 x_20_ ^ 2 - 2 x_88_ * x_20_ + 1 x_88_ ^ 2 + 1 y_20_ ^ 2 - 2 y_88_ * y_20_ + 1 y_88_ ^ 2 ] >= 5445.99
quadratic_ranged_467_lb: [ 1 x_29_ ^ 2 - 2 x_88_ * x_29_ + 1 x_88_ ^ 2 + 1 y_29_ ^ 2 - 2 y_88_ * y_29_ + 1 y_88_ ^ 2 ] >= 17156.7
quadratic_ranged_468_lb: [ 1 x_32_ ^ 2 - 2 x_88_ * x_32_ + 1 x_88_ ^ 2 + 1 y_32_ ^ 2 - 2 y_88_ * y_32_ + 1 y_88_ ^ 2 ] >= 1879.02
quadratic_ranged_469_lb: [ 1 x_39_ ^ 2 - 2 x_88_ * x_39_ + 1 x_88_ ^ 2 + 1 y_39_ ^ 2 - 2 y_88_ * y_39_ + 1 y_88_ ^ 2 ] >= 2844.27
quadratic_ranged_470_lb: [ 1 x_43_ ^ 2 - 2 x_88_ * x_43_ + 1 x_88_ ^ 2 + 1 y_43_ ^ 2 - 2 y_88_ * y_43_ + 1 y_88_ ^ 2 ] >= 2574
quadratic_ranged_471_lb: [ 1 x_63_ ^ 2 - 2 x_88_ * x_63_ + 1 x_88_ ^ 2 + 1 y_63_ ^ 2 - 2 y_88_ * y_63_ + 1 y_88_ ^ 2 ] >= 8193.24
quadratic_ranged_472_lb: [ 1 x_79_ ^ 2 - 2 x_88_ * x_79_ + 1 x_88_ ^ 2 + 1 y_79_ ^ 2 - 2 y_88_ * y_79_ + 1 y_88_ ^ 2 ] >= 4123.35
quadratic_ranged_473_lb: [ 1 x_83_ ^ 2 - 2 x_88_ * x_83_ + 1 x_88_ ^ 2 + 1 y_83_ ^ 2 - 2 y_88_ * y_83_ + 1 y_88_ ^ 2 ] >= 4578.75
quadratic_ranged_474_lb: [ 1 x_87_ ^ 2 - 2 x_88_ * x_87_ + 1 x_88_ ^ 2 + 1 y_87_ ^ 2 - 2 y_88_ * y_87_ + 1 y_88_ ^ 2 ] >= 4543.11
quadratic_ranged_475_lb: [ 1 x_2_ ^ 2 - 2 x_89_ * x_2_ + 1 x_89_ ^ 2 + 1 y_2_ ^ 2 - 2 y_89_ * y_2_ + 1 y_89_ ^ 2 ] >= 23514.48
quadratic_ranged_476_lb: [ 1 x_3_ ^ 2 - 2 x_89_ * x_3_ + 1 x_89_ ^ 2 + 1 y_3_ ^ 2 - 2 y_89_ * y_3_ + 1 y_89_ ^ 2 ] >= 2205.72
quadratic_ranged_477_lb: [ 1 x_11_ ^ 2 - 2 x_89_ * x_11_ + 1 x_89_ ^ 2 + 1 y_11_ ^ 2 - 2 y_89_ * y_11_ + 1 y_89_ ^ 2 ] >= 384.12
quadratic_ranged_478_lb: [ 1 x_16_ ^ 2 - 2 x_89_ * x_16_ + 1 x_89_ ^ 2 + 1 y_16_ ^ 2 - 2 y_89_ * y_16_ + 1 y_89_ ^ 2 ] >= 1414.71
quadratic_ranged_479_lb: [ 1 x_23_ ^ 2 - 2 x_89_ * x_23_ + 1 x_89_ ^ 2 + 1 y_23_ ^ 2 - 2 y_89_ * y_23_ + 1 y_89_ ^ 2 ] >= 192.06
quadratic_ranged_480_lb: [ 1 x_33_ ^ 2 - 2 x_89_ * x_33_ + 1 x_89_ ^ 2 + 1 y_33_ ^ 2 - 2 y_89_ * y_33_ + 1 y_89_ ^ 2 ] >= 37244.79
quadratic_ranged_481_lb: [ 1 x_51_ ^ 2 - 2 x_89_ * x_51_ + 1 x_89_ ^ 2 + 1 y_51_ ^ 2 - 2 y_89_ * y_51_ + 1 y_89_ ^ 2 ] >= 4242.15
quadratic_ranged_482_lb: [ 1 x_73_ ^ 2 - 2 x_89_ * x_73_ + 1 x_89_ ^ 2 + 1 y_73_ ^ 2 - 2 y_89_ * y_73_ + 1 y_89_ ^ 2 ] >= 3668.94
quadratic_ranged_483_lb: [ 1 x_77_ ^ 2 - 2 x_89_ * x_77_ + 1 x_89_ ^ 2 + 1 y_77_ ^ 2 - 2 y_89_ * y_77_ + 1 y_89_ ^ 2 ] >= 15416.28
quadratic_ranged_484_lb: [ 1 x_79_ ^ 2 - 2 x_89_ * x_79_ + 1 x_89_ ^ 2 + 1 y_79_ ^ 2 - 2 y_89_ * y_79_ + 1 y_89_ ^ 2 ] >= 30833.55
quadratic_ranged_485_lb: [ 1 x_86_ ^ 2 - 2 x_89_ * x_86_ + 1 x_89_ ^ 2 + 1 y_86_ ^ 2 - 2 y_89_ * y_86_ + 1 y_89_ ^ 2 ] >= 19745.55
quadratic_ranged_486_lb: [ 1 x_88_ ^ 2 - 2 x_89_ * x_88_ + 1 x_89_ ^ 2 + 1 y_88_ ^ 2 - 2 y_89_ * y_88_ + 1 y_89_ ^ 2 ] >= 19059.48
quadratic_ranged_487_lb: [ 1 x_2_ ^ 2 - 2 x_90_ * x_2_ + 1 x_90_ ^ 2 + 1 y_2_ ^ 2 - 2 y_90_ * y_2_ + 1 y_90_ ^ 2 ] >= 17619.03
quadratic_ranged_488_lb: [ 1 x_51_ ^ 2 - 2 x_90_ * x_51_ + 1 x_90_ ^ 2 + 1 y_51_ ^ 2 - 2 y_90_ * y_51_ + 1 y_90_ ^ 2 ] >= 704.88
quadratic_ranged_489_lb: [ 1 x_66_ ^ 2 - 2 x_90_ * x_66_ + 1 x_90_ ^ 2 + 1 y_66_ ^ 2 - 2 y_90_ * y_66_ + 1 y_90_ ^ 2 ] >= 1347.39
quadratic_ranged_490_lb: [ 1 x_89_ ^ 2 - 2 x_90_ * x_89_ + 1 x_90_ ^ 2 + 1 y_89_ ^ 2 - 2 y_90_ * y_89_ + 1 y_90_ ^ 2 ] >= 8166.51
quadratic_ranged_491_lb: [ 1 x_10_ ^ 2 - 2 x_91_ * x_10_ + 1 x_91_ ^ 2 + 1 y_10_ ^ 2 - 2 y_91_ * y_10_ + 1 y_91_ ^ 2 ] >= 11825.55
quadratic_ranged_492_lb: [ 1 x_17_ ^ 2 - 2 x_91_ * x_17_ + 1 x_91_ ^ 2 + 1 y_17_ ^ 2 - 2 y_91_ * y_17_ + 1 y_91_ ^ 2 ] >= 21804.75
quadratic_ranged_493_lb: [ 1 x_25_ ^ 2 - 2 x_91_ * x_25_ + 1 x_91_ ^ 2 + 1 y_25_ ^ 2 - 2 y_91_ * y_25_ + 1 y_91_ ^ 2 ] >= 17258.67
quadratic_ranged_494_lb: [ 1 x_27_ ^ 2 - 2 x_91_ * x_27_ + 1 x_91_ ^ 2 + 1 y_27_ ^ 2 - 2 y_91_ * y_27_ + 1 y_91_ ^ 2 ] >= 8751.6
quadratic_ranged_495_lb: [ 1 x_48_ ^ 2 - 2 x_91_ * x_48_ + 1 x_91_ ^ 2 + 1 y_48_ ^ 2 - 2 y_91_ * y_48_ + 1 y_91_ ^ 2 ] >= 6360.75
quadratic_ranged_496_lb: [ 1 x_50_ ^ 2 - 2 x_91_ * x_50_ + 1 x_91_ ^ 2 + 1 y_50_ ^ 2 - 2 y_91_ * y_50_ + 1 y_91_ ^ 2 ] >= 253.44
quadratic_ranged_497_lb: [ 1 x_57_ ^ 2 - 2 x_91_ * x_57_ + 1 x_91_ ^ 2 + 1 y_57_ ^ 2 - 2 y_91_ * y_57_ + 1 y_91_ ^ 2 ] >= 301.95
quadratic_ranged_498_lb: [ 1 x_62_ ^ 2 - 2 x_91_ * x_62_ + 1 x_91_ ^ 2 + 1 y_62_ ^ 2 - 2 y_91_ * y_62_ + 1 y_91_ ^ 2 ] >= 13211.55
quadratic_ranged_499_lb: [ 1 x_64_ ^ 2 - 2 x_91_ * x_64_ + 1 x_91_ ^ 2 + 1 y_64_ ^ 2 - 2 y_91_ * y_64_ + 1 y_91_ ^ 2 ] >= 722.7
quadratic_ranged_500_lb: [ 1 x_73_ ^ 2 - 2 x_91_ * x_73_ + 1 x_91_ ^ 2 + 1 y_73_ ^ 2 - 2 y_91_ * y_73_ + 1 y_91_ ^ 2 ] >= 2158.2
quadratic_ranged_501_lb: [ 1 x_90_ ^ 2 - 2 x_91_ * x_90_ + 1 x_91_ ^ 2 + 1 y_90_ ^ 2 - 2 y_91_ * y_90_ + 1 y_91_ ^ 2 ] >= 9576.27
quadratic_ranged_502_lb: [ 1 x_9_ ^ 2 - 2 x_92_ * x_9_ + 1 x_92_ ^ 2 + 1 y_9_ ^ 2 - 2 y_92_ * y_9_ + 1 y_92_ ^ 2 ] >= 3972.87
quadratic_ranged_503_lb: [ 1 x_10_ ^ 2 - 2 x_92_ * x_10_ + 1 x_92_ ^ 2 + 1 y_10_ ^ 2 - 2 y_92_ * y_10_ + 1 y_92_ ^ 2 ] >= 9416.88
quadratic_ranged_504_lb: [ 1 x_14_ ^ 2 - 2 x_92_ * x_14_ + 1 x_92_ ^ 2 + 1 y_14_ ^ 2 - 2 y_92_ * y_14_ + 1 y_92_ ^ 2 ] >= 16546.86
quadratic_ranged_505_lb: [ 1 x_26_ ^ 2 - 2 x_92_ * x_26_ + 1 x_92_ ^ 2 + 1 y_26_ ^ 2 - 2 y_92_ * y_26_ + 1 y_92_ ^ 2 ] >= 21673.079999999998
quadratic_ranged_506_lb: [ 1 x_58_ ^ 2 - 2 x_92_ * x_58_ + 1 x_92_ ^ 2 + 1 y_58_ ^ 2 - 2 y_92_ * y_58_ + 1 y_92_ ^ 2 ] >= 8756.55
quadratic_ranged_507_lb: [ 1 x_60_ ^ 2 - 2 x_92_ * x_60_ + 1 x_92_ ^ 2 + 1 y_60_ ^ 2 - 2 y_92_ * y_60_ + 1 y_92_ ^ 2 ] >= 29752.47
quadratic_ranged_508_lb: [ 1 x_67_ ^ 2 - 2 x_92_ * x_67_ + 1 x_92_ ^ 2 + 1 y_67_ ^ 2 - 2 y_92_ * y_67_ + 1 y_92_ ^ 2 ] >= 33677.82
quadratic_ranged_509_lb: [ 1 x_72_ ^ 2 - 2 x_92_ * x_72_ + 1 x_92_ ^ 2 + 1 y_72_ ^ 2 - 2 y_92_ * y_72_ + 1 y_92_ ^ 2 ] >= 8199.18
quadratic_ranged_510_lb: [ 1 x_91_ ^ 2 - 2 x_92_ * x_91_ + 1 x_92_ ^ 2 + 1 y_91_ ^ 2 - 2 y_92_ * y_91_ + 1 y_92_ ^ 2 ] >= 5525.19
quadratic_ranged_511_lb: [ 1 x_14_ ^ 2 - 2 x_93_ * x_14_ + 1 x_93_ ^ 2 + 1 y_14_ ^ 2 - 2 y_93_ * y_14_ + 1 y_93_ ^ 2 ] >= 21705.75
quadratic_ranged_512_lb: [ 1 x_20_ ^ 2 - 2 x_93_ * x_20_ + 1 x_93_ ^ 2 + 1 y_20_ ^ 2 - 2 y_93_ * y_20_ + 1 y_93_ ^ 2 ] >= 1371.15
quadratic_ranged_513_lb: [ 1 x_50_ ^ 2 - 2 x_93_ * x_50_ + 1 x_93_ ^ 2 + 1 y_50_ ^ 2 - 2 y_93_ * y_50_ + 1 y_93_ ^ 2 ] >= 8252.64
quadratic_ranged_514_lb: [ 1 x_54_ ^ 2 - 2 x_93_ * x_54_ + 1 x_93_ ^ 2 + 1 y_54_ ^ 2 - 2 y_93_ * y_54_ + 1 y_93_ ^ 2 ] >= 22636.35
quadratic_ranged_515_lb: [ 1 x_63_ ^ 2 - 2 x_93_ * x_63_ + 1 x_93_ ^ 2 + 1 y_63_ ^ 2 - 2 y_93_ * y_63_ + 1 y_93_ ^ 2 ] >= 14471.82
quadratic_ranged_516_lb: [ 1 x_66_ ^ 2 - 2 x_93_ * x_66_ + 1 x_93_ ^ 2 + 1 y_66_ ^ 2 - 2 y_93_ * y_66_ + 1 y_93_ ^ 2 ] >= 22867.02
quadratic_ranged_517_lb: [ 1 x_73_ ^ 2 - 2 x_93_ * x_73_ + 1 x_93_ ^ 2 + 1 y_73_ ^ 2 - 2 y_93_ * y_73_ + 1 y_93_ ^ 2 ] >= 16873.56
quadratic_ranged_518_lb: [ 1 x_75_ ^ 2 - 2 x_93_ * x_75_ + 1 x_93_ ^ 2 + 1 y_75_ ^ 2 - 2 y_93_ * y_75_ + 1 y_93_ ^ 2 ] >= 13974.84
quadratic_ranged_519_lb: [ 1 x_84_ ^ 2 - 2 x_93_ * x_84_ + 1 x_93_ ^ 2 + 1 y_84_ ^ 2 - 2 y_93_ * y_84_ + 1 y_93_ ^ 2 ] >= 18726.84
quadratic_ranged_520_lb: [ 1 x_87_ ^ 2 - 2 x_93_ * x_87_ + 1 x_93_ ^ 2 + 1 y_87_ ^ 2 - 2 y_93_ * y_87_ + 1 y_93_ ^ 2 ] >= 1216.71
quadratic_ranged_521_lb: [ 1 x_92_ ^ 2 - 2 x_93_ * x_92_ + 1 x_93_ ^ 2 + 1 y_92_ ^ 2 - 2 y_93_ * y_92_ + 1 y_93_ ^ 2 ] >= 971.1899999999999
quadratic_ranged_522_lb: [ 1 x_10_ ^ 2 - 2 x_94_ * x_10_ + 1 x_94_ ^ 2 + 1 y_10_ ^ 2 - 2 y_94_ * y_10_ + 1 y_94_ ^ 2 ] >= 28726.829999999998
quadratic_ranged_523_lb: [ 1 x_12_ ^ 2 - 2 x_94_ * x_12_ + 1 x_94_ ^ 2 + 1 y_12_ ^ 2 - 2 y_94_ * y_12_ + 1 y_94_ ^ 2 ] >= 7608.15
quadratic_ranged_524_lb: [ 1 x_28_ ^ 2 - 2 x_94_ * x_28_ + 1 x_94_ ^ 2 + 1 y_28_ ^ 2 - 2 y_94_ * y_28_ + 1 y_94_ ^ 2 ] >= 24029.28
quadratic_ranged_525_lb: [ 1 x_33_ ^ 2 - 2 x_94_ * x_33_ + 1 x_94_ ^ 2 + 1 y_33_ ^ 2 - 2 y_94_ * y_33_ + 1 y_94_ ^ 2 ] >= 36203.31
quadratic_ranged_526_lb: [ 1 x_53_ ^ 2 - 2 x_94_ * x_53_ + 1 x_94_ ^ 2 + 1 y_53_ ^ 2 - 2 y_94_ * y_53_ + 1 y_94_ ^ 2 ] >= 570.24
quadratic_ranged_527_lb: [ 1 x_54_ ^ 2 - 2 x_94_ * x_54_ + 1 x_94_ ^ 2 + 1 y_54_ ^ 2 - 2 y_94_ * y_54_ + 1 y_94_ ^ 2 ] >= 43220.43
quadratic_ranged_528_lb: [ 1 x_63_ ^ 2 - 2 x_94_ * x_63_ + 1 x_94_ ^ 2 + 1 y_63_ ^ 2 - 2 y_94_ * y_63_ + 1 y_94_ ^ 2 ] >= 2164.14
quadratic_ranged_529_lb: [ 1 x_71_ ^ 2 - 2 x_94_ * x_71_ + 1 x_94_ ^ 2 + 1 y_71_ ^ 2 - 2 y_94_ * y_71_ + 1 y_94_ ^ 2 ] >= 3265.02
quadratic_ranged_530_lb: [ 1 x_73_ ^ 2 - 2 x_94_ * x_73_ + 1 x_94_ ^ 2 + 1 y_73_ ^ 2 - 2 y_94_ * y_73_ + 1 y_94_ ^ 2 ] >= 320.76
quadratic_ranged_531_lb: [ 1 x_74_ ^ 2 - 2 x_94_ * x_74_ + 1 x_94_ ^ 2 + 1 y_74_ ^ 2 - 2 y_94_ * y_74_ + 1 y_94_ ^ 2 ] >= 5926.14
quadratic_ranged_532_lb: [ 1 x_79_ ^ 2 - 2 x_94_ * x_79_ + 1 x_94_ ^ 2 + 1 y_79_ ^ 2 - 2 y_94_ * y_79_ + 1 y_94_ ^ 2 ] >= 24188.67
quadratic_ranged_533_lb: [ 1 x_90_ ^ 2 - 2 x_94_ * x_90_ + 1 x_94_ ^ 2 + 1 y_90_ ^ 2 - 2 y_94_ * y_90_ + 1 y_94_ ^ 2 ] >= 15864.75
quadratic_ranged_534_lb: [ 1 x_93_ ^ 2 - 2 x_94_ * x_93_ + 1 x_94_ ^ 2 + 1 y_93_ ^ 2 - 2 y_94_ * y_93_ + 1 y_94_ ^ 2 ] >= 21827.52
quadratic_ranged_535_lb: [ 1 x_9_ ^ 2 - 2 x_95_ * x_9_ + 1 x_95_ ^ 2 + 1 y_9_ ^ 2 - 2 y_95_ * y_9_ + 1 y_95_ ^ 2 ] >= 26901.27
quadratic_ranged_536_lb: [ 1 x_20_ ^ 2 - 2 x_95_ * x_20_ + 1 x_95_ ^ 2 + 1 y_20_ ^ 2 - 2 y_95_ * y_20_ + 1 y_95_ ^ 2 ] >= 29947.5
quadratic_ranged_537_lb: [ 1 x_43_ ^ 2 - 2 x_95_ * x_43_ + 1 x_95_ ^ 2 + 1 y_43_ ^ 2 - 2 y_95_ * y_43_ + 1 y_95_ ^ 2 ] >= 33526.35
quadratic_ranged_538_lb: [ 1 x_46_ ^ 2 - 2 x_95_ * x_46_ + 1 x_95_ ^ 2 + 1 y_46_ ^ 2 - 2 y_95_ * y_46_ + 1 y_95_ ^ 2 ] >= 1673.1
quadratic_ranged_539_lb: [ 1 x_69_ ^ 2 - 2 x_95_ * x_69_ + 1 x_95_ ^ 2 + 1 y_69_ ^ 2 - 2 y_95_ * y_69_ + 1 y_95_ ^ 2 ] >= 36788.4
quadratic_ranged_540_lb: [ 1 x_94_ ^ 2 - 2 x_95_ * x_94_ + 1 x_95_ ^ 2 + 1 y_94_ ^ 2 - 2 y_95_ * y_94_ + 1 y_95_ ^ 2 ] >= 11845.35
quadratic_ranged_541_lb: [ 1 x_10_ ^ 2 - 2 x_96_ * x_10_ + 1 x_96_ ^ 2 + 1 y_10_ ^ 2 - 2 y_96_ * y_10_ + 1 y_96_ ^ 2 ] >= 373.23
quadratic_ranged_542_lb: [ 1 x_17_ ^ 2 - 2 x_96_ * x_17_ + 1 x_96_ ^ 2 + 1 y_17_ ^ 2 - 2 y_96_ * y_17_ + 1 y_96_ ^ 2 ] >= 37818.99
quadratic_ranged_543_lb: [ 1 x_46_ ^ 2 - 2 x_96_ * x_46_ + 1 x_96_ ^ 2 + 1 y_46_ ^ 2 - 2 y_96_ * y_46_ + 1 y_96_ ^ 2 ] >= 24212.43
quadratic_ranged_544_lb: [ 1 x_55_ ^ 2 - 2 x_96_ * x_55_ + 1 x_96_ ^ 2 + 1 y_55_ ^ 2 - 2 y_96_ * y_55_ + 1 y_96_ ^ 2 ] >= 1570.1399999999999
quadratic_ranged_545_lb: [ 1 x_57_ ^ 2 - 2 x_96_ * x_57_ + 1 x_96_ ^ 2 + 1 y_57_ ^ 2 - 2 y_96_ * y_57_ + 1 y_96_ ^ 2 ] >= 13924.35
quadratic_ranged_546_lb: [ 1 x_66_ ^ 2 - 2 x_96_ * x_66_ + 1 x_96_ ^ 2 + 1 y_66_ ^ 2 - 2 y_96_ * y_66_ + 1 y_96_ ^ 2 ] >= 10393.02
quadratic_ranged_547_lb: [ 1 x_95_ ^ 2 - 2 x_96_ * x_95_ + 1 x_96_ ^ 2 + 1 y_95_ ^ 2 - 2 y_96_ * y_95_ + 1 y_96_ ^ 2 ] >= 31463.19
quadratic_ranged_548_lb: [ 1 x_4_ ^ 2 - 2 x_97_ * x_4_ + 1 x_97_ ^ 2 + 1 y_4_ ^ 2 - 2 y_97_ * y_4_ + 1 y_97_ ^ 2 ] >= 2103.75
quadratic_ranged_549_lb: [ 1 x_5_ ^ 2 - 2 x_97_ * x_5_ + 1 x_97_ ^ 2 + 1 y_5_ ^ 2 - 2 y_97_ * y_5_ + 1 y_97_ ^ 2 ] >= 6099.39
quadratic_ranged_550_lb: [ 1 x_15_ ^ 2 - 2 x_97_ * x_15_ + 1 x_97_ ^ 2 + 1 y_15_ ^ 2 - 2 y_97_ * y_15_ + 1 y_97_ ^ 2 ] >= 6274.62
quadratic_ranged_551_lb: [ 1 x_34_ ^ 2 - 2 x_97_ * x_34_ + 1 x_97_ ^ 2 + 1 y_34_ ^ 2 - 2 y_97_ * y_34_ + 1 y_97_ ^ 2 ] >= 21076.11
quadratic_ranged_552_lb: [ 1 x_38_ ^ 2 - 2 x_97_ * x_38_ + 1 x_97_ ^ 2 + 1 y_38_ ^ 2 - 2 y_97_ * y_38_ + 1 y_97_ ^ 2 ] >= 4123.35
quadratic_ranged_553_lb: [ 1 x_46_ ^ 2 - 2 x_97_ * x_46_ + 1 x_97_ ^ 2 + 1 y_46_ ^ 2 - 2 y_97_ * y_46_ + 1 y_97_ ^ 2 ] >= 13924.35
quadratic_ranged_554_lb: [ 1 x_52_ ^ 2 - 2 x_97_ * x_52_ + 1 x_97_ ^ 2 + 1 y_52_ ^ 2 - 2 y_97_ * y_52_ + 1 y_97_ ^ 2 ] >= 1255.32
quadratic_ranged_555_lb: [ 1 x_62_ ^ 2 - 2 x_97_ * x_62_ + 1 x_97_ ^ 2 + 1 y_62_ ^ 2 - 2 y_97_ * y_62_ + 1 y_97_ ^ 2 ] >= 11049.39
quadratic_ranged_556_lb: [ 1 x_84_ ^ 2 - 2 x_97_ * x_84_ + 1 x_97_ ^ 2 + 1 y_84_ ^ 2 - 2 y_97_ * y_84_ + 1 y_97_ ^ 2 ] >= 2728.44
quadratic_ranged_557_lb: [ 1 x_86_ ^ 2 - 2 x_97_ * x_86_ + 1 x_97_ ^ 2 + 1 y_86_ ^ 2 - 2 y_97_ * y_86_ + 1 y_97_ ^ 2 ] >= 1604.79
quadratic_ranged_558_lb: [ 1 x_91_ ^ 2 - 2 x_97_ * x_91_ + 1 x_97_ ^ 2 + 1 y_91_ ^ 2 - 2 y_97_ * y_91_ + 1 y_97_ ^ 2 ] >= 5021.28
quadratic_ranged_559_lb: [ 1 x_96_ ^ 2 - 2 x_97_ * x_96_ + 1 x_97_ ^ 2 + 1 y_96_ ^ 2 - 2 y_97_ * y_96_ + 1 y_97_ ^ 2 ] >= 1599.84
quadratic_ranged_560_lb: [ 1 x_3_ ^ 2 - 2 x_98_ * x_3_ + 1 x_98_ ^ 2 + 1 y_3_ ^ 2 - 2 y_98_ * y_3_ + 1 y_98_ ^ 2 ] >= 14224.32
quadratic_ranged_561_lb: [ 1 x_10_ ^ 2 - 2 x_98_ * x_10_ + 1 x_98_ ^ 2 + 1 y_10_ ^ 2 - 2 y_98_ * y_10_ + 1 y_98_ ^ 2 ] >= 1965.15
quadratic_ranged_562_lb: [ 1 x_22_ ^ 2 - 2 x_98_ * x_22_ + 1 x_98_ ^ 2 + 1 y_22_ ^ 2 - 2 y_98_ * y_22_ + 1 y_98_ ^ 2 ] >= 3113.55
quadratic_ranged_563_lb: [ 1 x_27_ ^ 2 - 2 x_98_ * x_27_ + 1 x_98_ ^ 2 + 1 y_27_ ^ 2 - 2 y_98_ * y_27_ + 1 y_98_ ^ 2 ] >= 1910.7
quadratic_ranged_564_lb: [ 1 x_35_ ^ 2 - 2 x_98_ * x_35_ + 1 x_98_ ^ 2 + 1 y_35_ ^ 2 - 2 y_98_ * y_35_ + 1 y_98_ ^ 2 ] >= 2164.14
quadratic_ranged_565_lb: [ 1 x_44_ ^ 2 - 2 x_98_ * x_44_ + 1 x_98_ ^ 2 + 1 y_44_ ^ 2 - 2 y_98_ * y_44_ + 1 y_98_ ^ 2 ] >= 10488.06
quadratic_ranged_566_lb: [ 1 x_45_ ^ 2 - 2 x_98_ * x_45_ + 1 x_98_ ^ 2 + 1 y_45_ ^ 2 - 2 y_98_ * y_45_ + 1 y_98_ ^ 2 ] >= 12082.95
quadratic_ranged_567_lb: [ 1 x_52_ ^ 2 - 2 x_98_ * x_52_ + 1 x_98_ ^ 2 + 1 y_52_ ^ 2 - 2 y_98_ * y_52_ + 1 y_98_ ^ 2 ] >= 2290.86
quadratic_ranged_568_lb: [ 1 x_76_ ^ 2 - 2 x_98_ * x_76_ + 1 x_98_ ^ 2 + 1 y_76_ ^ 2 - 2 y_98_ * y_76_ + 1 y_98_ ^ 2 ] >= 9814.86
quadratic_ranged_569_lb: [ 1 x_77_ ^ 2 - 2 x_98_ * x_77_ + 1 x_98_ ^ 2 + 1 y_77_ ^ 2 - 2 y_98_ * y_77_ + 1 y_98_ ^ 2 ] >= 3960
quadratic_ranged_570_lb: [ 1 x_81_ ^ 2 - 2 x_98_ * x_81_ + 1 x_98_ ^ 2 + 1 y_81_ ^ 2 - 2 y_98_ * y_81_ + 1 y_98_ ^ 2 ] >= 15448.95
quadratic_ranged_571_lb: [ 1 x_84_ ^ 2 - 2 x_98_ * x_84_ + 1 x_98_ ^ 2 + 1 y_84_ ^ 2 - 2 y_98_ * y_84_ + 1 y_98_ ^ 2 ] >= 4072.86
quadratic_ranged_572_lb: [ 1 x_97_ ^ 2 - 2 x_98_ * x_97_ + 1 x_98_ ^ 2 + 1 y_97_ ^ 2 - 2 y_98_ * y_97_ + 1 y_98_ ^ 2 ] >= 310.86
quadratic_ranged_573_lb: [ 1 x_24_ ^ 2 - 2 x_99_ * x_24_ + 1 x_99_ ^ 2 + 1 y_24_ ^ 2 - 2 y_99_ * y_24_ + 1 y_99_ ^ 2 ] >= 32449.23
quadratic_ranged_574_lb: [ 1 x_30_ ^ 2 - 2 x_99_ * x_30_ + 1 x_99_ ^ 2 + 1 y_30_ ^ 2 - 2 y_99_ * y_30_ + 1 y_99_ ^ 2 ] >= 9989.1
quadratic_ranged_575_lb: [ 1 x_42_ ^ 2 - 2 x_99_ * x_42_ + 1 x_99_ ^ 2 + 1 y_42_ ^ 2 - 2 y_99_ * y_42_ + 1 y_99_ ^ 2 ] >= 25701.39
quadratic_ranged_576_lb: [ 1 x_50_ ^ 2 - 2 x_99_ * x_50_ + 1 x_99_ ^ 2 + 1 y_50_ ^ 2 - 2 y_99_ * y_50_ + 1 y_99_ ^ 2 ] >= 13310.55
quadratic_ranged_577_lb: [ 1 x_83_ ^ 2 - 2 x_99_ * x_83_ + 1 x_99_ ^ 2 + 1 y_83_ ^ 2 - 2 y_99_ * y_83_ + 1 y_99_ ^ 2 ] >= 912.78
quadratic_ranged_578_lb: [ 1 x_98_ ^ 2 - 2 x_99_ * x_98_ + 1 x_99_ ^ 2 + 1 y_98_ ^ 2 - 2 y_99_ * y_98_ + 1 y_99_ ^ 2 ] >= 12312.63
quadratic_ranged_579_lb: [ 1 x_1_ ^ 2 - 2 x_100_ * x_1_ + 1 x_100_ ^ 2 + 1 y_1_ ^ 2 - 2 y_100_ * y_1_ + 1 y_100_ ^ 2 ] >= 2534.4
quadratic_ranged_580_lb: [ 1 x_9_ ^ 2 - 2 x_100_ * x_9_ + 1 x_100_ ^ 2 + 1 y_9_ ^ 2 - 2 y_100_ * y_9_ + 1 y_100_ ^ 2 ] >= 6023.16
quadratic_ranged_581_lb: [ 1 x_11_ ^ 2 - 2 x_100_ * x_11_ + 1 x_100_ ^ 2 + 1 y_11_ ^ 2 - 2 y_100_ * y_11_ + 1 y_100_ ^ 2 ] >= 6090.48
quadratic_ranged_582_lb: [ 1 x_13_ ^ 2 - 2 x_100_ * x_13_ + 1 x_100_ ^ 2 + 1 y_13_ ^ 2 - 2 y_100_ * y_13_ + 1 y_100_ ^ 2 ] >= 18034.829999999998
quadratic_ranged_583_lb: [ 1 x_52_ ^ 2 - 2 x_100_ * x_52_ + 1 x_100_ ^ 2 + 1 y_52_ ^ 2 - 2 y_100_ * y_52_ + 1 y_100_ ^ 2 ] >= 5213.34
quadratic_ranged_584_lb: [ 1 x_95_ ^ 2 - 2 x_100_ * x_95_ + 1 x_100_ ^ 2 + 1 y_95_ ^ 2 - 2 y_100_ * y_95_ + 1 y_100_ ^ 2 ] >= 7608.15
quadratic_ranged_585_lb: [ 1 x_99_ ^ 2 - 2 x_100_ * x_99_ + 1 x_100_ ^ 2 + 1 y_99_ ^ 2 - 2 y_100_ * y_99_ + 1 y_100_ ^ 2 ] >= 3390.75
c1_1: 1 x_97_ = -40
c2_1: 1 y_97_ = 12
c3_1: 1 x_27_ = -78
c4_1: 1 y_27_ = -34
c5_1: 1 x_50_ = 0
c6_1: 1 y_50_ = -32
Bounds
-192 <= x_1_ <= 117
-66 <= x_2_ <= -15
-92 <= x_3_ <= 68
-67 <= x_4_ <= -25
-46 <= x_5_ <= 25
-108 <= x_6_ <= -12
-66 <= x_7_ <= 64
-140 <= x_8_ <= 104
-74 <= x_9_ <= -8
-99 <= x_10_ <= 0
-89 <= x_11_ <= 87
-112 <= x_12_ <= 95
-134 <= x_13_ <= 127
-129 <= x_14_ <= 36
-120 <= x_15_ <= 40
-86 <= x_16_ <= 85
-165 <= x_17_ <= 119
-114 <= x_18_ <= 52
-25 <= x_19_ <= 14
-54 <= x_20_ <= -41
-99 <= x_21_ <= 99
-99 <= x_22_ <= -2
-91 <= x_23_ <= 89
-113 <= x_24_ <= 51
-134 <= x_25_ <= 120
-134 <= x_26_ <= 35
x_27_ = -78
-115 <= x_28_ <= 49
-66 <= x_29_ <= 66
-105 <= x_30_ <= 104
-143 <= x_31_ <= 107
-98 <= x_32_ <= 18
-126 <= x_33_ <= -6
-90 <= x_34_ <= 85
-82 <= x_35_ <= -45
-192 <= x_36_ <= 65
-68 <= x_37_ <= 55
-5 <= x_38_ <= 4
-58 <= x_39_ <= 2
-129 <= x_40_ <= 68
-73 <= x_41_ <= -20
-82 <= x_42_ <= 82
-114 <= x_43_ <= 12
-64 <= x_44_ <= 63
-168 <= x_45_ <= 77
-155 <= x_46_ <= 79
-51 <= x_47_ <= -41
-64 <= x_48_ <= -63
-142 <= x_49_ <= 55
x_50_ = 0
-86 <= x_51_ <= 86
-75 <= x_52_ <= -5
-89 <= x_53_ <= 78
-166 <= x_54_ <= 34
-69 <= x_55_ <= -60
-126 <= x_56_ <= 33
-33 <= x_57_ <= 33
-71 <= x_58_ <= 71
-138 <= x_59_ <= 88
-151 <= x_60_ <= 101
-143 <= x_61_ <= 72
-132 <= x_62_ <= 66
-38 <= x_63_ <= 33
-31 <= x_64_ <= 30
-100 <= x_65_ <= 65
-131 <= x_66_ <= 43
-137 <= x_67_ <= 101
-94 <= x_68_ <= -35
-104 <= x_69_ <= -25
-91 <= x_70_ <= 52
-80 <= x_71_ <= 78
-74 <= x_72_ <= 30
-63 <= x_73_ <= 63
-109 <= x_74_ <= 31
-133 <= x_75_ <= 40
-105 <= x_76_ <= 66
-41 <= x_77_ <= 16
-65 <= x_78_ <= -8
-92 <= x_79_ <= 21
-141 <= x_80_ <= 49
-127 <= x_81_ <= 91
-99 <= x_82_ <= 19
-138 <= x_83_ <= 58
-92 <= x_84_ <= 12
-109 <= x_85_ <= -43
-80 <= x_86_ <= 0
-78 <= x_87_ <= 31
-76 <= x_88_ <= 34
-105 <= x_89_ <= 103
-113 <= x_90_ <= 80
-16 <= x_91_ <= 16
-91 <= x_92_ <= 28
-91 <= x_93_ <= -3
-81 <= x_94_ <= 80
-191 <= x_95_ <= 120
-80 <= x_96_ <= -20
x_97_ = -40
-57 <= x_98_ <= -34
-116 <= x_99_ <= 78
-148 <= x_100_ <= 68
-147 <= y_1_ <= 160
-77 <= y_2_ <= 29
-112 <= y_3_ <= 60
-34 <= y_4_ <= 19
-66 <= y_5_ <= 14
-90 <= y_6_ <= 32
-98 <= y_7_ <= 34
-132 <= y_8_ <= 108
-82 <= y_9_ <= 36
-47 <= y_10_ <= 44
-121 <= y_11_ <= 57
-144 <= y_12_ <= 80
-155 <= y_13_ <= 102
-132 <= y_14_ <= 80
-68 <= y_15_ <= 92
-113 <= y_16_ <= 54
-147 <= y_17_ <= 133
-146 <= y_18_ <= 82
-57 <= y_19_ <= -7
-71 <= y_20_ <= 3
-131 <= y_21_ <= 67
-62 <= y_22_ <= 42
-123 <= y_23_ <= 59
-145 <= y_24_ <= 81
-166 <= y_25_ <= 102
-95 <= y_26_ <= 79
y_27_ = -34
-147 <= y_28_ <= 83
-98 <= y_29_ <= 34
-137 <= y_30_ <= 73
-146 <= y_31_ <= 111
-109 <= y_32_ <= 62
-106 <= y_33_ <= 38
-122 <= y_34_ <= 58
-52 <= y_35_ <= -1
-162 <= y_36_ <= 109
-100 <= y_37_ <= 36
-37 <= y_38_ <= -27
-90 <= y_39_ <= 26
-161 <= y_40_ <= 97
-92 <= y_41_ <= 24
-114 <= y_42_ <= 50
-124 <= y_43_ <= 56
-96 <= y_44_ <= 32
-116 <= y_45_ <= 121
-107 <= y_46_ <= 123
-71 <= y_47_ <= 3
-49 <= y_48_ <= -19
-167 <= y_49_ <= 99
y_50_ = -32
-118 <= y_51_ <= 54
-23 <= y_52_ <= 47
-121 <= y_53_ <= 57
-146 <= y_54_ <= 78
-52 <= y_55_ <= -16
-78 <= y_56_ <= 77
-65 <= y_57_ <= 1
-103 <= y_58_ <= 39
-155 <= y_59_ <= 106
-142 <= y_60_ <= 119
-136 <= y_61_ <= 111
-94 <= y_62_ <= 100
-70 <= y_63_ <= 6
-63 <= y_64_ <= -1
-113 <= y_65_ <= 68
-103 <= y_66_ <= 87
-161 <= y_67_ <= 105
-77 <= y_68_ <= 9
-87 <= y_69_ <= 19
-123 <= y_70_ <= 59
-112 <= y_71_ <= 48
-89 <= y_72_ <= 42
-95 <= y_73_ <= 31
-128 <= y_74_ <= 75
-151 <= y_75_ <= 84
-105 <= y_76_ <= 73
-69 <= y_77_ <= 9
-83 <= y_78_ <= 33
-85 <= y_79_ <= 60
-108 <= y_80_ <= 93
-131 <= y_81_ <= 95
-47 <= y_82_ <= 71
-86 <= y_83_ <= 110
-40 <= y_84_ <= 64
-69 <= y_85_ <= 1
-28 <= y_86_ <= 52
-59 <= y_87_ <= 46
-108 <= y_88_ <= 44
-137 <= y_89_ <= 73
-140 <= y_90_ <= 81
-48 <= y_91_ <= -16
-123 <= y_92_ <= 59
-95 <= y_93_ <= 41
-113 <= y_94_ <= 49
-148 <= y_95_ <= 159
-28 <= y_96_ <= 24
y_97_ = 12
-5 <= y_98_ <= 10
-117 <= y_99_ <= 84
-96 <= y_100_ <= 114
General
x_1_
x_2_
x_3_
x_4_
x_5_
x_6_
x_7_
x_8_
x_9_
x_10_
x_11_
x_12_
x_13_
x_14_
x_15_
x_16_
x_17_
x_18_
x_19_
x_20_
x_21_
x_22_
x_23_
x_24_
x_25_
x_26_
x_27_
x_28_
x_29_
x_30_
x_31_
x_32_
x_33_
x_34_
x_35_
x_36_
x_37_
x_38_
x_39_
x_40_
x_41_
x_42_
x_43_
x_44_
x_45_
x_46_
x_47_
x_48_
x_49_
x_50_
x_51_
x_52_
x_53_
x_54_
x_55_
x_56_
x_57_
x_58_
x_59_
x_60_
x_61_
x_62_
x_63_
x_64_
x_65_
x_66_
x_67_
x_68_
x_69_
x_70_
x_71_
x_72_
x_73_
x_74_
x_75_
x_76_
x_77_
x_78_
x_79_
x_80_
x_81_
x_82_
x_83_
x_84_
x_85_
x_86_
x_87_
x_88_
x_89_
x_90_
x_91_
x_92_
x_93_
x_94_
x_95_
x_96_
x_97_
x_98_
x_99_
x_100_
y_1_
y_2_
y_3_
y_4_
y_5_
y_6_
y_7_
y_8_
y_9_
y_10_
y_11_
y_12_
y_13_
y_14_
y_15_
y_16_
y_17_
y_18_
y_19_
y_20_
y_21_
y_22_
y_23_
y_24_
y_25_
y_26_
y_27_
y_28_
y_29_
y_30_
y_31_
y_32_
y_33_
y_34_
y_35_
y_36_
y_37_
y_38_
y_39_
y_40_
y_41_
y_42_
y_43_
y_44_
y_45_
y_46_
y_47_
y_48_
y_49_
y_50_
y_51_
y_52_
y_53_
y_54_
y_55_
y_56_
y_57_
y_58_
y_59_
y_60_
y_61_
y_62_
y_63_
y_64_
y_65_
y_66_
y_67_
y_68_
y_69_
y_70_
y_71_
y_72_
y_73_
y_74_
y_75_
y_76_
y_77_
y_78_
y_79_
y_80_
y_81_
y_82_
y_83_
y_84_
y_85_
y_86_
y_87_
y_88_
y_89_
y_90_
y_91_
y_92_
y_93_
y_94_
y_95_
y_96_
y_97_
y_98_
y_99_
y_100_
End
