minimize
obj: 
subject to
c1_3: -1 x_1_ + 1 y_1_ <= 0
c1: [ 1 x_1_ ^ 2 + 1 y_1_ ^ 2 ] <= 44174.22620193751
c2: [ 1 x_2_ ^ 2 + 1 y_2_ ^ 2 ] <= 30319.71948495305
c3: [ 1 x_3_ ^ 2 + 1 y_3_ ^ 2 ] <= 12610.478120382557
c4: [ 1 x_4_ ^ 2 + 1 y_4_ ^ 2 ] <= 36198.674982272096
c5: [ 1 x_5_ ^ 2 + 1 y_5_ ^ 2 ] <= 26806.550444824446
c6: [ 1 x_6_ ^ 2 + 1 y_6_ ^ 2 ] <= 17003.3986782096
c7: [ 1 x_7_ ^ 2 + 1 y_7_ ^ 2 ] <= 16771.45052640506
c8: [ 1 x_8_ ^ 2 + 1 y_8_ ^ 2 ] <= 22084.604271547367
c9: [ 1 x_9_ ^ 2 + 1 y_9_ ^ 2 ] <= 24313.480938685876
c10: [ 1 x_10_ ^ 2 + 1 y_10_ ^ 2 ] <= 11661.626410220455
c11: [ 1 x_11_ ^ 2 + 1 y_11_ ^ 2 ] <= 18054.503154711594
c12: [ 1 x_12_ ^ 2 + 1 y_12_ ^ 2 ] <= 19347.287081613395
c13: [ 1 x_13_ ^ 2 + 1 y_13_ ^ 2 ] <= 3394.6099999999997
c14: [ 1 x_14_ ^ 2 + 1 y_14_ ^ 2 ] <= 3302.86185066145
c15: [ 1 x_15_ ^ 2 + 1 y_15_ ^ 2 ] <= 25329.748393173544
c16: [ 1 x_16_ ^ 2 + 1 y_16_ ^ 2 ] <= 18811.249999999996
c17: [ 1 x_18_ ^ 2 + 1 y_18_ ^ 2 ] <= 5115.649999999999
c18: [ 1 x_19_ ^ 2 + 1 y_19_ ^ 2 ] <= 18064.76510193206
c19: [ 1 x_20_ ^ 2 + 1 y_20_ ^ 2 ] <= 11527.13
c20: [ 1 x_21_ ^ 2 + 1 y_21_ ^ 2 ] <= 21348.082408089253
c21: [ 1 x_22_ ^ 2 + 1 y_22_ ^ 2 ] <= 8036.242756710834
c22: [ 1 x_23_ ^ 2 + 1 y_23_ ^ 2 ] <= 26753.3928278369
c23: [ 1 x_24_ ^ 2 + 1 y_24_ ^ 2 ] <= 19358.66477714682
c24: [ 1 x_25_ ^ 2 + 1 y_25_ ^ 2 ] <= 12978.527132575535
c25: [ 1 x_26_ ^ 2 + 1 y_26_ ^ 2 ] <= 15606.152866804861
c26: [ 1 x_27_ ^ 2 + 1 y_27_ ^ 2 ] <= 14631.479756483694
c27: [ 1 x_28_ ^ 2 + 1 y_28_ ^ 2 ] <= 14633.89
c28: [ 1 x_29_ ^ 2 + 1 y_29_ ^ 2 ] <= 23420.117209817476
c29: [ 1 x_30_ ^ 2 + 1 y_30_ ^ 2 ] <= 20740.493424462216
c30: [ 1 x_31_ ^ 2 + 1 y_31_ ^ 2 ] <= 18208.089606397643
c31: [ 1 x_32_ ^ 2 + 1 y_32_ ^ 2 ] <= 15539.859999999999
c32: [ 1 x_33_ ^ 2 + 1 y_33_ ^ 2 ] <= 23000.58667232604
c33: [ 1 x_34_ ^ 2 + 1 y_34_ ^ 2 ] <= 29456.49141383592
c34: [ 1 x_35_ ^ 2 + 1 y_35_ ^ 2 ] <= 4098.58
c35: [ 1 x_36_ ^ 2 + 1 y_36_ ^ 2 ] <= 18835.547851699106
c36: [ 1 x_37_ ^ 2 + 1 y_37_ ^ 2 ] <= 42228.35311077621
c37: [ 1 x_38_ ^ 2 + 1 y_38_ ^ 2 ] <= 24724.94013031142
c38: [ 1 x_39_ ^ 2 + 1 y_39_ ^ 2 ] <= 13271.399999999996
c39: [ 1 x_40_ ^ 2 + 1 y_40_ ^ 2 ] <= 38878.37651756281
c40: [ 1 x_41_ ^ 2 + 1 y_41_ ^ 2 ] <= 15654.420035300634
c41: [ 1 x_42_ ^ 2 + 1 y_42_ ^ 2 ] <= 10158.513600197188
c42: [ 1 x_43_ ^ 2 + 1 y_43_ ^ 2 ] <= 8913.249999999998
c43: [ 1 x_44_ ^ 2 + 1 y_44_ ^ 2 ] <= 26527.79224984103
c44: [ 1 x_45_ ^ 2 + 1 y_45_ ^ 2 ] <= 12351.79855226624
c45: [ 1 x_46_ ^ 2 + 1 y_46_ ^ 2 ] <= 24540.483501541625
c46: [ 1 x_47_ ^ 2 + 1 y_47_ ^ 2 ] <= 28492.54056148757
c47: [ 1 x_48_ ^ 2 + 1 y_48_ ^ 2 ] <= 36572.07495501328
c48: [ 1 x_49_ ^ 2 + 1 y_49_ ^ 2 ] <= 29621.51280600976
c49: [ 1 x_50_ ^ 2 + 1 y_50_ ^ 2 ] <= 9357.65
c50: [ 1 x_51_ ^ 2 + 1 y_51_ ^ 2 ] <= 24319.451710412228
c51: [ 1 x_52_ ^ 2 + 1 y_52_ ^ 2 ] <= 9903.05
c52: [ 1 x_53_ ^ 2 + 1 y_53_ ^ 2 ] <= 24567.155178057023
c53: [ 1 x_54_ ^ 2 + 1 y_54_ ^ 2 ] <= 32892.93778756994
c54: [ 1 x_55_ ^ 2 + 1 y_55_ ^ 2 ] <= 32279.456932481065
c55: [ 1 x_56_ ^ 2 + 1 y_56_ ^ 2 ] <= 3508.7399999999993
c56: [ 1 x_57_ ^ 2 + 1 y_57_ ^ 2 ] <= 13062.027524730142
c57: [ 1 x_58_ ^ 2 + 1 y_58_ ^ 2 ] <= 13789.54834506392
c58: [ 1 x_59_ ^ 2 + 1 y_59_ ^ 2 ] <= 6077.57956307294
c59: [ 1 x_60_ ^ 2 + 1 y_60_ ^ 2 ] <= 16809.839955905736
c60: [ 1 x_61_ ^ 2 + 1 y_61_ ^ 2 ] <= 24675.524642773464
c61: [ 1 x_62_ ^ 2 + 1 y_62_ ^ 2 ] <= 39649.89850524369
c62: [ 1 x_63_ ^ 2 + 1 y_63_ ^ 2 ] <= 24316.195064130472
c63: [ 1 x_64_ ^ 2 + 1 y_64_ ^ 2 ] <= 35717.33290910596
c64: [ 1 x_65_ ^ 2 + 1 y_65_ ^ 2 ] <= 22413.062693755615
c65: [ 1 x_66_ ^ 2 + 1 y_66_ ^ 2 ] <= 20926.36556727504
c66: [ 1 x_67_ ^ 2 + 1 y_67_ ^ 2 ] <= 28564.61796313804
c67: [ 1 x_68_ ^ 2 + 1 y_68_ ^ 2 ] <= 7278.727326618071
c68: [ 1 x_69_ ^ 2 + 1 y_69_ ^ 2 ] <= 6946.706002448436
c69: [ 1 x_70_ ^ 2 + 1 y_70_ ^ 2 ] <= 14719.179732640117
c70: [ 1 x_71_ ^ 2 + 1 y_71_ ^ 2 ] <= 18051.083266097434
c71: [ 1 x_72_ ^ 2 + 1 y_72_ ^ 2 ] <= 9648.529999999997
c72: [ 1 x_73_ ^ 2 + 1 y_73_ ^ 2 ] <= 7966.879999999999
c73: [ 1 x_74_ ^ 2 + 1 y_74_ ^ 2 ] <= 2845.169999999999
c74: [ 1 x_75_ ^ 2 + 1 y_75_ ^ 2 ] <= 26283.04487580801
c75: [ 1 x_76_ ^ 2 + 1 y_76_ ^ 2 ] <= 6446.323027657605
c76: [ 1 x_77_ ^ 2 + 1 y_77_ ^ 2 ] <= 19349.553253295635
c77: [ 1 x_78_ ^ 2 + 1 y_78_ ^ 2 ] <= 16597.101228673488
c78: [ 1 x_79_ ^ 2 + 1 y_79_ ^ 2 ] <= 1217.05
c79: [ 1 x_80_ ^ 2 + 1 y_80_ ^ 2 ] <= 27299.311537069127
c80: [ 1 x_81_ ^ 2 + 1 y_81_ ^ 2 ] <= 14710.066856220326
c81: [ 1 x_82_ ^ 2 + 1 y_82_ ^ 2 ] <= 23659.435230202882
c82: [ 1 x_83_ ^ 2 + 1 y_83_ ^ 2 ] <= 16966.84040761386
c83: [ 1 x_84_ ^ 2 + 1 y_84_ ^ 2 ] <= 27714.70885482309
c84: [ 1 x_85_ ^ 2 + 1 y_85_ ^ 2 ] <= 18389.056342673208
c85: [ 1 x_86_ ^ 2 + 1 y_86_ ^ 2 ] <= 26233.447468612685
c86: [ 1 x_87_ ^ 2 + 1 y_87_ ^ 2 ] <= 8312.592834848456
c87: [ 1 x_88_ ^ 2 + 1 y_88_ ^ 2 ] <= 5965.059999999999
c88: [ 1 x_89_ ^ 2 + 1 y_89_ ^ 2 ] <= 39468.244915207004
c89: [ 1 x_90_ ^ 2 + 1 y_90_ ^ 2 ] <= 22343.792244953394
c90: [ 1 x_91_ ^ 2 + 1 y_91_ ^ 2 ] <= 16141.861693346424
c91: [ 1 x_92_ ^ 2 + 1 y_92_ ^ 2 ] <= 6159.83842915899
c92: [ 1 x_93_ ^ 2 + 1 y_93_ ^ 2 ] <= 13641.972304713841
c93: [ 1 x_94_ ^ 2 + 1 y_94_ ^ 2 ] <= 31688.07471364373
c94: [ 1 x_95_ ^ 2 + 1 y_95_ ^ 2 ] <= 15977.801124913485
c95: [ 1 x_96_ ^ 2 + 1 y_96_ ^ 2 ] <= 29501.942047608
c96: [ 1 x_97_ ^ 2 + 1 y_97_ ^ 2 ] <= 6342.799999999999
c97: [ 1 x_98_ ^ 2 + 1 y_98_ ^ 2 ] <= 20034.492752331662
c98: [ 1 x_99_ ^ 2 + 1 y_99_ ^ 2 ] <= 21632.618760454574
c99: [ 1 x_100_ ^ 2 + 1 y_100_ ^ 2 ] <= 23374.022124342766
quadratic_ranged_1_ub: [ 1 x_1_ ^ 2 - 2 x_2_ * x_1_ + 1 x_2_ ^ 2 + 1 y_1_ ^ 2 - 2 y_2_ * y_1_ + 1 y_2_ ^ 2 ] <= 13067.380000000001
quadratic_ranged_2_ub: [ 1 x_2_ ^ 2 - 2 x_3_ * x_2_ + 1 x_3_ ^ 2 + 1 y_2_ ^ 2 - 2 y_3_ * y_2_ + 1 y_3_ ^ 2 ] <= 3822.85
quadratic_ranged_3_ub: [ 1 x_3_ ^ 2 - 2 x_4_ * x_3_ + 1 x_4_ ^ 2 + 1 y_3_ ^ 2 - 2 y_4_ * y_3_ + 1 y_4_ ^ 2 ] <= 18681.97
quadratic_ranged_4_ub: [ 1 x_2_ ^ 2 - 2 x_5_ * x_2_ + 1 x_5_ ^ 2 + 1 y_2_ ^ 2 - 2 y_5_ * y_2_ + 1 y_5_ ^ 2 ] <= 31335.25
quadratic_ranged_5_ub: [ 1 x_4_ ^ 2 - 2 x_5_ * x_4_ + 1 x_5_ ^ 2 + 1 y_4_ ^ 2 - 2 y_5_ * y_4_ + 1 y_5_ ^ 2 ] <= 703.97
quadratic_ranged_6_ub: [ 1 x_2_ ^ 2 - 2 x_6_ * x_2_ + 1 x_6_ ^ 2 + 1 y_2_ ^ 2 - 2 y_6_ * y_2_ + 1 y_6_ ^ 2 ] <= 19402.1
quadratic_ranged_7_ub: [ 1 x_5_ ^ 2 - 2 x_6_ * x_5_ + 1 x_6_ ^ 2 + 1 y_5_ ^ 2 - 2 y_6_ * y_5_ + 1 y_6_ ^ 2 ] <= 17651.77
quadratic_ranged_8_ub: [ 1 x_6_ ^ 2 - 2 x_7_ * x_6_ + 1 x_7_ ^ 2 + 1 y_6_ ^ 2 - 2 y_7_ * y_6_ + 1 y_7_ ^ 2 ] <= 1171.6
quadratic_ranged_9_ub: [ 1 x_7_ ^ 2 - 2 x_8_ * x_7_ + 1 x_8_ ^ 2 + 1 y_7_ ^ 2 - 2 y_8_ * y_7_ + 1 y_8_ ^ 2 ] <= 16875.08
quadratic_ranged_10_ub: [ 1 x_1_ ^ 2 - 2 x_9_ * x_1_ + 1 x_9_ ^ 2 + 1 y_1_ ^ 2 - 2 y_9_ * y_1_ + 1 y_9_ ^ 2 ] <= 14190.5
quadratic_ranged_11_ub: [ 1 x_6_ ^ 2 - 2 x_9_ * x_6_ + 1 x_9_ ^ 2 + 1 y_6_ ^ 2 - 2 y_9_ * y_6_ + 1 y_9_ ^ 2 ] <= 9601.06
quadratic_ranged_12_ub: [ 1 x_7_ ^ 2 - 2 x_9_ * x_7_ + 1 x_9_ ^ 2 + 1 y_7_ ^ 2 - 2 y_9_ * y_7_ + 1 y_9_ ^ 2 ] <= 16881.14
quadratic_ranged_13_ub: [ 1 x_8_ ^ 2 - 2 x_9_ * x_8_ + 1 x_9_ ^ 2 + 1 y_8_ ^ 2 - 2 y_9_ * y_8_ + 1 y_9_ ^ 2 ] <= 2636.1
quadratic_ranged_14_ub: [ 1 x_9_ ^ 2 - 2 x_10_ * x_9_ + 1 x_10_ ^ 2 + 1 y_9_ ^ 2 - 2 y_10_ * y_9_ + 1 y_10_ ^ 2 ] <= 12642.17
quadratic_ranged_15_ub: [ 1 x_7_ ^ 2 - 2 x_11_ * x_7_ + 1 x_11_ ^ 2 + 1 y_7_ ^ 2 - 2 y_11_ * y_7_ + 1 y_11_ ^ 2 ] <= 28070.93
quadratic_ranged_16_ub: [ 1 x_10_ ^ 2 - 2 x_11_ * x_10_ + 1 x_11_ ^ 2 + 1 y_10_ ^ 2 - 2 y_11_ * y_10_ + 1 y_11_ ^ 2 ] <= 1262.5
quadratic_ranged_17_ub: [ 1 x_6_ ^ 2 - 2 x_12_ * x_6_ + 1 x_12_ ^ 2 + 1 y_6_ ^ 2 - 2 y_12_ * y_6_ + 1 y_12_ ^ 2 ] <= 3519.85
quadratic_ranged_18_ub: [ 1 x_11_ ^ 2 - 2 x_12_ * x_11_ + 1 x_12_ ^ 2 + 1 y_11_ ^ 2 - 2 y_12_ * y_11_ + 1 y_12_ ^ 2 ] <= 8160.8
quadratic_ranged_19_ub: [ 1 x_7_ ^ 2 - 2 x_13_ * x_7_ + 1 x_13_ ^ 2 + 1 y_7_ ^ 2 - 2 y_13_ * y_7_ + 1 y_13_ ^ 2 ] <= 25346.96
quadratic_ranged_20_ub: [ 1 x_12_ ^ 2 - 2 x_13_ * x_12_ + 1 x_13_ ^ 2 + 1 y_12_ ^ 2 - 2 y_13_ * y_12_ + 1 y_13_ ^ 2 ] <= 6533.6900000000005
quadratic_ranged_21_ub: [ 1 x_13_ ^ 2 - 2 x_14_ * x_13_ + 1 x_14_ ^ 2 + 1 y_13_ ^ 2 - 2 y_14_ * y_13_ + 1 y_14_ ^ 2 ] <= 5717.61
quadratic_ranged_22_ub: [ 1 x_2_ ^ 2 - 2 x_15_ * x_2_ + 1 x_15_ ^ 2 + 1 y_2_ ^ 2 - 2 y_15_ * y_2_ + 1 y_15_ ^ 2 ] <= 30332.32
quadratic_ranged_23_ub: [ 1 x_10_ ^ 2 - 2 x_15_ * x_10_ + 1 x_15_ ^ 2 + 1 y_10_ ^ 2 - 2 y_15_ * y_10_ + 1 y_15_ ^ 2 ] <= 29961.65
quadratic_ranged_24_ub: [ 1 x_14_ ^ 2 - 2 x_15_ * x_14_ + 1 x_15_ ^ 2 + 1 y_14_ ^ 2 - 2 y_15_ * y_14_ + 1 y_15_ ^ 2 ] <= 10339.37
quadratic_ranged_25_ub: [ 1 x_5_ ^ 2 - 2 x_16_ * x_5_ + 1 x_16_ ^ 2 + 1 y_5_ ^ 2 - 2 y_16_ * y_5_ + 1 y_16_ ^ 2 ] <= 42946.21
quadratic_ranged_26_ub: [ 1 x_7_ ^ 2 - 2 x_16_ * x_7_ + 1 x_16_ ^ 2 + 1 y_7_ ^ 2 - 2 y_16_ * y_7_ + 1 y_16_ ^ 2 ] <= 14748.02
quadratic_ranged_27_ub: [ 1 x_9_ ^ 2 - 2 x_16_ * x_9_ + 1 x_16_ ^ 2 + 1 y_9_ ^ 2 - 2 y_16_ * y_9_ + 1 y_16_ ^ 2 ] <= 2981.52
quadratic_ranged_28_ub: [ 1 x_13_ ^ 2 - 2 x_16_ * x_13_ + 1 x_16_ ^ 2 + 1 y_13_ ^ 2 - 2 y_16_ * y_13_ + 1 y_16_ ^ 2 ] <= 18489.06
quadratic_ranged_29_ub: [ 1 x_15_ ^ 2 - 2 x_16_ * x_15_ + 1 x_16_ ^ 2 + 1 y_15_ ^ 2 - 2 y_16_ * y_15_ + 1 y_16_ ^ 2 ] <= 53913.8
quadratic_ranged_30_ub: [ 1 x_13_ ^ 2 - 2 x_17_ * x_13_ + 1 x_17_ ^ 2 + 1 y_13_ ^ 2 - 2 y_17_ * y_13_ + 1 y_17_ ^ 2 ] <= 3394.61
quadratic_ranged_31_ub: [ 1 x_16_ ^ 2 - 2 x_17_ * x_16_ + 1 x_17_ ^ 2 + 1 y_16_ ^ 2 - 2 y_17_ * y_16_ + 1 y_17_ ^ 2 ] <= 18811.25
quadratic_ranged_32_ub: [ 1 x_17_ ^ 2 - 2 x_18_ * x_17_ + 1 x_18_ ^ 2 + 1 y_17_ ^ 2 - 2 y_18_ * y_17_ + 1 y_18_ ^ 2 ] <= 5115.65
quadratic_ranged_33_ub: [ 1 x_2_ ^ 2 - 2 x_19_ * x_2_ + 1 x_19_ ^ 2 + 1 y_2_ ^ 2 - 2 y_19_ * y_2_ + 1 y_19_ ^ 2 ] <= 21821.05
quadratic_ranged_34_ub: [ 1 x_3_ ^ 2 - 2 x_19_ * x_3_ + 1 x_19_ ^ 2 + 1 y_3_ ^ 2 - 2 y_19_ * y_3_ + 1 y_19_ ^ 2 ] <= 11190.8
quadratic_ranged_35_ub: [ 1 x_10_ ^ 2 - 2 x_19_ * x_10_ + 1 x_19_ ^ 2 + 1 y_10_ ^ 2 - 2 y_19_ * y_10_ + 1 y_19_ ^ 2 ] <= 28090.12
quadratic_ranged_36_ub: [ 1 x_18_ ^ 2 - 2 x_19_ * x_18_ + 1 x_19_ ^ 2 + 1 y_18_ ^ 2 - 2 y_19_ * y_18_ + 1 y_19_ ^ 2 ] <= 18706.21
quadratic_ranged_37_ub: [ 1 x_11_ ^ 2 - 2 x_20_ * x_11_ + 1 x_20_ ^ 2 + 1 y_11_ ^ 2 - 2 y_20_ * y_11_ + 1 y_20_ ^ 2 ] <= 18815.29
quadratic_ranged_38_ub: [ 1 x_17_ ^ 2 - 2 x_20_ * x_17_ + 1 x_20_ ^ 2 + 1 y_17_ ^ 2 - 2 y_20_ * y_17_ + 1 y_20_ ^ 2 ] <= 11527.13
quadratic_ranged_39_ub: [ 1 x_19_ ^ 2 - 2 x_20_ * x_19_ + 1 x_20_ ^ 2 + 1 y_19_ ^ 2 - 2 y_20_ * y_19_ + 1 y_20_ ^ 2 ] <= 9519.25
quadratic_ranged_40_ub: [ 1 x_1_ ^ 2 - 2 x_21_ * x_1_ + 1 x_21_ ^ 2 + 1 y_1_ ^ 2 - 2 y_21_ * y_1_ + 1 y_21_ ^ 2 ] <= 21414.02
quadratic_ranged_41_ub: [ 1 x_18_ ^ 2 - 2 x_21_ * x_18_ + 1 x_21_ ^ 2 + 1 y_18_ ^ 2 - 2 y_21_ * y_18_ + 1 y_21_ ^ 2 ] <= 5563.08
quadratic_ranged_42_ub: [ 1 x_20_ ^ 2 - 2 x_21_ * x_20_ + 1 x_21_ ^ 2 + 1 y_20_ ^ 2 - 2 y_21_ * y_20_ + 1 y_21_ ^ 2 ] <= 55792.4
quadratic_ranged_43_ub: [ 1 x_19_ ^ 2 - 2 x_22_ * x_19_ + 1 x_22_ ^ 2 + 1 y_19_ ^ 2 - 2 y_22_ * y_19_ + 1 y_22_ ^ 2 ] <= 3737
quadratic_ranged_44_ub: [ 1 x_21_ ^ 2 - 2 x_22_ * x_21_ + 1 x_22_ ^ 2 + 1 y_21_ ^ 2 - 2 y_22_ * y_21_ + 1 y_22_ ^ 2 ] <= 21235.25
quadratic_ranged_45_ub: [ 1 x_2_ ^ 2 - 2 x_23_ * x_2_ + 1 x_23_ ^ 2 + 1 y_2_ ^ 2 - 2 y_23_ * y_2_ + 1 y_23_ ^ 2 ] <= 5418.65
quadratic_ranged_46_ub: [ 1 x_4_ ^ 2 - 2 x_23_ * x_4_ + 1 x_23_ ^ 2 + 1 y_4_ ^ 2 - 2 y_23_ * y_4_ + 1 y_23_ ^ 2 ] <= 15954.97
quadratic_ranged_47_ub: [ 1 x_22_ ^ 2 - 2 x_23_ * x_22_ + 1 x_23_ ^ 2 + 1 y_22_ ^ 2 - 2 y_23_ * y_22_ + 1 y_23_ ^ 2 ] <= 5464.1
quadratic_ranged_48_ub: [ 1 x_6_ ^ 2 - 2 x_24_ * x_6_ + 1 x_24_ ^ 2 + 1 y_6_ ^ 2 - 2 y_24_ * y_6_ + 1 y_24_ ^ 2 ] <= 10863.56
quadratic_ranged_49_ub: [ 1 x_9_ ^ 2 - 2 x_24_ * x_9_ + 1 x_24_ ^ 2 + 1 y_9_ ^ 2 - 2 y_24_ * y_9_ + 1 y_24_ ^ 2 ] <= 30504.02
quadratic_ranged_50_ub: [ 1 x_23_ ^ 2 - 2 x_24_ * x_23_ + 1 x_24_ ^ 2 + 1 y_23_ ^ 2 - 2 y_24_ * y_23_ + 1 y_24_ ^ 2 ] <= 28349.69
quadratic_ranged_51_ub: [ 1 x_4_ ^ 2 - 2 x_25_ * x_4_ + 1 x_25_ ^ 2 + 1 y_4_ ^ 2 - 2 y_25_ * y_4_ + 1 y_25_ ^ 2 ] <= 25549.97
quadratic_ranged_52_ub: [ 1 x_24_ ^ 2 - 2 x_25_ * x_24_ + 1 x_25_ ^ 2 + 1 y_24_ ^ 2 - 2 y_25_ * y_24_ + 1 y_25_ ^ 2 ] <= 35553.01
quadratic_ranged_53_ub: [ 1 x_14_ ^ 2 - 2 x_26_ * x_14_ + 1 x_26_ ^ 2 + 1 y_14_ ^ 2 - 2 y_26_ * y_14_ + 1 y_26_ ^ 2 ] <= 4550.05
quadratic_ranged_54_ub: [ 1 x_25_ ^ 2 - 2 x_26_ * x_25_ + 1 x_26_ ^ 2 + 1 y_25_ ^ 2 - 2 y_26_ * y_25_ + 1 y_26_ ^ 2 ] <= 4016.77
quadratic_ranged_55_ub: [ 1 x_2_ ^ 2 - 2 x_27_ * x_2_ + 1 x_27_ ^ 2 + 1 y_2_ ^ 2 - 2 y_27_ * y_2_ + 1 y_27_ ^ 2 ] <= 6417.54
quadratic_ranged_56_ub: [ 1 x_3_ ^ 2 - 2 x_27_ * x_3_ + 1 x_27_ ^ 2 + 1 y_3_ ^ 2 - 2 y_27_ * y_3_ + 1 y_27_ ^ 2 ] <= 14355.130000000001
quadratic_ranged_57_ub: [ 1 x_18_ ^ 2 - 2 x_27_ * x_18_ + 1 x_27_ ^ 2 + 1 y_18_ ^ 2 - 2 y_27_ * y_18_ + 1 y_27_ ^ 2 ] <= 9794.98
quadratic_ranged_58_ub: [ 1 x_26_ ^ 2 - 2 x_27_ * x_26_ + 1 x_27_ ^ 2 + 1 y_26_ ^ 2 - 2 y_27_ * y_26_ + 1 y_27_ ^ 2 ] <= 1973.54
quadratic_ranged_59_ub: [ 1 x_14_ ^ 2 - 2 x_28_ * x_14_ + 1 x_28_ ^ 2 + 1 y_14_ ^ 2 - 2 y_28_ * y_14_ + 1 y_28_ ^ 2 ] <= 10242.41
quadratic_ranged_60_ub: [ 1 x_16_ ^ 2 - 2 x_28_ * x_16_ + 1 x_28_ ^ 2 + 1 y_16_ ^ 2 - 2 y_28_ * y_16_ + 1 y_28_ ^ 2 ] <= 18002.24
quadratic_ranged_61_ub: [ 1 x_17_ ^ 2 - 2 x_28_ * x_17_ + 1 x_28_ ^ 2 + 1 y_17_ ^ 2 - 2 y_28_ * y_17_ + 1 y_28_ ^ 2 ] <= 14633.89
quadratic_ranged_62_ub: [ 1 x_27_ ^ 2 - 2 x_28_ * x_27_ + 1 x_28_ ^ 2 + 1 y_27_ ^ 2 - 2 y_28_ * y_27_ + 1 y_28_ ^ 2 ] <= 44054.18
quadratic_ranged_63_ub: [ 1 x_11_ ^ 2 - 2 x_29_ * x_11_ + 1 x_29_ ^ 2 + 1 y_11_ ^ 2 - 2 y_29_ * y_11_ + 1 y_29_ ^ 2 ] <= 10990.82
quadratic_ranged_64_ub: [ 1 x_13_ ^ 2 - 2 x_29_ * x_13_ + 1 x_29_ ^ 2 + 1 y_13_ ^ 2 - 2 y_29_ * y_13_ + 1 y_29_ ^ 2 ] <= 8981.93
quadratic_ranged_65_ub: [ 1 x_16_ ^ 2 - 2 x_29_ * x_16_ + 1 x_29_ ^ 2 + 1 y_16_ ^ 2 - 2 y_29_ * y_16_ + 1 y_29_ ^ 2 ] <= 7163.93
quadratic_ranged_66_ub: [ 1 x_21_ ^ 2 - 2 x_29_ * x_21_ + 1 x_29_ ^ 2 + 1 y_21_ ^ 2 - 2 y_29_ * y_21_ + 1 y_29_ ^ 2 ] <= 7891.13
quadratic_ranged_67_ub: [ 1 x_27_ ^ 2 - 2 x_29_ * x_27_ + 1 x_29_ ^ 2 + 1 y_27_ ^ 2 - 2 y_29_ * y_27_ + 1 y_29_ ^ 2 ] <= 20912.05
quadratic_ranged_68_ub: [ 1 x_28_ ^ 2 - 2 x_29_ * x_28_ + 1 x_29_ ^ 2 + 1 y_28_ ^ 2 - 2 y_29_ * y_28_ + 1 y_29_ ^ 2 ] <= 6331.6900000000005
quadratic_ranged_69_ub: [ 1 x_6_ ^ 2 - 2 x_30_ * x_6_ + 1 x_30_ ^ 2 + 1 y_6_ ^ 2 - 2 y_30_ * y_6_ + 1 y_30_ ^ 2 ] <= 3692.56
quadratic_ranged_70_ub: [ 1 x_25_ ^ 2 - 2 x_30_ * x_25_ + 1 x_30_ ^ 2 + 1 y_25_ ^ 2 - 2 y_30_ * y_25_ + 1 y_30_ ^ 2 ] <= 10509.05
quadratic_ranged_71_ub: [ 1 x_29_ ^ 2 - 2 x_30_ * x_29_ + 1 x_30_ ^ 2 + 1 y_29_ ^ 2 - 2 y_30_ * y_29_ + 1 y_30_ ^ 2 ] <= 267.65
quadratic_ranged_72_ub: [ 1 x_7_ ^ 2 - 2 x_31_ * x_7_ + 1 x_31_ ^ 2 + 1 y_7_ ^ 2 - 2 y_31_ * y_7_ + 1 y_31_ ^ 2 ] <= 11919.01
quadratic_ranged_73_ub: [ 1 x_24_ ^ 2 - 2 x_31_ * x_24_ + 1 x_31_ ^ 2 + 1 y_24_ ^ 2 - 2 y_31_ * y_24_ + 1 y_31_ ^ 2 ] <= 22406.85
quadratic_ranged_74_ub: [ 1 x_27_ ^ 2 - 2 x_31_ * x_27_ + 1 x_31_ ^ 2 + 1 y_27_ ^ 2 - 2 y_31_ * y_27_ + 1 y_31_ ^ 2 ] <= 17607.33
quadratic_ranged_75_ub: [ 1 x_30_ ^ 2 - 2 x_31_ * x_30_ + 1 x_31_ ^ 2 + 1 y_30_ ^ 2 - 2 y_31_ * y_30_ + 1 y_31_ ^ 2 ] <= 1164.53
quadratic_ranged_76_ub: [ 1 x_5_ ^ 2 - 2 x_32_ * x_5_ + 1 x_32_ ^ 2 + 1 y_5_ ^ 2 - 2 y_32_ * y_5_ + 1 y_32_ ^ 2 ] <= 19666.72
quadratic_ranged_77_ub: [ 1 x_15_ ^ 2 - 2 x_32_ * x_15_ + 1 x_32_ ^ 2 + 1 y_15_ ^ 2 - 2 y_32_ * y_15_ + 1 y_32_ ^ 2 ] <= 32959.33
quadratic_ranged_78_ub: [ 1 x_17_ ^ 2 - 2 x_32_ * x_17_ + 1 x_32_ ^ 2 + 1 y_17_ ^ 2 - 2 y_32_ * y_17_ + 1 y_32_ ^ 2 ] <= 15539.86
quadratic_ranged_79_ub: [ 1 x_23_ ^ 2 - 2 x_32_ * x_23_ + 1 x_32_ ^ 2 + 1 y_23_ ^ 2 - 2 y_32_ * y_23_ + 1 y_32_ ^ 2 ] <= 37743.7
quadratic_ranged_80_ub: [ 1 x_31_ ^ 2 - 2 x_32_ * x_31_ + 1 x_32_ ^ 2 + 1 y_31_ ^ 2 - 2 y_32_ * y_31_ + 1 y_32_ ^ 2 ] <= 10427.24
quadratic_ranged_81_ub: [ 1 x_5_ ^ 2 - 2 x_33_ * x_5_ + 1 x_33_ ^ 2 + 1 y_5_ ^ 2 - 2 y_33_ * y_5_ + 1 y_33_ ^ 2 ] <= 35828.74
quadratic_ranged_82_ub: [ 1 x_12_ ^ 2 - 2 x_33_ * x_12_ + 1 x_33_ ^ 2 + 1 y_12_ ^ 2 - 2 y_33_ * y_12_ + 1 y_33_ ^ 2 ] <= 5470.16
quadratic_ranged_83_ub: [ 1 x_14_ ^ 2 - 2 x_33_ * x_14_ + 1 x_33_ ^ 2 + 1 y_14_ ^ 2 - 2 y_33_ * y_14_ + 1 y_33_ ^ 2 ] <= 12453.3
quadratic_ranged_84_ub: [ 1 x_23_ ^ 2 - 2 x_33_ * x_23_ + 1 x_33_ ^ 2 + 1 y_23_ ^ 2 - 2 y_33_ * y_23_ + 1 y_33_ ^ 2 ] <= 26833.68
quadratic_ranged_85_ub: [ 1 x_32_ ^ 2 - 2 x_33_ * x_32_ + 1 x_33_ ^ 2 + 1 y_32_ ^ 2 - 2 y_33_ * y_32_ + 1 y_33_ ^ 2 ] <= 8655.7
quadratic_ranged_86_ub: [ 1 x_8_ ^ 2 - 2 x_34_ * x_8_ + 1 x_34_ ^ 2 + 1 y_8_ ^ 2 - 2 y_34_ * y_8_ + 1 y_34_ ^ 2 ] <= 45090.44
quadratic_ranged_87_ub: [ 1 x_16_ ^ 2 - 2 x_34_ * x_16_ + 1 x_34_ ^ 2 + 1 y_16_ ^ 2 - 2 y_34_ * y_16_ + 1 y_34_ ^ 2 ] <= 43642.1
quadratic_ranged_88_ub: [ 1 x_23_ ^ 2 - 2 x_34_ * x_23_ + 1 x_34_ ^ 2 + 1 y_23_ ^ 2 - 2 y_34_ * y_23_ + 1 y_34_ ^ 2 ] <= 10799.93
quadratic_ranged_89_ub: [ 1 x_25_ ^ 2 - 2 x_34_ * x_25_ + 1 x_34_ ^ 2 + 1 y_25_ ^ 2 - 2 y_34_ * y_25_ + 1 y_34_ ^ 2 ] <= 19966.69
quadratic_ranged_90_ub: [ 1 x_33_ ^ 2 - 2 x_34_ * x_33_ + 1 x_34_ ^ 2 + 1 y_33_ ^ 2 - 2 y_34_ * y_33_ + 1 y_34_ ^ 2 ] <= 35779.25
quadratic_ranged_91_ub: [ 1 x_4_ ^ 2 - 2 x_35_ * x_4_ + 1 x_35_ ^ 2 + 1 y_4_ ^ 2 - 2 y_35_ * y_4_ + 1 y_35_ ^ 2 ] <= 16480.170000000002
quadratic_ranged_92_ub: [ 1 x_6_ ^ 2 - 2 x_35_ * x_6_ + 1 x_35_ ^ 2 + 1 y_6_ ^ 2 - 2 y_35_ * y_6_ + 1 y_35_ ^ 2 ] <= 26131.73
quadratic_ranged_93_ub: [ 1 x_17_ ^ 2 - 2 x_35_ * x_17_ + 1 x_35_ ^ 2 + 1 y_17_ ^ 2 - 2 y_35_ * y_17_ + 1 y_35_ ^ 2 ] <= 4098.58
quadratic_ranged_94_ub: [ 1 x_24_ ^ 2 - 2 x_35_ * x_24_ + 1 x_35_ ^ 2 + 1 y_24_ ^ 2 - 2 y_35_ * y_24_ + 1 y_35_ ^ 2 ] <= 27444.73
quadratic_ranged_95_ub: [ 1 x_29_ ^ 2 - 2 x_35_ * x_29_ + 1 x_35_ ^ 2 + 1 y_29_ ^ 2 - 2 y_35_ * y_29_ + 1 y_35_ ^ 2 ] <= 13837
quadratic_ranged_96_ub: [ 1 x_30_ ^ 2 - 2 x_35_ * x_30_ + 1 x_35_ ^ 2 + 1 y_30_ ^ 2 - 2 y_35_ * y_30_ + 1 y_35_ ^ 2 ] <= 10549.45
quadratic_ranged_97_ub: [ 1 x_32_ ^ 2 - 2 x_35_ * x_32_ + 1 x_35_ ^ 2 + 1 y_32_ ^ 2 - 2 y_35_ * y_32_ + 1 y_35_ ^ 2 ] <= 33976.4
quadratic_ranged_98_ub: [ 1 x_33_ ^ 2 - 2 x_35_ * x_33_ + 1 x_35_ ^ 2 + 1 y_33_ ^ 2 - 2 y_35_ * y_33_ + 1 y_35_ ^ 2 ] <= 22593.7
quadratic_ranged_99_ub: [ 1 x_34_ ^ 2 - 2 x_35_ * x_34_ + 1 x_35_ ^ 2 + 1 y_34_ ^ 2 - 2 y_35_ * y_34_ + 1 y_35_ ^ 2 ] <= 11579.65
quadratic_ranged_100_ub: [ 1 x_14_ ^ 2 - 2 x_36_ * x_14_ + 1 x_36_ ^ 2 + 1 y_14_ ^ 2 - 2 y_36_ * y_14_ + 1 y_36_ ^ 2 ] <= 18589.05
quadratic_ranged_101_ub: [ 1 x_23_ ^ 2 - 2 x_36_ * x_23_ + 1 x_36_ ^ 2 + 1 y_23_ ^ 2 - 2 y_36_ * y_23_ + 1 y_36_ ^ 2 ] <= 27279.09
quadratic_ranged_102_ub: [ 1 x_24_ ^ 2 - 2 x_36_ * x_24_ + 1 x_36_ ^ 2 + 1 y_24_ ^ 2 - 2 y_36_ * y_24_ + 1 y_36_ ^ 2 ] <= 42993.68
quadratic_ranged_103_ub: [ 1 x_32_ ^ 2 - 2 x_36_ * x_32_ + 1 x_36_ ^ 2 + 1 y_32_ ^ 2 - 2 y_36_ * y_32_ + 1 y_36_ ^ 2 ] <= 18548.65
quadratic_ranged_104_ub: [ 1 x_35_ ^ 2 - 2 x_36_ * x_35_ + 1 x_36_ ^ 2 + 1 y_35_ ^ 2 - 2 y_36_ * y_35_ + 1 y_36_ ^ 2 ] <= 22851.25
quadratic_ranged_105_ub: [ 1 x_8_ ^ 2 - 2 x_37_ * x_8_ + 1 x_37_ ^ 2 + 1 y_8_ ^ 2 - 2 y_37_ * y_8_ + 1 y_37_ ^ 2 ] <= 15533.8
quadratic_ranged_106_ub: [ 1 x_36_ ^ 2 - 2 x_37_ * x_36_ + 1 x_37_ ^ 2 + 1 y_36_ ^ 2 - 2 y_37_ * y_36_ + 1 y_37_ ^ 2 ] <= 22611.88
quadratic_ranged_107_ub: [ 1 x_3_ ^ 2 - 2 x_38_ * x_3_ + 1 x_38_ ^ 2 + 1 y_3_ ^ 2 - 2 y_38_ * y_3_ + 1 y_38_ ^ 2 ] <= 9996.98
quadratic_ranged_108_ub: [ 1 x_9_ ^ 2 - 2 x_38_ * x_9_ + 1 x_38_ ^ 2 + 1 y_9_ ^ 2 - 2 y_38_ * y_9_ + 1 y_38_ ^ 2 ] <= 10331.29
quadratic_ranged_109_ub: [ 1 x_11_ ^ 2 - 2 x_38_ * x_11_ + 1 x_38_ ^ 2 + 1 y_11_ ^ 2 - 2 y_38_ * y_11_ + 1 y_38_ ^ 2 ] <= 1797.8
quadratic_ranged_110_ub: [ 1 x_20_ ^ 2 - 2 x_38_ * x_20_ + 1 x_38_ ^ 2 + 1 y_20_ ^ 2 - 2 y_38_ * y_20_ + 1 y_38_ ^ 2 ] <= 30983.77
quadratic_ranged_111_ub: [ 1 x_37_ ^ 2 - 2 x_38_ * x_37_ + 1 x_38_ ^ 2 + 1 y_37_ ^ 2 - 2 y_38_ * y_37_ + 1 y_38_ ^ 2 ] <= 43354.25
quadratic_ranged_112_ub: [ 1 x_7_ ^ 2 - 2 x_39_ * x_7_ + 1 x_39_ ^ 2 + 1 y_7_ ^ 2 - 2 y_39_ * y_7_ + 1 y_39_ ^ 2 ] <= 17825.49
quadratic_ranged_113_ub: [ 1 x_8_ ^ 2 - 2 x_39_ * x_8_ + 1 x_39_ ^ 2 + 1 y_8_ ^ 2 - 2 y_39_ * y_8_ + 1 y_39_ ^ 2 ] <= 1116.05
quadratic_ranged_114_ub: [ 1 x_12_ ^ 2 - 2 x_39_ * x_12_ + 1 x_39_ ^ 2 + 1 y_12_ ^ 2 - 2 y_39_ * y_12_ + 1 y_39_ ^ 2 ] <= 6544.8
quadratic_ranged_115_ub: [ 1 x_14_ ^ 2 - 2 x_39_ * x_14_ + 1 x_39_ ^ 2 + 1 y_14_ ^ 2 - 2 y_39_ * y_14_ + 1 y_39_ ^ 2 ] <= 13172.42
quadratic_ranged_116_ub: [ 1 x_17_ ^ 2 - 2 x_39_ * x_17_ + 1 x_39_ ^ 2 + 1 y_17_ ^ 2 - 2 y_39_ * y_17_ + 1 y_39_ ^ 2 ] <= 13271.4
quadratic_ranged_117_ub: [ 1 x_19_ ^ 2 - 2 x_39_ * x_19_ + 1 x_39_ ^ 2 + 1 y_19_ ^ 2 - 2 y_39_ * y_19_ + 1 y_39_ ^ 2 ] <= 26092.34
quadratic_ranged_118_ub: [ 1 x_36_ ^ 2 - 2 x_39_ * x_36_ + 1 x_39_ ^ 2 + 1 y_36_ ^ 2 - 2 y_39_ * y_36_ + 1 y_39_ ^ 2 ] <= 485.81
quadratic_ranged_119_ub: [ 1 x_38_ ^ 2 - 2 x_39_ * x_38_ + 1 x_39_ ^ 2 + 1 y_38_ ^ 2 - 2 y_39_ * y_38_ + 1 y_39_ ^ 2 ] <= 13917.8
quadratic_ranged_120_ub: [ 1 x_12_ ^ 2 - 2 x_40_ * x_12_ + 1 x_40_ ^ 2 + 1 y_12_ ^ 2 - 2 y_40_ * y_12_ + 1 y_40_ ^ 2 ] <= 20272.72
quadratic_ranged_121_ub: [ 1 x_32_ ^ 2 - 2 x_40_ * x_32_ + 1 x_40_ ^ 2 + 1 y_32_ ^ 2 - 2 y_40_ * y_32_ + 1 y_40_ ^ 2 ] <= 50049.54
quadratic_ranged_122_ub: [ 1 x_36_ ^ 2 - 2 x_40_ * x_36_ + 1 x_40_ ^ 2 + 1 y_36_ ^ 2 - 2 y_40_ * y_36_ + 1 y_40_ ^ 2 ] <= 23033.05
quadratic_ranged_123_ub: [ 1 x_39_ ^ 2 - 2 x_40_ * x_39_ + 1 x_40_ ^ 2 + 1 y_39_ ^ 2 - 2 y_40_ * y_39_ + 1 y_40_ ^ 2 ] <= 20854.48
quadratic_ranged_124_ub: [ 1 x_12_ ^ 2 - 2 x_41_ * x_12_ + 1 x_41_ ^ 2 + 1 y_12_ ^ 2 - 2 y_41_ * y_12_ + 1 y_41_ ^ 2 ] <= 4954.05
quadratic_ranged_125_ub: [ 1 x_27_ ^ 2 - 2 x_41_ * x_27_ + 1 x_41_ ^ 2 + 1 y_27_ ^ 2 - 2 y_41_ * y_27_ + 1 y_41_ ^ 2 ] <= 4965.16
quadratic_ranged_126_ub: [ 1 x_29_ ^ 2 - 2 x_41_ * x_29_ + 1 x_41_ ^ 2 + 1 y_29_ ^ 2 - 2 y_41_ * y_29_ + 1 y_41_ ^ 2 ] <= 7026.57
quadratic_ranged_127_ub: [ 1 x_31_ ^ 2 - 2 x_41_ * x_31_ + 1 x_41_ ^ 2 + 1 y_31_ ^ 2 - 2 y_41_ * y_31_ + 1 y_41_ ^ 2 ] <= 3931.93
quadratic_ranged_128_ub: [ 1 x_34_ ^ 2 - 2 x_41_ * x_34_ + 1 x_41_ ^ 2 + 1 y_34_ ^ 2 - 2 y_41_ * y_34_ + 1 y_41_ ^ 2 ] <= 15679.24
quadratic_ranged_129_ub: [ 1 x_40_ ^ 2 - 2 x_41_ * x_40_ + 1 x_41_ ^ 2 + 1 y_40_ ^ 2 - 2 y_41_ * y_40_ + 1 y_41_ ^ 2 ] <= 5192.41
quadratic_ranged_130_ub: [ 1 x_3_ ^ 2 - 2 x_42_ * x_3_ + 1 x_42_ ^ 2 + 1 y_3_ ^ 2 - 2 y_42_ * y_3_ + 1 y_42_ ^ 2 ] <= 885.77
quadratic_ranged_131_ub: [ 1 x_6_ ^ 2 - 2 x_42_ * x_6_ + 1 x_42_ ^ 2 + 1 y_6_ ^ 2 - 2 y_42_ * y_6_ + 1 y_42_ ^ 2 ] <= 10813.06
quadratic_ranged_132_ub: [ 1 x_18_ ^ 2 - 2 x_42_ * x_18_ + 1 x_42_ ^ 2 + 1 y_18_ ^ 2 - 2 y_42_ * y_18_ + 1 y_42_ ^ 2 ] <= 856.48
quadratic_ranged_133_ub: [ 1 x_30_ ^ 2 - 2 x_42_ * x_30_ + 1 x_42_ ^ 2 + 1 y_30_ ^ 2 - 2 y_42_ * y_30_ + 1 y_42_ ^ 2 ] <= 1868.5
quadratic_ranged_134_ub: [ 1 x_32_ ^ 2 - 2 x_42_ * x_32_ + 1 x_42_ ^ 2 + 1 y_32_ ^ 2 - 2 y_42_ * y_32_ + 1 y_42_ ^ 2 ] <= 16245.85
quadratic_ranged_135_ub: [ 1 x_41_ ^ 2 - 2 x_42_ * x_41_ + 1 x_42_ ^ 2 + 1 y_41_ ^ 2 - 2 y_42_ * y_41_ + 1 y_42_ ^ 2 ] <= 591.86
quadratic_ranged_136_ub: [ 1 x_17_ ^ 2 - 2 x_43_ * x_17_ + 1 x_43_ ^ 2 + 1 y_17_ ^ 2 - 2 y_43_ * y_17_ + 1 y_43_ ^ 2 ] <= 8913.25
quadratic_ranged_137_ub: [ 1 x_25_ ^ 2 - 2 x_43_ * x_25_ + 1 x_43_ ^ 2 + 1 y_25_ ^ 2 - 2 y_43_ * y_25_ + 1 y_43_ ^ 2 ] <= 380.77
quadratic_ranged_138_ub: [ 1 x_28_ ^ 2 - 2 x_43_ * x_28_ + 1 x_43_ ^ 2 + 1 y_28_ ^ 2 - 2 y_43_ * y_28_ + 1 y_43_ ^ 2 ] <= 39836.42
quadratic_ranged_139_ub: [ 1 x_29_ ^ 2 - 2 x_43_ * x_29_ + 1 x_43_ ^ 2 + 1 y_29_ ^ 2 - 2 y_43_ * y_29_ + 1 y_43_ ^ 2 ] <= 14791.45
quadratic_ranged_140_ub: [ 1 x_36_ ^ 2 - 2 x_43_ * x_36_ + 1 x_43_ ^ 2 + 1 y_36_ ^ 2 - 2 y_43_ * y_36_ + 1 y_43_ ^ 2 ] <= 12705.8
quadratic_ranged_141_ub: [ 1 x_42_ ^ 2 - 2 x_43_ * x_42_ + 1 x_43_ ^ 2 + 1 y_42_ ^ 2 - 2 y_43_ * y_42_ + 1 y_43_ ^ 2 ] <= 4074.34
quadratic_ranged_142_ub: [ 1 x_4_ ^ 2 - 2 x_44_ * x_4_ + 1 x_44_ ^ 2 + 1 y_4_ ^ 2 - 2 y_44_ * y_4_ + 1 y_44_ ^ 2 ] <= 36425.65
quadratic_ranged_143_ub: [ 1 x_7_ ^ 2 - 2 x_44_ * x_7_ + 1 x_44_ ^ 2 + 1 y_7_ ^ 2 - 2 y_44_ * y_7_ + 1 y_44_ ^ 2 ] <= 14338.97
quadratic_ranged_144_ub: [ 1 x_27_ ^ 2 - 2 x_44_ * x_27_ + 1 x_44_ ^ 2 + 1 y_27_ ^ 2 - 2 y_44_ * y_27_ + 1 y_44_ ^ 2 ] <= 28058.81
quadratic_ranged_145_ub: [ 1 x_28_ ^ 2 - 2 x_44_ * x_28_ + 1 x_44_ ^ 2 + 1 y_28_ ^ 2 - 2 y_44_ * y_28_ + 1 y_44_ ^ 2 ] <= 17647.73
quadratic_ranged_146_ub: [ 1 x_43_ ^ 2 - 2 x_44_ * x_43_ + 1 x_44_ ^ 2 + 1 y_43_ ^ 2 - 2 y_44_ * y_43_ + 1 y_44_ ^ 2 ] <= 13405.73
quadratic_ranged_147_ub: [ 1 x_19_ ^ 2 - 2 x_45_ * x_19_ + 1 x_45_ ^ 2 + 1 y_19_ ^ 2 - 2 y_45_ * y_19_ + 1 y_45_ ^ 2 ] <= 26383.22
quadratic_ranged_148_ub: [ 1 x_20_ ^ 2 - 2 x_45_ * x_20_ + 1 x_45_ ^ 2 + 1 y_20_ ^ 2 - 2 y_45_ * y_20_ + 1 y_45_ ^ 2 ] <= 42869.45
quadratic_ranged_149_ub: [ 1 x_44_ ^ 2 - 2 x_45_ * x_44_ + 1 x_45_ ^ 2 + 1 y_44_ ^ 2 - 2 y_45_ * y_44_ + 1 y_45_ ^ 2 ] <= 2676.5
quadratic_ranged_150_ub: [ 1 x_2_ ^ 2 - 2 x_46_ * x_2_ + 1 x_46_ ^ 2 + 1 y_2_ ^ 2 - 2 y_46_ * y_2_ + 1 y_46_ ^ 2 ] <= 13700.65
quadratic_ranged_151_ub: [ 1 x_11_ ^ 2 - 2 x_46_ * x_11_ + 1 x_46_ ^ 2 + 1 y_11_ ^ 2 - 2 y_46_ * y_11_ + 1 y_46_ ^ 2 ] <= 19490.98
quadratic_ranged_152_ub: [ 1 x_45_ ^ 2 - 2 x_46_ * x_45_ + 1 x_46_ ^ 2 + 1 y_45_ ^ 2 - 2 y_46_ * y_45_ + 1 y_46_ ^ 2 ] <= 7274.02
quadratic_ranged_153_ub: [ 1 x_16_ ^ 2 - 2 x_47_ * x_16_ + 1 x_47_ ^ 2 + 1 y_16_ ^ 2 - 2 y_47_ * y_16_ + 1 y_47_ ^ 2 ] <= 1536.21
quadratic_ranged_154_ub: [ 1 x_27_ ^ 2 - 2 x_47_ * x_27_ + 1 x_47_ ^ 2 + 1 y_27_ ^ 2 - 2 y_47_ * y_27_ + 1 y_47_ ^ 2 ] <= 38203.25
quadratic_ranged_155_ub: [ 1 x_41_ ^ 2 - 2 x_47_ * x_41_ + 1 x_47_ ^ 2 + 1 y_41_ ^ 2 - 2 y_47_ * y_41_ + 1 y_47_ ^ 2 ] <= 16072.130000000001
quadratic_ranged_156_ub: [ 1 x_43_ ^ 2 - 2 x_47_ * x_43_ + 1 x_47_ ^ 2 + 1 y_43_ ^ 2 - 2 y_47_ * y_43_ + 1 y_47_ ^ 2 ] <= 23913.77
quadratic_ranged_157_ub: [ 1 x_46_ ^ 2 - 2 x_47_ * x_46_ + 1 x_47_ ^ 2 + 1 y_46_ ^ 2 - 2 y_47_ * y_46_ + 1 y_47_ ^ 2 ] <= 147.46
quadratic_ranged_158_ub: [ 1 x_6_ ^ 2 - 2 x_48_ * x_6_ + 1 x_48_ ^ 2 + 1 y_6_ ^ 2 - 2 y_48_ * y_6_ + 1 y_48_ ^ 2 ] <= 3701.65
quadratic_ranged_159_ub: [ 1 x_26_ ^ 2 - 2 x_48_ * x_26_ + 1 x_48_ ^ 2 + 1 y_26_ ^ 2 - 2 y_48_ * y_26_ + 1 y_48_ ^ 2 ] <= 11761.45
quadratic_ranged_160_ub: [ 1 x_39_ ^ 2 - 2 x_48_ * x_39_ + 1 x_48_ ^ 2 + 1 y_39_ ^ 2 - 2 y_48_ * y_39_ + 1 y_48_ ^ 2 ] <= 16323.62
quadratic_ranged_161_ub: [ 1 x_41_ ^ 2 - 2 x_48_ * x_41_ + 1 x_48_ ^ 2 + 1 y_41_ ^ 2 - 2 y_48_ * y_41_ + 1 y_48_ ^ 2 ] <= 11830.13
quadratic_ranged_162_ub: [ 1 x_47_ ^ 2 - 2 x_48_ * x_47_ + 1 x_48_ ^ 2 + 1 y_47_ ^ 2 - 2 y_48_ * y_47_ + 1 y_48_ ^ 2 ] <= 10489.86
quadratic_ranged_163_ub: [ 1 x_3_ ^ 2 - 2 x_49_ * x_3_ + 1 x_49_ ^ 2 + 1 y_3_ ^ 2 - 2 y_49_ * y_3_ + 1 y_49_ ^ 2 ] <= 14311.7
quadratic_ranged_164_ub: [ 1 x_29_ ^ 2 - 2 x_49_ * x_29_ + 1 x_49_ ^ 2 + 1 y_29_ ^ 2 - 2 y_49_ * y_29_ + 1 y_49_ ^ 2 ] <= 14893.460000000001
quadratic_ranged_165_ub: [ 1 x_40_ ^ 2 - 2 x_49_ * x_40_ + 1 x_49_ ^ 2 + 1 y_40_ ^ 2 - 2 y_49_ * y_40_ + 1 y_49_ ^ 2 ] <= 18717.32
quadratic_ranged_166_ub: [ 1 x_48_ ^ 2 - 2 x_49_ * x_48_ + 1 x_49_ ^ 2 + 1 y_48_ ^ 2 - 2 y_49_ * y_48_ + 1 y_49_ ^ 2 ] <= 9552.58
quadratic_ranged_167_ub: [ 1 x_3_ ^ 2 - 2 x_50_ * x_3_ + 1 x_50_ ^ 2 + 1 y_3_ ^ 2 - 2 y_50_ * y_3_ + 1 y_50_ ^ 2 ] <= 19538.45
quadratic_ranged_168_ub: [ 1 x_17_ ^ 2 - 2 x_50_ * x_17_ + 1 x_50_ ^ 2 + 1 y_17_ ^ 2 - 2 y_50_ * y_17_ + 1 y_50_ ^ 2 ] <= 9357.65
quadratic_ranged_169_ub: [ 1 x_18_ ^ 2 - 2 x_50_ * x_18_ + 1 x_50_ ^ 2 + 1 y_18_ ^ 2 - 2 y_50_ * y_18_ + 1 y_50_ ^ 2 ] <= 27805.3
quadratic_ranged_170_ub: [ 1 x_19_ ^ 2 - 2 x_50_ * x_19_ + 1 x_50_ ^ 2 + 1 y_19_ ^ 2 - 2 y_50_ * y_19_ + 1 y_50_ ^ 2 ] <= 1419.05
quadratic_ranged_171_ub: [ 1 x_24_ ^ 2 - 2 x_50_ * x_24_ + 1 x_50_ ^ 2 + 1 y_24_ ^ 2 - 2 y_50_ * y_24_ + 1 y_50_ ^ 2 ] <= 1797.8
quadratic_ranged_172_ub: [ 1 x_26_ ^ 2 - 2 x_50_ * x_26_ + 1 x_50_ ^ 2 + 1 y_26_ ^ 2 - 2 y_50_ * y_26_ + 1 y_50_ ^ 2 ] <= 13980.42
quadratic_ranged_173_ub: [ 1 x_29_ ^ 2 - 2 x_50_ * x_29_ + 1 x_50_ ^ 2 + 1 y_29_ ^ 2 - 2 y_50_ * y_29_ + 1 y_50_ ^ 2 ] <= 14848.01
quadratic_ranged_174_ub: [ 1 x_41_ ^ 2 - 2 x_50_ * x_41_ + 1 x_50_ ^ 2 + 1 y_41_ ^ 2 - 2 y_50_ * y_41_ + 1 y_50_ ^ 2 ] <= 22741.16
quadratic_ranged_175_ub: [ 1 x_49_ ^ 2 - 2 x_50_ * x_49_ + 1 x_50_ ^ 2 + 1 y_49_ ^ 2 - 2 y_50_ * y_49_ + 1 y_50_ ^ 2 ] <= 5681.25
quadratic_ranged_176_ub: [ 1 x_24_ ^ 2 - 2 x_51_ * x_24_ + 1 x_51_ ^ 2 + 1 y_24_ ^ 2 - 2 y_51_ * y_24_ + 1 y_51_ ^ 2 ] <= 8836.49
quadratic_ranged_177_ub: [ 1 x_25_ ^ 2 - 2 x_51_ * x_25_ + 1 x_51_ ^ 2 + 1 y_25_ ^ 2 - 2 y_51_ * y_25_ + 1 y_51_ ^ 2 ] <= 21145.36
quadratic_ranged_178_ub: [ 1 x_39_ ^ 2 - 2 x_51_ * x_39_ + 1 x_51_ ^ 2 + 1 y_39_ ^ 2 - 2 y_51_ * y_39_ + 1 y_51_ ^ 2 ] <= 9324.32
quadratic_ranged_179_ub: [ 1 x_42_ ^ 2 - 2 x_51_ * x_42_ + 1 x_51_ ^ 2 + 1 y_42_ ^ 2 - 2 y_51_ * y_42_ + 1 y_51_ ^ 2 ] <= 7418.45
quadratic_ranged_180_ub: [ 1 x_49_ ^ 2 - 2 x_51_ * x_49_ + 1 x_51_ ^ 2 + 1 y_49_ ^ 2 - 2 y_51_ * y_49_ + 1 y_51_ ^ 2 ] <= 17925.48
quadratic_ranged_181_ub: [ 1 x_50_ ^ 2 - 2 x_51_ * x_50_ + 1 x_51_ ^ 2 + 1 y_50_ ^ 2 - 2 y_51_ * y_50_ + 1 y_51_ ^ 2 ] <= 13789.53
quadratic_ranged_182_ub: [ 1 x_1_ ^ 2 - 2 x_52_ * x_1_ + 1 x_52_ ^ 2 + 1 y_1_ ^ 2 - 2 y_52_ * y_1_ + 1 y_52_ ^ 2 ] <= 19232.420000000002
quadratic_ranged_183_ub: [ 1 x_17_ ^ 2 - 2 x_52_ * x_17_ + 1 x_52_ ^ 2 + 1 y_17_ ^ 2 - 2 y_52_ * y_17_ + 1 y_52_ ^ 2 ] <= 9903.05
quadratic_ranged_184_ub: [ 1 x_41_ ^ 2 - 2 x_52_ * x_41_ + 1 x_52_ ^ 2 + 1 y_41_ ^ 2 - 2 y_52_ * y_41_ + 1 y_52_ ^ 2 ] <= 2506.82
quadratic_ranged_185_ub: [ 1 x_51_ ^ 2 - 2 x_52_ * x_51_ + 1 x_52_ ^ 2 + 1 y_51_ ^ 2 - 2 y_52_ * y_51_ + 1 y_52_ ^ 2 ] <= 25570.170000000002
quadratic_ranged_186_ub: [ 1 x_2_ ^ 2 - 2 x_53_ * x_2_ + 1 x_53_ ^ 2 + 1 y_2_ ^ 2 - 2 y_53_ * y_2_ + 1 y_53_ ^ 2 ] <= 25144.96
quadratic_ranged_187_ub: [ 1 x_4_ ^ 2 - 2 x_53_ * x_4_ + 1 x_53_ ^ 2 + 1 y_4_ ^ 2 - 2 y_53_ * y_4_ + 1 y_53_ ^ 2 ] <= 12362.4
quadratic_ranged_188_ub: [ 1 x_8_ ^ 2 - 2 x_53_ * x_8_ + 1 x_53_ ^ 2 + 1 y_8_ ^ 2 - 2 y_53_ * y_8_ + 1 y_53_ ^ 2 ] <= 19103.14
quadratic_ranged_189_ub: [ 1 x_30_ ^ 2 - 2 x_53_ * x_30_ + 1 x_53_ ^ 2 + 1 y_30_ ^ 2 - 2 y_53_ * y_30_ + 1 y_53_ ^ 2 ] <= 6352.9
quadratic_ranged_190_ub: [ 1 x_33_ ^ 2 - 2 x_53_ * x_33_ + 1 x_53_ ^ 2 + 1 y_33_ ^ 2 - 2 y_53_ * y_33_ + 1 y_53_ ^ 2 ] <= 13761.25
quadratic_ranged_191_ub: [ 1 x_52_ ^ 2 - 2 x_53_ * x_52_ + 1 x_53_ ^ 2 + 1 y_52_ ^ 2 - 2 y_53_ * y_52_ + 1 y_53_ ^ 2 ] <= 36925.6
quadratic_ranged_192_ub: [ 1 x_5_ ^ 2 - 2 x_54_ * x_5_ + 1 x_54_ ^ 2 + 1 y_5_ ^ 2 - 2 y_54_ * y_5_ + 1 y_54_ ^ 2 ] <= 37232.64
quadratic_ranged_193_ub: [ 1 x_46_ ^ 2 - 2 x_54_ * x_46_ + 1 x_54_ ^ 2 + 1 y_46_ ^ 2 - 2 y_54_ * y_46_ + 1 y_54_ ^ 2 ] <= 17008.4
quadratic_ranged_194_ub: [ 1 x_49_ ^ 2 - 2 x_54_ * x_49_ + 1 x_54_ ^ 2 + 1 y_49_ ^ 2 - 2 y_54_ * y_49_ + 1 y_54_ ^ 2 ] <= 19038.5
quadratic_ranged_195_ub: [ 1 x_53_ ^ 2 - 2 x_54_ * x_53_ + 1 x_54_ ^ 2 + 1 y_53_ ^ 2 - 2 y_54_ * y_53_ + 1 y_54_ ^ 2 ] <= 30979.73
quadratic_ranged_196_ub: [ 1 x_20_ ^ 2 - 2 x_55_ * x_20_ + 1 x_55_ ^ 2 + 1 y_20_ ^ 2 - 2 y_55_ * y_20_ + 1 y_55_ ^ 2 ] <= 45782.29
quadratic_ranged_197_ub: [ 1 x_35_ ^ 2 - 2 x_55_ * x_35_ + 1 x_55_ ^ 2 + 1 y_35_ ^ 2 - 2 y_55_ * y_35_ + 1 y_55_ ^ 2 ] <= 30714.1
quadratic_ranged_198_ub: [ 1 x_54_ ^ 2 - 2 x_55_ * x_54_ + 1 x_55_ ^ 2 + 1 y_54_ ^ 2 - 2 y_55_ * y_54_ + 1 y_55_ ^ 2 ] <= 25025.78
quadratic_ranged_199_ub: [ 1 x_17_ ^ 2 - 2 x_56_ * x_17_ + 1 x_56_ ^ 2 + 1 y_17_ ^ 2 - 2 y_56_ * y_17_ + 1 y_56_ ^ 2 ] <= 3508.7400000000002
quadratic_ranged_200_ub: [ 1 x_29_ ^ 2 - 2 x_56_ * x_29_ + 1 x_56_ ^ 2 + 1 y_29_ ^ 2 - 2 y_56_ * y_29_ + 1 y_56_ ^ 2 ] <= 9780.84
quadratic_ranged_201_ub: [ 1 x_31_ ^ 2 - 2 x_56_ * x_31_ + 1 x_56_ ^ 2 + 1 y_31_ ^ 2 - 2 y_56_ * y_31_ + 1 y_56_ ^ 2 ] <= 16454.920000000002
quadratic_ranged_202_ub: [ 1 x_35_ ^ 2 - 2 x_56_ * x_35_ + 1 x_56_ ^ 2 + 1 y_35_ ^ 2 - 2 y_56_ * y_35_ + 1 y_56_ ^ 2 ] <= 11134.24
quadratic_ranged_203_ub: [ 1 x_38_ ^ 2 - 2 x_56_ * x_38_ + 1 x_56_ ^ 2 + 1 y_38_ ^ 2 - 2 y_56_ * y_38_ + 1 y_56_ ^ 2 ] <= 23934.98
quadratic_ranged_204_ub: [ 1 x_50_ ^ 2 - 2 x_56_ * x_50_ + 1 x_56_ ^ 2 + 1 y_50_ ^ 2 - 2 y_56_ * y_50_ + 1 y_56_ ^ 2 ] <= 1600.85
quadratic_ranged_205_ub: [ 1 x_53_ ^ 2 - 2 x_56_ * x_53_ + 1 x_56_ ^ 2 + 1 y_53_ ^ 2 - 2 y_56_ * y_53_ + 1 y_56_ ^ 2 ] <= 9507.13
quadratic_ranged_206_ub: [ 1 x_55_ ^ 2 - 2 x_56_ * x_55_ + 1 x_56_ ^ 2 + 1 y_55_ ^ 2 - 2 y_56_ * y_55_ + 1 y_56_ ^ 2 ] <= 22238.18
quadratic_ranged_207_ub: [ 1 x_20_ ^ 2 - 2 x_57_ * x_20_ + 1 x_57_ ^ 2 + 1 y_20_ ^ 2 - 2 y_57_ * y_20_ + 1 y_57_ ^ 2 ] <= 14434.92
quadratic_ranged_208_ub: [ 1 x_42_ ^ 2 - 2 x_57_ * x_42_ + 1 x_57_ ^ 2 + 1 y_42_ ^ 2 - 2 y_57_ * y_42_ + 1 y_57_ ^ 2 ] <= 6237.76
quadratic_ranged_209_ub: [ 1 x_56_ ^ 2 - 2 x_57_ * x_56_ + 1 x_57_ ^ 2 + 1 y_56_ ^ 2 - 2 y_57_ * y_56_ + 1 y_57_ ^ 2 ] <= 3031.01
quadratic_ranged_210_ub: [ 1 x_7_ ^ 2 - 2 x_58_ * x_7_ + 1 x_58_ ^ 2 + 1 y_7_ ^ 2 - 2 y_58_ * y_7_ + 1 y_58_ ^ 2 ] <= 8855.68
quadratic_ranged_211_ub: [ 1 x_42_ ^ 2 - 2 x_58_ * x_42_ + 1 x_58_ ^ 2 + 1 y_42_ ^ 2 - 2 y_58_ * y_42_ + 1 y_58_ ^ 2 ] <= 15806.5
quadratic_ranged_212_ub: [ 1 x_43_ ^ 2 - 2 x_58_ * x_43_ + 1 x_58_ ^ 2 + 1 y_43_ ^ 2 - 2 y_58_ * y_43_ + 1 y_58_ ^ 2 ] <= 32909.840000000004
quadratic_ranged_213_ub: [ 1 x_45_ ^ 2 - 2 x_58_ * x_45_ + 1 x_58_ ^ 2 + 1 y_45_ ^ 2 - 2 y_58_ * y_45_ + 1 y_58_ ^ 2 ] <= 32668.45
quadratic_ranged_214_ub: [ 1 x_50_ ^ 2 - 2 x_58_ * x_50_ + 1 x_58_ ^ 2 + 1 y_50_ ^ 2 - 2 y_58_ * y_50_ + 1 y_58_ ^ 2 ] <= 428.24
quadratic_ranged_215_ub: [ 1 x_52_ ^ 2 - 2 x_58_ * x_52_ + 1 x_58_ ^ 2 + 1 y_52_ ^ 2 - 2 y_58_ * y_52_ + 1 y_58_ ^ 2 ] <= 34406.66
quadratic_ranged_216_ub: [ 1 x_54_ ^ 2 - 2 x_58_ * x_54_ + 1 x_58_ ^ 2 + 1 y_54_ ^ 2 - 2 y_58_ * y_54_ + 1 y_58_ ^ 2 ] <= 32619.97
quadratic_ranged_217_ub: [ 1 x_57_ ^ 2 - 2 x_58_ * x_57_ + 1 x_58_ ^ 2 + 1 y_57_ ^ 2 - 2 y_58_ * y_57_ + 1 y_58_ ^ 2 ] <= 3056.26
quadratic_ranged_218_ub: [ 1 x_18_ ^ 2 - 2 x_59_ * x_18_ + 1 x_59_ ^ 2 + 1 y_18_ ^ 2 - 2 y_59_ * y_18_ + 1 y_59_ ^ 2 ] <= 41.410000000000004
quadratic_ranged_219_ub: [ 1 x_22_ ^ 2 - 2 x_59_ * x_22_ + 1 x_59_ ^ 2 + 1 y_22_ ^ 2 - 2 y_59_ * y_22_ + 1 y_59_ ^ 2 ] <= 7603.28
quadratic_ranged_220_ub: [ 1 x_26_ ^ 2 - 2 x_59_ * x_26_ + 1 x_59_ ^ 2 + 1 y_26_ ^ 2 - 2 y_59_ * y_26_ + 1 y_59_ ^ 2 ] <= 8008.29
quadratic_ranged_221_ub: [ 1 x_28_ ^ 2 - 2 x_59_ * x_28_ + 1 x_59_ ^ 2 + 1 y_28_ ^ 2 - 2 y_59_ * y_28_ + 1 y_59_ ^ 2 ] <= 22160.41
quadratic_ranged_222_ub: [ 1 x_33_ ^ 2 - 2 x_59_ * x_33_ + 1 x_59_ ^ 2 + 1 y_33_ ^ 2 - 2 y_59_ * y_33_ + 1 y_59_ ^ 2 ] <= 5431.78
quadratic_ranged_223_ub: [ 1 x_37_ ^ 2 - 2 x_59_ * x_37_ + 1 x_59_ ^ 2 + 1 y_37_ ^ 2 - 2 y_59_ * y_37_ + 1 y_59_ ^ 2 ] <= 20366.65
quadratic_ranged_224_ub: [ 1 x_45_ ^ 2 - 2 x_59_ * x_45_ + 1 x_59_ ^ 2 + 1 y_45_ ^ 2 - 2 y_59_ * y_45_ + 1 y_59_ ^ 2 ] <= 1100.9
quadratic_ranged_225_ub: [ 1 x_57_ ^ 2 - 2 x_59_ * x_57_ + 1 x_59_ ^ 2 + 1 y_57_ ^ 2 - 2 y_59_ * y_57_ + 1 y_59_ ^ 2 ] <= 10149.49
quadratic_ranged_226_ub: [ 1 x_58_ ^ 2 - 2 x_59_ * x_58_ + 1 x_59_ ^ 2 + 1 y_58_ ^ 2 - 2 y_59_ * y_58_ + 1 y_59_ ^ 2 ] <= 22750.25
quadratic_ranged_227_ub: [ 1 x_15_ ^ 2 - 2 x_60_ * x_15_ + 1 x_60_ ^ 2 + 1 y_15_ ^ 2 - 2 y_60_ * y_15_ + 1 y_60_ ^ 2 ] <= 23978.41
quadratic_ranged_228_ub: [ 1 x_16_ ^ 2 - 2 x_60_ * x_16_ + 1 x_60_ ^ 2 + 1 y_16_ ^ 2 - 2 y_60_ * y_16_ + 1 y_60_ ^ 2 ] <= 28850.65
quadratic_ranged_229_ub: [ 1 x_38_ ^ 2 - 2 x_60_ * x_38_ + 1 x_60_ ^ 2 + 1 y_38_ ^ 2 - 2 y_60_ * y_38_ + 1 y_60_ ^ 2 ] <= 1141.3
quadratic_ranged_230_ub: [ 1 x_59_ ^ 2 - 2 x_60_ * x_59_ + 1 x_60_ ^ 2 + 1 y_59_ ^ 2 - 2 y_60_ * y_59_ + 1 y_60_ ^ 2 ] <= 6161
quadratic_ranged_231_ub: [ 1 x_9_ ^ 2 - 2 x_61_ * x_9_ + 1 x_61_ ^ 2 + 1 y_9_ ^ 2 - 2 y_61_ * y_9_ + 1 y_61_ ^ 2 ] <= 8262.81
quadratic_ranged_232_ub: [ 1 x_10_ ^ 2 - 2 x_61_ * x_10_ + 1 x_61_ ^ 2 + 1 y_10_ ^ 2 - 2 y_61_ * y_10_ + 1 y_61_ ^ 2 ] <= 21432.2
quadratic_ranged_233_ub: [ 1 x_23_ ^ 2 - 2 x_61_ * x_23_ + 1 x_61_ ^ 2 + 1 y_23_ ^ 2 - 2 y_61_ * y_23_ + 1 y_61_ ^ 2 ] <= 17107.38
quadratic_ranged_234_ub: [ 1 x_24_ ^ 2 - 2 x_61_ * x_24_ + 1 x_61_ ^ 2 + 1 y_24_ ^ 2 - 2 y_61_ * y_24_ + 1 y_61_ ^ 2 ] <= 7115.45
quadratic_ranged_235_ub: [ 1 x_25_ ^ 2 - 2 x_61_ * x_25_ + 1 x_61_ ^ 2 + 1 y_25_ ^ 2 - 2 y_61_ * y_25_ + 1 y_61_ ^ 2 ] <= 16759.94
quadratic_ranged_236_ub: [ 1 x_36_ ^ 2 - 2 x_61_ * x_36_ + 1 x_61_ ^ 2 + 1 y_36_ ^ 2 - 2 y_61_ * y_36_ + 1 y_61_ ^ 2 ] <= 15134.85
quadratic_ranged_237_ub: [ 1 x_39_ ^ 2 - 2 x_61_ * x_39_ + 1 x_61_ ^ 2 + 1 y_39_ ^ 2 - 2 y_61_ * y_39_ + 1 y_61_ ^ 2 ] <= 10239.38
quadratic_ranged_238_ub: [ 1 x_52_ ^ 2 - 2 x_61_ * x_52_ + 1 x_61_ ^ 2 + 1 y_52_ ^ 2 - 2 y_61_ * y_52_ + 1 y_61_ ^ 2 ] <= 21033.25
quadratic_ranged_239_ub: [ 1 x_54_ ^ 2 - 2 x_61_ * x_54_ + 1 x_61_ ^ 2 + 1 y_54_ ^ 2 - 2 y_61_ * y_54_ + 1 y_61_ ^ 2 ] <= 16551.88
quadratic_ranged_240_ub: [ 1 x_60_ ^ 2 - 2 x_61_ * x_60_ + 1 x_61_ ^ 2 + 1 y_60_ ^ 2 - 2 y_61_ * y_60_ + 1 y_61_ ^ 2 ] <= 18818.32
quadratic_ranged_241_ub: [ 1 x_7_ ^ 2 - 2 x_62_ * x_7_ + 1 x_62_ ^ 2 + 1 y_7_ ^ 2 - 2 y_62_ * y_7_ + 1 y_62_ ^ 2 ] <= 9328.36
quadratic_ranged_242_ub: [ 1 x_19_ ^ 2 - 2 x_62_ * x_19_ + 1 x_62_ ^ 2 + 1 y_19_ ^ 2 - 2 y_62_ * y_19_ + 1 y_62_ ^ 2 ] <= 22099.81
quadratic_ranged_243_ub: [ 1 x_44_ ^ 2 - 2 x_62_ * x_44_ + 1 x_62_ ^ 2 + 1 y_44_ ^ 2 - 2 y_62_ * y_44_ + 1 y_62_ ^ 2 ] <= 1314.01
quadratic_ranged_244_ub: [ 1 x_53_ ^ 2 - 2 x_62_ * x_53_ + 1 x_62_ ^ 2 + 1 y_53_ ^ 2 - 2 y_62_ * y_53_ + 1 y_62_ ^ 2 ] <= 11281.7
quadratic_ranged_245_ub: [ 1 x_61_ ^ 2 - 2 x_62_ * x_61_ + 1 x_62_ ^ 2 + 1 y_61_ ^ 2 - 2 y_62_ * y_61_ + 1 y_62_ ^ 2 ] <= 7398.25
quadratic_ranged_246_ub: [ 1 x_11_ ^ 2 - 2 x_63_ * x_11_ + 1 x_63_ ^ 2 + 1 y_11_ ^ 2 - 2 y_63_ * y_11_ + 1 y_63_ ^ 2 ] <= 19780.85
quadratic_ranged_247_ub: [ 1 x_27_ ^ 2 - 2 x_63_ * x_27_ + 1 x_63_ ^ 2 + 1 y_27_ ^ 2 - 2 y_63_ * y_27_ + 1 y_63_ ^ 2 ] <= 34471.3
quadratic_ranged_248_ub: [ 1 x_28_ ^ 2 - 2 x_63_ * x_28_ + 1 x_63_ ^ 2 + 1 y_28_ ^ 2 - 2 y_63_ * y_28_ + 1 y_63_ ^ 2 ] <= 24017.8
quadratic_ranged_249_ub: [ 1 x_32_ ^ 2 - 2 x_63_ * x_32_ + 1 x_63_ ^ 2 + 1 y_32_ ^ 2 - 2 y_63_ * y_32_ + 1 y_63_ ^ 2 ] <= 15155.05
quadratic_ranged_250_ub: [ 1 x_35_ ^ 2 - 2 x_63_ * x_35_ + 1 x_63_ ^ 2 + 1 y_35_ ^ 2 - 2 y_63_ * y_35_ + 1 y_63_ ^ 2 ] <= 26220.61
quadratic_ranged_251_ub: [ 1 x_36_ ^ 2 - 2 x_63_ * x_36_ + 1 x_63_ ^ 2 + 1 y_36_ ^ 2 - 2 y_63_ * y_36_ + 1 y_63_ ^ 2 ] <= 349.46
quadratic_ranged_252_ub: [ 1 x_38_ ^ 2 - 2 x_63_ * x_38_ + 1 x_63_ ^ 2 + 1 y_38_ ^ 2 - 2 y_63_ * y_38_ + 1 y_63_ ^ 2 ] <= 19877.81
quadratic_ranged_253_ub: [ 1 x_62_ ^ 2 - 2 x_63_ * x_62_ + 1 x_63_ ^ 2 + 1 y_62_ ^ 2 - 2 y_63_ * y_62_ + 1 y_63_ ^ 2 ] <= 2353.3
quadratic_ranged_254_ub: [ 1 x_1_ ^ 2 - 2 x_64_ * x_1_ + 1 x_64_ ^ 2 + 1 y_1_ ^ 2 - 2 y_64_ * y_1_ + 1 y_64_ ^ 2 ] <= 8739.53
quadratic_ranged_255_ub: [ 1 x_18_ ^ 2 - 2 x_64_ * x_18_ + 1 x_64_ ^ 2 + 1 y_18_ ^ 2 - 2 y_64_ * y_18_ + 1 y_64_ ^ 2 ] <= 26766.010000000002
quadratic_ranged_256_ub: [ 1 x_33_ ^ 2 - 2 x_64_ * x_33_ + 1 x_64_ ^ 2 + 1 y_33_ ^ 2 - 2 y_64_ * y_33_ + 1 y_64_ ^ 2 ] <= 18151.72
quadratic_ranged_257_ub: [ 1 x_52_ ^ 2 - 2 x_64_ * x_52_ + 1 x_64_ ^ 2 + 1 y_52_ ^ 2 - 2 y_64_ * y_52_ + 1 y_64_ ^ 2 ] <= 47131.65
quadratic_ranged_258_ub: [ 1 x_57_ ^ 2 - 2 x_64_ * x_57_ + 1 x_64_ ^ 2 + 1 y_57_ ^ 2 - 2 y_64_ * y_57_ + 1 y_64_ ^ 2 ] <= 5580.25
quadratic_ranged_259_ub: [ 1 x_63_ ^ 2 - 2 x_64_ * x_63_ + 1 x_64_ ^ 2 + 1 y_63_ ^ 2 - 2 y_64_ * y_63_ + 1 y_64_ ^ 2 ] <= 27598.25
quadratic_ranged_260_ub: [ 1 x_3_ ^ 2 - 2 x_65_ * x_3_ + 1 x_65_ ^ 2 + 1 y_3_ ^ 2 - 2 y_65_ * y_3_ + 1 y_65_ ^ 2 ] <= 14982.34
quadratic_ranged_261_ub: [ 1 x_14_ ^ 2 - 2 x_65_ * x_14_ + 1 x_65_ ^ 2 + 1 y_14_ ^ 2 - 2 y_65_ * y_14_ + 1 y_65_ ^ 2 ] <= 17826.5
quadratic_ranged_262_ub: [ 1 x_19_ ^ 2 - 2 x_65_ * x_19_ + 1 x_65_ ^ 2 + 1 y_19_ ^ 2 - 2 y_65_ * y_19_ + 1 y_65_ ^ 2 ] <= 34156.18
quadratic_ranged_263_ub: [ 1 x_25_ ^ 2 - 2 x_65_ * x_25_ + 1 x_65_ ^ 2 + 1 y_25_ ^ 2 - 2 y_65_ * y_25_ + 1 y_65_ ^ 2 ] <= 1280.68
quadratic_ranged_264_ub: [ 1 x_37_ ^ 2 - 2 x_65_ * x_37_ + 1 x_65_ ^ 2 + 1 y_37_ ^ 2 - 2 y_65_ * y_37_ + 1 y_65_ ^ 2 ] <= 52351.33
quadratic_ranged_265_ub: [ 1 x_38_ ^ 2 - 2 x_65_ * x_38_ + 1 x_65_ ^ 2 + 1 y_38_ ^ 2 - 2 y_65_ * y_38_ + 1 y_65_ ^ 2 ] <= 686.8
quadratic_ranged_266_ub: [ 1 x_54_ ^ 2 - 2 x_65_ * x_54_ + 1 x_65_ ^ 2 + 1 y_54_ ^ 2 - 2 y_65_ * y_54_ + 1 y_65_ ^ 2 ] <= 2862.34
quadratic_ranged_267_ub: [ 1 x_56_ ^ 2 - 2 x_65_ * x_56_ + 1 x_65_ ^ 2 + 1 y_56_ ^ 2 - 2 y_65_ * y_56_ + 1 y_65_ ^ 2 ] <= 26132.74
quadratic_ranged_268_ub: [ 1 x_59_ ^ 2 - 2 x_65_ * x_59_ + 1 x_65_ ^ 2 + 1 y_59_ ^ 2 - 2 y_65_ * y_59_ + 1 y_65_ ^ 2 ] <= 8881.94
quadratic_ranged_269_ub: [ 1 x_64_ ^ 2 - 2 x_65_ * x_64_ + 1 x_65_ ^ 2 + 1 y_64_ ^ 2 - 2 y_65_ * y_64_ + 1 y_65_ ^ 2 ] <= 55865.12
quadratic_ranged_270_ub: [ 1 x_1_ ^ 2 - 2 x_66_ * x_1_ + 1 x_66_ ^ 2 + 1 y_1_ ^ 2 - 2 y_66_ * y_1_ + 1 y_66_ ^ 2 ] <= 4292.5
quadratic_ranged_271_ub: [ 1 x_3_ ^ 2 - 2 x_66_ * x_3_ + 1 x_66_ ^ 2 + 1 y_3_ ^ 2 - 2 y_66_ * y_3_ + 1 y_66_ ^ 2 ] <= 1047.3700000000001
quadratic_ranged_272_ub: [ 1 x_11_ ^ 2 - 2 x_66_ * x_11_ + 1 x_66_ ^ 2 + 1 y_11_ ^ 2 - 2 y_66_ * y_11_ + 1 y_66_ ^ 2 ] <= 10779.73
quadratic_ranged_273_ub: [ 1 x_19_ ^ 2 - 2 x_66_ * x_19_ + 1 x_66_ ^ 2 + 1 y_19_ ^ 2 - 2 y_66_ * y_19_ + 1 y_66_ ^ 2 ] <= 7879.01
quadratic_ranged_274_ub: [ 1 x_30_ ^ 2 - 2 x_66_ * x_30_ + 1 x_66_ ^ 2 + 1 y_30_ ^ 2 - 2 y_66_ * y_30_ + 1 y_66_ ^ 2 ] <= 220.18
quadratic_ranged_275_ub: [ 1 x_40_ ^ 2 - 2 x_66_ * x_40_ + 1 x_66_ ^ 2 + 1 y_40_ ^ 2 - 2 y_66_ * y_40_ + 1 y_66_ ^ 2 ] <= 23768.33
quadratic_ranged_276_ub: [ 1 x_43_ ^ 2 - 2 x_66_ * x_43_ + 1 x_66_ ^ 2 + 1 y_43_ ^ 2 - 2 y_66_ * y_43_ + 1 y_66_ ^ 2 ] <= 14255.14
quadratic_ranged_277_ub: [ 1 x_44_ ^ 2 - 2 x_66_ * x_44_ + 1 x_66_ ^ 2 + 1 y_44_ ^ 2 - 2 y_66_ * y_44_ + 1 y_66_ ^ 2 ] <= 4247.05
quadratic_ranged_278_ub: [ 1 x_58_ ^ 2 - 2 x_66_ * x_58_ + 1 x_66_ ^ 2 + 1 y_58_ ^ 2 - 2 y_66_ * y_58_ + 1 y_66_ ^ 2 ] <= 11572.58
quadratic_ranged_279_ub: [ 1 x_64_ ^ 2 - 2 x_66_ * x_64_ + 1 x_66_ ^ 2 + 1 y_64_ ^ 2 - 2 y_66_ * y_64_ + 1 y_66_ ^ 2 ] <= 8464.81
quadratic_ranged_280_ub: [ 1 x_65_ ^ 2 - 2 x_66_ * x_65_ + 1 x_66_ ^ 2 + 1 y_65_ ^ 2 - 2 y_66_ * y_65_ + 1 y_66_ ^ 2 ] <= 23396.65
quadratic_ranged_281_ub: [ 1 x_15_ ^ 2 - 2 x_67_ * x_15_ + 1 x_67_ ^ 2 + 1 y_15_ ^ 2 - 2 y_67_ * y_15_ + 1 y_67_ ^ 2 ] <= 32567.45
quadratic_ranged_282_ub: [ 1 x_18_ ^ 2 - 2 x_67_ * x_18_ + 1 x_67_ ^ 2 + 1 y_18_ ^ 2 - 2 y_67_ * y_18_ + 1 y_67_ ^ 2 ] <= 15821.65
quadratic_ranged_283_ub: [ 1 x_26_ ^ 2 - 2 x_67_ * x_26_ + 1 x_67_ ^ 2 + 1 y_26_ ^ 2 - 2 y_67_ * y_26_ + 1 y_67_ ^ 2 ] <= 26842.77
quadratic_ranged_284_ub: [ 1 x_28_ ^ 2 - 2 x_67_ * x_28_ + 1 x_67_ ^ 2 + 1 y_28_ ^ 2 - 2 y_67_ * y_28_ + 1 y_67_ ^ 2 ] <= 2307.85
quadratic_ranged_285_ub: [ 1 x_39_ ^ 2 - 2 x_67_ * x_39_ + 1 x_67_ ^ 2 + 1 y_39_ ^ 2 - 2 y_67_ * y_39_ + 1 y_67_ ^ 2 ] <= 10748.42
quadratic_ranged_286_ub: [ 1 x_66_ ^ 2 - 2 x_67_ * x_66_ + 1 x_67_ ^ 2 + 1 y_66_ ^ 2 - 2 y_67_ * y_66_ + 1 y_67_ ^ 2 ] <= 3216.85
quadratic_ranged_287_ub: [ 1 x_10_ ^ 2 - 2 x_68_ * x_10_ + 1 x_68_ ^ 2 + 1 y_10_ ^ 2 - 2 y_68_ * y_10_ + 1 y_68_ ^ 2 ] <= 514.09
quadratic_ranged_288_ub: [ 1 x_27_ ^ 2 - 2 x_68_ * x_27_ + 1 x_68_ ^ 2 + 1 y_27_ ^ 2 - 2 y_68_ * y_27_ + 1 y_68_ ^ 2 ] <= 1270.58
quadratic_ranged_289_ub: [ 1 x_35_ ^ 2 - 2 x_68_ * x_35_ + 1 x_68_ ^ 2 + 1 y_35_ ^ 2 - 2 y_68_ * y_35_ + 1 y_68_ ^ 2 ] <= 453.49
quadratic_ranged_290_ub: [ 1 x_45_ ^ 2 - 2 x_68_ * x_45_ + 1 x_68_ ^ 2 + 1 y_45_ ^ 2 - 2 y_68_ * y_45_ + 1 y_68_ ^ 2 ] <= 8557.73
quadratic_ranged_291_ub: [ 1 x_67_ ^ 2 - 2 x_68_ * x_67_ + 1 x_68_ ^ 2 + 1 y_67_ ^ 2 - 2 y_68_ * y_67_ + 1 y_68_ ^ 2 ] <= 30769.65
quadratic_ranged_292_ub: [ 1 x_2_ ^ 2 - 2 x_69_ * x_2_ + 1 x_69_ ^ 2 + 1 y_2_ ^ 2 - 2 y_69_ * y_2_ + 1 y_69_ ^ 2 ] <= 17584.1
quadratic_ranged_293_ub: [ 1 x_5_ ^ 2 - 2 x_69_ * x_5_ + 1 x_69_ ^ 2 + 1 y_5_ ^ 2 - 2 y_69_ * y_5_ + 1 y_69_ ^ 2 ] <= 6460.97
quadratic_ranged_294_ub: [ 1 x_20_ ^ 2 - 2 x_69_ * x_20_ + 1 x_69_ ^ 2 + 1 y_20_ ^ 2 - 2 y_69_ * y_20_ + 1 y_69_ ^ 2 ] <= 1464.5
quadratic_ranged_295_ub: [ 1 x_22_ ^ 2 - 2 x_69_ * x_22_ + 1 x_69_ ^ 2 + 1 y_22_ ^ 2 - 2 y_69_ * y_22_ + 1 y_69_ ^ 2 ] <= 3156.25
quadratic_ranged_296_ub: [ 1 x_24_ ^ 2 - 2 x_69_ * x_24_ + 1 x_69_ ^ 2 + 1 y_24_ ^ 2 - 2 y_69_ * y_24_ + 1 y_69_ ^ 2 ] <= 12560.36
quadratic_ranged_297_ub: [ 1 x_30_ ^ 2 - 2 x_69_ * x_30_ + 1 x_69_ ^ 2 + 1 y_30_ ^ 2 - 2 y_69_ * y_30_ + 1 y_69_ ^ 2 ] <= 15166.16
quadratic_ranged_298_ub: [ 1 x_68_ ^ 2 - 2 x_69_ * x_68_ + 1 x_69_ ^ 2 + 1 y_68_ ^ 2 - 2 y_69_ * y_68_ + 1 y_69_ ^ 2 ] <= 11079.7
quadratic_ranged_299_ub: [ 1 x_2_ ^ 2 - 2 x_70_ * x_2_ + 1 x_70_ ^ 2 + 1 y_2_ ^ 2 - 2 y_70_ * y_2_ + 1 y_70_ ^ 2 ] <= 12173.53
quadratic_ranged_300_ub: [ 1 x_42_ ^ 2 - 2 x_70_ * x_42_ + 1 x_70_ ^ 2 + 1 y_42_ ^ 2 - 2 y_70_ * y_42_ + 1 y_70_ ^ 2 ] <= 8000.21
quadratic_ranged_301_ub: [ 1 x_43_ ^ 2 - 2 x_70_ * x_43_ + 1 x_70_ ^ 2 + 1 y_43_ ^ 2 - 2 y_70_ * y_43_ + 1 y_70_ ^ 2 ] <= 18366.85
quadratic_ranged_302_ub: [ 1 x_54_ ^ 2 - 2 x_70_ * x_54_ + 1 x_70_ ^ 2 + 1 y_54_ ^ 2 - 2 y_70_ * y_54_ + 1 y_70_ ^ 2 ] <= 15166.16
quadratic_ranged_303_ub: [ 1 x_69_ ^ 2 - 2 x_70_ * x_69_ + 1 x_70_ ^ 2 + 1 y_69_ ^ 2 - 2 y_70_ * y_69_ + 1 y_70_ ^ 2 ] <= 33468.37
quadratic_ranged_304_ub: [ 1 x_27_ ^ 2 - 2 x_71_ * x_27_ + 1 x_71_ ^ 2 + 1 y_27_ ^ 2 - 2 y_71_ * y_27_ + 1 y_71_ ^ 2 ] <= 449.45
quadratic_ranged_305_ub: [ 1 x_37_ ^ 2 - 2 x_71_ * x_37_ + 1 x_71_ ^ 2 + 1 y_37_ ^ 2 - 2 y_71_ * y_37_ + 1 y_71_ ^ 2 ] <= 42764.41
quadratic_ranged_306_ub: [ 1 x_68_ ^ 2 - 2 x_71_ * x_68_ + 1 x_71_ ^ 2 + 1 y_68_ ^ 2 - 2 y_71_ * y_68_ + 1 y_71_ ^ 2 ] <= 2404.81
quadratic_ranged_307_ub: [ 1 x_69_ ^ 2 - 2 x_71_ * x_69_ + 1 x_71_ ^ 2 + 1 y_69_ ^ 2 - 2 y_71_ * y_69_ + 1 y_71_ ^ 2 ] <= 5067.17
quadratic_ranged_308_ub: [ 1 x_70_ ^ 2 - 2 x_71_ * x_70_ + 1 x_71_ ^ 2 + 1 y_70_ ^ 2 - 2 y_71_ * y_70_ + 1 y_71_ ^ 2 ] <= 32825
quadratic_ranged_309_ub: [ 1 x_3_ ^ 2 - 2 x_72_ * x_3_ + 1 x_72_ ^ 2 + 1 y_3_ ^ 2 - 2 y_72_ * y_3_ + 1 y_72_ ^ 2 ] <= 2231.09
quadratic_ranged_310_ub: [ 1 x_12_ ^ 2 - 2 x_72_ * x_12_ + 1 x_72_ ^ 2 + 1 y_12_ ^ 2 - 2 y_72_ * y_12_ + 1 y_72_ ^ 2 ] <= 2691.65
quadratic_ranged_311_ub: [ 1 x_15_ ^ 2 - 2 x_72_ * x_15_ + 1 x_72_ ^ 2 + 1 y_15_ ^ 2 - 2 y_72_ * y_15_ + 1 y_72_ ^ 2 ] <= 36073.16
quadratic_ranged_312_ub: [ 1 x_17_ ^ 2 - 2 x_72_ * x_17_ + 1 x_72_ ^ 2 + 1 y_17_ ^ 2 - 2 y_72_ * y_17_ + 1 y_72_ ^ 2 ] <= 9648.53
quadratic_ranged_313_ub: [ 1 x_36_ ^ 2 - 2 x_72_ * x_36_ + 1 x_72_ ^ 2 + 1 y_36_ ^ 2 - 2 y_72_ * y_36_ + 1 y_72_ ^ 2 ] <= 4268.26
quadratic_ranged_314_ub: [ 1 x_39_ ^ 2 - 2 x_72_ * x_39_ + 1 x_72_ ^ 2 + 1 y_39_ ^ 2 - 2 y_72_ * y_39_ + 1 y_72_ ^ 2 ] <= 2109.89
quadratic_ranged_315_ub: [ 1 x_71_ ^ 2 - 2 x_72_ * x_71_ + 1 x_72_ ^ 2 + 1 y_71_ ^ 2 - 2 y_72_ * y_71_ + 1 y_72_ ^ 2 ] <= 28184.05
quadratic_ranged_316_ub: [ 1 x_10_ ^ 2 - 2 x_73_ * x_10_ + 1 x_73_ ^ 2 + 1 y_10_ ^ 2 - 2 y_73_ * y_10_ + 1 y_73_ ^ 2 ] <= 23248.18
quadratic_ranged_317_ub: [ 1 x_17_ ^ 2 - 2 x_73_ * x_17_ + 1 x_73_ ^ 2 + 1 y_17_ ^ 2 - 2 y_73_ * y_17_ + 1 y_73_ ^ 2 ] <= 7966.88
quadratic_ranged_318_ub: [ 1 x_31_ ^ 2 - 2 x_73_ * x_31_ + 1 x_73_ ^ 2 + 1 y_31_ ^ 2 - 2 y_73_ * y_31_ + 1 y_73_ ^ 2 ] <= 2086.66
quadratic_ranged_319_ub: [ 1 x_40_ ^ 2 - 2 x_73_ * x_40_ + 1 x_73_ ^ 2 + 1 y_40_ ^ 2 - 2 y_73_ * y_40_ + 1 y_73_ ^ 2 ] <= 29350.6
quadratic_ranged_320_ub: [ 1 x_42_ ^ 2 - 2 x_73_ * x_42_ + 1 x_73_ ^ 2 + 1 y_42_ ^ 2 - 2 y_73_ * y_42_ + 1 y_73_ ^ 2 ] <= 5972.13
quadratic_ranged_321_ub: [ 1 x_54_ ^ 2 - 2 x_73_ * x_54_ + 1 x_73_ ^ 2 + 1 y_54_ ^ 2 - 2 y_73_ * y_54_ + 1 y_73_ ^ 2 ] <= 15362.1
quadratic_ranged_322_ub: [ 1 x_70_ ^ 2 - 2 x_73_ * x_70_ + 1 x_73_ ^ 2 + 1 y_70_ ^ 2 - 2 y_73_ * y_70_ + 1 y_73_ ^ 2 ] <= 1028.18
quadratic_ranged_323_ub: [ 1 x_72_ ^ 2 - 2 x_73_ * x_72_ + 1 x_73_ ^ 2 + 1 y_72_ ^ 2 - 2 y_73_ * y_72_ + 1 y_73_ ^ 2 ] <= 461.57
quadratic_ranged_324_ub: [ 1 x_3_ ^ 2 - 2 x_74_ * x_3_ + 1 x_74_ ^ 2 + 1 y_3_ ^ 2 - 2 y_74_ * y_3_ + 1 y_74_ ^ 2 ] <= 11862.45
quadratic_ranged_325_ub: [ 1 x_17_ ^ 2 - 2 x_74_ * x_17_ + 1 x_74_ ^ 2 + 1 y_17_ ^ 2 - 2 y_74_ * y_17_ + 1 y_74_ ^ 2 ] <= 2845.17
quadratic_ranged_326_ub: [ 1 x_22_ ^ 2 - 2 x_74_ * x_22_ + 1 x_74_ ^ 2 + 1 y_22_ ^ 2 - 2 y_74_ * y_22_ + 1 y_74_ ^ 2 ] <= 1318.05
quadratic_ranged_327_ub: [ 1 x_36_ ^ 2 - 2 x_74_ * x_36_ + 1 x_74_ ^ 2 + 1 y_36_ ^ 2 - 2 y_74_ * y_36_ + 1 y_74_ ^ 2 ] <= 35764.1
quadratic_ranged_328_ub: [ 1 x_37_ ^ 2 - 2 x_74_ * x_37_ + 1 x_74_ ^ 2 + 1 y_37_ ^ 2 - 2 y_74_ * y_37_ + 1 y_74_ ^ 2 ] <= 23151.22
quadratic_ranged_329_ub: [ 1 x_73_ ^ 2 - 2 x_74_ * x_73_ + 1 x_74_ ^ 2 + 1 y_73_ ^ 2 - 2 y_74_ * y_73_ + 1 y_74_ ^ 2 ] <= 18156.77
quadratic_ranged_330_ub: [ 1 x_4_ ^ 2 - 2 x_75_ * x_4_ + 1 x_75_ ^ 2 + 1 y_4_ ^ 2 - 2 y_75_ * y_4_ + 1 y_75_ ^ 2 ] <= 7506.32
quadratic_ranged_331_ub: [ 1 x_15_ ^ 2 - 2 x_75_ * x_15_ + 1 x_75_ ^ 2 + 1 y_15_ ^ 2 - 2 y_75_ * y_15_ + 1 y_75_ ^ 2 ] <= 13130
quadratic_ranged_332_ub: [ 1 x_32_ ^ 2 - 2 x_75_ * x_32_ + 1 x_75_ ^ 2 + 1 y_32_ ^ 2 - 2 y_75_ * y_32_ + 1 y_75_ ^ 2 ] <= 6460.97
quadratic_ranged_333_ub: [ 1 x_40_ ^ 2 - 2 x_75_ * x_40_ + 1 x_75_ ^ 2 + 1 y_40_ ^ 2 - 2 y_75_ * y_40_ + 1 y_75_ ^ 2 ] <= 50141.45
quadratic_ranged_334_ub: [ 1 x_45_ ^ 2 - 2 x_75_ * x_45_ + 1 x_75_ ^ 2 + 1 y_45_ ^ 2 - 2 y_75_ * y_45_ + 1 y_75_ ^ 2 ] <= 32506.85
quadratic_ranged_335_ub: [ 1 x_47_ ^ 2 - 2 x_75_ * x_47_ + 1 x_75_ ^ 2 + 1 y_47_ ^ 2 - 2 y_75_ * y_47_ + 1 y_75_ ^ 2 ] <= 16993.25
quadratic_ranged_336_ub: [ 1 x_63_ ^ 2 - 2 x_75_ * x_63_ + 1 x_75_ ^ 2 + 1 y_63_ ^ 2 - 2 y_75_ * y_63_ + 1 y_75_ ^ 2 ] <= 33612.8
quadratic_ranged_337_ub: [ 1 x_71_ ^ 2 - 2 x_75_ * x_71_ + 1 x_75_ ^ 2 + 1 y_71_ ^ 2 - 2 y_75_ * y_71_ + 1 y_75_ ^ 2 ] <= 32470.49
quadratic_ranged_338_ub: [ 1 x_74_ ^ 2 - 2 x_75_ * x_74_ + 1 x_75_ ^ 2 + 1 y_74_ ^ 2 - 2 y_75_ * y_74_ + 1 y_75_ ^ 2 ] <= 11833.16
quadratic_ranged_339_ub: [ 1 x_13_ ^ 2 - 2 x_76_ * x_13_ + 1 x_76_ ^ 2 + 1 y_13_ ^ 2 - 2 y_76_ * y_13_ + 1 y_76_ ^ 2 ] <= 2526.01
quadratic_ranged_340_ub: [ 1 x_21_ ^ 2 - 2 x_76_ * x_21_ + 1 x_76_ ^ 2 + 1 y_21_ ^ 2 - 2 y_76_ * y_21_ + 1 y_76_ ^ 2 ] <= 18524.41
quadratic_ranged_341_ub: [ 1 x_46_ ^ 2 - 2 x_76_ * x_46_ + 1 x_76_ ^ 2 + 1 y_46_ ^ 2 - 2 y_76_ * y_46_ + 1 y_76_ ^ 2 ] <= 15911.54
quadratic_ranged_342_ub: [ 1 x_56_ ^ 2 - 2 x_76_ * x_56_ + 1 x_76_ ^ 2 + 1 y_56_ ^ 2 - 2 y_76_ * y_56_ + 1 y_76_ ^ 2 ] <= 4009.7
quadratic_ranged_343_ub: [ 1 x_64_ ^ 2 - 2 x_76_ * x_64_ + 1 x_76_ ^ 2 + 1 y_64_ ^ 2 - 2 y_76_ * y_64_ + 1 y_76_ ^ 2 ] <= 19796
quadratic_ranged_344_ub: [ 1 x_69_ ^ 2 - 2 x_76_ * x_69_ + 1 x_76_ ^ 2 + 1 y_69_ ^ 2 - 2 y_76_ * y_69_ + 1 y_76_ ^ 2 ] <= 4182.41
quadratic_ranged_345_ub: [ 1 x_73_ ^ 2 - 2 x_76_ * x_73_ + 1 x_76_ ^ 2 + 1 y_73_ ^ 2 - 2 y_76_ * y_73_ + 1 y_76_ ^ 2 ] <= 10544.4
quadratic_ranged_346_ub: [ 1 x_75_ ^ 2 - 2 x_76_ * x_75_ + 1 x_76_ ^ 2 + 1 y_75_ ^ 2 - 2 y_76_ * y_75_ + 1 y_76_ ^ 2 ] <= 14646.01
quadratic_ranged_347_ub: [ 1 x_1_ ^ 2 - 2 x_77_ * x_1_ + 1 x_77_ ^ 2 + 1 y_1_ ^ 2 - 2 y_77_ * y_1_ + 1 y_77_ ^ 2 ] <= 9996.98
quadratic_ranged_348_ub: [ 1 x_12_ ^ 2 - 2 x_77_ * x_12_ + 1 x_77_ ^ 2 + 1 y_12_ ^ 2 - 2 y_77_ * y_12_ + 1 y_77_ ^ 2 ] <= 2400.77
quadratic_ranged_349_ub: [ 1 x_18_ ^ 2 - 2 x_77_ * x_18_ + 1 x_77_ ^ 2 + 1 y_18_ ^ 2 - 2 y_77_ * y_18_ + 1 y_77_ ^ 2 ] <= 6286.24
quadratic_ranged_350_ub: [ 1 x_20_ ^ 2 - 2 x_77_ * x_20_ + 1 x_77_ ^ 2 + 1 y_20_ ^ 2 - 2 y_77_ * y_20_ + 1 y_77_ ^ 2 ] <= 39289
quadratic_ranged_351_ub: [ 1 x_24_ ^ 2 - 2 x_77_ * x_24_ + 1 x_77_ ^ 2 + 1 y_24_ ^ 2 - 2 y_77_ * y_24_ + 1 y_77_ ^ 2 ] <= 19571.78
quadratic_ranged_352_ub: [ 1 x_27_ ^ 2 - 2 x_77_ * x_27_ + 1 x_77_ ^ 2 + 1 y_27_ ^ 2 - 2 y_77_ * y_27_ + 1 y_77_ ^ 2 ] <= 28031.54
quadratic_ranged_353_ub: [ 1 x_31_ ^ 2 - 2 x_77_ * x_31_ + 1 x_77_ ^ 2 + 1 y_31_ ^ 2 - 2 y_77_ * y_31_ + 1 y_77_ ^ 2 ] <= 1503.89
quadratic_ranged_354_ub: [ 1 x_35_ ^ 2 - 2 x_77_ * x_35_ + 1 x_77_ ^ 2 + 1 y_35_ ^ 2 - 2 y_77_ * y_35_ + 1 y_77_ ^ 2 ] <= 19772.77
quadratic_ranged_355_ub: [ 1 x_46_ ^ 2 - 2 x_77_ * x_46_ + 1 x_77_ ^ 2 + 1 y_46_ ^ 2 - 2 y_77_ * y_46_ + 1 y_77_ ^ 2 ] <= 308.05
quadratic_ranged_356_ub: [ 1 x_55_ ^ 2 - 2 x_77_ * x_55_ + 1 x_77_ ^ 2 + 1 y_55_ ^ 2 - 2 y_77_ * y_55_ + 1 y_77_ ^ 2 ] <= 1645.29
quadratic_ranged_357_ub: [ 1 x_70_ ^ 2 - 2 x_77_ * x_70_ + 1 x_77_ ^ 2 + 1 y_70_ ^ 2 - 2 y_77_ * y_70_ + 1 y_77_ ^ 2 ] <= 316.13
quadratic_ranged_358_ub: [ 1 x_76_ ^ 2 - 2 x_77_ * x_76_ + 1 x_77_ ^ 2 + 1 y_76_ ^ 2 - 2 y_77_ * y_76_ + 1 y_77_ ^ 2 ] <= 11793.77
quadratic_ranged_359_ub: [ 1 x_7_ ^ 2 - 2 x_78_ * x_7_ + 1 x_78_ ^ 2 + 1 y_7_ ^ 2 - 2 y_78_ * y_7_ + 1 y_78_ ^ 2 ] <= 11039.3
quadratic_ranged_360_ub: [ 1 x_26_ ^ 2 - 2 x_78_ * x_26_ + 1 x_78_ ^ 2 + 1 y_26_ ^ 2 - 2 y_78_ * y_26_ + 1 y_78_ ^ 2 ] <= 12140.2
quadratic_ranged_361_ub: [ 1 x_39_ ^ 2 - 2 x_78_ * x_39_ + 1 x_78_ ^ 2 + 1 y_39_ ^ 2 - 2 y_78_ * y_39_ + 1 y_78_ ^ 2 ] <= 1819.01
quadratic_ranged_362_ub: [ 1 x_56_ ^ 2 - 2 x_78_ * x_56_ + 1 x_78_ ^ 2 + 1 y_56_ ^ 2 - 2 y_78_ * y_56_ + 1 y_78_ ^ 2 ] <= 15781.25
quadratic_ranged_363_ub: [ 1 x_57_ ^ 2 - 2 x_78_ * x_57_ + 1 x_78_ ^ 2 + 1 y_57_ ^ 2 - 2 y_78_ * y_57_ + 1 y_78_ ^ 2 ] <= 7045.76
quadratic_ranged_364_ub: [ 1 x_60_ ^ 2 - 2 x_78_ * x_60_ + 1 x_78_ ^ 2 + 1 y_60_ ^ 2 - 2 y_78_ * y_60_ + 1 y_78_ ^ 2 ] <= 12581.57
quadratic_ranged_365_ub: [ 1 x_72_ ^ 2 - 2 x_78_ * x_72_ + 1 x_78_ ^ 2 + 1 y_72_ ^ 2 - 2 y_78_ * y_72_ + 1 y_78_ ^ 2 ] <= 1135.24
quadratic_ranged_366_ub: [ 1 x_77_ ^ 2 - 2 x_78_ * x_77_ + 1 x_78_ ^ 2 + 1 y_77_ ^ 2 - 2 y_78_ * y_77_ + 1 y_78_ ^ 2 ] <= 1292.8
quadratic_ranged_367_ub: [ 1 x_3_ ^ 2 - 2 x_79_ * x_3_ + 1 x_79_ ^ 2 + 1 y_3_ ^ 2 - 2 y_79_ * y_3_ + 1 y_79_ ^ 2 ] <= 5992.33
quadratic_ranged_368_ub: [ 1 x_6_ ^ 2 - 2 x_79_ * x_6_ + 1 x_79_ ^ 2 + 1 y_6_ ^ 2 - 2 y_79_ * y_6_ + 1 y_79_ ^ 2 ] <= 9122.32
quadratic_ranged_369_ub: [ 1 x_7_ ^ 2 - 2 x_79_ * x_7_ + 1 x_79_ ^ 2 + 1 y_7_ ^ 2 - 2 y_79_ * y_7_ + 1 y_79_ ^ 2 ] <= 8952.64
quadratic_ranged_370_ub: [ 1 x_9_ ^ 2 - 2 x_79_ * x_9_ + 1 x_79_ ^ 2 + 1 y_9_ ^ 2 - 2 y_79_ * y_9_ + 1 y_79_ ^ 2 ] <= 14651.06
quadratic_ranged_371_ub: [ 1 x_14_ ^ 2 - 2 x_79_ * x_14_ + 1 x_79_ ^ 2 + 1 y_14_ ^ 2 - 2 y_79_ * y_14_ + 1 y_79_ ^ 2 ] <= 510.05
quadratic_ranged_372_ub: [ 1 x_17_ ^ 2 - 2 x_79_ * x_17_ + 1 x_79_ ^ 2 + 1 y_17_ ^ 2 - 2 y_79_ * y_17_ + 1 y_79_ ^ 2 ] <= 1217.05
quadratic_ranged_373_ub: [ 1 x_38_ ^ 2 - 2 x_79_ * x_38_ + 1 x_79_ ^ 2 + 1 y_38_ ^ 2 - 2 y_79_ * y_38_ + 1 y_79_ ^ 2 ] <= 18605.21
quadratic_ranged_374_ub: [ 1 x_39_ ^ 2 - 2 x_79_ * x_39_ + 1 x_79_ ^ 2 + 1 y_39_ ^ 2 - 2 y_79_ * y_39_ + 1 y_79_ ^ 2 ] <= 18657.73
quadratic_ranged_375_ub: [ 1 x_45_ ^ 2 - 2 x_79_ * x_45_ + 1 x_79_ ^ 2 + 1 y_45_ ^ 2 - 2 y_79_ * y_45_ + 1 y_79_ ^ 2 ] <= 17227.57
quadratic_ranged_376_ub: [ 1 x_76_ ^ 2 - 2 x_79_ * x_76_ + 1 x_79_ ^ 2 + 1 y_76_ ^ 2 - 2 y_79_ * y_76_ + 1 y_79_ ^ 2 ] <= 2061.41
quadratic_ranged_377_ub: [ 1 x_78_ ^ 2 - 2 x_79_ * x_78_ + 1 x_79_ ^ 2 + 1 y_78_ ^ 2 - 2 y_79_ * y_78_ + 1 y_79_ ^ 2 ] <= 8825.38
quadratic_ranged_378_ub: [ 1 x_1_ ^ 2 - 2 x_80_ * x_1_ + 1 x_80_ ^ 2 + 1 y_1_ ^ 2 - 2 y_80_ * y_1_ + 1 y_80_ ^ 2 ] <= 18462.8
quadratic_ranged_379_ub: [ 1 x_3_ ^ 2 - 2 x_80_ * x_3_ + 1 x_80_ ^ 2 + 1 y_3_ ^ 2 - 2 y_80_ * y_3_ + 1 y_80_ ^ 2 ] <= 11733.17
quadratic_ranged_380_ub: [ 1 x_7_ ^ 2 - 2 x_80_ * x_7_ + 1 x_80_ ^ 2 + 1 y_7_ ^ 2 - 2 y_80_ * y_7_ + 1 y_80_ ^ 2 ] <= 41405.96
quadratic_ranged_381_ub: [ 1 x_15_ ^ 2 - 2 x_80_ * x_15_ + 1 x_80_ ^ 2 + 1 y_15_ ^ 2 - 2 y_80_ * y_15_ + 1 y_80_ ^ 2 ] <= 28855.7
quadratic_ranged_382_ub: [ 1 x_19_ ^ 2 - 2 x_80_ * x_19_ + 1 x_80_ ^ 2 + 1 y_19_ ^ 2 - 2 y_80_ * y_19_ + 1 y_80_ ^ 2 ] <= 27978.010000000002
quadratic_ranged_383_ub: [ 1 x_39_ ^ 2 - 2 x_80_ * x_39_ + 1 x_80_ ^ 2 + 1 y_39_ ^ 2 - 2 y_80_ * y_39_ + 1 y_80_ ^ 2 ] <= 18423.41
quadratic_ranged_384_ub: [ 1 x_47_ ^ 2 - 2 x_80_ * x_47_ + 1 x_80_ ^ 2 + 1 y_47_ ^ 2 - 2 y_80_ * y_47_ + 1 y_80_ ^ 2 ] <= 32700.77
quadratic_ranged_385_ub: [ 1 x_79_ ^ 2 - 2 x_80_ * x_79_ + 1 x_80_ ^ 2 + 1 y_79_ ^ 2 - 2 y_80_ * y_79_ + 1 y_80_ ^ 2 ] <= 16988.2
quadratic_ranged_386_ub: [ 1 x_5_ ^ 2 - 2 x_81_ * x_5_ + 1 x_81_ ^ 2 + 1 y_5_ ^ 2 - 2 y_81_ * y_5_ + 1 y_81_ ^ 2 ] <= 42433.13
quadratic_ranged_387_ub: [ 1 x_27_ ^ 2 - 2 x_81_ * x_27_ + 1 x_81_ ^ 2 + 1 y_27_ ^ 2 - 2 y_81_ * y_27_ + 1 y_81_ ^ 2 ] <= 17212.420000000002
quadratic_ranged_388_ub: [ 1 x_36_ ^ 2 - 2 x_81_ * x_36_ + 1 x_81_ ^ 2 + 1 y_36_ ^ 2 - 2 y_81_ * y_36_ + 1 y_81_ ^ 2 ] <= 2046.26
quadratic_ranged_389_ub: [ 1 x_62_ ^ 2 - 2 x_81_ * x_62_ + 1 x_81_ ^ 2 + 1 y_62_ ^ 2 - 2 y_81_ * y_62_ + 1 y_81_ ^ 2 ] <= 8607.22
quadratic_ranged_390_ub: [ 1 x_68_ ^ 2 - 2 x_81_ * x_68_ + 1 x_81_ ^ 2 + 1 y_68_ ^ 2 - 2 y_81_ * y_68_ + 1 y_81_ ^ 2 ] <= 9130.4
quadratic_ranged_391_ub: [ 1 x_70_ ^ 2 - 2 x_81_ * x_70_ + 1 x_81_ ^ 2 + 1 y_70_ ^ 2 - 2 y_81_ * y_70_ + 1 y_81_ ^ 2 ] <= 6917.49
quadratic_ranged_392_ub: [ 1 x_72_ ^ 2 - 2 x_81_ * x_72_ + 1 x_81_ ^ 2 + 1 y_72_ ^ 2 - 2 y_81_ * y_72_ + 1 y_81_ ^ 2 ] <= 6354.92
quadratic_ranged_393_ub: [ 1 x_80_ ^ 2 - 2 x_81_ * x_80_ + 1 x_81_ ^ 2 + 1 y_80_ ^ 2 - 2 y_81_ * y_80_ + 1 y_81_ ^ 2 ] <= 10190.9
quadratic_ranged_394_ub: [ 1 x_6_ ^ 2 - 2 x_82_ * x_6_ + 1 x_82_ ^ 2 + 1 y_6_ ^ 2 - 2 y_82_ * y_6_ + 1 y_82_ ^ 2 ] <= 35112.65
quadratic_ranged_395_ub: [ 1 x_18_ ^ 2 - 2 x_82_ * x_18_ + 1 x_82_ ^ 2 + 1 y_18_ ^ 2 - 2 y_82_ * y_18_ + 1 y_82_ ^ 2 ] <= 6772.05
quadratic_ranged_396_ub: [ 1 x_30_ ^ 2 - 2 x_82_ * x_30_ + 1 x_82_ ^ 2 + 1 y_30_ ^ 2 - 2 y_82_ * y_30_ + 1 y_82_ ^ 2 ] <= 16047.89
quadratic_ranged_397_ub: [ 1 x_57_ ^ 2 - 2 x_82_ * x_57_ + 1 x_82_ ^ 2 + 1 y_57_ ^ 2 - 2 y_82_ * y_57_ + 1 y_82_ ^ 2 ] <= 22326.05
quadratic_ranged_398_ub: [ 1 x_79_ ^ 2 - 2 x_82_ * x_79_ + 1 x_82_ ^ 2 + 1 y_79_ ^ 2 - 2 y_82_ * y_79_ + 1 y_82_ ^ 2 ] <= 17033.65
quadratic_ranged_399_ub: [ 1 x_81_ ^ 2 - 2 x_82_ * x_81_ + 1 x_82_ ^ 2 + 1 y_81_ ^ 2 - 2 y_82_ * y_81_ + 1 y_82_ ^ 2 ] <= 11539.25
quadratic_ranged_400_ub: [ 1 x_27_ ^ 2 - 2 x_83_ * x_27_ + 1 x_83_ ^ 2 + 1 y_27_ ^ 2 - 2 y_83_ * y_27_ + 1 y_83_ ^ 2 ] <= 11636.210000000001
quadratic_ranged_401_ub: [ 1 x_28_ ^ 2 - 2 x_83_ * x_28_ + 1 x_83_ ^ 2 + 1 y_28_ ^ 2 - 2 y_83_ * y_28_ + 1 y_83_ ^ 2 ] <= 11527.13
quadratic_ranged_402_ub: [ 1 x_34_ ^ 2 - 2 x_83_ * x_34_ + 1 x_83_ ^ 2 + 1 y_34_ ^ 2 - 2 y_83_ * y_34_ + 1 y_83_ ^ 2 ] <= 10630.25
quadratic_ranged_403_ub: [ 1 x_37_ ^ 2 - 2 x_83_ * x_37_ + 1 x_83_ ^ 2 + 1 y_37_ ^ 2 - 2 y_83_ * y_37_ + 1 y_83_ ^ 2 ] <= 11579.65
quadratic_ranged_404_ub: [ 1 x_52_ ^ 2 - 2 x_83_ * x_52_ + 1 x_83_ ^ 2 + 1 y_52_ ^ 2 - 2 y_83_ * y_52_ + 1 y_83_ ^ 2 ] <= 10549.45
quadratic_ranged_405_ub: [ 1 x_59_ ^ 2 - 2 x_83_ * x_59_ + 1 x_83_ ^ 2 + 1 y_59_ ^ 2 - 2 y_83_ * y_59_ + 1 y_83_ ^ 2 ] <= 2735.08
quadratic_ranged_406_ub: [ 1 x_60_ ^ 2 - 2 x_83_ * x_60_ + 1 x_83_ ^ 2 + 1 y_60_ ^ 2 - 2 y_83_ * y_60_ + 1 y_83_ ^ 2 ] <= 9001.12
quadratic_ranged_407_ub: [ 1 x_71_ ^ 2 - 2 x_83_ * x_71_ + 1 x_83_ ^ 2 + 1 y_71_ ^ 2 - 2 y_83_ * y_71_ + 1 y_83_ ^ 2 ] <= 10835.28
quadratic_ranged_408_ub: [ 1 x_74_ ^ 2 - 2 x_83_ * x_74_ + 1 x_83_ ^ 2 + 1 y_74_ ^ 2 - 2 y_83_ * y_74_ + 1 y_83_ ^ 2 ] <= 6533.6900000000005
quadratic_ranged_409_ub: [ 1 x_78_ ^ 2 - 2 x_83_ * x_78_ + 1 x_83_ ^ 2 + 1 y_78_ ^ 2 - 2 y_83_ * y_78_ + 1 y_83_ ^ 2 ] <= 2134.13
quadratic_ranged_410_ub: [ 1 x_82_ ^ 2 - 2 x_83_ * x_82_ + 1 x_83_ ^ 2 + 1 y_82_ ^ 2 - 2 y_83_ * y_82_ + 1 y_83_ ^ 2 ] <= 11796.8
quadratic_ranged_411_ub: [ 1 x_9_ ^ 2 - 2 x_84_ * x_9_ + 1 x_84_ ^ 2 + 1 y_9_ ^ 2 - 2 y_84_ * y_9_ + 1 y_84_ ^ 2 ] <= 12705.8
quadratic_ranged_412_ub: [ 1 x_12_ ^ 2 - 2 x_84_ * x_12_ + 1 x_84_ ^ 2 + 1 y_12_ ^ 2 - 2 y_84_ * y_12_ + 1 y_84_ ^ 2 ] <= 5172.21
quadratic_ranged_413_ub: [ 1 x_13_ ^ 2 - 2 x_84_ * x_13_ + 1 x_84_ ^ 2 + 1 y_13_ ^ 2 - 2 y_84_ * y_13_ + 1 y_84_ ^ 2 ] <= 23280.5
quadratic_ranged_414_ub: [ 1 x_20_ ^ 2 - 2 x_84_ * x_20_ + 1 x_84_ ^ 2 + 1 y_20_ ^ 2 - 2 y_84_ * y_20_ + 1 y_84_ ^ 2 ] <= 36557.96
quadratic_ranged_415_ub: [ 1 x_29_ ^ 2 - 2 x_84_ * x_29_ + 1 x_84_ ^ 2 + 1 y_29_ ^ 2 - 2 y_84_ * y_29_ + 1 y_84_ ^ 2 ] <= 3354.21
quadratic_ranged_416_ub: [ 1 x_50_ ^ 2 - 2 x_84_ * x_50_ + 1 x_84_ ^ 2 + 1 y_50_ ^ 2 - 2 y_84_ * y_50_ + 1 y_84_ ^ 2 ] <= 17365.94
quadratic_ranged_417_ub: [ 1 x_54_ ^ 2 - 2 x_84_ * x_54_ + 1 x_84_ ^ 2 + 1 y_54_ ^ 2 - 2 y_84_ * y_54_ + 1 y_84_ ^ 2 ] <= 28931.45
quadratic_ranged_418_ub: [ 1 x_62_ ^ 2 - 2 x_84_ * x_62_ + 1 x_84_ ^ 2 + 1 y_62_ ^ 2 - 2 y_84_ * y_62_ + 1 y_84_ ^ 2 ] <= 5504.5
quadratic_ranged_419_ub: [ 1 x_64_ ^ 2 - 2 x_84_ * x_64_ + 1 x_84_ ^ 2 + 1 y_64_ ^ 2 - 2 y_84_ * y_64_ + 1 y_84_ ^ 2 ] <= 2146.25
quadratic_ranged_420_ub: [ 1 x_72_ ^ 2 - 2 x_84_ * x_72_ + 1 x_84_ ^ 2 + 1 y_72_ ^ 2 - 2 y_84_ * y_72_ + 1 y_84_ ^ 2 ] <= 4658.12
quadratic_ranged_421_ub: [ 1 x_83_ ^ 2 - 2 x_84_ * x_83_ + 1 x_84_ ^ 2 + 1 y_83_ ^ 2 - 2 y_84_ * y_83_ + 1 y_84_ ^ 2 ] <= 8581.97
quadratic_ranged_422_ub: [ 1 x_9_ ^ 2 - 2 x_85_ * x_9_ + 1 x_85_ ^ 2 + 1 y_9_ ^ 2 - 2 y_85_ * y_9_ + 1 y_85_ ^ 2 ] <= 15143.94
quadratic_ranged_423_ub: [ 1 x_12_ ^ 2 - 2 x_85_ * x_12_ + 1 x_85_ ^ 2 + 1 y_12_ ^ 2 - 2 y_85_ * y_12_ + 1 y_85_ ^ 2 ] <= 7648.7300000000005
quadratic_ranged_424_ub: [ 1 x_18_ ^ 2 - 2 x_85_ * x_18_ + 1 x_85_ ^ 2 + 1 y_18_ ^ 2 - 2 y_85_ * y_18_ + 1 y_85_ ^ 2 ] <= 7524.5
quadratic_ranged_425_ub: [ 1 x_19_ ^ 2 - 2 x_85_ * x_19_ + 1 x_85_ ^ 2 + 1 y_19_ ^ 2 - 2 y_85_ * y_19_ + 1 y_85_ ^ 2 ] <= 9385.93
quadratic_ranged_426_ub: [ 1 x_23_ ^ 2 - 2 x_85_ * x_23_ + 1 x_85_ ^ 2 + 1 y_23_ ^ 2 - 2 y_85_ * y_23_ + 1 y_85_ ^ 2 ] <= 1354.41
quadratic_ranged_427_ub: [ 1 x_27_ ^ 2 - 2 x_85_ * x_27_ + 1 x_85_ ^ 2 + 1 y_27_ ^ 2 - 2 y_85_ * y_27_ + 1 y_85_ ^ 2 ] <= 2949.2
quadratic_ranged_428_ub: [ 1 x_61_ ^ 2 - 2 x_85_ * x_61_ + 1 x_85_ ^ 2 + 1 y_61_ ^ 2 - 2 y_85_ * y_61_ + 1 y_85_ ^ 2 ] <= 10044.45
quadratic_ranged_429_ub: [ 1 x_69_ ^ 2 - 2 x_85_ * x_69_ + 1 x_85_ ^ 2 + 1 y_69_ ^ 2 - 2 y_85_ * y_69_ + 1 y_85_ ^ 2 ] <= 2731.04
quadratic_ranged_430_ub: [ 1 x_81_ ^ 2 - 2 x_85_ * x_81_ + 1 x_85_ ^ 2 + 1 y_81_ ^ 2 - 2 y_85_ * y_81_ + 1 y_85_ ^ 2 ] <= 16008.5
quadratic_ranged_431_ub: [ 1 x_82_ ^ 2 - 2 x_85_ * x_82_ + 1 x_85_ ^ 2 + 1 y_82_ ^ 2 - 2 y_85_ * y_82_ + 1 y_85_ ^ 2 ] <= 5418.65
quadratic_ranged_432_ub: [ 1 x_83_ ^ 2 - 2 x_85_ * x_83_ + 1 x_85_ ^ 2 + 1 y_83_ ^ 2 - 2 y_85_ * y_83_ + 1 y_85_ ^ 2 ] <= 4408.65
quadratic_ranged_433_ub: [ 1 x_84_ ^ 2 - 2 x_85_ * x_84_ + 1 x_85_ ^ 2 + 1 y_84_ ^ 2 - 2 y_85_ * y_84_ + 1 y_85_ ^ 2 ] <= 23522.9
quadratic_ranged_434_ub: [ 1 x_11_ ^ 2 - 2 x_86_ * x_11_ + 1 x_86_ ^ 2 + 1 y_11_ ^ 2 - 2 y_86_ * y_11_ + 1 y_86_ ^ 2 ] <= 20847.41
quadratic_ranged_435_ub: [ 1 x_35_ ^ 2 - 2 x_86_ * x_35_ + 1 x_86_ ^ 2 + 1 y_35_ ^ 2 - 2 y_86_ * y_35_ + 1 y_86_ ^ 2 ] <= 24184.45
quadratic_ranged_436_ub: [ 1 x_38_ ^ 2 - 2 x_86_ * x_38_ + 1 x_86_ ^ 2 + 1 y_38_ ^ 2 - 2 y_86_ * y_38_ + 1 y_86_ ^ 2 ] <= 30317.170000000002
quadratic_ranged_437_ub: [ 1 x_46_ ^ 2 - 2 x_86_ * x_46_ + 1 x_86_ ^ 2 + 1 y_46_ ^ 2 - 2 y_86_ * y_46_ + 1 y_86_ ^ 2 ] <= 3459.25
quadratic_ranged_438_ub: [ 1 x_50_ ^ 2 - 2 x_86_ * x_50_ + 1 x_86_ ^ 2 + 1 y_50_ ^ 2 - 2 y_86_ * y_50_ + 1 y_86_ ^ 2 ] <= 14990.42
quadratic_ranged_439_ub: [ 1 x_54_ ^ 2 - 2 x_86_ * x_54_ + 1 x_86_ ^ 2 + 1 y_54_ ^ 2 - 2 y_86_ * y_54_ + 1 y_86_ ^ 2 ] <= 23566.33
quadratic_ranged_440_ub: [ 1 x_63_ ^ 2 - 2 x_86_ * x_63_ + 1 x_86_ ^ 2 + 1 y_63_ ^ 2 - 2 y_86_ * y_63_ + 1 y_86_ ^ 2 ] <= 12928
quadratic_ranged_441_ub: [ 1 x_67_ ^ 2 - 2 x_86_ * x_67_ + 1 x_86_ ^ 2 + 1 y_67_ ^ 2 - 2 y_86_ * y_67_ + 1 y_86_ ^ 2 ] <= 461.57
quadratic_ranged_442_ub: [ 1 x_85_ ^ 2 - 2 x_86_ * x_85_ + 1 x_86_ ^ 2 + 1 y_85_ ^ 2 - 2 y_86_ * y_85_ + 1 y_86_ ^ 2 ] <= 18432.5
quadratic_ranged_443_ub: [ 1 x_6_ ^ 2 - 2 x_87_ * x_6_ + 1 x_87_ ^ 2 + 1 y_6_ ^ 2 - 2 y_87_ * y_6_ + 1 y_87_ ^ 2 ] <= 18669.85
quadratic_ranged_444_ub: [ 1 x_9_ ^ 2 - 2 x_87_ * x_9_ + 1 x_87_ ^ 2 + 1 y_9_ ^ 2 - 2 y_87_ * y_9_ + 1 y_87_ ^ 2 ] <= 8319.37
quadratic_ranged_445_ub: [ 1 x_18_ ^ 2 - 2 x_87_ * x_18_ + 1 x_87_ ^ 2 + 1 y_18_ ^ 2 - 2 y_87_ * y_18_ + 1 y_87_ ^ 2 ] <= 2586.61
quadratic_ranged_446_ub: [ 1 x_35_ ^ 2 - 2 x_87_ * x_35_ + 1 x_87_ ^ 2 + 1 y_35_ ^ 2 - 2 y_87_ * y_35_ + 1 y_87_ ^ 2 ] <= 737.3
quadratic_ranged_447_ub: [ 1 x_37_ ^ 2 - 2 x_87_ * x_37_ + 1 x_87_ ^ 2 + 1 y_37_ ^ 2 - 2 y_87_ * y_37_ + 1 y_87_ ^ 2 ] <= 26955.89
quadratic_ranged_448_ub: [ 1 x_46_ ^ 2 - 2 x_87_ * x_46_ + 1 x_87_ ^ 2 + 1 y_46_ ^ 2 - 2 y_87_ * y_46_ + 1 y_87_ ^ 2 ] <= 16929.62
quadratic_ranged_449_ub: [ 1 x_60_ ^ 2 - 2 x_87_ * x_60_ + 1 x_87_ ^ 2 + 1 y_60_ ^ 2 - 2 y_87_ * y_60_ + 1 y_87_ ^ 2 ] <= 1480.66
quadratic_ranged_450_ub: [ 1 x_64_ ^ 2 - 2 x_87_ * x_64_ + 1 x_87_ ^ 2 + 1 y_64_ ^ 2 - 2 y_87_ * y_64_ + 1 y_87_ ^ 2 ] <= 28607.24
quadratic_ranged_451_ub: [ 1 x_86_ ^ 2 - 2 x_87_ * x_86_ + 1 x_87_ ^ 2 + 1 y_86_ ^ 2 - 2 y_87_ * y_86_ + 1 y_87_ ^ 2 ] <= 17203.33
quadratic_ranged_452_ub: [ 1 x_12_ ^ 2 - 2 x_88_ * x_12_ + 1 x_88_ ^ 2 + 1 y_12_ ^ 2 - 2 y_88_ * y_12_ + 1 y_88_ ^ 2 ] <= 15127.78
quadratic_ranged_453_ub: [ 1 x_17_ ^ 2 - 2 x_88_ * x_17_ + 1 x_88_ ^ 2 + 1 y_17_ ^ 2 - 2 y_88_ * y_17_ + 1 y_88_ ^ 2 ] <= 5965.06
quadratic_ranged_454_ub: [ 1 x_19_ ^ 2 - 2 x_88_ * x_19_ + 1 x_88_ ^ 2 + 1 y_19_ ^ 2 - 2 y_88_ * y_19_ + 1 y_88_ ^ 2 ] <= 7918.4
quadratic_ranged_455_ub: [ 1 x_44_ ^ 2 - 2 x_88_ * x_44_ + 1 x_88_ ^ 2 + 1 y_44_ ^ 2 - 2 y_88_ * y_44_ + 1 y_88_ ^ 2 ] <= 36562
quadratic_ranged_456_ub: [ 1 x_55_ ^ 2 - 2 x_88_ * x_55_ + 1 x_88_ ^ 2 + 1 y_55_ ^ 2 - 2 y_88_ * y_55_ + 1 y_88_ ^ 2 ] <= 37016.5
quadratic_ranged_457_ub: [ 1 x_61_ ^ 2 - 2 x_88_ * x_61_ + 1 x_88_ ^ 2 + 1 y_61_ ^ 2 - 2 y_88_ * y_61_ + 1 y_88_ ^ 2 ] <= 15521.68
quadratic_ranged_458_ub: [ 1 x_69_ ^ 2 - 2 x_88_ * x_69_ + 1 x_88_ ^ 2 + 1 y_69_ ^ 2 - 2 y_88_ * y_69_ + 1 y_88_ ^ 2 ] <= 37.37
quadratic_ranged_459_ub: [ 1 x_70_ ^ 2 - 2 x_88_ * x_70_ + 1 x_88_ ^ 2 + 1 y_70_ ^ 2 - 2 y_88_ * y_70_ + 1 y_88_ ^ 2 ] <= 35653
quadratic_ranged_460_ub: [ 1 x_87_ ^ 2 - 2 x_88_ * x_87_ + 1 x_88_ ^ 2 + 1 y_87_ ^ 2 - 2 y_88_ * y_87_ + 1 y_88_ ^ 2 ] <= 9003.14
quadratic_ranged_461_ub: [ 1 x_29_ ^ 2 - 2 x_89_ * x_29_ + 1 x_89_ ^ 2 + 1 y_29_ ^ 2 - 2 y_89_ * y_29_ + 1 y_89_ ^ 2 ] <= 2668.42
quadratic_ranged_462_ub: [ 1 x_58_ ^ 2 - 2 x_89_ * x_58_ + 1 x_89_ ^ 2 + 1 y_58_ ^ 2 - 2 y_89_ * y_58_ + 1 y_89_ ^ 2 ] <= 9284.93
quadratic_ranged_463_ub: [ 1 x_59_ ^ 2 - 2 x_89_ * x_59_ + 1 x_89_ ^ 2 + 1 y_59_ ^ 2 - 2 y_89_ * y_59_ + 1 y_89_ ^ 2 ] <= 14570.26
quadratic_ranged_464_ub: [ 1 x_71_ ^ 2 - 2 x_89_ * x_71_ + 1 x_89_ ^ 2 + 1 y_71_ ^ 2 - 2 y_89_ * y_71_ + 1 y_89_ ^ 2 ] <= 33380.5
quadratic_ranged_465_ub: [ 1 x_88_ ^ 2 - 2 x_89_ * x_88_ + 1 x_89_ ^ 2 + 1 y_88_ ^ 2 - 2 y_89_ * y_88_ + 1 y_89_ ^ 2 ] <= 25542.9
quadratic_ranged_466_ub: [ 1 x_9_ ^ 2 - 2 x_90_ * x_9_ + 1 x_90_ ^ 2 + 1 y_9_ ^ 2 - 2 y_90_ * y_9_ + 1 y_90_ ^ 2 ] <= 19651.57
quadratic_ranged_467_ub: [ 1 x_11_ ^ 2 - 2 x_90_ * x_11_ + 1 x_90_ ^ 2 + 1 y_11_ ^ 2 - 2 y_90_ * y_11_ + 1 y_90_ ^ 2 ] <= 18311.3
quadratic_ranged_468_ub: [ 1 x_19_ ^ 2 - 2 x_90_ * x_19_ + 1 x_90_ ^ 2 + 1 y_19_ ^ 2 - 2 y_90_ * y_19_ + 1 y_90_ ^ 2 ] <= 274.72
quadratic_ranged_469_ub: [ 1 x_23_ ^ 2 - 2 x_90_ * x_23_ + 1 x_90_ ^ 2 + 1 y_23_ ^ 2 - 2 y_90_ * y_23_ + 1 y_90_ ^ 2 ] <= 19830.34
quadratic_ranged_470_ub: [ 1 x_27_ ^ 2 - 2 x_90_ * x_27_ + 1 x_90_ ^ 2 + 1 y_27_ ^ 2 - 2 y_90_ * y_27_ + 1 y_90_ ^ 2 ] <= 25137.89
quadratic_ranged_471_ub: [ 1 x_54_ ^ 2 - 2 x_90_ * x_54_ + 1 x_90_ ^ 2 + 1 y_54_ ^ 2 - 2 y_90_ * y_54_ + 1 y_90_ ^ 2 ] <= 26829.64
quadratic_ranged_472_ub: [ 1 x_58_ ^ 2 - 2 x_90_ * x_58_ + 1 x_90_ ^ 2 + 1 y_58_ ^ 2 - 2 y_90_ * y_58_ + 1 y_90_ ^ 2 ] <= 1027.17
quadratic_ranged_473_ub: [ 1 x_64_ ^ 2 - 2 x_90_ * x_64_ + 1 x_90_ ^ 2 + 1 y_64_ ^ 2 - 2 y_90_ * y_64_ + 1 y_90_ ^ 2 ] <= 4179.38
quadratic_ranged_474_ub: [ 1 x_68_ ^ 2 - 2 x_90_ * x_68_ + 1 x_90_ ^ 2 + 1 y_68_ ^ 2 - 2 y_90_ * y_68_ + 1 y_90_ ^ 2 ] <= 22229.09
quadratic_ranged_475_ub: [ 1 x_71_ ^ 2 - 2 x_90_ * x_71_ + 1 x_90_ ^ 2 + 1 y_71_ ^ 2 - 2 y_90_ * y_71_ + 1 y_90_ ^ 2 ] <= 21145.36
quadratic_ranged_476_ub: [ 1 x_76_ ^ 2 - 2 x_90_ * x_76_ + 1 x_90_ ^ 2 + 1 y_76_ ^ 2 - 2 y_90_ * y_76_ + 1 y_90_ ^ 2 ] <= 7516.42
quadratic_ranged_477_ub: [ 1 x_80_ ^ 2 - 2 x_90_ * x_80_ + 1 x_90_ ^ 2 + 1 y_80_ ^ 2 - 2 y_90_ * y_80_ + 1 y_90_ ^ 2 ] <= 29295.05
quadratic_ranged_478_ub: [ 1 x_89_ ^ 2 - 2 x_90_ * x_89_ + 1 x_90_ ^ 2 + 1 y_89_ ^ 2 - 2 y_90_ * y_89_ + 1 y_90_ ^ 2 ] <= 4252.1
quadratic_ranged_479_ub: [ 1 x_3_ ^ 2 - 2 x_91_ * x_3_ + 1 x_91_ ^ 2 + 1 y_3_ ^ 2 - 2 y_91_ * y_3_ + 1 y_91_ ^ 2 ] <= 4764.17
quadratic_ranged_480_ub: [ 1 x_11_ ^ 2 - 2 x_91_ * x_11_ + 1 x_91_ ^ 2 + 1 y_11_ ^ 2 - 2 y_91_ * y_11_ + 1 y_91_ ^ 2 ] <= 53.53
quadratic_ranged_481_ub: [ 1 x_33_ ^ 2 - 2 x_91_ * x_33_ + 1 x_91_ ^ 2 + 1 y_33_ ^ 2 - 2 y_91_ * y_33_ + 1 y_91_ ^ 2 ] <= 15296.45
quadratic_ranged_482_ub: [ 1 x_34_ ^ 2 - 2 x_91_ * x_34_ + 1 x_91_ ^ 2 + 1 y_34_ ^ 2 - 2 y_91_ * y_34_ + 1 y_91_ ^ 2 ] <= 14079.4
quadratic_ranged_483_ub: [ 1 x_36_ ^ 2 - 2 x_91_ * x_36_ + 1 x_91_ ^ 2 + 1 y_36_ ^ 2 - 2 y_91_ * y_36_ + 1 y_91_ ^ 2 ] <= 15263.12
quadratic_ranged_484_ub: [ 1 x_42_ ^ 2 - 2 x_91_ * x_42_ + 1 x_91_ ^ 2 + 1 y_42_ ^ 2 - 2 y_91_ * y_42_ + 1 y_91_ ^ 2 ] <= 1553.38
quadratic_ranged_485_ub: [ 1 x_48_ ^ 2 - 2 x_91_ * x_48_ + 1 x_91_ ^ 2 + 1 y_48_ ^ 2 - 2 y_91_ * y_48_ + 1 y_91_ ^ 2 ] <= 13514.81
quadratic_ranged_486_ub: [ 1 x_55_ ^ 2 - 2 x_91_ * x_55_ + 1 x_91_ ^ 2 + 1 y_55_ ^ 2 - 2 y_91_ * y_55_ + 1 y_91_ ^ 2 ] <= 23384.53
quadratic_ranged_487_ub: [ 1 x_62_ ^ 2 - 2 x_91_ * x_62_ + 1 x_91_ ^ 2 + 1 y_62_ ^ 2 - 2 y_91_ * y_62_ + 1 y_91_ ^ 2 ] <= 19941.44
quadratic_ranged_488_ub: [ 1 x_67_ ^ 2 - 2 x_91_ * x_67_ + 1 x_91_ ^ 2 + 1 y_67_ ^ 2 - 2 y_91_ * y_67_ + 1 y_91_ ^ 2 ] <= 23517.85
quadratic_ranged_489_ub: [ 1 x_76_ ^ 2 - 2 x_91_ * x_76_ + 1 x_91_ ^ 2 + 1 y_76_ ^ 2 - 2 y_91_ * y_76_ + 1 y_91_ ^ 2 ] <= 2186.65
quadratic_ranged_490_ub: [ 1 x_82_ ^ 2 - 2 x_91_ * x_82_ + 1 x_91_ ^ 2 + 1 y_82_ ^ 2 - 2 y_91_ * y_82_ + 1 y_91_ ^ 2 ] <= 2045.25
quadratic_ranged_491_ub: [ 1 x_90_ ^ 2 - 2 x_91_ * x_90_ + 1 x_91_ ^ 2 + 1 y_90_ ^ 2 - 2 y_91_ * y_90_ + 1 y_91_ ^ 2 ] <= 16993.25
quadratic_ranged_492_ub: [ 1 x_12_ ^ 2 - 2 x_92_ * x_12_ + 1 x_92_ ^ 2 + 1 y_12_ ^ 2 - 2 y_92_ * y_12_ + 1 y_92_ ^ 2 ] <= 6792.25
quadratic_ranged_493_ub: [ 1 x_27_ ^ 2 - 2 x_92_ * x_27_ + 1 x_92_ ^ 2 + 1 y_27_ ^ 2 - 2 y_92_ * y_27_ + 1 y_92_ ^ 2 ] <= 25179.3
quadratic_ranged_494_ub: [ 1 x_51_ ^ 2 - 2 x_92_ * x_51_ + 1 x_92_ ^ 2 + 1 y_51_ ^ 2 - 2 y_92_ * y_51_ + 1 y_92_ ^ 2 ] <= 6000.41
quadratic_ranged_495_ub: [ 1 x_54_ ^ 2 - 2 x_92_ * x_54_ + 1 x_92_ ^ 2 + 1 y_54_ ^ 2 - 2 y_92_ * y_54_ + 1 y_92_ ^ 2 ] <= 28802.170000000002
quadratic_ranged_496_ub: [ 1 x_79_ ^ 2 - 2 x_92_ * x_79_ + 1 x_92_ ^ 2 + 1 y_79_ ^ 2 - 2 y_92_ * y_79_ + 1 y_92_ ^ 2 ] <= 1900.82
quadratic_ranged_497_ub: [ 1 x_91_ ^ 2 - 2 x_92_ * x_91_ + 1 x_92_ ^ 2 + 1 y_91_ ^ 2 - 2 y_92_ * y_91_ + 1 y_92_ ^ 2 ] <= 18012.34
quadratic_ranged_498_ub: [ 1 x_13_ ^ 2 - 2 x_93_ * x_13_ + 1 x_93_ ^ 2 + 1 y_13_ ^ 2 - 2 y_93_ * y_13_ + 1 y_93_ ^ 2 ] <= 8825.38
quadratic_ranged_499_ub: [ 1 x_14_ ^ 2 - 2 x_93_ * x_14_ + 1 x_93_ ^ 2 + 1 y_14_ ^ 2 - 2 y_93_ * y_14_ + 1 y_93_ ^ 2 ] <= 3519.85
quadratic_ranged_500_ub: [ 1 x_19_ ^ 2 - 2 x_93_ * x_19_ + 1 x_93_ ^ 2 + 1 y_19_ ^ 2 - 2 y_93_ * y_19_ + 1 y_93_ ^ 2 ] <= 9216.25
quadratic_ranged_501_ub: [ 1 x_46_ ^ 2 - 2 x_93_ * x_46_ + 1 x_93_ ^ 2 + 1 y_46_ ^ 2 - 2 y_93_ * y_46_ + 1 y_93_ ^ 2 ] <= 2025.05
quadratic_ranged_502_ub: [ 1 x_86_ ^ 2 - 2 x_93_ * x_86_ + 1 x_93_ ^ 2 + 1 y_86_ ^ 2 - 2 y_93_ * y_86_ + 1 y_93_ ^ 2 ] <= 2040.2
quadratic_ranged_503_ub: [ 1 x_92_ ^ 2 - 2 x_93_ * x_92_ + 1 x_93_ ^ 2 + 1 y_92_ ^ 2 - 2 y_93_ * y_92_ + 1 y_93_ ^ 2 ] <= 9251.6
quadratic_ranged_504_ub: [ 1 x_9_ ^ 2 - 2 x_94_ * x_9_ + 1 x_94_ ^ 2 + 1 y_9_ ^ 2 - 2 y_94_ * y_9_ + 1 y_94_ ^ 2 ] <= 13657.22
quadratic_ranged_505_ub: [ 1 x_12_ ^ 2 - 2 x_94_ * x_12_ + 1 x_94_ ^ 2 + 1 y_12_ ^ 2 - 2 y_94_ * y_12_ + 1 y_94_ ^ 2 ] <= 6642.77
quadratic_ranged_506_ub: [ 1 x_16_ ^ 2 - 2 x_94_ * x_16_ + 1 x_94_ ^ 2 + 1 y_16_ ^ 2 - 2 y_94_ * y_16_ + 1 y_94_ ^ 2 ] <= 26698.34
quadratic_ranged_507_ub: [ 1 x_24_ ^ 2 - 2 x_94_ * x_24_ + 1 x_94_ ^ 2 + 1 y_24_ ^ 2 - 2 y_94_ * y_24_ + 1 y_94_ ^ 2 ] <= 16891.24
quadratic_ranged_508_ub: [ 1 x_25_ ^ 2 - 2 x_94_ * x_25_ + 1 x_94_ ^ 2 + 1 y_25_ ^ 2 - 2 y_94_ * y_25_ + 1 y_94_ ^ 2 ] <= 4408.65
quadratic_ranged_509_ub: [ 1 x_34_ ^ 2 - 2 x_94_ * x_34_ + 1 x_94_ ^ 2 + 1 y_34_ ^ 2 - 2 y_94_ * y_34_ + 1 y_94_ ^ 2 ] <= 5631.76
quadratic_ranged_510_ub: [ 1 x_43_ ^ 2 - 2 x_94_ * x_43_ + 1 x_94_ ^ 2 + 1 y_43_ ^ 2 - 2 y_94_ * y_43_ + 1 y_94_ ^ 2 ] <= 6989.2
quadratic_ranged_511_ub: [ 1 x_54_ ^ 2 - 2 x_94_ * x_54_ + 1 x_94_ ^ 2 + 1 y_54_ ^ 2 - 2 y_94_ * y_54_ + 1 y_94_ ^ 2 ] <= 7749.7300000000005
quadratic_ranged_512_ub: [ 1 x_58_ ^ 2 - 2 x_94_ * x_58_ + 1 x_94_ ^ 2 + 1 y_58_ ^ 2 - 2 y_94_ * y_58_ + 1 y_94_ ^ 2 ] <= 11263.52
quadratic_ranged_513_ub: [ 1 x_92_ ^ 2 - 2 x_94_ * x_92_ + 1 x_94_ ^ 2 + 1 y_92_ ^ 2 - 2 y_94_ * y_92_ + 1 y_94_ ^ 2 ] <= 10473.7
quadratic_ranged_514_ub: [ 1 x_93_ ^ 2 - 2 x_94_ * x_93_ + 1 x_94_ ^ 2 + 1 y_93_ ^ 2 - 2 y_94_ * y_93_ + 1 y_94_ ^ 2 ] <= 10312.1
quadratic_ranged_515_ub: [ 1 x_27_ ^ 2 - 2 x_95_ * x_27_ + 1 x_95_ ^ 2 + 1 y_27_ ^ 2 - 2 y_95_ * y_27_ + 1 y_95_ ^ 2 ] <= 29415.24
quadratic_ranged_516_ub: [ 1 x_34_ ^ 2 - 2 x_95_ * x_34_ + 1 x_95_ ^ 2 + 1 y_34_ ^ 2 - 2 y_95_ * y_34_ + 1 y_95_ ^ 2 ] <= 40177.8
quadratic_ranged_517_ub: [ 1 x_41_ ^ 2 - 2 x_95_ * x_41_ + 1 x_95_ ^ 2 + 1 y_41_ ^ 2 - 2 y_95_ * y_41_ + 1 y_95_ ^ 2 ] <= 10382.8
quadratic_ranged_518_ub: [ 1 x_49_ ^ 2 - 2 x_95_ * x_49_ + 1 x_95_ ^ 2 + 1 y_49_ ^ 2 - 2 y_95_ * y_49_ + 1 y_95_ ^ 2 ] <= 35415.65
quadratic_ranged_519_ub: [ 1 x_54_ ^ 2 - 2 x_95_ * x_54_ + 1 x_95_ ^ 2 + 1 y_54_ ^ 2 - 2 y_95_ * y_54_ + 1 y_95_ ^ 2 ] <= 10270.69
quadratic_ranged_520_ub: [ 1 x_84_ ^ 2 - 2 x_95_ * x_84_ + 1 x_95_ ^ 2 + 1 y_84_ ^ 2 - 2 y_95_ * y_84_ + 1 y_95_ ^ 2 ] <= 13067.380000000001
quadratic_ranged_521_ub: [ 1 x_90_ ^ 2 - 2 x_95_ * x_90_ + 1 x_95_ ^ 2 + 1 y_90_ ^ 2 - 2 y_95_ * y_90_ + 1 y_95_ ^ 2 ] <= 24871.25
quadratic_ranged_522_ub: [ 1 x_94_ ^ 2 - 2 x_95_ * x_94_ + 1 x_95_ ^ 2 + 1 y_94_ ^ 2 - 2 y_95_ * y_94_ + 1 y_95_ ^ 2 ] <= 21496.84
quadratic_ranged_523_ub: [ 1 x_19_ ^ 2 - 2 x_96_ * x_19_ + 1 x_96_ ^ 2 + 1 y_19_ ^ 2 - 2 y_96_ * y_19_ + 1 y_96_ ^ 2 ] <= 22401.8
quadratic_ranged_524_ub: [ 1 x_23_ ^ 2 - 2 x_96_ * x_23_ + 1 x_96_ ^ 2 + 1 y_23_ ^ 2 - 2 y_96_ * y_23_ + 1 y_96_ ^ 2 ] <= 1504.9
quadratic_ranged_525_ub: [ 1 x_26_ ^ 2 - 2 x_96_ * x_26_ + 1 x_96_ ^ 2 + 1 y_26_ ^ 2 - 2 y_96_ * y_26_ + 1 y_96_ ^ 2 ] <= 3026.97
quadratic_ranged_526_ub: [ 1 x_32_ ^ 2 - 2 x_96_ * x_32_ + 1 x_96_ ^ 2 + 1 y_32_ ^ 2 - 2 y_96_ * y_32_ + 1 y_96_ ^ 2 ] <= 35503.52
quadratic_ranged_527_ub: [ 1 x_38_ ^ 2 - 2 x_96_ * x_38_ + 1 x_96_ ^ 2 + 1 y_38_ ^ 2 - 2 y_96_ * y_38_ + 1 y_96_ ^ 2 ] <= 761.54
quadratic_ranged_528_ub: [ 1 x_45_ ^ 2 - 2 x_96_ * x_45_ + 1 x_96_ ^ 2 + 1 y_45_ ^ 2 - 2 y_96_ * y_45_ + 1 y_96_ ^ 2 ] <= 7742.66
quadratic_ranged_529_ub: [ 1 x_49_ ^ 2 - 2 x_96_ * x_49_ + 1 x_96_ ^ 2 + 1 y_49_ ^ 2 - 2 y_96_ * y_49_ + 1 y_96_ ^ 2 ] <= 11362.5
quadratic_ranged_530_ub: [ 1 x_54_ ^ 2 - 2 x_96_ * x_54_ + 1 x_96_ ^ 2 + 1 y_54_ ^ 2 - 2 y_96_ * y_54_ + 1 y_96_ ^ 2 ] <= 1616
quadratic_ranged_531_ub: [ 1 x_56_ ^ 2 - 2 x_96_ * x_56_ + 1 x_96_ ^ 2 + 1 y_56_ ^ 2 - 2 y_96_ * y_56_ + 1 y_96_ ^ 2 ] <= 16523.6
quadratic_ranged_532_ub: [ 1 x_63_ ^ 2 - 2 x_96_ * x_63_ + 1 x_96_ ^ 2 + 1 y_63_ ^ 2 - 2 y_96_ * y_63_ + 1 y_96_ ^ 2 ] <= 21562.49
quadratic_ranged_533_ub: [ 1 x_75_ ^ 2 - 2 x_96_ * x_75_ + 1 x_96_ ^ 2 + 1 y_75_ ^ 2 - 2 y_96_ * y_75_ + 1 y_96_ ^ 2 ] <= 34716.73
quadratic_ranged_534_ub: [ 1 x_95_ ^ 2 - 2 x_96_ * x_95_ + 1 x_96_ ^ 2 + 1 y_95_ ^ 2 - 2 y_96_ * y_95_ + 1 y_96_ ^ 2 ] <= 17720.45
quadratic_ranged_535_ub: [ 1 x_11_ ^ 2 - 2 x_97_ * x_11_ + 1 x_97_ ^ 2 + 1 y_11_ ^ 2 - 2 y_97_ * y_11_ + 1 y_97_ ^ 2 ] <= 6807.4
quadratic_ranged_536_ub: [ 1 x_17_ ^ 2 - 2 x_97_ * x_17_ + 1 x_97_ ^ 2 + 1 y_17_ ^ 2 - 2 y_97_ * y_17_ + 1 y_97_ ^ 2 ] <= 6342.8
quadratic_ranged_537_ub: [ 1 x_22_ ^ 2 - 2 x_97_ * x_22_ + 1 x_97_ ^ 2 + 1 y_22_ ^ 2 - 2 y_97_ * y_22_ + 1 y_97_ ^ 2 ] <= 9390.98
quadratic_ranged_538_ub: [ 1 x_35_ ^ 2 - 2 x_97_ * x_35_ + 1 x_97_ ^ 2 + 1 y_35_ ^ 2 - 2 y_97_ * y_35_ + 1 y_97_ ^ 2 ] <= 10530.26
quadratic_ranged_539_ub: [ 1 x_41_ ^ 2 - 2 x_97_ * x_41_ + 1 x_97_ ^ 2 + 1 y_41_ ^ 2 - 2 y_97_ * y_41_ + 1 y_97_ ^ 2 ] <= 3297.65
quadratic_ranged_540_ub: [ 1 x_51_ ^ 2 - 2 x_97_ * x_51_ + 1 x_97_ ^ 2 + 1 y_51_ ^ 2 - 2 y_97_ * y_51_ + 1 y_97_ ^ 2 ] <= 6516.52
quadratic_ranged_541_ub: [ 1 x_61_ ^ 2 - 2 x_97_ * x_61_ + 1 x_97_ ^ 2 + 1 y_61_ ^ 2 - 2 y_97_ * y_61_ + 1 y_97_ ^ 2 ] <= 5997.38
quadratic_ranged_542_ub: [ 1 x_81_ ^ 2 - 2 x_97_ * x_81_ + 1 x_97_ ^ 2 + 1 y_81_ ^ 2 - 2 y_97_ * y_81_ + 1 y_97_ ^ 2 ] <= 1734.17
quadratic_ranged_543_ub: [ 1 x_95_ ^ 2 - 2 x_97_ * x_95_ + 1 x_97_ ^ 2 + 1 y_95_ ^ 2 - 2 y_97_ * y_95_ + 1 y_97_ ^ 2 ] <= 2186.65
quadratic_ranged_544_ub: [ 1 x_96_ ^ 2 - 2 x_97_ * x_96_ + 1 x_97_ ^ 2 + 1 y_96_ ^ 2 - 2 y_97_ * y_96_ + 1 y_97_ ^ 2 ] <= 8486.02
quadratic_ranged_545_ub: [ 1 x_1_ ^ 2 - 2 x_98_ * x_1_ + 1 x_98_ ^ 2 + 1 y_1_ ^ 2 - 2 y_98_ * y_1_ + 1 y_98_ ^ 2 ] <= 18548.65
quadratic_ranged_546_ub: [ 1 x_6_ ^ 2 - 2 x_98_ * x_6_ + 1 x_98_ ^ 2 + 1 y_6_ ^ 2 - 2 y_98_ * y_6_ + 1 y_98_ ^ 2 ] <= 32583.61
quadratic_ranged_547_ub: [ 1 x_9_ ^ 2 - 2 x_98_ * x_9_ + 1 x_98_ ^ 2 + 1 y_9_ ^ 2 - 2 y_98_ * y_9_ + 1 y_98_ ^ 2 ] <= 12448.25
quadratic_ranged_548_ub: [ 1 x_16_ ^ 2 - 2 x_98_ * x_16_ + 1 x_98_ ^ 2 + 1 y_16_ ^ 2 - 2 y_98_ * y_16_ + 1 y_98_ ^ 2 ] <= 27610.37
quadratic_ranged_549_ub: [ 1 x_20_ ^ 2 - 2 x_98_ * x_20_ + 1 x_98_ ^ 2 + 1 y_20_ ^ 2 - 2 y_98_ * y_20_ + 1 y_98_ ^ 2 ] <= 26701.37
quadratic_ranged_550_ub: [ 1 x_29_ ^ 2 - 2 x_98_ * x_29_ + 1 x_98_ ^ 2 + 1 y_29_ ^ 2 - 2 y_98_ * y_29_ + 1 y_98_ ^ 2 ] <= 18521.38
quadratic_ranged_551_ub: [ 1 x_34_ ^ 2 - 2 x_98_ * x_34_ + 1 x_98_ ^ 2 + 1 y_34_ ^ 2 - 2 y_98_ * y_34_ + 1 y_98_ ^ 2 ] <= 22726.01
quadratic_ranged_552_ub: [ 1 x_36_ ^ 2 - 2 x_98_ * x_36_ + 1 x_98_ ^ 2 + 1 y_36_ ^ 2 - 2 y_98_ * y_36_ + 1 y_98_ ^ 2 ] <= 19102.13
quadratic_ranged_553_ub: [ 1 x_37_ ^ 2 - 2 x_98_ * x_37_ + 1 x_98_ ^ 2 + 1 y_37_ ^ 2 - 2 y_98_ * y_37_ + 1 y_98_ ^ 2 ] <= 44214.77
quadratic_ranged_554_ub: [ 1 x_38_ ^ 2 - 2 x_98_ * x_38_ + 1 x_98_ ^ 2 + 1 y_38_ ^ 2 - 2 y_98_ * y_38_ + 1 y_98_ ^ 2 ] <= 246.44
quadratic_ranged_555_ub: [ 1 x_46_ ^ 2 - 2 x_98_ * x_46_ + 1 x_98_ ^ 2 + 1 y_46_ ^ 2 - 2 y_98_ * y_46_ + 1 y_98_ ^ 2 ] <= 26698.34
quadratic_ranged_556_ub: [ 1 x_54_ ^ 2 - 2 x_98_ * x_54_ + 1 x_98_ ^ 2 + 1 y_54_ ^ 2 - 2 y_98_ * y_54_ + 1 y_98_ ^ 2 ] <= 1585.7
quadratic_ranged_557_ub: [ 1 x_57_ ^ 2 - 2 x_98_ * x_57_ + 1 x_98_ ^ 2 + 1 y_57_ ^ 2 - 2 y_98_ * y_57_ + 1 y_98_ ^ 2 ] <= 21744.29
quadratic_ranged_558_ub: [ 1 x_59_ ^ 2 - 2 x_98_ * x_59_ + 1 x_98_ ^ 2 + 1 y_59_ ^ 2 - 2 y_98_ * y_59_ + 1 y_98_ ^ 2 ] <= 5916.58
quadratic_ranged_559_ub: [ 1 x_66_ ^ 2 - 2 x_98_ * x_66_ + 1 x_98_ ^ 2 + 1 y_66_ ^ 2 - 2 y_98_ * y_66_ + 1 y_98_ ^ 2 ] <= 18084.05
quadratic_ranged_560_ub: [ 1 x_75_ ^ 2 - 2 x_98_ * x_75_ + 1 x_98_ ^ 2 + 1 y_75_ ^ 2 - 2 y_98_ * y_75_ + 1 y_98_ ^ 2 ] <= 41855.41
quadratic_ranged_561_ub: [ 1 x_85_ ^ 2 - 2 x_98_ * x_85_ + 1 x_98_ ^ 2 + 1 y_85_ ^ 2 - 2 y_98_ * y_85_ + 1 y_98_ ^ 2 ] <= 6170.09
quadratic_ranged_562_ub: [ 1 x_87_ ^ 2 - 2 x_98_ * x_87_ + 1 x_98_ ^ 2 + 1 y_87_ ^ 2 - 2 y_98_ * y_87_ + 1 y_98_ ^ 2 ] <= 2537.12
quadratic_ranged_563_ub: [ 1 x_89_ ^ 2 - 2 x_98_ * x_89_ + 1 x_98_ ^ 2 + 1 y_89_ ^ 2 - 2 y_98_ * y_89_ + 1 y_98_ ^ 2 ] <= 34764.2
quadratic_ranged_564_ub: [ 1 x_97_ ^ 2 - 2 x_98_ * x_97_ + 1 x_98_ ^ 2 + 1 y_97_ ^ 2 - 2 y_98_ * y_97_ + 1 y_98_ ^ 2 ] <= 10491.88
quadratic_ranged_565_ub: [ 1 x_10_ ^ 2 - 2 x_99_ * x_10_ + 1 x_99_ ^ 2 + 1 y_10_ ^ 2 - 2 y_99_ * y_10_ + 1 y_99_ ^ 2 ] <= 1528.13
quadratic_ranged_566_ub: [ 1 x_26_ ^ 2 - 2 x_99_ * x_26_ + 1 x_99_ ^ 2 + 1 y_26_ ^ 2 - 2 y_99_ * y_26_ + 1 y_99_ ^ 2 ] <= 8249.68
quadratic_ranged_567_ub: [ 1 x_42_ ^ 2 - 2 x_99_ * x_42_ + 1 x_99_ ^ 2 + 1 y_42_ ^ 2 - 2 y_99_ * y_42_ + 1 y_99_ ^ 2 ] <= 3979.4
quadratic_ranged_568_ub: [ 1 x_74_ ^ 2 - 2 x_99_ * x_74_ + 1 x_99_ ^ 2 + 1 y_74_ ^ 2 - 2 y_99_ * y_74_ + 1 y_99_ ^ 2 ] <= 19472.8
quadratic_ranged_569_ub: [ 1 x_78_ ^ 2 - 2 x_99_ * x_78_ + 1 x_99_ ^ 2 + 1 y_78_ ^ 2 - 2 y_99_ * y_78_ + 1 y_99_ ^ 2 ] <= 7615.4
quadratic_ranged_570_ub: [ 1 x_81_ ^ 2 - 2 x_99_ * x_81_ + 1 x_99_ ^ 2 + 1 y_81_ ^ 2 - 2 y_99_ * y_81_ + 1 y_99_ ^ 2 ] <= 3171.4
quadratic_ranged_571_ub: [ 1 x_93_ ^ 2 - 2 x_99_ * x_93_ + 1 x_99_ ^ 2 + 1 y_93_ ^ 2 - 2 y_99_ * y_93_ + 1 y_99_ ^ 2 ] <= 12960.32
quadratic_ranged_572_ub: [ 1 x_97_ ^ 2 - 2 x_99_ * x_97_ + 1 x_99_ ^ 2 + 1 y_97_ ^ 2 - 2 y_99_ * y_97_ + 1 y_99_ ^ 2 ] <= 5418.65
quadratic_ranged_573_ub: [ 1 x_98_ ^ 2 - 2 x_99_ * x_98_ + 1 x_99_ ^ 2 + 1 y_98_ ^ 2 - 2 y_99_ * y_98_ + 1 y_99_ ^ 2 ] <= 1431.17
quadratic_ranged_574_ub: [ 1 x_1_ ^ 2 - 2 x_100_ * x_1_ + 1 x_100_ ^ 2 + 1 y_1_ ^ 2 - 2 y_100_ * y_1_ + 1 y_100_ ^ 2 ] <= 15644.9
quadratic_ranged_575_ub: [ 1 x_2_ ^ 2 - 2 x_100_ * x_2_ + 1 x_100_ ^ 2 + 1 y_2_ ^ 2 - 2 y_100_ * y_2_ + 1 y_100_ ^ 2 ] <= 6516.52
quadratic_ranged_576_ub: [ 1 x_16_ ^ 2 - 2 x_100_ * x_16_ + 1 x_100_ ^ 2 + 1 y_16_ ^ 2 - 2 y_100_ * y_16_ + 1 y_100_ ^ 2 ] <= 38210.32
quadratic_ranged_577_ub: [ 1 x_31_ ^ 2 - 2 x_100_ * x_31_ + 1 x_100_ ^ 2 + 1 y_31_ ^ 2 - 2 y_100_ * y_31_ + 1 y_100_ ^ 2 ] <= 17882.05
quadratic_ranged_578_ub: [ 1 x_34_ ^ 2 - 2 x_100_ * x_34_ + 1 x_100_ ^ 2 + 1 y_34_ ^ 2 - 2 y_100_ * y_34_ + 1 y_100_ ^ 2 ] <= 14327.86
quadratic_ranged_579_ub: [ 1 x_42_ ^ 2 - 2 x_100_ * x_42_ + 1 x_100_ ^ 2 + 1 y_42_ ^ 2 - 2 y_100_ * y_42_ + 1 y_100_ ^ 2 ] <= 8326.44
quadratic_ranged_580_ub: [ 1 x_60_ ^ 2 - 2 x_100_ * x_60_ + 1 x_100_ ^ 2 + 1 y_60_ ^ 2 - 2 y_100_ * y_60_ + 1 y_100_ ^ 2 ] <= 889.8100000000001
quadratic_ranged_581_ub: [ 1 x_79_ ^ 2 - 2 x_100_ * x_79_ + 1 x_100_ ^ 2 + 1 y_79_ ^ 2 - 2 y_100_ * y_79_ + 1 y_100_ ^ 2 ] <= 13923.86
quadratic_ranged_582_ub: [ 1 x_91_ ^ 2 - 2 x_100_ * x_91_ + 1 x_100_ ^ 2 + 1 y_91_ ^ 2 - 2 y_100_ * y_91_ + 1 y_100_ ^ 2 ] <= 2838.1
quadratic_ranged_583_ub: [ 1 x_92_ ^ 2 - 2 x_100_ * x_92_ + 1 x_100_ ^ 2 + 1 y_92_ ^ 2 - 2 y_100_ * y_92_ + 1 y_100_ ^ 2 ] <= 25629.760000000002
quadratic_ranged_584_ub: [ 1 x_93_ ^ 2 - 2 x_100_ * x_93_ + 1 x_100_ ^ 2 + 1 y_93_ ^ 2 - 2 y_100_ * y_93_ + 1 y_100_ ^ 2 ] <= 21824.08
quadratic_ranged_585_ub: [ 1 x_99_ ^ 2 - 2 x_100_ * x_99_ + 1 x_100_ ^ 2 + 1 y_99_ ^ 2 - 2 y_100_ * y_99_ + 1 y_100_ ^ 2 ] <= 6536.72
c1_2: 1 x_1_ >= 0
c2_2: 1 y_1_ >= 0
quadratic_ranged_1_lb: [ 1 x_1_ ^ 2 - 2 x_2_ * x_1_ + 1 x_2_ ^ 2 + 1 y_1_ ^ 2 - 2 y_2_ * y_1_ + 1 y_2_ ^ 2 ] >= 12808.619999999999
quadratic_ranged_2_lb: [ 1 x_2_ ^ 2 - 2 x_3_ * x_2_ + 1 x_3_ ^ 2 + 1 y_2_ ^ 2 - 2 y_3_ * y_2_ + 1 y_3_ ^ 2 ] >= 3747.15
quadratic_ranged_3_lb: [ 1 x_3_ ^ 2 - 2 x_4_ * x_3_ + 1 x_4_ ^ 2 + 1 y_3_ ^ 2 - 2 y_4_ * y_3_ + 1 y_4_ ^ 2 ] >= 18312.03
quadratic_ranged_4_lb: [ 1 x_2_ ^ 2 - 2 x_5_ * x_2_ + 1 x_5_ ^ 2 + 1 y_2_ ^ 2 - 2 y_5_ * y_2_ + 1 y_5_ ^ 2 ] >= 30714.75
quadratic_ranged_5_lb: [ 1 x_4_ ^ 2 - 2 x_5_ * x_4_ + 1 x_5_ ^ 2 + 1 y_4_ ^ 2 - 2 y_5_ * y_4_ + 1 y_5_ ^ 2 ] >= 690.03
quadratic_ranged_6_lb: [ 1 x_2_ ^ 2 - 2 x_6_ * x_2_ + 1 x_6_ ^ 2 + 1 y_2_ ^ 2 - 2 y_6_ * y_2_ + 1 y_6_ ^ 2 ] >= 19017.9
quadratic_ranged_7_lb: [ 1 x_5_ ^ 2 - 2 x_6_ * x_5_ + 1 x_6_ ^ 2 + 1 y_5_ ^ 2 - 2 y_6_ * y_5_ + 1 y_6_ ^ 2 ] >= 17302.23
quadratic_ranged_8_lb: [ 1 x_6_ ^ 2 - 2 x_7_ * x_6_ + 1 x_7_ ^ 2 + 1 y_6_ ^ 2 - 2 y_7_ * y_6_ + 1 y_7_ ^ 2 ] >= 1148.4
quadratic_ranged_9_lb: [ 1 x_7_ ^ 2 - 2 x_8_ * x_7_ + 1 x_8_ ^ 2 + 1 y_7_ ^ 2 - 2 y_8_ * y_7_ + 1 y_8_ ^ 2 ] >= 16540.92
quadratic_ranged_10_lb: [ 1 x_1_ ^ 2 - 2 x_9_ * x_1_ + 1 x_9_ ^ 2 + 1 y_1_ ^ 2 - 2 y_9_ * y_1_ + 1 y_9_ ^ 2 ] >= 13909.5
quadratic_ranged_11_lb: [ 1 x_6_ ^ 2 - 2 x_9_ * x_6_ + 1 x_9_ ^ 2 + 1 y_6_ ^ 2 - 2 y_9_ * y_6_ + 1 y_9_ ^ 2 ] >= 9410.94
quadratic_ranged_12_lb: [ 1 x_7_ ^ 2 - 2 x_9_ * x_7_ + 1 x_9_ ^ 2 + 1 y_7_ ^ 2 - 2 y_9_ * y_7_ + 1 y_9_ ^ 2 ] >= 16546.86
quadratic_ranged_13_lb: [ 1 x_8_ ^ 2 - 2 x_9_ * x_8_ + 1 x_9_ ^ 2 + 1 y_8_ ^ 2 - 2 y_9_ * y_8_ + 1 y_9_ ^ 2 ] >= 2583.9
quadratic_ranged_14_lb: [ 1 x_9_ ^ 2 - 2 x_10_ * x_9_ + 1 x_10_ ^ 2 + 1 y_9_ ^ 2 - 2 y_10_ * y_9_ + 1 y_10_ ^ 2 ] >= 12391.83
quadratic_ranged_15_lb: [ 1 x_7_ ^ 2 - 2 x_11_ * x_7_ + 1 x_11_ ^ 2 + 1 y_7_ ^ 2 - 2 y_11_ * y_7_ + 1 y_11_ ^ 2 ] >= 27515.07
quadratic_ranged_16_lb: [ 1 x_10_ ^ 2 - 2 x_11_ * x_10_ + 1 x_11_ ^ 2 + 1 y_10_ ^ 2 - 2 y_11_ * y_10_ + 1 y_11_ ^ 2 ] >= 1237.5
quadratic_ranged_17_lb: [ 1 x_6_ ^ 2 - 2 x_12_ * x_6_ + 1 x_12_ ^ 2 + 1 y_6_ ^ 2 - 2 y_12_ * y_6_ + 1 y_12_ ^ 2 ] >= 3450.15
quadratic_ranged_18_lb: [ 1 x_11_ ^ 2 - 2 x_12_ * x_11_ + 1 x_12_ ^ 2 + 1 y_11_ ^ 2 - 2 y_12_ * y_11_ + 1 y_12_ ^ 2 ] >= 7999.2
quadratic_ranged_19_lb: [ 1 x_7_ ^ 2 - 2 x_13_ * x_7_ + 1 x_13_ ^ 2 + 1 y_7_ ^ 2 - 2 y_13_ * y_7_ + 1 y_13_ ^ 2 ] >= 24845.04
quadratic_ranged_20_lb: [ 1 x_12_ ^ 2 - 2 x_13_ * x_12_ + 1 x_13_ ^ 2 + 1 y_12_ ^ 2 - 2 y_13_ * y_12_ + 1 y_13_ ^ 2 ] >= 6404.3099999999995
quadratic_ranged_21_lb: [ 1 x_13_ ^ 2 - 2 x_14_ * x_13_ + 1 x_14_ ^ 2 + 1 y_13_ ^ 2 - 2 y_14_ * y_13_ + 1 y_14_ ^ 2 ] >= 5604.39
quadratic_ranged_22_lb: [ 1 x_2_ ^ 2 - 2 x_15_ * x_2_ + 1 x_15_ ^ 2 + 1 y_2_ ^ 2 - 2 y_15_ * y_2_ + 1 y_15_ ^ 2 ] >= 29731.68
quadratic_ranged_23_lb: [ 1 x_10_ ^ 2 - 2 x_15_ * x_10_ + 1 x_15_ ^ 2 + 1 y_10_ ^ 2 - 2 y_15_ * y_10_ + 1 y_15_ ^ 2 ] >= 29368.35
quadratic_ranged_24_lb: [ 1 x_14_ ^ 2 - 2 x_15_ * x_14_ + 1 x_15_ ^ 2 + 1 y_14_ ^ 2 - 2 y_15_ * y_14_ + 1 y_15_ ^ 2 ] >= 10134.63
quadratic_ranged_25_lb: [ 1 x_5_ ^ 2 - 2 x_16_ * x_5_ + 1 x_16_ ^ 2 + 1 y_5_ ^ 2 - 2 y_16_ * y_5_ + 1 y_16_ ^ 2 ] >= 42095.79
quadratic_ranged_26_lb: [ 1 x_7_ ^ 2 - 2 x_16_ * x_7_ + 1 x_16_ ^ 2 + 1 y_7_ ^ 2 - 2 y_16_ * y_7_ + 1 y_16_ ^ 2 ] >= 14455.98
quadratic_ranged_27_lb: [ 1 x_9_ ^ 2 - 2 x_16_ * x_9_ + 1 x_16_ ^ 2 + 1 y_9_ ^ 2 - 2 y_16_ * y_9_ + 1 y_16_ ^ 2 ] >= 2922.48
quadratic_ranged_28_lb: [ 1 x_13_ ^ 2 - 2 x_16_ * x_13_ + 1 x_16_ ^ 2 + 1 y_13_ ^ 2 - 2 y_16_ * y_13_ + 1 y_16_ ^ 2 ] >= 18122.94
quadratic_ranged_29_lb: [ 1 x_15_ ^ 2 - 2 x_16_ * x_15_ + 1 x_16_ ^ 2 + 1 y_15_ ^ 2 - 2 y_16_ * y_15_ + 1 y_16_ ^ 2 ] >= 52846.2
quadratic_ranged_30_lb: [ 1 x_13_ ^ 2 - 2 x_17_ * x_13_ + 1 x_17_ ^ 2 + 1 y_13_ ^ 2 - 2 y_17_ * y_13_ + 1 y_17_ ^ 2 ] >= 3327.39
quadratic_ranged_31_lb: [ 1 x_16_ ^ 2 - 2 x_17_ * x_16_ + 1 x_17_ ^ 2 + 1 y_16_ ^ 2 - 2 y_17_ * y_16_ + 1 y_17_ ^ 2 ] >= 18438.75
quadratic_ranged_32_lb: [ 1 x_17_ ^ 2 - 2 x_18_ * x_17_ + 1 x_18_ ^ 2 + 1 y_17_ ^ 2 - 2 y_18_ * y_17_ + 1 y_18_ ^ 2 ] >= 5014.35
quadratic_ranged_33_lb: [ 1 x_2_ ^ 2 - 2 x_19_ * x_2_ + 1 x_19_ ^ 2 + 1 y_2_ ^ 2 - 2 y_19_ * y_2_ + 1 y_19_ ^ 2 ] >= 21388.95
quadratic_ranged_34_lb: [ 1 x_3_ ^ 2 - 2 x_19_ * x_3_ + 1 x_19_ ^ 2 + 1 y_3_ ^ 2 - 2 y_19_ * y_3_ + 1 y_19_ ^ 2 ] >= 10969.2
quadratic_ranged_35_lb: [ 1 x_10_ ^ 2 - 2 x_19_ * x_10_ + 1 x_19_ ^ 2 + 1 y_10_ ^ 2 - 2 y_19_ * y_10_ + 1 y_19_ ^ 2 ] >= 27533.88
quadratic_ranged_36_lb: [ 1 x_18_ ^ 2 - 2 x_19_ * x_18_ + 1 x_19_ ^ 2 + 1 y_18_ ^ 2 - 2 y_19_ * y_18_ + 1 y_19_ ^ 2 ] >= 18335.79
quadratic_ranged_37_lb: [ 1 x_11_ ^ 2 - 2 x_20_ * x_11_ + 1 x_20_ ^ 2 + 1 y_11_ ^ 2 - 2 y_20_ * y_11_ + 1 y_20_ ^ 2 ] >= 18442.71
quadratic_ranged_38_lb: [ 1 x_17_ ^ 2 - 2 x_20_ * x_17_ + 1 x_20_ ^ 2 + 1 y_17_ ^ 2 - 2 y_20_ * y_17_ + 1 y_20_ ^ 2 ] >= 11298.87
quadratic_ranged_39_lb: [ 1 x_19_ ^ 2 - 2 x_20_ * x_19_ + 1 x_20_ ^ 2 + 1 y_19_ ^ 2 - 2 y_20_ * y_19_ + 1 y_20_ ^ 2 ] >= 9330.75
quadratic_ranged_40_lb: [ 1 x_1_ ^ 2 - 2 x_21_ * x_1_ + 1 x_21_ ^ 2 + 1 y_1_ ^ 2 - 2 y_21_ * y_1_ + 1 y_21_ ^ 2 ] >= 20989.98
quadratic_ranged_41_lb: [ 1 x_18_ ^ 2 - 2 x_21_ * x_18_ + 1 x_21_ ^ 2 + 1 y_18_ ^ 2 - 2 y_21_ * y_18_ + 1 y_21_ ^ 2 ] >= 5452.92
quadratic_ranged_42_lb: [ 1 x_20_ ^ 2 - 2 x_21_ * x_20_ + 1 x_21_ ^ 2 + 1 y_20_ ^ 2 - 2 y_21_ * y_20_ + 1 y_21_ ^ 2 ] >= 54687.6
quadratic_ranged_43_lb: [ 1 x_19_ ^ 2 - 2 x_22_ * x_19_ + 1 x_22_ ^ 2 + 1 y_19_ ^ 2 - 2 y_22_ * y_19_ + 1 y_22_ ^ 2 ] >= 3663
quadratic_ranged_44_lb: [ 1 x_21_ ^ 2 - 2 x_22_ * x_21_ + 1 x_22_ ^ 2 + 1 y_21_ ^ 2 - 2 y_22_ * y_21_ + 1 y_22_ ^ 2 ] >= 20814.75
quadratic_ranged_45_lb: [ 1 x_2_ ^ 2 - 2 x_23_ * x_2_ + 1 x_23_ ^ 2 + 1 y_2_ ^ 2 - 2 y_23_ * y_2_ + 1 y_23_ ^ 2 ] >= 5311.35
quadratic_ranged_46_lb: [ 1 x_4_ ^ 2 - 2 x_23_ * x_4_ + 1 x_23_ ^ 2 + 1 y_4_ ^ 2 - 2 y_23_ * y_4_ + 1 y_23_ ^ 2 ] >= 15639.03
quadratic_ranged_47_lb: [ 1 x_22_ ^ 2 - 2 x_23_ * x_22_ + 1 x_23_ ^ 2 + 1 y_22_ ^ 2 - 2 y_23_ * y_22_ + 1 y_23_ ^ 2 ] >= 5355.9
quadratic_ranged_48_lb: [ 1 x_6_ ^ 2 - 2 x_24_ * x_6_ + 1 x_24_ ^ 2 + 1 y_6_ ^ 2 - 2 y_24_ * y_6_ + 1 y_24_ ^ 2 ] >= 10648.44
quadratic_ranged_49_lb: [ 1 x_9_ ^ 2 - 2 x_24_ * x_9_ + 1 x_24_ ^ 2 + 1 y_9_ ^ 2 - 2 y_24_ * y_9_ + 1 y_24_ ^ 2 ] >= 29899.98
quadratic_ranged_50_lb: [ 1 x_23_ ^ 2 - 2 x_24_ * x_23_ + 1 x_24_ ^ 2 + 1 y_23_ ^ 2 - 2 y_24_ * y_23_ + 1 y_24_ ^ 2 ] >= 27788.31
quadratic_ranged_51_lb: [ 1 x_4_ ^ 2 - 2 x_25_ * x_4_ + 1 x_25_ ^ 2 + 1 y_4_ ^ 2 - 2 y_25_ * y_4_ + 1 y_25_ ^ 2 ] >= 25044.03
quadratic_ranged_52_lb: [ 1 x_24_ ^ 2 - 2 x_25_ * x_24_ + 1 x_25_ ^ 2 + 1 y_24_ ^ 2 - 2 y_25_ * y_24_ + 1 y_25_ ^ 2 ] >= 34848.99
quadratic_ranged_53_lb: [ 1 x_14_ ^ 2 - 2 x_26_ * x_14_ + 1 x_26_ ^ 2 + 1 y_14_ ^ 2 - 2 y_26_ * y_14_ + 1 y_26_ ^ 2 ] >= 4459.95
quadratic_ranged_54_lb: [ 1 x_25_ ^ 2 - 2 x_26_ * x_25_ + 1 x_26_ ^ 2 + 1 y_25_ ^ 2 - 2 y_26_ * y_25_ + 1 y_26_ ^ 2 ] >= 3937.23
quadratic_ranged_55_lb: [ 1 x_2_ ^ 2 - 2 x_27_ * x_2_ + 1 x_27_ ^ 2 + 1 y_2_ ^ 2 - 2 y_27_ * y_2_ + 1 y_27_ ^ 2 ] >= 6290.46
quadratic_ranged_56_lb: [ 1 x_3_ ^ 2 - 2 x_27_ * x_3_ + 1 x_27_ ^ 2 + 1 y_3_ ^ 2 - 2 y_27_ * y_3_ + 1 y_27_ ^ 2 ] >= 14070.869999999999
quadratic_ranged_57_lb: [ 1 x_18_ ^ 2 - 2 x_27_ * x_18_ + 1 x_27_ ^ 2 + 1 y_18_ ^ 2 - 2 y_27_ * y_18_ + 1 y_27_ ^ 2 ] >= 9601.02
quadratic_ranged_58_lb: [ 1 x_26_ ^ 2 - 2 x_27_ * x_26_ + 1 x_27_ ^ 2 + 1 y_26_ ^ 2 - 2 y_27_ * y_26_ + 1 y_27_ ^ 2 ] >= 1934.46
quadratic_ranged_59_lb: [ 1 x_14_ ^ 2 - 2 x_28_ * x_14_ + 1 x_28_ ^ 2 + 1 y_14_ ^ 2 - 2 y_28_ * y_14_ + 1 y_28_ ^ 2 ] >= 10039.59
quadratic_ranged_60_lb: [ 1 x_16_ ^ 2 - 2 x_28_ * x_16_ + 1 x_28_ ^ 2 + 1 y_16_ ^ 2 - 2 y_28_ * y_16_ + 1 y_28_ ^ 2 ] >= 17645.76
quadratic_ranged_61_lb: [ 1 x_17_ ^ 2 - 2 x_28_ * x_17_ + 1 x_28_ ^ 2 + 1 y_17_ ^ 2 - 2 y_28_ * y_17_ + 1 y_28_ ^ 2 ] >= 14344.11
quadratic_ranged_62_lb: [ 1 x_27_ ^ 2 - 2 x_28_ * x_27_ + 1 x_28_ ^ 2 + 1 y_27_ ^ 2 - 2 y_28_ * y_27_ + 1 y_28_ ^ 2 ] >= 43181.82
quadratic_ranged_63_lb: [ 1 x_11_ ^ 2 - 2 x_29_ * x_11_ + 1 x_29_ ^ 2 + 1 y_11_ ^ 2 - 2 y_29_ * y_11_ + 1 y_29_ ^ 2 ] >= 10773.18
quadratic_ranged_64_lb: [ 1 x_13_ ^ 2 - 2 x_29_ * x_13_ + 1 x_29_ ^ 2 + 1 y_13_ ^ 2 - 2 y_29_ * y_13_ + 1 y_29_ ^ 2 ] >= 8804.07
quadratic_ranged_65_lb: [ 1 x_16_ ^ 2 - 2 x_29_ * x_16_ + 1 x_29_ ^ 2 + 1 y_16_ ^ 2 - 2 y_29_ * y_16_ + 1 y_29_ ^ 2 ] >= 7022.07
quadratic_ranged_66_lb: [ 1 x_21_ ^ 2 - 2 x_29_ * x_21_ + 1 x_29_ ^ 2 + 1 y_21_ ^ 2 - 2 y_29_ * y_21_ + 1 y_29_ ^ 2 ] >= 7734.87
quadratic_ranged_67_lb: [ 1 x_27_ ^ 2 - 2 x_29_ * x_27_ + 1 x_29_ ^ 2 + 1 y_27_ ^ 2 - 2 y_29_ * y_27_ + 1 y_29_ ^ 2 ] >= 20497.95
quadratic_ranged_68_lb: [ 1 x_28_ ^ 2 - 2 x_29_ * x_28_ + 1 x_29_ ^ 2 + 1 y_28_ ^ 2 - 2 y_29_ * y_28_ + 1 y_29_ ^ 2 ] >= 6206.3099999999995
quadratic_ranged_69_lb: [ 1 x_6_ ^ 2 - 2 x_30_ * x_6_ + 1 x_30_ ^ 2 + 1 y_6_ ^ 2 - 2 y_30_ * y_6_ + 1 y_30_ ^ 2 ] >= 3619.44
quadratic_ranged_70_lb: [ 1 x_25_ ^ 2 - 2 x_30_ * x_25_ + 1 x_30_ ^ 2 + 1 y_25_ ^ 2 - 2 y_30_ * y_25_ + 1 y_30_ ^ 2 ] >= 10300.95
quadratic_ranged_71_lb: [ 1 x_29_ ^ 2 - 2 x_30_ * x_29_ + 1 x_30_ ^ 2 + 1 y_29_ ^ 2 - 2 y_30_ * y_29_ + 1 y_30_ ^ 2 ] >= 262.35
quadratic_ranged_72_lb: [ 1 x_7_ ^ 2 - 2 x_31_ * x_7_ + 1 x_31_ ^ 2 + 1 y_7_ ^ 2 - 2 y_31_ * y_7_ + 1 y_31_ ^ 2 ] >= 11682.99
quadratic_ranged_73_lb: [ 1 x_24_ ^ 2 - 2 x_31_ * x_24_ + 1 x_31_ ^ 2 + 1 y_24_ ^ 2 - 2 y_31_ * y_24_ + 1 y_31_ ^ 2 ] >= 21963.15
quadratic_ranged_74_lb: [ 1 x_27_ ^ 2 - 2 x_31_ * x_27_ + 1 x_31_ ^ 2 + 1 y_27_ ^ 2 - 2 y_31_ * y_27_ + 1 y_31_ ^ 2 ] >= 17258.67
quadratic_ranged_75_lb: [ 1 x_30_ ^ 2 - 2 x_31_ * x_30_ + 1 x_31_ ^ 2 + 1 y_30_ ^ 2 - 2 y_31_ * y_30_ + 1 y_31_ ^ 2 ] >= 1141.47
quadratic_ranged_76_lb: [ 1 x_5_ ^ 2 - 2 x_32_ * x_5_ + 1 x_32_ ^ 2 + 1 y_5_ ^ 2 - 2 y_32_ * y_5_ + 1 y_32_ ^ 2 ] >= 19277.28
quadratic_ranged_77_lb: [ 1 x_15_ ^ 2 - 2 x_32_ * x_15_ + 1 x_32_ ^ 2 + 1 y_15_ ^ 2 - 2 y_32_ * y_15_ + 1 y_32_ ^ 2 ] >= 32306.67
quadratic_ranged_78_lb: [ 1 x_17_ ^ 2 - 2 x_32_ * x_17_ + 1 x_32_ ^ 2 + 1 y_17_ ^ 2 - 2 y_32_ * y_17_ + 1 y_32_ ^ 2 ] >= 15232.14
quadratic_ranged_79_lb: [ 1 x_23_ ^ 2 - 2 x_32_ * x_23_ + 1 x_32_ ^ 2 + 1 y_23_ ^ 2 - 2 y_32_ * y_23_ + 1 y_32_ ^ 2 ] >= 36996.3
quadratic_ranged_80_lb: [ 1 x_31_ ^ 2 - 2 x_32_ * x_31_ + 1 x_32_ ^ 2 + 1 y_31_ ^ 2 - 2 y_32_ * y_31_ + 1 y_32_ ^ 2 ] >= 10220.76
quadratic_ranged_81_lb: [ 1 x_5_ ^ 2 - 2 x_33_ * x_5_ + 1 x_33_ ^ 2 + 1 y_5_ ^ 2 - 2 y_33_ * y_5_ + 1 y_33_ ^ 2 ] >= 35119.26
quadratic_ranged_82_lb: [ 1 x_12_ ^ 2 - 2 x_33_ * x_12_ + 1 x_33_ ^ 2 + 1 y_12_ ^ 2 - 2 y_33_ * y_12_ + 1 y_33_ ^ 2 ] >= 5361.84
quadratic_ranged_83_lb: [ 1 x_14_ ^ 2 - 2 x_33_ * x_14_ + 1 x_33_ ^ 2 + 1 y_14_ ^ 2 - 2 y_33_ * y_14_ + 1 y_33_ ^ 2 ] >= 12206.7
quadratic_ranged_84_lb: [ 1 x_23_ ^ 2 - 2 x_33_ * x_23_ + 1 x_33_ ^ 2 + 1 y_23_ ^ 2 - 2 y_33_ * y_23_ + 1 y_33_ ^ 2 ] >= 26302.32
quadratic_ranged_85_lb: [ 1 x_32_ ^ 2 - 2 x_33_ * x_32_ + 1 x_33_ ^ 2 + 1 y_32_ ^ 2 - 2 y_33_ * y_32_ + 1 y_33_ ^ 2 ] >= 8484.3
quadratic_ranged_86_lb: [ 1 x_8_ ^ 2 - 2 x_34_ * x_8_ + 1 x_34_ ^ 2 + 1 y_8_ ^ 2 - 2 y_34_ * y_8_ + 1 y_34_ ^ 2 ] >= 44197.56
quadratic_ranged_87_lb: [ 1 x_16_ ^ 2 - 2 x_34_ * x_16_ + 1 x_34_ ^ 2 + 1 y_16_ ^ 2 - 2 y_34_ * y_16_ + 1 y_34_ ^ 2 ] >= 42777.9
quadratic_ranged_88_lb: [ 1 x_23_ ^ 2 - 2 x_34_ * x_23_ + 1 x_34_ ^ 2 + 1 y_23_ ^ 2 - 2 y_34_ * y_23_ + 1 y_34_ ^ 2 ] >= 10586.07
quadratic_ranged_89_lb: [ 1 x_25_ ^ 2 - 2 x_34_ * x_25_ + 1 x_34_ ^ 2 + 1 y_25_ ^ 2 - 2 y_34_ * y_25_ + 1 y_34_ ^ 2 ] >= 19571.31
quadratic_ranged_90_lb: [ 1 x_33_ ^ 2 - 2 x_34_ * x_33_ + 1 x_34_ ^ 2 + 1 y_33_ ^ 2 - 2 y_34_ * y_33_ + 1 y_34_ ^ 2 ] >= 35070.75
quadratic_ranged_91_lb: [ 1 x_4_ ^ 2 - 2 x_35_ * x_4_ + 1 x_35_ ^ 2 + 1 y_4_ ^ 2 - 2 y_35_ * y_4_ + 1 y_35_ ^ 2 ] >= 16153.83
quadratic_ranged_92_lb: [ 1 x_6_ ^ 2 - 2 x_35_ * x_6_ + 1 x_35_ ^ 2 + 1 y_6_ ^ 2 - 2 y_35_ * y_6_ + 1 y_35_ ^ 2 ] >= 25614.27
quadratic_ranged_93_lb: [ 1 x_17_ ^ 2 - 2 x_35_ * x_17_ + 1 x_35_ ^ 2 + 1 y_17_ ^ 2 - 2 y_35_ * y_17_ + 1 y_35_ ^ 2 ] >= 4017.42
quadratic_ranged_94_lb: [ 1 x_24_ ^ 2 - 2 x_35_ * x_24_ + 1 x_35_ ^ 2 + 1 y_24_ ^ 2 - 2 y_35_ * y_24_ + 1 y_35_ ^ 2 ] >= 26901.27
quadratic_ranged_95_lb: [ 1 x_29_ ^ 2 - 2 x_35_ * x_29_ + 1 x_35_ ^ 2 + 1 y_29_ ^ 2 - 2 y_35_ * y_29_ + 1 y_35_ ^ 2 ] >= 13563
quadratic_ranged_96_lb: [ 1 x_30_ ^ 2 - 2 x_35_ * x_30_ + 1 x_35_ ^ 2 + 1 y_30_ ^ 2 - 2 y_35_ * y_30_ + 1 y_35_ ^ 2 ] >= 10340.55
quadratic_ranged_97_lb: [ 1 x_32_ ^ 2 - 2 x_35_ * x_32_ + 1 x_35_ ^ 2 + 1 y_32_ ^ 2 - 2 y_35_ * y_32_ + 1 y_35_ ^ 2 ] >= 33303.6
quadratic_ranged_98_lb: [ 1 x_33_ ^ 2 - 2 x_35_ * x_33_ + 1 x_35_ ^ 2 + 1 y_33_ ^ 2 - 2 y_35_ * y_33_ + 1 y_35_ ^ 2 ] >= 22146.3
quadratic_ranged_99_lb: [ 1 x_34_ ^ 2 - 2 x_35_ * x_34_ + 1 x_35_ ^ 2 + 1 y_34_ ^ 2 - 2 y_35_ * y_34_ + 1 y_35_ ^ 2 ] >= 11350.35
quadratic_ranged_100_lb: [ 1 x_14_ ^ 2 - 2 x_36_ * x_14_ + 1 x_36_ ^ 2 + 1 y_14_ ^ 2 - 2 y_36_ * y_14_ + 1 y_36_ ^ 2 ] >= 18220.95
quadratic_ranged_101_lb: [ 1 x_23_ ^ 2 - 2 x_36_ * x_23_ + 1 x_36_ ^ 2 + 1 y_23_ ^ 2 - 2 y_36_ * y_23_ + 1 y_36_ ^ 2 ] >= 26738.91
quadratic_ranged_102_lb: [ 1 x_24_ ^ 2 - 2 x_36_ * x_24_ + 1 x_36_ ^ 2 + 1 y_24_ ^ 2 - 2 y_36_ * y_24_ + 1 y_36_ ^ 2 ] >= 42142.32
quadratic_ranged_103_lb: [ 1 x_32_ ^ 2 - 2 x_36_ * x_32_ + 1 x_36_ ^ 2 + 1 y_32_ ^ 2 - 2 y_36_ * y_32_ + 1 y_36_ ^ 2 ] >= 18181.35
quadratic_ranged_104_lb: [ 1 x_35_ ^ 2 - 2 x_36_ * x_35_ + 1 x_36_ ^ 2 + 1 y_35_ ^ 2 - 2 y_36_ * y_35_ + 1 y_36_ ^ 2 ] >= 22398.75
quadratic_ranged_105_lb: [ 1 x_8_ ^ 2 - 2 x_37_ * x_8_ + 1 x_37_ ^ 2 + 1 y_8_ ^ 2 - 2 y_37_ * y_8_ + 1 y_37_ ^ 2 ] >= 15226.2
quadratic_ranged_106_lb: [ 1 x_36_ ^ 2 - 2 x_37_ * x_36_ + 1 x_37_ ^ 2 + 1 y_36_ ^ 2 - 2 y_37_ * y_36_ + 1 y_37_ ^ 2 ] >= 22164.12
quadratic_ranged_107_lb: [ 1 x_3_ ^ 2 - 2 x_38_ * x_3_ + 1 x_38_ ^ 2 + 1 y_3_ ^ 2 - 2 y_38_ * y_3_ + 1 y_38_ ^ 2 ] >= 9799.02
quadratic_ranged_108_lb: [ 1 x_9_ ^ 2 - 2 x_38_ * x_9_ + 1 x_38_ ^ 2 + 1 y_9_ ^ 2 - 2 y_38_ * y_9_ + 1 y_38_ ^ 2 ] >= 10126.71
quadratic_ranged_109_lb: [ 1 x_11_ ^ 2 - 2 x_38_ * x_11_ + 1 x_38_ ^ 2 + 1 y_11_ ^ 2 - 2 y_38_ * y_11_ + 1 y_38_ ^ 2 ] >= 1762.2
quadratic_ranged_110_lb: [ 1 x_20_ ^ 2 - 2 x_38_ * x_20_ + 1 x_38_ ^ 2 + 1 y_20_ ^ 2 - 2 y_38_ * y_20_ + 1 y_38_ ^ 2 ] >= 30370.23
quadratic_ranged_111_lb: [ 1 x_37_ ^ 2 - 2 x_38_ * x_37_ + 1 x_38_ ^ 2 + 1 y_37_ ^ 2 - 2 y_38_ * y_37_ + 1 y_38_ ^ 2 ] >= 42495.75
quadratic_ranged_112_lb: [ 1 x_7_ ^ 2 - 2 x_39_ * x_7_ + 1 x_39_ ^ 2 + 1 y_7_ ^ 2 - 2 y_39_ * y_7_ + 1 y_39_ ^ 2 ] >= 17472.51
quadratic_ranged_113_lb: [ 1 x_8_ ^ 2 - 2 x_39_ * x_8_ + 1 x_39_ ^ 2 + 1 y_8_ ^ 2 - 2 y_39_ * y_8_ + 1 y_39_ ^ 2 ] >= 1093.95
quadratic_ranged_114_lb: [ 1 x_12_ ^ 2 - 2 x_39_ * x_12_ + 1 x_39_ ^ 2 + 1 y_12_ ^ 2 - 2 y_39_ * y_12_ + 1 y_39_ ^ 2 ] >= 6415.2
quadratic_ranged_115_lb: [ 1 x_14_ ^ 2 - 2 x_39_ * x_14_ + 1 x_39_ ^ 2 + 1 y_14_ ^ 2 - 2 y_39_ * y_14_ + 1 y_39_ ^ 2 ] >= 12911.58
quadratic_ranged_116_lb: [ 1 x_17_ ^ 2 - 2 x_39_ * x_17_ + 1 x_39_ ^ 2 + 1 y_17_ ^ 2 - 2 y_39_ * y_17_ + 1 y_39_ ^ 2 ] >= 13008.6
quadratic_ranged_117_lb: [ 1 x_19_ ^ 2 - 2 x_39_ * x_19_ + 1 x_39_ ^ 2 + 1 y_19_ ^ 2 - 2 y_39_ * y_19_ + 1 y_39_ ^ 2 ] >= 25575.66
quadratic_ranged_118_lb: [ 1 x_36_ ^ 2 - 2 x_39_ * x_36_ + 1 x_39_ ^ 2 + 1 y_36_ ^ 2 - 2 y_39_ * y_36_ + 1 y_39_ ^ 2 ] >= 476.19
quadratic_ranged_119_lb: [ 1 x_38_ ^ 2 - 2 x_39_ * x_38_ + 1 x_39_ ^ 2 + 1 y_38_ ^ 2 - 2 y_39_ * y_38_ + 1 y_39_ ^ 2 ] >= 13642.2
quadratic_ranged_120_lb: [ 1 x_12_ ^ 2 - 2 x_40_ * x_12_ + 1 x_40_ ^ 2 + 1 y_12_ ^ 2 - 2 y_40_ * y_12_ + 1 y_40_ ^ 2 ] >= 19871.28
quadratic_ranged_121_lb: [ 1 x_32_ ^ 2 - 2 x_40_ * x_32_ + 1 x_40_ ^ 2 + 1 y_32_ ^ 2 - 2 y_40_ * y_32_ + 1 y_40_ ^ 2 ] >= 49058.46
quadratic_ranged_122_lb: [ 1 x_36_ ^ 2 - 2 x_40_ * x_36_ + 1 x_40_ ^ 2 + 1 y_36_ ^ 2 - 2 y_40_ * y_36_ + 1 y_40_ ^ 2 ] >= 22576.95
quadratic_ranged_123_lb: [ 1 x_39_ ^ 2 - 2 x_40_ * x_39_ + 1 x_40_ ^ 2 + 1 y_39_ ^ 2 - 2 y_40_ * y_39_ + 1 y_40_ ^ 2 ] >= 20441.52
quadratic_ranged_124_lb: [ 1 x_12_ ^ 2 - 2 x_41_ * x_12_ + 1 x_41_ ^ 2 + 1 y_12_ ^ 2 - 2 y_41_ * y_12_ + 1 y_41_ ^ 2 ] >= 4855.95
quadratic_ranged_125_lb: [ 1 x_27_ ^ 2 - 2 x_41_ * x_27_ + 1 x_41_ ^ 2 + 1 y_27_ ^ 2 - 2 y_41_ * y_27_ + 1 y_41_ ^ 2 ] >= 4866.84
quadratic_ranged_126_lb: [ 1 x_29_ ^ 2 - 2 x_41_ * x_29_ + 1 x_41_ ^ 2 + 1 y_29_ ^ 2 - 2 y_41_ * y_29_ + 1 y_41_ ^ 2 ] >= 6887.43
quadratic_ranged_127_lb: [ 1 x_31_ ^ 2 - 2 x_41_ * x_31_ + 1 x_41_ ^ 2 + 1 y_31_ ^ 2 - 2 y_41_ * y_31_ + 1 y_41_ ^ 2 ] >= 3854.07
quadratic_ranged_128_lb: [ 1 x_34_ ^ 2 - 2 x_41_ * x_34_ + 1 x_41_ ^ 2 + 1 y_34_ ^ 2 - 2 y_41_ * y_34_ + 1 y_41_ ^ 2 ] >= 15368.76
quadratic_ranged_129_lb: [ 1 x_40_ ^ 2 - 2 x_41_ * x_40_ + 1 x_41_ ^ 2 + 1 y_40_ ^ 2 - 2 y_41_ * y_40_ + 1 y_41_ ^ 2 ] >= 5089.59
quadratic_ranged_130_lb: [ 1 x_3_ ^ 2 - 2 x_42_ * x_3_ + 1 x_42_ ^ 2 + 1 y_3_ ^ 2 - 2 y_42_ * y_3_ + 1 y_42_ ^ 2 ] >= 868.23
quadratic_ranged_131_lb: [ 1 x_6_ ^ 2 - 2 x_42_ * x_6_ + 1 x_42_ ^ 2 + 1 y_6_ ^ 2 - 2 y_42_ * y_6_ + 1 y_42_ ^ 2 ] >= 10598.94
quadratic_ranged_132_lb: [ 1 x_18_ ^ 2 - 2 x_42_ * x_18_ + 1 x_42_ ^ 2 + 1 y_18_ ^ 2 - 2 y_42_ * y_18_ + 1 y_42_ ^ 2 ] >= 839.52
quadratic_ranged_133_lb: [ 1 x_30_ ^ 2 - 2 x_42_ * x_30_ + 1 x_42_ ^ 2 + 1 y_30_ ^ 2 - 2 y_42_ * y_30_ + 1 y_42_ ^ 2 ] >= 1831.5
quadratic_ranged_134_lb: [ 1 x_32_ ^ 2 - 2 x_42_ * x_32_ + 1 x_42_ ^ 2 + 1 y_32_ ^ 2 - 2 y_42_ * y_32_ + 1 y_42_ ^ 2 ] >= 15924.15
quadratic_ranged_135_lb: [ 1 x_41_ ^ 2 - 2 x_42_ * x_41_ + 1 x_42_ ^ 2 + 1 y_41_ ^ 2 - 2 y_42_ * y_41_ + 1 y_42_ ^ 2 ] >= 580.14
quadratic_ranged_136_lb: [ 1 x_17_ ^ 2 - 2 x_43_ * x_17_ + 1 x_43_ ^ 2 + 1 y_17_ ^ 2 - 2 y_43_ * y_17_ + 1 y_43_ ^ 2 ] >= 8736.75
quadratic_ranged_137_lb: [ 1 x_25_ ^ 2 - 2 x_43_ * x_25_ + 1 x_43_ ^ 2 + 1 y_25_ ^ 2 - 2 y_43_ * y_25_ + 1 y_43_ ^ 2 ] >= 373.23
quadratic_ranged_138_lb: [ 1 x_28_ ^ 2 - 2 x_43_ * x_28_ + 1 x_43_ ^ 2 + 1 y_28_ ^ 2 - 2 y_43_ * y_28_ + 1 y_43_ ^ 2 ] >= 39047.58
quadratic_ranged_139_lb: [ 1 x_29_ ^ 2 - 2 x_43_ * x_29_ + 1 x_43_ ^ 2 + 1 y_29_ ^ 2 - 2 y_43_ * y_29_ + 1 y_43_ ^ 2 ] >= 14498.55
quadratic_ranged_140_lb: [ 1 x_36_ ^ 2 - 2 x_43_ * x_36_ + 1 x_43_ ^ 2 + 1 y_36_ ^ 2 - 2 y_43_ * y_36_ + 1 y_43_ ^ 2 ] >= 12454.2
quadratic_ranged_141_lb: [ 1 x_42_ ^ 2 - 2 x_43_ * x_42_ + 1 x_43_ ^ 2 + 1 y_42_ ^ 2 - 2 y_43_ * y_42_ + 1 y_43_ ^ 2 ] >= 3993.66
quadratic_ranged_142_lb: [ 1 x_4_ ^ 2 - 2 x_44_ * x_4_ + 1 x_44_ ^ 2 + 1 y_4_ ^ 2 - 2 y_44_ * y_4_ + 1 y_44_ ^ 2 ] >= 35704.35
quadratic_ranged_143_lb: [ 1 x_7_ ^ 2 - 2 x_44_ * x_7_ + 1 x_44_ ^ 2 + 1 y_7_ ^ 2 - 2 y_44_ * y_7_ + 1 y_44_ ^ 2 ] >= 14055.03
quadratic_ranged_144_lb: [ 1 x_27_ ^ 2 - 2 x_44_ * x_27_ + 1 x_44_ ^ 2 + 1 y_27_ ^ 2 - 2 y_44_ * y_27_ + 1 y_44_ ^ 2 ] >= 27503.19
quadratic_ranged_145_lb: [ 1 x_28_ ^ 2 - 2 x_44_ * x_28_ + 1 x_44_ ^ 2 + 1 y_28_ ^ 2 - 2 y_44_ * y_28_ + 1 y_44_ ^ 2 ] >= 17298.27
quadratic_ranged_146_lb: [ 1 x_43_ ^ 2 - 2 x_44_ * x_43_ + 1 x_44_ ^ 2 + 1 y_43_ ^ 2 - 2 y_44_ * y_43_ + 1 y_44_ ^ 2 ] >= 13140.27
quadratic_ranged_147_lb: [ 1 x_19_ ^ 2 - 2 x_45_ * x_19_ + 1 x_45_ ^ 2 + 1 y_19_ ^ 2 - 2 y_45_ * y_19_ + 1 y_45_ ^ 2 ] >= 25860.78
quadratic_ranged_148_lb: [ 1 x_20_ ^ 2 - 2 x_45_ * x_20_ + 1 x_45_ ^ 2 + 1 y_20_ ^ 2 - 2 y_45_ * y_20_ + 1 y_45_ ^ 2 ] >= 42020.55
quadratic_ranged_149_lb: [ 1 x_44_ ^ 2 - 2 x_45_ * x_44_ + 1 x_45_ ^ 2 + 1 y_44_ ^ 2 - 2 y_45_ * y_44_ + 1 y_45_ ^ 2 ] >= 2623.5
quadratic_ranged_150_lb: [ 1 x_2_ ^ 2 - 2 x_46_ * x_2_ + 1 x_46_ ^ 2 + 1 y_2_ ^ 2 - 2 y_46_ * y_2_ + 1 y_46_ ^ 2 ] >= 13429.35
quadratic_ranged_151_lb: [ 1 x_11_ ^ 2 - 2 x_46_ * x_11_ + 1 x_46_ ^ 2 + 1 y_11_ ^ 2 - 2 y_46_ * y_11_ + 1 y_46_ ^ 2 ] >= 19105.02
quadratic_ranged_152_lb: [ 1 x_45_ ^ 2 - 2 x_46_ * x_45_ + 1 x_46_ ^ 2 + 1 y_45_ ^ 2 - 2 y_46_ * y_45_ + 1 y_46_ ^ 2 ] >= 7129.98
quadratic_ranged_153_lb: [ 1 x_16_ ^ 2 - 2 x_47_ * x_16_ + 1 x_47_ ^ 2 + 1 y_16_ ^ 2 - 2 y_47_ * y_16_ + 1 y_47_ ^ 2 ] >= 1505.79
quadratic_ranged_154_lb: [ 1 x_27_ ^ 2 - 2 x_47_ * x_27_ + 1 x_47_ ^ 2 + 1 y_27_ ^ 2 - 2 y_47_ * y_27_ + 1 y_47_ ^ 2 ] >= 37446.75
quadratic_ranged_155_lb: [ 1 x_41_ ^ 2 - 2 x_47_ * x_41_ + 1 x_47_ ^ 2 + 1 y_41_ ^ 2 - 2 y_47_ * y_41_ + 1 y_47_ ^ 2 ] >= 15753.869999999999
quadratic_ranged_156_lb: [ 1 x_43_ ^ 2 - 2 x_47_ * x_43_ + 1 x_47_ ^ 2 + 1 y_43_ ^ 2 - 2 y_47_ * y_43_ + 1 y_47_ ^ 2 ] >= 23440.23
quadratic_ranged_157_lb: [ 1 x_46_ ^ 2 - 2 x_47_ * x_46_ + 1 x_47_ ^ 2 + 1 y_46_ ^ 2 - 2 y_47_ * y_46_ + 1 y_47_ ^ 2 ] >= 144.54
quadratic_ranged_158_lb: [ 1 x_6_ ^ 2 - 2 x_48_ * x_6_ + 1 x_48_ ^ 2 + 1 y_6_ ^ 2 - 2 y_48_ * y_6_ + 1 y_48_ ^ 2 ] >= 3628.35
quadratic_ranged_159_lb: [ 1 x_26_ ^ 2 - 2 x_48_ * x_26_ + 1 x_48_ ^ 2 + 1 y_26_ ^ 2 - 2 y_48_ * y_26_ + 1 y_48_ ^ 2 ] >= 11528.55
quadratic_ranged_160_lb: [ 1 x_39_ ^ 2 - 2 x_48_ * x_39_ + 1 x_48_ ^ 2 + 1 y_39_ ^ 2 - 2 y_48_ * y_39_ + 1 y_48_ ^ 2 ] >= 16000.38
quadratic_ranged_161_lb: [ 1 x_41_ ^ 2 - 2 x_48_ * x_41_ + 1 x_48_ ^ 2 + 1 y_41_ ^ 2 - 2 y_48_ * y_41_ + 1 y_48_ ^ 2 ] >= 11595.87
quadratic_ranged_162_lb: [ 1 x_47_ ^ 2 - 2 x_48_ * x_47_ + 1 x_48_ ^ 2 + 1 y_47_ ^ 2 - 2 y_48_ * y_47_ + 1 y_48_ ^ 2 ] >= 10282.14
quadratic_ranged_163_lb: [ 1 x_3_ ^ 2 - 2 x_49_ * x_3_ + 1 x_49_ ^ 2 + 1 y_3_ ^ 2 - 2 y_49_ * y_3_ + 1 y_49_ ^ 2 ] >= 14028.3
quadratic_ranged_164_lb: [ 1 x_29_ ^ 2 - 2 x_49_ * x_29_ + 1 x_49_ ^ 2 + 1 y_29_ ^ 2 - 2 y_49_ * y_29_ + 1 y_49_ ^ 2 ] >= 14598.539999999999
quadratic_ranged_165_lb: [ 1 x_40_ ^ 2 - 2 x_49_ * x_40_ + 1 x_49_ ^ 2 + 1 y_40_ ^ 2 - 2 y_49_ * y_40_ + 1 y_49_ ^ 2 ] >= 18346.68
quadratic_ranged_166_lb: [ 1 x_48_ ^ 2 - 2 x_49_ * x_48_ + 1 x_49_ ^ 2 + 1 y_48_ ^ 2 - 2 y_49_ * y_48_ + 1 y_49_ ^ 2 ] >= 9363.42
quadratic_ranged_167_lb: [ 1 x_3_ ^ 2 - 2 x_50_ * x_3_ + 1 x_50_ ^ 2 + 1 y_3_ ^ 2 - 2 y_50_ * y_3_ + 1 y_50_ ^ 2 ] >= 19151.55
quadratic_ranged_168_lb: [ 1 x_17_ ^ 2 - 2 x_50_ * x_17_ + 1 x_50_ ^ 2 + 1 y_17_ ^ 2 - 2 y_50_ * y_17_ + 1 y_50_ ^ 2 ] >= 9172.35
quadratic_ranged_169_lb: [ 1 x_18_ ^ 2 - 2 x_50_ * x_18_ + 1 x_50_ ^ 2 + 1 y_18_ ^ 2 - 2 y_50_ * y_18_ + 1 y_50_ ^ 2 ] >= 27254.7
quadratic_ranged_170_lb: [ 1 x_19_ ^ 2 - 2 x_50_ * x_19_ + 1 x_50_ ^ 2 + 1 y_19_ ^ 2 - 2 y_50_ * y_19_ + 1 y_50_ ^ 2 ] >= 1390.95
quadratic_ranged_171_lb: [ 1 x_24_ ^ 2 - 2 x_50_ * x_24_ + 1 x_50_ ^ 2 + 1 y_24_ ^ 2 - 2 y_50_ * y_24_ + 1 y_50_ ^ 2 ] >= 1762.2
quadratic_ranged_172_lb: [ 1 x_26_ ^ 2 - 2 x_50_ * x_26_ + 1 x_50_ ^ 2 + 1 y_26_ ^ 2 - 2 y_50_ * y_26_ + 1 y_50_ ^ 2 ] >= 13703.58
quadratic_ranged_173_lb: [ 1 x_29_ ^ 2 - 2 x_50_ * x_29_ + 1 x_50_ ^ 2 + 1 y_29_ ^ 2 - 2 y_50_ * y_29_ + 1 y_50_ ^ 2 ] >= 14553.99
quadratic_ranged_174_lb: [ 1 x_41_ ^ 2 - 2 x_50_ * x_41_ + 1 x_50_ ^ 2 + 1 y_41_ ^ 2 - 2 y_50_ * y_41_ + 1 y_50_ ^ 2 ] >= 22290.84
quadratic_ranged_175_lb: [ 1 x_49_ ^ 2 - 2 x_50_ * x_49_ + 1 x_50_ ^ 2 + 1 y_49_ ^ 2 - 2 y_50_ * y_49_ + 1 y_50_ ^ 2 ] >= 5568.75
quadratic_ranged_176_lb: [ 1 x_24_ ^ 2 - 2 x_51_ * x_24_ + 1 x_51_ ^ 2 + 1 y_24_ ^ 2 - 2 y_51_ * y_24_ + 1 y_51_ ^ 2 ] >= 8661.51
quadratic_ranged_177_lb: [ 1 x_25_ ^ 2 - 2 x_51_ * x_25_ + 1 x_51_ ^ 2 + 1 y_25_ ^ 2 - 2 y_51_ * y_25_ + 1 y_51_ ^ 2 ] >= 20726.64
quadratic_ranged_178_lb: [ 1 x_39_ ^ 2 - 2 x_51_ * x_39_ + 1 x_51_ ^ 2 + 1 y_39_ ^ 2 - 2 y_51_ * y_39_ + 1 y_51_ ^ 2 ] >= 9139.68
quadratic_ranged_179_lb: [ 1 x_42_ ^ 2 - 2 x_51_ * x_42_ + 1 x_51_ ^ 2 + 1 y_42_ ^ 2 - 2 y_51_ * y_42_ + 1 y_51_ ^ 2 ] >= 7271.55
quadratic_ranged_180_lb: [ 1 x_49_ ^ 2 - 2 x_51_ * x_49_ + 1 x_51_ ^ 2 + 1 y_49_ ^ 2 - 2 y_51_ * y_49_ + 1 y_51_ ^ 2 ] >= 17570.52
quadratic_ranged_181_lb: [ 1 x_50_ ^ 2 - 2 x_51_ * x_50_ + 1 x_51_ ^ 2 + 1 y_50_ ^ 2 - 2 y_51_ * y_50_ + 1 y_51_ ^ 2 ] >= 13516.47
quadratic_ranged_182_lb: [ 1 x_1_ ^ 2 - 2 x_52_ * x_1_ + 1 x_52_ ^ 2 + 1 y_1_ ^ 2 - 2 y_52_ * y_1_ + 1 y_52_ ^ 2 ] >= 18851.579999999998
quadratic_ranged_183_lb: [ 1 x_17_ ^ 2 - 2 x_52_ * x_17_ + 1 x_52_ ^ 2 + 1 y_17_ ^ 2 - 2 y_52_ * y_17_ + 1 y_52_ ^ 2 ] >= 9706.95
quadratic_ranged_184_lb: [ 1 x_41_ ^ 2 - 2 x_52_ * x_41_ + 1 x_52_ ^ 2 + 1 y_41_ ^ 2 - 2 y_52_ * y_41_ + 1 y_52_ ^ 2 ] >= 2457.18
quadratic_ranged_185_lb: [ 1 x_51_ ^ 2 - 2 x_52_ * x_51_ + 1 x_52_ ^ 2 + 1 y_51_ ^ 2 - 2 y_52_ * y_51_ + 1 y_52_ ^ 2 ] >= 25063.829999999998
quadratic_ranged_186_lb: [ 1 x_2_ ^ 2 - 2 x_53_ * x_2_ + 1 x_53_ ^ 2 + 1 y_2_ ^ 2 - 2 y_53_ * y_2_ + 1 y_53_ ^ 2 ] >= 24647.04
quadratic_ranged_187_lb: [ 1 x_4_ ^ 2 - 2 x_53_ * x_4_ + 1 x_53_ ^ 2 + 1 y_4_ ^ 2 - 2 y_53_ * y_4_ + 1 y_53_ ^ 2 ] >= 12117.6
quadratic_ranged_188_lb: [ 1 x_8_ ^ 2 - 2 x_53_ * x_8_ + 1 x_53_ ^ 2 + 1 y_8_ ^ 2 - 2 y_53_ * y_8_ + 1 y_53_ ^ 2 ] >= 18724.86
quadratic_ranged_189_lb: [ 1 x_30_ ^ 2 - 2 x_53_ * x_30_ + 1 x_53_ ^ 2 + 1 y_30_ ^ 2 - 2 y_53_ * y_30_ + 1 y_53_ ^ 2 ] >= 6227.1
quadratic_ranged_190_lb: [ 1 x_33_ ^ 2 - 2 x_53_ * x_33_ + 1 x_53_ ^ 2 + 1 y_33_ ^ 2 - 2 y_53_ * y_33_ + 1 y_53_ ^ 2 ] >= 13488.75
quadratic_ranged_191_lb: [ 1 x_52_ ^ 2 - 2 x_53_ * x_52_ + 1 x_53_ ^ 2 + 1 y_52_ ^ 2 - 2 y_53_ * y_52_ + 1 y_53_ ^ 2 ] >= 36194.4
quadratic_ranged_192_lb: [ 1 x_5_ ^ 2 - 2 x_54_ * x_5_ + 1 x_54_ ^ 2 + 1 y_5_ ^ 2 - 2 y_54_ * y_5_ + 1 y_54_ ^ 2 ] >= 36495.36
quadratic_ranged_193_lb: [ 1 x_46_ ^ 2 - 2 x_54_ * x_46_ + 1 x_54_ ^ 2 + 1 y_46_ ^ 2 - 2 y_54_ * y_46_ + 1 y_54_ ^ 2 ] >= 16671.6
quadratic_ranged_194_lb: [ 1 x_49_ ^ 2 - 2 x_54_ * x_49_ + 1 x_54_ ^ 2 + 1 y_49_ ^ 2 - 2 y_54_ * y_49_ + 1 y_54_ ^ 2 ] >= 18661.5
quadratic_ranged_195_lb: [ 1 x_53_ ^ 2 - 2 x_54_ * x_53_ + 1 x_54_ ^ 2 + 1 y_53_ ^ 2 - 2 y_54_ * y_53_ + 1 y_54_ ^ 2 ] >= 30366.27
quadratic_ranged_196_lb: [ 1 x_20_ ^ 2 - 2 x_55_ * x_20_ + 1 x_55_ ^ 2 + 1 y_20_ ^ 2 - 2 y_55_ * y_20_ + 1 y_55_ ^ 2 ] >= 44875.71
quadratic_ranged_197_lb: [ 1 x_35_ ^ 2 - 2 x_55_ * x_35_ + 1 x_55_ ^ 2 + 1 y_35_ ^ 2 - 2 y_55_ * y_35_ + 1 y_55_ ^ 2 ] >= 30105.9
quadratic_ranged_198_lb: [ 1 x_54_ ^ 2 - 2 x_55_ * x_54_ + 1 x_55_ ^ 2 + 1 y_54_ ^ 2 - 2 y_55_ * y_54_ + 1 y_55_ ^ 2 ] >= 24530.22
quadratic_ranged_199_lb: [ 1 x_17_ ^ 2 - 2 x_56_ * x_17_ + 1 x_56_ ^ 2 + 1 y_17_ ^ 2 - 2 y_56_ * y_17_ + 1 y_56_ ^ 2 ] >= 3439.2599999999998
quadratic_ranged_200_lb: [ 1 x_29_ ^ 2 - 2 x_56_ * x_29_ + 1 x_56_ ^ 2 + 1 y_29_ ^ 2 - 2 y_56_ * y_29_ + 1 y_56_ ^ 2 ] >= 9587.16
quadratic_ranged_201_lb: [ 1 x_31_ ^ 2 - 2 x_56_ * x_31_ + 1 x_56_ ^ 2 + 1 y_31_ ^ 2 - 2 y_56_ * y_31_ + 1 y_56_ ^ 2 ] >= 16129.08
quadratic_ranged_202_lb: [ 1 x_35_ ^ 2 - 2 x_56_ * x_35_ + 1 x_56_ ^ 2 + 1 y_35_ ^ 2 - 2 y_56_ * y_35_ + 1 y_56_ ^ 2 ] >= 10913.76
quadratic_ranged_203_lb: [ 1 x_38_ ^ 2 - 2 x_56_ * x_38_ + 1 x_56_ ^ 2 + 1 y_38_ ^ 2 - 2 y_56_ * y_38_ + 1 y_56_ ^ 2 ] >= 23461.02
quadratic_ranged_204_lb: [ 1 x_50_ ^ 2 - 2 x_56_ * x_50_ + 1 x_56_ ^ 2 + 1 y_50_ ^ 2 - 2 y_56_ * y_50_ + 1 y_56_ ^ 2 ] >= 1569.15
quadratic_ranged_205_lb: [ 1 x_53_ ^ 2 - 2 x_56_ * x_53_ + 1 x_56_ ^ 2 + 1 y_53_ ^ 2 - 2 y_56_ * y_53_ + 1 y_56_ ^ 2 ] >= 9318.87
quadratic_ranged_206_lb: [ 1 x_55_ ^ 2 - 2 x_56_ * x_55_ + 1 x_56_ ^ 2 + 1 y_55_ ^ 2 - 2 y_56_ * y_55_ + 1 y_56_ ^ 2 ] >= 21797.82
quadratic_ranged_207_lb: [ 1 x_20_ ^ 2 - 2 x_57_ * x_20_ + 1 x_57_ ^ 2 + 1 y_20_ ^ 2 - 2 y_57_ * y_20_ + 1 y_57_ ^ 2 ] >= 14149.08
quadratic_ranged_208_lb: [ 1 x_42_ ^ 2 - 2 x_57_ * x_42_ + 1 x_57_ ^ 2 + 1 y_42_ ^ 2 - 2 y_57_ * y_42_ + 1 y_57_ ^ 2 ] >= 6114.24
quadratic_ranged_209_lb: [ 1 x_56_ ^ 2 - 2 x_57_ * x_56_ + 1 x_57_ ^ 2 + 1 y_56_ ^ 2 - 2 y_57_ * y_56_ + 1 y_57_ ^ 2 ] >= 2970.99
quadratic_ranged_210_lb: [ 1 x_7_ ^ 2 - 2 x_58_ * x_7_ + 1 x_58_ ^ 2 + 1 y_7_ ^ 2 - 2 y_58_ * y_7_ + 1 y_58_ ^ 2 ] >= 8680.32
quadratic_ranged_211_lb: [ 1 x_42_ ^ 2 - 2 x_58_ * x_42_ + 1 x_58_ ^ 2 + 1 y_42_ ^ 2 - 2 y_58_ * y_42_ + 1 y_58_ ^ 2 ] >= 15493.5
quadratic_ranged_212_lb: [ 1 x_43_ ^ 2 - 2 x_58_ * x_43_ + 1 x_58_ ^ 2 + 1 y_43_ ^ 2 - 2 y_58_ * y_43_ + 1 y_58_ ^ 2 ] >= 32258.16
quadratic_ranged_213_lb: [ 1 x_45_ ^ 2 - 2 x_58_ * x_45_ + 1 x_58_ ^ 2 + 1 y_45_ ^ 2 - 2 y_58_ * y_45_ + 1 y_58_ ^ 2 ] >= 32021.55
quadratic_ranged_214_lb: [ 1 x_50_ ^ 2 - 2 x_58_ * x_50_ + 1 x_58_ ^ 2 + 1 y_50_ ^ 2 - 2 y_58_ * y_50_ + 1 y_58_ ^ 2 ] >= 419.76
quadratic_ranged_215_lb: [ 1 x_52_ ^ 2 - 2 x_58_ * x_52_ + 1 x_58_ ^ 2 + 1 y_52_ ^ 2 - 2 y_58_ * y_52_ + 1 y_58_ ^ 2 ] >= 33725.34
quadratic_ranged_216_lb: [ 1 x_54_ ^ 2 - 2 x_58_ * x_54_ + 1 x_58_ ^ 2 + 1 y_54_ ^ 2 - 2 y_58_ * y_54_ + 1 y_58_ ^ 2 ] >= 31974.03
quadratic_ranged_217_lb: [ 1 x_57_ ^ 2 - 2 x_58_ * x_57_ + 1 x_58_ ^ 2 + 1 y_57_ ^ 2 - 2 y_58_ * y_57_ + 1 y_58_ ^ 2 ] >= 2995.74
quadratic_ranged_218_lb: [ 1 x_18_ ^ 2 - 2 x_59_ * x_18_ + 1 x_59_ ^ 2 + 1 y_18_ ^ 2 - 2 y_59_ * y_18_ + 1 y_59_ ^ 2 ] >= 40.589999999999996
quadratic_ranged_219_lb: [ 1 x_22_ ^ 2 - 2 x_59_ * x_22_ + 1 x_59_ ^ 2 + 1 y_22_ ^ 2 - 2 y_59_ * y_22_ + 1 y_59_ ^ 2 ] >= 7452.72
quadratic_ranged_220_lb: [ 1 x_26_ ^ 2 - 2 x_59_ * x_26_ + 1 x_59_ ^ 2 + 1 y_26_ ^ 2 - 2 y_59_ * y_26_ + 1 y_59_ ^ 2 ] >= 7849.71
quadratic_ranged_221_lb: [ 1 x_28_ ^ 2 - 2 x_59_ * x_28_ + 1 x_59_ ^ 2 + 1 y_28_ ^ 2 - 2 y_59_ * y_28_ + 1 y_59_ ^ 2 ] >= 21721.59
quadratic_ranged_222_lb: [ 1 x_33_ ^ 2 - 2 x_59_ * x_33_ + 1 x_59_ ^ 2 + 1 y_33_ ^ 2 - 2 y_59_ * y_33_ + 1 y_59_ ^ 2 ] >= 5324.22
quadratic_ranged_223_lb: [ 1 x_37_ ^ 2 - 2 x_59_ * x_37_ + 1 x_59_ ^ 2 + 1 y_37_ ^ 2 - 2 y_59_ * y_37_ + 1 y_59_ ^ 2 ] >= 19963.35
quadratic_ranged_224_lb: [ 1 x_45_ ^ 2 - 2 x_59_ * x_45_ + 1 x_59_ ^ 2 + 1 y_45_ ^ 2 - 2 y_59_ * y_45_ + 1 y_59_ ^ 2 ] >= 1079.1
quadratic_ranged_225_lb: [ 1 x_57_ ^ 2 - 2 x_59_ * x_57_ + 1 x_59_ ^ 2 + 1 y_57_ ^ 2 - 2 y_59_ * y_57_ + 1 y_59_ ^ 2 ] >= 9948.51
quadratic_ranged_226_lb: [ 1 x_58_ ^ 2 - 2 x_59_ * x_58_ + 1 x_59_ ^ 2 + 1 y_58_ ^ 2 - 2 y_59_ * y_58_ + 1 y_59_ ^ 2 ] >= 22299.75
quadratic_ranged_227_lb: [ 1 x_15_ ^ 2 - 2 x_60_ * x_15_ + 1 x_60_ ^ 2 + 1 y_15_ ^ 2 - 2 y_60_ * y_15_ + 1 y_60_ ^ 2 ] >= 23503.59
quadratic_ranged_228_lb: [ 1 x_16_ ^ 2 - 2 x_60_ * x_16_ + 1 x_60_ ^ 2 + 1 y_16_ ^ 2 - 2 y_60_ * y_16_ + 1 y_60_ ^ 2 ] >= 28279.35
quadratic_ranged_229_lb: [ 1 x_38_ ^ 2 - 2 x_60_ * x_38_ + 1 x_60_ ^ 2 + 1 y_38_ ^ 2 - 2 y_60_ * y_38_ + 1 y_60_ ^ 2 ] >= 1118.7
quadratic_ranged_230_lb: [ 1 x_59_ ^ 2 - 2 x_60_ * x_59_ + 1 x_60_ ^ 2 + 1 y_59_ ^ 2 - 2 y_60_ * y_59_ + 1 y_60_ ^ 2 ] >= 6039
quadratic_ranged_231_lb: [ 1 x_9_ ^ 2 - 2 x_61_ * x_9_ + 1 x_61_ ^ 2 + 1 y_9_ ^ 2 - 2 y_61_ * y_9_ + 1 y_61_ ^ 2 ] >= 8099.19
quadratic_ranged_232_lb: [ 1 x_10_ ^ 2 - 2 x_61_ * x_10_ + 1 x_61_ ^ 2 + 1 y_10_ ^ 2 - 2 y_61_ * y_10_ + 1 y_61_ ^ 2 ] >= 21007.8
quadratic_ranged_233_lb: [ 1 x_23_ ^ 2 - 2 x_61_ * x_23_ + 1 x_61_ ^ 2 + 1 y_23_ ^ 2 - 2 y_61_ * y_23_ + 1 y_61_ ^ 2 ] >= 16768.62
quadratic_ranged_234_lb: [ 1 x_24_ ^ 2 - 2 x_61_ * x_24_ + 1 x_61_ ^ 2 + 1 y_24_ ^ 2 - 2 y_61_ * y_24_ + 1 y_61_ ^ 2 ] >= 6974.55
quadratic_ranged_235_lb: [ 1 x_25_ ^ 2 - 2 x_61_ * x_25_ + 1 x_61_ ^ 2 + 1 y_25_ ^ 2 - 2 y_61_ * y_25_ + 1 y_61_ ^ 2 ] >= 16428.06
quadratic_ranged_236_lb: [ 1 x_36_ ^ 2 - 2 x_61_ * x_36_ + 1 x_61_ ^ 2 + 1 y_36_ ^ 2 - 2 y_61_ * y_36_ + 1 y_61_ ^ 2 ] >= 14835.15
quadratic_ranged_237_lb: [ 1 x_39_ ^ 2 - 2 x_61_ * x_39_ + 1 x_61_ ^ 2 + 1 y_39_ ^ 2 - 2 y_61_ * y_39_ + 1 y_61_ ^ 2 ] >= 10036.62
quadratic_ranged_238_lb: [ 1 x_52_ ^ 2 - 2 x_61_ * x_52_ + 1 x_61_ ^ 2 + 1 y_52_ ^ 2 - 2 y_61_ * y_52_ + 1 y_61_ ^ 2 ] >= 20616.75
quadratic_ranged_239_lb: [ 1 x_54_ ^ 2 - 2 x_61_ * x_54_ + 1 x_61_ ^ 2 + 1 y_54_ ^ 2 - 2 y_61_ * y_54_ + 1 y_61_ ^ 2 ] >= 16224.119999999999
quadratic_ranged_240_lb: [ 1 x_60_ ^ 2 - 2 x_61_ * x_60_ + 1 x_61_ ^ 2 + 1 y_60_ ^ 2 - 2 y_61_ * y_60_ + 1 y_61_ ^ 2 ] >= 18445.68
quadratic_ranged_241_lb: [ 1 x_7_ ^ 2 - 2 x_62_ * x_7_ + 1 x_62_ ^ 2 + 1 y_7_ ^ 2 - 2 y_62_ * y_7_ + 1 y_62_ ^ 2 ] >= 9143.64
quadratic_ranged_242_lb: [ 1 x_19_ ^ 2 - 2 x_62_ * x_19_ + 1 x_62_ ^ 2 + 1 y_19_ ^ 2 - 2 y_62_ * y_19_ + 1 y_62_ ^ 2 ] >= 21662.19
quadratic_ranged_243_lb: [ 1 x_44_ ^ 2 - 2 x_62_ * x_44_ + 1 x_62_ ^ 2 + 1 y_44_ ^ 2 - 2 y_62_ * y_44_ + 1 y_62_ ^ 2 ] >= 1287.99
quadratic_ranged_244_lb: [ 1 x_53_ ^ 2 - 2 x_62_ * x_53_ + 1 x_62_ ^ 2 + 1 y_53_ ^ 2 - 2 y_62_ * y_53_ + 1 y_62_ ^ 2 ] >= 11058.3
quadratic_ranged_245_lb: [ 1 x_61_ ^ 2 - 2 x_62_ * x_61_ + 1 x_62_ ^ 2 + 1 y_61_ ^ 2 - 2 y_62_ * y_61_ + 1 y_62_ ^ 2 ] >= 7251.75
quadratic_ranged_246_lb: [ 1 x_11_ ^ 2 - 2 x_63_ * x_11_ + 1 x_63_ ^ 2 + 1 y_11_ ^ 2 - 2 y_63_ * y_11_ + 1 y_63_ ^ 2 ] >= 19389.15
quadratic_ranged_247_lb: [ 1 x_27_ ^ 2 - 2 x_63_ * x_27_ + 1 x_63_ ^ 2 + 1 y_27_ ^ 2 - 2 y_63_ * y_27_ + 1 y_63_ ^ 2 ] >= 33788.7
quadratic_ranged_248_lb: [ 1 x_28_ ^ 2 - 2 x_63_ * x_28_ + 1 x_63_ ^ 2 + 1 y_28_ ^ 2 - 2 y_63_ * y_28_ + 1 y_63_ ^ 2 ] >= 23542.2
quadratic_ranged_249_lb: [ 1 x_32_ ^ 2 - 2 x_63_ * x_32_ + 1 x_63_ ^ 2 + 1 y_32_ ^ 2 - 2 y_63_ * y_32_ + 1 y_63_ ^ 2 ] >= 14854.95
quadratic_ranged_250_lb: [ 1 x_35_ ^ 2 - 2 x_63_ * x_35_ + 1 x_63_ ^ 2 + 1 y_35_ ^ 2 - 2 y_63_ * y_35_ + 1 y_63_ ^ 2 ] >= 25701.39
quadratic_ranged_251_lb: [ 1 x_36_ ^ 2 - 2 x_63_ * x_36_ + 1 x_63_ ^ 2 + 1 y_36_ ^ 2 - 2 y_63_ * y_36_ + 1 y_63_ ^ 2 ] >= 342.54
quadratic_ranged_252_lb: [ 1 x_38_ ^ 2 - 2 x_63_ * x_38_ + 1 x_63_ ^ 2 + 1 y_38_ ^ 2 - 2 y_63_ * y_38_ + 1 y_63_ ^ 2 ] >= 19484.19
quadratic_ranged_253_lb: [ 1 x_62_ ^ 2 - 2 x_63_ * x_62_ + 1 x_63_ ^ 2 + 1 y_62_ ^ 2 - 2 y_63_ * y_62_ + 1 y_63_ ^ 2 ] >= 2306.7
quadratic_ranged_254_lb: [ 1 x_1_ ^ 2 - 2 x_64_ * x_1_ + 1 x_64_ ^ 2 + 1 y_1_ ^ 2 - 2 y_64_ * y_1_ + 1 y_64_ ^ 2 ] >= 8566.47
quadratic_ranged_255_lb: [ 1 x_18_ ^ 2 - 2 x_64_ * x_18_ + 1 x_64_ ^ 2 + 1 y_18_ ^ 2 - 2 y_64_ * y_18_ + 1 y_64_ ^ 2 ] >= 26235.989999999998
quadratic_ranged_256_lb: [ 1 x_33_ ^ 2 - 2 x_64_ * x_33_ + 1 x_64_ ^ 2 + 1 y_33_ ^ 2 - 2 y_64_ * y_33_ + 1 y_64_ ^ 2 ] >= 17792.28
quadratic_ranged_257_lb: [ 1 x_52_ ^ 2 - 2 x_64_ * x_52_ + 1 x_64_ ^ 2 + 1 y_52_ ^ 2 - 2 y_64_ * y_52_ + 1 y_64_ ^ 2 ] >= 46198.35
quadratic_ranged_258_lb: [ 1 x_57_ ^ 2 - 2 x_64_ * x_57_ + 1 x_64_ ^ 2 + 1 y_57_ ^ 2 - 2 y_64_ * y_57_ + 1 y_64_ ^ 2 ] >= 5469.75
quadratic_ranged_259_lb: [ 1 x_63_ ^ 2 - 2 x_64_ * x_63_ + 1 x_64_ ^ 2 + 1 y_63_ ^ 2 - 2 y_64_ * y_63_ + 1 y_64_ ^ 2 ] >= 27051.75
quadratic_ranged_260_lb: [ 1 x_3_ ^ 2 - 2 x_65_ * x_3_ + 1 x_65_ ^ 2 + 1 y_3_ ^ 2 - 2 y_65_ * y_3_ + 1 y_65_ ^ 2 ] >= 14685.66
quadratic_ranged_261_lb: [ 1 x_14_ ^ 2 - 2 x_65_ * x_14_ + 1 x_65_ ^ 2 + 1 y_14_ ^ 2 - 2 y_65_ * y_14_ + 1 y_65_ ^ 2 ] >= 17473.5
quadratic_ranged_262_lb: [ 1 x_19_ ^ 2 - 2 x_65_ * x_19_ + 1 x_65_ ^ 2 + 1 y_19_ ^ 2 - 2 y_65_ * y_19_ + 1 y_65_ ^ 2 ] >= 33479.82
quadratic_ranged_263_lb: [ 1 x_25_ ^ 2 - 2 x_65_ * x_25_ + 1 x_65_ ^ 2 + 1 y_25_ ^ 2 - 2 y_65_ * y_25_ + 1 y_65_ ^ 2 ] >= 1255.32
quadratic_ranged_264_lb: [ 1 x_37_ ^ 2 - 2 x_65_ * x_37_ + 1 x_65_ ^ 2 + 1 y_37_ ^ 2 - 2 y_65_ * y_37_ + 1 y_65_ ^ 2 ] >= 51314.67
quadratic_ranged_265_lb: [ 1 x_38_ ^ 2 - 2 x_65_ * x_38_ + 1 x_65_ ^ 2 + 1 y_38_ ^ 2 - 2 y_65_ * y_38_ + 1 y_65_ ^ 2 ] >= 673.2
quadratic_ranged_266_lb: [ 1 x_54_ ^ 2 - 2 x_65_ * x_54_ + 1 x_65_ ^ 2 + 1 y_54_ ^ 2 - 2 y_65_ * y_54_ + 1 y_65_ ^ 2 ] >= 2805.66
quadratic_ranged_267_lb: [ 1 x_56_ ^ 2 - 2 x_65_ * x_56_ + 1 x_65_ ^ 2 + 1 y_56_ ^ 2 - 2 y_65_ * y_56_ + 1 y_65_ ^ 2 ] >= 25615.26
quadratic_ranged_268_lb: [ 1 x_59_ ^ 2 - 2 x_65_ * x_59_ + 1 x_65_ ^ 2 + 1 y_59_ ^ 2 - 2 y_65_ * y_59_ + 1 y_65_ ^ 2 ] >= 8706.06
quadratic_ranged_269_lb: [ 1 x_64_ ^ 2 - 2 x_65_ * x_64_ + 1 x_65_ ^ 2 + 1 y_64_ ^ 2 - 2 y_65_ * y_64_ + 1 y_65_ ^ 2 ] >= 54758.88
quadratic_ranged_270_lb: [ 1 x_1_ ^ 2 - 2 x_66_ * x_1_ + 1 x_66_ ^ 2 + 1 y_1_ ^ 2 - 2 y_66_ * y_1_ + 1 y_66_ ^ 2 ] >= 4207.5
quadratic_ranged_271_lb: [ 1 x_3_ ^ 2 - 2 x_66_ * x_3_ + 1 x_66_ ^ 2 + 1 y_3_ ^ 2 - 2 y_66_ * y_3_ + 1 y_66_ ^ 2 ] >= 1026.6299999999999
quadratic_ranged_272_lb: [ 1 x_11_ ^ 2 - 2 x_66_ * x_11_ + 1 x_66_ ^ 2 + 1 y_11_ ^ 2 - 2 y_66_ * y_11_ + 1 y_66_ ^ 2 ] >= 10566.27
quadratic_ranged_273_lb: [ 1 x_19_ ^ 2 - 2 x_66_ * x_19_ + 1 x_66_ ^ 2 + 1 y_19_ ^ 2 - 2 y_66_ * y_19_ + 1 y_66_ ^ 2 ] >= 7722.99
quadratic_ranged_274_lb: [ 1 x_30_ ^ 2 - 2 x_66_ * x_30_ + 1 x_66_ ^ 2 + 1 y_30_ ^ 2 - 2 y_66_ * y_30_ + 1 y_66_ ^ 2 ] >= 215.82
quadratic_ranged_275_lb: [ 1 x_40_ ^ 2 - 2 x_66_ * x_40_ + 1 x_66_ ^ 2 + 1 y_40_ ^ 2 - 2 y_66_ * y_40_ + 1 y_66_ ^ 2 ] >= 23297.67
quadratic_ranged_276_lb: [ 1 x_43_ ^ 2 - 2 x_66_ * x_43_ + 1 x_66_ ^ 2 + 1 y_43_ ^ 2 - 2 y_66_ * y_43_ + 1 y_66_ ^ 2 ] >= 13972.86
quadratic_ranged_277_lb: [ 1 x_44_ ^ 2 - 2 x_66_ * x_44_ + 1 x_66_ ^ 2 + 1 y_44_ ^ 2 - 2 y_66_ * y_44_ + 1 y_66_ ^ 2 ] >= 4162.95
quadratic_ranged_278_lb: [ 1 x_58_ ^ 2 - 2 x_66_ * x_58_ + 1 x_66_ ^ 2 + 1 y_58_ ^ 2 - 2 y_66_ * y_58_ + 1 y_66_ ^ 2 ] >= 11343.42
quadratic_ranged_279_lb: [ 1 x_64_ ^ 2 - 2 x_66_ * x_64_ + 1 x_66_ ^ 2 + 1 y_64_ ^ 2 - 2 y_66_ * y_64_ + 1 y_66_ ^ 2 ] >= 8297.19
quadratic_ranged_280_lb: [ 1 x_65_ ^ 2 - 2 x_66_ * x_65_ + 1 x_66_ ^ 2 + 1 y_65_ ^ 2 - 2 y_66_ * y_65_ + 1 y_66_ ^ 2 ] >= 22933.35
quadratic_ranged_281_lb: [ 1 x_15_ ^ 2 - 2 x_67_ * x_15_ + 1 x_67_ ^ 2 + 1 y_15_ ^ 2 - 2 y_67_ * y_15_ + 1 y_67_ ^ 2 ] >= 31922.55
quadratic_ranged_282_lb: [ 1 x_18_ ^ 2 - 2 x_67_ * x_18_ + 1 x_67_ ^ 2 + 1 y_18_ ^ 2 - 2 y_67_ * y_18_ + 1 y_67_ ^ 2 ] >= 15508.35
quadratic_ranged_283_lb: [ 1 x_26_ ^ 2 - 2 x_67_ * x_26_ + 1 x_67_ ^ 2 + 1 y_26_ ^ 2 - 2 y_67_ * y_26_ + 1 y_67_ ^ 2 ] >= 26311.23
quadratic_ranged_284_lb: [ 1 x_28_ ^ 2 - 2 x_67_ * x_28_ + 1 x_67_ ^ 2 + 1 y_28_ ^ 2 - 2 y_67_ * y_28_ + 1 y_67_ ^ 2 ] >= 2262.15
quadratic_ranged_285_lb: [ 1 x_39_ ^ 2 - 2 x_67_ * x_39_ + 1 x_67_ ^ 2 + 1 y_39_ ^ 2 - 2 y_67_ * y_39_ + 1 y_67_ ^ 2 ] >= 10535.58
quadratic_ranged_286_lb: [ 1 x_66_ ^ 2 - 2 x_67_ * x_66_ + 1 x_67_ ^ 2 + 1 y_66_ ^ 2 - 2 y_67_ * y_66_ + 1 y_67_ ^ 2 ] >= 3153.15
quadratic_ranged_287_lb: [ 1 x_10_ ^ 2 - 2 x_68_ * x_10_ + 1 x_68_ ^ 2 + 1 y_10_ ^ 2 - 2 y_68_ * y_10_ + 1 y_68_ ^ 2 ] >= 503.90999999999997
quadratic_ranged_288_lb: [ 1 x_27_ ^ 2 - 2 x_68_ * x_27_ + 1 x_68_ ^ 2 + 1 y_27_ ^ 2 - 2 y_68_ * y_27_ + 1 y_68_ ^ 2 ] >= 1245.42
quadratic_ranged_289_lb: [ 1 x_35_ ^ 2 - 2 x_68_ * x_35_ + 1 x_68_ ^ 2 + 1 y_35_ ^ 2 - 2 y_68_ * y_35_ + 1 y_68_ ^ 2 ] >= 444.51
quadratic_ranged_290_lb: [ 1 x_45_ ^ 2 - 2 x_68_ * x_45_ + 1 x_68_ ^ 2 + 1 y_45_ ^ 2 - 2 y_68_ * y_45_ + 1 y_68_ ^ 2 ] >= 8388.27
quadratic_ranged_291_lb: [ 1 x_67_ ^ 2 - 2 x_68_ * x_67_ + 1 x_68_ ^ 2 + 1 y_67_ ^ 2 - 2 y_68_ * y_67_ + 1 y_68_ ^ 2 ] >= 30160.35
quadratic_ranged_292_lb: [ 1 x_2_ ^ 2 - 2 x_69_ * x_2_ + 1 x_69_ ^ 2 + 1 y_2_ ^ 2 - 2 y_69_ * y_2_ + 1 y_69_ ^ 2 ] >= 17235.9
quadratic_ranged_293_lb: [ 1 x_5_ ^ 2 - 2 x_69_ * x_5_ + 1 x_69_ ^ 2 + 1 y_5_ ^ 2 - 2 y_69_ * y_5_ + 1 y_69_ ^ 2 ] >= 6333.03
quadratic_ranged_294_lb: [ 1 x_20_ ^ 2 - 2 x_69_ * x_20_ + 1 x_69_ ^ 2 + 1 y_20_ ^ 2 - 2 y_69_ * y_20_ + 1 y_69_ ^ 2 ] >= 1435.5
quadratic_ranged_295_lb: [ 1 x_22_ ^ 2 - 2 x_69_ * x_22_ + 1 x_69_ ^ 2 + 1 y_22_ ^ 2 - 2 y_69_ * y_22_ + 1 y_69_ ^ 2 ] >= 3093.75
quadratic_ranged_296_lb: [ 1 x_24_ ^ 2 - 2 x_69_ * x_24_ + 1 x_69_ ^ 2 + 1 y_24_ ^ 2 - 2 y_69_ * y_24_ + 1 y_69_ ^ 2 ] >= 12311.64
quadratic_ranged_297_lb: [ 1 x_30_ ^ 2 - 2 x_69_ * x_30_ + 1 x_69_ ^ 2 + 1 y_30_ ^ 2 - 2 y_69_ * y_30_ + 1 y_69_ ^ 2 ] >= 14865.84
quadratic_ranged_298_lb: [ 1 x_68_ ^ 2 - 2 x_69_ * x_68_ + 1 x_69_ ^ 2 + 1 y_68_ ^ 2 - 2 y_69_ * y_68_ + 1 y_69_ ^ 2 ] >= 10860.3
quadratic_ranged_299_lb: [ 1 x_2_ ^ 2 - 2 x_70_ * x_2_ + 1 x_70_ ^ 2 + 1 y_2_ ^ 2 - 2 y_70_ * y_2_ + 1 y_70_ ^ 2 ] >= 11932.47
quadratic_ranged_300_lb: [ 1 x_42_ ^ 2 - 2 x_70_ * x_42_ + 1 x_70_ ^ 2 + 1 y_42_ ^ 2 - 2 y_70_ * y_42_ + 1 y_70_ ^ 2 ] >= 7841.79
quadratic_ranged_301_lb: [ 1 x_43_ ^ 2 - 2 x_70_ * x_43_ + 1 x_70_ ^ 2 + 1 y_43_ ^ 2 - 2 y_70_ * y_43_ + 1 y_70_ ^ 2 ] >= 18003.15
quadratic_ranged_302_lb: [ 1 x_54_ ^ 2 - 2 x_70_ * x_54_ + 1 x_70_ ^ 2 + 1 y_54_ ^ 2 - 2 y_70_ * y_54_ + 1 y_70_ ^ 2 ] >= 14865.84
quadratic_ranged_303_lb: [ 1 x_69_ ^ 2 - 2 x_70_ * x_69_ + 1 x_70_ ^ 2 + 1 y_69_ ^ 2 - 2 y_70_ * y_69_ + 1 y_70_ ^ 2 ] >= 32805.63
quadratic_ranged_304_lb: [ 1 x_27_ ^ 2 - 2 x_71_ * x_27_ + 1 x_71_ ^ 2 + 1 y_27_ ^ 2 - 2 y_71_ * y_27_ + 1 y_71_ ^ 2 ] >= 440.55
quadratic_ranged_305_lb: [ 1 x_37_ ^ 2 - 2 x_71_ * x_37_ + 1 x_71_ ^ 2 + 1 y_37_ ^ 2 - 2 y_71_ * y_37_ + 1 y_71_ ^ 2 ] >= 41917.59
quadratic_ranged_306_lb: [ 1 x_68_ ^ 2 - 2 x_71_ * x_68_ + 1 x_71_ ^ 2 + 1 y_68_ ^ 2 - 2 y_71_ * y_68_ + 1 y_71_ ^ 2 ] >= 2357.19
quadratic_ranged_307_lb: [ 1 x_69_ ^ 2 - 2 x_71_ * x_69_ + 1 x_71_ ^ 2 + 1 y_69_ ^ 2 - 2 y_71_ * y_69_ + 1 y_71_ ^ 2 ] >= 4966.83
quadratic_ranged_308_lb: [ 1 x_70_ ^ 2 - 2 x_71_ * x_70_ + 1 x_71_ ^ 2 + 1 y_70_ ^ 2 - 2 y_71_ * y_70_ + 1 y_71_ ^ 2 ] >= 32175
quadratic_ranged_309_lb: [ 1 x_3_ ^ 2 - 2 x_72_ * x_3_ + 1 x_72_ ^ 2 + 1 y_3_ ^ 2 - 2 y_72_ * y_3_ + 1 y_72_ ^ 2 ] >= 2186.91
quadratic_ranged_310_lb: [ 1 x_12_ ^ 2 - 2 x_72_ * x_12_ + 1 x_72_ ^ 2 + 1 y_12_ ^ 2 - 2 y_72_ * y_12_ + 1 y_72_ ^ 2 ] >= 2638.35
quadratic_ranged_311_lb: [ 1 x_15_ ^ 2 - 2 x_72_ * x_15_ + 1 x_72_ ^ 2 + 1 y_15_ ^ 2 - 2 y_72_ * y_15_ + 1 y_72_ ^ 2 ] >= 35358.84
quadratic_ranged_312_lb: [ 1 x_17_ ^ 2 - 2 x_72_ * x_17_ + 1 x_72_ ^ 2 + 1 y_17_ ^ 2 - 2 y_72_ * y_17_ + 1 y_72_ ^ 2 ] >= 9457.47
quadratic_ranged_313_lb: [ 1 x_36_ ^ 2 - 2 x_72_ * x_36_ + 1 x_72_ ^ 2 + 1 y_36_ ^ 2 - 2 y_72_ * y_36_ + 1 y_72_ ^ 2 ] >= 4183.74
quadratic_ranged_314_lb: [ 1 x_39_ ^ 2 - 2 x_72_ * x_39_ + 1 x_72_ ^ 2 + 1 y_39_ ^ 2 - 2 y_72_ * y_39_ + 1 y_72_ ^ 2 ] >= 2068.11
quadratic_ranged_315_lb: [ 1 x_71_ ^ 2 - 2 x_72_ * x_71_ + 1 x_72_ ^ 2 + 1 y_71_ ^ 2 - 2 y_72_ * y_71_ + 1 y_72_ ^ 2 ] >= 27625.95
quadratic_ranged_316_lb: [ 1 x_10_ ^ 2 - 2 x_73_ * x_10_ + 1 x_73_ ^ 2 + 1 y_10_ ^ 2 - 2 y_73_ * y_10_ + 1 y_73_ ^ 2 ] >= 22787.82
quadratic_ranged_317_lb: [ 1 x_17_ ^ 2 - 2 x_73_ * x_17_ + 1 x_73_ ^ 2 + 1 y_17_ ^ 2 - 2 y_73_ * y_17_ + 1 y_73_ ^ 2 ] >= 7809.12
quadratic_ranged_318_lb: [ 1 x_31_ ^ 2 - 2 x_73_ * x_31_ + 1 x_73_ ^ 2 + 1 y_31_ ^ 2 - 2 y_73_ * y_31_ + 1 y_73_ ^ 2 ] >= 2045.34
quadratic_ranged_319_lb: [ 1 x_40_ ^ 2 - 2 x_73_ * x_40_ + 1 x_73_ ^ 2 + 1 y_40_ ^ 2 - 2 y_73_ * y_40_ + 1 y_73_ ^ 2 ] >= 28769.4
quadratic_ranged_320_lb: [ 1 x_42_ ^ 2 - 2 x_73_ * x_42_ + 1 x_73_ ^ 2 + 1 y_42_ ^ 2 - 2 y_73_ * y_42_ + 1 y_73_ ^ 2 ] >= 5853.87
quadratic_ranged_321_lb: [ 1 x_54_ ^ 2 - 2 x_73_ * x_54_ + 1 x_73_ ^ 2 + 1 y_54_ ^ 2 - 2 y_73_ * y_54_ + 1 y_73_ ^ 2 ] >= 15057.9
quadratic_ranged_322_lb: [ 1 x_70_ ^ 2 - 2 x_73_ * x_70_ + 1 x_73_ ^ 2 + 1 y_70_ ^ 2 - 2 y_73_ * y_70_ + 1 y_73_ ^ 2 ] >= 1007.8199999999999
quadratic_ranged_323_lb: [ 1 x_72_ ^ 2 - 2 x_73_ * x_72_ + 1 x_73_ ^ 2 + 1 y_72_ ^ 2 - 2 y_73_ * y_72_ + 1 y_73_ ^ 2 ] >= 452.43
quadratic_ranged_324_lb: [ 1 x_3_ ^ 2 - 2 x_74_ * x_3_ + 1 x_74_ ^ 2 + 1 y_3_ ^ 2 - 2 y_74_ * y_3_ + 1 y_74_ ^ 2 ] >= 11627.55
quadratic_ranged_325_lb: [ 1 x_17_ ^ 2 - 2 x_74_ * x_17_ + 1 x_74_ ^ 2 + 1 y_17_ ^ 2 - 2 y_74_ * y_17_ + 1 y_74_ ^ 2 ] >= 2788.83
quadratic_ranged_326_lb: [ 1 x_22_ ^ 2 - 2 x_74_ * x_22_ + 1 x_74_ ^ 2 + 1 y_22_ ^ 2 - 2 y_74_ * y_22_ + 1 y_74_ ^ 2 ] >= 1291.95
quadratic_ranged_327_lb: [ 1 x_36_ ^ 2 - 2 x_74_ * x_36_ + 1 x_74_ ^ 2 + 1 y_36_ ^ 2 - 2 y_74_ * y_36_ + 1 y_74_ ^ 2 ] >= 35055.9
quadratic_ranged_328_lb: [ 1 x_37_ ^ 2 - 2 x_74_ * x_37_ + 1 x_74_ ^ 2 + 1 y_37_ ^ 2 - 2 y_74_ * y_37_ + 1 y_74_ ^ 2 ] >= 22692.78
quadratic_ranged_329_lb: [ 1 x_73_ ^ 2 - 2 x_74_ * x_73_ + 1 x_74_ ^ 2 + 1 y_73_ ^ 2 - 2 y_74_ * y_73_ + 1 y_74_ ^ 2 ] >= 17797.23
quadratic_ranged_330_lb: [ 1 x_4_ ^ 2 - 2 x_75_ * x_4_ + 1 x_75_ ^ 2 + 1 y_4_ ^ 2 - 2 y_75_ * y_4_ + 1 y_75_ ^ 2 ] >= 7357.68
quadratic_ranged_331_lb: [ 1 x_15_ ^ 2 - 2 x_75_ * x_15_ + 1 x_75_ ^ 2 + 1 y_15_ ^ 2 - 2 y_75_ * y_15_ + 1 y_75_ ^ 2 ] >= 12870
quadratic_ranged_332_lb: [ 1 x_32_ ^ 2 - 2 x_75_ * x_32_ + 1 x_75_ ^ 2 + 1 y_32_ ^ 2 - 2 y_75_ * y_32_ + 1 y_75_ ^ 2 ] >= 6333.03
quadratic_ranged_333_lb: [ 1 x_40_ ^ 2 - 2 x_75_ * x_40_ + 1 x_75_ ^ 2 + 1 y_40_ ^ 2 - 2 y_75_ * y_40_ + 1 y_75_ ^ 2 ] >= 49148.55
quadratic_ranged_334_lb: [ 1 x_45_ ^ 2 - 2 x_75_ * x_45_ + 1 x_75_ ^ 2 + 1 y_45_ ^ 2 - 2 y_75_ * y_45_ + 1 y_75_ ^ 2 ] >= 31863.15
quadratic_ranged_335_lb: [ 1 x_47_ ^ 2 - 2 x_75_ * x_47_ + 1 x_75_ ^ 2 + 1 y_47_ ^ 2 - 2 y_75_ * y_47_ + 1 y_75_ ^ 2 ] >= 16656.75
quadratic_ranged_336_lb: [ 1 x_63_ ^ 2 - 2 x_75_ * x_63_ + 1 x_75_ ^ 2 + 1 y_63_ ^ 2 - 2 y_75_ * y_63_ + 1 y_75_ ^ 2 ] >= 32947.2
quadratic_ranged_337_lb: [ 1 x_71_ ^ 2 - 2 x_75_ * x_71_ + 1 x_75_ ^ 2 + 1 y_71_ ^ 2 - 2 y_75_ * y_71_ + 1 y_75_ ^ 2 ] >= 31827.51
quadratic_ranged_338_lb: [ 1 x_74_ ^ 2 - 2 x_75_ * x_74_ + 1 x_75_ ^ 2 + 1 y_74_ ^ 2 - 2 y_75_ * y_74_ + 1 y_75_ ^ 2 ] >= 11598.84
quadratic_ranged_339_lb: [ 1 x_13_ ^ 2 - 2 x_76_ * x_13_ + 1 x_76_ ^ 2 + 1 y_13_ ^ 2 - 2 y_76_ * y_13_ + 1 y_76_ ^ 2 ] >= 2475.99
quadratic_ranged_340_lb: [ 1 x_21_ ^ 2 - 2 x_76_ * x_21_ + 1 x_76_ ^ 2 + 1 y_21_ ^ 2 - 2 y_76_ * y_21_ + 1 y_76_ ^ 2 ] >= 18157.59
quadratic_ranged_341_lb: [ 1 x_46_ ^ 2 - 2 x_76_ * x_46_ + 1 x_76_ ^ 2 + 1 y_46_ ^ 2 - 2 y_76_ * y_46_ + 1 y_76_ ^ 2 ] >= 15596.46
quadratic_ranged_342_lb: [ 1 x_56_ ^ 2 - 2 x_76_ * x_56_ + 1 x_76_ ^ 2 + 1 y_56_ ^ 2 - 2 y_76_ * y_56_ + 1 y_76_ ^ 2 ] >= 3930.3
quadratic_ranged_343_lb: [ 1 x_64_ ^ 2 - 2 x_76_ * x_64_ + 1 x_76_ ^ 2 + 1 y_64_ ^ 2 - 2 y_76_ * y_64_ + 1 y_76_ ^ 2 ] >= 19404
quadratic_ranged_344_lb: [ 1 x_69_ ^ 2 - 2 x_76_ * x_69_ + 1 x_76_ ^ 2 + 1 y_69_ ^ 2 - 2 y_76_ * y_69_ + 1 y_76_ ^ 2 ] >= 4099.59
quadratic_ranged_345_lb: [ 1 x_73_ ^ 2 - 2 x_76_ * x_73_ + 1 x_76_ ^ 2 + 1 y_73_ ^ 2 - 2 y_76_ * y_73_ + 1 y_76_ ^ 2 ] >= 10335.6
quadratic_ranged_346_lb: [ 1 x_75_ ^ 2 - 2 x_76_ * x_75_ + 1 x_76_ ^ 2 + 1 y_75_ ^ 2 - 2 y_76_ * y_75_ + 1 y_76_ ^ 2 ] >= 14355.99
quadratic_ranged_347_lb: [ 1 x_1_ ^ 2 - 2 x_77_ * x_1_ + 1 x_77_ ^ 2 + 1 y_1_ ^ 2 - 2 y_77_ * y_1_ + 1 y_77_ ^ 2 ] >= 9799.02
quadratic_ranged_348_lb: [ 1 x_12_ ^ 2 - 2 x_77_ * x_12_ + 1 x_77_ ^ 2 + 1 y_12_ ^ 2 - 2 y_77_ * y_12_ + 1 y_77_ ^ 2 ] >= 2353.23
quadratic_ranged_349_lb: [ 1 x_18_ ^ 2 - 2 x_77_ * x_18_ + 1 x_77_ ^ 2 + 1 y_18_ ^ 2 - 2 y_77_ * y_18_ + 1 y_77_ ^ 2 ] >= 6161.76
quadratic_ranged_350_lb: [ 1 x_20_ ^ 2 - 2 x_77_ * x_20_ + 1 x_77_ ^ 2 + 1 y_20_ ^ 2 - 2 y_77_ * y_20_ + 1 y_77_ ^ 2 ] >= 38511
quadratic_ranged_351_lb: [ 1 x_24_ ^ 2 - 2 x_77_ * x_24_ + 1 x_77_ ^ 2 + 1 y_24_ ^ 2 - 2 y_77_ * y_24_ + 1 y_77_ ^ 2 ] >= 19184.22
quadratic_ranged_352_lb: [ 1 x_27_ ^ 2 - 2 x_77_ * x_27_ + 1 x_77_ ^ 2 + 1 y_27_ ^ 2 - 2 y_77_ * y_27_ + 1 y_77_ ^ 2 ] >= 27476.46
quadratic_ranged_353_lb: [ 1 x_31_ ^ 2 - 2 x_77_ * x_31_ + 1 x_77_ ^ 2 + 1 y_31_ ^ 2 - 2 y_77_ * y_31_ + 1 y_77_ ^ 2 ] >= 1474.11
quadratic_ranged_354_lb: [ 1 x_35_ ^ 2 - 2 x_77_ * x_35_ + 1 x_77_ ^ 2 + 1 y_35_ ^ 2 - 2 y_77_ * y_35_ + 1 y_77_ ^ 2 ] >= 19381.23
quadratic_ranged_355_lb: [ 1 x_46_ ^ 2 - 2 x_77_ * x_46_ + 1 x_77_ ^ 2 + 1 y_46_ ^ 2 - 2 y_77_ * y_46_ + 1 y_77_ ^ 2 ] >= 301.95
quadratic_ranged_356_lb: [ 1 x_55_ ^ 2 - 2 x_77_ * x_55_ + 1 x_77_ ^ 2 + 1 y_55_ ^ 2 - 2 y_77_ * y_55_ + 1 y_77_ ^ 2 ] >= 1612.71
quadratic_ranged_357_lb: [ 1 x_70_ ^ 2 - 2 x_77_ * x_70_ + 1 x_77_ ^ 2 + 1 y_70_ ^ 2 - 2 y_77_ * y_70_ + 1 y_77_ ^ 2 ] >= 309.87
quadratic_ranged_358_lb: [ 1 x_76_ ^ 2 - 2 x_77_ * x_76_ + 1 x_77_ ^ 2 + 1 y_76_ ^ 2 - 2 y_77_ * y_76_ + 1 y_77_ ^ 2 ] >= 11560.23
quadratic_ranged_359_lb: [ 1 x_7_ ^ 2 - 2 x_78_ * x_7_ + 1 x_78_ ^ 2 + 1 y_7_ ^ 2 - 2 y_78_ * y_7_ + 1 y_78_ ^ 2 ] >= 10820.7
quadratic_ranged_360_lb: [ 1 x_26_ ^ 2 - 2 x_78_ * x_26_ + 1 x_78_ ^ 2 + 1 y_26_ ^ 2 - 2 y_78_ * y_26_ + 1 y_78_ ^ 2 ] >= 11899.8
quadratic_ranged_361_lb: [ 1 x_39_ ^ 2 - 2 x_78_ * x_39_ + 1 x_78_ ^ 2 + 1 y_39_ ^ 2 - 2 y_78_ * y_39_ + 1 y_78_ ^ 2 ] >= 1782.99
quadratic_ranged_362_lb: [ 1 x_56_ ^ 2 - 2 x_78_ * x_56_ + 1 x_78_ ^ 2 + 1 y_56_ ^ 2 - 2 y_78_ * y_56_ + 1 y_78_ ^ 2 ] >= 15468.75
quadratic_ranged_363_lb: [ 1 x_57_ ^ 2 - 2 x_78_ * x_57_ + 1 x_78_ ^ 2 + 1 y_57_ ^ 2 - 2 y_78_ * y_57_ + 1 y_78_ ^ 2 ] >= 6906.24
quadratic_ranged_364_lb: [ 1 x_60_ ^ 2 - 2 x_78_ * x_60_ + 1 x_78_ ^ 2 + 1 y_60_ ^ 2 - 2 y_78_ * y_60_ + 1 y_78_ ^ 2 ] >= 12332.43
quadratic_ranged_365_lb: [ 1 x_72_ ^ 2 - 2 x_78_ * x_72_ + 1 x_78_ ^ 2 + 1 y_72_ ^ 2 - 2 y_78_ * y_72_ + 1 y_78_ ^ 2 ] >= 1112.76
quadratic_ranged_366_lb: [ 1 x_77_ ^ 2 - 2 x_78_ * x_77_ + 1 x_78_ ^ 2 + 1 y_77_ ^ 2 - 2 y_78_ * y_77_ + 1 y_78_ ^ 2 ] >= 1267.2
quadratic_ranged_367_lb: [ 1 x_3_ ^ 2 - 2 x_79_ * x_3_ + 1 x_79_ ^ 2 + 1 y_3_ ^ 2 - 2 y_79_ * y_3_ + 1 y_79_ ^ 2 ] >= 5873.67
quadratic_ranged_368_lb: [ 1 x_6_ ^ 2 - 2 x_79_ * x_6_ + 1 x_79_ ^ 2 + 1 y_6_ ^ 2 - 2 y_79_ * y_6_ + 1 y_79_ ^ 2 ] >= 8941.68
quadratic_ranged_369_lb: [ 1 x_7_ ^ 2 - 2 x_79_ * x_7_ + 1 x_79_ ^ 2 + 1 y_7_ ^ 2 - 2 y_79_ * y_7_ + 1 y_79_ ^ 2 ] >= 8775.36
quadratic_ranged_370_lb: [ 1 x_9_ ^ 2 - 2 x_79_ * x_9_ + 1 x_79_ ^ 2 + 1 y_9_ ^ 2 - 2 y_79_ * y_9_ + 1 y_79_ ^ 2 ] >= 14360.94
quadratic_ranged_371_lb: [ 1 x_14_ ^ 2 - 2 x_79_ * x_14_ + 1 x_79_ ^ 2 + 1 y_14_ ^ 2 - 2 y_79_ * y_14_ + 1 y_79_ ^ 2 ] >= 499.95
quadratic_ranged_372_lb: [ 1 x_17_ ^ 2 - 2 x_79_ * x_17_ + 1 x_79_ ^ 2 + 1 y_17_ ^ 2 - 2 y_79_ * y_17_ + 1 y_79_ ^ 2 ] >= 1192.95
quadratic_ranged_373_lb: [ 1 x_38_ ^ 2 - 2 x_79_ * x_38_ + 1 x_79_ ^ 2 + 1 y_38_ ^ 2 - 2 y_79_ * y_38_ + 1 y_79_ ^ 2 ] >= 18236.79
quadratic_ranged_374_lb: [ 1 x_39_ ^ 2 - 2 x_79_ * x_39_ + 1 x_79_ ^ 2 + 1 y_39_ ^ 2 - 2 y_79_ * y_39_ + 1 y_79_ ^ 2 ] >= 18288.27
quadratic_ranged_375_lb: [ 1 x_45_ ^ 2 - 2 x_79_ * x_45_ + 1 x_79_ ^ 2 + 1 y_45_ ^ 2 - 2 y_79_ * y_45_ + 1 y_79_ ^ 2 ] >= 16886.43
quadratic_ranged_376_lb: [ 1 x_76_ ^ 2 - 2 x_79_ * x_76_ + 1 x_79_ ^ 2 + 1 y_76_ ^ 2 - 2 y_79_ * y_76_ + 1 y_79_ ^ 2 ] >= 2020.59
quadratic_ranged_377_lb: [ 1 x_78_ ^ 2 - 2 x_79_ * x_78_ + 1 x_79_ ^ 2 + 1 y_78_ ^ 2 - 2 y_79_ * y_78_ + 1 y_79_ ^ 2 ] >= 8650.62
quadratic_ranged_378_lb: [ 1 x_1_ ^ 2 - 2 x_80_ * x_1_ + 1 x_80_ ^ 2 + 1 y_1_ ^ 2 - 2 y_80_ * y_1_ + 1 y_80_ ^ 2 ] >= 18097.2
quadratic_ranged_379_lb: [ 1 x_3_ ^ 2 - 2 x_80_ * x_3_ + 1 x_80_ ^ 2 + 1 y_3_ ^ 2 - 2 y_80_ * y_3_ + 1 y_80_ ^ 2 ] >= 11500.83
quadratic_ranged_380_lb: [ 1 x_7_ ^ 2 - 2 x_80_ * x_7_ + 1 x_80_ ^ 2 + 1 y_7_ ^ 2 - 2 y_80_ * y_7_ + 1 y_80_ ^ 2 ] >= 40586.04
quadratic_ranged_381_lb: [ 1 x_15_ ^ 2 - 2 x_80_ * x_15_ + 1 x_80_ ^ 2 + 1 y_15_ ^ 2 - 2 y_80_ * y_15_ + 1 y_80_ ^ 2 ] >= 28284.3
quadratic_ranged_382_lb: [ 1 x_19_ ^ 2 - 2 x_80_ * x_19_ + 1 x_80_ ^ 2 + 1 y_19_ ^ 2 - 2 y_80_ * y_19_ + 1 y_80_ ^ 2 ] >= 27423.989999999998
quadratic_ranged_383_lb: [ 1 x_39_ ^ 2 - 2 x_80_ * x_39_ + 1 x_80_ ^ 2 + 1 y_39_ ^ 2 - 2 y_80_ * y_39_ + 1 y_80_ ^ 2 ] >= 18058.59
quadratic_ranged_384_lb: [ 1 x_47_ ^ 2 - 2 x_80_ * x_47_ + 1 x_80_ ^ 2 + 1 y_47_ ^ 2 - 2 y_80_ * y_47_ + 1 y_80_ ^ 2 ] >= 32053.23
quadratic_ranged_385_lb: [ 1 x_79_ ^ 2 - 2 x_80_ * x_79_ + 1 x_80_ ^ 2 + 1 y_79_ ^ 2 - 2 y_80_ * y_79_ + 1 y_80_ ^ 2 ] >= 16651.8
quadratic_ranged_386_lb: [ 1 x_5_ ^ 2 - 2 x_81_ * x_5_ + 1 x_81_ ^ 2 + 1 y_5_ ^ 2 - 2 y_81_ * y_5_ + 1 y_81_ ^ 2 ] >= 41592.87
quadratic_ranged_387_lb: [ 1 x_27_ ^ 2 - 2 x_81_ * x_27_ + 1 x_81_ ^ 2 + 1 y_27_ ^ 2 - 2 y_81_ * y_27_ + 1 y_81_ ^ 2 ] >= 16871.579999999998
quadratic_ranged_388_lb: [ 1 x_36_ ^ 2 - 2 x_81_ * x_36_ + 1 x_81_ ^ 2 + 1 y_36_ ^ 2 - 2 y_81_ * y_36_ + 1 y_81_ ^ 2 ] >= 2005.74
quadratic_ranged_389_lb: [ 1 x_62_ ^ 2 - 2 x_81_ * x_62_ + 1 x_81_ ^ 2 + 1 y_62_ ^ 2 - 2 y_81_ * y_62_ + 1 y_81_ ^ 2 ] >= 8436.78
quadratic_ranged_390_lb: [ 1 x_68_ ^ 2 - 2 x_81_ * x_68_ + 1 x_81_ ^ 2 + 1 y_68_ ^ 2 - 2 y_81_ * y_68_ + 1 y_81_ ^ 2 ] >= 8949.6
quadratic_ranged_391_lb: [ 1 x_70_ ^ 2 - 2 x_81_ * x_70_ + 1 x_81_ ^ 2 + 1 y_70_ ^ 2 - 2 y_81_ * y_70_ + 1 y_81_ ^ 2 ] >= 6780.51
quadratic_ranged_392_lb: [ 1 x_72_ ^ 2 - 2 x_81_ * x_72_ + 1 x_81_ ^ 2 + 1 y_72_ ^ 2 - 2 y_81_ * y_72_ + 1 y_81_ ^ 2 ] >= 6229.08
quadratic_ranged_393_lb: [ 1 x_80_ ^ 2 - 2 x_81_ * x_80_ + 1 x_81_ ^ 2 + 1 y_80_ ^ 2 - 2 y_81_ * y_80_ + 1 y_81_ ^ 2 ] >= 9989.1
quadratic_ranged_394_lb: [ 1 x_6_ ^ 2 - 2 x_82_ * x_6_ + 1 x_82_ ^ 2 + 1 y_6_ ^ 2 - 2 y_82_ * y_6_ + 1 y_82_ ^ 2 ] >= 34417.35
quadratic_ranged_395_lb: [ 1 x_18_ ^ 2 - 2 x_82_ * x_18_ + 1 x_82_ ^ 2 + 1 y_18_ ^ 2 - 2 y_82_ * y_18_ + 1 y_82_ ^ 2 ] >= 6637.95
quadratic_ranged_396_lb: [ 1 x_30_ ^ 2 - 2 x_82_ * x_30_ + 1 x_82_ ^ 2 + 1 y_30_ ^ 2 - 2 y_82_ * y_30_ + 1 y_82_ ^ 2 ] >= 15730.11
quadratic_ranged_397_lb: [ 1 x_57_ ^ 2 - 2 x_82_ * x_57_ + 1 x_82_ ^ 2 + 1 y_57_ ^ 2 - 2 y_82_ * y_57_ + 1 y_82_ ^ 2 ] >= 21883.95
quadratic_ranged_398_lb: [ 1 x_79_ ^ 2 - 2 x_82_ * x_79_ + 1 x_82_ ^ 2 + 1 y_79_ ^ 2 - 2 y_82_ * y_79_ + 1 y_82_ ^ 2 ] >= 16696.35
quadratic_ranged_399_lb: [ 1 x_81_ ^ 2 - 2 x_82_ * x_81_ + 1 x_82_ ^ 2 + 1 y_81_ ^ 2 - 2 y_82_ * y_81_ + 1 y_82_ ^ 2 ] >= 11310.75
quadratic_ranged_400_lb: [ 1 x_27_ ^ 2 - 2 x_83_ * x_27_ + 1 x_83_ ^ 2 + 1 y_27_ ^ 2 - 2 y_83_ * y_27_ + 1 y_83_ ^ 2 ] >= 11405.789999999999
quadratic_ranged_401_lb: [ 1 x_28_ ^ 2 - 2 x_83_ * x_28_ + 1 x_83_ ^ 2 + 1 y_28_ ^ 2 - 2 y_83_ * y_28_ + 1 y_83_ ^ 2 ] >= 11298.87
quadratic_ranged_402_lb: [ 1 x_34_ ^ 2 - 2 x_83_ * x_34_ + 1 x_83_ ^ 2 + 1 y_34_ ^ 2 - 2 y_83_ * y_34_ + 1 y_83_ ^ 2 ] >= 10419.75
quadratic_ranged_403_lb: [ 1 x_37_ ^ 2 - 2 x_83_ * x_37_ + 1 x_83_ ^ 2 + 1 y_37_ ^ 2 - 2 y_83_ * y_37_ + 1 y_83_ ^ 2 ] >= 11350.35
quadratic_ranged_404_lb: [ 1 x_52_ ^ 2 - 2 x_83_ * x_52_ + 1 x_83_ ^ 2 + 1 y_52_ ^ 2 - 2 y_83_ * y_52_ + 1 y_83_ ^ 2 ] >= 10340.55
quadratic_ranged_405_lb: [ 1 x_59_ ^ 2 - 2 x_83_ * x_59_ + 1 x_83_ ^ 2 + 1 y_59_ ^ 2 - 2 y_83_ * y_59_ + 1 y_83_ ^ 2 ] >= 2680.92
quadratic_ranged_406_lb: [ 1 x_60_ ^ 2 - 2 x_83_ * x_60_ + 1 x_83_ ^ 2 + 1 y_60_ ^ 2 - 2 y_83_ * y_60_ + 1 y_83_ ^ 2 ] >= 8822.88
quadratic_ranged_407_lb: [ 1 x_71_ ^ 2 - 2 x_83_ * x_71_ + 1 x_83_ ^ 2 + 1 y_71_ ^ 2 - 2 y_83_ * y_71_ + 1 y_83_ ^ 2 ] >= 10620.72
quadratic_ranged_408_lb: [ 1 x_74_ ^ 2 - 2 x_83_ * x_74_ + 1 x_83_ ^ 2 + 1 y_74_ ^ 2 - 2 y_83_ * y_74_ + 1 y_83_ ^ 2 ] >= 6404.3099999999995
quadratic_ranged_409_lb: [ 1 x_78_ ^ 2 - 2 x_83_ * x_78_ + 1 x_83_ ^ 2 + 1 y_78_ ^ 2 - 2 y_83_ * y_78_ + 1 y_83_ ^ 2 ] >= 2091.87
quadratic_ranged_410_lb: [ 1 x_82_ ^ 2 - 2 x_83_ * x_82_ + 1 x_83_ ^ 2 + 1 y_82_ ^ 2 - 2 y_83_ * y_82_ + 1 y_83_ ^ 2 ] >= 11563.2
quadratic_ranged_411_lb: [ 1 x_9_ ^ 2 - 2 x_84_ * x_9_ + 1 x_84_ ^ 2 + 1 y_9_ ^ 2 - 2 y_84_ * y_9_ + 1 y_84_ ^ 2 ] >= 12454.2
quadratic_ranged_412_lb: [ 1 x_12_ ^ 2 - 2 x_84_ * x_12_ + 1 x_84_ ^ 2 + 1 y_12_ ^ 2 - 2 y_84_ * y_12_ + 1 y_84_ ^ 2 ] >= 5069.79
quadratic_ranged_413_lb: [ 1 x_13_ ^ 2 - 2 x_84_ * x_13_ + 1 x_84_ ^ 2 + 1 y_13_ ^ 2 - 2 y_84_ * y_13_ + 1 y_84_ ^ 2 ] >= 22819.5
quadratic_ranged_414_lb: [ 1 x_20_ ^ 2 - 2 x_84_ * x_20_ + 1 x_84_ ^ 2 + 1 y_20_ ^ 2 - 2 y_84_ * y_20_ + 1 y_84_ ^ 2 ] >= 35834.04
quadratic_ranged_415_lb: [ 1 x_29_ ^ 2 - 2 x_84_ * x_29_ + 1 x_84_ ^ 2 + 1 y_29_ ^ 2 - 2 y_84_ * y_29_ + 1 y_84_ ^ 2 ] >= 3287.79
quadratic_ranged_416_lb: [ 1 x_50_ ^ 2 - 2 x_84_ * x_50_ + 1 x_84_ ^ 2 + 1 y_50_ ^ 2 - 2 y_84_ * y_50_ + 1 y_84_ ^ 2 ] >= 17022.06
quadratic_ranged_417_lb: [ 1 x_54_ ^ 2 - 2 x_84_ * x_54_ + 1 x_84_ ^ 2 + 1 y_54_ ^ 2 - 2 y_84_ * y_54_ + 1 y_84_ ^ 2 ] >= 28358.55
quadratic_ranged_418_lb: [ 1 x_62_ ^ 2 - 2 x_84_ * x_62_ + 1 x_84_ ^ 2 + 1 y_62_ ^ 2 - 2 y_84_ * y_62_ + 1 y_84_ ^ 2 ] >= 5395.5
quadratic_ranged_419_lb: [ 1 x_64_ ^ 2 - 2 x_84_ * x_64_ + 1 x_84_ ^ 2 + 1 y_64_ ^ 2 - 2 y_84_ * y_64_ + 1 y_84_ ^ 2 ] >= 2103.75
quadratic_ranged_420_lb: [ 1 x_72_ ^ 2 - 2 x_84_ * x_72_ + 1 x_84_ ^ 2 + 1 y_72_ ^ 2 - 2 y_84_ * y_72_ + 1 y_84_ ^ 2 ] >= 4565.88
quadratic_ranged_421_lb: [ 1 x_83_ ^ 2 - 2 x_84_ * x_83_ + 1 x_84_ ^ 2 + 1 y_83_ ^ 2 - 2 y_84_ * y_83_ + 1 y_84_ ^ 2 ] >= 8412.03
quadratic_ranged_422_lb: [ 1 x_9_ ^ 2 - 2 x_85_ * x_9_ + 1 x_85_ ^ 2 + 1 y_9_ ^ 2 - 2 y_85_ * y_9_ + 1 y_85_ ^ 2 ] >= 14844.06
quadratic_ranged_423_lb: [ 1 x_12_ ^ 2 - 2 x_85_ * x_12_ + 1 x_85_ ^ 2 + 1 y_12_ ^ 2 - 2 y_85_ * y_12_ + 1 y_85_ ^ 2 ] >= 7497.2699999999995
quadratic_ranged_424_lb: [ 1 x_18_ ^ 2 - 2 x_85_ * x_18_ + 1 x_85_ ^ 2 + 1 y_18_ ^ 2 - 2 y_85_ * y_18_ + 1 y_85_ ^ 2 ] >= 7375.5
quadratic_ranged_425_lb: [ 1 x_19_ ^ 2 - 2 x_85_ * x_19_ + 1 x_85_ ^ 2 + 1 y_19_ ^ 2 - 2 y_85_ * y_19_ + 1 y_85_ ^ 2 ] >= 9200.07
quadratic_ranged_426_lb: [ 1 x_23_ ^ 2 - 2 x_85_ * x_23_ + 1 x_85_ ^ 2 + 1 y_23_ ^ 2 - 2 y_85_ * y_23_ + 1 y_85_ ^ 2 ] >= 1327.59
quadratic_ranged_427_lb: [ 1 x_27_ ^ 2 - 2 x_85_ * x_27_ + 1 x_85_ ^ 2 + 1 y_27_ ^ 2 - 2 y_85_ * y_27_ + 1 y_85_ ^ 2 ] >= 2890.8
quadratic_ranged_428_lb: [ 1 x_61_ ^ 2 - 2 x_85_ * x_61_ + 1 x_85_ ^ 2 + 1 y_61_ ^ 2 - 2 y_85_ * y_61_ + 1 y_85_ ^ 2 ] >= 9845.55
quadratic_ranged_429_lb: [ 1 x_69_ ^ 2 - 2 x_85_ * x_69_ + 1 x_85_ ^ 2 + 1 y_69_ ^ 2 - 2 y_85_ * y_69_ + 1 y_85_ ^ 2 ] >= 2676.96
quadratic_ranged_430_lb: [ 1 x_81_ ^ 2 - 2 x_85_ * x_81_ + 1 x_85_ ^ 2 + 1 y_81_ ^ 2 - 2 y_85_ * y_81_ + 1 y_85_ ^ 2 ] >= 15691.5
quadratic_ranged_431_lb: [ 1 x_82_ ^ 2 - 2 x_85_ * x_82_ + 1 x_85_ ^ 2 + 1 y_82_ ^ 2 - 2 y_85_ * y_82_ + 1 y_85_ ^ 2 ] >= 5311.35
quadratic_ranged_432_lb: [ 1 x_83_ ^ 2 - 2 x_85_ * x_83_ + 1 x_85_ ^ 2 + 1 y_83_ ^ 2 - 2 y_85_ * y_83_ + 1 y_85_ ^ 2 ] >= 4321.35
quadratic_ranged_433_lb: [ 1 x_84_ ^ 2 - 2 x_85_ * x_84_ + 1 x_85_ ^ 2 + 1 y_84_ ^ 2 - 2 y_85_ * y_84_ + 1 y_85_ ^ 2 ] >= 23057.1
quadratic_ranged_434_lb: [ 1 x_11_ ^ 2 - 2 x_86_ * x_11_ + 1 x_86_ ^ 2 + 1 y_11_ ^ 2 - 2 y_86_ * y_11_ + 1 y_86_ ^ 2 ] >= 20434.59
quadratic_ranged_435_lb: [ 1 x_35_ ^ 2 - 2 x_86_ * x_35_ + 1 x_86_ ^ 2 + 1 y_35_ ^ 2 - 2 y_86_ * y_35_ + 1 y_86_ ^ 2 ] >= 23705.55
quadratic_ranged_436_lb: [ 1 x_38_ ^ 2 - 2 x_86_ * x_38_ + 1 x_86_ ^ 2 + 1 y_38_ ^ 2 - 2 y_86_ * y_38_ + 1 y_86_ ^ 2 ] >= 29716.829999999998
quadratic_ranged_437_lb: [ 1 x_46_ ^ 2 - 2 x_86_ * x_46_ + 1 x_86_ ^ 2 + 1 y_46_ ^ 2 - 2 y_86_ * y_46_ + 1 y_86_ ^ 2 ] >= 3390.75
quadratic_ranged_438_lb: [ 1 x_50_ ^ 2 - 2 x_86_ * x_50_ + 1 x_86_ ^ 2 + 1 y_50_ ^ 2 - 2 y_86_ * y_50_ + 1 y_86_ ^ 2 ] >= 14693.58
quadratic_ranged_439_lb: [ 1 x_54_ ^ 2 - 2 x_86_ * x_54_ + 1 x_86_ ^ 2 + 1 y_54_ ^ 2 - 2 y_86_ * y_54_ + 1 y_86_ ^ 2 ] >= 23099.67
quadratic_ranged_440_lb: [ 1 x_63_ ^ 2 - 2 x_86_ * x_63_ + 1 x_86_ ^ 2 + 1 y_63_ ^ 2 - 2 y_86_ * y_63_ + 1 y_86_ ^ 2 ] >= 12672
quadratic_ranged_441_lb: [ 1 x_67_ ^ 2 - 2 x_86_ * x_67_ + 1 x_86_ ^ 2 + 1 y_67_ ^ 2 - 2 y_86_ * y_67_ + 1 y_86_ ^ 2 ] >= 452.43
quadratic_ranged_442_lb: [ 1 x_85_ ^ 2 - 2 x_86_ * x_85_ + 1 x_86_ ^ 2 + 1 y_85_ ^ 2 - 2 y_86_ * y_85_ + 1 y_86_ ^ 2 ] >= 18067.5
quadratic_ranged_443_lb: [ 1 x_6_ ^ 2 - 2 x_87_ * x_6_ + 1 x_87_ ^ 2 + 1 y_6_ ^ 2 - 2 y_87_ * y_6_ + 1 y_87_ ^ 2 ] >= 18300.15
quadratic_ranged_444_lb: [ 1 x_9_ ^ 2 - 2 x_87_ * x_9_ + 1 x_87_ ^ 2 + 1 y_9_ ^ 2 - 2 y_87_ * y_9_ + 1 y_87_ ^ 2 ] >= 8154.63
quadratic_ranged_445_lb: [ 1 x_18_ ^ 2 - 2 x_87_ * x_18_ + 1 x_87_ ^ 2 + 1 y_18_ ^ 2 - 2 y_87_ * y_18_ + 1 y_87_ ^ 2 ] >= 2535.39
quadratic_ranged_446_lb: [ 1 x_35_ ^ 2 - 2 x_87_ * x_35_ + 1 x_87_ ^ 2 + 1 y_35_ ^ 2 - 2 y_87_ * y_35_ + 1 y_87_ ^ 2 ] >= 722.7
quadratic_ranged_447_lb: [ 1 x_37_ ^ 2 - 2 x_87_ * x_37_ + 1 x_87_ ^ 2 + 1 y_37_ ^ 2 - 2 y_87_ * y_37_ + 1 y_87_ ^ 2 ] >= 26422.11
quadratic_ranged_448_lb: [ 1 x_46_ ^ 2 - 2 x_87_ * x_46_ + 1 x_87_ ^ 2 + 1 y_46_ ^ 2 - 2 y_87_ * y_46_ + 1 y_87_ ^ 2 ] >= 16594.38
quadratic_ranged_449_lb: [ 1 x_60_ ^ 2 - 2 x_87_ * x_60_ + 1 x_87_ ^ 2 + 1 y_60_ ^ 2 - 2 y_87_ * y_60_ + 1 y_87_ ^ 2 ] >= 1451.34
quadratic_ranged_450_lb: [ 1 x_64_ ^ 2 - 2 x_87_ * x_64_ + 1 x_87_ ^ 2 + 1 y_64_ ^ 2 - 2 y_87_ * y_64_ + 1 y_87_ ^ 2 ] >= 28040.76
quadratic_ranged_451_lb: [ 1 x_86_ ^ 2 - 2 x_87_ * x_86_ + 1 x_87_ ^ 2 + 1 y_86_ ^ 2 - 2 y_87_ * y_86_ + 1 y_87_ ^ 2 ] >= 16862.67
quadratic_ranged_452_lb: [ 1 x_12_ ^ 2 - 2 x_88_ * x_12_ + 1 x_88_ ^ 2 + 1 y_12_ ^ 2 - 2 y_88_ * y_12_ + 1 y_88_ ^ 2 ] >= 14828.22
quadratic_ranged_453_lb: [ 1 x_17_ ^ 2 - 2 x_88_ * x_17_ + 1 x_88_ ^ 2 + 1 y_17_ ^ 2 - 2 y_88_ * y_17_ + 1 y_88_ ^ 2 ] >= 5846.94
quadratic_ranged_454_lb: [ 1 x_19_ ^ 2 - 2 x_88_ * x_19_ + 1 x_88_ ^ 2 + 1 y_19_ ^ 2 - 2 y_88_ * y_19_ + 1 y_88_ ^ 2 ] >= 7761.6
quadratic_ranged_455_lb: [ 1 x_44_ ^ 2 - 2 x_88_ * x_44_ + 1 x_88_ ^ 2 + 1 y_44_ ^ 2 - 2 y_88_ * y_44_ + 1 y_88_ ^ 2 ] >= 35838
quadratic_ranged_456_lb: [ 1 x_55_ ^ 2 - 2 x_88_ * x_55_ + 1 x_88_ ^ 2 + 1 y_55_ ^ 2 - 2 y_88_ * y_55_ + 1 y_88_ ^ 2 ] >= 36283.5
quadratic_ranged_457_lb: [ 1 x_61_ ^ 2 - 2 x_88_ * x_61_ + 1 x_88_ ^ 2 + 1 y_61_ ^ 2 - 2 y_88_ * y_61_ + 1 y_88_ ^ 2 ] >= 15214.32
quadratic_ranged_458_lb: [ 1 x_69_ ^ 2 - 2 x_88_ * x_69_ + 1 x_88_ ^ 2 + 1 y_69_ ^ 2 - 2 y_88_ * y_69_ + 1 y_88_ ^ 2 ] >= 36.63
quadratic_ranged_459_lb: [ 1 x_70_ ^ 2 - 2 x_88_ * x_70_ + 1 x_88_ ^ 2 + 1 y_70_ ^ 2 - 2 y_88_ * y_70_ + 1 y_88_ ^ 2 ] >= 34947
quadratic_ranged_460_lb: [ 1 x_87_ ^ 2 - 2 x_88_ * x_87_ + 1 x_88_ ^ 2 + 1 y_87_ ^ 2 - 2 y_88_ * y_87_ + 1 y_88_ ^ 2 ] >= 8824.86
quadratic_ranged_461_lb: [ 1 x_29_ ^ 2 - 2 x_89_ * x_29_ + 1 x_89_ ^ 2 + 1 y_29_ ^ 2 - 2 y_89_ * y_29_ + 1 y_89_ ^ 2 ] >= 2615.58
quadratic_ranged_462_lb: [ 1 x_58_ ^ 2 - 2 x_89_ * x_58_ + 1 x_89_ ^ 2 + 1 y_58_ ^ 2 - 2 y_89_ * y_58_ + 1 y_89_ ^ 2 ] >= 9101.07
quadratic_ranged_463_lb: [ 1 x_59_ ^ 2 - 2 x_89_ * x_59_ + 1 x_89_ ^ 2 + 1 y_59_ ^ 2 - 2 y_89_ * y_59_ + 1 y_89_ ^ 2 ] >= 14281.74
quadratic_ranged_464_lb: [ 1 x_71_ ^ 2 - 2 x_89_ * x_71_ + 1 x_89_ ^ 2 + 1 y_71_ ^ 2 - 2 y_89_ * y_71_ + 1 y_89_ ^ 2 ] >= 32719.5
quadratic_ranged_465_lb: [ 1 x_88_ ^ 2 - 2 x_89_ * x_88_ + 1 x_89_ ^ 2 + 1 y_88_ ^ 2 - 2 y_89_ * y_88_ + 1 y_89_ ^ 2 ] >= 25037.1
quadratic_ranged_466_lb: [ 1 x_9_ ^ 2 - 2 x_90_ * x_9_ + 1 x_90_ ^ 2 + 1 y_9_ ^ 2 - 2 y_90_ * y_9_ + 1 y_90_ ^ 2 ] >= 19262.43
quadratic_ranged_467_lb: [ 1 x_11_ ^ 2 - 2 x_90_ * x_11_ + 1 x_90_ ^ 2 + 1 y_11_ ^ 2 - 2 y_90_ * y_11_ + 1 y_90_ ^ 2 ] >= 17948.7
quadratic_ranged_468_lb: [ 1 x_19_ ^ 2 - 2 x_90_ * x_19_ + 1 x_90_ ^ 2 + 1 y_19_ ^ 2 - 2 y_90_ * y_19_ + 1 y_90_ ^ 2 ] >= 269.28
quadratic_ranged_469_lb: [ 1 x_23_ ^ 2 - 2 x_90_ * x_23_ + 1 x_90_ ^ 2 + 1 y_23_ ^ 2 - 2 y_90_ * y_23_ + 1 y_90_ ^ 2 ] >= 19437.66
quadratic_ranged_470_lb: [ 1 x_27_ ^ 2 - 2 x_90_ * x_27_ + 1 x_90_ ^ 2 + 1 y_27_ ^ 2 - 2 y_90_ * y_27_ + 1 y_90_ ^ 2 ] >= 24640.11
quadratic_ranged_471_lb: [ 1 x_54_ ^ 2 - 2 x_90_ * x_54_ + 1 x_90_ ^ 2 + 1 y_54_ ^ 2 - 2 y_90_ * y_54_ + 1 y_90_ ^ 2 ] >= 26298.36
quadratic_ranged_472_lb: [ 1 x_58_ ^ 2 - 2 x_90_ * x_58_ + 1 x_90_ ^ 2 + 1 y_58_ ^ 2 - 2 y_90_ * y_58_ + 1 y_90_ ^ 2 ] >= 1006.83
quadratic_ranged_473_lb: [ 1 x_64_ ^ 2 - 2 x_90_ * x_64_ + 1 x_90_ ^ 2 + 1 y_64_ ^ 2 - 2 y_90_ * y_64_ + 1 y_90_ ^ 2 ] >= 4096.62
quadratic_ranged_474_lb: [ 1 x_68_ ^ 2 - 2 x_90_ * x_68_ + 1 x_90_ ^ 2 + 1 y_68_ ^ 2 - 2 y_90_ * y_68_ + 1 y_90_ ^ 2 ] >= 21788.91
quadratic_ranged_475_lb: [ 1 x_71_ ^ 2 - 2 x_90_ * x_71_ + 1 x_90_ ^ 2 + 1 y_71_ ^ 2 - 2 y_90_ * y_71_ + 1 y_90_ ^ 2 ] >= 20726.64
quadratic_ranged_476_lb: [ 1 x_76_ ^ 2 - 2 x_90_ * x_76_ + 1 x_90_ ^ 2 + 1 y_76_ ^ 2 - 2 y_90_ * y_76_ + 1 y_90_ ^ 2 ] >= 7367.58
quadratic_ranged_477_lb: [ 1 x_80_ ^ 2 - 2 x_90_ * x_80_ + 1 x_90_ ^ 2 + 1 y_80_ ^ 2 - 2 y_90_ * y_80_ + 1 y_90_ ^ 2 ] >= 28714.95
quadratic_ranged_478_lb: [ 1 x_89_ ^ 2 - 2 x_90_ * x_89_ + 1 x_90_ ^ 2 + 1 y_89_ ^ 2 - 2 y_90_ * y_89_ + 1 y_90_ ^ 2 ] >= 4167.9
quadratic_ranged_479_lb: [ 1 x_3_ ^ 2 - 2 x_91_ * x_3_ + 1 x_91_ ^ 2 + 1 y_3_ ^ 2 - 2 y_91_ * y_3_ + 1 y_91_ ^ 2 ] >= 4669.83
quadratic_ranged_480_lb: [ 1 x_11_ ^ 2 - 2 x_91_ * x_11_ + 1 x_91_ ^ 2 + 1 y_11_ ^ 2 - 2 y_91_ * y_11_ + 1 y_91_ ^ 2 ] >= 52.47
quadratic_ranged_481_lb: [ 1 x_33_ ^ 2 - 2 x_91_ * x_33_ + 1 x_91_ ^ 2 + 1 y_33_ ^ 2 - 2 y_91_ * y_33_ + 1 y_91_ ^ 2 ] >= 14993.55
quadratic_ranged_482_lb: [ 1 x_34_ ^ 2 - 2 x_91_ * x_34_ + 1 x_91_ ^ 2 + 1 y_34_ ^ 2 - 2 y_91_ * y_34_ + 1 y_91_ ^ 2 ] >= 13800.6
quadratic_ranged_483_lb: [ 1 x_36_ ^ 2 - 2 x_91_ * x_36_ + 1 x_91_ ^ 2 + 1 y_36_ ^ 2 - 2 y_91_ * y_36_ + 1 y_91_ ^ 2 ] >= 14960.88
quadratic_ranged_484_lb: [ 1 x_42_ ^ 2 - 2 x_91_ * x_42_ + 1 x_91_ ^ 2 + 1 y_42_ ^ 2 - 2 y_91_ * y_42_ + 1 y_91_ ^ 2 ] >= 1522.62
quadratic_ranged_485_lb: [ 1 x_48_ ^ 2 - 2 x_91_ * x_48_ + 1 x_91_ ^ 2 + 1 y_48_ ^ 2 - 2 y_91_ * y_48_ + 1 y_91_ ^ 2 ] >= 13247.19
quadratic_ranged_486_lb: [ 1 x_55_ ^ 2 - 2 x_91_ * x_55_ + 1 x_91_ ^ 2 + 1 y_55_ ^ 2 - 2 y_91_ * y_55_ + 1 y_91_ ^ 2 ] >= 22921.47
quadratic_ranged_487_lb: [ 1 x_62_ ^ 2 - 2 x_91_ * x_62_ + 1 x_91_ ^ 2 + 1 y_62_ ^ 2 - 2 y_91_ * y_62_ + 1 y_91_ ^ 2 ] >= 19546.56
quadratic_ranged_488_lb: [ 1 x_67_ ^ 2 - 2 x_91_ * x_67_ + 1 x_91_ ^ 2 + 1 y_67_ ^ 2 - 2 y_91_ * y_67_ + 1 y_91_ ^ 2 ] >= 23052.15
quadratic_ranged_489_lb: [ 1 x_76_ ^ 2 - 2 x_91_ * x_76_ + 1 x_91_ ^ 2 + 1 y_76_ ^ 2 - 2 y_91_ * y_76_ + 1 y_91_ ^ 2 ] >= 2143.35
quadratic_ranged_490_lb: [ 1 x_82_ ^ 2 - 2 x_91_ * x_82_ + 1 x_91_ ^ 2 + 1 y_82_ ^ 2 - 2 y_91_ * y_82_ + 1 y_91_ ^ 2 ] >= 2004.75
quadratic_ranged_491_lb: [ 1 x_90_ ^ 2 - 2 x_91_ * x_90_ + 1 x_91_ ^ 2 + 1 y_90_ ^ 2 - 2 y_91_ * y_90_ + 1 y_91_ ^ 2 ] >= 16656.75
quadratic_ranged_492_lb: [ 1 x_12_ ^ 2 - 2 x_92_ * x_12_ + 1 x_92_ ^ 2 + 1 y_12_ ^ 2 - 2 y_92_ * y_12_ + 1 y_92_ ^ 2 ] >= 6657.75
quadratic_ranged_493_lb: [ 1 x_27_ ^ 2 - 2 x_92_ * x_27_ + 1 x_92_ ^ 2 + 1 y_27_ ^ 2 - 2 y_92_ * y_27_ + 1 y_92_ ^ 2 ] >= 24680.7
quadratic_ranged_494_lb: [ 1 x_51_ ^ 2 - 2 x_92_ * x_51_ + 1 x_92_ ^ 2 + 1 y_51_ ^ 2 - 2 y_92_ * y_51_ + 1 y_92_ ^ 2 ] >= 5881.59
quadratic_ranged_495_lb: [ 1 x_54_ ^ 2 - 2 x_92_ * x_54_ + 1 x_92_ ^ 2 + 1 y_54_ ^ 2 - 2 y_92_ * y_54_ + 1 y_92_ ^ 2 ] >= 28231.829999999998
quadratic_ranged_496_lb: [ 1 x_79_ ^ 2 - 2 x_92_ * x_79_ + 1 x_92_ ^ 2 + 1 y_79_ ^ 2 - 2 y_92_ * y_79_ + 1 y_92_ ^ 2 ] >= 1863.18
quadratic_ranged_497_lb: [ 1 x_91_ ^ 2 - 2 x_92_ * x_91_ + 1 x_92_ ^ 2 + 1 y_91_ ^ 2 - 2 y_92_ * y_91_ + 1 y_92_ ^ 2 ] >= 17655.66
quadratic_ranged_498_lb: [ 1 x_13_ ^ 2 - 2 x_93_ * x_13_ + 1 x_93_ ^ 2 + 1 y_13_ ^ 2 - 2 y_93_ * y_13_ + 1 y_93_ ^ 2 ] >= 8650.62
quadratic_ranged_499_lb: [ 1 x_14_ ^ 2 - 2 x_93_ * x_14_ + 1 x_93_ ^ 2 + 1 y_14_ ^ 2 - 2 y_93_ * y_14_ + 1 y_93_ ^ 2 ] >= 3450.15
quadratic_ranged_500_lb: [ 1 x_19_ ^ 2 - 2 x_93_ * x_19_ + 1 x_93_ ^ 2 + 1 y_19_ ^ 2 - 2 y_93_ * y_19_ + 1 y_93_ ^ 2 ] >= 9033.75
quadratic_ranged_501_lb: [ 1 x_46_ ^ 2 - 2 x_93_ * x_46_ + 1 x_93_ ^ 2 + 1 y_46_ ^ 2 - 2 y_93_ * y_46_ + 1 y_93_ ^ 2 ] >= 1984.95
quadratic_ranged_502_lb: [ 1 x_86_ ^ 2 - 2 x_93_ * x_86_ + 1 x_93_ ^ 2 + 1 y_86_ ^ 2 - 2 y_93_ * y_86_ + 1 y_93_ ^ 2 ] >= 1999.8
quadratic_ranged_503_lb: [ 1 x_92_ ^ 2 - 2 x_93_ * x_92_ + 1 x_93_ ^ 2 + 1 y_92_ ^ 2 - 2 y_93_ * y_92_ + 1 y_93_ ^ 2 ] >= 9068.4
quadratic_ranged_504_lb: [ 1 x_9_ ^ 2 - 2 x_94_ * x_9_ + 1 x_94_ ^ 2 + 1 y_9_ ^ 2 - 2 y_94_ * y_9_ + 1 y_94_ ^ 2 ] >= 13386.78
quadratic_ranged_505_lb: [ 1 x_12_ ^ 2 - 2 x_94_ * x_12_ + 1 x_94_ ^ 2 + 1 y_12_ ^ 2 - 2 y_94_ * y_12_ + 1 y_94_ ^ 2 ] >= 6511.23
quadratic_ranged_506_lb: [ 1 x_16_ ^ 2 - 2 x_94_ * x_16_ + 1 x_94_ ^ 2 + 1 y_16_ ^ 2 - 2 y_94_ * y_16_ + 1 y_94_ ^ 2 ] >= 26169.66
quadratic_ranged_507_lb: [ 1 x_24_ ^ 2 - 2 x_94_ * x_24_ + 1 x_94_ ^ 2 + 1 y_24_ ^ 2 - 2 y_94_ * y_24_ + 1 y_94_ ^ 2 ] >= 16556.76
quadratic_ranged_508_lb: [ 1 x_25_ ^ 2 - 2 x_94_ * x_25_ + 1 x_94_ ^ 2 + 1 y_25_ ^ 2 - 2 y_94_ * y_25_ + 1 y_94_ ^ 2 ] >= 4321.35
quadratic_ranged_509_lb: [ 1 x_34_ ^ 2 - 2 x_94_ * x_34_ + 1 x_94_ ^ 2 + 1 y_34_ ^ 2 - 2 y_94_ * y_34_ + 1 y_94_ ^ 2 ] >= 5520.24
quadratic_ranged_510_lb: [ 1 x_43_ ^ 2 - 2 x_94_ * x_43_ + 1 x_94_ ^ 2 + 1 y_43_ ^ 2 - 2 y_94_ * y_43_ + 1 y_94_ ^ 2 ] >= 6850.8
quadratic_ranged_511_lb: [ 1 x_54_ ^ 2 - 2 x_94_ * x_54_ + 1 x_94_ ^ 2 + 1 y_54_ ^ 2 - 2 y_94_ * y_54_ + 1 y_94_ ^ 2 ] >= 7596.2699999999995
quadratic_ranged_512_lb: [ 1 x_58_ ^ 2 - 2 x_94_ * x_58_ + 1 x_94_ ^ 2 + 1 y_58_ ^ 2 - 2 y_94_ * y_58_ + 1 y_94_ ^ 2 ] >= 11040.48
quadratic_ranged_513_lb: [ 1 x_92_ ^ 2 - 2 x_94_ * x_92_ + 1 x_94_ ^ 2 + 1 y_92_ ^ 2 - 2 y_94_ * y_92_ + 1 y_94_ ^ 2 ] >= 10266.3
quadratic_ranged_514_lb: [ 1 x_93_ ^ 2 - 2 x_94_ * x_93_ + 1 x_94_ ^ 2 + 1 y_93_ ^ 2 - 2 y_94_ * y_93_ + 1 y_94_ ^ 2 ] >= 10107.9
quadratic_ranged_515_lb: [ 1 x_27_ ^ 2 - 2 x_95_ * x_27_ + 1 x_95_ ^ 2 + 1 y_27_ ^ 2 - 2 y_95_ * y_27_ + 1 y_95_ ^ 2 ] >= 28832.76
quadratic_ranged_516_lb: [ 1 x_34_ ^ 2 - 2 x_95_ * x_34_ + 1 x_95_ ^ 2 + 1 y_34_ ^ 2 - 2 y_95_ * y_34_ + 1 y_95_ ^ 2 ] >= 39382.2
quadratic_ranged_517_lb: [ 1 x_41_ ^ 2 - 2 x_95_ * x_41_ + 1 x_95_ ^ 2 + 1 y_41_ ^ 2 - 2 y_95_ * y_41_ + 1 y_95_ ^ 2 ] >= 10177.2
quadratic_ranged_518_lb: [ 1 x_49_ ^ 2 - 2 x_95_ * x_49_ + 1 x_95_ ^ 2 + 1 y_49_ ^ 2 - 2 y_95_ * y_49_ + 1 y_95_ ^ 2 ] >= 34714.35
quadratic_ranged_519_lb: [ 1 x_54_ ^ 2 - 2 x_95_ * x_54_ + 1 x_95_ ^ 2 + 1 y_54_ ^ 2 - 2 y_95_ * y_54_ + 1 y_95_ ^ 2 ] >= 10067.31
quadratic_ranged_520_lb: [ 1 x_84_ ^ 2 - 2 x_95_ * x_84_ + 1 x_95_ ^ 2 + 1 y_84_ ^ 2 - 2 y_95_ * y_84_ + 1 y_95_ ^ 2 ] >= 12808.619999999999
quadratic_ranged_521_lb: [ 1 x_90_ ^ 2 - 2 x_95_ * x_90_ + 1 x_95_ ^ 2 + 1 y_90_ ^ 2 - 2 y_95_ * y_90_ + 1 y_95_ ^ 2 ] >= 24378.75
quadratic_ranged_522_lb: [ 1 x_94_ ^ 2 - 2 x_95_ * x_94_ + 1 x_95_ ^ 2 + 1 y_94_ ^ 2 - 2 y_95_ * y_94_ + 1 y_95_ ^ 2 ] >= 21071.16
quadratic_ranged_523_lb: [ 1 x_19_ ^ 2 - 2 x_96_ * x_19_ + 1 x_96_ ^ 2 + 1 y_19_ ^ 2 - 2 y_96_ * y_19_ + 1 y_96_ ^ 2 ] >= 21958.2
quadratic_ranged_524_lb: [ 1 x_23_ ^ 2 - 2 x_96_ * x_23_ + 1 x_96_ ^ 2 + 1 y_23_ ^ 2 - 2 y_96_ * y_23_ + 1 y_96_ ^ 2 ] >= 1475.1
quadratic_ranged_525_lb: [ 1 x_26_ ^ 2 - 2 x_96_ * x_26_ + 1 x_96_ ^ 2 + 1 y_26_ ^ 2 - 2 y_96_ * y_26_ + 1 y_96_ ^ 2 ] >= 2967.03
quadratic_ranged_526_lb: [ 1 x_32_ ^ 2 - 2 x_96_ * x_32_ + 1 x_96_ ^ 2 + 1 y_32_ ^ 2 - 2 y_96_ * y_32_ + 1 y_96_ ^ 2 ] >= 34800.48
quadratic_ranged_527_lb: [ 1 x_38_ ^ 2 - 2 x_96_ * x_38_ + 1 x_96_ ^ 2 + 1 y_38_ ^ 2 - 2 y_96_ * y_38_ + 1 y_96_ ^ 2 ] >= 746.46
quadratic_ranged_528_lb: [ 1 x_45_ ^ 2 - 2 x_96_ * x_45_ + 1 x_96_ ^ 2 + 1 y_45_ ^ 2 - 2 y_96_ * y_45_ + 1 y_96_ ^ 2 ] >= 7589.34
quadratic_ranged_529_lb: [ 1 x_49_ ^ 2 - 2 x_96_ * x_49_ + 1 x_96_ ^ 2 + 1 y_49_ ^ 2 - 2 y_96_ * y_49_ + 1 y_96_ ^ 2 ] >= 11137.5
quadratic_ranged_530_lb: [ 1 x_54_ ^ 2 - 2 x_96_ * x_54_ + 1 x_96_ ^ 2 + 1 y_54_ ^ 2 - 2 y_96_ * y_54_ + 1 y_96_ ^ 2 ] >= 1584
quadratic_ranged_531_lb: [ 1 x_56_ ^ 2 - 2 x_96_ * x_56_ + 1 x_96_ ^ 2 + 1 y_56_ ^ 2 - 2 y_96_ * y_56_ + 1 y_96_ ^ 2 ] >= 16196.4
quadratic_ranged_532_lb: [ 1 x_63_ ^ 2 - 2 x_96_ * x_63_ + 1 x_96_ ^ 2 + 1 y_63_ ^ 2 - 2 y_96_ * y_63_ + 1 y_96_ ^ 2 ] >= 21135.51
quadratic_ranged_533_lb: [ 1 x_75_ ^ 2 - 2 x_96_ * x_75_ + 1 x_96_ ^ 2 + 1 y_75_ ^ 2 - 2 y_96_ * y_75_ + 1 y_96_ ^ 2 ] >= 34029.27
quadratic_ranged_534_lb: [ 1 x_95_ ^ 2 - 2 x_96_ * x_95_ + 1 x_96_ ^ 2 + 1 y_95_ ^ 2 - 2 y_96_ * y_95_ + 1 y_96_ ^ 2 ] >= 17369.55
quadratic_ranged_535_lb: [ 1 x_11_ ^ 2 - 2 x_97_ * x_11_ + 1 x_97_ ^ 2 + 1 y_11_ ^ 2 - 2 y_97_ * y_11_ + 1 y_97_ ^ 2 ] >= 6672.6
quadratic_ranged_536_lb: [ 1 x_17_ ^ 2 - 2 x_97_ * x_17_ + 1 x_97_ ^ 2 + 1 y_17_ ^ 2 - 2 y_97_ * y_17_ + 1 y_97_ ^ 2 ] >= 6217.2
quadratic_ranged_537_lb: [ 1 x_22_ ^ 2 - 2 x_97_ * x_22_ + 1 x_97_ ^ 2 + 1 y_22_ ^ 2 - 2 y_97_ * y_22_ + 1 y_97_ ^ 2 ] >= 9205.02
quadratic_ranged_538_lb: [ 1 x_35_ ^ 2 - 2 x_97_ * x_35_ + 1 x_97_ ^ 2 + 1 y_35_ ^ 2 - 2 y_97_ * y_35_ + 1 y_97_ ^ 2 ] >= 10321.74
quadratic_ranged_539_lb: [ 1 x_41_ ^ 2 - 2 x_97_ * x_41_ + 1 x_97_ ^ 2 + 1 y_41_ ^ 2 - 2 y_97_ * y_41_ + 1 y_97_ ^ 2 ] >= 3232.35
quadratic_ranged_540_lb: [ 1 x_51_ ^ 2 - 2 x_97_ * x_51_ + 1 x_97_ ^ 2 + 1 y_51_ ^ 2 - 2 y_97_ * y_51_ + 1 y_97_ ^ 2 ] >= 6387.48
quadratic_ranged_541_lb: [ 1 x_61_ ^ 2 - 2 x_97_ * x_61_ + 1 x_97_ ^ 2 + 1 y_61_ ^ 2 - 2 y_97_ * y_61_ + 1 y_97_ ^ 2 ] >= 5878.62
quadratic_ranged_542_lb: [ 1 x_81_ ^ 2 - 2 x_97_ * x_81_ + 1 x_97_ ^ 2 + 1 y_81_ ^ 2 - 2 y_97_ * y_81_ + 1 y_97_ ^ 2 ] >= 1699.83
quadratic_ranged_543_lb: [ 1 x_95_ ^ 2 - 2 x_97_ * x_95_ + 1 x_97_ ^ 2 + 1 y_95_ ^ 2 - 2 y_97_ * y_95_ + 1 y_97_ ^ 2 ] >= 2143.35
quadratic_ranged_544_lb: [ 1 x_96_ ^ 2 - 2 x_97_ * x_96_ + 1 x_97_ ^ 2 + 1 y_96_ ^ 2 - 2 y_97_ * y_96_ + 1 y_97_ ^ 2 ] >= 8317.98
quadratic_ranged_545_lb: [ 1 x_1_ ^ 2 - 2 x_98_ * x_1_ + 1 x_98_ ^ 2 + 1 y_1_ ^ 2 - 2 y_98_ * y_1_ + 1 y_98_ ^ 2 ] >= 18181.35
quadratic_ranged_546_lb: [ 1 x_6_ ^ 2 - 2 x_98_ * x_6_ + 1 x_98_ ^ 2 + 1 y_6_ ^ 2 - 2 y_98_ * y_6_ + 1 y_98_ ^ 2 ] >= 31938.39
quadratic_ranged_547_lb: [ 1 x_9_ ^ 2 - 2 x_98_ * x_9_ + 1 x_98_ ^ 2 + 1 y_9_ ^ 2 - 2 y_98_ * y_9_ + 1 y_98_ ^ 2 ] >= 12201.75
quadratic_ranged_548_lb: [ 1 x_16_ ^ 2 - 2 x_98_ * x_16_ + 1 x_98_ ^ 2 + 1 y_16_ ^ 2 - 2 y_98_ * y_16_ + 1 y_98_ ^ 2 ] >= 27063.63
quadratic_ranged_549_lb: [ 1 x_20_ ^ 2 - 2 x_98_ * x_20_ + 1 x_98_ ^ 2 + 1 y_20_ ^ 2 - 2 y_98_ * y_20_ + 1 y_98_ ^ 2 ] >= 26172.63
quadratic_ranged_550_lb: [ 1 x_29_ ^ 2 - 2 x_98_ * x_29_ + 1 x_98_ ^ 2 + 1 y_29_ ^ 2 - 2 y_98_ * y_29_ + 1 y_98_ ^ 2 ] >= 18154.62
quadratic_ranged_551_lb: [ 1 x_34_ ^ 2 - 2 x_98_ * x_34_ + 1 x_98_ ^ 2 + 1 y_34_ ^ 2 - 2 y_98_ * y_34_ + 1 y_98_ ^ 2 ] >= 22275.99
quadratic_ranged_552_lb: [ 1 x_36_ ^ 2 - 2 x_98_ * x_36_ + 1 x_98_ ^ 2 + 1 y_36_ ^ 2 - 2 y_98_ * y_36_ + 1 y_98_ ^ 2 ] >= 18723.87
quadratic_ranged_553_lb: [ 1 x_37_ ^ 2 - 2 x_98_ * x_37_ + 1 x_98_ ^ 2 + 1 y_37_ ^ 2 - 2 y_98_ * y_37_ + 1 y_98_ ^ 2 ] >= 43339.23
quadratic_ranged_554_lb: [ 1 x_38_ ^ 2 - 2 x_98_ * x_38_ + 1 x_98_ ^ 2 + 1 y_38_ ^ 2 - 2 y_98_ * y_38_ + 1 y_98_ ^ 2 ] >= 241.56
quadratic_ranged_555_lb: [ 1 x_46_ ^ 2 - 2 x_98_ * x_46_ + 1 x_98_ ^ 2 + 1 y_46_ ^ 2 - 2 y_98_ * y_46_ + 1 y_98_ ^ 2 ] >= 26169.66
quadratic_ranged_556_lb: [ 1 x_54_ ^ 2 - 2 x_98_ * x_54_ + 1 x_98_ ^ 2 + 1 y_54_ ^ 2 - 2 y_98_ * y_54_ + 1 y_98_ ^ 2 ] >= 1554.3
quadratic_ranged_557_lb: [ 1 x_57_ ^ 2 - 2 x_98_ * x_57_ + 1 x_98_ ^ 2 + 1 y_57_ ^ 2 - 2 y_98_ * y_57_ + 1 y_98_ ^ 2 ] >= 21313.71
quadratic_ranged_558_lb: [ 1 x_59_ ^ 2 - 2 x_98_ * x_59_ + 1 x_98_ ^ 2 + 1 y_59_ ^ 2 - 2 y_98_ * y_59_ + 1 y_98_ ^ 2 ] >= 5799.42
quadratic_ranged_559_lb: [ 1 x_66_ ^ 2 - 2 x_98_ * x_66_ + 1 x_98_ ^ 2 + 1 y_66_ ^ 2 - 2 y_98_ * y_66_ + 1 y_98_ ^ 2 ] >= 17725.95
quadratic_ranged_560_lb: [ 1 x_75_ ^ 2 - 2 x_98_ * x_75_ + 1 x_98_ ^ 2 + 1 y_75_ ^ 2 - 2 y_98_ * y_75_ + 1 y_98_ ^ 2 ] >= 41026.59
quadratic_ranged_561_lb: [ 1 x_85_ ^ 2 - 2 x_98_ * x_85_ + 1 x_98_ ^ 2 + 1 y_85_ ^ 2 - 2 y_98_ * y_85_ + 1 y_98_ ^ 2 ] >= 6047.91
quadratic_ranged_562_lb: [ 1 x_87_ ^ 2 - 2 x_98_ * x_87_ + 1 x_98_ ^ 2 + 1 y_87_ ^ 2 - 2 y_98_ * y_87_ + 1 y_98_ ^ 2 ] >= 2486.88
quadratic_ranged_563_lb: [ 1 x_89_ ^ 2 - 2 x_98_ * x_89_ + 1 x_98_ ^ 2 + 1 y_89_ ^ 2 - 2 y_98_ * y_89_ + 1 y_98_ ^ 2 ] >= 34075.8
quadratic_ranged_564_lb: [ 1 x_97_ ^ 2 - 2 x_98_ * x_97_ + 1 x_98_ ^ 2 + 1 y_97_ ^ 2 - 2 y_98_ * y_97_ + 1 y_98_ ^ 2 ] >= 10284.12
quadratic_ranged_565_lb: [ 1 x_10_ ^ 2 - 2 x_99_ * x_10_ + 1 x_99_ ^ 2 + 1 y_10_ ^ 2 - 2 y_99_ * y_10_ + 1 y_99_ ^ 2 ] >= 1497.87
quadratic_ranged_566_lb: [ 1 x_26_ ^ 2 - 2 x_99_ * x_26_ + 1 x_99_ ^ 2 + 1 y_26_ ^ 2 - 2 y_99_ * y_26_ + 1 y_99_ ^ 2 ] >= 8086.32
quadratic_ranged_567_lb: [ 1 x_42_ ^ 2 - 2 x_99_ * x_42_ + 1 x_99_ ^ 2 + 1 y_42_ ^ 2 - 2 y_99_ * y_42_ + 1 y_99_ ^ 2 ] >= 3900.6
quadratic_ranged_568_lb: [ 1 x_74_ ^ 2 - 2 x_99_ * x_74_ + 1 x_99_ ^ 2 + 1 y_74_ ^ 2 - 2 y_99_ * y_74_ + 1 y_99_ ^ 2 ] >= 19087.2
quadratic_ranged_569_lb: [ 1 x_78_ ^ 2 - 2 x_99_ * x_78_ + 1 x_99_ ^ 2 + 1 y_78_ ^ 2 - 2 y_99_ * y_78_ + 1 y_99_ ^ 2 ] >= 7464.6
quadratic_ranged_570_lb: [ 1 x_81_ ^ 2 - 2 x_99_ * x_81_ + 1 x_99_ ^ 2 + 1 y_81_ ^ 2 - 2 y_99_ * y_81_ + 1 y_99_ ^ 2 ] >= 3108.6
quadratic_ranged_571_lb: [ 1 x_93_ ^ 2 - 2 x_99_ * x_93_ + 1 x_99_ ^ 2 + 1 y_93_ ^ 2 - 2 y_99_ * y_93_ + 1 y_99_ ^ 2 ] >= 12703.68
quadratic_ranged_572_lb: [ 1 x_97_ ^ 2 - 2 x_99_ * x_97_ + 1 x_99_ ^ 2 + 1 y_97_ ^ 2 - 2 y_99_ * y_97_ + 1 y_99_ ^ 2 ] >= 5311.35
quadratic_ranged_573_lb: [ 1 x_98_ ^ 2 - 2 x_99_ * x_98_ + 1 x_99_ ^ 2 + 1 y_98_ ^ 2 - 2 y_99_ * y_98_ + 1 y_99_ ^ 2 ] >= 1402.83
quadratic_ranged_574_lb: [ 1 x_1_ ^ 2 - 2 x_100_ * x_1_ + 1 x_100_ ^ 2 + 1 y_1_ ^ 2 - 2 y_100_ * y_1_ + 1 y_100_ ^ 2 ] >= 15335.1
quadratic_ranged_575_lb: [ 1 x_2_ ^ 2 - 2 x_100_ * x_2_ + 1 x_100_ ^ 2 + 1 y_2_ ^ 2 - 2 y_100_ * y_2_ + 1 y_100_ ^ 2 ] >= 6387.48
quadratic_ranged_576_lb: [ 1 x_16_ ^ 2 - 2 x_100_ * x_16_ + 1 x_100_ ^ 2 + 1 y_16_ ^ 2 - 2 y_100_ * y_16_ + 1 y_100_ ^ 2 ] >= 37453.68
quadratic_ranged_577_lb: [ 1 x_31_ ^ 2 - 2 x_100_ * x_31_ + 1 x_100_ ^ 2 + 1 y_31_ ^ 2 - 2 y_100_ * y_31_ + 1 y_100_ ^ 2 ] >= 17527.95
quadratic_ranged_578_lb: [ 1 x_34_ ^ 2 - 2 x_100_ * x_34_ + 1 x_100_ ^ 2 + 1 y_34_ ^ 2 - 2 y_100_ * y_34_ + 1 y_100_ ^ 2 ] >= 14044.14
quadratic_ranged_579_lb: [ 1 x_42_ ^ 2 - 2 x_100_ * x_42_ + 1 x_100_ ^ 2 + 1 y_42_ ^ 2 - 2 y_100_ * y_42_ + 1 y_100_ ^ 2 ] >= 8161.5599999999995
quadratic_ranged_580_lb: [ 1 x_60_ ^ 2 - 2 x_100_ * x_60_ + 1 x_100_ ^ 2 + 1 y_60_ ^ 2 - 2 y_100_ * y_60_ + 1 y_100_ ^ 2 ] >= 872.1899999999999
quadratic_ranged_581_lb: [ 1 x_79_ ^ 2 - 2 x_100_ * x_79_ + 1 x_100_ ^ 2 + 1 y_79_ ^ 2 - 2 y_100_ * y_79_ + 1 y_100_ ^ 2 ] >= 13648.14
quadratic_ranged_582_lb: [ 1 x_91_ ^ 2 - 2 x_100_ * x_91_ + 1 x_100_ ^ 2 + 1 y_91_ ^ 2 - 2 y_100_ * y_91_ + 1 y_100_ ^ 2 ] >= 2781.9
quadratic_ranged_583_lb: [ 1 x_92_ ^ 2 - 2 x_100_ * x_92_ + 1 x_100_ ^ 2 + 1 y_92_ ^ 2 - 2 y_100_ * y_92_ + 1 y_100_ ^ 2 ] >= 25122.239999999998
quadratic_ranged_584_lb: [ 1 x_93_ ^ 2 - 2 x_100_ * x_93_ + 1 x_100_ ^ 2 + 1 y_93_ ^ 2 - 2 y_100_ * y_93_ + 1 y_100_ ^ 2 ] >= 21391.92
quadratic_ranged_585_lb: [ 1 x_99_ ^ 2 - 2 x_100_ * x_99_ + 1 x_100_ ^ 2 + 1 y_99_ ^ 2 - 2 y_100_ * y_99_ + 1 y_100_ ^ 2 ] >= 6407.28
c1_1: 1 x_17_ = 0
c2_1: 1 y_17_ = 0
Bounds
-210 <= x_1_ <= 210
-174 <= x_2_ <= 174
-112 <= x_3_ <= 112
-190 <= x_4_ <= 190
-163 <= x_5_ <= 163
-130 <= x_6_ <= 130
-129 <= x_7_ <= 129
-148 <= x_8_ <= 148
-155 <= x_9_ <= 155
-107 <= x_10_ <= 107
-134 <= x_11_ <= 134
-139 <= x_12_ <= 139
-58 <= x_13_ <= 58
-57 <= x_14_ <= 57
-159 <= x_15_ <= 159
-137 <= x_16_ <= 137
x_17_ = 0
-71 <= x_18_ <= 71
-134 <= x_19_ <= 134
-107 <= x_20_ <= 107
-146 <= x_21_ <= 146
-89 <= x_22_ <= 89
-163 <= x_23_ <= 163
-139 <= x_24_ <= 139
-113 <= x_25_ <= 113
-124 <= x_26_ <= 124
-120 <= x_27_ <= 120
-120 <= x_28_ <= 120
-153 <= x_29_ <= 153
-144 <= x_30_ <= 144
-134 <= x_31_ <= 134
-124 <= x_32_ <= 124
-151 <= x_33_ <= 151
-171 <= x_34_ <= 171
-64 <= x_35_ <= 64
-137 <= x_36_ <= 137
-205 <= x_37_ <= 205
-157 <= x_38_ <= 157
-115 <= x_39_ <= 115
-197 <= x_40_ <= 197
-125 <= x_41_ <= 125
-100 <= x_42_ <= 100
-94 <= x_43_ <= 94
-162 <= x_44_ <= 162
-111 <= x_45_ <= 111
-156 <= x_46_ <= 156
-168 <= x_47_ <= 168
-191 <= x_48_ <= 191
-172 <= x_49_ <= 172
-96 <= x_50_ <= 96
-155 <= x_51_ <= 155
-99 <= x_52_ <= 99
-156 <= x_53_ <= 156
-181 <= x_54_ <= 181
-179 <= x_55_ <= 179
-59 <= x_56_ <= 59
-114 <= x_57_ <= 114
-117 <= x_58_ <= 117
-77 <= x_59_ <= 77
-129 <= x_60_ <= 129
-157 <= x_61_ <= 157
-199 <= x_62_ <= 199
-155 <= x_63_ <= 155
-188 <= x_64_ <= 188
-149 <= x_65_ <= 149
-144 <= x_66_ <= 144
-169 <= x_67_ <= 169
-85 <= x_68_ <= 85
-83 <= x_69_ <= 83
-121 <= x_70_ <= 121
-134 <= x_71_ <= 134
-98 <= x_72_ <= 98
-89 <= x_73_ <= 89
-53 <= x_74_ <= 53
-162 <= x_75_ <= 162
-80 <= x_76_ <= 80
-139 <= x_77_ <= 139
-128 <= x_78_ <= 128
-34 <= x_79_ <= 34
-165 <= x_80_ <= 165
-121 <= x_81_ <= 121
-153 <= x_82_ <= 153
-130 <= x_83_ <= 130
-166 <= x_84_ <= 166
-135 <= x_85_ <= 135
-161 <= x_86_ <= 161
-91 <= x_87_ <= 91
-77 <= x_88_ <= 77
-198 <= x_89_ <= 198
-149 <= x_90_ <= 149
-127 <= x_91_ <= 127
-78 <= x_92_ <= 78
-116 <= x_93_ <= 116
-178 <= x_94_ <= 178
-126 <= x_95_ <= 126
-171 <= x_96_ <= 171
-79 <= x_97_ <= 79
-141 <= x_98_ <= 141
-147 <= x_99_ <= 147
-152 <= x_100_ <= 152
-210 <= y_1_ <= 210
-174 <= y_2_ <= 174
-112 <= y_3_ <= 112
-190 <= y_4_ <= 190
-163 <= y_5_ <= 163
-130 <= y_6_ <= 130
-129 <= y_7_ <= 129
-148 <= y_8_ <= 148
-155 <= y_9_ <= 155
-107 <= y_10_ <= 107
-134 <= y_11_ <= 134
-139 <= y_12_ <= 139
-58 <= y_13_ <= 58
-57 <= y_14_ <= 57
-159 <= y_15_ <= 159
-137 <= y_16_ <= 137
y_17_ = 0
-71 <= y_18_ <= 71
-134 <= y_19_ <= 134
-107 <= y_20_ <= 107
-146 <= y_21_ <= 146
-89 <= y_22_ <= 89
-163 <= y_23_ <= 163
-139 <= y_24_ <= 139
-113 <= y_25_ <= 113
-124 <= y_26_ <= 124
-120 <= y_27_ <= 120
-120 <= y_28_ <= 120
-153 <= y_29_ <= 153
-144 <= y_30_ <= 144
-134 <= y_31_ <= 134
-124 <= y_32_ <= 124
-151 <= y_33_ <= 151
-171 <= y_34_ <= 171
-64 <= y_35_ <= 64
-137 <= y_36_ <= 137
-205 <= y_37_ <= 205
-157 <= y_38_ <= 157
-115 <= y_39_ <= 115
-197 <= y_40_ <= 197
-125 <= y_41_ <= 125
-100 <= y_42_ <= 100
-94 <= y_43_ <= 94
-162 <= y_44_ <= 162
-111 <= y_45_ <= 111
-156 <= y_46_ <= 156
-168 <= y_47_ <= 168
-191 <= y_48_ <= 191
-172 <= y_49_ <= 172
-96 <= y_50_ <= 96
-155 <= y_51_ <= 155
-99 <= y_52_ <= 99
-156 <= y_53_ <= 156
-181 <= y_54_ <= 181
-179 <= y_55_ <= 179
-59 <= y_56_ <= 59
-114 <= y_57_ <= 114
-117 <= y_58_ <= 117
-77 <= y_59_ <= 77
-129 <= y_60_ <= 129
-157 <= y_61_ <= 157
-199 <= y_62_ <= 199
-155 <= y_63_ <= 155
-188 <= y_64_ <= 188
-149 <= y_65_ <= 149
-144 <= y_66_ <= 144
-169 <= y_67_ <= 169
-85 <= y_68_ <= 85
-83 <= y_69_ <= 83
-121 <= y_70_ <= 121
-134 <= y_71_ <= 134
-98 <= y_72_ <= 98
-89 <= y_73_ <= 89
-53 <= y_74_ <= 53
-162 <= y_75_ <= 162
-80 <= y_76_ <= 80
-139 <= y_77_ <= 139
-128 <= y_78_ <= 128
-34 <= y_79_ <= 34
-165 <= y_80_ <= 165
-121 <= y_81_ <= 121
-153 <= y_82_ <= 153
-130 <= y_83_ <= 130
-166 <= y_84_ <= 166
-135 <= y_85_ <= 135
-161 <= y_86_ <= 161
-91 <= y_87_ <= 91
-77 <= y_88_ <= 77
-198 <= y_89_ <= 198
-149 <= y_90_ <= 149
-127 <= y_91_ <= 127
-78 <= y_92_ <= 78
-116 <= y_93_ <= 116
-178 <= y_94_ <= 178
-126 <= y_95_ <= 126
-171 <= y_96_ <= 171
-79 <= y_97_ <= 79
-141 <= y_98_ <= 141
-147 <= y_99_ <= 147
-152 <= y_100_ <= 152
General
x_1_
x_2_
x_3_
x_4_
x_5_
x_6_
x_7_
x_8_
x_9_
x_10_
x_11_
x_12_
x_13_
x_14_
x_15_
x_16_
x_17_
x_18_
x_19_
x_20_
x_21_
x_22_
x_23_
x_24_
x_25_
x_26_
x_27_
x_28_
x_29_
x_30_
x_31_
x_32_
x_33_
x_34_
x_35_
x_36_
x_37_
x_38_
x_39_
x_40_
x_41_
x_42_
x_43_
x_44_
x_45_
x_46_
x_47_
x_48_
x_49_
x_50_
x_51_
x_52_
x_53_
x_54_
x_55_
x_56_
x_57_
x_58_
x_59_
x_60_
x_61_
x_62_
x_63_
x_64_
x_65_
x_66_
x_67_
x_68_
x_69_
x_70_
x_71_
x_72_
x_73_
x_74_
x_75_
x_76_
x_77_
x_78_
x_79_
x_80_
x_81_
x_82_
x_83_
x_84_
x_85_
x_86_
x_87_
x_88_
x_89_
x_90_
x_91_
x_92_
x_93_
x_94_
x_95_
x_96_
x_97_
x_98_
x_99_
x_100_
y_1_
y_2_
y_3_
y_4_
y_5_
y_6_
y_7_
y_8_
y_9_
y_10_
y_11_
y_12_
y_13_
y_14_
y_15_
y_16_
y_17_
y_18_
y_19_
y_20_
y_21_
y_22_
y_23_
y_24_
y_25_
y_26_
y_27_
y_28_
y_29_
y_30_
y_31_
y_32_
y_33_
y_34_
y_35_
y_36_
y_37_
y_38_
y_39_
y_40_
y_41_
y_42_
y_43_
y_44_
y_45_
y_46_
y_47_
y_48_
y_49_
y_50_
y_51_
y_52_
y_53_
y_54_
y_55_
y_56_
y_57_
y_58_
y_59_
y_60_
y_61_
y_62_
y_63_
y_64_
y_65_
y_66_
y_67_
y_68_
y_69_
y_70_
y_71_
y_72_
y_73_
y_74_
y_75_
y_76_
y_77_
y_78_
y_79_
y_80_
y_81_
y_82_
y_83_
y_84_
y_85_
y_86_
y_87_
y_88_
y_89_
y_90_
y_91_
y_92_
y_93_
y_94_
y_95_
y_96_
y_97_
y_98_
y_99_
y_100_
End
