minimize
obj: 
subject to
c1: -76 x_1_ + 76 y_1_ + [ 1 x_1_ ^ 2 + 1 y_1_ ^ 2 ] <= 28347.603286486803
c2: -76 x_2_ + 76 y_2_ + [ 1 x_2_ ^ 2 + 1 y_2_ ^ 2 ] <= 45727.443341567356
c3: -76 x_3_ + 76 y_3_ + [ 1 x_3_ ^ 2 + 1 y_3_ ^ 2 ] <= 17352.112034158497
c4: -76 x_4_ + 76 y_4_ + [ 1 x_4_ ^ 2 + 1 y_4_ ^ 2 ] <= 38969.747880429364
c5: -76 x_5_ + 76 y_5_ + [ 1 x_5_ ^ 2 + 1 y_5_ ^ 2 ] <= 19655.119424609802
c6: -76 x_6_ + 76 y_6_ + [ 1 x_6_ ^ 2 + 1 y_6_ ^ 2 ] <= 11212.813789708152
c7: -76 x_7_ + 76 y_7_ + [ 1 x_7_ ^ 2 + 1 y_7_ ^ 2 ] <= 18280.041347647617
c8: -76 x_8_ + 76 y_8_ + [ 1 x_8_ ^ 2 + 1 y_8_ ^ 2 ] <= 39480.605219339996
c9: -76 x_9_ + 76 y_9_ + [ 1 x_9_ ^ 2 + 1 y_9_ ^ 2 ] <= 19707.36681252352
c10: -76 x_10_ + 76 y_10_ + [ 1 x_10_ ^ 2 + 1 y_10_ ^ 2 ] <= 25024.360462958546
c11: -76 x_11_ + 76 y_11_ + [ 1 x_11_ ^ 2 + 1 y_11_ ^ 2 ] <= 22838.55547683078
c12: -76 x_12_ + 76 y_12_ + [ 1 x_12_ ^ 2 + 1 y_12_ ^ 2 ] <= 33926.680741734664
c13: -76 x_13_ + 76 y_13_ + [ 1 x_13_ ^ 2 + 1 y_13_ ^ 2 ] <= 15410.501809704783
c14: -76 x_14_ + 76 y_14_ + [ 1 x_14_ ^ 2 + 1 y_14_ ^ 2 ] <= 43229.1817881889
c15: -76 x_15_ + 76 y_15_ + [ 1 x_15_ ^ 2 + 1 y_15_ ^ 2 ] <= 21095.90421377795
c16: -76 x_16_ + 76 y_16_ + [ 1 x_16_ ^ 2 + 1 y_16_ ^ 2 ] <= 73103.59362782606
c17: -76 x_17_ + 76 y_17_ + [ 1 x_17_ ^ 2 + 1 y_17_ ^ 2 ] <= 41922.142182575546
c18: -76 x_18_ + 76 y_18_ + [ 1 x_18_ ^ 2 + 1 y_18_ ^ 2 ] <= 33025.72253633958
c19: -76 x_19_ + 76 y_19_ + [ 1 x_19_ ^ 2 + 1 y_19_ ^ 2 ] <= 15345.170841933985
c20: -76 x_20_ + 76 y_20_ + [ 1 x_20_ ^ 2 + 1 y_20_ ^ 2 ] <= 9156.249999999998
c21: -76 x_21_ + 76 y_21_ + [ 1 x_21_ ^ 2 + 1 y_21_ ^ 2 ] <= 11918.71706472436
c22: -76 x_22_ + 76 y_22_ + [ 1 x_22_ ^ 2 + 1 y_22_ ^ 2 ] <= 48630.47055495892
c23: -76 x_23_ + 76 y_23_ + [ 1 x_23_ ^ 2 + 1 y_23_ ^ 2 ] <= 18228.76336862218
c24: -76 x_24_ + 76 y_24_ + [ 1 x_24_ ^ 2 + 1 y_24_ ^ 2 ] <= 6917.189488833697
c25: -76 x_25_ + 76 y_25_ + [ 1 x_25_ ^ 2 + 1 y_25_ ^ 2 ] <= 26084.229763837084
c26: -76 x_26_ + 76 y_26_ + [ 1 x_26_ ^ 2 + 1 y_26_ ^ 2 ] <= 18180.472928516556
c27: -76 x_27_ + 76 y_27_ + [ 1 x_27_ ^ 2 + 1 y_27_ ^ 2 ] <= 16454.305158993033
c28: -76 x_28_ + 76 y_28_ + [ 1 x_28_ ^ 2 + 1 y_28_ ^ 2 ] <= 30005.977467489938
c29: -76 x_29_ + 76 y_29_ + [ 1 x_29_ ^ 2 + 1 y_29_ ^ 2 ] <= 14241.599999999995
c30: -76 x_30_ + 76 y_30_ + [ 1 x_30_ ^ 2 + 1 y_30_ ^ 2 ] <= 14347.246263274075
c31: -76 x_31_ + 76 y_31_ + [ 1 x_31_ ^ 2 + 1 y_31_ ^ 2 ] <= 8052.416046700069
c32: -76 x_32_ + 76 y_32_ + [ 1 x_32_ ^ 2 + 1 y_32_ ^ 2 ] <= 5330.906840255231
c33: -76 x_33_ + 76 y_33_ + [ 1 x_33_ ^ 2 + 1 y_33_ ^ 2 ] <= 12025.117060596902
c34: -76 x_34_ + 76 y_34_ + [ 1 x_34_ ^ 2 + 1 y_34_ ^ 2 ] <= 20028.760636674768
c35: -76 x_35_ + 76 y_35_ + [ 1 x_35_ ^ 2 + 1 y_35_ ^ 2 ] <= 14664.691492350496
c36: -76 x_36_ + 76 y_36_ + [ 1 x_36_ ^ 2 + 1 y_36_ ^ 2 ] <= 20721.433112079314
c37: -76 x_37_ + 76 y_37_ + [ 1 x_37_ ^ 2 + 1 y_37_ ^ 2 ] <= 12657.919999999998
c38: -76 x_39_ + 76 y_39_ + [ 1 x_39_ ^ 2 + 1 y_39_ ^ 2 ] <= 10865.169999999998
c39: -76 x_40_ + 76 y_40_ + [ 1 x_40_ ^ 2 + 1 y_40_ ^ 2 ] <= 33097.75435305145
c40: -76 x_41_ + 76 y_41_ + [ 1 x_41_ ^ 2 + 1 y_41_ ^ 2 ] <= -556.9200000000005
c41: -76 x_42_ + 76 y_42_ + [ 1 x_42_ ^ 2 + 1 y_42_ ^ 2 ] <= 7758.052764683411
c42: -76 x_43_ + 76 y_43_ + [ 1 x_43_ ^ 2 + 1 y_43_ ^ 2 ] <= 8922.951366547388
c43: -76 x_44_ + 76 y_44_ + [ 1 x_44_ ^ 2 + 1 y_44_ ^ 2 ] <= 22530.073502644595
c44: -76 x_45_ + 76 y_45_ + [ 1 x_45_ ^ 2 + 1 y_45_ ^ 2 ] <= 12332.443316950375
c45: -76 x_46_ + 76 y_46_ + [ 1 x_46_ ^ 2 + 1 y_46_ ^ 2 ] <= 31214.477133257475
c46: -76 x_47_ + 76 y_47_ + [ 1 x_47_ ^ 2 + 1 y_47_ ^ 2 ] <= 16961.61552677732
c47: -76 x_48_ + 76 y_48_ + [ 1 x_48_ ^ 2 + 1 y_48_ ^ 2 ] <= 21270.4805141903
c48: -76 x_49_ + 76 y_49_ + [ 1 x_49_ ^ 2 + 1 y_49_ ^ 2 ] <= 27012.04706798264
c49: -76 x_50_ + 76 y_50_ + [ 1 x_50_ ^ 2 + 1 y_50_ ^ 2 ] <= 13926.46343525562
c50: -76 x_51_ + 76 y_51_ + [ 1 x_51_ ^ 2 + 1 y_51_ ^ 2 ] <= 10934.456381164748
c51: -76 x_52_ + 76 y_52_ + [ 1 x_52_ ^ 2 + 1 y_52_ ^ 2 ] <= 16754.927787122317
c52: -76 x_53_ + 76 y_53_ + [ 1 x_53_ ^ 2 + 1 y_53_ ^ 2 ] <= 40978.42897918983
c53: -76 x_54_ + 76 y_54_ + [ 1 x_54_ ^ 2 + 1 y_54_ ^ 2 ] <= 30604.927610120285
c54: -76 x_55_ + 76 y_55_ + [ 1 x_55_ ^ 2 + 1 y_55_ ^ 2 ] <= 32026.11066660972
c55: -76 x_56_ + 76 y_56_ + [ 1 x_56_ ^ 2 + 1 y_56_ ^ 2 ] <= 31351.124215218224
c56: -76 x_57_ + 76 y_57_ + [ 1 x_57_ ^ 2 + 1 y_57_ ^ 2 ] <= 9984.68179891813
c57: -76 x_58_ + 76 y_58_ + [ 1 x_58_ ^ 2 + 1 y_58_ ^ 2 ] <= 24953.83864113489
c58: -76 x_59_ + 76 y_59_ + [ 1 x_59_ ^ 2 + 1 y_59_ ^ 2 ] <= 20701.77464981592
c59: -76 x_60_ + 76 y_60_ + [ 1 x_60_ ^ 2 + 1 y_60_ ^ 2 ] <= 37372.10309940109
c60: -76 x_61_ + 76 y_61_ + [ 1 x_61_ ^ 2 + 1 y_61_ ^ 2 ] <= 23476.088753877193
c61: -76 x_62_ + 76 y_62_ + [ 1 x_62_ ^ 2 + 1 y_62_ ^ 2 ] <= 20298.220284309755
c62: -76 x_63_ + 76 y_63_ + [ 1 x_63_ ^ 2 + 1 y_63_ ^ 2 ] <= 41231.35625966551
c63: -76 x_64_ + 76 y_64_ + [ 1 x_64_ ^ 2 + 1 y_64_ ^ 2 ] <= 10901.529999999999
c64: -76 x_65_ + 76 y_65_ + [ 1 x_65_ ^ 2 + 1 y_65_ ^ 2 ] <= 22421.552517339576
c65: -76 x_66_ + 76 y_66_ + [ 1 x_66_ ^ 2 + 1 y_66_ ^ 2 ] <= 15802.05
c66: -76 x_67_ + 76 y_67_ + [ 1 x_67_ ^ 2 + 1 y_67_ ^ 2 ] <= 14011.915636216898
c67: -76 x_68_ + 76 y_68_ + [ 1 x_68_ ^ 2 + 1 y_68_ ^ 2 ] <= 27810.687778277395
c68: -76 x_69_ + 76 y_69_ + [ 1 x_69_ ^ 2 + 1 y_69_ ^ 2 ] <= 49214.30150109743
c69: -76 x_70_ + 76 y_70_ + [ 1 x_70_ ^ 2 + 1 y_70_ ^ 2 ] <= 18291.430341984942
c70: -76 x_71_ + 76 y_71_ + [ 1 x_71_ ^ 2 + 1 y_71_ ^ 2 ] <= 36137.540674293356
c71: -76 x_72_ + 76 y_72_ + [ 1 x_72_ ^ 2 + 1 y_72_ ^ 2 ] <= 11016.490576576565
c72: -76 x_73_ + 76 y_73_ + [ 1 x_73_ ^ 2 + 1 y_73_ ^ 2 ] <= 26568.69013031683
c73: -76 x_74_ + 76 y_74_ + [ 1 x_74_ ^ 2 + 1 y_74_ ^ 2 ] <= 2175.13
c74: -76 x_75_ + 76 y_75_ + [ 1 x_75_ ^ 2 + 1 y_75_ ^ 2 ] <= 30900.87407502741
c75: -76 x_76_ + 76 y_76_ + [ 1 x_76_ ^ 2 + 1 y_76_ ^ 2 ] <= 21104.318588402755
c76: -76 x_77_ + 76 y_77_ + [ 1 x_77_ ^ 2 + 1 y_77_ ^ 2 ] <= 33290.50428645459
c77: -76 x_78_ + 76 y_78_ + [ 1 x_78_ ^ 2 + 1 y_78_ ^ 2 ] <= 21741.841476571208
c78: -76 x_79_ + 76 y_79_ + [ 1 x_79_ ^ 2 + 1 y_79_ ^ 2 ] <= 17968.10858463193
c79: -76 x_80_ + 76 y_80_ + [ 1 x_80_ ^ 2 + 1 y_80_ ^ 2 ] <= 17407.798612449737
c80: -76 x_81_ + 76 y_81_ + [ 1 x_81_ ^ 2 + 1 y_81_ ^ 2 ] <= 10061.242397476943
c81: -76 x_82_ + 76 y_82_ + [ 1 x_82_ ^ 2 + 1 y_82_ ^ 2 ] <= 16952.090531972328
c82: -76 x_83_ + 76 y_83_ + [ 1 x_83_ ^ 2 + 1 y_83_ ^ 2 ] <= 26048.518396861
c83: -76 x_84_ + 76 y_84_ + [ 1 x_84_ ^ 2 + 1 y_84_ ^ 2 ] <= 34033.03495262888
c84: -76 x_85_ + 76 y_85_ + [ 1 x_85_ ^ 2 + 1 y_85_ ^ 2 ] <= 26499.98019151413
c85: -76 x_86_ + 76 y_86_ + [ 1 x_86_ ^ 2 + 1 y_86_ ^ 2 ] <= 24384.512043729406
c86: -76 x_87_ + 76 y_87_ + [ 1 x_87_ ^ 2 + 1 y_87_ ^ 2 ] <= 16224.900692088526
c87: -76 x_88_ + 76 y_88_ + [ 1 x_88_ ^ 2 + 1 y_88_ ^ 2 ] <= 18704.5639415306
c88: -76 x_89_ + 76 y_89_ + [ 1 x_89_ ^ 2 + 1 y_89_ ^ 2 ] <= 27572.702564646304
c89: -76 x_90_ + 76 y_90_ + [ 1 x_90_ ^ 2 + 1 y_90_ ^ 2 ] <= 1798.3999999999996
c90: -76 x_91_ + 76 y_91_ + [ 1 x_91_ ^ 2 + 1 y_91_ ^ 2 ] <= 19874.47920820765
c91: -76 x_92_ + 76 y_92_ + [ 1 x_92_ ^ 2 + 1 y_92_ ^ 2 ] <= 4136.608125795531
c92: -76 x_93_ + 76 y_93_ + [ 1 x_93_ ^ 2 + 1 y_93_ ^ 2 ] <= 15108.941830618754
c93: -76 x_94_ + 76 y_94_ + [ 1 x_94_ ^ 2 + 1 y_94_ ^ 2 ] <= 21785.44178468456
c94: -76 x_95_ + 76 y_95_ + [ 1 x_95_ ^ 2 + 1 y_95_ ^ 2 ] <= 20902.23971394052
c95: -76 x_96_ + 76 y_96_ + [ 1 x_96_ ^ 2 + 1 y_96_ ^ 2 ] <= 31963.401294398063
c96: -76 x_97_ + 76 y_97_ + [ 1 x_97_ ^ 2 + 1 y_97_ ^ 2 ] <= 47118.111564732826
c97: -76 x_98_ + 76 y_98_ + [ 1 x_98_ ^ 2 + 1 y_98_ ^ 2 ] <= 29955.206777416402
c98: -76 x_99_ + 76 y_99_ + [ 1 x_99_ ^ 2 + 1 y_99_ ^ 2 ] <= 29334.15166105955
c99: -76 x_100_ + 76 y_100_ + [ 1 x_100_ ^ 2 + 1 y_100_ ^ 2 ] <= 27221.82287440734
c100: 34 x_1_ + 120 y_1_ + [ 1 x_1_ ^ 2 + 1 y_1_ ^ 2 ] <= 742.8599999999988
c101: 34 x_2_ + 120 y_2_ + [ 1 x_2_ ^ 2 + 1 y_2_ ^ 2 ] <= 18612.75890615006
c102: 34 x_3_ + 120 y_3_ + [ 1 x_3_ ^ 2 + 1 y_3_ ^ 2 ] <= 8144.43422687314
c103: 34 x_4_ + 120 y_4_ + [ 1 x_4_ ^ 2 + 1 y_4_ ^ 2 ] <= 8502.909320100764
c104: 34 x_5_ + 120 y_5_ + [ 1 x_5_ ^ 2 + 1 y_5_ ^ 2 ] <= 7796.867294969794
c105: 34 x_6_ + 120 y_6_ + [ 1 x_6_ ^ 2 + 1 y_6_ ^ 2 ] <= 15570.693453954813
c106: 34 x_7_ + 120 y_7_ + [ 1 x_7_ ^ 2 + 1 y_7_ ^ 2 ] <= 2969.626406478543
c107: 34 x_8_ + 120 y_8_ + [ 1 x_8_ ^ 2 + 1 y_8_ ^ 2 ] <= 16113.171292040624
c108: 34 x_9_ + 120 y_9_ + [ 1 x_9_ ^ 2 + 1 y_9_ ^ 2 ] <= 7893.283490306958
c109: 34 x_10_ + 120 y_10_ + [ 1 x_10_ ^ 2 + 1 y_10_ ^ 2 ] <= 15017.821419912958
c110: 34 x_11_ + 120 y_11_ + [ 1 x_11_ ^ 2 + 1 y_11_ ^ 2 ] <= 12803.159876376849
c111: 34 x_12_ + 120 y_12_ + [ 1 x_12_ ^ 2 + 1 y_12_ ^ 2 ] <= 26643.030729584138
c112: 34 x_13_ + 120 y_13_ + [ 1 x_13_ ^ 2 + 1 y_13_ ^ 2 ] <= 14158.37671274388
c113: 34 x_14_ + 120 y_14_ + [ 1 x_14_ ^ 2 + 1 y_14_ ^ 2 ] <= 24140.522398778336
c114: 34 x_15_ + 120 y_15_ + [ 1 x_15_ ^ 2 + 1 y_15_ ^ 2 ] <= 20828.959038260757
c115: 34 x_16_ + 120 y_16_ + [ 1 x_16_ ^ 2 + 1 y_16_ ^ 2 ] <= 63019.777905396215
c116: 34 x_17_ + 120 y_17_ + [ 1 x_17_ ^ 2 + 1 y_17_ ^ 2 ] <= 18314.526119224472
c117: 34 x_18_ + 120 y_18_ + [ 1 x_18_ ^ 2 + 1 y_18_ ^ 2 ] <= 15465.385320759564
c118: 34 x_19_ + 120 y_19_ + [ 1 x_19_ ^ 2 + 1 y_19_ ^ 2 ] <= 20000.68425346154
c119: 34 x_20_ + 120 y_20_ + [ 1 x_20_ ^ 2 + 1 y_20_ ^ 2 ] <= 22473.0377452868
c120: 34 x_21_ + 120 y_21_ + [ 1 x_21_ ^ 2 + 1 y_21_ ^ 2 ] <= 27596.73213484466
c121: 34 x_22_ + 120 y_22_ + [ 1 x_22_ ^ 2 + 1 y_22_ ^ 2 ] <= 10105.559999999996
c122: 34 x_23_ + 120 y_23_ + [ 1 x_23_ ^ 2 + 1 y_23_ ^ 2 ] <= 17894.15932112867
c123: 34 x_24_ + 120 y_24_ + [ 1 x_24_ ^ 2 + 1 y_24_ ^ 2 ] <= 15012.26653269726
c124: 34 x_25_ + 120 y_25_ + [ 1 x_25_ ^ 2 + 1 y_25_ ^ 2 ] <= 39655.43271564877
c125: 34 x_26_ + 120 y_26_ + [ 1 x_26_ ^ 2 + 1 y_26_ ^ 2 ] <= 19125.396806099598
c126: 34 x_27_ + 120 y_27_ + [ 1 x_27_ ^ 2 + 1 y_27_ ^ 2 ] <= -1390.2600000000007
c127: 34 x_28_ + 120 y_28_ + [ 1 x_28_ ^ 2 + 1 y_28_ ^ 2 ] <= 8438.049999999997
c128: 34 x_29_ + 120 y_29_ + [ 1 x_29_ ^ 2 + 1 y_29_ ^ 2 ] <= 20046.61981570647
c129: 34 x_30_ + 120 y_30_ + [ 1 x_30_ ^ 2 + 1 y_30_ ^ 2 ] <= 7819.93
c130: 34 x_31_ + 120 y_31_ + [ 1 x_31_ ^ 2 + 1 y_31_ ^ 2 ] <= 10739.824735323115
c131: 34 x_32_ + 120 y_32_ + [ 1 x_32_ ^ 2 + 1 y_32_ ^ 2 ] <= 17549.09197235362
c132: 34 x_33_ + 120 y_33_ + [ 1 x_33_ ^ 2 + 1 y_33_ ^ 2 ] <= 20408.873993807447
c133: 34 x_34_ + 120 y_34_ + [ 1 x_34_ ^ 2 + 1 y_34_ ^ 2 ] <= 12573.830100002295
c134: 34 x_35_ + 120 y_35_ + [ 1 x_35_ ^ 2 + 1 y_35_ ^ 2 ] <= 15714.113634718498
c135: 34 x_36_ + 120 y_36_ + [ 1 x_36_ ^ 2 + 1 y_36_ ^ 2 ] <= 38963.326737238356
c136: 34 x_37_ + 120 y_37_ + [ 1 x_37_ ^ 2 + 1 y_37_ ^ 2 ] <= 20655.18832986313
c137: 34 x_38_ + 120 y_38_ + [ 1 x_38_ ^ 2 + 1 y_38_ ^ 2 ] <= 7921.951366547388
c138: 34 x_39_ + 120 y_39_ + [ 1 x_39_ ^ 2 + 1 y_39_ ^ 2 ] <= 23722.63274361201
c139: 34 x_40_ + 120 y_40_ + [ 1 x_40_ ^ 2 + 1 y_40_ ^ 2 ] <= 53508.37431326114
c140: 34 x_41_ + 120 y_41_ + [ 1 x_41_ ^ 2 + 1 y_41_ ^ 2 ] <= 5746.313989227661
c141: 34 x_42_ + 120 y_42_ + [ 1 x_42_ ^ 2 + 1 y_42_ ^ 2 ] <= -2017.4700000000003
c142: 34 x_44_ + 120 y_44_ + [ 1 x_44_ ^ 2 + 1 y_44_ ^ 2 ] <= 482.2799999999979
c143: 34 x_45_ + 120 y_45_ + [ 1 x_45_ ^ 2 + 1 y_45_ ^ 2 ] <= 13361.004263060411
c144: 34 x_46_ + 120 y_46_ + [ 1 x_46_ ^ 2 + 1 y_46_ ^ 2 ] <= 22656.81944181024
c145: 34 x_47_ + 120 y_47_ + [ 1 x_47_ ^ 2 + 1 y_47_ ^ 2 ] <= 6389.769999999997
c146: 34 x_48_ + 120 y_48_ + [ 1 x_48_ ^ 2 + 1 y_48_ ^ 2 ] <= 11966.630356469457
c147: 34 x_49_ + 120 y_49_ + [ 1 x_49_ ^ 2 + 1 y_49_ ^ 2 ] <= 7885.198312601648
c148: 34 x_50_ + 120 y_50_ + [ 1 x_50_ ^ 2 + 1 y_50_ ^ 2 ] <= -2057.870000000001
c149: 34 x_51_ + 120 y_51_ + [ 1 x_51_ ^ 2 + 1 y_51_ ^ 2 ] <= -875.7192932318721
c150: 34 x_52_ + 120 y_52_ + [ 1 x_52_ ^ 2 + 1 y_52_ ^ 2 ] <= 2113.7853439713026
c151: 34 x_53_ + 120 y_53_ + [ 1 x_53_ ^ 2 + 1 y_53_ ^ 2 ] <= 17146.388350587422
c152: 34 x_54_ + 120 y_54_ + [ 1 x_54_ ^ 2 + 1 y_54_ ^ 2 ] <= 5352.330620751625
c153: 34 x_55_ + 120 y_55_ + [ 1 x_55_ ^ 2 + 1 y_55_ ^ 2 ] <= 5668.792208072429
c154: 34 x_56_ + 120 y_56_ + [ 1 x_56_ ^ 2 + 1 y_56_ ^ 2 ] <= 22342.98166054053
c155: 34 x_57_ + 120 y_57_ + [ 1 x_57_ ^ 2 + 1 y_57_ ^ 2 ] <= 8057.279999999997
c156: 34 x_58_ + 120 y_58_ + [ 1 x_58_ ^ 2 + 1 y_58_ ^ 2 ] <= 6965.129383033014
c157: 34 x_59_ + 120 y_59_ + [ 1 x_59_ ^ 2 + 1 y_59_ ^ 2 ] <= 4885.275571692939
c158: 34 x_60_ + 120 y_60_ + [ 1 x_60_ ^ 2 + 1 y_60_ ^ 2 ] <= 16199.899999999998
c159: 34 x_61_ + 120 y_61_ + [ 1 x_61_ ^ 2 + 1 y_61_ ^ 2 ] <= 4999.6478309587965
c160: 34 x_62_ + 120 y_62_ + [ 1 x_62_ ^ 2 + 1 y_62_ ^ 2 ] <= 3197.2093908732086
c161: 34 x_63_ + 120 y_63_ + [ 1 x_63_ ^ 2 + 1 y_63_ ^ 2 ] <= 16262.359936709938
c162: 34 x_64_ + 120 y_64_ + [ 1 x_64_ ^ 2 + 1 y_64_ ^ 2 ] <= 27617.803736977934
c163: 34 x_65_ + 120 y_65_ + [ 1 x_65_ ^ 2 + 1 y_65_ ^ 2 ] <= 3443.3230751608417
c164: 34 x_66_ + 120 y_66_ + [ 1 x_66_ ^ 2 + 1 y_66_ ^ 2 ] <= 23594.834578582817
c165: 34 x_67_ + 120 y_67_ + [ 1 x_67_ ^ 2 + 1 y_67_ ^ 2 ] <= 30617.41160442211
c166: 34 x_68_ + 120 y_68_ + [ 1 x_68_ ^ 2 + 1 y_68_ ^ 2 ] <= 16155.121166231653
c167: 34 x_69_ + 120 y_69_ + [ 1 x_69_ ^ 2 + 1 y_69_ ^ 2 ] <= 15774.689999999995
c168: 34 x_70_ + 120 y_70_ + [ 1 x_70_ ^ 2 + 1 y_70_ ^ 2 ] <= 8632.251096793963
c169: 34 x_71_ + 120 y_71_ + [ 1 x_71_ ^ 2 + 1 y_71_ ^ 2 ] <= 14550.44142573559
c170: 34 x_72_ + 120 y_72_ + [ 1 x_72_ ^ 2 + 1 y_72_ ^ 2 ] <= 3214.8189757153214
c171: 34 x_73_ + 120 y_73_ + [ 1 x_73_ ^ 2 + 1 y_73_ ^ 2 ] <= 25763.900622475405
c172: 34 x_74_ + 120 y_74_ + [ 1 x_74_ ^ 2 + 1 y_74_ ^ 2 ] <= -2481.06
c173: 34 x_75_ + 120 y_75_ + [ 1 x_75_ ^ 2 + 1 y_75_ ^ 2 ] <= 32881.22819700261
c174: 34 x_76_ + 120 y_76_ + [ 1 x_76_ ^ 2 + 1 y_76_ ^ 2 ] <= 18832.26272464681
c175: 34 x_77_ + 120 y_77_ + [ 1 x_77_ ^ 2 + 1 y_77_ ^ 2 ] <= 9190.473698695192
c176: 34 x_78_ + 120 y_78_ + [ 1 x_78_ ^ 2 + 1 y_78_ ^ 2 ] <= 9464.817060234853
c177: 34 x_79_ + 120 y_79_ + [ 1 x_79_ ^ 2 + 1 y_79_ ^ 2 ] <= 2905.83283075716
c178: 34 x_80_ + 120 y_80_ + [ 1 x_80_ ^ 2 + 1 y_80_ ^ 2 ] <= 15567.520346961526
c179: 34 x_81_ + 120 y_81_ + [ 1 x_81_ ^ 2 + 1 y_81_ ^ 2 ] <= 24859.585145334273
c180: 34 x_82_ + 120 y_82_ + [ 1 x_82_ ^ 2 + 1 y_82_ ^ 2 ] <= 27262.67606389771
c181: 34 x_83_ + 120 y_83_ + [ 1 x_83_ ^ 2 + 1 y_83_ ^ 2 ] <= 24523.401124227206
c182: 34 x_84_ + 120 y_84_ + [ 1 x_84_ ^ 2 + 1 y_84_ ^ 2 ] <= 22639.89144245356
c183: 34 x_85_ + 120 y_85_ + [ 1 x_85_ ^ 2 + 1 y_85_ ^ 2 ] <= 8559.249999999998
c184: 34 x_86_ + 120 y_86_ + [ 1 x_86_ ^ 2 + 1 y_86_ ^ 2 ] <= 22027.205951383887
c185: 34 x_87_ + 120 y_87_ + [ 1 x_87_ ^ 2 + 1 y_87_ ^ 2 ] <= 7055.56331284585
c186: 34 x_88_ + 120 y_88_ + [ 1 x_88_ ^ 2 + 1 y_88_ ^ 2 ] <= 1148.0467547104236
c187: 34 x_89_ + 120 y_89_ + [ 1 x_89_ ^ 2 + 1 y_89_ ^ 2 ] <= 10124.190666646618
c188: 34 x_90_ + 120 y_90_ + [ 1 x_90_ ^ 2 + 1 y_90_ ^ 2 ] <= 11540.769999999999
c189: 34 x_91_ + 120 y_91_ + [ 1 x_91_ ^ 2 + 1 y_91_ ^ 2 ] <= 24328.33507346172
c190: 34 x_92_ + 120 y_92_ + [ 1 x_92_ ^ 2 + 1 y_92_ ^ 2 ] <= 13240.114784265294
c191: 34 x_93_ + 120 y_93_ + [ 1 x_93_ ^ 2 + 1 y_93_ ^ 2 ] <= 3127.3336735099265
c192: 34 x_94_ + 120 y_94_ + [ 1 x_94_ ^ 2 + 1 y_94_ ^ 2 ] <= 23094.45715377912
c193: 34 x_95_ + 120 y_95_ + [ 1 x_95_ ^ 2 + 1 y_95_ ^ 2 ] <= 28359.570555667695
c194: 34 x_96_ + 120 y_96_ + [ 1 x_96_ ^ 2 + 1 y_96_ ^ 2 ] <= 51653.547796901534
c195: 34 x_97_ + 120 y_97_ + [ 1 x_97_ ^ 2 + 1 y_97_ ^ 2 ] <= 22310.804595252357
c196: 34 x_98_ + 120 y_98_ + [ 1 x_98_ ^ 2 + 1 y_98_ ^ 2 ] <= 37826.41741884678
c197: 34 x_99_ + 120 y_99_ + [ 1 x_99_ ^ 2 + 1 y_99_ ^ 2 ] <= 33508.3398168467
c198: 34 x_100_ + 120 y_100_ + [ 1 x_100_ ^ 2 + 1 y_100_ ^ 2 ] <= 21823.96375840921
c199: 84 x_1_ + 158 y_1_ + [ 1 x_1_ ^ 2 + 1 y_1_ ^ 2 ] <= 954.9166637782346
c200: 84 x_2_ + 158 y_2_ + [ 1 x_2_ ^ 2 + 1 y_2_ ^ 2 ] <= 23184.30117888128
c201: 84 x_3_ + 158 y_3_ + [ 1 x_3_ ^ 2 + 1 y_3_ ^ 2 ] <= 12553.395735738024
c202: 84 x_4_ + 158 y_4_ + [ 1 x_4_ ^ 2 + 1 y_4_ ^ 2 ] <= 11016.380200446503
c203: 84 x_5_ + 158 y_5_ + [ 1 x_5_ ^ 2 + 1 y_5_ ^ 2 ] <= 21234.888410122858
c204: 84 x_6_ + 158 y_6_ + [ 1 x_6_ ^ 2 + 1 y_6_ ^ 2 ] <= 22284.722200484608
c205: 84 x_7_ + 158 y_7_ + [ 1 x_7_ ^ 2 + 1 y_7_ ^ 2 ] <= 1444.3375565457172
c206: 84 x_8_ + 158 y_8_ + [ 1 x_8_ ^ 2 + 1 y_8_ ^ 2 ] <= 15531.570659640642
c207: 84 x_9_ + 158 y_9_ + [ 1 x_9_ ^ 2 + 1 y_9_ ^ 2 ] <= 19224.337624457974
c208: 84 x_10_ + 158 y_10_ + [ 1 x_10_ ^ 2 + 1 y_10_ ^ 2 ] <= 13885.213606894009
c209: 84 x_11_ + 158 y_11_ + [ 1 x_11_ ^ 2 + 1 y_11_ ^ 2 ] <= 30952.473582477192
c210: 84 x_12_ + 158 y_12_ + [ 1 x_12_ ^ 2 + 1 y_12_ ^ 2 ] <= 39512.34914489182
c211: 84 x_13_ + 158 y_13_ + [ 1 x_13_ ^ 2 + 1 y_13_ ^ 2 ] <= 6564.261297525012
c212: 84 x_14_ + 158 y_14_ + [ 1 x_14_ ^ 2 + 1 y_14_ ^ 2 ] <= 30064.929999999993
c213: 84 x_15_ + 158 y_15_ + [ 1 x_15_ ^ 2 + 1 y_15_ ^ 2 ] <= 21445.1088441287
c214: 84 x_16_ + 158 y_16_ + [ 1 x_16_ ^ 2 + 1 y_16_ ^ 2 ] <= 21459.125126940682
c215: 84 x_17_ + 158 y_17_ + [ 1 x_17_ ^ 2 + 1 y_17_ ^ 2 ] <= -4161.950000000001
c216: 84 x_18_ + 158 y_18_ + [ 1 x_18_ ^ 2 + 1 y_18_ ^ 2 ] <= 10739.130175366474
c217: 84 x_19_ + 158 y_19_ + [ 1 x_19_ ^ 2 + 1 y_19_ ^ 2 ] <= 25148.25
c218: 84 x_20_ + 158 y_20_ + [ 1 x_20_ ^ 2 + 1 y_20_ ^ 2 ] <= 18759.60900751224
c219: 84 x_21_ + 158 y_21_ + [ 1 x_21_ ^ 2 + 1 y_21_ ^ 2 ] <= 37277.40262349851
c220: 84 x_22_ + 158 y_22_ + [ 1 x_22_ ^ 2 + 1 y_22_ ^ 2 ] <= 37725.11453798195
c221: 84 x_23_ + 158 y_23_ + [ 1 x_23_ ^ 2 + 1 y_23_ ^ 2 ] <= 13130.447541230562
c222: 84 x_24_ + 158 y_24_ + [ 1 x_24_ ^ 2 + 1 y_24_ ^ 2 ] <= 13633.613062204982
c223: 84 x_25_ + 158 y_25_ + [ 1 x_25_ ^ 2 + 1 y_25_ ^ 2 ] <= 39646.32800090496
c224: 84 x_26_ + 158 y_26_ + [ 1 x_26_ ^ 2 + 1 y_26_ ^ 2 ] <= 30614.37057418986
c225: 84 x_27_ + 158 y_27_ + [ 1 x_27_ ^ 2 + 1 y_27_ ^ 2 ] <= -5722.400000000001
c226: 84 x_28_ + 158 y_28_ + [ 1 x_28_ ^ 2 + 1 y_28_ ^ 2 ] <= 22712.48385656009
c227: 84 x_29_ + 158 y_29_ + [ 1 x_29_ ^ 2 + 1 y_29_ ^ 2 ] <= 25404.09791513176
c228: 84 x_30_ + 158 y_30_ + [ 1 x_30_ ^ 2 + 1 y_30_ ^ 2 ] <= 14380.676736048863
c229: 84 x_31_ + 158 y_31_ + [ 1 x_31_ ^ 2 + 1 y_31_ ^ 2 ] <= 19773.31140019309
c230: 84 x_32_ + 158 y_32_ + [ 1 x_32_ ^ 2 + 1 y_32_ ^ 2 ] <= 35976.960388920386
c231: 84 x_33_ + 158 y_33_ + [ 1 x_33_ ^ 2 + 1 y_33_ ^ 2 ] <= 27383.76839712027
c232: 84 x_34_ + 158 y_34_ + [ 1 x_34_ ^ 2 + 1 y_34_ ^ 2 ] <= 8770.089999999997
c233: 84 x_35_ + 158 y_35_ + [ 1 x_35_ ^ 2 + 1 y_35_ ^ 2 ] <= 12079.574540915833
c234: 84 x_36_ + 158 y_36_ + [ 1 x_36_ ^ 2 + 1 y_36_ ^ 2 ] <= 41068.81106081318
c235: 84 x_37_ + 158 y_37_ + [ 1 x_37_ ^ 2 + 1 y_37_ ^ 2 ] <= 29023.273346424685
c236: 84 x_38_ + 158 y_38_ + [ 1 x_38_ ^ 2 + 1 y_38_ ^ 2 ] <= 26909.11066660972
c237: 84 x_39_ + 158 y_39_ + [ 1 x_39_ ^ 2 + 1 y_39_ ^ 2 ] <= 28419.518020905023
c238: 84 x_40_ + 158 y_40_ + [ 1 x_40_ ^ 2 + 1 y_40_ ^ 2 ] <= 48736.382429132485
c239: 84 x_41_ + 158 y_41_ + [ 1 x_41_ ^ 2 + 1 y_41_ ^ 2 ] <= 11197.177049952381
c240: 84 x_42_ + 158 y_42_ + [ 1 x_42_ ^ 2 + 1 y_42_ ^ 2 ] <= -1003.7506814628423
c241: 84 x_43_ + 158 y_43_ + [ 1 x_43_ ^ 2 + 1 y_43_ ^ 2 ] <= 1552.7922080724293
c242: 84 x_44_ + 158 y_44_ + [ 1 x_44_ ^ 2 + 1 y_44_ ^ 2 ] <= 18851.529177376608
c243: 84 x_45_ + 158 y_45_ + [ 1 x_45_ ^ 2 + 1 y_45_ ^ 2 ] <= 18131.33115577396
c244: 84 x_46_ + 158 y_46_ + [ 1 x_46_ ^ 2 + 1 y_46_ ^ 2 ] <= 29593.00351142953
c245: 84 x_47_ + 158 y_47_ + [ 1 x_47_ ^ 2 + 1 y_47_ ^ 2 ] <= 19792.44020715563
c246: 84 x_48_ + 158 y_48_ + [ 1 x_48_ ^ 2 + 1 y_48_ ^ 2 ] <= 28575.5852330793
c247: 84 x_49_ + 158 y_49_ + [ 1 x_49_ ^ 2 + 1 y_49_ ^ 2 ] <= 6514.3526405738485
c248: 84 x_50_ + 158 y_50_ + [ 1 x_50_ ^ 2 + 1 y_50_ ^ 2 ] <= -2156.3164752011444
c249: 84 x_51_ + 158 y_51_ + [ 1 x_51_ ^ 2 + 1 y_51_ ^ 2 ] <= -3204.694594580662
c250: 84 x_52_ + 158 y_52_ + [ 1 x_52_ ^ 2 + 1 y_52_ ^ 2 ] <= 434.8255024384016
c251: 84 x_53_ + 158 y_53_ + [ 1 x_53_ ^ 2 + 1 y_53_ ^ 2 ] <= -954.1336478550638
c252: 84 x_54_ + 158 y_54_ + [ 1 x_54_ ^ 2 + 1 y_54_ ^ 2 ] <= -7469.7
c253: 84 x_56_ + 158 y_56_ + [ 1 x_56_ ^ 2 + 1 y_56_ ^ 2 ] <= 5256.299999999997
c254: 84 x_57_ + 158 y_57_ + [ 1 x_57_ ^ 2 + 1 y_57_ ^ 2 ] <= 23802.45494075478
c255: 84 x_58_ + 158 y_58_ + [ 1 x_58_ ^ 2 + 1 y_58_ ^ 2 ] <= 6054.801023332067
c256: 84 x_59_ + 158 y_59_ + [ 1 x_59_ ^ 2 + 1 y_59_ ^ 2 ] <= 9973.354960442131
c257: 84 x_60_ + 158 y_60_ + [ 1 x_60_ ^ 2 + 1 y_60_ ^ 2 ] <= 36166.04828533506
c258: 84 x_61_ + 158 y_61_ + [ 1 x_61_ ^ 2 + 1 y_61_ ^ 2 ] <= 8369.94066903943
c259: 84 x_62_ + 158 y_62_ + [ 1 x_62_ ^ 2 + 1 y_62_ ^ 2 ] <= 5887.065605715561
c260: 84 x_63_ + 158 y_63_ + [ 1 x_63_ ^ 2 + 1 y_63_ ^ 2 ] <= 22844.57368526613
c261: 84 x_64_ + 158 y_64_ + [ 1 x_64_ ^ 2 + 1 y_64_ ^ 2 ] <= 49785.77503985289
c262: 84 x_65_ + 158 y_65_ + [ 1 x_65_ ^ 2 + 1 y_65_ ^ 2 ] <= 14054.54036410385
c263: 84 x_66_ + 158 y_66_ + [ 1 x_66_ ^ 2 + 1 y_66_ ^ 2 ] <= 18750.686860342303
c264: 84 x_67_ + 158 y_67_ + [ 1 x_67_ ^ 2 + 1 y_67_ ^ 2 ] <= 29182.604194277752
c265: 84 x_68_ + 158 y_68_ + [ 1 x_68_ ^ 2 + 1 y_68_ ^ 2 ] <= 36034.105368932025
c266: 84 x_69_ + 158 y_69_ + [ 1 x_69_ ^ 2 + 1 y_69_ ^ 2 ] <= 25840.513814029997
c267: 84 x_70_ + 158 y_70_ + [ 1 x_70_ ^ 2 + 1 y_70_ ^ 2 ] <= 5595.691952952266
c268: 84 x_71_ + 158 y_71_ + [ 1 x_71_ ^ 2 + 1 y_71_ ^ 2 ] <= 9838.90219312282
c269: 84 x_72_ + 158 y_72_ + [ 1 x_72_ ^ 2 + 1 y_72_ ^ 2 ] <= 15270.12010613162
c270: 84 x_73_ + 158 y_73_ + [ 1 x_73_ ^ 2 + 1 y_73_ ^ 2 ] <= 24706.424811091263
c271: 84 x_74_ + 158 y_74_ + [ 1 x_74_ ^ 2 + 1 y_74_ ^ 2 ] <= 10297.433908818755
c272: 84 x_75_ + 158 y_75_ + [ 1 x_75_ ^ 2 + 1 y_75_ ^ 2 ] <= 31011.93299779499
c273: 84 x_76_ + 158 y_76_ + [ 1 x_76_ ^ 2 + 1 y_76_ ^ 2 ] <= 20664.570768962436
c274: 84 x_77_ + 158 y_77_ + [ 1 x_77_ ^ 2 + 1 y_77_ ^ 2 ] <= 7574.249999999998
c275: 84 x_78_ + 158 y_78_ + [ 1 x_78_ ^ 2 + 1 y_78_ ^ 2 ] <= 12203.835463021394
c276: 84 x_79_ + 158 y_79_ + [ 1 x_79_ ^ 2 + 1 y_79_ ^ 2 ] <= -1569.7610863727032
c277: 84 x_80_ + 158 y_80_ + [ 1 x_80_ ^ 2 + 1 y_80_ ^ 2 ] <= 31800.54762507276
c278: 84 x_81_ + 158 y_81_ + [ 1 x_81_ ^ 2 + 1 y_81_ ^ 2 ] <= 35695.15294972122
c279: 84 x_82_ + 158 y_82_ + [ 1 x_82_ ^ 2 + 1 y_82_ ^ 2 ] <= 30323.634877456163
c280: 84 x_83_ + 158 y_83_ + [ 1 x_83_ ^ 2 + 1 y_83_ ^ 2 ] <= 15558.299999999992
c281: 84 x_84_ + 158 y_84_ + [ 1 x_84_ ^ 2 + 1 y_84_ ^ 2 ] <= 22810.87784676407
c282: 84 x_85_ + 158 y_85_ + [ 1 x_85_ ^ 2 + 1 y_85_ ^ 2 ] <= 34723.05214950768
c283: 84 x_86_ + 158 y_86_ + [ 1 x_86_ ^ 2 + 1 y_86_ ^ 2 ] <= 25384.515774767133
c284: 84 x_87_ + 158 y_87_ + [ 1 x_87_ ^ 2 + 1 y_87_ ^ 2 ] <= 22703.301583628647
c285: 84 x_88_ + 158 y_88_ + [ 1 x_88_ ^ 2 + 1 y_88_ ^ 2 ] <= -3276.8809180316885
c286: 84 x_89_ + 158 y_89_ + [ 1 x_89_ ^ 2 + 1 y_89_ ^ 2 ] <= 5489.6529711553085
c287: 84 x_90_ + 158 y_90_ + [ 1 x_90_ ^ 2 + 1 y_90_ ^ 2 ] <= 27157.949359383776
c288: 84 x_91_ + 158 y_91_ + [ 1 x_91_ ^ 2 + 1 y_91_ ^ 2 ] <= 32663.83033937261
c289: 84 x_92_ + 158 y_92_ + [ 1 x_92_ ^ 2 + 1 y_92_ ^ 2 ] <= 9390.623314510438
c290: 84 x_93_ + 158 y_93_ + [ 1 x_93_ ^ 2 + 1 y_93_ ^ 2 ] <= -1354.1533668095863
c291: 84 x_94_ + 158 y_94_ + [ 1 x_94_ ^ 2 + 1 y_94_ ^ 2 ] <= 40718.20633640728
c292: 84 x_95_ + 158 y_95_ + [ 1 x_95_ ^ 2 + 1 y_95_ ^ 2 ] <= 34504.341608573166
c293: 84 x_96_ + 158 y_96_ + [ 1 x_96_ ^ 2 + 1 y_96_ ^ 2 ] <= 49853.49533291706
c294: 84 x_97_ + 158 y_97_ + [ 1 x_97_ ^ 2 + 1 y_97_ ^ 2 ] <= 17483.98520290814
c295: 84 x_98_ + 158 y_98_ + [ 1 x_98_ ^ 2 + 1 y_98_ ^ 2 ] <= 35295.21923337972
c296: 84 x_99_ + 158 y_99_ + [ 1 x_99_ ^ 2 + 1 y_99_ ^ 2 ] <= 28542.14769281474
c297: 84 x_100_ + 158 y_100_ + [ 1 x_100_ ^ 2 + 1 y_100_ ^ 2 ] <= 26945.93436511854
quadratic_ranged_1_ub: [ 1 x_1_ ^ 2 - 2 x_2_ * x_1_ + 1 x_2_ ^ 2 + 1 y_1_ ^ 2 - 2 y_2_ * y_1_ + 1 y_2_ ^ 2 ] <= 6715.49
quadratic_ranged_2_ub: [ 1 x_2_ ^ 2 - 2 x_3_ * x_2_ + 1 x_3_ ^ 2 + 1 y_2_ ^ 2 - 2 y_3_ * y_2_ + 1 y_3_ ^ 2 ] <= 6118.58
quadratic_ranged_3_ub: [ 1 x_1_ ^ 2 - 2 x_4_ * x_1_ + 1 x_4_ ^ 2 + 1 y_1_ ^ 2 - 2 y_4_ * y_1_ + 1 y_4_ ^ 2 ] <= 1871.53
quadratic_ranged_4_ub: [ 1 x_3_ ^ 2 - 2 x_4_ * x_3_ + 1 x_4_ ^ 2 + 1 y_3_ ^ 2 - 2 y_4_ * y_3_ + 1 y_4_ ^ 2 ] <= 7863.86
quadratic_ranged_5_ub: [ 1 x_4_ ^ 2 - 2 x_5_ * x_4_ + 1 x_5_ ^ 2 + 1 y_4_ ^ 2 - 2 y_5_ * y_4_ + 1 y_5_ ^ 2 ] <= 5918.6
quadratic_ranged_6_ub: [ 1 x_5_ ^ 2 - 2 x_6_ * x_5_ + 1 x_6_ ^ 2 + 1 y_5_ ^ 2 - 2 y_6_ * y_5_ + 1 y_6_ ^ 2 ] <= 985.76
quadratic_ranged_7_ub: [ 1 x_5_ ^ 2 - 2 x_7_ * x_5_ + 1 x_7_ ^ 2 + 1 y_5_ ^ 2 - 2 y_7_ * y_5_ + 1 y_7_ ^ 2 ] <= 7382.09
quadratic_ranged_8_ub: [ 1 x_6_ ^ 2 - 2 x_7_ * x_6_ + 1 x_7_ ^ 2 + 1 y_6_ ^ 2 - 2 y_7_ * y_6_ + 1 y_7_ ^ 2 ] <= 6000.41
quadratic_ranged_9_ub: [ 1 x_2_ ^ 2 - 2 x_8_ * x_2_ + 1 x_8_ ^ 2 + 1 y_2_ ^ 2 - 2 y_8_ * y_2_ + 1 y_8_ ^ 2 ] <= 10307.05
quadratic_ranged_10_ub: [ 1 x_5_ ^ 2 - 2 x_8_ * x_5_ + 1 x_8_ ^ 2 + 1 y_5_ ^ 2 - 2 y_8_ * y_5_ + 1 y_8_ ^ 2 ] <= 13114.85
quadratic_ranged_11_ub: [ 1 x_7_ ^ 2 - 2 x_8_ * x_7_ + 1 x_8_ ^ 2 + 1 y_7_ ^ 2 - 2 y_8_ * y_7_ + 1 y_8_ ^ 2 ] <= 4334.92
quadratic_ranged_12_ub: [ 1 x_1_ ^ 2 - 2 x_9_ * x_1_ + 1 x_9_ ^ 2 + 1 y_1_ ^ 2 - 2 y_9_ * y_1_ + 1 y_9_ ^ 2 ] <= 4950.01
quadratic_ranged_13_ub: [ 1 x_5_ ^ 2 - 2 x_9_ * x_5_ + 1 x_9_ ^ 2 + 1 y_5_ ^ 2 - 2 y_9_ * y_5_ + 1 y_9_ ^ 2 ] <= 1797.8
quadratic_ranged_14_ub: [ 1 x_8_ ^ 2 - 2 x_9_ * x_8_ + 1 x_9_ ^ 2 + 1 y_8_ ^ 2 - 2 y_9_ * y_8_ + 1 y_9_ ^ 2 ] <= 5834.77
quadratic_ranged_15_ub: [ 1 x_6_ ^ 2 - 2 x_10_ * x_6_ + 1 x_10_ ^ 2 + 1 y_6_ ^ 2 - 2 y_10_ * y_6_ + 1 y_10_ ^ 2 ] <= 2335.12
quadratic_ranged_16_ub: [ 1 x_9_ ^ 2 - 2 x_10_ * x_9_ + 1 x_10_ ^ 2 + 1 y_9_ ^ 2 - 2 y_10_ * y_9_ + 1 y_10_ ^ 2 ] <= 1523.08
quadratic_ranged_17_ub: [ 1 x_5_ ^ 2 - 2 x_11_ * x_5_ + 1 x_11_ ^ 2 + 1 y_5_ ^ 2 - 2 y_11_ * y_5_ + 1 y_11_ ^ 2 ] <= 695.89
quadratic_ranged_18_ub: [ 1 x_9_ ^ 2 - 2 x_11_ * x_9_ + 1 x_11_ ^ 2 + 1 y_9_ ^ 2 - 2 y_11_ * y_9_ + 1 y_11_ ^ 2 ] <= 3192.61
quadratic_ranged_19_ub: [ 1 x_10_ ^ 2 - 2 x_11_ * x_10_ + 1 x_11_ ^ 2 + 1 y_10_ ^ 2 - 2 y_11_ * y_10_ + 1 y_11_ ^ 2 ] <= 7527.53
quadratic_ranged_20_ub: [ 1 x_11_ ^ 2 - 2 x_12_ * x_11_ + 1 x_12_ ^ 2 + 1 y_11_ ^ 2 - 2 y_12_ * y_11_ + 1 y_12_ ^ 2 ] <= 2073.53
quadratic_ranged_21_ub: [ 1 x_2_ ^ 2 - 2 x_13_ * x_2_ + 1 x_13_ ^ 2 + 1 y_2_ ^ 2 - 2 y_13_ * y_2_ + 1 y_13_ ^ 2 ] <= 11869.52
quadratic_ranged_22_ub: [ 1 x_10_ ^ 2 - 2 x_13_ * x_10_ + 1 x_13_ ^ 2 + 1 y_10_ ^ 2 - 2 y_13_ * y_10_ + 1 y_13_ ^ 2 ] <= 2525
quadratic_ranged_23_ub: [ 1 x_12_ ^ 2 - 2 x_13_ * x_12_ + 1 x_13_ ^ 2 + 1 y_12_ ^ 2 - 2 y_13_ * y_12_ + 1 y_13_ ^ 2 ] <= 9463.7
quadratic_ranged_24_ub: [ 1 x_1_ ^ 2 - 2 x_14_ * x_1_ + 1 x_14_ ^ 2 + 1 y_1_ ^ 2 - 2 y_14_ * y_1_ + 1 y_14_ ^ 2 ] <= 16447.85
quadratic_ranged_25_ub: [ 1 x_7_ ^ 2 - 2 x_14_ * x_7_ + 1 x_14_ ^ 2 + 1 y_7_ ^ 2 - 2 y_14_ * y_7_ + 1 y_14_ ^ 2 ] <= 22608.85
quadratic_ranged_26_ub: [ 1 x_10_ ^ 2 - 2 x_14_ * x_10_ + 1 x_14_ ^ 2 + 1 y_10_ ^ 2 - 2 y_14_ * y_10_ + 1 y_14_ ^ 2 ] <= 10304.02
quadratic_ranged_27_ub: [ 1 x_13_ ^ 2 - 2 x_14_ * x_13_ + 1 x_14_ ^ 2 + 1 y_13_ ^ 2 - 2 y_14_ * y_13_ + 1 y_14_ ^ 2 ] <= 9875.78
quadratic_ranged_28_ub: [ 1 x_14_ ^ 2 - 2 x_15_ * x_14_ + 1 x_15_ ^ 2 + 1 y_14_ ^ 2 - 2 y_15_ * y_14_ + 1 y_15_ ^ 2 ] <= 9797
quadratic_ranged_29_ub: [ 1 x_15_ ^ 2 - 2 x_16_ * x_15_ + 1 x_16_ ^ 2 + 1 y_15_ ^ 2 - 2 y_16_ * y_15_ + 1 y_16_ ^ 2 ] <= 19723.28
quadratic_ranged_30_ub: [ 1 x_16_ ^ 2 - 2 x_17_ * x_16_ + 1 x_17_ ^ 2 + 1 y_16_ ^ 2 - 2 y_17_ * y_16_ + 1 y_17_ ^ 2 ] <= 12025.06
quadratic_ranged_31_ub: [ 1 x_8_ ^ 2 - 2 x_18_ * x_8_ + 1 x_18_ ^ 2 + 1 y_8_ ^ 2 - 2 y_18_ * y_8_ + 1 y_18_ ^ 2 ] <= 15184.34
quadratic_ranged_32_ub: [ 1 x_9_ ^ 2 - 2 x_18_ * x_9_ + 1 x_18_ ^ 2 + 1 y_9_ ^ 2 - 2 y_18_ * y_9_ + 1 y_18_ ^ 2 ] <= 9701.05
quadratic_ranged_33_ub: [ 1 x_17_ ^ 2 - 2 x_18_ * x_17_ + 1 x_18_ ^ 2 + 1 y_17_ ^ 2 - 2 y_18_ * y_17_ + 1 y_18_ ^ 2 ] <= 12024.05
quadratic_ranged_34_ub: [ 1 x_4_ ^ 2 - 2 x_19_ * x_4_ + 1 x_19_ ^ 2 + 1 y_4_ ^ 2 - 2 y_19_ * y_4_ + 1 y_19_ ^ 2 ] <= 16178.18
quadratic_ranged_35_ub: [ 1 x_9_ ^ 2 - 2 x_19_ * x_9_ + 1 x_19_ ^ 2 + 1 y_9_ ^ 2 - 2 y_19_ * y_9_ + 1 y_19_ ^ 2 ] <= 6070.1
quadratic_ranged_36_ub: [ 1 x_11_ ^ 2 - 2 x_19_ * x_11_ + 1 x_19_ ^ 2 + 1 y_11_ ^ 2 - 2 y_19_ * y_11_ + 1 y_19_ ^ 2 ] <= 643.37
quadratic_ranged_37_ub: [ 1 x_16_ ^ 2 - 2 x_19_ * x_16_ + 1 x_19_ ^ 2 + 1 y_16_ ^ 2 - 2 y_19_ * y_16_ + 1 y_19_ ^ 2 ] <= 24470.28
quadratic_ranged_38_ub: [ 1 x_18_ ^ 2 - 2 x_19_ * x_18_ + 1 x_19_ ^ 2 + 1 y_18_ ^ 2 - 2 y_19_ * y_18_ + 1 y_19_ ^ 2 ] <= 17708.33
quadratic_ranged_39_ub: [ 1 x_19_ ^ 2 - 2 x_20_ * x_19_ + 1 x_20_ ^ 2 + 1 y_19_ ^ 2 - 2 y_20_ * y_19_ + 1 y_20_ ^ 2 ] <= 2247.25
quadratic_ranged_40_ub: [ 1 x_18_ ^ 2 - 2 x_21_ * x_18_ + 1 x_21_ ^ 2 + 1 y_18_ ^ 2 - 2 y_21_ * y_18_ + 1 y_21_ ^ 2 ] <= 22165.46
quadratic_ranged_41_ub: [ 1 x_20_ ^ 2 - 2 x_21_ * x_20_ + 1 x_21_ ^ 2 + 1 y_20_ ^ 2 - 2 y_21_ * y_20_ + 1 y_21_ ^ 2 ] <= 5235.84
quadratic_ranged_42_ub: [ 1 x_12_ ^ 2 - 2 x_22_ * x_12_ + 1 x_22_ ^ 2 + 1 y_12_ ^ 2 - 2 y_22_ * y_12_ + 1 y_22_ ^ 2 ] <= 25687.33
quadratic_ranged_43_ub: [ 1 x_14_ ^ 2 - 2 x_22_ * x_14_ + 1 x_22_ ^ 2 + 1 y_14_ ^ 2 - 2 y_22_ * y_14_ + 1 y_22_ ^ 2 ] <= 28002.25
quadratic_ranged_44_ub: [ 1 x_15_ ^ 2 - 2 x_22_ * x_15_ + 1 x_22_ ^ 2 + 1 y_15_ ^ 2 - 2 y_22_ * y_15_ + 1 y_22_ ^ 2 ] <= 7701.25
quadratic_ranged_45_ub: [ 1 x_21_ ^ 2 - 2 x_22_ * x_21_ + 1 x_22_ ^ 2 + 1 y_21_ ^ 2 - 2 y_22_ * y_21_ + 1 y_22_ ^ 2 ] <= 21735.2
quadratic_ranged_46_ub: [ 1 x_10_ ^ 2 - 2 x_23_ * x_10_ + 1 x_23_ ^ 2 + 1 y_10_ ^ 2 - 2 y_23_ * y_10_ + 1 y_23_ ^ 2 ] <= 14205.65
quadratic_ranged_47_ub: [ 1 x_15_ ^ 2 - 2 x_23_ * x_15_ + 1 x_23_ ^ 2 + 1 y_15_ ^ 2 - 2 y_23_ * y_15_ + 1 y_23_ ^ 2 ] <= 9167.77
quadratic_ranged_48_ub: [ 1 x_22_ ^ 2 - 2 x_23_ * x_22_ + 1 x_23_ ^ 2 + 1 y_22_ ^ 2 - 2 y_23_ * y_22_ + 1 y_23_ ^ 2 ] <= 31538.260000000002
quadratic_ranged_49_ub: [ 1 x_3_ ^ 2 - 2 x_24_ * x_3_ + 1 x_24_ ^ 2 + 1 y_3_ ^ 2 - 2 y_24_ * y_3_ + 1 y_24_ ^ 2 ] <= 5483.29
quadratic_ranged_50_ub: [ 1 x_11_ ^ 2 - 2 x_24_ * x_11_ + 1 x_24_ ^ 2 + 1 y_11_ ^ 2 - 2 y_24_ * y_11_ + 1 y_24_ ^ 2 ] <= 9409.16
quadratic_ranged_51_ub: [ 1 x_23_ ^ 2 - 2 x_24_ * x_23_ + 1 x_24_ ^ 2 + 1 y_23_ ^ 2 - 2 y_24_ * y_23_ + 1 y_24_ ^ 2 ] <= 2143.22
quadratic_ranged_52_ub: [ 1 x_9_ ^ 2 - 2 x_25_ * x_9_ + 1 x_25_ ^ 2 + 1 y_9_ ^ 2 - 2 y_25_ * y_9_ + 1 y_25_ ^ 2 ] <= 17336.65
quadratic_ranged_53_ub: [ 1 x_24_ ^ 2 - 2 x_25_ * x_24_ + 1 x_25_ ^ 2 + 1 y_24_ ^ 2 - 2 y_25_ * y_24_ + 1 y_25_ ^ 2 ] <= 5068.18
quadratic_ranged_54_ub: [ 1 x_8_ ^ 2 - 2 x_26_ * x_8_ + 1 x_26_ ^ 2 + 1 y_8_ ^ 2 - 2 y_26_ * y_8_ + 1 y_26_ ^ 2 ] <= 24604.61
quadratic_ranged_55_ub: [ 1 x_10_ ^ 2 - 2 x_26_ * x_10_ + 1 x_26_ ^ 2 + 1 y_10_ ^ 2 - 2 y_26_ * y_10_ + 1 y_26_ ^ 2 ] <= 11966.48
quadratic_ranged_56_ub: [ 1 x_15_ ^ 2 - 2 x_26_ * x_15_ + 1 x_26_ ^ 2 + 1 y_15_ ^ 2 - 2 y_26_ * y_15_ + 1 y_26_ ^ 2 ] <= 9730.34
quadratic_ranged_57_ub: [ 1 x_17_ ^ 2 - 2 x_26_ * x_17_ + 1 x_26_ ^ 2 + 1 y_17_ ^ 2 - 2 y_26_ * y_17_ + 1 y_26_ ^ 2 ] <= 50742.4
quadratic_ranged_58_ub: [ 1 x_20_ ^ 2 - 2 x_26_ * x_20_ + 1 x_26_ ^ 2 + 1 y_20_ ^ 2 - 2 y_26_ * y_20_ + 1 y_26_ ^ 2 ] <= 1253.41
quadratic_ranged_59_ub: [ 1 x_25_ ^ 2 - 2 x_26_ * x_25_ + 1 x_26_ ^ 2 + 1 y_25_ ^ 2 - 2 y_26_ * y_25_ + 1 y_26_ ^ 2 ] <= 34995.49
quadratic_ranged_60_ub: [ 1 x_1_ ^ 2 - 2 x_27_ * x_1_ + 1 x_27_ ^ 2 + 1 y_1_ ^ 2 - 2 y_27_ * y_1_ + 1 y_27_ ^ 2 ] <= 2197.76
quadratic_ranged_61_ub: [ 1 x_13_ ^ 2 - 2 x_27_ * x_13_ + 1 x_27_ ^ 2 + 1 y_13_ ^ 2 - 2 y_27_ * y_13_ + 1 y_27_ ^ 2 ] <= 7115.45
quadratic_ranged_62_ub: [ 1 x_20_ ^ 2 - 2 x_27_ * x_20_ + 1 x_27_ ^ 2 + 1 y_20_ ^ 2 - 2 y_27_ * y_20_ + 1 y_27_ ^ 2 ] <= 13414.82
quadratic_ranged_63_ub: [ 1 x_21_ ^ 2 - 2 x_27_ * x_21_ + 1 x_27_ ^ 2 + 1 y_21_ ^ 2 - 2 y_27_ * y_21_ + 1 y_27_ ^ 2 ] <= 27231.62
quadratic_ranged_64_ub: [ 1 x_22_ ^ 2 - 2 x_27_ * x_22_ + 1 x_27_ ^ 2 + 1 y_22_ ^ 2 - 2 y_27_ * y_22_ + 1 y_27_ ^ 2 ] <= 27579.06
quadratic_ranged_65_ub: [ 1 x_26_ ^ 2 - 2 x_27_ * x_26_ + 1 x_27_ ^ 2 + 1 y_26_ ^ 2 - 2 y_27_ * y_26_ + 1 y_27_ ^ 2 ] <= 22124.05
quadratic_ranged_66_ub: [ 1 x_13_ ^ 2 - 2 x_28_ * x_13_ + 1 x_28_ ^ 2 + 1 y_13_ ^ 2 - 2 y_28_ * y_13_ + 1 y_28_ ^ 2 ] <= 6989.2
quadratic_ranged_67_ub: [ 1 x_16_ ^ 2 - 2 x_28_ * x_16_ + 1 x_28_ ^ 2 + 1 y_16_ ^ 2 - 2 y_28_ * y_16_ + 1 y_28_ ^ 2 ] <= 37945.7
quadratic_ranged_68_ub: [ 1 x_27_ ^ 2 - 2 x_28_ * x_27_ + 1 x_28_ ^ 2 + 1 y_27_ ^ 2 - 2 y_28_ * y_27_ + 1 y_28_ ^ 2 ] <= 23384.53
quadratic_ranged_69_ub: [ 1 x_2_ ^ 2 - 2 x_29_ * x_2_ + 1 x_29_ ^ 2 + 1 y_2_ ^ 2 - 2 y_29_ * y_2_ + 1 y_29_ ^ 2 ] <= 16875.08
quadratic_ranged_70_ub: [ 1 x_6_ ^ 2 - 2 x_29_ * x_6_ + 1 x_29_ ^ 2 + 1 y_6_ ^ 2 - 2 y_29_ * y_6_ + 1 y_29_ ^ 2 ] <= 8572.88
quadratic_ranged_71_ub: [ 1 x_23_ ^ 2 - 2 x_29_ * x_23_ + 1 x_29_ ^ 2 + 1 y_23_ ^ 2 - 2 y_29_ * y_23_ + 1 y_29_ ^ 2 ] <= 1398.85
quadratic_ranged_72_ub: [ 1 x_25_ ^ 2 - 2 x_29_ * x_25_ + 1 x_29_ ^ 2 + 1 y_25_ ^ 2 - 2 y_29_ * y_25_ + 1 y_29_ ^ 2 ] <= 17821.45
quadratic_ranged_73_ub: [ 1 x_28_ ^ 2 - 2 x_29_ * x_28_ + 1 x_29_ ^ 2 + 1 y_28_ ^ 2 - 2 y_29_ * y_28_ + 1 y_29_ ^ 2 ] <= 30465.64
quadratic_ranged_74_ub: [ 1 x_24_ ^ 2 - 2 x_30_ * x_24_ + 1 x_30_ ^ 2 + 1 y_24_ ^ 2 - 2 y_30_ * y_24_ + 1 y_30_ ^ 2 ] <= 14149.09
quadratic_ranged_75_ub: [ 1 x_29_ ^ 2 - 2 x_30_ * x_29_ + 1 x_30_ ^ 2 + 1 y_29_ ^ 2 - 2 y_30_ * y_29_ + 1 y_30_ ^ 2 ] <= 31144.36
quadratic_ranged_76_ub: [ 1 x_7_ ^ 2 - 2 x_31_ * x_7_ + 1 x_31_ ^ 2 + 1 y_7_ ^ 2 - 2 y_31_ * y_7_ + 1 y_31_ ^ 2 ] <= 4824.77
quadratic_ranged_77_ub: [ 1 x_14_ ^ 2 - 2 x_31_ * x_14_ + 1 x_31_ ^ 2 + 1 y_14_ ^ 2 - 2 y_31_ * y_14_ + 1 y_31_ ^ 2 ] <= 14190.5
quadratic_ranged_78_ub: [ 1 x_17_ ^ 2 - 2 x_31_ * x_17_ + 1 x_31_ ^ 2 + 1 y_17_ ^ 2 - 2 y_31_ * y_17_ + 1 y_31_ ^ 2 ] <= 25928.72
quadratic_ranged_79_ub: [ 1 x_30_ ^ 2 - 2 x_31_ * x_30_ + 1 x_31_ ^ 2 + 1 y_30_ ^ 2 - 2 y_31_ * y_30_ + 1 y_31_ ^ 2 ] <= 2153.32
quadratic_ranged_80_ub: [ 1 x_2_ ^ 2 - 2 x_32_ * x_2_ + 1 x_32_ ^ 2 + 1 y_2_ ^ 2 - 2 y_32_ * y_2_ + 1 y_32_ ^ 2 ] <= 34683.4
quadratic_ranged_81_ub: [ 1 x_9_ ^ 2 - 2 x_32_ * x_9_ + 1 x_32_ ^ 2 + 1 y_9_ ^ 2 - 2 y_32_ * y_9_ + 1 y_32_ ^ 2 ] <= 3559.2400000000002
quadratic_ranged_82_ub: [ 1 x_15_ ^ 2 - 2 x_32_ * x_15_ + 1 x_32_ ^ 2 + 1 y_15_ ^ 2 - 2 y_32_ * y_15_ + 1 y_32_ ^ 2 ] <= 4122.82
quadratic_ranged_83_ub: [ 1 x_21_ ^ 2 - 2 x_32_ * x_21_ + 1 x_32_ ^ 2 + 1 y_21_ ^ 2 - 2 y_32_ * y_21_ + 1 y_32_ ^ 2 ] <= 962.53
quadratic_ranged_84_ub: [ 1 x_31_ ^ 2 - 2 x_32_ * x_31_ + 1 x_32_ ^ 2 + 1 y_31_ ^ 2 - 2 y_32_ * y_31_ + 1 y_32_ ^ 2 ] <= 6407.4400000000005
quadratic_ranged_85_ub: [ 1 x_5_ ^ 2 - 2 x_33_ * x_5_ + 1 x_33_ ^ 2 + 1 y_5_ ^ 2 - 2 y_33_ * y_5_ + 1 y_33_ ^ 2 ] <= 2282.6
quadratic_ranged_86_ub: [ 1 x_8_ ^ 2 - 2 x_33_ * x_8_ + 1 x_33_ ^ 2 + 1 y_8_ ^ 2 - 2 y_33_ * y_8_ + 1 y_33_ ^ 2 ] <= 9458.65
quadratic_ranged_87_ub: [ 1 x_17_ ^ 2 - 2 x_33_ * x_17_ + 1 x_33_ ^ 2 + 1 y_17_ ^ 2 - 2 y_33_ * y_17_ + 1 y_33_ ^ 2 ] <= 39612.2
quadratic_ranged_88_ub: [ 1 x_26_ ^ 2 - 2 x_33_ * x_26_ + 1 x_33_ ^ 2 + 1 y_26_ ^ 2 - 2 y_33_ * y_26_ + 1 y_33_ ^ 2 ] <= 4674.28
quadratic_ranged_89_ub: [ 1 x_32_ ^ 2 - 2 x_33_ * x_32_ + 1 x_33_ ^ 2 + 1 y_32_ ^ 2 - 2 y_33_ * y_32_ + 1 y_33_ ^ 2 ] <= 989.8
quadratic_ranged_90_ub: [ 1 x_1_ ^ 2 - 2 x_34_ * x_1_ + 1 x_34_ ^ 2 + 1 y_1_ ^ 2 - 2 y_34_ * y_1_ + 1 y_34_ ^ 2 ] <= 14508.65
quadratic_ranged_91_ub: [ 1 x_23_ ^ 2 - 2 x_34_ * x_23_ + 1 x_34_ ^ 2 + 1 y_23_ ^ 2 - 2 y_34_ * y_23_ + 1 y_34_ ^ 2 ] <= 18366.85
quadratic_ranged_92_ub: [ 1 x_26_ ^ 2 - 2 x_34_ * x_26_ + 1 x_34_ ^ 2 + 1 y_26_ ^ 2 - 2 y_34_ * y_26_ + 1 y_34_ ^ 2 ] <= 16115.56
quadratic_ranged_93_ub: [ 1 x_30_ ^ 2 - 2 x_34_ * x_30_ + 1 x_34_ ^ 2 + 1 y_30_ ^ 2 - 2 y_34_ * y_30_ + 1 y_34_ ^ 2 ] <= 404
quadratic_ranged_94_ub: [ 1 x_33_ ^ 2 - 2 x_34_ * x_33_ + 1 x_34_ ^ 2 + 1 y_33_ ^ 2 - 2 y_34_ * y_33_ + 1 y_34_ ^ 2 ] <= 3434
quadratic_ranged_95_ub: [ 1 x_7_ ^ 2 - 2 x_35_ * x_7_ + 1 x_35_ ^ 2 + 1 y_7_ ^ 2 - 2 y_35_ * y_7_ + 1 y_35_ ^ 2 ] <= 7506.32
quadratic_ranged_96_ub: [ 1 x_13_ ^ 2 - 2 x_35_ * x_13_ + 1 x_35_ ^ 2 + 1 y_13_ ^ 2 - 2 y_35_ * y_13_ + 1 y_35_ ^ 2 ] <= 3968.29
quadratic_ranged_97_ub: [ 1 x_15_ ^ 2 - 2 x_35_ * x_15_ + 1 x_35_ ^ 2 + 1 y_15_ ^ 2 - 2 y_35_ * y_15_ + 1 y_35_ ^ 2 ] <= 7394.21
quadratic_ranged_98_ub: [ 1 x_20_ ^ 2 - 2 x_35_ * x_20_ + 1 x_35_ ^ 2 + 1 y_20_ ^ 2 - 2 y_35_ * y_20_ + 1 y_35_ ^ 2 ] <= 517.12
quadratic_ranged_99_ub: [ 1 x_27_ ^ 2 - 2 x_35_ * x_27_ + 1 x_35_ ^ 2 + 1 y_27_ ^ 2 - 2 y_35_ * y_27_ + 1 y_35_ ^ 2 ] <= 8825.38
quadratic_ranged_100_ub: [ 1 x_32_ ^ 2 - 2 x_35_ * x_32_ + 1 x_35_ ^ 2 + 1 y_32_ ^ 2 - 2 y_35_ * y_32_ + 1 y_35_ ^ 2 ] <= 10448.45
quadratic_ranged_101_ub: [ 1 x_33_ ^ 2 - 2 x_35_ * x_33_ + 1 x_35_ ^ 2 + 1 y_33_ ^ 2 - 2 y_35_ * y_33_ + 1 y_35_ ^ 2 ] <= 6065.05
quadratic_ranged_102_ub: [ 1 x_34_ ^ 2 - 2 x_35_ * x_34_ + 1 x_35_ ^ 2 + 1 y_34_ ^ 2 - 2 y_35_ * y_34_ + 1 y_35_ ^ 2 ] <= 15579.25
quadratic_ranged_103_ub: [ 1 x_3_ ^ 2 - 2 x_36_ * x_3_ + 1 x_36_ ^ 2 + 1 y_3_ ^ 2 - 2 y_36_ * y_3_ + 1 y_36_ ^ 2 ] <= 36292.33
quadratic_ranged_104_ub: [ 1 x_17_ ^ 2 - 2 x_36_ * x_17_ + 1 x_36_ ^ 2 + 1 y_17_ ^ 2 - 2 y_36_ * y_17_ + 1 y_36_ ^ 2 ] <= 59898.05
quadratic_ranged_105_ub: [ 1 x_20_ ^ 2 - 2 x_36_ * x_20_ + 1 x_36_ ^ 2 + 1 y_20_ ^ 2 - 2 y_36_ * y_20_ + 1 y_36_ ^ 2 ] <= 7886.08
quadratic_ranged_106_ub: [ 1 x_27_ ^ 2 - 2 x_36_ * x_27_ + 1 x_36_ ^ 2 + 1 y_27_ ^ 2 - 2 y_36_ * y_27_ + 1 y_36_ ^ 2 ] <= 30188.9
quadratic_ranged_107_ub: [ 1 x_35_ ^ 2 - 2 x_36_ * x_35_ + 1 x_36_ ^ 2 + 1 y_35_ ^ 2 - 2 y_36_ * y_35_ + 1 y_36_ ^ 2 ] <= 10988.8
quadratic_ranged_108_ub: [ 1 x_4_ ^ 2 - 2 x_37_ * x_4_ + 1 x_37_ ^ 2 + 1 y_4_ ^ 2 - 2 y_37_ * y_4_ + 1 y_37_ ^ 2 ] <= 16390.28
quadratic_ranged_109_ub: [ 1 x_10_ ^ 2 - 2 x_37_ * x_10_ + 1 x_37_ ^ 2 + 1 y_10_ ^ 2 - 2 y_37_ * y_10_ + 1 y_37_ ^ 2 ] <= 11958.4
quadratic_ranged_110_ub: [ 1 x_16_ ^ 2 - 2 x_37_ * x_16_ + 1 x_37_ ^ 2 + 1 y_16_ ^ 2 - 2 y_37_ * y_16_ + 1 y_37_ ^ 2 ] <= 22795.7
quadratic_ranged_111_ub: [ 1 x_19_ ^ 2 - 2 x_37_ * x_19_ + 1 x_37_ ^ 2 + 1 y_19_ ^ 2 - 2 y_37_ * y_19_ + 1 y_37_ ^ 2 ] <= 107.06
quadratic_ranged_112_ub: [ 1 x_36_ ^ 2 - 2 x_37_ * x_36_ + 1 x_37_ ^ 2 + 1 y_36_ ^ 2 - 2 y_37_ * y_36_ + 1 y_37_ ^ 2 ] <= 3746.09
quadratic_ranged_113_ub: [ 1 x_20_ ^ 2 - 2 x_38_ * x_20_ + 1 x_38_ ^ 2 + 1 y_20_ ^ 2 - 2 y_38_ * y_20_ + 1 y_38_ ^ 2 ] <= 12044.25
quadratic_ranged_114_ub: [ 1 x_29_ ^ 2 - 2 x_38_ * x_29_ + 1 x_38_ ^ 2 + 1 y_29_ ^ 2 - 2 y_38_ * y_29_ + 1 y_38_ ^ 2 ] <= 17129.6
quadratic_ranged_115_ub: [ 1 x_37_ ^ 2 - 2 x_38_ * x_37_ + 1 x_38_ ^ 2 + 1 y_37_ ^ 2 - 2 y_38_ * y_37_ + 1 y_38_ ^ 2 ] <= 15545.92
quadratic_ranged_116_ub: [ 1 x_4_ ^ 2 - 2 x_39_ * x_4_ + 1 x_39_ ^ 2 + 1 y_4_ ^ 2 - 2 y_39_ * y_4_ + 1 y_39_ ^ 2 ] <= 11393.81
quadratic_ranged_117_ub: [ 1 x_9_ ^ 2 - 2 x_39_ * x_9_ + 1 x_39_ ^ 2 + 1 y_9_ ^ 2 - 2 y_39_ * y_9_ + 1 y_39_ ^ 2 ] <= 5842.85
quadratic_ranged_118_ub: [ 1 x_23_ ^ 2 - 2 x_39_ * x_23_ + 1 x_39_ ^ 2 + 1 y_23_ ^ 2 - 2 y_39_ * y_23_ + 1 y_39_ ^ 2 ] <= 5058.08
quadratic_ranged_119_ub: [ 1 x_38_ ^ 2 - 2 x_39_ * x_38_ + 1 x_39_ ^ 2 + 1 y_38_ ^ 2 - 2 y_39_ * y_38_ + 1 y_39_ ^ 2 ] <= 13753.17
quadratic_ranged_120_ub: [ 1 x_4_ ^ 2 - 2 x_40_ * x_4_ + 1 x_40_ ^ 2 + 1 y_4_ ^ 2 - 2 y_40_ * y_4_ + 1 y_40_ ^ 2 ] <= 20023.25
quadratic_ranged_121_ub: [ 1 x_39_ ^ 2 - 2 x_40_ * x_39_ + 1 x_40_ ^ 2 + 1 y_39_ ^ 2 - 2 y_40_ * y_39_ + 1 y_40_ ^ 2 ] <= 7726.5
quadratic_ranged_122_ub: [ 1 x_3_ ^ 2 - 2 x_41_ * x_3_ + 1 x_41_ ^ 2 + 1 y_3_ ^ 2 - 2 y_41_ * y_3_ + 1 y_41_ ^ 2 ] <= 8833.460000000001
quadratic_ranged_123_ub: [ 1 x_20_ ^ 2 - 2 x_41_ * x_20_ + 1 x_41_ ^ 2 + 1 y_20_ ^ 2 - 2 y_41_ * y_20_ + 1 y_41_ ^ 2 ] <= 10181.81
quadratic_ranged_124_ub: [ 1 x_30_ ^ 2 - 2 x_41_ * x_30_ + 1 x_41_ ^ 2 + 1 y_30_ ^ 2 - 2 y_41_ * y_30_ + 1 y_41_ ^ 2 ] <= 10245.44
quadratic_ranged_125_ub: [ 1 x_31_ ^ 2 - 2 x_41_ * x_31_ + 1 x_41_ ^ 2 + 1 y_31_ ^ 2 - 2 y_41_ * y_31_ + 1 y_41_ ^ 2 ] <= 3171.4
quadratic_ranged_126_ub: [ 1 x_37_ ^ 2 - 2 x_41_ * x_37_ + 1 x_41_ ^ 2 + 1 y_37_ ^ 2 - 2 y_41_ * y_37_ + 1 y_41_ ^ 2 ] <= 16988.2
quadratic_ranged_127_ub: [ 1 x_38_ ^ 2 - 2 x_41_ * x_38_ + 1 x_41_ ^ 2 + 1 y_38_ ^ 2 - 2 y_41_ * y_38_ + 1 y_41_ ^ 2 ] <= 2331.08
quadratic_ranged_128_ub: [ 1 x_40_ ^ 2 - 2 x_41_ * x_40_ + 1 x_41_ ^ 2 + 1 y_40_ ^ 2 - 2 y_41_ * y_40_ + 1 y_41_ ^ 2 ] <= 19999.01
quadratic_ranged_129_ub: [ 1 x_13_ ^ 2 - 2 x_42_ * x_13_ + 1 x_42_ ^ 2 + 1 y_13_ ^ 2 - 2 y_42_ * y_13_ + 1 y_42_ ^ 2 ] <= 9090
quadratic_ranged_130_ub: [ 1 x_14_ ^ 2 - 2 x_42_ * x_14_ + 1 x_42_ ^ 2 + 1 y_14_ ^ 2 - 2 y_42_ * y_14_ + 1 y_42_ ^ 2 ] <= 35861.06
quadratic_ranged_131_ub: [ 1 x_41_ ^ 2 - 2 x_42_ * x_41_ + 1 x_42_ ^ 2 + 1 y_41_ ^ 2 - 2 y_42_ * y_41_ + 1 y_42_ ^ 2 ] <= 3013.84
quadratic_ranged_132_ub: [ 1 x_1_ ^ 2 - 2 x_43_ * x_1_ + 1 x_43_ ^ 2 + 1 y_1_ ^ 2 - 2 y_43_ * y_1_ + 1 y_43_ ^ 2 ] <= 4631.86
quadratic_ranged_133_ub: [ 1 x_22_ ^ 2 - 2 x_43_ * x_22_ + 1 x_43_ ^ 2 + 1 y_22_ ^ 2 - 2 y_43_ * y_22_ + 1 y_43_ ^ 2 ] <= 13994.56
quadratic_ranged_134_ub: [ 1 x_27_ ^ 2 - 2 x_43_ * x_27_ + 1 x_43_ ^ 2 + 1 y_27_ ^ 2 - 2 y_43_ * y_27_ + 1 y_43_ ^ 2 ] <= 2498.7400000000002
quadratic_ranged_135_ub: [ 1 x_28_ ^ 2 - 2 x_43_ * x_28_ + 1 x_43_ ^ 2 + 1 y_28_ ^ 2 - 2 y_43_ * y_28_ + 1 y_43_ ^ 2 ] <= 12327.05
quadratic_ranged_136_ub: [ 1 x_30_ ^ 2 - 2 x_43_ * x_30_ + 1 x_43_ ^ 2 + 1 y_30_ ^ 2 - 2 y_43_ * y_30_ + 1 y_43_ ^ 2 ] <= 11708.93
quadratic_ranged_137_ub: [ 1 x_42_ ^ 2 - 2 x_43_ * x_42_ + 1 x_43_ ^ 2 + 1 y_42_ ^ 2 - 2 y_43_ * y_42_ + 1 y_43_ ^ 2 ] <= 1871.53
quadratic_ranged_138_ub: [ 1 x_11_ ^ 2 - 2 x_44_ * x_11_ + 1 x_44_ ^ 2 + 1 y_11_ ^ 2 - 2 y_44_ * y_11_ + 1 y_44_ ^ 2 ] <= 3979.4
quadratic_ranged_139_ub: [ 1 x_14_ ^ 2 - 2 x_44_ * x_14_ + 1 x_44_ ^ 2 + 1 y_14_ ^ 2 - 2 y_44_ * y_14_ + 1 y_44_ ^ 2 ] <= 10262.61
quadratic_ranged_140_ub: [ 1 x_22_ ^ 2 - 2 x_44_ * x_22_ + 1 x_44_ ^ 2 + 1 y_22_ ^ 2 - 2 y_44_ * y_22_ + 1 y_44_ ^ 2 ] <= 15715.6
quadratic_ranged_141_ub: [ 1 x_26_ ^ 2 - 2 x_44_ * x_26_ + 1 x_44_ ^ 2 + 1 y_26_ ^ 2 - 2 y_44_ * y_26_ + 1 y_44_ ^ 2 ] <= 7325.53
quadratic_ranged_142_ub: [ 1 x_31_ ^ 2 - 2 x_44_ * x_31_ + 1 x_44_ ^ 2 + 1 y_31_ ^ 2 - 2 y_44_ * y_31_ + 1 y_44_ ^ 2 ] <= 3006.77
quadratic_ranged_143_ub: [ 1 x_43_ ^ 2 - 2 x_44_ * x_43_ + 1 x_44_ ^ 2 + 1 y_43_ ^ 2 - 2 y_44_ * y_43_ + 1 y_44_ ^ 2 ] <= 4371.28
quadratic_ranged_144_ub: [ 1 x_23_ ^ 2 - 2 x_45_ * x_23_ + 1 x_45_ ^ 2 + 1 y_23_ ^ 2 - 2 y_45_ * y_23_ + 1 y_45_ ^ 2 ] <= 13026.98
quadratic_ranged_145_ub: [ 1 x_25_ ^ 2 - 2 x_45_ * x_25_ + 1 x_45_ ^ 2 + 1 y_25_ ^ 2 - 2 y_45_ * y_25_ + 1 y_45_ ^ 2 ] <= 13342.1
quadratic_ranged_146_ub: [ 1 x_31_ ^ 2 - 2 x_45_ * x_31_ + 1 x_45_ ^ 2 + 1 y_31_ ^ 2 - 2 y_45_ * y_31_ + 1 y_45_ ^ 2 ] <= 352.49
quadratic_ranged_147_ub: [ 1 x_40_ ^ 2 - 2 x_45_ * x_40_ + 1 x_45_ ^ 2 + 1 y_40_ ^ 2 - 2 y_45_ * y_40_ + 1 y_45_ ^ 2 ] <= 15917.6
quadratic_ranged_148_ub: [ 1 x_44_ ^ 2 - 2 x_45_ * x_44_ + 1 x_45_ ^ 2 + 1 y_44_ ^ 2 - 2 y_45_ * y_44_ + 1 y_45_ ^ 2 ] <= 4254.12
quadratic_ranged_149_ub: [ 1 x_29_ ^ 2 - 2 x_46_ * x_29_ + 1 x_46_ ^ 2 + 1 y_29_ ^ 2 - 2 y_46_ * y_29_ + 1 y_46_ ^ 2 ] <= 3847.09
quadratic_ranged_150_ub: [ 1 x_34_ ^ 2 - 2 x_46_ * x_34_ + 1 x_46_ ^ 2 + 1 y_34_ ^ 2 - 2 y_46_ * y_34_ + 1 y_46_ ^ 2 ] <= 23695.61
quadratic_ranged_151_ub: [ 1 x_35_ ^ 2 - 2 x_46_ * x_35_ + 1 x_46_ ^ 2 + 1 y_35_ ^ 2 - 2 y_46_ * y_35_ + 1 y_46_ ^ 2 ] <= 2722.96
quadratic_ranged_152_ub: [ 1 x_44_ ^ 2 - 2 x_46_ * x_44_ + 1 x_46_ ^ 2 + 1 y_44_ ^ 2 - 2 y_46_ * y_44_ + 1 y_46_ ^ 2 ] <= 9372.8
quadratic_ranged_153_ub: [ 1 x_45_ ^ 2 - 2 x_46_ * x_45_ + 1 x_46_ ^ 2 + 1 y_45_ ^ 2 - 2 y_46_ * y_45_ + 1 y_46_ ^ 2 ] <= 24680.36
quadratic_ranged_154_ub: [ 1 x_19_ ^ 2 - 2 x_47_ * x_19_ + 1 x_47_ ^ 2 + 1 y_19_ ^ 2 - 2 y_47_ * y_19_ + 1 y_47_ ^ 2 ] <= 2894.66
quadratic_ranged_155_ub: [ 1 x_22_ ^ 2 - 2 x_47_ * x_22_ + 1 x_47_ ^ 2 + 1 y_22_ ^ 2 - 2 y_47_ * y_22_ + 1 y_47_ ^ 2 ] <= 20887.81
quadratic_ranged_156_ub: [ 1 x_43_ ^ 2 - 2 x_47_ * x_43_ + 1 x_47_ ^ 2 + 1 y_43_ ^ 2 - 2 y_47_ * y_43_ + 1 y_47_ ^ 2 ] <= 10278.77
quadratic_ranged_157_ub: [ 1 x_44_ ^ 2 - 2 x_47_ * x_44_ + 1 x_47_ ^ 2 + 1 y_44_ ^ 2 - 2 y_47_ * y_44_ + 1 y_47_ ^ 2 ] <= 1249.3700000000001
quadratic_ranged_158_ub: [ 1 x_46_ ^ 2 - 2 x_47_ * x_46_ + 1 x_47_ ^ 2 + 1 y_46_ ^ 2 - 2 y_47_ * y_46_ + 1 y_47_ ^ 2 ] <= 4174.33
quadratic_ranged_159_ub: [ 1 x_3_ ^ 2 - 2 x_48_ * x_3_ + 1 x_48_ ^ 2 + 1 y_3_ ^ 2 - 2 y_48_ * y_3_ + 1 y_48_ ^ 2 ] <= 18117.38
quadratic_ranged_160_ub: [ 1 x_4_ ^ 2 - 2 x_48_ * x_4_ + 1 x_48_ ^ 2 + 1 y_4_ ^ 2 - 2 y_48_ * y_4_ + 1 y_48_ ^ 2 ] <= 9603.08
quadratic_ranged_161_ub: [ 1 x_7_ ^ 2 - 2 x_48_ * x_7_ + 1 x_48_ ^ 2 + 1 y_7_ ^ 2 - 2 y_48_ * y_7_ + 1 y_48_ ^ 2 ] <= 11551.37
quadratic_ranged_162_ub: [ 1 x_18_ ^ 2 - 2 x_48_ * x_18_ + 1 x_48_ ^ 2 + 1 y_18_ ^ 2 - 2 y_48_ * y_18_ + 1 y_48_ ^ 2 ] <= 11385.73
quadratic_ranged_163_ub: [ 1 x_28_ ^ 2 - 2 x_48_ * x_28_ + 1 x_48_ ^ 2 + 1 y_28_ ^ 2 - 2 y_48_ * y_28_ + 1 y_48_ ^ 2 ] <= 13837
quadratic_ranged_164_ub: [ 1 x_37_ ^ 2 - 2 x_48_ * x_37_ + 1 x_48_ ^ 2 + 1 y_37_ ^ 2 - 2 y_48_ * y_37_ + 1 y_48_ ^ 2 ] <= 945.36
quadratic_ranged_165_ub: [ 1 x_47_ ^ 2 - 2 x_48_ * x_47_ + 1 x_48_ ^ 2 + 1 y_47_ ^ 2 - 2 y_48_ * y_47_ + 1 y_48_ ^ 2 ] <= 601.96
quadratic_ranged_166_ub: [ 1 x_3_ ^ 2 - 2 x_49_ * x_3_ + 1 x_49_ ^ 2 + 1 y_3_ ^ 2 - 2 y_49_ * y_3_ + 1 y_49_ ^ 2 ] <= 16099.4
quadratic_ranged_167_ub: [ 1 x_8_ ^ 2 - 2 x_49_ * x_8_ + 1 x_49_ ^ 2 + 1 y_8_ ^ 2 - 2 y_49_ * y_8_ + 1 y_49_ ^ 2 ] <= 1083.73
quadratic_ranged_168_ub: [ 1 x_13_ ^ 2 - 2 x_49_ * x_13_ + 1 x_49_ ^ 2 + 1 y_13_ ^ 2 - 2 y_49_ * y_13_ + 1 y_49_ ^ 2 ] <= 5973.14
quadratic_ranged_169_ub: [ 1 x_30_ ^ 2 - 2 x_49_ * x_30_ + 1 x_49_ ^ 2 + 1 y_30_ ^ 2 - 2 y_49_ * y_30_ + 1 y_49_ ^ 2 ] <= 8970.82
quadratic_ranged_170_ub: [ 1 x_32_ ^ 2 - 2 x_49_ * x_32_ + 1 x_49_ ^ 2 + 1 y_32_ ^ 2 - 2 y_49_ * y_32_ + 1 y_49_ ^ 2 ] <= 20315.14
quadratic_ranged_171_ub: [ 1 x_48_ ^ 2 - 2 x_49_ * x_48_ + 1 x_49_ ^ 2 + 1 y_48_ ^ 2 - 2 y_49_ * y_48_ + 1 y_49_ ^ 2 ] <= 19143.54
quadratic_ranged_172_ub: [ 1 x_3_ ^ 2 - 2 x_50_ * x_3_ + 1 x_50_ ^ 2 + 1 y_3_ ^ 2 - 2 y_50_ * y_3_ + 1 y_50_ ^ 2 ] <= 4476.32
quadratic_ranged_173_ub: [ 1 x_6_ ^ 2 - 2 x_50_ * x_6_ + 1 x_50_ ^ 2 + 1 y_6_ ^ 2 - 2 y_50_ * y_6_ + 1 y_50_ ^ 2 ] <= 13172.42
quadratic_ranged_174_ub: [ 1 x_20_ ^ 2 - 2 x_50_ * x_20_ + 1 x_50_ ^ 2 + 1 y_20_ ^ 2 - 2 y_50_ * y_20_ + 1 y_50_ ^ 2 ] <= 17223.53
quadratic_ranged_175_ub: [ 1 x_29_ ^ 2 - 2 x_50_ * x_29_ + 1 x_50_ ^ 2 + 1 y_29_ ^ 2 - 2 y_50_ * y_29_ + 1 y_50_ ^ 2 ] <= 12526.02
quadratic_ranged_176_ub: [ 1 x_43_ ^ 2 - 2 x_50_ * x_43_ + 1 x_50_ ^ 2 + 1 y_43_ ^ 2 - 2 y_50_ * y_43_ + 1 y_50_ ^ 2 ] <= 1831.13
quadratic_ranged_177_ub: [ 1 x_49_ ^ 2 - 2 x_50_ * x_49_ + 1 x_50_ ^ 2 + 1 y_49_ ^ 2 - 2 y_50_ * y_49_ + 1 y_50_ ^ 2 ] <= 4318.76
quadratic_ranged_178_ub: [ 1 x_6_ ^ 2 - 2 x_51_ * x_6_ + 1 x_51_ ^ 2 + 1 y_6_ ^ 2 - 2 y_51_ * y_6_ + 1 y_51_ ^ 2 ] <= 10973.65
quadratic_ranged_179_ub: [ 1 x_7_ ^ 2 - 2 x_51_ * x_7_ + 1 x_51_ ^ 2 + 1 y_7_ ^ 2 - 2 y_51_ * y_7_ + 1 y_51_ ^ 2 ] <= 779.72
quadratic_ranged_180_ub: [ 1 x_27_ ^ 2 - 2 x_51_ * x_27_ + 1 x_51_ ^ 2 + 1 y_27_ ^ 2 - 2 y_51_ * y_27_ + 1 y_51_ ^ 2 ] <= 462.58
quadratic_ranged_181_ub: [ 1 x_33_ ^ 2 - 2 x_51_ * x_33_ + 1 x_51_ ^ 2 + 1 y_33_ ^ 2 - 2 y_51_ * y_33_ + 1 y_51_ ^ 2 ] <= 16245.85
quadratic_ranged_182_ub: [ 1 x_34_ ^ 2 - 2 x_51_ * x_34_ + 1 x_51_ ^ 2 + 1 y_34_ ^ 2 - 2 y_51_ * y_34_ + 1 y_51_ ^ 2 ] <= 16185.25
quadratic_ranged_183_ub: [ 1 x_42_ ^ 2 - 2 x_51_ * x_42_ + 1 x_51_ ^ 2 + 1 y_42_ ^ 2 - 2 y_51_ * y_42_ + 1 y_51_ ^ 2 ] <= 207.05
quadratic_ranged_184_ub: [ 1 x_47_ ^ 2 - 2 x_51_ * x_47_ + 1 x_51_ ^ 2 + 1 y_47_ ^ 2 - 2 y_51_ * y_47_ + 1 y_51_ ^ 2 ] <= 11579.65
quadratic_ranged_185_ub: [ 1 x_49_ ^ 2 - 2 x_51_ * x_49_ + 1 x_51_ ^ 2 + 1 y_49_ ^ 2 - 2 y_51_ * y_49_ + 1 y_51_ ^ 2 ] <= 3063.33
quadratic_ranged_186_ub: [ 1 x_50_ ^ 2 - 2 x_51_ * x_50_ + 1 x_51_ ^ 2 + 1 y_50_ ^ 2 - 2 y_51_ * y_50_ + 1 y_51_ ^ 2 ] <= 146.45
quadratic_ranged_187_ub: [ 1 x_6_ ^ 2 - 2 x_52_ * x_6_ + 1 x_52_ ^ 2 + 1 y_6_ ^ 2 - 2 y_52_ * y_6_ + 1 y_52_ ^ 2 ] <= 12178.58
quadratic_ranged_188_ub: [ 1 x_13_ ^ 2 - 2 x_52_ * x_13_ + 1 x_52_ ^ 2 + 1 y_13_ ^ 2 - 2 y_52_ * y_13_ + 1 y_52_ ^ 2 ] <= 7370.9800000000005
quadratic_ranged_189_ub: [ 1 x_17_ ^ 2 - 2 x_52_ * x_17_ + 1 x_52_ ^ 2 + 1 y_17_ ^ 2 - 2 y_52_ * y_17_ + 1 y_52_ ^ 2 ] <= 5116.66
quadratic_ranged_190_ub: [ 1 x_20_ ^ 2 - 2 x_52_ * x_20_ + 1 x_52_ ^ 2 + 1 y_20_ ^ 2 - 2 y_52_ * y_20_ + 1 y_52_ ^ 2 ] <= 19574.81
quadratic_ranged_191_ub: [ 1 x_30_ ^ 2 - 2 x_52_ * x_30_ + 1 x_52_ ^ 2 + 1 y_30_ ^ 2 - 2 y_52_ * y_30_ + 1 y_52_ ^ 2 ] <= 16315.54
quadratic_ranged_192_ub: [ 1 x_51_ ^ 2 - 2 x_52_ * x_51_ + 1 x_52_ ^ 2 + 1 y_51_ ^ 2 - 2 y_52_ * y_51_ + 1 y_52_ ^ 2 ] <= 510.05
quadratic_ranged_193_ub: [ 1 x_7_ ^ 2 - 2 x_53_ * x_7_ + 1 x_53_ ^ 2 + 1 y_7_ ^ 2 - 2 y_53_ * y_7_ + 1 y_53_ ^ 2 ] <= 5773.16
quadratic_ranged_194_ub: [ 1 x_27_ ^ 2 - 2 x_53_ * x_27_ + 1 x_53_ ^ 2 + 1 y_27_ ^ 2 - 2 y_53_ * y_27_ + 1 y_53_ ^ 2 ] <= 11928.1
quadratic_ranged_195_ub: [ 1 x_40_ ^ 2 - 2 x_53_ * x_40_ + 1 x_53_ ^ 2 + 1 y_40_ ^ 2 - 2 y_53_ * y_40_ + 1 y_53_ ^ 2 ] <= 24854.08
quadratic_ranged_196_ub: [ 1 x_46_ ^ 2 - 2 x_53_ * x_46_ + 1 x_53_ ^ 2 + 1 y_46_ ^ 2 - 2 y_53_ * y_46_ + 1 y_53_ ^ 2 ] <= 35071.24
quadratic_ranged_197_ub: [ 1 x_49_ ^ 2 - 2 x_53_ * x_49_ + 1 x_53_ ^ 2 + 1 y_49_ ^ 2 - 2 y_53_ * y_49_ + 1 y_53_ ^ 2 ] <= 1334.21
quadratic_ranged_198_ub: [ 1 x_52_ ^ 2 - 2 x_53_ * x_52_ + 1 x_53_ ^ 2 + 1 y_52_ ^ 2 - 2 y_53_ * y_52_ + 1 y_53_ ^ 2 ] <= 5406.53
quadratic_ranged_199_ub: [ 1 x_1_ ^ 2 - 2 x_54_ * x_1_ + 1 x_54_ ^ 2 + 1 y_1_ ^ 2 - 2 y_54_ * y_1_ + 1 y_54_ ^ 2 ] <= 9673.78
quadratic_ranged_200_ub: [ 1 x_13_ ^ 2 - 2 x_54_ * x_13_ + 1 x_54_ ^ 2 + 1 y_13_ ^ 2 - 2 y_54_ * y_13_ + 1 y_54_ ^ 2 ] <= 9519.25
quadratic_ranged_201_ub: [ 1 x_27_ ^ 2 - 2 x_54_ * x_27_ + 1 x_54_ ^ 2 + 1 y_27_ ^ 2 - 2 y_54_ * y_27_ + 1 y_54_ ^ 2 ] <= 4664.18
quadratic_ranged_202_ub: [ 1 x_39_ ^ 2 - 2 x_54_ * x_39_ + 1 x_54_ ^ 2 + 1 y_39_ ^ 2 - 2 y_54_ * y_39_ + 1 y_54_ ^ 2 ] <= 28128.5
quadratic_ranged_203_ub: [ 1 x_50_ ^ 2 - 2 x_54_ * x_50_ + 1 x_54_ ^ 2 + 1 y_50_ ^ 2 - 2 y_54_ * y_50_ + 1 y_54_ ^ 2 ] <= 2845.17
quadratic_ranged_204_ub: [ 1 x_53_ ^ 2 - 2 x_54_ * x_53_ + 1 x_54_ ^ 2 + 1 y_53_ ^ 2 - 2 y_54_ * y_53_ + 1 y_54_ ^ 2 ] <= 3700.64
quadratic_ranged_205_ub: [ 1 x_14_ ^ 2 - 2 x_55_ * x_14_ + 1 x_55_ ^ 2 + 1 y_14_ ^ 2 - 2 y_55_ * y_14_ + 1 y_55_ ^ 2 ] <= 38069.93
quadratic_ranged_206_ub: [ 1 x_17_ ^ 2 - 2 x_55_ * x_17_ + 1 x_55_ ^ 2 + 1 y_17_ ^ 2 - 2 y_55_ * y_17_ + 1 y_55_ ^ 2 ] <= 3843.05
quadratic_ranged_207_ub: [ 1 x_19_ ^ 2 - 2 x_55_ * x_19_ + 1 x_55_ ^ 2 + 1 y_19_ ^ 2 - 2 y_55_ * y_19_ + 1 y_55_ ^ 2 ] <= 33153.25
quadratic_ranged_208_ub: [ 1 x_27_ ^ 2 - 2 x_55_ * x_27_ + 1 x_55_ ^ 2 + 1 y_27_ ^ 2 - 2 y_55_ * y_27_ + 1 y_55_ ^ 2 ] <= 2282.6
quadratic_ranged_209_ub: [ 1 x_34_ ^ 2 - 2 x_55_ * x_34_ + 1 x_55_ ^ 2 + 1 y_34_ ^ 2 - 2 y_55_ * y_34_ + 1 y_55_ ^ 2 ] <= 16775.09
quadratic_ranged_210_ub: [ 1 x_54_ ^ 2 - 2 x_55_ * x_54_ + 1 x_55_ ^ 2 + 1 y_54_ ^ 2 - 2 y_55_ * y_54_ + 1 y_55_ ^ 2 ] <= 535.3
quadratic_ranged_211_ub: [ 1 x_1_ ^ 2 - 2 x_56_ * x_1_ + 1 x_56_ ^ 2 + 1 y_1_ ^ 2 - 2 y_56_ * y_1_ + 1 y_56_ ^ 2 ] <= 22278.58
quadratic_ranged_212_ub: [ 1 x_6_ ^ 2 - 2 x_56_ * x_6_ + 1 x_56_ ^ 2 + 1 y_6_ ^ 2 - 2 y_56_ * y_6_ + 1 y_56_ ^ 2 ] <= 14662.17
quadratic_ranged_213_ub: [ 1 x_18_ ^ 2 - 2 x_56_ * x_18_ + 1 x_56_ ^ 2 + 1 y_18_ ^ 2 - 2 y_56_ * y_18_ + 1 y_56_ ^ 2 ] <= 28710.260000000002
quadratic_ranged_214_ub: [ 1 x_26_ ^ 2 - 2 x_56_ * x_26_ + 1 x_56_ ^ 2 + 1 y_26_ ^ 2 - 2 y_56_ * y_26_ + 1 y_56_ ^ 2 ] <= 35322.73
quadratic_ranged_215_ub: [ 1 x_28_ ^ 2 - 2 x_56_ * x_28_ + 1 x_56_ ^ 2 + 1 y_28_ ^ 2 - 2 y_56_ * y_28_ + 1 y_56_ ^ 2 ] <= 3612.77
quadratic_ranged_216_ub: [ 1 x_30_ ^ 2 - 2 x_56_ * x_30_ + 1 x_56_ ^ 2 + 1 y_30_ ^ 2 - 2 y_56_ * y_30_ + 1 y_56_ ^ 2 ] <= 2889.61
quadratic_ranged_217_ub: [ 1 x_34_ ^ 2 - 2 x_56_ * x_34_ + 1 x_56_ ^ 2 + 1 y_34_ ^ 2 - 2 y_56_ * y_34_ + 1 y_56_ ^ 2 ] <= 4449.05
quadratic_ranged_218_ub: [ 1 x_48_ ^ 2 - 2 x_56_ * x_48_ + 1 x_56_ ^ 2 + 1 y_48_ ^ 2 - 2 y_56_ * y_48_ + 1 y_56_ ^ 2 ] <= 25820.65
quadratic_ranged_219_ub: [ 1 x_55_ ^ 2 - 2 x_56_ * x_55_ + 1 x_56_ ^ 2 + 1 y_55_ ^ 2 - 2 y_56_ * y_55_ + 1 y_56_ ^ 2 ] <= 13261.3
quadratic_ranged_220_ub: [ 1 x_20_ ^ 2 - 2 x_57_ * x_20_ + 1 x_57_ ^ 2 + 1 y_20_ ^ 2 - 2 y_57_ * y_20_ + 1 y_57_ ^ 2 ] <= 2815.88
quadratic_ranged_221_ub: [ 1 x_30_ ^ 2 - 2 x_57_ * x_30_ + 1 x_57_ ^ 2 + 1 y_30_ ^ 2 - 2 y_57_ * y_30_ + 1 y_57_ ^ 2 ] <= 8889.01
quadratic_ranged_222_ub: [ 1 x_32_ ^ 2 - 2 x_57_ * x_32_ + 1 x_57_ ^ 2 + 1 y_32_ ^ 2 - 2 y_57_ * y_32_ + 1 y_57_ ^ 2 ] <= 1883.65
quadratic_ranged_223_ub: [ 1 x_39_ ^ 2 - 2 x_57_ * x_39_ + 1 x_57_ ^ 2 + 1 y_39_ ^ 2 - 2 y_57_ * y_39_ + 1 y_57_ ^ 2 ] <= 3234.02
quadratic_ranged_224_ub: [ 1 x_43_ ^ 2 - 2 x_57_ * x_43_ + 1 x_57_ ^ 2 + 1 y_43_ ^ 2 - 2 y_57_ * y_43_ + 1 y_57_ ^ 2 ] <= 11946.28
quadratic_ranged_225_ub: [ 1 x_44_ ^ 2 - 2 x_57_ * x_44_ + 1 x_57_ ^ 2 + 1 y_44_ ^ 2 - 2 y_57_ * y_44_ + 1 y_57_ ^ 2 ] <= 2217.96
quadratic_ranged_226_ub: [ 1 x_46_ ^ 2 - 2 x_57_ * x_46_ + 1 x_57_ ^ 2 + 1 y_46_ ^ 2 - 2 y_57_ * y_46_ + 1 y_57_ ^ 2 ] <= 6354.92
quadratic_ranged_227_ub: [ 1 x_47_ ^ 2 - 2 x_57_ * x_47_ + 1 x_57_ ^ 2 + 1 y_47_ ^ 2 - 2 y_57_ * y_47_ + 1 y_57_ ^ 2 ] <= 752.45
quadratic_ranged_228_ub: [ 1 x_56_ ^ 2 - 2 x_57_ * x_56_ + 1 x_57_ ^ 2 + 1 y_56_ ^ 2 - 2 y_57_ * y_56_ + 1 y_57_ ^ 2 ] <= 17978
quadratic_ranged_229_ub: [ 1 x_7_ ^ 2 - 2 x_58_ * x_7_ + 1 x_58_ ^ 2 + 1 y_7_ ^ 2 - 2 y_58_ * y_7_ + 1 y_58_ ^ 2 ] <= 456.52
quadratic_ranged_230_ub: [ 1 x_8_ ^ 2 - 2 x_58_ * x_8_ + 1 x_58_ ^ 2 + 1 y_8_ ^ 2 - 2 y_58_ * y_8_ + 1 y_58_ ^ 2 ] <= 4306.64
quadratic_ranged_231_ub: [ 1 x_11_ ^ 2 - 2 x_58_ * x_11_ + 1 x_58_ ^ 2 + 1 y_11_ ^ 2 - 2 y_58_ * y_11_ + 1 y_58_ ^ 2 ] <= 8249.68
quadratic_ranged_232_ub: [ 1 x_15_ ^ 2 - 2 x_58_ * x_15_ + 1 x_58_ ^ 2 + 1 y_15_ ^ 2 - 2 y_58_ * y_15_ + 1 y_58_ ^ 2 ] <= 2812.85
quadratic_ranged_233_ub: [ 1 x_35_ ^ 2 - 2 x_58_ * x_35_ + 1 x_58_ ^ 2 + 1 y_35_ ^ 2 - 2 y_58_ * y_35_ + 1 y_58_ ^ 2 ] <= 5013.64
quadratic_ranged_234_ub: [ 1 x_57_ ^ 2 - 2 x_58_ * x_57_ + 1 x_58_ ^ 2 + 1 y_57_ ^ 2 - 2 y_58_ * y_57_ + 1 y_58_ ^ 2 ] <= 5470.16
quadratic_ranged_235_ub: [ 1 x_17_ ^ 2 - 2 x_59_ * x_17_ + 1 x_59_ ^ 2 + 1 y_17_ ^ 2 - 2 y_59_ * y_17_ + 1 y_59_ ^ 2 ] <= 11352.4
quadratic_ranged_236_ub: [ 1 x_29_ ^ 2 - 2 x_59_ * x_29_ + 1 x_59_ ^ 2 + 1 y_29_ ^ 2 - 2 y_59_ * y_29_ + 1 y_59_ ^ 2 ] <= 10617.12
quadratic_ranged_237_ub: [ 1 x_33_ ^ 2 - 2 x_59_ * x_33_ + 1 x_59_ ^ 2 + 1 y_33_ ^ 2 - 2 y_59_ * y_33_ + 1 y_59_ ^ 2 ] <= 8585
quadratic_ranged_238_ub: [ 1 x_36_ ^ 2 - 2 x_59_ * x_36_ + 1 x_59_ ^ 2 + 1 y_36_ ^ 2 - 2 y_59_ * y_36_ + 1 y_59_ ^ 2 ] <= 19227.37
quadratic_ranged_239_ub: [ 1 x_42_ ^ 2 - 2 x_59_ * x_42_ + 1 x_59_ ^ 2 + 1 y_42_ ^ 2 - 2 y_59_ * y_42_ + 1 y_59_ ^ 2 ] <= 2541.16
quadratic_ranged_240_ub: [ 1 x_49_ ^ 2 - 2 x_59_ * x_49_ + 1 x_59_ ^ 2 + 1 y_49_ ^ 2 - 2 y_59_ * y_49_ + 1 y_59_ ^ 2 ] <= 1925.06
quadratic_ranged_241_ub: [ 1 x_57_ ^ 2 - 2 x_59_ * x_57_ + 1 x_59_ ^ 2 + 1 y_57_ ^ 2 - 2 y_59_ * y_57_ + 1 y_59_ ^ 2 ] <= 8004.25
quadratic_ranged_242_ub: [ 1 x_58_ ^ 2 - 2 x_59_ * x_58_ + 1 x_59_ ^ 2 + 1 y_58_ ^ 2 - 2 y_59_ * y_58_ + 1 y_59_ ^ 2 ] <= 283.81
quadratic_ranged_243_ub: [ 1 x_7_ ^ 2 - 2 x_60_ * x_7_ + 1 x_60_ ^ 2 + 1 y_7_ ^ 2 - 2 y_60_ * y_7_ + 1 y_60_ ^ 2 ] <= 14311.7
quadratic_ranged_244_ub: [ 1 x_17_ ^ 2 - 2 x_60_ * x_17_ + 1 x_60_ ^ 2 + 1 y_17_ ^ 2 - 2 y_60_ * y_17_ + 1 y_60_ ^ 2 ] <= 39552.61
quadratic_ranged_245_ub: [ 1 x_23_ ^ 2 - 2 x_60_ * x_23_ + 1 x_60_ ^ 2 + 1 y_23_ ^ 2 - 2 y_60_ * y_23_ + 1 y_60_ ^ 2 ] <= 4318.76
quadratic_ranged_246_ub: [ 1 x_24_ ^ 2 - 2 x_60_ * x_24_ + 1 x_60_ ^ 2 + 1 y_24_ ^ 2 - 2 y_60_ * y_24_ + 1 y_60_ ^ 2 ] <= 10328.26
quadratic_ranged_247_ub: [ 1 x_43_ ^ 2 - 2 x_60_ * x_43_ + 1 x_60_ ^ 2 + 1 y_43_ ^ 2 - 2 y_60_ * y_43_ + 1 y_60_ ^ 2 ] <= 20088.9
quadratic_ranged_248_ub: [ 1 x_59_ ^ 2 - 2 x_60_ * x_59_ + 1 x_60_ ^ 2 + 1 y_59_ ^ 2 - 2 y_60_ * y_59_ + 1 y_60_ ^ 2 ] <= 14338.97
quadratic_ranged_249_ub: [ 1 x_4_ ^ 2 - 2 x_61_ * x_4_ + 1 x_61_ ^ 2 + 1 y_4_ ^ 2 - 2 y_61_ * y_4_ + 1 y_61_ ^ 2 ] <= 1782.65
quadratic_ranged_250_ub: [ 1 x_5_ ^ 2 - 2 x_61_ * x_5_ + 1 x_61_ ^ 2 + 1 y_5_ ^ 2 - 2 y_61_ * y_5_ + 1 y_61_ ^ 2 ] <= 13757.210000000001
quadratic_ranged_251_ub: [ 1 x_10_ ^ 2 - 2 x_61_ * x_10_ + 1 x_61_ ^ 2 + 1 y_10_ ^ 2 - 2 y_61_ * y_10_ + 1 y_61_ ^ 2 ] <= 9470.77
quadratic_ranged_252_ub: [ 1 x_17_ ^ 2 - 2 x_61_ * x_17_ + 1 x_61_ ^ 2 + 1 y_17_ ^ 2 - 2 y_61_ * y_17_ + 1 y_61_ ^ 2 ] <= 8327.45
quadratic_ranged_253_ub: [ 1 x_22_ ^ 2 - 2 x_61_ * x_22_ + 1 x_61_ ^ 2 + 1 y_22_ ^ 2 - 2 y_61_ * y_22_ + 1 y_61_ ^ 2 ] <= 12705.8
quadratic_ranged_254_ub: [ 1 x_58_ ^ 2 - 2 x_61_ * x_58_ + 1 x_61_ ^ 2 + 1 y_58_ ^ 2 - 2 y_61_ * y_58_ + 1 y_61_ ^ 2 ] <= 2747.2
quadratic_ranged_255_ub: [ 1 x_60_ ^ 2 - 2 x_61_ * x_60_ + 1 x_61_ ^ 2 + 1 y_60_ ^ 2 - 2 y_61_ * y_60_ + 1 y_61_ ^ 2 ] <= 24314.74
quadratic_ranged_256_ub: [ 1 x_9_ ^ 2 - 2 x_62_ * x_9_ + 1 x_62_ ^ 2 + 1 y_9_ ^ 2 - 2 y_62_ * y_9_ + 1 y_62_ ^ 2 ] <= 9269.78
quadratic_ranged_257_ub: [ 1 x_14_ ^ 2 - 2 x_62_ * x_14_ + 1 x_62_ ^ 2 + 1 y_14_ ^ 2 - 2 y_62_ * y_14_ + 1 y_62_ ^ 2 ] <= 32400.8
quadratic_ranged_258_ub: [ 1 x_24_ ^ 2 - 2 x_62_ * x_24_ + 1 x_62_ ^ 2 + 1 y_24_ ^ 2 - 2 y_62_ * y_24_ + 1 y_62_ ^ 2 ] <= 2841.13
quadratic_ranged_259_ub: [ 1 x_44_ ^ 2 - 2 x_62_ * x_44_ + 1 x_62_ ^ 2 + 1 y_44_ ^ 2 - 2 y_62_ * y_44_ + 1 y_62_ ^ 2 ] <= 6473.09
quadratic_ranged_260_ub: [ 1 x_50_ ^ 2 - 2 x_62_ * x_50_ + 1 x_62_ ^ 2 + 1 y_50_ ^ 2 - 2 y_62_ * y_50_ + 1 y_62_ ^ 2 ] <= 1712.96
quadratic_ranged_261_ub: [ 1 x_61_ ^ 2 - 2 x_62_ * x_61_ + 1 x_62_ ^ 2 + 1 y_61_ ^ 2 - 2 y_62_ * y_61_ + 1 y_62_ ^ 2 ] <= 102.01
quadratic_ranged_262_ub: [ 1 x_20_ ^ 2 - 2 x_63_ * x_20_ + 1 x_63_ ^ 2 + 1 y_20_ ^ 2 - 2 y_63_ * y_20_ + 1 y_63_ ^ 2 ] <= 14499.56
quadratic_ranged_263_ub: [ 1 x_28_ ^ 2 - 2 x_63_ * x_28_ + 1 x_63_ ^ 2 + 1 y_28_ ^ 2 - 2 y_63_ * y_28_ + 1 y_63_ ^ 2 ] <= 25570.170000000002
quadratic_ranged_264_ub: [ 1 x_60_ ^ 2 - 2 x_63_ * x_60_ + 1 x_63_ ^ 2 + 1 y_60_ ^ 2 - 2 y_63_ * y_60_ + 1 y_63_ ^ 2 ] <= 16056.98
quadratic_ranged_265_ub: [ 1 x_62_ ^ 2 - 2 x_63_ * x_62_ + 1 x_63_ ^ 2 + 1 y_62_ ^ 2 - 2 y_63_ * y_62_ + 1 y_63_ ^ 2 ] <= 3338.05
quadratic_ranged_266_ub: [ 1 x_8_ ^ 2 - 2 x_64_ * x_8_ + 1 x_64_ ^ 2 + 1 y_8_ ^ 2 - 2 y_64_ * y_8_ + 1 y_64_ ^ 2 ] <= 22563.4
quadratic_ranged_267_ub: [ 1 x_17_ ^ 2 - 2 x_64_ * x_17_ + 1 x_64_ ^ 2 + 1 y_17_ ^ 2 - 2 y_64_ * y_17_ + 1 y_64_ ^ 2 ] <= 65570.21
quadratic_ranged_268_ub: [ 1 x_20_ ^ 2 - 2 x_64_ * x_20_ + 1 x_64_ ^ 2 + 1 y_20_ ^ 2 - 2 y_64_ * y_20_ + 1 y_64_ ^ 2 ] <= 9308.16
quadratic_ranged_269_ub: [ 1 x_26_ ^ 2 - 2 x_64_ * x_26_ + 1 x_64_ ^ 2 + 1 y_26_ ^ 2 - 2 y_64_ * y_26_ + 1 y_64_ ^ 2 ] <= 4937.89
quadratic_ranged_270_ub: [ 1 x_38_ ^ 2 - 2 x_64_ * x_38_ + 1 x_64_ ^ 2 + 1 y_38_ ^ 2 - 2 y_64_ * y_38_ + 1 y_64_ ^ 2 ] <= 13789.53
quadratic_ranged_271_ub: [ 1 x_63_ ^ 2 - 2 x_64_ * x_63_ + 1 x_64_ ^ 2 + 1 y_63_ ^ 2 - 2 y_64_ * y_63_ + 1 y_64_ ^ 2 ] <= 36606.44
quadratic_ranged_272_ub: [ 1 x_1_ ^ 2 - 2 x_65_ * x_1_ + 1 x_65_ ^ 2 + 1 y_1_ ^ 2 - 2 y_65_ * y_1_ + 1 y_65_ ^ 2 ] <= 2901.73
quadratic_ranged_273_ub: [ 1 x_5_ ^ 2 - 2 x_65_ * x_5_ + 1 x_65_ ^ 2 + 1 y_5_ ^ 2 - 2 y_65_ * y_5_ + 1 y_65_ ^ 2 ] <= 505
quadratic_ranged_274_ub: [ 1 x_7_ ^ 2 - 2 x_65_ * x_7_ + 1 x_65_ ^ 2 + 1 y_7_ ^ 2 - 2 y_65_ * y_7_ + 1 y_65_ ^ 2 ] <= 4703.57
quadratic_ranged_275_ub: [ 1 x_9_ ^ 2 - 2 x_65_ * x_9_ + 1 x_65_ ^ 2 + 1 y_9_ ^ 2 - 2 y_65_ * y_9_ + 1 y_65_ ^ 2 ] <= 525.2
quadratic_ranged_276_ub: [ 1 x_23_ ^ 2 - 2 x_65_ * x_23_ + 1 x_65_ ^ 2 + 1 y_23_ ^ 2 - 2 y_65_ * y_23_ + 1 y_65_ ^ 2 ] <= 3891.53
quadratic_ranged_277_ub: [ 1 x_44_ ^ 2 - 2 x_65_ * x_44_ + 1 x_65_ ^ 2 + 1 y_44_ ^ 2 - 2 y_65_ * y_44_ + 1 y_65_ ^ 2 ] <= 380.77
quadratic_ranged_278_ub: [ 1 x_47_ ^ 2 - 2 x_65_ * x_47_ + 1 x_65_ ^ 2 + 1 y_47_ ^ 2 - 2 y_65_ * y_47_ + 1 y_65_ ^ 2 ] <= 331.28000000000003
quadratic_ranged_279_ub: [ 1 x_64_ ^ 2 - 2 x_65_ * x_64_ + 1 x_65_ ^ 2 + 1 y_64_ ^ 2 - 2 y_65_ * y_64_ + 1 y_65_ ^ 2 ] <= 8440.57
quadratic_ranged_280_ub: [ 1 x_13_ ^ 2 - 2 x_66_ * x_13_ + 1 x_66_ ^ 2 + 1 y_13_ ^ 2 - 2 y_66_ * y_13_ + 1 y_66_ ^ 2 ] <= 10169.69
quadratic_ranged_281_ub: [ 1 x_14_ ^ 2 - 2 x_66_ * x_14_ + 1 x_66_ ^ 2 + 1 y_14_ ^ 2 - 2 y_66_ * y_14_ + 1 y_66_ ^ 2 ] <= 19518.25
quadratic_ranged_282_ub: [ 1 x_17_ ^ 2 - 2 x_66_ * x_17_ + 1 x_66_ ^ 2 + 1 y_17_ ^ 2 - 2 y_66_ * y_17_ + 1 y_66_ ^ 2 ] <= 22499.77
quadratic_ranged_283_ub: [ 1 x_24_ ^ 2 - 2 x_66_ * x_24_ + 1 x_66_ ^ 2 + 1 y_24_ ^ 2 - 2 y_66_ * y_24_ + 1 y_66_ ^ 2 ] <= 6354.92
quadratic_ranged_284_ub: [ 1 x_38_ ^ 2 - 2 x_66_ * x_38_ + 1 x_66_ ^ 2 + 1 y_38_ ^ 2 - 2 y_66_ * y_38_ + 1 y_66_ ^ 2 ] <= 18690.05
quadratic_ranged_285_ub: [ 1 x_40_ ^ 2 - 2 x_66_ * x_40_ + 1 x_66_ ^ 2 + 1 y_40_ ^ 2 - 2 y_66_ * y_40_ + 1 y_66_ ^ 2 ] <= 25540.88
quadratic_ranged_286_ub: [ 1 x_59_ ^ 2 - 2 x_66_ * x_59_ + 1 x_66_ ^ 2 + 1 y_59_ ^ 2 - 2 y_66_ * y_59_ + 1 y_66_ ^ 2 ] <= 10181.81
quadratic_ranged_287_ub: [ 1 x_65_ ^ 2 - 2 x_66_ * x_65_ + 1 x_66_ ^ 2 + 1 y_65_ ^ 2 - 2 y_66_ * y_65_ + 1 y_66_ ^ 2 ] <= 8089.09
quadratic_ranged_288_ub: [ 1 x_1_ ^ 2 - 2 x_67_ * x_1_ + 1 x_67_ ^ 2 + 1 y_1_ ^ 2 - 2 y_67_ * y_1_ + 1 y_67_ ^ 2 ] <= 14040.01
quadratic_ranged_289_ub: [ 1 x_20_ ^ 2 - 2 x_67_ * x_20_ + 1 x_67_ ^ 2 + 1 y_20_ ^ 2 - 2 y_67_ * y_20_ + 1 y_67_ ^ 2 ] <= 7563.89
quadratic_ranged_290_ub: [ 1 x_23_ ^ 2 - 2 x_67_ * x_23_ + 1 x_67_ ^ 2 + 1 y_23_ ^ 2 - 2 y_67_ * y_23_ + 1 y_67_ ^ 2 ] <= 15882.25
quadratic_ranged_291_ub: [ 1 x_29_ ^ 2 - 2 x_67_ * x_29_ + 1 x_67_ ^ 2 + 1 y_29_ ^ 2 - 2 y_67_ * y_29_ + 1 y_67_ ^ 2 ] <= 17543.7
quadratic_ranged_292_ub: [ 1 x_34_ ^ 2 - 2 x_67_ * x_34_ + 1 x_67_ ^ 2 + 1 y_34_ ^ 2 - 2 y_67_ * y_34_ + 1 y_67_ ^ 2 ] <= 4009.7
quadratic_ranged_293_ub: [ 1 x_51_ ^ 2 - 2 x_67_ * x_51_ + 1 x_67_ ^ 2 + 1 y_51_ ^ 2 - 2 y_67_ * y_51_ + 1 y_67_ ^ 2 ] <= 22992.65
quadratic_ranged_294_ub: [ 1 x_66_ ^ 2 - 2 x_67_ * x_66_ + 1 x_67_ ^ 2 + 1 y_66_ ^ 2 - 2 y_67_ * y_66_ + 1 y_67_ ^ 2 ] <= 22350.29
quadratic_ranged_295_ub: [ 1 x_1_ ^ 2 - 2 x_68_ * x_1_ + 1 x_68_ ^ 2 + 1 y_1_ ^ 2 - 2 y_68_ * y_1_ + 1 y_68_ ^ 2 ] <= 23057.29
quadratic_ranged_296_ub: [ 1 x_14_ ^ 2 - 2 x_68_ * x_14_ + 1 x_68_ ^ 2 + 1 y_14_ ^ 2 - 2 y_68_ * y_14_ + 1 y_68_ ^ 2 ] <= 25114.66
quadratic_ranged_297_ub: [ 1 x_36_ ^ 2 - 2 x_68_ * x_36_ + 1 x_68_ ^ 2 + 1 y_36_ ^ 2 - 2 y_68_ * y_36_ + 1 y_68_ ^ 2 ] <= 16597.33
quadratic_ranged_298_ub: [ 1 x_42_ ^ 2 - 2 x_68_ * x_42_ + 1 x_68_ ^ 2 + 1 y_42_ ^ 2 - 2 y_68_ * y_42_ + 1 y_68_ ^ 2 ] <= 24151.12
quadratic_ranged_299_ub: [ 1 x_67_ ^ 2 - 2 x_68_ * x_67_ + 1 x_68_ ^ 2 + 1 y_67_ ^ 2 - 2 y_68_ * y_67_ + 1 y_68_ ^ 2 ] <= 10942.34
quadratic_ranged_300_ub: [ 1 x_10_ ^ 2 - 2 x_69_ * x_10_ + 1 x_69_ ^ 2 + 1 y_10_ ^ 2 - 2 y_69_ * y_10_ + 1 y_69_ ^ 2 ] <= 28193.14
quadratic_ranged_301_ub: [ 1 x_33_ ^ 2 - 2 x_69_ * x_33_ + 1 x_69_ ^ 2 + 1 y_33_ ^ 2 - 2 y_69_ * y_33_ + 1 y_69_ ^ 2 ] <= 20274.74
quadratic_ranged_302_ub: [ 1 x_42_ ^ 2 - 2 x_69_ * x_42_ + 1 x_69_ ^ 2 + 1 y_42_ ^ 2 - 2 y_69_ * y_42_ + 1 y_69_ ^ 2 ] <= 15644.9
quadratic_ranged_303_ub: [ 1 x_43_ ^ 2 - 2 x_69_ * x_43_ + 1 x_69_ ^ 2 + 1 y_43_ ^ 2 - 2 y_69_ * y_43_ + 1 y_69_ ^ 2 ] <= 19663.69
quadratic_ranged_304_ub: [ 1 x_49_ ^ 2 - 2 x_69_ * x_49_ + 1 x_69_ ^ 2 + 1 y_49_ ^ 2 - 2 y_69_ * y_49_ + 1 y_69_ ^ 2 ] <= 27407.36
quadratic_ranged_305_ub: [ 1 x_68_ ^ 2 - 2 x_69_ * x_68_ + 1 x_69_ ^ 2 + 1 y_68_ ^ 2 - 2 y_69_ * y_68_ + 1 y_69_ ^ 2 ] <= 49184.98
quadratic_ranged_306_ub: [ 1 x_14_ ^ 2 - 2 x_70_ * x_14_ + 1 x_70_ ^ 2 + 1 y_14_ ^ 2 - 2 y_70_ * y_14_ + 1 y_70_ ^ 2 ] <= 31667.54
quadratic_ranged_307_ub: [ 1 x_20_ ^ 2 - 2 x_70_ * x_20_ + 1 x_70_ ^ 2 + 1 y_20_ ^ 2 - 2 y_70_ * y_20_ + 1 y_70_ ^ 2 ] <= 30305.05
quadratic_ranged_308_ub: [ 1 x_25_ ^ 2 - 2 x_70_ * x_25_ + 1 x_70_ ^ 2 + 1 y_25_ ^ 2 - 2 y_70_ * y_25_ + 1 y_70_ ^ 2 ] <= 20811.05
quadratic_ranged_309_ub: [ 1 x_30_ ^ 2 - 2 x_70_ * x_30_ + 1 x_70_ ^ 2 + 1 y_30_ ^ 2 - 2 y_70_ * y_30_ + 1 y_70_ ^ 2 ] <= 2541.16
quadratic_ranged_310_ub: [ 1 x_49_ ^ 2 - 2 x_70_ * x_49_ + 1 x_70_ ^ 2 + 1 y_49_ ^ 2 - 2 y_70_ * y_49_ + 1 y_70_ ^ 2 ] <= 5035.86
quadratic_ranged_311_ub: [ 1 x_54_ ^ 2 - 2 x_70_ * x_54_ + 1 x_70_ ^ 2 + 1 y_54_ ^ 2 - 2 y_70_ * y_54_ + 1 y_70_ ^ 2 ] <= 8739.53
quadratic_ranged_312_ub: [ 1 x_57_ ^ 2 - 2 x_70_ * x_57_ + 1 x_70_ ^ 2 + 1 y_57_ ^ 2 - 2 y_70_ * y_57_ + 1 y_70_ ^ 2 ] <= 16884.170000000002
quadratic_ranged_313_ub: [ 1 x_69_ ^ 2 - 2 x_70_ * x_69_ + 1 x_70_ ^ 2 + 1 y_69_ ^ 2 - 2 y_70_ * y_69_ + 1 y_70_ ^ 2 ] <= 47956.82
quadratic_ranged_314_ub: [ 1 x_3_ ^ 2 - 2 x_71_ * x_3_ + 1 x_71_ ^ 2 + 1 y_3_ ^ 2 - 2 y_71_ * y_3_ + 1 y_71_ ^ 2 ] <= 4412.69
quadratic_ranged_315_ub: [ 1 x_5_ ^ 2 - 2 x_71_ * x_5_ + 1 x_71_ ^ 2 + 1 y_5_ ^ 2 - 2 y_71_ * y_5_ + 1 y_71_ ^ 2 ] <= 2247.25
quadratic_ranged_316_ub: [ 1 x_49_ ^ 2 - 2 x_71_ * x_49_ + 1 x_71_ ^ 2 + 1 y_49_ ^ 2 - 2 y_71_ * y_49_ + 1 y_71_ ^ 2 ] <= 11607.93
quadratic_ranged_317_ub: [ 1 x_52_ ^ 2 - 2 x_71_ * x_52_ + 1 x_71_ ^ 2 + 1 y_52_ ^ 2 - 2 y_71_ * y_52_ + 1 y_71_ ^ 2 ] <= 8933.45
quadratic_ranged_318_ub: [ 1 x_59_ ^ 2 - 2 x_71_ * x_59_ + 1 x_71_ ^ 2 + 1 y_59_ ^ 2 - 2 y_71_ * y_59_ + 1 y_71_ ^ 2 ] <= 4085.45
quadratic_ranged_319_ub: [ 1 x_70_ ^ 2 - 2 x_71_ * x_70_ + 1 x_71_ ^ 2 + 1 y_70_ ^ 2 - 2 y_71_ * y_70_ + 1 y_71_ ^ 2 ] <= 24333.93
quadratic_ranged_320_ub: [ 1 x_6_ ^ 2 - 2 x_72_ * x_6_ + 1 x_72_ ^ 2 + 1 y_6_ ^ 2 - 2 y_72_ * y_6_ + 1 y_72_ ^ 2 ] <= 8025.46
quadratic_ranged_321_ub: [ 1 x_21_ ^ 2 - 2 x_72_ * x_21_ + 1 x_72_ ^ 2 + 1 y_21_ ^ 2 - 2 y_72_ * y_21_ + 1 y_72_ ^ 2 ] <= 20124.25
quadratic_ranged_322_ub: [ 1 x_24_ ^ 2 - 2 x_72_ * x_24_ + 1 x_72_ ^ 2 + 1 y_24_ ^ 2 - 2 y_72_ * y_24_ + 1 y_72_ ^ 2 ] <= 6719.53
quadratic_ranged_323_ub: [ 1 x_28_ ^ 2 - 2 x_72_ * x_28_ + 1 x_72_ ^ 2 + 1 y_28_ ^ 2 - 2 y_72_ * y_28_ + 1 y_72_ ^ 2 ] <= 4025.86
quadratic_ranged_324_ub: [ 1 x_31_ ^ 2 - 2 x_72_ * x_31_ + 1 x_72_ ^ 2 + 1 y_31_ ^ 2 - 2 y_72_ * y_31_ + 1 y_72_ ^ 2 ] <= 1618.02
quadratic_ranged_325_ub: [ 1 x_58_ ^ 2 - 2 x_72_ * x_58_ + 1 x_72_ ^ 2 + 1 y_58_ ^ 2 - 2 y_72_ * y_58_ + 1 y_72_ ^ 2 ] <= 4764.17
quadratic_ranged_326_ub: [ 1 x_68_ ^ 2 - 2 x_72_ * x_68_ + 1 x_72_ ^ 2 + 1 y_68_ ^ 2 - 2 y_72_ * y_68_ + 1 y_72_ ^ 2 ] <= 3282.5
quadratic_ranged_327_ub: [ 1 x_71_ ^ 2 - 2 x_72_ * x_71_ + 1 x_72_ ^ 2 + 1 y_71_ ^ 2 - 2 y_72_ * y_71_ + 1 y_72_ ^ 2 ] <= 14116.77
quadratic_ranged_328_ub: [ 1 x_5_ ^ 2 - 2 x_73_ * x_5_ + 1 x_73_ ^ 2 + 1 y_5_ ^ 2 - 2 y_73_ * y_5_ + 1 y_73_ ^ 2 ] <= 4108.68
quadratic_ranged_329_ub: [ 1 x_8_ ^ 2 - 2 x_73_ * x_8_ + 1 x_73_ ^ 2 + 1 y_8_ ^ 2 - 2 y_73_ * y_8_ + 1 y_73_ ^ 2 ] <= 28761.77
quadratic_ranged_330_ub: [ 1 x_11_ ^ 2 - 2 x_73_ * x_11_ + 1 x_73_ ^ 2 + 1 y_11_ ^ 2 - 2 y_73_ * y_11_ + 1 y_73_ ^ 2 ] <= 4756.09
quadratic_ranged_331_ub: [ 1 x_17_ ^ 2 - 2 x_73_ * x_17_ + 1 x_73_ ^ 2 + 1 y_17_ ^ 2 - 2 y_73_ * y_17_ + 1 y_73_ ^ 2 ] <= 37592.2
quadratic_ranged_332_ub: [ 1 x_30_ ^ 2 - 2 x_73_ * x_30_ + 1 x_73_ ^ 2 + 1 y_30_ ^ 2 - 2 y_73_ * y_30_ + 1 y_73_ ^ 2 ] <= 33103.76
quadratic_ranged_333_ub: [ 1 x_35_ ^ 2 - 2 x_73_ * x_35_ + 1 x_73_ ^ 2 + 1 y_35_ ^ 2 - 2 y_73_ * y_35_ + 1 y_73_ ^ 2 ] <= 1532.17
quadratic_ranged_334_ub: [ 1 x_46_ ^ 2 - 2 x_73_ * x_46_ + 1 x_73_ ^ 2 + 1 y_46_ ^ 2 - 2 y_73_ * y_46_ + 1 y_73_ ^ 2 ] <= 1358.45
quadratic_ranged_335_ub: [ 1 x_49_ ^ 2 - 2 x_73_ * x_49_ + 1 x_73_ ^ 2 + 1 y_49_ ^ 2 - 2 y_73_ * y_49_ + 1 y_73_ ^ 2 ] <= 27562.9
quadratic_ranged_336_ub: [ 1 x_72_ ^ 2 - 2 x_73_ * x_72_ + 1 x_73_ ^ 2 + 1 y_72_ ^ 2 - 2 y_73_ * y_72_ + 1 y_73_ ^ 2 ] <= 29647.54
quadratic_ranged_337_ub: [ 1 x_19_ ^ 2 - 2 x_74_ * x_19_ + 1 x_74_ ^ 2 + 1 y_19_ ^ 2 - 2 y_74_ * y_19_ + 1 y_74_ ^ 2 ] <= 33516.85
quadratic_ranged_338_ub: [ 1 x_37_ ^ 2 - 2 x_74_ * x_37_ + 1 x_74_ ^ 2 + 1 y_37_ ^ 2 - 2 y_74_ * y_37_ + 1 y_74_ ^ 2 ] <= 34547.05
quadratic_ranged_339_ub: [ 1 x_38_ ^ 2 - 2 x_74_ * x_38_ + 1 x_74_ ^ 2 + 1 y_38_ ^ 2 - 2 y_74_ * y_38_ + 1 y_74_ ^ 2 ] <= 5063.13
quadratic_ranged_340_ub: [ 1 x_43_ ^ 2 - 2 x_74_ * x_43_ + 1 x_74_ ^ 2 + 1 y_43_ ^ 2 - 2 y_74_ * y_43_ + 1 y_74_ ^ 2 ] <= 1407.94
quadratic_ranged_341_ub: [ 1 x_69_ ^ 2 - 2 x_74_ * x_69_ + 1 x_74_ ^ 2 + 1 y_69_ ^ 2 - 2 y_74_ * y_69_ + 1 y_74_ ^ 2 ] <= 31537.25
quadratic_ranged_342_ub: [ 1 x_70_ ^ 2 - 2 x_74_ * x_70_ + 1 x_74_ ^ 2 + 1 y_70_ ^ 2 - 2 y_74_ * y_70_ + 1 y_74_ ^ 2 ] <= 5531.77
quadratic_ranged_343_ub: [ 1 x_72_ ^ 2 - 2 x_74_ * x_72_ + 1 x_74_ ^ 2 + 1 y_72_ ^ 2 - 2 y_74_ * y_72_ + 1 y_74_ ^ 2 ] <= 2186.65
quadratic_ranged_344_ub: [ 1 x_73_ ^ 2 - 2 x_74_ * x_73_ + 1 x_74_ ^ 2 + 1 y_73_ ^ 2 - 2 y_74_ * y_73_ + 1 y_74_ ^ 2 ] <= 32676.53
quadratic_ranged_345_ub: [ 1 x_15_ ^ 2 - 2 x_75_ * x_15_ + 1 x_75_ ^ 2 + 1 y_15_ ^ 2 - 2 y_75_ * y_15_ + 1 y_75_ ^ 2 ] <= 12679.54
quadratic_ranged_346_ub: [ 1 x_26_ ^ 2 - 2 x_75_ * x_26_ + 1 x_75_ ^ 2 + 1 y_26_ ^ 2 - 2 y_75_ * y_26_ + 1 y_75_ ^ 2 ] <= 3543.08
quadratic_ranged_347_ub: [ 1 x_46_ ^ 2 - 2 x_75_ * x_46_ + 1 x_75_ ^ 2 + 1 y_46_ ^ 2 - 2 y_75_ * y_46_ + 1 y_75_ ^ 2 ] <= 1419.05
quadratic_ranged_348_ub: [ 1 x_66_ ^ 2 - 2 x_75_ * x_66_ + 1 x_75_ ^ 2 + 1 y_66_ ^ 2 - 2 y_75_ * y_66_ + 1 y_75_ ^ 2 ] <= 2218.97
quadratic_ranged_349_ub: [ 1 x_74_ ^ 2 - 2 x_75_ * x_74_ + 1 x_75_ ^ 2 + 1 y_74_ ^ 2 - 2 y_75_ * y_74_ + 1 y_75_ ^ 2 ] <= 28850.65
quadratic_ranged_350_ub: [ 1 x_15_ ^ 2 - 2 x_76_ * x_15_ + 1 x_76_ ^ 2 + 1 y_15_ ^ 2 - 2 y_76_ * y_15_ + 1 y_76_ ^ 2 ] <= 1532.17
quadratic_ranged_351_ub: [ 1 x_22_ ^ 2 - 2 x_76_ * x_22_ + 1 x_76_ ^ 2 + 1 y_22_ ^ 2 - 2 y_76_ * y_22_ + 1 y_76_ ^ 2 ] <= 15650.960000000001
quadratic_ranged_352_ub: [ 1 x_26_ ^ 2 - 2 x_76_ * x_26_ + 1 x_76_ ^ 2 + 1 y_26_ ^ 2 - 2 y_76_ * y_26_ + 1 y_76_ ^ 2 ] <= 6509.45
quadratic_ranged_353_ub: [ 1 x_36_ ^ 2 - 2 x_76_ * x_36_ + 1 x_76_ ^ 2 + 1 y_36_ ^ 2 - 2 y_76_ * y_36_ + 1 y_76_ ^ 2 ] <= 8669.84
quadratic_ranged_354_ub: [ 1 x_53_ ^ 2 - 2 x_76_ * x_53_ + 1 x_76_ ^ 2 + 1 y_53_ ^ 2 - 2 y_76_ * y_53_ + 1 y_76_ ^ 2 ] <= 8972.84
quadratic_ranged_355_ub: [ 1 x_57_ ^ 2 - 2 x_76_ * x_57_ + 1 x_76_ ^ 2 + 1 y_57_ ^ 2 - 2 y_76_ * y_57_ + 1 y_76_ ^ 2 ] <= 1717
quadratic_ranged_356_ub: [ 1 x_75_ ^ 2 - 2 x_76_ * x_75_ + 1 x_76_ ^ 2 + 1 y_75_ ^ 2 - 2 y_76_ * y_75_ + 1 y_76_ ^ 2 ] <= 5935.77
quadratic_ranged_357_ub: [ 1 x_10_ ^ 2 - 2 x_77_ * x_10_ + 1 x_77_ ^ 2 + 1 y_10_ ^ 2 - 2 y_77_ * y_10_ + 1 y_77_ ^ 2 ] <= 535.3
quadratic_ranged_358_ub: [ 1 x_14_ ^ 2 - 2 x_77_ * x_14_ + 1 x_77_ ^ 2 + 1 y_14_ ^ 2 - 2 y_77_ * y_14_ + 1 y_77_ ^ 2 ] <= 6936.68
quadratic_ranged_359_ub: [ 1 x_22_ ^ 2 - 2 x_77_ * x_22_ + 1 x_77_ ^ 2 + 1 y_22_ ^ 2 - 2 y_77_ * y_22_ + 1 y_77_ ^ 2 ] <= 8763.77
quadratic_ranged_360_ub: [ 1 x_25_ ^ 2 - 2 x_77_ * x_25_ + 1 x_77_ ^ 2 + 1 y_25_ ^ 2 - 2 y_77_ * y_25_ + 1 y_77_ ^ 2 ] <= 21312.01
quadratic_ranged_361_ub: [ 1 x_29_ ^ 2 - 2 x_77_ * x_29_ + 1 x_77_ ^ 2 + 1 y_29_ ^ 2 - 2 y_77_ * y_29_ + 1 y_77_ ^ 2 ] <= 13996.58
quadratic_ranged_362_ub: [ 1 x_37_ ^ 2 - 2 x_77_ * x_37_ + 1 x_77_ ^ 2 + 1 y_37_ ^ 2 - 2 y_77_ * y_37_ + 1 y_77_ ^ 2 ] <= 7661.86
quadratic_ranged_363_ub: [ 1 x_44_ ^ 2 - 2 x_77_ * x_44_ + 1 x_77_ ^ 2 + 1 y_44_ ^ 2 - 2 y_77_ * y_44_ + 1 y_77_ ^ 2 ] <= 2328.05
quadratic_ranged_364_ub: [ 1 x_49_ ^ 2 - 2 x_77_ * x_49_ + 1 x_77_ ^ 2 + 1 y_49_ ^ 2 - 2 y_77_ * y_49_ + 1 y_77_ ^ 2 ] <= 9195.04
quadratic_ranged_365_ub: [ 1 x_52_ ^ 2 - 2 x_77_ * x_52_ + 1 x_77_ ^ 2 + 1 y_52_ ^ 2 - 2 y_77_ * y_52_ + 1 y_77_ ^ 2 ] <= 13057.28
quadratic_ranged_366_ub: [ 1 x_55_ ^ 2 - 2 x_77_ * x_55_ + 1 x_77_ ^ 2 + 1 y_55_ ^ 2 - 2 y_77_ * y_55_ + 1 y_77_ ^ 2 ] <= 15579.25
quadratic_ranged_367_ub: [ 1 x_65_ ^ 2 - 2 x_77_ * x_65_ + 1 x_77_ ^ 2 + 1 y_65_ ^ 2 - 2 y_77_ * y_65_ + 1 y_77_ ^ 2 ] <= 1674.58
quadratic_ranged_368_ub: [ 1 x_76_ ^ 2 - 2 x_77_ * x_76_ + 1 x_77_ ^ 2 + 1 y_76_ ^ 2 - 2 y_77_ * y_76_ + 1 y_77_ ^ 2 ] <= 1980.6100000000001
quadratic_ranged_369_ub: [ 1 x_1_ ^ 2 - 2 x_78_ * x_1_ + 1 x_78_ ^ 2 + 1 y_1_ ^ 2 - 2 y_78_ * y_1_ + 1 y_78_ ^ 2 ] <= 2256.34
quadratic_ranged_370_ub: [ 1 x_12_ ^ 2 - 2 x_78_ * x_12_ + 1 x_78_ ^ 2 + 1 y_12_ ^ 2 - 2 y_78_ * y_12_ + 1 y_78_ ^ 2 ] <= 13300.69
quadratic_ranged_371_ub: [ 1 x_26_ ^ 2 - 2 x_78_ * x_26_ + 1 x_78_ ^ 2 + 1 y_26_ ^ 2 - 2 y_78_ * y_26_ + 1 y_78_ ^ 2 ] <= 5842.85
quadratic_ranged_372_ub: [ 1 x_35_ ^ 2 - 2 x_78_ * x_35_ + 1 x_78_ ^ 2 + 1 y_35_ ^ 2 - 2 y_78_ * y_35_ + 1 y_78_ ^ 2 ] <= 597.92
quadratic_ranged_373_ub: [ 1 x_47_ ^ 2 - 2 x_78_ * x_47_ + 1 x_78_ ^ 2 + 1 y_47_ ^ 2 - 2 y_78_ * y_47_ + 1 y_78_ ^ 2 ] <= 3313.81
quadratic_ranged_374_ub: [ 1 x_50_ ^ 2 - 2 x_78_ * x_50_ + 1 x_78_ ^ 2 + 1 y_50_ ^ 2 - 2 y_78_ * y_50_ + 1 y_78_ ^ 2 ] <= 11462.49
quadratic_ranged_375_ub: [ 1 x_51_ ^ 2 - 2 x_78_ * x_51_ + 1 x_78_ ^ 2 + 1 y_51_ ^ 2 - 2 y_78_ * y_51_ + 1 y_78_ ^ 2 ] <= 10960.52
quadratic_ranged_376_ub: [ 1 x_58_ ^ 2 - 2 x_78_ * x_58_ + 1 x_78_ ^ 2 + 1 y_58_ ^ 2 - 2 y_78_ * y_58_ + 1 y_78_ ^ 2 ] <= 6565
quadratic_ranged_377_ub: [ 1 x_77_ ^ 2 - 2 x_78_ * x_77_ + 1 x_78_ ^ 2 + 1 y_77_ ^ 2 - 2 y_78_ * y_77_ + 1 y_78_ ^ 2 ] <= 11551.37
quadratic_ranged_378_ub: [ 1 x_19_ ^ 2 - 2 x_79_ * x_19_ + 1 x_79_ ^ 2 + 1 y_19_ ^ 2 - 2 y_79_ * y_19_ + 1 y_79_ ^ 2 ] <= 18908.21
quadratic_ranged_379_ub: [ 1 x_28_ ^ 2 - 2 x_79_ * x_28_ + 1 x_79_ ^ 2 + 1 y_28_ ^ 2 - 2 y_79_ * y_28_ + 1 y_79_ ^ 2 ] <= 16952.85
quadratic_ranged_380_ub: [ 1 x_40_ ^ 2 - 2 x_79_ * x_40_ + 1 x_79_ ^ 2 + 1 y_40_ ^ 2 - 2 y_79_ * y_40_ + 1 y_79_ ^ 2 ] <= 24959.12
quadratic_ranged_381_ub: [ 1 x_45_ ^ 2 - 2 x_79_ * x_45_ + 1 x_79_ ^ 2 + 1 y_45_ ^ 2 - 2 y_79_ * y_45_ + 1 y_79_ ^ 2 ] <= 6633.68
quadratic_ranged_382_ub: [ 1 x_68_ ^ 2 - 2 x_79_ * x_68_ + 1 x_79_ ^ 2 + 1 y_68_ ^ 2 - 2 y_79_ * y_68_ + 1 y_79_ ^ 2 ] <= 19114.25
quadratic_ranged_383_ub: [ 1 x_74_ ^ 2 - 2 x_79_ * x_74_ + 1 x_79_ ^ 2 + 1 y_74_ ^ 2 - 2 y_79_ * y_74_ + 1 y_79_ ^ 2 ] <= 5367.14
quadratic_ranged_384_ub: [ 1 x_78_ ^ 2 - 2 x_79_ * x_78_ + 1 x_79_ ^ 2 + 1 y_78_ ^ 2 - 2 y_79_ * y_78_ + 1 y_79_ ^ 2 ] <= 6807.4
quadratic_ranged_385_ub: [ 1 x_2_ ^ 2 - 2 x_80_ * x_2_ + 1 x_80_ ^ 2 + 1 y_2_ ^ 2 - 2 y_80_ * y_2_ + 1 y_80_ ^ 2 ] <= 28834.49
quadratic_ranged_386_ub: [ 1 x_12_ ^ 2 - 2 x_80_ * x_12_ + 1 x_80_ ^ 2 + 1 y_12_ ^ 2 - 2 y_80_ * y_12_ + 1 y_80_ ^ 2 ] <= 2441.17
quadratic_ranged_387_ub: [ 1 x_36_ ^ 2 - 2 x_80_ * x_36_ + 1 x_80_ ^ 2 + 1 y_36_ ^ 2 - 2 y_80_ * y_36_ + 1 y_80_ ^ 2 ] <= 4559.14
quadratic_ranged_388_ub: [ 1 x_37_ ^ 2 - 2 x_80_ * x_37_ + 1 x_80_ ^ 2 + 1 y_37_ ^ 2 - 2 y_80_ * y_37_ + 1 y_80_ ^ 2 ] <= 316.13
quadratic_ranged_389_ub: [ 1 x_41_ ^ 2 - 2 x_80_ * x_41_ + 1 x_80_ ^ 2 + 1 y_41_ ^ 2 - 2 y_80_ * y_41_ + 1 y_80_ ^ 2 ] <= 13034.05
quadratic_ranged_390_ub: [ 1 x_42_ ^ 2 - 2 x_80_ * x_42_ + 1 x_80_ ^ 2 + 1 y_42_ ^ 2 - 2 y_80_ * y_42_ + 1 y_80_ ^ 2 ] <= 24123.85
quadratic_ranged_391_ub: [ 1 x_44_ ^ 2 - 2 x_80_ * x_44_ + 1 x_80_ ^ 2 + 1 y_44_ ^ 2 - 2 y_80_ * y_44_ + 1 y_80_ ^ 2 ] <= 5383.3
quadratic_ranged_392_ub: [ 1 x_59_ ^ 2 - 2 x_80_ * x_59_ + 1 x_80_ ^ 2 + 1 y_59_ ^ 2 - 2 y_80_ * y_59_ + 1 y_80_ ^ 2 ] <= 13753.17
quadratic_ranged_393_ub: [ 1 x_63_ ^ 2 - 2 x_80_ * x_63_ + 1 x_80_ ^ 2 + 1 y_63_ ^ 2 - 2 y_80_ * y_63_ + 1 y_80_ ^ 2 ] <= 20000.02
quadratic_ranged_394_ub: [ 1 x_64_ ^ 2 - 2 x_80_ * x_64_ + 1 x_80_ ^ 2 + 1 y_64_ ^ 2 - 2 y_80_ * y_64_ + 1 y_80_ ^ 2 ] <= 5464.1
quadratic_ranged_395_ub: [ 1 x_67_ ^ 2 - 2 x_80_ * x_67_ + 1 x_80_ ^ 2 + 1 y_67_ ^ 2 - 2 y_80_ * y_67_ + 1 y_80_ ^ 2 ] <= 5063.13
quadratic_ranged_396_ub: [ 1 x_69_ ^ 2 - 2 x_80_ * x_69_ + 1 x_80_ ^ 2 + 1 y_69_ ^ 2 - 2 y_80_ * y_69_ + 1 y_80_ ^ 2 ] <= 10367.65
quadratic_ranged_397_ub: [ 1 x_74_ ^ 2 - 2 x_80_ * x_74_ + 1 x_80_ ^ 2 + 1 y_74_ ^ 2 - 2 y_80_ * y_74_ + 1 y_80_ ^ 2 ] <= 29189
quadratic_ranged_398_ub: [ 1 x_75_ ^ 2 - 2 x_80_ * x_75_ + 1 x_80_ ^ 2 + 1 y_75_ ^ 2 - 2 y_80_ * y_75_ + 1 y_80_ ^ 2 ] <= 2732.05
quadratic_ranged_399_ub: [ 1 x_79_ ^ 2 - 2 x_80_ * x_79_ + 1 x_80_ ^ 2 + 1 y_79_ ^ 2 - 2 y_80_ * y_79_ + 1 y_80_ ^ 2 ] <= 14230.9
quadratic_ranged_400_ub: [ 1 x_18_ ^ 2 - 2 x_81_ * x_18_ + 1 x_81_ ^ 2 + 1 y_18_ ^ 2 - 2 y_81_ * y_18_ + 1 y_81_ ^ 2 ] <= 17211.41
quadratic_ranged_401_ub: [ 1 x_32_ ^ 2 - 2 x_81_ * x_32_ + 1 x_81_ ^ 2 + 1 y_32_ ^ 2 - 2 y_81_ * y_32_ + 1 y_81_ ^ 2 ] <= 535.3
quadratic_ranged_402_ub: [ 1 x_36_ ^ 2 - 2 x_81_ * x_36_ + 1 x_81_ ^ 2 + 1 y_36_ ^ 2 - 2 y_81_ * y_36_ + 1 y_81_ ^ 2 ] <= 1588.73
quadratic_ranged_403_ub: [ 1 x_48_ ^ 2 - 2 x_81_ * x_48_ + 1 x_81_ ^ 2 + 1 y_48_ ^ 2 - 2 y_81_ * y_48_ + 1 y_81_ ^ 2 ] <= 2482.58
quadratic_ranged_404_ub: [ 1 x_52_ ^ 2 - 2 x_81_ * x_52_ + 1 x_81_ ^ 2 + 1 y_52_ ^ 2 - 2 y_81_ * y_52_ + 1 y_81_ ^ 2 ] <= 19024.36
quadratic_ranged_405_ub: [ 1 x_62_ ^ 2 - 2 x_81_ * x_62_ + 1 x_81_ ^ 2 + 1 y_62_ ^ 2 - 2 y_81_ * y_62_ + 1 y_81_ ^ 2 ] <= 17129.6
quadratic_ranged_406_ub: [ 1 x_63_ ^ 2 - 2 x_81_ * x_63_ + 1 x_81_ ^ 2 + 1 y_63_ ^ 2 - 2 y_81_ * y_63_ + 1 y_81_ ^ 2 ] <= 21114.05
quadratic_ranged_407_ub: [ 1 x_67_ ^ 2 - 2 x_81_ * x_67_ + 1 x_81_ ^ 2 + 1 y_67_ ^ 2 - 2 y_81_ * y_67_ + 1 y_81_ ^ 2 ] <= 262.6
quadratic_ranged_408_ub: [ 1 x_71_ ^ 2 - 2 x_81_ * x_71_ + 1 x_81_ ^ 2 + 1 y_71_ ^ 2 - 2 y_81_ * y_71_ + 1 y_81_ ^ 2 ] <= 9503.09
quadratic_ranged_409_ub: [ 1 x_75_ ^ 2 - 2 x_81_ * x_75_ + 1 x_81_ ^ 2 + 1 y_75_ ^ 2 - 2 y_81_ * y_75_ + 1 y_81_ ^ 2 ] <= 11540.26
quadratic_ranged_410_ub: [ 1 x_80_ ^ 2 - 2 x_81_ * x_80_ + 1 x_81_ ^ 2 + 1 y_80_ ^ 2 - 2 y_81_ * y_80_ + 1 y_81_ ^ 2 ] <= 4392.49
quadratic_ranged_411_ub: [ 1 x_33_ ^ 2 - 2 x_82_ * x_33_ + 1 x_82_ ^ 2 + 1 y_33_ ^ 2 - 2 y_82_ * y_33_ + 1 y_82_ ^ 2 ] <= 425.21
quadratic_ranged_412_ub: [ 1 x_51_ ^ 2 - 2 x_82_ * x_51_ + 1 x_82_ ^ 2 + 1 y_51_ ^ 2 - 2 y_82_ * y_51_ + 1 y_82_ ^ 2 ] <= 16000.42
quadratic_ranged_413_ub: [ 1 x_53_ ^ 2 - 2 x_82_ * x_53_ + 1 x_82_ ^ 2 + 1 y_53_ ^ 2 - 2 y_82_ * y_53_ + 1 y_82_ ^ 2 ] <= 14812.66
quadratic_ranged_414_ub: [ 1 x_58_ ^ 2 - 2 x_82_ * x_58_ + 1 x_82_ ^ 2 + 1 y_58_ ^ 2 - 2 y_82_ * y_58_ + 1 y_82_ ^ 2 ] <= 6142.82
quadratic_ranged_415_ub: [ 1 x_61_ ^ 2 - 2 x_82_ * x_61_ + 1 x_82_ ^ 2 + 1 y_61_ ^ 2 - 2 y_82_ * y_61_ + 1 y_82_ ^ 2 ] <= 15499.460000000001
quadratic_ranged_416_ub: [ 1 x_63_ ^ 2 - 2 x_82_ * x_63_ + 1 x_82_ ^ 2 + 1 y_63_ ^ 2 - 2 y_82_ * y_63_ + 1 y_82_ ^ 2 ] <= 17382.1
quadratic_ranged_417_ub: [ 1 x_67_ ^ 2 - 2 x_82_ * x_67_ + 1 x_82_ ^ 2 + 1 y_67_ ^ 2 - 2 y_82_ * y_67_ + 1 y_82_ ^ 2 ] <= 1419.05
quadratic_ranged_418_ub: [ 1 x_80_ ^ 2 - 2 x_82_ * x_80_ + 1 x_82_ ^ 2 + 1 y_80_ ^ 2 - 2 y_82_ * y_80_ + 1 y_82_ ^ 2 ] <= 1712.96
quadratic_ranged_419_ub: [ 1 x_81_ ^ 2 - 2 x_82_ * x_81_ + 1 x_82_ ^ 2 + 1 y_81_ ^ 2 - 2 y_82_ * y_81_ + 1 y_82_ ^ 2 ] <= 732.25
quadratic_ranged_420_ub: [ 1 x_48_ ^ 2 - 2 x_83_ * x_48_ + 1 x_83_ ^ 2 + 1 y_48_ ^ 2 - 2 y_83_ * y_48_ + 1 y_83_ ^ 2 ] <= 8994.05
quadratic_ranged_421_ub: [ 1 x_50_ ^ 2 - 2 x_83_ * x_50_ + 1 x_83_ ^ 2 + 1 y_50_ ^ 2 - 2 y_83_ * y_50_ + 1 y_83_ ^ 2 ] <= 15817.61
quadratic_ranged_422_ub: [ 1 x_52_ ^ 2 - 2 x_83_ * x_52_ + 1 x_83_ ^ 2 + 1 y_52_ ^ 2 - 2 y_83_ * y_52_ + 1 y_83_ ^ 2 ] <= 21562.49
quadratic_ranged_423_ub: [ 1 x_53_ ^ 2 - 2 x_83_ * x_53_ + 1 x_83_ ^ 2 + 1 y_53_ ^ 2 - 2 y_83_ * y_53_ + 1 y_83_ ^ 2 ] <= 35087.4
quadratic_ranged_424_ub: [ 1 x_55_ ^ 2 - 2 x_83_ * x_55_ + 1 x_83_ ^ 2 + 1 y_55_ ^ 2 - 2 y_83_ * y_55_ + 1 y_83_ ^ 2 ] <= 23563.3
quadratic_ranged_425_ub: [ 1 x_61_ ^ 2 - 2 x_83_ * x_61_ + 1 x_83_ ^ 2 + 1 y_61_ ^ 2 - 2 y_83_ * y_61_ + 1 y_83_ ^ 2 ] <= 24260.2
quadratic_ranged_426_ub: [ 1 x_79_ ^ 2 - 2 x_83_ * x_79_ + 1 x_83_ ^ 2 + 1 y_79_ ^ 2 - 2 y_83_ * y_79_ + 1 y_83_ ^ 2 ] <= 11299.88
quadratic_ranged_427_ub: [ 1 x_82_ ^ 2 - 2 x_83_ * x_82_ + 1 x_83_ ^ 2 + 1 y_82_ ^ 2 - 2 y_83_ * y_82_ + 1 y_83_ ^ 2 ] <= 12800.74
quadratic_ranged_428_ub: [ 1 x_7_ ^ 2 - 2 x_84_ * x_7_ + 1 x_84_ ^ 2 + 1 y_7_ ^ 2 - 2 y_84_ * y_7_ + 1 y_84_ ^ 2 ] <= 10808.01
quadratic_ranged_429_ub: [ 1 x_25_ ^ 2 - 2 x_84_ * x_25_ + 1 x_84_ ^ 2 + 1 y_25_ ^ 2 - 2 y_84_ * y_25_ + 1 y_84_ ^ 2 ] <= 15785.29
quadratic_ranged_430_ub: [ 1 x_30_ ^ 2 - 2 x_84_ * x_30_ + 1 x_84_ ^ 2 + 1 y_30_ ^ 2 - 2 y_84_ * y_30_ + 1 y_84_ ^ 2 ] <= 37264.96
quadratic_ranged_431_ub: [ 1 x_31_ ^ 2 - 2 x_84_ * x_31_ + 1 x_84_ ^ 2 + 1 y_31_ ^ 2 - 2 y_84_ * y_31_ + 1 y_84_ ^ 2 ] <= 22013.96
quadratic_ranged_432_ub: [ 1 x_45_ ^ 2 - 2 x_84_ * x_45_ + 1 x_84_ ^ 2 + 1 y_45_ ^ 2 - 2 y_84_ * y_45_ + 1 y_84_ ^ 2 ] <= 24281.41
quadratic_ranged_433_ub: [ 1 x_51_ ^ 2 - 2 x_84_ * x_51_ + 1 x_84_ ^ 2 + 1 y_51_ ^ 2 - 2 y_84_ * y_51_ + 1 y_84_ ^ 2 ] <= 11660.45
quadratic_ranged_434_ub: [ 1 x_60_ ^ 2 - 2 x_84_ * x_60_ + 1 x_84_ ^ 2 + 1 y_60_ ^ 2 - 2 y_84_ * y_60_ + 1 y_84_ ^ 2 ] <= 3794.57
quadratic_ranged_435_ub: [ 1 x_61_ ^ 2 - 2 x_84_ * x_61_ + 1 x_84_ ^ 2 + 1 y_61_ ^ 2 - 2 y_84_ * y_61_ + 1 y_84_ ^ 2 ] <= 19792.97
quadratic_ranged_436_ub: [ 1 x_72_ ^ 2 - 2 x_84_ * x_72_ + 1 x_84_ ^ 2 + 1 y_72_ ^ 2 - 2 y_84_ * y_72_ + 1 y_84_ ^ 2 ] <= 28225.46
quadratic_ranged_437_ub: [ 1 x_83_ ^ 2 - 2 x_84_ * x_83_ + 1 x_84_ ^ 2 + 1 y_83_ ^ 2 - 2 y_84_ * y_83_ + 1 y_84_ ^ 2 ] <= 485.81
quadratic_ranged_438_ub: [ 1 x_27_ ^ 2 - 2 x_85_ * x_27_ + 1 x_85_ ^ 2 + 1 y_27_ ^ 2 - 2 y_85_ * y_27_ + 1 y_85_ ^ 2 ] <= 25259.09
quadratic_ranged_439_ub: [ 1 x_43_ ^ 2 - 2 x_85_ * x_43_ + 1 x_85_ ^ 2 + 1 y_43_ ^ 2 - 2 y_85_ * y_43_ + 1 y_85_ ^ 2 ] <= 12448.25
quadratic_ranged_440_ub: [ 1 x_48_ ^ 2 - 2 x_85_ * x_48_ + 1 x_85_ ^ 2 + 1 y_48_ ^ 2 - 2 y_85_ * y_48_ + 1 y_85_ ^ 2 ] <= 21599.86
quadratic_ranged_441_ub: [ 1 x_62_ ^ 2 - 2 x_85_ * x_62_ + 1 x_85_ ^ 2 + 1 y_62_ ^ 2 - 2 y_85_ * y_62_ + 1 y_85_ ^ 2 ] <= 13594.6
quadratic_ranged_442_ub: [ 1 x_79_ ^ 2 - 2 x_85_ * x_79_ + 1 x_85_ ^ 2 + 1 y_79_ ^ 2 - 2 y_85_ * y_79_ + 1 y_85_ ^ 2 ] <= 19114.25
quadratic_ranged_443_ub: [ 1 x_84_ ^ 2 - 2 x_85_ * x_84_ + 1 x_85_ ^ 2 + 1 y_84_ ^ 2 - 2 y_85_ * y_84_ + 1 y_85_ ^ 2 ] <= 44458.18
quadratic_ranged_444_ub: [ 1 x_2_ ^ 2 - 2 x_86_ * x_2_ + 1 x_86_ ^ 2 + 1 y_2_ ^ 2 - 2 y_86_ * y_2_ + 1 y_86_ ^ 2 ] <= 10312.1
quadratic_ranged_445_ub: [ 1 x_3_ ^ 2 - 2 x_86_ * x_3_ + 1 x_86_ ^ 2 + 1 y_3_ ^ 2 - 2 y_86_ * y_3_ + 1 y_86_ ^ 2 ] <= 8217.36
quadratic_ranged_446_ub: [ 1 x_19_ ^ 2 - 2 x_86_ * x_19_ + 1 x_86_ ^ 2 + 1 y_19_ ^ 2 - 2 y_86_ * y_19_ + 1 y_86_ ^ 2 ] <= 7562.88
quadratic_ranged_447_ub: [ 1 x_28_ ^ 2 - 2 x_86_ * x_28_ + 1 x_86_ ^ 2 + 1 y_28_ ^ 2 - 2 y_86_ * y_28_ + 1 y_86_ ^ 2 ] <= 12130.1
quadratic_ranged_448_ub: [ 1 x_35_ ^ 2 - 2 x_86_ * x_35_ + 1 x_86_ ^ 2 + 1 y_35_ ^ 2 - 2 y_86_ * y_35_ + 1 y_86_ ^ 2 ] <= 1681.65
quadratic_ranged_449_ub: [ 1 x_49_ ^ 2 - 2 x_86_ * x_49_ + 1 x_86_ ^ 2 + 1 y_49_ ^ 2 - 2 y_86_ * y_49_ + 1 y_86_ ^ 2 ] <= 7857.8
quadratic_ranged_450_ub: [ 1 x_57_ ^ 2 - 2 x_86_ * x_57_ + 1 x_86_ ^ 2 + 1 y_57_ ^ 2 - 2 y_86_ * y_57_ + 1 y_86_ ^ 2 ] <= 2671.45
quadratic_ranged_451_ub: [ 1 x_69_ ^ 2 - 2 x_86_ * x_69_ + 1 x_86_ ^ 2 + 1 y_69_ ^ 2 - 2 y_86_ * y_69_ + 1 y_86_ ^ 2 ] <= 8698.12
quadratic_ranged_452_ub: [ 1 x_83_ ^ 2 - 2 x_86_ * x_83_ + 1 x_86_ ^ 2 + 1 y_83_ ^ 2 - 2 y_86_ * y_83_ + 1 y_86_ ^ 2 ] <= 7644.6900000000005
quadratic_ranged_453_ub: [ 1 x_85_ ^ 2 - 2 x_86_ * x_85_ + 1 x_86_ ^ 2 + 1 y_85_ ^ 2 - 2 y_86_ * y_85_ + 1 y_86_ ^ 2 ] <= 16826.6
quadratic_ranged_454_ub: [ 1 x_1_ ^ 2 - 2 x_87_ * x_1_ + 1 x_87_ ^ 2 + 1 y_1_ ^ 2 - 2 y_87_ * y_1_ + 1 y_87_ ^ 2 ] <= 15934.77
quadratic_ranged_455_ub: [ 1 x_6_ ^ 2 - 2 x_87_ * x_6_ + 1 x_87_ ^ 2 + 1 y_6_ ^ 2 - 2 y_87_ * y_6_ + 1 y_87_ ^ 2 ] <= 9340.48
quadratic_ranged_456_ub: [ 1 x_26_ ^ 2 - 2 x_87_ * x_26_ + 1 x_87_ ^ 2 + 1 y_26_ ^ 2 - 2 y_87_ * y_26_ + 1 y_87_ ^ 2 ] <= 26890.24
quadratic_ranged_457_ub: [ 1 x_29_ ^ 2 - 2 x_87_ * x_29_ + 1 x_87_ ^ 2 + 1 y_29_ ^ 2 - 2 y_87_ * y_29_ + 1 y_87_ ^ 2 ] <= 30356.56
quadratic_ranged_458_ub: [ 1 x_30_ ^ 2 - 2 x_87_ * x_30_ + 1 x_87_ ^ 2 + 1 y_30_ ^ 2 - 2 y_87_ * y_30_ + 1 y_87_ ^ 2 ] <= 1700.84
quadratic_ranged_459_ub: [ 1 x_32_ ^ 2 - 2 x_87_ * x_32_ + 1 x_87_ ^ 2 + 1 y_32_ ^ 2 - 2 y_87_ * y_32_ + 1 y_87_ ^ 2 ] <= 13251.2
quadratic_ranged_460_ub: [ 1 x_36_ ^ 2 - 2 x_87_ * x_36_ + 1 x_87_ ^ 2 + 1 y_36_ ^ 2 - 2 y_87_ * y_36_ + 1 y_87_ ^ 2 ] <= 18334.53
quadratic_ranged_461_ub: [ 1 x_45_ ^ 2 - 2 x_87_ * x_45_ + 1 x_87_ ^ 2 + 1 y_45_ ^ 2 - 2 y_87_ * y_45_ + 1 y_87_ ^ 2 ] <= 946.37
quadratic_ranged_462_ub: [ 1 x_63_ ^ 2 - 2 x_87_ * x_63_ + 1 x_87_ ^ 2 + 1 y_63_ ^ 2 - 2 y_87_ * y_63_ + 1 y_87_ ^ 2 ] <= 17906.29
quadratic_ranged_463_ub: [ 1 x_74_ ^ 2 - 2 x_87_ * x_74_ + 1 x_87_ ^ 2 + 1 y_74_ ^ 2 - 2 y_87_ * y_74_ + 1 y_87_ ^ 2 ] <= 4501.57
quadratic_ranged_464_ub: [ 1 x_75_ ^ 2 - 2 x_87_ * x_75_ + 1 x_87_ ^ 2 + 1 y_75_ ^ 2 - 2 y_87_ * y_75_ + 1 y_87_ ^ 2 ] <= 30304.04
quadratic_ranged_465_ub: [ 1 x_82_ ^ 2 - 2 x_87_ * x_82_ + 1 x_87_ ^ 2 + 1 y_82_ ^ 2 - 2 y_87_ * y_82_ + 1 y_87_ ^ 2 ] <= 13223.93
quadratic_ranged_466_ub: [ 1 x_85_ ^ 2 - 2 x_87_ * x_85_ + 1 x_87_ ^ 2 + 1 y_85_ ^ 2 - 2 y_87_ * y_85_ + 1 y_87_ ^ 2 ] <= 1100.9
quadratic_ranged_467_ub: [ 1 x_86_ ^ 2 - 2 x_87_ * x_86_ + 1 x_87_ ^ 2 + 1 y_86_ ^ 2 - 2 y_87_ * y_86_ + 1 y_87_ ^ 2 ] <= 11564.5
quadratic_ranged_468_ub: [ 1 x_27_ ^ 2 - 2 x_88_ * x_27_ + 1 x_88_ ^ 2 + 1 y_27_ ^ 2 - 2 y_88_ * y_27_ + 1 y_88_ ^ 2 ] <= 440.36
quadratic_ranged_469_ub: [ 1 x_52_ ^ 2 - 2 x_88_ * x_52_ + 1 x_88_ ^ 2 + 1 y_52_ ^ 2 - 2 y_88_ * y_52_ + 1 y_88_ ^ 2 ] <= 934.25
quadratic_ranged_470_ub: [ 1 x_57_ ^ 2 - 2 x_88_ * x_57_ + 1 x_88_ ^ 2 + 1 y_57_ ^ 2 - 2 y_88_ * y_57_ + 1 y_88_ ^ 2 ] <= 12008.9
quadratic_ranged_471_ub: [ 1 x_71_ ^ 2 - 2 x_88_ * x_71_ + 1 x_88_ ^ 2 + 1 y_71_ ^ 2 - 2 y_88_ * y_71_ + 1 y_88_ ^ 2 ] <= 4201.6
quadratic_ranged_472_ub: [ 1 x_72_ ^ 2 - 2 x_88_ * x_72_ + 1 x_88_ ^ 2 + 1 y_72_ ^ 2 - 2 y_88_ * y_72_ + 1 y_88_ ^ 2 ] <= 7022.53
quadratic_ranged_473_ub: [ 1 x_79_ ^ 2 - 2 x_88_ * x_79_ + 1 x_88_ ^ 2 + 1 y_79_ ^ 2 - 2 y_88_ * y_79_ + 1 y_88_ ^ 2 ] <= 131.3
quadratic_ranged_474_ub: [ 1 x_85_ ^ 2 - 2 x_88_ * x_85_ + 1 x_88_ ^ 2 + 1 y_85_ ^ 2 - 2 y_88_ * y_85_ + 1 y_88_ ^ 2 ] <= 19033.45
quadratic_ranged_475_ub: [ 1 x_87_ ^ 2 - 2 x_88_ * x_87_ + 1 x_88_ ^ 2 + 1 y_87_ ^ 2 - 2 y_88_ * y_87_ + 1 y_88_ ^ 2 ] <= 11337.25
quadratic_ranged_476_ub: [ 1 x_19_ ^ 2 - 2 x_89_ * x_19_ + 1 x_89_ ^ 2 + 1 y_19_ ^ 2 - 2 y_89_ * y_19_ + 1 y_89_ ^ 2 ] <= 18571.88
quadratic_ranged_477_ub: [ 1 x_23_ ^ 2 - 2 x_89_ * x_23_ + 1 x_89_ ^ 2 + 1 y_23_ ^ 2 - 2 y_89_ * y_23_ + 1 y_89_ ^ 2 ] <= 853.45
quadratic_ranged_478_ub: [ 1 x_37_ ^ 2 - 2 x_89_ * x_37_ + 1 x_89_ ^ 2 + 1 y_37_ ^ 2 - 2 y_89_ * y_37_ + 1 y_89_ ^ 2 ] <= 17543.7
quadratic_ranged_479_ub: [ 1 x_39_ ^ 2 - 2 x_89_ * x_39_ + 1 x_89_ ^ 2 + 1 y_39_ ^ 2 - 2 y_89_ * y_39_ + 1 y_89_ ^ 2 ] <= 10064.65
quadratic_ranged_480_ub: [ 1 x_52_ ^ 2 - 2 x_89_ * x_52_ + 1 x_89_ ^ 2 + 1 y_52_ ^ 2 - 2 y_89_ * y_52_ + 1 y_89_ ^ 2 ] <= 5858
quadratic_ranged_481_ub: [ 1 x_60_ ^ 2 - 2 x_89_ * x_60_ + 1 x_89_ ^ 2 + 1 y_60_ ^ 2 - 2 y_89_ * y_60_ + 1 y_89_ ^ 2 ] <= 8836.49
quadratic_ranged_482_ub: [ 1 x_66_ ^ 2 - 2 x_89_ * x_66_ + 1 x_89_ ^ 2 + 1 y_66_ ^ 2 - 2 y_89_ * y_66_ + 1 y_89_ ^ 2 ] <= 2247.25
quadratic_ranged_483_ub: [ 1 x_69_ ^ 2 - 2 x_89_ * x_69_ + 1 x_89_ ^ 2 + 1 y_69_ ^ 2 - 2 y_89_ * y_69_ + 1 y_89_ ^ 2 ] <= 4597.52
quadratic_ranged_484_ub: [ 1 x_71_ ^ 2 - 2 x_89_ * x_71_ + 1 x_89_ ^ 2 + 1 y_71_ ^ 2 - 2 y_89_ * y_71_ + 1 y_89_ ^ 2 ] <= 1681.65
quadratic_ranged_485_ub: [ 1 x_75_ ^ 2 - 2 x_89_ * x_75_ + 1 x_89_ ^ 2 + 1 y_75_ ^ 2 - 2 y_89_ * y_75_ + 1 y_89_ ^ 2 ] <= 6619.54
quadratic_ranged_486_ub: [ 1 x_87_ ^ 2 - 2 x_89_ * x_87_ + 1 x_89_ ^ 2 + 1 y_87_ ^ 2 - 2 y_89_ * y_87_ + 1 y_89_ ^ 2 ] <= 21462.5
quadratic_ranged_487_ub: [ 1 x_88_ ^ 2 - 2 x_89_ * x_88_ + 1 x_89_ ^ 2 + 1 y_88_ ^ 2 - 2 y_89_ * y_88_ + 1 y_89_ ^ 2 ] <= 2247.25
quadratic_ranged_488_ub: [ 1 x_6_ ^ 2 - 2 x_90_ * x_6_ + 1 x_90_ ^ 2 + 1 y_6_ ^ 2 - 2 y_90_ * y_6_ + 1 y_90_ ^ 2 ] <= 2529.04
quadratic_ranged_489_ub: [ 1 x_13_ ^ 2 - 2 x_90_ * x_13_ + 1 x_90_ ^ 2 + 1 y_13_ ^ 2 - 2 y_90_ * y_13_ + 1 y_90_ ^ 2 ] <= 4464.2
quadratic_ranged_490_ub: [ 1 x_30_ ^ 2 - 2 x_90_ * x_30_ + 1 x_90_ ^ 2 + 1 y_30_ ^ 2 - 2 y_90_ * y_30_ + 1 y_90_ ^ 2 ] <= 3947.08
quadratic_ranged_491_ub: [ 1 x_32_ ^ 2 - 2 x_90_ * x_32_ + 1 x_90_ ^ 2 + 1 y_32_ ^ 2 - 2 y_90_ * y_32_ + 1 y_90_ ^ 2 ] <= 492.88
quadratic_ranged_492_ub: [ 1 x_38_ ^ 2 - 2 x_90_ * x_38_ + 1 x_90_ ^ 2 + 1 y_38_ ^ 2 - 2 y_90_ * y_38_ + 1 y_90_ ^ 2 ] <= 4686.4
quadratic_ranged_493_ub: [ 1 x_43_ ^ 2 - 2 x_90_ * x_43_ + 1 x_90_ ^ 2 + 1 y_43_ ^ 2 - 2 y_90_ * y_43_ + 1 y_90_ ^ 2 ] <= 15429.77
quadratic_ranged_494_ub: [ 1 x_51_ ^ 2 - 2 x_90_ * x_51_ + 1 x_90_ ^ 2 + 1 y_51_ ^ 2 - 2 y_90_ * y_51_ + 1 y_90_ ^ 2 ] <= 21206.97
quadratic_ranged_495_ub: [ 1 x_57_ ^ 2 - 2 x_90_ * x_57_ + 1 x_90_ ^ 2 + 1 y_57_ ^ 2 - 2 y_90_ * y_57_ + 1 y_90_ ^ 2 ] <= 2025.05
quadratic_ranged_496_ub: [ 1 x_88_ ^ 2 - 2 x_90_ * x_88_ + 1 x_90_ ^ 2 + 1 y_88_ ^ 2 - 2 y_90_ * y_88_ + 1 y_90_ ^ 2 ] <= 18088.09
quadratic_ranged_497_ub: [ 1 x_89_ ^ 2 - 2 x_90_ * x_89_ + 1 x_90_ ^ 2 + 1 y_89_ ^ 2 - 2 y_90_ * y_89_ + 1 y_90_ ^ 2 ] <= 22052.34
quadratic_ranged_498_ub: [ 1 x_6_ ^ 2 - 2 x_91_ * x_6_ + 1 x_91_ ^ 2 + 1 y_6_ ^ 2 - 2 y_91_ * y_6_ + 1 y_91_ ^ 2 ] <= 7418.45
quadratic_ranged_499_ub: [ 1 x_17_ ^ 2 - 2 x_91_ * x_17_ + 1 x_91_ ^ 2 + 1 y_17_ ^ 2 - 2 y_91_ * y_17_ + 1 y_91_ ^ 2 ] <= 27093.25
quadratic_ranged_500_ub: [ 1 x_18_ ^ 2 - 2 x_91_ * x_18_ + 1 x_91_ ^ 2 + 1 y_18_ ^ 2 - 2 y_91_ * y_18_ + 1 y_91_ ^ 2 ] <= 20200
quadratic_ranged_501_ub: [ 1 x_19_ ^ 2 - 2 x_91_ * x_19_ + 1 x_91_ ^ 2 + 1 y_19_ ^ 2 - 2 y_91_ * y_19_ + 1 y_91_ ^ 2 ] <= 21821.05
quadratic_ranged_502_ub: [ 1 x_20_ ^ 2 - 2 x_91_ * x_20_ + 1 x_91_ ^ 2 + 1 y_20_ ^ 2 - 2 y_91_ * y_20_ + 1 y_91_ ^ 2 ] <= 20565.62
quadratic_ranged_503_ub: [ 1 x_62_ ^ 2 - 2 x_91_ * x_62_ + 1 x_91_ ^ 2 + 1 y_62_ ^ 2 - 2 y_91_ * y_62_ + 1 y_91_ ^ 2 ] <= 7022.53
quadratic_ranged_504_ub: [ 1 x_76_ ^ 2 - 2 x_91_ * x_76_ + 1 x_91_ ^ 2 + 1 y_76_ ^ 2 - 2 y_91_ * y_76_ + 1 y_91_ ^ 2 ] <= 7718.42
quadratic_ranged_505_ub: [ 1 x_80_ ^ 2 - 2 x_91_ * x_80_ + 1 x_91_ ^ 2 + 1 y_80_ ^ 2 - 2 y_91_ * y_80_ + 1 y_91_ ^ 2 ] <= 20692.88
quadratic_ranged_506_ub: [ 1 x_82_ ^ 2 - 2 x_91_ * x_82_ + 1 x_91_ ^ 2 + 1 y_82_ ^ 2 - 2 y_91_ * y_82_ + 1 y_91_ ^ 2 ] <= 10835.28
quadratic_ranged_507_ub: [ 1 x_90_ ^ 2 - 2 x_91_ * x_90_ + 1 x_91_ ^ 2 + 1 y_90_ ^ 2 - 2 y_91_ * y_90_ + 1 y_91_ ^ 2 ] <= 6792.25
quadratic_ranged_508_ub: [ 1 x_10_ ^ 2 - 2 x_92_ * x_10_ + 1 x_92_ ^ 2 + 1 y_10_ ^ 2 - 2 y_92_ * y_10_ + 1 y_92_ ^ 2 ] <= 8906.18
quadratic_ranged_509_ub: [ 1 x_24_ ^ 2 - 2 x_92_ * x_24_ + 1 x_92_ ^ 2 + 1 y_24_ ^ 2 - 2 y_92_ * y_24_ + 1 y_92_ ^ 2 ] <= 231.29
quadratic_ranged_510_ub: [ 1 x_36_ ^ 2 - 2 x_92_ * x_36_ + 1 x_92_ ^ 2 + 1 y_36_ ^ 2 - 2 y_92_ * y_36_ + 1 y_92_ ^ 2 ] <= 16884.170000000002
quadratic_ranged_511_ub: [ 1 x_41_ ^ 2 - 2 x_92_ * x_41_ + 1 x_92_ ^ 2 + 1 y_41_ ^ 2 - 2 y_92_ * y_41_ + 1 y_92_ ^ 2 ] <= 1262.5
quadratic_ranged_512_ub: [ 1 x_56_ ^ 2 - 2 x_92_ * x_56_ + 1 x_92_ ^ 2 + 1 y_56_ ^ 2 - 2 y_92_ * y_56_ + 1 y_92_ ^ 2 ] <= 18435.53
quadratic_ranged_513_ub: [ 1 x_62_ ^ 2 - 2 x_92_ * x_62_ + 1 x_92_ ^ 2 + 1 y_62_ ^ 2 - 2 y_92_ * y_62_ + 1 y_92_ ^ 2 ] <= 4686.4
quadratic_ranged_514_ub: [ 1 x_74_ ^ 2 - 2 x_92_ * x_74_ + 1 x_92_ ^ 2 + 1 y_74_ ^ 2 - 2 y_92_ * y_74_ + 1 y_92_ ^ 2 ] <= 8715.29
quadratic_ranged_515_ub: [ 1 x_83_ ^ 2 - 2 x_92_ * x_83_ + 1 x_92_ ^ 2 + 1 y_83_ ^ 2 - 2 y_92_ * y_83_ + 1 y_92_ ^ 2 ] <= 7446.7300000000005
quadratic_ranged_516_ub: [ 1 x_91_ ^ 2 - 2 x_92_ * x_91_ + 1 x_92_ ^ 2 + 1 y_91_ ^ 2 - 2 y_92_ * y_91_ + 1 y_92_ ^ 2 ] <= 11280.69
quadratic_ranged_517_ub: [ 1 x_15_ ^ 2 - 2 x_93_ * x_15_ + 1 x_93_ ^ 2 + 1 y_15_ ^ 2 - 2 y_93_ * y_15_ + 1 y_93_ ^ 2 ] <= 9931.33
quadratic_ranged_518_ub: [ 1 x_18_ ^ 2 - 2 x_93_ * x_18_ + 1 x_93_ ^ 2 + 1 y_18_ ^ 2 - 2 y_93_ * y_18_ + 1 y_93_ ^ 2 ] <= 3064.34
quadratic_ranged_519_ub: [ 1 x_22_ ^ 2 - 2 x_93_ * x_22_ + 1 x_93_ ^ 2 + 1 y_22_ ^ 2 - 2 y_93_ * y_22_ + 1 y_93_ ^ 2 ] <= 23032.04
quadratic_ranged_520_ub: [ 1 x_33_ ^ 2 - 2 x_93_ * x_33_ + 1 x_93_ ^ 2 + 1 y_33_ ^ 2 - 2 y_93_ * y_33_ + 1 y_93_ ^ 2 ] <= 16371.09
quadratic_ranged_521_ub: [ 1 x_34_ ^ 2 - 2 x_93_ * x_34_ + 1 x_93_ ^ 2 + 1 y_34_ ^ 2 - 2 y_93_ * y_34_ + 1 y_93_ ^ 2 ] <= 16617.53
quadratic_ranged_522_ub: [ 1 x_69_ ^ 2 - 2 x_93_ * x_69_ + 1 x_93_ ^ 2 + 1 y_69_ ^ 2 - 2 y_93_ * y_69_ + 1 y_93_ ^ 2 ] <= 14266.25
quadratic_ranged_523_ub: [ 1 x_75_ ^ 2 - 2 x_93_ * x_75_ + 1 x_93_ ^ 2 + 1 y_75_ ^ 2 - 2 y_93_ * y_75_ + 1 y_93_ ^ 2 ] <= 15397.45
quadratic_ranged_524_ub: [ 1 x_88_ ^ 2 - 2 x_93_ * x_88_ + 1 x_93_ ^ 2 + 1 y_88_ ^ 2 - 2 y_93_ * y_88_ + 1 y_93_ ^ 2 ] <= 163.62
quadratic_ranged_525_ub: [ 1 x_92_ ^ 2 - 2 x_93_ * x_92_ + 1 x_93_ ^ 2 + 1 y_92_ ^ 2 - 2 y_93_ * y_92_ + 1 y_93_ ^ 2 ] <= 2534.09
quadratic_ranged_526_ub: [ 1 x_2_ ^ 2 - 2 x_94_ * x_2_ + 1 x_94_ ^ 2 + 1 y_2_ ^ 2 - 2 y_94_ * y_2_ + 1 y_94_ ^ 2 ] <= 31522.1
quadratic_ranged_527_ub: [ 1 x_9_ ^ 2 - 2 x_94_ * x_9_ + 1 x_94_ ^ 2 + 1 y_9_ ^ 2 - 2 y_94_ * y_9_ + 1 y_94_ ^ 2 ] <= 3104.7400000000002
quadratic_ranged_528_ub: [ 1 x_15_ ^ 2 - 2 x_94_ * x_15_ + 1 x_94_ ^ 2 + 1 y_15_ ^ 2 - 2 y_94_ * y_15_ + 1 y_94_ ^ 2 ] <= 2718.92
quadratic_ranged_529_ub: [ 1 x_33_ ^ 2 - 2 x_94_ * x_33_ + 1 x_94_ ^ 2 + 1 y_33_ ^ 2 - 2 y_94_ * y_33_ + 1 y_94_ ^ 2 ] <= 1222.1
quadratic_ranged_530_ub: [ 1 x_39_ ^ 2 - 2 x_94_ * x_39_ + 1 x_94_ ^ 2 + 1 y_39_ ^ 2 - 2 y_94_ * y_39_ + 1 y_94_ ^ 2 ] <= 11527.13
quadratic_ranged_531_ub: [ 1 x_47_ ^ 2 - 2 x_94_ * x_47_ + 1 x_94_ ^ 2 + 1 y_47_ ^ 2 - 2 y_94_ * y_47_ + 1 y_94_ ^ 2 ] <= 6312.5
quadratic_ranged_532_ub: [ 1 x_50_ ^ 2 - 2 x_94_ * x_50_ + 1 x_94_ ^ 2 + 1 y_50_ ^ 2 - 2 y_94_ * y_50_ + 1 y_94_ ^ 2 ] <= 26260
quadratic_ranged_533_ub: [ 1 x_68_ ^ 2 - 2 x_94_ * x_68_ + 1 x_94_ ^ 2 + 1 y_68_ ^ 2 - 2 y_94_ * y_68_ + 1 y_94_ ^ 2 ] <= 6983.14
quadratic_ranged_534_ub: [ 1 x_78_ ^ 2 - 2 x_94_ * x_78_ + 1 x_94_ ^ 2 + 1 y_78_ ^ 2 - 2 y_94_ * y_78_ + 1 y_94_ ^ 2 ] <= 18766.81
quadratic_ranged_535_ub: [ 1 x_87_ ^ 2 - 2 x_94_ * x_87_ + 1 x_94_ ^ 2 + 1 y_87_ ^ 2 - 2 y_94_ * y_87_ + 1 y_94_ ^ 2 ] <= 8494.1
quadratic_ranged_536_ub: [ 1 x_93_ ^ 2 - 2 x_94_ * x_93_ + 1 x_94_ ^ 2 + 1 y_93_ ^ 2 - 2 y_94_ * y_93_ + 1 y_94_ ^ 2 ] <= 22992.65
quadratic_ranged_537_ub: [ 1 x_14_ ^ 2 - 2 x_95_ * x_14_ + 1 x_95_ ^ 2 + 1 y_14_ ^ 2 - 2 y_95_ * y_14_ + 1 y_95_ ^ 2 ] <= 3661.25
quadratic_ranged_538_ub: [ 1 x_24_ ^ 2 - 2 x_95_ * x_24_ + 1 x_95_ ^ 2 + 1 y_24_ ^ 2 - 2 y_95_ * y_24_ + 1 y_95_ ^ 2 ] <= 14327.86
quadratic_ranged_539_ub: [ 1 x_37_ ^ 2 - 2 x_95_ * x_37_ + 1 x_95_ ^ 2 + 1 y_37_ ^ 2 - 2 y_95_ * y_37_ + 1 y_95_ ^ 2 ] <= 873.65
quadratic_ranged_540_ub: [ 1 x_49_ ^ 2 - 2 x_95_ * x_49_ + 1 x_95_ ^ 2 + 1 y_49_ ^ 2 - 2 y_95_ * y_49_ + 1 y_95_ ^ 2 ] <= 30604.010000000002
quadratic_ranged_541_ub: [ 1 x_51_ ^ 2 - 2 x_95_ * x_51_ + 1 x_95_ ^ 2 + 1 y_51_ ^ 2 - 2 y_95_ * y_51_ + 1 y_95_ ^ 2 ] <= 24662.18
quadratic_ranged_542_ub: [ 1 x_78_ ^ 2 - 2 x_95_ * x_78_ + 1 x_95_ ^ 2 + 1 y_78_ ^ 2 - 2 y_95_ * y_78_ + 1 y_95_ ^ 2 ] <= 4098.58
quadratic_ranged_543_ub: [ 1 x_79_ ^ 2 - 2 x_95_ * x_79_ + 1 x_95_ ^ 2 + 1 y_79_ ^ 2 - 2 y_95_ * y_79_ + 1 y_95_ ^ 2 ] <= 17648.74
quadratic_ranged_544_ub: [ 1 x_94_ ^ 2 - 2 x_95_ * x_94_ + 1 x_95_ ^ 2 + 1 y_94_ ^ 2 - 2 y_95_ * y_94_ + 1 y_95_ ^ 2 ] <= 14084.45
quadratic_ranged_545_ub: [ 1 x_11_ ^ 2 - 2 x_96_ * x_11_ + 1 x_96_ ^ 2 + 1 y_11_ ^ 2 - 2 y_96_ * y_11_ + 1 y_96_ ^ 2 ] <= 11337.25
quadratic_ranged_546_ub: [ 1 x_20_ ^ 2 - 2 x_96_ * x_20_ + 1 x_96_ ^ 2 + 1 y_20_ ^ 2 - 2 y_96_ * y_20_ + 1 y_96_ ^ 2 ] <= 5919.61
quadratic_ranged_547_ub: [ 1 x_21_ ^ 2 - 2 x_96_ * x_21_ + 1 x_96_ ^ 2 + 1 y_21_ ^ 2 - 2 y_96_ * y_21_ + 1 y_96_ ^ 2 ] <= 21336.25
quadratic_ranged_548_ub: [ 1 x_49_ ^ 2 - 2 x_96_ * x_49_ + 1 x_96_ ^ 2 + 1 y_49_ ^ 2 - 2 y_96_ * y_49_ + 1 y_96_ ^ 2 ] <= 35814.6
quadratic_ranged_549_ub: [ 1 x_95_ ^ 2 - 2 x_96_ * x_95_ + 1 x_96_ ^ 2 + 1 y_95_ ^ 2 - 2 y_96_ * y_95_ + 1 y_96_ ^ 2 ] <= 5988.29
quadratic_ranged_550_ub: [ 1 x_21_ ^ 2 - 2 x_97_ * x_21_ + 1 x_97_ ^ 2 + 1 y_21_ ^ 2 - 2 y_97_ * y_21_ + 1 y_97_ ^ 2 ] <= 18871.85
quadratic_ranged_551_ub: [ 1 x_46_ ^ 2 - 2 x_97_ * x_46_ + 1 x_97_ ^ 2 + 1 y_46_ ^ 2 - 2 y_97_ * y_46_ + 1 y_97_ ^ 2 ] <= 10375.73
quadratic_ranged_552_ub: [ 1 x_49_ ^ 2 - 2 x_97_ * x_49_ + 1 x_97_ ^ 2 + 1 y_49_ ^ 2 - 2 y_97_ * y_49_ + 1 y_97_ ^ 2 ] <= 11348.36
quadratic_ranged_553_ub: [ 1 x_52_ ^ 2 - 2 x_97_ * x_52_ + 1 x_97_ ^ 2 + 1 y_52_ ^ 2 - 2 y_97_ * y_52_ + 1 y_97_ ^ 2 ] <= 7195.24
quadratic_ranged_554_ub: [ 1 x_71_ ^ 2 - 2 x_97_ * x_71_ + 1 x_97_ ^ 2 + 1 y_71_ ^ 2 - 2 y_97_ * y_71_ + 1 y_97_ ^ 2 ] <= 679.73
quadratic_ranged_555_ub: [ 1 x_82_ ^ 2 - 2 x_97_ * x_82_ + 1 x_97_ ^ 2 + 1 y_82_ ^ 2 - 2 y_97_ * y_82_ + 1 y_97_ ^ 2 ] <= 10185.85
quadratic_ranged_556_ub: [ 1 x_95_ ^ 2 - 2 x_97_ * x_95_ + 1 x_97_ ^ 2 + 1 y_95_ ^ 2 - 2 y_97_ * y_95_ + 1 y_97_ ^ 2 ] <= 10884.77
quadratic_ranged_557_ub: [ 1 x_96_ ^ 2 - 2 x_97_ * x_96_ + 1 x_97_ ^ 2 + 1 y_96_ ^ 2 - 2 y_97_ * y_96_ + 1 y_97_ ^ 2 ] <= 7385.12
quadratic_ranged_558_ub: [ 1 x_10_ ^ 2 - 2 x_98_ * x_10_ + 1 x_98_ ^ 2 + 1 y_10_ ^ 2 - 2 y_98_ * y_10_ + 1 y_98_ ^ 2 ] <= 16605.41
quadratic_ranged_559_ub: [ 1 x_46_ ^ 2 - 2 x_98_ * x_46_ + 1 x_98_ ^ 2 + 1 y_46_ ^ 2 - 2 y_98_ * y_46_ + 1 y_98_ ^ 2 ] <= 1706.9
quadratic_ranged_560_ub: [ 1 x_66_ ^ 2 - 2 x_98_ * x_66_ + 1 x_98_ ^ 2 + 1 y_66_ ^ 2 - 2 y_98_ * y_66_ + 1 y_98_ ^ 2 ] <= 1981.6200000000001
quadratic_ranged_561_ub: [ 1 x_94_ ^ 2 - 2 x_98_ * x_94_ + 1 x_98_ ^ 2 + 1 y_94_ ^ 2 - 2 y_98_ * y_94_ + 1 y_98_ ^ 2 ] <= 17469.97
quadratic_ranged_562_ub: [ 1 x_97_ ^ 2 - 2 x_98_ * x_97_ + 1 x_98_ ^ 2 + 1 y_97_ ^ 2 - 2 y_98_ * y_97_ + 1 y_98_ ^ 2 ] <= 3798.61
quadratic_ranged_563_ub: [ 1 x_2_ ^ 2 - 2 x_99_ * x_2_ + 1 x_99_ ^ 2 + 1 y_2_ ^ 2 - 2 y_99_ * y_2_ + 1 y_99_ ^ 2 ] <= 24790.45
quadratic_ranged_564_ub: [ 1 x_4_ ^ 2 - 2 x_99_ * x_4_ + 1 x_99_ ^ 2 + 1 y_4_ ^ 2 - 2 y_99_ * y_4_ + 1 y_99_ ^ 2 ] <= 11236.25
quadratic_ranged_565_ub: [ 1 x_24_ ^ 2 - 2 x_99_ * x_24_ + 1 x_99_ ^ 2 + 1 y_24_ ^ 2 - 2 y_99_ * y_24_ + 1 y_99_ ^ 2 ] <= 9180.9
quadratic_ranged_566_ub: [ 1 x_28_ ^ 2 - 2 x_99_ * x_28_ + 1 x_99_ ^ 2 + 1 y_28_ ^ 2 - 2 y_99_ * y_28_ + 1 y_99_ ^ 2 ] <= 22665.41
quadratic_ranged_567_ub: [ 1 x_29_ ^ 2 - 2 x_99_ * x_29_ + 1 x_99_ ^ 2 + 1 y_29_ ^ 2 - 2 y_99_ * y_29_ + 1 y_99_ ^ 2 ] <= 2364.41
quadratic_ranged_568_ub: [ 1 x_56_ ^ 2 - 2 x_99_ * x_56_ + 1 x_99_ ^ 2 + 1 y_56_ ^ 2 - 2 y_99_ * y_56_ + 1 y_99_ ^ 2 ] <= 35214.66
quadratic_ranged_569_ub: [ 1 x_68_ ^ 2 - 2 x_99_ * x_68_ + 1 x_99_ ^ 2 + 1 y_68_ ^ 2 - 2 y_99_ * y_68_ + 1 y_99_ ^ 2 ] <= 30935.29
quadratic_ranged_570_ub: [ 1 x_71_ ^ 2 - 2 x_99_ * x_71_ + 1 x_99_ ^ 2 + 1 y_71_ ^ 2 - 2 y_99_ * y_71_ + 1 y_99_ ^ 2 ] <= 3316.84
quadratic_ranged_571_ub: [ 1 x_76_ ^ 2 - 2 x_99_ * x_76_ + 1 x_99_ ^ 2 + 1 y_76_ ^ 2 - 2 y_99_ * y_76_ + 1 y_99_ ^ 2 ] <= 4704.58
quadratic_ranged_572_ub: [ 1 x_97_ ^ 2 - 2 x_99_ * x_97_ + 1 x_99_ ^ 2 + 1 y_97_ ^ 2 - 2 y_99_ * y_97_ + 1 y_99_ ^ 2 ] <= 6509.45
quadratic_ranged_573_ub: [ 1 x_98_ ^ 2 - 2 x_99_ * x_98_ + 1 x_99_ ^ 2 + 1 y_98_ ^ 2 - 2 y_99_ * y_98_ + 1 y_99_ ^ 2 ] <= 719.12
quadratic_ranged_574_ub: [ 1 x_1_ ^ 2 - 2 x_100_ * x_1_ + 1 x_100_ ^ 2 + 1 y_1_ ^ 2 - 2 y_100_ * y_1_ + 1 y_100_ ^ 2 ] <= 8518.34
quadratic_ranged_575_ub: [ 1 x_2_ ^ 2 - 2 x_100_ * x_2_ + 1 x_100_ ^ 2 + 1 y_2_ ^ 2 - 2 y_100_ * y_2_ + 1 y_100_ ^ 2 ] <= 28111.33
quadratic_ranged_576_ub: [ 1 x_4_ ^ 2 - 2 x_100_ * x_4_ + 1 x_100_ ^ 2 + 1 y_4_ ^ 2 - 2 y_100_ * y_4_ + 1 y_100_ ^ 2 ] <= 11018.09
quadratic_ranged_577_ub: [ 1 x_8_ ^ 2 - 2 x_100_ * x_8_ + 1 x_100_ ^ 2 + 1 y_8_ ^ 2 - 2 y_100_ * y_8_ + 1 y_100_ ^ 2 ] <= 17105.36
quadratic_ranged_578_ub: [ 1 x_26_ ^ 2 - 2 x_100_ * x_26_ + 1 x_100_ ^ 2 + 1 y_26_ ^ 2 - 2 y_100_ * y_26_ + 1 y_100_ ^ 2 ] <= 804.97
quadratic_ranged_579_ub: [ 1 x_59_ ^ 2 - 2 x_100_ * x_59_ + 1 x_100_ ^ 2 + 1 y_59_ ^ 2 - 2 y_100_ * y_59_ + 1 y_100_ ^ 2 ] <= 12145.25
quadratic_ranged_580_ub: [ 1 x_67_ ^ 2 - 2 x_100_ * x_67_ + 1 x_100_ ^ 2 + 1 y_67_ ^ 2 - 2 y_100_ * y_67_ + 1 y_100_ ^ 2 ] <= 2352.29
quadratic_ranged_581_ub: [ 1 x_78_ ^ 2 - 2 x_100_ * x_78_ + 1 x_100_ ^ 2 + 1 y_78_ ^ 2 - 2 y_100_ * y_78_ + 1 y_100_ ^ 2 ] <= 6500.36
quadratic_ranged_582_ub: [ 1 x_87_ ^ 2 - 2 x_100_ * x_87_ + 1 x_100_ ^ 2 + 1 y_87_ ^ 2 - 2 y_100_ * y_87_ + 1 y_100_ ^ 2 ] <= 18580.97
quadratic_ranged_583_ub: [ 1 x_93_ ^ 2 - 2 x_100_ * x_93_ + 1 x_100_ ^ 2 + 1 y_93_ ^ 2 - 2 y_100_ * y_93_ + 1 y_100_ ^ 2 ] <= 19602.08
quadratic_ranged_584_ub: [ 1 x_94_ ^ 2 - 2 x_100_ * x_94_ + 1 x_100_ ^ 2 + 1 y_94_ ^ 2 - 2 y_100_ * y_94_ + 1 y_100_ ^ 2 ] <= 4756.09
quadratic_ranged_585_ub: [ 1 x_99_ ^ 2 - 2 x_100_ * x_99_ + 1 x_100_ ^ 2 + 1 y_99_ ^ 2 - 2 y_100_ * y_99_ + 1 y_100_ ^ 2 ] <= 2094.7400000000002
quadratic_ranged_1_lb: [ 1 x_1_ ^ 2 - 2 x_2_ * x_1_ + 1 x_2_ ^ 2 + 1 y_1_ ^ 2 - 2 y_2_ * y_1_ + 1 y_2_ ^ 2 ] >= 6582.51
quadratic_ranged_2_lb: [ 1 x_2_ ^ 2 - 2 x_3_ * x_2_ + 1 x_3_ ^ 2 + 1 y_2_ ^ 2 - 2 y_3_ * y_2_ + 1 y_3_ ^ 2 ] >= 5997.42
quadratic_ranged_3_lb: [ 1 x_1_ ^ 2 - 2 x_4_ * x_1_ + 1 x_4_ ^ 2 + 1 y_1_ ^ 2 - 2 y_4_ * y_1_ + 1 y_4_ ^ 2 ] >= 1834.47
quadratic_ranged_4_lb: [ 1 x_3_ ^ 2 - 2 x_4_ * x_3_ + 1 x_4_ ^ 2 + 1 y_3_ ^ 2 - 2 y_4_ * y_3_ + 1 y_4_ ^ 2 ] >= 7708.14
quadratic_ranged_5_lb: [ 1 x_4_ ^ 2 - 2 x_5_ * x_4_ + 1 x_5_ ^ 2 + 1 y_4_ ^ 2 - 2 y_5_ * y_4_ + 1 y_5_ ^ 2 ] >= 5801.4
quadratic_ranged_6_lb: [ 1 x_5_ ^ 2 - 2 x_6_ * x_5_ + 1 x_6_ ^ 2 + 1 y_5_ ^ 2 - 2 y_6_ * y_5_ + 1 y_6_ ^ 2 ] >= 966.24
quadratic_ranged_7_lb: [ 1 x_5_ ^ 2 - 2 x_7_ * x_5_ + 1 x_7_ ^ 2 + 1 y_5_ ^ 2 - 2 y_7_ * y_5_ + 1 y_7_ ^ 2 ] >= 7235.91
quadratic_ranged_8_lb: [ 1 x_6_ ^ 2 - 2 x_7_ * x_6_ + 1 x_7_ ^ 2 + 1 y_6_ ^ 2 - 2 y_7_ * y_6_ + 1 y_7_ ^ 2 ] >= 5881.59
quadratic_ranged_9_lb: [ 1 x_2_ ^ 2 - 2 x_8_ * x_2_ + 1 x_8_ ^ 2 + 1 y_2_ ^ 2 - 2 y_8_ * y_2_ + 1 y_8_ ^ 2 ] >= 10102.95
quadratic_ranged_10_lb: [ 1 x_5_ ^ 2 - 2 x_8_ * x_5_ + 1 x_8_ ^ 2 + 1 y_5_ ^ 2 - 2 y_8_ * y_5_ + 1 y_8_ ^ 2 ] >= 12855.15
quadratic_ranged_11_lb: [ 1 x_7_ ^ 2 - 2 x_8_ * x_7_ + 1 x_8_ ^ 2 + 1 y_7_ ^ 2 - 2 y_8_ * y_7_ + 1 y_8_ ^ 2 ] >= 4249.08
quadratic_ranged_12_lb: [ 1 x_1_ ^ 2 - 2 x_9_ * x_1_ + 1 x_9_ ^ 2 + 1 y_1_ ^ 2 - 2 y_9_ * y_1_ + 1 y_9_ ^ 2 ] >= 4851.99
quadratic_ranged_13_lb: [ 1 x_5_ ^ 2 - 2 x_9_ * x_5_ + 1 x_9_ ^ 2 + 1 y_5_ ^ 2 - 2 y_9_ * y_5_ + 1 y_9_ ^ 2 ] >= 1762.2
quadratic_ranged_14_lb: [ 1 x_8_ ^ 2 - 2 x_9_ * x_8_ + 1 x_9_ ^ 2 + 1 y_8_ ^ 2 - 2 y_9_ * y_8_ + 1 y_9_ ^ 2 ] >= 5719.23
quadratic_ranged_15_lb: [ 1 x_6_ ^ 2 - 2 x_10_ * x_6_ + 1 x_10_ ^ 2 + 1 y_6_ ^ 2 - 2 y_10_ * y_6_ + 1 y_10_ ^ 2 ] >= 2288.88
quadratic_ranged_16_lb: [ 1 x_9_ ^ 2 - 2 x_10_ * x_9_ + 1 x_10_ ^ 2 + 1 y_9_ ^ 2 - 2 y_10_ * y_9_ + 1 y_10_ ^ 2 ] >= 1492.92
quadratic_ranged_17_lb: [ 1 x_5_ ^ 2 - 2 x_11_ * x_5_ + 1 x_11_ ^ 2 + 1 y_5_ ^ 2 - 2 y_11_ * y_5_ + 1 y_11_ ^ 2 ] >= 682.11
quadratic_ranged_18_lb: [ 1 x_9_ ^ 2 - 2 x_11_ * x_9_ + 1 x_11_ ^ 2 + 1 y_9_ ^ 2 - 2 y_11_ * y_9_ + 1 y_11_ ^ 2 ] >= 3129.39
quadratic_ranged_19_lb: [ 1 x_10_ ^ 2 - 2 x_11_ * x_10_ + 1 x_11_ ^ 2 + 1 y_10_ ^ 2 - 2 y_11_ * y_10_ + 1 y_11_ ^ 2 ] >= 7378.47
quadratic_ranged_20_lb: [ 1 x_11_ ^ 2 - 2 x_12_ * x_11_ + 1 x_12_ ^ 2 + 1 y_11_ ^ 2 - 2 y_12_ * y_11_ + 1 y_12_ ^ 2 ] >= 2032.47
quadratic_ranged_21_lb: [ 1 x_2_ ^ 2 - 2 x_13_ * x_2_ + 1 x_13_ ^ 2 + 1 y_2_ ^ 2 - 2 y_13_ * y_2_ + 1 y_13_ ^ 2 ] >= 11634.48
quadratic_ranged_22_lb: [ 1 x_10_ ^ 2 - 2 x_13_ * x_10_ + 1 x_13_ ^ 2 + 1 y_10_ ^ 2 - 2 y_13_ * y_10_ + 1 y_13_ ^ 2 ] >= 2475
quadratic_ranged_23_lb: [ 1 x_12_ ^ 2 - 2 x_13_ * x_12_ + 1 x_13_ ^ 2 + 1 y_12_ ^ 2 - 2 y_13_ * y_12_ + 1 y_13_ ^ 2 ] >= 9276.3
quadratic_ranged_24_lb: [ 1 x_1_ ^ 2 - 2 x_14_ * x_1_ + 1 x_14_ ^ 2 + 1 y_1_ ^ 2 - 2 y_14_ * y_1_ + 1 y_14_ ^ 2 ] >= 16122.15
quadratic_ranged_25_lb: [ 1 x_7_ ^ 2 - 2 x_14_ * x_7_ + 1 x_14_ ^ 2 + 1 y_7_ ^ 2 - 2 y_14_ * y_7_ + 1 y_14_ ^ 2 ] >= 22161.15
quadratic_ranged_26_lb: [ 1 x_10_ ^ 2 - 2 x_14_ * x_10_ + 1 x_14_ ^ 2 + 1 y_10_ ^ 2 - 2 y_14_ * y_10_ + 1 y_14_ ^ 2 ] >= 10099.98
quadratic_ranged_27_lb: [ 1 x_13_ ^ 2 - 2 x_14_ * x_13_ + 1 x_14_ ^ 2 + 1 y_13_ ^ 2 - 2 y_14_ * y_13_ + 1 y_14_ ^ 2 ] >= 9680.22
quadratic_ranged_28_lb: [ 1 x_14_ ^ 2 - 2 x_15_ * x_14_ + 1 x_15_ ^ 2 + 1 y_14_ ^ 2 - 2 y_15_ * y_14_ + 1 y_15_ ^ 2 ] >= 9603
quadratic_ranged_29_lb: [ 1 x_15_ ^ 2 - 2 x_16_ * x_15_ + 1 x_16_ ^ 2 + 1 y_15_ ^ 2 - 2 y_16_ * y_15_ + 1 y_16_ ^ 2 ] >= 19332.72
quadratic_ranged_30_lb: [ 1 x_16_ ^ 2 - 2 x_17_ * x_16_ + 1 x_17_ ^ 2 + 1 y_16_ ^ 2 - 2 y_17_ * y_16_ + 1 y_17_ ^ 2 ] >= 11786.94
quadratic_ranged_31_lb: [ 1 x_8_ ^ 2 - 2 x_18_ * x_8_ + 1 x_18_ ^ 2 + 1 y_8_ ^ 2 - 2 y_18_ * y_8_ + 1 y_18_ ^ 2 ] >= 14883.66
quadratic_ranged_32_lb: [ 1 x_9_ ^ 2 - 2 x_18_ * x_9_ + 1 x_18_ ^ 2 + 1 y_9_ ^ 2 - 2 y_18_ * y_9_ + 1 y_18_ ^ 2 ] >= 9508.95
quadratic_ranged_33_lb: [ 1 x_17_ ^ 2 - 2 x_18_ * x_17_ + 1 x_18_ ^ 2 + 1 y_17_ ^ 2 - 2 y_18_ * y_17_ + 1 y_18_ ^ 2 ] >= 11785.95
quadratic_ranged_34_lb: [ 1 x_4_ ^ 2 - 2 x_19_ * x_4_ + 1 x_19_ ^ 2 + 1 y_4_ ^ 2 - 2 y_19_ * y_4_ + 1 y_19_ ^ 2 ] >= 15857.82
quadratic_ranged_35_lb: [ 1 x_9_ ^ 2 - 2 x_19_ * x_9_ + 1 x_19_ ^ 2 + 1 y_9_ ^ 2 - 2 y_19_ * y_9_ + 1 y_19_ ^ 2 ] >= 5949.9
quadratic_ranged_36_lb: [ 1 x_11_ ^ 2 - 2 x_19_ * x_11_ + 1 x_19_ ^ 2 + 1 y_11_ ^ 2 - 2 y_19_ * y_11_ + 1 y_19_ ^ 2 ] >= 630.63
quadratic_ranged_37_lb: [ 1 x_16_ ^ 2 - 2 x_19_ * x_16_ + 1 x_19_ ^ 2 + 1 y_16_ ^ 2 - 2 y_19_ * y_16_ + 1 y_19_ ^ 2 ] >= 23985.72
quadratic_ranged_38_lb: [ 1 x_18_ ^ 2 - 2 x_19_ * x_18_ + 1 x_19_ ^ 2 + 1 y_18_ ^ 2 - 2 y_19_ * y_18_ + 1 y_19_ ^ 2 ] >= 17357.67
quadratic_ranged_39_lb: [ 1 x_19_ ^ 2 - 2 x_20_ * x_19_ + 1 x_20_ ^ 2 + 1 y_19_ ^ 2 - 2 y_20_ * y_19_ + 1 y_20_ ^ 2 ] >= 2202.75
quadratic_ranged_40_lb: [ 1 x_18_ ^ 2 - 2 x_21_ * x_18_ + 1 x_21_ ^ 2 + 1 y_18_ ^ 2 - 2 y_21_ * y_18_ + 1 y_21_ ^ 2 ] >= 21726.54
quadratic_ranged_41_lb: [ 1 x_20_ ^ 2 - 2 x_21_ * x_20_ + 1 x_21_ ^ 2 + 1 y_20_ ^ 2 - 2 y_21_ * y_20_ + 1 y_21_ ^ 2 ] >= 5132.16
quadratic_ranged_42_lb: [ 1 x_12_ ^ 2 - 2 x_22_ * x_12_ + 1 x_22_ ^ 2 + 1 y_12_ ^ 2 - 2 y_22_ * y_12_ + 1 y_22_ ^ 2 ] >= 25178.67
quadratic_ranged_43_lb: [ 1 x_14_ ^ 2 - 2 x_22_ * x_14_ + 1 x_22_ ^ 2 + 1 y_14_ ^ 2 - 2 y_22_ * y_14_ + 1 y_22_ ^ 2 ] >= 27447.75
quadratic_ranged_44_lb: [ 1 x_15_ ^ 2 - 2 x_22_ * x_15_ + 1 x_22_ ^ 2 + 1 y_15_ ^ 2 - 2 y_22_ * y_15_ + 1 y_22_ ^ 2 ] >= 7548.75
quadratic_ranged_45_lb: [ 1 x_21_ ^ 2 - 2 x_22_ * x_21_ + 1 x_22_ ^ 2 + 1 y_21_ ^ 2 - 2 y_22_ * y_21_ + 1 y_22_ ^ 2 ] >= 21304.8
quadratic_ranged_46_lb: [ 1 x_10_ ^ 2 - 2 x_23_ * x_10_ + 1 x_23_ ^ 2 + 1 y_10_ ^ 2 - 2 y_23_ * y_10_ + 1 y_23_ ^ 2 ] >= 13924.35
quadratic_ranged_47_lb: [ 1 x_15_ ^ 2 - 2 x_23_ * x_15_ + 1 x_23_ ^ 2 + 1 y_15_ ^ 2 - 2 y_23_ * y_15_ + 1 y_23_ ^ 2 ] >= 8986.23
quadratic_ranged_48_lb: [ 1 x_22_ ^ 2 - 2 x_23_ * x_22_ + 1 x_23_ ^ 2 + 1 y_22_ ^ 2 - 2 y_23_ * y_22_ + 1 y_23_ ^ 2 ] >= 30913.739999999998
quadratic_ranged_49_lb: [ 1 x_3_ ^ 2 - 2 x_24_ * x_3_ + 1 x_24_ ^ 2 + 1 y_3_ ^ 2 - 2 y_24_ * y_3_ + 1 y_24_ ^ 2 ] >= 5374.71
quadratic_ranged_50_lb: [ 1 x_11_ ^ 2 - 2 x_24_ * x_11_ + 1 x_24_ ^ 2 + 1 y_11_ ^ 2 - 2 y_24_ * y_11_ + 1 y_24_ ^ 2 ] >= 9222.84
quadratic_ranged_51_lb: [ 1 x_23_ ^ 2 - 2 x_24_ * x_23_ + 1 x_24_ ^ 2 + 1 y_23_ ^ 2 - 2 y_24_ * y_23_ + 1 y_24_ ^ 2 ] >= 2100.78
quadratic_ranged_52_lb: [ 1 x_9_ ^ 2 - 2 x_25_ * x_9_ + 1 x_25_ ^ 2 + 1 y_9_ ^ 2 - 2 y_25_ * y_9_ + 1 y_25_ ^ 2 ] >= 16993.35
quadratic_ranged_53_lb: [ 1 x_24_ ^ 2 - 2 x_25_ * x_24_ + 1 x_25_ ^ 2 + 1 y_24_ ^ 2 - 2 y_25_ * y_24_ + 1 y_25_ ^ 2 ] >= 4967.82
quadratic_ranged_54_lb: [ 1 x_8_ ^ 2 - 2 x_26_ * x_8_ + 1 x_26_ ^ 2 + 1 y_8_ ^ 2 - 2 y_26_ * y_8_ + 1 y_26_ ^ 2 ] >= 24117.39
quadratic_ranged_55_lb: [ 1 x_10_ ^ 2 - 2 x_26_ * x_10_ + 1 x_26_ ^ 2 + 1 y_10_ ^ 2 - 2 y_26_ * y_10_ + 1 y_26_ ^ 2 ] >= 11729.52
quadratic_ranged_56_lb: [ 1 x_15_ ^ 2 - 2 x_26_ * x_15_ + 1 x_26_ ^ 2 + 1 y_15_ ^ 2 - 2 y_26_ * y_15_ + 1 y_26_ ^ 2 ] >= 9537.66
quadratic_ranged_57_lb: [ 1 x_17_ ^ 2 - 2 x_26_ * x_17_ + 1 x_26_ ^ 2 + 1 y_17_ ^ 2 - 2 y_26_ * y_17_ + 1 y_26_ ^ 2 ] >= 49737.6
quadratic_ranged_58_lb: [ 1 x_20_ ^ 2 - 2 x_26_ * x_20_ + 1 x_26_ ^ 2 + 1 y_20_ ^ 2 - 2 y_26_ * y_20_ + 1 y_26_ ^ 2 ] >= 1228.59
quadratic_ranged_59_lb: [ 1 x_25_ ^ 2 - 2 x_26_ * x_25_ + 1 x_26_ ^ 2 + 1 y_25_ ^ 2 - 2 y_26_ * y_25_ + 1 y_26_ ^ 2 ] >= 34302.51
quadratic_ranged_60_lb: [ 1 x_1_ ^ 2 - 2 x_27_ * x_1_ + 1 x_27_ ^ 2 + 1 y_1_ ^ 2 - 2 y_27_ * y_1_ + 1 y_27_ ^ 2 ] >= 2154.24
quadratic_ranged_61_lb: [ 1 x_13_ ^ 2 - 2 x_27_ * x_13_ + 1 x_27_ ^ 2 + 1 y_13_ ^ 2 - 2 y_27_ * y_13_ + 1 y_27_ ^ 2 ] >= 6974.55
quadratic_ranged_62_lb: [ 1 x_20_ ^ 2 - 2 x_27_ * x_20_ + 1 x_27_ ^ 2 + 1 y_20_ ^ 2 - 2 y_27_ * y_20_ + 1 y_27_ ^ 2 ] >= 13149.18
quadratic_ranged_63_lb: [ 1 x_21_ ^ 2 - 2 x_27_ * x_21_ + 1 x_27_ ^ 2 + 1 y_21_ ^ 2 - 2 y_27_ * y_21_ + 1 y_27_ ^ 2 ] >= 26692.38
quadratic_ranged_64_lb: [ 1 x_22_ ^ 2 - 2 x_27_ * x_22_ + 1 x_27_ ^ 2 + 1 y_22_ ^ 2 - 2 y_27_ * y_22_ + 1 y_27_ ^ 2 ] >= 27032.94
quadratic_ranged_65_lb: [ 1 x_26_ ^ 2 - 2 x_27_ * x_26_ + 1 x_27_ ^ 2 + 1 y_26_ ^ 2 - 2 y_27_ * y_26_ + 1 y_27_ ^ 2 ] >= 21685.95
quadratic_ranged_66_lb: [ 1 x_13_ ^ 2 - 2 x_28_ * x_13_ + 1 x_28_ ^ 2 + 1 y_13_ ^ 2 - 2 y_28_ * y_13_ + 1 y_28_ ^ 2 ] >= 6850.8
quadratic_ranged_67_lb: [ 1 x_16_ ^ 2 - 2 x_28_ * x_16_ + 1 x_28_ ^ 2 + 1 y_16_ ^ 2 - 2 y_28_ * y_16_ + 1 y_28_ ^ 2 ] >= 37194.3
quadratic_ranged_68_lb: [ 1 x_27_ ^ 2 - 2 x_28_ * x_27_ + 1 x_28_ ^ 2 + 1 y_27_ ^ 2 - 2 y_28_ * y_27_ + 1 y_28_ ^ 2 ] >= 22921.47
quadratic_ranged_69_lb: [ 1 x_2_ ^ 2 - 2 x_29_ * x_2_ + 1 x_29_ ^ 2 + 1 y_2_ ^ 2 - 2 y_29_ * y_2_ + 1 y_29_ ^ 2 ] >= 16540.92
quadratic_ranged_70_lb: [ 1 x_6_ ^ 2 - 2 x_29_ * x_6_ + 1 x_29_ ^ 2 + 1 y_6_ ^ 2 - 2 y_29_ * y_6_ + 1 y_29_ ^ 2 ] >= 8403.12
quadratic_ranged_71_lb: [ 1 x_23_ ^ 2 - 2 x_29_ * x_23_ + 1 x_29_ ^ 2 + 1 y_23_ ^ 2 - 2 y_29_ * y_23_ + 1 y_29_ ^ 2 ] >= 1371.15
quadratic_ranged_72_lb: [ 1 x_25_ ^ 2 - 2 x_29_ * x_25_ + 1 x_29_ ^ 2 + 1 y_25_ ^ 2 - 2 y_29_ * y_25_ + 1 y_29_ ^ 2 ] >= 17468.55
quadratic_ranged_73_lb: [ 1 x_28_ ^ 2 - 2 x_29_ * x_28_ + 1 x_29_ ^ 2 + 1 y_28_ ^ 2 - 2 y_29_ * y_28_ + 1 y_29_ ^ 2 ] >= 29862.36
quadratic_ranged_74_lb: [ 1 x_24_ ^ 2 - 2 x_30_ * x_24_ + 1 x_30_ ^ 2 + 1 y_24_ ^ 2 - 2 y_30_ * y_24_ + 1 y_30_ ^ 2 ] >= 13868.91
quadratic_ranged_75_lb: [ 1 x_29_ ^ 2 - 2 x_30_ * x_29_ + 1 x_30_ ^ 2 + 1 y_29_ ^ 2 - 2 y_30_ * y_29_ + 1 y_30_ ^ 2 ] >= 30527.64
quadratic_ranged_76_lb: [ 1 x_7_ ^ 2 - 2 x_31_ * x_7_ + 1 x_31_ ^ 2 + 1 y_7_ ^ 2 - 2 y_31_ * y_7_ + 1 y_31_ ^ 2 ] >= 4729.23
quadratic_ranged_77_lb: [ 1 x_14_ ^ 2 - 2 x_31_ * x_14_ + 1 x_31_ ^ 2 + 1 y_14_ ^ 2 - 2 y_31_ * y_14_ + 1 y_31_ ^ 2 ] >= 13909.5
quadratic_ranged_78_lb: [ 1 x_17_ ^ 2 - 2 x_31_ * x_17_ + 1 x_31_ ^ 2 + 1 y_17_ ^ 2 - 2 y_31_ * y_17_ + 1 y_31_ ^ 2 ] >= 25415.28
quadratic_ranged_79_lb: [ 1 x_30_ ^ 2 - 2 x_31_ * x_30_ + 1 x_31_ ^ 2 + 1 y_30_ ^ 2 - 2 y_31_ * y_30_ + 1 y_31_ ^ 2 ] >= 2110.68
quadratic_ranged_80_lb: [ 1 x_2_ ^ 2 - 2 x_32_ * x_2_ + 1 x_32_ ^ 2 + 1 y_2_ ^ 2 - 2 y_32_ * y_2_ + 1 y_32_ ^ 2 ] >= 33996.6
quadratic_ranged_81_lb: [ 1 x_9_ ^ 2 - 2 x_32_ * x_9_ + 1 x_32_ ^ 2 + 1 y_9_ ^ 2 - 2 y_32_ * y_9_ + 1 y_32_ ^ 2 ] >= 3488.7599999999998
quadratic_ranged_82_lb: [ 1 x_15_ ^ 2 - 2 x_32_ * x_15_ + 1 x_32_ ^ 2 + 1 y_15_ ^ 2 - 2 y_32_ * y_15_ + 1 y_32_ ^ 2 ] >= 4041.18
quadratic_ranged_83_lb: [ 1 x_21_ ^ 2 - 2 x_32_ * x_21_ + 1 x_32_ ^ 2 + 1 y_21_ ^ 2 - 2 y_32_ * y_21_ + 1 y_32_ ^ 2 ] >= 943.47
quadratic_ranged_84_lb: [ 1 x_31_ ^ 2 - 2 x_32_ * x_31_ + 1 x_32_ ^ 2 + 1 y_31_ ^ 2 - 2 y_32_ * y_31_ + 1 y_32_ ^ 2 ] >= 6280.5599999999995
quadratic_ranged_85_lb: [ 1 x_5_ ^ 2 - 2 x_33_ * x_5_ + 1 x_33_ ^ 2 + 1 y_5_ ^ 2 - 2 y_33_ * y_5_ + 1 y_33_ ^ 2 ] >= 2237.4
quadratic_ranged_86_lb: [ 1 x_8_ ^ 2 - 2 x_33_ * x_8_ + 1 x_33_ ^ 2 + 1 y_8_ ^ 2 - 2 y_33_ * y_8_ + 1 y_33_ ^ 2 ] >= 9271.35
quadratic_ranged_87_lb: [ 1 x_17_ ^ 2 - 2 x_33_ * x_17_ + 1 x_33_ ^ 2 + 1 y_17_ ^ 2 - 2 y_33_ * y_17_ + 1 y_33_ ^ 2 ] >= 38827.8
quadratic_ranged_88_lb: [ 1 x_26_ ^ 2 - 2 x_33_ * x_26_ + 1 x_33_ ^ 2 + 1 y_26_ ^ 2 - 2 y_33_ * y_26_ + 1 y_33_ ^ 2 ] >= 4581.72
quadratic_ranged_89_lb: [ 1 x_32_ ^ 2 - 2 x_33_ * x_32_ + 1 x_33_ ^ 2 + 1 y_32_ ^ 2 - 2 y_33_ * y_32_ + 1 y_33_ ^ 2 ] >= 970.2
quadratic_ranged_90_lb: [ 1 x_1_ ^ 2 - 2 x_34_ * x_1_ + 1 x_34_ ^ 2 + 1 y_1_ ^ 2 - 2 y_34_ * y_1_ + 1 y_34_ ^ 2 ] >= 14221.35
quadratic_ranged_91_lb: [ 1 x_23_ ^ 2 - 2 x_34_ * x_23_ + 1 x_34_ ^ 2 + 1 y_23_ ^ 2 - 2 y_34_ * y_23_ + 1 y_34_ ^ 2 ] >= 18003.15
quadratic_ranged_92_lb: [ 1 x_26_ ^ 2 - 2 x_34_ * x_26_ + 1 x_34_ ^ 2 + 1 y_26_ ^ 2 - 2 y_34_ * y_26_ + 1 y_34_ ^ 2 ] >= 15796.44
quadratic_ranged_93_lb: [ 1 x_30_ ^ 2 - 2 x_34_ * x_30_ + 1 x_34_ ^ 2 + 1 y_30_ ^ 2 - 2 y_34_ * y_30_ + 1 y_34_ ^ 2 ] >= 396
quadratic_ranged_94_lb: [ 1 x_33_ ^ 2 - 2 x_34_ * x_33_ + 1 x_34_ ^ 2 + 1 y_33_ ^ 2 - 2 y_34_ * y_33_ + 1 y_34_ ^ 2 ] >= 3366
quadratic_ranged_95_lb: [ 1 x_7_ ^ 2 - 2 x_35_ * x_7_ + 1 x_35_ ^ 2 + 1 y_7_ ^ 2 - 2 y_35_ * y_7_ + 1 y_35_ ^ 2 ] >= 7357.68
quadratic_ranged_96_lb: [ 1 x_13_ ^ 2 - 2 x_35_ * x_13_ + 1 x_35_ ^ 2 + 1 y_13_ ^ 2 - 2 y_35_ * y_13_ + 1 y_35_ ^ 2 ] >= 3889.71
quadratic_ranged_97_lb: [ 1 x_15_ ^ 2 - 2 x_35_ * x_15_ + 1 x_35_ ^ 2 + 1 y_15_ ^ 2 - 2 y_35_ * y_15_ + 1 y_35_ ^ 2 ] >= 7247.79
quadratic_ranged_98_lb: [ 1 x_20_ ^ 2 - 2 x_35_ * x_20_ + 1 x_35_ ^ 2 + 1 y_20_ ^ 2 - 2 y_35_ * y_20_ + 1 y_35_ ^ 2 ] >= 506.88
quadratic_ranged_99_lb: [ 1 x_27_ ^ 2 - 2 x_35_ * x_27_ + 1 x_35_ ^ 2 + 1 y_27_ ^ 2 - 2 y_35_ * y_27_ + 1 y_35_ ^ 2 ] >= 8650.62
quadratic_ranged_100_lb: [ 1 x_32_ ^ 2 - 2 x_35_ * x_32_ + 1 x_35_ ^ 2 + 1 y_32_ ^ 2 - 2 y_35_ * y_32_ + 1 y_35_ ^ 2 ] >= 10241.55
quadratic_ranged_101_lb: [ 1 x_33_ ^ 2 - 2 x_35_ * x_33_ + 1 x_35_ ^ 2 + 1 y_33_ ^ 2 - 2 y_35_ * y_33_ + 1 y_35_ ^ 2 ] >= 5944.95
quadratic_ranged_102_lb: [ 1 x_34_ ^ 2 - 2 x_35_ * x_34_ + 1 x_35_ ^ 2 + 1 y_34_ ^ 2 - 2 y_35_ * y_34_ + 1 y_35_ ^ 2 ] >= 15270.75
quadratic_ranged_103_lb: [ 1 x_3_ ^ 2 - 2 x_36_ * x_3_ + 1 x_36_ ^ 2 + 1 y_3_ ^ 2 - 2 y_36_ * y_3_ + 1 y_36_ ^ 2 ] >= 35573.67
quadratic_ranged_104_lb: [ 1 x_17_ ^ 2 - 2 x_36_ * x_17_ + 1 x_36_ ^ 2 + 1 y_17_ ^ 2 - 2 y_36_ * y_17_ + 1 y_36_ ^ 2 ] >= 58711.95
quadratic_ranged_105_lb: [ 1 x_20_ ^ 2 - 2 x_36_ * x_20_ + 1 x_36_ ^ 2 + 1 y_20_ ^ 2 - 2 y_36_ * y_20_ + 1 y_36_ ^ 2 ] >= 7729.92
quadratic_ranged_106_lb: [ 1 x_27_ ^ 2 - 2 x_36_ * x_27_ + 1 x_36_ ^ 2 + 1 y_27_ ^ 2 - 2 y_36_ * y_27_ + 1 y_36_ ^ 2 ] >= 29591.1
quadratic_ranged_107_lb: [ 1 x_35_ ^ 2 - 2 x_36_ * x_35_ + 1 x_36_ ^ 2 + 1 y_35_ ^ 2 - 2 y_36_ * y_35_ + 1 y_36_ ^ 2 ] >= 10771.2
quadratic_ranged_108_lb: [ 1 x_4_ ^ 2 - 2 x_37_ * x_4_ + 1 x_37_ ^ 2 + 1 y_4_ ^ 2 - 2 y_37_ * y_4_ + 1 y_37_ ^ 2 ] >= 16065.72
quadratic_ranged_109_lb: [ 1 x_10_ ^ 2 - 2 x_37_ * x_10_ + 1 x_37_ ^ 2 + 1 y_10_ ^ 2 - 2 y_37_ * y_10_ + 1 y_37_ ^ 2 ] >= 11721.6
quadratic_ranged_110_lb: [ 1 x_16_ ^ 2 - 2 x_37_ * x_16_ + 1 x_37_ ^ 2 + 1 y_16_ ^ 2 - 2 y_37_ * y_16_ + 1 y_37_ ^ 2 ] >= 22344.3
quadratic_ranged_111_lb: [ 1 x_19_ ^ 2 - 2 x_37_ * x_19_ + 1 x_37_ ^ 2 + 1 y_19_ ^ 2 - 2 y_37_ * y_19_ + 1 y_37_ ^ 2 ] >= 104.94
quadratic_ranged_112_lb: [ 1 x_36_ ^ 2 - 2 x_37_ * x_36_ + 1 x_37_ ^ 2 + 1 y_36_ ^ 2 - 2 y_37_ * y_36_ + 1 y_37_ ^ 2 ] >= 3671.91
quadratic_ranged_113_lb: [ 1 x_20_ ^ 2 - 2 x_38_ * x_20_ + 1 x_38_ ^ 2 + 1 y_20_ ^ 2 - 2 y_38_ * y_20_ + 1 y_38_ ^ 2 ] >= 11805.75
quadratic_ranged_114_lb: [ 1 x_29_ ^ 2 - 2 x_38_ * x_29_ + 1 x_38_ ^ 2 + 1 y_29_ ^ 2 - 2 y_38_ * y_29_ + 1 y_38_ ^ 2 ] >= 16790.4
quadratic_ranged_115_lb: [ 1 x_37_ ^ 2 - 2 x_38_ * x_37_ + 1 x_38_ ^ 2 + 1 y_37_ ^ 2 - 2 y_38_ * y_37_ + 1 y_38_ ^ 2 ] >= 15238.08
quadratic_ranged_116_lb: [ 1 x_4_ ^ 2 - 2 x_39_ * x_4_ + 1 x_39_ ^ 2 + 1 y_4_ ^ 2 - 2 y_39_ * y_4_ + 1 y_39_ ^ 2 ] >= 11168.19
quadratic_ranged_117_lb: [ 1 x_9_ ^ 2 - 2 x_39_ * x_9_ + 1 x_39_ ^ 2 + 1 y_9_ ^ 2 - 2 y_39_ * y_9_ + 1 y_39_ ^ 2 ] >= 5727.15
quadratic_ranged_118_lb: [ 1 x_23_ ^ 2 - 2 x_39_ * x_23_ + 1 x_39_ ^ 2 + 1 y_23_ ^ 2 - 2 y_39_ * y_23_ + 1 y_39_ ^ 2 ] >= 4957.92
quadratic_ranged_119_lb: [ 1 x_38_ ^ 2 - 2 x_39_ * x_38_ + 1 x_39_ ^ 2 + 1 y_38_ ^ 2 - 2 y_39_ * y_38_ + 1 y_39_ ^ 2 ] >= 13480.83
quadratic_ranged_120_lb: [ 1 x_4_ ^ 2 - 2 x_40_ * x_4_ + 1 x_40_ ^ 2 + 1 y_4_ ^ 2 - 2 y_40_ * y_4_ + 1 y_40_ ^ 2 ] >= 19626.75
quadratic_ranged_121_lb: [ 1 x_39_ ^ 2 - 2 x_40_ * x_39_ + 1 x_40_ ^ 2 + 1 y_39_ ^ 2 - 2 y_40_ * y_39_ + 1 y_40_ ^ 2 ] >= 7573.5
quadratic_ranged_122_lb: [ 1 x_3_ ^ 2 - 2 x_41_ * x_3_ + 1 x_41_ ^ 2 + 1 y_3_ ^ 2 - 2 y_41_ * y_3_ + 1 y_41_ ^ 2 ] >= 8658.539999999999
quadratic_ranged_123_lb: [ 1 x_20_ ^ 2 - 2 x_41_ * x_20_ + 1 x_41_ ^ 2 + 1 y_20_ ^ 2 - 2 y_41_ * y_20_ + 1 y_41_ ^ 2 ] >= 9980.19
quadratic_ranged_124_lb: [ 1 x_30_ ^ 2 - 2 x_41_ * x_30_ + 1 x_41_ ^ 2 + 1 y_30_ ^ 2 - 2 y_41_ * y_30_ + 1 y_41_ ^ 2 ] >= 10042.56
quadratic_ranged_125_lb: [ 1 x_31_ ^ 2 - 2 x_41_ * x_31_ + 1 x_41_ ^ 2 + 1 y_31_ ^ 2 - 2 y_41_ * y_31_ + 1 y_41_ ^ 2 ] >= 3108.6
quadratic_ranged_126_lb: [ 1 x_37_ ^ 2 - 2 x_41_ * x_37_ + 1 x_41_ ^ 2 + 1 y_37_ ^ 2 - 2 y_41_ * y_37_ + 1 y_41_ ^ 2 ] >= 16651.8
quadratic_ranged_127_lb: [ 1 x_38_ ^ 2 - 2 x_41_ * x_38_ + 1 x_41_ ^ 2 + 1 y_38_ ^ 2 - 2 y_41_ * y_38_ + 1 y_41_ ^ 2 ] >= 2284.92
quadratic_ranged_128_lb: [ 1 x_40_ ^ 2 - 2 x_41_ * x_40_ + 1 x_41_ ^ 2 + 1 y_40_ ^ 2 - 2 y_41_ * y_40_ + 1 y_41_ ^ 2 ] >= 19602.99
quadratic_ranged_129_lb: [ 1 x_13_ ^ 2 - 2 x_42_ * x_13_ + 1 x_42_ ^ 2 + 1 y_13_ ^ 2 - 2 y_42_ * y_13_ + 1 y_42_ ^ 2 ] >= 8910
quadratic_ranged_130_lb: [ 1 x_14_ ^ 2 - 2 x_42_ * x_14_ + 1 x_42_ ^ 2 + 1 y_14_ ^ 2 - 2 y_42_ * y_14_ + 1 y_42_ ^ 2 ] >= 35150.94
quadratic_ranged_131_lb: [ 1 x_41_ ^ 2 - 2 x_42_ * x_41_ + 1 x_42_ ^ 2 + 1 y_41_ ^ 2 - 2 y_42_ * y_41_ + 1 y_42_ ^ 2 ] >= 2954.16
quadratic_ranged_132_lb: [ 1 x_1_ ^ 2 - 2 x_43_ * x_1_ + 1 x_43_ ^ 2 + 1 y_1_ ^ 2 - 2 y_43_ * y_1_ + 1 y_43_ ^ 2 ] >= 4540.14
quadratic_ranged_133_lb: [ 1 x_22_ ^ 2 - 2 x_43_ * x_22_ + 1 x_43_ ^ 2 + 1 y_22_ ^ 2 - 2 y_43_ * y_22_ + 1 y_43_ ^ 2 ] >= 13717.44
quadratic_ranged_134_lb: [ 1 x_27_ ^ 2 - 2 x_43_ * x_27_ + 1 x_43_ ^ 2 + 1 y_27_ ^ 2 - 2 y_43_ * y_27_ + 1 y_43_ ^ 2 ] >= 2449.2599999999998
quadratic_ranged_135_lb: [ 1 x_28_ ^ 2 - 2 x_43_ * x_28_ + 1 x_43_ ^ 2 + 1 y_28_ ^ 2 - 2 y_43_ * y_28_ + 1 y_43_ ^ 2 ] >= 12082.95
quadratic_ranged_136_lb: [ 1 x_30_ ^ 2 - 2 x_43_ * x_30_ + 1 x_43_ ^ 2 + 1 y_30_ ^ 2 - 2 y_43_ * y_30_ + 1 y_43_ ^ 2 ] >= 11477.07
quadratic_ranged_137_lb: [ 1 x_42_ ^ 2 - 2 x_43_ * x_42_ + 1 x_43_ ^ 2 + 1 y_42_ ^ 2 - 2 y_43_ * y_42_ + 1 y_43_ ^ 2 ] >= 1834.47
quadratic_ranged_138_lb: [ 1 x_11_ ^ 2 - 2 x_44_ * x_11_ + 1 x_44_ ^ 2 + 1 y_11_ ^ 2 - 2 y_44_ * y_11_ + 1 y_44_ ^ 2 ] >= 3900.6
quadratic_ranged_139_lb: [ 1 x_14_ ^ 2 - 2 x_44_ * x_14_ + 1 x_44_ ^ 2 + 1 y_14_ ^ 2 - 2 y_44_ * y_14_ + 1 y_44_ ^ 2 ] >= 10059.39
quadratic_ranged_140_lb: [ 1 x_22_ ^ 2 - 2 x_44_ * x_22_ + 1 x_44_ ^ 2 + 1 y_22_ ^ 2 - 2 y_44_ * y_22_ + 1 y_44_ ^ 2 ] >= 15404.4
quadratic_ranged_141_lb: [ 1 x_26_ ^ 2 - 2 x_44_ * x_26_ + 1 x_44_ ^ 2 + 1 y_26_ ^ 2 - 2 y_44_ * y_26_ + 1 y_44_ ^ 2 ] >= 7180.47
quadratic_ranged_142_lb: [ 1 x_31_ ^ 2 - 2 x_44_ * x_31_ + 1 x_44_ ^ 2 + 1 y_31_ ^ 2 - 2 y_44_ * y_31_ + 1 y_44_ ^ 2 ] >= 2947.23
quadratic_ranged_143_lb: [ 1 x_43_ ^ 2 - 2 x_44_ * x_43_ + 1 x_44_ ^ 2 + 1 y_43_ ^ 2 - 2 y_44_ * y_43_ + 1 y_44_ ^ 2 ] >= 4284.72
quadratic_ranged_144_lb: [ 1 x_23_ ^ 2 - 2 x_45_ * x_23_ + 1 x_45_ ^ 2 + 1 y_23_ ^ 2 - 2 y_45_ * y_23_ + 1 y_45_ ^ 2 ] >= 12769.02
quadratic_ranged_145_lb: [ 1 x_25_ ^ 2 - 2 x_45_ * x_25_ + 1 x_45_ ^ 2 + 1 y_25_ ^ 2 - 2 y_45_ * y_25_ + 1 y_45_ ^ 2 ] >= 13077.9
quadratic_ranged_146_lb: [ 1 x_31_ ^ 2 - 2 x_45_ * x_31_ + 1 x_45_ ^ 2 + 1 y_31_ ^ 2 - 2 y_45_ * y_31_ + 1 y_45_ ^ 2 ] >= 345.51
quadratic_ranged_147_lb: [ 1 x_40_ ^ 2 - 2 x_45_ * x_40_ + 1 x_45_ ^ 2 + 1 y_40_ ^ 2 - 2 y_45_ * y_40_ + 1 y_45_ ^ 2 ] >= 15602.4
quadratic_ranged_148_lb: [ 1 x_44_ ^ 2 - 2 x_45_ * x_44_ + 1 x_45_ ^ 2 + 1 y_44_ ^ 2 - 2 y_45_ * y_44_ + 1 y_45_ ^ 2 ] >= 4169.88
quadratic_ranged_149_lb: [ 1 x_29_ ^ 2 - 2 x_46_ * x_29_ + 1 x_46_ ^ 2 + 1 y_29_ ^ 2 - 2 y_46_ * y_29_ + 1 y_46_ ^ 2 ] >= 3770.91
quadratic_ranged_150_lb: [ 1 x_34_ ^ 2 - 2 x_46_ * x_34_ + 1 x_46_ ^ 2 + 1 y_34_ ^ 2 - 2 y_46_ * y_34_ + 1 y_46_ ^ 2 ] >= 23226.39
quadratic_ranged_151_lb: [ 1 x_35_ ^ 2 - 2 x_46_ * x_35_ + 1 x_46_ ^ 2 + 1 y_35_ ^ 2 - 2 y_46_ * y_35_ + 1 y_46_ ^ 2 ] >= 2669.04
quadratic_ranged_152_lb: [ 1 x_44_ ^ 2 - 2 x_46_ * x_44_ + 1 x_46_ ^ 2 + 1 y_44_ ^ 2 - 2 y_46_ * y_44_ + 1 y_46_ ^ 2 ] >= 9187.2
quadratic_ranged_153_lb: [ 1 x_45_ ^ 2 - 2 x_46_ * x_45_ + 1 x_46_ ^ 2 + 1 y_45_ ^ 2 - 2 y_46_ * y_45_ + 1 y_46_ ^ 2 ] >= 24191.64
quadratic_ranged_154_lb: [ 1 x_19_ ^ 2 - 2 x_47_ * x_19_ + 1 x_47_ ^ 2 + 1 y_19_ ^ 2 - 2 y_47_ * y_19_ + 1 y_47_ ^ 2 ] >= 2837.34
quadratic_ranged_155_lb: [ 1 x_22_ ^ 2 - 2 x_47_ * x_22_ + 1 x_47_ ^ 2 + 1 y_22_ ^ 2 - 2 y_47_ * y_22_ + 1 y_47_ ^ 2 ] >= 20474.19
quadratic_ranged_156_lb: [ 1 x_43_ ^ 2 - 2 x_47_ * x_43_ + 1 x_47_ ^ 2 + 1 y_43_ ^ 2 - 2 y_47_ * y_43_ + 1 y_47_ ^ 2 ] >= 10075.23
quadratic_ranged_157_lb: [ 1 x_44_ ^ 2 - 2 x_47_ * x_44_ + 1 x_47_ ^ 2 + 1 y_44_ ^ 2 - 2 y_47_ * y_44_ + 1 y_47_ ^ 2 ] >= 1224.6299999999999
quadratic_ranged_158_lb: [ 1 x_46_ ^ 2 - 2 x_47_ * x_46_ + 1 x_47_ ^ 2 + 1 y_46_ ^ 2 - 2 y_47_ * y_46_ + 1 y_47_ ^ 2 ] >= 4091.67
quadratic_ranged_159_lb: [ 1 x_3_ ^ 2 - 2 x_48_ * x_3_ + 1 x_48_ ^ 2 + 1 y_3_ ^ 2 - 2 y_48_ * y_3_ + 1 y_48_ ^ 2 ] >= 17758.62
quadratic_ranged_160_lb: [ 1 x_4_ ^ 2 - 2 x_48_ * x_4_ + 1 x_48_ ^ 2 + 1 y_4_ ^ 2 - 2 y_48_ * y_4_ + 1 y_48_ ^ 2 ] >= 9412.92
quadratic_ranged_161_lb: [ 1 x_7_ ^ 2 - 2 x_48_ * x_7_ + 1 x_48_ ^ 2 + 1 y_7_ ^ 2 - 2 y_48_ * y_7_ + 1 y_48_ ^ 2 ] >= 11322.63
quadratic_ranged_162_lb: [ 1 x_18_ ^ 2 - 2 x_48_ * x_18_ + 1 x_48_ ^ 2 + 1 y_18_ ^ 2 - 2 y_48_ * y_18_ + 1 y_48_ ^ 2 ] >= 11160.27
quadratic_ranged_163_lb: [ 1 x_28_ ^ 2 - 2 x_48_ * x_28_ + 1 x_48_ ^ 2 + 1 y_28_ ^ 2 - 2 y_48_ * y_28_ + 1 y_48_ ^ 2 ] >= 13563
quadratic_ranged_164_lb: [ 1 x_37_ ^ 2 - 2 x_48_ * x_37_ + 1 x_48_ ^ 2 + 1 y_37_ ^ 2 - 2 y_48_ * y_37_ + 1 y_48_ ^ 2 ] >= 926.64
quadratic_ranged_165_lb: [ 1 x_47_ ^ 2 - 2 x_48_ * x_47_ + 1 x_48_ ^ 2 + 1 y_47_ ^ 2 - 2 y_48_ * y_47_ + 1 y_48_ ^ 2 ] >= 590.04
quadratic_ranged_166_lb: [ 1 x_3_ ^ 2 - 2 x_49_ * x_3_ + 1 x_49_ ^ 2 + 1 y_3_ ^ 2 - 2 y_49_ * y_3_ + 1 y_49_ ^ 2 ] >= 15780.6
quadratic_ranged_167_lb: [ 1 x_8_ ^ 2 - 2 x_49_ * x_8_ + 1 x_49_ ^ 2 + 1 y_8_ ^ 2 - 2 y_49_ * y_8_ + 1 y_49_ ^ 2 ] >= 1062.27
quadratic_ranged_168_lb: [ 1 x_13_ ^ 2 - 2 x_49_ * x_13_ + 1 x_49_ ^ 2 + 1 y_13_ ^ 2 - 2 y_49_ * y_13_ + 1 y_49_ ^ 2 ] >= 5854.86
quadratic_ranged_169_lb: [ 1 x_30_ ^ 2 - 2 x_49_ * x_30_ + 1 x_49_ ^ 2 + 1 y_30_ ^ 2 - 2 y_49_ * y_30_ + 1 y_49_ ^ 2 ] >= 8793.18
quadratic_ranged_170_lb: [ 1 x_32_ ^ 2 - 2 x_49_ * x_32_ + 1 x_49_ ^ 2 + 1 y_32_ ^ 2 - 2 y_49_ * y_32_ + 1 y_49_ ^ 2 ] >= 19912.86
quadratic_ranged_171_lb: [ 1 x_48_ ^ 2 - 2 x_49_ * x_48_ + 1 x_49_ ^ 2 + 1 y_48_ ^ 2 - 2 y_49_ * y_48_ + 1 y_49_ ^ 2 ] >= 18764.46
quadratic_ranged_172_lb: [ 1 x_3_ ^ 2 - 2 x_50_ * x_3_ + 1 x_50_ ^ 2 + 1 y_3_ ^ 2 - 2 y_50_ * y_3_ + 1 y_50_ ^ 2 ] >= 4387.68
quadratic_ranged_173_lb: [ 1 x_6_ ^ 2 - 2 x_50_ * x_6_ + 1 x_50_ ^ 2 + 1 y_6_ ^ 2 - 2 y_50_ * y_6_ + 1 y_50_ ^ 2 ] >= 12911.58
quadratic_ranged_174_lb: [ 1 x_20_ ^ 2 - 2 x_50_ * x_20_ + 1 x_50_ ^ 2 + 1 y_20_ ^ 2 - 2 y_50_ * y_20_ + 1 y_50_ ^ 2 ] >= 16882.47
quadratic_ranged_175_lb: [ 1 x_29_ ^ 2 - 2 x_50_ * x_29_ + 1 x_50_ ^ 2 + 1 y_29_ ^ 2 - 2 y_50_ * y_29_ + 1 y_50_ ^ 2 ] >= 12277.98
quadratic_ranged_176_lb: [ 1 x_43_ ^ 2 - 2 x_50_ * x_43_ + 1 x_50_ ^ 2 + 1 y_43_ ^ 2 - 2 y_50_ * y_43_ + 1 y_50_ ^ 2 ] >= 1794.87
quadratic_ranged_177_lb: [ 1 x_49_ ^ 2 - 2 x_50_ * x_49_ + 1 x_50_ ^ 2 + 1 y_49_ ^ 2 - 2 y_50_ * y_49_ + 1 y_50_ ^ 2 ] >= 4233.24
quadratic_ranged_178_lb: [ 1 x_6_ ^ 2 - 2 x_51_ * x_6_ + 1 x_51_ ^ 2 + 1 y_6_ ^ 2 - 2 y_51_ * y_6_ + 1 y_51_ ^ 2 ] >= 10756.35
quadratic_ranged_179_lb: [ 1 x_7_ ^ 2 - 2 x_51_ * x_7_ + 1 x_51_ ^ 2 + 1 y_7_ ^ 2 - 2 y_51_ * y_7_ + 1 y_51_ ^ 2 ] >= 764.28
quadratic_ranged_180_lb: [ 1 x_27_ ^ 2 - 2 x_51_ * x_27_ + 1 x_51_ ^ 2 + 1 y_27_ ^ 2 - 2 y_51_ * y_27_ + 1 y_51_ ^ 2 ] >= 453.42
quadratic_ranged_181_lb: [ 1 x_33_ ^ 2 - 2 x_51_ * x_33_ + 1 x_51_ ^ 2 + 1 y_33_ ^ 2 - 2 y_51_ * y_33_ + 1 y_51_ ^ 2 ] >= 15924.15
quadratic_ranged_182_lb: [ 1 x_34_ ^ 2 - 2 x_51_ * x_34_ + 1 x_51_ ^ 2 + 1 y_34_ ^ 2 - 2 y_51_ * y_34_ + 1 y_51_ ^ 2 ] >= 15864.75
quadratic_ranged_183_lb: [ 1 x_42_ ^ 2 - 2 x_51_ * x_42_ + 1 x_51_ ^ 2 + 1 y_42_ ^ 2 - 2 y_51_ * y_42_ + 1 y_51_ ^ 2 ] >= 202.95
quadratic_ranged_184_lb: [ 1 x_47_ ^ 2 - 2 x_51_ * x_47_ + 1 x_51_ ^ 2 + 1 y_47_ ^ 2 - 2 y_51_ * y_47_ + 1 y_51_ ^ 2 ] >= 11350.35
quadratic_ranged_185_lb: [ 1 x_49_ ^ 2 - 2 x_51_ * x_49_ + 1 x_51_ ^ 2 + 1 y_49_ ^ 2 - 2 y_51_ * y_49_ + 1 y_51_ ^ 2 ] >= 3002.67
quadratic_ranged_186_lb: [ 1 x_50_ ^ 2 - 2 x_51_ * x_50_ + 1 x_51_ ^ 2 + 1 y_50_ ^ 2 - 2 y_51_ * y_50_ + 1 y_51_ ^ 2 ] >= 143.55
quadratic_ranged_187_lb: [ 1 x_6_ ^ 2 - 2 x_52_ * x_6_ + 1 x_52_ ^ 2 + 1 y_6_ ^ 2 - 2 y_52_ * y_6_ + 1 y_52_ ^ 2 ] >= 11937.42
quadratic_ranged_188_lb: [ 1 x_13_ ^ 2 - 2 x_52_ * x_13_ + 1 x_52_ ^ 2 + 1 y_13_ ^ 2 - 2 y_52_ * y_13_ + 1 y_52_ ^ 2 ] >= 7225.0199999999995
quadratic_ranged_189_lb: [ 1 x_17_ ^ 2 - 2 x_52_ * x_17_ + 1 x_52_ ^ 2 + 1 y_17_ ^ 2 - 2 y_52_ * y_17_ + 1 y_52_ ^ 2 ] >= 5015.34
quadratic_ranged_190_lb: [ 1 x_20_ ^ 2 - 2 x_52_ * x_20_ + 1 x_52_ ^ 2 + 1 y_20_ ^ 2 - 2 y_52_ * y_20_ + 1 y_52_ ^ 2 ] >= 19187.19
quadratic_ranged_191_lb: [ 1 x_30_ ^ 2 - 2 x_52_ * x_30_ + 1 x_52_ ^ 2 + 1 y_30_ ^ 2 - 2 y_52_ * y_30_ + 1 y_52_ ^ 2 ] >= 15992.46
quadratic_ranged_192_lb: [ 1 x_51_ ^ 2 - 2 x_52_ * x_51_ + 1 x_52_ ^ 2 + 1 y_51_ ^ 2 - 2 y_52_ * y_51_ + 1 y_52_ ^ 2 ] >= 499.95
quadratic_ranged_193_lb: [ 1 x_7_ ^ 2 - 2 x_53_ * x_7_ + 1 x_53_ ^ 2 + 1 y_7_ ^ 2 - 2 y_53_ * y_7_ + 1 y_53_ ^ 2 ] >= 5658.84
quadratic_ranged_194_lb: [ 1 x_27_ ^ 2 - 2 x_53_ * x_27_ + 1 x_53_ ^ 2 + 1 y_27_ ^ 2 - 2 y_53_ * y_27_ + 1 y_53_ ^ 2 ] >= 11691.9
quadratic_ranged_195_lb: [ 1 x_40_ ^ 2 - 2 x_53_ * x_40_ + 1 x_53_ ^ 2 + 1 y_40_ ^ 2 - 2 y_53_ * y_40_ + 1 y_53_ ^ 2 ] >= 24361.92
quadratic_ranged_196_lb: [ 1 x_46_ ^ 2 - 2 x_53_ * x_46_ + 1 x_53_ ^ 2 + 1 y_46_ ^ 2 - 2 y_53_ * y_46_ + 1 y_53_ ^ 2 ] >= 34376.76
quadratic_ranged_197_lb: [ 1 x_49_ ^ 2 - 2 x_53_ * x_49_ + 1 x_53_ ^ 2 + 1 y_49_ ^ 2 - 2 y_53_ * y_49_ + 1 y_53_ ^ 2 ] >= 1307.79
quadratic_ranged_198_lb: [ 1 x_52_ ^ 2 - 2 x_53_ * x_52_ + 1 x_53_ ^ 2 + 1 y_52_ ^ 2 - 2 y_53_ * y_52_ + 1 y_53_ ^ 2 ] >= 5299.47
quadratic_ranged_199_lb: [ 1 x_1_ ^ 2 - 2 x_54_ * x_1_ + 1 x_54_ ^ 2 + 1 y_1_ ^ 2 - 2 y_54_ * y_1_ + 1 y_54_ ^ 2 ] >= 9482.22
quadratic_ranged_200_lb: [ 1 x_13_ ^ 2 - 2 x_54_ * x_13_ + 1 x_54_ ^ 2 + 1 y_13_ ^ 2 - 2 y_54_ * y_13_ + 1 y_54_ ^ 2 ] >= 9330.75
quadratic_ranged_201_lb: [ 1 x_27_ ^ 2 - 2 x_54_ * x_27_ + 1 x_54_ ^ 2 + 1 y_27_ ^ 2 - 2 y_54_ * y_27_ + 1 y_54_ ^ 2 ] >= 4571.82
quadratic_ranged_202_lb: [ 1 x_39_ ^ 2 - 2 x_54_ * x_39_ + 1 x_54_ ^ 2 + 1 y_39_ ^ 2 - 2 y_54_ * y_39_ + 1 y_54_ ^ 2 ] >= 27571.5
quadratic_ranged_203_lb: [ 1 x_50_ ^ 2 - 2 x_54_ * x_50_ + 1 x_54_ ^ 2 + 1 y_50_ ^ 2 - 2 y_54_ * y_50_ + 1 y_54_ ^ 2 ] >= 2788.83
quadratic_ranged_204_lb: [ 1 x_53_ ^ 2 - 2 x_54_ * x_53_ + 1 x_54_ ^ 2 + 1 y_53_ ^ 2 - 2 y_54_ * y_53_ + 1 y_54_ ^ 2 ] >= 3627.36
quadratic_ranged_205_lb: [ 1 x_14_ ^ 2 - 2 x_55_ * x_14_ + 1 x_55_ ^ 2 + 1 y_14_ ^ 2 - 2 y_55_ * y_14_ + 1 y_55_ ^ 2 ] >= 37316.07
quadratic_ranged_206_lb: [ 1 x_17_ ^ 2 - 2 x_55_ * x_17_ + 1 x_55_ ^ 2 + 1 y_17_ ^ 2 - 2 y_55_ * y_17_ + 1 y_55_ ^ 2 ] >= 3766.95
quadratic_ranged_207_lb: [ 1 x_19_ ^ 2 - 2 x_55_ * x_19_ + 1 x_55_ ^ 2 + 1 y_19_ ^ 2 - 2 y_55_ * y_19_ + 1 y_55_ ^ 2 ] >= 32496.75
quadratic_ranged_208_lb: [ 1 x_27_ ^ 2 - 2 x_55_ * x_27_ + 1 x_55_ ^ 2 + 1 y_27_ ^ 2 - 2 y_55_ * y_27_ + 1 y_55_ ^ 2 ] >= 2237.4
quadratic_ranged_209_lb: [ 1 x_34_ ^ 2 - 2 x_55_ * x_34_ + 1 x_55_ ^ 2 + 1 y_34_ ^ 2 - 2 y_55_ * y_34_ + 1 y_55_ ^ 2 ] >= 16442.91
quadratic_ranged_210_lb: [ 1 x_54_ ^ 2 - 2 x_55_ * x_54_ + 1 x_55_ ^ 2 + 1 y_54_ ^ 2 - 2 y_55_ * y_54_ + 1 y_55_ ^ 2 ] >= 524.7
quadratic_ranged_211_lb: [ 1 x_1_ ^ 2 - 2 x_56_ * x_1_ + 1 x_56_ ^ 2 + 1 y_1_ ^ 2 - 2 y_56_ * y_1_ + 1 y_56_ ^ 2 ] >= 21837.42
quadratic_ranged_212_lb: [ 1 x_6_ ^ 2 - 2 x_56_ * x_6_ + 1 x_56_ ^ 2 + 1 y_6_ ^ 2 - 2 y_56_ * y_6_ + 1 y_56_ ^ 2 ] >= 14371.83
quadratic_ranged_213_lb: [ 1 x_18_ ^ 2 - 2 x_56_ * x_18_ + 1 x_56_ ^ 2 + 1 y_18_ ^ 2 - 2 y_56_ * y_18_ + 1 y_56_ ^ 2 ] >= 28141.739999999998
quadratic_ranged_214_lb: [ 1 x_26_ ^ 2 - 2 x_56_ * x_26_ + 1 x_56_ ^ 2 + 1 y_26_ ^ 2 - 2 y_56_ * y_26_ + 1 y_56_ ^ 2 ] >= 34623.27
quadratic_ranged_215_lb: [ 1 x_28_ ^ 2 - 2 x_56_ * x_28_ + 1 x_56_ ^ 2 + 1 y_28_ ^ 2 - 2 y_56_ * y_28_ + 1 y_56_ ^ 2 ] >= 3541.23
quadratic_ranged_216_lb: [ 1 x_30_ ^ 2 - 2 x_56_ * x_30_ + 1 x_56_ ^ 2 + 1 y_30_ ^ 2 - 2 y_56_ * y_30_ + 1 y_56_ ^ 2 ] >= 2832.39
quadratic_ranged_217_lb: [ 1 x_34_ ^ 2 - 2 x_56_ * x_34_ + 1 x_56_ ^ 2 + 1 y_34_ ^ 2 - 2 y_56_ * y_34_ + 1 y_56_ ^ 2 ] >= 4360.95
quadratic_ranged_218_lb: [ 1 x_48_ ^ 2 - 2 x_56_ * x_48_ + 1 x_56_ ^ 2 + 1 y_48_ ^ 2 - 2 y_56_ * y_48_ + 1 y_56_ ^ 2 ] >= 25309.35
quadratic_ranged_219_lb: [ 1 x_55_ ^ 2 - 2 x_56_ * x_55_ + 1 x_56_ ^ 2 + 1 y_55_ ^ 2 - 2 y_56_ * y_55_ + 1 y_56_ ^ 2 ] >= 12998.7
quadratic_ranged_220_lb: [ 1 x_20_ ^ 2 - 2 x_57_ * x_20_ + 1 x_57_ ^ 2 + 1 y_20_ ^ 2 - 2 y_57_ * y_20_ + 1 y_57_ ^ 2 ] >= 2760.12
quadratic_ranged_221_lb: [ 1 x_30_ ^ 2 - 2 x_57_ * x_30_ + 1 x_57_ ^ 2 + 1 y_30_ ^ 2 - 2 y_57_ * y_30_ + 1 y_57_ ^ 2 ] >= 8712.99
quadratic_ranged_222_lb: [ 1 x_32_ ^ 2 - 2 x_57_ * x_32_ + 1 x_57_ ^ 2 + 1 y_32_ ^ 2 - 2 y_57_ * y_32_ + 1 y_57_ ^ 2 ] >= 1846.35
quadratic_ranged_223_lb: [ 1 x_39_ ^ 2 - 2 x_57_ * x_39_ + 1 x_57_ ^ 2 + 1 y_39_ ^ 2 - 2 y_57_ * y_39_ + 1 y_57_ ^ 2 ] >= 3169.98
quadratic_ranged_224_lb: [ 1 x_43_ ^ 2 - 2 x_57_ * x_43_ + 1 x_57_ ^ 2 + 1 y_43_ ^ 2 - 2 y_57_ * y_43_ + 1 y_57_ ^ 2 ] >= 11709.72
quadratic_ranged_225_lb: [ 1 x_44_ ^ 2 - 2 x_57_ * x_44_ + 1 x_57_ ^ 2 + 1 y_44_ ^ 2 - 2 y_57_ * y_44_ + 1 y_57_ ^ 2 ] >= 2174.04
quadratic_ranged_226_lb: [ 1 x_46_ ^ 2 - 2 x_57_ * x_46_ + 1 x_57_ ^ 2 + 1 y_46_ ^ 2 - 2 y_57_ * y_46_ + 1 y_57_ ^ 2 ] >= 6229.08
quadratic_ranged_227_lb: [ 1 x_47_ ^ 2 - 2 x_57_ * x_47_ + 1 x_57_ ^ 2 + 1 y_47_ ^ 2 - 2 y_57_ * y_47_ + 1 y_57_ ^ 2 ] >= 737.55
quadratic_ranged_228_lb: [ 1 x_56_ ^ 2 - 2 x_57_ * x_56_ + 1 x_57_ ^ 2 + 1 y_56_ ^ 2 - 2 y_57_ * y_56_ + 1 y_57_ ^ 2 ] >= 17622
quadratic_ranged_229_lb: [ 1 x_7_ ^ 2 - 2 x_58_ * x_7_ + 1 x_58_ ^ 2 + 1 y_7_ ^ 2 - 2 y_58_ * y_7_ + 1 y_58_ ^ 2 ] >= 447.48
quadratic_ranged_230_lb: [ 1 x_8_ ^ 2 - 2 x_58_ * x_8_ + 1 x_58_ ^ 2 + 1 y_8_ ^ 2 - 2 y_58_ * y_8_ + 1 y_58_ ^ 2 ] >= 4221.36
quadratic_ranged_231_lb: [ 1 x_11_ ^ 2 - 2 x_58_ * x_11_ + 1 x_58_ ^ 2 + 1 y_11_ ^ 2 - 2 y_58_ * y_11_ + 1 y_58_ ^ 2 ] >= 8086.32
quadratic_ranged_232_lb: [ 1 x_15_ ^ 2 - 2 x_58_ * x_15_ + 1 x_58_ ^ 2 + 1 y_15_ ^ 2 - 2 y_58_ * y_15_ + 1 y_58_ ^ 2 ] >= 2757.15
quadratic_ranged_233_lb: [ 1 x_35_ ^ 2 - 2 x_58_ * x_35_ + 1 x_58_ ^ 2 + 1 y_35_ ^ 2 - 2 y_58_ * y_35_ + 1 y_58_ ^ 2 ] >= 4914.36
quadratic_ranged_234_lb: [ 1 x_57_ ^ 2 - 2 x_58_ * x_57_ + 1 x_58_ ^ 2 + 1 y_57_ ^ 2 - 2 y_58_ * y_57_ + 1 y_58_ ^ 2 ] >= 5361.84
quadratic_ranged_235_lb: [ 1 x_17_ ^ 2 - 2 x_59_ * x_17_ + 1 x_59_ ^ 2 + 1 y_17_ ^ 2 - 2 y_59_ * y_17_ + 1 y_59_ ^ 2 ] >= 11127.6
quadratic_ranged_236_lb: [ 1 x_29_ ^ 2 - 2 x_59_ * x_29_ + 1 x_59_ ^ 2 + 1 y_29_ ^ 2 - 2 y_59_ * y_29_ + 1 y_59_ ^ 2 ] >= 10406.88
quadratic_ranged_237_lb: [ 1 x_33_ ^ 2 - 2 x_59_ * x_33_ + 1 x_59_ ^ 2 + 1 y_33_ ^ 2 - 2 y_59_ * y_33_ + 1 y_59_ ^ 2 ] >= 8415
quadratic_ranged_238_lb: [ 1 x_36_ ^ 2 - 2 x_59_ * x_36_ + 1 x_59_ ^ 2 + 1 y_36_ ^ 2 - 2 y_59_ * y_36_ + 1 y_59_ ^ 2 ] >= 18846.63
quadratic_ranged_239_lb: [ 1 x_42_ ^ 2 - 2 x_59_ * x_42_ + 1 x_59_ ^ 2 + 1 y_42_ ^ 2 - 2 y_59_ * y_42_ + 1 y_59_ ^ 2 ] >= 2490.84
quadratic_ranged_240_lb: [ 1 x_49_ ^ 2 - 2 x_59_ * x_49_ + 1 x_59_ ^ 2 + 1 y_49_ ^ 2 - 2 y_59_ * y_49_ + 1 y_59_ ^ 2 ] >= 1886.94
quadratic_ranged_241_lb: [ 1 x_57_ ^ 2 - 2 x_59_ * x_57_ + 1 x_59_ ^ 2 + 1 y_57_ ^ 2 - 2 y_59_ * y_57_ + 1 y_59_ ^ 2 ] >= 7845.75
quadratic_ranged_242_lb: [ 1 x_58_ ^ 2 - 2 x_59_ * x_58_ + 1 x_59_ ^ 2 + 1 y_58_ ^ 2 - 2 y_59_ * y_58_ + 1 y_59_ ^ 2 ] >= 278.19
quadratic_ranged_243_lb: [ 1 x_7_ ^ 2 - 2 x_60_ * x_7_ + 1 x_60_ ^ 2 + 1 y_7_ ^ 2 - 2 y_60_ * y_7_ + 1 y_60_ ^ 2 ] >= 14028.3
quadratic_ranged_244_lb: [ 1 x_17_ ^ 2 - 2 x_60_ * x_17_ + 1 x_60_ ^ 2 + 1 y_17_ ^ 2 - 2 y_60_ * y_17_ + 1 y_60_ ^ 2 ] >= 38769.39
quadratic_ranged_245_lb: [ 1 x_23_ ^ 2 - 2 x_60_ * x_23_ + 1 x_60_ ^ 2 + 1 y_23_ ^ 2 - 2 y_60_ * y_23_ + 1 y_60_ ^ 2 ] >= 4233.24
quadratic_ranged_246_lb: [ 1 x_24_ ^ 2 - 2 x_60_ * x_24_ + 1 x_60_ ^ 2 + 1 y_24_ ^ 2 - 2 y_60_ * y_24_ + 1 y_60_ ^ 2 ] >= 10123.74
quadratic_ranged_247_lb: [ 1 x_43_ ^ 2 - 2 x_60_ * x_43_ + 1 x_60_ ^ 2 + 1 y_43_ ^ 2 - 2 y_60_ * y_43_ + 1 y_60_ ^ 2 ] >= 19691.1
quadratic_ranged_248_lb: [ 1 x_59_ ^ 2 - 2 x_60_ * x_59_ + 1 x_60_ ^ 2 + 1 y_59_ ^ 2 - 2 y_60_ * y_59_ + 1 y_60_ ^ 2 ] >= 14055.03
quadratic_ranged_249_lb: [ 1 x_4_ ^ 2 - 2 x_61_ * x_4_ + 1 x_61_ ^ 2 + 1 y_4_ ^ 2 - 2 y_61_ * y_4_ + 1 y_61_ ^ 2 ] >= 1747.35
quadratic_ranged_250_lb: [ 1 x_5_ ^ 2 - 2 x_61_ * x_5_ + 1 x_61_ ^ 2 + 1 y_5_ ^ 2 - 2 y_61_ * y_5_ + 1 y_61_ ^ 2 ] >= 13484.789999999999
quadratic_ranged_251_lb: [ 1 x_10_ ^ 2 - 2 x_61_ * x_10_ + 1 x_61_ ^ 2 + 1 y_10_ ^ 2 - 2 y_61_ * y_10_ + 1 y_61_ ^ 2 ] >= 9283.23
quadratic_ranged_252_lb: [ 1 x_17_ ^ 2 - 2 x_61_ * x_17_ + 1 x_61_ ^ 2 + 1 y_17_ ^ 2 - 2 y_61_ * y_17_ + 1 y_61_ ^ 2 ] >= 8162.55
quadratic_ranged_253_lb: [ 1 x_22_ ^ 2 - 2 x_61_ * x_22_ + 1 x_61_ ^ 2 + 1 y_22_ ^ 2 - 2 y_61_ * y_22_ + 1 y_61_ ^ 2 ] >= 12454.2
quadratic_ranged_254_lb: [ 1 x_58_ ^ 2 - 2 x_61_ * x_58_ + 1 x_61_ ^ 2 + 1 y_58_ ^ 2 - 2 y_61_ * y_58_ + 1 y_61_ ^ 2 ] >= 2692.8
quadratic_ranged_255_lb: [ 1 x_60_ ^ 2 - 2 x_61_ * x_60_ + 1 x_61_ ^ 2 + 1 y_60_ ^ 2 - 2 y_61_ * y_60_ + 1 y_61_ ^ 2 ] >= 23833.26
quadratic_ranged_256_lb: [ 1 x_9_ ^ 2 - 2 x_62_ * x_9_ + 1 x_62_ ^ 2 + 1 y_9_ ^ 2 - 2 y_62_ * y_9_ + 1 y_62_ ^ 2 ] >= 9086.22
quadratic_ranged_257_lb: [ 1 x_14_ ^ 2 - 2 x_62_ * x_14_ + 1 x_62_ ^ 2 + 1 y_14_ ^ 2 - 2 y_62_ * y_14_ + 1 y_62_ ^ 2 ] >= 31759.2
quadratic_ranged_258_lb: [ 1 x_24_ ^ 2 - 2 x_62_ * x_24_ + 1 x_62_ ^ 2 + 1 y_24_ ^ 2 - 2 y_62_ * y_24_ + 1 y_62_ ^ 2 ] >= 2784.87
quadratic_ranged_259_lb: [ 1 x_44_ ^ 2 - 2 x_62_ * x_44_ + 1 x_62_ ^ 2 + 1 y_44_ ^ 2 - 2 y_62_ * y_44_ + 1 y_62_ ^ 2 ] >= 6344.91
quadratic_ranged_260_lb: [ 1 x_50_ ^ 2 - 2 x_62_ * x_50_ + 1 x_62_ ^ 2 + 1 y_50_ ^ 2 - 2 y_62_ * y_50_ + 1 y_62_ ^ 2 ] >= 1679.04
quadratic_ranged_261_lb: [ 1 x_61_ ^ 2 - 2 x_62_ * x_61_ + 1 x_62_ ^ 2 + 1 y_61_ ^ 2 - 2 y_62_ * y_61_ + 1 y_62_ ^ 2 ] >= 99.99
quadratic_ranged_262_lb: [ 1 x_20_ ^ 2 - 2 x_63_ * x_20_ + 1 x_63_ ^ 2 + 1 y_20_ ^ 2 - 2 y_63_ * y_20_ + 1 y_63_ ^ 2 ] >= 14212.44
quadratic_ranged_263_lb: [ 1 x_28_ ^ 2 - 2 x_63_ * x_28_ + 1 x_63_ ^ 2 + 1 y_28_ ^ 2 - 2 y_63_ * y_28_ + 1 y_63_ ^ 2 ] >= 25063.829999999998
quadratic_ranged_264_lb: [ 1 x_60_ ^ 2 - 2 x_63_ * x_60_ + 1 x_63_ ^ 2 + 1 y_60_ ^ 2 - 2 y_63_ * y_60_ + 1 y_63_ ^ 2 ] >= 15739.02
quadratic_ranged_265_lb: [ 1 x_62_ ^ 2 - 2 x_63_ * x_62_ + 1 x_63_ ^ 2 + 1 y_62_ ^ 2 - 2 y_63_ * y_62_ + 1 y_63_ ^ 2 ] >= 3271.95
quadratic_ranged_266_lb: [ 1 x_8_ ^ 2 - 2 x_64_ * x_8_ + 1 x_64_ ^ 2 + 1 y_8_ ^ 2 - 2 y_64_ * y_8_ + 1 y_64_ ^ 2 ] >= 22116.6
quadratic_ranged_267_lb: [ 1 x_17_ ^ 2 - 2 x_64_ * x_17_ + 1 x_64_ ^ 2 + 1 y_17_ ^ 2 - 2 y_64_ * y_17_ + 1 y_64_ ^ 2 ] >= 64271.79
quadratic_ranged_268_lb: [ 1 x_20_ ^ 2 - 2 x_64_ * x_20_ + 1 x_64_ ^ 2 + 1 y_20_ ^ 2 - 2 y_64_ * y_20_ + 1 y_64_ ^ 2 ] >= 9123.84
quadratic_ranged_269_lb: [ 1 x_26_ ^ 2 - 2 x_64_ * x_26_ + 1 x_64_ ^ 2 + 1 y_26_ ^ 2 - 2 y_64_ * y_26_ + 1 y_64_ ^ 2 ] >= 4840.11
quadratic_ranged_270_lb: [ 1 x_38_ ^ 2 - 2 x_64_ * x_38_ + 1 x_64_ ^ 2 + 1 y_38_ ^ 2 - 2 y_64_ * y_38_ + 1 y_64_ ^ 2 ] >= 13516.47
quadratic_ranged_271_lb: [ 1 x_63_ ^ 2 - 2 x_64_ * x_63_ + 1 x_64_ ^ 2 + 1 y_63_ ^ 2 - 2 y_64_ * y_63_ + 1 y_64_ ^ 2 ] >= 35881.56
quadratic_ranged_272_lb: [ 1 x_1_ ^ 2 - 2 x_65_ * x_1_ + 1 x_65_ ^ 2 + 1 y_1_ ^ 2 - 2 y_65_ * y_1_ + 1 y_65_ ^ 2 ] >= 2844.27
quadratic_ranged_273_lb: [ 1 x_5_ ^ 2 - 2 x_65_ * x_5_ + 1 x_65_ ^ 2 + 1 y_5_ ^ 2 - 2 y_65_ * y_5_ + 1 y_65_ ^ 2 ] >= 495
quadratic_ranged_274_lb: [ 1 x_7_ ^ 2 - 2 x_65_ * x_7_ + 1 x_65_ ^ 2 + 1 y_7_ ^ 2 - 2 y_65_ * y_7_ + 1 y_65_ ^ 2 ] >= 4610.43
quadratic_ranged_275_lb: [ 1 x_9_ ^ 2 - 2 x_65_ * x_9_ + 1 x_65_ ^ 2 + 1 y_9_ ^ 2 - 2 y_65_ * y_9_ + 1 y_65_ ^ 2 ] >= 514.8
quadratic_ranged_276_lb: [ 1 x_23_ ^ 2 - 2 x_65_ * x_23_ + 1 x_65_ ^ 2 + 1 y_23_ ^ 2 - 2 y_65_ * y_23_ + 1 y_65_ ^ 2 ] >= 3814.47
quadratic_ranged_277_lb: [ 1 x_44_ ^ 2 - 2 x_65_ * x_44_ + 1 x_65_ ^ 2 + 1 y_44_ ^ 2 - 2 y_65_ * y_44_ + 1 y_65_ ^ 2 ] >= 373.23
quadratic_ranged_278_lb: [ 1 x_47_ ^ 2 - 2 x_65_ * x_47_ + 1 x_65_ ^ 2 + 1 y_47_ ^ 2 - 2 y_65_ * y_47_ + 1 y_65_ ^ 2 ] >= 324.71999999999997
quadratic_ranged_279_lb: [ 1 x_64_ ^ 2 - 2 x_65_ * x_64_ + 1 x_65_ ^ 2 + 1 y_64_ ^ 2 - 2 y_65_ * y_64_ + 1 y_65_ ^ 2 ] >= 8273.43
quadratic_ranged_280_lb: [ 1 x_13_ ^ 2 - 2 x_66_ * x_13_ + 1 x_66_ ^ 2 + 1 y_13_ ^ 2 - 2 y_66_ * y_13_ + 1 y_66_ ^ 2 ] >= 9968.31
quadratic_ranged_281_lb: [ 1 x_14_ ^ 2 - 2 x_66_ * x_14_ + 1 x_66_ ^ 2 + 1 y_14_ ^ 2 - 2 y_66_ * y_14_ + 1 y_66_ ^ 2 ] >= 19131.75
quadratic_ranged_282_lb: [ 1 x_17_ ^ 2 - 2 x_66_ * x_17_ + 1 x_66_ ^ 2 + 1 y_17_ ^ 2 - 2 y_66_ * y_17_ + 1 y_66_ ^ 2 ] >= 22054.23
quadratic_ranged_283_lb: [ 1 x_24_ ^ 2 - 2 x_66_ * x_24_ + 1 x_66_ ^ 2 + 1 y_24_ ^ 2 - 2 y_66_ * y_24_ + 1 y_66_ ^ 2 ] >= 6229.08
quadratic_ranged_284_lb: [ 1 x_38_ ^ 2 - 2 x_66_ * x_38_ + 1 x_66_ ^ 2 + 1 y_38_ ^ 2 - 2 y_66_ * y_38_ + 1 y_66_ ^ 2 ] >= 18319.95
quadratic_ranged_285_lb: [ 1 x_40_ ^ 2 - 2 x_66_ * x_40_ + 1 x_66_ ^ 2 + 1 y_40_ ^ 2 - 2 y_66_ * y_40_ + 1 y_66_ ^ 2 ] >= 25035.12
quadratic_ranged_286_lb: [ 1 x_59_ ^ 2 - 2 x_66_ * x_59_ + 1 x_66_ ^ 2 + 1 y_59_ ^ 2 - 2 y_66_ * y_59_ + 1 y_66_ ^ 2 ] >= 9980.19
quadratic_ranged_287_lb: [ 1 x_65_ ^ 2 - 2 x_66_ * x_65_ + 1 x_66_ ^ 2 + 1 y_65_ ^ 2 - 2 y_66_ * y_65_ + 1 y_66_ ^ 2 ] >= 7928.91
quadratic_ranged_288_lb: [ 1 x_1_ ^ 2 - 2 x_67_ * x_1_ + 1 x_67_ ^ 2 + 1 y_1_ ^ 2 - 2 y_67_ * y_1_ + 1 y_67_ ^ 2 ] >= 13761.99
quadratic_ranged_289_lb: [ 1 x_20_ ^ 2 - 2 x_67_ * x_20_ + 1 x_67_ ^ 2 + 1 y_20_ ^ 2 - 2 y_67_ * y_20_ + 1 y_67_ ^ 2 ] >= 7414.11
quadratic_ranged_290_lb: [ 1 x_23_ ^ 2 - 2 x_67_ * x_23_ + 1 x_67_ ^ 2 + 1 y_23_ ^ 2 - 2 y_67_ * y_23_ + 1 y_67_ ^ 2 ] >= 15567.75
quadratic_ranged_291_lb: [ 1 x_29_ ^ 2 - 2 x_67_ * x_29_ + 1 x_67_ ^ 2 + 1 y_29_ ^ 2 - 2 y_67_ * y_29_ + 1 y_67_ ^ 2 ] >= 17196.3
quadratic_ranged_292_lb: [ 1 x_34_ ^ 2 - 2 x_67_ * x_34_ + 1 x_67_ ^ 2 + 1 y_34_ ^ 2 - 2 y_67_ * y_34_ + 1 y_67_ ^ 2 ] >= 3930.3
quadratic_ranged_293_lb: [ 1 x_51_ ^ 2 - 2 x_67_ * x_51_ + 1 x_67_ ^ 2 + 1 y_51_ ^ 2 - 2 y_67_ * y_51_ + 1 y_67_ ^ 2 ] >= 22537.35
quadratic_ranged_294_lb: [ 1 x_66_ ^ 2 - 2 x_67_ * x_66_ + 1 x_67_ ^ 2 + 1 y_66_ ^ 2 - 2 y_67_ * y_66_ + 1 y_67_ ^ 2 ] >= 21907.71
quadratic_ranged_295_lb: [ 1 x_1_ ^ 2 - 2 x_68_ * x_1_ + 1 x_68_ ^ 2 + 1 y_1_ ^ 2 - 2 y_68_ * y_1_ + 1 y_68_ ^ 2 ] >= 22600.71
quadratic_ranged_296_lb: [ 1 x_14_ ^ 2 - 2 x_68_ * x_14_ + 1 x_68_ ^ 2 + 1 y_14_ ^ 2 - 2 y_68_ * y_14_ + 1 y_68_ ^ 2 ] >= 24617.34
quadratic_ranged_297_lb: [ 1 x_36_ ^ 2 - 2 x_68_ * x_36_ + 1 x_68_ ^ 2 + 1 y_36_ ^ 2 - 2 y_68_ * y_36_ + 1 y_68_ ^ 2 ] >= 16268.67
quadratic_ranged_298_lb: [ 1 x_42_ ^ 2 - 2 x_68_ * x_42_ + 1 x_68_ ^ 2 + 1 y_42_ ^ 2 - 2 y_68_ * y_42_ + 1 y_68_ ^ 2 ] >= 23672.88
quadratic_ranged_299_lb: [ 1 x_67_ ^ 2 - 2 x_68_ * x_67_ + 1 x_68_ ^ 2 + 1 y_67_ ^ 2 - 2 y_68_ * y_67_ + 1 y_68_ ^ 2 ] >= 10725.66
quadratic_ranged_300_lb: [ 1 x_10_ ^ 2 - 2 x_69_ * x_10_ + 1 x_69_ ^ 2 + 1 y_10_ ^ 2 - 2 y_69_ * y_10_ + 1 y_69_ ^ 2 ] >= 27634.86
quadratic_ranged_301_lb: [ 1 x_33_ ^ 2 - 2 x_69_ * x_33_ + 1 x_69_ ^ 2 + 1 y_33_ ^ 2 - 2 y_69_ * y_33_ + 1 y_69_ ^ 2 ] >= 19873.26
quadratic_ranged_302_lb: [ 1 x_42_ ^ 2 - 2 x_69_ * x_42_ + 1 x_69_ ^ 2 + 1 y_42_ ^ 2 - 2 y_69_ * y_42_ + 1 y_69_ ^ 2 ] >= 15335.1
quadratic_ranged_303_lb: [ 1 x_43_ ^ 2 - 2 x_69_ * x_43_ + 1 x_69_ ^ 2 + 1 y_43_ ^ 2 - 2 y_69_ * y_43_ + 1 y_69_ ^ 2 ] >= 19274.31
quadratic_ranged_304_lb: [ 1 x_49_ ^ 2 - 2 x_69_ * x_49_ + 1 x_69_ ^ 2 + 1 y_49_ ^ 2 - 2 y_69_ * y_49_ + 1 y_69_ ^ 2 ] >= 26864.64
quadratic_ranged_305_lb: [ 1 x_68_ ^ 2 - 2 x_69_ * x_68_ + 1 x_69_ ^ 2 + 1 y_68_ ^ 2 - 2 y_69_ * y_68_ + 1 y_69_ ^ 2 ] >= 48211.02
quadratic_ranged_306_lb: [ 1 x_14_ ^ 2 - 2 x_70_ * x_14_ + 1 x_70_ ^ 2 + 1 y_14_ ^ 2 - 2 y_70_ * y_14_ + 1 y_70_ ^ 2 ] >= 31040.46
quadratic_ranged_307_lb: [ 1 x_20_ ^ 2 - 2 x_70_ * x_20_ + 1 x_70_ ^ 2 + 1 y_20_ ^ 2 - 2 y_70_ * y_20_ + 1 y_70_ ^ 2 ] >= 29704.95
quadratic_ranged_308_lb: [ 1 x_25_ ^ 2 - 2 x_70_ * x_25_ + 1 x_70_ ^ 2 + 1 y_25_ ^ 2 - 2 y_70_ * y_25_ + 1 y_70_ ^ 2 ] >= 20398.95
quadratic_ranged_309_lb: [ 1 x_30_ ^ 2 - 2 x_70_ * x_30_ + 1 x_70_ ^ 2 + 1 y_30_ ^ 2 - 2 y_70_ * y_30_ + 1 y_70_ ^ 2 ] >= 2490.84
quadratic_ranged_310_lb: [ 1 x_49_ ^ 2 - 2 x_70_ * x_49_ + 1 x_70_ ^ 2 + 1 y_49_ ^ 2 - 2 y_70_ * y_49_ + 1 y_70_ ^ 2 ] >= 4936.14
quadratic_ranged_311_lb: [ 1 x_54_ ^ 2 - 2 x_70_ * x_54_ + 1 x_70_ ^ 2 + 1 y_54_ ^ 2 - 2 y_70_ * y_54_ + 1 y_70_ ^ 2 ] >= 8566.47
quadratic_ranged_312_lb: [ 1 x_57_ ^ 2 - 2 x_70_ * x_57_ + 1 x_70_ ^ 2 + 1 y_57_ ^ 2 - 2 y_70_ * y_57_ + 1 y_70_ ^ 2 ] >= 16549.829999999998
quadratic_ranged_313_lb: [ 1 x_69_ ^ 2 - 2 x_70_ * x_69_ + 1 x_70_ ^ 2 + 1 y_69_ ^ 2 - 2 y_70_ * y_69_ + 1 y_70_ ^ 2 ] >= 47007.18
quadratic_ranged_314_lb: [ 1 x_3_ ^ 2 - 2 x_71_ * x_3_ + 1 x_71_ ^ 2 + 1 y_3_ ^ 2 - 2 y_71_ * y_3_ + 1 y_71_ ^ 2 ] >= 4325.31
quadratic_ranged_315_lb: [ 1 x_5_ ^ 2 - 2 x_71_ * x_5_ + 1 x_71_ ^ 2 + 1 y_5_ ^ 2 - 2 y_71_ * y_5_ + 1 y_71_ ^ 2 ] >= 2202.75
quadratic_ranged_316_lb: [ 1 x_49_ ^ 2 - 2 x_71_ * x_49_ + 1 x_71_ ^ 2 + 1 y_49_ ^ 2 - 2 y_71_ * y_49_ + 1 y_71_ ^ 2 ] >= 11378.07
quadratic_ranged_317_lb: [ 1 x_52_ ^ 2 - 2 x_71_ * x_52_ + 1 x_71_ ^ 2 + 1 y_52_ ^ 2 - 2 y_71_ * y_52_ + 1 y_71_ ^ 2 ] >= 8756.55
quadratic_ranged_318_lb: [ 1 x_59_ ^ 2 - 2 x_71_ * x_59_ + 1 x_71_ ^ 2 + 1 y_59_ ^ 2 - 2 y_71_ * y_59_ + 1 y_71_ ^ 2 ] >= 4004.55
quadratic_ranged_319_lb: [ 1 x_70_ ^ 2 - 2 x_71_ * x_70_ + 1 x_71_ ^ 2 + 1 y_70_ ^ 2 - 2 y_71_ * y_70_ + 1 y_71_ ^ 2 ] >= 23852.07
quadratic_ranged_320_lb: [ 1 x_6_ ^ 2 - 2 x_72_ * x_6_ + 1 x_72_ ^ 2 + 1 y_6_ ^ 2 - 2 y_72_ * y_6_ + 1 y_72_ ^ 2 ] >= 7866.54
quadratic_ranged_321_lb: [ 1 x_21_ ^ 2 - 2 x_72_ * x_21_ + 1 x_72_ ^ 2 + 1 y_21_ ^ 2 - 2 y_72_ * y_21_ + 1 y_72_ ^ 2 ] >= 19725.75
quadratic_ranged_322_lb: [ 1 x_24_ ^ 2 - 2 x_72_ * x_24_ + 1 x_72_ ^ 2 + 1 y_24_ ^ 2 - 2 y_72_ * y_24_ + 1 y_72_ ^ 2 ] >= 6586.47
quadratic_ranged_323_lb: [ 1 x_28_ ^ 2 - 2 x_72_ * x_28_ + 1 x_72_ ^ 2 + 1 y_28_ ^ 2 - 2 y_72_ * y_28_ + 1 y_72_ ^ 2 ] >= 3946.14
quadratic_ranged_324_lb: [ 1 x_31_ ^ 2 - 2 x_72_ * x_31_ + 1 x_72_ ^ 2 + 1 y_31_ ^ 2 - 2 y_72_ * y_31_ + 1 y_72_ ^ 2 ] >= 1585.98
quadratic_ranged_325_lb: [ 1 x_58_ ^ 2 - 2 x_72_ * x_58_ + 1 x_72_ ^ 2 + 1 y_58_ ^ 2 - 2 y_72_ * y_58_ + 1 y_72_ ^ 2 ] >= 4669.83
quadratic_ranged_326_lb: [ 1 x_68_ ^ 2 - 2 x_72_ * x_68_ + 1 x_72_ ^ 2 + 1 y_68_ ^ 2 - 2 y_72_ * y_68_ + 1 y_72_ ^ 2 ] >= 3217.5
quadratic_ranged_327_lb: [ 1 x_71_ ^ 2 - 2 x_72_ * x_71_ + 1 x_72_ ^ 2 + 1 y_71_ ^ 2 - 2 y_72_ * y_71_ + 1 y_72_ ^ 2 ] >= 13837.23
quadratic_ranged_328_lb: [ 1 x_5_ ^ 2 - 2 x_73_ * x_5_ + 1 x_73_ ^ 2 + 1 y_5_ ^ 2 - 2 y_73_ * y_5_ + 1 y_73_ ^ 2 ] >= 4027.32
quadratic_ranged_329_lb: [ 1 x_8_ ^ 2 - 2 x_73_ * x_8_ + 1 x_73_ ^ 2 + 1 y_8_ ^ 2 - 2 y_73_ * y_8_ + 1 y_73_ ^ 2 ] >= 28192.23
quadratic_ranged_330_lb: [ 1 x_11_ ^ 2 - 2 x_73_ * x_11_ + 1 x_73_ ^ 2 + 1 y_11_ ^ 2 - 2 y_73_ * y_11_ + 1 y_73_ ^ 2 ] >= 4661.91
quadratic_ranged_331_lb: [ 1 x_17_ ^ 2 - 2 x_73_ * x_17_ + 1 x_73_ ^ 2 + 1 y_17_ ^ 2 - 2 y_73_ * y_17_ + 1 y_73_ ^ 2 ] >= 36847.8
quadratic_ranged_332_lb: [ 1 x_30_ ^ 2 - 2 x_73_ * x_30_ + 1 x_73_ ^ 2 + 1 y_30_ ^ 2 - 2 y_73_ * y_30_ + 1 y_73_ ^ 2 ] >= 32448.239999999998
quadratic_ranged_333_lb: [ 1 x_35_ ^ 2 - 2 x_73_ * x_35_ + 1 x_73_ ^ 2 + 1 y_35_ ^ 2 - 2 y_73_ * y_35_ + 1 y_73_ ^ 2 ] >= 1501.83
quadratic_ranged_334_lb: [ 1 x_46_ ^ 2 - 2 x_73_ * x_46_ + 1 x_73_ ^ 2 + 1 y_46_ ^ 2 - 2 y_73_ * y_46_ + 1 y_73_ ^ 2 ] >= 1331.55
quadratic_ranged_335_lb: [ 1 x_49_ ^ 2 - 2 x_73_ * x_49_ + 1 x_73_ ^ 2 + 1 y_49_ ^ 2 - 2 y_73_ * y_49_ + 1 y_73_ ^ 2 ] >= 27017.1
quadratic_ranged_336_lb: [ 1 x_72_ ^ 2 - 2 x_73_ * x_72_ + 1 x_73_ ^ 2 + 1 y_72_ ^ 2 - 2 y_73_ * y_72_ + 1 y_73_ ^ 2 ] >= 29060.46
quadratic_ranged_337_lb: [ 1 x_19_ ^ 2 - 2 x_74_ * x_19_ + 1 x_74_ ^ 2 + 1 y_19_ ^ 2 - 2 y_74_ * y_19_ + 1 y_74_ ^ 2 ] >= 32853.15
quadratic_ranged_338_lb: [ 1 x_37_ ^ 2 - 2 x_74_ * x_37_ + 1 x_74_ ^ 2 + 1 y_37_ ^ 2 - 2 y_74_ * y_37_ + 1 y_74_ ^ 2 ] >= 33862.95
quadratic_ranged_339_lb: [ 1 x_38_ ^ 2 - 2 x_74_ * x_38_ + 1 x_74_ ^ 2 + 1 y_38_ ^ 2 - 2 y_74_ * y_38_ + 1 y_74_ ^ 2 ] >= 4962.87
quadratic_ranged_340_lb: [ 1 x_43_ ^ 2 - 2 x_74_ * x_43_ + 1 x_74_ ^ 2 + 1 y_43_ ^ 2 - 2 y_74_ * y_43_ + 1 y_74_ ^ 2 ] >= 1380.06
quadratic_ranged_341_lb: [ 1 x_69_ ^ 2 - 2 x_74_ * x_69_ + 1 x_74_ ^ 2 + 1 y_69_ ^ 2 - 2 y_74_ * y_69_ + 1 y_74_ ^ 2 ] >= 30912.75
quadratic_ranged_342_lb: [ 1 x_70_ ^ 2 - 2 x_74_ * x_70_ + 1 x_74_ ^ 2 + 1 y_70_ ^ 2 - 2 y_74_ * y_70_ + 1 y_74_ ^ 2 ] >= 5422.23
quadratic_ranged_343_lb: [ 1 x_72_ ^ 2 - 2 x_74_ * x_72_ + 1 x_74_ ^ 2 + 1 y_72_ ^ 2 - 2 y_74_ * y_72_ + 1 y_74_ ^ 2 ] >= 2143.35
quadratic_ranged_344_lb: [ 1 x_73_ ^ 2 - 2 x_74_ * x_73_ + 1 x_74_ ^ 2 + 1 y_73_ ^ 2 - 2 y_74_ * y_73_ + 1 y_74_ ^ 2 ] >= 32029.47
quadratic_ranged_345_lb: [ 1 x_15_ ^ 2 - 2 x_75_ * x_15_ + 1 x_75_ ^ 2 + 1 y_15_ ^ 2 - 2 y_75_ * y_15_ + 1 y_75_ ^ 2 ] >= 12428.46
quadratic_ranged_346_lb: [ 1 x_26_ ^ 2 - 2 x_75_ * x_26_ + 1 x_75_ ^ 2 + 1 y_26_ ^ 2 - 2 y_75_ * y_26_ + 1 y_75_ ^ 2 ] >= 3472.92
quadratic_ranged_347_lb: [ 1 x_46_ ^ 2 - 2 x_75_ * x_46_ + 1 x_75_ ^ 2 + 1 y_46_ ^ 2 - 2 y_75_ * y_46_ + 1 y_75_ ^ 2 ] >= 1390.95
quadratic_ranged_348_lb: [ 1 x_66_ ^ 2 - 2 x_75_ * x_66_ + 1 x_75_ ^ 2 + 1 y_66_ ^ 2 - 2 y_75_ * y_66_ + 1 y_75_ ^ 2 ] >= 2175.03
quadratic_ranged_349_lb: [ 1 x_74_ ^ 2 - 2 x_75_ * x_74_ + 1 x_75_ ^ 2 + 1 y_74_ ^ 2 - 2 y_75_ * y_74_ + 1 y_75_ ^ 2 ] >= 28279.35
quadratic_ranged_350_lb: [ 1 x_15_ ^ 2 - 2 x_76_ * x_15_ + 1 x_76_ ^ 2 + 1 y_15_ ^ 2 - 2 y_76_ * y_15_ + 1 y_76_ ^ 2 ] >= 1501.83
quadratic_ranged_351_lb: [ 1 x_22_ ^ 2 - 2 x_76_ * x_22_ + 1 x_76_ ^ 2 + 1 y_22_ ^ 2 - 2 y_76_ * y_22_ + 1 y_76_ ^ 2 ] >= 15341.039999999999
quadratic_ranged_352_lb: [ 1 x_26_ ^ 2 - 2 x_76_ * x_26_ + 1 x_76_ ^ 2 + 1 y_26_ ^ 2 - 2 y_76_ * y_26_ + 1 y_76_ ^ 2 ] >= 6380.55
quadratic_ranged_353_lb: [ 1 x_36_ ^ 2 - 2 x_76_ * x_36_ + 1 x_76_ ^ 2 + 1 y_36_ ^ 2 - 2 y_76_ * y_36_ + 1 y_76_ ^ 2 ] >= 8498.16
quadratic_ranged_354_lb: [ 1 x_53_ ^ 2 - 2 x_76_ * x_53_ + 1 x_76_ ^ 2 + 1 y_53_ ^ 2 - 2 y_76_ * y_53_ + 1 y_76_ ^ 2 ] >= 8795.16
quadratic_ranged_355_lb: [ 1 x_57_ ^ 2 - 2 x_76_ * x_57_ + 1 x_76_ ^ 2 + 1 y_57_ ^ 2 - 2 y_76_ * y_57_ + 1 y_76_ ^ 2 ] >= 1683
quadratic_ranged_356_lb: [ 1 x_75_ ^ 2 - 2 x_76_ * x_75_ + 1 x_76_ ^ 2 + 1 y_75_ ^ 2 - 2 y_76_ * y_75_ + 1 y_76_ ^ 2 ] >= 5818.23
quadratic_ranged_357_lb: [ 1 x_10_ ^ 2 - 2 x_77_ * x_10_ + 1 x_77_ ^ 2 + 1 y_10_ ^ 2 - 2 y_77_ * y_10_ + 1 y_77_ ^ 2 ] >= 524.7
quadratic_ranged_358_lb: [ 1 x_14_ ^ 2 - 2 x_77_ * x_14_ + 1 x_77_ ^ 2 + 1 y_14_ ^ 2 - 2 y_77_ * y_14_ + 1 y_77_ ^ 2 ] >= 6799.32
quadratic_ranged_359_lb: [ 1 x_22_ ^ 2 - 2 x_77_ * x_22_ + 1 x_77_ ^ 2 + 1 y_22_ ^ 2 - 2 y_77_ * y_22_ + 1 y_77_ ^ 2 ] >= 8590.23
quadratic_ranged_360_lb: [ 1 x_25_ ^ 2 - 2 x_77_ * x_25_ + 1 x_77_ ^ 2 + 1 y_25_ ^ 2 - 2 y_77_ * y_25_ + 1 y_77_ ^ 2 ] >= 20889.99
quadratic_ranged_361_lb: [ 1 x_29_ ^ 2 - 2 x_77_ * x_29_ + 1 x_77_ ^ 2 + 1 y_29_ ^ 2 - 2 y_77_ * y_29_ + 1 y_77_ ^ 2 ] >= 13719.42
quadratic_ranged_362_lb: [ 1 x_37_ ^ 2 - 2 x_77_ * x_37_ + 1 x_77_ ^ 2 + 1 y_37_ ^ 2 - 2 y_77_ * y_37_ + 1 y_77_ ^ 2 ] >= 7510.14
quadratic_ranged_363_lb: [ 1 x_44_ ^ 2 - 2 x_77_ * x_44_ + 1 x_77_ ^ 2 + 1 y_44_ ^ 2 - 2 y_77_ * y_44_ + 1 y_77_ ^ 2 ] >= 2281.95
quadratic_ranged_364_lb: [ 1 x_49_ ^ 2 - 2 x_77_ * x_49_ + 1 x_77_ ^ 2 + 1 y_49_ ^ 2 - 2 y_77_ * y_49_ + 1 y_77_ ^ 2 ] >= 9012.96
quadratic_ranged_365_lb: [ 1 x_52_ ^ 2 - 2 x_77_ * x_52_ + 1 x_77_ ^ 2 + 1 y_52_ ^ 2 - 2 y_77_ * y_52_ + 1 y_77_ ^ 2 ] >= 12798.72
quadratic_ranged_366_lb: [ 1 x_55_ ^ 2 - 2 x_77_ * x_55_ + 1 x_77_ ^ 2 + 1 y_55_ ^ 2 - 2 y_77_ * y_55_ + 1 y_77_ ^ 2 ] >= 15270.75
quadratic_ranged_367_lb: [ 1 x_65_ ^ 2 - 2 x_77_ * x_65_ + 1 x_77_ ^ 2 + 1 y_65_ ^ 2 - 2 y_77_ * y_65_ + 1 y_77_ ^ 2 ] >= 1641.42
quadratic_ranged_368_lb: [ 1 x_76_ ^ 2 - 2 x_77_ * x_76_ + 1 x_77_ ^ 2 + 1 y_76_ ^ 2 - 2 y_77_ * y_76_ + 1 y_77_ ^ 2 ] >= 1941.3899999999999
quadratic_ranged_369_lb: [ 1 x_1_ ^ 2 - 2 x_78_ * x_1_ + 1 x_78_ ^ 2 + 1 y_1_ ^ 2 - 2 y_78_ * y_1_ + 1 y_78_ ^ 2 ] >= 2211.66
quadratic_ranged_370_lb: [ 1 x_12_ ^ 2 - 2 x_78_ * x_12_ + 1 x_78_ ^ 2 + 1 y_12_ ^ 2 - 2 y_78_ * y_12_ + 1 y_78_ ^ 2 ] >= 13037.31
quadratic_ranged_371_lb: [ 1 x_26_ ^ 2 - 2 x_78_ * x_26_ + 1 x_78_ ^ 2 + 1 y_26_ ^ 2 - 2 y_78_ * y_26_ + 1 y_78_ ^ 2 ] >= 5727.15
quadratic_ranged_372_lb: [ 1 x_35_ ^ 2 - 2 x_78_ * x_35_ + 1 x_78_ ^ 2 + 1 y_35_ ^ 2 - 2 y_78_ * y_35_ + 1 y_78_ ^ 2 ] >= 586.08
quadratic_ranged_373_lb: [ 1 x_47_ ^ 2 - 2 x_78_ * x_47_ + 1 x_78_ ^ 2 + 1 y_47_ ^ 2 - 2 y_78_ * y_47_ + 1 y_78_ ^ 2 ] >= 3248.19
quadratic_ranged_374_lb: [ 1 x_50_ ^ 2 - 2 x_78_ * x_50_ + 1 x_78_ ^ 2 + 1 y_50_ ^ 2 - 2 y_78_ * y_50_ + 1 y_78_ ^ 2 ] >= 11235.51
quadratic_ranged_375_lb: [ 1 x_51_ ^ 2 - 2 x_78_ * x_51_ + 1 x_78_ ^ 2 + 1 y_51_ ^ 2 - 2 y_78_ * y_51_ + 1 y_78_ ^ 2 ] >= 10743.48
quadratic_ranged_376_lb: [ 1 x_58_ ^ 2 - 2 x_78_ * x_58_ + 1 x_78_ ^ 2 + 1 y_58_ ^ 2 - 2 y_78_ * y_58_ + 1 y_78_ ^ 2 ] >= 6435
quadratic_ranged_377_lb: [ 1 x_77_ ^ 2 - 2 x_78_ * x_77_ + 1 x_78_ ^ 2 + 1 y_77_ ^ 2 - 2 y_78_ * y_77_ + 1 y_78_ ^ 2 ] >= 11322.63
quadratic_ranged_378_lb: [ 1 x_19_ ^ 2 - 2 x_79_ * x_19_ + 1 x_79_ ^ 2 + 1 y_19_ ^ 2 - 2 y_79_ * y_19_ + 1 y_79_ ^ 2 ] >= 18533.79
quadratic_ranged_379_lb: [ 1 x_28_ ^ 2 - 2 x_79_ * x_28_ + 1 x_79_ ^ 2 + 1 y_28_ ^ 2 - 2 y_79_ * y_28_ + 1 y_79_ ^ 2 ] >= 16617.15
quadratic_ranged_380_lb: [ 1 x_40_ ^ 2 - 2 x_79_ * x_40_ + 1 x_79_ ^ 2 + 1 y_40_ ^ 2 - 2 y_79_ * y_40_ + 1 y_79_ ^ 2 ] >= 24464.88
quadratic_ranged_381_lb: [ 1 x_45_ ^ 2 - 2 x_79_ * x_45_ + 1 x_79_ ^ 2 + 1 y_45_ ^ 2 - 2 y_79_ * y_45_ + 1 y_79_ ^ 2 ] >= 6502.32
quadratic_ranged_382_lb: [ 1 x_68_ ^ 2 - 2 x_79_ * x_68_ + 1 x_79_ ^ 2 + 1 y_68_ ^ 2 - 2 y_79_ * y_68_ + 1 y_79_ ^ 2 ] >= 18735.75
quadratic_ranged_383_lb: [ 1 x_74_ ^ 2 - 2 x_79_ * x_74_ + 1 x_79_ ^ 2 + 1 y_74_ ^ 2 - 2 y_79_ * y_74_ + 1 y_79_ ^ 2 ] >= 5260.86
quadratic_ranged_384_lb: [ 1 x_78_ ^ 2 - 2 x_79_ * x_78_ + 1 x_79_ ^ 2 + 1 y_78_ ^ 2 - 2 y_79_ * y_78_ + 1 y_79_ ^ 2 ] >= 6672.6
quadratic_ranged_385_lb: [ 1 x_2_ ^ 2 - 2 x_80_ * x_2_ + 1 x_80_ ^ 2 + 1 y_2_ ^ 2 - 2 y_80_ * y_2_ + 1 y_80_ ^ 2 ] >= 28263.51
quadratic_ranged_386_lb: [ 1 x_12_ ^ 2 - 2 x_80_ * x_12_ + 1 x_80_ ^ 2 + 1 y_12_ ^ 2 - 2 y_80_ * y_12_ + 1 y_80_ ^ 2 ] >= 2392.83
quadratic_ranged_387_lb: [ 1 x_36_ ^ 2 - 2 x_80_ * x_36_ + 1 x_80_ ^ 2 + 1 y_36_ ^ 2 - 2 y_80_ * y_36_ + 1 y_80_ ^ 2 ] >= 4468.86
quadratic_ranged_388_lb: [ 1 x_37_ ^ 2 - 2 x_80_ * x_37_ + 1 x_80_ ^ 2 + 1 y_37_ ^ 2 - 2 y_80_ * y_37_ + 1 y_80_ ^ 2 ] >= 309.87
quadratic_ranged_389_lb: [ 1 x_41_ ^ 2 - 2 x_80_ * x_41_ + 1 x_80_ ^ 2 + 1 y_41_ ^ 2 - 2 y_80_ * y_41_ + 1 y_80_ ^ 2 ] >= 12775.95
quadratic_ranged_390_lb: [ 1 x_42_ ^ 2 - 2 x_80_ * x_42_ + 1 x_80_ ^ 2 + 1 y_42_ ^ 2 - 2 y_80_ * y_42_ + 1 y_80_ ^ 2 ] >= 23646.15
quadratic_ranged_391_lb: [ 1 x_44_ ^ 2 - 2 x_80_ * x_44_ + 1 x_80_ ^ 2 + 1 y_44_ ^ 2 - 2 y_80_ * y_44_ + 1 y_80_ ^ 2 ] >= 5276.7
quadratic_ranged_392_lb: [ 1 x_59_ ^ 2 - 2 x_80_ * x_59_ + 1 x_80_ ^ 2 + 1 y_59_ ^ 2 - 2 y_80_ * y_59_ + 1 y_80_ ^ 2 ] >= 13480.83
quadratic_ranged_393_lb: [ 1 x_63_ ^ 2 - 2 x_80_ * x_63_ + 1 x_80_ ^ 2 + 1 y_63_ ^ 2 - 2 y_80_ * y_63_ + 1 y_80_ ^ 2 ] >= 19603.98
quadratic_ranged_394_lb: [ 1 x_64_ ^ 2 - 2 x_80_ * x_64_ + 1 x_80_ ^ 2 + 1 y_64_ ^ 2 - 2 y_80_ * y_64_ + 1 y_80_ ^ 2 ] >= 5355.9
quadratic_ranged_395_lb: [ 1 x_67_ ^ 2 - 2 x_80_ * x_67_ + 1 x_80_ ^ 2 + 1 y_67_ ^ 2 - 2 y_80_ * y_67_ + 1 y_80_ ^ 2 ] >= 4962.87
quadratic_ranged_396_lb: [ 1 x_69_ ^ 2 - 2 x_80_ * x_69_ + 1 x_80_ ^ 2 + 1 y_69_ ^ 2 - 2 y_80_ * y_69_ + 1 y_80_ ^ 2 ] >= 10162.35
quadratic_ranged_397_lb: [ 1 x_74_ ^ 2 - 2 x_80_ * x_74_ + 1 x_80_ ^ 2 + 1 y_74_ ^ 2 - 2 y_80_ * y_74_ + 1 y_80_ ^ 2 ] >= 28611
quadratic_ranged_398_lb: [ 1 x_75_ ^ 2 - 2 x_80_ * x_75_ + 1 x_80_ ^ 2 + 1 y_75_ ^ 2 - 2 y_80_ * y_75_ + 1 y_80_ ^ 2 ] >= 2677.95
quadratic_ranged_399_lb: [ 1 x_79_ ^ 2 - 2 x_80_ * x_79_ + 1 x_80_ ^ 2 + 1 y_79_ ^ 2 - 2 y_80_ * y_79_ + 1 y_80_ ^ 2 ] >= 13949.1
quadratic_ranged_400_lb: [ 1 x_18_ ^ 2 - 2 x_81_ * x_18_ + 1 x_81_ ^ 2 + 1 y_18_ ^ 2 - 2 y_81_ * y_18_ + 1 y_81_ ^ 2 ] >= 16870.59
quadratic_ranged_401_lb: [ 1 x_32_ ^ 2 - 2 x_81_ * x_32_ + 1 x_81_ ^ 2 + 1 y_32_ ^ 2 - 2 y_81_ * y_32_ + 1 y_81_ ^ 2 ] >= 524.7
quadratic_ranged_402_lb: [ 1 x_36_ ^ 2 - 2 x_81_ * x_36_ + 1 x_81_ ^ 2 + 1 y_36_ ^ 2 - 2 y_81_ * y_36_ + 1 y_81_ ^ 2 ] >= 1557.27
quadratic_ranged_403_lb: [ 1 x_48_ ^ 2 - 2 x_81_ * x_48_ + 1 x_81_ ^ 2 + 1 y_48_ ^ 2 - 2 y_81_ * y_48_ + 1 y_81_ ^ 2 ] >= 2433.42
quadratic_ranged_404_lb: [ 1 x_52_ ^ 2 - 2 x_81_ * x_52_ + 1 x_81_ ^ 2 + 1 y_52_ ^ 2 - 2 y_81_ * y_52_ + 1 y_81_ ^ 2 ] >= 18647.64
quadratic_ranged_405_lb: [ 1 x_62_ ^ 2 - 2 x_81_ * x_62_ + 1 x_81_ ^ 2 + 1 y_62_ ^ 2 - 2 y_81_ * y_62_ + 1 y_81_ ^ 2 ] >= 16790.4
quadratic_ranged_406_lb: [ 1 x_63_ ^ 2 - 2 x_81_ * x_63_ + 1 x_81_ ^ 2 + 1 y_63_ ^ 2 - 2 y_81_ * y_63_ + 1 y_81_ ^ 2 ] >= 20695.95
quadratic_ranged_407_lb: [ 1 x_67_ ^ 2 - 2 x_81_ * x_67_ + 1 x_81_ ^ 2 + 1 y_67_ ^ 2 - 2 y_81_ * y_67_ + 1 y_81_ ^ 2 ] >= 257.4
quadratic_ranged_408_lb: [ 1 x_71_ ^ 2 - 2 x_81_ * x_71_ + 1 x_81_ ^ 2 + 1 y_71_ ^ 2 - 2 y_81_ * y_71_ + 1 y_81_ ^ 2 ] >= 9314.91
quadratic_ranged_409_lb: [ 1 x_75_ ^ 2 - 2 x_81_ * x_75_ + 1 x_81_ ^ 2 + 1 y_75_ ^ 2 - 2 y_81_ * y_75_ + 1 y_81_ ^ 2 ] >= 11311.74
quadratic_ranged_410_lb: [ 1 x_80_ ^ 2 - 2 x_81_ * x_80_ + 1 x_81_ ^ 2 + 1 y_80_ ^ 2 - 2 y_81_ * y_80_ + 1 y_81_ ^ 2 ] >= 4305.51
quadratic_ranged_411_lb: [ 1 x_33_ ^ 2 - 2 x_82_ * x_33_ + 1 x_82_ ^ 2 + 1 y_33_ ^ 2 - 2 y_82_ * y_33_ + 1 y_82_ ^ 2 ] >= 416.79
quadratic_ranged_412_lb: [ 1 x_51_ ^ 2 - 2 x_82_ * x_51_ + 1 x_82_ ^ 2 + 1 y_51_ ^ 2 - 2 y_82_ * y_51_ + 1 y_82_ ^ 2 ] >= 15683.58
quadratic_ranged_413_lb: [ 1 x_53_ ^ 2 - 2 x_82_ * x_53_ + 1 x_82_ ^ 2 + 1 y_53_ ^ 2 - 2 y_82_ * y_53_ + 1 y_82_ ^ 2 ] >= 14519.34
quadratic_ranged_414_lb: [ 1 x_58_ ^ 2 - 2 x_82_ * x_58_ + 1 x_82_ ^ 2 + 1 y_58_ ^ 2 - 2 y_82_ * y_58_ + 1 y_82_ ^ 2 ] >= 6021.18
quadratic_ranged_415_lb: [ 1 x_61_ ^ 2 - 2 x_82_ * x_61_ + 1 x_82_ ^ 2 + 1 y_61_ ^ 2 - 2 y_82_ * y_61_ + 1 y_82_ ^ 2 ] >= 15192.539999999999
quadratic_ranged_416_lb: [ 1 x_63_ ^ 2 - 2 x_82_ * x_63_ + 1 x_82_ ^ 2 + 1 y_63_ ^ 2 - 2 y_82_ * y_63_ + 1 y_82_ ^ 2 ] >= 17037.9
quadratic_ranged_417_lb: [ 1 x_67_ ^ 2 - 2 x_82_ * x_67_ + 1 x_82_ ^ 2 + 1 y_67_ ^ 2 - 2 y_82_ * y_67_ + 1 y_82_ ^ 2 ] >= 1390.95
quadratic_ranged_418_lb: [ 1 x_80_ ^ 2 - 2 x_82_ * x_80_ + 1 x_82_ ^ 2 + 1 y_80_ ^ 2 - 2 y_82_ * y_80_ + 1 y_82_ ^ 2 ] >= 1679.04
quadratic_ranged_419_lb: [ 1 x_81_ ^ 2 - 2 x_82_ * x_81_ + 1 x_82_ ^ 2 + 1 y_81_ ^ 2 - 2 y_82_ * y_81_ + 1 y_82_ ^ 2 ] >= 717.75
quadratic_ranged_420_lb: [ 1 x_48_ ^ 2 - 2 x_83_ * x_48_ + 1 x_83_ ^ 2 + 1 y_48_ ^ 2 - 2 y_83_ * y_48_ + 1 y_83_ ^ 2 ] >= 8815.95
quadratic_ranged_421_lb: [ 1 x_50_ ^ 2 - 2 x_83_ * x_50_ + 1 x_83_ ^ 2 + 1 y_50_ ^ 2 - 2 y_83_ * y_50_ + 1 y_83_ ^ 2 ] >= 15504.39
quadratic_ranged_422_lb: [ 1 x_52_ ^ 2 - 2 x_83_ * x_52_ + 1 x_83_ ^ 2 + 1 y_52_ ^ 2 - 2 y_83_ * y_52_ + 1 y_83_ ^ 2 ] >= 21135.51
quadratic_ranged_423_lb: [ 1 x_53_ ^ 2 - 2 x_83_ * x_53_ + 1 x_83_ ^ 2 + 1 y_53_ ^ 2 - 2 y_83_ * y_53_ + 1 y_83_ ^ 2 ] >= 34392.6
quadratic_ranged_424_lb: [ 1 x_55_ ^ 2 - 2 x_83_ * x_55_ + 1 x_83_ ^ 2 + 1 y_55_ ^ 2 - 2 y_83_ * y_55_ + 1 y_83_ ^ 2 ] >= 23096.7
quadratic_ranged_425_lb: [ 1 x_61_ ^ 2 - 2 x_83_ * x_61_ + 1 x_83_ ^ 2 + 1 y_61_ ^ 2 - 2 y_83_ * y_61_ + 1 y_83_ ^ 2 ] >= 23779.8
quadratic_ranged_426_lb: [ 1 x_79_ ^ 2 - 2 x_83_ * x_79_ + 1 x_83_ ^ 2 + 1 y_79_ ^ 2 - 2 y_83_ * y_79_ + 1 y_83_ ^ 2 ] >= 11076.12
quadratic_ranged_427_lb: [ 1 x_82_ ^ 2 - 2 x_83_ * x_82_ + 1 x_83_ ^ 2 + 1 y_82_ ^ 2 - 2 y_83_ * y_82_ + 1 y_83_ ^ 2 ] >= 12547.26
quadratic_ranged_428_lb: [ 1 x_7_ ^ 2 - 2 x_84_ * x_7_ + 1 x_84_ ^ 2 + 1 y_7_ ^ 2 - 2 y_84_ * y_7_ + 1 y_84_ ^ 2 ] >= 10593.99
quadratic_ranged_429_lb: [ 1 x_25_ ^ 2 - 2 x_84_ * x_25_ + 1 x_84_ ^ 2 + 1 y_25_ ^ 2 - 2 y_84_ * y_25_ + 1 y_84_ ^ 2 ] >= 15472.71
quadratic_ranged_430_lb: [ 1 x_30_ ^ 2 - 2 x_84_ * x_30_ + 1 x_84_ ^ 2 + 1 y_30_ ^ 2 - 2 y_84_ * y_30_ + 1 y_84_ ^ 2 ] >= 36527.04
quadratic_ranged_431_lb: [ 1 x_31_ ^ 2 - 2 x_84_ * x_31_ + 1 x_84_ ^ 2 + 1 y_31_ ^ 2 - 2 y_84_ * y_31_ + 1 y_84_ ^ 2 ] >= 21578.04
quadratic_ranged_432_lb: [ 1 x_45_ ^ 2 - 2 x_84_ * x_45_ + 1 x_84_ ^ 2 + 1 y_45_ ^ 2 - 2 y_84_ * y_45_ + 1 y_84_ ^ 2 ] >= 23800.59
quadratic_ranged_433_lb: [ 1 x_51_ ^ 2 - 2 x_84_ * x_51_ + 1 x_84_ ^ 2 + 1 y_51_ ^ 2 - 2 y_84_ * y_51_ + 1 y_84_ ^ 2 ] >= 11429.55
quadratic_ranged_434_lb: [ 1 x_60_ ^ 2 - 2 x_84_ * x_60_ + 1 x_84_ ^ 2 + 1 y_60_ ^ 2 - 2 y_84_ * y_60_ + 1 y_84_ ^ 2 ] >= 3719.43
quadratic_ranged_435_lb: [ 1 x_61_ ^ 2 - 2 x_84_ * x_61_ + 1 x_84_ ^ 2 + 1 y_61_ ^ 2 - 2 y_84_ * y_61_ + 1 y_84_ ^ 2 ] >= 19401.03
quadratic_ranged_436_lb: [ 1 x_72_ ^ 2 - 2 x_84_ * x_72_ + 1 x_84_ ^ 2 + 1 y_72_ ^ 2 - 2 y_84_ * y_72_ + 1 y_84_ ^ 2 ] >= 27666.54
quadratic_ranged_437_lb: [ 1 x_83_ ^ 2 - 2 x_84_ * x_83_ + 1 x_84_ ^ 2 + 1 y_83_ ^ 2 - 2 y_84_ * y_83_ + 1 y_84_ ^ 2 ] >= 476.19
quadratic_ranged_438_lb: [ 1 x_27_ ^ 2 - 2 x_85_ * x_27_ + 1 x_85_ ^ 2 + 1 y_27_ ^ 2 - 2 y_85_ * y_27_ + 1 y_85_ ^ 2 ] >= 24758.91
quadratic_ranged_439_lb: [ 1 x_43_ ^ 2 - 2 x_85_ * x_43_ + 1 x_85_ ^ 2 + 1 y_43_ ^ 2 - 2 y_85_ * y_43_ + 1 y_85_ ^ 2 ] >= 12201.75
quadratic_ranged_440_lb: [ 1 x_48_ ^ 2 - 2 x_85_ * x_48_ + 1 x_85_ ^ 2 + 1 y_48_ ^ 2 - 2 y_85_ * y_48_ + 1 y_85_ ^ 2 ] >= 21172.14
quadratic_ranged_441_lb: [ 1 x_62_ ^ 2 - 2 x_85_ * x_62_ + 1 x_85_ ^ 2 + 1 y_62_ ^ 2 - 2 y_85_ * y_62_ + 1 y_85_ ^ 2 ] >= 13325.4
quadratic_ranged_442_lb: [ 1 x_79_ ^ 2 - 2 x_85_ * x_79_ + 1 x_85_ ^ 2 + 1 y_79_ ^ 2 - 2 y_85_ * y_79_ + 1 y_85_ ^ 2 ] >= 18735.75
quadratic_ranged_443_lb: [ 1 x_84_ ^ 2 - 2 x_85_ * x_84_ + 1 x_85_ ^ 2 + 1 y_84_ ^ 2 - 2 y_85_ * y_84_ + 1 y_85_ ^ 2 ] >= 43577.82
quadratic_ranged_444_lb: [ 1 x_2_ ^ 2 - 2 x_86_ * x_2_ + 1 x_86_ ^ 2 + 1 y_2_ ^ 2 - 2 y_86_ * y_2_ + 1 y_86_ ^ 2 ] >= 10107.9
quadratic_ranged_445_lb: [ 1 x_3_ ^ 2 - 2 x_86_ * x_3_ + 1 x_86_ ^ 2 + 1 y_3_ ^ 2 - 2 y_86_ * y_3_ + 1 y_86_ ^ 2 ] >= 8054.64
quadratic_ranged_446_lb: [ 1 x_19_ ^ 2 - 2 x_86_ * x_19_ + 1 x_86_ ^ 2 + 1 y_19_ ^ 2 - 2 y_86_ * y_19_ + 1 y_86_ ^ 2 ] >= 7413.12
quadratic_ranged_447_lb: [ 1 x_28_ ^ 2 - 2 x_86_ * x_28_ + 1 x_86_ ^ 2 + 1 y_28_ ^ 2 - 2 y_86_ * y_28_ + 1 y_86_ ^ 2 ] >= 11889.9
quadratic_ranged_448_lb: [ 1 x_35_ ^ 2 - 2 x_86_ * x_35_ + 1 x_86_ ^ 2 + 1 y_35_ ^ 2 - 2 y_86_ * y_35_ + 1 y_86_ ^ 2 ] >= 1648.35
quadratic_ranged_449_lb: [ 1 x_49_ ^ 2 - 2 x_86_ * x_49_ + 1 x_86_ ^ 2 + 1 y_49_ ^ 2 - 2 y_86_ * y_49_ + 1 y_86_ ^ 2 ] >= 7702.2
quadratic_ranged_450_lb: [ 1 x_57_ ^ 2 - 2 x_86_ * x_57_ + 1 x_86_ ^ 2 + 1 y_57_ ^ 2 - 2 y_86_ * y_57_ + 1 y_86_ ^ 2 ] >= 2618.55
quadratic_ranged_451_lb: [ 1 x_69_ ^ 2 - 2 x_86_ * x_69_ + 1 x_86_ ^ 2 + 1 y_69_ ^ 2 - 2 y_86_ * y_69_ + 1 y_86_ ^ 2 ] >= 8525.88
quadratic_ranged_452_lb: [ 1 x_83_ ^ 2 - 2 x_86_ * x_83_ + 1 x_86_ ^ 2 + 1 y_83_ ^ 2 - 2 y_86_ * y_83_ + 1 y_86_ ^ 2 ] >= 7493.3099999999995
quadratic_ranged_453_lb: [ 1 x_85_ ^ 2 - 2 x_86_ * x_85_ + 1 x_86_ ^ 2 + 1 y_85_ ^ 2 - 2 y_86_ * y_85_ + 1 y_86_ ^ 2 ] >= 16493.4
quadratic_ranged_454_lb: [ 1 x_1_ ^ 2 - 2 x_87_ * x_1_ + 1 x_87_ ^ 2 + 1 y_1_ ^ 2 - 2 y_87_ * y_1_ + 1 y_87_ ^ 2 ] >= 15619.23
quadratic_ranged_455_lb: [ 1 x_6_ ^ 2 - 2 x_87_ * x_6_ + 1 x_87_ ^ 2 + 1 y_6_ ^ 2 - 2 y_87_ * y_6_ + 1 y_87_ ^ 2 ] >= 9155.52
quadratic_ranged_456_lb: [ 1 x_26_ ^ 2 - 2 x_87_ * x_26_ + 1 x_87_ ^ 2 + 1 y_26_ ^ 2 - 2 y_87_ * y_26_ + 1 y_87_ ^ 2 ] >= 26357.76
quadratic_ranged_457_lb: [ 1 x_29_ ^ 2 - 2 x_87_ * x_29_ + 1 x_87_ ^ 2 + 1 y_29_ ^ 2 - 2 y_87_ * y_29_ + 1 y_87_ ^ 2 ] >= 29755.44
quadratic_ranged_458_lb: [ 1 x_30_ ^ 2 - 2 x_87_ * x_30_ + 1 x_87_ ^ 2 + 1 y_30_ ^ 2 - 2 y_87_ * y_30_ + 1 y_87_ ^ 2 ] >= 1667.16
quadratic_ranged_459_lb: [ 1 x_32_ ^ 2 - 2 x_87_ * x_32_ + 1 x_87_ ^ 2 + 1 y_32_ ^ 2 - 2 y_87_ * y_32_ + 1 y_87_ ^ 2 ] >= 12988.8
quadratic_ranged_460_lb: [ 1 x_36_ ^ 2 - 2 x_87_ * x_36_ + 1 x_87_ ^ 2 + 1 y_36_ ^ 2 - 2 y_87_ * y_36_ + 1 y_87_ ^ 2 ] >= 17971.47
quadratic_ranged_461_lb: [ 1 x_45_ ^ 2 - 2 x_87_ * x_45_ + 1 x_87_ ^ 2 + 1 y_45_ ^ 2 - 2 y_87_ * y_45_ + 1 y_87_ ^ 2 ] >= 927.63
quadratic_ranged_462_lb: [ 1 x_63_ ^ 2 - 2 x_87_ * x_63_ + 1 x_87_ ^ 2 + 1 y_63_ ^ 2 - 2 y_87_ * y_63_ + 1 y_87_ ^ 2 ] >= 17551.71
quadratic_ranged_463_lb: [ 1 x_74_ ^ 2 - 2 x_87_ * x_74_ + 1 x_87_ ^ 2 + 1 y_74_ ^ 2 - 2 y_87_ * y_74_ + 1 y_87_ ^ 2 ] >= 4412.43
quadratic_ranged_464_lb: [ 1 x_75_ ^ 2 - 2 x_87_ * x_75_ + 1 x_87_ ^ 2 + 1 y_75_ ^ 2 - 2 y_87_ * y_75_ + 1 y_87_ ^ 2 ] >= 29703.96
quadratic_ranged_465_lb: [ 1 x_82_ ^ 2 - 2 x_87_ * x_82_ + 1 x_87_ ^ 2 + 1 y_82_ ^ 2 - 2 y_87_ * y_82_ + 1 y_87_ ^ 2 ] >= 12962.07
quadratic_ranged_466_lb: [ 1 x_85_ ^ 2 - 2 x_87_ * x_85_ + 1 x_87_ ^ 2 + 1 y_85_ ^ 2 - 2 y_87_ * y_85_ + 1 y_87_ ^ 2 ] >= 1079.1
quadratic_ranged_467_lb: [ 1 x_86_ ^ 2 - 2 x_87_ * x_86_ + 1 x_87_ ^ 2 + 1 y_86_ ^ 2 - 2 y_87_ * y_86_ + 1 y_87_ ^ 2 ] >= 11335.5
quadratic_ranged_468_lb: [ 1 x_27_ ^ 2 - 2 x_88_ * x_27_ + 1 x_88_ ^ 2 + 1 y_27_ ^ 2 - 2 y_88_ * y_27_ + 1 y_88_ ^ 2 ] >= 431.64
quadratic_ranged_469_lb: [ 1 x_52_ ^ 2 - 2 x_88_ * x_52_ + 1 x_88_ ^ 2 + 1 y_52_ ^ 2 - 2 y_88_ * y_52_ + 1 y_88_ ^ 2 ] >= 915.75
quadratic_ranged_470_lb: [ 1 x_57_ ^ 2 - 2 x_88_ * x_57_ + 1 x_88_ ^ 2 + 1 y_57_ ^ 2 - 2 y_88_ * y_57_ + 1 y_88_ ^ 2 ] >= 11771.1
quadratic_ranged_471_lb: [ 1 x_71_ ^ 2 - 2 x_88_ * x_71_ + 1 x_88_ ^ 2 + 1 y_71_ ^ 2 - 2 y_88_ * y_71_ + 1 y_88_ ^ 2 ] >= 4118.4
quadratic_ranged_472_lb: [ 1 x_72_ ^ 2 - 2 x_88_ * x_72_ + 1 x_88_ ^ 2 + 1 y_72_ ^ 2 - 2 y_88_ * y_72_ + 1 y_88_ ^ 2 ] >= 6883.47
quadratic_ranged_473_lb: [ 1 x_79_ ^ 2 - 2 x_88_ * x_79_ + 1 x_88_ ^ 2 + 1 y_79_ ^ 2 - 2 y_88_ * y_79_ + 1 y_88_ ^ 2 ] >= 128.7
quadratic_ranged_474_lb: [ 1 x_85_ ^ 2 - 2 x_88_ * x_85_ + 1 x_88_ ^ 2 + 1 y_85_ ^ 2 - 2 y_88_ * y_85_ + 1 y_88_ ^ 2 ] >= 18656.55
quadratic_ranged_475_lb: [ 1 x_87_ ^ 2 - 2 x_88_ * x_87_ + 1 x_88_ ^ 2 + 1 y_87_ ^ 2 - 2 y_88_ * y_87_ + 1 y_88_ ^ 2 ] >= 11112.75
quadratic_ranged_476_lb: [ 1 x_19_ ^ 2 - 2 x_89_ * x_19_ + 1 x_89_ ^ 2 + 1 y_19_ ^ 2 - 2 y_89_ * y_19_ + 1 y_89_ ^ 2 ] >= 18204.12
quadratic_ranged_477_lb: [ 1 x_23_ ^ 2 - 2 x_89_ * x_23_ + 1 x_89_ ^ 2 + 1 y_23_ ^ 2 - 2 y_89_ * y_23_ + 1 y_89_ ^ 2 ] >= 836.55
quadratic_ranged_478_lb: [ 1 x_37_ ^ 2 - 2 x_89_ * x_37_ + 1 x_89_ ^ 2 + 1 y_37_ ^ 2 - 2 y_89_ * y_37_ + 1 y_89_ ^ 2 ] >= 17196.3
quadratic_ranged_479_lb: [ 1 x_39_ ^ 2 - 2 x_89_ * x_39_ + 1 x_89_ ^ 2 + 1 y_39_ ^ 2 - 2 y_89_ * y_39_ + 1 y_89_ ^ 2 ] >= 9865.35
quadratic_ranged_480_lb: [ 1 x_52_ ^ 2 - 2 x_89_ * x_52_ + 1 x_89_ ^ 2 + 1 y_52_ ^ 2 - 2 y_89_ * y_52_ + 1 y_89_ ^ 2 ] >= 5742
quadratic_ranged_481_lb: [ 1 x_60_ ^ 2 - 2 x_89_ * x_60_ + 1 x_89_ ^ 2 + 1 y_60_ ^ 2 - 2 y_89_ * y_60_ + 1 y_89_ ^ 2 ] >= 8661.51
quadratic_ranged_482_lb: [ 1 x_66_ ^ 2 - 2 x_89_ * x_66_ + 1 x_89_ ^ 2 + 1 y_66_ ^ 2 - 2 y_89_ * y_66_ + 1 y_89_ ^ 2 ] >= 2202.75
quadratic_ranged_483_lb: [ 1 x_69_ ^ 2 - 2 x_89_ * x_69_ + 1 x_89_ ^ 2 + 1 y_69_ ^ 2 - 2 y_89_ * y_69_ + 1 y_89_ ^ 2 ] >= 4506.48
quadratic_ranged_484_lb: [ 1 x_71_ ^ 2 - 2 x_89_ * x_71_ + 1 x_89_ ^ 2 + 1 y_71_ ^ 2 - 2 y_89_ * y_71_ + 1 y_89_ ^ 2 ] >= 1648.35
quadratic_ranged_485_lb: [ 1 x_75_ ^ 2 - 2 x_89_ * x_75_ + 1 x_89_ ^ 2 + 1 y_75_ ^ 2 - 2 y_89_ * y_75_ + 1 y_89_ ^ 2 ] >= 6488.46
quadratic_ranged_486_lb: [ 1 x_87_ ^ 2 - 2 x_89_ * x_87_ + 1 x_89_ ^ 2 + 1 y_87_ ^ 2 - 2 y_89_ * y_87_ + 1 y_89_ ^ 2 ] >= 21037.5
quadratic_ranged_487_lb: [ 1 x_88_ ^ 2 - 2 x_89_ * x_88_ + 1 x_89_ ^ 2 + 1 y_88_ ^ 2 - 2 y_89_ * y_88_ + 1 y_89_ ^ 2 ] >= 2202.75
quadratic_ranged_488_lb: [ 1 x_6_ ^ 2 - 2 x_90_ * x_6_ + 1 x_90_ ^ 2 + 1 y_6_ ^ 2 - 2 y_90_ * y_6_ + 1 y_90_ ^ 2 ] >= 2478.96
quadratic_ranged_489_lb: [ 1 x_13_ ^ 2 - 2 x_90_ * x_13_ + 1 x_90_ ^ 2 + 1 y_13_ ^ 2 - 2 y_90_ * y_13_ + 1 y_90_ ^ 2 ] >= 4375.8
quadratic_ranged_490_lb: [ 1 x_30_ ^ 2 - 2 x_90_ * x_30_ + 1 x_90_ ^ 2 + 1 y_30_ ^ 2 - 2 y_90_ * y_30_ + 1 y_90_ ^ 2 ] >= 3868.92
quadratic_ranged_491_lb: [ 1 x_32_ ^ 2 - 2 x_90_ * x_32_ + 1 x_90_ ^ 2 + 1 y_32_ ^ 2 - 2 y_90_ * y_32_ + 1 y_90_ ^ 2 ] >= 483.12
quadratic_ranged_492_lb: [ 1 x_38_ ^ 2 - 2 x_90_ * x_38_ + 1 x_90_ ^ 2 + 1 y_38_ ^ 2 - 2 y_90_ * y_38_ + 1 y_90_ ^ 2 ] >= 4593.6
quadratic_ranged_493_lb: [ 1 x_43_ ^ 2 - 2 x_90_ * x_43_ + 1 x_90_ ^ 2 + 1 y_43_ ^ 2 - 2 y_90_ * y_43_ + 1 y_90_ ^ 2 ] >= 15124.23
quadratic_ranged_494_lb: [ 1 x_51_ ^ 2 - 2 x_90_ * x_51_ + 1 x_90_ ^ 2 + 1 y_51_ ^ 2 - 2 y_90_ * y_51_ + 1 y_90_ ^ 2 ] >= 20787.03
quadratic_ranged_495_lb: [ 1 x_57_ ^ 2 - 2 x_90_ * x_57_ + 1 x_90_ ^ 2 + 1 y_57_ ^ 2 - 2 y_90_ * y_57_ + 1 y_90_ ^ 2 ] >= 1984.95
quadratic_ranged_496_lb: [ 1 x_88_ ^ 2 - 2 x_90_ * x_88_ + 1 x_90_ ^ 2 + 1 y_88_ ^ 2 - 2 y_90_ * y_88_ + 1 y_90_ ^ 2 ] >= 17729.91
quadratic_ranged_497_lb: [ 1 x_89_ ^ 2 - 2 x_90_ * x_89_ + 1 x_90_ ^ 2 + 1 y_89_ ^ 2 - 2 y_90_ * y_89_ + 1 y_90_ ^ 2 ] >= 21615.66
quadratic_ranged_498_lb: [ 1 x_6_ ^ 2 - 2 x_91_ * x_6_ + 1 x_91_ ^ 2 + 1 y_6_ ^ 2 - 2 y_91_ * y_6_ + 1 y_91_ ^ 2 ] >= 7271.55
quadratic_ranged_499_lb: [ 1 x_17_ ^ 2 - 2 x_91_ * x_17_ + 1 x_91_ ^ 2 + 1 y_17_ ^ 2 - 2 y_91_ * y_17_ + 1 y_91_ ^ 2 ] >= 26556.75
quadratic_ranged_500_lb: [ 1 x_18_ ^ 2 - 2 x_91_ * x_18_ + 1 x_91_ ^ 2 + 1 y_18_ ^ 2 - 2 y_91_ * y_18_ + 1 y_91_ ^ 2 ] >= 19800
quadratic_ranged_501_lb: [ 1 x_19_ ^ 2 - 2 x_91_ * x_19_ + 1 x_91_ ^ 2 + 1 y_19_ ^ 2 - 2 y_91_ * y_19_ + 1 y_91_ ^ 2 ] >= 21388.95
quadratic_ranged_502_lb: [ 1 x_20_ ^ 2 - 2 x_91_ * x_20_ + 1 x_91_ ^ 2 + 1 y_20_ ^ 2 - 2 y_91_ * y_20_ + 1 y_91_ ^ 2 ] >= 20158.38
quadratic_ranged_503_lb: [ 1 x_62_ ^ 2 - 2 x_91_ * x_62_ + 1 x_91_ ^ 2 + 1 y_62_ ^ 2 - 2 y_91_ * y_62_ + 1 y_91_ ^ 2 ] >= 6883.47
quadratic_ranged_504_lb: [ 1 x_76_ ^ 2 - 2 x_91_ * x_76_ + 1 x_91_ ^ 2 + 1 y_76_ ^ 2 - 2 y_91_ * y_76_ + 1 y_91_ ^ 2 ] >= 7565.58
quadratic_ranged_505_lb: [ 1 x_80_ ^ 2 - 2 x_91_ * x_80_ + 1 x_91_ ^ 2 + 1 y_80_ ^ 2 - 2 y_91_ * y_80_ + 1 y_91_ ^ 2 ] >= 20283.12
quadratic_ranged_506_lb: [ 1 x_82_ ^ 2 - 2 x_91_ * x_82_ + 1 x_91_ ^ 2 + 1 y_82_ ^ 2 - 2 y_91_ * y_82_ + 1 y_91_ ^ 2 ] >= 10620.72
quadratic_ranged_507_lb: [ 1 x_90_ ^ 2 - 2 x_91_ * x_90_ + 1 x_91_ ^ 2 + 1 y_90_ ^ 2 - 2 y_91_ * y_90_ + 1 y_91_ ^ 2 ] >= 6657.75
quadratic_ranged_508_lb: [ 1 x_10_ ^ 2 - 2 x_92_ * x_10_ + 1 x_92_ ^ 2 + 1 y_10_ ^ 2 - 2 y_92_ * y_10_ + 1 y_92_ ^ 2 ] >= 8729.82
quadratic_ranged_509_lb: [ 1 x_24_ ^ 2 - 2 x_92_ * x_24_ + 1 x_92_ ^ 2 + 1 y_24_ ^ 2 - 2 y_92_ * y_24_ + 1 y_92_ ^ 2 ] >= 226.71
quadratic_ranged_510_lb: [ 1 x_36_ ^ 2 - 2 x_92_ * x_36_ + 1 x_92_ ^ 2 + 1 y_36_ ^ 2 - 2 y_92_ * y_36_ + 1 y_92_ ^ 2 ] >= 16549.829999999998
quadratic_ranged_511_lb: [ 1 x_41_ ^ 2 - 2 x_92_ * x_41_ + 1 x_92_ ^ 2 + 1 y_41_ ^ 2 - 2 y_92_ * y_41_ + 1 y_92_ ^ 2 ] >= 1237.5
quadratic_ranged_512_lb: [ 1 x_56_ ^ 2 - 2 x_92_ * x_56_ + 1 x_92_ ^ 2 + 1 y_56_ ^ 2 - 2 y_92_ * y_56_ + 1 y_92_ ^ 2 ] >= 18070.47
quadratic_ranged_513_lb: [ 1 x_62_ ^ 2 - 2 x_92_ * x_62_ + 1 x_92_ ^ 2 + 1 y_62_ ^ 2 - 2 y_92_ * y_62_ + 1 y_92_ ^ 2 ] >= 4593.6
quadratic_ranged_514_lb: [ 1 x_74_ ^ 2 - 2 x_92_ * x_74_ + 1 x_92_ ^ 2 + 1 y_74_ ^ 2 - 2 y_92_ * y_74_ + 1 y_92_ ^ 2 ] >= 8542.71
quadratic_ranged_515_lb: [ 1 x_83_ ^ 2 - 2 x_92_ * x_83_ + 1 x_92_ ^ 2 + 1 y_83_ ^ 2 - 2 y_92_ * y_83_ + 1 y_92_ ^ 2 ] >= 7299.2699999999995
quadratic_ranged_516_lb: [ 1 x_91_ ^ 2 - 2 x_92_ * x_91_ + 1 x_92_ ^ 2 + 1 y_91_ ^ 2 - 2 y_92_ * y_91_ + 1 y_92_ ^ 2 ] >= 11057.31
quadratic_ranged_517_lb: [ 1 x_15_ ^ 2 - 2 x_93_ * x_15_ + 1 x_93_ ^ 2 + 1 y_15_ ^ 2 - 2 y_93_ * y_15_ + 1 y_93_ ^ 2 ] >= 9734.67
quadratic_ranged_518_lb: [ 1 x_18_ ^ 2 - 2 x_93_ * x_18_ + 1 x_93_ ^ 2 + 1 y_18_ ^ 2 - 2 y_93_ * y_18_ + 1 y_93_ ^ 2 ] >= 3003.66
quadratic_ranged_519_lb: [ 1 x_22_ ^ 2 - 2 x_93_ * x_22_ + 1 x_93_ ^ 2 + 1 y_22_ ^ 2 - 2 y_93_ * y_22_ + 1 y_93_ ^ 2 ] >= 22575.96
quadratic_ranged_520_lb: [ 1 x_33_ ^ 2 - 2 x_93_ * x_33_ + 1 x_93_ ^ 2 + 1 y_33_ ^ 2 - 2 y_93_ * y_33_ + 1 y_93_ ^ 2 ] >= 16046.91
quadratic_ranged_521_lb: [ 1 x_34_ ^ 2 - 2 x_93_ * x_34_ + 1 x_93_ ^ 2 + 1 y_34_ ^ 2 - 2 y_93_ * y_34_ + 1 y_93_ ^ 2 ] >= 16288.47
quadratic_ranged_522_lb: [ 1 x_69_ ^ 2 - 2 x_93_ * x_69_ + 1 x_93_ ^ 2 + 1 y_69_ ^ 2 - 2 y_93_ * y_69_ + 1 y_93_ ^ 2 ] >= 13983.75
quadratic_ranged_523_lb: [ 1 x_75_ ^ 2 - 2 x_93_ * x_75_ + 1 x_93_ ^ 2 + 1 y_75_ ^ 2 - 2 y_93_ * y_75_ + 1 y_93_ ^ 2 ] >= 15092.55
quadratic_ranged_524_lb: [ 1 x_88_ ^ 2 - 2 x_93_ * x_88_ + 1 x_93_ ^ 2 + 1 y_88_ ^ 2 - 2 y_93_ * y_88_ + 1 y_93_ ^ 2 ] >= 160.38
quadratic_ranged_525_lb: [ 1 x_92_ ^ 2 - 2 x_93_ * x_92_ + 1 x_93_ ^ 2 + 1 y_92_ ^ 2 - 2 y_93_ * y_92_ + 1 y_93_ ^ 2 ] >= 2483.91
quadratic_ranged_526_lb: [ 1 x_2_ ^ 2 - 2 x_94_ * x_2_ + 1 x_94_ ^ 2 + 1 y_2_ ^ 2 - 2 y_94_ * y_2_ + 1 y_94_ ^ 2 ] >= 30897.9
quadratic_ranged_527_lb: [ 1 x_9_ ^ 2 - 2 x_94_ * x_9_ + 1 x_94_ ^ 2 + 1 y_9_ ^ 2 - 2 y_94_ * y_9_ + 1 y_94_ ^ 2 ] >= 3043.2599999999998
quadratic_ranged_528_lb: [ 1 x_15_ ^ 2 - 2 x_94_ * x_15_ + 1 x_94_ ^ 2 + 1 y_15_ ^ 2 - 2 y_94_ * y_15_ + 1 y_94_ ^ 2 ] >= 2665.08
quadratic_ranged_529_lb: [ 1 x_33_ ^ 2 - 2 x_94_ * x_33_ + 1 x_94_ ^ 2 + 1 y_33_ ^ 2 - 2 y_94_ * y_33_ + 1 y_94_ ^ 2 ] >= 1197.9
quadratic_ranged_530_lb: [ 1 x_39_ ^ 2 - 2 x_94_ * x_39_ + 1 x_94_ ^ 2 + 1 y_39_ ^ 2 - 2 y_94_ * y_39_ + 1 y_94_ ^ 2 ] >= 11298.87
quadratic_ranged_531_lb: [ 1 x_47_ ^ 2 - 2 x_94_ * x_47_ + 1 x_94_ ^ 2 + 1 y_47_ ^ 2 - 2 y_94_ * y_47_ + 1 y_94_ ^ 2 ] >= 6187.5
quadratic_ranged_532_lb: [ 1 x_50_ ^ 2 - 2 x_94_ * x_50_ + 1 x_94_ ^ 2 + 1 y_50_ ^ 2 - 2 y_94_ * y_50_ + 1 y_94_ ^ 2 ] >= 25740
quadratic_ranged_533_lb: [ 1 x_68_ ^ 2 - 2 x_94_ * x_68_ + 1 x_94_ ^ 2 + 1 y_68_ ^ 2 - 2 y_94_ * y_68_ + 1 y_94_ ^ 2 ] >= 6844.86
quadratic_ranged_534_lb: [ 1 x_78_ ^ 2 - 2 x_94_ * x_78_ + 1 x_94_ ^ 2 + 1 y_78_ ^ 2 - 2 y_94_ * y_78_ + 1 y_94_ ^ 2 ] >= 18395.19
quadratic_ranged_535_lb: [ 1 x_87_ ^ 2 - 2 x_94_ * x_87_ + 1 x_94_ ^ 2 + 1 y_87_ ^ 2 - 2 y_94_ * y_87_ + 1 y_94_ ^ 2 ] >= 8325.9
quadratic_ranged_536_lb: [ 1 x_93_ ^ 2 - 2 x_94_ * x_93_ + 1 x_94_ ^ 2 + 1 y_93_ ^ 2 - 2 y_94_ * y_93_ + 1 y_94_ ^ 2 ] >= 22537.35
quadratic_ranged_537_lb: [ 1 x_14_ ^ 2 - 2 x_95_ * x_14_ + 1 x_95_ ^ 2 + 1 y_14_ ^ 2 - 2 y_95_ * y_14_ + 1 y_95_ ^ 2 ] >= 3588.75
quadratic_ranged_538_lb: [ 1 x_24_ ^ 2 - 2 x_95_ * x_24_ + 1 x_95_ ^ 2 + 1 y_24_ ^ 2 - 2 y_95_ * y_24_ + 1 y_95_ ^ 2 ] >= 14044.14
quadratic_ranged_539_lb: [ 1 x_37_ ^ 2 - 2 x_95_ * x_37_ + 1 x_95_ ^ 2 + 1 y_37_ ^ 2 - 2 y_95_ * y_37_ + 1 y_95_ ^ 2 ] >= 856.35
quadratic_ranged_540_lb: [ 1 x_49_ ^ 2 - 2 x_95_ * x_49_ + 1 x_95_ ^ 2 + 1 y_49_ ^ 2 - 2 y_95_ * y_49_ + 1 y_95_ ^ 2 ] >= 29997.989999999998
quadratic_ranged_541_lb: [ 1 x_51_ ^ 2 - 2 x_95_ * x_51_ + 1 x_95_ ^ 2 + 1 y_51_ ^ 2 - 2 y_95_ * y_51_ + 1 y_95_ ^ 2 ] >= 24173.82
quadratic_ranged_542_lb: [ 1 x_78_ ^ 2 - 2 x_95_ * x_78_ + 1 x_95_ ^ 2 + 1 y_78_ ^ 2 - 2 y_95_ * y_78_ + 1 y_95_ ^ 2 ] >= 4017.42
quadratic_ranged_543_lb: [ 1 x_79_ ^ 2 - 2 x_95_ * x_79_ + 1 x_95_ ^ 2 + 1 y_79_ ^ 2 - 2 y_95_ * y_79_ + 1 y_95_ ^ 2 ] >= 17299.26
quadratic_ranged_544_lb: [ 1 x_94_ ^ 2 - 2 x_95_ * x_94_ + 1 x_95_ ^ 2 + 1 y_94_ ^ 2 - 2 y_95_ * y_94_ + 1 y_95_ ^ 2 ] >= 13805.55
quadratic_ranged_545_lb: [ 1 x_11_ ^ 2 - 2 x_96_ * x_11_ + 1 x_96_ ^ 2 + 1 y_11_ ^ 2 - 2 y_96_ * y_11_ + 1 y_96_ ^ 2 ] >= 11112.75
quadratic_ranged_546_lb: [ 1 x_20_ ^ 2 - 2 x_96_ * x_20_ + 1 x_96_ ^ 2 + 1 y_20_ ^ 2 - 2 y_96_ * y_20_ + 1 y_96_ ^ 2 ] >= 5802.39
quadratic_ranged_547_lb: [ 1 x_21_ ^ 2 - 2 x_96_ * x_21_ + 1 x_96_ ^ 2 + 1 y_21_ ^ 2 - 2 y_96_ * y_21_ + 1 y_96_ ^ 2 ] >= 20913.75
quadratic_ranged_548_lb: [ 1 x_49_ ^ 2 - 2 x_96_ * x_49_ + 1 x_96_ ^ 2 + 1 y_49_ ^ 2 - 2 y_96_ * y_49_ + 1 y_96_ ^ 2 ] >= 35105.4
quadratic_ranged_549_lb: [ 1 x_95_ ^ 2 - 2 x_96_ * x_95_ + 1 x_96_ ^ 2 + 1 y_95_ ^ 2 - 2 y_96_ * y_95_ + 1 y_96_ ^ 2 ] >= 5869.71
quadratic_ranged_550_lb: [ 1 x_21_ ^ 2 - 2 x_97_ * x_21_ + 1 x_97_ ^ 2 + 1 y_21_ ^ 2 - 2 y_97_ * y_21_ + 1 y_97_ ^ 2 ] >= 18498.15
quadratic_ranged_551_lb: [ 1 x_46_ ^ 2 - 2 x_97_ * x_46_ + 1 x_97_ ^ 2 + 1 y_46_ ^ 2 - 2 y_97_ * y_46_ + 1 y_97_ ^ 2 ] >= 10170.27
quadratic_ranged_552_lb: [ 1 x_49_ ^ 2 - 2 x_97_ * x_49_ + 1 x_97_ ^ 2 + 1 y_49_ ^ 2 - 2 y_97_ * y_49_ + 1 y_97_ ^ 2 ] >= 11123.64
quadratic_ranged_553_lb: [ 1 x_52_ ^ 2 - 2 x_97_ * x_52_ + 1 x_97_ ^ 2 + 1 y_52_ ^ 2 - 2 y_97_ * y_52_ + 1 y_97_ ^ 2 ] >= 7052.76
quadratic_ranged_554_lb: [ 1 x_71_ ^ 2 - 2 x_97_ * x_71_ + 1 x_97_ ^ 2 + 1 y_71_ ^ 2 - 2 y_97_ * y_71_ + 1 y_97_ ^ 2 ] >= 666.27
quadratic_ranged_555_lb: [ 1 x_82_ ^ 2 - 2 x_97_ * x_82_ + 1 x_97_ ^ 2 + 1 y_82_ ^ 2 - 2 y_97_ * y_82_ + 1 y_97_ ^ 2 ] >= 9984.15
quadratic_ranged_556_lb: [ 1 x_95_ ^ 2 - 2 x_97_ * x_95_ + 1 x_97_ ^ 2 + 1 y_95_ ^ 2 - 2 y_97_ * y_95_ + 1 y_97_ ^ 2 ] >= 10669.23
quadratic_ranged_557_lb: [ 1 x_96_ ^ 2 - 2 x_97_ * x_96_ + 1 x_97_ ^ 2 + 1 y_96_ ^ 2 - 2 y_97_ * y_96_ + 1 y_97_ ^ 2 ] >= 7238.88
quadratic_ranged_558_lb: [ 1 x_10_ ^ 2 - 2 x_98_ * x_10_ + 1 x_98_ ^ 2 + 1 y_10_ ^ 2 - 2 y_98_ * y_10_ + 1 y_98_ ^ 2 ] >= 16276.59
quadratic_ranged_559_lb: [ 1 x_46_ ^ 2 - 2 x_98_ * x_46_ + 1 x_98_ ^ 2 + 1 y_46_ ^ 2 - 2 y_98_ * y_46_ + 1 y_98_ ^ 2 ] >= 1673.1
quadratic_ranged_560_lb: [ 1 x_66_ ^ 2 - 2 x_98_ * x_66_ + 1 x_98_ ^ 2 + 1 y_66_ ^ 2 - 2 y_98_ * y_66_ + 1 y_98_ ^ 2 ] >= 1942.3799999999999
quadratic_ranged_561_lb: [ 1 x_94_ ^ 2 - 2 x_98_ * x_94_ + 1 x_98_ ^ 2 + 1 y_94_ ^ 2 - 2 y_98_ * y_94_ + 1 y_98_ ^ 2 ] >= 17124.03
quadratic_ranged_562_lb: [ 1 x_97_ ^ 2 - 2 x_98_ * x_97_ + 1 x_98_ ^ 2 + 1 y_97_ ^ 2 - 2 y_98_ * y_97_ + 1 y_98_ ^ 2 ] >= 3723.39
quadratic_ranged_563_lb: [ 1 x_2_ ^ 2 - 2 x_99_ * x_2_ + 1 x_99_ ^ 2 + 1 y_2_ ^ 2 - 2 y_99_ * y_2_ + 1 y_99_ ^ 2 ] >= 24299.55
quadratic_ranged_564_lb: [ 1 x_4_ ^ 2 - 2 x_99_ * x_4_ + 1 x_99_ ^ 2 + 1 y_4_ ^ 2 - 2 y_99_ * y_4_ + 1 y_99_ ^ 2 ] >= 11013.75
quadratic_ranged_565_lb: [ 1 x_24_ ^ 2 - 2 x_99_ * x_24_ + 1 x_99_ ^ 2 + 1 y_24_ ^ 2 - 2 y_99_ * y_24_ + 1 y_99_ ^ 2 ] >= 8999.1
quadratic_ranged_566_lb: [ 1 x_28_ ^ 2 - 2 x_99_ * x_28_ + 1 x_99_ ^ 2 + 1 y_28_ ^ 2 - 2 y_99_ * y_28_ + 1 y_99_ ^ 2 ] >= 22216.59
quadratic_ranged_567_lb: [ 1 x_29_ ^ 2 - 2 x_99_ * x_29_ + 1 x_99_ ^ 2 + 1 y_29_ ^ 2 - 2 y_99_ * y_29_ + 1 y_99_ ^ 2 ] >= 2317.59
quadratic_ranged_568_lb: [ 1 x_56_ ^ 2 - 2 x_99_ * x_56_ + 1 x_99_ ^ 2 + 1 y_56_ ^ 2 - 2 y_99_ * y_56_ + 1 y_99_ ^ 2 ] >= 34517.34
quadratic_ranged_569_lb: [ 1 x_68_ ^ 2 - 2 x_99_ * x_68_ + 1 x_99_ ^ 2 + 1 y_68_ ^ 2 - 2 y_99_ * y_68_ + 1 y_99_ ^ 2 ] >= 30322.71
quadratic_ranged_570_lb: [ 1 x_71_ ^ 2 - 2 x_99_ * x_71_ + 1 x_99_ ^ 2 + 1 y_71_ ^ 2 - 2 y_99_ * y_71_ + 1 y_99_ ^ 2 ] >= 3251.16
quadratic_ranged_571_lb: [ 1 x_76_ ^ 2 - 2 x_99_ * x_76_ + 1 x_99_ ^ 2 + 1 y_76_ ^ 2 - 2 y_99_ * y_76_ + 1 y_99_ ^ 2 ] >= 4611.42
quadratic_ranged_572_lb: [ 1 x_97_ ^ 2 - 2 x_99_ * x_97_ + 1 x_99_ ^ 2 + 1 y_97_ ^ 2 - 2 y_99_ * y_97_ + 1 y_99_ ^ 2 ] >= 6380.55
quadratic_ranged_573_lb: [ 1 x_98_ ^ 2 - 2 x_99_ * x_98_ + 1 x_99_ ^ 2 + 1 y_98_ ^ 2 - 2 y_99_ * y_98_ + 1 y_99_ ^ 2 ] >= 704.88
quadratic_ranged_574_lb: [ 1 x_1_ ^ 2 - 2 x_100_ * x_1_ + 1 x_100_ ^ 2 + 1 y_1_ ^ 2 - 2 y_100_ * y_1_ + 1 y_100_ ^ 2 ] >= 8349.66
quadratic_ranged_575_lb: [ 1 x_2_ ^ 2 - 2 x_100_ * x_2_ + 1 x_100_ ^ 2 + 1 y_2_ ^ 2 - 2 y_100_ * y_2_ + 1 y_100_ ^ 2 ] >= 27554.67
quadratic_ranged_576_lb: [ 1 x_4_ ^ 2 - 2 x_100_ * x_4_ + 1 x_100_ ^ 2 + 1 y_4_ ^ 2 - 2 y_100_ * y_4_ + 1 y_100_ ^ 2 ] >= 10799.91
quadratic_ranged_577_lb: [ 1 x_8_ ^ 2 - 2 x_100_ * x_8_ + 1 x_100_ ^ 2 + 1 y_8_ ^ 2 - 2 y_100_ * y_8_ + 1 y_100_ ^ 2 ] >= 16766.64
quadratic_ranged_578_lb: [ 1 x_26_ ^ 2 - 2 x_100_ * x_26_ + 1 x_100_ ^ 2 + 1 y_26_ ^ 2 - 2 y_100_ * y_26_ + 1 y_100_ ^ 2 ] >= 789.03
quadratic_ranged_579_lb: [ 1 x_59_ ^ 2 - 2 x_100_ * x_59_ + 1 x_100_ ^ 2 + 1 y_59_ ^ 2 - 2 y_100_ * y_59_ + 1 y_100_ ^ 2 ] >= 11904.75
quadratic_ranged_580_lb: [ 1 x_67_ ^ 2 - 2 x_100_ * x_67_ + 1 x_100_ ^ 2 + 1 y_67_ ^ 2 - 2 y_100_ * y_67_ + 1 y_100_ ^ 2 ] >= 2305.71
quadratic_ranged_581_lb: [ 1 x_78_ ^ 2 - 2 x_100_ * x_78_ + 1 x_100_ ^ 2 + 1 y_78_ ^ 2 - 2 y_100_ * y_78_ + 1 y_100_ ^ 2 ] >= 6371.64
quadratic_ranged_582_lb: [ 1 x_87_ ^ 2 - 2 x_100_ * x_87_ + 1 x_100_ ^ 2 + 1 y_87_ ^ 2 - 2 y_100_ * y_87_ + 1 y_100_ ^ 2 ] >= 18213.03
quadratic_ranged_583_lb: [ 1 x_93_ ^ 2 - 2 x_100_ * x_93_ + 1 x_100_ ^ 2 + 1 y_93_ ^ 2 - 2 y_100_ * y_93_ + 1 y_100_ ^ 2 ] >= 19213.92
quadratic_ranged_584_lb: [ 1 x_94_ ^ 2 - 2 x_100_ * x_94_ + 1 x_100_ ^ 2 + 1 y_94_ ^ 2 - 2 y_100_ * y_94_ + 1 y_100_ ^ 2 ] >= 4661.91
quadratic_ranged_585_lb: [ 1 x_99_ ^ 2 - 2 x_100_ * x_99_ + 1 x_100_ ^ 2 + 1 y_99_ ^ 2 - 2 y_100_ * y_99_ + 1 y_100_ ^ 2 ] >= 2053.2599999999998
c1_1: 1 x_38_ = 38
c2_1: 1 y_38_ = -38
c3_1: 1 x_43_ = -17
c4_1: 1 y_43_ = -60
c5_1: 1 x_55_ = -42
c6_1: 1 y_55_ = -79
Bounds
-85 <= x_1_ <= 51
-167 <= x_2_ <= 133
-104 <= x_3_ <= 92
-128 <= x_4_ <= 94
-112 <= x_5_ <= 91
-80 <= x_6_ <= 122
-99 <= x_7_ <= 55
-158 <= x_8_ <= 111
-112 <= x_9_ <= 91
-129 <= x_10_ <= 105
-122 <= x_11_ <= 112
-153 <= x_12_ <= 157
-97 <= x_13_ <= 78
-176 <= x_14_ <= 150
-116 <= x_15_ <= 129
-213 <= x_16_ <= 129
-103 <= x_17_ <= 19
-151 <= x_18_ <= 94
-97 <= x_19_ <= 137
-71 <= x_20_ <= 121
-83 <= x_21_ <= 159
-135 <= x_22_ <= 101
-107 <= x_23_ <= 103
-61 <= x_24_ <= 105
-132 <= x_25_ <= 176
-107 <= x_26_ <= 134
-66 <= x_27_ <= 5
-128 <= x_28_ <= 94
-92 <= x_29_ <= 137
-93 <= x_30_ <= 91
-66 <= x_31_ <= 103
-52 <= x_32_ <= 128
-84 <= x_33_ <= 138
-113 <= x_34_ <= 87
-94 <= x_35_ <= 99
-115 <= x_36_ <= 179
-86 <= x_37_ <= 139
x_38_ = 38
-79 <= x_39_ <= 148
-151 <= x_40_ <= 196
-10 <= x_41_ <= 81
-60 <= x_42_ <= 26
x_43_ = -17
-83 <= x_44_ <= 49
-85 <= x_45_ <= 114
-146 <= x_46_ <= 145
-102 <= x_47_ <= 84
-117 <= x_48_ <= 108
-125 <= x_49_ <= 78
-59 <= x_50_ <= 25
-71 <= x_51_ <= 27
-94 <= x_52_ <= 49
-125 <= x_53_ <= 41
-65 <= x_54_ <= -19
x_55_ = -42
-147 <= x_56_ <= 73
-75 <= x_57_ <= 92
-121 <= x_58_ <= 76
-110 <= x_59_ <= 76
-158 <= x_60_ <= 124
-111 <= x_61_ <= 77
-101 <= x_62_ <= 67
-158 <= x_63_ <= 124
-79 <= x_64_ <= 155
-102 <= x_65_ <= 68
-98 <= x_66_ <= 121
-91 <= x_67_ <= 150
-137 <= x_68_ <= 124
-157 <= x_69_ <= 123
-107 <= x_70_ <= 74
-152 <= x_71_ <= 91
-79 <= x_72_ <= 67
-133 <= x_73_ <= 138
-33 <= x_74_ <= 20
-145 <= x_75_ <= 155
-116 <= x_76_ <= 127
-131 <= x_77_ <= 82
-118 <= x_78_ <= 98
-99 <= x_79_ <= 38
-104 <= x_80_ <= 122
-75 <= x_81_ <= 151
-102 <= x_82_ <= 153
-132 <= x_83_ <= 111
-154 <= x_84_ <= 133
-128 <= x_85_ <= 94
-127 <= x_86_ <= 140
-100 <= x_87_ <= 87
-87 <= x_88_ <= 26
-135 <= x_89_ <= 74
-30 <= x_90_ <= 106
-112 <= x_91_ <= 150
-45 <= x_92_ <= 89
-96 <= x_93_ <= 39
-119 <= x_94_ <= 147
-116 <= x_95_ <= 162
-148 <= x_96_ <= 198
-178 <= x_97_ <= 117
-143 <= x_98_ <= 166
-141 <= x_99_ <= 149
-135 <= x_100_ <= 143
-128 <= y_1_ <= 8
-210 <= y_2_ <= 90
-169 <= y_3_ <= 49
-171 <= y_4_ <= 51
-168 <= y_5_ <= 48
-156 <= y_6_ <= 79
-142 <= y_7_ <= 18
-201 <= y_8_ <= 74
-168 <= y_9_ <= 48
-197 <= y_10_ <= 68
-189 <= y_11_ <= 69
-229 <= y_12_ <= 114
-173 <= y_13_ <= 41
-227 <= y_14_ <= 107
-192 <= y_15_ <= 92
-250 <= y_16_ <= 92
-140 <= y_17_ <= -18
-199 <= y_18_ <= 57
-173 <= y_19_ <= 94
-147 <= y_20_ <= 71
-159 <= y_21_ <= 83
-178 <= y_22_ <= 58
-183 <= y_23_ <= 66
-137 <= y_24_ <= 61
-208 <= y_25_ <= 132
-183 <= y_26_ <= 91
-109 <= y_27_ <= -32
-171 <= y_28_ <= 51
-168 <= y_29_ <= 92
-168 <= y_30_ <= 48
-142 <= y_31_ <= 60
-128 <= y_32_ <= 52
-160 <= y_33_ <= 84
-188 <= y_34_ <= 50
-170 <= y_35_ <= 62
-191 <= y_36_ <= 115
-162 <= y_37_ <= 86
y_38_ = -38
-155 <= y_39_ <= 79
-227 <= y_40_ <= 151
-86 <= y_41_ <= 10
-103 <= y_42_ <= -17
y_43_ = -60
-126 <= y_44_ <= 6
-161 <= y_45_ <= 71
-222 <= y_46_ <= 102
-161 <= y_47_ <= 41
-185 <= y_48_ <= 65
-168 <= y_49_ <= 41
-102 <= y_50_ <= -18
-114 <= y_51_ <= -10
-137 <= y_52_ <= 12
-162 <= y_53_ <= 4
-102 <= y_54_ <= -56
y_55_ = -79
-194 <= y_56_ <= 36
-151 <= y_57_ <= 49
-164 <= y_58_ <= 39
-153 <= y_59_ <= 33
-201 <= y_60_ <= 81
-154 <= y_61_ <= 34
-144 <= y_62_ <= 24
-201 <= y_63_ <= 81
-155 <= y_64_ <= 79
-145 <= y_65_ <= 25
-174 <= y_66_ <= 84
-167 <= y_67_ <= 91
-201 <= y_68_ <= 81
-200 <= y_69_ <= 80
-171 <= y_70_ <= 37
-195 <= y_71_ <= 54
-144 <= y_72_ <= 24
-209 <= y_73_ <= 101
-97 <= y_74_ <= -23
-221 <= y_75_ <= 118
-192 <= y_76_ <= 90
-174 <= y_77_ <= 45
-175 <= y_78_ <= 55
-142 <= y_79_ <= 1
-180 <= y_80_ <= 79
-151 <= y_81_ <= 75
-178 <= y_82_ <= 102
-208 <= y_83_ <= 74
-222 <= y_84_ <= 96
-171 <= y_85_ <= 51
-203 <= y_86_ <= 100
-164 <= y_87_ <= 44
-130 <= y_88_ <= -11
-178 <= y_89_ <= 37
-106 <= y_90_ <= 30
-188 <= y_91_ <= 107
-121 <= y_92_ <= 45
-143 <= y_93_ <= 2
-195 <= y_94_ <= 104
-192 <= y_95_ <= 116
-224 <= y_96_ <= 148
-221 <= y_97_ <= 80
-219 <= y_98_ <= 129
-217 <= y_99_ <= 112
-211 <= y_100_ <= 100
General
x_1_
x_2_
x_3_
x_4_
x_5_
x_6_
x_7_
x_8_
x_9_
x_10_
x_11_
x_12_
x_13_
x_14_
x_15_
x_16_
x_17_
x_18_
x_19_
x_20_
x_21_
x_22_
x_23_
x_24_
x_25_
x_26_
x_27_
x_28_
x_29_
x_30_
x_31_
x_32_
x_33_
x_34_
x_35_
x_36_
x_37_
x_38_
x_39_
x_40_
x_41_
x_42_
x_43_
x_44_
x_45_
x_46_
x_47_
x_48_
x_49_
x_50_
x_51_
x_52_
x_53_
x_54_
x_55_
x_56_
x_57_
x_58_
x_59_
x_60_
x_61_
x_62_
x_63_
x_64_
x_65_
x_66_
x_67_
x_68_
x_69_
x_70_
x_71_
x_72_
x_73_
x_74_
x_75_
x_76_
x_77_
x_78_
x_79_
x_80_
x_81_
x_82_
x_83_
x_84_
x_85_
x_86_
x_87_
x_88_
x_89_
x_90_
x_91_
x_92_
x_93_
x_94_
x_95_
x_96_
x_97_
x_98_
x_99_
x_100_
y_1_
y_2_
y_3_
y_4_
y_5_
y_6_
y_7_
y_8_
y_9_
y_10_
y_11_
y_12_
y_13_
y_14_
y_15_
y_16_
y_17_
y_18_
y_19_
y_20_
y_21_
y_22_
y_23_
y_24_
y_25_
y_26_
y_27_
y_28_
y_29_
y_30_
y_31_
y_32_
y_33_
y_34_
y_35_
y_36_
y_37_
y_38_
y_39_
y_40_
y_41_
y_42_
y_43_
y_44_
y_45_
y_46_
y_47_
y_48_
y_49_
y_50_
y_51_
y_52_
y_53_
y_54_
y_55_
y_56_
y_57_
y_58_
y_59_
y_60_
y_61_
y_62_
y_63_
y_64_
y_65_
y_66_
y_67_
y_68_
y_69_
y_70_
y_71_
y_72_
y_73_
y_74_
y_75_
y_76_
y_77_
y_78_
y_79_
y_80_
y_81_
y_82_
y_83_
y_84_
y_85_
y_86_
y_87_
y_88_
y_89_
y_90_
y_91_
y_92_
y_93_
y_94_
y_95_
y_96_
y_97_
y_98_
y_99_
y_100_
End
