minimize
obj: 
subject to
c1_3: -1 x_29_ + 1 y_29_ <= 0
c1: [ 1 x_1_ ^ 2 + 1 y_1_ ^ 2 ] <= 34367.206655658636
c2: [ 1 x_2_ ^ 2 + 1 y_2_ ^ 2 ] <= 11048.853681652061
c3: [ 1 x_3_ ^ 2 + 1 y_3_ ^ 2 ] <= 13684.489999999998
c4: [ 1 x_5_ ^ 2 + 1 y_5_ ^ 2 ] <= 17856.8
c5: [ 1 x_6_ ^ 2 + 1 y_6_ ^ 2 ] <= 7858.295029527758
c6: [ 1 x_7_ ^ 2 + 1 y_7_ ^ 2 ] <= 927.0022423960264
c7: [ 1 x_8_ ^ 2 + 1 y_8_ ^ 2 ] <= 10651.459999999997
c8: [ 1 x_9_ ^ 2 + 1 y_9_ ^ 2 ] <= 29177.911176082118
c9: [ 1 x_10_ ^ 2 + 1 y_10_ ^ 2 ] <= 19684.728399783155
c10: [ 1 x_11_ ^ 2 + 1 y_11_ ^ 2 ] <= 3929.24075524532
c11: [ 1 x_12_ ^ 2 + 1 y_12_ ^ 2 ] <= 5954.4618388683475
c12: [ 1 x_13_ ^ 2 + 1 y_13_ ^ 2 ] <= 3140.0899999999992
c13: [ 1 x_14_ ^ 2 + 1 y_14_ ^ 2 ] <= 6852.012359398476
c14: [ 1 x_15_ ^ 2 + 1 y_15_ ^ 2 ] <= 10950.354129799476
c15: [ 1 x_16_ ^ 2 + 1 y_16_ ^ 2 ] <= 26756.77957918532
c16: [ 1 x_17_ ^ 2 + 1 y_17_ ^ 2 ] <= 20352.720632454595
c17: [ 1 x_18_ ^ 2 + 1 y_18_ ^ 2 ] <= 21847.287265346098
c18: [ 1 x_19_ ^ 2 + 1 y_19_ ^ 2 ] <= 34151.79930035759
c19: [ 1 x_20_ ^ 2 + 1 y_20_ ^ 2 ] <= 38451.863209959
c20: [ 1 x_21_ ^ 2 + 1 y_21_ ^ 2 ] <= 2391.6799999999994
c21: [ 1 x_22_ ^ 2 + 1 y_22_ ^ 2 ] <= 18508.249999999996
c22: [ 1 x_23_ ^ 2 + 1 y_23_ ^ 2 ] <= 36784.326972434326
c23: [ 1 x_24_ ^ 2 + 1 y_24_ ^ 2 ] <= 8059.448736520897
c24: [ 1 x_25_ ^ 2 + 1 y_25_ ^ 2 ] <= 23053.387781785088
c25: [ 1 x_26_ ^ 2 + 1 y_26_ ^ 2 ] <= 4619.4617074642165
c26: [ 1 x_27_ ^ 2 + 1 y_27_ ^ 2 ] <= 40528.21908143804
c27: [ 1 x_28_ ^ 2 + 1 y_28_ ^ 2 ] <= 32106.784523745482
c28: [ 1 x_29_ ^ 2 + 1 y_29_ ^ 2 ] <= 43214.12654515719
c29: [ 1 x_30_ ^ 2 + 1 y_30_ ^ 2 ] <= 32809.775450044566
c30: [ 1 x_31_ ^ 2 + 1 y_31_ ^ 2 ] <= 16069.412235909651
c31: [ 1 x_32_ ^ 2 + 1 y_32_ ^ 2 ] <= 38886.796416248784
c32: [ 1 x_33_ ^ 2 + 1 y_33_ ^ 2 ] <= 6000.4860531387785
c33: [ 1 x_34_ ^ 2 + 1 y_34_ ^ 2 ] <= 6777.870870946613
c34: [ 1 x_35_ ^ 2 + 1 y_35_ ^ 2 ] <= 15465.384499848162
c35: [ 1 x_36_ ^ 2 + 1 y_36_ ^ 2 ] <= 1494.7999999999997
c36: [ 1 x_37_ ^ 2 + 1 y_37_ ^ 2 ] <= 11719.638458800957
c37: [ 1 x_38_ ^ 2 + 1 y_38_ ^ 2 ] <= 30813.556864576884
c38: [ 1 x_39_ ^ 2 + 1 y_39_ ^ 2 ] <= 13964.911684231298
c39: [ 1 x_40_ ^ 2 + 1 y_40_ ^ 2 ] <= 24337.258934486734
c40: [ 1 x_41_ ^ 2 + 1 y_41_ ^ 2 ] <= 4994.156426929856
c41: [ 1 x_42_ ^ 2 + 1 y_42_ ^ 2 ] <= 17.169999999999995
c42: [ 1 x_43_ ^ 2 + 1 y_43_ ^ 2 ] <= 6033.060714519732
c43: [ 1 x_44_ ^ 2 + 1 y_44_ ^ 2 ] <= 28251.8545466887
c44: [ 1 x_45_ ^ 2 + 1 y_45_ ^ 2 ] <= 8586.861024108124
c45: [ 1 x_46_ ^ 2 + 1 y_46_ ^ 2 ] <= 2962.666628348128
c46: [ 1 x_47_ ^ 2 + 1 y_47_ ^ 2 ] <= 409.05
c47: [ 1 x_48_ ^ 2 + 1 y_48_ ^ 2 ] <= 12404.310815296898
c48: [ 1 x_49_ ^ 2 + 1 y_49_ ^ 2 ] <= 29040.52999999999
c49: [ 1 x_50_ ^ 2 + 1 y_50_ ^ 2 ] <= 29322.953570292215
c50: [ 1 x_51_ ^ 2 + 1 y_51_ ^ 2 ] <= 13613.46461809337
c51: [ 1 x_52_ ^ 2 + 1 y_52_ ^ 2 ] <= 20306.6491192482
c52: [ 1 x_53_ ^ 2 + 1 y_53_ ^ 2 ] <= 3198.8710188876457
c53: [ 1 x_54_ ^ 2 + 1 y_54_ ^ 2 ] <= 32716.929999999997
c54: [ 1 x_55_ ^ 2 + 1 y_55_ ^ 2 ] <= 682.7599999999999
c55: [ 1 x_56_ ^ 2 + 1 y_56_ ^ 2 ] <= 24516.32790754527
c56: [ 1 x_57_ ^ 2 + 1 y_57_ ^ 2 ] <= 34501.70303003017
c57: [ 1 x_58_ ^ 2 + 1 y_58_ ^ 2 ] <= 37109.98416694729
c58: [ 1 x_59_ ^ 2 + 1 y_59_ ^ 2 ] <= 27699.826778533803
c59: [ 1 x_60_ ^ 2 + 1 y_60_ ^ 2 ] <= 18432.56406694118
c60: [ 1 x_61_ ^ 2 + 1 y_61_ ^ 2 ] <= 8898.12638050519
c61: [ 1 x_62_ ^ 2 + 1 y_62_ ^ 2 ] <= 17756.745621856386
c62: [ 1 x_63_ ^ 2 + 1 y_63_ ^ 2 ] <= 29335.802179285518
c63: [ 1 x_64_ ^ 2 + 1 y_64_ ^ 2 ] <= 26461.89156339683
c64: [ 1 x_65_ ^ 2 + 1 y_65_ ^ 2 ] <= 12244.984923364977
c65: [ 1 x_66_ ^ 2 + 1 y_66_ ^ 2 ] <= 37796.114785965394
c66: [ 1 x_67_ ^ 2 + 1 y_67_ ^ 2 ] <= 28847.803634118627
c67: [ 1 x_68_ ^ 2 + 1 y_68_ ^ 2 ] <= 17207.61955224734
c68: [ 1 x_69_ ^ 2 + 1 y_69_ ^ 2 ] <= 4267.25
c69: [ 1 x_70_ ^ 2 + 1 y_70_ ^ 2 ] <= 40374.56103422202
c70: [ 1 x_71_ ^ 2 + 1 y_71_ ^ 2 ] <= 28847.37903551778
c71: [ 1 x_72_ ^ 2 + 1 y_72_ ^ 2 ] <= 33481.09285180743
c72: [ 1 x_73_ ^ 2 + 1 y_73_ ^ 2 ] <= 4463.415071850327
c73: [ 1 x_74_ ^ 2 + 1 y_74_ ^ 2 ] <= 5176.249999999998
c74: [ 1 x_75_ ^ 2 + 1 y_75_ ^ 2 ] <= 6159.158882121175
c75: [ 1 x_76_ ^ 2 + 1 y_76_ ^ 2 ] <= 22799.32210512626
c76: [ 1 x_77_ ^ 2 + 1 y_77_ ^ 2 ] <= 24927.886664116464
c77: [ 1 x_78_ ^ 2 + 1 y_78_ ^ 2 ] <= 1871.5299999999997
c78: [ 1 x_79_ ^ 2 + 1 y_79_ ^ 2 ] <= 32347.6357643595
c79: [ 1 x_80_ ^ 2 + 1 y_80_ ^ 2 ] <= 6989.457859370935
c80: [ 1 x_81_ ^ 2 + 1 y_81_ ^ 2 ] <= 20699.50569505635
c81: [ 1 x_82_ ^ 2 + 1 y_82_ ^ 2 ] <= 29189.488020080393
c82: [ 1 x_83_ ^ 2 + 1 y_83_ ^ 2 ] <= 6858.616231295805
c83: [ 1 x_84_ ^ 2 + 1 y_84_ ^ 2 ] <= 20950.79588861148
c84: [ 1 x_85_ ^ 2 + 1 y_85_ ^ 2 ] <= 13430.98
c85: [ 1 x_86_ ^ 2 + 1 y_86_ ^ 2 ] <= 18858.19277603904
c86: [ 1 x_87_ ^ 2 + 1 y_87_ ^ 2 ] <= 1890.3757698657164
c87: [ 1 x_88_ ^ 2 + 1 y_88_ ^ 2 ] <= 14064.634598839722
c88: [ 1 x_89_ ^ 2 + 1 y_89_ ^ 2 ] <= 19956.237487310766
c89: [ 1 x_90_ ^ 2 + 1 y_90_ ^ 2 ] <= 38029.62868586814
c90: [ 1 x_91_ ^ 2 + 1 y_91_ ^ 2 ] <= 23246.422941825014
c91: [ 1 x_92_ ^ 2 + 1 y_92_ ^ 2 ] <= 42484.9392473539
c92: [ 1 x_93_ ^ 2 + 1 y_93_ ^ 2 ] <= 16696.569150524596
c93: [ 1 x_94_ ^ 2 + 1 y_94_ ^ 2 ] <= 9875.779999999999
c94: [ 1 x_95_ ^ 2 + 1 y_95_ ^ 2 ] <= 8294.051042735613
c95: [ 1 x_96_ ^ 2 + 1 y_96_ ^ 2 ] <= 4283.627212392577
c96: [ 1 x_97_ ^ 2 + 1 y_97_ ^ 2 ] <= 8218.21746048209
c97: [ 1 x_98_ ^ 2 + 1 y_98_ ^ 2 ] <= 31410.212569794126
c98: [ 1 x_99_ ^ 2 + 1 y_99_ ^ 2 ] <= 36069.56321757313
c99: [ 1 x_100_ ^ 2 + 1 y_100_ ^ 2 ] <= 42357.811625993476
quadratic_ranged_1_ub: [ 1 x_1_ ^ 2 - 2 x_2_ * x_1_ + 1 x_2_ ^ 2 + 1 y_1_ ^ 2 - 2 y_2_ * y_1_ + 1 y_2_ ^ 2 ] <= 6474.1
quadratic_ranged_2_ub: [ 1 x_2_ ^ 2 - 2 x_3_ * x_2_ + 1 x_3_ ^ 2 + 1 y_2_ ^ 2 - 2 y_3_ * y_2_ + 1 y_3_ ^ 2 ] <= 8436.53
quadratic_ranged_3_ub: [ 1 x_3_ ^ 2 - 2 x_4_ * x_3_ + 1 x_4_ ^ 2 + 1 y_3_ ^ 2 - 2 y_4_ * y_3_ + 1 y_4_ ^ 2 ] <= 13684.49
quadratic_ranged_4_ub: [ 1 x_3_ ^ 2 - 2 x_5_ * x_3_ + 1 x_5_ ^ 2 + 1 y_3_ ^ 2 - 2 y_5_ * y_3_ + 1 y_5_ ^ 2 ] <= 6679.13
quadratic_ranged_5_ub: [ 1 x_4_ ^ 2 - 2 x_5_ * x_4_ + 1 x_5_ ^ 2 + 1 y_4_ ^ 2 - 2 y_5_ * y_4_ + 1 y_5_ ^ 2 ] <= 17856.8
quadratic_ranged_6_ub: [ 1 x_5_ ^ 2 - 2 x_6_ * x_5_ + 1 x_6_ ^ 2 + 1 y_5_ ^ 2 - 2 y_6_ * y_5_ + 1 y_6_ ^ 2 ] <= 23223.94
quadratic_ranged_7_ub: [ 1 x_6_ ^ 2 - 2 x_7_ * x_6_ + 1 x_7_ ^ 2 + 1 y_6_ ^ 2 - 2 y_7_ * y_6_ + 1 y_7_ ^ 2 ] <= 7195.24
quadratic_ranged_8_ub: [ 1 x_4_ ^ 2 - 2 x_8_ * x_4_ + 1 x_8_ ^ 2 + 1 y_4_ ^ 2 - 2 y_8_ * y_4_ + 1 y_8_ ^ 2 ] <= 10651.460000000001
quadratic_ranged_9_ub: [ 1 x_6_ ^ 2 - 2 x_8_ * x_6_ + 1 x_8_ ^ 2 + 1 y_6_ ^ 2 - 2 y_8_ * y_6_ + 1 y_8_ ^ 2 ] <= 11263.52
quadratic_ranged_10_ub: [ 1 x_7_ ^ 2 - 2 x_8_ * x_7_ + 1 x_8_ ^ 2 + 1 y_7_ ^ 2 - 2 y_8_ * y_7_ + 1 y_8_ ^ 2 ] <= 13384.52
quadratic_ranged_11_ub: [ 1 x_2_ ^ 2 - 2 x_9_ * x_2_ + 1 x_9_ ^ 2 + 1 y_2_ ^ 2 - 2 y_9_ * y_2_ + 1 y_9_ ^ 2 ] <= 4316.74
quadratic_ranged_12_ub: [ 1 x_8_ ^ 2 - 2 x_9_ * x_8_ + 1 x_9_ ^ 2 + 1 y_8_ ^ 2 - 2 y_9_ * y_8_ + 1 y_9_ ^ 2 ] <= 18503.2
quadratic_ranged_13_ub: [ 1 x_2_ ^ 2 - 2 x_10_ * x_2_ + 1 x_10_ ^ 2 + 1 y_2_ ^ 2 - 2 y_10_ * y_2_ + 1 y_10_ ^ 2 ] <= 20689.85
quadratic_ranged_14_ub: [ 1 x_9_ ^ 2 - 2 x_10_ * x_9_ + 1 x_10_ ^ 2 + 1 y_9_ ^ 2 - 2 y_10_ * y_9_ + 1 y_10_ ^ 2 ] <= 26240.81
quadratic_ranged_15_ub: [ 1 x_2_ ^ 2 - 2 x_11_ * x_2_ + 1 x_11_ ^ 2 + 1 y_2_ ^ 2 - 2 y_11_ * y_2_ + 1 y_11_ ^ 2 ] <= 4545
quadratic_ranged_16_ub: [ 1 x_5_ ^ 2 - 2 x_11_ * x_5_ + 1 x_11_ ^ 2 + 1 y_5_ ^ 2 - 2 y_11_ * y_5_ + 1 y_11_ ^ 2 ] <= 7449.76
quadratic_ranged_17_ub: [ 1 x_7_ ^ 2 - 2 x_11_ * x_7_ + 1 x_11_ ^ 2 + 1 y_7_ ^ 2 - 2 y_11_ * y_7_ + 1 y_11_ ^ 2 ] <= 5730.74
quadratic_ranged_18_ub: [ 1 x_10_ ^ 2 - 2 x_11_ * x_10_ + 1 x_11_ ^ 2 + 1 y_10_ ^ 2 - 2 y_11_ * y_10_ + 1 y_11_ ^ 2 ] <= 6024.65
quadratic_ranged_19_ub: [ 1 x_11_ ^ 2 - 2 x_12_ * x_11_ + 1 x_12_ ^ 2 + 1 y_11_ ^ 2 - 2 y_12_ * y_11_ + 1 y_12_ ^ 2 ] <= 7862.85
quadratic_ranged_20_ub: [ 1 x_4_ ^ 2 - 2 x_13_ * x_4_ + 1 x_13_ ^ 2 + 1 y_4_ ^ 2 - 2 y_13_ * y_4_ + 1 y_13_ ^ 2 ] <= 3140.09
quadratic_ranged_21_ub: [ 1 x_12_ ^ 2 - 2 x_13_ * x_12_ + 1 x_13_ ^ 2 + 1 y_12_ ^ 2 - 2 y_13_ * y_12_ + 1 y_13_ ^ 2 ] <= 446.42
quadratic_ranged_22_ub: [ 1 x_13_ ^ 2 - 2 x_14_ * x_13_ + 1 x_14_ ^ 2 + 1 y_13_ ^ 2 - 2 y_14_ * y_13_ + 1 y_14_ ^ 2 ] <= 6983.14
quadratic_ranged_23_ub: [ 1 x_3_ ^ 2 - 2 x_15_ * x_3_ + 1 x_15_ ^ 2 + 1 y_3_ ^ 2 - 2 y_15_ * y_3_ + 1 y_15_ ^ 2 ] <= 15566.12
quadratic_ranged_24_ub: [ 1 x_14_ ^ 2 - 2 x_15_ * x_14_ + 1 x_15_ ^ 2 + 1 y_14_ ^ 2 - 2 y_15_ * y_14_ + 1 y_15_ ^ 2 ] <= 2046.26
quadratic_ranged_25_ub: [ 1 x_15_ ^ 2 - 2 x_16_ * x_15_ + 1 x_16_ ^ 2 + 1 y_15_ ^ 2 - 2 y_16_ * y_15_ + 1 y_16_ ^ 2 ] <= 10635.3
quadratic_ranged_26_ub: [ 1 x_2_ ^ 2 - 2 x_17_ * x_2_ + 1 x_17_ ^ 2 + 1 y_2_ ^ 2 - 2 y_17_ * y_2_ + 1 y_17_ ^ 2 ] <= 1409.96
quadratic_ranged_27_ub: [ 1 x_16_ ^ 2 - 2 x_17_ * x_16_ + 1 x_17_ ^ 2 + 1 y_16_ ^ 2 - 2 y_17_ * y_16_ + 1 y_17_ ^ 2 ] <= 21445.33
quadratic_ranged_28_ub: [ 1 x_13_ ^ 2 - 2 x_18_ * x_13_ + 1 x_18_ ^ 2 + 1 y_13_ ^ 2 - 2 y_18_ * y_13_ + 1 y_18_ ^ 2 ] <= 27738.64
quadratic_ranged_29_ub: [ 1 x_17_ ^ 2 - 2 x_18_ * x_17_ + 1 x_18_ ^ 2 + 1 y_17_ ^ 2 - 2 y_18_ * y_17_ + 1 y_18_ ^ 2 ] <= 14302.61
quadratic_ranged_30_ub: [ 1 x_17_ ^ 2 - 2 x_19_ * x_17_ + 1 x_19_ ^ 2 + 1 y_17_ ^ 2 - 2 y_19_ * y_17_ + 1 y_19_ ^ 2 ] <= 37137.7
quadratic_ranged_31_ub: [ 1 x_18_ ^ 2 - 2 x_19_ * x_18_ + 1 x_19_ ^ 2 + 1 y_18_ ^ 2 - 2 y_19_ * y_18_ + 1 y_19_ ^ 2 ] <= 47353.85
quadratic_ranged_32_ub: [ 1 x_19_ ^ 2 - 2 x_20_ * x_19_ + 1 x_20_ ^ 2 + 1 y_19_ ^ 2 - 2 y_20_ * y_19_ + 1 y_20_ ^ 2 ] <= 9842.45
quadratic_ranged_33_ub: [ 1 x_4_ ^ 2 - 2 x_21_ * x_4_ + 1 x_21_ ^ 2 + 1 y_4_ ^ 2 - 2 y_21_ * y_4_ + 1 y_21_ ^ 2 ] <= 2391.68
quadratic_ranged_34_ub: [ 1 x_11_ ^ 2 - 2 x_21_ * x_11_ + 1 x_21_ ^ 2 + 1 y_11_ ^ 2 - 2 y_21_ * y_11_ + 1 y_21_ ^ 2 ] <= 6464
quadratic_ranged_35_ub: [ 1 x_12_ ^ 2 - 2 x_21_ * x_12_ + 1 x_21_ ^ 2 + 1 y_12_ ^ 2 - 2 y_21_ * y_12_ + 1 y_21_ ^ 2 ] <= 849.41
quadratic_ranged_36_ub: [ 1 x_20_ ^ 2 - 2 x_21_ * x_20_ + 1 x_21_ ^ 2 + 1 y_20_ ^ 2 - 2 y_21_ * y_20_ + 1 y_21_ ^ 2 ] <= 43439.090000000004
quadratic_ranged_37_ub: [ 1 x_4_ ^ 2 - 2 x_22_ * x_4_ + 1 x_22_ ^ 2 + 1 y_4_ ^ 2 - 2 y_22_ * y_4_ + 1 y_22_ ^ 2 ] <= 18508.25
quadratic_ranged_38_ub: [ 1 x_5_ ^ 2 - 2 x_22_ * x_5_ + 1 x_22_ ^ 2 + 1 y_5_ ^ 2 - 2 y_22_ * y_5_ + 1 y_22_ ^ 2 ] <= 27824.49
quadratic_ranged_39_ub: [ 1 x_18_ ^ 2 - 2 x_22_ * x_18_ + 1 x_22_ ^ 2 + 1 y_18_ ^ 2 - 2 y_22_ * y_18_ + 1 y_22_ ^ 2 ] <= 52330.12
quadratic_ranged_40_ub: [ 1 x_21_ ^ 2 - 2 x_22_ * x_21_ + 1 x_22_ ^ 2 + 1 y_21_ ^ 2 - 2 y_22_ * y_21_ + 1 y_22_ ^ 2 ] <= 11979.61
quadratic_ranged_41_ub: [ 1 x_8_ ^ 2 - 2 x_23_ * x_8_ + 1 x_23_ ^ 2 + 1 y_8_ ^ 2 - 2 y_23_ * y_8_ + 1 y_23_ ^ 2 ] <= 12140.2
quadratic_ranged_42_ub: [ 1 x_14_ ^ 2 - 2 x_23_ * x_14_ + 1 x_23_ ^ 2 + 1 y_14_ ^ 2 - 2 y_23_ * y_14_ + 1 y_23_ ^ 2 ] <= 26192.33
quadratic_ranged_43_ub: [ 1 x_22_ ^ 2 - 2 x_23_ * x_22_ + 1 x_23_ ^ 2 + 1 y_22_ ^ 2 - 2 y_23_ * y_22_ + 1 y_23_ ^ 2 ] <= 3107.77
quadratic_ranged_44_ub: [ 1 x_6_ ^ 2 - 2 x_24_ * x_6_ + 1 x_24_ ^ 2 + 1 y_6_ ^ 2 - 2 y_24_ * y_6_ + 1 y_24_ ^ 2 ] <= 16823.57
quadratic_ranged_45_ub: [ 1 x_15_ ^ 2 - 2 x_24_ * x_15_ + 1 x_24_ ^ 2 + 1 y_15_ ^ 2 - 2 y_24_ * y_15_ + 1 y_24_ ^ 2 ] <= 8744.58
quadratic_ranged_46_ub: [ 1 x_17_ ^ 2 - 2 x_24_ * x_17_ + 1 x_24_ ^ 2 + 1 y_17_ ^ 2 - 2 y_24_ * y_17_ + 1 y_24_ ^ 2 ] <= 10779.73
quadratic_ranged_47_ub: [ 1 x_23_ ^ 2 - 2 x_24_ * x_23_ + 1 x_24_ ^ 2 + 1 y_23_ ^ 2 - 2 y_24_ * y_23_ + 1 y_24_ ^ 2 ] <= 36013.57
quadratic_ranged_48_ub: [ 1 x_10_ ^ 2 - 2 x_25_ * x_10_ + 1 x_25_ ^ 2 + 1 y_10_ ^ 2 - 2 y_25_ * y_10_ + 1 y_25_ ^ 2 ] <= 5567.12
quadratic_ranged_49_ub: [ 1 x_24_ ^ 2 - 2 x_25_ * x_24_ + 1 x_25_ ^ 2 + 1 y_24_ ^ 2 - 2 y_25_ * y_24_ + 1 y_25_ ^ 2 ] <= 5252
quadratic_ranged_50_ub: [ 1 x_20_ ^ 2 - 2 x_26_ * x_20_ + 1 x_26_ ^ 2 + 1 y_20_ ^ 2 - 2 y_26_ * y_20_ + 1 y_26_ ^ 2 ] <= 17551.78
quadratic_ranged_51_ub: [ 1 x_25_ ^ 2 - 2 x_26_ * x_25_ + 1 x_26_ ^ 2 + 1 y_25_ ^ 2 - 2 y_26_ * y_25_ + 1 y_26_ ^ 2 ] <= 7033.64
quadratic_ranged_52_ub: [ 1 x_6_ ^ 2 - 2 x_27_ * x_6_ + 1 x_27_ ^ 2 + 1 y_6_ ^ 2 - 2 y_27_ * y_6_ + 1 y_27_ ^ 2 ] <= 14529.86
quadratic_ranged_53_ub: [ 1 x_9_ ^ 2 - 2 x_27_ * x_9_ + 1 x_27_ ^ 2 + 1 y_9_ ^ 2 - 2 y_27_ * y_9_ + 1 y_27_ ^ 2 ] <= 28702.18
quadratic_ranged_54_ub: [ 1 x_18_ ^ 2 - 2 x_27_ * x_18_ + 1 x_27_ ^ 2 + 1 y_18_ ^ 2 - 2 y_27_ * y_18_ + 1 y_27_ ^ 2 ] <= 58722.41
quadratic_ranged_55_ub: [ 1 x_26_ ^ 2 - 2 x_27_ * x_26_ + 1 x_27_ ^ 2 + 1 y_26_ ^ 2 - 2 y_27_ * y_26_ + 1 y_27_ ^ 2 ] <= 19821.25
quadratic_ranged_56_ub: [ 1 x_9_ ^ 2 - 2 x_28_ * x_9_ + 1 x_28_ ^ 2 + 1 y_9_ ^ 2 - 2 y_28_ * y_9_ + 1 y_28_ ^ 2 ] <= 29876.81
quadratic_ranged_57_ub: [ 1 x_18_ ^ 2 - 2 x_28_ * x_18_ + 1 x_28_ ^ 2 + 1 y_18_ ^ 2 - 2 y_28_ * y_18_ + 1 y_28_ ^ 2 ] <= 66468.1
quadratic_ranged_58_ub: [ 1 x_27_ ^ 2 - 2 x_28_ * x_27_ + 1 x_28_ ^ 2 + 1 y_27_ ^ 2 - 2 y_28_ * y_27_ + 1 y_28_ ^ 2 ] <= 489.85
quadratic_ranged_59_ub: [ 1 x_28_ ^ 2 - 2 x_29_ * x_28_ + 1 x_29_ ^ 2 + 1 y_28_ ^ 2 - 2 y_29_ * y_28_ + 1 y_29_ ^ 2 ] <= 33065.38
quadratic_ranged_60_ub: [ 1 x_7_ ^ 2 - 2 x_30_ * x_7_ + 1 x_30_ ^ 2 + 1 y_7_ ^ 2 - 2 y_30_ * y_7_ + 1 y_30_ ^ 2 ] <= 29565.73
quadratic_ranged_61_ub: [ 1 x_29_ ^ 2 - 2 x_30_ * x_29_ + 1 x_30_ ^ 2 + 1 y_29_ ^ 2 - 2 y_30_ * y_29_ + 1 y_30_ ^ 2 ] <= 20462.6
quadratic_ranged_62_ub: [ 1 x_15_ ^ 2 - 2 x_31_ * x_15_ + 1 x_31_ ^ 2 + 1 y_15_ ^ 2 - 2 y_31_ * y_15_ + 1 y_31_ ^ 2 ] <= 7975.97
quadratic_ranged_63_ub: [ 1 x_30_ ^ 2 - 2 x_31_ * x_30_ + 1 x_31_ ^ 2 + 1 y_30_ ^ 2 - 2 y_31_ * y_30_ + 1 y_31_ ^ 2 ] <= 35197.49
quadratic_ranged_64_ub: [ 1 x_10_ ^ 2 - 2 x_32_ * x_10_ + 1 x_32_ ^ 2 + 1 y_10_ ^ 2 - 2 y_32_ * y_10_ + 1 y_32_ ^ 2 ] <= 3237.05
quadratic_ranged_65_ub: [ 1 x_31_ ^ 2 - 2 x_32_ * x_31_ + 1 x_32_ ^ 2 + 1 y_31_ ^ 2 - 2 y_32_ * y_31_ + 1 y_32_ ^ 2 ] <= 14788.42
quadratic_ranged_66_ub: [ 1 x_8_ ^ 2 - 2 x_33_ * x_8_ + 1 x_33_ ^ 2 + 1 y_8_ ^ 2 - 2 y_33_ * y_8_ + 1 y_33_ ^ 2 ] <= 14912.65
quadratic_ranged_67_ub: [ 1 x_32_ ^ 2 - 2 x_33_ * x_32_ + 1 x_33_ ^ 2 + 1 y_32_ ^ 2 - 2 y_33_ * y_32_ + 1 y_33_ ^ 2 ] <= 23913.77
quadratic_ranged_68_ub: [ 1 x_5_ ^ 2 - 2 x_34_ * x_5_ + 1 x_34_ ^ 2 + 1 y_5_ ^ 2 - 2 y_34_ * y_5_ + 1 y_34_ ^ 2 ] <= 9753.57
quadratic_ranged_69_ub: [ 1 x_7_ ^ 2 - 2 x_34_ * x_7_ + 1 x_34_ ^ 2 + 1 y_7_ ^ 2 - 2 y_34_ * y_7_ + 1 y_34_ ^ 2 ] <= 2691.65
quadratic_ranged_70_ub: [ 1 x_11_ ^ 2 - 2 x_34_ * x_11_ + 1 x_34_ ^ 2 + 1 y_11_ ^ 2 - 2 y_34_ * y_11_ + 1 y_34_ ^ 2 ] <= 6222.61
quadratic_ranged_71_ub: [ 1 x_17_ ^ 2 - 2 x_34_ * x_17_ + 1 x_34_ ^ 2 + 1 y_17_ ^ 2 - 2 y_34_ * y_17_ + 1 y_34_ ^ 2 ] <= 6707.41
quadratic_ranged_72_ub: [ 1 x_27_ ^ 2 - 2 x_34_ * x_27_ + 1 x_34_ ^ 2 + 1 y_27_ ^ 2 - 2 y_34_ * y_27_ + 1 y_34_ ^ 2 ] <= 40057.61
quadratic_ranged_73_ub: [ 1 x_33_ ^ 2 - 2 x_34_ * x_33_ + 1 x_34_ ^ 2 + 1 y_33_ ^ 2 - 2 y_34_ * y_33_ + 1 y_34_ ^ 2 ] <= 4292.5
quadratic_ranged_74_ub: [ 1 x_5_ ^ 2 - 2 x_35_ * x_5_ + 1 x_35_ ^ 2 + 1 y_5_ ^ 2 - 2 y_35_ * y_5_ + 1 y_35_ ^ 2 ] <= 198.97
quadratic_ranged_75_ub: [ 1 x_10_ ^ 2 - 2 x_35_ * x_10_ + 1 x_35_ ^ 2 + 1 y_10_ ^ 2 - 2 y_35_ * y_10_ + 1 y_35_ ^ 2 ] <= 7435.62
quadratic_ranged_76_ub: [ 1 x_34_ ^ 2 - 2 x_35_ * x_34_ + 1 x_35_ ^ 2 + 1 y_34_ ^ 2 - 2 y_35_ * y_34_ + 1 y_35_ ^ 2 ] <= 7195.24
quadratic_ranged_77_ub: [ 1 x_1_ ^ 2 - 2 x_36_ * x_1_ + 1 x_36_ ^ 2 + 1 y_1_ ^ 2 - 2 y_36_ * y_1_ + 1 y_36_ ^ 2 ] <= 21527.14
quadratic_ranged_78_ub: [ 1 x_2_ ^ 2 - 2 x_36_ * x_2_ + 1 x_36_ ^ 2 + 1 y_2_ ^ 2 - 2 y_36_ * y_2_ + 1 y_36_ ^ 2 ] <= 4415.72
quadratic_ranged_79_ub: [ 1 x_4_ ^ 2 - 2 x_36_ * x_4_ + 1 x_36_ ^ 2 + 1 y_4_ ^ 2 - 2 y_36_ * y_4_ + 1 y_36_ ^ 2 ] <= 1494.8
quadratic_ranged_80_ub: [ 1 x_7_ ^ 2 - 2 x_36_ * x_7_ + 1 x_36_ ^ 2 + 1 y_7_ ^ 2 - 2 y_36_ * y_7_ + 1 y_36_ ^ 2 ] <= 3928.9
quadratic_ranged_81_ub: [ 1 x_10_ ^ 2 - 2 x_36_ * x_10_ + 1 x_36_ ^ 2 + 1 y_10_ ^ 2 - 2 y_36_ * y_10_ + 1 y_36_ ^ 2 ] <= 23150.21
quadratic_ranged_82_ub: [ 1 x_25_ ^ 2 - 2 x_36_ * x_25_ + 1 x_36_ ^ 2 + 1 y_25_ ^ 2 - 2 y_36_ * y_25_ + 1 y_36_ ^ 2 ] <= 27170.010000000002
quadratic_ranged_83_ub: [ 1 x_35_ ^ 2 - 2 x_36_ * x_35_ + 1 x_36_ ^ 2 + 1 y_35_ ^ 2 - 2 y_36_ * y_35_ + 1 y_36_ ^ 2 ] <= 24628.85
quadratic_ranged_84_ub: [ 1 x_5_ ^ 2 - 2 x_37_ * x_5_ + 1 x_37_ ^ 2 + 1 y_5_ ^ 2 - 2 y_37_ * y_5_ + 1 y_37_ ^ 2 ] <= 3330.98
quadratic_ranged_85_ub: [ 1 x_33_ ^ 2 - 2 x_37_ * x_33_ + 1 x_37_ ^ 2 + 1 y_33_ ^ 2 - 2 y_37_ * y_33_ + 1 y_37_ ^ 2 ] <= 11882.65
quadratic_ranged_86_ub: [ 1 x_36_ ^ 2 - 2 x_37_ * x_36_ + 1 x_37_ ^ 2 + 1 y_36_ ^ 2 - 2 y_37_ * y_36_ + 1 y_37_ ^ 2 ] <= 21001.94
quadratic_ranged_87_ub: [ 1 x_18_ ^ 2 - 2 x_38_ * x_18_ + 1 x_38_ ^ 2 + 1 y_18_ ^ 2 - 2 y_38_ * y_18_ + 1 y_38_ ^ 2 ] <= 35278.29
quadratic_ranged_88_ub: [ 1 x_23_ ^ 2 - 2 x_38_ * x_23_ + 1 x_38_ ^ 2 + 1 y_23_ ^ 2 - 2 y_38_ * y_23_ + 1 y_38_ ^ 2 ] <= 9736.4
quadratic_ranged_89_ub: [ 1 x_24_ ^ 2 - 2 x_38_ * x_24_ + 1 x_38_ ^ 2 + 1 y_24_ ^ 2 - 2 y_38_ * y_24_ + 1 y_38_ ^ 2 ] <= 18168.89
quadratic_ranged_90_ub: [ 1 x_37_ ^ 2 - 2 x_38_ * x_37_ + 1 x_38_ ^ 2 + 1 y_37_ ^ 2 - 2 y_38_ * y_37_ + 1 y_38_ ^ 2 ] <= 16390.28
quadratic_ranged_91_ub: [ 1 x_20_ ^ 2 - 2 x_39_ * x_20_ + 1 x_39_ ^ 2 + 1 y_20_ ^ 2 - 2 y_39_ * y_20_ + 1 y_39_ ^ 2 ] <= 30998.920000000002
quadratic_ranged_92_ub: [ 1 x_38_ ^ 2 - 2 x_39_ * x_38_ + 1 x_39_ ^ 2 + 1 y_38_ ^ 2 - 2 y_39_ * y_38_ + 1 y_39_ ^ 2 ] <= 16936.69
quadratic_ranged_93_ub: [ 1 x_5_ ^ 2 - 2 x_40_ * x_5_ + 1 x_40_ ^ 2 + 1 y_5_ ^ 2 - 2 y_40_ * y_5_ + 1 y_40_ ^ 2 ] <= 17438.66
quadratic_ranged_94_ub: [ 1 x_23_ ^ 2 - 2 x_40_ * x_23_ + 1 x_40_ ^ 2 + 1 y_23_ ^ 2 - 2 y_40_ * y_23_ + 1 y_40_ ^ 2 ] <= 1882.64
quadratic_ranged_95_ub: [ 1 x_39_ ^ 2 - 2 x_40_ * x_39_ + 1 x_40_ ^ 2 + 1 y_39_ ^ 2 - 2 y_40_ * y_39_ + 1 y_40_ ^ 2 ] <= 1431.17
quadratic_ranged_96_ub: [ 1 x_13_ ^ 2 - 2 x_41_ * x_13_ + 1 x_41_ ^ 2 + 1 y_13_ ^ 2 - 2 y_41_ * y_13_ + 1 y_41_ ^ 2 ] <= 214.12
quadratic_ranged_97_ub: [ 1 x_16_ ^ 2 - 2 x_41_ * x_16_ + 1 x_41_ ^ 2 + 1 y_16_ ^ 2 - 2 y_41_ * y_16_ + 1 y_41_ ^ 2 ] <= 8631.460000000001
quadratic_ranged_98_ub: [ 1 x_18_ ^ 2 - 2 x_41_ * x_18_ + 1 x_41_ ^ 2 + 1 y_18_ ^ 2 - 2 y_41_ * y_18_ + 1 y_41_ ^ 2 ] <= 32825
quadratic_ranged_99_ub: [ 1 x_25_ ^ 2 - 2 x_41_ * x_25_ + 1 x_41_ ^ 2 + 1 y_25_ ^ 2 - 2 y_41_ * y_25_ + 1 y_41_ ^ 2 ] <= 26690.260000000002
quadratic_ranged_100_ub: [ 1 x_28_ ^ 2 - 2 x_41_ * x_28_ + 1 x_41_ ^ 2 + 1 y_28_ ^ 2 - 2 y_41_ * y_28_ + 1 y_41_ ^ 2 ] <= 13802.66
quadratic_ranged_101_ub: [ 1 x_37_ ^ 2 - 2 x_41_ * x_37_ + 1 x_41_ ^ 2 + 1 y_37_ ^ 2 - 2 y_41_ * y_37_ + 1 y_41_ ^ 2 ] <= 25881.25
quadratic_ranged_102_ub: [ 1 x_40_ ^ 2 - 2 x_41_ * x_40_ + 1 x_41_ ^ 2 + 1 y_40_ ^ 2 - 2 y_41_ * y_40_ + 1 y_41_ ^ 2 ] <= 8226.45
quadratic_ranged_103_ub: [ 1 x_3_ ^ 2 - 2 x_42_ * x_3_ + 1 x_42_ ^ 2 + 1 y_3_ ^ 2 - 2 y_42_ * y_3_ + 1 y_42_ ^ 2 ] <= 12808.82
quadratic_ranged_104_ub: [ 1 x_4_ ^ 2 - 2 x_42_ * x_4_ + 1 x_42_ ^ 2 + 1 y_4_ ^ 2 - 2 y_42_ * y_4_ + 1 y_42_ ^ 2 ] <= 17.17
quadratic_ranged_105_ub: [ 1 x_7_ ^ 2 - 2 x_42_ * x_7_ + 1 x_42_ ^ 2 + 1 y_7_ ^ 2 - 2 y_42_ * y_7_ + 1 y_42_ ^ 2 ] <= 691.85
quadratic_ranged_106_ub: [ 1 x_11_ ^ 2 - 2 x_42_ * x_11_ + 1 x_42_ ^ 2 + 1 y_11_ ^ 2 - 2 y_42_ * y_11_ + 1 y_42_ ^ 2 ] <= 3426.93
quadratic_ranged_107_ub: [ 1 x_13_ ^ 2 - 2 x_42_ * x_13_ + 1 x_42_ ^ 2 + 1 y_13_ ^ 2 - 2 y_42_ * y_13_ + 1 y_42_ ^ 2 ] <= 3597.62
quadratic_ranged_108_ub: [ 1 x_39_ ^ 2 - 2 x_42_ * x_39_ + 1 x_42_ ^ 2 + 1 y_39_ ^ 2 - 2 y_42_ * y_39_ + 1 y_42_ ^ 2 ] <= 13002.74
quadratic_ranged_109_ub: [ 1 x_41_ ^ 2 - 2 x_42_ * x_41_ + 1 x_42_ ^ 2 + 1 y_41_ ^ 2 - 2 y_42_ * y_41_ + 1 y_42_ ^ 2 ] <= 5504.5
quadratic_ranged_110_ub: [ 1 x_5_ ^ 2 - 2 x_43_ * x_5_ + 1 x_43_ ^ 2 + 1 y_5_ ^ 2 - 2 y_43_ * y_5_ + 1 y_43_ ^ 2 ] <= 5353
quadratic_ranged_111_ub: [ 1 x_6_ ^ 2 - 2 x_43_ * x_6_ + 1 x_43_ ^ 2 + 1 y_6_ ^ 2 - 2 y_43_ * y_6_ + 1 y_43_ ^ 2 ] <= 13851.14
quadratic_ranged_112_ub: [ 1 x_8_ ^ 2 - 2 x_43_ * x_8_ + 1 x_43_ ^ 2 + 1 y_8_ ^ 2 - 2 y_43_ * y_8_ + 1 y_43_ ^ 2 ] <= 5908.5
quadratic_ranged_113_ub: [ 1 x_13_ ^ 2 - 2 x_43_ * x_13_ + 1 x_43_ ^ 2 + 1 y_13_ ^ 2 - 2 y_43_ * y_13_ + 1 y_43_ ^ 2 ] <= 14318.77
quadratic_ranged_114_ub: [ 1 x_17_ ^ 2 - 2 x_43_ * x_17_ + 1 x_43_ ^ 2 + 1 y_17_ ^ 2 - 2 y_43_ * y_17_ + 1 y_43_ ^ 2 ] <= 8601.16
quadratic_ranged_115_ub: [ 1 x_20_ ^ 2 - 2 x_43_ * x_20_ + 1 x_43_ ^ 2 + 1 y_20_ ^ 2 - 2 y_43_ * y_20_ + 1 y_43_ ^ 2 ] <= 16132.73
quadratic_ranged_116_ub: [ 1 x_24_ ^ 2 - 2 x_43_ * x_24_ + 1 x_43_ ^ 2 + 1 y_24_ ^ 2 - 2 y_43_ * y_24_ + 1 y_43_ ^ 2 ] <= 146.45
quadratic_ranged_117_ub: [ 1 x_39_ ^ 2 - 2 x_43_ * x_39_ + 1 x_43_ ^ 2 + 1 y_39_ ^ 2 - 2 y_43_ * y_39_ + 1 y_43_ ^ 2 ] <= 22265.45
quadratic_ranged_118_ub: [ 1 x_42_ ^ 2 - 2 x_43_ * x_42_ + 1 x_43_ ^ 2 + 1 y_42_ ^ 2 - 2 y_43_ * y_42_ + 1 y_43_ ^ 2 ] <= 5406.53
quadratic_ranged_119_ub: [ 1 x_17_ ^ 2 - 2 x_44_ * x_17_ + 1 x_44_ ^ 2 + 1 y_17_ ^ 2 - 2 y_44_ * y_17_ + 1 y_44_ ^ 2 ] <= 24613.7
quadratic_ranged_120_ub: [ 1 x_19_ ^ 2 - 2 x_44_ * x_19_ + 1 x_44_ ^ 2 + 1 y_19_ ^ 2 - 2 y_44_ * y_19_ + 1 y_44_ ^ 2 ] <= 5050
quadratic_ranged_121_ub: [ 1 x_43_ ^ 2 - 2 x_44_ * x_43_ + 1 x_44_ ^ 2 + 1 y_43_ ^ 2 - 2 y_44_ * y_43_ + 1 y_44_ ^ 2 ] <= 9285.94
quadratic_ranged_122_ub: [ 1 x_11_ ^ 2 - 2 x_45_ * x_11_ + 1 x_45_ ^ 2 + 1 y_11_ ^ 2 - 2 y_45_ * y_11_ + 1 y_45_ ^ 2 ] <= 898.9
quadratic_ranged_123_ub: [ 1 x_16_ ^ 2 - 2 x_45_ * x_16_ + 1 x_45_ ^ 2 + 1 y_16_ ^ 2 - 2 y_45_ * y_16_ + 1 y_45_ ^ 2 ] <= 6065.05
quadratic_ranged_124_ub: [ 1 x_25_ ^ 2 - 2 x_45_ * x_25_ + 1 x_45_ ^ 2 + 1 y_25_ ^ 2 - 2 y_45_ * y_25_ + 1 y_45_ ^ 2 ] <= 12828.01
quadratic_ranged_125_ub: [ 1 x_35_ ^ 2 - 2 x_45_ * x_35_ + 1 x_45_ ^ 2 + 1 y_35_ ^ 2 - 2 y_45_ * y_35_ + 1 y_45_ ^ 2 ] <= 12024.05
quadratic_ranged_126_ub: [ 1 x_37_ ^ 2 - 2 x_45_ * x_37_ + 1 x_45_ ^ 2 + 1 y_37_ ^ 2 - 2 y_45_ * y_37_ + 1 y_45_ ^ 2 ] <= 12770.44
quadratic_ranged_127_ub: [ 1 x_44_ ^ 2 - 2 x_45_ * x_44_ + 1 x_45_ ^ 2 + 1 y_44_ ^ 2 - 2 y_45_ * y_44_ + 1 y_45_ ^ 2 ] <= 10471.68
quadratic_ranged_128_ub: [ 1 x_16_ ^ 2 - 2 x_46_ * x_16_ + 1 x_46_ ^ 2 + 1 y_16_ ^ 2 - 2 y_46_ * y_16_ + 1 y_46_ ^ 2 ] <= 14400.58
quadratic_ranged_129_ub: [ 1 x_27_ ^ 2 - 2 x_46_ * x_27_ + 1 x_46_ ^ 2 + 1 y_27_ ^ 2 - 2 y_46_ * y_27_ + 1 y_46_ ^ 2 ] <= 24123.85
quadratic_ranged_130_ub: [ 1 x_30_ ^ 2 - 2 x_46_ * x_30_ + 1 x_46_ ^ 2 + 1 y_30_ ^ 2 - 2 y_46_ * y_30_ + 1 y_46_ ^ 2 ] <= 18915.28
quadratic_ranged_131_ub: [ 1 x_44_ ^ 2 - 2 x_46_ * x_44_ + 1 x_46_ ^ 2 + 1 y_44_ ^ 2 - 2 y_46_ * y_44_ + 1 y_46_ ^ 2 ] <= 12916.89
quadratic_ranged_132_ub: [ 1 x_45_ ^ 2 - 2 x_46_ * x_45_ + 1 x_46_ ^ 2 + 1 y_45_ ^ 2 - 2 y_46_ * y_45_ + 1 y_46_ ^ 2 ] <= 2008.89
quadratic_ranged_133_ub: [ 1 x_4_ ^ 2 - 2 x_47_ * x_4_ + 1 x_47_ ^ 2 + 1 y_4_ ^ 2 - 2 y_47_ * y_4_ + 1 y_47_ ^ 2 ] <= 409.05
quadratic_ranged_134_ub: [ 1 x_11_ ^ 2 - 2 x_47_ * x_11_ + 1 x_47_ ^ 2 + 1 y_11_ ^ 2 - 2 y_47_ * y_11_ + 1 y_47_ ^ 2 ] <= 6162.01
quadratic_ranged_135_ub: [ 1 x_14_ ^ 2 - 2 x_47_ * x_14_ + 1 x_47_ ^ 2 + 1 y_14_ ^ 2 - 2 y_47_ * y_14_ + 1 y_47_ ^ 2 ] <= 3912.7400000000002
quadratic_ranged_136_ub: [ 1 x_28_ ^ 2 - 2 x_47_ * x_28_ + 1 x_47_ ^ 2 + 1 y_28_ ^ 2 - 2 y_47_ * y_28_ + 1 y_47_ ^ 2 ] <= 33550.18
quadratic_ranged_137_ub: [ 1 x_35_ ^ 2 - 2 x_47_ * x_35_ + 1 x_47_ ^ 2 + 1 y_35_ ^ 2 - 2 y_47_ * y_35_ + 1 y_47_ ^ 2 ] <= 20200
quadratic_ranged_138_ub: [ 1 x_46_ ^ 2 - 2 x_47_ * x_46_ + 1 x_47_ ^ 2 + 1 y_46_ ^ 2 - 2 y_47_ * y_46_ + 1 y_47_ ^ 2 ] <= 1850.32
quadratic_ranged_139_ub: [ 1 x_47_ ^ 2 - 2 x_48_ * x_47_ + 1 x_48_ ^ 2 + 1 y_47_ ^ 2 - 2 y_48_ * y_47_ + 1 y_48_ ^ 2 ] <= 8308.26
quadratic_ranged_140_ub: [ 1 x_4_ ^ 2 - 2 x_49_ * x_4_ + 1 x_49_ ^ 2 + 1 y_4_ ^ 2 - 2 y_49_ * y_4_ + 1 y_49_ ^ 2 ] <= 29040.53
quadratic_ranged_141_ub: [ 1 x_5_ ^ 2 - 2 x_49_ * x_5_ + 1 x_49_ ^ 2 + 1 y_5_ ^ 2 - 2 y_49_ * y_5_ + 1 y_49_ ^ 2 ] <= 10044.45
quadratic_ranged_142_ub: [ 1 x_6_ ^ 2 - 2 x_49_ * x_6_ + 1 x_49_ ^ 2 + 1 y_6_ ^ 2 - 2 y_49_ * y_6_ + 1 y_49_ ^ 2 ] <= 23626.93
quadratic_ranged_143_ub: [ 1 x_7_ ^ 2 - 2 x_49_ * x_7_ + 1 x_49_ ^ 2 + 1 y_7_ ^ 2 - 2 y_49_ * y_7_ + 1 y_49_ ^ 2 ] <= 35318.69
quadratic_ranged_144_ub: [ 1 x_14_ ^ 2 - 2 x_49_ * x_14_ + 1 x_49_ ^ 2 + 1 y_14_ ^ 2 - 2 y_49_ * y_14_ + 1 y_49_ ^ 2 ] <= 20824.18
quadratic_ranged_145_ub: [ 1 x_19_ ^ 2 - 2 x_49_ * x_19_ + 1 x_49_ ^ 2 + 1 y_19_ ^ 2 - 2 y_49_ * y_19_ + 1 y_49_ ^ 2 ] <= 207.05
quadratic_ranged_146_ub: [ 1 x_31_ ^ 2 - 2 x_49_ * x_31_ + 1 x_49_ ^ 2 + 1 y_31_ ^ 2 - 2 y_49_ * y_31_ + 1 y_49_ ^ 2 ] <= 32959.33
quadratic_ranged_147_ub: [ 1 x_39_ ^ 2 - 2 x_49_ * x_39_ + 1 x_49_ ^ 2 + 1 y_39_ ^ 2 - 2 y_49_ * y_39_ + 1 y_49_ ^ 2 ] <= 12960.32
quadratic_ranged_148_ub: [ 1 x_40_ ^ 2 - 2 x_49_ * x_40_ + 1 x_49_ ^ 2 + 1 y_40_ ^ 2 - 2 y_49_ * y_40_ + 1 y_49_ ^ 2 ] <= 5867.09
quadratic_ranged_149_ub: [ 1 x_41_ ^ 2 - 2 x_49_ * x_41_ + 1 x_49_ ^ 2 + 1 y_41_ ^ 2 - 2 y_49_ * y_41_ + 1 y_49_ ^ 2 ] <= 25262.12
quadratic_ranged_150_ub: [ 1 x_42_ ^ 2 - 2 x_49_ * x_42_ + 1 x_49_ ^ 2 + 1 y_42_ ^ 2 - 2 y_49_ * y_42_ + 1 y_49_ ^ 2 ] <= 29211.22
quadratic_ranged_151_ub: [ 1 x_44_ ^ 2 - 2 x_49_ * x_44_ + 1 x_49_ ^ 2 + 1 y_44_ ^ 2 - 2 y_49_ * y_44_ + 1 y_49_ ^ 2 ] <= 3540.05
quadratic_ranged_152_ub: [ 1 x_47_ ^ 2 - 2 x_49_ * x_47_ + 1 x_49_ ^ 2 + 1 y_47_ ^ 2 - 2 y_49_ * y_47_ + 1 y_49_ ^ 2 ] <= 35976.2
quadratic_ranged_153_ub: [ 1 x_48_ ^ 2 - 2 x_49_ * x_48_ + 1 x_49_ ^ 2 + 1 y_48_ ^ 2 - 2 y_49_ * y_48_ + 1 y_49_ ^ 2 ] <= 19402.1
quadratic_ranged_154_ub: [ 1 x_1_ ^ 2 - 2 x_50_ * x_1_ + 1 x_50_ ^ 2 + 1 y_1_ ^ 2 - 2 y_50_ * y_1_ + 1 y_50_ ^ 2 ] <= 58835.53
quadratic_ranged_155_ub: [ 1 x_9_ ^ 2 - 2 x_50_ * x_9_ + 1 x_50_ ^ 2 + 1 y_9_ ^ 2 - 2 y_50_ * y_9_ + 1 y_50_ ^ 2 ] <= 26063.05
quadratic_ranged_156_ub: [ 1 x_16_ ^ 2 - 2 x_50_ * x_16_ + 1 x_50_ ^ 2 + 1 y_16_ ^ 2 - 2 y_50_ * y_16_ + 1 y_50_ ^ 2 ] <= 1529.14
quadratic_ranged_157_ub: [ 1 x_28_ ^ 2 - 2 x_50_ * x_28_ + 1 x_50_ ^ 2 + 1 y_28_ ^ 2 - 2 y_50_ * y_28_ + 1 y_50_ ^ 2 ] <= 204.02
quadratic_ranged_158_ub: [ 1 x_32_ ^ 2 - 2 x_50_ * x_32_ + 1 x_50_ ^ 2 + 1 y_32_ ^ 2 - 2 y_50_ * y_32_ + 1 y_50_ ^ 2 ] <= 22406.85
quadratic_ranged_159_ub: [ 1 x_41_ ^ 2 - 2 x_50_ * x_41_ + 1 x_50_ ^ 2 + 1 y_41_ ^ 2 - 2 y_50_ * y_41_ + 1 y_50_ ^ 2 ] <= 11449.36
quadratic_ranged_160_ub: [ 1 x_43_ ^ 2 - 2 x_50_ * x_43_ + 1 x_50_ ^ 2 + 1 y_43_ ^ 2 - 2 y_50_ * y_43_ + 1 y_50_ ^ 2 ] <= 33779.45
quadratic_ranged_161_ub: [ 1 x_49_ ^ 2 - 2 x_50_ * x_49_ + 1 x_50_ ^ 2 + 1 y_49_ ^ 2 - 2 y_50_ * y_49_ + 1 y_50_ ^ 2 ] <= 9716.2
quadratic_ranged_162_ub: [ 1 x_1_ ^ 2 - 2 x_51_ * x_1_ + 1 x_51_ ^ 2 + 1 y_1_ ^ 2 - 2 y_51_ * y_1_ + 1 y_51_ ^ 2 ] <= 6482.18
quadratic_ranged_163_ub: [ 1 x_5_ ^ 2 - 2 x_51_ * x_5_ + 1 x_51_ ^ 2 + 1 y_5_ ^ 2 - 2 y_51_ * y_5_ + 1 y_51_ ^ 2 ] <= 2464.4
quadratic_ranged_164_ub: [ 1 x_7_ ^ 2 - 2 x_51_ * x_7_ + 1 x_51_ ^ 2 + 1 y_7_ ^ 2 - 2 y_51_ * y_7_ + 1 y_51_ ^ 2 ] <= 7435.62
quadratic_ranged_165_ub: [ 1 x_10_ ^ 2 - 2 x_51_ * x_10_ + 1 x_51_ ^ 2 + 1 y_10_ ^ 2 - 2 y_51_ * y_10_ + 1 y_51_ ^ 2 ] <= 9688.93
quadratic_ranged_166_ub: [ 1 x_21_ ^ 2 - 2 x_51_ * x_21_ + 1 x_51_ ^ 2 + 1 y_21_ ^ 2 - 2 y_51_ * y_21_ + 1 y_51_ ^ 2 ] <= 16814.48
quadratic_ranged_167_ub: [ 1 x_33_ ^ 2 - 2 x_51_ * x_33_ + 1 x_51_ ^ 2 + 1 y_33_ ^ 2 - 2 y_51_ * y_33_ + 1 y_51_ ^ 2 ] <= 9519.25
quadratic_ranged_168_ub: [ 1 x_35_ ^ 2 - 2 x_51_ * x_35_ + 1 x_51_ ^ 2 + 1 y_35_ ^ 2 - 2 y_51_ * y_35_ + 1 y_51_ ^ 2 ] <= 1326.13
quadratic_ranged_169_ub: [ 1 x_50_ ^ 2 - 2 x_51_ * x_50_ + 1 x_51_ ^ 2 + 1 y_50_ ^ 2 - 2 y_51_ * y_50_ + 1 y_51_ ^ 2 ] <= 29416.25
quadratic_ranged_170_ub: [ 1 x_14_ ^ 2 - 2 x_52_ * x_14_ + 1 x_52_ ^ 2 + 1 y_14_ ^ 2 - 2 y_52_ * y_14_ + 1 y_52_ ^ 2 ] <= 20381.8
quadratic_ranged_171_ub: [ 1 x_23_ ^ 2 - 2 x_52_ * x_23_ + 1 x_52_ ^ 2 + 1 y_23_ ^ 2 - 2 y_52_ * y_23_ + 1 y_52_ ^ 2 ] <= 4267.25
quadratic_ranged_172_ub: [ 1 x_26_ ^ 2 - 2 x_52_ * x_26_ + 1 x_52_ ^ 2 + 1 y_26_ ^ 2 - 2 y_52_ * y_26_ + 1 y_52_ ^ 2 ] <= 16180.2
quadratic_ranged_173_ub: [ 1 x_39_ ^ 2 - 2 x_52_ * x_39_ + 1 x_52_ ^ 2 + 1 y_39_ ^ 2 - 2 y_52_ * y_39_ + 1 y_52_ ^ 2 ] <= 591.86
quadratic_ranged_174_ub: [ 1 x_50_ ^ 2 - 2 x_52_ * x_50_ + 1 x_52_ ^ 2 + 1 y_50_ ^ 2 - 2 y_52_ * y_50_ + 1 y_52_ ^ 2 ] <= 1181.7
quadratic_ranged_175_ub: [ 1 x_51_ ^ 2 - 2 x_52_ * x_51_ + 1 x_52_ ^ 2 + 1 y_51_ ^ 2 - 2 y_52_ * y_51_ + 1 y_52_ ^ 2 ] <= 27234.65
quadratic_ranged_176_ub: [ 1 x_3_ ^ 2 - 2 x_53_ * x_3_ + 1 x_53_ ^ 2 + 1 y_3_ ^ 2 - 2 y_53_ * y_3_ + 1 y_53_ ^ 2 ] <= 28123.45
quadratic_ranged_177_ub: [ 1 x_15_ ^ 2 - 2 x_53_ * x_15_ + 1 x_53_ ^ 2 + 1 y_15_ ^ 2 - 2 y_53_ * y_15_ + 1 y_53_ ^ 2 ] <= 2315.93
quadratic_ranged_178_ub: [ 1 x_21_ ^ 2 - 2 x_53_ * x_21_ + 1 x_53_ ^ 2 + 1 y_21_ ^ 2 - 2 y_53_ * y_21_ + 1 y_53_ ^ 2 ] <= 58.58
quadratic_ranged_179_ub: [ 1 x_35_ ^ 2 - 2 x_53_ * x_35_ + 1 x_53_ ^ 2 + 1 y_35_ ^ 2 - 2 y_53_ * y_35_ + 1 y_53_ ^ 2 ] <= 26992.25
quadratic_ranged_180_ub: [ 1 x_42_ ^ 2 - 2 x_53_ * x_42_ + 1 x_53_ ^ 2 + 1 y_42_ ^ 2 - 2 y_53_ * y_42_ + 1 y_53_ ^ 2 ] <= 3059.29
quadratic_ranged_181_ub: [ 1 x_44_ ^ 2 - 2 x_53_ * x_44_ + 1 x_53_ ^ 2 + 1 y_44_ ^ 2 - 2 y_53_ * y_44_ + 1 y_53_ ^ 2 ] <= 26765
quadratic_ranged_182_ub: [ 1 x_52_ ^ 2 - 2 x_53_ * x_52_ + 1 x_53_ ^ 2 + 1 y_52_ ^ 2 - 2 y_53_ * y_52_ + 1 y_53_ ^ 2 ] <= 12197.77
quadratic_ranged_183_ub: [ 1 x_4_ ^ 2 - 2 x_54_ * x_4_ + 1 x_54_ ^ 2 + 1 y_4_ ^ 2 - 2 y_54_ * y_4_ + 1 y_54_ ^ 2 ] <= 32716.93
quadratic_ranged_184_ub: [ 1 x_12_ ^ 2 - 2 x_54_ * x_12_ + 1 x_54_ ^ 2 + 1 y_12_ ^ 2 - 2 y_54_ * y_12_ + 1 y_54_ ^ 2 ] <= 20880.74
quadratic_ranged_185_ub: [ 1 x_17_ ^ 2 - 2 x_54_ * x_17_ + 1 x_54_ ^ 2 + 1 y_17_ ^ 2 - 2 y_54_ * y_17_ + 1 y_54_ ^ 2 ] <= 39277.89
quadratic_ranged_186_ub: [ 1 x_18_ ^ 2 - 2 x_54_ * x_18_ + 1 x_54_ ^ 2 + 1 y_18_ ^ 2 - 2 y_54_ * y_18_ + 1 y_54_ ^ 2 ] <= 64397.6
quadratic_ranged_187_ub: [ 1 x_19_ ^ 2 - 2 x_54_ * x_19_ + 1 x_54_ ^ 2 + 1 y_19_ ^ 2 - 2 y_54_ * y_19_ + 1 y_54_ ^ 2 ] <= 3883.45
quadratic_ranged_188_ub: [ 1 x_53_ ^ 2 - 2 x_54_ * x_53_ + 1 x_54_ ^ 2 + 1 y_53_ ^ 2 - 2 y_54_ * y_53_ + 1 y_54_ ^ 2 ] <= 29537.45
quadratic_ranged_189_ub: [ 1 x_4_ ^ 2 - 2 x_55_ * x_4_ + 1 x_55_ ^ 2 + 1 y_4_ ^ 2 - 2 y_55_ * y_4_ + 1 y_55_ ^ 2 ] <= 682.76
quadratic_ranged_190_ub: [ 1 x_20_ ^ 2 - 2 x_55_ * x_20_ + 1 x_55_ ^ 2 + 1 y_20_ ^ 2 - 2 y_55_ * y_20_ + 1 y_55_ ^ 2 ] <= 28887.010000000002
quadratic_ranged_191_ub: [ 1 x_26_ ^ 2 - 2 x_55_ * x_26_ + 1 x_55_ ^ 2 + 1 y_26_ ^ 2 - 2 y_55_ * y_26_ + 1 y_55_ ^ 2 ] <= 1750.33
quadratic_ranged_192_ub: [ 1 x_33_ ^ 2 - 2 x_55_ * x_33_ + 1 x_55_ ^ 2 + 1 y_33_ ^ 2 - 2 y_55_ * y_33_ + 1 y_55_ ^ 2 ] <= 2635.09
quadratic_ranged_193_ub: [ 1 x_46_ ^ 2 - 2 x_55_ * x_46_ + 1 x_55_ ^ 2 + 1 y_46_ ^ 2 - 2 y_55_ * y_46_ + 1 y_55_ ^ 2 ] <= 800.9300000000001
quadratic_ranged_194_ub: [ 1 x_49_ ^ 2 - 2 x_55_ * x_49_ + 1 x_55_ ^ 2 + 1 y_49_ ^ 2 - 2 y_55_ * y_49_ + 1 y_55_ ^ 2 ] <= 22043.25
quadratic_ranged_195_ub: [ 1 x_54_ ^ 2 - 2 x_55_ * x_54_ + 1 x_55_ ^ 2 + 1 y_54_ ^ 2 - 2 y_55_ * y_54_ + 1 y_55_ ^ 2 ] <= 23990.53
quadratic_ranged_196_ub: [ 1 x_15_ ^ 2 - 2 x_56_ * x_15_ + 1 x_56_ ^ 2 + 1 y_15_ ^ 2 - 2 y_56_ * y_15_ + 1 y_56_ ^ 2 ] <= 17162.93
quadratic_ranged_197_ub: [ 1 x_33_ ^ 2 - 2 x_56_ * x_33_ + 1 x_56_ ^ 2 + 1 y_33_ ^ 2 - 2 y_56_ * y_33_ + 1 y_56_ ^ 2 ] <= 32813.89
quadratic_ranged_198_ub: [ 1 x_35_ ^ 2 - 2 x_56_ * x_35_ + 1 x_56_ ^ 2 + 1 y_35_ ^ 2 - 2 y_56_ * y_35_ + 1 y_56_ ^ 2 ] <= 32753.29
quadratic_ranged_199_ub: [ 1 x_55_ ^ 2 - 2 x_56_ * x_55_ + 1 x_56_ ^ 2 + 1 y_55_ ^ 2 - 2 y_56_ * y_55_ + 1 y_56_ ^ 2 ] <= 17016.48
quadratic_ranged_200_ub: [ 1 x_6_ ^ 2 - 2 x_57_ * x_6_ + 1 x_57_ ^ 2 + 1 y_6_ ^ 2 - 2 y_57_ * y_6_ + 1 y_57_ ^ 2 ] <= 33622.9
quadratic_ranged_201_ub: [ 1 x_12_ ^ 2 - 2 x_57_ * x_12_ + 1 x_57_ ^ 2 + 1 y_12_ ^ 2 - 2 y_57_ * y_12_ + 1 y_57_ ^ 2 ] <= 40590.89
quadratic_ranged_202_ub: [ 1 x_13_ ^ 2 - 2 x_57_ * x_13_ + 1 x_57_ ^ 2 + 1 y_13_ ^ 2 - 2 y_57_ * y_13_ + 1 y_57_ ^ 2 ] <= 34405.65
quadratic_ranged_203_ub: [ 1 x_25_ ^ 2 - 2 x_57_ * x_25_ + 1 x_57_ ^ 2 + 1 y_25_ ^ 2 - 2 y_57_ * y_25_ + 1 y_57_ ^ 2 ] <= 4045.05
quadratic_ranged_204_ub: [ 1 x_37_ ^ 2 - 2 x_57_ * x_37_ + 1 x_57_ ^ 2 + 1 y_37_ ^ 2 - 2 y_57_ * y_37_ + 1 y_57_ ^ 2 ] <= 15572.18
quadratic_ranged_205_ub: [ 1 x_39_ ^ 2 - 2 x_57_ * x_39_ + 1 x_57_ ^ 2 + 1 y_39_ ^ 2 - 2 y_57_ * y_39_ + 1 y_57_ ^ 2 ] <= 25602.49
quadratic_ranged_206_ub: [ 1 x_40_ ^ 2 - 2 x_57_ * x_40_ + 1 x_57_ ^ 2 + 1 y_40_ ^ 2 - 2 y_57_ * y_40_ + 1 y_57_ ^ 2 ] <= 16000.42
quadratic_ranged_207_ub: [ 1 x_42_ ^ 2 - 2 x_57_ * x_42_ + 1 x_57_ ^ 2 + 1 y_42_ ^ 2 - 2 y_57_ * y_42_ + 1 y_57_ ^ 2 ] <= 32979.53
quadratic_ranged_208_ub: [ 1 x_47_ ^ 2 - 2 x_57_ * x_47_ + 1 x_57_ ^ 2 + 1 y_47_ ^ 2 - 2 y_57_ * y_47_ + 1 y_57_ ^ 2 ] <= 41087.81
quadratic_ranged_209_ub: [ 1 x_54_ ^ 2 - 2 x_57_ * x_54_ + 1 x_57_ ^ 2 + 1 y_54_ ^ 2 - 2 y_57_ * y_54_ + 1 y_57_ ^ 2 ] <= 18508.25
quadratic_ranged_210_ub: [ 1 x_56_ ^ 2 - 2 x_57_ * x_56_ + 1 x_57_ ^ 2 + 1 y_56_ ^ 2 - 2 y_57_ * y_56_ + 1 y_57_ ^ 2 ] <= 28073.96
quadratic_ranged_211_ub: [ 1 x_6_ ^ 2 - 2 x_58_ * x_6_ + 1 x_58_ ^ 2 + 1 y_6_ ^ 2 - 2 y_58_ * y_6_ + 1 y_58_ ^ 2 ] <= 18281
quadratic_ranged_212_ub: [ 1 x_16_ ^ 2 - 2 x_58_ * x_16_ + 1 x_58_ ^ 2 + 1 y_16_ ^ 2 - 2 y_58_ * y_16_ + 1 y_58_ ^ 2 ] <= 6691.25
quadratic_ranged_213_ub: [ 1 x_24_ ^ 2 - 2 x_58_ * x_24_ + 1 x_58_ ^ 2 + 1 y_24_ ^ 2 - 2 y_58_ * y_24_ + 1 y_58_ ^ 2 ] <= 12460.37
quadratic_ranged_214_ub: [ 1 x_41_ ^ 2 - 2 x_58_ * x_41_ + 1 x_58_ ^ 2 + 1 y_41_ ^ 2 - 2 y_58_ * y_41_ + 1 y_58_ ^ 2 ] <= 20851.45
quadratic_ranged_215_ub: [ 1 x_57_ ^ 2 - 2 x_58_ * x_57_ + 1 x_58_ ^ 2 + 1 y_57_ ^ 2 - 2 y_58_ * y_57_ + 1 y_58_ ^ 2 ] <= 2353.3
quadratic_ranged_216_ub: [ 1 x_2_ ^ 2 - 2 x_59_ * x_2_ + 1 x_59_ ^ 2 + 1 y_2_ ^ 2 - 2 y_59_ * y_2_ + 1 y_59_ ^ 2 ] <= 28532.5
quadratic_ranged_217_ub: [ 1 x_17_ ^ 2 - 2 x_59_ * x_17_ + 1 x_59_ ^ 2 + 1 y_17_ ^ 2 - 2 y_59_ * y_17_ + 1 y_59_ ^ 2 ] <= 34697.54
quadratic_ranged_218_ub: [ 1 x_26_ ^ 2 - 2 x_59_ * x_26_ + 1 x_59_ ^ 2 + 1 y_26_ ^ 2 - 2 y_59_ * y_26_ + 1 y_59_ ^ 2 ] <= 13955.17
quadratic_ranged_219_ub: [ 1 x_41_ ^ 2 - 2 x_59_ * x_41_ + 1 x_59_ ^ 2 + 1 y_41_ ^ 2 - 2 y_59_ * y_41_ + 1 y_59_ ^ 2 ] <= 27060.93
quadratic_ranged_220_ub: [ 1 x_58_ ^ 2 - 2 x_59_ * x_58_ + 1 x_59_ ^ 2 + 1 y_58_ ^ 2 - 2 y_59_ * y_58_ + 1 y_59_ ^ 2 ] <= 686.8
quadratic_ranged_221_ub: [ 1 x_17_ ^ 2 - 2 x_60_ * x_17_ + 1 x_60_ ^ 2 + 1 y_17_ ^ 2 - 2 y_60_ * y_17_ + 1 y_60_ ^ 2 ] <= 19983.86
quadratic_ranged_222_ub: [ 1 x_23_ ^ 2 - 2 x_60_ * x_23_ + 1 x_60_ ^ 2 + 1 y_23_ ^ 2 - 2 y_60_ * y_23_ + 1 y_60_ ^ 2 ] <= 34461.2
quadratic_ranged_223_ub: [ 1 x_26_ ^ 2 - 2 x_60_ * x_26_ + 1 x_60_ ^ 2 + 1 y_26_ ^ 2 - 2 y_60_ * y_26_ + 1 y_60_ ^ 2 ] <= 6707.41
quadratic_ranged_224_ub: [ 1 x_27_ ^ 2 - 2 x_60_ * x_27_ + 1 x_60_ ^ 2 + 1 y_27_ ^ 2 - 2 y_60_ * y_27_ + 1 y_60_ ^ 2 ] <= 36168.1
quadratic_ranged_225_ub: [ 1 x_46_ ^ 2 - 2 x_60_ * x_46_ + 1 x_60_ ^ 2 + 1 y_46_ ^ 2 - 2 y_60_ * y_46_ + 1 y_60_ ^ 2 ] <= 10226.25
quadratic_ranged_226_ub: [ 1 x_57_ ^ 2 - 2 x_60_ * x_57_ + 1 x_60_ ^ 2 + 1 y_57_ ^ 2 - 2 y_60_ * y_57_ + 1 y_60_ ^ 2 ] <= 10934.26
quadratic_ranged_227_ub: [ 1 x_59_ ^ 2 - 2 x_60_ * x_59_ + 1 x_60_ ^ 2 + 1 y_59_ ^ 2 - 2 y_60_ * y_59_ + 1 y_60_ ^ 2 ] <= 12944.16
quadratic_ranged_228_ub: [ 1 x_19_ ^ 2 - 2 x_61_ * x_19_ + 1 x_61_ ^ 2 + 1 y_19_ ^ 2 - 2 y_61_ * y_19_ + 1 y_61_ ^ 2 ] <= 28914.28
quadratic_ranged_229_ub: [ 1 x_22_ ^ 2 - 2 x_61_ * x_22_ + 1 x_61_ ^ 2 + 1 y_22_ ^ 2 - 2 y_61_ * y_22_ + 1 y_61_ ^ 2 ] <= 35528.77
quadratic_ranged_230_ub: [ 1 x_36_ ^ 2 - 2 x_61_ * x_36_ + 1 x_61_ ^ 2 + 1 y_36_ ^ 2 - 2 y_61_ * y_36_ + 1 y_61_ ^ 2 ] <= 17656.82
quadratic_ranged_231_ub: [ 1 x_37_ ^ 2 - 2 x_61_ * x_37_ + 1 x_61_ ^ 2 + 1 y_37_ ^ 2 - 2 y_61_ * y_37_ + 1 y_61_ ^ 2 ] <= 323.2
quadratic_ranged_232_ub: [ 1 x_43_ ^ 2 - 2 x_61_ * x_43_ + 1 x_61_ ^ 2 + 1 y_43_ ^ 2 - 2 y_61_ * y_43_ + 1 y_61_ ^ 2 ] <= 373.7
quadratic_ranged_233_ub: [ 1 x_46_ ^ 2 - 2 x_61_ * x_46_ + 1 x_61_ ^ 2 + 1 y_46_ ^ 2 - 2 y_61_ * y_46_ + 1 y_61_ ^ 2 ] <= 5580.25
quadratic_ranged_234_ub: [ 1 x_59_ ^ 2 - 2 x_61_ * x_59_ + 1 x_61_ ^ 2 + 1 y_59_ ^ 2 - 2 y_61_ * y_59_ + 1 y_61_ ^ 2 ] <= 20090.920000000002
quadratic_ranged_235_ub: [ 1 x_60_ ^ 2 - 2 x_61_ * x_60_ + 1 x_61_ ^ 2 + 1 y_60_ ^ 2 - 2 y_61_ * y_60_ + 1 y_61_ ^ 2 ] <= 1717
quadratic_ranged_236_ub: [ 1 x_29_ ^ 2 - 2 x_62_ * x_29_ + 1 x_62_ ^ 2 + 1 y_29_ ^ 2 - 2 y_62_ * y_29_ + 1 y_62_ ^ 2 ] <= 10331.29
quadratic_ranged_237_ub: [ 1 x_35_ ^ 2 - 2 x_62_ * x_35_ + 1 x_62_ ^ 2 + 1 y_35_ ^ 2 - 2 y_62_ * y_35_ + 1 y_62_ ^ 2 ] <= 8464.81
quadratic_ranged_238_ub: [ 1 x_41_ ^ 2 - 2 x_62_ * x_41_ + 1 x_62_ ^ 2 + 1 y_41_ ^ 2 - 2 y_62_ * y_41_ + 1 y_62_ ^ 2 ] <= 6913.45
quadratic_ranged_239_ub: [ 1 x_58_ ^ 2 - 2 x_62_ * x_58_ + 1 x_62_ ^ 2 + 1 y_58_ ^ 2 - 2 y_62_ * y_58_ + 1 y_62_ ^ 2 ] <= 12362.4
quadratic_ranged_240_ub: [ 1 x_61_ ^ 2 - 2 x_62_ * x_61_ + 1 x_62_ ^ 2 + 1 y_61_ ^ 2 - 2 y_62_ * y_61_ + 1 y_62_ ^ 2 ] <= 4949
quadratic_ranged_241_ub: [ 1 x_14_ ^ 2 - 2 x_63_ * x_14_ + 1 x_63_ ^ 2 + 1 y_14_ ^ 2 - 2 y_63_ * y_14_ + 1 y_63_ ^ 2 ] <= 27093.25
quadratic_ranged_242_ub: [ 1 x_18_ ^ 2 - 2 x_63_ * x_18_ + 1 x_63_ ^ 2 + 1 y_18_ ^ 2 - 2 y_63_ * y_18_ + 1 y_63_ ^ 2 ] <= 62301.85
quadratic_ranged_243_ub: [ 1 x_22_ ^ 2 - 2 x_63_ * x_22_ + 1 x_63_ ^ 2 + 1 y_22_ ^ 2 - 2 y_63_ * y_22_ + 1 y_63_ ^ 2 ] <= 1241.29
quadratic_ranged_244_ub: [ 1 x_26_ ^ 2 - 2 x_63_ * x_26_ + 1 x_63_ ^ 2 + 1 y_26_ ^ 2 - 2 y_63_ * y_26_ + 1 y_63_ ^ 2 ] <= 21679.65
quadratic_ranged_245_ub: [ 1 x_31_ ^ 2 - 2 x_63_ * x_31_ + 1 x_63_ ^ 2 + 1 y_31_ ^ 2 - 2 y_63_ * y_31_ + 1 y_63_ ^ 2 ] <= 45482.32
quadratic_ranged_246_ub: [ 1 x_32_ ^ 2 - 2 x_63_ * x_32_ + 1 x_63_ ^ 2 + 1 y_32_ ^ 2 - 2 y_63_ * y_32_ + 1 y_63_ ^ 2 ] <= 22924.98
quadratic_ranged_247_ub: [ 1 x_46_ ^ 2 - 2 x_63_ * x_46_ + 1 x_63_ ^ 2 + 1 y_46_ ^ 2 - 2 y_63_ * y_46_ + 1 y_63_ ^ 2 ] <= 25687.33
quadratic_ranged_248_ub: [ 1 x_50_ ^ 2 - 2 x_63_ * x_50_ + 1 x_63_ ^ 2 + 1 y_50_ ^ 2 - 2 y_63_ * y_50_ + 1 y_63_ ^ 2 ] <= 81.81
quadratic_ranged_249_ub: [ 1 x_58_ ^ 2 - 2 x_63_ * x_58_ + 1 x_63_ ^ 2 + 1 y_58_ ^ 2 - 2 y_63_ * y_58_ + 1 y_63_ ^ 2 ] <= 13917.8
quadratic_ranged_250_ub: [ 1 x_62_ ^ 2 - 2 x_63_ * x_62_ + 1 x_63_ ^ 2 + 1 y_62_ ^ 2 - 2 y_63_ * y_62_ + 1 y_63_ ^ 2 ] <= 24583.4
quadratic_ranged_251_ub: [ 1 x_15_ ^ 2 - 2 x_64_ * x_15_ + 1 x_64_ ^ 2 + 1 y_15_ ^ 2 - 2 y_64_ * y_15_ + 1 y_64_ ^ 2 ] <= 10788.82
quadratic_ranged_252_ub: [ 1 x_21_ ^ 2 - 2 x_64_ * x_21_ + 1 x_64_ ^ 2 + 1 y_21_ ^ 2 - 2 y_64_ * y_21_ + 1 y_64_ ^ 2 ] <= 19384.93
quadratic_ranged_253_ub: [ 1 x_43_ ^ 2 - 2 x_64_ * x_43_ + 1 x_64_ ^ 2 + 1 y_43_ ^ 2 - 2 y_64_ * y_43_ + 1 y_64_ ^ 2 ] <= 9034.45
quadratic_ranged_254_ub: [ 1 x_47_ ^ 2 - 2 x_64_ * x_47_ + 1 x_64_ ^ 2 + 1 y_47_ ^ 2 - 2 y_64_ * y_47_ + 1 y_64_ ^ 2 ] <= 20290.9
quadratic_ranged_255_ub: [ 1 x_63_ ^ 2 - 2 x_64_ * x_63_ + 1 x_64_ ^ 2 + 1 y_63_ ^ 2 - 2 y_64_ * y_63_ + 1 y_64_ ^ 2 ] <= 13611.77
quadratic_ranged_256_ub: [ 1 x_7_ ^ 2 - 2 x_65_ * x_7_ + 1 x_65_ ^ 2 + 1 y_7_ ^ 2 - 2 y_65_ * y_7_ + 1 y_65_ ^ 2 ] <= 6433.7
quadratic_ranged_257_ub: [ 1 x_20_ ^ 2 - 2 x_65_ * x_20_ + 1 x_65_ ^ 2 + 1 y_20_ ^ 2 - 2 y_65_ * y_20_ + 1 y_65_ ^ 2 ] <= 18896.09
quadratic_ranged_258_ub: [ 1 x_25_ ^ 2 - 2 x_65_ * x_25_ + 1 x_65_ ^ 2 + 1 y_25_ ^ 2 - 2 y_65_ * y_25_ + 1 y_65_ ^ 2 ] <= 9167.77
quadratic_ranged_259_ub: [ 1 x_29_ ^ 2 - 2 x_65_ * x_29_ + 1 x_65_ ^ 2 + 1 y_29_ ^ 2 - 2 y_65_ * y_29_ + 1 y_65_ ^ 2 ] <= 9458.65
quadratic_ranged_260_ub: [ 1 x_35_ ^ 2 - 2 x_65_ * x_35_ + 1 x_65_ ^ 2 + 1 y_35_ ^ 2 - 2 y_65_ * y_35_ + 1 y_65_ ^ 2 ] <= 8581.97
quadratic_ranged_261_ub: [ 1 x_44_ ^ 2 - 2 x_65_ * x_44_ + 1 x_65_ ^ 2 + 1 y_44_ ^ 2 - 2 y_65_ * y_44_ + 1 y_65_ ^ 2 ] <= 7290.18
quadratic_ranged_262_ub: [ 1 x_50_ ^ 2 - 2 x_65_ * x_50_ + 1 x_65_ ^ 2 + 1 y_50_ ^ 2 - 2 y_65_ * y_50_ + 1 y_65_ ^ 2 ] <= 12173.53
quadratic_ranged_263_ub: [ 1 x_56_ ^ 2 - 2 x_65_ * x_56_ + 1 x_65_ ^ 2 + 1 y_56_ ^ 2 - 2 y_65_ * y_56_ + 1 y_65_ ^ 2 ] <= 12657.32
quadratic_ranged_264_ub: [ 1 x_62_ ^ 2 - 2 x_65_ * x_62_ + 1 x_65_ ^ 2 + 1 y_62_ ^ 2 - 2 y_65_ * y_62_ + 1 y_65_ ^ 2 ] <= 1601.8600000000001
quadratic_ranged_265_ub: [ 1 x_64_ ^ 2 - 2 x_65_ * x_64_ + 1 x_65_ ^ 2 + 1 y_64_ ^ 2 - 2 y_65_ * y_64_ + 1 y_65_ ^ 2 ] <= 4739.93
quadratic_ranged_266_ub: [ 1 x_11_ ^ 2 - 2 x_66_ * x_11_ + 1 x_66_ ^ 2 + 1 y_11_ ^ 2 - 2 y_66_ * y_11_ + 1 y_66_ ^ 2 ] <= 22139.2
quadratic_ranged_267_ub: [ 1 x_14_ ^ 2 - 2 x_66_ * x_14_ + 1 x_66_ ^ 2 + 1 y_14_ ^ 2 - 2 y_66_ * y_14_ + 1 y_66_ ^ 2 ] <= 34494.53
quadratic_ranged_268_ub: [ 1 x_20_ ^ 2 - 2 x_66_ * x_20_ + 1 x_66_ ^ 2 + 1 y_20_ ^ 2 - 2 y_66_ * y_20_ + 1 y_66_ ^ 2 ] <= 33670.37
quadratic_ranged_269_ub: [ 1 x_22_ ^ 2 - 2 x_66_ * x_22_ + 1 x_66_ ^ 2 + 1 y_22_ ^ 2 - 2 y_66_ * y_22_ + 1 y_66_ ^ 2 ] <= 3406.73
quadratic_ranged_270_ub: [ 1 x_28_ ^ 2 - 2 x_66_ * x_28_ + 1 x_66_ ^ 2 + 1 y_28_ ^ 2 - 2 y_66_ * y_28_ + 1 y_66_ ^ 2 ] <= 570.65
quadratic_ranged_271_ub: [ 1 x_31_ ^ 2 - 2 x_66_ * x_31_ + 1 x_66_ ^ 2 + 1 y_31_ ^ 2 - 2 y_66_ * y_31_ + 1 y_66_ ^ 2 ] <= 54671.3
quadratic_ranged_272_ub: [ 1 x_37_ ^ 2 - 2 x_66_ * x_37_ + 1 x_66_ ^ 2 + 1 y_37_ ^ 2 - 2 y_66_ * y_37_ + 1 y_66_ ^ 2 ] <= 48797.14
quadratic_ranged_273_ub: [ 1 x_54_ ^ 2 - 2 x_66_ * x_54_ + 1 x_66_ ^ 2 + 1 y_54_ ^ 2 - 2 y_66_ * y_54_ + 1 y_66_ ^ 2 ] <= 534.29
quadratic_ranged_274_ub: [ 1 x_65_ ^ 2 - 2 x_66_ * x_65_ + 1 x_66_ ^ 2 + 1 y_65_ ^ 2 - 2 y_66_ * y_65_ + 1 y_66_ ^ 2 ] <= 19270.8
quadratic_ranged_275_ub: [ 1 x_3_ ^ 2 - 2 x_67_ * x_3_ + 1 x_67_ ^ 2 + 1 y_3_ ^ 2 - 2 y_67_ * y_3_ + 1 y_67_ ^ 2 ] <= 38457.77
quadratic_ranged_276_ub: [ 1 x_6_ ^ 2 - 2 x_67_ * x_6_ + 1 x_67_ ^ 2 + 1 y_6_ ^ 2 - 2 y_67_ * y_6_ + 1 y_67_ ^ 2 ] <= 19848.52
quadratic_ranged_277_ub: [ 1 x_12_ ^ 2 - 2 x_67_ * x_12_ + 1 x_67_ ^ 2 + 1 y_12_ ^ 2 - 2 y_67_ * y_12_ + 1 y_67_ ^ 2 ] <= 22515.93
quadratic_ranged_278_ub: [ 1 x_24_ ^ 2 - 2 x_67_ * x_24_ + 1 x_67_ ^ 2 + 1 y_24_ ^ 2 - 2 y_67_ * y_24_ + 1 y_67_ ^ 2 ] <= 28911.25
quadratic_ranged_279_ub: [ 1 x_49_ ^ 2 - 2 x_67_ * x_49_ + 1 x_67_ ^ 2 + 1 y_49_ ^ 2 - 2 y_67_ * y_49_ + 1 y_67_ ^ 2 ] <= 1168.57
quadratic_ranged_280_ub: [ 1 x_50_ ^ 2 - 2 x_67_ * x_50_ + 1 x_67_ ^ 2 + 1 y_50_ ^ 2 - 2 y_67_ * y_50_ + 1 y_67_ ^ 2 ] <= 4372.29
quadratic_ranged_281_ub: [ 1 x_54_ ^ 2 - 2 x_67_ * x_54_ + 1 x_67_ ^ 2 + 1 y_54_ ^ 2 - 2 y_67_ * y_54_ + 1 y_67_ ^ 2 ] <= 1806.89
quadratic_ranged_282_ub: [ 1 x_55_ ^ 2 - 2 x_67_ * x_55_ + 1 x_67_ ^ 2 + 1 y_55_ ^ 2 - 2 y_67_ * y_55_ + 1 y_67_ ^ 2 ] <= 20654.5
quadratic_ranged_283_ub: [ 1 x_57_ ^ 2 - 2 x_67_ * x_57_ + 1 x_67_ ^ 2 + 1 y_57_ ^ 2 - 2 y_67_ * y_57_ + 1 y_67_ ^ 2 ] <= 8760.74
quadratic_ranged_284_ub: [ 1 x_62_ ^ 2 - 2 x_67_ * x_62_ + 1 x_67_ ^ 2 + 1 y_62_ ^ 2 - 2 y_67_ * y_62_ + 1 y_67_ ^ 2 ] <= 21977.6
quadratic_ranged_285_ub: [ 1 x_66_ ^ 2 - 2 x_67_ * x_66_ + 1 x_67_ ^ 2 + 1 y_66_ ^ 2 - 2 y_67_ * y_66_ + 1 y_67_ ^ 2 ] <= 4292.5
quadratic_ranged_286_ub: [ 1 x_9_ ^ 2 - 2 x_68_ * x_9_ + 1 x_68_ ^ 2 + 1 y_9_ ^ 2 - 2 y_68_ * y_9_ + 1 y_68_ ^ 2 ] <= 20823.170000000002
quadratic_ranged_287_ub: [ 1 x_11_ ^ 2 - 2 x_68_ * x_11_ + 1 x_68_ ^ 2 + 1 y_11_ ^ 2 - 2 y_68_ * y_11_ + 1 y_68_ ^ 2 ] <= 4691.45
quadratic_ranged_288_ub: [ 1 x_17_ ^ 2 - 2 x_68_ * x_17_ + 1 x_68_ ^ 2 + 1 y_17_ ^ 2 - 2 y_68_ * y_17_ + 1 y_68_ ^ 2 ] <= 20415.13
quadratic_ranged_289_ub: [ 1 x_23_ ^ 2 - 2 x_68_ * x_23_ + 1 x_68_ ^ 2 + 1 y_23_ ^ 2 - 2 y_68_ * y_23_ + 1 y_68_ ^ 2 ] <= 3834.9700000000003
quadratic_ranged_290_ub: [ 1 x_25_ ^ 2 - 2 x_68_ * x_25_ + 1 x_68_ ^ 2 + 1 y_25_ ^ 2 - 2 y_68_ * y_25_ + 1 y_68_ ^ 2 ] <= 8534.5
quadratic_ranged_291_ub: [ 1 x_63_ ^ 2 - 2 x_68_ * x_63_ + 1 x_68_ ^ 2 + 1 y_63_ ^ 2 - 2 y_68_ * y_63_ + 1 y_68_ ^ 2 ] <= 5685.29
quadratic_ranged_292_ub: [ 1 x_67_ ^ 2 - 2 x_68_ * x_67_ + 1 x_68_ ^ 2 + 1 y_67_ ^ 2 - 2 y_68_ * y_67_ + 1 y_68_ ^ 2 ] <= 2146.25
quadratic_ranged_293_ub: [ 1 x_4_ ^ 2 - 2 x_69_ * x_4_ + 1 x_69_ ^ 2 + 1 y_4_ ^ 2 - 2 y_69_ * y_4_ + 1 y_69_ ^ 2 ] <= 4267.25
quadratic_ranged_294_ub: [ 1 x_11_ ^ 2 - 2 x_69_ * x_11_ + 1 x_69_ ^ 2 + 1 y_11_ ^ 2 - 2 y_69_ * y_11_ + 1 y_69_ ^ 2 ] <= 3847.09
quadratic_ranged_295_ub: [ 1 x_30_ ^ 2 - 2 x_69_ * x_30_ + 1 x_69_ ^ 2 + 1 y_30_ ^ 2 - 2 y_69_ * y_30_ + 1 y_69_ ^ 2 ] <= 26813.48
quadratic_ranged_296_ub: [ 1 x_35_ ^ 2 - 2 x_69_ * x_35_ + 1 x_69_ ^ 2 + 1 y_35_ ^ 2 - 2 y_69_ * y_35_ + 1 y_69_ ^ 2 ] <= 5191.4
quadratic_ranged_297_ub: [ 1 x_37_ ^ 2 - 2 x_69_ * x_37_ + 1 x_69_ ^ 2 + 1 y_37_ ^ 2 - 2 y_69_ * y_37_ + 1 y_69_ ^ 2 ] <= 1843.25
quadratic_ranged_298_ub: [ 1 x_39_ ^ 2 - 2 x_69_ * x_39_ + 1 x_69_ ^ 2 + 1 y_39_ ^ 2 - 2 y_69_ * y_39_ + 1 y_69_ ^ 2 ] <= 21363.52
quadratic_ranged_299_ub: [ 1 x_48_ ^ 2 - 2 x_69_ * x_48_ + 1 x_69_ ^ 2 + 1 y_48_ ^ 2 - 2 y_69_ * y_48_ + 1 y_69_ ^ 2 ] <= 16978.1
quadratic_ranged_300_ub: [ 1 x_61_ ^ 2 - 2 x_69_ * x_61_ + 1 x_69_ ^ 2 + 1 y_61_ ^ 2 - 2 y_69_ * y_61_ + 1 y_69_ ^ 2 ] <= 841.33
quadratic_ranged_301_ub: [ 1 x_65_ ^ 2 - 2 x_69_ * x_65_ + 1 x_69_ ^ 2 + 1 y_65_ ^ 2 - 2 y_69_ * y_65_ + 1 y_69_ ^ 2 ] <= 5539.85
quadratic_ranged_302_ub: [ 1 x_68_ ^ 2 - 2 x_69_ * x_68_ + 1 x_69_ ^ 2 + 1 y_68_ ^ 2 - 2 y_69_ * y_68_ + 1 y_69_ ^ 2 ] <= 15485.32
quadratic_ranged_303_ub: [ 1 x_10_ ^ 2 - 2 x_70_ * x_10_ + 1 x_70_ ^ 2 + 1 y_10_ ^ 2 - 2 y_70_ * y_10_ + 1 y_70_ ^ 2 ] <= 5035.86
quadratic_ranged_304_ub: [ 1 x_33_ ^ 2 - 2 x_70_ * x_33_ + 1 x_70_ ^ 2 + 1 y_33_ ^ 2 - 2 y_70_ * y_33_ + 1 y_70_ ^ 2 ] <= 36160.02
quadratic_ranged_305_ub: [ 1 x_52_ ^ 2 - 2 x_70_ * x_52_ + 1 x_70_ ^ 2 + 1 y_52_ ^ 2 - 2 y_70_ * y_52_ + 1 y_70_ ^ 2 ] <= 31231.22
quadratic_ranged_306_ub: [ 1 x_53_ ^ 2 - 2 x_70_ * x_53_ + 1 x_70_ ^ 2 + 1 y_53_ ^ 2 - 2 y_70_ * y_53_ + 1 y_70_ ^ 2 ] <= 42190.73
quadratic_ranged_307_ub: [ 1 x_58_ ^ 2 - 2 x_70_ * x_58_ + 1 x_70_ ^ 2 + 1 y_58_ ^ 2 - 2 y_70_ * y_58_ + 1 y_70_ ^ 2 ] <= 2429.05
quadratic_ranged_308_ub: [ 1 x_62_ ^ 2 - 2 x_70_ * x_62_ + 1 x_70_ ^ 2 + 1 y_62_ ^ 2 - 2 y_70_ * y_62_ + 1 y_70_ ^ 2 ] <= 20730.25
quadratic_ranged_309_ub: [ 1 x_69_ ^ 2 - 2 x_70_ * x_69_ + 1 x_70_ ^ 2 + 1 y_69_ ^ 2 - 2 y_70_ * y_69_ + 1 y_70_ ^ 2 ] <= 18390.08
quadratic_ranged_310_ub: [ 1 x_1_ ^ 2 - 2 x_71_ * x_1_ + 1 x_71_ ^ 2 + 1 y_1_ ^ 2 - 2 y_71_ * y_1_ + 1 y_71_ ^ 2 ] <= 20584.81
quadratic_ranged_311_ub: [ 1 x_9_ ^ 2 - 2 x_71_ * x_9_ + 1 x_71_ ^ 2 + 1 y_9_ ^ 2 - 2 y_71_ * y_9_ + 1 y_71_ ^ 2 ] <= 8464.81
quadratic_ranged_312_ub: [ 1 x_23_ ^ 2 - 2 x_71_ * x_23_ + 1 x_71_ ^ 2 + 1 y_23_ ^ 2 - 2 y_71_ * y_23_ + 1 y_71_ ^ 2 ] <= 11070.61
quadratic_ranged_313_ub: [ 1 x_33_ ^ 2 - 2 x_71_ * x_33_ + 1 x_71_ ^ 2 + 1 y_33_ ^ 2 - 2 y_71_ * y_33_ + 1 y_71_ ^ 2 ] <= 8534.5
quadratic_ranged_314_ub: [ 1 x_38_ ^ 2 - 2 x_71_ * x_38_ + 1 x_71_ ^ 2 + 1 y_38_ ^ 2 - 2 y_71_ * y_38_ + 1 y_71_ ^ 2 ] <= 10945.37
quadratic_ranged_315_ub: [ 1 x_54_ ^ 2 - 2 x_71_ * x_54_ + 1 x_71_ ^ 2 + 1 y_54_ ^ 2 - 2 y_71_ * y_54_ + 1 y_71_ ^ 2 ] <= 13449.16
quadratic_ranged_316_ub: [ 1 x_70_ ^ 2 - 2 x_71_ * x_70_ + 1 x_71_ ^ 2 + 1 y_70_ ^ 2 - 2 y_71_ * y_70_ + 1 y_71_ ^ 2 ] <= 15388.36
quadratic_ranged_317_ub: [ 1 x_46_ ^ 2 - 2 x_72_ * x_46_ + 1 x_72_ ^ 2 + 1 y_46_ ^ 2 - 2 y_72_ * y_46_ + 1 y_72_ ^ 2 ] <= 23901.65
quadratic_ranged_318_ub: [ 1 x_52_ ^ 2 - 2 x_72_ * x_52_ + 1 x_72_ ^ 2 + 1 y_52_ ^ 2 - 2 y_72_ * y_52_ + 1 y_72_ ^ 2 ] <= 16779.13
quadratic_ranged_319_ub: [ 1 x_60_ ^ 2 - 2 x_72_ * x_60_ + 1 x_72_ ^ 2 + 1 y_60_ ^ 2 - 2 y_72_ * y_60_ + 1 y_72_ ^ 2 ] <= 17311.4
quadratic_ranged_320_ub: [ 1 x_68_ ^ 2 - 2 x_72_ * x_68_ + 1 x_72_ ^ 2 + 1 y_68_ ^ 2 - 2 y_72_ * y_68_ + 1 y_72_ ^ 2 ] <= 3398.65
quadratic_ranged_321_ub: [ 1 x_71_ ^ 2 - 2 x_72_ * x_71_ + 1 x_72_ ^ 2 + 1 y_71_ ^ 2 - 2 y_72_ * y_71_ + 1 y_72_ ^ 2 ] <= 11611.97
quadratic_ranged_322_ub: [ 1 x_8_ ^ 2 - 2 x_73_ * x_8_ + 1 x_73_ ^ 2 + 1 y_8_ ^ 2 - 2 y_73_ * y_8_ + 1 y_73_ ^ 2 ] <= 7589.14
quadratic_ranged_323_ub: [ 1 x_12_ ^ 2 - 2 x_73_ * x_12_ + 1 x_73_ ^ 2 + 1 y_12_ ^ 2 - 2 y_73_ * y_12_ + 1 y_73_ ^ 2 ] <= 2732.05
quadratic_ranged_324_ub: [ 1 x_30_ ^ 2 - 2 x_73_ * x_30_ + 1 x_73_ ^ 2 + 1 y_30_ ^ 2 - 2 y_73_ * y_30_ + 1 y_73_ ^ 2 ] <= 13070.41
quadratic_ranged_325_ub: [ 1 x_46_ ^ 2 - 2 x_73_ * x_46_ + 1 x_73_ ^ 2 + 1 y_46_ ^ 2 - 2 y_73_ * y_46_ + 1 y_73_ ^ 2 ] <= 1245.33
quadratic_ranged_326_ub: [ 1 x_48_ ^ 2 - 2 x_73_ * x_48_ + 1 x_73_ ^ 2 + 1 y_48_ ^ 2 - 2 y_73_ * y_48_ + 1 y_73_ ^ 2 ] <= 2804.77
quadratic_ranged_327_ub: [ 1 x_59_ ^ 2 - 2 x_73_ * x_59_ + 1 x_73_ ^ 2 + 1 y_59_ ^ 2 - 2 y_73_ * y_59_ + 1 y_73_ ^ 2 ] <= 20816.1
quadratic_ranged_328_ub: [ 1 x_72_ ^ 2 - 2 x_73_ * x_72_ + 1 x_73_ ^ 2 + 1 y_72_ ^ 2 - 2 y_73_ * y_72_ + 1 y_73_ ^ 2 ] <= 22504.82
quadratic_ranged_329_ub: [ 1 x_4_ ^ 2 - 2 x_74_ * x_4_ + 1 x_74_ ^ 2 + 1 y_4_ ^ 2 - 2 y_74_ * y_4_ + 1 y_74_ ^ 2 ] <= 5176.25
quadratic_ranged_330_ub: [ 1 x_11_ ^ 2 - 2 x_74_ * x_11_ + 1 x_74_ ^ 2 + 1 y_11_ ^ 2 - 2 y_74_ * y_11_ + 1 y_74_ ^ 2 ] <= 974.65
quadratic_ranged_331_ub: [ 1 x_35_ ^ 2 - 2 x_74_ * x_35_ + 1 x_74_ ^ 2 + 1 y_35_ ^ 2 - 2 y_74_ * y_35_ + 1 y_74_ ^ 2 ] <= 2747.2
quadratic_ranged_332_ub: [ 1 x_38_ ^ 2 - 2 x_74_ * x_38_ + 1 x_74_ ^ 2 + 1 y_38_ ^ 2 - 2 y_74_ * y_38_ + 1 y_74_ ^ 2 ] <= 10731.25
quadratic_ranged_333_ub: [ 1 x_57_ ^ 2 - 2 x_74_ * x_57_ + 1 x_74_ ^ 2 + 1 y_57_ ^ 2 - 2 y_74_ * y_57_ + 1 y_74_ ^ 2 ] <= 13017.89
quadratic_ranged_334_ub: [ 1 x_73_ ^ 2 - 2 x_74_ * x_73_ + 1 x_74_ ^ 2 + 1 y_73_ ^ 2 - 2 y_74_ * y_73_ + 1 y_74_ ^ 2 ] <= 4691.45
quadratic_ranged_335_ub: [ 1 x_3_ ^ 2 - 2 x_75_ * x_3_ + 1 x_75_ ^ 2 + 1 y_3_ ^ 2 - 2 y_75_ * y_3_ + 1 y_75_ ^ 2 ] <= 22545.22
quadratic_ranged_336_ub: [ 1 x_11_ ^ 2 - 2 x_75_ * x_11_ + 1 x_75_ ^ 2 + 1 y_11_ ^ 2 - 2 y_75_ * y_11_ + 1 y_75_ ^ 2 ] <= 3261.29
quadratic_ranged_337_ub: [ 1 x_14_ ^ 2 - 2 x_75_ * x_14_ + 1 x_75_ ^ 2 + 1 y_14_ ^ 2 - 2 y_75_ * y_14_ + 1 y_75_ ^ 2 ] <= 4965.16
quadratic_ranged_338_ub: [ 1 x_62_ ^ 2 - 2 x_75_ * x_62_ + 1 x_75_ ^ 2 + 1 y_62_ ^ 2 - 2 y_75_ * y_62_ + 1 y_75_ ^ 2 ] <= 3091.61
quadratic_ranged_339_ub: [ 1 x_74_ ^ 2 - 2 x_75_ * x_74_ + 1 x_75_ ^ 2 + 1 y_74_ ^ 2 - 2 y_75_ * y_74_ + 1 y_75_ ^ 2 ] <= 7257.86
quadratic_ranged_340_ub: [ 1 x_6_ ^ 2 - 2 x_76_ * x_6_ + 1 x_76_ ^ 2 + 1 y_6_ ^ 2 - 2 y_76_ * y_6_ + 1 y_76_ ^ 2 ] <= 20079.81
quadratic_ranged_341_ub: [ 1 x_12_ ^ 2 - 2 x_76_ * x_12_ + 1 x_76_ ^ 2 + 1 y_12_ ^ 2 - 2 y_76_ * y_12_ + 1 y_76_ ^ 2 ] <= 27169
quadratic_ranged_342_ub: [ 1 x_21_ ^ 2 - 2 x_76_ * x_21_ + 1 x_76_ ^ 2 + 1 y_21_ ^ 2 - 2 y_76_ * y_21_ + 1 y_76_ ^ 2 ] <= 21477.65
quadratic_ranged_343_ub: [ 1 x_59_ ^ 2 - 2 x_76_ * x_59_ + 1 x_76_ ^ 2 + 1 y_59_ ^ 2 - 2 y_76_ * y_59_ + 1 y_76_ ^ 2 ] <= 18459.77
quadratic_ranged_344_ub: [ 1 x_67_ ^ 2 - 2 x_76_ * x_67_ + 1 x_76_ ^ 2 + 1 y_67_ ^ 2 - 2 y_76_ * y_67_ + 1 y_76_ ^ 2 ] <= 30244.45
quadratic_ranged_345_ub: [ 1 x_68_ ^ 2 - 2 x_76_ * x_68_ + 1 x_76_ ^ 2 + 1 y_68_ ^ 2 - 2 y_76_ * y_68_ + 1 y_76_ ^ 2 ] <= 17866.9
quadratic_ranged_346_ub: [ 1 x_71_ ^ 2 - 2 x_76_ * x_71_ + 1 x_76_ ^ 2 + 1 y_71_ ^ 2 - 2 y_76_ * y_71_ + 1 y_76_ ^ 2 ] <= 11281.7
quadratic_ranged_347_ub: [ 1 x_75_ ^ 2 - 2 x_76_ * x_75_ + 1 x_76_ ^ 2 + 1 y_75_ ^ 2 - 2 y_76_ * y_75_ + 1 y_76_ ^ 2 ] <= 17073.04
quadratic_ranged_348_ub: [ 1 x_10_ ^ 2 - 2 x_77_ * x_10_ + 1 x_77_ ^ 2 + 1 y_10_ ^ 2 - 2 y_77_ * y_10_ + 1 y_77_ ^ 2 ] <= 4000.61
quadratic_ranged_349_ub: [ 1 x_12_ ^ 2 - 2 x_77_ * x_12_ + 1 x_77_ ^ 2 + 1 y_12_ ^ 2 - 2 y_77_ * y_12_ + 1 y_77_ ^ 2 ] <= 16189.29
quadratic_ranged_350_ub: [ 1 x_28_ ^ 2 - 2 x_77_ * x_28_ + 1 x_77_ ^ 2 + 1 y_28_ ^ 2 - 2 y_77_ * y_28_ + 1 y_77_ ^ 2 ] <= 1964.45
quadratic_ranged_351_ub: [ 1 x_38_ ^ 2 - 2 x_77_ * x_38_ + 1 x_77_ ^ 2 + 1 y_38_ ^ 2 - 2 y_77_ * y_38_ + 1 y_77_ ^ 2 ] <= 8025.46
quadratic_ranged_352_ub: [ 1 x_56_ ^ 2 - 2 x_77_ * x_56_ + 1 x_77_ ^ 2 + 1 y_56_ ^ 2 - 2 y_77_ * y_56_ + 1 y_77_ ^ 2 ] <= 2359.36
quadratic_ranged_353_ub: [ 1 x_57_ ^ 2 - 2 x_77_ * x_57_ + 1 x_77_ ^ 2 + 1 y_57_ ^ 2 - 2 y_77_ * y_57_ + 1 y_77_ ^ 2 ] <= 14645
quadratic_ranged_354_ub: [ 1 x_58_ ^ 2 - 2 x_77_ * x_58_ + 1 x_77_ ^ 2 + 1 y_58_ ^ 2 - 2 y_77_ * y_58_ + 1 y_77_ ^ 2 ] <= 7403.3
quadratic_ranged_355_ub: [ 1 x_68_ ^ 2 - 2 x_77_ * x_68_ + 1 x_77_ ^ 2 + 1 y_68_ ^ 2 - 2 y_77_ * y_68_ + 1 y_77_ ^ 2 ] <= 2291.69
quadratic_ranged_356_ub: [ 1 x_74_ ^ 2 - 2 x_77_ * x_74_ + 1 x_77_ ^ 2 + 1 y_74_ ^ 2 - 2 y_77_ * y_74_ + 1 y_77_ ^ 2 ] <= 16997.29
quadratic_ranged_357_ub: [ 1 x_76_ ^ 2 - 2 x_77_ * x_76_ + 1 x_77_ ^ 2 + 1 y_76_ ^ 2 - 2 y_77_ * y_76_ + 1 y_77_ ^ 2 ] <= 32922.97
quadratic_ranged_358_ub: [ 1 x_4_ ^ 2 - 2 x_78_ * x_4_ + 1 x_78_ ^ 2 + 1 y_4_ ^ 2 - 2 y_78_ * y_4_ + 1 y_78_ ^ 2 ] <= 1871.53
quadratic_ranged_359_ub: [ 1 x_28_ ^ 2 - 2 x_78_ * x_28_ + 1 x_78_ ^ 2 + 1 y_28_ ^ 2 - 2 y_78_ * y_28_ + 1 y_78_ ^ 2 ] <= 18474.920000000002
quadratic_ranged_360_ub: [ 1 x_35_ ^ 2 - 2 x_78_ * x_35_ + 1 x_78_ ^ 2 + 1 y_35_ ^ 2 - 2 y_78_ * y_35_ + 1 y_78_ ^ 2 ] <= 9536.42
quadratic_ranged_361_ub: [ 1 x_56_ ^ 2 - 2 x_78_ * x_56_ + 1 x_78_ ^ 2 + 1 y_56_ ^ 2 - 2 y_78_ * y_56_ + 1 y_78_ ^ 2 ] <= 15126.77
quadratic_ranged_362_ub: [ 1 x_59_ ^ 2 - 2 x_78_ * x_59_ + 1 x_78_ ^ 2 + 1 y_59_ ^ 2 - 2 y_78_ * y_59_ + 1 y_78_ ^ 2 ] <= 15171.210000000001
quadratic_ranged_363_ub: [ 1 x_60_ ^ 2 - 2 x_78_ * x_60_ + 1 x_78_ ^ 2 + 1 y_60_ ^ 2 - 2 y_78_ * y_60_ + 1 y_78_ ^ 2 ] <= 11462.49
quadratic_ranged_364_ub: [ 1 x_73_ ^ 2 - 2 x_78_ * x_73_ + 1 x_78_ ^ 2 + 1 y_73_ ^ 2 - 2 y_78_ * y_73_ + 1 y_78_ ^ 2 ] <= 554.49
quadratic_ranged_365_ub: [ 1 x_77_ ^ 2 - 2 x_78_ * x_77_ + 1 x_78_ ^ 2 + 1 y_77_ ^ 2 - 2 y_78_ * y_77_ + 1 y_78_ ^ 2 ] <= 13615.81
quadratic_ranged_366_ub: [ 1 x_8_ ^ 2 - 2 x_79_ * x_8_ + 1 x_79_ ^ 2 + 1 y_8_ ^ 2 - 2 y_79_ * y_8_ + 1 y_79_ ^ 2 ] <= 6312.5
quadratic_ranged_367_ub: [ 1 x_37_ ^ 2 - 2 x_79_ * x_37_ + 1 x_79_ ^ 2 + 1 y_37_ ^ 2 - 2 y_79_ * y_37_ + 1 y_79_ ^ 2 ] <= 6853.86
quadratic_ranged_368_ub: [ 1 x_46_ ^ 2 - 2 x_79_ * x_46_ + 1 x_79_ ^ 2 + 1 y_46_ ^ 2 - 2 y_79_ * y_46_ + 1 y_79_ ^ 2 ] <= 20427.25
quadratic_ranged_369_ub: [ 1 x_56_ ^ 2 - 2 x_79_ * x_56_ + 1 x_79_ ^ 2 + 1 y_56_ ^ 2 - 2 y_79_ * y_56_ + 1 y_79_ ^ 2 ] <= 38945.6
quadratic_ranged_370_ub: [ 1 x_57_ ^ 2 - 2 x_79_ * x_57_ + 1 x_79_ ^ 2 + 1 y_57_ ^ 2 - 2 y_79_ * y_57_ + 1 y_79_ ^ 2 ] <= 2815.88
quadratic_ranged_371_ub: [ 1 x_61_ ^ 2 - 2 x_79_ * x_61_ + 1 x_79_ ^ 2 + 1 y_61_ ^ 2 - 2 y_79_ * y_61_ + 1 y_79_ ^ 2 ] <= 10037.38
quadratic_ranged_372_ub: [ 1 x_65_ ^ 2 - 2 x_79_ * x_65_ + 1 x_79_ ^ 2 + 1 y_65_ ^ 2 - 2 y_79_ * y_65_ + 1 y_79_ ^ 2 ] <= 16551.88
quadratic_ranged_373_ub: [ 1 x_66_ ^ 2 - 2 x_79_ * x_66_ + 1 x_79_ ^ 2 + 1 y_66_ ^ 2 - 2 y_79_ * y_66_ + 1 y_79_ ^ 2 ] <= 39192.04
quadratic_ranged_374_ub: [ 1 x_78_ ^ 2 - 2 x_79_ * x_78_ + 1 x_79_ ^ 2 + 1 y_78_ ^ 2 - 2 y_79_ * y_78_ + 1 y_79_ ^ 2 ] <= 18657.73
quadratic_ranged_375_ub: [ 1 x_22_ ^ 2 - 2 x_80_ * x_22_ + 1 x_80_ ^ 2 + 1 y_22_ ^ 2 - 2 y_80_ * y_22_ + 1 y_80_ ^ 2 ] <= 13599.65
quadratic_ranged_376_ub: [ 1 x_24_ ^ 2 - 2 x_80_ * x_24_ + 1 x_80_ ^ 2 + 1 y_24_ ^ 2 - 2 y_80_ * y_24_ + 1 y_80_ ^ 2 ] <= 24802.57
quadratic_ranged_377_ub: [ 1 x_25_ ^ 2 - 2 x_80_ * x_25_ + 1 x_80_ ^ 2 + 1 y_25_ ^ 2 - 2 y_80_ * y_25_ + 1 y_80_ ^ 2 ] <= 35516.65
quadratic_ranged_378_ub: [ 1 x_27_ ^ 2 - 2 x_80_ * x_27_ + 1 x_80_ ^ 2 + 1 y_27_ ^ 2 - 2 y_80_ * y_27_ + 1 y_80_ ^ 2 ] <= 23436.04
quadratic_ranged_379_ub: [ 1 x_43_ ^ 2 - 2 x_80_ * x_43_ + 1 x_80_ ^ 2 + 1 y_43_ ^ 2 - 2 y_80_ * y_43_ + 1 y_80_ ^ 2 ] <= 21157.48
quadratic_ranged_380_ub: [ 1 x_45_ ^ 2 - 2 x_80_ * x_45_ + 1 x_80_ ^ 2 + 1 y_45_ ^ 2 - 2 y_80_ * y_45_ + 1 y_80_ ^ 2 ] <= 5908.5
quadratic_ranged_381_ub: [ 1 x_47_ ^ 2 - 2 x_80_ * x_47_ + 1 x_80_ ^ 2 + 1 y_47_ ^ 2 - 2 y_80_ * y_47_ + 1 y_80_ ^ 2 ] <= 4016.77
quadratic_ranged_382_ub: [ 1 x_60_ ^ 2 - 2 x_80_ * x_60_ + 1 x_80_ ^ 2 + 1 y_60_ ^ 2 - 2 y_80_ * y_60_ + 1 y_80_ ^ 2 ] <= 35650.98
quadratic_ranged_383_ub: [ 1 x_73_ ^ 2 - 2 x_80_ * x_73_ + 1 x_80_ ^ 2 + 1 y_73_ ^ 2 - 2 y_80_ * y_73_ + 1 y_80_ ^ 2 ] <= 3854.16
quadratic_ranged_384_ub: [ 1 x_77_ ^ 2 - 2 x_80_ * x_77_ + 1 x_80_ ^ 2 + 1 y_77_ ^ 2 - 2 y_80_ * y_77_ + 1 y_80_ ^ 2 ] <= 24987.4
quadratic_ranged_385_ub: [ 1 x_79_ ^ 2 - 2 x_80_ * x_79_ + 1 x_80_ ^ 2 + 1 y_79_ ^ 2 - 2 y_80_ * y_79_ + 1 y_80_ ^ 2 ] <= 49227.4
quadratic_ranged_386_ub: [ 1 x_17_ ^ 2 - 2 x_81_ * x_17_ + 1 x_81_ ^ 2 + 1 y_17_ ^ 2 - 2 y_81_ * y_17_ + 1 y_81_ ^ 2 ] <= 26284.24
quadratic_ranged_387_ub: [ 1 x_24_ ^ 2 - 2 x_81_ * x_24_ + 1 x_81_ ^ 2 + 1 y_24_ ^ 2 - 2 y_81_ * y_24_ + 1 y_81_ ^ 2 ] <= 5418.65
quadratic_ranged_388_ub: [ 1 x_25_ ^ 2 - 2 x_81_ * x_25_ + 1 x_81_ ^ 2 + 1 y_25_ ^ 2 - 2 y_81_ * y_25_ + 1 y_81_ ^ 2 ] <= 198.97
quadratic_ranged_389_ub: [ 1 x_35_ ^ 2 - 2 x_81_ * x_35_ + 1 x_81_ ^ 2 + 1 y_35_ ^ 2 - 2 y_81_ * y_35_ + 1 y_81_ ^ 2 ] <= 380.77
quadratic_ranged_390_ub: [ 1 x_65_ ^ 2 - 2 x_81_ * x_65_ + 1 x_81_ ^ 2 + 1 y_65_ ^ 2 - 2 y_81_ * y_65_ + 1 y_81_ ^ 2 ] <= 11716
quadratic_ranged_391_ub: [ 1 x_71_ ^ 2 - 2 x_81_ * x_71_ + 1 x_81_ ^ 2 + 1 y_71_ ^ 2 - 2 y_81_ * y_71_ + 1 y_81_ ^ 2 ] <= 12044.25
quadratic_ranged_392_ub: [ 1 x_80_ ^ 2 - 2 x_81_ * x_80_ + 1 x_81_ ^ 2 + 1 y_80_ ^ 2 - 2 y_81_ * y_80_ + 1 y_81_ ^ 2 ] <= 39979.840000000004
quadratic_ranged_393_ub: [ 1 x_2_ ^ 2 - 2 x_82_ * x_2_ + 1 x_82_ ^ 2 + 1 y_2_ ^ 2 - 2 y_82_ * y_2_ + 1 y_82_ ^ 2 ] <= 4836.89
quadratic_ranged_394_ub: [ 1 x_23_ ^ 2 - 2 x_82_ * x_23_ + 1 x_82_ ^ 2 + 1 y_23_ ^ 2 - 2 y_82_ * y_23_ + 1 y_82_ ^ 2 ] <= 17736.61
quadratic_ranged_395_ub: [ 1 x_24_ ^ 2 - 2 x_82_ * x_24_ + 1 x_82_ ^ 2 + 1 y_24_ ^ 2 - 2 y_82_ * y_24_ + 1 y_82_ ^ 2 ] <= 12469.460000000001
quadratic_ranged_396_ub: [ 1 x_27_ ^ 2 - 2 x_82_ * x_27_ + 1 x_82_ ^ 2 + 1 y_27_ ^ 2 - 2 y_82_ * y_27_ + 1 y_82_ ^ 2 ] <= 15163.130000000001
quadratic_ranged_397_ub: [ 1 x_54_ ^ 2 - 2 x_82_ * x_54_ + 1 x_82_ ^ 2 + 1 y_54_ ^ 2 - 2 y_82_ * y_54_ + 1 y_82_ ^ 2 ] <= 20478.76
quadratic_ranged_398_ub: [ 1 x_62_ ^ 2 - 2 x_82_ * x_62_ + 1 x_82_ ^ 2 + 1 y_62_ ^ 2 - 2 y_82_ * y_62_ + 1 y_82_ ^ 2 ] <= 2408.85
quadratic_ranged_399_ub: [ 1 x_72_ ^ 2 - 2 x_82_ * x_72_ + 1 x_82_ ^ 2 + 1 y_72_ ^ 2 - 2 y_82_ * y_72_ + 1 y_82_ ^ 2 ] <= 22592.69
quadratic_ranged_400_ub: [ 1 x_81_ ^ 2 - 2 x_82_ * x_81_ + 1 x_82_ ^ 2 + 1 y_81_ ^ 2 - 2 y_82_ * y_81_ + 1 y_82_ ^ 2 ] <= 21206.97
quadratic_ranged_401_ub: [ 1 x_6_ ^ 2 - 2 x_83_ * x_6_ + 1 x_83_ ^ 2 + 1 y_6_ ^ 2 - 2 y_83_ * y_6_ + 1 y_83_ ^ 2 ] <= 11152.42
quadratic_ranged_402_ub: [ 1 x_30_ ^ 2 - 2 x_83_ * x_30_ + 1 x_83_ ^ 2 + 1 y_30_ ^ 2 - 2 y_83_ * y_30_ + 1 y_83_ ^ 2 ] <= 16447.85
quadratic_ranged_403_ub: [ 1 x_39_ ^ 2 - 2 x_83_ * x_39_ + 1 x_83_ ^ 2 + 1 y_39_ ^ 2 - 2 y_83_ * y_39_ + 1 y_83_ ^ 2 ] <= 14860.130000000001
quadratic_ranged_404_ub: [ 1 x_54_ ^ 2 - 2 x_83_ * x_54_ + 1 x_83_ ^ 2 + 1 y_54_ ^ 2 - 2 y_83_ * y_54_ + 1 y_83_ ^ 2 ] <= 24669.25
quadratic_ranged_405_ub: [ 1 x_56_ ^ 2 - 2 x_83_ * x_56_ + 1 x_83_ ^ 2 + 1 y_56_ ^ 2 - 2 y_83_ * y_56_ + 1 y_83_ ^ 2 ] <= 24470.28
quadratic_ranged_406_ub: [ 1 x_69_ ^ 2 - 2 x_83_ * x_69_ + 1 x_83_ ^ 2 + 1 y_69_ ^ 2 - 2 y_83_ * y_69_ + 1 y_83_ ^ 2 ] <= 2004.85
quadratic_ranged_407_ub: [ 1 x_73_ ^ 2 - 2 x_83_ * x_73_ + 1 x_83_ ^ 2 + 1 y_73_ ^ 2 - 2 y_83_ * y_73_ + 1 y_83_ ^ 2 ] <= 6270.08
quadratic_ranged_408_ub: [ 1 x_74_ ^ 2 - 2 x_83_ * x_74_ + 1 x_83_ ^ 2 + 1 y_74_ ^ 2 - 2 y_83_ * y_74_ + 1 y_83_ ^ 2 ] <= 118.17
quadratic_ranged_409_ub: [ 1 x_82_ ^ 2 - 2 x_83_ * x_82_ + 1 x_83_ ^ 2 + 1 y_82_ ^ 2 - 2 y_83_ * y_82_ + 1 y_83_ ^ 2 ] <= 7749.7300000000005
quadratic_ranged_410_ub: [ 1 x_7_ ^ 2 - 2 x_84_ * x_7_ + 1 x_84_ ^ 2 + 1 y_7_ ^ 2 - 2 y_84_ * y_7_ + 1 y_84_ ^ 2 ] <= 21312.01
quadratic_ranged_411_ub: [ 1 x_12_ ^ 2 - 2 x_84_ * x_12_ + 1 x_84_ ^ 2 + 1 y_12_ ^ 2 - 2 y_84_ * y_12_ + 1 y_84_ ^ 2 ] <= 33485.54
quadratic_ranged_412_ub: [ 1 x_17_ ^ 2 - 2 x_84_ * x_17_ + 1 x_84_ ^ 2 + 1 y_17_ ^ 2 - 2 y_84_ * y_17_ + 1 y_84_ ^ 2 ] <= 27170.010000000002
quadratic_ranged_413_ub: [ 1 x_27_ ^ 2 - 2 x_84_ * x_27_ + 1 x_84_ ^ 2 + 1 y_27_ ^ 2 - 2 y_84_ * y_27_ + 1 y_84_ ^ 2 ] <= 26850.85
quadratic_ranged_414_ub: [ 1 x_37_ ^ 2 - 2 x_84_ * x_37_ + 1 x_84_ ^ 2 + 1 y_37_ ^ 2 - 2 y_84_ * y_37_ + 1 y_84_ ^ 2 ] <= 4537.93
quadratic_ranged_415_ub: [ 1 x_39_ ^ 2 - 2 x_84_ * x_39_ + 1 x_84_ ^ 2 + 1 y_39_ ^ 2 - 2 y_84_ * y_39_ + 1 y_84_ ^ 2 ] <= 25411.6
quadratic_ranged_416_ub: [ 1 x_42_ ^ 2 - 2 x_84_ * x_42_ + 1 x_84_ ^ 2 + 1 y_42_ ^ 2 - 2 y_84_ * y_42_ + 1 y_84_ ^ 2 ] <= 20298.98
quadratic_ranged_417_ub: [ 1 x_60_ ^ 2 - 2 x_84_ * x_60_ + 1 x_84_ ^ 2 + 1 y_60_ ^ 2 - 2 y_84_ * y_60_ + 1 y_84_ ^ 2 ] <= 2146.25
quadratic_ranged_418_ub: [ 1 x_83_ ^ 2 - 2 x_84_ * x_83_ + 1 x_84_ ^ 2 + 1 y_83_ ^ 2 - 2 y_84_ * y_83_ + 1 y_84_ ^ 2 ] <= 3834.9700000000003
quadratic_ranged_419_ub: [ 1 x_1_ ^ 2 - 2 x_85_ * x_1_ + 1 x_85_ ^ 2 + 1 y_1_ ^ 2 - 2 y_85_ * y_1_ + 1 y_85_ ^ 2 ] <= 35749.96
quadratic_ranged_420_ub: [ 1 x_4_ ^ 2 - 2 x_85_ * x_4_ + 1 x_85_ ^ 2 + 1 y_4_ ^ 2 - 2 y_85_ * y_4_ + 1 y_85_ ^ 2 ] <= 13430.98
quadratic_ranged_421_ub: [ 1 x_43_ ^ 2 - 2 x_85_ * x_43_ + 1 x_85_ ^ 2 + 1 y_43_ ^ 2 - 2 y_85_ * y_43_ + 1 y_85_ ^ 2 ] <= 16759.94
quadratic_ranged_422_ub: [ 1 x_50_ ^ 2 - 2 x_85_ * x_50_ + 1 x_85_ ^ 2 + 1 y_50_ ^ 2 - 2 y_85_ * y_50_ + 1 y_85_ ^ 2 ] <= 3063.33
quadratic_ranged_423_ub: [ 1 x_63_ ^ 2 - 2 x_85_ * x_63_ + 1 x_85_ ^ 2 + 1 y_63_ ^ 2 - 2 y_85_ * y_63_ + 1 y_85_ ^ 2 ] <= 3636
quadratic_ranged_424_ub: [ 1 x_70_ ^ 2 - 2 x_85_ * x_70_ + 1 x_85_ ^ 2 + 1 y_70_ ^ 2 - 2 y_85_ * y_70_ + 1 y_85_ ^ 2 ] <= 14363.210000000001
quadratic_ranged_425_ub: [ 1 x_76_ ^ 2 - 2 x_85_ * x_76_ + 1 x_85_ ^ 2 + 1 y_76_ ^ 2 - 2 y_85_ * y_76_ + 1 y_85_ ^ 2 ] <= 21093.85
quadratic_ranged_426_ub: [ 1 x_77_ ^ 2 - 2 x_85_ * x_77_ + 1 x_85_ ^ 2 + 1 y_77_ ^ 2 - 2 y_85_ * y_77_ + 1 y_85_ ^ 2 ] <= 1763.46
quadratic_ranged_427_ub: [ 1 x_84_ ^ 2 - 2 x_85_ * x_84_ + 1 x_85_ ^ 2 + 1 y_84_ ^ 2 - 2 y_85_ * y_84_ + 1 y_85_ ^ 2 ] <= 14593.49
quadratic_ranged_428_ub: [ 1 x_1_ ^ 2 - 2 x_86_ * x_1_ + 1 x_86_ ^ 2 + 1 y_1_ ^ 2 - 2 y_86_ * y_1_ + 1 y_86_ ^ 2 ] <= 2626
quadratic_ranged_429_ub: [ 1 x_17_ ^ 2 - 2 x_86_ * x_17_ + 1 x_86_ ^ 2 + 1 y_17_ ^ 2 - 2 y_86_ * y_17_ + 1 y_86_ ^ 2 ] <= 10602.98
quadratic_ranged_430_ub: [ 1 x_28_ ^ 2 - 2 x_86_ * x_28_ + 1 x_86_ ^ 2 + 1 y_28_ ^ 2 - 2 y_86_ * y_28_ + 1 y_86_ ^ 2 ] <= 44202.65
quadratic_ranged_431_ub: [ 1 x_38_ ^ 2 - 2 x_86_ * x_38_ + 1 x_86_ ^ 2 + 1 y_38_ ^ 2 - 2 y_86_ * y_38_ + 1 y_86_ ^ 2 ] <= 19303.12
quadratic_ranged_432_ub: [ 1 x_45_ ^ 2 - 2 x_86_ * x_45_ + 1 x_86_ ^ 2 + 1 y_45_ ^ 2 - 2 y_86_ * y_45_ + 1 y_86_ ^ 2 ] <= 10382.8
quadratic_ranged_433_ub: [ 1 x_76_ ^ 2 - 2 x_86_ * x_76_ + 1 x_86_ ^ 2 + 1 y_76_ ^ 2 - 2 y_86_ * y_76_ + 1 y_86_ ^ 2 ] <= 186.85
quadratic_ranged_434_ub: [ 1 x_85_ ^ 2 - 2 x_86_ * x_85_ + 1 x_86_ ^ 2 + 1 y_85_ ^ 2 - 2 y_86_ * y_85_ + 1 y_86_ ^ 2 ] <= 19961.64
quadratic_ranged_435_ub: [ 1 x_6_ ^ 2 - 2 x_87_ * x_6_ + 1 x_87_ ^ 2 + 1 y_6_ ^ 2 - 2 y_87_ * y_6_ + 1 y_87_ ^ 2 ] <= 2040.2
quadratic_ranged_436_ub: [ 1 x_14_ ^ 2 - 2 x_87_ * x_14_ + 1 x_87_ ^ 2 + 1 y_14_ ^ 2 - 2 y_87_ * y_14_ + 1 y_87_ ^ 2 ] <= 2194.73
quadratic_ranged_437_ub: [ 1 x_23_ ^ 2 - 2 x_87_ * x_23_ + 1 x_87_ ^ 2 + 1 y_23_ ^ 2 - 2 y_87_ * y_23_ + 1 y_87_ ^ 2 ] <= 26195.36
quadratic_ranged_438_ub: [ 1 x_24_ ^ 2 - 2 x_87_ * x_24_ + 1 x_87_ ^ 2 + 1 y_24_ ^ 2 - 2 y_87_ * y_24_ + 1 y_87_ ^ 2 ] <= 8767.81
quadratic_ranged_439_ub: [ 1 x_31_ ^ 2 - 2 x_87_ * x_31_ + 1 x_87_ ^ 2 + 1 y_31_ ^ 2 - 2 y_87_ * y_31_ + 1 y_87_ ^ 2 ] <= 6936.68
quadratic_ranged_440_ub: [ 1 x_46_ ^ 2 - 2 x_87_ * x_46_ + 1 x_87_ ^ 2 + 1 y_46_ ^ 2 - 2 y_87_ * y_46_ + 1 y_87_ ^ 2 ] <= 663.57
quadratic_ranged_441_ub: [ 1 x_55_ ^ 2 - 2 x_87_ * x_55_ + 1 x_87_ ^ 2 + 1 y_55_ ^ 2 - 2 y_87_ * y_55_ + 1 y_87_ ^ 2 ] <= 300.98
quadratic_ranged_442_ub: [ 1 x_59_ ^ 2 - 2 x_87_ * x_59_ + 1 x_87_ ^ 2 + 1 y_59_ ^ 2 - 2 y_87_ * y_59_ + 1 y_87_ ^ 2 ] <= 25670.16
quadratic_ranged_443_ub: [ 1 x_61_ ^ 2 - 2 x_87_ * x_61_ + 1 x_87_ ^ 2 + 1 y_61_ ^ 2 - 2 y_87_ * y_61_ + 1 y_87_ ^ 2 ] <= 9958.6
quadratic_ranged_444_ub: [ 1 x_70_ ^ 2 - 2 x_87_ * x_70_ + 1 x_87_ ^ 2 + 1 y_70_ ^ 2 - 2 y_87_ * y_70_ + 1 y_87_ ^ 2 ] <= 29779.85
quadratic_ranged_445_ub: [ 1 x_74_ ^ 2 - 2 x_87_ * x_74_ + 1 x_87_ ^ 2 + 1 y_74_ ^ 2 - 2 y_87_ * y_74_ + 1 y_87_ ^ 2 ] <= 5176.25
quadratic_ranged_446_ub: [ 1 x_75_ ^ 2 - 2 x_87_ * x_75_ + 1 x_87_ ^ 2 + 1 y_75_ ^ 2 - 2 y_87_ * y_75_ + 1 y_87_ ^ 2 ] <= 1225.13
quadratic_ranged_447_ub: [ 1 x_77_ ^ 2 - 2 x_87_ * x_77_ + 1 x_87_ ^ 2 + 1 y_77_ ^ 2 - 2 y_87_ * y_77_ + 1 y_87_ ^ 2 ] <= 22205.86
quadratic_ranged_448_ub: [ 1 x_83_ ^ 2 - 2 x_87_ * x_83_ + 1 x_87_ ^ 2 + 1 y_83_ ^ 2 - 2 y_87_ * y_83_ + 1 y_87_ ^ 2 ] <= 6845.78
quadratic_ranged_449_ub: [ 1 x_86_ ^ 2 - 2 x_87_ * x_86_ + 1 x_87_ ^ 2 + 1 y_86_ ^ 2 - 2 y_87_ * y_86_ + 1 y_87_ ^ 2 ] <= 8807.2
quadratic_ranged_450_ub: [ 1 x_3_ ^ 2 - 2 x_88_ * x_3_ + 1 x_88_ ^ 2 + 1 y_3_ ^ 2 - 2 y_88_ * y_3_ + 1 y_88_ ^ 2 ] <= 118.17
quadratic_ranged_451_ub: [ 1 x_13_ ^ 2 - 2 x_88_ * x_13_ + 1 x_88_ ^ 2 + 1 y_13_ ^ 2 - 2 y_88_ * y_13_ + 1 y_88_ ^ 2 ] <= 25024.77
quadratic_ranged_452_ub: [ 1 x_18_ ^ 2 - 2 x_88_ * x_18_ + 1 x_88_ ^ 2 + 1 y_18_ ^ 2 - 2 y_88_ * y_18_ + 1 y_88_ ^ 2 ] <= 853.45
quadratic_ranged_453_ub: [ 1 x_29_ ^ 2 - 2 x_88_ * x_29_ + 1 x_88_ ^ 2 + 1 y_29_ ^ 2 - 2 y_88_ * y_29_ + 1 y_88_ ^ 2 ] <= 7971.93
quadratic_ranged_454_ub: [ 1 x_30_ ^ 2 - 2 x_88_ * x_30_ + 1 x_88_ ^ 2 + 1 y_30_ ^ 2 - 2 y_88_ * y_30_ + 1 y_88_ ^ 2 ] <= 40760.57
quadratic_ranged_455_ub: [ 1 x_43_ ^ 2 - 2 x_88_ * x_43_ + 1 x_88_ ^ 2 + 1 y_43_ ^ 2 - 2 y_88_ * y_43_ + 1 y_88_ ^ 2 ] <= 1674.58
quadratic_ranged_456_ub: [ 1 x_44_ ^ 2 - 2 x_88_ * x_44_ + 1 x_88_ ^ 2 + 1 y_44_ ^ 2 - 2 y_88_ * y_44_ + 1 y_88_ ^ 2 ] <= 15194.44
quadratic_ranged_457_ub: [ 1 x_46_ ^ 2 - 2 x_88_ * x_46_ + 1 x_88_ ^ 2 + 1 y_46_ ^ 2 - 2 y_88_ * y_46_ + 1 y_88_ ^ 2 ] <= 8598.13
quadratic_ranged_458_ub: [ 1 x_55_ ^ 2 - 2 x_88_ * x_55_ + 1 x_88_ ^ 2 + 1 y_55_ ^ 2 - 2 y_88_ * y_55_ + 1 y_88_ ^ 2 ] <= 14529.86
quadratic_ranged_459_ub: [ 1 x_60_ ^ 2 - 2 x_88_ * x_60_ + 1 x_88_ ^ 2 + 1 y_60_ ^ 2 - 2 y_88_ * y_60_ + 1 y_88_ ^ 2 ] <= 2735.08
quadratic_ranged_460_ub: [ 1 x_62_ ^ 2 - 2 x_88_ * x_62_ + 1 x_88_ ^ 2 + 1 y_62_ ^ 2 - 2 y_88_ * y_62_ + 1 y_88_ ^ 2 ] <= 8019.4
quadratic_ranged_461_ub: [ 1 x_78_ ^ 2 - 2 x_88_ * x_78_ + 1 x_88_ ^ 2 + 1 y_78_ ^ 2 - 2 y_88_ * y_78_ + 1 y_88_ ^ 2 ] <= 12731.05
quadratic_ranged_462_ub: [ 1 x_79_ ^ 2 - 2 x_88_ * x_79_ + 1 x_88_ ^ 2 + 1 y_79_ ^ 2 - 2 y_88_ * y_79_ + 1 y_88_ ^ 2 ] <= 12469.460000000001
quadratic_ranged_463_ub: [ 1 x_87_ ^ 2 - 2 x_88_ * x_87_ + 1 x_88_ ^ 2 + 1 y_87_ ^ 2 - 2 y_88_ * y_87_ + 1 y_88_ ^ 2 ] <= 13594.6
quadratic_ranged_464_ub: [ 1 x_12_ ^ 2 - 2 x_89_ * x_12_ + 1 x_89_ ^ 2 + 1 y_12_ ^ 2 - 2 y_89_ * y_12_ + 1 y_89_ ^ 2 ] <= 17460.88
quadratic_ranged_465_ub: [ 1 x_20_ ^ 2 - 2 x_89_ * x_20_ + 1 x_89_ ^ 2 + 1 y_20_ ^ 2 - 2 y_89_ * y_20_ + 1 y_89_ ^ 2 ] <= 6813.46
quadratic_ranged_466_ub: [ 1 x_47_ ^ 2 - 2 x_89_ * x_47_ + 1 x_89_ ^ 2 + 1 y_47_ ^ 2 - 2 y_89_ * y_47_ + 1 y_89_ ^ 2 ] <= 14651.06
quadratic_ranged_467_ub: [ 1 x_66_ ^ 2 - 2 x_89_ * x_66_ + 1 x_89_ ^ 2 + 1 y_66_ ^ 2 - 2 y_89_ * y_66_ + 1 y_89_ ^ 2 ] <= 23332.01
quadratic_ranged_468_ub: [ 1 x_71_ ^ 2 - 2 x_89_ * x_71_ + 1 x_89_ ^ 2 + 1 y_71_ ^ 2 - 2 y_89_ * y_71_ + 1 y_89_ ^ 2 ] <= 3201.7
quadratic_ranged_469_ub: [ 1 x_86_ ^ 2 - 2 x_89_ * x_86_ + 1 x_89_ ^ 2 + 1 y_86_ ^ 2 - 2 y_89_ * y_86_ + 1 y_89_ ^ 2 ] <= 5374.21
quadratic_ranged_470_ub: [ 1 x_88_ ^ 2 - 2 x_89_ * x_88_ + 1 x_89_ ^ 2 + 1 y_88_ ^ 2 - 2 y_89_ * y_88_ + 1 y_89_ ^ 2 ] <= 9660.65
quadratic_ranged_471_ub: [ 1 x_10_ ^ 2 - 2 x_90_ * x_10_ + 1 x_90_ ^ 2 + 1 y_10_ ^ 2 - 2 y_90_ * y_10_ + 1 y_90_ ^ 2 ] <= 3597.62
quadratic_ranged_472_ub: [ 1 x_13_ ^ 2 - 2 x_90_ * x_13_ + 1 x_90_ ^ 2 + 1 y_13_ ^ 2 - 2 y_90_ * y_13_ + 1 y_90_ ^ 2 ] <= 32679.56
quadratic_ranged_473_ub: [ 1 x_18_ ^ 2 - 2 x_90_ * x_18_ + 1 x_90_ ^ 2 + 1 y_18_ ^ 2 - 2 y_90_ * y_18_ + 1 y_90_ ^ 2 ] <= 35653
quadratic_ranged_474_ub: [ 1 x_27_ ^ 2 - 2 x_90_ * x_27_ + 1 x_90_ ^ 2 + 1 y_27_ ^ 2 - 2 y_90_ * y_27_ + 1 y_90_ ^ 2 ] <= 18063.85
quadratic_ranged_475_ub: [ 1 x_34_ ^ 2 - 2 x_90_ * x_34_ + 1 x_90_ ^ 2 + 1 y_34_ ^ 2 - 2 y_90_ * y_34_ + 1 y_90_ ^ 2 ] <= 27169
quadratic_ranged_476_ub: [ 1 x_43_ ^ 2 - 2 x_90_ * x_43_ + 1 x_90_ ^ 2 + 1 y_43_ ^ 2 - 2 y_90_ * y_43_ + 1 y_90_ ^ 2 ] <= 19235.45
quadratic_ranged_477_ub: [ 1 x_57_ ^ 2 - 2 x_90_ * x_57_ + 1 x_90_ ^ 2 + 1 y_57_ ^ 2 - 2 y_90_ * y_57_ + 1 y_90_ ^ 2 ] <= 85.85
quadratic_ranged_478_ub: [ 1 x_60_ ^ 2 - 2 x_90_ * x_60_ + 1 x_90_ ^ 2 + 1 y_60_ ^ 2 - 2 y_90_ * y_60_ + 1 y_90_ ^ 2 ] <= 11882.65
quadratic_ranged_479_ub: [ 1 x_72_ ^ 2 - 2 x_90_ * x_72_ + 1 x_90_ ^ 2 + 1 y_72_ ^ 2 - 2 y_90_ * y_72_ + 1 y_90_ ^ 2 ] <= 1641.25
quadratic_ranged_480_ub: [ 1 x_89_ ^ 2 - 2 x_90_ * x_89_ + 1 x_90_ ^ 2 + 1 y_89_ ^ 2 - 2 y_90_ * y_89_ + 1 y_90_ ^ 2 ] <= 6522.58
quadratic_ranged_481_ub: [ 1 x_2_ ^ 2 - 2 x_91_ * x_2_ + 1 x_91_ ^ 2 + 1 y_2_ ^ 2 - 2 y_91_ * y_2_ + 1 y_91_ ^ 2 ] <= 26378.170000000002
quadratic_ranged_482_ub: [ 1 x_3_ ^ 2 - 2 x_91_ * x_3_ + 1 x_91_ ^ 2 + 1 y_3_ ^ 2 - 2 y_91_ * y_3_ + 1 y_91_ ^ 2 ] <= 28168.9
quadratic_ranged_483_ub: [ 1 x_8_ ^ 2 - 2 x_91_ * x_8_ + 1 x_91_ ^ 2 + 1 y_8_ ^ 2 - 2 y_91_ * y_8_ + 1 y_91_ ^ 2 ] <= 3798.61
quadratic_ranged_484_ub: [ 1 x_11_ ^ 2 - 2 x_91_ * x_11_ + 1 x_91_ ^ 2 + 1 y_11_ ^ 2 - 2 y_91_ * y_11_ + 1 y_91_ ^ 2 ] <= 9119.29
quadratic_ranged_485_ub: [ 1 x_29_ ^ 2 - 2 x_91_ * x_29_ + 1 x_91_ ^ 2 + 1 y_29_ ^ 2 - 2 y_91_ * y_29_ + 1 y_91_ ^ 2 ] <= 9043.54
quadratic_ranged_486_ub: [ 1 x_40_ ^ 2 - 2 x_91_ * x_40_ + 1 x_91_ ^ 2 + 1 y_40_ ^ 2 - 2 y_91_ * y_40_ + 1 y_91_ ^ 2 ] <= 3536.01
quadratic_ranged_487_ub: [ 1 x_57_ ^ 2 - 2 x_91_ * x_57_ + 1 x_91_ ^ 2 + 1 y_57_ ^ 2 - 2 y_91_ * y_57_ + 1 y_91_ ^ 2 ] <= 4792.45
quadratic_ranged_488_ub: [ 1 x_78_ ^ 2 - 2 x_91_ * x_78_ + 1 x_91_ ^ 2 + 1 y_78_ ^ 2 - 2 y_91_ * y_78_ + 1 y_91_ ^ 2 ] <= 11926.08
quadratic_ranged_489_ub: [ 1 x_86_ ^ 2 - 2 x_91_ * x_86_ + 1 x_91_ ^ 2 + 1 y_86_ ^ 2 - 2 y_91_ * y_86_ + 1 y_91_ ^ 2 ] <= 21639.25
quadratic_ranged_490_ub: [ 1 x_90_ ^ 2 - 2 x_91_ * x_90_ + 1 x_91_ ^ 2 + 1 y_90_ ^ 2 - 2 y_91_ * y_90_ + 1 y_91_ ^ 2 ] <= 3686.5
quadratic_ranged_491_ub: [ 1 x_9_ ^ 2 - 2 x_92_ * x_9_ + 1 x_92_ ^ 2 + 1 y_9_ ^ 2 - 2 y_92_ * y_9_ + 1 y_92_ ^ 2 ] <= 58120.45
quadratic_ranged_492_ub: [ 1 x_14_ ^ 2 - 2 x_92_ * x_14_ + 1 x_92_ ^ 2 + 1 y_14_ ^ 2 - 2 y_92_ * y_14_ + 1 y_92_ ^ 2 ] <= 27362.920000000002
quadratic_ranged_493_ub: [ 1 x_20_ ^ 2 - 2 x_92_ * x_20_ + 1 x_92_ ^ 2 + 1 y_20_ ^ 2 - 2 y_92_ * y_20_ + 1 y_92_ ^ 2 ] <= 583.78
quadratic_ranged_494_ub: [ 1 x_25_ ^ 2 - 2 x_92_ * x_25_ + 1 x_92_ ^ 2 + 1 y_25_ ^ 2 - 2 y_92_ * y_25_ + 1 y_92_ ^ 2 ] <= 5817.6
quadratic_ranged_495_ub: [ 1 x_29_ ^ 2 - 2 x_92_ * x_29_ + 1 x_92_ ^ 2 + 1 y_29_ ^ 2 - 2 y_92_ * y_29_ + 1 y_92_ ^ 2 ] <= 6126.66
quadratic_ranged_496_ub: [ 1 x_31_ ^ 2 - 2 x_92_ * x_31_ + 1 x_92_ ^ 2 + 1 y_31_ ^ 2 - 2 y_92_ * y_31_ + 1 y_92_ ^ 2 ] <= 32668.45
quadratic_ranged_497_ub: [ 1 x_35_ ^ 2 - 2 x_92_ * x_35_ + 1 x_92_ ^ 2 + 1 y_35_ ^ 2 - 2 y_92_ * y_35_ + 1 y_92_ ^ 2 ] <= 8445.62
quadratic_ranged_498_ub: [ 1 x_36_ ^ 2 - 2 x_92_ * x_36_ + 1 x_92_ ^ 2 + 1 y_36_ ^ 2 - 2 y_92_ * y_36_ + 1 y_92_ ^ 2 ] <= 54367.29
quadratic_ranged_499_ub: [ 1 x_37_ ^ 2 - 2 x_92_ * x_37_ + 1 x_92_ ^ 2 + 1 y_37_ ^ 2 - 2 y_92_ * y_37_ + 1 y_92_ ^ 2 ] <= 17768.93
quadratic_ranged_500_ub: [ 1 x_57_ ^ 2 - 2 x_92_ * x_57_ + 1 x_92_ ^ 2 + 1 y_57_ ^ 2 - 2 y_92_ * y_57_ + 1 y_92_ ^ 2 ] <= 990.8100000000001
quadratic_ranged_501_ub: [ 1 x_62_ ^ 2 - 2 x_92_ * x_62_ + 1 x_92_ ^ 2 + 1 y_62_ ^ 2 - 2 y_92_ * y_62_ + 1 y_92_ ^ 2 ] <= 30486.85
quadratic_ranged_502_ub: [ 1 x_67_ ^ 2 - 2 x_92_ * x_67_ + 1 x_92_ ^ 2 + 1 y_67_ ^ 2 - 2 y_92_ * y_67_ + 1 y_92_ ^ 2 ] <= 15296.45
quadratic_ranged_503_ub: [ 1 x_75_ ^ 2 - 2 x_92_ * x_75_ + 1 x_92_ ^ 2 + 1 y_75_ ^ 2 - 2 y_92_ * y_75_ + 1 y_92_ ^ 2 ] <= 41894.8
quadratic_ranged_504_ub: [ 1 x_85_ ^ 2 - 2 x_92_ * x_85_ + 1 x_92_ ^ 2 + 1 y_85_ ^ 2 - 2 y_92_ * y_85_ + 1 y_92_ ^ 2 ] <= 21804.89
quadratic_ranged_505_ub: [ 1 x_91_ ^ 2 - 2 x_92_ * x_91_ + 1 x_92_ ^ 2 + 1 y_91_ ^ 2 - 2 y_92_ * y_91_ + 1 y_92_ ^ 2 ] <= 10104.04
quadratic_ranged_506_ub: [ 1 x_6_ ^ 2 - 2 x_93_ * x_6_ + 1 x_93_ ^ 2 + 1 y_6_ ^ 2 - 2 y_93_ * y_6_ + 1 y_93_ ^ 2 ] <= 5326.74
quadratic_ranged_507_ub: [ 1 x_20_ ^ 2 - 2 x_93_ * x_20_ + 1 x_93_ ^ 2 + 1 y_20_ ^ 2 - 2 y_93_ * y_20_ + 1 y_93_ ^ 2 ] <= 14771.25
quadratic_ranged_508_ub: [ 1 x_22_ ^ 2 - 2 x_93_ * x_22_ + 1 x_93_ ^ 2 + 1 y_22_ ^ 2 - 2 y_93_ * y_22_ + 1 y_93_ ^ 2 ] <= 6065.05
quadratic_ranged_509_ub: [ 1 x_24_ ^ 2 - 2 x_93_ * x_24_ + 1 x_93_ ^ 2 + 1 y_24_ ^ 2 - 2 y_93_ * y_24_ + 1 y_93_ ^ 2 ] <= 10884.77
quadratic_ranged_510_ub: [ 1 x_63_ ^ 2 - 2 x_93_ * x_63_ + 1 x_93_ ^ 2 + 1 y_63_ ^ 2 - 2 y_93_ * y_63_ + 1 y_93_ ^ 2 ] <= 8849.62
quadratic_ranged_511_ub: [ 1 x_73_ ^ 2 - 2 x_93_ * x_73_ + 1 x_93_ ^ 2 + 1 y_73_ ^ 2 - 2 y_93_ * y_73_ + 1 y_93_ ^ 2 ] <= 3894.56
quadratic_ranged_512_ub: [ 1 x_84_ ^ 2 - 2 x_93_ * x_84_ + 1 x_93_ ^ 2 + 1 y_84_ ^ 2 - 2 y_93_ * y_84_ + 1 y_93_ ^ 2 ] <= 9830.33
quadratic_ranged_513_ub: [ 1 x_85_ ^ 2 - 2 x_93_ * x_85_ + 1 x_93_ ^ 2 + 1 y_85_ ^ 2 - 2 y_93_ * y_85_ + 1 y_93_ ^ 2 ] <= 1165.54
quadratic_ranged_514_ub: [ 1 x_92_ ^ 2 - 2 x_93_ * x_92_ + 1 x_93_ ^ 2 + 1 y_92_ ^ 2 - 2 y_93_ * y_92_ + 1 y_93_ ^ 2 ] <= 19627.33
quadratic_ranged_515_ub: [ 1 x_4_ ^ 2 - 2 x_94_ * x_4_ + 1 x_94_ ^ 2 + 1 y_4_ ^ 2 - 2 y_94_ * y_4_ + 1 y_94_ ^ 2 ] <= 9875.78
quadratic_ranged_516_ub: [ 1 x_31_ ^ 2 - 2 x_94_ * x_31_ + 1 x_94_ ^ 2 + 1 y_31_ ^ 2 - 2 y_94_ * y_31_ + 1 y_94_ ^ 2 ] <= 9340.48
quadratic_ranged_517_ub: [ 1 x_72_ ^ 2 - 2 x_94_ * x_72_ + 1 x_94_ ^ 2 + 1 y_72_ ^ 2 - 2 y_94_ * y_72_ + 1 y_94_ ^ 2 ] <= 6989.2
quadratic_ranged_518_ub: [ 1 x_75_ ^ 2 - 2 x_94_ * x_75_ + 1 x_94_ ^ 2 + 1 y_75_ ^ 2 - 2 y_94_ * y_75_ + 1 y_94_ ^ 2 ] <= 10024.25
quadratic_ranged_519_ub: [ 1 x_83_ ^ 2 - 2 x_94_ * x_83_ + 1 x_94_ ^ 2 + 1 y_83_ ^ 2 - 2 y_94_ * y_83_ + 1 y_94_ ^ 2 ] <= 818.1
quadratic_ranged_520_ub: [ 1 x_87_ ^ 2 - 2 x_94_ * x_87_ + 1 x_94_ ^ 2 + 1 y_87_ ^ 2 - 2 y_94_ * y_87_ + 1 y_94_ ^ 2 ] <= 9409.16
quadratic_ranged_521_ub: [ 1 x_92_ ^ 2 - 2 x_94_ * x_92_ + 1 x_94_ ^ 2 + 1 y_92_ ^ 2 - 2 y_94_ * y_92_ + 1 y_94_ ^ 2 ] <= 11393.81
quadratic_ranged_522_ub: [ 1 x_93_ ^ 2 - 2 x_94_ * x_93_ + 1 x_94_ ^ 2 + 1 y_93_ ^ 2 - 2 y_94_ * y_93_ + 1 y_94_ ^ 2 ] <= 2232.1
quadratic_ranged_523_ub: [ 1 x_2_ ^ 2 - 2 x_95_ * x_2_ + 1 x_95_ ^ 2 + 1 y_2_ ^ 2 - 2 y_95_ * y_2_ + 1 y_95_ ^ 2 ] <= 4706.6
quadratic_ranged_524_ub: [ 1 x_39_ ^ 2 - 2 x_95_ * x_39_ + 1 x_95_ ^ 2 + 1 y_39_ ^ 2 - 2 y_95_ * y_39_ + 1 y_95_ ^ 2 ] <= 12226.05
quadratic_ranged_525_ub: [ 1 x_61_ ^ 2 - 2 x_95_ * x_61_ + 1 x_95_ ^ 2 + 1 y_61_ ^ 2 - 2 y_95_ * y_61_ + 1 y_95_ ^ 2 ] <= 18868.82
quadratic_ranged_526_ub: [ 1 x_64_ ^ 2 - 2 x_95_ * x_64_ + 1 x_95_ ^ 2 + 1 y_64_ ^ 2 - 2 y_95_ * y_64_ + 1 y_95_ ^ 2 ] <= 23796.61
quadratic_ranged_527_ub: [ 1 x_94_ ^ 2 - 2 x_95_ * x_94_ + 1 x_95_ ^ 2 + 1 y_94_ ^ 2 - 2 y_95_ * y_94_ + 1 y_95_ ^ 2 ] <= 18359.78
quadratic_ranged_528_ub: [ 1 x_8_ ^ 2 - 2 x_96_ * x_8_ + 1 x_96_ ^ 2 + 1 y_8_ ^ 2 - 2 y_96_ * y_8_ + 1 y_96_ ^ 2 ] <= 14596.52
quadratic_ranged_529_ub: [ 1 x_14_ ^ 2 - 2 x_96_ * x_14_ + 1 x_96_ ^ 2 + 1 y_14_ ^ 2 - 2 y_96_ * y_14_ + 1 y_96_ ^ 2 ] <= 6885.17
quadratic_ranged_530_ub: [ 1 x_15_ ^ 2 - 2 x_96_ * x_15_ + 1 x_96_ ^ 2 + 1 y_15_ ^ 2 - 2 y_96_ * y_15_ + 1 y_96_ ^ 2 ] <= 1536.21
quadratic_ranged_531_ub: [ 1 x_23_ ^ 2 - 2 x_96_ * x_23_ + 1 x_96_ ^ 2 + 1 y_23_ ^ 2 - 2 y_96_ * y_23_ + 1 y_96_ ^ 2 ] <= 23957.2
quadratic_ranged_532_ub: [ 1 x_32_ ^ 2 - 2 x_96_ * x_32_ + 1 x_96_ ^ 2 + 1 y_32_ ^ 2 - 2 y_96_ * y_32_ + 1 y_96_ ^ 2 ] <= 26350.9
quadratic_ranged_533_ub: [ 1 x_45_ ^ 2 - 2 x_96_ * x_45_ + 1 x_96_ ^ 2 + 1 y_45_ ^ 2 - 2 y_96_ * y_45_ + 1 y_96_ ^ 2 ] <= 2650.2400000000002
quadratic_ranged_534_ub: [ 1 x_47_ ^ 2 - 2 x_96_ * x_47_ + 1 x_96_ ^ 2 + 1 y_47_ ^ 2 - 2 y_96_ * y_47_ + 1 y_96_ ^ 2 ] <= 2045.25
quadratic_ranged_535_ub: [ 1 x_48_ ^ 2 - 2 x_96_ * x_48_ + 1 x_96_ ^ 2 + 1 y_48_ ^ 2 - 2 y_96_ * y_48_ + 1 y_96_ ^ 2 ] <= 2554.29
quadratic_ranged_536_ub: [ 1 x_50_ ^ 2 - 2 x_96_ * x_50_ + 1 x_96_ ^ 2 + 1 y_50_ ^ 2 - 2 y_96_ * y_50_ + 1 y_96_ ^ 2 ] <= 18015.37
quadratic_ranged_537_ub: [ 1 x_59_ ^ 2 - 2 x_96_ * x_59_ + 1 x_96_ ^ 2 + 1 y_59_ ^ 2 - 2 y_96_ * y_59_ + 1 y_96_ ^ 2 ] <= 30671.68
quadratic_ranged_538_ub: [ 1 x_62_ ^ 2 - 2 x_96_ * x_62_ + 1 x_96_ ^ 2 + 1 y_62_ ^ 2 - 2 y_96_ * y_62_ + 1 y_96_ ^ 2 ] <= 4597.52
quadratic_ranged_539_ub: [ 1 x_72_ ^ 2 - 2 x_96_ * x_72_ + 1 x_96_ ^ 2 + 1 y_72_ ^ 2 - 2 y_96_ * y_72_ + 1 y_96_ ^ 2 ] <= 32000.84
quadratic_ranged_540_ub: [ 1 x_79_ ^ 2 - 2 x_96_ * x_79_ + 1 x_96_ ^ 2 + 1 y_79_ ^ 2 - 2 y_96_ * y_79_ + 1 y_96_ ^ 2 ] <= 37978.02
quadratic_ranged_541_ub: [ 1 x_83_ ^ 2 - 2 x_96_ * x_83_ + 1 x_96_ ^ 2 + 1 y_83_ ^ 2 - 2 y_96_ * y_83_ + 1 y_96_ ^ 2 ] <= 12930.02
quadratic_ranged_542_ub: [ 1 x_95_ ^ 2 - 2 x_96_ * x_95_ + 1 x_96_ ^ 2 + 1 y_95_ ^ 2 - 2 y_96_ * y_95_ + 1 y_96_ ^ 2 ] <= 656.5
quadratic_ranged_543_ub: [ 1 x_1_ ^ 2 - 2 x_97_ * x_1_ + 1 x_97_ ^ 2 + 1 y_1_ ^ 2 - 2 y_97_ * y_1_ + 1 y_97_ ^ 2 ] <= 27234.65
quadratic_ranged_544_ub: [ 1 x_14_ ^ 2 - 2 x_97_ * x_14_ + 1 x_97_ ^ 2 + 1 y_14_ ^ 2 - 2 y_97_ * y_14_ + 1 y_97_ ^ 2 ] <= 7039.7
quadratic_ranged_545_ub: [ 1 x_15_ ^ 2 - 2 x_97_ * x_15_ + 1 x_97_ ^ 2 + 1 y_15_ ^ 2 - 2 y_97_ * y_15_ + 1 y_97_ ^ 2 ] <= 1559.44
quadratic_ranged_546_ub: [ 1 x_17_ ^ 2 - 2 x_97_ * x_17_ + 1 x_97_ ^ 2 + 1 y_17_ ^ 2 - 2 y_97_ * y_17_ + 1 y_97_ ^ 2 ] <= 4481.37
quadratic_ranged_547_ub: [ 1 x_39_ ^ 2 - 2 x_97_ * x_39_ + 1 x_97_ ^ 2 + 1 y_39_ ^ 2 - 2 y_97_ * y_39_ + 1 y_97_ ^ 2 ] <= 3595.6
quadratic_ranged_548_ub: [ 1 x_58_ ^ 2 - 2 x_97_ * x_58_ + 1 x_97_ ^ 2 + 1 y_58_ ^ 2 - 2 y_97_ * y_58_ + 1 y_97_ ^ 2 ] <= 18051.73
quadratic_ranged_549_ub: [ 1 x_60_ ^ 2 - 2 x_97_ * x_60_ + 1 x_97_ ^ 2 + 1 y_60_ ^ 2 - 2 y_97_ * y_60_ + 1 y_97_ ^ 2 ] <= 24689.45
quadratic_ranged_550_ub: [ 1 x_63_ ^ 2 - 2 x_97_ * x_63_ + 1 x_97_ ^ 2 + 1 y_63_ ^ 2 - 2 y_97_ * y_63_ + 1 y_97_ ^ 2 ] <= 13939.01
quadratic_ranged_551_ub: [ 1 x_65_ ^ 2 - 2 x_97_ * x_65_ + 1 x_97_ ^ 2 + 1 y_65_ ^ 2 - 2 y_97_ * y_65_ + 1 y_97_ ^ 2 ] <= 3006.77
quadratic_ranged_552_ub: [ 1 x_73_ ^ 2 - 2 x_97_ * x_73_ + 1 x_97_ ^ 2 + 1 y_73_ ^ 2 - 2 y_97_ * y_73_ + 1 y_97_ ^ 2 ] <= 1006.97
quadratic_ranged_553_ub: [ 1 x_85_ ^ 2 - 2 x_97_ * x_85_ + 1 x_97_ ^ 2 + 1 y_85_ ^ 2 - 2 y_97_ * y_85_ + 1 y_97_ ^ 2 ] <= 6885.17
quadratic_ranged_554_ub: [ 1 x_94_ ^ 2 - 2 x_97_ * x_94_ + 1 x_97_ ^ 2 + 1 y_94_ ^ 2 - 2 y_97_ * y_94_ + 1 y_97_ ^ 2 ] <= 11761.45
quadratic_ranged_555_ub: [ 1 x_96_ ^ 2 - 2 x_97_ * x_96_ + 1 x_97_ ^ 2 + 1 y_96_ ^ 2 - 2 y_97_ * y_96_ + 1 y_97_ ^ 2 ] <= 635.29
quadratic_ranged_556_ub: [ 1 x_5_ ^ 2 - 2 x_98_ * x_5_ + 1 x_98_ ^ 2 + 1 y_5_ ^ 2 - 2 y_98_ * y_5_ + 1 y_98_ ^ 2 ] <= 24177.38
quadratic_ranged_557_ub: [ 1 x_14_ ^ 2 - 2 x_98_ * x_14_ + 1 x_98_ ^ 2 + 1 y_14_ ^ 2 - 2 y_98_ * y_14_ + 1 y_98_ ^ 2 ] <= 18427.45
quadratic_ranged_558_ub: [ 1 x_50_ ^ 2 - 2 x_98_ * x_50_ + 1 x_98_ ^ 2 + 1 y_50_ ^ 2 - 2 y_98_ * y_50_ + 1 y_98_ ^ 2 ] <= 546.41
quadratic_ranged_559_ub: [ 1 x_51_ ^ 2 - 2 x_98_ * x_51_ + 1 x_98_ ^ 2 + 1 y_51_ ^ 2 - 2 y_98_ * y_51_ + 1 y_98_ ^ 2 ] <= 23215.86
quadratic_ranged_560_ub: [ 1 x_61_ ^ 2 - 2 x_98_ * x_61_ + 1 x_98_ ^ 2 + 1 y_61_ ^ 2 - 2 y_98_ * y_61_ + 1 y_98_ ^ 2 ] <= 32643.2
quadratic_ranged_561_ub: [ 1 x_65_ ^ 2 - 2 x_98_ * x_65_ + 1 x_98_ ^ 2 + 1 y_65_ ^ 2 - 2 y_98_ * y_65_ + 1 y_98_ ^ 2 ] <= 7766.9
quadratic_ranged_562_ub: [ 1 x_70_ ^ 2 - 2 x_98_ * x_70_ + 1 x_98_ ^ 2 + 1 y_70_ ^ 2 - 2 y_98_ * y_70_ + 1 y_98_ ^ 2 ] <= 24184.45
quadratic_ranged_563_ub: [ 1 x_88_ ^ 2 - 2 x_98_ * x_88_ + 1 x_98_ ^ 2 + 1 y_88_ ^ 2 - 2 y_98_ * y_88_ + 1 y_98_ ^ 2 ] <= 41410
quadratic_ranged_564_ub: [ 1 x_89_ ^ 2 - 2 x_98_ * x_89_ + 1 x_98_ ^ 2 + 1 y_89_ ^ 2 - 2 y_98_ * y_89_ + 1 y_98_ ^ 2 ] <= 13478.45
quadratic_ranged_565_ub: [ 1 x_97_ ^ 2 - 2 x_98_ * x_97_ + 1 x_98_ ^ 2 + 1 y_97_ ^ 2 - 2 y_98_ * y_97_ + 1 y_98_ ^ 2 ] <= 7495.21
quadratic_ranged_566_ub: [ 1 x_7_ ^ 2 - 2 x_99_ * x_7_ + 1 x_99_ ^ 2 + 1 y_7_ ^ 2 - 2 y_99_ * y_7_ + 1 y_99_ ^ 2 ] <= 38049.73
quadratic_ranged_567_ub: [ 1 x_14_ ^ 2 - 2 x_99_ * x_14_ + 1 x_99_ ^ 2 + 1 y_14_ ^ 2 - 2 y_99_ * y_14_ + 1 y_99_ ^ 2 ] <= 22189.7
quadratic_ranged_568_ub: [ 1 x_17_ ^ 2 - 2 x_99_ * x_17_ + 1 x_99_ ^ 2 + 1 y_17_ ^ 2 - 2 y_99_ * y_17_ + 1 y_99_ ^ 2 ] <= 42655.33
quadratic_ranged_569_ub: [ 1 x_36_ ^ 2 - 2 x_99_ * x_36_ + 1 x_99_ ^ 2 + 1 y_36_ ^ 2 - 2 y_99_ * y_36_ + 1 y_99_ ^ 2 ] <= 43475.45
quadratic_ranged_570_ub: [ 1 x_51_ ^ 2 - 2 x_99_ * x_51_ + 1 x_99_ ^ 2 + 1 y_51_ ^ 2 - 2 y_99_ * y_51_ + 1 y_99_ ^ 2 ] <= 14064.25
quadratic_ranged_571_ub: [ 1 x_59_ ^ 2 - 2 x_99_ * x_59_ + 1 x_99_ ^ 2 + 1 y_59_ ^ 2 - 2 y_99_ * y_59_ + 1 y_99_ ^ 2 ] <= 914.05
quadratic_ranged_572_ub: [ 1 x_70_ ^ 2 - 2 x_99_ * x_70_ + 1 x_99_ ^ 2 + 1 y_70_ ^ 2 - 2 y_99_ * y_70_ + 1 y_99_ ^ 2 ] <= 662.5600000000001
quadratic_ranged_573_ub: [ 1 x_74_ ^ 2 - 2 x_99_ * x_74_ + 1 x_99_ ^ 2 + 1 y_74_ ^ 2 - 2 y_99_ * y_74_ + 1 y_99_ ^ 2 ] <= 13917.8
quadratic_ranged_574_ub: [ 1 x_85_ ^ 2 - 2 x_99_ * x_85_ + 1 x_99_ ^ 2 + 1 y_85_ ^ 2 - 2 y_99_ * y_85_ + 1 y_99_ ^ 2 ] <= 12755.29
quadratic_ranged_575_ub: [ 1 x_98_ ^ 2 - 2 x_99_ * x_98_ + 1 x_99_ ^ 2 + 1 y_98_ ^ 2 - 2 y_99_ * y_98_ + 1 y_99_ ^ 2 ] <= 21105.97
quadratic_ranged_576_ub: [ 1 x_1_ ^ 2 - 2 x_100_ * x_1_ + 1 x_100_ ^ 2 + 1 y_1_ ^ 2 - 2 y_100_ * y_1_ + 1 y_100_ ^ 2 ] <= 33819.85
quadratic_ranged_577_ub: [ 1 x_2_ ^ 2 - 2 x_100_ * x_2_ + 1 x_100_ ^ 2 + 1 y_2_ ^ 2 - 2 y_100_ * y_2_ + 1 y_100_ ^ 2 ] <= 32482.61
quadratic_ranged_578_ub: [ 1 x_3_ ^ 2 - 2 x_100_ * x_3_ + 1 x_100_ ^ 2 + 1 y_3_ ^ 2 - 2 y_100_ * y_3_ + 1 y_100_ ^ 2 ] <= 20816.1
quadratic_ranged_579_ub: [ 1 x_23_ ^ 2 - 2 x_100_ * x_23_ + 1 x_100_ ^ 2 + 1 y_23_ ^ 2 - 2 y_100_ * y_23_ + 1 y_100_ ^ 2 ] <= 18423.41
quadratic_ranged_580_ub: [ 1 x_37_ ^ 2 - 2 x_100_ * x_37_ + 1 x_100_ ^ 2 + 1 y_37_ ^ 2 - 2 y_100_ * y_37_ + 1 y_100_ ^ 2 ] <= 14666.210000000001
quadratic_ranged_581_ub: [ 1 x_38_ ^ 2 - 2 x_100_ * x_38_ + 1 x_100_ ^ 2 + 1 y_38_ ^ 2 - 2 y_100_ * y_38_ + 1 y_100_ ^ 2 ] <= 1386.73
quadratic_ranged_582_ub: [ 1 x_44_ ^ 2 - 2 x_100_ * x_44_ + 1 x_100_ ^ 2 + 1 y_44_ ^ 2 - 2 y_100_ * y_44_ + 1 y_100_ ^ 2 ] <= 2307.85
quadratic_ranged_583_ub: [ 1 x_59_ ^ 2 - 2 x_100_ * x_59_ + 1 x_100_ ^ 2 + 1 y_59_ ^ 2 - 2 y_100_ * y_59_ + 1 y_100_ ^ 2 ] <= 1701.85
quadratic_ranged_584_ub: [ 1 x_92_ ^ 2 - 2 x_100_ * x_92_ + 1 x_100_ ^ 2 + 1 y_92_ ^ 2 - 2 y_100_ * y_92_ + 1 y_100_ ^ 2 ] <= 727.2
quadratic_ranged_585_ub: [ 1 x_99_ ^ 2 - 2 x_100_ * x_99_ + 1 x_100_ ^ 2 + 1 y_99_ ^ 2 - 2 y_100_ * y_99_ + 1 y_100_ ^ 2 ] <= 252.5
c1_2: 1 x_29_ >= 0
c2_2: 1 y_29_ >= 0
quadratic_ranged_1_lb: [ 1 x_1_ ^ 2 - 2 x_2_ * x_1_ + 1 x_2_ ^ 2 + 1 y_1_ ^ 2 - 2 y_2_ * y_1_ + 1 y_2_ ^ 2 ] >= 6345.9
quadratic_ranged_2_lb: [ 1 x_2_ ^ 2 - 2 x_3_ * x_2_ + 1 x_3_ ^ 2 + 1 y_2_ ^ 2 - 2 y_3_ * y_2_ + 1 y_3_ ^ 2 ] >= 8269.47
quadratic_ranged_3_lb: [ 1 x_3_ ^ 2 - 2 x_4_ * x_3_ + 1 x_4_ ^ 2 + 1 y_3_ ^ 2 - 2 y_4_ * y_3_ + 1 y_4_ ^ 2 ] >= 13413.51
quadratic_ranged_4_lb: [ 1 x_3_ ^ 2 - 2 x_5_ * x_3_ + 1 x_5_ ^ 2 + 1 y_3_ ^ 2 - 2 y_5_ * y_3_ + 1 y_5_ ^ 2 ] >= 6546.87
quadratic_ranged_5_lb: [ 1 x_4_ ^ 2 - 2 x_5_ * x_4_ + 1 x_5_ ^ 2 + 1 y_4_ ^ 2 - 2 y_5_ * y_4_ + 1 y_5_ ^ 2 ] >= 17503.2
quadratic_ranged_6_lb: [ 1 x_5_ ^ 2 - 2 x_6_ * x_5_ + 1 x_6_ ^ 2 + 1 y_5_ ^ 2 - 2 y_6_ * y_5_ + 1 y_6_ ^ 2 ] >= 22764.06
quadratic_ranged_7_lb: [ 1 x_6_ ^ 2 - 2 x_7_ * x_6_ + 1 x_7_ ^ 2 + 1 y_6_ ^ 2 - 2 y_7_ * y_6_ + 1 y_7_ ^ 2 ] >= 7052.76
quadratic_ranged_8_lb: [ 1 x_4_ ^ 2 - 2 x_8_ * x_4_ + 1 x_8_ ^ 2 + 1 y_4_ ^ 2 - 2 y_8_ * y_4_ + 1 y_8_ ^ 2 ] >= 10440.539999999999
quadratic_ranged_9_lb: [ 1 x_6_ ^ 2 - 2 x_8_ * x_6_ + 1 x_8_ ^ 2 + 1 y_6_ ^ 2 - 2 y_8_ * y_6_ + 1 y_8_ ^ 2 ] >= 11040.48
quadratic_ranged_10_lb: [ 1 x_7_ ^ 2 - 2 x_8_ * x_7_ + 1 x_8_ ^ 2 + 1 y_7_ ^ 2 - 2 y_8_ * y_7_ + 1 y_8_ ^ 2 ] >= 13119.48
quadratic_ranged_11_lb: [ 1 x_2_ ^ 2 - 2 x_9_ * x_2_ + 1 x_9_ ^ 2 + 1 y_2_ ^ 2 - 2 y_9_ * y_2_ + 1 y_9_ ^ 2 ] >= 4231.26
quadratic_ranged_12_lb: [ 1 x_8_ ^ 2 - 2 x_9_ * x_8_ + 1 x_9_ ^ 2 + 1 y_8_ ^ 2 - 2 y_9_ * y_8_ + 1 y_9_ ^ 2 ] >= 18136.8
quadratic_ranged_13_lb: [ 1 x_2_ ^ 2 - 2 x_10_ * x_2_ + 1 x_10_ ^ 2 + 1 y_2_ ^ 2 - 2 y_10_ * y_2_ + 1 y_10_ ^ 2 ] >= 20280.15
quadratic_ranged_14_lb: [ 1 x_9_ ^ 2 - 2 x_10_ * x_9_ + 1 x_10_ ^ 2 + 1 y_9_ ^ 2 - 2 y_10_ * y_9_ + 1 y_10_ ^ 2 ] >= 25721.19
quadratic_ranged_15_lb: [ 1 x_2_ ^ 2 - 2 x_11_ * x_2_ + 1 x_11_ ^ 2 + 1 y_2_ ^ 2 - 2 y_11_ * y_2_ + 1 y_11_ ^ 2 ] >= 4455
quadratic_ranged_16_lb: [ 1 x_5_ ^ 2 - 2 x_11_ * x_5_ + 1 x_11_ ^ 2 + 1 y_5_ ^ 2 - 2 y_11_ * y_5_ + 1 y_11_ ^ 2 ] >= 7302.24
quadratic_ranged_17_lb: [ 1 x_7_ ^ 2 - 2 x_11_ * x_7_ + 1 x_11_ ^ 2 + 1 y_7_ ^ 2 - 2 y_11_ * y_7_ + 1 y_11_ ^ 2 ] >= 5617.26
quadratic_ranged_18_lb: [ 1 x_10_ ^ 2 - 2 x_11_ * x_10_ + 1 x_11_ ^ 2 + 1 y_10_ ^ 2 - 2 y_11_ * y_10_ + 1 y_11_ ^ 2 ] >= 5905.35
quadratic_ranged_19_lb: [ 1 x_11_ ^ 2 - 2 x_12_ * x_11_ + 1 x_12_ ^ 2 + 1 y_11_ ^ 2 - 2 y_12_ * y_11_ + 1 y_12_ ^ 2 ] >= 7707.15
quadratic_ranged_20_lb: [ 1 x_4_ ^ 2 - 2 x_13_ * x_4_ + 1 x_13_ ^ 2 + 1 y_4_ ^ 2 - 2 y_13_ * y_4_ + 1 y_13_ ^ 2 ] >= 3077.91
quadratic_ranged_21_lb: [ 1 x_12_ ^ 2 - 2 x_13_ * x_12_ + 1 x_13_ ^ 2 + 1 y_12_ ^ 2 - 2 y_13_ * y_12_ + 1 y_13_ ^ 2 ] >= 437.58
quadratic_ranged_22_lb: [ 1 x_13_ ^ 2 - 2 x_14_ * x_13_ + 1 x_14_ ^ 2 + 1 y_13_ ^ 2 - 2 y_14_ * y_13_ + 1 y_14_ ^ 2 ] >= 6844.86
quadratic_ranged_23_lb: [ 1 x_3_ ^ 2 - 2 x_15_ * x_3_ + 1 x_15_ ^ 2 + 1 y_3_ ^ 2 - 2 y_15_ * y_3_ + 1 y_15_ ^ 2 ] >= 15257.88
quadratic_ranged_24_lb: [ 1 x_14_ ^ 2 - 2 x_15_ * x_14_ + 1 x_15_ ^ 2 + 1 y_14_ ^ 2 - 2 y_15_ * y_14_ + 1 y_15_ ^ 2 ] >= 2005.74
quadratic_ranged_25_lb: [ 1 x_15_ ^ 2 - 2 x_16_ * x_15_ + 1 x_16_ ^ 2 + 1 y_15_ ^ 2 - 2 y_16_ * y_15_ + 1 y_16_ ^ 2 ] >= 10424.7
quadratic_ranged_26_lb: [ 1 x_2_ ^ 2 - 2 x_17_ * x_2_ + 1 x_17_ ^ 2 + 1 y_2_ ^ 2 - 2 y_17_ * y_2_ + 1 y_17_ ^ 2 ] >= 1382.04
quadratic_ranged_27_lb: [ 1 x_16_ ^ 2 - 2 x_17_ * x_16_ + 1 x_17_ ^ 2 + 1 y_16_ ^ 2 - 2 y_17_ * y_16_ + 1 y_17_ ^ 2 ] >= 21020.67
quadratic_ranged_28_lb: [ 1 x_13_ ^ 2 - 2 x_18_ * x_13_ + 1 x_18_ ^ 2 + 1 y_13_ ^ 2 - 2 y_18_ * y_13_ + 1 y_18_ ^ 2 ] >= 27189.36
quadratic_ranged_29_lb: [ 1 x_17_ ^ 2 - 2 x_18_ * x_17_ + 1 x_18_ ^ 2 + 1 y_17_ ^ 2 - 2 y_18_ * y_17_ + 1 y_18_ ^ 2 ] >= 14019.39
quadratic_ranged_30_lb: [ 1 x_17_ ^ 2 - 2 x_19_ * x_17_ + 1 x_19_ ^ 2 + 1 y_17_ ^ 2 - 2 y_19_ * y_17_ + 1 y_19_ ^ 2 ] >= 36402.3
quadratic_ranged_31_lb: [ 1 x_18_ ^ 2 - 2 x_19_ * x_18_ + 1 x_19_ ^ 2 + 1 y_18_ ^ 2 - 2 y_19_ * y_18_ + 1 y_19_ ^ 2 ] >= 46416.15
quadratic_ranged_32_lb: [ 1 x_19_ ^ 2 - 2 x_20_ * x_19_ + 1 x_20_ ^ 2 + 1 y_19_ ^ 2 - 2 y_20_ * y_19_ + 1 y_20_ ^ 2 ] >= 9647.55
quadratic_ranged_33_lb: [ 1 x_4_ ^ 2 - 2 x_21_ * x_4_ + 1 x_21_ ^ 2 + 1 y_4_ ^ 2 - 2 y_21_ * y_4_ + 1 y_21_ ^ 2 ] >= 2344.32
quadratic_ranged_34_lb: [ 1 x_11_ ^ 2 - 2 x_21_ * x_11_ + 1 x_21_ ^ 2 + 1 y_11_ ^ 2 - 2 y_21_ * y_11_ + 1 y_21_ ^ 2 ] >= 6336
quadratic_ranged_35_lb: [ 1 x_12_ ^ 2 - 2 x_21_ * x_12_ + 1 x_21_ ^ 2 + 1 y_12_ ^ 2 - 2 y_21_ * y_12_ + 1 y_21_ ^ 2 ] >= 832.59
quadratic_ranged_36_lb: [ 1 x_20_ ^ 2 - 2 x_21_ * x_20_ + 1 x_21_ ^ 2 + 1 y_20_ ^ 2 - 2 y_21_ * y_20_ + 1 y_21_ ^ 2 ] >= 42578.909999999996
quadratic_ranged_37_lb: [ 1 x_4_ ^ 2 - 2 x_22_ * x_4_ + 1 x_22_ ^ 2 + 1 y_4_ ^ 2 - 2 y_22_ * y_4_ + 1 y_22_ ^ 2 ] >= 18141.75
quadratic_ranged_38_lb: [ 1 x_5_ ^ 2 - 2 x_22_ * x_5_ + 1 x_22_ ^ 2 + 1 y_5_ ^ 2 - 2 y_22_ * y_5_ + 1 y_22_ ^ 2 ] >= 27273.51
quadratic_ranged_39_lb: [ 1 x_18_ ^ 2 - 2 x_22_ * x_18_ + 1 x_22_ ^ 2 + 1 y_18_ ^ 2 - 2 y_22_ * y_18_ + 1 y_22_ ^ 2 ] >= 51293.88
quadratic_ranged_40_lb: [ 1 x_21_ ^ 2 - 2 x_22_ * x_21_ + 1 x_22_ ^ 2 + 1 y_21_ ^ 2 - 2 y_22_ * y_21_ + 1 y_22_ ^ 2 ] >= 11742.39
quadratic_ranged_41_lb: [ 1 x_8_ ^ 2 - 2 x_23_ * x_8_ + 1 x_23_ ^ 2 + 1 y_8_ ^ 2 - 2 y_23_ * y_8_ + 1 y_23_ ^ 2 ] >= 11899.8
quadratic_ranged_42_lb: [ 1 x_14_ ^ 2 - 2 x_23_ * x_14_ + 1 x_23_ ^ 2 + 1 y_14_ ^ 2 - 2 y_23_ * y_14_ + 1 y_23_ ^ 2 ] >= 25673.67
quadratic_ranged_43_lb: [ 1 x_22_ ^ 2 - 2 x_23_ * x_22_ + 1 x_23_ ^ 2 + 1 y_22_ ^ 2 - 2 y_23_ * y_22_ + 1 y_23_ ^ 2 ] >= 3046.23
quadratic_ranged_44_lb: [ 1 x_6_ ^ 2 - 2 x_24_ * x_6_ + 1 x_24_ ^ 2 + 1 y_6_ ^ 2 - 2 y_24_ * y_6_ + 1 y_24_ ^ 2 ] >= 16490.43
quadratic_ranged_45_lb: [ 1 x_15_ ^ 2 - 2 x_24_ * x_15_ + 1 x_24_ ^ 2 + 1 y_15_ ^ 2 - 2 y_24_ * y_15_ + 1 y_24_ ^ 2 ] >= 8571.42
quadratic_ranged_46_lb: [ 1 x_17_ ^ 2 - 2 x_24_ * x_17_ + 1 x_24_ ^ 2 + 1 y_17_ ^ 2 - 2 y_24_ * y_17_ + 1 y_24_ ^ 2 ] >= 10566.27
quadratic_ranged_47_lb: [ 1 x_23_ ^ 2 - 2 x_24_ * x_23_ + 1 x_24_ ^ 2 + 1 y_23_ ^ 2 - 2 y_24_ * y_23_ + 1 y_24_ ^ 2 ] >= 35300.43
quadratic_ranged_48_lb: [ 1 x_10_ ^ 2 - 2 x_25_ * x_10_ + 1 x_25_ ^ 2 + 1 y_10_ ^ 2 - 2 y_25_ * y_10_ + 1 y_25_ ^ 2 ] >= 5456.88
quadratic_ranged_49_lb: [ 1 x_24_ ^ 2 - 2 x_25_ * x_24_ + 1 x_25_ ^ 2 + 1 y_24_ ^ 2 - 2 y_25_ * y_24_ + 1 y_25_ ^ 2 ] >= 5148
quadratic_ranged_50_lb: [ 1 x_20_ ^ 2 - 2 x_26_ * x_20_ + 1 x_26_ ^ 2 + 1 y_20_ ^ 2 - 2 y_26_ * y_20_ + 1 y_26_ ^ 2 ] >= 17204.22
quadratic_ranged_51_lb: [ 1 x_25_ ^ 2 - 2 x_26_ * x_25_ + 1 x_26_ ^ 2 + 1 y_25_ ^ 2 - 2 y_26_ * y_25_ + 1 y_26_ ^ 2 ] >= 6894.36
quadratic_ranged_52_lb: [ 1 x_6_ ^ 2 - 2 x_27_ * x_6_ + 1 x_27_ ^ 2 + 1 y_6_ ^ 2 - 2 y_27_ * y_6_ + 1 y_27_ ^ 2 ] >= 14242.14
quadratic_ranged_53_lb: [ 1 x_9_ ^ 2 - 2 x_27_ * x_9_ + 1 x_27_ ^ 2 + 1 y_9_ ^ 2 - 2 y_27_ * y_9_ + 1 y_27_ ^ 2 ] >= 28133.82
quadratic_ranged_54_lb: [ 1 x_18_ ^ 2 - 2 x_27_ * x_18_ + 1 x_27_ ^ 2 + 1 y_18_ ^ 2 - 2 y_27_ * y_18_ + 1 y_27_ ^ 2 ] >= 57559.59
quadratic_ranged_55_lb: [ 1 x_26_ ^ 2 - 2 x_27_ * x_26_ + 1 x_27_ ^ 2 + 1 y_26_ ^ 2 - 2 y_27_ * y_26_ + 1 y_27_ ^ 2 ] >= 19428.75
quadratic_ranged_56_lb: [ 1 x_9_ ^ 2 - 2 x_28_ * x_9_ + 1 x_28_ ^ 2 + 1 y_9_ ^ 2 - 2 y_28_ * y_9_ + 1 y_28_ ^ 2 ] >= 29285.19
quadratic_ranged_57_lb: [ 1 x_18_ ^ 2 - 2 x_28_ * x_18_ + 1 x_28_ ^ 2 + 1 y_18_ ^ 2 - 2 y_28_ * y_18_ + 1 y_28_ ^ 2 ] >= 65151.9
quadratic_ranged_58_lb: [ 1 x_27_ ^ 2 - 2 x_28_ * x_27_ + 1 x_28_ ^ 2 + 1 y_27_ ^ 2 - 2 y_28_ * y_27_ + 1 y_28_ ^ 2 ] >= 480.15
quadratic_ranged_59_lb: [ 1 x_28_ ^ 2 - 2 x_29_ * x_28_ + 1 x_29_ ^ 2 + 1 y_28_ ^ 2 - 2 y_29_ * y_28_ + 1 y_29_ ^ 2 ] >= 32410.62
quadratic_ranged_60_lb: [ 1 x_7_ ^ 2 - 2 x_30_ * x_7_ + 1 x_30_ ^ 2 + 1 y_7_ ^ 2 - 2 y_30_ * y_7_ + 1 y_30_ ^ 2 ] >= 28980.27
quadratic_ranged_61_lb: [ 1 x_29_ ^ 2 - 2 x_30_ * x_29_ + 1 x_30_ ^ 2 + 1 y_29_ ^ 2 - 2 y_30_ * y_29_ + 1 y_30_ ^ 2 ] >= 20057.4
quadratic_ranged_62_lb: [ 1 x_15_ ^ 2 - 2 x_31_ * x_15_ + 1 x_31_ ^ 2 + 1 y_15_ ^ 2 - 2 y_31_ * y_15_ + 1 y_31_ ^ 2 ] >= 7818.03
quadratic_ranged_63_lb: [ 1 x_30_ ^ 2 - 2 x_31_ * x_30_ + 1 x_31_ ^ 2 + 1 y_30_ ^ 2 - 2 y_31_ * y_30_ + 1 y_31_ ^ 2 ] >= 34500.51
quadratic_ranged_64_lb: [ 1 x_10_ ^ 2 - 2 x_32_ * x_10_ + 1 x_32_ ^ 2 + 1 y_10_ ^ 2 - 2 y_32_ * y_10_ + 1 y_32_ ^ 2 ] >= 3172.95
quadratic_ranged_65_lb: [ 1 x_31_ ^ 2 - 2 x_32_ * x_31_ + 1 x_32_ ^ 2 + 1 y_31_ ^ 2 - 2 y_32_ * y_31_ + 1 y_32_ ^ 2 ] >= 14495.58
quadratic_ranged_66_lb: [ 1 x_8_ ^ 2 - 2 x_33_ * x_8_ + 1 x_33_ ^ 2 + 1 y_8_ ^ 2 - 2 y_33_ * y_8_ + 1 y_33_ ^ 2 ] >= 14617.35
quadratic_ranged_67_lb: [ 1 x_32_ ^ 2 - 2 x_33_ * x_32_ + 1 x_33_ ^ 2 + 1 y_32_ ^ 2 - 2 y_33_ * y_32_ + 1 y_33_ ^ 2 ] >= 23440.23
quadratic_ranged_68_lb: [ 1 x_5_ ^ 2 - 2 x_34_ * x_5_ + 1 x_34_ ^ 2 + 1 y_5_ ^ 2 - 2 y_34_ * y_5_ + 1 y_34_ ^ 2 ] >= 9560.43
quadratic_ranged_69_lb: [ 1 x_7_ ^ 2 - 2 x_34_ * x_7_ + 1 x_34_ ^ 2 + 1 y_7_ ^ 2 - 2 y_34_ * y_7_ + 1 y_34_ ^ 2 ] >= 2638.35
quadratic_ranged_70_lb: [ 1 x_11_ ^ 2 - 2 x_34_ * x_11_ + 1 x_34_ ^ 2 + 1 y_11_ ^ 2 - 2 y_34_ * y_11_ + 1 y_34_ ^ 2 ] >= 6099.39
quadratic_ranged_71_lb: [ 1 x_17_ ^ 2 - 2 x_34_ * x_17_ + 1 x_34_ ^ 2 + 1 y_17_ ^ 2 - 2 y_34_ * y_17_ + 1 y_34_ ^ 2 ] >= 6574.59
quadratic_ranged_72_lb: [ 1 x_27_ ^ 2 - 2 x_34_ * x_27_ + 1 x_34_ ^ 2 + 1 y_27_ ^ 2 - 2 y_34_ * y_27_ + 1 y_34_ ^ 2 ] >= 39264.39
quadratic_ranged_73_lb: [ 1 x_33_ ^ 2 - 2 x_34_ * x_33_ + 1 x_34_ ^ 2 + 1 y_33_ ^ 2 - 2 y_34_ * y_33_ + 1 y_34_ ^ 2 ] >= 4207.5
quadratic_ranged_74_lb: [ 1 x_5_ ^ 2 - 2 x_35_ * x_5_ + 1 x_35_ ^ 2 + 1 y_5_ ^ 2 - 2 y_35_ * y_5_ + 1 y_35_ ^ 2 ] >= 195.03
quadratic_ranged_75_lb: [ 1 x_10_ ^ 2 - 2 x_35_ * x_10_ + 1 x_35_ ^ 2 + 1 y_10_ ^ 2 - 2 y_35_ * y_10_ + 1 y_35_ ^ 2 ] >= 7288.38
quadratic_ranged_76_lb: [ 1 x_34_ ^ 2 - 2 x_35_ * x_34_ + 1 x_35_ ^ 2 + 1 y_34_ ^ 2 - 2 y_35_ * y_34_ + 1 y_35_ ^ 2 ] >= 7052.76
quadratic_ranged_77_lb: [ 1 x_1_ ^ 2 - 2 x_36_ * x_1_ + 1 x_36_ ^ 2 + 1 y_1_ ^ 2 - 2 y_36_ * y_1_ + 1 y_36_ ^ 2 ] >= 21100.86
quadratic_ranged_78_lb: [ 1 x_2_ ^ 2 - 2 x_36_ * x_2_ + 1 x_36_ ^ 2 + 1 y_2_ ^ 2 - 2 y_36_ * y_2_ + 1 y_36_ ^ 2 ] >= 4328.28
quadratic_ranged_79_lb: [ 1 x_4_ ^ 2 - 2 x_36_ * x_4_ + 1 x_36_ ^ 2 + 1 y_4_ ^ 2 - 2 y_36_ * y_4_ + 1 y_36_ ^ 2 ] >= 1465.2
quadratic_ranged_80_lb: [ 1 x_7_ ^ 2 - 2 x_36_ * x_7_ + 1 x_36_ ^ 2 + 1 y_7_ ^ 2 - 2 y_36_ * y_7_ + 1 y_36_ ^ 2 ] >= 3851.1
quadratic_ranged_81_lb: [ 1 x_10_ ^ 2 - 2 x_36_ * x_10_ + 1 x_36_ ^ 2 + 1 y_10_ ^ 2 - 2 y_36_ * y_10_ + 1 y_36_ ^ 2 ] >= 22691.79
quadratic_ranged_82_lb: [ 1 x_25_ ^ 2 - 2 x_36_ * x_25_ + 1 x_36_ ^ 2 + 1 y_25_ ^ 2 - 2 y_36_ * y_25_ + 1 y_36_ ^ 2 ] >= 26631.989999999998
quadratic_ranged_83_lb: [ 1 x_35_ ^ 2 - 2 x_36_ * x_35_ + 1 x_36_ ^ 2 + 1 y_35_ ^ 2 - 2 y_36_ * y_35_ + 1 y_36_ ^ 2 ] >= 24141.15
quadratic_ranged_84_lb: [ 1 x_5_ ^ 2 - 2 x_37_ * x_5_ + 1 x_37_ ^ 2 + 1 y_5_ ^ 2 - 2 y_37_ * y_5_ + 1 y_37_ ^ 2 ] >= 3265.02
quadratic_ranged_85_lb: [ 1 x_33_ ^ 2 - 2 x_37_ * x_33_ + 1 x_37_ ^ 2 + 1 y_33_ ^ 2 - 2 y_37_ * y_33_ + 1 y_37_ ^ 2 ] >= 11647.35
quadratic_ranged_86_lb: [ 1 x_36_ ^ 2 - 2 x_37_ * x_36_ + 1 x_37_ ^ 2 + 1 y_36_ ^ 2 - 2 y_37_ * y_36_ + 1 y_37_ ^ 2 ] >= 20586.06
quadratic_ranged_87_lb: [ 1 x_18_ ^ 2 - 2 x_38_ * x_18_ + 1 x_38_ ^ 2 + 1 y_18_ ^ 2 - 2 y_38_ * y_18_ + 1 y_38_ ^ 2 ] >= 34579.71
quadratic_ranged_88_lb: [ 1 x_23_ ^ 2 - 2 x_38_ * x_23_ + 1 x_38_ ^ 2 + 1 y_23_ ^ 2 - 2 y_38_ * y_23_ + 1 y_38_ ^ 2 ] >= 9543.6
quadratic_ranged_89_lb: [ 1 x_24_ ^ 2 - 2 x_38_ * x_24_ + 1 x_38_ ^ 2 + 1 y_24_ ^ 2 - 2 y_38_ * y_24_ + 1 y_38_ ^ 2 ] >= 17809.11
quadratic_ranged_90_lb: [ 1 x_37_ ^ 2 - 2 x_38_ * x_37_ + 1 x_38_ ^ 2 + 1 y_37_ ^ 2 - 2 y_38_ * y_37_ + 1 y_38_ ^ 2 ] >= 16065.72
quadratic_ranged_91_lb: [ 1 x_20_ ^ 2 - 2 x_39_ * x_20_ + 1 x_39_ ^ 2 + 1 y_20_ ^ 2 - 2 y_39_ * y_20_ + 1 y_39_ ^ 2 ] >= 30385.079999999998
quadratic_ranged_92_lb: [ 1 x_38_ ^ 2 - 2 x_39_ * x_38_ + 1 x_39_ ^ 2 + 1 y_38_ ^ 2 - 2 y_39_ * y_38_ + 1 y_39_ ^ 2 ] >= 16601.31
quadratic_ranged_93_lb: [ 1 x_5_ ^ 2 - 2 x_40_ * x_5_ + 1 x_40_ ^ 2 + 1 y_5_ ^ 2 - 2 y_40_ * y_5_ + 1 y_40_ ^ 2 ] >= 17093.34
quadratic_ranged_94_lb: [ 1 x_23_ ^ 2 - 2 x_40_ * x_23_ + 1 x_40_ ^ 2 + 1 y_23_ ^ 2 - 2 y_40_ * y_23_ + 1 y_40_ ^ 2 ] >= 1845.36
quadratic_ranged_95_lb: [ 1 x_39_ ^ 2 - 2 x_40_ * x_39_ + 1 x_40_ ^ 2 + 1 y_39_ ^ 2 - 2 y_40_ * y_39_ + 1 y_40_ ^ 2 ] >= 1402.83
quadratic_ranged_96_lb: [ 1 x_13_ ^ 2 - 2 x_41_ * x_13_ + 1 x_41_ ^ 2 + 1 y_13_ ^ 2 - 2 y_41_ * y_13_ + 1 y_41_ ^ 2 ] >= 209.88
quadratic_ranged_97_lb: [ 1 x_16_ ^ 2 - 2 x_41_ * x_16_ + 1 x_41_ ^ 2 + 1 y_16_ ^ 2 - 2 y_41_ * y_16_ + 1 y_41_ ^ 2 ] >= 8460.539999999999
quadratic_ranged_98_lb: [ 1 x_18_ ^ 2 - 2 x_41_ * x_18_ + 1 x_41_ ^ 2 + 1 y_18_ ^ 2 - 2 y_41_ * y_18_ + 1 y_41_ ^ 2 ] >= 32175
quadratic_ranged_99_lb: [ 1 x_25_ ^ 2 - 2 x_41_ * x_25_ + 1 x_41_ ^ 2 + 1 y_25_ ^ 2 - 2 y_41_ * y_25_ + 1 y_41_ ^ 2 ] >= 26161.739999999998
quadratic_ranged_100_lb: [ 1 x_28_ ^ 2 - 2 x_41_ * x_28_ + 1 x_41_ ^ 2 + 1 y_28_ ^ 2 - 2 y_41_ * y_28_ + 1 y_41_ ^ 2 ] >= 13529.34
quadratic_ranged_101_lb: [ 1 x_37_ ^ 2 - 2 x_41_ * x_37_ + 1 x_41_ ^ 2 + 1 y_37_ ^ 2 - 2 y_41_ * y_37_ + 1 y_41_ ^ 2 ] >= 25368.75
quadratic_ranged_102_lb: [ 1 x_40_ ^ 2 - 2 x_41_ * x_40_ + 1 x_41_ ^ 2 + 1 y_40_ ^ 2 - 2 y_41_ * y_40_ + 1 y_41_ ^ 2 ] >= 8063.55
quadratic_ranged_103_lb: [ 1 x_3_ ^ 2 - 2 x_42_ * x_3_ + 1 x_42_ ^ 2 + 1 y_3_ ^ 2 - 2 y_42_ * y_3_ + 1 y_42_ ^ 2 ] >= 12555.18
quadratic_ranged_104_lb: [ 1 x_4_ ^ 2 - 2 x_42_ * x_4_ + 1 x_42_ ^ 2 + 1 y_4_ ^ 2 - 2 y_42_ * y_4_ + 1 y_42_ ^ 2 ] >= 16.83
quadratic_ranged_105_lb: [ 1 x_7_ ^ 2 - 2 x_42_ * x_7_ + 1 x_42_ ^ 2 + 1 y_7_ ^ 2 - 2 y_42_ * y_7_ + 1 y_42_ ^ 2 ] >= 678.15
quadratic_ranged_106_lb: [ 1 x_11_ ^ 2 - 2 x_42_ * x_11_ + 1 x_42_ ^ 2 + 1 y_11_ ^ 2 - 2 y_42_ * y_11_ + 1 y_42_ ^ 2 ] >= 3359.07
quadratic_ranged_107_lb: [ 1 x_13_ ^ 2 - 2 x_42_ * x_13_ + 1 x_42_ ^ 2 + 1 y_13_ ^ 2 - 2 y_42_ * y_13_ + 1 y_42_ ^ 2 ] >= 3526.38
quadratic_ranged_108_lb: [ 1 x_39_ ^ 2 - 2 x_42_ * x_39_ + 1 x_42_ ^ 2 + 1 y_39_ ^ 2 - 2 y_42_ * y_39_ + 1 y_42_ ^ 2 ] >= 12745.26
quadratic_ranged_109_lb: [ 1 x_41_ ^ 2 - 2 x_42_ * x_41_ + 1 x_42_ ^ 2 + 1 y_41_ ^ 2 - 2 y_42_ * y_41_ + 1 y_42_ ^ 2 ] >= 5395.5
quadratic_ranged_110_lb: [ 1 x_5_ ^ 2 - 2 x_43_ * x_5_ + 1 x_43_ ^ 2 + 1 y_5_ ^ 2 - 2 y_43_ * y_5_ + 1 y_43_ ^ 2 ] >= 5247
quadratic_ranged_111_lb: [ 1 x_6_ ^ 2 - 2 x_43_ * x_6_ + 1 x_43_ ^ 2 + 1 y_6_ ^ 2 - 2 y_43_ * y_6_ + 1 y_43_ ^ 2 ] >= 13576.86
quadratic_ranged_112_lb: [ 1 x_8_ ^ 2 - 2 x_43_ * x_8_ + 1 x_43_ ^ 2 + 1 y_8_ ^ 2 - 2 y_43_ * y_8_ + 1 y_43_ ^ 2 ] >= 5791.5
quadratic_ranged_113_lb: [ 1 x_13_ ^ 2 - 2 x_43_ * x_13_ + 1 x_43_ ^ 2 + 1 y_13_ ^ 2 - 2 y_43_ * y_13_ + 1 y_43_ ^ 2 ] >= 14035.23
quadratic_ranged_114_lb: [ 1 x_17_ ^ 2 - 2 x_43_ * x_17_ + 1 x_43_ ^ 2 + 1 y_17_ ^ 2 - 2 y_43_ * y_17_ + 1 y_43_ ^ 2 ] >= 8430.84
quadratic_ranged_115_lb: [ 1 x_20_ ^ 2 - 2 x_43_ * x_20_ + 1 x_43_ ^ 2 + 1 y_20_ ^ 2 - 2 y_43_ * y_20_ + 1 y_43_ ^ 2 ] >= 15813.27
quadratic_ranged_116_lb: [ 1 x_24_ ^ 2 - 2 x_43_ * x_24_ + 1 x_43_ ^ 2 + 1 y_24_ ^ 2 - 2 y_43_ * y_24_ + 1 y_43_ ^ 2 ] >= 143.55
quadratic_ranged_117_lb: [ 1 x_39_ ^ 2 - 2 x_43_ * x_39_ + 1 x_43_ ^ 2 + 1 y_39_ ^ 2 - 2 y_43_ * y_39_ + 1 y_43_ ^ 2 ] >= 21824.55
quadratic_ranged_118_lb: [ 1 x_42_ ^ 2 - 2 x_43_ * x_42_ + 1 x_43_ ^ 2 + 1 y_42_ ^ 2 - 2 y_43_ * y_42_ + 1 y_43_ ^ 2 ] >= 5299.47
quadratic_ranged_119_lb: [ 1 x_17_ ^ 2 - 2 x_44_ * x_17_ + 1 x_44_ ^ 2 + 1 y_17_ ^ 2 - 2 y_44_ * y_17_ + 1 y_44_ ^ 2 ] >= 24126.3
quadratic_ranged_120_lb: [ 1 x_19_ ^ 2 - 2 x_44_ * x_19_ + 1 x_44_ ^ 2 + 1 y_19_ ^ 2 - 2 y_44_ * y_19_ + 1 y_44_ ^ 2 ] >= 4950
quadratic_ranged_121_lb: [ 1 x_43_ ^ 2 - 2 x_44_ * x_43_ + 1 x_44_ ^ 2 + 1 y_43_ ^ 2 - 2 y_44_ * y_43_ + 1 y_44_ ^ 2 ] >= 9102.06
quadratic_ranged_122_lb: [ 1 x_11_ ^ 2 - 2 x_45_ * x_11_ + 1 x_45_ ^ 2 + 1 y_11_ ^ 2 - 2 y_45_ * y_11_ + 1 y_45_ ^ 2 ] >= 881.1
quadratic_ranged_123_lb: [ 1 x_16_ ^ 2 - 2 x_45_ * x_16_ + 1 x_45_ ^ 2 + 1 y_16_ ^ 2 - 2 y_45_ * y_16_ + 1 y_45_ ^ 2 ] >= 5944.95
quadratic_ranged_124_lb: [ 1 x_25_ ^ 2 - 2 x_45_ * x_25_ + 1 x_45_ ^ 2 + 1 y_25_ ^ 2 - 2 y_45_ * y_25_ + 1 y_45_ ^ 2 ] >= 12573.99
quadratic_ranged_125_lb: [ 1 x_35_ ^ 2 - 2 x_45_ * x_35_ + 1 x_45_ ^ 2 + 1 y_35_ ^ 2 - 2 y_45_ * y_35_ + 1 y_45_ ^ 2 ] >= 11785.95
quadratic_ranged_126_lb: [ 1 x_37_ ^ 2 - 2 x_45_ * x_37_ + 1 x_45_ ^ 2 + 1 y_37_ ^ 2 - 2 y_45_ * y_37_ + 1 y_45_ ^ 2 ] >= 12517.56
quadratic_ranged_127_lb: [ 1 x_44_ ^ 2 - 2 x_45_ * x_44_ + 1 x_45_ ^ 2 + 1 y_44_ ^ 2 - 2 y_45_ * y_44_ + 1 y_45_ ^ 2 ] >= 10264.32
quadratic_ranged_128_lb: [ 1 x_16_ ^ 2 - 2 x_46_ * x_16_ + 1 x_46_ ^ 2 + 1 y_16_ ^ 2 - 2 y_46_ * y_16_ + 1 y_46_ ^ 2 ] >= 14115.42
quadratic_ranged_129_lb: [ 1 x_27_ ^ 2 - 2 x_46_ * x_27_ + 1 x_46_ ^ 2 + 1 y_27_ ^ 2 - 2 y_46_ * y_27_ + 1 y_46_ ^ 2 ] >= 23646.15
quadratic_ranged_130_lb: [ 1 x_30_ ^ 2 - 2 x_46_ * x_30_ + 1 x_46_ ^ 2 + 1 y_30_ ^ 2 - 2 y_46_ * y_30_ + 1 y_46_ ^ 2 ] >= 18540.72
quadratic_ranged_131_lb: [ 1 x_44_ ^ 2 - 2 x_46_ * x_44_ + 1 x_46_ ^ 2 + 1 y_44_ ^ 2 - 2 y_46_ * y_44_ + 1 y_46_ ^ 2 ] >= 12661.11
quadratic_ranged_132_lb: [ 1 x_45_ ^ 2 - 2 x_46_ * x_45_ + 1 x_46_ ^ 2 + 1 y_45_ ^ 2 - 2 y_46_ * y_45_ + 1 y_46_ ^ 2 ] >= 1969.11
quadratic_ranged_133_lb: [ 1 x_4_ ^ 2 - 2 x_47_ * x_4_ + 1 x_47_ ^ 2 + 1 y_4_ ^ 2 - 2 y_47_ * y_4_ + 1 y_47_ ^ 2 ] >= 400.95
quadratic_ranged_134_lb: [ 1 x_11_ ^ 2 - 2 x_47_ * x_11_ + 1 x_47_ ^ 2 + 1 y_11_ ^ 2 - 2 y_47_ * y_11_ + 1 y_47_ ^ 2 ] >= 6039.99
quadratic_ranged_135_lb: [ 1 x_14_ ^ 2 - 2 x_47_ * x_14_ + 1 x_47_ ^ 2 + 1 y_14_ ^ 2 - 2 y_47_ * y_14_ + 1 y_47_ ^ 2 ] >= 3835.2599999999998
quadratic_ranged_136_lb: [ 1 x_28_ ^ 2 - 2 x_47_ * x_28_ + 1 x_47_ ^ 2 + 1 y_28_ ^ 2 - 2 y_47_ * y_28_ + 1 y_47_ ^ 2 ] >= 32885.82
quadratic_ranged_137_lb: [ 1 x_35_ ^ 2 - 2 x_47_ * x_35_ + 1 x_47_ ^ 2 + 1 y_35_ ^ 2 - 2 y_47_ * y_35_ + 1 y_47_ ^ 2 ] >= 19800
quadratic_ranged_138_lb: [ 1 x_46_ ^ 2 - 2 x_47_ * x_46_ + 1 x_47_ ^ 2 + 1 y_46_ ^ 2 - 2 y_47_ * y_46_ + 1 y_47_ ^ 2 ] >= 1813.68
quadratic_ranged_139_lb: [ 1 x_47_ ^ 2 - 2 x_48_ * x_47_ + 1 x_48_ ^ 2 + 1 y_47_ ^ 2 - 2 y_48_ * y_47_ + 1 y_48_ ^ 2 ] >= 8143.74
quadratic_ranged_140_lb: [ 1 x_4_ ^ 2 - 2 x_49_ * x_4_ + 1 x_49_ ^ 2 + 1 y_4_ ^ 2 - 2 y_49_ * y_4_ + 1 y_49_ ^ 2 ] >= 28465.47
quadratic_ranged_141_lb: [ 1 x_5_ ^ 2 - 2 x_49_ * x_5_ + 1 x_49_ ^ 2 + 1 y_5_ ^ 2 - 2 y_49_ * y_5_ + 1 y_49_ ^ 2 ] >= 9845.55
quadratic_ranged_142_lb: [ 1 x_6_ ^ 2 - 2 x_49_ * x_6_ + 1 x_49_ ^ 2 + 1 y_6_ ^ 2 - 2 y_49_ * y_6_ + 1 y_49_ ^ 2 ] >= 23159.07
quadratic_ranged_143_lb: [ 1 x_7_ ^ 2 - 2 x_49_ * x_7_ + 1 x_49_ ^ 2 + 1 y_7_ ^ 2 - 2 y_49_ * y_7_ + 1 y_49_ ^ 2 ] >= 34619.31
quadratic_ranged_144_lb: [ 1 x_14_ ^ 2 - 2 x_49_ * x_14_ + 1 x_49_ ^ 2 + 1 y_14_ ^ 2 - 2 y_49_ * y_14_ + 1 y_49_ ^ 2 ] >= 20411.82
quadratic_ranged_145_lb: [ 1 x_19_ ^ 2 - 2 x_49_ * x_19_ + 1 x_49_ ^ 2 + 1 y_19_ ^ 2 - 2 y_49_ * y_19_ + 1 y_49_ ^ 2 ] >= 202.95
quadratic_ranged_146_lb: [ 1 x_31_ ^ 2 - 2 x_49_ * x_31_ + 1 x_49_ ^ 2 + 1 y_31_ ^ 2 - 2 y_49_ * y_31_ + 1 y_49_ ^ 2 ] >= 32306.67
quadratic_ranged_147_lb: [ 1 x_39_ ^ 2 - 2 x_49_ * x_39_ + 1 x_49_ ^ 2 + 1 y_39_ ^ 2 - 2 y_49_ * y_39_ + 1 y_49_ ^ 2 ] >= 12703.68
quadratic_ranged_148_lb: [ 1 x_40_ ^ 2 - 2 x_49_ * x_40_ + 1 x_49_ ^ 2 + 1 y_40_ ^ 2 - 2 y_49_ * y_40_ + 1 y_49_ ^ 2 ] >= 5750.91
quadratic_ranged_149_lb: [ 1 x_41_ ^ 2 - 2 x_49_ * x_41_ + 1 x_49_ ^ 2 + 1 y_41_ ^ 2 - 2 y_49_ * y_41_ + 1 y_49_ ^ 2 ] >= 24761.88
quadratic_ranged_150_lb: [ 1 x_42_ ^ 2 - 2 x_49_ * x_42_ + 1 x_49_ ^ 2 + 1 y_42_ ^ 2 - 2 y_49_ * y_42_ + 1 y_49_ ^ 2 ] >= 28632.78
quadratic_ranged_151_lb: [ 1 x_44_ ^ 2 - 2 x_49_ * x_44_ + 1 x_49_ ^ 2 + 1 y_44_ ^ 2 - 2 y_49_ * y_44_ + 1 y_49_ ^ 2 ] >= 3469.95
quadratic_ranged_152_lb: [ 1 x_47_ ^ 2 - 2 x_49_ * x_47_ + 1 x_49_ ^ 2 + 1 y_47_ ^ 2 - 2 y_49_ * y_47_ + 1 y_49_ ^ 2 ] >= 35263.8
quadratic_ranged_153_lb: [ 1 x_48_ ^ 2 - 2 x_49_ * x_48_ + 1 x_49_ ^ 2 + 1 y_48_ ^ 2 - 2 y_49_ * y_48_ + 1 y_49_ ^ 2 ] >= 19017.9
quadratic_ranged_154_lb: [ 1 x_1_ ^ 2 - 2 x_50_ * x_1_ + 1 x_50_ ^ 2 + 1 y_1_ ^ 2 - 2 y_50_ * y_1_ + 1 y_50_ ^ 2 ] >= 57670.47
quadratic_ranged_155_lb: [ 1 x_9_ ^ 2 - 2 x_50_ * x_9_ + 1 x_50_ ^ 2 + 1 y_9_ ^ 2 - 2 y_50_ * y_9_ + 1 y_50_ ^ 2 ] >= 25546.95
quadratic_ranged_156_lb: [ 1 x_16_ ^ 2 - 2 x_50_ * x_16_ + 1 x_50_ ^ 2 + 1 y_16_ ^ 2 - 2 y_50_ * y_16_ + 1 y_50_ ^ 2 ] >= 1498.86
quadratic_ranged_157_lb: [ 1 x_28_ ^ 2 - 2 x_50_ * x_28_ + 1 x_50_ ^ 2 + 1 y_28_ ^ 2 - 2 y_50_ * y_28_ + 1 y_50_ ^ 2 ] >= 199.98
quadratic_ranged_158_lb: [ 1 x_32_ ^ 2 - 2 x_50_ * x_32_ + 1 x_50_ ^ 2 + 1 y_32_ ^ 2 - 2 y_50_ * y_32_ + 1 y_50_ ^ 2 ] >= 21963.15
quadratic_ranged_159_lb: [ 1 x_41_ ^ 2 - 2 x_50_ * x_41_ + 1 x_50_ ^ 2 + 1 y_41_ ^ 2 - 2 y_50_ * y_41_ + 1 y_50_ ^ 2 ] >= 11222.64
quadratic_ranged_160_lb: [ 1 x_43_ ^ 2 - 2 x_50_ * x_43_ + 1 x_50_ ^ 2 + 1 y_43_ ^ 2 - 2 y_50_ * y_43_ + 1 y_50_ ^ 2 ] >= 33110.55
quadratic_ranged_161_lb: [ 1 x_49_ ^ 2 - 2 x_50_ * x_49_ + 1 x_50_ ^ 2 + 1 y_49_ ^ 2 - 2 y_50_ * y_49_ + 1 y_50_ ^ 2 ] >= 9523.8
quadratic_ranged_162_lb: [ 1 x_1_ ^ 2 - 2 x_51_ * x_1_ + 1 x_51_ ^ 2 + 1 y_1_ ^ 2 - 2 y_51_ * y_1_ + 1 y_51_ ^ 2 ] >= 6353.82
quadratic_ranged_163_lb: [ 1 x_5_ ^ 2 - 2 x_51_ * x_5_ + 1 x_51_ ^ 2 + 1 y_5_ ^ 2 - 2 y_51_ * y_5_ + 1 y_51_ ^ 2 ] >= 2415.6
quadratic_ranged_164_lb: [ 1 x_7_ ^ 2 - 2 x_51_ * x_7_ + 1 x_51_ ^ 2 + 1 y_7_ ^ 2 - 2 y_51_ * y_7_ + 1 y_51_ ^ 2 ] >= 7288.38
quadratic_ranged_165_lb: [ 1 x_10_ ^ 2 - 2 x_51_ * x_10_ + 1 x_51_ ^ 2 + 1 y_10_ ^ 2 - 2 y_51_ * y_10_ + 1 y_51_ ^ 2 ] >= 9497.07
quadratic_ranged_166_lb: [ 1 x_21_ ^ 2 - 2 x_51_ * x_21_ + 1 x_51_ ^ 2 + 1 y_21_ ^ 2 - 2 y_51_ * y_21_ + 1 y_51_ ^ 2 ] >= 16481.52
quadratic_ranged_167_lb: [ 1 x_33_ ^ 2 - 2 x_51_ * x_33_ + 1 x_51_ ^ 2 + 1 y_33_ ^ 2 - 2 y_51_ * y_33_ + 1 y_51_ ^ 2 ] >= 9330.75
quadratic_ranged_168_lb: [ 1 x_35_ ^ 2 - 2 x_51_ * x_35_ + 1 x_51_ ^ 2 + 1 y_35_ ^ 2 - 2 y_51_ * y_35_ + 1 y_51_ ^ 2 ] >= 1299.87
quadratic_ranged_169_lb: [ 1 x_50_ ^ 2 - 2 x_51_ * x_50_ + 1 x_51_ ^ 2 + 1 y_50_ ^ 2 - 2 y_51_ * y_50_ + 1 y_51_ ^ 2 ] >= 28833.75
quadratic_ranged_170_lb: [ 1 x_14_ ^ 2 - 2 x_52_ * x_14_ + 1 x_52_ ^ 2 + 1 y_14_ ^ 2 - 2 y_52_ * y_14_ + 1 y_52_ ^ 2 ] >= 19978.2
quadratic_ranged_171_lb: [ 1 x_23_ ^ 2 - 2 x_52_ * x_23_ + 1 x_52_ ^ 2 + 1 y_23_ ^ 2 - 2 y_52_ * y_23_ + 1 y_52_ ^ 2 ] >= 4182.75
quadratic_ranged_172_lb: [ 1 x_26_ ^ 2 - 2 x_52_ * x_26_ + 1 x_52_ ^ 2 + 1 y_26_ ^ 2 - 2 y_52_ * y_26_ + 1 y_52_ ^ 2 ] >= 15859.8
quadratic_ranged_173_lb: [ 1 x_39_ ^ 2 - 2 x_52_ * x_39_ + 1 x_52_ ^ 2 + 1 y_39_ ^ 2 - 2 y_52_ * y_39_ + 1 y_52_ ^ 2 ] >= 580.14
quadratic_ranged_174_lb: [ 1 x_50_ ^ 2 - 2 x_52_ * x_50_ + 1 x_52_ ^ 2 + 1 y_50_ ^ 2 - 2 y_52_ * y_50_ + 1 y_52_ ^ 2 ] >= 1158.3
quadratic_ranged_175_lb: [ 1 x_51_ ^ 2 - 2 x_52_ * x_51_ + 1 x_52_ ^ 2 + 1 y_51_ ^ 2 - 2 y_52_ * y_51_ + 1 y_52_ ^ 2 ] >= 26695.35
quadratic_ranged_176_lb: [ 1 x_3_ ^ 2 - 2 x_53_ * x_3_ + 1 x_53_ ^ 2 + 1 y_3_ ^ 2 - 2 y_53_ * y_3_ + 1 y_53_ ^ 2 ] >= 27566.55
quadratic_ranged_177_lb: [ 1 x_15_ ^ 2 - 2 x_53_ * x_15_ + 1 x_53_ ^ 2 + 1 y_15_ ^ 2 - 2 y_53_ * y_15_ + 1 y_53_ ^ 2 ] >= 2270.07
quadratic_ranged_178_lb: [ 1 x_21_ ^ 2 - 2 x_53_ * x_21_ + 1 x_53_ ^ 2 + 1 y_21_ ^ 2 - 2 y_53_ * y_21_ + 1 y_53_ ^ 2 ] >= 57.42
quadratic_ranged_179_lb: [ 1 x_35_ ^ 2 - 2 x_53_ * x_35_ + 1 x_53_ ^ 2 + 1 y_35_ ^ 2 - 2 y_53_ * y_35_ + 1 y_53_ ^ 2 ] >= 26457.75
quadratic_ranged_180_lb: [ 1 x_42_ ^ 2 - 2 x_53_ * x_42_ + 1 x_53_ ^ 2 + 1 y_42_ ^ 2 - 2 y_53_ * y_42_ + 1 y_53_ ^ 2 ] >= 2998.71
quadratic_ranged_181_lb: [ 1 x_44_ ^ 2 - 2 x_53_ * x_44_ + 1 x_53_ ^ 2 + 1 y_44_ ^ 2 - 2 y_53_ * y_44_ + 1 y_53_ ^ 2 ] >= 26235
quadratic_ranged_182_lb: [ 1 x_52_ ^ 2 - 2 x_53_ * x_52_ + 1 x_53_ ^ 2 + 1 y_52_ ^ 2 - 2 y_53_ * y_52_ + 1 y_53_ ^ 2 ] >= 11956.23
quadratic_ranged_183_lb: [ 1 x_4_ ^ 2 - 2 x_54_ * x_4_ + 1 x_54_ ^ 2 + 1 y_4_ ^ 2 - 2 y_54_ * y_4_ + 1 y_54_ ^ 2 ] >= 32069.07
quadratic_ranged_184_lb: [ 1 x_12_ ^ 2 - 2 x_54_ * x_12_ + 1 x_54_ ^ 2 + 1 y_12_ ^ 2 - 2 y_54_ * y_12_ + 1 y_54_ ^ 2 ] >= 20467.26
quadratic_ranged_185_lb: [ 1 x_17_ ^ 2 - 2 x_54_ * x_17_ + 1 x_54_ ^ 2 + 1 y_17_ ^ 2 - 2 y_54_ * y_17_ + 1 y_54_ ^ 2 ] >= 38500.11
quadratic_ranged_186_lb: [ 1 x_18_ ^ 2 - 2 x_54_ * x_18_ + 1 x_54_ ^ 2 + 1 y_18_ ^ 2 - 2 y_54_ * y_18_ + 1 y_54_ ^ 2 ] >= 63122.4
quadratic_ranged_187_lb: [ 1 x_19_ ^ 2 - 2 x_54_ * x_19_ + 1 x_54_ ^ 2 + 1 y_19_ ^ 2 - 2 y_54_ * y_19_ + 1 y_54_ ^ 2 ] >= 3806.55
quadratic_ranged_188_lb: [ 1 x_53_ ^ 2 - 2 x_54_ * x_53_ + 1 x_54_ ^ 2 + 1 y_53_ ^ 2 - 2 y_54_ * y_53_ + 1 y_54_ ^ 2 ] >= 28952.55
quadratic_ranged_189_lb: [ 1 x_4_ ^ 2 - 2 x_55_ * x_4_ + 1 x_55_ ^ 2 + 1 y_4_ ^ 2 - 2 y_55_ * y_4_ + 1 y_55_ ^ 2 ] >= 669.24
quadratic_ranged_190_lb: [ 1 x_20_ ^ 2 - 2 x_55_ * x_20_ + 1 x_55_ ^ 2 + 1 y_20_ ^ 2 - 2 y_55_ * y_20_ + 1 y_55_ ^ 2 ] >= 28314.989999999998
quadratic_ranged_191_lb: [ 1 x_26_ ^ 2 - 2 x_55_ * x_26_ + 1 x_55_ ^ 2 + 1 y_26_ ^ 2 - 2 y_55_ * y_26_ + 1 y_55_ ^ 2 ] >= 1715.67
quadratic_ranged_192_lb: [ 1 x_33_ ^ 2 - 2 x_55_ * x_33_ + 1 x_55_ ^ 2 + 1 y_33_ ^ 2 - 2 y_55_ * y_33_ + 1 y_55_ ^ 2 ] >= 2582.91
quadratic_ranged_193_lb: [ 1 x_46_ ^ 2 - 2 x_55_ * x_46_ + 1 x_55_ ^ 2 + 1 y_46_ ^ 2 - 2 y_55_ * y_46_ + 1 y_55_ ^ 2 ] >= 785.0699999999999
quadratic_ranged_194_lb: [ 1 x_49_ ^ 2 - 2 x_55_ * x_49_ + 1 x_55_ ^ 2 + 1 y_49_ ^ 2 - 2 y_55_ * y_49_ + 1 y_55_ ^ 2 ] >= 21606.75
quadratic_ranged_195_lb: [ 1 x_54_ ^ 2 - 2 x_55_ * x_54_ + 1 x_55_ ^ 2 + 1 y_54_ ^ 2 - 2 y_55_ * y_54_ + 1 y_55_ ^ 2 ] >= 23515.47
quadratic_ranged_196_lb: [ 1 x_15_ ^ 2 - 2 x_56_ * x_15_ + 1 x_56_ ^ 2 + 1 y_15_ ^ 2 - 2 y_56_ * y_15_ + 1 y_56_ ^ 2 ] >= 16823.07
quadratic_ranged_197_lb: [ 1 x_33_ ^ 2 - 2 x_56_ * x_33_ + 1 x_56_ ^ 2 + 1 y_33_ ^ 2 - 2 y_56_ * y_33_ + 1 y_56_ ^ 2 ] >= 32164.11
quadratic_ranged_198_lb: [ 1 x_35_ ^ 2 - 2 x_56_ * x_35_ + 1 x_56_ ^ 2 + 1 y_35_ ^ 2 - 2 y_56_ * y_35_ + 1 y_56_ ^ 2 ] >= 32104.71
quadratic_ranged_199_lb: [ 1 x_55_ ^ 2 - 2 x_56_ * x_55_ + 1 x_56_ ^ 2 + 1 y_55_ ^ 2 - 2 y_56_ * y_55_ + 1 y_56_ ^ 2 ] >= 16679.52
quadratic_ranged_200_lb: [ 1 x_6_ ^ 2 - 2 x_57_ * x_6_ + 1 x_57_ ^ 2 + 1 y_6_ ^ 2 - 2 y_57_ * y_6_ + 1 y_57_ ^ 2 ] >= 32957.1
quadratic_ranged_201_lb: [ 1 x_12_ ^ 2 - 2 x_57_ * x_12_ + 1 x_57_ ^ 2 + 1 y_12_ ^ 2 - 2 y_57_ * y_12_ + 1 y_57_ ^ 2 ] >= 39787.11
quadratic_ranged_202_lb: [ 1 x_13_ ^ 2 - 2 x_57_ * x_13_ + 1 x_57_ ^ 2 + 1 y_13_ ^ 2 - 2 y_57_ * y_13_ + 1 y_57_ ^ 2 ] >= 33724.35
quadratic_ranged_203_lb: [ 1 x_25_ ^ 2 - 2 x_57_ * x_25_ + 1 x_57_ ^ 2 + 1 y_25_ ^ 2 - 2 y_57_ * y_25_ + 1 y_57_ ^ 2 ] >= 3964.95
quadratic_ranged_204_lb: [ 1 x_37_ ^ 2 - 2 x_57_ * x_37_ + 1 x_57_ ^ 2 + 1 y_37_ ^ 2 - 2 y_57_ * y_37_ + 1 y_57_ ^ 2 ] >= 15263.82
quadratic_ranged_205_lb: [ 1 x_39_ ^ 2 - 2 x_57_ * x_39_ + 1 x_57_ ^ 2 + 1 y_39_ ^ 2 - 2 y_57_ * y_39_ + 1 y_57_ ^ 2 ] >= 25095.51
quadratic_ranged_206_lb: [ 1 x_40_ ^ 2 - 2 x_57_ * x_40_ + 1 x_57_ ^ 2 + 1 y_40_ ^ 2 - 2 y_57_ * y_40_ + 1 y_57_ ^ 2 ] >= 15683.58
quadratic_ranged_207_lb: [ 1 x_42_ ^ 2 - 2 x_57_ * x_42_ + 1 x_57_ ^ 2 + 1 y_42_ ^ 2 - 2 y_57_ * y_42_ + 1 y_57_ ^ 2 ] >= 32326.47
quadratic_ranged_208_lb: [ 1 x_47_ ^ 2 - 2 x_57_ * x_47_ + 1 x_57_ ^ 2 + 1 y_47_ ^ 2 - 2 y_57_ * y_47_ + 1 y_57_ ^ 2 ] >= 40274.19
quadratic_ranged_209_lb: [ 1 x_54_ ^ 2 - 2 x_57_ * x_54_ + 1 x_57_ ^ 2 + 1 y_54_ ^ 2 - 2 y_57_ * y_54_ + 1 y_57_ ^ 2 ] >= 18141.75
quadratic_ranged_210_lb: [ 1 x_56_ ^ 2 - 2 x_57_ * x_56_ + 1 x_57_ ^ 2 + 1 y_56_ ^ 2 - 2 y_57_ * y_56_ + 1 y_57_ ^ 2 ] >= 27518.04
quadratic_ranged_211_lb: [ 1 x_6_ ^ 2 - 2 x_58_ * x_6_ + 1 x_58_ ^ 2 + 1 y_6_ ^ 2 - 2 y_58_ * y_6_ + 1 y_58_ ^ 2 ] >= 17919
quadratic_ranged_212_lb: [ 1 x_16_ ^ 2 - 2 x_58_ * x_16_ + 1 x_58_ ^ 2 + 1 y_16_ ^ 2 - 2 y_58_ * y_16_ + 1 y_58_ ^ 2 ] >= 6558.75
quadratic_ranged_213_lb: [ 1 x_24_ ^ 2 - 2 x_58_ * x_24_ + 1 x_58_ ^ 2 + 1 y_24_ ^ 2 - 2 y_58_ * y_24_ + 1 y_58_ ^ 2 ] >= 12213.63
quadratic_ranged_214_lb: [ 1 x_41_ ^ 2 - 2 x_58_ * x_41_ + 1 x_58_ ^ 2 + 1 y_41_ ^ 2 - 2 y_58_ * y_41_ + 1 y_58_ ^ 2 ] >= 20438.55
quadratic_ranged_215_lb: [ 1 x_57_ ^ 2 - 2 x_58_ * x_57_ + 1 x_58_ ^ 2 + 1 y_57_ ^ 2 - 2 y_58_ * y_57_ + 1 y_58_ ^ 2 ] >= 2306.7
quadratic_ranged_216_lb: [ 1 x_2_ ^ 2 - 2 x_59_ * x_2_ + 1 x_59_ ^ 2 + 1 y_2_ ^ 2 - 2 y_59_ * y_2_ + 1 y_59_ ^ 2 ] >= 27967.5
quadratic_ranged_217_lb: [ 1 x_17_ ^ 2 - 2 x_59_ * x_17_ + 1 x_59_ ^ 2 + 1 y_17_ ^ 2 - 2 y_59_ * y_17_ + 1 y_59_ ^ 2 ] >= 34010.46
quadratic_ranged_218_lb: [ 1 x_26_ ^ 2 - 2 x_59_ * x_26_ + 1 x_59_ ^ 2 + 1 y_26_ ^ 2 - 2 y_59_ * y_26_ + 1 y_59_ ^ 2 ] >= 13678.83
quadratic_ranged_219_lb: [ 1 x_41_ ^ 2 - 2 x_59_ * x_41_ + 1 x_59_ ^ 2 + 1 y_41_ ^ 2 - 2 y_59_ * y_41_ + 1 y_59_ ^ 2 ] >= 26525.07
quadratic_ranged_220_lb: [ 1 x_58_ ^ 2 - 2 x_59_ * x_58_ + 1 x_59_ ^ 2 + 1 y_58_ ^ 2 - 2 y_59_ * y_58_ + 1 y_59_ ^ 2 ] >= 673.2
quadratic_ranged_221_lb: [ 1 x_17_ ^ 2 - 2 x_60_ * x_17_ + 1 x_60_ ^ 2 + 1 y_17_ ^ 2 - 2 y_60_ * y_17_ + 1 y_60_ ^ 2 ] >= 19588.14
quadratic_ranged_222_lb: [ 1 x_23_ ^ 2 - 2 x_60_ * x_23_ + 1 x_60_ ^ 2 + 1 y_23_ ^ 2 - 2 y_60_ * y_23_ + 1 y_60_ ^ 2 ] >= 33778.8
quadratic_ranged_223_lb: [ 1 x_26_ ^ 2 - 2 x_60_ * x_26_ + 1 x_60_ ^ 2 + 1 y_26_ ^ 2 - 2 y_60_ * y_26_ + 1 y_60_ ^ 2 ] >= 6574.59
quadratic_ranged_224_lb: [ 1 x_27_ ^ 2 - 2 x_60_ * x_27_ + 1 x_60_ ^ 2 + 1 y_27_ ^ 2 - 2 y_60_ * y_27_ + 1 y_60_ ^ 2 ] >= 35451.9
quadratic_ranged_225_lb: [ 1 x_46_ ^ 2 - 2 x_60_ * x_46_ + 1 x_60_ ^ 2 + 1 y_46_ ^ 2 - 2 y_60_ * y_46_ + 1 y_60_ ^ 2 ] >= 10023.75
quadratic_ranged_226_lb: [ 1 x_57_ ^ 2 - 2 x_60_ * x_57_ + 1 x_60_ ^ 2 + 1 y_57_ ^ 2 - 2 y_60_ * y_57_ + 1 y_60_ ^ 2 ] >= 10717.74
quadratic_ranged_227_lb: [ 1 x_59_ ^ 2 - 2 x_60_ * x_59_ + 1 x_60_ ^ 2 + 1 y_59_ ^ 2 - 2 y_60_ * y_59_ + 1 y_60_ ^ 2 ] >= 12687.84
quadratic_ranged_228_lb: [ 1 x_19_ ^ 2 - 2 x_61_ * x_19_ + 1 x_61_ ^ 2 + 1 y_19_ ^ 2 - 2 y_61_ * y_19_ + 1 y_61_ ^ 2 ] >= 28341.72
quadratic_ranged_229_lb: [ 1 x_22_ ^ 2 - 2 x_61_ * x_22_ + 1 x_61_ ^ 2 + 1 y_22_ ^ 2 - 2 y_61_ * y_22_ + 1 y_61_ ^ 2 ] >= 34825.23
quadratic_ranged_230_lb: [ 1 x_36_ ^ 2 - 2 x_61_ * x_36_ + 1 x_61_ ^ 2 + 1 y_36_ ^ 2 - 2 y_61_ * y_36_ + 1 y_61_ ^ 2 ] >= 17307.18
quadratic_ranged_231_lb: [ 1 x_37_ ^ 2 - 2 x_61_ * x_37_ + 1 x_61_ ^ 2 + 1 y_37_ ^ 2 - 2 y_61_ * y_37_ + 1 y_61_ ^ 2 ] >= 316.8
quadratic_ranged_232_lb: [ 1 x_43_ ^ 2 - 2 x_61_ * x_43_ + 1 x_61_ ^ 2 + 1 y_43_ ^ 2 - 2 y_61_ * y_43_ + 1 y_61_ ^ 2 ] >= 366.3
quadratic_ranged_233_lb: [ 1 x_46_ ^ 2 - 2 x_61_ * x_46_ + 1 x_61_ ^ 2 + 1 y_46_ ^ 2 - 2 y_61_ * y_46_ + 1 y_61_ ^ 2 ] >= 5469.75
quadratic_ranged_234_lb: [ 1 x_59_ ^ 2 - 2 x_61_ * x_59_ + 1 x_61_ ^ 2 + 1 y_59_ ^ 2 - 2 y_61_ * y_59_ + 1 y_61_ ^ 2 ] >= 19693.079999999998
quadratic_ranged_235_lb: [ 1 x_60_ ^ 2 - 2 x_61_ * x_60_ + 1 x_61_ ^ 2 + 1 y_60_ ^ 2 - 2 y_61_ * y_60_ + 1 y_61_ ^ 2 ] >= 1683
quadratic_ranged_236_lb: [ 1 x_29_ ^ 2 - 2 x_62_ * x_29_ + 1 x_62_ ^ 2 + 1 y_29_ ^ 2 - 2 y_62_ * y_29_ + 1 y_62_ ^ 2 ] >= 10126.71
quadratic_ranged_237_lb: [ 1 x_35_ ^ 2 - 2 x_62_ * x_35_ + 1 x_62_ ^ 2 + 1 y_35_ ^ 2 - 2 y_62_ * y_35_ + 1 y_62_ ^ 2 ] >= 8297.19
quadratic_ranged_238_lb: [ 1 x_41_ ^ 2 - 2 x_62_ * x_41_ + 1 x_62_ ^ 2 + 1 y_41_ ^ 2 - 2 y_62_ * y_41_ + 1 y_62_ ^ 2 ] >= 6776.55
quadratic_ranged_239_lb: [ 1 x_58_ ^ 2 - 2 x_62_ * x_58_ + 1 x_62_ ^ 2 + 1 y_58_ ^ 2 - 2 y_62_ * y_58_ + 1 y_62_ ^ 2 ] >= 12117.6
quadratic_ranged_240_lb: [ 1 x_61_ ^ 2 - 2 x_62_ * x_61_ + 1 x_62_ ^ 2 + 1 y_61_ ^ 2 - 2 y_62_ * y_61_ + 1 y_62_ ^ 2 ] >= 4851
quadratic_ranged_241_lb: [ 1 x_14_ ^ 2 - 2 x_63_ * x_14_ + 1 x_63_ ^ 2 + 1 y_14_ ^ 2 - 2 y_63_ * y_14_ + 1 y_63_ ^ 2 ] >= 26556.75
quadratic_ranged_242_lb: [ 1 x_18_ ^ 2 - 2 x_63_ * x_18_ + 1 x_63_ ^ 2 + 1 y_18_ ^ 2 - 2 y_63_ * y_18_ + 1 y_63_ ^ 2 ] >= 61068.15
quadratic_ranged_243_lb: [ 1 x_22_ ^ 2 - 2 x_63_ * x_22_ + 1 x_63_ ^ 2 + 1 y_22_ ^ 2 - 2 y_63_ * y_22_ + 1 y_63_ ^ 2 ] >= 1216.71
quadratic_ranged_244_lb: [ 1 x_26_ ^ 2 - 2 x_63_ * x_26_ + 1 x_63_ ^ 2 + 1 y_26_ ^ 2 - 2 y_63_ * y_26_ + 1 y_63_ ^ 2 ] >= 21250.35
quadratic_ranged_245_lb: [ 1 x_31_ ^ 2 - 2 x_63_ * x_31_ + 1 x_63_ ^ 2 + 1 y_31_ ^ 2 - 2 y_63_ * y_31_ + 1 y_63_ ^ 2 ] >= 44581.68
quadratic_ranged_246_lb: [ 1 x_32_ ^ 2 - 2 x_63_ * x_32_ + 1 x_63_ ^ 2 + 1 y_32_ ^ 2 - 2 y_63_ * y_32_ + 1 y_63_ ^ 2 ] >= 22471.02
quadratic_ranged_247_lb: [ 1 x_46_ ^ 2 - 2 x_63_ * x_46_ + 1 x_63_ ^ 2 + 1 y_46_ ^ 2 - 2 y_63_ * y_46_ + 1 y_63_ ^ 2 ] >= 25178.67
quadratic_ranged_248_lb: [ 1 x_50_ ^ 2 - 2 x_63_ * x_50_ + 1 x_63_ ^ 2 + 1 y_50_ ^ 2 - 2 y_63_ * y_50_ + 1 y_63_ ^ 2 ] >= 80.19
quadratic_ranged_249_lb: [ 1 x_58_ ^ 2 - 2 x_63_ * x_58_ + 1 x_63_ ^ 2 + 1 y_58_ ^ 2 - 2 y_63_ * y_58_ + 1 y_63_ ^ 2 ] >= 13642.2
quadratic_ranged_250_lb: [ 1 x_62_ ^ 2 - 2 x_63_ * x_62_ + 1 x_63_ ^ 2 + 1 y_62_ ^ 2 - 2 y_63_ * y_62_ + 1 y_63_ ^ 2 ] >= 24096.6
quadratic_ranged_251_lb: [ 1 x_15_ ^ 2 - 2 x_64_ * x_15_ + 1 x_64_ ^ 2 + 1 y_15_ ^ 2 - 2 y_64_ * y_15_ + 1 y_64_ ^ 2 ] >= 10575.18
quadratic_ranged_252_lb: [ 1 x_21_ ^ 2 - 2 x_64_ * x_21_ + 1 x_64_ ^ 2 + 1 y_21_ ^ 2 - 2 y_64_ * y_21_ + 1 y_64_ ^ 2 ] >= 19001.07
quadratic_ranged_253_lb: [ 1 x_43_ ^ 2 - 2 x_64_ * x_43_ + 1 x_64_ ^ 2 + 1 y_43_ ^ 2 - 2 y_64_ * y_43_ + 1 y_64_ ^ 2 ] >= 8855.55
quadratic_ranged_254_lb: [ 1 x_47_ ^ 2 - 2 x_64_ * x_47_ + 1 x_64_ ^ 2 + 1 y_47_ ^ 2 - 2 y_64_ * y_47_ + 1 y_64_ ^ 2 ] >= 19889.1
quadratic_ranged_255_lb: [ 1 x_63_ ^ 2 - 2 x_64_ * x_63_ + 1 x_64_ ^ 2 + 1 y_63_ ^ 2 - 2 y_64_ * y_63_ + 1 y_64_ ^ 2 ] >= 13342.23
quadratic_ranged_256_lb: [ 1 x_7_ ^ 2 - 2 x_65_ * x_7_ + 1 x_65_ ^ 2 + 1 y_7_ ^ 2 - 2 y_65_ * y_7_ + 1 y_65_ ^ 2 ] >= 6306.3
quadratic_ranged_257_lb: [ 1 x_20_ ^ 2 - 2 x_65_ * x_20_ + 1 x_65_ ^ 2 + 1 y_20_ ^ 2 - 2 y_65_ * y_20_ + 1 y_65_ ^ 2 ] >= 18521.91
quadratic_ranged_258_lb: [ 1 x_25_ ^ 2 - 2 x_65_ * x_25_ + 1 x_65_ ^ 2 + 1 y_25_ ^ 2 - 2 y_65_ * y_25_ + 1 y_65_ ^ 2 ] >= 8986.23
quadratic_ranged_259_lb: [ 1 x_29_ ^ 2 - 2 x_65_ * x_29_ + 1 x_65_ ^ 2 + 1 y_29_ ^ 2 - 2 y_65_ * y_29_ + 1 y_65_ ^ 2 ] >= 9271.35
quadratic_ranged_260_lb: [ 1 x_35_ ^ 2 - 2 x_65_ * x_35_ + 1 x_65_ ^ 2 + 1 y_35_ ^ 2 - 2 y_65_ * y_35_ + 1 y_65_ ^ 2 ] >= 8412.03
quadratic_ranged_261_lb: [ 1 x_44_ ^ 2 - 2 x_65_ * x_44_ + 1 x_65_ ^ 2 + 1 y_44_ ^ 2 - 2 y_65_ * y_44_ + 1 y_65_ ^ 2 ] >= 7145.82
quadratic_ranged_262_lb: [ 1 x_50_ ^ 2 - 2 x_65_ * x_50_ + 1 x_65_ ^ 2 + 1 y_50_ ^ 2 - 2 y_65_ * y_50_ + 1 y_65_ ^ 2 ] >= 11932.47
quadratic_ranged_263_lb: [ 1 x_56_ ^ 2 - 2 x_65_ * x_56_ + 1 x_65_ ^ 2 + 1 y_56_ ^ 2 - 2 y_65_ * y_56_ + 1 y_65_ ^ 2 ] >= 12406.68
quadratic_ranged_264_lb: [ 1 x_62_ ^ 2 - 2 x_65_ * x_62_ + 1 x_65_ ^ 2 + 1 y_62_ ^ 2 - 2 y_65_ * y_62_ + 1 y_65_ ^ 2 ] >= 1570.1399999999999
quadratic_ranged_265_lb: [ 1 x_64_ ^ 2 - 2 x_65_ * x_64_ + 1 x_65_ ^ 2 + 1 y_64_ ^ 2 - 2 y_65_ * y_64_ + 1 y_65_ ^ 2 ] >= 4646.07
quadratic_ranged_266_lb: [ 1 x_11_ ^ 2 - 2 x_66_ * x_11_ + 1 x_66_ ^ 2 + 1 y_11_ ^ 2 - 2 y_66_ * y_11_ + 1 y_66_ ^ 2 ] >= 21700.8
quadratic_ranged_267_lb: [ 1 x_14_ ^ 2 - 2 x_66_ * x_14_ + 1 x_66_ ^ 2 + 1 y_14_ ^ 2 - 2 y_66_ * y_14_ + 1 y_66_ ^ 2 ] >= 33811.47
quadratic_ranged_268_lb: [ 1 x_20_ ^ 2 - 2 x_66_ * x_20_ + 1 x_66_ ^ 2 + 1 y_20_ ^ 2 - 2 y_66_ * y_20_ + 1 y_66_ ^ 2 ] >= 33003.63
quadratic_ranged_269_lb: [ 1 x_22_ ^ 2 - 2 x_66_ * x_22_ + 1 x_66_ ^ 2 + 1 y_22_ ^ 2 - 2 y_66_ * y_22_ + 1 y_66_ ^ 2 ] >= 3339.27
quadratic_ranged_270_lb: [ 1 x_28_ ^ 2 - 2 x_66_ * x_28_ + 1 x_66_ ^ 2 + 1 y_28_ ^ 2 - 2 y_66_ * y_28_ + 1 y_66_ ^ 2 ] >= 559.35
quadratic_ranged_271_lb: [ 1 x_31_ ^ 2 - 2 x_66_ * x_31_ + 1 x_66_ ^ 2 + 1 y_31_ ^ 2 - 2 y_66_ * y_31_ + 1 y_66_ ^ 2 ] >= 53588.7
quadratic_ranged_272_lb: [ 1 x_37_ ^ 2 - 2 x_66_ * x_37_ + 1 x_66_ ^ 2 + 1 y_37_ ^ 2 - 2 y_66_ * y_37_ + 1 y_66_ ^ 2 ] >= 47830.86
quadratic_ranged_273_lb: [ 1 x_54_ ^ 2 - 2 x_66_ * x_54_ + 1 x_66_ ^ 2 + 1 y_54_ ^ 2 - 2 y_66_ * y_54_ + 1 y_66_ ^ 2 ] >= 523.71
quadratic_ranged_274_lb: [ 1 x_65_ ^ 2 - 2 x_66_ * x_65_ + 1 x_66_ ^ 2 + 1 y_65_ ^ 2 - 2 y_66_ * y_65_ + 1 y_66_ ^ 2 ] >= 18889.2
quadratic_ranged_275_lb: [ 1 x_3_ ^ 2 - 2 x_67_ * x_3_ + 1 x_67_ ^ 2 + 1 y_3_ ^ 2 - 2 y_67_ * y_3_ + 1 y_67_ ^ 2 ] >= 37696.23
quadratic_ranged_276_lb: [ 1 x_6_ ^ 2 - 2 x_67_ * x_6_ + 1 x_67_ ^ 2 + 1 y_6_ ^ 2 - 2 y_67_ * y_6_ + 1 y_67_ ^ 2 ] >= 19455.48
quadratic_ranged_277_lb: [ 1 x_12_ ^ 2 - 2 x_67_ * x_12_ + 1 x_67_ ^ 2 + 1 y_12_ ^ 2 - 2 y_67_ * y_12_ + 1 y_67_ ^ 2 ] >= 22070.07
quadratic_ranged_278_lb: [ 1 x_24_ ^ 2 - 2 x_67_ * x_24_ + 1 x_67_ ^ 2 + 1 y_24_ ^ 2 - 2 y_67_ * y_24_ + 1 y_67_ ^ 2 ] >= 28338.75
quadratic_ranged_279_lb: [ 1 x_49_ ^ 2 - 2 x_67_ * x_49_ + 1 x_67_ ^ 2 + 1 y_49_ ^ 2 - 2 y_67_ * y_49_ + 1 y_67_ ^ 2 ] >= 1145.43
quadratic_ranged_280_lb: [ 1 x_50_ ^ 2 - 2 x_67_ * x_50_ + 1 x_67_ ^ 2 + 1 y_50_ ^ 2 - 2 y_67_ * y_50_ + 1 y_67_ ^ 2 ] >= 4285.71
quadratic_ranged_281_lb: [ 1 x_54_ ^ 2 - 2 x_67_ * x_54_ + 1 x_67_ ^ 2 + 1 y_54_ ^ 2 - 2 y_67_ * y_54_ + 1 y_67_ ^ 2 ] >= 1771.11
quadratic_ranged_282_lb: [ 1 x_55_ ^ 2 - 2 x_67_ * x_55_ + 1 x_67_ ^ 2 + 1 y_55_ ^ 2 - 2 y_67_ * y_55_ + 1 y_67_ ^ 2 ] >= 20245.5
quadratic_ranged_283_lb: [ 1 x_57_ ^ 2 - 2 x_67_ * x_57_ + 1 x_67_ ^ 2 + 1 y_57_ ^ 2 - 2 y_67_ * y_57_ + 1 y_67_ ^ 2 ] >= 8587.26
quadratic_ranged_284_lb: [ 1 x_62_ ^ 2 - 2 x_67_ * x_62_ + 1 x_67_ ^ 2 + 1 y_62_ ^ 2 - 2 y_67_ * y_62_ + 1 y_67_ ^ 2 ] >= 21542.4
quadratic_ranged_285_lb: [ 1 x_66_ ^ 2 - 2 x_67_ * x_66_ + 1 x_67_ ^ 2 + 1 y_66_ ^ 2 - 2 y_67_ * y_66_ + 1 y_67_ ^ 2 ] >= 4207.5
quadratic_ranged_286_lb: [ 1 x_9_ ^ 2 - 2 x_68_ * x_9_ + 1 x_68_ ^ 2 + 1 y_9_ ^ 2 - 2 y_68_ * y_9_ + 1 y_68_ ^ 2 ] >= 20410.829999999998
quadratic_ranged_287_lb: [ 1 x_11_ ^ 2 - 2 x_68_ * x_11_ + 1 x_68_ ^ 2 + 1 y_11_ ^ 2 - 2 y_68_ * y_11_ + 1 y_68_ ^ 2 ] >= 4598.55
quadratic_ranged_288_lb: [ 1 x_17_ ^ 2 - 2 x_68_ * x_17_ + 1 x_68_ ^ 2 + 1 y_17_ ^ 2 - 2 y_68_ * y_17_ + 1 y_68_ ^ 2 ] >= 20010.87
quadratic_ranged_289_lb: [ 1 x_23_ ^ 2 - 2 x_68_ * x_23_ + 1 x_68_ ^ 2 + 1 y_23_ ^ 2 - 2 y_68_ * y_23_ + 1 y_68_ ^ 2 ] >= 3759.0299999999997
quadratic_ranged_290_lb: [ 1 x_25_ ^ 2 - 2 x_68_ * x_25_ + 1 x_68_ ^ 2 + 1 y_25_ ^ 2 - 2 y_68_ * y_25_ + 1 y_68_ ^ 2 ] >= 8365.5
quadratic_ranged_291_lb: [ 1 x_63_ ^ 2 - 2 x_68_ * x_63_ + 1 x_68_ ^ 2 + 1 y_63_ ^ 2 - 2 y_68_ * y_63_ + 1 y_68_ ^ 2 ] >= 5572.71
quadratic_ranged_292_lb: [ 1 x_67_ ^ 2 - 2 x_68_ * x_67_ + 1 x_68_ ^ 2 + 1 y_67_ ^ 2 - 2 y_68_ * y_67_ + 1 y_68_ ^ 2 ] >= 2103.75
quadratic_ranged_293_lb: [ 1 x_4_ ^ 2 - 2 x_69_ * x_4_ + 1 x_69_ ^ 2 + 1 y_4_ ^ 2 - 2 y_69_ * y_4_ + 1 y_69_ ^ 2 ] >= 4182.75
quadratic_ranged_294_lb: [ 1 x_11_ ^ 2 - 2 x_69_ * x_11_ + 1 x_69_ ^ 2 + 1 y_11_ ^ 2 - 2 y_69_ * y_11_ + 1 y_69_ ^ 2 ] >= 3770.91
quadratic_ranged_295_lb: [ 1 x_30_ ^ 2 - 2 x_69_ * x_30_ + 1 x_69_ ^ 2 + 1 y_30_ ^ 2 - 2 y_69_ * y_30_ + 1 y_69_ ^ 2 ] >= 26282.52
quadratic_ranged_296_lb: [ 1 x_35_ ^ 2 - 2 x_69_ * x_35_ + 1 x_69_ ^ 2 + 1 y_35_ ^ 2 - 2 y_69_ * y_35_ + 1 y_69_ ^ 2 ] >= 5088.6
quadratic_ranged_297_lb: [ 1 x_37_ ^ 2 - 2 x_69_ * x_37_ + 1 x_69_ ^ 2 + 1 y_37_ ^ 2 - 2 y_69_ * y_37_ + 1 y_69_ ^ 2 ] >= 1806.75
quadratic_ranged_298_lb: [ 1 x_39_ ^ 2 - 2 x_69_ * x_39_ + 1 x_69_ ^ 2 + 1 y_39_ ^ 2 - 2 y_69_ * y_39_ + 1 y_69_ ^ 2 ] >= 20940.48
quadratic_ranged_299_lb: [ 1 x_48_ ^ 2 - 2 x_69_ * x_48_ + 1 x_69_ ^ 2 + 1 y_48_ ^ 2 - 2 y_69_ * y_48_ + 1 y_69_ ^ 2 ] >= 16641.9
quadratic_ranged_300_lb: [ 1 x_61_ ^ 2 - 2 x_69_ * x_61_ + 1 x_69_ ^ 2 + 1 y_61_ ^ 2 - 2 y_69_ * y_61_ + 1 y_69_ ^ 2 ] >= 824.67
quadratic_ranged_301_lb: [ 1 x_65_ ^ 2 - 2 x_69_ * x_65_ + 1 x_69_ ^ 2 + 1 y_65_ ^ 2 - 2 y_69_ * y_65_ + 1 y_69_ ^ 2 ] >= 5430.15
quadratic_ranged_302_lb: [ 1 x_68_ ^ 2 - 2 x_69_ * x_68_ + 1 x_69_ ^ 2 + 1 y_68_ ^ 2 - 2 y_69_ * y_68_ + 1 y_69_ ^ 2 ] >= 15178.68
quadratic_ranged_303_lb: [ 1 x_10_ ^ 2 - 2 x_70_ * x_10_ + 1 x_70_ ^ 2 + 1 y_10_ ^ 2 - 2 y_70_ * y_10_ + 1 y_70_ ^ 2 ] >= 4936.14
quadratic_ranged_304_lb: [ 1 x_33_ ^ 2 - 2 x_70_ * x_33_ + 1 x_70_ ^ 2 + 1 y_33_ ^ 2 - 2 y_70_ * y_33_ + 1 y_70_ ^ 2 ] >= 35443.98
quadratic_ranged_305_lb: [ 1 x_52_ ^ 2 - 2 x_70_ * x_52_ + 1 x_70_ ^ 2 + 1 y_52_ ^ 2 - 2 y_70_ * y_52_ + 1 y_70_ ^ 2 ] >= 30612.78
quadratic_ranged_306_lb: [ 1 x_53_ ^ 2 - 2 x_70_ * x_53_ + 1 x_70_ ^ 2 + 1 y_53_ ^ 2 - 2 y_70_ * y_53_ + 1 y_70_ ^ 2 ] >= 41355.27
quadratic_ranged_307_lb: [ 1 x_58_ ^ 2 - 2 x_70_ * x_58_ + 1 x_70_ ^ 2 + 1 y_58_ ^ 2 - 2 y_70_ * y_58_ + 1 y_70_ ^ 2 ] >= 2380.95
quadratic_ranged_308_lb: [ 1 x_62_ ^ 2 - 2 x_70_ * x_62_ + 1 x_70_ ^ 2 + 1 y_62_ ^ 2 - 2 y_70_ * y_62_ + 1 y_70_ ^ 2 ] >= 20319.75
quadratic_ranged_309_lb: [ 1 x_69_ ^ 2 - 2 x_70_ * x_69_ + 1 x_70_ ^ 2 + 1 y_69_ ^ 2 - 2 y_70_ * y_69_ + 1 y_70_ ^ 2 ] >= 18025.92
quadratic_ranged_310_lb: [ 1 x_1_ ^ 2 - 2 x_71_ * x_1_ + 1 x_71_ ^ 2 + 1 y_1_ ^ 2 - 2 y_71_ * y_1_ + 1 y_71_ ^ 2 ] >= 20177.19
quadratic_ranged_311_lb: [ 1 x_9_ ^ 2 - 2 x_71_ * x_9_ + 1 x_71_ ^ 2 + 1 y_9_ ^ 2 - 2 y_71_ * y_9_ + 1 y_71_ ^ 2 ] >= 8297.19
quadratic_ranged_312_lb: [ 1 x_23_ ^ 2 - 2 x_71_ * x_23_ + 1 x_71_ ^ 2 + 1 y_23_ ^ 2 - 2 y_71_ * y_23_ + 1 y_71_ ^ 2 ] >= 10851.39
quadratic_ranged_313_lb: [ 1 x_33_ ^ 2 - 2 x_71_ * x_33_ + 1 x_71_ ^ 2 + 1 y_33_ ^ 2 - 2 y_71_ * y_33_ + 1 y_71_ ^ 2 ] >= 8365.5
quadratic_ranged_314_lb: [ 1 x_38_ ^ 2 - 2 x_71_ * x_38_ + 1 x_71_ ^ 2 + 1 y_38_ ^ 2 - 2 y_71_ * y_38_ + 1 y_71_ ^ 2 ] >= 10728.63
quadratic_ranged_315_lb: [ 1 x_54_ ^ 2 - 2 x_71_ * x_54_ + 1 x_71_ ^ 2 + 1 y_54_ ^ 2 - 2 y_71_ * y_54_ + 1 y_71_ ^ 2 ] >= 13182.84
quadratic_ranged_316_lb: [ 1 x_70_ ^ 2 - 2 x_71_ * x_70_ + 1 x_71_ ^ 2 + 1 y_70_ ^ 2 - 2 y_71_ * y_70_ + 1 y_71_ ^ 2 ] >= 15083.64
quadratic_ranged_317_lb: [ 1 x_46_ ^ 2 - 2 x_72_ * x_46_ + 1 x_72_ ^ 2 + 1 y_46_ ^ 2 - 2 y_72_ * y_46_ + 1 y_72_ ^ 2 ] >= 23428.35
quadratic_ranged_318_lb: [ 1 x_52_ ^ 2 - 2 x_72_ * x_52_ + 1 x_72_ ^ 2 + 1 y_52_ ^ 2 - 2 y_72_ * y_52_ + 1 y_72_ ^ 2 ] >= 16446.87
quadratic_ranged_319_lb: [ 1 x_60_ ^ 2 - 2 x_72_ * x_60_ + 1 x_72_ ^ 2 + 1 y_60_ ^ 2 - 2 y_72_ * y_60_ + 1 y_72_ ^ 2 ] >= 16968.6
quadratic_ranged_320_lb: [ 1 x_68_ ^ 2 - 2 x_72_ * x_68_ + 1 x_72_ ^ 2 + 1 y_68_ ^ 2 - 2 y_72_ * y_68_ + 1 y_72_ ^ 2 ] >= 3331.35
quadratic_ranged_321_lb: [ 1 x_71_ ^ 2 - 2 x_72_ * x_71_ + 1 x_72_ ^ 2 + 1 y_71_ ^ 2 - 2 y_72_ * y_71_ + 1 y_72_ ^ 2 ] >= 11382.03
quadratic_ranged_322_lb: [ 1 x_8_ ^ 2 - 2 x_73_ * x_8_ + 1 x_73_ ^ 2 + 1 y_8_ ^ 2 - 2 y_73_ * y_8_ + 1 y_73_ ^ 2 ] >= 7438.86
quadratic_ranged_323_lb: [ 1 x_12_ ^ 2 - 2 x_73_ * x_12_ + 1 x_73_ ^ 2 + 1 y_12_ ^ 2 - 2 y_73_ * y_12_ + 1 y_73_ ^ 2 ] >= 2677.95
quadratic_ranged_324_lb: [ 1 x_30_ ^ 2 - 2 x_73_ * x_30_ + 1 x_73_ ^ 2 + 1 y_30_ ^ 2 - 2 y_73_ * y_30_ + 1 y_73_ ^ 2 ] >= 12811.59
quadratic_ranged_325_lb: [ 1 x_46_ ^ 2 - 2 x_73_ * x_46_ + 1 x_73_ ^ 2 + 1 y_46_ ^ 2 - 2 y_73_ * y_46_ + 1 y_73_ ^ 2 ] >= 1220.67
quadratic_ranged_326_lb: [ 1 x_48_ ^ 2 - 2 x_73_ * x_48_ + 1 x_73_ ^ 2 + 1 y_48_ ^ 2 - 2 y_73_ * y_48_ + 1 y_73_ ^ 2 ] >= 2749.23
quadratic_ranged_327_lb: [ 1 x_59_ ^ 2 - 2 x_73_ * x_59_ + 1 x_73_ ^ 2 + 1 y_59_ ^ 2 - 2 y_73_ * y_59_ + 1 y_73_ ^ 2 ] >= 20403.9
quadratic_ranged_328_lb: [ 1 x_72_ ^ 2 - 2 x_73_ * x_72_ + 1 x_73_ ^ 2 + 1 y_72_ ^ 2 - 2 y_73_ * y_72_ + 1 y_73_ ^ 2 ] >= 22059.18
quadratic_ranged_329_lb: [ 1 x_4_ ^ 2 - 2 x_74_ * x_4_ + 1 x_74_ ^ 2 + 1 y_4_ ^ 2 - 2 y_74_ * y_4_ + 1 y_74_ ^ 2 ] >= 5073.75
quadratic_ranged_330_lb: [ 1 x_11_ ^ 2 - 2 x_74_ * x_11_ + 1 x_74_ ^ 2 + 1 y_11_ ^ 2 - 2 y_74_ * y_11_ + 1 y_74_ ^ 2 ] >= 955.35
quadratic_ranged_331_lb: [ 1 x_35_ ^ 2 - 2 x_74_ * x_35_ + 1 x_74_ ^ 2 + 1 y_35_ ^ 2 - 2 y_74_ * y_35_ + 1 y_74_ ^ 2 ] >= 2692.8
quadratic_ranged_332_lb: [ 1 x_38_ ^ 2 - 2 x_74_ * x_38_ + 1 x_74_ ^ 2 + 1 y_38_ ^ 2 - 2 y_74_ * y_38_ + 1 y_74_ ^ 2 ] >= 10518.75
quadratic_ranged_333_lb: [ 1 x_57_ ^ 2 - 2 x_74_ * x_57_ + 1 x_74_ ^ 2 + 1 y_57_ ^ 2 - 2 y_74_ * y_57_ + 1 y_74_ ^ 2 ] >= 12760.11
quadratic_ranged_334_lb: [ 1 x_73_ ^ 2 - 2 x_74_ * x_73_ + 1 x_74_ ^ 2 + 1 y_73_ ^ 2 - 2 y_74_ * y_73_ + 1 y_74_ ^ 2 ] >= 4598.55
quadratic_ranged_335_lb: [ 1 x_3_ ^ 2 - 2 x_75_ * x_3_ + 1 x_75_ ^ 2 + 1 y_3_ ^ 2 - 2 y_75_ * y_3_ + 1 y_75_ ^ 2 ] >= 22098.78
quadratic_ranged_336_lb: [ 1 x_11_ ^ 2 - 2 x_75_ * x_11_ + 1 x_75_ ^ 2 + 1 y_11_ ^ 2 - 2 y_75_ * y_11_ + 1 y_75_ ^ 2 ] >= 3196.71
quadratic_ranged_337_lb: [ 1 x_14_ ^ 2 - 2 x_75_ * x_14_ + 1 x_75_ ^ 2 + 1 y_14_ ^ 2 - 2 y_75_ * y_14_ + 1 y_75_ ^ 2 ] >= 4866.84
quadratic_ranged_338_lb: [ 1 x_62_ ^ 2 - 2 x_75_ * x_62_ + 1 x_75_ ^ 2 + 1 y_62_ ^ 2 - 2 y_75_ * y_62_ + 1 y_75_ ^ 2 ] >= 3030.39
quadratic_ranged_339_lb: [ 1 x_74_ ^ 2 - 2 x_75_ * x_74_ + 1 x_75_ ^ 2 + 1 y_74_ ^ 2 - 2 y_75_ * y_74_ + 1 y_75_ ^ 2 ] >= 7114.14
quadratic_ranged_340_lb: [ 1 x_6_ ^ 2 - 2 x_76_ * x_6_ + 1 x_76_ ^ 2 + 1 y_6_ ^ 2 - 2 y_76_ * y_6_ + 1 y_76_ ^ 2 ] >= 19682.19
quadratic_ranged_341_lb: [ 1 x_12_ ^ 2 - 2 x_76_ * x_12_ + 1 x_76_ ^ 2 + 1 y_12_ ^ 2 - 2 y_76_ * y_12_ + 1 y_76_ ^ 2 ] >= 26631
quadratic_ranged_342_lb: [ 1 x_21_ ^ 2 - 2 x_76_ * x_21_ + 1 x_76_ ^ 2 + 1 y_21_ ^ 2 - 2 y_76_ * y_21_ + 1 y_76_ ^ 2 ] >= 21052.35
quadratic_ranged_343_lb: [ 1 x_59_ ^ 2 - 2 x_76_ * x_59_ + 1 x_76_ ^ 2 + 1 y_59_ ^ 2 - 2 y_76_ * y_59_ + 1 y_76_ ^ 2 ] >= 18094.23
quadratic_ranged_344_lb: [ 1 x_67_ ^ 2 - 2 x_76_ * x_67_ + 1 x_76_ ^ 2 + 1 y_67_ ^ 2 - 2 y_76_ * y_67_ + 1 y_76_ ^ 2 ] >= 29645.55
quadratic_ranged_345_lb: [ 1 x_68_ ^ 2 - 2 x_76_ * x_68_ + 1 x_76_ ^ 2 + 1 y_68_ ^ 2 - 2 y_76_ * y_68_ + 1 y_76_ ^ 2 ] >= 17513.1
quadratic_ranged_346_lb: [ 1 x_71_ ^ 2 - 2 x_76_ * x_71_ + 1 x_76_ ^ 2 + 1 y_71_ ^ 2 - 2 y_76_ * y_71_ + 1 y_76_ ^ 2 ] >= 11058.3
quadratic_ranged_347_lb: [ 1 x_75_ ^ 2 - 2 x_76_ * x_75_ + 1 x_76_ ^ 2 + 1 y_75_ ^ 2 - 2 y_76_ * y_75_ + 1 y_76_ ^ 2 ] >= 16734.96
quadratic_ranged_348_lb: [ 1 x_10_ ^ 2 - 2 x_77_ * x_10_ + 1 x_77_ ^ 2 + 1 y_10_ ^ 2 - 2 y_77_ * y_10_ + 1 y_77_ ^ 2 ] >= 3921.39
quadratic_ranged_349_lb: [ 1 x_12_ ^ 2 - 2 x_77_ * x_12_ + 1 x_77_ ^ 2 + 1 y_12_ ^ 2 - 2 y_77_ * y_12_ + 1 y_77_ ^ 2 ] >= 15868.71
quadratic_ranged_350_lb: [ 1 x_28_ ^ 2 - 2 x_77_ * x_28_ + 1 x_77_ ^ 2 + 1 y_28_ ^ 2 - 2 y_77_ * y_28_ + 1 y_77_ ^ 2 ] >= 1925.55
quadratic_ranged_351_lb: [ 1 x_38_ ^ 2 - 2 x_77_ * x_38_ + 1 x_77_ ^ 2 + 1 y_38_ ^ 2 - 2 y_77_ * y_38_ + 1 y_77_ ^ 2 ] >= 7866.54
quadratic_ranged_352_lb: [ 1 x_56_ ^ 2 - 2 x_77_ * x_56_ + 1 x_77_ ^ 2 + 1 y_56_ ^ 2 - 2 y_77_ * y_56_ + 1 y_77_ ^ 2 ] >= 2312.64
quadratic_ranged_353_lb: [ 1 x_57_ ^ 2 - 2 x_77_ * x_57_ + 1 x_77_ ^ 2 + 1 y_57_ ^ 2 - 2 y_77_ * y_57_ + 1 y_77_ ^ 2 ] >= 14355
quadratic_ranged_354_lb: [ 1 x_58_ ^ 2 - 2 x_77_ * x_58_ + 1 x_77_ ^ 2 + 1 y_58_ ^ 2 - 2 y_77_ * y_58_ + 1 y_77_ ^ 2 ] >= 7256.7
quadratic_ranged_355_lb: [ 1 x_68_ ^ 2 - 2 x_77_ * x_68_ + 1 x_77_ ^ 2 + 1 y_68_ ^ 2 - 2 y_77_ * y_68_ + 1 y_77_ ^ 2 ] >= 2246.31
quadratic_ranged_356_lb: [ 1 x_74_ ^ 2 - 2 x_77_ * x_74_ + 1 x_77_ ^ 2 + 1 y_74_ ^ 2 - 2 y_77_ * y_74_ + 1 y_77_ ^ 2 ] >= 16660.71
quadratic_ranged_357_lb: [ 1 x_76_ ^ 2 - 2 x_77_ * x_76_ + 1 x_77_ ^ 2 + 1 y_76_ ^ 2 - 2 y_77_ * y_76_ + 1 y_77_ ^ 2 ] >= 32271.03
quadratic_ranged_358_lb: [ 1 x_4_ ^ 2 - 2 x_78_ * x_4_ + 1 x_78_ ^ 2 + 1 y_4_ ^ 2 - 2 y_78_ * y_4_ + 1 y_78_ ^ 2 ] >= 1834.47
quadratic_ranged_359_lb: [ 1 x_28_ ^ 2 - 2 x_78_ * x_28_ + 1 x_78_ ^ 2 + 1 y_28_ ^ 2 - 2 y_78_ * y_28_ + 1 y_78_ ^ 2 ] >= 18109.079999999998
quadratic_ranged_360_lb: [ 1 x_35_ ^ 2 - 2 x_78_ * x_35_ + 1 x_78_ ^ 2 + 1 y_35_ ^ 2 - 2 y_78_ * y_35_ + 1 y_78_ ^ 2 ] >= 9347.58
quadratic_ranged_361_lb: [ 1 x_56_ ^ 2 - 2 x_78_ * x_56_ + 1 x_78_ ^ 2 + 1 y_56_ ^ 2 - 2 y_78_ * y_56_ + 1 y_78_ ^ 2 ] >= 14827.23
quadratic_ranged_362_lb: [ 1 x_59_ ^ 2 - 2 x_78_ * x_59_ + 1 x_78_ ^ 2 + 1 y_59_ ^ 2 - 2 y_78_ * y_59_ + 1 y_78_ ^ 2 ] >= 14870.789999999999
quadratic_ranged_363_lb: [ 1 x_60_ ^ 2 - 2 x_78_ * x_60_ + 1 x_78_ ^ 2 + 1 y_60_ ^ 2 - 2 y_78_ * y_60_ + 1 y_78_ ^ 2 ] >= 11235.51
quadratic_ranged_364_lb: [ 1 x_73_ ^ 2 - 2 x_78_ * x_73_ + 1 x_78_ ^ 2 + 1 y_73_ ^ 2 - 2 y_78_ * y_73_ + 1 y_78_ ^ 2 ] >= 543.51
quadratic_ranged_365_lb: [ 1 x_77_ ^ 2 - 2 x_78_ * x_77_ + 1 x_78_ ^ 2 + 1 y_77_ ^ 2 - 2 y_78_ * y_77_ + 1 y_78_ ^ 2 ] >= 13346.19
quadratic_ranged_366_lb: [ 1 x_8_ ^ 2 - 2 x_79_ * x_8_ + 1 x_79_ ^ 2 + 1 y_8_ ^ 2 - 2 y_79_ * y_8_ + 1 y_79_ ^ 2 ] >= 6187.5
quadratic_ranged_367_lb: [ 1 x_37_ ^ 2 - 2 x_79_ * x_37_ + 1 x_79_ ^ 2 + 1 y_37_ ^ 2 - 2 y_79_ * y_37_ + 1 y_79_ ^ 2 ] >= 6718.14
quadratic_ranged_368_lb: [ 1 x_46_ ^ 2 - 2 x_79_ * x_46_ + 1 x_79_ ^ 2 + 1 y_46_ ^ 2 - 2 y_79_ * y_46_ + 1 y_79_ ^ 2 ] >= 20022.75
quadratic_ranged_369_lb: [ 1 x_56_ ^ 2 - 2 x_79_ * x_56_ + 1 x_79_ ^ 2 + 1 y_56_ ^ 2 - 2 y_79_ * y_56_ + 1 y_79_ ^ 2 ] >= 38174.4
quadratic_ranged_370_lb: [ 1 x_57_ ^ 2 - 2 x_79_ * x_57_ + 1 x_79_ ^ 2 + 1 y_57_ ^ 2 - 2 y_79_ * y_57_ + 1 y_79_ ^ 2 ] >= 2760.12
quadratic_ranged_371_lb: [ 1 x_61_ ^ 2 - 2 x_79_ * x_61_ + 1 x_79_ ^ 2 + 1 y_61_ ^ 2 - 2 y_79_ * y_61_ + 1 y_79_ ^ 2 ] >= 9838.62
quadratic_ranged_372_lb: [ 1 x_65_ ^ 2 - 2 x_79_ * x_65_ + 1 x_79_ ^ 2 + 1 y_65_ ^ 2 - 2 y_79_ * y_65_ + 1 y_79_ ^ 2 ] >= 16224.119999999999
quadratic_ranged_373_lb: [ 1 x_66_ ^ 2 - 2 x_79_ * x_66_ + 1 x_79_ ^ 2 + 1 y_66_ ^ 2 - 2 y_79_ * y_66_ + 1 y_79_ ^ 2 ] >= 38415.96
quadratic_ranged_374_lb: [ 1 x_78_ ^ 2 - 2 x_79_ * x_78_ + 1 x_79_ ^ 2 + 1 y_78_ ^ 2 - 2 y_79_ * y_78_ + 1 y_79_ ^ 2 ] >= 18288.27
quadratic_ranged_375_lb: [ 1 x_22_ ^ 2 - 2 x_80_ * x_22_ + 1 x_80_ ^ 2 + 1 y_22_ ^ 2 - 2 y_80_ * y_22_ + 1 y_80_ ^ 2 ] >= 13330.35
quadratic_ranged_376_lb: [ 1 x_24_ ^ 2 - 2 x_80_ * x_24_ + 1 x_80_ ^ 2 + 1 y_24_ ^ 2 - 2 y_80_ * y_24_ + 1 y_80_ ^ 2 ] >= 24311.43
quadratic_ranged_377_lb: [ 1 x_25_ ^ 2 - 2 x_80_ * x_25_ + 1 x_80_ ^ 2 + 1 y_25_ ^ 2 - 2 y_80_ * y_25_ + 1 y_80_ ^ 2 ] >= 34813.35
quadratic_ranged_378_lb: [ 1 x_27_ ^ 2 - 2 x_80_ * x_27_ + 1 x_80_ ^ 2 + 1 y_27_ ^ 2 - 2 y_80_ * y_27_ + 1 y_80_ ^ 2 ] >= 22971.96
quadratic_ranged_379_lb: [ 1 x_43_ ^ 2 - 2 x_80_ * x_43_ + 1 x_80_ ^ 2 + 1 y_43_ ^ 2 - 2 y_80_ * y_43_ + 1 y_80_ ^ 2 ] >= 20738.52
quadratic_ranged_380_lb: [ 1 x_45_ ^ 2 - 2 x_80_ * x_45_ + 1 x_80_ ^ 2 + 1 y_45_ ^ 2 - 2 y_80_ * y_45_ + 1 y_80_ ^ 2 ] >= 5791.5
quadratic_ranged_381_lb: [ 1 x_47_ ^ 2 - 2 x_80_ * x_47_ + 1 x_80_ ^ 2 + 1 y_47_ ^ 2 - 2 y_80_ * y_47_ + 1 y_80_ ^ 2 ] >= 3937.23
quadratic_ranged_382_lb: [ 1 x_60_ ^ 2 - 2 x_80_ * x_60_ + 1 x_80_ ^ 2 + 1 y_60_ ^ 2 - 2 y_80_ * y_60_ + 1 y_80_ ^ 2 ] >= 34945.02
quadratic_ranged_383_lb: [ 1 x_73_ ^ 2 - 2 x_80_ * x_73_ + 1 x_80_ ^ 2 + 1 y_73_ ^ 2 - 2 y_80_ * y_73_ + 1 y_80_ ^ 2 ] >= 3777.84
quadratic_ranged_384_lb: [ 1 x_77_ ^ 2 - 2 x_80_ * x_77_ + 1 x_80_ ^ 2 + 1 y_77_ ^ 2 - 2 y_80_ * y_77_ + 1 y_80_ ^ 2 ] >= 24492.6
quadratic_ranged_385_lb: [ 1 x_79_ ^ 2 - 2 x_80_ * x_79_ + 1 x_80_ ^ 2 + 1 y_79_ ^ 2 - 2 y_80_ * y_79_ + 1 y_80_ ^ 2 ] >= 48252.6
quadratic_ranged_386_lb: [ 1 x_17_ ^ 2 - 2 x_81_ * x_17_ + 1 x_81_ ^ 2 + 1 y_17_ ^ 2 - 2 y_81_ * y_17_ + 1 y_81_ ^ 2 ] >= 25763.76
quadratic_ranged_387_lb: [ 1 x_24_ ^ 2 - 2 x_81_ * x_24_ + 1 x_81_ ^ 2 + 1 y_24_ ^ 2 - 2 y_81_ * y_24_ + 1 y_81_ ^ 2 ] >= 5311.35
quadratic_ranged_388_lb: [ 1 x_25_ ^ 2 - 2 x_81_ * x_25_ + 1 x_81_ ^ 2 + 1 y_25_ ^ 2 - 2 y_81_ * y_25_ + 1 y_81_ ^ 2 ] >= 195.03
quadratic_ranged_389_lb: [ 1 x_35_ ^ 2 - 2 x_81_ * x_35_ + 1 x_81_ ^ 2 + 1 y_35_ ^ 2 - 2 y_81_ * y_35_ + 1 y_81_ ^ 2 ] >= 373.23
quadratic_ranged_390_lb: [ 1 x_65_ ^ 2 - 2 x_81_ * x_65_ + 1 x_81_ ^ 2 + 1 y_65_ ^ 2 - 2 y_81_ * y_65_ + 1 y_81_ ^ 2 ] >= 11484
quadratic_ranged_391_lb: [ 1 x_71_ ^ 2 - 2 x_81_ * x_71_ + 1 x_81_ ^ 2 + 1 y_71_ ^ 2 - 2 y_81_ * y_71_ + 1 y_81_ ^ 2 ] >= 11805.75
quadratic_ranged_392_lb: [ 1 x_80_ ^ 2 - 2 x_81_ * x_80_ + 1 x_81_ ^ 2 + 1 y_80_ ^ 2 - 2 y_81_ * y_80_ + 1 y_81_ ^ 2 ] >= 39188.159999999996
quadratic_ranged_393_lb: [ 1 x_2_ ^ 2 - 2 x_82_ * x_2_ + 1 x_82_ ^ 2 + 1 y_2_ ^ 2 - 2 y_82_ * y_2_ + 1 y_82_ ^ 2 ] >= 4741.11
quadratic_ranged_394_lb: [ 1 x_23_ ^ 2 - 2 x_82_ * x_23_ + 1 x_82_ ^ 2 + 1 y_23_ ^ 2 - 2 y_82_ * y_23_ + 1 y_82_ ^ 2 ] >= 17385.39
quadratic_ranged_395_lb: [ 1 x_24_ ^ 2 - 2 x_82_ * x_24_ + 1 x_82_ ^ 2 + 1 y_24_ ^ 2 - 2 y_82_ * y_24_ + 1 y_82_ ^ 2 ] >= 12222.539999999999
quadratic_ranged_396_lb: [ 1 x_27_ ^ 2 - 2 x_82_ * x_27_ + 1 x_82_ ^ 2 + 1 y_27_ ^ 2 - 2 y_82_ * y_27_ + 1 y_82_ ^ 2 ] >= 14862.869999999999
quadratic_ranged_397_lb: [ 1 x_54_ ^ 2 - 2 x_82_ * x_54_ + 1 x_82_ ^ 2 + 1 y_54_ ^ 2 - 2 y_82_ * y_54_ + 1 y_82_ ^ 2 ] >= 20073.24
quadratic_ranged_398_lb: [ 1 x_62_ ^ 2 - 2 x_82_ * x_62_ + 1 x_82_ ^ 2 + 1 y_62_ ^ 2 - 2 y_82_ * y_62_ + 1 y_82_ ^ 2 ] >= 2361.15
quadratic_ranged_399_lb: [ 1 x_72_ ^ 2 - 2 x_82_ * x_72_ + 1 x_82_ ^ 2 + 1 y_72_ ^ 2 - 2 y_82_ * y_72_ + 1 y_82_ ^ 2 ] >= 22145.31
quadratic_ranged_400_lb: [ 1 x_81_ ^ 2 - 2 x_82_ * x_81_ + 1 x_82_ ^ 2 + 1 y_81_ ^ 2 - 2 y_82_ * y_81_ + 1 y_82_ ^ 2 ] >= 20787.03
quadratic_ranged_401_lb: [ 1 x_6_ ^ 2 - 2 x_83_ * x_6_ + 1 x_83_ ^ 2 + 1 y_6_ ^ 2 - 2 y_83_ * y_6_ + 1 y_83_ ^ 2 ] >= 10931.58
quadratic_ranged_402_lb: [ 1 x_30_ ^ 2 - 2 x_83_ * x_30_ + 1 x_83_ ^ 2 + 1 y_30_ ^ 2 - 2 y_83_ * y_30_ + 1 y_83_ ^ 2 ] >= 16122.15
quadratic_ranged_403_lb: [ 1 x_39_ ^ 2 - 2 x_83_ * x_39_ + 1 x_83_ ^ 2 + 1 y_39_ ^ 2 - 2 y_83_ * y_39_ + 1 y_83_ ^ 2 ] >= 14565.869999999999
quadratic_ranged_404_lb: [ 1 x_54_ ^ 2 - 2 x_83_ * x_54_ + 1 x_83_ ^ 2 + 1 y_54_ ^ 2 - 2 y_83_ * y_54_ + 1 y_83_ ^ 2 ] >= 24180.75
quadratic_ranged_405_lb: [ 1 x_56_ ^ 2 - 2 x_83_ * x_56_ + 1 x_83_ ^ 2 + 1 y_56_ ^ 2 - 2 y_83_ * y_56_ + 1 y_83_ ^ 2 ] >= 23985.72
quadratic_ranged_406_lb: [ 1 x_69_ ^ 2 - 2 x_83_ * x_69_ + 1 x_83_ ^ 2 + 1 y_69_ ^ 2 - 2 y_83_ * y_69_ + 1 y_83_ ^ 2 ] >= 1965.15
quadratic_ranged_407_lb: [ 1 x_73_ ^ 2 - 2 x_83_ * x_73_ + 1 x_83_ ^ 2 + 1 y_73_ ^ 2 - 2 y_83_ * y_73_ + 1 y_83_ ^ 2 ] >= 6145.92
quadratic_ranged_408_lb: [ 1 x_74_ ^ 2 - 2 x_83_ * x_74_ + 1 x_83_ ^ 2 + 1 y_74_ ^ 2 - 2 y_83_ * y_74_ + 1 y_83_ ^ 2 ] >= 115.83
quadratic_ranged_409_lb: [ 1 x_82_ ^ 2 - 2 x_83_ * x_82_ + 1 x_83_ ^ 2 + 1 y_82_ ^ 2 - 2 y_83_ * y_82_ + 1 y_83_ ^ 2 ] >= 7596.2699999999995
quadratic_ranged_410_lb: [ 1 x_7_ ^ 2 - 2 x_84_ * x_7_ + 1 x_84_ ^ 2 + 1 y_7_ ^ 2 - 2 y_84_ * y_7_ + 1 y_84_ ^ 2 ] >= 20889.99
quadratic_ranged_411_lb: [ 1 x_12_ ^ 2 - 2 x_84_ * x_12_ + 1 x_84_ ^ 2 + 1 y_12_ ^ 2 - 2 y_84_ * y_12_ + 1 y_84_ ^ 2 ] >= 32822.46
quadratic_ranged_412_lb: [ 1 x_17_ ^ 2 - 2 x_84_ * x_17_ + 1 x_84_ ^ 2 + 1 y_17_ ^ 2 - 2 y_84_ * y_17_ + 1 y_84_ ^ 2 ] >= 26631.989999999998
quadratic_ranged_413_lb: [ 1 x_27_ ^ 2 - 2 x_84_ * x_27_ + 1 x_84_ ^ 2 + 1 y_27_ ^ 2 - 2 y_84_ * y_27_ + 1 y_84_ ^ 2 ] >= 26319.15
quadratic_ranged_414_lb: [ 1 x_37_ ^ 2 - 2 x_84_ * x_37_ + 1 x_84_ ^ 2 + 1 y_37_ ^ 2 - 2 y_84_ * y_37_ + 1 y_84_ ^ 2 ] >= 4448.07
quadratic_ranged_415_lb: [ 1 x_39_ ^ 2 - 2 x_84_ * x_39_ + 1 x_84_ ^ 2 + 1 y_39_ ^ 2 - 2 y_84_ * y_39_ + 1 y_84_ ^ 2 ] >= 24908.4
quadratic_ranged_416_lb: [ 1 x_42_ ^ 2 - 2 x_84_ * x_42_ + 1 x_84_ ^ 2 + 1 y_42_ ^ 2 - 2 y_84_ * y_42_ + 1 y_84_ ^ 2 ] >= 19897.02
quadratic_ranged_417_lb: [ 1 x_60_ ^ 2 - 2 x_84_ * x_60_ + 1 x_84_ ^ 2 + 1 y_60_ ^ 2 - 2 y_84_ * y_60_ + 1 y_84_ ^ 2 ] >= 2103.75
quadratic_ranged_418_lb: [ 1 x_83_ ^ 2 - 2 x_84_ * x_83_ + 1 x_84_ ^ 2 + 1 y_83_ ^ 2 - 2 y_84_ * y_83_ + 1 y_84_ ^ 2 ] >= 3759.0299999999997
quadratic_ranged_419_lb: [ 1 x_1_ ^ 2 - 2 x_85_ * x_1_ + 1 x_85_ ^ 2 + 1 y_1_ ^ 2 - 2 y_85_ * y_1_ + 1 y_85_ ^ 2 ] >= 35042.04
quadratic_ranged_420_lb: [ 1 x_4_ ^ 2 - 2 x_85_ * x_4_ + 1 x_85_ ^ 2 + 1 y_4_ ^ 2 - 2 y_85_ * y_4_ + 1 y_85_ ^ 2 ] >= 13165.02
quadratic_ranged_421_lb: [ 1 x_43_ ^ 2 - 2 x_85_ * x_43_ + 1 x_85_ ^ 2 + 1 y_43_ ^ 2 - 2 y_85_ * y_43_ + 1 y_85_ ^ 2 ] >= 16428.06
quadratic_ranged_422_lb: [ 1 x_50_ ^ 2 - 2 x_85_ * x_50_ + 1 x_85_ ^ 2 + 1 y_50_ ^ 2 - 2 y_85_ * y_50_ + 1 y_85_ ^ 2 ] >= 3002.67
quadratic_ranged_423_lb: [ 1 x_63_ ^ 2 - 2 x_85_ * x_63_ + 1 x_85_ ^ 2 + 1 y_63_ ^ 2 - 2 y_85_ * y_63_ + 1 y_85_ ^ 2 ] >= 3564
quadratic_ranged_424_lb: [ 1 x_70_ ^ 2 - 2 x_85_ * x_70_ + 1 x_85_ ^ 2 + 1 y_70_ ^ 2 - 2 y_85_ * y_70_ + 1 y_85_ ^ 2 ] >= 14078.789999999999
quadratic_ranged_425_lb: [ 1 x_76_ ^ 2 - 2 x_85_ * x_76_ + 1 x_85_ ^ 2 + 1 y_76_ ^ 2 - 2 y_85_ * y_76_ + 1 y_85_ ^ 2 ] >= 20676.15
quadratic_ranged_426_lb: [ 1 x_77_ ^ 2 - 2 x_85_ * x_77_ + 1 x_85_ ^ 2 + 1 y_77_ ^ 2 - 2 y_85_ * y_77_ + 1 y_85_ ^ 2 ] >= 1728.54
quadratic_ranged_427_lb: [ 1 x_84_ ^ 2 - 2 x_85_ * x_84_ + 1 x_85_ ^ 2 + 1 y_84_ ^ 2 - 2 y_85_ * y_84_ + 1 y_85_ ^ 2 ] >= 14304.51
quadratic_ranged_428_lb: [ 1 x_1_ ^ 2 - 2 x_86_ * x_1_ + 1 x_86_ ^ 2 + 1 y_1_ ^ 2 - 2 y_86_ * y_1_ + 1 y_86_ ^ 2 ] >= 2574
quadratic_ranged_429_lb: [ 1 x_17_ ^ 2 - 2 x_86_ * x_17_ + 1 x_86_ ^ 2 + 1 y_17_ ^ 2 - 2 y_86_ * y_17_ + 1 y_86_ ^ 2 ] >= 10393.02
quadratic_ranged_430_lb: [ 1 x_28_ ^ 2 - 2 x_86_ * x_28_ + 1 x_86_ ^ 2 + 1 y_28_ ^ 2 - 2 y_86_ * y_28_ + 1 y_86_ ^ 2 ] >= 43327.35
quadratic_ranged_431_lb: [ 1 x_38_ ^ 2 - 2 x_86_ * x_38_ + 1 x_86_ ^ 2 + 1 y_38_ ^ 2 - 2 y_86_ * y_38_ + 1 y_86_ ^ 2 ] >= 18920.88
quadratic_ranged_432_lb: [ 1 x_45_ ^ 2 - 2 x_86_ * x_45_ + 1 x_86_ ^ 2 + 1 y_45_ ^ 2 - 2 y_86_ * y_45_ + 1 y_86_ ^ 2 ] >= 10177.2
quadratic_ranged_433_lb: [ 1 x_76_ ^ 2 - 2 x_86_ * x_76_ + 1 x_86_ ^ 2 + 1 y_76_ ^ 2 - 2 y_86_ * y_76_ + 1 y_86_ ^ 2 ] >= 183.15
quadratic_ranged_434_lb: [ 1 x_85_ ^ 2 - 2 x_86_ * x_85_ + 1 x_86_ ^ 2 + 1 y_85_ ^ 2 - 2 y_86_ * y_85_ + 1 y_86_ ^ 2 ] >= 19566.36
quadratic_ranged_435_lb: [ 1 x_6_ ^ 2 - 2 x_87_ * x_6_ + 1 x_87_ ^ 2 + 1 y_6_ ^ 2 - 2 y_87_ * y_6_ + 1 y_87_ ^ 2 ] >= 1999.8
quadratic_ranged_436_lb: [ 1 x_14_ ^ 2 - 2 x_87_ * x_14_ + 1 x_87_ ^ 2 + 1 y_14_ ^ 2 - 2 y_87_ * y_14_ + 1 y_87_ ^ 2 ] >= 2151.27
quadratic_ranged_437_lb: [ 1 x_23_ ^ 2 - 2 x_87_ * x_23_ + 1 x_87_ ^ 2 + 1 y_23_ ^ 2 - 2 y_87_ * y_23_ + 1 y_87_ ^ 2 ] >= 25676.64
quadratic_ranged_438_lb: [ 1 x_24_ ^ 2 - 2 x_87_ * x_24_ + 1 x_87_ ^ 2 + 1 y_24_ ^ 2 - 2 y_87_ * y_24_ + 1 y_87_ ^ 2 ] >= 8594.19
quadratic_ranged_439_lb: [ 1 x_31_ ^ 2 - 2 x_87_ * x_31_ + 1 x_87_ ^ 2 + 1 y_31_ ^ 2 - 2 y_87_ * y_31_ + 1 y_87_ ^ 2 ] >= 6799.32
quadratic_ranged_440_lb: [ 1 x_46_ ^ 2 - 2 x_87_ * x_46_ + 1 x_87_ ^ 2 + 1 y_46_ ^ 2 - 2 y_87_ * y_46_ + 1 y_87_ ^ 2 ] >= 650.43
quadratic_ranged_441_lb: [ 1 x_55_ ^ 2 - 2 x_87_ * x_55_ + 1 x_87_ ^ 2 + 1 y_55_ ^ 2 - 2 y_87_ * y_55_ + 1 y_87_ ^ 2 ] >= 295.02
quadratic_ranged_442_lb: [ 1 x_59_ ^ 2 - 2 x_87_ * x_59_ + 1 x_87_ ^ 2 + 1 y_59_ ^ 2 - 2 y_87_ * y_59_ + 1 y_87_ ^ 2 ] >= 25161.84
quadratic_ranged_443_lb: [ 1 x_61_ ^ 2 - 2 x_87_ * x_61_ + 1 x_87_ ^ 2 + 1 y_61_ ^ 2 - 2 y_87_ * y_61_ + 1 y_87_ ^ 2 ] >= 9761.4
quadratic_ranged_444_lb: [ 1 x_70_ ^ 2 - 2 x_87_ * x_70_ + 1 x_87_ ^ 2 + 1 y_70_ ^ 2 - 2 y_87_ * y_70_ + 1 y_87_ ^ 2 ] >= 29190.15
quadratic_ranged_445_lb: [ 1 x_74_ ^ 2 - 2 x_87_ * x_74_ + 1 x_87_ ^ 2 + 1 y_74_ ^ 2 - 2 y_87_ * y_74_ + 1 y_87_ ^ 2 ] >= 5073.75
quadratic_ranged_446_lb: [ 1 x_75_ ^ 2 - 2 x_87_ * x_75_ + 1 x_87_ ^ 2 + 1 y_75_ ^ 2 - 2 y_87_ * y_75_ + 1 y_87_ ^ 2 ] >= 1200.87
quadratic_ranged_447_lb: [ 1 x_77_ ^ 2 - 2 x_87_ * x_77_ + 1 x_87_ ^ 2 + 1 y_77_ ^ 2 - 2 y_87_ * y_77_ + 1 y_87_ ^ 2 ] >= 21766.14
quadratic_ranged_448_lb: [ 1 x_83_ ^ 2 - 2 x_87_ * x_83_ + 1 x_87_ ^ 2 + 1 y_83_ ^ 2 - 2 y_87_ * y_83_ + 1 y_87_ ^ 2 ] >= 6710.22
quadratic_ranged_449_lb: [ 1 x_86_ ^ 2 - 2 x_87_ * x_86_ + 1 x_87_ ^ 2 + 1 y_86_ ^ 2 - 2 y_87_ * y_86_ + 1 y_87_ ^ 2 ] >= 8632.8
quadratic_ranged_450_lb: [ 1 x_3_ ^ 2 - 2 x_88_ * x_3_ + 1 x_88_ ^ 2 + 1 y_3_ ^ 2 - 2 y_88_ * y_3_ + 1 y_88_ ^ 2 ] >= 115.83
quadratic_ranged_451_lb: [ 1 x_13_ ^ 2 - 2 x_88_ * x_13_ + 1 x_88_ ^ 2 + 1 y_13_ ^ 2 - 2 y_88_ * y_13_ + 1 y_88_ ^ 2 ] >= 24529.23
quadratic_ranged_452_lb: [ 1 x_18_ ^ 2 - 2 x_88_ * x_18_ + 1 x_88_ ^ 2 + 1 y_18_ ^ 2 - 2 y_88_ * y_18_ + 1 y_88_ ^ 2 ] >= 836.55
quadratic_ranged_453_lb: [ 1 x_29_ ^ 2 - 2 x_88_ * x_29_ + 1 x_88_ ^ 2 + 1 y_29_ ^ 2 - 2 y_88_ * y_29_ + 1 y_88_ ^ 2 ] >= 7814.07
quadratic_ranged_454_lb: [ 1 x_30_ ^ 2 - 2 x_88_ * x_30_ + 1 x_88_ ^ 2 + 1 y_30_ ^ 2 - 2 y_88_ * y_30_ + 1 y_88_ ^ 2 ] >= 39953.43
quadratic_ranged_455_lb: [ 1 x_43_ ^ 2 - 2 x_88_ * x_43_ + 1 x_88_ ^ 2 + 1 y_43_ ^ 2 - 2 y_88_ * y_43_ + 1 y_88_ ^ 2 ] >= 1641.42
quadratic_ranged_456_lb: [ 1 x_44_ ^ 2 - 2 x_88_ * x_44_ + 1 x_88_ ^ 2 + 1 y_44_ ^ 2 - 2 y_88_ * y_44_ + 1 y_88_ ^ 2 ] >= 14893.56
quadratic_ranged_457_lb: [ 1 x_46_ ^ 2 - 2 x_88_ * x_46_ + 1 x_88_ ^ 2 + 1 y_46_ ^ 2 - 2 y_88_ * y_46_ + 1 y_88_ ^ 2 ] >= 8427.87
quadratic_ranged_458_lb: [ 1 x_55_ ^ 2 - 2 x_88_ * x_55_ + 1 x_88_ ^ 2 + 1 y_55_ ^ 2 - 2 y_88_ * y_55_ + 1 y_88_ ^ 2 ] >= 14242.14
quadratic_ranged_459_lb: [ 1 x_60_ ^ 2 - 2 x_88_ * x_60_ + 1 x_88_ ^ 2 + 1 y_60_ ^ 2 - 2 y_88_ * y_60_ + 1 y_88_ ^ 2 ] >= 2680.92
quadratic_ranged_460_lb: [ 1 x_62_ ^ 2 - 2 x_88_ * x_62_ + 1 x_88_ ^ 2 + 1 y_62_ ^ 2 - 2 y_88_ * y_62_ + 1 y_88_ ^ 2 ] >= 7860.6
quadratic_ranged_461_lb: [ 1 x_78_ ^ 2 - 2 x_88_ * x_78_ + 1 x_88_ ^ 2 + 1 y_78_ ^ 2 - 2 y_88_ * y_78_ + 1 y_88_ ^ 2 ] >= 12478.95
quadratic_ranged_462_lb: [ 1 x_79_ ^ 2 - 2 x_88_ * x_79_ + 1 x_88_ ^ 2 + 1 y_79_ ^ 2 - 2 y_88_ * y_79_ + 1 y_88_ ^ 2 ] >= 12222.539999999999
quadratic_ranged_463_lb: [ 1 x_87_ ^ 2 - 2 x_88_ * x_87_ + 1 x_88_ ^ 2 + 1 y_87_ ^ 2 - 2 y_88_ * y_87_ + 1 y_88_ ^ 2 ] >= 13325.4
quadratic_ranged_464_lb: [ 1 x_12_ ^ 2 - 2 x_89_ * x_12_ + 1 x_89_ ^ 2 + 1 y_12_ ^ 2 - 2 y_89_ * y_12_ + 1 y_89_ ^ 2 ] >= 17115.12
quadratic_ranged_465_lb: [ 1 x_20_ ^ 2 - 2 x_89_ * x_20_ + 1 x_89_ ^ 2 + 1 y_20_ ^ 2 - 2 y_89_ * y_20_ + 1 y_89_ ^ 2 ] >= 6678.54
quadratic_ranged_466_lb: [ 1 x_47_ ^ 2 - 2 x_89_ * x_47_ + 1 x_89_ ^ 2 + 1 y_47_ ^ 2 - 2 y_89_ * y_47_ + 1 y_89_ ^ 2 ] >= 14360.94
quadratic_ranged_467_lb: [ 1 x_66_ ^ 2 - 2 x_89_ * x_66_ + 1 x_89_ ^ 2 + 1 y_66_ ^ 2 - 2 y_89_ * y_66_ + 1 y_89_ ^ 2 ] >= 22869.99
quadratic_ranged_468_lb: [ 1 x_71_ ^ 2 - 2 x_89_ * x_71_ + 1 x_89_ ^ 2 + 1 y_71_ ^ 2 - 2 y_89_ * y_71_ + 1 y_89_ ^ 2 ] >= 3138.3
quadratic_ranged_469_lb: [ 1 x_86_ ^ 2 - 2 x_89_ * x_86_ + 1 x_89_ ^ 2 + 1 y_86_ ^ 2 - 2 y_89_ * y_86_ + 1 y_89_ ^ 2 ] >= 5267.79
quadratic_ranged_470_lb: [ 1 x_88_ ^ 2 - 2 x_89_ * x_88_ + 1 x_89_ ^ 2 + 1 y_88_ ^ 2 - 2 y_89_ * y_88_ + 1 y_89_ ^ 2 ] >= 9469.35
quadratic_ranged_471_lb: [ 1 x_10_ ^ 2 - 2 x_90_ * x_10_ + 1 x_90_ ^ 2 + 1 y_10_ ^ 2 - 2 y_90_ * y_10_ + 1 y_90_ ^ 2 ] >= 3526.38
quadratic_ranged_472_lb: [ 1 x_13_ ^ 2 - 2 x_90_ * x_13_ + 1 x_90_ ^ 2 + 1 y_13_ ^ 2 - 2 y_90_ * y_13_ + 1 y_90_ ^ 2 ] >= 32032.44
quadratic_ranged_473_lb: [ 1 x_18_ ^ 2 - 2 x_90_ * x_18_ + 1 x_90_ ^ 2 + 1 y_18_ ^ 2 - 2 y_90_ * y_18_ + 1 y_90_ ^ 2 ] >= 34947
quadratic_ranged_474_lb: [ 1 x_27_ ^ 2 - 2 x_90_ * x_27_ + 1 x_90_ ^ 2 + 1 y_27_ ^ 2 - 2 y_90_ * y_27_ + 1 y_90_ ^ 2 ] >= 17706.15
quadratic_ranged_475_lb: [ 1 x_34_ ^ 2 - 2 x_90_ * x_34_ + 1 x_90_ ^ 2 + 1 y_34_ ^ 2 - 2 y_90_ * y_34_ + 1 y_90_ ^ 2 ] >= 26631
quadratic_ranged_476_lb: [ 1 x_43_ ^ 2 - 2 x_90_ * x_43_ + 1 x_90_ ^ 2 + 1 y_43_ ^ 2 - 2 y_90_ * y_43_ + 1 y_90_ ^ 2 ] >= 18854.55
quadratic_ranged_477_lb: [ 1 x_57_ ^ 2 - 2 x_90_ * x_57_ + 1 x_90_ ^ 2 + 1 y_57_ ^ 2 - 2 y_90_ * y_57_ + 1 y_90_ ^ 2 ] >= 84.15
quadratic_ranged_478_lb: [ 1 x_60_ ^ 2 - 2 x_90_ * x_60_ + 1 x_90_ ^ 2 + 1 y_60_ ^ 2 - 2 y_90_ * y_60_ + 1 y_90_ ^ 2 ] >= 11647.35
quadratic_ranged_479_lb: [ 1 x_72_ ^ 2 - 2 x_90_ * x_72_ + 1 x_90_ ^ 2 + 1 y_72_ ^ 2 - 2 y_90_ * y_72_ + 1 y_90_ ^ 2 ] >= 1608.75
quadratic_ranged_480_lb: [ 1 x_89_ ^ 2 - 2 x_90_ * x_89_ + 1 x_90_ ^ 2 + 1 y_89_ ^ 2 - 2 y_90_ * y_89_ + 1 y_90_ ^ 2 ] >= 6393.42
quadratic_ranged_481_lb: [ 1 x_2_ ^ 2 - 2 x_91_ * x_2_ + 1 x_91_ ^ 2 + 1 y_2_ ^ 2 - 2 y_91_ * y_2_ + 1 y_91_ ^ 2 ] >= 25855.829999999998
quadratic_ranged_482_lb: [ 1 x_3_ ^ 2 - 2 x_91_ * x_3_ + 1 x_91_ ^ 2 + 1 y_3_ ^ 2 - 2 y_91_ * y_3_ + 1 y_91_ ^ 2 ] >= 27611.1
quadratic_ranged_483_lb: [ 1 x_8_ ^ 2 - 2 x_91_ * x_8_ + 1 x_91_ ^ 2 + 1 y_8_ ^ 2 - 2 y_91_ * y_8_ + 1 y_91_ ^ 2 ] >= 3723.39
quadratic_ranged_484_lb: [ 1 x_11_ ^ 2 - 2 x_91_ * x_11_ + 1 x_91_ ^ 2 + 1 y_11_ ^ 2 - 2 y_91_ * y_11_ + 1 y_91_ ^ 2 ] >= 8938.71
quadratic_ranged_485_lb: [ 1 x_29_ ^ 2 - 2 x_91_ * x_29_ + 1 x_91_ ^ 2 + 1 y_29_ ^ 2 - 2 y_91_ * y_29_ + 1 y_91_ ^ 2 ] >= 8864.46
quadratic_ranged_486_lb: [ 1 x_40_ ^ 2 - 2 x_91_ * x_40_ + 1 x_91_ ^ 2 + 1 y_40_ ^ 2 - 2 y_91_ * y_40_ + 1 y_91_ ^ 2 ] >= 3465.99
quadratic_ranged_487_lb: [ 1 x_57_ ^ 2 - 2 x_91_ * x_57_ + 1 x_91_ ^ 2 + 1 y_57_ ^ 2 - 2 y_91_ * y_57_ + 1 y_91_ ^ 2 ] >= 4697.55
quadratic_ranged_488_lb: [ 1 x_78_ ^ 2 - 2 x_91_ * x_78_ + 1 x_91_ ^ 2 + 1 y_78_ ^ 2 - 2 y_91_ * y_78_ + 1 y_91_ ^ 2 ] >= 11689.92
quadratic_ranged_489_lb: [ 1 x_86_ ^ 2 - 2 x_91_ * x_86_ + 1 x_91_ ^ 2 + 1 y_86_ ^ 2 - 2 y_91_ * y_86_ + 1 y_91_ ^ 2 ] >= 21210.75
quadratic_ranged_490_lb: [ 1 x_90_ ^ 2 - 2 x_91_ * x_90_ + 1 x_91_ ^ 2 + 1 y_90_ ^ 2 - 2 y_91_ * y_90_ + 1 y_91_ ^ 2 ] >= 3613.5
quadratic_ranged_491_lb: [ 1 x_9_ ^ 2 - 2 x_92_ * x_9_ + 1 x_92_ ^ 2 + 1 y_9_ ^ 2 - 2 y_92_ * y_9_ + 1 y_92_ ^ 2 ] >= 56969.55
quadratic_ranged_492_lb: [ 1 x_14_ ^ 2 - 2 x_92_ * x_14_ + 1 x_92_ ^ 2 + 1 y_14_ ^ 2 - 2 y_92_ * y_14_ + 1 y_92_ ^ 2 ] >= 26821.079999999998
quadratic_ranged_493_lb: [ 1 x_20_ ^ 2 - 2 x_92_ * x_20_ + 1 x_92_ ^ 2 + 1 y_20_ ^ 2 - 2 y_92_ * y_20_ + 1 y_92_ ^ 2 ] >= 572.22
quadratic_ranged_494_lb: [ 1 x_25_ ^ 2 - 2 x_92_ * x_25_ + 1 x_92_ ^ 2 + 1 y_25_ ^ 2 - 2 y_92_ * y_25_ + 1 y_92_ ^ 2 ] >= 5702.4
quadratic_ranged_495_lb: [ 1 x_29_ ^ 2 - 2 x_92_ * x_29_ + 1 x_92_ ^ 2 + 1 y_29_ ^ 2 - 2 y_92_ * y_29_ + 1 y_92_ ^ 2 ] >= 6005.34
quadratic_ranged_496_lb: [ 1 x_31_ ^ 2 - 2 x_92_ * x_31_ + 1 x_92_ ^ 2 + 1 y_31_ ^ 2 - 2 y_92_ * y_31_ + 1 y_92_ ^ 2 ] >= 32021.55
quadratic_ranged_497_lb: [ 1 x_35_ ^ 2 - 2 x_92_ * x_35_ + 1 x_92_ ^ 2 + 1 y_35_ ^ 2 - 2 y_92_ * y_35_ + 1 y_92_ ^ 2 ] >= 8278.38
quadratic_ranged_498_lb: [ 1 x_36_ ^ 2 - 2 x_92_ * x_36_ + 1 x_92_ ^ 2 + 1 y_36_ ^ 2 - 2 y_92_ * y_36_ + 1 y_92_ ^ 2 ] >= 53290.71
quadratic_ranged_499_lb: [ 1 x_37_ ^ 2 - 2 x_92_ * x_37_ + 1 x_92_ ^ 2 + 1 y_37_ ^ 2 - 2 y_92_ * y_37_ + 1 y_92_ ^ 2 ] >= 17417.07
quadratic_ranged_500_lb: [ 1 x_57_ ^ 2 - 2 x_92_ * x_57_ + 1 x_92_ ^ 2 + 1 y_57_ ^ 2 - 2 y_92_ * y_57_ + 1 y_92_ ^ 2 ] >= 971.1899999999999
quadratic_ranged_501_lb: [ 1 x_62_ ^ 2 - 2 x_92_ * x_62_ + 1 x_92_ ^ 2 + 1 y_62_ ^ 2 - 2 y_92_ * y_62_ + 1 y_92_ ^ 2 ] >= 29883.15
quadratic_ranged_502_lb: [ 1 x_67_ ^ 2 - 2 x_92_ * x_67_ + 1 x_92_ ^ 2 + 1 y_67_ ^ 2 - 2 y_92_ * y_67_ + 1 y_92_ ^ 2 ] >= 14993.55
quadratic_ranged_503_lb: [ 1 x_75_ ^ 2 - 2 x_92_ * x_75_ + 1 x_92_ ^ 2 + 1 y_75_ ^ 2 - 2 y_92_ * y_75_ + 1 y_92_ ^ 2 ] >= 41065.2
quadratic_ranged_504_lb: [ 1 x_85_ ^ 2 - 2 x_92_ * x_85_ + 1 x_92_ ^ 2 + 1 y_85_ ^ 2 - 2 y_92_ * y_85_ + 1 y_92_ ^ 2 ] >= 21373.11
quadratic_ranged_505_lb: [ 1 x_91_ ^ 2 - 2 x_92_ * x_91_ + 1 x_92_ ^ 2 + 1 y_91_ ^ 2 - 2 y_92_ * y_91_ + 1 y_92_ ^ 2 ] >= 9903.96
quadratic_ranged_506_lb: [ 1 x_6_ ^ 2 - 2 x_93_ * x_6_ + 1 x_93_ ^ 2 + 1 y_6_ ^ 2 - 2 y_93_ * y_6_ + 1 y_93_ ^ 2 ] >= 5221.26
quadratic_ranged_507_lb: [ 1 x_20_ ^ 2 - 2 x_93_ * x_20_ + 1 x_93_ ^ 2 + 1 y_20_ ^ 2 - 2 y_93_ * y_20_ + 1 y_93_ ^ 2 ] >= 14478.75
quadratic_ranged_508_lb: [ 1 x_22_ ^ 2 - 2 x_93_ * x_22_ + 1 x_93_ ^ 2 + 1 y_22_ ^ 2 - 2 y_93_ * y_22_ + 1 y_93_ ^ 2 ] >= 5944.95
quadratic_ranged_509_lb: [ 1 x_24_ ^ 2 - 2 x_93_ * x_24_ + 1 x_93_ ^ 2 + 1 y_24_ ^ 2 - 2 y_93_ * y_24_ + 1 y_93_ ^ 2 ] >= 10669.23
quadratic_ranged_510_lb: [ 1 x_63_ ^ 2 - 2 x_93_ * x_63_ + 1 x_93_ ^ 2 + 1 y_63_ ^ 2 - 2 y_93_ * y_63_ + 1 y_93_ ^ 2 ] >= 8674.38
quadratic_ranged_511_lb: [ 1 x_73_ ^ 2 - 2 x_93_ * x_73_ + 1 x_93_ ^ 2 + 1 y_73_ ^ 2 - 2 y_93_ * y_73_ + 1 y_93_ ^ 2 ] >= 3817.44
quadratic_ranged_512_lb: [ 1 x_84_ ^ 2 - 2 x_93_ * x_84_ + 1 x_93_ ^ 2 + 1 y_84_ ^ 2 - 2 y_93_ * y_84_ + 1 y_93_ ^ 2 ] >= 9635.67
quadratic_ranged_513_lb: [ 1 x_85_ ^ 2 - 2 x_93_ * x_85_ + 1 x_93_ ^ 2 + 1 y_85_ ^ 2 - 2 y_93_ * y_85_ + 1 y_93_ ^ 2 ] >= 1142.46
quadratic_ranged_514_lb: [ 1 x_92_ ^ 2 - 2 x_93_ * x_92_ + 1 x_93_ ^ 2 + 1 y_92_ ^ 2 - 2 y_93_ * y_92_ + 1 y_93_ ^ 2 ] >= 19238.67
quadratic_ranged_515_lb: [ 1 x_4_ ^ 2 - 2 x_94_ * x_4_ + 1 x_94_ ^ 2 + 1 y_4_ ^ 2 - 2 y_94_ * y_4_ + 1 y_94_ ^ 2 ] >= 9680.22
quadratic_ranged_516_lb: [ 1 x_31_ ^ 2 - 2 x_94_ * x_31_ + 1 x_94_ ^ 2 + 1 y_31_ ^ 2 - 2 y_94_ * y_31_ + 1 y_94_ ^ 2 ] >= 9155.52
quadratic_ranged_517_lb: [ 1 x_72_ ^ 2 - 2 x_94_ * x_72_ + 1 x_94_ ^ 2 + 1 y_72_ ^ 2 - 2 y_94_ * y_72_ + 1 y_94_ ^ 2 ] >= 6850.8
quadratic_ranged_518_lb: [ 1 x_75_ ^ 2 - 2 x_94_ * x_75_ + 1 x_94_ ^ 2 + 1 y_75_ ^ 2 - 2 y_94_ * y_75_ + 1 y_94_ ^ 2 ] >= 9825.75
quadratic_ranged_519_lb: [ 1 x_83_ ^ 2 - 2 x_94_ * x_83_ + 1 x_94_ ^ 2 + 1 y_83_ ^ 2 - 2 y_94_ * y_83_ + 1 y_94_ ^ 2 ] >= 801.9
quadratic_ranged_520_lb: [ 1 x_87_ ^ 2 - 2 x_94_ * x_87_ + 1 x_94_ ^ 2 + 1 y_87_ ^ 2 - 2 y_94_ * y_87_ + 1 y_94_ ^ 2 ] >= 9222.84
quadratic_ranged_521_lb: [ 1 x_92_ ^ 2 - 2 x_94_ * x_92_ + 1 x_94_ ^ 2 + 1 y_92_ ^ 2 - 2 y_94_ * y_92_ + 1 y_94_ ^ 2 ] >= 11168.19
quadratic_ranged_522_lb: [ 1 x_93_ ^ 2 - 2 x_94_ * x_93_ + 1 x_94_ ^ 2 + 1 y_93_ ^ 2 - 2 y_94_ * y_93_ + 1 y_94_ ^ 2 ] >= 2187.9
quadratic_ranged_523_lb: [ 1 x_2_ ^ 2 - 2 x_95_ * x_2_ + 1 x_95_ ^ 2 + 1 y_2_ ^ 2 - 2 y_95_ * y_2_ + 1 y_95_ ^ 2 ] >= 4613.4
quadratic_ranged_524_lb: [ 1 x_39_ ^ 2 - 2 x_95_ * x_39_ + 1 x_95_ ^ 2 + 1 y_39_ ^ 2 - 2 y_95_ * y_39_ + 1 y_95_ ^ 2 ] >= 11983.95
quadratic_ranged_525_lb: [ 1 x_61_ ^ 2 - 2 x_95_ * x_61_ + 1 x_95_ ^ 2 + 1 y_61_ ^ 2 - 2 y_95_ * y_61_ + 1 y_95_ ^ 2 ] >= 18495.18
quadratic_ranged_526_lb: [ 1 x_64_ ^ 2 - 2 x_95_ * x_64_ + 1 x_95_ ^ 2 + 1 y_64_ ^ 2 - 2 y_95_ * y_64_ + 1 y_95_ ^ 2 ] >= 23325.39
quadratic_ranged_527_lb: [ 1 x_94_ ^ 2 - 2 x_95_ * x_94_ + 1 x_95_ ^ 2 + 1 y_94_ ^ 2 - 2 y_95_ * y_94_ + 1 y_95_ ^ 2 ] >= 17996.22
quadratic_ranged_528_lb: [ 1 x_8_ ^ 2 - 2 x_96_ * x_8_ + 1 x_96_ ^ 2 + 1 y_8_ ^ 2 - 2 y_96_ * y_8_ + 1 y_96_ ^ 2 ] >= 14307.48
quadratic_ranged_529_lb: [ 1 x_14_ ^ 2 - 2 x_96_ * x_14_ + 1 x_96_ ^ 2 + 1 y_14_ ^ 2 - 2 y_96_ * y_14_ + 1 y_96_ ^ 2 ] >= 6748.83
quadratic_ranged_530_lb: [ 1 x_15_ ^ 2 - 2 x_96_ * x_15_ + 1 x_96_ ^ 2 + 1 y_15_ ^ 2 - 2 y_96_ * y_15_ + 1 y_96_ ^ 2 ] >= 1505.79
quadratic_ranged_531_lb: [ 1 x_23_ ^ 2 - 2 x_96_ * x_23_ + 1 x_96_ ^ 2 + 1 y_23_ ^ 2 - 2 y_96_ * y_23_ + 1 y_96_ ^ 2 ] >= 23482.8
quadratic_ranged_532_lb: [ 1 x_32_ ^ 2 - 2 x_96_ * x_32_ + 1 x_96_ ^ 2 + 1 y_32_ ^ 2 - 2 y_96_ * y_32_ + 1 y_96_ ^ 2 ] >= 25829.1
quadratic_ranged_533_lb: [ 1 x_45_ ^ 2 - 2 x_96_ * x_45_ + 1 x_96_ ^ 2 + 1 y_45_ ^ 2 - 2 y_96_ * y_45_ + 1 y_96_ ^ 2 ] >= 2597.7599999999998
quadratic_ranged_534_lb: [ 1 x_47_ ^ 2 - 2 x_96_ * x_47_ + 1 x_96_ ^ 2 + 1 y_47_ ^ 2 - 2 y_96_ * y_47_ + 1 y_96_ ^ 2 ] >= 2004.75
quadratic_ranged_535_lb: [ 1 x_48_ ^ 2 - 2 x_96_ * x_48_ + 1 x_96_ ^ 2 + 1 y_48_ ^ 2 - 2 y_96_ * y_48_ + 1 y_96_ ^ 2 ] >= 2503.71
quadratic_ranged_536_lb: [ 1 x_50_ ^ 2 - 2 x_96_ * x_50_ + 1 x_96_ ^ 2 + 1 y_50_ ^ 2 - 2 y_96_ * y_50_ + 1 y_96_ ^ 2 ] >= 17658.63
quadratic_ranged_537_lb: [ 1 x_59_ ^ 2 - 2 x_96_ * x_59_ + 1 x_96_ ^ 2 + 1 y_59_ ^ 2 - 2 y_96_ * y_59_ + 1 y_96_ ^ 2 ] >= 30064.32
quadratic_ranged_538_lb: [ 1 x_62_ ^ 2 - 2 x_96_ * x_62_ + 1 x_96_ ^ 2 + 1 y_62_ ^ 2 - 2 y_96_ * y_62_ + 1 y_96_ ^ 2 ] >= 4506.48
quadratic_ranged_539_lb: [ 1 x_72_ ^ 2 - 2 x_96_ * x_72_ + 1 x_96_ ^ 2 + 1 y_72_ ^ 2 - 2 y_96_ * y_72_ + 1 y_96_ ^ 2 ] >= 31367.16
quadratic_ranged_540_lb: [ 1 x_79_ ^ 2 - 2 x_96_ * x_79_ + 1 x_96_ ^ 2 + 1 y_79_ ^ 2 - 2 y_96_ * y_79_ + 1 y_96_ ^ 2 ] >= 37225.98
quadratic_ranged_541_lb: [ 1 x_83_ ^ 2 - 2 x_96_ * x_83_ + 1 x_96_ ^ 2 + 1 y_83_ ^ 2 - 2 y_96_ * y_83_ + 1 y_96_ ^ 2 ] >= 12673.98
quadratic_ranged_542_lb: [ 1 x_95_ ^ 2 - 2 x_96_ * x_95_ + 1 x_96_ ^ 2 + 1 y_95_ ^ 2 - 2 y_96_ * y_95_ + 1 y_96_ ^ 2 ] >= 643.5
quadratic_ranged_543_lb: [ 1 x_1_ ^ 2 - 2 x_97_ * x_1_ + 1 x_97_ ^ 2 + 1 y_1_ ^ 2 - 2 y_97_ * y_1_ + 1 y_97_ ^ 2 ] >= 26695.35
quadratic_ranged_544_lb: [ 1 x_14_ ^ 2 - 2 x_97_ * x_14_ + 1 x_97_ ^ 2 + 1 y_14_ ^ 2 - 2 y_97_ * y_14_ + 1 y_97_ ^ 2 ] >= 6900.3
quadratic_ranged_545_lb: [ 1 x_15_ ^ 2 - 2 x_97_ * x_15_ + 1 x_97_ ^ 2 + 1 y_15_ ^ 2 - 2 y_97_ * y_15_ + 1 y_97_ ^ 2 ] >= 1528.56
quadratic_ranged_546_lb: [ 1 x_17_ ^ 2 - 2 x_97_ * x_17_ + 1 x_97_ ^ 2 + 1 y_17_ ^ 2 - 2 y_97_ * y_17_ + 1 y_97_ ^ 2 ] >= 4392.63
quadratic_ranged_547_lb: [ 1 x_39_ ^ 2 - 2 x_97_ * x_39_ + 1 x_97_ ^ 2 + 1 y_39_ ^ 2 - 2 y_97_ * y_39_ + 1 y_97_ ^ 2 ] >= 3524.4
quadratic_ranged_548_lb: [ 1 x_58_ ^ 2 - 2 x_97_ * x_58_ + 1 x_97_ ^ 2 + 1 y_58_ ^ 2 - 2 y_97_ * y_58_ + 1 y_97_ ^ 2 ] >= 17694.27
quadratic_ranged_549_lb: [ 1 x_60_ ^ 2 - 2 x_97_ * x_60_ + 1 x_97_ ^ 2 + 1 y_60_ ^ 2 - 2 y_97_ * y_60_ + 1 y_97_ ^ 2 ] >= 24200.55
quadratic_ranged_550_lb: [ 1 x_63_ ^ 2 - 2 x_97_ * x_63_ + 1 x_97_ ^ 2 + 1 y_63_ ^ 2 - 2 y_97_ * y_63_ + 1 y_97_ ^ 2 ] >= 13662.99
quadratic_ranged_551_lb: [ 1 x_65_ ^ 2 - 2 x_97_ * x_65_ + 1 x_97_ ^ 2 + 1 y_65_ ^ 2 - 2 y_97_ * y_65_ + 1 y_97_ ^ 2 ] >= 2947.23
quadratic_ranged_552_lb: [ 1 x_73_ ^ 2 - 2 x_97_ * x_73_ + 1 x_97_ ^ 2 + 1 y_73_ ^ 2 - 2 y_97_ * y_73_ + 1 y_97_ ^ 2 ] >= 987.03
quadratic_ranged_553_lb: [ 1 x_85_ ^ 2 - 2 x_97_ * x_85_ + 1 x_97_ ^ 2 + 1 y_85_ ^ 2 - 2 y_97_ * y_85_ + 1 y_97_ ^ 2 ] >= 6748.83
quadratic_ranged_554_lb: [ 1 x_94_ ^ 2 - 2 x_97_ * x_94_ + 1 x_97_ ^ 2 + 1 y_94_ ^ 2 - 2 y_97_ * y_94_ + 1 y_97_ ^ 2 ] >= 11528.55
quadratic_ranged_555_lb: [ 1 x_96_ ^ 2 - 2 x_97_ * x_96_ + 1 x_97_ ^ 2 + 1 y_96_ ^ 2 - 2 y_97_ * y_96_ + 1 y_97_ ^ 2 ] >= 622.71
quadratic_ranged_556_lb: [ 1 x_5_ ^ 2 - 2 x_98_ * x_5_ + 1 x_98_ ^ 2 + 1 y_5_ ^ 2 - 2 y_98_ * y_5_ + 1 y_98_ ^ 2 ] >= 23698.62
quadratic_ranged_557_lb: [ 1 x_14_ ^ 2 - 2 x_98_ * x_14_ + 1 x_98_ ^ 2 + 1 y_14_ ^ 2 - 2 y_98_ * y_14_ + 1 y_98_ ^ 2 ] >= 18062.55
quadratic_ranged_558_lb: [ 1 x_50_ ^ 2 - 2 x_98_ * x_50_ + 1 x_98_ ^ 2 + 1 y_50_ ^ 2 - 2 y_98_ * y_50_ + 1 y_98_ ^ 2 ] >= 535.59
quadratic_ranged_559_lb: [ 1 x_51_ ^ 2 - 2 x_98_ * x_51_ + 1 x_98_ ^ 2 + 1 y_51_ ^ 2 - 2 y_98_ * y_51_ + 1 y_98_ ^ 2 ] >= 22756.14
quadratic_ranged_560_lb: [ 1 x_61_ ^ 2 - 2 x_98_ * x_61_ + 1 x_98_ ^ 2 + 1 y_61_ ^ 2 - 2 y_98_ * y_61_ + 1 y_98_ ^ 2 ] >= 31996.8
quadratic_ranged_561_lb: [ 1 x_65_ ^ 2 - 2 x_98_ * x_65_ + 1 x_98_ ^ 2 + 1 y_65_ ^ 2 - 2 y_98_ * y_65_ + 1 y_98_ ^ 2 ] >= 7613.1
quadratic_ranged_562_lb: [ 1 x_70_ ^ 2 - 2 x_98_ * x_70_ + 1 x_98_ ^ 2 + 1 y_70_ ^ 2 - 2 y_98_ * y_70_ + 1 y_98_ ^ 2 ] >= 23705.55
quadratic_ranged_563_lb: [ 1 x_88_ ^ 2 - 2 x_98_ * x_88_ + 1 x_98_ ^ 2 + 1 y_88_ ^ 2 - 2 y_98_ * y_88_ + 1 y_98_ ^ 2 ] >= 40590
quadratic_ranged_564_lb: [ 1 x_89_ ^ 2 - 2 x_98_ * x_89_ + 1 x_98_ ^ 2 + 1 y_89_ ^ 2 - 2 y_98_ * y_89_ + 1 y_98_ ^ 2 ] >= 13211.55
quadratic_ranged_565_lb: [ 1 x_97_ ^ 2 - 2 x_98_ * x_97_ + 1 x_98_ ^ 2 + 1 y_97_ ^ 2 - 2 y_98_ * y_97_ + 1 y_98_ ^ 2 ] >= 7346.79
quadratic_ranged_566_lb: [ 1 x_7_ ^ 2 - 2 x_99_ * x_7_ + 1 x_99_ ^ 2 + 1 y_7_ ^ 2 - 2 y_99_ * y_7_ + 1 y_99_ ^ 2 ] >= 37296.27
quadratic_ranged_567_lb: [ 1 x_14_ ^ 2 - 2 x_99_ * x_14_ + 1 x_99_ ^ 2 + 1 y_14_ ^ 2 - 2 y_99_ * y_14_ + 1 y_99_ ^ 2 ] >= 21750.3
quadratic_ranged_568_lb: [ 1 x_17_ ^ 2 - 2 x_99_ * x_17_ + 1 x_99_ ^ 2 + 1 y_17_ ^ 2 - 2 y_99_ * y_17_ + 1 y_99_ ^ 2 ] >= 41810.67
quadratic_ranged_569_lb: [ 1 x_36_ ^ 2 - 2 x_99_ * x_36_ + 1 x_99_ ^ 2 + 1 y_36_ ^ 2 - 2 y_99_ * y_36_ + 1 y_99_ ^ 2 ] >= 42614.55
quadratic_ranged_570_lb: [ 1 x_51_ ^ 2 - 2 x_99_ * x_51_ + 1 x_99_ ^ 2 + 1 y_51_ ^ 2 - 2 y_99_ * y_51_ + 1 y_99_ ^ 2 ] >= 13785.75
quadratic_ranged_571_lb: [ 1 x_59_ ^ 2 - 2 x_99_ * x_59_ + 1 x_99_ ^ 2 + 1 y_59_ ^ 2 - 2 y_99_ * y_59_ + 1 y_99_ ^ 2 ] >= 895.95
quadratic_ranged_572_lb: [ 1 x_70_ ^ 2 - 2 x_99_ * x_70_ + 1 x_99_ ^ 2 + 1 y_70_ ^ 2 - 2 y_99_ * y_70_ + 1 y_99_ ^ 2 ] >= 649.4399999999999
quadratic_ranged_573_lb: [ 1 x_74_ ^ 2 - 2 x_99_ * x_74_ + 1 x_99_ ^ 2 + 1 y_74_ ^ 2 - 2 y_99_ * y_74_ + 1 y_99_ ^ 2 ] >= 13642.2
quadratic_ranged_574_lb: [ 1 x_85_ ^ 2 - 2 x_99_ * x_85_ + 1 x_99_ ^ 2 + 1 y_85_ ^ 2 - 2 y_99_ * y_85_ + 1 y_99_ ^ 2 ] >= 12502.71
quadratic_ranged_575_lb: [ 1 x_98_ ^ 2 - 2 x_99_ * x_98_ + 1 x_99_ ^ 2 + 1 y_98_ ^ 2 - 2 y_99_ * y_98_ + 1 y_99_ ^ 2 ] >= 20688.03
quadratic_ranged_576_lb: [ 1 x_1_ ^ 2 - 2 x_100_ * x_1_ + 1 x_100_ ^ 2 + 1 y_1_ ^ 2 - 2 y_100_ * y_1_ + 1 y_100_ ^ 2 ] >= 33150.15
quadratic_ranged_577_lb: [ 1 x_2_ ^ 2 - 2 x_100_ * x_2_ + 1 x_100_ ^ 2 + 1 y_2_ ^ 2 - 2 y_100_ * y_2_ + 1 y_100_ ^ 2 ] >= 31839.39
quadratic_ranged_578_lb: [ 1 x_3_ ^ 2 - 2 x_100_ * x_3_ + 1 x_100_ ^ 2 + 1 y_3_ ^ 2 - 2 y_100_ * y_3_ + 1 y_100_ ^ 2 ] >= 20403.9
quadratic_ranged_579_lb: [ 1 x_23_ ^ 2 - 2 x_100_ * x_23_ + 1 x_100_ ^ 2 + 1 y_23_ ^ 2 - 2 y_100_ * y_23_ + 1 y_100_ ^ 2 ] >= 18058.59
quadratic_ranged_580_lb: [ 1 x_37_ ^ 2 - 2 x_100_ * x_37_ + 1 x_100_ ^ 2 + 1 y_37_ ^ 2 - 2 y_100_ * y_37_ + 1 y_100_ ^ 2 ] >= 14375.789999999999
quadratic_ranged_581_lb: [ 1 x_38_ ^ 2 - 2 x_100_ * x_38_ + 1 x_100_ ^ 2 + 1 y_38_ ^ 2 - 2 y_100_ * y_38_ + 1 y_100_ ^ 2 ] >= 1359.27
quadratic_ranged_582_lb: [ 1 x_44_ ^ 2 - 2 x_100_ * x_44_ + 1 x_100_ ^ 2 + 1 y_44_ ^ 2 - 2 y_100_ * y_44_ + 1 y_100_ ^ 2 ] >= 2262.15
quadratic_ranged_583_lb: [ 1 x_59_ ^ 2 - 2 x_100_ * x_59_ + 1 x_100_ ^ 2 + 1 y_59_ ^ 2 - 2 y_100_ * y_59_ + 1 y_100_ ^ 2 ] >= 1668.15
quadratic_ranged_584_lb: [ 1 x_92_ ^ 2 - 2 x_100_ * x_92_ + 1 x_100_ ^ 2 + 1 y_92_ ^ 2 - 2 y_100_ * y_92_ + 1 y_100_ ^ 2 ] >= 712.8
quadratic_ranged_585_lb: [ 1 x_99_ ^ 2 - 2 x_100_ * x_99_ + 1 x_100_ ^ 2 + 1 y_99_ ^ 2 - 2 y_100_ * y_99_ + 1 y_100_ ^ 2 ] >= 247.5
c1_1: 1 x_4_ = 0
c2_1: 1 y_4_ = 0
Bounds
-185 <= x_1_ <= 185
-105 <= x_2_ <= 105
-116 <= x_3_ <= 116
x_4_ = 0
-133 <= x_5_ <= 133
-88 <= x_6_ <= 88
-30 <= x_7_ <= 30
-103 <= x_8_ <= 103
-170 <= x_9_ <= 170
-140 <= x_10_ <= 140
-62 <= x_11_ <= 62
-77 <= x_12_ <= 77
-56 <= x_13_ <= 56
-82 <= x_14_ <= 82
-104 <= x_15_ <= 104
-163 <= x_16_ <= 163
-142 <= x_17_ <= 142
-147 <= x_18_ <= 147
-184 <= x_19_ <= 184
-196 <= x_20_ <= 196
-48 <= x_21_ <= 48
-136 <= x_22_ <= 136
-191 <= x_23_ <= 191
-89 <= x_24_ <= 89
-151 <= x_25_ <= 151
-67 <= x_26_ <= 67
-201 <= x_27_ <= 201
-179 <= x_28_ <= 179
-207 <= x_29_ <= 207
-181 <= x_30_ <= 181
-126 <= x_31_ <= 126
-197 <= x_32_ <= 197
-77 <= x_33_ <= 77
-82 <= x_34_ <= 82
-124 <= x_35_ <= 124
-38 <= x_36_ <= 38
-108 <= x_37_ <= 108
-175 <= x_38_ <= 175
-118 <= x_39_ <= 118
-156 <= x_40_ <= 156
-70 <= x_41_ <= 70
-4 <= x_42_ <= 4
-77 <= x_43_ <= 77
-168 <= x_44_ <= 168
-92 <= x_45_ <= 92
-54 <= x_46_ <= 54
-20 <= x_47_ <= 20
-111 <= x_48_ <= 111
-170 <= x_49_ <= 170
-171 <= x_50_ <= 171
-116 <= x_51_ <= 116
-142 <= x_52_ <= 142
-56 <= x_53_ <= 56
-180 <= x_54_ <= 180
-26 <= x_55_ <= 26
-156 <= x_56_ <= 156
-185 <= x_57_ <= 185
-192 <= x_58_ <= 192
-166 <= x_59_ <= 166
-135 <= x_60_ <= 135
-94 <= x_61_ <= 94
-133 <= x_62_ <= 133
-171 <= x_63_ <= 171
-162 <= x_64_ <= 162
-110 <= x_65_ <= 110
-194 <= x_66_ <= 194
-169 <= x_67_ <= 169
-131 <= x_68_ <= 131
-65 <= x_69_ <= 65
-200 <= x_70_ <= 200
-169 <= x_71_ <= 169
-182 <= x_72_ <= 182
-66 <= x_73_ <= 66
-71 <= x_74_ <= 71
-78 <= x_75_ <= 78
-150 <= x_76_ <= 150
-157 <= x_77_ <= 157
-43 <= x_78_ <= 43
-179 <= x_79_ <= 179
-83 <= x_80_ <= 83
-143 <= x_81_ <= 143
-170 <= x_82_ <= 170
-82 <= x_83_ <= 82
-144 <= x_84_ <= 144
-115 <= x_85_ <= 115
-137 <= x_86_ <= 137
-43 <= x_87_ <= 43
-118 <= x_88_ <= 118
-141 <= x_89_ <= 141
-195 <= x_90_ <= 195
-152 <= x_91_ <= 152
-206 <= x_92_ <= 206
-129 <= x_93_ <= 129
-99 <= x_94_ <= 99
-91 <= x_95_ <= 91
-65 <= x_96_ <= 65
-90 <= x_97_ <= 90
-177 <= x_98_ <= 177
-189 <= x_99_ <= 189
-205 <= x_100_ <= 205
-185 <= y_1_ <= 185
-105 <= y_2_ <= 105
-116 <= y_3_ <= 116
y_4_ = 0
-133 <= y_5_ <= 133
-88 <= y_6_ <= 88
-30 <= y_7_ <= 30
-103 <= y_8_ <= 103
-170 <= y_9_ <= 170
-140 <= y_10_ <= 140
-62 <= y_11_ <= 62
-77 <= y_12_ <= 77
-56 <= y_13_ <= 56
-82 <= y_14_ <= 82
-104 <= y_15_ <= 104
-163 <= y_16_ <= 163
-142 <= y_17_ <= 142
-147 <= y_18_ <= 147
-184 <= y_19_ <= 184
-196 <= y_20_ <= 196
-48 <= y_21_ <= 48
-136 <= y_22_ <= 136
-191 <= y_23_ <= 191
-89 <= y_24_ <= 89
-151 <= y_25_ <= 151
-67 <= y_26_ <= 67
-201 <= y_27_ <= 201
-179 <= y_28_ <= 179
-207 <= y_29_ <= 207
-181 <= y_30_ <= 181
-126 <= y_31_ <= 126
-197 <= y_32_ <= 197
-77 <= y_33_ <= 77
-82 <= y_34_ <= 82
-124 <= y_35_ <= 124
-38 <= y_36_ <= 38
-108 <= y_37_ <= 108
-175 <= y_38_ <= 175
-118 <= y_39_ <= 118
-156 <= y_40_ <= 156
-70 <= y_41_ <= 70
-4 <= y_42_ <= 4
-77 <= y_43_ <= 77
-168 <= y_44_ <= 168
-92 <= y_45_ <= 92
-54 <= y_46_ <= 54
-20 <= y_47_ <= 20
-111 <= y_48_ <= 111
-170 <= y_49_ <= 170
-171 <= y_50_ <= 171
-116 <= y_51_ <= 116
-142 <= y_52_ <= 142
-56 <= y_53_ <= 56
-180 <= y_54_ <= 180
-26 <= y_55_ <= 26
-156 <= y_56_ <= 156
-185 <= y_57_ <= 185
-192 <= y_58_ <= 192
-166 <= y_59_ <= 166
-135 <= y_60_ <= 135
-94 <= y_61_ <= 94
-133 <= y_62_ <= 133
-171 <= y_63_ <= 171
-162 <= y_64_ <= 162
-110 <= y_65_ <= 110
-194 <= y_66_ <= 194
-169 <= y_67_ <= 169
-131 <= y_68_ <= 131
-65 <= y_69_ <= 65
-200 <= y_70_ <= 200
-169 <= y_71_ <= 169
-182 <= y_72_ <= 182
-66 <= y_73_ <= 66
-71 <= y_74_ <= 71
-78 <= y_75_ <= 78
-150 <= y_76_ <= 150
-157 <= y_77_ <= 157
-43 <= y_78_ <= 43
-179 <= y_79_ <= 179
-83 <= y_80_ <= 83
-143 <= y_81_ <= 143
-170 <= y_82_ <= 170
-82 <= y_83_ <= 82
-144 <= y_84_ <= 144
-115 <= y_85_ <= 115
-137 <= y_86_ <= 137
-43 <= y_87_ <= 43
-118 <= y_88_ <= 118
-141 <= y_89_ <= 141
-195 <= y_90_ <= 195
-152 <= y_91_ <= 152
-206 <= y_92_ <= 206
-129 <= y_93_ <= 129
-99 <= y_94_ <= 99
-91 <= y_95_ <= 91
-65 <= y_96_ <= 65
-90 <= y_97_ <= 90
-177 <= y_98_ <= 177
-189 <= y_99_ <= 189
-205 <= y_100_ <= 205
General
x_1_
x_2_
x_3_
x_4_
x_5_
x_6_
x_7_
x_8_
x_9_
x_10_
x_11_
x_12_
x_13_
x_14_
x_15_
x_16_
x_17_
x_18_
x_19_
x_20_
x_21_
x_22_
x_23_
x_24_
x_25_
x_26_
x_27_
x_28_
x_29_
x_30_
x_31_
x_32_
x_33_
x_34_
x_35_
x_36_
x_37_
x_38_
x_39_
x_40_
x_41_
x_42_
x_43_
x_44_
x_45_
x_46_
x_47_
x_48_
x_49_
x_50_
x_51_
x_52_
x_53_
x_54_
x_55_
x_56_
x_57_
x_58_
x_59_
x_60_
x_61_
x_62_
x_63_
x_64_
x_65_
x_66_
x_67_
x_68_
x_69_
x_70_
x_71_
x_72_
x_73_
x_74_
x_75_
x_76_
x_77_
x_78_
x_79_
x_80_
x_81_
x_82_
x_83_
x_84_
x_85_
x_86_
x_87_
x_88_
x_89_
x_90_
x_91_
x_92_
x_93_
x_94_
x_95_
x_96_
x_97_
x_98_
x_99_
x_100_
y_1_
y_2_
y_3_
y_4_
y_5_
y_6_
y_7_
y_8_
y_9_
y_10_
y_11_
y_12_
y_13_
y_14_
y_15_
y_16_
y_17_
y_18_
y_19_
y_20_
y_21_
y_22_
y_23_
y_24_
y_25_
y_26_
y_27_
y_28_
y_29_
y_30_
y_31_
y_32_
y_33_
y_34_
y_35_
y_36_
y_37_
y_38_
y_39_
y_40_
y_41_
y_42_
y_43_
y_44_
y_45_
y_46_
y_47_
y_48_
y_49_
y_50_
y_51_
y_52_
y_53_
y_54_
y_55_
y_56_
y_57_
y_58_
y_59_
y_60_
y_61_
y_62_
y_63_
y_64_
y_65_
y_66_
y_67_
y_68_
y_69_
y_70_
y_71_
y_72_
y_73_
y_74_
y_75_
y_76_
y_77_
y_78_
y_79_
y_80_
y_81_
y_82_
y_83_
y_84_
y_85_
y_86_
y_87_
y_88_
y_89_
y_90_
y_91_
y_92_
y_93_
y_94_
y_95_
y_96_
y_97_
y_98_
y_99_
y_100_
End
