minimize
obj: 
subject to
c1_4: -1 x_41_ + 1 y_41_ <= 0
c1_1: [ 1 x_1_ ^ 2 + 1 y_1_ ^ 2 ] <= 12052
c2_1: [ 1 x_2_ ^ 2 + 1 y_2_ ^ 2 ] <= 20931
c3_1: [ 1 x_3_ ^ 2 + 1 y_3_ ^ 2 ] <= 6322
c4_1: [ 1 x_4_ ^ 2 + 1 y_4_ ^ 2 ] <= 10257
c5_1: [ 1 x_5_ ^ 2 + 1 y_5_ ^ 2 ] <= 34770
c6_1: [ 1 x_6_ ^ 2 + 1 y_6_ ^ 2 ] <= 14869
c7_1: [ 1 x_7_ ^ 2 + 1 y_7_ ^ 2 ] <= 19759
c8_1: [ 1 x_8_ ^ 2 + 1 y_8_ ^ 2 ] <= 17102
c9_1: [ 1 x_9_ ^ 2 + 1 y_9_ ^ 2 ] <= 8402
c10_1: [ 1 x_10_ ^ 2 + 1 y_10_ ^ 2 ] <= 3005
c11_1: [ 1 x_11_ ^ 2 + 1 y_11_ ^ 2 ] <= 11195
c12_1: [ 1 x_12_ ^ 2 + 1 y_12_ ^ 2 ] <= 27788
c13_1: [ 1 x_13_ ^ 2 + 1 y_13_ ^ 2 ] <= 30219
c14_1: [ 1 x_14_ ^ 2 + 1 y_14_ ^ 2 ] <= 10892
c15_1: [ 1 x_15_ ^ 2 + 1 y_15_ ^ 2 ] <= 5532
c16_1: [ 1 x_16_ ^ 2 + 1 y_16_ ^ 2 ] <= 1511
c17_1: [ 1 x_17_ ^ 2 + 1 y_17_ ^ 2 ] <= 16325
c18_1: [ 1 x_18_ ^ 2 + 1 y_18_ ^ 2 ] <= 23236
c19_1: [ 1 x_19_ ^ 2 + 1 y_19_ ^ 2 ] <= 13771
c20_1: [ 1 x_20_ ^ 2 + 1 y_20_ ^ 2 ] <= 6050
c21_1: [ 1 x_21_ ^ 2 + 1 y_21_ ^ 2 ] <= 23114
c22_1: [ 1 x_22_ ^ 2 + 1 y_22_ ^ 2 ] <= 8075
c23_1: [ 1 x_23_ ^ 2 + 1 y_23_ ^ 2 ] <= 18587
c24_1: [ 1 x_24_ ^ 2 + 1 y_24_ ^ 2 ] <= 21329
c25_1: [ 1 x_25_ ^ 2 + 1 y_25_ ^ 2 ] <= 12572
c26_1: [ 1 x_26_ ^ 2 + 1 y_26_ ^ 2 ] <= 16071
c27_1: [ 1 x_27_ ^ 2 + 1 y_27_ ^ 2 ] <= 17101
c28_1: [ 1 x_28_ ^ 2 + 1 y_28_ ^ 2 ] <= 15169
c29_1: [ 1 x_29_ ^ 2 + 1 y_29_ ^ 2 ] <= 21582
c30_1: [ 1 x_30_ ^ 2 + 1 y_30_ ^ 2 ] <= 3645
c31_1: [ 1 x_31_ ^ 2 + 1 y_31_ ^ 2 ] <= 12016
c32_1: [ 1 x_32_ ^ 2 + 1 y_32_ ^ 2 ] <= 18122
c33_1: [ 1 x_33_ ^ 2 + 1 y_33_ ^ 2 ] <= 22039
c34_1: [ 1 x_34_ ^ 2 + 1 y_34_ ^ 2 ] <= 14365
c35_1: [ 1 x_35_ ^ 2 + 1 y_35_ ^ 2 ] <= 9449
c36_1: [ 1 x_36_ ^ 2 + 1 y_36_ ^ 2 ] <= 7013
c37_1: [ 1 x_37_ ^ 2 + 1 y_37_ ^ 2 ] <= 17955
c38_1: [ 1 x_38_ ^ 2 + 1 y_38_ ^ 2 ] <= 27472
c39_1: [ 1 x_39_ ^ 2 + 1 y_39_ ^ 2 ] <= 18626
c40_1: [ 1 x_40_ ^ 2 + 1 y_40_ ^ 2 ] <= 13554
c41_1: [ 1 x_41_ ^ 2 + 1 y_41_ ^ 2 ] <= 37075
c42_1: [ 1 x_42_ ^ 2 + 1 y_42_ ^ 2 ] <= 35929
c43_1: [ 1 x_43_ ^ 2 + 1 y_43_ ^ 2 ] <= 30672
c44_1: [ 1 x_44_ ^ 2 + 1 y_44_ ^ 2 ] <= 22467
c45_1: [ 1 x_45_ ^ 2 + 1 y_45_ ^ 2 ] <= 22188
c46_1: [ 1 x_46_ ^ 2 + 1 y_46_ ^ 2 ] <= 5889
c47_1: [ 1 x_47_ ^ 2 + 1 y_47_ ^ 2 ] <= 6671
c48_1: [ 1 x_48_ ^ 2 + 1 y_48_ ^ 2 ] <= 28428
c49_1: [ 1 x_49_ ^ 2 + 1 y_49_ ^ 2 ] <= 15205
c50_1: [ 1 x_50_ ^ 2 + 1 y_50_ ^ 2 ] <= 2829
c51_1: [ 1 x_51_ ^ 2 + 1 y_51_ ^ 2 ] <= 20172
c52_1: [ 1 x_52_ ^ 2 + 1 y_52_ ^ 2 ] <= 9028
c53_1: [ 1 x_53_ ^ 2 + 1 y_53_ ^ 2 ] <= 9187
c54_1: [ 1 x_54_ ^ 2 + 1 y_54_ ^ 2 ] <= 2441
c55_1: [ 1 x_55_ ^ 2 + 1 y_55_ ^ 2 ] <= 5290
c56_1: [ 1 x_56_ ^ 2 + 1 y_56_ ^ 2 ] <= 8349
c57_1: [ 1 x_57_ ^ 2 + 1 y_57_ ^ 2 ] <= 20614
c58_1: [ 1 x_58_ ^ 2 + 1 y_58_ ^ 2 ] <= 7825
c59_1: [ 1 x_59_ ^ 2 + 1 y_59_ ^ 2 ] <= 19978
c60_1: [ 1 x_60_ ^ 2 + 1 y_60_ ^ 2 ] <= 18985
c61_1: [ 1 x_62_ ^ 2 + 1 y_62_ ^ 2 ] <= 20021
c62_1: [ 1 x_63_ ^ 2 + 1 y_63_ ^ 2 ] <= 5960
c63_1: [ 1 x_64_ ^ 2 + 1 y_64_ ^ 2 ] <= 17060
c64_1: [ 1 x_65_ ^ 2 + 1 y_65_ ^ 2 ] <= 16481
c65_1: [ 1 x_66_ ^ 2 + 1 y_66_ ^ 2 ] <= 24630
c66_1: [ 1 x_67_ ^ 2 + 1 y_67_ ^ 2 ] <= 16596
c67_1: [ 1 x_68_ ^ 2 + 1 y_68_ ^ 2 ] <= 11328
c68_1: [ 1 x_69_ ^ 2 + 1 y_69_ ^ 2 ] <= 6037
c69_1: [ 1 x_70_ ^ 2 + 1 y_70_ ^ 2 ] <= 25130
c70_1: [ 1 x_71_ ^ 2 + 1 y_71_ ^ 2 ] <= 24096
c71_1: [ 1 x_72_ ^ 2 + 1 y_72_ ^ 2 ] <= 13007
c72_1: [ 1 x_73_ ^ 2 + 1 y_73_ ^ 2 ] <= 10719
c73_1: [ 1 x_74_ ^ 2 + 1 y_74_ ^ 2 ] <= 14373
c74_1: [ 1 x_75_ ^ 2 + 1 y_75_ ^ 2 ] <= 5635
c75_1: [ 1 x_76_ ^ 2 + 1 y_76_ ^ 2 ] <= 65
c76_1: [ 1 x_77_ ^ 2 + 1 y_77_ ^ 2 ] <= 6787
c77_1: [ 1 x_78_ ^ 2 + 1 y_78_ ^ 2 ] <= 12017
c78_1: [ 1 x_79_ ^ 2 + 1 y_79_ ^ 2 ] <= 3785
c79_1: [ 1 x_80_ ^ 2 + 1 y_80_ ^ 2 ] <= 4981
c80_1: [ 1 x_81_ ^ 2 + 1 y_81_ ^ 2 ] <= 10756
c81_1: [ 1 x_82_ ^ 2 + 1 y_82_ ^ 2 ] <= 5521
c82_1: [ 1 x_83_ ^ 2 + 1 y_83_ ^ 2 ] <= 24049
c83_1: [ 1 x_84_ ^ 2 + 1 y_84_ ^ 2 ] <= 11016
c84_1: [ 1 x_85_ ^ 2 + 1 y_85_ ^ 2 ] <= 6907
c85_1: [ 1 x_86_ ^ 2 + 1 y_86_ ^ 2 ] <= 10601
c86_1: [ 1 x_87_ ^ 2 + 1 y_87_ ^ 2 ] <= 2609
c87_1: [ 1 x_88_ ^ 2 + 1 y_88_ ^ 2 ] <= 5781
c88_1: [ 1 x_89_ ^ 2 + 1 y_89_ ^ 2 ] <= 19980
c89_1: [ 1 x_90_ ^ 2 + 1 y_90_ ^ 2 ] <= 4421
c90_1: [ 1 x_91_ ^ 2 + 1 y_91_ ^ 2 ] <= 8667
c91_1: [ 1 x_92_ ^ 2 + 1 y_92_ ^ 2 ] <= 29355
c92_1: [ 1 x_93_ ^ 2 + 1 y_93_ ^ 2 ] <= 17060
c93_1: [ 1 x_94_ ^ 2 + 1 y_94_ ^ 2 ] <= 29917
c94_1: [ 1 x_95_ ^ 2 + 1 y_95_ ^ 2 ] <= 13371
c95_1: [ 1 x_96_ ^ 2 + 1 y_96_ ^ 2 ] <= 26969
c96_1: [ 1 x_97_ ^ 2 + 1 y_97_ ^ 2 ] <= 1765
c97_1: [ 1 x_98_ ^ 2 + 1 y_98_ ^ 2 ] <= 5737
c98_1: [ 1 x_99_ ^ 2 + 1 y_99_ ^ 2 ] <= 23675
c99_1: [ 1 x_100_ ^ 2 + 1 y_100_ ^ 2 ] <= 12545
c1_3: 1 x_41_ >= 0
c2_3: 1 y_41_ >= 0
c1_2: 1 x_61_ = 0
c2_2: 1 y_61_ = 0
c1: [ 1 x_1_ ^ 2 - 2 x_2_ * x_1_ + 1 x_2_ ^ 2 + 1 y_1_ ^ 2 - 2 y_2_ * y_1_ + 1 y_2_ ^ 2 ] = 20610
c2: [ 1 x_2_ ^ 2 - 2 x_3_ * x_2_ + 1 x_3_ ^ 2 + 1 y_2_ ^ 2 - 2 y_3_ * y_2_ + 1 y_3_ ^ 2 ] = 9778
c3: [ 1 x_3_ ^ 2 - 2 x_4_ * x_3_ + 1 x_4_ ^ 2 + 1 y_3_ ^ 2 - 2 y_4_ * y_3_ + 1 y_4_ ^ 2 ] = 7757
c4: [ 1 x_4_ ^ 2 - 2 x_5_ * x_4_ + 1 x_5_ ^ 2 + 1 y_4_ ^ 2 - 2 y_5_ * y_4_ + 1 y_5_ ^ 2 ] = 12277
c5: [ 1 x_5_ ^ 2 - 2 x_6_ * x_5_ + 1 x_6_ ^ 2 + 1 y_5_ ^ 2 - 2 y_6_ * y_5_ + 1 y_6_ ^ 2 ] = 15250
c6: [ 1 x_6_ ^ 2 - 2 x_7_ * x_6_ + 1 x_7_ ^ 2 + 1 y_6_ ^ 2 - 2 y_7_ * y_6_ + 1 y_7_ ^ 2 ] = 1010
c7: [ 1 x_7_ ^ 2 - 2 x_8_ * x_7_ + 1 x_8_ ^ 2 + 1 y_7_ ^ 2 - 2 y_8_ * y_7_ + 1 y_8_ ^ 2 ] = 24660
c8: [ 1 x_5_ ^ 2 - 2 x_9_ * x_5_ + 1 x_9_ ^ 2 + 1 y_5_ ^ 2 - 2 y_9_ * y_5_ + 1 y_9_ ^ 2 ] = 28610
c9: [ 1 x_8_ ^ 2 - 2 x_9_ * x_8_ + 1 x_9_ ^ 2 + 1 y_8_ ^ 2 - 2 y_9_ * y_8_ + 1 y_9_ ^ 2 ] = 1530
c10: [ 1 x_6_ ^ 2 - 2 x_10_ * x_6_ + 1 x_10_ ^ 2 + 1 y_6_ ^ 2 - 2 y_10_ * y_6_ + 1 y_10_ ^ 2 ] = 4505
c11: [ 1 x_9_ ^ 2 - 2 x_10_ * x_9_ + 1 x_10_ ^ 2 + 1 y_9_ ^ 2 - 2 y_10_ * y_9_ + 1 y_10_ ^ 2 ] = 9193
c12: [ 1 x_10_ ^ 2 - 2 x_11_ * x_10_ + 1 x_11_ ^ 2 + 1 y_10_ ^ 2 - 2 y_11_ * y_10_ + 1 y_11_ ^ 2 ] = 2600
c13: [ 1 x_10_ ^ 2 - 2 x_12_ * x_10_ + 1 x_12_ ^ 2 + 1 y_10_ ^ 2 - 2 y_12_ * y_10_ + 1 y_12_ ^ 2 ] = 12517
c14: [ 1 x_11_ ^ 2 - 2 x_12_ * x_11_ + 1 x_12_ ^ 2 + 1 y_11_ ^ 2 - 2 y_12_ * y_11_ + 1 y_12_ ^ 2 ] = 11521
c15: [ 1 x_6_ ^ 2 - 2 x_13_ * x_6_ + 1 x_13_ ^ 2 + 1 y_6_ ^ 2 - 2 y_13_ * y_6_ + 1 y_13_ ^ 2 ] = 43226
c16: [ 1 x_12_ ^ 2 - 2 x_13_ * x_12_ + 1 x_13_ ^ 2 + 1 y_12_ ^ 2 - 2 y_13_ * y_12_ + 1 y_13_ ^ 2 ] = 15172
c17: [ 1 x_13_ ^ 2 - 2 x_14_ * x_13_ + 1 x_14_ ^ 2 + 1 y_13_ ^ 2 - 2 y_14_ * y_13_ + 1 y_14_ ^ 2 ] = 6805
c18: [ 1 x_9_ ^ 2 - 2 x_15_ * x_9_ + 1 x_15_ ^ 2 + 1 y_9_ ^ 2 - 2 y_15_ * y_9_ + 1 y_15_ ^ 2 ] = 3761
c19: [ 1 x_14_ ^ 2 - 2 x_15_ * x_14_ + 1 x_15_ ^ 2 + 1 y_14_ ^ 2 - 2 y_15_ * y_14_ + 1 y_15_ ^ 2 ] = 3908
c20: [ 1 x_15_ ^ 2 - 2 x_16_ * x_15_ + 1 x_16_ ^ 2 + 1 y_15_ ^ 2 - 2 y_16_ * y_15_ + 1 y_16_ ^ 2 ] = 1261
c21: [ 1 x_16_ ^ 2 - 2 x_17_ * x_16_ + 1 x_17_ ^ 2 + 1 y_16_ ^ 2 - 2 y_17_ * y_16_ + 1 y_17_ ^ 2 ] = 8045
c22: [ 1 x_1_ ^ 2 - 2 x_18_ * x_1_ + 1 x_18_ ^ 2 + 1 y_1_ ^ 2 - 2 y_18_ * y_1_ + 1 y_18_ ^ 2 ] = 24650
c23: [ 1 x_17_ ^ 2 - 2 x_18_ * x_17_ + 1 x_18_ ^ 2 + 1 y_17_ ^ 2 - 2 y_18_ * y_17_ + 1 y_18_ ^ 2 ] = 2669
c24: [ 1 x_10_ ^ 2 - 2 x_19_ * x_10_ + 1 x_19_ ^ 2 + 1 y_10_ ^ 2 - 2 y_19_ * y_10_ + 1 y_19_ ^ 2 ] = 15424
c25: [ 1 x_18_ ^ 2 - 2 x_19_ * x_18_ + 1 x_19_ ^ 2 + 1 y_18_ ^ 2 - 2 y_19_ * y_18_ + 1 y_19_ ^ 2 ] = 14869
c26: [ 1 x_19_ ^ 2 - 2 x_20_ * x_19_ + 1 x_20_ ^ 2 + 1 y_19_ ^ 2 - 2 y_20_ * y_19_ + 1 y_20_ ^ 2 ] = 17861
c27: [ 1 x_2_ ^ 2 - 2 x_21_ * x_2_ + 1 x_21_ ^ 2 + 1 y_2_ ^ 2 - 2 y_21_ * y_2_ + 1 y_21_ ^ 2 ] = 22581
c28: [ 1 x_14_ ^ 2 - 2 x_21_ * x_14_ + 1 x_21_ ^ 2 + 1 y_14_ ^ 2 - 2 y_21_ * y_14_ + 1 y_21_ ^ 2 ] = 14978
c29: [ 1 x_19_ ^ 2 - 2 x_21_ * x_19_ + 1 x_21_ ^ 2 + 1 y_19_ ^ 2 - 2 y_21_ * y_19_ + 1 y_21_ ^ 2 ] = 19208
c30: [ 1 x_20_ ^ 2 - 2 x_21_ * x_20_ + 1 x_21_ ^ 2 + 1 y_20_ ^ 2 - 2 y_21_ * y_20_ + 1 y_21_ ^ 2 ] = 5513
c31: [ 1 x_1_ ^ 2 - 2 x_22_ * x_1_ + 1 x_22_ ^ 2 + 1 y_1_ ^ 2 - 2 y_22_ * y_1_ + 1 y_22_ ^ 2 ] = 6824
c32: [ 1 x_6_ ^ 2 - 2 x_22_ * x_6_ + 1 x_22_ ^ 2 + 1 y_6_ ^ 2 - 2 y_22_ * y_6_ + 1 y_22_ ^ 2 ] = 16362
c33: [ 1 x_9_ ^ 2 - 2 x_22_ * x_9_ + 1 x_22_ ^ 2 + 1 y_9_ ^ 2 - 2 y_22_ * y_9_ + 1 y_22_ ^ 2 ] = 6074
c34: [ 1 x_16_ ^ 2 - 2 x_22_ * x_16_ + 1 x_22_ ^ 2 + 1 y_16_ ^ 2 - 2 y_22_ * y_16_ + 1 y_22_ ^ 2 ] = 2600
c35: [ 1 x_21_ ^ 2 - 2 x_22_ * x_21_ + 1 x_22_ ^ 2 + 1 y_21_ ^ 2 - 2 y_22_ * y_21_ + 1 y_22_ ^ 2 ] = 8957
c36: [ 1 x_19_ ^ 2 - 2 x_23_ * x_19_ + 1 x_23_ ^ 2 + 1 y_19_ ^ 2 - 2 y_23_ * y_19_ + 1 y_23_ ^ 2 ] = 18769
c37: [ 1 x_22_ ^ 2 - 2 x_23_ * x_22_ + 1 x_23_ ^ 2 + 1 y_22_ ^ 2 - 2 y_23_ * y_22_ + 1 y_23_ ^ 2 ] = 9860
c38: [ 1 x_2_ ^ 2 - 2 x_24_ * x_2_ + 1 x_24_ ^ 2 + 1 y_2_ ^ 2 - 2 y_24_ * y_2_ + 1 y_24_ ^ 2 ] = 29105
c39: [ 1 x_22_ ^ 2 - 2 x_24_ * x_22_ + 1 x_24_ ^ 2 + 1 y_22_ ^ 2 - 2 y_24_ * y_22_ + 1 y_24_ ^ 2 ] = 11925
c40: [ 1 x_23_ ^ 2 - 2 x_24_ * x_23_ + 1 x_24_ ^ 2 + 1 y_23_ ^ 2 - 2 y_24_ * y_23_ + 1 y_24_ ^ 2 ] = 2165
c41: [ 1 x_7_ ^ 2 - 2 x_25_ * x_7_ + 1 x_25_ ^ 2 + 1 y_7_ ^ 2 - 2 y_25_ * y_7_ + 1 y_25_ ^ 2 ] = 11885
c42: [ 1 x_24_ ^ 2 - 2 x_25_ * x_24_ + 1 x_25_ ^ 2 + 1 y_24_ ^ 2 - 2 y_25_ * y_24_ + 1 y_25_ ^ 2 ] = 15460
c43: [ 1 x_1_ ^ 2 - 2 x_26_ * x_1_ + 1 x_26_ ^ 2 + 1 y_1_ ^ 2 - 2 y_26_ * y_1_ + 1 y_26_ ^ 2 ] = 373
c44: [ 1 x_4_ ^ 2 - 2 x_26_ * x_4_ + 1 x_26_ ^ 2 + 1 y_4_ ^ 2 - 2 y_26_ * y_4_ + 1 y_26_ ^ 2 ] = 650
c45: [ 1 x_20_ ^ 2 - 2 x_26_ * x_20_ + 1 x_26_ ^ 2 + 1 y_20_ ^ 2 - 2 y_26_ * y_20_ + 1 y_26_ ^ 2 ] = 5321
c46: [ 1 x_22_ ^ 2 - 2 x_26_ * x_22_ + 1 x_26_ ^ 2 + 1 y_22_ ^ 2 - 2 y_26_ * y_22_ + 1 y_26_ ^ 2 ] = 4105
c47: [ 1 x_25_ ^ 2 - 2 x_26_ * x_25_ + 1 x_26_ ^ 2 + 1 y_25_ ^ 2 - 2 y_26_ * y_25_ + 1 y_26_ ^ 2 ] = 6570
c48: [ 1 x_2_ ^ 2 - 2 x_27_ * x_2_ + 1 x_27_ ^ 2 + 1 y_2_ ^ 2 - 2 y_27_ * y_2_ + 1 y_27_ ^ 2 ] = 565
c49: [ 1 x_11_ ^ 2 - 2 x_27_ * x_11_ + 1 x_27_ ^ 2 + 1 y_11_ ^ 2 - 2 y_27_ * y_11_ + 1 y_27_ ^ 2 ] = 20002
c50: [ 1 x_13_ ^ 2 - 2 x_27_ * x_13_ + 1 x_27_ ^ 2 + 1 y_13_ ^ 2 - 2 y_27_ * y_13_ + 1 y_27_ ^ 2 ] = 3221
c51: [ 1 x_14_ ^ 2 - 2 x_27_ * x_14_ + 1 x_27_ ^ 2 + 1 y_14_ ^ 2 - 2 y_27_ * y_14_ + 1 y_27_ ^ 2 ] = 1040
c52: [ 1 x_20_ ^ 2 - 2 x_27_ * x_20_ + 1 x_27_ ^ 2 + 1 y_20_ ^ 2 - 2 y_27_ * y_20_ + 1 y_27_ ^ 2 ] = 9445
c53: [ 1 x_26_ ^ 2 - 2 x_27_ * x_26_ + 1 x_27_ ^ 2 + 1 y_26_ ^ 2 - 2 y_27_ * y_26_ + 1 y_27_ ^ 2 ] = 13000
c54: [ 1 x_14_ ^ 2 - 2 x_28_ * x_14_ + 1 x_28_ ^ 2 + 1 y_14_ ^ 2 - 2 y_28_ * y_14_ + 1 y_28_ ^ 2 ] = 6305
c55: [ 1 x_26_ ^ 2 - 2 x_28_ * x_26_ + 1 x_28_ ^ 2 + 1 y_26_ ^ 2 - 2 y_28_ * y_26_ + 1 y_28_ ^ 2 ] = 12557
c56: [ 1 x_27_ ^ 2 - 2 x_28_ * x_27_ + 1 x_28_ ^ 2 + 1 y_27_ ^ 2 - 2 y_28_ * y_27_ + 1 y_28_ ^ 2 ] = 4369
c57: [ 1 x_3_ ^ 2 - 2 x_29_ * x_3_ + 1 x_29_ ^ 2 + 1 y_3_ ^ 2 - 2 y_29_ * y_3_ + 1 y_29_ ^ 2 ] = 27625
c58: [ 1 x_12_ ^ 2 - 2 x_29_ * x_12_ + 1 x_29_ ^ 2 + 1 y_12_ ^ 2 - 2 y_29_ * y_12_ + 1 y_29_ ^ 2 ] = 6805
c59: [ 1 x_20_ ^ 2 - 2 x_29_ * x_20_ + 1 x_29_ ^ 2 + 1 y_20_ ^ 2 - 2 y_29_ * y_20_ + 1 y_29_ ^ 2 ] = 26117
c60: [ 1 x_21_ ^ 2 - 2 x_29_ * x_21_ + 1 x_29_ ^ 2 + 1 y_21_ ^ 2 - 2 y_29_ * y_21_ + 1 y_29_ ^ 2 ] = 15208
c61: [ 1 x_24_ ^ 2 - 2 x_29_ * x_24_ + 1 x_29_ ^ 2 + 1 y_24_ ^ 2 - 2 y_29_ * y_24_ + 1 y_29_ ^ 2 ] = 5380
c62: [ 1 x_28_ ^ 2 - 2 x_29_ * x_28_ + 1 x_29_ ^ 2 + 1 y_28_ ^ 2 - 2 y_29_ * y_28_ + 1 y_29_ ^ 2 ] = 34325
c63: [ 1 x_1_ ^ 2 - 2 x_30_ * x_1_ + 1 x_30_ ^ 2 + 1 y_1_ ^ 2 - 2 y_30_ * y_1_ + 1 y_30_ ^ 2 ] = 3445
c64: [ 1 x_9_ ^ 2 - 2 x_30_ * x_9_ + 1 x_30_ ^ 2 + 1 y_9_ ^ 2 - 2 y_30_ * y_9_ + 1 y_30_ ^ 2 ] = 6089
c65: [ 1 x_18_ ^ 2 - 2 x_30_ * x_18_ + 1 x_30_ ^ 2 + 1 y_18_ ^ 2 - 2 y_30_ * y_18_ + 1 y_30_ ^ 2 ] = 12085
c66: [ 1 x_29_ ^ 2 - 2 x_30_ * x_29_ + 1 x_30_ ^ 2 + 1 y_29_ ^ 2 - 2 y_30_ * y_29_ + 1 y_30_ ^ 2 ] = 7488
c67: [ 1 x_15_ ^ 2 - 2 x_31_ * x_15_ + 1 x_31_ ^ 2 + 1 y_15_ ^ 2 - 2 y_31_ * y_15_ + 1 y_31_ ^ 2 ] = 4561
c68: [ 1 x_25_ ^ 2 - 2 x_31_ * x_25_ + 1 x_31_ ^ 2 + 1 y_25_ ^ 2 - 2 y_31_ * y_25_ + 1 y_31_ ^ 2 ] = 1453
c69: [ 1 x_30_ ^ 2 - 2 x_31_ * x_30_ + 1 x_31_ ^ 2 + 1 y_30_ ^ 2 - 2 y_31_ * y_30_ + 1 y_31_ ^ 2 ] = 2425
c70: [ 1 x_10_ ^ 2 - 2 x_32_ * x_10_ + 1 x_32_ ^ 2 + 1 y_10_ ^ 2 - 2 y_32_ * y_10_ + 1 y_32_ ^ 2 ] = 14180
c71: [ 1 x_28_ ^ 2 - 2 x_32_ * x_28_ + 1 x_32_ ^ 2 + 1 y_28_ ^ 2 - 2 y_32_ * y_28_ + 1 y_32_ ^ 2 ] = 7349
c72: [ 1 x_31_ ^ 2 - 2 x_32_ * x_31_ + 1 x_32_ ^ 2 + 1 y_31_ ^ 2 - 2 y_32_ * y_31_ + 1 y_32_ ^ 2 ] = 625
c73: [ 1 x_23_ ^ 2 - 2 x_33_ * x_23_ + 1 x_33_ ^ 2 + 1 y_23_ ^ 2 - 2 y_33_ * y_23_ + 1 y_33_ ^ 2 ] = 19729
c74: [ 1 x_32_ ^ 2 - 2 x_33_ * x_32_ + 1 x_33_ ^ 2 + 1 y_32_ ^ 2 - 2 y_33_ * y_32_ + 1 y_33_ ^ 2 ] = 7300
c75: [ 1 x_3_ ^ 2 - 2 x_34_ * x_3_ + 1 x_34_ ^ 2 + 1 y_3_ ^ 2 - 2 y_34_ * y_3_ + 1 y_34_ ^ 2 ] = 21425
c76: [ 1 x_13_ ^ 2 - 2 x_34_ * x_13_ + 1 x_34_ ^ 2 + 1 y_13_ ^ 2 - 2 y_34_ * y_13_ + 1 y_34_ ^ 2 ] = 22345
c77: [ 1 x_24_ ^ 2 - 2 x_34_ * x_24_ + 1 x_34_ ^ 2 + 1 y_24_ ^ 2 - 2 y_34_ * y_24_ + 1 y_34_ ^ 2 ] = 12010
c78: [ 1 x_27_ ^ 2 - 2 x_34_ * x_27_ + 1 x_34_ ^ 2 + 1 y_27_ ^ 2 - 2 y_34_ * y_27_ + 1 y_34_ ^ 2 ] = 9140
c79: [ 1 x_29_ ^ 2 - 2 x_34_ * x_29_ + 1 x_34_ ^ 2 + 1 y_29_ ^ 2 - 2 y_34_ * y_29_ + 1 y_34_ ^ 2 ] = 4450
c80: [ 1 x_30_ ^ 2 - 2 x_34_ * x_30_ + 1 x_34_ ^ 2 + 1 y_30_ ^ 2 - 2 y_34_ * y_30_ + 1 y_34_ ^ 2 ] = 3538
c81: [ 1 x_33_ ^ 2 - 2 x_34_ * x_33_ + 1 x_34_ ^ 2 + 1 y_33_ ^ 2 - 2 y_34_ * y_33_ + 1 y_34_ ^ 2 ] = 818
c82: [ 1 x_1_ ^ 2 - 2 x_35_ * x_1_ + 1 x_35_ ^ 2 + 1 y_1_ ^ 2 - 2 y_35_ * y_1_ + 1 y_35_ ^ 2 ] = 234
c83: [ 1 x_2_ ^ 2 - 2 x_35_ * x_2_ + 1 x_35_ ^ 2 + 1 y_2_ ^ 2 - 2 y_35_ * y_2_ + 1 y_35_ ^ 2 ] = 19188
c84: [ 1 x_14_ ^ 2 - 2 x_35_ * x_14_ + 1 x_35_ ^ 2 + 1 y_14_ ^ 2 - 2 y_35_ * y_14_ + 1 y_35_ ^ 2 ] = 10877
c85: [ 1 x_15_ ^ 2 - 2 x_35_ * x_15_ + 1 x_35_ ^ 2 + 1 y_15_ ^ 2 - 2 y_35_ * y_15_ + 1 y_35_ ^ 2 ] = 1845
c86: [ 1 x_19_ ^ 2 - 2 x_35_ * x_19_ + 1 x_35_ ^ 2 + 1 y_19_ ^ 2 - 2 y_35_ * y_19_ + 1 y_35_ ^ 2 ] = 13325
c87: [ 1 x_34_ ^ 2 - 2 x_35_ * x_34_ + 1 x_35_ ^ 2 + 1 y_34_ ^ 2 - 2 y_35_ * y_34_ + 1 y_35_ ^ 2 ] = 12437
c88: [ 1 x_5_ ^ 2 - 2 x_36_ * x_5_ + 1 x_36_ ^ 2 + 1 y_5_ ^ 2 - 2 y_36_ * y_5_ + 1 y_36_ ^ 2 ] = 22580
c89: [ 1 x_9_ ^ 2 - 2 x_36_ * x_9_ + 1 x_36_ ^ 2 + 1 y_9_ ^ 2 - 2 y_36_ * y_9_ + 1 y_36_ ^ 2 ] = 1530
c90: [ 1 x_13_ ^ 2 - 2 x_36_ * x_13_ + 1 x_36_ ^ 2 + 1 y_13_ ^ 2 - 2 y_36_ * y_13_ + 1 y_36_ ^ 2 ] = 8116
c91: [ 1 x_14_ ^ 2 - 2 x_36_ * x_14_ + 1 x_36_ ^ 2 + 1 y_14_ ^ 2 - 2 y_36_ * y_14_ + 1 y_36_ ^ 2 ] = 6793
c92: [ 1 x_15_ ^ 2 - 2 x_36_ * x_15_ + 1 x_36_ ^ 2 + 1 y_15_ ^ 2 - 2 y_36_ * y_15_ + 1 y_36_ ^ 2 ] = 3677
c93: [ 1 x_18_ ^ 2 - 2 x_36_ * x_18_ + 1 x_36_ ^ 2 + 1 y_18_ ^ 2 - 2 y_36_ * y_18_ + 1 y_36_ ^ 2 ] = 9194
c94: [ 1 x_27_ ^ 2 - 2 x_36_ * x_27_ + 1 x_36_ ^ 2 + 1 y_27_ ^ 2 - 2 y_36_ * y_27_ + 1 y_36_ ^ 2 ] = 8377
c95: [ 1 x_35_ ^ 2 - 2 x_36_ * x_35_ + 1 x_36_ ^ 2 + 1 y_35_ ^ 2 - 2 y_36_ * y_35_ + 1 y_36_ ^ 2 ] = 4490
c96: [ 1 x_1_ ^ 2 - 2 x_37_ * x_1_ + 1 x_37_ ^ 2 + 1 y_1_ ^ 2 - 2 y_37_ * y_1_ + 1 y_37_ ^ 2 ] = 12409
c97: [ 1 x_4_ ^ 2 - 2 x_37_ * x_4_ + 1 x_37_ ^ 2 + 1 y_4_ ^ 2 - 2 y_37_ * y_4_ + 1 y_37_ ^ 2 ] = 6698
c98: [ 1 x_5_ ^ 2 - 2 x_37_ * x_5_ + 1 x_37_ ^ 2 + 1 y_5_ ^ 2 - 2 y_37_ * y_5_ + 1 y_37_ ^ 2 ] = 2753
c99: [ 1 x_13_ ^ 2 - 2 x_37_ * x_13_ + 1 x_37_ ^ 2 + 1 y_13_ ^ 2 - 2 y_37_ * y_13_ + 1 y_37_ ^ 2 ] = 26501
c100: [ 1 x_24_ ^ 2 - 2 x_37_ * x_24_ + 1 x_37_ ^ 2 + 1 y_24_ ^ 2 - 2 y_37_ * y_24_ + 1 y_37_ ^ 2 ] = 13250
c101: [ 1 x_29_ ^ 2 - 2 x_37_ * x_29_ + 1 x_37_ ^ 2 + 1 y_29_ ^ 2 - 2 y_37_ * y_29_ + 1 y_37_ ^ 2 ] = 3970
c102: [ 1 x_34_ ^ 2 - 2 x_37_ * x_34_ + 1 x_37_ ^ 2 + 1 y_34_ ^ 2 - 2 y_37_ * y_34_ + 1 y_37_ ^ 2 ] = 200
c103: [ 1 x_36_ ^ 2 - 2 x_37_ * x_36_ + 1 x_37_ ^ 2 + 1 y_36_ ^ 2 - 2 y_37_ * y_36_ + 1 y_37_ ^ 2 ] = 20137
c104: [ 1 x_3_ ^ 2 - 2 x_38_ * x_3_ + 1 x_38_ ^ 2 + 1 y_3_ ^ 2 - 2 y_38_ * y_3_ + 1 y_38_ ^ 2 ] = 8642
c105: [ 1 x_7_ ^ 2 - 2 x_38_ * x_7_ + 1 x_38_ ^ 2 + 1 y_7_ ^ 2 - 2 y_38_ * y_7_ + 1 y_38_ ^ 2 ] = 31538
c106: [ 1 x_9_ ^ 2 - 2 x_38_ * x_9_ + 1 x_38_ ^ 2 + 1 y_9_ ^ 2 - 2 y_38_ * y_9_ + 1 y_38_ ^ 2 ] = 16388
c107: [ 1 x_20_ ^ 2 - 2 x_38_ * x_20_ + 1 x_38_ ^ 2 + 1 y_20_ ^ 2 - 2 y_38_ * y_20_ + 1 y_38_ ^ 2 ] = 7738
c108: [ 1 x_23_ ^ 2 - 2 x_38_ * x_23_ + 1 x_38_ ^ 2 + 1 y_23_ ^ 2 - 2 y_38_ * y_23_ + 1 y_38_ ^ 2 ] = 26762
c109: [ 1 x_33_ ^ 2 - 2 x_38_ * x_33_ + 1 x_38_ ^ 2 + 1 y_33_ ^ 2 - 2 y_38_ * y_33_ + 1 y_38_ ^ 2 ] = 29945
c110: [ 1 x_37_ ^ 2 - 2 x_38_ * x_37_ + 1 x_38_ ^ 2 + 1 y_37_ ^ 2 - 2 y_38_ * y_37_ + 1 y_38_ ^ 2 ] = 24929
c111: [ 1 x_16_ ^ 2 - 2 x_39_ * x_16_ + 1 x_39_ ^ 2 + 1 y_16_ ^ 2 - 2 y_39_ * y_16_ + 1 y_39_ ^ 2 ] = 18457
c112: [ 1 x_17_ ^ 2 - 2 x_39_ * x_17_ + 1 x_39_ ^ 2 + 1 y_17_ ^ 2 - 2 y_39_ * y_17_ + 1 y_39_ ^ 2 ] = 33010
c113: [ 1 x_38_ ^ 2 - 2 x_39_ * x_38_ + 1 x_39_ ^ 2 + 1 y_38_ ^ 2 - 2 y_39_ * y_38_ + 1 y_39_ ^ 2 ] = 29045
c114: [ 1 x_3_ ^ 2 - 2 x_40_ * x_3_ + 1 x_40_ ^ 2 + 1 y_3_ ^ 2 - 2 y_40_ * y_3_ + 1 y_40_ ^ 2 ] = 2378
c115: [ 1 x_14_ ^ 2 - 2 x_40_ * x_14_ + 1 x_40_ ^ 2 + 1 y_14_ ^ 2 - 2 y_40_ * y_14_ + 1 y_40_ ^ 2 ] = 5193
c116: [ 1 x_26_ ^ 2 - 2 x_40_ * x_26_ + 1 x_40_ ^ 2 + 1 y_26_ ^ 2 - 2 y_40_ * y_26_ + 1 y_40_ ^ 2 ] = 9805
c117: [ 1 x_39_ ^ 2 - 2 x_40_ * x_39_ + 1 x_40_ ^ 2 + 1 y_39_ ^ 2 - 2 y_40_ * y_39_ + 1 y_40_ ^ 2 ] = 26441
c118: [ 1 x_33_ ^ 2 - 2 x_41_ * x_33_ + 1 x_41_ ^ 2 + 1 y_33_ ^ 2 - 2 y_41_ * y_33_ + 1 y_41_ ^ 2 ] = 10025
c119: [ 1 x_40_ ^ 2 - 2 x_41_ * x_40_ + 1 x_41_ ^ 2 + 1 y_40_ ^ 2 - 2 y_41_ * y_40_ + 1 y_41_ ^ 2 ] = 25636
c120: [ 1 x_8_ ^ 2 - 2 x_42_ * x_8_ + 1 x_42_ ^ 2 + 1 y_8_ ^ 2 - 2 y_42_ * y_8_ + 1 y_42_ ^ 2 ] = 39005
c121: [ 1 x_31_ ^ 2 - 2 x_42_ * x_31_ + 1 x_42_ ^ 2 + 1 y_31_ ^ 2 - 2 y_42_ * y_31_ + 1 y_42_ ^ 2 ] = 6389
c122: [ 1 x_41_ ^ 2 - 2 x_42_ * x_41_ + 1 x_42_ ^ 2 + 1 y_41_ ^ 2 - 2 y_42_ * y_41_ + 1 y_42_ ^ 2 ] = 9
c123: [ 1 x_3_ ^ 2 - 2 x_43_ * x_3_ + 1 x_43_ ^ 2 + 1 y_3_ ^ 2 - 2 y_43_ * y_3_ + 1 y_43_ ^ 2 ] = 15112
c124: [ 1 x_7_ ^ 2 - 2 x_43_ * x_7_ + 1 x_43_ ^ 2 + 1 y_7_ ^ 2 - 2 y_43_ * y_7_ + 1 y_43_ ^ 2 ] = 6388
c125: [ 1 x_13_ ^ 2 - 2 x_43_ * x_13_ + 1 x_43_ ^ 2 + 1 y_13_ ^ 2 - 2 y_43_ * y_13_ + 1 y_43_ ^ 2 ] = 12116
c126: [ 1 x_18_ ^ 2 - 2 x_43_ * x_18_ + 1 x_43_ ^ 2 + 1 y_18_ ^ 2 - 2 y_43_ * y_18_ + 1 y_43_ ^ 2 ] = 9490
c127: [ 1 x_20_ ^ 2 - 2 x_43_ * x_20_ + 1 x_43_ ^ 2 + 1 y_20_ ^ 2 - 2 y_43_ * y_20_ + 1 y_43_ ^ 2 ] = 13428
c128: [ 1 x_29_ ^ 2 - 2 x_43_ * x_29_ + 1 x_43_ ^ 2 + 1 y_29_ ^ 2 - 2 y_43_ * y_29_ + 1 y_43_ ^ 2 ] = 10397
c129: [ 1 x_42_ ^ 2 - 2 x_43_ * x_42_ + 1 x_43_ ^ 2 + 1 y_42_ ^ 2 - 2 y_43_ * y_42_ + 1 y_43_ ^ 2 ] = 5953
c130: [ 1 x_18_ ^ 2 - 2 x_44_ * x_18_ + 1 x_44_ ^ 2 + 1 y_18_ ^ 2 - 2 y_44_ * y_18_ + 1 y_44_ ^ 2 ] = 1282
c131: [ 1 x_20_ ^ 2 - 2 x_44_ * x_20_ + 1 x_44_ ^ 2 + 1 y_20_ ^ 2 - 2 y_44_ * y_20_ + 1 y_44_ ^ 2 ] = 5200
c132: [ 1 x_43_ ^ 2 - 2 x_44_ * x_43_ + 1 x_44_ ^ 2 + 1 y_43_ ^ 2 - 2 y_44_ * y_43_ + 1 y_44_ ^ 2 ] = 13444
c133: [ 1 x_1_ ^ 2 - 2 x_45_ * x_1_ + 1 x_45_ ^ 2 + 1 y_1_ ^ 2 - 2 y_45_ * y_1_ + 1 y_45_ ^ 2 ] = 15361
c134: [ 1 x_6_ ^ 2 - 2 x_45_ * x_6_ + 1 x_45_ ^ 2 + 1 y_6_ ^ 2 - 2 y_45_ * y_6_ + 1 y_45_ ^ 2 ] = 1985
c135: [ 1 x_24_ ^ 2 - 2 x_45_ * x_24_ + 1 x_45_ ^ 2 + 1 y_24_ ^ 2 - 2 y_45_ * y_24_ + 1 y_45_ ^ 2 ] = 10064
c136: [ 1 x_29_ ^ 2 - 2 x_45_ * x_29_ + 1 x_45_ ^ 2 + 1 y_29_ ^ 2 - 2 y_45_ * y_29_ + 1 y_45_ ^ 2 ] = 2756
c137: [ 1 x_35_ ^ 2 - 2 x_45_ * x_35_ + 1 x_45_ ^ 2 + 1 y_35_ ^ 2 - 2 y_45_ * y_35_ + 1 y_45_ ^ 2 ] = 19381
c138: [ 1 x_44_ ^ 2 - 2 x_45_ * x_44_ + 1 x_45_ ^ 2 + 1 y_44_ ^ 2 - 2 y_45_ * y_44_ + 1 y_45_ ^ 2 ] = 62785
c139: [ 1 x_8_ ^ 2 - 2 x_46_ * x_8_ + 1 x_46_ ^ 2 + 1 y_8_ ^ 2 - 2 y_46_ * y_8_ + 1 y_46_ ^ 2 ] = 12370
c140: [ 1 x_11_ ^ 2 - 2 x_46_ * x_11_ + 1 x_46_ ^ 2 + 1 y_11_ ^ 2 - 2 y_46_ * y_11_ + 1 y_46_ ^ 2 ] = 7165
c141: [ 1 x_17_ ^ 2 - 2 x_46_ * x_17_ + 1 x_46_ ^ 2 + 1 y_17_ ^ 2 - 2 y_46_ * y_17_ + 1 y_46_ ^ 2 ] = 16361
c142: [ 1 x_19_ ^ 2 - 2 x_46_ * x_19_ + 1 x_46_ ^ 2 + 1 y_19_ ^ 2 - 2 y_46_ * y_19_ + 1 y_46_ ^ 2 ] = 1649
c143: [ 1 x_35_ ^ 2 - 2 x_46_ * x_35_ + 1 x_46_ ^ 2 + 1 y_35_ ^ 2 - 2 y_46_ * y_35_ + 1 y_46_ ^ 2 ] = 5620
c144: [ 1 x_45_ ^ 2 - 2 x_46_ * x_45_ + 1 x_46_ ^ 2 + 1 y_45_ ^ 2 - 2 y_46_ * y_45_ + 1 y_46_ ^ 2 ] = 14633
c145: [ 1 x_4_ ^ 2 - 2 x_47_ * x_4_ + 1 x_47_ ^ 2 + 1 y_4_ ^ 2 - 2 y_47_ * y_4_ + 1 y_47_ ^ 2 ] = 6050
c146: [ 1 x_10_ ^ 2 - 2 x_47_ * x_10_ + 1 x_47_ ^ 2 + 1 y_10_ ^ 2 - 2 y_47_ * y_10_ + 1 y_47_ ^ 2 ] = 12050
c147: [ 1 x_33_ ^ 2 - 2 x_47_ * x_33_ + 1 x_47_ ^ 2 + 1 y_33_ ^ 2 - 2 y_47_ * y_33_ + 1 y_47_ ^ 2 ] = 26370
c148: [ 1 x_34_ ^ 2 - 2 x_47_ * x_34_ + 1 x_47_ ^ 2 + 1 y_34_ ^ 2 - 2 y_47_ * y_34_ + 1 y_47_ ^ 2 ] = 20996
c149: [ 1 x_35_ ^ 2 - 2 x_47_ * x_35_ + 1 x_47_ ^ 2 + 1 y_35_ ^ 2 - 2 y_47_ * y_35_ + 1 y_47_ ^ 2 ] = 2941
c150: [ 1 x_46_ ^ 2 - 2 x_47_ * x_46_ + 1 x_47_ ^ 2 + 1 y_46_ ^ 2 - 2 y_47_ * y_46_ + 1 y_47_ ^ 2 ] = 11493
c151: [ 1 x_8_ ^ 2 - 2 x_48_ * x_8_ + 1 x_48_ ^ 2 + 1 y_8_ ^ 2 - 2 y_48_ * y_8_ + 1 y_48_ ^ 2 ] = 9745
c152: [ 1 x_47_ ^ 2 - 2 x_48_ * x_47_ + 1 x_48_ ^ 2 + 1 y_47_ ^ 2 - 2 y_48_ * y_47_ + 1 y_48_ ^ 2 ] = 13320
c153: [ 1 x_4_ ^ 2 - 2 x_49_ * x_4_ + 1 x_49_ ^ 2 + 1 y_4_ ^ 2 - 2 y_49_ * y_4_ + 1 y_49_ ^ 2 ] = 6565
c154: [ 1 x_29_ ^ 2 - 2 x_49_ * x_29_ + 1 x_49_ ^ 2 + 1 y_29_ ^ 2 - 2 y_49_ * y_29_ + 1 y_49_ ^ 2 ] = 9193
c155: [ 1 x_30_ ^ 2 - 2 x_49_ * x_30_ + 1 x_49_ ^ 2 + 1 y_30_ ^ 2 - 2 y_49_ * y_30_ + 1 y_49_ ^ 2 ] = 3961
c156: [ 1 x_48_ ^ 2 - 2 x_49_ * x_48_ + 1 x_49_ ^ 2 + 1 y_48_ ^ 2 - 2 y_49_ * y_48_ + 1 y_49_ ^ 2 ] = 5525
c157: [ 1 x_15_ ^ 2 - 2 x_50_ * x_15_ + 1 x_50_ ^ 2 + 1 y_15_ ^ 2 - 2 y_50_ * y_15_ + 1 y_50_ ^ 2 ] = 484
c158: [ 1 x_16_ ^ 2 - 2 x_50_ * x_16_ + 1 x_50_ ^ 2 + 1 y_16_ ^ 2 - 2 y_50_ * y_16_ + 1 y_50_ ^ 2 ] = 205
c159: [ 1 x_17_ ^ 2 - 2 x_50_ * x_17_ + 1 x_50_ ^ 2 + 1 y_17_ ^ 2 - 2 y_50_ * y_17_ + 1 y_50_ ^ 2 ] = 8522
c160: [ 1 x_25_ ^ 2 - 2 x_50_ * x_25_ + 1 x_50_ ^ 2 + 1 y_25_ ^ 2 - 2 y_50_ * y_25_ + 1 y_50_ ^ 2 ] = 3474
c161: [ 1 x_39_ ^ 2 - 2 x_50_ * x_39_ + 1 x_50_ ^ 2 + 1 y_39_ ^ 2 - 2 y_50_ * y_39_ + 1 y_50_ ^ 2 ] = 14824
c162: [ 1 x_40_ ^ 2 - 2 x_50_ * x_40_ + 1 x_50_ ^ 2 + 1 y_40_ ^ 2 - 2 y_50_ * y_40_ + 1 y_50_ ^ 2 ] = 5245
c163: [ 1 x_46_ ^ 2 - 2 x_50_ * x_46_ + 1 x_50_ ^ 2 + 1 y_46_ ^ 2 - 2 y_50_ * y_46_ + 1 y_50_ ^ 2 ] = 3361
c164: [ 1 x_49_ ^ 2 - 2 x_50_ * x_49_ + 1 x_50_ ^ 2 + 1 y_49_ ^ 2 - 2 y_50_ * y_49_ + 1 y_50_ ^ 2 ] = 9565
c165: [ 1 x_11_ ^ 2 - 2 x_51_ * x_11_ + 1 x_51_ ^ 2 + 1 y_11_ ^ 2 - 2 y_51_ * y_11_ + 1 y_51_ ^ 2 ] = 15997
c166: [ 1 x_21_ ^ 2 - 2 x_51_ * x_21_ + 1 x_51_ ^ 2 + 1 y_21_ ^ 2 - 2 y_51_ * y_21_ + 1 y_51_ ^ 2 ] = 21437
c167: [ 1 x_22_ ^ 2 - 2 x_51_ * x_22_ + 1 x_51_ ^ 2 + 1 y_22_ ^ 2 - 2 y_51_ * y_22_ + 1 y_51_ ^ 2 ] = 20800
c168: [ 1 x_28_ ^ 2 - 2 x_51_ * x_28_ + 1 x_51_ ^ 2 + 1 y_28_ ^ 2 - 2 y_51_ * y_28_ + 1 y_51_ ^ 2 ] = 43784
c169: [ 1 x_46_ ^ 2 - 2 x_51_ * x_46_ + 1 x_51_ ^ 2 + 1 y_46_ ^ 2 - 2 y_51_ * y_46_ + 1 y_51_ ^ 2 ] = 8354
c170: [ 1 x_50_ ^ 2 - 2 x_51_ * x_50_ + 1 x_51_ ^ 2 + 1 y_50_ ^ 2 - 2 y_51_ * y_50_ + 1 y_51_ ^ 2 ] = 18241
c171: [ 1 x_14_ ^ 2 - 2 x_52_ * x_14_ + 1 x_52_ ^ 2 + 1 y_14_ ^ 2 - 2 y_52_ * y_14_ + 1 y_52_ ^ 2 ] = 6560
c172: [ 1 x_35_ ^ 2 - 2 x_52_ * x_35_ + 1 x_52_ ^ 2 + 1 y_35_ ^ 2 - 2 y_52_ * y_35_ + 1 y_52_ ^ 2 ] = 7829
c173: [ 1 x_48_ ^ 2 - 2 x_52_ * x_48_ + 1 x_52_ ^ 2 + 1 y_48_ ^ 2 - 2 y_52_ * y_48_ + 1 y_52_ ^ 2 ] = 5416
c174: [ 1 x_51_ ^ 2 - 2 x_52_ * x_51_ + 1 x_52_ ^ 2 + 1 y_51_ ^ 2 - 2 y_52_ * y_51_ + 1 y_52_ ^ 2 ] = 36101
c175: [ 1 x_9_ ^ 2 - 2 x_53_ * x_9_ + 1 x_53_ ^ 2 + 1 y_9_ ^ 2 - 2 y_53_ * y_9_ + 1 y_53_ ^ 2 ] = 4688
c176: [ 1 x_10_ ^ 2 - 2 x_53_ * x_10_ + 1 x_53_ ^ 2 + 1 y_10_ ^ 2 - 2 y_53_ * y_10_ + 1 y_53_ ^ 2 ] = 21737
c177: [ 1 x_51_ ^ 2 - 2 x_53_ * x_51_ + 1 x_53_ ^ 2 + 1 y_51_ ^ 2 - 2 y_53_ * y_51_ + 1 y_53_ ^ 2 ] = 36130
c178: [ 1 x_52_ ^ 2 - 2 x_53_ * x_52_ + 1 x_53_ ^ 2 + 1 y_52_ ^ 2 - 2 y_53_ * y_52_ + 1 y_53_ ^ 2 ] = 97
c179: [ 1 x_2_ ^ 2 - 2 x_54_ * x_2_ + 1 x_54_ ^ 2 + 1 y_2_ ^ 2 - 2 y_54_ * y_2_ + 1 y_54_ ^ 2 ] = 12557
c180: [ 1 x_3_ ^ 2 - 2 x_54_ * x_3_ + 1 x_54_ ^ 2 + 1 y_3_ ^ 2 - 2 y_54_ * y_3_ + 1 y_54_ ^ 2 ] = 925
c181: [ 1 x_22_ ^ 2 - 2 x_54_ * x_22_ + 1 x_54_ ^ 2 + 1 y_22_ ^ 2 - 2 y_54_ * y_22_ + 1 y_54_ ^ 2 ] = 4349
c182: [ 1 x_29_ ^ 2 - 2 x_54_ * x_29_ + 1 x_54_ ^ 2 + 1 y_29_ ^ 2 - 2 y_54_ * y_29_ + 1 y_54_ ^ 2 ] = 19850
c183: [ 1 x_35_ ^ 2 - 2 x_54_ * x_35_ + 1 x_54_ ^ 2 + 1 y_35_ ^ 2 - 2 y_54_ * y_35_ + 1 y_54_ ^ 2 ] = 2285
c184: [ 1 x_45_ ^ 2 - 2 x_54_ * x_45_ + 1 x_54_ ^ 2 + 1 y_45_ ^ 2 - 2 y_54_ * y_45_ + 1 y_54_ ^ 2 ] = 33898
c185: [ 1 x_51_ ^ 2 - 2 x_54_ * x_51_ + 1 x_54_ ^ 2 + 1 y_51_ ^ 2 - 2 y_54_ * y_51_ + 1 y_54_ ^ 2 ] = 27469
c186: [ 1 x_52_ ^ 2 - 2 x_54_ * x_52_ + 1 x_54_ ^ 2 + 1 y_52_ ^ 2 - 2 y_54_ * y_52_ + 1 y_54_ ^ 2 ] = 2080
c187: [ 1 x_53_ ^ 2 - 2 x_54_ * x_53_ + 1 x_54_ ^ 2 + 1 y_53_ ^ 2 - 2 y_54_ * y_53_ + 1 y_54_ ^ 2 ] = 2873
c188: [ 1 x_3_ ^ 2 - 2 x_55_ * x_3_ + 1 x_55_ ^ 2 + 1 y_3_ ^ 2 - 2 y_55_ * y_3_ + 1 y_55_ ^ 2 ] = 1157
c189: [ 1 x_4_ ^ 2 - 2 x_55_ * x_4_ + 1 x_55_ ^ 2 + 1 y_4_ ^ 2 - 2 y_55_ * y_4_ + 1 y_55_ ^ 2 ] = 7450
c190: [ 1 x_33_ ^ 2 - 2 x_55_ * x_33_ + 1 x_55_ ^ 2 + 1 y_33_ ^ 2 - 2 y_55_ * y_33_ + 1 y_55_ ^ 2 ] = 29258
c191: [ 1 x_37_ ^ 2 - 2 x_55_ * x_37_ + 1 x_55_ ^ 2 + 1 y_37_ ^ 2 - 2 y_55_ * y_37_ + 1 y_55_ ^ 2 ] = 27668
c192: [ 1 x_40_ ^ 2 - 2 x_55_ * x_40_ + 1 x_55_ ^ 2 + 1 y_40_ ^ 2 - 2 y_55_ * y_40_ + 1 y_55_ ^ 2 ] = 6705
c193: [ 1 x_47_ ^ 2 - 2 x_55_ * x_47_ + 1 x_55_ ^ 2 + 1 y_47_ ^ 2 - 2 y_55_ * y_47_ + 1 y_55_ ^ 2 ] = 80
c194: [ 1 x_51_ ^ 2 - 2 x_55_ * x_51_ + 1 x_55_ ^ 2 + 1 y_51_ ^ 2 - 2 y_55_ * y_51_ + 1 y_55_ ^ 2 ] = 33813
c195: [ 1 x_54_ ^ 2 - 2 x_55_ * x_54_ + 1 x_55_ ^ 2 + 1 y_54_ ^ 2 - 2 y_55_ * y_54_ + 1 y_55_ ^ 2 ] = 544
c196: [ 1 x_4_ ^ 2 - 2 x_56_ * x_4_ + 1 x_56_ ^ 2 + 1 y_4_ ^ 2 - 2 y_56_ * y_4_ + 1 y_56_ ^ 2 ] = 1573
c197: [ 1 x_11_ ^ 2 - 2 x_56_ * x_11_ + 1 x_56_ ^ 2 + 1 y_11_ ^ 2 - 2 y_56_ * y_11_ + 1 y_56_ ^ 2 ] = 8077
c198: [ 1 x_27_ ^ 2 - 2 x_56_ * x_27_ + 1 x_56_ ^ 2 + 1 y_27_ ^ 2 - 2 y_56_ * y_27_ + 1 y_56_ ^ 2 ] = 8125
c199: [ 1 x_29_ ^ 2 - 2 x_56_ * x_29_ + 1 x_56_ ^ 2 + 1 y_29_ ^ 2 - 2 y_56_ * y_29_ + 1 y_56_ ^ 2 ] = 3985
c200: [ 1 x_30_ ^ 2 - 2 x_56_ * x_30_ + 1 x_56_ ^ 2 + 1 y_30_ ^ 2 - 2 y_56_ * y_30_ + 1 y_56_ ^ 2 ] = 961
c201: [ 1 x_36_ ^ 2 - 2 x_56_ * x_36_ + 1 x_56_ ^ 2 + 1 y_36_ ^ 2 - 2 y_56_ * y_36_ + 1 y_56_ ^ 2 ] = 10202
c202: [ 1 x_50_ ^ 2 - 2 x_56_ * x_50_ + 1 x_56_ ^ 2 + 1 y_50_ ^ 2 - 2 y_56_ * y_50_ + 1 y_56_ ^ 2 ] = 4321
c203: [ 1 x_55_ ^ 2 - 2 x_56_ * x_55_ + 1 x_56_ ^ 2 + 1 y_55_ ^ 2 - 2 y_56_ * y_55_ + 1 y_56_ ^ 2 ] = 15293
c204: [ 1 x_3_ ^ 2 - 2 x_57_ * x_3_ + 1 x_57_ ^ 2 + 1 y_3_ ^ 2 - 2 y_57_ * y_3_ + 1 y_57_ ^ 2 ] = 42233
c205: [ 1 x_20_ ^ 2 - 2 x_57_ * x_20_ + 1 x_57_ ^ 2 + 1 y_20_ ^ 2 - 2 y_57_ * y_20_ + 1 y_57_ ^ 2 ] = 40693
c206: [ 1 x_39_ ^ 2 - 2 x_57_ * x_39_ + 1 x_57_ ^ 2 + 1 y_39_ ^ 2 - 2 y_57_ * y_39_ + 1 y_57_ ^ 2 ] = 10426
c207: [ 1 x_44_ ^ 2 - 2 x_57_ * x_44_ + 1 x_57_ ^ 2 + 1 y_44_ ^ 2 - 2 y_57_ * y_44_ + 1 y_57_ ^ 2 ] = 59877
c208: [ 1 x_55_ ^ 2 - 2 x_57_ * x_55_ + 1 x_57_ ^ 2 + 1 y_55_ ^ 2 - 2 y_57_ * y_55_ + 1 y_57_ ^ 2 ] = 37370
c209: [ 1 x_56_ ^ 2 - 2 x_57_ * x_56_ + 1 x_57_ ^ 2 + 1 y_56_ ^ 2 - 2 y_57_ * y_56_ + 1 y_57_ ^ 2 ] = 12157
c210: [ 1 x_23_ ^ 2 - 2 x_58_ * x_23_ + 1 x_58_ ^ 2 + 1 y_23_ ^ 2 - 2 y_58_ * y_23_ + 1 y_58_ ^ 2 ] = 8410
c211: [ 1 x_40_ ^ 2 - 2 x_58_ * x_40_ + 1 x_58_ ^ 2 + 1 y_40_ ^ 2 - 2 y_58_ * y_40_ + 1 y_58_ ^ 2 ] = 936
c212: [ 1 x_54_ ^ 2 - 2 x_58_ * x_54_ + 1 x_58_ ^ 2 + 1 y_54_ ^ 2 - 2 y_58_ * y_54_ + 1 y_58_ ^ 2 ] = 1525
c213: [ 1 x_57_ ^ 2 - 2 x_58_ * x_57_ + 1 x_58_ ^ 2 + 1 y_57_ ^ 2 - 2 y_58_ * y_57_ + 1 y_58_ ^ 2 ] = 38561
c214: [ 1 x_15_ ^ 2 - 2 x_59_ * x_15_ + 1 x_59_ ^ 2 + 1 y_15_ ^ 2 - 2 y_59_ * y_15_ + 1 y_59_ ^ 2 ] = 11584
c215: [ 1 x_26_ ^ 2 - 2 x_59_ * x_26_ + 1 x_59_ ^ 2 + 1 y_26_ ^ 2 - 2 y_59_ * y_26_ + 1 y_59_ ^ 2 ] = 14660
c216: [ 1 x_32_ ^ 2 - 2 x_59_ * x_32_ + 1 x_59_ ^ 2 + 1 y_32_ ^ 2 - 2 y_59_ * y_32_ + 1 y_59_ ^ 2 ] = 8114
c217: [ 1 x_38_ ^ 2 - 2 x_59_ * x_38_ + 1 x_59_ ^ 2 + 1 y_38_ ^ 2 - 2 y_59_ * y_38_ + 1 y_59_ ^ 2 ] = 725
c218: [ 1 x_44_ ^ 2 - 2 x_59_ * x_44_ + 1 x_59_ ^ 2 + 1 y_44_ ^ 2 - 2 y_59_ * y_44_ + 1 y_59_ ^ 2 ] = 73
c219: [ 1 x_47_ ^ 2 - 2 x_59_ * x_47_ + 1 x_59_ ^ 2 + 1 y_47_ ^ 2 - 2 y_59_ * y_47_ + 1 y_59_ ^ 2 ] = 9620
c220: [ 1 x_58_ ^ 2 - 2 x_59_ * x_58_ + 1 x_59_ ^ 2 + 1 y_58_ ^ 2 - 2 y_59_ * y_58_ + 1 y_59_ ^ 2 ] = 2797
c221: [ 1 x_9_ ^ 2 - 2 x_60_ * x_9_ + 1 x_60_ ^ 2 + 1 y_9_ ^ 2 - 2 y_60_ * y_9_ + 1 y_60_ ^ 2 ] = 13117
c222: [ 1 x_11_ ^ 2 - 2 x_60_ * x_11_ + 1 x_60_ ^ 2 + 1 y_11_ ^ 2 - 2 y_60_ * y_11_ + 1 y_60_ ^ 2 ] = 21904
c223: [ 1 x_34_ ^ 2 - 2 x_60_ * x_34_ + 1 x_60_ ^ 2 + 1 y_34_ ^ 2 - 2 y_60_ * y_34_ + 1 y_60_ ^ 2 ] = 21474
c224: [ 1 x_43_ ^ 2 - 2 x_60_ * x_43_ + 1 x_60_ ^ 2 + 1 y_43_ ^ 2 - 2 y_60_ * y_43_ + 1 y_60_ ^ 2 ] = 11777
c225: [ 1 x_51_ ^ 2 - 2 x_60_ * x_51_ + 1 x_60_ ^ 2 + 1 y_51_ ^ 2 - 2 y_60_ * y_51_ + 1 y_60_ ^ 2 ] = 46917
c226: [ 1 x_57_ ^ 2 - 2 x_60_ * x_57_ + 1 x_60_ ^ 2 + 1 y_57_ ^ 2 - 2 y_60_ * y_57_ + 1 y_60_ ^ 2 ] = 57284
c227: [ 1 x_59_ ^ 2 - 2 x_60_ * x_59_ + 1 x_60_ ^ 2 + 1 y_59_ ^ 2 - 2 y_60_ * y_59_ + 1 y_60_ ^ 2 ] = 106
c228: [ 1 x_3_ ^ 2 - 2 x_61_ * x_3_ + 1 x_61_ ^ 2 + 1 y_3_ ^ 2 - 2 y_61_ * y_3_ + 1 y_61_ ^ 2 ] = 6322
c229: [ 1 x_10_ ^ 2 - 2 x_61_ * x_10_ + 1 x_61_ ^ 2 + 1 y_10_ ^ 2 - 2 y_61_ * y_10_ + 1 y_61_ ^ 2 ] = 3005
c230: [ 1 x_17_ ^ 2 - 2 x_61_ * x_17_ + 1 x_61_ ^ 2 + 1 y_17_ ^ 2 - 2 y_61_ * y_17_ + 1 y_61_ ^ 2 ] = 16325
c231: [ 1 x_20_ ^ 2 - 2 x_61_ * x_20_ + 1 x_61_ ^ 2 + 1 y_20_ ^ 2 - 2 y_61_ * y_20_ + 1 y_61_ ^ 2 ] = 6050
c232: [ 1 x_30_ ^ 2 - 2 x_61_ * x_30_ + 1 x_61_ ^ 2 + 1 y_30_ ^ 2 - 2 y_61_ * y_30_ + 1 y_61_ ^ 2 ] = 3645
c233: [ 1 x_54_ ^ 2 - 2 x_61_ * x_54_ + 1 x_61_ ^ 2 + 1 y_54_ ^ 2 - 2 y_61_ * y_54_ + 1 y_61_ ^ 2 ] = 2441
c234: [ 1 x_60_ ^ 2 - 2 x_61_ * x_60_ + 1 x_61_ ^ 2 + 1 y_60_ ^ 2 - 2 y_61_ * y_60_ + 1 y_61_ ^ 2 ] = 18985
c235: [ 1 x_19_ ^ 2 - 2 x_62_ * x_19_ + 1 x_62_ ^ 2 + 1 y_19_ ^ 2 - 2 y_62_ * y_19_ + 1 y_62_ ^ 2 ] = 1234
c236: [ 1 x_25_ ^ 2 - 2 x_62_ * x_25_ + 1 x_62_ ^ 2 + 1 y_25_ ^ 2 - 2 y_62_ * y_25_ + 1 y_62_ ^ 2 ] = 10250
c237: [ 1 x_39_ ^ 2 - 2 x_62_ * x_39_ + 1 x_62_ ^ 2 + 1 y_39_ ^ 2 - 2 y_62_ * y_39_ + 1 y_62_ ^ 2 ] = 404
c238: [ 1 x_53_ ^ 2 - 2 x_62_ * x_53_ + 1 x_62_ ^ 2 + 1 y_53_ ^ 2 - 2 y_62_ * y_53_ + 1 y_62_ ^ 2 ] = 25013
c239: [ 1 x_61_ ^ 2 - 2 x_62_ * x_61_ + 1 x_62_ ^ 2 + 1 y_61_ ^ 2 - 2 y_62_ * y_61_ + 1 y_62_ ^ 2 ] = 20021
c240: [ 1 x_3_ ^ 2 - 2 x_63_ * x_3_ + 1 x_63_ ^ 2 + 1 y_3_ ^ 2 - 2 y_63_ * y_3_ + 1 y_63_ ^ 2 ] = 26
c241: [ 1 x_41_ ^ 2 - 2 x_63_ * x_41_ + 1 x_63_ ^ 2 + 1 y_41_ ^ 2 - 2 y_63_ * y_41_ + 1 y_63_ ^ 2 ] = 38560
c242: [ 1 x_47_ ^ 2 - 2 x_63_ * x_47_ + 1 x_63_ ^ 2 + 1 y_47_ ^ 2 - 2 y_63_ * y_47_ + 1 y_63_ ^ 2 ] = 725
c243: [ 1 x_49_ ^ 2 - 2 x_63_ * x_49_ + 1 x_63_ ^ 2 + 1 y_49_ ^ 2 - 2 y_63_ * y_49_ + 1 y_63_ ^ 2 ] = 20660
c244: [ 1 x_61_ ^ 2 - 2 x_63_ * x_61_ + 1 x_63_ ^ 2 + 1 y_61_ ^ 2 - 2 y_63_ * y_61_ + 1 y_63_ ^ 2 ] = 5960
c245: [ 1 x_62_ ^ 2 - 2 x_63_ * x_62_ + 1 x_63_ ^ 2 + 1 y_62_ ^ 2 - 2 y_63_ * y_62_ + 1 y_63_ ^ 2 ] = 31433
c246: [ 1 x_5_ ^ 2 - 2 x_64_ * x_5_ + 1 x_64_ ^ 2 + 1 y_5_ ^ 2 - 2 y_64_ * y_5_ + 1 y_64_ ^ 2 ] = 8861
c247: [ 1 x_10_ ^ 2 - 2 x_64_ * x_10_ + 1 x_64_ ^ 2 + 1 y_10_ ^ 2 - 2 y_64_ * y_10_ + 1 y_64_ ^ 2 ] = 6530
c248: [ 1 x_27_ ^ 2 - 2 x_64_ * x_27_ + 1 x_64_ ^ 2 + 1 y_27_ ^ 2 - 2 y_64_ * y_27_ + 1 y_64_ ^ 2 ] = 18148
c249: [ 1 x_31_ ^ 2 - 2 x_64_ * x_31_ + 1 x_64_ ^ 2 + 1 y_31_ ^ 2 - 2 y_64_ * y_31_ + 1 y_64_ ^ 2 ] = 7585
c250: [ 1 x_37_ ^ 2 - 2 x_64_ * x_37_ + 1 x_64_ ^ 2 + 1 y_37_ ^ 2 - 2 y_64_ * y_37_ + 1 y_64_ ^ 2 ] = 1768
c251: [ 1 x_52_ ^ 2 - 2 x_64_ * x_52_ + 1 x_64_ ^ 2 + 1 y_52_ ^ 2 - 2 y_64_ * y_52_ + 1 y_64_ ^ 2 ] = 24020
c252: [ 1 x_63_ ^ 2 - 2 x_64_ * x_63_ + 1 x_64_ ^ 2 + 1 y_63_ ^ 2 - 2 y_64_ * y_63_ + 1 y_64_ ^ 2 ] = 25325
c253: [ 1 x_30_ ^ 2 - 2 x_65_ * x_30_ + 1 x_65_ ^ 2 + 1 y_30_ ^ 2 - 2 y_65_ * y_30_ + 1 y_65_ ^ 2 ] = 5825
c254: [ 1 x_35_ ^ 2 - 2 x_65_ * x_35_ + 1 x_65_ ^ 2 + 1 y_35_ ^ 2 - 2 y_65_ * y_35_ + 1 y_65_ ^ 2 ] = 10676
c255: [ 1 x_53_ ^ 2 - 2 x_65_ * x_53_ + 1 x_65_ ^ 2 + 1 y_53_ ^ 2 - 2 y_65_ * y_53_ + 1 y_65_ ^ 2 ] = 24452
c256: [ 1 x_54_ ^ 2 - 2 x_65_ * x_54_ + 1 x_65_ ^ 2 + 1 y_54_ ^ 2 - 2 y_65_ * y_54_ + 1 y_65_ ^ 2 ] = 19053
c257: [ 1 x_63_ ^ 2 - 2 x_65_ * x_63_ + 1 x_65_ ^ 2 + 1 y_63_ ^ 2 - 2 y_65_ * y_63_ + 1 y_65_ ^ 2 ] = 26000
c258: [ 1 x_64_ ^ 2 - 2 x_65_ * x_64_ + 1 x_65_ ^ 2 + 1 y_64_ ^ 2 - 2 y_65_ * y_64_ + 1 y_65_ ^ 2 ] = 5
c259: [ 1 x_2_ ^ 2 - 2 x_66_ * x_2_ + 1 x_66_ ^ 2 + 1 y_2_ ^ 2 - 2 y_66_ * y_2_ + 1 y_66_ ^ 2 ] = 16218
c260: [ 1 x_4_ ^ 2 - 2 x_66_ * x_4_ + 1 x_66_ ^ 2 + 1 y_4_ ^ 2 - 2 y_66_ * y_4_ + 1 y_66_ ^ 2 ] = 12385
c261: [ 1 x_8_ ^ 2 - 2 x_66_ * x_8_ + 1 x_66_ ^ 2 + 1 y_8_ ^ 2 - 2 y_66_ * y_8_ + 1 y_66_ ^ 2 ] = 32264
c262: [ 1 x_9_ ^ 2 - 2 x_66_ * x_9_ + 1 x_66_ ^ 2 + 1 y_9_ ^ 2 - 2 y_66_ * y_9_ + 1 y_66_ ^ 2 ] = 30482
c263: [ 1 x_10_ ^ 2 - 2 x_66_ * x_10_ + 1 x_66_ ^ 2 + 1 y_10_ ^ 2 - 2 y_66_ * y_10_ + 1 y_66_ ^ 2 ] = 23677
c264: [ 1 x_18_ ^ 2 - 2 x_66_ * x_18_ + 1 x_66_ ^ 2 + 1 y_18_ ^ 2 - 2 y_66_ * y_18_ + 1 y_66_ ^ 2 ] = 21170
c265: [ 1 x_24_ ^ 2 - 2 x_66_ * x_24_ + 1 x_66_ ^ 2 + 1 y_24_ ^ 2 - 2 y_66_ * y_24_ + 1 y_66_ ^ 2 ] = 22937
c266: [ 1 x_30_ ^ 2 - 2 x_66_ * x_30_ + 1 x_66_ ^ 2 + 1 y_30_ ^ 2 - 2 y_66_ * y_30_ + 1 y_66_ ^ 2 ] = 9325
c267: [ 1 x_37_ ^ 2 - 2 x_66_ * x_37_ + 1 x_66_ ^ 2 + 1 y_37_ ^ 2 - 2 y_66_ * y_37_ + 1 y_66_ ^ 2 ] = 1417
c268: [ 1 x_47_ ^ 2 - 2 x_66_ * x_47_ + 1 x_66_ ^ 2 + 1 y_47_ ^ 2 - 2 y_66_ * y_47_ + 1 y_66_ ^ 2 ] = 32977
c269: [ 1 x_65_ ^ 2 - 2 x_66_ * x_65_ + 1 x_66_ ^ 2 + 1 y_65_ ^ 2 - 2 y_66_ * y_65_ + 1 y_66_ ^ 2 ] = 6362
c270: [ 1 x_37_ ^ 2 - 2 x_67_ * x_37_ + 1 x_67_ ^ 2 + 1 y_37_ ^ 2 - 2 y_67_ * y_37_ + 1 y_67_ ^ 2 ] = 7141
c271: [ 1 x_40_ ^ 2 - 2 x_67_ * x_40_ + 1 x_67_ ^ 2 + 1 y_40_ ^ 2 - 2 y_67_ * y_40_ + 1 y_67_ ^ 2 ] = 7970
c272: [ 1 x_66_ ^ 2 - 2 x_67_ * x_66_ + 1 x_67_ ^ 2 + 1 y_66_ ^ 2 - 2 y_67_ * y_66_ + 1 y_67_ ^ 2 ] = 12456
c273: [ 1 x_18_ ^ 2 - 2 x_68_ * x_18_ + 1 x_68_ ^ 2 + 1 y_18_ ^ 2 - 2 y_68_ * y_18_ + 1 y_68_ ^ 2 ] = 2116
c274: [ 1 x_19_ ^ 2 - 2 x_68_ * x_19_ + 1 x_68_ ^ 2 + 1 y_19_ ^ 2 - 2 y_68_ * y_19_ + 1 y_68_ ^ 2 ] = 11281
c275: [ 1 x_33_ ^ 2 - 2 x_68_ * x_33_ + 1 x_68_ ^ 2 + 1 y_33_ ^ 2 - 2 y_68_ * y_33_ + 1 y_68_ ^ 2 ] = 21073
c276: [ 1 x_40_ ^ 2 - 2 x_68_ * x_40_ + 1 x_68_ ^ 2 + 1 y_40_ ^ 2 - 2 y_68_ * y_40_ + 1 y_68_ ^ 2 ] = 340
c277: [ 1 x_43_ ^ 2 - 2 x_68_ * x_43_ + 1 x_68_ ^ 2 + 1 y_43_ ^ 2 - 2 y_68_ * y_43_ + 1 y_68_ ^ 2 ] = 6914
c278: [ 1 x_45_ ^ 2 - 2 x_68_ * x_45_ + 1 x_68_ ^ 2 + 1 y_45_ ^ 2 - 2 y_68_ * y_45_ + 1 y_68_ ^ 2 ] = 45065
c279: [ 1 x_50_ ^ 2 - 2 x_68_ * x_50_ + 1 x_68_ ^ 2 + 1 y_50_ ^ 2 - 2 y_68_ * y_50_ + 1 y_68_ ^ 2 ] = 4545
c280: [ 1 x_67_ ^ 2 - 2 x_68_ * x_67_ + 1 x_68_ ^ 2 + 1 y_67_ ^ 2 - 2 y_68_ * y_67_ + 1 y_68_ ^ 2 ] = 6370
c281: [ 1 x_16_ ^ 2 - 2 x_69_ * x_16_ + 1 x_69_ ^ 2 + 1 y_16_ ^ 2 - 2 y_69_ * y_16_ + 1 y_69_ ^ 2 ] = 1508
c282: [ 1 x_34_ ^ 2 - 2 x_69_ * x_34_ + 1 x_69_ ^ 2 + 1 y_34_ ^ 2 - 2 y_69_ * y_34_ + 1 y_69_ ^ 2 ] = 14801
c283: [ 1 x_37_ ^ 2 - 2 x_69_ * x_37_ + 1 x_69_ ^ 2 + 1 y_37_ ^ 2 - 2 y_69_ * y_37_ + 1 y_69_ ^ 2 ] = 17357
c284: [ 1 x_67_ ^ 2 - 2 x_69_ * x_67_ + 1 x_69_ ^ 2 + 1 y_67_ ^ 2 - 2 y_69_ * y_67_ + 1 y_69_ ^ 2 ] = 2836
c285: [ 1 x_68_ ^ 2 - 2 x_69_ * x_68_ + 1 x_69_ ^ 2 + 1 y_68_ ^ 2 - 2 y_69_ * y_68_ + 1 y_69_ ^ 2 ] = 11810
c286: [ 1 x_2_ ^ 2 - 2 x_70_ * x_2_ + 1 x_70_ ^ 2 + 1 y_2_ ^ 2 - 2 y_70_ * y_2_ + 1 y_70_ ^ 2 ] = 34729
c287: [ 1 x_8_ ^ 2 - 2 x_70_ * x_8_ + 1 x_70_ ^ 2 + 1 y_8_ ^ 2 - 2 y_70_ * y_8_ + 1 y_70_ ^ 2 ] = 31301
c288: [ 1 x_17_ ^ 2 - 2 x_70_ * x_17_ + 1 x_70_ ^ 2 + 1 y_17_ ^ 2 - 2 y_70_ * y_17_ + 1 y_70_ ^ 2 ] = 42820
c289: [ 1 x_21_ ^ 2 - 2 x_70_ * x_21_ + 1 x_70_ ^ 2 + 1 y_21_ ^ 2 - 2 y_70_ * y_21_ + 1 y_70_ ^ 2 ] = 17524
c290: [ 1 x_37_ ^ 2 - 2 x_70_ * x_37_ + 1 x_70_ ^ 2 + 1 y_37_ ^ 2 - 2 y_70_ * y_37_ + 1 y_70_ ^ 2 ] = 5162
c291: [ 1 x_45_ ^ 2 - 2 x_70_ * x_45_ + 1 x_70_ ^ 2 + 1 y_45_ ^ 2 - 2 y_70_ * y_45_ + 1 y_70_ ^ 2 ] = 1600
c292: [ 1 x_57_ ^ 2 - 2 x_70_ * x_57_ + 1 x_70_ ^ 2 + 1 y_57_ ^ 2 - 2 y_70_ * y_57_ + 1 y_70_ ^ 2 ] = 1224
c293: [ 1 x_60_ ^ 2 - 2 x_70_ * x_60_ + 1 x_70_ ^ 2 + 1 y_60_ ^ 2 - 2 y_70_ * y_60_ + 1 y_70_ ^ 2 ] = 42500
c294: [ 1 x_69_ ^ 2 - 2 x_70_ * x_69_ + 1 x_70_ ^ 2 + 1 y_69_ ^ 2 - 2 y_70_ * y_69_ + 1 y_70_ ^ 2 ] = 14409
c295: [ 1 x_3_ ^ 2 - 2 x_71_ * x_3_ + 1 x_71_ ^ 2 + 1 y_3_ ^ 2 - 2 y_71_ * y_3_ + 1 y_71_ ^ 2 ] = 8185
c296: [ 1 x_6_ ^ 2 - 2 x_71_ * x_6_ + 1 x_71_ ^ 2 + 1 y_6_ ^ 2 - 2 y_71_ * y_6_ + 1 y_71_ ^ 2 ] = 14321
c297: [ 1 x_21_ ^ 2 - 2 x_71_ * x_21_ + 1 x_71_ ^ 2 + 1 y_21_ ^ 2 - 2 y_71_ * y_21_ + 1 y_71_ ^ 2 ] = 11826
c298: [ 1 x_41_ ^ 2 - 2 x_71_ * x_41_ + 1 x_71_ ^ 2 + 1 y_41_ ^ 2 - 2 y_71_ * y_41_ + 1 y_71_ ^ 2 ] = 10889
c299: [ 1 x_43_ ^ 2 - 2 x_71_ * x_43_ + 1 x_71_ ^ 2 + 1 y_43_ ^ 2 - 2 y_71_ * y_43_ + 1 y_71_ ^ 2 ] = 1061
c300: [ 1 x_45_ ^ 2 - 2 x_71_ * x_45_ + 1 x_71_ ^ 2 + 1 y_45_ ^ 2 - 2 y_71_ * y_45_ + 1 y_71_ ^ 2 ] = 26962
c301: [ 1 x_47_ ^ 2 - 2 x_71_ * x_47_ + 1 x_71_ ^ 2 + 1 y_47_ ^ 2 - 2 y_71_ * y_47_ + 1 y_71_ ^ 2 ] = 9832
c302: [ 1 x_67_ ^ 2 - 2 x_71_ * x_67_ + 1 x_71_ ^ 2 + 1 y_67_ ^ 2 - 2 y_71_ * y_67_ + 1 y_71_ ^ 2 ] = 2313
c303: [ 1 x_70_ ^ 2 - 2 x_71_ * x_70_ + 1 x_71_ ^ 2 + 1 y_70_ ^ 2 - 2 y_71_ * y_70_ + 1 y_71_ ^ 2 ] = 15490
c304: [ 1 x_10_ ^ 2 - 2 x_72_ * x_10_ + 1 x_72_ ^ 2 + 1 y_10_ ^ 2 - 2 y_72_ * y_10_ + 1 y_72_ ^ 2 ] = 3508
c305: [ 1 x_14_ ^ 2 - 2 x_72_ * x_14_ + 1 x_72_ ^ 2 + 1 y_14_ ^ 2 - 2 y_72_ * y_14_ + 1 y_72_ ^ 2 ] = 27538
c306: [ 1 x_15_ ^ 2 - 2 x_72_ * x_15_ + 1 x_72_ ^ 2 + 1 y_15_ ^ 2 - 2 y_72_ * y_15_ + 1 y_72_ ^ 2 ] = 14450
c307: [ 1 x_31_ ^ 2 - 2 x_72_ * x_31_ + 1 x_72_ ^ 2 + 1 y_31_ ^ 2 - 2 y_72_ * y_31_ + 1 y_72_ ^ 2 ] = 23941
c308: [ 1 x_54_ ^ 2 - 2 x_72_ * x_54_ + 1 x_72_ ^ 2 + 1 y_54_ ^ 2 - 2 y_72_ * y_54_ + 1 y_72_ ^ 2 ] = 25506
c309: [ 1 x_57_ ^ 2 - 2 x_72_ * x_57_ + 1 x_72_ ^ 2 + 1 y_57_ ^ 2 - 2 y_72_ * y_57_ + 1 y_72_ ^ 2 ] = 872
c310: [ 1 x_62_ ^ 2 - 2 x_72_ * x_62_ + 1 x_72_ ^ 2 + 1 y_62_ ^ 2 - 2 y_72_ * y_62_ + 1 y_72_ ^ 2 ] = 18306
c311: [ 1 x_68_ ^ 2 - 2 x_72_ * x_68_ + 1 x_72_ ^ 2 + 1 y_68_ ^ 2 - 2 y_72_ * y_68_ + 1 y_72_ ^ 2 ] = 39065
c312: [ 1 x_71_ ^ 2 - 2 x_72_ * x_71_ + 1 x_72_ ^ 2 + 1 y_71_ ^ 2 - 2 y_72_ * y_71_ + 1 y_72_ ^ 2 ] = 23930
c313: [ 1 x_7_ ^ 2 - 2 x_73_ * x_7_ + 1 x_73_ ^ 2 + 1 y_7_ ^ 2 - 2 y_73_ * y_7_ + 1 y_73_ ^ 2 ] = 26240
c314: [ 1 x_22_ ^ 2 - 2 x_73_ * x_22_ + 1 x_73_ ^ 2 + 1 y_22_ ^ 2 - 2 y_73_ * y_22_ + 1 y_73_ ^ 2 ] = 3636
c315: [ 1 x_33_ ^ 2 - 2 x_73_ * x_33_ + 1 x_73_ ^ 2 + 1 y_33_ ^ 2 - 2 y_73_ * y_33_ + 1 y_73_ ^ 2 ] = 27857
c316: [ 1 x_36_ ^ 2 - 2 x_73_ * x_36_ + 1 x_73_ ^ 2 + 1 y_36_ ^ 2 - 2 y_73_ * y_36_ + 1 y_73_ ^ 2 ] = 1220
c317: [ 1 x_46_ ^ 2 - 2 x_73_ * x_46_ + 1 x_73_ ^ 2 + 1 y_46_ ^ 2 - 2 y_73_ * y_46_ + 1 y_73_ ^ 2 ] = 12410
c318: [ 1 x_51_ ^ 2 - 2 x_73_ * x_51_ + 1 x_73_ ^ 2 + 1 y_51_ ^ 2 - 2 y_73_ * y_51_ + 1 y_73_ ^ 2 ] = 39796
c319: [ 1 x_72_ ^ 2 - 2 x_73_ * x_72_ + 1 x_73_ ^ 2 + 1 y_72_ ^ 2 - 2 y_73_ * y_72_ + 1 y_73_ ^ 2 ] = 42125
c320: [ 1 x_4_ ^ 2 - 2 x_74_ * x_4_ + 1 x_74_ ^ 2 + 1 y_4_ ^ 2 - 2 y_74_ * y_4_ + 1 y_74_ ^ 2 ] = 9533
c321: [ 1 x_5_ ^ 2 - 2 x_74_ * x_5_ + 1 x_74_ ^ 2 + 1 y_5_ ^ 2 - 2 y_74_ * y_5_ + 1 y_74_ ^ 2 ] = 20420
c322: [ 1 x_17_ ^ 2 - 2 x_74_ * x_17_ + 1 x_74_ ^ 2 + 1 y_17_ ^ 2 - 2 y_74_ * y_17_ + 1 y_74_ ^ 2 ] = 46745
c323: [ 1 x_25_ ^ 2 - 2 x_74_ * x_25_ + 1 x_74_ ^ 2 + 1 y_25_ ^ 2 - 2 y_74_ * y_25_ + 1 y_74_ ^ 2 ] = 23293
c324: [ 1 x_43_ ^ 2 - 2 x_74_ * x_43_ + 1 x_74_ ^ 2 + 1 y_43_ ^ 2 - 2 y_74_ * y_43_ + 1 y_74_ ^ 2 ] = 16840
c325: [ 1 x_45_ ^ 2 - 2 x_74_ * x_45_ + 1 x_74_ ^ 2 + 1 y_45_ ^ 2 - 2 y_74_ * y_45_ + 1 y_74_ ^ 2 ] = 845
c326: [ 1 x_50_ ^ 2 - 2 x_74_ * x_50_ + 1 x_74_ ^ 2 + 1 y_50_ ^ 2 - 2 y_74_ * y_50_ + 1 y_74_ ^ 2 ] = 16369
c327: [ 1 x_54_ ^ 2 - 2 x_74_ * x_54_ + 1 x_74_ ^ 2 + 1 y_54_ ^ 2 - 2 y_74_ * y_54_ + 1 y_74_ ^ 2 ] = 24109
c328: [ 1 x_73_ ^ 2 - 2 x_74_ * x_73_ + 1 x_74_ ^ 2 + 1 y_73_ ^ 2 - 2 y_74_ * y_73_ + 1 y_74_ ^ 2 ] = 38132
c329: [ 1 x_1_ ^ 2 - 2 x_75_ * x_1_ + 1 x_75_ ^ 2 + 1 y_1_ ^ 2 - 2 y_75_ * y_1_ + 1 y_75_ ^ 2 ] = 5389
c330: [ 1 x_5_ ^ 2 - 2 x_75_ * x_5_ + 1 x_75_ ^ 2 + 1 y_5_ ^ 2 - 2 y_75_ * y_5_ + 1 y_75_ ^ 2 ] = 44741
c331: [ 1 x_29_ ^ 2 - 2 x_75_ * x_29_ + 1 x_75_ ^ 2 + 1 y_29_ ^ 2 - 2 y_75_ * y_29_ + 1 y_75_ ^ 2 ] = 24930
c332: [ 1 x_34_ ^ 2 - 2 x_75_ * x_34_ + 1 x_75_ ^ 2 + 1 y_34_ ^ 2 - 2 y_75_ * y_34_ + 1 y_75_ ^ 2 ] = 29860
c333: [ 1 x_36_ ^ 2 - 2 x_75_ * x_36_ + 1 x_75_ ^ 2 + 1 y_36_ ^ 2 - 2 y_75_ * y_36_ + 1 y_75_ ^ 2 ] = 7517
c334: [ 1 x_39_ ^ 2 - 2 x_75_ * x_39_ + 1 x_75_ ^ 2 + 1 y_39_ ^ 2 - 2 y_75_ * y_39_ + 1 y_75_ ^ 2 ] = 37960
c335: [ 1 x_60_ ^ 2 - 2 x_75_ * x_60_ + 1 x_75_ ^ 2 + 1 y_60_ ^ 2 - 2 y_75_ * y_60_ + 1 y_75_ ^ 2 ] = 25930
c336: [ 1 x_65_ ^ 2 - 2 x_75_ * x_65_ + 1 x_75_ ^ 2 + 1 y_65_ ^ 2 - 2 y_75_ * y_65_ + 1 y_75_ ^ 2 ] = 26585
c337: [ 1 x_66_ ^ 2 - 2 x_75_ * x_66_ + 1 x_75_ ^ 2 + 1 y_66_ ^ 2 - 2 y_75_ * y_66_ + 1 y_75_ ^ 2 ] = 45613
c338: [ 1 x_68_ ^ 2 - 2 x_75_ * x_68_ + 1 x_75_ ^ 2 + 1 y_68_ ^ 2 - 2 y_75_ * y_68_ + 1 y_75_ ^ 2 ] = 18801
c339: [ 1 x_74_ ^ 2 - 2 x_75_ * x_74_ + 1 x_75_ ^ 2 + 1 y_74_ ^ 2 - 2 y_75_ * y_74_ + 1 y_75_ ^ 2 ] = 26065
c340: [ 1 x_14_ ^ 2 - 2 x_76_ * x_14_ + 1 x_76_ ^ 2 + 1 y_14_ ^ 2 - 2 y_76_ * y_14_ + 1 y_76_ ^ 2 ] = 9274
c341: [ 1 x_16_ ^ 2 - 2 x_76_ * x_16_ + 1 x_76_ ^ 2 + 1 y_16_ ^ 2 - 2 y_76_ * y_16_ + 1 y_76_ ^ 2 ] = 949
c342: [ 1 x_39_ ^ 2 - 2 x_76_ * x_39_ + 1 x_76_ ^ 2 + 1 y_39_ ^ 2 - 2 y_76_ * y_39_ + 1 y_76_ ^ 2 ] = 16490
c343: [ 1 x_46_ ^ 2 - 2 x_76_ * x_46_ + 1 x_76_ ^ 2 + 1 y_46_ ^ 2 - 2 y_76_ * y_46_ + 1 y_76_ ^ 2 ] = 4717
c344: [ 1 x_61_ ^ 2 - 2 x_76_ * x_61_ + 1 x_76_ ^ 2 + 1 y_61_ ^ 2 - 2 y_76_ * y_61_ + 1 y_76_ ^ 2 ] = 65
c345: [ 1 x_68_ ^ 2 - 2 x_76_ * x_68_ + 1 x_76_ ^ 2 + 1 y_68_ ^ 2 - 2 y_76_ * y_68_ + 1 y_76_ ^ 2 ] = 9677
c346: [ 1 x_74_ ^ 2 - 2 x_76_ * x_74_ + 1 x_76_ ^ 2 + 1 y_74_ ^ 2 - 2 y_76_ * y_74_ + 1 y_76_ ^ 2 ] = 12505
c347: [ 1 x_75_ ^ 2 - 2 x_76_ * x_75_ + 1 x_76_ ^ 2 + 1 y_75_ ^ 2 - 2 y_76_ * y_75_ + 1 y_76_ ^ 2 ] = 4490
c348: [ 1 x_1_ ^ 2 - 2 x_77_ * x_1_ + 1 x_77_ ^ 2 + 1 y_1_ ^ 2 - 2 y_77_ * y_1_ + 1 y_77_ ^ 2 ] = 3277
c349: [ 1 x_2_ ^ 2 - 2 x_77_ * x_2_ + 1 x_77_ ^ 2 + 1 y_2_ ^ 2 - 2 y_77_ * y_2_ + 1 y_77_ ^ 2 ] = 32161
c350: [ 1 x_7_ ^ 2 - 2 x_77_ * x_7_ + 1 x_77_ ^ 2 + 1 y_7_ ^ 2 - 2 y_77_ * y_7_ + 1 y_77_ ^ 2 ] = 3385
c351: [ 1 x_11_ ^ 2 - 2 x_77_ * x_11_ + 1 x_77_ ^ 2 + 1 y_11_ ^ 2 - 2 y_77_ * y_11_ + 1 y_77_ ^ 2 ] = 5000
c352: [ 1 x_21_ ^ 2 - 2 x_77_ * x_21_ + 1 x_77_ ^ 2 + 1 y_21_ ^ 2 - 2 y_77_ * y_21_ + 1 y_77_ ^ 2 ] = 8200
c353: [ 1 x_44_ ^ 2 - 2 x_77_ * x_44_ + 1 x_77_ ^ 2 + 1 y_44_ ^ 2 - 2 y_77_ * y_44_ + 1 y_77_ ^ 2 ] = 38077
c354: [ 1 x_52_ ^ 2 - 2 x_77_ * x_52_ + 1 x_77_ ^ 2 + 1 y_52_ ^ 2 - 2 y_77_ * y_52_ + 1 y_77_ ^ 2 ] = 23186
c355: [ 1 x_62_ ^ 2 - 2 x_77_ * x_62_ + 1 x_77_ ^ 2 + 1 y_62_ ^ 2 - 2 y_77_ * y_62_ + 1 y_77_ ^ 2 ] = 14170
c356: [ 1 x_67_ ^ 2 - 2 x_77_ * x_67_ + 1 x_77_ ^ 2 + 1 y_67_ ^ 2 - 2 y_77_ * y_67_ + 1 y_77_ ^ 2 ] = 6025
c357: [ 1 x_75_ ^ 2 - 2 x_77_ * x_75_ + 1 x_77_ ^ 2 + 1 y_75_ ^ 2 - 2 y_77_ * y_75_ + 1 y_77_ ^ 2 ] = 14762
c358: [ 1 x_76_ ^ 2 - 2 x_77_ * x_76_ + 1 x_77_ ^ 2 + 1 y_76_ ^ 2 - 2 y_77_ * y_76_ + 1 y_77_ ^ 2 ] = 5524
c359: [ 1 x_19_ ^ 2 - 2 x_78_ * x_19_ + 1 x_78_ ^ 2 + 1 y_19_ ^ 2 - 2 y_78_ * y_19_ + 1 y_78_ ^ 2 ] = 18850
c360: [ 1 x_32_ ^ 2 - 2 x_78_ * x_32_ + 1 x_78_ ^ 2 + 1 y_32_ ^ 2 - 2 y_78_ * y_32_ + 1 y_78_ ^ 2 ] = 11826
c361: [ 1 x_33_ ^ 2 - 2 x_78_ * x_33_ + 1 x_78_ ^ 2 + 1 y_33_ ^ 2 - 2 y_78_ * y_33_ + 1 y_78_ ^ 2 ] = 20386
c362: [ 1 x_40_ ^ 2 - 2 x_78_ * x_40_ + 1 x_78_ ^ 2 + 1 y_40_ ^ 2 - 2 y_78_ * y_40_ + 1 y_78_ ^ 2 ] = 13669
c363: [ 1 x_41_ ^ 2 - 2 x_78_ * x_41_ + 1 x_78_ ^ 2 + 1 y_41_ ^ 2 - 2 y_78_ * y_41_ + 1 y_78_ ^ 2 ] = 42961
c364: [ 1 x_55_ ^ 2 - 2 x_78_ * x_55_ + 1 x_78_ ^ 2 + 1 y_55_ ^ 2 - 2 y_78_ * y_55_ + 1 y_78_ ^ 2 ] = 2788
c365: [ 1 x_77_ ^ 2 - 2 x_78_ * x_77_ + 1 x_78_ ^ 2 + 1 y_77_ ^ 2 - 2 y_78_ * y_77_ + 1 y_78_ ^ 2 ] = 7274
c366: [ 1 x_1_ ^ 2 - 2 x_79_ * x_1_ + 1 x_79_ ^ 2 + 1 y_1_ ^ 2 - 2 y_79_ * y_1_ + 1 y_79_ ^ 2 ] = 2329
c367: [ 1 x_23_ ^ 2 - 2 x_79_ * x_23_ + 1 x_79_ ^ 2 + 1 y_23_ ^ 2 - 2 y_79_ * y_23_ + 1 y_79_ ^ 2 ] = 5597
c368: [ 1 x_34_ ^ 2 - 2 x_79_ * x_34_ + 1 x_79_ ^ 2 + 1 y_34_ ^ 2 - 2 y_79_ * y_34_ + 1 y_79_ ^ 2 ] = 6770
c369: [ 1 x_39_ ^ 2 - 2 x_79_ * x_39_ + 1 x_79_ ^ 2 + 1 y_39_ ^ 2 - 2 y_79_ * y_39_ + 1 y_79_ ^ 2 ] = 8530
c370: [ 1 x_49_ ^ 2 - 2 x_79_ * x_49_ + 1 x_79_ ^ 2 + 1 y_49_ ^ 2 - 2 y_79_ * y_49_ + 1 y_79_ ^ 2 ] = 11357
c371: [ 1 x_54_ ^ 2 - 2 x_79_ * x_54_ + 1 x_79_ ^ 2 + 1 y_54_ ^ 2 - 2 y_79_ * y_54_ + 1 y_79_ ^ 2 ] = 11570
c372: [ 1 x_61_ ^ 2 - 2 x_79_ * x_61_ + 1 x_79_ ^ 2 + 1 y_61_ ^ 2 - 2 y_79_ * y_61_ + 1 y_79_ ^ 2 ] = 3785
c373: [ 1 x_78_ ^ 2 - 2 x_79_ * x_78_ + 1 x_79_ ^ 2 + 1 y_78_ ^ 2 - 2 y_79_ * y_78_ + 1 y_79_ ^ 2 ] = 6290
c374: [ 1 x_11_ ^ 2 - 2 x_80_ * x_11_ + 1 x_80_ ^ 2 + 1 y_11_ ^ 2 - 2 y_80_ * y_11_ + 1 y_80_ ^ 2 ] = 3034
c375: [ 1 x_15_ ^ 2 - 2 x_80_ * x_15_ + 1 x_80_ ^ 2 + 1 y_15_ ^ 2 - 2 y_80_ * y_15_ + 1 y_80_ ^ 2 ] = 3600
c376: [ 1 x_51_ ^ 2 - 2 x_80_ * x_51_ + 1 x_80_ ^ 2 + 1 y_51_ ^ 2 - 2 y_80_ * y_51_ + 1 y_80_ ^ 2 ] = 5105
c377: [ 1 x_65_ ^ 2 - 2 x_80_ * x_65_ + 1 x_80_ ^ 2 + 1 y_65_ ^ 2 - 2 y_80_ * y_65_ + 1 y_80_ ^ 2 ] = 3341
c378: [ 1 x_67_ ^ 2 - 2 x_80_ * x_67_ + 1 x_80_ ^ 2 + 1 y_67_ ^ 2 - 2 y_80_ * y_67_ + 1 y_80_ ^ 2 ] = 3393
c379: [ 1 x_73_ ^ 2 - 2 x_80_ * x_73_ + 1 x_80_ ^ 2 + 1 y_73_ ^ 2 - 2 y_80_ * y_73_ + 1 y_80_ ^ 2 ] = 20717
c380: [ 1 x_79_ ^ 2 - 2 x_80_ * x_79_ + 1 x_80_ ^ 2 + 1 y_79_ ^ 2 - 2 y_80_ * y_79_ + 1 y_80_ ^ 2 ] = 82
c381: [ 1 x_3_ ^ 2 - 2 x_81_ * x_3_ + 1 x_81_ ^ 2 + 1 y_3_ ^ 2 - 2 y_81_ * y_3_ + 1 y_81_ ^ 2 ] = 4121
c382: [ 1 x_19_ ^ 2 - 2 x_81_ * x_19_ + 1 x_81_ ^ 2 + 1 y_19_ ^ 2 - 2 y_81_ * y_19_ + 1 y_81_ ^ 2 ] = 6784
c383: [ 1 x_37_ ^ 2 - 2 x_81_ * x_37_ + 1 x_81_ ^ 2 + 1 y_37_ ^ 2 - 2 y_81_ * y_37_ + 1 y_81_ ^ 2 ] = 9554
c384: [ 1 x_43_ ^ 2 - 2 x_81_ * x_43_ + 1 x_81_ ^ 2 + 1 y_43_ ^ 2 - 2 y_81_ * y_43_ + 1 y_81_ ^ 2 ] = 5101
c385: [ 1 x_49_ ^ 2 - 2 x_81_ * x_49_ + 1 x_81_ ^ 2 + 1 y_49_ ^ 2 - 2 y_81_ * y_49_ + 1 y_81_ ^ 2 ] = 7465
c386: [ 1 x_58_ ^ 2 - 2 x_81_ * x_58_ + 1 x_81_ ^ 2 + 1 y_58_ ^ 2 - 2 y_81_ * y_58_ + 1 y_81_ ^ 2 ] = 2509
c387: [ 1 x_74_ ^ 2 - 2 x_81_ * x_74_ + 1 x_81_ ^ 2 + 1 y_74_ ^ 2 - 2 y_81_ * y_74_ + 1 y_81_ ^ 2 ] = 15305
c388: [ 1 x_80_ ^ 2 - 2 x_81_ * x_80_ + 1 x_81_ ^ 2 + 1 y_80_ ^ 2 - 2 y_81_ * y_80_ + 1 y_81_ ^ 2 ] = 5426
c389: [ 1 x_3_ ^ 2 - 2 x_82_ * x_3_ + 1 x_82_ ^ 2 + 1 y_3_ ^ 2 - 2 y_82_ * y_3_ + 1 y_82_ ^ 2 ] = 6922
c390: [ 1 x_8_ ^ 2 - 2 x_82_ * x_8_ + 1 x_82_ ^ 2 + 1 y_8_ ^ 2 - 2 y_82_ * y_8_ + 1 y_82_ ^ 2 ] = 7090
c391: [ 1 x_28_ ^ 2 - 2 x_82_ * x_28_ + 1 x_82_ ^ 2 + 1 y_28_ ^ 2 - 2 y_82_ * y_28_ + 1 y_82_ ^ 2 ] = 7146
c392: [ 1 x_35_ ^ 2 - 2 x_82_ * x_35_ + 1 x_82_ ^ 2 + 1 y_35_ ^ 2 - 2 y_82_ * y_35_ + 1 y_82_ ^ 2 ] = 5384
c393: [ 1 x_60_ ^ 2 - 2 x_82_ * x_60_ + 1 x_82_ ^ 2 + 1 y_60_ ^ 2 - 2 y_82_ * y_60_ + 1 y_82_ ^ 2 ] = 8405
c394: [ 1 x_74_ ^ 2 - 2 x_82_ * x_74_ + 1 x_82_ ^ 2 + 1 y_74_ ^ 2 - 2 y_82_ * y_74_ + 1 y_82_ ^ 2 ] = 15850
c395: [ 1 x_81_ ^ 2 - 2 x_82_ * x_81_ + 1 x_82_ ^ 2 + 1 y_81_ ^ 2 - 2 y_82_ * y_81_ + 1 y_82_ ^ 2 ] = 865
c396: [ 1 x_6_ ^ 2 - 2 x_83_ * x_6_ + 1 x_83_ ^ 2 + 1 y_6_ ^ 2 - 2 y_83_ * y_6_ + 1 y_83_ ^ 2 ] = 13472
c397: [ 1 x_34_ ^ 2 - 2 x_83_ * x_34_ + 1 x_83_ ^ 2 + 1 y_34_ ^ 2 - 2 y_83_ * y_34_ + 1 y_83_ ^ 2 ] = 2045
c398: [ 1 x_37_ ^ 2 - 2 x_83_ * x_37_ + 1 x_83_ ^ 2 + 1 y_37_ ^ 2 - 2 y_83_ * y_37_ + 1 y_83_ ^ 2 ] = 2025
c399: [ 1 x_44_ ^ 2 - 2 x_83_ * x_44_ + 1 x_83_ ^ 2 + 1 y_44_ ^ 2 - 2 y_83_ * y_44_ + 1 y_83_ ^ 2 ] = 24818
c400: [ 1 x_50_ ^ 2 - 2 x_83_ * x_50_ + 1 x_83_ ^ 2 + 1 y_50_ ^ 2 - 2 y_83_ * y_50_ + 1 y_83_ ^ 2 ] = 16441
c401: [ 1 x_54_ ^ 2 - 2 x_83_ * x_54_ + 1 x_83_ ^ 2 + 1 y_54_ ^ 2 - 2 y_83_ * y_54_ + 1 y_83_ ^ 2 ] = 26269
c402: [ 1 x_63_ ^ 2 - 2 x_83_ * x_63_ + 1 x_83_ ^ 2 + 1 y_63_ ^ 2 - 2 y_83_ * y_63_ + 1 y_83_ ^ 2 ] = 30224
c403: [ 1 x_70_ ^ 2 - 2 x_83_ * x_70_ + 1 x_83_ ^ 2 + 1 y_70_ ^ 2 - 2 y_83_ * y_70_ + 1 y_83_ ^ 2 ] = 13577
c404: [ 1 x_72_ ^ 2 - 2 x_83_ * x_72_ + 1 x_83_ ^ 2 + 1 y_72_ ^ 2 - 2 y_83_ * y_72_ + 1 y_83_ ^ 2 ] = 25609
c405: [ 1 x_82_ ^ 2 - 2 x_83_ * x_82_ + 1 x_83_ ^ 2 + 1 y_82_ ^ 2 - 2 y_83_ * y_82_ + 1 y_83_ ^ 2 ] = 8020
c406: [ 1 x_4_ ^ 2 - 2 x_84_ * x_4_ + 1 x_84_ ^ 2 + 1 y_4_ ^ 2 - 2 y_84_ * y_4_ + 1 y_84_ ^ 2 ] = 4205
c407: [ 1 x_61_ ^ 2 - 2 x_84_ * x_61_ + 1 x_84_ ^ 2 + 1 y_61_ ^ 2 - 2 y_84_ * y_61_ + 1 y_84_ ^ 2 ] = 11016
c408: [ 1 x_67_ ^ 2 - 2 x_84_ * x_67_ + 1 x_84_ ^ 2 + 1 y_67_ ^ 2 - 2 y_84_ * y_67_ + 1 y_84_ ^ 2 ] = 3826
c409: [ 1 x_68_ ^ 2 - 2 x_84_ * x_68_ + 1 x_84_ ^ 2 + 1 y_68_ ^ 2 - 2 y_84_ * y_68_ + 1 y_84_ ^ 2 ] = 7200
c410: [ 1 x_77_ ^ 2 - 2 x_84_ * x_77_ + 1 x_84_ ^ 2 + 1 y_77_ ^ 2 - 2 y_84_ * y_77_ + 1 y_84_ ^ 2 ] = 12713
c411: [ 1 x_78_ ^ 2 - 2 x_84_ * x_78_ + 1 x_84_ ^ 2 + 1 y_78_ ^ 2 - 2 y_84_ * y_78_ + 1 y_84_ ^ 2 ] = 16209
c412: [ 1 x_83_ ^ 2 - 2 x_84_ * x_83_ + 1 x_84_ ^ 2 + 1 y_83_ ^ 2 - 2 y_84_ * y_83_ + 1 y_84_ ^ 2 ] = 2512
c413: [ 1 x_20_ ^ 2 - 2 x_85_ * x_20_ + 1 x_85_ ^ 2 + 1 y_20_ ^ 2 - 2 y_85_ * y_20_ + 1 y_85_ ^ 2 ] = 13010
c414: [ 1 x_23_ ^ 2 - 2 x_85_ * x_23_ + 1 x_85_ ^ 2 + 1 y_23_ ^ 2 - 2 y_85_ * y_23_ + 1 y_85_ ^ 2 ] = 3922
c415: [ 1 x_38_ ^ 2 - 2 x_85_ * x_38_ + 1 x_85_ ^ 2 + 1 y_38_ ^ 2 - 2 y_85_ * y_38_ + 1 y_85_ ^ 2 ] = 27344
c416: [ 1 x_43_ ^ 2 - 2 x_85_ * x_43_ + 1 x_85_ ^ 2 + 1 y_43_ ^ 2 - 2 y_85_ * y_43_ + 1 y_85_ ^ 2 ] = 9074
c417: [ 1 x_44_ ^ 2 - 2 x_85_ * x_44_ + 1 x_85_ ^ 2 + 1 y_44_ ^ 2 - 2 y_85_ * y_44_ + 1 y_85_ ^ 2 ] = 26650
c418: [ 1 x_55_ ^ 2 - 2 x_85_ * x_55_ + 1 x_85_ ^ 2 + 1 y_55_ ^ 2 - 2 y_85_ * y_55_ + 1 y_85_ ^ 2 ] = 11461
c419: [ 1 x_58_ ^ 2 - 2 x_85_ * x_58_ + 1 x_85_ ^ 2 + 1 y_58_ ^ 2 - 2 y_85_ * y_58_ + 1 y_85_ ^ 2 ] = 12100
c420: [ 1 x_63_ ^ 2 - 2 x_85_ * x_63_ + 1 x_85_ ^ 2 + 1 y_63_ ^ 2 - 2 y_85_ * y_63_ + 1 y_85_ ^ 2 ] = 13600
c421: [ 1 x_80_ ^ 2 - 2 x_85_ * x_80_ + 1 x_85_ ^ 2 + 1 y_80_ ^ 2 - 2 y_85_ * y_80_ + 1 y_85_ ^ 2 ] = 157
c422: [ 1 x_84_ ^ 2 - 2 x_85_ * x_84_ + 1 x_85_ ^ 2 + 1 y_84_ ^ 2 - 2 y_85_ * y_84_ + 1 y_85_ ^ 2 ] = 7808
c423: [ 1 x_8_ ^ 2 - 2 x_86_ * x_8_ + 1 x_86_ ^ 2 + 1 y_8_ ^ 2 - 2 y_86_ * y_8_ + 1 y_86_ ^ 2 ] = 11650
c424: [ 1 x_40_ ^ 2 - 2 x_86_ * x_40_ + 1 x_86_ ^ 2 + 1 y_40_ ^ 2 - 2 y_86_ * y_40_ + 1 y_86_ ^ 2 ] = 19300
c425: [ 1 x_55_ ^ 2 - 2 x_86_ * x_55_ + 1 x_86_ ^ 2 + 1 y_55_ ^ 2 - 2 y_86_ * y_55_ + 1 y_86_ ^ 2 ] = 8245
c426: [ 1 x_56_ ^ 2 - 2 x_86_ * x_56_ + 1 x_86_ ^ 2 + 1 y_56_ ^ 2 - 2 y_86_ * y_56_ + 1 y_86_ ^ 2 ] = 7072
c427: [ 1 x_62_ ^ 2 - 2 x_86_ * x_62_ + 1 x_86_ ^ 2 + 1 y_62_ ^ 2 - 2 y_86_ * y_62_ + 1 y_86_ ^ 2 ] = 20065
c428: [ 1 x_79_ ^ 2 - 2 x_86_ * x_79_ + 1 x_86_ ^ 2 + 1 y_79_ ^ 2 - 2 y_86_ * y_79_ + 1 y_86_ ^ 2 ] = 1717
c429: [ 1 x_85_ ^ 2 - 2 x_86_ * x_85_ + 1 x_86_ ^ 2 + 1 y_85_ ^ 2 - 2 y_86_ * y_85_ + 1 y_86_ ^ 2 ] = 1152
c430: [ 1 x_1_ ^ 2 - 2 x_87_ * x_1_ + 1 x_87_ ^ 2 + 1 y_1_ ^ 2 - 2 y_87_ * y_1_ + 1 y_87_ ^ 2 ] = 3637
c431: [ 1 x_5_ ^ 2 - 2 x_87_ * x_5_ + 1 x_87_ ^ 2 + 1 y_5_ ^ 2 - 2 y_87_ * y_5_ + 1 y_87_ ^ 2 ] = 19773
c432: [ 1 x_14_ ^ 2 - 2 x_87_ * x_14_ + 1 x_87_ ^ 2 + 1 y_14_ ^ 2 - 2 y_87_ * y_14_ + 1 y_87_ ^ 2 ] = 5864
c433: [ 1 x_16_ ^ 2 - 2 x_87_ * x_16_ + 1 x_87_ ^ 2 + 1 y_16_ ^ 2 - 2 y_87_ * y_16_ + 1 y_87_ ^ 2 ] = 149
c434: [ 1 x_28_ ^ 2 - 2 x_87_ * x_28_ + 1 x_87_ ^ 2 + 1 y_28_ ^ 2 - 2 y_87_ * y_28_ + 1 y_87_ ^ 2 ] = 5197
c435: [ 1 x_34_ ^ 2 - 2 x_87_ * x_34_ + 1 x_87_ ^ 2 + 1 y_34_ ^ 2 - 2 y_87_ * y_34_ + 1 y_87_ ^ 2 ] = 12884
c436: [ 1 x_35_ ^ 2 - 2 x_87_ * x_35_ + 1 x_87_ ^ 2 + 1 y_35_ ^ 2 - 2 y_87_ * y_35_ + 1 y_87_ ^ 2 ] = 2425
c437: [ 1 x_42_ ^ 2 - 2 x_87_ * x_42_ + 1 x_87_ ^ 2 + 1 y_42_ ^ 2 - 2 y_87_ * y_42_ + 1 y_87_ ^ 2 ] = 29482
c438: [ 1 x_49_ ^ 2 - 2 x_87_ * x_49_ + 1 x_87_ ^ 2 + 1 y_49_ ^ 2 - 2 y_87_ * y_49_ + 1 y_87_ ^ 2 ] = 12629
c439: [ 1 x_53_ ^ 2 - 2 x_87_ * x_53_ + 1 x_87_ ^ 2 + 1 y_53_ ^ 2 - 2 y_87_ * y_53_ + 1 y_87_ ^ 2 ] = 2005
c440: [ 1 x_62_ ^ 2 - 2 x_87_ * x_62_ + 1 x_87_ ^ 2 + 1 y_62_ ^ 2 - 2 y_87_ * y_62_ + 1 y_87_ ^ 2 ] = 20612
c441: [ 1 x_68_ ^ 2 - 2 x_87_ * x_68_ + 1 x_87_ ^ 2 + 1 y_68_ ^ 2 - 2 y_87_ * y_68_ + 1 y_87_ ^ 2 ] = 3497
c442: [ 1 x_76_ ^ 2 - 2 x_87_ * x_76_ + 1 x_87_ ^ 2 + 1 y_76_ ^ 2 - 2 y_87_ * y_76_ + 1 y_87_ ^ 2 ] = 1850
c443: [ 1 x_78_ ^ 2 - 2 x_87_ * x_78_ + 1 x_87_ ^ 2 + 1 y_78_ ^ 2 - 2 y_87_ * y_78_ + 1 y_87_ ^ 2 ] = 3428
c444: [ 1 x_80_ ^ 2 - 2 x_87_ * x_80_ + 1 x_87_ ^ 2 + 1 y_80_ ^ 2 - 2 y_87_ * y_80_ + 1 y_87_ ^ 2 ] = 8788
c445: [ 1 x_85_ ^ 2 - 2 x_87_ * x_85_ + 1 x_87_ ^ 2 + 1 y_85_ ^ 2 - 2 y_87_ * y_85_ + 1 y_87_ ^ 2 ] = 6865
c446: [ 1 x_86_ ^ 2 - 2 x_87_ * x_86_ + 1 x_87_ ^ 2 + 1 y_86_ ^ 2 - 2 y_87_ * y_86_ + 1 y_87_ ^ 2 ] = 6529
c447: [ 1 x_29_ ^ 2 - 2 x_88_ * x_29_ + 1 x_88_ ^ 2 + 1 y_29_ ^ 2 - 2 y_88_ * y_29_ + 1 y_88_ ^ 2 ] = 15377
c448: [ 1 x_34_ ^ 2 - 2 x_88_ * x_34_ + 1 x_88_ ^ 2 + 1 y_34_ ^ 2 - 2 y_88_ * y_34_ + 1 y_88_ ^ 2 ] = 15977
c449: [ 1 x_54_ ^ 2 - 2 x_88_ * x_54_ + 1 x_88_ ^ 2 + 1 y_54_ ^ 2 - 2 y_88_ * y_54_ + 1 y_88_ ^ 2 ] = 709
c450: [ 1 x_57_ ^ 2 - 2 x_88_ * x_57_ + 1 x_88_ ^ 2 + 1 y_57_ ^ 2 - 2 y_88_ * y_57_ + 1 y_88_ ^ 2 ] = 24625
c451: [ 1 x_60_ ^ 2 - 2 x_88_ * x_60_ + 1 x_88_ ^ 2 + 1 y_60_ ^ 2 - 2 y_88_ * y_60_ + 1 y_88_ ^ 2 ] = 15317
c452: [ 1 x_69_ ^ 2 - 2 x_88_ * x_69_ + 1 x_88_ ^ 2 + 1 y_69_ ^ 2 - 2 y_88_ * y_69_ + 1 y_88_ ^ 2 ] = 340
c453: [ 1 x_71_ ^ 2 - 2 x_88_ * x_71_ + 1 x_88_ ^ 2 + 1 y_71_ ^ 2 - 2 y_88_ * y_71_ + 1 y_88_ ^ 2 ] = 8609
c454: [ 1 x_84_ ^ 2 - 2 x_88_ * x_84_ + 1 x_88_ ^ 2 + 1 y_84_ ^ 2 - 2 y_88_ * y_84_ + 1 y_88_ ^ 2 ] = 13130
c455: [ 1 x_87_ ^ 2 - 2 x_88_ * x_87_ + 1 x_88_ ^ 2 + 1 y_87_ ^ 2 - 2 y_88_ * y_87_ + 1 y_88_ ^ 2 ] = 1297
c456: [ 1 x_10_ ^ 2 - 2 x_89_ * x_10_ + 1 x_89_ ^ 2 + 1 y_10_ ^ 2 - 2 y_89_ * y_10_ + 1 y_89_ ^ 2 ] = 7488
c457: [ 1 x_15_ ^ 2 - 2 x_89_ * x_15_ + 1 x_89_ ^ 2 + 1 y_15_ ^ 2 - 2 y_89_ * y_15_ + 1 y_89_ ^ 2 ] = 10426
c458: [ 1 x_22_ ^ 2 - 2 x_89_ * x_22_ + 1 x_89_ ^ 2 + 1 y_22_ ^ 2 - 2 y_89_ * y_22_ + 1 y_89_ ^ 2 ] = 16769
c459: [ 1 x_37_ ^ 2 - 2 x_89_ * x_37_ + 1 x_89_ ^ 2 + 1 y_37_ ^ 2 - 2 y_89_ * y_37_ + 1 y_89_ ^ 2 ] = 3314
c460: [ 1 x_38_ ^ 2 - 2 x_89_ * x_38_ + 1 x_89_ ^ 2 + 1 y_38_ ^ 2 - 2 y_89_ * y_38_ + 1 y_89_ ^ 2 ] = 41033
c461: [ 1 x_48_ ^ 2 - 2 x_89_ * x_48_ + 1 x_89_ ^ 2 + 1 y_48_ ^ 2 - 2 y_89_ * y_48_ + 1 y_89_ ^ 2 ] = 24650
c462: [ 1 x_51_ ^ 2 - 2 x_89_ * x_51_ + 1 x_89_ ^ 2 + 1 y_51_ ^ 2 - 2 y_89_ * y_51_ + 1 y_89_ ^ 2 ] = 289
c463: [ 1 x_66_ ^ 2 - 2 x_89_ * x_66_ + 1 x_89_ ^ 2 + 1 y_66_ ^ 2 - 2 y_89_ * y_66_ + 1 y_89_ ^ 2 ] = 8317
c464: [ 1 x_82_ ^ 2 - 2 x_89_ * x_82_ + 1 x_89_ ^ 2 + 1 y_82_ ^ 2 - 2 y_89_ * y_82_ + 1 y_89_ ^ 2 ] = 12161
c465: [ 1 x_83_ ^ 2 - 2 x_89_ * x_83_ + 1 x_89_ ^ 2 + 1 y_83_ ^ 2 - 2 y_89_ * y_83_ + 1 y_89_ ^ 2 ] = 10289
c466: [ 1 x_86_ ^ 2 - 2 x_89_ * x_86_ + 1 x_89_ ^ 2 + 1 y_86_ ^ 2 - 2 y_89_ * y_86_ + 1 y_89_ ^ 2 ] = 9945
c467: [ 1 x_88_ ^ 2 - 2 x_89_ * x_88_ + 1 x_89_ ^ 2 + 1 y_88_ ^ 2 - 2 y_89_ * y_88_ + 1 y_89_ ^ 2 ] = 19649
c468: [ 1 x_2_ ^ 2 - 2 x_90_ * x_2_ + 1 x_90_ ^ 2 + 1 y_2_ ^ 2 - 2 y_90_ * y_2_ + 1 y_90_ ^ 2 ] = 6113
c469: [ 1 x_4_ ^ 2 - 2 x_90_ * x_4_ + 1 x_90_ ^ 2 + 1 y_4_ ^ 2 - 2 y_90_ * y_4_ + 1 y_90_ ^ 2 ] = 1210
c470: [ 1 x_9_ ^ 2 - 2 x_90_ * x_9_ + 1 x_90_ ^ 2 + 1 y_9_ ^ 2 - 2 y_90_ * y_9_ + 1 y_90_ ^ 2 ] = 5517
c471: [ 1 x_27_ ^ 2 - 2 x_90_ * x_27_ + 1 x_90_ ^ 2 + 1 y_27_ ^ 2 - 2 y_90_ * y_27_ + 1 y_90_ ^ 2 ] = 4132
c472: [ 1 x_39_ ^ 2 - 2 x_90_ * x_39_ + 1 x_90_ ^ 2 + 1 y_39_ ^ 2 - 2 y_90_ * y_39_ + 1 y_90_ ^ 2 ] = 9620
c473: [ 1 x_44_ ^ 2 - 2 x_90_ * x_44_ + 1 x_90_ ^ 2 + 1 y_44_ ^ 2 - 2 y_90_ * y_44_ + 1 y_90_ ^ 2 ] = 9173
c474: [ 1 x_57_ ^ 2 - 2 x_90_ * x_57_ + 1 x_90_ ^ 2 + 1 y_57_ ^ 2 - 2 y_90_ * y_57_ + 1 y_90_ ^ 2 ] = 22178
c475: [ 1 x_61_ ^ 2 - 2 x_90_ * x_61_ + 1 x_90_ ^ 2 + 1 y_61_ ^ 2 - 2 y_90_ * y_61_ + 1 y_90_ ^ 2 ] = 4421
c476: [ 1 x_82_ ^ 2 - 2 x_90_ * x_82_ + 1 x_90_ ^ 2 + 1 y_82_ ^ 2 - 2 y_90_ * y_82_ + 1 y_90_ ^ 2 ] = 61
c477: [ 1 x_87_ ^ 2 - 2 x_90_ * x_87_ + 1 x_90_ ^ 2 + 1 y_87_ ^ 2 - 2 y_90_ * y_87_ + 1 y_90_ ^ 2 ] = 2084
c478: [ 1 x_88_ ^ 2 - 2 x_90_ * x_88_ + 1 x_90_ ^ 2 + 1 y_88_ ^ 2 - 2 y_90_ * y_88_ + 1 y_90_ ^ 2 ] = 4885
c479: [ 1 x_89_ ^ 2 - 2 x_90_ * x_89_ + 1 x_90_ ^ 2 + 1 y_89_ ^ 2 - 2 y_90_ * y_89_ + 1 y_90_ ^ 2 ] = 12802
c480: [ 1 x_16_ ^ 2 - 2 x_91_ * x_16_ + 1 x_91_ ^ 2 + 1 y_16_ ^ 2 - 2 y_91_ * y_16_ + 1 y_91_ ^ 2 ] = 2941
c481: [ 1 x_21_ ^ 2 - 2 x_91_ * x_21_ + 1 x_91_ ^ 2 + 1 y_21_ ^ 2 - 2 y_91_ * y_21_ + 1 y_91_ ^ 2 ] = 9314
c482: [ 1 x_31_ ^ 2 - 2 x_91_ * x_31_ + 1 x_91_ ^ 2 + 1 y_31_ ^ 2 - 2 y_91_ * y_31_ + 1 y_91_ ^ 2 ] = 7825
c483: [ 1 x_37_ ^ 2 - 2 x_91_ * x_37_ + 1 x_91_ ^ 2 + 1 y_37_ ^ 2 - 2 y_91_ * y_37_ + 1 y_91_ ^ 2 ] = 19240
c484: [ 1 x_41_ ^ 2 - 2 x_91_ * x_41_ + 1 x_91_ ^ 2 + 1 y_41_ ^ 2 - 2 y_91_ * y_41_ + 1 y_91_ ^ 2 ] = 25205
c485: [ 1 x_43_ ^ 2 - 2 x_91_ * x_43_ + 1 x_91_ ^ 2 + 1 y_43_ ^ 2 - 2 y_91_ * y_43_ + 1 y_91_ ^ 2 ] = 8845
c486: [ 1 x_70_ ^ 2 - 2 x_91_ * x_70_ + 1 x_91_ ^ 2 + 1 y_70_ ^ 2 - 2 y_91_ * y_70_ + 1 y_91_ ^ 2 ] = 29426
c487: [ 1 x_71_ ^ 2 - 2 x_91_ * x_71_ + 1 x_91_ ^ 2 + 1 y_71_ ^ 2 - 2 y_91_ * y_71_ + 1 y_91_ ^ 2 ] = 3860
c488: [ 1 x_90_ ^ 2 - 2 x_91_ * x_90_ + 1 x_91_ ^ 2 + 1 y_90_ ^ 2 - 2 y_91_ * y_90_ + 1 y_91_ ^ 2 ] = 3240
c489: [ 1 x_5_ ^ 2 - 2 x_92_ * x_5_ + 1 x_92_ ^ 2 + 1 y_5_ ^ 2 - 2 y_92_ * y_5_ + 1 y_92_ ^ 2 ] = 7625
c490: [ 1 x_8_ ^ 2 - 2 x_92_ * x_8_ + 1 x_92_ ^ 2 + 1 y_8_ ^ 2 - 2 y_92_ * y_8_ + 1 y_92_ ^ 2 ] = 38029
c491: [ 1 x_29_ ^ 2 - 2 x_92_ * x_29_ + 1 x_92_ ^ 2 + 1 y_29_ ^ 2 - 2 y_92_ * y_29_ + 1 y_92_ ^ 2 ] = 2746
c492: [ 1 x_40_ ^ 2 - 2 x_92_ * x_40_ + 1 x_92_ ^ 2 + 1 y_40_ ^ 2 - 2 y_92_ * y_40_ + 1 y_92_ ^ 2 ] = 35933
c493: [ 1 x_52_ ^ 2 - 2 x_92_ * x_52_ + 1 x_92_ ^ 2 + 1 y_52_ ^ 2 - 2 y_92_ * y_52_ + 1 y_92_ ^ 2 ] = 35380
c494: [ 1 x_55_ ^ 2 - 2 x_92_ * x_55_ + 1 x_92_ ^ 2 + 1 y_55_ ^ 2 - 2 y_92_ * y_55_ + 1 y_92_ ^ 2 ] = 38420
c495: [ 1 x_57_ ^ 2 - 2 x_92_ * x_57_ + 1 x_92_ ^ 2 + 1 y_57_ ^ 2 - 2 y_92_ * y_57_ + 1 y_92_ ^ 2 ] = 5978
c496: [ 1 x_60_ ^ 2 - 2 x_92_ * x_60_ + 1 x_92_ ^ 2 + 1 y_60_ ^ 2 - 2 y_92_ * y_60_ + 1 y_92_ ^ 2 ] = 41114
c497: [ 1 x_64_ ^ 2 - 2 x_92_ * x_64_ + 1 x_92_ ^ 2 + 1 y_64_ ^ 2 - 2 y_92_ * y_64_ + 1 y_92_ ^ 2 ] = 1768
c498: [ 1 x_70_ ^ 2 - 2 x_92_ * x_70_ + 1 x_92_ ^ 2 + 1 y_70_ ^ 2 - 2 y_92_ * y_70_ + 1 y_92_ ^ 2 ] = 2834
c499: [ 1 x_72_ ^ 2 - 2 x_92_ * x_72_ + 1 x_92_ ^ 2 + 1 y_72_ ^ 2 - 2 y_92_ * y_72_ + 1 y_92_ ^ 2 ] = 9370
c500: [ 1 x_91_ ^ 2 - 2 x_92_ * x_91_ + 1 x_92_ ^ 2 + 1 y_91_ ^ 2 - 2 y_92_ * y_91_ + 1 y_92_ ^ 2 ] = 31720
c501: [ 1 x_37_ ^ 2 - 2 x_93_ * x_37_ + 1 x_93_ ^ 2 + 1 y_37_ ^ 2 - 2 y_93_ * y_37_ + 1 y_93_ ^ 2 ] = 1682
c502: [ 1 x_52_ ^ 2 - 2 x_93_ * x_52_ + 1 x_93_ ^ 2 + 1 y_52_ ^ 2 - 2 y_93_ * y_52_ + 1 y_93_ ^ 2 ] = 24226
c503: [ 1 x_62_ ^ 2 - 2 x_93_ * x_62_ + 1 x_93_ ^ 2 + 1 y_62_ ^ 2 - 2 y_93_ * y_62_ + 1 y_93_ ^ 2 ] = 3890
c504: [ 1 x_65_ ^ 2 - 2 x_93_ * x_65_ + 1 x_93_ ^ 2 + 1 y_65_ ^ 2 - 2 y_93_ * y_65_ + 1 y_93_ ^ 2 ] = 5
c505: [ 1 x_70_ ^ 2 - 2 x_93_ * x_70_ + 1 x_93_ ^ 2 + 1 y_70_ ^ 2 - 2 y_93_ * y_70_ + 1 y_93_ ^ 2 ] = 1044
c506: [ 1 x_89_ ^ 2 - 2 x_93_ * x_89_ + 1 x_93_ ^ 2 + 1 y_89_ ^ 2 - 2 y_93_ * y_89_ + 1 y_93_ ^ 2 ] = 520
c507: [ 1 x_92_ ^ 2 - 2 x_93_ * x_92_ + 1 x_93_ ^ 2 + 1 y_92_ ^ 2 - 2 y_93_ * y_92_ + 1 y_93_ ^ 2 ] = 1658
c508: [ 1 x_12_ ^ 2 - 2 x_94_ * x_12_ + 1 x_94_ ^ 2 + 1 y_12_ ^ 2 - 2 y_94_ * y_12_ + 1 y_94_ ^ 2 ] = 5017
c509: [ 1 x_22_ ^ 2 - 2 x_94_ * x_22_ + 1 x_94_ ^ 2 + 1 y_22_ ^ 2 - 2 y_94_ * y_22_ + 1 y_94_ ^ 2 ] = 14381
c510: [ 1 x_43_ ^ 2 - 2 x_94_ * x_43_ + 1 x_94_ ^ 2 + 1 y_43_ ^ 2 - 2 y_94_ * y_43_ + 1 y_94_ ^ 2 ] = 4481
c511: [ 1 x_47_ ^ 2 - 2 x_94_ * x_47_ + 1 x_94_ ^ 2 + 1 y_47_ ^ 2 - 2 y_94_ * y_47_ + 1 y_94_ ^ 2 ] = 37364
c512: [ 1 x_84_ ^ 2 - 2 x_94_ * x_84_ + 1 x_94_ ^ 2 + 1 y_84_ ^ 2 - 2 y_94_ * y_84_ + 1 y_94_ ^ 2 ] = 4625
c513: [ 1 x_93_ ^ 2 - 2 x_94_ * x_93_ + 1 x_94_ ^ 2 + 1 y_93_ ^ 2 - 2 y_94_ * y_93_ + 1 y_94_ ^ 2 ] = 7666
c514: [ 1 x_6_ ^ 2 - 2 x_95_ * x_6_ + 1 x_95_ ^ 2 + 1 y_6_ ^ 2 - 2 y_95_ * y_6_ + 1 y_95_ ^ 2 ] = 10162
c515: [ 1 x_12_ ^ 2 - 2 x_95_ * x_12_ + 1 x_95_ ^ 2 + 1 y_12_ ^ 2 - 2 y_95_ * y_12_ + 1 y_95_ ^ 2 ] = 12520
c516: [ 1 x_24_ ^ 2 - 2 x_95_ * x_24_ + 1 x_95_ ^ 2 + 1 y_24_ ^ 2 - 2 y_95_ * y_24_ + 1 y_95_ ^ 2 ] = 925
c517: [ 1 x_25_ ^ 2 - 2 x_95_ * x_25_ + 1 x_95_ ^ 2 + 1 y_25_ ^ 2 - 2 y_95_ * y_25_ + 1 y_95_ ^ 2 ] = 13725
c518: [ 1 x_29_ ^ 2 - 2 x_95_ * x_29_ + 1 x_95_ ^ 2 + 1 y_29_ ^ 2 - 2 y_95_ * y_29_ + 1 y_95_ ^ 2 ] = 9945
c519: [ 1 x_38_ ^ 2 - 2 x_95_ * x_38_ + 1 x_95_ ^ 2 + 1 y_38_ ^ 2 - 2 y_95_ * y_38_ + 1 y_95_ ^ 2 ] = 28594
c520: [ 1 x_39_ ^ 2 - 2 x_95_ * x_39_ + 1 x_95_ ^ 2 + 1 y_39_ ^ 2 - 2 y_95_ * y_39_ + 1 y_95_ ^ 2 ] = 19981
c521: [ 1 x_88_ ^ 2 - 2 x_95_ * x_88_ + 1 x_95_ ^ 2 + 1 y_88_ ^ 2 - 2 y_95_ * y_88_ + 1 y_95_ ^ 2 ] = 1568
c522: [ 1 x_90_ ^ 2 - 2 x_95_ * x_90_ + 1 x_95_ ^ 2 + 1 y_90_ ^ 2 - 2 y_95_ * y_90_ + 1 y_95_ ^ 2 ] = 7517
c523: [ 1 x_92_ ^ 2 - 2 x_95_ * x_92_ + 1 x_95_ ^ 2 + 1 y_92_ ^ 2 - 2 y_95_ * y_92_ + 1 y_95_ ^ 2 ] = 21517
c524: [ 1 x_94_ ^ 2 - 2 x_95_ * x_94_ + 1 x_95_ ^ 2 + 1 y_94_ ^ 2 - 2 y_95_ * y_94_ + 1 y_95_ ^ 2 ] = 31181
c525: [ 1 x_10_ ^ 2 - 2 x_96_ * x_10_ + 1 x_96_ ^ 2 + 1 y_10_ ^ 2 - 2 y_96_ * y_10_ + 1 y_96_ ^ 2 ] = 22725
c526: [ 1 x_19_ ^ 2 - 2 x_96_ * x_19_ + 1 x_96_ ^ 2 + 1 y_19_ ^ 2 - 2 y_96_ * y_19_ + 1 y_96_ ^ 2 ] = 2197
c527: [ 1 x_59_ ^ 2 - 2 x_96_ * x_59_ + 1 x_96_ ^ 2 + 1 y_59_ ^ 2 - 2 y_96_ * y_59_ + 1 y_96_ ^ 2 ] = 31905
c528: [ 1 x_72_ ^ 2 - 2 x_96_ * x_72_ + 1 x_96_ ^ 2 + 1 y_72_ ^ 2 - 2 y_96_ * y_72_ + 1 y_96_ ^ 2 ] = 20281
c529: [ 1 x_83_ ^ 2 - 2 x_96_ * x_83_ + 1 x_96_ ^ 2 + 1 y_83_ ^ 2 - 2 y_96_ * y_83_ + 1 y_96_ ^ 2 ] = 890
c530: [ 1 x_95_ ^ 2 - 2 x_96_ * x_95_ + 1 x_96_ ^ 2 + 1 y_95_ ^ 2 - 2 y_96_ * y_95_ + 1 y_96_ ^ 2 ] = 27380
c531: [ 1 x_9_ ^ 2 - 2 x_97_ * x_9_ + 1 x_97_ ^ 2 + 1 y_9_ ^ 2 - 2 y_97_ * y_9_ + 1 y_97_ ^ 2 ] = 2465
c532: [ 1 x_34_ ^ 2 - 2 x_97_ * x_34_ + 1 x_97_ ^ 2 + 1 y_34_ ^ 2 - 2 y_97_ * y_34_ + 1 y_97_ ^ 2 ] = 7730
c533: [ 1 x_37_ ^ 2 - 2 x_97_ * x_37_ + 1 x_97_ ^ 2 + 1 y_37_ ^ 2 - 2 y_97_ * y_37_ + 1 y_97_ ^ 2 ] = 10138
c534: [ 1 x_39_ ^ 2 - 2 x_97_ * x_39_ + 1 x_97_ ^ 2 + 1 y_39_ ^ 2 - 2 y_97_ * y_39_ + 1 y_97_ ^ 2 ] = 13050
c535: [ 1 x_40_ ^ 2 - 2 x_97_ * x_40_ + 1 x_97_ ^ 2 + 1 y_40_ ^ 2 - 2 y_97_ * y_40_ + 1 y_97_ ^ 2 ] = 5537
c536: [ 1 x_60_ ^ 2 - 2 x_97_ * x_60_ + 1 x_97_ ^ 2 + 1 y_60_ ^ 2 - 2 y_97_ * y_60_ + 1 y_97_ ^ 2 ] = 10100
c537: [ 1 x_61_ ^ 2 - 2 x_97_ * x_61_ + 1 x_97_ ^ 2 + 1 y_61_ ^ 2 - 2 y_97_ * y_61_ + 1 y_97_ ^ 2 ] = 1765
c538: [ 1 x_69_ ^ 2 - 2 x_97_ * x_69_ + 1 x_97_ ^ 2 + 1 y_69_ ^ 2 - 2 y_97_ * y_69_ + 1 y_97_ ^ 2 ] = 2353
c539: [ 1 x_72_ ^ 2 - 2 x_97_ * x_72_ + 1 x_97_ ^ 2 + 1 y_72_ ^ 2 - 2 y_97_ * y_72_ + 1 y_97_ ^ 2 ] = 17744
c540: [ 1 x_73_ ^ 2 - 2 x_97_ * x_73_ + 1 x_97_ ^ 2 + 1 y_73_ ^ 2 - 2 y_97_ * y_73_ + 1 y_97_ ^ 2 ] = 5213
c541: [ 1 x_74_ ^ 2 - 2 x_97_ * x_74_ + 1 x_97_ ^ 2 + 1 y_74_ ^ 2 - 2 y_97_ * y_74_ + 1 y_97_ ^ 2 ] = 15205
c542: [ 1 x_76_ ^ 2 - 2 x_97_ * x_76_ + 1 x_97_ ^ 2 + 1 y_76_ ^ 2 - 2 y_97_ * y_76_ + 1 y_97_ ^ 2 ] = 1160
c543: [ 1 x_77_ ^ 2 - 2 x_97_ * x_77_ + 1 x_97_ ^ 2 + 1 y_77_ ^ 2 - 2 y_97_ * y_77_ + 1 y_97_ ^ 2 ] = 8452
c544: [ 1 x_93_ ^ 2 - 2 x_97_ * x_93_ + 1 x_97_ ^ 2 + 1 y_93_ ^ 2 - 2 y_97_ * y_93_ + 1 y_97_ ^ 2 ] = 9412
c545: [ 1 x_96_ ^ 2 - 2 x_97_ * x_96_ + 1 x_97_ ^ 2 + 1 y_96_ ^ 2 - 2 y_97_ * y_96_ + 1 y_97_ ^ 2 ] = 17209
c546: [ 1 x_3_ ^ 2 - 2 x_98_ * x_3_ + 1 x_98_ ^ 2 + 1 y_3_ ^ 2 - 2 y_98_ * y_3_ + 1 y_98_ ^ 2 ] = 424
c547: [ 1 x_15_ ^ 2 - 2 x_98_ * x_15_ + 1 x_98_ ^ 2 + 1 y_15_ ^ 2 - 2 y_98_ * y_15_ + 1 y_98_ ^ 2 ] = 3965
c548: [ 1 x_16_ ^ 2 - 2 x_98_ * x_16_ + 1 x_98_ ^ 2 + 1 y_16_ ^ 2 - 2 y_98_ * y_16_ + 1 y_98_ ^ 2 ] = 1360
c549: [ 1 x_24_ ^ 2 - 2 x_98_ * x_24_ + 1 x_98_ ^ 2 + 1 y_24_ ^ 2 - 2 y_98_ * y_24_ + 1 y_98_ ^ 2 ] = 13345
c550: [ 1 x_36_ ^ 2 - 2 x_98_ * x_36_ + 1 x_98_ ^ 2 + 1 y_36_ ^ 2 - 2 y_98_ * y_36_ + 1 y_98_ ^ 2 ] = 64
c551: [ 1 x_47_ ^ 2 - 2 x_98_ * x_47_ + 1 x_98_ ^ 2 + 1 y_47_ ^ 2 - 2 y_98_ * y_47_ + 1 y_98_ ^ 2 ] = 1681
c552: [ 1 x_65_ ^ 2 - 2 x_98_ * x_65_ + 1 x_98_ ^ 2 + 1 y_65_ ^ 2 - 2 y_98_ * y_65_ + 1 y_98_ ^ 2 ] = 21106
c553: [ 1 x_73_ ^ 2 - 2 x_98_ * x_73_ + 1 x_98_ ^ 2 + 1 y_73_ ^ 2 - 2 y_98_ * y_73_ + 1 y_98_ ^ 2 ] = 772
c554: [ 1 x_80_ ^ 2 - 2 x_98_ * x_80_ + 1 x_98_ ^ 2 + 1 y_80_ ^ 2 - 2 y_98_ * y_80_ + 1 y_98_ ^ 2 ] = 13925
c555: [ 1 x_97_ ^ 2 - 2 x_98_ * x_97_ + 1 x_98_ ^ 2 + 1 y_97_ ^ 2 - 2 y_98_ * y_97_ + 1 y_98_ ^ 2 ] = 2297
c556: [ 1 x_10_ ^ 2 - 2 x_99_ * x_10_ + 1 x_99_ ^ 2 + 1 y_10_ ^ 2 - 2 y_99_ * y_10_ + 1 y_99_ ^ 2 ] = 40505
c557: [ 1 x_14_ ^ 2 - 2 x_99_ * x_14_ + 1 x_99_ ^ 2 + 1 y_14_ ^ 2 - 2 y_99_ * y_14_ + 1 y_99_ ^ 2 ] = 6877
c558: [ 1 x_20_ ^ 2 - 2 x_99_ * x_20_ + 1 x_99_ ^ 2 + 1 y_20_ ^ 2 - 2 y_99_ * y_20_ + 1 y_99_ ^ 2 ] = 8564
c559: [ 1 x_21_ ^ 2 - 2 x_99_ * x_21_ + 1 x_99_ ^ 2 + 1 y_21_ ^ 2 - 2 y_99_ * y_21_ + 1 y_99_ ^ 2 ] = 25765
c560: [ 1 x_27_ ^ 2 - 2 x_99_ * x_27_ + 1 x_99_ ^ 2 + 1 y_27_ ^ 2 - 2 y_99_ * y_27_ + 1 y_99_ ^ 2 ] = 3133
c561: [ 1 x_34_ ^ 2 - 2 x_99_ * x_34_ + 1 x_99_ ^ 2 + 1 y_34_ ^ 2 - 2 y_99_ * y_34_ + 1 y_99_ ^ 2 ] = 22417
c562: [ 1 x_52_ ^ 2 - 2 x_99_ * x_52_ + 1 x_99_ ^ 2 + 1 y_52_ ^ 2 - 2 y_99_ * y_52_ + 1 y_99_ ^ 2 ] = 5525
c563: [ 1 x_57_ ^ 2 - 2 x_99_ * x_57_ + 1 x_99_ ^ 2 + 1 y_57_ ^ 2 - 2 y_99_ * y_57_ + 1 y_99_ ^ 2 ] = 61625
c564: [ 1 x_68_ ^ 2 - 2 x_99_ * x_68_ + 1 x_99_ ^ 2 + 1 y_68_ ^ 2 - 2 y_99_ * y_68_ + 1 y_99_ ^ 2 ] = 2250
c565: [ 1 x_71_ ^ 2 - 2 x_99_ * x_71_ + 1 x_99_ ^ 2 + 1 y_71_ ^ 2 - 2 y_99_ * y_71_ + 1 y_99_ ^ 2 ] = 8089
c566: [ 1 x_77_ ^ 2 - 2 x_99_ * x_77_ + 1 x_99_ ^ 2 + 1 y_77_ ^ 2 - 2 y_99_ * y_77_ + 1 y_99_ ^ 2 ] = 41105
c567: [ 1 x_86_ ^ 2 - 2 x_99_ * x_86_ + 1 x_99_ ^ 2 + 1 y_86_ ^ 2 - 2 y_99_ * y_86_ + 1 y_99_ ^ 2 ] = 33050
c568: [ 1 x_90_ ^ 2 - 2 x_99_ * x_90_ + 1 x_99_ ^ 2 + 1 y_90_ ^ 2 - 2 y_99_ * y_90_ + 1 y_99_ ^ 2 ] = 10205
c569: [ 1 x_96_ ^ 2 - 2 x_99_ * x_96_ + 1 x_99_ ^ 2 + 1 y_96_ ^ 2 - 2 y_99_ * y_96_ + 1 y_99_ ^ 2 ] = 30260
c570: [ 1 x_97_ ^ 2 - 2 x_99_ * x_97_ + 1 x_99_ ^ 2 + 1 y_97_ ^ 2 - 2 y_99_ * y_97_ + 1 y_99_ ^ 2 ] = 13141
c571: [ 1 x_98_ ^ 2 - 2 x_99_ * x_98_ + 1 x_99_ ^ 2 + 1 y_98_ ^ 2 - 2 y_99_ * y_98_ + 1 y_99_ ^ 2 ] = 7400
c572: [ 1 x_1_ ^ 2 - 2 x_100_ * x_1_ + 1 x_100_ ^ 2 + 1 y_1_ ^ 2 - 2 y_100_ * y_1_ + 1 y_100_ ^ 2 ] = 7457
c573: [ 1 x_8_ ^ 2 - 2 x_100_ * x_8_ + 1 x_100_ ^ 2 + 1 y_8_ ^ 2 - 2 y_100_ * y_8_ + 1 y_100_ ^ 2 ] = 30781
c574: [ 1 x_14_ ^ 2 - 2 x_100_ * x_14_ + 1 x_100_ ^ 2 + 1 y_14_ ^ 2 - 2 y_100_ * y_14_ + 1 y_100_ ^ 2 ] = 25250
c575: [ 1 x_17_ ^ 2 - 2 x_100_ * x_17_ + 1 x_100_ ^ 2 + 1 y_17_ ^ 2 - 2 y_100_ * y_17_ + 1 y_100_ ^ 2 ] = 47432
c576: [ 1 x_46_ ^ 2 - 2 x_100_ * x_46_ + 1 x_100_ ^ 2 + 1 y_46_ ^ 2 - 2 y_100_ * y_46_ + 1 y_100_ ^ 2 ] = 11125
c577: [ 1 x_57_ ^ 2 - 2 x_100_ * x_57_ + 1 x_100_ ^ 2 + 1 y_57_ ^ 2 - 2 y_100_ * y_57_ + 1 y_100_ ^ 2 ] = 1588
c578: [ 1 x_63_ ^ 2 - 2 x_100_ * x_63_ + 1 x_100_ ^ 2 + 1 y_63_ ^ 2 - 2 y_100_ * y_63_ + 1 y_100_ ^ 2 ] = 30901
c579: [ 1 x_68_ ^ 2 - 2 x_100_ * x_68_ + 1 x_100_ ^ 2 + 1 y_68_ ^ 2 - 2 y_100_ * y_68_ + 1 y_100_ ^ 2 ] = 35477
c580: [ 1 x_70_ ^ 2 - 2 x_100_ * x_70_ + 1 x_100_ ^ 2 + 1 y_70_ ^ 2 - 2 y_100_ * y_70_ + 1 y_100_ ^ 2 ] = 2164
c581: [ 1 x_76_ ^ 2 - 2 x_100_ * x_76_ + 1 x_100_ ^ 2 + 1 y_76_ ^ 2 - 2 y_100_ * y_76_ + 1 y_100_ ^ 2 ] = 10804
c582: [ 1 x_78_ ^ 2 - 2 x_100_ * x_78_ + 1 x_100_ ^ 2 + 1 y_78_ ^ 2 - 2 y_100_ * y_78_ + 1 y_100_ ^ 2 ] = 12290
c583: [ 1 x_89_ ^ 2 - 2 x_100_ * x_89_ + 1 x_100_ ^ 2 + 1 y_89_ ^ 2 - 2 y_100_ * y_89_ + 1 y_100_ ^ 2 ] = 4040
c584: [ 1 x_93_ ^ 2 - 2 x_100_ * x_93_ + 1 x_100_ ^ 2 + 1 y_93_ ^ 2 - 2 y_100_ * y_93_ + 1 y_100_ ^ 2 ] = 5248
c585: [ 1 x_99_ ^ 2 - 2 x_100_ * x_99_ + 1 x_100_ ^ 2 + 1 y_99_ ^ 2 - 2 y_100_ * y_99_ + 1 y_100_ ^ 2 ] = 54437
Bounds
-109 <= x_1_ <= 109
-144 <= x_2_ <= 144
-79 <= x_3_ <= 79
-101 <= x_4_ <= 101
-186 <= x_5_ <= 186
-121 <= x_6_ <= 121
-140 <= x_7_ <= 140
-130 <= x_8_ <= 130
-91 <= x_9_ <= 91
-54 <= x_10_ <= 54
-105 <= x_11_ <= 105
-166 <= x_12_ <= 166
-173 <= x_13_ <= 173
-104 <= x_14_ <= 104
-74 <= x_15_ <= 74
-38 <= x_16_ <= 38
-127 <= x_17_ <= 127
-152 <= x_18_ <= 152
-117 <= x_19_ <= 117
-77 <= x_20_ <= 77
-152 <= x_21_ <= 152
-89 <= x_22_ <= 89
-136 <= x_23_ <= 136
-146 <= x_24_ <= 146
-112 <= x_25_ <= 112
-126 <= x_26_ <= 126
-130 <= x_27_ <= 130
-123 <= x_28_ <= 123
-146 <= x_29_ <= 146
-60 <= x_30_ <= 60
-109 <= x_31_ <= 109
-134 <= x_32_ <= 134
-148 <= x_33_ <= 148
-119 <= x_34_ <= 119
-97 <= x_35_ <= 97
-83 <= x_36_ <= 83
-133 <= x_37_ <= 133
-165 <= x_38_ <= 165
-136 <= x_39_ <= 136
-116 <= x_40_ <= 116
-192 <= x_41_ <= 192
-189 <= x_42_ <= 189
-175 <= x_43_ <= 175
-149 <= x_44_ <= 149
-148 <= x_45_ <= 148
-76 <= x_46_ <= 76
-81 <= x_47_ <= 81
-168 <= x_48_ <= 168
-123 <= x_49_ <= 123
-53 <= x_50_ <= 53
-142 <= x_51_ <= 142
-95 <= x_52_ <= 95
-95 <= x_53_ <= 95
-49 <= x_54_ <= 49
-72 <= x_55_ <= 72
-91 <= x_56_ <= 91
-143 <= x_57_ <= 143
-88 <= x_58_ <= 88
-141 <= x_59_ <= 141
-137 <= x_60_ <= 137
x_61_ = 0
-141 <= x_62_ <= 141
-77 <= x_63_ <= 77
-130 <= x_64_ <= 130
-128 <= x_65_ <= 128
-156 <= x_66_ <= 156
-128 <= x_67_ <= 128
-106 <= x_68_ <= 106
-77 <= x_69_ <= 77
-158 <= x_70_ <= 158
-155 <= x_71_ <= 155
-114 <= x_72_ <= 114
-103 <= x_73_ <= 103
-119 <= x_74_ <= 119
-75 <= x_75_ <= 75
-8 <= x_76_ <= 8
-82 <= x_77_ <= 82
-109 <= x_78_ <= 109
-61 <= x_79_ <= 61
-70 <= x_80_ <= 70
-103 <= x_81_ <= 103
-74 <= x_82_ <= 74
-155 <= x_83_ <= 155
-104 <= x_84_ <= 104
-83 <= x_85_ <= 83
-102 <= x_86_ <= 102
-51 <= x_87_ <= 51
-76 <= x_88_ <= 76
-141 <= x_89_ <= 141
-66 <= x_90_ <= 66
-93 <= x_91_ <= 93
-171 <= x_92_ <= 171
-130 <= x_93_ <= 130
-172 <= x_94_ <= 172
-115 <= x_95_ <= 115
-164 <= x_96_ <= 164
-42 <= x_97_ <= 42
-75 <= x_98_ <= 75
-153 <= x_99_ <= 153
-112 <= x_100_ <= 112
-109 <= y_1_ <= 109
-144 <= y_2_ <= 144
-79 <= y_3_ <= 79
-101 <= y_4_ <= 101
-186 <= y_5_ <= 186
-121 <= y_6_ <= 121
-140 <= y_7_ <= 140
-130 <= y_8_ <= 130
-91 <= y_9_ <= 91
-54 <= y_10_ <= 54
-105 <= y_11_ <= 105
-166 <= y_12_ <= 166
-173 <= y_13_ <= 173
-104 <= y_14_ <= 104
-74 <= y_15_ <= 74
-38 <= y_16_ <= 38
-127 <= y_17_ <= 127
-152 <= y_18_ <= 152
-117 <= y_19_ <= 117
-77 <= y_20_ <= 77
-152 <= y_21_ <= 152
-89 <= y_22_ <= 89
-136 <= y_23_ <= 136
-146 <= y_24_ <= 146
-112 <= y_25_ <= 112
-126 <= y_26_ <= 126
-130 <= y_27_ <= 130
-123 <= y_28_ <= 123
-146 <= y_29_ <= 146
-60 <= y_30_ <= 60
-109 <= y_31_ <= 109
-134 <= y_32_ <= 134
-148 <= y_33_ <= 148
-119 <= y_34_ <= 119
-97 <= y_35_ <= 97
-83 <= y_36_ <= 83
-133 <= y_37_ <= 133
-165 <= y_38_ <= 165
-136 <= y_39_ <= 136
-116 <= y_40_ <= 116
-192 <= y_41_ <= 192
-189 <= y_42_ <= 189
-175 <= y_43_ <= 175
-149 <= y_44_ <= 149
-148 <= y_45_ <= 148
-76 <= y_46_ <= 76
-81 <= y_47_ <= 81
-168 <= y_48_ <= 168
-123 <= y_49_ <= 123
-53 <= y_50_ <= 53
-142 <= y_51_ <= 142
-95 <= y_52_ <= 95
-95 <= y_53_ <= 95
-49 <= y_54_ <= 49
-72 <= y_55_ <= 72
-91 <= y_56_ <= 91
-143 <= y_57_ <= 143
-88 <= y_58_ <= 88
-141 <= y_59_ <= 141
-137 <= y_60_ <= 137
y_61_ = 0
-141 <= y_62_ <= 141
-77 <= y_63_ <= 77
-130 <= y_64_ <= 130
-128 <= y_65_ <= 128
-156 <= y_66_ <= 156
-128 <= y_67_ <= 128
-106 <= y_68_ <= 106
-77 <= y_69_ <= 77
-158 <= y_70_ <= 158
-155 <= y_71_ <= 155
-114 <= y_72_ <= 114
-103 <= y_73_ <= 103
-119 <= y_74_ <= 119
-75 <= y_75_ <= 75
-8 <= y_76_ <= 8
-82 <= y_77_ <= 82
-109 <= y_78_ <= 109
-61 <= y_79_ <= 61
-70 <= y_80_ <= 70
-103 <= y_81_ <= 103
-74 <= y_82_ <= 74
-155 <= y_83_ <= 155
-104 <= y_84_ <= 104
-83 <= y_85_ <= 83
-102 <= y_86_ <= 102
-51 <= y_87_ <= 51
-76 <= y_88_ <= 76
-141 <= y_89_ <= 141
-66 <= y_90_ <= 66
-93 <= y_91_ <= 93
-171 <= y_92_ <= 171
-130 <= y_93_ <= 130
-172 <= y_94_ <= 172
-115 <= y_95_ <= 115
-164 <= y_96_ <= 164
-42 <= y_97_ <= 42
-75 <= y_98_ <= 75
-153 <= y_99_ <= 153
-112 <= y_100_ <= 112
General
x_1_
x_2_
x_3_
x_4_
x_5_
x_6_
x_7_
x_8_
x_9_
x_10_
x_11_
x_12_
x_13_
x_14_
x_15_
x_16_
x_17_
x_18_
x_19_
x_20_
x_21_
x_22_
x_23_
x_24_
x_25_
x_26_
x_27_
x_28_
x_29_
x_30_
x_31_
x_32_
x_33_
x_34_
x_35_
x_36_
x_37_
x_38_
x_39_
x_40_
x_41_
x_42_
x_43_
x_44_
x_45_
x_46_
x_47_
x_48_
x_49_
x_50_
x_51_
x_52_
x_53_
x_54_
x_55_
x_56_
x_57_
x_58_
x_59_
x_60_
x_61_
x_62_
x_63_
x_64_
x_65_
x_66_
x_67_
x_68_
x_69_
x_70_
x_71_
x_72_
x_73_
x_74_
x_75_
x_76_
x_77_
x_78_
x_79_
x_80_
x_81_
x_82_
x_83_
x_84_
x_85_
x_86_
x_87_
x_88_
x_89_
x_90_
x_91_
x_92_
x_93_
x_94_
x_95_
x_96_
x_97_
x_98_
x_99_
x_100_
y_1_
y_2_
y_3_
y_4_
y_5_
y_6_
y_7_
y_8_
y_9_
y_10_
y_11_
y_12_
y_13_
y_14_
y_15_
y_16_
y_17_
y_18_
y_19_
y_20_
y_21_
y_22_
y_23_
y_24_
y_25_
y_26_
y_27_
y_28_
y_29_
y_30_
y_31_
y_32_
y_33_
y_34_
y_35_
y_36_
y_37_
y_38_
y_39_
y_40_
y_41_
y_42_
y_43_
y_44_
y_45_
y_46_
y_47_
y_48_
y_49_
y_50_
y_51_
y_52_
y_53_
y_54_
y_55_
y_56_
y_57_
y_58_
y_59_
y_60_
y_61_
y_62_
y_63_
y_64_
y_65_
y_66_
y_67_
y_68_
y_69_
y_70_
y_71_
y_72_
y_73_
y_74_
y_75_
y_76_
y_77_
y_78_
y_79_
y_80_
y_81_
y_82_
y_83_
y_84_
y_85_
y_86_
y_87_
y_88_
y_89_
y_90_
y_91_
y_92_
y_93_
y_94_
y_95_
y_96_
y_97_
y_98_
y_99_
y_100_
End
