minimize
obj: 
subject to
c1_4: -1 x_20_ + 1 y_20_ <= 0
c1_1: [ 1 x_1_ ^ 2 + 1 y_1_ ^ 2 ] <= 1258
c2_1: [ 1 x_3_ ^ 2 + 1 y_3_ ^ 2 ] <= 10477
c3_1: [ 1 x_4_ ^ 2 + 1 y_4_ ^ 2 ] <= 20406
c4_1: [ 1 x_5_ ^ 2 + 1 y_5_ ^ 2 ] <= 16976
c5_1: [ 1 x_6_ ^ 2 + 1 y_6_ ^ 2 ] <= 13800
c6_1: [ 1 x_7_ ^ 2 + 1 y_7_ ^ 2 ] <= 14890
c7_1: [ 1 x_8_ ^ 2 + 1 y_8_ ^ 2 ] <= 16702
c8_1: [ 1 x_9_ ^ 2 + 1 y_9_ ^ 2 ] <= 6632
c9_1: [ 1 x_10_ ^ 2 + 1 y_10_ ^ 2 ] <= 25285
c10_1: [ 1 x_11_ ^ 2 + 1 y_11_ ^ 2 ] <= 772
c11_1: [ 1 x_12_ ^ 2 + 1 y_12_ ^ 2 ] <= 1105
c12_1: [ 1 x_13_ ^ 2 + 1 y_13_ ^ 2 ] <= 13880
c13_1: [ 1 x_14_ ^ 2 + 1 y_14_ ^ 2 ] <= 6979
c14_1: [ 1 x_15_ ^ 2 + 1 y_15_ ^ 2 ] <= 3265
c15_1: [ 1 x_16_ ^ 2 + 1 y_16_ ^ 2 ] <= 25718
c16_1: [ 1 x_17_ ^ 2 + 1 y_17_ ^ 2 ] <= 24741
c17_1: [ 1 x_18_ ^ 2 + 1 y_18_ ^ 2 ] <= 9706
c18_1: [ 1 x_19_ ^ 2 + 1 y_19_ ^ 2 ] <= 6031
c19_1: [ 1 x_20_ ^ 2 + 1 y_20_ ^ 2 ] <= 32987
c1_3: 1 x_20_ >= 0
c2_3: 1 y_20_ >= 0
c1_2: 1 x_2_ = 0
c2_2: 1 y_2_ = 0
c1: [ 1 x_1_ ^ 2 - 2 x_2_ * x_1_ + 1 x_2_ ^ 2 + 1 y_1_ ^ 2 - 2 y_2_ * y_1_ + 1 y_2_ ^ 2 ] = 1258
c2: [ 1 x_1_ ^ 2 - 2 x_3_ * x_1_ + 1 x_3_ ^ 2 + 1 y_1_ ^ 2 - 2 y_3_ * y_1_ + 1 y_3_ ^ 2 ] = 7445
c3: [ 1 x_2_ ^ 2 - 2 x_3_ * x_2_ + 1 x_3_ ^ 2 + 1 y_2_ ^ 2 - 2 y_3_ * y_2_ + 1 y_3_ ^ 2 ] = 10477
c4: [ 1 x_3_ ^ 2 - 2 x_4_ * x_3_ + 1 x_4_ ^ 2 + 1 y_3_ ^ 2 - 2 y_4_ * y_3_ + 1 y_4_ ^ 2 ] = 14698
c5: [ 1 x_2_ ^ 2 - 2 x_5_ * x_2_ + 1 x_5_ ^ 2 + 1 y_2_ ^ 2 - 2 y_5_ * y_2_ + 1 y_5_ ^ 2 ] = 16976
c6: [ 1 x_4_ ^ 2 - 2 x_5_ * x_4_ + 1 x_5_ ^ 2 + 1 y_4_ ^ 2 - 2 y_5_ * y_4_ + 1 y_5_ ^ 2 ] = 36653
c7: [ 1 x_1_ ^ 2 - 2 x_6_ * x_1_ + 1 x_6_ ^ 2 + 1 y_1_ ^ 2 - 2 y_6_ * y_1_ + 1 y_6_ ^ 2 ] = 6725
c8: [ 1 x_5_ ^ 2 - 2 x_6_ * x_5_ + 1 x_6_ ^ 2 + 1 y_5_ ^ 2 - 2 y_6_ * y_5_ + 1 y_6_ ^ 2 ] = 7957
c9: [ 1 x_2_ ^ 2 - 2 x_7_ * x_2_ + 1 x_7_ ^ 2 + 1 y_2_ ^ 2 - 2 y_7_ * y_2_ + 1 y_7_ ^ 2 ] = 14890
c10: [ 1 x_3_ ^ 2 - 2 x_7_ * x_3_ + 1 x_7_ ^ 2 + 1 y_3_ ^ 2 - 2 y_7_ * y_3_ + 1 y_7_ ^ 2 ] = 3209
c11: [ 1 x_6_ ^ 2 - 2 x_7_ * x_6_ + 1 x_7_ ^ 2 + 1 y_6_ ^ 2 - 2 y_7_ * y_6_ + 1 y_7_ ^ 2 ] = 7417
c12: [ 1 x_7_ ^ 2 - 2 x_8_ * x_7_ + 1 x_8_ ^ 2 + 1 y_7_ ^ 2 - 2 y_8_ * y_7_ + 1 y_8_ ^ 2 ] = 6970
c13: [ 1 x_1_ ^ 2 - 2 x_9_ * x_1_ + 1 x_9_ ^ 2 + 1 y_1_ ^ 2 - 2 y_9_ * y_1_ + 1 y_9_ ^ 2 ] = 2113
c14: [ 1 x_5_ ^ 2 - 2 x_9_ * x_5_ + 1 x_9_ ^ 2 + 1 y_5_ ^ 2 - 2 y_9_ * y_5_ + 1 y_9_ ^ 2 ] = 17109
c15: [ 1 x_6_ ^ 2 - 2 x_9_ * x_6_ + 1 x_9_ ^ 2 + 1 y_6_ ^ 2 - 2 y_9_ * y_6_ + 1 y_9_ ^ 2 ] = 12442
c16: [ 1 x_8_ ^ 2 - 2 x_9_ * x_8_ + 1 x_9_ ^ 2 + 1 y_8_ ^ 2 - 2 y_9_ * y_8_ + 1 y_9_ ^ 2 ] = 2285
c17: [ 1 x_9_ ^ 2 - 2 x_10_ * x_9_ + 1 x_10_ ^ 2 + 1 y_9_ ^ 2 - 2 y_10_ * y_9_ + 1 y_10_ ^ 2 ] = 11538
c18: [ 1 x_2_ ^ 2 - 2 x_11_ * x_2_ + 1 x_11_ ^ 2 + 1 y_2_ ^ 2 - 2 y_11_ * y_2_ + 1 y_11_ ^ 2 ] = 772
c19: [ 1 x_10_ ^ 2 - 2 x_11_ * x_10_ + 1 x_11_ ^ 2 + 1 y_10_ ^ 2 - 2 y_11_ * y_10_ + 1 y_11_ ^ 2 ] = 17221
c20: [ 1 x_2_ ^ 2 - 2 x_12_ * x_2_ + 1 x_12_ ^ 2 + 1 y_2_ ^ 2 - 2 y_12_ * y_2_ + 1 y_12_ ^ 2 ] = 1105
c21: [ 1 x_7_ ^ 2 - 2 x_12_ * x_7_ + 1 x_12_ ^ 2 + 1 y_7_ ^ 2 - 2 y_12_ * y_7_ + 1 y_12_ ^ 2 ] = 7969
c22: [ 1 x_11_ ^ 2 - 2 x_12_ * x_11_ + 1 x_12_ ^ 2 + 1 y_11_ ^ 2 - 2 y_12_ * y_11_ + 1 y_12_ ^ 2 ] = 725
c23: [ 1 x_4_ ^ 2 - 2 x_13_ * x_4_ + 1 x_13_ ^ 2 + 1 y_4_ ^ 2 - 2 y_13_ * y_4_ + 1 y_13_ ^ 2 ] = 10817
c24: [ 1 x_5_ ^ 2 - 2 x_13_ * x_5_ + 1 x_13_ ^ 2 + 1 y_5_ ^ 2 - 2 y_13_ * y_5_ + 1 y_13_ ^ 2 ] = 32818
c25: [ 1 x_10_ ^ 2 - 2 x_13_ * x_10_ + 1 x_13_ ^ 2 + 1 y_10_ ^ 2 - 2 y_13_ * y_10_ + 1 y_13_ ^ 2 ] = 5185
c26: [ 1 x_12_ ^ 2 - 2 x_13_ * x_12_ + 1 x_13_ ^ 2 + 1 y_12_ ^ 2 - 2 y_13_ * y_12_ + 1 y_13_ ^ 2 ] = 8361
c27: [ 1 x_3_ ^ 2 - 2 x_14_ * x_3_ + 1 x_14_ ^ 2 + 1 y_3_ ^ 2 - 2 y_14_ * y_3_ + 1 y_14_ ^ 2 ] = 2057
c28: [ 1 x_5_ ^ 2 - 2 x_14_ * x_5_ + 1 x_14_ ^ 2 + 1 y_5_ ^ 2 - 2 y_14_ * y_5_ + 1 y_14_ ^ 2 ] = 10690
c29: [ 1 x_13_ ^ 2 - 2 x_14_ * x_13_ + 1 x_14_ ^ 2 + 1 y_13_ ^ 2 - 2 y_14_ * y_13_ + 1 y_14_ ^ 2 ] = 7456
c30: [ 1 x_2_ ^ 2 - 2 x_15_ * x_2_ + 1 x_15_ ^ 2 + 1 y_2_ ^ 2 - 2 y_15_ * y_2_ + 1 y_15_ ^ 2 ] = 3265
c31: [ 1 x_4_ ^ 2 - 2 x_15_ * x_4_ + 1 x_15_ ^ 2 + 1 y_4_ ^ 2 - 2 y_15_ * y_4_ + 1 y_15_ ^ 2 ] = 7346
c32: [ 1 x_13_ ^ 2 - 2 x_15_ * x_13_ + 1 x_15_ ^ 2 + 1 y_13_ ^ 2 - 2 y_15_ * y_13_ + 1 y_15_ ^ 2 ] = 3681
c33: [ 1 x_14_ ^ 2 - 2 x_15_ * x_14_ + 1 x_15_ ^ 2 + 1 y_14_ ^ 2 - 2 y_15_ * y_14_ + 1 y_15_ ^ 2 ] = 697
c34: [ 1 x_15_ ^ 2 - 2 x_16_ * x_15_ + 1 x_16_ ^ 2 + 1 y_15_ ^ 2 - 2 y_16_ * y_15_ + 1 y_16_ ^ 2 ] = 10656
c35: [ 1 x_1_ ^ 2 - 2 x_17_ * x_1_ + 1 x_17_ ^ 2 + 1 y_1_ ^ 2 - 2 y_17_ * y_1_ + 1 y_17_ ^ 2 ] = 14841
c36: [ 1 x_4_ ^ 2 - 2 x_17_ * x_4_ + 1 x_17_ ^ 2 + 1 y_4_ ^ 2 - 2 y_17_ * y_4_ + 1 y_17_ ^ 2 ] = 14522
c37: [ 1 x_13_ ^ 2 - 2 x_17_ * x_13_ + 1 x_17_ ^ 2 + 1 y_13_ ^ 2 - 2 y_17_ * y_13_ + 1 y_17_ ^ 2 ] = 26253
c38: [ 1 x_14_ ^ 2 - 2 x_17_ * x_14_ + 1 x_17_ ^ 2 + 1 y_14_ ^ 2 - 2 y_17_ * y_14_ + 1 y_17_ ^ 2 ] = 6373
c39: [ 1 x_16_ ^ 2 - 2 x_17_ * x_16_ + 1 x_17_ ^ 2 + 1 y_16_ ^ 2 - 2 y_17_ * y_16_ + 1 y_17_ ^ 2 ] = 32328
c40: [ 1 x_11_ ^ 2 - 2 x_18_ * x_11_ + 1 x_18_ ^ 2 + 1 y_11_ ^ 2 - 2 y_18_ * y_11_ + 1 y_18_ ^ 2 ] = 6208
c41: [ 1 x_12_ ^ 2 - 2 x_18_ * x_12_ + 1 x_18_ ^ 2 + 1 y_12_ ^ 2 - 2 y_18_ * y_12_ + 1 y_18_ ^ 2 ] = 4261
c42: [ 1 x_17_ ^ 2 - 2 x_18_ * x_17_ + 1 x_18_ ^ 2 + 1 y_17_ ^ 2 - 2 y_18_ * y_17_ + 1 y_18_ ^ 2 ] = 6553
c43: [ 1 x_3_ ^ 2 - 2 x_19_ * x_3_ + 1 x_19_ ^ 2 + 1 y_3_ ^ 2 - 2 y_19_ * y_3_ + 1 y_19_ ^ 2 ] = 4285
c44: [ 1 x_4_ ^ 2 - 2 x_19_ * x_4_ + 1 x_19_ ^ 2 + 1 y_4_ ^ 2 - 2 y_19_ * y_4_ + 1 y_19_ ^ 2 ] = 4909
c45: [ 1 x_13_ ^ 2 - 2 x_19_ * x_13_ + 1 x_19_ ^ 2 + 1 y_13_ ^ 2 - 2 y_19_ * y_13_ + 1 y_19_ ^ 2 ] = 5512
c46: [ 1 x_15_ ^ 2 - 2 x_19_ * x_15_ + 1 x_19_ ^ 2 + 1 y_15_ ^ 2 - 2 y_19_ * y_15_ + 1 y_19_ ^ 2 ] = 421
c47: [ 1 x_18_ ^ 2 - 2 x_19_ * x_18_ + 1 x_19_ ^ 2 + 1 y_18_ ^ 2 - 2 y_19_ * y_18_ + 1 y_19_ ^ 2 ] = 9162
c48: [ 1 x_1_ ^ 2 - 2 x_20_ * x_1_ + 1 x_20_ ^ 2 + 1 y_1_ ^ 2 - 2 y_20_ * y_1_ + 1 y_20_ ^ 2 ] = 21841
c49: [ 1 x_8_ ^ 2 - 2 x_20_ * x_8_ + 1 x_20_ ^ 2 + 1 y_8_ ^ 2 - 2 y_20_ * y_8_ + 1 y_20_ ^ 2 ] = 8021
c50: [ 1 x_9_ ^ 2 - 2 x_20_ * x_9_ + 1 x_20_ ^ 2 + 1 y_9_ ^ 2 - 2 y_20_ * y_9_ + 1 y_20_ ^ 2 ] = 10370
c51: [ 1 x_12_ ^ 2 - 2 x_20_ * x_12_ + 1 x_20_ ^ 2 + 1 y_12_ ^ 2 - 2 y_20_ * y_12_ + 1 y_20_ ^ 2 ] = 29896
c52: [ 1 x_15_ ^ 2 - 2 x_20_ * x_15_ + 1 x_20_ ^ 2 + 1 y_15_ ^ 2 - 2 y_20_ * y_15_ + 1 y_20_ ^ 2 ] = 15496
c53: [ 1 x_16_ ^ 2 - 2 x_20_ * x_16_ + 1 x_20_ ^ 2 + 1 y_16_ ^ 2 - 2 y_20_ * y_16_ + 1 y_20_ ^ 2 ] = 21352
c54: [ 1 x_19_ ^ 2 - 2 x_20_ * x_19_ + 1 x_20_ ^ 2 + 1 y_19_ ^ 2 - 2 y_20_ * y_19_ + 1 y_20_ ^ 2 ] = 10809
Bounds
-35 <= x_1_ <= 35
x_2_ = 0
-102 <= x_3_ <= 102
-142 <= x_4_ <= 142
-130 <= x_5_ <= 130
-117 <= x_6_ <= 117
-122 <= x_7_ <= 122
-129 <= x_8_ <= 129
-81 <= x_9_ <= 81
-159 <= x_10_ <= 159
-27 <= x_11_ <= 27
-33 <= x_12_ <= 33
-117 <= x_13_ <= 117
-83 <= x_14_ <= 83
-57 <= x_15_ <= 57
-160 <= x_16_ <= 160
-157 <= x_17_ <= 157
-98 <= x_18_ <= 98
-77 <= x_19_ <= 77
-181 <= x_20_ <= 181
-35 <= y_1_ <= 35
y_2_ = 0
-102 <= y_3_ <= 102
-142 <= y_4_ <= 142
-130 <= y_5_ <= 130
-117 <= y_6_ <= 117
-122 <= y_7_ <= 122
-129 <= y_8_ <= 129
-81 <= y_9_ <= 81
-159 <= y_10_ <= 159
-27 <= y_11_ <= 27
-33 <= y_12_ <= 33
-117 <= y_13_ <= 117
-83 <= y_14_ <= 83
-57 <= y_15_ <= 57
-160 <= y_16_ <= 160
-157 <= y_17_ <= 157
-98 <= y_18_ <= 98
-77 <= y_19_ <= 77
-181 <= y_20_ <= 181
General
x_1_
x_2_
x_3_
x_4_
x_5_
x_6_
x_7_
x_8_
x_9_
x_10_
x_11_
x_12_
x_13_
x_14_
x_15_
x_16_
x_17_
x_18_
x_19_
x_20_
y_1_
y_2_
y_3_
y_4_
y_5_
y_6_
y_7_
y_8_
y_9_
y_10_
y_11_
y_12_
y_13_
y_14_
y_15_
y_16_
y_17_
y_18_
y_19_
y_20_
End
