minimize
obj: 
subject to
c1: 126 x_1_ - 148 y_1_ + [ 1 x_1_ ^ 2 + 1 y_1_ ^ 2 ] <= -329.75
c2: 126 x_2_ - 148 y_2_ + [ 1 x_2_ ^ 2 + 1 y_2_ ^ 2 ] <= 24128.44710411178
c3: 126 x_3_ - 148 y_3_ + [ 1 x_3_ ^ 2 + 1 y_3_ ^ 2 ] <= 8743.294096783364
c4: 126 x_4_ - 148 y_4_ + [ 1 x_4_ ^ 2 + 1 y_4_ ^ 2 ] <= 4354.42951173473
c5: 126 x_5_ - 148 y_5_ + [ 1 x_5_ ^ 2 + 1 y_5_ ^ 2 ] <= -6011
c6: 126 x_6_ - 148 y_6_ + [ 1 x_6_ ^ 2 + 1 y_6_ ^ 2 ] <= 2220.844496118736
c7: 126 x_7_ - 148 y_7_ + [ 1 x_7_ ^ 2 + 1 y_7_ ^ 2 ] <= 3888.2423964616573
c8: 126 x_8_ - 148 y_8_ + [ 1 x_8_ ^ 2 + 1 y_8_ ^ 2 ] <= 18211.909558864336
c9: 126 x_9_ - 148 y_9_ + [ 1 x_9_ ^ 2 + 1 y_9_ ^ 2 ] <= 6792.617287964427
c10: 126 x_10_ - 148 y_10_ + [ 1 x_10_ ^ 2 + 1 y_10_ ^ 2 ] <= -8126.950000000001
c11: 126 x_11_ - 148 y_11_ + [ 1 x_11_ ^ 2 + 1 y_11_ ^ 2 ] <= -1502.302677541922
c12: 126 x_12_ - 148 y_12_ + [ 1 x_12_ ^ 2 + 1 y_12_ ^ 2 ] <= 12592.44272060819
c13: 126 x_13_ - 148 y_13_ + [ 1 x_13_ ^ 2 + 1 y_13_ ^ 2 ] <= 4746.579561181701
c14: 126 x_14_ - 148 y_14_ + [ 1 x_14_ ^ 2 + 1 y_14_ ^ 2 ] <= 30010.65
c15: 126 x_15_ - 148 y_15_ + [ 1 x_15_ ^ 2 + 1 y_15_ ^ 2 ] <= 19549.894359353468
c16: 126 x_16_ - 148 y_16_ + [ 1 x_16_ ^ 2 + 1 y_16_ ^ 2 ] <= 15380.799999999992
c17: 126 x_17_ - 148 y_17_ + [ 1 x_17_ ^ 2 + 1 y_17_ ^ 2 ] <= 9799.618942267403
c18: 126 x_18_ - 148 y_18_ + [ 1 x_18_ ^ 2 + 1 y_18_ ^ 2 ] <= 7033.299937134783
c19: 126 x_19_ - 148 y_19_ + [ 1 x_19_ ^ 2 + 1 y_19_ ^ 2 ] <= -403.6374057832836
c20: 126 x_20_ - 148 y_20_ + [ 1 x_20_ ^ 2 + 1 y_20_ ^ 2 ] <= 15111.12999999999
c21: 126 x_22_ - 148 y_22_ + [ 1 x_22_ ^ 2 + 1 y_22_ ^ 2 ] <= 30716.639999999992
c22: 126 x_23_ - 148 y_23_ + [ 1 x_23_ ^ 2 + 1 y_23_ ^ 2 ] <= 31186.576360714942
c23: 126 x_24_ - 148 y_24_ + [ 1 x_24_ ^ 2 + 1 y_24_ ^ 2 ] <= 22586.94195493094
c24: 126 x_25_ - 148 y_25_ + [ 1 x_25_ ^ 2 + 1 y_25_ ^ 2 ] <= 8777.06572786333
c25: 126 x_26_ - 148 y_26_ + [ 1 x_26_ ^ 2 + 1 y_26_ ^ 2 ] <= 18322.643805220378
c26: 126 x_27_ - 148 y_27_ + [ 1 x_27_ ^ 2 + 1 y_27_ ^ 2 ] <= 25150.52999999999
c27: 126 x_28_ - 148 y_28_ + [ 1 x_28_ ^ 2 + 1 y_28_ ^ 2 ] <= 49103.39615471682
c28: 126 x_29_ - 148 y_29_ + [ 1 x_29_ ^ 2 + 1 y_29_ ^ 2 ] <= 25938.67170431956
c29: 126 x_30_ - 148 y_30_ + [ 1 x_30_ ^ 2 + 1 y_30_ ^ 2 ] <= 26075.685458085914
c30: 126 x_31_ - 148 y_31_ + [ 1 x_31_ ^ 2 + 1 y_31_ ^ 2 ] <= 12054.526983998581
c31: 126 x_32_ - 148 y_32_ + [ 1 x_32_ ^ 2 + 1 y_32_ ^ 2 ] <= 24692.294286325254
c32: 126 x_33_ - 148 y_33_ + [ 1 x_33_ ^ 2 + 1 y_33_ ^ 2 ] <= 29733.422681190896
c33: 126 x_34_ - 148 y_34_ + [ 1 x_34_ ^ 2 + 1 y_34_ ^ 2 ] <= 6320.900971698606
c34: 126 x_35_ - 148 y_35_ + [ 1 x_35_ ^ 2 + 1 y_35_ ^ 2 ] <= 12572.838890814724
c35: 126 x_36_ - 148 y_36_ + [ 1 x_36_ ^ 2 + 1 y_36_ ^ 2 ] <= 20602.16968392059
c36: 126 x_37_ - 148 y_37_ + [ 1 x_37_ ^ 2 + 1 y_37_ ^ 2 ] <= 12526.539999999997
c37: 126 x_38_ - 148 y_38_ + [ 1 x_38_ ^ 2 + 1 y_38_ ^ 2 ] <= -5045.44
c38: 126 x_39_ - 148 y_39_ + [ 1 x_39_ ^ 2 + 1 y_39_ ^ 2 ] <= 21598.77422915461
c39: 126 x_40_ - 148 y_40_ + [ 1 x_40_ ^ 2 + 1 y_40_ ^ 2 ] <= 29188.788930696428
c40: 126 x_41_ - 148 y_41_ + [ 1 x_41_ ^ 2 + 1 y_41_ ^ 2 ] <= 41526.49026248168
c41: 126 x_42_ - 148 y_42_ + [ 1 x_42_ ^ 2 + 1 y_42_ ^ 2 ] <= 17613.846315196064
c42: 126 x_43_ - 148 y_43_ + [ 1 x_43_ ^ 2 + 1 y_43_ ^ 2 ] <= 35222.31660610813
c43: 126 x_44_ - 148 y_44_ + [ 1 x_44_ ^ 2 + 1 y_44_ ^ 2 ] <= 4861.733102366245
c44: 126 x_45_ - 148 y_45_ + [ 1 x_45_ ^ 2 + 1 y_45_ ^ 2 ] <= 10253.402860128172
c45: 126 x_46_ - 148 y_46_ + [ 1 x_46_ ^ 2 + 1 y_46_ ^ 2 ] <= 72610.0122886948
c46: 126 x_47_ - 148 y_47_ + [ 1 x_47_ ^ 2 + 1 y_47_ ^ 2 ] <= 28080.539999999986
c47: 126 x_48_ - 148 y_48_ + [ 1 x_48_ ^ 2 + 1 y_48_ ^ 2 ] <= 12537.39520228357
c48: 126 x_49_ - 148 y_49_ + [ 1 x_49_ ^ 2 + 1 y_49_ ^ 2 ] <= 17614.93166156998
c49: 126 x_50_ - 148 y_50_ + [ 1 x_50_ ^ 2 + 1 y_50_ ^ 2 ] <= 14456.485530370519
c50: 126 x_51_ - 148 y_51_ + [ 1 x_51_ ^ 2 + 1 y_51_ ^ 2 ] <= 5026.782160939452
c51: 126 x_52_ - 148 y_52_ + [ 1 x_52_ ^ 2 + 1 y_52_ ^ 2 ] <= 21024.67655399184
c52: 126 x_53_ - 148 y_53_ + [ 1 x_53_ ^ 2 + 1 y_53_ ^ 2 ] <= 10978.535248397679
c53: 126 x_54_ - 148 y_54_ + [ 1 x_54_ ^ 2 + 1 y_54_ ^ 2 ] <= 15821.728566918588
c54: 126 x_55_ - 148 y_55_ + [ 1 x_55_ ^ 2 + 1 y_55_ ^ 2 ] <= -1599.0659065095597
c55: 126 x_56_ - 148 y_56_ + [ 1 x_56_ ^ 2 + 1 y_56_ ^ 2 ] <= 21693.199961794926
c56: 126 x_57_ - 148 y_57_ + [ 1 x_57_ ^ 2 + 1 y_57_ ^ 2 ] <= 10771.80690231402
c57: 126 x_58_ - 148 y_58_ + [ 1 x_58_ ^ 2 + 1 y_58_ ^ 2 ] <= -5335.31
c58: 126 x_59_ - 148 y_59_ + [ 1 x_59_ ^ 2 + 1 y_59_ ^ 2 ] <= 24656.83065634549
c59: 126 x_60_ - 148 y_60_ + [ 1 x_60_ ^ 2 + 1 y_60_ ^ 2 ] <= 13538.559999999998
c60: 126 x_61_ - 148 y_61_ + [ 1 x_61_ ^ 2 + 1 y_61_ ^ 2 ] <= 42685.98389512229
c61: 126 x_62_ - 148 y_62_ + [ 1 x_62_ ^ 2 + 1 y_62_ ^ 2 ] <= 12166.283144598423
c62: 126 x_63_ - 148 y_63_ + [ 1 x_63_ ^ 2 + 1 y_63_ ^ 2 ] <= -7616.9
c63: 126 x_64_ - 148 y_64_ + [ 1 x_64_ ^ 2 + 1 y_64_ ^ 2 ] <= -3205.3227135667585
c64: 126 x_65_ - 148 y_65_ + [ 1 x_65_ ^ 2 + 1 y_65_ ^ 2 ] <= 981.6543006552292
c65: 126 x_66_ - 148 y_66_ + [ 1 x_66_ ^ 2 + 1 y_66_ ^ 2 ] <= -8762.24
c66: 126 x_67_ - 148 y_67_ + [ 1 x_67_ ^ 2 + 1 y_67_ ^ 2 ] <= 426.60871640739606
c67: 126 x_68_ - 148 y_68_ + [ 1 x_68_ ^ 2 + 1 y_68_ ^ 2 ] <= 7484.644261522619
c68: 126 x_69_ - 148 y_69_ + [ 1 x_69_ ^ 2 + 1 y_69_ ^ 2 ] <= 1712.4631859524652
c69: 126 x_70_ - 148 y_70_ + [ 1 x_70_ ^ 2 + 1 y_70_ ^ 2 ] <= 29582.665428972192
c70: 126 x_71_ - 148 y_71_ + [ 1 x_71_ ^ 2 + 1 y_71_ ^ 2 ] <= -3235.5062116442487
c71: 126 x_72_ - 148 y_72_ + [ 1 x_72_ ^ 2 + 1 y_72_ ^ 2 ] <= 13523.409999999996
c72: 126 x_73_ - 148 y_73_ + [ 1 x_73_ ^ 2 + 1 y_73_ ^ 2 ] <= 6022.536532872788
c73: 126 x_74_ - 148 y_74_ + [ 1 x_74_ ^ 2 + 1 y_74_ ^ 2 ] <= -1117.8667225494064
c74: 126 x_75_ - 148 y_75_ + [ 1 x_75_ ^ 2 + 1 y_75_ ^ 2 ] <= 9644.922488216405
c75: 126 x_76_ - 148 y_76_ + [ 1 x_76_ ^ 2 + 1 y_76_ ^ 2 ] <= -2885.4059590440856
c76: 126 x_77_ - 148 y_77_ + [ 1 x_77_ ^ 2 + 1 y_77_ ^ 2 ] <= 12081.883836594163
c77: 126 x_78_ - 148 y_78_ + [ 1 x_78_ ^ 2 + 1 y_78_ ^ 2 ] <= 9143.476880642695
c78: 126 x_79_ - 148 y_79_ + [ 1 x_79_ ^ 2 + 1 y_79_ ^ 2 ] <= 38418.970177317446
c79: 126 x_80_ - 148 y_80_ + [ 1 x_80_ ^ 2 + 1 y_80_ ^ 2 ] <= 22938.693844066758
c80: 126 x_81_ - 148 y_81_ + [ 1 x_81_ ^ 2 + 1 y_81_ ^ 2 ] <= 26877.24016873735
c81: 126 x_82_ - 148 y_82_ + [ 1 x_82_ ^ 2 + 1 y_82_ ^ 2 ] <= 13822.155267970225
c82: 126 x_83_ - 148 y_83_ + [ 1 x_83_ ^ 2 + 1 y_83_ ^ 2 ] <= -4676.790000000001
c83: 126 x_84_ - 148 y_84_ + [ 1 x_84_ ^ 2 + 1 y_84_ ^ 2 ] <= 1337.7599999999966
c84: 126 x_85_ - 148 y_85_ + [ 1 x_85_ ^ 2 + 1 y_85_ ^ 2 ] <= 19546.56574403539
c85: 126 x_86_ - 148 y_86_ + [ 1 x_86_ ^ 2 + 1 y_86_ ^ 2 ] <= 4556.367077141285
c86: 126 x_87_ - 148 y_87_ + [ 1 x_87_ ^ 2 + 1 y_87_ ^ 2 ] <= -2341.6022155283963
c87: 126 x_88_ - 148 y_88_ + [ 1 x_88_ ^ 2 + 1 y_88_ ^ 2 ] <= 20468.214201725983
c88: 126 x_89_ - 148 y_89_ + [ 1 x_89_ ^ 2 + 1 y_89_ ^ 2 ] <= 5835.054240795202
c89: 126 x_90_ - 148 y_90_ + [ 1 x_90_ ^ 2 + 1 y_90_ ^ 2 ] <= 23676.02332078028
c90: 126 x_91_ - 148 y_91_ + [ 1 x_91_ ^ 2 + 1 y_91_ ^ 2 ] <= 45988.00107654864
c91: 126 x_92_ - 148 y_92_ + [ 1 x_92_ ^ 2 + 1 y_92_ ^ 2 ] <= 25564.632241560415
c92: 126 x_93_ - 148 y_93_ + [ 1 x_93_ ^ 2 + 1 y_93_ ^ 2 ] <= 13944.317684412108
c93: 126 x_94_ - 148 y_94_ + [ 1 x_94_ ^ 2 + 1 y_94_ ^ 2 ] <= 15920.139999999996
c94: 126 x_95_ - 148 y_95_ + [ 1 x_95_ ^ 2 + 1 y_95_ ^ 2 ] <= 16462.20485854798
c95: 126 x_96_ - 148 y_96_ + [ 1 x_96_ ^ 2 + 1 y_96_ ^ 2 ] <= 25366.875562319023
c96: 126 x_97_ - 148 y_97_ + [ 1 x_97_ ^ 2 + 1 y_97_ ^ 2 ] <= 15462.756339525422
c97: 126 x_98_ - 148 y_98_ + [ 1 x_98_ ^ 2 + 1 y_98_ ^ 2 ] <= -8559.23
c98: 126 x_99_ - 148 y_99_ + [ 1 x_99_ ^ 2 + 1 y_99_ ^ 2 ] <= 34407.65999442177
c99: 126 x_100_ - 148 y_100_ + [ 1 x_100_ ^ 2 + 1 y_100_ ^ 2 ] <= 11541.598246091813
c100: -108 x_1_ - 78 y_1_ + [ 1 x_1_ ^ 2 + 1 y_1_ ^ 2 ] <= 5094.055671962669
c101: -108 x_2_ - 78 y_2_ + [ 1 x_2_ ^ 2 + 1 y_2_ ^ 2 ] <= 29930.18734575341
c102: -108 x_3_ - 78 y_3_ + [ 1 x_3_ ^ 2 + 1 y_3_ ^ 2 ] <= 14438.491816727528
c103: -108 x_4_ - 78 y_4_ + [ 1 x_4_ ^ 2 + 1 y_4_ ^ 2 ] <= 25441.56738205907
c104: -108 x_5_ - 78 y_5_ + [ 1 x_5_ ^ 2 + 1 y_5_ ^ 2 ] <= 15664.03838962442
c105: -108 x_6_ - 78 y_6_ + [ 1 x_6_ ^ 2 + 1 y_6_ ^ 2 ] <= 5557.926610545866
c106: -108 x_7_ - 78 y_7_ + [ 1 x_7_ ^ 2 + 1 y_7_ ^ 2 ] <= 20697.59321988466
c107: -108 x_8_ - 78 y_8_ + [ 1 x_8_ ^ 2 + 1 y_8_ ^ 2 ] <= 33263.50052447705
c108: -108 x_9_ - 78 y_9_ + [ 1 x_9_ ^ 2 + 1 y_9_ ^ 2 ] <= -2214.6500759107926
c109: -108 x_10_ - 78 y_10_ + [ 1 x_10_ ^ 2 + 1 y_10_ ^ 2 ] <= 4363.129999999997
c110: -108 x_11_ - 78 y_11_ + [ 1 x_11_ ^ 2 + 1 y_11_ ^ 2 ] <= 15490.289590292927
c111: -108 x_12_ - 78 y_12_ + [ 1 x_12_ ^ 2 + 1 y_12_ ^ 2 ] <= 18620.580344679933
c112: -108 x_13_ - 78 y_13_ + [ 1 x_13_ ^ 2 + 1 y_13_ ^ 2 ] <= 10272.256469505606
c113: -108 x_14_ - 78 y_14_ + [ 1 x_14_ ^ 2 + 1 y_14_ ^ 2 ] <= 16369.388147279878
c114: -108 x_15_ - 78 y_15_ + [ 1 x_15_ ^ 2 + 1 y_15_ ^ 2 ] <= 7516.242855029082
c115: -108 x_16_ - 78 y_16_ + [ 1 x_16_ ^ 2 + 1 y_16_ ^ 2 ] <= -2964.42
c116: -108 x_17_ - 78 y_17_ + [ 1 x_17_ ^ 2 + 1 y_17_ ^ 2 ] <= 4598.6174652252375
c117: -108 x_18_ - 78 y_18_ + [ 1 x_18_ ^ 2 + 1 y_18_ ^ 2 ] <= 19842.515457352252
c118: -108 x_19_ - 78 y_19_ + [ 1 x_19_ ^ 2 + 1 y_19_ ^ 2 ] <= 26674.881981248982
c119: -108 x_20_ - 78 y_20_ + [ 1 x_20_ ^ 2 + 1 y_20_ ^ 2 ] <= 12570.02370197111
c120: -108 x_21_ - 78 y_21_ + [ 1 x_21_ ^ 2 + 1 y_21_ ^ 2 ] <= 12492.644261522619
c121: -108 x_22_ - 78 y_22_ + [ 1 x_22_ ^ 2 + 1 y_22_ ^ 2 ] <= 16140.86821162438
c122: -108 x_23_ - 78 y_23_ + [ 1 x_23_ ^ 2 + 1 y_23_ ^ 2 ] <= 15645.982480207455
c123: -108 x_24_ - 78 y_24_ + [ 1 x_24_ ^ 2 + 1 y_24_ ^ 2 ] <= 13870.601458319674
c124: -108 x_25_ - 78 y_25_ + [ 1 x_25_ ^ 2 + 1 y_25_ ^ 2 ] <= 14371.048625568095
c125: -108 x_26_ - 78 y_26_ + [ 1 x_26_ ^ 2 + 1 y_26_ ^ 2 ] <= 26420.274751706173
c126: -108 x_27_ - 78 y_27_ + [ 1 x_27_ ^ 2 + 1 y_27_ ^ 2 ] <= 1467.4515343703442
c127: -108 x_28_ - 78 y_28_ + [ 1 x_28_ ^ 2 + 1 y_28_ ^ 2 ] <= 42681.25778434846
c128: -108 x_29_ - 78 y_29_ + [ 1 x_29_ ^ 2 + 1 y_29_ ^ 2 ] <= 20448.093866740775
c129: -108 x_30_ - 78 y_30_ + [ 1 x_30_ ^ 2 + 1 y_30_ ^ 2 ] <= 12103.790671416238
c130: -108 x_31_ - 78 y_31_ + [ 1 x_31_ ^ 2 + 1 y_31_ ^ 2 ] <= -3656.27
c131: -108 x_32_ - 78 y_32_ + [ 1 x_32_ ^ 2 + 1 y_32_ ^ 2 ] <= 3527.810571577391
c132: -108 x_33_ - 78 y_33_ + [ 1 x_33_ ^ 2 + 1 y_33_ ^ 2 ] <= 10577.959360537185
c133: -108 x_34_ - 78 y_34_ + [ 1 x_34_ ^ 2 + 1 y_34_ ^ 2 ] <= 3582.14742695275
c134: -108 x_35_ - 78 y_35_ + [ 1 x_35_ ^ 2 + 1 y_35_ ^ 2 ] <= 9367.19115438624
c135: -108 x_36_ - 78 y_36_ + [ 1 x_36_ ^ 2 + 1 y_36_ ^ 2 ] <= 20272.474095656442
c136: -108 x_37_ - 78 y_37_ + [ 1 x_37_ ^ 2 + 1 y_37_ ^ 2 ] <= 32512.282530234348
c137: -108 x_38_ - 78 y_38_ + [ 1 x_38_ ^ 2 + 1 y_38_ ^ 2 ] <= 19710.58519378714
c138: -108 x_39_ - 78 y_39_ + [ 1 x_39_ ^ 2 + 1 y_39_ ^ 2 ] <= 7225.902827767233
c139: -108 x_40_ - 78 y_40_ + [ 1 x_40_ ^ 2 + 1 y_40_ ^ 2 ] <= 18937.033550854907
c140: -108 x_41_ - 78 y_41_ + [ 1 x_41_ ^ 2 + 1 y_41_ ^ 2 ] <= 28723.247721922475
c141: -108 x_42_ - 78 y_42_ + [ 1 x_42_ ^ 2 + 1 y_42_ ^ 2 ] <= 28631.964427508603
c142: -108 x_43_ - 78 y_43_ + [ 1 x_43_ ^ 2 + 1 y_43_ ^ 2 ] <= 17588.58591037778
c143: -108 x_44_ - 78 y_44_ + [ 1 x_44_ ^ 2 + 1 y_44_ ^ 2 ] <= 21933.03993545294
c144: -108 x_45_ - 78 y_45_ + [ 1 x_45_ ^ 2 + 1 y_45_ ^ 2 ] <= -468.7100000000005
c145: -108 x_46_ - 78 y_46_ + [ 1 x_46_ ^ 2 + 1 y_46_ ^ 2 ] <= 41863.78155456389
c146: -108 x_47_ - 78 y_47_ + [ 1 x_47_ ^ 2 + 1 y_47_ ^ 2 ] <= 14269.117537842838
c147: -108 x_48_ - 78 y_48_ + [ 1 x_48_ ^ 2 + 1 y_48_ ^ 2 ] <= 14015.40417853521
c148: -108 x_49_ - 78 y_49_ + [ 1 x_49_ ^ 2 + 1 y_49_ ^ 2 ] <= 9737.783603257865
c149: -108 x_50_ - 78 y_50_ + [ 1 x_50_ ^ 2 + 1 y_50_ ^ 2 ] <= 12192.618936374012
c150: -108 x_51_ - 78 y_51_ + [ 1 x_51_ ^ 2 + 1 y_51_ ^ 2 ] <= 12480.723412708823
c151: -108 x_52_ - 78 y_52_ + [ 1 x_52_ ^ 2 + 1 y_52_ ^ 2 ] <= 44262.50122189641
c152: -108 x_53_ - 78 y_53_ + [ 1 x_53_ ^ 2 + 1 y_53_ ^ 2 ] <= 2572.6924342503235
c153: -108 x_54_ - 78 y_54_ + [ 1 x_54_ ^ 2 + 1 y_54_ ^ 2 ] <= 9793.899999999996
c154: -108 x_55_ - 78 y_55_ + [ 1 x_55_ ^ 2 + 1 y_55_ ^ 2 ] <= 25852.806823819254
c155: -108 x_56_ - 78 y_56_ + [ 1 x_56_ ^ 2 + 1 y_56_ ^ 2 ] <= 22079.070430564123
c156: -108 x_57_ - 78 y_57_ + [ 1 x_57_ ^ 2 + 1 y_57_ ^ 2 ] <= 11084.526051923203
c157: -108 x_58_ - 78 y_58_ + [ 1 x_58_ ^ 2 + 1 y_58_ ^ 2 ] <= 33284.730938875284
c158: -108 x_59_ - 78 y_59_ + [ 1 x_59_ ^ 2 + 1 y_59_ ^ 2 ] <= 9544.601620832387
c159: -108 x_60_ - 78 y_60_ + [ 1 x_60_ ^ 2 + 1 y_60_ ^ 2 ] <= 27991.32044053065
c160: -108 x_61_ - 78 y_61_ + [ 1 x_61_ ^ 2 + 1 y_61_ ^ 2 ] <= 39966.63655750635
c161: -108 x_62_ - 78 y_62_ + [ 1 x_62_ ^ 2 + 1 y_62_ ^ 2 ] <= 9280.062261042352
c162: -108 x_63_ - 78 y_63_ + [ 1 x_63_ ^ 2 + 1 y_63_ ^ 2 ] <= 5194.359999999995
c163: -108 x_64_ - 78 y_64_ + [ 1 x_64_ ^ 2 + 1 y_64_ ^ 2 ] <= 13619.59612656385
c164: -108 x_65_ - 78 y_65_ + [ 1 x_65_ ^ 2 + 1 y_65_ ^ 2 ] <= 16020.546263303182
c165: -108 x_66_ - 78 y_66_ + [ 1 x_66_ ^ 2 + 1 y_66_ ^ 2 ] <= 19975.07599359828
c166: -108 x_67_ - 78 y_67_ + [ 1 x_67_ ^ 2 + 1 y_67_ ^ 2 ] <= 3991.449999999997
c167: -108 x_69_ - 78 y_69_ + [ 1 x_69_ ^ 2 + 1 y_69_ ^ 2 ] <= 3203.6499999999987
c168: -108 x_70_ - 78 y_70_ + [ 1 x_70_ ^ 2 + 1 y_70_ ^ 2 ] <= 5974.588302196538
c169: -108 x_71_ - 78 y_71_ + [ 1 x_71_ ^ 2 + 1 y_71_ ^ 2 ] <= 10344.241902956059
c170: -108 x_72_ - 78 y_72_ + [ 1 x_72_ ^ 2 + 1 y_72_ ^ 2 ] <= 26456.342781566735
c171: -108 x_73_ - 78 y_73_ + [ 1 x_73_ ^ 2 + 1 y_73_ ^ 2 ] <= 9096.748943097366
c172: -108 x_74_ - 78 y_74_ + [ 1 x_74_ ^ 2 + 1 y_74_ ^ 2 ] <= 28665.88963537137
c173: -108 x_75_ - 78 y_75_ + [ 1 x_75_ ^ 2 + 1 y_75_ ^ 2 ] <= 33104.30593604052
c174: -108 x_76_ - 78 y_76_ + [ 1 x_76_ ^ 2 + 1 y_76_ ^ 2 ] <= 8117.840496101824
c175: -108 x_77_ - 78 y_77_ + [ 1 x_77_ ^ 2 + 1 y_77_ ^ 2 ] <= 9604.448248477469
c176: -108 x_78_ - 78 y_78_ + [ 1 x_78_ ^ 2 + 1 y_78_ ^ 2 ] <= 13823.69018926768
c177: -108 x_79_ - 78 y_79_ + [ 1 x_79_ ^ 2 + 1 y_79_ ^ 2 ] <= 31225.98699279379
c178: -108 x_80_ - 78 y_80_ + [ 1 x_80_ ^ 2 + 1 y_80_ ^ 2 ] <= 22056.161572317054
c179: -108 x_81_ - 78 y_81_ + [ 1 x_81_ ^ 2 + 1 y_81_ ^ 2 ] <= 2935.999999999999
c180: -108 x_82_ - 78 y_82_ + [ 1 x_82_ ^ 2 + 1 y_82_ ^ 2 ] <= 19491.704690694474
c181: -108 x_83_ - 78 y_83_ + [ 1 x_83_ ^ 2 + 1 y_83_ ^ 2 ] <= 21080.217229529884
c182: -108 x_84_ - 78 y_84_ + [ 1 x_84_ ^ 2 + 1 y_84_ ^ 2 ] <= 3919.7175682662
c183: -108 x_85_ - 78 y_85_ + [ 1 x_85_ ^ 2 + 1 y_85_ ^ 2 ] <= 31488.084855191155
c184: -108 x_86_ - 78 y_86_ + [ 1 x_86_ ^ 2 + 1 y_86_ ^ 2 ] <= 8555.347131388067
c185: -108 x_87_ - 78 y_87_ + [ 1 x_87_ ^ 2 + 1 y_87_ ^ 2 ] <= 13138.009999999995
c186: -108 x_88_ - 78 y_88_ + [ 1 x_88_ ^ 2 + 1 y_88_ ^ 2 ] <= 35457.683536977755
c187: -108 x_89_ - 78 y_89_ + [ 1 x_89_ ^ 2 + 1 y_89_ ^ 2 ] <= 10988.729999999998
c188: -108 x_90_ - 78 y_90_ + [ 1 x_90_ ^ 2 + 1 y_90_ ^ 2 ] <= 10363.100207304207
c189: -108 x_91_ - 78 y_91_ + [ 1 x_91_ ^ 2 + 1 y_91_ ^ 2 ] <= 31958.5255431486
c190: -108 x_92_ - 78 y_92_ + [ 1 x_92_ ^ 2 + 1 y_92_ ^ 2 ] <= 15852.889999999996
c191: -108 x_93_ - 78 y_93_ + [ 1 x_93_ ^ 2 + 1 y_93_ ^ 2 ] <= 10640.40167345024
c192: -108 x_94_ - 78 y_94_ + [ 1 x_94_ ^ 2 + 1 y_94_ ^ 2 ] <= 33986.05846137285
c193: -108 x_95_ - 78 y_95_ + [ 1 x_95_ ^ 2 + 1 y_95_ ^ 2 ] <= 13872.331725355438
c194: -108 x_96_ - 78 y_96_ + [ 1 x_96_ ^ 2 + 1 y_96_ ^ 2 ] <= 9996.002302864597
c195: -108 x_97_ - 78 y_97_ + [ 1 x_97_ ^ 2 + 1 y_97_ ^ 2 ] <= 18576.457667223327
c196: -108 x_98_ - 78 y_98_ + [ 1 x_98_ ^ 2 + 1 y_98_ ^ 2 ] <= 8839.63495875436
c197: -108 x_99_ - 78 y_99_ + [ 1 x_99_ ^ 2 + 1 y_99_ ^ 2 ] <= 43339.700558639764
c198: -108 x_100_ - 78 y_100_ + [ 1 x_100_ ^ 2 + 1 y_100_ ^ 2 ] <= 7412.383409033693
c199: 76 x_1_ - 122 y_1_ + [ 1 x_1_ ^ 2 + 1 y_1_ ^ 2 ] <= -120.44807224231317
c200: 76 x_2_ - 122 y_2_ + [ 1 x_2_ ^ 2 + 1 y_2_ ^ 2 ] <= 20046.652164888546
c201: 76 x_3_ - 122 y_3_ + [ 1 x_3_ ^ 2 + 1 y_3_ ^ 2 ] <= 10156.253720215867
c202: 76 x_4_ - 122 y_4_ + [ 1 x_4_ ^ 2 + 1 y_4_ ^ 2 ] <= -3684.34
c203: 76 x_5_ - 122 y_5_ + [ 1 x_5_ ^ 2 + 1 y_5_ ^ 2 ] <= 925.9609066771727
c204: 76 x_6_ - 122 y_6_ + [ 1 x_6_ ^ 2 + 1 y_6_ ^ 2 ] <= 11079.217793260625
c205: 76 x_7_ - 122 y_7_ + [ 1 x_7_ ^ 2 + 1 y_7_ ^ 2 ] <= 32650.192538623218
c206: 76 x_8_ - 122 y_8_ + [ 1 x_8_ ^ 2 + 1 y_8_ ^ 2 ] <= 28507.157258145635
c207: 76 x_9_ - 122 y_9_ + [ 1 x_9_ ^ 2 + 1 y_9_ ^ 2 ] <= 18873.711671324887
c208: 76 x_10_ - 122 y_10_ + [ 1 x_10_ ^ 2 + 1 y_10_ ^ 2 ] <= 8128.30281026111
c209: 76 x_11_ - 122 y_11_ + [ 1 x_11_ ^ 2 + 1 y_11_ ^ 2 ] <= 4060.094793026734
c210: 76 x_12_ - 122 y_12_ + [ 1 x_12_ ^ 2 + 1 y_12_ ^ 2 ] <= 10521.337695140184
c211: 76 x_13_ - 122 y_13_ + [ 1 x_13_ ^ 2 + 1 y_13_ ^ 2 ] <= 3799.227987894261
c212: 76 x_14_ - 122 y_14_ + [ 1 x_14_ ^ 2 + 1 y_14_ ^ 2 ] <= 25693.55950812377
c213: 76 x_15_ - 122 y_15_ + [ 1 x_15_ ^ 2 + 1 y_15_ ^ 2 ] <= 21651.65901519203
c214: 76 x_16_ - 122 y_16_ + [ 1 x_16_ ^ 2 + 1 y_16_ ^ 2 ] <= 17639.740975314657
c215: 76 x_17_ - 122 y_17_ + [ 1 x_17_ ^ 2 + 1 y_17_ ^ 2 ] <= 7901.259093981538
c216: 76 x_18_ - 122 y_18_ + [ 1 x_18_ ^ 2 + 1 y_18_ ^ 2 ] <= 13139.297573077663
c217: 76 x_19_ - 122 y_19_ + [ 1 x_19_ ^ 2 + 1 y_19_ ^ 2 ] <= 8911.475132678548
c218: 76 x_20_ - 122 y_20_ + [ 1 x_20_ ^ 2 + 1 y_20_ ^ 2 ] <= 24698.30807029928
c219: 76 x_21_ - 122 y_21_ + [ 1 x_21_ ^ 2 + 1 y_21_ ^ 2 ] <= 1074.6772864332415
c220: 76 x_22_ - 122 y_22_ + [ 1 x_22_ ^ 2 + 1 y_22_ ^ 2 ] <= 26920.739194044123
c221: 76 x_23_ - 122 y_23_ + [ 1 x_23_ ^ 2 + 1 y_23_ ^ 2 ] <= 17476.519025355723
c222: 76 x_24_ - 122 y_24_ + [ 1 x_24_ ^ 2 + 1 y_24_ ^ 2 ] <= 15382.259996477434
c223: 76 x_25_ - 122 y_25_ + [ 1 x_25_ ^ 2 + 1 y_25_ ^ 2 ] <= 4009.5056791690386
c224: 76 x_26_ - 122 y_26_ + [ 1 x_26_ ^ 2 + 1 y_26_ ^ 2 ] <= 24958.700952809122
c225: 76 x_27_ - 122 y_27_ + [ 1 x_27_ ^ 2 + 1 y_27_ ^ 2 ] <= 21163.280169603226
c226: 76 x_28_ - 122 y_28_ + [ 1 x_28_ ^ 2 + 1 y_28_ ^ 2 ] <= 48652.356152285625
c227: 76 x_29_ - 122 y_29_ + [ 1 x_29_ ^ 2 + 1 y_29_ ^ 2 ] <= 32241.323004008984
c228: 76 x_30_ - 122 y_30_ + [ 1 x_30_ ^ 2 + 1 y_30_ ^ 2 ] <= 18296.289999999997
c229: 76 x_31_ - 122 y_31_ + [ 1 x_31_ ^ 2 + 1 y_31_ ^ 2 ] <= 14634.469783858884
c230: 76 x_32_ - 122 y_32_ + [ 1 x_32_ ^ 2 + 1 y_32_ ^ 2 ] <= 11940.359999999997
c231: 76 x_33_ - 122 y_33_ + [ 1 x_33_ ^ 2 + 1 y_33_ ^ 2 ] <= 24491.272287445252
c232: 76 x_34_ - 122 y_34_ + [ 1 x_34_ ^ 2 + 1 y_34_ ^ 2 ] <= 4802.407483450803
c233: 76 x_35_ - 122 y_35_ + [ 1 x_35_ ^ 2 + 1 y_35_ ^ 2 ] <= 3.9425434779977877
c234: 76 x_36_ - 122 y_36_ + [ 1 x_36_ ^ 2 + 1 y_36_ ^ 2 ] <= 17419.448318112078
c235: 76 x_37_ - 122 y_37_ + [ 1 x_37_ ^ 2 + 1 y_37_ ^ 2 ] <= 19364.949298502746
c236: 76 x_38_ - 122 y_38_ + [ 1 x_38_ ^ 2 + 1 y_38_ ^ 2 ] <= 122.83169951087166
c237: 76 x_39_ - 122 y_39_ + [ 1 x_39_ ^ 2 + 1 y_39_ ^ 2 ] <= 14272.035631718001
c238: 76 x_40_ - 122 y_40_ + [ 1 x_40_ ^ 2 + 1 y_40_ ^ 2 ] <= 20731.294668838924
c239: 76 x_41_ - 122 y_41_ + [ 1 x_41_ ^ 2 + 1 y_41_ ^ 2 ] <= 30282.279867374215
c240: 76 x_42_ - 122 y_42_ + [ 1 x_42_ ^ 2 + 1 y_42_ ^ 2 ] <= 30199.29768798523
c241: 76 x_43_ - 122 y_43_ + [ 1 x_43_ ^ 2 + 1 y_43_ ^ 2 ] <= 26974.906869820566
c242: 76 x_44_ - 122 y_44_ + [ 1 x_44_ ^ 2 + 1 y_44_ ^ 2 ] <= 4567.813716649609
c243: 76 x_45_ - 122 y_45_ + [ 1 x_45_ ^ 2 + 1 y_45_ ^ 2 ] <= 20369.527013801384
c244: 76 x_46_ - 122 y_46_ + [ 1 x_46_ ^ 2 + 1 y_46_ ^ 2 ] <= 55966.06359562248
c245: 76 x_47_ - 122 y_47_ + [ 1 x_47_ ^ 2 + 1 y_47_ ^ 2 ] <= 38635.78876415396
c246: 76 x_48_ - 122 y_48_ + [ 1 x_48_ ^ 2 + 1 y_48_ ^ 2 ] <= 23927.24485051258
c247: 76 x_49_ - 122 y_49_ + [ 1 x_49_ ^ 2 + 1 y_49_ ^ 2 ] <= 13259.16639855647
c248: 76 x_50_ - 122 y_50_ + [ 1 x_50_ ^ 2 + 1 y_50_ ^ 2 ] <= 13815.12235759398
c249: 76 x_51_ - 122 y_51_ + [ 1 x_51_ ^ 2 + 1 y_51_ ^ 2 ] <= 5540.219898434067
c250: 76 x_52_ - 122 y_52_ + [ 1 x_52_ ^ 2 + 1 y_52_ ^ 2 ] <= 27575.71454061896
c251: 76 x_53_ - 122 y_53_ + [ 1 x_53_ ^ 2 + 1 y_53_ ^ 2 ] <= 8868.27516399395
c252: 76 x_54_ - 122 y_54_ + [ 1 x_54_ ^ 2 + 1 y_54_ ^ 2 ] <= 24887.335576864956
c253: 76 x_55_ - 122 y_55_ + [ 1 x_55_ ^ 2 + 1 y_55_ ^ 2 ] <= 7409.374747558748
c254: 76 x_56_ - 122 y_56_ + [ 1 x_56_ ^ 2 + 1 y_56_ ^ 2 ] <= 15683.419999999998
c255: 76 x_57_ - 122 y_57_ + [ 1 x_57_ ^ 2 + 1 y_57_ ^ 2 ] <= 8822.82004007552
c256: 76 x_58_ - 122 y_58_ + [ 1 x_58_ ^ 2 + 1 y_58_ ^ 2 ] <= 13564.27600440025
c257: 76 x_59_ - 122 y_59_ + [ 1 x_59_ ^ 2 + 1 y_59_ ^ 2 ] <= 17234.813354292037
c258: 76 x_60_ - 122 y_60_ + [ 1 x_60_ ^ 2 + 1 y_60_ ^ 2 ] <= 20006.15503290111
c259: 76 x_61_ - 122 y_61_ + [ 1 x_61_ ^ 2 + 1 y_61_ ^ 2 ] <= 36616.977218148
c260: 76 x_62_ - 122 y_62_ + [ 1 x_62_ ^ 2 + 1 y_62_ ^ 2 ] <= 9351.729999999998
c261: 76 x_63_ - 122 y_63_ + [ 1 x_63_ ^ 2 + 1 y_63_ ^ 2 ] <= -3852
c262: 76 x_65_ - 122 y_65_ + [ 1 x_65_ ^ 2 + 1 y_65_ ^ 2 ] <= -4508.5
c263: 76 x_66_ - 122 y_66_ + [ 1 x_66_ ^ 2 + 1 y_66_ ^ 2 ] <= -2205.7000000000007
c264: 76 x_67_ - 122 y_67_ + [ 1 x_67_ ^ 2 + 1 y_67_ ^ 2 ] <= 10155.615116406994
c265: 76 x_68_ - 122 y_68_ + [ 1 x_68_ ^ 2 + 1 y_68_ ^ 2 ] <= 12891.59612656385
c266: 76 x_69_ - 122 y_69_ + [ 1 x_69_ ^ 2 + 1 y_69_ ^ 2 ] <= 12763.852654707029
c267: 76 x_70_ - 122 y_70_ + [ 1 x_70_ ^ 2 + 1 y_70_ ^ 2 ] <= 15449.890341416809
c268: 76 x_71_ - 122 y_71_ + [ 1 x_71_ ^ 2 + 1 y_71_ ^ 2 ] <= -1819.0012743309871
c269: 76 x_72_ - 122 y_72_ + [ 1 x_72_ ^ 2 + 1 y_72_ ^ 2 ] <= 10882.889999999998
c270: 76 x_73_ - 122 y_73_ + [ 1 x_73_ ^ 2 + 1 y_73_ ^ 2 ] <= 15517.12672640432
c271: 76 x_74_ - 122 y_74_ + [ 1 x_74_ ^ 2 + 1 y_74_ ^ 2 ] <= 1439.9835538622674
c272: 76 x_75_ - 122 y_75_ + [ 1 x_75_ ^ 2 + 1 y_75_ ^ 2 ] <= 17528.709839609044
c273: 76 x_76_ - 122 y_76_ + [ 1 x_76_ ^ 2 + 1 y_76_ ^ 2 ] <= 6772.98637519596
c274: 76 x_77_ - 122 y_77_ + [ 1 x_77_ ^ 2 + 1 y_77_ ^ 2 ] <= 21703.621615536984
c275: 76 x_78_ - 122 y_78_ + [ 1 x_78_ ^ 2 + 1 y_78_ ^ 2 ] <= 20402.30857419054
c276: 76 x_79_ - 122 y_79_ + [ 1 x_79_ ^ 2 + 1 y_79_ ^ 2 ] <= 39867.4476724972
c277: 76 x_80_ - 122 y_80_ + [ 1 x_80_ ^ 2 + 1 y_80_ ^ 2 ] <= 20564.865157745255
c278: 76 x_81_ - 122 y_81_ + [ 1 x_81_ ^ 2 + 1 y_81_ ^ 2 ] <= 40154.52163958352
c279: 76 x_82_ - 122 y_82_ + [ 1 x_82_ ^ 2 + 1 y_82_ ^ 2 ] <= 11241.264597393012
c280: 76 x_83_ - 122 y_83_ + [ 1 x_83_ ^ 2 + 1 y_83_ ^ 2 ] <= 5541.4446013254565
c281: 76 x_84_ - 122 y_84_ + [ 1 x_84_ ^ 2 + 1 y_84_ ^ 2 ] <= 10746.285993436424
c282: 76 x_85_ - 122 y_85_ + [ 1 x_85_ ^ 2 + 1 y_85_ ^ 2 ] <= 26754.930405509192
c283: 76 x_86_ - 122 y_86_ + [ 1 x_86_ ^ 2 + 1 y_86_ ^ 2 ] <= 18166.67553801037
c284: 76 x_87_ - 122 y_87_ + [ 1 x_87_ ^ 2 + 1 y_87_ ^ 2 ] <= 5132.731320922174
c285: 76 x_88_ - 122 y_88_ + [ 1 x_88_ ^ 2 + 1 y_88_ ^ 2 ] <= 17889.260000000002
c286: 76 x_89_ - 122 y_89_ + [ 1 x_89_ ^ 2 + 1 y_89_ ^ 2 ] <= 8545.43630322032
c287: 76 x_90_ - 122 y_90_ + [ 1 x_90_ ^ 2 + 1 y_90_ ^ 2 ] <= 5444.039999999999
c288: 76 x_91_ - 122 y_91_ + [ 1 x_91_ ^ 2 + 1 y_91_ ^ 2 ] <= 40014.55902095547
c289: 76 x_92_ - 122 y_92_ + [ 1 x_92_ ^ 2 + 1 y_92_ ^ 2 ] <= 26554.477711163545
c290: 76 x_93_ - 122 y_93_ + [ 1 x_93_ ^ 2 + 1 y_93_ ^ 2 ] <= 19310.391506630724
c291: 76 x_94_ - 122 y_94_ + [ 1 x_94_ ^ 2 + 1 y_94_ ^ 2 ] <= 22967.192892497827
c292: 76 x_95_ - 122 y_95_ + [ 1 x_95_ ^ 2 + 1 y_95_ ^ 2 ] <= 15606.861209155039
c293: 76 x_96_ - 122 y_96_ + [ 1 x_96_ ^ 2 + 1 y_96_ ^ 2 ] <= 22346.95919750639
c294: 76 x_97_ - 122 y_97_ + [ 1 x_97_ ^ 2 + 1 y_97_ ^ 2 ] <= 15970.11544281949
c295: 76 x_98_ - 122 y_98_ + [ 1 x_98_ ^ 2 + 1 y_98_ ^ 2 ] <= -2321.9636920056664
c296: 76 x_99_ - 122 y_99_ + [ 1 x_99_ ^ 2 + 1 y_99_ ^ 2 ] <= 40231.08002371558
c297: 76 x_100_ - 122 y_100_ + [ 1 x_100_ ^ 2 + 1 y_100_ ^ 2 ] <= 9029.836434408331
quadratic_ranged_1_ub: [ 1 x_1_ ^ 2 - 2 x_2_ * x_1_ + 1 x_2_ ^ 2 + 1 y_1_ ^ 2 - 2 y_2_ * y_1_ + 1 y_2_ ^ 2 ] <= 7701.25
quadratic_ranged_2_ub: [ 1 x_2_ ^ 2 - 2 x_3_ * x_2_ + 1 x_3_ ^ 2 + 1 y_2_ ^ 2 - 2 y_3_ * y_2_ + 1 y_3_ ^ 2 ] <= 10231.3
quadratic_ranged_3_ub: [ 1 x_3_ ^ 2 - 2 x_4_ * x_3_ + 1 x_4_ ^ 2 + 1 y_3_ ^ 2 - 2 y_4_ * y_3_ + 1 y_4_ ^ 2 ] <= 7276.04
quadratic_ranged_4_ub: [ 1 x_1_ ^ 2 - 2 x_5_ * x_1_ + 1 x_5_ ^ 2 + 1 y_1_ ^ 2 - 2 y_5_ * y_1_ + 1 y_5_ ^ 2 ] <= 2954.25
quadratic_ranged_5_ub: [ 1 x_4_ ^ 2 - 2 x_5_ * x_4_ + 1 x_5_ ^ 2 + 1 y_4_ ^ 2 - 2 y_5_ * y_4_ + 1 y_5_ ^ 2 ] <= 5567.12
quadratic_ranged_6_ub: [ 1 x_5_ ^ 2 - 2 x_6_ * x_5_ + 1 x_6_ ^ 2 + 1 y_5_ ^ 2 - 2 y_6_ * y_5_ + 1 y_6_ ^ 2 ] <= 2441.17
quadratic_ranged_7_ub: [ 1 x_6_ ^ 2 - 2 x_7_ * x_6_ + 1 x_7_ ^ 2 + 1 y_6_ ^ 2 - 2 y_7_ * y_6_ + 1 y_7_ ^ 2 ] <= 7382.09
quadratic_ranged_8_ub: [ 1 x_7_ ^ 2 - 2 x_8_ * x_7_ + 1 x_8_ ^ 2 + 1 y_7_ ^ 2 - 2 y_8_ * y_7_ + 1 y_8_ ^ 2 ] <= 39286.98
quadratic_ranged_9_ub: [ 1 x_8_ ^ 2 - 2 x_9_ * x_8_ + 1 x_9_ ^ 2 + 1 y_8_ ^ 2 - 2 y_9_ * y_8_ + 1 y_9_ ^ 2 ] <= 33679.46
quadratic_ranged_10_ub: [ 1 x_7_ ^ 2 - 2 x_10_ * x_7_ + 1 x_10_ ^ 2 + 1 y_7_ ^ 2 - 2 y_10_ * y_7_ + 1 y_10_ ^ 2 ] <= 6267.05
quadratic_ranged_11_ub: [ 1 x_9_ ^ 2 - 2 x_10_ * x_9_ + 1 x_10_ ^ 2 + 1 y_9_ ^ 2 - 2 y_10_ * y_9_ + 1 y_10_ ^ 2 ] <= 8303.210000000001
quadratic_ranged_12_ub: [ 1 x_10_ ^ 2 - 2 x_11_ * x_10_ + 1 x_11_ ^ 2 + 1 y_10_ ^ 2 - 2 y_11_ * y_10_ + 1 y_11_ ^ 2 ] <= 2789.62
quadratic_ranged_13_ub: [ 1 x_3_ ^ 2 - 2 x_12_ * x_3_ + 1 x_12_ ^ 2 + 1 y_3_ ^ 2 - 2 y_12_ * y_3_ + 1 y_12_ ^ 2 ] <= 2428.04
quadratic_ranged_14_ub: [ 1 x_11_ ^ 2 - 2 x_12_ * x_11_ + 1 x_12_ ^ 2 + 1 y_11_ ^ 2 - 2 y_12_ * y_11_ + 1 y_12_ ^ 2 ] <= 3519.85
quadratic_ranged_15_ub: [ 1 x_1_ ^ 2 - 2 x_13_ * x_1_ + 1 x_13_ ^ 2 + 1 y_1_ ^ 2 - 2 y_13_ * y_1_ + 1 y_13_ ^ 2 ] <= 559.54
quadratic_ranged_16_ub: [ 1 x_12_ ^ 2 - 2 x_13_ * x_12_ + 1 x_13_ ^ 2 + 1 y_12_ ^ 2 - 2 y_13_ * y_12_ + 1 y_13_ ^ 2 ] <= 934.25
quadratic_ranged_17_ub: [ 1 x_1_ ^ 2 - 2 x_14_ * x_1_ + 1 x_14_ ^ 2 + 1 y_1_ ^ 2 - 2 y_14_ * y_1_ + 1 y_14_ ^ 2 ] <= 11419.06
quadratic_ranged_18_ub: [ 1 x_2_ ^ 2 - 2 x_14_ * x_2_ + 1 x_14_ ^ 2 + 1 y_2_ ^ 2 - 2 y_14_ * y_2_ + 1 y_14_ ^ 2 ] <= 21970.53
quadratic_ranged_19_ub: [ 1 x_4_ ^ 2 - 2 x_14_ * x_4_ + 1 x_14_ ^ 2 + 1 y_4_ ^ 2 - 2 y_14_ * y_4_ + 1 y_14_ ^ 2 ] <= 43948.13
quadratic_ranged_20_ub: [ 1 x_13_ ^ 2 - 2 x_14_ * x_13_ + 1 x_14_ ^ 2 + 1 y_13_ ^ 2 - 2 y_14_ * y_13_ + 1 y_14_ ^ 2 ] <= 7195.24
quadratic_ranged_21_ub: [ 1 x_1_ ^ 2 - 2 x_15_ * x_1_ + 1 x_15_ ^ 2 + 1 y_1_ ^ 2 - 2 y_15_ * y_1_ + 1 y_15_ ^ 2 ] <= 18139.6
quadratic_ranged_22_ub: [ 1 x_3_ ^ 2 - 2 x_15_ * x_3_ + 1 x_15_ ^ 2 + 1 y_3_ ^ 2 - 2 y_15_ * y_3_ + 1 y_15_ ^ 2 ] <= 16993.25
quadratic_ranged_23_ub: [ 1 x_14_ ^ 2 - 2 x_15_ * x_14_ + 1 x_15_ ^ 2 + 1 y_14_ ^ 2 - 2 y_15_ * y_14_ + 1 y_15_ ^ 2 ] <= 19183.94
quadratic_ranged_24_ub: [ 1 x_15_ ^ 2 - 2 x_16_ * x_15_ + 1 x_16_ ^ 2 + 1 y_15_ ^ 2 - 2 y_16_ * y_15_ + 1 y_16_ ^ 2 ] <= 5034.85
quadratic_ranged_25_ub: [ 1 x_6_ ^ 2 - 2 x_17_ * x_6_ + 1 x_17_ ^ 2 + 1 y_6_ ^ 2 - 2 y_17_ * y_6_ + 1 y_17_ ^ 2 ] <= 3122.92
quadratic_ranged_26_ub: [ 1 x_10_ ^ 2 - 2 x_17_ * x_10_ + 1 x_17_ ^ 2 + 1 y_10_ ^ 2 - 2 y_17_ * y_10_ + 1 y_17_ ^ 2 ] <= 10489.86
quadratic_ranged_27_ub: [ 1 x_16_ ^ 2 - 2 x_17_ * x_16_ + 1 x_17_ ^ 2 + 1 y_16_ ^ 2 - 2 y_17_ * y_16_ + 1 y_17_ ^ 2 ] <= 3212.81
quadratic_ranged_28_ub: [ 1 x_6_ ^ 2 - 2 x_18_ * x_6_ + 1 x_18_ ^ 2 + 1 y_6_ ^ 2 - 2 y_18_ * y_6_ + 1 y_18_ ^ 2 ] <= 7846.6900000000005
quadratic_ranged_29_ub: [ 1 x_8_ ^ 2 - 2 x_18_ * x_8_ + 1 x_18_ ^ 2 + 1 y_8_ ^ 2 - 2 y_18_ * y_8_ + 1 y_18_ ^ 2 ] <= 10233.32
quadratic_ranged_30_ub: [ 1 x_11_ ^ 2 - 2 x_18_ * x_11_ + 1 x_18_ ^ 2 + 1 y_11_ ^ 2 - 2 y_18_ * y_11_ + 1 y_18_ ^ 2 ] <= 1540.25
quadratic_ranged_31_ub: [ 1 x_17_ ^ 2 - 2 x_18_ * x_17_ + 1 x_18_ ^ 2 + 1 y_17_ ^ 2 - 2 y_18_ * y_17_ + 1 y_18_ ^ 2 ] <= 18447.65
quadratic_ranged_32_ub: [ 1 x_16_ ^ 2 - 2 x_19_ * x_16_ + 1 x_19_ ^ 2 + 1 y_16_ ^ 2 - 2 y_19_ * y_16_ + 1 y_19_ ^ 2 ] <= 19860.64
quadratic_ranged_33_ub: [ 1 x_18_ ^ 2 - 2 x_19_ * x_18_ + 1 x_19_ ^ 2 + 1 y_18_ ^ 2 - 2 y_19_ * y_18_ + 1 y_19_ ^ 2 ] <= 1553.38
quadratic_ranged_34_ub: [ 1 x_19_ ^ 2 - 2 x_20_ * x_19_ + 1 x_20_ ^ 2 + 1 y_19_ ^ 2 - 2 y_20_ * y_19_ + 1 y_20_ ^ 2 ] <= 11062.53
quadratic_ranged_35_ub: [ 1 x_1_ ^ 2 - 2 x_21_ * x_1_ + 1 x_21_ ^ 2 + 1 y_1_ ^ 2 - 2 y_21_ * y_1_ + 1 y_21_ ^ 2 ] <= 9115.25
quadratic_ranged_36_ub: [ 1 x_5_ ^ 2 - 2 x_21_ * x_5_ + 1 x_21_ ^ 2 + 1 y_5_ ^ 2 - 2 y_21_ * y_5_ + 1 y_21_ ^ 2 ] <= 3434
quadratic_ranged_37_ub: [ 1 x_10_ ^ 2 - 2 x_21_ * x_10_ + 1 x_21_ ^ 2 + 1 y_10_ ^ 2 - 2 y_21_ * y_10_ + 1 y_21_ ^ 2 ] <= 1318.05
quadratic_ranged_38_ub: [ 1 x_14_ ^ 2 - 2 x_21_ * x_14_ + 1 x_21_ ^ 2 + 1 y_14_ ^ 2 - 2 y_21_ * y_14_ + 1 y_21_ ^ 2 ] <= 39455.65
quadratic_ranged_39_ub: [ 1 x_16_ ^ 2 - 2 x_21_ * x_16_ + 1 x_21_ ^ 2 + 1 y_16_ ^ 2 - 2 y_21_ * y_16_ + 1 y_21_ ^ 2 ] <= 24825.8
quadratic_ranged_40_ub: [ 1 x_20_ ^ 2 - 2 x_21_ * x_20_ + 1 x_21_ ^ 2 + 1 y_20_ ^ 2 - 2 y_21_ * y_20_ + 1 y_21_ ^ 2 ] <= 24556.13
quadratic_ranged_41_ub: [ 1 x_2_ ^ 2 - 2 x_22_ * x_2_ + 1 x_22_ ^ 2 + 1 y_2_ ^ 2 - 2 y_22_ * y_2_ + 1 y_22_ ^ 2 ] <= 20088.9
quadratic_ranged_42_ub: [ 1 x_18_ ^ 2 - 2 x_22_ * x_18_ + 1 x_22_ ^ 2 + 1 y_18_ ^ 2 - 2 y_22_ * y_18_ + 1 y_22_ ^ 2 ] <= 36313.54
quadratic_ranged_43_ub: [ 1 x_21_ ^ 2 - 2 x_22_ * x_21_ + 1 x_22_ ^ 2 + 1 y_21_ ^ 2 - 2 y_22_ * y_21_ + 1 y_22_ ^ 2 ] <= 40161.64
quadratic_ranged_44_ub: [ 1 x_14_ ^ 2 - 2 x_23_ * x_14_ + 1 x_23_ ^ 2 + 1 y_14_ ^ 2 - 2 y_23_ * y_14_ + 1 y_23_ ^ 2 ] <= 1698.82
quadratic_ranged_45_ub: [ 1 x_22_ ^ 2 - 2 x_23_ * x_22_ + 1 x_23_ ^ 2 + 1 y_22_ ^ 2 - 2 y_23_ * y_22_ + 1 y_23_ ^ 2 ] <= 2550.25
quadratic_ranged_46_ub: [ 1 x_3_ ^ 2 - 2 x_24_ * x_3_ + 1 x_24_ ^ 2 + 1 y_3_ ^ 2 - 2 y_24_ * y_3_ + 1 y_24_ ^ 2 ] <= 9216.25
quadratic_ranged_47_ub: [ 1 x_17_ ^ 2 - 2 x_24_ * x_17_ + 1 x_24_ ^ 2 + 1 y_17_ ^ 2 - 2 y_24_ * y_17_ + 1 y_24_ ^ 2 ] <= 1620.04
quadratic_ranged_48_ub: [ 1 x_23_ ^ 2 - 2 x_24_ * x_23_ + 1 x_24_ ^ 2 + 1 y_23_ ^ 2 - 2 y_24_ * y_23_ + 1 y_24_ ^ 2 ] <= 4662.16
quadratic_ranged_49_ub: [ 1 x_1_ ^ 2 - 2 x_25_ * x_1_ + 1 x_25_ ^ 2 + 1 y_1_ ^ 2 - 2 y_25_ * y_1_ + 1 y_25_ ^ 2 ] <= 1561.46
quadratic_ranged_50_ub: [ 1 x_18_ ^ 2 - 2 x_25_ * x_18_ + 1 x_25_ ^ 2 + 1 y_18_ ^ 2 - 2 y_25_ * y_18_ + 1 y_25_ ^ 2 ] <= 16823.57
quadratic_ranged_51_ub: [ 1 x_22_ ^ 2 - 2 x_25_ * x_22_ + 1 x_25_ ^ 2 + 1 y_22_ ^ 2 - 2 y_25_ * y_22_ + 1 y_25_ ^ 2 ] <= 6945.77
quadratic_ranged_52_ub: [ 1 x_24_ ^ 2 - 2 x_25_ * x_24_ + 1 x_25_ ^ 2 + 1 y_24_ ^ 2 - 2 y_25_ * y_24_ + 1 y_25_ ^ 2 ] <= 4268.26
quadratic_ranged_53_ub: [ 1 x_3_ ^ 2 - 2 x_26_ * x_3_ + 1 x_26_ ^ 2 + 1 y_3_ ^ 2 - 2 y_26_ * y_3_ + 1 y_26_ ^ 2 ] <= 6595.3
quadratic_ranged_54_ub: [ 1 x_9_ ^ 2 - 2 x_26_ * x_9_ + 1 x_26_ ^ 2 + 1 y_9_ ^ 2 - 2 y_26_ * y_9_ + 1 y_26_ ^ 2 ] <= 16517.54
quadratic_ranged_55_ub: [ 1 x_11_ ^ 2 - 2 x_26_ * x_11_ + 1 x_26_ ^ 2 + 1 y_11_ ^ 2 - 2 y_26_ * y_11_ + 1 y_26_ ^ 2 ] <= 6008.49
quadratic_ranged_56_ub: [ 1 x_16_ ^ 2 - 2 x_26_ * x_16_ + 1 x_26_ ^ 2 + 1 y_16_ ^ 2 - 2 y_26_ * y_16_ + 1 y_26_ ^ 2 ] <= 28653.7
quadratic_ranged_57_ub: [ 1 x_22_ ^ 2 - 2 x_26_ * x_22_ + 1 x_26_ ^ 2 + 1 y_22_ ^ 2 - 2 y_26_ * y_22_ + 1 y_26_ ^ 2 ] <= 43779.46
quadratic_ranged_58_ub: [ 1 x_25_ ^ 2 - 2 x_26_ * x_25_ + 1 x_26_ ^ 2 + 1 y_25_ ^ 2 - 2 y_26_ * y_25_ + 1 y_26_ ^ 2 ] <= 16948.81
quadratic_ranged_59_ub: [ 1 x_6_ ^ 2 - 2 x_27_ * x_6_ + 1 x_27_ ^ 2 + 1 y_6_ ^ 2 - 2 y_27_ * y_6_ + 1 y_27_ ^ 2 ] <= 11817
quadratic_ranged_60_ub: [ 1 x_16_ ^ 2 - 2 x_27_ * x_16_ + 1 x_27_ ^ 2 + 1 y_16_ ^ 2 - 2 y_27_ * y_16_ + 1 y_27_ ^ 2 ] <= 1479.65
quadratic_ranged_61_ub: [ 1 x_19_ ^ 2 - 2 x_27_ * x_19_ + 1 x_27_ ^ 2 + 1 y_19_ ^ 2 - 2 y_27_ * y_19_ + 1 y_27_ ^ 2 ] <= 25598.45
quadratic_ranged_62_ub: [ 1 x_21_ ^ 2 - 2 x_27_ * x_21_ + 1 x_27_ ^ 2 + 1 y_21_ ^ 2 - 2 y_27_ * y_21_ + 1 y_27_ ^ 2 ] <= 34595.53
quadratic_ranged_63_ub: [ 1 x_25_ ^ 2 - 2 x_27_ * x_25_ + 1 x_27_ ^ 2 + 1 y_25_ ^ 2 - 2 y_27_ * y_25_ + 1 y_27_ ^ 2 ] <= 4494.5
quadratic_ranged_64_ub: [ 1 x_26_ ^ 2 - 2 x_27_ * x_26_ + 1 x_27_ ^ 2 + 1 y_26_ ^ 2 - 2 y_27_ * y_26_ + 1 y_27_ ^ 2 ] <= 38692.090000000004
quadratic_ranged_65_ub: [ 1 x_22_ ^ 2 - 2 x_28_ * x_22_ + 1 x_28_ ^ 2 + 1 y_22_ ^ 2 - 2 y_28_ * y_22_ + 1 y_28_ ^ 2 ] <= 31262.53
quadratic_ranged_66_ub: [ 1 x_27_ ^ 2 - 2 x_28_ * x_27_ + 1 x_28_ ^ 2 + 1 y_27_ ^ 2 - 2 y_28_ * y_27_ + 1 y_28_ ^ 2 ] <= 35798.44
quadratic_ranged_67_ub: [ 1 x_6_ ^ 2 - 2 x_29_ * x_6_ + 1 x_29_ ^ 2 + 1 y_6_ ^ 2 - 2 y_29_ * y_6_ + 1 y_29_ ^ 2 ] <= 6415.52
quadratic_ranged_68_ub: [ 1 x_8_ ^ 2 - 2 x_29_ * x_8_ + 1 x_29_ ^ 2 + 1 y_8_ ^ 2 - 2 y_29_ * y_8_ + 1 y_29_ ^ 2 ] <= 1326.13
quadratic_ranged_69_ub: [ 1 x_18_ ^ 2 - 2 x_29_ * x_18_ + 1 x_29_ ^ 2 + 1 y_18_ ^ 2 - 2 y_29_ * y_18_ + 1 y_29_ ^ 2 ] <= 9228.37
quadratic_ranged_70_ub: [ 1 x_28_ ^ 2 - 2 x_29_ * x_28_ + 1 x_29_ ^ 2 + 1 y_28_ ^ 2 - 2 y_29_ * y_28_ + 1 y_29_ ^ 2 ] <= 4791.44
quadratic_ranged_71_ub: [ 1 x_8_ ^ 2 - 2 x_30_ * x_8_ + 1 x_30_ ^ 2 + 1 y_8_ ^ 2 - 2 y_30_ * y_8_ + 1 y_30_ ^ 2 ] <= 24632.89
quadratic_ranged_72_ub: [ 1 x_12_ ^ 2 - 2 x_30_ * x_12_ + 1 x_30_ ^ 2 + 1 y_12_ ^ 2 - 2 y_30_ * y_12_ + 1 y_30_ ^ 2 ] <= 8182.01
quadratic_ranged_73_ub: [ 1 x_17_ ^ 2 - 2 x_30_ * x_17_ + 1 x_30_ ^ 2 + 1 y_17_ ^ 2 - 2 y_30_ * y_17_ + 1 y_30_ ^ 2 ] <= 2474.5
quadratic_ranged_74_ub: [ 1 x_23_ ^ 2 - 2 x_30_ * x_23_ + 1 x_30_ ^ 2 + 1 y_23_ ^ 2 - 2 y_30_ * y_23_ + 1 y_30_ ^ 2 ] <= 171.7
quadratic_ranged_75_ub: [ 1 x_29_ ^ 2 - 2 x_30_ * x_29_ + 1 x_30_ ^ 2 + 1 y_29_ ^ 2 - 2 y_30_ * y_29_ + 1 y_30_ ^ 2 ] <= 15063.14
quadratic_ranged_76_ub: [ 1 x_1_ ^ 2 - 2 x_31_ * x_1_ + 1 x_31_ ^ 2 + 1 y_1_ ^ 2 - 2 y_31_ * y_1_ + 1 y_31_ ^ 2 ] <= 4856.08
quadratic_ranged_77_ub: [ 1 x_9_ ^ 2 - 2 x_31_ * x_9_ + 1 x_31_ ^ 2 + 1 y_9_ ^ 2 - 2 y_31_ * y_9_ + 1 y_31_ ^ 2 ] <= 368.65
quadratic_ranged_78_ub: [ 1 x_27_ ^ 2 - 2 x_31_ * x_27_ + 1 x_31_ ^ 2 + 1 y_27_ ^ 2 - 2 y_31_ * y_27_ + 1 y_31_ ^ 2 ] <= 10346.44
quadratic_ranged_79_ub: [ 1 x_30_ ^ 2 - 2 x_31_ * x_30_ + 1 x_31_ ^ 2 + 1 y_30_ ^ 2 - 2 y_31_ * y_30_ + 1 y_31_ ^ 2 ] <= 10134.34
quadratic_ranged_80_ub: [ 1 x_4_ ^ 2 - 2 x_32_ * x_4_ + 1 x_32_ ^ 2 + 1 y_4_ ^ 2 - 2 y_32_ * y_4_ + 1 y_32_ ^ 2 ] <= 24799.54
quadratic_ranged_81_ub: [ 1 x_5_ ^ 2 - 2 x_32_ * x_5_ + 1 x_32_ ^ 2 + 1 y_5_ ^ 2 - 2 y_32_ * y_5_ + 1 y_32_ ^ 2 ] <= 25050.02
quadratic_ranged_82_ub: [ 1 x_7_ ^ 2 - 2 x_32_ * x_7_ + 1 x_32_ ^ 2 + 1 y_7_ ^ 2 - 2 y_32_ * y_7_ + 1 y_32_ ^ 2 ] <= 4801.54
quadratic_ranged_83_ub: [ 1 x_12_ ^ 2 - 2 x_32_ * x_12_ + 1 x_32_ ^ 2 + 1 y_12_ ^ 2 - 2 y_32_ * y_12_ + 1 y_32_ ^ 2 ] <= 18618.34
quadratic_ranged_84_ub: [ 1 x_14_ ^ 2 - 2 x_32_ * x_14_ + 1 x_32_ ^ 2 + 1 y_14_ ^ 2 - 2 y_32_ * y_14_ + 1 y_32_ ^ 2 ] <= 15579.25
quadratic_ranged_85_ub: [ 1 x_20_ ^ 2 - 2 x_32_ * x_20_ + 1 x_32_ ^ 2 + 1 y_20_ ^ 2 - 2 y_32_ * y_20_ + 1 y_32_ ^ 2 ] <= 30511.09
quadratic_ranged_86_ub: [ 1 x_23_ ^ 2 - 2 x_32_ * x_23_ + 1 x_32_ ^ 2 + 1 y_23_ ^ 2 - 2 y_32_ * y_23_ + 1 y_32_ ^ 2 ] <= 7022.53
quadratic_ranged_87_ub: [ 1 x_31_ ^ 2 - 2 x_32_ * x_31_ + 1 x_32_ ^ 2 + 1 y_31_ ^ 2 - 2 y_32_ * y_31_ + 1 y_32_ ^ 2 ] <= 3758.21
quadratic_ranged_88_ub: [ 1 x_3_ ^ 2 - 2 x_33_ * x_3_ + 1 x_33_ ^ 2 + 1 y_3_ ^ 2 - 2 y_33_ * y_3_ + 1 y_33_ ^ 2 ] <= 14484.41
quadratic_ranged_89_ub: [ 1 x_16_ ^ 2 - 2 x_33_ * x_16_ + 1 x_33_ ^ 2 + 1 y_16_ ^ 2 - 2 y_33_ * y_16_ + 1 y_33_ ^ 2 ] <= 7083.13
quadratic_ranged_90_ub: [ 1 x_31_ ^ 2 - 2 x_33_ * x_31_ + 1 x_33_ ^ 2 + 1 y_31_ ^ 2 - 2 y_33_ * y_31_ + 1 y_33_ ^ 2 ] <= 17069
quadratic_ranged_91_ub: [ 1 x_32_ ^ 2 - 2 x_33_ * x_32_ + 1 x_33_ ^ 2 + 1 y_32_ ^ 2 - 2 y_33_ * y_32_ + 1 y_33_ ^ 2 ] <= 19748.53
quadratic_ranged_92_ub: [ 1 x_5_ ^ 2 - 2 x_34_ * x_5_ + 1 x_34_ ^ 2 + 1 y_5_ ^ 2 - 2 y_34_ * y_5_ + 1 y_34_ ^ 2 ] <= 8626.41
quadratic_ranged_93_ub: [ 1 x_7_ ^ 2 - 2 x_34_ * x_7_ + 1 x_34_ ^ 2 + 1 y_7_ ^ 2 - 2 y_34_ * y_7_ + 1 y_34_ ^ 2 ] <= 9151.61
quadratic_ranged_94_ub: [ 1 x_10_ ^ 2 - 2 x_34_ * x_10_ + 1 x_34_ ^ 2 + 1 y_10_ ^ 2 - 2 y_34_ * y_10_ + 1 y_34_ ^ 2 ] <= 7966.88
quadratic_ranged_95_ub: [ 1 x_15_ ^ 2 - 2 x_34_ * x_15_ + 1 x_34_ ^ 2 + 1 y_15_ ^ 2 - 2 y_34_ * y_15_ + 1 y_34_ ^ 2 ] <= 11831.14
quadratic_ranged_96_ub: [ 1 x_16_ ^ 2 - 2 x_34_ * x_16_ + 1 x_34_ ^ 2 + 1 y_16_ ^ 2 - 2 y_34_ * y_16_ + 1 y_34_ ^ 2 ] <= 2618.93
quadratic_ranged_97_ub: [ 1 x_33_ ^ 2 - 2 x_34_ * x_33_ + 1 x_34_ ^ 2 + 1 y_33_ ^ 2 - 2 y_34_ * y_33_ + 1 y_34_ ^ 2 ] <= 5237.86
quadratic_ranged_98_ub: [ 1 x_2_ ^ 2 - 2 x_35_ * x_2_ + 1 x_35_ ^ 2 + 1 y_2_ ^ 2 - 2 y_35_ * y_2_ + 1 y_35_ ^ 2 ] <= 12008.9
quadratic_ranged_99_ub: [ 1 x_17_ ^ 2 - 2 x_35_ * x_17_ + 1 x_35_ ^ 2 + 1 y_17_ ^ 2 - 2 y_35_ * y_17_ + 1 y_35_ ^ 2 ] <= 1798.81
quadratic_ranged_100_ub: [ 1 x_23_ ^ 2 - 2 x_35_ * x_23_ + 1 x_35_ ^ 2 + 1 y_23_ ^ 2 - 2 y_35_ * y_23_ + 1 y_35_ ^ 2 ] <= 6174.13
quadratic_ranged_101_ub: [ 1 x_25_ ^ 2 - 2 x_35_ * x_25_ + 1 x_35_ ^ 2 + 1 y_25_ ^ 2 - 2 y_35_ * y_25_ + 1 y_35_ ^ 2 ] <= 570.65
quadratic_ranged_102_ub: [ 1 x_26_ ^ 2 - 2 x_35_ * x_26_ + 1 x_35_ ^ 2 + 1 y_26_ ^ 2 - 2 y_35_ * y_26_ + 1 y_35_ ^ 2 ] <= 11402.9
quadratic_ranged_103_ub: [ 1 x_34_ ^ 2 - 2 x_35_ * x_34_ + 1 x_35_ ^ 2 + 1 y_34_ ^ 2 - 2 y_35_ * y_34_ + 1 y_35_ ^ 2 ] <= 780.73
quadratic_ranged_104_ub: [ 1 x_2_ ^ 2 - 2 x_36_ * x_2_ + 1 x_36_ ^ 2 + 1 y_2_ ^ 2 - 2 y_36_ * y_2_ + 1 y_36_ ^ 2 ] <= 5094.44
quadratic_ranged_105_ub: [ 1 x_10_ ^ 2 - 2 x_36_ * x_10_ + 1 x_36_ ^ 2 + 1 y_10_ ^ 2 - 2 y_36_ * y_10_ + 1 y_36_ ^ 2 ] <= 18778.93
quadratic_ranged_106_ub: [ 1 x_11_ ^ 2 - 2 x_36_ * x_11_ + 1 x_36_ ^ 2 + 1 y_11_ ^ 2 - 2 y_36_ * y_11_ + 1 y_36_ ^ 2 ] <= 10702.97
quadratic_ranged_107_ub: [ 1 x_16_ ^ 2 - 2 x_36_ * x_16_ + 1 x_36_ ^ 2 + 1 y_16_ ^ 2 - 2 y_36_ * y_16_ + 1 y_36_ ^ 2 ] <= 14117.78
quadratic_ranged_108_ub: [ 1 x_35_ ^ 2 - 2 x_36_ * x_35_ + 1 x_36_ ^ 2 + 1 y_35_ ^ 2 - 2 y_36_ * y_35_ + 1 y_36_ ^ 2 ] <= 8744.58
quadratic_ranged_109_ub: [ 1 x_13_ ^ 2 - 2 x_37_ * x_13_ + 1 x_37_ ^ 2 + 1 y_13_ ^ 2 - 2 y_37_ * y_13_ + 1 y_37_ ^ 2 ] <= 15700.45
quadratic_ranged_110_ub: [ 1 x_17_ ^ 2 - 2 x_37_ * x_17_ + 1 x_37_ ^ 2 + 1 y_17_ ^ 2 - 2 y_37_ * y_17_ + 1 y_37_ ^ 2 ] <= 18459.77
quadratic_ranged_111_ub: [ 1 x_21_ ^ 2 - 2 x_37_ * x_21_ + 1 x_37_ ^ 2 + 1 y_21_ ^ 2 - 2 y_37_ * y_21_ + 1 y_37_ ^ 2 ] <= 21971.54
quadratic_ranged_112_ub: [ 1 x_36_ ^ 2 - 2 x_37_ * x_36_ + 1 x_37_ ^ 2 + 1 y_36_ ^ 2 - 2 y_37_ * y_36_ + 1 y_37_ ^ 2 ] <= 9801.04
quadratic_ranged_113_ub: [ 1 x_1_ ^ 2 - 2 x_38_ * x_1_ + 1 x_38_ ^ 2 + 1 y_1_ ^ 2 - 2 y_38_ * y_1_ + 1 y_38_ ^ 2 ] <= 3382.4900000000002
quadratic_ranged_114_ub: [ 1 x_6_ ^ 2 - 2 x_38_ * x_6_ + 1 x_38_ ^ 2 + 1 y_6_ ^ 2 - 2 y_38_ * y_6_ + 1 y_38_ ^ 2 ] <= 3071.41
quadratic_ranged_115_ub: [ 1 x_15_ ^ 2 - 2 x_38_ * x_15_ + 1 x_38_ ^ 2 + 1 y_15_ ^ 2 - 2 y_38_ * y_15_ + 1 y_38_ ^ 2 ] <= 32070.53
quadratic_ranged_116_ub: [ 1 x_21_ ^ 2 - 2 x_38_ * x_21_ + 1 x_38_ ^ 2 + 1 y_21_ ^ 2 - 2 y_38_ * y_21_ + 1 y_38_ ^ 2 ] <= 4399.56
quadratic_ranged_117_ub: [ 1 x_22_ ^ 2 - 2 x_38_ * x_22_ + 1 x_38_ ^ 2 + 1 y_22_ ^ 2 - 2 y_38_ * y_22_ + 1 y_38_ ^ 2 ] <= 25896.4
quadratic_ranged_118_ub: [ 1 x_33_ ^ 2 - 2 x_38_ * x_33_ + 1 x_38_ ^ 2 + 1 y_33_ ^ 2 - 2 y_38_ * y_33_ + 1 y_38_ ^ 2 ] <= 22435.13
quadratic_ranged_119_ub: [ 1 x_37_ ^ 2 - 2 x_38_ * x_37_ + 1 x_38_ ^ 2 + 1 y_37_ ^ 2 - 2 y_38_ * y_37_ + 1 y_38_ ^ 2 ] <= 7039.7
quadratic_ranged_120_ub: [ 1 x_12_ ^ 2 - 2 x_39_ * x_12_ + 1 x_39_ ^ 2 + 1 y_12_ ^ 2 - 2 y_39_ * y_12_ + 1 y_39_ ^ 2 ] <= 4276.34
quadratic_ranged_121_ub: [ 1 x_14_ ^ 2 - 2 x_39_ * x_14_ + 1 x_39_ ^ 2 + 1 y_14_ ^ 2 - 2 y_39_ * y_14_ + 1 y_39_ ^ 2 ] <= 1314.01
quadratic_ranged_122_ub: [ 1 x_25_ ^ 2 - 2 x_39_ * x_25_ + 1 x_39_ ^ 2 + 1 y_25_ ^ 2 - 2 y_39_ * y_25_ + 1 y_39_ ^ 2 ] <= 1903.85
quadratic_ranged_123_ub: [ 1 x_38_ ^ 2 - 2 x_39_ * x_38_ + 1 x_39_ ^ 2 + 1 y_38_ ^ 2 - 2 y_39_ * y_38_ + 1 y_39_ ^ 2 ] <= 16816.5
quadratic_ranged_124_ub: [ 1 x_11_ ^ 2 - 2 x_40_ * x_11_ + 1 x_40_ ^ 2 + 1 y_11_ ^ 2 - 2 y_40_ * y_11_ + 1 y_40_ ^ 2 ] <= 12639.14
quadratic_ranged_125_ub: [ 1 x_24_ ^ 2 - 2 x_40_ * x_24_ + 1 x_40_ ^ 2 + 1 y_24_ ^ 2 - 2 y_40_ * y_24_ + 1 y_40_ ^ 2 ] <= 309.06
quadratic_ranged_126_ub: [ 1 x_39_ ^ 2 - 2 x_40_ * x_39_ + 1 x_40_ ^ 2 + 1 y_39_ ^ 2 - 2 y_40_ * y_39_ + 1 y_40_ ^ 2 ] <= 3374.41
quadratic_ranged_127_ub: [ 1 x_7_ ^ 2 - 2 x_41_ * x_7_ + 1 x_41_ ^ 2 + 1 y_7_ ^ 2 - 2 y_41_ * y_7_ + 1 y_41_ ^ 2 ] <= 36370.1
quadratic_ranged_128_ub: [ 1 x_26_ ^ 2 - 2 x_41_ * x_26_ + 1 x_41_ ^ 2 + 1 y_26_ ^ 2 - 2 y_41_ * y_26_ + 1 y_41_ ^ 2 ] <= 44423.840000000004
quadratic_ranged_129_ub: [ 1 x_28_ ^ 2 - 2 x_41_ * x_28_ + 1 x_41_ ^ 2 + 1 y_28_ ^ 2 - 2 y_41_ * y_28_ + 1 y_41_ ^ 2 ] <= 23501.69
quadratic_ranged_130_ub: [ 1 x_35_ ^ 2 - 2 x_41_ * x_35_ + 1 x_41_ ^ 2 + 1 y_35_ ^ 2 - 2 y_41_ * y_35_ + 1 y_41_ ^ 2 ] <= 13544.1
quadratic_ranged_131_ub: [ 1 x_37_ ^ 2 - 2 x_41_ * x_37_ + 1 x_41_ ^ 2 + 1 y_37_ ^ 2 - 2 y_41_ * y_37_ + 1 y_41_ ^ 2 ] <= 18927.4
quadratic_ranged_132_ub: [ 1 x_40_ ^ 2 - 2 x_41_ * x_40_ + 1 x_41_ ^ 2 + 1 y_40_ ^ 2 - 2 y_41_ * y_40_ + 1 y_41_ ^ 2 ] <= 853.45
quadratic_ranged_133_ub: [ 1 x_6_ ^ 2 - 2 x_42_ * x_6_ + 1 x_42_ ^ 2 + 1 y_6_ ^ 2 - 2 y_42_ * y_6_ + 1 y_42_ ^ 2 ] <= 6703.37
quadratic_ranged_134_ub: [ 1 x_19_ ^ 2 - 2 x_42_ * x_19_ + 1 x_42_ ^ 2 + 1 y_19_ ^ 2 - 2 y_42_ * y_19_ + 1 y_42_ ^ 2 ] <= 4817.7
quadratic_ranged_135_ub: [ 1 x_26_ ^ 2 - 2 x_42_ * x_26_ + 1 x_42_ ^ 2 + 1 y_26_ ^ 2 - 2 y_42_ * y_26_ + 1 y_42_ ^ 2 ] <= 15230.8
quadratic_ranged_136_ub: [ 1 x_33_ ^ 2 - 2 x_42_ * x_33_ + 1 x_42_ ^ 2 + 1 y_33_ ^ 2 - 2 y_42_ * y_33_ + 1 y_42_ ^ 2 ] <= 16480.170000000002
quadratic_ranged_137_ub: [ 1 x_41_ ^ 2 - 2 x_42_ * x_41_ + 1 x_42_ ^ 2 + 1 y_41_ ^ 2 - 2 y_42_ * y_41_ + 1 y_42_ ^ 2 ] <= 13873.36
quadratic_ranged_138_ub: [ 1 x_42_ ^ 2 - 2 x_43_ * x_42_ + 1 x_43_ ^ 2 + 1 y_42_ ^ 2 - 2 y_43_ * y_42_ + 1 y_43_ ^ 2 ] <= 26798.33
quadratic_ranged_139_ub: [ 1 x_2_ ^ 2 - 2 x_44_ * x_2_ + 1 x_44_ ^ 2 + 1 y_2_ ^ 2 - 2 y_44_ * y_2_ + 1 y_44_ ^ 2 ] <= 14052.130000000001
quadratic_ranged_140_ub: [ 1 x_6_ ^ 2 - 2 x_44_ * x_6_ + 1 x_44_ ^ 2 + 1 y_6_ ^ 2 - 2 y_44_ * y_6_ + 1 y_44_ ^ 2 ] <= 9334.42
quadratic_ranged_141_ub: [ 1 x_9_ ^ 2 - 2 x_44_ * x_9_ + 1 x_44_ ^ 2 + 1 y_9_ ^ 2 - 2 y_44_ * y_9_ + 1 y_44_ ^ 2 ] <= 22952.25
quadratic_ranged_142_ub: [ 1 x_11_ ^ 2 - 2 x_44_ * x_11_ + 1 x_44_ ^ 2 + 1 y_11_ ^ 2 - 2 y_44_ * y_11_ + 1 y_44_ ^ 2 ] <= 3743.06
quadratic_ranged_143_ub: [ 1 x_34_ ^ 2 - 2 x_44_ * x_34_ + 1 x_44_ ^ 2 + 1 y_34_ ^ 2 - 2 y_44_ * y_34_ + 1 y_44_ ^ 2 ] <= 19925.28
quadratic_ranged_144_ub: [ 1 x_35_ ^ 2 - 2 x_44_ * x_35_ + 1 x_44_ ^ 2 + 1 y_35_ ^ 2 - 2 y_44_ * y_35_ + 1 y_44_ ^ 2 ] <= 13191.61
quadratic_ranged_145_ub: [ 1 x_43_ ^ 2 - 2 x_44_ * x_43_ + 1 x_44_ ^ 2 + 1 y_43_ ^ 2 - 2 y_44_ * y_43_ + 1 y_44_ ^ 2 ] <= 45678.26
quadratic_ranged_146_ub: [ 1 x_5_ ^ 2 - 2 x_45_ * x_5_ + 1 x_45_ ^ 2 + 1 y_5_ ^ 2 - 2 y_45_ * y_5_ + 1 y_45_ ^ 2 ] <= 6683.17
quadratic_ranged_147_ub: [ 1 x_6_ ^ 2 - 2 x_45_ * x_6_ + 1 x_45_ ^ 2 + 1 y_6_ ^ 2 - 2 y_45_ * y_6_ + 1 y_45_ ^ 2 ] <= 1367.54
quadratic_ranged_148_ub: [ 1 x_11_ ^ 2 - 2 x_45_ * x_11_ + 1 x_45_ ^ 2 + 1 y_11_ ^ 2 - 2 y_45_ * y_11_ + 1 y_45_ ^ 2 ] <= 6110.5
quadratic_ranged_149_ub: [ 1 x_18_ ^ 2 - 2 x_45_ * x_18_ + 1 x_45_ ^ 2 + 1 y_18_ ^ 2 - 2 y_45_ * y_18_ + 1 y_45_ ^ 2 ] <= 13761.25
quadratic_ranged_150_ub: [ 1 x_20_ ^ 2 - 2 x_45_ * x_20_ + 1 x_45_ ^ 2 + 1 y_20_ ^ 2 - 2 y_45_ * y_20_ + 1 y_45_ ^ 2 ] <= 4545
quadratic_ranged_151_ub: [ 1 x_22_ ^ 2 - 2 x_45_ * x_22_ + 1 x_45_ ^ 2 + 1 y_22_ ^ 2 - 2 y_45_ * y_22_ + 1 y_45_ ^ 2 ] <= 6473.09
quadratic_ranged_152_ub: [ 1 x_39_ ^ 2 - 2 x_45_ * x_39_ + 1 x_45_ ^ 2 + 1 y_39_ ^ 2 - 2 y_45_ * y_39_ + 1 y_45_ ^ 2 ] <= 2025.05
quadratic_ranged_153_ub: [ 1 x_44_ ^ 2 - 2 x_45_ * x_44_ + 1 x_45_ ^ 2 + 1 y_44_ ^ 2 - 2 y_45_ * y_44_ + 1 y_45_ ^ 2 ] <= 17230.6
quadratic_ranged_154_ub: [ 1 x_25_ ^ 2 - 2 x_46_ * x_25_ + 1 x_46_ ^ 2 + 1 y_25_ ^ 2 - 2 y_46_ * y_25_ + 1 y_46_ ^ 2 ] <= 22941.14
quadratic_ranged_155_ub: [ 1 x_32_ ^ 2 - 2 x_46_ * x_32_ + 1 x_46_ ^ 2 + 1 y_32_ ^ 2 - 2 y_46_ * y_32_ + 1 y_46_ ^ 2 ] <= 32256.37
quadratic_ranged_156_ub: [ 1 x_45_ ^ 2 - 2 x_46_ * x_45_ + 1 x_46_ ^ 2 + 1 y_45_ ^ 2 - 2 y_46_ * y_45_ + 1 y_46_ ^ 2 ] <= 23159.3
quadratic_ranged_157_ub: [ 1 x_4_ ^ 2 - 2 x_47_ * x_4_ + 1 x_47_ ^ 2 + 1 y_4_ ^ 2 - 2 y_47_ * y_4_ + 1 y_47_ ^ 2 ] <= 42470.5
quadratic_ranged_158_ub: [ 1 x_8_ ^ 2 - 2 x_47_ * x_8_ + 1 x_47_ ^ 2 + 1 y_8_ ^ 2 - 2 y_47_ * y_8_ + 1 y_47_ ^ 2 ] <= 15788.32
quadratic_ranged_159_ub: [ 1 x_21_ ^ 2 - 2 x_47_ * x_21_ + 1 x_47_ ^ 2 + 1 y_21_ ^ 2 - 2 y_47_ * y_21_ + 1 y_47_ ^ 2 ] <= 37525.54
quadratic_ranged_160_ub: [ 1 x_23_ ^ 2 - 2 x_47_ * x_23_ + 1 x_47_ ^ 2 + 1 y_23_ ^ 2 - 2 y_47_ * y_23_ + 1 y_47_ ^ 2 ] <= 3459.25
quadratic_ranged_161_ub: [ 1 x_45_ ^ 2 - 2 x_47_ * x_45_ + 1 x_47_ ^ 2 + 1 y_45_ ^ 2 - 2 y_47_ * y_45_ + 1 y_47_ ^ 2 ] <= 5442.89
quadratic_ranged_162_ub: [ 1 x_46_ ^ 2 - 2 x_47_ * x_46_ + 1 x_47_ ^ 2 + 1 y_46_ ^ 2 - 2 y_47_ * y_46_ + 1 y_47_ ^ 2 ] <= 50969.65
quadratic_ranged_163_ub: [ 1 x_29_ ^ 2 - 2 x_48_ * x_29_ + 1 x_48_ ^ 2 + 1 y_29_ ^ 2 - 2 y_48_ * y_29_ + 1 y_48_ ^ 2 ] <= 5135.85
quadratic_ranged_164_ub: [ 1 x_47_ ^ 2 - 2 x_48_ * x_47_ + 1 x_48_ ^ 2 + 1 y_47_ ^ 2 - 2 y_48_ * y_47_ + 1 y_48_ ^ 2 ] <= 2076.56
quadratic_ranged_165_ub: [ 1 x_3_ ^ 2 - 2 x_49_ * x_3_ + 1 x_49_ ^ 2 + 1 y_3_ ^ 2 - 2 y_49_ * y_3_ + 1 y_49_ ^ 2 ] <= 2772.45
quadratic_ranged_166_ub: [ 1 x_24_ ^ 2 - 2 x_49_ * x_24_ + 1 x_49_ ^ 2 + 1 y_24_ ^ 2 - 2 y_49_ * y_24_ + 1 y_49_ ^ 2 ] <= 10716.1
quadratic_ranged_167_ub: [ 1 x_45_ ^ 2 - 2 x_49_ * x_45_ + 1 x_49_ ^ 2 + 1 y_45_ ^ 2 - 2 y_49_ * y_45_ + 1 y_49_ ^ 2 ] <= 3143.12
quadratic_ranged_168_ub: [ 1 x_48_ ^ 2 - 2 x_49_ * x_48_ + 1 x_49_ ^ 2 + 1 y_48_ ^ 2 - 2 y_49_ * y_48_ + 1 y_49_ ^ 2 ] <= 6145.85
quadratic_ranged_169_ub: [ 1 x_4_ ^ 2 - 2 x_50_ * x_4_ + 1 x_50_ ^ 2 + 1 y_4_ ^ 2 - 2 y_50_ * y_4_ + 1 y_50_ ^ 2 ] <= 13497.64
quadratic_ranged_170_ub: [ 1 x_17_ ^ 2 - 2 x_50_ * x_17_ + 1 x_50_ ^ 2 + 1 y_17_ ^ 2 - 2 y_50_ * y_17_ + 1 y_50_ ^ 2 ] <= 2946.17
quadratic_ranged_171_ub: [ 1 x_23_ ^ 2 - 2 x_50_ * x_23_ + 1 x_50_ ^ 2 + 1 y_23_ ^ 2 - 2 y_50_ * y_23_ + 1 y_50_ ^ 2 ] <= 4558.13
quadratic_ranged_172_ub: [ 1 x_28_ ^ 2 - 2 x_50_ * x_28_ + 1 x_50_ ^ 2 + 1 y_28_ ^ 2 - 2 y_50_ * y_28_ + 1 y_50_ ^ 2 ] <= 21732.170000000002
quadratic_ranged_173_ub: [ 1 x_41_ ^ 2 - 2 x_50_ * x_41_ + 1 x_50_ ^ 2 + 1 y_41_ ^ 2 - 2 y_50_ * y_41_ + 1 y_50_ ^ 2 ] <= 17382.1
quadratic_ranged_174_ub: [ 1 x_44_ ^ 2 - 2 x_50_ * x_44_ + 1 x_50_ ^ 2 + 1 y_44_ ^ 2 - 2 y_50_ * y_44_ + 1 y_50_ ^ 2 ] <= 18803.170000000002
quadratic_ranged_175_ub: [ 1 x_46_ ^ 2 - 2 x_50_ * x_46_ + 1 x_50_ ^ 2 + 1 y_46_ ^ 2 - 2 y_50_ * y_46_ + 1 y_50_ ^ 2 ] <= 19186.97
quadratic_ranged_176_ub: [ 1 x_49_ ^ 2 - 2 x_50_ * x_49_ + 1 x_50_ ^ 2 + 1 y_49_ ^ 2 - 2 y_50_ * y_49_ + 1 y_50_ ^ 2 ] <= 97.97
quadratic_ranged_177_ub: [ 1 x_1_ ^ 2 - 2 x_51_ * x_1_ + 1 x_51_ ^ 2 + 1 y_1_ ^ 2 - 2 y_51_ * y_1_ + 1 y_51_ ^ 2 ] <= 1052.42
quadratic_ranged_178_ub: [ 1 x_5_ ^ 2 - 2 x_51_ * x_5_ + 1 x_51_ ^ 2 + 1 y_5_ ^ 2 - 2 y_51_ * y_5_ + 1 y_51_ ^ 2 ] <= 3806.69
quadratic_ranged_179_ub: [ 1 x_11_ ^ 2 - 2 x_51_ * x_11_ + 1 x_51_ ^ 2 + 1 y_11_ ^ 2 - 2 y_51_ * y_11_ + 1 y_51_ ^ 2 ] <= 4728.82
quadratic_ranged_180_ub: [ 1 x_43_ ^ 2 - 2 x_51_ * x_43_ + 1 x_51_ ^ 2 + 1 y_43_ ^ 2 - 2 y_51_ * y_43_ + 1 y_51_ ^ 2 ] <= 13261.3
quadratic_ranged_181_ub: [ 1 x_50_ ^ 2 - 2 x_51_ * x_50_ + 1 x_51_ ^ 2 + 1 y_50_ ^ 2 - 2 y_51_ * y_50_ + 1 y_51_ ^ 2 ] <= 1176.65
quadratic_ranged_182_ub: [ 1 x_1_ ^ 2 - 2 x_52_ * x_1_ + 1 x_52_ ^ 2 + 1 y_1_ ^ 2 - 2 y_52_ * y_1_ + 1 y_52_ ^ 2 ] <= 15141.92
quadratic_ranged_183_ub: [ 1 x_7_ ^ 2 - 2 x_52_ * x_7_ + 1 x_52_ ^ 2 + 1 y_7_ ^ 2 - 2 y_52_ * y_7_ + 1 y_52_ ^ 2 ] <= 47697.25
quadratic_ranged_184_ub: [ 1 x_38_ ^ 2 - 2 x_52_ * x_38_ + 1 x_52_ ^ 2 + 1 y_38_ ^ 2 - 2 y_52_ * y_38_ + 1 y_52_ ^ 2 ] <= 11712.97
quadratic_ranged_185_ub: [ 1 x_39_ ^ 2 - 2 x_52_ * x_39_ + 1 x_52_ ^ 2 + 1 y_39_ ^ 2 - 2 y_52_ * y_39_ + 1 y_52_ ^ 2 ] <= 24899.53
quadratic_ranged_186_ub: [ 1 x_46_ ^ 2 - 2 x_52_ * x_46_ + 1 x_52_ ^ 2 + 1 y_46_ ^ 2 - 2 y_52_ * y_46_ + 1 y_52_ ^ 2 ] <= 38804.2
quadratic_ranged_187_ub: [ 1 x_51_ ^ 2 - 2 x_52_ * x_51_ + 1 x_52_ ^ 2 + 1 y_51_ ^ 2 - 2 y_52_ * y_51_ + 1 y_52_ ^ 2 ] <= 23587.54
quadratic_ranged_188_ub: [ 1 x_1_ ^ 2 - 2 x_53_ * x_1_ + 1 x_53_ ^ 2 + 1 y_1_ ^ 2 - 2 y_53_ * y_1_ + 1 y_53_ ^ 2 ] <= 2250.28
quadratic_ranged_189_ub: [ 1 x_9_ ^ 2 - 2 x_53_ * x_9_ + 1 x_53_ ^ 2 + 1 y_9_ ^ 2 - 2 y_53_ * y_9_ + 1 y_53_ ^ 2 ] <= 1338.25
quadratic_ranged_190_ub: [ 1 x_41_ ^ 2 - 2 x_53_ * x_41_ + 1 x_53_ ^ 2 + 1 y_41_ ^ 2 - 2 y_53_ * y_41_ + 1 y_53_ ^ 2 ] <= 18896.09
quadratic_ranged_191_ub: [ 1 x_48_ ^ 2 - 2 x_53_ * x_48_ + 1 x_53_ ^ 2 + 1 y_48_ ^ 2 - 2 y_53_ * y_48_ + 1 y_53_ ^ 2 ] <= 5527.7300000000005
quadratic_ranged_192_ub: [ 1 x_52_ ^ 2 - 2 x_53_ * x_52_ + 1 x_53_ ^ 2 + 1 y_52_ ^ 2 - 2 y_53_ * y_52_ + 1 y_53_ ^ 2 ] <= 29059.72
quadratic_ranged_193_ub: [ 1 x_8_ ^ 2 - 2 x_54_ * x_8_ + 1 x_54_ ^ 2 + 1 y_8_ ^ 2 - 2 y_54_ * y_8_ + 1 y_54_ ^ 2 ] <= 34689.46
quadratic_ranged_194_ub: [ 1 x_15_ ^ 2 - 2 x_54_ * x_15_ + 1 x_54_ ^ 2 + 1 y_15_ ^ 2 - 2 y_54_ * y_15_ + 1 y_54_ ^ 2 ] <= 22750.25
quadratic_ranged_195_ub: [ 1 x_19_ ^ 2 - 2 x_54_ * x_19_ + 1 x_54_ ^ 2 + 1 y_19_ ^ 2 - 2 y_54_ * y_19_ + 1 y_54_ ^ 2 ] <= 6245.84
quadratic_ranged_196_ub: [ 1 x_25_ ^ 2 - 2 x_54_ * x_25_ + 1 x_54_ ^ 2 + 1 y_25_ ^ 2 - 2 y_54_ * y_25_ + 1 y_54_ ^ 2 ] <= 15906.49
quadratic_ranged_197_ub: [ 1 x_29_ ^ 2 - 2 x_54_ * x_29_ + 1 x_54_ ^ 2 + 1 y_29_ ^ 2 - 2 y_54_ * y_29_ + 1 y_54_ ^ 2 ] <= 26798.33
quadratic_ranged_198_ub: [ 1 x_37_ ^ 2 - 2 x_54_ * x_37_ + 1 x_54_ ^ 2 + 1 y_37_ ^ 2 - 2 y_54_ * y_37_ + 1 y_54_ ^ 2 ] <= 30544.420000000002
quadratic_ranged_199_ub: [ 1 x_39_ ^ 2 - 2 x_54_ * x_39_ + 1 x_54_ ^ 2 + 1 y_39_ ^ 2 - 2 y_54_ * y_39_ + 1 y_54_ ^ 2 ] <= 28807.22
quadratic_ranged_200_ub: [ 1 x_44_ ^ 2 - 2 x_54_ * x_44_ + 1 x_54_ ^ 2 + 1 y_44_ ^ 2 - 2 y_54_ * y_44_ + 1 y_54_ ^ 2 ] <= 5580.25
quadratic_ranged_201_ub: [ 1 x_53_ ^ 2 - 2 x_54_ * x_53_ + 1 x_54_ ^ 2 + 1 y_53_ ^ 2 - 2 y_54_ * y_53_ + 1 y_54_ ^ 2 ] <= 8973.85
quadratic_ranged_202_ub: [ 1 x_13_ ^ 2 - 2 x_55_ * x_13_ + 1 x_55_ ^ 2 + 1 y_13_ ^ 2 - 2 y_55_ * y_13_ + 1 y_55_ ^ 2 ] <= 11579.65
quadratic_ranged_203_ub: [ 1 x_14_ ^ 2 - 2 x_55_ * x_14_ + 1 x_55_ ^ 2 + 1 y_14_ ^ 2 - 2 y_55_ * y_14_ + 1 y_55_ ^ 2 ] <= 29032.45
quadratic_ranged_204_ub: [ 1 x_18_ ^ 2 - 2 x_55_ * x_18_ + 1 x_55_ ^ 2 + 1 y_18_ ^ 2 - 2 y_55_ * y_18_ + 1 y_55_ ^ 2 ] <= 22561.38
quadratic_ranged_205_ub: [ 1 x_22_ ^ 2 - 2 x_55_ * x_22_ + 1 x_55_ ^ 2 + 1 y_22_ ^ 2 - 2 y_55_ * y_22_ + 1 y_55_ ^ 2 ] <= 31229.2
quadratic_ranged_206_ub: [ 1 x_29_ ^ 2 - 2 x_55_ * x_29_ + 1 x_55_ ^ 2 + 1 y_29_ ^ 2 - 2 y_55_ * y_29_ + 1 y_55_ ^ 2 ] <= 30002.05
quadratic_ranged_207_ub: [ 1 x_48_ ^ 2 - 2 x_55_ * x_48_ + 1 x_55_ ^ 2 + 1 y_48_ ^ 2 - 2 y_55_ * y_48_ + 1 y_55_ ^ 2 ] <= 19127.38
quadratic_ranged_208_ub: [ 1 x_54_ ^ 2 - 2 x_55_ * x_54_ + 1 x_55_ ^ 2 + 1 y_54_ ^ 2 - 2 y_55_ * y_54_ + 1 y_55_ ^ 2 ] <= 4953.04
quadratic_ranged_209_ub: [ 1 x_7_ ^ 2 - 2 x_56_ * x_7_ + 1 x_56_ ^ 2 + 1 y_7_ ^ 2 - 2 y_56_ * y_7_ + 1 y_56_ ^ 2 ] <= 12221
quadratic_ranged_210_ub: [ 1 x_8_ ^ 2 - 2 x_56_ * x_8_ + 1 x_56_ ^ 2 + 1 y_8_ ^ 2 - 2 y_56_ * y_8_ + 1 y_56_ ^ 2 ] <= 31643.3
quadratic_ranged_211_ub: [ 1 x_10_ ^ 2 - 2 x_56_ * x_10_ + 1 x_56_ ^ 2 + 1 y_10_ ^ 2 - 2 y_56_ * y_10_ + 1 y_56_ ^ 2 ] <= 19643.49
quadratic_ranged_212_ub: [ 1 x_25_ ^ 2 - 2 x_56_ * x_25_ + 1 x_56_ ^ 2 + 1 y_25_ ^ 2 - 2 y_56_ * y_25_ + 1 y_56_ ^ 2 ] <= 3637.01
quadratic_ranged_213_ub: [ 1 x_43_ ^ 2 - 2 x_56_ * x_43_ + 1 x_56_ ^ 2 + 1 y_43_ ^ 2 - 2 y_56_ * y_43_ + 1 y_56_ ^ 2 ] <= 1217.05
quadratic_ranged_214_ub: [ 1 x_53_ ^ 2 - 2 x_56_ * x_53_ + 1 x_56_ ^ 2 + 1 y_53_ ^ 2 - 2 y_56_ * y_53_ + 1 y_56_ ^ 2 ] <= 6258.97
quadratic_ranged_215_ub: [ 1 x_55_ ^ 2 - 2 x_56_ * x_55_ + 1 x_56_ ^ 2 + 1 y_55_ ^ 2 - 2 y_56_ * y_55_ + 1 y_56_ ^ 2 ] <= 14935.880000000001
quadratic_ranged_216_ub: [ 1 x_1_ ^ 2 - 2 x_57_ * x_1_ + 1 x_57_ ^ 2 + 1 y_1_ ^ 2 - 2 y_57_ * y_1_ + 1 y_57_ ^ 2 ] <= 2232.1
quadratic_ranged_217_ub: [ 1 x_3_ ^ 2 - 2 x_57_ * x_3_ + 1 x_57_ ^ 2 + 1 y_3_ ^ 2 - 2 y_57_ * y_3_ + 1 y_57_ ^ 2 ] <= 3701.65
quadratic_ranged_218_ub: [ 1 x_6_ ^ 2 - 2 x_57_ * x_6_ + 1 x_57_ ^ 2 + 1 y_6_ ^ 2 - 2 y_57_ * y_6_ + 1 y_57_ ^ 2 ] <= 2652.26
quadratic_ranged_219_ub: [ 1 x_7_ ^ 2 - 2 x_57_ * x_7_ + 1 x_57_ ^ 2 + 1 y_7_ ^ 2 - 2 y_57_ * y_7_ + 1 y_57_ ^ 2 ] <= 8933.45
quadratic_ranged_220_ub: [ 1 x_24_ ^ 2 - 2 x_57_ * x_24_ + 1 x_57_ ^ 2 + 1 y_24_ ^ 2 - 2 y_57_ * y_24_ + 1 y_57_ ^ 2 ] <= 3565.3
quadratic_ranged_221_ub: [ 1 x_39_ ^ 2 - 2 x_57_ * x_39_ + 1 x_57_ ^ 2 + 1 y_39_ ^ 2 - 2 y_57_ * y_39_ + 1 y_57_ ^ 2 ] <= 1156.45
quadratic_ranged_222_ub: [ 1 x_56_ ^ 2 - 2 x_57_ * x_56_ + 1 x_57_ ^ 2 + 1 y_56_ ^ 2 - 2 y_57_ * y_56_ + 1 y_57_ ^ 2 ] <= 2756.29
quadratic_ranged_223_ub: [ 1 x_3_ ^ 2 - 2 x_58_ * x_3_ + 1 x_58_ ^ 2 + 1 y_3_ ^ 2 - 2 y_58_ * y_3_ + 1 y_58_ ^ 2 ] <= 5006.57
quadratic_ranged_224_ub: [ 1 x_21_ ^ 2 - 2 x_58_ * x_21_ + 1 x_58_ ^ 2 + 1 y_21_ ^ 2 - 2 y_58_ * y_21_ + 1 y_58_ ^ 2 ] <= 4109.69
quadratic_ranged_225_ub: [ 1 x_22_ ^ 2 - 2 x_58_ * x_22_ + 1 x_58_ ^ 2 + 1 y_22_ ^ 2 - 2 y_58_ * y_22_ + 1 y_58_ ^ 2 ] <= 30729.25
quadratic_ranged_226_ub: [ 1 x_55_ ^ 2 - 2 x_58_ * x_55_ + 1 x_58_ ^ 2 + 1 y_55_ ^ 2 - 2 y_58_ * y_55_ + 1 y_58_ ^ 2 ] <= 611.05
quadratic_ranged_227_ub: [ 1 x_57_ ^ 2 - 2 x_58_ * x_57_ + 1 x_58_ ^ 2 + 1 y_57_ ^ 2 - 2 y_58_ * y_57_ + 1 y_58_ ^ 2 ] <= 10330.28
quadratic_ranged_228_ub: [ 1 x_6_ ^ 2 - 2 x_59_ * x_6_ + 1 x_59_ ^ 2 + 1 y_6_ ^ 2 - 2 y_59_ * y_6_ + 1 y_59_ ^ 2 ] <= 8190.09
quadratic_ranged_229_ub: [ 1 x_18_ ^ 2 - 2 x_59_ * x_18_ + 1 x_59_ ^ 2 + 1 y_18_ ^ 2 - 2 y_59_ * y_18_ + 1 y_59_ ^ 2 ] <= 29447.56
quadratic_ranged_230_ub: [ 1 x_36_ ^ 2 - 2 x_59_ * x_36_ + 1 x_59_ ^ 2 + 1 y_36_ ^ 2 - 2 y_59_ * y_36_ + 1 y_59_ ^ 2 ] <= 6209.4800000000005
quadratic_ranged_231_ub: [ 1 x_39_ ^ 2 - 2 x_59_ * x_39_ + 1 x_59_ ^ 2 + 1 y_39_ ^ 2 - 2 y_59_ * y_39_ + 1 y_59_ ^ 2 ] <= 105.04
quadratic_ranged_232_ub: [ 1 x_43_ ^ 2 - 2 x_59_ * x_43_ + 1 x_59_ ^ 2 + 1 y_43_ ^ 2 - 2 y_59_ * y_43_ + 1 y_59_ ^ 2 ] <= 910.01
quadratic_ranged_233_ub: [ 1 x_48_ ^ 2 - 2 x_59_ * x_48_ + 1 x_59_ ^ 2 + 1 y_48_ ^ 2 - 2 y_59_ * y_48_ + 1 y_59_ ^ 2 ] <= 1325.1200000000001
quadratic_ranged_234_ub: [ 1 x_58_ ^ 2 - 2 x_59_ * x_58_ + 1 x_59_ ^ 2 + 1 y_58_ ^ 2 - 2 y_59_ * y_58_ + 1 y_59_ ^ 2 ] <= 20124.25
quadratic_ranged_235_ub: [ 1 x_21_ ^ 2 - 2 x_60_ * x_21_ + 1 x_60_ ^ 2 + 1 y_21_ ^ 2 - 2 y_60_ * y_21_ + 1 y_60_ ^ 2 ] <= 22983.56
quadratic_ranged_236_ub: [ 1 x_24_ ^ 2 - 2 x_60_ * x_24_ + 1 x_60_ ^ 2 + 1 y_24_ ^ 2 - 2 y_60_ * y_24_ + 1 y_60_ ^ 2 ] <= 13094.65
quadratic_ranged_237_ub: [ 1 x_37_ ^ 2 - 2 x_60_ * x_37_ + 1 x_60_ ^ 2 + 1 y_37_ ^ 2 - 2 y_60_ * y_37_ + 1 y_60_ ^ 2 ] <= 147.46
quadratic_ranged_238_ub: [ 1 x_38_ ^ 2 - 2 x_60_ * x_38_ + 1 x_60_ ^ 2 + 1 y_38_ ^ 2 - 2 y_60_ * y_38_ + 1 y_60_ ^ 2 ] <= 7385.12
quadratic_ranged_239_ub: [ 1 x_45_ ^ 2 - 2 x_60_ * x_45_ + 1 x_60_ ^ 2 + 1 y_45_ ^ 2 - 2 y_60_ * y_45_ + 1 y_60_ ^ 2 ] <= 13708.73
quadratic_ranged_240_ub: [ 1 x_53_ ^ 2 - 2 x_60_ * x_53_ + 1 x_60_ ^ 2 + 1 y_53_ ^ 2 - 2 y_60_ * y_53_ + 1 y_60_ ^ 2 ] <= 22972.45
quadratic_ranged_241_ub: [ 1 x_59_ ^ 2 - 2 x_60_ * x_59_ + 1 x_60_ ^ 2 + 1 y_59_ ^ 2 - 2 y_60_ * y_59_ + 1 y_60_ ^ 2 ] <= 24290.5
quadratic_ranged_242_ub: [ 1 x_2_ ^ 2 - 2 x_61_ * x_2_ + 1 x_61_ ^ 2 + 1 y_2_ ^ 2 - 2 y_61_ * y_2_ + 1 y_61_ ^ 2 ] <= 36154.97
quadratic_ranged_243_ub: [ 1 x_29_ ^ 2 - 2 x_61_ * x_29_ + 1 x_61_ ^ 2 + 1 y_29_ ^ 2 - 2 y_61_ * y_29_ + 1 y_61_ ^ 2 ] <= 28655.72
quadratic_ranged_244_ub: [ 1 x_57_ ^ 2 - 2 x_61_ * x_57_ + 1 x_61_ ^ 2 + 1 y_57_ ^ 2 - 2 y_61_ * y_57_ + 1 y_61_ ^ 2 ] <= 7419.46
quadratic_ranged_245_ub: [ 1 x_59_ ^ 2 - 2 x_61_ * x_59_ + 1 x_61_ ^ 2 + 1 y_59_ ^ 2 - 2 y_61_ * y_59_ + 1 y_61_ ^ 2 ] <= 13684.49
quadratic_ranged_246_ub: [ 1 x_60_ ^ 2 - 2 x_61_ * x_60_ + 1 x_61_ ^ 2 + 1 y_60_ ^ 2 - 2 y_61_ * y_60_ + 1 y_61_ ^ 2 ] <= 42546.25
quadratic_ranged_247_ub: [ 1 x_4_ ^ 2 - 2 x_62_ * x_4_ + 1 x_62_ ^ 2 + 1 y_4_ ^ 2 - 2 y_62_ * y_4_ + 1 y_62_ ^ 2 ] <= 25154.05
quadratic_ranged_248_ub: [ 1 x_5_ ^ 2 - 2 x_62_ * x_5_ + 1 x_62_ ^ 2 + 1 y_5_ ^ 2 - 2 y_62_ * y_5_ + 1 y_62_ ^ 2 ] <= 10072.73
quadratic_ranged_249_ub: [ 1 x_7_ ^ 2 - 2 x_62_ * x_7_ + 1 x_62_ ^ 2 + 1 y_7_ ^ 2 - 2 y_62_ * y_7_ + 1 y_62_ ^ 2 ] <= 17336.65
quadratic_ranged_250_ub: [ 1 x_17_ ^ 2 - 2 x_62_ * x_17_ + 1 x_62_ ^ 2 + 1 y_17_ ^ 2 - 2 y_62_ * y_17_ + 1 y_62_ ^ 2 ] <= 486.82
quadratic_ranged_251_ub: [ 1 x_23_ ^ 2 - 2 x_62_ * x_23_ + 1 x_62_ ^ 2 + 1 y_23_ ^ 2 - 2 y_62_ * y_23_ + 1 y_62_ ^ 2 ] <= 4147.06
quadratic_ranged_252_ub: [ 1 x_37_ ^ 2 - 2 x_62_ * x_37_ + 1 x_62_ ^ 2 + 1 y_37_ ^ 2 - 2 y_62_ * y_37_ + 1 y_62_ ^ 2 ] <= 14266.25
quadratic_ranged_253_ub: [ 1 x_43_ ^ 2 - 2 x_62_ * x_43_ + 1 x_62_ ^ 2 + 1 y_43_ ^ 2 - 2 y_62_ * y_43_ + 1 y_62_ ^ 2 ] <= 5763.06
quadratic_ranged_254_ub: [ 1 x_56_ ^ 2 - 2 x_62_ * x_56_ + 1 x_62_ ^ 2 + 1 y_56_ ^ 2 - 2 y_62_ * y_56_ + 1 y_62_ ^ 2 ] <= 6537.7300000000005
quadratic_ranged_255_ub: [ 1 x_61_ ^ 2 - 2 x_62_ * x_61_ + 1 x_62_ ^ 2 + 1 y_61_ ^ 2 - 2 y_62_ * y_61_ + 1 y_62_ ^ 2 ] <= 16016.58
quadratic_ranged_256_ub: [ 1 x_15_ ^ 2 - 2 x_63_ * x_15_ + 1 x_63_ ^ 2 + 1 y_15_ ^ 2 - 2 y_63_ * y_15_ + 1 y_63_ ^ 2 ] <= 16262.01
quadratic_ranged_257_ub: [ 1 x_21_ ^ 2 - 2 x_63_ * x_21_ + 1 x_63_ ^ 2 + 1 y_21_ ^ 2 - 2 y_63_ * y_21_ + 1 y_63_ ^ 2 ] <= 1828.1
quadratic_ranged_258_ub: [ 1 x_25_ ^ 2 - 2 x_63_ * x_25_ + 1 x_63_ ^ 2 + 1 y_25_ ^ 2 - 2 y_63_ * y_25_ + 1 y_63_ ^ 2 ] <= 12064.45
quadratic_ranged_259_ub: [ 1 x_38_ ^ 2 - 2 x_63_ * x_38_ + 1 x_63_ ^ 2 + 1 y_38_ ^ 2 - 2 y_63_ * y_38_ + 1 y_63_ ^ 2 ] <= 9027.38
quadratic_ranged_260_ub: [ 1 x_41_ ^ 2 - 2 x_63_ * x_41_ + 1 x_63_ ^ 2 + 1 y_41_ ^ 2 - 2 y_63_ * y_41_ + 1 y_63_ ^ 2 ] <= 42961.36
quadratic_ranged_261_ub: [ 1 x_62_ ^ 2 - 2 x_63_ * x_62_ + 1 x_63_ ^ 2 + 1 y_62_ ^ 2 - 2 y_63_ * y_62_ + 1 y_63_ ^ 2 ] <= 21307.97
quadratic_ranged_262_ub: [ 1 x_4_ ^ 2 - 2 x_64_ * x_4_ + 1 x_64_ ^ 2 + 1 y_4_ ^ 2 - 2 y_64_ * y_4_ + 1 y_64_ ^ 2 ] <= 1480.66
quadratic_ranged_263_ub: [ 1 x_30_ ^ 2 - 2 x_64_ * x_30_ + 1 x_64_ ^ 2 + 1 y_30_ ^ 2 - 2 y_64_ * y_30_ + 1 y_64_ ^ 2 ] <= 23461.29
quadratic_ranged_264_ub: [ 1 x_32_ ^ 2 - 2 x_64_ * x_32_ + 1 x_64_ ^ 2 + 1 y_32_ ^ 2 - 2 y_64_ * y_32_ + 1 y_64_ ^ 2 ] <= 17105.36
quadratic_ranged_265_ub: [ 1 x_56_ ^ 2 - 2 x_64_ * x_56_ + 1 x_64_ ^ 2 + 1 y_56_ ^ 2 - 2 y_64_ * y_56_ + 1 y_64_ ^ 2 ] <= 20848.420000000002
quadratic_ranged_266_ub: [ 1 x_62_ ^ 2 - 2 x_64_ * x_62_ + 1 x_64_ ^ 2 + 1 y_62_ ^ 2 - 2 y_64_ * y_62_ + 1 y_64_ ^ 2 ] <= 14516.73
quadratic_ranged_267_ub: [ 1 x_63_ ^ 2 - 2 x_64_ * x_63_ + 1 x_64_ ^ 2 + 1 y_63_ ^ 2 - 2 y_64_ * y_63_ + 1 y_64_ ^ 2 ] <= 1313
quadratic_ranged_268_ub: [ 1 x_1_ ^ 2 - 2 x_65_ * x_1_ + 1 x_65_ ^ 2 + 1 y_1_ ^ 2 - 2 y_65_ * y_1_ + 1 y_65_ ^ 2 ] <= 2061.41
quadratic_ranged_269_ub: [ 1 x_24_ ^ 2 - 2 x_65_ * x_24_ + 1 x_65_ ^ 2 + 1 y_24_ ^ 2 - 2 y_65_ * y_24_ + 1 y_65_ ^ 2 ] <= 13858.210000000001
quadratic_ranged_270_ub: [ 1 x_27_ ^ 2 - 2 x_65_ * x_27_ + 1 x_65_ ^ 2 + 1 y_27_ ^ 2 - 2 y_65_ * y_27_ + 1 y_65_ ^ 2 ] <= 18669.85
quadratic_ranged_271_ub: [ 1 x_35_ ^ 2 - 2 x_65_ * x_35_ + 1 x_65_ ^ 2 + 1 y_35_ ^ 2 - 2 y_65_ * y_35_ + 1 y_65_ ^ 2 ] <= 2141.2
quadratic_ranged_272_ub: [ 1 x_36_ ^ 2 - 2 x_65_ * x_36_ + 1 x_65_ ^ 2 + 1 y_36_ ^ 2 - 2 y_65_ * y_36_ + 1 y_65_ ^ 2 ] <= 15539.86
quadratic_ranged_273_ub: [ 1 x_38_ ^ 2 - 2 x_65_ * x_38_ + 1 x_65_ ^ 2 + 1 y_38_ ^ 2 - 2 y_65_ * y_38_ + 1 y_65_ ^ 2 ] <= 2217.96
quadratic_ranged_274_ub: [ 1 x_64_ ^ 2 - 2 x_65_ * x_64_ + 1 x_65_ ^ 2 + 1 y_64_ ^ 2 - 2 y_65_ * y_64_ + 1 y_65_ ^ 2 ] <= 656.5
quadratic_ranged_275_ub: [ 1 x_11_ ^ 2 - 2 x_66_ * x_11_ + 1 x_66_ ^ 2 + 1 y_11_ ^ 2 - 2 y_66_ * y_11_ + 1 y_66_ ^ 2 ] <= 8319.37
quadratic_ranged_276_ub: [ 1 x_21_ ^ 2 - 2 x_66_ * x_21_ + 1 x_66_ ^ 2 + 1 y_21_ ^ 2 - 2 y_66_ * y_21_ + 1 y_66_ ^ 2 ] <= 682.76
quadratic_ranged_277_ub: [ 1 x_43_ ^ 2 - 2 x_66_ * x_43_ + 1 x_66_ ^ 2 + 1 y_43_ ^ 2 - 2 y_66_ * y_43_ + 1 y_66_ ^ 2 ] <= 48909.25
quadratic_ranged_278_ub: [ 1 x_64_ ^ 2 - 2 x_66_ * x_64_ + 1 x_66_ ^ 2 + 1 y_64_ ^ 2 - 2 y_66_ * y_64_ + 1 y_66_ ^ 2 ] <= 2959.3
quadratic_ranged_279_ub: [ 1 x_65_ ^ 2 - 2 x_66_ * x_65_ + 1 x_66_ ^ 2 + 1 y_65_ ^ 2 - 2 y_66_ * y_65_ + 1 y_66_ ^ 2 ] <= 5773.16
quadratic_ranged_280_ub: [ 1 x_2_ ^ 2 - 2 x_67_ * x_2_ + 1 x_67_ ^ 2 + 1 y_2_ ^ 2 - 2 y_67_ * y_2_ + 1 y_67_ ^ 2 ] <= 10731.25
quadratic_ranged_281_ub: [ 1 x_18_ ^ 2 - 2 x_67_ * x_18_ + 1 x_67_ ^ 2 + 1 y_18_ ^ 2 - 2 y_67_ * y_18_ + 1 y_67_ ^ 2 ] <= 4097.57
quadratic_ranged_282_ub: [ 1 x_33_ ^ 2 - 2 x_67_ * x_33_ + 1 x_67_ ^ 2 + 1 y_33_ ^ 2 - 2 y_67_ * y_33_ + 1 y_67_ ^ 2 ] <= 20606.02
quadratic_ranged_283_ub: [ 1 x_35_ ^ 2 - 2 x_67_ * x_35_ + 1 x_67_ ^ 2 + 1 y_35_ ^ 2 - 2 y_67_ * y_35_ + 1 y_67_ ^ 2 ] <= 2691.65
quadratic_ranged_284_ub: [ 1 x_66_ ^ 2 - 2 x_67_ * x_66_ + 1 x_67_ ^ 2 + 1 y_66_ ^ 2 - 2 y_67_ * y_66_ + 1 y_67_ ^ 2 ] <= 5362.09
quadratic_ranged_285_ub: [ 1 x_10_ ^ 2 - 2 x_68_ * x_10_ + 1 x_68_ ^ 2 + 1 y_10_ ^ 2 - 2 y_68_ * y_10_ + 1 y_68_ ^ 2 ] <= 8800.13
quadratic_ranged_286_ub: [ 1 x_16_ ^ 2 - 2 x_68_ * x_16_ + 1 x_68_ ^ 2 + 1 y_16_ ^ 2 - 2 y_68_ * y_16_ + 1 y_68_ ^ 2 ] <= 1472.58
quadratic_ranged_287_ub: [ 1 x_31_ ^ 2 - 2 x_68_ * x_31_ + 1 x_68_ ^ 2 + 1 y_31_ ^ 2 - 2 y_68_ * y_31_ + 1 y_68_ ^ 2 ] <= 780.73
quadratic_ranged_288_ub: [ 1 x_45_ ^ 2 - 2 x_68_ * x_45_ + 1 x_68_ ^ 2 + 1 y_45_ ^ 2 - 2 y_68_ * y_45_ + 1 y_68_ ^ 2 ] <= 3968.29
quadratic_ranged_289_ub: [ 1 x_54_ ^ 2 - 2 x_68_ * x_54_ + 1 x_68_ ^ 2 + 1 y_54_ ^ 2 - 2 y_68_ * y_54_ + 1 y_68_ ^ 2 ] <= 14230.9
quadratic_ranged_290_ub: [ 1 x_63_ ^ 2 - 2 x_68_ * x_63_ + 1 x_68_ ^ 2 + 1 y_63_ ^ 2 - 2 y_68_ * y_63_ + 1 y_68_ ^ 2 ] <= 9631.36
quadratic_ranged_291_ub: [ 1 x_67_ ^ 2 - 2 x_68_ * x_67_ + 1 x_68_ ^ 2 + 1 y_67_ ^ 2 - 2 y_68_ * y_67_ + 1 y_68_ ^ 2 ] <= 8428.45
quadratic_ranged_292_ub: [ 1 x_3_ ^ 2 - 2 x_69_ * x_3_ + 1 x_69_ ^ 2 + 1 y_3_ ^ 2 - 2 y_69_ * y_3_ + 1 y_69_ ^ 2 ] <= 2497.73
quadratic_ranged_293_ub: [ 1 x_5_ ^ 2 - 2 x_69_ * x_5_ + 1 x_69_ ^ 2 + 1 y_5_ ^ 2 - 2 y_69_ * y_5_ + 1 y_69_ ^ 2 ] <= 3580.45
quadratic_ranged_294_ub: [ 1 x_12_ ^ 2 - 2 x_69_ * x_12_ + 1 x_69_ ^ 2 + 1 y_12_ ^ 2 - 2 y_69_ * y_12_ + 1 y_69_ ^ 2 ] <= 9842.45
quadratic_ranged_295_ub: [ 1 x_22_ ^ 2 - 2 x_69_ * x_22_ + 1 x_69_ ^ 2 + 1 y_22_ ^ 2 - 2 y_69_ * y_22_ + 1 y_69_ ^ 2 ] <= 29699.05
quadratic_ranged_296_ub: [ 1 x_29_ ^ 2 - 2 x_69_ * x_29_ + 1 x_69_ ^ 2 + 1 y_29_ ^ 2 - 2 y_69_ * y_29_ + 1 y_69_ ^ 2 ] <= 17614.4
quadratic_ranged_297_ub: [ 1 x_50_ ^ 2 - 2 x_69_ * x_50_ + 1 x_69_ ^ 2 + 1 y_50_ ^ 2 - 2 y_69_ * y_50_ + 1 y_69_ ^ 2 ] <= 5576.21
quadratic_ranged_298_ub: [ 1 x_57_ ^ 2 - 2 x_69_ * x_57_ + 1 x_69_ ^ 2 + 1 y_57_ ^ 2 - 2 y_69_ * y_57_ + 1 y_69_ ^ 2 ] <= 9900.02
quadratic_ranged_299_ub: [ 1 x_68_ ^ 2 - 2 x_69_ * x_68_ + 1 x_69_ ^ 2 + 1 y_68_ ^ 2 - 2 y_69_ * y_68_ + 1 y_69_ ^ 2 ] <= 7640.65
quadratic_ranged_300_ub: [ 1 x_29_ ^ 2 - 2 x_70_ * x_29_ + 1 x_70_ ^ 2 + 1 y_29_ ^ 2 - 2 y_70_ * y_29_ + 1 y_70_ ^ 2 ] <= 33153.25
quadratic_ranged_301_ub: [ 1 x_32_ ^ 2 - 2 x_70_ * x_32_ + 1 x_70_ ^ 2 + 1 y_32_ ^ 2 - 2 y_70_ * y_32_ + 1 y_70_ ^ 2 ] <= 163.62
quadratic_ranged_302_ub: [ 1 x_39_ ^ 2 - 2 x_70_ * x_39_ + 1 x_70_ ^ 2 + 1 y_39_ ^ 2 - 2 y_70_ * y_39_ + 1 y_70_ ^ 2 ] <= 12097.78
quadratic_ranged_303_ub: [ 1 x_69_ ^ 2 - 2 x_70_ * x_69_ + 1 x_70_ ^ 2 + 1 y_69_ ^ 2 - 2 y_70_ * y_69_ + 1 y_70_ ^ 2 ] <= 12508.85
quadratic_ranged_304_ub: [ 1 x_5_ ^ 2 - 2 x_71_ * x_5_ + 1 x_71_ ^ 2 + 1 y_5_ ^ 2 - 2 y_71_ * y_5_ + 1 y_71_ ^ 2 ] <= 408.04
quadratic_ranged_305_ub: [ 1 x_11_ ^ 2 - 2 x_71_ * x_11_ + 1 x_71_ ^ 2 + 1 y_11_ ^ 2 - 2 y_71_ * y_11_ + 1 y_71_ ^ 2 ] <= 1459.45
quadratic_ranged_306_ub: [ 1 x_13_ ^ 2 - 2 x_71_ * x_13_ + 1 x_71_ ^ 2 + 1 y_13_ ^ 2 - 2 y_71_ * y_13_ + 1 y_71_ ^ 2 ] <= 7701.25
quadratic_ranged_307_ub: [ 1 x_16_ ^ 2 - 2 x_71_ * x_16_ + 1 x_71_ ^ 2 + 1 y_16_ ^ 2 - 2 y_71_ * y_16_ + 1 y_71_ ^ 2 ] <= 20377.76
quadratic_ranged_308_ub: [ 1 x_31_ ^ 2 - 2 x_71_ * x_31_ + 1 x_71_ ^ 2 + 1 y_31_ ^ 2 - 2 y_71_ * y_31_ + 1 y_71_ ^ 2 ] <= 8767.81
quadratic_ranged_309_ub: [ 1 x_44_ ^ 2 - 2 x_71_ * x_44_ + 1 x_71_ ^ 2 + 1 y_44_ ^ 2 - 2 y_71_ * y_44_ + 1 y_71_ ^ 2 ] <= 1665.49
quadratic_ranged_310_ub: [ 1 x_50_ ^ 2 - 2 x_71_ * x_50_ + 1 x_71_ ^ 2 + 1 y_50_ ^ 2 - 2 y_71_ * y_50_ + 1 y_71_ ^ 2 ] <= 9324.32
quadratic_ranged_311_ub: [ 1 x_65_ ^ 2 - 2 x_71_ * x_65_ + 1 x_71_ ^ 2 + 1 y_65_ ^ 2 - 2 y_71_ * y_65_ + 1 y_71_ ^ 2 ] <= 1038.28
quadratic_ranged_312_ub: [ 1 x_70_ ^ 2 - 2 x_71_ * x_70_ + 1 x_71_ ^ 2 + 1 y_70_ ^ 2 - 2 y_71_ * y_70_ + 1 y_71_ ^ 2 ] <= 21981.64
quadratic_ranged_313_ub: [ 1 x_21_ ^ 2 - 2 x_72_ * x_21_ + 1 x_72_ ^ 2 + 1 y_21_ ^ 2 - 2 y_72_ * y_21_ + 1 y_72_ ^ 2 ] <= 22968.41
quadratic_ranged_314_ub: [ 1 x_49_ ^ 2 - 2 x_72_ * x_49_ + 1 x_72_ ^ 2 + 1 y_49_ ^ 2 - 2 y_72_ * y_49_ + 1 y_72_ ^ 2 ] <= 7857.8
quadratic_ranged_315_ub: [ 1 x_52_ ^ 2 - 2 x_72_ * x_52_ + 1 x_72_ ^ 2 + 1 y_52_ ^ 2 - 2 y_72_ * y_52_ + 1 y_72_ ^ 2 ] <= 14626.82
quadratic_ranged_316_ub: [ 1 x_64_ ^ 2 - 2 x_72_ * x_64_ + 1 x_72_ ^ 2 + 1 y_64_ ^ 2 - 2 y_72_ * y_64_ + 1 y_72_ ^ 2 ] <= 16047.89
quadratic_ranged_317_ub: [ 1 x_65_ ^ 2 - 2 x_72_ * x_65_ + 1 x_72_ ^ 2 + 1 y_65_ ^ 2 - 2 y_72_ * y_65_ + 1 y_72_ ^ 2 ] <= 10242.41
quadratic_ranged_318_ub: [ 1 x_71_ ^ 2 - 2 x_72_ * x_71_ + 1 x_72_ ^ 2 + 1 y_71_ ^ 2 - 2 y_72_ * y_71_ + 1 y_72_ ^ 2 ] <= 14427.85
quadratic_ranged_319_ub: [ 1 x_4_ ^ 2 - 2 x_73_ * x_4_ + 1 x_73_ ^ 2 + 1 y_4_ ^ 2 - 2 y_73_ * y_4_ + 1 y_73_ ^ 2 ] <= 11718.02
quadratic_ranged_320_ub: [ 1 x_6_ ^ 2 - 2 x_73_ * x_6_ + 1 x_73_ ^ 2 + 1 y_6_ ^ 2 - 2 y_73_ * y_6_ + 1 y_73_ ^ 2 ] <= 267.65
quadratic_ranged_321_ub: [ 1 x_7_ ^ 2 - 2 x_73_ * x_7_ + 1 x_73_ ^ 2 + 1 y_7_ ^ 2 - 2 y_73_ * y_7_ + 1 y_73_ ^ 2 ] <= 6991.22
quadratic_ranged_322_ub: [ 1 x_8_ ^ 2 - 2 x_73_ * x_8_ + 1 x_73_ ^ 2 + 1 y_8_ ^ 2 - 2 y_73_ * y_8_ + 1 y_73_ ^ 2 ] <= 13978.4
quadratic_ranged_323_ub: [ 1 x_19_ ^ 2 - 2 x_73_ * x_19_ + 1 x_73_ ^ 2 + 1 y_19_ ^ 2 - 2 y_73_ * y_19_ + 1 y_73_ ^ 2 ] <= 4656.1
quadratic_ranged_324_ub: [ 1 x_42_ ^ 2 - 2 x_73_ * x_42_ + 1 x_73_ ^ 2 + 1 y_42_ ^ 2 - 2 y_73_ * y_42_ + 1 y_73_ ^ 2 ] <= 8346.64
quadratic_ranged_325_ub: [ 1 x_48_ ^ 2 - 2 x_73_ * x_48_ + 1 x_73_ ^ 2 + 1 y_48_ ^ 2 - 2 y_73_ * y_48_ + 1 y_73_ ^ 2 ] <= 2819.92
quadratic_ranged_326_ub: [ 1 x_50_ ^ 2 - 2 x_73_ * x_50_ + 1 x_73_ ^ 2 + 1 y_50_ ^ 2 - 2 y_73_ * y_50_ + 1 y_73_ ^ 2 ] <= 1383.7
quadratic_ranged_327_ub: [ 1 x_52_ ^ 2 - 2 x_73_ * x_52_ + 1 x_73_ ^ 2 + 1 y_52_ ^ 2 - 2 y_73_ * y_52_ + 1 y_73_ ^ 2 ] <= 19744.49
quadratic_ranged_328_ub: [ 1 x_58_ ^ 2 - 2 x_73_ * x_58_ + 1 x_73_ ^ 2 + 1 y_58_ ^ 2 - 2 y_73_ * y_58_ + 1 y_73_ ^ 2 ] <= 6545.81
quadratic_ranged_329_ub: [ 1 x_66_ ^ 2 - 2 x_73_ * x_66_ + 1 x_73_ ^ 2 + 1 y_66_ ^ 2 - 2 y_73_ * y_66_ + 1 y_73_ ^ 2 ] <= 14796.5
quadratic_ranged_330_ub: [ 1 x_72_ ^ 2 - 2 x_73_ * x_72_ + 1 x_73_ ^ 2 + 1 y_72_ ^ 2 - 2 y_73_ * y_72_ + 1 y_73_ ^ 2 ] <= 3531.9700000000003
quadratic_ranged_331_ub: [ 1 x_4_ ^ 2 - 2 x_74_ * x_4_ + 1 x_74_ ^ 2 + 1 y_4_ ^ 2 - 2 y_74_ * y_4_ + 1 y_74_ ^ 2 ] <= 1831.13
quadratic_ranged_332_ub: [ 1 x_8_ ^ 2 - 2 x_74_ * x_8_ + 1 x_74_ ^ 2 + 1 y_8_ ^ 2 - 2 y_74_ * y_8_ + 1 y_74_ ^ 2 ] <= 35730.77
quadratic_ranged_333_ub: [ 1 x_20_ ^ 2 - 2 x_74_ * x_20_ + 1 x_74_ ^ 2 + 1 y_20_ ^ 2 - 2 y_74_ * y_20_ + 1 y_74_ ^ 2 ] <= 29290
quadratic_ranged_334_ub: [ 1 x_28_ ^ 2 - 2 x_74_ * x_28_ + 1 x_74_ ^ 2 + 1 y_28_ ^ 2 - 2 y_74_ * y_28_ + 1 y_74_ ^ 2 ] <= 22714.9
quadratic_ranged_335_ub: [ 1 x_50_ ^ 2 - 2 x_74_ * x_50_ + 1 x_74_ ^ 2 + 1 y_50_ ^ 2 - 2 y_74_ * y_50_ + 1 y_74_ ^ 2 ] <= 7664.89
quadratic_ranged_336_ub: [ 1 x_62_ ^ 2 - 2 x_74_ * x_62_ + 1 x_74_ ^ 2 + 1 y_62_ ^ 2 - 2 y_74_ * y_62_ + 1 y_74_ ^ 2 ] <= 21371.6
quadratic_ranged_337_ub: [ 1 x_65_ ^ 2 - 2 x_74_ * x_65_ + 1 x_74_ ^ 2 + 1 y_65_ ^ 2 - 2 y_74_ * y_65_ + 1 y_74_ ^ 2 ] <= 3552.17
quadratic_ranged_338_ub: [ 1 x_66_ ^ 2 - 2 x_74_ * x_66_ + 1 x_74_ ^ 2 + 1 y_66_ ^ 2 - 2 y_74_ * y_66_ + 1 y_74_ ^ 2 ] <= 4570.25
quadratic_ranged_339_ub: [ 1 x_73_ ^ 2 - 2 x_74_ * x_73_ + 1 x_74_ ^ 2 + 1 y_73_ ^ 2 - 2 y_74_ * y_73_ + 1 y_74_ ^ 2 ] <= 8670.85
quadratic_ranged_340_ub: [ 1 x_10_ ^ 2 - 2 x_75_ * x_10_ + 1 x_75_ ^ 2 + 1 y_10_ ^ 2 - 2 y_75_ * y_10_ + 1 y_75_ ^ 2 ] <= 10375.73
quadratic_ranged_341_ub: [ 1 x_13_ ^ 2 - 2 x_75_ * x_13_ + 1 x_75_ ^ 2 + 1 y_13_ ^ 2 - 2 y_75_ * y_13_ + 1 y_75_ ^ 2 ] <= 12318.97
quadratic_ranged_342_ub: [ 1 x_30_ ^ 2 - 2 x_75_ * x_30_ + 1 x_75_ ^ 2 + 1 y_30_ ^ 2 - 2 y_75_ * y_30_ + 1 y_75_ ^ 2 ] <= 17930.53
quadratic_ranged_343_ub: [ 1 x_73_ ^ 2 - 2 x_75_ * x_73_ + 1 x_75_ ^ 2 + 1 y_73_ ^ 2 - 2 y_75_ * y_73_ + 1 y_75_ ^ 2 ] <= 9797
quadratic_ranged_344_ub: [ 1 x_74_ ^ 2 - 2 x_75_ * x_74_ + 1 x_75_ ^ 2 + 1 y_74_ ^ 2 - 2 y_75_ * y_74_ + 1 y_75_ ^ 2 ] <= 4812.65
quadratic_ranged_345_ub: [ 1 x_12_ ^ 2 - 2 x_76_ * x_12_ + 1 x_76_ ^ 2 + 1 y_12_ ^ 2 - 2 y_76_ * y_12_ + 1 y_76_ ^ 2 ] <= 15335.84
quadratic_ranged_346_ub: [ 1 x_38_ ^ 2 - 2 x_76_ * x_38_ + 1 x_76_ ^ 2 + 1 y_38_ ^ 2 - 2 y_76_ * y_38_ + 1 y_76_ ^ 2 ] <= 8035.56
quadratic_ranged_347_ub: [ 1 x_41_ ^ 2 - 2 x_76_ * x_41_ + 1 x_76_ ^ 2 + 1 y_41_ ^ 2 - 2 y_76_ * y_41_ + 1 y_76_ ^ 2 ] <= 42834.1
quadratic_ranged_348_ub: [ 1 x_50_ ^ 2 - 2 x_76_ * x_50_ + 1 x_76_ ^ 2 + 1 y_50_ ^ 2 - 2 y_76_ * y_50_ + 1 y_76_ ^ 2 ] <= 8585
quadratic_ranged_349_ub: [ 1 x_66_ ^ 2 - 2 x_76_ * x_66_ + 1 x_76_ ^ 2 + 1 y_66_ ^ 2 - 2 y_76_ * y_66_ + 1 y_76_ ^ 2 ] <= 3009.8
quadratic_ranged_350_ub: [ 1 x_67_ ^ 2 - 2 x_76_ * x_67_ + 1 x_76_ ^ 2 + 1 y_67_ ^ 2 - 2 y_76_ * y_67_ + 1 y_76_ ^ 2 ] <= 3774.37
quadratic_ranged_351_ub: [ 1 x_69_ ^ 2 - 2 x_76_ * x_69_ + 1 x_76_ ^ 2 + 1 y_69_ ^ 2 - 2 y_76_ * y_69_ + 1 y_76_ ^ 2 ] <= 607.01
quadratic_ranged_352_ub: [ 1 x_75_ ^ 2 - 2 x_76_ * x_75_ + 1 x_76_ ^ 2 + 1 y_75_ ^ 2 - 2 y_76_ * y_75_ + 1 y_76_ ^ 2 ] <= 6676.1
quadratic_ranged_353_ub: [ 1 x_7_ ^ 2 - 2 x_77_ * x_7_ + 1 x_77_ ^ 2 + 1 y_7_ ^ 2 - 2 y_77_ * y_7_ + 1 y_77_ ^ 2 ] <= 5927.69
quadratic_ranged_354_ub: [ 1 x_26_ ^ 2 - 2 x_77_ * x_26_ + 1 x_77_ ^ 2 + 1 y_26_ ^ 2 - 2 y_77_ * y_26_ + 1 y_77_ ^ 2 ] <= 5442.89
quadratic_ranged_355_ub: [ 1 x_28_ ^ 2 - 2 x_77_ * x_28_ + 1 x_77_ ^ 2 + 1 y_28_ ^ 2 - 2 y_77_ * y_28_ + 1 y_77_ ^ 2 ] <= 9716.2
quadratic_ranged_356_ub: [ 1 x_45_ ^ 2 - 2 x_77_ * x_45_ + 1 x_77_ ^ 2 + 1 y_45_ ^ 2 - 2 y_77_ * y_45_ + 1 y_77_ ^ 2 ] <= 3080.5
quadratic_ranged_357_ub: [ 1 x_50_ ^ 2 - 2 x_77_ * x_50_ + 1 x_77_ ^ 2 + 1 y_50_ ^ 2 - 2 y_77_ * y_50_ + 1 y_77_ ^ 2 ] <= 3071.41
quadratic_ranged_358_ub: [ 1 x_56_ ^ 2 - 2 x_77_ * x_56_ + 1 x_77_ ^ 2 + 1 y_56_ ^ 2 - 2 y_77_ * y_56_ + 1 y_77_ ^ 2 ] <= 13126.97
quadratic_ranged_359_ub: [ 1 x_76_ ^ 2 - 2 x_77_ * x_76_ + 1 x_77_ ^ 2 + 1 y_76_ ^ 2 - 2 y_77_ * y_76_ + 1 y_77_ ^ 2 ] <= 4364.21
quadratic_ranged_360_ub: [ 1 x_7_ ^ 2 - 2 x_78_ * x_7_ + 1 x_78_ ^ 2 + 1 y_7_ ^ 2 - 2 y_78_ * y_7_ + 1 y_78_ ^ 2 ] <= 4962.13
quadratic_ranged_361_ub: [ 1 x_18_ ^ 2 - 2 x_78_ * x_18_ + 1 x_78_ ^ 2 + 1 y_18_ ^ 2 - 2 y_78_ * y_18_ + 1 y_78_ ^ 2 ] <= 6400.37
quadratic_ranged_362_ub: [ 1 x_19_ ^ 2 - 2 x_78_ * x_19_ + 1 x_78_ ^ 2 + 1 y_19_ ^ 2 - 2 y_78_ * y_19_ + 1 y_78_ ^ 2 ] <= 1701.85
quadratic_ranged_363_ub: [ 1 x_25_ ^ 2 - 2 x_78_ * x_25_ + 1 x_78_ ^ 2 + 1 y_25_ ^ 2 - 2 y_78_ * y_25_ + 1 y_78_ ^ 2 ] <= 5013.64
quadratic_ranged_364_ub: [ 1 x_33_ ^ 2 - 2 x_78_ * x_33_ + 1 x_78_ ^ 2 + 1 y_33_ ^ 2 - 2 y_78_ * y_33_ + 1 y_78_ ^ 2 ] <= 20896.9
quadratic_ranged_365_ub: [ 1 x_36_ ^ 2 - 2 x_78_ * x_36_ + 1 x_78_ ^ 2 + 1 y_36_ ^ 2 - 2 y_78_ * y_36_ + 1 y_78_ ^ 2 ] <= 16629.65
quadratic_ranged_366_ub: [ 1 x_42_ ^ 2 - 2 x_78_ * x_42_ + 1 x_78_ ^ 2 + 1 y_42_ ^ 2 - 2 y_78_ * y_42_ + 1 y_78_ ^ 2 ] <= 9931.33
quadratic_ranged_367_ub: [ 1 x_62_ ^ 2 - 2 x_78_ * x_62_ + 1 x_78_ ^ 2 + 1 y_62_ ^ 2 - 2 y_78_ * y_62_ + 1 y_78_ ^ 2 ] <= 9651.56
quadratic_ranged_368_ub: [ 1 x_77_ ^ 2 - 2 x_78_ * x_77_ + 1 x_78_ ^ 2 + 1 y_77_ ^ 2 - 2 y_78_ * y_77_ + 1 y_78_ ^ 2 ] <= 276.74
quadratic_ranged_369_ub: [ 1 x_14_ ^ 2 - 2 x_79_ * x_14_ + 1 x_79_ ^ 2 + 1 y_14_ ^ 2 - 2 y_79_ * y_14_ + 1 y_79_ ^ 2 ] <= 25187.38
quadratic_ranged_370_ub: [ 1 x_24_ ^ 2 - 2 x_79_ * x_24_ + 1 x_79_ ^ 2 + 1 y_24_ ^ 2 - 2 y_79_ * y_24_ + 1 y_79_ ^ 2 ] <= 11493.8
quadratic_ranged_371_ub: [ 1 x_31_ ^ 2 - 2 x_79_ * x_31_ + 1 x_79_ ^ 2 + 1 y_31_ ^ 2 - 2 y_79_ * y_31_ + 1 y_79_ ^ 2 ] <= 27993.16
quadratic_ranged_372_ub: [ 1 x_36_ ^ 2 - 2 x_79_ * x_36_ + 1 x_79_ ^ 2 + 1 y_36_ ^ 2 - 2 y_79_ * y_36_ + 1 y_79_ ^ 2 ] <= 6513.49
quadratic_ranged_373_ub: [ 1 x_43_ ^ 2 - 2 x_79_ * x_43_ + 1 x_79_ ^ 2 + 1 y_43_ ^ 2 - 2 y_79_ * y_43_ + 1 y_79_ ^ 2 ] <= 31661.48
quadratic_ranged_374_ub: [ 1 x_54_ ^ 2 - 2 x_79_ * x_54_ + 1 x_79_ ^ 2 + 1 y_54_ ^ 2 - 2 y_79_ * y_54_ + 1 y_79_ ^ 2 ] <= 30414.13
quadratic_ranged_375_ub: [ 1 x_63_ ^ 2 - 2 x_79_ * x_63_ + 1 x_79_ ^ 2 + 1 y_63_ ^ 2 - 2 y_79_ * y_63_ + 1 y_79_ ^ 2 ] <= 30983.77
quadratic_ranged_376_ub: [ 1 x_76_ ^ 2 - 2 x_79_ * x_76_ + 1 x_79_ ^ 2 + 1 y_76_ ^ 2 - 2 y_79_ * y_76_ + 1 y_79_ ^ 2 ] <= 29367.77
quadratic_ranged_377_ub: [ 1 x_78_ ^ 2 - 2 x_79_ * x_78_ + 1 x_79_ ^ 2 + 1 y_78_ ^ 2 - 2 y_79_ * y_78_ + 1 y_79_ ^ 2 ] <= 16056.98
quadratic_ranged_378_ub: [ 1 x_6_ ^ 2 - 2 x_80_ * x_6_ + 1 x_80_ ^ 2 + 1 y_6_ ^ 2 - 2 y_80_ * y_6_ + 1 y_80_ ^ 2 ] <= 5176.25
quadratic_ranged_379_ub: [ 1 x_9_ ^ 2 - 2 x_80_ * x_9_ + 1 x_80_ ^ 2 + 1 y_9_ ^ 2 - 2 y_80_ * y_9_ + 1 y_80_ ^ 2 ] <= 19121.32
quadratic_ranged_380_ub: [ 1 x_12_ ^ 2 - 2 x_80_ * x_12_ + 1 x_80_ ^ 2 + 1 y_12_ ^ 2 - 2 y_80_ * y_12_ + 1 y_80_ ^ 2 ] <= 1236.24
quadratic_ranged_381_ub: [ 1 x_23_ ^ 2 - 2 x_80_ * x_23_ + 1 x_80_ ^ 2 + 1 y_23_ ^ 2 - 2 y_80_ * y_23_ + 1 y_80_ ^ 2 ] <= 13345.130000000001
quadratic_ranged_382_ub: [ 1 x_28_ ^ 2 - 2 x_80_ * x_28_ + 1 x_80_ ^ 2 + 1 y_28_ ^ 2 - 2 y_80_ * y_28_ + 1 y_80_ ^ 2 ] <= 5673.17
quadratic_ranged_383_ub: [ 1 x_34_ ^ 2 - 2 x_80_ * x_34_ + 1 x_80_ ^ 2 + 1 y_34_ ^ 2 - 2 y_80_ * y_34_ + 1 y_80_ ^ 2 ] <= 6004.45
quadratic_ranged_384_ub: [ 1 x_42_ ^ 2 - 2 x_80_ * x_42_ + 1 x_80_ ^ 2 + 1 y_42_ ^ 2 - 2 y_80_ * y_42_ + 1 y_80_ ^ 2 ] <= 1618.02
quadratic_ranged_385_ub: [ 1 x_50_ ^ 2 - 2 x_80_ * x_50_ + 1 x_80_ ^ 2 + 1 y_50_ ^ 2 - 2 y_80_ * y_50_ + 1 y_80_ ^ 2 ] <= 11817
quadratic_ranged_386_ub: [ 1 x_61_ ^ 2 - 2 x_80_ * x_61_ + 1 x_80_ ^ 2 + 1 y_61_ ^ 2 - 2 y_80_ * y_61_ + 1 y_80_ ^ 2 ] <= 25477.25
quadratic_ranged_387_ub: [ 1 x_62_ ^ 2 - 2 x_80_ * x_62_ + 1 x_80_ ^ 2 + 1 y_62_ ^ 2 - 2 y_80_ * y_62_ + 1 y_80_ ^ 2 ] <= 2618.93
quadratic_ranged_388_ub: [ 1 x_73_ ^ 2 - 2 x_80_ * x_73_ + 1 x_80_ ^ 2 + 1 y_73_ ^ 2 - 2 y_80_ * y_73_ + 1 y_80_ ^ 2 ] <= 5504.5
quadratic_ranged_389_ub: [ 1 x_79_ ^ 2 - 2 x_80_ * x_79_ + 1 x_80_ ^ 2 + 1 y_79_ ^ 2 - 2 y_80_ * y_79_ + 1 y_80_ ^ 2 ] <= 2683.57
quadratic_ranged_390_ub: [ 1 x_8_ ^ 2 - 2 x_81_ * x_8_ + 1 x_81_ ^ 2 + 1 y_8_ ^ 2 - 2 y_81_ * y_8_ + 1 y_81_ ^ 2 ] <= 23080.52
quadratic_ranged_391_ub: [ 1 x_36_ ^ 2 - 2 x_81_ * x_36_ + 1 x_81_ ^ 2 + 1 y_36_ ^ 2 - 2 y_81_ * y_36_ + 1 y_81_ ^ 2 ] <= 7449.76
quadratic_ranged_392_ub: [ 1 x_60_ ^ 2 - 2 x_81_ * x_60_ + 1 x_81_ ^ 2 + 1 y_60_ ^ 2 - 2 y_81_ * y_60_ + 1 y_81_ ^ 2 ] <= 28071.94
quadratic_ranged_393_ub: [ 1 x_68_ ^ 2 - 2 x_81_ * x_68_ + 1 x_81_ ^ 2 + 1 y_68_ ^ 2 - 2 y_81_ * y_68_ + 1 y_81_ ^ 2 ] <= 7373
quadratic_ranged_394_ub: [ 1 x_80_ ^ 2 - 2 x_81_ * x_80_ + 1 x_81_ ^ 2 + 1 y_80_ ^ 2 - 2 y_81_ * y_80_ + 1 y_81_ ^ 2 ] <= 11855.38
quadratic_ranged_395_ub: [ 1 x_13_ ^ 2 - 2 x_82_ * x_13_ + 1 x_82_ ^ 2 + 1 y_13_ ^ 2 - 2 y_82_ * y_13_ + 1 y_82_ ^ 2 ] <= 1116.05
quadratic_ranged_396_ub: [ 1 x_23_ ^ 2 - 2 x_82_ * x_23_ + 1 x_82_ ^ 2 + 1 y_23_ ^ 2 - 2 y_82_ * y_23_ + 1 y_82_ ^ 2 ] <= 10125.25
quadratic_ranged_397_ub: [ 1 x_58_ ^ 2 - 2 x_82_ * x_58_ + 1 x_82_ ^ 2 + 1 y_58_ ^ 2 - 2 y_82_ * y_58_ + 1 y_82_ ^ 2 ] <= 10327.25
quadratic_ranged_398_ub: [ 1 x_59_ ^ 2 - 2 x_82_ * x_59_ + 1 x_82_ ^ 2 + 1 y_59_ ^ 2 - 2 y_82_ * y_59_ + 1 y_82_ ^ 2 ] <= 7958.8
quadratic_ranged_399_ub: [ 1 x_78_ ^ 2 - 2 x_82_ * x_78_ + 1 x_82_ ^ 2 + 1 y_78_ ^ 2 - 2 y_82_ * y_78_ + 1 y_82_ ^ 2 ] <= 3026.97
quadratic_ranged_400_ub: [ 1 x_81_ ^ 2 - 2 x_82_ * x_81_ + 1 x_82_ ^ 2 + 1 y_81_ ^ 2 - 2 y_82_ * y_81_ + 1 y_82_ ^ 2 ] <= 11009
quadratic_ranged_401_ub: [ 1 x_10_ ^ 2 - 2 x_83_ * x_10_ + 1 x_83_ ^ 2 + 1 y_10_ ^ 2 - 2 y_83_ * y_10_ + 1 y_83_ ^ 2 ] <= 4347.04
quadratic_ranged_402_ub: [ 1 x_19_ ^ 2 - 2 x_83_ * x_19_ + 1 x_83_ ^ 2 + 1 y_19_ ^ 2 - 2 y_83_ * y_19_ + 1 y_83_ ^ 2 ] <= 9939.41
quadratic_ranged_403_ub: [ 1 x_21_ ^ 2 - 2 x_83_ * x_21_ + 1 x_83_ ^ 2 + 1 y_21_ ^ 2 - 2 y_83_ * y_21_ + 1 y_83_ ^ 2 ] <= 4768.21
quadratic_ranged_404_ub: [ 1 x_35_ ^ 2 - 2 x_83_ * x_35_ + 1 x_83_ ^ 2 + 1 y_35_ ^ 2 - 2 y_83_ * y_35_ + 1 y_83_ ^ 2 ] <= 7745.6900000000005
quadratic_ranged_405_ub: [ 1 x_36_ ^ 2 - 2 x_83_ * x_36_ + 1 x_83_ ^ 2 + 1 y_36_ ^ 2 - 2 y_83_ * y_36_ + 1 y_83_ ^ 2 ] <= 32773.49
quadratic_ranged_406_ub: [ 1 x_44_ ^ 2 - 2 x_83_ * x_44_ + 1 x_83_ ^ 2 + 1 y_44_ ^ 2 - 2 y_83_ * y_44_ + 1 y_83_ ^ 2 ] <= 13267.36
quadratic_ranged_407_ub: [ 1 x_60_ ^ 2 - 2 x_83_ * x_60_ + 1 x_83_ ^ 2 + 1 y_60_ ^ 2 - 2 y_83_ * y_60_ + 1 y_83_ ^ 2 ] <= 37395.25
quadratic_ranged_408_ub: [ 1 x_62_ ^ 2 - 2 x_83_ * x_62_ + 1 x_83_ ^ 2 + 1 y_62_ ^ 2 - 2 y_83_ * y_62_ + 1 y_83_ ^ 2 ] <= 20377.76
quadratic_ranged_409_ub: [ 1 x_72_ ^ 2 - 2 x_83_ * x_72_ + 1 x_83_ ^ 2 + 1 y_72_ ^ 2 - 2 y_83_ * y_72_ + 1 y_83_ ^ 2 ] <= 22211.920000000002
quadratic_ranged_410_ub: [ 1 x_74_ ^ 2 - 2 x_83_ * x_74_ + 1 x_83_ ^ 2 + 1 y_74_ ^ 2 - 2 y_83_ * y_74_ + 1 y_83_ ^ 2 ] <= 492.88
quadratic_ranged_411_ub: [ 1 x_79_ ^ 2 - 2 x_83_ * x_79_ + 1 x_83_ ^ 2 + 1 y_79_ ^ 2 - 2 y_83_ * y_79_ + 1 y_83_ ^ 2 ] <= 35610.58
quadratic_ranged_412_ub: [ 1 x_82_ ^ 2 - 2 x_83_ * x_82_ + 1 x_83_ ^ 2 + 1 y_82_ ^ 2 - 2 y_83_ * y_82_ + 1 y_83_ ^ 2 ] <= 12512.89
quadratic_ranged_413_ub: [ 1 x_10_ ^ 2 - 2 x_84_ * x_10_ + 1 x_84_ ^ 2 + 1 y_10_ ^ 2 - 2 y_84_ * y_10_ + 1 y_84_ ^ 2 ] <= 4562.17
quadratic_ranged_414_ub: [ 1 x_21_ ^ 2 - 2 x_84_ * x_21_ + 1 x_84_ ^ 2 + 1 y_21_ ^ 2 - 2 y_84_ * y_21_ + 1 y_84_ ^ 2 ] <= 10782.76
quadratic_ranged_415_ub: [ 1 x_31_ ^ 2 - 2 x_84_ * x_31_ + 1 x_84_ ^ 2 + 1 y_31_ ^ 2 - 2 y_84_ * y_31_ + 1 y_84_ ^ 2 ] <= 4028.89
quadratic_ranged_416_ub: [ 1 x_34_ ^ 2 - 2 x_84_ * x_34_ + 1 x_84_ ^ 2 + 1 y_34_ ^ 2 - 2 y_84_ * y_34_ + 1 y_84_ ^ 2 ] <= 691.85
quadratic_ranged_417_ub: [ 1 x_48_ ^ 2 - 2 x_84_ * x_48_ + 1 x_84_ ^ 2 + 1 y_48_ ^ 2 - 2 y_84_ * y_48_ + 1 y_84_ ^ 2 ] <= 1973.54
quadratic_ranged_418_ub: [ 1 x_62_ ^ 2 - 2 x_84_ * x_62_ + 1 x_84_ ^ 2 + 1 y_62_ ^ 2 - 2 y_84_ * y_62_ + 1 y_84_ ^ 2 ] <= 1863.45
quadratic_ranged_419_ub: [ 1 x_63_ ^ 2 - 2 x_84_ * x_63_ + 1 x_84_ ^ 2 + 1 y_63_ ^ 2 - 2 y_84_ * y_63_ + 1 y_84_ ^ 2 ] <= 10602.98
quadratic_ranged_420_ub: [ 1 x_81_ ^ 2 - 2 x_84_ * x_81_ + 1 x_84_ ^ 2 + 1 y_81_ ^ 2 - 2 y_84_ * y_81_ + 1 y_84_ ^ 2 ] <= 7524.5
quadratic_ranged_421_ub: [ 1 x_83_ ^ 2 - 2 x_84_ * x_83_ + 1 x_84_ ^ 2 + 1 y_83_ ^ 2 - 2 y_84_ * y_83_ + 1 y_84_ ^ 2 ] <= 10339.37
quadratic_ranged_422_ub: [ 1 x_37_ ^ 2 - 2 x_85_ * x_37_ + 1 x_85_ ^ 2 + 1 y_37_ ^ 2 - 2 y_85_ * y_37_ + 1 y_85_ ^ 2 ] <= 485.81
quadratic_ranged_423_ub: [ 1 x_51_ ^ 2 - 2 x_85_ * x_51_ + 1 x_85_ ^ 2 + 1 y_51_ ^ 2 - 2 y_85_ * y_51_ + 1 y_85_ ^ 2 ] <= 13271.4
quadratic_ranged_424_ub: [ 1 x_75_ ^ 2 - 2 x_85_ * x_75_ + 1 x_85_ ^ 2 + 1 y_75_ ^ 2 - 2 y_85_ * y_75_ + 1 y_85_ ^ 2 ] <= 39233.45
quadratic_ranged_425_ub: [ 1 x_84_ ^ 2 - 2 x_85_ * x_84_ + 1 x_85_ ^ 2 + 1 y_84_ ^ 2 - 2 y_85_ * y_84_ + 1 y_85_ ^ 2 ] <= 9628.33
quadratic_ranged_426_ub: [ 1 x_6_ ^ 2 - 2 x_86_ * x_6_ + 1 x_86_ ^ 2 + 1 y_6_ ^ 2 - 2 y_86_ * y_6_ + 1 y_86_ ^ 2 ] <= 7524.5
quadratic_ranged_427_ub: [ 1 x_8_ ^ 2 - 2 x_86_ * x_8_ + 1 x_86_ ^ 2 + 1 y_8_ ^ 2 - 2 y_86_ * y_8_ + 1 y_86_ ^ 2 ] <= 31456.45
quadratic_ranged_428_ub: [ 1 x_14_ ^ 2 - 2 x_86_ * x_14_ + 1 x_86_ ^ 2 + 1 y_14_ ^ 2 - 2 y_86_ * y_14_ + 1 y_86_ ^ 2 ] <= 39127.4
quadratic_ranged_429_ub: [ 1 x_28_ ^ 2 - 2 x_86_ * x_28_ + 1 x_86_ ^ 2 + 1 y_28_ ^ 2 - 2 y_86_ * y_28_ + 1 y_86_ ^ 2 ] <= 17511.38
quadratic_ranged_430_ub: [ 1 x_31_ ^ 2 - 2 x_86_ * x_31_ + 1 x_86_ ^ 2 + 1 y_31_ ^ 2 - 2 y_86_ * y_31_ + 1 y_86_ ^ 2 ] <= 7403.3
quadratic_ranged_431_ub: [ 1 x_48_ ^ 2 - 2 x_86_ * x_48_ + 1 x_86_ ^ 2 + 1 y_48_ ^ 2 - 2 y_86_ * y_48_ + 1 y_86_ ^ 2 ] <= 22661.37
quadratic_ranged_432_ub: [ 1 x_73_ ^ 2 - 2 x_86_ * x_73_ + 1 x_86_ ^ 2 + 1 y_73_ ^ 2 - 2 y_86_ * y_73_ + 1 y_86_ ^ 2 ] <= 9519.25
quadratic_ranged_433_ub: [ 1 x_83_ ^ 2 - 2 x_86_ * x_83_ + 1 x_86_ ^ 2 + 1 y_83_ ^ 2 - 2 y_86_ * y_83_ + 1 y_86_ ^ 2 ] <= 2428.04
quadratic_ranged_434_ub: [ 1 x_85_ ^ 2 - 2 x_86_ * x_85_ + 1 x_86_ ^ 2 + 1 y_85_ ^ 2 - 2 y_86_ * y_85_ + 1 y_86_ ^ 2 ] <= 21735.2
quadratic_ranged_435_ub: [ 1 x_5_ ^ 2 - 2 x_87_ * x_5_ + 1 x_87_ ^ 2 + 1 y_5_ ^ 2 - 2 y_87_ * y_5_ + 1 y_87_ ^ 2 ] <= 659.53
quadratic_ranged_436_ub: [ 1 x_8_ ^ 2 - 2 x_87_ * x_8_ + 1 x_87_ ^ 2 + 1 y_8_ ^ 2 - 2 y_87_ * y_8_ + 1 y_87_ ^ 2 ] <= 6727.61
quadratic_ranged_437_ub: [ 1 x_17_ ^ 2 - 2 x_87_ * x_17_ + 1 x_87_ ^ 2 + 1 y_17_ ^ 2 - 2 y_87_ * y_17_ + 1 y_87_ ^ 2 ] <= 11606.92
quadratic_ranged_438_ub: [ 1 x_24_ ^ 2 - 2 x_87_ * x_24_ + 1 x_87_ ^ 2 + 1 y_24_ ^ 2 - 2 y_87_ * y_24_ + 1 y_87_ ^ 2 ] <= 14091.52
quadratic_ranged_439_ub: [ 1 x_53_ ^ 2 - 2 x_87_ * x_53_ + 1 x_87_ ^ 2 + 1 y_53_ ^ 2 - 2 y_87_ * y_53_ + 1 y_87_ ^ 2 ] <= 10330.28
quadratic_ranged_440_ub: [ 1 x_68_ ^ 2 - 2 x_87_ * x_68_ + 1 x_87_ ^ 2 + 1 y_68_ ^ 2 - 2 y_87_ * y_68_ + 1 y_87_ ^ 2 ] <= 17575.01
quadratic_ranged_441_ub: [ 1 x_71_ ^ 2 - 2 x_87_ * x_71_ + 1 x_87_ ^ 2 + 1 y_71_ ^ 2 - 2 y_87_ * y_71_ + 1 y_87_ ^ 2 ] <= 1903.85
quadratic_ranged_442_ub: [ 1 x_72_ ^ 2 - 2 x_87_ * x_72_ + 1 x_87_ ^ 2 + 1 y_72_ ^ 2 - 2 y_87_ * y_72_ + 1 y_87_ ^ 2 ] <= 11200.9
quadratic_ranged_443_ub: [ 1 x_77_ ^ 2 - 2 x_87_ * x_77_ + 1 x_87_ ^ 2 + 1 y_77_ ^ 2 - 2 y_87_ * y_77_ + 1 y_87_ ^ 2 ] <= 3898.6
quadratic_ranged_444_ub: [ 1 x_83_ ^ 2 - 2 x_87_ * x_83_ + 1 x_87_ ^ 2 + 1 y_83_ ^ 2 - 2 y_87_ * y_83_ + 1 y_87_ ^ 2 ] <= 16226.66
quadratic_ranged_445_ub: [ 1 x_86_ ^ 2 - 2 x_87_ * x_86_ + 1 x_87_ ^ 2 + 1 y_86_ ^ 2 - 2 y_87_ * y_86_ + 1 y_87_ ^ 2 ] <= 9649.54
quadratic_ranged_446_ub: [ 1 x_9_ ^ 2 - 2 x_88_ * x_9_ + 1 x_88_ ^ 2 + 1 y_9_ ^ 2 - 2 y_88_ * y_9_ + 1 y_88_ ^ 2 ] <= 31047.4
quadratic_ranged_447_ub: [ 1 x_16_ ^ 2 - 2 x_88_ * x_16_ + 1 x_88_ ^ 2 + 1 y_16_ ^ 2 - 2 y_88_ * y_16_ + 1 y_88_ ^ 2 ] <= 26037.8
quadratic_ranged_448_ub: [ 1 x_23_ ^ 2 - 2 x_88_ * x_23_ + 1 x_88_ ^ 2 + 1 y_23_ ^ 2 - 2 y_88_ * y_23_ + 1 y_88_ ^ 2 ] <= 21821.05
quadratic_ranged_449_ub: [ 1 x_42_ ^ 2 - 2 x_88_ * x_42_ + 1 x_88_ ^ 2 + 1 y_42_ ^ 2 - 2 y_88_ * y_42_ + 1 y_88_ ^ 2 ] <= 2062.42
quadratic_ranged_450_ub: [ 1 x_64_ ^ 2 - 2 x_88_ * x_64_ + 1 x_88_ ^ 2 + 1 y_64_ ^ 2 - 2 y_88_ * y_64_ + 1 y_88_ ^ 2 ] <= 23054.26
quadratic_ranged_451_ub: [ 1 x_73_ ^ 2 - 2 x_88_ * x_73_ + 1 x_88_ ^ 2 + 1 y_73_ ^ 2 - 2 y_88_ * y_73_ + 1 y_88_ ^ 2 ] <= 12526.02
quadratic_ranged_452_ub: [ 1 x_87_ ^ 2 - 2 x_88_ * x_87_ + 1 x_88_ ^ 2 + 1 y_87_ ^ 2 - 2 y_88_ * y_87_ + 1 y_88_ ^ 2 ] <= 7862.85
quadratic_ranged_453_ub: [ 1 x_3_ ^ 2 - 2 x_89_ * x_3_ + 1 x_89_ ^ 2 + 1 y_3_ ^ 2 - 2 y_89_ * y_3_ + 1 y_89_ ^ 2 ] <= 2994.65
quadratic_ranged_454_ub: [ 1 x_15_ ^ 2 - 2 x_89_ * x_15_ + 1 x_89_ ^ 2 + 1 y_15_ ^ 2 - 2 y_89_ * y_15_ + 1 y_89_ ^ 2 ] <= 31683.7
quadratic_ranged_455_ub: [ 1 x_16_ ^ 2 - 2 x_89_ * x_16_ + 1 x_89_ ^ 2 + 1 y_16_ ^ 2 - 2 y_89_ * y_16_ + 1 y_89_ ^ 2 ] <= 22952.25
quadratic_ranged_456_ub: [ 1 x_18_ ^ 2 - 2 x_89_ * x_18_ + 1 x_89_ ^ 2 + 1 y_18_ ^ 2 - 2 y_89_ * y_18_ + 1 y_89_ ^ 2 ] <= 1140.29
quadratic_ranged_457_ub: [ 1 x_20_ ^ 2 - 2 x_89_ * x_20_ + 1 x_89_ ^ 2 + 1 y_20_ ^ 2 - 2 y_89_ * y_20_ + 1 y_89_ ^ 2 ] <= 13497.64
quadratic_ranged_458_ub: [ 1 x_30_ ^ 2 - 2 x_89_ * x_30_ + 1 x_89_ ^ 2 + 1 y_30_ ^ 2 - 2 y_89_ * y_30_ + 1 y_89_ ^ 2 ] <= 27120.52
quadratic_ranged_459_ub: [ 1 x_34_ ^ 2 - 2 x_89_ * x_34_ + 1 x_89_ ^ 2 + 1 y_34_ ^ 2 - 2 y_89_ * y_34_ + 1 y_89_ ^ 2 ] <= 11542.28
quadratic_ranged_460_ub: [ 1 x_41_ ^ 2 - 2 x_89_ * x_41_ + 1 x_89_ ^ 2 + 1 y_41_ ^ 2 - 2 y_89_ * y_41_ + 1 y_89_ ^ 2 ] <= 28931.45
quadratic_ranged_461_ub: [ 1 x_49_ ^ 2 - 2 x_89_ * x_49_ + 1 x_89_ ^ 2 + 1 y_49_ ^ 2 - 2 y_89_ * y_49_ + 1 y_89_ ^ 2 ] <= 10706
quadratic_ranged_462_ub: [ 1 x_52_ ^ 2 - 2 x_89_ * x_52_ + 1 x_89_ ^ 2 + 1 y_52_ ^ 2 - 2 y_89_ * y_52_ + 1 y_89_ ^ 2 ] <= 15951.94
quadratic_ranged_463_ub: [ 1 x_53_ ^ 2 - 2 x_89_ * x_53_ + 1 x_89_ ^ 2 + 1 y_53_ ^ 2 - 2 y_89_ * y_53_ + 1 y_89_ ^ 2 ] <= 8445.62
quadratic_ranged_464_ub: [ 1 x_63_ ^ 2 - 2 x_89_ * x_63_ + 1 x_89_ ^ 2 + 1 y_63_ ^ 2 - 2 y_89_ * y_63_ + 1 y_89_ ^ 2 ] <= 6537.7300000000005
quadratic_ranged_465_ub: [ 1 x_67_ ^ 2 - 2 x_89_ * x_67_ + 1 x_89_ ^ 2 + 1 y_67_ ^ 2 - 2 y_89_ * y_67_ + 1 y_89_ ^ 2 ] <= 1050.4
quadratic_ranged_466_ub: [ 1 x_68_ ^ 2 - 2 x_89_ * x_68_ + 1 x_89_ ^ 2 + 1 y_68_ ^ 2 - 2 y_89_ * y_68_ + 1 y_89_ ^ 2 ] <= 15425.73
quadratic_ranged_467_ub: [ 1 x_69_ ^ 2 - 2 x_89_ * x_69_ + 1 x_89_ ^ 2 + 1 y_69_ ^ 2 - 2 y_89_ * y_69_ + 1 y_89_ ^ 2 ] <= 3395.62
quadratic_ranged_468_ub: [ 1 x_88_ ^ 2 - 2 x_89_ * x_88_ + 1 x_89_ ^ 2 + 1 y_88_ ^ 2 - 2 y_89_ * y_88_ + 1 y_89_ ^ 2 ] <= 14508.65
quadratic_ranged_469_ub: [ 1 x_3_ ^ 2 - 2 x_90_ * x_3_ + 1 x_90_ ^ 2 + 1 y_3_ ^ 2 - 2 y_90_ * y_3_ + 1 y_90_ ^ 2 ] <= 7274.02
quadratic_ranged_470_ub: [ 1 x_18_ ^ 2 - 2 x_90_ * x_18_ + 1 x_90_ ^ 2 + 1 y_18_ ^ 2 - 2 y_90_ * y_18_ + 1 y_90_ ^ 2 ] <= 27811.36
quadratic_ranged_471_ub: [ 1 x_32_ ^ 2 - 2 x_90_ * x_32_ + 1 x_90_ ^ 2 + 1 y_32_ ^ 2 - 2 y_90_ * y_32_ + 1 y_90_ ^ 2 ] <= 1050.4
quadratic_ranged_472_ub: [ 1 x_35_ ^ 2 - 2 x_90_ * x_35_ + 1 x_90_ ^ 2 + 1 y_35_ ^ 2 - 2 y_90_ * y_35_ + 1 y_90_ ^ 2 ] <= 4373.3
quadratic_ranged_473_ub: [ 1 x_49_ ^ 2 - 2 x_90_ * x_49_ + 1 x_90_ ^ 2 + 1 y_49_ ^ 2 - 2 y_90_ * y_49_ + 1 y_90_ ^ 2 ] <= 1071.61
quadratic_ranged_474_ub: [ 1 x_56_ ^ 2 - 2 x_90_ * x_56_ + 1 x_90_ ^ 2 + 1 y_56_ ^ 2 - 2 y_90_ * y_56_ + 1 y_90_ ^ 2 ] <= 3274.42
quadratic_ranged_475_ub: [ 1 x_64_ ^ 2 - 2 x_90_ * x_64_ + 1 x_90_ ^ 2 + 1 y_64_ ^ 2 - 2 y_90_ * y_64_ + 1 y_90_ ^ 2 ] <= 10609.04
quadratic_ranged_476_ub: [ 1 x_80_ ^ 2 - 2 x_90_ * x_80_ + 1 x_90_ ^ 2 + 1 y_80_ ^ 2 - 2 y_90_ * y_80_ + 1 y_90_ ^ 2 ] <= 19644.5
quadratic_ranged_477_ub: [ 1 x_89_ ^ 2 - 2 x_90_ * x_89_ + 1 x_90_ ^ 2 + 1 y_89_ ^ 2 - 2 y_90_ * y_89_ + 1 y_90_ ^ 2 ] <= 18447.65
quadratic_ranged_478_ub: [ 1 x_9_ ^ 2 - 2 x_91_ * x_9_ + 1 x_91_ ^ 2 + 1 y_9_ ^ 2 - 2 y_91_ * y_9_ + 1 y_91_ ^ 2 ] <= 35295.46
quadratic_ranged_479_ub: [ 1 x_12_ ^ 2 - 2 x_91_ * x_12_ + 1 x_91_ ^ 2 + 1 y_12_ ^ 2 - 2 y_91_ * y_12_ + 1 y_91_ ^ 2 ] <= 7645.7
quadratic_ranged_480_ub: [ 1 x_13_ ^ 2 - 2 x_91_ * x_13_ + 1 x_91_ ^ 2 + 1 y_13_ ^ 2 - 2 y_91_ * y_13_ + 1 y_91_ ^ 2 ] <= 13894.57
quadratic_ranged_481_ub: [ 1 x_30_ ^ 2 - 2 x_91_ * x_30_ + 1 x_91_ ^ 2 + 1 y_30_ ^ 2 - 2 y_91_ * y_30_ + 1 y_91_ ^ 2 ] <= 28264.85
quadratic_ranged_482_ub: [ 1 x_36_ ^ 2 - 2 x_91_ * x_36_ + 1 x_91_ ^ 2 + 1 y_36_ ^ 2 - 2 y_91_ * y_36_ + 1 y_91_ ^ 2 ] <= 6791.24
quadratic_ranged_483_ub: [ 1 x_47_ ^ 2 - 2 x_91_ * x_47_ + 1 x_91_ ^ 2 + 1 y_47_ ^ 2 - 2 y_91_ * y_47_ + 1 y_91_ ^ 2 ] <= 19335.44
quadratic_ranged_484_ub: [ 1 x_58_ ^ 2 - 2 x_91_ * x_58_ + 1 x_91_ ^ 2 + 1 y_58_ ^ 2 - 2 y_91_ * y_58_ + 1 y_91_ ^ 2 ] <= 34571.29
quadratic_ranged_485_ub: [ 1 x_69_ ^ 2 - 2 x_91_ * x_69_ + 1 x_91_ ^ 2 + 1 y_69_ ^ 2 - 2 y_91_ * y_69_ + 1 y_91_ ^ 2 ] <= 24560.170000000002
quadratic_ranged_486_ub: [ 1 x_73_ ^ 2 - 2 x_91_ * x_73_ + 1 x_91_ ^ 2 + 1 y_73_ ^ 2 - 2 y_91_ * y_73_ + 1 y_91_ ^ 2 ] <= 14972.24
quadratic_ranged_487_ub: [ 1 x_90_ ^ 2 - 2 x_91_ * x_90_ + 1 x_91_ ^ 2 + 1 y_90_ ^ 2 - 2 y_91_ * y_90_ + 1 y_91_ ^ 2 ] <= 36832.68
quadratic_ranged_488_ub: [ 1 x_13_ ^ 2 - 2 x_92_ * x_13_ + 1 x_92_ ^ 2 + 1 y_13_ ^ 2 - 2 y_92_ * y_13_ + 1 y_92_ ^ 2 ] <= 6958.9
quadratic_ranged_489_ub: [ 1 x_29_ ^ 2 - 2 x_92_ * x_29_ + 1 x_92_ ^ 2 + 1 y_29_ ^ 2 - 2 y_92_ * y_29_ + 1 y_92_ ^ 2 ] <= 234.32
quadratic_ranged_490_ub: [ 1 x_36_ ^ 2 - 2 x_92_ * x_36_ + 1 x_92_ ^ 2 + 1 y_36_ ^ 2 - 2 y_92_ * y_36_ + 1 y_92_ ^ 2 ] <= 1176.65
quadratic_ranged_491_ub: [ 1 x_48_ ^ 2 - 2 x_92_ * x_48_ + 1 x_92_ ^ 2 + 1 y_48_ ^ 2 - 2 y_92_ * y_48_ + 1 y_92_ ^ 2 ] <= 5333.81
quadratic_ranged_492_ub: [ 1 x_68_ ^ 2 - 2 x_92_ * x_68_ + 1 x_92_ ^ 2 + 1 y_68_ ^ 2 - 2 y_92_ * y_68_ + 1 y_92_ ^ 2 ] <= 20289.89
quadratic_ranged_493_ub: [ 1 x_70_ ^ 2 - 2 x_92_ * x_70_ + 1 x_92_ ^ 2 + 1 y_70_ ^ 2 - 2 y_92_ * y_70_ + 1 y_92_ ^ 2 ] <= 35952.97
quadratic_ranged_494_ub: [ 1 x_79_ ^ 2 - 2 x_92_ * x_79_ + 1 x_92_ ^ 2 + 1 y_79_ ^ 2 - 2 y_92_ * y_79_ + 1 y_92_ ^ 2 ] <= 2153.32
quadratic_ranged_495_ub: [ 1 x_80_ ^ 2 - 2 x_92_ * x_80_ + 1 x_92_ ^ 2 + 1 y_80_ ^ 2 - 2 y_92_ * y_80_ + 1 y_92_ ^ 2 ] <= 413.09000000000003
quadratic_ranged_496_ub: [ 1 x_84_ ^ 2 - 2 x_92_ * x_84_ + 1 x_92_ ^ 2 + 1 y_84_ ^ 2 - 2 y_92_ * y_84_ + 1 y_92_ ^ 2 ] <= 6933.65
quadratic_ranged_497_ub: [ 1 x_89_ ^ 2 - 2 x_92_ * x_89_ + 1 x_92_ ^ 2 + 1 y_89_ ^ 2 - 2 y_92_ * y_89_ + 1 y_92_ ^ 2 ] <= 13002.74
quadratic_ranged_498_ub: [ 1 x_91_ ^ 2 - 2 x_92_ * x_91_ + 1 x_92_ ^ 2 + 1 y_91_ ^ 2 - 2 y_92_ * y_91_ + 1 y_92_ ^ 2 ] <= 2336.13
quadratic_ranged_499_ub: [ 1 x_2_ ^ 2 - 2 x_93_ * x_2_ + 1 x_93_ ^ 2 + 1 y_2_ ^ 2 - 2 y_93_ * y_2_ + 1 y_93_ ^ 2 ] <= 10988.8
quadratic_ranged_500_ub: [ 1 x_3_ ^ 2 - 2 x_93_ * x_3_ + 1 x_93_ ^ 2 + 1 y_3_ ^ 2 - 2 y_93_ * y_3_ + 1 y_93_ ^ 2 ] <= 2797.7
quadratic_ranged_501_ub: [ 1 x_9_ ^ 2 - 2 x_93_ * x_9_ + 1 x_93_ ^ 2 + 1 y_9_ ^ 2 - 2 y_93_ * y_9_ + 1 y_93_ ^ 2 ] <= 5722.66
quadratic_ranged_502_ub: [ 1 x_27_ ^ 2 - 2 x_93_ * x_27_ + 1 x_93_ ^ 2 + 1 y_27_ ^ 2 - 2 y_93_ * y_27_ + 1 y_93_ ^ 2 ] <= 4792.45
quadratic_ranged_503_ub: [ 1 x_29_ ^ 2 - 2 x_93_ * x_29_ + 1 x_93_ ^ 2 + 1 y_29_ ^ 2 - 2 y_93_ * y_29_ + 1 y_93_ ^ 2 ] <= 6024.65
quadratic_ranged_504_ub: [ 1 x_40_ ^ 2 - 2 x_93_ * x_40_ + 1 x_93_ ^ 2 + 1 y_40_ ^ 2 - 2 y_93_ * y_40_ + 1 y_93_ ^ 2 ] <= 4137.97
quadratic_ranged_505_ub: [ 1 x_56_ ^ 2 - 2 x_93_ * x_56_ + 1 x_93_ ^ 2 + 1 y_56_ ^ 2 - 2 y_93_ * y_56_ + 1 y_93_ ^ 2 ] <= 4761.14
quadratic_ranged_506_ub: [ 1 x_58_ ^ 2 - 2 x_93_ * x_58_ + 1 x_93_ ^ 2 + 1 y_58_ ^ 2 - 2 y_93_ * y_58_ + 1 y_93_ ^ 2 ] <= 11244.33
quadratic_ranged_507_ub: [ 1 x_59_ ^ 2 - 2 x_93_ * x_59_ + 1 x_93_ ^ 2 + 1 y_59_ ^ 2 - 2 y_93_ * y_59_ + 1 y_93_ ^ 2 ] <= 2359.36
quadratic_ranged_508_ub: [ 1 x_71_ ^ 2 - 2 x_93_ * x_71_ + 1 x_93_ ^ 2 + 1 y_71_ ^ 2 - 2 y_93_ * y_71_ + 1 y_93_ ^ 2 ] <= 9722.26
quadratic_ranged_509_ub: [ 1 x_73_ ^ 2 - 2 x_93_ * x_73_ + 1 x_93_ ^ 2 + 1 y_73_ ^ 2 - 2 y_93_ * y_73_ + 1 y_93_ ^ 2 ] <= 816.08
quadratic_ranged_510_ub: [ 1 x_78_ ^ 2 - 2 x_93_ * x_78_ + 1 x_93_ ^ 2 + 1 y_78_ ^ 2 - 2 y_93_ * y_78_ + 1 y_93_ ^ 2 ] <= 5794.37
quadratic_ranged_511_ub: [ 1 x_88_ ^ 2 - 2 x_93_ * x_88_ + 1 x_93_ ^ 2 + 1 y_88_ ^ 2 - 2 y_93_ * y_88_ + 1 y_93_ ^ 2 ] <= 10796.9
quadratic_ranged_512_ub: [ 1 x_92_ ^ 2 - 2 x_93_ * x_92_ + 1 x_93_ ^ 2 + 1 y_92_ ^ 2 - 2 y_93_ * y_92_ + 1 y_93_ ^ 2 ] <= 6998.29
quadratic_ranged_513_ub: [ 1 x_6_ ^ 2 - 2 x_94_ * x_6_ + 1 x_94_ ^ 2 + 1 y_6_ ^ 2 - 2 y_94_ * y_6_ + 1 y_94_ ^ 2 ] <= 9224.33
quadratic_ranged_514_ub: [ 1 x_8_ ^ 2 - 2 x_94_ * x_8_ + 1 x_94_ ^ 2 + 1 y_8_ ^ 2 - 2 y_94_ * y_8_ + 1 y_94_ ^ 2 ] <= 945.36
quadratic_ranged_515_ub: [ 1 x_13_ ^ 2 - 2 x_94_ * x_13_ + 1 x_94_ ^ 2 + 1 y_13_ ^ 2 - 2 y_94_ * y_13_ + 1 y_94_ ^ 2 ] <= 7761.85
quadratic_ranged_516_ub: [ 1 x_21_ ^ 2 - 2 x_94_ * x_21_ + 1 x_94_ ^ 2 + 1 y_21_ ^ 2 - 2 y_94_ * y_21_ + 1 y_94_ ^ 2 ] <= 25365.14
quadratic_ranged_517_ub: [ 1 x_25_ ^ 2 - 2 x_94_ * x_25_ + 1 x_94_ ^ 2 + 1 y_25_ ^ 2 - 2 y_94_ * y_25_ + 1 y_94_ ^ 2 ] <= 11135.25
quadratic_ranged_518_ub: [ 1 x_41_ ^ 2 - 2 x_94_ * x_41_ + 1 x_94_ ^ 2 + 1 y_41_ ^ 2 - 2 y_94_ * y_41_ + 1 y_94_ ^ 2 ] <= 5858
quadratic_ranged_519_ub: [ 1 x_54_ ^ 2 - 2 x_94_ * x_54_ + 1 x_94_ ^ 2 + 1 y_54_ ^ 2 - 2 y_94_ * y_54_ + 1 y_94_ ^ 2 ] <= 32726.02
quadratic_ranged_520_ub: [ 1 x_56_ ^ 2 - 2 x_94_ * x_56_ + 1 x_94_ ^ 2 + 1 y_56_ ^ 2 - 2 y_94_ * y_56_ + 1 y_94_ ^ 2 ] <= 22238.18
quadratic_ranged_521_ub: [ 1 x_76_ ^ 2 - 2 x_94_ * x_76_ + 1 x_94_ ^ 2 + 1 y_76_ ^ 2 - 2 y_94_ * y_76_ + 1 y_94_ ^ 2 ] <= 30237.38
quadratic_ranged_522_ub: [ 1 x_77_ ^ 2 - 2 x_94_ * x_77_ + 1 x_94_ ^ 2 + 1 y_77_ ^ 2 - 2 y_94_ * y_77_ + 1 y_94_ ^ 2 ] <= 12145.25
quadratic_ranged_523_ub: [ 1 x_86_ ^ 2 - 2 x_94_ * x_86_ + 1 x_94_ ^ 2 + 1 y_86_ ^ 2 - 2 y_94_ * y_86_ + 1 y_94_ ^ 2 ] <= 29480.89
quadratic_ranged_524_ub: [ 1 x_88_ ^ 2 - 2 x_94_ * x_88_ + 1 x_94_ ^ 2 + 1 y_88_ ^ 2 - 2 y_94_ * y_88_ + 1 y_94_ ^ 2 ] <= 252.5
quadratic_ranged_525_ub: [ 1 x_93_ ^ 2 - 2 x_94_ * x_93_ + 1 x_94_ ^ 2 + 1 y_93_ ^ 2 - 2 y_94_ * y_93_ + 1 y_94_ ^ 2 ] <= 7837.6
quadratic_ranged_526_ub: [ 1 x_2_ ^ 2 - 2 x_95_ * x_2_ + 1 x_95_ ^ 2 + 1 y_2_ ^ 2 - 2 y_95_ * y_2_ + 1 y_95_ ^ 2 ] <= 21034.26
quadratic_ranged_527_ub: [ 1 x_17_ ^ 2 - 2 x_95_ * x_17_ + 1 x_95_ ^ 2 + 1 y_17_ ^ 2 - 2 y_95_ * y_17_ + 1 y_95_ ^ 2 ] <= 2780.53
quadratic_ranged_528_ub: [ 1 x_19_ ^ 2 - 2 x_95_ * x_19_ + 1 x_95_ ^ 2 + 1 y_19_ ^ 2 - 2 y_95_ * y_19_ + 1 y_95_ ^ 2 ] <= 10609.04
quadratic_ranged_529_ub: [ 1 x_29_ ^ 2 - 2 x_95_ * x_29_ + 1 x_95_ ^ 2 + 1 y_29_ ^ 2 - 2 y_95_ * y_29_ + 1 y_95_ ^ 2 ] <= 14605.61
quadratic_ranged_530_ub: [ 1 x_50_ ^ 2 - 2 x_95_ * x_50_ + 1 x_95_ ^ 2 + 1 y_50_ ^ 2 - 2 y_95_ * y_50_ + 1 y_95_ ^ 2 ] <= 40.4
quadratic_ranged_531_ub: [ 1 x_70_ ^ 2 - 2 x_95_ * x_70_ + 1 x_95_ ^ 2 + 1 y_70_ ^ 2 - 2 y_95_ * y_70_ + 1 y_95_ ^ 2 ] <= 3753.16
quadratic_ranged_532_ub: [ 1 x_74_ ^ 2 - 2 x_95_ * x_74_ + 1 x_95_ ^ 2 + 1 y_74_ ^ 2 - 2 y_95_ * y_74_ + 1 y_95_ ^ 2 ] <= 8670.85
quadratic_ranged_533_ub: [ 1 x_85_ ^ 2 - 2 x_95_ * x_85_ + 1 x_95_ ^ 2 + 1 y_85_ ^ 2 - 2 y_95_ * y_85_ + 1 y_95_ ^ 2 ] <= 21360.49
quadratic_ranged_534_ub: [ 1 x_86_ ^ 2 - 2 x_95_ * x_86_ + 1 x_95_ ^ 2 + 1 y_86_ ^ 2 - 2 y_95_ * y_86_ + 1 y_95_ ^ 2 ] <= 11696.81
quadratic_ranged_535_ub: [ 1 x_94_ ^ 2 - 2 x_95_ * x_94_ + 1 x_95_ ^ 2 + 1 y_94_ ^ 2 - 2 y_95_ * y_94_ + 1 y_95_ ^ 2 ] <= 17826.5
quadratic_ranged_536_ub: [ 1 x_15_ ^ 2 - 2 x_96_ * x_15_ + 1 x_96_ ^ 2 + 1 y_15_ ^ 2 - 2 y_96_ * y_15_ + 1 y_96_ ^ 2 ] <= 4925.77
quadratic_ranged_537_ub: [ 1 x_20_ ^ 2 - 2 x_96_ * x_20_ + 1 x_96_ ^ 2 + 1 y_20_ ^ 2 - 2 y_96_ * y_20_ + 1 y_96_ ^ 2 ] <= 14536.93
quadratic_ranged_538_ub: [ 1 x_23_ ^ 2 - 2 x_96_ * x_23_ + 1 x_96_ ^ 2 + 1 y_23_ ^ 2 - 2 y_96_ * y_23_ + 1 y_96_ ^ 2 ] <= 1564.49
quadratic_ranged_539_ub: [ 1 x_24_ ^ 2 - 2 x_96_ * x_24_ + 1 x_96_ ^ 2 + 1 y_24_ ^ 2 - 2 y_96_ * y_24_ + 1 y_96_ ^ 2 ] <= 7660.85
quadratic_ranged_540_ub: [ 1 x_29_ ^ 2 - 2 x_96_ * x_29_ + 1 x_96_ ^ 2 + 1 y_29_ ^ 2 - 2 y_96_ * y_29_ + 1 y_96_ ^ 2 ] <= 16657.93
quadratic_ranged_541_ub: [ 1 x_30_ ^ 2 - 2 x_96_ * x_30_ + 1 x_96_ ^ 2 + 1 y_30_ ^ 2 - 2 y_96_ * y_30_ + 1 y_96_ ^ 2 ] <= 2691.65
quadratic_ranged_542_ub: [ 1 x_45_ ^ 2 - 2 x_96_ * x_45_ + 1 x_96_ ^ 2 + 1 y_45_ ^ 2 - 2 y_96_ * y_45_ + 1 y_96_ ^ 2 ] <= 3265.33
quadratic_ranged_543_ub: [ 1 x_52_ ^ 2 - 2 x_96_ * x_52_ + 1 x_96_ ^ 2 + 1 y_52_ ^ 2 - 2 y_96_ * y_52_ + 1 y_96_ ^ 2 ] <= 35948.93
quadratic_ranged_544_ub: [ 1 x_53_ ^ 2 - 2 x_96_ * x_53_ + 1 x_96_ ^ 2 + 1 y_53_ ^ 2 - 2 y_96_ * y_53_ + 1 y_96_ ^ 2 ] <= 2247.25
quadratic_ranged_545_ub: [ 1 x_74_ ^ 2 - 2 x_96_ * x_74_ + 1 x_96_ ^ 2 + 1 y_74_ ^ 2 - 2 y_96_ * y_74_ + 1 y_96_ ^ 2 ] <= 13789.53
quadratic_ranged_546_ub: [ 1 x_91_ ^ 2 - 2 x_96_ * x_91_ + 1 x_96_ ^ 2 + 1 y_91_ ^ 2 - 2 y_96_ * y_91_ + 1 y_96_ ^ 2 ] <= 29896
quadratic_ranged_547_ub: [ 1 x_95_ ^ 2 - 2 x_96_ * x_95_ + 1 x_96_ ^ 2 + 1 y_95_ ^ 2 - 2 y_96_ * y_95_ + 1 y_96_ ^ 2 ] <= 656.5
quadratic_ranged_548_ub: [ 1 x_13_ ^ 2 - 2 x_97_ * x_13_ + 1 x_97_ ^ 2 + 1 y_13_ ^ 2 - 2 y_97_ * y_13_ + 1 y_97_ ^ 2 ] <= 2570.45
quadratic_ranged_549_ub: [ 1 x_14_ ^ 2 - 2 x_97_ * x_14_ + 1 x_97_ ^ 2 + 1 y_14_ ^ 2 - 2 y_97_ * y_14_ + 1 y_97_ ^ 2 ] <= 10222.210000000001
quadratic_ranged_550_ub: [ 1 x_17_ ^ 2 - 2 x_97_ * x_17_ + 1 x_97_ ^ 2 + 1 y_17_ ^ 2 - 2 y_97_ * y_17_ + 1 y_97_ ^ 2 ] <= 3208.77
quadratic_ranged_551_ub: [ 1 x_20_ ^ 2 - 2 x_97_ * x_20_ + 1 x_97_ ^ 2 + 1 y_20_ ^ 2 - 2 y_97_ * y_20_ + 1 y_97_ ^ 2 ] <= 752.45
quadratic_ranged_552_ub: [ 1 x_46_ ^ 2 - 2 x_97_ * x_46_ + 1 x_97_ ^ 2 + 1 y_46_ ^ 2 - 2 y_97_ * y_46_ + 1 y_97_ ^ 2 ] <= 25751.97
quadratic_ranged_553_ub: [ 1 x_58_ ^ 2 - 2 x_97_ * x_58_ + 1 x_97_ ^ 2 + 1 y_58_ ^ 2 - 2 y_97_ * y_58_ + 1 y_97_ ^ 2 ] <= 18605.21
quadratic_ranged_554_ub: [ 1 x_71_ ^ 2 - 2 x_97_ * x_71_ + 1 x_97_ ^ 2 + 1 y_71_ ^ 2 - 2 y_97_ * y_71_ + 1 y_97_ ^ 2 ] <= 8746.6
quadratic_ranged_555_ub: [ 1 x_82_ ^ 2 - 2 x_97_ * x_82_ + 1 x_97_ ^ 2 + 1 y_82_ ^ 2 - 2 y_97_ * y_82_ + 1 y_97_ ^ 2 ] <= 1238.26
quadratic_ranged_556_ub: [ 1 x_96_ ^ 2 - 2 x_97_ * x_96_ + 1 x_97_ ^ 2 + 1 y_96_ ^ 2 - 2 y_97_ * y_96_ + 1 y_97_ ^ 2 ] <= 10893.86
quadratic_ranged_557_ub: [ 1 x_5_ ^ 2 - 2 x_98_ * x_5_ + 1 x_98_ ^ 2 + 1 y_5_ ^ 2 - 2 y_98_ * y_5_ + 1 y_98_ ^ 2 ] <= 4671.25
quadratic_ranged_558_ub: [ 1 x_19_ ^ 2 - 2 x_98_ * x_19_ + 1 x_98_ ^ 2 + 1 y_19_ ^ 2 - 2 y_98_ * y_19_ + 1 y_98_ ^ 2 ] <= 4267.25
quadratic_ranged_559_ub: [ 1 x_21_ ^ 2 - 2 x_98_ * x_21_ + 1 x_98_ ^ 2 + 1 y_21_ ^ 2 - 2 y_98_ * y_21_ + 1 y_98_ ^ 2 ] <= 885.77
quadratic_ranged_560_ub: [ 1 x_55_ ^ 2 - 2 x_98_ * x_55_ + 1 x_98_ ^ 2 + 1 y_55_ ^ 2 - 2 y_98_ * y_55_ + 1 y_98_ ^ 2 ] <= 3459.25
quadratic_ranged_561_ub: [ 1 x_57_ ^ 2 - 2 x_98_ * x_57_ + 1 x_98_ ^ 2 + 1 y_57_ ^ 2 - 2 y_98_ * y_57_ + 1 y_98_ ^ 2 ] <= 12639.14
quadratic_ranged_562_ub: [ 1 x_63_ ^ 2 - 2 x_98_ * x_63_ + 1 x_98_ ^ 2 + 1 y_63_ ^ 2 - 2 y_98_ * y_63_ + 1 y_98_ ^ 2 ] <= 291.89
quadratic_ranged_563_ub: [ 1 x_97_ ^ 2 - 2 x_98_ * x_97_ + 1 x_98_ ^ 2 + 1 y_97_ ^ 2 - 2 y_98_ * y_97_ + 1 y_98_ ^ 2 ] <= 16399.37
quadratic_ranged_564_ub: [ 1 x_13_ ^ 2 - 2 x_99_ * x_13_ + 1 x_99_ ^ 2 + 1 y_13_ ^ 2 - 2 y_99_ * y_13_ + 1 y_99_ ^ 2 ] <= 14014.76
quadratic_ranged_565_ub: [ 1 x_26_ ^ 2 - 2 x_99_ * x_26_ + 1 x_99_ ^ 2 + 1 y_26_ ^ 2 - 2 y_99_ * y_26_ + 1 y_99_ ^ 2 ] <= 29480.89
quadratic_ranged_566_ub: [ 1 x_46_ ^ 2 - 2 x_99_ * x_46_ + 1 x_99_ ^ 2 + 1 y_46_ ^ 2 - 2 y_99_ * y_46_ + 1 y_99_ ^ 2 ] <= 39036.5
quadratic_ranged_567_ub: [ 1 x_54_ ^ 2 - 2 x_99_ * x_54_ + 1 x_99_ ^ 2 + 1 y_54_ ^ 2 - 2 y_99_ * y_54_ + 1 y_99_ ^ 2 ] <= 38506.25
quadratic_ranged_568_ub: [ 1 x_62_ ^ 2 - 2 x_99_ * x_62_ + 1 x_99_ ^ 2 + 1 y_62_ ^ 2 - 2 y_99_ * y_62_ + 1 y_99_ ^ 2 ] <= 10293.92
quadratic_ranged_569_ub: [ 1 x_67_ ^ 2 - 2 x_99_ * x_67_ + 1 x_99_ ^ 2 + 1 y_67_ ^ 2 - 2 y_99_ * y_67_ + 1 y_99_ ^ 2 ] <= 17036.68
quadratic_ranged_570_ub: [ 1 x_69_ ^ 2 - 2 x_99_ * x_69_ + 1 x_99_ ^ 2 + 1 y_69_ ^ 2 - 2 y_99_ * y_69_ + 1 y_99_ ^ 2 ] <= 28467.86
quadratic_ranged_571_ub: [ 1 x_72_ ^ 2 - 2 x_99_ * x_72_ + 1 x_99_ ^ 2 + 1 y_72_ ^ 2 - 2 y_99_ * y_72_ + 1 y_99_ ^ 2 ] <= 9994.960000000001
quadratic_ranged_572_ub: [ 1 x_74_ ^ 2 - 2 x_99_ * x_74_ + 1 x_99_ ^ 2 + 1 y_74_ ^ 2 - 2 y_99_ * y_74_ + 1 y_99_ ^ 2 ] <= 39470.8
quadratic_ranged_573_ub: [ 1 x_96_ ^ 2 - 2 x_99_ * x_96_ + 1 x_99_ ^ 2 + 1 y_96_ ^ 2 - 2 y_99_ * y_96_ + 1 y_99_ ^ 2 ] <= 29371.81
quadratic_ranged_574_ub: [ 1 x_98_ ^ 2 - 2 x_99_ * x_98_ + 1 x_99_ ^ 2 + 1 y_98_ ^ 2 - 2 y_99_ * y_98_ + 1 y_99_ ^ 2 ] <= 32273.54
quadratic_ranged_575_ub: [ 1 x_1_ ^ 2 - 2 x_100_ * x_1_ + 1 x_100_ ^ 2 + 1 y_1_ ^ 2 - 2 y_100_ * y_1_ + 1 y_100_ ^ 2 ] <= 3172.41
quadratic_ranged_576_ub: [ 1 x_8_ ^ 2 - 2 x_100_ * x_8_ + 1 x_100_ ^ 2 + 1 y_8_ ^ 2 - 2 y_100_ * y_8_ + 1 y_100_ ^ 2 ] <= 16729.64
quadratic_ranged_577_ub: [ 1 x_18_ ^ 2 - 2 x_100_ * x_18_ + 1 x_100_ ^ 2 + 1 y_18_ ^ 2 - 2 y_100_ * y_18_ + 1 y_100_ ^ 2 ] <= 21525.12
quadratic_ranged_578_ub: [ 1 x_34_ ^ 2 - 2 x_100_ * x_34_ + 1 x_100_ ^ 2 + 1 y_34_ ^ 2 - 2 y_100_ * y_34_ + 1 y_100_ ^ 2 ] <= 372.69
quadratic_ranged_579_ub: [ 1 x_57_ ^ 2 - 2 x_100_ * x_57_ + 1 x_100_ ^ 2 + 1 y_57_ ^ 2 - 2 y_100_ * y_57_ + 1 y_100_ ^ 2 ] <= 247.45
quadratic_ranged_580_ub: [ 1 x_62_ ^ 2 - 2 x_100_ * x_62_ + 1 x_100_ ^ 2 + 1 y_62_ ^ 2 - 2 y_100_ * y_62_ + 1 y_100_ ^ 2 ] <= 1116.05
quadratic_ranged_581_ub: [ 1 x_67_ ^ 2 - 2 x_100_ * x_67_ + 1 x_100_ ^ 2 + 1 y_67_ ^ 2 - 2 y_100_ * y_67_ + 1 y_100_ ^ 2 ] <= 9624.29
quadratic_ranged_582_ub: [ 1 x_76_ ^ 2 - 2 x_100_ * x_76_ + 1 x_100_ ^ 2 + 1 y_76_ ^ 2 - 2 y_100_ * y_76_ + 1 y_100_ ^ 2 ] <= 18626.420000000002
quadratic_ranged_583_ub: [ 1 x_82_ ^ 2 - 2 x_100_ * x_82_ + 1 x_100_ ^ 2 + 1 y_82_ ^ 2 - 2 y_100_ * y_82_ + 1 y_100_ ^ 2 ] <= 4173.32
quadratic_ranged_584_ub: [ 1 x_87_ ^ 2 - 2 x_100_ * x_87_ + 1 x_100_ ^ 2 + 1 y_87_ ^ 2 - 2 y_100_ * y_87_ + 1 y_100_ ^ 2 ] <= 14185.45
quadratic_ranged_585_ub: [ 1 x_99_ ^ 2 - 2 x_100_ * x_99_ + 1 x_100_ ^ 2 + 1 y_99_ ^ 2 - 2 y_100_ * y_99_ + 1 y_100_ ^ 2 ] <= 18027.49
quadratic_ranged_1_lb: [ 1 x_1_ ^ 2 - 2 x_2_ * x_1_ + 1 x_2_ ^ 2 + 1 y_1_ ^ 2 - 2 y_2_ * y_1_ + 1 y_2_ ^ 2 ] >= 7548.75
quadratic_ranged_2_lb: [ 1 x_2_ ^ 2 - 2 x_3_ * x_2_ + 1 x_3_ ^ 2 + 1 y_2_ ^ 2 - 2 y_3_ * y_2_ + 1 y_3_ ^ 2 ] >= 10028.7
quadratic_ranged_3_lb: [ 1 x_3_ ^ 2 - 2 x_4_ * x_3_ + 1 x_4_ ^ 2 + 1 y_3_ ^ 2 - 2 y_4_ * y_3_ + 1 y_4_ ^ 2 ] >= 7131.96
quadratic_ranged_4_lb: [ 1 x_1_ ^ 2 - 2 x_5_ * x_1_ + 1 x_5_ ^ 2 + 1 y_1_ ^ 2 - 2 y_5_ * y_1_ + 1 y_5_ ^ 2 ] >= 2895.75
quadratic_ranged_5_lb: [ 1 x_4_ ^ 2 - 2 x_5_ * x_4_ + 1 x_5_ ^ 2 + 1 y_4_ ^ 2 - 2 y_5_ * y_4_ + 1 y_5_ ^ 2 ] >= 5456.88
quadratic_ranged_6_lb: [ 1 x_5_ ^ 2 - 2 x_6_ * x_5_ + 1 x_6_ ^ 2 + 1 y_5_ ^ 2 - 2 y_6_ * y_5_ + 1 y_6_ ^ 2 ] >= 2392.83
quadratic_ranged_7_lb: [ 1 x_6_ ^ 2 - 2 x_7_ * x_6_ + 1 x_7_ ^ 2 + 1 y_6_ ^ 2 - 2 y_7_ * y_6_ + 1 y_7_ ^ 2 ] >= 7235.91
quadratic_ranged_8_lb: [ 1 x_7_ ^ 2 - 2 x_8_ * x_7_ + 1 x_8_ ^ 2 + 1 y_7_ ^ 2 - 2 y_8_ * y_7_ + 1 y_8_ ^ 2 ] >= 38509.02
quadratic_ranged_9_lb: [ 1 x_8_ ^ 2 - 2 x_9_ * x_8_ + 1 x_9_ ^ 2 + 1 y_8_ ^ 2 - 2 y_9_ * y_8_ + 1 y_9_ ^ 2 ] >= 33012.54
quadratic_ranged_10_lb: [ 1 x_7_ ^ 2 - 2 x_10_ * x_7_ + 1 x_10_ ^ 2 + 1 y_7_ ^ 2 - 2 y_10_ * y_7_ + 1 y_10_ ^ 2 ] >= 6142.95
quadratic_ranged_11_lb: [ 1 x_9_ ^ 2 - 2 x_10_ * x_9_ + 1 x_10_ ^ 2 + 1 y_9_ ^ 2 - 2 y_10_ * y_9_ + 1 y_10_ ^ 2 ] >= 8138.79
quadratic_ranged_12_lb: [ 1 x_10_ ^ 2 - 2 x_11_ * x_10_ + 1 x_11_ ^ 2 + 1 y_10_ ^ 2 - 2 y_11_ * y_10_ + 1 y_11_ ^ 2 ] >= 2734.38
quadratic_ranged_13_lb: [ 1 x_3_ ^ 2 - 2 x_12_ * x_3_ + 1 x_12_ ^ 2 + 1 y_3_ ^ 2 - 2 y_12_ * y_3_ + 1 y_12_ ^ 2 ] >= 2379.96
quadratic_ranged_14_lb: [ 1 x_11_ ^ 2 - 2 x_12_ * x_11_ + 1 x_12_ ^ 2 + 1 y_11_ ^ 2 - 2 y_12_ * y_11_ + 1 y_12_ ^ 2 ] >= 3450.15
quadratic_ranged_15_lb: [ 1 x_1_ ^ 2 - 2 x_13_ * x_1_ + 1 x_13_ ^ 2 + 1 y_1_ ^ 2 - 2 y_13_ * y_1_ + 1 y_13_ ^ 2 ] >= 548.46
quadratic_ranged_16_lb: [ 1 x_12_ ^ 2 - 2 x_13_ * x_12_ + 1 x_13_ ^ 2 + 1 y_12_ ^ 2 - 2 y_13_ * y_12_ + 1 y_13_ ^ 2 ] >= 915.75
quadratic_ranged_17_lb: [ 1 x_1_ ^ 2 - 2 x_14_ * x_1_ + 1 x_14_ ^ 2 + 1 y_1_ ^ 2 - 2 y_14_ * y_1_ + 1 y_14_ ^ 2 ] >= 11192.94
quadratic_ranged_18_lb: [ 1 x_2_ ^ 2 - 2 x_14_ * x_2_ + 1 x_14_ ^ 2 + 1 y_2_ ^ 2 - 2 y_14_ * y_2_ + 1 y_14_ ^ 2 ] >= 21535.47
quadratic_ranged_19_lb: [ 1 x_4_ ^ 2 - 2 x_14_ * x_4_ + 1 x_14_ ^ 2 + 1 y_4_ ^ 2 - 2 y_14_ * y_4_ + 1 y_14_ ^ 2 ] >= 43077.87
quadratic_ranged_20_lb: [ 1 x_13_ ^ 2 - 2 x_14_ * x_13_ + 1 x_14_ ^ 2 + 1 y_13_ ^ 2 - 2 y_14_ * y_13_ + 1 y_14_ ^ 2 ] >= 7052.76
quadratic_ranged_21_lb: [ 1 x_1_ ^ 2 - 2 x_15_ * x_1_ + 1 x_15_ ^ 2 + 1 y_1_ ^ 2 - 2 y_15_ * y_1_ + 1 y_15_ ^ 2 ] >= 17780.4
quadratic_ranged_22_lb: [ 1 x_3_ ^ 2 - 2 x_15_ * x_3_ + 1 x_15_ ^ 2 + 1 y_3_ ^ 2 - 2 y_15_ * y_3_ + 1 y_15_ ^ 2 ] >= 16656.75
quadratic_ranged_23_lb: [ 1 x_14_ ^ 2 - 2 x_15_ * x_14_ + 1 x_15_ ^ 2 + 1 y_14_ ^ 2 - 2 y_15_ * y_14_ + 1 y_15_ ^ 2 ] >= 18804.06
quadratic_ranged_24_lb: [ 1 x_15_ ^ 2 - 2 x_16_ * x_15_ + 1 x_16_ ^ 2 + 1 y_15_ ^ 2 - 2 y_16_ * y_15_ + 1 y_16_ ^ 2 ] >= 4935.15
quadratic_ranged_25_lb: [ 1 x_6_ ^ 2 - 2 x_17_ * x_6_ + 1 x_17_ ^ 2 + 1 y_6_ ^ 2 - 2 y_17_ * y_6_ + 1 y_17_ ^ 2 ] >= 3061.08
quadratic_ranged_26_lb: [ 1 x_10_ ^ 2 - 2 x_17_ * x_10_ + 1 x_17_ ^ 2 + 1 y_10_ ^ 2 - 2 y_17_ * y_10_ + 1 y_17_ ^ 2 ] >= 10282.14
quadratic_ranged_27_lb: [ 1 x_16_ ^ 2 - 2 x_17_ * x_16_ + 1 x_17_ ^ 2 + 1 y_16_ ^ 2 - 2 y_17_ * y_16_ + 1 y_17_ ^ 2 ] >= 3149.19
quadratic_ranged_28_lb: [ 1 x_6_ ^ 2 - 2 x_18_ * x_6_ + 1 x_18_ ^ 2 + 1 y_6_ ^ 2 - 2 y_18_ * y_6_ + 1 y_18_ ^ 2 ] >= 7691.3099999999995
quadratic_ranged_29_lb: [ 1 x_8_ ^ 2 - 2 x_18_ * x_8_ + 1 x_18_ ^ 2 + 1 y_8_ ^ 2 - 2 y_18_ * y_8_ + 1 y_18_ ^ 2 ] >= 10030.68
quadratic_ranged_30_lb: [ 1 x_11_ ^ 2 - 2 x_18_ * x_11_ + 1 x_18_ ^ 2 + 1 y_11_ ^ 2 - 2 y_18_ * y_11_ + 1 y_18_ ^ 2 ] >= 1509.75
quadratic_ranged_31_lb: [ 1 x_17_ ^ 2 - 2 x_18_ * x_17_ + 1 x_18_ ^ 2 + 1 y_17_ ^ 2 - 2 y_18_ * y_17_ + 1 y_18_ ^ 2 ] >= 18082.35
quadratic_ranged_32_lb: [ 1 x_16_ ^ 2 - 2 x_19_ * x_16_ + 1 x_19_ ^ 2 + 1 y_16_ ^ 2 - 2 y_19_ * y_16_ + 1 y_19_ ^ 2 ] >= 19467.36
quadratic_ranged_33_lb: [ 1 x_18_ ^ 2 - 2 x_19_ * x_18_ + 1 x_19_ ^ 2 + 1 y_18_ ^ 2 - 2 y_19_ * y_18_ + 1 y_19_ ^ 2 ] >= 1522.62
quadratic_ranged_34_lb: [ 1 x_19_ ^ 2 - 2 x_20_ * x_19_ + 1 x_20_ ^ 2 + 1 y_19_ ^ 2 - 2 y_20_ * y_19_ + 1 y_20_ ^ 2 ] >= 10843.47
quadratic_ranged_35_lb: [ 1 x_1_ ^ 2 - 2 x_21_ * x_1_ + 1 x_21_ ^ 2 + 1 y_1_ ^ 2 - 2 y_21_ * y_1_ + 1 y_21_ ^ 2 ] >= 8934.75
quadratic_ranged_36_lb: [ 1 x_5_ ^ 2 - 2 x_21_ * x_5_ + 1 x_21_ ^ 2 + 1 y_5_ ^ 2 - 2 y_21_ * y_5_ + 1 y_21_ ^ 2 ] >= 3366
quadratic_ranged_37_lb: [ 1 x_10_ ^ 2 - 2 x_21_ * x_10_ + 1 x_21_ ^ 2 + 1 y_10_ ^ 2 - 2 y_21_ * y_10_ + 1 y_21_ ^ 2 ] >= 1291.95
quadratic_ranged_38_lb: [ 1 x_14_ ^ 2 - 2 x_21_ * x_14_ + 1 x_21_ ^ 2 + 1 y_14_ ^ 2 - 2 y_21_ * y_14_ + 1 y_21_ ^ 2 ] >= 38674.35
quadratic_ranged_39_lb: [ 1 x_16_ ^ 2 - 2 x_21_ * x_16_ + 1 x_21_ ^ 2 + 1 y_16_ ^ 2 - 2 y_21_ * y_16_ + 1 y_21_ ^ 2 ] >= 24334.2
quadratic_ranged_40_lb: [ 1 x_20_ ^ 2 - 2 x_21_ * x_20_ + 1 x_21_ ^ 2 + 1 y_20_ ^ 2 - 2 y_21_ * y_20_ + 1 y_21_ ^ 2 ] >= 24069.87
quadratic_ranged_41_lb: [ 1 x_2_ ^ 2 - 2 x_22_ * x_2_ + 1 x_22_ ^ 2 + 1 y_2_ ^ 2 - 2 y_22_ * y_2_ + 1 y_22_ ^ 2 ] >= 19691.1
quadratic_ranged_42_lb: [ 1 x_18_ ^ 2 - 2 x_22_ * x_18_ + 1 x_22_ ^ 2 + 1 y_18_ ^ 2 - 2 y_22_ * y_18_ + 1 y_22_ ^ 2 ] >= 35594.46
quadratic_ranged_43_lb: [ 1 x_21_ ^ 2 - 2 x_22_ * x_21_ + 1 x_22_ ^ 2 + 1 y_21_ ^ 2 - 2 y_22_ * y_21_ + 1 y_22_ ^ 2 ] >= 39366.36
quadratic_ranged_44_lb: [ 1 x_14_ ^ 2 - 2 x_23_ * x_14_ + 1 x_23_ ^ 2 + 1 y_14_ ^ 2 - 2 y_23_ * y_14_ + 1 y_23_ ^ 2 ] >= 1665.18
quadratic_ranged_45_lb: [ 1 x_22_ ^ 2 - 2 x_23_ * x_22_ + 1 x_23_ ^ 2 + 1 y_22_ ^ 2 - 2 y_23_ * y_22_ + 1 y_23_ ^ 2 ] >= 2499.75
quadratic_ranged_46_lb: [ 1 x_3_ ^ 2 - 2 x_24_ * x_3_ + 1 x_24_ ^ 2 + 1 y_3_ ^ 2 - 2 y_24_ * y_3_ + 1 y_24_ ^ 2 ] >= 9033.75
quadratic_ranged_47_lb: [ 1 x_17_ ^ 2 - 2 x_24_ * x_17_ + 1 x_24_ ^ 2 + 1 y_17_ ^ 2 - 2 y_24_ * y_17_ + 1 y_24_ ^ 2 ] >= 1587.96
quadratic_ranged_48_lb: [ 1 x_23_ ^ 2 - 2 x_24_ * x_23_ + 1 x_24_ ^ 2 + 1 y_23_ ^ 2 - 2 y_24_ * y_23_ + 1 y_24_ ^ 2 ] >= 4569.84
quadratic_ranged_49_lb: [ 1 x_1_ ^ 2 - 2 x_25_ * x_1_ + 1 x_25_ ^ 2 + 1 y_1_ ^ 2 - 2 y_25_ * y_1_ + 1 y_25_ ^ 2 ] >= 1530.54
quadratic_ranged_50_lb: [ 1 x_18_ ^ 2 - 2 x_25_ * x_18_ + 1 x_25_ ^ 2 + 1 y_18_ ^ 2 - 2 y_25_ * y_18_ + 1 y_25_ ^ 2 ] >= 16490.43
quadratic_ranged_51_lb: [ 1 x_22_ ^ 2 - 2 x_25_ * x_22_ + 1 x_25_ ^ 2 + 1 y_22_ ^ 2 - 2 y_25_ * y_22_ + 1 y_25_ ^ 2 ] >= 6808.23
quadratic_ranged_52_lb: [ 1 x_24_ ^ 2 - 2 x_25_ * x_24_ + 1 x_25_ ^ 2 + 1 y_24_ ^ 2 - 2 y_25_ * y_24_ + 1 y_25_ ^ 2 ] >= 4183.74
quadratic_ranged_53_lb: [ 1 x_3_ ^ 2 - 2 x_26_ * x_3_ + 1 x_26_ ^ 2 + 1 y_3_ ^ 2 - 2 y_26_ * y_3_ + 1 y_26_ ^ 2 ] >= 6464.7
quadratic_ranged_54_lb: [ 1 x_9_ ^ 2 - 2 x_26_ * x_9_ + 1 x_26_ ^ 2 + 1 y_9_ ^ 2 - 2 y_26_ * y_9_ + 1 y_26_ ^ 2 ] >= 16190.46
quadratic_ranged_55_lb: [ 1 x_11_ ^ 2 - 2 x_26_ * x_11_ + 1 x_26_ ^ 2 + 1 y_11_ ^ 2 - 2 y_26_ * y_11_ + 1 y_26_ ^ 2 ] >= 5889.51
quadratic_ranged_56_lb: [ 1 x_16_ ^ 2 - 2 x_26_ * x_16_ + 1 x_26_ ^ 2 + 1 y_16_ ^ 2 - 2 y_26_ * y_16_ + 1 y_26_ ^ 2 ] >= 28086.3
quadratic_ranged_57_lb: [ 1 x_22_ ^ 2 - 2 x_26_ * x_22_ + 1 x_26_ ^ 2 + 1 y_22_ ^ 2 - 2 y_26_ * y_22_ + 1 y_26_ ^ 2 ] >= 42912.54
quadratic_ranged_58_lb: [ 1 x_25_ ^ 2 - 2 x_26_ * x_25_ + 1 x_26_ ^ 2 + 1 y_25_ ^ 2 - 2 y_26_ * y_25_ + 1 y_26_ ^ 2 ] >= 16613.19
quadratic_ranged_59_lb: [ 1 x_6_ ^ 2 - 2 x_27_ * x_6_ + 1 x_27_ ^ 2 + 1 y_6_ ^ 2 - 2 y_27_ * y_6_ + 1 y_27_ ^ 2 ] >= 11583
quadratic_ranged_60_lb: [ 1 x_16_ ^ 2 - 2 x_27_ * x_16_ + 1 x_27_ ^ 2 + 1 y_16_ ^ 2 - 2 y_27_ * y_16_ + 1 y_27_ ^ 2 ] >= 1450.35
quadratic_ranged_61_lb: [ 1 x_19_ ^ 2 - 2 x_27_ * x_19_ + 1 x_27_ ^ 2 + 1 y_19_ ^ 2 - 2 y_27_ * y_19_ + 1 y_27_ ^ 2 ] >= 25091.55
quadratic_ranged_62_lb: [ 1 x_21_ ^ 2 - 2 x_27_ * x_21_ + 1 x_27_ ^ 2 + 1 y_21_ ^ 2 - 2 y_27_ * y_21_ + 1 y_27_ ^ 2 ] >= 33910.47
quadratic_ranged_63_lb: [ 1 x_25_ ^ 2 - 2 x_27_ * x_25_ + 1 x_27_ ^ 2 + 1 y_25_ ^ 2 - 2 y_27_ * y_25_ + 1 y_27_ ^ 2 ] >= 4405.5
quadratic_ranged_64_lb: [ 1 x_26_ ^ 2 - 2 x_27_ * x_26_ + 1 x_27_ ^ 2 + 1 y_26_ ^ 2 - 2 y_27_ * y_26_ + 1 y_27_ ^ 2 ] >= 37925.909999999996
quadratic_ranged_65_lb: [ 1 x_22_ ^ 2 - 2 x_28_ * x_22_ + 1 x_28_ ^ 2 + 1 y_22_ ^ 2 - 2 y_28_ * y_22_ + 1 y_28_ ^ 2 ] >= 30643.47
quadratic_ranged_66_lb: [ 1 x_27_ ^ 2 - 2 x_28_ * x_27_ + 1 x_28_ ^ 2 + 1 y_27_ ^ 2 - 2 y_28_ * y_27_ + 1 y_28_ ^ 2 ] >= 35089.56
quadratic_ranged_67_lb: [ 1 x_6_ ^ 2 - 2 x_29_ * x_6_ + 1 x_29_ ^ 2 + 1 y_6_ ^ 2 - 2 y_29_ * y_6_ + 1 y_29_ ^ 2 ] >= 6288.48
quadratic_ranged_68_lb: [ 1 x_8_ ^ 2 - 2 x_29_ * x_8_ + 1 x_29_ ^ 2 + 1 y_8_ ^ 2 - 2 y_29_ * y_8_ + 1 y_29_ ^ 2 ] >= 1299.87
quadratic_ranged_69_lb: [ 1 x_18_ ^ 2 - 2 x_29_ * x_18_ + 1 x_29_ ^ 2 + 1 y_18_ ^ 2 - 2 y_29_ * y_18_ + 1 y_29_ ^ 2 ] >= 9045.63
quadratic_ranged_70_lb: [ 1 x_28_ ^ 2 - 2 x_29_ * x_28_ + 1 x_29_ ^ 2 + 1 y_28_ ^ 2 - 2 y_29_ * y_28_ + 1 y_29_ ^ 2 ] >= 4696.56
quadratic_ranged_71_lb: [ 1 x_8_ ^ 2 - 2 x_30_ * x_8_ + 1 x_30_ ^ 2 + 1 y_8_ ^ 2 - 2 y_30_ * y_8_ + 1 y_30_ ^ 2 ] >= 24145.11
quadratic_ranged_72_lb: [ 1 x_12_ ^ 2 - 2 x_30_ * x_12_ + 1 x_30_ ^ 2 + 1 y_12_ ^ 2 - 2 y_30_ * y_12_ + 1 y_30_ ^ 2 ] >= 8019.99
quadratic_ranged_73_lb: [ 1 x_17_ ^ 2 - 2 x_30_ * x_17_ + 1 x_30_ ^ 2 + 1 y_17_ ^ 2 - 2 y_30_ * y_17_ + 1 y_30_ ^ 2 ] >= 2425.5
quadratic_ranged_74_lb: [ 1 x_23_ ^ 2 - 2 x_30_ * x_23_ + 1 x_30_ ^ 2 + 1 y_23_ ^ 2 - 2 y_30_ * y_23_ + 1 y_30_ ^ 2 ] >= 168.3
quadratic_ranged_75_lb: [ 1 x_29_ ^ 2 - 2 x_30_ * x_29_ + 1 x_30_ ^ 2 + 1 y_29_ ^ 2 - 2 y_30_ * y_29_ + 1 y_30_ ^ 2 ] >= 14764.86
quadratic_ranged_76_lb: [ 1 x_1_ ^ 2 - 2 x_31_ * x_1_ + 1 x_31_ ^ 2 + 1 y_1_ ^ 2 - 2 y_31_ * y_1_ + 1 y_31_ ^ 2 ] >= 4759.92
quadratic_ranged_77_lb: [ 1 x_9_ ^ 2 - 2 x_31_ * x_9_ + 1 x_31_ ^ 2 + 1 y_9_ ^ 2 - 2 y_31_ * y_9_ + 1 y_31_ ^ 2 ] >= 361.35
quadratic_ranged_78_lb: [ 1 x_27_ ^ 2 - 2 x_31_ * x_27_ + 1 x_31_ ^ 2 + 1 y_27_ ^ 2 - 2 y_31_ * y_27_ + 1 y_31_ ^ 2 ] >= 10141.56
quadratic_ranged_79_lb: [ 1 x_30_ ^ 2 - 2 x_31_ * x_30_ + 1 x_31_ ^ 2 + 1 y_30_ ^ 2 - 2 y_31_ * y_30_ + 1 y_31_ ^ 2 ] >= 9933.66
quadratic_ranged_80_lb: [ 1 x_4_ ^ 2 - 2 x_32_ * x_4_ + 1 x_32_ ^ 2 + 1 y_4_ ^ 2 - 2 y_32_ * y_4_ + 1 y_32_ ^ 2 ] >= 24308.46
quadratic_ranged_81_lb: [ 1 x_5_ ^ 2 - 2 x_32_ * x_5_ + 1 x_32_ ^ 2 + 1 y_5_ ^ 2 - 2 y_32_ * y_5_ + 1 y_32_ ^ 2 ] >= 24553.98
quadratic_ranged_82_lb: [ 1 x_7_ ^ 2 - 2 x_32_ * x_7_ + 1 x_32_ ^ 2 + 1 y_7_ ^ 2 - 2 y_32_ * y_7_ + 1 y_32_ ^ 2 ] >= 4706.46
quadratic_ranged_83_lb: [ 1 x_12_ ^ 2 - 2 x_32_ * x_12_ + 1 x_32_ ^ 2 + 1 y_12_ ^ 2 - 2 y_32_ * y_12_ + 1 y_32_ ^ 2 ] >= 18249.66
quadratic_ranged_84_lb: [ 1 x_14_ ^ 2 - 2 x_32_ * x_14_ + 1 x_32_ ^ 2 + 1 y_14_ ^ 2 - 2 y_32_ * y_14_ + 1 y_32_ ^ 2 ] >= 15270.75
quadratic_ranged_85_lb: [ 1 x_20_ ^ 2 - 2 x_32_ * x_20_ + 1 x_32_ ^ 2 + 1 y_20_ ^ 2 - 2 y_32_ * y_20_ + 1 y_32_ ^ 2 ] >= 29906.91
quadratic_ranged_86_lb: [ 1 x_23_ ^ 2 - 2 x_32_ * x_23_ + 1 x_32_ ^ 2 + 1 y_23_ ^ 2 - 2 y_32_ * y_23_ + 1 y_32_ ^ 2 ] >= 6883.47
quadratic_ranged_87_lb: [ 1 x_31_ ^ 2 - 2 x_32_ * x_31_ + 1 x_32_ ^ 2 + 1 y_31_ ^ 2 - 2 y_32_ * y_31_ + 1 y_32_ ^ 2 ] >= 3683.79
quadratic_ranged_88_lb: [ 1 x_3_ ^ 2 - 2 x_33_ * x_3_ + 1 x_33_ ^ 2 + 1 y_3_ ^ 2 - 2 y_33_ * y_3_ + 1 y_33_ ^ 2 ] >= 14197.59
quadratic_ranged_89_lb: [ 1 x_16_ ^ 2 - 2 x_33_ * x_16_ + 1 x_33_ ^ 2 + 1 y_16_ ^ 2 - 2 y_33_ * y_16_ + 1 y_33_ ^ 2 ] >= 6942.87
quadratic_ranged_90_lb: [ 1 x_31_ ^ 2 - 2 x_33_ * x_31_ + 1 x_33_ ^ 2 + 1 y_31_ ^ 2 - 2 y_33_ * y_31_ + 1 y_33_ ^ 2 ] >= 16731
quadratic_ranged_91_lb: [ 1 x_32_ ^ 2 - 2 x_33_ * x_32_ + 1 x_33_ ^ 2 + 1 y_32_ ^ 2 - 2 y_33_ * y_32_ + 1 y_33_ ^ 2 ] >= 19357.47
quadratic_ranged_92_lb: [ 1 x_5_ ^ 2 - 2 x_34_ * x_5_ + 1 x_34_ ^ 2 + 1 y_5_ ^ 2 - 2 y_34_ * y_5_ + 1 y_34_ ^ 2 ] >= 8455.59
quadratic_ranged_93_lb: [ 1 x_7_ ^ 2 - 2 x_34_ * x_7_ + 1 x_34_ ^ 2 + 1 y_7_ ^ 2 - 2 y_34_ * y_7_ + 1 y_34_ ^ 2 ] >= 8970.39
quadratic_ranged_94_lb: [ 1 x_10_ ^ 2 - 2 x_34_ * x_10_ + 1 x_34_ ^ 2 + 1 y_10_ ^ 2 - 2 y_34_ * y_10_ + 1 y_34_ ^ 2 ] >= 7809.12
quadratic_ranged_95_lb: [ 1 x_15_ ^ 2 - 2 x_34_ * x_15_ + 1 x_34_ ^ 2 + 1 y_15_ ^ 2 - 2 y_34_ * y_15_ + 1 y_34_ ^ 2 ] >= 11596.86
quadratic_ranged_96_lb: [ 1 x_16_ ^ 2 - 2 x_34_ * x_16_ + 1 x_34_ ^ 2 + 1 y_16_ ^ 2 - 2 y_34_ * y_16_ + 1 y_34_ ^ 2 ] >= 2567.07
quadratic_ranged_97_lb: [ 1 x_33_ ^ 2 - 2 x_34_ * x_33_ + 1 x_34_ ^ 2 + 1 y_33_ ^ 2 - 2 y_34_ * y_33_ + 1 y_34_ ^ 2 ] >= 5134.14
quadratic_ranged_98_lb: [ 1 x_2_ ^ 2 - 2 x_35_ * x_2_ + 1 x_35_ ^ 2 + 1 y_2_ ^ 2 - 2 y_35_ * y_2_ + 1 y_35_ ^ 2 ] >= 11771.1
quadratic_ranged_99_lb: [ 1 x_17_ ^ 2 - 2 x_35_ * x_17_ + 1 x_35_ ^ 2 + 1 y_17_ ^ 2 - 2 y_35_ * y_17_ + 1 y_35_ ^ 2 ] >= 1763.19
quadratic_ranged_100_lb: [ 1 x_23_ ^ 2 - 2 x_35_ * x_23_ + 1 x_35_ ^ 2 + 1 y_23_ ^ 2 - 2 y_35_ * y_23_ + 1 y_35_ ^ 2 ] >= 6051.87
quadratic_ranged_101_lb: [ 1 x_25_ ^ 2 - 2 x_35_ * x_25_ + 1 x_35_ ^ 2 + 1 y_25_ ^ 2 - 2 y_35_ * y_25_ + 1 y_35_ ^ 2 ] >= 559.35
quadratic_ranged_102_lb: [ 1 x_26_ ^ 2 - 2 x_35_ * x_26_ + 1 x_35_ ^ 2 + 1 y_26_ ^ 2 - 2 y_35_ * y_26_ + 1 y_35_ ^ 2 ] >= 11177.1
quadratic_ranged_103_lb: [ 1 x_34_ ^ 2 - 2 x_35_ * x_34_ + 1 x_35_ ^ 2 + 1 y_34_ ^ 2 - 2 y_35_ * y_34_ + 1 y_35_ ^ 2 ] >= 765.27
quadratic_ranged_104_lb: [ 1 x_2_ ^ 2 - 2 x_36_ * x_2_ + 1 x_36_ ^ 2 + 1 y_2_ ^ 2 - 2 y_36_ * y_2_ + 1 y_36_ ^ 2 ] >= 4993.56
quadratic_ranged_105_lb: [ 1 x_10_ ^ 2 - 2 x_36_ * x_10_ + 1 x_36_ ^ 2 + 1 y_10_ ^ 2 - 2 y_36_ * y_10_ + 1 y_36_ ^ 2 ] >= 18407.07
quadratic_ranged_106_lb: [ 1 x_11_ ^ 2 - 2 x_36_ * x_11_ + 1 x_36_ ^ 2 + 1 y_11_ ^ 2 - 2 y_36_ * y_11_ + 1 y_36_ ^ 2 ] >= 10491.03
quadratic_ranged_107_lb: [ 1 x_16_ ^ 2 - 2 x_36_ * x_16_ + 1 x_36_ ^ 2 + 1 y_16_ ^ 2 - 2 y_36_ * y_16_ + 1 y_36_ ^ 2 ] >= 13838.22
quadratic_ranged_108_lb: [ 1 x_35_ ^ 2 - 2 x_36_ * x_35_ + 1 x_36_ ^ 2 + 1 y_35_ ^ 2 - 2 y_36_ * y_35_ + 1 y_36_ ^ 2 ] >= 8571.42
quadratic_ranged_109_lb: [ 1 x_13_ ^ 2 - 2 x_37_ * x_13_ + 1 x_37_ ^ 2 + 1 y_13_ ^ 2 - 2 y_37_ * y_13_ + 1 y_37_ ^ 2 ] >= 15389.55
quadratic_ranged_110_lb: [ 1 x_17_ ^ 2 - 2 x_37_ * x_17_ + 1 x_37_ ^ 2 + 1 y_17_ ^ 2 - 2 y_37_ * y_17_ + 1 y_37_ ^ 2 ] >= 18094.23
quadratic_ranged_111_lb: [ 1 x_21_ ^ 2 - 2 x_37_ * x_21_ + 1 x_37_ ^ 2 + 1 y_21_ ^ 2 - 2 y_37_ * y_21_ + 1 y_37_ ^ 2 ] >= 21536.46
quadratic_ranged_112_lb: [ 1 x_36_ ^ 2 - 2 x_37_ * x_36_ + 1 x_37_ ^ 2 + 1 y_36_ ^ 2 - 2 y_37_ * y_36_ + 1 y_37_ ^ 2 ] >= 9606.96
quadratic_ranged_113_lb: [ 1 x_1_ ^ 2 - 2 x_38_ * x_1_ + 1 x_38_ ^ 2 + 1 y_1_ ^ 2 - 2 y_38_ * y_1_ + 1 y_38_ ^ 2 ] >= 3315.5099999999998
quadratic_ranged_114_lb: [ 1 x_6_ ^ 2 - 2 x_38_ * x_6_ + 1 x_38_ ^ 2 + 1 y_6_ ^ 2 - 2 y_38_ * y_6_ + 1 y_38_ ^ 2 ] >= 3010.59
quadratic_ranged_115_lb: [ 1 x_15_ ^ 2 - 2 x_38_ * x_15_ + 1 x_38_ ^ 2 + 1 y_15_ ^ 2 - 2 y_38_ * y_15_ + 1 y_38_ ^ 2 ] >= 31435.47
quadratic_ranged_116_lb: [ 1 x_21_ ^ 2 - 2 x_38_ * x_21_ + 1 x_38_ ^ 2 + 1 y_21_ ^ 2 - 2 y_38_ * y_21_ + 1 y_38_ ^ 2 ] >= 4312.44
quadratic_ranged_117_lb: [ 1 x_22_ ^ 2 - 2 x_38_ * x_22_ + 1 x_38_ ^ 2 + 1 y_22_ ^ 2 - 2 y_38_ * y_22_ + 1 y_38_ ^ 2 ] >= 25383.6
quadratic_ranged_118_lb: [ 1 x_33_ ^ 2 - 2 x_38_ * x_33_ + 1 x_38_ ^ 2 + 1 y_33_ ^ 2 - 2 y_38_ * y_33_ + 1 y_38_ ^ 2 ] >= 21990.87
quadratic_ranged_119_lb: [ 1 x_37_ ^ 2 - 2 x_38_ * x_37_ + 1 x_38_ ^ 2 + 1 y_37_ ^ 2 - 2 y_38_ * y_37_ + 1 y_38_ ^ 2 ] >= 6900.3
quadratic_ranged_120_lb: [ 1 x_12_ ^ 2 - 2 x_39_ * x_12_ + 1 x_39_ ^ 2 + 1 y_12_ ^ 2 - 2 y_39_ * y_12_ + 1 y_39_ ^ 2 ] >= 4191.66
quadratic_ranged_121_lb: [ 1 x_14_ ^ 2 - 2 x_39_ * x_14_ + 1 x_39_ ^ 2 + 1 y_14_ ^ 2 - 2 y_39_ * y_14_ + 1 y_39_ ^ 2 ] >= 1287.99
quadratic_ranged_122_lb: [ 1 x_25_ ^ 2 - 2 x_39_ * x_25_ + 1 x_39_ ^ 2 + 1 y_25_ ^ 2 - 2 y_39_ * y_25_ + 1 y_39_ ^ 2 ] >= 1866.15
quadratic_ranged_123_lb: [ 1 x_38_ ^ 2 - 2 x_39_ * x_38_ + 1 x_39_ ^ 2 + 1 y_38_ ^ 2 - 2 y_39_ * y_38_ + 1 y_39_ ^ 2 ] >= 16483.5
quadratic_ranged_124_lb: [ 1 x_11_ ^ 2 - 2 x_40_ * x_11_ + 1 x_40_ ^ 2 + 1 y_11_ ^ 2 - 2 y_40_ * y_11_ + 1 y_40_ ^ 2 ] >= 12388.86
quadratic_ranged_125_lb: [ 1 x_24_ ^ 2 - 2 x_40_ * x_24_ + 1 x_40_ ^ 2 + 1 y_24_ ^ 2 - 2 y_40_ * y_24_ + 1 y_40_ ^ 2 ] >= 302.94
quadratic_ranged_126_lb: [ 1 x_39_ ^ 2 - 2 x_40_ * x_39_ + 1 x_40_ ^ 2 + 1 y_39_ ^ 2 - 2 y_40_ * y_39_ + 1 y_40_ ^ 2 ] >= 3307.59
quadratic_ranged_127_lb: [ 1 x_7_ ^ 2 - 2 x_41_ * x_7_ + 1 x_41_ ^ 2 + 1 y_7_ ^ 2 - 2 y_41_ * y_7_ + 1 y_41_ ^ 2 ] >= 35649.9
quadratic_ranged_128_lb: [ 1 x_26_ ^ 2 - 2 x_41_ * x_26_ + 1 x_41_ ^ 2 + 1 y_26_ ^ 2 - 2 y_41_ * y_26_ + 1 y_41_ ^ 2 ] >= 43544.159999999996
quadratic_ranged_129_lb: [ 1 x_28_ ^ 2 - 2 x_41_ * x_28_ + 1 x_41_ ^ 2 + 1 y_28_ ^ 2 - 2 y_41_ * y_28_ + 1 y_41_ ^ 2 ] >= 23036.31
quadratic_ranged_130_lb: [ 1 x_35_ ^ 2 - 2 x_41_ * x_35_ + 1 x_41_ ^ 2 + 1 y_35_ ^ 2 - 2 y_41_ * y_35_ + 1 y_41_ ^ 2 ] >= 13275.9
quadratic_ranged_131_lb: [ 1 x_37_ ^ 2 - 2 x_41_ * x_37_ + 1 x_41_ ^ 2 + 1 y_37_ ^ 2 - 2 y_41_ * y_37_ + 1 y_41_ ^ 2 ] >= 18552.6
quadratic_ranged_132_lb: [ 1 x_40_ ^ 2 - 2 x_41_ * x_40_ + 1 x_41_ ^ 2 + 1 y_40_ ^ 2 - 2 y_41_ * y_40_ + 1 y_41_ ^ 2 ] >= 836.55
quadratic_ranged_133_lb: [ 1 x_6_ ^ 2 - 2 x_42_ * x_6_ + 1 x_42_ ^ 2 + 1 y_6_ ^ 2 - 2 y_42_ * y_6_ + 1 y_42_ ^ 2 ] >= 6570.63
quadratic_ranged_134_lb: [ 1 x_19_ ^ 2 - 2 x_42_ * x_19_ + 1 x_42_ ^ 2 + 1 y_19_ ^ 2 - 2 y_42_ * y_19_ + 1 y_42_ ^ 2 ] >= 4722.3
quadratic_ranged_135_lb: [ 1 x_26_ ^ 2 - 2 x_42_ * x_26_ + 1 x_42_ ^ 2 + 1 y_26_ ^ 2 - 2 y_42_ * y_26_ + 1 y_42_ ^ 2 ] >= 14929.2
quadratic_ranged_136_lb: [ 1 x_33_ ^ 2 - 2 x_42_ * x_33_ + 1 x_42_ ^ 2 + 1 y_33_ ^ 2 - 2 y_42_ * y_33_ + 1 y_42_ ^ 2 ] >= 16153.83
quadratic_ranged_137_lb: [ 1 x_41_ ^ 2 - 2 x_42_ * x_41_ + 1 x_42_ ^ 2 + 1 y_41_ ^ 2 - 2 y_42_ * y_41_ + 1 y_42_ ^ 2 ] >= 13598.64
quadratic_ranged_138_lb: [ 1 x_42_ ^ 2 - 2 x_43_ * x_42_ + 1 x_43_ ^ 2 + 1 y_42_ ^ 2 - 2 y_43_ * y_42_ + 1 y_43_ ^ 2 ] >= 26267.67
quadratic_ranged_139_lb: [ 1 x_2_ ^ 2 - 2 x_44_ * x_2_ + 1 x_44_ ^ 2 + 1 y_2_ ^ 2 - 2 y_44_ * y_2_ + 1 y_44_ ^ 2 ] >= 13773.869999999999
quadratic_ranged_140_lb: [ 1 x_6_ ^ 2 - 2 x_44_ * x_6_ + 1 x_44_ ^ 2 + 1 y_6_ ^ 2 - 2 y_44_ * y_6_ + 1 y_44_ ^ 2 ] >= 9149.58
quadratic_ranged_141_lb: [ 1 x_9_ ^ 2 - 2 x_44_ * x_9_ + 1 x_44_ ^ 2 + 1 y_9_ ^ 2 - 2 y_44_ * y_9_ + 1 y_44_ ^ 2 ] >= 22497.75
quadratic_ranged_142_lb: [ 1 x_11_ ^ 2 - 2 x_44_ * x_11_ + 1 x_44_ ^ 2 + 1 y_11_ ^ 2 - 2 y_44_ * y_11_ + 1 y_44_ ^ 2 ] >= 3668.94
quadratic_ranged_143_lb: [ 1 x_34_ ^ 2 - 2 x_44_ * x_34_ + 1 x_44_ ^ 2 + 1 y_34_ ^ 2 - 2 y_44_ * y_34_ + 1 y_44_ ^ 2 ] >= 19530.72
quadratic_ranged_144_lb: [ 1 x_35_ ^ 2 - 2 x_44_ * x_35_ + 1 x_44_ ^ 2 + 1 y_35_ ^ 2 - 2 y_44_ * y_35_ + 1 y_44_ ^ 2 ] >= 12930.39
quadratic_ranged_145_lb: [ 1 x_43_ ^ 2 - 2 x_44_ * x_43_ + 1 x_44_ ^ 2 + 1 y_43_ ^ 2 - 2 y_44_ * y_43_ + 1 y_44_ ^ 2 ] >= 44773.74
quadratic_ranged_146_lb: [ 1 x_5_ ^ 2 - 2 x_45_ * x_5_ + 1 x_45_ ^ 2 + 1 y_5_ ^ 2 - 2 y_45_ * y_5_ + 1 y_45_ ^ 2 ] >= 6550.83
quadratic_ranged_147_lb: [ 1 x_6_ ^ 2 - 2 x_45_ * x_6_ + 1 x_45_ ^ 2 + 1 y_6_ ^ 2 - 2 y_45_ * y_6_ + 1 y_45_ ^ 2 ] >= 1340.46
quadratic_ranged_148_lb: [ 1 x_11_ ^ 2 - 2 x_45_ * x_11_ + 1 x_45_ ^ 2 + 1 y_11_ ^ 2 - 2 y_45_ * y_11_ + 1 y_45_ ^ 2 ] >= 5989.5
quadratic_ranged_149_lb: [ 1 x_18_ ^ 2 - 2 x_45_ * x_18_ + 1 x_45_ ^ 2 + 1 y_18_ ^ 2 - 2 y_45_ * y_18_ + 1 y_45_ ^ 2 ] >= 13488.75
quadratic_ranged_150_lb: [ 1 x_20_ ^ 2 - 2 x_45_ * x_20_ + 1 x_45_ ^ 2 + 1 y_20_ ^ 2 - 2 y_45_ * y_20_ + 1 y_45_ ^ 2 ] >= 4455
quadratic_ranged_151_lb: [ 1 x_22_ ^ 2 - 2 x_45_ * x_22_ + 1 x_45_ ^ 2 + 1 y_22_ ^ 2 - 2 y_45_ * y_22_ + 1 y_45_ ^ 2 ] >= 6344.91
quadratic_ranged_152_lb: [ 1 x_39_ ^ 2 - 2 x_45_ * x_39_ + 1 x_45_ ^ 2 + 1 y_39_ ^ 2 - 2 y_45_ * y_39_ + 1 y_45_ ^ 2 ] >= 1984.95
quadratic_ranged_153_lb: [ 1 x_44_ ^ 2 - 2 x_45_ * x_44_ + 1 x_45_ ^ 2 + 1 y_44_ ^ 2 - 2 y_45_ * y_44_ + 1 y_45_ ^ 2 ] >= 16889.4
quadratic_ranged_154_lb: [ 1 x_25_ ^ 2 - 2 x_46_ * x_25_ + 1 x_46_ ^ 2 + 1 y_25_ ^ 2 - 2 y_46_ * y_25_ + 1 y_46_ ^ 2 ] >= 22486.86
quadratic_ranged_155_lb: [ 1 x_32_ ^ 2 - 2 x_46_ * x_32_ + 1 x_46_ ^ 2 + 1 y_32_ ^ 2 - 2 y_46_ * y_32_ + 1 y_46_ ^ 2 ] >= 31617.63
quadratic_ranged_156_lb: [ 1 x_45_ ^ 2 - 2 x_46_ * x_45_ + 1 x_46_ ^ 2 + 1 y_45_ ^ 2 - 2 y_46_ * y_45_ + 1 y_46_ ^ 2 ] >= 22700.7
quadratic_ranged_157_lb: [ 1 x_4_ ^ 2 - 2 x_47_ * x_4_ + 1 x_47_ ^ 2 + 1 y_4_ ^ 2 - 2 y_47_ * y_4_ + 1 y_47_ ^ 2 ] >= 41629.5
quadratic_ranged_158_lb: [ 1 x_8_ ^ 2 - 2 x_47_ * x_8_ + 1 x_47_ ^ 2 + 1 y_8_ ^ 2 - 2 y_47_ * y_8_ + 1 y_47_ ^ 2 ] >= 15475.68
quadratic_ranged_159_lb: [ 1 x_21_ ^ 2 - 2 x_47_ * x_21_ + 1 x_47_ ^ 2 + 1 y_21_ ^ 2 - 2 y_47_ * y_21_ + 1 y_47_ ^ 2 ] >= 36782.46
quadratic_ranged_160_lb: [ 1 x_23_ ^ 2 - 2 x_47_ * x_23_ + 1 x_47_ ^ 2 + 1 y_23_ ^ 2 - 2 y_47_ * y_23_ + 1 y_47_ ^ 2 ] >= 3390.75
quadratic_ranged_161_lb: [ 1 x_45_ ^ 2 - 2 x_47_ * x_45_ + 1 x_47_ ^ 2 + 1 y_45_ ^ 2 - 2 y_47_ * y_45_ + 1 y_47_ ^ 2 ] >= 5335.11
quadratic_ranged_162_lb: [ 1 x_46_ ^ 2 - 2 x_47_ * x_46_ + 1 x_47_ ^ 2 + 1 y_46_ ^ 2 - 2 y_47_ * y_46_ + 1 y_47_ ^ 2 ] >= 49960.35
quadratic_ranged_163_lb: [ 1 x_29_ ^ 2 - 2 x_48_ * x_29_ + 1 x_48_ ^ 2 + 1 y_29_ ^ 2 - 2 y_48_ * y_29_ + 1 y_48_ ^ 2 ] >= 5034.15
quadratic_ranged_164_lb: [ 1 x_47_ ^ 2 - 2 x_48_ * x_47_ + 1 x_48_ ^ 2 + 1 y_47_ ^ 2 - 2 y_48_ * y_47_ + 1 y_48_ ^ 2 ] >= 2035.44
quadratic_ranged_165_lb: [ 1 x_3_ ^ 2 - 2 x_49_ * x_3_ + 1 x_49_ ^ 2 + 1 y_3_ ^ 2 - 2 y_49_ * y_3_ + 1 y_49_ ^ 2 ] >= 2717.55
quadratic_ranged_166_lb: [ 1 x_24_ ^ 2 - 2 x_49_ * x_24_ + 1 x_49_ ^ 2 + 1 y_24_ ^ 2 - 2 y_49_ * y_24_ + 1 y_49_ ^ 2 ] >= 10503.9
quadratic_ranged_167_lb: [ 1 x_45_ ^ 2 - 2 x_49_ * x_45_ + 1 x_49_ ^ 2 + 1 y_45_ ^ 2 - 2 y_49_ * y_45_ + 1 y_49_ ^ 2 ] >= 3080.88
quadratic_ranged_168_lb: [ 1 x_48_ ^ 2 - 2 x_49_ * x_48_ + 1 x_49_ ^ 2 + 1 y_48_ ^ 2 - 2 y_49_ * y_48_ + 1 y_49_ ^ 2 ] >= 6024.15
quadratic_ranged_169_lb: [ 1 x_4_ ^ 2 - 2 x_50_ * x_4_ + 1 x_50_ ^ 2 + 1 y_4_ ^ 2 - 2 y_50_ * y_4_ + 1 y_50_ ^ 2 ] >= 13230.36
quadratic_ranged_170_lb: [ 1 x_17_ ^ 2 - 2 x_50_ * x_17_ + 1 x_50_ ^ 2 + 1 y_17_ ^ 2 - 2 y_50_ * y_17_ + 1 y_50_ ^ 2 ] >= 2887.83
quadratic_ranged_171_lb: [ 1 x_23_ ^ 2 - 2 x_50_ * x_23_ + 1 x_50_ ^ 2 + 1 y_23_ ^ 2 - 2 y_50_ * y_23_ + 1 y_50_ ^ 2 ] >= 4467.87
quadratic_ranged_172_lb: [ 1 x_28_ ^ 2 - 2 x_50_ * x_28_ + 1 x_50_ ^ 2 + 1 y_28_ ^ 2 - 2 y_50_ * y_28_ + 1 y_50_ ^ 2 ] >= 21301.829999999998
quadratic_ranged_173_lb: [ 1 x_41_ ^ 2 - 2 x_50_ * x_41_ + 1 x_50_ ^ 2 + 1 y_41_ ^ 2 - 2 y_50_ * y_41_ + 1 y_50_ ^ 2 ] >= 17037.9
quadratic_ranged_174_lb: [ 1 x_44_ ^ 2 - 2 x_50_ * x_44_ + 1 x_50_ ^ 2 + 1 y_44_ ^ 2 - 2 y_50_ * y_44_ + 1 y_50_ ^ 2 ] >= 18430.829999999998
quadratic_ranged_175_lb: [ 1 x_46_ ^ 2 - 2 x_50_ * x_46_ + 1 x_50_ ^ 2 + 1 y_46_ ^ 2 - 2 y_50_ * y_46_ + 1 y_50_ ^ 2 ] >= 18807.03
quadratic_ranged_176_lb: [ 1 x_49_ ^ 2 - 2 x_50_ * x_49_ + 1 x_50_ ^ 2 + 1 y_49_ ^ 2 - 2 y_50_ * y_49_ + 1 y_50_ ^ 2 ] >= 96.03
quadratic_ranged_177_lb: [ 1 x_1_ ^ 2 - 2 x_51_ * x_1_ + 1 x_51_ ^ 2 + 1 y_1_ ^ 2 - 2 y_51_ * y_1_ + 1 y_51_ ^ 2 ] >= 1031.58
quadratic_ranged_178_lb: [ 1 x_5_ ^ 2 - 2 x_51_ * x_5_ + 1 x_51_ ^ 2 + 1 y_5_ ^ 2 - 2 y_51_ * y_5_ + 1 y_51_ ^ 2 ] >= 3731.31
quadratic_ranged_179_lb: [ 1 x_11_ ^ 2 - 2 x_51_ * x_11_ + 1 x_51_ ^ 2 + 1 y_11_ ^ 2 - 2 y_51_ * y_11_ + 1 y_51_ ^ 2 ] >= 4635.18
quadratic_ranged_180_lb: [ 1 x_43_ ^ 2 - 2 x_51_ * x_43_ + 1 x_51_ ^ 2 + 1 y_43_ ^ 2 - 2 y_51_ * y_43_ + 1 y_51_ ^ 2 ] >= 12998.7
quadratic_ranged_181_lb: [ 1 x_50_ ^ 2 - 2 x_51_ * x_50_ + 1 x_51_ ^ 2 + 1 y_50_ ^ 2 - 2 y_51_ * y_50_ + 1 y_51_ ^ 2 ] >= 1153.35
quadratic_ranged_182_lb: [ 1 x_1_ ^ 2 - 2 x_52_ * x_1_ + 1 x_52_ ^ 2 + 1 y_1_ ^ 2 - 2 y_52_ * y_1_ + 1 y_52_ ^ 2 ] >= 14842.08
quadratic_ranged_183_lb: [ 1 x_7_ ^ 2 - 2 x_52_ * x_7_ + 1 x_52_ ^ 2 + 1 y_7_ ^ 2 - 2 y_52_ * y_7_ + 1 y_52_ ^ 2 ] >= 46752.75
quadratic_ranged_184_lb: [ 1 x_38_ ^ 2 - 2 x_52_ * x_38_ + 1 x_52_ ^ 2 + 1 y_38_ ^ 2 - 2 y_52_ * y_38_ + 1 y_52_ ^ 2 ] >= 11481.03
quadratic_ranged_185_lb: [ 1 x_39_ ^ 2 - 2 x_52_ * x_39_ + 1 x_52_ ^ 2 + 1 y_39_ ^ 2 - 2 y_52_ * y_39_ + 1 y_52_ ^ 2 ] >= 24406.47
quadratic_ranged_186_lb: [ 1 x_46_ ^ 2 - 2 x_52_ * x_46_ + 1 x_52_ ^ 2 + 1 y_46_ ^ 2 - 2 y_52_ * y_46_ + 1 y_52_ ^ 2 ] >= 38035.8
quadratic_ranged_187_lb: [ 1 x_51_ ^ 2 - 2 x_52_ * x_51_ + 1 x_52_ ^ 2 + 1 y_51_ ^ 2 - 2 y_52_ * y_51_ + 1 y_52_ ^ 2 ] >= 23120.46
quadratic_ranged_188_lb: [ 1 x_1_ ^ 2 - 2 x_53_ * x_1_ + 1 x_53_ ^ 2 + 1 y_1_ ^ 2 - 2 y_53_ * y_1_ + 1 y_53_ ^ 2 ] >= 2205.72
quadratic_ranged_189_lb: [ 1 x_9_ ^ 2 - 2 x_53_ * x_9_ + 1 x_53_ ^ 2 + 1 y_9_ ^ 2 - 2 y_53_ * y_9_ + 1 y_53_ ^ 2 ] >= 1311.75
quadratic_ranged_190_lb: [ 1 x_41_ ^ 2 - 2 x_53_ * x_41_ + 1 x_53_ ^ 2 + 1 y_41_ ^ 2 - 2 y_53_ * y_41_ + 1 y_53_ ^ 2 ] >= 18521.91
quadratic_ranged_191_lb: [ 1 x_48_ ^ 2 - 2 x_53_ * x_48_ + 1 x_53_ ^ 2 + 1 y_48_ ^ 2 - 2 y_53_ * y_48_ + 1 y_53_ ^ 2 ] >= 5418.2699999999995
quadratic_ranged_192_lb: [ 1 x_52_ ^ 2 - 2 x_53_ * x_52_ + 1 x_53_ ^ 2 + 1 y_52_ ^ 2 - 2 y_53_ * y_52_ + 1 y_53_ ^ 2 ] >= 28484.28
quadratic_ranged_193_lb: [ 1 x_8_ ^ 2 - 2 x_54_ * x_8_ + 1 x_54_ ^ 2 + 1 y_8_ ^ 2 - 2 y_54_ * y_8_ + 1 y_54_ ^ 2 ] >= 34002.54
quadratic_ranged_194_lb: [ 1 x_15_ ^ 2 - 2 x_54_ * x_15_ + 1 x_54_ ^ 2 + 1 y_15_ ^ 2 - 2 y_54_ * y_15_ + 1 y_54_ ^ 2 ] >= 22299.75
quadratic_ranged_195_lb: [ 1 x_19_ ^ 2 - 2 x_54_ * x_19_ + 1 x_54_ ^ 2 + 1 y_19_ ^ 2 - 2 y_54_ * y_19_ + 1 y_54_ ^ 2 ] >= 6122.16
quadratic_ranged_196_lb: [ 1 x_25_ ^ 2 - 2 x_54_ * x_25_ + 1 x_54_ ^ 2 + 1 y_25_ ^ 2 - 2 y_54_ * y_25_ + 1 y_54_ ^ 2 ] >= 15591.51
quadratic_ranged_197_lb: [ 1 x_29_ ^ 2 - 2 x_54_ * x_29_ + 1 x_54_ ^ 2 + 1 y_29_ ^ 2 - 2 y_54_ * y_29_ + 1 y_54_ ^ 2 ] >= 26267.67
quadratic_ranged_198_lb: [ 1 x_37_ ^ 2 - 2 x_54_ * x_37_ + 1 x_54_ ^ 2 + 1 y_37_ ^ 2 - 2 y_54_ * y_37_ + 1 y_54_ ^ 2 ] >= 29939.579999999998
quadratic_ranged_199_lb: [ 1 x_39_ ^ 2 - 2 x_54_ * x_39_ + 1 x_54_ ^ 2 + 1 y_39_ ^ 2 - 2 y_54_ * y_39_ + 1 y_54_ ^ 2 ] >= 28236.78
quadratic_ranged_200_lb: [ 1 x_44_ ^ 2 - 2 x_54_ * x_44_ + 1 x_54_ ^ 2 + 1 y_44_ ^ 2 - 2 y_54_ * y_44_ + 1 y_54_ ^ 2 ] >= 5469.75
quadratic_ranged_201_lb: [ 1 x_53_ ^ 2 - 2 x_54_ * x_53_ + 1 x_54_ ^ 2 + 1 y_53_ ^ 2 - 2 y_54_ * y_53_ + 1 y_54_ ^ 2 ] >= 8796.15
quadratic_ranged_202_lb: [ 1 x_13_ ^ 2 - 2 x_55_ * x_13_ + 1 x_55_ ^ 2 + 1 y_13_ ^ 2 - 2 y_55_ * y_13_ + 1 y_55_ ^ 2 ] >= 11350.35
quadratic_ranged_203_lb: [ 1 x_14_ ^ 2 - 2 x_55_ * x_14_ + 1 x_55_ ^ 2 + 1 y_14_ ^ 2 - 2 y_55_ * y_14_ + 1 y_55_ ^ 2 ] >= 28457.55
quadratic_ranged_204_lb: [ 1 x_18_ ^ 2 - 2 x_55_ * x_18_ + 1 x_55_ ^ 2 + 1 y_18_ ^ 2 - 2 y_55_ * y_18_ + 1 y_55_ ^ 2 ] >= 22114.62
quadratic_ranged_205_lb: [ 1 x_22_ ^ 2 - 2 x_55_ * x_22_ + 1 x_55_ ^ 2 + 1 y_22_ ^ 2 - 2 y_55_ * y_22_ + 1 y_55_ ^ 2 ] >= 30610.8
quadratic_ranged_206_lb: [ 1 x_29_ ^ 2 - 2 x_55_ * x_29_ + 1 x_55_ ^ 2 + 1 y_29_ ^ 2 - 2 y_55_ * y_29_ + 1 y_55_ ^ 2 ] >= 29407.95
quadratic_ranged_207_lb: [ 1 x_48_ ^ 2 - 2 x_55_ * x_48_ + 1 x_55_ ^ 2 + 1 y_48_ ^ 2 - 2 y_55_ * y_48_ + 1 y_55_ ^ 2 ] >= 18748.62
quadratic_ranged_208_lb: [ 1 x_54_ ^ 2 - 2 x_55_ * x_54_ + 1 x_55_ ^ 2 + 1 y_54_ ^ 2 - 2 y_55_ * y_54_ + 1 y_55_ ^ 2 ] >= 4854.96
quadratic_ranged_209_lb: [ 1 x_7_ ^ 2 - 2 x_56_ * x_7_ + 1 x_56_ ^ 2 + 1 y_7_ ^ 2 - 2 y_56_ * y_7_ + 1 y_56_ ^ 2 ] >= 11979
quadratic_ranged_210_lb: [ 1 x_8_ ^ 2 - 2 x_56_ * x_8_ + 1 x_56_ ^ 2 + 1 y_8_ ^ 2 - 2 y_56_ * y_8_ + 1 y_56_ ^ 2 ] >= 31016.7
quadratic_ranged_211_lb: [ 1 x_10_ ^ 2 - 2 x_56_ * x_10_ + 1 x_56_ ^ 2 + 1 y_10_ ^ 2 - 2 y_56_ * y_10_ + 1 y_56_ ^ 2 ] >= 19254.51
quadratic_ranged_212_lb: [ 1 x_25_ ^ 2 - 2 x_56_ * x_25_ + 1 x_56_ ^ 2 + 1 y_25_ ^ 2 - 2 y_56_ * y_25_ + 1 y_56_ ^ 2 ] >= 3564.99
quadratic_ranged_213_lb: [ 1 x_43_ ^ 2 - 2 x_56_ * x_43_ + 1 x_56_ ^ 2 + 1 y_43_ ^ 2 - 2 y_56_ * y_43_ + 1 y_56_ ^ 2 ] >= 1192.95
quadratic_ranged_214_lb: [ 1 x_53_ ^ 2 - 2 x_56_ * x_53_ + 1 x_56_ ^ 2 + 1 y_53_ ^ 2 - 2 y_56_ * y_53_ + 1 y_56_ ^ 2 ] >= 6135.03
quadratic_ranged_215_lb: [ 1 x_55_ ^ 2 - 2 x_56_ * x_55_ + 1 x_56_ ^ 2 + 1 y_55_ ^ 2 - 2 y_56_ * y_55_ + 1 y_56_ ^ 2 ] >= 14640.119999999999
quadratic_ranged_216_lb: [ 1 x_1_ ^ 2 - 2 x_57_ * x_1_ + 1 x_57_ ^ 2 + 1 y_1_ ^ 2 - 2 y_57_ * y_1_ + 1 y_57_ ^ 2 ] >= 2187.9
quadratic_ranged_217_lb: [ 1 x_3_ ^ 2 - 2 x_57_ * x_3_ + 1 x_57_ ^ 2 + 1 y_3_ ^ 2 - 2 y_57_ * y_3_ + 1 y_57_ ^ 2 ] >= 3628.35
quadratic_ranged_218_lb: [ 1 x_6_ ^ 2 - 2 x_57_ * x_6_ + 1 x_57_ ^ 2 + 1 y_6_ ^ 2 - 2 y_57_ * y_6_ + 1 y_57_ ^ 2 ] >= 2599.74
quadratic_ranged_219_lb: [ 1 x_7_ ^ 2 - 2 x_57_ * x_7_ + 1 x_57_ ^ 2 + 1 y_7_ ^ 2 - 2 y_57_ * y_7_ + 1 y_57_ ^ 2 ] >= 8756.55
quadratic_ranged_220_lb: [ 1 x_24_ ^ 2 - 2 x_57_ * x_24_ + 1 x_57_ ^ 2 + 1 y_24_ ^ 2 - 2 y_57_ * y_24_ + 1 y_57_ ^ 2 ] >= 3494.7
quadratic_ranged_221_lb: [ 1 x_39_ ^ 2 - 2 x_57_ * x_39_ + 1 x_57_ ^ 2 + 1 y_39_ ^ 2 - 2 y_57_ * y_39_ + 1 y_57_ ^ 2 ] >= 1133.55
quadratic_ranged_222_lb: [ 1 x_56_ ^ 2 - 2 x_57_ * x_56_ + 1 x_57_ ^ 2 + 1 y_56_ ^ 2 - 2 y_57_ * y_56_ + 1 y_57_ ^ 2 ] >= 2701.71
quadratic_ranged_223_lb: [ 1 x_3_ ^ 2 - 2 x_58_ * x_3_ + 1 x_58_ ^ 2 + 1 y_3_ ^ 2 - 2 y_58_ * y_3_ + 1 y_58_ ^ 2 ] >= 4907.43
quadratic_ranged_224_lb: [ 1 x_21_ ^ 2 - 2 x_58_ * x_21_ + 1 x_58_ ^ 2 + 1 y_21_ ^ 2 - 2 y_58_ * y_21_ + 1 y_58_ ^ 2 ] >= 4028.31
quadratic_ranged_225_lb: [ 1 x_22_ ^ 2 - 2 x_58_ * x_22_ + 1 x_58_ ^ 2 + 1 y_22_ ^ 2 - 2 y_58_ * y_22_ + 1 y_58_ ^ 2 ] >= 30120.75
quadratic_ranged_226_lb: [ 1 x_55_ ^ 2 - 2 x_58_ * x_55_ + 1 x_58_ ^ 2 + 1 y_55_ ^ 2 - 2 y_58_ * y_55_ + 1 y_58_ ^ 2 ] >= 598.95
quadratic_ranged_227_lb: [ 1 x_57_ ^ 2 - 2 x_58_ * x_57_ + 1 x_58_ ^ 2 + 1 y_57_ ^ 2 - 2 y_58_ * y_57_ + 1 y_58_ ^ 2 ] >= 10125.72
quadratic_ranged_228_lb: [ 1 x_6_ ^ 2 - 2 x_59_ * x_6_ + 1 x_59_ ^ 2 + 1 y_6_ ^ 2 - 2 y_59_ * y_6_ + 1 y_59_ ^ 2 ] >= 8027.91
quadratic_ranged_229_lb: [ 1 x_18_ ^ 2 - 2 x_59_ * x_18_ + 1 x_59_ ^ 2 + 1 y_18_ ^ 2 - 2 y_59_ * y_18_ + 1 y_59_ ^ 2 ] >= 28864.44
quadratic_ranged_230_lb: [ 1 x_36_ ^ 2 - 2 x_59_ * x_36_ + 1 x_59_ ^ 2 + 1 y_36_ ^ 2 - 2 y_59_ * y_36_ + 1 y_59_ ^ 2 ] >= 6086.5199999999995
quadratic_ranged_231_lb: [ 1 x_39_ ^ 2 - 2 x_59_ * x_39_ + 1 x_59_ ^ 2 + 1 y_39_ ^ 2 - 2 y_59_ * y_39_ + 1 y_59_ ^ 2 ] >= 102.96
quadratic_ranged_232_lb: [ 1 x_43_ ^ 2 - 2 x_59_ * x_43_ + 1 x_59_ ^ 2 + 1 y_43_ ^ 2 - 2 y_59_ * y_43_ + 1 y_59_ ^ 2 ] >= 891.99
quadratic_ranged_233_lb: [ 1 x_48_ ^ 2 - 2 x_59_ * x_48_ + 1 x_59_ ^ 2 + 1 y_48_ ^ 2 - 2 y_59_ * y_48_ + 1 y_59_ ^ 2 ] >= 1298.8799999999999
quadratic_ranged_234_lb: [ 1 x_58_ ^ 2 - 2 x_59_ * x_58_ + 1 x_59_ ^ 2 + 1 y_58_ ^ 2 - 2 y_59_ * y_58_ + 1 y_59_ ^ 2 ] >= 19725.75
quadratic_ranged_235_lb: [ 1 x_21_ ^ 2 - 2 x_60_ * x_21_ + 1 x_60_ ^ 2 + 1 y_21_ ^ 2 - 2 y_60_ * y_21_ + 1 y_60_ ^ 2 ] >= 22528.44
quadratic_ranged_236_lb: [ 1 x_24_ ^ 2 - 2 x_60_ * x_24_ + 1 x_60_ ^ 2 + 1 y_24_ ^ 2 - 2 y_60_ * y_24_ + 1 y_60_ ^ 2 ] >= 12835.35
quadratic_ranged_237_lb: [ 1 x_37_ ^ 2 - 2 x_60_ * x_37_ + 1 x_60_ ^ 2 + 1 y_37_ ^ 2 - 2 y_60_ * y_37_ + 1 y_60_ ^ 2 ] >= 144.54
quadratic_ranged_238_lb: [ 1 x_38_ ^ 2 - 2 x_60_ * x_38_ + 1 x_60_ ^ 2 + 1 y_38_ ^ 2 - 2 y_60_ * y_38_ + 1 y_60_ ^ 2 ] >= 7238.88
quadratic_ranged_239_lb: [ 1 x_45_ ^ 2 - 2 x_60_ * x_45_ + 1 x_60_ ^ 2 + 1 y_45_ ^ 2 - 2 y_60_ * y_45_ + 1 y_60_ ^ 2 ] >= 13437.27
quadratic_ranged_240_lb: [ 1 x_53_ ^ 2 - 2 x_60_ * x_53_ + 1 x_60_ ^ 2 + 1 y_53_ ^ 2 - 2 y_60_ * y_53_ + 1 y_60_ ^ 2 ] >= 22517.55
quadratic_ranged_241_lb: [ 1 x_59_ ^ 2 - 2 x_60_ * x_59_ + 1 x_60_ ^ 2 + 1 y_59_ ^ 2 - 2 y_60_ * y_59_ + 1 y_60_ ^ 2 ] >= 23809.5
quadratic_ranged_242_lb: [ 1 x_2_ ^ 2 - 2 x_61_ * x_2_ + 1 x_61_ ^ 2 + 1 y_2_ ^ 2 - 2 y_61_ * y_2_ + 1 y_61_ ^ 2 ] >= 35439.03
quadratic_ranged_243_lb: [ 1 x_29_ ^ 2 - 2 x_61_ * x_29_ + 1 x_61_ ^ 2 + 1 y_29_ ^ 2 - 2 y_61_ * y_29_ + 1 y_61_ ^ 2 ] >= 28088.28
quadratic_ranged_244_lb: [ 1 x_57_ ^ 2 - 2 x_61_ * x_57_ + 1 x_61_ ^ 2 + 1 y_57_ ^ 2 - 2 y_61_ * y_57_ + 1 y_61_ ^ 2 ] >= 7272.54
quadratic_ranged_245_lb: [ 1 x_59_ ^ 2 - 2 x_61_ * x_59_ + 1 x_61_ ^ 2 + 1 y_59_ ^ 2 - 2 y_61_ * y_59_ + 1 y_61_ ^ 2 ] >= 13413.51
quadratic_ranged_246_lb: [ 1 x_60_ ^ 2 - 2 x_61_ * x_60_ + 1 x_61_ ^ 2 + 1 y_60_ ^ 2 - 2 y_61_ * y_60_ + 1 y_61_ ^ 2 ] >= 41703.75
quadratic_ranged_247_lb: [ 1 x_4_ ^ 2 - 2 x_62_ * x_4_ + 1 x_62_ ^ 2 + 1 y_4_ ^ 2 - 2 y_62_ * y_4_ + 1 y_62_ ^ 2 ] >= 24655.95
quadratic_ranged_248_lb: [ 1 x_5_ ^ 2 - 2 x_62_ * x_5_ + 1 x_62_ ^ 2 + 1 y_5_ ^ 2 - 2 y_62_ * y_5_ + 1 y_62_ ^ 2 ] >= 9873.27
quadratic_ranged_249_lb: [ 1 x_7_ ^ 2 - 2 x_62_ * x_7_ + 1 x_62_ ^ 2 + 1 y_7_ ^ 2 - 2 y_62_ * y_7_ + 1 y_62_ ^ 2 ] >= 16993.35
quadratic_ranged_250_lb: [ 1 x_17_ ^ 2 - 2 x_62_ * x_17_ + 1 x_62_ ^ 2 + 1 y_17_ ^ 2 - 2 y_62_ * y_17_ + 1 y_62_ ^ 2 ] >= 477.18
quadratic_ranged_251_lb: [ 1 x_23_ ^ 2 - 2 x_62_ * x_23_ + 1 x_62_ ^ 2 + 1 y_23_ ^ 2 - 2 y_62_ * y_23_ + 1 y_62_ ^ 2 ] >= 4064.94
quadratic_ranged_252_lb: [ 1 x_37_ ^ 2 - 2 x_62_ * x_37_ + 1 x_62_ ^ 2 + 1 y_37_ ^ 2 - 2 y_62_ * y_37_ + 1 y_62_ ^ 2 ] >= 13983.75
quadratic_ranged_253_lb: [ 1 x_43_ ^ 2 - 2 x_62_ * x_43_ + 1 x_62_ ^ 2 + 1 y_43_ ^ 2 - 2 y_62_ * y_43_ + 1 y_62_ ^ 2 ] >= 5648.94
quadratic_ranged_254_lb: [ 1 x_56_ ^ 2 - 2 x_62_ * x_56_ + 1 x_62_ ^ 2 + 1 y_56_ ^ 2 - 2 y_62_ * y_56_ + 1 y_62_ ^ 2 ] >= 6408.2699999999995
quadratic_ranged_255_lb: [ 1 x_61_ ^ 2 - 2 x_62_ * x_61_ + 1 x_62_ ^ 2 + 1 y_61_ ^ 2 - 2 y_62_ * y_61_ + 1 y_62_ ^ 2 ] >= 15699.42
quadratic_ranged_256_lb: [ 1 x_15_ ^ 2 - 2 x_63_ * x_15_ + 1 x_63_ ^ 2 + 1 y_15_ ^ 2 - 2 y_63_ * y_15_ + 1 y_63_ ^ 2 ] >= 15939.99
quadratic_ranged_257_lb: [ 1 x_21_ ^ 2 - 2 x_63_ * x_21_ + 1 x_63_ ^ 2 + 1 y_21_ ^ 2 - 2 y_63_ * y_21_ + 1 y_63_ ^ 2 ] >= 1791.9
quadratic_ranged_258_lb: [ 1 x_25_ ^ 2 - 2 x_63_ * x_25_ + 1 x_63_ ^ 2 + 1 y_25_ ^ 2 - 2 y_63_ * y_25_ + 1 y_63_ ^ 2 ] >= 11825.55
quadratic_ranged_259_lb: [ 1 x_38_ ^ 2 - 2 x_63_ * x_38_ + 1 x_63_ ^ 2 + 1 y_38_ ^ 2 - 2 y_63_ * y_38_ + 1 y_63_ ^ 2 ] >= 8848.62
quadratic_ranged_260_lb: [ 1 x_41_ ^ 2 - 2 x_63_ * x_41_ + 1 x_63_ ^ 2 + 1 y_41_ ^ 2 - 2 y_63_ * y_41_ + 1 y_63_ ^ 2 ] >= 42110.64
quadratic_ranged_261_lb: [ 1 x_62_ ^ 2 - 2 x_63_ * x_62_ + 1 x_63_ ^ 2 + 1 y_62_ ^ 2 - 2 y_63_ * y_62_ + 1 y_63_ ^ 2 ] >= 20886.03
quadratic_ranged_262_lb: [ 1 x_4_ ^ 2 - 2 x_64_ * x_4_ + 1 x_64_ ^ 2 + 1 y_4_ ^ 2 - 2 y_64_ * y_4_ + 1 y_64_ ^ 2 ] >= 1451.34
quadratic_ranged_263_lb: [ 1 x_30_ ^ 2 - 2 x_64_ * x_30_ + 1 x_64_ ^ 2 + 1 y_30_ ^ 2 - 2 y_64_ * y_30_ + 1 y_64_ ^ 2 ] >= 22996.71
quadratic_ranged_264_lb: [ 1 x_32_ ^ 2 - 2 x_64_ * x_32_ + 1 x_64_ ^ 2 + 1 y_32_ ^ 2 - 2 y_64_ * y_32_ + 1 y_64_ ^ 2 ] >= 16766.64
quadratic_ranged_265_lb: [ 1 x_56_ ^ 2 - 2 x_64_ * x_56_ + 1 x_64_ ^ 2 + 1 y_56_ ^ 2 - 2 y_64_ * y_56_ + 1 y_64_ ^ 2 ] >= 20435.579999999998
quadratic_ranged_266_lb: [ 1 x_62_ ^ 2 - 2 x_64_ * x_62_ + 1 x_64_ ^ 2 + 1 y_62_ ^ 2 - 2 y_64_ * y_62_ + 1 y_64_ ^ 2 ] >= 14229.27
quadratic_ranged_267_lb: [ 1 x_63_ ^ 2 - 2 x_64_ * x_63_ + 1 x_64_ ^ 2 + 1 y_63_ ^ 2 - 2 y_64_ * y_63_ + 1 y_64_ ^ 2 ] >= 1287
quadratic_ranged_268_lb: [ 1 x_1_ ^ 2 - 2 x_65_ * x_1_ + 1 x_65_ ^ 2 + 1 y_1_ ^ 2 - 2 y_65_ * y_1_ + 1 y_65_ ^ 2 ] >= 2020.59
quadratic_ranged_269_lb: [ 1 x_24_ ^ 2 - 2 x_65_ * x_24_ + 1 x_65_ ^ 2 + 1 y_24_ ^ 2 - 2 y_65_ * y_24_ + 1 y_65_ ^ 2 ] >= 13583.789999999999
quadratic_ranged_270_lb: [ 1 x_27_ ^ 2 - 2 x_65_ * x_27_ + 1 x_65_ ^ 2 + 1 y_27_ ^ 2 - 2 y_65_ * y_27_ + 1 y_65_ ^ 2 ] >= 18300.15
quadratic_ranged_271_lb: [ 1 x_35_ ^ 2 - 2 x_65_ * x_35_ + 1 x_65_ ^ 2 + 1 y_35_ ^ 2 - 2 y_65_ * y_35_ + 1 y_65_ ^ 2 ] >= 2098.8
quadratic_ranged_272_lb: [ 1 x_36_ ^ 2 - 2 x_65_ * x_36_ + 1 x_65_ ^ 2 + 1 y_36_ ^ 2 - 2 y_65_ * y_36_ + 1 y_65_ ^ 2 ] >= 15232.14
quadratic_ranged_273_lb: [ 1 x_38_ ^ 2 - 2 x_65_ * x_38_ + 1 x_65_ ^ 2 + 1 y_38_ ^ 2 - 2 y_65_ * y_38_ + 1 y_65_ ^ 2 ] >= 2174.04
quadratic_ranged_274_lb: [ 1 x_64_ ^ 2 - 2 x_65_ * x_64_ + 1 x_65_ ^ 2 + 1 y_64_ ^ 2 - 2 y_65_ * y_64_ + 1 y_65_ ^ 2 ] >= 643.5
quadratic_ranged_275_lb: [ 1 x_11_ ^ 2 - 2 x_66_ * x_11_ + 1 x_66_ ^ 2 + 1 y_11_ ^ 2 - 2 y_66_ * y_11_ + 1 y_66_ ^ 2 ] >= 8154.63
quadratic_ranged_276_lb: [ 1 x_21_ ^ 2 - 2 x_66_ * x_21_ + 1 x_66_ ^ 2 + 1 y_21_ ^ 2 - 2 y_66_ * y_21_ + 1 y_66_ ^ 2 ] >= 669.24
quadratic_ranged_277_lb: [ 1 x_43_ ^ 2 - 2 x_66_ * x_43_ + 1 x_66_ ^ 2 + 1 y_43_ ^ 2 - 2 y_66_ * y_43_ + 1 y_66_ ^ 2 ] >= 47940.75
quadratic_ranged_278_lb: [ 1 x_64_ ^ 2 - 2 x_66_ * x_64_ + 1 x_66_ ^ 2 + 1 y_64_ ^ 2 - 2 y_66_ * y_64_ + 1 y_66_ ^ 2 ] >= 2900.7
quadratic_ranged_279_lb: [ 1 x_65_ ^ 2 - 2 x_66_ * x_65_ + 1 x_66_ ^ 2 + 1 y_65_ ^ 2 - 2 y_66_ * y_65_ + 1 y_66_ ^ 2 ] >= 5658.84
quadratic_ranged_280_lb: [ 1 x_2_ ^ 2 - 2 x_67_ * x_2_ + 1 x_67_ ^ 2 + 1 y_2_ ^ 2 - 2 y_67_ * y_2_ + 1 y_67_ ^ 2 ] >= 10518.75
quadratic_ranged_281_lb: [ 1 x_18_ ^ 2 - 2 x_67_ * x_18_ + 1 x_67_ ^ 2 + 1 y_18_ ^ 2 - 2 y_67_ * y_18_ + 1 y_67_ ^ 2 ] >= 4016.43
quadratic_ranged_282_lb: [ 1 x_33_ ^ 2 - 2 x_67_ * x_33_ + 1 x_67_ ^ 2 + 1 y_33_ ^ 2 - 2 y_67_ * y_33_ + 1 y_67_ ^ 2 ] >= 20197.98
quadratic_ranged_283_lb: [ 1 x_35_ ^ 2 - 2 x_67_ * x_35_ + 1 x_67_ ^ 2 + 1 y_35_ ^ 2 - 2 y_67_ * y_35_ + 1 y_67_ ^ 2 ] >= 2638.35
quadratic_ranged_284_lb: [ 1 x_66_ ^ 2 - 2 x_67_ * x_66_ + 1 x_67_ ^ 2 + 1 y_66_ ^ 2 - 2 y_67_ * y_66_ + 1 y_67_ ^ 2 ] >= 5255.91
quadratic_ranged_285_lb: [ 1 x_10_ ^ 2 - 2 x_68_ * x_10_ + 1 x_68_ ^ 2 + 1 y_10_ ^ 2 - 2 y_68_ * y_10_ + 1 y_68_ ^ 2 ] >= 8625.87
quadratic_ranged_286_lb: [ 1 x_16_ ^ 2 - 2 x_68_ * x_16_ + 1 x_68_ ^ 2 + 1 y_16_ ^ 2 - 2 y_68_ * y_16_ + 1 y_68_ ^ 2 ] >= 1443.42
quadratic_ranged_287_lb: [ 1 x_31_ ^ 2 - 2 x_68_ * x_31_ + 1 x_68_ ^ 2 + 1 y_31_ ^ 2 - 2 y_68_ * y_31_ + 1 y_68_ ^ 2 ] >= 765.27
quadratic_ranged_288_lb: [ 1 x_45_ ^ 2 - 2 x_68_ * x_45_ + 1 x_68_ ^ 2 + 1 y_45_ ^ 2 - 2 y_68_ * y_45_ + 1 y_68_ ^ 2 ] >= 3889.71
quadratic_ranged_289_lb: [ 1 x_54_ ^ 2 - 2 x_68_ * x_54_ + 1 x_68_ ^ 2 + 1 y_54_ ^ 2 - 2 y_68_ * y_54_ + 1 y_68_ ^ 2 ] >= 13949.1
quadratic_ranged_290_lb: [ 1 x_63_ ^ 2 - 2 x_68_ * x_63_ + 1 x_68_ ^ 2 + 1 y_63_ ^ 2 - 2 y_68_ * y_63_ + 1 y_68_ ^ 2 ] >= 9440.64
quadratic_ranged_291_lb: [ 1 x_67_ ^ 2 - 2 x_68_ * x_67_ + 1 x_68_ ^ 2 + 1 y_67_ ^ 2 - 2 y_68_ * y_67_ + 1 y_68_ ^ 2 ] >= 8261.55
quadratic_ranged_292_lb: [ 1 x_3_ ^ 2 - 2 x_69_ * x_3_ + 1 x_69_ ^ 2 + 1 y_3_ ^ 2 - 2 y_69_ * y_3_ + 1 y_69_ ^ 2 ] >= 2448.27
quadratic_ranged_293_lb: [ 1 x_5_ ^ 2 - 2 x_69_ * x_5_ + 1 x_69_ ^ 2 + 1 y_5_ ^ 2 - 2 y_69_ * y_5_ + 1 y_69_ ^ 2 ] >= 3509.55
quadratic_ranged_294_lb: [ 1 x_12_ ^ 2 - 2 x_69_ * x_12_ + 1 x_69_ ^ 2 + 1 y_12_ ^ 2 - 2 y_69_ * y_12_ + 1 y_69_ ^ 2 ] >= 9647.55
quadratic_ranged_295_lb: [ 1 x_22_ ^ 2 - 2 x_69_ * x_22_ + 1 x_69_ ^ 2 + 1 y_22_ ^ 2 - 2 y_69_ * y_22_ + 1 y_69_ ^ 2 ] >= 29110.95
quadratic_ranged_296_lb: [ 1 x_29_ ^ 2 - 2 x_69_ * x_29_ + 1 x_69_ ^ 2 + 1 y_29_ ^ 2 - 2 y_69_ * y_29_ + 1 y_69_ ^ 2 ] >= 17265.6
quadratic_ranged_297_lb: [ 1 x_50_ ^ 2 - 2 x_69_ * x_50_ + 1 x_69_ ^ 2 + 1 y_50_ ^ 2 - 2 y_69_ * y_50_ + 1 y_69_ ^ 2 ] >= 5465.79
quadratic_ranged_298_lb: [ 1 x_57_ ^ 2 - 2 x_69_ * x_57_ + 1 x_69_ ^ 2 + 1 y_57_ ^ 2 - 2 y_69_ * y_57_ + 1 y_69_ ^ 2 ] >= 9703.98
quadratic_ranged_299_lb: [ 1 x_68_ ^ 2 - 2 x_69_ * x_68_ + 1 x_69_ ^ 2 + 1 y_68_ ^ 2 - 2 y_69_ * y_68_ + 1 y_69_ ^ 2 ] >= 7489.35
quadratic_ranged_300_lb: [ 1 x_29_ ^ 2 - 2 x_70_ * x_29_ + 1 x_70_ ^ 2 + 1 y_29_ ^ 2 - 2 y_70_ * y_29_ + 1 y_70_ ^ 2 ] >= 32496.75
quadratic_ranged_301_lb: [ 1 x_32_ ^ 2 - 2 x_70_ * x_32_ + 1 x_70_ ^ 2 + 1 y_32_ ^ 2 - 2 y_70_ * y_32_ + 1 y_70_ ^ 2 ] >= 160.38
quadratic_ranged_302_lb: [ 1 x_39_ ^ 2 - 2 x_70_ * x_39_ + 1 x_70_ ^ 2 + 1 y_39_ ^ 2 - 2 y_70_ * y_39_ + 1 y_70_ ^ 2 ] >= 11858.22
quadratic_ranged_303_lb: [ 1 x_69_ ^ 2 - 2 x_70_ * x_69_ + 1 x_70_ ^ 2 + 1 y_69_ ^ 2 - 2 y_70_ * y_69_ + 1 y_70_ ^ 2 ] >= 12261.15
quadratic_ranged_304_lb: [ 1 x_5_ ^ 2 - 2 x_71_ * x_5_ + 1 x_71_ ^ 2 + 1 y_5_ ^ 2 - 2 y_71_ * y_5_ + 1 y_71_ ^ 2 ] >= 399.96
quadratic_ranged_305_lb: [ 1 x_11_ ^ 2 - 2 x_71_ * x_11_ + 1 x_71_ ^ 2 + 1 y_11_ ^ 2 - 2 y_71_ * y_11_ + 1 y_71_ ^ 2 ] >= 1430.55
quadratic_ranged_306_lb: [ 1 x_13_ ^ 2 - 2 x_71_ * x_13_ + 1 x_71_ ^ 2 + 1 y_13_ ^ 2 - 2 y_71_ * y_13_ + 1 y_71_ ^ 2 ] >= 7548.75
quadratic_ranged_307_lb: [ 1 x_16_ ^ 2 - 2 x_71_ * x_16_ + 1 x_71_ ^ 2 + 1 y_16_ ^ 2 - 2 y_71_ * y_16_ + 1 y_71_ ^ 2 ] >= 19974.24
quadratic_ranged_308_lb: [ 1 x_31_ ^ 2 - 2 x_71_ * x_31_ + 1 x_71_ ^ 2 + 1 y_31_ ^ 2 - 2 y_71_ * y_31_ + 1 y_71_ ^ 2 ] >= 8594.19
quadratic_ranged_309_lb: [ 1 x_44_ ^ 2 - 2 x_71_ * x_44_ + 1 x_71_ ^ 2 + 1 y_44_ ^ 2 - 2 y_71_ * y_44_ + 1 y_71_ ^ 2 ] >= 1632.51
quadratic_ranged_310_lb: [ 1 x_50_ ^ 2 - 2 x_71_ * x_50_ + 1 x_71_ ^ 2 + 1 y_50_ ^ 2 - 2 y_71_ * y_50_ + 1 y_71_ ^ 2 ] >= 9139.68
quadratic_ranged_311_lb: [ 1 x_65_ ^ 2 - 2 x_71_ * x_65_ + 1 x_71_ ^ 2 + 1 y_65_ ^ 2 - 2 y_71_ * y_65_ + 1 y_71_ ^ 2 ] >= 1017.72
quadratic_ranged_312_lb: [ 1 x_70_ ^ 2 - 2 x_71_ * x_70_ + 1 x_71_ ^ 2 + 1 y_70_ ^ 2 - 2 y_71_ * y_70_ + 1 y_71_ ^ 2 ] >= 21546.36
quadratic_ranged_313_lb: [ 1 x_21_ ^ 2 - 2 x_72_ * x_21_ + 1 x_72_ ^ 2 + 1 y_21_ ^ 2 - 2 y_72_ * y_21_ + 1 y_72_ ^ 2 ] >= 22513.59
quadratic_ranged_314_lb: [ 1 x_49_ ^ 2 - 2 x_72_ * x_49_ + 1 x_72_ ^ 2 + 1 y_49_ ^ 2 - 2 y_72_ * y_49_ + 1 y_72_ ^ 2 ] >= 7702.2
quadratic_ranged_315_lb: [ 1 x_52_ ^ 2 - 2 x_72_ * x_52_ + 1 x_72_ ^ 2 + 1 y_52_ ^ 2 - 2 y_72_ * y_52_ + 1 y_72_ ^ 2 ] >= 14337.18
quadratic_ranged_316_lb: [ 1 x_64_ ^ 2 - 2 x_72_ * x_64_ + 1 x_72_ ^ 2 + 1 y_64_ ^ 2 - 2 y_72_ * y_64_ + 1 y_72_ ^ 2 ] >= 15730.11
quadratic_ranged_317_lb: [ 1 x_65_ ^ 2 - 2 x_72_ * x_65_ + 1 x_72_ ^ 2 + 1 y_65_ ^ 2 - 2 y_72_ * y_65_ + 1 y_72_ ^ 2 ] >= 10039.59
quadratic_ranged_318_lb: [ 1 x_71_ ^ 2 - 2 x_72_ * x_71_ + 1 x_72_ ^ 2 + 1 y_71_ ^ 2 - 2 y_72_ * y_71_ + 1 y_72_ ^ 2 ] >= 14142.15
quadratic_ranged_319_lb: [ 1 x_4_ ^ 2 - 2 x_73_ * x_4_ + 1 x_73_ ^ 2 + 1 y_4_ ^ 2 - 2 y_73_ * y_4_ + 1 y_73_ ^ 2 ] >= 11485.98
quadratic_ranged_320_lb: [ 1 x_6_ ^ 2 - 2 x_73_ * x_6_ + 1 x_73_ ^ 2 + 1 y_6_ ^ 2 - 2 y_73_ * y_6_ + 1 y_73_ ^ 2 ] >= 262.35
quadratic_ranged_321_lb: [ 1 x_7_ ^ 2 - 2 x_73_ * x_7_ + 1 x_73_ ^ 2 + 1 y_7_ ^ 2 - 2 y_73_ * y_7_ + 1 y_73_ ^ 2 ] >= 6852.78
quadratic_ranged_322_lb: [ 1 x_8_ ^ 2 - 2 x_73_ * x_8_ + 1 x_73_ ^ 2 + 1 y_8_ ^ 2 - 2 y_73_ * y_8_ + 1 y_73_ ^ 2 ] >= 13701.6
quadratic_ranged_323_lb: [ 1 x_19_ ^ 2 - 2 x_73_ * x_19_ + 1 x_73_ ^ 2 + 1 y_19_ ^ 2 - 2 y_73_ * y_19_ + 1 y_73_ ^ 2 ] >= 4563.9
quadratic_ranged_324_lb: [ 1 x_42_ ^ 2 - 2 x_73_ * x_42_ + 1 x_73_ ^ 2 + 1 y_42_ ^ 2 - 2 y_73_ * y_42_ + 1 y_73_ ^ 2 ] >= 8181.36
quadratic_ranged_325_lb: [ 1 x_48_ ^ 2 - 2 x_73_ * x_48_ + 1 x_73_ ^ 2 + 1 y_48_ ^ 2 - 2 y_73_ * y_48_ + 1 y_73_ ^ 2 ] >= 2764.08
quadratic_ranged_326_lb: [ 1 x_50_ ^ 2 - 2 x_73_ * x_50_ + 1 x_73_ ^ 2 + 1 y_50_ ^ 2 - 2 y_73_ * y_50_ + 1 y_73_ ^ 2 ] >= 1356.3
quadratic_ranged_327_lb: [ 1 x_52_ ^ 2 - 2 x_73_ * x_52_ + 1 x_73_ ^ 2 + 1 y_52_ ^ 2 - 2 y_73_ * y_52_ + 1 y_73_ ^ 2 ] >= 19353.51
quadratic_ranged_328_lb: [ 1 x_58_ ^ 2 - 2 x_73_ * x_58_ + 1 x_73_ ^ 2 + 1 y_58_ ^ 2 - 2 y_73_ * y_58_ + 1 y_73_ ^ 2 ] >= 6416.19
quadratic_ranged_329_lb: [ 1 x_66_ ^ 2 - 2 x_73_ * x_66_ + 1 x_73_ ^ 2 + 1 y_66_ ^ 2 - 2 y_73_ * y_66_ + 1 y_73_ ^ 2 ] >= 14503.5
quadratic_ranged_330_lb: [ 1 x_72_ ^ 2 - 2 x_73_ * x_72_ + 1 x_73_ ^ 2 + 1 y_72_ ^ 2 - 2 y_73_ * y_72_ + 1 y_73_ ^ 2 ] >= 3462.0299999999997
quadratic_ranged_331_lb: [ 1 x_4_ ^ 2 - 2 x_74_ * x_4_ + 1 x_74_ ^ 2 + 1 y_4_ ^ 2 - 2 y_74_ * y_4_ + 1 y_74_ ^ 2 ] >= 1794.87
quadratic_ranged_332_lb: [ 1 x_8_ ^ 2 - 2 x_74_ * x_8_ + 1 x_74_ ^ 2 + 1 y_8_ ^ 2 - 2 y_74_ * y_8_ + 1 y_74_ ^ 2 ] >= 35023.23
quadratic_ranged_333_lb: [ 1 x_20_ ^ 2 - 2 x_74_ * x_20_ + 1 x_74_ ^ 2 + 1 y_20_ ^ 2 - 2 y_74_ * y_20_ + 1 y_74_ ^ 2 ] >= 28710
quadratic_ranged_334_lb: [ 1 x_28_ ^ 2 - 2 x_74_ * x_28_ + 1 x_74_ ^ 2 + 1 y_28_ ^ 2 - 2 y_74_ * y_28_ + 1 y_74_ ^ 2 ] >= 22265.1
quadratic_ranged_335_lb: [ 1 x_50_ ^ 2 - 2 x_74_ * x_50_ + 1 x_74_ ^ 2 + 1 y_50_ ^ 2 - 2 y_74_ * y_50_ + 1 y_74_ ^ 2 ] >= 7513.11
quadratic_ranged_336_lb: [ 1 x_62_ ^ 2 - 2 x_74_ * x_62_ + 1 x_74_ ^ 2 + 1 y_62_ ^ 2 - 2 y_74_ * y_62_ + 1 y_74_ ^ 2 ] >= 20948.4
quadratic_ranged_337_lb: [ 1 x_65_ ^ 2 - 2 x_74_ * x_65_ + 1 x_74_ ^ 2 + 1 y_65_ ^ 2 - 2 y_74_ * y_65_ + 1 y_74_ ^ 2 ] >= 3481.83
quadratic_ranged_338_lb: [ 1 x_66_ ^ 2 - 2 x_74_ * x_66_ + 1 x_74_ ^ 2 + 1 y_66_ ^ 2 - 2 y_74_ * y_66_ + 1 y_74_ ^ 2 ] >= 4479.75
quadratic_ranged_339_lb: [ 1 x_73_ ^ 2 - 2 x_74_ * x_73_ + 1 x_74_ ^ 2 + 1 y_73_ ^ 2 - 2 y_74_ * y_73_ + 1 y_74_ ^ 2 ] >= 8499.15
quadratic_ranged_340_lb: [ 1 x_10_ ^ 2 - 2 x_75_ * x_10_ + 1 x_75_ ^ 2 + 1 y_10_ ^ 2 - 2 y_75_ * y_10_ + 1 y_75_ ^ 2 ] >= 10170.27
quadratic_ranged_341_lb: [ 1 x_13_ ^ 2 - 2 x_75_ * x_13_ + 1 x_75_ ^ 2 + 1 y_13_ ^ 2 - 2 y_75_ * y_13_ + 1 y_75_ ^ 2 ] >= 12075.03
quadratic_ranged_342_lb: [ 1 x_30_ ^ 2 - 2 x_75_ * x_30_ + 1 x_75_ ^ 2 + 1 y_30_ ^ 2 - 2 y_75_ * y_30_ + 1 y_75_ ^ 2 ] >= 17575.47
quadratic_ranged_343_lb: [ 1 x_73_ ^ 2 - 2 x_75_ * x_73_ + 1 x_75_ ^ 2 + 1 y_73_ ^ 2 - 2 y_75_ * y_73_ + 1 y_75_ ^ 2 ] >= 9603
quadratic_ranged_344_lb: [ 1 x_74_ ^ 2 - 2 x_75_ * x_74_ + 1 x_75_ ^ 2 + 1 y_74_ ^ 2 - 2 y_75_ * y_74_ + 1 y_75_ ^ 2 ] >= 4717.35
quadratic_ranged_345_lb: [ 1 x_12_ ^ 2 - 2 x_76_ * x_12_ + 1 x_76_ ^ 2 + 1 y_12_ ^ 2 - 2 y_76_ * y_12_ + 1 y_76_ ^ 2 ] >= 15032.16
quadratic_ranged_346_lb: [ 1 x_38_ ^ 2 - 2 x_76_ * x_38_ + 1 x_76_ ^ 2 + 1 y_38_ ^ 2 - 2 y_76_ * y_38_ + 1 y_76_ ^ 2 ] >= 7876.44
quadratic_ranged_347_lb: [ 1 x_41_ ^ 2 - 2 x_76_ * x_41_ + 1 x_76_ ^ 2 + 1 y_41_ ^ 2 - 2 y_76_ * y_41_ + 1 y_76_ ^ 2 ] >= 41985.9
quadratic_ranged_348_lb: [ 1 x_50_ ^ 2 - 2 x_76_ * x_50_ + 1 x_76_ ^ 2 + 1 y_50_ ^ 2 - 2 y_76_ * y_50_ + 1 y_76_ ^ 2 ] >= 8415
quadratic_ranged_349_lb: [ 1 x_66_ ^ 2 - 2 x_76_ * x_66_ + 1 x_76_ ^ 2 + 1 y_66_ ^ 2 - 2 y_76_ * y_66_ + 1 y_76_ ^ 2 ] >= 2950.2
quadratic_ranged_350_lb: [ 1 x_67_ ^ 2 - 2 x_76_ * x_67_ + 1 x_76_ ^ 2 + 1 y_67_ ^ 2 - 2 y_76_ * y_67_ + 1 y_76_ ^ 2 ] >= 3699.63
quadratic_ranged_351_lb: [ 1 x_69_ ^ 2 - 2 x_76_ * x_69_ + 1 x_76_ ^ 2 + 1 y_69_ ^ 2 - 2 y_76_ * y_69_ + 1 y_76_ ^ 2 ] >= 594.99
quadratic_ranged_352_lb: [ 1 x_75_ ^ 2 - 2 x_76_ * x_75_ + 1 x_76_ ^ 2 + 1 y_75_ ^ 2 - 2 y_76_ * y_75_ + 1 y_76_ ^ 2 ] >= 6543.9
quadratic_ranged_353_lb: [ 1 x_7_ ^ 2 - 2 x_77_ * x_7_ + 1 x_77_ ^ 2 + 1 y_7_ ^ 2 - 2 y_77_ * y_7_ + 1 y_77_ ^ 2 ] >= 5810.31
quadratic_ranged_354_lb: [ 1 x_26_ ^ 2 - 2 x_77_ * x_26_ + 1 x_77_ ^ 2 + 1 y_26_ ^ 2 - 2 y_77_ * y_26_ + 1 y_77_ ^ 2 ] >= 5335.11
quadratic_ranged_355_lb: [ 1 x_28_ ^ 2 - 2 x_77_ * x_28_ + 1 x_77_ ^ 2 + 1 y_28_ ^ 2 - 2 y_77_ * y_28_ + 1 y_77_ ^ 2 ] >= 9523.8
quadratic_ranged_356_lb: [ 1 x_45_ ^ 2 - 2 x_77_ * x_45_ + 1 x_77_ ^ 2 + 1 y_45_ ^ 2 - 2 y_77_ * y_45_ + 1 y_77_ ^ 2 ] >= 3019.5
quadratic_ranged_357_lb: [ 1 x_50_ ^ 2 - 2 x_77_ * x_50_ + 1 x_77_ ^ 2 + 1 y_50_ ^ 2 - 2 y_77_ * y_50_ + 1 y_77_ ^ 2 ] >= 3010.59
quadratic_ranged_358_lb: [ 1 x_56_ ^ 2 - 2 x_77_ * x_56_ + 1 x_77_ ^ 2 + 1 y_56_ ^ 2 - 2 y_77_ * y_56_ + 1 y_77_ ^ 2 ] >= 12867.03
quadratic_ranged_359_lb: [ 1 x_76_ ^ 2 - 2 x_77_ * x_76_ + 1 x_77_ ^ 2 + 1 y_76_ ^ 2 - 2 y_77_ * y_76_ + 1 y_77_ ^ 2 ] >= 4277.79
quadratic_ranged_360_lb: [ 1 x_7_ ^ 2 - 2 x_78_ * x_7_ + 1 x_78_ ^ 2 + 1 y_7_ ^ 2 - 2 y_78_ * y_7_ + 1 y_78_ ^ 2 ] >= 4863.87
quadratic_ranged_361_lb: [ 1 x_18_ ^ 2 - 2 x_78_ * x_18_ + 1 x_78_ ^ 2 + 1 y_18_ ^ 2 - 2 y_78_ * y_18_ + 1 y_78_ ^ 2 ] >= 6273.63
quadratic_ranged_362_lb: [ 1 x_19_ ^ 2 - 2 x_78_ * x_19_ + 1 x_78_ ^ 2 + 1 y_19_ ^ 2 - 2 y_78_ * y_19_ + 1 y_78_ ^ 2 ] >= 1668.15
quadratic_ranged_363_lb: [ 1 x_25_ ^ 2 - 2 x_78_ * x_25_ + 1 x_78_ ^ 2 + 1 y_25_ ^ 2 - 2 y_78_ * y_25_ + 1 y_78_ ^ 2 ] >= 4914.36
quadratic_ranged_364_lb: [ 1 x_33_ ^ 2 - 2 x_78_ * x_33_ + 1 x_78_ ^ 2 + 1 y_33_ ^ 2 - 2 y_78_ * y_33_ + 1 y_78_ ^ 2 ] >= 20483.1
quadratic_ranged_365_lb: [ 1 x_36_ ^ 2 - 2 x_78_ * x_36_ + 1 x_78_ ^ 2 + 1 y_36_ ^ 2 - 2 y_78_ * y_36_ + 1 y_78_ ^ 2 ] >= 16300.35
quadratic_ranged_366_lb: [ 1 x_42_ ^ 2 - 2 x_78_ * x_42_ + 1 x_78_ ^ 2 + 1 y_42_ ^ 2 - 2 y_78_ * y_42_ + 1 y_78_ ^ 2 ] >= 9734.67
quadratic_ranged_367_lb: [ 1 x_62_ ^ 2 - 2 x_78_ * x_62_ + 1 x_78_ ^ 2 + 1 y_62_ ^ 2 - 2 y_78_ * y_62_ + 1 y_78_ ^ 2 ] >= 9460.44
quadratic_ranged_368_lb: [ 1 x_77_ ^ 2 - 2 x_78_ * x_77_ + 1 x_78_ ^ 2 + 1 y_77_ ^ 2 - 2 y_78_ * y_77_ + 1 y_78_ ^ 2 ] >= 271.26
quadratic_ranged_369_lb: [ 1 x_14_ ^ 2 - 2 x_79_ * x_14_ + 1 x_79_ ^ 2 + 1 y_14_ ^ 2 - 2 y_79_ * y_14_ + 1 y_79_ ^ 2 ] >= 24688.62
quadratic_ranged_370_lb: [ 1 x_24_ ^ 2 - 2 x_79_ * x_24_ + 1 x_79_ ^ 2 + 1 y_24_ ^ 2 - 2 y_79_ * y_24_ + 1 y_79_ ^ 2 ] >= 11266.2
quadratic_ranged_371_lb: [ 1 x_31_ ^ 2 - 2 x_79_ * x_31_ + 1 x_79_ ^ 2 + 1 y_31_ ^ 2 - 2 y_79_ * y_31_ + 1 y_79_ ^ 2 ] >= 27438.84
quadratic_ranged_372_lb: [ 1 x_36_ ^ 2 - 2 x_79_ * x_36_ + 1 x_79_ ^ 2 + 1 y_36_ ^ 2 - 2 y_79_ * y_36_ + 1 y_79_ ^ 2 ] >= 6384.51
quadratic_ranged_373_lb: [ 1 x_43_ ^ 2 - 2 x_79_ * x_43_ + 1 x_79_ ^ 2 + 1 y_43_ ^ 2 - 2 y_79_ * y_43_ + 1 y_79_ ^ 2 ] >= 31034.52
quadratic_ranged_374_lb: [ 1 x_54_ ^ 2 - 2 x_79_ * x_54_ + 1 x_79_ ^ 2 + 1 y_54_ ^ 2 - 2 y_79_ * y_54_ + 1 y_79_ ^ 2 ] >= 29811.87
quadratic_ranged_375_lb: [ 1 x_63_ ^ 2 - 2 x_79_ * x_63_ + 1 x_79_ ^ 2 + 1 y_63_ ^ 2 - 2 y_79_ * y_63_ + 1 y_79_ ^ 2 ] >= 30370.23
quadratic_ranged_376_lb: [ 1 x_76_ ^ 2 - 2 x_79_ * x_76_ + 1 x_79_ ^ 2 + 1 y_76_ ^ 2 - 2 y_79_ * y_76_ + 1 y_79_ ^ 2 ] >= 28786.23
quadratic_ranged_377_lb: [ 1 x_78_ ^ 2 - 2 x_79_ * x_78_ + 1 x_79_ ^ 2 + 1 y_78_ ^ 2 - 2 y_79_ * y_78_ + 1 y_79_ ^ 2 ] >= 15739.02
quadratic_ranged_378_lb: [ 1 x_6_ ^ 2 - 2 x_80_ * x_6_ + 1 x_80_ ^ 2 + 1 y_6_ ^ 2 - 2 y_80_ * y_6_ + 1 y_80_ ^ 2 ] >= 5073.75
quadratic_ranged_379_lb: [ 1 x_9_ ^ 2 - 2 x_80_ * x_9_ + 1 x_80_ ^ 2 + 1 y_9_ ^ 2 - 2 y_80_ * y_9_ + 1 y_80_ ^ 2 ] >= 18742.68
quadratic_ranged_380_lb: [ 1 x_12_ ^ 2 - 2 x_80_ * x_12_ + 1 x_80_ ^ 2 + 1 y_12_ ^ 2 - 2 y_80_ * y_12_ + 1 y_80_ ^ 2 ] >= 1211.76
quadratic_ranged_381_lb: [ 1 x_23_ ^ 2 - 2 x_80_ * x_23_ + 1 x_80_ ^ 2 + 1 y_23_ ^ 2 - 2 y_80_ * y_23_ + 1 y_80_ ^ 2 ] >= 13080.869999999999
quadratic_ranged_382_lb: [ 1 x_28_ ^ 2 - 2 x_80_ * x_28_ + 1 x_80_ ^ 2 + 1 y_28_ ^ 2 - 2 y_80_ * y_28_ + 1 y_80_ ^ 2 ] >= 5560.83
quadratic_ranged_383_lb: [ 1 x_34_ ^ 2 - 2 x_80_ * x_34_ + 1 x_80_ ^ 2 + 1 y_34_ ^ 2 - 2 y_80_ * y_34_ + 1 y_80_ ^ 2 ] >= 5885.55
quadratic_ranged_384_lb: [ 1 x_42_ ^ 2 - 2 x_80_ * x_42_ + 1 x_80_ ^ 2 + 1 y_42_ ^ 2 - 2 y_80_ * y_42_ + 1 y_80_ ^ 2 ] >= 1585.98
quadratic_ranged_385_lb: [ 1 x_50_ ^ 2 - 2 x_80_ * x_50_ + 1 x_80_ ^ 2 + 1 y_50_ ^ 2 - 2 y_80_ * y_50_ + 1 y_80_ ^ 2 ] >= 11583
quadratic_ranged_386_lb: [ 1 x_61_ ^ 2 - 2 x_80_ * x_61_ + 1 x_80_ ^ 2 + 1 y_61_ ^ 2 - 2 y_80_ * y_61_ + 1 y_80_ ^ 2 ] >= 24972.75
quadratic_ranged_387_lb: [ 1 x_62_ ^ 2 - 2 x_80_ * x_62_ + 1 x_80_ ^ 2 + 1 y_62_ ^ 2 - 2 y_80_ * y_62_ + 1 y_80_ ^ 2 ] >= 2567.07
quadratic_ranged_388_lb: [ 1 x_73_ ^ 2 - 2 x_80_ * x_73_ + 1 x_80_ ^ 2 + 1 y_73_ ^ 2 - 2 y_80_ * y_73_ + 1 y_80_ ^ 2 ] >= 5395.5
quadratic_ranged_389_lb: [ 1 x_79_ ^ 2 - 2 x_80_ * x_79_ + 1 x_80_ ^ 2 + 1 y_79_ ^ 2 - 2 y_80_ * y_79_ + 1 y_80_ ^ 2 ] >= 2630.43
quadratic_ranged_390_lb: [ 1 x_8_ ^ 2 - 2 x_81_ * x_8_ + 1 x_81_ ^ 2 + 1 y_8_ ^ 2 - 2 y_81_ * y_8_ + 1 y_81_ ^ 2 ] >= 22623.48
quadratic_ranged_391_lb: [ 1 x_36_ ^ 2 - 2 x_81_ * x_36_ + 1 x_81_ ^ 2 + 1 y_36_ ^ 2 - 2 y_81_ * y_36_ + 1 y_81_ ^ 2 ] >= 7302.24
quadratic_ranged_392_lb: [ 1 x_60_ ^ 2 - 2 x_81_ * x_60_ + 1 x_81_ ^ 2 + 1 y_60_ ^ 2 - 2 y_81_ * y_60_ + 1 y_81_ ^ 2 ] >= 27516.06
quadratic_ranged_393_lb: [ 1 x_68_ ^ 2 - 2 x_81_ * x_68_ + 1 x_81_ ^ 2 + 1 y_68_ ^ 2 - 2 y_81_ * y_68_ + 1 y_81_ ^ 2 ] >= 7227
quadratic_ranged_394_lb: [ 1 x_80_ ^ 2 - 2 x_81_ * x_80_ + 1 x_81_ ^ 2 + 1 y_80_ ^ 2 - 2 y_81_ * y_80_ + 1 y_81_ ^ 2 ] >= 11620.62
quadratic_ranged_395_lb: [ 1 x_13_ ^ 2 - 2 x_82_ * x_13_ + 1 x_82_ ^ 2 + 1 y_13_ ^ 2 - 2 y_82_ * y_13_ + 1 y_82_ ^ 2 ] >= 1093.95
quadratic_ranged_396_lb: [ 1 x_23_ ^ 2 - 2 x_82_ * x_23_ + 1 x_82_ ^ 2 + 1 y_23_ ^ 2 - 2 y_82_ * y_23_ + 1 y_82_ ^ 2 ] >= 9924.75
quadratic_ranged_397_lb: [ 1 x_58_ ^ 2 - 2 x_82_ * x_58_ + 1 x_82_ ^ 2 + 1 y_58_ ^ 2 - 2 y_82_ * y_58_ + 1 y_82_ ^ 2 ] >= 10122.75
quadratic_ranged_398_lb: [ 1 x_59_ ^ 2 - 2 x_82_ * x_59_ + 1 x_82_ ^ 2 + 1 y_59_ ^ 2 - 2 y_82_ * y_59_ + 1 y_82_ ^ 2 ] >= 7801.2
quadratic_ranged_399_lb: [ 1 x_78_ ^ 2 - 2 x_82_ * x_78_ + 1 x_82_ ^ 2 + 1 y_78_ ^ 2 - 2 y_82_ * y_78_ + 1 y_82_ ^ 2 ] >= 2967.03
quadratic_ranged_400_lb: [ 1 x_81_ ^ 2 - 2 x_82_ * x_81_ + 1 x_82_ ^ 2 + 1 y_81_ ^ 2 - 2 y_82_ * y_81_ + 1 y_82_ ^ 2 ] >= 10791
quadratic_ranged_401_lb: [ 1 x_10_ ^ 2 - 2 x_83_ * x_10_ + 1 x_83_ ^ 2 + 1 y_10_ ^ 2 - 2 y_83_ * y_10_ + 1 y_83_ ^ 2 ] >= 4260.96
quadratic_ranged_402_lb: [ 1 x_19_ ^ 2 - 2 x_83_ * x_19_ + 1 x_83_ ^ 2 + 1 y_19_ ^ 2 - 2 y_83_ * y_19_ + 1 y_83_ ^ 2 ] >= 9742.59
quadratic_ranged_403_lb: [ 1 x_21_ ^ 2 - 2 x_83_ * x_21_ + 1 x_83_ ^ 2 + 1 y_21_ ^ 2 - 2 y_83_ * y_21_ + 1 y_83_ ^ 2 ] >= 4673.79
quadratic_ranged_404_lb: [ 1 x_35_ ^ 2 - 2 x_83_ * x_35_ + 1 x_83_ ^ 2 + 1 y_35_ ^ 2 - 2 y_83_ * y_35_ + 1 y_83_ ^ 2 ] >= 7592.3099999999995
quadratic_ranged_405_lb: [ 1 x_36_ ^ 2 - 2 x_83_ * x_36_ + 1 x_83_ ^ 2 + 1 y_36_ ^ 2 - 2 y_83_ * y_36_ + 1 y_83_ ^ 2 ] >= 32124.51
quadratic_ranged_406_lb: [ 1 x_44_ ^ 2 - 2 x_83_ * x_44_ + 1 x_83_ ^ 2 + 1 y_44_ ^ 2 - 2 y_83_ * y_44_ + 1 y_83_ ^ 2 ] >= 13004.64
quadratic_ranged_407_lb: [ 1 x_60_ ^ 2 - 2 x_83_ * x_60_ + 1 x_83_ ^ 2 + 1 y_60_ ^ 2 - 2 y_83_ * y_60_ + 1 y_83_ ^ 2 ] >= 36654.75
quadratic_ranged_408_lb: [ 1 x_62_ ^ 2 - 2 x_83_ * x_62_ + 1 x_83_ ^ 2 + 1 y_62_ ^ 2 - 2 y_83_ * y_62_ + 1 y_83_ ^ 2 ] >= 19974.24
quadratic_ranged_409_lb: [ 1 x_72_ ^ 2 - 2 x_83_ * x_72_ + 1 x_83_ ^ 2 + 1 y_72_ ^ 2 - 2 y_83_ * y_72_ + 1 y_83_ ^ 2 ] >= 21772.079999999998
quadratic_ranged_410_lb: [ 1 x_74_ ^ 2 - 2 x_83_ * x_74_ + 1 x_83_ ^ 2 + 1 y_74_ ^ 2 - 2 y_83_ * y_74_ + 1 y_83_ ^ 2 ] >= 483.12
quadratic_ranged_411_lb: [ 1 x_79_ ^ 2 - 2 x_83_ * x_79_ + 1 x_83_ ^ 2 + 1 y_79_ ^ 2 - 2 y_83_ * y_79_ + 1 y_83_ ^ 2 ] >= 34905.42
quadratic_ranged_412_lb: [ 1 x_82_ ^ 2 - 2 x_83_ * x_82_ + 1 x_83_ ^ 2 + 1 y_82_ ^ 2 - 2 y_83_ * y_82_ + 1 y_83_ ^ 2 ] >= 12265.11
quadratic_ranged_413_lb: [ 1 x_10_ ^ 2 - 2 x_84_ * x_10_ + 1 x_84_ ^ 2 + 1 y_10_ ^ 2 - 2 y_84_ * y_10_ + 1 y_84_ ^ 2 ] >= 4471.83
quadratic_ranged_414_lb: [ 1 x_21_ ^ 2 - 2 x_84_ * x_21_ + 1 x_84_ ^ 2 + 1 y_21_ ^ 2 - 2 y_84_ * y_21_ + 1 y_84_ ^ 2 ] >= 10569.24
quadratic_ranged_415_lb: [ 1 x_31_ ^ 2 - 2 x_84_ * x_31_ + 1 x_84_ ^ 2 + 1 y_31_ ^ 2 - 2 y_84_ * y_31_ + 1 y_84_ ^ 2 ] >= 3949.11
quadratic_ranged_416_lb: [ 1 x_34_ ^ 2 - 2 x_84_ * x_34_ + 1 x_84_ ^ 2 + 1 y_34_ ^ 2 - 2 y_84_ * y_34_ + 1 y_84_ ^ 2 ] >= 678.15
quadratic_ranged_417_lb: [ 1 x_48_ ^ 2 - 2 x_84_ * x_48_ + 1 x_84_ ^ 2 + 1 y_48_ ^ 2 - 2 y_84_ * y_48_ + 1 y_84_ ^ 2 ] >= 1934.46
quadratic_ranged_418_lb: [ 1 x_62_ ^ 2 - 2 x_84_ * x_62_ + 1 x_84_ ^ 2 + 1 y_62_ ^ 2 - 2 y_84_ * y_62_ + 1 y_84_ ^ 2 ] >= 1826.55
quadratic_ranged_419_lb: [ 1 x_63_ ^ 2 - 2 x_84_ * x_63_ + 1 x_84_ ^ 2 + 1 y_63_ ^ 2 - 2 y_84_ * y_63_ + 1 y_84_ ^ 2 ] >= 10393.02
quadratic_ranged_420_lb: [ 1 x_81_ ^ 2 - 2 x_84_ * x_81_ + 1 x_84_ ^ 2 + 1 y_81_ ^ 2 - 2 y_84_ * y_81_ + 1 y_84_ ^ 2 ] >= 7375.5
quadratic_ranged_421_lb: [ 1 x_83_ ^ 2 - 2 x_84_ * x_83_ + 1 x_84_ ^ 2 + 1 y_83_ ^ 2 - 2 y_84_ * y_83_ + 1 y_84_ ^ 2 ] >= 10134.63
quadratic_ranged_422_lb: [ 1 x_37_ ^ 2 - 2 x_85_ * x_37_ + 1 x_85_ ^ 2 + 1 y_37_ ^ 2 - 2 y_85_ * y_37_ + 1 y_85_ ^ 2 ] >= 476.19
quadratic_ranged_423_lb: [ 1 x_51_ ^ 2 - 2 x_85_ * x_51_ + 1 x_85_ ^ 2 + 1 y_51_ ^ 2 - 2 y_85_ * y_51_ + 1 y_85_ ^ 2 ] >= 13008.6
quadratic_ranged_424_lb: [ 1 x_75_ ^ 2 - 2 x_85_ * x_75_ + 1 x_85_ ^ 2 + 1 y_75_ ^ 2 - 2 y_85_ * y_75_ + 1 y_85_ ^ 2 ] >= 38456.55
quadratic_ranged_425_lb: [ 1 x_84_ ^ 2 - 2 x_85_ * x_84_ + 1 x_85_ ^ 2 + 1 y_84_ ^ 2 - 2 y_85_ * y_84_ + 1 y_85_ ^ 2 ] >= 9437.67
quadratic_ranged_426_lb: [ 1 x_6_ ^ 2 - 2 x_86_ * x_6_ + 1 x_86_ ^ 2 + 1 y_6_ ^ 2 - 2 y_86_ * y_6_ + 1 y_86_ ^ 2 ] >= 7375.5
quadratic_ranged_427_lb: [ 1 x_8_ ^ 2 - 2 x_86_ * x_8_ + 1 x_86_ ^ 2 + 1 y_8_ ^ 2 - 2 y_86_ * y_8_ + 1 y_86_ ^ 2 ] >= 30833.55
quadratic_ranged_428_lb: [ 1 x_14_ ^ 2 - 2 x_86_ * x_14_ + 1 x_86_ ^ 2 + 1 y_14_ ^ 2 - 2 y_86_ * y_14_ + 1 y_86_ ^ 2 ] >= 38352.6
quadratic_ranged_429_lb: [ 1 x_28_ ^ 2 - 2 x_86_ * x_28_ + 1 x_86_ ^ 2 + 1 y_28_ ^ 2 - 2 y_86_ * y_28_ + 1 y_86_ ^ 2 ] >= 17164.62
quadratic_ranged_430_lb: [ 1 x_31_ ^ 2 - 2 x_86_ * x_31_ + 1 x_86_ ^ 2 + 1 y_31_ ^ 2 - 2 y_86_ * y_31_ + 1 y_86_ ^ 2 ] >= 7256.7
quadratic_ranged_431_lb: [ 1 x_48_ ^ 2 - 2 x_86_ * x_48_ + 1 x_86_ ^ 2 + 1 y_48_ ^ 2 - 2 y_86_ * y_48_ + 1 y_86_ ^ 2 ] >= 22212.63
quadratic_ranged_432_lb: [ 1 x_73_ ^ 2 - 2 x_86_ * x_73_ + 1 x_86_ ^ 2 + 1 y_73_ ^ 2 - 2 y_86_ * y_73_ + 1 y_86_ ^ 2 ] >= 9330.75
quadratic_ranged_433_lb: [ 1 x_83_ ^ 2 - 2 x_86_ * x_83_ + 1 x_86_ ^ 2 + 1 y_83_ ^ 2 - 2 y_86_ * y_83_ + 1 y_86_ ^ 2 ] >= 2379.96
quadratic_ranged_434_lb: [ 1 x_85_ ^ 2 - 2 x_86_ * x_85_ + 1 x_86_ ^ 2 + 1 y_85_ ^ 2 - 2 y_86_ * y_85_ + 1 y_86_ ^ 2 ] >= 21304.8
quadratic_ranged_435_lb: [ 1 x_5_ ^ 2 - 2 x_87_ * x_5_ + 1 x_87_ ^ 2 + 1 y_5_ ^ 2 - 2 y_87_ * y_5_ + 1 y_87_ ^ 2 ] >= 646.47
quadratic_ranged_436_lb: [ 1 x_8_ ^ 2 - 2 x_87_ * x_8_ + 1 x_87_ ^ 2 + 1 y_8_ ^ 2 - 2 y_87_ * y_8_ + 1 y_87_ ^ 2 ] >= 6594.39
quadratic_ranged_437_lb: [ 1 x_17_ ^ 2 - 2 x_87_ * x_17_ + 1 x_87_ ^ 2 + 1 y_17_ ^ 2 - 2 y_87_ * y_17_ + 1 y_87_ ^ 2 ] >= 11377.08
quadratic_ranged_438_lb: [ 1 x_24_ ^ 2 - 2 x_87_ * x_24_ + 1 x_87_ ^ 2 + 1 y_24_ ^ 2 - 2 y_87_ * y_24_ + 1 y_87_ ^ 2 ] >= 13812.48
quadratic_ranged_439_lb: [ 1 x_53_ ^ 2 - 2 x_87_ * x_53_ + 1 x_87_ ^ 2 + 1 y_53_ ^ 2 - 2 y_87_ * y_53_ + 1 y_87_ ^ 2 ] >= 10125.72
quadratic_ranged_440_lb: [ 1 x_68_ ^ 2 - 2 x_87_ * x_68_ + 1 x_87_ ^ 2 + 1 y_68_ ^ 2 - 2 y_87_ * y_68_ + 1 y_87_ ^ 2 ] >= 17226.99
quadratic_ranged_441_lb: [ 1 x_71_ ^ 2 - 2 x_87_ * x_71_ + 1 x_87_ ^ 2 + 1 y_71_ ^ 2 - 2 y_87_ * y_71_ + 1 y_87_ ^ 2 ] >= 1866.15
quadratic_ranged_442_lb: [ 1 x_72_ ^ 2 - 2 x_87_ * x_72_ + 1 x_87_ ^ 2 + 1 y_72_ ^ 2 - 2 y_87_ * y_72_ + 1 y_87_ ^ 2 ] >= 10979.1
quadratic_ranged_443_lb: [ 1 x_77_ ^ 2 - 2 x_87_ * x_77_ + 1 x_87_ ^ 2 + 1 y_77_ ^ 2 - 2 y_87_ * y_77_ + 1 y_87_ ^ 2 ] >= 3821.4
quadratic_ranged_444_lb: [ 1 x_83_ ^ 2 - 2 x_87_ * x_83_ + 1 x_87_ ^ 2 + 1 y_83_ ^ 2 - 2 y_87_ * y_83_ + 1 y_87_ ^ 2 ] >= 15905.34
quadratic_ranged_445_lb: [ 1 x_86_ ^ 2 - 2 x_87_ * x_86_ + 1 x_87_ ^ 2 + 1 y_86_ ^ 2 - 2 y_87_ * y_86_ + 1 y_87_ ^ 2 ] >= 9458.46
quadratic_ranged_446_lb: [ 1 x_9_ ^ 2 - 2 x_88_ * x_9_ + 1 x_88_ ^ 2 + 1 y_9_ ^ 2 - 2 y_88_ * y_9_ + 1 y_88_ ^ 2 ] >= 30432.6
quadratic_ranged_447_lb: [ 1 x_16_ ^ 2 - 2 x_88_ * x_16_ + 1 x_88_ ^ 2 + 1 y_16_ ^ 2 - 2 y_88_ * y_16_ + 1 y_88_ ^ 2 ] >= 25522.2
quadratic_ranged_448_lb: [ 1 x_23_ ^ 2 - 2 x_88_ * x_23_ + 1 x_88_ ^ 2 + 1 y_23_ ^ 2 - 2 y_88_ * y_23_ + 1 y_88_ ^ 2 ] >= 21388.95
quadratic_ranged_449_lb: [ 1 x_42_ ^ 2 - 2 x_88_ * x_42_ + 1 x_88_ ^ 2 + 1 y_42_ ^ 2 - 2 y_88_ * y_42_ + 1 y_88_ ^ 2 ] >= 2021.58
quadratic_ranged_450_lb: [ 1 x_64_ ^ 2 - 2 x_88_ * x_64_ + 1 x_88_ ^ 2 + 1 y_64_ ^ 2 - 2 y_88_ * y_64_ + 1 y_88_ ^ 2 ] >= 22597.74
quadratic_ranged_451_lb: [ 1 x_73_ ^ 2 - 2 x_88_ * x_73_ + 1 x_88_ ^ 2 + 1 y_73_ ^ 2 - 2 y_88_ * y_73_ + 1 y_88_ ^ 2 ] >= 12277.98
quadratic_ranged_452_lb: [ 1 x_87_ ^ 2 - 2 x_88_ * x_87_ + 1 x_88_ ^ 2 + 1 y_87_ ^ 2 - 2 y_88_ * y_87_ + 1 y_88_ ^ 2 ] >= 7707.15
quadratic_ranged_453_lb: [ 1 x_3_ ^ 2 - 2 x_89_ * x_3_ + 1 x_89_ ^ 2 + 1 y_3_ ^ 2 - 2 y_89_ * y_3_ + 1 y_89_ ^ 2 ] >= 2935.35
quadratic_ranged_454_lb: [ 1 x_15_ ^ 2 - 2 x_89_ * x_15_ + 1 x_89_ ^ 2 + 1 y_15_ ^ 2 - 2 y_89_ * y_15_ + 1 y_89_ ^ 2 ] >= 31056.3
quadratic_ranged_455_lb: [ 1 x_16_ ^ 2 - 2 x_89_ * x_16_ + 1 x_89_ ^ 2 + 1 y_16_ ^ 2 - 2 y_89_ * y_16_ + 1 y_89_ ^ 2 ] >= 22497.75
quadratic_ranged_456_lb: [ 1 x_18_ ^ 2 - 2 x_89_ * x_18_ + 1 x_89_ ^ 2 + 1 y_18_ ^ 2 - 2 y_89_ * y_18_ + 1 y_89_ ^ 2 ] >= 1117.71
quadratic_ranged_457_lb: [ 1 x_20_ ^ 2 - 2 x_89_ * x_20_ + 1 x_89_ ^ 2 + 1 y_20_ ^ 2 - 2 y_89_ * y_20_ + 1 y_89_ ^ 2 ] >= 13230.36
quadratic_ranged_458_lb: [ 1 x_30_ ^ 2 - 2 x_89_ * x_30_ + 1 x_89_ ^ 2 + 1 y_30_ ^ 2 - 2 y_89_ * y_30_ + 1 y_89_ ^ 2 ] >= 26583.48
quadratic_ranged_459_lb: [ 1 x_34_ ^ 2 - 2 x_89_ * x_34_ + 1 x_89_ ^ 2 + 1 y_34_ ^ 2 - 2 y_89_ * y_34_ + 1 y_89_ ^ 2 ] >= 11313.72
quadratic_ranged_460_lb: [ 1 x_41_ ^ 2 - 2 x_89_ * x_41_ + 1 x_89_ ^ 2 + 1 y_41_ ^ 2 - 2 y_89_ * y_41_ + 1 y_89_ ^ 2 ] >= 28358.55
quadratic_ranged_461_lb: [ 1 x_49_ ^ 2 - 2 x_89_ * x_49_ + 1 x_89_ ^ 2 + 1 y_49_ ^ 2 - 2 y_89_ * y_49_ + 1 y_89_ ^ 2 ] >= 10494
quadratic_ranged_462_lb: [ 1 x_52_ ^ 2 - 2 x_89_ * x_52_ + 1 x_89_ ^ 2 + 1 y_52_ ^ 2 - 2 y_89_ * y_52_ + 1 y_89_ ^ 2 ] >= 15636.06
quadratic_ranged_463_lb: [ 1 x_53_ ^ 2 - 2 x_89_ * x_53_ + 1 x_89_ ^ 2 + 1 y_53_ ^ 2 - 2 y_89_ * y_53_ + 1 y_89_ ^ 2 ] >= 8278.38
quadratic_ranged_464_lb: [ 1 x_63_ ^ 2 - 2 x_89_ * x_63_ + 1 x_89_ ^ 2 + 1 y_63_ ^ 2 - 2 y_89_ * y_63_ + 1 y_89_ ^ 2 ] >= 6408.2699999999995
quadratic_ranged_465_lb: [ 1 x_67_ ^ 2 - 2 x_89_ * x_67_ + 1 x_89_ ^ 2 + 1 y_67_ ^ 2 - 2 y_89_ * y_67_ + 1 y_89_ ^ 2 ] >= 1029.6
quadratic_ranged_466_lb: [ 1 x_68_ ^ 2 - 2 x_89_ * x_68_ + 1 x_89_ ^ 2 + 1 y_68_ ^ 2 - 2 y_89_ * y_68_ + 1 y_89_ ^ 2 ] >= 15120.27
quadratic_ranged_467_lb: [ 1 x_69_ ^ 2 - 2 x_89_ * x_69_ + 1 x_89_ ^ 2 + 1 y_69_ ^ 2 - 2 y_89_ * y_69_ + 1 y_89_ ^ 2 ] >= 3328.38
quadratic_ranged_468_lb: [ 1 x_88_ ^ 2 - 2 x_89_ * x_88_ + 1 x_89_ ^ 2 + 1 y_88_ ^ 2 - 2 y_89_ * y_88_ + 1 y_89_ ^ 2 ] >= 14221.35
quadratic_ranged_469_lb: [ 1 x_3_ ^ 2 - 2 x_90_ * x_3_ + 1 x_90_ ^ 2 + 1 y_3_ ^ 2 - 2 y_90_ * y_3_ + 1 y_90_ ^ 2 ] >= 7129.98
quadratic_ranged_470_lb: [ 1 x_18_ ^ 2 - 2 x_90_ * x_18_ + 1 x_90_ ^ 2 + 1 y_18_ ^ 2 - 2 y_90_ * y_18_ + 1 y_90_ ^ 2 ] >= 27260.64
quadratic_ranged_471_lb: [ 1 x_32_ ^ 2 - 2 x_90_ * x_32_ + 1 x_90_ ^ 2 + 1 y_32_ ^ 2 - 2 y_90_ * y_32_ + 1 y_90_ ^ 2 ] >= 1029.6
quadratic_ranged_472_lb: [ 1 x_35_ ^ 2 - 2 x_90_ * x_35_ + 1 x_90_ ^ 2 + 1 y_35_ ^ 2 - 2 y_90_ * y_35_ + 1 y_90_ ^ 2 ] >= 4286.7
quadratic_ranged_473_lb: [ 1 x_49_ ^ 2 - 2 x_90_ * x_49_ + 1 x_90_ ^ 2 + 1 y_49_ ^ 2 - 2 y_90_ * y_49_ + 1 y_90_ ^ 2 ] >= 1050.39
quadratic_ranged_474_lb: [ 1 x_56_ ^ 2 - 2 x_90_ * x_56_ + 1 x_90_ ^ 2 + 1 y_56_ ^ 2 - 2 y_90_ * y_56_ + 1 y_90_ ^ 2 ] >= 3209.58
quadratic_ranged_475_lb: [ 1 x_64_ ^ 2 - 2 x_90_ * x_64_ + 1 x_90_ ^ 2 + 1 y_64_ ^ 2 - 2 y_90_ * y_64_ + 1 y_90_ ^ 2 ] >= 10398.96
quadratic_ranged_476_lb: [ 1 x_80_ ^ 2 - 2 x_90_ * x_80_ + 1 x_90_ ^ 2 + 1 y_80_ ^ 2 - 2 y_90_ * y_80_ + 1 y_90_ ^ 2 ] >= 19255.5
quadratic_ranged_477_lb: [ 1 x_89_ ^ 2 - 2 x_90_ * x_89_ + 1 x_90_ ^ 2 + 1 y_89_ ^ 2 - 2 y_90_ * y_89_ + 1 y_90_ ^ 2 ] >= 18082.35
quadratic_ranged_478_lb: [ 1 x_9_ ^ 2 - 2 x_91_ * x_9_ + 1 x_91_ ^ 2 + 1 y_9_ ^ 2 - 2 y_91_ * y_9_ + 1 y_91_ ^ 2 ] >= 34596.54
quadratic_ranged_479_lb: [ 1 x_12_ ^ 2 - 2 x_91_ * x_12_ + 1 x_91_ ^ 2 + 1 y_12_ ^ 2 - 2 y_91_ * y_12_ + 1 y_91_ ^ 2 ] >= 7494.3
quadratic_ranged_480_lb: [ 1 x_13_ ^ 2 - 2 x_91_ * x_13_ + 1 x_91_ ^ 2 + 1 y_13_ ^ 2 - 2 y_91_ * y_13_ + 1 y_91_ ^ 2 ] >= 13619.43
quadratic_ranged_481_lb: [ 1 x_30_ ^ 2 - 2 x_91_ * x_30_ + 1 x_91_ ^ 2 + 1 y_30_ ^ 2 - 2 y_91_ * y_30_ + 1 y_91_ ^ 2 ] >= 27705.15
quadratic_ranged_482_lb: [ 1 x_36_ ^ 2 - 2 x_91_ * x_36_ + 1 x_91_ ^ 2 + 1 y_36_ ^ 2 - 2 y_91_ * y_36_ + 1 y_91_ ^ 2 ] >= 6656.76
quadratic_ranged_483_lb: [ 1 x_47_ ^ 2 - 2 x_91_ * x_47_ + 1 x_91_ ^ 2 + 1 y_47_ ^ 2 - 2 y_91_ * y_47_ + 1 y_91_ ^ 2 ] >= 18952.56
quadratic_ranged_484_lb: [ 1 x_58_ ^ 2 - 2 x_91_ * x_58_ + 1 x_91_ ^ 2 + 1 y_58_ ^ 2 - 2 y_91_ * y_58_ + 1 y_91_ ^ 2 ] >= 33886.71
quadratic_ranged_485_lb: [ 1 x_69_ ^ 2 - 2 x_91_ * x_69_ + 1 x_91_ ^ 2 + 1 y_69_ ^ 2 - 2 y_91_ * y_69_ + 1 y_91_ ^ 2 ] >= 24073.829999999998
quadratic_ranged_486_lb: [ 1 x_73_ ^ 2 - 2 x_91_ * x_73_ + 1 x_91_ ^ 2 + 1 y_73_ ^ 2 - 2 y_91_ * y_73_ + 1 y_91_ ^ 2 ] >= 14675.76
quadratic_ranged_487_lb: [ 1 x_90_ ^ 2 - 2 x_91_ * x_90_ + 1 x_91_ ^ 2 + 1 y_90_ ^ 2 - 2 y_91_ * y_90_ + 1 y_91_ ^ 2 ] >= 36103.32
quadratic_ranged_488_lb: [ 1 x_13_ ^ 2 - 2 x_92_ * x_13_ + 1 x_92_ ^ 2 + 1 y_13_ ^ 2 - 2 y_92_ * y_13_ + 1 y_92_ ^ 2 ] >= 6821.1
quadratic_ranged_489_lb: [ 1 x_29_ ^ 2 - 2 x_92_ * x_29_ + 1 x_92_ ^ 2 + 1 y_29_ ^ 2 - 2 y_92_ * y_29_ + 1 y_92_ ^ 2 ] >= 229.68
quadratic_ranged_490_lb: [ 1 x_36_ ^ 2 - 2 x_92_ * x_36_ + 1 x_92_ ^ 2 + 1 y_36_ ^ 2 - 2 y_92_ * y_36_ + 1 y_92_ ^ 2 ] >= 1153.35
quadratic_ranged_491_lb: [ 1 x_48_ ^ 2 - 2 x_92_ * x_48_ + 1 x_92_ ^ 2 + 1 y_48_ ^ 2 - 2 y_92_ * y_48_ + 1 y_92_ ^ 2 ] >= 5228.19
quadratic_ranged_492_lb: [ 1 x_68_ ^ 2 - 2 x_92_ * x_68_ + 1 x_92_ ^ 2 + 1 y_68_ ^ 2 - 2 y_92_ * y_68_ + 1 y_92_ ^ 2 ] >= 19888.11
quadratic_ranged_493_lb: [ 1 x_70_ ^ 2 - 2 x_92_ * x_70_ + 1 x_92_ ^ 2 + 1 y_70_ ^ 2 - 2 y_92_ * y_70_ + 1 y_92_ ^ 2 ] >= 35241.03
quadratic_ranged_494_lb: [ 1 x_79_ ^ 2 - 2 x_92_ * x_79_ + 1 x_92_ ^ 2 + 1 y_79_ ^ 2 - 2 y_92_ * y_79_ + 1 y_92_ ^ 2 ] >= 2110.68
quadratic_ranged_495_lb: [ 1 x_80_ ^ 2 - 2 x_92_ * x_80_ + 1 x_92_ ^ 2 + 1 y_80_ ^ 2 - 2 y_92_ * y_80_ + 1 y_92_ ^ 2 ] >= 404.90999999999997
quadratic_ranged_496_lb: [ 1 x_84_ ^ 2 - 2 x_92_ * x_84_ + 1 x_92_ ^ 2 + 1 y_84_ ^ 2 - 2 y_92_ * y_84_ + 1 y_92_ ^ 2 ] >= 6796.35
quadratic_ranged_497_lb: [ 1 x_89_ ^ 2 - 2 x_92_ * x_89_ + 1 x_92_ ^ 2 + 1 y_89_ ^ 2 - 2 y_92_ * y_89_ + 1 y_92_ ^ 2 ] >= 12745.26
quadratic_ranged_498_lb: [ 1 x_91_ ^ 2 - 2 x_92_ * x_91_ + 1 x_92_ ^ 2 + 1 y_91_ ^ 2 - 2 y_92_ * y_91_ + 1 y_92_ ^ 2 ] >= 2289.87
quadratic_ranged_499_lb: [ 1 x_2_ ^ 2 - 2 x_93_ * x_2_ + 1 x_93_ ^ 2 + 1 y_2_ ^ 2 - 2 y_93_ * y_2_ + 1 y_93_ ^ 2 ] >= 10771.2
quadratic_ranged_500_lb: [ 1 x_3_ ^ 2 - 2 x_93_ * x_3_ + 1 x_93_ ^ 2 + 1 y_3_ ^ 2 - 2 y_93_ * y_3_ + 1 y_93_ ^ 2 ] >= 2742.3
quadratic_ranged_501_lb: [ 1 x_9_ ^ 2 - 2 x_93_ * x_9_ + 1 x_93_ ^ 2 + 1 y_9_ ^ 2 - 2 y_93_ * y_9_ + 1 y_93_ ^ 2 ] >= 5609.34
quadratic_ranged_502_lb: [ 1 x_27_ ^ 2 - 2 x_93_ * x_27_ + 1 x_93_ ^ 2 + 1 y_27_ ^ 2 - 2 y_93_ * y_27_ + 1 y_93_ ^ 2 ] >= 4697.55
quadratic_ranged_503_lb: [ 1 x_29_ ^ 2 - 2 x_93_ * x_29_ + 1 x_93_ ^ 2 + 1 y_29_ ^ 2 - 2 y_93_ * y_29_ + 1 y_93_ ^ 2 ] >= 5905.35
quadratic_ranged_504_lb: [ 1 x_40_ ^ 2 - 2 x_93_ * x_40_ + 1 x_93_ ^ 2 + 1 y_40_ ^ 2 - 2 y_93_ * y_40_ + 1 y_93_ ^ 2 ] >= 4056.0299999999997
quadratic_ranged_505_lb: [ 1 x_56_ ^ 2 - 2 x_93_ * x_56_ + 1 x_93_ ^ 2 + 1 y_56_ ^ 2 - 2 y_93_ * y_56_ + 1 y_93_ ^ 2 ] >= 4666.86
quadratic_ranged_506_lb: [ 1 x_58_ ^ 2 - 2 x_93_ * x_58_ + 1 x_93_ ^ 2 + 1 y_58_ ^ 2 - 2 y_93_ * y_58_ + 1 y_93_ ^ 2 ] >= 11021.67
quadratic_ranged_507_lb: [ 1 x_59_ ^ 2 - 2 x_93_ * x_59_ + 1 x_93_ ^ 2 + 1 y_59_ ^ 2 - 2 y_93_ * y_59_ + 1 y_93_ ^ 2 ] >= 2312.64
quadratic_ranged_508_lb: [ 1 x_71_ ^ 2 - 2 x_93_ * x_71_ + 1 x_93_ ^ 2 + 1 y_71_ ^ 2 - 2 y_93_ * y_71_ + 1 y_93_ ^ 2 ] >= 9529.74
quadratic_ranged_509_lb: [ 1 x_73_ ^ 2 - 2 x_93_ * x_73_ + 1 x_93_ ^ 2 + 1 y_73_ ^ 2 - 2 y_93_ * y_73_ + 1 y_93_ ^ 2 ] >= 799.92
quadratic_ranged_510_lb: [ 1 x_78_ ^ 2 - 2 x_93_ * x_78_ + 1 x_93_ ^ 2 + 1 y_78_ ^ 2 - 2 y_93_ * y_78_ + 1 y_93_ ^ 2 ] >= 5679.63
quadratic_ranged_511_lb: [ 1 x_88_ ^ 2 - 2 x_93_ * x_88_ + 1 x_93_ ^ 2 + 1 y_88_ ^ 2 - 2 y_93_ * y_88_ + 1 y_93_ ^ 2 ] >= 10583.1
quadratic_ranged_512_lb: [ 1 x_92_ ^ 2 - 2 x_93_ * x_92_ + 1 x_93_ ^ 2 + 1 y_92_ ^ 2 - 2 y_93_ * y_92_ + 1 y_93_ ^ 2 ] >= 6859.71
quadratic_ranged_513_lb: [ 1 x_6_ ^ 2 - 2 x_94_ * x_6_ + 1 x_94_ ^ 2 + 1 y_6_ ^ 2 - 2 y_94_ * y_6_ + 1 y_94_ ^ 2 ] >= 9041.67
quadratic_ranged_514_lb: [ 1 x_8_ ^ 2 - 2 x_94_ * x_8_ + 1 x_94_ ^ 2 + 1 y_8_ ^ 2 - 2 y_94_ * y_8_ + 1 y_94_ ^ 2 ] >= 926.64
quadratic_ranged_515_lb: [ 1 x_13_ ^ 2 - 2 x_94_ * x_13_ + 1 x_94_ ^ 2 + 1 y_13_ ^ 2 - 2 y_94_ * y_13_ + 1 y_94_ ^ 2 ] >= 7608.15
quadratic_ranged_516_lb: [ 1 x_21_ ^ 2 - 2 x_94_ * x_21_ + 1 x_94_ ^ 2 + 1 y_21_ ^ 2 - 2 y_94_ * y_21_ + 1 y_94_ ^ 2 ] >= 24862.86
quadratic_ranged_517_lb: [ 1 x_25_ ^ 2 - 2 x_94_ * x_25_ + 1 x_94_ ^ 2 + 1 y_25_ ^ 2 - 2 y_94_ * y_25_ + 1 y_94_ ^ 2 ] >= 10914.75
quadratic_ranged_518_lb: [ 1 x_41_ ^ 2 - 2 x_94_ * x_41_ + 1 x_94_ ^ 2 + 1 y_41_ ^ 2 - 2 y_94_ * y_41_ + 1 y_94_ ^ 2 ] >= 5742
quadratic_ranged_519_lb: [ 1 x_54_ ^ 2 - 2 x_94_ * x_54_ + 1 x_94_ ^ 2 + 1 y_54_ ^ 2 - 2 y_94_ * y_54_ + 1 y_94_ ^ 2 ] >= 32077.98
quadratic_ranged_520_lb: [ 1 x_56_ ^ 2 - 2 x_94_ * x_56_ + 1 x_94_ ^ 2 + 1 y_56_ ^ 2 - 2 y_94_ * y_56_ + 1 y_94_ ^ 2 ] >= 21797.82
quadratic_ranged_521_lb: [ 1 x_76_ ^ 2 - 2 x_94_ * x_76_ + 1 x_94_ ^ 2 + 1 y_76_ ^ 2 - 2 y_94_ * y_76_ + 1 y_94_ ^ 2 ] >= 29638.62
quadratic_ranged_522_lb: [ 1 x_77_ ^ 2 - 2 x_94_ * x_77_ + 1 x_94_ ^ 2 + 1 y_77_ ^ 2 - 2 y_94_ * y_77_ + 1 y_94_ ^ 2 ] >= 11904.75
quadratic_ranged_523_lb: [ 1 x_86_ ^ 2 - 2 x_94_ * x_86_ + 1 x_94_ ^ 2 + 1 y_86_ ^ 2 - 2 y_94_ * y_86_ + 1 y_94_ ^ 2 ] >= 28897.11
quadratic_ranged_524_lb: [ 1 x_88_ ^ 2 - 2 x_94_ * x_88_ + 1 x_94_ ^ 2 + 1 y_88_ ^ 2 - 2 y_94_ * y_88_ + 1 y_94_ ^ 2 ] >= 247.5
quadratic_ranged_525_lb: [ 1 x_93_ ^ 2 - 2 x_94_ * x_93_ + 1 x_94_ ^ 2 + 1 y_93_ ^ 2 - 2 y_94_ * y_93_ + 1 y_94_ ^ 2 ] >= 7682.4
quadratic_ranged_526_lb: [ 1 x_2_ ^ 2 - 2 x_95_ * x_2_ + 1 x_95_ ^ 2 + 1 y_2_ ^ 2 - 2 y_95_ * y_2_ + 1 y_95_ ^ 2 ] >= 20617.74
quadratic_ranged_527_lb: [ 1 x_17_ ^ 2 - 2 x_95_ * x_17_ + 1 x_95_ ^ 2 + 1 y_17_ ^ 2 - 2 y_95_ * y_17_ + 1 y_95_ ^ 2 ] >= 2725.47
quadratic_ranged_528_lb: [ 1 x_19_ ^ 2 - 2 x_95_ * x_19_ + 1 x_95_ ^ 2 + 1 y_19_ ^ 2 - 2 y_95_ * y_19_ + 1 y_95_ ^ 2 ] >= 10398.96
quadratic_ranged_529_lb: [ 1 x_29_ ^ 2 - 2 x_95_ * x_29_ + 1 x_95_ ^ 2 + 1 y_29_ ^ 2 - 2 y_95_ * y_29_ + 1 y_95_ ^ 2 ] >= 14316.39
quadratic_ranged_530_lb: [ 1 x_50_ ^ 2 - 2 x_95_ * x_50_ + 1 x_95_ ^ 2 + 1 y_50_ ^ 2 - 2 y_95_ * y_50_ + 1 y_95_ ^ 2 ] >= 39.6
quadratic_ranged_531_lb: [ 1 x_70_ ^ 2 - 2 x_95_ * x_70_ + 1 x_95_ ^ 2 + 1 y_70_ ^ 2 - 2 y_95_ * y_70_ + 1 y_95_ ^ 2 ] >= 3678.84
quadratic_ranged_532_lb: [ 1 x_74_ ^ 2 - 2 x_95_ * x_74_ + 1 x_95_ ^ 2 + 1 y_74_ ^ 2 - 2 y_95_ * y_74_ + 1 y_95_ ^ 2 ] >= 8499.15
quadratic_ranged_533_lb: [ 1 x_85_ ^ 2 - 2 x_95_ * x_85_ + 1 x_95_ ^ 2 + 1 y_85_ ^ 2 - 2 y_95_ * y_85_ + 1 y_95_ ^ 2 ] >= 20937.51
quadratic_ranged_534_lb: [ 1 x_86_ ^ 2 - 2 x_95_ * x_86_ + 1 x_95_ ^ 2 + 1 y_86_ ^ 2 - 2 y_95_ * y_86_ + 1 y_95_ ^ 2 ] >= 11465.19
quadratic_ranged_535_lb: [ 1 x_94_ ^ 2 - 2 x_95_ * x_94_ + 1 x_95_ ^ 2 + 1 y_94_ ^ 2 - 2 y_95_ * y_94_ + 1 y_95_ ^ 2 ] >= 17473.5
quadratic_ranged_536_lb: [ 1 x_15_ ^ 2 - 2 x_96_ * x_15_ + 1 x_96_ ^ 2 + 1 y_15_ ^ 2 - 2 y_96_ * y_15_ + 1 y_96_ ^ 2 ] >= 4828.23
quadratic_ranged_537_lb: [ 1 x_20_ ^ 2 - 2 x_96_ * x_20_ + 1 x_96_ ^ 2 + 1 y_20_ ^ 2 - 2 y_96_ * y_20_ + 1 y_96_ ^ 2 ] >= 14249.07
quadratic_ranged_538_lb: [ 1 x_23_ ^ 2 - 2 x_96_ * x_23_ + 1 x_96_ ^ 2 + 1 y_23_ ^ 2 - 2 y_96_ * y_23_ + 1 y_96_ ^ 2 ] >= 1533.51
quadratic_ranged_539_lb: [ 1 x_24_ ^ 2 - 2 x_96_ * x_24_ + 1 x_96_ ^ 2 + 1 y_24_ ^ 2 - 2 y_96_ * y_24_ + 1 y_96_ ^ 2 ] >= 7509.15
quadratic_ranged_540_lb: [ 1 x_29_ ^ 2 - 2 x_96_ * x_29_ + 1 x_96_ ^ 2 + 1 y_29_ ^ 2 - 2 y_96_ * y_29_ + 1 y_96_ ^ 2 ] >= 16328.07
quadratic_ranged_541_lb: [ 1 x_30_ ^ 2 - 2 x_96_ * x_30_ + 1 x_96_ ^ 2 + 1 y_30_ ^ 2 - 2 y_96_ * y_30_ + 1 y_96_ ^ 2 ] >= 2638.35
quadratic_ranged_542_lb: [ 1 x_45_ ^ 2 - 2 x_96_ * x_45_ + 1 x_96_ ^ 2 + 1 y_45_ ^ 2 - 2 y_96_ * y_45_ + 1 y_96_ ^ 2 ] >= 3200.67
quadratic_ranged_543_lb: [ 1 x_52_ ^ 2 - 2 x_96_ * x_52_ + 1 x_96_ ^ 2 + 1 y_52_ ^ 2 - 2 y_96_ * y_52_ + 1 y_96_ ^ 2 ] >= 35237.07
quadratic_ranged_544_lb: [ 1 x_53_ ^ 2 - 2 x_96_ * x_53_ + 1 x_96_ ^ 2 + 1 y_53_ ^ 2 - 2 y_96_ * y_53_ + 1 y_96_ ^ 2 ] >= 2202.75
quadratic_ranged_545_lb: [ 1 x_74_ ^ 2 - 2 x_96_ * x_74_ + 1 x_96_ ^ 2 + 1 y_74_ ^ 2 - 2 y_96_ * y_74_ + 1 y_96_ ^ 2 ] >= 13516.47
quadratic_ranged_546_lb: [ 1 x_91_ ^ 2 - 2 x_96_ * x_91_ + 1 x_96_ ^ 2 + 1 y_91_ ^ 2 - 2 y_96_ * y_91_ + 1 y_96_ ^ 2 ] >= 29304
quadratic_ranged_547_lb: [ 1 x_95_ ^ 2 - 2 x_96_ * x_95_ + 1 x_96_ ^ 2 + 1 y_95_ ^ 2 - 2 y_96_ * y_95_ + 1 y_96_ ^ 2 ] >= 643.5
quadratic_ranged_548_lb: [ 1 x_13_ ^ 2 - 2 x_97_ * x_13_ + 1 x_97_ ^ 2 + 1 y_13_ ^ 2 - 2 y_97_ * y_13_ + 1 y_97_ ^ 2 ] >= 2519.55
quadratic_ranged_549_lb: [ 1 x_14_ ^ 2 - 2 x_97_ * x_14_ + 1 x_97_ ^ 2 + 1 y_14_ ^ 2 - 2 y_97_ * y_14_ + 1 y_97_ ^ 2 ] >= 10019.789999999999
quadratic_ranged_550_lb: [ 1 x_17_ ^ 2 - 2 x_97_ * x_17_ + 1 x_97_ ^ 2 + 1 y_17_ ^ 2 - 2 y_97_ * y_17_ + 1 y_97_ ^ 2 ] >= 3145.23
quadratic_ranged_551_lb: [ 1 x_20_ ^ 2 - 2 x_97_ * x_20_ + 1 x_97_ ^ 2 + 1 y_20_ ^ 2 - 2 y_97_ * y_20_ + 1 y_97_ ^ 2 ] >= 737.55
quadratic_ranged_552_lb: [ 1 x_46_ ^ 2 - 2 x_97_ * x_46_ + 1 x_97_ ^ 2 + 1 y_46_ ^ 2 - 2 y_97_ * y_46_ + 1 y_97_ ^ 2 ] >= 25242.03
quadratic_ranged_553_lb: [ 1 x_58_ ^ 2 - 2 x_97_ * x_58_ + 1 x_97_ ^ 2 + 1 y_58_ ^ 2 - 2 y_97_ * y_58_ + 1 y_97_ ^ 2 ] >= 18236.79
quadratic_ranged_554_lb: [ 1 x_71_ ^ 2 - 2 x_97_ * x_71_ + 1 x_97_ ^ 2 + 1 y_71_ ^ 2 - 2 y_97_ * y_71_ + 1 y_97_ ^ 2 ] >= 8573.4
quadratic_ranged_555_lb: [ 1 x_82_ ^ 2 - 2 x_97_ * x_82_ + 1 x_97_ ^ 2 + 1 y_82_ ^ 2 - 2 y_97_ * y_82_ + 1 y_97_ ^ 2 ] >= 1213.74
quadratic_ranged_556_lb: [ 1 x_96_ ^ 2 - 2 x_97_ * x_96_ + 1 x_97_ ^ 2 + 1 y_96_ ^ 2 - 2 y_97_ * y_96_ + 1 y_97_ ^ 2 ] >= 10678.14
quadratic_ranged_557_lb: [ 1 x_5_ ^ 2 - 2 x_98_ * x_5_ + 1 x_98_ ^ 2 + 1 y_5_ ^ 2 - 2 y_98_ * y_5_ + 1 y_98_ ^ 2 ] >= 4578.75
quadratic_ranged_558_lb: [ 1 x_19_ ^ 2 - 2 x_98_ * x_19_ + 1 x_98_ ^ 2 + 1 y_19_ ^ 2 - 2 y_98_ * y_19_ + 1 y_98_ ^ 2 ] >= 4182.75
quadratic_ranged_559_lb: [ 1 x_21_ ^ 2 - 2 x_98_ * x_21_ + 1 x_98_ ^ 2 + 1 y_21_ ^ 2 - 2 y_98_ * y_21_ + 1 y_98_ ^ 2 ] >= 868.23
quadratic_ranged_560_lb: [ 1 x_55_ ^ 2 - 2 x_98_ * x_55_ + 1 x_98_ ^ 2 + 1 y_55_ ^ 2 - 2 y_98_ * y_55_ + 1 y_98_ ^ 2 ] >= 3390.75
quadratic_ranged_561_lb: [ 1 x_57_ ^ 2 - 2 x_98_ * x_57_ + 1 x_98_ ^ 2 + 1 y_57_ ^ 2 - 2 y_98_ * y_57_ + 1 y_98_ ^ 2 ] >= 12388.86
quadratic_ranged_562_lb: [ 1 x_63_ ^ 2 - 2 x_98_ * x_63_ + 1 x_98_ ^ 2 + 1 y_63_ ^ 2 - 2 y_98_ * y_63_ + 1 y_98_ ^ 2 ] >= 286.11
quadratic_ranged_563_lb: [ 1 x_97_ ^ 2 - 2 x_98_ * x_97_ + 1 x_98_ ^ 2 + 1 y_97_ ^ 2 - 2 y_98_ * y_97_ + 1 y_98_ ^ 2 ] >= 16074.63
quadratic_ranged_564_lb: [ 1 x_13_ ^ 2 - 2 x_99_ * x_13_ + 1 x_99_ ^ 2 + 1 y_13_ ^ 2 - 2 y_99_ * y_13_ + 1 y_99_ ^ 2 ] >= 13737.24
quadratic_ranged_565_lb: [ 1 x_26_ ^ 2 - 2 x_99_ * x_26_ + 1 x_99_ ^ 2 + 1 y_26_ ^ 2 - 2 y_99_ * y_26_ + 1 y_99_ ^ 2 ] >= 28897.11
quadratic_ranged_566_lb: [ 1 x_46_ ^ 2 - 2 x_99_ * x_46_ + 1 x_99_ ^ 2 + 1 y_46_ ^ 2 - 2 y_99_ * y_46_ + 1 y_99_ ^ 2 ] >= 38263.5
quadratic_ranged_567_lb: [ 1 x_54_ ^ 2 - 2 x_99_ * x_54_ + 1 x_99_ ^ 2 + 1 y_54_ ^ 2 - 2 y_99_ * y_54_ + 1 y_99_ ^ 2 ] >= 37743.75
quadratic_ranged_568_lb: [ 1 x_62_ ^ 2 - 2 x_99_ * x_62_ + 1 x_99_ ^ 2 + 1 y_62_ ^ 2 - 2 y_99_ * y_62_ + 1 y_99_ ^ 2 ] >= 10090.08
quadratic_ranged_569_lb: [ 1 x_67_ ^ 2 - 2 x_99_ * x_67_ + 1 x_99_ ^ 2 + 1 y_67_ ^ 2 - 2 y_99_ * y_67_ + 1 y_99_ ^ 2 ] >= 16699.32
quadratic_ranged_570_lb: [ 1 x_69_ ^ 2 - 2 x_99_ * x_69_ + 1 x_99_ ^ 2 + 1 y_69_ ^ 2 - 2 y_99_ * y_69_ + 1 y_99_ ^ 2 ] >= 27904.14
quadratic_ranged_571_lb: [ 1 x_72_ ^ 2 - 2 x_99_ * x_72_ + 1 x_99_ ^ 2 + 1 y_72_ ^ 2 - 2 y_99_ * y_72_ + 1 y_99_ ^ 2 ] >= 9797.039999999999
quadratic_ranged_572_lb: [ 1 x_74_ ^ 2 - 2 x_99_ * x_74_ + 1 x_99_ ^ 2 + 1 y_74_ ^ 2 - 2 y_99_ * y_74_ + 1 y_99_ ^ 2 ] >= 38689.2
quadratic_ranged_573_lb: [ 1 x_96_ ^ 2 - 2 x_99_ * x_96_ + 1 x_99_ ^ 2 + 1 y_96_ ^ 2 - 2 y_99_ * y_96_ + 1 y_99_ ^ 2 ] >= 28790.19
quadratic_ranged_574_lb: [ 1 x_98_ ^ 2 - 2 x_99_ * x_98_ + 1 x_99_ ^ 2 + 1 y_98_ ^ 2 - 2 y_99_ * y_98_ + 1 y_99_ ^ 2 ] >= 31634.46
quadratic_ranged_575_lb: [ 1 x_1_ ^ 2 - 2 x_100_ * x_1_ + 1 x_100_ ^ 2 + 1 y_1_ ^ 2 - 2 y_100_ * y_1_ + 1 y_100_ ^ 2 ] >= 3109.59
quadratic_ranged_576_lb: [ 1 x_8_ ^ 2 - 2 x_100_ * x_8_ + 1 x_100_ ^ 2 + 1 y_8_ ^ 2 - 2 y_100_ * y_8_ + 1 y_100_ ^ 2 ] >= 16398.36
quadratic_ranged_577_lb: [ 1 x_18_ ^ 2 - 2 x_100_ * x_18_ + 1 x_100_ ^ 2 + 1 y_18_ ^ 2 - 2 y_100_ * y_18_ + 1 y_100_ ^ 2 ] >= 21098.88
quadratic_ranged_578_lb: [ 1 x_34_ ^ 2 - 2 x_100_ * x_34_ + 1 x_100_ ^ 2 + 1 y_34_ ^ 2 - 2 y_100_ * y_34_ + 1 y_100_ ^ 2 ] >= 365.31
quadratic_ranged_579_lb: [ 1 x_57_ ^ 2 - 2 x_100_ * x_57_ + 1 x_100_ ^ 2 + 1 y_57_ ^ 2 - 2 y_100_ * y_57_ + 1 y_100_ ^ 2 ] >= 242.55
quadratic_ranged_580_lb: [ 1 x_62_ ^ 2 - 2 x_100_ * x_62_ + 1 x_100_ ^ 2 + 1 y_62_ ^ 2 - 2 y_100_ * y_62_ + 1 y_100_ ^ 2 ] >= 1093.95
quadratic_ranged_581_lb: [ 1 x_67_ ^ 2 - 2 x_100_ * x_67_ + 1 x_100_ ^ 2 + 1 y_67_ ^ 2 - 2 y_100_ * y_67_ + 1 y_100_ ^ 2 ] >= 9433.71
quadratic_ranged_582_lb: [ 1 x_76_ ^ 2 - 2 x_100_ * x_76_ + 1 x_100_ ^ 2 + 1 y_76_ ^ 2 - 2 y_100_ * y_76_ + 1 y_100_ ^ 2 ] >= 18257.579999999998
quadratic_ranged_583_lb: [ 1 x_82_ ^ 2 - 2 x_100_ * x_82_ + 1 x_100_ ^ 2 + 1 y_82_ ^ 2 - 2 y_100_ * y_82_ + 1 y_100_ ^ 2 ] >= 4090.68
quadratic_ranged_584_lb: [ 1 x_87_ ^ 2 - 2 x_100_ * x_87_ + 1 x_100_ ^ 2 + 1 y_87_ ^ 2 - 2 y_100_ * y_87_ + 1 y_100_ ^ 2 ] >= 13904.55
quadratic_ranged_585_lb: [ 1 x_99_ ^ 2 - 2 x_100_ * x_99_ + 1 x_100_ ^ 2 + 1 y_99_ ^ 2 - 2 y_100_ * y_99_ + 1 y_100_ ^ 2 ] >= 17670.51
c1_1: 1 x_21_ = -63
c2_1: 1 y_21_ = 74
c3_1: 1 x_68_ = 54
c4_1: 1 y_68_ = 39
c5_1: 1 x_64_ = -38
c6_1: 1 y_64_ = 61
Bounds
-43 <= x_1_ <= 32
-131 <= x_2_ <= 120
-83 <= x_3_ <= 71
-76 <= x_4_ <= 0
-87 <= x_5_ <= -5
-45 <= x_6_ <= 45
-104 <= x_7_ <= 52
-140 <= x_8_ <= 103
7 <= x_9_ <= 64
-39 <= x_10_ <= -27
-87 <= x_11_ <= 26
-97 <= x_12_ <= 85
-67 <= x_13_ <= 56
-90 <= x_14_ <= 135
-55 <= x_15_ <= 107
16 <= x_16_ <= 92
-41 <= x_17_ <= 75
-101 <= x_18_ <= 65
-122 <= x_19_ <= 32
-76 <= x_20_ <= 93
x_21_ = -63
-89 <= x_22_ <= 137
-87 <= x_23_ <= 112
-81 <= x_24_ <= 105
-83 <= x_25_ <= 57
-121 <= x_26_ <= 103
-22 <= x_27_ <= 122
-163 <= x_28_ <= 178
-103 <= x_29_ <= 125
-74 <= x_30_ <= 115
27 <= x_31_ <= 81
-35 <= x_32_ <= 92
-68 <= x_33_ <= 134
-35 <= x_34_ <= 61
-63 <= x_35_ <= 33
-103 <= x_36_ <= 110
-138 <= x_37_ <= 85
-101 <= x_38_ <= 3
-53 <= x_39_ <= 101
-98 <= x_40_ <= 122
-128 <= x_41_ <= 150
-127 <= x_42_ <= 101
-94 <= x_43_ <= 141
-108 <= x_44_ <= 56
-8 <= x_45_ <= 77
-161 <= x_46_ <= 209
-82 <= x_47_ <= 130
-81 <= x_48_ <= 85
-65 <= x_49_ <= 97
-74 <= x_50_ <= 91
-76 <= x_51_ <= 57
-166 <= x_52_ <= 111
-29 <= x_53_ <= 79
-65 <= x_54_ <= 95
-120 <= x_55_ <= 25
-108 <= x_56_ <= 106
-70 <= x_57_ <= 79
-127 <= x_58_ <= 1
-64 <= x_59_ <= 111
-126 <= x_60_ <= 88
-156 <= x_61_ <= 165
-63 <= x_62_ <= 82
-44 <= x_63_ <= -21
x_64_ = -38
-63 <= x_65_ <= -13
-89 <= x_66_ <= -37
-37 <= x_67_ <= 36
x_68_ = 54
-33 <= x_69_ <= 42
-48 <= x_70_ <= 105
-67 <= x_71_ <= 15
-121 <= x_72_ <= 88
-62 <= x_73_ <= 61
-119 <= x_74_ <= 28
-139 <= x_75_ <= 75
-58 <= x_76_ <= 17
-64 <= x_77_ <= 83
-81 <= x_78_ <= 73
-134 <= x_79_ <= 155
-108 <= x_80_ <= 116
-31 <= x_81_ <= 127
-100 <= x_82_ <= 89
-105 <= x_83_ <= 6
-37 <= x_84_ <= 40
-135 <= x_85_ <= 107
-59 <= x_86_ <= 55
-78 <= x_87_ <= 21
-145 <= x_88_ <= 109
-70 <= x_89_ <= 60
-67 <= x_90_ <= 65
-136 <= x_91_ <= 172
-88 <= x_92_ <= 124
-68 <= x_93_ <= 89
-142 <= x_94_ <= 96
-81 <= x_95_ <= 97
-66 <= x_96_ <= 123
-97 <= x_97_ <= 94
-61 <= x_98_ <= -34
-164 <= x_99_ <= 146
-54 <= x_100_ <= 81
-10 <= y_1_ <= 132
-97 <= y_2_ <= 219
-60 <= y_3_ <= 176
23 <= y_4_ <= 99
16 <= y_5_ <= 132
-34 <= y_6_ <= 138
-41 <= y_7_ <= 189
-92 <= y_8_ <= 233
-8 <= y_9_ <= 86
38 <= y_10_ <= 110
-15 <= y_11_ <= 157
-64 <= y_12_ <= 186
-33 <= y_13_ <= 155
-105 <= y_14_ <= 183
-70 <= y_15_ <= 148
1 <= y_16_ <= 77
-53 <= y_17_ <= 134
-54 <= y_18_ <= 194
-21 <= y_19_ <= 169
-82 <= y_20_ <= 169
y_21_ = 74
-104 <= y_22_ <= 182
-89 <= y_23_ <= 180
-82 <= y_24_ <= 174
-34 <= y_25_ <= 156
-92 <= y_26_ <= 214
-37 <= y_27_ <= 115
-167 <= y_28_ <= 256
-114 <= y_29_ <= 196
-89 <= y_30_ <= 167
12 <= y_31_ <= 66
-50 <= y_32_ <= 128
-83 <= y_33_ <= 161
-38 <= y_34_ <= 128
-10 <= y_35_ <= 132
-89 <= y_36_ <= 196
-74 <= y_37_ <= 217
8 <= y_38_ <= 133
-68 <= y_39_ <= 146
-99 <= y_40_ <= 191
-127 <= y_41_ <= 221
-90 <= y_42_ <= 220
-109 <= y_43_ <= 187
-37 <= y_44_ <= 159
-23 <= y_45_ <= 101
-176 <= y_46_ <= 254
-97 <= y_47_ <= 175
-74 <= y_48_ <= 174
-74 <= y_49_ <= 158
-76 <= y_50_ <= 167
-42 <= y_51_ <= 164
-100 <= y_52_ <= 241
-44 <= y_53_ <= 122
-80 <= y_54_ <= 158
-14 <= y_55_ <= 162
-83 <= y_56_ <= 201
-57 <= y_57_ <= 163
10 <= y_58_ <= 138
-79 <= y_59_ <= 157
-77 <= y_60_ <= 219
-143 <= y_61_ <= 249
-59 <= y_62_ <= 156
32 <= y_63_ <= 97
y_64_ = 61
36 <= y_65_ <= 86
48 <= y_66_ <= 100
-25 <= y_67_ <= 130
y_68_ = 39
-31 <= y_69_ <= 126
-63 <= y_70_ <= 141
4 <= y_71_ <= 118
-65 <= y_72_ <= 187
-50 <= y_73_ <= 155
-17 <= y_74_ <= 142
-64 <= y_75_ <= 211
-6 <= y_76_ <= 151
-72 <= y_77_ <= 157
-62 <= y_78_ <= 174
-144 <= y_79_ <= 227
-99 <= y_80_ <= 201
-46 <= y_81_ <= 124
-67 <= y_82_ <= 189
5 <= y_83_ <= 143
-29 <= y_84_ <= 130
-96 <= y_85_ <= 228
-44 <= y_86_ <= 152
-10 <= y_87_ <= 158
-90 <= y_88_ <= 212
-49 <= y_89_ <= 163
-42 <= y_90_ <= 160
-151 <= y_91_ <= 229
-103 <= y_92_ <= 181
-78 <= y_93_ <= 161
-85 <= y_94_ <= 228
-83 <= y_95_ <= 174
-81 <= y_96_ <= 159
-83 <= y_97_ <= 190
45 <= y_98_ <= 103
-135 <= y_99_ <= 257
-58 <= y_100_ <= 147
General
x_1_
x_2_
x_3_
x_4_
x_5_
x_6_
x_7_
x_8_
x_9_
x_10_
x_11_
x_12_
x_13_
x_14_
x_15_
x_16_
x_17_
x_18_
x_19_
x_20_
x_21_
x_22_
x_23_
x_24_
x_25_
x_26_
x_27_
x_28_
x_29_
x_30_
x_31_
x_32_
x_33_
x_34_
x_35_
x_36_
x_37_
x_38_
x_39_
x_40_
x_41_
x_42_
x_43_
x_44_
x_45_
x_46_
x_47_
x_48_
x_49_
x_50_
x_51_
x_52_
x_53_
x_54_
x_55_
x_56_
x_57_
x_58_
x_59_
x_60_
x_61_
x_62_
x_63_
x_64_
x_65_
x_66_
x_67_
x_68_
x_69_
x_70_
x_71_
x_72_
x_73_
x_74_
x_75_
x_76_
x_77_
x_78_
x_79_
x_80_
x_81_
x_82_
x_83_
x_84_
x_85_
x_86_
x_87_
x_88_
x_89_
x_90_
x_91_
x_92_
x_93_
x_94_
x_95_
x_96_
x_97_
x_98_
x_99_
x_100_
y_1_
y_2_
y_3_
y_4_
y_5_
y_6_
y_7_
y_8_
y_9_
y_10_
y_11_
y_12_
y_13_
y_14_
y_15_
y_16_
y_17_
y_18_
y_19_
y_20_
y_21_
y_22_
y_23_
y_24_
y_25_
y_26_
y_27_
y_28_
y_29_
y_30_
y_31_
y_32_
y_33_
y_34_
y_35_
y_36_
y_37_
y_38_
y_39_
y_40_
y_41_
y_42_
y_43_
y_44_
y_45_
y_46_
y_47_
y_48_
y_49_
y_50_
y_51_
y_52_
y_53_
y_54_
y_55_
y_56_
y_57_
y_58_
y_59_
y_60_
y_61_
y_62_
y_63_
y_64_
y_65_
y_66_
y_67_
y_68_
y_69_
y_70_
y_71_
y_72_
y_73_
y_74_
y_75_
y_76_
y_77_
y_78_
y_79_
y_80_
y_81_
y_82_
y_83_
y_84_
y_85_
y_86_
y_87_
y_88_
y_89_
y_90_
y_91_
y_92_
y_93_
y_94_
y_95_
y_96_
y_97_
y_98_
y_99_
y_100_
End
