minimize
obj: 
subject to
c1_3: -1 x_83_ + 1 y_83_ <= 0
c1: [ 1 x_1_ ^ 2 + 1 y_1_ ^ 2 ] <= 6795.6619265893505
c2: [ 1 x_2_ ^ 2 + 1 y_2_ ^ 2 ] <= 5652.969999999998
c3: [ 1 x_3_ ^ 2 + 1 y_3_ ^ 2 ] <= 20135.95591642244
c4: [ 1 x_4_ ^ 2 + 1 y_4_ ^ 2 ] <= 34998.43510199784
c5: [ 1 x_5_ ^ 2 + 1 y_5_ ^ 2 ] <= 7419.483642192551
c6: [ 1 x_6_ ^ 2 + 1 y_6_ ^ 2 ] <= 28829.393700786903
c7: [ 1 x_7_ ^ 2 + 1 y_7_ ^ 2 ] <= 14712.409003972392
c8: [ 1 x_8_ ^ 2 + 1 y_8_ ^ 2 ] <= 14876.421155982642
c9: [ 1 x_9_ ^ 2 + 1 y_9_ ^ 2 ] <= 32987.52447215779
c10: [ 1 x_10_ ^ 2 + 1 y_10_ ^ 2 ] <= 27110.767908670616
c11: [ 1 x_11_ ^ 2 + 1 y_11_ ^ 2 ] <= 11649.041882159372
c12: [ 1 x_12_ ^ 2 + 1 y_12_ ^ 2 ] <= 10511.069563337634
c13: [ 1 x_13_ ^ 2 + 1 y_13_ ^ 2 ] <= 4670.239999999999
c14: [ 1 x_14_ ^ 2 + 1 y_14_ ^ 2 ] <= 15063.160049596927
c15: [ 1 x_15_ ^ 2 + 1 y_15_ ^ 2 ] <= 14566.515318999376
c16: [ 1 x_16_ ^ 2 + 1 y_16_ ^ 2 ] <= 6031.322559720525
c17: [ 1 x_17_ ^ 2 + 1 y_17_ ^ 2 ] <= 2972.9798583834
c18: [ 1 x_18_ ^ 2 + 1 y_18_ ^ 2 ] <= 24060.416048936655
c19: [ 1 x_19_ ^ 2 + 1 y_19_ ^ 2 ] <= 18896.966753457855
c20: [ 1 x_20_ ^ 2 + 1 y_20_ ^ 2 ] <= 19358.79383840353
c21: [ 1 x_21_ ^ 2 + 1 y_21_ ^ 2 ] <= 7133.263203500496
c22: [ 1 x_22_ ^ 2 + 1 y_22_ ^ 2 ] <= 2450.2599999999998
c23: [ 1 x_24_ ^ 2 + 1 y_24_ ^ 2 ] <= 7534.599999999998
c24: [ 1 x_25_ ^ 2 + 1 y_25_ ^ 2 ] <= 25253.40788292032
c25: [ 1 x_26_ ^ 2 + 1 y_26_ ^ 2 ] <= 19832.390453255644
c26: [ 1 x_27_ ^ 2 + 1 y_27_ ^ 2 ] <= 18054.70150534324
c27: [ 1 x_28_ ^ 2 + 1 y_28_ ^ 2 ] <= 8001.219999999997
c28: [ 1 x_29_ ^ 2 + 1 y_29_ ^ 2 ] <= 9317.249999999996
c29: [ 1 x_30_ ^ 2 + 1 y_30_ ^ 2 ] <= 21551.596176502655
c30: [ 1 x_31_ ^ 2 + 1 y_31_ ^ 2 ] <= 10281.8
c31: [ 1 x_32_ ^ 2 + 1 y_32_ ^ 2 ] <= 17466.88367062153
c32: [ 1 x_33_ ^ 2 + 1 y_33_ ^ 2 ] <= 16007.607355520282
c33: [ 1 x_34_ ^ 2 + 1 y_34_ ^ 2 ] <= 4998.684312572248
c34: [ 1 x_35_ ^ 2 + 1 y_35_ ^ 2 ] <= 24207.047850053423
c35: [ 1 x_36_ ^ 2 + 1 y_36_ ^ 2 ] <= 13342.099999999997
c36: [ 1 x_37_ ^ 2 + 1 y_37_ ^ 2 ] <= 29232.79365315196
c37: [ 1 x_38_ ^ 2 + 1 y_38_ ^ 2 ] <= 11554.857676935382
c38: [ 1 x_39_ ^ 2 + 1 y_39_ ^ 2 ] <= 19974.189288969257
c39: [ 1 x_40_ ^ 2 + 1 y_40_ ^ 2 ] <= 13200.592538889738
c40: [ 1 x_41_ ^ 2 + 1 y_41_ ^ 2 ] <= 9082.929999999998
c41: [ 1 x_42_ ^ 2 + 1 y_42_ ^ 2 ] <= 17082.328374217006
c42: [ 1 x_43_ ^ 2 + 1 y_43_ ^ 2 ] <= 11221.669933247602
c43: [ 1 x_44_ ^ 2 + 1 y_44_ ^ 2 ] <= 10584.504018102936
c44: [ 1 x_45_ ^ 2 + 1 y_45_ ^ 2 ] <= 18356.51449280327
c45: [ 1 x_46_ ^ 2 + 1 y_46_ ^ 2 ] <= 1504.8999999999999
c46: [ 1 x_47_ ^ 2 + 1 y_47_ ^ 2 ] <= 13393.905644116743
c47: [ 1 x_48_ ^ 2 + 1 y_48_ ^ 2 ] <= 9769.316784625567
c48: [ 1 x_49_ ^ 2 + 1 y_49_ ^ 2 ] <= 20718.129999999997
c49: [ 1 x_50_ ^ 2 + 1 y_50_ ^ 2 ] <= 30410.08579223164
c50: [ 1 x_51_ ^ 2 + 1 y_51_ ^ 2 ] <= 3603.4645163061155
c51: [ 1 x_52_ ^ 2 + 1 y_52_ ^ 2 ] <= 21542.98321971076
c52: [ 1 x_53_ ^ 2 + 1 y_53_ ^ 2 ] <= 13241.525701791195
c53: [ 1 x_54_ ^ 2 + 1 y_54_ ^ 2 ] <= 15462.442015736624
c54: [ 1 x_55_ ^ 2 + 1 y_55_ ^ 2 ] <= 8582.720012764234
c55: [ 1 x_56_ ^ 2 + 1 y_56_ ^ 2 ] <= 8817.56734481094
c56: [ 1 x_57_ ^ 2 + 1 y_57_ ^ 2 ] <= 4913.390114276318
c57: [ 1 x_58_ ^ 2 + 1 y_58_ ^ 2 ] <= 2642.1377612432725
c58: [ 1 x_59_ ^ 2 + 1 y_59_ ^ 2 ] <= 16713.35978758109
c59: [ 1 x_60_ ^ 2 + 1 y_60_ ^ 2 ] <= 8513.950663536958
c60: [ 1 x_61_ ^ 2 + 1 y_61_ ^ 2 ] <= 7003.087867361767
c61: [ 1 x_62_ ^ 2 + 1 y_62_ ^ 2 ] <= 19661.4074982437
c62: [ 1 x_63_ ^ 2 + 1 y_63_ ^ 2 ] <= 231.29
c63: [ 1 x_64_ ^ 2 + 1 y_64_ ^ 2 ] <= 10470.178811189466
c64: [ 1 x_65_ ^ 2 + 1 y_65_ ^ 2 ] <= 6709.244176237239
c65: [ 1 x_66_ ^ 2 + 1 y_66_ ^ 2 ] <= 17959.86447472283
c66: [ 1 x_67_ ^ 2 + 1 y_67_ ^ 2 ] <= 24347.934836928413
c67: [ 1 x_68_ ^ 2 + 1 y_68_ ^ 2 ] <= 20838.30372201554
c68: [ 1 x_69_ ^ 2 + 1 y_69_ ^ 2 ] <= 17241.302841048546
c69: [ 1 x_70_ ^ 2 + 1 y_70_ ^ 2 ] <= 1270.58
c70: [ 1 x_71_ ^ 2 + 1 y_71_ ^ 2 ] <= 15454.942462377969
c71: [ 1 x_72_ ^ 2 + 1 y_72_ ^ 2 ] <= 14121.085161868355
c72: [ 1 x_73_ ^ 2 + 1 y_73_ ^ 2 ] <= 3050.514693754505
c73: [ 1 x_74_ ^ 2 + 1 y_74_ ^ 2 ] <= 26877.023876572923
c74: [ 1 x_75_ ^ 2 + 1 y_75_ ^ 2 ] <= 14512.62946315009
c75: [ 1 x_76_ ^ 2 + 1 y_76_ ^ 2 ] <= 24044.113084293687
c76: [ 1 x_77_ ^ 2 + 1 y_77_ ^ 2 ] <= 31449.61064293802
c77: [ 1 x_78_ ^ 2 + 1 y_78_ ^ 2 ] <= 25462.73528347134
c78: [ 1 x_79_ ^ 2 + 1 y_79_ ^ 2 ] <= 6780.40409942022
c79: [ 1 x_80_ ^ 2 + 1 y_80_ ^ 2 ] <= 10188.879999999997
c80: [ 1 x_81_ ^ 2 + 1 y_81_ ^ 2 ] <= 17760.008310479334
c81: [ 1 x_82_ ^ 2 + 1 y_82_ ^ 2 ] <= 13296.46368644383
c82: [ 1 x_83_ ^ 2 + 1 y_83_ ^ 2 ] <= 44183.49362256595
c83: [ 1 x_84_ ^ 2 + 1 y_84_ ^ 2 ] <= 18971.87623114634
c84: [ 1 x_85_ ^ 2 + 1 y_85_ ^ 2 ] <= 19756.931269939738
c85: [ 1 x_86_ ^ 2 + 1 y_86_ ^ 2 ] <= 9357.165194710069
c86: [ 1 x_87_ ^ 2 + 1 y_87_ ^ 2 ] <= 23963.366138135432
c87: [ 1 x_88_ ^ 2 + 1 y_88_ ^ 2 ] <= 12896.220646873782
c88: [ 1 x_89_ ^ 2 + 1 y_89_ ^ 2 ] <= 8671.142426270366
c89: [ 1 x_90_ ^ 2 + 1 y_90_ ^ 2 ] <= 11409.712457473343
c90: [ 1 x_91_ ^ 2 + 1 y_91_ ^ 2 ] <= 11702.602500893814
c91: [ 1 x_92_ ^ 2 + 1 y_92_ ^ 2 ] <= 14740.669088655846
c92: [ 1 x_93_ ^ 2 + 1 y_93_ ^ 2 ] <= 17143.480850965672
c93: [ 1 x_94_ ^ 2 + 1 y_94_ ^ 2 ] <= 20613.433110311587
c94: [ 1 x_95_ ^ 2 + 1 y_95_ ^ 2 ] <= 25639.6275064712
c95: [ 1 x_96_ ^ 2 + 1 y_96_ ^ 2 ] <= 20505.59607675495
c96: [ 1 x_97_ ^ 2 + 1 y_97_ ^ 2 ] <= 21705.94600853831
c97: [ 1 x_98_ ^ 2 + 1 y_98_ ^ 2 ] <= 7258.51513679087
c98: [ 1 x_99_ ^ 2 + 1 y_99_ ^ 2 ] <= 18657.18796824467
c99: [ 1 x_100_ ^ 2 + 1 y_100_ ^ 2 ] <= 5825.1551757975785
quadratic_ranged_1_ub: [ 1 x_1_ ^ 2 - 2 x_2_ * x_1_ + 1 x_2_ ^ 2 + 1 y_1_ ^ 2 - 2 y_2_ * y_1_ + 1 y_2_ ^ 2 ] <= 18447.65
quadratic_ranged_2_ub: [ 1 x_2_ ^ 2 - 2 x_3_ * x_2_ + 1 x_3_ ^ 2 + 1 y_2_ ^ 2 - 2 y_3_ * y_2_ + 1 y_3_ ^ 2 ] <= 35925.7
quadratic_ranged_3_ub: [ 1 x_3_ ^ 2 - 2 x_4_ * x_3_ + 1 x_4_ ^ 2 + 1 y_3_ ^ 2 - 2 y_4_ * y_3_ + 1 y_4_ ^ 2 ] <= 42008.93
quadratic_ranged_4_ub: [ 1 x_4_ ^ 2 - 2 x_5_ * x_4_ + 1 x_5_ ^ 2 + 1 y_4_ ^ 2 - 2 y_5_ * y_4_ + 1 y_5_ ^ 2 ] <= 13000.72
quadratic_ranged_5_ub: [ 1 x_4_ ^ 2 - 2 x_6_ * x_4_ + 1 x_6_ ^ 2 + 1 y_4_ ^ 2 - 2 y_6_ * y_4_ + 1 y_6_ ^ 2 ] <= 2663.37
quadratic_ranged_6_ub: [ 1 x_5_ ^ 2 - 2 x_6_ * x_5_ + 1 x_6_ ^ 2 + 1 y_5_ ^ 2 - 2 y_6_ * y_5_ + 1 y_6_ ^ 2 ] <= 6998.29
quadratic_ranged_7_ub: [ 1 x_6_ ^ 2 - 2 x_7_ * x_6_ + 1 x_7_ ^ 2 + 1 y_6_ ^ 2 - 2 y_7_ * y_6_ + 1 y_7_ ^ 2 ] <= 18661.77
quadratic_ranged_8_ub: [ 1 x_7_ ^ 2 - 2 x_8_ * x_7_ + 1 x_8_ ^ 2 + 1 y_7_ ^ 2 - 2 y_8_ * y_7_ + 1 y_8_ ^ 2 ] <= 397.94
quadratic_ranged_9_ub: [ 1 x_8_ ^ 2 - 2 x_9_ * x_8_ + 1 x_9_ ^ 2 + 1 y_8_ ^ 2 - 2 y_9_ * y_8_ + 1 y_9_ ^ 2 ] <= 11546.32
quadratic_ranged_10_ub: [ 1 x_9_ ^ 2 - 2 x_10_ * x_9_ + 1 x_10_ ^ 2 + 1 y_9_ ^ 2 - 2 y_10_ * y_9_ + 1 y_10_ ^ 2 ] <= 6642.77
quadratic_ranged_11_ub: [ 1 x_4_ ^ 2 - 2 x_11_ * x_4_ + 1 x_11_ ^ 2 + 1 y_4_ ^ 2 - 2 y_11_ * y_4_ + 1 y_11_ ^ 2 ] <= 14651.06
quadratic_ranged_12_ub: [ 1 x_10_ ^ 2 - 2 x_11_ * x_10_ + 1 x_11_ ^ 2 + 1 y_10_ ^ 2 - 2 y_11_ * y_10_ + 1 y_11_ ^ 2 ] <= 16811.45
quadratic_ranged_13_ub: [ 1 x_8_ ^ 2 - 2 x_12_ * x_8_ + 1 x_12_ ^ 2 + 1 y_8_ ^ 2 - 2 y_12_ * y_8_ + 1 y_12_ ^ 2 ] <= 33444.13
quadratic_ranged_14_ub: [ 1 x_11_ ^ 2 - 2 x_12_ * x_11_ + 1 x_12_ ^ 2 + 1 y_11_ ^ 2 - 2 y_12_ * y_11_ + 1 y_12_ ^ 2 ] <= 19316.25
quadratic_ranged_15_ub: [ 1 x_2_ ^ 2 - 2 x_13_ * x_2_ + 1 x_13_ ^ 2 + 1 y_2_ ^ 2 - 2 y_13_ * y_2_ + 1 y_13_ ^ 2 ] <= 16439.77
quadratic_ranged_16_ub: [ 1 x_11_ ^ 2 - 2 x_13_ * x_11_ + 1 x_13_ ^ 2 + 1 y_11_ ^ 2 - 2 y_13_ * y_11_ + 1 y_13_ ^ 2 ] <= 16315.54
quadratic_ranged_17_ub: [ 1 x_12_ ^ 2 - 2 x_13_ * x_12_ + 1 x_13_ ^ 2 + 1 y_12_ ^ 2 - 2 y_13_ * y_12_ + 1 y_13_ ^ 2 ] <= 1168.57
quadratic_ranged_18_ub: [ 1 x_4_ ^ 2 - 2 x_14_ * x_4_ + 1 x_14_ ^ 2 + 1 y_4_ ^ 2 - 2 y_14_ * y_4_ + 1 y_14_ ^ 2 ] <= 13382.5
quadratic_ranged_19_ub: [ 1 x_8_ ^ 2 - 2 x_14_ * x_8_ + 1 x_14_ ^ 2 + 1 y_8_ ^ 2 - 2 y_14_ * y_8_ + 1 y_14_ ^ 2 ] <= 4373.3
quadratic_ranged_20_ub: [ 1 x_9_ ^ 2 - 2 x_14_ * x_9_ + 1 x_14_ ^ 2 + 1 y_9_ ^ 2 - 2 y_14_ * y_9_ + 1 y_14_ ^ 2 ] <= 3468.34
quadratic_ranged_21_ub: [ 1 x_13_ ^ 2 - 2 x_14_ * x_13_ + 1 x_14_ ^ 2 + 1 y_13_ ^ 2 - 2 y_14_ * y_13_ + 1 y_14_ ^ 2 ] <= 11079.7
quadratic_ranged_22_ub: [ 1 x_11_ ^ 2 - 2 x_15_ * x_11_ + 1 x_15_ ^ 2 + 1 y_11_ ^ 2 - 2 y_15_ * y_11_ + 1 y_15_ ^ 2 ] <= 28729.45
quadratic_ranged_23_ub: [ 1 x_14_ ^ 2 - 2 x_15_ * x_14_ + 1 x_15_ ^ 2 + 1 y_14_ ^ 2 - 2 y_15_ * y_14_ + 1 y_15_ ^ 2 ] <= 23659.25
quadratic_ranged_24_ub: [ 1 x_7_ ^ 2 - 2 x_16_ * x_7_ + 1 x_16_ ^ 2 + 1 y_7_ ^ 2 - 2 y_16_ * y_7_ + 1 y_16_ ^ 2 ] <= 1903.85
quadratic_ranged_25_ub: [ 1 x_15_ ^ 2 - 2 x_16_ * x_15_ + 1 x_16_ ^ 2 + 1 y_15_ ^ 2 - 2 y_16_ * y_15_ + 1 y_16_ ^ 2 ] <= 16535.72
quadratic_ranged_26_ub: [ 1 x_15_ ^ 2 - 2 x_17_ * x_15_ + 1 x_17_ ^ 2 + 1 y_15_ ^ 2 - 2 y_17_ * y_15_ + 1 y_17_ ^ 2 ] <= 22189.7
quadratic_ranged_27_ub: [ 1 x_16_ ^ 2 - 2 x_17_ * x_16_ + 1 x_17_ ^ 2 + 1 y_16_ ^ 2 - 2 y_17_ * y_16_ + 1 y_17_ ^ 2 ] <= 535.3
quadratic_ranged_28_ub: [ 1 x_6_ ^ 2 - 2 x_18_ * x_6_ + 1 x_18_ ^ 2 + 1 y_6_ ^ 2 - 2 y_18_ * y_6_ + 1 y_18_ ^ 2 ] <= 18281
quadratic_ranged_29_ub: [ 1 x_8_ ^ 2 - 2 x_18_ * x_8_ + 1 x_18_ ^ 2 + 1 y_8_ ^ 2 - 2 y_18_ * y_8_ + 1 y_18_ ^ 2 ] <= 5883.25
quadratic_ranged_30_ub: [ 1 x_17_ ^ 2 - 2 x_18_ * x_17_ + 1 x_18_ ^ 2 + 1 y_17_ ^ 2 - 2 y_18_ * y_17_ + 1 y_18_ ^ 2 ] <= 10118.18
quadratic_ranged_31_ub: [ 1 x_18_ ^ 2 - 2 x_19_ * x_18_ + 1 x_19_ ^ 2 + 1 y_18_ ^ 2 - 2 y_19_ * y_18_ + 1 y_19_ ^ 2 ] <= 32805.81
quadratic_ranged_32_ub: [ 1 x_8_ ^ 2 - 2 x_20_ * x_8_ + 1 x_20_ ^ 2 + 1 y_8_ ^ 2 - 2 y_20_ * y_8_ + 1 y_20_ ^ 2 ] <= 12814.880000000001
quadratic_ranged_33_ub: [ 1 x_13_ ^ 2 - 2 x_20_ * x_13_ + 1 x_20_ ^ 2 + 1 y_13_ ^ 2 - 2 y_20_ * y_13_ + 1 y_20_ ^ 2 ] <= 6904.36
quadratic_ranged_34_ub: [ 1 x_19_ ^ 2 - 2 x_20_ * x_19_ + 1 x_20_ ^ 2 + 1 y_19_ ^ 2 - 2 y_20_ * y_19_ + 1 y_20_ ^ 2 ] <= 8736.5
quadratic_ranged_35_ub: [ 1 x_20_ ^ 2 - 2 x_21_ * x_20_ + 1 x_21_ ^ 2 + 1 y_20_ ^ 2 - 2 y_21_ * y_20_ + 1 y_21_ ^ 2 ] <= 2989.6
quadratic_ranged_36_ub: [ 1 x_17_ ^ 2 - 2 x_22_ * x_17_ + 1 x_22_ ^ 2 + 1 y_17_ ^ 2 - 2 y_22_ * y_17_ + 1 y_22_ ^ 2 ] <= 25.25
quadratic_ranged_37_ub: [ 1 x_21_ ^ 2 - 2 x_22_ * x_21_ + 1 x_22_ ^ 2 + 1 y_21_ ^ 2 - 2 y_22_ * y_21_ + 1 y_22_ ^ 2 ] <= 1222.1
quadratic_ranged_38_ub: [ 1 x_2_ ^ 2 - 2 x_23_ * x_2_ + 1 x_23_ ^ 2 + 1 y_2_ ^ 2 - 2 y_23_ * y_2_ + 1 y_23_ ^ 2 ] <= 5652.97
quadratic_ranged_39_ub: [ 1 x_13_ ^ 2 - 2 x_23_ * x_13_ + 1 x_23_ ^ 2 + 1 y_13_ ^ 2 - 2 y_23_ * y_13_ + 1 y_23_ ^ 2 ] <= 4670.24
quadratic_ranged_40_ub: [ 1 x_22_ ^ 2 - 2 x_23_ * x_22_ + 1 x_23_ ^ 2 + 1 y_22_ ^ 2 - 2 y_23_ * y_22_ + 1 y_23_ ^ 2 ] <= 2450.26
quadratic_ranged_41_ub: [ 1 x_4_ ^ 2 - 2 x_24_ * x_4_ + 1 x_24_ ^ 2 + 1 y_4_ ^ 2 - 2 y_24_ * y_4_ + 1 y_24_ ^ 2 ] <= 17388.16
quadratic_ranged_42_ub: [ 1 x_11_ ^ 2 - 2 x_24_ * x_11_ + 1 x_24_ ^ 2 + 1 y_11_ ^ 2 - 2 y_24_ * y_11_ + 1 y_24_ ^ 2 ] <= 446.42
quadratic_ranged_43_ub: [ 1 x_23_ ^ 2 - 2 x_24_ * x_23_ + 1 x_24_ ^ 2 + 1 y_23_ ^ 2 - 2 y_24_ * y_23_ + 1 y_24_ ^ 2 ] <= 7534.6
quadratic_ranged_44_ub: [ 1 x_13_ ^ 2 - 2 x_25_ * x_13_ + 1 x_25_ ^ 2 + 1 y_13_ ^ 2 - 2 y_25_ * y_13_ + 1 y_25_ ^ 2 ] <= 42634.12
quadratic_ranged_45_ub: [ 1 x_17_ ^ 2 - 2 x_25_ * x_17_ + 1 x_25_ ^ 2 + 1 y_17_ ^ 2 - 2 y_25_ * y_17_ + 1 y_25_ ^ 2 ] <= 10896.89
quadratic_ranged_46_ub: [ 1 x_24_ ^ 2 - 2 x_25_ * x_24_ + 1 x_25_ ^ 2 + 1 y_24_ ^ 2 - 2 y_25_ * y_24_ + 1 y_25_ ^ 2 ] <= 12734.08
quadratic_ranged_47_ub: [ 1 x_3_ ^ 2 - 2 x_26_ * x_3_ + 1 x_26_ ^ 2 + 1 y_3_ ^ 2 - 2 y_26_ * y_3_ + 1 y_26_ ^ 2 ] <= 41378.69
quadratic_ranged_48_ub: [ 1 x_6_ ^ 2 - 2 x_26_ * x_6_ + 1 x_26_ ^ 2 + 1 y_6_ ^ 2 - 2 y_26_ * y_6_ + 1 y_26_ ^ 2 ] <= 4024.85
quadratic_ranged_49_ub: [ 1 x_25_ ^ 2 - 2 x_26_ * x_25_ + 1 x_26_ ^ 2 + 1 y_25_ ^ 2 - 2 y_26_ * y_25_ + 1 y_26_ ^ 2 ] <= 6161
quadratic_ranged_50_ub: [ 1 x_9_ ^ 2 - 2 x_27_ * x_9_ + 1 x_27_ ^ 2 + 1 y_9_ ^ 2 - 2 y_27_ * y_9_ + 1 y_27_ ^ 2 ] <= 6707.41
quadratic_ranged_51_ub: [ 1 x_25_ ^ 2 - 2 x_27_ * x_25_ + 1 x_27_ ^ 2 + 1 y_25_ ^ 2 - 2 y_27_ * y_25_ + 1 y_27_ ^ 2 ] <= 7297.25
quadratic_ranged_52_ub: [ 1 x_26_ ^ 2 - 2 x_27_ * x_26_ + 1 x_27_ ^ 2 + 1 y_26_ ^ 2 - 2 y_27_ * y_26_ + 1 y_27_ ^ 2 ] <= 89.89
quadratic_ranged_53_ub: [ 1 x_5_ ^ 2 - 2 x_28_ * x_5_ + 1 x_28_ ^ 2 + 1 y_5_ ^ 2 - 2 y_28_ * y_5_ + 1 y_28_ ^ 2 ] <= 22795.7
quadratic_ranged_54_ub: [ 1 x_23_ ^ 2 - 2 x_28_ * x_23_ + 1 x_28_ ^ 2 + 1 y_23_ ^ 2 - 2 y_28_ * y_23_ + 1 y_28_ ^ 2 ] <= 8001.22
quadratic_ranged_55_ub: [ 1 x_27_ ^ 2 - 2 x_28_ * x_27_ + 1 x_28_ ^ 2 + 1 y_27_ ^ 2 - 2 y_28_ * y_27_ + 1 y_28_ ^ 2 ] <= 7333.61
quadratic_ranged_56_ub: [ 1 x_12_ ^ 2 - 2 x_29_ * x_12_ + 1 x_29_ ^ 2 + 1 y_12_ ^ 2 - 2 y_29_ * y_12_ + 1 y_29_ ^ 2 ] <= 9215.24
quadratic_ranged_57_ub: [ 1 x_13_ ^ 2 - 2 x_29_ * x_13_ + 1 x_29_ ^ 2 + 1 y_13_ ^ 2 - 2 y_29_ * y_13_ + 1 y_29_ ^ 2 ] <= 4267.25
quadratic_ranged_58_ub: [ 1 x_16_ ^ 2 - 2 x_29_ * x_16_ + 1 x_29_ ^ 2 + 1 y_16_ ^ 2 - 2 y_29_ * y_16_ + 1 y_29_ ^ 2 ] <= 17614.4
quadratic_ranged_59_ub: [ 1 x_17_ ^ 2 - 2 x_29_ * x_17_ + 1 x_29_ ^ 2 + 1 y_17_ ^ 2 - 2 y_29_ * y_17_ + 1 y_29_ ^ 2 ] <= 21462.5
quadratic_ranged_60_ub: [ 1 x_20_ ^ 2 - 2 x_29_ * x_20_ + 1 x_29_ ^ 2 + 1 y_20_ ^ 2 - 2 y_29_ * y_20_ + 1 y_29_ ^ 2 ] <= 6186.25
quadratic_ranged_61_ub: [ 1 x_23_ ^ 2 - 2 x_29_ * x_23_ + 1 x_29_ ^ 2 + 1 y_23_ ^ 2 - 2 y_29_ * y_23_ + 1 y_29_ ^ 2 ] <= 9317.25
quadratic_ranged_62_ub: [ 1 x_28_ ^ 2 - 2 x_29_ * x_28_ + 1 x_29_ ^ 2 + 1 y_28_ ^ 2 - 2 y_29_ * y_28_ + 1 y_29_ ^ 2 ] <= 30171.73
quadratic_ranged_63_ub: [ 1 x_5_ ^ 2 - 2 x_30_ * x_5_ + 1 x_30_ ^ 2 + 1 y_5_ ^ 2 - 2 y_30_ * y_5_ + 1 y_30_ ^ 2 ] <= 23129
quadratic_ranged_64_ub: [ 1 x_6_ ^ 2 - 2 x_30_ * x_6_ + 1 x_30_ ^ 2 + 1 y_6_ ^ 2 - 2 y_30_ * y_6_ + 1 y_30_ ^ 2 ] <= 12036.17
quadratic_ranged_65_ub: [ 1 x_9_ ^ 2 - 2 x_30_ * x_9_ + 1 x_30_ ^ 2 + 1 y_9_ ^ 2 - 2 y_30_ * y_9_ + 1 y_30_ ^ 2 ] <= 10766.6
quadratic_ranged_66_ub: [ 1 x_14_ ^ 2 - 2 x_30_ * x_14_ + 1 x_30_ ^ 2 + 1 y_14_ ^ 2 - 2 y_30_ * y_14_ + 1 y_30_ ^ 2 ] <= 9948.5
quadratic_ranged_67_ub: [ 1 x_29_ ^ 2 - 2 x_30_ * x_29_ + 1 x_30_ ^ 2 + 1 y_29_ ^ 2 - 2 y_30_ * y_29_ + 1 y_30_ ^ 2 ] <= 28531.49
quadratic_ranged_68_ub: [ 1 x_16_ ^ 2 - 2 x_31_ * x_16_ + 1 x_31_ ^ 2 + 1 y_16_ ^ 2 - 2 y_31_ * y_16_ + 1 y_31_ ^ 2 ] <= 13240.09
quadratic_ranged_69_ub: [ 1 x_23_ ^ 2 - 2 x_31_ * x_23_ + 1 x_31_ ^ 2 + 1 y_23_ ^ 2 - 2 y_31_ * y_23_ + 1 y_31_ ^ 2 ] <= 10281.8
quadratic_ranged_70_ub: [ 1 x_30_ ^ 2 - 2 x_31_ * x_30_ + 1 x_31_ ^ 2 + 1 y_30_ ^ 2 - 2 y_31_ * y_30_ + 1 y_31_ ^ 2 ] <= 16584.2
quadratic_ranged_71_ub: [ 1 x_11_ ^ 2 - 2 x_32_ * x_11_ + 1 x_32_ ^ 2 + 1 y_11_ ^ 2 - 2 y_32_ * y_11_ + 1 y_32_ ^ 2 ] <= 34991.45
quadratic_ranged_72_ub: [ 1 x_25_ ^ 2 - 2 x_32_ * x_25_ + 1 x_32_ ^ 2 + 1 y_25_ ^ 2 - 2 y_32_ * y_25_ + 1 y_32_ ^ 2 ] <= 33504.73
quadratic_ranged_73_ub: [ 1 x_31_ ^ 2 - 2 x_32_ * x_31_ + 1 x_32_ ^ 2 + 1 y_31_ ^ 2 - 2 y_32_ * y_31_ + 1 y_32_ ^ 2 ] <= 946.37
quadratic_ranged_74_ub: [ 1 x_6_ ^ 2 - 2 x_33_ * x_6_ + 1 x_33_ ^ 2 + 1 y_6_ ^ 2 - 2 y_33_ * y_6_ + 1 y_33_ ^ 2 ] <= 25892.36
quadratic_ranged_75_ub: [ 1 x_7_ ^ 2 - 2 x_33_ * x_7_ + 1 x_33_ ^ 2 + 1 y_7_ ^ 2 - 2 y_33_ * y_7_ + 1 y_33_ ^ 2 ] <= 43354.25
quadratic_ranged_76_ub: [ 1 x_16_ ^ 2 - 2 x_33_ * x_16_ + 1 x_33_ ^ 2 + 1 y_16_ ^ 2 - 2 y_33_ * y_16_ + 1 y_33_ ^ 2 ] <= 27617.44
quadratic_ranged_77_ub: [ 1 x_19_ ^ 2 - 2 x_33_ * x_19_ + 1 x_33_ ^ 2 + 1 y_19_ ^ 2 - 2 y_33_ * y_19_ + 1 y_33_ ^ 2 ] <= 23744.09
quadratic_ranged_78_ub: [ 1 x_32_ ^ 2 - 2 x_33_ * x_32_ + 1 x_33_ ^ 2 + 1 y_32_ ^ 2 - 2 y_33_ * y_32_ + 1 y_33_ ^ 2 ] <= 25066.18
quadratic_ranged_79_ub: [ 1 x_7_ ^ 2 - 2 x_34_ * x_7_ + 1 x_34_ ^ 2 + 1 y_7_ ^ 2 - 2 y_34_ * y_7_ + 1 y_34_ ^ 2 ] <= 24017.8
quadratic_ranged_80_ub: [ 1 x_26_ ^ 2 - 2 x_34_ * x_26_ + 1 x_34_ ^ 2 + 1 y_26_ ^ 2 - 2 y_34_ * y_26_ + 1 y_34_ ^ 2 ] <= 22133.14
quadratic_ranged_81_ub: [ 1 x_28_ ^ 2 - 2 x_34_ * x_28_ + 1 x_34_ ^ 2 + 1 y_28_ ^ 2 - 2 y_34_ * y_28_ + 1 y_34_ ^ 2 ] <= 23856.2
quadratic_ranged_82_ub: [ 1 x_29_ ^ 2 - 2 x_34_ * x_29_ + 1 x_34_ ^ 2 + 1 y_29_ ^ 2 - 2 y_34_ * y_29_ + 1 y_34_ ^ 2 ] <= 7228.57
quadratic_ranged_83_ub: [ 1 x_33_ ^ 2 - 2 x_34_ * x_33_ + 1 x_34_ ^ 2 + 1 y_33_ ^ 2 - 2 y_34_ * y_33_ + 1 y_34_ ^ 2 ] <= 3115.85
quadratic_ranged_84_ub: [ 1 x_7_ ^ 2 - 2 x_35_ * x_7_ + 1 x_35_ ^ 2 + 1 y_7_ ^ 2 - 2 y_35_ * y_7_ + 1 y_35_ ^ 2 ] <= 8226.45
quadratic_ranged_85_ub: [ 1 x_14_ ^ 2 - 2 x_35_ * x_14_ + 1 x_35_ ^ 2 + 1 y_14_ ^ 2 - 2 y_35_ * y_14_ + 1 y_35_ ^ 2 ] <= 1435.21
quadratic_ranged_86_ub: [ 1 x_32_ ^ 2 - 2 x_35_ * x_32_ + 1 x_35_ ^ 2 + 1 y_32_ ^ 2 - 2 y_35_ * y_32_ + 1 y_35_ ^ 2 ] <= 42470.5
quadratic_ranged_87_ub: [ 1 x_34_ ^ 2 - 2 x_35_ * x_34_ + 1 x_35_ ^ 2 + 1 y_34_ ^ 2 - 2 y_35_ * y_34_ + 1 y_35_ ^ 2 ] <= 10925.17
quadratic_ranged_88_ub: [ 1 x_16_ ^ 2 - 2 x_36_ * x_16_ + 1 x_36_ ^ 2 + 1 y_16_ ^ 2 - 2 y_36_ * y_16_ + 1 y_36_ ^ 2 ] <= 7624.49
quadratic_ranged_89_ub: [ 1 x_17_ ^ 2 - 2 x_36_ * x_17_ + 1 x_36_ ^ 2 + 1 y_17_ ^ 2 - 2 y_36_ * y_17_ + 1 y_36_ ^ 2 ] <= 11894.77
quadratic_ranged_90_ub: [ 1 x_20_ ^ 2 - 2 x_36_ * x_20_ + 1 x_36_ ^ 2 + 1 y_20_ ^ 2 - 2 y_36_ * y_20_ + 1 y_36_ ^ 2 ] <= 7063.9400000000005
quadratic_ranged_91_ub: [ 1 x_23_ ^ 2 - 2 x_36_ * x_23_ + 1 x_36_ ^ 2 + 1 y_23_ ^ 2 - 2 y_36_ * y_23_ + 1 y_36_ ^ 2 ] <= 13342.1
quadratic_ranged_92_ub: [ 1 x_31_ ^ 2 - 2 x_36_ * x_31_ + 1 x_36_ ^ 2 + 1 y_31_ ^ 2 - 2 y_36_ * y_31_ + 1 y_36_ ^ 2 ] <= 8534.5
quadratic_ranged_93_ub: [ 1 x_35_ ^ 2 - 2 x_36_ * x_35_ + 1 x_36_ ^ 2 + 1 y_35_ ^ 2 - 2 y_36_ * y_35_ + 1 y_36_ ^ 2 ] <= 27489.170000000002
quadratic_ranged_94_ub: [ 1 x_7_ ^ 2 - 2 x_37_ * x_7_ + 1 x_37_ ^ 2 + 1 y_7_ ^ 2 - 2 y_37_ * y_7_ + 1 y_37_ ^ 2 ] <= 26063.05
quadratic_ranged_95_ub: [ 1 x_15_ ^ 2 - 2 x_37_ * x_15_ + 1 x_37_ ^ 2 + 1 y_15_ ^ 2 - 2 y_37_ * y_15_ + 1 y_37_ ^ 2 ] <= 5235.84
quadratic_ranged_96_ub: [ 1 x_28_ ^ 2 - 2 x_37_ * x_28_ + 1 x_37_ ^ 2 + 1 y_28_ ^ 2 - 2 y_37_ * y_28_ + 1 y_37_ ^ 2 ] <= 25549.97
quadratic_ranged_97_ub: [ 1 x_31_ ^ 2 - 2 x_37_ * x_31_ + 1 x_37_ ^ 2 + 1 y_31_ ^ 2 - 2 y_37_ * y_31_ + 1 y_37_ ^ 2 ] <= 4840.93
quadratic_ranged_98_ub: [ 1 x_32_ ^ 2 - 2 x_37_ * x_32_ + 1 x_37_ ^ 2 + 1 y_32_ ^ 2 - 2 y_37_ * y_32_ + 1 y_37_ ^ 2 ] <= 7766.9
quadratic_ranged_99_ub: [ 1 x_36_ ^ 2 - 2 x_37_ * x_36_ + 1 x_37_ ^ 2 + 1 y_36_ ^ 2 - 2 y_37_ * y_36_ + 1 y_37_ ^ 2 ] <= 20415.13
quadratic_ranged_100_ub: [ 1 x_11_ ^ 2 - 2 x_38_ * x_11_ + 1 x_38_ ^ 2 + 1 y_11_ ^ 2 - 2 y_38_ * y_11_ + 1 y_38_ ^ 2 ] <= 5382.29
quadratic_ranged_101_ub: [ 1 x_35_ ^ 2 - 2 x_38_ * x_35_ + 1 x_38_ ^ 2 + 1 y_35_ ^ 2 - 2 y_38_ * y_35_ + 1 y_38_ ^ 2 ] <= 2312.9
quadratic_ranged_102_ub: [ 1 x_37_ ^ 2 - 2 x_38_ * x_37_ + 1 x_38_ ^ 2 + 1 y_37_ ^ 2 - 2 y_38_ * y_37_ + 1 y_38_ ^ 2 ] <= 12178.58
quadratic_ranged_103_ub: [ 1 x_8_ ^ 2 - 2 x_39_ * x_8_ + 1 x_39_ ^ 2 + 1 y_8_ ^ 2 - 2 y_39_ * y_8_ + 1 y_39_ ^ 2 ] <= 3737
quadratic_ranged_104_ub: [ 1 x_25_ ^ 2 - 2 x_39_ * x_25_ + 1 x_39_ ^ 2 + 1 y_25_ ^ 2 - 2 y_39_ * y_25_ + 1 y_39_ ^ 2 ] <= 14079.4
quadratic_ranged_105_ub: [ 1 x_27_ ^ 2 - 2 x_39_ * x_27_ + 1 x_39_ ^ 2 + 1 y_27_ ^ 2 - 2 y_39_ * y_27_ + 1 y_39_ ^ 2 ] <= 9769.73
quadratic_ranged_106_ub: [ 1 x_28_ ^ 2 - 2 x_39_ * x_28_ + 1 x_39_ ^ 2 + 1 y_28_ ^ 2 - 2 y_39_ * y_28_ + 1 y_39_ ^ 2 ] <= 3250.18
quadratic_ranged_107_ub: [ 1 x_37_ ^ 2 - 2 x_39_ * x_37_ + 1 x_39_ ^ 2 + 1 y_37_ ^ 2 - 2 y_39_ * y_37_ + 1 y_39_ ^ 2 ] <= 14448.05
quadratic_ranged_108_ub: [ 1 x_38_ ^ 2 - 2 x_39_ * x_38_ + 1 x_39_ ^ 2 + 1 y_38_ ^ 2 - 2 y_39_ * y_38_ + 1 y_39_ ^ 2 ] <= 4089.4900000000002
quadratic_ranged_109_ub: [ 1 x_11_ ^ 2 - 2 x_40_ * x_11_ + 1 x_40_ ^ 2 + 1 y_11_ ^ 2 - 2 y_40_ * y_11_ + 1 y_40_ ^ 2 ] <= 6474.1
quadratic_ranged_110_ub: [ 1 x_17_ ^ 2 - 2 x_40_ * x_17_ + 1 x_40_ ^ 2 + 1 y_17_ ^ 2 - 2 y_40_ * y_17_ + 1 y_40_ ^ 2 ] <= 3758.21
quadratic_ranged_111_ub: [ 1 x_22_ ^ 2 - 2 x_40_ * x_22_ + 1 x_40_ ^ 2 + 1 y_22_ ^ 2 - 2 y_40_ * y_22_ + 1 y_40_ ^ 2 ] <= 4276.34
quadratic_ranged_112_ub: [ 1 x_33_ ^ 2 - 2 x_40_ * x_33_ + 1 x_40_ ^ 2 + 1 y_33_ ^ 2 - 2 y_40_ * y_33_ + 1 y_40_ ^ 2 ] <= 40712.090000000004
quadratic_ranged_113_ub: [ 1 x_34_ ^ 2 - 2 x_40_ * x_34_ + 1 x_40_ ^ 2 + 1 y_34_ ^ 2 - 2 y_40_ * y_34_ + 1 y_40_ ^ 2 ] <= 23724.9
quadratic_ranged_114_ub: [ 1 x_39_ ^ 2 - 2 x_40_ * x_39_ + 1 x_40_ ^ 2 + 1 y_39_ ^ 2 - 2 y_40_ * y_39_ + 1 y_40_ ^ 2 ] <= 5336.84
quadratic_ranged_115_ub: [ 1 x_2_ ^ 2 - 2 x_41_ * x_2_ + 1 x_41_ ^ 2 + 1 y_2_ ^ 2 - 2 y_41_ * y_2_ + 1 y_41_ ^ 2 ] <= 1494.8
quadratic_ranged_116_ub: [ 1 x_7_ ^ 2 - 2 x_41_ * x_7_ + 1 x_41_ ^ 2 + 1 y_7_ ^ 2 - 2 y_41_ * y_7_ + 1 y_41_ ^ 2 ] <= 13761.25
quadratic_ranged_117_ub: [ 1 x_23_ ^ 2 - 2 x_41_ * x_23_ + 1 x_41_ ^ 2 + 1 y_23_ ^ 2 - 2 y_41_ * y_23_ + 1 y_41_ ^ 2 ] <= 9082.93
quadratic_ranged_118_ub: [ 1 x_40_ ^ 2 - 2 x_41_ * x_40_ + 1 x_41_ ^ 2 + 1 y_40_ ^ 2 - 2 y_41_ * y_40_ + 1 y_41_ ^ 2 ] <= 6170.09
quadratic_ranged_119_ub: [ 1 x_16_ ^ 2 - 2 x_42_ * x_16_ + 1 x_42_ ^ 2 + 1 y_16_ ^ 2 - 2 y_42_ * y_16_ + 1 y_42_ ^ 2 ] <= 17651.77
quadratic_ranged_120_ub: [ 1 x_21_ ^ 2 - 2 x_42_ * x_21_ + 1 x_42_ ^ 2 + 1 y_21_ ^ 2 - 2 y_42_ * y_21_ + 1 y_42_ ^ 2 ] <= 19854.58
quadratic_ranged_121_ub: [ 1 x_31_ ^ 2 - 2 x_42_ * x_31_ + 1 x_42_ ^ 2 + 1 y_31_ ^ 2 - 2 y_42_ * y_31_ + 1 y_42_ ^ 2 ] <= 858.5
quadratic_ranged_122_ub: [ 1 x_35_ ^ 2 - 2 x_42_ * x_35_ + 1 x_42_ ^ 2 + 1 y_35_ ^ 2 - 2 y_42_ * y_35_ + 1 y_42_ ^ 2 ] <= 39795.01
quadratic_ranged_123_ub: [ 1 x_41_ ^ 2 - 2 x_42_ * x_41_ + 1 x_42_ ^ 2 + 1 y_41_ ^ 2 - 2 y_42_ * y_41_ + 1 y_42_ ^ 2 ] <= 2182.61
quadratic_ranged_124_ub: [ 1 x_5_ ^ 2 - 2 x_43_ * x_5_ + 1 x_43_ ^ 2 + 1 y_5_ ^ 2 - 2 y_43_ * y_5_ + 1 y_43_ ^ 2 ] <= 391.88
quadratic_ranged_125_ub: [ 1 x_20_ ^ 2 - 2 x_43_ * x_20_ + 1 x_43_ ^ 2 + 1 y_20_ ^ 2 - 2 y_43_ * y_20_ + 1 y_43_ ^ 2 ] <= 1571.56
quadratic_ranged_126_ub: [ 1 x_21_ ^ 2 - 2 x_43_ * x_21_ + 1 x_43_ ^ 2 + 1 y_21_ ^ 2 - 2 y_43_ * y_21_ + 1 y_43_ ^ 2 ] <= 4981.32
quadratic_ranged_127_ub: [ 1 x_25_ ^ 2 - 2 x_43_ * x_25_ + 1 x_43_ ^ 2 + 1 y_25_ ^ 2 - 2 y_43_ * y_25_ + 1 y_43_ ^ 2 ] <= 28413.32
quadratic_ranged_128_ub: [ 1 x_26_ ^ 2 - 2 x_43_ * x_26_ + 1 x_43_ ^ 2 + 1 y_26_ ^ 2 - 2 y_43_ * y_26_ + 1 y_43_ ^ 2 ] <= 9340.48
quadratic_ranged_129_ub: [ 1 x_33_ ^ 2 - 2 x_43_ * x_33_ + 1 x_43_ ^ 2 + 1 y_33_ ^ 2 - 2 y_43_ * y_33_ + 1 y_43_ ^ 2 ] <= 8771.85
quadratic_ranged_130_ub: [ 1 x_42_ ^ 2 - 2 x_43_ * x_42_ + 1 x_43_ ^ 2 + 1 y_42_ ^ 2 - 2 y_43_ * y_42_ + 1 y_43_ ^ 2 ] <= 8292.1
quadratic_ranged_131_ub: [ 1 x_3_ ^ 2 - 2 x_44_ * x_3_ + 1 x_44_ ^ 2 + 1 y_3_ ^ 2 - 2 y_44_ * y_3_ + 1 y_44_ ^ 2 ] <= 12736.1
quadratic_ranged_132_ub: [ 1 x_4_ ^ 2 - 2 x_44_ * x_4_ + 1 x_44_ ^ 2 + 1 y_4_ ^ 2 - 2 y_44_ * y_4_ + 1 y_44_ ^ 2 ] <= 10763.57
quadratic_ranged_133_ub: [ 1 x_17_ ^ 2 - 2 x_44_ * x_17_ + 1 x_44_ ^ 2 + 1 y_17_ ^ 2 - 2 y_44_ * y_17_ + 1 y_44_ ^ 2 ] <= 16824.58
quadratic_ranged_134_ub: [ 1 x_24_ ^ 2 - 2 x_44_ * x_24_ + 1 x_44_ ^ 2 + 1 y_24_ ^ 2 - 2 y_44_ * y_24_ + 1 y_44_ ^ 2 ] <= 27796.21
quadratic_ranged_135_ub: [ 1 x_25_ ^ 2 - 2 x_44_ * x_25_ + 1 x_44_ ^ 2 + 1 y_25_ ^ 2 - 2 y_44_ * y_25_ + 1 y_44_ ^ 2 ] <= 34082.45
quadratic_ranged_136_ub: [ 1 x_27_ ^ 2 - 2 x_44_ * x_27_ + 1 x_44_ ^ 2 + 1 y_27_ ^ 2 - 2 y_44_ * y_27_ + 1 y_44_ ^ 2 ] <= 10813.06
quadratic_ranged_137_ub: [ 1 x_43_ ^ 2 - 2 x_44_ * x_43_ + 1 x_44_ ^ 2 + 1 y_43_ ^ 2 - 2 y_44_ * y_43_ + 1 y_44_ ^ 2 ] <= 829.21
quadratic_ranged_138_ub: [ 1 x_3_ ^ 2 - 2 x_45_ * x_3_ + 1 x_45_ ^ 2 + 1 y_3_ ^ 2 - 2 y_45_ * y_3_ + 1 y_45_ ^ 2 ] <= 27201.32
quadratic_ranged_139_ub: [ 1 x_30_ ^ 2 - 2 x_45_ * x_30_ + 1 x_45_ ^ 2 + 1 y_30_ ^ 2 - 2 y_45_ * y_30_ + 1 y_45_ ^ 2 ] <= 25865.09
quadratic_ranged_140_ub: [ 1 x_32_ ^ 2 - 2 x_45_ * x_32_ + 1 x_45_ ^ 2 + 1 y_32_ ^ 2 - 2 y_45_ * y_32_ + 1 y_45_ ^ 2 ] <= 165.64000000000001
quadratic_ranged_141_ub: [ 1 x_35_ ^ 2 - 2 x_45_ * x_35_ + 1 x_45_ ^ 2 + 1 y_35_ ^ 2 - 2 y_45_ * y_35_ + 1 y_45_ ^ 2 ] <= 42050.340000000004
quadratic_ranged_142_ub: [ 1 x_44_ ^ 2 - 2 x_45_ * x_44_ + 1 x_45_ ^ 2 + 1 y_44_ ^ 2 - 2 y_45_ * y_44_ + 1 y_45_ ^ 2 ] <= 3500.66
quadratic_ranged_143_ub: [ 1 x_14_ ^ 2 - 2 x_46_ * x_14_ + 1 x_46_ ^ 2 + 1 y_14_ ^ 2 - 2 y_46_ * y_14_ + 1 y_46_ ^ 2 ] <= 7045.76
quadratic_ranged_144_ub: [ 1 x_15_ ^ 2 - 2 x_46_ * x_15_ + 1 x_46_ ^ 2 + 1 y_15_ ^ 2 - 2 y_46_ * y_15_ + 1 y_46_ ^ 2 ] <= 6707.41
quadratic_ranged_145_ub: [ 1 x_19_ ^ 2 - 2 x_46_ * x_19_ + 1 x_46_ ^ 2 + 1 y_19_ ^ 2 - 2 y_46_ * y_19_ + 1 y_46_ ^ 2 ] <= 9736.4
quadratic_ranged_146_ub: [ 1 x_23_ ^ 2 - 2 x_46_ * x_23_ + 1 x_46_ ^ 2 + 1 y_23_ ^ 2 - 2 y_46_ * y_23_ + 1 y_46_ ^ 2 ] <= 1504.9
quadratic_ranged_147_ub: [ 1 x_45_ ^ 2 - 2 x_46_ * x_45_ + 1 x_46_ ^ 2 + 1 y_45_ ^ 2 - 2 y_46_ * y_45_ + 1 y_46_ ^ 2 ] <= 9349.57
quadratic_ranged_148_ub: [ 1 x_5_ ^ 2 - 2 x_47_ * x_5_ + 1 x_47_ ^ 2 + 1 y_5_ ^ 2 - 2 y_47_ * y_5_ + 1 y_47_ ^ 2 ] <= 4808.61
quadratic_ranged_149_ub: [ 1 x_44_ ^ 2 - 2 x_47_ * x_44_ + 1 x_47_ ^ 2 + 1 y_44_ ^ 2 - 2 y_47_ * y_44_ + 1 y_47_ ^ 2 ] <= 8413.3
quadratic_ranged_150_ub: [ 1 x_46_ ^ 2 - 2 x_47_ * x_46_ + 1 x_47_ ^ 2 + 1 y_46_ ^ 2 - 2 y_47_ * y_46_ + 1 y_47_ ^ 2 ] <= 5919.61
quadratic_ranged_151_ub: [ 1 x_6_ ^ 2 - 2 x_48_ * x_6_ + 1 x_48_ ^ 2 + 1 y_6_ ^ 2 - 2 y_48_ * y_6_ + 1 y_48_ ^ 2 ] <= 28478.97
quadratic_ranged_152_ub: [ 1 x_12_ ^ 2 - 2 x_48_ * x_12_ + 1 x_48_ ^ 2 + 1 y_12_ ^ 2 - 2 y_48_ * y_12_ + 1 y_48_ ^ 2 ] <= 22410.89
quadratic_ranged_153_ub: [ 1 x_20_ ^ 2 - 2 x_48_ * x_20_ + 1 x_48_ ^ 2 + 1 y_20_ ^ 2 - 2 y_48_ * y_20_ + 1 y_48_ ^ 2 ] <= 13018.9
quadratic_ranged_154_ub: [ 1 x_28_ ^ 2 - 2 x_48_ * x_28_ + 1 x_48_ ^ 2 + 1 y_28_ ^ 2 - 2 y_48_ * y_28_ + 1 y_48_ ^ 2 ] <= 3886.48
quadratic_ranged_155_ub: [ 1 x_36_ ^ 2 - 2 x_48_ * x_36_ + 1 x_48_ ^ 2 + 1 y_36_ ^ 2 - 2 y_48_ * y_36_ + 1 y_48_ ^ 2 ] <= 21771.56
quadratic_ranged_156_ub: [ 1 x_47_ ^ 2 - 2 x_48_ * x_47_ + 1 x_48_ ^ 2 + 1 y_47_ ^ 2 - 2 y_48_ * y_47_ + 1 y_48_ ^ 2 ] <= 23881.45
quadratic_ranged_157_ub: [ 1 x_19_ ^ 2 - 2 x_49_ * x_19_ + 1 x_49_ ^ 2 + 1 y_19_ ^ 2 - 2 y_49_ * y_19_ + 1 y_49_ ^ 2 ] <= 32765.41
quadratic_ranged_158_ub: [ 1 x_22_ ^ 2 - 2 x_49_ * x_22_ + 1 x_49_ ^ 2 + 1 y_22_ ^ 2 - 2 y_49_ * y_22_ + 1 y_49_ ^ 2 ] <= 13316.85
quadratic_ranged_159_ub: [ 1 x_23_ ^ 2 - 2 x_49_ * x_23_ + 1 x_49_ ^ 2 + 1 y_23_ ^ 2 - 2 y_49_ * y_23_ + 1 y_49_ ^ 2 ] <= 20718.13
quadratic_ranged_160_ub: [ 1 x_44_ ^ 2 - 2 x_49_ * x_44_ + 1 x_49_ ^ 2 + 1 y_44_ ^ 2 - 2 y_49_ * y_44_ + 1 y_49_ ^ 2 ] <= 33461.3
quadratic_ranged_161_ub: [ 1 x_48_ ^ 2 - 2 x_49_ * x_48_ + 1 x_49_ ^ 2 + 1 y_48_ ^ 2 - 2 y_49_ * y_48_ + 1 y_49_ ^ 2 ] <= 18185.05
quadratic_ranged_162_ub: [ 1 x_14_ ^ 2 - 2 x_50_ * x_14_ + 1 x_50_ ^ 2 + 1 y_14_ ^ 2 - 2 y_50_ * y_14_ + 1 y_50_ ^ 2 ] <= 22915.89
quadratic_ranged_163_ub: [ 1 x_22_ ^ 2 - 2 x_50_ * x_22_ + 1 x_50_ ^ 2 + 1 y_22_ ^ 2 - 2 y_50_ * y_22_ + 1 y_50_ ^ 2 ] <= 20625.21
quadratic_ranged_164_ub: [ 1 x_29_ ^ 2 - 2 x_50_ * x_29_ + 1 x_50_ ^ 2 + 1 y_29_ ^ 2 - 2 y_50_ * y_29_ + 1 y_50_ ^ 2 ] <= 6062.02
quadratic_ranged_165_ub: [ 1 x_48_ ^ 2 - 2 x_50_ * x_48_ + 1 x_50_ ^ 2 + 1 y_48_ ^ 2 - 2 y_50_ * y_48_ + 1 y_50_ ^ 2 ] <= 34244.05
quadratic_ranged_166_ub: [ 1 x_49_ ^ 2 - 2 x_50_ * x_49_ + 1 x_50_ ^ 2 + 1 y_49_ ^ 2 - 2 y_50_ * y_49_ + 1 y_50_ ^ 2 ] <= 23052.24
quadratic_ranged_167_ub: [ 1 x_32_ ^ 2 - 2 x_51_ * x_32_ + 1 x_51_ ^ 2 + 1 y_32_ ^ 2 - 2 y_51_ * y_32_ + 1 y_51_ ^ 2 ] <= 29044.57
quadratic_ranged_168_ub: [ 1 x_42_ ^ 2 - 2 x_51_ * x_42_ + 1 x_51_ ^ 2 + 1 y_42_ ^ 2 - 2 y_51_ * y_42_ + 1 y_51_ ^ 2 ] <= 29689.96
quadratic_ranged_169_ub: [ 1 x_46_ ^ 2 - 2 x_51_ * x_46_ + 1 x_51_ ^ 2 + 1 y_46_ ^ 2 - 2 y_51_ * y_46_ + 1 y_51_ ^ 2 ] <= 5074.24
quadratic_ranged_170_ub: [ 1 x_50_ ^ 2 - 2 x_51_ * x_50_ + 1 x_51_ ^ 2 + 1 y_50_ ^ 2 - 2 y_51_ * y_50_ + 1 y_51_ ^ 2 ] <= 25380.29
quadratic_ranged_171_ub: [ 1 x_6_ ^ 2 - 2 x_52_ * x_6_ + 1 x_52_ ^ 2 + 1 y_6_ ^ 2 - 2 y_52_ * y_6_ + 1 y_52_ ^ 2 ] <= 2585.6
quadratic_ranged_172_ub: [ 1 x_7_ ^ 2 - 2 x_52_ * x_7_ + 1 x_52_ ^ 2 + 1 y_7_ ^ 2 - 2 y_52_ * y_7_ + 1 y_52_ ^ 2 ] <= 31816.010000000002
quadratic_ranged_173_ub: [ 1 x_20_ ^ 2 - 2 x_52_ * x_20_ + 1 x_52_ ^ 2 + 1 y_20_ ^ 2 - 2 y_52_ * y_20_ + 1 y_52_ ^ 2 ] <= 7297.25
quadratic_ranged_174_ub: [ 1 x_25_ ^ 2 - 2 x_52_ * x_25_ + 1 x_52_ ^ 2 + 1 y_25_ ^ 2 - 2 y_52_ * y_25_ + 1 y_52_ ^ 2 ] <= 36227.69
quadratic_ranged_175_ub: [ 1 x_29_ ^ 2 - 2 x_52_ * x_29_ + 1 x_52_ ^ 2 + 1 y_29_ ^ 2 - 2 y_52_ * y_29_ + 1 y_52_ ^ 2 ] <= 2525
quadratic_ranged_176_ub: [ 1 x_33_ ^ 2 - 2 x_52_ * x_33_ + 1 x_52_ ^ 2 + 1 y_33_ ^ 2 - 2 y_52_ * y_33_ + 1 y_52_ ^ 2 ] <= 18200.2
quadratic_ranged_177_ub: [ 1 x_44_ ^ 2 - 2 x_52_ * x_44_ + 1 x_52_ ^ 2 + 1 y_44_ ^ 2 - 2 y_52_ * y_44_ + 1 y_52_ ^ 2 ] <= 2108.88
quadratic_ranged_178_ub: [ 1 x_47_ ^ 2 - 2 x_52_ * x_47_ + 1 x_52_ ^ 2 + 1 y_47_ ^ 2 - 2 y_52_ * y_47_ + 1 y_52_ ^ 2 ] <= 18497.14
quadratic_ranged_179_ub: [ 1 x_50_ ^ 2 - 2 x_52_ * x_50_ + 1 x_52_ ^ 2 + 1 y_50_ ^ 2 - 2 y_52_ * y_50_ + 1 y_52_ ^ 2 ] <= 1416.02
quadratic_ranged_180_ub: [ 1 x_51_ ^ 2 - 2 x_52_ * x_51_ + 1 x_52_ ^ 2 + 1 y_51_ ^ 2 - 2 y_52_ * y_51_ + 1 y_52_ ^ 2 ] <= 23166.37
quadratic_ranged_181_ub: [ 1 x_10_ ^ 2 - 2 x_53_ * x_10_ + 1 x_53_ ^ 2 + 1 y_10_ ^ 2 - 2 y_53_ * y_10_ + 1 y_53_ ^ 2 ] <= 2458.34
quadratic_ranged_182_ub: [ 1 x_13_ ^ 2 - 2 x_53_ * x_13_ + 1 x_53_ ^ 2 + 1 y_13_ ^ 2 - 2 y_53_ * y_13_ + 1 y_53_ ^ 2 ] <= 20956.49
quadratic_ranged_183_ub: [ 1 x_16_ ^ 2 - 2 x_53_ * x_16_ + 1 x_53_ ^ 2 + 1 y_16_ ^ 2 - 2 y_53_ * y_16_ + 1 y_53_ ^ 2 ] <= 2561.36
quadratic_ranged_184_ub: [ 1 x_28_ ^ 2 - 2 x_53_ * x_28_ + 1 x_53_ ^ 2 + 1 y_28_ ^ 2 - 2 y_53_ * y_28_ + 1 y_53_ ^ 2 ] <= 3519.85
quadratic_ranged_185_ub: [ 1 x_30_ ^ 2 - 2 x_53_ * x_30_ + 1 x_53_ ^ 2 + 1 y_30_ ^ 2 - 2 y_53_ * y_30_ + 1 y_53_ ^ 2 ] <= 1006.97
quadratic_ranged_186_ub: [ 1 x_32_ ^ 2 - 2 x_53_ * x_32_ + 1 x_53_ ^ 2 + 1 y_32_ ^ 2 - 2 y_53_ * y_32_ + 1 y_53_ ^ 2 ] <= 15152.02
quadratic_ranged_187_ub: [ 1 x_52_ ^ 2 - 2 x_53_ * x_52_ + 1 x_53_ ^ 2 + 1 y_52_ ^ 2 - 2 y_53_ * y_52_ + 1 y_53_ ^ 2 ] <= 16050.92
quadratic_ranged_188_ub: [ 1 x_7_ ^ 2 - 2 x_54_ * x_7_ + 1 x_54_ ^ 2 + 1 y_7_ ^ 2 - 2 y_54_ * y_7_ + 1 y_54_ ^ 2 ] <= 10475.72
quadratic_ranged_189_ub: [ 1 x_19_ ^ 2 - 2 x_54_ * x_19_ + 1 x_54_ ^ 2 + 1 y_19_ ^ 2 - 2 y_54_ * y_19_ + 1 y_54_ ^ 2 ] <= 41959.44
quadratic_ranged_190_ub: [ 1 x_21_ ^ 2 - 2 x_54_ * x_21_ + 1 x_54_ ^ 2 + 1 y_21_ ^ 2 - 2 y_54_ * y_21_ + 1 y_54_ ^ 2 ] <= 3597.62
quadratic_ranged_191_ub: [ 1 x_27_ ^ 2 - 2 x_54_ * x_27_ + 1 x_54_ ^ 2 + 1 y_27_ ^ 2 - 2 y_54_ * y_27_ + 1 y_54_ ^ 2 ] <= 23505.73
quadratic_ranged_192_ub: [ 1 x_32_ ^ 2 - 2 x_54_ * x_32_ + 1 x_54_ ^ 2 + 1 y_32_ ^ 2 - 2 y_54_ * y_32_ + 1 y_54_ ^ 2 ] <= 42360.41
quadratic_ranged_193_ub: [ 1 x_51_ ^ 2 - 2 x_54_ * x_51_ + 1 x_54_ ^ 2 + 1 y_51_ ^ 2 - 2 y_54_ * y_51_ + 1 y_54_ ^ 2 ] <= 4136.96
quadratic_ranged_194_ub: [ 1 x_53_ ^ 2 - 2 x_54_ * x_53_ + 1 x_54_ ^ 2 + 1 y_53_ ^ 2 - 2 y_54_ * y_53_ + 1 y_54_ ^ 2 ] <= 18605.21
quadratic_ranged_195_ub: [ 1 x_8_ ^ 2 - 2 x_55_ * x_8_ + 1 x_55_ ^ 2 + 1 y_8_ ^ 2 - 2 y_55_ * y_8_ + 1 y_55_ ^ 2 ] <= 15594.4
quadratic_ranged_196_ub: [ 1 x_18_ ^ 2 - 2 x_55_ * x_18_ + 1 x_55_ ^ 2 + 1 y_18_ ^ 2 - 2 y_55_ * y_18_ + 1 y_55_ ^ 2 ] <= 30446.45
quadratic_ranged_197_ub: [ 1 x_35_ ^ 2 - 2 x_55_ * x_35_ + 1 x_55_ ^ 2 + 1 y_35_ ^ 2 - 2 y_55_ * y_35_ + 1 y_55_ ^ 2 ] <= 4303.61
quadratic_ranged_198_ub: [ 1 x_45_ ^ 2 - 2 x_55_ * x_45_ + 1 x_55_ ^ 2 + 1 y_45_ ^ 2 - 2 y_55_ * y_45_ + 1 y_55_ ^ 2 ] <= 24628.85
quadratic_ranged_199_ub: [ 1 x_48_ ^ 2 - 2 x_55_ * x_48_ + 1 x_55_ ^ 2 + 1 y_48_ ^ 2 - 2 y_55_ * y_48_ + 1 y_55_ ^ 2 ] <= 8445.62
quadratic_ranged_200_ub: [ 1 x_54_ ^ 2 - 2 x_55_ * x_54_ + 1 x_55_ ^ 2 + 1 y_54_ ^ 2 - 2 y_55_ * y_54_ + 1 y_55_ ^ 2 ] <= 3282.5
quadratic_ranged_201_ub: [ 1 x_15_ ^ 2 - 2 x_56_ * x_15_ + 1 x_56_ ^ 2 + 1 y_15_ ^ 2 - 2 y_56_ * y_15_ + 1 y_56_ ^ 2 ] <= 31856.41
quadratic_ranged_202_ub: [ 1 x_19_ ^ 2 - 2 x_56_ * x_19_ + 1 x_56_ ^ 2 + 1 y_19_ ^ 2 - 2 y_56_ * y_19_ + 1 y_56_ ^ 2 ] <= 38541.6
quadratic_ranged_203_ub: [ 1 x_20_ ^ 2 - 2 x_56_ * x_20_ + 1 x_56_ ^ 2 + 1 y_20_ ^ 2 - 2 y_56_ * y_20_ + 1 y_56_ ^ 2 ] <= 10796.9
quadratic_ranged_204_ub: [ 1 x_21_ ^ 2 - 2 x_56_ * x_21_ + 1 x_56_ ^ 2 + 1 y_21_ ^ 2 - 2 y_56_ * y_21_ + 1 y_56_ ^ 2 ] <= 2482.58
quadratic_ranged_205_ub: [ 1 x_22_ ^ 2 - 2 x_56_ * x_22_ + 1 x_56_ ^ 2 + 1 y_22_ ^ 2 - 2 y_56_ * y_22_ + 1 y_56_ ^ 2 ] <= 1971.52
quadratic_ranged_206_ub: [ 1 x_44_ ^ 2 - 2 x_56_ * x_44_ + 1 x_56_ ^ 2 + 1 y_44_ ^ 2 - 2 y_56_ * y_44_ + 1 y_56_ ^ 2 ] <= 21639.25
quadratic_ranged_207_ub: [ 1 x_52_ ^ 2 - 2 x_56_ * x_52_ + 1 x_56_ ^ 2 + 1 y_52_ ^ 2 - 2 y_56_ * y_52_ + 1 y_56_ ^ 2 ] <= 34425.85
quadratic_ranged_208_ub: [ 1 x_55_ ^ 2 - 2 x_56_ * x_55_ + 1 x_56_ ^ 2 + 1 y_55_ ^ 2 - 2 y_56_ * y_55_ + 1 y_56_ ^ 2 ] <= 3767.3
quadratic_ranged_209_ub: [ 1 x_3_ ^ 2 - 2 x_57_ * x_3_ + 1 x_57_ ^ 2 + 1 y_3_ ^ 2 - 2 y_57_ * y_3_ + 1 y_57_ ^ 2 ] <= 5156.05
quadratic_ranged_210_ub: [ 1 x_35_ ^ 2 - 2 x_57_ * x_35_ + 1 x_57_ ^ 2 + 1 y_35_ ^ 2 - 2 y_57_ * y_35_ + 1 y_57_ ^ 2 ] <= 12755.29
quadratic_ranged_211_ub: [ 1 x_42_ ^ 2 - 2 x_57_ * x_42_ + 1 x_57_ ^ 2 + 1 y_42_ ^ 2 - 2 y_57_ * y_42_ + 1 y_57_ ^ 2 ] <= 17796.2
quadratic_ranged_212_ub: [ 1 x_43_ ^ 2 - 2 x_57_ * x_43_ + 1 x_57_ ^ 2 + 1 y_43_ ^ 2 - 2 y_57_ * y_43_ + 1 y_57_ ^ 2 ] <= 1876.58
quadratic_ranged_213_ub: [ 1 x_45_ ^ 2 - 2 x_57_ * x_45_ + 1 x_57_ ^ 2 + 1 y_45_ ^ 2 - 2 y_57_ * y_45_ + 1 y_57_ ^ 2 ] <= 14536.93
quadratic_ranged_214_ub: [ 1 x_49_ ^ 2 - 2 x_57_ * x_49_ + 1 x_57_ ^ 2 + 1 y_49_ ^ 2 - 2 y_57_ * y_49_ + 1 y_57_ ^ 2 ] <= 39314.25
quadratic_ranged_215_ub: [ 1 x_54_ ^ 2 - 2 x_57_ * x_54_ + 1 x_57_ ^ 2 + 1 y_54_ ^ 2 - 2 y_57_ * y_54_ + 1 y_57_ ^ 2 ] <= 11134.24
quadratic_ranged_216_ub: [ 1 x_56_ ^ 2 - 2 x_57_ * x_56_ + 1 x_57_ ^ 2 + 1 y_56_ ^ 2 - 2 y_57_ * y_56_ + 1 y_57_ ^ 2 ] <= 11546.32
quadratic_ranged_217_ub: [ 1 x_8_ ^ 2 - 2 x_58_ * x_8_ + 1 x_58_ ^ 2 + 1 y_8_ ^ 2 - 2 y_58_ * y_8_ + 1 y_58_ ^ 2 ] <= 19751.56
quadratic_ranged_218_ub: [ 1 x_11_ ^ 2 - 2 x_58_ * x_11_ + 1 x_58_ ^ 2 + 1 y_11_ ^ 2 - 2 y_58_ * y_11_ + 1 y_58_ ^ 2 ] <= 10740.34
quadratic_ranged_219_ub: [ 1 x_17_ ^ 2 - 2 x_58_ * x_17_ + 1 x_58_ ^ 2 + 1 y_17_ ^ 2 - 2 y_58_ * y_17_ + 1 y_58_ ^ 2 ] <= 8715.29
quadratic_ranged_220_ub: [ 1 x_26_ ^ 2 - 2 x_58_ * x_26_ + 1 x_58_ ^ 2 + 1 y_26_ ^ 2 - 2 y_58_ * y_26_ + 1 y_58_ ^ 2 ] <= 13267.36
quadratic_ranged_221_ub: [ 1 x_31_ ^ 2 - 2 x_58_ * x_31_ + 1 x_58_ ^ 2 + 1 y_31_ ^ 2 - 2 y_58_ * y_31_ + 1 y_58_ ^ 2 ] <= 9231.4
quadratic_ranged_222_ub: [ 1 x_32_ ^ 2 - 2 x_58_ * x_32_ + 1 x_58_ ^ 2 + 1 y_32_ ^ 2 - 2 y_58_ * y_32_ + 1 y_58_ ^ 2 ] <= 14969.210000000001
quadratic_ranged_223_ub: [ 1 x_34_ ^ 2 - 2 x_58_ * x_34_ + 1 x_58_ ^ 2 + 1 y_34_ ^ 2 - 2 y_58_ * y_34_ + 1 y_58_ ^ 2 ] <= 1181.7
quadratic_ranged_224_ub: [ 1 x_40_ ^ 2 - 2 x_58_ * x_40_ + 1 x_58_ ^ 2 + 1 y_40_ ^ 2 - 2 y_58_ * y_40_ + 1 y_58_ ^ 2 ] <= 15307.56
quadratic_ranged_225_ub: [ 1 x_42_ ^ 2 - 2 x_58_ * x_42_ + 1 x_58_ ^ 2 + 1 y_42_ ^ 2 - 2 y_58_ * y_42_ + 1 y_58_ ^ 2 ] <= 15636.82
quadratic_ranged_226_ub: [ 1 x_55_ ^ 2 - 2 x_58_ * x_55_ + 1 x_58_ ^ 2 + 1 y_55_ ^ 2 - 2 y_58_ * y_55_ + 1 y_58_ ^ 2 ] <= 1700.84
quadratic_ranged_227_ub: [ 1 x_56_ ^ 2 - 2 x_58_ * x_56_ + 1 x_58_ ^ 2 + 1 y_56_ ^ 2 - 2 y_58_ * y_56_ + 1 y_58_ ^ 2 ] <= 8995.06
quadratic_ranged_228_ub: [ 1 x_57_ ^ 2 - 2 x_58_ * x_57_ + 1 x_58_ ^ 2 + 1 y_57_ ^ 2 - 2 y_58_ * y_57_ + 1 y_58_ ^ 2 ] <= 349.46
quadratic_ranged_229_ub: [ 1 x_1_ ^ 2 - 2 x_59_ * x_1_ + 1 x_59_ ^ 2 + 1 y_1_ ^ 2 - 2 y_59_ * y_1_ + 1 y_59_ ^ 2 ] <= 16294.33
quadratic_ranged_230_ub: [ 1 x_21_ ^ 2 - 2 x_59_ * x_21_ + 1 x_59_ ^ 2 + 1 y_21_ ^ 2 - 2 y_59_ * y_21_ + 1 y_59_ ^ 2 ] <= 5059.09
quadratic_ranged_231_ub: [ 1 x_42_ ^ 2 - 2 x_59_ * x_42_ + 1 x_59_ ^ 2 + 1 y_42_ ^ 2 - 2 y_59_ * y_42_ + 1 y_59_ ^ 2 ] <= 5382.29
quadratic_ranged_232_ub: [ 1 x_51_ ^ 2 - 2 x_59_ * x_51_ + 1 x_59_ ^ 2 + 1 y_51_ ^ 2 - 2 y_59_ * y_51_ + 1 y_59_ ^ 2 ] <= 13615.81
quadratic_ranged_233_ub: [ 1 x_54_ ^ 2 - 2 x_59_ * x_54_ + 1 x_59_ ^ 2 + 1 y_54_ ^ 2 - 2 y_59_ * y_54_ + 1 y_59_ ^ 2 ] <= 17106.37
quadratic_ranged_234_ub: [ 1 x_57_ ^ 2 - 2 x_59_ * x_57_ + 1 x_59_ ^ 2 + 1 y_57_ ^ 2 - 2 y_59_ * y_57_ + 1 y_59_ ^ 2 ] <= 8824.37
quadratic_ranged_235_ub: [ 1 x_58_ ^ 2 - 2 x_59_ * x_58_ + 1 x_59_ ^ 2 + 1 y_58_ ^ 2 - 2 y_59_ * y_58_ + 1 y_59_ ^ 2 ] <= 6065.05
quadratic_ranged_236_ub: [ 1 x_7_ ^ 2 - 2 x_60_ * x_7_ + 1 x_60_ ^ 2 + 1 y_7_ ^ 2 - 2 y_60_ * y_7_ + 1 y_60_ ^ 2 ] <= 856.48
quadratic_ranged_237_ub: [ 1 x_21_ ^ 2 - 2 x_60_ * x_21_ + 1 x_60_ ^ 2 + 1 y_21_ ^ 2 - 2 y_60_ * y_21_ + 1 y_60_ ^ 2 ] <= 2765.38
quadratic_ranged_238_ub: [ 1 x_29_ ^ 2 - 2 x_60_ * x_29_ + 1 x_60_ ^ 2 + 1 y_29_ ^ 2 - 2 y_60_ * y_29_ + 1 y_60_ ^ 2 ] <= 21578.65
quadratic_ranged_239_ub: [ 1 x_31_ ^ 2 - 2 x_60_ * x_31_ + 1 x_60_ ^ 2 + 1 y_31_ ^ 2 - 2 y_60_ * y_31_ + 1 y_60_ ^ 2 ] <= 16056.98
quadratic_ranged_240_ub: [ 1 x_42_ ^ 2 - 2 x_60_ * x_42_ + 1 x_60_ ^ 2 + 1 y_42_ ^ 2 - 2 y_60_ * y_42_ + 1 y_60_ ^ 2 ] <= 20377.76
quadratic_ranged_241_ub: [ 1 x_51_ ^ 2 - 2 x_60_ * x_51_ + 1 x_60_ ^ 2 + 1 y_51_ ^ 2 - 2 y_60_ * y_51_ + 1 y_60_ ^ 2 ] <= 12770.44
quadratic_ranged_242_ub: [ 1 x_52_ ^ 2 - 2 x_60_ * x_52_ + 1 x_60_ ^ 2 + 1 y_52_ ^ 2 - 2 y_60_ * y_52_ + 1 y_60_ ^ 2 ] <= 23396.65
quadratic_ranged_243_ub: [ 1 x_58_ ^ 2 - 2 x_60_ * x_58_ + 1 x_60_ ^ 2 + 1 y_58_ ^ 2 - 2 y_60_ * y_58_ + 1 y_60_ ^ 2 ] <= 10409.06
quadratic_ranged_244_ub: [ 1 x_59_ ^ 2 - 2 x_60_ * x_59_ + 1 x_60_ ^ 2 + 1 y_59_ ^ 2 - 2 y_60_ * y_59_ + 1 y_60_ ^ 2 ] <= 5059.09
quadratic_ranged_245_ub: [ 1 x_2_ ^ 2 - 2 x_61_ * x_2_ + 1 x_61_ ^ 2 + 1 y_2_ ^ 2 - 2 y_61_ * y_2_ + 1 y_61_ ^ 2 ] <= 2773.46
quadratic_ranged_246_ub: [ 1 x_22_ ^ 2 - 2 x_61_ * x_22_ + 1 x_61_ ^ 2 + 1 y_22_ ^ 2 - 2 y_61_ * y_22_ + 1 y_61_ ^ 2 ] <= 1168.57
quadratic_ranged_247_ub: [ 1 x_26_ ^ 2 - 2 x_61_ * x_26_ + 1 x_61_ ^ 2 + 1 y_26_ ^ 2 - 2 y_61_ * y_26_ + 1 y_61_ ^ 2 ] <= 3265.33
quadratic_ranged_248_ub: [ 1 x_27_ ^ 2 - 2 x_61_ * x_27_ + 1 x_61_ ^ 2 + 1 y_27_ ^ 2 - 2 y_61_ * y_27_ + 1 y_61_ ^ 2 ] <= 4347.04
quadratic_ranged_249_ub: [ 1 x_32_ ^ 2 - 2 x_61_ * x_32_ + 1 x_61_ ^ 2 + 1 y_32_ ^ 2 - 2 y_61_ * y_32_ + 1 y_61_ ^ 2 ] <= 22632.08
quadratic_ranged_250_ub: [ 1 x_43_ ^ 2 - 2 x_61_ * x_43_ + 1 x_61_ ^ 2 + 1 y_43_ ^ 2 - 2 y_61_ * y_43_ + 1 y_61_ ^ 2 ] <= 10545.41
quadratic_ranged_251_ub: [ 1 x_52_ ^ 2 - 2 x_61_ * x_52_ + 1 x_61_ ^ 2 + 1 y_52_ ^ 2 - 2 y_61_ * y_52_ + 1 y_61_ ^ 2 ] <= 21890.74
quadratic_ranged_252_ub: [ 1 x_60_ ^ 2 - 2 x_61_ * x_60_ + 1 x_61_ ^ 2 + 1 y_60_ ^ 2 - 2 y_61_ * y_60_ + 1 y_61_ ^ 2 ] <= 73.73
quadratic_ranged_253_ub: [ 1 x_1_ ^ 2 - 2 x_62_ * x_1_ + 1 x_62_ ^ 2 + 1 y_1_ ^ 2 - 2 y_62_ * y_1_ + 1 y_62_ ^ 2 ] <= 25122.74
quadratic_ranged_254_ub: [ 1 x_5_ ^ 2 - 2 x_62_ * x_5_ + 1 x_62_ ^ 2 + 1 y_5_ ^ 2 - 2 y_62_ * y_5_ + 1 y_62_ ^ 2 ] <= 21884.68
quadratic_ranged_255_ub: [ 1 x_13_ ^ 2 - 2 x_62_ * x_13_ + 1 x_62_ ^ 2 + 1 y_13_ ^ 2 - 2 y_62_ * y_13_ + 1 y_62_ ^ 2 ] <= 29290
quadratic_ranged_256_ub: [ 1 x_14_ ^ 2 - 2 x_62_ * x_14_ + 1 x_62_ ^ 2 + 1 y_14_ ^ 2 - 2 y_62_ * y_14_ + 1 y_62_ ^ 2 ] <= 12493.7
quadratic_ranged_257_ub: [ 1 x_20_ ^ 2 - 2 x_62_ * x_20_ + 1 x_62_ ^ 2 + 1 y_20_ ^ 2 - 2 y_62_ * y_20_ + 1 y_62_ ^ 2 ] <= 8035.56
quadratic_ranged_258_ub: [ 1 x_31_ ^ 2 - 2 x_62_ * x_31_ + 1 x_62_ ^ 2 + 1 y_31_ ^ 2 - 2 y_62_ * y_31_ + 1 y_62_ ^ 2 ] <= 13529.960000000001
quadratic_ranged_259_ub: [ 1 x_32_ ^ 2 - 2 x_62_ * x_32_ + 1 x_62_ ^ 2 + 1 y_32_ ^ 2 - 2 y_62_ * y_32_ + 1 y_62_ ^ 2 ] <= 19235.45
quadratic_ranged_260_ub: [ 1 x_36_ ^ 2 - 2 x_62_ * x_36_ + 1 x_62_ ^ 2 + 1 y_36_ ^ 2 - 2 y_62_ * y_36_ + 1 y_62_ ^ 2 ] <= 1076.66
quadratic_ranged_261_ub: [ 1 x_43_ ^ 2 - 2 x_62_ * x_43_ + 1 x_62_ ^ 2 + 1 y_43_ ^ 2 - 2 y_62_ * y_43_ + 1 y_62_ ^ 2 ] <= 16564
quadratic_ranged_262_ub: [ 1 x_61_ ^ 2 - 2 x_62_ * x_61_ + 1 x_62_ ^ 2 + 1 y_61_ ^ 2 - 2 y_62_ * y_61_ + 1 y_62_ ^ 2 ] <= 3515.81
quadratic_ranged_263_ub: [ 1 x_2_ ^ 2 - 2 x_63_ * x_2_ + 1 x_63_ ^ 2 + 1 y_2_ ^ 2 - 2 y_63_ * y_2_ + 1 y_63_ ^ 2 ] <= 8170.9
quadratic_ranged_264_ub: [ 1 x_5_ ^ 2 - 2 x_63_ * x_5_ + 1 x_63_ ^ 2 + 1 y_5_ ^ 2 - 2 y_63_ * y_5_ + 1 y_63_ ^ 2 ] <= 5030.81
quadratic_ranged_265_ub: [ 1 x_8_ ^ 2 - 2 x_63_ * x_8_ + 1 x_63_ ^ 2 + 1 y_8_ ^ 2 - 2 y_63_ * y_8_ + 1 y_63_ ^ 2 ] <= 11397.85
quadratic_ranged_266_ub: [ 1 x_23_ ^ 2 - 2 x_63_ * x_23_ + 1 x_63_ ^ 2 + 1 y_23_ ^ 2 - 2 y_63_ * y_23_ + 1 y_63_ ^ 2 ] <= 231.29
quadratic_ranged_267_ub: [ 1 x_34_ ^ 2 - 2 x_63_ * x_34_ + 1 x_63_ ^ 2 + 1 y_34_ ^ 2 - 2 y_63_ * y_34_ + 1 y_63_ ^ 2 ] <= 3079.4900000000002
quadratic_ranged_268_ub: [ 1 x_48_ ^ 2 - 2 x_63_ * x_48_ + 1 x_63_ ^ 2 + 1 y_48_ ^ 2 - 2 y_63_ * y_48_ + 1 y_63_ ^ 2 ] <= 6994.25
quadratic_ranged_269_ub: [ 1 x_49_ ^ 2 - 2 x_63_ * x_49_ + 1 x_63_ ^ 2 + 1 y_49_ ^ 2 - 2 y_63_ * y_49_ + 1 y_63_ ^ 2 ] <= 24728.84
quadratic_ranged_270_ub: [ 1 x_51_ ^ 2 - 2 x_63_ * x_51_ + 1 x_63_ ^ 2 + 1 y_51_ ^ 2 - 2 y_63_ * y_51_ + 1 y_63_ ^ 2 ] <= 2008.89
quadratic_ranged_271_ub: [ 1 x_53_ ^ 2 - 2 x_63_ * x_53_ + 1 x_63_ ^ 2 + 1 y_53_ ^ 2 - 2 y_63_ * y_53_ + 1 y_63_ ^ 2 ] <= 9972.74
quadratic_ranged_272_ub: [ 1 x_58_ ^ 2 - 2 x_63_ * x_58_ + 1 x_63_ ^ 2 + 1 y_58_ ^ 2 - 2 y_63_ * y_58_ + 1 y_63_ ^ 2 ] <= 1309.97
quadratic_ranged_273_ub: [ 1 x_62_ ^ 2 - 2 x_63_ * x_62_ + 1 x_63_ ^ 2 + 1 y_62_ ^ 2 - 2 y_63_ * y_62_ + 1 y_63_ ^ 2 ] <= 15627.73
quadratic_ranged_274_ub: [ 1 x_10_ ^ 2 - 2 x_64_ * x_10_ + 1 x_64_ ^ 2 + 1 y_10_ ^ 2 - 2 y_64_ * y_10_ + 1 y_64_ ^ 2 ] <= 21163.54
quadratic_ranged_275_ub: [ 1 x_22_ ^ 2 - 2 x_64_ * x_22_ + 1 x_64_ ^ 2 + 1 y_22_ ^ 2 - 2 y_64_ * y_22_ + 1 y_64_ ^ 2 ] <= 20063.65
quadratic_ranged_276_ub: [ 1 x_30_ ^ 2 - 2 x_64_ * x_30_ + 1 x_64_ ^ 2 + 1 y_30_ ^ 2 - 2 y_64_ * y_30_ + 1 y_64_ ^ 2 ] <= 36619.57
quadratic_ranged_277_ub: [ 1 x_32_ ^ 2 - 2 x_64_ * x_32_ + 1 x_64_ ^ 2 + 1 y_32_ ^ 2 - 2 y_64_ * y_32_ + 1 y_64_ ^ 2 ] <= 16808.420000000002
quadratic_ranged_278_ub: [ 1 x_36_ ^ 2 - 2 x_64_ * x_36_ + 1 x_64_ ^ 2 + 1 y_36_ ^ 2 - 2 y_64_ * y_36_ + 1 y_64_ ^ 2 ] <= 33015.89
quadratic_ranged_279_ub: [ 1 x_63_ ^ 2 - 2 x_64_ * x_63_ + 1 x_64_ ^ 2 + 1 y_63_ ^ 2 - 2 y_64_ * y_63_ + 1 y_64_ ^ 2 ] <= 7589.14
quadratic_ranged_280_ub: [ 1 x_11_ ^ 2 - 2 x_65_ * x_11_ + 1 x_65_ ^ 2 + 1 y_11_ ^ 2 - 2 y_65_ * y_11_ + 1 y_65_ ^ 2 ] <= 2282.6
quadratic_ranged_281_ub: [ 1 x_19_ ^ 2 - 2 x_65_ * x_19_ + 1 x_65_ ^ 2 + 1 y_19_ ^ 2 - 2 y_65_ * y_19_ + 1 y_65_ ^ 2 ] <= 24110.72
quadratic_ranged_282_ub: [ 1 x_22_ ^ 2 - 2 x_65_ * x_22_ + 1 x_65_ ^ 2 + 1 y_22_ ^ 2 - 2 y_65_ * y_22_ + 1 y_65_ ^ 2 ] <= 1050.4
quadratic_ranged_283_ub: [ 1 x_28_ ^ 2 - 2 x_65_ * x_28_ + 1 x_65_ ^ 2 + 1 y_28_ ^ 2 - 2 y_65_ * y_28_ + 1 y_65_ ^ 2 ] <= 698.92
quadratic_ranged_284_ub: [ 1 x_45_ ^ 2 - 2 x_65_ * x_45_ + 1 x_65_ ^ 2 + 1 y_45_ ^ 2 - 2 y_65_ * y_45_ + 1 y_65_ ^ 2 ] <= 24948.010000000002
quadratic_ranged_285_ub: [ 1 x_52_ ^ 2 - 2 x_65_ * x_52_ + 1 x_65_ ^ 2 + 1 y_52_ ^ 2 - 2 y_65_ * y_52_ + 1 y_65_ ^ 2 ] <= 22911.85
quadratic_ranged_286_ub: [ 1 x_58_ ^ 2 - 2 x_65_ * x_58_ + 1 x_65_ ^ 2 + 1 y_58_ ^ 2 - 2 y_65_ * y_58_ + 1 y_65_ ^ 2 ] <= 10990.82
quadratic_ranged_287_ub: [ 1 x_64_ ^ 2 - 2 x_65_ * x_64_ + 1 x_65_ ^ 2 + 1 y_64_ ^ 2 - 2 y_65_ * y_64_ + 1 y_65_ ^ 2 ] <= 24604.61
quadratic_ranged_288_ub: [ 1 x_3_ ^ 2 - 2 x_66_ * x_3_ + 1 x_66_ ^ 2 + 1 y_3_ ^ 2 - 2 y_66_ * y_3_ + 1 y_66_ ^ 2 ] <= 34269.3
quadratic_ranged_289_ub: [ 1 x_4_ ^ 2 - 2 x_66_ * x_4_ + 1 x_66_ ^ 2 + 1 y_4_ ^ 2 - 2 y_66_ * y_4_ + 1 y_66_ ^ 2 ] <= 29016.29
quadratic_ranged_290_ub: [ 1 x_11_ ^ 2 - 2 x_66_ * x_11_ + 1 x_66_ ^ 2 + 1 y_11_ ^ 2 - 2 y_66_ * y_11_ + 1 y_66_ ^ 2 ] <= 2489.65
quadratic_ranged_291_ub: [ 1 x_12_ ^ 2 - 2 x_66_ * x_12_ + 1 x_66_ ^ 2 + 1 y_12_ ^ 2 - 2 y_66_ * y_12_ + 1 y_66_ ^ 2 ] <= 20466.64
quadratic_ranged_292_ub: [ 1 x_38_ ^ 2 - 2 x_66_ * x_38_ + 1 x_66_ ^ 2 + 1 y_38_ ^ 2 - 2 y_66_ * y_38_ + 1 y_66_ ^ 2 ] <= 5092.42
quadratic_ranged_293_ub: [ 1 x_46_ ^ 2 - 2 x_66_ * x_46_ + 1 x_66_ ^ 2 + 1 y_46_ ^ 2 - 2 y_66_ * y_46_ + 1 y_66_ ^ 2 ] <= 18597.13
quadratic_ranged_294_ub: [ 1 x_48_ ^ 2 - 2 x_66_ * x_48_ + 1 x_66_ ^ 2 + 1 y_48_ ^ 2 - 2 y_66_ * y_48_ + 1 y_66_ ^ 2 ] <= 1237.25
quadratic_ranged_295_ub: [ 1 x_52_ ^ 2 - 2 x_66_ * x_52_ + 1 x_66_ ^ 2 + 1 y_52_ ^ 2 - 2 y_66_ * y_52_ + 1 y_66_ ^ 2 ] <= 47647.76
quadratic_ranged_296_ub: [ 1 x_62_ ^ 2 - 2 x_66_ * x_62_ + 1 x_66_ ^ 2 + 1 y_62_ ^ 2 - 2 y_66_ * y_62_ + 1 y_66_ ^ 2 ] <= 24923.77
quadratic_ranged_297_ub: [ 1 x_65_ ^ 2 - 2 x_66_ * x_65_ + 1 x_66_ ^ 2 + 1 y_65_ ^ 2 - 2 y_66_ * y_65_ + 1 y_66_ ^ 2 ] <= 9527.33
quadratic_ranged_298_ub: [ 1 x_2_ ^ 2 - 2 x_67_ * x_2_ + 1 x_67_ ^ 2 + 1 y_2_ ^ 2 - 2 y_67_ * y_2_ + 1 y_67_ ^ 2 ] <= 8085.05
quadratic_ranged_299_ub: [ 1 x_9_ ^ 2 - 2 x_67_ * x_9_ + 1 x_67_ ^ 2 + 1 y_9_ ^ 2 - 2 y_67_ * y_9_ + 1 y_67_ ^ 2 ] <= 14321.8
quadratic_ranged_300_ub: [ 1 x_15_ ^ 2 - 2 x_67_ * x_15_ + 1 x_67_ ^ 2 + 1 y_15_ ^ 2 - 2 y_67_ * y_15_ + 1 y_67_ ^ 2 ] <= 1249.3700000000001
quadratic_ranged_301_ub: [ 1 x_21_ ^ 2 - 2 x_67_ * x_21_ + 1 x_67_ ^ 2 + 1 y_21_ ^ 2 - 2 y_67_ * y_21_ + 1 y_67_ ^ 2 ] <= 22159.4
quadratic_ranged_302_ub: [ 1 x_25_ ^ 2 - 2 x_67_ * x_25_ + 1 x_67_ ^ 2 + 1 y_25_ ^ 2 - 2 y_67_ * y_25_ + 1 y_67_ ^ 2 ] <= 26651.88
quadratic_ranged_303_ub: [ 1 x_28_ ^ 2 - 2 x_67_ * x_28_ + 1 x_67_ ^ 2 + 1 y_28_ ^ 2 - 2 y_67_ * y_28_ + 1 y_67_ ^ 2 ] <= 27506.34
quadratic_ranged_304_ub: [ 1 x_30_ ^ 2 - 2 x_67_ * x_30_ + 1 x_67_ ^ 2 + 1 y_30_ ^ 2 - 2 y_67_ * y_30_ + 1 y_67_ ^ 2 ] <= 18632.48
quadratic_ranged_305_ub: [ 1 x_48_ ^ 2 - 2 x_67_ * x_48_ + 1 x_67_ ^ 2 + 1 y_48_ ^ 2 - 2 y_67_ * y_48_ + 1 y_67_ ^ 2 ] <= 41379.7
quadratic_ranged_306_ub: [ 1 x_66_ ^ 2 - 2 x_67_ * x_66_ + 1 x_67_ ^ 2 + 1 y_66_ ^ 2 - 2 y_67_ * y_66_ + 1 y_67_ ^ 2 ] <= 52302.85
quadratic_ranged_307_ub: [ 1 x_1_ ^ 2 - 2 x_68_ * x_1_ + 1 x_68_ ^ 2 + 1 y_1_ ^ 2 - 2 y_68_ * y_1_ + 1 y_68_ ^ 2 ] <= 3833.96
quadratic_ranged_308_ub: [ 1 x_10_ ^ 2 - 2 x_68_ * x_10_ + 1 x_68_ ^ 2 + 1 y_10_ ^ 2 - 2 y_68_ * y_10_ + 1 y_68_ ^ 2 ] <= 39831.37
quadratic_ranged_309_ub: [ 1 x_31_ ^ 2 - 2 x_68_ * x_31_ + 1 x_68_ ^ 2 + 1 y_31_ ^ 2 - 2 y_68_ * y_31_ + 1 y_68_ ^ 2 ] <= 48562.82
quadratic_ranged_310_ub: [ 1 x_43_ ^ 2 - 2 x_68_ * x_43_ + 1 x_68_ ^ 2 + 1 y_43_ ^ 2 - 2 y_68_ * y_43_ + 1 y_68_ ^ 2 ] <= 29599.06
quadratic_ranged_311_ub: [ 1 x_67_ ^ 2 - 2 x_68_ * x_67_ + 1 x_68_ ^ 2 + 1 y_67_ ^ 2 - 2 y_68_ * y_67_ + 1 y_68_ ^ 2 ] <= 62912.9
quadratic_ranged_312_ub: [ 1 x_6_ ^ 2 - 2 x_69_ * x_6_ + 1 x_69_ ^ 2 + 1 y_6_ ^ 2 - 2 y_69_ * y_6_ + 1 y_69_ ^ 2 ] <= 29332.420000000002
quadratic_ranged_313_ub: [ 1 x_11_ ^ 2 - 2 x_69_ * x_11_ + 1 x_69_ ^ 2 + 1 y_11_ ^ 2 - 2 y_69_ * y_11_ + 1 y_69_ ^ 2 ] <= 546.41
quadratic_ranged_314_ub: [ 1 x_12_ ^ 2 - 2 x_69_ * x_12_ + 1 x_69_ ^ 2 + 1 y_12_ ^ 2 - 2 y_69_ * y_12_ + 1 y_69_ ^ 2 ] <= 24056.18
quadratic_ranged_315_ub: [ 1 x_19_ ^ 2 - 2 x_69_ * x_19_ + 1 x_69_ ^ 2 + 1 y_19_ ^ 2 - 2 y_69_ * y_19_ + 1 y_69_ ^ 2 ] <= 44311.73
quadratic_ranged_316_ub: [ 1 x_44_ ^ 2 - 2 x_69_ * x_44_ + 1 x_69_ ^ 2 + 1 y_44_ ^ 2 - 2 y_69_ * y_44_ + 1 y_69_ ^ 2 ] <= 28807.22
quadratic_ranged_317_ub: [ 1 x_45_ ^ 2 - 2 x_69_ * x_45_ + 1 x_69_ ^ 2 + 1 y_45_ ^ 2 - 2 y_69_ * y_45_ + 1 y_69_ ^ 2 ] <= 44803.6
quadratic_ranged_318_ub: [ 1 x_68_ ^ 2 - 2 x_69_ * x_68_ + 1 x_69_ ^ 2 + 1 y_68_ ^ 2 - 2 y_69_ * y_68_ + 1 y_69_ ^ 2 ] <= 3026.97
quadratic_ranged_319_ub: [ 1 x_23_ ^ 2 - 2 x_70_ * x_23_ + 1 x_70_ ^ 2 + 1 y_23_ ^ 2 - 2 y_70_ * y_23_ + 1 y_70_ ^ 2 ] <= 1270.58
quadratic_ranged_320_ub: [ 1 x_30_ ^ 2 - 2 x_70_ * x_30_ + 1 x_70_ ^ 2 + 1 y_30_ ^ 2 - 2 y_70_ * y_30_ + 1 y_70_ ^ 2 ] <= 14594.5
quadratic_ranged_321_ub: [ 1 x_36_ ^ 2 - 2 x_70_ * x_36_ + 1 x_70_ ^ 2 + 1 y_36_ ^ 2 - 2 y_70_ * y_36_ + 1 y_70_ ^ 2 ] <= 13045.16
quadratic_ranged_322_ub: [ 1 x_40_ ^ 2 - 2 x_70_ * x_40_ + 1 x_70_ ^ 2 + 1 y_40_ ^ 2 - 2 y_70_ * y_40_ + 1 y_70_ ^ 2 ] <= 10578.74
quadratic_ranged_323_ub: [ 1 x_53_ ^ 2 - 2 x_70_ * x_53_ + 1 x_70_ ^ 2 + 1 y_53_ ^ 2 - 2 y_70_ * y_53_ + 1 y_70_ ^ 2 ] <= 8666.81
quadratic_ranged_324_ub: [ 1 x_62_ ^ 2 - 2 x_70_ * x_62_ + 1 x_70_ ^ 2 + 1 y_62_ ^ 2 - 2 y_70_ * y_62_ + 1 y_70_ ^ 2 ] <= 14255.14
quadratic_ranged_325_ub: [ 1 x_65_ ^ 2 - 2 x_70_ * x_65_ + 1 x_70_ ^ 2 + 1 y_65_ ^ 2 - 2 y_70_ * y_65_ + 1 y_70_ ^ 2 ] <= 8051.72
quadratic_ranged_326_ub: [ 1 x_69_ ^ 2 - 2 x_70_ * x_69_ + 1 x_70_ ^ 2 + 1 y_69_ ^ 2 - 2 y_70_ * y_69_ + 1 y_70_ ^ 2 ] <= 15336.85
quadratic_ranged_327_ub: [ 1 x_1_ ^ 2 - 2 x_71_ * x_1_ + 1 x_71_ ^ 2 + 1 y_1_ ^ 2 - 2 y_71_ * y_1_ + 1 y_71_ ^ 2 ] <= 21235.25
quadratic_ranged_328_ub: [ 1 x_11_ ^ 2 - 2 x_71_ * x_11_ + 1 x_71_ ^ 2 + 1 y_11_ ^ 2 - 2 y_71_ * y_11_ + 1 y_71_ ^ 2 ] <= 11155.45
quadratic_ranged_329_ub: [ 1 x_27_ ^ 2 - 2 x_71_ * x_27_ + 1 x_71_ ^ 2 + 1 y_27_ ^ 2 - 2 y_71_ * y_27_ + 1 y_71_ ^ 2 ] <= 101
quadratic_ranged_330_ub: [ 1 x_37_ ^ 2 - 2 x_71_ * x_37_ + 1 x_71_ ^ 2 + 1 y_37_ ^ 2 - 2 y_71_ * y_37_ + 1 y_71_ ^ 2 ] <= 14796.5
quadratic_ranged_331_ub: [ 1 x_40_ ^ 2 - 2 x_71_ * x_40_ + 1 x_71_ ^ 2 + 1 y_40_ ^ 2 - 2 y_71_ * y_40_ + 1 y_71_ ^ 2 ] <= 1394.81
quadratic_ranged_332_ub: [ 1 x_45_ ^ 2 - 2 x_71_ * x_45_ + 1 x_71_ ^ 2 + 1 y_45_ ^ 2 - 2 y_71_ * y_45_ + 1 y_71_ ^ 2 ] <= 13130
quadratic_ranged_333_ub: [ 1 x_46_ ^ 2 - 2 x_71_ * x_46_ + 1 x_71_ ^ 2 + 1 y_46_ ^ 2 - 2 y_71_ * y_46_ + 1 y_71_ ^ 2 ] <= 8586.01
quadratic_ranged_334_ub: [ 1 x_49_ ^ 2 - 2 x_71_ * x_49_ + 1 x_71_ ^ 2 + 1 y_49_ ^ 2 - 2 y_71_ * y_49_ + 1 y_71_ ^ 2 ] <= 5740.84
quadratic_ranged_335_ub: [ 1 x_60_ ^ 2 - 2 x_71_ * x_60_ + 1 x_71_ ^ 2 + 1 y_60_ ^ 2 - 2 y_71_ * y_60_ + 1 y_71_ ^ 2 ] <= 4182.41
quadratic_ranged_336_ub: [ 1 x_68_ ^ 2 - 2 x_71_ * x_68_ + 1 x_71_ ^ 2 + 1 y_68_ ^ 2 - 2 y_71_ * y_68_ + 1 y_71_ ^ 2 ] <= 31201.93
quadratic_ranged_337_ub: [ 1 x_70_ ^ 2 - 2 x_71_ * x_70_ + 1 x_71_ ^ 2 + 1 y_70_ ^ 2 - 2 y_71_ * y_70_ + 1 y_71_ ^ 2 ] <= 7862.85
quadratic_ranged_338_ub: [ 1 x_43_ ^ 2 - 2 x_72_ * x_43_ + 1 x_72_ ^ 2 + 1 y_43_ ^ 2 - 2 y_72_ * y_43_ + 1 y_72_ ^ 2 ] <= 2013.94
quadratic_ranged_339_ub: [ 1 x_48_ ^ 2 - 2 x_72_ * x_48_ + 1 x_72_ ^ 2 + 1 y_48_ ^ 2 - 2 y_72_ * y_48_ + 1 y_72_ ^ 2 ] <= 32643.2
quadratic_ranged_340_ub: [ 1 x_56_ ^ 2 - 2 x_72_ * x_56_ + 1 x_72_ ^ 2 + 1 y_56_ ^ 2 - 2 y_72_ * y_56_ + 1 y_72_ ^ 2 ] <= 26587.24
quadratic_ranged_341_ub: [ 1 x_60_ ^ 2 - 2 x_72_ * x_60_ + 1 x_72_ ^ 2 + 1 y_60_ ^ 2 - 2 y_72_ * y_60_ + 1 y_72_ ^ 2 ] <= 19941.44
quadratic_ranged_342_ub: [ 1 x_71_ ^ 2 - 2 x_72_ * x_71_ + 1 x_72_ ^ 2 + 1 y_71_ ^ 2 - 2 y_72_ * y_71_ + 1 y_72_ ^ 2 ] <= 12916.89
quadratic_ranged_343_ub: [ 1 x_5_ ^ 2 - 2 x_73_ * x_5_ + 1 x_73_ ^ 2 + 1 y_5_ ^ 2 - 2 y_73_ * y_5_ + 1 y_73_ ^ 2 ] <= 1237.25
quadratic_ranged_344_ub: [ 1 x_14_ ^ 2 - 2 x_73_ * x_14_ + 1 x_73_ ^ 2 + 1 y_14_ ^ 2 - 2 y_73_ * y_14_ + 1 y_73_ ^ 2 ] <= 6368.05
quadratic_ranged_345_ub: [ 1 x_36_ ^ 2 - 2 x_73_ * x_36_ + 1 x_73_ ^ 2 + 1 y_36_ ^ 2 - 2 y_73_ * y_36_ + 1 y_73_ ^ 2 ] <= 13660.25
quadratic_ranged_346_ub: [ 1 x_44_ ^ 2 - 2 x_73_ * x_44_ + 1 x_73_ ^ 2 + 1 y_44_ ^ 2 - 2 y_73_ * y_44_ + 1 y_73_ ^ 2 ] <= 2270.48
quadratic_ranged_347_ub: [ 1 x_56_ ^ 2 - 2 x_73_ * x_56_ + 1 x_73_ ^ 2 + 1 y_56_ ^ 2 - 2 y_73_ * y_56_ + 1 y_73_ ^ 2 ] <= 9894.97
quadratic_ranged_348_ub: [ 1 x_60_ ^ 2 - 2 x_73_ * x_60_ + 1 x_73_ ^ 2 + 1 y_60_ ^ 2 - 2 y_73_ * y_60_ + 1 y_73_ ^ 2 ] <= 7915.37
quadratic_ranged_349_ub: [ 1 x_63_ ^ 2 - 2 x_73_ * x_63_ + 1 x_73_ ^ 2 + 1 y_63_ ^ 2 - 2 y_73_ * y_63_ + 1 y_73_ ^ 2 ] <= 1601.8600000000001
quadratic_ranged_350_ub: [ 1 x_72_ ^ 2 - 2 x_73_ * x_72_ + 1 x_73_ ^ 2 + 1 y_72_ ^ 2 - 2 y_73_ * y_72_ + 1 y_73_ ^ 2 ] <= 4045.05
quadratic_ranged_351_ub: [ 1 x_4_ ^ 2 - 2 x_74_ * x_4_ + 1 x_74_ ^ 2 + 1 y_4_ ^ 2 - 2 y_74_ * y_4_ + 1 y_74_ ^ 2 ] <= 535.3
quadratic_ranged_352_ub: [ 1 x_73_ ^ 2 - 2 x_74_ * x_73_ + 1 x_74_ ^ 2 + 1 y_73_ ^ 2 - 2 y_74_ * y_73_ + 1 y_74_ ^ 2 ] <= 11818.01
quadratic_ranged_353_ub: [ 1 x_14_ ^ 2 - 2 x_75_ * x_14_ + 1 x_75_ ^ 2 + 1 y_14_ ^ 2 - 2 y_75_ * y_14_ + 1 y_75_ ^ 2 ] <= 6364.01
quadratic_ranged_354_ub: [ 1 x_51_ ^ 2 - 2 x_75_ * x_51_ + 1 x_75_ ^ 2 + 1 y_51_ ^ 2 - 2 y_75_ * y_51_ + 1 y_75_ ^ 2 ] <= 21772.57
quadratic_ranged_355_ub: [ 1 x_63_ ^ 2 - 2 x_75_ * x_63_ + 1 x_75_ ^ 2 + 1 y_63_ ^ 2 - 2 y_75_ * y_63_ + 1 y_75_ ^ 2 ] <= 11079.7
quadratic_ranged_356_ub: [ 1 x_74_ ^ 2 - 2 x_75_ * x_74_ + 1 x_75_ ^ 2 + 1 y_74_ ^ 2 - 2 y_75_ * y_74_ + 1 y_75_ ^ 2 ] <= 8670.85
quadratic_ranged_357_ub: [ 1 x_9_ ^ 2 - 2 x_76_ * x_9_ + 1 x_76_ ^ 2 + 1 y_9_ ^ 2 - 2 y_76_ * y_9_ + 1 y_76_ ^ 2 ] <= 11357.45
quadratic_ranged_358_ub: [ 1 x_36_ ^ 2 - 2 x_76_ * x_36_ + 1 x_76_ ^ 2 + 1 y_36_ ^ 2 - 2 y_76_ * y_36_ + 1 y_76_ ^ 2 ] <= 1564.49
quadratic_ranged_359_ub: [ 1 x_45_ ^ 2 - 2 x_76_ * x_45_ + 1 x_76_ ^ 2 + 1 y_45_ ^ 2 - 2 y_76_ * y_45_ + 1 y_76_ ^ 2 ] <= 23399.68
quadratic_ranged_360_ub: [ 1 x_46_ ^ 2 - 2 x_76_ * x_46_ + 1 x_76_ ^ 2 + 1 y_46_ ^ 2 - 2 y_76_ * y_46_ + 1 y_76_ ^ 2 ] <= 15862.05
quadratic_ranged_361_ub: [ 1 x_48_ ^ 2 - 2 x_76_ * x_48_ + 1 x_76_ ^ 2 + 1 y_48_ ^ 2 - 2 y_76_ * y_48_ + 1 y_76_ ^ 2 ] <= 14221.81
quadratic_ranged_362_ub: [ 1 x_56_ ^ 2 - 2 x_76_ * x_56_ + 1 x_76_ ^ 2 + 1 y_56_ ^ 2 - 2 y_76_ * y_56_ + 1 y_76_ ^ 2 ] <= 18144.65
quadratic_ranged_363_ub: [ 1 x_75_ ^ 2 - 2 x_76_ * x_75_ + 1 x_76_ ^ 2 + 1 y_75_ ^ 2 - 2 y_76_ * y_75_ + 1 y_76_ ^ 2 ] <= 1270.58
quadratic_ranged_364_ub: [ 1 x_1_ ^ 2 - 2 x_77_ * x_1_ + 1 x_77_ ^ 2 + 1 y_1_ ^ 2 - 2 y_77_ * y_1_ + 1 y_77_ ^ 2 ] <= 15038.9
quadratic_ranged_365_ub: [ 1 x_11_ ^ 2 - 2 x_77_ * x_11_ + 1 x_77_ ^ 2 + 1 y_11_ ^ 2 - 2 y_77_ * y_11_ + 1 y_77_ ^ 2 ] <= 4817.7
quadratic_ranged_366_ub: [ 1 x_15_ ^ 2 - 2 x_77_ * x_15_ + 1 x_77_ ^ 2 + 1 y_15_ ^ 2 - 2 y_77_ * y_15_ + 1 y_77_ ^ 2 ] <= 20003.05
quadratic_ranged_367_ub: [ 1 x_20_ ^ 2 - 2 x_77_ * x_20_ + 1 x_77_ ^ 2 + 1 y_20_ ^ 2 - 2 y_77_ * y_20_ + 1 y_77_ ^ 2 ] <= 6633.68
quadratic_ranged_368_ub: [ 1 x_34_ ^ 2 - 2 x_77_ * x_34_ + 1 x_77_ ^ 2 + 1 y_34_ ^ 2 - 2 y_77_ * y_34_ + 1 y_77_ ^ 2 ] <= 23563.3
quadratic_ranged_369_ub: [ 1 x_35_ ^ 2 - 2 x_77_ * x_35_ + 1 x_77_ ^ 2 + 1 y_35_ ^ 2 - 2 y_77_ * y_35_ + 1 y_77_ ^ 2 ] <= 11805.89
quadratic_ranged_370_ub: [ 1 x_38_ ^ 2 - 2 x_77_ * x_38_ + 1 x_77_ ^ 2 + 1 y_38_ ^ 2 - 2 y_77_ * y_38_ + 1 y_77_ ^ 2 ] <= 16556.93
quadratic_ranged_371_ub: [ 1 x_43_ ^ 2 - 2 x_77_ * x_43_ + 1 x_77_ ^ 2 + 1 y_43_ ^ 2 - 2 y_77_ * y_43_ + 1 y_77_ ^ 2 ] <= 14451.08
quadratic_ranged_372_ub: [ 1 x_44_ ^ 2 - 2 x_77_ * x_44_ + 1 x_77_ ^ 2 + 1 y_44_ ^ 2 - 2 y_77_ * y_44_ + 1 y_77_ ^ 2 ] <= 19748.53
quadratic_ranged_373_ub: [ 1 x_68_ ^ 2 - 2 x_77_ * x_68_ + 1 x_77_ ^ 2 + 1 y_68_ ^ 2 - 2 y_77_ * y_68_ + 1 y_77_ ^ 2 ] <= 18965.78
quadratic_ranged_374_ub: [ 1 x_76_ ^ 2 - 2 x_77_ * x_76_ + 1 x_77_ ^ 2 + 1 y_76_ ^ 2 - 2 y_77_ * y_76_ + 1 y_77_ ^ 2 ] <= 1273.61
quadratic_ranged_375_ub: [ 1 x_2_ ^ 2 - 2 x_78_ * x_2_ + 1 x_78_ ^ 2 + 1 y_2_ ^ 2 - 2 y_78_ * y_2_ + 1 y_78_ ^ 2 ] <= 27323.53
quadratic_ranged_376_ub: [ 1 x_9_ ^ 2 - 2 x_78_ * x_9_ + 1 x_78_ ^ 2 + 1 y_9_ ^ 2 - 2 y_78_ * y_9_ + 1 y_78_ ^ 2 ] <= 10346.44
quadratic_ranged_377_ub: [ 1 x_25_ ^ 2 - 2 x_78_ * x_25_ + 1 x_78_ ^ 2 + 1 y_25_ ^ 2 - 2 y_78_ * y_25_ + 1 y_78_ ^ 2 ] <= 57711.4
quadratic_ranged_378_ub: [ 1 x_29_ ^ 2 - 2 x_78_ * x_29_ + 1 x_78_ ^ 2 + 1 y_29_ ^ 2 - 2 y_78_ * y_29_ + 1 y_78_ ^ 2 ] <= 8994.05
quadratic_ranged_379_ub: [ 1 x_31_ ^ 2 - 2 x_78_ * x_31_ + 1 x_78_ ^ 2 + 1 y_31_ ^ 2 - 2 y_78_ * y_31_ + 1 y_78_ ^ 2 ] <= 21593.8
quadratic_ranged_380_ub: [ 1 x_77_ ^ 2 - 2 x_78_ * x_77_ + 1 x_78_ ^ 2 + 1 y_77_ ^ 2 - 2 y_78_ * y_77_ + 1 y_78_ ^ 2 ] <= 34683.4
quadratic_ranged_381_ub: [ 1 x_26_ ^ 2 - 2 x_79_ * x_26_ + 1 x_79_ ^ 2 + 1 y_26_ ^ 2 - 2 y_79_ * y_26_ + 1 y_79_ ^ 2 ] <= 17360.89
quadratic_ranged_382_ub: [ 1 x_34_ ^ 2 - 2 x_79_ * x_34_ + 1 x_79_ ^ 2 + 1 y_34_ ^ 2 - 2 y_79_ * y_34_ + 1 y_79_ ^ 2 ] <= 2336.13
quadratic_ranged_383_ub: [ 1 x_39_ ^ 2 - 2 x_79_ * x_39_ + 1 x_79_ ^ 2 + 1 y_39_ ^ 2 - 2 y_79_ * y_39_ + 1 y_79_ ^ 2 ] <= 3479.45
quadratic_ranged_384_ub: [ 1 x_50_ ^ 2 - 2 x_79_ * x_50_ + 1 x_79_ ^ 2 + 1 y_50_ ^ 2 - 2 y_79_ * y_50_ + 1 y_79_ ^ 2 ] <= 23522.9
quadratic_ranged_385_ub: [ 1 x_51_ ^ 2 - 2 x_79_ * x_51_ + 1 x_79_ ^ 2 + 1 y_51_ ^ 2 - 2 y_79_ * y_51_ + 1 y_79_ ^ 2 ] <= 497.93
quadratic_ranged_386_ub: [ 1 x_66_ ^ 2 - 2 x_79_ * x_66_ + 1 x_79_ ^ 2 + 1 y_66_ ^ 2 - 2 y_79_ * y_66_ + 1 y_79_ ^ 2 ] <= 6609.4400000000005
quadratic_ranged_387_ub: [ 1 x_71_ ^ 2 - 2 x_79_ * x_71_ + 1 x_79_ ^ 2 + 1 y_71_ ^ 2 - 2 y_79_ * y_71_ + 1 y_79_ ^ 2 ] <= 17099.3
quadratic_ranged_388_ub: [ 1 x_78_ ^ 2 - 2 x_79_ * x_78_ + 1 x_79_ ^ 2 + 1 y_78_ ^ 2 - 2 y_79_ * y_78_ + 1 y_79_ ^ 2 ] <= 5964.05
quadratic_ranged_389_ub: [ 1 x_20_ ^ 2 - 2 x_80_ * x_20_ + 1 x_80_ ^ 2 + 1 y_20_ ^ 2 - 2 y_80_ * y_20_ + 1 y_80_ ^ 2 ] <= 13384.52
quadratic_ranged_390_ub: [ 1 x_23_ ^ 2 - 2 x_80_ * x_23_ + 1 x_80_ ^ 2 + 1 y_23_ ^ 2 - 2 y_80_ * y_23_ + 1 y_80_ ^ 2 ] <= 10188.88
quadratic_ranged_391_ub: [ 1 x_27_ ^ 2 - 2 x_80_ * x_27_ + 1 x_80_ ^ 2 + 1 y_27_ ^ 2 - 2 y_80_ * y_27_ + 1 y_80_ ^ 2 ] <= 12630.05
quadratic_ranged_392_ub: [ 1 x_38_ ^ 2 - 2 x_80_ * x_38_ + 1 x_80_ ^ 2 + 1 y_38_ ^ 2 - 2 y_80_ * y_38_ + 1 y_80_ ^ 2 ] <= 14124.85
quadratic_ranged_393_ub: [ 1 x_40_ ^ 2 - 2 x_80_ * x_40_ + 1 x_80_ ^ 2 + 1 y_40_ ^ 2 - 2 y_80_ * y_40_ + 1 y_80_ ^ 2 ] <= 4464.2
quadratic_ranged_394_ub: [ 1 x_42_ ^ 2 - 2 x_80_ * x_42_ + 1 x_80_ ^ 2 + 1 y_42_ ^ 2 - 2 y_80_ * y_42_ + 1 y_80_ ^ 2 ] <= 34794.5
quadratic_ranged_395_ub: [ 1 x_70_ ^ 2 - 2 x_80_ * x_70_ + 1 x_80_ ^ 2 + 1 y_70_ ^ 2 - 2 y_80_ * y_70_ + 1 y_80_ ^ 2 ] <= 17414.420000000002
quadratic_ranged_396_ub: [ 1 x_73_ ^ 2 - 2 x_80_ * x_73_ + 1 x_80_ ^ 2 + 1 y_73_ ^ 2 - 2 y_80_ * y_73_ + 1 y_80_ ^ 2 ] <= 17478.05
quadratic_ranged_397_ub: [ 1 x_74_ ^ 2 - 2 x_80_ * x_74_ + 1 x_80_ ^ 2 + 1 y_74_ ^ 2 - 2 y_80_ * y_74_ + 1 y_80_ ^ 2 ] <= 19870.74
quadratic_ranged_398_ub: [ 1 x_79_ ^ 2 - 2 x_80_ * x_79_ + 1 x_80_ ^ 2 + 1 y_79_ ^ 2 - 2 y_80_ * y_79_ + 1 y_80_ ^ 2 ] <= 13902.65
quadratic_ranged_399_ub: [ 1 x_4_ ^ 2 - 2 x_81_ * x_4_ + 1 x_81_ ^ 2 + 1 y_4_ ^ 2 - 2 y_81_ * y_4_ + 1 y_81_ ^ 2 ] <= 14190.5
quadratic_ranged_400_ub: [ 1 x_7_ ^ 2 - 2 x_81_ * x_7_ + 1 x_81_ ^ 2 + 1 y_7_ ^ 2 - 2 y_81_ * y_7_ + 1 y_81_ ^ 2 ] <= 2731.04
quadratic_ranged_401_ub: [ 1 x_9_ ^ 2 - 2 x_81_ * x_9_ + 1 x_81_ ^ 2 + 1 y_9_ ^ 2 - 2 y_81_ * y_9_ + 1 y_81_ ^ 2 ] <= 5536.82
quadratic_ranged_402_ub: [ 1 x_14_ ^ 2 - 2 x_81_ * x_14_ + 1 x_81_ ^ 2 + 1 y_14_ ^ 2 - 2 y_81_ * y_14_ + 1 y_81_ ^ 2 ] <= 343.4
quadratic_ranged_403_ub: [ 1 x_28_ ^ 2 - 2 x_81_ * x_28_ + 1 x_81_ ^ 2 + 1 y_28_ ^ 2 - 2 y_81_ * y_28_ + 1 y_81_ ^ 2 ] <= 2852.2400000000002
quadratic_ranged_404_ub: [ 1 x_37_ ^ 2 - 2 x_81_ * x_37_ + 1 x_81_ ^ 2 + 1 y_37_ ^ 2 - 2 y_81_ * y_37_ + 1 y_81_ ^ 2 ] <= 19599.05
quadratic_ranged_405_ub: [ 1 x_40_ ^ 2 - 2 x_81_ * x_40_ + 1 x_81_ ^ 2 + 1 y_40_ ^ 2 - 2 y_81_ * y_40_ + 1 y_81_ ^ 2 ] <= 6385.22
quadratic_ranged_406_ub: [ 1 x_60_ ^ 2 - 2 x_81_ * x_60_ + 1 x_81_ ^ 2 + 1 y_60_ ^ 2 - 2 y_81_ * y_60_ + 1 y_81_ ^ 2 ] <= 1680.64
quadratic_ranged_407_ub: [ 1 x_66_ ^ 2 - 2 x_81_ * x_66_ + 1 x_81_ ^ 2 + 1 y_66_ ^ 2 - 2 y_81_ * y_66_ + 1 y_81_ ^ 2 ] <= 2635.09
quadratic_ranged_408_ub: [ 1 x_69_ ^ 2 - 2 x_81_ * x_69_ + 1 x_81_ ^ 2 + 1 y_69_ ^ 2 - 2 y_81_ * y_69_ + 1 y_81_ ^ 2 ] <= 732.25
quadratic_ranged_409_ub: [ 1 x_77_ ^ 2 - 2 x_81_ * x_77_ + 1 x_81_ ^ 2 + 1 y_77_ ^ 2 - 2 y_81_ * y_77_ + 1 y_81_ ^ 2 ] <= 4809.62
quadratic_ranged_410_ub: [ 1 x_78_ ^ 2 - 2 x_81_ * x_78_ + 1 x_81_ ^ 2 + 1 y_78_ ^ 2 - 2 y_81_ * y_78_ + 1 y_81_ ^ 2 ] <= 21381.7
quadratic_ranged_411_ub: [ 1 x_80_ ^ 2 - 2 x_81_ * x_80_ + 1 x_81_ ^ 2 + 1 y_80_ ^ 2 - 2 y_81_ * y_80_ + 1 y_81_ ^ 2 ] <= 2353.3
quadratic_ranged_412_ub: [ 1 x_2_ ^ 2 - 2 x_82_ * x_2_ + 1 x_82_ ^ 2 + 1 y_2_ ^ 2 - 2 y_82_ * y_2_ + 1 y_82_ ^ 2 ] <= 1609.94
quadratic_ranged_413_ub: [ 1 x_7_ ^ 2 - 2 x_82_ * x_7_ + 1 x_82_ ^ 2 + 1 y_7_ ^ 2 - 2 y_82_ * y_7_ + 1 y_82_ ^ 2 ] <= 3624.89
quadratic_ranged_414_ub: [ 1 x_10_ ^ 2 - 2 x_82_ * x_10_ + 1 x_82_ ^ 2 + 1 y_10_ ^ 2 - 2 y_82_ * y_10_ + 1 y_82_ ^ 2 ] <= 3898.6
quadratic_ranged_415_ub: [ 1 x_13_ ^ 2 - 2 x_82_ * x_13_ + 1 x_82_ ^ 2 + 1 y_13_ ^ 2 - 2 y_82_ * y_13_ + 1 y_82_ ^ 2 ] <= 26568.05
quadratic_ranged_416_ub: [ 1 x_15_ ^ 2 - 2 x_82_ * x_15_ + 1 x_82_ ^ 2 + 1 y_15_ ^ 2 - 2 y_82_ * y_15_ + 1 y_82_ ^ 2 ] <= 15830.74
quadratic_ranged_417_ub: [ 1 x_19_ ^ 2 - 2 x_82_ * x_19_ + 1 x_82_ ^ 2 + 1 y_19_ ^ 2 - 2 y_82_ * y_19_ + 1 y_82_ ^ 2 ] <= 19530.37
quadratic_ranged_418_ub: [ 1 x_25_ ^ 2 - 2 x_82_ * x_25_ + 1 x_82_ ^ 2 + 1 y_25_ ^ 2 - 2 y_82_ * y_25_ + 1 y_82_ ^ 2 ] <= 2364.41
quadratic_ranged_419_ub: [ 1 x_33_ ^ 2 - 2 x_82_ * x_33_ + 1 x_82_ ^ 2 + 1 y_33_ ^ 2 - 2 y_82_ * y_33_ + 1 y_82_ ^ 2 ] <= 44846.02
quadratic_ranged_420_ub: [ 1 x_36_ ^ 2 - 2 x_82_ * x_36_ + 1 x_82_ ^ 2 + 1 y_36_ ^ 2 - 2 y_82_ * y_36_ + 1 y_82_ ^ 2 ] <= 1318.05
quadratic_ranged_421_ub: [ 1 x_47_ ^ 2 - 2 x_82_ * x_47_ + 1 x_82_ ^ 2 + 1 y_47_ ^ 2 - 2 y_82_ * y_47_ + 1 y_82_ ^ 2 ] <= 35713.6
quadratic_ranged_422_ub: [ 1 x_61_ ^ 2 - 2 x_82_ * x_61_ + 1 x_82_ ^ 2 + 1 y_61_ ^ 2 - 2 y_82_ * y_61_ + 1 y_82_ ^ 2 ] <= 2529.04
quadratic_ranged_423_ub: [ 1 x_71_ ^ 2 - 2 x_82_ * x_71_ + 1 x_82_ ^ 2 + 1 y_71_ ^ 2 - 2 y_82_ * y_71_ + 1 y_82_ ^ 2 ] <= 925.16
quadratic_ranged_424_ub: [ 1 x_72_ ^ 2 - 2 x_82_ * x_72_ + 1 x_82_ ^ 2 + 1 y_72_ ^ 2 - 2 y_82_ * y_72_ + 1 y_82_ ^ 2 ] <= 20544.41
quadratic_ranged_425_ub: [ 1 x_81_ ^ 2 - 2 x_82_ * x_81_ + 1 x_82_ ^ 2 + 1 y_81_ ^ 2 - 2 y_82_ * y_81_ + 1 y_82_ ^ 2 ] <= 9870.73
quadratic_ranged_426_ub: [ 1 x_2_ ^ 2 - 2 x_83_ * x_2_ + 1 x_83_ ^ 2 + 1 y_2_ ^ 2 - 2 y_83_ * y_2_ + 1 y_83_ ^ 2 ] <= 29173.85
quadratic_ranged_427_ub: [ 1 x_19_ ^ 2 - 2 x_83_ * x_19_ + 1 x_83_ ^ 2 + 1 y_19_ ^ 2 - 2 y_83_ * y_19_ + 1 y_83_ ^ 2 ] <= 61165.6
quadratic_ranged_428_ub: [ 1 x_28_ ^ 2 - 2 x_83_ * x_28_ + 1 x_83_ ^ 2 + 1 y_28_ ^ 2 - 2 y_83_ * y_28_ + 1 y_83_ ^ 2 ] <= 14580.36
quadratic_ranged_429_ub: [ 1 x_37_ ^ 2 - 2 x_83_ * x_37_ + 1 x_83_ ^ 2 + 1 y_37_ ^ 2 - 2 y_83_ * y_37_ + 1 y_83_ ^ 2 ] <= 34506.65
quadratic_ranged_430_ub: [ 1 x_47_ ^ 2 - 2 x_83_ * x_47_ + 1 x_83_ ^ 2 + 1 y_47_ ^ 2 - 2 y_83_ * y_47_ + 1 y_83_ ^ 2 ] <= 24047.09
quadratic_ranged_431_ub: [ 1 x_62_ ^ 2 - 2 x_83_ * x_62_ + 1 x_83_ ^ 2 + 1 y_62_ ^ 2 - 2 y_83_ * y_62_ + 1 y_83_ ^ 2 ] <= 32879.54
quadratic_ranged_432_ub: [ 1 x_78_ ^ 2 - 2 x_83_ * x_78_ + 1 x_83_ ^ 2 + 1 y_78_ ^ 2 - 2 y_83_ * y_78_ + 1 y_83_ ^ 2 ] <= 25017.7
quadratic_ranged_433_ub: [ 1 x_82_ ^ 2 - 2 x_83_ * x_82_ + 1 x_83_ ^ 2 + 1 y_82_ ^ 2 - 2 y_83_ * y_82_ + 1 y_83_ ^ 2 ] <= 29888.93
quadratic_ranged_434_ub: [ 1 x_20_ ^ 2 - 2 x_84_ * x_20_ + 1 x_84_ ^ 2 + 1 y_20_ ^ 2 - 2 y_84_ * y_20_ + 1 y_84_ ^ 2 ] <= 12828.01
quadratic_ranged_435_ub: [ 1 x_25_ ^ 2 - 2 x_84_ * x_25_ + 1 x_84_ ^ 2 + 1 y_25_ ^ 2 - 2 y_84_ * y_25_ + 1 y_84_ ^ 2 ] <= 58201.25
quadratic_ranged_436_ub: [ 1 x_38_ ^ 2 - 2 x_84_ * x_38_ + 1 x_84_ ^ 2 + 1 y_38_ ^ 2 - 2 y_84_ * y_38_ + 1 y_84_ ^ 2 ] <= 12889.62
quadratic_ranged_437_ub: [ 1 x_41_ ^ 2 - 2 x_84_ * x_41_ + 1 x_84_ ^ 2 + 1 y_41_ ^ 2 - 2 y_84_ * y_41_ + 1 y_84_ ^ 2 ] <= 22692.68
quadratic_ranged_438_ub: [ 1 x_60_ ^ 2 - 2 x_84_ * x_60_ + 1 x_84_ ^ 2 + 1 y_60_ ^ 2 - 2 y_84_ * y_60_ + 1 y_84_ ^ 2 ] <= 28487.05
quadratic_ranged_439_ub: [ 1 x_68_ ^ 2 - 2 x_84_ * x_68_ + 1 x_84_ ^ 2 + 1 y_68_ ^ 2 - 2 y_84_ * y_68_ + 1 y_84_ ^ 2 ] <= 40182.85
quadratic_ranged_440_ub: [ 1 x_73_ ^ 2 - 2 x_84_ * x_73_ + 1 x_84_ ^ 2 + 1 y_73_ ^ 2 - 2 y_84_ * y_73_ + 1 y_84_ ^ 2 ] <= 6807.4
quadratic_ranged_441_ub: [ 1 x_80_ ^ 2 - 2 x_84_ * x_80_ + 1 x_84_ ^ 2 + 1 y_80_ ^ 2 - 2 y_84_ * y_80_ + 1 y_84_ ^ 2 ] <= 43394.65
quadratic_ranged_442_ub: [ 1 x_83_ ^ 2 - 2 x_84_ * x_83_ + 1 x_84_ ^ 2 + 1 y_83_ ^ 2 - 2 y_84_ * y_83_ + 1 y_84_ ^ 2 ] <= 36809.45
quadratic_ranged_443_ub: [ 1 x_2_ ^ 2 - 2 x_85_ * x_2_ + 1 x_85_ ^ 2 + 1 y_2_ ^ 2 - 2 y_85_ * y_2_ + 1 y_85_ ^ 2 ] <= 5539.85
quadratic_ranged_444_ub: [ 1 x_8_ ^ 2 - 2 x_85_ * x_8_ + 1 x_85_ ^ 2 + 1 y_8_ ^ 2 - 2 y_85_ * y_8_ + 1 y_85_ ^ 2 ] <= 29710.16
quadratic_ranged_445_ub: [ 1 x_16_ ^ 2 - 2 x_85_ * x_16_ + 1 x_85_ ^ 2 + 1 y_16_ ^ 2 - 2 y_85_ * y_16_ + 1 y_85_ ^ 2 ] <= 15821.65
quadratic_ranged_446_ub: [ 1 x_66_ ^ 2 - 2 x_85_ * x_66_ + 1 x_85_ ^ 2 + 1 y_66_ ^ 2 - 2 y_85_ * y_66_ + 1 y_85_ ^ 2 ] <= 47212.45
quadratic_ranged_447_ub: [ 1 x_70_ ^ 2 - 2 x_85_ * x_70_ + 1 x_85_ ^ 2 + 1 y_70_ ^ 2 - 2 y_85_ * y_70_ + 1 y_85_ ^ 2 ] <= 11006.98
quadratic_ranged_448_ub: [ 1 x_81_ ^ 2 - 2 x_85_ * x_81_ + 1 x_85_ ^ 2 + 1 y_81_ ^ 2 - 2 y_85_ * y_81_ + 1 y_85_ ^ 2 ] <= 28225.46
quadratic_ranged_449_ub: [ 1 x_84_ ^ 2 - 2 x_85_ * x_84_ + 1 x_85_ ^ 2 + 1 y_84_ ^ 2 - 2 y_85_ * y_84_ + 1 y_85_ ^ 2 ] <= 25962.05
quadratic_ranged_450_ub: [ 1 x_16_ ^ 2 - 2 x_86_ * x_16_ + 1 x_86_ ^ 2 + 1 y_16_ ^ 2 - 2 y_86_ * y_16_ + 1 y_86_ ^ 2 ] <= 9167.77
quadratic_ranged_451_ub: [ 1 x_50_ ^ 2 - 2 x_86_ * x_50_ + 1 x_86_ ^ 2 + 1 y_50_ ^ 2 - 2 y_86_ * y_50_ + 1 y_86_ ^ 2 ] <= 27279.09
quadratic_ranged_452_ub: [ 1 x_52_ ^ 2 - 2 x_86_ * x_52_ + 1 x_86_ ^ 2 + 1 y_52_ ^ 2 - 2 y_86_ * y_52_ + 1 y_86_ ^ 2 ] <= 25962.05
quadratic_ranged_453_ub: [ 1 x_62_ ^ 2 - 2 x_86_ * x_62_ + 1 x_86_ ^ 2 + 1 y_62_ ^ 2 - 2 y_86_ * y_62_ + 1 y_86_ ^ 2 ] <= 27310.4
quadratic_ranged_454_ub: [ 1 x_65_ ^ 2 - 2 x_86_ * x_65_ + 1 x_86_ ^ 2 + 1 y_65_ ^ 2 - 2 y_86_ * y_65_ + 1 y_86_ ^ 2 ] <= 12170.5
quadratic_ranged_455_ub: [ 1 x_71_ ^ 2 - 2 x_86_ * x_71_ + 1 x_86_ ^ 2 + 1 y_71_ ^ 2 - 2 y_86_ * y_71_ + 1 y_86_ ^ 2 ] <= 21057.49
quadratic_ranged_456_ub: [ 1 x_74_ ^ 2 - 2 x_86_ * x_74_ + 1 x_86_ ^ 2 + 1 y_74_ ^ 2 - 2 y_86_ * y_74_ + 1 y_86_ ^ 2 ] <= 30253.54
quadratic_ranged_457_ub: [ 1 x_79_ ^ 2 - 2 x_86_ * x_79_ + 1 x_86_ ^ 2 + 1 y_79_ ^ 2 - 2 y_86_ * y_79_ + 1 y_86_ ^ 2 ] <= 207.05
quadratic_ranged_458_ub: [ 1 x_85_ ^ 2 - 2 x_86_ * x_85_ + 1 x_86_ ^ 2 + 1 y_85_ ^ 2 - 2 y_86_ * y_85_ + 1 y_86_ ^ 2 ] <= 32905.8
quadratic_ranged_459_ub: [ 1 x_10_ ^ 2 - 2 x_87_ * x_10_ + 1 x_87_ ^ 2 + 1 y_10_ ^ 2 - 2 y_87_ * y_10_ + 1 y_87_ ^ 2 ] <= 5652.97
quadratic_ranged_460_ub: [ 1 x_44_ ^ 2 - 2 x_87_ * x_44_ + 1 x_87_ ^ 2 + 1 y_44_ ^ 2 - 2 y_87_ * y_44_ + 1 y_87_ ^ 2 ] <= 2695.69
quadratic_ranged_461_ub: [ 1 x_57_ ^ 2 - 2 x_87_ * x_57_ + 1 x_87_ ^ 2 + 1 y_57_ ^ 2 - 2 y_87_ * y_57_ + 1 y_87_ ^ 2 ] <= 12800.74
quadratic_ranged_462_ub: [ 1 x_67_ ^ 2 - 2 x_87_ * x_67_ + 1 x_87_ ^ 2 + 1 y_67_ ^ 2 - 2 y_87_ * y_67_ + 1 y_87_ ^ 2 ] <= 1571.56
quadratic_ranged_463_ub: [ 1 x_68_ ^ 2 - 2 x_87_ * x_68_ + 1 x_87_ ^ 2 + 1 y_68_ ^ 2 - 2 y_87_ * y_68_ + 1 y_87_ ^ 2 ] <= 58089.14
quadratic_ranged_464_ub: [ 1 x_86_ ^ 2 - 2 x_87_ * x_86_ + 1 x_87_ ^ 2 + 1 y_86_ ^ 2 - 2 y_87_ * y_86_ + 1 y_87_ ^ 2 ] <= 27265.96
quadratic_ranged_465_ub: [ 1 x_10_ ^ 2 - 2 x_88_ * x_10_ + 1 x_88_ ^ 2 + 1 y_10_ ^ 2 - 2 y_88_ * y_10_ + 1 y_88_ ^ 2 ] <= 30971.65
quadratic_ranged_466_ub: [ 1 x_34_ ^ 2 - 2 x_88_ * x_34_ + 1 x_88_ ^ 2 + 1 y_34_ ^ 2 - 2 y_88_ * y_34_ + 1 y_88_ ^ 2 ] <= 15863.06
quadratic_ranged_467_ub: [ 1 x_43_ ^ 2 - 2 x_88_ * x_43_ + 1 x_88_ ^ 2 + 1 y_43_ ^ 2 - 2 y_88_ * y_43_ + 1 y_88_ ^ 2 ] <= 22078.6
quadratic_ranged_468_ub: [ 1 x_62_ ^ 2 - 2 x_88_ * x_62_ + 1 x_88_ ^ 2 + 1 y_62_ ^ 2 - 2 y_88_ * y_62_ + 1 y_88_ ^ 2 ] <= 24745
quadratic_ranged_469_ub: [ 1 x_77_ ^ 2 - 2 x_88_ * x_77_ + 1 x_88_ ^ 2 + 1 y_77_ ^ 2 - 2 y_88_ * y_77_ + 1 y_88_ ^ 2 ] <= 13849.12
quadratic_ranged_470_ub: [ 1 x_87_ ^ 2 - 2 x_88_ * x_87_ + 1 x_88_ ^ 2 + 1 y_87_ ^ 2 - 2 y_88_ * y_87_ + 1 y_88_ ^ 2 ] <= 47066
quadratic_ranged_471_ub: [ 1 x_1_ ^ 2 - 2 x_89_ * x_1_ + 1 x_89_ ^ 2 + 1 y_1_ ^ 2 - 2 y_89_ * y_1_ + 1 y_89_ ^ 2 ] <= 114.13
quadratic_ranged_472_ub: [ 1 x_28_ ^ 2 - 2 x_89_ * x_28_ + 1 x_89_ ^ 2 + 1 y_28_ ^ 2 - 2 y_89_ * y_28_ + 1 y_89_ ^ 2 ] <= 10044.45
quadratic_ranged_473_ub: [ 1 x_34_ ^ 2 - 2 x_89_ * x_34_ + 1 x_89_ ^ 2 + 1 y_34_ ^ 2 - 2 y_89_ * y_34_ + 1 y_89_ ^ 2 ] <= 8206.25
quadratic_ranged_474_ub: [ 1 x_41_ ^ 2 - 2 x_89_ * x_41_ + 1 x_89_ ^ 2 + 1 y_41_ ^ 2 - 2 y_89_ * y_41_ + 1 y_89_ ^ 2 ] <= 25342.920000000002
quadratic_ranged_475_ub: [ 1 x_74_ ^ 2 - 2 x_89_ * x_74_ + 1 x_89_ ^ 2 + 1 y_74_ ^ 2 - 2 y_89_ * y_74_ + 1 y_89_ ^ 2 ] <= 30692.89
quadratic_ranged_476_ub: [ 1 x_80_ ^ 2 - 2 x_89_ * x_80_ + 1 x_89_ ^ 2 + 1 y_80_ ^ 2 - 2 y_89_ * y_80_ + 1 y_89_ ^ 2 ] <= 8586.01
quadratic_ranged_477_ub: [ 1 x_88_ ^ 2 - 2 x_89_ * x_88_ + 1 x_89_ ^ 2 + 1 y_88_ ^ 2 - 2 y_89_ * y_88_ + 1 y_89_ ^ 2 ] <= 1253.41
quadratic_ranged_478_ub: [ 1 x_4_ ^ 2 - 2 x_90_ * x_4_ + 1 x_90_ ^ 2 + 1 y_4_ ^ 2 - 2 y_90_ * y_4_ + 1 y_90_ ^ 2 ] <= 22450.28
quadratic_ranged_479_ub: [ 1 x_15_ ^ 2 - 2 x_90_ * x_15_ + 1 x_90_ ^ 2 + 1 y_15_ ^ 2 - 2 y_90_ * y_15_ + 1 y_90_ ^ 2 ] <= 28438.57
quadratic_ranged_480_ub: [ 1 x_25_ ^ 2 - 2 x_90_ * x_25_ + 1 x_90_ ^ 2 + 1 y_25_ ^ 2 - 2 y_90_ * y_25_ + 1 y_90_ ^ 2 ] <= 29528.36
quadratic_ranged_481_ub: [ 1 x_34_ ^ 2 - 2 x_90_ * x_34_ + 1 x_90_ ^ 2 + 1 y_34_ ^ 2 - 2 y_90_ * y_34_ + 1 y_90_ ^ 2 ] <= 5116.66
quadratic_ranged_482_ub: [ 1 x_41_ ^ 2 - 2 x_90_ * x_41_ + 1 x_90_ ^ 2 + 1 y_41_ ^ 2 - 2 y_90_ * y_41_ + 1 y_90_ ^ 2 ] <= 23174.45
quadratic_ranged_483_ub: [ 1 x_57_ ^ 2 - 2 x_90_ * x_57_ + 1 x_90_ ^ 2 + 1 y_57_ ^ 2 - 2 y_90_ * y_57_ + 1 y_90_ ^ 2 ] <= 6724.58
quadratic_ranged_484_ub: [ 1 x_69_ ^ 2 - 2 x_90_ * x_69_ + 1 x_90_ ^ 2 + 1 y_69_ ^ 2 - 2 y_90_ * y_69_ + 1 y_90_ ^ 2 ] <= 4982.33
quadratic_ranged_485_ub: [ 1 x_71_ ^ 2 - 2 x_90_ * x_71_ + 1 x_90_ ^ 2 + 1 y_71_ ^ 2 - 2 y_90_ * y_71_ + 1 y_90_ ^ 2 ] <= 18993.05
quadratic_ranged_486_ub: [ 1 x_79_ ^ 2 - 2 x_90_ * x_79_ + 1 x_90_ ^ 2 + 1 y_79_ ^ 2 - 2 y_90_ * y_79_ + 1 y_90_ ^ 2 ] <= 598.93
quadratic_ranged_487_ub: [ 1 x_81_ ^ 2 - 2 x_90_ * x_81_ + 1 x_90_ ^ 2 + 1 y_81_ ^ 2 - 2 y_90_ * y_81_ + 1 y_90_ ^ 2 ] <= 3250.18
quadratic_ranged_488_ub: [ 1 x_84_ ^ 2 - 2 x_90_ * x_84_ + 1 x_90_ ^ 2 + 1 y_84_ ^ 2 - 2 y_90_ * y_84_ + 1 y_90_ ^ 2 ] <= 16039.81
quadratic_ranged_489_ub: [ 1 x_89_ ^ 2 - 2 x_90_ * x_89_ + 1 x_90_ ^ 2 + 1 y_89_ ^ 2 - 2 y_90_ * y_89_ + 1 y_90_ ^ 2 ] <= 364.61
quadratic_ranged_490_ub: [ 1 x_11_ ^ 2 - 2 x_91_ * x_11_ + 1 x_91_ ^ 2 + 1 y_11_ ^ 2 - 2 y_91_ * y_11_ + 1 y_91_ ^ 2 ] <= 1419.05
quadratic_ranged_491_ub: [ 1 x_26_ ^ 2 - 2 x_91_ * x_26_ + 1 x_91_ ^ 2 + 1 y_26_ ^ 2 - 2 y_91_ * y_26_ + 1 y_91_ ^ 2 ] <= 5115.65
quadratic_ranged_492_ub: [ 1 x_59_ ^ 2 - 2 x_91_ * x_59_ + 1 x_91_ ^ 2 + 1 y_59_ ^ 2 - 2 y_91_ * y_59_ + 1 y_91_ ^ 2 ] <= 4324.82
quadratic_ranged_493_ub: [ 1 x_62_ ^ 2 - 2 x_91_ * x_62_ + 1 x_91_ ^ 2 + 1 y_62_ ^ 2 - 2 y_91_ * y_62_ + 1 y_91_ ^ 2 ] <= 6586.21
quadratic_ranged_494_ub: [ 1 x_69_ ^ 2 - 2 x_91_ * x_69_ + 1 x_91_ ^ 2 + 1 y_69_ ^ 2 - 2 y_91_ * y_69_ + 1 y_91_ ^ 2 ] <= 3613.78
quadratic_ranged_495_ub: [ 1 x_70_ ^ 2 - 2 x_91_ * x_70_ + 1 x_91_ ^ 2 + 1 y_70_ ^ 2 - 2 y_91_ * y_70_ + 1 y_91_ ^ 2 ] <= 5261.09
quadratic_ranged_496_ub: [ 1 x_89_ ^ 2 - 2 x_91_ * x_89_ + 1 x_91_ ^ 2 + 1 y_89_ ^ 2 - 2 y_91_ * y_89_ + 1 y_91_ ^ 2 ] <= 4965.16
quadratic_ranged_497_ub: [ 1 x_90_ ^ 2 - 2 x_91_ * x_90_ + 1 x_91_ ^ 2 + 1 y_90_ ^ 2 - 2 y_91_ * y_90_ + 1 y_91_ ^ 2 ] <= 5176.25
quadratic_ranged_498_ub: [ 1 x_1_ ^ 2 - 2 x_92_ * x_1_ + 1 x_92_ ^ 2 + 1 y_1_ ^ 2 - 2 y_92_ * y_1_ + 1 y_92_ ^ 2 ] <= 18685
quadratic_ranged_499_ub: [ 1 x_14_ ^ 2 - 2 x_92_ * x_14_ + 1 x_92_ ^ 2 + 1 y_14_ ^ 2 - 2 y_92_ * y_14_ + 1 y_92_ ^ 2 ] <= 8249.68
quadratic_ranged_500_ub: [ 1 x_22_ ^ 2 - 2 x_92_ * x_22_ + 1 x_92_ ^ 2 + 1 y_22_ ^ 2 - 2 y_92_ * y_22_ + 1 y_92_ ^ 2 ] <= 5171.2
quadratic_ranged_501_ub: [ 1 x_33_ ^ 2 - 2 x_92_ * x_33_ + 1 x_92_ ^ 2 + 1 y_33_ ^ 2 - 2 y_92_ * y_33_ + 1 y_92_ ^ 2 ] <= 50262.65
quadratic_ranged_502_ub: [ 1 x_39_ ^ 2 - 2 x_92_ * x_39_ + 1 x_92_ ^ 2 + 1 y_39_ ^ 2 - 2 y_92_ * y_39_ + 1 y_92_ ^ 2 ] <= 6627.62
quadratic_ranged_503_ub: [ 1 x_43_ ^ 2 - 2 x_92_ * x_43_ + 1 x_92_ ^ 2 + 1 y_43_ ^ 2 - 2 y_92_ * y_43_ + 1 y_92_ ^ 2 ] <= 19959.62
quadratic_ranged_504_ub: [ 1 x_51_ ^ 2 - 2 x_92_ * x_51_ + 1 x_92_ ^ 2 + 1 y_51_ ^ 2 - 2 y_92_ * y_51_ + 1 y_92_ ^ 2 ] <= 25734.8
quadratic_ranged_505_ub: [ 1 x_58_ ^ 2 - 2 x_92_ * x_58_ + 1 x_92_ ^ 2 + 1 y_58_ ^ 2 - 2 y_92_ * y_58_ + 1 y_92_ ^ 2 ] <= 21260.5
quadratic_ranged_506_ub: [ 1 x_69_ ^ 2 - 2 x_92_ * x_69_ + 1 x_92_ ^ 2 + 1 y_69_ ^ 2 - 2 y_92_ * y_69_ + 1 y_92_ ^ 2 ] <= 7846.6900000000005
quadratic_ranged_507_ub: [ 1 x_78_ ^ 2 - 2 x_92_ * x_78_ + 1 x_92_ ^ 2 + 1 y_78_ ^ 2 - 2 y_92_ * y_78_ + 1 y_92_ ^ 2 ] <= 42599.78
quadratic_ranged_508_ub: [ 1 x_81_ ^ 2 - 2 x_92_ * x_81_ + 1 x_92_ ^ 2 + 1 y_81_ ^ 2 - 2 y_92_ * y_81_ + 1 y_92_ ^ 2 ] <= 6548.84
quadratic_ranged_509_ub: [ 1 x_90_ ^ 2 - 2 x_92_ * x_90_ + 1 x_92_ ^ 2 + 1 y_90_ ^ 2 - 2 y_92_ * y_90_ + 1 y_92_ ^ 2 ] <= 18068.9
quadratic_ranged_510_ub: [ 1 x_91_ ^ 2 - 2 x_92_ * x_91_ + 1 x_92_ ^ 2 + 1 y_91_ ^ 2 - 2 y_92_ * y_91_ + 1 y_92_ ^ 2 ] <= 4408.65
quadratic_ranged_511_ub: [ 1 x_8_ ^ 2 - 2 x_93_ * x_8_ + 1 x_93_ ^ 2 + 1 y_8_ ^ 2 - 2 y_93_ * y_8_ + 1 y_93_ ^ 2 ] <= 27044.77
quadratic_ranged_512_ub: [ 1 x_14_ ^ 2 - 2 x_93_ * x_14_ + 1 x_93_ ^ 2 + 1 y_14_ ^ 2 - 2 y_93_ * y_14_ + 1 y_93_ ^ 2 ] <= 9688.93
quadratic_ranged_513_ub: [ 1 x_16_ ^ 2 - 2 x_93_ * x_16_ + 1 x_93_ ^ 2 + 1 y_16_ ^ 2 - 2 y_93_ * y_16_ + 1 y_93_ ^ 2 ] <= 15038.9
quadratic_ranged_514_ub: [ 1 x_26_ ^ 2 - 2 x_93_ * x_26_ + 1 x_93_ ^ 2 + 1 y_26_ ^ 2 - 2 y_93_ * y_26_ + 1 y_93_ ^ 2 ] <= 26426.65
quadratic_ranged_515_ub: [ 1 x_33_ ^ 2 - 2 x_93_ * x_33_ + 1 x_93_ ^ 2 + 1 y_33_ ^ 2 - 2 y_93_ * y_33_ + 1 y_93_ ^ 2 ] <= 3783.46
quadratic_ranged_516_ub: [ 1 x_44_ ^ 2 - 2 x_93_ * x_44_ + 1 x_93_ ^ 2 + 1 y_44_ ^ 2 - 2 y_93_ * y_44_ + 1 y_93_ ^ 2 ] <= 10740.34
quadratic_ranged_517_ub: [ 1 x_45_ ^ 2 - 2 x_93_ * x_45_ + 1 x_93_ ^ 2 + 1 y_45_ ^ 2 - 2 y_93_ * y_45_ + 1 y_93_ ^ 2 ] <= 26502.4
quadratic_ranged_518_ub: [ 1 x_59_ ^ 2 - 2 x_93_ * x_59_ + 1 x_93_ ^ 2 + 1 y_59_ ^ 2 - 2 y_93_ * y_59_ + 1 y_93_ ^ 2 ] <= 16321.6
quadratic_ranged_519_ub: [ 1 x_73_ ^ 2 - 2 x_93_ * x_73_ + 1 x_93_ ^ 2 + 1 y_73_ ^ 2 - 2 y_93_ * y_73_ + 1 y_93_ ^ 2 ] <= 5730.74
quadratic_ranged_520_ub: [ 1 x_92_ ^ 2 - 2 x_93_ * x_92_ + 1 x_93_ ^ 2 + 1 y_92_ ^ 2 - 2 y_93_ * y_92_ + 1 y_93_ ^ 2 ] <= 32922.97
quadratic_ranged_521_ub: [ 1 x_11_ ^ 2 - 2 x_94_ * x_11_ + 1 x_94_ ^ 2 + 1 y_11_ ^ 2 - 2 y_94_ * y_11_ + 1 y_94_ ^ 2 ] <= 3807.7
quadratic_ranged_522_ub: [ 1 x_21_ ^ 2 - 2 x_94_ * x_21_ + 1 x_94_ ^ 2 + 1 y_21_ ^ 2 - 2 y_94_ * y_21_ + 1 y_94_ ^ 2 ] <= 3494.6
quadratic_ranged_523_ub: [ 1 x_36_ ^ 2 - 2 x_94_ * x_36_ + 1 x_94_ ^ 2 + 1 y_36_ ^ 2 - 2 y_94_ * y_36_ + 1 y_94_ ^ 2 ] <= 31101.94
quadratic_ranged_524_ub: [ 1 x_45_ ^ 2 - 2 x_94_ * x_45_ + 1 x_94_ ^ 2 + 1 y_45_ ^ 2 - 2 y_94_ * y_45_ + 1 y_94_ ^ 2 ] <= 39492.01
quadratic_ranged_525_ub: [ 1 x_76_ ^ 2 - 2 x_94_ * x_76_ + 1 x_94_ ^ 2 + 1 y_76_ ^ 2 - 2 y_94_ * y_76_ + 1 y_94_ ^ 2 ] <= 25384.33
quadratic_ranged_526_ub: [ 1 x_87_ ^ 2 - 2 x_94_ * x_87_ + 1 x_94_ ^ 2 + 1 y_87_ ^ 2 - 2 y_94_ * y_87_ + 1 y_94_ ^ 2 ] <= 35976.2
quadratic_ranged_527_ub: [ 1 x_93_ ^ 2 - 2 x_94_ * x_93_ + 1 x_94_ ^ 2 + 1 y_93_ ^ 2 - 2 y_94_ * y_93_ + 1 y_94_ ^ 2 ] <= 5539.85
quadratic_ranged_528_ub: [ 1 x_45_ ^ 2 - 2 x_95_ * x_45_ + 1 x_95_ ^ 2 + 1 y_45_ ^ 2 - 2 y_95_ * y_45_ + 1 y_95_ ^ 2 ] <= 607.01
quadratic_ranged_529_ub: [ 1 x_48_ ^ 2 - 2 x_95_ * x_48_ + 1 x_95_ ^ 2 + 1 y_48_ ^ 2 - 2 y_95_ * y_48_ + 1 y_95_ ^ 2 ] <= 51053.48
quadratic_ranged_530_ub: [ 1 x_63_ ^ 2 - 2 x_95_ * x_63_ + 1 x_95_ ^ 2 + 1 y_63_ ^ 2 - 2 y_95_ * y_63_ + 1 y_95_ ^ 2 ] <= 25933.77
quadratic_ranged_531_ub: [ 1 x_69_ ^ 2 - 2 x_95_ * x_69_ + 1 x_95_ ^ 2 + 1 y_69_ ^ 2 - 2 y_95_ * y_69_ + 1 y_95_ ^ 2 ] <= 52387.69
quadratic_ranged_532_ub: [ 1 x_80_ ^ 2 - 2 x_95_ * x_80_ + 1 x_95_ ^ 2 + 1 y_80_ ^ 2 - 2 y_95_ * y_80_ + 1 y_95_ ^ 2 ] <= 47997.22
quadratic_ranged_533_ub: [ 1 x_84_ ^ 2 - 2 x_95_ * x_84_ + 1 x_95_ ^ 2 + 1 y_84_ ^ 2 - 2 y_95_ * y_84_ + 1 y_95_ ^ 2 ] <= 21825.09
quadratic_ranged_534_ub: [ 1 x_93_ ^ 2 - 2 x_95_ * x_93_ + 1 x_95_ ^ 2 + 1 y_93_ ^ 2 - 2 y_95_ * y_93_ + 1 y_95_ ^ 2 ] <= 35043.97
quadratic_ranged_535_ub: [ 1 x_94_ ^ 2 - 2 x_95_ * x_94_ + 1 x_95_ ^ 2 + 1 y_94_ ^ 2 - 2 y_95_ * y_94_ + 1 y_95_ ^ 2 ] <= 48635.54
quadratic_ranged_536_ub: [ 1 x_17_ ^ 2 - 2 x_96_ * x_17_ + 1 x_96_ ^ 2 + 1 y_17_ ^ 2 - 2 y_96_ * y_17_ + 1 y_96_ ^ 2 ] <= 7862.85
quadratic_ranged_537_ub: [ 1 x_21_ ^ 2 - 2 x_96_ * x_21_ + 1 x_96_ ^ 2 + 1 y_21_ ^ 2 - 2 y_96_ * y_21_ + 1 y_96_ ^ 2 ] <= 7871.9400000000005
quadratic_ranged_538_ub: [ 1 x_48_ ^ 2 - 2 x_96_ * x_48_ + 1 x_96_ ^ 2 + 1 y_48_ ^ 2 - 2 y_96_ * y_48_ + 1 y_96_ ^ 2 ] <= 16972.04
quadratic_ranged_539_ub: [ 1 x_50_ ^ 2 - 2 x_96_ * x_50_ + 1 x_96_ ^ 2 + 1 y_50_ ^ 2 - 2 y_96_ * y_50_ + 1 y_96_ ^ 2 ] <= 4206.65
quadratic_ranged_540_ub: [ 1 x_54_ ^ 2 - 2 x_96_ * x_54_ + 1 x_96_ ^ 2 + 1 y_54_ ^ 2 - 2 y_96_ * y_54_ + 1 y_96_ ^ 2 ] <= 21371.6
quadratic_ranged_541_ub: [ 1 x_69_ ^ 2 - 2 x_96_ * x_69_ + 1 x_96_ ^ 2 + 1 y_69_ ^ 2 - 2 y_96_ * y_69_ + 1 y_96_ ^ 2 ] <= 17397.25
quadratic_ranged_542_ub: [ 1 x_81_ ^ 2 - 2 x_96_ * x_81_ + 1 x_96_ ^ 2 + 1 y_81_ ^ 2 - 2 y_96_ * y_81_ + 1 y_96_ ^ 2 ] <= 11817
quadratic_ranged_543_ub: [ 1 x_85_ ^ 2 - 2 x_96_ * x_85_ + 1 x_96_ ^ 2 + 1 y_85_ ^ 2 - 2 y_96_ * y_85_ + 1 y_96_ ^ 2 ] <= 3864.26
quadratic_ranged_544_ub: [ 1 x_89_ ^ 2 - 2 x_96_ * x_89_ + 1 x_96_ ^ 2 + 1 y_89_ ^ 2 - 2 y_96_ * y_89_ + 1 y_96_ ^ 2 ] <= 19647.53
quadratic_ranged_545_ub: [ 1 x_91_ ^ 2 - 2 x_96_ * x_91_ + 1 x_96_ ^ 2 + 1 y_91_ ^ 2 - 2 y_96_ * y_91_ + 1 y_96_ ^ 2 ] <= 5467.13
quadratic_ranged_546_ub: [ 1 x_95_ ^ 2 - 2 x_96_ * x_95_ + 1 x_96_ ^ 2 + 1 y_95_ ^ 2 - 2 y_96_ * y_95_ + 1 y_96_ ^ 2 ] <= 11417.04
quadratic_ranged_547_ub: [ 1 x_10_ ^ 2 - 2 x_97_ * x_10_ + 1 x_97_ ^ 2 + 1 y_10_ ^ 2 - 2 y_97_ * y_10_ + 1 y_97_ ^ 2 ] <= 9301.09
quadratic_ranged_548_ub: [ 1 x_21_ ^ 2 - 2 x_97_ * x_21_ + 1 x_97_ ^ 2 + 1 y_21_ ^ 2 - 2 y_97_ * y_21_ + 1 y_97_ ^ 2 ] <= 14358.16
quadratic_ranged_549_ub: [ 1 x_30_ ^ 2 - 2 x_97_ * x_30_ + 1 x_97_ ^ 2 + 1 y_30_ ^ 2 - 2 y_97_ * y_30_ + 1 y_97_ ^ 2 ] <= 27169
quadratic_ranged_550_ub: [ 1 x_50_ ^ 2 - 2 x_97_ * x_50_ + 1 x_97_ ^ 2 + 1 y_50_ ^ 2 - 2 y_97_ * y_50_ + 1 y_97_ ^ 2 ] <= 4089.4900000000002
quadratic_ranged_551_ub: [ 1 x_57_ ^ 2 - 2 x_97_ * x_57_ + 1 x_97_ ^ 2 + 1 y_57_ ^ 2 - 2 y_97_ * y_57_ + 1 y_97_ ^ 2 ] <= 5965.06
quadratic_ranged_552_ub: [ 1 x_94_ ^ 2 - 2 x_97_ * x_94_ + 1 x_97_ ^ 2 + 1 y_94_ ^ 2 - 2 y_97_ * y_94_ + 1 y_97_ ^ 2 ] <= 27055.88
quadratic_ranged_553_ub: [ 1 x_96_ ^ 2 - 2 x_97_ * x_96_ + 1 x_97_ ^ 2 + 1 y_96_ ^ 2 - 2 y_97_ * y_96_ + 1 y_97_ ^ 2 ] <= 10813.06
quadratic_ranged_554_ub: [ 1 x_35_ ^ 2 - 2 x_98_ * x_35_ + 1 x_98_ ^ 2 + 1 y_35_ ^ 2 - 2 y_98_ * y_35_ + 1 y_98_ ^ 2 ] <= 6335.7300000000005
quadratic_ranged_555_ub: [ 1 x_42_ ^ 2 - 2 x_98_ * x_42_ + 1 x_98_ ^ 2 + 1 y_42_ ^ 2 - 2 y_98_ * y_42_ + 1 y_98_ ^ 2 ] <= 14382.4
quadratic_ranged_556_ub: [ 1 x_46_ ^ 2 - 2 x_98_ * x_46_ + 1 x_98_ ^ 2 + 1 y_46_ ^ 2 - 2 y_98_ * y_46_ + 1 y_98_ ^ 2 ] <= 2153.32
quadratic_ranged_557_ub: [ 1 x_48_ ^ 2 - 2 x_98_ * x_48_ + 1 x_98_ ^ 2 + 1 y_48_ ^ 2 - 2 y_98_ * y_48_ + 1 y_98_ ^ 2 ] <= 6544.8
quadratic_ranged_558_ub: [ 1 x_52_ ^ 2 - 2 x_98_ * x_52_ + 1 x_98_ ^ 2 + 1 y_52_ ^ 2 - 2 y_98_ * y_52_ + 1 y_98_ ^ 2 ] <= 14023.85
quadratic_ranged_559_ub: [ 1 x_55_ ^ 2 - 2 x_98_ * x_55_ + 1 x_98_ ^ 2 + 1 y_55_ ^ 2 - 2 y_98_ * y_55_ + 1 y_98_ ^ 2 ] <= 3573.38
quadratic_ranged_560_ub: [ 1 x_78_ ^ 2 - 2 x_98_ * x_78_ + 1 x_98_ ^ 2 + 1 y_78_ ^ 2 - 2 y_98_ * y_78_ + 1 y_98_ ^ 2 ] <= 13584.5
quadratic_ranged_561_ub: [ 1 x_93_ ^ 2 - 2 x_98_ * x_93_ + 1 x_98_ ^ 2 + 1 y_93_ ^ 2 - 2 y_98_ * y_93_ + 1 y_98_ ^ 2 ] <= 8889.01
quadratic_ranged_562_ub: [ 1 x_97_ ^ 2 - 2 x_98_ * x_97_ + 1 x_98_ ^ 2 + 1 y_97_ ^ 2 - 2 y_98_ * y_97_ + 1 y_98_ ^ 2 ] <= 11346.34
quadratic_ranged_563_ub: [ 1 x_29_ ^ 2 - 2 x_99_ * x_29_ + 1 x_99_ ^ 2 + 1 y_29_ ^ 2 - 2 y_99_ * y_29_ + 1 y_99_ ^ 2 ] <= 7033.64
quadratic_ranged_564_ub: [ 1 x_36_ ^ 2 - 2 x_99_ * x_36_ + 1 x_99_ ^ 2 + 1 y_36_ ^ 2 - 2 y_99_ * y_36_ + 1 y_99_ ^ 2 ] <= 25590.37
quadratic_ranged_565_ub: [ 1 x_45_ ^ 2 - 2 x_99_ * x_45_ + 1 x_99_ ^ 2 + 1 y_45_ ^ 2 - 2 y_99_ * y_45_ + 1 y_99_ ^ 2 ] <= 19038.5
quadratic_ranged_566_ub: [ 1 x_50_ ^ 2 - 2 x_99_ * x_50_ + 1 x_99_ ^ 2 + 1 y_50_ ^ 2 - 2 y_99_ * y_50_ + 1 y_99_ ^ 2 ] <= 18068.9
quadratic_ranged_567_ub: [ 1 x_61_ ^ 2 - 2 x_99_ * x_61_ + 1 x_99_ ^ 2 + 1 y_61_ ^ 2 - 2 y_99_ * y_61_ + 1 y_99_ ^ 2 ] <= 12978.5
quadratic_ranged_568_ub: [ 1 x_76_ ^ 2 - 2 x_99_ * x_76_ + 1 x_99_ ^ 2 + 1 y_76_ ^ 2 - 2 y_99_ * y_76_ + 1 y_99_ ^ 2 ] <= 25696.420000000002
quadratic_ranged_569_ub: [ 1 x_86_ ^ 2 - 2 x_99_ * x_86_ + 1 x_99_ ^ 2 + 1 y_86_ ^ 2 - 2 y_99_ * y_86_ + 1 y_99_ ^ 2 ] <= 1588.73
quadratic_ranged_570_ub: [ 1 x_94_ ^ 2 - 2 x_99_ * x_94_ + 1 x_99_ ^ 2 + 1 y_94_ ^ 2 - 2 y_99_ * y_94_ + 1 y_99_ ^ 2 ] <= 5491.37
quadratic_ranged_571_ub: [ 1 x_95_ ^ 2 - 2 x_99_ * x_95_ + 1 x_99_ ^ 2 + 1 y_95_ ^ 2 - 2 y_99_ * y_95_ + 1 y_99_ ^ 2 ] <= 26224.65
quadratic_ranged_572_ub: [ 1 x_98_ ^ 2 - 2 x_99_ * x_98_ + 1 x_99_ ^ 2 + 1 y_98_ ^ 2 - 2 y_99_ * y_98_ + 1 y_99_ ^ 2 ] <= 4582.37
quadratic_ranged_573_ub: [ 1 x_1_ ^ 2 - 2 x_100_ * x_1_ + 1 x_100_ ^ 2 + 1 y_1_ ^ 2 - 2 y_100_ * y_1_ + 1 y_100_ ^ 2 ] <= 37.37
quadratic_ranged_574_ub: [ 1 x_4_ ^ 2 - 2 x_100_ * x_4_ + 1 x_100_ ^ 2 + 1 y_4_ ^ 2 - 2 y_100_ * y_4_ + 1 y_100_ ^ 2 ] <= 25190.41
quadratic_ranged_575_ub: [ 1 x_29_ ^ 2 - 2 x_100_ * x_29_ + 1 x_100_ ^ 2 + 1 y_29_ ^ 2 - 2 y_100_ * y_29_ + 1 y_100_ ^ 2 ] <= 24926.8
quadratic_ranged_576_ub: [ 1 x_34_ ^ 2 - 2 x_100_ * x_34_ + 1 x_100_ ^ 2 + 1 y_34_ ^ 2 - 2 y_100_ * y_34_ + 1 y_100_ ^ 2 ] <= 7943.65
quadratic_ranged_577_ub: [ 1 x_38_ ^ 2 - 2 x_100_ * x_38_ + 1 x_100_ ^ 2 + 1 y_38_ ^ 2 - 2 y_100_ * y_38_ + 1 y_100_ ^ 2 ] <= 971.62
quadratic_ranged_578_ub: [ 1 x_59_ ^ 2 - 2 x_100_ * x_59_ + 1 x_100_ ^ 2 + 1 y_59_ ^ 2 - 2 y_100_ * y_59_ + 1 y_100_ ^ 2 ] <= 16662.98
quadratic_ranged_579_ub: [ 1 x_63_ ^ 2 - 2 x_100_ * x_63_ + 1 x_100_ ^ 2 + 1 y_63_ ^ 2 - 2 y_100_ * y_63_ + 1 y_100_ ^ 2 ] <= 3734.98
quadratic_ranged_580_ub: [ 1 x_69_ ^ 2 - 2 x_100_ * x_69_ + 1 x_100_ ^ 2 + 1 y_69_ ^ 2 - 2 y_100_ * y_69_ + 1 y_100_ ^ 2 ] <= 3581.46
quadratic_ranged_581_ub: [ 1 x_76_ ^ 2 - 2 x_100_ * x_76_ + 1 x_100_ ^ 2 + 1 y_76_ ^ 2 - 2 y_100_ * y_76_ + 1 y_100_ ^ 2 ] <= 23870.34
quadratic_ranged_582_ub: [ 1 x_77_ ^ 2 - 2 x_100_ * x_77_ + 1 x_100_ ^ 2 + 1 y_77_ ^ 2 - 2 y_100_ * y_77_ + 1 y_100_ ^ 2 ] <= 14508.65
quadratic_ranged_583_ub: [ 1 x_88_ ^ 2 - 2 x_100_ * x_88_ + 1 x_100_ ^ 2 + 1 y_88_ ^ 2 - 2 y_100_ * y_88_ + 1 y_100_ ^ 2 ] <= 1386.73
quadratic_ranged_584_ub: [ 1 x_91_ ^ 2 - 2 x_100_ * x_91_ + 1 x_100_ ^ 2 + 1 y_91_ ^ 2 - 2 y_100_ * y_91_ + 1 y_100_ ^ 2 ] <= 5837.8
quadratic_ranged_585_ub: [ 1 x_99_ ^ 2 - 2 x_100_ * x_99_ + 1 x_100_ ^ 2 + 1 y_99_ ^ 2 - 2 y_100_ * y_99_ + 1 y_100_ ^ 2 ] <= 6322.6
c1_2: 1 x_83_ >= 0
c2_2: 1 y_83_ >= 0
quadratic_ranged_1_lb: [ 1 x_1_ ^ 2 - 2 x_2_ * x_1_ + 1 x_2_ ^ 2 + 1 y_1_ ^ 2 - 2 y_2_ * y_1_ + 1 y_2_ ^ 2 ] >= 18082.35
quadratic_ranged_2_lb: [ 1 x_2_ ^ 2 - 2 x_3_ * x_2_ + 1 x_3_ ^ 2 + 1 y_2_ ^ 2 - 2 y_3_ * y_2_ + 1 y_3_ ^ 2 ] >= 35214.3
quadratic_ranged_3_lb: [ 1 x_3_ ^ 2 - 2 x_4_ * x_3_ + 1 x_4_ ^ 2 + 1 y_3_ ^ 2 - 2 y_4_ * y_3_ + 1 y_4_ ^ 2 ] >= 41177.07
quadratic_ranged_4_lb: [ 1 x_4_ ^ 2 - 2 x_5_ * x_4_ + 1 x_5_ ^ 2 + 1 y_4_ ^ 2 - 2 y_5_ * y_4_ + 1 y_5_ ^ 2 ] >= 12743.28
quadratic_ranged_5_lb: [ 1 x_4_ ^ 2 - 2 x_6_ * x_4_ + 1 x_6_ ^ 2 + 1 y_4_ ^ 2 - 2 y_6_ * y_4_ + 1 y_6_ ^ 2 ] >= 2610.63
quadratic_ranged_6_lb: [ 1 x_5_ ^ 2 - 2 x_6_ * x_5_ + 1 x_6_ ^ 2 + 1 y_5_ ^ 2 - 2 y_6_ * y_5_ + 1 y_6_ ^ 2 ] >= 6859.71
quadratic_ranged_7_lb: [ 1 x_6_ ^ 2 - 2 x_7_ * x_6_ + 1 x_7_ ^ 2 + 1 y_6_ ^ 2 - 2 y_7_ * y_6_ + 1 y_7_ ^ 2 ] >= 18292.23
quadratic_ranged_8_lb: [ 1 x_7_ ^ 2 - 2 x_8_ * x_7_ + 1 x_8_ ^ 2 + 1 y_7_ ^ 2 - 2 y_8_ * y_7_ + 1 y_8_ ^ 2 ] >= 390.06
quadratic_ranged_9_lb: [ 1 x_8_ ^ 2 - 2 x_9_ * x_8_ + 1 x_9_ ^ 2 + 1 y_8_ ^ 2 - 2 y_9_ * y_8_ + 1 y_9_ ^ 2 ] >= 11317.68
quadratic_ranged_10_lb: [ 1 x_9_ ^ 2 - 2 x_10_ * x_9_ + 1 x_10_ ^ 2 + 1 y_9_ ^ 2 - 2 y_10_ * y_9_ + 1 y_10_ ^ 2 ] >= 6511.23
quadratic_ranged_11_lb: [ 1 x_4_ ^ 2 - 2 x_11_ * x_4_ + 1 x_11_ ^ 2 + 1 y_4_ ^ 2 - 2 y_11_ * y_4_ + 1 y_11_ ^ 2 ] >= 14360.94
quadratic_ranged_12_lb: [ 1 x_10_ ^ 2 - 2 x_11_ * x_10_ + 1 x_11_ ^ 2 + 1 y_10_ ^ 2 - 2 y_11_ * y_10_ + 1 y_11_ ^ 2 ] >= 16478.55
quadratic_ranged_13_lb: [ 1 x_8_ ^ 2 - 2 x_12_ * x_8_ + 1 x_12_ ^ 2 + 1 y_8_ ^ 2 - 2 y_12_ * y_8_ + 1 y_12_ ^ 2 ] >= 32781.87
quadratic_ranged_14_lb: [ 1 x_11_ ^ 2 - 2 x_12_ * x_11_ + 1 x_12_ ^ 2 + 1 y_11_ ^ 2 - 2 y_12_ * y_11_ + 1 y_12_ ^ 2 ] >= 18933.75
quadratic_ranged_15_lb: [ 1 x_2_ ^ 2 - 2 x_13_ * x_2_ + 1 x_13_ ^ 2 + 1 y_2_ ^ 2 - 2 y_13_ * y_2_ + 1 y_13_ ^ 2 ] >= 16114.23
quadratic_ranged_16_lb: [ 1 x_11_ ^ 2 - 2 x_13_ * x_11_ + 1 x_13_ ^ 2 + 1 y_11_ ^ 2 - 2 y_13_ * y_11_ + 1 y_13_ ^ 2 ] >= 15992.46
quadratic_ranged_17_lb: [ 1 x_12_ ^ 2 - 2 x_13_ * x_12_ + 1 x_13_ ^ 2 + 1 y_12_ ^ 2 - 2 y_13_ * y_12_ + 1 y_13_ ^ 2 ] >= 1145.43
quadratic_ranged_18_lb: [ 1 x_4_ ^ 2 - 2 x_14_ * x_4_ + 1 x_14_ ^ 2 + 1 y_4_ ^ 2 - 2 y_14_ * y_4_ + 1 y_14_ ^ 2 ] >= 13117.5
quadratic_ranged_19_lb: [ 1 x_8_ ^ 2 - 2 x_14_ * x_8_ + 1 x_14_ ^ 2 + 1 y_8_ ^ 2 - 2 y_14_ * y_8_ + 1 y_14_ ^ 2 ] >= 4286.7
quadratic_ranged_20_lb: [ 1 x_9_ ^ 2 - 2 x_14_ * x_9_ + 1 x_14_ ^ 2 + 1 y_9_ ^ 2 - 2 y_14_ * y_9_ + 1 y_14_ ^ 2 ] >= 3399.66
quadratic_ranged_21_lb: [ 1 x_13_ ^ 2 - 2 x_14_ * x_13_ + 1 x_14_ ^ 2 + 1 y_13_ ^ 2 - 2 y_14_ * y_13_ + 1 y_14_ ^ 2 ] >= 10860.3
quadratic_ranged_22_lb: [ 1 x_11_ ^ 2 - 2 x_15_ * x_11_ + 1 x_15_ ^ 2 + 1 y_11_ ^ 2 - 2 y_15_ * y_11_ + 1 y_15_ ^ 2 ] >= 28160.55
quadratic_ranged_23_lb: [ 1 x_14_ ^ 2 - 2 x_15_ * x_14_ + 1 x_15_ ^ 2 + 1 y_14_ ^ 2 - 2 y_15_ * y_14_ + 1 y_15_ ^ 2 ] >= 23190.75
quadratic_ranged_24_lb: [ 1 x_7_ ^ 2 - 2 x_16_ * x_7_ + 1 x_16_ ^ 2 + 1 y_7_ ^ 2 - 2 y_16_ * y_7_ + 1 y_16_ ^ 2 ] >= 1866.15
quadratic_ranged_25_lb: [ 1 x_15_ ^ 2 - 2 x_16_ * x_15_ + 1 x_16_ ^ 2 + 1 y_15_ ^ 2 - 2 y_16_ * y_15_ + 1 y_16_ ^ 2 ] >= 16208.28
quadratic_ranged_26_lb: [ 1 x_15_ ^ 2 - 2 x_17_ * x_15_ + 1 x_17_ ^ 2 + 1 y_15_ ^ 2 - 2 y_17_ * y_15_ + 1 y_17_ ^ 2 ] >= 21750.3
quadratic_ranged_27_lb: [ 1 x_16_ ^ 2 - 2 x_17_ * x_16_ + 1 x_17_ ^ 2 + 1 y_16_ ^ 2 - 2 y_17_ * y_16_ + 1 y_17_ ^ 2 ] >= 524.7
quadratic_ranged_28_lb: [ 1 x_6_ ^ 2 - 2 x_18_ * x_6_ + 1 x_18_ ^ 2 + 1 y_6_ ^ 2 - 2 y_18_ * y_6_ + 1 y_18_ ^ 2 ] >= 17919
quadratic_ranged_29_lb: [ 1 x_8_ ^ 2 - 2 x_18_ * x_8_ + 1 x_18_ ^ 2 + 1 y_8_ ^ 2 - 2 y_18_ * y_8_ + 1 y_18_ ^ 2 ] >= 5766.75
quadratic_ranged_30_lb: [ 1 x_17_ ^ 2 - 2 x_18_ * x_17_ + 1 x_18_ ^ 2 + 1 y_17_ ^ 2 - 2 y_18_ * y_17_ + 1 y_18_ ^ 2 ] >= 9917.82
quadratic_ranged_31_lb: [ 1 x_18_ ^ 2 - 2 x_19_ * x_18_ + 1 x_19_ ^ 2 + 1 y_18_ ^ 2 - 2 y_19_ * y_18_ + 1 y_19_ ^ 2 ] >= 32156.19
quadratic_ranged_32_lb: [ 1 x_8_ ^ 2 - 2 x_20_ * x_8_ + 1 x_20_ ^ 2 + 1 y_8_ ^ 2 - 2 y_20_ * y_8_ + 1 y_20_ ^ 2 ] >= 12561.119999999999
quadratic_ranged_33_lb: [ 1 x_13_ ^ 2 - 2 x_20_ * x_13_ + 1 x_20_ ^ 2 + 1 y_13_ ^ 2 - 2 y_20_ * y_13_ + 1 y_20_ ^ 2 ] >= 6767.64
quadratic_ranged_34_lb: [ 1 x_19_ ^ 2 - 2 x_20_ * x_19_ + 1 x_20_ ^ 2 + 1 y_19_ ^ 2 - 2 y_20_ * y_19_ + 1 y_20_ ^ 2 ] >= 8563.5
quadratic_ranged_35_lb: [ 1 x_20_ ^ 2 - 2 x_21_ * x_20_ + 1 x_21_ ^ 2 + 1 y_20_ ^ 2 - 2 y_21_ * y_20_ + 1 y_21_ ^ 2 ] >= 2930.4
quadratic_ranged_36_lb: [ 1 x_17_ ^ 2 - 2 x_22_ * x_17_ + 1 x_22_ ^ 2 + 1 y_17_ ^ 2 - 2 y_22_ * y_17_ + 1 y_22_ ^ 2 ] >= 24.75
quadratic_ranged_37_lb: [ 1 x_21_ ^ 2 - 2 x_22_ * x_21_ + 1 x_22_ ^ 2 + 1 y_21_ ^ 2 - 2 y_22_ * y_21_ + 1 y_22_ ^ 2 ] >= 1197.9
quadratic_ranged_38_lb: [ 1 x_2_ ^ 2 - 2 x_23_ * x_2_ + 1 x_23_ ^ 2 + 1 y_2_ ^ 2 - 2 y_23_ * y_2_ + 1 y_23_ ^ 2 ] >= 5541.03
quadratic_ranged_39_lb: [ 1 x_13_ ^ 2 - 2 x_23_ * x_13_ + 1 x_23_ ^ 2 + 1 y_13_ ^ 2 - 2 y_23_ * y_13_ + 1 y_23_ ^ 2 ] >= 4577.76
quadratic_ranged_40_lb: [ 1 x_22_ ^ 2 - 2 x_23_ * x_22_ + 1 x_23_ ^ 2 + 1 y_22_ ^ 2 - 2 y_23_ * y_22_ + 1 y_23_ ^ 2 ] >= 2401.74
quadratic_ranged_41_lb: [ 1 x_4_ ^ 2 - 2 x_24_ * x_4_ + 1 x_24_ ^ 2 + 1 y_4_ ^ 2 - 2 y_24_ * y_4_ + 1 y_24_ ^ 2 ] >= 17043.84
quadratic_ranged_42_lb: [ 1 x_11_ ^ 2 - 2 x_24_ * x_11_ + 1 x_24_ ^ 2 + 1 y_11_ ^ 2 - 2 y_24_ * y_11_ + 1 y_24_ ^ 2 ] >= 437.58
quadratic_ranged_43_lb: [ 1 x_23_ ^ 2 - 2 x_24_ * x_23_ + 1 x_24_ ^ 2 + 1 y_23_ ^ 2 - 2 y_24_ * y_23_ + 1 y_24_ ^ 2 ] >= 7385.4
quadratic_ranged_44_lb: [ 1 x_13_ ^ 2 - 2 x_25_ * x_13_ + 1 x_25_ ^ 2 + 1 y_13_ ^ 2 - 2 y_25_ * y_13_ + 1 y_25_ ^ 2 ] >= 41789.88
quadratic_ranged_45_lb: [ 1 x_17_ ^ 2 - 2 x_25_ * x_17_ + 1 x_25_ ^ 2 + 1 y_17_ ^ 2 - 2 y_25_ * y_17_ + 1 y_25_ ^ 2 ] >= 10681.11
quadratic_ranged_46_lb: [ 1 x_24_ ^ 2 - 2 x_25_ * x_24_ + 1 x_25_ ^ 2 + 1 y_24_ ^ 2 - 2 y_25_ * y_24_ + 1 y_25_ ^ 2 ] >= 12481.92
quadratic_ranged_47_lb: [ 1 x_3_ ^ 2 - 2 x_26_ * x_3_ + 1 x_26_ ^ 2 + 1 y_3_ ^ 2 - 2 y_26_ * y_3_ + 1 y_26_ ^ 2 ] >= 40559.31
quadratic_ranged_48_lb: [ 1 x_6_ ^ 2 - 2 x_26_ * x_6_ + 1 x_26_ ^ 2 + 1 y_6_ ^ 2 - 2 y_26_ * y_6_ + 1 y_26_ ^ 2 ] >= 3945.15
quadratic_ranged_49_lb: [ 1 x_25_ ^ 2 - 2 x_26_ * x_25_ + 1 x_26_ ^ 2 + 1 y_25_ ^ 2 - 2 y_26_ * y_25_ + 1 y_26_ ^ 2 ] >= 6039
quadratic_ranged_50_lb: [ 1 x_9_ ^ 2 - 2 x_27_ * x_9_ + 1 x_27_ ^ 2 + 1 y_9_ ^ 2 - 2 y_27_ * y_9_ + 1 y_27_ ^ 2 ] >= 6574.59
quadratic_ranged_51_lb: [ 1 x_25_ ^ 2 - 2 x_27_ * x_25_ + 1 x_27_ ^ 2 + 1 y_25_ ^ 2 - 2 y_27_ * y_25_ + 1 y_27_ ^ 2 ] >= 7152.75
quadratic_ranged_52_lb: [ 1 x_26_ ^ 2 - 2 x_27_ * x_26_ + 1 x_27_ ^ 2 + 1 y_26_ ^ 2 - 2 y_27_ * y_26_ + 1 y_27_ ^ 2 ] >= 88.11
quadratic_ranged_53_lb: [ 1 x_5_ ^ 2 - 2 x_28_ * x_5_ + 1 x_28_ ^ 2 + 1 y_5_ ^ 2 - 2 y_28_ * y_5_ + 1 y_28_ ^ 2 ] >= 22344.3
quadratic_ranged_54_lb: [ 1 x_23_ ^ 2 - 2 x_28_ * x_23_ + 1 x_28_ ^ 2 + 1 y_23_ ^ 2 - 2 y_28_ * y_23_ + 1 y_28_ ^ 2 ] >= 7842.78
quadratic_ranged_55_lb: [ 1 x_27_ ^ 2 - 2 x_28_ * x_27_ + 1 x_28_ ^ 2 + 1 y_27_ ^ 2 - 2 y_28_ * y_27_ + 1 y_28_ ^ 2 ] >= 7188.39
quadratic_ranged_56_lb: [ 1 x_12_ ^ 2 - 2 x_29_ * x_12_ + 1 x_29_ ^ 2 + 1 y_12_ ^ 2 - 2 y_29_ * y_12_ + 1 y_29_ ^ 2 ] >= 9032.76
quadratic_ranged_57_lb: [ 1 x_13_ ^ 2 - 2 x_29_ * x_13_ + 1 x_29_ ^ 2 + 1 y_13_ ^ 2 - 2 y_29_ * y_13_ + 1 y_29_ ^ 2 ] >= 4182.75
quadratic_ranged_58_lb: [ 1 x_16_ ^ 2 - 2 x_29_ * x_16_ + 1 x_29_ ^ 2 + 1 y_16_ ^ 2 - 2 y_29_ * y_16_ + 1 y_29_ ^ 2 ] >= 17265.6
quadratic_ranged_59_lb: [ 1 x_17_ ^ 2 - 2 x_29_ * x_17_ + 1 x_29_ ^ 2 + 1 y_17_ ^ 2 - 2 y_29_ * y_17_ + 1 y_29_ ^ 2 ] >= 21037.5
quadratic_ranged_60_lb: [ 1 x_20_ ^ 2 - 2 x_29_ * x_20_ + 1 x_29_ ^ 2 + 1 y_20_ ^ 2 - 2 y_29_ * y_20_ + 1 y_29_ ^ 2 ] >= 6063.75
quadratic_ranged_61_lb: [ 1 x_23_ ^ 2 - 2 x_29_ * x_23_ + 1 x_29_ ^ 2 + 1 y_23_ ^ 2 - 2 y_29_ * y_23_ + 1 y_29_ ^ 2 ] >= 9132.75
quadratic_ranged_62_lb: [ 1 x_28_ ^ 2 - 2 x_29_ * x_28_ + 1 x_29_ ^ 2 + 1 y_28_ ^ 2 - 2 y_29_ * y_28_ + 1 y_29_ ^ 2 ] >= 29574.27
quadratic_ranged_63_lb: [ 1 x_5_ ^ 2 - 2 x_30_ * x_5_ + 1 x_30_ ^ 2 + 1 y_5_ ^ 2 - 2 y_30_ * y_5_ + 1 y_30_ ^ 2 ] >= 22671
quadratic_ranged_64_lb: [ 1 x_6_ ^ 2 - 2 x_30_ * x_6_ + 1 x_30_ ^ 2 + 1 y_6_ ^ 2 - 2 y_30_ * y_6_ + 1 y_30_ ^ 2 ] >= 11797.83
quadratic_ranged_65_lb: [ 1 x_9_ ^ 2 - 2 x_30_ * x_9_ + 1 x_30_ ^ 2 + 1 y_9_ ^ 2 - 2 y_30_ * y_9_ + 1 y_30_ ^ 2 ] >= 10553.4
quadratic_ranged_66_lb: [ 1 x_14_ ^ 2 - 2 x_30_ * x_14_ + 1 x_30_ ^ 2 + 1 y_14_ ^ 2 - 2 y_30_ * y_14_ + 1 y_30_ ^ 2 ] >= 9751.5
quadratic_ranged_67_lb: [ 1 x_29_ ^ 2 - 2 x_30_ * x_29_ + 1 x_30_ ^ 2 + 1 y_29_ ^ 2 - 2 y_30_ * y_29_ + 1 y_30_ ^ 2 ] >= 27966.51
quadratic_ranged_68_lb: [ 1 x_16_ ^ 2 - 2 x_31_ * x_16_ + 1 x_31_ ^ 2 + 1 y_16_ ^ 2 - 2 y_31_ * y_16_ + 1 y_31_ ^ 2 ] >= 12977.91
quadratic_ranged_69_lb: [ 1 x_23_ ^ 2 - 2 x_31_ * x_23_ + 1 x_31_ ^ 2 + 1 y_23_ ^ 2 - 2 y_31_ * y_23_ + 1 y_31_ ^ 2 ] >= 10078.2
quadratic_ranged_70_lb: [ 1 x_30_ ^ 2 - 2 x_31_ * x_30_ + 1 x_31_ ^ 2 + 1 y_30_ ^ 2 - 2 y_31_ * y_30_ + 1 y_31_ ^ 2 ] >= 16255.8
quadratic_ranged_71_lb: [ 1 x_11_ ^ 2 - 2 x_32_ * x_11_ + 1 x_32_ ^ 2 + 1 y_11_ ^ 2 - 2 y_32_ * y_11_ + 1 y_32_ ^ 2 ] >= 34298.55
quadratic_ranged_72_lb: [ 1 x_25_ ^ 2 - 2 x_32_ * x_25_ + 1 x_32_ ^ 2 + 1 y_25_ ^ 2 - 2 y_32_ * y_25_ + 1 y_32_ ^ 2 ] >= 32841.27
quadratic_ranged_73_lb: [ 1 x_31_ ^ 2 - 2 x_32_ * x_31_ + 1 x_32_ ^ 2 + 1 y_31_ ^ 2 - 2 y_32_ * y_31_ + 1 y_32_ ^ 2 ] >= 927.63
quadratic_ranged_74_lb: [ 1 x_6_ ^ 2 - 2 x_33_ * x_6_ + 1 x_33_ ^ 2 + 1 y_6_ ^ 2 - 2 y_33_ * y_6_ + 1 y_33_ ^ 2 ] >= 25379.64
quadratic_ranged_75_lb: [ 1 x_7_ ^ 2 - 2 x_33_ * x_7_ + 1 x_33_ ^ 2 + 1 y_7_ ^ 2 - 2 y_33_ * y_7_ + 1 y_33_ ^ 2 ] >= 42495.75
quadratic_ranged_76_lb: [ 1 x_16_ ^ 2 - 2 x_33_ * x_16_ + 1 x_33_ ^ 2 + 1 y_16_ ^ 2 - 2 y_33_ * y_16_ + 1 y_33_ ^ 2 ] >= 27070.56
quadratic_ranged_77_lb: [ 1 x_19_ ^ 2 - 2 x_33_ * x_19_ + 1 x_33_ ^ 2 + 1 y_19_ ^ 2 - 2 y_33_ * y_19_ + 1 y_33_ ^ 2 ] >= 23273.91
quadratic_ranged_78_lb: [ 1 x_32_ ^ 2 - 2 x_33_ * x_32_ + 1 x_33_ ^ 2 + 1 y_32_ ^ 2 - 2 y_33_ * y_32_ + 1 y_33_ ^ 2 ] >= 24569.82
quadratic_ranged_79_lb: [ 1 x_7_ ^ 2 - 2 x_34_ * x_7_ + 1 x_34_ ^ 2 + 1 y_7_ ^ 2 - 2 y_34_ * y_7_ + 1 y_34_ ^ 2 ] >= 23542.2
quadratic_ranged_80_lb: [ 1 x_26_ ^ 2 - 2 x_34_ * x_26_ + 1 x_34_ ^ 2 + 1 y_26_ ^ 2 - 2 y_34_ * y_26_ + 1 y_34_ ^ 2 ] >= 21694.86
quadratic_ranged_81_lb: [ 1 x_28_ ^ 2 - 2 x_34_ * x_28_ + 1 x_34_ ^ 2 + 1 y_28_ ^ 2 - 2 y_34_ * y_28_ + 1 y_34_ ^ 2 ] >= 23383.8
quadratic_ranged_82_lb: [ 1 x_29_ ^ 2 - 2 x_34_ * x_29_ + 1 x_34_ ^ 2 + 1 y_29_ ^ 2 - 2 y_34_ * y_29_ + 1 y_34_ ^ 2 ] >= 7085.43
quadratic_ranged_83_lb: [ 1 x_33_ ^ 2 - 2 x_34_ * x_33_ + 1 x_34_ ^ 2 + 1 y_33_ ^ 2 - 2 y_34_ * y_33_ + 1 y_34_ ^ 2 ] >= 3054.15
quadratic_ranged_84_lb: [ 1 x_7_ ^ 2 - 2 x_35_ * x_7_ + 1 x_35_ ^ 2 + 1 y_7_ ^ 2 - 2 y_35_ * y_7_ + 1 y_35_ ^ 2 ] >= 8063.55
quadratic_ranged_85_lb: [ 1 x_14_ ^ 2 - 2 x_35_ * x_14_ + 1 x_35_ ^ 2 + 1 y_14_ ^ 2 - 2 y_35_ * y_14_ + 1 y_35_ ^ 2 ] >= 1406.79
quadratic_ranged_86_lb: [ 1 x_32_ ^ 2 - 2 x_35_ * x_32_ + 1 x_35_ ^ 2 + 1 y_32_ ^ 2 - 2 y_35_ * y_32_ + 1 y_35_ ^ 2 ] >= 41629.5
quadratic_ranged_87_lb: [ 1 x_34_ ^ 2 - 2 x_35_ * x_34_ + 1 x_35_ ^ 2 + 1 y_34_ ^ 2 - 2 y_35_ * y_34_ + 1 y_35_ ^ 2 ] >= 10708.83
quadratic_ranged_88_lb: [ 1 x_16_ ^ 2 - 2 x_36_ * x_16_ + 1 x_36_ ^ 2 + 1 y_16_ ^ 2 - 2 y_36_ * y_16_ + 1 y_36_ ^ 2 ] >= 7473.51
quadratic_ranged_89_lb: [ 1 x_17_ ^ 2 - 2 x_36_ * x_17_ + 1 x_36_ ^ 2 + 1 y_17_ ^ 2 - 2 y_36_ * y_17_ + 1 y_36_ ^ 2 ] >= 11659.23
quadratic_ranged_90_lb: [ 1 x_20_ ^ 2 - 2 x_36_ * x_20_ + 1 x_36_ ^ 2 + 1 y_20_ ^ 2 - 2 y_36_ * y_20_ + 1 y_36_ ^ 2 ] >= 6924.0599999999995
quadratic_ranged_91_lb: [ 1 x_23_ ^ 2 - 2 x_36_ * x_23_ + 1 x_36_ ^ 2 + 1 y_23_ ^ 2 - 2 y_36_ * y_23_ + 1 y_36_ ^ 2 ] >= 13077.9
quadratic_ranged_92_lb: [ 1 x_31_ ^ 2 - 2 x_36_ * x_31_ + 1 x_36_ ^ 2 + 1 y_31_ ^ 2 - 2 y_36_ * y_31_ + 1 y_36_ ^ 2 ] >= 8365.5
quadratic_ranged_93_lb: [ 1 x_35_ ^ 2 - 2 x_36_ * x_35_ + 1 x_36_ ^ 2 + 1 y_35_ ^ 2 - 2 y_36_ * y_35_ + 1 y_36_ ^ 2 ] >= 26944.829999999998
quadratic_ranged_94_lb: [ 1 x_7_ ^ 2 - 2 x_37_ * x_7_ + 1 x_37_ ^ 2 + 1 y_7_ ^ 2 - 2 y_37_ * y_7_ + 1 y_37_ ^ 2 ] >= 25546.95
quadratic_ranged_95_lb: [ 1 x_15_ ^ 2 - 2 x_37_ * x_15_ + 1 x_37_ ^ 2 + 1 y_15_ ^ 2 - 2 y_37_ * y_15_ + 1 y_37_ ^ 2 ] >= 5132.16
quadratic_ranged_96_lb: [ 1 x_28_ ^ 2 - 2 x_37_ * x_28_ + 1 x_37_ ^ 2 + 1 y_28_ ^ 2 - 2 y_37_ * y_28_ + 1 y_37_ ^ 2 ] >= 25044.03
quadratic_ranged_97_lb: [ 1 x_31_ ^ 2 - 2 x_37_ * x_31_ + 1 x_37_ ^ 2 + 1 y_31_ ^ 2 - 2 y_37_ * y_31_ + 1 y_37_ ^ 2 ] >= 4745.07
quadratic_ranged_98_lb: [ 1 x_32_ ^ 2 - 2 x_37_ * x_32_ + 1 x_37_ ^ 2 + 1 y_32_ ^ 2 - 2 y_37_ * y_32_ + 1 y_37_ ^ 2 ] >= 7613.1
quadratic_ranged_99_lb: [ 1 x_36_ ^ 2 - 2 x_37_ * x_36_ + 1 x_37_ ^ 2 + 1 y_36_ ^ 2 - 2 y_37_ * y_36_ + 1 y_37_ ^ 2 ] >= 20010.87
quadratic_ranged_100_lb: [ 1 x_11_ ^ 2 - 2 x_38_ * x_11_ + 1 x_38_ ^ 2 + 1 y_11_ ^ 2 - 2 y_38_ * y_11_ + 1 y_38_ ^ 2 ] >= 5275.71
quadratic_ranged_101_lb: [ 1 x_35_ ^ 2 - 2 x_38_ * x_35_ + 1 x_38_ ^ 2 + 1 y_35_ ^ 2 - 2 y_38_ * y_35_ + 1 y_38_ ^ 2 ] >= 2267.1
quadratic_ranged_102_lb: [ 1 x_37_ ^ 2 - 2 x_38_ * x_37_ + 1 x_38_ ^ 2 + 1 y_37_ ^ 2 - 2 y_38_ * y_37_ + 1 y_38_ ^ 2 ] >= 11937.42
quadratic_ranged_103_lb: [ 1 x_8_ ^ 2 - 2 x_39_ * x_8_ + 1 x_39_ ^ 2 + 1 y_8_ ^ 2 - 2 y_39_ * y_8_ + 1 y_39_ ^ 2 ] >= 3663
quadratic_ranged_104_lb: [ 1 x_25_ ^ 2 - 2 x_39_ * x_25_ + 1 x_39_ ^ 2 + 1 y_25_ ^ 2 - 2 y_39_ * y_25_ + 1 y_39_ ^ 2 ] >= 13800.6
quadratic_ranged_105_lb: [ 1 x_27_ ^ 2 - 2 x_39_ * x_27_ + 1 x_39_ ^ 2 + 1 y_27_ ^ 2 - 2 y_39_ * y_27_ + 1 y_39_ ^ 2 ] >= 9576.27
quadratic_ranged_106_lb: [ 1 x_28_ ^ 2 - 2 x_39_ * x_28_ + 1 x_39_ ^ 2 + 1 y_28_ ^ 2 - 2 y_39_ * y_28_ + 1 y_39_ ^ 2 ] >= 3185.82
quadratic_ranged_107_lb: [ 1 x_37_ ^ 2 - 2 x_39_ * x_37_ + 1 x_39_ ^ 2 + 1 y_37_ ^ 2 - 2 y_39_ * y_37_ + 1 y_39_ ^ 2 ] >= 14161.95
quadratic_ranged_108_lb: [ 1 x_38_ ^ 2 - 2 x_39_ * x_38_ + 1 x_39_ ^ 2 + 1 y_38_ ^ 2 - 2 y_39_ * y_38_ + 1 y_39_ ^ 2 ] >= 4008.5099999999998
quadratic_ranged_109_lb: [ 1 x_11_ ^ 2 - 2 x_40_ * x_11_ + 1 x_40_ ^ 2 + 1 y_11_ ^ 2 - 2 y_40_ * y_11_ + 1 y_40_ ^ 2 ] >= 6345.9
quadratic_ranged_110_lb: [ 1 x_17_ ^ 2 - 2 x_40_ * x_17_ + 1 x_40_ ^ 2 + 1 y_17_ ^ 2 - 2 y_40_ * y_17_ + 1 y_40_ ^ 2 ] >= 3683.79
quadratic_ranged_111_lb: [ 1 x_22_ ^ 2 - 2 x_40_ * x_22_ + 1 x_40_ ^ 2 + 1 y_22_ ^ 2 - 2 y_40_ * y_22_ + 1 y_40_ ^ 2 ] >= 4191.66
quadratic_ranged_112_lb: [ 1 x_33_ ^ 2 - 2 x_40_ * x_33_ + 1 x_40_ ^ 2 + 1 y_33_ ^ 2 - 2 y_40_ * y_33_ + 1 y_40_ ^ 2 ] >= 39905.909999999996
quadratic_ranged_113_lb: [ 1 x_34_ ^ 2 - 2 x_40_ * x_34_ + 1 x_40_ ^ 2 + 1 y_34_ ^ 2 - 2 y_40_ * y_34_ + 1 y_40_ ^ 2 ] >= 23255.1
quadratic_ranged_114_lb: [ 1 x_39_ ^ 2 - 2 x_40_ * x_39_ + 1 x_40_ ^ 2 + 1 y_39_ ^ 2 - 2 y_40_ * y_39_ + 1 y_40_ ^ 2 ] >= 5231.16
quadratic_ranged_115_lb: [ 1 x_2_ ^ 2 - 2 x_41_ * x_2_ + 1 x_41_ ^ 2 + 1 y_2_ ^ 2 - 2 y_41_ * y_2_ + 1 y_41_ ^ 2 ] >= 1465.2
quadratic_ranged_116_lb: [ 1 x_7_ ^ 2 - 2 x_41_ * x_7_ + 1 x_41_ ^ 2 + 1 y_7_ ^ 2 - 2 y_41_ * y_7_ + 1 y_41_ ^ 2 ] >= 13488.75
quadratic_ranged_117_lb: [ 1 x_23_ ^ 2 - 2 x_41_ * x_23_ + 1 x_41_ ^ 2 + 1 y_23_ ^ 2 - 2 y_41_ * y_23_ + 1 y_41_ ^ 2 ] >= 8903.07
quadratic_ranged_118_lb: [ 1 x_40_ ^ 2 - 2 x_41_ * x_40_ + 1 x_41_ ^ 2 + 1 y_40_ ^ 2 - 2 y_41_ * y_40_ + 1 y_41_ ^ 2 ] >= 6047.91
quadratic_ranged_119_lb: [ 1 x_16_ ^ 2 - 2 x_42_ * x_16_ + 1 x_42_ ^ 2 + 1 y_16_ ^ 2 - 2 y_42_ * y_16_ + 1 y_42_ ^ 2 ] >= 17302.23
quadratic_ranged_120_lb: [ 1 x_21_ ^ 2 - 2 x_42_ * x_21_ + 1 x_42_ ^ 2 + 1 y_21_ ^ 2 - 2 y_42_ * y_21_ + 1 y_42_ ^ 2 ] >= 19461.42
quadratic_ranged_121_lb: [ 1 x_31_ ^ 2 - 2 x_42_ * x_31_ + 1 x_42_ ^ 2 + 1 y_31_ ^ 2 - 2 y_42_ * y_31_ + 1 y_42_ ^ 2 ] >= 841.5
quadratic_ranged_122_lb: [ 1 x_35_ ^ 2 - 2 x_42_ * x_35_ + 1 x_42_ ^ 2 + 1 y_35_ ^ 2 - 2 y_42_ * y_35_ + 1 y_42_ ^ 2 ] >= 39006.99
quadratic_ranged_123_lb: [ 1 x_41_ ^ 2 - 2 x_42_ * x_41_ + 1 x_42_ ^ 2 + 1 y_41_ ^ 2 - 2 y_42_ * y_41_ + 1 y_42_ ^ 2 ] >= 2139.39
quadratic_ranged_124_lb: [ 1 x_5_ ^ 2 - 2 x_43_ * x_5_ + 1 x_43_ ^ 2 + 1 y_5_ ^ 2 - 2 y_43_ * y_5_ + 1 y_43_ ^ 2 ] >= 384.12
quadratic_ranged_125_lb: [ 1 x_20_ ^ 2 - 2 x_43_ * x_20_ + 1 x_43_ ^ 2 + 1 y_20_ ^ 2 - 2 y_43_ * y_20_ + 1 y_43_ ^ 2 ] >= 1540.44
quadratic_ranged_126_lb: [ 1 x_21_ ^ 2 - 2 x_43_ * x_21_ + 1 x_43_ ^ 2 + 1 y_21_ ^ 2 - 2 y_43_ * y_21_ + 1 y_43_ ^ 2 ] >= 4882.68
quadratic_ranged_127_lb: [ 1 x_25_ ^ 2 - 2 x_43_ * x_25_ + 1 x_43_ ^ 2 + 1 y_25_ ^ 2 - 2 y_43_ * y_25_ + 1 y_43_ ^ 2 ] >= 27850.68
quadratic_ranged_128_lb: [ 1 x_26_ ^ 2 - 2 x_43_ * x_26_ + 1 x_43_ ^ 2 + 1 y_26_ ^ 2 - 2 y_43_ * y_26_ + 1 y_43_ ^ 2 ] >= 9155.52
quadratic_ranged_129_lb: [ 1 x_33_ ^ 2 - 2 x_43_ * x_33_ + 1 x_43_ ^ 2 + 1 y_33_ ^ 2 - 2 y_43_ * y_33_ + 1 y_43_ ^ 2 ] >= 8598.15
quadratic_ranged_130_lb: [ 1 x_42_ ^ 2 - 2 x_43_ * x_42_ + 1 x_43_ ^ 2 + 1 y_42_ ^ 2 - 2 y_43_ * y_42_ + 1 y_43_ ^ 2 ] >= 8127.9
quadratic_ranged_131_lb: [ 1 x_3_ ^ 2 - 2 x_44_ * x_3_ + 1 x_44_ ^ 2 + 1 y_3_ ^ 2 - 2 y_44_ * y_3_ + 1 y_44_ ^ 2 ] >= 12483.9
quadratic_ranged_132_lb: [ 1 x_4_ ^ 2 - 2 x_44_ * x_4_ + 1 x_44_ ^ 2 + 1 y_4_ ^ 2 - 2 y_44_ * y_4_ + 1 y_44_ ^ 2 ] >= 10550.43
quadratic_ranged_133_lb: [ 1 x_17_ ^ 2 - 2 x_44_ * x_17_ + 1 x_44_ ^ 2 + 1 y_17_ ^ 2 - 2 y_44_ * y_17_ + 1 y_44_ ^ 2 ] >= 16491.42
quadratic_ranged_134_lb: [ 1 x_24_ ^ 2 - 2 x_44_ * x_24_ + 1 x_44_ ^ 2 + 1 y_24_ ^ 2 - 2 y_44_ * y_24_ + 1 y_44_ ^ 2 ] >= 27245.79
quadratic_ranged_135_lb: [ 1 x_25_ ^ 2 - 2 x_44_ * x_25_ + 1 x_44_ ^ 2 + 1 y_25_ ^ 2 - 2 y_44_ * y_25_ + 1 y_44_ ^ 2 ] >= 33407.55
quadratic_ranged_136_lb: [ 1 x_27_ ^ 2 - 2 x_44_ * x_27_ + 1 x_44_ ^ 2 + 1 y_27_ ^ 2 - 2 y_44_ * y_27_ + 1 y_44_ ^ 2 ] >= 10598.94
quadratic_ranged_137_lb: [ 1 x_43_ ^ 2 - 2 x_44_ * x_43_ + 1 x_44_ ^ 2 + 1 y_43_ ^ 2 - 2 y_44_ * y_43_ + 1 y_44_ ^ 2 ] >= 812.79
quadratic_ranged_138_lb: [ 1 x_3_ ^ 2 - 2 x_45_ * x_3_ + 1 x_45_ ^ 2 + 1 y_3_ ^ 2 - 2 y_45_ * y_3_ + 1 y_45_ ^ 2 ] >= 26662.68
quadratic_ranged_139_lb: [ 1 x_30_ ^ 2 - 2 x_45_ * x_30_ + 1 x_45_ ^ 2 + 1 y_30_ ^ 2 - 2 y_45_ * y_30_ + 1 y_45_ ^ 2 ] >= 25352.91
quadratic_ranged_140_lb: [ 1 x_32_ ^ 2 - 2 x_45_ * x_32_ + 1 x_45_ ^ 2 + 1 y_32_ ^ 2 - 2 y_45_ * y_32_ + 1 y_45_ ^ 2 ] >= 162.35999999999999
quadratic_ranged_141_lb: [ 1 x_35_ ^ 2 - 2 x_45_ * x_35_ + 1 x_45_ ^ 2 + 1 y_35_ ^ 2 - 2 y_45_ * y_35_ + 1 y_45_ ^ 2 ] >= 41217.659999999996
quadratic_ranged_142_lb: [ 1 x_44_ ^ 2 - 2 x_45_ * x_44_ + 1 x_45_ ^ 2 + 1 y_44_ ^ 2 - 2 y_45_ * y_44_ + 1 y_45_ ^ 2 ] >= 3431.34
quadratic_ranged_143_lb: [ 1 x_14_ ^ 2 - 2 x_46_ * x_14_ + 1 x_46_ ^ 2 + 1 y_14_ ^ 2 - 2 y_46_ * y_14_ + 1 y_46_ ^ 2 ] >= 6906.24
quadratic_ranged_144_lb: [ 1 x_15_ ^ 2 - 2 x_46_ * x_15_ + 1 x_46_ ^ 2 + 1 y_15_ ^ 2 - 2 y_46_ * y_15_ + 1 y_46_ ^ 2 ] >= 6574.59
quadratic_ranged_145_lb: [ 1 x_19_ ^ 2 - 2 x_46_ * x_19_ + 1 x_46_ ^ 2 + 1 y_19_ ^ 2 - 2 y_46_ * y_19_ + 1 y_46_ ^ 2 ] >= 9543.6
quadratic_ranged_146_lb: [ 1 x_23_ ^ 2 - 2 x_46_ * x_23_ + 1 x_46_ ^ 2 + 1 y_23_ ^ 2 - 2 y_46_ * y_23_ + 1 y_46_ ^ 2 ] >= 1475.1
quadratic_ranged_147_lb: [ 1 x_45_ ^ 2 - 2 x_46_ * x_45_ + 1 x_46_ ^ 2 + 1 y_45_ ^ 2 - 2 y_46_ * y_45_ + 1 y_46_ ^ 2 ] >= 9164.43
quadratic_ranged_148_lb: [ 1 x_5_ ^ 2 - 2 x_47_ * x_5_ + 1 x_47_ ^ 2 + 1 y_5_ ^ 2 - 2 y_47_ * y_5_ + 1 y_47_ ^ 2 ] >= 4713.39
quadratic_ranged_149_lb: [ 1 x_44_ ^ 2 - 2 x_47_ * x_44_ + 1 x_47_ ^ 2 + 1 y_44_ ^ 2 - 2 y_47_ * y_44_ + 1 y_47_ ^ 2 ] >= 8246.7
quadratic_ranged_150_lb: [ 1 x_46_ ^ 2 - 2 x_47_ * x_46_ + 1 x_47_ ^ 2 + 1 y_46_ ^ 2 - 2 y_47_ * y_46_ + 1 y_47_ ^ 2 ] >= 5802.39
quadratic_ranged_151_lb: [ 1 x_6_ ^ 2 - 2 x_48_ * x_6_ + 1 x_48_ ^ 2 + 1 y_6_ ^ 2 - 2 y_48_ * y_6_ + 1 y_48_ ^ 2 ] >= 27915.03
quadratic_ranged_152_lb: [ 1 x_12_ ^ 2 - 2 x_48_ * x_12_ + 1 x_48_ ^ 2 + 1 y_12_ ^ 2 - 2 y_48_ * y_12_ + 1 y_48_ ^ 2 ] >= 21967.11
quadratic_ranged_153_lb: [ 1 x_20_ ^ 2 - 2 x_48_ * x_20_ + 1 x_48_ ^ 2 + 1 y_20_ ^ 2 - 2 y_48_ * y_20_ + 1 y_48_ ^ 2 ] >= 12761.1
quadratic_ranged_154_lb: [ 1 x_28_ ^ 2 - 2 x_48_ * x_28_ + 1 x_48_ ^ 2 + 1 y_28_ ^ 2 - 2 y_48_ * y_28_ + 1 y_48_ ^ 2 ] >= 3809.52
quadratic_ranged_155_lb: [ 1 x_36_ ^ 2 - 2 x_48_ * x_36_ + 1 x_48_ ^ 2 + 1 y_36_ ^ 2 - 2 y_48_ * y_36_ + 1 y_48_ ^ 2 ] >= 21340.44
quadratic_ranged_156_lb: [ 1 x_47_ ^ 2 - 2 x_48_ * x_47_ + 1 x_48_ ^ 2 + 1 y_47_ ^ 2 - 2 y_48_ * y_47_ + 1 y_48_ ^ 2 ] >= 23408.55
quadratic_ranged_157_lb: [ 1 x_19_ ^ 2 - 2 x_49_ * x_19_ + 1 x_49_ ^ 2 + 1 y_19_ ^ 2 - 2 y_49_ * y_19_ + 1 y_49_ ^ 2 ] >= 32116.59
quadratic_ranged_158_lb: [ 1 x_22_ ^ 2 - 2 x_49_ * x_22_ + 1 x_49_ ^ 2 + 1 y_22_ ^ 2 - 2 y_49_ * y_22_ + 1 y_49_ ^ 2 ] >= 13053.15
quadratic_ranged_159_lb: [ 1 x_23_ ^ 2 - 2 x_49_ * x_23_ + 1 x_49_ ^ 2 + 1 y_23_ ^ 2 - 2 y_49_ * y_23_ + 1 y_49_ ^ 2 ] >= 20307.87
quadratic_ranged_160_lb: [ 1 x_44_ ^ 2 - 2 x_49_ * x_44_ + 1 x_49_ ^ 2 + 1 y_44_ ^ 2 - 2 y_49_ * y_44_ + 1 y_49_ ^ 2 ] >= 32798.7
quadratic_ranged_161_lb: [ 1 x_48_ ^ 2 - 2 x_49_ * x_48_ + 1 x_49_ ^ 2 + 1 y_48_ ^ 2 - 2 y_49_ * y_48_ + 1 y_49_ ^ 2 ] >= 17824.95
quadratic_ranged_162_lb: [ 1 x_14_ ^ 2 - 2 x_50_ * x_14_ + 1 x_50_ ^ 2 + 1 y_14_ ^ 2 - 2 y_50_ * y_14_ + 1 y_50_ ^ 2 ] >= 22462.11
quadratic_ranged_163_lb: [ 1 x_22_ ^ 2 - 2 x_50_ * x_22_ + 1 x_50_ ^ 2 + 1 y_22_ ^ 2 - 2 y_50_ * y_22_ + 1 y_50_ ^ 2 ] >= 20216.79
quadratic_ranged_164_lb: [ 1 x_29_ ^ 2 - 2 x_50_ * x_29_ + 1 x_50_ ^ 2 + 1 y_29_ ^ 2 - 2 y_50_ * y_29_ + 1 y_50_ ^ 2 ] >= 5941.98
quadratic_ranged_165_lb: [ 1 x_48_ ^ 2 - 2 x_50_ * x_48_ + 1 x_50_ ^ 2 + 1 y_48_ ^ 2 - 2 y_50_ * y_48_ + 1 y_50_ ^ 2 ] >= 33565.95
quadratic_ranged_166_lb: [ 1 x_49_ ^ 2 - 2 x_50_ * x_49_ + 1 x_50_ ^ 2 + 1 y_49_ ^ 2 - 2 y_50_ * y_49_ + 1 y_50_ ^ 2 ] >= 22595.76
quadratic_ranged_167_lb: [ 1 x_32_ ^ 2 - 2 x_51_ * x_32_ + 1 x_51_ ^ 2 + 1 y_32_ ^ 2 - 2 y_51_ * y_32_ + 1 y_51_ ^ 2 ] >= 28469.43
quadratic_ranged_168_lb: [ 1 x_42_ ^ 2 - 2 x_51_ * x_42_ + 1 x_51_ ^ 2 + 1 y_42_ ^ 2 - 2 y_51_ * y_42_ + 1 y_51_ ^ 2 ] >= 29102.04
quadratic_ranged_169_lb: [ 1 x_46_ ^ 2 - 2 x_51_ * x_46_ + 1 x_51_ ^ 2 + 1 y_46_ ^ 2 - 2 y_51_ * y_46_ + 1 y_51_ ^ 2 ] >= 4973.76
quadratic_ranged_170_lb: [ 1 x_50_ ^ 2 - 2 x_51_ * x_50_ + 1 x_51_ ^ 2 + 1 y_50_ ^ 2 - 2 y_51_ * y_50_ + 1 y_51_ ^ 2 ] >= 24877.71
quadratic_ranged_171_lb: [ 1 x_6_ ^ 2 - 2 x_52_ * x_6_ + 1 x_52_ ^ 2 + 1 y_6_ ^ 2 - 2 y_52_ * y_6_ + 1 y_52_ ^ 2 ] >= 2534.4
quadratic_ranged_172_lb: [ 1 x_7_ ^ 2 - 2 x_52_ * x_7_ + 1 x_52_ ^ 2 + 1 y_7_ ^ 2 - 2 y_52_ * y_7_ + 1 y_52_ ^ 2 ] >= 31185.989999999998
quadratic_ranged_173_lb: [ 1 x_20_ ^ 2 - 2 x_52_ * x_20_ + 1 x_52_ ^ 2 + 1 y_20_ ^ 2 - 2 y_52_ * y_20_ + 1 y_52_ ^ 2 ] >= 7152.75
quadratic_ranged_174_lb: [ 1 x_25_ ^ 2 - 2 x_52_ * x_25_ + 1 x_52_ ^ 2 + 1 y_25_ ^ 2 - 2 y_52_ * y_25_ + 1 y_52_ ^ 2 ] >= 35510.31
quadratic_ranged_175_lb: [ 1 x_29_ ^ 2 - 2 x_52_ * x_29_ + 1 x_52_ ^ 2 + 1 y_29_ ^ 2 - 2 y_52_ * y_29_ + 1 y_52_ ^ 2 ] >= 2475
quadratic_ranged_176_lb: [ 1 x_33_ ^ 2 - 2 x_52_ * x_33_ + 1 x_52_ ^ 2 + 1 y_33_ ^ 2 - 2 y_52_ * y_33_ + 1 y_52_ ^ 2 ] >= 17839.8
quadratic_ranged_177_lb: [ 1 x_44_ ^ 2 - 2 x_52_ * x_44_ + 1 x_52_ ^ 2 + 1 y_44_ ^ 2 - 2 y_52_ * y_44_ + 1 y_52_ ^ 2 ] >= 2067.12
quadratic_ranged_178_lb: [ 1 x_47_ ^ 2 - 2 x_52_ * x_47_ + 1 x_52_ ^ 2 + 1 y_47_ ^ 2 - 2 y_52_ * y_47_ + 1 y_52_ ^ 2 ] >= 18130.86
quadratic_ranged_179_lb: [ 1 x_50_ ^ 2 - 2 x_52_ * x_50_ + 1 x_52_ ^ 2 + 1 y_50_ ^ 2 - 2 y_52_ * y_50_ + 1 y_52_ ^ 2 ] >= 1387.98
quadratic_ranged_180_lb: [ 1 x_51_ ^ 2 - 2 x_52_ * x_51_ + 1 x_52_ ^ 2 + 1 y_51_ ^ 2 - 2 y_52_ * y_51_ + 1 y_52_ ^ 2 ] >= 22707.63
quadratic_ranged_181_lb: [ 1 x_10_ ^ 2 - 2 x_53_ * x_10_ + 1 x_53_ ^ 2 + 1 y_10_ ^ 2 - 2 y_53_ * y_10_ + 1 y_53_ ^ 2 ] >= 2409.66
quadratic_ranged_182_lb: [ 1 x_13_ ^ 2 - 2 x_53_ * x_13_ + 1 x_53_ ^ 2 + 1 y_13_ ^ 2 - 2 y_53_ * y_13_ + 1 y_53_ ^ 2 ] >= 20541.51
quadratic_ranged_183_lb: [ 1 x_16_ ^ 2 - 2 x_53_ * x_16_ + 1 x_53_ ^ 2 + 1 y_16_ ^ 2 - 2 y_53_ * y_16_ + 1 y_53_ ^ 2 ] >= 2510.64
quadratic_ranged_184_lb: [ 1 x_28_ ^ 2 - 2 x_53_ * x_28_ + 1 x_53_ ^ 2 + 1 y_28_ ^ 2 - 2 y_53_ * y_28_ + 1 y_53_ ^ 2 ] >= 3450.15
quadratic_ranged_185_lb: [ 1 x_30_ ^ 2 - 2 x_53_ * x_30_ + 1 x_53_ ^ 2 + 1 y_30_ ^ 2 - 2 y_53_ * y_30_ + 1 y_53_ ^ 2 ] >= 987.03
quadratic_ranged_186_lb: [ 1 x_32_ ^ 2 - 2 x_53_ * x_32_ + 1 x_53_ ^ 2 + 1 y_32_ ^ 2 - 2 y_53_ * y_32_ + 1 y_53_ ^ 2 ] >= 14851.98
quadratic_ranged_187_lb: [ 1 x_52_ ^ 2 - 2 x_53_ * x_52_ + 1 x_53_ ^ 2 + 1 y_52_ ^ 2 - 2 y_53_ * y_52_ + 1 y_53_ ^ 2 ] >= 15733.08
quadratic_ranged_188_lb: [ 1 x_7_ ^ 2 - 2 x_54_ * x_7_ + 1 x_54_ ^ 2 + 1 y_7_ ^ 2 - 2 y_54_ * y_7_ + 1 y_54_ ^ 2 ] >= 10268.28
quadratic_ranged_189_lb: [ 1 x_19_ ^ 2 - 2 x_54_ * x_19_ + 1 x_54_ ^ 2 + 1 y_19_ ^ 2 - 2 y_54_ * y_19_ + 1 y_54_ ^ 2 ] >= 41128.56
quadratic_ranged_190_lb: [ 1 x_21_ ^ 2 - 2 x_54_ * x_21_ + 1 x_54_ ^ 2 + 1 y_21_ ^ 2 - 2 y_54_ * y_21_ + 1 y_54_ ^ 2 ] >= 3526.38
quadratic_ranged_191_lb: [ 1 x_27_ ^ 2 - 2 x_54_ * x_27_ + 1 x_54_ ^ 2 + 1 y_27_ ^ 2 - 2 y_54_ * y_27_ + 1 y_54_ ^ 2 ] >= 23040.27
quadratic_ranged_192_lb: [ 1 x_32_ ^ 2 - 2 x_54_ * x_32_ + 1 x_54_ ^ 2 + 1 y_32_ ^ 2 - 2 y_54_ * y_32_ + 1 y_54_ ^ 2 ] >= 41521.59
quadratic_ranged_193_lb: [ 1 x_51_ ^ 2 - 2 x_54_ * x_51_ + 1 x_54_ ^ 2 + 1 y_51_ ^ 2 - 2 y_54_ * y_51_ + 1 y_54_ ^ 2 ] >= 4055.04
quadratic_ranged_194_lb: [ 1 x_53_ ^ 2 - 2 x_54_ * x_53_ + 1 x_54_ ^ 2 + 1 y_53_ ^ 2 - 2 y_54_ * y_53_ + 1 y_54_ ^ 2 ] >= 18236.79
quadratic_ranged_195_lb: [ 1 x_8_ ^ 2 - 2 x_55_ * x_8_ + 1 x_55_ ^ 2 + 1 y_8_ ^ 2 - 2 y_55_ * y_8_ + 1 y_55_ ^ 2 ] >= 15285.6
quadratic_ranged_196_lb: [ 1 x_18_ ^ 2 - 2 x_55_ * x_18_ + 1 x_55_ ^ 2 + 1 y_18_ ^ 2 - 2 y_55_ * y_18_ + 1 y_55_ ^ 2 ] >= 29843.55
quadratic_ranged_197_lb: [ 1 x_35_ ^ 2 - 2 x_55_ * x_35_ + 1 x_55_ ^ 2 + 1 y_35_ ^ 2 - 2 y_55_ * y_35_ + 1 y_55_ ^ 2 ] >= 4218.39
quadratic_ranged_198_lb: [ 1 x_45_ ^ 2 - 2 x_55_ * x_45_ + 1 x_55_ ^ 2 + 1 y_45_ ^ 2 - 2 y_55_ * y_45_ + 1 y_55_ ^ 2 ] >= 24141.15
quadratic_ranged_199_lb: [ 1 x_48_ ^ 2 - 2 x_55_ * x_48_ + 1 x_55_ ^ 2 + 1 y_48_ ^ 2 - 2 y_55_ * y_48_ + 1 y_55_ ^ 2 ] >= 8278.38
quadratic_ranged_200_lb: [ 1 x_54_ ^ 2 - 2 x_55_ * x_54_ + 1 x_55_ ^ 2 + 1 y_54_ ^ 2 - 2 y_55_ * y_54_ + 1 y_55_ ^ 2 ] >= 3217.5
quadratic_ranged_201_lb: [ 1 x_15_ ^ 2 - 2 x_56_ * x_15_ + 1 x_56_ ^ 2 + 1 y_15_ ^ 2 - 2 y_56_ * y_15_ + 1 y_56_ ^ 2 ] >= 31225.59
quadratic_ranged_202_lb: [ 1 x_19_ ^ 2 - 2 x_56_ * x_19_ + 1 x_56_ ^ 2 + 1 y_19_ ^ 2 - 2 y_56_ * y_19_ + 1 y_56_ ^ 2 ] >= 37778.4
quadratic_ranged_203_lb: [ 1 x_20_ ^ 2 - 2 x_56_ * x_20_ + 1 x_56_ ^ 2 + 1 y_20_ ^ 2 - 2 y_56_ * y_20_ + 1 y_56_ ^ 2 ] >= 10583.1
quadratic_ranged_204_lb: [ 1 x_21_ ^ 2 - 2 x_56_ * x_21_ + 1 x_56_ ^ 2 + 1 y_21_ ^ 2 - 2 y_56_ * y_21_ + 1 y_56_ ^ 2 ] >= 2433.42
quadratic_ranged_205_lb: [ 1 x_22_ ^ 2 - 2 x_56_ * x_22_ + 1 x_56_ ^ 2 + 1 y_22_ ^ 2 - 2 y_56_ * y_22_ + 1 y_56_ ^ 2 ] >= 1932.48
quadratic_ranged_206_lb: [ 1 x_44_ ^ 2 - 2 x_56_ * x_44_ + 1 x_56_ ^ 2 + 1 y_44_ ^ 2 - 2 y_56_ * y_44_ + 1 y_56_ ^ 2 ] >= 21210.75
quadratic_ranged_207_lb: [ 1 x_52_ ^ 2 - 2 x_56_ * x_52_ + 1 x_56_ ^ 2 + 1 y_52_ ^ 2 - 2 y_56_ * y_52_ + 1 y_56_ ^ 2 ] >= 33744.15
quadratic_ranged_208_lb: [ 1 x_55_ ^ 2 - 2 x_56_ * x_55_ + 1 x_56_ ^ 2 + 1 y_55_ ^ 2 - 2 y_56_ * y_55_ + 1 y_56_ ^ 2 ] >= 3692.7
quadratic_ranged_209_lb: [ 1 x_3_ ^ 2 - 2 x_57_ * x_3_ + 1 x_57_ ^ 2 + 1 y_3_ ^ 2 - 2 y_57_ * y_3_ + 1 y_57_ ^ 2 ] >= 5053.95
quadratic_ranged_210_lb: [ 1 x_35_ ^ 2 - 2 x_57_ * x_35_ + 1 x_57_ ^ 2 + 1 y_35_ ^ 2 - 2 y_57_ * y_35_ + 1 y_57_ ^ 2 ] >= 12502.71
quadratic_ranged_211_lb: [ 1 x_42_ ^ 2 - 2 x_57_ * x_42_ + 1 x_57_ ^ 2 + 1 y_42_ ^ 2 - 2 y_57_ * y_42_ + 1 y_57_ ^ 2 ] >= 17443.8
quadratic_ranged_212_lb: [ 1 x_43_ ^ 2 - 2 x_57_ * x_43_ + 1 x_57_ ^ 2 + 1 y_43_ ^ 2 - 2 y_57_ * y_43_ + 1 y_57_ ^ 2 ] >= 1839.42
quadratic_ranged_213_lb: [ 1 x_45_ ^ 2 - 2 x_57_ * x_45_ + 1 x_57_ ^ 2 + 1 y_45_ ^ 2 - 2 y_57_ * y_45_ + 1 y_57_ ^ 2 ] >= 14249.07
quadratic_ranged_214_lb: [ 1 x_49_ ^ 2 - 2 x_57_ * x_49_ + 1 x_57_ ^ 2 + 1 y_49_ ^ 2 - 2 y_57_ * y_49_ + 1 y_57_ ^ 2 ] >= 38535.75
quadratic_ranged_215_lb: [ 1 x_54_ ^ 2 - 2 x_57_ * x_54_ + 1 x_57_ ^ 2 + 1 y_54_ ^ 2 - 2 y_57_ * y_54_ + 1 y_57_ ^ 2 ] >= 10913.76
quadratic_ranged_216_lb: [ 1 x_56_ ^ 2 - 2 x_57_ * x_56_ + 1 x_57_ ^ 2 + 1 y_56_ ^ 2 - 2 y_57_ * y_56_ + 1 y_57_ ^ 2 ] >= 11317.68
quadratic_ranged_217_lb: [ 1 x_8_ ^ 2 - 2 x_58_ * x_8_ + 1 x_58_ ^ 2 + 1 y_8_ ^ 2 - 2 y_58_ * y_8_ + 1 y_58_ ^ 2 ] >= 19360.44
quadratic_ranged_218_lb: [ 1 x_11_ ^ 2 - 2 x_58_ * x_11_ + 1 x_58_ ^ 2 + 1 y_11_ ^ 2 - 2 y_58_ * y_11_ + 1 y_58_ ^ 2 ] >= 10527.66
quadratic_ranged_219_lb: [ 1 x_17_ ^ 2 - 2 x_58_ * x_17_ + 1 x_58_ ^ 2 + 1 y_17_ ^ 2 - 2 y_58_ * y_17_ + 1 y_58_ ^ 2 ] >= 8542.71
quadratic_ranged_220_lb: [ 1 x_26_ ^ 2 - 2 x_58_ * x_26_ + 1 x_58_ ^ 2 + 1 y_26_ ^ 2 - 2 y_58_ * y_26_ + 1 y_58_ ^ 2 ] >= 13004.64
quadratic_ranged_221_lb: [ 1 x_31_ ^ 2 - 2 x_58_ * x_31_ + 1 x_58_ ^ 2 + 1 y_31_ ^ 2 - 2 y_58_ * y_31_ + 1 y_58_ ^ 2 ] >= 9048.6
quadratic_ranged_222_lb: [ 1 x_32_ ^ 2 - 2 x_58_ * x_32_ + 1 x_58_ ^ 2 + 1 y_32_ ^ 2 - 2 y_58_ * y_32_ + 1 y_58_ ^ 2 ] >= 14672.789999999999
quadratic_ranged_223_lb: [ 1 x_34_ ^ 2 - 2 x_58_ * x_34_ + 1 x_58_ ^ 2 + 1 y_34_ ^ 2 - 2 y_58_ * y_34_ + 1 y_58_ ^ 2 ] >= 1158.3
quadratic_ranged_224_lb: [ 1 x_40_ ^ 2 - 2 x_58_ * x_40_ + 1 x_58_ ^ 2 + 1 y_40_ ^ 2 - 2 y_58_ * y_40_ + 1 y_58_ ^ 2 ] >= 15004.44
quadratic_ranged_225_lb: [ 1 x_42_ ^ 2 - 2 x_58_ * x_42_ + 1 x_58_ ^ 2 + 1 y_42_ ^ 2 - 2 y_58_ * y_42_ + 1 y_58_ ^ 2 ] >= 15327.18
quadratic_ranged_226_lb: [ 1 x_55_ ^ 2 - 2 x_58_ * x_55_ + 1 x_58_ ^ 2 + 1 y_55_ ^ 2 - 2 y_58_ * y_55_ + 1 y_58_ ^ 2 ] >= 1667.16
quadratic_ranged_227_lb: [ 1 x_56_ ^ 2 - 2 x_58_ * x_56_ + 1 x_58_ ^ 2 + 1 y_56_ ^ 2 - 2 y_58_ * y_56_ + 1 y_58_ ^ 2 ] >= 8816.94
quadratic_ranged_228_lb: [ 1 x_57_ ^ 2 - 2 x_58_ * x_57_ + 1 x_58_ ^ 2 + 1 y_57_ ^ 2 - 2 y_58_ * y_57_ + 1 y_58_ ^ 2 ] >= 342.54
quadratic_ranged_229_lb: [ 1 x_1_ ^ 2 - 2 x_59_ * x_1_ + 1 x_59_ ^ 2 + 1 y_1_ ^ 2 - 2 y_59_ * y_1_ + 1 y_59_ ^ 2 ] >= 15971.67
quadratic_ranged_230_lb: [ 1 x_21_ ^ 2 - 2 x_59_ * x_21_ + 1 x_59_ ^ 2 + 1 y_21_ ^ 2 - 2 y_59_ * y_21_ + 1 y_59_ ^ 2 ] >= 4958.91
quadratic_ranged_231_lb: [ 1 x_42_ ^ 2 - 2 x_59_ * x_42_ + 1 x_59_ ^ 2 + 1 y_42_ ^ 2 - 2 y_59_ * y_42_ + 1 y_59_ ^ 2 ] >= 5275.71
quadratic_ranged_232_lb: [ 1 x_51_ ^ 2 - 2 x_59_ * x_51_ + 1 x_59_ ^ 2 + 1 y_51_ ^ 2 - 2 y_59_ * y_51_ + 1 y_59_ ^ 2 ] >= 13346.19
quadratic_ranged_233_lb: [ 1 x_54_ ^ 2 - 2 x_59_ * x_54_ + 1 x_59_ ^ 2 + 1 y_54_ ^ 2 - 2 y_59_ * y_54_ + 1 y_59_ ^ 2 ] >= 16767.63
quadratic_ranged_234_lb: [ 1 x_57_ ^ 2 - 2 x_59_ * x_57_ + 1 x_59_ ^ 2 + 1 y_57_ ^ 2 - 2 y_59_ * y_57_ + 1 y_59_ ^ 2 ] >= 8649.63
quadratic_ranged_235_lb: [ 1 x_58_ ^ 2 - 2 x_59_ * x_58_ + 1 x_59_ ^ 2 + 1 y_58_ ^ 2 - 2 y_59_ * y_58_ + 1 y_59_ ^ 2 ] >= 5944.95
quadratic_ranged_236_lb: [ 1 x_7_ ^ 2 - 2 x_60_ * x_7_ + 1 x_60_ ^ 2 + 1 y_7_ ^ 2 - 2 y_60_ * y_7_ + 1 y_60_ ^ 2 ] >= 839.52
quadratic_ranged_237_lb: [ 1 x_21_ ^ 2 - 2 x_60_ * x_21_ + 1 x_60_ ^ 2 + 1 y_21_ ^ 2 - 2 y_60_ * y_21_ + 1 y_60_ ^ 2 ] >= 2710.62
quadratic_ranged_238_lb: [ 1 x_29_ ^ 2 - 2 x_60_ * x_29_ + 1 x_60_ ^ 2 + 1 y_29_ ^ 2 - 2 y_60_ * y_29_ + 1 y_60_ ^ 2 ] >= 21151.35
quadratic_ranged_239_lb: [ 1 x_31_ ^ 2 - 2 x_60_ * x_31_ + 1 x_60_ ^ 2 + 1 y_31_ ^ 2 - 2 y_60_ * y_31_ + 1 y_60_ ^ 2 ] >= 15739.02
quadratic_ranged_240_lb: [ 1 x_42_ ^ 2 - 2 x_60_ * x_42_ + 1 x_60_ ^ 2 + 1 y_42_ ^ 2 - 2 y_60_ * y_42_ + 1 y_60_ ^ 2 ] >= 19974.24
quadratic_ranged_241_lb: [ 1 x_51_ ^ 2 - 2 x_60_ * x_51_ + 1 x_60_ ^ 2 + 1 y_51_ ^ 2 - 2 y_60_ * y_51_ + 1 y_60_ ^ 2 ] >= 12517.56
quadratic_ranged_242_lb: [ 1 x_52_ ^ 2 - 2 x_60_ * x_52_ + 1 x_60_ ^ 2 + 1 y_52_ ^ 2 - 2 y_60_ * y_52_ + 1 y_60_ ^ 2 ] >= 22933.35
quadratic_ranged_243_lb: [ 1 x_58_ ^ 2 - 2 x_60_ * x_58_ + 1 x_60_ ^ 2 + 1 y_58_ ^ 2 - 2 y_60_ * y_58_ + 1 y_60_ ^ 2 ] >= 10202.94
quadratic_ranged_244_lb: [ 1 x_59_ ^ 2 - 2 x_60_ * x_59_ + 1 x_60_ ^ 2 + 1 y_59_ ^ 2 - 2 y_60_ * y_59_ + 1 y_60_ ^ 2 ] >= 4958.91
quadratic_ranged_245_lb: [ 1 x_2_ ^ 2 - 2 x_61_ * x_2_ + 1 x_61_ ^ 2 + 1 y_2_ ^ 2 - 2 y_61_ * y_2_ + 1 y_61_ ^ 2 ] >= 2718.54
quadratic_ranged_246_lb: [ 1 x_22_ ^ 2 - 2 x_61_ * x_22_ + 1 x_61_ ^ 2 + 1 y_22_ ^ 2 - 2 y_61_ * y_22_ + 1 y_61_ ^ 2 ] >= 1145.43
quadratic_ranged_247_lb: [ 1 x_26_ ^ 2 - 2 x_61_ * x_26_ + 1 x_61_ ^ 2 + 1 y_26_ ^ 2 - 2 y_61_ * y_26_ + 1 y_61_ ^ 2 ] >= 3200.67
quadratic_ranged_248_lb: [ 1 x_27_ ^ 2 - 2 x_61_ * x_27_ + 1 x_61_ ^ 2 + 1 y_27_ ^ 2 - 2 y_61_ * y_27_ + 1 y_61_ ^ 2 ] >= 4260.96
quadratic_ranged_249_lb: [ 1 x_32_ ^ 2 - 2 x_61_ * x_32_ + 1 x_61_ ^ 2 + 1 y_32_ ^ 2 - 2 y_61_ * y_32_ + 1 y_61_ ^ 2 ] >= 22183.92
quadratic_ranged_250_lb: [ 1 x_43_ ^ 2 - 2 x_61_ * x_43_ + 1 x_61_ ^ 2 + 1 y_43_ ^ 2 - 2 y_61_ * y_43_ + 1 y_61_ ^ 2 ] >= 10336.59
quadratic_ranged_251_lb: [ 1 x_52_ ^ 2 - 2 x_61_ * x_52_ + 1 x_61_ ^ 2 + 1 y_52_ ^ 2 - 2 y_61_ * y_52_ + 1 y_61_ ^ 2 ] >= 21457.26
quadratic_ranged_252_lb: [ 1 x_60_ ^ 2 - 2 x_61_ * x_60_ + 1 x_61_ ^ 2 + 1 y_60_ ^ 2 - 2 y_61_ * y_60_ + 1 y_61_ ^ 2 ] >= 72.27
quadratic_ranged_253_lb: [ 1 x_1_ ^ 2 - 2 x_62_ * x_1_ + 1 x_62_ ^ 2 + 1 y_1_ ^ 2 - 2 y_62_ * y_1_ + 1 y_62_ ^ 2 ] >= 24625.26
quadratic_ranged_254_lb: [ 1 x_5_ ^ 2 - 2 x_62_ * x_5_ + 1 x_62_ ^ 2 + 1 y_5_ ^ 2 - 2 y_62_ * y_5_ + 1 y_62_ ^ 2 ] >= 21451.32
quadratic_ranged_255_lb: [ 1 x_13_ ^ 2 - 2 x_62_ * x_13_ + 1 x_62_ ^ 2 + 1 y_13_ ^ 2 - 2 y_62_ * y_13_ + 1 y_62_ ^ 2 ] >= 28710
quadratic_ranged_256_lb: [ 1 x_14_ ^ 2 - 2 x_62_ * x_14_ + 1 x_62_ ^ 2 + 1 y_14_ ^ 2 - 2 y_62_ * y_14_ + 1 y_62_ ^ 2 ] >= 12246.3
quadratic_ranged_257_lb: [ 1 x_20_ ^ 2 - 2 x_62_ * x_20_ + 1 x_62_ ^ 2 + 1 y_20_ ^ 2 - 2 y_62_ * y_20_ + 1 y_62_ ^ 2 ] >= 7876.44
quadratic_ranged_258_lb: [ 1 x_31_ ^ 2 - 2 x_62_ * x_31_ + 1 x_62_ ^ 2 + 1 y_31_ ^ 2 - 2 y_62_ * y_31_ + 1 y_62_ ^ 2 ] >= 13262.039999999999
quadratic_ranged_259_lb: [ 1 x_32_ ^ 2 - 2 x_62_ * x_32_ + 1 x_62_ ^ 2 + 1 y_32_ ^ 2 - 2 y_62_ * y_32_ + 1 y_62_ ^ 2 ] >= 18854.55
quadratic_ranged_260_lb: [ 1 x_36_ ^ 2 - 2 x_62_ * x_36_ + 1 x_62_ ^ 2 + 1 y_36_ ^ 2 - 2 y_62_ * y_36_ + 1 y_62_ ^ 2 ] >= 1055.34
quadratic_ranged_261_lb: [ 1 x_43_ ^ 2 - 2 x_62_ * x_43_ + 1 x_62_ ^ 2 + 1 y_43_ ^ 2 - 2 y_62_ * y_43_ + 1 y_62_ ^ 2 ] >= 16236
quadratic_ranged_262_lb: [ 1 x_61_ ^ 2 - 2 x_62_ * x_61_ + 1 x_62_ ^ 2 + 1 y_61_ ^ 2 - 2 y_62_ * y_61_ + 1 y_62_ ^ 2 ] >= 3446.19
quadratic_ranged_263_lb: [ 1 x_2_ ^ 2 - 2 x_63_ * x_2_ + 1 x_63_ ^ 2 + 1 y_2_ ^ 2 - 2 y_63_ * y_2_ + 1 y_63_ ^ 2 ] >= 8009.1
quadratic_ranged_264_lb: [ 1 x_5_ ^ 2 - 2 x_63_ * x_5_ + 1 x_63_ ^ 2 + 1 y_5_ ^ 2 - 2 y_63_ * y_5_ + 1 y_63_ ^ 2 ] >= 4931.19
quadratic_ranged_265_lb: [ 1 x_8_ ^ 2 - 2 x_63_ * x_8_ + 1 x_63_ ^ 2 + 1 y_8_ ^ 2 - 2 y_63_ * y_8_ + 1 y_63_ ^ 2 ] >= 11172.15
quadratic_ranged_266_lb: [ 1 x_23_ ^ 2 - 2 x_63_ * x_23_ + 1 x_63_ ^ 2 + 1 y_23_ ^ 2 - 2 y_63_ * y_23_ + 1 y_63_ ^ 2 ] >= 226.71
quadratic_ranged_267_lb: [ 1 x_34_ ^ 2 - 2 x_63_ * x_34_ + 1 x_63_ ^ 2 + 1 y_34_ ^ 2 - 2 y_63_ * y_34_ + 1 y_63_ ^ 2 ] >= 3018.5099999999998
quadratic_ranged_268_lb: [ 1 x_48_ ^ 2 - 2 x_63_ * x_48_ + 1 x_63_ ^ 2 + 1 y_48_ ^ 2 - 2 y_63_ * y_48_ + 1 y_63_ ^ 2 ] >= 6855.75
quadratic_ranged_269_lb: [ 1 x_49_ ^ 2 - 2 x_63_ * x_49_ + 1 x_63_ ^ 2 + 1 y_49_ ^ 2 - 2 y_63_ * y_49_ + 1 y_63_ ^ 2 ] >= 24239.16
quadratic_ranged_270_lb: [ 1 x_51_ ^ 2 - 2 x_63_ * x_51_ + 1 x_63_ ^ 2 + 1 y_51_ ^ 2 - 2 y_63_ * y_51_ + 1 y_63_ ^ 2 ] >= 1969.11
quadratic_ranged_271_lb: [ 1 x_53_ ^ 2 - 2 x_63_ * x_53_ + 1 x_63_ ^ 2 + 1 y_53_ ^ 2 - 2 y_63_ * y_53_ + 1 y_63_ ^ 2 ] >= 9775.26
quadratic_ranged_272_lb: [ 1 x_58_ ^ 2 - 2 x_63_ * x_58_ + 1 x_63_ ^ 2 + 1 y_58_ ^ 2 - 2 y_63_ * y_58_ + 1 y_63_ ^ 2 ] >= 1284.03
quadratic_ranged_273_lb: [ 1 x_62_ ^ 2 - 2 x_63_ * x_62_ + 1 x_63_ ^ 2 + 1 y_62_ ^ 2 - 2 y_63_ * y_62_ + 1 y_63_ ^ 2 ] >= 15318.27
quadratic_ranged_274_lb: [ 1 x_10_ ^ 2 - 2 x_64_ * x_10_ + 1 x_64_ ^ 2 + 1 y_10_ ^ 2 - 2 y_64_ * y_10_ + 1 y_64_ ^ 2 ] >= 20744.46
quadratic_ranged_275_lb: [ 1 x_22_ ^ 2 - 2 x_64_ * x_22_ + 1 x_64_ ^ 2 + 1 y_22_ ^ 2 - 2 y_64_ * y_22_ + 1 y_64_ ^ 2 ] >= 19666.35
quadratic_ranged_276_lb: [ 1 x_30_ ^ 2 - 2 x_64_ * x_30_ + 1 x_64_ ^ 2 + 1 y_30_ ^ 2 - 2 y_64_ * y_30_ + 1 y_64_ ^ 2 ] >= 35894.43
quadratic_ranged_277_lb: [ 1 x_32_ ^ 2 - 2 x_64_ * x_32_ + 1 x_64_ ^ 2 + 1 y_32_ ^ 2 - 2 y_64_ * y_32_ + 1 y_64_ ^ 2 ] >= 16475.579999999998
quadratic_ranged_278_lb: [ 1 x_36_ ^ 2 - 2 x_64_ * x_36_ + 1 x_64_ ^ 2 + 1 y_36_ ^ 2 - 2 y_64_ * y_36_ + 1 y_64_ ^ 2 ] >= 32362.11
quadratic_ranged_279_lb: [ 1 x_63_ ^ 2 - 2 x_64_ * x_63_ + 1 x_64_ ^ 2 + 1 y_63_ ^ 2 - 2 y_64_ * y_63_ + 1 y_64_ ^ 2 ] >= 7438.86
quadratic_ranged_280_lb: [ 1 x_11_ ^ 2 - 2 x_65_ * x_11_ + 1 x_65_ ^ 2 + 1 y_11_ ^ 2 - 2 y_65_ * y_11_ + 1 y_65_ ^ 2 ] >= 2237.4
quadratic_ranged_281_lb: [ 1 x_19_ ^ 2 - 2 x_65_ * x_19_ + 1 x_65_ ^ 2 + 1 y_19_ ^ 2 - 2 y_65_ * y_19_ + 1 y_65_ ^ 2 ] >= 23633.28
quadratic_ranged_282_lb: [ 1 x_22_ ^ 2 - 2 x_65_ * x_22_ + 1 x_65_ ^ 2 + 1 y_22_ ^ 2 - 2 y_65_ * y_22_ + 1 y_65_ ^ 2 ] >= 1029.6
quadratic_ranged_283_lb: [ 1 x_28_ ^ 2 - 2 x_65_ * x_28_ + 1 x_65_ ^ 2 + 1 y_28_ ^ 2 - 2 y_65_ * y_28_ + 1 y_65_ ^ 2 ] >= 685.08
quadratic_ranged_284_lb: [ 1 x_45_ ^ 2 - 2 x_65_ * x_45_ + 1 x_65_ ^ 2 + 1 y_45_ ^ 2 - 2 y_65_ * y_45_ + 1 y_65_ ^ 2 ] >= 24453.989999999998
quadratic_ranged_285_lb: [ 1 x_52_ ^ 2 - 2 x_65_ * x_52_ + 1 x_65_ ^ 2 + 1 y_52_ ^ 2 - 2 y_65_ * y_52_ + 1 y_65_ ^ 2 ] >= 22458.15
quadratic_ranged_286_lb: [ 1 x_58_ ^ 2 - 2 x_65_ * x_58_ + 1 x_65_ ^ 2 + 1 y_58_ ^ 2 - 2 y_65_ * y_58_ + 1 y_65_ ^ 2 ] >= 10773.18
quadratic_ranged_287_lb: [ 1 x_64_ ^ 2 - 2 x_65_ * x_64_ + 1 x_65_ ^ 2 + 1 y_64_ ^ 2 - 2 y_65_ * y_64_ + 1 y_65_ ^ 2 ] >= 24117.39
quadratic_ranged_288_lb: [ 1 x_3_ ^ 2 - 2 x_66_ * x_3_ + 1 x_66_ ^ 2 + 1 y_3_ ^ 2 - 2 y_66_ * y_3_ + 1 y_66_ ^ 2 ] >= 33590.7
quadratic_ranged_289_lb: [ 1 x_4_ ^ 2 - 2 x_66_ * x_4_ + 1 x_66_ ^ 2 + 1 y_4_ ^ 2 - 2 y_66_ * y_4_ + 1 y_66_ ^ 2 ] >= 28441.71
quadratic_ranged_290_lb: [ 1 x_11_ ^ 2 - 2 x_66_ * x_11_ + 1 x_66_ ^ 2 + 1 y_11_ ^ 2 - 2 y_66_ * y_11_ + 1 y_66_ ^ 2 ] >= 2440.35
quadratic_ranged_291_lb: [ 1 x_12_ ^ 2 - 2 x_66_ * x_12_ + 1 x_66_ ^ 2 + 1 y_12_ ^ 2 - 2 y_66_ * y_12_ + 1 y_66_ ^ 2 ] >= 20061.36
quadratic_ranged_292_lb: [ 1 x_38_ ^ 2 - 2 x_66_ * x_38_ + 1 x_66_ ^ 2 + 1 y_38_ ^ 2 - 2 y_66_ * y_38_ + 1 y_66_ ^ 2 ] >= 4991.58
quadratic_ranged_293_lb: [ 1 x_46_ ^ 2 - 2 x_66_ * x_46_ + 1 x_66_ ^ 2 + 1 y_46_ ^ 2 - 2 y_66_ * y_46_ + 1 y_66_ ^ 2 ] >= 18228.87
quadratic_ranged_294_lb: [ 1 x_48_ ^ 2 - 2 x_66_ * x_48_ + 1 x_66_ ^ 2 + 1 y_48_ ^ 2 - 2 y_66_ * y_48_ + 1 y_66_ ^ 2 ] >= 1212.75
quadratic_ranged_295_lb: [ 1 x_52_ ^ 2 - 2 x_66_ * x_52_ + 1 x_66_ ^ 2 + 1 y_52_ ^ 2 - 2 y_66_ * y_52_ + 1 y_66_ ^ 2 ] >= 46704.24
quadratic_ranged_296_lb: [ 1 x_62_ ^ 2 - 2 x_66_ * x_62_ + 1 x_66_ ^ 2 + 1 y_62_ ^ 2 - 2 y_66_ * y_62_ + 1 y_66_ ^ 2 ] >= 24430.23
quadratic_ranged_297_lb: [ 1 x_65_ ^ 2 - 2 x_66_ * x_65_ + 1 x_66_ ^ 2 + 1 y_65_ ^ 2 - 2 y_66_ * y_65_ + 1 y_66_ ^ 2 ] >= 9338.67
quadratic_ranged_298_lb: [ 1 x_2_ ^ 2 - 2 x_67_ * x_2_ + 1 x_67_ ^ 2 + 1 y_2_ ^ 2 - 2 y_67_ * y_2_ + 1 y_67_ ^ 2 ] >= 7924.95
quadratic_ranged_299_lb: [ 1 x_9_ ^ 2 - 2 x_67_ * x_9_ + 1 x_67_ ^ 2 + 1 y_9_ ^ 2 - 2 y_67_ * y_9_ + 1 y_67_ ^ 2 ] >= 14038.2
quadratic_ranged_300_lb: [ 1 x_15_ ^ 2 - 2 x_67_ * x_15_ + 1 x_67_ ^ 2 + 1 y_15_ ^ 2 - 2 y_67_ * y_15_ + 1 y_67_ ^ 2 ] >= 1224.6299999999999
quadratic_ranged_301_lb: [ 1 x_21_ ^ 2 - 2 x_67_ * x_21_ + 1 x_67_ ^ 2 + 1 y_21_ ^ 2 - 2 y_67_ * y_21_ + 1 y_67_ ^ 2 ] >= 21720.6
quadratic_ranged_302_lb: [ 1 x_25_ ^ 2 - 2 x_67_ * x_25_ + 1 x_67_ ^ 2 + 1 y_25_ ^ 2 - 2 y_67_ * y_25_ + 1 y_67_ ^ 2 ] >= 26124.12
quadratic_ranged_303_lb: [ 1 x_28_ ^ 2 - 2 x_67_ * x_28_ + 1 x_67_ ^ 2 + 1 y_28_ ^ 2 - 2 y_67_ * y_28_ + 1 y_67_ ^ 2 ] >= 26961.66
quadratic_ranged_304_lb: [ 1 x_30_ ^ 2 - 2 x_67_ * x_30_ + 1 x_67_ ^ 2 + 1 y_30_ ^ 2 - 2 y_67_ * y_30_ + 1 y_67_ ^ 2 ] >= 18263.52
quadratic_ranged_305_lb: [ 1 x_48_ ^ 2 - 2 x_67_ * x_48_ + 1 x_67_ ^ 2 + 1 y_48_ ^ 2 - 2 y_67_ * y_48_ + 1 y_67_ ^ 2 ] >= 40560.3
quadratic_ranged_306_lb: [ 1 x_66_ ^ 2 - 2 x_67_ * x_66_ + 1 x_67_ ^ 2 + 1 y_66_ ^ 2 - 2 y_67_ * y_66_ + 1 y_67_ ^ 2 ] >= 51267.15
quadratic_ranged_307_lb: [ 1 x_1_ ^ 2 - 2 x_68_ * x_1_ + 1 x_68_ ^ 2 + 1 y_1_ ^ 2 - 2 y_68_ * y_1_ + 1 y_68_ ^ 2 ] >= 3758.04
quadratic_ranged_308_lb: [ 1 x_10_ ^ 2 - 2 x_68_ * x_10_ + 1 x_68_ ^ 2 + 1 y_10_ ^ 2 - 2 y_68_ * y_10_ + 1 y_68_ ^ 2 ] >= 39042.63
quadratic_ranged_309_lb: [ 1 x_31_ ^ 2 - 2 x_68_ * x_31_ + 1 x_68_ ^ 2 + 1 y_31_ ^ 2 - 2 y_68_ * y_31_ + 1 y_68_ ^ 2 ] >= 47601.18
quadratic_ranged_310_lb: [ 1 x_43_ ^ 2 - 2 x_68_ * x_43_ + 1 x_68_ ^ 2 + 1 y_43_ ^ 2 - 2 y_68_ * y_43_ + 1 y_68_ ^ 2 ] >= 29012.94
quadratic_ranged_311_lb: [ 1 x_67_ ^ 2 - 2 x_68_ * x_67_ + 1 x_68_ ^ 2 + 1 y_67_ ^ 2 - 2 y_68_ * y_67_ + 1 y_68_ ^ 2 ] >= 61667.1
quadratic_ranged_312_lb: [ 1 x_6_ ^ 2 - 2 x_69_ * x_6_ + 1 x_69_ ^ 2 + 1 y_6_ ^ 2 - 2 y_69_ * y_6_ + 1 y_69_ ^ 2 ] >= 28751.579999999998
quadratic_ranged_313_lb: [ 1 x_11_ ^ 2 - 2 x_69_ * x_11_ + 1 x_69_ ^ 2 + 1 y_11_ ^ 2 - 2 y_69_ * y_11_ + 1 y_69_ ^ 2 ] >= 535.59
quadratic_ranged_314_lb: [ 1 x_12_ ^ 2 - 2 x_69_ * x_12_ + 1 x_69_ ^ 2 + 1 y_12_ ^ 2 - 2 y_69_ * y_12_ + 1 y_69_ ^ 2 ] >= 23579.82
quadratic_ranged_315_lb: [ 1 x_19_ ^ 2 - 2 x_69_ * x_19_ + 1 x_69_ ^ 2 + 1 y_19_ ^ 2 - 2 y_69_ * y_19_ + 1 y_69_ ^ 2 ] >= 43434.27
quadratic_ranged_316_lb: [ 1 x_44_ ^ 2 - 2 x_69_ * x_44_ + 1 x_69_ ^ 2 + 1 y_44_ ^ 2 - 2 y_69_ * y_44_ + 1 y_69_ ^ 2 ] >= 28236.78
quadratic_ranged_317_lb: [ 1 x_45_ ^ 2 - 2 x_69_ * x_45_ + 1 x_69_ ^ 2 + 1 y_45_ ^ 2 - 2 y_69_ * y_45_ + 1 y_69_ ^ 2 ] >= 43916.4
quadratic_ranged_318_lb: [ 1 x_68_ ^ 2 - 2 x_69_ * x_68_ + 1 x_69_ ^ 2 + 1 y_68_ ^ 2 - 2 y_69_ * y_68_ + 1 y_69_ ^ 2 ] >= 2967.03
quadratic_ranged_319_lb: [ 1 x_23_ ^ 2 - 2 x_70_ * x_23_ + 1 x_70_ ^ 2 + 1 y_23_ ^ 2 - 2 y_70_ * y_23_ + 1 y_70_ ^ 2 ] >= 1245.42
quadratic_ranged_320_lb: [ 1 x_30_ ^ 2 - 2 x_70_ * x_30_ + 1 x_70_ ^ 2 + 1 y_30_ ^ 2 - 2 y_70_ * y_30_ + 1 y_70_ ^ 2 ] >= 14305.5
quadratic_ranged_321_lb: [ 1 x_36_ ^ 2 - 2 x_70_ * x_36_ + 1 x_70_ ^ 2 + 1 y_36_ ^ 2 - 2 y_70_ * y_36_ + 1 y_70_ ^ 2 ] >= 12786.84
quadratic_ranged_322_lb: [ 1 x_40_ ^ 2 - 2 x_70_ * x_40_ + 1 x_70_ ^ 2 + 1 y_40_ ^ 2 - 2 y_70_ * y_40_ + 1 y_70_ ^ 2 ] >= 10369.26
quadratic_ranged_323_lb: [ 1 x_53_ ^ 2 - 2 x_70_ * x_53_ + 1 x_70_ ^ 2 + 1 y_53_ ^ 2 - 2 y_70_ * y_53_ + 1 y_70_ ^ 2 ] >= 8495.19
quadratic_ranged_324_lb: [ 1 x_62_ ^ 2 - 2 x_70_ * x_62_ + 1 x_70_ ^ 2 + 1 y_62_ ^ 2 - 2 y_70_ * y_62_ + 1 y_70_ ^ 2 ] >= 13972.86
quadratic_ranged_325_lb: [ 1 x_65_ ^ 2 - 2 x_70_ * x_65_ + 1 x_70_ ^ 2 + 1 y_65_ ^ 2 - 2 y_70_ * y_65_ + 1 y_70_ ^ 2 ] >= 7892.28
quadratic_ranged_326_lb: [ 1 x_69_ ^ 2 - 2 x_70_ * x_69_ + 1 x_70_ ^ 2 + 1 y_69_ ^ 2 - 2 y_70_ * y_69_ + 1 y_70_ ^ 2 ] >= 15033.15
quadratic_ranged_327_lb: [ 1 x_1_ ^ 2 - 2 x_71_ * x_1_ + 1 x_71_ ^ 2 + 1 y_1_ ^ 2 - 2 y_71_ * y_1_ + 1 y_71_ ^ 2 ] >= 20814.75
quadratic_ranged_328_lb: [ 1 x_11_ ^ 2 - 2 x_71_ * x_11_ + 1 x_71_ ^ 2 + 1 y_11_ ^ 2 - 2 y_71_ * y_11_ + 1 y_71_ ^ 2 ] >= 10934.55
quadratic_ranged_329_lb: [ 1 x_27_ ^ 2 - 2 x_71_ * x_27_ + 1 x_71_ ^ 2 + 1 y_27_ ^ 2 - 2 y_71_ * y_27_ + 1 y_71_ ^ 2 ] >= 99
quadratic_ranged_330_lb: [ 1 x_37_ ^ 2 - 2 x_71_ * x_37_ + 1 x_71_ ^ 2 + 1 y_37_ ^ 2 - 2 y_71_ * y_37_ + 1 y_71_ ^ 2 ] >= 14503.5
quadratic_ranged_331_lb: [ 1 x_40_ ^ 2 - 2 x_71_ * x_40_ + 1 x_71_ ^ 2 + 1 y_40_ ^ 2 - 2 y_71_ * y_40_ + 1 y_71_ ^ 2 ] >= 1367.19
quadratic_ranged_332_lb: [ 1 x_45_ ^ 2 - 2 x_71_ * x_45_ + 1 x_71_ ^ 2 + 1 y_45_ ^ 2 - 2 y_71_ * y_45_ + 1 y_71_ ^ 2 ] >= 12870
quadratic_ranged_333_lb: [ 1 x_46_ ^ 2 - 2 x_71_ * x_46_ + 1 x_71_ ^ 2 + 1 y_46_ ^ 2 - 2 y_71_ * y_46_ + 1 y_71_ ^ 2 ] >= 8415.99
quadratic_ranged_334_lb: [ 1 x_49_ ^ 2 - 2 x_71_ * x_49_ + 1 x_71_ ^ 2 + 1 y_49_ ^ 2 - 2 y_71_ * y_49_ + 1 y_71_ ^ 2 ] >= 5627.16
quadratic_ranged_335_lb: [ 1 x_60_ ^ 2 - 2 x_71_ * x_60_ + 1 x_71_ ^ 2 + 1 y_60_ ^ 2 - 2 y_71_ * y_60_ + 1 y_71_ ^ 2 ] >= 4099.59
quadratic_ranged_336_lb: [ 1 x_68_ ^ 2 - 2 x_71_ * x_68_ + 1 x_71_ ^ 2 + 1 y_68_ ^ 2 - 2 y_71_ * y_68_ + 1 y_71_ ^ 2 ] >= 30584.07
quadratic_ranged_337_lb: [ 1 x_70_ ^ 2 - 2 x_71_ * x_70_ + 1 x_71_ ^ 2 + 1 y_70_ ^ 2 - 2 y_71_ * y_70_ + 1 y_71_ ^ 2 ] >= 7707.15
quadratic_ranged_338_lb: [ 1 x_43_ ^ 2 - 2 x_72_ * x_43_ + 1 x_72_ ^ 2 + 1 y_43_ ^ 2 - 2 y_72_ * y_43_ + 1 y_72_ ^ 2 ] >= 1974.06
quadratic_ranged_339_lb: [ 1 x_48_ ^ 2 - 2 x_72_ * x_48_ + 1 x_72_ ^ 2 + 1 y_48_ ^ 2 - 2 y_72_ * y_48_ + 1 y_72_ ^ 2 ] >= 31996.8
quadratic_ranged_340_lb: [ 1 x_56_ ^ 2 - 2 x_72_ * x_56_ + 1 x_72_ ^ 2 + 1 y_56_ ^ 2 - 2 y_72_ * y_56_ + 1 y_72_ ^ 2 ] >= 26060.76
quadratic_ranged_341_lb: [ 1 x_60_ ^ 2 - 2 x_72_ * x_60_ + 1 x_72_ ^ 2 + 1 y_60_ ^ 2 - 2 y_72_ * y_60_ + 1 y_72_ ^ 2 ] >= 19546.56
quadratic_ranged_342_lb: [ 1 x_71_ ^ 2 - 2 x_72_ * x_71_ + 1 x_72_ ^ 2 + 1 y_71_ ^ 2 - 2 y_72_ * y_71_ + 1 y_72_ ^ 2 ] >= 12661.11
quadratic_ranged_343_lb: [ 1 x_5_ ^ 2 - 2 x_73_ * x_5_ + 1 x_73_ ^ 2 + 1 y_5_ ^ 2 - 2 y_73_ * y_5_ + 1 y_73_ ^ 2 ] >= 1212.75
quadratic_ranged_344_lb: [ 1 x_14_ ^ 2 - 2 x_73_ * x_14_ + 1 x_73_ ^ 2 + 1 y_14_ ^ 2 - 2 y_73_ * y_14_ + 1 y_73_ ^ 2 ] >= 6241.95
quadratic_ranged_345_lb: [ 1 x_36_ ^ 2 - 2 x_73_ * x_36_ + 1 x_73_ ^ 2 + 1 y_36_ ^ 2 - 2 y_73_ * y_36_ + 1 y_73_ ^ 2 ] >= 13389.75
quadratic_ranged_346_lb: [ 1 x_44_ ^ 2 - 2 x_73_ * x_44_ + 1 x_73_ ^ 2 + 1 y_44_ ^ 2 - 2 y_73_ * y_44_ + 1 y_73_ ^ 2 ] >= 2225.52
quadratic_ranged_347_lb: [ 1 x_56_ ^ 2 - 2 x_73_ * x_56_ + 1 x_73_ ^ 2 + 1 y_56_ ^ 2 - 2 y_73_ * y_56_ + 1 y_73_ ^ 2 ] >= 9699.03
quadratic_ranged_348_lb: [ 1 x_60_ ^ 2 - 2 x_73_ * x_60_ + 1 x_73_ ^ 2 + 1 y_60_ ^ 2 - 2 y_73_ * y_60_ + 1 y_73_ ^ 2 ] >= 7758.63
quadratic_ranged_349_lb: [ 1 x_63_ ^ 2 - 2 x_73_ * x_63_ + 1 x_73_ ^ 2 + 1 y_63_ ^ 2 - 2 y_73_ * y_63_ + 1 y_73_ ^ 2 ] >= 1570.1399999999999
quadratic_ranged_350_lb: [ 1 x_72_ ^ 2 - 2 x_73_ * x_72_ + 1 x_73_ ^ 2 + 1 y_72_ ^ 2 - 2 y_73_ * y_72_ + 1 y_73_ ^ 2 ] >= 3964.95
quadratic_ranged_351_lb: [ 1 x_4_ ^ 2 - 2 x_74_ * x_4_ + 1 x_74_ ^ 2 + 1 y_4_ ^ 2 - 2 y_74_ * y_4_ + 1 y_74_ ^ 2 ] >= 524.7
quadratic_ranged_352_lb: [ 1 x_73_ ^ 2 - 2 x_74_ * x_73_ + 1 x_74_ ^ 2 + 1 y_73_ ^ 2 - 2 y_74_ * y_73_ + 1 y_74_ ^ 2 ] >= 11583.99
quadratic_ranged_353_lb: [ 1 x_14_ ^ 2 - 2 x_75_ * x_14_ + 1 x_75_ ^ 2 + 1 y_14_ ^ 2 - 2 y_75_ * y_14_ + 1 y_75_ ^ 2 ] >= 6237.99
quadratic_ranged_354_lb: [ 1 x_51_ ^ 2 - 2 x_75_ * x_51_ + 1 x_75_ ^ 2 + 1 y_51_ ^ 2 - 2 y_75_ * y_51_ + 1 y_75_ ^ 2 ] >= 21341.43
quadratic_ranged_355_lb: [ 1 x_63_ ^ 2 - 2 x_75_ * x_63_ + 1 x_75_ ^ 2 + 1 y_63_ ^ 2 - 2 y_75_ * y_63_ + 1 y_75_ ^ 2 ] >= 10860.3
quadratic_ranged_356_lb: [ 1 x_74_ ^ 2 - 2 x_75_ * x_74_ + 1 x_75_ ^ 2 + 1 y_74_ ^ 2 - 2 y_75_ * y_74_ + 1 y_75_ ^ 2 ] >= 8499.15
quadratic_ranged_357_lb: [ 1 x_9_ ^ 2 - 2 x_76_ * x_9_ + 1 x_76_ ^ 2 + 1 y_9_ ^ 2 - 2 y_76_ * y_9_ + 1 y_76_ ^ 2 ] >= 11132.55
quadratic_ranged_358_lb: [ 1 x_36_ ^ 2 - 2 x_76_ * x_36_ + 1 x_76_ ^ 2 + 1 y_36_ ^ 2 - 2 y_76_ * y_36_ + 1 y_76_ ^ 2 ] >= 1533.51
quadratic_ranged_359_lb: [ 1 x_45_ ^ 2 - 2 x_76_ * x_45_ + 1 x_76_ ^ 2 + 1 y_45_ ^ 2 - 2 y_76_ * y_45_ + 1 y_76_ ^ 2 ] >= 22936.32
quadratic_ranged_360_lb: [ 1 x_46_ ^ 2 - 2 x_76_ * x_46_ + 1 x_76_ ^ 2 + 1 y_46_ ^ 2 - 2 y_76_ * y_46_ + 1 y_76_ ^ 2 ] >= 15547.95
quadratic_ranged_361_lb: [ 1 x_48_ ^ 2 - 2 x_76_ * x_48_ + 1 x_76_ ^ 2 + 1 y_48_ ^ 2 - 2 y_76_ * y_48_ + 1 y_76_ ^ 2 ] >= 13940.19
quadratic_ranged_362_lb: [ 1 x_56_ ^ 2 - 2 x_76_ * x_56_ + 1 x_76_ ^ 2 + 1 y_56_ ^ 2 - 2 y_76_ * y_56_ + 1 y_76_ ^ 2 ] >= 17785.35
quadratic_ranged_363_lb: [ 1 x_75_ ^ 2 - 2 x_76_ * x_75_ + 1 x_76_ ^ 2 + 1 y_75_ ^ 2 - 2 y_76_ * y_75_ + 1 y_76_ ^ 2 ] >= 1245.42
quadratic_ranged_364_lb: [ 1 x_1_ ^ 2 - 2 x_77_ * x_1_ + 1 x_77_ ^ 2 + 1 y_1_ ^ 2 - 2 y_77_ * y_1_ + 1 y_77_ ^ 2 ] >= 14741.1
quadratic_ranged_365_lb: [ 1 x_11_ ^ 2 - 2 x_77_ * x_11_ + 1 x_77_ ^ 2 + 1 y_11_ ^ 2 - 2 y_77_ * y_11_ + 1 y_77_ ^ 2 ] >= 4722.3
quadratic_ranged_366_lb: [ 1 x_15_ ^ 2 - 2 x_77_ * x_15_ + 1 x_77_ ^ 2 + 1 y_15_ ^ 2 - 2 y_77_ * y_15_ + 1 y_77_ ^ 2 ] >= 19606.95
quadratic_ranged_367_lb: [ 1 x_20_ ^ 2 - 2 x_77_ * x_20_ + 1 x_77_ ^ 2 + 1 y_20_ ^ 2 - 2 y_77_ * y_20_ + 1 y_77_ ^ 2 ] >= 6502.32
quadratic_ranged_368_lb: [ 1 x_34_ ^ 2 - 2 x_77_ * x_34_ + 1 x_77_ ^ 2 + 1 y_34_ ^ 2 - 2 y_77_ * y_34_ + 1 y_77_ ^ 2 ] >= 23096.7
quadratic_ranged_369_lb: [ 1 x_35_ ^ 2 - 2 x_77_ * x_35_ + 1 x_77_ ^ 2 + 1 y_35_ ^ 2 - 2 y_77_ * y_35_ + 1 y_77_ ^ 2 ] >= 11572.11
quadratic_ranged_370_lb: [ 1 x_38_ ^ 2 - 2 x_77_ * x_38_ + 1 x_77_ ^ 2 + 1 y_38_ ^ 2 - 2 y_77_ * y_38_ + 1 y_77_ ^ 2 ] >= 16229.07
quadratic_ranged_371_lb: [ 1 x_43_ ^ 2 - 2 x_77_ * x_43_ + 1 x_77_ ^ 2 + 1 y_43_ ^ 2 - 2 y_77_ * y_43_ + 1 y_77_ ^ 2 ] >= 14164.92
quadratic_ranged_372_lb: [ 1 x_44_ ^ 2 - 2 x_77_ * x_44_ + 1 x_77_ ^ 2 + 1 y_44_ ^ 2 - 2 y_77_ * y_44_ + 1 y_77_ ^ 2 ] >= 19357.47
quadratic_ranged_373_lb: [ 1 x_68_ ^ 2 - 2 x_77_ * x_68_ + 1 x_77_ ^ 2 + 1 y_68_ ^ 2 - 2 y_77_ * y_68_ + 1 y_77_ ^ 2 ] >= 18590.22
quadratic_ranged_374_lb: [ 1 x_76_ ^ 2 - 2 x_77_ * x_76_ + 1 x_77_ ^ 2 + 1 y_76_ ^ 2 - 2 y_77_ * y_76_ + 1 y_77_ ^ 2 ] >= 1248.39
quadratic_ranged_375_lb: [ 1 x_2_ ^ 2 - 2 x_78_ * x_2_ + 1 x_78_ ^ 2 + 1 y_2_ ^ 2 - 2 y_78_ * y_2_ + 1 y_78_ ^ 2 ] >= 26782.47
quadratic_ranged_376_lb: [ 1 x_9_ ^ 2 - 2 x_78_ * x_9_ + 1 x_78_ ^ 2 + 1 y_9_ ^ 2 - 2 y_78_ * y_9_ + 1 y_78_ ^ 2 ] >= 10141.56
quadratic_ranged_377_lb: [ 1 x_25_ ^ 2 - 2 x_78_ * x_25_ + 1 x_78_ ^ 2 + 1 y_25_ ^ 2 - 2 y_78_ * y_25_ + 1 y_78_ ^ 2 ] >= 56568.6
quadratic_ranged_378_lb: [ 1 x_29_ ^ 2 - 2 x_78_ * x_29_ + 1 x_78_ ^ 2 + 1 y_29_ ^ 2 - 2 y_78_ * y_29_ + 1 y_78_ ^ 2 ] >= 8815.95
quadratic_ranged_379_lb: [ 1 x_31_ ^ 2 - 2 x_78_ * x_31_ + 1 x_78_ ^ 2 + 1 y_31_ ^ 2 - 2 y_78_ * y_31_ + 1 y_78_ ^ 2 ] >= 21166.2
quadratic_ranged_380_lb: [ 1 x_77_ ^ 2 - 2 x_78_ * x_77_ + 1 x_78_ ^ 2 + 1 y_77_ ^ 2 - 2 y_78_ * y_77_ + 1 y_78_ ^ 2 ] >= 33996.6
quadratic_ranged_381_lb: [ 1 x_26_ ^ 2 - 2 x_79_ * x_26_ + 1 x_79_ ^ 2 + 1 y_26_ ^ 2 - 2 y_79_ * y_26_ + 1 y_79_ ^ 2 ] >= 17017.11
quadratic_ranged_382_lb: [ 1 x_34_ ^ 2 - 2 x_79_ * x_34_ + 1 x_79_ ^ 2 + 1 y_34_ ^ 2 - 2 y_79_ * y_34_ + 1 y_79_ ^ 2 ] >= 2289.87
quadratic_ranged_383_lb: [ 1 x_39_ ^ 2 - 2 x_79_ * x_39_ + 1 x_79_ ^ 2 + 1 y_39_ ^ 2 - 2 y_79_ * y_39_ + 1 y_79_ ^ 2 ] >= 3410.55
quadratic_ranged_384_lb: [ 1 x_50_ ^ 2 - 2 x_79_ * x_50_ + 1 x_79_ ^ 2 + 1 y_50_ ^ 2 - 2 y_79_ * y_50_ + 1 y_79_ ^ 2 ] >= 23057.1
quadratic_ranged_385_lb: [ 1 x_51_ ^ 2 - 2 x_79_ * x_51_ + 1 x_79_ ^ 2 + 1 y_51_ ^ 2 - 2 y_79_ * y_51_ + 1 y_79_ ^ 2 ] >= 488.07
quadratic_ranged_386_lb: [ 1 x_66_ ^ 2 - 2 x_79_ * x_66_ + 1 x_79_ ^ 2 + 1 y_66_ ^ 2 - 2 y_79_ * y_66_ + 1 y_79_ ^ 2 ] >= 6478.5599999999995
quadratic_ranged_387_lb: [ 1 x_71_ ^ 2 - 2 x_79_ * x_71_ + 1 x_79_ ^ 2 + 1 y_71_ ^ 2 - 2 y_79_ * y_71_ + 1 y_79_ ^ 2 ] >= 16760.7
quadratic_ranged_388_lb: [ 1 x_78_ ^ 2 - 2 x_79_ * x_78_ + 1 x_79_ ^ 2 + 1 y_78_ ^ 2 - 2 y_79_ * y_78_ + 1 y_79_ ^ 2 ] >= 5845.95
quadratic_ranged_389_lb: [ 1 x_20_ ^ 2 - 2 x_80_ * x_20_ + 1 x_80_ ^ 2 + 1 y_20_ ^ 2 - 2 y_80_ * y_20_ + 1 y_80_ ^ 2 ] >= 13119.48
quadratic_ranged_390_lb: [ 1 x_23_ ^ 2 - 2 x_80_ * x_23_ + 1 x_80_ ^ 2 + 1 y_23_ ^ 2 - 2 y_80_ * y_23_ + 1 y_80_ ^ 2 ] >= 9987.12
quadratic_ranged_391_lb: [ 1 x_27_ ^ 2 - 2 x_80_ * x_27_ + 1 x_80_ ^ 2 + 1 y_27_ ^ 2 - 2 y_80_ * y_27_ + 1 y_80_ ^ 2 ] >= 12379.95
quadratic_ranged_392_lb: [ 1 x_38_ ^ 2 - 2 x_80_ * x_38_ + 1 x_80_ ^ 2 + 1 y_38_ ^ 2 - 2 y_80_ * y_38_ + 1 y_80_ ^ 2 ] >= 13845.15
quadratic_ranged_393_lb: [ 1 x_40_ ^ 2 - 2 x_80_ * x_40_ + 1 x_80_ ^ 2 + 1 y_40_ ^ 2 - 2 y_80_ * y_40_ + 1 y_80_ ^ 2 ] >= 4375.8
quadratic_ranged_394_lb: [ 1 x_42_ ^ 2 - 2 x_80_ * x_42_ + 1 x_80_ ^ 2 + 1 y_42_ ^ 2 - 2 y_80_ * y_42_ + 1 y_80_ ^ 2 ] >= 34105.5
quadratic_ranged_395_lb: [ 1 x_70_ ^ 2 - 2 x_80_ * x_70_ + 1 x_80_ ^ 2 + 1 y_70_ ^ 2 - 2 y_80_ * y_70_ + 1 y_80_ ^ 2 ] >= 17069.579999999998
quadratic_ranged_396_lb: [ 1 x_73_ ^ 2 - 2 x_80_ * x_73_ + 1 x_80_ ^ 2 + 1 y_73_ ^ 2 - 2 y_80_ * y_73_ + 1 y_80_ ^ 2 ] >= 17131.95
quadratic_ranged_397_lb: [ 1 x_74_ ^ 2 - 2 x_80_ * x_74_ + 1 x_80_ ^ 2 + 1 y_74_ ^ 2 - 2 y_80_ * y_74_ + 1 y_80_ ^ 2 ] >= 19477.26
quadratic_ranged_398_lb: [ 1 x_79_ ^ 2 - 2 x_80_ * x_79_ + 1 x_80_ ^ 2 + 1 y_79_ ^ 2 - 2 y_80_ * y_79_ + 1 y_80_ ^ 2 ] >= 13627.35
quadratic_ranged_399_lb: [ 1 x_4_ ^ 2 - 2 x_81_ * x_4_ + 1 x_81_ ^ 2 + 1 y_4_ ^ 2 - 2 y_81_ * y_4_ + 1 y_81_ ^ 2 ] >= 13909.5
quadratic_ranged_400_lb: [ 1 x_7_ ^ 2 - 2 x_81_ * x_7_ + 1 x_81_ ^ 2 + 1 y_7_ ^ 2 - 2 y_81_ * y_7_ + 1 y_81_ ^ 2 ] >= 2676.96
quadratic_ranged_401_lb: [ 1 x_9_ ^ 2 - 2 x_81_ * x_9_ + 1 x_81_ ^ 2 + 1 y_9_ ^ 2 - 2 y_81_ * y_9_ + 1 y_81_ ^ 2 ] >= 5427.18
quadratic_ranged_402_lb: [ 1 x_14_ ^ 2 - 2 x_81_ * x_14_ + 1 x_81_ ^ 2 + 1 y_14_ ^ 2 - 2 y_81_ * y_14_ + 1 y_81_ ^ 2 ] >= 336.6
quadratic_ranged_403_lb: [ 1 x_28_ ^ 2 - 2 x_81_ * x_28_ + 1 x_81_ ^ 2 + 1 y_28_ ^ 2 - 2 y_81_ * y_28_ + 1 y_81_ ^ 2 ] >= 2795.7599999999998
quadratic_ranged_404_lb: [ 1 x_37_ ^ 2 - 2 x_81_ * x_37_ + 1 x_81_ ^ 2 + 1 y_37_ ^ 2 - 2 y_81_ * y_37_ + 1 y_81_ ^ 2 ] >= 19210.95
quadratic_ranged_405_lb: [ 1 x_40_ ^ 2 - 2 x_81_ * x_40_ + 1 x_81_ ^ 2 + 1 y_40_ ^ 2 - 2 y_81_ * y_40_ + 1 y_81_ ^ 2 ] >= 6258.78
quadratic_ranged_406_lb: [ 1 x_60_ ^ 2 - 2 x_81_ * x_60_ + 1 x_81_ ^ 2 + 1 y_60_ ^ 2 - 2 y_81_ * y_60_ + 1 y_81_ ^ 2 ] >= 1647.36
quadratic_ranged_407_lb: [ 1 x_66_ ^ 2 - 2 x_81_ * x_66_ + 1 x_81_ ^ 2 + 1 y_66_ ^ 2 - 2 y_81_ * y_66_ + 1 y_81_ ^ 2 ] >= 2582.91
quadratic_ranged_408_lb: [ 1 x_69_ ^ 2 - 2 x_81_ * x_69_ + 1 x_81_ ^ 2 + 1 y_69_ ^ 2 - 2 y_81_ * y_69_ + 1 y_81_ ^ 2 ] >= 717.75
quadratic_ranged_409_lb: [ 1 x_77_ ^ 2 - 2 x_81_ * x_77_ + 1 x_81_ ^ 2 + 1 y_77_ ^ 2 - 2 y_81_ * y_77_ + 1 y_81_ ^ 2 ] >= 4714.38
quadratic_ranged_410_lb: [ 1 x_78_ ^ 2 - 2 x_81_ * x_78_ + 1 x_81_ ^ 2 + 1 y_78_ ^ 2 - 2 y_81_ * y_78_ + 1 y_81_ ^ 2 ] >= 20958.3
quadratic_ranged_411_lb: [ 1 x_80_ ^ 2 - 2 x_81_ * x_80_ + 1 x_81_ ^ 2 + 1 y_80_ ^ 2 - 2 y_81_ * y_80_ + 1 y_81_ ^ 2 ] >= 2306.7
quadratic_ranged_412_lb: [ 1 x_2_ ^ 2 - 2 x_82_ * x_2_ + 1 x_82_ ^ 2 + 1 y_2_ ^ 2 - 2 y_82_ * y_2_ + 1 y_82_ ^ 2 ] >= 1578.06
quadratic_ranged_413_lb: [ 1 x_7_ ^ 2 - 2 x_82_ * x_7_ + 1 x_82_ ^ 2 + 1 y_7_ ^ 2 - 2 y_82_ * y_7_ + 1 y_82_ ^ 2 ] >= 3553.11
quadratic_ranged_414_lb: [ 1 x_10_ ^ 2 - 2 x_82_ * x_10_ + 1 x_82_ ^ 2 + 1 y_10_ ^ 2 - 2 y_82_ * y_10_ + 1 y_82_ ^ 2 ] >= 3821.4
quadratic_ranged_415_lb: [ 1 x_13_ ^ 2 - 2 x_82_ * x_13_ + 1 x_82_ ^ 2 + 1 y_13_ ^ 2 - 2 y_82_ * y_13_ + 1 y_82_ ^ 2 ] >= 26041.95
quadratic_ranged_416_lb: [ 1 x_15_ ^ 2 - 2 x_82_ * x_15_ + 1 x_82_ ^ 2 + 1 y_15_ ^ 2 - 2 y_82_ * y_15_ + 1 y_82_ ^ 2 ] >= 15517.26
quadratic_ranged_417_lb: [ 1 x_19_ ^ 2 - 2 x_82_ * x_19_ + 1 x_82_ ^ 2 + 1 y_19_ ^ 2 - 2 y_82_ * y_19_ + 1 y_82_ ^ 2 ] >= 19143.63
quadratic_ranged_418_lb: [ 1 x_25_ ^ 2 - 2 x_82_ * x_25_ + 1 x_82_ ^ 2 + 1 y_25_ ^ 2 - 2 y_82_ * y_25_ + 1 y_82_ ^ 2 ] >= 2317.59
quadratic_ranged_419_lb: [ 1 x_33_ ^ 2 - 2 x_82_ * x_33_ + 1 x_82_ ^ 2 + 1 y_33_ ^ 2 - 2 y_82_ * y_33_ + 1 y_82_ ^ 2 ] >= 43957.98
quadratic_ranged_420_lb: [ 1 x_36_ ^ 2 - 2 x_82_ * x_36_ + 1 x_82_ ^ 2 + 1 y_36_ ^ 2 - 2 y_82_ * y_36_ + 1 y_82_ ^ 2 ] >= 1291.95
quadratic_ranged_421_lb: [ 1 x_47_ ^ 2 - 2 x_82_ * x_47_ + 1 x_82_ ^ 2 + 1 y_47_ ^ 2 - 2 y_82_ * y_47_ + 1 y_82_ ^ 2 ] >= 35006.4
quadratic_ranged_422_lb: [ 1 x_61_ ^ 2 - 2 x_82_ * x_61_ + 1 x_82_ ^ 2 + 1 y_61_ ^ 2 - 2 y_82_ * y_61_ + 1 y_82_ ^ 2 ] >= 2478.96
quadratic_ranged_423_lb: [ 1 x_71_ ^ 2 - 2 x_82_ * x_71_ + 1 x_82_ ^ 2 + 1 y_71_ ^ 2 - 2 y_82_ * y_71_ + 1 y_82_ ^ 2 ] >= 906.84
quadratic_ranged_424_lb: [ 1 x_72_ ^ 2 - 2 x_82_ * x_72_ + 1 x_82_ ^ 2 + 1 y_72_ ^ 2 - 2 y_82_ * y_72_ + 1 y_82_ ^ 2 ] >= 20137.59
quadratic_ranged_425_lb: [ 1 x_81_ ^ 2 - 2 x_82_ * x_81_ + 1 x_82_ ^ 2 + 1 y_81_ ^ 2 - 2 y_82_ * y_81_ + 1 y_82_ ^ 2 ] >= 9675.27
quadratic_ranged_426_lb: [ 1 x_2_ ^ 2 - 2 x_83_ * x_2_ + 1 x_83_ ^ 2 + 1 y_2_ ^ 2 - 2 y_83_ * y_2_ + 1 y_83_ ^ 2 ] >= 28596.15
quadratic_ranged_427_lb: [ 1 x_19_ ^ 2 - 2 x_83_ * x_19_ + 1 x_83_ ^ 2 + 1 y_19_ ^ 2 - 2 y_83_ * y_19_ + 1 y_83_ ^ 2 ] >= 59954.4
quadratic_ranged_428_lb: [ 1 x_28_ ^ 2 - 2 x_83_ * x_28_ + 1 x_83_ ^ 2 + 1 y_28_ ^ 2 - 2 y_83_ * y_28_ + 1 y_83_ ^ 2 ] >= 14291.64
quadratic_ranged_429_lb: [ 1 x_37_ ^ 2 - 2 x_83_ * x_37_ + 1 x_83_ ^ 2 + 1 y_37_ ^ 2 - 2 y_83_ * y_37_ + 1 y_83_ ^ 2 ] >= 33823.35
quadratic_ranged_430_lb: [ 1 x_47_ ^ 2 - 2 x_83_ * x_47_ + 1 x_83_ ^ 2 + 1 y_47_ ^ 2 - 2 y_83_ * y_47_ + 1 y_83_ ^ 2 ] >= 23570.91
quadratic_ranged_431_lb: [ 1 x_62_ ^ 2 - 2 x_83_ * x_62_ + 1 x_83_ ^ 2 + 1 y_62_ ^ 2 - 2 y_83_ * y_62_ + 1 y_83_ ^ 2 ] >= 32228.46
quadratic_ranged_432_lb: [ 1 x_78_ ^ 2 - 2 x_83_ * x_78_ + 1 x_83_ ^ 2 + 1 y_78_ ^ 2 - 2 y_83_ * y_78_ + 1 y_83_ ^ 2 ] >= 24522.3
quadratic_ranged_433_lb: [ 1 x_82_ ^ 2 - 2 x_83_ * x_82_ + 1 x_83_ ^ 2 + 1 y_82_ ^ 2 - 2 y_83_ * y_82_ + 1 y_83_ ^ 2 ] >= 29297.07
quadratic_ranged_434_lb: [ 1 x_20_ ^ 2 - 2 x_84_ * x_20_ + 1 x_84_ ^ 2 + 1 y_20_ ^ 2 - 2 y_84_ * y_20_ + 1 y_84_ ^ 2 ] >= 12573.99
quadratic_ranged_435_lb: [ 1 x_25_ ^ 2 - 2 x_84_ * x_25_ + 1 x_84_ ^ 2 + 1 y_25_ ^ 2 - 2 y_84_ * y_25_ + 1 y_84_ ^ 2 ] >= 57048.75
quadratic_ranged_436_lb: [ 1 x_38_ ^ 2 - 2 x_84_ * x_38_ + 1 x_84_ ^ 2 + 1 y_38_ ^ 2 - 2 y_84_ * y_38_ + 1 y_84_ ^ 2 ] >= 12634.38
quadratic_ranged_437_lb: [ 1 x_41_ ^ 2 - 2 x_84_ * x_41_ + 1 x_84_ ^ 2 + 1 y_41_ ^ 2 - 2 y_84_ * y_41_ + 1 y_84_ ^ 2 ] >= 22243.32
quadratic_ranged_438_lb: [ 1 x_60_ ^ 2 - 2 x_84_ * x_60_ + 1 x_84_ ^ 2 + 1 y_60_ ^ 2 - 2 y_84_ * y_60_ + 1 y_84_ ^ 2 ] >= 27922.95
quadratic_ranged_439_lb: [ 1 x_68_ ^ 2 - 2 x_84_ * x_68_ + 1 x_84_ ^ 2 + 1 y_68_ ^ 2 - 2 y_84_ * y_68_ + 1 y_84_ ^ 2 ] >= 39387.15
quadratic_ranged_440_lb: [ 1 x_73_ ^ 2 - 2 x_84_ * x_73_ + 1 x_84_ ^ 2 + 1 y_73_ ^ 2 - 2 y_84_ * y_73_ + 1 y_84_ ^ 2 ] >= 6672.6
quadratic_ranged_441_lb: [ 1 x_80_ ^ 2 - 2 x_84_ * x_80_ + 1 x_84_ ^ 2 + 1 y_80_ ^ 2 - 2 y_84_ * y_80_ + 1 y_84_ ^ 2 ] >= 42535.35
quadratic_ranged_442_lb: [ 1 x_83_ ^ 2 - 2 x_84_ * x_83_ + 1 x_84_ ^ 2 + 1 y_83_ ^ 2 - 2 y_84_ * y_83_ + 1 y_84_ ^ 2 ] >= 36080.55
quadratic_ranged_443_lb: [ 1 x_2_ ^ 2 - 2 x_85_ * x_2_ + 1 x_85_ ^ 2 + 1 y_2_ ^ 2 - 2 y_85_ * y_2_ + 1 y_85_ ^ 2 ] >= 5430.15
quadratic_ranged_444_lb: [ 1 x_8_ ^ 2 - 2 x_85_ * x_8_ + 1 x_85_ ^ 2 + 1 y_8_ ^ 2 - 2 y_85_ * y_8_ + 1 y_85_ ^ 2 ] >= 29121.84
quadratic_ranged_445_lb: [ 1 x_16_ ^ 2 - 2 x_85_ * x_16_ + 1 x_85_ ^ 2 + 1 y_16_ ^ 2 - 2 y_85_ * y_16_ + 1 y_85_ ^ 2 ] >= 15508.35
quadratic_ranged_446_lb: [ 1 x_66_ ^ 2 - 2 x_85_ * x_66_ + 1 x_85_ ^ 2 + 1 y_66_ ^ 2 - 2 y_85_ * y_66_ + 1 y_85_ ^ 2 ] >= 46277.55
quadratic_ranged_447_lb: [ 1 x_70_ ^ 2 - 2 x_85_ * x_70_ + 1 x_85_ ^ 2 + 1 y_70_ ^ 2 - 2 y_85_ * y_70_ + 1 y_85_ ^ 2 ] >= 10789.02
quadratic_ranged_448_lb: [ 1 x_81_ ^ 2 - 2 x_85_ * x_81_ + 1 x_85_ ^ 2 + 1 y_81_ ^ 2 - 2 y_85_ * y_81_ + 1 y_85_ ^ 2 ] >= 27666.54
quadratic_ranged_449_lb: [ 1 x_84_ ^ 2 - 2 x_85_ * x_84_ + 1 x_85_ ^ 2 + 1 y_84_ ^ 2 - 2 y_85_ * y_84_ + 1 y_85_ ^ 2 ] >= 25447.95
quadratic_ranged_450_lb: [ 1 x_16_ ^ 2 - 2 x_86_ * x_16_ + 1 x_86_ ^ 2 + 1 y_16_ ^ 2 - 2 y_86_ * y_16_ + 1 y_86_ ^ 2 ] >= 8986.23
quadratic_ranged_451_lb: [ 1 x_50_ ^ 2 - 2 x_86_ * x_50_ + 1 x_86_ ^ 2 + 1 y_50_ ^ 2 - 2 y_86_ * y_50_ + 1 y_86_ ^ 2 ] >= 26738.91
quadratic_ranged_452_lb: [ 1 x_52_ ^ 2 - 2 x_86_ * x_52_ + 1 x_86_ ^ 2 + 1 y_52_ ^ 2 - 2 y_86_ * y_52_ + 1 y_86_ ^ 2 ] >= 25447.95
quadratic_ranged_453_lb: [ 1 x_62_ ^ 2 - 2 x_86_ * x_62_ + 1 x_86_ ^ 2 + 1 y_62_ ^ 2 - 2 y_86_ * y_62_ + 1 y_86_ ^ 2 ] >= 26769.6
quadratic_ranged_454_lb: [ 1 x_65_ ^ 2 - 2 x_86_ * x_65_ + 1 x_86_ ^ 2 + 1 y_65_ ^ 2 - 2 y_86_ * y_65_ + 1 y_86_ ^ 2 ] >= 11929.5
quadratic_ranged_455_lb: [ 1 x_71_ ^ 2 - 2 x_86_ * x_71_ + 1 x_86_ ^ 2 + 1 y_71_ ^ 2 - 2 y_86_ * y_71_ + 1 y_86_ ^ 2 ] >= 20640.51
quadratic_ranged_456_lb: [ 1 x_74_ ^ 2 - 2 x_86_ * x_74_ + 1 x_86_ ^ 2 + 1 y_74_ ^ 2 - 2 y_86_ * y_74_ + 1 y_86_ ^ 2 ] >= 29654.46
quadratic_ranged_457_lb: [ 1 x_79_ ^ 2 - 2 x_86_ * x_79_ + 1 x_86_ ^ 2 + 1 y_79_ ^ 2 - 2 y_86_ * y_79_ + 1 y_86_ ^ 2 ] >= 202.95
quadratic_ranged_458_lb: [ 1 x_85_ ^ 2 - 2 x_86_ * x_85_ + 1 x_86_ ^ 2 + 1 y_85_ ^ 2 - 2 y_86_ * y_85_ + 1 y_86_ ^ 2 ] >= 32254.2
quadratic_ranged_459_lb: [ 1 x_10_ ^ 2 - 2 x_87_ * x_10_ + 1 x_87_ ^ 2 + 1 y_10_ ^ 2 - 2 y_87_ * y_10_ + 1 y_87_ ^ 2 ] >= 5541.03
quadratic_ranged_460_lb: [ 1 x_44_ ^ 2 - 2 x_87_ * x_44_ + 1 x_87_ ^ 2 + 1 y_44_ ^ 2 - 2 y_87_ * y_44_ + 1 y_87_ ^ 2 ] >= 2642.31
quadratic_ranged_461_lb: [ 1 x_57_ ^ 2 - 2 x_87_ * x_57_ + 1 x_87_ ^ 2 + 1 y_57_ ^ 2 - 2 y_87_ * y_57_ + 1 y_87_ ^ 2 ] >= 12547.26
quadratic_ranged_462_lb: [ 1 x_67_ ^ 2 - 2 x_87_ * x_67_ + 1 x_87_ ^ 2 + 1 y_67_ ^ 2 - 2 y_87_ * y_67_ + 1 y_87_ ^ 2 ] >= 1540.44
quadratic_ranged_463_lb: [ 1 x_68_ ^ 2 - 2 x_87_ * x_68_ + 1 x_87_ ^ 2 + 1 y_68_ ^ 2 - 2 y_87_ * y_68_ + 1 y_87_ ^ 2 ] >= 56938.86
quadratic_ranged_464_lb: [ 1 x_86_ ^ 2 - 2 x_87_ * x_86_ + 1 x_87_ ^ 2 + 1 y_86_ ^ 2 - 2 y_87_ * y_86_ + 1 y_87_ ^ 2 ] >= 26726.04
quadratic_ranged_465_lb: [ 1 x_10_ ^ 2 - 2 x_88_ * x_10_ + 1 x_88_ ^ 2 + 1 y_10_ ^ 2 - 2 y_88_ * y_10_ + 1 y_88_ ^ 2 ] >= 30358.35
quadratic_ranged_466_lb: [ 1 x_34_ ^ 2 - 2 x_88_ * x_34_ + 1 x_88_ ^ 2 + 1 y_34_ ^ 2 - 2 y_88_ * y_34_ + 1 y_88_ ^ 2 ] >= 15548.94
quadratic_ranged_467_lb: [ 1 x_43_ ^ 2 - 2 x_88_ * x_43_ + 1 x_88_ ^ 2 + 1 y_43_ ^ 2 - 2 y_88_ * y_43_ + 1 y_88_ ^ 2 ] >= 21641.4
quadratic_ranged_468_lb: [ 1 x_62_ ^ 2 - 2 x_88_ * x_62_ + 1 x_88_ ^ 2 + 1 y_62_ ^ 2 - 2 y_88_ * y_62_ + 1 y_88_ ^ 2 ] >= 24255
quadratic_ranged_469_lb: [ 1 x_77_ ^ 2 - 2 x_88_ * x_77_ + 1 x_88_ ^ 2 + 1 y_77_ ^ 2 - 2 y_88_ * y_77_ + 1 y_88_ ^ 2 ] >= 13574.88
quadratic_ranged_470_lb: [ 1 x_87_ ^ 2 - 2 x_88_ * x_87_ + 1 x_88_ ^ 2 + 1 y_87_ ^ 2 - 2 y_88_ * y_87_ + 1 y_88_ ^ 2 ] >= 46134
quadratic_ranged_471_lb: [ 1 x_1_ ^ 2 - 2 x_89_ * x_1_ + 1 x_89_ ^ 2 + 1 y_1_ ^ 2 - 2 y_89_ * y_1_ + 1 y_89_ ^ 2 ] >= 111.87
quadratic_ranged_472_lb: [ 1 x_28_ ^ 2 - 2 x_89_ * x_28_ + 1 x_89_ ^ 2 + 1 y_28_ ^ 2 - 2 y_89_ * y_28_ + 1 y_89_ ^ 2 ] >= 9845.55
quadratic_ranged_473_lb: [ 1 x_34_ ^ 2 - 2 x_89_ * x_34_ + 1 x_89_ ^ 2 + 1 y_34_ ^ 2 - 2 y_89_ * y_34_ + 1 y_89_ ^ 2 ] >= 8043.75
quadratic_ranged_474_lb: [ 1 x_41_ ^ 2 - 2 x_89_ * x_41_ + 1 x_89_ ^ 2 + 1 y_41_ ^ 2 - 2 y_89_ * y_41_ + 1 y_89_ ^ 2 ] >= 24841.079999999998
quadratic_ranged_475_lb: [ 1 x_74_ ^ 2 - 2 x_89_ * x_74_ + 1 x_89_ ^ 2 + 1 y_74_ ^ 2 - 2 y_89_ * y_74_ + 1 y_89_ ^ 2 ] >= 30085.11
quadratic_ranged_476_lb: [ 1 x_80_ ^ 2 - 2 x_89_ * x_80_ + 1 x_89_ ^ 2 + 1 y_80_ ^ 2 - 2 y_89_ * y_80_ + 1 y_89_ ^ 2 ] >= 8415.99
quadratic_ranged_477_lb: [ 1 x_88_ ^ 2 - 2 x_89_ * x_88_ + 1 x_89_ ^ 2 + 1 y_88_ ^ 2 - 2 y_89_ * y_88_ + 1 y_89_ ^ 2 ] >= 1228.59
quadratic_ranged_478_lb: [ 1 x_4_ ^ 2 - 2 x_90_ * x_4_ + 1 x_90_ ^ 2 + 1 y_4_ ^ 2 - 2 y_90_ * y_4_ + 1 y_90_ ^ 2 ] >= 22005.72
quadratic_ranged_479_lb: [ 1 x_15_ ^ 2 - 2 x_90_ * x_15_ + 1 x_90_ ^ 2 + 1 y_15_ ^ 2 - 2 y_90_ * y_15_ + 1 y_90_ ^ 2 ] >= 27875.43
quadratic_ranged_480_lb: [ 1 x_25_ ^ 2 - 2 x_90_ * x_25_ + 1 x_90_ ^ 2 + 1 y_25_ ^ 2 - 2 y_90_ * y_25_ + 1 y_90_ ^ 2 ] >= 28943.64
quadratic_ranged_481_lb: [ 1 x_34_ ^ 2 - 2 x_90_ * x_34_ + 1 x_90_ ^ 2 + 1 y_34_ ^ 2 - 2 y_90_ * y_34_ + 1 y_90_ ^ 2 ] >= 5015.34
quadratic_ranged_482_lb: [ 1 x_41_ ^ 2 - 2 x_90_ * x_41_ + 1 x_90_ ^ 2 + 1 y_41_ ^ 2 - 2 y_90_ * y_41_ + 1 y_90_ ^ 2 ] >= 22715.55
quadratic_ranged_483_lb: [ 1 x_57_ ^ 2 - 2 x_90_ * x_57_ + 1 x_90_ ^ 2 + 1 y_57_ ^ 2 - 2 y_90_ * y_57_ + 1 y_90_ ^ 2 ] >= 6591.42
quadratic_ranged_484_lb: [ 1 x_69_ ^ 2 - 2 x_90_ * x_69_ + 1 x_90_ ^ 2 + 1 y_69_ ^ 2 - 2 y_90_ * y_69_ + 1 y_90_ ^ 2 ] >= 4883.67
quadratic_ranged_485_lb: [ 1 x_71_ ^ 2 - 2 x_90_ * x_71_ + 1 x_90_ ^ 2 + 1 y_71_ ^ 2 - 2 y_90_ * y_71_ + 1 y_90_ ^ 2 ] >= 18616.95
quadratic_ranged_486_lb: [ 1 x_79_ ^ 2 - 2 x_90_ * x_79_ + 1 x_90_ ^ 2 + 1 y_79_ ^ 2 - 2 y_90_ * y_79_ + 1 y_90_ ^ 2 ] >= 587.07
quadratic_ranged_487_lb: [ 1 x_81_ ^ 2 - 2 x_90_ * x_81_ + 1 x_90_ ^ 2 + 1 y_81_ ^ 2 - 2 y_90_ * y_81_ + 1 y_90_ ^ 2 ] >= 3185.82
quadratic_ranged_488_lb: [ 1 x_84_ ^ 2 - 2 x_90_ * x_84_ + 1 x_90_ ^ 2 + 1 y_84_ ^ 2 - 2 y_90_ * y_84_ + 1 y_90_ ^ 2 ] >= 15722.19
quadratic_ranged_489_lb: [ 1 x_89_ ^ 2 - 2 x_90_ * x_89_ + 1 x_90_ ^ 2 + 1 y_89_ ^ 2 - 2 y_90_ * y_89_ + 1 y_90_ ^ 2 ] >= 357.39
quadratic_ranged_490_lb: [ 1 x_11_ ^ 2 - 2 x_91_ * x_11_ + 1 x_91_ ^ 2 + 1 y_11_ ^ 2 - 2 y_91_ * y_11_ + 1 y_91_ ^ 2 ] >= 1390.95
quadratic_ranged_491_lb: [ 1 x_26_ ^ 2 - 2 x_91_ * x_26_ + 1 x_91_ ^ 2 + 1 y_26_ ^ 2 - 2 y_91_ * y_26_ + 1 y_91_ ^ 2 ] >= 5014.35
quadratic_ranged_492_lb: [ 1 x_59_ ^ 2 - 2 x_91_ * x_59_ + 1 x_91_ ^ 2 + 1 y_59_ ^ 2 - 2 y_91_ * y_59_ + 1 y_91_ ^ 2 ] >= 4239.18
quadratic_ranged_493_lb: [ 1 x_62_ ^ 2 - 2 x_91_ * x_62_ + 1 x_91_ ^ 2 + 1 y_62_ ^ 2 - 2 y_91_ * y_62_ + 1 y_91_ ^ 2 ] >= 6455.79
quadratic_ranged_494_lb: [ 1 x_69_ ^ 2 - 2 x_91_ * x_69_ + 1 x_91_ ^ 2 + 1 y_69_ ^ 2 - 2 y_91_ * y_69_ + 1 y_91_ ^ 2 ] >= 3542.22
quadratic_ranged_495_lb: [ 1 x_70_ ^ 2 - 2 x_91_ * x_70_ + 1 x_91_ ^ 2 + 1 y_70_ ^ 2 - 2 y_91_ * y_70_ + 1 y_91_ ^ 2 ] >= 5156.91
quadratic_ranged_496_lb: [ 1 x_89_ ^ 2 - 2 x_91_ * x_89_ + 1 x_91_ ^ 2 + 1 y_89_ ^ 2 - 2 y_91_ * y_89_ + 1 y_91_ ^ 2 ] >= 4866.84
quadratic_ranged_497_lb: [ 1 x_90_ ^ 2 - 2 x_91_ * x_90_ + 1 x_91_ ^ 2 + 1 y_90_ ^ 2 - 2 y_91_ * y_90_ + 1 y_91_ ^ 2 ] >= 5073.75
quadratic_ranged_498_lb: [ 1 x_1_ ^ 2 - 2 x_92_ * x_1_ + 1 x_92_ ^ 2 + 1 y_1_ ^ 2 - 2 y_92_ * y_1_ + 1 y_92_ ^ 2 ] >= 18315
quadratic_ranged_499_lb: [ 1 x_14_ ^ 2 - 2 x_92_ * x_14_ + 1 x_92_ ^ 2 + 1 y_14_ ^ 2 - 2 y_92_ * y_14_ + 1 y_92_ ^ 2 ] >= 8086.32
quadratic_ranged_500_lb: [ 1 x_22_ ^ 2 - 2 x_92_ * x_22_ + 1 x_92_ ^ 2 + 1 y_22_ ^ 2 - 2 y_92_ * y_22_ + 1 y_92_ ^ 2 ] >= 5068.8
quadratic_ranged_501_lb: [ 1 x_33_ ^ 2 - 2 x_92_ * x_33_ + 1 x_92_ ^ 2 + 1 y_33_ ^ 2 - 2 y_92_ * y_33_ + 1 y_92_ ^ 2 ] >= 49267.35
quadratic_ranged_502_lb: [ 1 x_39_ ^ 2 - 2 x_92_ * x_39_ + 1 x_92_ ^ 2 + 1 y_39_ ^ 2 - 2 y_92_ * y_39_ + 1 y_92_ ^ 2 ] >= 6496.38
quadratic_ranged_503_lb: [ 1 x_43_ ^ 2 - 2 x_92_ * x_43_ + 1 x_92_ ^ 2 + 1 y_43_ ^ 2 - 2 y_92_ * y_43_ + 1 y_92_ ^ 2 ] >= 19564.38
quadratic_ranged_504_lb: [ 1 x_51_ ^ 2 - 2 x_92_ * x_51_ + 1 x_92_ ^ 2 + 1 y_51_ ^ 2 - 2 y_92_ * y_51_ + 1 y_92_ ^ 2 ] >= 25225.2
quadratic_ranged_505_lb: [ 1 x_58_ ^ 2 - 2 x_92_ * x_58_ + 1 x_92_ ^ 2 + 1 y_58_ ^ 2 - 2 y_92_ * y_58_ + 1 y_92_ ^ 2 ] >= 20839.5
quadratic_ranged_506_lb: [ 1 x_69_ ^ 2 - 2 x_92_ * x_69_ + 1 x_92_ ^ 2 + 1 y_69_ ^ 2 - 2 y_92_ * y_69_ + 1 y_92_ ^ 2 ] >= 7691.3099999999995
quadratic_ranged_507_lb: [ 1 x_78_ ^ 2 - 2 x_92_ * x_78_ + 1 x_92_ ^ 2 + 1 y_78_ ^ 2 - 2 y_92_ * y_78_ + 1 y_92_ ^ 2 ] >= 41756.22
quadratic_ranged_508_lb: [ 1 x_81_ ^ 2 - 2 x_92_ * x_81_ + 1 x_92_ ^ 2 + 1 y_81_ ^ 2 - 2 y_92_ * y_81_ + 1 y_92_ ^ 2 ] >= 6419.16
quadratic_ranged_509_lb: [ 1 x_90_ ^ 2 - 2 x_92_ * x_90_ + 1 x_92_ ^ 2 + 1 y_90_ ^ 2 - 2 y_92_ * y_90_ + 1 y_92_ ^ 2 ] >= 17711.1
quadratic_ranged_510_lb: [ 1 x_91_ ^ 2 - 2 x_92_ * x_91_ + 1 x_92_ ^ 2 + 1 y_91_ ^ 2 - 2 y_92_ * y_91_ + 1 y_92_ ^ 2 ] >= 4321.35
quadratic_ranged_511_lb: [ 1 x_8_ ^ 2 - 2 x_93_ * x_8_ + 1 x_93_ ^ 2 + 1 y_8_ ^ 2 - 2 y_93_ * y_8_ + 1 y_93_ ^ 2 ] >= 26509.23
quadratic_ranged_512_lb: [ 1 x_14_ ^ 2 - 2 x_93_ * x_14_ + 1 x_93_ ^ 2 + 1 y_14_ ^ 2 - 2 y_93_ * y_14_ + 1 y_93_ ^ 2 ] >= 9497.07
quadratic_ranged_513_lb: [ 1 x_16_ ^ 2 - 2 x_93_ * x_16_ + 1 x_93_ ^ 2 + 1 y_16_ ^ 2 - 2 y_93_ * y_16_ + 1 y_93_ ^ 2 ] >= 14741.1
quadratic_ranged_514_lb: [ 1 x_26_ ^ 2 - 2 x_93_ * x_26_ + 1 x_93_ ^ 2 + 1 y_26_ ^ 2 - 2 y_93_ * y_26_ + 1 y_93_ ^ 2 ] >= 25903.35
quadratic_ranged_515_lb: [ 1 x_33_ ^ 2 - 2 x_93_ * x_33_ + 1 x_93_ ^ 2 + 1 y_33_ ^ 2 - 2 y_93_ * y_33_ + 1 y_93_ ^ 2 ] >= 3708.54
quadratic_ranged_516_lb: [ 1 x_44_ ^ 2 - 2 x_93_ * x_44_ + 1 x_93_ ^ 2 + 1 y_44_ ^ 2 - 2 y_93_ * y_44_ + 1 y_93_ ^ 2 ] >= 10527.66
quadratic_ranged_517_lb: [ 1 x_45_ ^ 2 - 2 x_93_ * x_45_ + 1 x_93_ ^ 2 + 1 y_45_ ^ 2 - 2 y_93_ * y_45_ + 1 y_93_ ^ 2 ] >= 25977.6
quadratic_ranged_518_lb: [ 1 x_59_ ^ 2 - 2 x_93_ * x_59_ + 1 x_93_ ^ 2 + 1 y_59_ ^ 2 - 2 y_93_ * y_59_ + 1 y_93_ ^ 2 ] >= 15998.4
quadratic_ranged_519_lb: [ 1 x_73_ ^ 2 - 2 x_93_ * x_73_ + 1 x_93_ ^ 2 + 1 y_73_ ^ 2 - 2 y_93_ * y_73_ + 1 y_93_ ^ 2 ] >= 5617.26
quadratic_ranged_520_lb: [ 1 x_92_ ^ 2 - 2 x_93_ * x_92_ + 1 x_93_ ^ 2 + 1 y_92_ ^ 2 - 2 y_93_ * y_92_ + 1 y_93_ ^ 2 ] >= 32271.03
quadratic_ranged_521_lb: [ 1 x_11_ ^ 2 - 2 x_94_ * x_11_ + 1 x_94_ ^ 2 + 1 y_11_ ^ 2 - 2 y_94_ * y_11_ + 1 y_94_ ^ 2 ] >= 3732.3
quadratic_ranged_522_lb: [ 1 x_21_ ^ 2 - 2 x_94_ * x_21_ + 1 x_94_ ^ 2 + 1 y_21_ ^ 2 - 2 y_94_ * y_21_ + 1 y_94_ ^ 2 ] >= 3425.4
quadratic_ranged_523_lb: [ 1 x_36_ ^ 2 - 2 x_94_ * x_36_ + 1 x_94_ ^ 2 + 1 y_36_ ^ 2 - 2 y_94_ * y_36_ + 1 y_94_ ^ 2 ] >= 30486.06
quadratic_ranged_524_lb: [ 1 x_45_ ^ 2 - 2 x_94_ * x_45_ + 1 x_94_ ^ 2 + 1 y_45_ ^ 2 - 2 y_94_ * y_45_ + 1 y_94_ ^ 2 ] >= 38709.99
quadratic_ranged_525_lb: [ 1 x_76_ ^ 2 - 2 x_94_ * x_76_ + 1 x_94_ ^ 2 + 1 y_76_ ^ 2 - 2 y_94_ * y_76_ + 1 y_94_ ^ 2 ] >= 24881.67
quadratic_ranged_526_lb: [ 1 x_87_ ^ 2 - 2 x_94_ * x_87_ + 1 x_94_ ^ 2 + 1 y_87_ ^ 2 - 2 y_94_ * y_87_ + 1 y_94_ ^ 2 ] >= 35263.8
quadratic_ranged_527_lb: [ 1 x_93_ ^ 2 - 2 x_94_ * x_93_ + 1 x_94_ ^ 2 + 1 y_93_ ^ 2 - 2 y_94_ * y_93_ + 1 y_94_ ^ 2 ] >= 5430.15
quadratic_ranged_528_lb: [ 1 x_45_ ^ 2 - 2 x_95_ * x_45_ + 1 x_95_ ^ 2 + 1 y_45_ ^ 2 - 2 y_95_ * y_45_ + 1 y_95_ ^ 2 ] >= 594.99
quadratic_ranged_529_lb: [ 1 x_48_ ^ 2 - 2 x_95_ * x_48_ + 1 x_95_ ^ 2 + 1 y_48_ ^ 2 - 2 y_95_ * y_48_ + 1 y_95_ ^ 2 ] >= 50042.52
quadratic_ranged_530_lb: [ 1 x_63_ ^ 2 - 2 x_95_ * x_63_ + 1 x_95_ ^ 2 + 1 y_63_ ^ 2 - 2 y_95_ * y_63_ + 1 y_95_ ^ 2 ] >= 25420.23
quadratic_ranged_531_lb: [ 1 x_69_ ^ 2 - 2 x_95_ * x_69_ + 1 x_95_ ^ 2 + 1 y_69_ ^ 2 - 2 y_95_ * y_69_ + 1 y_95_ ^ 2 ] >= 51350.31
quadratic_ranged_532_lb: [ 1 x_80_ ^ 2 - 2 x_95_ * x_80_ + 1 x_95_ ^ 2 + 1 y_80_ ^ 2 - 2 y_95_ * y_80_ + 1 y_95_ ^ 2 ] >= 47046.78
quadratic_ranged_533_lb: [ 1 x_84_ ^ 2 - 2 x_95_ * x_84_ + 1 x_95_ ^ 2 + 1 y_84_ ^ 2 - 2 y_95_ * y_84_ + 1 y_95_ ^ 2 ] >= 21392.91
quadratic_ranged_534_lb: [ 1 x_93_ ^ 2 - 2 x_95_ * x_93_ + 1 x_95_ ^ 2 + 1 y_93_ ^ 2 - 2 y_95_ * y_93_ + 1 y_95_ ^ 2 ] >= 34350.03
quadratic_ranged_535_lb: [ 1 x_94_ ^ 2 - 2 x_95_ * x_94_ + 1 x_95_ ^ 2 + 1 y_94_ ^ 2 - 2 y_95_ * y_94_ + 1 y_95_ ^ 2 ] >= 47672.46
quadratic_ranged_536_lb: [ 1 x_17_ ^ 2 - 2 x_96_ * x_17_ + 1 x_96_ ^ 2 + 1 y_17_ ^ 2 - 2 y_96_ * y_17_ + 1 y_96_ ^ 2 ] >= 7707.15
quadratic_ranged_537_lb: [ 1 x_21_ ^ 2 - 2 x_96_ * x_21_ + 1 x_96_ ^ 2 + 1 y_21_ ^ 2 - 2 y_96_ * y_21_ + 1 y_96_ ^ 2 ] >= 7716.0599999999995
quadratic_ranged_538_lb: [ 1 x_48_ ^ 2 - 2 x_96_ * x_48_ + 1 x_96_ ^ 2 + 1 y_48_ ^ 2 - 2 y_96_ * y_48_ + 1 y_96_ ^ 2 ] >= 16635.96
quadratic_ranged_539_lb: [ 1 x_50_ ^ 2 - 2 x_96_ * x_50_ + 1 x_96_ ^ 2 + 1 y_50_ ^ 2 - 2 y_96_ * y_50_ + 1 y_96_ ^ 2 ] >= 4123.35
quadratic_ranged_540_lb: [ 1 x_54_ ^ 2 - 2 x_96_ * x_54_ + 1 x_96_ ^ 2 + 1 y_54_ ^ 2 - 2 y_96_ * y_54_ + 1 y_96_ ^ 2 ] >= 20948.4
quadratic_ranged_541_lb: [ 1 x_69_ ^ 2 - 2 x_96_ * x_69_ + 1 x_96_ ^ 2 + 1 y_69_ ^ 2 - 2 y_96_ * y_69_ + 1 y_96_ ^ 2 ] >= 17052.75
quadratic_ranged_542_lb: [ 1 x_81_ ^ 2 - 2 x_96_ * x_81_ + 1 x_96_ ^ 2 + 1 y_81_ ^ 2 - 2 y_96_ * y_81_ + 1 y_96_ ^ 2 ] >= 11583
quadratic_ranged_543_lb: [ 1 x_85_ ^ 2 - 2 x_96_ * x_85_ + 1 x_96_ ^ 2 + 1 y_85_ ^ 2 - 2 y_96_ * y_85_ + 1 y_96_ ^ 2 ] >= 3787.74
quadratic_ranged_544_lb: [ 1 x_89_ ^ 2 - 2 x_96_ * x_89_ + 1 x_96_ ^ 2 + 1 y_89_ ^ 2 - 2 y_96_ * y_89_ + 1 y_96_ ^ 2 ] >= 19258.47
quadratic_ranged_545_lb: [ 1 x_91_ ^ 2 - 2 x_96_ * x_91_ + 1 x_96_ ^ 2 + 1 y_91_ ^ 2 - 2 y_96_ * y_91_ + 1 y_96_ ^ 2 ] >= 5358.87
quadratic_ranged_546_lb: [ 1 x_95_ ^ 2 - 2 x_96_ * x_95_ + 1 x_96_ ^ 2 + 1 y_95_ ^ 2 - 2 y_96_ * y_95_ + 1 y_96_ ^ 2 ] >= 11190.96
quadratic_ranged_547_lb: [ 1 x_10_ ^ 2 - 2 x_97_ * x_10_ + 1 x_97_ ^ 2 + 1 y_10_ ^ 2 - 2 y_97_ * y_10_ + 1 y_97_ ^ 2 ] >= 9116.91
quadratic_ranged_548_lb: [ 1 x_21_ ^ 2 - 2 x_97_ * x_21_ + 1 x_97_ ^ 2 + 1 y_21_ ^ 2 - 2 y_97_ * y_21_ + 1 y_97_ ^ 2 ] >= 14073.84
quadratic_ranged_549_lb: [ 1 x_30_ ^ 2 - 2 x_97_ * x_30_ + 1 x_97_ ^ 2 + 1 y_30_ ^ 2 - 2 y_97_ * y_30_ + 1 y_97_ ^ 2 ] >= 26631
quadratic_ranged_550_lb: [ 1 x_50_ ^ 2 - 2 x_97_ * x_50_ + 1 x_97_ ^ 2 + 1 y_50_ ^ 2 - 2 y_97_ * y_50_ + 1 y_97_ ^ 2 ] >= 4008.5099999999998
quadratic_ranged_551_lb: [ 1 x_57_ ^ 2 - 2 x_97_ * x_57_ + 1 x_97_ ^ 2 + 1 y_57_ ^ 2 - 2 y_97_ * y_57_ + 1 y_97_ ^ 2 ] >= 5846.94
quadratic_ranged_552_lb: [ 1 x_94_ ^ 2 - 2 x_97_ * x_94_ + 1 x_97_ ^ 2 + 1 y_94_ ^ 2 - 2 y_97_ * y_94_ + 1 y_97_ ^ 2 ] >= 26520.12
quadratic_ranged_553_lb: [ 1 x_96_ ^ 2 - 2 x_97_ * x_96_ + 1 x_97_ ^ 2 + 1 y_96_ ^ 2 - 2 y_97_ * y_96_ + 1 y_97_ ^ 2 ] >= 10598.94
quadratic_ranged_554_lb: [ 1 x_35_ ^ 2 - 2 x_98_ * x_35_ + 1 x_98_ ^ 2 + 1 y_35_ ^ 2 - 2 y_98_ * y_35_ + 1 y_98_ ^ 2 ] >= 6210.2699999999995
quadratic_ranged_555_lb: [ 1 x_42_ ^ 2 - 2 x_98_ * x_42_ + 1 x_98_ ^ 2 + 1 y_42_ ^ 2 - 2 y_98_ * y_42_ + 1 y_98_ ^ 2 ] >= 14097.6
quadratic_ranged_556_lb: [ 1 x_46_ ^ 2 - 2 x_98_ * x_46_ + 1 x_98_ ^ 2 + 1 y_46_ ^ 2 - 2 y_98_ * y_46_ + 1 y_98_ ^ 2 ] >= 2110.68
quadratic_ranged_557_lb: [ 1 x_48_ ^ 2 - 2 x_98_ * x_48_ + 1 x_98_ ^ 2 + 1 y_48_ ^ 2 - 2 y_98_ * y_48_ + 1 y_98_ ^ 2 ] >= 6415.2
quadratic_ranged_558_lb: [ 1 x_52_ ^ 2 - 2 x_98_ * x_52_ + 1 x_98_ ^ 2 + 1 y_52_ ^ 2 - 2 y_98_ * y_52_ + 1 y_98_ ^ 2 ] >= 13746.15
quadratic_ranged_559_lb: [ 1 x_55_ ^ 2 - 2 x_98_ * x_55_ + 1 x_98_ ^ 2 + 1 y_55_ ^ 2 - 2 y_98_ * y_55_ + 1 y_98_ ^ 2 ] >= 3502.62
quadratic_ranged_560_lb: [ 1 x_78_ ^ 2 - 2 x_98_ * x_78_ + 1 x_98_ ^ 2 + 1 y_78_ ^ 2 - 2 y_98_ * y_78_ + 1 y_98_ ^ 2 ] >= 13315.5
quadratic_ranged_561_lb: [ 1 x_93_ ^ 2 - 2 x_98_ * x_93_ + 1 x_98_ ^ 2 + 1 y_93_ ^ 2 - 2 y_98_ * y_93_ + 1 y_98_ ^ 2 ] >= 8712.99
quadratic_ranged_562_lb: [ 1 x_97_ ^ 2 - 2 x_98_ * x_97_ + 1 x_98_ ^ 2 + 1 y_97_ ^ 2 - 2 y_98_ * y_97_ + 1 y_98_ ^ 2 ] >= 11121.66
quadratic_ranged_563_lb: [ 1 x_29_ ^ 2 - 2 x_99_ * x_29_ + 1 x_99_ ^ 2 + 1 y_29_ ^ 2 - 2 y_99_ * y_29_ + 1 y_99_ ^ 2 ] >= 6894.36
quadratic_ranged_564_lb: [ 1 x_36_ ^ 2 - 2 x_99_ * x_36_ + 1 x_99_ ^ 2 + 1 y_36_ ^ 2 - 2 y_99_ * y_36_ + 1 y_99_ ^ 2 ] >= 25083.63
quadratic_ranged_565_lb: [ 1 x_45_ ^ 2 - 2 x_99_ * x_45_ + 1 x_99_ ^ 2 + 1 y_45_ ^ 2 - 2 y_99_ * y_45_ + 1 y_99_ ^ 2 ] >= 18661.5
quadratic_ranged_566_lb: [ 1 x_50_ ^ 2 - 2 x_99_ * x_50_ + 1 x_99_ ^ 2 + 1 y_50_ ^ 2 - 2 y_99_ * y_50_ + 1 y_99_ ^ 2 ] >= 17711.1
quadratic_ranged_567_lb: [ 1 x_61_ ^ 2 - 2 x_99_ * x_61_ + 1 x_99_ ^ 2 + 1 y_61_ ^ 2 - 2 y_99_ * y_61_ + 1 y_99_ ^ 2 ] >= 12721.5
quadratic_ranged_568_lb: [ 1 x_76_ ^ 2 - 2 x_99_ * x_76_ + 1 x_99_ ^ 2 + 1 y_76_ ^ 2 - 2 y_99_ * y_76_ + 1 y_99_ ^ 2 ] >= 25187.579999999998
quadratic_ranged_569_lb: [ 1 x_86_ ^ 2 - 2 x_99_ * x_86_ + 1 x_99_ ^ 2 + 1 y_86_ ^ 2 - 2 y_99_ * y_86_ + 1 y_99_ ^ 2 ] >= 1557.27
quadratic_ranged_570_lb: [ 1 x_94_ ^ 2 - 2 x_99_ * x_94_ + 1 x_99_ ^ 2 + 1 y_94_ ^ 2 - 2 y_99_ * y_94_ + 1 y_99_ ^ 2 ] >= 5382.63
quadratic_ranged_571_lb: [ 1 x_95_ ^ 2 - 2 x_99_ * x_95_ + 1 x_99_ ^ 2 + 1 y_95_ ^ 2 - 2 y_99_ * y_95_ + 1 y_99_ ^ 2 ] >= 25705.35
quadratic_ranged_572_lb: [ 1 x_98_ ^ 2 - 2 x_99_ * x_98_ + 1 x_99_ ^ 2 + 1 y_98_ ^ 2 - 2 y_99_ * y_98_ + 1 y_99_ ^ 2 ] >= 4491.63
quadratic_ranged_573_lb: [ 1 x_1_ ^ 2 - 2 x_100_ * x_1_ + 1 x_100_ ^ 2 + 1 y_1_ ^ 2 - 2 y_100_ * y_1_ + 1 y_100_ ^ 2 ] >= 36.63
quadratic_ranged_574_lb: [ 1 x_4_ ^ 2 - 2 x_100_ * x_4_ + 1 x_100_ ^ 2 + 1 y_4_ ^ 2 - 2 y_100_ * y_4_ + 1 y_100_ ^ 2 ] >= 24691.59
quadratic_ranged_575_lb: [ 1 x_29_ ^ 2 - 2 x_100_ * x_29_ + 1 x_100_ ^ 2 + 1 y_29_ ^ 2 - 2 y_100_ * y_29_ + 1 y_100_ ^ 2 ] >= 24433.2
quadratic_ranged_576_lb: [ 1 x_34_ ^ 2 - 2 x_100_ * x_34_ + 1 x_100_ ^ 2 + 1 y_34_ ^ 2 - 2 y_100_ * y_34_ + 1 y_100_ ^ 2 ] >= 7786.35
quadratic_ranged_577_lb: [ 1 x_38_ ^ 2 - 2 x_100_ * x_38_ + 1 x_100_ ^ 2 + 1 y_38_ ^ 2 - 2 y_100_ * y_38_ + 1 y_100_ ^ 2 ] >= 952.38
quadratic_ranged_578_lb: [ 1 x_59_ ^ 2 - 2 x_100_ * x_59_ + 1 x_100_ ^ 2 + 1 y_59_ ^ 2 - 2 y_100_ * y_59_ + 1 y_100_ ^ 2 ] >= 16333.02
quadratic_ranged_579_lb: [ 1 x_63_ ^ 2 - 2 x_100_ * x_63_ + 1 x_100_ ^ 2 + 1 y_63_ ^ 2 - 2 y_100_ * y_63_ + 1 y_100_ ^ 2 ] >= 3661.02
quadratic_ranged_580_lb: [ 1 x_69_ ^ 2 - 2 x_100_ * x_69_ + 1 x_100_ ^ 2 + 1 y_69_ ^ 2 - 2 y_100_ * y_69_ + 1 y_100_ ^ 2 ] >= 3510.54
quadratic_ranged_581_lb: [ 1 x_76_ ^ 2 - 2 x_100_ * x_76_ + 1 x_100_ ^ 2 + 1 y_76_ ^ 2 - 2 y_100_ * y_76_ + 1 y_100_ ^ 2 ] >= 23397.66
quadratic_ranged_582_lb: [ 1 x_77_ ^ 2 - 2 x_100_ * x_77_ + 1 x_100_ ^ 2 + 1 y_77_ ^ 2 - 2 y_100_ * y_77_ + 1 y_100_ ^ 2 ] >= 14221.35
quadratic_ranged_583_lb: [ 1 x_88_ ^ 2 - 2 x_100_ * x_88_ + 1 x_100_ ^ 2 + 1 y_88_ ^ 2 - 2 y_100_ * y_88_ + 1 y_100_ ^ 2 ] >= 1359.27
quadratic_ranged_584_lb: [ 1 x_91_ ^ 2 - 2 x_100_ * x_91_ + 1 x_100_ ^ 2 + 1 y_91_ ^ 2 - 2 y_100_ * y_91_ + 1 y_100_ ^ 2 ] >= 5722.2
quadratic_ranged_585_lb: [ 1 x_99_ ^ 2 - 2 x_100_ * x_99_ + 1 x_100_ ^ 2 + 1 y_99_ ^ 2 - 2 y_100_ * y_99_ + 1 y_100_ ^ 2 ] >= 6197.4
c1_1: 1 x_23_ = 0
c2_1: 1 y_23_ = 0
Bounds
-82 <= x_1_ <= 82
-75 <= x_2_ <= 75
-141 <= x_3_ <= 141
-187 <= x_4_ <= 187
-86 <= x_5_ <= 86
-169 <= x_6_ <= 169
-121 <= x_7_ <= 121
-121 <= x_8_ <= 121
-181 <= x_9_ <= 181
-164 <= x_10_ <= 164
-107 <= x_11_ <= 107
-102 <= x_12_ <= 102
-68 <= x_13_ <= 68
-122 <= x_14_ <= 122
-120 <= x_15_ <= 120
-77 <= x_16_ <= 77
-54 <= x_17_ <= 54
-155 <= x_18_ <= 155
-137 <= x_19_ <= 137
-139 <= x_20_ <= 139
-84 <= x_21_ <= 84
-49 <= x_22_ <= 49
x_23_ = 0
-86 <= x_24_ <= 86
-158 <= x_25_ <= 158
-140 <= x_26_ <= 140
-134 <= x_27_ <= 134
-89 <= x_28_ <= 89
-96 <= x_29_ <= 96
-146 <= x_30_ <= 146
-101 <= x_31_ <= 101
-132 <= x_32_ <= 132
-126 <= x_33_ <= 126
-70 <= x_34_ <= 70
-155 <= x_35_ <= 155
-115 <= x_36_ <= 115
-170 <= x_37_ <= 170
-107 <= x_38_ <= 107
-141 <= x_39_ <= 141
-114 <= x_40_ <= 114
-95 <= x_41_ <= 95
-130 <= x_42_ <= 130
-105 <= x_43_ <= 105
-102 <= x_44_ <= 102
-135 <= x_45_ <= 135
-38 <= x_46_ <= 38
-115 <= x_47_ <= 115
-98 <= x_48_ <= 98
-143 <= x_49_ <= 143
-174 <= x_50_ <= 174
-60 <= x_51_ <= 60
-146 <= x_52_ <= 146
-115 <= x_53_ <= 115
-124 <= x_54_ <= 124
-92 <= x_55_ <= 92
-93 <= x_56_ <= 93
-70 <= x_57_ <= 70
-51 <= x_58_ <= 51
-129 <= x_59_ <= 129
-92 <= x_60_ <= 92
-83 <= x_61_ <= 83
-140 <= x_62_ <= 140
-15 <= x_63_ <= 15
-102 <= x_64_ <= 102
-81 <= x_65_ <= 81
-134 <= x_66_ <= 134
-156 <= x_67_ <= 156
-144 <= x_68_ <= 144
-131 <= x_69_ <= 131
-35 <= x_70_ <= 35
-124 <= x_71_ <= 124
-118 <= x_72_ <= 118
-55 <= x_73_ <= 55
-163 <= x_74_ <= 163
-120 <= x_75_ <= 120
-155 <= x_76_ <= 155
-177 <= x_77_ <= 177
-159 <= x_78_ <= 159
-82 <= x_79_ <= 82
-100 <= x_80_ <= 100
-133 <= x_81_ <= 133
-115 <= x_82_ <= 115
-210 <= x_83_ <= 210
-137 <= x_84_ <= 137
-140 <= x_85_ <= 140
-96 <= x_86_ <= 96
-154 <= x_87_ <= 154
-113 <= x_88_ <= 113
-93 <= x_89_ <= 93
-106 <= x_90_ <= 106
-108 <= x_91_ <= 108
-121 <= x_92_ <= 121
-130 <= x_93_ <= 130
-143 <= x_94_ <= 143
-160 <= x_95_ <= 160
-143 <= x_96_ <= 143
-147 <= x_97_ <= 147
-85 <= x_98_ <= 85
-136 <= x_99_ <= 136
-76 <= x_100_ <= 76
-82 <= y_1_ <= 82
-75 <= y_2_ <= 75
-141 <= y_3_ <= 141
-187 <= y_4_ <= 187
-86 <= y_5_ <= 86
-169 <= y_6_ <= 169
-121 <= y_7_ <= 121
-121 <= y_8_ <= 121
-181 <= y_9_ <= 181
-164 <= y_10_ <= 164
-107 <= y_11_ <= 107
-102 <= y_12_ <= 102
-68 <= y_13_ <= 68
-122 <= y_14_ <= 122
-120 <= y_15_ <= 120
-77 <= y_16_ <= 77
-54 <= y_17_ <= 54
-155 <= y_18_ <= 155
-137 <= y_19_ <= 137
-139 <= y_20_ <= 139
-84 <= y_21_ <= 84
-49 <= y_22_ <= 49
y_23_ = 0
-86 <= y_24_ <= 86
-158 <= y_25_ <= 158
-140 <= y_26_ <= 140
-134 <= y_27_ <= 134
-89 <= y_28_ <= 89
-96 <= y_29_ <= 96
-146 <= y_30_ <= 146
-101 <= y_31_ <= 101
-132 <= y_32_ <= 132
-126 <= y_33_ <= 126
-70 <= y_34_ <= 70
-155 <= y_35_ <= 155
-115 <= y_36_ <= 115
-170 <= y_37_ <= 170
-107 <= y_38_ <= 107
-141 <= y_39_ <= 141
-114 <= y_40_ <= 114
-95 <= y_41_ <= 95
-130 <= y_42_ <= 130
-105 <= y_43_ <= 105
-102 <= y_44_ <= 102
-135 <= y_45_ <= 135
-38 <= y_46_ <= 38
-115 <= y_47_ <= 115
-98 <= y_48_ <= 98
-143 <= y_49_ <= 143
-174 <= y_50_ <= 174
-60 <= y_51_ <= 60
-146 <= y_52_ <= 146
-115 <= y_53_ <= 115
-124 <= y_54_ <= 124
-92 <= y_55_ <= 92
-93 <= y_56_ <= 93
-70 <= y_57_ <= 70
-51 <= y_58_ <= 51
-129 <= y_59_ <= 129
-92 <= y_60_ <= 92
-83 <= y_61_ <= 83
-140 <= y_62_ <= 140
-15 <= y_63_ <= 15
-102 <= y_64_ <= 102
-81 <= y_65_ <= 81
-134 <= y_66_ <= 134
-156 <= y_67_ <= 156
-144 <= y_68_ <= 144
-131 <= y_69_ <= 131
-35 <= y_70_ <= 35
-124 <= y_71_ <= 124
-118 <= y_72_ <= 118
-55 <= y_73_ <= 55
-163 <= y_74_ <= 163
-120 <= y_75_ <= 120
-155 <= y_76_ <= 155
-177 <= y_77_ <= 177
-159 <= y_78_ <= 159
-82 <= y_79_ <= 82
-100 <= y_80_ <= 100
-133 <= y_81_ <= 133
-115 <= y_82_ <= 115
-210 <= y_83_ <= 210
-137 <= y_84_ <= 137
-140 <= y_85_ <= 140
-96 <= y_86_ <= 96
-154 <= y_87_ <= 154
-113 <= y_88_ <= 113
-93 <= y_89_ <= 93
-106 <= y_90_ <= 106
-108 <= y_91_ <= 108
-121 <= y_92_ <= 121
-130 <= y_93_ <= 130
-143 <= y_94_ <= 143
-160 <= y_95_ <= 160
-143 <= y_96_ <= 143
-147 <= y_97_ <= 147
-85 <= y_98_ <= 85
-136 <= y_99_ <= 136
-76 <= y_100_ <= 76
General
x_1_
x_2_
x_3_
x_4_
x_5_
x_6_
x_7_
x_8_
x_9_
x_10_
x_11_
x_12_
x_13_
x_14_
x_15_
x_16_
x_17_
x_18_
x_19_
x_20_
x_21_
x_22_
x_23_
x_24_
x_25_
x_26_
x_27_
x_28_
x_29_
x_30_
x_31_
x_32_
x_33_
x_34_
x_35_
x_36_
x_37_
x_38_
x_39_
x_40_
x_41_
x_42_
x_43_
x_44_
x_45_
x_46_
x_47_
x_48_
x_49_
x_50_
x_51_
x_52_
x_53_
x_54_
x_55_
x_56_
x_57_
x_58_
x_59_
x_60_
x_61_
x_62_
x_63_
x_64_
x_65_
x_66_
x_67_
x_68_
x_69_
x_70_
x_71_
x_72_
x_73_
x_74_
x_75_
x_76_
x_77_
x_78_
x_79_
x_80_
x_81_
x_82_
x_83_
x_84_
x_85_
x_86_
x_87_
x_88_
x_89_
x_90_
x_91_
x_92_
x_93_
x_94_
x_95_
x_96_
x_97_
x_98_
x_99_
x_100_
y_1_
y_2_
y_3_
y_4_
y_5_
y_6_
y_7_
y_8_
y_9_
y_10_
y_11_
y_12_
y_13_
y_14_
y_15_
y_16_
y_17_
y_18_
y_19_
y_20_
y_21_
y_22_
y_23_
y_24_
y_25_
y_26_
y_27_
y_28_
y_29_
y_30_
y_31_
y_32_
y_33_
y_34_
y_35_
y_36_
y_37_
y_38_
y_39_
y_40_
y_41_
y_42_
y_43_
y_44_
y_45_
y_46_
y_47_
y_48_
y_49_
y_50_
y_51_
y_52_
y_53_
y_54_
y_55_
y_56_
y_57_
y_58_
y_59_
y_60_
y_61_
y_62_
y_63_
y_64_
y_65_
y_66_
y_67_
y_68_
y_69_
y_70_
y_71_
y_72_
y_73_
y_74_
y_75_
y_76_
y_77_
y_78_
y_79_
y_80_
y_81_
y_82_
y_83_
y_84_
y_85_
y_86_
y_87_
y_88_
y_89_
y_90_
y_91_
y_92_
y_93_
y_94_
y_95_
y_96_
y_97_
y_98_
y_99_
y_100_
End
