minimize
obj: 
subject to
c1: -12 x_1_ + 54 y_1_ + [ 1 x_1_ ^ 2 + 1 y_1_ ^ 2 ] <= 20020.250246402866
c2: -12 x_2_ + 54 y_2_ + [ 1 x_2_ ^ 2 + 1 y_2_ ^ 2 ] <= 29127.914484249955
c3: -12 x_3_ + 54 y_3_ + [ 1 x_3_ ^ 2 + 1 y_3_ ^ 2 ] <= 7977.560000000001
c4: -12 x_4_ + 54 y_4_ + [ 1 x_4_ ^ 2 + 1 y_4_ ^ 2 ] <= 11656.29908298255
c5: -12 x_5_ + 54 y_5_ + [ 1 x_5_ ^ 2 + 1 y_5_ ^ 2 ] <= 55166.37636854307
c6: -12 x_6_ + 54 y_6_ + [ 1 x_6_ ^ 2 + 1 y_6_ ^ 2 ] <= 14181.679886935433
c7: -12 x_7_ + 54 y_7_ + [ 1 x_7_ ^ 2 + 1 y_7_ ^ 2 ] <= 22849.318408666884
c8: -12 x_8_ + 54 y_8_ + [ 1 x_8_ ^ 2 + 1 y_8_ ^ 2 ] <= 56840.67714758835
c9: -12 x_9_ + 54 y_9_ + [ 1 x_9_ ^ 2 + 1 y_9_ ^ 2 ] <= 15483.082715754923
c10: -12 x_10_ + 54 y_10_ + [ 1 x_10_ ^ 2 + 1 y_10_ ^ 2 ] <= 27515.093388939695
c11: -12 x_11_ + 54 y_11_ + [ 1 x_11_ ^ 2 + 1 y_11_ ^ 2 ] <= 4729.399999999999
c12: -12 x_12_ + 54 y_12_ + [ 1 x_12_ ^ 2 + 1 y_12_ ^ 2 ] <= 31609.78315469554
c13: -12 x_13_ + 54 y_13_ + [ 1 x_13_ ^ 2 + 1 y_13_ ^ 2 ] <= 29805.247881475487
c14: -12 x_14_ + 54 y_14_ + [ 1 x_14_ ^ 2 + 1 y_14_ ^ 2 ] <= 6430.239999999999
c15: -12 x_16_ + 54 y_16_ + [ 1 x_16_ ^ 2 + 1 y_16_ ^ 2 ] <= 1216.62
c16: -12 x_17_ + 54 y_17_ + [ 1 x_17_ ^ 2 + 1 y_17_ ^ 2 ] <= 19157.157275856265
c17: -12 x_18_ + 54 y_18_ + [ 1 x_18_ ^ 2 + 1 y_18_ ^ 2 ] <= 7904.839999999998
c18: -12 x_19_ + 54 y_19_ + [ 1 x_19_ ^ 2 + 1 y_19_ ^ 2 ] <= 31570.561114738783
c19: -12 x_20_ + 54 y_20_ + [ 1 x_20_ ^ 2 + 1 y_20_ ^ 2 ] <= 29365.361502517993
c20: 74 x_2_ + 124 y_2_ + [ 1 x_2_ ^ 2 + 1 y_2_ ^ 2 ] <= 16608.049999999996
c21: 74 x_3_ + 124 y_3_ + [ 1 x_3_ ^ 2 + 1 y_3_ ^ 2 ] <= 29113.09624973384
c22: 74 x_4_ + 124 y_4_ + [ 1 x_4_ ^ 2 + 1 y_4_ ^ 2 ] <= -4142.400000000001
c23: 74 x_5_ + 124 y_5_ + [ 1 x_5_ ^ 2 + 1 y_5_ ^ 2 ] <= 19677.519533062026
c24: 74 x_6_ + 124 y_6_ + [ 1 x_6_ ^ 2 + 1 y_6_ ^ 2 ] <= 4767.814315410978
c25: 74 x_7_ + 124 y_7_ + [ 1 x_7_ ^ 2 + 1 y_7_ ^ 2 ] <= 12031.133731138729
c26: 74 x_8_ + 124 y_8_ + [ 1 x_8_ ^ 2 + 1 y_8_ ^ 2 ] <= 42162.54376503364
c27: 74 x_9_ + 124 y_9_ + [ 1 x_9_ ^ 2 + 1 y_9_ ^ 2 ] <= 19589.573998019794
c28: 74 x_10_ + 124 y_10_ + [ 1 x_10_ ^ 2 + 1 y_10_ ^ 2 ] <= 34065.175778211895
c29: 74 x_11_ + 124 y_11_ + [ 1 x_11_ ^ 2 + 1 y_11_ ^ 2 ] <= 41715.146621739455
c30: 74 x_12_ + 124 y_12_ + [ 1 x_12_ ^ 2 + 1 y_12_ ^ 2 ] <= 38866.129260544905
c31: 74 x_13_ + 124 y_13_ + [ 1 x_13_ ^ 2 + 1 y_13_ ^ 2 ] <= 18040.47641718234
c32: 74 x_14_ + 124 y_14_ + [ 1 x_14_ ^ 2 + 1 y_14_ ^ 2 ] <= 40671.04379979895
c33: 74 x_15_ + 124 y_15_ + [ 1 x_15_ ^ 2 + 1 y_15_ ^ 2 ] <= 15572.250246402866
c34: 74 x_16_ + 124 y_16_ + [ 1 x_16_ ^ 2 + 1 y_16_ ^ 2 ] <= 4718.221825964289
c35: 74 x_17_ + 124 y_17_ + [ 1 x_17_ ^ 2 + 1 y_17_ ^ 2 ] <= 21088.41
c36: 74 x_18_ + 124 y_18_ + [ 1 x_18_ ^ 2 + 1 y_18_ ^ 2 ] <= 299.579999999999
c37: 74 x_19_ + 124 y_19_ + [ 1 x_19_ ^ 2 + 1 y_19_ ^ 2 ] <= 20693.73387926898
c38: 74 x_20_ + 124 y_20_ + [ 1 x_20_ ^ 2 + 1 y_20_ ^ 2 ] <= 6504.01
c39: -126 x_1_ + 30 y_1_ + [ 1 x_1_ ^ 2 + 1 y_1_ ^ 2 ] <= 20608.573998019794
c40: -126 x_2_ + 30 y_2_ + [ 1 x_2_ ^ 2 + 1 y_2_ ^ 2 ] <= 41255.3856449943
c41: -126 x_3_ + 30 y_3_ + [ 1 x_3_ ^ 2 + 1 y_3_ ^ 2 ] <= 13706.994394927056
c42: -126 x_4_ + 30 y_4_ + [ 1 x_4_ ^ 2 + 1 y_4_ ^ 2 ] <= 11373.13
c43: -126 x_5_ + 30 y_5_ + [ 1 x_5_ ^ 2 + 1 y_5_ ^ 2 ] <= 58213.82217808712
c44: -126 x_6_ + 30 y_6_ + [ 1 x_6_ ^ 2 + 1 y_6_ ^ 2 ] <= 19241.59375153643
c45: -126 x_7_ + 30 y_7_ + [ 1 x_7_ ^ 2 + 1 y_7_ ^ 2 ] <= 25548.13434145818
c46: -126 x_8_ + 30 y_8_ + [ 1 x_8_ ^ 2 + 1 y_8_ ^ 2 ] <= 9320.81
c47: -126 x_10_ + 30 y_10_ + [ 1 x_10_ ^ 2 + 1 y_10_ ^ 2 ] <= -2537.6000000000004
c48: -126 x_11_ + 30 y_11_ + [ 1 x_11_ ^ 2 + 1 y_11_ ^ 2 ] <= 15192.05440480047
c49: -126 x_12_ + 30 y_12_ + [ 1 x_12_ ^ 2 + 1 y_12_ ^ 2 ] <= -1441.7414768311846
c50: -126 x_13_ + 30 y_13_ + [ 1 x_13_ ^ 2 + 1 y_13_ ^ 2 ] <= 12319.041432317681
c51: -126 x_14_ + 30 y_14_ + [ 1 x_14_ ^ 2 + 1 y_14_ ^ 2 ] <= -977.1500000000001
c52: -126 x_15_ + 30 y_15_ + [ 1 x_15_ ^ 2 + 1 y_15_ ^ 2 ] <= 12054.082715754923
c53: -126 x_16_ + 30 y_16_ + [ 1 x_16_ ^ 2 + 1 y_16_ ^ 2 ] <= 2687.13
c54: -126 x_17_ + 30 y_17_ + [ 1 x_17_ ^ 2 + 1 y_17_ ^ 2 ] <= 23490.099999999995
c55: -126 x_18_ + 30 y_18_ + [ 1 x_18_ ^ 2 + 1 y_18_ ^ 2 ] <= 23486.73241085418
c56: -126 x_19_ + 30 y_19_ + [ 1 x_19_ ^ 2 + 1 y_19_ ^ 2 ] <= 59857.61950201525
c57: -126 x_20_ + 30 y_20_ + [ 1 x_20_ ^ 2 + 1 y_20_ ^ 2 ] <= 40757.70877224674
quadratic_ranged_1_ub: [ 1 x_1_ ^ 2 - 2 x_2_ * x_1_ + 1 x_2_ ^ 2 + 1 y_1_ ^ 2 - 2 y_2_ * y_1_ + 1 y_2_ ^ 2 ] <= 21821.05
quadratic_ranged_2_ub: [ 1 x_2_ ^ 2 - 2 x_3_ * x_2_ + 1 x_3_ ^ 2 + 1 y_2_ ^ 2 - 2 y_3_ * y_2_ + 1 y_3_ ^ 2 ] <= 6303.41
quadratic_ranged_3_ub: [ 1 x_1_ ^ 2 - 2 x_4_ * x_1_ + 1 x_4_ ^ 2 + 1 y_1_ ^ 2 - 2 y_4_ * y_1_ + 1 y_4_ ^ 2 ] <= 1070.6
quadratic_ranged_4_ub: [ 1 x_3_ ^ 2 - 2 x_4_ * x_3_ + 1 x_4_ ^ 2 + 1 y_3_ ^ 2 - 2 y_4_ * y_3_ + 1 y_4_ ^ 2 ] <= 23272.420000000002
quadratic_ranged_5_ub: [ 1 x_4_ ^ 2 - 2 x_5_ * x_4_ + 1 x_5_ ^ 2 + 1 y_4_ ^ 2 - 2 y_5_ * y_4_ + 1 y_5_ ^ 2 ] <= 15636.82
quadratic_ranged_6_ub: [ 1 x_4_ ^ 2 - 2 x_6_ * x_4_ + 1 x_6_ ^ 2 + 1 y_4_ ^ 2 - 2 y_6_ * y_4_ + 1 y_6_ ^ 2 ] <= 4513.69
quadratic_ranged_7_ub: [ 1 x_5_ ^ 2 - 2 x_6_ * x_5_ + 1 x_6_ ^ 2 + 1 y_5_ ^ 2 - 2 y_6_ * y_5_ + 1 y_6_ ^ 2 ] <= 29892.97
quadratic_ranged_8_ub: [ 1 x_5_ ^ 2 - 2 x_7_ * x_5_ + 1 x_7_ ^ 2 + 1 y_5_ ^ 2 - 2 y_7_ * y_5_ + 1 y_7_ ^ 2 ] <= 35398.48
quadratic_ranged_9_ub: [ 1 x_6_ ^ 2 - 2 x_7_ * x_6_ + 1 x_7_ ^ 2 + 1 y_6_ ^ 2 - 2 y_7_ * y_6_ + 1 y_7_ ^ 2 ] <= 986.77
quadratic_ranged_10_ub: [ 1 x_6_ ^ 2 - 2 x_8_ * x_6_ + 1 x_8_ ^ 2 + 1 y_6_ ^ 2 - 2 y_8_ * y_6_ + 1 y_8_ ^ 2 ] <= 13866.29
quadratic_ranged_11_ub: [ 1 x_7_ ^ 2 - 2 x_8_ * x_7_ + 1 x_8_ ^ 2 + 1 y_7_ ^ 2 - 2 y_8_ * y_7_ + 1 y_8_ ^ 2 ] <= 21008
quadratic_ranged_12_ub: [ 1 x_4_ ^ 2 - 2 x_9_ * x_4_ + 1 x_9_ ^ 2 + 1 y_4_ ^ 2 - 2 y_9_ * y_4_ + 1 y_9_ ^ 2 ] <= 15567.130000000001
quadratic_ranged_13_ub: [ 1 x_8_ ^ 2 - 2 x_9_ * x_8_ + 1 x_9_ ^ 2 + 1 y_8_ ^ 2 - 2 y_9_ * y_8_ + 1 y_9_ ^ 2 ] <= 13514.81
quadratic_ranged_14_ub: [ 1 x_3_ ^ 2 - 2 x_10_ * x_3_ + 1 x_10_ ^ 2 + 1 y_3_ ^ 2 - 2 y_10_ * y_3_ + 1 y_10_ ^ 2 ] <= 8666.81
quadratic_ranged_15_ub: [ 1 x_6_ ^ 2 - 2 x_10_ * x_6_ + 1 x_10_ ^ 2 + 1 y_6_ ^ 2 - 2 y_10_ * y_6_ + 1 y_10_ ^ 2 ] <= 12631.06
quadratic_ranged_16_ub: [ 1 x_9_ ^ 2 - 2 x_10_ * x_9_ + 1 x_10_ ^ 2 + 1 y_9_ ^ 2 - 2 y_10_ * y_9_ + 1 y_10_ ^ 2 ] <= 1656.4
quadratic_ranged_17_ub: [ 1 x_3_ ^ 2 - 2 x_11_ * x_3_ + 1 x_11_ ^ 2 + 1 y_3_ ^ 2 - 2 y_11_ * y_3_ + 1 y_11_ ^ 2 ] <= 5704.4800000000005
quadratic_ranged_18_ub: [ 1 x_10_ ^ 2 - 2 x_11_ * x_10_ + 1 x_11_ ^ 2 + 1 y_10_ ^ 2 - 2 y_11_ * y_10_ + 1 y_11_ ^ 2 ] <= 9709.13
quadratic_ranged_19_ub: [ 1 x_8_ ^ 2 - 2 x_12_ * x_8_ + 1 x_12_ ^ 2 + 1 y_8_ ^ 2 - 2 y_12_ * y_8_ + 1 y_12_ ^ 2 ] <= 12122.02
quadratic_ranged_20_ub: [ 1 x_10_ ^ 2 - 2 x_12_ * x_10_ + 1 x_12_ ^ 2 + 1 y_10_ ^ 2 - 2 y_12_ * y_10_ + 1 y_12_ ^ 2 ] <= 138.37
quadratic_ranged_21_ub: [ 1 x_11_ ^ 2 - 2 x_12_ * x_11_ + 1 x_12_ ^ 2 + 1 y_11_ ^ 2 - 2 y_12_ * y_11_ + 1 y_12_ ^ 2 ] <= 12049.3
quadratic_ranged_22_ub: [ 1 x_5_ ^ 2 - 2 x_13_ * x_5_ + 1 x_13_ ^ 2 + 1 y_5_ ^ 2 - 2 y_13_ * y_5_ + 1 y_13_ ^ 2 ] <= 23024.97
quadratic_ranged_23_ub: [ 1 x_6_ ^ 2 - 2 x_13_ * x_6_ + 1 x_13_ ^ 2 + 1 y_6_ ^ 2 - 2 y_13_ * y_6_ + 1 y_13_ ^ 2 ] <= 2765.38
quadratic_ranged_24_ub: [ 1 x_7_ ^ 2 - 2 x_13_ * x_7_ + 1 x_13_ ^ 2 + 1 y_7_ ^ 2 - 2 y_13_ * y_7_ + 1 y_13_ ^ 2 ] <= 1932.13
quadratic_ranged_25_ub: [ 1 x_12_ ^ 2 - 2 x_13_ * x_12_ + 1 x_13_ ^ 2 + 1 y_12_ ^ 2 - 2 y_13_ * y_12_ + 1 y_13_ ^ 2 ] <= 5782.25
quadratic_ranged_26_ub: [ 1 x_6_ ^ 2 - 2 x_14_ * x_6_ + 1 x_14_ ^ 2 + 1 y_6_ ^ 2 - 2 y_14_ * y_6_ + 1 y_14_ ^ 2 ] <= 20087.89
quadratic_ranged_27_ub: [ 1 x_9_ ^ 2 - 2 x_14_ * x_9_ + 1 x_14_ ^ 2 + 1 y_9_ ^ 2 - 2 y_14_ * y_9_ + 1 y_14_ ^ 2 ] <= 3216.85
quadratic_ranged_28_ub: [ 1 x_13_ ^ 2 - 2 x_14_ * x_13_ + 1 x_14_ ^ 2 + 1 y_13_ ^ 2 - 2 y_14_ * y_13_ + 1 y_14_ ^ 2 ] <= 8771.85
quadratic_ranged_29_ub: [ 1 x_3_ ^ 2 - 2 x_15_ * x_3_ + 1 x_15_ ^ 2 + 1 y_3_ ^ 2 - 2 y_15_ * y_3_ + 1 y_15_ ^ 2 ] <= 8742.56
quadratic_ranged_30_ub: [ 1 x_11_ ^ 2 - 2 x_15_ * x_11_ + 1 x_15_ ^ 2 + 1 y_11_ ^ 2 - 2 y_15_ * y_11_ + 1 y_15_ ^ 2 ] <= 5494.4
quadratic_ranged_31_ub: [ 1 x_14_ ^ 2 - 2 x_15_ * x_14_ + 1 x_15_ ^ 2 + 1 y_14_ ^ 2 - 2 y_15_ * y_14_ + 1 y_15_ ^ 2 ] <= 7195.24
quadratic_ranged_32_ub: [ 1 x_4_ ^ 2 - 2 x_16_ * x_4_ + 1 x_16_ ^ 2 + 1 y_4_ ^ 2 - 2 y_16_ * y_4_ + 1 y_16_ ^ 2 ] <= 4480.36
quadratic_ranged_33_ub: [ 1 x_9_ ^ 2 - 2 x_16_ * x_9_ + 1 x_16_ ^ 2 + 1 y_9_ ^ 2 - 2 y_16_ * y_9_ + 1 y_16_ ^ 2 ] <= 6881.13
quadratic_ranged_34_ub: [ 1 x_15_ ^ 2 - 2 x_16_ * x_15_ + 1 x_16_ ^ 2 + 1 y_15_ ^ 2 - 2 y_16_ * y_15_ + 1 y_16_ ^ 2 ] <= 1981.6200000000001
quadratic_ranged_35_ub: [ 1 x_1_ ^ 2 - 2 x_17_ * x_1_ + 1 x_17_ ^ 2 + 1 y_1_ ^ 2 - 2 y_17_ * y_1_ + 1 y_17_ ^ 2 ] <= 26301.41
quadratic_ranged_36_ub: [ 1 x_4_ ^ 2 - 2 x_17_ * x_4_ + 1 x_17_ ^ 2 + 1 y_4_ ^ 2 - 2 y_17_ * y_4_ + 1 y_17_ ^ 2 ] <= 18681.97
quadratic_ranged_37_ub: [ 1 x_9_ ^ 2 - 2 x_17_ * x_9_ + 1 x_17_ ^ 2 + 1 y_9_ ^ 2 - 2 y_17_ * y_9_ + 1 y_17_ ^ 2 ] <= 27684.1
quadratic_ranged_38_ub: [ 1 x_12_ ^ 2 - 2 x_17_ * x_12_ + 1 x_17_ ^ 2 + 1 y_12_ ^ 2 - 2 y_17_ * y_12_ + 1 y_17_ ^ 2 ] <= 15466.130000000001
quadratic_ranged_39_ub: [ 1 x_16_ ^ 2 - 2 x_17_ * x_16_ + 1 x_17_ ^ 2 + 1 y_16_ ^ 2 - 2 y_17_ * y_16_ + 1 y_17_ ^ 2 ] <= 9337.45
quadratic_ranged_40_ub: [ 1 x_1_ ^ 2 - 2 x_18_ * x_1_ + 1 x_18_ ^ 2 + 1 y_1_ ^ 2 - 2 y_18_ * y_1_ + 1 y_18_ ^ 2 ] <= 5512.58
quadratic_ranged_41_ub: [ 1 x_3_ ^ 2 - 2 x_18_ * x_3_ + 1 x_18_ ^ 2 + 1 y_3_ ^ 2 - 2 y_18_ * y_3_ + 1 y_18_ ^ 2 ] <= 34461.2
quadratic_ranged_42_ub: [ 1 x_4_ ^ 2 - 2 x_18_ * x_4_ + 1 x_18_ ^ 2 + 1 y_4_ ^ 2 - 2 y_18_ * y_4_ + 1 y_18_ ^ 2 ] <= 1731.14
quadratic_ranged_43_ub: [ 1 x_6_ ^ 2 - 2 x_18_ * x_6_ + 1 x_18_ ^ 2 + 1 y_6_ ^ 2 - 2 y_18_ * y_6_ + 1 y_18_ ^ 2 ] <= 849.41
quadratic_ranged_44_ub: [ 1 x_11_ ^ 2 - 2 x_18_ * x_11_ + 1 x_18_ ^ 2 + 1 y_11_ ^ 2 - 2 y_18_ * y_11_ + 1 y_18_ ^ 2 ] <= 20272.72
quadratic_ranged_45_ub: [ 1 x_15_ ^ 2 - 2 x_18_ * x_15_ + 1 x_18_ ^ 2 + 1 y_15_ ^ 2 - 2 y_18_ * y_15_ + 1 y_18_ ^ 2 ] <= 8669.84
quadratic_ranged_46_ub: [ 1 x_17_ ^ 2 - 2 x_18_ * x_17_ + 1 x_18_ ^ 2 + 1 y_17_ ^ 2 - 2 y_18_ * y_17_ + 1 y_18_ ^ 2 ] <= 11397.85
quadratic_ranged_47_ub: [ 1 x_2_ ^ 2 - 2 x_19_ * x_2_ + 1 x_19_ ^ 2 + 1 y_2_ ^ 2 - 2 y_19_ * y_2_ + 1 y_19_ ^ 2 ] <= 14536.93
quadratic_ranged_48_ub: [ 1 x_18_ ^ 2 - 2 x_19_ * x_18_ + 1 x_19_ ^ 2 + 1 y_18_ ^ 2 - 2 y_19_ * y_18_ + 1 y_19_ ^ 2 ] <= 7518.4400000000005
quadratic_ranged_49_ub: [ 1 x_1_ ^ 2 - 2 x_20_ * x_1_ + 1 x_20_ ^ 2 + 1 y_1_ ^ 2 - 2 y_20_ * y_1_ + 1 y_20_ ^ 2 ] <= 11717.01
quadratic_ranged_50_ub: [ 1 x_2_ ^ 2 - 2 x_20_ * x_2_ + 1 x_20_ ^ 2 + 1 y_2_ ^ 2 - 2 y_20_ * y_2_ + 1 y_20_ ^ 2 ] <= 10188.88
quadratic_ranged_51_ub: [ 1 x_4_ ^ 2 - 2 x_20_ * x_4_ + 1 x_20_ ^ 2 + 1 y_4_ ^ 2 - 2 y_20_ * y_4_ + 1 y_20_ ^ 2 ] <= 18617.33
quadratic_ranged_52_ub: [ 1 x_6_ ^ 2 - 2 x_20_ * x_6_ + 1 x_20_ ^ 2 + 1 y_6_ ^ 2 - 2 y_20_ * y_6_ + 1 y_20_ ^ 2 ] <= 35556.04
quadratic_ranged_53_ub: [ 1 x_16_ ^ 2 - 2 x_20_ * x_16_ + 1 x_20_ ^ 2 + 1 y_16_ ^ 2 - 2 y_20_ * y_16_ + 1 y_20_ ^ 2 ] <= 16657.93
quadratic_ranged_54_ub: [ 1 x_19_ ^ 2 - 2 x_20_ * x_19_ + 1 x_20_ ^ 2 + 1 y_19_ ^ 2 - 2 y_20_ * y_19_ + 1 y_20_ ^ 2 ] <= 28260.81
quadratic_ranged_1_lb: [ 1 x_1_ ^ 2 - 2 x_2_ * x_1_ + 1 x_2_ ^ 2 + 1 y_1_ ^ 2 - 2 y_2_ * y_1_ + 1 y_2_ ^ 2 ] >= 21388.95
quadratic_ranged_2_lb: [ 1 x_2_ ^ 2 - 2 x_3_ * x_2_ + 1 x_3_ ^ 2 + 1 y_2_ ^ 2 - 2 y_3_ * y_2_ + 1 y_3_ ^ 2 ] >= 6178.59
quadratic_ranged_3_lb: [ 1 x_1_ ^ 2 - 2 x_4_ * x_1_ + 1 x_4_ ^ 2 + 1 y_1_ ^ 2 - 2 y_4_ * y_1_ + 1 y_4_ ^ 2 ] >= 1049.4
quadratic_ranged_4_lb: [ 1 x_3_ ^ 2 - 2 x_4_ * x_3_ + 1 x_4_ ^ 2 + 1 y_3_ ^ 2 - 2 y_4_ * y_3_ + 1 y_4_ ^ 2 ] >= 22811.579999999998
quadratic_ranged_5_lb: [ 1 x_4_ ^ 2 - 2 x_5_ * x_4_ + 1 x_5_ ^ 2 + 1 y_4_ ^ 2 - 2 y_5_ * y_4_ + 1 y_5_ ^ 2 ] >= 15327.18
quadratic_ranged_6_lb: [ 1 x_4_ ^ 2 - 2 x_6_ * x_4_ + 1 x_6_ ^ 2 + 1 y_4_ ^ 2 - 2 y_6_ * y_4_ + 1 y_6_ ^ 2 ] >= 4424.31
quadratic_ranged_7_lb: [ 1 x_5_ ^ 2 - 2 x_6_ * x_5_ + 1 x_6_ ^ 2 + 1 y_5_ ^ 2 - 2 y_6_ * y_5_ + 1 y_6_ ^ 2 ] >= 29301.03
quadratic_ranged_8_lb: [ 1 x_5_ ^ 2 - 2 x_7_ * x_5_ + 1 x_7_ ^ 2 + 1 y_5_ ^ 2 - 2 y_7_ * y_5_ + 1 y_7_ ^ 2 ] >= 34697.52
quadratic_ranged_9_lb: [ 1 x_6_ ^ 2 - 2 x_7_ * x_6_ + 1 x_7_ ^ 2 + 1 y_6_ ^ 2 - 2 y_7_ * y_6_ + 1 y_7_ ^ 2 ] >= 967.23
quadratic_ranged_10_lb: [ 1 x_6_ ^ 2 - 2 x_8_ * x_6_ + 1 x_8_ ^ 2 + 1 y_6_ ^ 2 - 2 y_8_ * y_6_ + 1 y_8_ ^ 2 ] >= 13591.71
quadratic_ranged_11_lb: [ 1 x_7_ ^ 2 - 2 x_8_ * x_7_ + 1 x_8_ ^ 2 + 1 y_7_ ^ 2 - 2 y_8_ * y_7_ + 1 y_8_ ^ 2 ] >= 20592
quadratic_ranged_12_lb: [ 1 x_4_ ^ 2 - 2 x_9_ * x_4_ + 1 x_9_ ^ 2 + 1 y_4_ ^ 2 - 2 y_9_ * y_4_ + 1 y_9_ ^ 2 ] >= 15258.869999999999
quadratic_ranged_13_lb: [ 1 x_8_ ^ 2 - 2 x_9_ * x_8_ + 1 x_9_ ^ 2 + 1 y_8_ ^ 2 - 2 y_9_ * y_8_ + 1 y_9_ ^ 2 ] >= 13247.19
quadratic_ranged_14_lb: [ 1 x_3_ ^ 2 - 2 x_10_ * x_3_ + 1 x_10_ ^ 2 + 1 y_3_ ^ 2 - 2 y_10_ * y_3_ + 1 y_10_ ^ 2 ] >= 8495.19
quadratic_ranged_15_lb: [ 1 x_6_ ^ 2 - 2 x_10_ * x_6_ + 1 x_10_ ^ 2 + 1 y_6_ ^ 2 - 2 y_10_ * y_6_ + 1 y_10_ ^ 2 ] >= 12380.94
quadratic_ranged_16_lb: [ 1 x_9_ ^ 2 - 2 x_10_ * x_9_ + 1 x_10_ ^ 2 + 1 y_9_ ^ 2 - 2 y_10_ * y_9_ + 1 y_10_ ^ 2 ] >= 1623.6
quadratic_ranged_17_lb: [ 1 x_3_ ^ 2 - 2 x_11_ * x_3_ + 1 x_11_ ^ 2 + 1 y_3_ ^ 2 - 2 y_11_ * y_3_ + 1 y_11_ ^ 2 ] >= 5591.5199999999995
quadratic_ranged_18_lb: [ 1 x_10_ ^ 2 - 2 x_11_ * x_10_ + 1 x_11_ ^ 2 + 1 y_10_ ^ 2 - 2 y_11_ * y_10_ + 1 y_11_ ^ 2 ] >= 9516.87
quadratic_ranged_19_lb: [ 1 x_8_ ^ 2 - 2 x_12_ * x_8_ + 1 x_12_ ^ 2 + 1 y_8_ ^ 2 - 2 y_12_ * y_8_ + 1 y_12_ ^ 2 ] >= 11881.98
quadratic_ranged_20_lb: [ 1 x_10_ ^ 2 - 2 x_12_ * x_10_ + 1 x_12_ ^ 2 + 1 y_10_ ^ 2 - 2 y_12_ * y_10_ + 1 y_12_ ^ 2 ] >= 135.63
quadratic_ranged_21_lb: [ 1 x_11_ ^ 2 - 2 x_12_ * x_11_ + 1 x_12_ ^ 2 + 1 y_11_ ^ 2 - 2 y_12_ * y_11_ + 1 y_12_ ^ 2 ] >= 11810.7
quadratic_ranged_22_lb: [ 1 x_5_ ^ 2 - 2 x_13_ * x_5_ + 1 x_13_ ^ 2 + 1 y_5_ ^ 2 - 2 y_13_ * y_5_ + 1 y_13_ ^ 2 ] >= 22569.03
quadratic_ranged_23_lb: [ 1 x_6_ ^ 2 - 2 x_13_ * x_6_ + 1 x_13_ ^ 2 + 1 y_6_ ^ 2 - 2 y_13_ * y_6_ + 1 y_13_ ^ 2 ] >= 2710.62
quadratic_ranged_24_lb: [ 1 x_7_ ^ 2 - 2 x_13_ * x_7_ + 1 x_13_ ^ 2 + 1 y_7_ ^ 2 - 2 y_13_ * y_7_ + 1 y_13_ ^ 2 ] >= 1893.87
quadratic_ranged_25_lb: [ 1 x_12_ ^ 2 - 2 x_13_ * x_12_ + 1 x_13_ ^ 2 + 1 y_12_ ^ 2 - 2 y_13_ * y_12_ + 1 y_13_ ^ 2 ] >= 5667.75
quadratic_ranged_26_lb: [ 1 x_6_ ^ 2 - 2 x_14_ * x_6_ + 1 x_14_ ^ 2 + 1 y_6_ ^ 2 - 2 y_14_ * y_6_ + 1 y_14_ ^ 2 ] >= 19690.11
quadratic_ranged_27_lb: [ 1 x_9_ ^ 2 - 2 x_14_ * x_9_ + 1 x_14_ ^ 2 + 1 y_9_ ^ 2 - 2 y_14_ * y_9_ + 1 y_14_ ^ 2 ] >= 3153.15
quadratic_ranged_28_lb: [ 1 x_13_ ^ 2 - 2 x_14_ * x_13_ + 1 x_14_ ^ 2 + 1 y_13_ ^ 2 - 2 y_14_ * y_13_ + 1 y_14_ ^ 2 ] >= 8598.15
quadratic_ranged_29_lb: [ 1 x_3_ ^ 2 - 2 x_15_ * x_3_ + 1 x_15_ ^ 2 + 1 y_3_ ^ 2 - 2 y_15_ * y_3_ + 1 y_15_ ^ 2 ] >= 8569.44
quadratic_ranged_30_lb: [ 1 x_11_ ^ 2 - 2 x_15_ * x_11_ + 1 x_15_ ^ 2 + 1 y_11_ ^ 2 - 2 y_15_ * y_11_ + 1 y_15_ ^ 2 ] >= 5385.6
quadratic_ranged_31_lb: [ 1 x_14_ ^ 2 - 2 x_15_ * x_14_ + 1 x_15_ ^ 2 + 1 y_14_ ^ 2 - 2 y_15_ * y_14_ + 1 y_15_ ^ 2 ] >= 7052.76
quadratic_ranged_32_lb: [ 1 x_4_ ^ 2 - 2 x_16_ * x_4_ + 1 x_16_ ^ 2 + 1 y_4_ ^ 2 - 2 y_16_ * y_4_ + 1 y_16_ ^ 2 ] >= 4391.64
quadratic_ranged_33_lb: [ 1 x_9_ ^ 2 - 2 x_16_ * x_9_ + 1 x_16_ ^ 2 + 1 y_9_ ^ 2 - 2 y_16_ * y_9_ + 1 y_16_ ^ 2 ] >= 6744.87
quadratic_ranged_34_lb: [ 1 x_15_ ^ 2 - 2 x_16_ * x_15_ + 1 x_16_ ^ 2 + 1 y_15_ ^ 2 - 2 y_16_ * y_15_ + 1 y_16_ ^ 2 ] >= 1942.3799999999999
quadratic_ranged_35_lb: [ 1 x_1_ ^ 2 - 2 x_17_ * x_1_ + 1 x_17_ ^ 2 + 1 y_1_ ^ 2 - 2 y_17_ * y_1_ + 1 y_17_ ^ 2 ] >= 25780.59
quadratic_ranged_36_lb: [ 1 x_4_ ^ 2 - 2 x_17_ * x_4_ + 1 x_17_ ^ 2 + 1 y_4_ ^ 2 - 2 y_17_ * y_4_ + 1 y_17_ ^ 2 ] >= 18312.03
quadratic_ranged_37_lb: [ 1 x_9_ ^ 2 - 2 x_17_ * x_9_ + 1 x_17_ ^ 2 + 1 y_9_ ^ 2 - 2 y_17_ * y_9_ + 1 y_17_ ^ 2 ] >= 27135.9
quadratic_ranged_38_lb: [ 1 x_12_ ^ 2 - 2 x_17_ * x_12_ + 1 x_17_ ^ 2 + 1 y_12_ ^ 2 - 2 y_17_ * y_12_ + 1 y_17_ ^ 2 ] >= 15159.869999999999
quadratic_ranged_39_lb: [ 1 x_16_ ^ 2 - 2 x_17_ * x_16_ + 1 x_17_ ^ 2 + 1 y_16_ ^ 2 - 2 y_17_ * y_16_ + 1 y_17_ ^ 2 ] >= 9152.55
quadratic_ranged_40_lb: [ 1 x_1_ ^ 2 - 2 x_18_ * x_1_ + 1 x_18_ ^ 2 + 1 y_1_ ^ 2 - 2 y_18_ * y_1_ + 1 y_18_ ^ 2 ] >= 5403.42
quadratic_ranged_41_lb: [ 1 x_3_ ^ 2 - 2 x_18_ * x_3_ + 1 x_18_ ^ 2 + 1 y_3_ ^ 2 - 2 y_18_ * y_3_ + 1 y_18_ ^ 2 ] >= 33778.8
quadratic_ranged_42_lb: [ 1 x_4_ ^ 2 - 2 x_18_ * x_4_ + 1 x_18_ ^ 2 + 1 y_4_ ^ 2 - 2 y_18_ * y_4_ + 1 y_18_ ^ 2 ] >= 1696.86
quadratic_ranged_43_lb: [ 1 x_6_ ^ 2 - 2 x_18_ * x_6_ + 1 x_18_ ^ 2 + 1 y_6_ ^ 2 - 2 y_18_ * y_6_ + 1 y_18_ ^ 2 ] >= 832.59
quadratic_ranged_44_lb: [ 1 x_11_ ^ 2 - 2 x_18_ * x_11_ + 1 x_18_ ^ 2 + 1 y_11_ ^ 2 - 2 y_18_ * y_11_ + 1 y_18_ ^ 2 ] >= 19871.28
quadratic_ranged_45_lb: [ 1 x_15_ ^ 2 - 2 x_18_ * x_15_ + 1 x_18_ ^ 2 + 1 y_15_ ^ 2 - 2 y_18_ * y_15_ + 1 y_18_ ^ 2 ] >= 8498.16
quadratic_ranged_46_lb: [ 1 x_17_ ^ 2 - 2 x_18_ * x_17_ + 1 x_18_ ^ 2 + 1 y_17_ ^ 2 - 2 y_18_ * y_17_ + 1 y_18_ ^ 2 ] >= 11172.15
quadratic_ranged_47_lb: [ 1 x_2_ ^ 2 - 2 x_19_ * x_2_ + 1 x_19_ ^ 2 + 1 y_2_ ^ 2 - 2 y_19_ * y_2_ + 1 y_19_ ^ 2 ] >= 14249.07
quadratic_ranged_48_lb: [ 1 x_18_ ^ 2 - 2 x_19_ * x_18_ + 1 x_19_ ^ 2 + 1 y_18_ ^ 2 - 2 y_19_ * y_18_ + 1 y_19_ ^ 2 ] >= 7369.5599999999995
quadratic_ranged_49_lb: [ 1 x_1_ ^ 2 - 2 x_20_ * x_1_ + 1 x_20_ ^ 2 + 1 y_1_ ^ 2 - 2 y_20_ * y_1_ + 1 y_20_ ^ 2 ] >= 11484.99
quadratic_ranged_50_lb: [ 1 x_2_ ^ 2 - 2 x_20_ * x_2_ + 1 x_20_ ^ 2 + 1 y_2_ ^ 2 - 2 y_20_ * y_2_ + 1 y_20_ ^ 2 ] >= 9987.12
quadratic_ranged_51_lb: [ 1 x_4_ ^ 2 - 2 x_20_ * x_4_ + 1 x_20_ ^ 2 + 1 y_4_ ^ 2 - 2 y_20_ * y_4_ + 1 y_20_ ^ 2 ] >= 18248.67
quadratic_ranged_52_lb: [ 1 x_6_ ^ 2 - 2 x_20_ * x_6_ + 1 x_20_ ^ 2 + 1 y_6_ ^ 2 - 2 y_20_ * y_6_ + 1 y_20_ ^ 2 ] >= 34851.96
quadratic_ranged_53_lb: [ 1 x_16_ ^ 2 - 2 x_20_ * x_16_ + 1 x_20_ ^ 2 + 1 y_16_ ^ 2 - 2 y_20_ * y_16_ + 1 y_20_ ^ 2 ] >= 16328.07
quadratic_ranged_54_lb: [ 1 x_19_ ^ 2 - 2 x_20_ * x_19_ + 1 x_20_ ^ 2 + 1 y_19_ ^ 2 - 2 y_20_ * y_19_ + 1 y_20_ ^ 2 ] >= 27701.19
c1_1: 1 x_15_ = 6
c2_1: 1 y_15_ = -27
c3_1: 1 x_1_ = -37
c4_1: 1 y_1_ = -62
c5_1: 1 x_9_ = 63
c6_1: 1 y_9_ = -15
Bounds
x_1_ = -37
-150 <= x_2_ <= 110
-70 <= x_3_ <= 99
-61 <= x_4_ <= -5
-186 <= x_5_ <= 120
-90 <= x_6_ <= 62
-109 <= x_7_ <= 94
-53 <= x_8_ <= 179
x_9_ = 63
23 <= x_10_ <= 103
-68 <= x_11_ <= 80
11 <= x_12_ <= 115
-65 <= x_13_ <= 115
7 <= x_14_ <= 90
x_15_ = 6
-19 <= x_16_ <= 50
-103 <= x_17_ <= 125
-87 <= x_18_ <= 37
-173 <= x_19_ <= 123
-145 <= x_20_ <= 71
y_1_ = -62
-199 <= y_2_ <= 85
-120 <= y_3_ <= 66
-94 <= y_4_ <= -30
-219 <= y_5_ <= 95
-149 <= y_6_ <= 37
-180 <= y_7_ <= 69
-131 <= y_8_ <= 101
y_9_ = -15
-55 <= y_10_ <= 25
-101 <= y_11_ <= 47
-67 <= y_12_ <= 37
-143 <= y_13_ <= 90
-71 <= y_14_ <= 41
y_15_ = -27
-71 <= y_16_ <= 17
-168 <= y_17_ <= 100
-120 <= y_18_ <= 12
-206 <= y_19_ <= 98
-170 <= y_20_ <= 46
General
x_1_
x_2_
x_3_
x_4_
x_5_
x_6_
x_7_
x_8_
x_9_
x_10_
x_11_
x_12_
x_13_
x_14_
x_15_
x_16_
x_17_
x_18_
x_19_
x_20_
y_1_
y_2_
y_3_
y_4_
y_5_
y_6_
y_7_
y_8_
y_9_
y_10_
y_11_
y_12_
y_13_
y_14_
y_15_
y_16_
y_17_
y_18_
y_19_
y_20_
End
