minimize
obj: 
subject to
c1_1: 62 x_1_ + 198 y_1_ + [ 1 x_1_ ^ 2 + 1 y_1_ ^ 2 ] <= 8256
c2_1: 62 x_2_ + 198 y_2_ + [ 1 x_2_ ^ 2 + 1 y_2_ ^ 2 ] <= 15144
c3_1: 62 x_4_ + 198 y_4_ + [ 1 x_4_ ^ 2 + 1 y_4_ ^ 2 ] <= 12699
c4_1: 62 x_5_ + 198 y_5_ + [ 1 x_5_ ^ 2 + 1 y_5_ ^ 2 ] <= 27420
c5_1: 62 x_6_ + 198 y_6_ + [ 1 x_6_ ^ 2 + 1 y_6_ ^ 2 ] <= 4618
c6_1: 62 x_7_ + 198 y_7_ + [ 1 x_7_ ^ 2 + 1 y_7_ ^ 2 ] <= 28597
c7_1: 62 x_8_ + 198 y_8_ + [ 1 x_8_ ^ 2 + 1 y_8_ ^ 2 ] <= 9119
c8_1: 62 x_9_ + 198 y_9_ + [ 1 x_9_ ^ 2 + 1 y_9_ ^ 2 ] <= -6124
c9_1: 62 x_10_ + 198 y_10_ + [ 1 x_10_ ^ 2 + 1 y_10_ ^ 2 ] <= 41647
c10_1: 62 x_11_ + 198 y_11_ + [ 1 x_11_ ^ 2 + 1 y_11_ ^ 2 ] <= 10861
c11_1: 62 x_12_ + 198 y_12_ + [ 1 x_12_ ^ 2 + 1 y_12_ ^ 2 ] <= -405
c12_1: 62 x_13_ + 198 y_13_ + [ 1 x_13_ ^ 2 + 1 y_13_ ^ 2 ] <= -2150
c13_1: 62 x_14_ + 198 y_14_ + [ 1 x_14_ ^ 2 + 1 y_14_ ^ 2 ] <= 6663
c14_1: 62 x_15_ + 198 y_15_ + [ 1 x_15_ ^ 2 + 1 y_15_ ^ 2 ] <= 36104
c15_1: 62 x_16_ + 198 y_16_ + [ 1 x_16_ ^ 2 + 1 y_16_ ^ 2 ] <= 3712
c16_1: 62 x_17_ + 198 y_17_ + [ 1 x_17_ ^ 2 + 1 y_17_ ^ 2 ] <= -7581
c17_1: 62 x_18_ + 198 y_18_ + [ 1 x_18_ ^ 2 + 1 y_18_ ^ 2 ] <= 6329
c18_1: 62 x_19_ + 198 y_19_ + [ 1 x_19_ ^ 2 + 1 y_19_ ^ 2 ] <= 23999
c19_1: 62 x_20_ + 198 y_20_ + [ 1 x_20_ ^ 2 + 1 y_20_ ^ 2 ] <= 17630
c20_1: 64 x_1_ - 66 y_1_ + [ 1 x_1_ ^ 2 + 1 y_1_ ^ 2 ] <= 22362
c21_1: 64 x_2_ - 66 y_2_ + [ 1 x_2_ ^ 2 + 1 y_2_ ^ 2 ] <= 39027
c22_1: 64 x_3_ - 66 y_3_ + [ 1 x_3_ ^ 2 + 1 y_3_ ^ 2 ] <= 15312
c23_1: 64 x_4_ - 66 y_4_ + [ 1 x_4_ ^ 2 + 1 y_4_ ^ 2 ] <= 4615
c24_1: 64 x_5_ - 66 y_5_ + [ 1 x_5_ ^ 2 + 1 y_5_ ^ 2 ] <= 28911
c25_1: 64 x_6_ - 66 y_6_ + [ 1 x_6_ ^ 2 + 1 y_6_ ^ 2 ] <= 23792
c26_1: 64 x_7_ - 66 y_7_ + [ 1 x_7_ ^ 2 + 1 y_7_ ^ 2 ] <= 14079
c27_1: 64 x_8_ - 66 y_8_ + [ 1 x_8_ ^ 2 + 1 y_8_ ^ 2 ] <= 37196
c28_1: 64 x_9_ - 66 y_9_ + [ 1 x_9_ ^ 2 + 1 y_9_ ^ 2 ] <= 8309
c29_1: 64 x_10_ - 66 y_10_ + [ 1 x_10_ ^ 2 + 1 y_10_ ^ 2 ] <= 45523
c30_1: 64 x_11_ - 66 y_11_ + [ 1 x_11_ ^ 2 + 1 y_11_ ^ 2 ] <= 22043
c31_1: 64 x_12_ - 66 y_12_ + [ 1 x_12_ ^ 2 + 1 y_12_ ^ 2 ] <= 10019
c32_1: 64 x_13_ - 66 y_13_ + [ 1 x_13_ ^ 2 + 1 y_13_ ^ 2 ] <= 3876
c33_1: 64 x_15_ - 66 y_15_ + [ 1 x_15_ ^ 2 + 1 y_15_ ^ 2 ] <= 17328
c34_1: 64 x_16_ - 66 y_16_ + [ 1 x_16_ ^ 2 + 1 y_16_ ^ 2 ] <= 11515
c35_1: 64 x_17_ - 66 y_17_ + [ 1 x_17_ ^ 2 + 1 y_17_ ^ 2 ] <= 10836
c36_1: 64 x_18_ - 66 y_18_ + [ 1 x_18_ ^ 2 + 1 y_18_ ^ 2 ] <= 33277
c37_1: 64 x_19_ - 66 y_19_ + [ 1 x_19_ ^ 2 + 1 y_19_ ^ 2 ] <= 57343
c38_1: 64 x_20_ - 66 y_20_ + [ 1 x_20_ ^ 2 + 1 y_20_ ^ 2 ] <= 29172
c39_1: 112 x_1_ - 120 y_1_ + [ 1 x_1_ ^ 2 + 1 y_1_ ^ 2 ] <= 15872
c40_1: 112 x_3_ - 120 y_3_ + [ 1 x_3_ ^ 2 + 1 y_3_ ^ 2 ] <= 19170
c41_1: 112 x_4_ - 120 y_4_ + [ 1 x_4_ ^ 2 + 1 y_4_ ^ 2 ] <= 8913
c42_1: 112 x_5_ - 120 y_5_ + [ 1 x_5_ ^ 2 + 1 y_5_ ^ 2 ] <= 6093
c43_1: 112 x_6_ - 120 y_6_ + [ 1 x_6_ ^ 2 + 1 y_6_ ^ 2 ] <= -4982
c44_1: 112 x_7_ - 120 y_7_ + [ 1 x_7_ ^ 2 + 1 y_7_ ^ 2 ] <= 20845
c45_1: 112 x_8_ - 120 y_8_ + [ 1 x_8_ ^ 2 + 1 y_8_ ^ 2 ] <= -1182
c46_1: 112 x_9_ - 120 y_9_ + [ 1 x_9_ ^ 2 + 1 y_9_ ^ 2 ] <= 12105
c47_1: 112 x_10_ - 120 y_10_ + [ 1 x_10_ ^ 2 + 1 y_10_ ^ 2 ] <= 27392
c48_1: 112 x_11_ - 120 y_11_ + [ 1 x_11_ ^ 2 + 1 y_11_ ^ 2 ] <= 12297
c49_1: 112 x_12_ - 120 y_12_ + [ 1 x_12_ ^ 2 + 1 y_12_ ^ 2 ] <= 1854
c50_1: 112 x_13_ - 120 y_13_ + [ 1 x_13_ ^ 2 + 1 y_13_ ^ 2 ] <= 8999
c51_1: 112 x_14_ - 120 y_14_ + [ 1 x_14_ ^ 2 + 1 y_14_ ^ 2 ] <= 34404
c52_1: 112 x_15_ - 120 y_15_ + [ 1 x_15_ ^ 2 + 1 y_15_ ^ 2 ] <= 23898
c53_1: 112 x_16_ - 120 y_16_ + [ 1 x_16_ ^ 2 + 1 y_16_ ^ 2 ] <= 2368
c54_1: 112 x_17_ - 120 y_17_ + [ 1 x_17_ ^ 2 + 1 y_17_ ^ 2 ] <= 15456
c55: 112 x_18_ - 120 y_18_ + [ 1 x_18_ ^ 2 + 1 y_18_ ^ 2 ] <= 26444
c56: 112 x_19_ - 120 y_19_ + [ 1 x_19_ ^ 2 + 1 y_19_ ^ 2 ] <= 18570
c57: 112 x_20_ - 120 y_20_ + [ 1 x_20_ ^ 2 + 1 y_20_ ^ 2 ] <= 834
c1_2: 1 x_3_ = -31
c2_2: 1 y_3_ = -99
c3_2: 1 x_14_ = -32
c4_2: 1 y_14_ = 33
c5_2: 1 x_2_ = -56
c6_2: 1 y_2_ = 60
c1: [ 1 x_1_ ^ 2 - 2 x_2_ * x_1_ + 1 x_2_ ^ 2 + 1 y_1_ ^ 2 - 2 y_2_ * y_1_ + 1 y_2_ ^ 2 ] = 22608
c2: [ 1 x_1_ ^ 2 - 2 x_3_ * x_1_ + 1 x_3_ ^ 2 + 1 y_1_ ^ 2 - 2 y_3_ * y_1_ + 1 y_3_ ^ 2 ] = 19018
c3: [ 1 x_2_ ^ 2 - 2 x_3_ * x_2_ + 1 x_3_ ^ 2 + 1 y_2_ ^ 2 - 2 y_3_ * y_2_ + 1 y_3_ ^ 2 ] = 25906
c4: [ 1 x_3_ ^ 2 - 2 x_4_ * x_3_ + 1 x_4_ ^ 2 + 1 y_3_ ^ 2 - 2 y_4_ * y_3_ + 1 y_4_ ^ 2 ] = 23461
c5: [ 1 x_4_ ^ 2 - 2 x_5_ * x_4_ + 1 x_5_ ^ 2 + 1 y_4_ ^ 2 - 2 y_5_ * y_4_ + 1 y_5_ ^ 2 ] = 8857
c6: [ 1 x_2_ ^ 2 - 2 x_6_ * x_2_ + 1 x_6_ ^ 2 + 1 y_2_ ^ 2 - 2 y_6_ * y_2_ + 1 y_6_ ^ 2 ] = 1754
c7: [ 1 x_3_ ^ 2 - 2 x_6_ * x_3_ + 1 x_6_ ^ 2 + 1 y_3_ ^ 2 - 2 y_6_ * y_3_ + 1 y_6_ ^ 2 ] = 15380
c8: [ 1 x_4_ ^ 2 - 2 x_6_ * x_4_ + 1 x_6_ ^ 2 + 1 y_4_ ^ 2 - 2 y_6_ * y_4_ + 1 y_6_ ^ 2 ] = 6925
c9: [ 1 x_5_ ^ 2 - 2 x_6_ * x_5_ + 1 x_6_ ^ 2 + 1 y_5_ ^ 2 - 2 y_6_ * y_5_ + 1 y_6_ ^ 2 ] = 5096
c10: [ 1 x_4_ ^ 2 - 2 x_7_ * x_4_ + 1 x_7_ ^ 2 + 1 y_4_ ^ 2 - 2 y_7_ * y_4_ + 1 y_7_ ^ 2 ] = 2045
c11: [ 1 x_6_ ^ 2 - 2 x_7_ * x_6_ + 1 x_7_ ^ 2 + 1 y_6_ ^ 2 - 2 y_7_ * y_6_ + 1 y_7_ ^ 2 ] = 15424
c12: [ 1 x_2_ ^ 2 - 2 x_8_ * x_2_ + 1 x_8_ ^ 2 + 1 y_2_ ^ 2 - 2 y_8_ * y_2_ + 1 y_8_ ^ 2 ] = 5554
c13: [ 1 x_6_ ^ 2 - 2 x_8_ * x_6_ + 1 x_8_ ^ 2 + 1 y_6_ ^ 2 - 2 y_8_ * y_6_ + 1 y_8_ ^ 2 ] = 2888
c14: [ 1 x_7_ ^ 2 - 2 x_8_ * x_7_ + 1 x_8_ ^ 2 + 1 y_7_ ^ 2 - 2 y_8_ * y_7_ + 1 y_8_ ^ 2 ] = 29864
c15: [ 1 x_6_ ^ 2 - 2 x_9_ * x_6_ + 1 x_9_ ^ 2 + 1 y_6_ ^ 2 - 2 y_9_ * y_6_ + 1 y_9_ ^ 2 ] = 9098
c16: [ 1 x_8_ ^ 2 - 2 x_9_ * x_8_ + 1 x_9_ ^ 2 + 1 y_8_ ^ 2 - 2 y_9_ * y_8_ + 1 y_9_ ^ 2 ] = 9250
c17: [ 1 x_5_ ^ 2 - 2 x_10_ * x_5_ + 1 x_10_ ^ 2 + 1 y_5_ ^ 2 - 2 y_10_ * y_5_ + 1 y_10_ ^ 2 ] = 5108
c18: [ 1 x_7_ ^ 2 - 2 x_10_ * x_7_ + 1 x_10_ ^ 2 + 1 y_7_ ^ 2 - 2 y_10_ * y_7_ + 1 y_10_ ^ 2 ] = 30532
c19: [ 1 x_9_ ^ 2 - 2 x_10_ * x_9_ + 1 x_10_ ^ 2 + 1 y_9_ ^ 2 - 2 y_10_ * y_9_ + 1 y_10_ ^ 2 ] = 27362
c20: [ 1 x_10_ ^ 2 - 2 x_11_ * x_10_ + 1 x_11_ ^ 2 + 1 y_10_ ^ 2 - 2 y_11_ * y_10_ + 1 y_11_ ^ 2 ] = 6705
c21: [ 1 x_3_ ^ 2 - 2 x_12_ * x_3_ + 1 x_12_ ^ 2 + 1 y_3_ ^ 2 - 2 y_12_ * y_3_ + 1 y_12_ ^ 2 ] = 10357
c22: [ 1 x_6_ ^ 2 - 2 x_12_ * x_6_ + 1 x_12_ ^ 2 + 1 y_6_ ^ 2 - 2 y_12_ * y_6_ + 1 y_12_ ^ 2 ] = 2581
c23: [ 1 x_11_ ^ 2 - 2 x_12_ * x_11_ + 1 x_12_ ^ 2 + 1 y_11_ ^ 2 - 2 y_12_ * y_11_ + 1 y_12_ ^ 2 ] = 2050
c24: [ 1 x_1_ ^ 2 - 2 x_13_ * x_1_ + 1 x_13_ ^ 2 + 1 y_1_ ^ 2 - 2 y_13_ * y_1_ + 1 y_13_ ^ 2 ] = 6250
c25: [ 1 x_9_ ^ 2 - 2 x_13_ * x_9_ + 1 x_13_ ^ 2 + 1 y_9_ ^ 2 - 2 y_13_ * y_9_ + 1 y_13_ ^ 2 ] = 610
c26: [ 1 x_10_ ^ 2 - 2 x_13_ * x_10_ + 1 x_13_ ^ 2 + 1 y_10_ ^ 2 - 2 y_13_ * y_10_ + 1 y_13_ ^ 2 ] = 19844
c27: [ 1 x_12_ ^ 2 - 2 x_13_ * x_12_ + 1 x_13_ ^ 2 + 1 y_12_ ^ 2 - 2 y_13_ * y_12_ + 1 y_13_ ^ 2 ] = 1073
c28: [ 1 x_3_ ^ 2 - 2 x_14_ * x_3_ + 1 x_14_ ^ 2 + 1 y_3_ ^ 2 - 2 y_14_ * y_3_ + 1 y_14_ ^ 2 ] = 17425
c29: [ 1 x_4_ ^ 2 - 2 x_14_ * x_4_ + 1 x_14_ ^ 2 + 1 y_4_ ^ 2 - 2 y_14_ * y_4_ + 1 y_14_ ^ 2 ] = 6728
c30: [ 1 x_13_ ^ 2 - 2 x_14_ * x_13_ + 1 x_14_ ^ 2 + 1 y_13_ ^ 2 - 2 y_14_ * y_13_ + 1 y_14_ ^ 2 ] = 5989
c31: [ 1 x_2_ ^ 2 - 2 x_15_ * x_2_ + 1 x_15_ ^ 2 + 1 y_2_ ^ 2 - 2 y_15_ * y_2_ + 1 y_15_ ^ 2 ] = 30634
c32: [ 1 x_4_ ^ 2 - 2 x_15_ * x_4_ + 1 x_15_ ^ 2 + 1 y_4_ ^ 2 - 2 y_15_ * y_4_ + 1 y_15_ ^ 2 ] = 14045
c33: [ 1 x_6_ ^ 2 - 2 x_15_ * x_6_ + 1 x_15_ ^ 2 + 1 y_6_ ^ 2 - 2 y_15_ * y_6_ + 1 y_15_ ^ 2 ] = 17728
c34: [ 1 x_7_ ^ 2 - 2 x_15_ * x_7_ + 1 x_15_ ^ 2 + 1 y_7_ ^ 2 - 2 y_15_ * y_7_ + 1 y_15_ ^ 2 ] = 23040
c35: [ 1 x_14_ ^ 2 - 2 x_15_ * x_14_ + 1 x_15_ ^ 2 + 1 y_14_ ^ 2 - 2 y_15_ * y_14_ + 1 y_15_ ^ 2 ] = 19441
c36: [ 1 x_2_ ^ 2 - 2 x_16_ * x_2_ + 1 x_16_ ^ 2 + 1 y_2_ ^ 2 - 2 y_16_ * y_2_ + 1 y_16_ ^ 2 ] = 9104
c37: [ 1 x_3_ ^ 2 - 2 x_16_ * x_3_ + 1 x_16_ ^ 2 + 1 y_3_ ^ 2 - 2 y_16_ * y_3_ + 1 y_16_ ^ 2 ] = 14474
c38: [ 1 x_4_ ^ 2 - 2 x_16_ * x_4_ + 1 x_16_ ^ 2 + 1 y_4_ ^ 2 - 2 y_16_ * y_4_ + 1 y_16_ ^ 2 ] = 1205
c39: [ 1 x_9_ ^ 2 - 2 x_16_ * x_9_ + 1 x_16_ ^ 2 + 1 y_9_ ^ 2 - 2 y_16_ * y_9_ + 1 y_16_ ^ 2 ] = 4456
c40: [ 1 x_15_ ^ 2 - 2 x_16_ * x_15_ + 1 x_16_ ^ 2 + 1 y_15_ ^ 2 - 2 y_16_ * y_15_ + 1 y_16_ ^ 2 ] = 9250
c41: [ 1 x_3_ ^ 2 - 2 x_17_ * x_3_ + 1 x_17_ ^ 2 + 1 y_3_ ^ 2 - 2 y_17_ * y_3_ + 1 y_17_ ^ 2 ] = 3181
c42: [ 1 x_8_ ^ 2 - 2 x_17_ * x_8_ + 1 x_17_ ^ 2 + 1 y_8_ ^ 2 - 2 y_17_ * y_8_ + 1 y_17_ ^ 2 ] = 7157
c43: [ 1 x_9_ ^ 2 - 2 x_17_ * x_9_ + 1 x_17_ ^ 2 + 1 y_9_ ^ 2 - 2 y_17_ * y_9_ + 1 y_17_ ^ 2 ] = 137
c44: [ 1 x_16_ ^ 2 - 2 x_17_ * x_16_ + 1 x_17_ ^ 2 + 1 y_16_ ^ 2 - 2 y_17_ * y_16_ + 1 y_17_ ^ 2 ] = 4285
c45: [ 1 x_11_ ^ 2 - 2 x_18_ * x_11_ + 1 x_18_ ^ 2 + 1 y_11_ ^ 2 - 2 y_18_ * y_11_ + 1 y_18_ ^ 2 ] = 9697
c46: [ 1 x_12_ ^ 2 - 2 x_18_ * x_12_ + 1 x_18_ ^ 2 + 1 y_12_ ^ 2 - 2 y_18_ * y_12_ + 1 y_18_ ^ 2 ] = 8005
c47: [ 1 x_15_ ^ 2 - 2 x_18_ * x_15_ + 1 x_18_ ^ 2 + 1 y_15_ ^ 2 - 2 y_18_ * y_15_ + 1 y_18_ ^ 2 ] = 13700
c48: [ 1 x_17_ ^ 2 - 2 x_18_ * x_17_ + 1 x_18_ ^ 2 + 1 y_17_ ^ 2 - 2 y_18_ * y_17_ + 1 y_18_ ^ 2 ] = 5525
c49: [ 1 x_2_ ^ 2 - 2 x_19_ * x_2_ + 1 x_19_ ^ 2 + 1 y_2_ ^ 2 - 2 y_19_ * y_2_ + 1 y_19_ ^ 2 ] = 25306
c50: [ 1 x_18_ ^ 2 - 2 x_19_ * x_18_ + 1 x_19_ ^ 2 + 1 y_18_ ^ 2 - 2 y_19_ * y_18_ + 1 y_19_ ^ 2 ] = 3104
c51: [ 1 x_1_ ^ 2 - 2 x_20_ * x_1_ + 1 x_20_ ^ 2 + 1 y_1_ ^ 2 - 2 y_20_ * y_1_ + 1 y_20_ ^ 2 ] = 17386
c52: [ 1 x_2_ ^ 2 - 2 x_20_ * x_2_ + 1 x_20_ ^ 2 + 1 y_2_ ^ 2 - 2 y_20_ * y_2_ + 1 y_20_ ^ 2 ] = 7570
c53: [ 1 x_12_ ^ 2 - 2 x_20_ * x_12_ + 1 x_20_ ^ 2 + 1 y_12_ ^ 2 - 2 y_20_ * y_12_ + 1 y_20_ ^ 2 ] = 4453
c54: [ 1 x_19_ ^ 2 - 2 x_20_ * x_19_ + 1 x_20_ ^ 2 + 1 y_19_ ^ 2 - 2 y_20_ * y_19_ + 1 y_20_ ^ 2 ] = 5200
Bounds
-168 <= x_1_ <= 94
x_2_ = -56
x_3_ = -31
-114 <= x_4_ <= 50
-169 <= x_5_ <= 57
-97 <= x_6_ <= -15
-159 <= x_7_ <= 95
-130 <= x_8_ <= 18
-99 <= x_9_ <= 37
-240 <= x_10_ <= 128
-178 <= x_11_ <= 81
-132 <= x_12_ <= 36
-109 <= x_13_ <= 45
x_14_ = -32
-171 <= x_15_ <= 107
-148 <= x_16_ <= 39
-87 <= x_17_ <= 25
-161 <= x_18_ <= 99
-215 <= x_19_ <= 103
-143 <= x_20_ <= 31
-90 <= y_1_ <= 38
y_2_ = 60
y_3_ = -99
-49 <= y_4_ <= 54
-53 <= y_5_ <= 96
19 <= y_6_ <= 25
-94 <= y_7_ <= 99
-14 <= y_8_ <= 41
-69 <= y_9_ <= -31
-124 <= y_10_ <= 129
-77 <= y_11_ <= 48
-32 <= y_12_ <= 2
-44 <= y_13_ <= -7
y_14_ = 33
-106 <= y_15_ <= 117
-35 <= y_16_ <= 21
-80 <= y_17_ <= -43
-122 <= y_18_ <= 31
-99 <= y_19_ <= 87
-27 <= y_20_ <= 69
General
x_1_
x_2_
x_3_
x_4_
x_5_
x_6_
x_7_
x_8_
x_9_
x_10_
x_11_
x_12_
x_13_
x_14_
x_15_
x_16_
x_17_
x_18_
x_19_
x_20_
y_1_
y_2_
y_3_
y_4_
y_5_
y_6_
y_7_
y_8_
y_9_
y_10_
y_11_
y_12_
y_13_
y_14_
y_15_
y_16_
y_17_
y_18_
y_19_
y_20_
End
