minimize
obj: 
subject to
c1_1: 130 x_1_ - 182 y_1_ + [ 1 x_1_ ^ 2 + 1 y_1_ ^ 2 ] <= 68118
c2_1: 130 x_2_ - 182 y_2_ + [ 1 x_2_ ^ 2 + 1 y_2_ ^ 2 ] <= 70092
c3_1: 130 x_3_ - 182 y_3_ + [ 1 x_3_ ^ 2 + 1 y_3_ ^ 2 ] <= 65084
c4_1: 130 x_4_ - 182 y_4_ + [ 1 x_4_ ^ 2 + 1 y_4_ ^ 2 ] <= 52912
c5_1: 130 x_5_ - 182 y_5_ + [ 1 x_5_ ^ 2 + 1 y_5_ ^ 2 ] <= 63055
c6_1: 130 x_6_ - 182 y_6_ + [ 1 x_6_ ^ 2 + 1 y_6_ ^ 2 ] <= 18519
c7_1: 130 x_8_ - 182 y_8_ + [ 1 x_8_ ^ 2 + 1 y_8_ ^ 2 ] <= 5728
c8_1: 130 x_9_ - 182 y_9_ + [ 1 x_9_ ^ 2 + 1 y_9_ ^ 2 ] <= 45096
c9_1: 130 x_10_ - 182 y_10_ + [ 1 x_10_ ^ 2 + 1 y_10_ ^ 2 ] <= 66100
c10_1: 130 x_11_ - 182 y_11_ + [ 1 x_11_ ^ 2 + 1 y_11_ ^ 2 ] <= 42256
c11_1: 130 x_12_ - 182 y_12_ + [ 1 x_12_ ^ 2 + 1 y_12_ ^ 2 ] <= 4779
c12_1: 130 x_13_ - 182 y_13_ + [ 1 x_13_ ^ 2 + 1 y_13_ ^ 2 ] <= 51987
c13_1: 130 x_14_ - 182 y_14_ + [ 1 x_14_ ^ 2 + 1 y_14_ ^ 2 ] <= 11139
c14_1: 130 x_15_ - 182 y_15_ + [ 1 x_15_ ^ 2 + 1 y_15_ ^ 2 ] <= 50169
c15_1: 130 x_16_ - 182 y_16_ + [ 1 x_16_ ^ 2 + 1 y_16_ ^ 2 ] <= 46009
c16_1: 130 x_17_ - 182 y_17_ + [ 1 x_17_ ^ 2 + 1 y_17_ ^ 2 ] <= 19131
c17_1: 130 x_18_ - 182 y_18_ + [ 1 x_18_ ^ 2 + 1 y_18_ ^ 2 ] <= 32615
c18_1: 130 x_19_ - 182 y_19_ + [ 1 x_19_ ^ 2 + 1 y_19_ ^ 2 ] <= 33150
c19_1: 130 x_20_ - 182 y_20_ + [ 1 x_20_ ^ 2 + 1 y_20_ ^ 2 ] <= 80784
c20_1: -48 x_1_ + 126 y_1_ + [ 1 x_1_ ^ 2 + 1 y_1_ ^ 2 ] <= 21853
c21_1: -48 x_2_ + 126 y_2_ + [ 1 x_2_ ^ 2 + 1 y_2_ ^ 2 ] <= 17264
c22_1: -48 x_3_ + 126 y_3_ + [ 1 x_3_ ^ 2 + 1 y_3_ ^ 2 ] <= 41561
c23_1: -48 x_4_ + 126 y_4_ + [ 1 x_4_ ^ 2 + 1 y_4_ ^ 2 ] <= 8703
c24_1: -48 x_5_ + 126 y_5_ + [ 1 x_5_ ^ 2 + 1 y_5_ ^ 2 ] <= 4867
c25_1: -48 x_6_ + 126 y_6_ + [ 1 x_6_ ^ 2 + 1 y_6_ ^ 2 ] <= -3287
c26_1: -48 x_7_ + 126 y_7_ + [ 1 x_7_ ^ 2 + 1 y_7_ ^ 2 ] <= 27092
c27_1: -48 x_8_ + 126 y_8_ + [ 1 x_8_ ^ 2 + 1 y_8_ ^ 2 ] <= 49733
c28_1: -48 x_9_ + 126 y_9_ + [ 1 x_9_ ^ 2 + 1 y_9_ ^ 2 ] <= 1029
c29_1: -48 x_10_ + 126 y_10_ + [ 1 x_10_ ^ 2 + 1 y_10_ ^ 2 ] <= 19670
c30_1: -48 x_11_ + 126 y_11_ + [ 1 x_11_ ^ 2 + 1 y_11_ ^ 2 ] <= 40273
c31_1: -48 x_12_ + 126 y_12_ + [ 1 x_12_ ^ 2 + 1 y_12_ ^ 2 ] <= 87631
c32_1: -48 x_13_ + 126 y_13_ + [ 1 x_13_ ^ 2 + 1 y_13_ ^ 2 ] <= 99342
c33_1: -48 x_14_ + 126 y_14_ + [ 1 x_14_ ^ 2 + 1 y_14_ ^ 2 ] <= 34553
c34_1: -48 x_15_ + 126 y_15_ + [ 1 x_15_ ^ 2 + 1 y_15_ ^ 2 ] <= 26168
c35_1: -48 x_16_ + 126 y_16_ + [ 1 x_16_ ^ 2 + 1 y_16_ ^ 2 ] <= -445
c36_1: -48 x_18_ + 126 y_18_ + [ 1 x_18_ ^ 2 + 1 y_18_ ^ 2 ] <= -2329
c37_1: -48 x_19_ + 126 y_19_ + [ 1 x_19_ ^ 2 + 1 y_19_ ^ 2 ] <= -3263
c38_1: -48 x_20_ + 126 y_20_ + [ 1 x_20_ ^ 2 + 1 y_20_ ^ 2 ] <= 11728
c39_1: -6 x_1_ + 68 y_1_ + [ 1 x_1_ ^ 2 + 1 y_1_ ^ 2 ] <= 14880
c40_1: -6 x_2_ + 68 y_2_ + [ 1 x_2_ ^ 2 + 1 y_2_ ^ 2 ] <= 18717
c41_1: -6 x_3_ + 68 y_3_ + [ 1 x_3_ ^ 2 + 1 y_3_ ^ 2 ] <= 37481
c42_1: -6 x_4_ + 68 y_4_ + [ 1 x_4_ ^ 2 + 1 y_4_ ^ 2 ] <= 14041
c43_1: -6 x_5_ + 68 y_5_ + [ 1 x_5_ ^ 2 + 1 y_5_ ^ 2 ] <= 4549
c44_1: -6 x_6_ + 68 y_6_ + [ 1 x_6_ ^ 2 + 1 y_6_ ^ 2 ] <= 743
c45_1: -6 x_7_ + 68 y_7_ + [ 1 x_7_ ^ 2 + 1 y_7_ ^ 2 ] <= 44491
c46_1: -6 x_8_ + 68 y_8_ + [ 1 x_8_ ^ 2 + 1 y_8_ ^ 2 ] <= 63739
c47_1: -6 x_9_ + 68 y_9_ + [ 1 x_9_ ^ 2 + 1 y_9_ ^ 2 ] <= 9883
c48_1: -6 x_10_ + 68 y_10_ + [ 1 x_10_ ^ 2 + 1 y_10_ ^ 2 ] <= 13189
c49_1: -6 x_11_ + 68 y_11_ + [ 1 x_11_ ^ 2 + 1 y_11_ ^ 2 ] <= 29775
c50_1: -6 x_12_ + 68 y_12_ + [ 1 x_12_ ^ 2 + 1 y_12_ ^ 2 ] <= 78312
c51_1: -6 x_13_ + 68 y_13_ + [ 1 x_13_ ^ 2 + 1 y_13_ ^ 2 ] <= 80923
c52_1: -6 x_14_ + 68 y_14_ + [ 1 x_14_ ^ 2 + 1 y_14_ ^ 2 ] <= 53375
c53_1: -6 x_15_ + 68 y_15_ + [ 1 x_15_ ^ 2 + 1 y_15_ ^ 2 ] <= 18280
c54_1: -6 x_16_ + 68 y_16_ + [ 1 x_16_ ^ 2 + 1 y_16_ ^ 2 ] <= 8802
c55: -6 x_17_ + 68 y_17_ + [ 1 x_17_ ^ 2 + 1 y_17_ ^ 2 ] <= 117
c56: -6 x_18_ + 68 y_18_ + [ 1 x_18_ ^ 2 + 1 y_18_ ^ 2 ] <= 4845
c57: -6 x_20_ + 68 y_20_ + [ 1 x_20_ ^ 2 + 1 y_20_ ^ 2 ] <= 7255
c1_2: 1 x_7_ = -65
c2_2: 1 y_7_ = 91
c3_2: 1 x_17_ = 24
c4_2: 1 y_17_ = -63
c5_2: 1 x_19_ = 3
c6_2: 1 y_19_ = -34
c1: [ 1 x_1_ ^ 2 - 2 x_2_ * x_1_ + 1 x_2_ ^ 2 + 1 y_1_ ^ 2 - 2 y_2_ * y_1_ + 1 y_2_ ^ 2 ] = 9140
c2: [ 1 x_2_ ^ 2 - 2 x_3_ * x_2_ + 1 x_3_ ^ 2 + 1 y_2_ ^ 2 - 2 y_3_ * y_2_ + 1 y_3_ ^ 2 ] = 15337
c3: [ 1 x_3_ ^ 2 - 2 x_4_ * x_3_ + 1 x_4_ ^ 2 + 1 y_3_ ^ 2 - 2 y_4_ * y_3_ + 1 y_4_ ^ 2 ] = 17861
c4: [ 1 x_4_ ^ 2 - 2 x_5_ * x_4_ + 1 x_5_ ^ 2 + 1 y_4_ ^ 2 - 2 y_5_ * y_4_ + 1 y_5_ ^ 2 ] = 16513
c5: [ 1 x_3_ ^ 2 - 2 x_6_ * x_3_ + 1 x_6_ ^ 2 + 1 y_3_ ^ 2 - 2 y_6_ * y_3_ + 1 y_6_ ^ 2 ] = 32132
c6: [ 1 x_4_ ^ 2 - 2 x_6_ * x_4_ + 1 x_6_ ^ 2 + 1 y_4_ ^ 2 - 2 y_6_ * y_4_ + 1 y_6_ ^ 2 ] = 6341
c7: [ 1 x_5_ ^ 2 - 2 x_6_ * x_5_ + 1 x_6_ ^ 2 + 1 y_5_ ^ 2 - 2 y_6_ * y_5_ + 1 y_6_ ^ 2 ] = 14090
c8: [ 1 x_6_ ^ 2 - 2 x_7_ * x_6_ + 1 x_7_ ^ 2 + 1 y_6_ ^ 2 - 2 y_7_ * y_6_ + 1 y_7_ ^ 2 ] = 31025
c9: [ 1 x_3_ ^ 2 - 2 x_8_ * x_3_ + 1 x_8_ ^ 2 + 1 y_3_ ^ 2 - 2 y_8_ * y_3_ + 1 y_8_ ^ 2 ] = 21361
c10: [ 1 x_7_ ^ 2 - 2 x_8_ * x_7_ + 1 x_8_ ^ 2 + 1 y_7_ ^ 2 - 2 y_8_ * y_7_ + 1 y_8_ ^ 2 ] = 18234
c11: [ 1 x_3_ ^ 2 - 2 x_9_ * x_3_ + 1 x_9_ ^ 2 + 1 y_3_ ^ 2 - 2 y_9_ * y_3_ + 1 y_9_ ^ 2 ] = 41405
c12: [ 1 x_6_ ^ 2 - 2 x_9_ * x_6_ + 1 x_9_ ^ 2 + 1 y_6_ ^ 2 - 2 y_9_ * y_6_ + 1 y_9_ ^ 2 ] = 10285
c13: [ 1 x_8_ ^ 2 - 2 x_9_ * x_8_ + 1 x_9_ ^ 2 + 1 y_8_ ^ 2 - 2 y_9_ * y_8_ + 1 y_9_ ^ 2 ] = 25064
c14: [ 1 x_9_ ^ 2 - 2 x_10_ * x_9_ + 1 x_10_ ^ 2 + 1 y_9_ ^ 2 - 2 y_10_ * y_9_ + 1 y_10_ ^ 2 ] = 41773
c15: [ 1 x_1_ ^ 2 - 2 x_11_ * x_1_ + 1 x_11_ ^ 2 + 1 y_1_ ^ 2 - 2 y_11_ * y_1_ + 1 y_11_ ^ 2 ] = 2493
c16: [ 1 x_8_ ^ 2 - 2 x_11_ * x_8_ + 1 x_11_ ^ 2 + 1 y_8_ ^ 2 - 2 y_11_ * y_8_ + 1 y_11_ ^ 2 ] = 9797
c17: [ 1 x_10_ ^ 2 - 2 x_11_ * x_10_ + 1 x_11_ ^ 2 + 1 y_10_ ^ 2 - 2 y_11_ * y_10_ + 1 y_11_ ^ 2 ] = 3146
c18: [ 1 x_2_ ^ 2 - 2 x_12_ * x_2_ + 1 x_12_ ^ 2 + 1 y_2_ ^ 2 - 2 y_12_ * y_2_ + 1 y_12_ ^ 2 ] = 24313
c19: [ 1 x_3_ ^ 2 - 2 x_12_ * x_3_ + 1 x_12_ ^ 2 + 1 y_3_ ^ 2 - 2 y_12_ * y_3_ + 1 y_12_ ^ 2 ] = 21632
c20: [ 1 x_7_ ^ 2 - 2 x_12_ * x_7_ + 1 x_12_ ^ 2 + 1 y_7_ ^ 2 - 2 y_12_ * y_7_ + 1 y_12_ ^ 2 ] = 17285
c21: [ 1 x_11_ ^ 2 - 2 x_12_ * x_11_ + 1 x_12_ ^ 2 + 1 y_11_ ^ 2 - 2 y_12_ * y_11_ + 1 y_12_ ^ 2 ] = 11240
c22: [ 1 x_1_ ^ 2 - 2 x_13_ * x_1_ + 1 x_13_ ^ 2 + 1 y_1_ ^ 2 - 2 y_13_ * y_1_ + 1 y_13_ ^ 2 ] = 25549
c23: [ 1 x_11_ ^ 2 - 2 x_13_ * x_11_ + 1 x_13_ ^ 2 + 1 y_11_ ^ 2 - 2 y_13_ * y_11_ + 1 y_13_ ^ 2 ] = 16474
c24: [ 1 x_12_ ^ 2 - 2 x_13_ * x_12_ + 1 x_13_ ^ 2 + 1 y_12_ ^ 2 - 2 y_13_ * y_12_ + 1 y_13_ ^ 2 ] = 15002
c25: [ 1 x_7_ ^ 2 - 2 x_14_ * x_7_ + 1 x_14_ ^ 2 + 1 y_7_ ^ 2 - 2 y_14_ * y_7_ + 1 y_14_ ^ 2 ] = 23645
c26: [ 1 x_13_ ^ 2 - 2 x_14_ * x_13_ + 1 x_14_ ^ 2 + 1 y_13_ ^ 2 - 2 y_14_ * y_13_ + 1 y_14_ ^ 2 ] = 18020
c27: [ 1 x_3_ ^ 2 - 2 x_15_ * x_3_ + 1 x_15_ ^ 2 + 1 y_3_ ^ 2 - 2 y_15_ * y_3_ + 1 y_15_ ^ 2 ] = 3265
c28: [ 1 x_8_ ^ 2 - 2 x_15_ * x_8_ + 1 x_15_ ^ 2 + 1 y_8_ ^ 2 - 2 y_15_ * y_8_ + 1 y_15_ ^ 2 ] = 13298
c29: [ 1 x_10_ ^ 2 - 2 x_15_ * x_10_ + 1 x_15_ ^ 2 + 1 y_10_ ^ 2 - 2 y_15_ * y_10_ + 1 y_15_ ^ 2 ] = 901
c30: [ 1 x_14_ ^ 2 - 2 x_15_ * x_14_ + 1 x_15_ ^ 2 + 1 y_14_ ^ 2 - 2 y_15_ * y_14_ + 1 y_15_ ^ 2 ] = 30881
c31: [ 1 x_1_ ^ 2 - 2 x_16_ * x_1_ + 1 x_16_ ^ 2 + 1 y_1_ ^ 2 - 2 y_16_ * y_1_ + 1 y_16_ ^ 2 ] = 13481
c32: [ 1 x_2_ ^ 2 - 2 x_16_ * x_2_ + 1 x_16_ ^ 2 + 1 y_2_ ^ 2 - 2 y_16_ * y_2_ + 1 y_16_ ^ 2 ] = 6997
c33: [ 1 x_14_ ^ 2 - 2 x_16_ * x_14_ + 1 x_16_ ^ 2 + 1 y_14_ ^ 2 - 2 y_16_ * y_14_ + 1 y_16_ ^ 2 ] = 17876
c34: [ 1 x_15_ ^ 2 - 2 x_16_ * x_15_ + 1 x_16_ ^ 2 + 1 y_15_ ^ 2 - 2 y_16_ * y_15_ + 1 y_16_ ^ 2 ] = 12689
c35: [ 1 x_5_ ^ 2 - 2 x_17_ * x_5_ + 1 x_17_ ^ 2 + 1 y_5_ ^ 2 - 2 y_17_ * y_5_ + 1 y_17_ ^ 2 ] = 9412
c36: [ 1 x_6_ ^ 2 - 2 x_17_ * x_6_ + 1 x_17_ ^ 2 + 1 y_6_ ^ 2 - 2 y_17_ * y_6_ + 1 y_17_ ^ 2 ] = 1258
c37: [ 1 x_7_ ^ 2 - 2 x_17_ * x_7_ + 1 x_17_ ^ 2 + 1 y_7_ ^ 2 - 2 y_17_ * y_7_ + 1 y_17_ ^ 2 ] = 31637
c38: [ 1 x_16_ ^ 2 - 2 x_17_ * x_16_ + 1 x_17_ ^ 2 + 1 y_16_ ^ 2 - 2 y_17_ * y_16_ + 1 y_17_ ^ 2 ] = 4100
c39: [ 1 x_4_ ^ 2 - 2 x_18_ * x_4_ + 1 x_18_ ^ 2 + 1 y_4_ ^ 2 - 2 y_18_ * y_4_ + 1 y_18_ ^ 2 ] = 22585
c40: [ 1 x_7_ ^ 2 - 2 x_18_ * x_7_ + 1 x_18_ ^ 2 + 1 y_7_ ^ 2 - 2 y_18_ * y_7_ + 1 y_18_ ^ 2 ] = 45121
c41: [ 1 x_9_ ^ 2 - 2 x_18_ * x_9_ + 1 x_18_ ^ 2 + 1 y_9_ ^ 2 - 2 y_18_ * y_9_ + 1 y_18_ ^ 2 ] = 761
c42: [ 1 x_17_ ^ 2 - 2 x_18_ * x_17_ + 1 x_18_ ^ 2 + 1 y_17_ ^ 2 - 2 y_18_ * y_17_ + 1 y_18_ ^ 2 ] = 2216
c43: [ 1 x_1_ ^ 2 - 2 x_19_ * x_1_ + 1 x_19_ ^ 2 + 1 y_1_ ^ 2 - 2 y_19_ * y_1_ + 1 y_19_ ^ 2 ] = 16045
c44: [ 1 x_5_ ^ 2 - 2 x_19_ * x_5_ + 1 x_19_ ^ 2 + 1 y_5_ ^ 2 - 2 y_19_ * y_5_ + 1 y_19_ ^ 2 ] = 5714
c45: [ 1 x_6_ ^ 2 - 2 x_19_ * x_6_ + 1 x_19_ ^ 2 + 1 y_6_ ^ 2 - 2 y_19_ * y_6_ + 1 y_19_ ^ 2 ] = 1908
c46: [ 1 x_10_ ^ 2 - 2 x_19_ * x_10_ + 1 x_19_ ^ 2 + 1 y_10_ ^ 2 - 2 y_19_ * y_10_ + 1 y_19_ ^ 2 ] = 14354
c47: [ 1 x_15_ ^ 2 - 2 x_19_ * x_15_ + 1 x_19_ ^ 2 + 1 y_15_ ^ 2 - 2 y_19_ * y_15_ + 1 y_19_ ^ 2 ] = 19445
c48: [ 1 x_17_ ^ 2 - 2 x_19_ * x_17_ + 1 x_19_ ^ 2 + 1 y_17_ ^ 2 - 2 y_19_ * y_17_ + 1 y_19_ ^ 2 ] = 1282
c49: [ 1 x_18_ ^ 2 - 2 x_19_ * x_18_ + 1 x_19_ ^ 2 + 1 y_18_ ^ 2 - 2 y_19_ * y_18_ + 1 y_19_ ^ 2 ] = 6010
c50: [ 1 x_1_ ^ 2 - 2 x_20_ * x_1_ + 1 x_20_ ^ 2 + 1 y_1_ ^ 2 - 2 y_20_ * y_1_ + 1 y_20_ ^ 2 ] = 20201
c51: [ 1 x_2_ ^ 2 - 2 x_20_ * x_2_ + 1 x_20_ ^ 2 + 1 y_2_ ^ 2 - 2 y_20_ * y_2_ + 1 y_20_ ^ 2 ] = 2425
c52: [ 1 x_11_ ^ 2 - 2 x_20_ * x_11_ + 1 x_20_ ^ 2 + 1 y_11_ ^ 2 - 2 y_20_ * y_11_ + 1 y_20_ ^ 2 ] = 19748
c53: [ 1 x_15_ ^ 2 - 2 x_20_ * x_15_ + 1 x_20_ ^ 2 + 1 y_15_ ^ 2 - 2 y_20_ * y_15_ + 1 y_20_ ^ 2 ] = 39053
c54: [ 1 x_19_ ^ 2 - 2 x_20_ * x_19_ + 1 x_20_ ^ 2 + 1 y_19_ ^ 2 - 2 y_20_ * y_19_ + 1 y_20_ ^ 2 ] = 8420
Bounds
-123 <= x_1_ <= 129
-123 <= x_2_ <= 144
-190 <= x_3_ <= 199
-91 <= x_4_ <= 126
-72 <= x_5_ <= 78
-11 <= x_6_ <= 46
x_7_ = -65
-200 <= x_8_ <= 70
-50 <= x_9_ <= 98
-116 <= x_10_ <= 122
-172 <= x_11_ <= 169
-196 <= x_12_ <= 66
-283 <= x_13_ <= 188
-173 <= x_14_ <= 88
-136 <= x_15_ <= 142
-40 <= x_16_ <= 88
x_17_ = 24
-23 <= x_18_ <= 71
x_19_ = 3
-88 <= x_20_ <= 94
-160 <= y_1_ <= 92
-175 <= y_2_ <= 84
-187 <= y_3_ <= 151
-157 <= y_4_ <= 52
-109 <= y_5_ <= 34
-77 <= y_6_ <= -28
y_7_ = 91
-44 <= y_8_ <= 169
-137 <= y_9_ <= 11
-153 <= y_10_ <= 85
-143 <= y_11_ <= 141
-40 <= y_12_ <= 222
-162 <= y_13_ <= 252
-62 <= y_14_ <= 134
-159 <= y_15_ <= 105
-127 <= y_16_ <= 1
y_17_ = -63
-110 <= y_18_ <= -16
y_19_ = -34
-125 <= y_20_ <= 57
General
x_1_
x_2_
x_3_
x_4_
x_5_
x_6_
x_7_
x_8_
x_9_
x_10_
x_11_
x_12_
x_13_
x_14_
x_15_
x_16_
x_17_
x_18_
x_19_
x_20_
y_1_
y_2_
y_3_
y_4_
y_5_
y_6_
y_7_
y_8_
y_9_
y_10_
y_11_
y_12_
y_13_
y_14_
y_15_
y_16_
y_17_
y_18_
y_19_
y_20_
End
