minimize
obj: 
subject to
c1_1: -152 x_1_ - 126 y_1_ + [ 1 x_1_ ^ 2 + 1 y_1_ ^ 2 ] <= 2476
c2_1: -152 x_2_ - 126 y_2_ + [ 1 x_2_ ^ 2 + 1 y_2_ ^ 2 ] <= -5716
c3_1: -152 x_3_ - 126 y_3_ + [ 1 x_3_ ^ 2 + 1 y_3_ ^ 2 ] <= 27948
c4_1: -152 x_4_ - 126 y_4_ + [ 1 x_4_ ^ 2 + 1 y_4_ ^ 2 ] <= 17170
c5_1: -152 x_5_ - 126 y_5_ + [ 1 x_5_ ^ 2 + 1 y_5_ ^ 2 ] <= 15824
c6_1: -152 x_6_ - 126 y_6_ + [ 1 x_6_ ^ 2 + 1 y_6_ ^ 2 ] <= 8233
c7_1: -152 x_7_ - 126 y_7_ + [ 1 x_7_ ^ 2 + 1 y_7_ ^ 2 ] <= 15203
c8_1: -152 x_8_ - 126 y_8_ + [ 1 x_8_ ^ 2 + 1 y_8_ ^ 2 ] <= 28529
c9_1: -152 x_9_ - 126 y_9_ + [ 1 x_9_ ^ 2 + 1 y_9_ ^ 2 ] <= 12078
c10_1: -152 x_10_ - 126 y_10_ + [ 1 x_10_ ^ 2 + 1 y_10_ ^ 2 ] <= 18841
c11_1: -152 x_11_ - 126 y_11_ + [ 1 x_11_ ^ 2 + 1 y_11_ ^ 2 ] <= 2185
c12_1: -152 x_12_ - 126 y_12_ + [ 1 x_12_ ^ 2 + 1 y_12_ ^ 2 ] <= 14517
c13_1: -152 x_13_ - 126 y_13_ + [ 1 x_13_ ^ 2 + 1 y_13_ ^ 2 ] <= -5657
c14_1: -152 x_14_ - 126 y_14_ + [ 1 x_14_ ^ 2 + 1 y_14_ ^ 2 ] <= 7208
c15_1: -152 x_15_ - 126 y_15_ + [ 1 x_15_ ^ 2 + 1 y_15_ ^ 2 ] <= 19840
c16_1: -152 x_16_ - 126 y_16_ + [ 1 x_16_ ^ 2 + 1 y_16_ ^ 2 ] <= 13635
c17_1: -152 x_17_ - 126 y_17_ + [ 1 x_17_ ^ 2 + 1 y_17_ ^ 2 ] <= 24490
c18_1: -152 x_18_ - 126 y_18_ + [ 1 x_18_ ^ 2 + 1 y_18_ ^ 2 ] <= 3601
c19_1: -152 x_19_ - 126 y_19_ + [ 1 x_19_ ^ 2 + 1 y_19_ ^ 2 ] <= 7874
c20_1: -152 x_20_ - 126 y_20_ + [ 1 x_20_ ^ 2 + 1 y_20_ ^ 2 ] <= -2366
c21_1: -152 x_21_ - 126 y_21_ + [ 1 x_21_ ^ 2 + 1 y_21_ ^ 2 ] <= 16196
c22_1: -152 x_22_ - 126 y_22_ + [ 1 x_22_ ^ 2 + 1 y_22_ ^ 2 ] <= 2731
c23_1: -152 x_23_ - 126 y_23_ + [ 1 x_23_ ^ 2 + 1 y_23_ ^ 2 ] <= -8575
c24_1: -152 x_24_ - 126 y_24_ + [ 1 x_24_ ^ 2 + 1 y_24_ ^ 2 ] <= 25644
c25_1: -152 x_25_ - 126 y_25_ + [ 1 x_25_ ^ 2 + 1 y_25_ ^ 2 ] <= 36663
c26_1: -152 x_26_ - 126 y_26_ + [ 1 x_26_ ^ 2 + 1 y_26_ ^ 2 ] <= -5112
c27_1: -152 x_27_ - 126 y_27_ + [ 1 x_27_ ^ 2 + 1 y_27_ ^ 2 ] <= -2014
c28_1: -152 x_28_ - 126 y_28_ + [ 1 x_28_ ^ 2 + 1 y_28_ ^ 2 ] <= 10970
c29_1: -152 x_29_ - 126 y_29_ + [ 1 x_29_ ^ 2 + 1 y_29_ ^ 2 ] <= 13197
c30_1: -152 x_30_ - 126 y_30_ + [ 1 x_30_ ^ 2 + 1 y_30_ ^ 2 ] <= 6631
c31_1: -152 x_31_ - 126 y_31_ + [ 1 x_31_ ^ 2 + 1 y_31_ ^ 2 ] <= -1529
c32_1: -152 x_32_ - 126 y_32_ + [ 1 x_32_ ^ 2 + 1 y_32_ ^ 2 ] <= 5852
c33_1: -152 x_33_ - 126 y_33_ + [ 1 x_33_ ^ 2 + 1 y_33_ ^ 2 ] <= 17319
c34_1: -152 x_34_ - 126 y_34_ + [ 1 x_34_ ^ 2 + 1 y_34_ ^ 2 ] <= 9764
c35_1: -152 x_35_ - 126 y_35_ + [ 1 x_35_ ^ 2 + 1 y_35_ ^ 2 ] <= -3268
c36_1: -152 x_36_ - 126 y_36_ + [ 1 x_36_ ^ 2 + 1 y_36_ ^ 2 ] <= -7295
c37_1: -152 x_37_ - 126 y_37_ + [ 1 x_37_ ^ 2 + 1 y_37_ ^ 2 ] <= 5285
c38_1: -152 x_38_ - 126 y_38_ + [ 1 x_38_ ^ 2 + 1 y_38_ ^ 2 ] <= 2313
c39_1: -152 x_39_ - 126 y_39_ + [ 1 x_39_ ^ 2 + 1 y_39_ ^ 2 ] <= -3738
c40_1: -152 x_40_ - 126 y_40_ + [ 1 x_40_ ^ 2 + 1 y_40_ ^ 2 ] <= 7587
c41_1: -152 x_41_ - 126 y_41_ + [ 1 x_41_ ^ 2 + 1 y_41_ ^ 2 ] <= 16563
c42_1: -152 x_42_ - 126 y_42_ + [ 1 x_42_ ^ 2 + 1 y_42_ ^ 2 ] <= 1935
c43_1: -152 x_43_ - 126 y_43_ + [ 1 x_43_ ^ 2 + 1 y_43_ ^ 2 ] <= 14833
c44_1: -152 x_44_ - 126 y_44_ + [ 1 x_44_ ^ 2 + 1 y_44_ ^ 2 ] <= 33375
c45_1: -152 x_45_ - 126 y_45_ + [ 1 x_45_ ^ 2 + 1 y_45_ ^ 2 ] <= 2328
c46_1: -152 x_46_ - 126 y_46_ + [ 1 x_46_ ^ 2 + 1 y_46_ ^ 2 ] <= 32005
c47_1: -152 x_47_ - 126 y_47_ + [ 1 x_47_ ^ 2 + 1 y_47_ ^ 2 ] <= 28223
c48_1: -152 x_48_ - 126 y_48_ + [ 1 x_48_ ^ 2 + 1 y_48_ ^ 2 ] <= 5241
c49_1: -152 x_49_ - 126 y_49_ + [ 1 x_49_ ^ 2 + 1 y_49_ ^ 2 ] <= 1933
c50_1: -152 x_50_ - 126 y_50_ + [ 1 x_50_ ^ 2 + 1 y_50_ ^ 2 ] <= -3205
c51_1: -152 x_51_ - 126 y_51_ + [ 1 x_51_ ^ 2 + 1 y_51_ ^ 2 ] <= -3804
c52_1: -152 x_52_ - 126 y_52_ + [ 1 x_52_ ^ 2 + 1 y_52_ ^ 2 ] <= 6716
c53_1: -152 x_53_ - 126 y_53_ + [ 1 x_53_ ^ 2 + 1 y_53_ ^ 2 ] <= 42316
c54_1: -152 x_54_ - 126 y_54_ + [ 1 x_54_ ^ 2 + 1 y_54_ ^ 2 ] <= -3331
c55_1: -152 x_55_ - 126 y_55_ + [ 1 x_55_ ^ 2 + 1 y_55_ ^ 2 ] <= 19315
c56_1: -152 x_56_ - 126 y_56_ + [ 1 x_56_ ^ 2 + 1 y_56_ ^ 2 ] <= 13464
c57_1: -152 x_57_ - 126 y_57_ + [ 1 x_57_ ^ 2 + 1 y_57_ ^ 2 ] <= 20777
c58_1: -152 x_58_ - 126 y_58_ + [ 1 x_58_ ^ 2 + 1 y_58_ ^ 2 ] <= -4649
c59_1: -152 x_59_ - 126 y_59_ + [ 1 x_59_ ^ 2 + 1 y_59_ ^ 2 ] <= 33561
c60_1: -152 x_60_ - 126 y_60_ + [ 1 x_60_ ^ 2 + 1 y_60_ ^ 2 ] <= 2423
c61_1: -152 x_61_ - 126 y_61_ + [ 1 x_61_ ^ 2 + 1 y_61_ ^ 2 ] <= 6116
c62_1: -152 x_62_ - 126 y_62_ + [ 1 x_62_ ^ 2 + 1 y_62_ ^ 2 ] <= 22953
c63_1: -152 x_63_ - 126 y_63_ + [ 1 x_63_ ^ 2 + 1 y_63_ ^ 2 ] <= 18638
c64_1: -152 x_64_ - 126 y_64_ + [ 1 x_64_ ^ 2 + 1 y_64_ ^ 2 ] <= 1127
c65_1: -152 x_65_ - 126 y_65_ + [ 1 x_65_ ^ 2 + 1 y_65_ ^ 2 ] <= 21426
c66_1: -152 x_66_ - 126 y_66_ + [ 1 x_66_ ^ 2 + 1 y_66_ ^ 2 ] <= -6733
c67_1: -152 x_67_ - 126 y_67_ + [ 1 x_67_ ^ 2 + 1 y_67_ ^ 2 ] <= 14350
c68_1: -152 x_68_ - 126 y_68_ + [ 1 x_68_ ^ 2 + 1 y_68_ ^ 2 ] <= 7512
c69_1: -152 x_69_ - 126 y_69_ + [ 1 x_69_ ^ 2 + 1 y_69_ ^ 2 ] <= 26134
c70_1: -152 x_70_ - 126 y_70_ + [ 1 x_70_ ^ 2 + 1 y_70_ ^ 2 ] <= 7312
c71_1: -152 x_71_ - 126 y_71_ + [ 1 x_71_ ^ 2 + 1 y_71_ ^ 2 ] <= -302
c72_1: -152 x_72_ - 126 y_72_ + [ 1 x_72_ ^ 2 + 1 y_72_ ^ 2 ] <= 10759
c73_1: -152 x_73_ - 126 y_73_ + [ 1 x_73_ ^ 2 + 1 y_73_ ^ 2 ] <= 17025
c74_1: -152 x_74_ - 126 y_74_ + [ 1 x_74_ ^ 2 + 1 y_74_ ^ 2 ] <= 33556
c75_1: -152 x_75_ - 126 y_75_ + [ 1 x_75_ ^ 2 + 1 y_75_ ^ 2 ] <= -5259
c76_1: -152 x_76_ - 126 y_76_ + [ 1 x_76_ ^ 2 + 1 y_76_ ^ 2 ] <= 6140
c77_1: -152 x_77_ - 126 y_77_ + [ 1 x_77_ ^ 2 + 1 y_77_ ^ 2 ] <= -8413
c78_1: -152 x_78_ - 126 y_78_ + [ 1 x_78_ ^ 2 + 1 y_78_ ^ 2 ] <= 1091
c79_1: -152 x_79_ - 126 y_79_ + [ 1 x_79_ ^ 2 + 1 y_79_ ^ 2 ] <= -7593
c80_1: -152 x_81_ - 126 y_81_ + [ 1 x_81_ ^ 2 + 1 y_81_ ^ 2 ] <= 9696
c81_1: -152 x_82_ - 126 y_82_ + [ 1 x_82_ ^ 2 + 1 y_82_ ^ 2 ] <= 13543
c82_1: -152 x_83_ - 126 y_83_ + [ 1 x_83_ ^ 2 + 1 y_83_ ^ 2 ] <= 43298
c83_1: -152 x_84_ - 126 y_84_ + [ 1 x_84_ ^ 2 + 1 y_84_ ^ 2 ] <= 28180
c84_1: -152 x_85_ - 126 y_85_ + [ 1 x_85_ ^ 2 + 1 y_85_ ^ 2 ] <= 8765
c85_1: -152 x_86_ - 126 y_86_ + [ 1 x_86_ ^ 2 + 1 y_86_ ^ 2 ] <= 10249
c86_1: -152 x_87_ - 126 y_87_ + [ 1 x_87_ ^ 2 + 1 y_87_ ^ 2 ] <= 13530
c87_1: -152 x_88_ - 126 y_88_ + [ 1 x_88_ ^ 2 + 1 y_88_ ^ 2 ] <= 9985
c88_1: -152 x_89_ - 126 y_89_ + [ 1 x_89_ ^ 2 + 1 y_89_ ^ 2 ] <= 2761
c89_1: -152 x_90_ - 126 y_90_ + [ 1 x_90_ ^ 2 + 1 y_90_ ^ 2 ] <= 350
c90_1: -152 x_91_ - 126 y_91_ + [ 1 x_91_ ^ 2 + 1 y_91_ ^ 2 ] <= 25196
c91_1: -152 x_92_ - 126 y_92_ + [ 1 x_92_ ^ 2 + 1 y_92_ ^ 2 ] <= -166
c92_1: -152 x_93_ - 126 y_93_ + [ 1 x_93_ ^ 2 + 1 y_93_ ^ 2 ] <= 19490
c93_1: -152 x_94_ - 126 y_94_ + [ 1 x_94_ ^ 2 + 1 y_94_ ^ 2 ] <= 33366
c94_1: -152 x_95_ - 126 y_95_ + [ 1 x_95_ ^ 2 + 1 y_95_ ^ 2 ] <= -6330
c95_1: -152 x_96_ - 126 y_96_ + [ 1 x_96_ ^ 2 + 1 y_96_ ^ 2 ] <= 5195
c96_1: -152 x_97_ - 126 y_97_ + [ 1 x_97_ ^ 2 + 1 y_97_ ^ 2 ] <= 18439
c97_1: -152 x_98_ - 126 y_98_ + [ 1 x_98_ ^ 2 + 1 y_98_ ^ 2 ] <= 18662
c98_1: -152 x_99_ - 126 y_99_ + [ 1 x_99_ ^ 2 + 1 y_99_ ^ 2 ] <= 1947
c99_1: -152 x_100_ - 126 y_100_ + [ 1 x_100_ ^ 2 + 1 y_100_ ^ 2 ] <= -403
c100_1: -88 x_1_ - 8 y_1_ + [ 1 x_1_ ^ 2 + 1 y_1_ ^ 2 ] <= 10192
c101_1: -88 x_2_ - 8 y_2_ + [ 1 x_2_ ^ 2 + 1 y_2_ ^ 2 ] <= 8238
c102_1: -88 x_3_ - 8 y_3_ + [ 1 x_3_ ^ 2 + 1 y_3_ ^ 2 ] <= 36774
c103_1: -88 x_4_ - 8 y_4_ + [ 1 x_4_ ^ 2 + 1 y_4_ ^ 2 ] <= 20838
c104_1: -88 x_5_ - 8 y_5_ + [ 1 x_5_ ^ 2 + 1 y_5_ ^ 2 ] <= 23423
c105_1: -88 x_6_ - 8 y_6_ + [ 1 x_6_ ^ 2 + 1 y_6_ ^ 2 ] <= 9583
c106_1: -88 x_7_ - 8 y_7_ + [ 1 x_7_ ^ 2 + 1 y_7_ ^ 2 ] <= 20376
c107_1: -88 x_8_ - 8 y_8_ + [ 1 x_8_ ^ 2 + 1 y_8_ ^ 2 ] <= 36085
c108_1: -88 x_9_ - 8 y_9_ + [ 1 x_9_ ^ 2 + 1 y_9_ ^ 2 ] <= 19226
c109_1: -88 x_10_ - 8 y_10_ + [ 1 x_10_ ^ 2 + 1 y_10_ ^ 2 ] <= 12217
c110_1: -88 x_11_ - 8 y_11_ + [ 1 x_11_ ^ 2 + 1 y_11_ ^ 2 ] <= -1408
c111_1: -88 x_12_ - 8 y_12_ + [ 1 x_12_ ^ 2 + 1 y_12_ ^ 2 ] <= 9014
c112_1: -88 x_13_ - 8 y_13_ + [ 1 x_13_ ^ 2 + 1 y_13_ ^ 2 ] <= 11006
c113_1: -88 x_14_ - 8 y_14_ + [ 1 x_14_ ^ 2 + 1 y_14_ ^ 2 ] <= 14455
c114_1: -88 x_15_ - 8 y_15_ + [ 1 x_15_ ^ 2 + 1 y_15_ ^ 2 ] <= 26704
c115_1: -88 x_16_ - 8 y_16_ + [ 1 x_16_ ^ 2 + 1 y_16_ ^ 2 ] <= 16581
c116_1: -88 x_17_ - 8 y_17_ + [ 1 x_17_ ^ 2 + 1 y_17_ ^ 2 ] <= 14698
c117_1: -88 x_18_ - 8 y_18_ + [ 1 x_18_ ^ 2 + 1 y_18_ ^ 2 ] <= 10891
c118_1: -88 x_19_ - 8 y_19_ + [ 1 x_19_ ^ 2 + 1 y_19_ ^ 2 ] <= 3236
c119_1: -88 x_21_ - 8 y_21_ + [ 1 x_21_ ^ 2 + 1 y_21_ ^ 2 ] <= 7885
c120_1: -88 x_22_ - 8 y_22_ + [ 1 x_22_ ^ 2 + 1 y_22_ ^ 2 ] <= 20114
c121_1: -88 x_23_ - 8 y_23_ + [ 1 x_23_ ^ 2 + 1 y_23_ ^ 2 ] <= 12473
c122_1: -88 x_24_ - 8 y_24_ + [ 1 x_24_ ^ 2 + 1 y_24_ ^ 2 ] <= 38111
c123_1: -88 x_25_ - 8 y_25_ + [ 1 x_25_ ^ 2 + 1 y_25_ ^ 2 ] <= 41683
c124_1: -88 x_26_ - 8 y_26_ + [ 1 x_26_ ^ 2 + 1 y_26_ ^ 2 ] <= 2374
c125_1: -88 x_27_ - 8 y_27_ + [ 1 x_27_ ^ 2 + 1 y_27_ ^ 2 ] <= 8215
c126_1: -88 x_28_ - 8 y_28_ + [ 1 x_28_ ^ 2 + 1 y_28_ ^ 2 ] <= 12614
c127_1: -88 x_29_ - 8 y_29_ + [ 1 x_29_ ^ 2 + 1 y_29_ ^ 2 ] <= 30394
c128_1: -88 x_30_ - 8 y_30_ + [ 1 x_30_ ^ 2 + 1 y_30_ ^ 2 ] <= 15848
c129_1: -88 x_31_ - 8 y_31_ + [ 1 x_31_ ^ 2 + 1 y_31_ ^ 2 ] <= 1607
c130_1: -88 x_32_ - 8 y_32_ + [ 1 x_32_ ^ 2 + 1 y_32_ ^ 2 ] <= 9738
c131_1: -88 x_33_ - 8 y_33_ + [ 1 x_33_ ^ 2 + 1 y_33_ ^ 2 ] <= 19876
c132_1: -88 x_34_ - 8 y_34_ + [ 1 x_34_ ^ 2 + 1 y_34_ ^ 2 ] <= 16922
c133_1: -88 x_35_ - 8 y_35_ + [ 1 x_35_ ^ 2 + 1 y_35_ ^ 2 ] <= 6431
c134_1: -88 x_36_ - 8 y_36_ + [ 1 x_36_ ^ 2 + 1 y_36_ ^ 2 ] <= -627
c135_1: -88 x_37_ - 8 y_37_ + [ 1 x_37_ ^ 2 + 1 y_37_ ^ 2 ] <= 11477
c136_1: -88 x_38_ - 8 y_38_ + [ 1 x_38_ ^ 2 + 1 y_38_ ^ 2 ] <= 7510
c137_1: -88 x_39_ - 8 y_39_ + [ 1 x_39_ ^ 2 + 1 y_39_ ^ 2 ] <= 11266
c138_1: -88 x_40_ - 8 y_40_ + [ 1 x_40_ ^ 2 + 1 y_40_ ^ 2 ] <= 14674
c139_1: -88 x_41_ - 8 y_41_ + [ 1 x_41_ ^ 2 + 1 y_41_ ^ 2 ] <= 10257
c140_1: -88 x_42_ - 8 y_42_ + [ 1 x_42_ ^ 2 + 1 y_42_ ^ 2 ] <= 19230
c141_1: -88 x_43_ - 8 y_43_ + [ 1 x_43_ ^ 2 + 1 y_43_ ^ 2 ] <= 25451
c142_1: -88 x_44_ - 8 y_44_ + [ 1 x_44_ ^ 2 + 1 y_44_ ^ 2 ] <= 12872
c143_1: -88 x_45_ - 8 y_45_ + [ 1 x_45_ ^ 2 + 1 y_45_ ^ 2 ] <= 4273
c144_1: -88 x_46_ - 8 y_46_ + [ 1 x_46_ ^ 2 + 1 y_46_ ^ 2 ] <= 45239
c145_1: -88 x_47_ - 8 y_47_ + [ 1 x_47_ ^ 2 + 1 y_47_ ^ 2 ] <= 22194
c146_1: -88 x_48_ - 8 y_48_ + [ 1 x_48_ ^ 2 + 1 y_48_ ^ 2 ] <= 16360
c147_1: -88 x_49_ - 8 y_49_ + [ 1 x_49_ ^ 2 + 1 y_49_ ^ 2 ] <= 7174
c148_1: -88 x_50_ - 8 y_50_ + [ 1 x_50_ ^ 2 + 1 y_50_ ^ 2 ] <= 3282
c149_1: -88 x_51_ - 8 y_51_ + [ 1 x_51_ ^ 2 + 1 y_51_ ^ 2 ] <= 8489
c150_1: -88 x_52_ - 8 y_52_ + [ 1 x_52_ ^ 2 + 1 y_52_ ^ 2 ] <= 7519
c151_1: -88 x_53_ - 8 y_53_ + [ 1 x_53_ ^ 2 + 1 y_53_ ^ 2 ] <= 34174
c152_1: -88 x_54_ - 8 y_54_ + [ 1 x_54_ ^ 2 + 1 y_54_ ^ 2 ] <= 16108
c153_1: -88 x_55_ - 8 y_55_ + [ 1 x_55_ ^ 2 + 1 y_55_ ^ 2 ] <= 21735
c154_1: -88 x_56_ - 8 y_56_ + [ 1 x_56_ ^ 2 + 1 y_56_ ^ 2 ] <= 17721
c155_1: -88 x_57_ - 8 y_57_ + [ 1 x_57_ ^ 2 + 1 y_57_ ^ 2 ] <= 24493
c156_1: -88 x_58_ - 8 y_58_ + [ 1 x_58_ ^ 2 + 1 y_58_ ^ 2 ] <= 1512
c157_1: -88 x_59_ - 8 y_59_ + [ 1 x_59_ ^ 2 + 1 y_59_ ^ 2 ] <= 40405
c158_1: -88 x_60_ - 8 y_60_ + [ 1 x_60_ ^ 2 + 1 y_60_ ^ 2 ] <= 12784
c159_1: -88 x_61_ - 8 y_61_ + [ 1 x_61_ ^ 2 + 1 y_61_ ^ 2 ] <= 14945
c160_1: -88 x_62_ - 8 y_62_ + [ 1 x_62_ ^ 2 + 1 y_62_ ^ 2 ] <= 17156
c161_1: -88 x_63_ - 8 y_63_ + [ 1 x_63_ ^ 2 + 1 y_63_ ^ 2 ] <= 14784
c162_1: -88 x_64_ - 8 y_64_ + [ 1 x_64_ ^ 2 + 1 y_64_ ^ 2 ] <= 14892
c163_1: -88 x_65_ - 8 y_65_ + [ 1 x_65_ ^ 2 + 1 y_65_ ^ 2 ] <= 9569
c164_1: -88 x_66_ - 8 y_66_ + [ 1 x_66_ ^ 2 + 1 y_66_ ^ 2 ] <= 2643
c165_1: -88 x_67_ - 8 y_67_ + [ 1 x_67_ ^ 2 + 1 y_67_ ^ 2 ] <= 19111
c166_1: -88 x_68_ - 8 y_68_ + [ 1 x_68_ ^ 2 + 1 y_68_ ^ 2 ] <= 18863
c167_1: -88 x_69_ - 8 y_69_ + [ 1 x_69_ ^ 2 + 1 y_69_ ^ 2 ] <= 38983
c168_1: -88 x_70_ - 8 y_70_ + [ 1 x_70_ ^ 2 + 1 y_70_ ^ 2 ] <= 17904
c169_1: -88 x_71_ - 8 y_71_ + [ 1 x_71_ ^ 2 + 1 y_71_ ^ 2 ] <= 10817
c170_1: -88 x_72_ - 8 y_72_ + [ 1 x_72_ ^ 2 + 1 y_72_ ^ 2 ] <= 26414
c171_1: -88 x_73_ - 8 y_73_ + [ 1 x_73_ ^ 2 + 1 y_73_ ^ 2 ] <= 25306
c172_1: -88 x_74_ - 8 y_74_ + [ 1 x_74_ ^ 2 + 1 y_74_ ^ 2 ] <= 19873
c173_1: -88 x_75_ - 8 y_75_ + [ 1 x_75_ ^ 2 + 1 y_75_ ^ 2 ] <= 4429
c174_1: -88 x_76_ - 8 y_76_ + [ 1 x_76_ ^ 2 + 1 y_76_ ^ 2 ] <= 17353
c175_1: -88 x_77_ - 8 y_77_ + [ 1 x_77_ ^ 2 + 1 y_77_ ^ 2 ] <= 489
c176_1: -88 x_78_ - 8 y_78_ + [ 1 x_78_ ^ 2 + 1 y_78_ ^ 2 ] <= 12070
c177_1: -88 x_79_ - 8 y_79_ + [ 1 x_79_ ^ 2 + 1 y_79_ ^ 2 ] <= 5080
c178_1: -88 x_80_ - 8 y_80_ + [ 1 x_80_ ^ 2 + 1 y_80_ ^ 2 ] <= 5427
c179_1: -88 x_81_ - 8 y_81_ + [ 1 x_81_ ^ 2 + 1 y_81_ ^ 2 ] <= 10086
c180_1: -88 x_82_ - 8 y_82_ + [ 1 x_82_ ^ 2 + 1 y_82_ ^ 2 ] <= 15843
c181_1: -88 x_83_ - 8 y_83_ + [ 1 x_83_ ^ 2 + 1 y_83_ ^ 2 ] <= 45460
c182_1: -88 x_84_ - 8 y_84_ + [ 1 x_84_ ^ 2 + 1 y_84_ ^ 2 ] <= 22603
c183_1: -88 x_85_ - 8 y_85_ + [ 1 x_85_ ^ 2 + 1 y_85_ ^ 2 ] <= 7653
c184_1: -88 x_86_ - 8 y_86_ + [ 1 x_86_ ^ 2 + 1 y_86_ ^ 2 ] <= 17123
c185_1: -88 x_87_ - 8 y_87_ + [ 1 x_87_ ^ 2 + 1 y_87_ ^ 2 ] <= 25428
c186_1: -88 x_88_ - 8 y_88_ + [ 1 x_88_ ^ 2 + 1 y_88_ ^ 2 ] <= 1025
c187_1: -88 x_89_ - 8 y_89_ + [ 1 x_89_ ^ 2 + 1 y_89_ ^ 2 ] <= 3285
c188_1: -88 x_90_ - 8 y_90_ + [ 1 x_90_ ^ 2 + 1 y_90_ ^ 2 ] <= 13849
c189_1: -88 x_91_ - 8 y_91_ + [ 1 x_91_ ^ 2 + 1 y_91_ ^ 2 ] <= 25792
c190_1: -88 x_92_ - 8 y_92_ + [ 1 x_92_ ^ 2 + 1 y_92_ ^ 2 ] <= 5235
c191_1: -88 x_93_ - 8 y_93_ + [ 1 x_93_ ^ 2 + 1 y_93_ ^ 2 ] <= 36497
c192_1: -88 x_94_ - 8 y_94_ + [ 1 x_94_ ^ 2 + 1 y_94_ ^ 2 ] <= 17077
c193_1: -88 x_95_ - 8 y_95_ + [ 1 x_95_ ^ 2 + 1 y_95_ ^ 2 ] <= -1198
c194_1: -88 x_96_ - 8 y_96_ + [ 1 x_96_ ^ 2 + 1 y_96_ ^ 2 ] <= 6374
c195_1: -88 x_97_ - 8 y_97_ + [ 1 x_97_ ^ 2 + 1 y_97_ ^ 2 ] <= 16789
c196_1: -88 x_98_ - 8 y_98_ + [ 1 x_98_ ^ 2 + 1 y_98_ ^ 2 ] <= 29522
c197_1: -88 x_99_ - 8 y_99_ + [ 1 x_99_ ^ 2 + 1 y_99_ ^ 2 ] <= 11735
c198_1: -88 x_100_ - 8 y_100_ + [ 1 x_100_ ^ 2 + 1 y_100_ ^ 2 ] <= 7333
c199_1: 158 x_1_ + 70 y_1_ + [ 1 x_1_ ^ 2 + 1 y_1_ ^ 2 ] <= 33403
c200_1: 158 x_2_ + 70 y_2_ + [ 1 x_2_ ^ 2 + 1 y_2_ ^ 2 ] <= 12636
c201_1: 158 x_3_ + 70 y_3_ + [ 1 x_3_ ^ 2 + 1 y_3_ ^ 2 ] <= 18768
c202_1: 158 x_4_ + 70 y_4_ + [ 1 x_4_ ^ 2 + 1 y_4_ ^ 2 ] <= 19560
c203_1: 158 x_5_ + 70 y_5_ + [ 1 x_5_ ^ 2 + 1 y_5_ ^ 2 ] <= 20703
c204_1: 158 x_6_ + 70 y_6_ + [ 1 x_6_ ^ 2 + 1 y_6_ ^ 2 ] <= 18905
c205_1: 158 x_7_ + 70 y_7_ + [ 1 x_7_ ^ 2 + 1 y_7_ ^ 2 ] <= 31223
c206_1: 158 x_8_ + 70 y_8_ + [ 1 x_8_ ^ 2 + 1 y_8_ ^ 2 ] <= 33976
c207_1: 158 x_9_ + 70 y_9_ + [ 1 x_9_ ^ 2 + 1 y_9_ ^ 2 ] <= 6623
c208_1: 158 x_10_ + 70 y_10_ + [ 1 x_10_ ^ 2 + 1 y_10_ ^ 2 ] <= 1163
c209_1: 158 x_11_ + 70 y_11_ + [ 1 x_11_ ^ 2 + 1 y_11_ ^ 2 ] <= 15747
c210_1: 158 x_12_ + 70 y_12_ + [ 1 x_12_ ^ 2 + 1 y_12_ ^ 2 ] <= 28979
c211_1: 158 x_13_ + 70 y_13_ + [ 1 x_13_ ^ 2 + 1 y_13_ ^ 2 ] <= 33551
c212_1: 158 x_14_ + 70 y_14_ + [ 1 x_14_ ^ 2 + 1 y_14_ ^ 2 ] <= 27772
c213_1: 158 x_15_ + 70 y_15_ + [ 1 x_15_ ^ 2 + 1 y_15_ ^ 2 ] <= 46651
c214_1: 158 x_16_ + 70 y_16_ + [ 1 x_16_ ^ 2 + 1 y_16_ ^ 2 ] <= -3081
c215_1: 158 x_18_ + 70 y_18_ + [ 1 x_18_ ^ 2 + 1 y_18_ ^ 2 ] <= 15
c216_1: 158 x_19_ + 70 y_19_ + [ 1 x_19_ ^ 2 + 1 y_19_ ^ 2 ] <= 28471
c217_1: 158 x_20_ + 70 y_20_ + [ 1 x_20_ ^ 2 + 1 y_20_ ^ 2 ] <= 9184
c218_1: 158 x_21_ + 70 y_21_ + [ 1 x_21_ ^ 2 + 1 y_21_ ^ 2 ] <= 21194
c219_1: 158 x_22_ + 70 y_22_ + [ 1 x_22_ ^ 2 + 1 y_22_ ^ 2 ] <= 31527
c220_1: 158 x_23_ + 70 y_23_ + [ 1 x_23_ ^ 2 + 1 y_23_ ^ 2 ] <= 28060
c221_1: 158 x_24_ + 70 y_24_ + [ 1 x_24_ ^ 2 + 1 y_24_ ^ 2 ] <= 46765
c222_1: 158 x_25_ + 70 y_25_ + [ 1 x_25_ ^ 2 + 1 y_25_ ^ 2 ] <= 3597
c223_1: 158 x_26_ + 70 y_26_ + [ 1 x_26_ ^ 2 + 1 y_26_ ^ 2 ] <= 26803
c224_1: 158 x_27_ + 70 y_27_ + [ 1 x_27_ ^ 2 + 1 y_27_ ^ 2 ] <= 21713
c225_1: 158 x_28_ + 70 y_28_ + [ 1 x_28_ ^ 2 + 1 y_28_ ^ 2 ] <= 25344
c226_1: 158 x_29_ + 70 y_29_ + [ 1 x_29_ ^ 2 + 1 y_29_ ^ 2 ] <= 39585
c227_1: 158 x_30_ + 70 y_30_ + [ 1 x_30_ ^ 2 + 1 y_30_ ^ 2 ] <= 23796
c228_1: 158 x_31_ + 70 y_31_ + [ 1 x_31_ ^ 2 + 1 y_31_ ^ 2 ] <= 26151
c229_1: 158 x_32_ + 70 y_32_ + [ 1 x_32_ ^ 2 + 1 y_32_ ^ 2 ] <= 104
c230_1: 158 x_33_ + 70 y_33_ + [ 1 x_33_ ^ 2 + 1 y_33_ ^ 2 ] <= 8569
c231_1: 158 x_34_ + 70 y_34_ + [ 1 x_34_ ^ 2 + 1 y_34_ ^ 2 ] <= 5418
c232_1: 158 x_35_ + 70 y_35_ + [ 1 x_35_ ^ 2 + 1 y_35_ ^ 2 ] <= 8184
c233_1: 158 x_36_ + 70 y_36_ + [ 1 x_36_ ^ 2 + 1 y_36_ ^ 2 ] <= 19238
c234_1: 158 x_37_ + 70 y_37_ + [ 1 x_37_ ^ 2 + 1 y_37_ ^ 2 ] <= 1288
c235_1: 158 x_38_ + 70 y_38_ + [ 1 x_38_ ^ 2 + 1 y_38_ ^ 2 ] <= 33700
c236_1: 158 x_39_ + 70 y_39_ + [ 1 x_39_ ^ 2 + 1 y_39_ ^ 2 ] <= 22489
c237_1: 158 x_40_ + 70 y_40_ + [ 1 x_40_ ^ 2 + 1 y_40_ ^ 2 ] <= 9479
c238_1: 158 x_41_ + 70 y_41_ + [ 1 x_41_ ^ 2 + 1 y_41_ ^ 2 ] <= 23199
c239_1: 158 x_42_ + 70 y_42_ + [ 1 x_42_ ^ 2 + 1 y_42_ ^ 2 ] <= 21322
c240_1: 158 x_43_ + 70 y_43_ + [ 1 x_43_ ^ 2 + 1 y_43_ ^ 2 ] <= -970
c241_1: 158 x_44_ + 70 y_44_ + [ 1 x_44_ ^ 2 + 1 y_44_ ^ 2 ] <= 14878
c242_1: 158 x_45_ + 70 y_45_ + [ 1 x_45_ ^ 2 + 1 y_45_ ^ 2 ] <= 22472
c243_1: 158 x_46_ + 70 y_46_ + [ 1 x_46_ ^ 2 + 1 y_46_ ^ 2 ] <= 67612
c244_1: 158 x_47_ + 70 y_47_ + [ 1 x_47_ ^ 2 + 1 y_47_ ^ 2 ] <= 35666
c245_1: 158 x_48_ + 70 y_48_ + [ 1 x_48_ ^ 2 + 1 y_48_ ^ 2 ] <= 32945
c246_1: 158 x_49_ + 70 y_49_ + [ 1 x_49_ ^ 2 + 1 y_49_ ^ 2 ] <= 33821
c247_1: 158 x_50_ + 70 y_50_ + [ 1 x_50_ ^ 2 + 1 y_50_ ^ 2 ] <= 17502
c248_1: 158 x_51_ + 70 y_51_ + [ 1 x_51_ ^ 2 + 1 y_51_ ^ 2 ] <= 8964
c249_1: 158 x_52_ + 70 y_52_ + [ 1 x_52_ ^ 2 + 1 y_52_ ^ 2 ] <= 18712
c250_1: 158 x_53_ + 70 y_53_ + [ 1 x_53_ ^ 2 + 1 y_53_ ^ 2 ] <= -3741
c251_1: 158 x_54_ + 70 y_54_ + [ 1 x_54_ ^ 2 + 1 y_54_ ^ 2 ] <= 25205
c252_1: 158 x_55_ + 70 y_55_ + [ 1 x_55_ ^ 2 + 1 y_55_ ^ 2 ] <= 26800
c253_1: 158 x_56_ + 70 y_56_ + [ 1 x_56_ ^ 2 + 1 y_56_ ^ 2 ] <= -2518
c254_1: 158 x_57_ + 70 y_57_ + [ 1 x_57_ ^ 2 + 1 y_57_ ^ 2 ] <= 1128
c255_1: 158 x_58_ + 70 y_58_ + [ 1 x_58_ ^ 2 + 1 y_58_ ^ 2 ] <= 26342
c256_1: 158 x_59_ + 70 y_59_ + [ 1 x_59_ ^ 2 + 1 y_59_ ^ 2 ] <= 25634
c257_1: 158 x_60_ + 70 y_60_ + [ 1 x_60_ ^ 2 + 1 y_60_ ^ 2 ] <= 11750
c258_1: 158 x_61_ + 70 y_61_ + [ 1 x_61_ ^ 2 + 1 y_61_ ^ 2 ] <= 29526
c259_1: 158 x_62_ + 70 y_62_ + [ 1 x_62_ ^ 2 + 1 y_62_ ^ 2 ] <= 35941
c260_1: 158 x_63_ + 70 y_63_ + [ 1 x_63_ ^ 2 + 1 y_63_ ^ 2 ] <= 17077
c261_1: 158 x_64_ + 70 y_64_ + [ 1 x_64_ ^ 2 + 1 y_64_ ^ 2 ] <= 22071
c262_1: 158 x_65_ + 70 y_65_ + [ 1 x_65_ ^ 2 + 1 y_65_ ^ 2 ] <= 30268
c263_1: 158 x_66_ + 70 y_66_ + [ 1 x_66_ ^ 2 + 1 y_66_ ^ 2 ] <= 17187
c264_1: 158 x_67_ + 70 y_67_ + [ 1 x_67_ ^ 2 + 1 y_67_ ^ 2 ] <= 2013
c265_1: 158 x_68_ + 70 y_68_ + [ 1 x_68_ ^ 2 + 1 y_68_ ^ 2 ] <= 7447
c266_1: 158 x_69_ + 70 y_69_ + [ 1 x_69_ ^ 2 + 1 y_69_ ^ 2 ] <= 6711
c267_1: 158 x_70_ + 70 y_70_ + [ 1 x_70_ ^ 2 + 1 y_70_ ^ 2 ] <= -4504
c268_1: 158 x_71_ + 70 y_71_ + [ 1 x_71_ ^ 2 + 1 y_71_ ^ 2 ] <= 16877
c269_1: 158 x_72_ + 70 y_72_ + [ 1 x_72_ ^ 2 + 1 y_72_ ^ 2 ] <= 32817
c270_1: 158 x_73_ + 70 y_73_ + [ 1 x_73_ ^ 2 + 1 y_73_ ^ 2 ] <= 28855
c271_1: 158 x_74_ + 70 y_74_ + [ 1 x_74_ ^ 2 + 1 y_74_ ^ 2 ] <= 11738
c272_1: 158 x_75_ + 70 y_75_ + [ 1 x_75_ ^ 2 + 1 y_75_ ^ 2 ] <= 10770
c273_1: 158 x_76_ + 70 y_76_ + [ 1 x_76_ ^ 2 + 1 y_76_ ^ 2 ] <= 32350
c274_1: 158 x_77_ + 70 y_77_ + [ 1 x_77_ ^ 2 + 1 y_77_ ^ 2 ] <= 19931
c275_1: 158 x_78_ + 70 y_78_ + [ 1 x_78_ ^ 2 + 1 y_78_ ^ 2 ] <= 23685
c276_1: 158 x_79_ + 70 y_79_ + [ 1 x_79_ ^ 2 + 1 y_79_ ^ 2 ] <= 17774
c277_1: 158 x_80_ + 70 y_80_ + [ 1 x_80_ ^ 2 + 1 y_80_ ^ 2 ] <= 26769
c278_1: 158 x_81_ + 70 y_81_ + [ 1 x_81_ ^ 2 + 1 y_81_ ^ 2 ] <= 27036
c279_1: 158 x_82_ + 70 y_82_ + [ 1 x_82_ ^ 2 + 1 y_82_ ^ 2 ] <= 28758
c280_1: 158 x_83_ + 70 y_83_ + [ 1 x_83_ ^ 2 + 1 y_83_ ^ 2 ] <= 31197
c281_1: 158 x_84_ + 70 y_84_ + [ 1 x_84_ ^ 2 + 1 y_84_ ^ 2 ] <= 33455
c282_1: 158 x_85_ + 70 y_85_ + [ 1 x_85_ ^ 2 + 1 y_85_ ^ 2 ] <= 26935
c283_1: 158 x_86_ + 70 y_86_ + [ 1 x_86_ ^ 2 + 1 y_86_ ^ 2 ] <= 38407
c284_1: 158 x_87_ + 70 y_87_ + [ 1 x_87_ ^ 2 + 1 y_87_ ^ 2 ] <= 23911
c285_1: 158 x_88_ + 70 y_88_ + [ 1 x_88_ ^ 2 + 1 y_88_ ^ 2 ] <= 12351
c286_1: 158 x_89_ + 70 y_89_ + [ 1 x_89_ ^ 2 + 1 y_89_ ^ 2 ] <= 22012
c287_1: 158 x_90_ + 70 y_90_ + [ 1 x_90_ ^ 2 + 1 y_90_ ^ 2 ] <= 17493
c288_1: 158 x_91_ + 70 y_91_ + [ 1 x_91_ ^ 2 + 1 y_91_ ^ 2 ] <= 40803
c289_1: 158 x_92_ + 70 y_92_ + [ 1 x_92_ ^ 2 + 1 y_92_ ^ 2 ] <= 27738
c290_1: 158 x_93_ + 70 y_93_ + [ 1 x_93_ ^ 2 + 1 y_93_ ^ 2 ] <= 19504
c291_1: 158 x_94_ + 70 y_94_ + [ 1 x_94_ ^ 2 + 1 y_94_ ^ 2 ] <= 24183
c292_1: 158 x_95_ + 70 y_95_ + [ 1 x_95_ ^ 2 + 1 y_95_ ^ 2 ] <= 17024
c293_1: 158 x_96_ + 70 y_96_ + [ 1 x_96_ ^ 2 + 1 y_96_ ^ 2 ] <= 11471
c294_1: 158 x_97_ + 70 y_97_ + [ 1 x_97_ ^ 2 + 1 y_97_ ^ 2 ] <= 13773
c295_1: 158 x_98_ + 70 y_98_ + [ 1 x_98_ ^ 2 + 1 y_98_ ^ 2 ] <= -1798
c296_1: 158 x_99_ + 70 y_99_ + [ 1 x_99_ ^ 2 + 1 y_99_ ^ 2 ] <= 10949
c297_1: 158 x_100_ + 70 y_100_ + [ 1 x_100_ ^ 2 + 1 y_100_ ^ 2 ] <= 28173
c1_2: 1 x_80_ = 76
c2_2: 1 y_80_ = 63
c3_2: 1 x_20_ = 44
c4_2: 1 y_20_ = 4
c5_2: 1 x_17_ = -79
c6_2: 1 y_17_ = -35
c1: [ 1 x_1_ ^ 2 - 2 x_2_ * x_1_ + 1 x_2_ ^ 2 + 1 y_1_ ^ 2 - 2 y_2_ * y_1_ + 1 y_2_ ^ 2 ] = 4640
c2: [ 1 x_2_ ^ 2 - 2 x_3_ * x_2_ + 1 x_3_ ^ 2 + 1 y_2_ ^ 2 - 2 y_3_ * y_2_ + 1 y_3_ ^ 2 ] = 21509
c3: [ 1 x_3_ ^ 2 - 2 x_4_ * x_3_ + 1 x_4_ ^ 2 + 1 y_3_ ^ 2 - 2 y_4_ * y_3_ + 1 y_4_ ^ 2 ] = 10882
c4: [ 1 x_4_ ^ 2 - 2 x_5_ * x_4_ + 1 x_5_ ^ 2 + 1 y_4_ ^ 2 - 2 y_5_ * y_4_ + 1 y_5_ ^ 2 ] = 424
c5: [ 1 x_5_ ^ 2 - 2 x_6_ * x_5_ + 1 x_6_ ^ 2 + 1 y_5_ ^ 2 - 2 y_6_ * y_5_ + 1 y_6_ ^ 2 ] = 2693
c6: [ 1 x_6_ ^ 2 - 2 x_7_ * x_6_ + 1 x_7_ ^ 2 + 1 y_6_ ^ 2 - 2 y_7_ * y_6_ + 1 y_7_ ^ 2 ] = 6376
c7: [ 1 x_5_ ^ 2 - 2 x_8_ * x_5_ + 1 x_8_ ^ 2 + 1 y_5_ ^ 2 - 2 y_8_ * y_5_ + 1 y_8_ ^ 2 ] = 1277
c8: [ 1 x_7_ ^ 2 - 2 x_8_ * x_7_ + 1 x_8_ ^ 2 + 1 y_7_ ^ 2 - 2 y_8_ * y_7_ + 1 y_8_ ^ 2 ] = 25706
c9: [ 1 x_5_ ^ 2 - 2 x_9_ * x_5_ + 1 x_9_ ^ 2 + 1 y_5_ ^ 2 - 2 y_9_ * y_5_ + 1 y_9_ ^ 2 ] = 6984
c10: [ 1 x_8_ ^ 2 - 2 x_9_ * x_8_ + 1 x_9_ ^ 2 + 1 y_8_ ^ 2 - 2 y_9_ * y_8_ + 1 y_9_ ^ 2 ] = 14225
c11: [ 1 x_9_ ^ 2 - 2 x_10_ * x_9_ + 1 x_10_ ^ 2 + 1 y_9_ ^ 2 - 2 y_10_ * y_9_ + 1 y_10_ ^ 2 ] = 7594
c12: [ 1 x_6_ ^ 2 - 2 x_11_ * x_6_ + 1 x_11_ ^ 2 + 1 y_6_ ^ 2 - 2 y_11_ * y_6_ + 1 y_11_ ^ 2 ] = 7069
c13: [ 1 x_10_ ^ 2 - 2 x_11_ * x_10_ + 1 x_11_ ^ 2 + 1 y_10_ ^ 2 - 2 y_11_ * y_10_ + 1 y_11_ ^ 2 ] = 9160
c14: [ 1 x_11_ ^ 2 - 2 x_12_ * x_11_ + 1 x_12_ ^ 2 + 1 y_11_ ^ 2 - 2 y_12_ * y_11_ + 1 y_12_ ^ 2 ] = 6625
c15: [ 1 x_12_ ^ 2 - 2 x_13_ * x_12_ + 1 x_13_ ^ 2 + 1 y_12_ ^ 2 - 2 y_13_ * y_12_ + 1 y_13_ ^ 2 ] = 25490
c16: [ 1 x_9_ ^ 2 - 2 x_14_ * x_9_ + 1 x_14_ ^ 2 + 1 y_9_ ^ 2 - 2 y_14_ * y_9_ + 1 y_14_ ^ 2 ] = 8320
c17: [ 1 x_13_ ^ 2 - 2 x_14_ * x_13_ + 1 x_14_ ^ 2 + 1 y_13_ ^ 2 - 2 y_14_ * y_13_ + 1 y_14_ ^ 2 ] = 17397
c18: [ 1 x_1_ ^ 2 - 2 x_15_ * x_1_ + 1 x_15_ ^ 2 + 1 y_1_ ^ 2 - 2 y_15_ * y_1_ + 1 y_15_ ^ 2 ] = 35669
c19: [ 1 x_5_ ^ 2 - 2 x_15_ * x_5_ + 1 x_15_ ^ 2 + 1 y_5_ ^ 2 - 2 y_15_ * y_5_ + 1 y_15_ ^ 2 ] = 4964
c20: [ 1 x_6_ ^ 2 - 2 x_15_ * x_6_ + 1 x_15_ ^ 2 + 1 y_6_ ^ 2 - 2 y_15_ * y_6_ + 1 y_15_ ^ 2 ] = 8865
c21: [ 1 x_14_ ^ 2 - 2 x_15_ * x_14_ + 1 x_15_ ^ 2 + 1 y_14_ ^ 2 - 2 y_15_ * y_14_ + 1 y_15_ ^ 2 ] = 4100
c22: [ 1 x_14_ ^ 2 - 2 x_16_ * x_14_ + 1 x_16_ ^ 2 + 1 y_14_ ^ 2 - 2 y_16_ * y_14_ + 1 y_16_ ^ 2 ] = 17417
c23: [ 1 x_15_ ^ 2 - 2 x_16_ * x_15_ + 1 x_16_ ^ 2 + 1 y_15_ ^ 2 - 2 y_16_ * y_15_ + 1 y_16_ ^ 2 ] = 27693
c24: [ 1 x_16_ ^ 2 - 2 x_17_ * x_16_ + 1 x_17_ ^ 2 + 1 y_16_ ^ 2 - 2 y_17_ * y_16_ + 1 y_17_ ^ 2 ] = 4385
c25: [ 1 x_5_ ^ 2 - 2 x_18_ * x_5_ + 1 x_18_ ^ 2 + 1 y_5_ ^ 2 - 2 y_18_ * y_5_ + 1 y_18_ ^ 2 ] = 6617
c26: [ 1 x_9_ ^ 2 - 2 x_18_ * x_9_ + 1 x_18_ ^ 2 + 1 y_9_ ^ 2 - 2 y_18_ * y_9_ + 1 y_18_ ^ 2 ] = 1037
c27: [ 1 x_10_ ^ 2 - 2 x_18_ * x_10_ + 1 x_18_ ^ 2 + 1 y_10_ ^ 2 - 2 y_18_ * y_10_ + 1 y_18_ ^ 2 ] = 5065
c28: [ 1 x_15_ ^ 2 - 2 x_18_ * x_15_ + 1 x_18_ ^ 2 + 1 y_15_ ^ 2 - 2 y_18_ * y_15_ + 1 y_18_ ^ 2 ] = 22797
c29: [ 1 x_17_ ^ 2 - 2 x_18_ * x_17_ + 1 x_18_ ^ 2 + 1 y_17_ ^ 2 - 2 y_18_ * y_17_ + 1 y_18_ ^ 2 ] = 7481
c30: [ 1 x_18_ ^ 2 - 2 x_19_ * x_18_ + 1 x_19_ ^ 2 + 1 y_18_ ^ 2 - 2 y_19_ * y_18_ + 1 y_19_ ^ 2 ] = 10625
c31: [ 1 x_11_ ^ 2 - 2 x_20_ * x_11_ + 1 x_20_ ^ 2 + 1 y_11_ ^ 2 - 2 y_20_ * y_11_ + 1 y_20_ ^ 2 ] = 544
c32: [ 1 x_17_ ^ 2 - 2 x_20_ * x_17_ + 1 x_20_ ^ 2 + 1 y_17_ ^ 2 - 2 y_20_ * y_17_ + 1 y_20_ ^ 2 ] = 16650
c33: [ 1 x_19_ ^ 2 - 2 x_20_ * x_19_ + 1 x_20_ ^ 2 + 1 y_19_ ^ 2 - 2 y_20_ * y_19_ + 1 y_20_ ^ 2 ] = 5188
c34: [ 1 x_6_ ^ 2 - 2 x_21_ * x_6_ + 1 x_21_ ^ 2 + 1 y_6_ ^ 2 - 2 y_21_ * y_6_ + 1 y_21_ ^ 2 ] = 4802
c35: [ 1 x_20_ ^ 2 - 2 x_21_ * x_20_ + 1 x_21_ ^ 2 + 1 y_20_ ^ 2 - 2 y_21_ * y_20_ + 1 y_21_ ^ 2 ] = 9837
c36: [ 1 x_19_ ^ 2 - 2 x_22_ * x_19_ + 1 x_22_ ^ 2 + 1 y_19_ ^ 2 - 2 y_22_ * y_19_ + 1 y_22_ ^ 2 ] = 7888
c37: [ 1 x_21_ ^ 2 - 2 x_22_ * x_21_ + 1 x_22_ ^ 2 + 1 y_21_ ^ 2 - 2 y_22_ * y_21_ + 1 y_22_ ^ 2 ] = 2437
c38: [ 1 x_13_ ^ 2 - 2 x_23_ * x_13_ + 1 x_23_ ^ 2 + 1 y_13_ ^ 2 - 2 y_23_ * y_13_ + 1 y_23_ ^ 2 ] = 884
c39: [ 1 x_22_ ^ 2 - 2 x_23_ * x_22_ + 1 x_23_ ^ 2 + 1 y_22_ ^ 2 - 2 y_23_ * y_22_ + 1 y_23_ ^ 2 ] = 6005
c40: [ 1 x_4_ ^ 2 - 2 x_24_ * x_4_ + 1 x_24_ ^ 2 + 1 y_4_ ^ 2 - 2 y_24_ * y_4_ + 1 y_24_ ^ 2 ] = 4913
c41: [ 1 x_23_ ^ 2 - 2 x_24_ * x_23_ + 1 x_24_ ^ 2 + 1 y_23_ ^ 2 - 2 y_24_ * y_23_ + 1 y_24_ ^ 2 ] = 27812
c42: [ 1 x_2_ ^ 2 - 2 x_25_ * x_2_ + 1 x_25_ ^ 2 + 1 y_2_ ^ 2 - 2 y_25_ * y_2_ + 1 y_25_ ^ 2 ] = 23557
c43: [ 1 x_15_ ^ 2 - 2 x_25_ * x_15_ + 1 x_25_ ^ 2 + 1 y_15_ ^ 2 - 2 y_25_ * y_15_ + 1 y_25_ ^ 2 ] = 21940
c44: [ 1 x_24_ ^ 2 - 2 x_25_ * x_24_ + 1 x_25_ ^ 2 + 1 y_24_ ^ 2 - 2 y_25_ * y_24_ + 1 y_25_ ^ 2 ] = 21609
c45: [ 1 x_11_ ^ 2 - 2 x_26_ * x_11_ + 1 x_26_ ^ 2 + 1 y_11_ ^ 2 - 2 y_26_ * y_11_ + 1 y_26_ ^ 2 ] = 1802
c46: [ 1 x_13_ ^ 2 - 2 x_26_ * x_13_ + 1 x_26_ ^ 2 + 1 y_13_ ^ 2 - 2 y_26_ * y_13_ + 1 y_26_ ^ 2 ] = 2509
c47: [ 1 x_15_ ^ 2 - 2 x_26_ * x_15_ + 1 x_26_ ^ 2 + 1 y_15_ ^ 2 - 2 y_26_ * y_15_ + 1 y_26_ ^ 2 ] = 37556
c48: [ 1 x_25_ ^ 2 - 2 x_26_ * x_25_ + 1 x_26_ ^ 2 + 1 y_25_ ^ 2 - 2 y_26_ * y_25_ + 1 y_26_ ^ 2 ] = 27904
c49: [ 1 x_26_ ^ 2 - 2 x_27_ * x_26_ + 1 x_27_ ^ 2 + 1 y_26_ ^ 2 - 2 y_27_ * y_26_ + 1 y_27_ ^ 2 ] = 6760
c50: [ 1 x_3_ ^ 2 - 2 x_28_ * x_3_ + 1 x_28_ ^ 2 + 1 y_3_ ^ 2 - 2 y_28_ * y_3_ + 1 y_28_ ^ 2 ] = 19618
c51: [ 1 x_7_ ^ 2 - 2 x_28_ * x_7_ + 1 x_28_ ^ 2 + 1 y_7_ ^ 2 - 2 y_28_ * y_7_ + 1 y_28_ ^ 2 ] = 6185
c52: [ 1 x_27_ ^ 2 - 2 x_28_ * x_27_ + 1 x_28_ ^ 2 + 1 y_27_ ^ 2 - 2 y_28_ * y_27_ + 1 y_28_ ^ 2 ] = 3136
c53: [ 1 x_6_ ^ 2 - 2 x_29_ * x_6_ + 1 x_29_ ^ 2 + 1 y_6_ ^ 2 - 2 y_29_ * y_6_ + 1 y_29_ ^ 2 ] = 5249
c54: [ 1 x_13_ ^ 2 - 2 x_29_ * x_13_ + 1 x_29_ ^ 2 + 1 y_13_ ^ 2 - 2 y_29_ * y_13_ + 1 y_29_ ^ 2 ] = 30497
c55: [ 1 x_18_ ^ 2 - 2 x_29_ * x_18_ + 1 x_29_ ^ 2 + 1 y_18_ ^ 2 - 2 y_29_ * y_18_ + 1 y_29_ ^ 2 ] = 17009
c56: [ 1 x_19_ ^ 2 - 2 x_29_ * x_19_ + 1 x_29_ ^ 2 + 1 y_19_ ^ 2 - 2 y_29_ * y_19_ + 1 y_29_ ^ 2 ] = 14464
c57: [ 1 x_28_ ^ 2 - 2 x_29_ * x_28_ + 1 x_29_ ^ 2 + 1 y_28_ ^ 2 - 2 y_29_ * y_28_ + 1 y_29_ ^ 2 ] = 4346
c58: [ 1 x_3_ ^ 2 - 2 x_30_ * x_3_ + 1 x_30_ ^ 2 + 1 y_3_ ^ 2 - 2 y_30_ * y_3_ + 1 y_30_ ^ 2 ] = 33889
c59: [ 1 x_13_ ^ 2 - 2 x_30_ * x_13_ + 1 x_30_ ^ 2 + 1 y_13_ ^ 2 - 2 y_30_ * y_13_ + 1 y_30_ ^ 2 ] = 4100
c60: [ 1 x_27_ ^ 2 - 2 x_30_ * x_27_ + 1 x_30_ ^ 2 + 1 y_27_ ^ 2 - 2 y_30_ * y_27_ + 1 y_30_ ^ 2 ] = 11909
c61: [ 1 x_29_ ^ 2 - 2 x_30_ * x_29_ + 1 x_30_ ^ 2 + 1 y_29_ ^ 2 - 2 y_30_ * y_29_ + 1 y_30_ ^ 2 ] = 40905
c62: [ 1 x_3_ ^ 2 - 2 x_31_ * x_3_ + 1 x_31_ ^ 2 + 1 y_3_ ^ 2 - 2 y_31_ * y_3_ + 1 y_31_ ^ 2 ] = 36353
c63: [ 1 x_4_ ^ 2 - 2 x_31_ * x_4_ + 1 x_31_ ^ 2 + 1 y_4_ ^ 2 - 2 y_31_ * y_4_ + 1 y_31_ ^ 2 ] = 13457
c64: [ 1 x_26_ ^ 2 - 2 x_31_ * x_26_ + 1 x_31_ ^ 2 + 1 y_26_ ^ 2 - 2 y_31_ * y_26_ + 1 y_31_ ^ 2 ] = 2873
c65: [ 1 x_30_ ^ 2 - 2 x_31_ * x_30_ + 1 x_31_ ^ 2 + 1 y_30_ ^ 2 - 2 y_31_ * y_30_ + 1 y_31_ ^ 2 ] = 5440
c66: [ 1 x_1_ ^ 2 - 2 x_32_ * x_1_ + 1 x_32_ ^ 2 + 1 y_1_ ^ 2 - 2 y_32_ * y_1_ + 1 y_32_ ^ 2 ] = 15705
c67: [ 1 x_3_ ^ 2 - 2 x_32_ * x_3_ + 1 x_32_ ^ 2 + 1 y_3_ ^ 2 - 2 y_32_ * y_3_ + 1 y_32_ ^ 2 ] = 8900
c68: [ 1 x_9_ ^ 2 - 2 x_32_ * x_9_ + 1 x_32_ ^ 2 + 1 y_9_ ^ 2 - 2 y_32_ * y_9_ + 1 y_32_ ^ 2 ] = 2138
c69: [ 1 x_13_ ^ 2 - 2 x_32_ * x_13_ + 1 x_32_ ^ 2 + 1 y_13_ ^ 2 - 2 y_32_ * y_13_ + 1 y_32_ ^ 2 ] = 13345
c70: [ 1 x_16_ ^ 2 - 2 x_32_ * x_16_ + 1 x_32_ ^ 2 + 1 y_16_ ^ 2 - 2 y_32_ * y_16_ + 1 y_32_ ^ 2 ] = 785
c71: [ 1 x_17_ ^ 2 - 2 x_32_ * x_17_ + 1 x_32_ ^ 2 + 1 y_17_ ^ 2 - 2 y_32_ * y_17_ + 1 y_32_ ^ 2 ] = 7570
c72: [ 1 x_30_ ^ 2 - 2 x_32_ * x_30_ + 1 x_32_ ^ 2 + 1 y_30_ ^ 2 - 2 y_32_ * y_30_ + 1 y_32_ ^ 2 ] = 8065
c73: [ 1 x_31_ ^ 2 - 2 x_32_ * x_31_ + 1 x_32_ ^ 2 + 1 y_31_ ^ 2 - 2 y_32_ * y_31_ + 1 y_32_ ^ 2 ] = 12385
c74: [ 1 x_21_ ^ 2 - 2 x_33_ * x_21_ + 1 x_33_ ^ 2 + 1 y_21_ ^ 2 - 2 y_33_ * y_21_ + 1 y_33_ ^ 2 ] = 13213
c75: [ 1 x_22_ ^ 2 - 2 x_33_ * x_22_ + 1 x_33_ ^ 2 + 1 y_22_ ^ 2 - 2 y_33_ * y_22_ + 1 y_33_ ^ 2 ] = 5018
c76: [ 1 x_31_ ^ 2 - 2 x_33_ * x_31_ + 1 x_33_ ^ 2 + 1 y_31_ ^ 2 - 2 y_33_ * y_31_ + 1 y_33_ ^ 2 ] = 9437
c77: [ 1 x_32_ ^ 2 - 2 x_33_ * x_32_ + 1 x_33_ ^ 2 + 1 y_32_ ^ 2 - 2 y_33_ * y_32_ + 1 y_33_ ^ 2 ] = 1570
c78: [ 1 x_14_ ^ 2 - 2 x_34_ * x_14_ + 1 x_34_ ^ 2 + 1 y_14_ ^ 2 - 2 y_34_ * y_14_ + 1 y_34_ ^ 2 ] = 24008
c79: [ 1 x_17_ ^ 2 - 2 x_34_ * x_17_ + 1 x_34_ ^ 2 + 1 y_17_ ^ 2 - 2 y_34_ * y_17_ + 1 y_34_ ^ 2 ] = 12884
c80: [ 1 x_26_ ^ 2 - 2 x_34_ * x_26_ + 1 x_34_ ^ 2 + 1 y_26_ ^ 2 - 2 y_34_ * y_26_ + 1 y_34_ ^ 2 ] = 5128
c81: [ 1 x_33_ ^ 2 - 2 x_34_ * x_33_ + 1 x_34_ ^ 2 + 1 y_33_ ^ 2 - 2 y_34_ * y_33_ + 1 y_34_ ^ 2 ] = 656
c82: [ 1 x_2_ ^ 2 - 2 x_35_ * x_2_ + 1 x_35_ ^ 2 + 1 y_2_ ^ 2 - 2 y_35_ * y_2_ + 1 y_35_ ^ 2 ] = 289
c83: [ 1 x_16_ ^ 2 - 2 x_35_ * x_16_ + 1 x_35_ ^ 2 + 1 y_16_ ^ 2 - 2 y_35_ * y_16_ + 1 y_35_ ^ 2 ] = 9265
c84: [ 1 x_17_ ^ 2 - 2 x_35_ * x_17_ + 1 x_35_ ^ 2 + 1 y_17_ ^ 2 - 2 y_35_ * y_17_ + 1 y_35_ ^ 2 ] = 15650
c85: [ 1 x_31_ ^ 2 - 2 x_35_ * x_31_ + 1 x_35_ ^ 2 + 1 y_31_ ^ 2 - 2 y_35_ * y_31_ + 1 y_35_ ^ 2 ] = 3393
c86: [ 1 x_34_ ^ 2 - 2 x_35_ * x_34_ + 1 x_35_ ^ 2 + 1 y_34_ ^ 2 - 2 y_35_ * y_34_ + 1 y_35_ ^ 2 ] = 9850
c87: [ 1 x_4_ ^ 2 - 2 x_36_ * x_4_ + 1 x_36_ ^ 2 + 1 y_4_ ^ 2 - 2 y_36_ * y_4_ + 1 y_36_ ^ 2 ] = 13124
c88: [ 1 x_18_ ^ 2 - 2 x_36_ * x_18_ + 1 x_36_ ^ 2 + 1 y_18_ ^ 2 - 2 y_36_ * y_18_ + 1 y_36_ ^ 2 ] = 5917
c89: [ 1 x_24_ ^ 2 - 2 x_36_ * x_24_ + 1 x_36_ ^ 2 + 1 y_24_ ^ 2 - 2 y_36_ * y_24_ + 1 y_36_ ^ 2 ] = 32485
c90: [ 1 x_32_ ^ 2 - 2 x_36_ * x_32_ + 1 x_36_ ^ 2 + 1 y_32_ ^ 2 - 2 y_36_ * y_32_ + 1 y_36_ ^ 2 ] = 7090
c91: [ 1 x_35_ ^ 2 - 2 x_36_ * x_35_ + 1 x_36_ ^ 2 + 1 y_35_ ^ 2 - 2 y_36_ * y_35_ + 1 y_36_ ^ 2 ] = 3042
c92: [ 1 x_4_ ^ 2 - 2 x_37_ * x_4_ + 1 x_37_ ^ 2 + 1 y_4_ ^ 2 - 2 y_37_ * y_4_ + 1 y_37_ ^ 2 ] = 5017
c93: [ 1 x_5_ ^ 2 - 2 x_37_ * x_5_ + 1 x_37_ ^ 2 + 1 y_5_ ^ 2 - 2 y_37_ * y_5_ + 1 y_37_ ^ 2 ] = 5517
c94: [ 1 x_18_ ^ 2 - 2 x_37_ * x_18_ + 1 x_37_ ^ 2 + 1 y_18_ ^ 2 - 2 y_37_ * y_18_ + 1 y_37_ ^ 2 ] = 50
c95: [ 1 x_24_ ^ 2 - 2 x_37_ * x_24_ + 1 x_37_ ^ 2 + 1 y_24_ ^ 2 - 2 y_37_ * y_24_ + 1 y_37_ ^ 2 ] = 19408
c96: [ 1 x_28_ ^ 2 - 2 x_37_ * x_28_ + 1 x_37_ ^ 2 + 1 y_28_ ^ 2 - 2 y_37_ * y_28_ + 1 y_37_ ^ 2 ] = 7669
c97: [ 1 x_30_ ^ 2 - 2 x_37_ * x_30_ + 1 x_37_ ^ 2 + 1 y_30_ ^ 2 - 2 y_37_ * y_30_ + 1 y_37_ ^ 2 ] = 9316
c98: [ 1 x_36_ ^ 2 - 2 x_37_ * x_36_ + 1 x_37_ ^ 2 + 1 y_36_ ^ 2 - 2 y_37_ * y_36_ + 1 y_37_ ^ 2 ] = 6317
c99: [ 1 x_4_ ^ 2 - 2 x_38_ * x_4_ + 1 x_38_ ^ 2 + 1 y_4_ ^ 2 - 2 y_38_ * y_4_ + 1 y_38_ ^ 2 ] = 14794
c100: [ 1 x_13_ ^ 2 - 2 x_38_ * x_13_ + 1 x_38_ ^ 2 + 1 y_13_ ^ 2 - 2 y_38_ * y_13_ + 1 y_38_ ^ 2 ] = 2993
c101: [ 1 x_16_ ^ 2 - 2 x_38_ * x_16_ + 1 x_38_ ^ 2 + 1 y_16_ ^ 2 - 2 y_38_ * y_16_ + 1 y_38_ ^ 2 ] = 29385
c102: [ 1 x_19_ ^ 2 - 2 x_38_ * x_19_ + 1 x_38_ ^ 2 + 1 y_19_ ^ 2 - 2 y_38_ * y_19_ + 1 y_38_ ^ 2 ] = 1280
c103: [ 1 x_35_ ^ 2 - 2 x_38_ * x_35_ + 1 x_38_ ^ 2 + 1 y_35_ ^ 2 - 2 y_38_ * y_35_ + 1 y_38_ ^ 2 ] = 6052
c104: [ 1 x_36_ ^ 2 - 2 x_38_ * x_36_ + 1 x_38_ ^ 2 + 1 y_36_ ^ 2 - 2 y_38_ * y_36_ + 1 y_38_ ^ 2 ] = 5938
c105: [ 1 x_37_ ^ 2 - 2 x_38_ * x_37_ + 1 x_38_ ^ 2 + 1 y_37_ ^ 2 - 2 y_38_ * y_37_ + 1 y_38_ ^ 2 ] = 17165
c106: [ 1 x_21_ ^ 2 - 2 x_39_ * x_21_ + 1 x_39_ ^ 2 + 1 y_21_ ^ 2 - 2 y_39_ * y_21_ + 1 y_39_ ^ 2 ] = 12818
c107: [ 1 x_22_ ^ 2 - 2 x_39_ * x_22_ + 1 x_39_ ^ 2 + 1 y_22_ ^ 2 - 2 y_39_ * y_22_ + 1 y_39_ ^ 2 ] = 5213
c108: [ 1 x_37_ ^ 2 - 2 x_39_ * x_37_ + 1 x_39_ ^ 2 + 1 y_37_ ^ 2 - 2 y_39_ * y_37_ + 1 y_39_ ^ 2 ] = 6322
c109: [ 1 x_38_ ^ 2 - 2 x_39_ * x_38_ + 1 x_39_ ^ 2 + 1 y_38_ ^ 2 - 2 y_39_ * y_38_ + 1 y_39_ ^ 2 ] = 2701
c110: [ 1 x_4_ ^ 2 - 2 x_40_ * x_4_ + 1 x_40_ ^ 2 + 1 y_4_ ^ 2 - 2 y_40_ * y_4_ + 1 y_40_ ^ 2 ] = 9805
c111: [ 1 x_5_ ^ 2 - 2 x_40_ * x_5_ + 1 x_40_ ^ 2 + 1 y_5_ ^ 2 - 2 y_40_ * y_5_ + 1 y_40_ ^ 2 ] = 12137
c112: [ 1 x_12_ ^ 2 - 2 x_40_ * x_12_ + 1 x_40_ ^ 2 + 1 y_12_ ^ 2 - 2 y_40_ * y_12_ + 1 y_40_ ^ 2 ] = 9792
c113: [ 1 x_18_ ^ 2 - 2 x_40_ * x_18_ + 1 x_40_ ^ 2 + 1 y_18_ ^ 2 - 2 y_40_ * y_18_ + 1 y_40_ ^ 2 ] = 1908
c114: [ 1 x_34_ ^ 2 - 2 x_40_ * x_34_ + 1 x_40_ ^ 2 + 1 y_34_ ^ 2 - 2 y_40_ * y_34_ + 1 y_40_ ^ 2 ] = 3425
c115: [ 1 x_39_ ^ 2 - 2 x_40_ * x_39_ + 1 x_40_ ^ 2 + 1 y_39_ ^ 2 - 2 y_40_ * y_39_ + 1 y_40_ ^ 2 ] = 2932
c116: [ 1 x_3_ ^ 2 - 2 x_41_ * x_3_ + 1 x_41_ ^ 2 + 1 y_3_ ^ 2 - 2 y_41_ * y_3_ + 1 y_41_ ^ 2 ] = 31925
c117: [ 1 x_17_ ^ 2 - 2 x_41_ * x_17_ + 1 x_41_ ^ 2 + 1 y_17_ ^ 2 - 2 y_41_ * y_17_ + 1 y_41_ ^ 2 ] = 30665
c118: [ 1 x_20_ ^ 2 - 2 x_41_ * x_20_ + 1 x_41_ ^ 2 + 1 y_20_ ^ 2 - 2 y_41_ * y_20_ + 1 y_41_ ^ 2 ] = 12209
c119: [ 1 x_34_ ^ 2 - 2 x_41_ * x_34_ + 1 x_41_ ^ 2 + 1 y_34_ ^ 2 - 2 y_41_ * y_34_ + 1 y_41_ ^ 2 ] = 4105
c120: [ 1 x_40_ ^ 2 - 2 x_41_ * x_40_ + 1 x_41_ ^ 2 + 1 y_40_ ^ 2 - 2 y_41_ * y_40_ + 1 y_41_ ^ 2 ] = 9760
c121: [ 1 x_2_ ^ 2 - 2 x_42_ * x_2_ + 1 x_42_ ^ 2 + 1 y_2_ ^ 2 - 2 y_42_ * y_2_ + 1 y_42_ ^ 2 ] = 1989
c122: [ 1 x_8_ ^ 2 - 2 x_42_ * x_8_ + 1 x_42_ ^ 2 + 1 y_8_ ^ 2 - 2 y_42_ * y_8_ + 1 y_42_ ^ 2 ] = 11425
c123: [ 1 x_14_ ^ 2 - 2 x_42_ * x_14_ + 1 x_42_ ^ 2 + 1 y_14_ ^ 2 - 2 y_42_ * y_14_ + 1 y_42_ ^ 2 ] = 1856
c124: [ 1 x_22_ ^ 2 - 2 x_42_ * x_22_ + 1 x_42_ ^ 2 + 1 y_22_ ^ 2 - 2 y_42_ * y_22_ + 1 y_42_ ^ 2 ] = 8506
c125: [ 1 x_25_ ^ 2 - 2 x_42_ * x_25_ + 1 x_42_ ^ 2 + 1 y_25_ ^ 2 - 2 y_42_ * y_25_ + 1 y_42_ ^ 2 ] = 31120
c126: [ 1 x_41_ ^ 2 - 2 x_42_ * x_41_ + 1 x_42_ ^ 2 + 1 y_41_ ^ 2 - 2 y_42_ * y_41_ + 1 y_42_ ^ 2 ] = 43261
c127: [ 1 x_9_ ^ 2 - 2 x_43_ * x_9_ + 1 x_43_ ^ 2 + 1 y_9_ ^ 2 - 2 y_43_ * y_9_ + 1 y_43_ ^ 2 ] = 6917
c128: [ 1 x_18_ ^ 2 - 2 x_43_ * x_18_ + 1 x_43_ ^ 2 + 1 y_18_ ^ 2 - 2 y_43_ * y_18_ + 1 y_43_ ^ 2 ] = 3600
c129: [ 1 x_36_ ^ 2 - 2 x_43_ * x_36_ + 1 x_43_ ^ 2 + 1 y_36_ ^ 2 - 2 y_43_ * y_36_ + 1 y_43_ ^ 2 ] = 17797
c130: [ 1 x_38_ ^ 2 - 2 x_43_ * x_38_ + 1 x_43_ ^ 2 + 1 y_38_ ^ 2 - 2 y_43_ * y_38_ + 1 y_43_ ^ 2 ] = 29745
c131: [ 1 x_42_ ^ 2 - 2 x_43_ * x_42_ + 1 x_43_ ^ 2 + 1 y_42_ ^ 2 - 2 y_43_ * y_42_ + 1 y_43_ ^ 2 ] = 16965
c132: [ 1 x_12_ ^ 2 - 2 x_44_ * x_12_ + 1 x_44_ ^ 2 + 1 y_12_ ^ 2 - 2 y_44_ * y_12_ + 1 y_44_ ^ 2 ] = 3125
c133: [ 1 x_19_ ^ 2 - 2 x_44_ * x_19_ + 1 x_44_ ^ 2 + 1 y_19_ ^ 2 - 2 y_44_ * y_19_ + 1 y_44_ ^ 2 ] = 33300
c134: [ 1 x_20_ ^ 2 - 2 x_44_ * x_20_ + 1 x_44_ ^ 2 + 1 y_20_ ^ 2 - 2 y_44_ * y_20_ + 1 y_44_ ^ 2 ] = 14824
c135: [ 1 x_43_ ^ 2 - 2 x_44_ * x_43_ + 1 x_44_ ^ 2 + 1 y_43_ ^ 2 - 2 y_44_ * y_43_ + 1 y_44_ ^ 2 ] = 4745
c136: [ 1 x_1_ ^ 2 - 2 x_45_ * x_1_ + 1 x_45_ ^ 2 + 1 y_1_ ^ 2 - 2 y_45_ * y_1_ + 1 y_45_ ^ 2 ] = 980
c137: [ 1 x_18_ ^ 2 - 2 x_45_ * x_18_ + 1 x_45_ ^ 2 + 1 y_18_ ^ 2 - 2 y_45_ * y_18_ + 1 y_45_ ^ 2 ] = 7488
c138: [ 1 x_21_ ^ 2 - 2 x_45_ * x_21_ + 1 x_45_ ^ 2 + 1 y_21_ ^ 2 - 2 y_45_ * y_21_ + 1 y_45_ ^ 2 ] = 18050
c139: [ 1 x_24_ ^ 2 - 2 x_45_ * x_24_ + 1 x_45_ ^ 2 + 1 y_24_ ^ 2 - 2 y_45_ * y_24_ + 1 y_45_ ^ 2 ] = 31450
c140: [ 1 x_31_ ^ 2 - 2 x_45_ * x_31_ + 1 x_45_ ^ 2 + 1 y_31_ ^ 2 - 2 y_45_ * y_31_ + 1 y_45_ ^ 2 ] = 370
c141: [ 1 x_44_ ^ 2 - 2 x_45_ * x_44_ + 1 x_45_ ^ 2 + 1 y_44_ ^ 2 - 2 y_45_ * y_44_ + 1 y_45_ ^ 2 ] = 26681
c142: [ 1 x_45_ ^ 2 - 2 x_46_ * x_45_ + 1 x_46_ ^ 2 + 1 y_45_ ^ 2 - 2 y_46_ * y_45_ + 1 y_46_ ^ 2 ] = 26261
c143: [ 1 x_24_ ^ 2 - 2 x_47_ * x_24_ + 1 x_47_ ^ 2 + 1 y_24_ ^ 2 - 2 y_47_ * y_24_ + 1 y_47_ ^ 2 ] = 9725
c144: [ 1 x_39_ ^ 2 - 2 x_47_ * x_39_ + 1 x_47_ ^ 2 + 1 y_39_ ^ 2 - 2 y_47_ * y_39_ + 1 y_47_ ^ 2 ] = 25101
c145: [ 1 x_46_ ^ 2 - 2 x_47_ * x_46_ + 1 x_47_ ^ 2 + 1 y_46_ ^ 2 - 2 y_47_ * y_46_ + 1 y_47_ ^ 2 ] = 11752
c146: [ 1 x_9_ ^ 2 - 2 x_48_ * x_9_ + 1 x_48_ ^ 2 + 1 y_9_ ^ 2 - 2 y_48_ * y_9_ + 1 y_48_ ^ 2 ] = 6778
c147: [ 1 x_12_ ^ 2 - 2 x_48_ * x_12_ + 1 x_48_ ^ 2 + 1 y_12_ ^ 2 - 2 y_48_ * y_12_ + 1 y_48_ ^ 2 ] = 18721
c148: [ 1 x_19_ ^ 2 - 2 x_48_ * x_19_ + 1 x_48_ ^ 2 + 1 y_19_ ^ 2 - 2 y_48_ * y_19_ + 1 y_48_ ^ 2 ] = 16648
c149: [ 1 x_21_ ^ 2 - 2 x_48_ * x_21_ + 1 x_48_ ^ 2 + 1 y_21_ ^ 2 - 2 y_48_ * y_21_ + 1 y_48_ ^ 2 ] = 23585
c150: [ 1 x_38_ ^ 2 - 2 x_48_ * x_38_ + 1 x_48_ ^ 2 + 1 y_38_ ^ 2 - 2 y_48_ * y_38_ + 1 y_48_ ^ 2 ] = 19144
c151: [ 1 x_47_ ^ 2 - 2 x_48_ * x_47_ + 1 x_48_ ^ 2 + 1 y_47_ ^ 2 - 2 y_48_ * y_47_ + 1 y_48_ ^ 2 ] = 36360
c152: [ 1 x_3_ ^ 2 - 2 x_49_ * x_3_ + 1 x_49_ ^ 2 + 1 y_3_ ^ 2 - 2 y_49_ * y_3_ + 1 y_49_ ^ 2 ] = 41773
c153: [ 1 x_9_ ^ 2 - 2 x_49_ * x_9_ + 1 x_49_ ^ 2 + 1 y_9_ ^ 2 - 2 y_49_ * y_9_ + 1 y_49_ ^ 2 ] = 9577
c154: [ 1 x_32_ ^ 2 - 2 x_49_ * x_32_ + 1 x_49_ ^ 2 + 1 y_32_ ^ 2 - 2 y_49_ * y_32_ + 1 y_49_ ^ 2 ] = 20765
c155: [ 1 x_46_ ^ 2 - 2 x_49_ * x_46_ + 1 x_49_ ^ 2 + 1 y_46_ ^ 2 - 2 y_49_ * y_46_ + 1 y_49_ ^ 2 ] = 43993
c156: [ 1 x_48_ ^ 2 - 2 x_49_ * x_48_ + 1 x_49_ ^ 2 + 1 y_48_ ^ 2 - 2 y_49_ * y_48_ + 1 y_49_ ^ 2 ] = 21465
c157: [ 1 x_1_ ^ 2 - 2 x_50_ * x_1_ + 1 x_50_ ^ 2 + 1 y_1_ ^ 2 - 2 y_50_ * y_1_ + 1 y_50_ ^ 2 ] = 9029
c158: [ 1 x_7_ ^ 2 - 2 x_50_ * x_7_ + 1 x_50_ ^ 2 + 1 y_7_ ^ 2 - 2 y_50_ * y_7_ + 1 y_50_ ^ 2 ] = 5941
c159: [ 1 x_15_ ^ 2 - 2 x_50_ * x_15_ + 1 x_50_ ^ 2 + 1 y_15_ ^ 2 - 2 y_50_ * y_15_ + 1 y_50_ ^ 2 ] = 9396
c160: [ 1 x_18_ ^ 2 - 2 x_50_ * x_18_ + 1 x_50_ ^ 2 + 1 y_18_ ^ 2 - 2 y_50_ * y_18_ + 1 y_50_ ^ 2 ] = 6165
c161: [ 1 x_19_ ^ 2 - 2 x_50_ * x_19_ + 1 x_50_ ^ 2 + 1 y_19_ ^ 2 - 2 y_50_ * y_19_ + 1 y_50_ ^ 2 ] = 2690
c162: [ 1 x_20_ ^ 2 - 2 x_50_ * x_20_ + 1 x_50_ ^ 2 + 1 y_20_ ^ 2 - 2 y_50_ * y_20_ + 1 y_50_ ^ 2 ] = 5234
c163: [ 1 x_31_ ^ 2 - 2 x_50_ * x_31_ + 1 x_50_ ^ 2 + 1 y_31_ ^ 2 - 2 y_50_ * y_31_ + 1 y_50_ ^ 2 ] = 7177
c164: [ 1 x_40_ ^ 2 - 2 x_50_ * x_40_ + 1 x_50_ ^ 2 + 1 y_40_ ^ 2 - 2 y_50_ * y_40_ + 1 y_50_ ^ 2 ] = 6957
c165: [ 1 x_43_ ^ 2 - 2 x_50_ * x_43_ + 1 x_50_ ^ 2 + 1 y_43_ ^ 2 - 2 y_50_ * y_43_ + 1 y_50_ ^ 2 ] = 8685
c166: [ 1 x_49_ ^ 2 - 2 x_50_ * x_49_ + 1 x_50_ ^ 2 + 1 y_49_ ^ 2 - 2 y_50_ * y_49_ + 1 y_50_ ^ 2 ] = 5617
c167: [ 1 x_1_ ^ 2 - 2 x_51_ * x_1_ + 1 x_51_ ^ 2 + 1 y_1_ ^ 2 - 2 y_51_ * y_1_ + 1 y_51_ ^ 2 ] = 5473
c168: [ 1 x_2_ ^ 2 - 2 x_51_ * x_2_ + 1 x_51_ ^ 2 + 1 y_2_ ^ 2 - 2 y_51_ * y_2_ + 1 y_51_ ^ 2 ] = 185
c169: [ 1 x_27_ ^ 2 - 2 x_51_ * x_27_ + 1 x_51_ ^ 2 + 1 y_27_ ^ 2 - 2 y_51_ * y_27_ + 1 y_51_ ^ 2 ] = 1818
c170: [ 1 x_50_ ^ 2 - 2 x_51_ * x_50_ + 1 x_51_ ^ 2 + 1 y_50_ ^ 2 - 2 y_51_ * y_50_ + 1 y_51_ ^ 2 ] = 890
c171: [ 1 x_9_ ^ 2 - 2 x_52_ * x_9_ + 1 x_52_ ^ 2 + 1 y_9_ ^ 2 - 2 y_52_ * y_9_ + 1 y_52_ ^ 2 ] = 2417
c172: [ 1 x_31_ ^ 2 - 2 x_52_ * x_31_ + 1 x_52_ ^ 2 + 1 y_31_ ^ 2 - 2 y_52_ * y_31_ + 1 y_52_ ^ 2 ] = 1418
c173: [ 1 x_40_ ^ 2 - 2 x_52_ * x_40_ + 1 x_52_ ^ 2 + 1 y_40_ ^ 2 - 2 y_52_ * y_40_ + 1 y_52_ ^ 2 ] = 1000
c174: [ 1 x_45_ ^ 2 - 2 x_52_ * x_45_ + 1 x_52_ ^ 2 + 1 y_45_ ^ 2 - 2 y_52_ * y_45_ + 1 y_52_ ^ 2 ] = 340
c175: [ 1 x_51_ ^ 2 - 2 x_52_ * x_51_ + 1 x_52_ ^ 2 + 1 y_51_ ^ 2 - 2 y_52_ * y_51_ + 1 y_52_ ^ 2 ] = 3757
c176: [ 1 x_16_ ^ 2 - 2 x_53_ * x_16_ + 1 x_53_ ^ 2 + 1 y_16_ ^ 2 - 2 y_53_ * y_16_ + 1 y_53_ ^ 2 ] = 5780
c177: [ 1 x_17_ ^ 2 - 2 x_53_ * x_17_ + 1 x_53_ ^ 2 + 1 y_17_ ^ 2 - 2 y_53_ * y_17_ + 1 y_53_ ^ 2 ] = 3725
c178: [ 1 x_21_ ^ 2 - 2 x_53_ * x_21_ + 1 x_53_ ^ 2 + 1 y_21_ ^ 2 - 2 y_53_ * y_21_ + 1 y_53_ ^ 2 ] = 11720
c179: [ 1 x_25_ ^ 2 - 2 x_53_ * x_25_ + 1 x_53_ ^ 2 + 1 y_25_ ^ 2 - 2 y_53_ * y_25_ + 1 y_53_ ^ 2 ] = 1949
c180: [ 1 x_28_ ^ 2 - 2 x_53_ * x_28_ + 1 x_53_ ^ 2 + 1 y_28_ ^ 2 - 2 y_53_ * y_28_ + 1 y_53_ ^ 2 ] = 33185
c181: [ 1 x_31_ ^ 2 - 2 x_53_ * x_31_ + 1 x_53_ ^ 2 + 1 y_31_ ^ 2 - 2 y_53_ * y_31_ + 1 y_53_ ^ 2 ] = 45700
c182: [ 1 x_35_ ^ 2 - 2 x_53_ * x_35_ + 1 x_53_ ^ 2 + 1 y_35_ ^ 2 - 2 y_53_ * y_35_ + 1 y_53_ ^ 2 ] = 27625
c183: [ 1 x_50_ ^ 2 - 2 x_53_ * x_50_ + 1 x_53_ ^ 2 + 1 y_50_ ^ 2 - 2 y_53_ * y_50_ + 1 y_53_ ^ 2 ] = 29501
c184: [ 1 x_52_ ^ 2 - 2 x_53_ * x_52_ + 1 x_53_ ^ 2 + 1 y_52_ ^ 2 - 2 y_53_ * y_52_ + 1 y_53_ ^ 2 ] = 34250
c185: [ 1 x_7_ ^ 2 - 2 x_54_ * x_7_ + 1 x_54_ ^ 2 + 1 y_7_ ^ 2 - 2 y_54_ * y_7_ + 1 y_54_ ^ 2 ] = 10629
c186: [ 1 x_23_ ^ 2 - 2 x_54_ * x_23_ + 1 x_54_ ^ 2 + 1 y_23_ ^ 2 - 2 y_54_ * y_23_ + 1 y_54_ ^ 2 ] = 2105
c187: [ 1 x_42_ ^ 2 - 2 x_54_ * x_42_ + 1 x_54_ ^ 2 + 1 y_42_ ^ 2 - 2 y_54_ * y_42_ + 1 y_54_ ^ 2 ] = 17140
c188: [ 1 x_44_ ^ 2 - 2 x_54_ * x_44_ + 1 x_54_ ^ 2 + 1 y_44_ ^ 2 - 2 y_54_ * y_44_ + 1 y_54_ ^ 2 ] = 19970
c189: [ 1 x_53_ ^ 2 - 2 x_54_ * x_53_ + 1 x_54_ ^ 2 + 1 y_53_ ^ 2 - 2 y_54_ * y_53_ + 1 y_54_ ^ 2 ] = 32489
c190: [ 1 x_19_ ^ 2 - 2 x_55_ * x_19_ + 1 x_55_ ^ 2 + 1 y_19_ ^ 2 - 2 y_55_ * y_19_ + 1 y_55_ ^ 2 ] = 20612
c191: [ 1 x_38_ ^ 2 - 2 x_55_ * x_38_ + 1 x_55_ ^ 2 + 1 y_38_ ^ 2 - 2 y_55_ * y_38_ + 1 y_55_ ^ 2 ] = 32068
c192: [ 1 x_44_ ^ 2 - 2 x_55_ * x_44_ + 1 x_55_ ^ 2 + 1 y_44_ ^ 2 - 2 y_55_ * y_44_ + 1 y_55_ ^ 2 ] = 16160
c193: [ 1 x_54_ ^ 2 - 2 x_55_ * x_54_ + 1 x_55_ ^ 2 + 1 y_54_ ^ 2 - 2 y_55_ * y_54_ + 1 y_55_ ^ 2 ] = 31778
c194: [ 1 x_6_ ^ 2 - 2 x_56_ * x_6_ + 1 x_56_ ^ 2 + 1 y_6_ ^ 2 - 2 y_56_ * y_6_ + 1 y_56_ ^ 2 ] = 13289
c195: [ 1 x_10_ ^ 2 - 2 x_56_ * x_10_ + 1 x_56_ ^ 2 + 1 y_10_ ^ 2 - 2 y_56_ * y_10_ + 1 y_56_ ^ 2 ] = 5668
c196: [ 1 x_16_ ^ 2 - 2 x_56_ * x_16_ + 1 x_56_ ^ 2 + 1 y_16_ ^ 2 - 2 y_56_ * y_16_ + 1 y_56_ ^ 2 ] = 17
c197: [ 1 x_23_ ^ 2 - 2 x_56_ * x_23_ + 1 x_56_ ^ 2 + 1 y_23_ ^ 2 - 2 y_56_ * y_23_ + 1 y_56_ ^ 2 ] = 13957
c198: [ 1 x_45_ ^ 2 - 2 x_56_ * x_45_ + 1 x_56_ ^ 2 + 1 y_45_ ^ 2 - 2 y_56_ * y_45_ + 1 y_56_ ^ 2 ] = 15689
c199: [ 1 x_55_ ^ 2 - 2 x_56_ * x_55_ + 1 x_56_ ^ 2 + 1 y_55_ ^ 2 - 2 y_56_ * y_55_ + 1 y_56_ ^ 2 ] = 13172
c200: [ 1 x_24_ ^ 2 - 2 x_57_ * x_24_ + 1 x_57_ ^ 2 + 1 y_24_ ^ 2 - 2 y_57_ * y_24_ + 1 y_57_ ^ 2 ] = 35513
c201: [ 1 x_28_ ^ 2 - 2 x_57_ * x_28_ + 1 x_57_ ^ 2 + 1 y_28_ ^ 2 - 2 y_57_ * y_28_ + 1 y_57_ ^ 2 ] = 22802
c202: [ 1 x_29_ ^ 2 - 2 x_57_ * x_29_ + 1 x_57_ ^ 2 + 1 y_29_ ^ 2 - 2 y_57_ * y_29_ + 1 y_57_ ^ 2 ] = 30340
c203: [ 1 x_47_ ^ 2 - 2 x_57_ * x_47_ + 1 x_57_ ^ 2 + 1 y_47_ ^ 2 - 2 y_57_ * y_47_ + 1 y_57_ ^ 2 ] = 13220
c204: [ 1 x_51_ ^ 2 - 2 x_57_ * x_51_ + 1 x_57_ ^ 2 + 1 y_51_ ^ 2 - 2 y_57_ * y_51_ + 1 y_57_ ^ 2 ] = 14824
c205: [ 1 x_56_ ^ 2 - 2 x_57_ * x_56_ + 1 x_57_ ^ 2 + 1 y_56_ ^ 2 - 2 y_57_ * y_56_ + 1 y_57_ ^ 2 ] = 500
c206: [ 1 x_20_ ^ 2 - 2 x_58_ * x_20_ + 1 x_58_ ^ 2 + 1 y_20_ ^ 2 - 2 y_58_ * y_20_ + 1 y_58_ ^ 2 ] = 3464
c207: [ 1 x_21_ ^ 2 - 2 x_58_ * x_21_ + 1 x_58_ ^ 2 + 1 y_21_ ^ 2 - 2 y_58_ * y_21_ + 1 y_58_ ^ 2 ] = 14585
c208: [ 1 x_30_ ^ 2 - 2 x_58_ * x_30_ + 1 x_58_ ^ 2 + 1 y_30_ ^ 2 - 2 y_58_ * y_30_ + 1 y_58_ ^ 2 ] = 9245
c209: [ 1 x_38_ ^ 2 - 2 x_58_ * x_38_ + 1 x_58_ ^ 2 + 1 y_38_ ^ 2 - 2 y_58_ * y_38_ + 1 y_58_ ^ 2 ] = 1476
c210: [ 1 x_43_ ^ 2 - 2 x_58_ * x_43_ + 1 x_58_ ^ 2 + 1 y_43_ ^ 2 - 2 y_58_ * y_43_ + 1 y_58_ ^ 2 ] = 18225
c211: [ 1 x_49_ ^ 2 - 2 x_58_ * x_49_ + 1 x_58_ ^ 2 + 1 y_49_ ^ 2 - 2 y_58_ * y_49_ + 1 y_58_ ^ 2 ] = 1345
c212: [ 1 x_57_ ^ 2 - 2 x_58_ * x_57_ + 1 x_58_ ^ 2 + 1 y_57_ ^ 2 - 2 y_58_ * y_57_ + 1 y_58_ ^ 2 ] = 23696
c213: [ 1 x_33_ ^ 2 - 2 x_59_ * x_33_ + 1 x_59_ ^ 2 + 1 y_33_ ^ 2 - 2 y_59_ * y_33_ + 1 y_59_ ^ 2 ] = 4626
c214: [ 1 x_34_ ^ 2 - 2 x_59_ * x_34_ + 1 x_59_ ^ 2 + 1 y_34_ ^ 2 - 2 y_59_ * y_34_ + 1 y_59_ ^ 2 ] = 4682
c215: [ 1 x_49_ ^ 2 - 2 x_59_ * x_49_ + 1 x_59_ ^ 2 + 1 y_49_ ^ 2 - 2 y_59_ * y_49_ + 1 y_59_ ^ 2 ] = 37825
c216: [ 1 x_51_ ^ 2 - 2 x_59_ * x_51_ + 1 x_59_ ^ 2 + 1 y_51_ ^ 2 - 2 y_59_ * y_51_ + 1 y_59_ ^ 2 ] = 23140
c217: [ 1 x_58_ ^ 2 - 2 x_59_ * x_58_ + 1 x_59_ ^ 2 + 1 y_58_ ^ 2 - 2 y_59_ * y_58_ + 1 y_59_ ^ 2 ] = 25780
c218: [ 1 x_6_ ^ 2 - 2 x_60_ * x_6_ + 1 x_60_ ^ 2 + 1 y_6_ ^ 2 - 2 y_60_ * y_6_ + 1 y_60_ ^ 2 ] = 565
c219: [ 1 x_12_ ^ 2 - 2 x_60_ * x_12_ + 1 x_60_ ^ 2 + 1 y_12_ ^ 2 - 2 y_60_ * y_12_ + 1 y_60_ ^ 2 ] = 13441
c220: [ 1 x_16_ ^ 2 - 2 x_60_ * x_16_ + 1 x_60_ ^ 2 + 1 y_16_ ^ 2 - 2 y_60_ * y_16_ + 1 y_60_ ^ 2 ] = 14713
c221: [ 1 x_17_ ^ 2 - 2 x_60_ * x_17_ + 1 x_60_ ^ 2 + 1 y_17_ ^ 2 - 2 y_60_ * y_17_ + 1 y_60_ ^ 2 ] = 19216
c222: [ 1 x_21_ ^ 2 - 2 x_60_ * x_21_ + 1 x_60_ ^ 2 + 1 y_21_ ^ 2 - 2 y_60_ * y_21_ + 1 y_60_ ^ 2 ] = 8209
c223: [ 1 x_24_ ^ 2 - 2 x_60_ * x_24_ + 1 x_60_ ^ 2 + 1 y_24_ ^ 2 - 2 y_60_ * y_24_ + 1 y_60_ ^ 2 ] = 11657
c224: [ 1 x_35_ ^ 2 - 2 x_60_ * x_35_ + 1 x_60_ ^ 2 + 1 y_35_ ^ 2 - 2 y_60_ * y_35_ + 1 y_60_ ^ 2 ] = 890
c225: [ 1 x_42_ ^ 2 - 2 x_60_ * x_42_ + 1 x_60_ ^ 2 + 1 y_42_ ^ 2 - 2 y_60_ * y_42_ + 1 y_60_ ^ 2 ] = 964
c226: [ 1 x_52_ ^ 2 - 2 x_60_ * x_52_ + 1 x_60_ ^ 2 + 1 y_52_ ^ 2 - 2 y_60_ * y_52_ + 1 y_60_ ^ 2 ] = 6165
c227: [ 1 x_59_ ^ 2 - 2 x_60_ * x_59_ + 1 x_60_ ^ 2 + 1 y_59_ ^ 2 - 2 y_60_ * y_59_ + 1 y_60_ ^ 2 ] = 30906
c228: [ 1 x_1_ ^ 2 - 2 x_61_ * x_1_ + 1 x_61_ ^ 2 + 1 y_1_ ^ 2 - 2 y_61_ * y_1_ + 1 y_61_ ^ 2 ] = 1108
c229: [ 1 x_24_ ^ 2 - 2 x_61_ * x_24_ + 1 x_61_ ^ 2 + 1 y_24_ ^ 2 - 2 y_61_ * y_24_ + 1 y_61_ ^ 2 ] = 25826
c230: [ 1 x_27_ ^ 2 - 2 x_61_ * x_27_ + 1 x_61_ ^ 2 + 1 y_27_ ^ 2 - 2 y_61_ * y_27_ + 1 y_61_ ^ 2 ] = 1445
c231: [ 1 x_54_ ^ 2 - 2 x_61_ * x_54_ + 1 x_61_ ^ 2 + 1 y_54_ ^ 2 - 2 y_61_ * y_54_ + 1 y_61_ ^ 2 ] = 3065
c232: [ 1 x_57_ ^ 2 - 2 x_61_ * x_57_ + 1 x_61_ ^ 2 + 1 y_57_ ^ 2 - 2 y_61_ * y_57_ + 1 y_61_ ^ 2 ] = 19165
c233: [ 1 x_59_ ^ 2 - 2 x_61_ * x_59_ + 1 x_61_ ^ 2 + 1 y_59_ ^ 2 - 2 y_61_ * y_59_ + 1 y_61_ ^ 2 ] = 18473
c234: [ 1 x_60_ ^ 2 - 2 x_61_ * x_60_ + 1 x_61_ ^ 2 + 1 y_60_ ^ 2 - 2 y_61_ * y_60_ + 1 y_61_ ^ 2 ] = 2885
c235: [ 1 x_21_ ^ 2 - 2 x_62_ * x_21_ + 1 x_62_ ^ 2 + 1 y_21_ ^ 2 - 2 y_62_ * y_21_ + 1 y_62_ ^ 2 ] = 1525
c236: [ 1 x_61_ ^ 2 - 2 x_62_ * x_61_ + 1 x_62_ ^ 2 + 1 y_61_ ^ 2 - 2 y_62_ * y_61_ + 1 y_62_ ^ 2 ] = 16589
c237: [ 1 x_3_ ^ 2 - 2 x_63_ * x_3_ + 1 x_63_ ^ 2 + 1 y_3_ ^ 2 - 2 y_63_ * y_3_ + 1 y_63_ ^ 2 ] = 4717
c238: [ 1 x_11_ ^ 2 - 2 x_63_ * x_11_ + 1 x_63_ ^ 2 + 1 y_11_ ^ 2 - 2 y_63_ * y_11_ + 1 y_63_ ^ 2 ] = 11245
c239: [ 1 x_16_ ^ 2 - 2 x_63_ * x_16_ + 1 x_63_ ^ 2 + 1 y_16_ ^ 2 - 2 y_63_ * y_16_ + 1 y_63_ ^ 2 ] = 8180
c240: [ 1 x_22_ ^ 2 - 2 x_63_ * x_22_ + 1 x_63_ ^ 2 + 1 y_22_ ^ 2 - 2 y_63_ * y_22_ + 1 y_63_ ^ 2 ] = 4045
c241: [ 1 x_31_ ^ 2 - 2 x_63_ * x_31_ + 1 x_63_ ^ 2 + 1 y_31_ ^ 2 - 2 y_63_ * y_31_ + 1 y_63_ ^ 2 ] = 22580
c242: [ 1 x_46_ ^ 2 - 2 x_63_ * x_46_ + 1 x_63_ ^ 2 + 1 y_46_ ^ 2 - 2 y_63_ * y_46_ + 1 y_63_ ^ 2 ] = 13769
c243: [ 1 x_48_ ^ 2 - 2 x_63_ * x_48_ + 1 x_63_ ^ 2 + 1 y_48_ ^ 2 - 2 y_63_ * y_48_ + 1 y_63_ ^ 2 ] = 28649
c244: [ 1 x_60_ ^ 2 - 2 x_63_ * x_60_ + 1 x_63_ ^ 2 + 1 y_60_ ^ 2 - 2 y_63_ * y_60_ + 1 y_63_ ^ 2 ] = 8905
c245: [ 1 x_62_ ^ 2 - 2 x_63_ * x_62_ + 1 x_63_ ^ 2 + 1 y_62_ ^ 2 - 2 y_63_ * y_62_ + 1 y_63_ ^ 2 ] = 2941
c246: [ 1 x_2_ ^ 2 - 2 x_64_ * x_2_ + 1 x_64_ ^ 2 + 1 y_2_ ^ 2 - 2 y_64_ * y_2_ + 1 y_64_ ^ 2 ] = 1664
c247: [ 1 x_9_ ^ 2 - 2 x_64_ * x_9_ + 1 x_64_ ^ 2 + 1 y_9_ ^ 2 - 2 y_64_ * y_9_ + 1 y_64_ ^ 2 ] = 4597
c248: [ 1 x_30_ ^ 2 - 2 x_64_ * x_30_ + 1 x_64_ ^ 2 + 1 y_30_ ^ 2 - 2 y_64_ * y_30_ + 1 y_64_ ^ 2 ] = 19994
c249: [ 1 x_60_ ^ 2 - 2 x_64_ * x_60_ + 1 x_64_ ^ 2 + 1 y_60_ ^ 2 - 2 y_64_ * y_60_ + 1 y_64_ ^ 2 ] = 1105
c250: [ 1 x_63_ ^ 2 - 2 x_64_ * x_63_ + 1 x_64_ ^ 2 + 1 y_63_ ^ 2 - 2 y_64_ * y_63_ + 1 y_64_ ^ 2 ] = 4122
c251: [ 1 x_20_ ^ 2 - 2 x_65_ * x_20_ + 1 x_65_ ^ 2 + 1 y_20_ ^ 2 - 2 y_65_ * y_20_ + 1 y_65_ ^ 2 ] = 11521
c252: [ 1 x_25_ ^ 2 - 2 x_65_ * x_25_ + 1 x_65_ ^ 2 + 1 y_25_ ^ 2 - 2 y_65_ * y_25_ + 1 y_65_ ^ 2 ] = 10313
c253: [ 1 x_26_ ^ 2 - 2 x_65_ * x_26_ + 1 x_65_ ^ 2 + 1 y_26_ ^ 2 - 2 y_65_ * y_26_ + 1 y_65_ ^ 2 ] = 12905
c254: [ 1 x_31_ ^ 2 - 2 x_65_ * x_31_ + 1 x_65_ ^ 2 + 1 y_31_ ^ 2 - 2 y_65_ * y_31_ + 1 y_65_ ^ 2 ] = 26512
c255: [ 1 x_33_ ^ 2 - 2 x_65_ * x_33_ + 1 x_65_ ^ 2 + 1 y_33_ ^ 2 - 2 y_65_ * y_33_ + 1 y_65_ ^ 2 ] = 4573
c256: [ 1 x_39_ ^ 2 - 2 x_65_ * x_39_ + 1 x_65_ ^ 2 + 1 y_39_ ^ 2 - 2 y_65_ * y_39_ + 1 y_65_ ^ 2 ] = 22658
c257: [ 1 x_47_ ^ 2 - 2 x_65_ * x_47_ + 1 x_65_ ^ 2 + 1 y_47_ ^ 2 - 2 y_65_ * y_47_ + 1 y_65_ ^ 2 ] = 19073
c258: [ 1 x_48_ ^ 2 - 2 x_65_ * x_48_ + 1 x_65_ ^ 2 + 1 y_48_ ^ 2 - 2 y_65_ * y_48_ + 1 y_65_ ^ 2 ] = 9389
c259: [ 1 x_60_ ^ 2 - 2 x_65_ * x_60_ + 1 x_65_ ^ 2 + 1 y_60_ ^ 2 - 2 y_65_ * y_60_ + 1 y_65_ ^ 2 ] = 26065
c260: [ 1 x_64_ ^ 2 - 2 x_65_ * x_64_ + 1 x_65_ ^ 2 + 1 y_64_ ^ 2 - 2 y_65_ * y_64_ + 1 y_65_ ^ 2 ] = 25090
c261: [ 1 x_12_ ^ 2 - 2 x_66_ * x_12_ + 1 x_66_ ^ 2 + 1 y_12_ ^ 2 - 2 y_66_ * y_12_ + 1 y_66_ ^ 2 ] = 13050
c262: [ 1 x_13_ ^ 2 - 2 x_66_ * x_13_ + 1 x_66_ ^ 2 + 1 y_13_ ^ 2 - 2 y_66_ * y_13_ + 1 y_66_ ^ 2 ] = 2120
c263: [ 1 x_32_ ^ 2 - 2 x_66_ * x_32_ + 1 x_66_ ^ 2 + 1 y_32_ ^ 2 - 2 y_66_ * y_32_ + 1 y_66_ ^ 2 ] = 4901
c264: [ 1 x_35_ ^ 2 - 2 x_66_ * x_35_ + 1 x_66_ ^ 2 + 1 y_35_ ^ 2 - 2 y_66_ * y_35_ + 1 y_66_ ^ 2 ] = 1573
c265: [ 1 x_38_ ^ 2 - 2 x_66_ * x_38_ + 1 x_66_ ^ 2 + 1 y_38_ ^ 2 - 2 y_66_ * y_38_ + 1 y_66_ ^ 2 ] = 6525
c266: [ 1 x_48_ ^ 2 - 2 x_66_ * x_48_ + 1 x_66_ ^ 2 + 1 y_48_ ^ 2 - 2 y_66_ * y_48_ + 1 y_66_ ^ 2 ] = 4561
c267: [ 1 x_51_ ^ 2 - 2 x_66_ * x_51_ + 1 x_66_ ^ 2 + 1 y_51_ ^ 2 - 2 y_66_ * y_51_ + 1 y_66_ ^ 2 ] = 2045
c268: [ 1 x_65_ ^ 2 - 2 x_66_ * x_65_ + 1 x_66_ ^ 2 + 1 y_65_ ^ 2 - 2 y_66_ * y_65_ + 1 y_66_ ^ 2 ] = 14804
c269: [ 1 x_8_ ^ 2 - 2 x_67_ * x_8_ + 1 x_67_ ^ 2 + 1 y_8_ ^ 2 - 2 y_67_ * y_8_ + 1 y_67_ ^ 2 ] = 23477
c270: [ 1 x_25_ ^ 2 - 2 x_67_ * x_25_ + 1 x_67_ ^ 2 + 1 y_25_ ^ 2 - 2 y_67_ * y_25_ + 1 y_67_ ^ 2 ] = 9236
c271: [ 1 x_31_ ^ 2 - 2 x_67_ * x_31_ + 1 x_67_ ^ 2 + 1 y_31_ ^ 2 - 2 y_67_ * y_31_ + 1 y_67_ ^ 2 ] = 20117
c272: [ 1 x_32_ ^ 2 - 2 x_67_ * x_32_ + 1 x_67_ ^ 2 + 1 y_32_ ^ 2 - 2 y_67_ * y_32_ + 1 y_67_ ^ 2 ] = 1370
c273: [ 1 x_37_ ^ 2 - 2 x_67_ * x_37_ + 1 x_67_ ^ 2 + 1 y_37_ ^ 2 - 2 y_67_ * y_37_ + 1 y_67_ ^ 2 ] = 3517
c274: [ 1 x_51_ ^ 2 - 2 x_67_ * x_51_ + 1 x_67_ ^ 2 + 1 y_51_ ^ 2 - 2 y_67_ * y_51_ + 1 y_67_ ^ 2 ] = 12938
c275: [ 1 x_56_ ^ 2 - 2 x_67_ * x_56_ + 1 x_67_ ^ 2 + 1 y_56_ ^ 2 - 2 y_67_ * y_56_ + 1 y_67_ ^ 2 ] = 730
c276: [ 1 x_60_ ^ 2 - 2 x_67_ * x_60_ + 1 x_67_ ^ 2 + 1 y_60_ ^ 2 - 2 y_67_ * y_60_ + 1 y_67_ ^ 2 ] = 19144
c277: [ 1 x_64_ ^ 2 - 2 x_67_ * x_64_ + 1 x_67_ ^ 2 + 1 y_64_ ^ 2 - 2 y_67_ * y_64_ + 1 y_67_ ^ 2 ] = 18485
c278: [ 1 x_66_ ^ 2 - 2 x_67_ * x_66_ + 1 x_67_ ^ 2 + 1 y_66_ ^ 2 - 2 y_67_ * y_66_ + 1 y_67_ ^ 2 ] = 10069
c279: [ 1 x_3_ ^ 2 - 2 x_68_ * x_3_ + 1 x_68_ ^ 2 + 1 y_3_ ^ 2 - 2 y_68_ * y_3_ + 1 y_68_ ^ 2 ] = 12221
c280: [ 1 x_4_ ^ 2 - 2 x_68_ * x_4_ + 1 x_68_ ^ 2 + 1 y_4_ ^ 2 - 2 y_68_ * y_4_ + 1 y_68_ ^ 2 ] = 13885
c281: [ 1 x_7_ ^ 2 - 2 x_68_ * x_7_ + 1 x_68_ ^ 2 + 1 y_7_ ^ 2 - 2 y_68_ * y_7_ + 1 y_68_ ^ 2 ] = 22672
c282: [ 1 x_21_ ^ 2 - 2 x_68_ * x_21_ + 1 x_68_ ^ 2 + 1 y_21_ ^ 2 - 2 y_68_ * y_21_ + 1 y_68_ ^ 2 ] = 10466
c283: [ 1 x_34_ ^ 2 - 2 x_68_ * x_34_ + 1 x_68_ ^ 2 + 1 y_34_ ^ 2 - 2 y_68_ * y_34_ + 1 y_68_ ^ 2 ] = 113
c284: [ 1 x_35_ ^ 2 - 2 x_68_ * x_35_ + 1 x_68_ ^ 2 + 1 y_35_ ^ 2 - 2 y_68_ * y_35_ + 1 y_68_ ^ 2 ] = 8281
c285: [ 1 x_47_ ^ 2 - 2 x_68_ * x_47_ + 1 x_68_ ^ 2 + 1 y_47_ ^ 2 - 2 y_68_ * y_47_ + 1 y_68_ ^ 2 ] = 17485
c286: [ 1 x_66_ ^ 2 - 2 x_68_ * x_66_ + 1 x_68_ ^ 2 + 1 y_66_ ^ 2 - 2 y_68_ * y_66_ + 1 y_68_ ^ 2 ] = 5850
c287: [ 1 x_67_ ^ 2 - 2 x_68_ * x_67_ + 1 x_68_ ^ 2 + 1 y_67_ ^ 2 - 2 y_68_ * y_67_ + 1 y_68_ ^ 2 ] = 613
c288: [ 1 x_4_ ^ 2 - 2 x_69_ * x_4_ + 1 x_69_ ^ 2 + 1 y_4_ ^ 2 - 2 y_69_ * y_4_ + 1 y_69_ ^ 2 ] = 20137
c289: [ 1 x_5_ ^ 2 - 2 x_69_ * x_5_ + 1 x_69_ ^ 2 + 1 y_5_ ^ 2 - 2 y_69_ * y_5_ + 1 y_69_ ^ 2 ] = 18317
c290: [ 1 x_53_ ^ 2 - 2 x_69_ * x_53_ + 1 x_69_ ^ 2 + 1 y_53_ ^ 2 - 2 y_69_ * y_53_ + 1 y_69_ ^ 2 ] = 3368
c291: [ 1 x_63_ ^ 2 - 2 x_69_ * x_63_ + 1 x_69_ ^ 2 + 1 y_63_ ^ 2 - 2 y_69_ * y_63_ + 1 y_69_ ^ 2 ] = 15760
c292: [ 1 x_68_ ^ 2 - 2 x_69_ * x_68_ + 1 x_69_ ^ 2 + 1 y_68_ ^ 2 - 2 y_69_ * y_68_ + 1 y_69_ ^ 2 ] = 3370
c293: [ 1 x_7_ ^ 2 - 2 x_70_ * x_7_ + 1 x_70_ ^ 2 + 1 y_7_ ^ 2 - 2 y_70_ * y_7_ + 1 y_70_ ^ 2 ] = 20241
c294: [ 1 x_10_ ^ 2 - 2 x_70_ * x_10_ + 1 x_70_ ^ 2 + 1 y_10_ ^ 2 - 2 y_70_ * y_10_ + 1 y_70_ ^ 2 ] = 1480
c295: [ 1 x_17_ ^ 2 - 2 x_70_ * x_17_ + 1 x_70_ ^ 2 + 1 y_17_ ^ 2 - 2 y_70_ * y_17_ + 1 y_70_ ^ 2 ] = 2962
c296: [ 1 x_43_ ^ 2 - 2 x_70_ * x_43_ + 1 x_70_ ^ 2 + 1 y_43_ ^ 2 - 2 y_70_ * y_43_ + 1 y_70_ ^ 2 ] = 685
c297: [ 1 x_51_ ^ 2 - 2 x_70_ * x_51_ + 1 x_70_ ^ 2 + 1 y_51_ ^ 2 - 2 y_70_ * y_51_ + 1 y_70_ ^ 2 ] = 5440
c298: [ 1 x_56_ ^ 2 - 2 x_70_ * x_56_ + 1 x_70_ ^ 2 + 1 y_56_ ^ 2 - 2 y_70_ * y_56_ + 1 y_70_ ^ 2 ] = 1796
c299: [ 1 x_69_ ^ 2 - 2 x_70_ * x_69_ + 1 x_70_ ^ 2 + 1 y_69_ ^ 2 - 2 y_70_ * y_69_ + 1 y_70_ ^ 2 ] = 6165
c300: [ 1 x_11_ ^ 2 - 2 x_71_ * x_11_ + 1 x_71_ ^ 2 + 1 y_11_ ^ 2 - 2 y_71_ * y_11_ + 1 y_71_ ^ 2 ] = 8042
c301: [ 1 x_23_ ^ 2 - 2 x_71_ * x_23_ + 1 x_71_ ^ 2 + 1 y_23_ ^ 2 - 2 y_71_ * y_23_ + 1 y_71_ ^ 2 ] = 3965
c302: [ 1 x_31_ ^ 2 - 2 x_71_ * x_31_ + 1 x_71_ ^ 2 + 1 y_31_ ^ 2 - 2 y_71_ * y_31_ + 1 y_71_ ^ 2 ] = 4225
c303: [ 1 x_32_ ^ 2 - 2 x_71_ * x_32_ + 1 x_71_ ^ 2 + 1 y_32_ ^ 2 - 2 y_71_ * y_32_ + 1 y_71_ ^ 2 ] = 12050
c304: [ 1 x_34_ ^ 2 - 2 x_71_ * x_34_ + 1 x_71_ ^ 2 + 1 y_34_ ^ 2 - 2 y_71_ * y_34_ + 1 y_71_ ^ 2 ] = 18596
c305: [ 1 x_40_ ^ 2 - 2 x_71_ * x_40_ + 1 x_71_ ^ 2 + 1 y_40_ ^ 2 - 2 y_71_ * y_40_ + 1 y_71_ ^ 2 ] = 7129
c306: [ 1 x_43_ ^ 2 - 2 x_71_ * x_43_ + 1 x_71_ ^ 2 + 1 y_43_ ^ 2 - 2 y_71_ * y_43_ + 1 y_71_ ^ 2 ] = 14089
c307: [ 1 x_48_ ^ 2 - 2 x_71_ * x_48_ + 1 x_71_ ^ 2 + 1 y_48_ ^ 2 - 2 y_71_ * y_48_ + 1 y_71_ ^ 2 ] = 18650
c308: [ 1 x_49_ ^ 2 - 2 x_71_ * x_49_ + 1 x_71_ ^ 2 + 1 y_49_ ^ 2 - 2 y_71_ * y_49_ + 1 y_71_ ^ 2 ] = 2225
c309: [ 1 x_55_ ^ 2 - 2 x_71_ * x_55_ + 1 x_71_ ^ 2 + 1 y_55_ ^ 2 - 2 y_71_ * y_55_ + 1 y_71_ ^ 2 ] = 14170
c310: [ 1 x_56_ ^ 2 - 2 x_71_ * x_56_ + 1 x_71_ ^ 2 + 1 y_56_ ^ 2 - 2 y_71_ * y_56_ + 1 y_71_ ^ 2 ] = 17866
c311: [ 1 x_57_ ^ 2 - 2 x_71_ * x_57_ + 1 x_71_ ^ 2 + 1 y_57_ ^ 2 - 2 y_71_ * y_57_ + 1 y_71_ ^ 2 ] = 23762
c312: [ 1 x_70_ ^ 2 - 2 x_71_ * x_70_ + 1 x_71_ ^ 2 + 1 y_70_ ^ 2 - 2 y_71_ * y_70_ + 1 y_71_ ^ 2 ] = 10322
c313: [ 1 x_2_ ^ 2 - 2 x_72_ * x_2_ + 1 x_72_ ^ 2 + 1 y_2_ ^ 2 - 2 y_72_ * y_2_ + 1 y_72_ ^ 2 ] = 7514
c314: [ 1 x_7_ ^ 2 - 2 x_72_ * x_7_ + 1 x_72_ ^ 2 + 1 y_7_ ^ 2 - 2 y_72_ * y_7_ + 1 y_72_ ^ 2 ] = 19450
c315: [ 1 x_31_ ^ 2 - 2 x_72_ * x_31_ + 1 x_72_ ^ 2 + 1 y_31_ ^ 2 - 2 y_72_ * y_31_ + 1 y_72_ ^ 2 ] = 20308
c316: [ 1 x_54_ ^ 2 - 2 x_72_ * x_54_ + 1 x_72_ ^ 2 + 1 y_54_ ^ 2 - 2 y_72_ * y_54_ + 1 y_72_ ^ 2 ] = 23137
c317: [ 1 x_71_ ^ 2 - 2 x_72_ * x_71_ + 1 x_72_ ^ 2 + 1 y_71_ ^ 2 - 2 y_72_ * y_71_ + 1 y_72_ ^ 2 ] = 8093
c318: [ 1 x_1_ ^ 2 - 2 x_73_ * x_1_ + 1 x_73_ ^ 2 + 1 y_1_ ^ 2 - 2 y_73_ * y_1_ + 1 y_73_ ^ 2 ] = 30578
c319: [ 1 x_3_ ^ 2 - 2 x_73_ * x_3_ + 1 x_73_ ^ 2 + 1 y_3_ ^ 2 - 2 y_73_ * y_3_ + 1 y_73_ ^ 2 ] = 1017
c320: [ 1 x_45_ ^ 2 - 2 x_73_ * x_45_ + 1 x_73_ ^ 2 + 1 y_45_ ^ 2 - 2 y_73_ * y_45_ + 1 y_73_ ^ 2 ] = 22850
c321: [ 1 x_48_ ^ 2 - 2 x_73_ * x_48_ + 1 x_73_ ^ 2 + 1 y_48_ ^ 2 - 2 y_73_ * y_48_ + 1 y_73_ ^ 2 ] = 24085
c322: [ 1 x_72_ ^ 2 - 2 x_73_ * x_72_ + 1 x_73_ ^ 2 + 1 y_72_ ^ 2 - 2 y_73_ * y_72_ + 1 y_73_ ^ 2 ] = 3152
c323: [ 1 x_5_ ^ 2 - 2 x_74_ * x_5_ + 1 x_74_ ^ 2 + 1 y_5_ ^ 2 - 2 y_74_ * y_5_ + 1 y_74_ ^ 2 ] = 12049
c324: [ 1 x_12_ ^ 2 - 2 x_74_ * x_12_ + 1 x_74_ ^ 2 + 1 y_12_ ^ 2 - 2 y_74_ * y_12_ + 1 y_74_ ^ 2 ] = 2738
c325: [ 1 x_20_ ^ 2 - 2 x_74_ * x_20_ + 1 x_74_ ^ 2 + 1 y_20_ ^ 2 - 2 y_74_ * y_20_ + 1 y_74_ ^ 2 ] = 21825
c326: [ 1 x_43_ ^ 2 - 2 x_74_ * x_43_ + 1 x_74_ ^ 2 + 1 y_43_ ^ 2 - 2 y_74_ * y_43_ + 1 y_74_ ^ 2 ] = 3362
c327: [ 1 x_54_ ^ 2 - 2 x_74_ * x_54_ + 1 x_74_ ^ 2 + 1 y_54_ ^ 2 - 2 y_74_ * y_54_ + 1 y_74_ ^ 2 ] = 31249
c328: [ 1 x_73_ ^ 2 - 2 x_74_ * x_73_ + 1 x_74_ ^ 2 + 1 y_73_ ^ 2 - 2 y_74_ * y_73_ + 1 y_74_ ^ 2 ] = 2704
c329: [ 1 x_10_ ^ 2 - 2 x_75_ * x_10_ + 1 x_75_ ^ 2 + 1 y_10_ ^ 2 - 2 y_75_ * y_10_ + 1 y_75_ ^ 2 ] = 11906
c330: [ 1 x_18_ ^ 2 - 2 x_75_ * x_18_ + 1 x_75_ ^ 2 + 1 y_18_ ^ 2 - 2 y_75_ * y_18_ + 1 y_75_ ^ 2 ] = 2357
c331: [ 1 x_19_ ^ 2 - 2 x_75_ * x_19_ + 1 x_75_ ^ 2 + 1 y_19_ ^ 2 - 2 y_75_ * y_19_ + 1 y_75_ ^ 2 ] = 4762
c332: [ 1 x_38_ ^ 2 - 2 x_75_ * x_38_ + 1 x_75_ ^ 2 + 1 y_38_ ^ 2 - 2 y_75_ * y_38_ + 1 y_75_ ^ 2 ] = 8186
c333: [ 1 x_39_ ^ 2 - 2 x_75_ * x_39_ + 1 x_75_ ^ 2 + 1 y_39_ ^ 2 - 2 y_75_ * y_39_ + 1 y_75_ ^ 2 ] = 1625
c334: [ 1 x_49_ ^ 2 - 2 x_75_ * x_49_ + 1 x_75_ ^ 2 + 1 y_49_ ^ 2 - 2 y_75_ * y_49_ + 1 y_75_ ^ 2 ] = 8477
c335: [ 1 x_67_ ^ 2 - 2 x_75_ * x_67_ + 1 x_75_ ^ 2 + 1 y_67_ ^ 2 - 2 y_75_ * y_67_ + 1 y_75_ ^ 2 ] = 8000
c336: [ 1 x_74_ ^ 2 - 2 x_75_ * x_74_ + 1 x_75_ ^ 2 + 1 y_74_ ^ 2 - 2 y_75_ * y_74_ + 1 y_75_ ^ 2 ] = 23049
c337: [ 1 x_3_ ^ 2 - 2 x_76_ * x_3_ + 1 x_76_ ^ 2 + 1 y_3_ ^ 2 - 2 y_76_ * y_3_ + 1 y_76_ ^ 2 ] = 15794
c338: [ 1 x_7_ ^ 2 - 2 x_76_ * x_7_ + 1 x_76_ ^ 2 + 1 y_7_ ^ 2 - 2 y_76_ * y_7_ + 1 y_76_ ^ 2 ] = 22157
c339: [ 1 x_38_ ^ 2 - 2 x_76_ * x_38_ + 1 x_76_ ^ 2 + 1 y_38_ ^ 2 - 2 y_76_ * y_38_ + 1 y_76_ ^ 2 ] = 23722
c340: [ 1 x_46_ ^ 2 - 2 x_76_ * x_46_ + 1 x_76_ ^ 2 + 1 y_46_ ^ 2 - 2 y_76_ * y_46_ + 1 y_76_ ^ 2 ] = 6130
c341: [ 1 x_64_ ^ 2 - 2 x_76_ * x_64_ + 1 x_76_ ^ 2 + 1 y_64_ ^ 2 - 2 y_76_ * y_64_ + 1 y_76_ ^ 2 ] = 16949
c342: [ 1 x_75_ ^ 2 - 2 x_76_ * x_75_ + 1 x_76_ ^ 2 + 1 y_75_ ^ 2 - 2 y_76_ * y_75_ + 1 y_76_ ^ 2 ] = 4160
c343: [ 1 x_5_ ^ 2 - 2 x_77_ * x_5_ + 1 x_77_ ^ 2 + 1 y_5_ ^ 2 - 2 y_77_ * y_5_ + 1 y_77_ ^ 2 ] = 15229
c344: [ 1 x_27_ ^ 2 - 2 x_77_ * x_27_ + 1 x_77_ ^ 2 + 1 y_27_ ^ 2 - 2 y_77_ * y_27_ + 1 y_77_ ^ 2 ] = 2645
c345: [ 1 x_36_ ^ 2 - 2 x_77_ * x_36_ + 1 x_77_ ^ 2 + 1 y_36_ ^ 2 - 2 y_77_ * y_36_ + 1 y_77_ ^ 2 ] = 169
c346: [ 1 x_41_ ^ 2 - 2 x_77_ * x_41_ + 1 x_77_ ^ 2 + 1 y_41_ ^ 2 - 2 y_77_ * y_41_ + 1 y_77_ ^ 2 ] = 16072
c347: [ 1 x_43_ ^ 2 - 2 x_77_ * x_43_ + 1 x_77_ ^ 2 + 1 y_43_ ^ 2 - 2 y_77_ * y_43_ + 1 y_77_ ^ 2 ] = 17492
c348: [ 1 x_53_ ^ 2 - 2 x_77_ * x_53_ + 1 x_77_ ^ 2 + 1 y_53_ ^ 2 - 2 y_77_ * y_53_ + 1 y_77_ ^ 2 ] = 36738
c349: [ 1 x_66_ ^ 2 - 2 x_77_ * x_66_ + 1 x_77_ ^ 2 + 1 y_66_ ^ 2 - 2 y_77_ * y_66_ + 1 y_77_ ^ 2 ] = 338
c350: [ 1 x_75_ ^ 2 - 2 x_77_ * x_75_ + 1 x_77_ ^ 2 + 1 y_75_ ^ 2 - 2 y_77_ * y_75_ + 1 y_77_ ^ 2 ] = 929
c351: [ 1 x_76_ ^ 2 - 2 x_77_ * x_76_ + 1 x_77_ ^ 2 + 1 y_76_ ^ 2 - 2 y_77_ * y_76_ + 1 y_77_ ^ 2 ] = 8017
c352: [ 1 x_9_ ^ 2 - 2 x_78_ * x_9_ + 1 x_78_ ^ 2 + 1 y_9_ ^ 2 - 2 y_78_ * y_9_ + 1 y_78_ ^ 2 ] = 3341
c353: [ 1 x_24_ ^ 2 - 2 x_78_ * x_24_ + 1 x_78_ ^ 2 + 1 y_24_ ^ 2 - 2 y_78_ * y_24_ + 1 y_78_ ^ 2 ] = 7060
c354: [ 1 x_40_ ^ 2 - 2 x_78_ * x_40_ + 1 x_78_ ^ 2 + 1 y_40_ ^ 2 - 2 y_78_ * y_40_ + 1 y_78_ ^ 2 ] = 7162
c355: [ 1 x_41_ ^ 2 - 2 x_78_ * x_41_ + 1 x_78_ ^ 2 + 1 y_41_ ^ 2 - 2 y_78_ * y_41_ + 1 y_78_ ^ 2 ] = 30906
c356: [ 1 x_61_ ^ 2 - 2 x_78_ * x_61_ + 1 x_78_ ^ 2 + 1 y_61_ ^ 2 - 2 y_78_ * y_61_ + 1 y_78_ ^ 2 ] = 7234
c357: [ 1 x_77_ ^ 2 - 2 x_78_ * x_77_ + 1 x_78_ ^ 2 + 1 y_77_ ^ 2 - 2 y_78_ * y_77_ + 1 y_78_ ^ 2 ] = 8506
c358: [ 1 x_2_ ^ 2 - 2 x_79_ * x_2_ + 1 x_79_ ^ 2 + 1 y_2_ ^ 2 - 2 y_79_ * y_2_ + 1 y_79_ ^ 2 ] = 292
c359: [ 1 x_16_ ^ 2 - 2 x_79_ * x_16_ + 1 x_79_ ^ 2 + 1 y_16_ ^ 2 - 2 y_79_ * y_16_ + 1 y_79_ ^ 2 ] = 16666
c360: [ 1 x_22_ ^ 2 - 2 x_79_ * x_22_ + 1 x_79_ ^ 2 + 1 y_22_ ^ 2 - 2 y_79_ * y_22_ + 1 y_79_ ^ 2 ] = 5521
c361: [ 1 x_25_ ^ 2 - 2 x_79_ * x_25_ + 1 x_79_ ^ 2 + 1 y_25_ ^ 2 - 2 y_79_ * y_25_ + 1 y_79_ ^ 2 ] = 28573
c362: [ 1 x_29_ ^ 2 - 2 x_79_ * x_29_ + 1 x_79_ ^ 2 + 1 y_29_ ^ 2 - 2 y_79_ * y_29_ + 1 y_79_ ^ 2 ] = 11041
c363: [ 1 x_31_ ^ 2 - 2 x_79_ * x_31_ + 1 x_79_ ^ 2 + 1 y_31_ ^ 2 - 2 y_79_ * y_31_ + 1 y_79_ ^ 2 ] = 3042
c364: [ 1 x_39_ ^ 2 - 2 x_79_ * x_39_ + 1 x_79_ ^ 2 + 1 y_39_ ^ 2 - 2 y_79_ * y_39_ + 1 y_79_ ^ 2 ] = 968
c365: [ 1 x_50_ ^ 2 - 2 x_79_ * x_50_ + 1 x_79_ ^ 2 + 1 y_50_ ^ 2 - 2 y_79_ * y_50_ + 1 y_79_ ^ 2 ] = 1189
c366: [ 1 x_53_ ^ 2 - 2 x_79_ * x_53_ + 1 x_79_ ^ 2 + 1 y_53_ ^ 2 - 2 y_79_ * y_53_ + 1 y_79_ ^ 2 ] = 38674
c367: [ 1 x_54_ ^ 2 - 2 x_79_ * x_54_ + 1 x_79_ ^ 2 + 1 y_54_ ^ 2 - 2 y_79_ * y_54_ + 1 y_79_ ^ 2 ] = 9533
c368: [ 1 x_58_ ^ 2 - 2 x_79_ * x_58_ + 1 x_79_ ^ 2 + 1 y_58_ ^ 2 - 2 y_79_ * y_58_ + 1 y_79_ ^ 2 ] = 625
c369: [ 1 x_65_ ^ 2 - 2 x_79_ * x_65_ + 1 x_79_ ^ 2 + 1 y_65_ ^ 2 - 2 y_79_ * y_65_ + 1 y_79_ ^ 2 ] = 27850
c370: [ 1 x_76_ ^ 2 - 2 x_79_ * x_76_ + 1 x_79_ ^ 2 + 1 y_76_ ^ 2 - 2 y_79_ * y_76_ + 1 y_79_ ^ 2 ] = 15957
c371: [ 1 x_78_ ^ 2 - 2 x_79_ * x_78_ + 1 x_79_ ^ 2 + 1 y_78_ ^ 2 - 2 y_79_ * y_78_ + 1 y_79_ ^ 2 ] = 3330
c372: [ 1 x_3_ ^ 2 - 2 x_80_ * x_3_ + 1 x_80_ ^ 2 + 1 y_3_ ^ 2 - 2 y_80_ * y_3_ + 1 y_80_ ^ 2 ] = 37693
c373: [ 1 x_15_ ^ 2 - 2 x_80_ * x_15_ + 1 x_80_ ^ 2 + 1 y_15_ ^ 2 - 2 y_80_ * y_15_ + 1 y_80_ ^ 2 ] = 29585
c374: [ 1 x_23_ ^ 2 - 2 x_80_ * x_23_ + 1 x_80_ ^ 2 + 1 y_23_ ^ 2 - 2 y_80_ * y_23_ + 1 y_80_ ^ 2 ] = 1170
c375: [ 1 x_26_ ^ 2 - 2 x_80_ * x_26_ + 1 x_80_ ^ 2 + 1 y_26_ ^ 2 - 2 y_80_ * y_26_ + 1 y_80_ ^ 2 ] = 4633
c376: [ 1 x_41_ ^ 2 - 2 x_80_ * x_41_ + 1 x_80_ ^ 2 + 1 y_41_ ^ 2 - 2 y_80_ * y_41_ + 1 y_80_ ^ 2 ] = 26308
c377: [ 1 x_70_ ^ 2 - 2 x_80_ * x_70_ + 1 x_80_ ^ 2 + 1 y_70_ ^ 2 - 2 y_80_ * y_70_ + 1 y_80_ ^ 2 ] = 17057
c378: [ 1 x_73_ ^ 2 - 2 x_80_ * x_73_ + 1 x_80_ ^ 2 + 1 y_73_ ^ 2 - 2 y_80_ * y_73_ + 1 y_80_ ^ 2 ] = 26770
c379: [ 1 x_77_ ^ 2 - 2 x_80_ * x_77_ + 1 x_80_ ^ 2 + 1 y_77_ ^ 2 - 2 y_80_ * y_77_ + 1 y_80_ ^ 2 ] = 1332
c380: [ 1 x_79_ ^ 2 - 2 x_80_ * x_79_ + 1 x_80_ ^ 2 + 1 y_79_ ^ 2 - 2 y_80_ * y_79_ + 1 y_80_ ^ 2 ] = 2152
c381: [ 1 x_6_ ^ 2 - 2 x_81_ * x_6_ + 1 x_81_ ^ 2 + 1 y_6_ ^ 2 - 2 y_81_ * y_6_ + 1 y_81_ ^ 2 ] = 13577
c382: [ 1 x_9_ ^ 2 - 2 x_81_ * x_9_ + 1 x_81_ ^ 2 + 1 y_9_ ^ 2 - 2 y_81_ * y_9_ + 1 y_81_ ^ 2 ] = 4496
c383: [ 1 x_12_ ^ 2 - 2 x_81_ * x_12_ + 1 x_81_ ^ 2 + 1 y_12_ ^ 2 - 2 y_81_ * y_12_ + 1 y_81_ ^ 2 ] = 3485
c384: [ 1 x_24_ ^ 2 - 2 x_81_ * x_24_ + 1 x_81_ ^ 2 + 1 y_24_ ^ 2 - 2 y_81_ * y_24_ + 1 y_81_ ^ 2 ] = 31265
c385: [ 1 x_54_ ^ 2 - 2 x_81_ * x_54_ + 1 x_81_ ^ 2 + 1 y_54_ ^ 2 - 2 y_81_ * y_54_ + 1 y_81_ ^ 2 ] = 8020
c386: [ 1 x_61_ ^ 2 - 2 x_81_ * x_61_ + 1 x_81_ ^ 2 + 1 y_61_ ^ 2 - 2 y_81_ * y_61_ + 1 y_81_ ^ 2 ] = 12697
c387: [ 1 x_64_ ^ 2 - 2 x_81_ * x_64_ + 1 x_81_ ^ 2 + 1 y_64_ ^ 2 - 2 y_81_ * y_64_ + 1 y_81_ ^ 2 ] = 14365
c388: [ 1 x_80_ ^ 2 - 2 x_81_ * x_80_ + 1 x_81_ ^ 2 + 1 y_80_ ^ 2 - 2 y_81_ * y_80_ + 1 y_81_ ^ 2 ] = 19441
c389: [ 1 x_1_ ^ 2 - 2 x_82_ * x_1_ + 1 x_82_ ^ 2 + 1 y_1_ ^ 2 - 2 y_82_ * y_1_ + 1 y_82_ ^ 2 ] = 26329
c390: [ 1 x_11_ ^ 2 - 2 x_82_ * x_11_ + 1 x_82_ ^ 2 + 1 y_11_ ^ 2 - 2 y_82_ * y_11_ + 1 y_82_ ^ 2 ] = 12116
c391: [ 1 x_13_ ^ 2 - 2 x_82_ * x_13_ + 1 x_82_ ^ 2 + 1 y_13_ ^ 2 - 2 y_82_ * y_13_ + 1 y_82_ ^ 2 ] = 26669
c392: [ 1 x_14_ ^ 2 - 2 x_82_ * x_14_ + 1 x_82_ ^ 2 + 1 y_14_ ^ 2 - 2 y_82_ * y_14_ + 1 y_82_ ^ 2 ] = 3770
c393: [ 1 x_19_ ^ 2 - 2 x_82_ * x_19_ + 1 x_82_ ^ 2 + 1 y_19_ ^ 2 - 2 y_82_ * y_19_ + 1 y_82_ ^ 2 ] = 15112
c394: [ 1 x_24_ ^ 2 - 2 x_82_ * x_24_ + 1 x_82_ ^ 2 + 1 y_24_ ^ 2 - 2 y_82_ * y_24_ + 1 y_82_ ^ 2 ] = 4457
c395: [ 1 x_25_ ^ 2 - 2 x_82_ * x_25_ + 1 x_82_ ^ 2 + 1 y_25_ ^ 2 - 2 y_82_ * y_25_ + 1 y_82_ ^ 2 ] = 7250
c396: [ 1 x_46_ ^ 2 - 2 x_82_ * x_46_ + 1 x_82_ ^ 2 + 1 y_46_ ^ 2 - 2 y_82_ * y_46_ + 1 y_82_ ^ 2 ] = 15696
c397: [ 1 x_59_ ^ 2 - 2 x_82_ * x_59_ + 1 x_82_ ^ 2 + 1 y_59_ ^ 2 - 2 y_82_ * y_59_ + 1 y_82_ ^ 2 ] = 40976
c398: [ 1 x_69_ ^ 2 - 2 x_82_ * x_69_ + 1 x_82_ ^ 2 + 1 y_69_ ^ 2 - 2 y_82_ * y_69_ + 1 y_82_ ^ 2 ] = 17777
c399: [ 1 x_78_ ^ 2 - 2 x_82_ * x_78_ + 1 x_82_ ^ 2 + 1 y_78_ ^ 2 - 2 y_82_ * y_78_ + 1 y_82_ ^ 2 ] = 2353
c400: [ 1 x_81_ ^ 2 - 2 x_82_ * x_81_ + 1 x_82_ ^ 2 + 1 y_81_ ^ 2 - 2 y_82_ * y_81_ + 1 y_82_ ^ 2 ] = 12898
c401: [ 1 x_25_ ^ 2 - 2 x_83_ * x_25_ + 1 x_83_ ^ 2 + 1 y_25_ ^ 2 - 2 y_83_ * y_25_ + 1 y_83_ ^ 2 ] = 33092
c402: [ 1 x_33_ ^ 2 - 2 x_83_ * x_33_ + 1 x_83_ ^ 2 + 1 y_33_ ^ 2 - 2 y_83_ * y_33_ + 1 y_83_ ^ 2 ] = 4900
c403: [ 1 x_35_ ^ 2 - 2 x_83_ * x_35_ + 1 x_83_ ^ 2 + 1 y_35_ ^ 2 - 2 y_83_ * y_35_ + 1 y_83_ ^ 2 ] = 22450
c404: [ 1 x_71_ ^ 2 - 2 x_83_ * x_71_ + 1 x_83_ ^ 2 + 1 y_71_ ^ 2 - 2 y_83_ * y_71_ + 1 y_83_ ^ 2 ] = 34208
c405: [ 1 x_72_ ^ 2 - 2 x_83_ * x_72_ + 1 x_83_ ^ 2 + 1 y_72_ ^ 2 - 2 y_83_ * y_72_ + 1 y_83_ ^ 2 ] = 40725
c406: [ 1 x_82_ ^ 2 - 2 x_83_ * x_82_ + 1 x_83_ ^ 2 + 1 y_82_ ^ 2 - 2 y_83_ * y_82_ + 1 y_83_ ^ 2 ] = 41290
c407: [ 1 x_13_ ^ 2 - 2 x_84_ * x_13_ + 1 x_84_ ^ 2 + 1 y_13_ ^ 2 - 2 y_84_ * y_13_ + 1 y_84_ ^ 2 ] = 25321
c408: [ 1 x_27_ ^ 2 - 2 x_84_ * x_27_ + 1 x_84_ ^ 2 + 1 y_27_ ^ 2 - 2 y_84_ * y_27_ + 1 y_84_ ^ 2 ] = 11458
c409: [ 1 x_33_ ^ 2 - 2 x_84_ * x_33_ + 1 x_84_ ^ 2 + 1 y_33_ ^ 2 - 2 y_84_ * y_33_ + 1 y_84_ ^ 2 ] = 25610
c410: [ 1 x_37_ ^ 2 - 2 x_84_ * x_37_ + 1 x_84_ ^ 2 + 1 y_37_ ^ 2 - 2 y_84_ * y_37_ + 1 y_84_ ^ 2 ] = 11821
c411: [ 1 x_52_ ^ 2 - 2 x_84_ * x_52_ + 1 x_84_ ^ 2 + 1 y_52_ ^ 2 - 2 y_84_ * y_52_ + 1 y_84_ ^ 2 ] = 22181
c412: [ 1 x_65_ ^ 2 - 2 x_84_ * x_65_ + 1 x_84_ ^ 2 + 1 y_65_ ^ 2 - 2 y_84_ * y_65_ + 1 y_84_ ^ 2 ] = 33809
c413: [ 1 x_83_ ^ 2 - 2 x_84_ * x_83_ + 1 x_84_ ^ 2 + 1 y_83_ ^ 2 - 2 y_84_ * y_83_ + 1 y_84_ ^ 2 ] = 52826
c414: [ 1 x_11_ ^ 2 - 2 x_85_ * x_11_ + 1 x_85_ ^ 2 + 1 y_11_ ^ 2 - 2 y_85_ * y_11_ + 1 y_85_ ^ 2 ] = 12461
c415: [ 1 x_14_ ^ 2 - 2 x_85_ * x_14_ + 1 x_85_ ^ 2 + 1 y_14_ ^ 2 - 2 y_85_ * y_14_ + 1 y_85_ ^ 2 ] = 905
c416: [ 1 x_15_ ^ 2 - 2 x_85_ * x_15_ + 1 x_85_ ^ 2 + 1 y_15_ ^ 2 - 2 y_85_ * y_15_ + 1 y_85_ ^ 2 ] = 8125
c417: [ 1 x_20_ ^ 2 - 2 x_85_ * x_20_ + 1 x_85_ ^ 2 + 1 y_20_ ^ 2 - 2 y_85_ * y_20_ + 1 y_85_ ^ 2 ] = 9605
c418: [ 1 x_21_ ^ 2 - 2 x_85_ * x_21_ + 1 x_85_ ^ 2 + 1 y_21_ ^ 2 - 2 y_85_ * y_21_ + 1 y_85_ ^ 2 ] = 9104
c419: [ 1 x_33_ ^ 2 - 2 x_85_ * x_33_ + 1 x_85_ ^ 2 + 1 y_33_ ^ 2 - 2 y_85_ * y_33_ + 1 y_85_ ^ 2 ] = 20189
c420: [ 1 x_35_ ^ 2 - 2 x_85_ * x_35_ + 1 x_85_ ^ 2 + 1 y_35_ ^ 2 - 2 y_85_ * y_35_ + 1 y_85_ ^ 2 ] = 3645
c421: [ 1 x_36_ ^ 2 - 2 x_85_ * x_36_ + 1 x_85_ ^ 2 + 1 y_36_ ^ 2 - 2 y_85_ * y_36_ + 1 y_85_ ^ 2 ] = 11709
c422: [ 1 x_52_ ^ 2 - 2 x_85_ * x_52_ + 1 x_85_ ^ 2 + 1 y_52_ ^ 2 - 2 y_85_ * y_52_ + 1 y_85_ ^ 2 ] = 12170
c423: [ 1 x_64_ ^ 2 - 2 x_85_ * x_64_ + 1 x_85_ ^ 2 + 1 y_64_ ^ 2 - 2 y_85_ * y_64_ + 1 y_85_ ^ 2 ] = 1010
c424: [ 1 x_65_ ^ 2 - 2 x_85_ * x_65_ + 1 x_85_ ^ 2 + 1 y_65_ ^ 2 - 2 y_85_ * y_65_ + 1 y_85_ ^ 2 ] = 34660
c425: [ 1 x_82_ ^ 2 - 2 x_85_ * x_82_ + 1 x_85_ ^ 2 + 1 y_82_ ^ 2 - 2 y_85_ * y_82_ + 1 y_85_ ^ 2 ] = 7825
c426: [ 1 x_84_ ^ 2 - 2 x_85_ * x_84_ + 1 x_85_ ^ 2 + 1 y_84_ ^ 2 - 2 y_85_ * y_84_ + 1 y_85_ ^ 2 ] = 3445
c427: [ 1 x_14_ ^ 2 - 2 x_86_ * x_14_ + 1 x_86_ ^ 2 + 1 y_14_ ^ 2 - 2 y_86_ * y_14_ + 1 y_86_ ^ 2 ] = 3501
c428: [ 1 x_15_ ^ 2 - 2 x_86_ * x_15_ + 1 x_86_ ^ 2 + 1 y_15_ ^ 2 - 2 y_86_ * y_15_ + 1 y_86_ ^ 2 ] = 5513
c429: [ 1 x_50_ ^ 2 - 2 x_86_ * x_50_ + 1 x_86_ ^ 2 + 1 y_50_ ^ 2 - 2 y_86_ * y_50_ + 1 y_86_ ^ 2 ] = 4325
c430: [ 1 x_55_ ^ 2 - 2 x_86_ * x_55_ + 1 x_86_ ^ 2 + 1 y_55_ ^ 2 - 2 y_86_ * y_55_ + 1 y_86_ ^ 2 ] = 845
c431: [ 1 x_71_ ^ 2 - 2 x_86_ * x_71_ + 1 x_86_ ^ 2 + 1 y_71_ ^ 2 - 2 y_86_ * y_71_ + 1 y_86_ ^ 2 ] = 8749
c432: [ 1 x_73_ ^ 2 - 2 x_86_ * x_73_ + 1 x_86_ ^ 2 + 1 y_73_ ^ 2 - 2 y_86_ * y_73_ + 1 y_86_ ^ 2 ] = 2320
c433: [ 1 x_80_ ^ 2 - 2 x_86_ * x_80_ + 1 x_86_ ^ 2 + 1 y_80_ ^ 2 - 2 y_86_ * y_80_ + 1 y_86_ ^ 2 ] = 19994
c434: [ 1 x_85_ ^ 2 - 2 x_86_ * x_85_ + 1 x_86_ ^ 2 + 1 y_85_ ^ 2 - 2 y_86_ * y_85_ + 1 y_86_ ^ 2 ] = 7208
c435: [ 1 x_30_ ^ 2 - 2 x_87_ * x_30_ + 1 x_87_ ^ 2 + 1 y_30_ ^ 2 - 2 y_87_ * y_30_ + 1 y_87_ ^ 2 ] = 20852
c436: [ 1 x_42_ ^ 2 - 2 x_87_ * x_42_ + 1 x_87_ ^ 2 + 1 y_42_ ^ 2 - 2 y_87_ * y_42_ + 1 y_87_ ^ 2 ] = 3321
c437: [ 1 x_56_ ^ 2 - 2 x_87_ * x_56_ + 1 x_87_ ^ 2 + 1 y_56_ ^ 2 - 2 y_87_ * y_56_ + 1 y_87_ ^ 2 ] = 11405
c438: [ 1 x_59_ ^ 2 - 2 x_87_ * x_59_ + 1 x_87_ ^ 2 + 1 y_59_ ^ 2 - 2 y_87_ * y_59_ + 1 y_87_ ^ 2 ] = 34897
c439: [ 1 x_65_ ^ 2 - 2 x_87_ * x_65_ + 1 x_87_ ^ 2 + 1 y_65_ ^ 2 - 2 y_87_ * y_65_ + 1 y_87_ ^ 2 ] = 22340
c440: [ 1 x_67_ ^ 2 - 2 x_87_ * x_67_ + 1 x_87_ ^ 2 + 1 y_67_ ^ 2 - 2 y_87_ * y_67_ + 1 y_87_ ^ 2 ] = 16285
c441: [ 1 x_69_ ^ 2 - 2 x_87_ * x_69_ + 1 x_87_ ^ 2 + 1 y_69_ ^ 2 - 2 y_87_ * y_69_ + 1 y_87_ ^ 2 ] = 20800
c442: [ 1 x_75_ ^ 2 - 2 x_87_ * x_75_ + 1 x_87_ ^ 2 + 1 y_75_ ^ 2 - 2 y_87_ * y_75_ + 1 y_87_ ^ 2 ] = 7325
c443: [ 1 x_86_ ^ 2 - 2 x_87_ * x_86_ + 1 x_87_ ^ 2 + 1 y_86_ ^ 2 - 2 y_87_ * y_86_ + 1 y_87_ ^ 2 ] = 1640
c444: [ 1 x_3_ ^ 2 - 2 x_88_ * x_3_ + 1 x_88_ ^ 2 + 1 y_3_ ^ 2 - 2 y_88_ * y_3_ + 1 y_88_ ^ 2 ] = 20228
c445: [ 1 x_5_ ^ 2 - 2 x_88_ * x_5_ + 1 x_88_ ^ 2 + 1 y_5_ ^ 2 - 2 y_88_ * y_5_ + 1 y_88_ ^ 2 ] = 17210
c446: [ 1 x_11_ ^ 2 - 2 x_88_ * x_11_ + 1 x_88_ ^ 2 + 1 y_11_ ^ 2 - 2 y_88_ * y_11_ + 1 y_88_ ^ 2 ] = 976
c447: [ 1 x_35_ ^ 2 - 2 x_88_ * x_35_ + 1 x_88_ ^ 2 + 1 y_35_ ^ 2 - 2 y_88_ * y_35_ + 1 y_88_ ^ 2 ] = 6208
c448: [ 1 x_39_ ^ 2 - 2 x_88_ * x_39_ + 1 x_88_ ^ 2 + 1 y_39_ ^ 2 - 2 y_88_ * y_39_ + 1 y_88_ ^ 2 ] = 6905
c449: [ 1 x_52_ ^ 2 - 2 x_88_ * x_52_ + 1 x_88_ ^ 2 + 1 y_52_ ^ 2 - 2 y_88_ * y_52_ + 1 y_88_ ^ 2 ] = 2533
c450: [ 1 x_53_ ^ 2 - 2 x_88_ * x_53_ + 1 x_88_ ^ 2 + 1 y_53_ ^ 2 - 2 y_88_ * y_53_ + 1 y_88_ ^ 2 ] = 21289
c451: [ 1 x_61_ ^ 2 - 2 x_88_ * x_61_ + 1 x_88_ ^ 2 + 1 y_61_ ^ 2 - 2 y_88_ * y_61_ + 1 y_88_ ^ 2 ] = 5689
c452: [ 1 x_70_ ^ 2 - 2 x_88_ * x_70_ + 1 x_88_ ^ 2 + 1 y_70_ ^ 2 - 2 y_88_ * y_70_ + 1 y_88_ ^ 2 ] = 7456
c453: [ 1 x_81_ ^ 2 - 2 x_88_ * x_81_ + 1 x_88_ ^ 2 + 1 y_81_ ^ 2 - 2 y_88_ * y_81_ + 1 y_88_ ^ 2 ] = 3042
c454: [ 1 x_87_ ^ 2 - 2 x_88_ * x_87_ + 1 x_88_ ^ 2 + 1 y_87_ ^ 2 - 2 y_88_ * y_87_ + 1 y_88_ ^ 2 ] = 14285
c455: [ 1 x_7_ ^ 2 - 2 x_89_ * x_7_ + 1 x_89_ ^ 2 + 1 y_7_ ^ 2 - 2 y_89_ * y_7_ + 1 y_89_ ^ 2 ] = 15170
c456: [ 1 x_11_ ^ 2 - 2 x_89_ * x_11_ + 1 x_89_ ^ 2 + 1 y_11_ ^ 2 - 2 y_89_ * y_11_ + 1 y_89_ ^ 2 ] = 2405
c457: [ 1 x_12_ ^ 2 - 2 x_89_ * x_12_ + 1 x_89_ ^ 2 + 1 y_12_ ^ 2 - 2 y_89_ * y_12_ + 1 y_89_ ^ 2 ] = 1930
c458: [ 1 x_13_ ^ 2 - 2 x_89_ * x_13_ + 1 x_89_ ^ 2 + 1 y_13_ ^ 2 - 2 y_89_ * y_13_ + 1 y_89_ ^ 2 ] = 13864
c459: [ 1 x_34_ ^ 2 - 2 x_89_ * x_34_ + 1 x_89_ ^ 2 + 1 y_34_ ^ 2 - 2 y_89_ * y_34_ + 1 y_89_ ^ 2 ] = 5837
c460: [ 1 x_42_ ^ 2 - 2 x_89_ * x_42_ + 1 x_89_ ^ 2 + 1 y_42_ ^ 2 - 2 y_89_ * y_42_ + 1 y_89_ ^ 2 ] = 9985
c461: [ 1 x_47_ ^ 2 - 2 x_89_ * x_47_ + 1 x_89_ ^ 2 + 1 y_47_ ^ 2 - 2 y_89_ * y_47_ + 1 y_89_ ^ 2 ] = 6893
c462: [ 1 x_50_ ^ 2 - 2 x_89_ * x_50_ + 1 x_89_ ^ 2 + 1 y_50_ ^ 2 - 2 y_89_ * y_50_ + 1 y_89_ ^ 2 ] = 3865
c463: [ 1 x_55_ ^ 2 - 2 x_89_ * x_55_ + 1 x_89_ ^ 2 + 1 y_55_ ^ 2 - 2 y_89_ * y_55_ + 1 y_89_ ^ 2 ] = 6649
c464: [ 1 x_60_ ^ 2 - 2 x_89_ * x_60_ + 1 x_89_ ^ 2 + 1 y_60_ ^ 2 - 2 y_89_ * y_60_ + 1 y_89_ ^ 2 ] = 5513
c465: [ 1 x_61_ ^ 2 - 2 x_89_ * x_61_ + 1 x_89_ ^ 2 + 1 y_61_ ^ 2 - 2 y_89_ * y_61_ + 1 y_89_ ^ 2 ] = 7922
c466: [ 1 x_66_ ^ 2 - 2 x_89_ * x_66_ + 1 x_89_ ^ 2 + 1 y_66_ ^ 2 - 2 y_89_ * y_66_ + 1 y_89_ ^ 2 ] = 5440
c467: [ 1 x_67_ ^ 2 - 2 x_89_ * x_67_ + 1 x_89_ ^ 2 + 1 y_67_ ^ 2 - 2 y_89_ * y_67_ + 1 y_89_ ^ 2 ] = 5525
c468: [ 1 x_80_ ^ 2 - 2 x_89_ * x_80_ + 1 x_89_ ^ 2 + 1 y_80_ ^ 2 - 2 y_89_ * y_80_ + 1 y_89_ ^ 2 ] = 12506
c469: [ 1 x_88_ ^ 2 - 2 x_89_ * x_88_ + 1 x_89_ ^ 2 + 1 y_88_ ^ 2 - 2 y_89_ * y_88_ + 1 y_89_ ^ 2 ] = 6197
c470: [ 1 x_14_ ^ 2 - 2 x_90_ * x_14_ + 1 x_90_ ^ 2 + 1 y_14_ ^ 2 - 2 y_90_ * y_14_ + 1 y_90_ ^ 2 ] = 884
c471: [ 1 x_18_ ^ 2 - 2 x_90_ * x_18_ + 1 x_90_ ^ 2 + 1 y_18_ ^ 2 - 2 y_90_ * y_18_ + 1 y_90_ ^ 2 ] = 5629
c472: [ 1 x_23_ ^ 2 - 2 x_90_ * x_23_ + 1 x_90_ ^ 2 + 1 y_23_ ^ 2 - 2 y_90_ * y_23_ + 1 y_90_ ^ 2 ] = 8185
c473: [ 1 x_26_ ^ 2 - 2 x_90_ * x_26_ + 1 x_90_ ^ 2 + 1 y_26_ ^ 2 - 2 y_90_ * y_26_ + 1 y_90_ ^ 2 ] = 11972
c474: [ 1 x_41_ ^ 2 - 2 x_90_ * x_41_ + 1 x_90_ ^ 2 + 1 y_41_ ^ 2 - 2 y_90_ * y_41_ + 1 y_90_ ^ 2 ] = 33525
c475: [ 1 x_43_ ^ 2 - 2 x_90_ * x_43_ + 1 x_90_ ^ 2 + 1 y_43_ ^ 2 - 2 y_90_ * y_43_ + 1 y_90_ ^ 2 ] = 5989
c476: [ 1 x_66_ ^ 2 - 2 x_90_ * x_66_ + 1 x_90_ ^ 2 + 1 y_66_ ^ 2 - 2 y_90_ * y_66_ + 1 y_90_ ^ 2 ] = 7453
c477: [ 1 x_68_ ^ 2 - 2 x_90_ * x_68_ + 1 x_90_ ^ 2 + 1 y_68_ ^ 2 - 2 y_90_ * y_68_ + 1 y_90_ ^ 2 ] = 13261
c478: [ 1 x_72_ ^ 2 - 2 x_90_ * x_72_ + 1 x_90_ ^ 2 + 1 y_72_ ^ 2 - 2 y_90_ * y_72_ + 1 y_90_ ^ 2 ] = 1825
c479: [ 1 x_77_ ^ 2 - 2 x_90_ * x_77_ + 1 x_90_ ^ 2 + 1 y_77_ ^ 2 - 2 y_90_ * y_77_ + 1 y_90_ ^ 2 ] = 8857
c480: [ 1 x_79_ ^ 2 - 2 x_90_ * x_79_ + 1 x_90_ ^ 2 + 1 y_79_ ^ 2 - 2 y_90_ * y_79_ + 1 y_90_ ^ 2 ] = 2925
c481: [ 1 x_89_ ^ 2 - 2 x_90_ * x_89_ + 1 x_90_ ^ 2 + 1 y_89_ ^ 2 - 2 y_90_ * y_89_ + 1 y_90_ ^ 2 ] = 2845
c482: [ 1 x_5_ ^ 2 - 2 x_91_ * x_5_ + 1 x_91_ ^ 2 + 1 y_5_ ^ 2 - 2 y_91_ * y_5_ + 1 y_91_ ^ 2 ] = 2690
c483: [ 1 x_12_ ^ 2 - 2 x_91_ * x_12_ + 1 x_91_ ^ 2 + 1 y_12_ ^ 2 - 2 y_91_ * y_12_ + 1 y_91_ ^ 2 ] = 3825
c484: [ 1 x_13_ ^ 2 - 2 x_91_ * x_13_ + 1 x_91_ ^ 2 + 1 y_13_ ^ 2 - 2 y_91_ * y_13_ + 1 y_91_ ^ 2 ] = 37505
c485: [ 1 x_23_ ^ 2 - 2 x_91_ * x_23_ + 1 x_91_ ^ 2 + 1 y_23_ ^ 2 - 2 y_91_ * y_23_ + 1 y_91_ ^ 2 ] = 27053
c486: [ 1 x_29_ ^ 2 - 2 x_91_ * x_29_ + 1 x_91_ ^ 2 + 1 y_29_ ^ 2 - 2 y_91_ * y_29_ + 1 y_91_ ^ 2 ] = 6260
c487: [ 1 x_30_ ^ 2 - 2 x_91_ * x_30_ + 1 x_91_ ^ 2 + 1 y_30_ ^ 2 - 2 y_91_ * y_30_ + 1 y_91_ ^ 2 ] = 38273
c488: [ 1 x_46_ ^ 2 - 2 x_91_ * x_46_ + 1 x_91_ ^ 2 + 1 y_46_ ^ 2 - 2 y_91_ * y_46_ + 1 y_91_ ^ 2 ] = 13700
c489: [ 1 x_51_ ^ 2 - 2 x_91_ * x_51_ + 1 x_91_ ^ 2 + 1 y_51_ ^ 2 - 2 y_91_ * y_51_ + 1 y_91_ ^ 2 ] = 14480
c490: [ 1 x_66_ ^ 2 - 2 x_91_ * x_66_ + 1 x_91_ ^ 2 + 1 y_66_ ^ 2 - 2 y_91_ * y_66_ + 1 y_91_ ^ 2 ] = 23445
c491: [ 1 x_68_ ^ 2 - 2 x_91_ * x_68_ + 1 x_91_ ^ 2 + 1 y_68_ ^ 2 - 2 y_91_ * y_68_ + 1 y_91_ ^ 2 ] = 18369
c492: [ 1 x_82_ ^ 2 - 2 x_91_ * x_82_ + 1 x_91_ ^ 2 + 1 y_82_ ^ 2 - 2 y_91_ * y_82_ + 1 y_91_ ^ 2 ] = 1268
c493: [ 1 x_85_ ^ 2 - 2 x_91_ * x_85_ + 1 x_91_ ^ 2 + 1 y_85_ ^ 2 - 2 y_91_ * y_85_ + 1 y_91_ ^ 2 ] = 15373
c494: [ 1 x_90_ ^ 2 - 2 x_91_ * x_90_ + 1 x_91_ ^ 2 + 1 y_90_ ^ 2 - 2 y_91_ * y_90_ + 1 y_91_ ^ 2 ] = 7474
c495: [ 1 x_15_ ^ 2 - 2 x_92_ * x_15_ + 1 x_92_ ^ 2 + 1 y_15_ ^ 2 - 2 y_92_ * y_15_ + 1 y_92_ ^ 2 ] = 31300
c496: [ 1 x_17_ ^ 2 - 2 x_92_ * x_17_ + 1 x_92_ ^ 2 + 1 y_17_ ^ 2 - 2 y_92_ * y_17_ + 1 y_92_ ^ 2 ] = 35204
c497: [ 1 x_24_ ^ 2 - 2 x_92_ * x_24_ + 1 x_92_ ^ 2 + 1 y_24_ ^ 2 - 2 y_92_ * y_24_ + 1 y_92_ ^ 2 ] = 29185
c498: [ 1 x_36_ ^ 2 - 2 x_92_ * x_36_ + 1 x_92_ ^ 2 + 1 y_36_ ^ 2 - 2 y_92_ * y_36_ + 1 y_92_ ^ 2 ] = 2340
c499: [ 1 x_39_ ^ 2 - 2 x_92_ * x_39_ + 1 x_92_ ^ 2 + 1 y_39_ ^ 2 - 2 y_92_ * y_39_ + 1 y_92_ ^ 2 ] = 1097
c500: [ 1 x_47_ ^ 2 - 2 x_92_ * x_47_ + 1 x_92_ ^ 2 + 1 y_47_ ^ 2 - 2 y_92_ * y_47_ + 1 y_92_ ^ 2 ] = 36530
c501: [ 1 x_85_ ^ 2 - 2 x_92_ * x_85_ + 1 x_92_ ^ 2 + 1 y_85_ ^ 2 - 2 y_92_ * y_85_ + 1 y_92_ ^ 2 ] = 7785
c502: [ 1 x_91_ ^ 2 - 2 x_92_ * x_91_ + 1 x_92_ ^ 2 + 1 y_91_ ^ 2 - 2 y_92_ * y_91_ + 1 y_92_ ^ 2 ] = 34354
c503: [ 1 x_9_ ^ 2 - 2 x_93_ * x_9_ + 1 x_93_ ^ 2 + 1 y_9_ ^ 2 - 2 y_93_ * y_9_ + 1 y_93_ ^ 2 ] = 10004
c504: [ 1 x_16_ ^ 2 - 2 x_93_ * x_16_ + 1 x_93_ ^ 2 + 1 y_16_ ^ 2 - 2 y_93_ * y_16_ + 1 y_93_ ^ 2 ] = 9605
c505: [ 1 x_27_ ^ 2 - 2 x_93_ * x_27_ + 1 x_93_ ^ 2 + 1 y_27_ ^ 2 - 2 y_93_ * y_27_ + 1 y_93_ ^ 2 ] = 16516
c506: [ 1 x_51_ ^ 2 - 2 x_93_ * x_51_ + 1 x_93_ ^ 2 + 1 y_51_ ^ 2 - 2 y_93_ * y_51_ + 1 y_93_ ^ 2 ] = 8818
c507: [ 1 x_59_ ^ 2 - 2 x_93_ * x_59_ + 1 x_93_ ^ 2 + 1 y_59_ ^ 2 - 2 y_93_ * y_59_ + 1 y_93_ ^ 2 ] = 41866
c508: [ 1 x_62_ ^ 2 - 2 x_93_ * x_62_ + 1 x_93_ ^ 2 + 1 y_62_ ^ 2 - 2 y_93_ * y_62_ + 1 y_93_ ^ 2 ] = 3754
c509: [ 1 x_67_ ^ 2 - 2 x_93_ * x_67_ + 1 x_93_ ^ 2 + 1 y_67_ ^ 2 - 2 y_93_ * y_67_ + 1 y_93_ ^ 2 ] = 16400
c510: [ 1 x_71_ ^ 2 - 2 x_93_ * x_71_ + 1 x_93_ ^ 2 + 1 y_71_ ^ 2 - 2 y_93_ * y_71_ + 1 y_93_ ^ 2 ] = 10952
c511: [ 1 x_92_ ^ 2 - 2 x_93_ * x_92_ + 1 x_93_ ^ 2 + 1 y_92_ ^ 2 - 2 y_93_ * y_92_ + 1 y_93_ ^ 2 ] = 25012
c512: [ 1 x_6_ ^ 2 - 2 x_94_ * x_6_ + 1 x_94_ ^ 2 + 1 y_6_ ^ 2 - 2 y_94_ * y_6_ + 1 y_94_ ^ 2 ] = 23189
c513: [ 1 x_10_ ^ 2 - 2 x_94_ * x_10_ + 1 x_94_ ^ 2 + 1 y_10_ ^ 2 - 2 y_94_ * y_10_ + 1 y_94_ ^ 2 ] = 7226
c514: [ 1 x_11_ ^ 2 - 2 x_94_ * x_11_ + 1 x_94_ ^ 2 + 1 y_11_ ^ 2 - 2 y_94_ * y_11_ + 1 y_94_ ^ 2 ] = 13138
c515: [ 1 x_38_ ^ 2 - 2 x_94_ * x_38_ + 1 x_94_ ^ 2 + 1 y_38_ ^ 2 - 2 y_94_ * y_38_ + 1 y_94_ ^ 2 ] = 49946
c516: [ 1 x_42_ ^ 2 - 2 x_94_ * x_42_ + 1 x_94_ ^ 2 + 1 y_42_ ^ 2 - 2 y_94_ * y_42_ + 1 y_94_ ^ 2 ] = 36584
c517: [ 1 x_58_ ^ 2 - 2 x_94_ * x_58_ + 1 x_94_ ^ 2 + 1 y_58_ ^ 2 - 2 y_94_ * y_58_ + 1 y_94_ ^ 2 ] = 34250
c518: [ 1 x_60_ ^ 2 - 2 x_94_ * x_60_ + 1 x_94_ ^ 2 + 1 y_60_ ^ 2 - 2 y_94_ * y_60_ + 1 y_94_ ^ 2 ] = 27988
c519: [ 1 x_66_ ^ 2 - 2 x_94_ * x_66_ + 1 x_94_ ^ 2 + 1 y_66_ ^ 2 - 2 y_94_ * y_66_ + 1 y_94_ ^ 2 ] = 23333
c520: [ 1 x_93_ ^ 2 - 2 x_94_ * x_93_ + 1 x_94_ ^ 2 + 1 y_93_ ^ 2 - 2 y_94_ * y_93_ + 1 y_94_ ^ 2 ] = 12244
c521: [ 1 x_15_ ^ 2 - 2 x_95_ * x_15_ + 1 x_95_ ^ 2 + 1 y_15_ ^ 2 - 2 y_95_ * y_15_ + 1 y_95_ ^ 2 ] = 31376
c522: [ 1 x_20_ ^ 2 - 2 x_95_ * x_20_ + 1 x_95_ ^ 2 + 1 y_20_ ^ 2 - 2 y_95_ * y_20_ + 1 y_95_ ^ 2 ] = 754
c523: [ 1 x_28_ ^ 2 - 2 x_95_ * x_28_ + 1 x_95_ ^ 2 + 1 y_28_ ^ 2 - 2 y_95_ * y_28_ + 1 y_95_ ^ 2 ] = 8692
c524: [ 1 x_31_ ^ 2 - 2 x_95_ * x_31_ + 1 x_95_ ^ 2 + 1 y_31_ ^ 2 - 2 y_95_ * y_31_ + 1 y_95_ ^ 2 ] = 1037
c525: [ 1 x_32_ ^ 2 - 2 x_95_ * x_32_ + 1 x_95_ ^ 2 + 1 y_32_ ^ 2 - 2 y_95_ * y_32_ + 1 y_95_ ^ 2 ] = 6506
c526: [ 1 x_36_ ^ 2 - 2 x_95_ * x_36_ + 1 x_95_ ^ 2 + 1 y_36_ ^ 2 - 2 y_95_ * y_36_ + 1 y_95_ ^ 2 ] = 80
c527: [ 1 x_55_ ^ 2 - 2 x_95_ * x_55_ + 1 x_95_ ^ 2 + 1 y_55_ ^ 2 - 2 y_95_ * y_55_ + 1 y_95_ ^ 2 ] = 24770
c528: [ 1 x_62_ ^ 2 - 2 x_95_ * x_62_ + 1 x_95_ ^ 2 + 1 y_62_ ^ 2 - 2 y_95_ * y_62_ + 1 y_95_ ^ 2 ] = 14978
c529: [ 1 x_73_ ^ 2 - 2 x_95_ * x_73_ + 1 x_95_ ^ 2 + 1 y_73_ ^ 2 - 2 y_95_ * y_73_ + 1 y_95_ ^ 2 ] = 18945
c530: [ 1 x_74_ ^ 2 - 2 x_95_ * x_74_ + 1 x_95_ ^ 2 + 1 y_74_ ^ 2 - 2 y_95_ * y_74_ + 1 y_95_ ^ 2 ] = 30673
c531: [ 1 x_78_ ^ 2 - 2 x_95_ * x_78_ + 1 x_95_ ^ 2 + 1 y_78_ ^ 2 - 2 y_95_ * y_78_ + 1 y_95_ ^ 2 ] = 8273
c532: [ 1 x_81_ ^ 2 - 2 x_95_ * x_81_ + 1 x_95_ ^ 2 + 1 y_81_ ^ 2 - 2 y_95_ * y_81_ + 1 y_95_ ^ 2 ] = 9620
c533: [ 1 x_94_ ^ 2 - 2 x_95_ * x_94_ + 1 x_95_ ^ 2 + 1 y_94_ ^ 2 - 2 y_95_ * y_94_ + 1 y_95_ ^ 2 ] = 26788
c534: [ 1 x_9_ ^ 2 - 2 x_96_ * x_9_ + 1 x_96_ ^ 2 + 1 y_9_ ^ 2 - 2 y_96_ * y_9_ + 1 y_96_ ^ 2 ] = 3229
c535: [ 1 x_10_ ^ 2 - 2 x_96_ * x_10_ + 1 x_96_ ^ 2 + 1 y_10_ ^ 2 - 2 y_96_ * y_10_ + 1 y_96_ ^ 2 ] = 15021
c536: [ 1 x_27_ ^ 2 - 2 x_96_ * x_27_ + 1 x_96_ ^ 2 + 1 y_27_ ^ 2 - 2 y_96_ * y_27_ + 1 y_96_ ^ 2 ] = 13481
c537: [ 1 x_38_ ^ 2 - 2 x_96_ * x_38_ + 1 x_96_ ^ 2 + 1 y_38_ ^ 2 - 2 y_96_ * y_38_ + 1 y_96_ ^ 2 ] = 18901
c538: [ 1 x_47_ ^ 2 - 2 x_96_ * x_47_ + 1 x_96_ ^ 2 + 1 y_47_ ^ 2 - 2 y_96_ * y_47_ + 1 y_96_ ^ 2 ] = 24021
c539: [ 1 x_51_ ^ 2 - 2 x_96_ * x_51_ + 1 x_96_ ^ 2 + 1 y_51_ ^ 2 - 2 y_96_ * y_51_ + 1 y_96_ ^ 2 ] = 7913
c540: [ 1 x_54_ ^ 2 - 2 x_96_ * x_54_ + 1 x_96_ ^ 2 + 1 y_54_ ^ 2 - 2 y_96_ * y_54_ + 1 y_96_ ^ 2 ] = 1861
c541: [ 1 x_56_ ^ 2 - 2 x_96_ * x_56_ + 1 x_96_ ^ 2 + 1 y_56_ ^ 2 - 2 y_96_ * y_56_ + 1 y_96_ ^ 2 ] = 4525
c542: [ 1 x_82_ ^ 2 - 2 x_96_ * x_82_ + 1 x_96_ ^ 2 + 1 y_82_ ^ 2 - 2 y_96_ * y_82_ + 1 y_96_ ^ 2 ] = 19729
c543: [ 1 x_94_ ^ 2 - 2 x_96_ * x_94_ + 1 x_96_ ^ 2 + 1 y_94_ ^ 2 - 2 y_96_ * y_94_ + 1 y_96_ ^ 2 ] = 14369
c544: [ 1 x_95_ ^ 2 - 2 x_96_ * x_95_ + 1 x_96_ ^ 2 + 1 y_95_ ^ 2 - 2 y_96_ * y_95_ + 1 y_96_ ^ 2 ] = 4069
c545: [ 1 x_15_ ^ 2 - 2 x_97_ * x_15_ + 1 x_97_ ^ 2 + 1 y_15_ ^ 2 - 2 y_97_ * y_15_ + 1 y_97_ ^ 2 ] = 36625
c546: [ 1 x_29_ ^ 2 - 2 x_97_ * x_29_ + 1 x_97_ ^ 2 + 1 y_29_ ^ 2 - 2 y_97_ * y_29_ + 1 y_97_ ^ 2 ] = 29597
c547: [ 1 x_37_ ^ 2 - 2 x_97_ * x_37_ + 1 x_97_ ^ 2 + 1 y_37_ ^ 2 - 2 y_97_ * y_37_ + 1 y_97_ ^ 2 ] = 2722
c548: [ 1 x_40_ ^ 2 - 2 x_97_ * x_40_ + 1 x_97_ ^ 2 + 1 y_40_ ^ 2 - 2 y_97_ * y_40_ + 1 y_97_ ^ 2 ] = 4660
c549: [ 1 x_42_ ^ 2 - 2 x_97_ * x_42_ + 1 x_97_ ^ 2 + 1 y_42_ ^ 2 - 2 y_97_ * y_42_ + 1 y_97_ ^ 2 ] = 25609
c550: [ 1 x_53_ ^ 2 - 2 x_97_ * x_53_ + 1 x_97_ ^ 2 + 1 y_53_ ^ 2 - 2 y_97_ * y_53_ + 1 y_97_ ^ 2 ] = 8882
c551: [ 1 x_78_ ^ 2 - 2 x_97_ * x_78_ + 1 x_97_ ^ 2 + 1 y_78_ ^ 2 - 2 y_97_ * y_78_ + 1 y_97_ ^ 2 ] = 12538
c552: [ 1 x_82_ ^ 2 - 2 x_97_ * x_82_ + 1 x_97_ ^ 2 + 1 y_82_ ^ 2 - 2 y_97_ * y_82_ + 1 y_97_ ^ 2 ] = 15425
c553: [ 1 x_87_ ^ 2 - 2 x_97_ * x_87_ + 1 x_97_ ^ 2 + 1 y_87_ ^ 2 - 2 y_97_ * y_87_ + 1 y_97_ ^ 2 ] = 14746
c554: [ 1 x_96_ ^ 2 - 2 x_97_ * x_96_ + 1 x_97_ ^ 2 + 1 y_96_ ^ 2 - 2 y_97_ * y_96_ + 1 y_97_ ^ 2 ] = 2084
c555: [ 1 x_3_ ^ 2 - 2 x_98_ * x_3_ + 1 x_98_ ^ 2 + 1 y_3_ ^ 2 - 2 y_98_ * y_3_ + 1 y_98_ ^ 2 ] = 7514
c556: [ 1 x_17_ ^ 2 - 2 x_98_ * x_17_ + 1 x_98_ ^ 2 + 1 y_17_ ^ 2 - 2 y_98_ * y_17_ + 1 y_98_ ^ 2 ] = 5668
c557: [ 1 x_52_ ^ 2 - 2 x_98_ * x_52_ + 1 x_98_ ^ 2 + 1 y_52_ ^ 2 - 2 y_98_ * y_52_ + 1 y_98_ ^ 2 ] = 11169
c558: [ 1 x_53_ ^ 2 - 2 x_98_ * x_53_ + 1 x_98_ ^ 2 + 1 y_53_ ^ 2 - 2 y_98_ * y_53_ + 1 y_98_ ^ 2 ] = 16277
c559: [ 1 x_83_ ^ 2 - 2 x_98_ * x_83_ + 1 x_98_ ^ 2 + 1 y_83_ ^ 2 - 2 y_98_ * y_83_ + 1 y_98_ ^ 2 ] = 29284
c560: [ 1 x_97_ ^ 2 - 2 x_98_ * x_97_ + 1 x_98_ ^ 2 + 1 y_97_ ^ 2 - 2 y_98_ * y_97_ + 1 y_98_ ^ 2 ] = 9593
c561: [ 1 x_12_ ^ 2 - 2 x_99_ * x_12_ + 1 x_99_ ^ 2 + 1 y_12_ ^ 2 - 2 y_99_ * y_12_ + 1 y_99_ ^ 2 ] = 7457
c562: [ 1 x_15_ ^ 2 - 2 x_99_ * x_15_ + 1 x_99_ ^ 2 + 1 y_15_ ^ 2 - 2 y_99_ * y_15_ + 1 y_99_ ^ 2 ] = 21866
c563: [ 1 x_51_ ^ 2 - 2 x_99_ * x_51_ + 1 x_99_ ^ 2 + 1 y_51_ ^ 2 - 2 y_99_ * y_51_ + 1 y_99_ ^ 2 ] = 964
c564: [ 1 x_55_ ^ 2 - 2 x_99_ * x_55_ + 1 x_99_ ^ 2 + 1 y_55_ ^ 2 - 2 y_99_ * y_55_ + 1 y_99_ ^ 2 ] = 14324
c565: [ 1 x_58_ ^ 2 - 2 x_99_ * x_58_ + 1 x_99_ ^ 2 + 1 y_58_ ^ 2 - 2 y_99_ * y_58_ + 1 y_99_ ^ 2 ] = 3380
c566: [ 1 x_62_ ^ 2 - 2 x_99_ * x_62_ + 1 x_99_ ^ 2 + 1 y_62_ ^ 2 - 2 y_99_ * y_62_ + 1 y_99_ ^ 2 ] = 6920
c567: [ 1 x_98_ ^ 2 - 2 x_99_ * x_98_ + 1 x_99_ ^ 2 + 1 y_98_ ^ 2 - 2 y_99_ * y_98_ + 1 y_99_ ^ 2 ] = 3650
c568: [ 1 x_1_ ^ 2 - 2 x_100_ * x_1_ + 1 x_100_ ^ 2 + 1 y_1_ ^ 2 - 2 y_100_ * y_1_ + 1 y_100_ ^ 2 ] = 193
c569: [ 1 x_4_ ^ 2 - 2 x_100_ * x_4_ + 1 x_100_ ^ 2 + 1 y_4_ ^ 2 - 2 y_100_ * y_4_ + 1 y_100_ ^ 2 ] = 14404
c570: [ 1 x_5_ ^ 2 - 2 x_100_ * x_5_ + 1 x_100_ ^ 2 + 1 y_5_ ^ 2 - 2 y_100_ * y_5_ + 1 y_100_ ^ 2 ] = 19108
c571: [ 1 x_6_ ^ 2 - 2 x_100_ * x_6_ + 1 x_100_ ^ 2 + 1 y_6_ ^ 2 - 2 y_100_ * y_6_ + 1 y_100_ ^ 2 ] = 8477
c572: [ 1 x_8_ ^ 2 - 2 x_100_ * x_8_ + 1 x_100_ ^ 2 + 1 y_8_ ^ 2 - 2 y_100_ * y_8_ + 1 y_100_ ^ 2 ] = 29593
c573: [ 1 x_14_ ^ 2 - 2 x_100_ * x_14_ + 1 x_100_ ^ 2 + 1 y_14_ ^ 2 - 2 y_100_ * y_14_ + 1 y_100_ ^ 2 ] = 14612
c574: [ 1 x_16_ ^ 2 - 2 x_100_ * x_16_ + 1 x_100_ ^ 2 + 1 y_16_ ^ 2 - 2 y_100_ * y_16_ + 1 y_100_ ^ 2 ] = 19409
c575: [ 1 x_21_ ^ 2 - 2 x_100_ * x_21_ + 1 x_100_ ^ 2 + 1 y_21_ ^ 2 - 2 y_100_ * y_21_ + 1 y_100_ ^ 2 ] = 20825
c576: [ 1 x_45_ ^ 2 - 2 x_100_ * x_45_ + 1 x_100_ ^ 2 + 1 y_45_ ^ 2 - 2 y_100_ * y_45_ + 1 y_100_ ^ 2 ] = 305
c577: [ 1 x_47_ ^ 2 - 2 x_100_ * x_47_ + 1 x_100_ ^ 2 + 1 y_47_ ^ 2 - 2 y_100_ * y_47_ + 1 y_100_ ^ 2 ] = 35890
c578: [ 1 x_57_ ^ 2 - 2 x_100_ * x_57_ + 1 x_100_ ^ 2 + 1 y_57_ ^ 2 - 2 y_100_ * y_57_ + 1 y_100_ ^ 2 ] = 24154
c579: [ 1 x_60_ ^ 2 - 2 x_100_ * x_60_ + 1 x_100_ ^ 2 + 1 y_60_ ^ 2 - 2 y_100_ * y_60_ + 1 y_100_ ^ 2 ] = 5024
c580: [ 1 x_66_ ^ 2 - 2 x_100_ * x_66_ + 1 x_100_ ^ 2 + 1 y_66_ ^ 2 - 2 y_100_ * y_66_ + 1 y_100_ ^ 2 ] = 1745
c581: [ 1 x_71_ ^ 2 - 2 x_100_ * x_71_ + 1 x_100_ ^ 2 + 1 y_71_ ^ 2 - 2 y_100_ * y_71_ + 1 y_100_ ^ 2 ] = 4880
c582: [ 1 x_75_ ^ 2 - 2 x_100_ * x_75_ + 1 x_100_ ^ 2 + 1 y_75_ ^ 2 - 2 y_100_ * y_75_ + 1 y_100_ ^ 2 ] = 2888
c583: [ 1 x_88_ ^ 2 - 2 x_100_ * x_88_ + 1 x_100_ ^ 2 + 1 y_88_ ^ 2 - 2 y_100_ * y_88_ + 1 y_100_ ^ 2 ] = 7402
c584: [ 1 x_94_ ^ 2 - 2 x_100_ * x_94_ + 1 x_100_ ^ 2 + 1 y_94_ ^ 2 - 2 y_100_ * y_94_ + 1 y_100_ ^ 2 ] = 37700
c585: [ 1 x_99_ ^ 2 - 2 x_100_ * x_99_ + 1 x_100_ ^ 2 + 1 y_99_ ^ 2 - 2 y_100_ * y_99_ + 1 y_100_ ^ 2 ] = 4474
Bounds
-34 <= x_1_ <= 123
13 <= x_2_ <= 62
-118 <= x_3_ <= 82
-88 <= x_4_ <= 85
-83 <= x_5_ <= 88
-58 <= x_6_ <= 83
-81 <= x_7_ <= 117
-119 <= x_8_ <= 124
-71 <= x_9_ <= 39
-75 <= x_10_ <= 13
21 <= x_11_ <= 67
-60 <= x_12_ <= 111
13 <= x_13_ <= 123
-54 <= x_14_ <= 108
-96 <= x_15_ <= 153
-76 <= x_16_ <= -13
x_17_ = -79
-39 <= x_18_ <= 7
-28 <= x_19_ <= 110
x_20_ = 44
-55 <= x_21_ <= 90
-35 <= x_22_ <= 118
42 <= x_23_ <= 109
-112 <= x_24_ <= 153
-139 <= x_25_ <= 26
8 <= x_26_ <= 106
-11 <= x_27_ <= 91
-67 <= x_28_ <= 102
-75 <= x_29_ <= 137
-51 <= x_30_ <= 97
-14 <= x_31_ <= 103
-48 <= x_32_ <= 8
-88 <= x_33_ <= 47
-63 <= x_34_ <= 34
-4 <= x_35_ <= 46
27 <= x_36_ <= 80
-46 <= x_37_ <= 14
-33 <= x_38_ <= 123
-1 <= x_39_ <= 94
-55 <= x_40_ <= 51
-66 <= x_41_ <= 96
-32 <= x_42_ <= 90
-80 <= x_43_ <= 1
-77 <= x_44_ <= 70
-33 <= x_45_ <= 94
-128 <= x_46_ <= 195
-111 <= x_47_ <= 128
-46 <= x_48_ <= 122
-32 <= x_49_ <= 124
-4 <= x_50_ <= 79
-1 <= x_51_ <= 49
-52 <= x_52_ <= 82
-140 <= x_53_ <= -18
-4 <= x_54_ <= 101
-94 <= x_55_ <= 106
-76 <= x_56_ <= -9
-98 <= x_57_ <= 13
5 <= x_58_ <= 102
-132 <= x_59_ <= 102
-34 <= x_60_ <= 59
-49 <= x_61_ <= 113
-94 <= x_62_ <= 129
-85 <= x_63_ <= 77
-28 <= x_64_ <= 92
-63 <= x_65_ <= 115
22 <= x_66_ <= 78
-79 <= x_67_ <= 18
-55 <= x_68_ <= 43
-113 <= x_69_ <= 40
-54 <= x_70_ <= -25
-21 <= x_71_ <= 77
-67 <= x_72_ <= 121
-87 <= x_73_ <= 111
-103 <= x_74_ <= 59
10 <= x_75_ <= 56
-50 <= x_76_ <= 120
40 <= x_77_ <= 86
-28 <= x_78_ <= 97
30 <= x_79_ <= 79
x_80_ = 76
-63 <= x_81_ <= 106
-76 <= x_82_ <= 111
-154 <= x_83_ <= 117
-112 <= x_84_ <= 123
-54 <= x_85_ <= 106
-65 <= x_86_ <= 135
-76 <= x_87_ <= 98
-10 <= x_88_ <= 61
-28 <= x_89_ <= 92
-24 <= x_90_ <= 78
-110 <= x_91_ <= 140
-21 <= x_92_ <= 108
-94 <= x_93_ <= 85
-93 <= x_94_ <= 98
18 <= x_95_ <= 71
-46 <= x_96_ <= 58
-91 <= x_97_ <= 66
-92 <= x_98_ <= -4
-32 <= x_99_ <= 56
-20 <= x_100_ <= 109
-47 <= y_1_ <= 114
0 <= y_2_ <= 104
-131 <= y_3_ <= 126
-101 <= y_4_ <= 129
-96 <= y_5_ <= 132
-71 <= y_6_ <= 111
-94 <= y_7_ <= 153
-132 <= y_8_ <= 168
-84 <= y_9_ <= 83
-106 <= y_10_ <= 57
-19 <= y_11_ <= 27
-92 <= y_12_ <= 108
0 <= y_13_ <= 117
-67 <= y_14_ <= 132
-109 <= y_15_ <= 173
-89 <= y_16_ <= 31
y_17_ = -35
-52 <= y_18_ <= 51
-68 <= y_19_ <= 76
y_20_ = 4
-95 <= y_21_ <= 103
-48 <= y_22_ <= 152
29 <= y_23_ <= 97
-125 <= y_24_ <= 197
-140 <= y_25_ <= 70
-5 <= y_26_ <= 69
-24 <= y_27_ <= 104
-80 <= y_28_ <= 124
-88 <= y_29_ <= 181
-64 <= y_30_ <= 137
-27 <= y_31_ <= 63
-61 <= y_32_ <= 52
-101 <= y_33_ <= 91
-76 <= y_34_ <= 78
-17 <= y_35_ <= 90
14 <= y_36_ <= 40
-59 <= y_37_ <= 58
-46 <= y_38_ <= 101
-14 <= y_39_ <= 118
-68 <= y_40_ <= 95
-99 <= y_41_ <= 114
-45 <= y_42_ <= 134
-93 <= y_43_ <= 45
-117 <= y_44_ <= 114
-46 <= y_45_ <= 82
-141 <= y_46_ <= 221
-131 <= y_47_ <= 159
-59 <= y_48_ <= 139
-45 <= y_49_ <= 99
-17 <= y_50_ <= 76
-14 <= y_51_ <= 93
-65 <= y_52_ <= 101
-96 <= y_53_ <= 26
-17 <= y_54_ <= 138
-107 <= y_55_ <= 150
-89 <= y_56_ <= 35
-111 <= y_57_ <= 57
-8 <= y_58_ <= 62
-145 <= y_59_ <= 146
-47 <= y_60_ <= 103
-62 <= y_61_ <= 133
-117 <= y_62_ <= 142
-105 <= y_63_ <= 121
-41 <= y_64_ <= 133
-103 <= y_65_ <= 111
9 <= y_66_ <= 71
-92 <= y_67_ <= 62
-68 <= y_68_ <= 87
-126 <= y_69_ <= 84
-67 <= y_70_ <= 19
-34 <= y_71_ <= 117
-80 <= y_72_ <= 165
-100 <= y_73_ <= 155
-143 <= y_74_ <= 103
-3 <= y_75_ <= 83
-63 <= y_76_ <= 142
27 <= y_77_ <= 53
-41 <= y_78_ <= 122
17 <= y_79_ <= 87
y_80_ = 63
-76 <= y_81_ <= 113
-89 <= y_82_ <= 137
-167 <= y_83_ <= 161
-131 <= y_84_ <= 160
-73 <= y_85_ <= 102
-78 <= y_86_ <= 142
-89 <= y_87_ <= 142
-50 <= y_88_ <= 58
-48 <= y_89_ <= 76
-37 <= y_90_ <= 122
-123 <= y_91_ <= 170
-34 <= y_92_ <= 88
-107 <= y_93_ <= 129
-133 <= y_94_ <= 141
5 <= y_95_ <= 31
-59 <= y_96_ <= 95
-104 <= y_97_ <= 110
-105 <= y_98_ <= 40
-45 <= y_99_ <= 100
-33 <= y_100_ <= 100
General
x_1_
x_2_
x_3_
x_4_
x_5_
x_6_
x_7_
x_8_
x_9_
x_10_
x_11_
x_12_
x_13_
x_14_
x_15_
x_16_
x_17_
x_18_
x_19_
x_20_
x_21_
x_22_
x_23_
x_24_
x_25_
x_26_
x_27_
x_28_
x_29_
x_30_
x_31_
x_32_
x_33_
x_34_
x_35_
x_36_
x_37_
x_38_
x_39_
x_40_
x_41_
x_42_
x_43_
x_44_
x_45_
x_46_
x_47_
x_48_
x_49_
x_50_
x_51_
x_52_
x_53_
x_54_
x_55_
x_56_
x_57_
x_58_
x_59_
x_60_
x_61_
x_62_
x_63_
x_64_
x_65_
x_66_
x_67_
x_68_
x_69_
x_70_
x_71_
x_72_
x_73_
x_74_
x_75_
x_76_
x_77_
x_78_
x_79_
x_80_
x_81_
x_82_
x_83_
x_84_
x_85_
x_86_
x_87_
x_88_
x_89_
x_90_
x_91_
x_92_
x_93_
x_94_
x_95_
x_96_
x_97_
x_98_
x_99_
x_100_
y_1_
y_2_
y_3_
y_4_
y_5_
y_6_
y_7_
y_8_
y_9_
y_10_
y_11_
y_12_
y_13_
y_14_
y_15_
y_16_
y_17_
y_18_
y_19_
y_20_
y_21_
y_22_
y_23_
y_24_
y_25_
y_26_
y_27_
y_28_
y_29_
y_30_
y_31_
y_32_
y_33_
y_34_
y_35_
y_36_
y_37_
y_38_
y_39_
y_40_
y_41_
y_42_
y_43_
y_44_
y_45_
y_46_
y_47_
y_48_
y_49_
y_50_
y_51_
y_52_
y_53_
y_54_
y_55_
y_56_
y_57_
y_58_
y_59_
y_60_
y_61_
y_62_
y_63_
y_64_
y_65_
y_66_
y_67_
y_68_
y_69_
y_70_
y_71_
y_72_
y_73_
y_74_
y_75_
y_76_
y_77_
y_78_
y_79_
y_80_
y_81_
y_82_
y_83_
y_84_
y_85_
y_86_
y_87_
y_88_
y_89_
y_90_
y_91_
y_92_
y_93_
y_94_
y_95_
y_96_
y_97_
y_98_
y_99_
y_100_
End
