minimize
obj: 
subject to
c1_3: -1 x_78_ + 1 y_78_ <= 0
c1: [ 1 x_1_ ^ 2 + 1 y_1_ ^ 2 ] <= 16140.250649329042
c2: [ 1 x_2_ ^ 2 + 1 y_2_ ^ 2 ] <= 4128.146786570502
c3: [ 1 x_3_ ^ 2 + 1 y_3_ ^ 2 ] <= 8510.435300289859
c4: [ 1 x_4_ ^ 2 + 1 y_4_ ^ 2 ] <= 14376.700515624701
c5: [ 1 x_5_ ^ 2 + 1 y_5_ ^ 2 ] <= 23647.50512371916
c6: [ 1 x_6_ ^ 2 + 1 y_6_ ^ 2 ] <= 14219.052316795474
c7: [ 1 x_7_ ^ 2 + 1 y_7_ ^ 2 ] <= 13065.551612279669
c8: [ 1 x_8_ ^ 2 + 1 y_8_ ^ 2 ] <= 4916.739423556263
c9: [ 1 x_9_ ^ 2 + 1 y_9_ ^ 2 ] <= 9666.641096450683
c10: [ 1 x_10_ ^ 2 + 1 y_10_ ^ 2 ] <= 23842.877800985014
c11: [ 1 x_11_ ^ 2 + 1 y_11_ ^ 2 ] <= 13112.297096927283
c12: [ 1 x_12_ ^ 2 + 1 y_12_ ^ 2 ] <= 20125.61433637001
c13: [ 1 x_13_ ^ 2 + 1 y_13_ ^ 2 ] <= 14082.252681192746
c14: [ 1 x_14_ ^ 2 + 1 y_14_ ^ 2 ] <= 9698.172311753804
c15: [ 1 x_15_ ^ 2 + 1 y_15_ ^ 2 ] <= 14276.191919437859
c16: [ 1 x_16_ ^ 2 + 1 y_16_ ^ 2 ] <= 22727.33349771819
c17: [ 1 x_17_ ^ 2 + 1 y_17_ ^ 2 ] <= 16567.49352603703
c18: [ 1 x_18_ ^ 2 + 1 y_18_ ^ 2 ] <= 15548.799535600196
c19: [ 1 x_19_ ^ 2 + 1 y_19_ ^ 2 ] <= 13777.276031243928
c20: [ 1 x_20_ ^ 2 + 1 y_20_ ^ 2 ] <= 37679.37816163779
c21: [ 1 x_21_ ^ 2 + 1 y_21_ ^ 2 ] <= 33623.850530384
c22: [ 1 x_22_ ^ 2 + 1 y_22_ ^ 2 ] <= 5220.900207546254
c23: [ 1 x_23_ ^ 2 + 1 y_23_ ^ 2 ] <= 30215.185134572555
c24: [ 1 x_24_ ^ 2 + 1 y_24_ ^ 2 ] <= 23535.981755678975
c25: [ 1 x_25_ ^ 2 + 1 y_25_ ^ 2 ] <= 38744.14217810059
c26: [ 1 x_26_ ^ 2 + 1 y_26_ ^ 2 ] <= 37363.01140964834
c27: [ 1 x_27_ ^ 2 + 1 y_27_ ^ 2 ] <= 33891.80343026722
c28: [ 1 x_28_ ^ 2 + 1 y_28_ ^ 2 ] <= 11667.882656964486
c29: [ 1 x_29_ ^ 2 + 1 y_29_ ^ 2 ] <= 28989.77537844527
c30: [ 1 x_30_ ^ 2 + 1 y_30_ ^ 2 ] <= 29315.57631950816
c31: [ 1 x_31_ ^ 2 + 1 y_31_ ^ 2 ] <= 25526.813370981832
c32: [ 1 x_32_ ^ 2 + 1 y_32_ ^ 2 ] <= 15360.541368969167
c33: [ 1 x_33_ ^ 2 + 1 y_33_ ^ 2 ] <= 9524.583606364642
c34: [ 1 x_34_ ^ 2 + 1 y_34_ ^ 2 ] <= 16464.381452604262
c35: [ 1 x_35_ ^ 2 + 1 y_35_ ^ 2 ] <= 27674.171212381058
c36: [ 1 x_36_ ^ 2 + 1 y_36_ ^ 2 ] <= 11008.999999999998
c37: [ 1 x_37_ ^ 2 + 1 y_37_ ^ 2 ] <= 19882.55643431188
c38: [ 1 x_38_ ^ 2 + 1 y_38_ ^ 2 ] <= 24204.896793095395
c39: [ 1 x_39_ ^ 2 + 1 y_39_ ^ 2 ] <= 32802.03347522393
c40: [ 1 x_40_ ^ 2 + 1 y_40_ ^ 2 ] <= 16185.264288578283
c41: [ 1 x_41_ ^ 2 + 1 y_41_ ^ 2 ] <= 23623.749872520544
c42: [ 1 x_42_ ^ 2 + 1 y_42_ ^ 2 ] <= 12426.960565986232
c43: [ 1 x_43_ ^ 2 + 1 y_43_ ^ 2 ] <= 8715.829521427557
c44: [ 1 x_44_ ^ 2 + 1 y_44_ ^ 2 ] <= 31145.895600059837
c45: [ 1 x_45_ ^ 2 + 1 y_45_ ^ 2 ] <= 41085.31791017147
c46: [ 1 x_46_ ^ 2 + 1 y_46_ ^ 2 ] <= 16225.022354625027
c47: [ 1 x_47_ ^ 2 + 1 y_47_ ^ 2 ] <= 170.68999999999997
c48: [ 1 x_48_ ^ 2 + 1 y_48_ ^ 2 ] <= 6623.000641308495
c49: [ 1 x_49_ ^ 2 + 1 y_49_ ^ 2 ] <= 11550.405900810045
c50: [ 1 x_50_ ^ 2 + 1 y_50_ ^ 2 ] <= 10568.39560501277
c51: [ 1 x_51_ ^ 2 + 1 y_51_ ^ 2 ] <= 15263.096892236357
c52: [ 1 x_52_ ^ 2 + 1 y_52_ ^ 2 ] <= 1334.2099999999996
c53: [ 1 x_54_ ^ 2 + 1 y_54_ ^ 2 ] <= 14884.369999999997
c54: [ 1 x_55_ ^ 2 + 1 y_55_ ^ 2 ] <= 20678.74
c55: [ 1 x_56_ ^ 2 + 1 y_56_ ^ 2 ] <= 16644.11665856063
c56: [ 1 x_57_ ^ 2 + 1 y_57_ ^ 2 ] <= 9710.519802618313
c57: [ 1 x_58_ ^ 2 + 1 y_58_ ^ 2 ] <= 3031.371742700686
c58: [ 1 x_59_ ^ 2 + 1 y_59_ ^ 2 ] <= 19935.796980401457
c59: [ 1 x_60_ ^ 2 + 1 y_60_ ^ 2 ] <= 15239.254689803605
c60: [ 1 x_61_ ^ 2 + 1 y_61_ ^ 2 ] <= 14478.677520524034
c61: [ 1 x_62_ ^ 2 + 1 y_62_ ^ 2 ] <= 5903.651812868488
c62: [ 1 x_63_ ^ 2 + 1 y_63_ ^ 2 ] <= 1656.3999999999999
c63: [ 1 x_64_ ^ 2 + 1 y_64_ ^ 2 ] <= 15112.989453609334
c64: [ 1 x_65_ ^ 2 + 1 y_65_ ^ 2 ] <= 25622.894822050515
c65: [ 1 x_66_ ^ 2 + 1 y_66_ ^ 2 ] <= 20963.55324689912
c66: [ 1 x_67_ ^ 2 + 1 y_67_ ^ 2 ] <= 11973.032333081188
c67: [ 1 x_68_ ^ 2 + 1 y_68_ ^ 2 ] <= 30929.216326413363
c68: [ 1 x_69_ ^ 2 + 1 y_69_ ^ 2 ] <= 29910.139810470995
c69: [ 1 x_70_ ^ 2 + 1 y_70_ ^ 2 ] <= 13262.710515723702
c70: [ 1 x_71_ ^ 2 + 1 y_71_ ^ 2 ] <= 13064.918575677815
c71: [ 1 x_72_ ^ 2 + 1 y_72_ ^ 2 ] <= 15022.158567562943
c72: [ 1 x_73_ ^ 2 + 1 y_73_ ^ 2 ] <= 32788.51379698576
c73: [ 1 x_74_ ^ 2 + 1 y_74_ ^ 2 ] <= 14198.392959003433
c74: [ 1 x_75_ ^ 2 + 1 y_75_ ^ 2 ] <= 9253.62
c75: [ 1 x_76_ ^ 2 + 1 y_76_ ^ 2 ] <= 29983.331491167955
c76: [ 1 x_77_ ^ 2 + 1 y_77_ ^ 2 ] <= 16085.676079714145
c77: [ 1 x_78_ ^ 2 + 1 y_78_ ^ 2 ] <= 42284.186336339604
c78: [ 1 x_79_ ^ 2 + 1 y_79_ ^ 2 ] <= 20391.199417241813
c79: [ 1 x_80_ ^ 2 + 1 y_80_ ^ 2 ] <= 4339.969999999998
c80: [ 1 x_81_ ^ 2 + 1 y_81_ ^ 2 ] <= 24822.924847656977
c81: [ 1 x_82_ ^ 2 + 1 y_82_ ^ 2 ] <= 977.5588274549771
c82: [ 1 x_83_ ^ 2 + 1 y_83_ ^ 2 ] <= 16325.405733662996
c83: [ 1 x_84_ ^ 2 + 1 y_84_ ^ 2 ] <= 6942.038567674411
c84: [ 1 x_85_ ^ 2 + 1 y_85_ ^ 2 ] <= 17597.48056945886
c85: [ 1 x_86_ ^ 2 + 1 y_86_ ^ 2 ] <= 4283.409999999999
c86: [ 1 x_87_ ^ 2 + 1 y_87_ ^ 2 ] <= 32719.162023517434
c87: [ 1 x_88_ ^ 2 + 1 y_88_ ^ 2 ] <= 24575.16711089205
c88: [ 1 x_89_ ^ 2 + 1 y_89_ ^ 2 ] <= 9545.479991222055
c89: [ 1 x_90_ ^ 2 + 1 y_90_ ^ 2 ] <= 29297.438559031747
c90: [ 1 x_91_ ^ 2 + 1 y_91_ ^ 2 ] <= 1899.280533190185
c91: [ 1 x_92_ ^ 2 + 1 y_92_ ^ 2 ] <= 2792.727545998869
c92: [ 1 x_93_ ^ 2 + 1 y_93_ ^ 2 ] <= 8492.355931649363
c93: [ 1 x_94_ ^ 2 + 1 y_94_ ^ 2 ] <= 6114.371327712763
c94: [ 1 x_95_ ^ 2 + 1 y_95_ ^ 2 ] <= 8679.117173096789
c95: [ 1 x_96_ ^ 2 + 1 y_96_ ^ 2 ] <= 20889.130012687798
c96: [ 1 x_97_ ^ 2 + 1 y_97_ ^ 2 ] <= 4950.141298663017
c97: [ 1 x_98_ ^ 2 + 1 y_98_ ^ 2 ] <= 3928.8999999999996
c98: [ 1 x_99_ ^ 2 + 1 y_99_ ^ 2 ] <= 18821.4658212779
c99: [ 1 x_100_ ^ 2 + 1 y_100_ ^ 2 ] <= 17026.178192188407
quadratic_ranged_1_ub: [ 1 x_1_ ^ 2 - 2 x_2_ * x_1_ + 1 x_2_ ^ 2 + 1 y_1_ ^ 2 - 2 y_2_ * y_1_ + 1 y_2_ ^ 2 ] <= 3943.04
quadratic_ranged_2_ub: [ 1 x_2_ ^ 2 - 2 x_3_ * x_2_ + 1 x_3_ ^ 2 + 1 y_2_ ^ 2 - 2 y_3_ * y_2_ + 1 y_3_ ^ 2 ] <= 5094.44
quadratic_ranged_3_ub: [ 1 x_2_ ^ 2 - 2 x_4_ * x_2_ + 1 x_4_ ^ 2 + 1 y_2_ ^ 2 - 2 y_4_ * y_2_ + 1 y_4_ ^ 2 ] <= 6501.37
quadratic_ranged_4_ub: [ 1 x_3_ ^ 2 - 2 x_4_ * x_3_ + 1 x_4_ ^ 2 + 1 y_3_ ^ 2 - 2 y_4_ * y_3_ + 1 y_4_ ^ 2 ] <= 764.57
quadratic_ranged_5_ub: [ 1 x_1_ ^ 2 - 2 x_5_ * x_1_ + 1 x_5_ ^ 2 + 1 y_1_ ^ 2 - 2 y_5_ * y_1_ + 1 y_5_ ^ 2 ] <= 8157.77
quadratic_ranged_6_ub: [ 1 x_4_ ^ 2 - 2 x_5_ * x_4_ + 1 x_5_ ^ 2 + 1 y_4_ ^ 2 - 2 y_5_ * y_4_ + 1 y_5_ ^ 2 ] <= 11952.34
quadratic_ranged_7_ub: [ 1 x_5_ ^ 2 - 2 x_6_ * x_5_ + 1 x_6_ ^ 2 + 1 y_5_ ^ 2 - 2 y_6_ * y_5_ + 1 y_6_ ^ 2 ] <= 19072.84
quadratic_ranged_8_ub: [ 1 x_6_ ^ 2 - 2 x_7_ * x_6_ + 1 x_7_ ^ 2 + 1 y_6_ ^ 2 - 2 y_7_ * y_6_ + 1 y_7_ ^ 2 ] <= 8626.41
quadratic_ranged_9_ub: [ 1 x_3_ ^ 2 - 2 x_8_ * x_3_ + 1 x_8_ ^ 2 + 1 y_3_ ^ 2 - 2 y_8_ * y_3_ + 1 y_8_ ^ 2 ] <= 489.85
quadratic_ranged_10_ub: [ 1 x_5_ ^ 2 - 2 x_8_ * x_5_ + 1 x_8_ ^ 2 + 1 y_5_ ^ 2 - 2 y_8_ * y_5_ + 1 y_8_ ^ 2 ] <= 12299.78
quadratic_ranged_11_ub: [ 1 x_7_ ^ 2 - 2 x_8_ * x_7_ + 1 x_8_ ^ 2 + 1 y_7_ ^ 2 - 2 y_8_ * y_7_ + 1 y_8_ ^ 2 ] <= 1952.33
quadratic_ranged_12_ub: [ 1 x_8_ ^ 2 - 2 x_9_ * x_8_ + 1 x_9_ ^ 2 + 1 y_8_ ^ 2 - 2 y_9_ * y_8_ + 1 y_9_ ^ 2 ] <= 11082.73
quadratic_ranged_13_ub: [ 1 x_2_ ^ 2 - 2 x_10_ * x_2_ + 1 x_10_ ^ 2 + 1 y_2_ ^ 2 - 2 y_10_ * y_2_ + 1 y_10_ ^ 2 ] <= 17821.45
quadratic_ranged_14_ub: [ 1 x_9_ ^ 2 - 2 x_10_ * x_9_ + 1 x_10_ ^ 2 + 1 y_9_ ^ 2 - 2 y_10_ * y_9_ + 1 y_10_ ^ 2 ] <= 28365.85
quadratic_ranged_15_ub: [ 1 x_7_ ^ 2 - 2 x_11_ * x_7_ + 1 x_11_ ^ 2 + 1 y_7_ ^ 2 - 2 y_11_ * y_7_ + 1 y_11_ ^ 2 ] <= 15141.92
quadratic_ranged_16_ub: [ 1 x_10_ ^ 2 - 2 x_11_ * x_10_ + 1 x_11_ ^ 2 + 1 y_10_ ^ 2 - 2 y_11_ * y_10_ + 1 y_11_ ^ 2 ] <= 9179.89
quadratic_ranged_17_ub: [ 1 x_9_ ^ 2 - 2 x_12_ * x_9_ + 1 x_12_ ^ 2 + 1 y_9_ ^ 2 - 2 y_12_ * y_9_ + 1 y_12_ ^ 2 ] <= 29819.24
quadratic_ranged_18_ub: [ 1 x_11_ ^ 2 - 2 x_12_ * x_11_ + 1 x_12_ ^ 2 + 1 y_11_ ^ 2 - 2 y_12_ * y_11_ + 1 y_12_ ^ 2 ] <= 12873.460000000001
quadratic_ranged_19_ub: [ 1 x_2_ ^ 2 - 2 x_13_ * x_2_ + 1 x_13_ ^ 2 + 1 y_2_ ^ 2 - 2 y_13_ * y_2_ + 1 y_13_ ^ 2 ] <= 2961.32
quadratic_ranged_20_ub: [ 1 x_12_ ^ 2 - 2 x_13_ * x_12_ + 1 x_13_ ^ 2 + 1 y_12_ ^ 2 - 2 y_13_ * y_12_ + 1 y_13_ ^ 2 ] <= 24605.62
quadratic_ranged_21_ub: [ 1 x_2_ ^ 2 - 2 x_14_ * x_2_ + 1 x_14_ ^ 2 + 1 y_2_ ^ 2 - 2 y_14_ * y_2_ + 1 y_14_ ^ 2 ] <= 1171.6
quadratic_ranged_22_ub: [ 1 x_13_ ^ 2 - 2 x_14_ * x_13_ + 1 x_14_ ^ 2 + 1 y_13_ ^ 2 - 2 y_14_ * y_13_ + 1 y_14_ ^ 2 ] <= 1523.08
quadratic_ranged_23_ub: [ 1 x_14_ ^ 2 - 2 x_15_ * x_14_ + 1 x_15_ ^ 2 + 1 y_14_ ^ 2 - 2 y_15_ * y_14_ + 1 y_15_ ^ 2 ] <= 16018.6
quadratic_ranged_24_ub: [ 1 x_8_ ^ 2 - 2 x_16_ * x_8_ + 1 x_16_ ^ 2 + 1 y_8_ ^ 2 - 2 y_16_ * y_8_ + 1 y_16_ ^ 2 ] <= 25315.65
quadratic_ranged_25_ub: [ 1 x_15_ ^ 2 - 2 x_16_ * x_15_ + 1 x_16_ ^ 2 + 1 y_15_ ^ 2 - 2 y_16_ * y_15_ + 1 y_16_ ^ 2 ] <= 18796.1
quadratic_ranged_26_ub: [ 1 x_16_ ^ 2 - 2 x_17_ * x_16_ + 1 x_17_ ^ 2 + 1 y_16_ ^ 2 - 2 y_17_ * y_16_ + 1 y_17_ ^ 2 ] <= 485.81
quadratic_ranged_27_ub: [ 1 x_15_ ^ 2 - 2 x_18_ * x_15_ + 1 x_18_ ^ 2 + 1 y_15_ ^ 2 - 2 y_18_ * y_15_ + 1 y_18_ ^ 2 ] <= 13179.49
quadratic_ranged_28_ub: [ 1 x_17_ ^ 2 - 2 x_18_ * x_17_ + 1 x_18_ ^ 2 + 1 y_17_ ^ 2 - 2 y_18_ * y_17_ + 1 y_18_ ^ 2 ] <= 16.16
quadratic_ranged_29_ub: [ 1 x_6_ ^ 2 - 2 x_19_ * x_6_ + 1 x_19_ ^ 2 + 1 y_6_ ^ 2 - 2 y_19_ * y_6_ + 1 y_19_ ^ 2 ] <= 15789.33
quadratic_ranged_30_ub: [ 1 x_18_ ^ 2 - 2 x_19_ * x_18_ + 1 x_19_ ^ 2 + 1 y_18_ ^ 2 - 2 y_19_ * y_18_ + 1 y_19_ ^ 2 ] <= 31343.33
quadratic_ranged_31_ub: [ 1 x_19_ ^ 2 - 2 x_20_ * x_19_ + 1 x_20_ ^ 2 + 1 y_19_ ^ 2 - 2 y_20_ * y_19_ + 1 y_20_ ^ 2 ] <= 10222.210000000001
quadratic_ranged_32_ub: [ 1 x_20_ ^ 2 - 2 x_21_ * x_20_ + 1 x_21_ ^ 2 + 1 y_20_ ^ 2 - 2 y_21_ * y_20_ + 1 y_21_ ^ 2 ] <= 2916.88
quadratic_ranged_33_ub: [ 1 x_6_ ^ 2 - 2 x_22_ * x_6_ + 1 x_22_ ^ 2 + 1 y_6_ ^ 2 - 2 y_22_ * y_6_ + 1 y_22_ ^ 2 ] <= 2207.86
quadratic_ranged_34_ub: [ 1 x_21_ ^ 2 - 2 x_22_ * x_21_ + 1 x_22_ ^ 2 + 1 y_21_ ^ 2 - 2 y_22_ * y_21_ + 1 y_22_ ^ 2 ] <= 33386.56
quadratic_ranged_35_ub: [ 1 x_5_ ^ 2 - 2 x_23_ * x_5_ + 1 x_23_ ^ 2 + 1 y_5_ ^ 2 - 2 y_23_ * y_5_ + 1 y_23_ ^ 2 ] <= 3312.8
quadratic_ranged_36_ub: [ 1 x_7_ ^ 2 - 2 x_23_ * x_7_ + 1 x_23_ ^ 2 + 1 y_7_ ^ 2 - 2 y_23_ * y_7_ + 1 y_23_ ^ 2 ] <= 19215.25
quadratic_ranged_37_ub: [ 1 x_22_ ^ 2 - 2 x_23_ * x_22_ + 1 x_23_ ^ 2 + 1 y_22_ ^ 2 - 2 y_23_ * y_22_ + 1 y_23_ ^ 2 ] <= 41985.7
quadratic_ranged_38_ub: [ 1 x_7_ ^ 2 - 2 x_24_ * x_7_ + 1 x_24_ ^ 2 + 1 y_7_ ^ 2 - 2 y_24_ * y_7_ + 1 y_24_ ^ 2 ] <= 42359.4
quadratic_ranged_39_ub: [ 1 x_20_ ^ 2 - 2 x_24_ * x_20_ + 1 x_24_ ^ 2 + 1 y_20_ ^ 2 - 2 y_24_ * y_20_ + 1 y_24_ ^ 2 ] <= 4368.25
quadratic_ranged_40_ub: [ 1 x_23_ ^ 2 - 2 x_24_ * x_23_ + 1 x_24_ ^ 2 + 1 y_23_ ^ 2 - 2 y_24_ * y_23_ + 1 y_24_ ^ 2 ] <= 16912.45
quadratic_ranged_41_ub: [ 1 x_4_ ^ 2 - 2 x_25_ * x_4_ + 1 x_25_ ^ 2 + 1 y_4_ ^ 2 - 2 y_25_ * y_4_ + 1 y_25_ ^ 2 ] <= 5918.6
quadratic_ranged_42_ub: [ 1 x_7_ ^ 2 - 2 x_25_ * x_7_ + 1 x_25_ ^ 2 + 1 y_7_ ^ 2 - 2 y_25_ * y_7_ + 1 y_25_ ^ 2 ] <= 16205.45
quadratic_ranged_43_ub: [ 1 x_9_ ^ 2 - 2 x_25_ * x_9_ + 1 x_25_ ^ 2 + 1 y_9_ ^ 2 - 2 y_25_ * y_9_ + 1 y_25_ ^ 2 ] <= 24487.45
quadratic_ranged_44_ub: [ 1 x_11_ ^ 2 - 2 x_25_ * x_11_ + 1 x_25_ ^ 2 + 1 y_11_ ^ 2 - 2 y_25_ * y_11_ + 1 y_25_ ^ 2 ] <= 9482.89
quadratic_ranged_45_ub: [ 1 x_24_ ^ 2 - 2 x_25_ * x_24_ + 1 x_25_ ^ 2 + 1 y_24_ ^ 2 - 2 y_25_ * y_24_ + 1 y_25_ ^ 2 ] <= 11442.29
quadratic_ranged_46_ub: [ 1 x_9_ ^ 2 - 2 x_26_ * x_9_ + 1 x_26_ ^ 2 + 1 y_9_ ^ 2 - 2 y_26_ * y_9_ + 1 y_26_ ^ 2 ] <= 24442
quadratic_ranged_47_ub: [ 1 x_15_ ^ 2 - 2 x_26_ * x_15_ + 1 x_26_ ^ 2 + 1 y_15_ ^ 2 - 2 y_26_ * y_15_ + 1 y_26_ ^ 2 ] <= 12534.1
quadratic_ranged_48_ub: [ 1 x_25_ ^ 2 - 2 x_26_ * x_25_ + 1 x_26_ ^ 2 + 1 y_25_ ^ 2 - 2 y_26_ * y_25_ + 1 y_26_ ^ 2 ] <= 267.65
quadratic_ranged_49_ub: [ 1 x_2_ ^ 2 - 2 x_27_ * x_2_ + 1 x_27_ ^ 2 + 1 y_2_ ^ 2 - 2 y_27_ * y_2_ + 1 y_27_ ^ 2 ] <= 14363.210000000001
quadratic_ranged_50_ub: [ 1 x_26_ ^ 2 - 2 x_27_ * x_26_ + 1 x_27_ ^ 2 + 1 y_26_ ^ 2 - 2 y_27_ * y_26_ + 1 y_27_ ^ 2 ] <= 2445.21
quadratic_ranged_51_ub: [ 1 x_4_ ^ 2 - 2 x_28_ * x_4_ + 1 x_28_ ^ 2 + 1 y_4_ ^ 2 - 2 y_28_ * y_4_ + 1 y_28_ ^ 2 ] <= 5095.45
quadratic_ranged_52_ub: [ 1 x_7_ ^ 2 - 2 x_28_ * x_7_ + 1 x_28_ ^ 2 + 1 y_7_ ^ 2 - 2 y_28_ * y_7_ + 1 y_28_ ^ 2 ] <= 2215.94
quadratic_ranged_53_ub: [ 1 x_10_ ^ 2 - 2 x_28_ * x_10_ + 1 x_28_ ^ 2 + 1 y_10_ ^ 2 - 2 y_28_ * y_10_ + 1 y_28_ ^ 2 ] <= 27081.13
quadratic_ranged_54_ub: [ 1 x_13_ ^ 2 - 2 x_28_ * x_13_ + 1 x_28_ ^ 2 + 1 y_13_ ^ 2 - 2 y_28_ * y_13_ + 1 y_28_ ^ 2 ] <= 6215.54
quadratic_ranged_55_ub: [ 1 x_14_ ^ 2 - 2 x_28_ * x_14_ + 1 x_28_ ^ 2 + 1 y_14_ ^ 2 - 2 y_28_ * y_14_ + 1 y_28_ ^ 2 ] <= 1868.5
quadratic_ranged_56_ub: [ 1 x_27_ ^ 2 - 2 x_28_ * x_27_ + 1 x_28_ ^ 2 + 1 y_27_ ^ 2 - 2 y_28_ * y_27_ + 1 y_28_ ^ 2 ] <= 20277.77
quadratic_ranged_57_ub: [ 1 x_15_ ^ 2 - 2 x_29_ * x_15_ + 1 x_29_ ^ 2 + 1 y_15_ ^ 2 - 2 y_29_ * y_15_ + 1 y_29_ ^ 2 ] <= 18559.76
quadratic_ranged_58_ub: [ 1 x_25_ ^ 2 - 2 x_29_ * x_25_ + 1 x_29_ ^ 2 + 1 y_25_ ^ 2 - 2 y_29_ * y_25_ + 1 y_29_ ^ 2 ] <= 2307.85
quadratic_ranged_59_ub: [ 1 x_28_ ^ 2 - 2 x_29_ * x_28_ + 1 x_29_ ^ 2 + 1 y_28_ ^ 2 - 2 y_29_ * y_28_ + 1 y_29_ ^ 2 ] <= 9439.460000000001
quadratic_ranged_60_ub: [ 1 x_4_ ^ 2 - 2 x_30_ * x_4_ + 1 x_30_ ^ 2 + 1 y_4_ ^ 2 - 2 y_30_ * y_4_ + 1 y_30_ ^ 2 ] <= 40506.05
quadratic_ranged_61_ub: [ 1 x_7_ ^ 2 - 2 x_30_ * x_7_ + 1 x_30_ ^ 2 + 1 y_7_ ^ 2 - 2 y_30_ * y_7_ + 1 y_30_ ^ 2 ] <= 51099.94
quadratic_ranged_62_ub: [ 1 x_12_ ^ 2 - 2 x_30_ * x_12_ + 1 x_30_ ^ 2 + 1 y_12_ ^ 2 - 2 y_30_ * y_12_ + 1 y_30_ ^ 2 ] <= 24635.920000000002
quadratic_ranged_63_ub: [ 1 x_15_ ^ 2 - 2 x_30_ * x_15_ + 1 x_30_ ^ 2 + 1 y_15_ ^ 2 - 2 y_30_ * y_15_ + 1 y_30_ ^ 2 ] <= 2676.5
quadratic_ranged_64_ub: [ 1 x_27_ ^ 2 - 2 x_30_ * x_27_ + 1 x_30_ ^ 2 + 1 y_27_ ^ 2 - 2 y_30_ * y_27_ + 1 y_30_ ^ 2 ] <= 15611.57
quadratic_ranged_65_ub: [ 1 x_29_ ^ 2 - 2 x_30_ * x_29_ + 1 x_30_ ^ 2 + 1 y_29_ ^ 2 - 2 y_30_ * y_29_ + 1 y_30_ ^ 2 ] <= 35214.66
quadratic_ranged_66_ub: [ 1 x_12_ ^ 2 - 2 x_31_ * x_12_ + 1 x_31_ ^ 2 + 1 y_12_ ^ 2 - 2 y_31_ * y_12_ + 1 y_31_ ^ 2 ] <= 2020
quadratic_ranged_67_ub: [ 1 x_13_ ^ 2 - 2 x_31_ * x_13_ + 1 x_31_ ^ 2 + 1 y_13_ ^ 2 - 2 y_31_ * y_13_ + 1 y_31_ ^ 2 ] <= 12930.02
quadratic_ranged_68_ub: [ 1 x_30_ ^ 2 - 2 x_31_ * x_30_ + 1 x_31_ ^ 2 + 1 y_30_ ^ 2 - 2 y_31_ * y_30_ + 1 y_31_ ^ 2 ] <= 15263.12
quadratic_ranged_69_ub: [ 1 x_8_ ^ 2 - 2 x_32_ * x_8_ + 1 x_32_ ^ 2 + 1 y_8_ ^ 2 - 2 y_32_ * y_8_ + 1 y_32_ ^ 2 ] <= 20403.01
quadratic_ranged_70_ub: [ 1 x_9_ ^ 2 - 2 x_32_ * x_9_ + 1 x_32_ ^ 2 + 1 y_9_ ^ 2 - 2 y_32_ * y_9_ + 1 y_32_ ^ 2 ] <= 18965.78
quadratic_ranged_71_ub: [ 1 x_16_ ^ 2 - 2 x_32_ * x_16_ + 1 x_32_ ^ 2 + 1 y_16_ ^ 2 - 2 y_32_ * y_16_ + 1 y_32_ ^ 2 ] <= 19345.54
quadratic_ranged_72_ub: [ 1 x_18_ ^ 2 - 2 x_32_ * x_18_ + 1 x_32_ ^ 2 + 1 y_18_ ^ 2 - 2 y_32_ * y_18_ + 1 y_32_ ^ 2 ] <= 13753.17
quadratic_ranged_73_ub: [ 1 x_19_ ^ 2 - 2 x_32_ * x_19_ + 1 x_32_ ^ 2 + 1 y_19_ ^ 2 - 2 y_32_ * y_19_ + 1 y_32_ ^ 2 ] <= 20995.88
quadratic_ranged_74_ub: [ 1 x_31_ ^ 2 - 2 x_32_ * x_31_ + 1 x_32_ ^ 2 + 1 y_31_ ^ 2 - 2 y_32_ * y_31_ + 1 y_32_ ^ 2 ] <= 6013.54
quadratic_ranged_75_ub: [ 1 x_4_ ^ 2 - 2 x_33_ * x_4_ + 1 x_33_ ^ 2 + 1 y_4_ ^ 2 - 2 y_33_ * y_4_ + 1 y_33_ ^ 2 ] <= 10594.9
quadratic_ranged_76_ub: [ 1 x_6_ ^ 2 - 2 x_33_ * x_6_ + 1 x_33_ ^ 2 + 1 y_6_ ^ 2 - 2 y_33_ * y_6_ + 1 y_33_ ^ 2 ] <= 2529.04
quadratic_ranged_77_ub: [ 1 x_8_ ^ 2 - 2 x_33_ * x_8_ + 1 x_33_ ^ 2 + 1 y_8_ ^ 2 - 2 y_33_ * y_8_ + 1 y_33_ ^ 2 ] <= 6530.66
quadratic_ranged_78_ub: [ 1 x_32_ ^ 2 - 2 x_33_ * x_32_ + 1 x_33_ ^ 2 + 1 y_32_ ^ 2 - 2 y_33_ * y_32_ + 1 y_33_ ^ 2 ] <= 5774.17
quadratic_ranged_79_ub: [ 1 x_7_ ^ 2 - 2 x_34_ * x_7_ + 1 x_34_ ^ 2 + 1 y_7_ ^ 2 - 2 y_34_ * y_7_ + 1 y_34_ ^ 2 ] <= 36079.22
quadratic_ranged_80_ub: [ 1 x_9_ ^ 2 - 2 x_34_ * x_9_ + 1 x_34_ ^ 2 + 1 y_9_ ^ 2 - 2 y_34_ * y_9_ + 1 y_34_ ^ 2 ] <= 11449.36
quadratic_ranged_81_ub: [ 1 x_17_ ^ 2 - 2 x_34_ * x_17_ + 1 x_34_ ^ 2 + 1 y_17_ ^ 2 - 2 y_34_ * y_17_ + 1 y_34_ ^ 2 ] <= 4719.7300000000005
quadratic_ranged_82_ub: [ 1 x_22_ ^ 2 - 2 x_34_ * x_22_ + 1 x_34_ ^ 2 + 1 y_22_ ^ 2 - 2 y_34_ * y_22_ + 1 y_34_ ^ 2 ] <= 14512.69
quadratic_ranged_83_ub: [ 1 x_24_ ^ 2 - 2 x_34_ * x_24_ + 1 x_34_ ^ 2 + 1 y_24_ ^ 2 - 2 y_34_ * y_24_ + 1 y_34_ ^ 2 ] <= 8518.34
quadratic_ranged_84_ub: [ 1 x_33_ ^ 2 - 2 x_34_ * x_33_ + 1 x_34_ ^ 2 + 1 y_33_ ^ 2 - 2 y_34_ * y_33_ + 1 y_34_ ^ 2 ] <= 6174.13
quadratic_ranged_85_ub: [ 1 x_3_ ^ 2 - 2 x_35_ * x_3_ + 1 x_35_ ^ 2 + 1 y_3_ ^ 2 - 2 y_35_ * y_3_ + 1 y_35_ ^ 2 ] <= 12978.5
quadratic_ranged_86_ub: [ 1 x_10_ ^ 2 - 2 x_35_ * x_10_ + 1 x_35_ ^ 2 + 1 y_10_ ^ 2 - 2 y_35_ * y_10_ + 1 y_35_ ^ 2 ] <= 28196.170000000002
quadratic_ranged_87_ub: [ 1 x_19_ ^ 2 - 2 x_35_ * x_19_ + 1 x_35_ ^ 2 + 1 y_19_ ^ 2 - 2 y_35_ * y_19_ + 1 y_35_ ^ 2 ] <= 22084.66
quadratic_ranged_88_ub: [ 1 x_20_ ^ 2 - 2 x_35_ * x_20_ + 1 x_35_ ^ 2 + 1 y_20_ ^ 2 - 2 y_35_ * y_20_ + 1 y_35_ ^ 2 ] <= 29670.77
quadratic_ranged_89_ub: [ 1 x_21_ ^ 2 - 2 x_35_ * x_21_ + 1 x_35_ ^ 2 + 1 y_21_ ^ 2 - 2 y_35_ * y_21_ + 1 y_35_ ^ 2 ] <= 25295.45
quadratic_ranged_90_ub: [ 1 x_34_ ^ 2 - 2 x_35_ * x_34_ + 1 x_35_ ^ 2 + 1 y_34_ ^ 2 - 2 y_35_ * y_34_ + 1 y_35_ ^ 2 ] <= 11869.52
quadratic_ranged_91_ub: [ 1 x_15_ ^ 2 - 2 x_36_ * x_15_ + 1 x_36_ ^ 2 + 1 y_15_ ^ 2 - 2 y_36_ * y_15_ + 1 y_36_ ^ 2 ] <= 5676.2
quadratic_ranged_92_ub: [ 1 x_22_ ^ 2 - 2 x_36_ * x_22_ + 1 x_36_ ^ 2 + 1 y_22_ ^ 2 - 2 y_36_ * y_22_ + 1 y_36_ ^ 2 ] <= 11967.49
quadratic_ranged_93_ub: [ 1 x_35_ ^ 2 - 2 x_36_ * x_35_ + 1 x_36_ ^ 2 + 1 y_35_ ^ 2 - 2 y_36_ * y_35_ + 1 y_36_ ^ 2 ] <= 9908.1
quadratic_ranged_94_ub: [ 1 x_12_ ^ 2 - 2 x_37_ * x_12_ + 1 x_37_ ^ 2 + 1 y_12_ ^ 2 - 2 y_37_ * y_12_ + 1 y_37_ ^ 2 ] <= 171.7
quadratic_ranged_95_ub: [ 1 x_15_ ^ 2 - 2 x_37_ * x_15_ + 1 x_37_ ^ 2 + 1 y_15_ ^ 2 - 2 y_37_ * y_15_ + 1 y_37_ ^ 2 ] <= 14608.64
quadratic_ranged_96_ub: [ 1 x_36_ ^ 2 - 2 x_37_ * x_36_ + 1 x_37_ ^ 2 + 1 y_36_ ^ 2 - 2 y_37_ * y_36_ + 1 y_37_ ^ 2 ] <= 32534.12
quadratic_ranged_97_ub: [ 1 x_33_ ^ 2 - 2 x_38_ * x_33_ + 1 x_38_ ^ 2 + 1 y_33_ ^ 2 - 2 y_38_ * y_33_ + 1 y_38_ ^ 2 ] <= 3362.29
quadratic_ranged_98_ub: [ 1 x_37_ ^ 2 - 2 x_38_ * x_37_ + 1 x_38_ ^ 2 + 1 y_37_ ^ 2 - 2 y_38_ * y_37_ + 1 y_38_ ^ 2 ] <= 15329.78
quadratic_ranged_99_ub: [ 1 x_8_ ^ 2 - 2 x_39_ * x_8_ + 1 x_39_ ^ 2 + 1 y_8_ ^ 2 - 2 y_39_ * y_8_ + 1 y_39_ ^ 2 ] <= 17382.1
quadratic_ranged_100_ub: [ 1 x_20_ ^ 2 - 2 x_39_ * x_20_ + 1 x_39_ ^ 2 + 1 y_20_ ^ 2 - 2 y_39_ * y_20_ + 1 y_39_ ^ 2 ] <= 1464.5
quadratic_ranged_101_ub: [ 1 x_38_ ^ 2 - 2 x_39_ * x_38_ + 1 x_39_ ^ 2 + 1 y_38_ ^ 2 - 2 y_39_ * y_38_ + 1 y_39_ ^ 2 ] <= 14088.49
quadratic_ranged_102_ub: [ 1 x_30_ ^ 2 - 2 x_40_ * x_30_ + 1 x_40_ ^ 2 + 1 y_30_ ^ 2 - 2 y_40_ * y_30_ + 1 y_40_ ^ 2 ] <= 9418.25
quadratic_ranged_103_ub: [ 1 x_31_ ^ 2 - 2 x_40_ * x_31_ + 1 x_40_ ^ 2 + 1 y_31_ ^ 2 - 2 y_40_ * y_31_ + 1 y_40_ ^ 2 ] <= 1059.49
quadratic_ranged_104_ub: [ 1 x_39_ ^ 2 - 2 x_40_ * x_39_ + 1 x_40_ ^ 2 + 1 y_39_ ^ 2 - 2 y_40_ * y_39_ + 1 y_40_ ^ 2 ] <= 8292.1
quadratic_ranged_105_ub: [ 1 x_1_ ^ 2 - 2 x_41_ * x_1_ + 1 x_41_ ^ 2 + 1 y_1_ ^ 2 - 2 y_41_ * y_1_ + 1 y_41_ ^ 2 ] <= 19038.5
quadratic_ranged_106_ub: [ 1 x_2_ ^ 2 - 2 x_41_ * x_2_ + 1 x_41_ ^ 2 + 1 y_2_ ^ 2 - 2 y_41_ * y_2_ + 1 y_41_ ^ 2 ] <= 8001.22
quadratic_ranged_107_ub: [ 1 x_12_ ^ 2 - 2 x_41_ * x_12_ + 1 x_41_ ^ 2 + 1 y_12_ ^ 2 - 2 y_41_ * y_12_ + 1 y_41_ ^ 2 ] <= 9889.92
quadratic_ranged_108_ub: [ 1 x_13_ ^ 2 - 2 x_41_ * x_13_ + 1 x_41_ ^ 2 + 1 y_13_ ^ 2 - 2 y_41_ * y_13_ + 1 y_41_ ^ 2 ] <= 20678.74
quadratic_ranged_109_ub: [ 1 x_16_ ^ 2 - 2 x_41_ * x_16_ + 1 x_41_ ^ 2 + 1 y_16_ ^ 2 - 2 y_41_ * y_16_ + 1 y_41_ ^ 2 ] <= 37915.4
quadratic_ranged_110_ub: [ 1 x_21_ ^ 2 - 2 x_41_ * x_21_ + 1 x_41_ ^ 2 + 1 y_21_ ^ 2 - 2 y_41_ * y_21_ + 1 y_41_ ^ 2 ] <= 8089.09
quadratic_ranged_111_ub: [ 1 x_23_ ^ 2 - 2 x_41_ * x_23_ + 1 x_41_ ^ 2 + 1 y_23_ ^ 2 - 2 y_41_ * y_23_ + 1 y_41_ ^ 2 ] <= 9357.65
quadratic_ranged_112_ub: [ 1 x_40_ ^ 2 - 2 x_41_ * x_40_ + 1 x_41_ ^ 2 + 1 y_40_ ^ 2 - 2 y_41_ * y_40_ + 1 y_41_ ^ 2 ] <= 14399.57
quadratic_ranged_113_ub: [ 1 x_3_ ^ 2 - 2 x_42_ * x_3_ + 1 x_42_ ^ 2 + 1 y_3_ ^ 2 - 2 y_42_ * y_3_ + 1 y_42_ ^ 2 ] <= 28168.9
quadratic_ranged_114_ub: [ 1 x_4_ ^ 2 - 2 x_42_ * x_4_ + 1 x_42_ ^ 2 + 1 y_4_ ^ 2 - 2 y_42_ * y_4_ + 1 y_42_ ^ 2 ] <= 31917.010000000002
quadratic_ranged_115_ub: [ 1 x_18_ ^ 2 - 2 x_42_ * x_18_ + 1 x_42_ ^ 2 + 1 y_18_ ^ 2 - 2 y_42_ * y_18_ + 1 y_42_ ^ 2 ] <= 174.73
quadratic_ranged_116_ub: [ 1 x_20_ ^ 2 - 2 x_42_ * x_20_ + 1 x_42_ ^ 2 + 1 y_20_ ^ 2 - 2 y_42_ * y_20_ + 1 y_42_ ^ 2 ] <= 32951.25
quadratic_ranged_117_ub: [ 1 x_41_ ^ 2 - 2 x_42_ * x_41_ + 1 x_42_ ^ 2 + 1 y_41_ ^ 2 - 2 y_42_ * y_41_ + 1 y_42_ ^ 2 ] <= 35087.4
quadratic_ranged_118_ub: [ 1 x_4_ ^ 2 - 2 x_43_ * x_4_ + 1 x_43_ ^ 2 + 1 y_4_ ^ 2 - 2 y_43_ * y_4_ + 1 y_43_ ^ 2 ] <= 26407.46
quadratic_ranged_119_ub: [ 1 x_5_ ^ 2 - 2 x_43_ * x_5_ + 1 x_43_ ^ 2 + 1 y_5_ ^ 2 - 2 y_43_ * y_5_ + 1 y_43_ ^ 2 ] <= 24001.64
quadratic_ranged_120_ub: [ 1 x_11_ ^ 2 - 2 x_43_ * x_11_ + 1 x_43_ ^ 2 + 1 y_11_ ^ 2 - 2 y_43_ * y_11_ + 1 y_43_ ^ 2 ] <= 4113.7300000000005
quadratic_ranged_121_ub: [ 1 x_12_ ^ 2 - 2 x_43_ * x_12_ + 1 x_43_ ^ 2 + 1 y_12_ ^ 2 - 2 y_43_ * y_12_ + 1 y_43_ ^ 2 ] <= 31525.13
quadratic_ranged_122_ub: [ 1 x_21_ ^ 2 - 2 x_43_ * x_21_ + 1 x_43_ ^ 2 + 1 y_21_ ^ 2 - 2 y_43_ * y_21_ + 1 y_43_ ^ 2 ] <= 28298.18
quadratic_ranged_123_ub: [ 1 x_22_ ^ 2 - 2 x_43_ * x_22_ + 1 x_43_ ^ 2 + 1 y_22_ ^ 2 - 2 y_43_ * y_22_ + 1 y_43_ ^ 2 ] <= 3573.38
quadratic_ranged_124_ub: [ 1 x_26_ ^ 2 - 2 x_43_ * x_26_ + 1 x_43_ ^ 2 + 1 y_26_ ^ 2 - 2 y_43_ * y_26_ + 1 y_43_ ^ 2 ] <= 27658.85
quadratic_ranged_125_ub: [ 1 x_39_ ^ 2 - 2 x_43_ * x_39_ + 1 x_43_ ^ 2 + 1 y_39_ ^ 2 - 2 y_43_ * y_39_ + 1 y_43_ ^ 2 ] <= 38501.2
quadratic_ranged_126_ub: [ 1 x_42_ ^ 2 - 2 x_43_ * x_42_ + 1 x_43_ ^ 2 + 1 y_42_ ^ 2 - 2 y_43_ * y_42_ + 1 y_43_ ^ 2 ] <= 328.25
quadratic_ranged_127_ub: [ 1 x_13_ ^ 2 - 2 x_44_ * x_13_ + 1 x_44_ ^ 2 + 1 y_13_ ^ 2 - 2 y_44_ * y_13_ + 1 y_44_ ^ 2 ] <= 16929.62
quadratic_ranged_128_ub: [ 1 x_16_ ^ 2 - 2 x_44_ * x_16_ + 1 x_44_ ^ 2 + 1 y_16_ ^ 2 - 2 y_44_ * y_16_ + 1 y_44_ ^ 2 ] <= 29415.24
quadratic_ranged_129_ub: [ 1 x_38_ ^ 2 - 2 x_44_ * x_38_ + 1 x_44_ ^ 2 + 1 y_38_ ^ 2 - 2 y_44_ * y_38_ + 1 y_44_ ^ 2 ] <= 31903.88
quadratic_ranged_130_ub: [ 1 x_41_ ^ 2 - 2 x_44_ * x_41_ + 1 x_44_ ^ 2 + 1 y_41_ ^ 2 - 2 y_44_ * y_41_ + 1 y_44_ ^ 2 ] <= 3749.12
quadratic_ranged_131_ub: [ 1 x_43_ ^ 2 - 2 x_44_ * x_43_ + 1 x_44_ ^ 2 + 1 y_43_ ^ 2 - 2 y_44_ * y_43_ + 1 y_44_ ^ 2 ] <= 24770.25
quadratic_ranged_132_ub: [ 1 x_6_ ^ 2 - 2 x_45_ * x_6_ + 1 x_45_ ^ 2 + 1 y_6_ ^ 2 - 2 y_45_ * y_6_ + 1 y_45_ ^ 2 ] <= 24790.45
quadratic_ranged_133_ub: [ 1 x_10_ ^ 2 - 2 x_45_ * x_10_ + 1 x_45_ ^ 2 + 1 y_10_ ^ 2 - 2 y_45_ * y_10_ + 1 y_45_ ^ 2 ] <= 5701.45
quadratic_ranged_134_ub: [ 1 x_23_ ^ 2 - 2 x_45_ * x_23_ + 1 x_45_ ^ 2 + 1 y_23_ ^ 2 - 2 y_45_ * y_23_ + 1 y_45_ ^ 2 ] <= 1354.41
quadratic_ranged_135_ub: [ 1 x_24_ ^ 2 - 2 x_45_ * x_24_ + 1 x_45_ ^ 2 + 1 y_24_ ^ 2 - 2 y_45_ * y_24_ + 1 y_45_ ^ 2 ] <= 9182.92
quadratic_ranged_136_ub: [ 1 x_44_ ^ 2 - 2 x_45_ * x_44_ + 1 x_45_ ^ 2 + 1 y_44_ ^ 2 - 2 y_45_ * y_44_ + 1 y_45_ ^ 2 ] <= 30398.98
quadratic_ranged_137_ub: [ 1 x_7_ ^ 2 - 2 x_46_ * x_7_ + 1 x_46_ ^ 2 + 1 y_7_ ^ 2 - 2 y_46_ * y_7_ + 1 y_46_ ^ 2 ] <= 1479.65
quadratic_ranged_138_ub: [ 1 x_10_ ^ 2 - 2 x_46_ * x_10_ + 1 x_46_ ^ 2 + 1 y_10_ ^ 2 - 2 y_46_ * y_10_ + 1 y_46_ ^ 2 ] <= 31514.02
quadratic_ranged_139_ub: [ 1 x_13_ ^ 2 - 2 x_46_ * x_13_ + 1 x_46_ ^ 2 + 1 y_13_ ^ 2 - 2 y_46_ * y_13_ + 1 y_46_ ^ 2 ] <= 20095.97
quadratic_ranged_140_ub: [ 1 x_18_ ^ 2 - 2 x_46_ * x_18_ + 1 x_46_ ^ 2 + 1 y_18_ ^ 2 - 2 y_46_ * y_18_ + 1 y_46_ ^ 2 ] <= 29534.420000000002
quadratic_ranged_141_ub: [ 1 x_33_ ^ 2 - 2 x_46_ * x_33_ + 1 x_46_ ^ 2 + 1 y_33_ ^ 2 - 2 y_46_ * y_33_ + 1 y_46_ ^ 2 ] <= 13536.02
quadratic_ranged_142_ub: [ 1 x_34_ ^ 2 - 2 x_46_ * x_34_ + 1 x_46_ ^ 2 + 1 y_34_ ^ 2 - 2 y_46_ * y_34_ + 1 y_46_ ^ 2 ] <= 37989.13
quadratic_ranged_143_ub: [ 1 x_35_ ^ 2 - 2 x_46_ * x_35_ + 1 x_46_ ^ 2 + 1 y_35_ ^ 2 - 2 y_46_ * y_35_ + 1 y_46_ ^ 2 ] <= 17284.13
quadratic_ranged_144_ub: [ 1 x_40_ ^ 2 - 2 x_46_ * x_40_ + 1 x_46_ ^ 2 + 1 y_40_ ^ 2 - 2 y_46_ * y_40_ + 1 y_46_ ^ 2 ] <= 15388.36
quadratic_ranged_145_ub: [ 1 x_45_ ^ 2 - 2 x_46_ * x_45_ + 1 x_46_ ^ 2 + 1 y_45_ ^ 2 - 2 y_46_ * y_45_ + 1 y_46_ ^ 2 ] <= 17272.01
quadratic_ranged_146_ub: [ 1 x_5_ ^ 2 - 2 x_47_ * x_5_ + 1 x_47_ ^ 2 + 1 y_5_ ^ 2 - 2 y_47_ * y_5_ + 1 y_47_ ^ 2 ] <= 19800.04
quadratic_ranged_147_ub: [ 1 x_23_ ^ 2 - 2 x_47_ * x_23_ + 1 x_47_ ^ 2 + 1 y_23_ ^ 2 - 2 y_47_ * y_23_ + 1 y_47_ ^ 2 ] <= 25843.88
quadratic_ranged_148_ub: [ 1 x_46_ ^ 2 - 2 x_47_ * x_46_ + 1 x_47_ ^ 2 + 1 y_46_ ^ 2 - 2 y_47_ * y_46_ + 1 y_47_ ^ 2 ] <= 13067.380000000001
quadratic_ranged_149_ub: [ 1 x_5_ ^ 2 - 2 x_48_ * x_5_ + 1 x_48_ ^ 2 + 1 y_5_ ^ 2 - 2 y_48_ * y_5_ + 1 y_48_ ^ 2 ] <= 25937.81
quadratic_ranged_150_ub: [ 1 x_6_ ^ 2 - 2 x_48_ * x_6_ + 1 x_48_ ^ 2 + 1 y_6_ ^ 2 - 2 y_48_ * y_6_ + 1 y_48_ ^ 2 ] <= 4550.05
quadratic_ranged_151_ub: [ 1 x_19_ ^ 2 - 2 x_48_ * x_19_ + 1 x_48_ ^ 2 + 1 y_19_ ^ 2 - 2 y_48_ * y_19_ + 1 y_48_ ^ 2 ] <= 11540.26
quadratic_ranged_152_ub: [ 1 x_42_ ^ 2 - 2 x_48_ * x_42_ + 1 x_48_ ^ 2 + 1 y_42_ ^ 2 - 2 y_48_ * y_42_ + 1 y_48_ ^ 2 ] <= 19214.24
quadratic_ranged_153_ub: [ 1 x_43_ ^ 2 - 2 x_48_ * x_43_ + 1 x_48_ ^ 2 + 1 y_43_ ^ 2 - 2 y_48_ * y_43_ + 1 y_48_ ^ 2 ] <= 16350.89
quadratic_ranged_154_ub: [ 1 x_47_ ^ 2 - 2 x_48_ * x_47_ + 1 x_48_ ^ 2 + 1 y_47_ ^ 2 - 2 y_48_ * y_47_ + 1 y_48_ ^ 2 ] <= 4667.21
quadratic_ranged_155_ub: [ 1 x_11_ ^ 2 - 2 x_49_ * x_11_ + 1 x_49_ ^ 2 + 1 y_11_ ^ 2 - 2 y_49_ * y_11_ + 1 y_49_ ^ 2 ] <= 14645
quadratic_ranged_156_ub: [ 1 x_20_ ^ 2 - 2 x_49_ * x_20_ + 1 x_49_ ^ 2 + 1 y_20_ ^ 2 - 2 y_49_ * y_20_ + 1 y_49_ ^ 2 ] <= 29888.93
quadratic_ranged_157_ub: [ 1 x_31_ ^ 2 - 2 x_49_ * x_31_ + 1 x_49_ ^ 2 + 1 y_31_ ^ 2 - 2 y_49_ * y_31_ + 1 y_49_ ^ 2 ] <= 16024.66
quadratic_ranged_158_ub: [ 1 x_42_ ^ 2 - 2 x_49_ * x_42_ + 1 x_49_ ^ 2 + 1 y_42_ ^ 2 - 2 y_49_ * y_42_ + 1 y_49_ ^ 2 ] <= 25995.38
quadratic_ranged_159_ub: [ 1 x_48_ ^ 2 - 2 x_49_ * x_48_ + 1 x_49_ ^ 2 + 1 y_48_ ^ 2 - 2 y_49_ * y_48_ + 1 y_49_ ^ 2 ] <= 680.74
quadratic_ranged_160_ub: [ 1 x_1_ ^ 2 - 2 x_50_ * x_1_ + 1 x_50_ ^ 2 + 1 y_1_ ^ 2 - 2 y_50_ * y_1_ + 1 y_50_ ^ 2 ] <= 977.6800000000001
quadratic_ranged_161_ub: [ 1 x_21_ ^ 2 - 2 x_50_ * x_21_ + 1 x_50_ ^ 2 + 1 y_21_ ^ 2 - 2 y_50_ * y_21_ + 1 y_50_ ^ 2 ] <= 15538.85
quadratic_ranged_162_ub: [ 1 x_28_ ^ 2 - 2 x_50_ * x_28_ + 1 x_50_ ^ 2 + 1 y_28_ ^ 2 - 2 y_50_ * y_28_ + 1 y_50_ ^ 2 ] <= 16460.98
quadratic_ranged_163_ub: [ 1 x_36_ ^ 2 - 2 x_50_ * x_36_ + 1 x_50_ ^ 2 + 1 y_36_ ^ 2 - 2 y_50_ * y_36_ + 1 y_50_ ^ 2 ] <= 1890.72
quadratic_ranged_164_ub: [ 1 x_42_ ^ 2 - 2 x_50_ * x_42_ + 1 x_50_ ^ 2 + 1 y_42_ ^ 2 - 2 y_50_ * y_42_ + 1 y_50_ ^ 2 ] <= 7863.86
quadratic_ranged_165_ub: [ 1 x_49_ ^ 2 - 2 x_50_ * x_49_ + 1 x_50_ ^ 2 + 1 y_49_ ^ 2 - 2 y_50_ * y_49_ + 1 y_50_ ^ 2 ] <= 28158.8
quadratic_ranged_166_ub: [ 1 x_1_ ^ 2 - 2 x_51_ * x_1_ + 1 x_51_ ^ 2 + 1 y_1_ ^ 2 - 2 y_51_ * y_1_ + 1 y_51_ ^ 2 ] <= 4058.18
quadratic_ranged_167_ub: [ 1 x_3_ ^ 2 - 2 x_51_ * x_3_ + 1 x_51_ ^ 2 + 1 y_3_ ^ 2 - 2 y_51_ * y_3_ + 1 y_51_ ^ 2 ] <= 33065.38
quadratic_ranged_168_ub: [ 1 x_6_ ^ 2 - 2 x_51_ * x_6_ + 1 x_51_ ^ 2 + 1 y_6_ ^ 2 - 2 y_51_ * y_6_ + 1 y_51_ ^ 2 ] <= 9939.41
quadratic_ranged_169_ub: [ 1 x_21_ ^ 2 - 2 x_51_ * x_21_ + 1 x_51_ ^ 2 + 1 y_21_ ^ 2 - 2 y_51_ * y_21_ + 1 y_51_ ^ 2 ] <= 29210.21
quadratic_ranged_170_ub: [ 1 x_34_ ^ 2 - 2 x_51_ * x_34_ + 1 x_51_ ^ 2 + 1 y_34_ ^ 2 - 2 y_51_ * y_34_ + 1 y_51_ ^ 2 ] <= 391.88
quadratic_ranged_171_ub: [ 1 x_35_ ^ 2 - 2 x_51_ * x_35_ + 1 x_51_ ^ 2 + 1 y_35_ ^ 2 - 2 y_51_ * y_35_ + 1 y_51_ ^ 2 ] <= 9716.2
quadratic_ranged_172_ub: [ 1 x_38_ ^ 2 - 2 x_51_ * x_38_ + 1 x_51_ ^ 2 + 1 y_38_ ^ 2 - 2 y_51_ * y_38_ + 1 y_51_ ^ 2 ] <= 4949
quadratic_ranged_173_ub: [ 1 x_40_ ^ 2 - 2 x_51_ * x_40_ + 1 x_51_ ^ 2 + 1 y_40_ ^ 2 - 2 y_51_ * y_40_ + 1 y_51_ ^ 2 ] <= 10278.77
quadratic_ranged_174_ub: [ 1 x_50_ ^ 2 - 2 x_51_ * x_50_ + 1 x_51_ ^ 2 + 1 y_50_ ^ 2 - 2 y_51_ * y_50_ + 1 y_51_ ^ 2 ] <= 2547.22
quadratic_ranged_175_ub: [ 1 x_2_ ^ 2 - 2 x_52_ * x_2_ + 1 x_52_ ^ 2 + 1 y_2_ ^ 2 - 2 y_52_ * y_2_ + 1 y_52_ ^ 2 ] <= 768.61
quadratic_ranged_176_ub: [ 1 x_4_ ^ 2 - 2 x_52_ * x_4_ + 1 x_52_ ^ 2 + 1 y_4_ ^ 2 - 2 y_52_ * y_4_ + 1 y_52_ ^ 2 ] <= 9736.4
quadratic_ranged_177_ub: [ 1 x_32_ ^ 2 - 2 x_52_ * x_32_ + 1 x_52_ ^ 2 + 1 y_32_ ^ 2 - 2 y_52_ * y_32_ + 1 y_52_ ^ 2 ] <= 7640.65
quadratic_ranged_178_ub: [ 1 x_36_ ^ 2 - 2 x_52_ * x_36_ + 1 x_52_ ^ 2 + 1 y_36_ ^ 2 - 2 y_52_ * y_36_ + 1 y_52_ ^ 2 ] <= 6986.17
quadratic_ranged_179_ub: [ 1 x_50_ ^ 2 - 2 x_52_ * x_50_ + 1 x_52_ ^ 2 + 1 y_50_ ^ 2 - 2 y_52_ * y_50_ + 1 y_52_ ^ 2 ] <= 4392.49
quadratic_ranged_180_ub: [ 1 x_51_ ^ 2 - 2 x_52_ * x_51_ + 1 x_52_ ^ 2 + 1 y_51_ ^ 2 - 2 y_52_ * y_51_ + 1 y_52_ ^ 2 ] <= 7571.97
quadratic_ranged_181_ub: [ 1 x_36_ ^ 2 - 2 x_53_ * x_36_ + 1 x_53_ ^ 2 + 1 y_36_ ^ 2 - 2 y_53_ * y_36_ + 1 y_53_ ^ 2 ] <= 11009
quadratic_ranged_182_ub: [ 1 x_47_ ^ 2 - 2 x_53_ * x_47_ + 1 x_53_ ^ 2 + 1 y_47_ ^ 2 - 2 y_53_ * y_47_ + 1 y_53_ ^ 2 ] <= 170.69
quadratic_ranged_183_ub: [ 1 x_52_ ^ 2 - 2 x_53_ * x_52_ + 1 x_53_ ^ 2 + 1 y_52_ ^ 2 - 2 y_53_ * y_52_ + 1 y_53_ ^ 2 ] <= 1334.21
quadratic_ranged_184_ub: [ 1 x_5_ ^ 2 - 2 x_54_ * x_5_ + 1 x_54_ ^ 2 + 1 y_5_ ^ 2 - 2 y_54_ * y_5_ + 1 y_54_ ^ 2 ] <= 4173.32
quadratic_ranged_185_ub: [ 1 x_10_ ^ 2 - 2 x_54_ * x_10_ + 1 x_54_ ^ 2 + 1 y_10_ ^ 2 - 2 y_54_ * y_10_ + 1 y_54_ ^ 2 ] <= 1050.4
quadratic_ranged_186_ub: [ 1 x_19_ ^ 2 - 2 x_54_ * x_19_ + 1 x_54_ ^ 2 + 1 y_19_ ^ 2 - 2 y_54_ * y_19_ + 1 y_54_ ^ 2 ] <= 18548.65
quadratic_ranged_187_ub: [ 1 x_23_ ^ 2 - 2 x_54_ * x_23_ + 1 x_54_ ^ 2 + 1 y_23_ ^ 2 - 2 y_54_ * y_23_ + 1 y_54_ ^ 2 ] <= 14580.36
quadratic_ranged_188_ub: [ 1 x_24_ ^ 2 - 2 x_54_ * x_24_ + 1 x_54_ ^ 2 + 1 y_24_ ^ 2 - 2 y_54_ * y_24_ + 1 y_54_ ^ 2 ] <= 986.77
quadratic_ranged_189_ub: [ 1 x_26_ ^ 2 - 2 x_54_ * x_26_ + 1 x_54_ ^ 2 + 1 y_26_ ^ 2 - 2 y_54_ * y_26_ + 1 y_54_ ^ 2 ] <= 11506.93
quadratic_ranged_190_ub: [ 1 x_45_ ^ 2 - 2 x_54_ * x_45_ + 1 x_54_ ^ 2 + 1 y_45_ ^ 2 - 2 y_54_ * y_45_ + 1 y_54_ ^ 2 ] <= 8408.25
quadratic_ranged_191_ub: [ 1 x_53_ ^ 2 - 2 x_54_ * x_53_ + 1 x_54_ ^ 2 + 1 y_53_ ^ 2 - 2 y_54_ * y_53_ + 1 y_54_ ^ 2 ] <= 14884.37
quadratic_ranged_192_ub: [ 1 x_10_ ^ 2 - 2 x_55_ * x_10_ + 1 x_55_ ^ 2 + 1 y_10_ ^ 2 - 2 y_55_ * y_10_ + 1 y_55_ ^ 2 ] <= 16088.29
quadratic_ranged_193_ub: [ 1 x_32_ ^ 2 - 2 x_55_ * x_32_ + 1 x_55_ ^ 2 + 1 y_32_ ^ 2 - 2 y_55_ * y_32_ + 1 y_55_ ^ 2 ] <= 20614.1
quadratic_ranged_194_ub: [ 1 x_53_ ^ 2 - 2 x_55_ * x_53_ + 1 x_55_ ^ 2 + 1 y_53_ ^ 2 - 2 y_55_ * y_53_ + 1 y_55_ ^ 2 ] <= 20678.74
quadratic_ranged_195_ub: [ 1 x_54_ ^ 2 - 2 x_55_ * x_54_ + 1 x_55_ ^ 2 + 1 y_54_ ^ 2 - 2 y_55_ * y_54_ + 1 y_55_ ^ 2 ] <= 17914.37
quadratic_ranged_196_ub: [ 1 x_5_ ^ 2 - 2 x_56_ * x_5_ + 1 x_56_ ^ 2 + 1 y_5_ ^ 2 - 2 y_56_ * y_5_ + 1 y_56_ ^ 2 ] <= 28587.04
quadratic_ranged_197_ub: [ 1 x_8_ ^ 2 - 2 x_56_ * x_8_ + 1 x_56_ ^ 2 + 1 y_8_ ^ 2 - 2 y_56_ * y_8_ + 1 y_56_ ^ 2 ] <= 3468.34
quadratic_ranged_198_ub: [ 1 x_11_ ^ 2 - 2 x_56_ * x_11_ + 1 x_56_ ^ 2 + 1 y_11_ ^ 2 - 2 y_56_ * y_11_ + 1 y_56_ ^ 2 ] <= 19425.33
quadratic_ranged_199_ub: [ 1 x_25_ ^ 2 - 2 x_56_ * x_25_ + 1 x_56_ ^ 2 + 1 y_25_ ^ 2 - 2 y_56_ * y_25_ + 1 y_56_ ^ 2 ] <= 19587.94
quadratic_ranged_200_ub: [ 1 x_26_ ^ 2 - 2 x_56_ * x_26_ + 1 x_56_ ^ 2 + 1 y_26_ ^ 2 - 2 y_56_ * y_26_ + 1 y_56_ ^ 2 ] <= 16205.45
quadratic_ranged_201_ub: [ 1 x_29_ ^ 2 - 2 x_56_ * x_29_ + 1 x_56_ ^ 2 + 1 y_29_ ^ 2 - 2 y_56_ * y_29_ + 1 y_56_ ^ 2 ] <= 9915.17
quadratic_ranged_202_ub: [ 1 x_54_ ^ 2 - 2 x_56_ * x_54_ + 1 x_56_ ^ 2 + 1 y_54_ ^ 2 - 2 y_56_ * y_54_ + 1 y_56_ ^ 2 ] <= 37543.72
quadratic_ranged_203_ub: [ 1 x_55_ ^ 2 - 2 x_56_ * x_55_ + 1 x_56_ ^ 2 + 1 y_55_ ^ 2 - 2 y_56_ * y_55_ + 1 y_56_ ^ 2 ] <= 17296.25
quadratic_ranged_204_ub: [ 1 x_1_ ^ 2 - 2 x_57_ * x_1_ + 1 x_57_ ^ 2 + 1 y_1_ ^ 2 - 2 y_57_ * y_1_ + 1 y_57_ ^ 2 ] <= 15134.85
quadratic_ranged_205_ub: [ 1 x_2_ ^ 2 - 2 x_57_ * x_2_ + 1 x_57_ ^ 2 + 1 y_2_ ^ 2 - 2 y_57_ * y_2_ + 1 y_57_ ^ 2 ] <= 4097.57
quadratic_ranged_206_ub: [ 1 x_5_ ^ 2 - 2 x_57_ * x_5_ + 1 x_57_ ^ 2 + 1 y_5_ ^ 2 - 2 y_57_ * y_5_ + 1 y_57_ ^ 2 ] <= 18965.78
quadratic_ranged_207_ub: [ 1 x_7_ ^ 2 - 2 x_57_ * x_7_ + 1 x_57_ ^ 2 + 1 y_7_ ^ 2 - 2 y_57_ * y_7_ + 1 y_57_ ^ 2 ] <= 308.05
quadratic_ranged_208_ub: [ 1 x_12_ ^ 2 - 2 x_57_ * x_12_ + 1 x_57_ ^ 2 + 1 y_12_ ^ 2 - 2 y_57_ * y_12_ + 1 y_57_ ^ 2 ] <= 14823.77
quadratic_ranged_209_ub: [ 1 x_34_ ^ 2 - 2 x_57_ * x_34_ + 1 x_57_ ^ 2 + 1 y_34_ ^ 2 - 2 y_57_ * y_34_ + 1 y_57_ ^ 2 ] <= 30911.05
quadratic_ranged_210_ub: [ 1 x_40_ ^ 2 - 2 x_57_ * x_40_ + 1 x_57_ ^ 2 + 1 y_40_ ^ 2 - 2 y_57_ * y_40_ + 1 y_57_ ^ 2 ] <= 13707.72
quadratic_ranged_211_ub: [ 1 x_47_ ^ 2 - 2 x_57_ * x_47_ + 1 x_57_ ^ 2 + 1 y_47_ ^ 2 - 2 y_57_ * y_47_ + 1 y_57_ ^ 2 ] <= 7306.34
quadratic_ranged_212_ub: [ 1 x_56_ ^ 2 - 2 x_57_ * x_56_ + 1 x_57_ ^ 2 + 1 y_56_ ^ 2 - 2 y_57_ * y_56_ + 1 y_57_ ^ 2 ] <= 1100.9
quadratic_ranged_213_ub: [ 1 x_9_ ^ 2 - 2 x_58_ * x_9_ + 1 x_58_ ^ 2 + 1 y_9_ ^ 2 - 2 y_58_ * y_9_ + 1 y_58_ ^ 2 ] <= 1871.53
quadratic_ranged_214_ub: [ 1 x_19_ ^ 2 - 2 x_58_ * x_19_ + 1 x_58_ ^ 2 + 1 y_19_ ^ 2 - 2 y_58_ * y_19_ + 1 y_58_ ^ 2 ] <= 13345.130000000001
quadratic_ranged_215_ub: [ 1 x_24_ ^ 2 - 2 x_58_ * x_24_ + 1 x_58_ ^ 2 + 1 y_24_ ^ 2 - 2 y_58_ * y_24_ + 1 y_58_ ^ 2 ] <= 17962.85
quadratic_ranged_216_ub: [ 1 x_28_ ^ 2 - 2 x_58_ * x_28_ + 1 x_58_ ^ 2 + 1 y_28_ ^ 2 - 2 y_58_ * y_28_ + 1 y_58_ ^ 2 ] <= 2804.77
quadratic_ranged_217_ub: [ 1 x_29_ ^ 2 - 2 x_58_ * x_29_ + 1 x_58_ ^ 2 + 1 y_29_ ^ 2 - 2 y_58_ * y_29_ + 1 y_58_ ^ 2 ] <= 13272.41
quadratic_ranged_218_ub: [ 1 x_40_ ^ 2 - 2 x_58_ * x_40_ + 1 x_58_ ^ 2 + 1 y_40_ ^ 2 - 2 y_58_ * y_40_ + 1 y_58_ ^ 2 ] <= 5207.56
quadratic_ranged_219_ub: [ 1 x_52_ ^ 2 - 2 x_58_ * x_52_ + 1 x_58_ ^ 2 + 1 y_52_ ^ 2 - 2 y_58_ * y_52_ + 1 y_58_ ^ 2 ] <= 343.4
quadratic_ranged_220_ub: [ 1 x_54_ ^ 2 - 2 x_58_ * x_54_ + 1 x_58_ ^ 2 + 1 y_54_ ^ 2 - 2 y_58_ * y_54_ + 1 y_58_ ^ 2 ] <= 10530.26
quadratic_ranged_221_ub: [ 1 x_56_ ^ 2 - 2 x_58_ * x_56_ + 1 x_58_ ^ 2 + 1 y_56_ ^ 2 - 2 y_58_ * y_56_ + 1 y_58_ ^ 2 ] <= 13140.1
quadratic_ranged_222_ub: [ 1 x_57_ ^ 2 - 2 x_58_ * x_57_ + 1 x_58_ ^ 2 + 1 y_57_ ^ 2 - 2 y_58_ * y_57_ + 1 y_58_ ^ 2 ] <= 7474
quadratic_ranged_223_ub: [ 1 x_14_ ^ 2 - 2 x_59_ * x_14_ + 1 x_59_ ^ 2 + 1 y_14_ ^ 2 - 2 y_59_ * y_14_ + 1 y_59_ ^ 2 ] <= 13042.130000000001
quadratic_ranged_224_ub: [ 1 x_18_ ^ 2 - 2 x_59_ * x_18_ + 1 x_59_ ^ 2 + 1 y_18_ ^ 2 - 2 y_59_ * y_18_ + 1 y_59_ ^ 2 ] <= 11833.16
quadratic_ranged_225_ub: [ 1 x_23_ ^ 2 - 2 x_59_ * x_23_ + 1 x_59_ ^ 2 + 1 y_23_ ^ 2 - 2 y_59_ * y_23_ + 1 y_59_ ^ 2 ] <= 13691.56
quadratic_ranged_226_ub: [ 1 x_29_ ^ 2 - 2 x_59_ * x_29_ + 1 x_59_ ^ 2 + 1 y_29_ ^ 2 - 2 y_59_ * y_29_ + 1 y_59_ ^ 2 ] <= 15126.77
quadratic_ranged_227_ub: [ 1 x_39_ ^ 2 - 2 x_59_ * x_39_ + 1 x_59_ ^ 2 + 1 y_39_ ^ 2 - 2 y_59_ * y_39_ + 1 y_59_ ^ 2 ] <= 11061.52
quadratic_ranged_228_ub: [ 1 x_46_ ^ 2 - 2 x_59_ * x_46_ + 1 x_59_ ^ 2 + 1 y_46_ ^ 2 - 2 y_59_ * y_46_ + 1 y_59_ ^ 2 ] <= 23902.66
quadratic_ranged_229_ub: [ 1 x_51_ ^ 2 - 2 x_59_ * x_51_ + 1 x_59_ ^ 2 + 1 y_51_ ^ 2 - 2 y_59_ * y_51_ + 1 y_59_ ^ 2 ] <= 6945.77
quadratic_ranged_230_ub: [ 1 x_58_ ^ 2 - 2 x_59_ * x_58_ + 1 x_59_ ^ 2 + 1 y_58_ ^ 2 - 2 y_59_ * y_58_ + 1 y_59_ ^ 2 ] <= 7419.46
quadratic_ranged_231_ub: [ 1 x_4_ ^ 2 - 2 x_60_ * x_4_ + 1 x_60_ ^ 2 + 1 y_4_ ^ 2 - 2 y_60_ * y_4_ + 1 y_60_ ^ 2 ] <= 11353.41
quadratic_ranged_232_ub: [ 1 x_8_ ^ 2 - 2 x_60_ * x_8_ + 1 x_60_ ^ 2 + 1 y_8_ ^ 2 - 2 y_60_ * y_8_ + 1 y_60_ ^ 2 ] <= 8230.49
quadratic_ranged_233_ub: [ 1 x_21_ ^ 2 - 2 x_60_ * x_21_ + 1 x_60_ ^ 2 + 1 y_21_ ^ 2 - 2 y_60_ * y_21_ + 1 y_60_ ^ 2 ] <= 6881.13
quadratic_ranged_234_ub: [ 1 x_25_ ^ 2 - 2 x_60_ * x_25_ + 1 x_60_ ^ 2 + 1 y_25_ ^ 2 - 2 y_60_ * y_25_ + 1 y_60_ ^ 2 ] <= 5685.29
quadratic_ranged_235_ub: [ 1 x_26_ ^ 2 - 2 x_60_ * x_26_ + 1 x_60_ ^ 2 + 1 y_26_ ^ 2 - 2 y_60_ * y_26_ + 1 y_60_ ^ 2 ] <= 7049.8
quadratic_ranged_236_ub: [ 1 x_29_ ^ 2 - 2 x_60_ * x_29_ + 1 x_60_ ^ 2 + 1 y_29_ ^ 2 - 2 y_60_ * y_29_ + 1 y_60_ ^ 2 ] <= 10021.22
quadratic_ranged_237_ub: [ 1 x_33_ ^ 2 - 2 x_60_ * x_33_ + 1 x_60_ ^ 2 + 1 y_33_ ^ 2 - 2 y_60_ * y_33_ + 1 y_60_ ^ 2 ] <= 817.09
quadratic_ranged_238_ub: [ 1 x_37_ ^ 2 - 2 x_60_ * x_37_ + 1 x_60_ ^ 2 + 1 y_37_ ^ 2 - 2 y_60_ * y_37_ + 1 y_60_ ^ 2 ] <= 9706.1
quadratic_ranged_239_ub: [ 1 x_50_ ^ 2 - 2 x_60_ * x_50_ + 1 x_60_ ^ 2 + 1 y_50_ ^ 2 - 2 y_60_ * y_50_ + 1 y_60_ ^ 2 ] <= 2167.46
quadratic_ranged_240_ub: [ 1 x_59_ ^ 2 - 2 x_60_ * x_59_ + 1 x_60_ ^ 2 + 1 y_59_ ^ 2 - 2 y_60_ * y_59_ + 1 y_60_ ^ 2 ] <= 1083.73
quadratic_ranged_241_ub: [ 1 x_7_ ^ 2 - 2 x_61_ * x_7_ + 1 x_61_ ^ 2 + 1 y_7_ ^ 2 - 2 y_61_ * y_7_ + 1 y_61_ ^ 2 ] <= 35055.08
quadratic_ranged_242_ub: [ 1 x_11_ ^ 2 - 2 x_61_ * x_11_ + 1 x_61_ ^ 2 + 1 y_11_ ^ 2 - 2 y_61_ * y_11_ + 1 y_61_ ^ 2 ] <= 4658.12
quadratic_ranged_243_ub: [ 1 x_13_ ^ 2 - 2 x_61_ * x_13_ + 1 x_61_ ^ 2 + 1 y_13_ ^ 2 - 2 y_61_ * y_13_ + 1 y_61_ ^ 2 ] <= 4949
quadratic_ranged_244_ub: [ 1 x_15_ ^ 2 - 2 x_61_ * x_15_ + 1 x_61_ ^ 2 + 1 y_15_ ^ 2 - 2 y_61_ * y_15_ + 1 y_61_ ^ 2 ] <= 4868.2
quadratic_ranged_245_ub: [ 1 x_29_ ^ 2 - 2 x_61_ * x_29_ + 1 x_61_ ^ 2 + 1 y_29_ ^ 2 - 2 y_61_ * y_29_ + 1 y_61_ ^ 2 ] <= 32017
quadratic_ranged_246_ub: [ 1 x_31_ ^ 2 - 2 x_61_ * x_31_ + 1 x_61_ ^ 2 + 1 y_31_ ^ 2 - 2 y_61_ * y_31_ + 1 y_61_ ^ 2 ] <= 15418.66
quadratic_ranged_247_ub: [ 1 x_35_ ^ 2 - 2 x_61_ * x_35_ + 1 x_61_ ^ 2 + 1 y_35_ ^ 2 - 2 y_61_ * y_35_ + 1 y_61_ ^ 2 ] <= 10699.94
quadratic_ranged_248_ub: [ 1 x_52_ ^ 2 - 2 x_61_ * x_52_ + 1 x_61_ ^ 2 + 1 y_52_ ^ 2 - 2 y_61_ * y_52_ + 1 y_61_ ^ 2 ] <= 7022.53
quadratic_ranged_249_ub: [ 1 x_60_ ^ 2 - 2 x_61_ * x_60_ + 1 x_61_ ^ 2 + 1 y_60_ ^ 2 - 2 y_61_ * y_60_ + 1 y_61_ ^ 2 ] <= 6352.9
quadratic_ranged_250_ub: [ 1 x_3_ ^ 2 - 2 x_62_ * x_3_ + 1 x_62_ ^ 2 + 1 y_3_ ^ 2 - 2 y_62_ * y_3_ + 1 y_62_ ^ 2 ] <= 7660.85
quadratic_ranged_251_ub: [ 1 x_18_ ^ 2 - 2 x_62_ * x_18_ + 1 x_62_ ^ 2 + 1 y_18_ ^ 2 - 2 y_62_ * y_18_ + 1 y_62_ ^ 2 ] <= 5353
quadratic_ranged_252_ub: [ 1 x_21_ ^ 2 - 2 x_62_ * x_21_ + 1 x_62_ ^ 2 + 1 y_21_ ^ 2 - 2 y_62_ * y_21_ + 1 y_62_ ^ 2 ] <= 11362.5
quadratic_ranged_253_ub: [ 1 x_24_ ^ 2 - 2 x_62_ * x_24_ + 1 x_62_ ^ 2 + 1 y_24_ ^ 2 - 2 y_62_ * y_24_ + 1 y_62_ ^ 2 ] <= 16072.130000000001
quadratic_ranged_254_ub: [ 1 x_29_ ^ 2 - 2 x_62_ * x_29_ + 1 x_62_ ^ 2 + 1 y_29_ ^ 2 - 2 y_62_ * y_29_ + 1 y_62_ ^ 2 ] <= 10690.85
quadratic_ranged_255_ub: [ 1 x_45_ ^ 2 - 2 x_62_ * x_45_ + 1 x_62_ ^ 2 + 1 y_45_ ^ 2 - 2 y_62_ * y_45_ + 1 y_62_ ^ 2 ] <= 15963.05
quadratic_ranged_256_ub: [ 1 x_51_ ^ 2 - 2 x_62_ * x_51_ + 1 x_62_ ^ 2 + 1 y_51_ ^ 2 - 2 y_62_ * y_51_ + 1 y_62_ ^ 2 ] <= 8909.210000000001
quadratic_ranged_257_ub: [ 1 x_54_ ^ 2 - 2 x_62_ * x_54_ + 1 x_62_ ^ 2 + 1 y_54_ ^ 2 - 2 y_62_ * y_54_ + 1 y_62_ ^ 2 ] <= 9130.4
quadratic_ranged_258_ub: [ 1 x_59_ ^ 2 - 2 x_62_ * x_59_ + 1 x_62_ ^ 2 + 1 y_59_ ^ 2 - 2 y_62_ * y_59_ + 1 y_62_ ^ 2 ] <= 6237.76
quadratic_ranged_259_ub: [ 1 x_61_ ^ 2 - 2 x_62_ * x_61_ + 1 x_62_ ^ 2 + 1 y_61_ ^ 2 - 2 y_62_ * y_61_ + 1 y_62_ ^ 2 ] <= 8489.05
quadratic_ranged_260_ub: [ 1 x_8_ ^ 2 - 2 x_63_ * x_8_ + 1 x_63_ ^ 2 + 1 y_8_ ^ 2 - 2 y_63_ * y_8_ + 1 y_63_ ^ 2 ] <= 865.57
quadratic_ranged_261_ub: [ 1 x_15_ ^ 2 - 2 x_63_ * x_15_ + 1 x_63_ ^ 2 + 1 y_15_ ^ 2 - 2 y_63_ * y_15_ + 1 y_63_ ^ 2 ] <= 14770.24
quadratic_ranged_262_ub: [ 1 x_33_ ^ 2 - 2 x_63_ * x_33_ + 1 x_63_ ^ 2 + 1 y_33_ ^ 2 - 2 y_63_ * y_33_ + 1 y_63_ ^ 2 ] <= 3237.05
quadratic_ranged_263_ub: [ 1 x_39_ ^ 2 - 2 x_63_ * x_39_ + 1 x_63_ ^ 2 + 1 y_39_ ^ 2 - 2 y_63_ * y_39_ + 1 y_63_ ^ 2 ] <= 19716.21
quadratic_ranged_264_ub: [ 1 x_50_ ^ 2 - 2 x_63_ * x_50_ + 1 x_63_ ^ 2 + 1 y_50_ ^ 2 - 2 y_63_ * y_50_ + 1 y_63_ ^ 2 ] <= 12705.8
quadratic_ranged_265_ub: [ 1 x_53_ ^ 2 - 2 x_63_ * x_53_ + 1 x_63_ ^ 2 + 1 y_53_ ^ 2 - 2 y_63_ * y_53_ + 1 y_63_ ^ 2 ] <= 1656.4
quadratic_ranged_266_ub: [ 1 x_62_ ^ 2 - 2 x_63_ * x_62_ + 1 x_63_ ^ 2 + 1 y_62_ ^ 2 - 2 y_63_ * y_62_ + 1 y_63_ ^ 2 ] <= 1629.13
quadratic_ranged_267_ub: [ 1 x_6_ ^ 2 - 2 x_64_ * x_6_ + 1 x_64_ ^ 2 + 1 y_6_ ^ 2 - 2 y_64_ * y_6_ + 1 y_64_ ^ 2 ] <= 6755.89
quadratic_ranged_268_ub: [ 1 x_10_ ^ 2 - 2 x_64_ * x_10_ + 1 x_64_ ^ 2 + 1 y_10_ ^ 2 - 2 y_64_ * y_10_ + 1 y_64_ ^ 2 ] <= 24657.13
quadratic_ranged_269_ub: [ 1 x_15_ ^ 2 - 2 x_64_ * x_15_ + 1 x_64_ ^ 2 + 1 y_15_ ^ 2 - 2 y_64_ * y_15_ + 1 y_64_ ^ 2 ] <= 13736
quadratic_ranged_270_ub: [ 1 x_25_ ^ 2 - 2 x_64_ * x_25_ + 1 x_64_ ^ 2 + 1 y_25_ ^ 2 - 2 y_64_ * y_25_ + 1 y_64_ ^ 2 ] <= 32716.93
quadratic_ranged_271_ub: [ 1 x_42_ ^ 2 - 2 x_64_ * x_42_ + 1 x_64_ ^ 2 + 1 y_42_ ^ 2 - 2 y_64_ * y_42_ + 1 y_64_ ^ 2 ] <= 131.3
quadratic_ranged_272_ub: [ 1 x_63_ ^ 2 - 2 x_64_ * x_63_ + 1 x_64_ ^ 2 + 1 y_63_ ^ 2 - 2 y_64_ * y_63_ + 1 y_64_ ^ 2 ] <= 16547.84
quadratic_ranged_273_ub: [ 1 x_7_ ^ 2 - 2 x_65_ * x_7_ + 1 x_65_ ^ 2 + 1 y_7_ ^ 2 - 2 y_65_ * y_7_ + 1 y_65_ ^ 2 ] <= 3022.93
quadratic_ranged_274_ub: [ 1 x_12_ ^ 2 - 2 x_65_ * x_12_ + 1 x_65_ ^ 2 + 1 y_12_ ^ 2 - 2 y_65_ * y_12_ + 1 y_65_ ^ 2 ] <= 14136.97
quadratic_ranged_275_ub: [ 1 x_18_ ^ 2 - 2 x_65_ * x_18_ + 1 x_65_ ^ 2 + 1 y_18_ ^ 2 - 2 y_65_ * y_18_ + 1 y_65_ ^ 2 ] <= 10724.18
quadratic_ranged_276_ub: [ 1 x_21_ ^ 2 - 2 x_65_ * x_21_ + 1 x_65_ ^ 2 + 1 y_21_ ^ 2 - 2 y_65_ * y_21_ + 1 y_65_ ^ 2 ] <= 11481.68
quadratic_ranged_277_ub: [ 1 x_45_ ^ 2 - 2 x_65_ * x_45_ + 1 x_65_ ^ 2 + 1 y_45_ ^ 2 - 2 y_65_ * y_45_ + 1 y_65_ ^ 2 ] <= 18168.89
quadratic_ranged_278_ub: [ 1 x_55_ ^ 2 - 2 x_65_ * x_55_ + 1 x_65_ ^ 2 + 1 y_55_ ^ 2 - 2 y_65_ * y_55_ + 1 y_65_ ^ 2 ] <= 13894.57
quadratic_ranged_279_ub: [ 1 x_56_ ^ 2 - 2 x_65_ * x_56_ + 1 x_65_ ^ 2 + 1 y_56_ ^ 2 - 2 y_65_ * y_56_ + 1 y_65_ ^ 2 ] <= 5052.02
quadratic_ranged_280_ub: [ 1 x_64_ ^ 2 - 2 x_65_ * x_64_ + 1 x_65_ ^ 2 + 1 y_64_ ^ 2 - 2 y_65_ * y_64_ + 1 y_65_ ^ 2 ] <= 15381.29
quadratic_ranged_281_ub: [ 1 x_15_ ^ 2 - 2 x_66_ * x_15_ + 1 x_66_ ^ 2 + 1 y_15_ ^ 2 - 2 y_66_ * y_15_ + 1 y_66_ ^ 2 ] <= 640.34
quadratic_ranged_282_ub: [ 1 x_18_ ^ 2 - 2 x_66_ * x_18_ + 1 x_66_ ^ 2 + 1 y_18_ ^ 2 - 2 y_66_ * y_18_ + 1 y_66_ ^ 2 ] <= 12448.25
quadratic_ranged_283_ub: [ 1 x_26_ ^ 2 - 2 x_66_ * x_26_ + 1 x_66_ ^ 2 + 1 y_26_ ^ 2 - 2 y_66_ * y_26_ + 1 y_66_ ^ 2 ] <= 18818.32
quadratic_ranged_284_ub: [ 1 x_58_ ^ 2 - 2 x_66_ * x_58_ + 1 x_66_ ^ 2 + 1 y_58_ ^ 2 - 2 y_66_ * y_58_ + 1 y_66_ ^ 2 ] <= 12036.17
quadratic_ranged_285_ub: [ 1 x_65_ ^ 2 - 2 x_66_ * x_65_ + 1 x_66_ ^ 2 + 1 y_65_ ^ 2 - 2 y_66_ * y_65_ + 1 y_66_ ^ 2 ] <= 20718.13
quadratic_ranged_286_ub: [ 1 x_7_ ^ 2 - 2 x_67_ * x_7_ + 1 x_67_ ^ 2 + 1 y_7_ ^ 2 - 2 y_67_ * y_7_ + 1 y_67_ ^ 2 ] <= 6530.66
quadratic_ranged_287_ub: [ 1 x_19_ ^ 2 - 2 x_67_ * x_19_ + 1 x_67_ ^ 2 + 1 y_19_ ^ 2 - 2 y_67_ * y_19_ + 1 y_67_ ^ 2 ] <= 1125.14
quadratic_ranged_288_ub: [ 1 x_22_ ^ 2 - 2 x_67_ * x_22_ + 1 x_67_ ^ 2 + 1 y_22_ ^ 2 - 2 y_67_ * y_22_ + 1 y_67_ ^ 2 ] <= 20083.85
quadratic_ranged_289_ub: [ 1 x_32_ ^ 2 - 2 x_67_ * x_32_ + 1 x_67_ ^ 2 + 1 y_32_ ^ 2 - 2 y_67_ * y_32_ + 1 y_67_ ^ 2 ] <= 13907.7
quadratic_ranged_290_ub: [ 1 x_36_ ^ 2 - 2 x_67_ * x_36_ + 1 x_67_ ^ 2 + 1 y_36_ ^ 2 - 2 y_67_ * y_36_ + 1 y_67_ ^ 2 ] <= 22472.5
quadratic_ranged_291_ub: [ 1 x_46_ ^ 2 - 2 x_67_ * x_46_ + 1 x_67_ ^ 2 + 1 y_46_ ^ 2 - 2 y_67_ * y_46_ + 1 y_67_ ^ 2 ] <= 3540.05
quadratic_ranged_292_ub: [ 1 x_51_ ^ 2 - 2 x_67_ * x_51_ + 1 x_67_ ^ 2 + 1 y_51_ ^ 2 - 2 y_67_ * y_51_ + 1 y_67_ ^ 2 ] <= 23957.2
quadratic_ranged_293_ub: [ 1 x_52_ ^ 2 - 2 x_67_ * x_52_ + 1 x_67_ ^ 2 + 1 y_52_ ^ 2 - 2 y_67_ * y_52_ + 1 y_67_ ^ 2 ] <= 5313.61
quadratic_ranged_294_ub: [ 1 x_57_ ^ 2 - 2 x_67_ * x_57_ + 1 x_67_ ^ 2 + 1 y_57_ ^ 2 - 2 y_67_ * y_57_ + 1 y_67_ ^ 2 ] <= 4073.33
quadratic_ranged_295_ub: [ 1 x_65_ ^ 2 - 2 x_67_ * x_65_ + 1 x_67_ ^ 2 + 1 y_65_ ^ 2 - 2 y_67_ * y_65_ + 1 y_67_ ^ 2 ] <= 3661.25
quadratic_ranged_296_ub: [ 1 x_66_ ^ 2 - 2 x_67_ * x_66_ + 1 x_67_ ^ 2 + 1 y_66_ ^ 2 - 2 y_67_ * y_66_ + 1 y_67_ ^ 2 ] <= 18426.44
quadratic_ranged_297_ub: [ 1 x_17_ ^ 2 - 2 x_68_ * x_17_ + 1 x_68_ ^ 2 + 1 y_17_ ^ 2 - 2 y_68_ * y_17_ + 1 y_68_ ^ 2 ] <= 19316.25
quadratic_ranged_298_ub: [ 1 x_22_ ^ 2 - 2 x_68_ * x_22_ + 1 x_68_ ^ 2 + 1 y_22_ ^ 2 - 2 y_68_ * y_22_ + 1 y_68_ ^ 2 ] <= 10735.29
quadratic_ranged_299_ub: [ 1 x_25_ ^ 2 - 2 x_68_ * x_25_ + 1 x_68_ ^ 2 + 1 y_25_ ^ 2 - 2 y_68_ * y_25_ + 1 y_68_ ^ 2 ] <= 15817.61
quadratic_ranged_300_ub: [ 1 x_60_ ^ 2 - 2 x_68_ * x_60_ + 1 x_68_ ^ 2 + 1 y_60_ ^ 2 - 2 y_68_ * y_60_ + 1 y_68_ ^ 2 ] <= 13837
quadratic_ranged_301_ub: [ 1 x_67_ ^ 2 - 2 x_68_ * x_67_ + 1 x_68_ ^ 2 + 1 y_67_ ^ 2 - 2 y_68_ * y_67_ + 1 y_68_ ^ 2 ] <= 6161
quadratic_ranged_302_ub: [ 1 x_5_ ^ 2 - 2 x_69_ * x_5_ + 1 x_69_ ^ 2 + 1 y_5_ ^ 2 - 2 y_69_ * y_5_ + 1 y_69_ ^ 2 ] <= 8775.89
quadratic_ranged_303_ub: [ 1 x_11_ ^ 2 - 2 x_69_ * x_11_ + 1 x_69_ ^ 2 + 1 y_11_ ^ 2 - 2 y_69_ * y_11_ + 1 y_69_ ^ 2 ] <= 4706.6
quadratic_ranged_304_ub: [ 1 x_18_ ^ 2 - 2 x_69_ * x_18_ + 1 x_69_ ^ 2 + 1 y_18_ ^ 2 - 2 y_69_ * y_18_ + 1 y_69_ ^ 2 ] <= 11042.33
quadratic_ranged_305_ub: [ 1 x_33_ ^ 2 - 2 x_69_ * x_33_ + 1 x_69_ ^ 2 + 1 y_33_ ^ 2 - 2 y_69_ * y_33_ + 1 y_69_ ^ 2 ] <= 5964.05
quadratic_ranged_306_ub: [ 1 x_56_ ^ 2 - 2 x_69_ * x_56_ + 1 x_69_ ^ 2 + 1 y_56_ ^ 2 - 2 y_69_ * y_56_ + 1 y_69_ ^ 2 ] <= 42178.61
quadratic_ranged_307_ub: [ 1 x_60_ ^ 2 - 2 x_69_ * x_60_ + 1 x_69_ ^ 2 + 1 y_60_ ^ 2 - 2 y_69_ * y_60_ + 1 y_69_ ^ 2 ] <= 3662.26
quadratic_ranged_308_ub: [ 1 x_62_ ^ 2 - 2 x_69_ * x_62_ + 1 x_69_ ^ 2 + 1 y_62_ ^ 2 - 2 y_69_ * y_62_ + 1 y_69_ ^ 2 ] <= 9688.93
quadratic_ranged_309_ub: [ 1 x_63_ ^ 2 - 2 x_69_ * x_63_ + 1 x_69_ ^ 2 + 1 y_63_ ^ 2 - 2 y_69_ * y_63_ + 1 y_69_ ^ 2 ] <= 17489.16
quadratic_ranged_310_ub: [ 1 x_68_ ^ 2 - 2 x_69_ * x_68_ + 1 x_69_ ^ 2 + 1 y_68_ ^ 2 - 2 y_69_ * y_68_ + 1 y_69_ ^ 2 ] <= 30762.58
quadratic_ranged_311_ub: [ 1 x_15_ ^ 2 - 2 x_70_ * x_15_ + 1 x_70_ ^ 2 + 1 y_15_ ^ 2 - 2 y_70_ * y_15_ + 1 y_70_ ^ 2 ] <= 4040
quadratic_ranged_312_ub: [ 1 x_28_ ^ 2 - 2 x_70_ * x_28_ + 1 x_70_ ^ 2 + 1 y_28_ ^ 2 - 2 y_70_ * y_28_ + 1 y_70_ ^ 2 ] <= 8170.9
quadratic_ranged_313_ub: [ 1 x_29_ ^ 2 - 2 x_70_ * x_29_ + 1 x_70_ ^ 2 + 1 y_29_ ^ 2 - 2 y_70_ * y_29_ + 1 y_70_ ^ 2 ] <= 5728.72
quadratic_ranged_314_ub: [ 1 x_41_ ^ 2 - 2 x_70_ * x_41_ + 1 x_70_ ^ 2 + 1 y_41_ ^ 2 - 2 y_70_ * y_41_ + 1 y_70_ ^ 2 ] <= 10384.82
quadratic_ranged_315_ub: [ 1 x_54_ ^ 2 - 2 x_70_ * x_54_ + 1 x_70_ ^ 2 + 1 y_54_ ^ 2 - 2 y_70_ * y_54_ + 1 y_70_ ^ 2 ] <= 3834.9700000000003
quadratic_ranged_316_ub: [ 1 x_58_ ^ 2 - 2 x_70_ * x_58_ + 1 x_70_ ^ 2 + 1 y_58_ ^ 2 - 2 y_70_ * y_58_ + 1 y_70_ ^ 2 ] <= 4606.61
quadratic_ranged_317_ub: [ 1 x_67_ ^ 2 - 2 x_70_ * x_67_ + 1 x_70_ ^ 2 + 1 y_67_ ^ 2 - 2 y_70_ * y_67_ + 1 y_70_ ^ 2 ] <= 2401.78
quadratic_ranged_318_ub: [ 1 x_69_ ^ 2 - 2 x_70_ * x_69_ + 1 x_70_ ^ 2 + 1 y_69_ ^ 2 - 2 y_70_ * y_69_ + 1 y_70_ ^ 2 ] <= 6565
quadratic_ranged_319_ub: [ 1 x_19_ ^ 2 - 2 x_71_ * x_19_ + 1 x_71_ ^ 2 + 1 y_19_ ^ 2 - 2 y_71_ * y_19_ + 1 y_71_ ^ 2 ] <= 8113.33
quadratic_ranged_320_ub: [ 1 x_29_ ^ 2 - 2 x_71_ * x_29_ + 1 x_71_ ^ 2 + 1 y_29_ ^ 2 - 2 y_71_ * y_29_ + 1 y_71_ ^ 2 ] <= 8775.89
quadratic_ranged_321_ub: [ 1 x_30_ ^ 2 - 2 x_71_ * x_30_ + 1 x_71_ ^ 2 + 1 y_30_ ^ 2 - 2 y_71_ * y_30_ + 1 y_71_ ^ 2 ] <= 52747.25
quadratic_ranged_322_ub: [ 1 x_31_ ^ 2 - 2 x_71_ * x_31_ + 1 x_71_ ^ 2 + 1 y_31_ ^ 2 - 2 y_71_ * y_31_ + 1 y_71_ ^ 2 ] <= 16569.05
quadratic_ranged_323_ub: [ 1 x_35_ ^ 2 - 2 x_71_ * x_35_ + 1 x_71_ ^ 2 + 1 y_35_ ^ 2 - 2 y_71_ * y_35_ + 1 y_71_ ^ 2 ] <= 11862.45
quadratic_ranged_324_ub: [ 1 x_39_ ^ 2 - 2 x_71_ * x_39_ + 1 x_71_ ^ 2 + 1 y_39_ ^ 2 - 2 y_71_ * y_39_ + 1 y_71_ ^ 2 ] <= 31691.78
quadratic_ranged_325_ub: [ 1 x_45_ ^ 2 - 2 x_71_ * x_45_ + 1 x_71_ ^ 2 + 1 y_45_ ^ 2 - 2 y_71_ * y_45_ + 1 y_71_ ^ 2 ] <= 26733.69
quadratic_ranged_326_ub: [ 1 x_48_ ^ 2 - 2 x_71_ * x_48_ + 1 x_71_ ^ 2 + 1 y_48_ ^ 2 - 2 y_71_ * y_48_ + 1 y_71_ ^ 2 ] <= 1083.73
quadratic_ranged_327_ub: [ 1 x_55_ ^ 2 - 2 x_71_ * x_55_ + 1 x_71_ ^ 2 + 1 y_55_ ^ 2 - 2 y_71_ * y_55_ + 1 y_71_ ^ 2 ] <= 15963.05
quadratic_ranged_328_ub: [ 1 x_60_ ^ 2 - 2 x_71_ * x_60_ + 1 x_71_ ^ 2 + 1 y_60_ ^ 2 - 2 y_71_ * y_60_ + 1 y_71_ ^ 2 ] <= 17841.65
quadratic_ranged_329_ub: [ 1 x_62_ ^ 2 - 2 x_71_ * x_62_ + 1 x_71_ ^ 2 + 1 y_62_ ^ 2 - 2 y_71_ * y_62_ + 1 y_71_ ^ 2 ] <= 9681.86
quadratic_ranged_330_ub: [ 1 x_66_ ^ 2 - 2 x_71_ * x_66_ + 1 x_71_ ^ 2 + 1 y_66_ ^ 2 - 2 y_71_ * y_66_ + 1 y_71_ ^ 2 ] <= 39916.21
quadratic_ranged_331_ub: [ 1 x_70_ ^ 2 - 2 x_71_ * x_70_ + 1 x_71_ ^ 2 + 1 y_70_ ^ 2 - 2 y_71_ * y_70_ + 1 y_71_ ^ 2 ] <= 14864.17
quadratic_ranged_332_ub: [ 1 x_16_ ^ 2 - 2 x_72_ * x_16_ + 1 x_72_ ^ 2 + 1 y_16_ ^ 2 - 2 y_72_ * y_16_ + 1 y_72_ ^ 2 ] <= 14560.16
quadratic_ranged_333_ub: [ 1 x_22_ ^ 2 - 2 x_72_ * x_22_ + 1 x_72_ ^ 2 + 1 y_22_ ^ 2 - 2 y_72_ * y_22_ + 1 y_72_ ^ 2 ] <= 11167.57
quadratic_ranged_334_ub: [ 1 x_66_ ^ 2 - 2 x_72_ * x_66_ + 1 x_72_ ^ 2 + 1 y_66_ ^ 2 - 2 y_72_ * y_66_ + 1 y_72_ ^ 2 ] <= 9348.56
quadratic_ranged_335_ub: [ 1 x_71_ ^ 2 - 2 x_72_ * x_71_ + 1 x_72_ ^ 2 + 1 y_71_ ^ 2 - 2 y_72_ * y_71_ + 1 y_72_ ^ 2 ] <= 10702.97
quadratic_ranged_336_ub: [ 1 x_4_ ^ 2 - 2 x_73_ * x_4_ + 1 x_73_ ^ 2 + 1 y_4_ ^ 2 - 2 y_73_ * y_4_ + 1 y_73_ ^ 2 ] <= 46347.89
quadratic_ranged_337_ub: [ 1 x_15_ ^ 2 - 2 x_73_ * x_15_ + 1 x_73_ ^ 2 + 1 y_15_ ^ 2 - 2 y_73_ * y_15_ + 1 y_73_ ^ 2 ] <= 4464.2
quadratic_ranged_338_ub: [ 1 x_29_ ^ 2 - 2 x_73_ * x_29_ + 1 x_73_ ^ 2 + 1 y_29_ ^ 2 - 2 y_73_ * y_29_ + 1 y_73_ ^ 2 ] <= 41228.2
quadratic_ranged_339_ub: [ 1 x_58_ ^ 2 - 2 x_73_ * x_58_ + 1 x_73_ ^ 2 + 1 y_58_ ^ 2 - 2 y_73_ * y_58_ + 1 y_73_ ^ 2 ] <= 21501.89
quadratic_ranged_340_ub: [ 1 x_61_ ^ 2 - 2 x_73_ * x_61_ + 1 x_73_ ^ 2 + 1 y_61_ ^ 2 - 2 y_73_ * y_61_ + 1 y_73_ ^ 2 ] <= 5050
quadratic_ranged_341_ub: [ 1 x_72_ ^ 2 - 2 x_73_ * x_72_ + 1 x_73_ ^ 2 + 1 y_72_ ^ 2 - 2 y_73_ * y_72_ + 1 y_73_ ^ 2 ] <= 19208.18
quadratic_ranged_342_ub: [ 1 x_1_ ^ 2 - 2 x_74_ * x_1_ + 1 x_74_ ^ 2 + 1 y_1_ ^ 2 - 2 y_74_ * y_1_ + 1 y_74_ ^ 2 ] <= 1717
quadratic_ranged_343_ub: [ 1 x_16_ ^ 2 - 2 x_74_ * x_16_ + 1 x_74_ ^ 2 + 1 y_16_ ^ 2 - 2 y_74_ * y_16_ + 1 y_74_ ^ 2 ] <= 14675.3
quadratic_ranged_344_ub: [ 1 x_20_ ^ 2 - 2 x_74_ * x_20_ + 1 x_74_ ^ 2 + 1 y_20_ ^ 2 - 2 y_74_ * y_20_ + 1 y_74_ ^ 2 ] <= 7761.85
quadratic_ranged_345_ub: [ 1 x_27_ ^ 2 - 2 x_74_ * x_27_ + 1 x_74_ ^ 2 + 1 y_27_ ^ 2 - 2 y_74_ * y_27_ + 1 y_74_ ^ 2 ] <= 9155.65
quadratic_ranged_346_ub: [ 1 x_32_ ^ 2 - 2 x_74_ * x_32_ + 1 x_74_ ^ 2 + 1 y_32_ ^ 2 - 2 y_74_ * y_32_ + 1 y_74_ ^ 2 ] <= 323.2
quadratic_ranged_347_ub: [ 1 x_34_ ^ 2 - 2 x_74_ * x_34_ + 1 x_74_ ^ 2 + 1 y_34_ ^ 2 - 2 y_74_ * y_34_ + 1 y_74_ ^ 2 ] <= 2272.5
quadratic_ranged_348_ub: [ 1 x_46_ ^ 2 - 2 x_74_ * x_46_ + 1 x_74_ ^ 2 + 1 y_46_ ^ 2 - 2 y_74_ * y_46_ + 1 y_74_ ^ 2 ] <= 29577.85
quadratic_ranged_349_ub: [ 1 x_48_ ^ 2 - 2 x_74_ * x_48_ + 1 x_74_ ^ 2 + 1 y_48_ ^ 2 - 2 y_74_ * y_48_ + 1 y_74_ ^ 2 ] <= 27320.5
quadratic_ranged_350_ub: [ 1 x_50_ ^ 2 - 2 x_74_ * x_50_ + 1 x_74_ ^ 2 + 1 y_50_ ^ 2 - 2 y_74_ * y_50_ + 1 y_74_ ^ 2 ] <= 294.92
quadratic_ranged_351_ub: [ 1 x_73_ ^ 2 - 2 x_74_ * x_73_ + 1 x_74_ ^ 2 + 1 y_73_ ^ 2 - 2 y_74_ * y_73_ + 1 y_74_ ^ 2 ] <= 3833.96
quadratic_ranged_352_ub: [ 1 x_15_ ^ 2 - 2 x_75_ * x_15_ + 1 x_75_ ^ 2 + 1 y_15_ ^ 2 - 2 y_75_ * y_15_ + 1 y_75_ ^ 2 ] <= 1545.3
quadratic_ranged_353_ub: [ 1 x_22_ ^ 2 - 2 x_75_ * x_22_ + 1 x_75_ ^ 2 + 1 y_22_ ^ 2 - 2 y_75_ * y_22_ + 1 y_75_ ^ 2 ] <= 14403.61
quadratic_ranged_354_ub: [ 1 x_27_ ^ 2 - 2 x_75_ * x_27_ + 1 x_75_ ^ 2 + 1 y_27_ ^ 2 - 2 y_75_ * y_27_ + 1 y_75_ ^ 2 ] <= 12525.01
quadratic_ranged_355_ub: [ 1 x_49_ ^ 2 - 2 x_75_ * x_49_ + 1 x_75_ ^ 2 + 1 y_49_ ^ 2 - 2 y_75_ * y_49_ + 1 y_75_ ^ 2 ] <= 27781.06
quadratic_ranged_356_ub: [ 1 x_51_ ^ 2 - 2 x_75_ * x_51_ + 1 x_75_ ^ 2 + 1 y_51_ ^ 2 - 2 y_75_ * y_51_ + 1 y_75_ ^ 2 ] <= 2040.2
quadratic_ranged_357_ub: [ 1 x_53_ ^ 2 - 2 x_75_ * x_53_ + 1 x_75_ ^ 2 + 1 y_53_ ^ 2 - 2 y_75_ * y_53_ + 1 y_75_ ^ 2 ] <= 9253.62
quadratic_ranged_358_ub: [ 1 x_61_ ^ 2 - 2 x_75_ * x_61_ + 1 x_75_ ^ 2 + 1 y_61_ ^ 2 - 2 y_75_ * y_61_ + 1 y_75_ ^ 2 ] <= 1141.3
quadratic_ranged_359_ub: [ 1 x_63_ ^ 2 - 2 x_75_ * x_63_ + 1 x_75_ ^ 2 + 1 y_63_ ^ 2 - 2 y_75_ * y_63_ + 1 y_75_ ^ 2 ] <= 12534.1
quadratic_ranged_360_ub: [ 1 x_74_ ^ 2 - 2 x_75_ * x_74_ + 1 x_75_ ^ 2 + 1 y_74_ ^ 2 - 2 y_75_ * y_74_ + 1 y_75_ ^ 2 ] <= 527.22
quadratic_ranged_361_ub: [ 1 x_11_ ^ 2 - 2 x_76_ * x_11_ + 1 x_76_ ^ 2 + 1 y_11_ ^ 2 - 2 y_76_ * y_11_ + 1 y_76_ ^ 2 ] <= 17212.420000000002
quadratic_ranged_362_ub: [ 1 x_15_ ^ 2 - 2 x_76_ * x_15_ + 1 x_76_ ^ 2 + 1 y_15_ ^ 2 - 2 y_76_ * y_15_ + 1 y_76_ ^ 2 ] <= 30851.46
quadratic_ranged_363_ub: [ 1 x_20_ ^ 2 - 2 x_76_ * x_20_ + 1 x_76_ ^ 2 + 1 y_20_ ^ 2 - 2 y_76_ * y_20_ + 1 y_76_ ^ 2 ] <= 23626.93
quadratic_ranged_364_ub: [ 1 x_23_ ^ 2 - 2 x_76_ * x_23_ + 1 x_76_ ^ 2 + 1 y_23_ ^ 2 - 2 y_76_ * y_23_ + 1 y_76_ ^ 2 ] <= 12302.81
quadratic_ranged_365_ub: [ 1 x_25_ ^ 2 - 2 x_76_ * x_25_ + 1 x_76_ ^ 2 + 1 y_25_ ^ 2 - 2 y_76_ * y_25_ + 1 y_76_ ^ 2 ] <= 11357.45
quadratic_ranged_366_ub: [ 1 x_26_ ^ 2 - 2 x_76_ * x_26_ + 1 x_76_ ^ 2 + 1 y_26_ ^ 2 - 2 y_76_ * y_26_ + 1 y_76_ ^ 2 ] <= 8504.2
quadratic_ranged_367_ub: [ 1 x_33_ ^ 2 - 2 x_76_ * x_33_ + 1 x_76_ ^ 2 + 1 y_33_ ^ 2 - 2 y_76_ * y_33_ + 1 y_76_ ^ 2 ] <= 14852.05
quadratic_ranged_368_ub: [ 1 x_50_ ^ 2 - 2 x_76_ * x_50_ + 1 x_76_ ^ 2 + 1 y_50_ ^ 2 - 2 y_76_ * y_50_ + 1 y_76_ ^ 2 ] <= 30600.98
quadratic_ranged_369_ub: [ 1 x_51_ ^ 2 - 2 x_76_ * x_51_ + 1 x_76_ ^ 2 + 1 y_51_ ^ 2 - 2 y_76_ * y_51_ + 1 y_76_ ^ 2 ] <= 40957.52
quadratic_ranged_370_ub: [ 1 x_75_ ^ 2 - 2 x_76_ * x_75_ + 1 x_76_ ^ 2 + 1 y_75_ ^ 2 - 2 y_76_ * y_75_ + 1 y_76_ ^ 2 ] <= 30724.2
quadratic_ranged_371_ub: [ 1 x_5_ ^ 2 - 2 x_77_ * x_5_ + 1 x_77_ ^ 2 + 1 y_5_ ^ 2 - 2 y_77_ * y_5_ + 1 y_77_ ^ 2 ] <= 32388.68
quadratic_ranged_372_ub: [ 1 x_12_ ^ 2 - 2 x_77_ * x_12_ + 1 x_77_ ^ 2 + 1 y_12_ ^ 2 - 2 y_77_ * y_12_ + 1 y_77_ ^ 2 ] <= 25113.65
quadratic_ranged_373_ub: [ 1 x_38_ ^ 2 - 2 x_77_ * x_38_ + 1 x_77_ ^ 2 + 1 y_38_ ^ 2 - 2 y_77_ * y_38_ + 1 y_77_ ^ 2 ] <= 38772.89
quadratic_ranged_374_ub: [ 1 x_39_ ^ 2 - 2 x_77_ * x_39_ + 1 x_77_ ^ 2 + 1 y_39_ ^ 2 - 2 y_77_ * y_39_ + 1 y_77_ ^ 2 ] <= 38024.48
quadratic_ranged_375_ub: [ 1 x_45_ ^ 2 - 2 x_77_ * x_45_ + 1 x_77_ ^ 2 + 1 y_45_ ^ 2 - 2 y_77_ * y_45_ + 1 y_77_ ^ 2 ] <= 32951.25
quadratic_ranged_376_ub: [ 1 x_49_ ^ 2 - 2 x_77_ * x_49_ + 1 x_77_ ^ 2 + 1 y_49_ ^ 2 - 2 y_77_ * y_49_ + 1 y_77_ ^ 2 ] <= 1019.09
quadratic_ranged_377_ub: [ 1 x_55_ ^ 2 - 2 x_77_ * x_55_ + 1 x_77_ ^ 2 + 1 y_55_ ^ 2 - 2 y_77_ * y_55_ + 1 y_77_ ^ 2 ] <= 19259.69
quadratic_ranged_378_ub: [ 1 x_63_ ^ 2 - 2 x_77_ * x_63_ + 1 x_77_ ^ 2 + 1 y_63_ ^ 2 - 2 y_77_ * y_63_ + 1 y_77_ ^ 2 ] <= 7418.45
quadratic_ranged_379_ub: [ 1 x_65_ ^ 2 - 2 x_77_ * x_65_ + 1 x_77_ ^ 2 + 1 y_65_ ^ 2 - 2 y_77_ * y_65_ + 1 y_77_ ^ 2 ] <= 7039.7
quadratic_ranged_380_ub: [ 1 x_70_ ^ 2 - 2 x_77_ * x_70_ + 1 x_77_ ^ 2 + 1 y_70_ ^ 2 - 2 y_77_ * y_70_ + 1 y_77_ ^ 2 ] <= 21251.41
quadratic_ranged_381_ub: [ 1 x_71_ ^ 2 - 2 x_77_ * x_71_ + 1 x_77_ ^ 2 + 1 y_71_ ^ 2 - 2 y_77_ * y_71_ + 1 y_77_ ^ 2 ] <= 672.66
quadratic_ranged_382_ub: [ 1 x_76_ ^ 2 - 2 x_77_ * x_76_ + 1 x_77_ ^ 2 + 1 y_76_ ^ 2 - 2 y_77_ * y_76_ + 1 y_77_ ^ 2 ] <= 2146.25
quadratic_ranged_383_ub: [ 1 x_7_ ^ 2 - 2 x_78_ * x_7_ + 1 x_78_ ^ 2 + 1 y_7_ ^ 2 - 2 y_78_ * y_7_ + 1 y_78_ ^ 2 ] <= 20692.88
quadratic_ranged_384_ub: [ 1 x_28_ ^ 2 - 2 x_78_ * x_28_ + 1 x_78_ ^ 2 + 1 y_28_ ^ 2 - 2 y_78_ * y_28_ + 1 y_78_ ^ 2 ] <= 9528.34
quadratic_ranged_385_ub: [ 1 x_37_ ^ 2 - 2 x_78_ * x_37_ + 1 x_78_ ^ 2 + 1 y_37_ ^ 2 - 2 y_78_ * y_37_ + 1 y_78_ ^ 2 ] <= 36004.48
quadratic_ranged_386_ub: [ 1 x_40_ ^ 2 - 2 x_78_ * x_40_ + 1 x_78_ ^ 2 + 1 y_40_ ^ 2 - 2 y_78_ * y_40_ + 1 y_78_ ^ 2 ] <= 13732.97
quadratic_ranged_387_ub: [ 1 x_45_ ^ 2 - 2 x_78_ * x_45_ + 1 x_78_ ^ 2 + 1 y_45_ ^ 2 - 2 y_78_ * y_45_ + 1 y_78_ ^ 2 ] <= 36343.840000000004
quadratic_ranged_388_ub: [ 1 x_76_ ^ 2 - 2 x_78_ * x_76_ + 1 x_78_ ^ 2 + 1 y_76_ ^ 2 - 2 y_78_ * y_76_ + 1 y_78_ ^ 2 ] <= 28249.7
quadratic_ranged_389_ub: [ 1 x_77_ ^ 2 - 2 x_78_ * x_77_ + 1 x_78_ ^ 2 + 1 y_77_ ^ 2 - 2 y_78_ * y_77_ + 1 y_78_ ^ 2 ] <= 28547.65
quadratic_ranged_390_ub: [ 1 x_4_ ^ 2 - 2 x_79_ * x_4_ + 1 x_79_ ^ 2 + 1 y_4_ ^ 2 - 2 y_79_ * y_4_ + 1 y_79_ ^ 2 ] <= 7195.24
quadratic_ranged_391_ub: [ 1 x_15_ ^ 2 - 2 x_79_ * x_15_ + 1 x_79_ ^ 2 + 1 y_15_ ^ 2 - 2 y_79_ * y_15_ + 1 y_79_ ^ 2 ] <= 5640.85
quadratic_ranged_392_ub: [ 1 x_29_ ^ 2 - 2 x_79_ * x_29_ + 1 x_79_ ^ 2 + 1 y_29_ ^ 2 - 2 y_79_ * y_29_ + 1 y_79_ ^ 2 ] <= 4004.65
quadratic_ranged_393_ub: [ 1 x_30_ ^ 2 - 2 x_79_ * x_30_ + 1 x_79_ ^ 2 + 1 y_30_ ^ 2 - 2 y_79_ * y_30_ + 1 y_79_ ^ 2 ] <= 15761.05
quadratic_ranged_394_ub: [ 1 x_32_ ^ 2 - 2 x_79_ * x_32_ + 1 x_79_ ^ 2 + 1 y_32_ ^ 2 - 2 y_79_ * y_32_ + 1 y_79_ ^ 2 ] <= 6392.29
quadratic_ranged_395_ub: [ 1 x_54_ ^ 2 - 2 x_79_ * x_54_ + 1 x_79_ ^ 2 + 1 y_54_ ^ 2 - 2 y_79_ * y_54_ + 1 y_79_ ^ 2 ] <= 4979.3
quadratic_ranged_396_ub: [ 1 x_58_ ^ 2 - 2 x_79_ * x_58_ + 1 x_79_ ^ 2 + 1 y_58_ ^ 2 - 2 y_79_ * y_58_ + 1 y_79_ ^ 2 ] <= 9195.04
quadratic_ranged_397_ub: [ 1 x_60_ ^ 2 - 2 x_79_ * x_60_ + 1 x_79_ ^ 2 + 1 y_60_ ^ 2 - 2 y_79_ * y_60_ + 1 y_79_ ^ 2 ] <= 2671.45
quadratic_ranged_398_ub: [ 1 x_62_ ^ 2 - 2 x_79_ * x_62_ + 1 x_79_ ^ 2 + 1 y_62_ ^ 2 - 2 y_79_ * y_62_ + 1 y_79_ ^ 2 ] <= 6958.9
quadratic_ranged_399_ub: [ 1 x_66_ ^ 2 - 2 x_79_ * x_66_ + 1 x_79_ ^ 2 + 1 y_66_ ^ 2 - 2 y_79_ * y_66_ + 1 y_79_ ^ 2 ] <= 10064.65
quadratic_ranged_400_ub: [ 1 x_68_ ^ 2 - 2 x_79_ * x_68_ + 1 x_79_ ^ 2 + 1 y_68_ ^ 2 - 2 y_79_ * y_68_ + 1 y_79_ ^ 2 ] <= 15114.65
quadratic_ranged_401_ub: [ 1 x_78_ ^ 2 - 2 x_79_ * x_78_ + 1 x_79_ ^ 2 + 1 y_78_ ^ 2 - 2 y_79_ * y_78_ + 1 y_79_ ^ 2 ] <= 22059.41
quadratic_ranged_402_ub: [ 1 x_4_ ^ 2 - 2 x_80_ * x_4_ + 1 x_80_ ^ 2 + 1 y_4_ ^ 2 - 2 y_80_ * y_4_ + 1 y_80_ ^ 2 ] <= 14796.5
quadratic_ranged_403_ub: [ 1 x_6_ ^ 2 - 2 x_80_ * x_6_ + 1 x_80_ ^ 2 + 1 y_6_ ^ 2 - 2 y_80_ * y_6_ + 1 y_80_ ^ 2 ] <= 4334.92
quadratic_ranged_404_ub: [ 1 x_15_ ^ 2 - 2 x_80_ * x_15_ + 1 x_80_ ^ 2 + 1 y_15_ ^ 2 - 2 y_80_ * y_15_ + 1 y_80_ ^ 2 ] <= 2873.45
quadratic_ranged_405_ub: [ 1 x_42_ ^ 2 - 2 x_80_ * x_42_ + 1 x_80_ ^ 2 + 1 y_42_ ^ 2 - 2 y_80_ * y_42_ + 1 y_80_ ^ 2 ] <= 6683.17
quadratic_ranged_406_ub: [ 1 x_52_ ^ 2 - 2 x_80_ * x_52_ + 1 x_80_ ^ 2 + 1 y_52_ ^ 2 - 2 y_80_ * y_52_ + 1 y_80_ ^ 2 ] <= 995.86
quadratic_ranged_407_ub: [ 1 x_53_ ^ 2 - 2 x_80_ * x_53_ + 1 x_80_ ^ 2 + 1 y_53_ ^ 2 - 2 y_80_ * y_53_ + 1 y_80_ ^ 2 ] <= 4339.97
quadratic_ranged_408_ub: [ 1 x_63_ ^ 2 - 2 x_80_ * x_63_ + 1 x_80_ ^ 2 + 1 y_63_ ^ 2 - 2 y_80_ * y_63_ + 1 y_80_ ^ 2 ] <= 6113.53
quadratic_ranged_409_ub: [ 1 x_70_ ^ 2 - 2 x_80_ * x_70_ + 1 x_80_ ^ 2 + 1 y_70_ ^ 2 - 2 y_80_ * y_70_ + 1 y_80_ ^ 2 ] <= 2429.05
quadratic_ranged_410_ub: [ 1 x_79_ ^ 2 - 2 x_80_ * x_79_ + 1 x_80_ ^ 2 + 1 y_79_ ^ 2 - 2 y_80_ * y_79_ + 1 y_80_ ^ 2 ] <= 5916.58
quadratic_ranged_411_ub: [ 1 x_14_ ^ 2 - 2 x_81_ * x_14_ + 1 x_81_ ^ 2 + 1 y_14_ ^ 2 - 2 y_81_ * y_14_ + 1 y_81_ ^ 2 ] <= 25033.86
quadratic_ranged_412_ub: [ 1 x_28_ ^ 2 - 2 x_81_ * x_28_ + 1 x_81_ ^ 2 + 1 y_28_ ^ 2 - 2 y_81_ * y_28_ + 1 y_81_ ^ 2 ] <= 34210.72
quadratic_ranged_413_ub: [ 1 x_57_ ^ 2 - 2 x_81_ * x_57_ + 1 x_81_ ^ 2 + 1 y_57_ ^ 2 - 2 y_81_ * y_57_ + 1 y_81_ ^ 2 ] <= 44372.33
quadratic_ranged_414_ub: [ 1 x_67_ ^ 2 - 2 x_81_ * x_67_ + 1 x_81_ ^ 2 + 1 y_67_ ^ 2 - 2 y_81_ * y_67_ + 1 y_81_ ^ 2 ] <= 28902.16
quadratic_ranged_415_ub: [ 1 x_76_ ^ 2 - 2 x_81_ * x_76_ + 1 x_81_ ^ 2 + 1 y_76_ ^ 2 - 2 y_81_ * y_76_ + 1 y_81_ ^ 2 ] <= 53045.2
quadratic_ranged_416_ub: [ 1 x_80_ ^ 2 - 2 x_81_ * x_80_ + 1 x_81_ ^ 2 + 1 y_80_ ^ 2 - 2 y_81_ * y_80_ + 1 y_81_ ^ 2 ] <= 8404.210000000001
quadratic_ranged_417_ub: [ 1 x_5_ ^ 2 - 2 x_82_ * x_5_ + 1 x_82_ ^ 2 + 1 y_5_ ^ 2 - 2 y_82_ * y_5_ + 1 y_82_ ^ 2 ] <= 22547.24
quadratic_ranged_418_ub: [ 1 x_21_ ^ 2 - 2 x_82_ * x_21_ + 1 x_82_ ^ 2 + 1 y_21_ ^ 2 - 2 y_82_ * y_21_ + 1 y_82_ ^ 2 ] <= 23135.06
quadratic_ranged_419_ub: [ 1 x_30_ ^ 2 - 2 x_82_ * x_30_ + 1 x_82_ ^ 2 + 1 y_30_ ^ 2 - 2 y_82_ * y_30_ + 1 y_82_ ^ 2 ] <= 23574.41
quadratic_ranged_420_ub: [ 1 x_34_ ^ 2 - 2 x_82_ * x_34_ + 1 x_82_ ^ 2 + 1 y_34_ ^ 2 - 2 y_82_ * y_34_ + 1 y_82_ ^ 2 ] <= 9418.25
quadratic_ranged_421_ub: [ 1 x_45_ ^ 2 - 2 x_82_ * x_45_ + 1 x_82_ ^ 2 + 1 y_45_ ^ 2 - 2 y_82_ * y_45_ + 1 y_82_ ^ 2 ] <= 29387.97
quadratic_ranged_422_ub: [ 1 x_47_ ^ 2 - 2 x_82_ * x_47_ + 1 x_82_ ^ 2 + 1 y_47_ ^ 2 - 2 y_82_ * y_47_ + 1 y_82_ ^ 2 ] <= 331.28000000000003
quadratic_ranged_423_ub: [ 1 x_62_ ^ 2 - 2 x_82_ * x_62_ + 1 x_82_ ^ 2 + 1 y_62_ ^ 2 - 2 y_82_ * y_62_ + 1 y_82_ ^ 2 ] <= 2076.56
quadratic_ranged_424_ub: [ 1 x_70_ ^ 2 - 2 x_82_ * x_70_ + 1 x_82_ ^ 2 + 1 y_70_ ^ 2 - 2 y_82_ * y_70_ + 1 y_82_ ^ 2 ] <= 10028.29
quadratic_ranged_425_ub: [ 1 x_73_ ^ 2 - 2 x_82_ * x_73_ + 1 x_82_ ^ 2 + 1 y_73_ ^ 2 - 2 y_82_ * y_73_ + 1 y_82_ ^ 2 ] <= 25117.69
quadratic_ranged_426_ub: [ 1 x_80_ ^ 2 - 2 x_82_ * x_80_ + 1 x_82_ ^ 2 + 1 y_80_ ^ 2 - 2 y_82_ * y_80_ + 1 y_82_ ^ 2 ] <= 4706.6
quadratic_ranged_427_ub: [ 1 x_81_ ^ 2 - 2 x_82_ * x_81_ + 1 x_82_ ^ 2 + 1 y_81_ ^ 2 - 2 y_82_ * y_81_ + 1 y_82_ ^ 2 ] <= 21114.05
quadratic_ranged_428_ub: [ 1 x_7_ ^ 2 - 2 x_83_ * x_7_ + 1 x_83_ ^ 2 + 1 y_7_ ^ 2 - 2 y_83_ * y_7_ + 1 y_83_ ^ 2 ] <= 1197.86
quadratic_ranged_429_ub: [ 1 x_13_ ^ 2 - 2 x_83_ * x_13_ + 1 x_83_ ^ 2 + 1 y_13_ ^ 2 - 2 y_83_ * y_13_ + 1 y_83_ ^ 2 ] <= 11160.5
quadratic_ranged_430_ub: [ 1 x_28_ ^ 2 - 2 x_83_ * x_28_ + 1 x_83_ ^ 2 + 1 y_28_ ^ 2 - 2 y_83_ * y_28_ + 1 y_83_ ^ 2 ] <= 1236.24
quadratic_ranged_431_ub: [ 1 x_31_ ^ 2 - 2 x_83_ * x_31_ + 1 x_83_ ^ 2 + 1 y_31_ ^ 2 - 2 y_83_ * y_31_ + 1 y_83_ ^ 2 ] <= 8152.72
quadratic_ranged_432_ub: [ 1 x_45_ ^ 2 - 2 x_83_ * x_45_ + 1 x_83_ ^ 2 + 1 y_45_ ^ 2 - 2 y_83_ * y_45_ + 1 y_83_ ^ 2 ] <= 16291.3
quadratic_ranged_433_ub: [ 1 x_51_ ^ 2 - 2 x_83_ * x_51_ + 1 x_83_ ^ 2 + 1 y_51_ ^ 2 - 2 y_83_ * y_51_ + 1 y_83_ ^ 2 ] <= 26478.16
quadratic_ranged_434_ub: [ 1 x_65_ ^ 2 - 2 x_83_ * x_65_ + 1 x_83_ ^ 2 + 1 y_65_ ^ 2 - 2 y_83_ * y_65_ + 1 y_83_ ^ 2 ] <= 1043.33
quadratic_ranged_435_ub: [ 1 x_82_ ^ 2 - 2 x_83_ * x_82_ + 1 x_83_ ^ 2 + 1 y_82_ ^ 2 - 2 y_83_ * y_82_ + 1 y_83_ ^ 2 ] <= 9313.210000000001
quadratic_ranged_436_ub: [ 1 x_20_ ^ 2 - 2 x_84_ * x_20_ + 1 x_84_ ^ 2 + 1 y_20_ ^ 2 - 2 y_84_ * y_20_ + 1 y_84_ ^ 2 ] <= 13336.04
quadratic_ranged_437_ub: [ 1 x_23_ ^ 2 - 2 x_84_ * x_23_ + 1 x_84_ ^ 2 + 1 y_23_ ^ 2 - 2 y_84_ * y_23_ + 1 y_84_ ^ 2 ] <= 19394.02
quadratic_ranged_438_ub: [ 1 x_55_ ^ 2 - 2 x_84_ * x_55_ + 1 x_84_ ^ 2 + 1 y_55_ ^ 2 - 2 y_84_ * y_55_ + 1 y_84_ ^ 2 ] <= 19906.09
quadratic_ranged_439_ub: [ 1 x_56_ ^ 2 - 2 x_84_ * x_56_ + 1 x_84_ ^ 2 + 1 y_56_ ^ 2 - 2 y_84_ * y_56_ + 1 y_84_ ^ 2 ] <= 19345.54
quadratic_ranged_440_ub: [ 1 x_61_ ^ 2 - 2 x_84_ * x_61_ + 1 x_84_ ^ 2 + 1 y_61_ ^ 2 - 2 y_84_ * y_61_ + 1 y_84_ ^ 2 ] <= 4198.57
quadratic_ranged_441_ub: [ 1 x_72_ ^ 2 - 2 x_84_ * x_72_ + 1 x_84_ ^ 2 + 1 y_72_ ^ 2 - 2 y_84_ * y_72_ + 1 y_84_ ^ 2 ] <= 1540.25
quadratic_ranged_442_ub: [ 1 x_83_ ^ 2 - 2 x_84_ * x_83_ + 1 x_84_ ^ 2 + 1 y_83_ ^ 2 - 2 y_84_ * y_83_ + 1 y_84_ ^ 2 ] <= 9058.69
quadratic_ranged_443_ub: [ 1 x_3_ ^ 2 - 2 x_85_ * x_3_ + 1 x_85_ ^ 2 + 1 y_3_ ^ 2 - 2 y_85_ * y_3_ + 1 y_85_ ^ 2 ] <= 12767.41
quadratic_ranged_444_ub: [ 1 x_30_ ^ 2 - 2 x_85_ * x_30_ + 1 x_85_ ^ 2 + 1 y_30_ ^ 2 - 2 y_85_ * y_30_ + 1 y_85_ ^ 2 ] <= 9470.77
quadratic_ranged_445_ub: [ 1 x_42_ ^ 2 - 2 x_85_ * x_42_ + 1 x_85_ ^ 2 + 1 y_42_ ^ 2 - 2 y_85_ * y_42_ + 1 y_85_ ^ 2 ] <= 13789.53
quadratic_ranged_446_ub: [ 1 x_51_ ^ 2 - 2 x_85_ * x_51_ + 1 x_85_ ^ 2 + 1 y_51_ ^ 2 - 2 y_85_ * y_51_ + 1 y_85_ ^ 2 ] <= 9418.25
quadratic_ranged_447_ub: [ 1 x_84_ ^ 2 - 2 x_85_ * x_84_ + 1 x_85_ ^ 2 + 1 y_84_ ^ 2 - 2 y_85_ * y_84_ + 1 y_85_ ^ 2 ] <= 2434.1
quadratic_ranged_448_ub: [ 1 x_2_ ^ 2 - 2 x_86_ * x_2_ + 1 x_86_ ^ 2 + 1 y_2_ ^ 2 - 2 y_86_ * y_2_ + 1 y_86_ ^ 2 ] <= 6707.41
quadratic_ranged_449_ub: [ 1 x_14_ ^ 2 - 2 x_86_ * x_14_ + 1 x_86_ ^ 2 + 1 y_14_ ^ 2 - 2 y_86_ * y_14_ + 1 y_86_ ^ 2 ] <= 3317.85
quadratic_ranged_450_ub: [ 1 x_25_ ^ 2 - 2 x_86_ * x_25_ + 1 x_86_ ^ 2 + 1 y_25_ ^ 2 - 2 y_86_ * y_25_ + 1 y_86_ ^ 2 ] <= 28946.6
quadratic_ranged_451_ub: [ 1 x_52_ ^ 2 - 2 x_86_ * x_52_ + 1 x_86_ ^ 2 + 1 y_52_ ^ 2 - 2 y_86_ * y_52_ + 1 y_86_ ^ 2 ] <= 5252
quadratic_ranged_452_ub: [ 1 x_53_ ^ 2 - 2 x_86_ * x_53_ + 1 x_86_ ^ 2 + 1 y_53_ ^ 2 - 2 y_86_ * y_53_ + 1 y_86_ ^ 2 ] <= 4283.41
quadratic_ranged_453_ub: [ 1 x_66_ ^ 2 - 2 x_86_ * x_66_ + 1 x_86_ ^ 2 + 1 y_66_ ^ 2 - 2 y_86_ * y_66_ + 1 y_86_ ^ 2 ] <= 14888.41
quadratic_ranged_454_ub: [ 1 x_80_ ^ 2 - 2 x_86_ * x_80_ + 1 x_86_ ^ 2 + 1 y_80_ ^ 2 - 2 y_86_ * y_80_ + 1 y_86_ ^ 2 ] <= 5965.06
quadratic_ranged_455_ub: [ 1 x_85_ ^ 2 - 2 x_86_ * x_85_ + 1 x_86_ ^ 2 + 1 y_85_ ^ 2 - 2 y_86_ * y_85_ + 1 y_86_ ^ 2 ] <= 12453.3
quadratic_ranged_456_ub: [ 1 x_4_ ^ 2 - 2 x_87_ * x_4_ + 1 x_87_ ^ 2 + 1 y_4_ ^ 2 - 2 y_87_ * y_4_ + 1 y_87_ ^ 2 ] <= 26350.9
quadratic_ranged_457_ub: [ 1 x_18_ ^ 2 - 2 x_87_ * x_18_ + 1 x_87_ ^ 2 + 1 y_18_ ^ 2 - 2 y_87_ * y_18_ + 1 y_87_ ^ 2 ] <= 24110.72
quadratic_ranged_458_ub: [ 1 x_42_ ^ 2 - 2 x_87_ * x_42_ + 1 x_87_ ^ 2 + 1 y_42_ ^ 2 - 2 y_87_ * y_42_ + 1 y_87_ ^ 2 ] <= 26337.77
quadratic_ranged_459_ub: [ 1 x_46_ ^ 2 - 2 x_87_ * x_46_ + 1 x_87_ ^ 2 + 1 y_46_ ^ 2 - 2 y_87_ * y_46_ + 1 y_87_ ^ 2 ] <= 34010.74
quadratic_ranged_460_ub: [ 1 x_62_ ^ 2 - 2 x_87_ * x_62_ + 1 x_87_ ^ 2 + 1 y_62_ ^ 2 - 2 y_87_ * y_62_ + 1 y_87_ ^ 2 ] <= 15727.72
quadratic_ranged_461_ub: [ 1 x_65_ ^ 2 - 2 x_87_ * x_65_ + 1 x_87_ ^ 2 + 1 y_65_ ^ 2 - 2 y_87_ * y_65_ + 1 y_87_ ^ 2 ] <= 24056.18
quadratic_ranged_462_ub: [ 1 x_86_ ^ 2 - 2 x_87_ * x_86_ + 1 x_87_ ^ 2 + 1 y_86_ ^ 2 - 2 y_87_ * y_86_ + 1 y_87_ ^ 2 ] <= 26892.260000000002
quadratic_ranged_463_ub: [ 1 x_1_ ^ 2 - 2 x_88_ * x_1_ + 1 x_88_ ^ 2 + 1 y_1_ ^ 2 - 2 y_88_ * y_1_ + 1 y_88_ ^ 2 ] <= 7790.13
quadratic_ranged_464_ub: [ 1 x_2_ ^ 2 - 2 x_88_ * x_2_ + 1 x_88_ ^ 2 + 1 y_2_ ^ 2 - 2 y_88_ * y_2_ + 1 y_88_ ^ 2 ] <= 21138.29
quadratic_ranged_465_ub: [ 1 x_9_ ^ 2 - 2 x_88_ * x_9_ + 1 x_88_ ^ 2 + 1 y_9_ ^ 2 - 2 y_88_ * y_9_ + 1 y_88_ ^ 2 ] <= 29238.49
quadratic_ranged_466_ub: [ 1 x_19_ ^ 2 - 2 x_88_ * x_19_ + 1 x_88_ ^ 2 + 1 y_19_ ^ 2 - 2 y_88_ * y_19_ + 1 y_88_ ^ 2 ] <= 27044.77
quadratic_ranged_467_ub: [ 1 x_29_ ^ 2 - 2 x_88_ * x_29_ + 1 x_88_ ^ 2 + 1 y_29_ ^ 2 - 2 y_88_ * y_29_ + 1 y_88_ ^ 2 ] <= 25780.25
quadratic_ranged_468_ub: [ 1 x_35_ ^ 2 - 2 x_88_ * x_35_ + 1 x_88_ ^ 2 + 1 y_35_ ^ 2 - 2 y_88_ * y_35_ + 1 y_88_ ^ 2 ] <= 29311.21
quadratic_ranged_469_ub: [ 1 x_36_ ^ 2 - 2 x_88_ * x_36_ + 1 x_88_ ^ 2 + 1 y_36_ ^ 2 - 2 y_88_ * y_36_ + 1 y_88_ ^ 2 ] <= 10137.37
quadratic_ranged_470_ub: [ 1 x_37_ ^ 2 - 2 x_88_ * x_37_ + 1 x_88_ ^ 2 + 1 y_37_ ^ 2 - 2 y_88_ * y_37_ + 1 y_88_ ^ 2 ] <= 18593.09
quadratic_ranged_471_ub: [ 1 x_45_ ^ 2 - 2 x_88_ * x_45_ + 1 x_88_ ^ 2 + 1 y_45_ ^ 2 - 2 y_88_ * y_45_ + 1 y_88_ ^ 2 ] <= 11216.05
quadratic_ranged_472_ub: [ 1 x_52_ ^ 2 - 2 x_88_ * x_52_ + 1 x_88_ ^ 2 + 1 y_52_ ^ 2 - 2 y_88_ * y_52_ + 1 y_88_ ^ 2 ] <= 14457.14
quadratic_ranged_473_ub: [ 1 x_54_ ^ 2 - 2 x_88_ * x_54_ + 1 x_88_ ^ 2 + 1 y_54_ ^ 2 - 2 y_88_ * y_54_ + 1 y_88_ ^ 2 ] <= 1232.2
quadratic_ranged_474_ub: [ 1 x_87_ ^ 2 - 2 x_88_ * x_87_ + 1 x_88_ ^ 2 + 1 y_87_ ^ 2 - 2 y_88_ * y_87_ + 1 y_88_ ^ 2 ] <= 581.76
quadratic_ranged_475_ub: [ 1 x_24_ ^ 2 - 2 x_89_ * x_24_ + 1 x_89_ ^ 2 + 1 y_24_ ^ 2 - 2 y_89_ * y_24_ + 1 y_89_ ^ 2 ] <= 24261.21
quadratic_ranged_476_ub: [ 1 x_39_ ^ 2 - 2 x_89_ * x_39_ + 1 x_89_ ^ 2 + 1 y_39_ ^ 2 - 2 y_89_ * y_39_ + 1 y_89_ ^ 2 ] <= 26431.7
quadratic_ranged_477_ub: [ 1 x_44_ ^ 2 - 2 x_89_ * x_44_ + 1 x_89_ ^ 2 + 1 y_44_ ^ 2 - 2 y_89_ * y_44_ + 1 y_89_ ^ 2 ] <= 6206.45
quadratic_ranged_478_ub: [ 1 x_46_ ^ 2 - 2 x_89_ * x_46_ + 1 x_89_ ^ 2 + 1 y_46_ ^ 2 - 2 y_89_ * y_46_ + 1 y_89_ ^ 2 ] <= 8245.64
quadratic_ranged_479_ub: [ 1 x_51_ ^ 2 - 2 x_89_ * x_51_ + 1 x_89_ ^ 2 + 1 y_51_ ^ 2 - 2 y_89_ * y_51_ + 1 y_89_ ^ 2 ] <= 13381.49
quadratic_ranged_480_ub: [ 1 x_54_ ^ 2 - 2 x_89_ * x_54_ + 1 x_89_ ^ 2 + 1 y_54_ ^ 2 - 2 y_89_ * y_54_ + 1 y_89_ ^ 2 ] <= 15539.86
quadratic_ranged_481_ub: [ 1 x_59_ ^ 2 - 2 x_89_ * x_59_ + 1 x_89_ ^ 2 + 1 y_59_ ^ 2 - 2 y_89_ * y_59_ + 1 y_89_ ^ 2 ] <= 11685.7
quadratic_ranged_482_ub: [ 1 x_69_ ^ 2 - 2 x_89_ * x_69_ + 1 x_89_ ^ 2 + 1 y_69_ ^ 2 - 2 y_89_ * y_69_ + 1 y_89_ ^ 2 ] <= 16229.69
quadratic_ranged_483_ub: [ 1 x_88_ ^ 2 - 2 x_89_ * x_88_ + 1 x_89_ ^ 2 + 1 y_88_ ^ 2 - 2 y_89_ * y_88_ + 1 y_89_ ^ 2 ] <= 25454.02
quadratic_ranged_484_ub: [ 1 x_11_ ^ 2 - 2 x_90_ * x_11_ + 1 x_90_ ^ 2 + 1 y_11_ ^ 2 - 2 y_90_ * y_11_ + 1 y_90_ ^ 2 ] <= 16681.16
quadratic_ranged_485_ub: [ 1 x_12_ ^ 2 - 2 x_90_ * x_12_ + 1 x_90_ ^ 2 + 1 y_12_ ^ 2 - 2 y_90_ * y_12_ + 1 y_90_ ^ 2 ] <= 858.5
quadratic_ranged_486_ub: [ 1 x_34_ ^ 2 - 2 x_90_ * x_34_ + 1 x_90_ ^ 2 + 1 y_34_ ^ 2 - 2 y_90_ * y_34_ + 1 y_90_ ^ 2 ] <= 35101.54
quadratic_ranged_487_ub: [ 1 x_65_ ^ 2 - 2 x_90_ * x_65_ + 1 x_90_ ^ 2 + 1 y_65_ ^ 2 - 2 y_90_ * y_65_ + 1 y_90_ ^ 2 ] <= 14015.77
quadratic_ranged_488_ub: [ 1 x_89_ ^ 2 - 2 x_90_ * x_89_ + 1 x_90_ ^ 2 + 1 y_89_ ^ 2 - 2 y_90_ * y_89_ + 1 y_90_ ^ 2 ] <= 18435.53
quadratic_ranged_489_ub: [ 1 x_11_ ^ 2 - 2 x_91_ * x_11_ + 1 x_91_ ^ 2 + 1 y_11_ ^ 2 - 2 y_91_ * y_11_ + 1 y_91_ ^ 2 ] <= 5030.81
quadratic_ranged_490_ub: [ 1 x_12_ ^ 2 - 2 x_91_ * x_12_ + 1 x_91_ ^ 2 + 1 y_12_ ^ 2 - 2 y_91_ * y_12_ + 1 y_91_ ^ 2 ] <= 30834.29
quadratic_ranged_491_ub: [ 1 x_25_ ^ 2 - 2 x_91_ * x_25_ + 1 x_91_ ^ 2 + 1 y_25_ ^ 2 - 2 y_91_ * y_25_ + 1 y_91_ ^ 2 ] <= 25371.2
quadratic_ranged_492_ub: [ 1 x_30_ ^ 2 - 2 x_91_ * x_30_ + 1 x_91_ ^ 2 + 1 y_30_ ^ 2 - 2 y_91_ * y_30_ + 1 y_91_ ^ 2 ] <= 24810.65
quadratic_ranged_493_ub: [ 1 x_37_ ^ 2 - 2 x_91_ * x_37_ + 1 x_91_ ^ 2 + 1 y_37_ ^ 2 - 2 y_91_ * y_37_ + 1 y_91_ ^ 2 ] <= 31876.61
quadratic_ranged_494_ub: [ 1 x_38_ ^ 2 - 2 x_91_ * x_38_ + 1 x_91_ ^ 2 + 1 y_38_ ^ 2 - 2 y_91_ * y_38_ + 1 y_91_ ^ 2 ] <= 12961.33
quadratic_ranged_495_ub: [ 1 x_41_ ^ 2 - 2 x_91_ * x_41_ + 1 x_91_ ^ 2 + 1 y_41_ ^ 2 - 2 y_91_ * y_41_ + 1 y_91_ ^ 2 ] <= 21913.97
quadratic_ranged_496_ub: [ 1 x_47_ ^ 2 - 2 x_91_ * x_47_ + 1 x_91_ ^ 2 + 1 y_47_ ^ 2 - 2 y_91_ * y_47_ + 1 y_91_ ^ 2 ] <= 931.22
quadratic_ranged_497_ub: [ 1 x_60_ ^ 2 - 2 x_91_ * x_60_ + 1 x_91_ ^ 2 + 1 y_60_ ^ 2 - 2 y_91_ * y_60_ + 1 y_91_ ^ 2 ] <= 9458.65
quadratic_ranged_498_ub: [ 1 x_70_ ^ 2 - 2 x_91_ * x_70_ + 1 x_91_ ^ 2 + 1 y_70_ ^ 2 - 2 y_91_ * y_70_ + 1 y_91_ ^ 2 ] <= 12557.33
quadratic_ranged_499_ub: [ 1 x_73_ ^ 2 - 2 x_91_ * x_73_ + 1 x_91_ ^ 2 + 1 y_73_ ^ 2 - 2 y_91_ * y_73_ + 1 y_91_ ^ 2 ] <= 25962.05
quadratic_ranged_500_ub: [ 1 x_83_ ^ 2 - 2 x_91_ * x_83_ + 1 x_91_ ^ 2 + 1 y_83_ ^ 2 - 2 y_91_ * y_83_ + 1 y_91_ ^ 2 ] <= 11793.77
quadratic_ranged_501_ub: [ 1 x_89_ ^ 2 - 2 x_91_ * x_89_ + 1 x_91_ ^ 2 + 1 y_89_ ^ 2 - 2 y_91_ * y_89_ + 1 y_91_ ^ 2 ] <= 2929
quadratic_ranged_502_ub: [ 1 x_90_ ^ 2 - 2 x_91_ * x_90_ + 1 x_91_ ^ 2 + 1 y_90_ ^ 2 - 2 y_91_ * y_90_ + 1 y_91_ ^ 2 ] <= 33904.69
quadratic_ranged_503_ub: [ 1 x_11_ ^ 2 - 2 x_92_ * x_11_ + 1 x_92_ ^ 2 + 1 y_11_ ^ 2 - 2 y_92_ * y_11_ + 1 y_92_ ^ 2 ] <= 6270.08
quadratic_ranged_504_ub: [ 1 x_22_ ^ 2 - 2 x_92_ * x_22_ + 1 x_92_ ^ 2 + 1 y_22_ ^ 2 - 2 y_92_ * y_22_ + 1 y_92_ ^ 2 ] <= 376.73
quadratic_ranged_505_ub: [ 1 x_43_ ^ 2 - 2 x_92_ * x_43_ + 1 x_92_ ^ 2 + 1 y_43_ ^ 2 - 2 y_92_ * y_43_ + 1 y_92_ ^ 2 ] <= 1641.25
quadratic_ranged_506_ub: [ 1 x_52_ ^ 2 - 2 x_92_ * x_52_ + 1 x_92_ ^ 2 + 1 y_52_ ^ 2 - 2 y_92_ * y_52_ + 1 y_92_ ^ 2 ] <= 5034.85
quadratic_ranged_507_ub: [ 1 x_66_ ^ 2 - 2 x_92_ * x_66_ + 1 x_92_ ^ 2 + 1 y_66_ ^ 2 - 2 y_92_ * y_66_ + 1 y_92_ ^ 2 ] <= 19006.18
quadratic_ranged_508_ub: [ 1 x_67_ ^ 2 - 2 x_92_ * x_67_ + 1 x_92_ ^ 2 + 1 y_67_ ^ 2 - 2 y_92_ * y_67_ + 1 y_92_ ^ 2 ] <= 18577.94
quadratic_ranged_509_ub: [ 1 x_91_ ^ 2 - 2 x_92_ * x_91_ + 1 x_92_ ^ 2 + 1 y_91_ ^ 2 - 2 y_92_ * y_91_ + 1 y_92_ ^ 2 ] <= 85.85
quadratic_ranged_510_ub: [ 1 x_8_ ^ 2 - 2 x_93_ * x_8_ + 1 x_93_ ^ 2 + 1 y_8_ ^ 2 - 2 y_93_ * y_8_ + 1 y_93_ ^ 2 ] <= 4282.4
quadratic_ranged_511_ub: [ 1 x_28_ ^ 2 - 2 x_93_ * x_28_ + 1 x_93_ ^ 2 + 1 y_28_ ^ 2 - 2 y_93_ * y_28_ + 1 y_93_ ^ 2 ] <= 1326.13
quadratic_ranged_512_ub: [ 1 x_30_ ^ 2 - 2 x_93_ * x_30_ + 1 x_93_ ^ 2 + 1 y_30_ ^ 2 - 2 y_93_ * y_30_ + 1 y_93_ ^ 2 ] <= 24010.73
quadratic_ranged_513_ub: [ 1 x_91_ ^ 2 - 2 x_93_ * x_91_ + 1 x_93_ ^ 2 + 1 y_91_ ^ 2 - 2 y_93_ * y_91_ + 1 y_93_ ^ 2 ] <= 2359.36
quadratic_ranged_514_ub: [ 1 x_92_ ^ 2 - 2 x_93_ * x_92_ + 1 x_93_ ^ 2 + 1 y_92_ ^ 2 - 2 y_93_ * y_92_ + 1 y_93_ ^ 2 ] <= 3309.77
quadratic_ranged_515_ub: [ 1 x_9_ ^ 2 - 2 x_94_ * x_9_ + 1 x_94_ ^ 2 + 1 y_9_ ^ 2 - 2 y_94_ * y_9_ + 1 y_94_ ^ 2 ] <= 3249.17
quadratic_ranged_516_ub: [ 1 x_14_ ^ 2 - 2 x_94_ * x_14_ + 1 x_94_ ^ 2 + 1 y_14_ ^ 2 - 2 y_94_ * y_14_ + 1 y_94_ ^ 2 ] <= 2429.05
quadratic_ranged_517_ub: [ 1 x_20_ ^ 2 - 2 x_94_ * x_20_ + 1 x_94_ ^ 2 + 1 y_20_ ^ 2 - 2 y_94_ * y_20_ + 1 y_94_ ^ 2 ] <= 14230.9
quadratic_ranged_518_ub: [ 1 x_26_ ^ 2 - 2 x_94_ * x_26_ + 1 x_94_ ^ 2 + 1 y_26_ ^ 2 - 2 y_94_ * y_26_ + 1 y_94_ ^ 2 ] <= 13248.17
quadratic_ranged_519_ub: [ 1 x_42_ ^ 2 - 2 x_94_ * x_42_ + 1 x_94_ ^ 2 + 1 y_42_ ^ 2 - 2 y_94_ * y_42_ + 1 y_94_ ^ 2 ] <= 4792.45
quadratic_ranged_520_ub: [ 1 x_44_ ^ 2 - 2 x_94_ * x_44_ + 1 x_94_ ^ 2 + 1 y_44_ ^ 2 - 2 y_94_ * y_44_ + 1 y_94_ ^ 2 ] <= 16136.77
quadratic_ranged_521_ub: [ 1 x_45_ ^ 2 - 2 x_94_ * x_45_ + 1 x_94_ ^ 2 + 1 y_45_ ^ 2 - 2 y_94_ * y_45_ + 1 y_94_ ^ 2 ] <= 17324.53
quadratic_ranged_522_ub: [ 1 x_57_ ^ 2 - 2 x_94_ * x_57_ + 1 x_94_ ^ 2 + 1 y_57_ ^ 2 - 2 y_94_ * y_57_ + 1 y_94_ ^ 2 ] <= 11160.5
quadratic_ranged_523_ub: [ 1 x_58_ ^ 2 - 2 x_94_ * x_58_ + 1 x_94_ ^ 2 + 1 y_58_ ^ 2 - 2 y_94_ * y_58_ + 1 y_94_ ^ 2 ] <= 535.3
quadratic_ranged_524_ub: [ 1 x_79_ ^ 2 - 2 x_94_ * x_79_ + 1 x_94_ ^ 2 + 1 y_79_ ^ 2 - 2 y_94_ * y_79_ + 1 y_94_ ^ 2 ] <= 8025.46
quadratic_ranged_525_ub: [ 1 x_84_ ^ 2 - 2 x_94_ * x_84_ + 1 x_94_ ^ 2 + 1 y_84_ ^ 2 - 2 y_94_ * y_84_ + 1 y_94_ ^ 2 ] <= 26.26
quadratic_ranged_526_ub: [ 1 x_93_ ^ 2 - 2 x_94_ * x_93_ + 1 x_94_ ^ 2 + 1 y_93_ ^ 2 - 2 y_94_ * y_93_ + 1 y_94_ ^ 2 ] <= 1601.8600000000001
quadratic_ranged_527_ub: [ 1 x_8_ ^ 2 - 2 x_95_ * x_8_ + 1 x_95_ ^ 2 + 1 y_8_ ^ 2 - 2 y_95_ * y_8_ + 1 y_95_ ^ 2 ] <= 13552.18
quadratic_ranged_528_ub: [ 1 x_16_ ^ 2 - 2 x_95_ * x_16_ + 1 x_95_ ^ 2 + 1 y_16_ ^ 2 - 2 y_95_ * y_16_ + 1 y_95_ ^ 2 ] <= 9301.09
quadratic_ranged_529_ub: [ 1 x_19_ ^ 2 - 2 x_95_ * x_19_ + 1 x_95_ ^ 2 + 1 y_19_ ^ 2 - 2 y_95_ * y_19_ + 1 y_95_ ^ 2 ] <= 18257.77
quadratic_ranged_530_ub: [ 1 x_20_ ^ 2 - 2 x_95_ * x_20_ + 1 x_95_ ^ 2 + 1 y_20_ ^ 2 - 2 y_95_ * y_20_ + 1 y_95_ ^ 2 ] <= 10190.9
quadratic_ranged_531_ub: [ 1 x_29_ ^ 2 - 2 x_95_ * x_29_ + 1 x_95_ ^ 2 + 1 y_29_ ^ 2 - 2 y_95_ * y_29_ + 1 y_95_ ^ 2 ] <= 17647.73
quadratic_ranged_532_ub: [ 1 x_36_ ^ 2 - 2 x_95_ * x_36_ + 1 x_95_ ^ 2 + 1 y_36_ ^ 2 - 2 y_95_ * y_36_ + 1 y_95_ ^ 2 ] <= 2408.85
quadratic_ranged_533_ub: [ 1 x_47_ ^ 2 - 2 x_95_ * x_47_ + 1 x_95_ ^ 2 + 1 y_47_ ^ 2 - 2 y_95_ * y_47_ + 1 y_95_ ^ 2 ] <= 6415.52
quadratic_ranged_534_ub: [ 1 x_68_ ^ 2 - 2 x_95_ * x_68_ + 1 x_95_ ^ 2 + 1 y_68_ ^ 2 - 2 y_95_ * y_68_ + 1 y_95_ ^ 2 ] <= 18427.45
quadratic_ranged_535_ub: [ 1 x_84_ ^ 2 - 2 x_95_ * x_84_ + 1 x_95_ ^ 2 + 1 y_84_ ^ 2 - 2 y_95_ * y_84_ + 1 y_95_ ^ 2 ] <= 1020.1
quadratic_ranged_536_ub: [ 1 x_94_ ^ 2 - 2 x_95_ * x_94_ + 1 x_95_ ^ 2 + 1 y_94_ ^ 2 - 2 y_95_ * y_94_ + 1 y_95_ ^ 2 ] <= 1365.52
quadratic_ranged_537_ub: [ 1 x_3_ ^ 2 - 2 x_96_ * x_3_ + 1 x_96_ ^ 2 + 1 y_3_ ^ 2 - 2 y_96_ * y_3_ + 1 y_96_ ^ 2 ] <= 5358.05
quadratic_ranged_538_ub: [ 1 x_21_ ^ 2 - 2 x_96_ * x_21_ + 1 x_96_ ^ 2 + 1 y_21_ ^ 2 - 2 y_96_ * y_21_ + 1 y_96_ ^ 2 ] <= 4098.58
quadratic_ranged_539_ub: [ 1 x_24_ ^ 2 - 2 x_96_ * x_24_ + 1 x_96_ ^ 2 + 1 y_24_ ^ 2 - 2 y_96_ * y_24_ + 1 y_96_ ^ 2 ] <= 12751.25
quadratic_ranged_540_ub: [ 1 x_28_ ^ 2 - 2 x_96_ * x_28_ + 1 x_96_ ^ 2 + 1 y_28_ ^ 2 - 2 y_96_ * y_28_ + 1 y_96_ ^ 2 ] <= 4408.65
quadratic_ranged_541_ub: [ 1 x_37_ ^ 2 - 2 x_96_ * x_37_ + 1 x_96_ ^ 2 + 1 y_37_ ^ 2 - 2 y_96_ * y_37_ + 1 y_96_ ^ 2 ] <= 6024.65
quadratic_ranged_542_ub: [ 1 x_51_ ^ 2 - 2 x_96_ * x_51_ + 1 x_96_ ^ 2 + 1 y_51_ ^ 2 - 2 y_96_ * y_51_ + 1 y_96_ ^ 2 ] <= 14791.45
quadratic_ranged_543_ub: [ 1 x_57_ ^ 2 - 2 x_96_ * x_57_ + 1 x_96_ ^ 2 + 1 y_57_ ^ 2 - 2 y_96_ * y_57_ + 1 y_96_ ^ 2 ] <= 5706.5
quadratic_ranged_544_ub: [ 1 x_65_ ^ 2 - 2 x_96_ * x_65_ + 1 x_96_ ^ 2 + 1 y_65_ ^ 2 - 2 y_96_ * y_65_ + 1 y_96_ ^ 2 ] <= 2628.02
quadratic_ranged_545_ub: [ 1 x_73_ ^ 2 - 2 x_96_ * x_73_ + 1 x_96_ ^ 2 + 1 y_73_ ^ 2 - 2 y_96_ * y_73_ + 1 y_96_ ^ 2 ] <= 22487.65
quadratic_ranged_546_ub: [ 1 x_81_ ^ 2 - 2 x_96_ * x_81_ + 1 x_96_ ^ 2 + 1 y_81_ ^ 2 - 2 y_96_ * y_81_ + 1 y_96_ ^ 2 ] <= 19736.41
quadratic_ranged_547_ub: [ 1 x_91_ ^ 2 - 2 x_96_ * x_91_ + 1 x_96_ ^ 2 + 1 y_91_ ^ 2 - 2 y_96_ * y_91_ + 1 y_96_ ^ 2 ] <= 10190.9
quadratic_ranged_548_ub: [ 1 x_95_ ^ 2 - 2 x_96_ * x_95_ + 1 x_96_ ^ 2 + 1 y_95_ ^ 2 - 2 y_96_ * y_95_ + 1 y_96_ ^ 2 ] <= 4928.8
quadratic_ranged_549_ub: [ 1 x_1_ ^ 2 - 2 x_97_ * x_1_ + 1 x_97_ ^ 2 + 1 y_1_ ^ 2 - 2 y_97_ * y_1_ + 1 y_97_ ^ 2 ] <= 10734.28
quadratic_ranged_550_ub: [ 1 x_28_ ^ 2 - 2 x_97_ * x_28_ + 1 x_97_ ^ 2 + 1 y_28_ ^ 2 - 2 y_97_ * y_28_ + 1 y_97_ ^ 2 ] <= 9269.78
quadratic_ranged_551_ub: [ 1 x_42_ ^ 2 - 2 x_97_ * x_42_ + 1 x_97_ ^ 2 + 1 y_42_ ^ 2 - 2 y_97_ * y_42_ + 1 y_97_ ^ 2 ] <= 2167.46
quadratic_ranged_552_ub: [ 1 x_44_ ^ 2 - 2 x_97_ * x_44_ + 1 x_97_ ^ 2 + 1 y_44_ ^ 2 - 2 y_97_ * y_44_ + 1 y_97_ ^ 2 ] <= 18981.94
quadratic_ranged_553_ub: [ 1 x_58_ ^ 2 - 2 x_97_ * x_58_ + 1 x_97_ ^ 2 + 1 y_58_ ^ 2 - 2 y_97_ * y_58_ + 1 y_97_ ^ 2 ] <= 5156.05
quadratic_ranged_554_ub: [ 1 x_61_ ^ 2 - 2 x_97_ * x_61_ + 1 x_97_ ^ 2 + 1 y_61_ ^ 2 - 2 y_97_ * y_61_ + 1 y_97_ ^ 2 ] <= 11089.8
quadratic_ranged_555_ub: [ 1 x_82_ ^ 2 - 2 x_97_ * x_82_ + 1 x_97_ ^ 2 + 1 y_82_ ^ 2 - 2 y_97_ * y_82_ + 1 y_97_ ^ 2 ] <= 1528.13
quadratic_ranged_556_ub: [ 1 x_96_ ^ 2 - 2 x_97_ * x_96_ + 1 x_97_ ^ 2 + 1 y_96_ ^ 2 - 2 y_97_ * y_96_ + 1 y_97_ ^ 2 ] <= 16181.210000000001
quadratic_ranged_557_ub: [ 1 x_2_ ^ 2 - 2 x_98_ * x_2_ + 1 x_98_ ^ 2 + 1 y_2_ ^ 2 - 2 y_98_ * y_2_ + 1 y_98_ ^ 2 ] <= 1731.14
quadratic_ranged_558_ub: [ 1 x_12_ ^ 2 - 2 x_98_ * x_12_ + 1 x_98_ ^ 2 + 1 y_12_ ^ 2 - 2 y_98_ * y_12_ + 1 y_98_ ^ 2 ] <= 6270.08
quadratic_ranged_559_ub: [ 1 x_19_ ^ 2 - 2 x_98_ * x_19_ + 1 x_98_ ^ 2 + 1 y_19_ ^ 2 - 2 y_98_ * y_19_ + 1 y_98_ ^ 2 ] <= 2991.62
quadratic_ranged_560_ub: [ 1 x_34_ ^ 2 - 2 x_98_ * x_34_ + 1 x_98_ ^ 2 + 1 y_34_ ^ 2 - 2 y_98_ * y_34_ + 1 y_98_ ^ 2 ] <= 17715.4
quadratic_ranged_561_ub: [ 1 x_37_ ^ 2 - 2 x_98_ * x_37_ + 1 x_98_ ^ 2 + 1 y_37_ ^ 2 - 2 y_98_ * y_37_ + 1 y_98_ ^ 2 ] <= 6134.74
quadratic_ranged_562_ub: [ 1 x_42_ ^ 2 - 2 x_98_ * x_42_ + 1 x_98_ ^ 2 + 1 y_42_ ^ 2 - 2 y_98_ * y_42_ + 1 y_98_ ^ 2 ] <= 18377.96
quadratic_ranged_563_ub: [ 1 x_53_ ^ 2 - 2 x_98_ * x_53_ + 1 x_98_ ^ 2 + 1 y_53_ ^ 2 - 2 y_98_ * y_53_ + 1 y_98_ ^ 2 ] <= 3928.9
quadratic_ranged_564_ub: [ 1 x_58_ ^ 2 - 2 x_98_ * x_58_ + 1 x_98_ ^ 2 + 1 y_58_ ^ 2 - 2 y_98_ * y_58_ + 1 y_98_ ^ 2 ] <= 3701.65
quadratic_ranged_565_ub: [ 1 x_60_ ^ 2 - 2 x_98_ * x_60_ + 1 x_98_ ^ 2 + 1 y_60_ ^ 2 - 2 y_98_ * y_60_ + 1 y_98_ ^ 2 ] <= 3692.56
quadratic_ranged_566_ub: [ 1 x_80_ ^ 2 - 2 x_98_ * x_80_ + 1 x_98_ ^ 2 + 1 y_80_ ^ 2 - 2 y_98_ * y_80_ + 1 y_98_ ^ 2 ] <= 5495.41
quadratic_ranged_567_ub: [ 1 x_92_ ^ 2 - 2 x_98_ * x_92_ + 1 x_98_ ^ 2 + 1 y_92_ ^ 2 - 2 y_98_ * y_92_ + 1 y_98_ ^ 2 ] <= 12873.460000000001
quadratic_ranged_568_ub: [ 1 x_97_ ^ 2 - 2 x_98_ * x_97_ + 1 x_98_ ^ 2 + 1 y_97_ ^ 2 - 2 y_98_ * y_97_ + 1 y_98_ ^ 2 ] <= 16816.5
quadratic_ranged_569_ub: [ 1 x_2_ ^ 2 - 2 x_99_ * x_2_ + 1 x_99_ ^ 2 + 1 y_2_ ^ 2 - 2 y_99_ * y_2_ + 1 y_99_ ^ 2 ] <= 6013.54
quadratic_ranged_570_ub: [ 1 x_5_ ^ 2 - 2 x_99_ * x_5_ + 1 x_99_ ^ 2 + 1 y_5_ ^ 2 - 2 y_99_ * y_5_ + 1 y_99_ ^ 2 ] <= 17025.57
quadratic_ranged_571_ub: [ 1 x_20_ ^ 2 - 2 x_99_ * x_20_ + 1 x_99_ ^ 2 + 1 y_20_ ^ 2 - 2 y_99_ * y_20_ + 1 y_99_ ^ 2 ] <= 19207.170000000002
quadratic_ranged_572_ub: [ 1 x_50_ ^ 2 - 2 x_99_ * x_50_ + 1 x_99_ ^ 2 + 1 y_50_ ^ 2 - 2 y_99_ * y_50_ + 1 y_99_ ^ 2 ] <= 2167.46
quadratic_ranged_573_ub: [ 1 x_67_ ^ 2 - 2 x_99_ * x_67_ + 1 x_99_ ^ 2 + 1 y_67_ ^ 2 - 2 y_99_ * y_67_ + 1 y_99_ ^ 2 ] <= 15727.72
quadratic_ranged_574_ub: [ 1 x_75_ ^ 2 - 2 x_99_ * x_75_ + 1 x_99_ ^ 2 + 1 y_75_ ^ 2 - 2 y_99_ * y_75_ + 1 y_99_ ^ 2 ] <= 1680.64
quadratic_ranged_575_ub: [ 1 x_77_ ^ 2 - 2 x_99_ * x_77_ + 1 x_99_ ^ 2 + 1 y_77_ ^ 2 - 2 y_99_ * y_77_ + 1 y_99_ ^ 2 ] <= 33306.77
quadratic_ranged_576_ub: [ 1 x_98_ ^ 2 - 2 x_99_ * x_98_ + 1 x_99_ ^ 2 + 1 y_98_ ^ 2 - 2 y_99_ * y_98_ + 1 y_99_ ^ 2 ] <= 11348.36
quadratic_ranged_577_ub: [ 1 x_1_ ^ 2 - 2 x_100_ * x_1_ + 1 x_100_ ^ 2 + 1 y_1_ ^ 2 - 2 y_100_ * y_1_ + 1 y_100_ ^ 2 ] <= 2363.4
quadratic_ranged_578_ub: [ 1 x_11_ ^ 2 - 2 x_100_ * x_11_ + 1 x_100_ ^ 2 + 1 y_11_ ^ 2 - 2 y_100_ * y_11_ + 1 y_100_ ^ 2 ] <= 1325.1200000000001
quadratic_ranged_579_ub: [ 1 x_12_ ^ 2 - 2 x_100_ * x_12_ + 1 x_100_ ^ 2 + 1 y_12_ ^ 2 - 2 y_100_ * y_12_ + 1 y_100_ ^ 2 ] <= 19402.1
quadratic_ranged_580_ub: [ 1 x_17_ ^ 2 - 2 x_100_ * x_17_ + 1 x_100_ ^ 2 + 1 y_17_ ^ 2 - 2 y_100_ * y_17_ + 1 y_100_ ^ 2 ] <= 3026.97
quadratic_ranged_581_ub: [ 1 x_22_ ^ 2 - 2 x_100_ * x_22_ + 1 x_100_ ^ 2 + 1 y_22_ ^ 2 - 2 y_100_ * y_22_ + 1 y_100_ ^ 2 ] <= 3390.57
quadratic_ranged_582_ub: [ 1 x_25_ ^ 2 - 2 x_100_ * x_25_ + 1 x_100_ ^ 2 + 1 y_25_ ^ 2 - 2 y_100_ * y_25_ + 1 y_100_ ^ 2 ] <= 15114.65
quadratic_ranged_583_ub: [ 1 x_35_ ^ 2 - 2 x_100_ * x_35_ + 1 x_100_ ^ 2 + 1 y_35_ ^ 2 - 2 y_100_ * y_35_ + 1 y_100_ ^ 2 ] <= 1286.74
quadratic_ranged_584_ub: [ 1 x_38_ ^ 2 - 2 x_100_ * x_38_ + 1 x_100_ ^ 2 + 1 y_38_ ^ 2 - 2 y_100_ * y_38_ + 1 y_100_ ^ 2 ] <= 7128.58
quadratic_ranged_585_ub: [ 1 x_99_ ^ 2 - 2 x_100_ * x_99_ + 1 x_100_ ^ 2 + 1 y_99_ ^ 2 - 2 y_100_ * y_99_ + 1 y_100_ ^ 2 ] <= 2167.46
c1_2: 1 x_78_ >= 0
c2_2: 1 y_78_ >= 0
quadratic_ranged_1_lb: [ 1 x_1_ ^ 2 - 2 x_2_ * x_1_ + 1 x_2_ ^ 2 + 1 y_1_ ^ 2 - 2 y_2_ * y_1_ + 1 y_2_ ^ 2 ] >= 3864.96
quadratic_ranged_2_lb: [ 1 x_2_ ^ 2 - 2 x_3_ * x_2_ + 1 x_3_ ^ 2 + 1 y_2_ ^ 2 - 2 y_3_ * y_2_ + 1 y_3_ ^ 2 ] >= 4993.56
quadratic_ranged_3_lb: [ 1 x_2_ ^ 2 - 2 x_4_ * x_2_ + 1 x_4_ ^ 2 + 1 y_2_ ^ 2 - 2 y_4_ * y_2_ + 1 y_4_ ^ 2 ] >= 6372.63
quadratic_ranged_4_lb: [ 1 x_3_ ^ 2 - 2 x_4_ * x_3_ + 1 x_4_ ^ 2 + 1 y_3_ ^ 2 - 2 y_4_ * y_3_ + 1 y_4_ ^ 2 ] >= 749.43
quadratic_ranged_5_lb: [ 1 x_1_ ^ 2 - 2 x_5_ * x_1_ + 1 x_5_ ^ 2 + 1 y_1_ ^ 2 - 2 y_5_ * y_1_ + 1 y_5_ ^ 2 ] >= 7996.23
quadratic_ranged_6_lb: [ 1 x_4_ ^ 2 - 2 x_5_ * x_4_ + 1 x_5_ ^ 2 + 1 y_4_ ^ 2 - 2 y_5_ * y_4_ + 1 y_5_ ^ 2 ] >= 11715.66
quadratic_ranged_7_lb: [ 1 x_5_ ^ 2 - 2 x_6_ * x_5_ + 1 x_6_ ^ 2 + 1 y_5_ ^ 2 - 2 y_6_ * y_5_ + 1 y_6_ ^ 2 ] >= 18695.16
quadratic_ranged_8_lb: [ 1 x_6_ ^ 2 - 2 x_7_ * x_6_ + 1 x_7_ ^ 2 + 1 y_6_ ^ 2 - 2 y_7_ * y_6_ + 1 y_7_ ^ 2 ] >= 8455.59
quadratic_ranged_9_lb: [ 1 x_3_ ^ 2 - 2 x_8_ * x_3_ + 1 x_8_ ^ 2 + 1 y_3_ ^ 2 - 2 y_8_ * y_3_ + 1 y_8_ ^ 2 ] >= 480.15
quadratic_ranged_10_lb: [ 1 x_5_ ^ 2 - 2 x_8_ * x_5_ + 1 x_8_ ^ 2 + 1 y_5_ ^ 2 - 2 y_8_ * y_5_ + 1 y_8_ ^ 2 ] >= 12056.22
quadratic_ranged_11_lb: [ 1 x_7_ ^ 2 - 2 x_8_ * x_7_ + 1 x_8_ ^ 2 + 1 y_7_ ^ 2 - 2 y_8_ * y_7_ + 1 y_8_ ^ 2 ] >= 1913.67
quadratic_ranged_12_lb: [ 1 x_8_ ^ 2 - 2 x_9_ * x_8_ + 1 x_9_ ^ 2 + 1 y_8_ ^ 2 - 2 y_9_ * y_8_ + 1 y_9_ ^ 2 ] >= 10863.27
quadratic_ranged_13_lb: [ 1 x_2_ ^ 2 - 2 x_10_ * x_2_ + 1 x_10_ ^ 2 + 1 y_2_ ^ 2 - 2 y_10_ * y_2_ + 1 y_10_ ^ 2 ] >= 17468.55
quadratic_ranged_14_lb: [ 1 x_9_ ^ 2 - 2 x_10_ * x_9_ + 1 x_10_ ^ 2 + 1 y_9_ ^ 2 - 2 y_10_ * y_9_ + 1 y_10_ ^ 2 ] >= 27804.15
quadratic_ranged_15_lb: [ 1 x_7_ ^ 2 - 2 x_11_ * x_7_ + 1 x_11_ ^ 2 + 1 y_7_ ^ 2 - 2 y_11_ * y_7_ + 1 y_11_ ^ 2 ] >= 14842.08
quadratic_ranged_16_lb: [ 1 x_10_ ^ 2 - 2 x_11_ * x_10_ + 1 x_11_ ^ 2 + 1 y_10_ ^ 2 - 2 y_11_ * y_10_ + 1 y_11_ ^ 2 ] >= 8998.11
quadratic_ranged_17_lb: [ 1 x_9_ ^ 2 - 2 x_12_ * x_9_ + 1 x_12_ ^ 2 + 1 y_9_ ^ 2 - 2 y_12_ * y_9_ + 1 y_12_ ^ 2 ] >= 29228.76
quadratic_ranged_18_lb: [ 1 x_11_ ^ 2 - 2 x_12_ * x_11_ + 1 x_12_ ^ 2 + 1 y_11_ ^ 2 - 2 y_12_ * y_11_ + 1 y_12_ ^ 2 ] >= 12618.539999999999
quadratic_ranged_19_lb: [ 1 x_2_ ^ 2 - 2 x_13_ * x_2_ + 1 x_13_ ^ 2 + 1 y_2_ ^ 2 - 2 y_13_ * y_2_ + 1 y_13_ ^ 2 ] >= 2902.68
quadratic_ranged_20_lb: [ 1 x_12_ ^ 2 - 2 x_13_ * x_12_ + 1 x_13_ ^ 2 + 1 y_12_ ^ 2 - 2 y_13_ * y_12_ + 1 y_13_ ^ 2 ] >= 24118.38
quadratic_ranged_21_lb: [ 1 x_2_ ^ 2 - 2 x_14_ * x_2_ + 1 x_14_ ^ 2 + 1 y_2_ ^ 2 - 2 y_14_ * y_2_ + 1 y_14_ ^ 2 ] >= 1148.4
quadratic_ranged_22_lb: [ 1 x_13_ ^ 2 - 2 x_14_ * x_13_ + 1 x_14_ ^ 2 + 1 y_13_ ^ 2 - 2 y_14_ * y_13_ + 1 y_14_ ^ 2 ] >= 1492.92
quadratic_ranged_23_lb: [ 1 x_14_ ^ 2 - 2 x_15_ * x_14_ + 1 x_15_ ^ 2 + 1 y_14_ ^ 2 - 2 y_15_ * y_14_ + 1 y_15_ ^ 2 ] >= 15701.4
quadratic_ranged_24_lb: [ 1 x_8_ ^ 2 - 2 x_16_ * x_8_ + 1 x_16_ ^ 2 + 1 y_8_ ^ 2 - 2 y_16_ * y_8_ + 1 y_16_ ^ 2 ] >= 24814.35
quadratic_ranged_25_lb: [ 1 x_15_ ^ 2 - 2 x_16_ * x_15_ + 1 x_16_ ^ 2 + 1 y_15_ ^ 2 - 2 y_16_ * y_15_ + 1 y_16_ ^ 2 ] >= 18423.9
quadratic_ranged_26_lb: [ 1 x_16_ ^ 2 - 2 x_17_ * x_16_ + 1 x_17_ ^ 2 + 1 y_16_ ^ 2 - 2 y_17_ * y_16_ + 1 y_17_ ^ 2 ] >= 476.19
quadratic_ranged_27_lb: [ 1 x_15_ ^ 2 - 2 x_18_ * x_15_ + 1 x_18_ ^ 2 + 1 y_15_ ^ 2 - 2 y_18_ * y_15_ + 1 y_18_ ^ 2 ] >= 12918.51
quadratic_ranged_28_lb: [ 1 x_17_ ^ 2 - 2 x_18_ * x_17_ + 1 x_18_ ^ 2 + 1 y_17_ ^ 2 - 2 y_18_ * y_17_ + 1 y_18_ ^ 2 ] >= 15.84
quadratic_ranged_29_lb: [ 1 x_6_ ^ 2 - 2 x_19_ * x_6_ + 1 x_19_ ^ 2 + 1 y_6_ ^ 2 - 2 y_19_ * y_6_ + 1 y_19_ ^ 2 ] >= 15476.67
quadratic_ranged_30_lb: [ 1 x_18_ ^ 2 - 2 x_19_ * x_18_ + 1 x_19_ ^ 2 + 1 y_18_ ^ 2 - 2 y_19_ * y_18_ + 1 y_19_ ^ 2 ] >= 30722.67
quadratic_ranged_31_lb: [ 1 x_19_ ^ 2 - 2 x_20_ * x_19_ + 1 x_20_ ^ 2 + 1 y_19_ ^ 2 - 2 y_20_ * y_19_ + 1 y_20_ ^ 2 ] >= 10019.789999999999
quadratic_ranged_32_lb: [ 1 x_20_ ^ 2 - 2 x_21_ * x_20_ + 1 x_21_ ^ 2 + 1 y_20_ ^ 2 - 2 y_21_ * y_20_ + 1 y_21_ ^ 2 ] >= 2859.12
quadratic_ranged_33_lb: [ 1 x_6_ ^ 2 - 2 x_22_ * x_6_ + 1 x_22_ ^ 2 + 1 y_6_ ^ 2 - 2 y_22_ * y_6_ + 1 y_22_ ^ 2 ] >= 2164.14
quadratic_ranged_34_lb: [ 1 x_21_ ^ 2 - 2 x_22_ * x_21_ + 1 x_22_ ^ 2 + 1 y_21_ ^ 2 - 2 y_22_ * y_21_ + 1 y_22_ ^ 2 ] >= 32725.44
quadratic_ranged_35_lb: [ 1 x_5_ ^ 2 - 2 x_23_ * x_5_ + 1 x_23_ ^ 2 + 1 y_5_ ^ 2 - 2 y_23_ * y_5_ + 1 y_23_ ^ 2 ] >= 3247.2
quadratic_ranged_36_lb: [ 1 x_7_ ^ 2 - 2 x_23_ * x_7_ + 1 x_23_ ^ 2 + 1 y_7_ ^ 2 - 2 y_23_ * y_7_ + 1 y_23_ ^ 2 ] >= 18834.75
quadratic_ranged_37_lb: [ 1 x_22_ ^ 2 - 2 x_23_ * x_22_ + 1 x_23_ ^ 2 + 1 y_22_ ^ 2 - 2 y_23_ * y_22_ + 1 y_23_ ^ 2 ] >= 41154.3
quadratic_ranged_38_lb: [ 1 x_7_ ^ 2 - 2 x_24_ * x_7_ + 1 x_24_ ^ 2 + 1 y_7_ ^ 2 - 2 y_24_ * y_7_ + 1 y_24_ ^ 2 ] >= 41520.6
quadratic_ranged_39_lb: [ 1 x_20_ ^ 2 - 2 x_24_ * x_20_ + 1 x_24_ ^ 2 + 1 y_20_ ^ 2 - 2 y_24_ * y_20_ + 1 y_24_ ^ 2 ] >= 4281.75
quadratic_ranged_40_lb: [ 1 x_23_ ^ 2 - 2 x_24_ * x_23_ + 1 x_24_ ^ 2 + 1 y_23_ ^ 2 - 2 y_24_ * y_23_ + 1 y_24_ ^ 2 ] >= 16577.55
quadratic_ranged_41_lb: [ 1 x_4_ ^ 2 - 2 x_25_ * x_4_ + 1 x_25_ ^ 2 + 1 y_4_ ^ 2 - 2 y_25_ * y_4_ + 1 y_25_ ^ 2 ] >= 5801.4
quadratic_ranged_42_lb: [ 1 x_7_ ^ 2 - 2 x_25_ * x_7_ + 1 x_25_ ^ 2 + 1 y_7_ ^ 2 - 2 y_25_ * y_7_ + 1 y_25_ ^ 2 ] >= 15884.55
quadratic_ranged_43_lb: [ 1 x_9_ ^ 2 - 2 x_25_ * x_9_ + 1 x_25_ ^ 2 + 1 y_9_ ^ 2 - 2 y_25_ * y_9_ + 1 y_25_ ^ 2 ] >= 24002.55
quadratic_ranged_44_lb: [ 1 x_11_ ^ 2 - 2 x_25_ * x_11_ + 1 x_25_ ^ 2 + 1 y_11_ ^ 2 - 2 y_25_ * y_11_ + 1 y_25_ ^ 2 ] >= 9295.11
quadratic_ranged_45_lb: [ 1 x_24_ ^ 2 - 2 x_25_ * x_24_ + 1 x_25_ ^ 2 + 1 y_24_ ^ 2 - 2 y_25_ * y_24_ + 1 y_25_ ^ 2 ] >= 11215.71
quadratic_ranged_46_lb: [ 1 x_9_ ^ 2 - 2 x_26_ * x_9_ + 1 x_26_ ^ 2 + 1 y_9_ ^ 2 - 2 y_26_ * y_9_ + 1 y_26_ ^ 2 ] >= 23958
quadratic_ranged_47_lb: [ 1 x_15_ ^ 2 - 2 x_26_ * x_15_ + 1 x_26_ ^ 2 + 1 y_15_ ^ 2 - 2 y_26_ * y_15_ + 1 y_26_ ^ 2 ] >= 12285.9
quadratic_ranged_48_lb: [ 1 x_25_ ^ 2 - 2 x_26_ * x_25_ + 1 x_26_ ^ 2 + 1 y_25_ ^ 2 - 2 y_26_ * y_25_ + 1 y_26_ ^ 2 ] >= 262.35
quadratic_ranged_49_lb: [ 1 x_2_ ^ 2 - 2 x_27_ * x_2_ + 1 x_27_ ^ 2 + 1 y_2_ ^ 2 - 2 y_27_ * y_2_ + 1 y_27_ ^ 2 ] >= 14078.789999999999
quadratic_ranged_50_lb: [ 1 x_26_ ^ 2 - 2 x_27_ * x_26_ + 1 x_27_ ^ 2 + 1 y_26_ ^ 2 - 2 y_27_ * y_26_ + 1 y_27_ ^ 2 ] >= 2396.79
quadratic_ranged_51_lb: [ 1 x_4_ ^ 2 - 2 x_28_ * x_4_ + 1 x_28_ ^ 2 + 1 y_4_ ^ 2 - 2 y_28_ * y_4_ + 1 y_28_ ^ 2 ] >= 4994.55
quadratic_ranged_52_lb: [ 1 x_7_ ^ 2 - 2 x_28_ * x_7_ + 1 x_28_ ^ 2 + 1 y_7_ ^ 2 - 2 y_28_ * y_7_ + 1 y_28_ ^ 2 ] >= 2172.06
quadratic_ranged_53_lb: [ 1 x_10_ ^ 2 - 2 x_28_ * x_10_ + 1 x_28_ ^ 2 + 1 y_10_ ^ 2 - 2 y_28_ * y_10_ + 1 y_28_ ^ 2 ] >= 26544.87
quadratic_ranged_54_lb: [ 1 x_13_ ^ 2 - 2 x_28_ * x_13_ + 1 x_28_ ^ 2 + 1 y_13_ ^ 2 - 2 y_28_ * y_13_ + 1 y_28_ ^ 2 ] >= 6092.46
quadratic_ranged_55_lb: [ 1 x_14_ ^ 2 - 2 x_28_ * x_14_ + 1 x_28_ ^ 2 + 1 y_14_ ^ 2 - 2 y_28_ * y_14_ + 1 y_28_ ^ 2 ] >= 1831.5
quadratic_ranged_56_lb: [ 1 x_27_ ^ 2 - 2 x_28_ * x_27_ + 1 x_28_ ^ 2 + 1 y_27_ ^ 2 - 2 y_28_ * y_27_ + 1 y_28_ ^ 2 ] >= 19876.23
quadratic_ranged_57_lb: [ 1 x_15_ ^ 2 - 2 x_29_ * x_15_ + 1 x_29_ ^ 2 + 1 y_15_ ^ 2 - 2 y_29_ * y_15_ + 1 y_29_ ^ 2 ] >= 18192.24
quadratic_ranged_58_lb: [ 1 x_25_ ^ 2 - 2 x_29_ * x_25_ + 1 x_29_ ^ 2 + 1 y_25_ ^ 2 - 2 y_29_ * y_25_ + 1 y_29_ ^ 2 ] >= 2262.15
quadratic_ranged_59_lb: [ 1 x_28_ ^ 2 - 2 x_29_ * x_28_ + 1 x_29_ ^ 2 + 1 y_28_ ^ 2 - 2 y_29_ * y_28_ + 1 y_29_ ^ 2 ] >= 9252.539999999999
quadratic_ranged_60_lb: [ 1 x_4_ ^ 2 - 2 x_30_ * x_4_ + 1 x_30_ ^ 2 + 1 y_4_ ^ 2 - 2 y_30_ * y_4_ + 1 y_30_ ^ 2 ] >= 39703.95
quadratic_ranged_61_lb: [ 1 x_7_ ^ 2 - 2 x_30_ * x_7_ + 1 x_30_ ^ 2 + 1 y_7_ ^ 2 - 2 y_30_ * y_7_ + 1 y_30_ ^ 2 ] >= 50088.06
quadratic_ranged_62_lb: [ 1 x_12_ ^ 2 - 2 x_30_ * x_12_ + 1 x_30_ ^ 2 + 1 y_12_ ^ 2 - 2 y_30_ * y_12_ + 1 y_30_ ^ 2 ] >= 24148.079999999998
quadratic_ranged_63_lb: [ 1 x_15_ ^ 2 - 2 x_30_ * x_15_ + 1 x_30_ ^ 2 + 1 y_15_ ^ 2 - 2 y_30_ * y_15_ + 1 y_30_ ^ 2 ] >= 2623.5
quadratic_ranged_64_lb: [ 1 x_27_ ^ 2 - 2 x_30_ * x_27_ + 1 x_30_ ^ 2 + 1 y_27_ ^ 2 - 2 y_30_ * y_27_ + 1 y_30_ ^ 2 ] >= 15302.43
quadratic_ranged_65_lb: [ 1 x_29_ ^ 2 - 2 x_30_ * x_29_ + 1 x_30_ ^ 2 + 1 y_29_ ^ 2 - 2 y_30_ * y_29_ + 1 y_30_ ^ 2 ] >= 34517.34
quadratic_ranged_66_lb: [ 1 x_12_ ^ 2 - 2 x_31_ * x_12_ + 1 x_31_ ^ 2 + 1 y_12_ ^ 2 - 2 y_31_ * y_12_ + 1 y_31_ ^ 2 ] >= 1980
quadratic_ranged_67_lb: [ 1 x_13_ ^ 2 - 2 x_31_ * x_13_ + 1 x_31_ ^ 2 + 1 y_13_ ^ 2 - 2 y_31_ * y_13_ + 1 y_31_ ^ 2 ] >= 12673.98
quadratic_ranged_68_lb: [ 1 x_30_ ^ 2 - 2 x_31_ * x_30_ + 1 x_31_ ^ 2 + 1 y_30_ ^ 2 - 2 y_31_ * y_30_ + 1 y_31_ ^ 2 ] >= 14960.88
quadratic_ranged_69_lb: [ 1 x_8_ ^ 2 - 2 x_32_ * x_8_ + 1 x_32_ ^ 2 + 1 y_8_ ^ 2 - 2 y_32_ * y_8_ + 1 y_32_ ^ 2 ] >= 19998.99
quadratic_ranged_70_lb: [ 1 x_9_ ^ 2 - 2 x_32_ * x_9_ + 1 x_32_ ^ 2 + 1 y_9_ ^ 2 - 2 y_32_ * y_9_ + 1 y_32_ ^ 2 ] >= 18590.22
quadratic_ranged_71_lb: [ 1 x_16_ ^ 2 - 2 x_32_ * x_16_ + 1 x_32_ ^ 2 + 1 y_16_ ^ 2 - 2 y_32_ * y_16_ + 1 y_32_ ^ 2 ] >= 18962.46
quadratic_ranged_72_lb: [ 1 x_18_ ^ 2 - 2 x_32_ * x_18_ + 1 x_32_ ^ 2 + 1 y_18_ ^ 2 - 2 y_32_ * y_18_ + 1 y_32_ ^ 2 ] >= 13480.83
quadratic_ranged_73_lb: [ 1 x_19_ ^ 2 - 2 x_32_ * x_19_ + 1 x_32_ ^ 2 + 1 y_19_ ^ 2 - 2 y_32_ * y_19_ + 1 y_32_ ^ 2 ] >= 20580.12
quadratic_ranged_74_lb: [ 1 x_31_ ^ 2 - 2 x_32_ * x_31_ + 1 x_32_ ^ 2 + 1 y_31_ ^ 2 - 2 y_32_ * y_31_ + 1 y_32_ ^ 2 ] >= 5894.46
quadratic_ranged_75_lb: [ 1 x_4_ ^ 2 - 2 x_33_ * x_4_ + 1 x_33_ ^ 2 + 1 y_4_ ^ 2 - 2 y_33_ * y_4_ + 1 y_33_ ^ 2 ] >= 10385.1
quadratic_ranged_76_lb: [ 1 x_6_ ^ 2 - 2 x_33_ * x_6_ + 1 x_33_ ^ 2 + 1 y_6_ ^ 2 - 2 y_33_ * y_6_ + 1 y_33_ ^ 2 ] >= 2478.96
quadratic_ranged_77_lb: [ 1 x_8_ ^ 2 - 2 x_33_ * x_8_ + 1 x_33_ ^ 2 + 1 y_8_ ^ 2 - 2 y_33_ * y_8_ + 1 y_33_ ^ 2 ] >= 6401.34
quadratic_ranged_78_lb: [ 1 x_32_ ^ 2 - 2 x_33_ * x_32_ + 1 x_33_ ^ 2 + 1 y_32_ ^ 2 - 2 y_33_ * y_32_ + 1 y_33_ ^ 2 ] >= 5659.83
quadratic_ranged_79_lb: [ 1 x_7_ ^ 2 - 2 x_34_ * x_7_ + 1 x_34_ ^ 2 + 1 y_7_ ^ 2 - 2 y_34_ * y_7_ + 1 y_34_ ^ 2 ] >= 35364.78
quadratic_ranged_80_lb: [ 1 x_9_ ^ 2 - 2 x_34_ * x_9_ + 1 x_34_ ^ 2 + 1 y_9_ ^ 2 - 2 y_34_ * y_9_ + 1 y_34_ ^ 2 ] >= 11222.64
quadratic_ranged_81_lb: [ 1 x_17_ ^ 2 - 2 x_34_ * x_17_ + 1 x_34_ ^ 2 + 1 y_17_ ^ 2 - 2 y_34_ * y_17_ + 1 y_34_ ^ 2 ] >= 4626.2699999999995
quadratic_ranged_82_lb: [ 1 x_22_ ^ 2 - 2 x_34_ * x_22_ + 1 x_34_ ^ 2 + 1 y_22_ ^ 2 - 2 y_34_ * y_22_ + 1 y_34_ ^ 2 ] >= 14225.31
quadratic_ranged_83_lb: [ 1 x_24_ ^ 2 - 2 x_34_ * x_24_ + 1 x_34_ ^ 2 + 1 y_24_ ^ 2 - 2 y_34_ * y_24_ + 1 y_34_ ^ 2 ] >= 8349.66
quadratic_ranged_84_lb: [ 1 x_33_ ^ 2 - 2 x_34_ * x_33_ + 1 x_34_ ^ 2 + 1 y_33_ ^ 2 - 2 y_34_ * y_33_ + 1 y_34_ ^ 2 ] >= 6051.87
quadratic_ranged_85_lb: [ 1 x_3_ ^ 2 - 2 x_35_ * x_3_ + 1 x_35_ ^ 2 + 1 y_3_ ^ 2 - 2 y_35_ * y_3_ + 1 y_35_ ^ 2 ] >= 12721.5
quadratic_ranged_86_lb: [ 1 x_10_ ^ 2 - 2 x_35_ * x_10_ + 1 x_35_ ^ 2 + 1 y_10_ ^ 2 - 2 y_35_ * y_10_ + 1 y_35_ ^ 2 ] >= 27637.829999999998
quadratic_ranged_87_lb: [ 1 x_19_ ^ 2 - 2 x_35_ * x_19_ + 1 x_35_ ^ 2 + 1 y_19_ ^ 2 - 2 y_35_ * y_19_ + 1 y_35_ ^ 2 ] >= 21647.34
quadratic_ranged_88_lb: [ 1 x_20_ ^ 2 - 2 x_35_ * x_20_ + 1 x_35_ ^ 2 + 1 y_20_ ^ 2 - 2 y_35_ * y_20_ + 1 y_35_ ^ 2 ] >= 29083.23
quadratic_ranged_89_lb: [ 1 x_21_ ^ 2 - 2 x_35_ * x_21_ + 1 x_35_ ^ 2 + 1 y_21_ ^ 2 - 2 y_35_ * y_21_ + 1 y_35_ ^ 2 ] >= 24794.55
quadratic_ranged_90_lb: [ 1 x_34_ ^ 2 - 2 x_35_ * x_34_ + 1 x_35_ ^ 2 + 1 y_34_ ^ 2 - 2 y_35_ * y_34_ + 1 y_35_ ^ 2 ] >= 11634.48
quadratic_ranged_91_lb: [ 1 x_15_ ^ 2 - 2 x_36_ * x_15_ + 1 x_36_ ^ 2 + 1 y_15_ ^ 2 - 2 y_36_ * y_15_ + 1 y_36_ ^ 2 ] >= 5563.8
quadratic_ranged_92_lb: [ 1 x_22_ ^ 2 - 2 x_36_ * x_22_ + 1 x_36_ ^ 2 + 1 y_22_ ^ 2 - 2 y_36_ * y_22_ + 1 y_36_ ^ 2 ] >= 11730.51
quadratic_ranged_93_lb: [ 1 x_35_ ^ 2 - 2 x_36_ * x_35_ + 1 x_36_ ^ 2 + 1 y_35_ ^ 2 - 2 y_36_ * y_35_ + 1 y_36_ ^ 2 ] >= 9711.9
quadratic_ranged_94_lb: [ 1 x_12_ ^ 2 - 2 x_37_ * x_12_ + 1 x_37_ ^ 2 + 1 y_12_ ^ 2 - 2 y_37_ * y_12_ + 1 y_37_ ^ 2 ] >= 168.3
quadratic_ranged_95_lb: [ 1 x_15_ ^ 2 - 2 x_37_ * x_15_ + 1 x_37_ ^ 2 + 1 y_15_ ^ 2 - 2 y_37_ * y_15_ + 1 y_37_ ^ 2 ] >= 14319.36
quadratic_ranged_96_lb: [ 1 x_36_ ^ 2 - 2 x_37_ * x_36_ + 1 x_37_ ^ 2 + 1 y_36_ ^ 2 - 2 y_37_ * y_36_ + 1 y_37_ ^ 2 ] >= 31889.88
quadratic_ranged_97_lb: [ 1 x_33_ ^ 2 - 2 x_38_ * x_33_ + 1 x_38_ ^ 2 + 1 y_33_ ^ 2 - 2 y_38_ * y_33_ + 1 y_38_ ^ 2 ] >= 3295.71
quadratic_ranged_98_lb: [ 1 x_37_ ^ 2 - 2 x_38_ * x_37_ + 1 x_38_ ^ 2 + 1 y_37_ ^ 2 - 2 y_38_ * y_37_ + 1 y_38_ ^ 2 ] >= 15026.22
quadratic_ranged_99_lb: [ 1 x_8_ ^ 2 - 2 x_39_ * x_8_ + 1 x_39_ ^ 2 + 1 y_8_ ^ 2 - 2 y_39_ * y_8_ + 1 y_39_ ^ 2 ] >= 17037.9
quadratic_ranged_100_lb: [ 1 x_20_ ^ 2 - 2 x_39_ * x_20_ + 1 x_39_ ^ 2 + 1 y_20_ ^ 2 - 2 y_39_ * y_20_ + 1 y_39_ ^ 2 ] >= 1435.5
quadratic_ranged_101_lb: [ 1 x_38_ ^ 2 - 2 x_39_ * x_38_ + 1 x_39_ ^ 2 + 1 y_38_ ^ 2 - 2 y_39_ * y_38_ + 1 y_39_ ^ 2 ] >= 13809.51
quadratic_ranged_102_lb: [ 1 x_30_ ^ 2 - 2 x_40_ * x_30_ + 1 x_40_ ^ 2 + 1 y_30_ ^ 2 - 2 y_40_ * y_30_ + 1 y_40_ ^ 2 ] >= 9231.75
quadratic_ranged_103_lb: [ 1 x_31_ ^ 2 - 2 x_40_ * x_31_ + 1 x_40_ ^ 2 + 1 y_31_ ^ 2 - 2 y_40_ * y_31_ + 1 y_40_ ^ 2 ] >= 1038.51
quadratic_ranged_104_lb: [ 1 x_39_ ^ 2 - 2 x_40_ * x_39_ + 1 x_40_ ^ 2 + 1 y_39_ ^ 2 - 2 y_40_ * y_39_ + 1 y_40_ ^ 2 ] >= 8127.9
quadratic_ranged_105_lb: [ 1 x_1_ ^ 2 - 2 x_41_ * x_1_ + 1 x_41_ ^ 2 + 1 y_1_ ^ 2 - 2 y_41_ * y_1_ + 1 y_41_ ^ 2 ] >= 18661.5
quadratic_ranged_106_lb: [ 1 x_2_ ^ 2 - 2 x_41_ * x_2_ + 1 x_41_ ^ 2 + 1 y_2_ ^ 2 - 2 y_41_ * y_2_ + 1 y_41_ ^ 2 ] >= 7842.78
quadratic_ranged_107_lb: [ 1 x_12_ ^ 2 - 2 x_41_ * x_12_ + 1 x_41_ ^ 2 + 1 y_12_ ^ 2 - 2 y_41_ * y_12_ + 1 y_41_ ^ 2 ] >= 9694.08
quadratic_ranged_108_lb: [ 1 x_13_ ^ 2 - 2 x_41_ * x_13_ + 1 x_41_ ^ 2 + 1 y_13_ ^ 2 - 2 y_41_ * y_13_ + 1 y_41_ ^ 2 ] >= 20269.26
quadratic_ranged_109_lb: [ 1 x_16_ ^ 2 - 2 x_41_ * x_16_ + 1 x_41_ ^ 2 + 1 y_16_ ^ 2 - 2 y_41_ * y_16_ + 1 y_41_ ^ 2 ] >= 37164.6
quadratic_ranged_110_lb: [ 1 x_21_ ^ 2 - 2 x_41_ * x_21_ + 1 x_41_ ^ 2 + 1 y_21_ ^ 2 - 2 y_41_ * y_21_ + 1 y_41_ ^ 2 ] >= 7928.91
quadratic_ranged_111_lb: [ 1 x_23_ ^ 2 - 2 x_41_ * x_23_ + 1 x_41_ ^ 2 + 1 y_23_ ^ 2 - 2 y_41_ * y_23_ + 1 y_41_ ^ 2 ] >= 9172.35
quadratic_ranged_112_lb: [ 1 x_40_ ^ 2 - 2 x_41_ * x_40_ + 1 x_41_ ^ 2 + 1 y_40_ ^ 2 - 2 y_41_ * y_40_ + 1 y_41_ ^ 2 ] >= 14114.43
quadratic_ranged_113_lb: [ 1 x_3_ ^ 2 - 2 x_42_ * x_3_ + 1 x_42_ ^ 2 + 1 y_3_ ^ 2 - 2 y_42_ * y_3_ + 1 y_42_ ^ 2 ] >= 27611.1
quadratic_ranged_114_lb: [ 1 x_4_ ^ 2 - 2 x_42_ * x_4_ + 1 x_42_ ^ 2 + 1 y_4_ ^ 2 - 2 y_42_ * y_4_ + 1 y_42_ ^ 2 ] >= 31284.989999999998
quadratic_ranged_115_lb: [ 1 x_18_ ^ 2 - 2 x_42_ * x_18_ + 1 x_42_ ^ 2 + 1 y_18_ ^ 2 - 2 y_42_ * y_18_ + 1 y_42_ ^ 2 ] >= 171.27
quadratic_ranged_116_lb: [ 1 x_20_ ^ 2 - 2 x_42_ * x_20_ + 1 x_42_ ^ 2 + 1 y_20_ ^ 2 - 2 y_42_ * y_20_ + 1 y_42_ ^ 2 ] >= 32298.75
quadratic_ranged_117_lb: [ 1 x_41_ ^ 2 - 2 x_42_ * x_41_ + 1 x_42_ ^ 2 + 1 y_41_ ^ 2 - 2 y_42_ * y_41_ + 1 y_42_ ^ 2 ] >= 34392.6
quadratic_ranged_118_lb: [ 1 x_4_ ^ 2 - 2 x_43_ * x_4_ + 1 x_43_ ^ 2 + 1 y_4_ ^ 2 - 2 y_43_ * y_4_ + 1 y_43_ ^ 2 ] >= 25884.54
quadratic_ranged_119_lb: [ 1 x_5_ ^ 2 - 2 x_43_ * x_5_ + 1 x_43_ ^ 2 + 1 y_5_ ^ 2 - 2 y_43_ * y_5_ + 1 y_43_ ^ 2 ] >= 23526.36
quadratic_ranged_120_lb: [ 1 x_11_ ^ 2 - 2 x_43_ * x_11_ + 1 x_43_ ^ 2 + 1 y_11_ ^ 2 - 2 y_43_ * y_11_ + 1 y_43_ ^ 2 ] >= 4032.27
quadratic_ranged_121_lb: [ 1 x_12_ ^ 2 - 2 x_43_ * x_12_ + 1 x_43_ ^ 2 + 1 y_12_ ^ 2 - 2 y_43_ * y_12_ + 1 y_43_ ^ 2 ] >= 30900.87
quadratic_ranged_122_lb: [ 1 x_21_ ^ 2 - 2 x_43_ * x_21_ + 1 x_43_ ^ 2 + 1 y_21_ ^ 2 - 2 y_43_ * y_21_ + 1 y_43_ ^ 2 ] >= 27737.82
quadratic_ranged_123_lb: [ 1 x_22_ ^ 2 - 2 x_43_ * x_22_ + 1 x_43_ ^ 2 + 1 y_22_ ^ 2 - 2 y_43_ * y_22_ + 1 y_43_ ^ 2 ] >= 3502.62
quadratic_ranged_124_lb: [ 1 x_26_ ^ 2 - 2 x_43_ * x_26_ + 1 x_43_ ^ 2 + 1 y_26_ ^ 2 - 2 y_43_ * y_26_ + 1 y_43_ ^ 2 ] >= 27111.15
quadratic_ranged_125_lb: [ 1 x_39_ ^ 2 - 2 x_43_ * x_39_ + 1 x_43_ ^ 2 + 1 y_39_ ^ 2 - 2 y_43_ * y_39_ + 1 y_43_ ^ 2 ] >= 37738.8
quadratic_ranged_126_lb: [ 1 x_42_ ^ 2 - 2 x_43_ * x_42_ + 1 x_43_ ^ 2 + 1 y_42_ ^ 2 - 2 y_43_ * y_42_ + 1 y_43_ ^ 2 ] >= 321.75
quadratic_ranged_127_lb: [ 1 x_13_ ^ 2 - 2 x_44_ * x_13_ + 1 x_44_ ^ 2 + 1 y_13_ ^ 2 - 2 y_44_ * y_13_ + 1 y_44_ ^ 2 ] >= 16594.38
quadratic_ranged_128_lb: [ 1 x_16_ ^ 2 - 2 x_44_ * x_16_ + 1 x_44_ ^ 2 + 1 y_16_ ^ 2 - 2 y_44_ * y_16_ + 1 y_44_ ^ 2 ] >= 28832.76
quadratic_ranged_129_lb: [ 1 x_38_ ^ 2 - 2 x_44_ * x_38_ + 1 x_44_ ^ 2 + 1 y_38_ ^ 2 - 2 y_44_ * y_38_ + 1 y_44_ ^ 2 ] >= 31272.12
quadratic_ranged_130_lb: [ 1 x_41_ ^ 2 - 2 x_44_ * x_41_ + 1 x_44_ ^ 2 + 1 y_41_ ^ 2 - 2 y_44_ * y_41_ + 1 y_44_ ^ 2 ] >= 3674.88
quadratic_ranged_131_lb: [ 1 x_43_ ^ 2 - 2 x_44_ * x_43_ + 1 x_44_ ^ 2 + 1 y_43_ ^ 2 - 2 y_44_ * y_43_ + 1 y_44_ ^ 2 ] >= 24279.75
quadratic_ranged_132_lb: [ 1 x_6_ ^ 2 - 2 x_45_ * x_6_ + 1 x_45_ ^ 2 + 1 y_6_ ^ 2 - 2 y_45_ * y_6_ + 1 y_45_ ^ 2 ] >= 24299.55
quadratic_ranged_133_lb: [ 1 x_10_ ^ 2 - 2 x_45_ * x_10_ + 1 x_45_ ^ 2 + 1 y_10_ ^ 2 - 2 y_45_ * y_10_ + 1 y_45_ ^ 2 ] >= 5588.55
quadratic_ranged_134_lb: [ 1 x_23_ ^ 2 - 2 x_45_ * x_23_ + 1 x_45_ ^ 2 + 1 y_23_ ^ 2 - 2 y_45_ * y_23_ + 1 y_45_ ^ 2 ] >= 1327.59
quadratic_ranged_135_lb: [ 1 x_24_ ^ 2 - 2 x_45_ * x_24_ + 1 x_45_ ^ 2 + 1 y_24_ ^ 2 - 2 y_45_ * y_24_ + 1 y_45_ ^ 2 ] >= 9001.08
quadratic_ranged_136_lb: [ 1 x_44_ ^ 2 - 2 x_45_ * x_44_ + 1 x_45_ ^ 2 + 1 y_44_ ^ 2 - 2 y_45_ * y_44_ + 1 y_45_ ^ 2 ] >= 29797.02
quadratic_ranged_137_lb: [ 1 x_7_ ^ 2 - 2 x_46_ * x_7_ + 1 x_46_ ^ 2 + 1 y_7_ ^ 2 - 2 y_46_ * y_7_ + 1 y_46_ ^ 2 ] >= 1450.35
quadratic_ranged_138_lb: [ 1 x_10_ ^ 2 - 2 x_46_ * x_10_ + 1 x_46_ ^ 2 + 1 y_10_ ^ 2 - 2 y_46_ * y_10_ + 1 y_46_ ^ 2 ] >= 30889.98
quadratic_ranged_139_lb: [ 1 x_13_ ^ 2 - 2 x_46_ * x_13_ + 1 x_46_ ^ 2 + 1 y_13_ ^ 2 - 2 y_46_ * y_13_ + 1 y_46_ ^ 2 ] >= 19698.03
quadratic_ranged_140_lb: [ 1 x_18_ ^ 2 - 2 x_46_ * x_18_ + 1 x_46_ ^ 2 + 1 y_18_ ^ 2 - 2 y_46_ * y_18_ + 1 y_46_ ^ 2 ] >= 28949.579999999998
quadratic_ranged_141_lb: [ 1 x_33_ ^ 2 - 2 x_46_ * x_33_ + 1 x_46_ ^ 2 + 1 y_33_ ^ 2 - 2 y_46_ * y_33_ + 1 y_46_ ^ 2 ] >= 13267.98
quadratic_ranged_142_lb: [ 1 x_34_ ^ 2 - 2 x_46_ * x_34_ + 1 x_46_ ^ 2 + 1 y_34_ ^ 2 - 2 y_46_ * y_34_ + 1 y_46_ ^ 2 ] >= 37236.87
quadratic_ranged_143_lb: [ 1 x_35_ ^ 2 - 2 x_46_ * x_35_ + 1 x_46_ ^ 2 + 1 y_35_ ^ 2 - 2 y_46_ * y_35_ + 1 y_46_ ^ 2 ] >= 16941.87
quadratic_ranged_144_lb: [ 1 x_40_ ^ 2 - 2 x_46_ * x_40_ + 1 x_46_ ^ 2 + 1 y_40_ ^ 2 - 2 y_46_ * y_40_ + 1 y_46_ ^ 2 ] >= 15083.64
quadratic_ranged_145_lb: [ 1 x_45_ ^ 2 - 2 x_46_ * x_45_ + 1 x_46_ ^ 2 + 1 y_45_ ^ 2 - 2 y_46_ * y_45_ + 1 y_46_ ^ 2 ] >= 16929.99
quadratic_ranged_146_lb: [ 1 x_5_ ^ 2 - 2 x_47_ * x_5_ + 1 x_47_ ^ 2 + 1 y_5_ ^ 2 - 2 y_47_ * y_5_ + 1 y_47_ ^ 2 ] >= 19407.96
quadratic_ranged_147_lb: [ 1 x_23_ ^ 2 - 2 x_47_ * x_23_ + 1 x_47_ ^ 2 + 1 y_23_ ^ 2 - 2 y_47_ * y_23_ + 1 y_47_ ^ 2 ] >= 25332.12
quadratic_ranged_148_lb: [ 1 x_46_ ^ 2 - 2 x_47_ * x_46_ + 1 x_47_ ^ 2 + 1 y_46_ ^ 2 - 2 y_47_ * y_46_ + 1 y_47_ ^ 2 ] >= 12808.619999999999
quadratic_ranged_149_lb: [ 1 x_5_ ^ 2 - 2 x_48_ * x_5_ + 1 x_48_ ^ 2 + 1 y_5_ ^ 2 - 2 y_48_ * y_5_ + 1 y_48_ ^ 2 ] >= 25424.19
quadratic_ranged_150_lb: [ 1 x_6_ ^ 2 - 2 x_48_ * x_6_ + 1 x_48_ ^ 2 + 1 y_6_ ^ 2 - 2 y_48_ * y_6_ + 1 y_48_ ^ 2 ] >= 4459.95
quadratic_ranged_151_lb: [ 1 x_19_ ^ 2 - 2 x_48_ * x_19_ + 1 x_48_ ^ 2 + 1 y_19_ ^ 2 - 2 y_48_ * y_19_ + 1 y_48_ ^ 2 ] >= 11311.74
quadratic_ranged_152_lb: [ 1 x_42_ ^ 2 - 2 x_48_ * x_42_ + 1 x_48_ ^ 2 + 1 y_42_ ^ 2 - 2 y_48_ * y_42_ + 1 y_48_ ^ 2 ] >= 18833.76
quadratic_ranged_153_lb: [ 1 x_43_ ^ 2 - 2 x_48_ * x_43_ + 1 x_48_ ^ 2 + 1 y_43_ ^ 2 - 2 y_48_ * y_43_ + 1 y_48_ ^ 2 ] >= 16027.11
quadratic_ranged_154_lb: [ 1 x_47_ ^ 2 - 2 x_48_ * x_47_ + 1 x_48_ ^ 2 + 1 y_47_ ^ 2 - 2 y_48_ * y_47_ + 1 y_48_ ^ 2 ] >= 4574.79
quadratic_ranged_155_lb: [ 1 x_11_ ^ 2 - 2 x_49_ * x_11_ + 1 x_49_ ^ 2 + 1 y_11_ ^ 2 - 2 y_49_ * y_11_ + 1 y_49_ ^ 2 ] >= 14355
quadratic_ranged_156_lb: [ 1 x_20_ ^ 2 - 2 x_49_ * x_20_ + 1 x_49_ ^ 2 + 1 y_20_ ^ 2 - 2 y_49_ * y_20_ + 1 y_49_ ^ 2 ] >= 29297.07
quadratic_ranged_157_lb: [ 1 x_31_ ^ 2 - 2 x_49_ * x_31_ + 1 x_49_ ^ 2 + 1 y_31_ ^ 2 - 2 y_49_ * y_31_ + 1 y_49_ ^ 2 ] >= 15707.34
quadratic_ranged_158_lb: [ 1 x_42_ ^ 2 - 2 x_49_ * x_42_ + 1 x_49_ ^ 2 + 1 y_42_ ^ 2 - 2 y_49_ * y_42_ + 1 y_49_ ^ 2 ] >= 25480.62
quadratic_ranged_159_lb: [ 1 x_48_ ^ 2 - 2 x_49_ * x_48_ + 1 x_49_ ^ 2 + 1 y_48_ ^ 2 - 2 y_49_ * y_48_ + 1 y_49_ ^ 2 ] >= 667.26
quadratic_ranged_160_lb: [ 1 x_1_ ^ 2 - 2 x_50_ * x_1_ + 1 x_50_ ^ 2 + 1 y_1_ ^ 2 - 2 y_50_ * y_1_ + 1 y_50_ ^ 2 ] >= 958.3199999999999
quadratic_ranged_161_lb: [ 1 x_21_ ^ 2 - 2 x_50_ * x_21_ + 1 x_50_ ^ 2 + 1 y_21_ ^ 2 - 2 y_50_ * y_21_ + 1 y_50_ ^ 2 ] >= 15231.15
quadratic_ranged_162_lb: [ 1 x_28_ ^ 2 - 2 x_50_ * x_28_ + 1 x_50_ ^ 2 + 1 y_28_ ^ 2 - 2 y_50_ * y_28_ + 1 y_50_ ^ 2 ] >= 16135.02
quadratic_ranged_163_lb: [ 1 x_36_ ^ 2 - 2 x_50_ * x_36_ + 1 x_50_ ^ 2 + 1 y_36_ ^ 2 - 2 y_50_ * y_36_ + 1 y_50_ ^ 2 ] >= 1853.28
quadratic_ranged_164_lb: [ 1 x_42_ ^ 2 - 2 x_50_ * x_42_ + 1 x_50_ ^ 2 + 1 y_42_ ^ 2 - 2 y_50_ * y_42_ + 1 y_50_ ^ 2 ] >= 7708.14
quadratic_ranged_165_lb: [ 1 x_49_ ^ 2 - 2 x_50_ * x_49_ + 1 x_50_ ^ 2 + 1 y_49_ ^ 2 - 2 y_50_ * y_49_ + 1 y_50_ ^ 2 ] >= 27601.2
quadratic_ranged_166_lb: [ 1 x_1_ ^ 2 - 2 x_51_ * x_1_ + 1 x_51_ ^ 2 + 1 y_1_ ^ 2 - 2 y_51_ * y_1_ + 1 y_51_ ^ 2 ] >= 3977.82
quadratic_ranged_167_lb: [ 1 x_3_ ^ 2 - 2 x_51_ * x_3_ + 1 x_51_ ^ 2 + 1 y_3_ ^ 2 - 2 y_51_ * y_3_ + 1 y_51_ ^ 2 ] >= 32410.62
quadratic_ranged_168_lb: [ 1 x_6_ ^ 2 - 2 x_51_ * x_6_ + 1 x_51_ ^ 2 + 1 y_6_ ^ 2 - 2 y_51_ * y_6_ + 1 y_51_ ^ 2 ] >= 9742.59
quadratic_ranged_169_lb: [ 1 x_21_ ^ 2 - 2 x_51_ * x_21_ + 1 x_51_ ^ 2 + 1 y_21_ ^ 2 - 2 y_51_ * y_21_ + 1 y_51_ ^ 2 ] >= 28631.79
quadratic_ranged_170_lb: [ 1 x_34_ ^ 2 - 2 x_51_ * x_34_ + 1 x_51_ ^ 2 + 1 y_34_ ^ 2 - 2 y_51_ * y_34_ + 1 y_51_ ^ 2 ] >= 384.12
quadratic_ranged_171_lb: [ 1 x_35_ ^ 2 - 2 x_51_ * x_35_ + 1 x_51_ ^ 2 + 1 y_35_ ^ 2 - 2 y_51_ * y_35_ + 1 y_51_ ^ 2 ] >= 9523.8
quadratic_ranged_172_lb: [ 1 x_38_ ^ 2 - 2 x_51_ * x_38_ + 1 x_51_ ^ 2 + 1 y_38_ ^ 2 - 2 y_51_ * y_38_ + 1 y_51_ ^ 2 ] >= 4851
quadratic_ranged_173_lb: [ 1 x_40_ ^ 2 - 2 x_51_ * x_40_ + 1 x_51_ ^ 2 + 1 y_40_ ^ 2 - 2 y_51_ * y_40_ + 1 y_51_ ^ 2 ] >= 10075.23
quadratic_ranged_174_lb: [ 1 x_50_ ^ 2 - 2 x_51_ * x_50_ + 1 x_51_ ^ 2 + 1 y_50_ ^ 2 - 2 y_51_ * y_50_ + 1 y_51_ ^ 2 ] >= 2496.78
quadratic_ranged_175_lb: [ 1 x_2_ ^ 2 - 2 x_52_ * x_2_ + 1 x_52_ ^ 2 + 1 y_2_ ^ 2 - 2 y_52_ * y_2_ + 1 y_52_ ^ 2 ] >= 753.39
quadratic_ranged_176_lb: [ 1 x_4_ ^ 2 - 2 x_52_ * x_4_ + 1 x_52_ ^ 2 + 1 y_4_ ^ 2 - 2 y_52_ * y_4_ + 1 y_52_ ^ 2 ] >= 9543.6
quadratic_ranged_177_lb: [ 1 x_32_ ^ 2 - 2 x_52_ * x_32_ + 1 x_52_ ^ 2 + 1 y_32_ ^ 2 - 2 y_52_ * y_32_ + 1 y_52_ ^ 2 ] >= 7489.35
quadratic_ranged_178_lb: [ 1 x_36_ ^ 2 - 2 x_52_ * x_36_ + 1 x_52_ ^ 2 + 1 y_36_ ^ 2 - 2 y_52_ * y_36_ + 1 y_52_ ^ 2 ] >= 6847.83
quadratic_ranged_179_lb: [ 1 x_50_ ^ 2 - 2 x_52_ * x_50_ + 1 x_52_ ^ 2 + 1 y_50_ ^ 2 - 2 y_52_ * y_50_ + 1 y_52_ ^ 2 ] >= 4305.51
quadratic_ranged_180_lb: [ 1 x_51_ ^ 2 - 2 x_52_ * x_51_ + 1 x_52_ ^ 2 + 1 y_51_ ^ 2 - 2 y_52_ * y_51_ + 1 y_52_ ^ 2 ] >= 7422.03
quadratic_ranged_181_lb: [ 1 x_36_ ^ 2 - 2 x_53_ * x_36_ + 1 x_53_ ^ 2 + 1 y_36_ ^ 2 - 2 y_53_ * y_36_ + 1 y_53_ ^ 2 ] >= 10791
quadratic_ranged_182_lb: [ 1 x_47_ ^ 2 - 2 x_53_ * x_47_ + 1 x_53_ ^ 2 + 1 y_47_ ^ 2 - 2 y_53_ * y_47_ + 1 y_53_ ^ 2 ] >= 167.31
quadratic_ranged_183_lb: [ 1 x_52_ ^ 2 - 2 x_53_ * x_52_ + 1 x_53_ ^ 2 + 1 y_52_ ^ 2 - 2 y_53_ * y_52_ + 1 y_53_ ^ 2 ] >= 1307.79
quadratic_ranged_184_lb: [ 1 x_5_ ^ 2 - 2 x_54_ * x_5_ + 1 x_54_ ^ 2 + 1 y_5_ ^ 2 - 2 y_54_ * y_5_ + 1 y_54_ ^ 2 ] >= 4090.68
quadratic_ranged_185_lb: [ 1 x_10_ ^ 2 - 2 x_54_ * x_10_ + 1 x_54_ ^ 2 + 1 y_10_ ^ 2 - 2 y_54_ * y_10_ + 1 y_54_ ^ 2 ] >= 1029.6
quadratic_ranged_186_lb: [ 1 x_19_ ^ 2 - 2 x_54_ * x_19_ + 1 x_54_ ^ 2 + 1 y_19_ ^ 2 - 2 y_54_ * y_19_ + 1 y_54_ ^ 2 ] >= 18181.35
quadratic_ranged_187_lb: [ 1 x_23_ ^ 2 - 2 x_54_ * x_23_ + 1 x_54_ ^ 2 + 1 y_23_ ^ 2 - 2 y_54_ * y_23_ + 1 y_54_ ^ 2 ] >= 14291.64
quadratic_ranged_188_lb: [ 1 x_24_ ^ 2 - 2 x_54_ * x_24_ + 1 x_54_ ^ 2 + 1 y_24_ ^ 2 - 2 y_54_ * y_24_ + 1 y_54_ ^ 2 ] >= 967.23
quadratic_ranged_189_lb: [ 1 x_26_ ^ 2 - 2 x_54_ * x_26_ + 1 x_54_ ^ 2 + 1 y_26_ ^ 2 - 2 y_54_ * y_26_ + 1 y_54_ ^ 2 ] >= 11279.07
quadratic_ranged_190_lb: [ 1 x_45_ ^ 2 - 2 x_54_ * x_45_ + 1 x_54_ ^ 2 + 1 y_45_ ^ 2 - 2 y_54_ * y_45_ + 1 y_54_ ^ 2 ] >= 8241.75
quadratic_ranged_191_lb: [ 1 x_53_ ^ 2 - 2 x_54_ * x_53_ + 1 x_54_ ^ 2 + 1 y_53_ ^ 2 - 2 y_54_ * y_53_ + 1 y_54_ ^ 2 ] >= 14589.63
quadratic_ranged_192_lb: [ 1 x_10_ ^ 2 - 2 x_55_ * x_10_ + 1 x_55_ ^ 2 + 1 y_10_ ^ 2 - 2 y_55_ * y_10_ + 1 y_55_ ^ 2 ] >= 15769.71
quadratic_ranged_193_lb: [ 1 x_32_ ^ 2 - 2 x_55_ * x_32_ + 1 x_55_ ^ 2 + 1 y_32_ ^ 2 - 2 y_55_ * y_32_ + 1 y_55_ ^ 2 ] >= 20205.9
quadratic_ranged_194_lb: [ 1 x_53_ ^ 2 - 2 x_55_ * x_53_ + 1 x_55_ ^ 2 + 1 y_53_ ^ 2 - 2 y_55_ * y_53_ + 1 y_55_ ^ 2 ] >= 20269.26
quadratic_ranged_195_lb: [ 1 x_54_ ^ 2 - 2 x_55_ * x_54_ + 1 x_55_ ^ 2 + 1 y_54_ ^ 2 - 2 y_55_ * y_54_ + 1 y_55_ ^ 2 ] >= 17559.63
quadratic_ranged_196_lb: [ 1 x_5_ ^ 2 - 2 x_56_ * x_5_ + 1 x_56_ ^ 2 + 1 y_5_ ^ 2 - 2 y_56_ * y_5_ + 1 y_56_ ^ 2 ] >= 28020.96
quadratic_ranged_197_lb: [ 1 x_8_ ^ 2 - 2 x_56_ * x_8_ + 1 x_56_ ^ 2 + 1 y_8_ ^ 2 - 2 y_56_ * y_8_ + 1 y_56_ ^ 2 ] >= 3399.66
quadratic_ranged_198_lb: [ 1 x_11_ ^ 2 - 2 x_56_ * x_11_ + 1 x_56_ ^ 2 + 1 y_11_ ^ 2 - 2 y_56_ * y_11_ + 1 y_56_ ^ 2 ] >= 19040.67
quadratic_ranged_199_lb: [ 1 x_25_ ^ 2 - 2 x_56_ * x_25_ + 1 x_56_ ^ 2 + 1 y_25_ ^ 2 - 2 y_56_ * y_25_ + 1 y_56_ ^ 2 ] >= 19200.06
quadratic_ranged_200_lb: [ 1 x_26_ ^ 2 - 2 x_56_ * x_26_ + 1 x_56_ ^ 2 + 1 y_26_ ^ 2 - 2 y_56_ * y_26_ + 1 y_56_ ^ 2 ] >= 15884.55
quadratic_ranged_201_lb: [ 1 x_29_ ^ 2 - 2 x_56_ * x_29_ + 1 x_56_ ^ 2 + 1 y_29_ ^ 2 - 2 y_56_ * y_29_ + 1 y_56_ ^ 2 ] >= 9718.83
quadratic_ranged_202_lb: [ 1 x_54_ ^ 2 - 2 x_56_ * x_54_ + 1 x_56_ ^ 2 + 1 y_54_ ^ 2 - 2 y_56_ * y_54_ + 1 y_56_ ^ 2 ] >= 36800.28
quadratic_ranged_203_lb: [ 1 x_55_ ^ 2 - 2 x_56_ * x_55_ + 1 x_56_ ^ 2 + 1 y_55_ ^ 2 - 2 y_56_ * y_55_ + 1 y_56_ ^ 2 ] >= 16953.75
quadratic_ranged_204_lb: [ 1 x_1_ ^ 2 - 2 x_57_ * x_1_ + 1 x_57_ ^ 2 + 1 y_1_ ^ 2 - 2 y_57_ * y_1_ + 1 y_57_ ^ 2 ] >= 14835.15
quadratic_ranged_205_lb: [ 1 x_2_ ^ 2 - 2 x_57_ * x_2_ + 1 x_57_ ^ 2 + 1 y_2_ ^ 2 - 2 y_57_ * y_2_ + 1 y_57_ ^ 2 ] >= 4016.43
quadratic_ranged_206_lb: [ 1 x_5_ ^ 2 - 2 x_57_ * x_5_ + 1 x_57_ ^ 2 + 1 y_5_ ^ 2 - 2 y_57_ * y_5_ + 1 y_57_ ^ 2 ] >= 18590.22
quadratic_ranged_207_lb: [ 1 x_7_ ^ 2 - 2 x_57_ * x_7_ + 1 x_57_ ^ 2 + 1 y_7_ ^ 2 - 2 y_57_ * y_7_ + 1 y_57_ ^ 2 ] >= 301.95
quadratic_ranged_208_lb: [ 1 x_12_ ^ 2 - 2 x_57_ * x_12_ + 1 x_57_ ^ 2 + 1 y_12_ ^ 2 - 2 y_57_ * y_12_ + 1 y_57_ ^ 2 ] >= 14530.23
quadratic_ranged_209_lb: [ 1 x_34_ ^ 2 - 2 x_57_ * x_34_ + 1 x_57_ ^ 2 + 1 y_34_ ^ 2 - 2 y_57_ * y_34_ + 1 y_57_ ^ 2 ] >= 30298.95
quadratic_ranged_210_lb: [ 1 x_40_ ^ 2 - 2 x_57_ * x_40_ + 1 x_57_ ^ 2 + 1 y_40_ ^ 2 - 2 y_57_ * y_40_ + 1 y_57_ ^ 2 ] >= 13436.28
quadratic_ranged_211_lb: [ 1 x_47_ ^ 2 - 2 x_57_ * x_47_ + 1 x_57_ ^ 2 + 1 y_47_ ^ 2 - 2 y_57_ * y_47_ + 1 y_57_ ^ 2 ] >= 7161.66
quadratic_ranged_212_lb: [ 1 x_56_ ^ 2 - 2 x_57_ * x_56_ + 1 x_57_ ^ 2 + 1 y_56_ ^ 2 - 2 y_57_ * y_56_ + 1 y_57_ ^ 2 ] >= 1079.1
quadratic_ranged_213_lb: [ 1 x_9_ ^ 2 - 2 x_58_ * x_9_ + 1 x_58_ ^ 2 + 1 y_9_ ^ 2 - 2 y_58_ * y_9_ + 1 y_58_ ^ 2 ] >= 1834.47
quadratic_ranged_214_lb: [ 1 x_19_ ^ 2 - 2 x_58_ * x_19_ + 1 x_58_ ^ 2 + 1 y_19_ ^ 2 - 2 y_58_ * y_19_ + 1 y_58_ ^ 2 ] >= 13080.869999999999
quadratic_ranged_215_lb: [ 1 x_24_ ^ 2 - 2 x_58_ * x_24_ + 1 x_58_ ^ 2 + 1 y_24_ ^ 2 - 2 y_58_ * y_24_ + 1 y_58_ ^ 2 ] >= 17607.15
quadratic_ranged_216_lb: [ 1 x_28_ ^ 2 - 2 x_58_ * x_28_ + 1 x_58_ ^ 2 + 1 y_28_ ^ 2 - 2 y_58_ * y_28_ + 1 y_58_ ^ 2 ] >= 2749.23
quadratic_ranged_217_lb: [ 1 x_29_ ^ 2 - 2 x_58_ * x_29_ + 1 x_58_ ^ 2 + 1 y_29_ ^ 2 - 2 y_58_ * y_29_ + 1 y_58_ ^ 2 ] >= 13009.59
quadratic_ranged_218_lb: [ 1 x_40_ ^ 2 - 2 x_58_ * x_40_ + 1 x_58_ ^ 2 + 1 y_40_ ^ 2 - 2 y_58_ * y_40_ + 1 y_58_ ^ 2 ] >= 5104.44
quadratic_ranged_219_lb: [ 1 x_52_ ^ 2 - 2 x_58_ * x_52_ + 1 x_58_ ^ 2 + 1 y_52_ ^ 2 - 2 y_58_ * y_52_ + 1 y_58_ ^ 2 ] >= 336.6
quadratic_ranged_220_lb: [ 1 x_54_ ^ 2 - 2 x_58_ * x_54_ + 1 x_58_ ^ 2 + 1 y_54_ ^ 2 - 2 y_58_ * y_54_ + 1 y_58_ ^ 2 ] >= 10321.74
quadratic_ranged_221_lb: [ 1 x_56_ ^ 2 - 2 x_58_ * x_56_ + 1 x_58_ ^ 2 + 1 y_56_ ^ 2 - 2 y_58_ * y_56_ + 1 y_58_ ^ 2 ] >= 12879.9
quadratic_ranged_222_lb: [ 1 x_57_ ^ 2 - 2 x_58_ * x_57_ + 1 x_58_ ^ 2 + 1 y_57_ ^ 2 - 2 y_58_ * y_57_ + 1 y_58_ ^ 2 ] >= 7326
quadratic_ranged_223_lb: [ 1 x_14_ ^ 2 - 2 x_59_ * x_14_ + 1 x_59_ ^ 2 + 1 y_14_ ^ 2 - 2 y_59_ * y_14_ + 1 y_59_ ^ 2 ] >= 12783.869999999999
quadratic_ranged_224_lb: [ 1 x_18_ ^ 2 - 2 x_59_ * x_18_ + 1 x_59_ ^ 2 + 1 y_18_ ^ 2 - 2 y_59_ * y_18_ + 1 y_59_ ^ 2 ] >= 11598.84
quadratic_ranged_225_lb: [ 1 x_23_ ^ 2 - 2 x_59_ * x_23_ + 1 x_59_ ^ 2 + 1 y_23_ ^ 2 - 2 y_59_ * y_23_ + 1 y_59_ ^ 2 ] >= 13420.44
quadratic_ranged_226_lb: [ 1 x_29_ ^ 2 - 2 x_59_ * x_29_ + 1 x_59_ ^ 2 + 1 y_29_ ^ 2 - 2 y_59_ * y_29_ + 1 y_59_ ^ 2 ] >= 14827.23
quadratic_ranged_227_lb: [ 1 x_39_ ^ 2 - 2 x_59_ * x_39_ + 1 x_59_ ^ 2 + 1 y_39_ ^ 2 - 2 y_59_ * y_39_ + 1 y_59_ ^ 2 ] >= 10842.48
quadratic_ranged_228_lb: [ 1 x_46_ ^ 2 - 2 x_59_ * x_46_ + 1 x_59_ ^ 2 + 1 y_46_ ^ 2 - 2 y_59_ * y_46_ + 1 y_59_ ^ 2 ] >= 23429.34
quadratic_ranged_229_lb: [ 1 x_51_ ^ 2 - 2 x_59_ * x_51_ + 1 x_59_ ^ 2 + 1 y_51_ ^ 2 - 2 y_59_ * y_51_ + 1 y_59_ ^ 2 ] >= 6808.23
quadratic_ranged_230_lb: [ 1 x_58_ ^ 2 - 2 x_59_ * x_58_ + 1 x_59_ ^ 2 + 1 y_58_ ^ 2 - 2 y_59_ * y_58_ + 1 y_59_ ^ 2 ] >= 7272.54
quadratic_ranged_231_lb: [ 1 x_4_ ^ 2 - 2 x_60_ * x_4_ + 1 x_60_ ^ 2 + 1 y_4_ ^ 2 - 2 y_60_ * y_4_ + 1 y_60_ ^ 2 ] >= 11128.59
quadratic_ranged_232_lb: [ 1 x_8_ ^ 2 - 2 x_60_ * x_8_ + 1 x_60_ ^ 2 + 1 y_8_ ^ 2 - 2 y_60_ * y_8_ + 1 y_60_ ^ 2 ] >= 8067.51
quadratic_ranged_233_lb: [ 1 x_21_ ^ 2 - 2 x_60_ * x_21_ + 1 x_60_ ^ 2 + 1 y_21_ ^ 2 - 2 y_60_ * y_21_ + 1 y_60_ ^ 2 ] >= 6744.87
quadratic_ranged_234_lb: [ 1 x_25_ ^ 2 - 2 x_60_ * x_25_ + 1 x_60_ ^ 2 + 1 y_25_ ^ 2 - 2 y_60_ * y_25_ + 1 y_60_ ^ 2 ] >= 5572.71
quadratic_ranged_235_lb: [ 1 x_26_ ^ 2 - 2 x_60_ * x_26_ + 1 x_60_ ^ 2 + 1 y_26_ ^ 2 - 2 y_60_ * y_26_ + 1 y_60_ ^ 2 ] >= 6910.2
quadratic_ranged_236_lb: [ 1 x_29_ ^ 2 - 2 x_60_ * x_29_ + 1 x_60_ ^ 2 + 1 y_29_ ^ 2 - 2 y_60_ * y_29_ + 1 y_60_ ^ 2 ] >= 9822.78
quadratic_ranged_237_lb: [ 1 x_33_ ^ 2 - 2 x_60_ * x_33_ + 1 x_60_ ^ 2 + 1 y_33_ ^ 2 - 2 y_60_ * y_33_ + 1 y_60_ ^ 2 ] >= 800.91
quadratic_ranged_238_lb: [ 1 x_37_ ^ 2 - 2 x_60_ * x_37_ + 1 x_60_ ^ 2 + 1 y_37_ ^ 2 - 2 y_60_ * y_37_ + 1 y_60_ ^ 2 ] >= 9513.9
quadratic_ranged_239_lb: [ 1 x_50_ ^ 2 - 2 x_60_ * x_50_ + 1 x_60_ ^ 2 + 1 y_50_ ^ 2 - 2 y_60_ * y_50_ + 1 y_60_ ^ 2 ] >= 2124.54
quadratic_ranged_240_lb: [ 1 x_59_ ^ 2 - 2 x_60_ * x_59_ + 1 x_60_ ^ 2 + 1 y_59_ ^ 2 - 2 y_60_ * y_59_ + 1 y_60_ ^ 2 ] >= 1062.27
quadratic_ranged_241_lb: [ 1 x_7_ ^ 2 - 2 x_61_ * x_7_ + 1 x_61_ ^ 2 + 1 y_7_ ^ 2 - 2 y_61_ * y_7_ + 1 y_61_ ^ 2 ] >= 34360.92
quadratic_ranged_242_lb: [ 1 x_11_ ^ 2 - 2 x_61_ * x_11_ + 1 x_61_ ^ 2 + 1 y_11_ ^ 2 - 2 y_61_ * y_11_ + 1 y_61_ ^ 2 ] >= 4565.88
quadratic_ranged_243_lb: [ 1 x_13_ ^ 2 - 2 x_61_ * x_13_ + 1 x_61_ ^ 2 + 1 y_13_ ^ 2 - 2 y_61_ * y_13_ + 1 y_61_ ^ 2 ] >= 4851
quadratic_ranged_244_lb: [ 1 x_15_ ^ 2 - 2 x_61_ * x_15_ + 1 x_61_ ^ 2 + 1 y_15_ ^ 2 - 2 y_61_ * y_15_ + 1 y_61_ ^ 2 ] >= 4771.8
quadratic_ranged_245_lb: [ 1 x_29_ ^ 2 - 2 x_61_ * x_29_ + 1 x_61_ ^ 2 + 1 y_29_ ^ 2 - 2 y_61_ * y_29_ + 1 y_61_ ^ 2 ] >= 31383
quadratic_ranged_246_lb: [ 1 x_31_ ^ 2 - 2 x_61_ * x_31_ + 1 x_61_ ^ 2 + 1 y_31_ ^ 2 - 2 y_61_ * y_31_ + 1 y_61_ ^ 2 ] >= 15113.34
quadratic_ranged_247_lb: [ 1 x_35_ ^ 2 - 2 x_61_ * x_35_ + 1 x_61_ ^ 2 + 1 y_35_ ^ 2 - 2 y_61_ * y_35_ + 1 y_61_ ^ 2 ] >= 10488.06
quadratic_ranged_248_lb: [ 1 x_52_ ^ 2 - 2 x_61_ * x_52_ + 1 x_61_ ^ 2 + 1 y_52_ ^ 2 - 2 y_61_ * y_52_ + 1 y_61_ ^ 2 ] >= 6883.47
quadratic_ranged_249_lb: [ 1 x_60_ ^ 2 - 2 x_61_ * x_60_ + 1 x_61_ ^ 2 + 1 y_60_ ^ 2 - 2 y_61_ * y_60_ + 1 y_61_ ^ 2 ] >= 6227.1
quadratic_ranged_250_lb: [ 1 x_3_ ^ 2 - 2 x_62_ * x_3_ + 1 x_62_ ^ 2 + 1 y_3_ ^ 2 - 2 y_62_ * y_3_ + 1 y_62_ ^ 2 ] >= 7509.15
quadratic_ranged_251_lb: [ 1 x_18_ ^ 2 - 2 x_62_ * x_18_ + 1 x_62_ ^ 2 + 1 y_18_ ^ 2 - 2 y_62_ * y_18_ + 1 y_62_ ^ 2 ] >= 5247
quadratic_ranged_252_lb: [ 1 x_21_ ^ 2 - 2 x_62_ * x_21_ + 1 x_62_ ^ 2 + 1 y_21_ ^ 2 - 2 y_62_ * y_21_ + 1 y_62_ ^ 2 ] >= 11137.5
quadratic_ranged_253_lb: [ 1 x_24_ ^ 2 - 2 x_62_ * x_24_ + 1 x_62_ ^ 2 + 1 y_24_ ^ 2 - 2 y_62_ * y_24_ + 1 y_62_ ^ 2 ] >= 15753.869999999999
quadratic_ranged_254_lb: [ 1 x_29_ ^ 2 - 2 x_62_ * x_29_ + 1 x_62_ ^ 2 + 1 y_29_ ^ 2 - 2 y_62_ * y_29_ + 1 y_62_ ^ 2 ] >= 10479.15
quadratic_ranged_255_lb: [ 1 x_45_ ^ 2 - 2 x_62_ * x_45_ + 1 x_62_ ^ 2 + 1 y_45_ ^ 2 - 2 y_62_ * y_45_ + 1 y_62_ ^ 2 ] >= 15646.95
quadratic_ranged_256_lb: [ 1 x_51_ ^ 2 - 2 x_62_ * x_51_ + 1 x_62_ ^ 2 + 1 y_51_ ^ 2 - 2 y_62_ * y_51_ + 1 y_62_ ^ 2 ] >= 8732.789999999999
quadratic_ranged_257_lb: [ 1 x_54_ ^ 2 - 2 x_62_ * x_54_ + 1 x_62_ ^ 2 + 1 y_54_ ^ 2 - 2 y_62_ * y_54_ + 1 y_62_ ^ 2 ] >= 8949.6
quadratic_ranged_258_lb: [ 1 x_59_ ^ 2 - 2 x_62_ * x_59_ + 1 x_62_ ^ 2 + 1 y_59_ ^ 2 - 2 y_62_ * y_59_ + 1 y_62_ ^ 2 ] >= 6114.24
quadratic_ranged_259_lb: [ 1 x_61_ ^ 2 - 2 x_62_ * x_61_ + 1 x_62_ ^ 2 + 1 y_61_ ^ 2 - 2 y_62_ * y_61_ + 1 y_62_ ^ 2 ] >= 8320.95
quadratic_ranged_260_lb: [ 1 x_8_ ^ 2 - 2 x_63_ * x_8_ + 1 x_63_ ^ 2 + 1 y_8_ ^ 2 - 2 y_63_ * y_8_ + 1 y_63_ ^ 2 ] >= 848.43
quadratic_ranged_261_lb: [ 1 x_15_ ^ 2 - 2 x_63_ * x_15_ + 1 x_63_ ^ 2 + 1 y_15_ ^ 2 - 2 y_63_ * y_15_ + 1 y_63_ ^ 2 ] >= 14477.76
quadratic_ranged_262_lb: [ 1 x_33_ ^ 2 - 2 x_63_ * x_33_ + 1 x_63_ ^ 2 + 1 y_33_ ^ 2 - 2 y_63_ * y_33_ + 1 y_63_ ^ 2 ] >= 3172.95
quadratic_ranged_263_lb: [ 1 x_39_ ^ 2 - 2 x_63_ * x_39_ + 1 x_63_ ^ 2 + 1 y_39_ ^ 2 - 2 y_63_ * y_39_ + 1 y_63_ ^ 2 ] >= 19325.79
quadratic_ranged_264_lb: [ 1 x_50_ ^ 2 - 2 x_63_ * x_50_ + 1 x_63_ ^ 2 + 1 y_50_ ^ 2 - 2 y_63_ * y_50_ + 1 y_63_ ^ 2 ] >= 12454.2
quadratic_ranged_265_lb: [ 1 x_53_ ^ 2 - 2 x_63_ * x_53_ + 1 x_63_ ^ 2 + 1 y_53_ ^ 2 - 2 y_63_ * y_53_ + 1 y_63_ ^ 2 ] >= 1623.6
quadratic_ranged_266_lb: [ 1 x_62_ ^ 2 - 2 x_63_ * x_62_ + 1 x_63_ ^ 2 + 1 y_62_ ^ 2 - 2 y_63_ * y_62_ + 1 y_63_ ^ 2 ] >= 1596.87
quadratic_ranged_267_lb: [ 1 x_6_ ^ 2 - 2 x_64_ * x_6_ + 1 x_64_ ^ 2 + 1 y_6_ ^ 2 - 2 y_64_ * y_6_ + 1 y_64_ ^ 2 ] >= 6622.11
quadratic_ranged_268_lb: [ 1 x_10_ ^ 2 - 2 x_64_ * x_10_ + 1 x_64_ ^ 2 + 1 y_10_ ^ 2 - 2 y_64_ * y_10_ + 1 y_64_ ^ 2 ] >= 24168.87
quadratic_ranged_269_lb: [ 1 x_15_ ^ 2 - 2 x_64_ * x_15_ + 1 x_64_ ^ 2 + 1 y_15_ ^ 2 - 2 y_64_ * y_15_ + 1 y_64_ ^ 2 ] >= 13464
quadratic_ranged_270_lb: [ 1 x_25_ ^ 2 - 2 x_64_ * x_25_ + 1 x_64_ ^ 2 + 1 y_25_ ^ 2 - 2 y_64_ * y_25_ + 1 y_64_ ^ 2 ] >= 32069.07
quadratic_ranged_271_lb: [ 1 x_42_ ^ 2 - 2 x_64_ * x_42_ + 1 x_64_ ^ 2 + 1 y_42_ ^ 2 - 2 y_64_ * y_42_ + 1 y_64_ ^ 2 ] >= 128.7
quadratic_ranged_272_lb: [ 1 x_63_ ^ 2 - 2 x_64_ * x_63_ + 1 x_64_ ^ 2 + 1 y_63_ ^ 2 - 2 y_64_ * y_63_ + 1 y_64_ ^ 2 ] >= 16220.16
quadratic_ranged_273_lb: [ 1 x_7_ ^ 2 - 2 x_65_ * x_7_ + 1 x_65_ ^ 2 + 1 y_7_ ^ 2 - 2 y_65_ * y_7_ + 1 y_65_ ^ 2 ] >= 2963.07
quadratic_ranged_274_lb: [ 1 x_12_ ^ 2 - 2 x_65_ * x_12_ + 1 x_65_ ^ 2 + 1 y_12_ ^ 2 - 2 y_65_ * y_12_ + 1 y_65_ ^ 2 ] >= 13857.03
quadratic_ranged_275_lb: [ 1 x_18_ ^ 2 - 2 x_65_ * x_18_ + 1 x_65_ ^ 2 + 1 y_18_ ^ 2 - 2 y_65_ * y_18_ + 1 y_65_ ^ 2 ] >= 10511.82
quadratic_ranged_276_lb: [ 1 x_21_ ^ 2 - 2 x_65_ * x_21_ + 1 x_65_ ^ 2 + 1 y_21_ ^ 2 - 2 y_65_ * y_21_ + 1 y_65_ ^ 2 ] >= 11254.32
quadratic_ranged_277_lb: [ 1 x_45_ ^ 2 - 2 x_65_ * x_45_ + 1 x_65_ ^ 2 + 1 y_45_ ^ 2 - 2 y_65_ * y_45_ + 1 y_65_ ^ 2 ] >= 17809.11
quadratic_ranged_278_lb: [ 1 x_55_ ^ 2 - 2 x_65_ * x_55_ + 1 x_65_ ^ 2 + 1 y_55_ ^ 2 - 2 y_65_ * y_55_ + 1 y_65_ ^ 2 ] >= 13619.43
quadratic_ranged_279_lb: [ 1 x_56_ ^ 2 - 2 x_65_ * x_56_ + 1 x_65_ ^ 2 + 1 y_56_ ^ 2 - 2 y_65_ * y_56_ + 1 y_65_ ^ 2 ] >= 4951.98
quadratic_ranged_280_lb: [ 1 x_64_ ^ 2 - 2 x_65_ * x_64_ + 1 x_65_ ^ 2 + 1 y_64_ ^ 2 - 2 y_65_ * y_64_ + 1 y_65_ ^ 2 ] >= 15076.71
quadratic_ranged_281_lb: [ 1 x_15_ ^ 2 - 2 x_66_ * x_15_ + 1 x_66_ ^ 2 + 1 y_15_ ^ 2 - 2 y_66_ * y_15_ + 1 y_66_ ^ 2 ] >= 627.66
quadratic_ranged_282_lb: [ 1 x_18_ ^ 2 - 2 x_66_ * x_18_ + 1 x_66_ ^ 2 + 1 y_18_ ^ 2 - 2 y_66_ * y_18_ + 1 y_66_ ^ 2 ] >= 12201.75
quadratic_ranged_283_lb: [ 1 x_26_ ^ 2 - 2 x_66_ * x_26_ + 1 x_66_ ^ 2 + 1 y_26_ ^ 2 - 2 y_66_ * y_26_ + 1 y_66_ ^ 2 ] >= 18445.68
quadratic_ranged_284_lb: [ 1 x_58_ ^ 2 - 2 x_66_ * x_58_ + 1 x_66_ ^ 2 + 1 y_58_ ^ 2 - 2 y_66_ * y_58_ + 1 y_66_ ^ 2 ] >= 11797.83
quadratic_ranged_285_lb: [ 1 x_65_ ^ 2 - 2 x_66_ * x_65_ + 1 x_66_ ^ 2 + 1 y_65_ ^ 2 - 2 y_66_ * y_65_ + 1 y_66_ ^ 2 ] >= 20307.87
quadratic_ranged_286_lb: [ 1 x_7_ ^ 2 - 2 x_67_ * x_7_ + 1 x_67_ ^ 2 + 1 y_7_ ^ 2 - 2 y_67_ * y_7_ + 1 y_67_ ^ 2 ] >= 6401.34
quadratic_ranged_287_lb: [ 1 x_19_ ^ 2 - 2 x_67_ * x_19_ + 1 x_67_ ^ 2 + 1 y_19_ ^ 2 - 2 y_67_ * y_19_ + 1 y_67_ ^ 2 ] >= 1102.86
quadratic_ranged_288_lb: [ 1 x_22_ ^ 2 - 2 x_67_ * x_22_ + 1 x_67_ ^ 2 + 1 y_22_ ^ 2 - 2 y_67_ * y_22_ + 1 y_67_ ^ 2 ] >= 19686.15
quadratic_ranged_289_lb: [ 1 x_32_ ^ 2 - 2 x_67_ * x_32_ + 1 x_67_ ^ 2 + 1 y_32_ ^ 2 - 2 y_67_ * y_32_ + 1 y_67_ ^ 2 ] >= 13632.3
quadratic_ranged_290_lb: [ 1 x_36_ ^ 2 - 2 x_67_ * x_36_ + 1 x_67_ ^ 2 + 1 y_36_ ^ 2 - 2 y_67_ * y_36_ + 1 y_67_ ^ 2 ] >= 22027.5
quadratic_ranged_291_lb: [ 1 x_46_ ^ 2 - 2 x_67_ * x_46_ + 1 x_67_ ^ 2 + 1 y_46_ ^ 2 - 2 y_67_ * y_46_ + 1 y_67_ ^ 2 ] >= 3469.95
quadratic_ranged_292_lb: [ 1 x_51_ ^ 2 - 2 x_67_ * x_51_ + 1 x_67_ ^ 2 + 1 y_51_ ^ 2 - 2 y_67_ * y_51_ + 1 y_67_ ^ 2 ] >= 23482.8
quadratic_ranged_293_lb: [ 1 x_52_ ^ 2 - 2 x_67_ * x_52_ + 1 x_67_ ^ 2 + 1 y_52_ ^ 2 - 2 y_67_ * y_52_ + 1 y_67_ ^ 2 ] >= 5208.39
quadratic_ranged_294_lb: [ 1 x_57_ ^ 2 - 2 x_67_ * x_57_ + 1 x_67_ ^ 2 + 1 y_57_ ^ 2 - 2 y_67_ * y_57_ + 1 y_67_ ^ 2 ] >= 3992.67
quadratic_ranged_295_lb: [ 1 x_65_ ^ 2 - 2 x_67_ * x_65_ + 1 x_67_ ^ 2 + 1 y_65_ ^ 2 - 2 y_67_ * y_65_ + 1 y_67_ ^ 2 ] >= 3588.75
quadratic_ranged_296_lb: [ 1 x_66_ ^ 2 - 2 x_67_ * x_66_ + 1 x_67_ ^ 2 + 1 y_66_ ^ 2 - 2 y_67_ * y_66_ + 1 y_67_ ^ 2 ] >= 18061.56
quadratic_ranged_297_lb: [ 1 x_17_ ^ 2 - 2 x_68_ * x_17_ + 1 x_68_ ^ 2 + 1 y_17_ ^ 2 - 2 y_68_ * y_17_ + 1 y_68_ ^ 2 ] >= 18933.75
quadratic_ranged_298_lb: [ 1 x_22_ ^ 2 - 2 x_68_ * x_22_ + 1 x_68_ ^ 2 + 1 y_22_ ^ 2 - 2 y_68_ * y_22_ + 1 y_68_ ^ 2 ] >= 10522.71
quadratic_ranged_299_lb: [ 1 x_25_ ^ 2 - 2 x_68_ * x_25_ + 1 x_68_ ^ 2 + 1 y_25_ ^ 2 - 2 y_68_ * y_25_ + 1 y_68_ ^ 2 ] >= 15504.39
quadratic_ranged_300_lb: [ 1 x_60_ ^ 2 - 2 x_68_ * x_60_ + 1 x_68_ ^ 2 + 1 y_60_ ^ 2 - 2 y_68_ * y_60_ + 1 y_68_ ^ 2 ] >= 13563
quadratic_ranged_301_lb: [ 1 x_67_ ^ 2 - 2 x_68_ * x_67_ + 1 x_68_ ^ 2 + 1 y_67_ ^ 2 - 2 y_68_ * y_67_ + 1 y_68_ ^ 2 ] >= 6039
quadratic_ranged_302_lb: [ 1 x_5_ ^ 2 - 2 x_69_ * x_5_ + 1 x_69_ ^ 2 + 1 y_5_ ^ 2 - 2 y_69_ * y_5_ + 1 y_69_ ^ 2 ] >= 8602.11
quadratic_ranged_303_lb: [ 1 x_11_ ^ 2 - 2 x_69_ * x_11_ + 1 x_69_ ^ 2 + 1 y_11_ ^ 2 - 2 y_69_ * y_11_ + 1 y_69_ ^ 2 ] >= 4613.4
quadratic_ranged_304_lb: [ 1 x_18_ ^ 2 - 2 x_69_ * x_18_ + 1 x_69_ ^ 2 + 1 y_18_ ^ 2 - 2 y_69_ * y_18_ + 1 y_69_ ^ 2 ] >= 10823.67
quadratic_ranged_305_lb: [ 1 x_33_ ^ 2 - 2 x_69_ * x_33_ + 1 x_69_ ^ 2 + 1 y_33_ ^ 2 - 2 y_69_ * y_33_ + 1 y_69_ ^ 2 ] >= 5845.95
quadratic_ranged_306_lb: [ 1 x_56_ ^ 2 - 2 x_69_ * x_56_ + 1 x_69_ ^ 2 + 1 y_56_ ^ 2 - 2 y_69_ * y_56_ + 1 y_69_ ^ 2 ] >= 41343.39
quadratic_ranged_307_lb: [ 1 x_60_ ^ 2 - 2 x_69_ * x_60_ + 1 x_69_ ^ 2 + 1 y_60_ ^ 2 - 2 y_69_ * y_60_ + 1 y_69_ ^ 2 ] >= 3589.74
quadratic_ranged_308_lb: [ 1 x_62_ ^ 2 - 2 x_69_ * x_62_ + 1 x_69_ ^ 2 + 1 y_62_ ^ 2 - 2 y_69_ * y_62_ + 1 y_69_ ^ 2 ] >= 9497.07
quadratic_ranged_309_lb: [ 1 x_63_ ^ 2 - 2 x_69_ * x_63_ + 1 x_69_ ^ 2 + 1 y_63_ ^ 2 - 2 y_69_ * y_63_ + 1 y_69_ ^ 2 ] >= 17142.84
quadratic_ranged_310_lb: [ 1 x_68_ ^ 2 - 2 x_69_ * x_68_ + 1 x_69_ ^ 2 + 1 y_68_ ^ 2 - 2 y_69_ * y_68_ + 1 y_69_ ^ 2 ] >= 30153.42
quadratic_ranged_311_lb: [ 1 x_15_ ^ 2 - 2 x_70_ * x_15_ + 1 x_70_ ^ 2 + 1 y_15_ ^ 2 - 2 y_70_ * y_15_ + 1 y_70_ ^ 2 ] >= 3960
quadratic_ranged_312_lb: [ 1 x_28_ ^ 2 - 2 x_70_ * x_28_ + 1 x_70_ ^ 2 + 1 y_28_ ^ 2 - 2 y_70_ * y_28_ + 1 y_70_ ^ 2 ] >= 8009.1
quadratic_ranged_313_lb: [ 1 x_29_ ^ 2 - 2 x_70_ * x_29_ + 1 x_70_ ^ 2 + 1 y_29_ ^ 2 - 2 y_70_ * y_29_ + 1 y_70_ ^ 2 ] >= 5615.28
quadratic_ranged_314_lb: [ 1 x_41_ ^ 2 - 2 x_70_ * x_41_ + 1 x_70_ ^ 2 + 1 y_41_ ^ 2 - 2 y_70_ * y_41_ + 1 y_70_ ^ 2 ] >= 10179.18
quadratic_ranged_315_lb: [ 1 x_54_ ^ 2 - 2 x_70_ * x_54_ + 1 x_70_ ^ 2 + 1 y_54_ ^ 2 - 2 y_70_ * y_54_ + 1 y_70_ ^ 2 ] >= 3759.0299999999997
quadratic_ranged_316_lb: [ 1 x_58_ ^ 2 - 2 x_70_ * x_58_ + 1 x_70_ ^ 2 + 1 y_58_ ^ 2 - 2 y_70_ * y_58_ + 1 y_70_ ^ 2 ] >= 4515.39
quadratic_ranged_317_lb: [ 1 x_67_ ^ 2 - 2 x_70_ * x_67_ + 1 x_70_ ^ 2 + 1 y_67_ ^ 2 - 2 y_70_ * y_67_ + 1 y_70_ ^ 2 ] >= 2354.22
quadratic_ranged_318_lb: [ 1 x_69_ ^ 2 - 2 x_70_ * x_69_ + 1 x_70_ ^ 2 + 1 y_69_ ^ 2 - 2 y_70_ * y_69_ + 1 y_70_ ^ 2 ] >= 6435
quadratic_ranged_319_lb: [ 1 x_19_ ^ 2 - 2 x_71_ * x_19_ + 1 x_71_ ^ 2 + 1 y_19_ ^ 2 - 2 y_71_ * y_19_ + 1 y_71_ ^ 2 ] >= 7952.67
quadratic_ranged_320_lb: [ 1 x_29_ ^ 2 - 2 x_71_ * x_29_ + 1 x_71_ ^ 2 + 1 y_29_ ^ 2 - 2 y_71_ * y_29_ + 1 y_71_ ^ 2 ] >= 8602.11
quadratic_ranged_321_lb: [ 1 x_30_ ^ 2 - 2 x_71_ * x_30_ + 1 x_71_ ^ 2 + 1 y_30_ ^ 2 - 2 y_71_ * y_30_ + 1 y_71_ ^ 2 ] >= 51702.75
quadratic_ranged_322_lb: [ 1 x_31_ ^ 2 - 2 x_71_ * x_31_ + 1 x_71_ ^ 2 + 1 y_31_ ^ 2 - 2 y_71_ * y_31_ + 1 y_71_ ^ 2 ] >= 16240.95
quadratic_ranged_323_lb: [ 1 x_35_ ^ 2 - 2 x_71_ * x_35_ + 1 x_71_ ^ 2 + 1 y_35_ ^ 2 - 2 y_71_ * y_35_ + 1 y_71_ ^ 2 ] >= 11627.55
quadratic_ranged_324_lb: [ 1 x_39_ ^ 2 - 2 x_71_ * x_39_ + 1 x_71_ ^ 2 + 1 y_39_ ^ 2 - 2 y_71_ * y_39_ + 1 y_71_ ^ 2 ] >= 31064.22
quadratic_ranged_325_lb: [ 1 x_45_ ^ 2 - 2 x_71_ * x_45_ + 1 x_71_ ^ 2 + 1 y_45_ ^ 2 - 2 y_71_ * y_45_ + 1 y_71_ ^ 2 ] >= 26204.31
quadratic_ranged_326_lb: [ 1 x_48_ ^ 2 - 2 x_71_ * x_48_ + 1 x_71_ ^ 2 + 1 y_48_ ^ 2 - 2 y_71_ * y_48_ + 1 y_71_ ^ 2 ] >= 1062.27
quadratic_ranged_327_lb: [ 1 x_55_ ^ 2 - 2 x_71_ * x_55_ + 1 x_71_ ^ 2 + 1 y_55_ ^ 2 - 2 y_71_ * y_55_ + 1 y_71_ ^ 2 ] >= 15646.95
quadratic_ranged_328_lb: [ 1 x_60_ ^ 2 - 2 x_71_ * x_60_ + 1 x_71_ ^ 2 + 1 y_60_ ^ 2 - 2 y_71_ * y_60_ + 1 y_71_ ^ 2 ] >= 17488.35
quadratic_ranged_329_lb: [ 1 x_62_ ^ 2 - 2 x_71_ * x_62_ + 1 x_71_ ^ 2 + 1 y_62_ ^ 2 - 2 y_71_ * y_62_ + 1 y_71_ ^ 2 ] >= 9490.14
quadratic_ranged_330_lb: [ 1 x_66_ ^ 2 - 2 x_71_ * x_66_ + 1 x_71_ ^ 2 + 1 y_66_ ^ 2 - 2 y_71_ * y_66_ + 1 y_71_ ^ 2 ] >= 39125.79
quadratic_ranged_331_lb: [ 1 x_70_ ^ 2 - 2 x_71_ * x_70_ + 1 x_71_ ^ 2 + 1 y_70_ ^ 2 - 2 y_71_ * y_70_ + 1 y_71_ ^ 2 ] >= 14569.83
quadratic_ranged_332_lb: [ 1 x_16_ ^ 2 - 2 x_72_ * x_16_ + 1 x_72_ ^ 2 + 1 y_16_ ^ 2 - 2 y_72_ * y_16_ + 1 y_72_ ^ 2 ] >= 14271.84
quadratic_ranged_333_lb: [ 1 x_22_ ^ 2 - 2 x_72_ * x_22_ + 1 x_72_ ^ 2 + 1 y_22_ ^ 2 - 2 y_72_ * y_22_ + 1 y_72_ ^ 2 ] >= 10946.43
quadratic_ranged_334_lb: [ 1 x_66_ ^ 2 - 2 x_72_ * x_66_ + 1 x_72_ ^ 2 + 1 y_66_ ^ 2 - 2 y_72_ * y_66_ + 1 y_72_ ^ 2 ] >= 9163.44
quadratic_ranged_335_lb: [ 1 x_71_ ^ 2 - 2 x_72_ * x_71_ + 1 x_72_ ^ 2 + 1 y_71_ ^ 2 - 2 y_72_ * y_71_ + 1 y_72_ ^ 2 ] >= 10491.03
quadratic_ranged_336_lb: [ 1 x_4_ ^ 2 - 2 x_73_ * x_4_ + 1 x_73_ ^ 2 + 1 y_4_ ^ 2 - 2 y_73_ * y_4_ + 1 y_73_ ^ 2 ] >= 45430.11
quadratic_ranged_337_lb: [ 1 x_15_ ^ 2 - 2 x_73_ * x_15_ + 1 x_73_ ^ 2 + 1 y_15_ ^ 2 - 2 y_73_ * y_15_ + 1 y_73_ ^ 2 ] >= 4375.8
quadratic_ranged_338_lb: [ 1 x_29_ ^ 2 - 2 x_73_ * x_29_ + 1 x_73_ ^ 2 + 1 y_29_ ^ 2 - 2 y_73_ * y_29_ + 1 y_73_ ^ 2 ] >= 40411.8
quadratic_ranged_339_lb: [ 1 x_58_ ^ 2 - 2 x_73_ * x_58_ + 1 x_73_ ^ 2 + 1 y_58_ ^ 2 - 2 y_73_ * y_58_ + 1 y_73_ ^ 2 ] >= 21076.11
quadratic_ranged_340_lb: [ 1 x_61_ ^ 2 - 2 x_73_ * x_61_ + 1 x_73_ ^ 2 + 1 y_61_ ^ 2 - 2 y_73_ * y_61_ + 1 y_73_ ^ 2 ] >= 4950
quadratic_ranged_341_lb: [ 1 x_72_ ^ 2 - 2 x_73_ * x_72_ + 1 x_73_ ^ 2 + 1 y_72_ ^ 2 - 2 y_73_ * y_72_ + 1 y_73_ ^ 2 ] >= 18827.82
quadratic_ranged_342_lb: [ 1 x_1_ ^ 2 - 2 x_74_ * x_1_ + 1 x_74_ ^ 2 + 1 y_1_ ^ 2 - 2 y_74_ * y_1_ + 1 y_74_ ^ 2 ] >= 1683
quadratic_ranged_343_lb: [ 1 x_16_ ^ 2 - 2 x_74_ * x_16_ + 1 x_74_ ^ 2 + 1 y_16_ ^ 2 - 2 y_74_ * y_16_ + 1 y_74_ ^ 2 ] >= 14384.7
quadratic_ranged_344_lb: [ 1 x_20_ ^ 2 - 2 x_74_ * x_20_ + 1 x_74_ ^ 2 + 1 y_20_ ^ 2 - 2 y_74_ * y_20_ + 1 y_74_ ^ 2 ] >= 7608.15
quadratic_ranged_345_lb: [ 1 x_27_ ^ 2 - 2 x_74_ * x_27_ + 1 x_74_ ^ 2 + 1 y_27_ ^ 2 - 2 y_74_ * y_27_ + 1 y_74_ ^ 2 ] >= 8974.35
quadratic_ranged_346_lb: [ 1 x_32_ ^ 2 - 2 x_74_ * x_32_ + 1 x_74_ ^ 2 + 1 y_32_ ^ 2 - 2 y_74_ * y_32_ + 1 y_74_ ^ 2 ] >= 316.8
quadratic_ranged_347_lb: [ 1 x_34_ ^ 2 - 2 x_74_ * x_34_ + 1 x_74_ ^ 2 + 1 y_34_ ^ 2 - 2 y_74_ * y_34_ + 1 y_74_ ^ 2 ] >= 2227.5
quadratic_ranged_348_lb: [ 1 x_46_ ^ 2 - 2 x_74_ * x_46_ + 1 x_74_ ^ 2 + 1 y_46_ ^ 2 - 2 y_74_ * y_46_ + 1 y_74_ ^ 2 ] >= 28992.15
quadratic_ranged_349_lb: [ 1 x_48_ ^ 2 - 2 x_74_ * x_48_ + 1 x_74_ ^ 2 + 1 y_48_ ^ 2 - 2 y_74_ * y_48_ + 1 y_74_ ^ 2 ] >= 26779.5
quadratic_ranged_350_lb: [ 1 x_50_ ^ 2 - 2 x_74_ * x_50_ + 1 x_74_ ^ 2 + 1 y_50_ ^ 2 - 2 y_74_ * y_50_ + 1 y_74_ ^ 2 ] >= 289.08
quadratic_ranged_351_lb: [ 1 x_73_ ^ 2 - 2 x_74_ * x_73_ + 1 x_74_ ^ 2 + 1 y_73_ ^ 2 - 2 y_74_ * y_73_ + 1 y_74_ ^ 2 ] >= 3758.04
quadratic_ranged_352_lb: [ 1 x_15_ ^ 2 - 2 x_75_ * x_15_ + 1 x_75_ ^ 2 + 1 y_15_ ^ 2 - 2 y_75_ * y_15_ + 1 y_75_ ^ 2 ] >= 1514.7
quadratic_ranged_353_lb: [ 1 x_22_ ^ 2 - 2 x_75_ * x_22_ + 1 x_75_ ^ 2 + 1 y_22_ ^ 2 - 2 y_75_ * y_22_ + 1 y_75_ ^ 2 ] >= 14118.39
quadratic_ranged_354_lb: [ 1 x_27_ ^ 2 - 2 x_75_ * x_27_ + 1 x_75_ ^ 2 + 1 y_27_ ^ 2 - 2 y_75_ * y_27_ + 1 y_75_ ^ 2 ] >= 12276.99
quadratic_ranged_355_lb: [ 1 x_49_ ^ 2 - 2 x_75_ * x_49_ + 1 x_75_ ^ 2 + 1 y_49_ ^ 2 - 2 y_75_ * y_49_ + 1 y_75_ ^ 2 ] >= 27230.94
quadratic_ranged_356_lb: [ 1 x_51_ ^ 2 - 2 x_75_ * x_51_ + 1 x_75_ ^ 2 + 1 y_51_ ^ 2 - 2 y_75_ * y_51_ + 1 y_75_ ^ 2 ] >= 1999.8
quadratic_ranged_357_lb: [ 1 x_53_ ^ 2 - 2 x_75_ * x_53_ + 1 x_75_ ^ 2 + 1 y_53_ ^ 2 - 2 y_75_ * y_53_ + 1 y_75_ ^ 2 ] >= 9070.38
quadratic_ranged_358_lb: [ 1 x_61_ ^ 2 - 2 x_75_ * x_61_ + 1 x_75_ ^ 2 + 1 y_61_ ^ 2 - 2 y_75_ * y_61_ + 1 y_75_ ^ 2 ] >= 1118.7
quadratic_ranged_359_lb: [ 1 x_63_ ^ 2 - 2 x_75_ * x_63_ + 1 x_75_ ^ 2 + 1 y_63_ ^ 2 - 2 y_75_ * y_63_ + 1 y_75_ ^ 2 ] >= 12285.9
quadratic_ranged_360_lb: [ 1 x_74_ ^ 2 - 2 x_75_ * x_74_ + 1 x_75_ ^ 2 + 1 y_74_ ^ 2 - 2 y_75_ * y_74_ + 1 y_75_ ^ 2 ] >= 516.78
quadratic_ranged_361_lb: [ 1 x_11_ ^ 2 - 2 x_76_ * x_11_ + 1 x_76_ ^ 2 + 1 y_11_ ^ 2 - 2 y_76_ * y_11_ + 1 y_76_ ^ 2 ] >= 16871.579999999998
quadratic_ranged_362_lb: [ 1 x_15_ ^ 2 - 2 x_76_ * x_15_ + 1 x_76_ ^ 2 + 1 y_15_ ^ 2 - 2 y_76_ * y_15_ + 1 y_76_ ^ 2 ] >= 30240.54
quadratic_ranged_363_lb: [ 1 x_20_ ^ 2 - 2 x_76_ * x_20_ + 1 x_76_ ^ 2 + 1 y_20_ ^ 2 - 2 y_76_ * y_20_ + 1 y_76_ ^ 2 ] >= 23159.07
quadratic_ranged_364_lb: [ 1 x_23_ ^ 2 - 2 x_76_ * x_23_ + 1 x_76_ ^ 2 + 1 y_23_ ^ 2 - 2 y_76_ * y_23_ + 1 y_76_ ^ 2 ] >= 12059.19
quadratic_ranged_365_lb: [ 1 x_25_ ^ 2 - 2 x_76_ * x_25_ + 1 x_76_ ^ 2 + 1 y_25_ ^ 2 - 2 y_76_ * y_25_ + 1 y_76_ ^ 2 ] >= 11132.55
quadratic_ranged_366_lb: [ 1 x_26_ ^ 2 - 2 x_76_ * x_26_ + 1 x_76_ ^ 2 + 1 y_26_ ^ 2 - 2 y_76_ * y_26_ + 1 y_76_ ^ 2 ] >= 8335.8
quadratic_ranged_367_lb: [ 1 x_33_ ^ 2 - 2 x_76_ * x_33_ + 1 x_76_ ^ 2 + 1 y_33_ ^ 2 - 2 y_76_ * y_33_ + 1 y_76_ ^ 2 ] >= 14557.95
quadratic_ranged_368_lb: [ 1 x_50_ ^ 2 - 2 x_76_ * x_50_ + 1 x_76_ ^ 2 + 1 y_50_ ^ 2 - 2 y_76_ * y_50_ + 1 y_76_ ^ 2 ] >= 29995.02
quadratic_ranged_369_lb: [ 1 x_51_ ^ 2 - 2 x_76_ * x_51_ + 1 x_76_ ^ 2 + 1 y_51_ ^ 2 - 2 y_76_ * y_51_ + 1 y_76_ ^ 2 ] >= 40146.48
quadratic_ranged_370_lb: [ 1 x_75_ ^ 2 - 2 x_76_ * x_75_ + 1 x_76_ ^ 2 + 1 y_75_ ^ 2 - 2 y_76_ * y_75_ + 1 y_76_ ^ 2 ] >= 30115.8
quadratic_ranged_371_lb: [ 1 x_5_ ^ 2 - 2 x_77_ * x_5_ + 1 x_77_ ^ 2 + 1 y_5_ ^ 2 - 2 y_77_ * y_5_ + 1 y_77_ ^ 2 ] >= 31747.32
quadratic_ranged_372_lb: [ 1 x_12_ ^ 2 - 2 x_77_ * x_12_ + 1 x_77_ ^ 2 + 1 y_12_ ^ 2 - 2 y_77_ * y_12_ + 1 y_77_ ^ 2 ] >= 24616.35
quadratic_ranged_373_lb: [ 1 x_38_ ^ 2 - 2 x_77_ * x_38_ + 1 x_77_ ^ 2 + 1 y_38_ ^ 2 - 2 y_77_ * y_38_ + 1 y_77_ ^ 2 ] >= 38005.11
quadratic_ranged_374_lb: [ 1 x_39_ ^ 2 - 2 x_77_ * x_39_ + 1 x_77_ ^ 2 + 1 y_39_ ^ 2 - 2 y_77_ * y_39_ + 1 y_77_ ^ 2 ] >= 37271.52
quadratic_ranged_375_lb: [ 1 x_45_ ^ 2 - 2 x_77_ * x_45_ + 1 x_77_ ^ 2 + 1 y_45_ ^ 2 - 2 y_77_ * y_45_ + 1 y_77_ ^ 2 ] >= 32298.75
quadratic_ranged_376_lb: [ 1 x_49_ ^ 2 - 2 x_77_ * x_49_ + 1 x_77_ ^ 2 + 1 y_49_ ^ 2 - 2 y_77_ * y_49_ + 1 y_77_ ^ 2 ] >= 998.91
quadratic_ranged_377_lb: [ 1 x_55_ ^ 2 - 2 x_77_ * x_55_ + 1 x_77_ ^ 2 + 1 y_55_ ^ 2 - 2 y_77_ * y_55_ + 1 y_77_ ^ 2 ] >= 18878.31
quadratic_ranged_378_lb: [ 1 x_63_ ^ 2 - 2 x_77_ * x_63_ + 1 x_77_ ^ 2 + 1 y_63_ ^ 2 - 2 y_77_ * y_63_ + 1 y_77_ ^ 2 ] >= 7271.55
quadratic_ranged_379_lb: [ 1 x_65_ ^ 2 - 2 x_77_ * x_65_ + 1 x_77_ ^ 2 + 1 y_65_ ^ 2 - 2 y_77_ * y_65_ + 1 y_77_ ^ 2 ] >= 6900.3
quadratic_ranged_380_lb: [ 1 x_70_ ^ 2 - 2 x_77_ * x_70_ + 1 x_77_ ^ 2 + 1 y_70_ ^ 2 - 2 y_77_ * y_70_ + 1 y_77_ ^ 2 ] >= 20830.59
quadratic_ranged_381_lb: [ 1 x_71_ ^ 2 - 2 x_77_ * x_71_ + 1 x_77_ ^ 2 + 1 y_71_ ^ 2 - 2 y_77_ * y_71_ + 1 y_77_ ^ 2 ] >= 659.34
quadratic_ranged_382_lb: [ 1 x_76_ ^ 2 - 2 x_77_ * x_76_ + 1 x_77_ ^ 2 + 1 y_76_ ^ 2 - 2 y_77_ * y_76_ + 1 y_77_ ^ 2 ] >= 2103.75
quadratic_ranged_383_lb: [ 1 x_7_ ^ 2 - 2 x_78_ * x_7_ + 1 x_78_ ^ 2 + 1 y_7_ ^ 2 - 2 y_78_ * y_7_ + 1 y_78_ ^ 2 ] >= 20283.12
quadratic_ranged_384_lb: [ 1 x_28_ ^ 2 - 2 x_78_ * x_28_ + 1 x_78_ ^ 2 + 1 y_28_ ^ 2 - 2 y_78_ * y_28_ + 1 y_78_ ^ 2 ] >= 9339.66
quadratic_ranged_385_lb: [ 1 x_37_ ^ 2 - 2 x_78_ * x_37_ + 1 x_78_ ^ 2 + 1 y_37_ ^ 2 - 2 y_78_ * y_37_ + 1 y_78_ ^ 2 ] >= 35291.52
quadratic_ranged_386_lb: [ 1 x_40_ ^ 2 - 2 x_78_ * x_40_ + 1 x_78_ ^ 2 + 1 y_40_ ^ 2 - 2 y_78_ * y_40_ + 1 y_78_ ^ 2 ] >= 13461.03
quadratic_ranged_387_lb: [ 1 x_45_ ^ 2 - 2 x_78_ * x_45_ + 1 x_78_ ^ 2 + 1 y_45_ ^ 2 - 2 y_78_ * y_45_ + 1 y_78_ ^ 2 ] >= 35624.159999999996
quadratic_ranged_388_lb: [ 1 x_76_ ^ 2 - 2 x_78_ * x_76_ + 1 x_78_ ^ 2 + 1 y_76_ ^ 2 - 2 y_78_ * y_76_ + 1 y_78_ ^ 2 ] >= 27690.3
quadratic_ranged_389_lb: [ 1 x_77_ ^ 2 - 2 x_78_ * x_77_ + 1 x_78_ ^ 2 + 1 y_77_ ^ 2 - 2 y_78_ * y_77_ + 1 y_78_ ^ 2 ] >= 27982.35
quadratic_ranged_390_lb: [ 1 x_4_ ^ 2 - 2 x_79_ * x_4_ + 1 x_79_ ^ 2 + 1 y_4_ ^ 2 - 2 y_79_ * y_4_ + 1 y_79_ ^ 2 ] >= 7052.76
quadratic_ranged_391_lb: [ 1 x_15_ ^ 2 - 2 x_79_ * x_15_ + 1 x_79_ ^ 2 + 1 y_15_ ^ 2 - 2 y_79_ * y_15_ + 1 y_79_ ^ 2 ] >= 5529.15
quadratic_ranged_392_lb: [ 1 x_29_ ^ 2 - 2 x_79_ * x_29_ + 1 x_79_ ^ 2 + 1 y_29_ ^ 2 - 2 y_79_ * y_29_ + 1 y_79_ ^ 2 ] >= 3925.35
quadratic_ranged_393_lb: [ 1 x_30_ ^ 2 - 2 x_79_ * x_30_ + 1 x_79_ ^ 2 + 1 y_30_ ^ 2 - 2 y_79_ * y_30_ + 1 y_79_ ^ 2 ] >= 15448.95
quadratic_ranged_394_lb: [ 1 x_32_ ^ 2 - 2 x_79_ * x_32_ + 1 x_79_ ^ 2 + 1 y_32_ ^ 2 - 2 y_79_ * y_32_ + 1 y_79_ ^ 2 ] >= 6265.71
quadratic_ranged_395_lb: [ 1 x_54_ ^ 2 - 2 x_79_ * x_54_ + 1 x_79_ ^ 2 + 1 y_54_ ^ 2 - 2 y_79_ * y_54_ + 1 y_79_ ^ 2 ] >= 4880.7
quadratic_ranged_396_lb: [ 1 x_58_ ^ 2 - 2 x_79_ * x_58_ + 1 x_79_ ^ 2 + 1 y_58_ ^ 2 - 2 y_79_ * y_58_ + 1 y_79_ ^ 2 ] >= 9012.96
quadratic_ranged_397_lb: [ 1 x_60_ ^ 2 - 2 x_79_ * x_60_ + 1 x_79_ ^ 2 + 1 y_60_ ^ 2 - 2 y_79_ * y_60_ + 1 y_79_ ^ 2 ] >= 2618.55
quadratic_ranged_398_lb: [ 1 x_62_ ^ 2 - 2 x_79_ * x_62_ + 1 x_79_ ^ 2 + 1 y_62_ ^ 2 - 2 y_79_ * y_62_ + 1 y_79_ ^ 2 ] >= 6821.1
quadratic_ranged_399_lb: [ 1 x_66_ ^ 2 - 2 x_79_ * x_66_ + 1 x_79_ ^ 2 + 1 y_66_ ^ 2 - 2 y_79_ * y_66_ + 1 y_79_ ^ 2 ] >= 9865.35
quadratic_ranged_400_lb: [ 1 x_68_ ^ 2 - 2 x_79_ * x_68_ + 1 x_79_ ^ 2 + 1 y_68_ ^ 2 - 2 y_79_ * y_68_ + 1 y_79_ ^ 2 ] >= 14815.35
quadratic_ranged_401_lb: [ 1 x_78_ ^ 2 - 2 x_79_ * x_78_ + 1 x_79_ ^ 2 + 1 y_78_ ^ 2 - 2 y_79_ * y_78_ + 1 y_79_ ^ 2 ] >= 21622.59
quadratic_ranged_402_lb: [ 1 x_4_ ^ 2 - 2 x_80_ * x_4_ + 1 x_80_ ^ 2 + 1 y_4_ ^ 2 - 2 y_80_ * y_4_ + 1 y_80_ ^ 2 ] >= 14503.5
quadratic_ranged_403_lb: [ 1 x_6_ ^ 2 - 2 x_80_ * x_6_ + 1 x_80_ ^ 2 + 1 y_6_ ^ 2 - 2 y_80_ * y_6_ + 1 y_80_ ^ 2 ] >= 4249.08
quadratic_ranged_404_lb: [ 1 x_15_ ^ 2 - 2 x_80_ * x_15_ + 1 x_80_ ^ 2 + 1 y_15_ ^ 2 - 2 y_80_ * y_15_ + 1 y_80_ ^ 2 ] >= 2816.55
quadratic_ranged_405_lb: [ 1 x_42_ ^ 2 - 2 x_80_ * x_42_ + 1 x_80_ ^ 2 + 1 y_42_ ^ 2 - 2 y_80_ * y_42_ + 1 y_80_ ^ 2 ] >= 6550.83
quadratic_ranged_406_lb: [ 1 x_52_ ^ 2 - 2 x_80_ * x_52_ + 1 x_80_ ^ 2 + 1 y_52_ ^ 2 - 2 y_80_ * y_52_ + 1 y_80_ ^ 2 ] >= 976.14
quadratic_ranged_407_lb: [ 1 x_53_ ^ 2 - 2 x_80_ * x_53_ + 1 x_80_ ^ 2 + 1 y_53_ ^ 2 - 2 y_80_ * y_53_ + 1 y_80_ ^ 2 ] >= 4254.03
quadratic_ranged_408_lb: [ 1 x_63_ ^ 2 - 2 x_80_ * x_63_ + 1 x_80_ ^ 2 + 1 y_63_ ^ 2 - 2 y_80_ * y_63_ + 1 y_80_ ^ 2 ] >= 5992.47
quadratic_ranged_409_lb: [ 1 x_70_ ^ 2 - 2 x_80_ * x_70_ + 1 x_80_ ^ 2 + 1 y_70_ ^ 2 - 2 y_80_ * y_70_ + 1 y_80_ ^ 2 ] >= 2380.95
quadratic_ranged_410_lb: [ 1 x_79_ ^ 2 - 2 x_80_ * x_79_ + 1 x_80_ ^ 2 + 1 y_79_ ^ 2 - 2 y_80_ * y_79_ + 1 y_80_ ^ 2 ] >= 5799.42
quadratic_ranged_411_lb: [ 1 x_14_ ^ 2 - 2 x_81_ * x_14_ + 1 x_81_ ^ 2 + 1 y_14_ ^ 2 - 2 y_81_ * y_14_ + 1 y_81_ ^ 2 ] >= 24538.14
quadratic_ranged_412_lb: [ 1 x_28_ ^ 2 - 2 x_81_ * x_28_ + 1 x_81_ ^ 2 + 1 y_28_ ^ 2 - 2 y_81_ * y_28_ + 1 y_81_ ^ 2 ] >= 33533.28
quadratic_ranged_413_lb: [ 1 x_57_ ^ 2 - 2 x_81_ * x_57_ + 1 x_81_ ^ 2 + 1 y_57_ ^ 2 - 2 y_81_ * y_57_ + 1 y_81_ ^ 2 ] >= 43493.67
quadratic_ranged_414_lb: [ 1 x_67_ ^ 2 - 2 x_81_ * x_67_ + 1 x_81_ ^ 2 + 1 y_67_ ^ 2 - 2 y_81_ * y_67_ + 1 y_81_ ^ 2 ] >= 28329.84
quadratic_ranged_415_lb: [ 1 x_76_ ^ 2 - 2 x_81_ * x_76_ + 1 x_81_ ^ 2 + 1 y_76_ ^ 2 - 2 y_81_ * y_76_ + 1 y_81_ ^ 2 ] >= 51994.8
quadratic_ranged_416_lb: [ 1 x_80_ ^ 2 - 2 x_81_ * x_80_ + 1 x_81_ ^ 2 + 1 y_80_ ^ 2 - 2 y_81_ * y_80_ + 1 y_81_ ^ 2 ] >= 8237.789999999999
quadratic_ranged_417_lb: [ 1 x_5_ ^ 2 - 2 x_82_ * x_5_ + 1 x_82_ ^ 2 + 1 y_5_ ^ 2 - 2 y_82_ * y_5_ + 1 y_82_ ^ 2 ] >= 22100.76
quadratic_ranged_418_lb: [ 1 x_21_ ^ 2 - 2 x_82_ * x_21_ + 1 x_82_ ^ 2 + 1 y_21_ ^ 2 - 2 y_82_ * y_21_ + 1 y_82_ ^ 2 ] >= 22676.94
quadratic_ranged_419_lb: [ 1 x_30_ ^ 2 - 2 x_82_ * x_30_ + 1 x_82_ ^ 2 + 1 y_30_ ^ 2 - 2 y_82_ * y_30_ + 1 y_82_ ^ 2 ] >= 23107.59
quadratic_ranged_420_lb: [ 1 x_34_ ^ 2 - 2 x_82_ * x_34_ + 1 x_82_ ^ 2 + 1 y_34_ ^ 2 - 2 y_82_ * y_34_ + 1 y_82_ ^ 2 ] >= 9231.75
quadratic_ranged_421_lb: [ 1 x_45_ ^ 2 - 2 x_82_ * x_45_ + 1 x_82_ ^ 2 + 1 y_45_ ^ 2 - 2 y_82_ * y_45_ + 1 y_82_ ^ 2 ] >= 28806.03
quadratic_ranged_422_lb: [ 1 x_47_ ^ 2 - 2 x_82_ * x_47_ + 1 x_82_ ^ 2 + 1 y_47_ ^ 2 - 2 y_82_ * y_47_ + 1 y_82_ ^ 2 ] >= 324.71999999999997
quadratic_ranged_423_lb: [ 1 x_62_ ^ 2 - 2 x_82_ * x_62_ + 1 x_82_ ^ 2 + 1 y_62_ ^ 2 - 2 y_82_ * y_62_ + 1 y_82_ ^ 2 ] >= 2035.44
quadratic_ranged_424_lb: [ 1 x_70_ ^ 2 - 2 x_82_ * x_70_ + 1 x_82_ ^ 2 + 1 y_70_ ^ 2 - 2 y_82_ * y_70_ + 1 y_82_ ^ 2 ] >= 9829.71
quadratic_ranged_425_lb: [ 1 x_73_ ^ 2 - 2 x_82_ * x_73_ + 1 x_82_ ^ 2 + 1 y_73_ ^ 2 - 2 y_82_ * y_73_ + 1 y_82_ ^ 2 ] >= 24620.31
quadratic_ranged_426_lb: [ 1 x_80_ ^ 2 - 2 x_82_ * x_80_ + 1 x_82_ ^ 2 + 1 y_80_ ^ 2 - 2 y_82_ * y_80_ + 1 y_82_ ^ 2 ] >= 4613.4
quadratic_ranged_427_lb: [ 1 x_81_ ^ 2 - 2 x_82_ * x_81_ + 1 x_82_ ^ 2 + 1 y_81_ ^ 2 - 2 y_82_ * y_81_ + 1 y_82_ ^ 2 ] >= 20695.95
quadratic_ranged_428_lb: [ 1 x_7_ ^ 2 - 2 x_83_ * x_7_ + 1 x_83_ ^ 2 + 1 y_7_ ^ 2 - 2 y_83_ * y_7_ + 1 y_83_ ^ 2 ] >= 1174.14
quadratic_ranged_429_lb: [ 1 x_13_ ^ 2 - 2 x_83_ * x_13_ + 1 x_83_ ^ 2 + 1 y_13_ ^ 2 - 2 y_83_ * y_13_ + 1 y_83_ ^ 2 ] >= 10939.5
quadratic_ranged_430_lb: [ 1 x_28_ ^ 2 - 2 x_83_ * x_28_ + 1 x_83_ ^ 2 + 1 y_28_ ^ 2 - 2 y_83_ * y_28_ + 1 y_83_ ^ 2 ] >= 1211.76
quadratic_ranged_431_lb: [ 1 x_31_ ^ 2 - 2 x_83_ * x_31_ + 1 x_83_ ^ 2 + 1 y_31_ ^ 2 - 2 y_83_ * y_31_ + 1 y_83_ ^ 2 ] >= 7991.28
quadratic_ranged_432_lb: [ 1 x_45_ ^ 2 - 2 x_83_ * x_45_ + 1 x_83_ ^ 2 + 1 y_45_ ^ 2 - 2 y_83_ * y_45_ + 1 y_83_ ^ 2 ] >= 15968.7
quadratic_ranged_433_lb: [ 1 x_51_ ^ 2 - 2 x_83_ * x_51_ + 1 x_83_ ^ 2 + 1 y_51_ ^ 2 - 2 y_83_ * y_51_ + 1 y_83_ ^ 2 ] >= 25953.84
quadratic_ranged_434_lb: [ 1 x_65_ ^ 2 - 2 x_83_ * x_65_ + 1 x_83_ ^ 2 + 1 y_65_ ^ 2 - 2 y_83_ * y_65_ + 1 y_83_ ^ 2 ] >= 1022.67
quadratic_ranged_435_lb: [ 1 x_82_ ^ 2 - 2 x_83_ * x_82_ + 1 x_83_ ^ 2 + 1 y_82_ ^ 2 - 2 y_83_ * y_82_ + 1 y_83_ ^ 2 ] >= 9128.789999999999
quadratic_ranged_436_lb: [ 1 x_20_ ^ 2 - 2 x_84_ * x_20_ + 1 x_84_ ^ 2 + 1 y_20_ ^ 2 - 2 y_84_ * y_20_ + 1 y_84_ ^ 2 ] >= 13071.96
quadratic_ranged_437_lb: [ 1 x_23_ ^ 2 - 2 x_84_ * x_23_ + 1 x_84_ ^ 2 + 1 y_23_ ^ 2 - 2 y_84_ * y_23_ + 1 y_84_ ^ 2 ] >= 19009.98
quadratic_ranged_438_lb: [ 1 x_55_ ^ 2 - 2 x_84_ * x_55_ + 1 x_84_ ^ 2 + 1 y_55_ ^ 2 - 2 y_84_ * y_55_ + 1 y_84_ ^ 2 ] >= 19511.91
quadratic_ranged_439_lb: [ 1 x_56_ ^ 2 - 2 x_84_ * x_56_ + 1 x_84_ ^ 2 + 1 y_56_ ^ 2 - 2 y_84_ * y_56_ + 1 y_84_ ^ 2 ] >= 18962.46
quadratic_ranged_440_lb: [ 1 x_61_ ^ 2 - 2 x_84_ * x_61_ + 1 x_84_ ^ 2 + 1 y_61_ ^ 2 - 2 y_84_ * y_61_ + 1 y_84_ ^ 2 ] >= 4115.43
quadratic_ranged_441_lb: [ 1 x_72_ ^ 2 - 2 x_84_ * x_72_ + 1 x_84_ ^ 2 + 1 y_72_ ^ 2 - 2 y_84_ * y_72_ + 1 y_84_ ^ 2 ] >= 1509.75
quadratic_ranged_442_lb: [ 1 x_83_ ^ 2 - 2 x_84_ * x_83_ + 1 x_84_ ^ 2 + 1 y_83_ ^ 2 - 2 y_84_ * y_83_ + 1 y_84_ ^ 2 ] >= 8879.31
quadratic_ranged_443_lb: [ 1 x_3_ ^ 2 - 2 x_85_ * x_3_ + 1 x_85_ ^ 2 + 1 y_3_ ^ 2 - 2 y_85_ * y_3_ + 1 y_85_ ^ 2 ] >= 12514.59
quadratic_ranged_444_lb: [ 1 x_30_ ^ 2 - 2 x_85_ * x_30_ + 1 x_85_ ^ 2 + 1 y_30_ ^ 2 - 2 y_85_ * y_30_ + 1 y_85_ ^ 2 ] >= 9283.23
quadratic_ranged_445_lb: [ 1 x_42_ ^ 2 - 2 x_85_ * x_42_ + 1 x_85_ ^ 2 + 1 y_42_ ^ 2 - 2 y_85_ * y_42_ + 1 y_85_ ^ 2 ] >= 13516.47
quadratic_ranged_446_lb: [ 1 x_51_ ^ 2 - 2 x_85_ * x_51_ + 1 x_85_ ^ 2 + 1 y_51_ ^ 2 - 2 y_85_ * y_51_ + 1 y_85_ ^ 2 ] >= 9231.75
quadratic_ranged_447_lb: [ 1 x_84_ ^ 2 - 2 x_85_ * x_84_ + 1 x_85_ ^ 2 + 1 y_84_ ^ 2 - 2 y_85_ * y_84_ + 1 y_85_ ^ 2 ] >= 2385.9
quadratic_ranged_448_lb: [ 1 x_2_ ^ 2 - 2 x_86_ * x_2_ + 1 x_86_ ^ 2 + 1 y_2_ ^ 2 - 2 y_86_ * y_2_ + 1 y_86_ ^ 2 ] >= 6574.59
quadratic_ranged_449_lb: [ 1 x_14_ ^ 2 - 2 x_86_ * x_14_ + 1 x_86_ ^ 2 + 1 y_14_ ^ 2 - 2 y_86_ * y_14_ + 1 y_86_ ^ 2 ] >= 3252.15
quadratic_ranged_450_lb: [ 1 x_25_ ^ 2 - 2 x_86_ * x_25_ + 1 x_86_ ^ 2 + 1 y_25_ ^ 2 - 2 y_86_ * y_25_ + 1 y_86_ ^ 2 ] >= 28373.4
quadratic_ranged_451_lb: [ 1 x_52_ ^ 2 - 2 x_86_ * x_52_ + 1 x_86_ ^ 2 + 1 y_52_ ^ 2 - 2 y_86_ * y_52_ + 1 y_86_ ^ 2 ] >= 5148
quadratic_ranged_452_lb: [ 1 x_53_ ^ 2 - 2 x_86_ * x_53_ + 1 x_86_ ^ 2 + 1 y_53_ ^ 2 - 2 y_86_ * y_53_ + 1 y_86_ ^ 2 ] >= 4198.59
quadratic_ranged_453_lb: [ 1 x_66_ ^ 2 - 2 x_86_ * x_66_ + 1 x_86_ ^ 2 + 1 y_66_ ^ 2 - 2 y_86_ * y_66_ + 1 y_86_ ^ 2 ] >= 14593.59
quadratic_ranged_454_lb: [ 1 x_80_ ^ 2 - 2 x_86_ * x_80_ + 1 x_86_ ^ 2 + 1 y_80_ ^ 2 - 2 y_86_ * y_80_ + 1 y_86_ ^ 2 ] >= 5846.94
quadratic_ranged_455_lb: [ 1 x_85_ ^ 2 - 2 x_86_ * x_85_ + 1 x_86_ ^ 2 + 1 y_85_ ^ 2 - 2 y_86_ * y_85_ + 1 y_86_ ^ 2 ] >= 12206.7
quadratic_ranged_456_lb: [ 1 x_4_ ^ 2 - 2 x_87_ * x_4_ + 1 x_87_ ^ 2 + 1 y_4_ ^ 2 - 2 y_87_ * y_4_ + 1 y_87_ ^ 2 ] >= 25829.1
quadratic_ranged_457_lb: [ 1 x_18_ ^ 2 - 2 x_87_ * x_18_ + 1 x_87_ ^ 2 + 1 y_18_ ^ 2 - 2 y_87_ * y_18_ + 1 y_87_ ^ 2 ] >= 23633.28
quadratic_ranged_458_lb: [ 1 x_42_ ^ 2 - 2 x_87_ * x_42_ + 1 x_87_ ^ 2 + 1 y_42_ ^ 2 - 2 y_87_ * y_42_ + 1 y_87_ ^ 2 ] >= 25816.23
quadratic_ranged_459_lb: [ 1 x_46_ ^ 2 - 2 x_87_ * x_46_ + 1 x_87_ ^ 2 + 1 y_46_ ^ 2 - 2 y_87_ * y_46_ + 1 y_87_ ^ 2 ] >= 33337.26
quadratic_ranged_460_lb: [ 1 x_62_ ^ 2 - 2 x_87_ * x_62_ + 1 x_87_ ^ 2 + 1 y_62_ ^ 2 - 2 y_87_ * y_62_ + 1 y_87_ ^ 2 ] >= 15416.28
quadratic_ranged_461_lb: [ 1 x_65_ ^ 2 - 2 x_87_ * x_65_ + 1 x_87_ ^ 2 + 1 y_65_ ^ 2 - 2 y_87_ * y_65_ + 1 y_87_ ^ 2 ] >= 23579.82
quadratic_ranged_462_lb: [ 1 x_86_ ^ 2 - 2 x_87_ * x_86_ + 1 x_87_ ^ 2 + 1 y_86_ ^ 2 - 2 y_87_ * y_86_ + 1 y_87_ ^ 2 ] >= 26359.739999999998
quadratic_ranged_463_lb: [ 1 x_1_ ^ 2 - 2 x_88_ * x_1_ + 1 x_88_ ^ 2 + 1 y_1_ ^ 2 - 2 y_88_ * y_1_ + 1 y_88_ ^ 2 ] >= 7635.87
quadratic_ranged_464_lb: [ 1 x_2_ ^ 2 - 2 x_88_ * x_2_ + 1 x_88_ ^ 2 + 1 y_2_ ^ 2 - 2 y_88_ * y_2_ + 1 y_88_ ^ 2 ] >= 20719.71
quadratic_ranged_465_lb: [ 1 x_9_ ^ 2 - 2 x_88_ * x_9_ + 1 x_88_ ^ 2 + 1 y_9_ ^ 2 - 2 y_88_ * y_9_ + 1 y_88_ ^ 2 ] >= 28659.51
quadratic_ranged_466_lb: [ 1 x_19_ ^ 2 - 2 x_88_ * x_19_ + 1 x_88_ ^ 2 + 1 y_19_ ^ 2 - 2 y_88_ * y_19_ + 1 y_88_ ^ 2 ] >= 26509.23
quadratic_ranged_467_lb: [ 1 x_29_ ^ 2 - 2 x_88_ * x_29_ + 1 x_88_ ^ 2 + 1 y_29_ ^ 2 - 2 y_88_ * y_29_ + 1 y_88_ ^ 2 ] >= 25269.75
quadratic_ranged_468_lb: [ 1 x_35_ ^ 2 - 2 x_88_ * x_35_ + 1 x_88_ ^ 2 + 1 y_35_ ^ 2 - 2 y_88_ * y_35_ + 1 y_88_ ^ 2 ] >= 28730.79
quadratic_ranged_469_lb: [ 1 x_36_ ^ 2 - 2 x_88_ * x_36_ + 1 x_88_ ^ 2 + 1 y_36_ ^ 2 - 2 y_88_ * y_36_ + 1 y_88_ ^ 2 ] >= 9936.63
quadratic_ranged_470_lb: [ 1 x_37_ ^ 2 - 2 x_88_ * x_37_ + 1 x_88_ ^ 2 + 1 y_37_ ^ 2 - 2 y_88_ * y_37_ + 1 y_88_ ^ 2 ] >= 18224.91
quadratic_ranged_471_lb: [ 1 x_45_ ^ 2 - 2 x_88_ * x_45_ + 1 x_88_ ^ 2 + 1 y_45_ ^ 2 - 2 y_88_ * y_45_ + 1 y_88_ ^ 2 ] >= 10993.95
quadratic_ranged_472_lb: [ 1 x_52_ ^ 2 - 2 x_88_ * x_52_ + 1 x_88_ ^ 2 + 1 y_52_ ^ 2 - 2 y_88_ * y_52_ + 1 y_88_ ^ 2 ] >= 14170.86
quadratic_ranged_473_lb: [ 1 x_54_ ^ 2 - 2 x_88_ * x_54_ + 1 x_88_ ^ 2 + 1 y_54_ ^ 2 - 2 y_88_ * y_54_ + 1 y_88_ ^ 2 ] >= 1207.8
quadratic_ranged_474_lb: [ 1 x_87_ ^ 2 - 2 x_88_ * x_87_ + 1 x_88_ ^ 2 + 1 y_87_ ^ 2 - 2 y_88_ * y_87_ + 1 y_88_ ^ 2 ] >= 570.24
quadratic_ranged_475_lb: [ 1 x_24_ ^ 2 - 2 x_89_ * x_24_ + 1 x_89_ ^ 2 + 1 y_24_ ^ 2 - 2 y_89_ * y_24_ + 1 y_89_ ^ 2 ] >= 23780.79
quadratic_ranged_476_lb: [ 1 x_39_ ^ 2 - 2 x_89_ * x_39_ + 1 x_89_ ^ 2 + 1 y_39_ ^ 2 - 2 y_89_ * y_39_ + 1 y_89_ ^ 2 ] >= 25908.3
quadratic_ranged_477_lb: [ 1 x_44_ ^ 2 - 2 x_89_ * x_44_ + 1 x_89_ ^ 2 + 1 y_44_ ^ 2 - 2 y_89_ * y_44_ + 1 y_89_ ^ 2 ] >= 6083.55
quadratic_ranged_478_lb: [ 1 x_46_ ^ 2 - 2 x_89_ * x_46_ + 1 x_89_ ^ 2 + 1 y_46_ ^ 2 - 2 y_89_ * y_46_ + 1 y_89_ ^ 2 ] >= 8082.36
quadratic_ranged_479_lb: [ 1 x_51_ ^ 2 - 2 x_89_ * x_51_ + 1 x_89_ ^ 2 + 1 y_51_ ^ 2 - 2 y_89_ * y_51_ + 1 y_89_ ^ 2 ] >= 13116.51
quadratic_ranged_480_lb: [ 1 x_54_ ^ 2 - 2 x_89_ * x_54_ + 1 x_89_ ^ 2 + 1 y_54_ ^ 2 - 2 y_89_ * y_54_ + 1 y_89_ ^ 2 ] >= 15232.14
quadratic_ranged_481_lb: [ 1 x_59_ ^ 2 - 2 x_89_ * x_59_ + 1 x_89_ ^ 2 + 1 y_59_ ^ 2 - 2 y_89_ * y_59_ + 1 y_89_ ^ 2 ] >= 11454.3
quadratic_ranged_482_lb: [ 1 x_69_ ^ 2 - 2 x_89_ * x_69_ + 1 x_89_ ^ 2 + 1 y_69_ ^ 2 - 2 y_89_ * y_69_ + 1 y_89_ ^ 2 ] >= 15908.31
quadratic_ranged_483_lb: [ 1 x_88_ ^ 2 - 2 x_89_ * x_88_ + 1 x_89_ ^ 2 + 1 y_88_ ^ 2 - 2 y_89_ * y_88_ + 1 y_89_ ^ 2 ] >= 24949.98
quadratic_ranged_484_lb: [ 1 x_11_ ^ 2 - 2 x_90_ * x_11_ + 1 x_90_ ^ 2 + 1 y_11_ ^ 2 - 2 y_90_ * y_11_ + 1 y_90_ ^ 2 ] >= 16350.84
quadratic_ranged_485_lb: [ 1 x_12_ ^ 2 - 2 x_90_ * x_12_ + 1 x_90_ ^ 2 + 1 y_12_ ^ 2 - 2 y_90_ * y_12_ + 1 y_90_ ^ 2 ] >= 841.5
quadratic_ranged_486_lb: [ 1 x_34_ ^ 2 - 2 x_90_ * x_34_ + 1 x_90_ ^ 2 + 1 y_34_ ^ 2 - 2 y_90_ * y_34_ + 1 y_90_ ^ 2 ] >= 34406.46
quadratic_ranged_487_lb: [ 1 x_65_ ^ 2 - 2 x_90_ * x_65_ + 1 x_90_ ^ 2 + 1 y_65_ ^ 2 - 2 y_90_ * y_65_ + 1 y_90_ ^ 2 ] >= 13738.23
quadratic_ranged_488_lb: [ 1 x_89_ ^ 2 - 2 x_90_ * x_89_ + 1 x_90_ ^ 2 + 1 y_89_ ^ 2 - 2 y_90_ * y_89_ + 1 y_90_ ^ 2 ] >= 18070.47
quadratic_ranged_489_lb: [ 1 x_11_ ^ 2 - 2 x_91_ * x_11_ + 1 x_91_ ^ 2 + 1 y_11_ ^ 2 - 2 y_91_ * y_11_ + 1 y_91_ ^ 2 ] >= 4931.19
quadratic_ranged_490_lb: [ 1 x_12_ ^ 2 - 2 x_91_ * x_12_ + 1 x_91_ ^ 2 + 1 y_12_ ^ 2 - 2 y_91_ * y_12_ + 1 y_91_ ^ 2 ] >= 30223.71
quadratic_ranged_491_lb: [ 1 x_25_ ^ 2 - 2 x_91_ * x_25_ + 1 x_91_ ^ 2 + 1 y_25_ ^ 2 - 2 y_91_ * y_25_ + 1 y_91_ ^ 2 ] >= 24868.8
quadratic_ranged_492_lb: [ 1 x_30_ ^ 2 - 2 x_91_ * x_30_ + 1 x_91_ ^ 2 + 1 y_30_ ^ 2 - 2 y_91_ * y_30_ + 1 y_91_ ^ 2 ] >= 24319.35
quadratic_ranged_493_lb: [ 1 x_37_ ^ 2 - 2 x_91_ * x_37_ + 1 x_91_ ^ 2 + 1 y_37_ ^ 2 - 2 y_91_ * y_37_ + 1 y_91_ ^ 2 ] >= 31245.39
quadratic_ranged_494_lb: [ 1 x_38_ ^ 2 - 2 x_91_ * x_38_ + 1 x_91_ ^ 2 + 1 y_38_ ^ 2 - 2 y_91_ * y_38_ + 1 y_91_ ^ 2 ] >= 12704.67
quadratic_ranged_495_lb: [ 1 x_41_ ^ 2 - 2 x_91_ * x_41_ + 1 x_91_ ^ 2 + 1 y_41_ ^ 2 - 2 y_91_ * y_41_ + 1 y_91_ ^ 2 ] >= 21480.03
quadratic_ranged_496_lb: [ 1 x_47_ ^ 2 - 2 x_91_ * x_47_ + 1 x_91_ ^ 2 + 1 y_47_ ^ 2 - 2 y_91_ * y_47_ + 1 y_91_ ^ 2 ] >= 912.78
quadratic_ranged_497_lb: [ 1 x_60_ ^ 2 - 2 x_91_ * x_60_ + 1 x_91_ ^ 2 + 1 y_60_ ^ 2 - 2 y_91_ * y_60_ + 1 y_91_ ^ 2 ] >= 9271.35
quadratic_ranged_498_lb: [ 1 x_70_ ^ 2 - 2 x_91_ * x_70_ + 1 x_91_ ^ 2 + 1 y_70_ ^ 2 - 2 y_91_ * y_70_ + 1 y_91_ ^ 2 ] >= 12308.67
quadratic_ranged_499_lb: [ 1 x_73_ ^ 2 - 2 x_91_ * x_73_ + 1 x_91_ ^ 2 + 1 y_73_ ^ 2 - 2 y_91_ * y_73_ + 1 y_91_ ^ 2 ] >= 25447.95
quadratic_ranged_500_lb: [ 1 x_83_ ^ 2 - 2 x_91_ * x_83_ + 1 x_91_ ^ 2 + 1 y_83_ ^ 2 - 2 y_91_ * y_83_ + 1 y_91_ ^ 2 ] >= 11560.23
quadratic_ranged_501_lb: [ 1 x_89_ ^ 2 - 2 x_91_ * x_89_ + 1 x_91_ ^ 2 + 1 y_89_ ^ 2 - 2 y_91_ * y_89_ + 1 y_91_ ^ 2 ] >= 2871
quadratic_ranged_502_lb: [ 1 x_90_ ^ 2 - 2 x_91_ * x_90_ + 1 x_91_ ^ 2 + 1 y_90_ ^ 2 - 2 y_91_ * y_90_ + 1 y_91_ ^ 2 ] >= 33233.31
quadratic_ranged_503_lb: [ 1 x_11_ ^ 2 - 2 x_92_ * x_11_ + 1 x_92_ ^ 2 + 1 y_11_ ^ 2 - 2 y_92_ * y_11_ + 1 y_92_ ^ 2 ] >= 6145.92
quadratic_ranged_504_lb: [ 1 x_22_ ^ 2 - 2 x_92_ * x_22_ + 1 x_92_ ^ 2 + 1 y_22_ ^ 2 - 2 y_92_ * y_22_ + 1 y_92_ ^ 2 ] >= 369.27
quadratic_ranged_505_lb: [ 1 x_43_ ^ 2 - 2 x_92_ * x_43_ + 1 x_92_ ^ 2 + 1 y_43_ ^ 2 - 2 y_92_ * y_43_ + 1 y_92_ ^ 2 ] >= 1608.75
quadratic_ranged_506_lb: [ 1 x_52_ ^ 2 - 2 x_92_ * x_52_ + 1 x_92_ ^ 2 + 1 y_52_ ^ 2 - 2 y_92_ * y_52_ + 1 y_92_ ^ 2 ] >= 4935.15
quadratic_ranged_507_lb: [ 1 x_66_ ^ 2 - 2 x_92_ * x_66_ + 1 x_92_ ^ 2 + 1 y_66_ ^ 2 - 2 y_92_ * y_66_ + 1 y_92_ ^ 2 ] >= 18629.82
quadratic_ranged_508_lb: [ 1 x_67_ ^ 2 - 2 x_92_ * x_67_ + 1 x_92_ ^ 2 + 1 y_67_ ^ 2 - 2 y_92_ * y_67_ + 1 y_92_ ^ 2 ] >= 18210.06
quadratic_ranged_509_lb: [ 1 x_91_ ^ 2 - 2 x_92_ * x_91_ + 1 x_92_ ^ 2 + 1 y_91_ ^ 2 - 2 y_92_ * y_91_ + 1 y_92_ ^ 2 ] >= 84.15
quadratic_ranged_510_lb: [ 1 x_8_ ^ 2 - 2 x_93_ * x_8_ + 1 x_93_ ^ 2 + 1 y_8_ ^ 2 - 2 y_93_ * y_8_ + 1 y_93_ ^ 2 ] >= 4197.6
quadratic_ranged_511_lb: [ 1 x_28_ ^ 2 - 2 x_93_ * x_28_ + 1 x_93_ ^ 2 + 1 y_28_ ^ 2 - 2 y_93_ * y_28_ + 1 y_93_ ^ 2 ] >= 1299.87
quadratic_ranged_512_lb: [ 1 x_30_ ^ 2 - 2 x_93_ * x_30_ + 1 x_93_ ^ 2 + 1 y_30_ ^ 2 - 2 y_93_ * y_30_ + 1 y_93_ ^ 2 ] >= 23535.27
quadratic_ranged_513_lb: [ 1 x_91_ ^ 2 - 2 x_93_ * x_91_ + 1 x_93_ ^ 2 + 1 y_91_ ^ 2 - 2 y_93_ * y_91_ + 1 y_93_ ^ 2 ] >= 2312.64
quadratic_ranged_514_lb: [ 1 x_92_ ^ 2 - 2 x_93_ * x_92_ + 1 x_93_ ^ 2 + 1 y_92_ ^ 2 - 2 y_93_ * y_92_ + 1 y_93_ ^ 2 ] >= 3244.23
quadratic_ranged_515_lb: [ 1 x_9_ ^ 2 - 2 x_94_ * x_9_ + 1 x_94_ ^ 2 + 1 y_9_ ^ 2 - 2 y_94_ * y_9_ + 1 y_94_ ^ 2 ] >= 3184.83
quadratic_ranged_516_lb: [ 1 x_14_ ^ 2 - 2 x_94_ * x_14_ + 1 x_94_ ^ 2 + 1 y_14_ ^ 2 - 2 y_94_ * y_14_ + 1 y_94_ ^ 2 ] >= 2380.95
quadratic_ranged_517_lb: [ 1 x_20_ ^ 2 - 2 x_94_ * x_20_ + 1 x_94_ ^ 2 + 1 y_20_ ^ 2 - 2 y_94_ * y_20_ + 1 y_94_ ^ 2 ] >= 13949.1
quadratic_ranged_518_lb: [ 1 x_26_ ^ 2 - 2 x_94_ * x_26_ + 1 x_94_ ^ 2 + 1 y_26_ ^ 2 - 2 y_94_ * y_26_ + 1 y_94_ ^ 2 ] >= 12985.83
quadratic_ranged_519_lb: [ 1 x_42_ ^ 2 - 2 x_94_ * x_42_ + 1 x_94_ ^ 2 + 1 y_42_ ^ 2 - 2 y_94_ * y_42_ + 1 y_94_ ^ 2 ] >= 4697.55
quadratic_ranged_520_lb: [ 1 x_44_ ^ 2 - 2 x_94_ * x_44_ + 1 x_94_ ^ 2 + 1 y_44_ ^ 2 - 2 y_94_ * y_44_ + 1 y_94_ ^ 2 ] >= 15817.23
quadratic_ranged_521_lb: [ 1 x_45_ ^ 2 - 2 x_94_ * x_45_ + 1 x_94_ ^ 2 + 1 y_45_ ^ 2 - 2 y_94_ * y_45_ + 1 y_94_ ^ 2 ] >= 16981.47
quadratic_ranged_522_lb: [ 1 x_57_ ^ 2 - 2 x_94_ * x_57_ + 1 x_94_ ^ 2 + 1 y_57_ ^ 2 - 2 y_94_ * y_57_ + 1 y_94_ ^ 2 ] >= 10939.5
quadratic_ranged_523_lb: [ 1 x_58_ ^ 2 - 2 x_94_ * x_58_ + 1 x_94_ ^ 2 + 1 y_58_ ^ 2 - 2 y_94_ * y_58_ + 1 y_94_ ^ 2 ] >= 524.7
quadratic_ranged_524_lb: [ 1 x_79_ ^ 2 - 2 x_94_ * x_79_ + 1 x_94_ ^ 2 + 1 y_79_ ^ 2 - 2 y_94_ * y_79_ + 1 y_94_ ^ 2 ] >= 7866.54
quadratic_ranged_525_lb: [ 1 x_84_ ^ 2 - 2 x_94_ * x_84_ + 1 x_94_ ^ 2 + 1 y_84_ ^ 2 - 2 y_94_ * y_84_ + 1 y_94_ ^ 2 ] >= 25.74
quadratic_ranged_526_lb: [ 1 x_93_ ^ 2 - 2 x_94_ * x_93_ + 1 x_94_ ^ 2 + 1 y_93_ ^ 2 - 2 y_94_ * y_93_ + 1 y_94_ ^ 2 ] >= 1570.1399999999999
quadratic_ranged_527_lb: [ 1 x_8_ ^ 2 - 2 x_95_ * x_8_ + 1 x_95_ ^ 2 + 1 y_8_ ^ 2 - 2 y_95_ * y_8_ + 1 y_95_ ^ 2 ] >= 13283.82
quadratic_ranged_528_lb: [ 1 x_16_ ^ 2 - 2 x_95_ * x_16_ + 1 x_95_ ^ 2 + 1 y_16_ ^ 2 - 2 y_95_ * y_16_ + 1 y_95_ ^ 2 ] >= 9116.91
quadratic_ranged_529_lb: [ 1 x_19_ ^ 2 - 2 x_95_ * x_19_ + 1 x_95_ ^ 2 + 1 y_19_ ^ 2 - 2 y_95_ * y_19_ + 1 y_95_ ^ 2 ] >= 17896.23
quadratic_ranged_530_lb: [ 1 x_20_ ^ 2 - 2 x_95_ * x_20_ + 1 x_95_ ^ 2 + 1 y_20_ ^ 2 - 2 y_95_ * y_20_ + 1 y_95_ ^ 2 ] >= 9989.1
quadratic_ranged_531_lb: [ 1 x_29_ ^ 2 - 2 x_95_ * x_29_ + 1 x_95_ ^ 2 + 1 y_29_ ^ 2 - 2 y_95_ * y_29_ + 1 y_95_ ^ 2 ] >= 17298.27
quadratic_ranged_532_lb: [ 1 x_36_ ^ 2 - 2 x_95_ * x_36_ + 1 x_95_ ^ 2 + 1 y_36_ ^ 2 - 2 y_95_ * y_36_ + 1 y_95_ ^ 2 ] >= 2361.15
quadratic_ranged_533_lb: [ 1 x_47_ ^ 2 - 2 x_95_ * x_47_ + 1 x_95_ ^ 2 + 1 y_47_ ^ 2 - 2 y_95_ * y_47_ + 1 y_95_ ^ 2 ] >= 6288.48
quadratic_ranged_534_lb: [ 1 x_68_ ^ 2 - 2 x_95_ * x_68_ + 1 x_95_ ^ 2 + 1 y_68_ ^ 2 - 2 y_95_ * y_68_ + 1 y_95_ ^ 2 ] >= 18062.55
quadratic_ranged_535_lb: [ 1 x_84_ ^ 2 - 2 x_95_ * x_84_ + 1 x_95_ ^ 2 + 1 y_84_ ^ 2 - 2 y_95_ * y_84_ + 1 y_95_ ^ 2 ] >= 999.9
quadratic_ranged_536_lb: [ 1 x_94_ ^ 2 - 2 x_95_ * x_94_ + 1 x_95_ ^ 2 + 1 y_94_ ^ 2 - 2 y_95_ * y_94_ + 1 y_95_ ^ 2 ] >= 1338.48
quadratic_ranged_537_lb: [ 1 x_3_ ^ 2 - 2 x_96_ * x_3_ + 1 x_96_ ^ 2 + 1 y_3_ ^ 2 - 2 y_96_ * y_3_ + 1 y_96_ ^ 2 ] >= 5251.95
quadratic_ranged_538_lb: [ 1 x_21_ ^ 2 - 2 x_96_ * x_21_ + 1 x_96_ ^ 2 + 1 y_21_ ^ 2 - 2 y_96_ * y_21_ + 1 y_96_ ^ 2 ] >= 4017.42
quadratic_ranged_539_lb: [ 1 x_24_ ^ 2 - 2 x_96_ * x_24_ + 1 x_96_ ^ 2 + 1 y_24_ ^ 2 - 2 y_96_ * y_24_ + 1 y_96_ ^ 2 ] >= 12498.75
quadratic_ranged_540_lb: [ 1 x_28_ ^ 2 - 2 x_96_ * x_28_ + 1 x_96_ ^ 2 + 1 y_28_ ^ 2 - 2 y_96_ * y_28_ + 1 y_96_ ^ 2 ] >= 4321.35
quadratic_ranged_541_lb: [ 1 x_37_ ^ 2 - 2 x_96_ * x_37_ + 1 x_96_ ^ 2 + 1 y_37_ ^ 2 - 2 y_96_ * y_37_ + 1 y_96_ ^ 2 ] >= 5905.35
quadratic_ranged_542_lb: [ 1 x_51_ ^ 2 - 2 x_96_ * x_51_ + 1 x_96_ ^ 2 + 1 y_51_ ^ 2 - 2 y_96_ * y_51_ + 1 y_96_ ^ 2 ] >= 14498.55
quadratic_ranged_543_lb: [ 1 x_57_ ^ 2 - 2 x_96_ * x_57_ + 1 x_96_ ^ 2 + 1 y_57_ ^ 2 - 2 y_96_ * y_57_ + 1 y_96_ ^ 2 ] >= 5593.5
quadratic_ranged_544_lb: [ 1 x_65_ ^ 2 - 2 x_96_ * x_65_ + 1 x_96_ ^ 2 + 1 y_65_ ^ 2 - 2 y_96_ * y_65_ + 1 y_96_ ^ 2 ] >= 2575.98
quadratic_ranged_545_lb: [ 1 x_73_ ^ 2 - 2 x_96_ * x_73_ + 1 x_96_ ^ 2 + 1 y_73_ ^ 2 - 2 y_96_ * y_73_ + 1 y_96_ ^ 2 ] >= 22042.35
quadratic_ranged_546_lb: [ 1 x_81_ ^ 2 - 2 x_96_ * x_81_ + 1 x_96_ ^ 2 + 1 y_81_ ^ 2 - 2 y_96_ * y_81_ + 1 y_96_ ^ 2 ] >= 19345.59
quadratic_ranged_547_lb: [ 1 x_91_ ^ 2 - 2 x_96_ * x_91_ + 1 x_96_ ^ 2 + 1 y_91_ ^ 2 - 2 y_96_ * y_91_ + 1 y_96_ ^ 2 ] >= 9989.1
quadratic_ranged_548_lb: [ 1 x_95_ ^ 2 - 2 x_96_ * x_95_ + 1 x_96_ ^ 2 + 1 y_95_ ^ 2 - 2 y_96_ * y_95_ + 1 y_96_ ^ 2 ] >= 4831.2
quadratic_ranged_549_lb: [ 1 x_1_ ^ 2 - 2 x_97_ * x_1_ + 1 x_97_ ^ 2 + 1 y_1_ ^ 2 - 2 y_97_ * y_1_ + 1 y_97_ ^ 2 ] >= 10521.72
quadratic_ranged_550_lb: [ 1 x_28_ ^ 2 - 2 x_97_ * x_28_ + 1 x_97_ ^ 2 + 1 y_28_ ^ 2 - 2 y_97_ * y_28_ + 1 y_97_ ^ 2 ] >= 9086.22
quadratic_ranged_551_lb: [ 1 x_42_ ^ 2 - 2 x_97_ * x_42_ + 1 x_97_ ^ 2 + 1 y_42_ ^ 2 - 2 y_97_ * y_42_ + 1 y_97_ ^ 2 ] >= 2124.54
quadratic_ranged_552_lb: [ 1 x_44_ ^ 2 - 2 x_97_ * x_44_ + 1 x_97_ ^ 2 + 1 y_44_ ^ 2 - 2 y_97_ * y_44_ + 1 y_97_ ^ 2 ] >= 18606.06
quadratic_ranged_553_lb: [ 1 x_58_ ^ 2 - 2 x_97_ * x_58_ + 1 x_97_ ^ 2 + 1 y_58_ ^ 2 - 2 y_97_ * y_58_ + 1 y_97_ ^ 2 ] >= 5053.95
quadratic_ranged_554_lb: [ 1 x_61_ ^ 2 - 2 x_97_ * x_61_ + 1 x_97_ ^ 2 + 1 y_61_ ^ 2 - 2 y_97_ * y_61_ + 1 y_97_ ^ 2 ] >= 10870.2
quadratic_ranged_555_lb: [ 1 x_82_ ^ 2 - 2 x_97_ * x_82_ + 1 x_97_ ^ 2 + 1 y_82_ ^ 2 - 2 y_97_ * y_82_ + 1 y_97_ ^ 2 ] >= 1497.87
quadratic_ranged_556_lb: [ 1 x_96_ ^ 2 - 2 x_97_ * x_96_ + 1 x_97_ ^ 2 + 1 y_96_ ^ 2 - 2 y_97_ * y_96_ + 1 y_97_ ^ 2 ] >= 15860.789999999999
quadratic_ranged_557_lb: [ 1 x_2_ ^ 2 - 2 x_98_ * x_2_ + 1 x_98_ ^ 2 + 1 y_2_ ^ 2 - 2 y_98_ * y_2_ + 1 y_98_ ^ 2 ] >= 1696.86
quadratic_ranged_558_lb: [ 1 x_12_ ^ 2 - 2 x_98_ * x_12_ + 1 x_98_ ^ 2 + 1 y_12_ ^ 2 - 2 y_98_ * y_12_ + 1 y_98_ ^ 2 ] >= 6145.92
quadratic_ranged_559_lb: [ 1 x_19_ ^ 2 - 2 x_98_ * x_19_ + 1 x_98_ ^ 2 + 1 y_19_ ^ 2 - 2 y_98_ * y_19_ + 1 y_98_ ^ 2 ] >= 2932.38
quadratic_ranged_560_lb: [ 1 x_34_ ^ 2 - 2 x_98_ * x_34_ + 1 x_98_ ^ 2 + 1 y_34_ ^ 2 - 2 y_98_ * y_34_ + 1 y_98_ ^ 2 ] >= 17364.6
quadratic_ranged_561_lb: [ 1 x_37_ ^ 2 - 2 x_98_ * x_37_ + 1 x_98_ ^ 2 + 1 y_37_ ^ 2 - 2 y_98_ * y_37_ + 1 y_98_ ^ 2 ] >= 6013.26
quadratic_ranged_562_lb: [ 1 x_42_ ^ 2 - 2 x_98_ * x_42_ + 1 x_98_ ^ 2 + 1 y_42_ ^ 2 - 2 y_98_ * y_42_ + 1 y_98_ ^ 2 ] >= 18014.04
quadratic_ranged_563_lb: [ 1 x_53_ ^ 2 - 2 x_98_ * x_53_ + 1 x_98_ ^ 2 + 1 y_53_ ^ 2 - 2 y_98_ * y_53_ + 1 y_98_ ^ 2 ] >= 3851.1
quadratic_ranged_564_lb: [ 1 x_58_ ^ 2 - 2 x_98_ * x_58_ + 1 x_98_ ^ 2 + 1 y_58_ ^ 2 - 2 y_98_ * y_58_ + 1 y_98_ ^ 2 ] >= 3628.35
quadratic_ranged_565_lb: [ 1 x_60_ ^ 2 - 2 x_98_ * x_60_ + 1 x_98_ ^ 2 + 1 y_60_ ^ 2 - 2 y_98_ * y_60_ + 1 y_98_ ^ 2 ] >= 3619.44
quadratic_ranged_566_lb: [ 1 x_80_ ^ 2 - 2 x_98_ * x_80_ + 1 x_98_ ^ 2 + 1 y_80_ ^ 2 - 2 y_98_ * y_80_ + 1 y_98_ ^ 2 ] >= 5386.59
quadratic_ranged_567_lb: [ 1 x_92_ ^ 2 - 2 x_98_ * x_92_ + 1 x_98_ ^ 2 + 1 y_92_ ^ 2 - 2 y_98_ * y_92_ + 1 y_98_ ^ 2 ] >= 12618.539999999999
quadratic_ranged_568_lb: [ 1 x_97_ ^ 2 - 2 x_98_ * x_97_ + 1 x_98_ ^ 2 + 1 y_97_ ^ 2 - 2 y_98_ * y_97_ + 1 y_98_ ^ 2 ] >= 16483.5
quadratic_ranged_569_lb: [ 1 x_2_ ^ 2 - 2 x_99_ * x_2_ + 1 x_99_ ^ 2 + 1 y_2_ ^ 2 - 2 y_99_ * y_2_ + 1 y_99_ ^ 2 ] >= 5894.46
quadratic_ranged_570_lb: [ 1 x_5_ ^ 2 - 2 x_99_ * x_5_ + 1 x_99_ ^ 2 + 1 y_5_ ^ 2 - 2 y_99_ * y_5_ + 1 y_99_ ^ 2 ] >= 16688.43
quadratic_ranged_571_lb: [ 1 x_20_ ^ 2 - 2 x_99_ * x_20_ + 1 x_99_ ^ 2 + 1 y_20_ ^ 2 - 2 y_99_ * y_20_ + 1 y_99_ ^ 2 ] >= 18826.829999999998
quadratic_ranged_572_lb: [ 1 x_50_ ^ 2 - 2 x_99_ * x_50_ + 1 x_99_ ^ 2 + 1 y_50_ ^ 2 - 2 y_99_ * y_50_ + 1 y_99_ ^ 2 ] >= 2124.54
quadratic_ranged_573_lb: [ 1 x_67_ ^ 2 - 2 x_99_ * x_67_ + 1 x_99_ ^ 2 + 1 y_67_ ^ 2 - 2 y_99_ * y_67_ + 1 y_99_ ^ 2 ] >= 15416.28
quadratic_ranged_574_lb: [ 1 x_75_ ^ 2 - 2 x_99_ * x_75_ + 1 x_99_ ^ 2 + 1 y_75_ ^ 2 - 2 y_99_ * y_75_ + 1 y_99_ ^ 2 ] >= 1647.36
quadratic_ranged_575_lb: [ 1 x_77_ ^ 2 - 2 x_99_ * x_77_ + 1 x_99_ ^ 2 + 1 y_77_ ^ 2 - 2 y_99_ * y_77_ + 1 y_99_ ^ 2 ] >= 32647.23
quadratic_ranged_576_lb: [ 1 x_98_ ^ 2 - 2 x_99_ * x_98_ + 1 x_99_ ^ 2 + 1 y_98_ ^ 2 - 2 y_99_ * y_98_ + 1 y_99_ ^ 2 ] >= 11123.64
quadratic_ranged_577_lb: [ 1 x_1_ ^ 2 - 2 x_100_ * x_1_ + 1 x_100_ ^ 2 + 1 y_1_ ^ 2 - 2 y_100_ * y_1_ + 1 y_100_ ^ 2 ] >= 2316.6
quadratic_ranged_578_lb: [ 1 x_11_ ^ 2 - 2 x_100_ * x_11_ + 1 x_100_ ^ 2 + 1 y_11_ ^ 2 - 2 y_100_ * y_11_ + 1 y_100_ ^ 2 ] >= 1298.8799999999999
quadratic_ranged_579_lb: [ 1 x_12_ ^ 2 - 2 x_100_ * x_12_ + 1 x_100_ ^ 2 + 1 y_12_ ^ 2 - 2 y_100_ * y_12_ + 1 y_100_ ^ 2 ] >= 19017.9
quadratic_ranged_580_lb: [ 1 x_17_ ^ 2 - 2 x_100_ * x_17_ + 1 x_100_ ^ 2 + 1 y_17_ ^ 2 - 2 y_100_ * y_17_ + 1 y_100_ ^ 2 ] >= 2967.03
quadratic_ranged_581_lb: [ 1 x_22_ ^ 2 - 2 x_100_ * x_22_ + 1 x_100_ ^ 2 + 1 y_22_ ^ 2 - 2 y_100_ * y_22_ + 1 y_100_ ^ 2 ] >= 3323.43
quadratic_ranged_582_lb: [ 1 x_25_ ^ 2 - 2 x_100_ * x_25_ + 1 x_100_ ^ 2 + 1 y_25_ ^ 2 - 2 y_100_ * y_25_ + 1 y_100_ ^ 2 ] >= 14815.35
quadratic_ranged_583_lb: [ 1 x_35_ ^ 2 - 2 x_100_ * x_35_ + 1 x_100_ ^ 2 + 1 y_35_ ^ 2 - 2 y_100_ * y_35_ + 1 y_100_ ^ 2 ] >= 1261.26
quadratic_ranged_584_lb: [ 1 x_38_ ^ 2 - 2 x_100_ * x_38_ + 1 x_100_ ^ 2 + 1 y_38_ ^ 2 - 2 y_100_ * y_38_ + 1 y_100_ ^ 2 ] >= 6987.42
quadratic_ranged_585_lb: [ 1 x_99_ ^ 2 - 2 x_100_ * x_99_ + 1 x_100_ ^ 2 + 1 y_99_ ^ 2 - 2 y_100_ * y_99_ + 1 y_100_ ^ 2 ] >= 2124.54
c1_1: 1 x_53_ = 0
c2_1: 1 y_53_ = 0
Bounds
-127 <= x_1_ <= 127
-64 <= x_2_ <= 64
-92 <= x_3_ <= 92
-119 <= x_4_ <= 119
-153 <= x_5_ <= 153
-119 <= x_6_ <= 119
-114 <= x_7_ <= 114
-70 <= x_8_ <= 70
-98 <= x_9_ <= 98
-154 <= x_10_ <= 154
-114 <= x_11_ <= 114
-141 <= x_12_ <= 141
-118 <= x_13_ <= 118
-98 <= x_14_ <= 98
-119 <= x_15_ <= 119
-150 <= x_16_ <= 150
-128 <= x_17_ <= 128
-124 <= x_18_ <= 124
-117 <= x_19_ <= 117
-194 <= x_20_ <= 194
-183 <= x_21_ <= 183
-72 <= x_22_ <= 72
-173 <= x_23_ <= 173
-153 <= x_24_ <= 153
-196 <= x_25_ <= 196
-193 <= x_26_ <= 193
-184 <= x_27_ <= 184
-108 <= x_28_ <= 108
-170 <= x_29_ <= 170
-171 <= x_30_ <= 171
-159 <= x_31_ <= 159
-123 <= x_32_ <= 123
-97 <= x_33_ <= 97
-128 <= x_34_ <= 128
-166 <= x_35_ <= 166
-104 <= x_36_ <= 104
-141 <= x_37_ <= 141
-155 <= x_38_ <= 155
-181 <= x_39_ <= 181
-127 <= x_40_ <= 127
-153 <= x_41_ <= 153
-111 <= x_42_ <= 111
-93 <= x_43_ <= 93
-176 <= x_44_ <= 176
-202 <= x_45_ <= 202
-127 <= x_46_ <= 127
-13 <= x_47_ <= 13
-81 <= x_48_ <= 81
-107 <= x_49_ <= 107
-102 <= x_50_ <= 102
-123 <= x_51_ <= 123
-36 <= x_52_ <= 36
x_53_ = 0
-122 <= x_54_ <= 122
-143 <= x_55_ <= 143
-129 <= x_56_ <= 129
-98 <= x_57_ <= 98
-55 <= x_58_ <= 55
-141 <= x_59_ <= 141
-123 <= x_60_ <= 123
-120 <= x_61_ <= 120
-76 <= x_62_ <= 76
-40 <= x_63_ <= 40
-122 <= x_64_ <= 122
-160 <= x_65_ <= 160
-144 <= x_66_ <= 144
-109 <= x_67_ <= 109
-175 <= x_68_ <= 175
-172 <= x_69_ <= 172
-115 <= x_70_ <= 115
-114 <= x_71_ <= 114
-122 <= x_72_ <= 122
-181 <= x_73_ <= 181
-119 <= x_74_ <= 119
-96 <= x_75_ <= 96
-173 <= x_76_ <= 173
-126 <= x_77_ <= 126
-205 <= x_78_ <= 205
-142 <= x_79_ <= 142
-65 <= x_80_ <= 65
-157 <= x_81_ <= 157
-31 <= x_82_ <= 31
-127 <= x_83_ <= 127
-83 <= x_84_ <= 83
-132 <= x_85_ <= 132
-65 <= x_86_ <= 65
-180 <= x_87_ <= 180
-156 <= x_88_ <= 156
-97 <= x_89_ <= 97
-171 <= x_90_ <= 171
-43 <= x_91_ <= 43
-52 <= x_92_ <= 52
-92 <= x_93_ <= 92
-78 <= x_94_ <= 78
-93 <= x_95_ <= 93
-144 <= x_96_ <= 144
-70 <= x_97_ <= 70
-62 <= x_98_ <= 62
-137 <= x_99_ <= 137
-130 <= x_100_ <= 130
-127 <= y_1_ <= 127
-64 <= y_2_ <= 64
-92 <= y_3_ <= 92
-119 <= y_4_ <= 119
-153 <= y_5_ <= 153
-119 <= y_6_ <= 119
-114 <= y_7_ <= 114
-70 <= y_8_ <= 70
-98 <= y_9_ <= 98
-154 <= y_10_ <= 154
-114 <= y_11_ <= 114
-141 <= y_12_ <= 141
-118 <= y_13_ <= 118
-98 <= y_14_ <= 98
-119 <= y_15_ <= 119
-150 <= y_16_ <= 150
-128 <= y_17_ <= 128
-124 <= y_18_ <= 124
-117 <= y_19_ <= 117
-194 <= y_20_ <= 194
-183 <= y_21_ <= 183
-72 <= y_22_ <= 72
-173 <= y_23_ <= 173
-153 <= y_24_ <= 153
-196 <= y_25_ <= 196
-193 <= y_26_ <= 193
-184 <= y_27_ <= 184
-108 <= y_28_ <= 108
-170 <= y_29_ <= 170
-171 <= y_30_ <= 171
-159 <= y_31_ <= 159
-123 <= y_32_ <= 123
-97 <= y_33_ <= 97
-128 <= y_34_ <= 128
-166 <= y_35_ <= 166
-104 <= y_36_ <= 104
-141 <= y_37_ <= 141
-155 <= y_38_ <= 155
-181 <= y_39_ <= 181
-127 <= y_40_ <= 127
-153 <= y_41_ <= 153
-111 <= y_42_ <= 111
-93 <= y_43_ <= 93
-176 <= y_44_ <= 176
-202 <= y_45_ <= 202
-127 <= y_46_ <= 127
-13 <= y_47_ <= 13
-81 <= y_48_ <= 81
-107 <= y_49_ <= 107
-102 <= y_50_ <= 102
-123 <= y_51_ <= 123
-36 <= y_52_ <= 36
y_53_ = 0
-122 <= y_54_ <= 122
-143 <= y_55_ <= 143
-129 <= y_56_ <= 129
-98 <= y_57_ <= 98
-55 <= y_58_ <= 55
-141 <= y_59_ <= 141
-123 <= y_60_ <= 123
-120 <= y_61_ <= 120
-76 <= y_62_ <= 76
-40 <= y_63_ <= 40
-122 <= y_64_ <= 122
-160 <= y_65_ <= 160
-144 <= y_66_ <= 144
-109 <= y_67_ <= 109
-175 <= y_68_ <= 175
-172 <= y_69_ <= 172
-115 <= y_70_ <= 115
-114 <= y_71_ <= 114
-122 <= y_72_ <= 122
-181 <= y_73_ <= 181
-119 <= y_74_ <= 119
-96 <= y_75_ <= 96
-173 <= y_76_ <= 173
-126 <= y_77_ <= 126
-205 <= y_78_ <= 205
-142 <= y_79_ <= 142
-65 <= y_80_ <= 65
-157 <= y_81_ <= 157
-31 <= y_82_ <= 31
-127 <= y_83_ <= 127
-83 <= y_84_ <= 83
-132 <= y_85_ <= 132
-65 <= y_86_ <= 65
-180 <= y_87_ <= 180
-156 <= y_88_ <= 156
-97 <= y_89_ <= 97
-171 <= y_90_ <= 171
-43 <= y_91_ <= 43
-52 <= y_92_ <= 52
-92 <= y_93_ <= 92
-78 <= y_94_ <= 78
-93 <= y_95_ <= 93
-144 <= y_96_ <= 144
-70 <= y_97_ <= 70
-62 <= y_98_ <= 62
-137 <= y_99_ <= 137
-130 <= y_100_ <= 130
General
x_1_
x_2_
x_3_
x_4_
x_5_
x_6_
x_7_
x_8_
x_9_
x_10_
x_11_
x_12_
x_13_
x_14_
x_15_
x_16_
x_17_
x_18_
x_19_
x_20_
x_21_
x_22_
x_23_
x_24_
x_25_
x_26_
x_27_
x_28_
x_29_
x_30_
x_31_
x_32_
x_33_
x_34_
x_35_
x_36_
x_37_
x_38_
x_39_
x_40_
x_41_
x_42_
x_43_
x_44_
x_45_
x_46_
x_47_
x_48_
x_49_
x_50_
x_51_
x_52_
x_53_
x_54_
x_55_
x_56_
x_57_
x_58_
x_59_
x_60_
x_61_
x_62_
x_63_
x_64_
x_65_
x_66_
x_67_
x_68_
x_69_
x_70_
x_71_
x_72_
x_73_
x_74_
x_75_
x_76_
x_77_
x_78_
x_79_
x_80_
x_81_
x_82_
x_83_
x_84_
x_85_
x_86_
x_87_
x_88_
x_89_
x_90_
x_91_
x_92_
x_93_
x_94_
x_95_
x_96_
x_97_
x_98_
x_99_
x_100_
y_1_
y_2_
y_3_
y_4_
y_5_
y_6_
y_7_
y_8_
y_9_
y_10_
y_11_
y_12_
y_13_
y_14_
y_15_
y_16_
y_17_
y_18_
y_19_
y_20_
y_21_
y_22_
y_23_
y_24_
y_25_
y_26_
y_27_
y_28_
y_29_
y_30_
y_31_
y_32_
y_33_
y_34_
y_35_
y_36_
y_37_
y_38_
y_39_
y_40_
y_41_
y_42_
y_43_
y_44_
y_45_
y_46_
y_47_
y_48_
y_49_
y_50_
y_51_
y_52_
y_53_
y_54_
y_55_
y_56_
y_57_
y_58_
y_59_
y_60_
y_61_
y_62_
y_63_
y_64_
y_65_
y_66_
y_67_
y_68_
y_69_
y_70_
y_71_
y_72_
y_73_
y_74_
y_75_
y_76_
y_77_
y_78_
y_79_
y_80_
y_81_
y_82_
y_83_
y_84_
y_85_
y_86_
y_87_
y_88_
y_89_
y_90_
y_91_
y_92_
y_93_
y_94_
y_95_
y_96_
y_97_
y_98_
y_99_
y_100_
End
