minimize
obj: 
subject to
c1: -34 x_1_ - 92 y_1_ + [ 1 x_1_ ^ 2 + 1 y_1_ ^ 2 ] <= 63153.529869100385
c2: -34 x_2_ - 92 y_2_ + [ 1 x_2_ ^ 2 + 1 y_2_ ^ 2 ] <= 82483.5553193086
c3: -34 x_3_ - 92 y_3_ + [ 1 x_3_ ^ 2 + 1 y_3_ ^ 2 ] <= 56614.17033108521
c4: -34 x_4_ - 92 y_4_ + [ 1 x_4_ ^ 2 + 1 y_4_ ^ 2 ] <= 37484.73575612917
c5: -34 x_5_ - 92 y_5_ + [ 1 x_5_ ^ 2 + 1 y_5_ ^ 2 ] <= 62808.84880464667
c6: -34 x_6_ - 92 y_6_ + [ 1 x_6_ ^ 2 + 1 y_6_ ^ 2 ] <= 35591.9965326603
c7: -34 x_7_ - 92 y_7_ + [ 1 x_7_ ^ 2 + 1 y_7_ ^ 2 ] <= 41126.88043995195
c8: -34 x_8_ - 92 y_8_ + [ 1 x_8_ ^ 2 + 1 y_8_ ^ 2 ] <= 10107.89
c9: -34 x_10_ - 92 y_10_ + [ 1 x_10_ ^ 2 + 1 y_10_ ^ 2 ] <= 17087.999999999996
c10: -34 x_11_ - 92 y_11_ + [ 1 x_11_ ^ 2 + 1 y_11_ ^ 2 ] <= 73992.04614481094
c11: -34 x_12_ - 92 y_12_ + [ 1 x_12_ ^ 2 + 1 y_12_ ^ 2 ] <= 31017.313911321195
c12: -34 x_13_ - 92 y_13_ + [ 1 x_13_ ^ 2 + 1 y_13_ ^ 2 ] <= 55277.82010151213
c13: -34 x_14_ - 92 y_14_ + [ 1 x_14_ ^ 2 + 1 y_14_ ^ 2 ] <= 68552.95769560589
c14: -34 x_15_ - 92 y_15_ + [ 1 x_15_ ^ 2 + 1 y_15_ ^ 2 ] <= 57097.66500733375
c15: -34 x_16_ - 92 y_16_ + [ 1 x_16_ ^ 2 + 1 y_16_ ^ 2 ] <= 18628.249999999996
c16: -34 x_17_ - 92 y_17_ + [ 1 x_17_ ^ 2 + 1 y_17_ ^ 2 ] <= 17961.649999999994
c17: -34 x_18_ - 92 y_18_ + [ 1 x_18_ ^ 2 + 1 y_18_ ^ 2 ] <= 31808.560380355062
c18: -34 x_19_ - 92 y_19_ + [ 1 x_19_ ^ 2 + 1 y_19_ ^ 2 ] <= 25061.0146578311
c19: -34 x_20_ - 92 y_20_ + [ 1 x_20_ ^ 2 + 1 y_20_ ^ 2 ] <= 79006.20054920555
c20: -68 x_1_ - 82 y_1_ + [ 1 x_1_ ^ 2 + 1 y_1_ ^ 2 ] <= 28556.072579841573
c21: -68 x_2_ - 82 y_2_ + [ 1 x_2_ ^ 2 + 1 y_2_ ^ 2 ] <= 24677.777612594855
c22: -68 x_3_ - 82 y_3_ + [ 1 x_3_ ^ 2 + 1 y_3_ ^ 2 ] <= 21177.80015314753
c23: -68 x_4_ - 82 y_4_ + [ 1 x_4_ ^ 2 + 1 y_4_ ^ 2 ] <= 9651.649999999996
c24: -68 x_6_ - 82 y_6_ + [ 1 x_6_ ^ 2 + 1 y_6_ ^ 2 ] <= 12023.129999999997
c25: -68 x_7_ - 82 y_7_ + [ 1 x_7_ ^ 2 + 1 y_7_ ^ 2 ] <= 3672.449999999999
c26: -68 x_8_ - 82 y_8_ + [ 1 x_8_ ^ 2 + 1 y_8_ ^ 2 ] <= 17757.8312023558
c27: -68 x_9_ - 82 y_9_ + [ 1 x_9_ ^ 2 + 1 y_9_ ^ 2 ] <= 62376.84880464667
c28: -68 x_10_ - 82 y_10_ + [ 1 x_10_ ^ 2 + 1 y_10_ ^ 2 ] <= 28567.44089100346
c29: -68 x_11_ - 82 y_11_ + [ 1 x_11_ ^ 2 + 1 y_11_ ^ 2 ] <= 32668.35059419144
c30: -68 x_12_ - 82 y_12_ + [ 1 x_12_ ^ 2 + 1 y_12_ ^ 2 ] <= 43158.52377065442
c31: -68 x_13_ - 82 y_13_ + [ 1 x_13_ ^ 2 + 1 y_13_ ^ 2 ] <= 36488.91614064332
c32: -68 x_14_ - 82 y_14_ + [ 1 x_14_ ^ 2 + 1 y_14_ ^ 2 ] <= 40278.781479461344
c33: -68 x_15_ - 82 y_15_ + [ 1 x_15_ ^ 2 + 1 y_15_ ^ 2 ] <= 16750.940000000002
c34: -68 x_16_ - 82 y_16_ + [ 1 x_16_ ^ 2 + 1 y_16_ ^ 2 ] <= 24868.04731707207
c35: -68 x_17_ - 82 y_17_ + [ 1 x_17_ ^ 2 + 1 y_17_ ^ 2 ] <= 31844.71579510824
c36: -68 x_18_ - 82 y_18_ + [ 1 x_18_ ^ 2 + 1 y_18_ ^ 2 ] <= 32742.836901588053
c37: -68 x_19_ - 82 y_19_ + [ 1 x_19_ ^ 2 + 1 y_19_ ^ 2 ] <= 5198.559999999999
c38: -68 x_20_ - 82 y_20_ + [ 1 x_20_ ^ 2 + 1 y_20_ ^ 2 ] <= 22713.70034640133
c39: 106 x_1_ + 148 y_1_ + [ 1 x_1_ ^ 2 + 1 y_1_ ^ 2 ] <= 9762.444049881935
c40: 106 x_2_ + 148 y_2_ + [ 1 x_2_ ^ 2 + 1 y_2_ ^ 2 ] <= 18391.147015059658
c41: 106 x_3_ + 148 y_3_ + [ 1 x_3_ ^ 2 + 1 y_3_ ^ 2 ] <= 3556.0025172925143
c42: 106 x_4_ + 148 y_4_ + [ 1 x_4_ ^ 2 + 1 y_4_ ^ 2 ] <= -3981.3900000000003
c43: 106 x_5_ + 148 y_5_ + [ 1 x_5_ ^ 2 + 1 y_5_ ^ 2 ] <= 23119.44089100346
c44: 106 x_6_ + 148 y_6_ + [ 1 x_6_ ^ 2 + 1 y_6_ ^ 2 ] <= -5225.710000000001
c45: 106 x_7_ + 148 y_7_ + [ 1 x_7_ ^ 2 + 1 y_7_ ^ 2 ] <= 1051.4863146824518
c46: 106 x_8_ + 148 y_8_ + [ 1 x_8_ ^ 2 + 1 y_8_ ^ 2 ] <= -3771.3100000000004
c47: 106 x_9_ + 148 y_9_ + [ 1 x_9_ ^ 2 + 1 y_9_ ^ 2 ] <= 11207.999999999996
c48: 106 x_11_ + 148 y_11_ + [ 1 x_11_ ^ 2 + 1 y_11_ ^ 2 ] <= 11914.999999999996
c49: 106 x_12_ + 148 y_12_ + [ 1 x_12_ ^ 2 + 1 y_12_ ^ 2 ] <= -4550.02
c50: 106 x_13_ + 148 y_13_ + [ 1 x_13_ ^ 2 + 1 y_13_ ^ 2 ] <= 5749.96458363198
c51: 106 x_14_ + 148 y_14_ + [ 1 x_14_ ^ 2 + 1 y_14_ ^ 2 ] <= 12646.181199076123
c52: 106 x_15_ + 148 y_15_ + [ 1 x_15_ ^ 2 + 1 y_15_ ^ 2 ] <= 5175.42820463371
c53: 106 x_16_ + 148 y_16_ + [ 1 x_16_ ^ 2 + 1 y_16_ ^ 2 ] <= 6186.514762521616
c54: 106 x_17_ + 148 y_17_ + [ 1 x_17_ ^ 2 + 1 y_17_ ^ 2 ] <= 11337.281200516725
c55: 106 x_18_ + 148 y_18_ + [ 1 x_18_ ^ 2 + 1 y_18_ ^ 2 ] <= 13806.295270066494
c56: 106 x_19_ + 148 y_19_ + [ 1 x_19_ ^ 2 + 1 y_19_ ^ 2 ] <= 6368.516347438324
c57: 106 x_20_ + 148 y_20_ + [ 1 x_20_ ^ 2 + 1 y_20_ ^ 2 ] <= 16457.791598592015
quadratic_ranged_1_ub: [ 1 x_1_ ^ 2 - 2 x_2_ * x_1_ + 1 x_2_ ^ 2 + 1 y_1_ ^ 2 - 2 y_2_ * y_1_ + 1 y_2_ ^ 2 ] <= 26115.57
quadratic_ranged_2_ub: [ 1 x_2_ ^ 2 - 2 x_3_ * x_2_ + 1 x_3_ ^ 2 + 1 y_2_ ^ 2 - 2 y_3_ * y_2_ + 1 y_3_ ^ 2 ] <= 17856.8
quadratic_ranged_3_ub: [ 1 x_3_ ^ 2 - 2 x_4_ * x_3_ + 1 x_4_ ^ 2 + 1 y_3_ ^ 2 - 2 y_4_ * y_3_ + 1 y_4_ ^ 2 ] <= 1867.49
quadratic_ranged_4_ub: [ 1 x_4_ ^ 2 - 2 x_5_ * x_4_ + 1 x_5_ ^ 2 + 1 y_4_ ^ 2 - 2 y_5_ * y_4_ + 1 y_5_ ^ 2 ] <= 12488.65
quadratic_ranged_5_ub: [ 1 x_5_ ^ 2 - 2 x_6_ * x_5_ + 1 x_6_ ^ 2 + 1 y_5_ ^ 2 - 2 y_6_ * y_5_ + 1 y_6_ ^ 2 ] <= 14860.130000000001
quadratic_ranged_6_ub: [ 1 x_1_ ^ 2 - 2 x_7_ * x_1_ + 1 x_7_ ^ 2 + 1 y_1_ ^ 2 - 2 y_7_ * y_1_ + 1 y_7_ ^ 2 ] <= 9312.2
quadratic_ranged_7_ub: [ 1 x_5_ ^ 2 - 2 x_7_ * x_5_ + 1 x_7_ ^ 2 + 1 y_5_ ^ 2 - 2 y_7_ * y_5_ + 1 y_7_ ^ 2 ] <= 6509.45
quadratic_ranged_8_ub: [ 1 x_6_ ^ 2 - 2 x_7_ * x_6_ + 1 x_7_ ^ 2 + 1 y_6_ ^ 2 - 2 y_7_ * y_6_ + 1 y_7_ ^ 2 ] <= 1706.9
quadratic_ranged_9_ub: [ 1 x_6_ ^ 2 - 2 x_8_ * x_6_ + 1 x_8_ ^ 2 + 1 y_6_ ^ 2 - 2 y_8_ * y_6_ + 1 y_8_ ^ 2 ] <= 10600.960000000001
quadratic_ranged_10_ub: [ 1 x_7_ ^ 2 - 2 x_8_ * x_7_ + 1 x_8_ ^ 2 + 1 y_7_ ^ 2 - 2 y_8_ * y_7_ + 1 y_8_ ^ 2 ] <= 9366.74
quadratic_ranged_11_ub: [ 1 x_8_ ^ 2 - 2 x_9_ * x_8_ + 1 x_9_ ^ 2 + 1 y_8_ ^ 2 - 2 y_9_ * y_8_ + 1 y_9_ ^ 2 ] <= 12512.89
quadratic_ranged_12_ub: [ 1 x_4_ ^ 2 - 2 x_10_ * x_4_ + 1 x_10_ ^ 2 + 1 y_4_ ^ 2 - 2 y_10_ * y_4_ + 1 y_10_ ^ 2 ] <= 4303.61
quadratic_ranged_13_ub: [ 1 x_6_ ^ 2 - 2 x_10_ * x_6_ + 1 x_10_ ^ 2 + 1 y_6_ ^ 2 - 2 y_10_ * y_6_ + 1 y_10_ ^ 2 ] <= 3059.29
quadratic_ranged_14_ub: [ 1 x_8_ ^ 2 - 2 x_10_ * x_8_ + 1 x_10_ ^ 2 + 1 y_8_ ^ 2 - 2 y_10_ * y_8_ + 1 y_10_ ^ 2 ] <= 4513.69
quadratic_ranged_15_ub: [ 1 x_9_ ^ 2 - 2 x_10_ * x_9_ + 1 x_10_ ^ 2 + 1 y_9_ ^ 2 - 2 y_10_ * y_9_ + 1 y_10_ ^ 2 ] <= 19493
quadratic_ranged_16_ub: [ 1 x_4_ ^ 2 - 2 x_11_ * x_4_ + 1 x_11_ ^ 2 + 1 y_4_ ^ 2 - 2 y_11_ * y_4_ + 1 y_11_ ^ 2 ] <= 5879.21
quadratic_ranged_17_ub: [ 1 x_10_ ^ 2 - 2 x_11_ * x_10_ + 1 x_11_ ^ 2 + 1 y_10_ ^ 2 - 2 y_11_ * y_10_ + 1 y_11_ ^ 2 ] <= 20200
quadratic_ranged_18_ub: [ 1 x_1_ ^ 2 - 2 x_12_ * x_1_ + 1 x_12_ ^ 2 + 1 y_1_ ^ 2 - 2 y_12_ * y_1_ + 1 y_12_ ^ 2 ] <= 5362.09
quadratic_ranged_19_ub: [ 1 x_8_ ^ 2 - 2 x_12_ * x_8_ + 1 x_12_ ^ 2 + 1 y_8_ ^ 2 - 2 y_12_ * y_8_ + 1 y_12_ ^ 2 ] <= 5034.85
quadratic_ranged_20_ub: [ 1 x_10_ ^ 2 - 2 x_12_ * x_10_ + 1 x_12_ ^ 2 + 1 y_10_ ^ 2 - 2 y_12_ * y_10_ + 1 y_12_ ^ 2 ] <= 3734.98
quadratic_ranged_21_ub: [ 1 x_11_ ^ 2 - 2 x_12_ * x_11_ + 1 x_12_ ^ 2 + 1 y_11_ ^ 2 - 2 y_12_ * y_11_ + 1 y_12_ ^ 2 ] <= 10037.38
quadratic_ranged_22_ub: [ 1 x_6_ ^ 2 - 2 x_13_ * x_6_ + 1 x_13_ ^ 2 + 1 y_6_ ^ 2 - 2 y_13_ * y_6_ + 1 y_13_ ^ 2 ] <= 5837.8
quadratic_ranged_23_ub: [ 1 x_12_ ^ 2 - 2 x_13_ * x_12_ + 1 x_13_ ^ 2 + 1 y_12_ ^ 2 - 2 y_13_ * y_12_ + 1 y_13_ ^ 2 ] <= 3289.57
quadratic_ranged_24_ub: [ 1 x_4_ ^ 2 - 2 x_14_ * x_4_ + 1 x_14_ ^ 2 + 1 y_4_ ^ 2 - 2 y_14_ * y_4_ + 1 y_14_ ^ 2 ] <= 9195.04
quadratic_ranged_25_ub: [ 1 x_13_ ^ 2 - 2 x_14_ * x_13_ + 1 x_14_ ^ 2 + 1 y_13_ ^ 2 - 2 y_14_ * y_13_ + 1 y_14_ ^ 2 ] <= 686.8
quadratic_ranged_26_ub: [ 1 x_1_ ^ 2 - 2 x_15_ * x_1_ + 1 x_15_ ^ 2 + 1 y_1_ ^ 2 - 2 y_15_ * y_1_ + 1 y_15_ ^ 2 ] <= 28390.09
quadratic_ranged_27_ub: [ 1 x_5_ ^ 2 - 2 x_15_ * x_5_ + 1 x_15_ ^ 2 + 1 y_5_ ^ 2 - 2 y_15_ * y_5_ + 1 y_15_ ^ 2 ] <= 19587.94
quadratic_ranged_28_ub: [ 1 x_6_ ^ 2 - 2 x_15_ * x_6_ + 1 x_15_ ^ 2 + 1 y_6_ ^ 2 - 2 y_15_ * y_6_ + 1 y_15_ ^ 2 ] <= 3685.4900000000002
quadratic_ranged_29_ub: [ 1 x_14_ ^ 2 - 2 x_15_ * x_14_ + 1 x_15_ ^ 2 + 1 y_14_ ^ 2 - 2 y_15_ * y_14_ + 1 y_15_ ^ 2 ] <= 22754.29
quadratic_ranged_30_ub: [ 1 x_2_ ^ 2 - 2 x_16_ * x_2_ + 1 x_16_ ^ 2 + 1 y_2_ ^ 2 - 2 y_16_ * y_2_ + 1 y_16_ ^ 2 ] <= 22132.13
quadratic_ranged_31_ub: [ 1 x_4_ ^ 2 - 2 x_16_ * x_4_ + 1 x_16_ ^ 2 + 1 y_4_ ^ 2 - 2 y_16_ * y_4_ + 1 y_16_ ^ 2 ] <= 2991.62
quadratic_ranged_32_ub: [ 1 x_9_ ^ 2 - 2 x_16_ * x_9_ + 1 x_16_ ^ 2 + 1 y_9_ ^ 2 - 2 y_16_ * y_9_ + 1 y_16_ ^ 2 ] <= 21033.25
quadratic_ranged_33_ub: [ 1 x_15_ ^ 2 - 2 x_16_ * x_15_ + 1 x_16_ ^ 2 + 1 y_15_ ^ 2 - 2 y_16_ * y_15_ + 1 y_16_ ^ 2 ] <= 9781.85
quadratic_ranged_34_ub: [ 1 x_4_ ^ 2 - 2 x_17_ * x_4_ + 1 x_17_ ^ 2 + 1 y_4_ ^ 2 - 2 y_17_ * y_4_ + 1 y_17_ ^ 2 ] <= 5546.92
quadratic_ranged_35_ub: [ 1 x_9_ ^ 2 - 2 x_17_ * x_9_ + 1 x_17_ ^ 2 + 1 y_9_ ^ 2 - 2 y_17_ * y_9_ + 1 y_17_ ^ 2 ] <= 20366.65
quadratic_ranged_36_ub: [ 1 x_11_ ^ 2 - 2 x_17_ * x_11_ + 1 x_17_ ^ 2 + 1 y_11_ ^ 2 - 2 y_17_ * y_11_ + 1 y_17_ ^ 2 ] <= 22750.25
quadratic_ranged_37_ub: [ 1 x_16_ ^ 2 - 2 x_17_ * x_16_ + 1 x_17_ ^ 2 + 1 y_16_ ^ 2 - 2 y_17_ * y_16_ + 1 y_17_ ^ 2 ] <= 761.54
quadratic_ranged_38_ub: [ 1 x_6_ ^ 2 - 2 x_18_ * x_6_ + 1 x_18_ ^ 2 + 1 y_6_ ^ 2 - 2 y_18_ * y_6_ + 1 y_18_ ^ 2 ] <= 10706
quadratic_ranged_39_ub: [ 1 x_8_ ^ 2 - 2 x_18_ * x_8_ + 1 x_18_ ^ 2 + 1 y_8_ ^ 2 - 2 y_18_ * y_8_ + 1 y_18_ ^ 2 ] <= 6633.68
quadratic_ranged_40_ub: [ 1 x_15_ ^ 2 - 2 x_18_ * x_15_ + 1 x_18_ ^ 2 + 1 y_15_ ^ 2 - 2 y_18_ * y_15_ + 1 y_18_ ^ 2 ] <= 25570.170000000002
quadratic_ranged_41_ub: [ 1 x_16_ ^ 2 - 2 x_18_ * x_16_ + 1 x_18_ ^ 2 + 1 y_16_ ^ 2 - 2 y_18_ * y_16_ + 1 y_18_ ^ 2 ] <= 3767.3
quadratic_ranged_42_ub: [ 1 x_17_ ^ 2 - 2 x_18_ * x_17_ + 1 x_18_ ^ 2 + 1 y_17_ ^ 2 - 2 y_18_ * y_17_ + 1 y_18_ ^ 2 ] <= 1785.68
quadratic_ranged_43_ub: [ 1 x_5_ ^ 2 - 2 x_19_ * x_5_ + 1 x_19_ ^ 2 + 1 y_5_ ^ 2 - 2 y_19_ * y_5_ + 1 y_19_ ^ 2 ] <= 8035.56
quadratic_ranged_44_ub: [ 1 x_8_ ^ 2 - 2 x_19_ * x_8_ + 1 x_19_ ^ 2 + 1 y_8_ ^ 2 - 2 y_19_ * y_8_ + 1 y_19_ ^ 2 ] <= 2901.73
quadratic_ranged_45_ub: [ 1 x_18_ ^ 2 - 2 x_19_ * x_18_ + 1 x_19_ ^ 2 + 1 y_18_ ^ 2 - 2 y_19_ * y_18_ + 1 y_19_ ^ 2 ] <= 9798.01
quadratic_ranged_46_ub: [ 1 x_1_ ^ 2 - 2 x_20_ * x_1_ + 1 x_20_ ^ 2 + 1 y_1_ ^ 2 - 2 y_20_ * y_1_ + 1 y_20_ ^ 2 ] <= 26624.61
quadratic_ranged_47_ub: [ 1 x_2_ ^ 2 - 2 x_20_ * x_2_ + 1 x_20_ ^ 2 + 1 y_2_ ^ 2 - 2 y_20_ * y_2_ + 1 y_20_ ^ 2 ] <= 36.36
quadratic_ranged_48_ub: [ 1 x_3_ ^ 2 - 2 x_20_ * x_3_ + 1 x_20_ ^ 2 + 1 y_3_ ^ 2 - 2 y_20_ * y_3_ + 1 y_20_ ^ 2 ] <= 17311.4
quadratic_ranged_49_ub: [ 1 x_4_ ^ 2 - 2 x_20_ * x_4_ + 1 x_20_ ^ 2 + 1 y_4_ ^ 2 - 2 y_20_ * y_4_ + 1 y_20_ ^ 2 ] <= 8408.25
quadratic_ranged_50_ub: [ 1 x_7_ ^ 2 - 2 x_20_ * x_7_ + 1 x_20_ ^ 2 + 1 y_7_ ^ 2 - 2 y_20_ * y_7_ + 1 y_20_ ^ 2 ] <= 6267.05
quadratic_ranged_51_ub: [ 1 x_14_ ^ 2 - 2 x_20_ * x_14_ + 1 x_20_ ^ 2 + 1 y_14_ ^ 2 - 2 y_20_ * y_14_ + 1 y_20_ ^ 2 ] <= 26281.21
quadratic_ranged_52_ub: [ 1 x_15_ ^ 2 - 2 x_20_ * x_15_ + 1 x_20_ ^ 2 + 1 y_15_ ^ 2 - 2 y_20_ * y_15_ + 1 y_20_ ^ 2 ] <= 6116.56
quadratic_ranged_53_ub: [ 1 x_16_ ^ 2 - 2 x_20_ * x_16_ + 1 x_20_ ^ 2 + 1 y_16_ ^ 2 - 2 y_20_ * y_16_ + 1 y_20_ ^ 2 ] <= 21356.45
quadratic_ranged_54_ub: [ 1 x_19_ ^ 2 - 2 x_20_ * x_19_ + 1 x_20_ ^ 2 + 1 y_19_ ^ 2 - 2 y_20_ * y_19_ + 1 y_20_ ^ 2 ] <= 14303.62
quadratic_ranged_1_lb: [ 1 x_1_ ^ 2 - 2 x_2_ * x_1_ + 1 x_2_ ^ 2 + 1 y_1_ ^ 2 - 2 y_2_ * y_1_ + 1 y_2_ ^ 2 ] >= 25598.43
quadratic_ranged_2_lb: [ 1 x_2_ ^ 2 - 2 x_3_ * x_2_ + 1 x_3_ ^ 2 + 1 y_2_ ^ 2 - 2 y_3_ * y_2_ + 1 y_3_ ^ 2 ] >= 17503.2
quadratic_ranged_3_lb: [ 1 x_3_ ^ 2 - 2 x_4_ * x_3_ + 1 x_4_ ^ 2 + 1 y_3_ ^ 2 - 2 y_4_ * y_3_ + 1 y_4_ ^ 2 ] >= 1830.51
quadratic_ranged_4_lb: [ 1 x_4_ ^ 2 - 2 x_5_ * x_4_ + 1 x_5_ ^ 2 + 1 y_4_ ^ 2 - 2 y_5_ * y_4_ + 1 y_5_ ^ 2 ] >= 12241.35
quadratic_ranged_5_lb: [ 1 x_5_ ^ 2 - 2 x_6_ * x_5_ + 1 x_6_ ^ 2 + 1 y_5_ ^ 2 - 2 y_6_ * y_5_ + 1 y_6_ ^ 2 ] >= 14565.869999999999
quadratic_ranged_6_lb: [ 1 x_1_ ^ 2 - 2 x_7_ * x_1_ + 1 x_7_ ^ 2 + 1 y_1_ ^ 2 - 2 y_7_ * y_1_ + 1 y_7_ ^ 2 ] >= 9127.8
quadratic_ranged_7_lb: [ 1 x_5_ ^ 2 - 2 x_7_ * x_5_ + 1 x_7_ ^ 2 + 1 y_5_ ^ 2 - 2 y_7_ * y_5_ + 1 y_7_ ^ 2 ] >= 6380.55
quadratic_ranged_8_lb: [ 1 x_6_ ^ 2 - 2 x_7_ * x_6_ + 1 x_7_ ^ 2 + 1 y_6_ ^ 2 - 2 y_7_ * y_6_ + 1 y_7_ ^ 2 ] >= 1673.1
quadratic_ranged_9_lb: [ 1 x_6_ ^ 2 - 2 x_8_ * x_6_ + 1 x_8_ ^ 2 + 1 y_6_ ^ 2 - 2 y_8_ * y_6_ + 1 y_8_ ^ 2 ] >= 10391.039999999999
quadratic_ranged_10_lb: [ 1 x_7_ ^ 2 - 2 x_8_ * x_7_ + 1 x_8_ ^ 2 + 1 y_7_ ^ 2 - 2 y_8_ * y_7_ + 1 y_8_ ^ 2 ] >= 9181.26
quadratic_ranged_11_lb: [ 1 x_8_ ^ 2 - 2 x_9_ * x_8_ + 1 x_9_ ^ 2 + 1 y_8_ ^ 2 - 2 y_9_ * y_8_ + 1 y_9_ ^ 2 ] >= 12265.11
quadratic_ranged_12_lb: [ 1 x_4_ ^ 2 - 2 x_10_ * x_4_ + 1 x_10_ ^ 2 + 1 y_4_ ^ 2 - 2 y_10_ * y_4_ + 1 y_10_ ^ 2 ] >= 4218.39
quadratic_ranged_13_lb: [ 1 x_6_ ^ 2 - 2 x_10_ * x_6_ + 1 x_10_ ^ 2 + 1 y_6_ ^ 2 - 2 y_10_ * y_6_ + 1 y_10_ ^ 2 ] >= 2998.71
quadratic_ranged_14_lb: [ 1 x_8_ ^ 2 - 2 x_10_ * x_8_ + 1 x_10_ ^ 2 + 1 y_8_ ^ 2 - 2 y_10_ * y_8_ + 1 y_10_ ^ 2 ] >= 4424.31
quadratic_ranged_15_lb: [ 1 x_9_ ^ 2 - 2 x_10_ * x_9_ + 1 x_10_ ^ 2 + 1 y_9_ ^ 2 - 2 y_10_ * y_9_ + 1 y_10_ ^ 2 ] >= 19107
quadratic_ranged_16_lb: [ 1 x_4_ ^ 2 - 2 x_11_ * x_4_ + 1 x_11_ ^ 2 + 1 y_4_ ^ 2 - 2 y_11_ * y_4_ + 1 y_11_ ^ 2 ] >= 5762.79
quadratic_ranged_17_lb: [ 1 x_10_ ^ 2 - 2 x_11_ * x_10_ + 1 x_11_ ^ 2 + 1 y_10_ ^ 2 - 2 y_11_ * y_10_ + 1 y_11_ ^ 2 ] >= 19800
quadratic_ranged_18_lb: [ 1 x_1_ ^ 2 - 2 x_12_ * x_1_ + 1 x_12_ ^ 2 + 1 y_1_ ^ 2 - 2 y_12_ * y_1_ + 1 y_12_ ^ 2 ] >= 5255.91
quadratic_ranged_19_lb: [ 1 x_8_ ^ 2 - 2 x_12_ * x_8_ + 1 x_12_ ^ 2 + 1 y_8_ ^ 2 - 2 y_12_ * y_8_ + 1 y_12_ ^ 2 ] >= 4935.15
quadratic_ranged_20_lb: [ 1 x_10_ ^ 2 - 2 x_12_ * x_10_ + 1 x_12_ ^ 2 + 1 y_10_ ^ 2 - 2 y_12_ * y_10_ + 1 y_12_ ^ 2 ] >= 3661.02
quadratic_ranged_21_lb: [ 1 x_11_ ^ 2 - 2 x_12_ * x_11_ + 1 x_12_ ^ 2 + 1 y_11_ ^ 2 - 2 y_12_ * y_11_ + 1 y_12_ ^ 2 ] >= 9838.62
quadratic_ranged_22_lb: [ 1 x_6_ ^ 2 - 2 x_13_ * x_6_ + 1 x_13_ ^ 2 + 1 y_6_ ^ 2 - 2 y_13_ * y_6_ + 1 y_13_ ^ 2 ] >= 5722.2
quadratic_ranged_23_lb: [ 1 x_12_ ^ 2 - 2 x_13_ * x_12_ + 1 x_13_ ^ 2 + 1 y_12_ ^ 2 - 2 y_13_ * y_12_ + 1 y_13_ ^ 2 ] >= 3224.43
quadratic_ranged_24_lb: [ 1 x_4_ ^ 2 - 2 x_14_ * x_4_ + 1 x_14_ ^ 2 + 1 y_4_ ^ 2 - 2 y_14_ * y_4_ + 1 y_14_ ^ 2 ] >= 9012.96
quadratic_ranged_25_lb: [ 1 x_13_ ^ 2 - 2 x_14_ * x_13_ + 1 x_14_ ^ 2 + 1 y_13_ ^ 2 - 2 y_14_ * y_13_ + 1 y_14_ ^ 2 ] >= 673.2
quadratic_ranged_26_lb: [ 1 x_1_ ^ 2 - 2 x_15_ * x_1_ + 1 x_15_ ^ 2 + 1 y_1_ ^ 2 - 2 y_15_ * y_1_ + 1 y_15_ ^ 2 ] >= 27827.91
quadratic_ranged_27_lb: [ 1 x_5_ ^ 2 - 2 x_15_ * x_5_ + 1 x_15_ ^ 2 + 1 y_5_ ^ 2 - 2 y_15_ * y_5_ + 1 y_15_ ^ 2 ] >= 19200.06
quadratic_ranged_28_lb: [ 1 x_6_ ^ 2 - 2 x_15_ * x_6_ + 1 x_15_ ^ 2 + 1 y_6_ ^ 2 - 2 y_15_ * y_6_ + 1 y_15_ ^ 2 ] >= 3612.5099999999998
quadratic_ranged_29_lb: [ 1 x_14_ ^ 2 - 2 x_15_ * x_14_ + 1 x_15_ ^ 2 + 1 y_14_ ^ 2 - 2 y_15_ * y_14_ + 1 y_15_ ^ 2 ] >= 22303.71
quadratic_ranged_30_lb: [ 1 x_2_ ^ 2 - 2 x_16_ * x_2_ + 1 x_16_ ^ 2 + 1 y_2_ ^ 2 - 2 y_16_ * y_2_ + 1 y_16_ ^ 2 ] >= 21693.87
quadratic_ranged_31_lb: [ 1 x_4_ ^ 2 - 2 x_16_ * x_4_ + 1 x_16_ ^ 2 + 1 y_4_ ^ 2 - 2 y_16_ * y_4_ + 1 y_16_ ^ 2 ] >= 2932.38
quadratic_ranged_32_lb: [ 1 x_9_ ^ 2 - 2 x_16_ * x_9_ + 1 x_16_ ^ 2 + 1 y_9_ ^ 2 - 2 y_16_ * y_9_ + 1 y_16_ ^ 2 ] >= 20616.75
quadratic_ranged_33_lb: [ 1 x_15_ ^ 2 - 2 x_16_ * x_15_ + 1 x_16_ ^ 2 + 1 y_15_ ^ 2 - 2 y_16_ * y_15_ + 1 y_16_ ^ 2 ] >= 9588.15
quadratic_ranged_34_lb: [ 1 x_4_ ^ 2 - 2 x_17_ * x_4_ + 1 x_17_ ^ 2 + 1 y_4_ ^ 2 - 2 y_17_ * y_4_ + 1 y_17_ ^ 2 ] >= 5437.08
quadratic_ranged_35_lb: [ 1 x_9_ ^ 2 - 2 x_17_ * x_9_ + 1 x_17_ ^ 2 + 1 y_9_ ^ 2 - 2 y_17_ * y_9_ + 1 y_17_ ^ 2 ] >= 19963.35
quadratic_ranged_36_lb: [ 1 x_11_ ^ 2 - 2 x_17_ * x_11_ + 1 x_17_ ^ 2 + 1 y_11_ ^ 2 - 2 y_17_ * y_11_ + 1 y_17_ ^ 2 ] >= 22299.75
quadratic_ranged_37_lb: [ 1 x_16_ ^ 2 - 2 x_17_ * x_16_ + 1 x_17_ ^ 2 + 1 y_16_ ^ 2 - 2 y_17_ * y_16_ + 1 y_17_ ^ 2 ] >= 746.46
quadratic_ranged_38_lb: [ 1 x_6_ ^ 2 - 2 x_18_ * x_6_ + 1 x_18_ ^ 2 + 1 y_6_ ^ 2 - 2 y_18_ * y_6_ + 1 y_18_ ^ 2 ] >= 10494
quadratic_ranged_39_lb: [ 1 x_8_ ^ 2 - 2 x_18_ * x_8_ + 1 x_18_ ^ 2 + 1 y_8_ ^ 2 - 2 y_18_ * y_8_ + 1 y_18_ ^ 2 ] >= 6502.32
quadratic_ranged_40_lb: [ 1 x_15_ ^ 2 - 2 x_18_ * x_15_ + 1 x_18_ ^ 2 + 1 y_15_ ^ 2 - 2 y_18_ * y_15_ + 1 y_18_ ^ 2 ] >= 25063.829999999998
quadratic_ranged_41_lb: [ 1 x_16_ ^ 2 - 2 x_18_ * x_16_ + 1 x_18_ ^ 2 + 1 y_16_ ^ 2 - 2 y_18_ * y_16_ + 1 y_18_ ^ 2 ] >= 3692.7
quadratic_ranged_42_lb: [ 1 x_17_ ^ 2 - 2 x_18_ * x_17_ + 1 x_18_ ^ 2 + 1 y_17_ ^ 2 - 2 y_18_ * y_17_ + 1 y_18_ ^ 2 ] >= 1750.32
quadratic_ranged_43_lb: [ 1 x_5_ ^ 2 - 2 x_19_ * x_5_ + 1 x_19_ ^ 2 + 1 y_5_ ^ 2 - 2 y_19_ * y_5_ + 1 y_19_ ^ 2 ] >= 7876.44
quadratic_ranged_44_lb: [ 1 x_8_ ^ 2 - 2 x_19_ * x_8_ + 1 x_19_ ^ 2 + 1 y_8_ ^ 2 - 2 y_19_ * y_8_ + 1 y_19_ ^ 2 ] >= 2844.27
quadratic_ranged_45_lb: [ 1 x_18_ ^ 2 - 2 x_19_ * x_18_ + 1 x_19_ ^ 2 + 1 y_18_ ^ 2 - 2 y_19_ * y_18_ + 1 y_19_ ^ 2 ] >= 9603.99
quadratic_ranged_46_lb: [ 1 x_1_ ^ 2 - 2 x_20_ * x_1_ + 1 x_20_ ^ 2 + 1 y_1_ ^ 2 - 2 y_20_ * y_1_ + 1 y_20_ ^ 2 ] >= 26097.39
quadratic_ranged_47_lb: [ 1 x_2_ ^ 2 - 2 x_20_ * x_2_ + 1 x_20_ ^ 2 + 1 y_2_ ^ 2 - 2 y_20_ * y_2_ + 1 y_20_ ^ 2 ] >= 35.64
quadratic_ranged_48_lb: [ 1 x_3_ ^ 2 - 2 x_20_ * x_3_ + 1 x_20_ ^ 2 + 1 y_3_ ^ 2 - 2 y_20_ * y_3_ + 1 y_20_ ^ 2 ] >= 16968.6
quadratic_ranged_49_lb: [ 1 x_4_ ^ 2 - 2 x_20_ * x_4_ + 1 x_20_ ^ 2 + 1 y_4_ ^ 2 - 2 y_20_ * y_4_ + 1 y_20_ ^ 2 ] >= 8241.75
quadratic_ranged_50_lb: [ 1 x_7_ ^ 2 - 2 x_20_ * x_7_ + 1 x_20_ ^ 2 + 1 y_7_ ^ 2 - 2 y_20_ * y_7_ + 1 y_20_ ^ 2 ] >= 6142.95
quadratic_ranged_51_lb: [ 1 x_14_ ^ 2 - 2 x_20_ * x_14_ + 1 x_20_ ^ 2 + 1 y_14_ ^ 2 - 2 y_20_ * y_14_ + 1 y_20_ ^ 2 ] >= 25760.79
quadratic_ranged_52_lb: [ 1 x_15_ ^ 2 - 2 x_20_ * x_15_ + 1 x_20_ ^ 2 + 1 y_15_ ^ 2 - 2 y_20_ * y_15_ + 1 y_20_ ^ 2 ] >= 5995.44
quadratic_ranged_53_lb: [ 1 x_16_ ^ 2 - 2 x_20_ * x_16_ + 1 x_20_ ^ 2 + 1 y_16_ ^ 2 - 2 y_20_ * y_16_ + 1 y_20_ ^ 2 ] >= 20933.55
quadratic_ranged_54_lb: [ 1 x_19_ ^ 2 - 2 x_20_ * x_19_ + 1 x_20_ ^ 2 + 1 y_19_ ^ 2 - 2 y_20_ * y_19_ + 1 y_20_ ^ 2 ] >= 14020.38
c1_1: 1 x_9_ = 17
c2_1: 1 y_9_ = 46
c3_1: 1 x_5_ = 34
c4_1: 1 y_5_ = 41
c5_1: 1 x_10_ = -53
c6_1: 1 y_10_ = -74
Bounds
-143 <= x_1_ <= 81
-131 <= x_2_ <= 110
-120 <= x_3_ <= 55
-77 <= x_4_ <= 12
x_5_ = 34
-87 <= x_6_ <= 2
-46 <= x_7_ <= 43
-94 <= x_8_ <= 14
x_9_ = 17
x_10_ = -53
-154 <= x_11_ <= 89
-114 <= x_12_ <= 8
-164 <= x_13_ <= 65
-173 <= x_14_ <= 91
-105 <= x_15_ <= 63
-128 <= x_16_ <= 67
-125 <= x_17_ <= 87
-154 <= x_18_ <= 95
-55 <= x_19_ <= 68
-125 <= x_20_ <= 104
-136 <= y_1_ <= 60
-124 <= y_2_ <= 89
-113 <= y_3_ <= 34
-70 <= y_4_ <= -9
y_5_ = 41
-80 <= y_6_ <= -19
-39 <= y_7_ <= 22
-65 <= y_8_ <= -7
y_9_ = 46
y_10_ = -74
-147 <= y_11_ <= 68
-135 <= y_12_ <= -13
-157 <= y_13_ <= 44
-166 <= y_14_ <= 70
-98 <= y_15_ <= 42
-99 <= y_16_ <= 46
-96 <= y_17_ <= 66
-138 <= y_18_ <= 74
-48 <= y_19_ <= 47
-118 <= y_20_ <= 83
General
x_1_
x_2_
x_3_
x_4_
x_5_
x_6_
x_7_
x_8_
x_9_
x_10_
x_11_
x_12_
x_13_
x_14_
x_15_
x_16_
x_17_
x_18_
x_19_
x_20_
y_1_
y_2_
y_3_
y_4_
y_5_
y_6_
y_7_
y_8_
y_9_
y_10_
y_11_
y_12_
y_13_
y_14_
y_15_
y_16_
y_17_
y_18_
y_19_
y_20_
End
