minimize
obj: 
subject to
c1_4: -1 x_14_ + 1 y_14_ <= 0
c1_1: [ 1 x_1_ ^ 2 + 1 y_1_ ^ 2 ] <= 19994
c2_1: [ 1 x_2_ ^ 2 + 1 y_2_ ^ 2 ] <= 42076
c3_1: [ 1 x_3_ ^ 2 + 1 y_3_ ^ 2 ] <= 11621
c4_1: [ 1 x_5_ ^ 2 + 1 y_5_ ^ 2 ] <= 11821
c5_1: [ 1 x_6_ ^ 2 + 1 y_6_ ^ 2 ] <= 27654
c6_1: [ 1 x_7_ ^ 2 + 1 y_7_ ^ 2 ] <= 6121
c7_1: [ 1 x_8_ ^ 2 + 1 y_8_ ^ 2 ] <= 19412
c8_1: [ 1 x_9_ ^ 2 + 1 y_9_ ^ 2 ] <= 6926
c9_1: [ 1 x_10_ ^ 2 + 1 y_10_ ^ 2 ] <= 20705
c10_1: [ 1 x_11_ ^ 2 + 1 y_11_ ^ 2 ] <= 46100
c11_1: [ 1 x_12_ ^ 2 + 1 y_12_ ^ 2 ] <= 39255
c12_1: [ 1 x_13_ ^ 2 + 1 y_13_ ^ 2 ] <= 15138
c13_1: [ 1 x_14_ ^ 2 + 1 y_14_ ^ 2 ] <= 50917
c14_1: [ 1 x_15_ ^ 2 + 1 y_15_ ^ 2 ] <= 45116
c15_1: [ 1 x_16_ ^ 2 + 1 y_16_ ^ 2 ] <= 3033
c16_1: [ 1 x_17_ ^ 2 + 1 y_17_ ^ 2 ] <= 41
c17_1: [ 1 x_18_ ^ 2 + 1 y_18_ ^ 2 ] <= 12313
c18_1: [ 1 x_19_ ^ 2 + 1 y_19_ ^ 2 ] <= 33905
c19_1: [ 1 x_20_ ^ 2 + 1 y_20_ ^ 2 ] <= 3825
c1_3: 1 x_14_ >= 0
c2_3: 1 y_14_ >= 0
c1_2: 1 x_4_ = 0
c2_2: 1 y_4_ = 0
c1: [ 1 x_1_ ^ 2 - 2 x_2_ * x_1_ + 1 x_2_ ^ 2 + 1 y_1_ ^ 2 - 2 y_2_ * y_1_ + 1 y_2_ ^ 2 ] = 28322
c2: [ 1 x_1_ ^ 2 - 2 x_3_ * x_1_ + 1 x_3_ ^ 2 + 1 y_1_ ^ 2 - 2 y_3_ * y_1_ + 1 y_3_ ^ 2 ] = 5785
c3: [ 1 x_2_ ^ 2 - 2 x_3_ * x_2_ + 1 x_3_ ^ 2 + 1 y_2_ ^ 2 - 2 y_3_ * y_2_ + 1 y_3_ ^ 2 ] = 9593
c4: [ 1 x_3_ ^ 2 - 2 x_4_ * x_3_ + 1 x_4_ ^ 2 + 1 y_3_ ^ 2 - 2 y_4_ * y_3_ + 1 y_4_ ^ 2 ] = 11621
c5: [ 1 x_2_ ^ 2 - 2 x_5_ * x_2_ + 1 x_5_ ^ 2 + 1 y_2_ ^ 2 - 2 y_5_ * y_2_ + 1 y_5_ ^ 2 ] = 9293
c6: [ 1 x_4_ ^ 2 - 2 x_5_ * x_4_ + 1 x_5_ ^ 2 + 1 y_4_ ^ 2 - 2 y_5_ * y_4_ + 1 y_5_ ^ 2 ] = 11821
c7: [ 1 x_2_ ^ 2 - 2 x_6_ * x_2_ + 1 x_6_ ^ 2 + 1 y_2_ ^ 2 - 2 y_6_ * y_2_ + 1 y_6_ ^ 2 ] = 44753
c8: [ 1 x_3_ ^ 2 - 2 x_6_ * x_3_ + 1 x_6_ ^ 2 + 1 y_3_ ^ 2 - 2 y_6_ * y_3_ + 1 y_6_ ^ 2 ] = 13050
c9: [ 1 x_5_ ^ 2 - 2 x_6_ * x_5_ + 1 x_6_ ^ 2 + 1 y_5_ ^ 2 - 2 y_6_ * y_5_ + 1 y_6_ ^ 2 ] = 17300
c10: [ 1 x_4_ ^ 2 - 2 x_7_ * x_4_ + 1 x_7_ ^ 2 + 1 y_4_ ^ 2 - 2 y_7_ * y_4_ + 1 y_7_ ^ 2 ] = 6121
c11: [ 1 x_5_ ^ 2 - 2 x_7_ * x_5_ + 1 x_7_ ^ 2 + 1 y_5_ ^ 2 - 2 y_7_ * y_5_ + 1 y_7_ ^ 2 ] = 2034
c12: [ 1 x_6_ ^ 2 - 2 x_7_ * x_6_ + 1 x_7_ ^ 2 + 1 y_6_ ^ 2 - 2 y_7_ * y_6_ + 1 y_7_ ^ 2 ] = 7754
c13: [ 1 x_7_ ^ 2 - 2 x_8_ * x_7_ + 1 x_8_ ^ 2 + 1 y_7_ ^ 2 - 2 y_8_ * y_7_ + 1 y_8_ ^ 2 ] = 5333
c14: [ 1 x_1_ ^ 2 - 2 x_9_ * x_1_ + 1 x_9_ ^ 2 + 1 y_1_ ^ 2 - 2 y_9_ * y_1_ + 1 y_9_ ^ 2 ] = 5330
c15: [ 1 x_2_ ^ 2 - 2 x_9_ * x_2_ + 1 x_9_ ^ 2 + 1 y_2_ ^ 2 - 2 y_9_ * y_2_ + 1 y_9_ ^ 2 ] = 51264
c16: [ 1 x_7_ ^ 2 - 2 x_9_ * x_7_ + 1 x_9_ ^ 2 + 1 y_7_ ^ 2 - 2 y_9_ * y_7_ + 1 y_9_ ^ 2 ] = 10037
c17: [ 1 x_8_ ^ 2 - 2 x_9_ * x_8_ + 1 x_9_ ^ 2 + 1 y_8_ ^ 2 - 2 y_9_ * y_8_ + 1 y_9_ ^ 2 ] = 28548
c18: [ 1 x_4_ ^ 2 - 2 x_10_ * x_4_ + 1 x_10_ ^ 2 + 1 y_4_ ^ 2 - 2 y_10_ * y_4_ + 1 y_10_ ^ 2 ] = 20705
c19: [ 1 x_9_ ^ 2 - 2 x_10_ * x_9_ + 1 x_10_ ^ 2 + 1 y_9_ ^ 2 - 2 y_10_ * y_9_ + 1 y_10_ ^ 2 ] = 36605
c20: [ 1 x_9_ ^ 2 - 2 x_11_ * x_9_ + 1 x_11_ ^ 2 + 1 y_9_ ^ 2 - 2 y_11_ * y_9_ + 1 y_11_ ^ 2 ] = 17288
c21: [ 1 x_10_ ^ 2 - 2 x_11_ * x_10_ + 1 x_11_ ^ 2 + 1 y_10_ ^ 2 - 2 y_11_ * y_10_ + 1 y_11_ ^ 2 ] = 47529
c22: [ 1 x_1_ ^ 2 - 2 x_12_ * x_1_ + 1 x_12_ ^ 2 + 1 y_1_ ^ 2 - 2 y_12_ * y_1_ + 1 y_12_ ^ 2 ] = 25992
c23: [ 1 x_5_ ^ 2 - 2 x_12_ * x_5_ + 1 x_12_ ^ 2 + 1 y_5_ ^ 2 - 2 y_12_ * y_5_ + 1 y_12_ ^ 2 ] = 7993
c24: [ 1 x_11_ ^ 2 - 2 x_12_ * x_11_ + 1 x_12_ ^ 2 + 1 y_11_ ^ 2 - 2 y_12_ * y_11_ + 1 y_12_ ^ 2 ] = 16650
c25: [ 1 x_9_ ^ 2 - 2 x_13_ * x_9_ + 1 x_13_ ^ 2 + 1 y_9_ ^ 2 - 2 y_13_ * y_9_ + 1 y_13_ ^ 2 ] = 1585
c26: [ 1 x_10_ ^ 2 - 2 x_13_ * x_10_ + 1 x_13_ ^ 2 + 1 y_10_ ^ 2 - 2 y_13_ * y_10_ + 1 y_13_ ^ 2 ] = 27266
c27: [ 1 x_12_ ^ 2 - 2 x_13_ * x_12_ + 1 x_13_ ^ 2 + 1 y_12_ ^ 2 - 2 y_13_ * y_12_ + 1 y_13_ ^ 2 ] = 32405
c28: [ 1 x_13_ ^ 2 - 2 x_14_ * x_13_ + 1 x_14_ ^ 2 + 1 y_13_ ^ 2 - 2 y_14_ * y_13_ + 1 y_14_ ^ 2 ] = 10529
c29: [ 1 x_2_ ^ 2 - 2 x_15_ * x_2_ + 1 x_15_ ^ 2 + 1 y_2_ ^ 2 - 2 y_15_ * y_2_ + 1 y_15_ ^ 2 ] = 53
c30: [ 1 x_10_ ^ 2 - 2 x_15_ * x_10_ + 1 x_15_ ^ 2 + 1 y_10_ ^ 2 - 2 y_15_ * y_10_ + 1 y_15_ ^ 2 ] = 35802
c31: [ 1 x_14_ ^ 2 - 2 x_15_ * x_14_ + 1 x_15_ ^ 2 + 1 y_14_ ^ 2 - 2 y_15_ * y_14_ + 1 y_15_ ^ 2 ] = 20605
c32: [ 1 x_4_ ^ 2 - 2 x_16_ * x_4_ + 1 x_16_ ^ 2 + 1 y_4_ ^ 2 - 2 y_16_ * y_4_ + 1 y_16_ ^ 2 ] = 3033
c33: [ 1 x_9_ ^ 2 - 2 x_16_ * x_9_ + 1 x_16_ ^ 2 + 1 y_9_ ^ 2 - 2 y_16_ * y_9_ + 1 y_16_ ^ 2 ] = 2041
c34: [ 1 x_13_ ^ 2 - 2 x_16_ * x_13_ + 1 x_16_ ^ 2 + 1 y_13_ ^ 2 - 2 y_16_ * y_13_ + 1 y_16_ ^ 2 ] = 5444
c35: [ 1 x_15_ ^ 2 - 2 x_16_ * x_15_ + 1 x_16_ ^ 2 + 1 y_15_ ^ 2 - 2 y_16_ * y_15_ + 1 y_16_ ^ 2 ] = 67220
c36: [ 1 x_2_ ^ 2 - 2 x_17_ * x_2_ + 1 x_17_ ^ 2 + 1 y_2_ ^ 2 - 2 y_17_ * y_2_ + 1 y_17_ ^ 2 ] = 40613
c37: [ 1 x_4_ ^ 2 - 2 x_17_ * x_4_ + 1 x_17_ ^ 2 + 1 y_4_ ^ 2 - 2 y_17_ * y_4_ + 1 y_17_ ^ 2 ] = 41
c38: [ 1 x_5_ ^ 2 - 2 x_17_ * x_5_ + 1 x_17_ ^ 2 + 1 y_5_ ^ 2 - 2 y_17_ * y_5_ + 1 y_17_ ^ 2 ] = 11450
c39: [ 1 x_8_ ^ 2 - 2 x_17_ * x_8_ + 1 x_17_ ^ 2 + 1 y_8_ ^ 2 - 2 y_17_ * y_8_ + 1 y_17_ ^ 2 ] = 17669
c40: [ 1 x_16_ ^ 2 - 2 x_17_ * x_16_ + 1 x_17_ ^ 2 + 1 y_16_ ^ 2 - 2 y_17_ * y_16_ + 1 y_17_ ^ 2 ] = 3338
c41: [ 1 x_9_ ^ 2 - 2 x_18_ * x_9_ + 1 x_18_ ^ 2 + 1 y_9_ ^ 2 - 2 y_18_ * y_9_ + 1 y_18_ ^ 2 ] = 11584
c42: [ 1 x_12_ ^ 2 - 2 x_18_ * x_12_ + 1 x_18_ ^ 2 + 1 y_12_ ^ 2 - 2 y_18_ * y_12_ + 1 y_18_ ^ 2 ] = 14450
c43: [ 1 x_13_ ^ 2 - 2 x_18_ * x_13_ + 1 x_18_ ^ 2 + 1 y_13_ ^ 2 - 2 y_18_ * y_13_ + 1 y_18_ ^ 2 ] = 5265
c44: [ 1 x_17_ ^ 2 - 2 x_18_ * x_17_ + 1 x_18_ ^ 2 + 1 y_17_ ^ 2 - 2 y_18_ * y_17_ + 1 y_18_ ^ 2 ] = 10933
c45: [ 1 x_1_ ^ 2 - 2 x_19_ * x_1_ + 1 x_19_ ^ 2 + 1 y_1_ ^ 2 - 2 y_19_ * y_1_ + 1 y_19_ ^ 2 ] = 3573
c46: [ 1 x_5_ ^ 2 - 2 x_19_ * x_5_ + 1 x_19_ ^ 2 + 1 y_5_ ^ 2 - 2 y_19_ * y_5_ + 1 y_19_ ^ 2 ] = 11650
c47: [ 1 x_13_ ^ 2 - 2 x_19_ * x_13_ + 1 x_19_ ^ 2 + 1 y_13_ ^ 2 - 2 y_19_ * y_13_ + 1 y_19_ ^ 2 ] = 8354
c48: [ 1 x_18_ ^ 2 - 2 x_19_ * x_18_ + 1 x_19_ ^ 2 + 1 y_18_ ^ 2 - 2 y_19_ * y_18_ + 1 y_19_ ^ 2 ] = 18857
c49: [ 1 x_1_ ^ 2 - 2 x_20_ * x_1_ + 1 x_20_ ^ 2 + 1 y_1_ ^ 2 - 2 y_20_ * y_1_ + 1 y_20_ ^ 2 ] = 6329
c50: [ 1 x_4_ ^ 2 - 2 x_20_ * x_4_ + 1 x_20_ ^ 2 + 1 y_4_ ^ 2 - 2 y_20_ * y_4_ + 1 y_20_ ^ 2 ] = 3825
c51: [ 1 x_7_ ^ 2 - 2 x_20_ * x_7_ + 1 x_20_ ^ 2 + 1 y_7_ ^ 2 - 2 y_20_ * y_7_ + 1 y_20_ ^ 2 ] = 9274
c52: [ 1 x_9_ ^ 2 - 2 x_20_ * x_9_ + 1 x_20_ ^ 2 + 1 y_9_ ^ 2 - 2 y_20_ * y_9_ + 1 y_20_ ^ 2 ] = 457
c53: [ 1 x_18_ ^ 2 - 2 x_20_ * x_18_ + 1 x_20_ ^ 2 + 1 y_18_ ^ 2 - 2 y_20_ * y_18_ + 1 y_20_ ^ 2 ] = 9257
c54: [ 1 x_19_ ^ 2 - 2 x_20_ * x_19_ + 1 x_20_ ^ 2 + 1 y_19_ ^ 2 - 2 y_20_ * y_19_ + 1 y_20_ ^ 2 ] = 14954
Bounds
-141 <= x_1_ <= 141
-205 <= x_2_ <= 205
-107 <= x_3_ <= 107
x_4_ = 0
-108 <= x_5_ <= 108
-166 <= x_6_ <= 166
-78 <= x_7_ <= 78
-139 <= x_8_ <= 139
-83 <= x_9_ <= 83
-143 <= x_10_ <= 143
-214 <= x_11_ <= 214
-198 <= x_12_ <= 198
-123 <= x_13_ <= 123
-225 <= x_14_ <= 225
-212 <= x_15_ <= 212
-55 <= x_16_ <= 55
-6 <= x_17_ <= 6
-110 <= x_18_ <= 110
-184 <= x_19_ <= 184
-61 <= x_20_ <= 61
-141 <= y_1_ <= 141
-205 <= y_2_ <= 205
-107 <= y_3_ <= 107
y_4_ = 0
-108 <= y_5_ <= 108
-166 <= y_6_ <= 166
-78 <= y_7_ <= 78
-139 <= y_8_ <= 139
-83 <= y_9_ <= 83
-143 <= y_10_ <= 143
-214 <= y_11_ <= 214
-198 <= y_12_ <= 198
-123 <= y_13_ <= 123
-225 <= y_14_ <= 225
-212 <= y_15_ <= 212
-55 <= y_16_ <= 55
-6 <= y_17_ <= 6
-110 <= y_18_ <= 110
-184 <= y_19_ <= 184
-61 <= y_20_ <= 61
General
x_1_
x_2_
x_3_
x_4_
x_5_
x_6_
x_7_
x_8_
x_9_
x_10_
x_11_
x_12_
x_13_
x_14_
x_15_
x_16_
x_17_
x_18_
x_19_
x_20_
y_1_
y_2_
y_3_
y_4_
y_5_
y_6_
y_7_
y_8_
y_9_
y_10_
y_11_
y_12_
y_13_
y_14_
y_15_
y_16_
y_17_
y_18_
y_19_
y_20_
End
