minimize
obj: 
subject to
c1_3: -1 x_10_ + 1 y_10_ <= 0
c1: [ 1 x_1_ ^ 2 + 1 y_1_ ^ 2 ] <= 19701.18101069622
c2: [ 1 x_2_ ^ 2 + 1 y_2_ ^ 2 ] <= 28856.605293717
c3: [ 1 x_3_ ^ 2 + 1 y_3_ ^ 2 ] <= 10073.236060199997
c4: [ 1 x_4_ ^ 2 + 1 y_4_ ^ 2 ] <= 18072.404973095836
c5: [ 1 x_5_ ^ 2 + 1 y_5_ ^ 2 ] <= 31354.37151894519
c6: [ 1 x_6_ ^ 2 + 1 y_6_ ^ 2 ] <= 30830.205837364338
c7: [ 1 x_7_ ^ 2 + 1 y_7_ ^ 2 ] <= 16807.41
c8: [ 1 x_9_ ^ 2 + 1 y_9_ ^ 2 ] <= 6958.899999999999
c9: [ 1 x_10_ ^ 2 + 1 y_10_ ^ 2 ] <= 36964.17097151929
c10: [ 1 x_11_ ^ 2 + 1 y_11_ ^ 2 ] <= 22281.609999999997
c11: [ 1 x_12_ ^ 2 + 1 y_12_ ^ 2 ] <= 36406.28525342435
c12: [ 1 x_13_ ^ 2 + 1 y_13_ ^ 2 ] <= 1537.503055097365
c13: [ 1 x_14_ ^ 2 + 1 y_14_ ^ 2 ] <= 33977.46745376492
c14: [ 1 x_15_ ^ 2 + 1 y_15_ ^ 2 ] <= 14072.329999999996
c15: [ 1 x_16_ ^ 2 + 1 y_16_ ^ 2 ] <= 15403.530314331845
c16: [ 1 x_17_ ^ 2 + 1 y_17_ ^ 2 ] <= 58.57999999999999
c17: [ 1 x_18_ ^ 2 + 1 y_18_ ^ 2 ] <= 23958.109450670385
c18: [ 1 x_19_ ^ 2 + 1 y_19_ ^ 2 ] <= 935.9331719398796
c19: [ 1 x_20_ ^ 2 + 1 y_20_ ^ 2 ] <= 30515.129999999997
quadratic_ranged_1_ub: [ 1 x_1_ ^ 2 - 2 x_2_ * x_1_ + 1 x_2_ ^ 2 + 1 y_1_ ^ 2 - 2 y_2_ * y_1_ + 1 y_2_ ^ 2 ] <= 7385.12
quadratic_ranged_2_ub: [ 1 x_1_ ^ 2 - 2 x_3_ * x_1_ + 1 x_3_ ^ 2 + 1 y_1_ ^ 2 - 2 y_3_ * y_1_ + 1 y_3_ ^ 2 ] <= 2061.41
quadratic_ranged_3_ub: [ 1 x_2_ ^ 2 - 2 x_3_ * x_2_ + 1 x_3_ ^ 2 + 1 y_2_ ^ 2 - 2 y_3_ * y_2_ + 1 y_3_ ^ 2 ] <= 14302.61
quadratic_ranged_4_ub: [ 1 x_3_ ^ 2 - 2 x_4_ * x_3_ + 1 x_4_ ^ 2 + 1 y_3_ ^ 2 - 2 y_4_ * y_3_ + 1 y_4_ ^ 2 ] <= 6590.25
quadratic_ranged_5_ub: [ 1 x_4_ ^ 2 - 2 x_5_ * x_4_ + 1 x_5_ ^ 2 + 1 y_4_ ^ 2 - 2 y_5_ * y_4_ + 1 y_5_ ^ 2 ] <= 1818
quadratic_ranged_6_ub: [ 1 x_2_ ^ 2 - 2 x_6_ * x_2_ + 1 x_6_ ^ 2 + 1 y_2_ ^ 2 - 2 y_6_ * y_2_ + 1 y_6_ ^ 2 ] <= 33916.81
quadratic_ranged_7_ub: [ 1 x_3_ ^ 2 - 2 x_6_ * x_3_ + 1 x_6_ ^ 2 + 1 y_3_ ^ 2 - 2 y_6_ * y_3_ + 1 y_6_ ^ 2 ] <= 5658.02
quadratic_ranged_8_ub: [ 1 x_5_ ^ 2 - 2 x_6_ * x_5_ + 1 x_6_ ^ 2 + 1 y_5_ ^ 2 - 2 y_6_ * y_5_ + 1 y_6_ ^ 2 ] <= 38712.29
quadratic_ranged_9_ub: [ 1 x_3_ ^ 2 - 2 x_7_ * x_3_ + 1 x_7_ ^ 2 + 1 y_3_ ^ 2 - 2 y_7_ * y_3_ + 1 y_7_ ^ 2 ] <= 14176.36
quadratic_ranged_10_ub: [ 1 x_6_ ^ 2 - 2 x_7_ * x_6_ + 1 x_7_ ^ 2 + 1 y_6_ ^ 2 - 2 y_7_ * y_6_ + 1 y_7_ ^ 2 ] <= 32588.66
quadratic_ranged_11_ub: [ 1 x_7_ ^ 2 - 2 x_8_ * x_7_ + 1 x_8_ ^ 2 + 1 y_7_ ^ 2 - 2 y_8_ * y_7_ + 1 y_8_ ^ 2 ] <= 16807.41
quadratic_ranged_12_ub: [ 1 x_2_ ^ 2 - 2 x_9_ * x_2_ + 1 x_9_ ^ 2 + 1 y_2_ ^ 2 - 2 y_9_ * y_2_ + 1 y_9_ ^ 2 ] <= 7474
quadratic_ranged_13_ub: [ 1 x_8_ ^ 2 - 2 x_9_ * x_8_ + 1 x_9_ ^ 2 + 1 y_8_ ^ 2 - 2 y_9_ * y_8_ + 1 y_9_ ^ 2 ] <= 6958.9
quadratic_ranged_14_ub: [ 1 x_2_ ^ 2 - 2 x_10_ * x_2_ + 1 x_10_ ^ 2 + 1 y_2_ ^ 2 - 2 y_10_ * y_2_ + 1 y_10_ ^ 2 ] <= 35613.61
quadratic_ranged_15_ub: [ 1 x_9_ ^ 2 - 2 x_10_ * x_9_ + 1 x_10_ ^ 2 + 1 y_9_ ^ 2 - 2 y_10_ * y_9_ + 1 y_10_ ^ 2 ] <= 11846.29
quadratic_ranged_16_ub: [ 1 x_1_ ^ 2 - 2 x_11_ * x_1_ + 1 x_11_ ^ 2 + 1 y_1_ ^ 2 - 2 y_11_ * y_1_ + 1 y_11_ ^ 2 ] <= 4016.77
quadratic_ranged_17_ub: [ 1 x_8_ ^ 2 - 2 x_11_ * x_8_ + 1 x_11_ ^ 2 + 1 y_8_ ^ 2 - 2 y_11_ * y_8_ + 1 y_11_ ^ 2 ] <= 22281.61
quadratic_ranged_18_ub: [ 1 x_10_ ^ 2 - 2 x_11_ * x_10_ + 1 x_11_ ^ 2 + 1 y_10_ ^ 2 - 2 y_11_ * y_10_ + 1 y_11_ ^ 2 ] <= 31629.16
quadratic_ranged_19_ub: [ 1 x_4_ ^ 2 - 2 x_12_ * x_4_ + 1 x_12_ ^ 2 + 1 y_4_ ^ 2 - 2 y_12_ * y_4_ + 1 y_12_ ^ 2 ] <= 6901.33
quadratic_ranged_20_ub: [ 1 x_11_ ^ 2 - 2 x_12_ * x_11_ + 1 x_12_ ^ 2 + 1 y_11_ ^ 2 - 2 y_12_ * y_11_ + 1 y_12_ ^ 2 ] <= 9166.76
quadratic_ranged_21_ub: [ 1 x_1_ ^ 2 - 2 x_13_ * x_1_ + 1 x_13_ ^ 2 + 1 y_1_ ^ 2 - 2 y_13_ * y_1_ + 1 y_13_ ^ 2 ] <= 10231.3
quadratic_ranged_22_ub: [ 1 x_9_ ^ 2 - 2 x_13_ * x_9_ + 1 x_13_ ^ 2 + 1 y_9_ ^ 2 - 2 y_13_ * y_9_ + 1 y_13_ ^ 2 ] <= 8671.86
quadratic_ranged_23_ub: [ 1 x_11_ ^ 2 - 2 x_13_ * x_11_ + 1 x_13_ ^ 2 + 1 y_11_ ^ 2 - 2 y_13_ * y_11_ + 1 y_13_ ^ 2 ] <= 27060.93
quadratic_ranged_24_ub: [ 1 x_12_ ^ 2 - 2 x_13_ * x_12_ + 1 x_13_ ^ 2 + 1 y_12_ ^ 2 - 2 y_13_ * y_12_ + 1 y_13_ ^ 2 ] <= 22980.53
quadratic_ranged_25_ub: [ 1 x_2_ ^ 2 - 2 x_14_ * x_2_ + 1 x_14_ ^ 2 + 1 y_2_ ^ 2 - 2 y_14_ * y_2_ + 1 y_14_ ^ 2 ] <= 3749.12
quadratic_ranged_26_ub: [ 1 x_6_ ^ 2 - 2 x_14_ * x_6_ + 1 x_14_ ^ 2 + 1 y_6_ ^ 2 - 2 y_14_ * y_6_ + 1 y_14_ ^ 2 ] <= 45309.61
quadratic_ranged_27_ub: [ 1 x_11_ ^ 2 - 2 x_14_ * x_11_ + 1 x_14_ ^ 2 + 1 y_11_ ^ 2 - 2 y_14_ * y_11_ + 1 y_14_ ^ 2 ] <= 1229.17
quadratic_ranged_28_ub: [ 1 x_12_ ^ 2 - 2 x_14_ * x_12_ + 1 x_14_ ^ 2 + 1 y_12_ ^ 2 - 2 y_14_ * y_12_ + 1 y_14_ ^ 2 ] <= 9030.41
quadratic_ranged_29_ub: [ 1 x_13_ ^ 2 - 2 x_14_ * x_13_ + 1 x_14_ ^ 2 + 1 y_13_ ^ 2 - 2 y_14_ * y_13_ + 1 y_14_ ^ 2 ] <= 37549.78
quadratic_ranged_30_ub: [ 1 x_8_ ^ 2 - 2 x_15_ * x_8_ + 1 x_15_ ^ 2 + 1 y_8_ ^ 2 - 2 y_15_ * y_8_ + 1 y_15_ ^ 2 ] <= 14072.33
quadratic_ranged_31_ub: [ 1 x_14_ ^ 2 - 2 x_15_ * x_14_ + 1 x_15_ ^ 2 + 1 y_14_ ^ 2 - 2 y_15_ * y_14_ + 1 y_15_ ^ 2 ] <= 16597.33
quadratic_ranged_32_ub: [ 1 x_7_ ^ 2 - 2 x_16_ * x_7_ + 1 x_16_ ^ 2 + 1 y_7_ ^ 2 - 2 y_16_ * y_7_ + 1 y_16_ ^ 2 ] <= 2837.09
quadratic_ranged_33_ub: [ 1 x_10_ ^ 2 - 2 x_16_ * x_10_ + 1 x_16_ ^ 2 + 1 y_10_ ^ 2 - 2 y_16_ * y_10_ + 1 y_16_ ^ 2 ] <= 20225.25
quadratic_ranged_34_ub: [ 1 x_12_ ^ 2 - 2 x_16_ * x_12_ + 1 x_16_ ^ 2 + 1 y_12_ ^ 2 - 2 y_16_ * y_12_ + 1 y_16_ ^ 2 ] <= 15635.81
quadratic_ranged_35_ub: [ 1 x_15_ ^ 2 - 2 x_16_ * x_15_ + 1 x_16_ ^ 2 + 1 y_15_ ^ 2 - 2 y_16_ * y_15_ + 1 y_16_ ^ 2 ] <= 15082.33
quadratic_ranged_36_ub: [ 1 x_4_ ^ 2 - 2 x_17_ * x_4_ + 1 x_17_ ^ 2 + 1 y_4_ ^ 2 - 2 y_17_ * y_4_ + 1 y_17_ ^ 2 ] <= 16073.14
quadratic_ranged_37_ub: [ 1 x_8_ ^ 2 - 2 x_17_ * x_8_ + 1 x_17_ ^ 2 + 1 y_8_ ^ 2 - 2 y_17_ * y_8_ + 1 y_17_ ^ 2 ] <= 58.58
quadratic_ranged_38_ub: [ 1 x_13_ ^ 2 - 2 x_17_ * x_13_ + 1 x_17_ ^ 2 + 1 y_13_ ^ 2 - 2 y_17_ * y_13_ + 1 y_17_ ^ 2 ] <= 995.86
quadratic_ranged_39_ub: [ 1 x_14_ ^ 2 - 2 x_17_ * x_14_ + 1 x_17_ ^ 2 + 1 y_14_ ^ 2 - 2 y_17_ * y_14_ + 1 y_17_ ^ 2 ] <= 34267.28
quadratic_ranged_40_ub: [ 1 x_16_ ^ 2 - 2 x_17_ * x_16_ + 1 x_17_ ^ 2 + 1 y_16_ ^ 2 - 2 y_17_ * y_16_ + 1 y_17_ ^ 2 ] <= 13562.28
quadratic_ranged_41_ub: [ 1 x_4_ ^ 2 - 2 x_18_ * x_4_ + 1 x_18_ ^ 2 + 1 y_4_ ^ 2 - 2 y_18_ * y_4_ + 1 y_18_ ^ 2 ] <= 1217.05
quadratic_ranged_42_ub: [ 1 x_13_ ^ 2 - 2 x_18_ * x_13_ + 1 x_18_ ^ 2 + 1 y_13_ ^ 2 - 2 y_18_ * y_13_ + 1 y_18_ ^ 2 ] <= 22596.73
quadratic_ranged_43_ub: [ 1 x_16_ ^ 2 - 2 x_18_ * x_16_ + 1 x_18_ ^ 2 + 1 y_16_ ^ 2 - 2 y_18_ * y_16_ + 1 y_18_ ^ 2 ] <= 6085.25
quadratic_ranged_44_ub: [ 1 x_17_ ^ 2 - 2 x_18_ * x_17_ + 1 x_18_ ^ 2 + 1 y_17_ ^ 2 - 2 y_18_ * y_17_ + 1 y_18_ ^ 2 ] <= 21647.33
quadratic_ranged_45_ub: [ 1 x_2_ ^ 2 - 2 x_19_ * x_2_ + 1 x_19_ ^ 2 + 1 y_2_ ^ 2 - 2 y_19_ * y_2_ + 1 y_19_ ^ 2 ] <= 35403.53
quadratic_ranged_46_ub: [ 1 x_3_ ^ 2 - 2 x_19_ * x_3_ + 1 x_19_ ^ 2 + 1 y_3_ ^ 2 - 2 y_19_ * y_3_ + 1 y_19_ ^ 2 ] <= 4868.2
quadratic_ranged_47_ub: [ 1 x_7_ ^ 2 - 2 x_19_ * x_7_ + 1 x_19_ ^ 2 + 1 y_7_ ^ 2 - 2 y_19_ * y_7_ + 1 y_19_ ^ 2 ] <= 24644
quadratic_ranged_48_ub: [ 1 x_17_ ^ 2 - 2 x_19_ * x_17_ + 1 x_19_ ^ 2 + 1 y_17_ ^ 2 - 2 y_19_ * y_17_ + 1 y_19_ ^ 2 ] <= 526.21
quadratic_ranged_49_ub: [ 1 x_18_ ^ 2 - 2 x_19_ * x_18_ + 1 x_19_ ^ 2 + 1 y_18_ ^ 2 - 2 y_19_ * y_18_ + 1 y_19_ ^ 2 ] <= 28328.48
quadratic_ranged_50_ub: [ 1 x_1_ ^ 2 - 2 x_20_ * x_1_ + 1 x_20_ ^ 2 + 1 y_1_ ^ 2 - 2 y_20_ * y_1_ + 1 y_20_ ^ 2 ] <= 9519.25
quadratic_ranged_51_ub: [ 1 x_3_ ^ 2 - 2 x_20_ * x_3_ + 1 x_20_ ^ 2 + 1 y_3_ ^ 2 - 2 y_20_ * y_3_ + 1 y_20_ ^ 2 ] <= 16018.6
quadratic_ranged_52_ub: [ 1 x_5_ ^ 2 - 2 x_20_ * x_5_ + 1 x_20_ ^ 2 + 1 y_5_ ^ 2 - 2 y_20_ * y_5_ + 1 y_20_ ^ 2 ] <= 9482.89
quadratic_ranged_53_ub: [ 1 x_8_ ^ 2 - 2 x_20_ * x_8_ + 1 x_20_ ^ 2 + 1 y_8_ ^ 2 - 2 y_20_ * y_8_ + 1 y_20_ ^ 2 ] <= 30515.13
quadratic_ranged_54_ub: [ 1 x_19_ ^ 2 - 2 x_20_ * x_19_ + 1 x_20_ ^ 2 + 1 y_19_ ^ 2 - 2 y_20_ * y_19_ + 1 y_20_ ^ 2 ] <= 37370
c1_2: 1 x_10_ >= 0
c2_2: 1 y_10_ >= 0
quadratic_ranged_1_lb: [ 1 x_1_ ^ 2 - 2 x_2_ * x_1_ + 1 x_2_ ^ 2 + 1 y_1_ ^ 2 - 2 y_2_ * y_1_ + 1 y_2_ ^ 2 ] >= 7238.88
quadratic_ranged_2_lb: [ 1 x_1_ ^ 2 - 2 x_3_ * x_1_ + 1 x_3_ ^ 2 + 1 y_1_ ^ 2 - 2 y_3_ * y_1_ + 1 y_3_ ^ 2 ] >= 2020.59
quadratic_ranged_3_lb: [ 1 x_2_ ^ 2 - 2 x_3_ * x_2_ + 1 x_3_ ^ 2 + 1 y_2_ ^ 2 - 2 y_3_ * y_2_ + 1 y_3_ ^ 2 ] >= 14019.39
quadratic_ranged_4_lb: [ 1 x_3_ ^ 2 - 2 x_4_ * x_3_ + 1 x_4_ ^ 2 + 1 y_3_ ^ 2 - 2 y_4_ * y_3_ + 1 y_4_ ^ 2 ] >= 6459.75
quadratic_ranged_5_lb: [ 1 x_4_ ^ 2 - 2 x_5_ * x_4_ + 1 x_5_ ^ 2 + 1 y_4_ ^ 2 - 2 y_5_ * y_4_ + 1 y_5_ ^ 2 ] >= 1782
quadratic_ranged_6_lb: [ 1 x_2_ ^ 2 - 2 x_6_ * x_2_ + 1 x_6_ ^ 2 + 1 y_2_ ^ 2 - 2 y_6_ * y_2_ + 1 y_6_ ^ 2 ] >= 33245.19
quadratic_ranged_7_lb: [ 1 x_3_ ^ 2 - 2 x_6_ * x_3_ + 1 x_6_ ^ 2 + 1 y_3_ ^ 2 - 2 y_6_ * y_3_ + 1 y_6_ ^ 2 ] >= 5545.98
quadratic_ranged_8_lb: [ 1 x_5_ ^ 2 - 2 x_6_ * x_5_ + 1 x_6_ ^ 2 + 1 y_5_ ^ 2 - 2 y_6_ * y_5_ + 1 y_6_ ^ 2 ] >= 37945.71
quadratic_ranged_9_lb: [ 1 x_3_ ^ 2 - 2 x_7_ * x_3_ + 1 x_7_ ^ 2 + 1 y_3_ ^ 2 - 2 y_7_ * y_3_ + 1 y_7_ ^ 2 ] >= 13895.64
quadratic_ranged_10_lb: [ 1 x_6_ ^ 2 - 2 x_7_ * x_6_ + 1 x_7_ ^ 2 + 1 y_6_ ^ 2 - 2 y_7_ * y_6_ + 1 y_7_ ^ 2 ] >= 31943.34
quadratic_ranged_11_lb: [ 1 x_7_ ^ 2 - 2 x_8_ * x_7_ + 1 x_8_ ^ 2 + 1 y_7_ ^ 2 - 2 y_8_ * y_7_ + 1 y_8_ ^ 2 ] >= 16474.59
quadratic_ranged_12_lb: [ 1 x_2_ ^ 2 - 2 x_9_ * x_2_ + 1 x_9_ ^ 2 + 1 y_2_ ^ 2 - 2 y_9_ * y_2_ + 1 y_9_ ^ 2 ] >= 7326
quadratic_ranged_13_lb: [ 1 x_8_ ^ 2 - 2 x_9_ * x_8_ + 1 x_9_ ^ 2 + 1 y_8_ ^ 2 - 2 y_9_ * y_8_ + 1 y_9_ ^ 2 ] >= 6821.1
quadratic_ranged_14_lb: [ 1 x_2_ ^ 2 - 2 x_10_ * x_2_ + 1 x_10_ ^ 2 + 1 y_2_ ^ 2 - 2 y_10_ * y_2_ + 1 y_10_ ^ 2 ] >= 34908.39
quadratic_ranged_15_lb: [ 1 x_9_ ^ 2 - 2 x_10_ * x_9_ + 1 x_10_ ^ 2 + 1 y_9_ ^ 2 - 2 y_10_ * y_9_ + 1 y_10_ ^ 2 ] >= 11611.71
quadratic_ranged_16_lb: [ 1 x_1_ ^ 2 - 2 x_11_ * x_1_ + 1 x_11_ ^ 2 + 1 y_1_ ^ 2 - 2 y_11_ * y_1_ + 1 y_11_ ^ 2 ] >= 3937.23
quadratic_ranged_17_lb: [ 1 x_8_ ^ 2 - 2 x_11_ * x_8_ + 1 x_11_ ^ 2 + 1 y_8_ ^ 2 - 2 y_11_ * y_8_ + 1 y_11_ ^ 2 ] >= 21840.39
quadratic_ranged_18_lb: [ 1 x_10_ ^ 2 - 2 x_11_ * x_10_ + 1 x_11_ ^ 2 + 1 y_10_ ^ 2 - 2 y_11_ * y_10_ + 1 y_11_ ^ 2 ] >= 31002.84
quadratic_ranged_19_lb: [ 1 x_4_ ^ 2 - 2 x_12_ * x_4_ + 1 x_12_ ^ 2 + 1 y_4_ ^ 2 - 2 y_12_ * y_4_ + 1 y_12_ ^ 2 ] >= 6764.67
quadratic_ranged_20_lb: [ 1 x_11_ ^ 2 - 2 x_12_ * x_11_ + 1 x_12_ ^ 2 + 1 y_11_ ^ 2 - 2 y_12_ * y_11_ + 1 y_12_ ^ 2 ] >= 8985.24
quadratic_ranged_21_lb: [ 1 x_1_ ^ 2 - 2 x_13_ * x_1_ + 1 x_13_ ^ 2 + 1 y_1_ ^ 2 - 2 y_13_ * y_1_ + 1 y_13_ ^ 2 ] >= 10028.7
quadratic_ranged_22_lb: [ 1 x_9_ ^ 2 - 2 x_13_ * x_9_ + 1 x_13_ ^ 2 + 1 y_9_ ^ 2 - 2 y_13_ * y_9_ + 1 y_13_ ^ 2 ] >= 8500.14
quadratic_ranged_23_lb: [ 1 x_11_ ^ 2 - 2 x_13_ * x_11_ + 1 x_13_ ^ 2 + 1 y_11_ ^ 2 - 2 y_13_ * y_11_ + 1 y_13_ ^ 2 ] >= 26525.07
quadratic_ranged_24_lb: [ 1 x_12_ ^ 2 - 2 x_13_ * x_12_ + 1 x_13_ ^ 2 + 1 y_12_ ^ 2 - 2 y_13_ * y_12_ + 1 y_13_ ^ 2 ] >= 22525.47
quadratic_ranged_25_lb: [ 1 x_2_ ^ 2 - 2 x_14_ * x_2_ + 1 x_14_ ^ 2 + 1 y_2_ ^ 2 - 2 y_14_ * y_2_ + 1 y_14_ ^ 2 ] >= 3674.88
quadratic_ranged_26_lb: [ 1 x_6_ ^ 2 - 2 x_14_ * x_6_ + 1 x_14_ ^ 2 + 1 y_6_ ^ 2 - 2 y_14_ * y_6_ + 1 y_14_ ^ 2 ] >= 44412.39
quadratic_ranged_27_lb: [ 1 x_11_ ^ 2 - 2 x_14_ * x_11_ + 1 x_14_ ^ 2 + 1 y_11_ ^ 2 - 2 y_14_ * y_11_ + 1 y_14_ ^ 2 ] >= 1204.83
quadratic_ranged_28_lb: [ 1 x_12_ ^ 2 - 2 x_14_ * x_12_ + 1 x_14_ ^ 2 + 1 y_12_ ^ 2 - 2 y_14_ * y_12_ + 1 y_14_ ^ 2 ] >= 8851.59
quadratic_ranged_29_lb: [ 1 x_13_ ^ 2 - 2 x_14_ * x_13_ + 1 x_14_ ^ 2 + 1 y_13_ ^ 2 - 2 y_14_ * y_13_ + 1 y_14_ ^ 2 ] >= 36806.22
quadratic_ranged_30_lb: [ 1 x_8_ ^ 2 - 2 x_15_ * x_8_ + 1 x_15_ ^ 2 + 1 y_8_ ^ 2 - 2 y_15_ * y_8_ + 1 y_15_ ^ 2 ] >= 13793.67
quadratic_ranged_31_lb: [ 1 x_14_ ^ 2 - 2 x_15_ * x_14_ + 1 x_15_ ^ 2 + 1 y_14_ ^ 2 - 2 y_15_ * y_14_ + 1 y_15_ ^ 2 ] >= 16268.67
quadratic_ranged_32_lb: [ 1 x_7_ ^ 2 - 2 x_16_ * x_7_ + 1 x_16_ ^ 2 + 1 y_7_ ^ 2 - 2 y_16_ * y_7_ + 1 y_16_ ^ 2 ] >= 2780.91
quadratic_ranged_33_lb: [ 1 x_10_ ^ 2 - 2 x_16_ * x_10_ + 1 x_16_ ^ 2 + 1 y_10_ ^ 2 - 2 y_16_ * y_10_ + 1 y_16_ ^ 2 ] >= 19824.75
quadratic_ranged_34_lb: [ 1 x_12_ ^ 2 - 2 x_16_ * x_12_ + 1 x_16_ ^ 2 + 1 y_12_ ^ 2 - 2 y_16_ * y_12_ + 1 y_16_ ^ 2 ] >= 15326.19
quadratic_ranged_35_lb: [ 1 x_15_ ^ 2 - 2 x_16_ * x_15_ + 1 x_16_ ^ 2 + 1 y_15_ ^ 2 - 2 y_16_ * y_15_ + 1 y_16_ ^ 2 ] >= 14783.67
quadratic_ranged_36_lb: [ 1 x_4_ ^ 2 - 2 x_17_ * x_4_ + 1 x_17_ ^ 2 + 1 y_4_ ^ 2 - 2 y_17_ * y_4_ + 1 y_17_ ^ 2 ] >= 15754.86
quadratic_ranged_37_lb: [ 1 x_8_ ^ 2 - 2 x_17_ * x_8_ + 1 x_17_ ^ 2 + 1 y_8_ ^ 2 - 2 y_17_ * y_8_ + 1 y_17_ ^ 2 ] >= 57.42
quadratic_ranged_38_lb: [ 1 x_13_ ^ 2 - 2 x_17_ * x_13_ + 1 x_17_ ^ 2 + 1 y_13_ ^ 2 - 2 y_17_ * y_13_ + 1 y_17_ ^ 2 ] >= 976.14
quadratic_ranged_39_lb: [ 1 x_14_ ^ 2 - 2 x_17_ * x_14_ + 1 x_17_ ^ 2 + 1 y_14_ ^ 2 - 2 y_17_ * y_14_ + 1 y_17_ ^ 2 ] >= 33588.72
quadratic_ranged_40_lb: [ 1 x_16_ ^ 2 - 2 x_17_ * x_16_ + 1 x_17_ ^ 2 + 1 y_16_ ^ 2 - 2 y_17_ * y_16_ + 1 y_17_ ^ 2 ] >= 13293.72
quadratic_ranged_41_lb: [ 1 x_4_ ^ 2 - 2 x_18_ * x_4_ + 1 x_18_ ^ 2 + 1 y_4_ ^ 2 - 2 y_18_ * y_4_ + 1 y_18_ ^ 2 ] >= 1192.95
quadratic_ranged_42_lb: [ 1 x_13_ ^ 2 - 2 x_18_ * x_13_ + 1 x_18_ ^ 2 + 1 y_13_ ^ 2 - 2 y_18_ * y_13_ + 1 y_18_ ^ 2 ] >= 22149.27
quadratic_ranged_43_lb: [ 1 x_16_ ^ 2 - 2 x_18_ * x_16_ + 1 x_18_ ^ 2 + 1 y_16_ ^ 2 - 2 y_18_ * y_16_ + 1 y_18_ ^ 2 ] >= 5964.75
quadratic_ranged_44_lb: [ 1 x_17_ ^ 2 - 2 x_18_ * x_17_ + 1 x_18_ ^ 2 + 1 y_17_ ^ 2 - 2 y_18_ * y_17_ + 1 y_18_ ^ 2 ] >= 21218.67
quadratic_ranged_45_lb: [ 1 x_2_ ^ 2 - 2 x_19_ * x_2_ + 1 x_19_ ^ 2 + 1 y_2_ ^ 2 - 2 y_19_ * y_2_ + 1 y_19_ ^ 2 ] >= 34702.47
quadratic_ranged_46_lb: [ 1 x_3_ ^ 2 - 2 x_19_ * x_3_ + 1 x_19_ ^ 2 + 1 y_3_ ^ 2 - 2 y_19_ * y_3_ + 1 y_19_ ^ 2 ] >= 4771.8
quadratic_ranged_47_lb: [ 1 x_7_ ^ 2 - 2 x_19_ * x_7_ + 1 x_19_ ^ 2 + 1 y_7_ ^ 2 - 2 y_19_ * y_7_ + 1 y_19_ ^ 2 ] >= 24156
quadratic_ranged_48_lb: [ 1 x_17_ ^ 2 - 2 x_19_ * x_17_ + 1 x_19_ ^ 2 + 1 y_17_ ^ 2 - 2 y_19_ * y_17_ + 1 y_19_ ^ 2 ] >= 515.79
quadratic_ranged_49_lb: [ 1 x_18_ ^ 2 - 2 x_19_ * x_18_ + 1 x_19_ ^ 2 + 1 y_18_ ^ 2 - 2 y_19_ * y_18_ + 1 y_19_ ^ 2 ] >= 27767.52
quadratic_ranged_50_lb: [ 1 x_1_ ^ 2 - 2 x_20_ * x_1_ + 1 x_20_ ^ 2 + 1 y_1_ ^ 2 - 2 y_20_ * y_1_ + 1 y_20_ ^ 2 ] >= 9330.75
quadratic_ranged_51_lb: [ 1 x_3_ ^ 2 - 2 x_20_ * x_3_ + 1 x_20_ ^ 2 + 1 y_3_ ^ 2 - 2 y_20_ * y_3_ + 1 y_20_ ^ 2 ] >= 15701.4
quadratic_ranged_52_lb: [ 1 x_5_ ^ 2 - 2 x_20_ * x_5_ + 1 x_20_ ^ 2 + 1 y_5_ ^ 2 - 2 y_20_ * y_5_ + 1 y_20_ ^ 2 ] >= 9295.11
quadratic_ranged_53_lb: [ 1 x_8_ ^ 2 - 2 x_20_ * x_8_ + 1 x_20_ ^ 2 + 1 y_8_ ^ 2 - 2 y_20_ * y_8_ + 1 y_20_ ^ 2 ] >= 29910.87
quadratic_ranged_54_lb: [ 1 x_19_ ^ 2 - 2 x_20_ * x_19_ + 1 x_20_ ^ 2 + 1 y_19_ ^ 2 - 2 y_20_ * y_19_ + 1 y_20_ ^ 2 ] >= 36630
c1_1: 1 x_8_ = 0
c2_1: 1 y_8_ = 0
Bounds
-140 <= x_1_ <= 140
-169 <= x_2_ <= 169
-100 <= x_3_ <= 100
-134 <= x_4_ <= 134
-177 <= x_5_ <= 177
-175 <= x_6_ <= 175
-129 <= x_7_ <= 129
x_8_ = 0
-83 <= x_9_ <= 83
-192 <= x_10_ <= 192
-149 <= x_11_ <= 149
-190 <= x_12_ <= 190
-39 <= x_13_ <= 39
-184 <= x_14_ <= 184
-118 <= x_15_ <= 118
-124 <= x_16_ <= 124
-7 <= x_17_ <= 7
-154 <= x_18_ <= 154
-30 <= x_19_ <= 30
-174 <= x_20_ <= 174
-140 <= y_1_ <= 140
-169 <= y_2_ <= 169
-100 <= y_3_ <= 100
-134 <= y_4_ <= 134
-177 <= y_5_ <= 177
-175 <= y_6_ <= 175
-129 <= y_7_ <= 129
y_8_ = 0
-83 <= y_9_ <= 83
-192 <= y_10_ <= 192
-149 <= y_11_ <= 149
-190 <= y_12_ <= 190
-39 <= y_13_ <= 39
-184 <= y_14_ <= 184
-118 <= y_15_ <= 118
-124 <= y_16_ <= 124
-7 <= y_17_ <= 7
-154 <= y_18_ <= 154
-30 <= y_19_ <= 30
-174 <= y_20_ <= 174
General
x_1_
x_2_
x_3_
x_4_
x_5_
x_6_
x_7_
x_8_
x_9_
x_10_
x_11_
x_12_
x_13_
x_14_
x_15_
x_16_
x_17_
x_18_
x_19_
x_20_
y_1_
y_2_
y_3_
y_4_
y_5_
y_6_
y_7_
y_8_
y_9_
y_10_
y_11_
y_12_
y_13_
y_14_
y_15_
y_16_
y_17_
y_18_
y_19_
y_20_
End
