minimize
obj: 
subject to
c1_3: -1 x_20_ + 1 y_20_ <= 0
c1: [ 1 x_1_ ^ 2 + 1 y_1_ ^ 2 ] <= 16960.343976941418
c2: [ 1 x_2_ ^ 2 + 1 y_2_ ^ 2 ] <= 2970.4099999999994
c3: [ 1 x_3_ ^ 2 + 1 y_3_ ^ 2 ] <= 8104.861609831711
c4: [ 1 x_4_ ^ 2 + 1 y_4_ ^ 2 ] <= 8452.689999999997
c5: [ 1 x_5_ ^ 2 + 1 y_5_ ^ 2 ] <= 24759.755957911875
c6: [ 1 x_6_ ^ 2 + 1 y_6_ ^ 2 ] <= 21853.243758162105
c7: [ 1 x_7_ ^ 2 + 1 y_7_ ^ 2 ] <= 17812.366322363236
c8: [ 1 x_8_ ^ 2 + 1 y_8_ ^ 2 ] <= 4080.3999999999996
c9: [ 1 x_9_ ^ 2 + 1 y_9_ ^ 2 ] <= 11775.1167661676
c10: [ 1 x_10_ ^ 2 + 1 y_10_ ^ 2 ] <= 9574.003838147662
c11: [ 1 x_11_ ^ 2 + 1 y_11_ ^ 2 ] <= 3863.7618843034957
c12: [ 1 x_12_ ^ 2 + 1 y_12_ ^ 2 ] <= 7297.249999999999
c13: [ 1 x_13_ ^ 2 + 1 y_13_ ^ 2 ] <= 9915.169999999998
c14: [ 1 x_14_ ^ 2 + 1 y_14_ ^ 2 ] <= 30647.814826145623
c15: [ 1 x_15_ ^ 2 + 1 y_15_ ^ 2 ] <= 30947.894176742753
c16: [ 1 x_16_ ^ 2 + 1 y_16_ ^ 2 ] <= 10043.74464632219
c17: [ 1 x_17_ ^ 2 + 1 y_17_ ^ 2 ] <= 2502.549986180209
c18: [ 1 x_18_ ^ 2 + 1 y_18_ ^ 2 ] <= 20804.422426520312
c19: [ 1 x_19_ ^ 2 + 1 y_19_ ^ 2 ] <= 35471.516899674665
c20: [ 1 x_20_ ^ 2 + 1 y_20_ ^ 2 ] <= 39140.10437667947
c21: [ 1 x_21_ ^ 2 + 1 y_21_ ^ 2 ] <= 15116.034923624906
c22: [ 1 x_22_ ^ 2 + 1 y_22_ ^ 2 ] <= 30991.10228283707
c23: [ 1 x_23_ ^ 2 + 1 y_23_ ^ 2 ] <= 27371.982809353085
c24: [ 1 x_24_ ^ 2 + 1 y_24_ ^ 2 ] <= 2008.8899999999996
c25: [ 1 x_26_ ^ 2 + 1 y_26_ ^ 2 ] <= 37.36999999999999
c26: [ 1 x_27_ ^ 2 + 1 y_27_ ^ 2 ] <= 7764.576041962562
c27: [ 1 x_28_ ^ 2 + 1 y_28_ ^ 2 ] <= 21504.041514660534
c28: [ 1 x_29_ ^ 2 + 1 y_29_ ^ 2 ] <= 13223.03274885469
c29: [ 1 x_30_ ^ 2 + 1 y_30_ ^ 2 ] <= 15721.638362771058
c30: [ 1 x_31_ ^ 2 + 1 y_31_ ^ 2 ] <= 34341.60730169983
c31: [ 1 x_32_ ^ 2 + 1 y_32_ ^ 2 ] <= 33176.897249610236
c32: [ 1 x_33_ ^ 2 + 1 y_33_ ^ 2 ] <= 15389.815160883632
c33: [ 1 x_34_ ^ 2 + 1 y_34_ ^ 2 ] <= 25032.84999999999
c34: [ 1 x_35_ ^ 2 + 1 y_35_ ^ 2 ] <= 2854.930420983208
c35: [ 1 x_36_ ^ 2 + 1 y_36_ ^ 2 ] <= 4783.395034450081
c36: [ 1 x_37_ ^ 2 + 1 y_37_ ^ 2 ] <= 13668.867833011847
c37: [ 1 x_38_ ^ 2 + 1 y_38_ ^ 2 ] <= 10136.031995410442
c38: [ 1 x_39_ ^ 2 + 1 y_39_ ^ 2 ] <= 15545.919999999998
c39: [ 1 x_40_ ^ 2 + 1 y_40_ ^ 2 ] <= 8894.47805407117
c40: [ 1 x_41_ ^ 2 + 1 y_41_ ^ 2 ] <= 12919.934399186579
c41: [ 1 x_42_ ^ 2 + 1 y_42_ ^ 2 ] <= 1567.5199999999998
c42: [ 1 x_43_ ^ 2 + 1 y_43_ ^ 2 ] <= 4561.2762942981935
c43: [ 1 x_44_ ^ 2 + 1 y_44_ ^ 2 ] <= 29120.99223838852
c44: [ 1 x_45_ ^ 2 + 1 y_45_ ^ 2 ] <= 5856.352149575079
c45: [ 1 x_46_ ^ 2 + 1 y_46_ ^ 2 ] <= 5328.255840259776
c46: [ 1 x_47_ ^ 2 + 1 y_47_ ^ 2 ] <= 1647.144481461673
c47: [ 1 x_48_ ^ 2 + 1 y_48_ ^ 2 ] <= 31910.749585663703
c48: [ 1 x_49_ ^ 2 + 1 y_49_ ^ 2 ] <= 24390.966554317147
c49: [ 1 x_50_ ^ 2 + 1 y_50_ ^ 2 ] <= 9580.12908433821
c50: [ 1 x_51_ ^ 2 + 1 y_51_ ^ 2 ] <= 8234.844192864188
c51: [ 1 x_52_ ^ 2 + 1 y_52_ ^ 2 ] <= 13974.201386688097
c52: [ 1 x_53_ ^ 2 + 1 y_53_ ^ 2 ] <= 35323.07760511366
c53: [ 1 x_54_ ^ 2 + 1 y_54_ ^ 2 ] <= 12306.862392625077
c54: [ 1 x_55_ ^ 2 + 1 y_55_ ^ 2 ] <= 17514.431151687517
c55: [ 1 x_56_ ^ 2 + 1 y_56_ ^ 2 ] <= 14494.307670767384
c56: [ 1 x_57_ ^ 2 + 1 y_57_ ^ 2 ] <= 1749.5186351567309
c57: [ 1 x_58_ ^ 2 + 1 y_58_ ^ 2 ] <= 8292.104429822191
c58: [ 1 x_59_ ^ 2 + 1 y_59_ ^ 2 ] <= 10592.015818692676
c59: [ 1 x_60_ ^ 2 + 1 y_60_ ^ 2 ] <= 15064.855374756411
c60: [ 1 x_61_ ^ 2 + 1 y_61_ ^ 2 ] <= 18960.231598030496
c61: [ 1 x_62_ ^ 2 + 1 y_62_ ^ 2 ] <= 8117.166836248109
c62: [ 1 x_63_ ^ 2 + 1 y_63_ ^ 2 ] <= 4018.563097267556
c63: [ 1 x_64_ ^ 2 + 1 y_64_ ^ 2 ] <= 17857.914214544122
c64: [ 1 x_65_ ^ 2 + 1 y_65_ ^ 2 ] <= 19313.034732188928
c65: [ 1 x_66_ ^ 2 + 1 y_66_ ^ 2 ] <= 25.25
c66: [ 1 x_67_ ^ 2 + 1 y_67_ ^ 2 ] <= 2493.5668400243876
c67: [ 1 x_68_ ^ 2 + 1 y_68_ ^ 2 ] <= 4628.363909940631
c68: [ 1 x_69_ ^ 2 + 1 y_69_ ^ 2 ] <= 28825.01608732735
c69: [ 1 x_70_ ^ 2 + 1 y_70_ ^ 2 ] <= 25518.78402187651
c70: [ 1 x_71_ ^ 2 + 1 y_71_ ^ 2 ] <= 11816.895905503874
c71: [ 1 x_72_ ^ 2 + 1 y_72_ ^ 2 ] <= 17146.477800969224
c72: [ 1 x_73_ ^ 2 + 1 y_73_ ^ 2 ] <= 18237.554669078247
c73: [ 1 x_74_ ^ 2 + 1 y_74_ ^ 2 ] <= 25753.515235347528
c74: [ 1 x_75_ ^ 2 + 1 y_75_ ^ 2 ] <= 23354.759443700397
c75: [ 1 x_76_ ^ 2 + 1 y_76_ ^ 2 ] <= 12318.969999999998
c76: [ 1 x_77_ ^ 2 + 1 y_77_ ^ 2 ] <= 21073.904254210353
c77: [ 1 x_78_ ^ 2 + 1 y_78_ ^ 2 ] <= 29346.81053618766
c78: [ 1 x_79_ ^ 2 + 1 y_79_ ^ 2 ] <= 8203.364389782866
c79: [ 1 x_80_ ^ 2 + 1 y_80_ ^ 2 ] <= 286.8669819816062
c80: [ 1 x_81_ ^ 2 + 1 y_81_ ^ 2 ] <= 663.5699999999998
c81: [ 1 x_82_ ^ 2 + 1 y_82_ ^ 2 ] <= 16008.499999999998
c82: [ 1 x_83_ ^ 2 + 1 y_83_ ^ 2 ] <= 20659.34155175968
c83: [ 1 x_84_ ^ 2 + 1 y_84_ ^ 2 ] <= 17405.391240478617
c84: [ 1 x_85_ ^ 2 + 1 y_85_ ^ 2 ] <= 4111.948791697359
c85: [ 1 x_86_ ^ 2 + 1 y_86_ ^ 2 ] <= 21068.280528773827
c86: [ 1 x_87_ ^ 2 + 1 y_87_ ^ 2 ] <= 19710.978511586756
c87: [ 1 x_88_ ^ 2 + 1 y_88_ ^ 2 ] <= 21192.04393998782
c88: [ 1 x_89_ ^ 2 + 1 y_89_ ^ 2 ] <= 8641.8626588593
c89: [ 1 x_90_ ^ 2 + 1 y_90_ ^ 2 ] <= 19047.905362289574
c90: [ 1 x_91_ ^ 2 + 1 y_91_ ^ 2 ] <= 23508.54339031444
c91: [ 1 x_92_ ^ 2 + 1 y_92_ ^ 2 ] <= 25420.495227947627
c92: [ 1 x_93_ ^ 2 + 1 y_93_ ^ 2 ] <= 31657.48779197002
c93: [ 1 x_94_ ^ 2 + 1 y_94_ ^ 2 ] <= 10974.932706632157
c94: [ 1 x_95_ ^ 2 + 1 y_95_ ^ 2 ] <= 19590.162546625445
c95: [ 1 x_96_ ^ 2 + 1 y_96_ ^ 2 ] <= 21251.409999999996
c96: [ 1 x_97_ ^ 2 + 1 y_97_ ^ 2 ] <= 11503.291272910617
c97: [ 1 x_98_ ^ 2 + 1 y_98_ ^ 2 ] <= 17456.839999999993
c98: [ 1 x_99_ ^ 2 + 1 y_99_ ^ 2 ] <= 24851.894155769147
c99: [ 1 x_100_ ^ 2 + 1 y_100_ ^ 2 ] <= 32282.25712008673
quadratic_ranged_1_ub: [ 1 x_1_ ^ 2 - 2 x_2_ * x_1_ + 1 x_2_ ^ 2 + 1 y_1_ ^ 2 - 2 y_2_ * y_1_ + 1 y_2_ ^ 2 ] <= 24689.45
quadratic_ranged_2_ub: [ 1 x_2_ ^ 2 - 2 x_3_ * x_2_ + 1 x_3_ ^ 2 + 1 y_2_ ^ 2 - 2 y_3_ * y_2_ + 1 y_3_ ^ 2 ] <= 13406.74
quadratic_ranged_3_ub: [ 1 x_3_ ^ 2 - 2 x_4_ * x_3_ + 1 x_4_ ^ 2 + 1 y_3_ ^ 2 - 2 y_4_ * y_3_ + 1 y_4_ ^ 2 ] <= 11408.960000000001
quadratic_ranged_4_ub: [ 1 x_4_ ^ 2 - 2 x_5_ * x_4_ + 1 x_5_ ^ 2 + 1 y_4_ ^ 2 - 2 y_5_ * y_4_ + 1 y_5_ ^ 2 ] <= 6837.7
quadratic_ranged_5_ub: [ 1 x_3_ ^ 2 - 2 x_6_ * x_3_ + 1 x_6_ ^ 2 + 1 y_3_ ^ 2 - 2 y_6_ * y_3_ + 1 y_6_ ^ 2 ] <= 21824.08
quadratic_ranged_6_ub: [ 1 x_5_ ^ 2 - 2 x_6_ * x_5_ + 1 x_6_ ^ 2 + 1 y_5_ ^ 2 - 2 y_6_ * y_5_ + 1 y_6_ ^ 2 ] <= 6474.1
quadratic_ranged_7_ub: [ 1 x_3_ ^ 2 - 2 x_7_ * x_3_ + 1 x_7_ ^ 2 + 1 y_3_ ^ 2 - 2 y_7_ * y_3_ + 1 y_7_ ^ 2 ] <= 32470.49
quadratic_ranged_8_ub: [ 1 x_4_ ^ 2 - 2 x_7_ * x_4_ + 1 x_7_ ^ 2 + 1 y_4_ ^ 2 - 2 y_7_ * y_4_ + 1 y_7_ ^ 2 ] <= 10226.25
quadratic_ranged_9_ub: [ 1 x_6_ ^ 2 - 2 x_7_ * x_6_ + 1 x_7_ ^ 2 + 1 y_6_ ^ 2 - 2 y_7_ * y_6_ + 1 y_7_ ^ 2 ] <= 10084.85
quadratic_ranged_10_ub: [ 1 x_3_ ^ 2 - 2 x_8_ * x_3_ + 1 x_8_ ^ 2 + 1 y_3_ ^ 2 - 2 y_8_ * y_3_ + 1 y_8_ ^ 2 ] <= 683.77
quadratic_ranged_11_ub: [ 1 x_7_ ^ 2 - 2 x_8_ * x_7_ + 1 x_8_ ^ 2 + 1 y_7_ ^ 2 - 2 y_8_ * y_7_ + 1 y_8_ ^ 2 ] <= 27229.6
quadratic_ranged_12_ub: [ 1 x_2_ ^ 2 - 2 x_9_ * x_2_ + 1 x_9_ ^ 2 + 1 y_2_ ^ 2 - 2 y_9_ * y_2_ + 1 y_9_ ^ 2 ] <= 23739.04
quadratic_ranged_13_ub: [ 1 x_8_ ^ 2 - 2 x_9_ * x_8_ + 1 x_9_ ^ 2 + 1 y_8_ ^ 2 - 2 y_9_ * y_8_ + 1 y_9_ ^ 2 ] <= 2845.17
quadratic_ranged_14_ub: [ 1 x_9_ ^ 2 - 2 x_10_ * x_9_ + 1 x_10_ ^ 2 + 1 y_9_ ^ 2 - 2 y_10_ * y_9_ + 1 y_10_ ^ 2 ] <= 2837.09
quadratic_ranged_15_ub: [ 1 x_9_ ^ 2 - 2 x_11_ * x_9_ + 1 x_11_ ^ 2 + 1 y_9_ ^ 2 - 2 y_11_ * y_9_ + 1 y_11_ ^ 2 ] <= 2676.5
quadratic_ranged_16_ub: [ 1 x_10_ ^ 2 - 2 x_11_ * x_10_ + 1 x_11_ ^ 2 + 1 y_10_ ^ 2 - 2 y_11_ * y_10_ + 1 y_11_ ^ 2 ] <= 1273.61
quadratic_ranged_17_ub: [ 1 x_4_ ^ 2 - 2 x_12_ * x_4_ + 1 x_12_ ^ 2 + 1 y_4_ ^ 2 - 2 y_12_ * y_4_ + 1 y_12_ ^ 2 ] <= 1086.76
quadratic_ranged_18_ub: [ 1 x_8_ ^ 2 - 2 x_12_ * x_8_ + 1 x_12_ ^ 2 + 1 y_8_ ^ 2 - 2 y_12_ * y_8_ + 1 y_12_ ^ 2 ] <= 3067.37
quadratic_ranged_19_ub: [ 1 x_11_ ^ 2 - 2 x_12_ * x_11_ + 1 x_12_ ^ 2 + 1 y_11_ ^ 2 - 2 y_12_ * y_11_ + 1 y_12_ ^ 2 ] <= 10116.16
quadratic_ranged_20_ub: [ 1 x_1_ ^ 2 - 2 x_13_ * x_1_ + 1 x_13_ ^ 2 + 1 y_1_ ^ 2 - 2 y_13_ * y_1_ + 1 y_13_ ^ 2 ] <= 1309.97
quadratic_ranged_21_ub: [ 1 x_7_ ^ 2 - 2 x_13_ * x_7_ + 1 x_13_ ^ 2 + 1 y_7_ ^ 2 - 2 y_13_ * y_7_ + 1 y_13_ ^ 2 ] <= 40736.33
quadratic_ranged_22_ub: [ 1 x_12_ ^ 2 - 2 x_13_ * x_12_ + 1 x_13_ ^ 2 + 1 y_12_ ^ 2 - 2 y_13_ * y_12_ + 1 y_13_ ^ 2 ] <= 6464
quadratic_ranged_23_ub: [ 1 x_13_ ^ 2 - 2 x_14_ * x_13_ + 1 x_14_ ^ 2 + 1 y_13_ ^ 2 - 2 y_14_ * y_13_ + 1 y_14_ ^ 2 ] <= 19821.25
quadratic_ranged_24_ub: [ 1 x_9_ ^ 2 - 2 x_15_ * x_9_ + 1 x_15_ ^ 2 + 1 y_9_ ^ 2 - 2 y_15_ * y_9_ + 1 y_15_ ^ 2 ] <= 19356.65
quadratic_ranged_25_ub: [ 1 x_14_ ^ 2 - 2 x_15_ * x_14_ + 1 x_15_ ^ 2 + 1 y_14_ ^ 2 - 2 y_15_ * y_14_ + 1 y_15_ ^ 2 ] <= 43349.2
quadratic_ranged_26_ub: [ 1 x_14_ ^ 2 - 2 x_16_ * x_14_ + 1 x_16_ ^ 2 + 1 y_14_ ^ 2 - 2 y_16_ * y_14_ + 1 y_16_ ^ 2 ] <= 27037.7
quadratic_ranged_27_ub: [ 1 x_15_ ^ 2 - 2 x_16_ * x_15_ + 1 x_16_ ^ 2 + 1 y_15_ ^ 2 - 2 y_16_ * y_15_ + 1 y_16_ ^ 2 ] <= 5730.74
quadratic_ranged_28_ub: [ 1 x_5_ ^ 2 - 2 x_17_ * x_5_ + 1 x_17_ ^ 2 + 1 y_5_ ^ 2 - 2 y_17_ * y_5_ + 1 y_17_ ^ 2 ] <= 11519.05
quadratic_ranged_29_ub: [ 1 x_7_ ^ 2 - 2 x_17_ * x_7_ + 1 x_17_ ^ 2 + 1 y_7_ ^ 2 - 2 y_17_ * y_7_ + 1 y_17_ ^ 2 ] <= 13907.7
quadratic_ranged_30_ub: [ 1 x_16_ ^ 2 - 2 x_17_ * x_16_ + 1 x_17_ ^ 2 + 1 y_16_ ^ 2 - 2 y_17_ * y_16_ + 1 y_17_ ^ 2 ] <= 5563.08
quadratic_ranged_31_ub: [ 1 x_3_ ^ 2 - 2 x_18_ * x_3_ + 1 x_18_ ^ 2 + 1 y_3_ ^ 2 - 2 y_18_ * y_3_ + 1 y_18_ ^ 2 ] <= 22152.33
quadratic_ranged_32_ub: [ 1 x_15_ ^ 2 - 2 x_18_ * x_15_ + 1 x_18_ ^ 2 + 1 y_15_ ^ 2 - 2 y_18_ * y_15_ + 1 y_18_ ^ 2 ] <= 29380.9
quadratic_ranged_33_ub: [ 1 x_17_ ^ 2 - 2 x_18_ * x_17_ + 1 x_18_ ^ 2 + 1 y_17_ ^ 2 - 2 y_18_ * y_17_ + 1 y_18_ ^ 2 ] <= 8875.88
quadratic_ranged_34_ub: [ 1 x_18_ ^ 2 - 2 x_19_ * x_18_ + 1 x_19_ ^ 2 + 1 y_18_ ^ 2 - 2 y_19_ * y_18_ + 1 y_19_ ^ 2 ] <= 32168.5
quadratic_ranged_35_ub: [ 1 x_3_ ^ 2 - 2 x_20_ * x_3_ + 1 x_20_ ^ 2 + 1 y_3_ ^ 2 - 2 y_20_ * y_3_ + 1 y_20_ ^ 2 ] <= 30086.89
quadratic_ranged_36_ub: [ 1 x_10_ ^ 2 - 2 x_20_ * x_10_ + 1 x_20_ ^ 2 + 1 y_10_ ^ 2 - 2 y_20_ * y_10_ + 1 y_20_ ^ 2 ] <= 24896.5
quadratic_ranged_37_ub: [ 1 x_19_ ^ 2 - 2 x_20_ * x_19_ + 1 x_20_ ^ 2 + 1 y_19_ ^ 2 - 2 y_20_ * y_19_ + 1 y_20_ ^ 2 ] <= 16988.2
quadratic_ranged_38_ub: [ 1 x_1_ ^ 2 - 2 x_21_ * x_1_ + 1 x_21_ ^ 2 + 1 y_1_ ^ 2 - 2 y_21_ * y_1_ + 1 y_21_ ^ 2 ] <= 8949.61
quadratic_ranged_39_ub: [ 1 x_5_ ^ 2 - 2 x_21_ * x_5_ + 1 x_21_ ^ 2 + 1 y_5_ ^ 2 - 2 y_21_ * y_5_ + 1 y_21_ ^ 2 ] <= 3064.34
quadratic_ranged_40_ub: [ 1 x_7_ ^ 2 - 2 x_21_ * x_7_ + 1 x_21_ ^ 2 + 1 y_7_ ^ 2 - 2 y_21_ * y_7_ + 1 y_21_ ^ 2 ] <= 34316.77
quadratic_ranged_41_ub: [ 1 x_10_ ^ 2 - 2 x_21_ * x_10_ + 1 x_21_ ^ 2 + 1 y_10_ ^ 2 - 2 y_21_ * y_10_ + 1 y_21_ ^ 2 ] <= 6246.85
quadratic_ranged_42_ub: [ 1 x_11_ ^ 2 - 2 x_21_ * x_11_ + 1 x_21_ ^ 2 + 1 y_11_ ^ 2 - 2 y_21_ * y_11_ + 1 y_21_ ^ 2 ] <= 12322
quadratic_ranged_43_ub: [ 1 x_14_ ^ 2 - 2 x_21_ * x_14_ + 1 x_21_ ^ 2 + 1 y_14_ ^ 2 - 2 y_21_ * y_14_ + 1 y_21_ ^ 2 ] <= 6913.45
quadratic_ranged_44_ub: [ 1 x_20_ ^ 2 - 2 x_21_ * x_20_ + 1 x_21_ ^ 2 + 1 y_20_ ^ 2 - 2 y_21_ * y_20_ + 1 y_21_ ^ 2 ] <= 32951.25
quadratic_ranged_45_ub: [ 1 x_21_ ^ 2 - 2 x_22_ * x_21_ + 1 x_22_ ^ 2 + 1 y_21_ ^ 2 - 2 y_22_ * y_21_ + 1 y_22_ ^ 2 ] <= 14941.94
quadratic_ranged_46_ub: [ 1 x_5_ ^ 2 - 2 x_23_ * x_5_ + 1 x_23_ ^ 2 + 1 y_5_ ^ 2 - 2 y_23_ * y_5_ + 1 y_23_ ^ 2 ] <= 5640.85
quadratic_ranged_47_ub: [ 1 x_6_ ^ 2 - 2 x_23_ * x_6_ + 1 x_23_ ^ 2 + 1 y_6_ ^ 2 - 2 y_23_ * y_6_ + 1 y_23_ ^ 2 ] <= 449.45
quadratic_ranged_48_ub: [ 1 x_7_ ^ 2 - 2 x_23_ * x_7_ + 1 x_23_ ^ 2 + 1 y_7_ ^ 2 - 2 y_23_ * y_7_ + 1 y_23_ ^ 2 ] <= 13562.28
quadratic_ranged_49_ub: [ 1 x_12_ ^ 2 - 2 x_23_ * x_12_ + 1 x_23_ ^ 2 + 1 y_12_ ^ 2 - 2 y_23_ * y_12_ + 1 y_23_ ^ 2 ] <= 6755.89
quadratic_ranged_50_ub: [ 1 x_20_ ^ 2 - 2 x_23_ * x_20_ + 1 x_23_ ^ 2 + 1 y_20_ ^ 2 - 2 y_23_ * y_20_ + 1 y_23_ ^ 2 ] <= 13873.36
quadratic_ranged_51_ub: [ 1 x_22_ ^ 2 - 2 x_23_ * x_22_ + 1 x_23_ ^ 2 + 1 y_22_ ^ 2 - 2 y_23_ * y_22_ + 1 y_23_ ^ 2 ] <= 198.97
quadratic_ranged_52_ub: [ 1 x_2_ ^ 2 - 2 x_24_ * x_2_ + 1 x_24_ ^ 2 + 1 y_2_ ^ 2 - 2 y_24_ * y_2_ + 1 y_24_ ^ 2 ] <= 2040.2
quadratic_ranged_53_ub: [ 1 x_21_ ^ 2 - 2 x_24_ * x_21_ + 1 x_24_ ^ 2 + 1 y_21_ ^ 2 - 2 y_24_ * y_21_ + 1 y_24_ ^ 2 ] <= 19256.66
quadratic_ranged_54_ub: [ 1 x_23_ ^ 2 - 2 x_24_ * x_23_ + 1 x_24_ ^ 2 + 1 y_23_ ^ 2 - 2 y_24_ * y_23_ + 1 y_24_ ^ 2 ] <= 17494.21
quadratic_ranged_55_ub: [ 1 x_2_ ^ 2 - 2 x_25_ * x_2_ + 1 x_25_ ^ 2 + 1 y_2_ ^ 2 - 2 y_25_ * y_2_ + 1 y_25_ ^ 2 ] <= 2970.41
quadratic_ranged_56_ub: [ 1 x_4_ ^ 2 - 2 x_25_ * x_4_ + 1 x_25_ ^ 2 + 1 y_4_ ^ 2 - 2 y_25_ * y_4_ + 1 y_25_ ^ 2 ] <= 8452.69
quadratic_ranged_57_ub: [ 1 x_8_ ^ 2 - 2 x_25_ * x_8_ + 1 x_25_ ^ 2 + 1 y_8_ ^ 2 - 2 y_25_ * y_8_ + 1 y_25_ ^ 2 ] <= 4080.4
quadratic_ranged_58_ub: [ 1 x_13_ ^ 2 - 2 x_25_ * x_13_ + 1 x_25_ ^ 2 + 1 y_13_ ^ 2 - 2 y_25_ * y_13_ + 1 y_25_ ^ 2 ] <= 9915.17
quadratic_ranged_59_ub: [ 1 x_24_ ^ 2 - 2 x_25_ * x_24_ + 1 x_25_ ^ 2 + 1 y_24_ ^ 2 - 2 y_25_ * y_24_ + 1 y_25_ ^ 2 ] <= 2008.89
quadratic_ranged_60_ub: [ 1 x_2_ ^ 2 - 2 x_26_ * x_2_ + 1 x_26_ ^ 2 + 1 y_2_ ^ 2 - 2 y_26_ * y_2_ + 1 y_26_ ^ 2 ] <= 3672.36
quadratic_ranged_61_ub: [ 1 x_5_ ^ 2 - 2 x_26_ * x_5_ + 1 x_26_ ^ 2 + 1 y_5_ ^ 2 - 2 y_26_ * y_5_ + 1 y_26_ ^ 2 ] <= 22898.72
quadratic_ranged_62_ub: [ 1 x_25_ ^ 2 - 2 x_26_ * x_25_ + 1 x_26_ ^ 2 + 1 y_25_ ^ 2 - 2 y_26_ * y_25_ + 1 y_26_ ^ 2 ] <= 37.37
quadratic_ranged_63_ub: [ 1 x_16_ ^ 2 - 2 x_27_ * x_16_ + 1 x_27_ ^ 2 + 1 y_16_ ^ 2 - 2 y_27_ * y_16_ + 1 y_27_ ^ 2 ] <= 146.45
quadratic_ranged_64_ub: [ 1 x_17_ ^ 2 - 2 x_27_ * x_17_ + 1 x_27_ ^ 2 + 1 y_17_ ^ 2 - 2 y_27_ * y_17_ + 1 y_27_ ^ 2 ] <= 6000.41
quadratic_ranged_65_ub: [ 1 x_19_ ^ 2 - 2 x_27_ * x_19_ + 1 x_27_ ^ 2 + 1 y_19_ ^ 2 - 2 y_27_ * y_19_ + 1 y_27_ ^ 2 ] <= 10044.45
quadratic_ranged_66_ub: [ 1 x_24_ ^ 2 - 2 x_27_ * x_24_ + 1 x_27_ ^ 2 + 1 y_24_ ^ 2 - 2 y_27_ * y_24_ + 1 y_27_ ^ 2 ] <= 1874.56
quadratic_ranged_67_ub: [ 1 x_26_ ^ 2 - 2 x_27_ * x_26_ + 1 x_27_ ^ 2 + 1 y_26_ ^ 2 - 2 y_27_ * y_26_ + 1 y_27_ ^ 2 ] <= 7966.88
quadratic_ranged_68_ub: [ 1 x_4_ ^ 2 - 2 x_28_ * x_4_ + 1 x_28_ ^ 2 + 1 y_4_ ^ 2 - 2 y_28_ * y_4_ + 1 y_28_ ^ 2 ] <= 4756.09
quadratic_ranged_69_ub: [ 1 x_8_ ^ 2 - 2 x_28_ * x_8_ + 1 x_28_ ^ 2 + 1 y_8_ ^ 2 - 2 y_28_ * y_8_ + 1 y_28_ ^ 2 ] <= 22656.32
quadratic_ranged_70_ub: [ 1 x_10_ ^ 2 - 2 x_28_ * x_10_ + 1 x_28_ ^ 2 + 1 y_10_ ^ 2 - 2 y_28_ * y_10_ + 1 y_28_ ^ 2 ] <= 24088.5
quadratic_ranged_71_ub: [ 1 x_13_ ^ 2 - 2 x_28_ * x_13_ + 1 x_28_ ^ 2 + 1 y_13_ ^ 2 - 2 y_28_ * y_13_ + 1 y_28_ ^ 2 ] <= 32922.97
quadratic_ranged_72_ub: [ 1 x_15_ ^ 2 - 2 x_28_ * x_15_ + 1 x_28_ ^ 2 + 1 y_15_ ^ 2 - 2 y_28_ * y_15_ + 1 y_28_ ^ 2 ] <= 23662.28
quadratic_ranged_73_ub: [ 1 x_26_ ^ 2 - 2 x_28_ * x_26_ + 1 x_28_ ^ 2 + 1 y_26_ ^ 2 - 2 y_28_ * y_26_ + 1 y_28_ ^ 2 ] <= 19748.53
quadratic_ranged_74_ub: [ 1 x_27_ ^ 2 - 2 x_28_ * x_27_ + 1 x_28_ ^ 2 + 1 y_27_ ^ 2 - 2 y_28_ * y_27_ + 1 y_28_ ^ 2 ] <= 4849.01
quadratic_ranged_75_ub: [ 1 x_4_ ^ 2 - 2 x_29_ * x_4_ + 1 x_29_ ^ 2 + 1 y_4_ ^ 2 - 2 y_29_ * y_4_ + 1 y_29_ ^ 2 ] <= 2889.61
quadratic_ranged_76_ub: [ 1 x_5_ ^ 2 - 2 x_29_ * x_5_ + 1 x_29_ ^ 2 + 1 y_5_ ^ 2 - 2 y_29_ * y_5_ + 1 y_29_ ^ 2 ] <= 18617.33
quadratic_ranged_77_ub: [ 1 x_7_ ^ 2 - 2 x_29_ * x_7_ + 1 x_29_ ^ 2 + 1 y_7_ ^ 2 - 2 y_29_ * y_7_ + 1 y_29_ ^ 2 ] <= 3807.7
quadratic_ranged_78_ub: [ 1 x_28_ ^ 2 - 2 x_29_ * x_28_ + 1 x_29_ ^ 2 + 1 y_28_ ^ 2 - 2 y_29_ * y_28_ + 1 y_29_ ^ 2 ] <= 4817.7
quadratic_ranged_79_ub: [ 1 x_13_ ^ 2 - 2 x_30_ * x_13_ + 1 x_30_ ^ 2 + 1 y_13_ ^ 2 - 2 y_30_ * y_13_ + 1 y_30_ ^ 2 ] <= 15478.25
quadratic_ranged_80_ub: [ 1 x_14_ ^ 2 - 2 x_30_ * x_14_ + 1 x_30_ ^ 2 + 1 y_14_ ^ 2 - 2 y_30_ * y_14_ + 1 y_30_ ^ 2 ] <= 8989
quadratic_ranged_81_ub: [ 1 x_29_ ^ 2 - 2 x_30_ * x_29_ + 1 x_30_ ^ 2 + 1 y_29_ ^ 2 - 2 y_30_ * y_29_ + 1 y_30_ ^ 2 ] <= 2167.46
quadratic_ranged_82_ub: [ 1 x_7_ ^ 2 - 2 x_31_ * x_7_ + 1 x_31_ ^ 2 + 1 y_7_ ^ 2 - 2 y_31_ * y_7_ + 1 y_31_ ^ 2 ] <= 34138
quadratic_ranged_83_ub: [ 1 x_17_ ^ 2 - 2 x_31_ * x_17_ + 1 x_31_ ^ 2 + 1 y_17_ ^ 2 - 2 y_31_ * y_17_ + 1 y_31_ ^ 2 ] <= 18303.22
quadratic_ranged_84_ub: [ 1 x_19_ ^ 2 - 2 x_31_ * x_19_ + 1 x_31_ ^ 2 + 1 y_19_ ^ 2 - 2 y_31_ * y_19_ + 1 y_31_ ^ 2 ] <= 51235.28
quadratic_ranged_85_ub: [ 1 x_30_ ^ 2 - 2 x_31_ * x_30_ + 1 x_31_ ^ 2 + 1 y_30_ ^ 2 - 2 y_31_ * y_30_ + 1 y_31_ ^ 2 ] <= 11578.64
quadratic_ranged_86_ub: [ 1 x_18_ ^ 2 - 2 x_32_ * x_18_ + 1 x_32_ ^ 2 + 1 y_18_ ^ 2 - 2 y_32_ * y_18_ + 1 y_32_ ^ 2 ] <= 6304.42
quadratic_ranged_87_ub: [ 1 x_26_ ^ 2 - 2 x_32_ * x_26_ + 1 x_32_ ^ 2 + 1 y_26_ ^ 2 - 2 y_32_ * y_26_ + 1 y_32_ ^ 2 ] <= 31456.45
quadratic_ranged_88_ub: [ 1 x_31_ ^ 2 - 2 x_32_ * x_31_ + 1 x_32_ ^ 2 + 1 y_31_ ^ 2 - 2 y_32_ * y_31_ + 1 y_32_ ^ 2 ] <= 654.48
quadratic_ranged_89_ub: [ 1 x_9_ ^ 2 - 2 x_33_ * x_9_ + 1 x_33_ ^ 2 + 1 y_9_ ^ 2 - 2 y_33_ * y_9_ + 1 y_33_ ^ 2 ] <= 3031.01
quadratic_ranged_90_ub: [ 1 x_22_ ^ 2 - 2 x_33_ * x_22_ + 1 x_33_ ^ 2 + 1 y_22_ ^ 2 - 2 y_33_ * y_22_ + 1 y_33_ ^ 2 ] <= 24980.33
quadratic_ranged_91_ub: [ 1 x_28_ ^ 2 - 2 x_33_ * x_28_ + 1 x_33_ ^ 2 + 1 y_28_ ^ 2 - 2 y_33_ * y_28_ + 1 y_33_ ^ 2 ] <= 32465.44
quadratic_ranged_92_ub: [ 1 x_32_ ^ 2 - 2 x_33_ * x_32_ + 1 x_33_ ^ 2 + 1 y_32_ ^ 2 - 2 y_33_ * y_32_ + 1 y_33_ ^ 2 ] <= 11796.8
quadratic_ranged_93_ub: [ 1 x_25_ ^ 2 - 2 x_34_ * x_25_ + 1 x_34_ ^ 2 + 1 y_25_ ^ 2 - 2 y_34_ * y_25_ + 1 y_34_ ^ 2 ] <= 25032.85
quadratic_ranged_94_ub: [ 1 x_29_ ^ 2 - 2 x_34_ * x_29_ + 1 x_34_ ^ 2 + 1 y_29_ ^ 2 - 2 y_34_ * y_29_ + 1 y_34_ ^ 2 ] <= 11357.45
quadratic_ranged_95_ub: [ 1 x_30_ ^ 2 - 2 x_34_ * x_30_ + 1 x_34_ ^ 2 + 1 y_30_ ^ 2 - 2 y_34_ * y_30_ + 1 y_34_ ^ 2 ] <= 4133.93
quadratic_ranged_96_ub: [ 1 x_33_ ^ 2 - 2 x_34_ * x_33_ + 1 x_34_ ^ 2 + 1 y_33_ ^ 2 - 2 y_34_ * y_33_ + 1 y_34_ ^ 2 ] <= 22023.05
quadratic_ranged_97_ub: [ 1 x_8_ ^ 2 - 2 x_35_ * x_8_ + 1 x_35_ ^ 2 + 1 y_8_ ^ 2 - 2 y_35_ * y_8_ + 1 y_35_ ^ 2 ] <= 7406.33
quadratic_ranged_98_ub: [ 1 x_9_ ^ 2 - 2 x_35_ * x_9_ + 1 x_35_ ^ 2 + 1 y_9_ ^ 2 - 2 y_35_ * y_9_ + 1 y_35_ ^ 2 ] <= 10263.62
quadratic_ranged_99_ub: [ 1 x_27_ ^ 2 - 2 x_35_ * x_27_ + 1 x_35_ ^ 2 + 1 y_27_ ^ 2 - 2 y_35_ * y_27_ + 1 y_35_ ^ 2 ] <= 15871.14
quadratic_ranged_100_ub: [ 1 x_33_ ^ 2 - 2 x_35_ * x_33_ + 1 x_35_ ^ 2 + 1 y_33_ ^ 2 - 2 y_35_ * y_33_ + 1 y_35_ ^ 2 ] <= 19251.61
quadratic_ranged_101_ub: [ 1 x_34_ ^ 2 - 2 x_35_ * x_34_ + 1 x_35_ ^ 2 + 1 y_34_ ^ 2 - 2 y_35_ * y_34_ + 1 y_35_ ^ 2 ] <= 40581.8
quadratic_ranged_102_ub: [ 1 x_5_ ^ 2 - 2 x_36_ * x_5_ + 1 x_36_ ^ 2 + 1 y_5_ ^ 2 - 2 y_36_ * y_5_ + 1 y_36_ ^ 2 ] <= 37779.05
quadratic_ranged_103_ub: [ 1 x_8_ ^ 2 - 2 x_36_ * x_8_ + 1 x_36_ ^ 2 + 1 y_8_ ^ 2 - 2 y_36_ * y_8_ + 1 y_36_ ^ 2 ] <= 8615.3
quadratic_ranged_104_ub: [ 1 x_9_ ^ 2 - 2 x_36_ * x_9_ + 1 x_36_ ^ 2 + 1 y_9_ ^ 2 - 2 y_36_ * y_9_ + 1 y_36_ ^ 2 ] <= 13042.130000000001
quadratic_ranged_105_ub: [ 1 x_10_ ^ 2 - 2 x_36_ * x_10_ + 1 x_36_ ^ 2 + 1 y_10_ ^ 2 - 2 y_36_ * y_10_ + 1 y_36_ ^ 2 ] <= 6286.24
quadratic_ranged_106_ub: [ 1 x_14_ ^ 2 - 2 x_36_ * x_14_ + 1 x_36_ ^ 2 + 1 y_14_ ^ 2 - 2 y_36_ * y_14_ + 1 y_36_ ^ 2 ] <= 45088.42
quadratic_ranged_107_ub: [ 1 x_35_ ^ 2 - 2 x_36_ * x_35_ + 1 x_36_ ^ 2 + 1 y_35_ ^ 2 - 2 y_36_ * y_35_ + 1 y_36_ ^ 2 ] <= 247.45
quadratic_ranged_108_ub: [ 1 x_36_ ^ 2 - 2 x_37_ * x_36_ + 1 x_37_ ^ 2 + 1 y_36_ ^ 2 - 2 y_37_ * y_36_ + 1 y_37_ ^ 2 ] <= 13615.81
quadratic_ranged_109_ub: [ 1 x_2_ ^ 2 - 2 x_38_ * x_2_ + 1 x_38_ ^ 2 + 1 y_2_ ^ 2 - 2 y_38_ * y_2_ + 1 y_38_ ^ 2 ] <= 20003.05
quadratic_ranged_110_ub: [ 1 x_11_ ^ 2 - 2 x_38_ * x_11_ + 1 x_38_ ^ 2 + 1 y_11_ ^ 2 - 2 y_38_ * y_11_ + 1 y_38_ ^ 2 ] <= 1483.69
quadratic_ranged_111_ub: [ 1 x_18_ ^ 2 - 2 x_38_ * x_18_ + 1 x_38_ ^ 2 + 1 y_18_ ^ 2 - 2 y_38_ * y_18_ + 1 y_38_ ^ 2 ] <= 28288.08
quadratic_ranged_112_ub: [ 1 x_24_ ^ 2 - 2 x_38_ * x_24_ + 1 x_38_ ^ 2 + 1 y_24_ ^ 2 - 2 y_38_ * y_24_ + 1 y_38_ ^ 2 ] <= 16993.25
quadratic_ranged_113_ub: [ 1 x_28_ ^ 2 - 2 x_38_ * x_28_ + 1 x_38_ ^ 2 + 1 y_28_ ^ 2 - 2 y_38_ * y_28_ + 1 y_38_ ^ 2 ] <= 39060.74
quadratic_ranged_114_ub: [ 1 x_34_ ^ 2 - 2 x_38_ * x_34_ + 1 x_38_ ^ 2 + 1 y_34_ ^ 2 - 2 y_38_ * y_34_ + 1 y_38_ ^ 2 ] <= 34316.77
quadratic_ranged_115_ub: [ 1 x_35_ ^ 2 - 2 x_38_ * x_35_ + 1 x_38_ ^ 2 + 1 y_35_ ^ 2 - 2 y_38_ * y_35_ + 1 y_38_ ^ 2 ] <= 7761.85
quadratic_ranged_116_ub: [ 1 x_37_ ^ 2 - 2 x_38_ * x_37_ + 1 x_38_ ^ 2 + 1 y_37_ ^ 2 - 2 y_38_ * y_37_ + 1 y_38_ ^ 2 ] <= 263.61
quadratic_ranged_117_ub: [ 1 x_7_ ^ 2 - 2 x_39_ * x_7_ + 1 x_39_ ^ 2 + 1 y_7_ ^ 2 - 2 y_39_ * y_7_ + 1 y_39_ ^ 2 ] <= 5276.24
quadratic_ranged_118_ub: [ 1 x_12_ ^ 2 - 2 x_39_ * x_12_ + 1 x_39_ ^ 2 + 1 y_12_ ^ 2 - 2 y_39_ * y_12_ + 1 y_39_ ^ 2 ] <= 6222.61
quadratic_ranged_119_ub: [ 1 x_25_ ^ 2 - 2 x_39_ * x_25_ + 1 x_39_ ^ 2 + 1 y_25_ ^ 2 - 2 y_39_ * y_25_ + 1 y_39_ ^ 2 ] <= 15545.92
quadratic_ranged_120_ub: [ 1 x_31_ ^ 2 - 2 x_39_ * x_31_ + 1 x_39_ ^ 2 + 1 y_31_ ^ 2 - 2 y_39_ * y_31_ + 1 y_39_ ^ 2 ] <= 12572.48
quadratic_ranged_121_ub: [ 1 x_38_ ^ 2 - 2 x_39_ * x_38_ + 1 x_39_ ^ 2 + 1 y_38_ ^ 2 - 2 y_39_ * y_38_ + 1 y_39_ ^ 2 ] <= 31029.22
quadratic_ranged_122_ub: [ 1 x_4_ ^ 2 - 2 x_40_ * x_4_ + 1 x_40_ ^ 2 + 1 y_4_ ^ 2 - 2 y_40_ * y_4_ + 1 y_40_ ^ 2 ] <= 2004.85
quadratic_ranged_123_ub: [ 1 x_13_ ^ 2 - 2 x_40_ * x_13_ + 1 x_40_ ^ 2 + 1 y_13_ ^ 2 - 2 y_40_ * y_13_ + 1 y_40_ ^ 2 ] <= 20051.53
quadratic_ranged_124_ub: [ 1 x_24_ ^ 2 - 2 x_40_ * x_24_ + 1 x_40_ ^ 2 + 1 y_24_ ^ 2 - 2 y_40_ * y_24_ + 1 y_40_ ^ 2 ] <= 2449.25
quadratic_ranged_125_ub: [ 1 x_39_ ^ 2 - 2 x_40_ * x_39_ + 1 x_40_ ^ 2 + 1 y_39_ ^ 2 - 2 y_40_ * y_39_ + 1 y_40_ ^ 2 ] <= 2094.7400000000002
quadratic_ranged_126_ub: [ 1 x_13_ ^ 2 - 2 x_41_ * x_13_ + 1 x_41_ ^ 2 + 1 y_13_ ^ 2 - 2 y_41_ * y_13_ + 1 y_41_ ^ 2 ] <= 18463.81
quadratic_ranged_127_ub: [ 1 x_17_ ^ 2 - 2 x_41_ * x_17_ + 1 x_41_ ^ 2 + 1 y_17_ ^ 2 - 2 y_41_ * y_17_ + 1 y_41_ ^ 2 ] <= 4050.1
quadratic_ranged_128_ub: [ 1 x_21_ ^ 2 - 2 x_41_ * x_21_ + 1 x_41_ ^ 2 + 1 y_21_ ^ 2 - 2 y_41_ * y_21_ + 1 y_41_ ^ 2 ] <= 11284.73
quadratic_ranged_129_ub: [ 1 x_29_ ^ 2 - 2 x_41_ * x_29_ + 1 x_41_ ^ 2 + 1 y_29_ ^ 2 - 2 y_41_ * y_29_ + 1 y_41_ ^ 2 ] <= 2337.14
quadratic_ranged_130_ub: [ 1 x_30_ ^ 2 - 2 x_41_ * x_30_ + 1 x_41_ ^ 2 + 1 y_30_ ^ 2 - 2 y_41_ * y_30_ + 1 y_41_ ^ 2 ] <= 137.36
quadratic_ranged_131_ub: [ 1 x_37_ ^ 2 - 2 x_41_ * x_37_ + 1 x_41_ ^ 2 + 1 y_37_ ^ 2 - 2 y_41_ * y_37_ + 1 y_41_ ^ 2 ] <= 24329.89
quadratic_ranged_132_ub: [ 1 x_39_ ^ 2 - 2 x_41_ * x_39_ + 1 x_41_ ^ 2 + 1 y_39_ ^ 2 - 2 y_41_ * y_39_ + 1 y_41_ ^ 2 ] <= 549.44
quadratic_ranged_133_ub: [ 1 x_40_ ^ 2 - 2 x_41_ * x_40_ + 1 x_41_ ^ 2 + 1 y_40_ ^ 2 - 2 y_41_ * y_40_ + 1 y_41_ ^ 2 ] <= 1270.58
quadratic_ranged_134_ub: [ 1 x_7_ ^ 2 - 2 x_42_ * x_7_ + 1 x_42_ ^ 2 + 1 y_7_ ^ 2 - 2 y_42_ * y_7_ + 1 y_42_ ^ 2 ] <= 27253.84
quadratic_ranged_135_ub: [ 1 x_25_ ^ 2 - 2 x_42_ * x_25_ + 1 x_42_ ^ 2 + 1 y_25_ ^ 2 - 2 y_42_ * y_25_ + 1 y_42_ ^ 2 ] <= 1567.52
quadratic_ranged_136_ub: [ 1 x_41_ ^ 2 - 2 x_42_ * x_41_ + 1 x_42_ ^ 2 + 1 y_41_ ^ 2 - 2 y_42_ * y_41_ + 1 y_42_ ^ 2 ] <= 15335.84
quadratic_ranged_137_ub: [ 1 x_2_ ^ 2 - 2 x_43_ * x_2_ + 1 x_43_ ^ 2 + 1 y_2_ ^ 2 - 2 y_43_ * y_2_ + 1 y_43_ ^ 2 ] <= 2994.65
quadratic_ranged_138_ub: [ 1 x_9_ ^ 2 - 2 x_43_ * x_9_ + 1 x_43_ ^ 2 + 1 y_9_ ^ 2 - 2 y_43_ * y_9_ + 1 y_43_ ^ 2 ] <= 13223.93
quadratic_ranged_139_ub: [ 1 x_11_ ^ 2 - 2 x_43_ * x_11_ + 1 x_43_ ^ 2 + 1 y_11_ ^ 2 - 2 y_43_ * y_11_ + 1 y_43_ ^ 2 ] <= 4004.65
quadratic_ranged_140_ub: [ 1 x_16_ ^ 2 - 2 x_43_ * x_16_ + 1 x_43_ ^ 2 + 1 y_16_ ^ 2 - 2 y_43_ * y_16_ + 1 y_43_ ^ 2 ] <= 11958.4
quadratic_ranged_141_ub: [ 1 x_33_ ^ 2 - 2 x_43_ * x_33_ + 1 x_43_ ^ 2 + 1 y_33_ ^ 2 - 2 y_43_ * y_33_ + 1 y_43_ ^ 2 ] <= 22674.5
quadratic_ranged_142_ub: [ 1 x_35_ ^ 2 - 2 x_43_ * x_35_ + 1 x_43_ ^ 2 + 1 y_35_ ^ 2 - 2 y_43_ * y_35_ + 1 y_43_ ^ 2 ] <= 198.97
quadratic_ranged_143_ub: [ 1 x_42_ ^ 2 - 2 x_43_ * x_42_ + 1 x_43_ ^ 2 + 1 y_42_ ^ 2 - 2 y_43_ * y_42_ + 1 y_43_ ^ 2 ] <= 3363.3
quadratic_ranged_144_ub: [ 1 x_34_ ^ 2 - 2 x_44_ * x_34_ + 1 x_44_ ^ 2 + 1 y_34_ ^ 2 - 2 y_44_ * y_34_ + 1 y_44_ ^ 2 ] <= 154.53
quadratic_ranged_145_ub: [ 1 x_43_ ^ 2 - 2 x_44_ * x_43_ + 1 x_44_ ^ 2 + 1 y_43_ ^ 2 - 2 y_44_ * y_43_ + 1 y_44_ ^ 2 ] <= 39188
quadratic_ranged_146_ub: [ 1 x_9_ ^ 2 - 2 x_45_ * x_9_ + 1 x_45_ ^ 2 + 1 y_9_ ^ 2 - 2 y_45_ * y_9_ + 1 y_45_ ^ 2 ] <= 1023.13
quadratic_ranged_147_ub: [ 1 x_26_ ^ 2 - 2 x_45_ * x_26_ + 1 x_45_ ^ 2 + 1 y_26_ ^ 2 - 2 y_45_ * y_26_ + 1 y_45_ ^ 2 ] <= 4958.09
quadratic_ranged_148_ub: [ 1 x_33_ ^ 2 - 2 x_45_ * x_33_ + 1 x_45_ ^ 2 + 1 y_33_ ^ 2 - 2 y_45_ * y_33_ + 1 y_45_ ^ 2 ] <= 2573.48
quadratic_ranged_149_ub: [ 1 x_44_ ^ 2 - 2 x_45_ * x_44_ + 1 x_45_ ^ 2 + 1 y_44_ ^ 2 - 2 y_45_ * y_44_ + 1 y_45_ ^ 2 ] <= 25260.1
quadratic_ranged_150_ub: [ 1 x_34_ ^ 2 - 2 x_46_ * x_34_ + 1 x_46_ ^ 2 + 1 y_34_ ^ 2 - 2 y_46_ * y_34_ + 1 y_46_ ^ 2 ] <= 44246.08
quadratic_ranged_151_ub: [ 1 x_42_ ^ 2 - 2 x_46_ * x_42_ + 1 x_46_ ^ 2 + 1 y_42_ ^ 2 - 2 y_46_ * y_42_ + 1 y_46_ ^ 2 ] <= 8048.6900000000005
quadratic_ranged_152_ub: [ 1 x_45_ ^ 2 - 2 x_46_ * x_45_ + 1 x_46_ ^ 2 + 1 y_45_ ^ 2 - 2 y_46_ * y_45_ + 1 y_46_ ^ 2 ] <= 17457.85
quadratic_ranged_153_ub: [ 1 x_5_ ^ 2 - 2 x_47_ * x_5_ + 1 x_47_ ^ 2 + 1 y_5_ ^ 2 - 2 y_47_ * y_5_ + 1 y_47_ ^ 2 ] <= 34737.94
quadratic_ranged_154_ub: [ 1 x_29_ ^ 2 - 2 x_47_ * x_29_ + 1 x_47_ ^ 2 + 1 y_29_ ^ 2 - 2 y_47_ * y_29_ + 1 y_47_ ^ 2 ] <= 8004.25
quadratic_ranged_155_ub: [ 1 x_32_ ^ 2 - 2 x_47_ * x_32_ + 1 x_47_ ^ 2 + 1 y_32_ ^ 2 - 2 y_47_ * y_32_ + 1 y_47_ ^ 2 ] <= 45188.41
quadratic_ranged_156_ub: [ 1 x_33_ ^ 2 - 2 x_47_ * x_33_ + 1 x_47_ ^ 2 + 1 y_33_ ^ 2 - 2 y_47_ * y_33_ + 1 y_47_ ^ 2 ] <= 22216.97
quadratic_ranged_157_ub: [ 1 x_46_ ^ 2 - 2 x_47_ * x_46_ + 1 x_47_ ^ 2 + 1 y_46_ ^ 2 - 2 y_47_ * y_46_ + 1 y_47_ ^ 2 ] <= 1050.4
quadratic_ranged_158_ub: [ 1 x_4_ ^ 2 - 2 x_48_ * x_4_ + 1 x_48_ ^ 2 + 1 y_4_ ^ 2 - 2 y_48_ * y_4_ + 1 y_48_ ^ 2 ] <= 7516.42
quadratic_ranged_159_ub: [ 1 x_6_ ^ 2 - 2 x_48_ * x_6_ + 1 x_48_ ^ 2 + 1 y_6_ ^ 2 - 2 y_48_ * y_6_ + 1 y_48_ ^ 2 ] <= 5431.78
quadratic_ranged_160_ub: [ 1 x_23_ ^ 2 - 2 x_48_ * x_23_ + 1 x_48_ ^ 2 + 1 y_23_ ^ 2 - 2 y_48_ * y_23_ + 1 y_48_ ^ 2 ] <= 4004.65
quadratic_ranged_161_ub: [ 1 x_32_ ^ 2 - 2 x_48_ * x_32_ + 1 x_48_ ^ 2 + 1 y_32_ ^ 2 - 2 y_48_ * y_32_ + 1 y_48_ ^ 2 ] <= 691.85
quadratic_ranged_162_ub: [ 1 x_47_ ^ 2 - 2 x_48_ * x_47_ + 1 x_48_ ^ 2 + 1 y_47_ ^ 2 - 2 y_48_ * y_47_ + 1 y_48_ ^ 2 ] <= 39198.1
quadratic_ranged_163_ub: [ 1 x_10_ ^ 2 - 2 x_49_ * x_10_ + 1 x_49_ ^ 2 + 1 y_10_ ^ 2 - 2 y_49_ * y_10_ + 1 y_49_ ^ 2 ] <= 6661.96
quadratic_ranged_164_ub: [ 1 x_11_ ^ 2 - 2 x_49_ * x_11_ + 1 x_49_ ^ 2 + 1 y_11_ ^ 2 - 2 y_49_ * y_11_ + 1 y_49_ ^ 2 ] <= 11854.37
quadratic_ranged_165_ub: [ 1 x_33_ ^ 2 - 2 x_49_ * x_33_ + 1 x_49_ ^ 2 + 1 y_33_ ^ 2 - 2 y_49_ * y_33_ + 1 y_49_ ^ 2 ] <= 15055.06
quadratic_ranged_166_ub: [ 1 x_39_ ^ 2 - 2 x_49_ * x_39_ + 1 x_49_ ^ 2 + 1 y_39_ ^ 2 - 2 y_49_ * y_39_ + 1 y_49_ ^ 2 ] <= 3330.98
quadratic_ranged_167_ub: [ 1 x_48_ ^ 2 - 2 x_49_ * x_48_ + 1 x_49_ ^ 2 + 1 y_48_ ^ 2 - 2 y_49_ * y_48_ + 1 y_49_ ^ 2 ] <= 13684.49
quadratic_ranged_168_ub: [ 1 x_32_ ^ 2 - 2 x_50_ * x_32_ + 1 x_50_ ^ 2 + 1 y_32_ ^ 2 - 2 y_50_ * y_32_ + 1 y_50_ ^ 2 ] <= 38134.57
quadratic_ranged_169_ub: [ 1 x_33_ ^ 2 - 2 x_50_ * x_33_ + 1 x_50_ ^ 2 + 1 y_33_ ^ 2 - 2 y_50_ * y_33_ + 1 y_50_ ^ 2 ] <= 26555.93
quadratic_ranged_170_ub: [ 1 x_47_ ^ 2 - 2 x_50_ * x_47_ + 1 x_50_ ^ 2 + 1 y_47_ ^ 2 - 2 y_50_ * y_47_ + 1 y_50_ ^ 2 ] <= 3282.5
quadratic_ranged_171_ub: [ 1 x_48_ ^ 2 - 2 x_50_ * x_48_ + 1 x_50_ ^ 2 + 1 y_48_ ^ 2 - 2 y_50_ * y_48_ + 1 y_50_ ^ 2 ] <= 30720.16
quadratic_ranged_172_ub: [ 1 x_49_ ^ 2 - 2 x_50_ * x_49_ + 1 x_50_ ^ 2 + 1 y_49_ ^ 2 - 2 y_50_ * y_49_ + 1 y_50_ ^ 2 ] <= 3398.65
quadratic_ranged_173_ub: [ 1 x_7_ ^ 2 - 2 x_51_ * x_7_ + 1 x_51_ ^ 2 + 1 y_7_ ^ 2 - 2 y_51_ * y_7_ + 1 y_51_ ^ 2 ] <= 12702.77
quadratic_ranged_174_ub: [ 1 x_8_ ^ 2 - 2 x_51_ * x_8_ + 1 x_51_ ^ 2 + 1 y_8_ ^ 2 - 2 y_51_ * y_8_ + 1 y_51_ ^ 2 ] <= 14908.61
quadratic_ranged_175_ub: [ 1 x_14_ ^ 2 - 2 x_51_ * x_14_ + 1 x_51_ ^ 2 + 1 y_14_ ^ 2 - 2 y_51_ * y_14_ + 1 y_51_ ^ 2 ] <= 45758.05
quadratic_ranged_176_ub: [ 1 x_21_ ^ 2 - 2 x_51_ * x_21_ + 1 x_51_ ^ 2 + 1 y_21_ ^ 2 - 2 y_51_ * y_21_ + 1 y_51_ ^ 2 ] <= 31368.58
quadratic_ranged_177_ub: [ 1 x_22_ ^ 2 - 2 x_51_ * x_22_ + 1 x_51_ ^ 2 + 1 y_22_ ^ 2 - 2 y_51_ * y_22_ + 1 y_51_ ^ 2 ] <= 30098
quadratic_ranged_178_ub: [ 1 x_37_ ^ 2 - 2 x_51_ * x_37_ + 1 x_51_ ^ 2 + 1 y_37_ ^ 2 - 2 y_51_ * y_37_ + 1 y_51_ ^ 2 ] <= 25472.2
quadratic_ranged_179_ub: [ 1 x_50_ ^ 2 - 2 x_51_ * x_50_ + 1 x_51_ ^ 2 + 1 y_50_ ^ 2 - 2 y_51_ * y_50_ + 1 y_51_ ^ 2 ] <= 1656.4
quadratic_ranged_180_ub: [ 1 x_7_ ^ 2 - 2 x_52_ * x_7_ + 1 x_52_ ^ 2 + 1 y_7_ ^ 2 - 2 y_52_ * y_7_ + 1 y_52_ ^ 2 ] <= 15545.92
quadratic_ranged_181_ub: [ 1 x_10_ ^ 2 - 2 x_52_ * x_10_ + 1 x_52_ ^ 2 + 1 y_10_ ^ 2 - 2 y_52_ * y_10_ + 1 y_52_ ^ 2 ] <= 3638.02
quadratic_ranged_182_ub: [ 1 x_11_ ^ 2 - 2 x_52_ * x_11_ + 1 x_52_ ^ 2 + 1 y_11_ ^ 2 - 2 y_52_ * y_11_ + 1 y_52_ ^ 2 ] <= 8949.61
quadratic_ranged_183_ub: [ 1 x_32_ ^ 2 - 2 x_52_ * x_32_ + 1 x_52_ ^ 2 + 1 y_32_ ^ 2 - 2 y_52_ * y_32_ + 1 y_52_ ^ 2 ] <= 11699.84
quadratic_ranged_184_ub: [ 1 x_40_ ^ 2 - 2 x_52_ * x_40_ + 1 x_52_ ^ 2 + 1 y_40_ ^ 2 - 2 y_52_ * y_40_ + 1 y_52_ ^ 2 ] <= 4122.82
quadratic_ranged_185_ub: [ 1 x_42_ ^ 2 - 2 x_52_ * x_42_ + 1 x_52_ ^ 2 + 1 y_42_ ^ 2 - 2 y_52_ * y_42_ + 1 y_52_ ^ 2 ] <= 6181.2
quadratic_ranged_186_ub: [ 1 x_47_ ^ 2 - 2 x_52_ * x_47_ + 1 x_52_ ^ 2 + 1 y_47_ ^ 2 - 2 y_52_ * y_47_ + 1 y_52_ ^ 2 ] <= 11058.49
quadratic_ranged_187_ub: [ 1 x_48_ ^ 2 - 2 x_52_ * x_48_ + 1 x_52_ ^ 2 + 1 y_48_ ^ 2 - 2 y_52_ * y_48_ + 1 y_52_ ^ 2 ] <= 8626.41
quadratic_ranged_188_ub: [ 1 x_49_ ^ 2 - 2 x_52_ * x_49_ + 1 x_52_ ^ 2 + 1 y_49_ ^ 2 - 2 y_52_ * y_49_ + 1 y_52_ ^ 2 ] <= 1561.46
quadratic_ranged_189_ub: [ 1 x_51_ ^ 2 - 2 x_52_ * x_51_ + 1 x_52_ ^ 2 + 1 y_51_ ^ 2 - 2 y_52_ * y_51_ + 1 y_52_ ^ 2 ] <= 14633.89
quadratic_ranged_190_ub: [ 1 x_19_ ^ 2 - 2 x_53_ * x_19_ + 1 x_53_ ^ 2 + 1 y_19_ ^ 2 - 2 y_53_ * y_19_ + 1 y_53_ ^ 2 ] <= 23856.2
quadratic_ranged_191_ub: [ 1 x_29_ ^ 2 - 2 x_53_ * x_29_ + 1 x_53_ ^ 2 + 1 y_29_ ^ 2 - 2 y_53_ * y_29_ + 1 y_53_ ^ 2 ] <= 21187.78
quadratic_ranged_192_ub: [ 1 x_52_ ^ 2 - 2 x_53_ * x_52_ + 1 x_53_ ^ 2 + 1 y_52_ ^ 2 - 2 y_53_ * y_52_ + 1 y_53_ ^ 2 ] <= 6565
quadratic_ranged_193_ub: [ 1 x_24_ ^ 2 - 2 x_54_ * x_24_ + 1 x_54_ ^ 2 + 1 y_24_ ^ 2 - 2 y_54_ * y_24_ + 1 y_54_ ^ 2 ] <= 4371.28
quadratic_ranged_194_ub: [ 1 x_45_ ^ 2 - 2 x_54_ * x_45_ + 1 x_54_ ^ 2 + 1 y_45_ ^ 2 - 2 y_54_ * y_45_ + 1 y_54_ ^ 2 ] <= 26050.93
quadratic_ranged_195_ub: [ 1 x_47_ ^ 2 - 2 x_54_ * x_47_ + 1 x_54_ ^ 2 + 1 y_47_ ^ 2 - 2 y_54_ * y_47_ + 1 y_54_ ^ 2 ] <= 14206.66
quadratic_ranged_196_ub: [ 1 x_53_ ^ 2 - 2 x_54_ * x_53_ + 1 x_54_ ^ 2 + 1 y_53_ ^ 2 - 2 y_54_ * y_53_ + 1 y_54_ ^ 2 ] <= 32547.25
quadratic_ranged_197_ub: [ 1 x_8_ ^ 2 - 2 x_55_ * x_8_ + 1 x_55_ ^ 2 + 1 y_8_ ^ 2 - 2 y_55_ * y_8_ + 1 y_55_ ^ 2 ] <= 5964.05
quadratic_ranged_198_ub: [ 1 x_26_ ^ 2 - 2 x_55_ * x_26_ + 1 x_55_ ^ 2 + 1 y_26_ ^ 2 - 2 y_55_ * y_26_ + 1 y_55_ ^ 2 ] <= 15933.76
quadratic_ranged_199_ub: [ 1 x_29_ ^ 2 - 2 x_55_ * x_29_ + 1 x_55_ ^ 2 + 1 y_29_ ^ 2 - 2 y_55_ * y_29_ + 1 y_55_ ^ 2 ] <= 17397.25
quadratic_ranged_200_ub: [ 1 x_33_ ^ 2 - 2 x_55_ * x_33_ + 1 x_55_ ^ 2 + 1 y_33_ ^ 2 - 2 y_55_ * y_33_ + 1 y_55_ ^ 2 ] <= 2772.45
quadratic_ranged_201_ub: [ 1 x_38_ ^ 2 - 2 x_55_ * x_38_ + 1 x_55_ ^ 2 + 1 y_38_ ^ 2 - 2 y_55_ * y_38_ + 1 y_55_ ^ 2 ] <= 11369.57
quadratic_ranged_202_ub: [ 1 x_53_ ^ 2 - 2 x_55_ * x_53_ + 1 x_55_ ^ 2 + 1 y_53_ ^ 2 - 2 y_55_ * y_53_ + 1 y_55_ ^ 2 ] <= 3091.61
quadratic_ranged_203_ub: [ 1 x_54_ ^ 2 - 2 x_55_ * x_54_ + 1 x_55_ ^ 2 + 1 y_54_ ^ 2 - 2 y_55_ * y_54_ + 1 y_55_ ^ 2 ] <= 25540.88
quadratic_ranged_204_ub: [ 1 x_31_ ^ 2 - 2 x_56_ * x_31_ + 1 x_56_ ^ 2 + 1 y_31_ ^ 2 - 2 y_56_ * y_31_ + 1 y_56_ ^ 2 ] <= 32647.24
quadratic_ranged_205_ub: [ 1 x_42_ ^ 2 - 2 x_56_ * x_42_ + 1 x_56_ ^ 2 + 1 y_42_ ^ 2 - 2 y_56_ * y_42_ + 1 y_56_ ^ 2 ] <= 16018.6
quadratic_ranged_206_ub: [ 1 x_53_ ^ 2 - 2 x_56_ * x_53_ + 1 x_56_ ^ 2 + 1 y_53_ ^ 2 - 2 y_56_ * y_53_ + 1 y_56_ ^ 2 ] <= 30833.28
quadratic_ranged_207_ub: [ 1 x_55_ ^ 2 - 2 x_56_ * x_55_ + 1 x_56_ ^ 2 + 1 y_55_ ^ 2 - 2 y_56_ * y_55_ + 1 y_56_ ^ 2 ] <= 26555.93
quadratic_ranged_208_ub: [ 1 x_1_ ^ 2 - 2 x_57_ * x_1_ + 1 x_57_ ^ 2 + 1 y_1_ ^ 2 - 2 y_57_ * y_1_ + 1 y_57_ ^ 2 ] <= 7815.38
quadratic_ranged_209_ub: [ 1 x_6_ ^ 2 - 2 x_57_ * x_6_ + 1 x_57_ ^ 2 + 1 y_6_ ^ 2 - 2 y_57_ * y_6_ + 1 y_57_ ^ 2 ] <= 11236.25
quadratic_ranged_210_ub: [ 1 x_12_ ^ 2 - 2 x_57_ * x_12_ + 1 x_57_ ^ 2 + 1 y_12_ ^ 2 - 2 y_57_ * y_12_ + 1 y_57_ ^ 2 ] <= 2194.73
quadratic_ranged_211_ub: [ 1 x_18_ ^ 2 - 2 x_57_ * x_18_ + 1 x_57_ ^ 2 + 1 y_18_ ^ 2 - 2 y_57_ * y_18_ + 1 y_57_ ^ 2 ] <= 12322
quadratic_ranged_212_ub: [ 1 x_23_ ^ 2 - 2 x_57_ * x_23_ + 1 x_57_ ^ 2 + 1 y_23_ ^ 2 - 2 y_57_ * y_23_ + 1 y_57_ ^ 2 ] <= 15281.3
quadratic_ranged_213_ub: [ 1 x_29_ ^ 2 - 2 x_57_ * x_29_ + 1 x_57_ ^ 2 + 1 y_29_ ^ 2 - 2 y_57_ * y_29_ + 1 y_57_ ^ 2 ] <= 5353
quadratic_ranged_214_ub: [ 1 x_31_ ^ 2 - 2 x_57_ * x_31_ + 1 x_57_ ^ 2 + 1 y_31_ ^ 2 - 2 y_57_ * y_31_ + 1 y_57_ ^ 2 ] <= 21381.7
quadratic_ranged_215_ub: [ 1 x_43_ ^ 2 - 2 x_57_ * x_43_ + 1 x_57_ ^ 2 + 1 y_43_ ^ 2 - 2 y_57_ * y_43_ + 1 y_57_ ^ 2 ] <= 6997.28
quadratic_ranged_216_ub: [ 1 x_56_ ^ 2 - 2 x_57_ * x_56_ + 1 x_57_ ^ 2 + 1 y_56_ ^ 2 - 2 y_57_ * y_56_ + 1 y_57_ ^ 2 ] <= 10045.460000000001
quadratic_ranged_217_ub: [ 1 x_13_ ^ 2 - 2 x_58_ * x_13_ + 1 x_58_ ^ 2 + 1 y_13_ ^ 2 - 2 y_58_ * y_13_ + 1 y_58_ ^ 2 ] <= 26838.73
quadratic_ranged_218_ub: [ 1 x_18_ ^ 2 - 2 x_58_ * x_18_ + 1 x_58_ ^ 2 + 1 y_18_ ^ 2 - 2 y_58_ * y_18_ + 1 y_58_ ^ 2 ] <= 29429.38
quadratic_ranged_219_ub: [ 1 x_21_ ^ 2 - 2 x_58_ * x_21_ + 1 x_58_ ^ 2 + 1 y_21_ ^ 2 - 2 y_58_ * y_21_ + 1 y_58_ ^ 2 ] <= 32482.61
quadratic_ranged_220_ub: [ 1 x_24_ ^ 2 - 2 x_58_ * x_24_ + 1 x_58_ ^ 2 + 1 y_24_ ^ 2 - 2 y_58_ * y_24_ + 1 y_58_ ^ 2 ] <= 2138.17
quadratic_ranged_221_ub: [ 1 x_38_ ^ 2 - 2 x_58_ * x_38_ + 1 x_58_ ^ 2 + 1 y_38_ ^ 2 - 2 y_58_ * y_38_ + 1 y_58_ ^ 2 ] <= 23272.420000000002
quadratic_ranged_222_ub: [ 1 x_52_ ^ 2 - 2 x_58_ * x_52_ + 1 x_58_ ^ 2 + 1 y_52_ ^ 2 - 2 y_58_ * y_52_ + 1 y_58_ ^ 2 ] <= 14984.36
quadratic_ranged_223_ub: [ 1 x_55_ ^ 2 - 2 x_58_ * x_55_ + 1 x_58_ ^ 2 + 1 y_55_ ^ 2 - 2 y_58_ * y_55_ + 1 y_58_ ^ 2 ] <= 34870.25
quadratic_ranged_224_ub: [ 1 x_57_ ^ 2 - 2 x_58_ * x_57_ + 1 x_58_ ^ 2 + 1 y_57_ ^ 2 - 2 y_58_ * y_57_ + 1 y_58_ ^ 2 ] <= 10037.38
quadratic_ranged_225_ub: [ 1 x_4_ ^ 2 - 2 x_59_ * x_4_ + 1 x_59_ ^ 2 + 1 y_4_ ^ 2 - 2 y_59_ * y_4_ + 1 y_59_ ^ 2 ] <= 2815.88
quadratic_ranged_226_ub: [ 1 x_16_ ^ 2 - 2 x_59_ * x_16_ + 1 x_59_ ^ 2 + 1 y_16_ ^ 2 - 2 y_59_ * y_16_ + 1 y_59_ ^ 2 ] <= 11151.41
quadratic_ranged_227_ub: [ 1 x_33_ ^ 2 - 2 x_59_ * x_33_ + 1 x_59_ ^ 2 + 1 y_33_ ^ 2 - 2 y_59_ * y_33_ + 1 y_59_ ^ 2 ] <= 4162.21
quadratic_ranged_228_ub: [ 1 x_35_ ^ 2 - 2 x_59_ * x_35_ + 1 x_59_ ^ 2 + 1 y_35_ ^ 2 - 2 y_59_ * y_35_ + 1 y_59_ ^ 2 ] <= 11578.64
quadratic_ranged_229_ub: [ 1 x_55_ ^ 2 - 2 x_59_ * x_55_ + 1 x_59_ ^ 2 + 1 y_55_ ^ 2 - 2 y_59_ * y_55_ + 1 y_59_ ^ 2 ] <= 3395.62
quadratic_ranged_230_ub: [ 1 x_56_ ^ 2 - 2 x_59_ * x_56_ + 1 x_59_ ^ 2 + 1 y_56_ ^ 2 - 2 y_59_ * y_56_ + 1 y_59_ ^ 2 ] <= 13478.45
quadratic_ranged_231_ub: [ 1 x_58_ ^ 2 - 2 x_59_ * x_58_ + 1 x_59_ ^ 2 + 1 y_58_ ^ 2 - 2 y_59_ * y_58_ + 1 y_59_ ^ 2 ] <= 16742.77
quadratic_ranged_232_ub: [ 1 x_3_ ^ 2 - 2 x_60_ * x_3_ + 1 x_60_ ^ 2 + 1 y_3_ ^ 2 - 2 y_60_ * y_3_ + 1 y_60_ ^ 2 ] <= 5879.21
quadratic_ranged_233_ub: [ 1 x_18_ ^ 2 - 2 x_60_ * x_18_ + 1 x_60_ ^ 2 + 1 y_18_ ^ 2 - 2 y_60_ * y_18_ + 1 y_60_ ^ 2 ] <= 5252
quadratic_ranged_234_ub: [ 1 x_28_ ^ 2 - 2 x_60_ * x_28_ + 1 x_60_ ^ 2 + 1 y_28_ ^ 2 - 2 y_60_ * y_28_ + 1 y_60_ ^ 2 ] <= 10489.86
quadratic_ranged_235_ub: [ 1 x_31_ ^ 2 - 2 x_60_ * x_31_ + 1 x_60_ ^ 2 + 1 y_31_ ^ 2 - 2 y_60_ * y_31_ + 1 y_60_ ^ 2 ] <= 11281.7
quadratic_ranged_236_ub: [ 1 x_39_ ^ 2 - 2 x_60_ * x_39_ + 1 x_60_ ^ 2 + 1 y_39_ ^ 2 - 2 y_60_ * y_39_ + 1 y_60_ ^ 2 ] <= 6385.22
quadratic_ranged_237_ub: [ 1 x_46_ ^ 2 - 2 x_60_ * x_46_ + 1 x_60_ ^ 2 + 1 y_46_ ^ 2 - 2 y_60_ * y_46_ + 1 y_60_ ^ 2 ] <= 19599.05
quadratic_ranged_238_ub: [ 1 x_59_ ^ 2 - 2 x_60_ * x_59_ + 1 x_60_ ^ 2 + 1 y_59_ ^ 2 - 2 y_60_ * y_59_ + 1 y_60_ ^ 2 ] <= 392.89
quadratic_ranged_239_ub: [ 1 x_10_ ^ 2 - 2 x_61_ * x_10_ + 1 x_61_ ^ 2 + 1 y_10_ ^ 2 - 2 y_61_ * y_10_ + 1 y_61_ ^ 2 ] <= 21306.96
quadratic_ranged_240_ub: [ 1 x_19_ ^ 2 - 2 x_61_ * x_19_ + 1 x_61_ ^ 2 + 1 y_19_ ^ 2 - 2 y_61_ * y_19_ + 1 y_61_ ^ 2 ] <= 20662.58
quadratic_ranged_241_ub: [ 1 x_39_ ^ 2 - 2 x_61_ * x_39_ + 1 x_61_ ^ 2 + 1 y_39_ ^ 2 - 2 y_61_ * y_39_ + 1 y_61_ ^ 2 ] <= 1149.38
quadratic_ranged_242_ub: [ 1 x_41_ ^ 2 - 2 x_61_ * x_41_ + 1 x_61_ ^ 2 + 1 y_41_ ^ 2 - 2 y_61_ * y_41_ + 1 y_61_ ^ 2 ] <= 2215.94
quadratic_ranged_243_ub: [ 1 x_51_ ^ 2 - 2 x_61_ * x_51_ + 1 x_61_ ^ 2 + 1 y_51_ ^ 2 - 2 y_61_ * y_51_ + 1 y_61_ ^ 2 ] <= 15478.25
quadratic_ranged_244_ub: [ 1 x_53_ ^ 2 - 2 x_61_ * x_53_ + 1 x_61_ ^ 2 + 1 y_53_ ^ 2 - 2 y_61_ * y_53_ + 1 y_61_ ^ 2 ] <= 31538.260000000002
quadratic_ranged_245_ub: [ 1 x_54_ ^ 2 - 2 x_61_ * x_54_ + 1 x_61_ ^ 2 + 1 y_54_ ^ 2 - 2 y_61_ * y_54_ + 1 y_61_ ^ 2 ] <= 716.09
quadratic_ranged_246_ub: [ 1 x_56_ ^ 2 - 2 x_61_ * x_56_ + 1 x_61_ ^ 2 + 1 y_56_ ^ 2 - 2 y_61_ * y_56_ + 1 y_61_ ^ 2 ] <= 2595.7
quadratic_ranged_247_ub: [ 1 x_60_ ^ 2 - 2 x_61_ * x_60_ + 1 x_61_ ^ 2 + 1 y_60_ ^ 2 - 2 y_61_ * y_60_ + 1 y_61_ ^ 2 ] <= 10071.72
quadratic_ranged_248_ub: [ 1 x_3_ ^ 2 - 2 x_62_ * x_3_ + 1 x_62_ ^ 2 + 1 y_3_ ^ 2 - 2 y_62_ * y_3_ + 1 y_62_ ^ 2 ] <= 647.41
quadratic_ranged_249_ub: [ 1 x_15_ ^ 2 - 2 x_62_ * x_15_ + 1 x_62_ ^ 2 + 1 y_15_ ^ 2 - 2 y_62_ * y_15_ + 1 y_62_ ^ 2 ] <= 16071.12
quadratic_ranged_250_ub: [ 1 x_31_ ^ 2 - 2 x_62_ * x_31_ + 1 x_62_ ^ 2 + 1 y_31_ ^ 2 - 2 y_62_ * y_31_ + 1 y_62_ ^ 2 ] <= 26183.24
quadratic_ranged_251_ub: [ 1 x_48_ ^ 2 - 2 x_62_ * x_48_ + 1 x_62_ ^ 2 + 1 y_48_ ^ 2 - 2 y_62_ * y_48_ + 1 y_62_ ^ 2 ] <= 21336.25
quadratic_ranged_252_ub: [ 1 x_49_ ^ 2 - 2 x_62_ * x_49_ + 1 x_62_ ^ 2 + 1 y_49_ ^ 2 - 2 y_62_ * y_49_ + 1 y_62_ ^ 2 ] <= 12639.14
quadratic_ranged_253_ub: [ 1 x_54_ ^ 2 - 2 x_62_ * x_54_ + 1 x_62_ ^ 2 + 1 y_54_ ^ 2 - 2 y_62_ * y_54_ + 1 y_62_ ^ 2 ] <= 29949.53
quadratic_ranged_254_ub: [ 1 x_61_ ^ 2 - 2 x_62_ * x_61_ + 1 x_62_ ^ 2 + 1 y_61_ ^ 2 - 2 y_62_ * y_61_ + 1 y_62_ ^ 2 ] <= 31061.54
quadratic_ranged_255_ub: [ 1 x_31_ ^ 2 - 2 x_63_ * x_31_ + 1 x_63_ ^ 2 + 1 y_31_ ^ 2 - 2 y_63_ * y_31_ + 1 y_63_ ^ 2 ] <= 24896.5
quadratic_ranged_256_ub: [ 1 x_62_ ^ 2 - 2 x_63_ * x_62_ + 1 x_63_ ^ 2 + 1 y_62_ ^ 2 - 2 y_63_ * y_62_ + 1 y_63_ ^ 2 ] <= 713.0600000000001
quadratic_ranged_257_ub: [ 1 x_4_ ^ 2 - 2 x_64_ * x_4_ + 1 x_64_ ^ 2 + 1 y_4_ ^ 2 - 2 y_64_ * y_4_ + 1 y_64_ ^ 2 ] <= 6530.66
quadratic_ranged_258_ub: [ 1 x_14_ ^ 2 - 2 x_64_ * x_14_ + 1 x_64_ ^ 2 + 1 y_14_ ^ 2 - 2 y_64_ * y_14_ + 1 y_64_ ^ 2 ] <= 7333.61
quadratic_ranged_259_ub: [ 1 x_20_ ^ 2 - 2 x_64_ * x_20_ + 1 x_64_ ^ 2 + 1 y_20_ ^ 2 - 2 y_64_ * y_20_ + 1 y_64_ ^ 2 ] <= 31416.05
quadratic_ranged_260_ub: [ 1 x_24_ ^ 2 - 2 x_64_ * x_24_ + 1 x_64_ ^ 2 + 1 y_24_ ^ 2 - 2 y_64_ * y_24_ + 1 y_64_ ^ 2 ] <= 17751.76
quadratic_ranged_261_ub: [ 1 x_43_ ^ 2 - 2 x_64_ * x_43_ + 1 x_64_ ^ 2 + 1 y_43_ ^ 2 - 2 y_64_ * y_43_ + 1 y_64_ ^ 2 ] <= 23865.29
quadratic_ranged_262_ub: [ 1 x_63_ ^ 2 - 2 x_64_ * x_63_ + 1 x_64_ ^ 2 + 1 y_63_ ^ 2 - 2 y_64_ * y_63_ + 1 y_64_ ^ 2 ] <= 4933.85
quadratic_ranged_263_ub: [ 1 x_1_ ^ 2 - 2 x_65_ * x_1_ + 1 x_65_ ^ 2 + 1 y_1_ ^ 2 - 2 y_65_ * y_1_ + 1 y_65_ ^ 2 ] <= 48844.61
quadratic_ranged_264_ub: [ 1 x_7_ ^ 2 - 2 x_65_ * x_7_ + 1 x_65_ ^ 2 + 1 y_7_ ^ 2 - 2 y_65_ * y_7_ + 1 y_65_ ^ 2 ] <= 691.85
quadratic_ranged_265_ub: [ 1 x_23_ ^ 2 - 2 x_65_ * x_23_ + 1 x_65_ ^ 2 + 1 y_23_ ^ 2 - 2 y_65_ * y_23_ + 1 y_65_ ^ 2 ] <= 8581.97
quadratic_ranged_266_ub: [ 1 x_30_ ^ 2 - 2 x_65_ * x_30_ + 1 x_65_ ^ 2 + 1 y_30_ ^ 2 - 2 y_65_ * y_30_ + 1 y_65_ ^ 2 ] <= 5717.61
quadratic_ranged_267_ub: [ 1 x_31_ ^ 2 - 2 x_65_ * x_31_ + 1 x_65_ ^ 2 + 1 y_31_ ^ 2 - 2 y_65_ * y_31_ + 1 y_65_ ^ 2 ] <= 26325.65
quadratic_ranged_268_ub: [ 1 x_40_ ^ 2 - 2 x_65_ * x_40_ + 1 x_65_ ^ 2 + 1 y_40_ ^ 2 - 2 y_65_ * y_40_ + 1 y_65_ ^ 2 ] <= 3176.45
quadratic_ranged_269_ub: [ 1 x_44_ ^ 2 - 2 x_65_ * x_44_ + 1 x_65_ ^ 2 + 1 y_44_ ^ 2 - 2 y_65_ * y_44_ + 1 y_65_ ^ 2 ] <= 7757.81
quadratic_ranged_270_ub: [ 1 x_60_ ^ 2 - 2 x_65_ * x_60_ + 1 x_65_ ^ 2 + 1 y_60_ ^ 2 - 2 y_65_ * y_60_ + 1 y_65_ ^ 2 ] <= 14266.25
quadratic_ranged_271_ub: [ 1 x_62_ ^ 2 - 2 x_65_ * x_62_ + 1 x_65_ ^ 2 + 1 y_62_ ^ 2 - 2 y_65_ * y_62_ + 1 y_65_ ^ 2 ] <= 37678.05
quadratic_ranged_272_ub: [ 1 x_64_ ^ 2 - 2 x_65_ * x_64_ + 1 x_65_ ^ 2 + 1 y_64_ ^ 2 - 2 y_65_ * y_64_ + 1 y_65_ ^ 2 ] <= 28532.5
quadratic_ranged_273_ub: [ 1 x_7_ ^ 2 - 2 x_66_ * x_7_ + 1 x_66_ ^ 2 + 1 y_7_ ^ 2 - 2 y_66_ * y_7_ + 1 y_66_ ^ 2 ] <= 16496.33
quadratic_ranged_274_ub: [ 1 x_11_ ^ 2 - 2 x_66_ * x_11_ + 1 x_66_ ^ 2 + 1 y_11_ ^ 2 - 2 y_66_ * y_11_ + 1 y_66_ ^ 2 ] <= 3264.32
quadratic_ranged_275_ub: [ 1 x_12_ ^ 2 - 2 x_66_ * x_12_ + 1 x_66_ ^ 2 + 1 y_12_ ^ 2 - 2 y_66_ * y_12_ + 1 y_66_ ^ 2 ] <= 6464
quadratic_ranged_276_ub: [ 1 x_17_ ^ 2 - 2 x_66_ * x_17_ + 1 x_66_ ^ 2 + 1 y_17_ ^ 2 - 2 y_66_ * y_17_ + 1 y_66_ ^ 2 ] <= 2025.05
quadratic_ranged_277_ub: [ 1 x_21_ ^ 2 - 2 x_66_ * x_21_ + 1 x_66_ ^ 2 + 1 y_21_ ^ 2 - 2 y_66_ * y_21_ + 1 y_66_ ^ 2 ] <= 13905.68
quadratic_ranged_278_ub: [ 1 x_25_ ^ 2 - 2 x_66_ * x_25_ + 1 x_66_ ^ 2 + 1 y_25_ ^ 2 - 2 y_66_ * y_25_ + 1 y_66_ ^ 2 ] <= 25.25
quadratic_ranged_279_ub: [ 1 x_32_ ^ 2 - 2 x_66_ * x_32_ + 1 x_66_ ^ 2 + 1 y_32_ ^ 2 - 2 y_66_ * y_32_ + 1 y_66_ ^ 2 ] <= 31371.61
quadratic_ranged_280_ub: [ 1 x_35_ ^ 2 - 2 x_66_ * x_35_ + 1 x_66_ ^ 2 + 1 y_35_ ^ 2 - 2 y_66_ * y_35_ + 1 y_66_ ^ 2 ] <= 2343.2
quadratic_ranged_281_ub: [ 1 x_47_ ^ 2 - 2 x_66_ * x_47_ + 1 x_66_ ^ 2 + 1 y_47_ ^ 2 - 2 y_66_ * y_47_ + 1 y_66_ ^ 2 ] <= 1264.52
quadratic_ranged_282_ub: [ 1 x_57_ ^ 2 - 2 x_66_ * x_57_ + 1 x_66_ ^ 2 + 1 y_57_ ^ 2 - 2 y_66_ * y_57_ + 1 y_66_ ^ 2 ] <= 1354.41
quadratic_ranged_283_ub: [ 1 x_63_ ^ 2 - 2 x_66_ * x_63_ + 1 x_66_ ^ 2 + 1 y_63_ ^ 2 - 2 y_66_ * y_63_ + 1 y_66_ ^ 2 ] <= 3406.73
quadratic_ranged_284_ub: [ 1 x_65_ ^ 2 - 2 x_66_ * x_65_ + 1 x_66_ ^ 2 + 1 y_65_ ^ 2 - 2 y_66_ * y_65_ + 1 y_66_ ^ 2 ] <= 17941.64
quadratic_ranged_285_ub: [ 1 x_1_ ^ 2 - 2 x_67_ * x_1_ + 1 x_67_ ^ 2 + 1 y_1_ ^ 2 - 2 y_67_ * y_1_ + 1 y_67_ ^ 2 ] <= 16038.8
quadratic_ranged_286_ub: [ 1 x_51_ ^ 2 - 2 x_67_ * x_51_ + 1 x_67_ ^ 2 + 1 y_51_ ^ 2 - 2 y_67_ * y_51_ + 1 y_67_ ^ 2 ] <= 1665.49
quadratic_ranged_287_ub: [ 1 x_63_ ^ 2 - 2 x_67_ * x_63_ + 1 x_67_ ^ 2 + 1 y_63_ ^ 2 - 2 y_67_ * y_63_ + 1 y_67_ ^ 2 ] <= 8615.3
quadratic_ranged_288_ub: [ 1 x_66_ ^ 2 - 2 x_67_ * x_66_ + 1 x_67_ ^ 2 + 1 y_66_ ^ 2 - 2 y_67_ * y_66_ + 1 y_67_ ^ 2 ] <= 2016.97
quadratic_ranged_289_ub: [ 1 x_7_ ^ 2 - 2 x_68_ * x_7_ + 1 x_68_ ^ 2 + 1 y_7_ ^ 2 - 2 y_68_ * y_7_ + 1 y_68_ ^ 2 ] <= 6444.81
quadratic_ranged_290_ub: [ 1 x_24_ ^ 2 - 2 x_68_ * x_24_ + 1 x_68_ ^ 2 + 1 y_24_ ^ 2 - 2 y_68_ * y_24_ + 1 y_68_ ^ 2 ] <= 1280.68
quadratic_ranged_291_ub: [ 1 x_26_ ^ 2 - 2 x_68_ * x_26_ + 1 x_68_ ^ 2 + 1 y_26_ ^ 2 - 2 y_68_ * y_26_ + 1 y_68_ ^ 2 ] <= 3833.96
quadratic_ranged_292_ub: [ 1 x_37_ ^ 2 - 2 x_68_ * x_37_ + 1 x_68_ ^ 2 + 1 y_37_ ^ 2 - 2 y_68_ * y_37_ + 1 y_68_ ^ 2 ] <= 18571.88
quadratic_ranged_293_ub: [ 1 x_41_ ^ 2 - 2 x_68_ * x_41_ + 1 x_68_ ^ 2 + 1 y_41_ ^ 2 - 2 y_68_ * y_41_ + 1 y_68_ ^ 2 ] <= 2126.05
quadratic_ranged_294_ub: [ 1 x_59_ ^ 2 - 2 x_68_ * x_59_ + 1 x_68_ ^ 2 + 1 y_59_ ^ 2 - 2 y_68_ * y_59_ + 1 y_68_ ^ 2 ] <= 4494.5
quadratic_ranged_295_ub: [ 1 x_67_ ^ 2 - 2 x_68_ * x_67_ + 1 x_68_ ^ 2 + 1 y_67_ ^ 2 - 2 y_68_ * y_67_ + 1 y_68_ ^ 2 ] <= 8691.05
quadratic_ranged_296_ub: [ 1 x_3_ ^ 2 - 2 x_69_ * x_3_ + 1 x_69_ ^ 2 + 1 y_3_ ^ 2 - 2 y_69_ * y_3_ + 1 y_69_ ^ 2 ] <= 7498.24
quadratic_ranged_297_ub: [ 1 x_7_ ^ 2 - 2 x_69_ * x_7_ + 1 x_69_ ^ 2 + 1 y_7_ ^ 2 - 2 y_69_ * y_7_ + 1 y_69_ ^ 2 ] <= 29626.33
quadratic_ranged_298_ub: [ 1 x_18_ ^ 2 - 2 x_69_ * x_18_ + 1 x_69_ ^ 2 + 1 y_18_ ^ 2 - 2 y_69_ * y_18_ + 1 y_69_ ^ 2 ] <= 7058.89
quadratic_ranged_299_ub: [ 1 x_22_ ^ 2 - 2 x_69_ * x_22_ + 1 x_69_ ^ 2 + 1 y_22_ ^ 2 - 2 y_69_ * y_22_ + 1 y_69_ ^ 2 ] <= 12008.9
quadratic_ranged_300_ub: [ 1 x_40_ ^ 2 - 2 x_69_ * x_40_ + 1 x_69_ ^ 2 + 1 y_40_ ^ 2 - 2 y_69_ * y_40_ + 1 y_69_ ^ 2 ] <= 12840.130000000001
quadratic_ranged_301_ub: [ 1 x_54_ ^ 2 - 2 x_69_ * x_54_ + 1 x_69_ ^ 2 + 1 y_54_ ^ 2 - 2 y_69_ * y_54_ + 1 y_69_ ^ 2 ] <= 21971.54
quadratic_ranged_302_ub: [ 1 x_68_ ^ 2 - 2 x_69_ * x_68_ + 1 x_69_ ^ 2 + 1 y_68_ ^ 2 - 2 y_69_ * y_68_ + 1 y_69_ ^ 2 ] <= 10352.5
quadratic_ranged_303_ub: [ 1 x_1_ ^ 2 - 2 x_70_ * x_1_ + 1 x_70_ ^ 2 + 1 y_1_ ^ 2 - 2 y_70_ * y_1_ + 1 y_70_ ^ 2 ] <= 48611.3
quadratic_ranged_304_ub: [ 1 x_16_ ^ 2 - 2 x_70_ * x_16_ + 1 x_70_ ^ 2 + 1 y_16_ ^ 2 - 2 y_70_ * y_16_ + 1 y_70_ ^ 2 ] <= 8863.76
quadratic_ranged_305_ub: [ 1 x_23_ ^ 2 - 2 x_70_ * x_23_ + 1 x_70_ ^ 2 + 1 y_23_ ^ 2 - 2 y_70_ * y_23_ + 1 y_70_ ^ 2 ] <= 3064.34
quadratic_ranged_306_ub: [ 1 x_27_ ^ 2 - 2 x_70_ * x_27_ + 1 x_70_ ^ 2 + 1 y_27_ ^ 2 - 2 y_70_ * y_27_ + 1 y_70_ ^ 2 ] <= 6776.09
quadratic_ranged_307_ub: [ 1 x_28_ ^ 2 - 2 x_70_ * x_28_ + 1 x_70_ ^ 2 + 1 y_28_ ^ 2 - 2 y_70_ * y_28_ + 1 y_70_ ^ 2 ] <= 171.7
quadratic_ranged_308_ub: [ 1 x_41_ ^ 2 - 2 x_70_ * x_41_ + 1 x_70_ ^ 2 + 1 y_41_ ^ 2 - 2 y_70_ * y_41_ + 1 y_70_ ^ 2 ] <= 3080.5
quadratic_ranged_309_ub: [ 1 x_57_ ^ 2 - 2 x_70_ * x_57_ + 1 x_70_ ^ 2 + 1 y_57_ ^ 2 - 2 y_70_ * y_57_ + 1 y_70_ ^ 2 ] <= 18979.920000000002
quadratic_ranged_310_ub: [ 1 x_61_ ^ 2 - 2 x_70_ * x_61_ + 1 x_70_ ^ 2 + 1 y_61_ ^ 2 - 2 y_70_ * y_61_ + 1 y_70_ ^ 2 ] <= 1426.1200000000001
quadratic_ranged_311_ub: [ 1 x_69_ ^ 2 - 2 x_70_ * x_69_ + 1 x_70_ ^ 2 + 1 y_69_ ^ 2 - 2 y_70_ * y_69_ + 1 y_70_ ^ 2 ] <= 20083.85
quadratic_ranged_312_ub: [ 1 x_10_ ^ 2 - 2 x_71_ * x_10_ + 1 x_71_ ^ 2 + 1 y_10_ ^ 2 - 2 y_71_ * y_10_ + 1 y_71_ ^ 2 ] <= 7653.78
quadratic_ranged_313_ub: [ 1 x_14_ ^ 2 - 2 x_71_ * x_14_ + 1 x_71_ ^ 2 + 1 y_14_ ^ 2 - 2 y_71_ * y_14_ + 1 y_71_ ^ 2 ] <= 4403.6
quadratic_ranged_314_ub: [ 1 x_15_ ^ 2 - 2 x_71_ * x_15_ + 1 x_71_ ^ 2 + 1 y_15_ ^ 2 - 2 y_71_ * y_15_ + 1 y_71_ ^ 2 ] <= 20232.32
quadratic_ranged_315_ub: [ 1 x_21_ ^ 2 - 2 x_71_ * x_21_ + 1 x_71_ ^ 2 + 1 y_21_ ^ 2 - 2 y_71_ * y_21_ + 1 y_71_ ^ 2 ] <= 3216.85
quadratic_ranged_316_ub: [ 1 x_26_ ^ 2 - 2 x_71_ * x_26_ + 1 x_71_ ^ 2 + 1 y_26_ ^ 2 - 2 y_71_ * y_26_ + 1 y_71_ ^ 2 ] <= 10525.210000000001
quadratic_ranged_317_ub: [ 1 x_29_ ^ 2 - 2 x_71_ * x_29_ + 1 x_71_ ^ 2 + 1 y_29_ ^ 2 - 2 y_71_ * y_29_ + 1 y_71_ ^ 2 ] <= 7072.02
quadratic_ranged_318_ub: [ 1 x_42_ ^ 2 - 2 x_71_ * x_42_ + 1 x_71_ ^ 2 + 1 y_42_ ^ 2 - 2 y_71_ * y_42_ + 1 y_71_ ^ 2 ] <= 11752.36
quadratic_ranged_319_ub: [ 1 x_43_ ^ 2 - 2 x_71_ * x_43_ + 1 x_71_ ^ 2 + 1 y_43_ ^ 2 - 2 y_71_ * y_43_ + 1 y_71_ ^ 2 ] <= 22957.3
quadratic_ranged_320_ub: [ 1 x_54_ ^ 2 - 2 x_71_ * x_54_ + 1 x_71_ ^ 2 + 1 y_54_ ^ 2 - 2 y_71_ * y_54_ + 1 y_71_ ^ 2 ] <= 11805.89
quadratic_ranged_321_ub: [ 1 x_55_ ^ 2 - 2 x_71_ * x_55_ + 1 x_71_ ^ 2 + 1 y_55_ ^ 2 - 2 y_71_ * y_55_ + 1 y_71_ ^ 2 ] <= 2695.69
quadratic_ranged_322_ub: [ 1 x_59_ ^ 2 - 2 x_71_ * x_59_ + 1 x_71_ ^ 2 + 1 y_59_ ^ 2 - 2 y_71_ * y_59_ + 1 y_71_ ^ 2 ] <= 1956.3700000000001
quadratic_ranged_323_ub: [ 1 x_64_ ^ 2 - 2 x_71_ * x_64_ + 1 x_71_ ^ 2 + 1 y_64_ ^ 2 - 2 y_71_ * y_64_ + 1 y_71_ ^ 2 ] <= 2925.97
quadratic_ranged_324_ub: [ 1 x_70_ ^ 2 - 2 x_71_ * x_70_ + 1 x_71_ ^ 2 + 1 y_70_ ^ 2 - 2 y_71_ * y_70_ + 1 y_71_ ^ 2 ] <= 9746.5
quadratic_ranged_325_ub: [ 1 x_2_ ^ 2 - 2 x_72_ * x_2_ + 1 x_72_ ^ 2 + 1 y_2_ ^ 2 - 2 y_72_ * y_2_ + 1 y_72_ ^ 2 ] <= 28931.45
quadratic_ranged_326_ub: [ 1 x_11_ ^ 2 - 2 x_72_ * x_11_ + 1 x_72_ ^ 2 + 1 y_11_ ^ 2 - 2 y_72_ * y_11_ + 1 y_72_ ^ 2 ] <= 10694.89
quadratic_ranged_327_ub: [ 1 x_17_ ^ 2 - 2 x_72_ * x_17_ + 1 x_72_ ^ 2 + 1 y_17_ ^ 2 - 2 y_72_ * y_17_ + 1 y_72_ ^ 2 ] <= 6565
quadratic_ranged_328_ub: [ 1 x_28_ ^ 2 - 2 x_72_ * x_28_ + 1 x_72_ ^ 2 + 1 y_28_ ^ 2 - 2 y_72_ * y_28_ + 1 y_72_ ^ 2 ] <= 23587.54
quadratic_ranged_329_ub: [ 1 x_38_ ^ 2 - 2 x_72_ * x_38_ + 1 x_72_ ^ 2 + 1 y_38_ ^ 2 - 2 y_72_ * y_38_ + 1 y_72_ ^ 2 ] <= 6868
quadratic_ranged_330_ub: [ 1 x_43_ ^ 2 - 2 x_72_ * x_43_ + 1 x_72_ ^ 2 + 1 y_43_ ^ 2 - 2 y_72_ * y_43_ + 1 y_72_ ^ 2 ] <= 23852.16
quadratic_ranged_331_ub: [ 1 x_46_ ^ 2 - 2 x_72_ * x_46_ + 1 x_72_ ^ 2 + 1 y_46_ ^ 2 - 2 y_72_ * y_46_ + 1 y_72_ ^ 2 ] <= 32579.57
quadratic_ranged_332_ub: [ 1 x_61_ ^ 2 - 2 x_72_ * x_61_ + 1 x_72_ ^ 2 + 1 y_61_ ^ 2 - 2 y_72_ * y_61_ + 1 y_72_ ^ 2 ] <= 24502.6
quadratic_ranged_333_ub: [ 1 x_64_ ^ 2 - 2 x_72_ * x_64_ + 1 x_72_ ^ 2 + 1 y_64_ ^ 2 - 2 y_72_ * y_64_ + 1 y_72_ ^ 2 ] <= 61.61
quadratic_ranged_334_ub: [ 1 x_71_ ^ 2 - 2 x_72_ * x_71_ + 1 x_72_ ^ 2 + 1 y_71_ ^ 2 - 2 y_72_ * y_71_ + 1 y_72_ ^ 2 ] <= 3807.7
quadratic_ranged_335_ub: [ 1 x_4_ ^ 2 - 2 x_73_ * x_4_ + 1 x_73_ ^ 2 + 1 y_4_ ^ 2 - 2 y_73_ * y_4_ + 1 y_73_ ^ 2 ] <= 16000.42
quadratic_ranged_336_ub: [ 1 x_17_ ^ 2 - 2 x_73_ * x_17_ + 1 x_73_ ^ 2 + 1 y_17_ ^ 2 - 2 y_73_ * y_17_ + 1 y_73_ ^ 2 ] <= 7228.57
quadratic_ranged_337_ub: [ 1 x_20_ ^ 2 - 2 x_73_ * x_20_ + 1 x_73_ ^ 2 + 1 y_20_ ^ 2 - 2 y_73_ * y_20_ + 1 y_73_ ^ 2 ] <= 19974.77
quadratic_ranged_338_ub: [ 1 x_28_ ^ 2 - 2 x_73_ * x_28_ + 1 x_73_ ^ 2 + 1 y_28_ ^ 2 - 2 y_73_ * y_28_ + 1 y_73_ ^ 2 ] <= 28882.97
quadratic_ranged_339_ub: [ 1 x_31_ ^ 2 - 2 x_73_ * x_31_ + 1 x_73_ ^ 2 + 1 y_31_ ^ 2 - 2 y_73_ * y_31_ + 1 y_73_ ^ 2 ] <= 48367.89
quadratic_ranged_340_ub: [ 1 x_32_ ^ 2 - 2 x_73_ * x_32_ + 1 x_73_ ^ 2 + 1 y_32_ ^ 2 - 2 y_73_ * y_32_ + 1 y_73_ ^ 2 ] <= 46731.69
quadratic_ranged_341_ub: [ 1 x_49_ ^ 2 - 2 x_73_ * x_49_ + 1 x_73_ ^ 2 + 1 y_49_ ^ 2 - 2 y_73_ * y_49_ + 1 y_73_ ^ 2 ] <= 10064.65
quadratic_ranged_342_ub: [ 1 x_52_ ^ 2 - 2 x_73_ * x_52_ + 1 x_73_ ^ 2 + 1 y_52_ ^ 2 - 2 y_73_ * y_52_ + 1 y_73_ ^ 2 ] <= 12133.13
quadratic_ranged_343_ub: [ 1 x_56_ ^ 2 - 2 x_73_ * x_56_ + 1 x_73_ ^ 2 + 1 y_56_ ^ 2 - 2 y_73_ * y_56_ + 1 y_73_ ^ 2 ] <= 11919.01
quadratic_ranged_344_ub: [ 1 x_68_ ^ 2 - 2 x_73_ * x_68_ + 1 x_73_ ^ 2 + 1 y_68_ ^ 2 - 2 y_73_ * y_68_ + 1 y_73_ ^ 2 ] <= 8613.28
quadratic_ranged_345_ub: [ 1 x_71_ ^ 2 - 2 x_73_ * x_71_ + 1 x_73_ ^ 2 + 1 y_71_ ^ 2 - 2 y_73_ * y_71_ + 1 y_73_ ^ 2 ] <= 20023.25
quadratic_ranged_346_ub: [ 1 x_72_ ^ 2 - 2 x_73_ * x_72_ + 1 x_73_ ^ 2 + 1 y_72_ ^ 2 - 2 y_73_ * y_72_ + 1 y_73_ ^ 2 ] <= 21913.97
quadratic_ranged_347_ub: [ 1 x_6_ ^ 2 - 2 x_74_ * x_6_ + 1 x_74_ ^ 2 + 1 y_6_ ^ 2 - 2 y_74_ * y_6_ + 1 y_74_ ^ 2 ] <= 9164.74
quadratic_ranged_348_ub: [ 1 x_16_ ^ 2 - 2 x_74_ * x_16_ + 1 x_74_ ^ 2 + 1 y_16_ ^ 2 - 2 y_74_ * y_16_ + 1 y_74_ ^ 2 ] <= 6465.01
quadratic_ranged_349_ub: [ 1 x_28_ ^ 2 - 2 x_74_ * x_28_ + 1 x_74_ ^ 2 + 1 y_28_ ^ 2 - 2 y_74_ * y_28_ + 1 y_74_ ^ 2 ] <= 2526.01
quadratic_ranged_350_ub: [ 1 x_33_ ^ 2 - 2 x_74_ * x_33_ + 1 x_74_ ^ 2 + 1 y_33_ ^ 2 - 2 y_74_ * y_33_ + 1 y_74_ ^ 2 ] <= 48905.21
quadratic_ranged_351_ub: [ 1 x_42_ ^ 2 - 2 x_74_ * x_42_ + 1 x_74_ ^ 2 + 1 y_42_ ^ 2 - 2 y_74_ * y_42_ + 1 y_74_ ^ 2 ] <= 35423.73
quadratic_ranged_352_ub: [ 1 x_56_ ^ 2 - 2 x_74_ * x_56_ + 1 x_74_ ^ 2 + 1 y_56_ ^ 2 - 2 y_74_ * y_56_ + 1 y_74_ ^ 2 ] <= 4792.45
quadratic_ranged_353_ub: [ 1 x_65_ ^ 2 - 2 x_74_ * x_65_ + 1 x_74_ ^ 2 + 1 y_65_ ^ 2 - 2 y_74_ * y_65_ + 1 y_74_ ^ 2 ] <= 462.58
quadratic_ranged_354_ub: [ 1 x_73_ ^ 2 - 2 x_74_ * x_73_ + 1 x_74_ ^ 2 + 1 y_73_ ^ 2 - 2 y_74_ * y_73_ + 1 y_74_ ^ 2 ] <= 31673.6
quadratic_ranged_355_ub: [ 1 x_2_ ^ 2 - 2 x_75_ * x_2_ + 1 x_75_ ^ 2 + 1 y_2_ ^ 2 - 2 y_75_ * y_2_ + 1 y_75_ ^ 2 ] <= 22144.25
quadratic_ranged_356_ub: [ 1 x_13_ ^ 2 - 2 x_75_ * x_13_ + 1 x_75_ ^ 2 + 1 y_13_ ^ 2 - 2 y_75_ * y_13_ + 1 y_75_ ^ 2 ] <= 9781.85
quadratic_ranged_357_ub: [ 1 x_22_ ^ 2 - 2 x_75_ * x_22_ + 1 x_75_ ^ 2 + 1 y_22_ ^ 2 - 2 y_75_ * y_22_ + 1 y_75_ ^ 2 ] <= 4550.05
quadratic_ranged_358_ub: [ 1 x_40_ ^ 2 - 2 x_75_ * x_40_ + 1 x_75_ ^ 2 + 1 y_40_ ^ 2 - 2 y_75_ * y_40_ + 1 y_75_ ^ 2 ] <= 5979.2
quadratic_ranged_359_ub: [ 1 x_50_ ^ 2 - 2 x_75_ * x_50_ + 1 x_75_ ^ 2 + 1 y_50_ ^ 2 - 2 y_75_ * y_50_ + 1 y_75_ ^ 2 ] <= 13939.01
quadratic_ranged_360_ub: [ 1 x_52_ ^ 2 - 2 x_75_ * x_52_ + 1 x_75_ ^ 2 + 1 y_52_ ^ 2 - 2 y_75_ * y_52_ + 1 y_75_ ^ 2 ] <= 1197.86
quadratic_ranged_361_ub: [ 1 x_62_ ^ 2 - 2 x_75_ * x_62_ + 1 x_75_ ^ 2 + 1 y_62_ ^ 2 - 2 y_75_ * y_62_ + 1 y_75_ ^ 2 ] <= 11152.42
quadratic_ranged_362_ub: [ 1 x_74_ ^ 2 - 2 x_75_ * x_74_ + 1 x_75_ ^ 2 + 1 y_74_ ^ 2 - 2 y_75_ * y_74_ + 1 y_75_ ^ 2 ] <= 18762.77
quadratic_ranged_363_ub: [ 1 x_5_ ^ 2 - 2 x_76_ * x_5_ + 1 x_76_ ^ 2 + 1 y_5_ ^ 2 - 2 y_76_ * y_5_ + 1 y_76_ ^ 2 ] <= 7486.12
quadratic_ranged_364_ub: [ 1 x_6_ ^ 2 - 2 x_76_ * x_6_ + 1 x_76_ ^ 2 + 1 y_6_ ^ 2 - 2 y_76_ * y_6_ + 1 y_76_ ^ 2 ] <= 16856.9
quadratic_ranged_365_ub: [ 1 x_15_ ^ 2 - 2 x_76_ * x_15_ + 1 x_76_ ^ 2 + 1 y_15_ ^ 2 - 2 y_76_ * y_15_ + 1 y_76_ ^ 2 ] <= 23574.41
quadratic_ranged_366_ub: [ 1 x_17_ ^ 2 - 2 x_76_ * x_17_ + 1 x_76_ ^ 2 + 1 y_17_ ^ 2 - 2 y_76_ * y_17_ + 1 y_76_ ^ 2 ] <= 6772.05
quadratic_ranged_367_ub: [ 1 x_20_ ^ 2 - 2 x_76_ * x_20_ + 1 x_76_ ^ 2 + 1 y_20_ ^ 2 - 2 y_76_ * y_20_ + 1 y_76_ ^ 2 ] <= 36534.73
quadratic_ranged_368_ub: [ 1 x_25_ ^ 2 - 2 x_76_ * x_25_ + 1 x_76_ ^ 2 + 1 y_25_ ^ 2 - 2 y_76_ * y_25_ + 1 y_76_ ^ 2 ] <= 12318.97
quadratic_ranged_369_ub: [ 1 x_27_ ^ 2 - 2 x_76_ * x_27_ + 1 x_76_ ^ 2 + 1 y_27_ ^ 2 - 2 y_76_ * y_27_ + 1 y_76_ ^ 2 ] <= 25116.68
quadratic_ranged_370_ub: [ 1 x_29_ ^ 2 - 2 x_76_ * x_29_ + 1 x_76_ ^ 2 + 1 y_29_ ^ 2 - 2 y_76_ * y_29_ + 1 y_76_ ^ 2 ] <= 18791.05
quadratic_ranged_371_ub: [ 1 x_33_ ^ 2 - 2 x_76_ * x_33_ + 1 x_76_ ^ 2 + 1 y_33_ ^ 2 - 2 y_76_ * y_33_ + 1 y_76_ ^ 2 ] <= 170.69
quadratic_ranged_372_ub: [ 1 x_37_ ^ 2 - 2 x_76_ * x_37_ + 1 x_76_ ^ 2 + 1 y_37_ ^ 2 - 2 y_76_ * y_37_ + 1 y_76_ ^ 2 ] <= 2767.4
quadratic_ranged_373_ub: [ 1 x_38_ ^ 2 - 2 x_76_ * x_38_ + 1 x_76_ ^ 2 + 1 y_38_ ^ 2 - 2 y_76_ * y_38_ + 1 y_76_ ^ 2 ] <= 3843.05
quadratic_ranged_374_ub: [ 1 x_40_ ^ 2 - 2 x_76_ * x_40_ + 1 x_76_ ^ 2 + 1 y_40_ ^ 2 - 2 y_76_ * y_40_ + 1 y_76_ ^ 2 ] <= 18306.25
quadratic_ranged_375_ub: [ 1 x_62_ ^ 2 - 2 x_76_ * x_62_ + 1 x_76_ ^ 2 + 1 y_62_ ^ 2 - 2 y_76_ * y_62_ + 1 y_76_ ^ 2 ] <= 1940.21
quadratic_ranged_376_ub: [ 1 x_75_ ^ 2 - 2 x_76_ * x_75_ + 1 x_76_ ^ 2 + 1 y_75_ ^ 2 - 2 y_76_ * y_75_ + 1 y_76_ ^ 2 ] <= 6307.45
quadratic_ranged_377_ub: [ 1 x_9_ ^ 2 - 2 x_77_ * x_9_ + 1 x_77_ ^ 2 + 1 y_9_ ^ 2 - 2 y_77_ * y_9_ + 1 y_77_ ^ 2 ] <= 44975.3
quadratic_ranged_378_ub: [ 1 x_10_ ^ 2 - 2 x_77_ * x_10_ + 1 x_77_ ^ 2 + 1 y_10_ ^ 2 - 2 y_77_ * y_10_ + 1 y_77_ ^ 2 ] <= 26115.57
quadratic_ranged_379_ub: [ 1 x_14_ ^ 2 - 2 x_77_ * x_14_ + 1 x_77_ ^ 2 + 1 y_14_ ^ 2 - 2 y_77_ * y_14_ + 1 y_77_ ^ 2 ] <= 19102.13
quadratic_ranged_380_ub: [ 1 x_17_ ^ 2 - 2 x_77_ * x_17_ + 1 x_77_ ^ 2 + 1 y_17_ ^ 2 - 2 y_77_ * y_17_ + 1 y_77_ ^ 2 ] <= 12670.45
quadratic_ranged_381_ub: [ 1 x_24_ ^ 2 - 2 x_77_ * x_24_ + 1 x_77_ ^ 2 + 1 y_24_ ^ 2 - 2 y_77_ * y_24_ + 1 y_77_ ^ 2 ] <= 10069.7
quadratic_ranged_382_ub: [ 1 x_35_ ^ 2 - 2 x_77_ * x_35_ + 1 x_77_ ^ 2 + 1 y_35_ ^ 2 - 2 y_77_ * y_35_ + 1 y_77_ ^ 2 ] <= 33067.4
quadratic_ranged_383_ub: [ 1 x_44_ ^ 2 - 2 x_77_ * x_44_ + 1 x_77_ ^ 2 + 1 y_44_ ^ 2 - 2 y_77_ * y_44_ + 1 y_77_ ^ 2 ] <= 5527.7300000000005
quadratic_ranged_384_ub: [ 1 x_61_ ^ 2 - 2 x_77_ * x_61_ + 1 x_77_ ^ 2 + 1 y_61_ ^ 2 - 2 y_77_ * y_61_ + 1 y_77_ ^ 2 ] <= 263.61
quadratic_ranged_385_ub: [ 1 x_64_ ^ 2 - 2 x_77_ * x_64_ + 1 x_77_ ^ 2 + 1 y_64_ ^ 2 - 2 y_77_ * y_64_ + 1 y_77_ ^ 2 ] <= 26035.78
quadratic_ranged_386_ub: [ 1 x_76_ ^ 2 - 2 x_77_ * x_76_ + 1 x_77_ ^ 2 + 1 y_76_ ^ 2 - 2 y_77_ * y_76_ + 1 y_77_ ^ 2 ] <= 32726.02
quadratic_ranged_387_ub: [ 1 x_1_ ^ 2 - 2 x_78_ * x_1_ + 1 x_78_ ^ 2 + 1 y_1_ ^ 2 - 2 y_78_ * y_1_ + 1 y_78_ ^ 2 ] <= 29916.2
quadratic_ranged_388_ub: [ 1 x_3_ ^ 2 - 2 x_78_ * x_3_ + 1 x_78_ ^ 2 + 1 y_3_ ^ 2 - 2 y_78_ * y_3_ + 1 y_78_ ^ 2 ] <= 16936.69
quadratic_ranged_389_ub: [ 1 x_39_ ^ 2 - 2 x_78_ * x_39_ + 1 x_78_ ^ 2 + 1 y_39_ ^ 2 - 2 y_78_ * y_39_ + 1 y_78_ ^ 2 ] <= 3236.04
quadratic_ranged_390_ub: [ 1 x_58_ ^ 2 - 2 x_78_ * x_58_ + 1 x_78_ ^ 2 + 1 y_58_ ^ 2 - 2 y_78_ * y_58_ + 1 y_78_ ^ 2 ] <= 6439.76
quadratic_ranged_391_ub: [ 1 x_61_ ^ 2 - 2 x_78_ * x_61_ + 1 x_78_ ^ 2 + 1 y_61_ ^ 2 - 2 y_78_ * y_61_ + 1 y_78_ ^ 2 ] <= 1706.9
quadratic_ranged_392_ub: [ 1 x_76_ ^ 2 - 2 x_78_ * x_76_ + 1 x_78_ ^ 2 + 1 y_76_ ^ 2 - 2 y_78_ * y_76_ + 1 y_78_ ^ 2 ] <= 21841.25
quadratic_ranged_393_ub: [ 1 x_77_ ^ 2 - 2 x_78_ * x_77_ + 1 x_78_ ^ 2 + 1 y_77_ ^ 2 - 2 y_78_ * y_77_ + 1 y_78_ ^ 2 ] <= 3249.17
quadratic_ranged_394_ub: [ 1 x_11_ ^ 2 - 2 x_79_ * x_11_ + 1 x_79_ ^ 2 + 1 y_11_ ^ 2 - 2 y_79_ * y_11_ + 1 y_79_ ^ 2 ] <= 13067.380000000001
quadratic_ranged_395_ub: [ 1 x_28_ ^ 2 - 2 x_79_ * x_28_ + 1 x_79_ ^ 2 + 1 y_28_ ^ 2 - 2 y_79_ * y_28_ + 1 y_79_ ^ 2 ] <= 35779.25
quadratic_ranged_396_ub: [ 1 x_47_ ^ 2 - 2 x_79_ * x_47_ + 1 x_79_ ^ 2 + 1 y_47_ ^ 2 - 2 y_79_ * y_47_ + 1 y_79_ ^ 2 ] <= 2498.7400000000002
quadratic_ranged_397_ub: [ 1 x_64_ ^ 2 - 2 x_79_ * x_64_ + 1 x_79_ ^ 2 + 1 y_64_ ^ 2 - 2 y_79_ * y_64_ + 1 y_79_ ^ 2 ] <= 38755.72
quadratic_ranged_398_ub: [ 1 x_73_ ^ 2 - 2 x_79_ * x_73_ + 1 x_79_ ^ 2 + 1 y_73_ ^ 2 - 2 y_79_ * y_73_ + 1 y_79_ ^ 2 ] <= 2722.96
quadratic_ranged_399_ub: [ 1 x_77_ ^ 2 - 2 x_79_ * x_77_ + 1 x_79_ ^ 2 + 1 y_77_ ^ 2 - 2 y_79_ * y_77_ + 1 y_79_ ^ 2 ] <= 32176.58
quadratic_ranged_400_ub: [ 1 x_78_ ^ 2 - 2 x_79_ * x_78_ + 1 x_79_ ^ 2 + 1 y_78_ ^ 2 - 2 y_79_ * y_78_ + 1 y_79_ ^ 2 ] <= 15821.65
quadratic_ranged_401_ub: [ 1 x_22_ ^ 2 - 2 x_80_ * x_22_ + 1 x_80_ ^ 2 + 1 y_22_ ^ 2 - 2 y_80_ * y_22_ + 1 y_80_ ^ 2 ] <= 25314.64
quadratic_ranged_402_ub: [ 1 x_26_ ^ 2 - 2 x_80_ * x_26_ + 1 x_80_ ^ 2 + 1 y_26_ ^ 2 - 2 y_80_ * y_26_ + 1 y_80_ ^ 2 ] <= 117.16
quadratic_ranged_403_ub: [ 1 x_56_ ^ 2 - 2 x_80_ * x_56_ + 1 x_80_ ^ 2 + 1 y_56_ ^ 2 - 2 y_80_ * y_56_ + 1 y_80_ ^ 2 ] <= 10702.97
quadratic_ranged_404_ub: [ 1 x_71_ ^ 2 - 2 x_80_ * x_71_ + 1 x_80_ ^ 2 + 1 y_71_ ^ 2 - 2 y_80_ * y_71_ + 1 y_80_ ^ 2 ] <= 12036.17
quadratic_ranged_405_ub: [ 1 x_72_ ^ 2 - 2 x_80_ * x_72_ + 1 x_80_ ^ 2 + 1 y_72_ ^ 2 - 2 y_80_ * y_72_ + 1 y_80_ ^ 2 ] <= 12997.69
quadratic_ranged_406_ub: [ 1 x_79_ ^ 2 - 2 x_80_ * x_79_ + 1 x_80_ ^ 2 + 1 y_79_ ^ 2 - 2 y_80_ * y_79_ + 1 y_80_ ^ 2 ] <= 7142.72
quadratic_ranged_407_ub: [ 1 x_9_ ^ 2 - 2 x_81_ * x_9_ + 1 x_81_ ^ 2 + 1 y_9_ ^ 2 - 2 y_81_ * y_9_ + 1 y_81_ ^ 2 ] <= 15291.4
quadratic_ranged_408_ub: [ 1 x_14_ ^ 2 - 2 x_81_ * x_14_ + 1 x_81_ ^ 2 + 1 y_14_ ^ 2 - 2 y_81_ * y_14_ + 1 y_81_ ^ 2 ] <= 37706.33
quadratic_ranged_409_ub: [ 1 x_25_ ^ 2 - 2 x_81_ * x_25_ + 1 x_81_ ^ 2 + 1 y_25_ ^ 2 - 2 y_81_ * y_25_ + 1 y_81_ ^ 2 ] <= 663.57
quadratic_ranged_410_ub: [ 1 x_74_ ^ 2 - 2 x_81_ * x_74_ + 1 x_81_ ^ 2 + 1 y_74_ ^ 2 - 2 y_81_ * y_74_ + 1 y_81_ ^ 2 ] <= 23856.2
quadratic_ranged_411_ub: [ 1 x_80_ ^ 2 - 2 x_81_ * x_80_ + 1 x_81_ ^ 2 + 1 y_80_ ^ 2 - 2 y_81_ * y_80_ + 1 y_81_ ^ 2 ] <= 1167.56
quadratic_ranged_412_ub: [ 1 x_25_ ^ 2 - 2 x_82_ * x_25_ + 1 x_82_ ^ 2 + 1 y_25_ ^ 2 - 2 y_82_ * y_25_ + 1 y_82_ ^ 2 ] <= 16008.5
quadratic_ranged_413_ub: [ 1 x_29_ ^ 2 - 2 x_82_ * x_29_ + 1 x_82_ ^ 2 + 1 y_29_ ^ 2 - 2 y_82_ * y_29_ + 1 y_82_ ^ 2 ] <= 13158.28
quadratic_ranged_414_ub: [ 1 x_42_ ^ 2 - 2 x_82_ * x_42_ + 1 x_82_ ^ 2 + 1 y_42_ ^ 2 - 2 y_82_ * y_42_ + 1 y_82_ ^ 2 ] <= 14190.5
quadratic_ranged_415_ub: [ 1 x_45_ ^ 2 - 2 x_82_ * x_45_ + 1 x_82_ ^ 2 + 1 y_45_ ^ 2 - 2 y_82_ * y_45_ + 1 y_82_ ^ 2 ] <= 8857.7
quadratic_ranged_416_ub: [ 1 x_46_ ^ 2 - 2 x_82_ * x_46_ + 1 x_82_ ^ 2 + 1 y_46_ ^ 2 - 2 y_82_ * y_46_ + 1 y_82_ ^ 2 ] <= 35524.73
quadratic_ranged_417_ub: [ 1 x_51_ ^ 2 - 2 x_82_ * x_51_ + 1 x_82_ ^ 2 + 1 y_51_ ^ 2 - 2 y_82_ * y_51_ + 1 y_82_ ^ 2 ] <= 30543.41
quadratic_ranged_418_ub: [ 1 x_79_ ^ 2 - 2 x_82_ * x_79_ + 1 x_82_ ^ 2 + 1 y_79_ ^ 2 - 2 y_82_ * y_79_ + 1 y_82_ ^ 2 ] <= 42324.05
quadratic_ranged_419_ub: [ 1 x_81_ ^ 2 - 2 x_82_ * x_81_ + 1 x_82_ ^ 2 + 1 y_81_ ^ 2 - 2 y_82_ * y_81_ + 1 y_82_ ^ 2 ] <= 22544.21
quadratic_ranged_420_ub: [ 1 x_7_ ^ 2 - 2 x_83_ * x_7_ + 1 x_83_ ^ 2 + 1 y_7_ ^ 2 - 2 y_83_ * y_7_ + 1 y_83_ ^ 2 ] <= 4671.25
quadratic_ranged_421_ub: [ 1 x_54_ ^ 2 - 2 x_83_ * x_54_ + 1 x_83_ ^ 2 + 1 y_54_ ^ 2 - 2 y_83_ * y_54_ + 1 y_83_ ^ 2 ] <= 2282.6
quadratic_ranged_422_ub: [ 1 x_72_ ^ 2 - 2 x_83_ * x_72_ + 1 x_83_ ^ 2 + 1 y_72_ ^ 2 - 2 y_83_ * y_72_ + 1 y_83_ ^ 2 ] <= 15389.37
quadratic_ranged_423_ub: [ 1 x_76_ ^ 2 - 2 x_83_ * x_76_ + 1 x_83_ ^ 2 + 1 y_76_ ^ 2 - 2 y_83_ * y_76_ + 1 y_83_ ^ 2 ] <= 18503.2
quadratic_ranged_424_ub: [ 1 x_81_ ^ 2 - 2 x_83_ * x_81_ + 1 x_83_ ^ 2 + 1 y_81_ ^ 2 - 2 y_83_ * y_81_ + 1 y_83_ ^ 2 ] <= 13917.8
quadratic_ranged_425_ub: [ 1 x_82_ ^ 2 - 2 x_83_ * x_82_ + 1 x_83_ ^ 2 + 1 y_82_ ^ 2 - 2 y_83_ * y_82_ + 1 y_83_ ^ 2 ] <= 8994.05
quadratic_ranged_426_ub: [ 1 x_5_ ^ 2 - 2 x_84_ * x_5_ + 1 x_84_ ^ 2 + 1 y_5_ ^ 2 - 2 y_84_ * y_5_ + 1 y_84_ ^ 2 ] <= 24260.2
quadratic_ranged_427_ub: [ 1 x_18_ ^ 2 - 2 x_84_ * x_18_ + 1 x_84_ ^ 2 + 1 y_18_ ^ 2 - 2 y_84_ * y_18_ + 1 y_84_ ^ 2 ] <= 12137.17
quadratic_ranged_428_ub: [ 1 x_51_ ^ 2 - 2 x_84_ * x_51_ + 1 x_84_ ^ 2 + 1 y_51_ ^ 2 - 2 y_84_ * y_51_ + 1 y_84_ ^ 2 ] <= 5979.2
quadratic_ranged_429_ub: [ 1 x_57_ ^ 2 - 2 x_84_ * x_57_ + 1 x_84_ ^ 2 + 1 y_57_ ^ 2 - 2 y_84_ * y_57_ + 1 y_84_ ^ 2 ] <= 8440.57
quadratic_ranged_430_ub: [ 1 x_64_ ^ 2 - 2 x_84_ * x_64_ + 1 x_84_ ^ 2 + 1 y_64_ ^ 2 - 2 y_84_ * y_64_ + 1 y_84_ ^ 2 ] <= 21674.6
quadratic_ranged_431_ub: [ 1 x_75_ ^ 2 - 2 x_84_ * x_75_ + 1 x_84_ ^ 2 + 1 y_75_ ^ 2 - 2 y_84_ * y_75_ + 1 y_84_ ^ 2 ] <= 11203.93
quadratic_ranged_432_ub: [ 1 x_83_ ^ 2 - 2 x_84_ * x_83_ + 1 x_84_ ^ 2 + 1 y_83_ ^ 2 - 2 y_84_ * y_83_ + 1 y_84_ ^ 2 ] <= 2924.96
quadratic_ranged_433_ub: [ 1 x_7_ ^ 2 - 2 x_85_ * x_7_ + 1 x_85_ ^ 2 + 1 y_7_ ^ 2 - 2 y_85_ * y_7_ + 1 y_85_ ^ 2 ] <= 11349.37
quadratic_ranged_434_ub: [ 1 x_8_ ^ 2 - 2 x_85_ * x_8_ + 1 x_85_ ^ 2 + 1 y_8_ ^ 2 - 2 y_85_ * y_8_ + 1 y_85_ ^ 2 ] <= 3649.13
quadratic_ranged_435_ub: [ 1 x_21_ ^ 2 - 2 x_85_ * x_21_ + 1 x_85_ ^ 2 + 1 y_21_ ^ 2 - 2 y_85_ * y_21_ + 1 y_85_ ^ 2 ] <= 7322.5
quadratic_ranged_436_ub: [ 1 x_26_ ^ 2 - 2 x_85_ * x_26_ + 1 x_85_ ^ 2 + 1 y_26_ ^ 2 - 2 y_85_ * y_26_ + 1 y_85_ ^ 2 ] <= 3365.32
quadratic_ranged_437_ub: [ 1 x_31_ ^ 2 - 2 x_85_ * x_31_ + 1 x_85_ ^ 2 + 1 y_31_ ^ 2 - 2 y_85_ * y_31_ + 1 y_85_ ^ 2 ] <= 16241.81
quadratic_ranged_438_ub: [ 1 x_59_ ^ 2 - 2 x_85_ * x_59_ + 1 x_85_ ^ 2 + 1 y_59_ ^ 2 - 2 y_85_ * y_59_ + 1 y_85_ ^ 2 ] <= 1504.9
quadratic_ranged_439_ub: [ 1 x_61_ ^ 2 - 2 x_85_ * x_61_ + 1 x_85_ ^ 2 + 1 y_61_ ^ 2 - 2 y_85_ * y_61_ + 1 y_85_ ^ 2 ] <= 6917.49
quadratic_ranged_440_ub: [ 1 x_62_ ^ 2 - 2 x_85_ * x_62_ + 1 x_85_ ^ 2 + 1 y_62_ ^ 2 - 2 y_85_ * y_62_ + 1 y_85_ ^ 2 ] <= 8666.81
quadratic_ranged_441_ub: [ 1 x_76_ ^ 2 - 2 x_85_ * x_76_ + 1 x_85_ ^ 2 + 1 y_76_ ^ 2 - 2 y_85_ * y_76_ + 1 y_85_ ^ 2 ] <= 8152.72
quadratic_ranged_442_ub: [ 1 x_80_ ^ 2 - 2 x_85_ * x_80_ + 1 x_85_ ^ 2 + 1 y_80_ ^ 2 - 2 y_85_ * y_80_ + 1 y_85_ ^ 2 ] <= 4500.56
quadratic_ranged_443_ub: [ 1 x_84_ ^ 2 - 2 x_85_ * x_84_ + 1 x_85_ ^ 2 + 1 y_84_ ^ 2 - 2 y_85_ * y_84_ + 1 y_85_ ^ 2 ] <= 4597.52
quadratic_ranged_444_ub: [ 1 x_10_ ^ 2 - 2 x_86_ * x_10_ + 1 x_86_ ^ 2 + 1 y_10_ ^ 2 - 2 y_86_ * y_10_ + 1 y_86_ ^ 2 ] <= 20912.05
quadratic_ranged_445_ub: [ 1 x_23_ ^ 2 - 2 x_86_ * x_23_ + 1 x_86_ ^ 2 + 1 y_23_ ^ 2 - 2 y_86_ * y_23_ + 1 y_86_ ^ 2 ] <= 3390.57
quadratic_ranged_446_ub: [ 1 x_34_ ^ 2 - 2 x_86_ * x_34_ + 1 x_86_ ^ 2 + 1 y_34_ ^ 2 - 2 y_86_ * y_34_ + 1 y_86_ ^ 2 ] <= 4389.46
quadratic_ranged_447_ub: [ 1 x_38_ ^ 2 - 2 x_86_ * x_38_ + 1 x_86_ ^ 2 + 1 y_38_ ^ 2 - 2 y_86_ * y_38_ + 1 y_86_ ^ 2 ] <= 35088.41
quadratic_ranged_448_ub: [ 1 x_53_ ^ 2 - 2 x_86_ * x_53_ + 1 x_86_ ^ 2 + 1 y_53_ ^ 2 - 2 y_86_ * y_53_ + 1 y_86_ ^ 2 ] <= 28733.49
quadratic_ranged_449_ub: [ 1 x_61_ ^ 2 - 2 x_86_ * x_61_ + 1 x_86_ ^ 2 + 1 y_61_ ^ 2 - 2 y_86_ * y_61_ + 1 y_86_ ^ 2 ] <= 392.89
quadratic_ranged_450_ub: [ 1 x_73_ ^ 2 - 2 x_86_ * x_73_ + 1 x_86_ ^ 2 + 1 y_73_ ^ 2 - 2 y_86_ * y_73_ + 1 y_86_ ^ 2 ] <= 25229.8
quadratic_ranged_451_ub: [ 1 x_76_ ^ 2 - 2 x_86_ * x_76_ + 1 x_86_ ^ 2 + 1 y_76_ ^ 2 - 2 y_86_ * y_76_ + 1 y_86_ ^ 2 ] <= 25342.920000000002
quadratic_ranged_452_ub: [ 1 x_78_ ^ 2 - 2 x_86_ * x_78_ + 1 x_86_ ^ 2 + 1 y_78_ ^ 2 - 2 y_86_ * y_78_ + 1 y_86_ ^ 2 ] <= 2824.97
quadratic_ranged_453_ub: [ 1 x_85_ ^ 2 - 2 x_86_ * x_85_ + 1 x_86_ ^ 2 + 1 y_85_ ^ 2 - 2 y_86_ * y_85_ + 1 y_86_ ^ 2 ] <= 6565
quadratic_ranged_454_ub: [ 1 x_36_ ^ 2 - 2 x_87_ * x_36_ + 1 x_87_ ^ 2 + 1 y_36_ ^ 2 - 2 y_87_ * y_36_ + 1 y_87_ ^ 2 ] <= 5074.24
quadratic_ranged_455_ub: [ 1 x_39_ ^ 2 - 2 x_87_ * x_39_ + 1 x_87_ ^ 2 + 1 y_39_ ^ 2 - 2 y_87_ * y_39_ + 1 y_87_ ^ 2 ] <= 23361.3
quadratic_ranged_456_ub: [ 1 x_41_ ^ 2 - 2 x_87_ * x_41_ + 1 x_87_ ^ 2 + 1 y_41_ ^ 2 - 2 y_87_ * y_41_ + 1 y_87_ ^ 2 ] <= 16832.66
quadratic_ranged_457_ub: [ 1 x_43_ ^ 2 - 2 x_87_ * x_43_ + 1 x_87_ ^ 2 + 1 y_43_ ^ 2 - 2 y_87_ * y_43_ + 1 y_87_ ^ 2 ] <= 5353
quadratic_ranged_458_ub: [ 1 x_48_ ^ 2 - 2 x_87_ * x_48_ + 1 x_87_ ^ 2 + 1 y_48_ ^ 2 - 2 y_87_ * y_48_ + 1 y_87_ ^ 2 ] <= 25820.65
quadratic_ranged_459_ub: [ 1 x_69_ ^ 2 - 2 x_87_ * x_69_ + 1 x_87_ ^ 2 + 1 y_69_ ^ 2 - 2 y_87_ * y_69_ + 1 y_87_ ^ 2 ] <= 8913.25
quadratic_ranged_460_ub: [ 1 x_77_ ^ 2 - 2 x_87_ * x_77_ + 1 x_87_ ^ 2 + 1 y_77_ ^ 2 - 2 y_87_ * y_77_ + 1 y_87_ ^ 2 ] <= 31731.170000000002
quadratic_ranged_461_ub: [ 1 x_86_ ^ 2 - 2 x_87_ * x_86_ + 1 x_87_ ^ 2 + 1 y_86_ ^ 2 - 2 y_87_ * y_86_ + 1 y_87_ ^ 2 ] <= 26325.65
quadratic_ranged_462_ub: [ 1 x_2_ ^ 2 - 2 x_88_ * x_2_ + 1 x_88_ ^ 2 + 1 y_2_ ^ 2 - 2 y_88_ * y_2_ + 1 y_88_ ^ 2 ] <= 29673.8
quadratic_ranged_463_ub: [ 1 x_28_ ^ 2 - 2 x_88_ * x_28_ + 1 x_88_ ^ 2 + 1 y_28_ ^ 2 - 2 y_88_ * y_28_ + 1 y_88_ ^ 2 ] <= 50323.25
quadratic_ranged_464_ub: [ 1 x_29_ ^ 2 - 2 x_88_ * x_29_ + 1 x_88_ ^ 2 + 1 y_29_ ^ 2 - 2 y_88_ * y_29_ + 1 y_88_ ^ 2 ] <= 31294.85
quadratic_ranged_465_ub: [ 1 x_31_ ^ 2 - 2 x_88_ * x_31_ + 1 x_88_ ^ 2 + 1 y_31_ ^ 2 - 2 y_88_ * y_31_ + 1 y_88_ ^ 2 ] <= 36946.81
quadratic_ranged_466_ub: [ 1 x_36_ ^ 2 - 2 x_88_ * x_36_ + 1 x_88_ ^ 2 + 1 y_36_ ^ 2 - 2 y_88_ * y_36_ + 1 y_88_ ^ 2 ] <= 16811.45
quadratic_ranged_467_ub: [ 1 x_57_ ^ 2 - 2 x_88_ * x_57_ + 1 x_88_ ^ 2 + 1 y_57_ ^ 2 - 2 y_88_ * y_57_ + 1 y_88_ ^ 2 ] <= 10763.57
quadratic_ranged_468_ub: [ 1 x_64_ ^ 2 - 2 x_88_ * x_64_ + 1 x_88_ ^ 2 + 1 y_64_ ^ 2 - 2 y_88_ * y_64_ + 1 y_88_ ^ 2 ] <= 9898
quadratic_ranged_469_ub: [ 1 x_70_ ^ 2 - 2 x_88_ * x_70_ + 1 x_88_ ^ 2 + 1 y_70_ ^ 2 - 2 y_88_ * y_70_ + 1 y_88_ ^ 2 ] <= 54868.25
quadratic_ranged_470_ub: [ 1 x_76_ ^ 2 - 2 x_88_ * x_76_ + 1 x_88_ ^ 2 + 1 y_76_ ^ 2 - 2 y_88_ * y_76_ + 1 y_88_ ^ 2 ] <= 5013.64
quadratic_ranged_471_ub: [ 1 x_87_ ^ 2 - 2 x_88_ * x_87_ + 1 x_88_ ^ 2 + 1 y_87_ ^ 2 - 2 y_88_ * y_87_ + 1 y_88_ ^ 2 ] <= 4247.05
quadratic_ranged_472_ub: [ 1 x_7_ ^ 2 - 2 x_89_ * x_7_ + 1 x_89_ ^ 2 + 1 y_7_ ^ 2 - 2 y_89_ * y_7_ + 1 y_89_ ^ 2 ] <= 21317.06
quadratic_ranged_473_ub: [ 1 x_24_ ^ 2 - 2 x_89_ * x_24_ + 1 x_89_ ^ 2 + 1 y_24_ ^ 2 - 2 y_89_ * y_24_ + 1 y_89_ ^ 2 ] <= 4752.05
quadratic_ranged_474_ub: [ 1 x_33_ ^ 2 - 2 x_89_ * x_33_ + 1 x_89_ ^ 2 + 1 y_33_ ^ 2 - 2 y_89_ * y_33_ + 1 y_89_ ^ 2 ] <= 28653.7
quadratic_ranged_475_ub: [ 1 x_43_ ^ 2 - 2 x_89_ * x_43_ + 1 x_89_ ^ 2 + 1 y_43_ ^ 2 - 2 y_89_ * y_43_ + 1 y_89_ ^ 2 ] <= 646.4
quadratic_ranged_476_ub: [ 1 x_55_ ^ 2 - 2 x_89_ * x_55_ + 1 x_89_ ^ 2 + 1 y_55_ ^ 2 - 2 y_89_ * y_55_ + 1 y_89_ ^ 2 ] <= 33904.69
quadratic_ranged_477_ub: [ 1 x_57_ ^ 2 - 2 x_89_ * x_57_ + 1 x_89_ ^ 2 + 1 y_57_ ^ 2 - 2 y_89_ * y_57_ + 1 y_89_ ^ 2 ] <= 8871.84
quadratic_ranged_478_ub: [ 1 x_84_ ^ 2 - 2 x_89_ * x_84_ + 1 x_89_ ^ 2 + 1 y_84_ ^ 2 - 2 y_89_ * y_84_ + 1 y_89_ ^ 2 ] <= 11397.85
quadratic_ranged_479_ub: [ 1 x_88_ ^ 2 - 2 x_89_ * x_88_ + 1 x_89_ ^ 2 + 1 y_88_ ^ 2 - 2 y_89_ * y_88_ + 1 y_89_ ^ 2 ] <= 23659.25
quadratic_ranged_480_ub: [ 1 x_19_ ^ 2 - 2 x_90_ * x_19_ + 1 x_90_ ^ 2 + 1 y_19_ ^ 2 - 2 y_90_ * y_19_ + 1 y_90_ ^ 2 ] <= 9188.98
quadratic_ranged_481_ub: [ 1 x_22_ ^ 2 - 2 x_90_ * x_22_ + 1 x_90_ ^ 2 + 1 y_22_ ^ 2 - 2 y_90_ * y_22_ + 1 y_90_ ^ 2 ] <= 17397.25
quadratic_ranged_482_ub: [ 1 x_39_ ^ 2 - 2 x_90_ * x_39_ + 1 x_90_ ^ 2 + 1 y_39_ ^ 2 - 2 y_90_ * y_39_ + 1 y_90_ ^ 2 ] <= 13552.18
quadratic_ranged_483_ub: [ 1 x_46_ ^ 2 - 2 x_90_ * x_46_ + 1 x_90_ ^ 2 + 1 y_46_ ^ 2 - 2 y_90_ * y_46_ + 1 y_90_ ^ 2 ] <= 13381.49
quadratic_ranged_484_ub: [ 1 x_68_ ^ 2 - 2 x_90_ * x_68_ + 1 x_90_ ^ 2 + 1 y_68_ ^ 2 - 2 y_90_ * y_68_ + 1 y_90_ ^ 2 ] <= 4897.49
quadratic_ranged_485_ub: [ 1 x_78_ ^ 2 - 2 x_90_ * x_78_ + 1 x_90_ ^ 2 + 1 y_78_ ^ 2 - 2 y_90_ * y_78_ + 1 y_90_ ^ 2 ] <= 10013.14
quadratic_ranged_486_ub: [ 1 x_89_ ^ 2 - 2 x_90_ * x_89_ + 1 x_90_ ^ 2 + 1 y_89_ ^ 2 - 2 y_90_ * y_89_ + 1 y_90_ ^ 2 ] <= 10988.8
quadratic_ranged_487_ub: [ 1 x_1_ ^ 2 - 2 x_91_ * x_1_ + 1 x_91_ ^ 2 + 1 y_1_ ^ 2 - 2 y_91_ * y_1_ + 1 y_91_ ^ 2 ] <= 58148.73
quadratic_ranged_488_ub: [ 1 x_5_ ^ 2 - 2 x_91_ * x_5_ + 1 x_91_ ^ 2 + 1 y_5_ ^ 2 - 2 y_91_ * y_5_ + 1 y_91_ ^ 2 ] <= 32532.1
quadratic_ranged_489_ub: [ 1 x_12_ ^ 2 - 2 x_91_ * x_12_ + 1 x_91_ ^ 2 + 1 y_12_ ^ 2 - 2 y_91_ * y_12_ + 1 y_91_ ^ 2 ] <= 20430.28
quadratic_ranged_490_ub: [ 1 x_18_ ^ 2 - 2 x_91_ * x_18_ + 1 x_91_ ^ 2 + 1 y_18_ ^ 2 - 2 y_91_ * y_18_ + 1 y_91_ ^ 2 ] <= 14569.25
quadratic_ranged_491_ub: [ 1 x_27_ ^ 2 - 2 x_91_ * x_27_ + 1 x_91_ ^ 2 + 1 y_27_ ^ 2 - 2 y_91_ * y_27_ + 1 y_91_ ^ 2 ] <= 4252.1
quadratic_ranged_492_ub: [ 1 x_40_ ^ 2 - 2 x_91_ * x_40_ + 1 x_91_ ^ 2 + 1 y_40_ ^ 2 - 2 y_91_ * y_40_ + 1 y_91_ ^ 2 ] <= 5822.65
quadratic_ranged_493_ub: [ 1 x_44_ ^ 2 - 2 x_91_ * x_44_ + 1 x_91_ ^ 2 + 1 y_44_ ^ 2 - 2 y_91_ * y_44_ + 1 y_91_ ^ 2 ] <= 11712.97
quadratic_ranged_494_ub: [ 1 x_58_ ^ 2 - 2 x_91_ * x_58_ + 1 x_91_ ^ 2 + 1 y_58_ ^ 2 - 2 y_91_ * y_58_ + 1 y_91_ ^ 2 ] <= 16718.53
quadratic_ranged_495_ub: [ 1 x_88_ ^ 2 - 2 x_91_ * x_88_ + 1 x_91_ ^ 2 + 1 y_88_ ^ 2 - 2 y_91_ * y_88_ + 1 y_91_ ^ 2 ] <= 65692.42
quadratic_ranged_496_ub: [ 1 x_90_ ^ 2 - 2 x_91_ * x_90_ + 1 x_91_ ^ 2 + 1 y_90_ ^ 2 - 2 y_91_ * y_90_ + 1 y_91_ ^ 2 ] <= 28034.57
quadratic_ranged_497_ub: [ 1 x_1_ ^ 2 - 2 x_92_ * x_1_ + 1 x_92_ ^ 2 + 1 y_1_ ^ 2 - 2 y_92_ * y_1_ + 1 y_92_ ^ 2 ] <= 59792
quadratic_ranged_498_ub: [ 1 x_20_ ^ 2 - 2 x_92_ * x_20_ + 1 x_92_ ^ 2 + 1 y_20_ ^ 2 - 2 y_92_ * y_20_ + 1 y_92_ ^ 2 ] <= 1474.6
quadratic_ranged_499_ub: [ 1 x_34_ ^ 2 - 2 x_92_ * x_34_ + 1 x_92_ ^ 2 + 1 y_34_ ^ 2 - 2 y_92_ * y_34_ + 1 y_92_ ^ 2 ] <= 14084.45
quadratic_ranged_500_ub: [ 1 x_35_ ^ 2 - 2 x_92_ * x_35_ + 1 x_92_ ^ 2 + 1 y_35_ ^ 2 - 2 y_92_ * y_35_ + 1 y_92_ ^ 2 ] <= 38405.25
quadratic_ranged_501_ub: [ 1 x_48_ ^ 2 - 2 x_92_ * x_48_ + 1 x_92_ ^ 2 + 1 y_48_ ^ 2 - 2 y_92_ * y_48_ + 1 y_92_ ^ 2 ] <= 29880.85
quadratic_ranged_502_ub: [ 1 x_52_ ^ 2 - 2 x_92_ * x_52_ + 1 x_92_ ^ 2 + 1 y_52_ ^ 2 - 2 y_92_ * y_52_ + 1 y_92_ ^ 2 ] <= 19594
quadratic_ranged_503_ub: [ 1 x_58_ ^ 2 - 2 x_92_ * x_58_ + 1 x_92_ ^ 2 + 1 y_58_ ^ 2 - 2 y_92_ * y_58_ + 1 y_92_ ^ 2 ] <= 18281
quadratic_ranged_504_ub: [ 1 x_62_ ^ 2 - 2 x_92_ * x_62_ + 1 x_92_ ^ 2 + 1 y_62_ ^ 2 - 2 y_92_ * y_62_ + 1 y_92_ ^ 2 ] <= 47449.8
quadratic_ranged_505_ub: [ 1 x_74_ ^ 2 - 2 x_92_ * x_74_ + 1 x_92_ ^ 2 + 1 y_74_ ^ 2 - 2 y_92_ * y_74_ + 1 y_92_ ^ 2 ] <= 17.17
quadratic_ranged_506_ub: [ 1 x_75_ ^ 2 - 2 x_92_ * x_75_ + 1 x_92_ ^ 2 + 1 y_75_ ^ 2 - 2 y_92_ * y_75_ + 1 y_92_ ^ 2 ] <= 19733.38
quadratic_ranged_507_ub: [ 1 x_78_ ^ 2 - 2 x_92_ * x_78_ + 1 x_92_ ^ 2 + 1 y_78_ ^ 2 - 2 y_92_ * y_78_ + 1 y_92_ ^ 2 ] <= 5417.64
quadratic_ranged_508_ub: [ 1 x_88_ ^ 2 - 2 x_92_ * x_88_ + 1 x_92_ ^ 2 + 1 y_88_ ^ 2 - 2 y_92_ * y_88_ + 1 y_92_ ^ 2 ] <= 67392.25
quadratic_ranged_509_ub: [ 1 x_91_ ^ 2 - 2 x_92_ * x_91_ + 1 x_92_ ^ 2 + 1 y_91_ ^ 2 - 2 y_92_ * y_91_ + 1 y_92_ ^ 2 ] <= 37.37
quadratic_ranged_510_ub: [ 1 x_7_ ^ 2 - 2 x_93_ * x_7_ + 1 x_93_ ^ 2 + 1 y_7_ ^ 2 - 2 y_93_ * y_7_ + 1 y_93_ ^ 2 ] <= 23760.25
quadratic_ranged_511_ub: [ 1 x_34_ ^ 2 - 2 x_93_ * x_34_ + 1 x_93_ ^ 2 + 1 y_34_ ^ 2 - 2 y_93_ * y_34_ + 1 y_93_ ^ 2 ] <= 17743.68
quadratic_ranged_512_ub: [ 1 x_48_ ^ 2 - 2 x_93_ * x_48_ + 1 x_93_ ^ 2 + 1 y_48_ ^ 2 - 2 y_93_ * y_48_ + 1 y_93_ ^ 2 ] <= 15693.380000000001
quadratic_ranged_513_ub: [ 1 x_50_ ^ 2 - 2 x_93_ * x_50_ + 1 x_93_ ^ 2 + 1 y_50_ ^ 2 - 2 y_93_ * y_50_ + 1 y_93_ ^ 2 ] <= 9673.78
quadratic_ranged_514_ub: [ 1 x_61_ ^ 2 - 2 x_93_ * x_61_ + 1 x_93_ ^ 2 + 1 y_61_ ^ 2 - 2 y_93_ * y_61_ + 1 y_93_ ^ 2 ] <= 17684.09
quadratic_ranged_515_ub: [ 1 x_65_ ^ 2 - 2 x_93_ * x_65_ + 1 x_93_ ^ 2 + 1 y_65_ ^ 2 - 2 y_93_ * y_65_ + 1 y_93_ ^ 2 ] <= 22704.8
quadratic_ranged_516_ub: [ 1 x_71_ ^ 2 - 2 x_93_ * x_71_ + 1 x_93_ ^ 2 + 1 y_71_ ^ 2 - 2 y_93_ * y_71_ + 1 y_93_ ^ 2 ] <= 4958.09
quadratic_ranged_517_ub: [ 1 x_89_ ^ 2 - 2 x_93_ * x_89_ + 1 x_93_ ^ 2 + 1 y_89_ ^ 2 - 2 y_93_ * y_89_ + 1 y_93_ ^ 2 ] <= 11603.89
quadratic_ranged_518_ub: [ 1 x_92_ ^ 2 - 2 x_93_ * x_92_ + 1 x_93_ ^ 2 + 1 y_92_ ^ 2 - 2 y_93_ * y_92_ + 1 y_93_ ^ 2 ] <= 30397.97
quadratic_ranged_519_ub: [ 1 x_8_ ^ 2 - 2 x_94_ * x_8_ + 1 x_94_ ^ 2 + 1 y_8_ ^ 2 - 2 y_94_ * y_8_ + 1 y_94_ ^ 2 ] <= 3968.29
quadratic_ranged_520_ub: [ 1 x_36_ ^ 2 - 2 x_94_ * x_36_ + 1 x_94_ ^ 2 + 1 y_36_ ^ 2 - 2 y_94_ * y_36_ + 1 y_94_ ^ 2 ] <= 12670.45
quadratic_ranged_521_ub: [ 1 x_42_ ^ 2 - 2 x_94_ * x_42_ + 1 x_94_ ^ 2 + 1 y_42_ ^ 2 - 2 y_94_ * y_42_ + 1 y_94_ ^ 2 ] <= 4247.05
quadratic_ranged_522_ub: [ 1 x_48_ ^ 2 - 2 x_94_ * x_48_ + 1 x_94_ ^ 2 + 1 y_48_ ^ 2 - 2 y_94_ * y_48_ + 1 y_94_ ^ 2 ] <= 30932.260000000002
quadratic_ranged_523_ub: [ 1 x_58_ ^ 2 - 2 x_94_ * x_58_ + 1 x_94_ ^ 2 + 1 y_58_ ^ 2 - 2 y_94_ * y_58_ + 1 y_94_ ^ 2 ] <= 27796.21
quadratic_ranged_524_ub: [ 1 x_75_ ^ 2 - 2 x_94_ * x_75_ + 1 x_94_ ^ 2 + 1 y_75_ ^ 2 - 2 y_94_ * y_75_ + 1 y_94_ ^ 2 ] <= 18948.61
quadratic_ranged_525_ub: [ 1 x_93_ ^ 2 - 2 x_94_ * x_93_ + 1 x_94_ ^ 2 + 1 y_93_ ^ 2 - 2 y_94_ * y_93_ + 1 y_94_ ^ 2 ] <= 5353
quadratic_ranged_526_ub: [ 1 x_17_ ^ 2 - 2 x_95_ * x_17_ + 1 x_95_ ^ 2 + 1 y_17_ ^ 2 - 2 y_95_ * y_17_ + 1 y_95_ ^ 2 ] <= 8089.09
quadratic_ranged_527_ub: [ 1 x_23_ ^ 2 - 2 x_95_ * x_23_ + 1 x_95_ ^ 2 + 1 y_23_ ^ 2 - 2 y_95_ * y_23_ + 1 y_95_ ^ 2 ] <= 23699.65
quadratic_ranged_528_ub: [ 1 x_31_ ^ 2 - 2 x_95_ * x_31_ + 1 x_95_ ^ 2 + 1 y_31_ ^ 2 - 2 y_95_ * y_31_ + 1 y_95_ ^ 2 ] <= 18993.05
quadratic_ranged_529_ub: [ 1 x_32_ ^ 2 - 2 x_95_ * x_32_ + 1 x_95_ ^ 2 + 1 y_32_ ^ 2 - 2 y_95_ * y_32_ + 1 y_95_ ^ 2 ] <= 14448.05
quadratic_ranged_530_ub: [ 1 x_34_ ^ 2 - 2 x_95_ * x_34_ + 1 x_95_ ^ 2 + 1 y_34_ ^ 2 - 2 y_95_ * y_34_ + 1 y_95_ ^ 2 ] <= 23765.3
quadratic_ranged_531_ub: [ 1 x_47_ ^ 2 - 2 x_95_ * x_47_ + 1 x_95_ ^ 2 + 1 y_47_ ^ 2 - 2 y_95_ * y_47_ + 1 y_95_ ^ 2 ] <= 19103.14
quadratic_ranged_532_ub: [ 1 x_55_ ^ 2 - 2 x_95_ * x_55_ + 1 x_95_ ^ 2 + 1 y_55_ ^ 2 - 2 y_95_ * y_55_ + 1 y_95_ ^ 2 ] <= 3898.6
quadratic_ranged_533_ub: [ 1 x_58_ ^ 2 - 2 x_95_ * x_58_ + 1 x_95_ ^ 2 + 1 y_58_ ^ 2 - 2 y_95_ * y_58_ + 1 y_95_ ^ 2 ] <= 30749.45
quadratic_ranged_534_ub: [ 1 x_90_ ^ 2 - 2 x_95_ * x_90_ + 1 x_95_ ^ 2 + 1 y_90_ ^ 2 - 2 y_95_ * y_90_ + 1 y_95_ ^ 2 ] <= 3794.57
quadratic_ranged_535_ub: [ 1 x_91_ ^ 2 - 2 x_95_ * x_91_ + 1 x_95_ ^ 2 + 1 y_91_ ^ 2 - 2 y_95_ * y_91_ + 1 y_95_ ^ 2 ] <= 48675.94
quadratic_ranged_536_ub: [ 1 x_94_ ^ 2 - 2 x_95_ * x_94_ + 1 x_95_ ^ 2 + 1 y_94_ ^ 2 - 2 y_95_ * y_94_ + 1 y_95_ ^ 2 ] <= 3007.78
quadratic_ranged_537_ub: [ 1 x_9_ ^ 2 - 2 x_96_ * x_9_ + 1 x_96_ ^ 2 + 1 y_9_ ^ 2 - 2 y_96_ * y_9_ + 1 y_96_ ^ 2 ] <= 21856.4
quadratic_ranged_538_ub: [ 1 x_25_ ^ 2 - 2 x_96_ * x_25_ + 1 x_96_ ^ 2 + 1 y_25_ ^ 2 - 2 y_96_ * y_25_ + 1 y_96_ ^ 2 ] <= 21251.41
quadratic_ranged_539_ub: [ 1 x_38_ ^ 2 - 2 x_96_ * x_38_ + 1 x_96_ ^ 2 + 1 y_38_ ^ 2 - 2 y_96_ * y_38_ + 1 y_96_ ^ 2 ] <= 22148.29
quadratic_ranged_540_ub: [ 1 x_55_ ^ 2 - 2 x_96_ * x_55_ + 1 x_96_ ^ 2 + 1 y_55_ ^ 2 - 2 y_96_ * y_55_ + 1 y_96_ ^ 2 ] <= 2638.12
quadratic_ranged_541_ub: [ 1 x_59_ ^ 2 - 2 x_96_ * x_59_ + 1 x_96_ ^ 2 + 1 y_59_ ^ 2 - 2 y_96_ * y_59_ + 1 y_96_ ^ 2 ] <= 6215.54
quadratic_ranged_542_ub: [ 1 x_79_ ^ 2 - 2 x_96_ * x_79_ + 1 x_96_ ^ 2 + 1 y_79_ ^ 2 - 2 y_96_ * y_79_ + 1 y_96_ ^ 2 ] <= 49360.72
quadratic_ranged_543_ub: [ 1 x_95_ ^ 2 - 2 x_96_ * x_95_ + 1 x_96_ ^ 2 + 1 y_95_ ^ 2 - 2 y_96_ * y_95_ + 1 y_96_ ^ 2 ] <= 12257.36
quadratic_ranged_544_ub: [ 1 x_16_ ^ 2 - 2 x_97_ * x_16_ + 1 x_97_ ^ 2 + 1 y_16_ ^ 2 - 2 y_97_ * y_16_ + 1 y_97_ ^ 2 ] <= 49.49
quadratic_ranged_545_ub: [ 1 x_21_ ^ 2 - 2 x_97_ * x_21_ + 1 x_97_ ^ 2 + 1 y_21_ ^ 2 - 2 y_97_ * y_21_ + 1 y_97_ ^ 2 ] <= 25534.82
quadratic_ranged_546_ub: [ 1 x_32_ ^ 2 - 2 x_97_ * x_32_ + 1 x_97_ ^ 2 + 1 y_32_ ^ 2 - 2 y_97_ * y_32_ + 1 y_97_ ^ 2 ] <= 36668.05
quadratic_ranged_547_ub: [ 1 x_38_ ^ 2 - 2 x_97_ * x_38_ + 1 x_97_ ^ 2 + 1 y_38_ ^ 2 - 2 y_97_ * y_38_ + 1 y_97_ ^ 2 ] <= 27335.65
quadratic_ranged_548_ub: [ 1 x_42_ ^ 2 - 2 x_97_ * x_42_ + 1 x_97_ ^ 2 + 1 y_42_ ^ 2 - 2 y_97_ * y_42_ + 1 y_97_ ^ 2 ] <= 14169.29
quadratic_ranged_549_ub: [ 1 x_44_ ^ 2 - 2 x_97_ * x_44_ + 1 x_97_ ^ 2 + 1 y_44_ ^ 2 - 2 y_97_ * y_44_ + 1 y_97_ ^ 2 ] <= 14779.33
quadratic_ranged_550_ub: [ 1 x_79_ ^ 2 - 2 x_97_ * x_79_ + 1 x_97_ ^ 2 + 1 y_79_ ^ 2 - 2 y_97_ * y_79_ + 1 y_97_ ^ 2 ] <= 11493.8
quadratic_ranged_551_ub: [ 1 x_85_ ^ 2 - 2 x_97_ * x_85_ + 1 x_97_ ^ 2 + 1 y_85_ ^ 2 - 2 y_97_ * y_85_ + 1 y_97_ ^ 2 ] <= 5546.92
quadratic_ranged_552_ub: [ 1 x_96_ ^ 2 - 2 x_97_ * x_96_ + 1 x_97_ ^ 2 + 1 y_96_ ^ 2 - 2 y_97_ * y_96_ + 1 y_97_ ^ 2 ] <= 21771.56
quadratic_ranged_553_ub: [ 1 x_6_ ^ 2 - 2 x_98_ * x_6_ + 1 x_98_ ^ 2 + 1 y_6_ ^ 2 - 2 y_98_ * y_6_ + 1 y_98_ ^ 2 ] <= 2841.13
quadratic_ranged_554_ub: [ 1 x_9_ ^ 2 - 2 x_98_ * x_9_ + 1 x_98_ ^ 2 + 1 y_9_ ^ 2 - 2 y_98_ * y_9_ + 1 y_98_ ^ 2 ] <= 40190.93
quadratic_ranged_555_ub: [ 1 x_16_ ^ 2 - 2 x_98_ * x_16_ + 1 x_98_ ^ 2 + 1 y_16_ ^ 2 - 2 y_98_ * y_16_ + 1 y_98_ ^ 2 ] <= 4825.78
quadratic_ranged_556_ub: [ 1 x_25_ ^ 2 - 2 x_98_ * x_25_ + 1 x_98_ ^ 2 + 1 y_25_ ^ 2 - 2 y_98_ * y_25_ + 1 y_98_ ^ 2 ] <= 17456.84
quadratic_ranged_557_ub: [ 1 x_37_ ^ 2 - 2 x_98_ * x_37_ + 1 x_98_ ^ 2 + 1 y_37_ ^ 2 - 2 y_98_ * y_37_ + 1 y_98_ ^ 2 ] <= 39492.01
quadratic_ranged_558_ub: [ 1 x_68_ ^ 2 - 2 x_98_ * x_68_ + 1 x_98_ ^ 2 + 1 y_68_ ^ 2 - 2 y_98_ * y_68_ + 1 y_98_ ^ 2 ] <= 5022.7300000000005
quadratic_ranged_559_ub: [ 1 x_71_ ^ 2 - 2 x_98_ * x_71_ + 1 x_98_ ^ 2 + 1 y_71_ ^ 2 - 2 y_98_ * y_71_ + 1 y_98_ ^ 2 ] <= 8928.4
quadratic_ranged_560_ub: [ 1 x_77_ ^ 2 - 2 x_98_ * x_77_ + 1 x_98_ ^ 2 + 1 y_77_ ^ 2 - 2 y_98_ * y_77_ + 1 y_98_ ^ 2 ] <= 186.85
quadratic_ranged_561_ub: [ 1 x_81_ ^ 2 - 2 x_98_ * x_81_ + 1 x_98_ ^ 2 + 1 y_81_ ^ 2 - 2 y_98_ * y_81_ + 1 y_98_ ^ 2 ] <= 18993.05
quadratic_ranged_562_ub: [ 1 x_83_ ^ 2 - 2 x_98_ * x_83_ + 1 x_98_ ^ 2 + 1 y_83_ ^ 2 - 2 y_98_ * y_83_ + 1 y_98_ ^ 2 ] <= 1027.17
quadratic_ranged_563_ub: [ 1 x_97_ ^ 2 - 2 x_98_ * x_97_ + 1 x_98_ ^ 2 + 1 y_97_ ^ 2 - 2 y_98_ * y_97_ + 1 y_98_ ^ 2 ] <= 5115.65
quadratic_ranged_564_ub: [ 1 x_21_ ^ 2 - 2 x_99_ * x_21_ + 1 x_99_ ^ 2 + 1 y_21_ ^ 2 - 2 y_99_ * y_21_ + 1 y_99_ ^ 2 ] <= 1203.92
quadratic_ranged_565_ub: [ 1 x_31_ ^ 2 - 2 x_99_ * x_31_ + 1 x_99_ ^ 2 + 1 y_31_ ^ 2 - 2 y_99_ * y_31_ + 1 y_99_ ^ 2 ] <= 8226.45
quadratic_ranged_566_ub: [ 1 x_69_ ^ 2 - 2 x_99_ * x_69_ + 1 x_99_ ^ 2 + 1 y_69_ ^ 2 - 2 y_99_ * y_69_ + 1 y_99_ ^ 2 ] <= 488.84000000000003
quadratic_ranged_567_ub: [ 1 x_86_ ^ 2 - 2 x_99_ * x_86_ + 1 x_99_ ^ 2 + 1 y_86_ ^ 2 - 2 y_99_ * y_86_ + 1 y_99_ ^ 2 ] <= 11879.62
quadratic_ranged_568_ub: [ 1 x_90_ ^ 2 - 2 x_99_ * x_90_ + 1 x_99_ ^ 2 + 1 y_90_ ^ 2 - 2 y_99_ * y_90_ + 1 y_99_ ^ 2 ] <= 2719.93
quadratic_ranged_569_ub: [ 1 x_96_ ^ 2 - 2 x_99_ * x_96_ + 1 x_99_ ^ 2 + 1 y_96_ ^ 2 - 2 y_99_ * y_96_ + 1 y_99_ ^ 2 ] <= 2918.9
quadratic_ranged_570_ub: [ 1 x_97_ ^ 2 - 2 x_99_ * x_97_ + 1 x_99_ ^ 2 + 1 y_97_ ^ 2 - 2 y_99_ * y_97_ + 1 y_99_ ^ 2 ] <= 15830.74
quadratic_ranged_571_ub: [ 1 x_98_ ^ 2 - 2 x_99_ * x_98_ + 1 x_99_ ^ 2 + 1 y_98_ ^ 2 - 2 y_99_ * y_98_ + 1 y_99_ ^ 2 ] <= 13939.01
quadratic_ranged_572_ub: [ 1 x_1_ ^ 2 - 2 x_100_ * x_1_ + 1 x_100_ ^ 2 + 1 y_1_ ^ 2 - 2 y_100_ * y_1_ + 1 y_100_ ^ 2 ] <= 24588.45
quadratic_ranged_573_ub: [ 1 x_16_ ^ 2 - 2 x_100_ * x_16_ + 1 x_100_ ^ 2 + 1 y_16_ ^ 2 - 2 y_100_ * y_16_ + 1 y_100_ ^ 2 ] <= 26733.69
quadratic_ranged_574_ub: [ 1 x_32_ ^ 2 - 2 x_100_ * x_32_ + 1 x_100_ ^ 2 + 1 y_32_ ^ 2 - 2 y_100_ * y_32_ + 1 y_100_ ^ 2 ] <= 465.61
quadratic_ranged_575_ub: [ 1 x_38_ ^ 2 - 2 x_100_ * x_38_ + 1 x_100_ ^ 2 + 1 y_38_ ^ 2 - 2 y_100_ * y_38_ + 1 y_100_ ^ 2 ] <= 23356.25
quadratic_ranged_576_ub: [ 1 x_41_ ^ 2 - 2 x_100_ * x_41_ + 1 x_100_ ^ 2 + 1 y_41_ ^ 2 - 2 y_100_ * y_41_ + 1 y_100_ ^ 2 ] <= 9519.25
quadratic_ranged_577_ub: [ 1 x_43_ ^ 2 - 2 x_100_ * x_43_ + 1 x_100_ ^ 2 + 1 y_43_ ^ 2 - 2 y_100_ * y_43_ + 1 y_100_ ^ 2 ] <= 42231.13
quadratic_ranged_578_ub: [ 1 x_46_ ^ 2 - 2 x_100_ * x_46_ + 1 x_100_ ^ 2 + 1 y_46_ ^ 2 - 2 y_100_ * y_46_ + 1 y_100_ ^ 2 ] <= 49809.16
quadratic_ranged_579_ub: [ 1 x_49_ ^ 2 - 2 x_100_ * x_49_ + 1 x_100_ ^ 2 + 1 y_49_ ^ 2 - 2 y_100_ * y_49_ + 1 y_100_ ^ 2 ] <= 13381.49
quadratic_ranged_580_ub: [ 1 x_55_ ^ 2 - 2 x_100_ * x_55_ + 1 x_100_ ^ 2 + 1 y_55_ ^ 2 - 2 y_100_ * y_55_ + 1 y_100_ ^ 2 ] <= 2240.18
quadratic_ranged_581_ub: [ 1 x_65_ ^ 2 - 2 x_100_ * x_65_ + 1 x_100_ ^ 2 + 1 y_65_ ^ 2 - 2 y_100_ * y_65_ + 1 y_100_ ^ 2 ] <= 25213.64
quadratic_ranged_582_ub: [ 1 x_73_ ^ 2 - 2 x_100_ * x_73_ + 1 x_100_ ^ 2 + 1 y_73_ ^ 2 - 2 y_100_ * y_73_ + 1 y_100_ ^ 2 ] <= 38567.86
quadratic_ranged_583_ub: [ 1 x_81_ ^ 2 - 2 x_100_ * x_81_ + 1 x_100_ ^ 2 + 1 y_81_ ^ 2 - 2 y_100_ * y_81_ + 1 y_100_ ^ 2 ] <= 34156.18
quadratic_ranged_584_ub: [ 1 x_97_ ^ 2 - 2 x_100_ * x_97_ + 1 x_100_ ^ 2 + 1 y_97_ ^ 2 - 2 y_100_ * y_97_ + 1 y_100_ ^ 2 ] <= 28904.18
quadratic_ranged_585_ub: [ 1 x_99_ ^ 2 - 2 x_100_ * x_99_ + 1 x_100_ ^ 2 + 1 y_99_ ^ 2 - 2 y_100_ * y_99_ + 1 y_100_ ^ 2 ] <= 4201.6
c1_2: 1 x_20_ >= 0
c2_2: 1 y_20_ >= 0
quadratic_ranged_1_lb: [ 1 x_1_ ^ 2 - 2 x_2_ * x_1_ + 1 x_2_ ^ 2 + 1 y_1_ ^ 2 - 2 y_2_ * y_1_ + 1 y_2_ ^ 2 ] >= 24200.55
quadratic_ranged_2_lb: [ 1 x_2_ ^ 2 - 2 x_3_ * x_2_ + 1 x_3_ ^ 2 + 1 y_2_ ^ 2 - 2 y_3_ * y_2_ + 1 y_3_ ^ 2 ] >= 13141.26
quadratic_ranged_3_lb: [ 1 x_3_ ^ 2 - 2 x_4_ * x_3_ + 1 x_4_ ^ 2 + 1 y_3_ ^ 2 - 2 y_4_ * y_3_ + 1 y_4_ ^ 2 ] >= 11183.039999999999
quadratic_ranged_4_lb: [ 1 x_4_ ^ 2 - 2 x_5_ * x_4_ + 1 x_5_ ^ 2 + 1 y_4_ ^ 2 - 2 y_5_ * y_4_ + 1 y_5_ ^ 2 ] >= 6702.3
quadratic_ranged_5_lb: [ 1 x_3_ ^ 2 - 2 x_6_ * x_3_ + 1 x_6_ ^ 2 + 1 y_3_ ^ 2 - 2 y_6_ * y_3_ + 1 y_6_ ^ 2 ] >= 21391.92
quadratic_ranged_6_lb: [ 1 x_5_ ^ 2 - 2 x_6_ * x_5_ + 1 x_6_ ^ 2 + 1 y_5_ ^ 2 - 2 y_6_ * y_5_ + 1 y_6_ ^ 2 ] >= 6345.9
quadratic_ranged_7_lb: [ 1 x_3_ ^ 2 - 2 x_7_ * x_3_ + 1 x_7_ ^ 2 + 1 y_3_ ^ 2 - 2 y_7_ * y_3_ + 1 y_7_ ^ 2 ] >= 31827.51
quadratic_ranged_8_lb: [ 1 x_4_ ^ 2 - 2 x_7_ * x_4_ + 1 x_7_ ^ 2 + 1 y_4_ ^ 2 - 2 y_7_ * y_4_ + 1 y_7_ ^ 2 ] >= 10023.75
quadratic_ranged_9_lb: [ 1 x_6_ ^ 2 - 2 x_7_ * x_6_ + 1 x_7_ ^ 2 + 1 y_6_ ^ 2 - 2 y_7_ * y_6_ + 1 y_7_ ^ 2 ] >= 9885.15
quadratic_ranged_10_lb: [ 1 x_3_ ^ 2 - 2 x_8_ * x_3_ + 1 x_8_ ^ 2 + 1 y_3_ ^ 2 - 2 y_8_ * y_3_ + 1 y_8_ ^ 2 ] >= 670.23
quadratic_ranged_11_lb: [ 1 x_7_ ^ 2 - 2 x_8_ * x_7_ + 1 x_8_ ^ 2 + 1 y_7_ ^ 2 - 2 y_8_ * y_7_ + 1 y_8_ ^ 2 ] >= 26690.4
quadratic_ranged_12_lb: [ 1 x_2_ ^ 2 - 2 x_9_ * x_2_ + 1 x_9_ ^ 2 + 1 y_2_ ^ 2 - 2 y_9_ * y_2_ + 1 y_9_ ^ 2 ] >= 23268.96
quadratic_ranged_13_lb: [ 1 x_8_ ^ 2 - 2 x_9_ * x_8_ + 1 x_9_ ^ 2 + 1 y_8_ ^ 2 - 2 y_9_ * y_8_ + 1 y_9_ ^ 2 ] >= 2788.83
quadratic_ranged_14_lb: [ 1 x_9_ ^ 2 - 2 x_10_ * x_9_ + 1 x_10_ ^ 2 + 1 y_9_ ^ 2 - 2 y_10_ * y_9_ + 1 y_10_ ^ 2 ] >= 2780.91
quadratic_ranged_15_lb: [ 1 x_9_ ^ 2 - 2 x_11_ * x_9_ + 1 x_11_ ^ 2 + 1 y_9_ ^ 2 - 2 y_11_ * y_9_ + 1 y_11_ ^ 2 ] >= 2623.5
quadratic_ranged_16_lb: [ 1 x_10_ ^ 2 - 2 x_11_ * x_10_ + 1 x_11_ ^ 2 + 1 y_10_ ^ 2 - 2 y_11_ * y_10_ + 1 y_11_ ^ 2 ] >= 1248.39
quadratic_ranged_17_lb: [ 1 x_4_ ^ 2 - 2 x_12_ * x_4_ + 1 x_12_ ^ 2 + 1 y_4_ ^ 2 - 2 y_12_ * y_4_ + 1 y_12_ ^ 2 ] >= 1065.24
quadratic_ranged_18_lb: [ 1 x_8_ ^ 2 - 2 x_12_ * x_8_ + 1 x_12_ ^ 2 + 1 y_8_ ^ 2 - 2 y_12_ * y_8_ + 1 y_12_ ^ 2 ] >= 3006.63
quadratic_ranged_19_lb: [ 1 x_11_ ^ 2 - 2 x_12_ * x_11_ + 1 x_12_ ^ 2 + 1 y_11_ ^ 2 - 2 y_12_ * y_11_ + 1 y_12_ ^ 2 ] >= 9915.84
quadratic_ranged_20_lb: [ 1 x_1_ ^ 2 - 2 x_13_ * x_1_ + 1 x_13_ ^ 2 + 1 y_1_ ^ 2 - 2 y_13_ * y_1_ + 1 y_13_ ^ 2 ] >= 1284.03
quadratic_ranged_21_lb: [ 1 x_7_ ^ 2 - 2 x_13_ * x_7_ + 1 x_13_ ^ 2 + 1 y_7_ ^ 2 - 2 y_13_ * y_7_ + 1 y_13_ ^ 2 ] >= 39929.67
quadratic_ranged_22_lb: [ 1 x_12_ ^ 2 - 2 x_13_ * x_12_ + 1 x_13_ ^ 2 + 1 y_12_ ^ 2 - 2 y_13_ * y_12_ + 1 y_13_ ^ 2 ] >= 6336
quadratic_ranged_23_lb: [ 1 x_13_ ^ 2 - 2 x_14_ * x_13_ + 1 x_14_ ^ 2 + 1 y_13_ ^ 2 - 2 y_14_ * y_13_ + 1 y_14_ ^ 2 ] >= 19428.75
quadratic_ranged_24_lb: [ 1 x_9_ ^ 2 - 2 x_15_ * x_9_ + 1 x_15_ ^ 2 + 1 y_9_ ^ 2 - 2 y_15_ * y_9_ + 1 y_15_ ^ 2 ] >= 18973.35
quadratic_ranged_25_lb: [ 1 x_14_ ^ 2 - 2 x_15_ * x_14_ + 1 x_15_ ^ 2 + 1 y_14_ ^ 2 - 2 y_15_ * y_14_ + 1 y_15_ ^ 2 ] >= 42490.8
quadratic_ranged_26_lb: [ 1 x_14_ ^ 2 - 2 x_16_ * x_14_ + 1 x_16_ ^ 2 + 1 y_14_ ^ 2 - 2 y_16_ * y_14_ + 1 y_16_ ^ 2 ] >= 26502.3
quadratic_ranged_27_lb: [ 1 x_15_ ^ 2 - 2 x_16_ * x_15_ + 1 x_16_ ^ 2 + 1 y_15_ ^ 2 - 2 y_16_ * y_15_ + 1 y_16_ ^ 2 ] >= 5617.26
quadratic_ranged_28_lb: [ 1 x_5_ ^ 2 - 2 x_17_ * x_5_ + 1 x_17_ ^ 2 + 1 y_5_ ^ 2 - 2 y_17_ * y_5_ + 1 y_17_ ^ 2 ] >= 11290.95
quadratic_ranged_29_lb: [ 1 x_7_ ^ 2 - 2 x_17_ * x_7_ + 1 x_17_ ^ 2 + 1 y_7_ ^ 2 - 2 y_17_ * y_7_ + 1 y_17_ ^ 2 ] >= 13632.3
quadratic_ranged_30_lb: [ 1 x_16_ ^ 2 - 2 x_17_ * x_16_ + 1 x_17_ ^ 2 + 1 y_16_ ^ 2 - 2 y_17_ * y_16_ + 1 y_17_ ^ 2 ] >= 5452.92
quadratic_ranged_31_lb: [ 1 x_3_ ^ 2 - 2 x_18_ * x_3_ + 1 x_18_ ^ 2 + 1 y_3_ ^ 2 - 2 y_18_ * y_3_ + 1 y_18_ ^ 2 ] >= 21713.67
quadratic_ranged_32_lb: [ 1 x_15_ ^ 2 - 2 x_18_ * x_15_ + 1 x_18_ ^ 2 + 1 y_15_ ^ 2 - 2 y_18_ * y_15_ + 1 y_18_ ^ 2 ] >= 28799.1
quadratic_ranged_33_lb: [ 1 x_17_ ^ 2 - 2 x_18_ * x_17_ + 1 x_18_ ^ 2 + 1 y_17_ ^ 2 - 2 y_18_ * y_17_ + 1 y_18_ ^ 2 ] >= 8700.12
quadratic_ranged_34_lb: [ 1 x_18_ ^ 2 - 2 x_19_ * x_18_ + 1 x_19_ ^ 2 + 1 y_18_ ^ 2 - 2 y_19_ * y_18_ + 1 y_19_ ^ 2 ] >= 31531.5
quadratic_ranged_35_lb: [ 1 x_3_ ^ 2 - 2 x_20_ * x_3_ + 1 x_20_ ^ 2 + 1 y_3_ ^ 2 - 2 y_20_ * y_3_ + 1 y_20_ ^ 2 ] >= 29491.11
quadratic_ranged_36_lb: [ 1 x_10_ ^ 2 - 2 x_20_ * x_10_ + 1 x_20_ ^ 2 + 1 y_10_ ^ 2 - 2 y_20_ * y_10_ + 1 y_20_ ^ 2 ] >= 24403.5
quadratic_ranged_37_lb: [ 1 x_19_ ^ 2 - 2 x_20_ * x_19_ + 1 x_20_ ^ 2 + 1 y_19_ ^ 2 - 2 y_20_ * y_19_ + 1 y_20_ ^ 2 ] >= 16651.8
quadratic_ranged_38_lb: [ 1 x_1_ ^ 2 - 2 x_21_ * x_1_ + 1 x_21_ ^ 2 + 1 y_1_ ^ 2 - 2 y_21_ * y_1_ + 1 y_21_ ^ 2 ] >= 8772.39
quadratic_ranged_39_lb: [ 1 x_5_ ^ 2 - 2 x_21_ * x_5_ + 1 x_21_ ^ 2 + 1 y_5_ ^ 2 - 2 y_21_ * y_5_ + 1 y_21_ ^ 2 ] >= 3003.66
quadratic_ranged_40_lb: [ 1 x_7_ ^ 2 - 2 x_21_ * x_7_ + 1 x_21_ ^ 2 + 1 y_7_ ^ 2 - 2 y_21_ * y_7_ + 1 y_21_ ^ 2 ] >= 33637.23
quadratic_ranged_41_lb: [ 1 x_10_ ^ 2 - 2 x_21_ * x_10_ + 1 x_21_ ^ 2 + 1 y_10_ ^ 2 - 2 y_21_ * y_10_ + 1 y_21_ ^ 2 ] >= 6123.15
quadratic_ranged_42_lb: [ 1 x_11_ ^ 2 - 2 x_21_ * x_11_ + 1 x_21_ ^ 2 + 1 y_11_ ^ 2 - 2 y_21_ * y_11_ + 1 y_21_ ^ 2 ] >= 12078
quadratic_ranged_43_lb: [ 1 x_14_ ^ 2 - 2 x_21_ * x_14_ + 1 x_21_ ^ 2 + 1 y_14_ ^ 2 - 2 y_21_ * y_14_ + 1 y_21_ ^ 2 ] >= 6776.55
quadratic_ranged_44_lb: [ 1 x_20_ ^ 2 - 2 x_21_ * x_20_ + 1 x_21_ ^ 2 + 1 y_20_ ^ 2 - 2 y_21_ * y_20_ + 1 y_21_ ^ 2 ] >= 32298.75
quadratic_ranged_45_lb: [ 1 x_21_ ^ 2 - 2 x_22_ * x_21_ + 1 x_22_ ^ 2 + 1 y_21_ ^ 2 - 2 y_22_ * y_21_ + 1 y_22_ ^ 2 ] >= 14646.06
quadratic_ranged_46_lb: [ 1 x_5_ ^ 2 - 2 x_23_ * x_5_ + 1 x_23_ ^ 2 + 1 y_5_ ^ 2 - 2 y_23_ * y_5_ + 1 y_23_ ^ 2 ] >= 5529.15
quadratic_ranged_47_lb: [ 1 x_6_ ^ 2 - 2 x_23_ * x_6_ + 1 x_23_ ^ 2 + 1 y_6_ ^ 2 - 2 y_23_ * y_6_ + 1 y_23_ ^ 2 ] >= 440.55
quadratic_ranged_48_lb: [ 1 x_7_ ^ 2 - 2 x_23_ * x_7_ + 1 x_23_ ^ 2 + 1 y_7_ ^ 2 - 2 y_23_ * y_7_ + 1 y_23_ ^ 2 ] >= 13293.72
quadratic_ranged_49_lb: [ 1 x_12_ ^ 2 - 2 x_23_ * x_12_ + 1 x_23_ ^ 2 + 1 y_12_ ^ 2 - 2 y_23_ * y_12_ + 1 y_23_ ^ 2 ] >= 6622.11
quadratic_ranged_50_lb: [ 1 x_20_ ^ 2 - 2 x_23_ * x_20_ + 1 x_23_ ^ 2 + 1 y_20_ ^ 2 - 2 y_23_ * y_20_ + 1 y_23_ ^ 2 ] >= 13598.64
quadratic_ranged_51_lb: [ 1 x_22_ ^ 2 - 2 x_23_ * x_22_ + 1 x_23_ ^ 2 + 1 y_22_ ^ 2 - 2 y_23_ * y_22_ + 1 y_23_ ^ 2 ] >= 195.03
quadratic_ranged_52_lb: [ 1 x_2_ ^ 2 - 2 x_24_ * x_2_ + 1 x_24_ ^ 2 + 1 y_2_ ^ 2 - 2 y_24_ * y_2_ + 1 y_24_ ^ 2 ] >= 1999.8
quadratic_ranged_53_lb: [ 1 x_21_ ^ 2 - 2 x_24_ * x_21_ + 1 x_24_ ^ 2 + 1 y_21_ ^ 2 - 2 y_24_ * y_21_ + 1 y_24_ ^ 2 ] >= 18875.34
quadratic_ranged_54_lb: [ 1 x_23_ ^ 2 - 2 x_24_ * x_23_ + 1 x_24_ ^ 2 + 1 y_23_ ^ 2 - 2 y_24_ * y_23_ + 1 y_24_ ^ 2 ] >= 17147.79
quadratic_ranged_55_lb: [ 1 x_2_ ^ 2 - 2 x_25_ * x_2_ + 1 x_25_ ^ 2 + 1 y_2_ ^ 2 - 2 y_25_ * y_2_ + 1 y_25_ ^ 2 ] >= 2911.59
quadratic_ranged_56_lb: [ 1 x_4_ ^ 2 - 2 x_25_ * x_4_ + 1 x_25_ ^ 2 + 1 y_4_ ^ 2 - 2 y_25_ * y_4_ + 1 y_25_ ^ 2 ] >= 8285.31
quadratic_ranged_57_lb: [ 1 x_8_ ^ 2 - 2 x_25_ * x_8_ + 1 x_25_ ^ 2 + 1 y_8_ ^ 2 - 2 y_25_ * y_8_ + 1 y_25_ ^ 2 ] >= 3999.6
quadratic_ranged_58_lb: [ 1 x_13_ ^ 2 - 2 x_25_ * x_13_ + 1 x_25_ ^ 2 + 1 y_13_ ^ 2 - 2 y_25_ * y_13_ + 1 y_25_ ^ 2 ] >= 9718.83
quadratic_ranged_59_lb: [ 1 x_24_ ^ 2 - 2 x_25_ * x_24_ + 1 x_25_ ^ 2 + 1 y_24_ ^ 2 - 2 y_25_ * y_24_ + 1 y_25_ ^ 2 ] >= 1969.11
quadratic_ranged_60_lb: [ 1 x_2_ ^ 2 - 2 x_26_ * x_2_ + 1 x_26_ ^ 2 + 1 y_2_ ^ 2 - 2 y_26_ * y_2_ + 1 y_26_ ^ 2 ] >= 3599.64
quadratic_ranged_61_lb: [ 1 x_5_ ^ 2 - 2 x_26_ * x_5_ + 1 x_26_ ^ 2 + 1 y_5_ ^ 2 - 2 y_26_ * y_5_ + 1 y_26_ ^ 2 ] >= 22445.28
quadratic_ranged_62_lb: [ 1 x_25_ ^ 2 - 2 x_26_ * x_25_ + 1 x_26_ ^ 2 + 1 y_25_ ^ 2 - 2 y_26_ * y_25_ + 1 y_26_ ^ 2 ] >= 36.63
quadratic_ranged_63_lb: [ 1 x_16_ ^ 2 - 2 x_27_ * x_16_ + 1 x_27_ ^ 2 + 1 y_16_ ^ 2 - 2 y_27_ * y_16_ + 1 y_27_ ^ 2 ] >= 143.55
quadratic_ranged_64_lb: [ 1 x_17_ ^ 2 - 2 x_27_ * x_17_ + 1 x_27_ ^ 2 + 1 y_17_ ^ 2 - 2 y_27_ * y_17_ + 1 y_27_ ^ 2 ] >= 5881.59
quadratic_ranged_65_lb: [ 1 x_19_ ^ 2 - 2 x_27_ * x_19_ + 1 x_27_ ^ 2 + 1 y_19_ ^ 2 - 2 y_27_ * y_19_ + 1 y_27_ ^ 2 ] >= 9845.55
quadratic_ranged_66_lb: [ 1 x_24_ ^ 2 - 2 x_27_ * x_24_ + 1 x_27_ ^ 2 + 1 y_24_ ^ 2 - 2 y_27_ * y_24_ + 1 y_27_ ^ 2 ] >= 1837.44
quadratic_ranged_67_lb: [ 1 x_26_ ^ 2 - 2 x_27_ * x_26_ + 1 x_27_ ^ 2 + 1 y_26_ ^ 2 - 2 y_27_ * y_26_ + 1 y_27_ ^ 2 ] >= 7809.12
quadratic_ranged_68_lb: [ 1 x_4_ ^ 2 - 2 x_28_ * x_4_ + 1 x_28_ ^ 2 + 1 y_4_ ^ 2 - 2 y_28_ * y_4_ + 1 y_28_ ^ 2 ] >= 4661.91
quadratic_ranged_69_lb: [ 1 x_8_ ^ 2 - 2 x_28_ * x_8_ + 1 x_28_ ^ 2 + 1 y_8_ ^ 2 - 2 y_28_ * y_8_ + 1 y_28_ ^ 2 ] >= 22207.68
quadratic_ranged_70_lb: [ 1 x_10_ ^ 2 - 2 x_28_ * x_10_ + 1 x_28_ ^ 2 + 1 y_10_ ^ 2 - 2 y_28_ * y_10_ + 1 y_28_ ^ 2 ] >= 23611.5
quadratic_ranged_71_lb: [ 1 x_13_ ^ 2 - 2 x_28_ * x_13_ + 1 x_28_ ^ 2 + 1 y_13_ ^ 2 - 2 y_28_ * y_13_ + 1 y_28_ ^ 2 ] >= 32271.03
quadratic_ranged_72_lb: [ 1 x_15_ ^ 2 - 2 x_28_ * x_15_ + 1 x_28_ ^ 2 + 1 y_15_ ^ 2 - 2 y_28_ * y_15_ + 1 y_28_ ^ 2 ] >= 23193.72
quadratic_ranged_73_lb: [ 1 x_26_ ^ 2 - 2 x_28_ * x_26_ + 1 x_28_ ^ 2 + 1 y_26_ ^ 2 - 2 y_28_ * y_26_ + 1 y_28_ ^ 2 ] >= 19357.47
quadratic_ranged_74_lb: [ 1 x_27_ ^ 2 - 2 x_28_ * x_27_ + 1 x_28_ ^ 2 + 1 y_27_ ^ 2 - 2 y_28_ * y_27_ + 1 y_28_ ^ 2 ] >= 4752.99
quadratic_ranged_75_lb: [ 1 x_4_ ^ 2 - 2 x_29_ * x_4_ + 1 x_29_ ^ 2 + 1 y_4_ ^ 2 - 2 y_29_ * y_4_ + 1 y_29_ ^ 2 ] >= 2832.39
quadratic_ranged_76_lb: [ 1 x_5_ ^ 2 - 2 x_29_ * x_5_ + 1 x_29_ ^ 2 + 1 y_5_ ^ 2 - 2 y_29_ * y_5_ + 1 y_29_ ^ 2 ] >= 18248.67
quadratic_ranged_77_lb: [ 1 x_7_ ^ 2 - 2 x_29_ * x_7_ + 1 x_29_ ^ 2 + 1 y_7_ ^ 2 - 2 y_29_ * y_7_ + 1 y_29_ ^ 2 ] >= 3732.3
quadratic_ranged_78_lb: [ 1 x_28_ ^ 2 - 2 x_29_ * x_28_ + 1 x_29_ ^ 2 + 1 y_28_ ^ 2 - 2 y_29_ * y_28_ + 1 y_29_ ^ 2 ] >= 4722.3
quadratic_ranged_79_lb: [ 1 x_13_ ^ 2 - 2 x_30_ * x_13_ + 1 x_30_ ^ 2 + 1 y_13_ ^ 2 - 2 y_30_ * y_13_ + 1 y_30_ ^ 2 ] >= 15171.75
quadratic_ranged_80_lb: [ 1 x_14_ ^ 2 - 2 x_30_ * x_14_ + 1 x_30_ ^ 2 + 1 y_14_ ^ 2 - 2 y_30_ * y_14_ + 1 y_30_ ^ 2 ] >= 8811
quadratic_ranged_81_lb: [ 1 x_29_ ^ 2 - 2 x_30_ * x_29_ + 1 x_30_ ^ 2 + 1 y_29_ ^ 2 - 2 y_30_ * y_29_ + 1 y_30_ ^ 2 ] >= 2124.54
quadratic_ranged_82_lb: [ 1 x_7_ ^ 2 - 2 x_31_ * x_7_ + 1 x_31_ ^ 2 + 1 y_7_ ^ 2 - 2 y_31_ * y_7_ + 1 y_31_ ^ 2 ] >= 33462
quadratic_ranged_83_lb: [ 1 x_17_ ^ 2 - 2 x_31_ * x_17_ + 1 x_31_ ^ 2 + 1 y_17_ ^ 2 - 2 y_31_ * y_17_ + 1 y_31_ ^ 2 ] >= 17940.78
quadratic_ranged_84_lb: [ 1 x_19_ ^ 2 - 2 x_31_ * x_19_ + 1 x_31_ ^ 2 + 1 y_19_ ^ 2 - 2 y_31_ * y_19_ + 1 y_31_ ^ 2 ] >= 50220.72
quadratic_ranged_85_lb: [ 1 x_30_ ^ 2 - 2 x_31_ * x_30_ + 1 x_31_ ^ 2 + 1 y_30_ ^ 2 - 2 y_31_ * y_30_ + 1 y_31_ ^ 2 ] >= 11349.36
quadratic_ranged_86_lb: [ 1 x_18_ ^ 2 - 2 x_32_ * x_18_ + 1 x_32_ ^ 2 + 1 y_18_ ^ 2 - 2 y_32_ * y_18_ + 1 y_32_ ^ 2 ] >= 6179.58
quadratic_ranged_87_lb: [ 1 x_26_ ^ 2 - 2 x_32_ * x_26_ + 1 x_32_ ^ 2 + 1 y_26_ ^ 2 - 2 y_32_ * y_26_ + 1 y_32_ ^ 2 ] >= 30833.55
quadratic_ranged_88_lb: [ 1 x_31_ ^ 2 - 2 x_32_ * x_31_ + 1 x_32_ ^ 2 + 1 y_31_ ^ 2 - 2 y_32_ * y_31_ + 1 y_32_ ^ 2 ] >= 641.52
quadratic_ranged_89_lb: [ 1 x_9_ ^ 2 - 2 x_33_ * x_9_ + 1 x_33_ ^ 2 + 1 y_9_ ^ 2 - 2 y_33_ * y_9_ + 1 y_33_ ^ 2 ] >= 2970.99
quadratic_ranged_90_lb: [ 1 x_22_ ^ 2 - 2 x_33_ * x_22_ + 1 x_33_ ^ 2 + 1 y_22_ ^ 2 - 2 y_33_ * y_22_ + 1 y_33_ ^ 2 ] >= 24485.67
quadratic_ranged_91_lb: [ 1 x_28_ ^ 2 - 2 x_33_ * x_28_ + 1 x_33_ ^ 2 + 1 y_28_ ^ 2 - 2 y_33_ * y_28_ + 1 y_33_ ^ 2 ] >= 31822.56
quadratic_ranged_92_lb: [ 1 x_32_ ^ 2 - 2 x_33_ * x_32_ + 1 x_33_ ^ 2 + 1 y_32_ ^ 2 - 2 y_33_ * y_32_ + 1 y_33_ ^ 2 ] >= 11563.2
quadratic_ranged_93_lb: [ 1 x_25_ ^ 2 - 2 x_34_ * x_25_ + 1 x_34_ ^ 2 + 1 y_25_ ^ 2 - 2 y_34_ * y_25_ + 1 y_34_ ^ 2 ] >= 24537.15
quadratic_ranged_94_lb: [ 1 x_29_ ^ 2 - 2 x_34_ * x_29_ + 1 x_34_ ^ 2 + 1 y_29_ ^ 2 - 2 y_34_ * y_29_ + 1 y_34_ ^ 2 ] >= 11132.55
quadratic_ranged_95_lb: [ 1 x_30_ ^ 2 - 2 x_34_ * x_30_ + 1 x_34_ ^ 2 + 1 y_30_ ^ 2 - 2 y_34_ * y_30_ + 1 y_34_ ^ 2 ] >= 4052.07
quadratic_ranged_96_lb: [ 1 x_33_ ^ 2 - 2 x_34_ * x_33_ + 1 x_34_ ^ 2 + 1 y_33_ ^ 2 - 2 y_34_ * y_33_ + 1 y_34_ ^ 2 ] >= 21586.95
quadratic_ranged_97_lb: [ 1 x_8_ ^ 2 - 2 x_35_ * x_8_ + 1 x_35_ ^ 2 + 1 y_8_ ^ 2 - 2 y_35_ * y_8_ + 1 y_35_ ^ 2 ] >= 7259.67
quadratic_ranged_98_lb: [ 1 x_9_ ^ 2 - 2 x_35_ * x_9_ + 1 x_35_ ^ 2 + 1 y_9_ ^ 2 - 2 y_35_ * y_9_ + 1 y_35_ ^ 2 ] >= 10060.38
quadratic_ranged_99_lb: [ 1 x_27_ ^ 2 - 2 x_35_ * x_27_ + 1 x_35_ ^ 2 + 1 y_27_ ^ 2 - 2 y_35_ * y_27_ + 1 y_35_ ^ 2 ] >= 15556.86
quadratic_ranged_100_lb: [ 1 x_33_ ^ 2 - 2 x_35_ * x_33_ + 1 x_35_ ^ 2 + 1 y_33_ ^ 2 - 2 y_35_ * y_33_ + 1 y_35_ ^ 2 ] >= 18870.39
quadratic_ranged_101_lb: [ 1 x_34_ ^ 2 - 2 x_35_ * x_34_ + 1 x_35_ ^ 2 + 1 y_34_ ^ 2 - 2 y_35_ * y_34_ + 1 y_35_ ^ 2 ] >= 39778.2
quadratic_ranged_102_lb: [ 1 x_5_ ^ 2 - 2 x_36_ * x_5_ + 1 x_36_ ^ 2 + 1 y_5_ ^ 2 - 2 y_36_ * y_5_ + 1 y_36_ ^ 2 ] >= 37030.95
quadratic_ranged_103_lb: [ 1 x_8_ ^ 2 - 2 x_36_ * x_8_ + 1 x_36_ ^ 2 + 1 y_8_ ^ 2 - 2 y_36_ * y_8_ + 1 y_36_ ^ 2 ] >= 8444.7
quadratic_ranged_104_lb: [ 1 x_9_ ^ 2 - 2 x_36_ * x_9_ + 1 x_36_ ^ 2 + 1 y_9_ ^ 2 - 2 y_36_ * y_9_ + 1 y_36_ ^ 2 ] >= 12783.869999999999
quadratic_ranged_105_lb: [ 1 x_10_ ^ 2 - 2 x_36_ * x_10_ + 1 x_36_ ^ 2 + 1 y_10_ ^ 2 - 2 y_36_ * y_10_ + 1 y_36_ ^ 2 ] >= 6161.76
quadratic_ranged_106_lb: [ 1 x_14_ ^ 2 - 2 x_36_ * x_14_ + 1 x_36_ ^ 2 + 1 y_14_ ^ 2 - 2 y_36_ * y_14_ + 1 y_36_ ^ 2 ] >= 44195.58
quadratic_ranged_107_lb: [ 1 x_35_ ^ 2 - 2 x_36_ * x_35_ + 1 x_36_ ^ 2 + 1 y_35_ ^ 2 - 2 y_36_ * y_35_ + 1 y_36_ ^ 2 ] >= 242.55
quadratic_ranged_108_lb: [ 1 x_36_ ^ 2 - 2 x_37_ * x_36_ + 1 x_37_ ^ 2 + 1 y_36_ ^ 2 - 2 y_37_ * y_36_ + 1 y_37_ ^ 2 ] >= 13346.19
quadratic_ranged_109_lb: [ 1 x_2_ ^ 2 - 2 x_38_ * x_2_ + 1 x_38_ ^ 2 + 1 y_2_ ^ 2 - 2 y_38_ * y_2_ + 1 y_38_ ^ 2 ] >= 19606.95
quadratic_ranged_110_lb: [ 1 x_11_ ^ 2 - 2 x_38_ * x_11_ + 1 x_38_ ^ 2 + 1 y_11_ ^ 2 - 2 y_38_ * y_11_ + 1 y_38_ ^ 2 ] >= 1454.31
quadratic_ranged_111_lb: [ 1 x_18_ ^ 2 - 2 x_38_ * x_18_ + 1 x_38_ ^ 2 + 1 y_18_ ^ 2 - 2 y_38_ * y_18_ + 1 y_38_ ^ 2 ] >= 27727.92
quadratic_ranged_112_lb: [ 1 x_24_ ^ 2 - 2 x_38_ * x_24_ + 1 x_38_ ^ 2 + 1 y_24_ ^ 2 - 2 y_38_ * y_24_ + 1 y_38_ ^ 2 ] >= 16656.75
quadratic_ranged_113_lb: [ 1 x_28_ ^ 2 - 2 x_38_ * x_28_ + 1 x_38_ ^ 2 + 1 y_28_ ^ 2 - 2 y_38_ * y_28_ + 1 y_38_ ^ 2 ] >= 38287.26
quadratic_ranged_114_lb: [ 1 x_34_ ^ 2 - 2 x_38_ * x_34_ + 1 x_38_ ^ 2 + 1 y_34_ ^ 2 - 2 y_38_ * y_34_ + 1 y_38_ ^ 2 ] >= 33637.23
quadratic_ranged_115_lb: [ 1 x_35_ ^ 2 - 2 x_38_ * x_35_ + 1 x_38_ ^ 2 + 1 y_35_ ^ 2 - 2 y_38_ * y_35_ + 1 y_38_ ^ 2 ] >= 7608.15
quadratic_ranged_116_lb: [ 1 x_37_ ^ 2 - 2 x_38_ * x_37_ + 1 x_38_ ^ 2 + 1 y_37_ ^ 2 - 2 y_38_ * y_37_ + 1 y_38_ ^ 2 ] >= 258.39
quadratic_ranged_117_lb: [ 1 x_7_ ^ 2 - 2 x_39_ * x_7_ + 1 x_39_ ^ 2 + 1 y_7_ ^ 2 - 2 y_39_ * y_7_ + 1 y_39_ ^ 2 ] >= 5171.76
quadratic_ranged_118_lb: [ 1 x_12_ ^ 2 - 2 x_39_ * x_12_ + 1 x_39_ ^ 2 + 1 y_12_ ^ 2 - 2 y_39_ * y_12_ + 1 y_39_ ^ 2 ] >= 6099.39
quadratic_ranged_119_lb: [ 1 x_25_ ^ 2 - 2 x_39_ * x_25_ + 1 x_39_ ^ 2 + 1 y_25_ ^ 2 - 2 y_39_ * y_25_ + 1 y_39_ ^ 2 ] >= 15238.08
quadratic_ranged_120_lb: [ 1 x_31_ ^ 2 - 2 x_39_ * x_31_ + 1 x_39_ ^ 2 + 1 y_31_ ^ 2 - 2 y_39_ * y_31_ + 1 y_39_ ^ 2 ] >= 12323.52
quadratic_ranged_121_lb: [ 1 x_38_ ^ 2 - 2 x_39_ * x_38_ + 1 x_39_ ^ 2 + 1 y_38_ ^ 2 - 2 y_39_ * y_38_ + 1 y_39_ ^ 2 ] >= 30414.78
quadratic_ranged_122_lb: [ 1 x_4_ ^ 2 - 2 x_40_ * x_4_ + 1 x_40_ ^ 2 + 1 y_4_ ^ 2 - 2 y_40_ * y_4_ + 1 y_40_ ^ 2 ] >= 1965.15
quadratic_ranged_123_lb: [ 1 x_13_ ^ 2 - 2 x_40_ * x_13_ + 1 x_40_ ^ 2 + 1 y_13_ ^ 2 - 2 y_40_ * y_13_ + 1 y_40_ ^ 2 ] >= 19654.47
quadratic_ranged_124_lb: [ 1 x_24_ ^ 2 - 2 x_40_ * x_24_ + 1 x_40_ ^ 2 + 1 y_24_ ^ 2 - 2 y_40_ * y_24_ + 1 y_40_ ^ 2 ] >= 2400.75
quadratic_ranged_125_lb: [ 1 x_39_ ^ 2 - 2 x_40_ * x_39_ + 1 x_40_ ^ 2 + 1 y_39_ ^ 2 - 2 y_40_ * y_39_ + 1 y_40_ ^ 2 ] >= 2053.2599999999998
quadratic_ranged_126_lb: [ 1 x_13_ ^ 2 - 2 x_41_ * x_13_ + 1 x_41_ ^ 2 + 1 y_13_ ^ 2 - 2 y_41_ * y_13_ + 1 y_41_ ^ 2 ] >= 18098.19
quadratic_ranged_127_lb: [ 1 x_17_ ^ 2 - 2 x_41_ * x_17_ + 1 x_41_ ^ 2 + 1 y_17_ ^ 2 - 2 y_41_ * y_17_ + 1 y_41_ ^ 2 ] >= 3969.9
quadratic_ranged_128_lb: [ 1 x_21_ ^ 2 - 2 x_41_ * x_21_ + 1 x_41_ ^ 2 + 1 y_21_ ^ 2 - 2 y_41_ * y_21_ + 1 y_41_ ^ 2 ] >= 11061.27
quadratic_ranged_129_lb: [ 1 x_29_ ^ 2 - 2 x_41_ * x_29_ + 1 x_41_ ^ 2 + 1 y_29_ ^ 2 - 2 y_41_ * y_29_ + 1 y_41_ ^ 2 ] >= 2290.86
quadratic_ranged_130_lb: [ 1 x_30_ ^ 2 - 2 x_41_ * x_30_ + 1 x_41_ ^ 2 + 1 y_30_ ^ 2 - 2 y_41_ * y_30_ + 1 y_41_ ^ 2 ] >= 134.64
quadratic_ranged_131_lb: [ 1 x_37_ ^ 2 - 2 x_41_ * x_37_ + 1 x_41_ ^ 2 + 1 y_37_ ^ 2 - 2 y_41_ * y_37_ + 1 y_41_ ^ 2 ] >= 23848.11
quadratic_ranged_132_lb: [ 1 x_39_ ^ 2 - 2 x_41_ * x_39_ + 1 x_41_ ^ 2 + 1 y_39_ ^ 2 - 2 y_41_ * y_39_ + 1 y_41_ ^ 2 ] >= 538.56
quadratic_ranged_133_lb: [ 1 x_40_ ^ 2 - 2 x_41_ * x_40_ + 1 x_41_ ^ 2 + 1 y_40_ ^ 2 - 2 y_41_ * y_40_ + 1 y_41_ ^ 2 ] >= 1245.42
quadratic_ranged_134_lb: [ 1 x_7_ ^ 2 - 2 x_42_ * x_7_ + 1 x_42_ ^ 2 + 1 y_7_ ^ 2 - 2 y_42_ * y_7_ + 1 y_42_ ^ 2 ] >= 26714.16
quadratic_ranged_135_lb: [ 1 x_25_ ^ 2 - 2 x_42_ * x_25_ + 1 x_42_ ^ 2 + 1 y_25_ ^ 2 - 2 y_42_ * y_25_ + 1 y_42_ ^ 2 ] >= 1536.48
quadratic_ranged_136_lb: [ 1 x_41_ ^ 2 - 2 x_42_ * x_41_ + 1 x_42_ ^ 2 + 1 y_41_ ^ 2 - 2 y_42_ * y_41_ + 1 y_42_ ^ 2 ] >= 15032.16
quadratic_ranged_137_lb: [ 1 x_2_ ^ 2 - 2 x_43_ * x_2_ + 1 x_43_ ^ 2 + 1 y_2_ ^ 2 - 2 y_43_ * y_2_ + 1 y_43_ ^ 2 ] >= 2935.35
quadratic_ranged_138_lb: [ 1 x_9_ ^ 2 - 2 x_43_ * x_9_ + 1 x_43_ ^ 2 + 1 y_9_ ^ 2 - 2 y_43_ * y_9_ + 1 y_43_ ^ 2 ] >= 12962.07
quadratic_ranged_139_lb: [ 1 x_11_ ^ 2 - 2 x_43_ * x_11_ + 1 x_43_ ^ 2 + 1 y_11_ ^ 2 - 2 y_43_ * y_11_ + 1 y_43_ ^ 2 ] >= 3925.35
quadratic_ranged_140_lb: [ 1 x_16_ ^ 2 - 2 x_43_ * x_16_ + 1 x_43_ ^ 2 + 1 y_16_ ^ 2 - 2 y_43_ * y_16_ + 1 y_43_ ^ 2 ] >= 11721.6
quadratic_ranged_141_lb: [ 1 x_33_ ^ 2 - 2 x_43_ * x_33_ + 1 x_43_ ^ 2 + 1 y_33_ ^ 2 - 2 y_43_ * y_33_ + 1 y_43_ ^ 2 ] >= 22225.5
quadratic_ranged_142_lb: [ 1 x_35_ ^ 2 - 2 x_43_ * x_35_ + 1 x_43_ ^ 2 + 1 y_35_ ^ 2 - 2 y_43_ * y_35_ + 1 y_43_ ^ 2 ] >= 195.03
quadratic_ranged_143_lb: [ 1 x_42_ ^ 2 - 2 x_43_ * x_42_ + 1 x_43_ ^ 2 + 1 y_42_ ^ 2 - 2 y_43_ * y_42_ + 1 y_43_ ^ 2 ] >= 3296.7
quadratic_ranged_144_lb: [ 1 x_34_ ^ 2 - 2 x_44_ * x_34_ + 1 x_44_ ^ 2 + 1 y_34_ ^ 2 - 2 y_44_ * y_34_ + 1 y_44_ ^ 2 ] >= 151.47
quadratic_ranged_145_lb: [ 1 x_43_ ^ 2 - 2 x_44_ * x_43_ + 1 x_44_ ^ 2 + 1 y_43_ ^ 2 - 2 y_44_ * y_43_ + 1 y_44_ ^ 2 ] >= 38412
quadratic_ranged_146_lb: [ 1 x_9_ ^ 2 - 2 x_45_ * x_9_ + 1 x_45_ ^ 2 + 1 y_9_ ^ 2 - 2 y_45_ * y_9_ + 1 y_45_ ^ 2 ] >= 1002.87
quadratic_ranged_147_lb: [ 1 x_26_ ^ 2 - 2 x_45_ * x_26_ + 1 x_45_ ^ 2 + 1 y_26_ ^ 2 - 2 y_45_ * y_26_ + 1 y_45_ ^ 2 ] >= 4859.91
quadratic_ranged_148_lb: [ 1 x_33_ ^ 2 - 2 x_45_ * x_33_ + 1 x_45_ ^ 2 + 1 y_33_ ^ 2 - 2 y_45_ * y_33_ + 1 y_45_ ^ 2 ] >= 2522.52
quadratic_ranged_149_lb: [ 1 x_44_ ^ 2 - 2 x_45_ * x_44_ + 1 x_45_ ^ 2 + 1 y_44_ ^ 2 - 2 y_45_ * y_44_ + 1 y_45_ ^ 2 ] >= 24759.9
quadratic_ranged_150_lb: [ 1 x_34_ ^ 2 - 2 x_46_ * x_34_ + 1 x_46_ ^ 2 + 1 y_34_ ^ 2 - 2 y_46_ * y_34_ + 1 y_46_ ^ 2 ] >= 43369.92
quadratic_ranged_151_lb: [ 1 x_42_ ^ 2 - 2 x_46_ * x_42_ + 1 x_46_ ^ 2 + 1 y_42_ ^ 2 - 2 y_46_ * y_42_ + 1 y_46_ ^ 2 ] >= 7889.3099999999995
quadratic_ranged_152_lb: [ 1 x_45_ ^ 2 - 2 x_46_ * x_45_ + 1 x_46_ ^ 2 + 1 y_45_ ^ 2 - 2 y_46_ * y_45_ + 1 y_46_ ^ 2 ] >= 17112.15
quadratic_ranged_153_lb: [ 1 x_5_ ^ 2 - 2 x_47_ * x_5_ + 1 x_47_ ^ 2 + 1 y_5_ ^ 2 - 2 y_47_ * y_5_ + 1 y_47_ ^ 2 ] >= 34050.06
quadratic_ranged_154_lb: [ 1 x_29_ ^ 2 - 2 x_47_ * x_29_ + 1 x_47_ ^ 2 + 1 y_29_ ^ 2 - 2 y_47_ * y_29_ + 1 y_47_ ^ 2 ] >= 7845.75
quadratic_ranged_155_lb: [ 1 x_32_ ^ 2 - 2 x_47_ * x_32_ + 1 x_47_ ^ 2 + 1 y_32_ ^ 2 - 2 y_47_ * y_32_ + 1 y_47_ ^ 2 ] >= 44293.59
quadratic_ranged_156_lb: [ 1 x_33_ ^ 2 - 2 x_47_ * x_33_ + 1 x_47_ ^ 2 + 1 y_33_ ^ 2 - 2 y_47_ * y_33_ + 1 y_47_ ^ 2 ] >= 21777.03
quadratic_ranged_157_lb: [ 1 x_46_ ^ 2 - 2 x_47_ * x_46_ + 1 x_47_ ^ 2 + 1 y_46_ ^ 2 - 2 y_47_ * y_46_ + 1 y_47_ ^ 2 ] >= 1029.6
quadratic_ranged_158_lb: [ 1 x_4_ ^ 2 - 2 x_48_ * x_4_ + 1 x_48_ ^ 2 + 1 y_4_ ^ 2 - 2 y_48_ * y_4_ + 1 y_48_ ^ 2 ] >= 7367.58
quadratic_ranged_159_lb: [ 1 x_6_ ^ 2 - 2 x_48_ * x_6_ + 1 x_48_ ^ 2 + 1 y_6_ ^ 2 - 2 y_48_ * y_6_ + 1 y_48_ ^ 2 ] >= 5324.22
quadratic_ranged_160_lb: [ 1 x_23_ ^ 2 - 2 x_48_ * x_23_ + 1 x_48_ ^ 2 + 1 y_23_ ^ 2 - 2 y_48_ * y_23_ + 1 y_48_ ^ 2 ] >= 3925.35
quadratic_ranged_161_lb: [ 1 x_32_ ^ 2 - 2 x_48_ * x_32_ + 1 x_48_ ^ 2 + 1 y_32_ ^ 2 - 2 y_48_ * y_32_ + 1 y_48_ ^ 2 ] >= 678.15
quadratic_ranged_162_lb: [ 1 x_47_ ^ 2 - 2 x_48_ * x_47_ + 1 x_48_ ^ 2 + 1 y_47_ ^ 2 - 2 y_48_ * y_47_ + 1 y_48_ ^ 2 ] >= 38421.9
quadratic_ranged_163_lb: [ 1 x_10_ ^ 2 - 2 x_49_ * x_10_ + 1 x_49_ ^ 2 + 1 y_10_ ^ 2 - 2 y_49_ * y_10_ + 1 y_49_ ^ 2 ] >= 6530.04
quadratic_ranged_164_lb: [ 1 x_11_ ^ 2 - 2 x_49_ * x_11_ + 1 x_49_ ^ 2 + 1 y_11_ ^ 2 - 2 y_49_ * y_11_ + 1 y_49_ ^ 2 ] >= 11619.63
quadratic_ranged_165_lb: [ 1 x_33_ ^ 2 - 2 x_49_ * x_33_ + 1 x_49_ ^ 2 + 1 y_33_ ^ 2 - 2 y_49_ * y_33_ + 1 y_49_ ^ 2 ] >= 14756.94
quadratic_ranged_166_lb: [ 1 x_39_ ^ 2 - 2 x_49_ * x_39_ + 1 x_49_ ^ 2 + 1 y_39_ ^ 2 - 2 y_49_ * y_39_ + 1 y_49_ ^ 2 ] >= 3265.02
quadratic_ranged_167_lb: [ 1 x_48_ ^ 2 - 2 x_49_ * x_48_ + 1 x_49_ ^ 2 + 1 y_48_ ^ 2 - 2 y_49_ * y_48_ + 1 y_49_ ^ 2 ] >= 13413.51
quadratic_ranged_168_lb: [ 1 x_32_ ^ 2 - 2 x_50_ * x_32_ + 1 x_50_ ^ 2 + 1 y_32_ ^ 2 - 2 y_50_ * y_32_ + 1 y_50_ ^ 2 ] >= 37379.43
quadratic_ranged_169_lb: [ 1 x_33_ ^ 2 - 2 x_50_ * x_33_ + 1 x_50_ ^ 2 + 1 y_33_ ^ 2 - 2 y_50_ * y_33_ + 1 y_50_ ^ 2 ] >= 26030.07
quadratic_ranged_170_lb: [ 1 x_47_ ^ 2 - 2 x_50_ * x_47_ + 1 x_50_ ^ 2 + 1 y_47_ ^ 2 - 2 y_50_ * y_47_ + 1 y_50_ ^ 2 ] >= 3217.5
quadratic_ranged_171_lb: [ 1 x_48_ ^ 2 - 2 x_50_ * x_48_ + 1 x_50_ ^ 2 + 1 y_48_ ^ 2 - 2 y_50_ * y_48_ + 1 y_50_ ^ 2 ] >= 30111.84
quadratic_ranged_172_lb: [ 1 x_49_ ^ 2 - 2 x_50_ * x_49_ + 1 x_50_ ^ 2 + 1 y_49_ ^ 2 - 2 y_50_ * y_49_ + 1 y_50_ ^ 2 ] >= 3331.35
quadratic_ranged_173_lb: [ 1 x_7_ ^ 2 - 2 x_51_ * x_7_ + 1 x_51_ ^ 2 + 1 y_7_ ^ 2 - 2 y_51_ * y_7_ + 1 y_51_ ^ 2 ] >= 12451.23
quadratic_ranged_174_lb: [ 1 x_8_ ^ 2 - 2 x_51_ * x_8_ + 1 x_51_ ^ 2 + 1 y_8_ ^ 2 - 2 y_51_ * y_8_ + 1 y_51_ ^ 2 ] >= 14613.39
quadratic_ranged_175_lb: [ 1 x_14_ ^ 2 - 2 x_51_ * x_14_ + 1 x_51_ ^ 2 + 1 y_14_ ^ 2 - 2 y_51_ * y_14_ + 1 y_51_ ^ 2 ] >= 44851.95
quadratic_ranged_176_lb: [ 1 x_21_ ^ 2 - 2 x_51_ * x_21_ + 1 x_51_ ^ 2 + 1 y_21_ ^ 2 - 2 y_51_ * y_21_ + 1 y_51_ ^ 2 ] >= 30747.42
quadratic_ranged_177_lb: [ 1 x_22_ ^ 2 - 2 x_51_ * x_22_ + 1 x_51_ ^ 2 + 1 y_22_ ^ 2 - 2 y_51_ * y_22_ + 1 y_51_ ^ 2 ] >= 29502
quadratic_ranged_178_lb: [ 1 x_37_ ^ 2 - 2 x_51_ * x_37_ + 1 x_51_ ^ 2 + 1 y_37_ ^ 2 - 2 y_51_ * y_37_ + 1 y_51_ ^ 2 ] >= 24967.8
quadratic_ranged_179_lb: [ 1 x_50_ ^ 2 - 2 x_51_ * x_50_ + 1 x_51_ ^ 2 + 1 y_50_ ^ 2 - 2 y_51_ * y_50_ + 1 y_51_ ^ 2 ] >= 1623.6
quadratic_ranged_180_lb: [ 1 x_7_ ^ 2 - 2 x_52_ * x_7_ + 1 x_52_ ^ 2 + 1 y_7_ ^ 2 - 2 y_52_ * y_7_ + 1 y_52_ ^ 2 ] >= 15238.08
quadratic_ranged_181_lb: [ 1 x_10_ ^ 2 - 2 x_52_ * x_10_ + 1 x_52_ ^ 2 + 1 y_10_ ^ 2 - 2 y_52_ * y_10_ + 1 y_52_ ^ 2 ] >= 3565.98
quadratic_ranged_182_lb: [ 1 x_11_ ^ 2 - 2 x_52_ * x_11_ + 1 x_52_ ^ 2 + 1 y_11_ ^ 2 - 2 y_52_ * y_11_ + 1 y_52_ ^ 2 ] >= 8772.39
quadratic_ranged_183_lb: [ 1 x_32_ ^ 2 - 2 x_52_ * x_32_ + 1 x_52_ ^ 2 + 1 y_32_ ^ 2 - 2 y_52_ * y_32_ + 1 y_52_ ^ 2 ] >= 11468.16
quadratic_ranged_184_lb: [ 1 x_40_ ^ 2 - 2 x_52_ * x_40_ + 1 x_52_ ^ 2 + 1 y_40_ ^ 2 - 2 y_52_ * y_40_ + 1 y_52_ ^ 2 ] >= 4041.18
quadratic_ranged_185_lb: [ 1 x_42_ ^ 2 - 2 x_52_ * x_42_ + 1 x_52_ ^ 2 + 1 y_42_ ^ 2 - 2 y_52_ * y_42_ + 1 y_52_ ^ 2 ] >= 6058.8
quadratic_ranged_186_lb: [ 1 x_47_ ^ 2 - 2 x_52_ * x_47_ + 1 x_52_ ^ 2 + 1 y_47_ ^ 2 - 2 y_52_ * y_47_ + 1 y_52_ ^ 2 ] >= 10839.51
quadratic_ranged_187_lb: [ 1 x_48_ ^ 2 - 2 x_52_ * x_48_ + 1 x_52_ ^ 2 + 1 y_48_ ^ 2 - 2 y_52_ * y_48_ + 1 y_52_ ^ 2 ] >= 8455.59
quadratic_ranged_188_lb: [ 1 x_49_ ^ 2 - 2 x_52_ * x_49_ + 1 x_52_ ^ 2 + 1 y_49_ ^ 2 - 2 y_52_ * y_49_ + 1 y_52_ ^ 2 ] >= 1530.54
quadratic_ranged_189_lb: [ 1 x_51_ ^ 2 - 2 x_52_ * x_51_ + 1 x_52_ ^ 2 + 1 y_51_ ^ 2 - 2 y_52_ * y_51_ + 1 y_52_ ^ 2 ] >= 14344.11
quadratic_ranged_190_lb: [ 1 x_19_ ^ 2 - 2 x_53_ * x_19_ + 1 x_53_ ^ 2 + 1 y_19_ ^ 2 - 2 y_53_ * y_19_ + 1 y_53_ ^ 2 ] >= 23383.8
quadratic_ranged_191_lb: [ 1 x_29_ ^ 2 - 2 x_53_ * x_29_ + 1 x_53_ ^ 2 + 1 y_29_ ^ 2 - 2 y_53_ * y_29_ + 1 y_53_ ^ 2 ] >= 20768.22
quadratic_ranged_192_lb: [ 1 x_52_ ^ 2 - 2 x_53_ * x_52_ + 1 x_53_ ^ 2 + 1 y_52_ ^ 2 - 2 y_53_ * y_52_ + 1 y_53_ ^ 2 ] >= 6435
quadratic_ranged_193_lb: [ 1 x_24_ ^ 2 - 2 x_54_ * x_24_ + 1 x_54_ ^ 2 + 1 y_24_ ^ 2 - 2 y_54_ * y_24_ + 1 y_54_ ^ 2 ] >= 4284.72
quadratic_ranged_194_lb: [ 1 x_45_ ^ 2 - 2 x_54_ * x_45_ + 1 x_54_ ^ 2 + 1 y_45_ ^ 2 - 2 y_54_ * y_45_ + 1 y_54_ ^ 2 ] >= 25535.07
quadratic_ranged_195_lb: [ 1 x_47_ ^ 2 - 2 x_54_ * x_47_ + 1 x_54_ ^ 2 + 1 y_47_ ^ 2 - 2 y_54_ * y_47_ + 1 y_54_ ^ 2 ] >= 13925.34
quadratic_ranged_196_lb: [ 1 x_53_ ^ 2 - 2 x_54_ * x_53_ + 1 x_54_ ^ 2 + 1 y_53_ ^ 2 - 2 y_54_ * y_53_ + 1 y_54_ ^ 2 ] >= 31902.75
quadratic_ranged_197_lb: [ 1 x_8_ ^ 2 - 2 x_55_ * x_8_ + 1 x_55_ ^ 2 + 1 y_8_ ^ 2 - 2 y_55_ * y_8_ + 1 y_55_ ^ 2 ] >= 5845.95
quadratic_ranged_198_lb: [ 1 x_26_ ^ 2 - 2 x_55_ * x_26_ + 1 x_55_ ^ 2 + 1 y_26_ ^ 2 - 2 y_55_ * y_26_ + 1 y_55_ ^ 2 ] >= 15618.24
quadratic_ranged_199_lb: [ 1 x_29_ ^ 2 - 2 x_55_ * x_29_ + 1 x_55_ ^ 2 + 1 y_29_ ^ 2 - 2 y_55_ * y_29_ + 1 y_55_ ^ 2 ] >= 17052.75
quadratic_ranged_200_lb: [ 1 x_33_ ^ 2 - 2 x_55_ * x_33_ + 1 x_55_ ^ 2 + 1 y_33_ ^ 2 - 2 y_55_ * y_33_ + 1 y_55_ ^ 2 ] >= 2717.55
quadratic_ranged_201_lb: [ 1 x_38_ ^ 2 - 2 x_55_ * x_38_ + 1 x_55_ ^ 2 + 1 y_38_ ^ 2 - 2 y_55_ * y_38_ + 1 y_55_ ^ 2 ] >= 11144.43
quadratic_ranged_202_lb: [ 1 x_53_ ^ 2 - 2 x_55_ * x_53_ + 1 x_55_ ^ 2 + 1 y_53_ ^ 2 - 2 y_55_ * y_53_ + 1 y_55_ ^ 2 ] >= 3030.39
quadratic_ranged_203_lb: [ 1 x_54_ ^ 2 - 2 x_55_ * x_54_ + 1 x_55_ ^ 2 + 1 y_54_ ^ 2 - 2 y_55_ * y_54_ + 1 y_55_ ^ 2 ] >= 25035.12
quadratic_ranged_204_lb: [ 1 x_31_ ^ 2 - 2 x_56_ * x_31_ + 1 x_56_ ^ 2 + 1 y_31_ ^ 2 - 2 y_56_ * y_31_ + 1 y_56_ ^ 2 ] >= 32000.76
quadratic_ranged_205_lb: [ 1 x_42_ ^ 2 - 2 x_56_ * x_42_ + 1 x_56_ ^ 2 + 1 y_42_ ^ 2 - 2 y_56_ * y_42_ + 1 y_56_ ^ 2 ] >= 15701.4
quadratic_ranged_206_lb: [ 1 x_53_ ^ 2 - 2 x_56_ * x_53_ + 1 x_56_ ^ 2 + 1 y_53_ ^ 2 - 2 y_56_ * y_53_ + 1 y_56_ ^ 2 ] >= 30222.72
quadratic_ranged_207_lb: [ 1 x_55_ ^ 2 - 2 x_56_ * x_55_ + 1 x_56_ ^ 2 + 1 y_55_ ^ 2 - 2 y_56_ * y_55_ + 1 y_56_ ^ 2 ] >= 26030.07
quadratic_ranged_208_lb: [ 1 x_1_ ^ 2 - 2 x_57_ * x_1_ + 1 x_57_ ^ 2 + 1 y_1_ ^ 2 - 2 y_57_ * y_1_ + 1 y_57_ ^ 2 ] >= 7660.62
quadratic_ranged_209_lb: [ 1 x_6_ ^ 2 - 2 x_57_ * x_6_ + 1 x_57_ ^ 2 + 1 y_6_ ^ 2 - 2 y_57_ * y_6_ + 1 y_57_ ^ 2 ] >= 11013.75
quadratic_ranged_210_lb: [ 1 x_12_ ^ 2 - 2 x_57_ * x_12_ + 1 x_57_ ^ 2 + 1 y_12_ ^ 2 - 2 y_57_ * y_12_ + 1 y_57_ ^ 2 ] >= 2151.27
quadratic_ranged_211_lb: [ 1 x_18_ ^ 2 - 2 x_57_ * x_18_ + 1 x_57_ ^ 2 + 1 y_18_ ^ 2 - 2 y_57_ * y_18_ + 1 y_57_ ^ 2 ] >= 12078
quadratic_ranged_212_lb: [ 1 x_23_ ^ 2 - 2 x_57_ * x_23_ + 1 x_57_ ^ 2 + 1 y_23_ ^ 2 - 2 y_57_ * y_23_ + 1 y_57_ ^ 2 ] >= 14978.7
quadratic_ranged_213_lb: [ 1 x_29_ ^ 2 - 2 x_57_ * x_29_ + 1 x_57_ ^ 2 + 1 y_29_ ^ 2 - 2 y_57_ * y_29_ + 1 y_57_ ^ 2 ] >= 5247
quadratic_ranged_214_lb: [ 1 x_31_ ^ 2 - 2 x_57_ * x_31_ + 1 x_57_ ^ 2 + 1 y_31_ ^ 2 - 2 y_57_ * y_31_ + 1 y_57_ ^ 2 ] >= 20958.3
quadratic_ranged_215_lb: [ 1 x_43_ ^ 2 - 2 x_57_ * x_43_ + 1 x_57_ ^ 2 + 1 y_43_ ^ 2 - 2 y_57_ * y_43_ + 1 y_57_ ^ 2 ] >= 6858.72
quadratic_ranged_216_lb: [ 1 x_56_ ^ 2 - 2 x_57_ * x_56_ + 1 x_57_ ^ 2 + 1 y_56_ ^ 2 - 2 y_57_ * y_56_ + 1 y_57_ ^ 2 ] >= 9846.539999999999
quadratic_ranged_217_lb: [ 1 x_13_ ^ 2 - 2 x_58_ * x_13_ + 1 x_58_ ^ 2 + 1 y_13_ ^ 2 - 2 y_58_ * y_13_ + 1 y_58_ ^ 2 ] >= 26307.27
quadratic_ranged_218_lb: [ 1 x_18_ ^ 2 - 2 x_58_ * x_18_ + 1 x_58_ ^ 2 + 1 y_18_ ^ 2 - 2 y_58_ * y_18_ + 1 y_58_ ^ 2 ] >= 28846.62
quadratic_ranged_219_lb: [ 1 x_21_ ^ 2 - 2 x_58_ * x_21_ + 1 x_58_ ^ 2 + 1 y_21_ ^ 2 - 2 y_58_ * y_21_ + 1 y_58_ ^ 2 ] >= 31839.39
quadratic_ranged_220_lb: [ 1 x_24_ ^ 2 - 2 x_58_ * x_24_ + 1 x_58_ ^ 2 + 1 y_24_ ^ 2 - 2 y_58_ * y_24_ + 1 y_58_ ^ 2 ] >= 2095.83
quadratic_ranged_221_lb: [ 1 x_38_ ^ 2 - 2 x_58_ * x_38_ + 1 x_58_ ^ 2 + 1 y_38_ ^ 2 - 2 y_58_ * y_38_ + 1 y_58_ ^ 2 ] >= 22811.579999999998
quadratic_ranged_222_lb: [ 1 x_52_ ^ 2 - 2 x_58_ * x_52_ + 1 x_58_ ^ 2 + 1 y_52_ ^ 2 - 2 y_58_ * y_52_ + 1 y_58_ ^ 2 ] >= 14687.64
quadratic_ranged_223_lb: [ 1 x_55_ ^ 2 - 2 x_58_ * x_55_ + 1 x_58_ ^ 2 + 1 y_55_ ^ 2 - 2 y_58_ * y_55_ + 1 y_58_ ^ 2 ] >= 34179.75
quadratic_ranged_224_lb: [ 1 x_57_ ^ 2 - 2 x_58_ * x_57_ + 1 x_58_ ^ 2 + 1 y_57_ ^ 2 - 2 y_58_ * y_57_ + 1 y_58_ ^ 2 ] >= 9838.62
quadratic_ranged_225_lb: [ 1 x_4_ ^ 2 - 2 x_59_ * x_4_ + 1 x_59_ ^ 2 + 1 y_4_ ^ 2 - 2 y_59_ * y_4_ + 1 y_59_ ^ 2 ] >= 2760.12
quadratic_ranged_226_lb: [ 1 x_16_ ^ 2 - 2 x_59_ * x_16_ + 1 x_59_ ^ 2 + 1 y_16_ ^ 2 - 2 y_59_ * y_16_ + 1 y_59_ ^ 2 ] >= 10930.59
quadratic_ranged_227_lb: [ 1 x_33_ ^ 2 - 2 x_59_ * x_33_ + 1 x_59_ ^ 2 + 1 y_33_ ^ 2 - 2 y_59_ * y_33_ + 1 y_59_ ^ 2 ] >= 4079.79
quadratic_ranged_228_lb: [ 1 x_35_ ^ 2 - 2 x_59_ * x_35_ + 1 x_59_ ^ 2 + 1 y_35_ ^ 2 - 2 y_59_ * y_35_ + 1 y_59_ ^ 2 ] >= 11349.36
quadratic_ranged_229_lb: [ 1 x_55_ ^ 2 - 2 x_59_ * x_55_ + 1 x_59_ ^ 2 + 1 y_55_ ^ 2 - 2 y_59_ * y_55_ + 1 y_59_ ^ 2 ] >= 3328.38
quadratic_ranged_230_lb: [ 1 x_56_ ^ 2 - 2 x_59_ * x_56_ + 1 x_59_ ^ 2 + 1 y_56_ ^ 2 - 2 y_59_ * y_56_ + 1 y_59_ ^ 2 ] >= 13211.55
quadratic_ranged_231_lb: [ 1 x_58_ ^ 2 - 2 x_59_ * x_58_ + 1 x_59_ ^ 2 + 1 y_58_ ^ 2 - 2 y_59_ * y_58_ + 1 y_59_ ^ 2 ] >= 16411.23
quadratic_ranged_232_lb: [ 1 x_3_ ^ 2 - 2 x_60_ * x_3_ + 1 x_60_ ^ 2 + 1 y_3_ ^ 2 - 2 y_60_ * y_3_ + 1 y_60_ ^ 2 ] >= 5762.79
quadratic_ranged_233_lb: [ 1 x_18_ ^ 2 - 2 x_60_ * x_18_ + 1 x_60_ ^ 2 + 1 y_18_ ^ 2 - 2 y_60_ * y_18_ + 1 y_60_ ^ 2 ] >= 5148
quadratic_ranged_234_lb: [ 1 x_28_ ^ 2 - 2 x_60_ * x_28_ + 1 x_60_ ^ 2 + 1 y_28_ ^ 2 - 2 y_60_ * y_28_ + 1 y_60_ ^ 2 ] >= 10282.14
quadratic_ranged_235_lb: [ 1 x_31_ ^ 2 - 2 x_60_ * x_31_ + 1 x_60_ ^ 2 + 1 y_31_ ^ 2 - 2 y_60_ * y_31_ + 1 y_60_ ^ 2 ] >= 11058.3
quadratic_ranged_236_lb: [ 1 x_39_ ^ 2 - 2 x_60_ * x_39_ + 1 x_60_ ^ 2 + 1 y_39_ ^ 2 - 2 y_60_ * y_39_ + 1 y_60_ ^ 2 ] >= 6258.78
quadratic_ranged_237_lb: [ 1 x_46_ ^ 2 - 2 x_60_ * x_46_ + 1 x_60_ ^ 2 + 1 y_46_ ^ 2 - 2 y_60_ * y_46_ + 1 y_60_ ^ 2 ] >= 19210.95
quadratic_ranged_238_lb: [ 1 x_59_ ^ 2 - 2 x_60_ * x_59_ + 1 x_60_ ^ 2 + 1 y_59_ ^ 2 - 2 y_60_ * y_59_ + 1 y_60_ ^ 2 ] >= 385.11
quadratic_ranged_239_lb: [ 1 x_10_ ^ 2 - 2 x_61_ * x_10_ + 1 x_61_ ^ 2 + 1 y_10_ ^ 2 - 2 y_61_ * y_10_ + 1 y_61_ ^ 2 ] >= 20885.04
quadratic_ranged_240_lb: [ 1 x_19_ ^ 2 - 2 x_61_ * x_19_ + 1 x_61_ ^ 2 + 1 y_19_ ^ 2 - 2 y_61_ * y_19_ + 1 y_61_ ^ 2 ] >= 20253.42
quadratic_ranged_241_lb: [ 1 x_39_ ^ 2 - 2 x_61_ * x_39_ + 1 x_61_ ^ 2 + 1 y_39_ ^ 2 - 2 y_61_ * y_39_ + 1 y_61_ ^ 2 ] >= 1126.62
quadratic_ranged_242_lb: [ 1 x_41_ ^ 2 - 2 x_61_ * x_41_ + 1 x_61_ ^ 2 + 1 y_41_ ^ 2 - 2 y_61_ * y_41_ + 1 y_61_ ^ 2 ] >= 2172.06
quadratic_ranged_243_lb: [ 1 x_51_ ^ 2 - 2 x_61_ * x_51_ + 1 x_61_ ^ 2 + 1 y_51_ ^ 2 - 2 y_61_ * y_51_ + 1 y_61_ ^ 2 ] >= 15171.75
quadratic_ranged_244_lb: [ 1 x_53_ ^ 2 - 2 x_61_ * x_53_ + 1 x_61_ ^ 2 + 1 y_53_ ^ 2 - 2 y_61_ * y_53_ + 1 y_61_ ^ 2 ] >= 30913.739999999998
quadratic_ranged_245_lb: [ 1 x_54_ ^ 2 - 2 x_61_ * x_54_ + 1 x_61_ ^ 2 + 1 y_54_ ^ 2 - 2 y_61_ * y_54_ + 1 y_61_ ^ 2 ] >= 701.91
quadratic_ranged_246_lb: [ 1 x_56_ ^ 2 - 2 x_61_ * x_56_ + 1 x_61_ ^ 2 + 1 y_56_ ^ 2 - 2 y_61_ * y_56_ + 1 y_61_ ^ 2 ] >= 2544.3
quadratic_ranged_247_lb: [ 1 x_60_ ^ 2 - 2 x_61_ * x_60_ + 1 x_61_ ^ 2 + 1 y_60_ ^ 2 - 2 y_61_ * y_60_ + 1 y_61_ ^ 2 ] >= 9872.28
quadratic_ranged_248_lb: [ 1 x_3_ ^ 2 - 2 x_62_ * x_3_ + 1 x_62_ ^ 2 + 1 y_3_ ^ 2 - 2 y_62_ * y_3_ + 1 y_62_ ^ 2 ] >= 634.59
quadratic_ranged_249_lb: [ 1 x_15_ ^ 2 - 2 x_62_ * x_15_ + 1 x_62_ ^ 2 + 1 y_15_ ^ 2 - 2 y_62_ * y_15_ + 1 y_62_ ^ 2 ] >= 15752.88
quadratic_ranged_250_lb: [ 1 x_31_ ^ 2 - 2 x_62_ * x_31_ + 1 x_62_ ^ 2 + 1 y_31_ ^ 2 - 2 y_62_ * y_31_ + 1 y_62_ ^ 2 ] >= 25664.76
quadratic_ranged_251_lb: [ 1 x_48_ ^ 2 - 2 x_62_ * x_48_ + 1 x_62_ ^ 2 + 1 y_48_ ^ 2 - 2 y_62_ * y_48_ + 1 y_62_ ^ 2 ] >= 20913.75
quadratic_ranged_252_lb: [ 1 x_49_ ^ 2 - 2 x_62_ * x_49_ + 1 x_62_ ^ 2 + 1 y_49_ ^ 2 - 2 y_62_ * y_49_ + 1 y_62_ ^ 2 ] >= 12388.86
quadratic_ranged_253_lb: [ 1 x_54_ ^ 2 - 2 x_62_ * x_54_ + 1 x_62_ ^ 2 + 1 y_54_ ^ 2 - 2 y_62_ * y_54_ + 1 y_62_ ^ 2 ] >= 29356.47
quadratic_ranged_254_lb: [ 1 x_61_ ^ 2 - 2 x_62_ * x_61_ + 1 x_62_ ^ 2 + 1 y_61_ ^ 2 - 2 y_62_ * y_61_ + 1 y_62_ ^ 2 ] >= 30446.46
quadratic_ranged_255_lb: [ 1 x_31_ ^ 2 - 2 x_63_ * x_31_ + 1 x_63_ ^ 2 + 1 y_31_ ^ 2 - 2 y_63_ * y_31_ + 1 y_63_ ^ 2 ] >= 24403.5
quadratic_ranged_256_lb: [ 1 x_62_ ^ 2 - 2 x_63_ * x_62_ + 1 x_63_ ^ 2 + 1 y_62_ ^ 2 - 2 y_63_ * y_62_ + 1 y_63_ ^ 2 ] >= 698.9399999999999
quadratic_ranged_257_lb: [ 1 x_4_ ^ 2 - 2 x_64_ * x_4_ + 1 x_64_ ^ 2 + 1 y_4_ ^ 2 - 2 y_64_ * y_4_ + 1 y_64_ ^ 2 ] >= 6401.34
quadratic_ranged_258_lb: [ 1 x_14_ ^ 2 - 2 x_64_ * x_14_ + 1 x_64_ ^ 2 + 1 y_14_ ^ 2 - 2 y_64_ * y_14_ + 1 y_64_ ^ 2 ] >= 7188.39
quadratic_ranged_259_lb: [ 1 x_20_ ^ 2 - 2 x_64_ * x_20_ + 1 x_64_ ^ 2 + 1 y_20_ ^ 2 - 2 y_64_ * y_20_ + 1 y_64_ ^ 2 ] >= 30793.95
quadratic_ranged_260_lb: [ 1 x_24_ ^ 2 - 2 x_64_ * x_24_ + 1 x_64_ ^ 2 + 1 y_24_ ^ 2 - 2 y_64_ * y_24_ + 1 y_64_ ^ 2 ] >= 17400.24
quadratic_ranged_261_lb: [ 1 x_43_ ^ 2 - 2 x_64_ * x_43_ + 1 x_64_ ^ 2 + 1 y_43_ ^ 2 - 2 y_64_ * y_43_ + 1 y_64_ ^ 2 ] >= 23392.71
quadratic_ranged_262_lb: [ 1 x_63_ ^ 2 - 2 x_64_ * x_63_ + 1 x_64_ ^ 2 + 1 y_63_ ^ 2 - 2 y_64_ * y_63_ + 1 y_64_ ^ 2 ] >= 4836.15
quadratic_ranged_263_lb: [ 1 x_1_ ^ 2 - 2 x_65_ * x_1_ + 1 x_65_ ^ 2 + 1 y_1_ ^ 2 - 2 y_65_ * y_1_ + 1 y_65_ ^ 2 ] >= 47877.39
quadratic_ranged_264_lb: [ 1 x_7_ ^ 2 - 2 x_65_ * x_7_ + 1 x_65_ ^ 2 + 1 y_7_ ^ 2 - 2 y_65_ * y_7_ + 1 y_65_ ^ 2 ] >= 678.15
quadratic_ranged_265_lb: [ 1 x_23_ ^ 2 - 2 x_65_ * x_23_ + 1 x_65_ ^ 2 + 1 y_23_ ^ 2 - 2 y_65_ * y_23_ + 1 y_65_ ^ 2 ] >= 8412.03
quadratic_ranged_266_lb: [ 1 x_30_ ^ 2 - 2 x_65_ * x_30_ + 1 x_65_ ^ 2 + 1 y_30_ ^ 2 - 2 y_65_ * y_30_ + 1 y_65_ ^ 2 ] >= 5604.39
quadratic_ranged_267_lb: [ 1 x_31_ ^ 2 - 2 x_65_ * x_31_ + 1 x_65_ ^ 2 + 1 y_31_ ^ 2 - 2 y_65_ * y_31_ + 1 y_65_ ^ 2 ] >= 25804.35
quadratic_ranged_268_lb: [ 1 x_40_ ^ 2 - 2 x_65_ * x_40_ + 1 x_65_ ^ 2 + 1 y_40_ ^ 2 - 2 y_65_ * y_40_ + 1 y_65_ ^ 2 ] >= 3113.55
quadratic_ranged_269_lb: [ 1 x_44_ ^ 2 - 2 x_65_ * x_44_ + 1 x_65_ ^ 2 + 1 y_44_ ^ 2 - 2 y_65_ * y_44_ + 1 y_65_ ^ 2 ] >= 7604.19
quadratic_ranged_270_lb: [ 1 x_60_ ^ 2 - 2 x_65_ * x_60_ + 1 x_65_ ^ 2 + 1 y_60_ ^ 2 - 2 y_65_ * y_60_ + 1 y_65_ ^ 2 ] >= 13983.75
quadratic_ranged_271_lb: [ 1 x_62_ ^ 2 - 2 x_65_ * x_62_ + 1 x_65_ ^ 2 + 1 y_62_ ^ 2 - 2 y_65_ * y_62_ + 1 y_65_ ^ 2 ] >= 36931.95
quadratic_ranged_272_lb: [ 1 x_64_ ^ 2 - 2 x_65_ * x_64_ + 1 x_65_ ^ 2 + 1 y_64_ ^ 2 - 2 y_65_ * y_64_ + 1 y_65_ ^ 2 ] >= 27967.5
quadratic_ranged_273_lb: [ 1 x_7_ ^ 2 - 2 x_66_ * x_7_ + 1 x_66_ ^ 2 + 1 y_7_ ^ 2 - 2 y_66_ * y_7_ + 1 y_66_ ^ 2 ] >= 16169.67
quadratic_ranged_274_lb: [ 1 x_11_ ^ 2 - 2 x_66_ * x_11_ + 1 x_66_ ^ 2 + 1 y_11_ ^ 2 - 2 y_66_ * y_11_ + 1 y_66_ ^ 2 ] >= 3199.68
quadratic_ranged_275_lb: [ 1 x_12_ ^ 2 - 2 x_66_ * x_12_ + 1 x_66_ ^ 2 + 1 y_12_ ^ 2 - 2 y_66_ * y_12_ + 1 y_66_ ^ 2 ] >= 6336
quadratic_ranged_276_lb: [ 1 x_17_ ^ 2 - 2 x_66_ * x_17_ + 1 x_66_ ^ 2 + 1 y_17_ ^ 2 - 2 y_66_ * y_17_ + 1 y_66_ ^ 2 ] >= 1984.95
quadratic_ranged_277_lb: [ 1 x_21_ ^ 2 - 2 x_66_ * x_21_ + 1 x_66_ ^ 2 + 1 y_21_ ^ 2 - 2 y_66_ * y_21_ + 1 y_66_ ^ 2 ] >= 13630.32
quadratic_ranged_278_lb: [ 1 x_25_ ^ 2 - 2 x_66_ * x_25_ + 1 x_66_ ^ 2 + 1 y_25_ ^ 2 - 2 y_66_ * y_25_ + 1 y_66_ ^ 2 ] >= 24.75
quadratic_ranged_279_lb: [ 1 x_32_ ^ 2 - 2 x_66_ * x_32_ + 1 x_66_ ^ 2 + 1 y_32_ ^ 2 - 2 y_66_ * y_32_ + 1 y_66_ ^ 2 ] >= 30750.39
quadratic_ranged_280_lb: [ 1 x_35_ ^ 2 - 2 x_66_ * x_35_ + 1 x_66_ ^ 2 + 1 y_35_ ^ 2 - 2 y_66_ * y_35_ + 1 y_66_ ^ 2 ] >= 2296.8
quadratic_ranged_281_lb: [ 1 x_47_ ^ 2 - 2 x_66_ * x_47_ + 1 x_66_ ^ 2 + 1 y_47_ ^ 2 - 2 y_66_ * y_47_ + 1 y_66_ ^ 2 ] >= 1239.48
quadratic_ranged_282_lb: [ 1 x_57_ ^ 2 - 2 x_66_ * x_57_ + 1 x_66_ ^ 2 + 1 y_57_ ^ 2 - 2 y_66_ * y_57_ + 1 y_66_ ^ 2 ] >= 1327.59
quadratic_ranged_283_lb: [ 1 x_63_ ^ 2 - 2 x_66_ * x_63_ + 1 x_66_ ^ 2 + 1 y_63_ ^ 2 - 2 y_66_ * y_63_ + 1 y_66_ ^ 2 ] >= 3339.27
quadratic_ranged_284_lb: [ 1 x_65_ ^ 2 - 2 x_66_ * x_65_ + 1 x_66_ ^ 2 + 1 y_65_ ^ 2 - 2 y_66_ * y_65_ + 1 y_66_ ^ 2 ] >= 17586.36
quadratic_ranged_285_lb: [ 1 x_1_ ^ 2 - 2 x_67_ * x_1_ + 1 x_67_ ^ 2 + 1 y_1_ ^ 2 - 2 y_67_ * y_1_ + 1 y_67_ ^ 2 ] >= 15721.2
quadratic_ranged_286_lb: [ 1 x_51_ ^ 2 - 2 x_67_ * x_51_ + 1 x_67_ ^ 2 + 1 y_51_ ^ 2 - 2 y_67_ * y_51_ + 1 y_67_ ^ 2 ] >= 1632.51
quadratic_ranged_287_lb: [ 1 x_63_ ^ 2 - 2 x_67_ * x_63_ + 1 x_67_ ^ 2 + 1 y_63_ ^ 2 - 2 y_67_ * y_63_ + 1 y_67_ ^ 2 ] >= 8444.7
quadratic_ranged_288_lb: [ 1 x_66_ ^ 2 - 2 x_67_ * x_66_ + 1 x_67_ ^ 2 + 1 y_66_ ^ 2 - 2 y_67_ * y_66_ + 1 y_67_ ^ 2 ] >= 1977.03
quadratic_ranged_289_lb: [ 1 x_7_ ^ 2 - 2 x_68_ * x_7_ + 1 x_68_ ^ 2 + 1 y_7_ ^ 2 - 2 y_68_ * y_7_ + 1 y_68_ ^ 2 ] >= 6317.19
quadratic_ranged_290_lb: [ 1 x_24_ ^ 2 - 2 x_68_ * x_24_ + 1 x_68_ ^ 2 + 1 y_24_ ^ 2 - 2 y_68_ * y_24_ + 1 y_68_ ^ 2 ] >= 1255.32
quadratic_ranged_291_lb: [ 1 x_26_ ^ 2 - 2 x_68_ * x_26_ + 1 x_68_ ^ 2 + 1 y_26_ ^ 2 - 2 y_68_ * y_26_ + 1 y_68_ ^ 2 ] >= 3758.04
quadratic_ranged_292_lb: [ 1 x_37_ ^ 2 - 2 x_68_ * x_37_ + 1 x_68_ ^ 2 + 1 y_37_ ^ 2 - 2 y_68_ * y_37_ + 1 y_68_ ^ 2 ] >= 18204.12
quadratic_ranged_293_lb: [ 1 x_41_ ^ 2 - 2 x_68_ * x_41_ + 1 x_68_ ^ 2 + 1 y_41_ ^ 2 - 2 y_68_ * y_41_ + 1 y_68_ ^ 2 ] >= 2083.95
quadratic_ranged_294_lb: [ 1 x_59_ ^ 2 - 2 x_68_ * x_59_ + 1 x_68_ ^ 2 + 1 y_59_ ^ 2 - 2 y_68_ * y_59_ + 1 y_68_ ^ 2 ] >= 4405.5
quadratic_ranged_295_lb: [ 1 x_67_ ^ 2 - 2 x_68_ * x_67_ + 1 x_68_ ^ 2 + 1 y_67_ ^ 2 - 2 y_68_ * y_67_ + 1 y_68_ ^ 2 ] >= 8518.95
quadratic_ranged_296_lb: [ 1 x_3_ ^ 2 - 2 x_69_ * x_3_ + 1 x_69_ ^ 2 + 1 y_3_ ^ 2 - 2 y_69_ * y_3_ + 1 y_69_ ^ 2 ] >= 7349.76
quadratic_ranged_297_lb: [ 1 x_7_ ^ 2 - 2 x_69_ * x_7_ + 1 x_69_ ^ 2 + 1 y_7_ ^ 2 - 2 y_69_ * y_7_ + 1 y_69_ ^ 2 ] >= 29039.67
quadratic_ranged_298_lb: [ 1 x_18_ ^ 2 - 2 x_69_ * x_18_ + 1 x_69_ ^ 2 + 1 y_18_ ^ 2 - 2 y_69_ * y_18_ + 1 y_69_ ^ 2 ] >= 6919.11
quadratic_ranged_299_lb: [ 1 x_22_ ^ 2 - 2 x_69_ * x_22_ + 1 x_69_ ^ 2 + 1 y_22_ ^ 2 - 2 y_69_ * y_22_ + 1 y_69_ ^ 2 ] >= 11771.1
quadratic_ranged_300_lb: [ 1 x_40_ ^ 2 - 2 x_69_ * x_40_ + 1 x_69_ ^ 2 + 1 y_40_ ^ 2 - 2 y_69_ * y_40_ + 1 y_69_ ^ 2 ] >= 12585.869999999999
quadratic_ranged_301_lb: [ 1 x_54_ ^ 2 - 2 x_69_ * x_54_ + 1 x_69_ ^ 2 + 1 y_54_ ^ 2 - 2 y_69_ * y_54_ + 1 y_69_ ^ 2 ] >= 21536.46
quadratic_ranged_302_lb: [ 1 x_68_ ^ 2 - 2 x_69_ * x_68_ + 1 x_69_ ^ 2 + 1 y_68_ ^ 2 - 2 y_69_ * y_68_ + 1 y_69_ ^ 2 ] >= 10147.5
quadratic_ranged_303_lb: [ 1 x_1_ ^ 2 - 2 x_70_ * x_1_ + 1 x_70_ ^ 2 + 1 y_1_ ^ 2 - 2 y_70_ * y_1_ + 1 y_70_ ^ 2 ] >= 47648.7
quadratic_ranged_304_lb: [ 1 x_16_ ^ 2 - 2 x_70_ * x_16_ + 1 x_70_ ^ 2 + 1 y_16_ ^ 2 - 2 y_70_ * y_16_ + 1 y_70_ ^ 2 ] >= 8688.24
quadratic_ranged_305_lb: [ 1 x_23_ ^ 2 - 2 x_70_ * x_23_ + 1 x_70_ ^ 2 + 1 y_23_ ^ 2 - 2 y_70_ * y_23_ + 1 y_70_ ^ 2 ] >= 3003.66
quadratic_ranged_306_lb: [ 1 x_27_ ^ 2 - 2 x_70_ * x_27_ + 1 x_70_ ^ 2 + 1 y_27_ ^ 2 - 2 y_70_ * y_27_ + 1 y_70_ ^ 2 ] >= 6641.91
quadratic_ranged_307_lb: [ 1 x_28_ ^ 2 - 2 x_70_ * x_28_ + 1 x_70_ ^ 2 + 1 y_28_ ^ 2 - 2 y_70_ * y_28_ + 1 y_70_ ^ 2 ] >= 168.3
quadratic_ranged_308_lb: [ 1 x_41_ ^ 2 - 2 x_70_ * x_41_ + 1 x_70_ ^ 2 + 1 y_41_ ^ 2 - 2 y_70_ * y_41_ + 1 y_70_ ^ 2 ] >= 3019.5
quadratic_ranged_309_lb: [ 1 x_57_ ^ 2 - 2 x_70_ * x_57_ + 1 x_70_ ^ 2 + 1 y_57_ ^ 2 - 2 y_70_ * y_57_ + 1 y_70_ ^ 2 ] >= 18604.079999999998
quadratic_ranged_310_lb: [ 1 x_61_ ^ 2 - 2 x_70_ * x_61_ + 1 x_70_ ^ 2 + 1 y_61_ ^ 2 - 2 y_70_ * y_61_ + 1 y_70_ ^ 2 ] >= 1397.8799999999999
quadratic_ranged_311_lb: [ 1 x_69_ ^ 2 - 2 x_70_ * x_69_ + 1 x_70_ ^ 2 + 1 y_69_ ^ 2 - 2 y_70_ * y_69_ + 1 y_70_ ^ 2 ] >= 19686.15
quadratic_ranged_312_lb: [ 1 x_10_ ^ 2 - 2 x_71_ * x_10_ + 1 x_71_ ^ 2 + 1 y_10_ ^ 2 - 2 y_71_ * y_10_ + 1 y_71_ ^ 2 ] >= 7502.22
quadratic_ranged_313_lb: [ 1 x_14_ ^ 2 - 2 x_71_ * x_14_ + 1 x_71_ ^ 2 + 1 y_14_ ^ 2 - 2 y_71_ * y_14_ + 1 y_71_ ^ 2 ] >= 4316.4
quadratic_ranged_314_lb: [ 1 x_15_ ^ 2 - 2 x_71_ * x_15_ + 1 x_71_ ^ 2 + 1 y_15_ ^ 2 - 2 y_71_ * y_15_ + 1 y_71_ ^ 2 ] >= 19831.68
quadratic_ranged_315_lb: [ 1 x_21_ ^ 2 - 2 x_71_ * x_21_ + 1 x_71_ ^ 2 + 1 y_21_ ^ 2 - 2 y_71_ * y_21_ + 1 y_71_ ^ 2 ] >= 3153.15
quadratic_ranged_316_lb: [ 1 x_26_ ^ 2 - 2 x_71_ * x_26_ + 1 x_71_ ^ 2 + 1 y_26_ ^ 2 - 2 y_71_ * y_26_ + 1 y_71_ ^ 2 ] >= 10316.789999999999
quadratic_ranged_317_lb: [ 1 x_29_ ^ 2 - 2 x_71_ * x_29_ + 1 x_71_ ^ 2 + 1 y_29_ ^ 2 - 2 y_71_ * y_29_ + 1 y_71_ ^ 2 ] >= 6931.98
quadratic_ranged_318_lb: [ 1 x_42_ ^ 2 - 2 x_71_ * x_42_ + 1 x_71_ ^ 2 + 1 y_42_ ^ 2 - 2 y_71_ * y_42_ + 1 y_71_ ^ 2 ] >= 11519.64
quadratic_ranged_319_lb: [ 1 x_43_ ^ 2 - 2 x_71_ * x_43_ + 1 x_71_ ^ 2 + 1 y_43_ ^ 2 - 2 y_71_ * y_43_ + 1 y_71_ ^ 2 ] >= 22502.7
quadratic_ranged_320_lb: [ 1 x_54_ ^ 2 - 2 x_71_ * x_54_ + 1 x_71_ ^ 2 + 1 y_54_ ^ 2 - 2 y_71_ * y_54_ + 1 y_71_ ^ 2 ] >= 11572.11
quadratic_ranged_321_lb: [ 1 x_55_ ^ 2 - 2 x_71_ * x_55_ + 1 x_71_ ^ 2 + 1 y_55_ ^ 2 - 2 y_71_ * y_55_ + 1 y_71_ ^ 2 ] >= 2642.31
quadratic_ranged_322_lb: [ 1 x_59_ ^ 2 - 2 x_71_ * x_59_ + 1 x_71_ ^ 2 + 1 y_59_ ^ 2 - 2 y_71_ * y_59_ + 1 y_71_ ^ 2 ] >= 1917.6299999999999
quadratic_ranged_323_lb: [ 1 x_64_ ^ 2 - 2 x_71_ * x_64_ + 1 x_71_ ^ 2 + 1 y_64_ ^ 2 - 2 y_71_ * y_64_ + 1 y_71_ ^ 2 ] >= 2868.03
quadratic_ranged_324_lb: [ 1 x_70_ ^ 2 - 2 x_71_ * x_70_ + 1 x_71_ ^ 2 + 1 y_70_ ^ 2 - 2 y_71_ * y_70_ + 1 y_71_ ^ 2 ] >= 9553.5
quadratic_ranged_325_lb: [ 1 x_2_ ^ 2 - 2 x_72_ * x_2_ + 1 x_72_ ^ 2 + 1 y_2_ ^ 2 - 2 y_72_ * y_2_ + 1 y_72_ ^ 2 ] >= 28358.55
quadratic_ranged_326_lb: [ 1 x_11_ ^ 2 - 2 x_72_ * x_11_ + 1 x_72_ ^ 2 + 1 y_11_ ^ 2 - 2 y_72_ * y_11_ + 1 y_72_ ^ 2 ] >= 10483.11
quadratic_ranged_327_lb: [ 1 x_17_ ^ 2 - 2 x_72_ * x_17_ + 1 x_72_ ^ 2 + 1 y_17_ ^ 2 - 2 y_72_ * y_17_ + 1 y_72_ ^ 2 ] >= 6435
quadratic_ranged_328_lb: [ 1 x_28_ ^ 2 - 2 x_72_ * x_28_ + 1 x_72_ ^ 2 + 1 y_28_ ^ 2 - 2 y_72_ * y_28_ + 1 y_72_ ^ 2 ] >= 23120.46
quadratic_ranged_329_lb: [ 1 x_38_ ^ 2 - 2 x_72_ * x_38_ + 1 x_72_ ^ 2 + 1 y_38_ ^ 2 - 2 y_72_ * y_38_ + 1 y_72_ ^ 2 ] >= 6732
quadratic_ranged_330_lb: [ 1 x_43_ ^ 2 - 2 x_72_ * x_43_ + 1 x_72_ ^ 2 + 1 y_43_ ^ 2 - 2 y_72_ * y_43_ + 1 y_72_ ^ 2 ] >= 23379.84
quadratic_ranged_331_lb: [ 1 x_46_ ^ 2 - 2 x_72_ * x_46_ + 1 x_72_ ^ 2 + 1 y_46_ ^ 2 - 2 y_72_ * y_46_ + 1 y_72_ ^ 2 ] >= 31934.43
quadratic_ranged_332_lb: [ 1 x_61_ ^ 2 - 2 x_72_ * x_61_ + 1 x_72_ ^ 2 + 1 y_61_ ^ 2 - 2 y_72_ * y_61_ + 1 y_72_ ^ 2 ] >= 24017.4
quadratic_ranged_333_lb: [ 1 x_64_ ^ 2 - 2 x_72_ * x_64_ + 1 x_72_ ^ 2 + 1 y_64_ ^ 2 - 2 y_72_ * y_64_ + 1 y_72_ ^ 2 ] >= 60.39
quadratic_ranged_334_lb: [ 1 x_71_ ^ 2 - 2 x_72_ * x_71_ + 1 x_72_ ^ 2 + 1 y_71_ ^ 2 - 2 y_72_ * y_71_ + 1 y_72_ ^ 2 ] >= 3732.3
quadratic_ranged_335_lb: [ 1 x_4_ ^ 2 - 2 x_73_ * x_4_ + 1 x_73_ ^ 2 + 1 y_4_ ^ 2 - 2 y_73_ * y_4_ + 1 y_73_ ^ 2 ] >= 15683.58
quadratic_ranged_336_lb: [ 1 x_17_ ^ 2 - 2 x_73_ * x_17_ + 1 x_73_ ^ 2 + 1 y_17_ ^ 2 - 2 y_73_ * y_17_ + 1 y_73_ ^ 2 ] >= 7085.43
quadratic_ranged_337_lb: [ 1 x_20_ ^ 2 - 2 x_73_ * x_20_ + 1 x_73_ ^ 2 + 1 y_20_ ^ 2 - 2 y_73_ * y_20_ + 1 y_73_ ^ 2 ] >= 19579.23
quadratic_ranged_338_lb: [ 1 x_28_ ^ 2 - 2 x_73_ * x_28_ + 1 x_73_ ^ 2 + 1 y_28_ ^ 2 - 2 y_73_ * y_28_ + 1 y_73_ ^ 2 ] >= 28311.03
quadratic_ranged_339_lb: [ 1 x_31_ ^ 2 - 2 x_73_ * x_31_ + 1 x_73_ ^ 2 + 1 y_31_ ^ 2 - 2 y_73_ * y_31_ + 1 y_73_ ^ 2 ] >= 47410.11
quadratic_ranged_340_lb: [ 1 x_32_ ^ 2 - 2 x_73_ * x_32_ + 1 x_73_ ^ 2 + 1 y_32_ ^ 2 - 2 y_73_ * y_32_ + 1 y_73_ ^ 2 ] >= 45806.31
quadratic_ranged_341_lb: [ 1 x_49_ ^ 2 - 2 x_73_ * x_49_ + 1 x_73_ ^ 2 + 1 y_49_ ^ 2 - 2 y_73_ * y_49_ + 1 y_73_ ^ 2 ] >= 9865.35
quadratic_ranged_342_lb: [ 1 x_52_ ^ 2 - 2 x_73_ * x_52_ + 1 x_73_ ^ 2 + 1 y_52_ ^ 2 - 2 y_73_ * y_52_ + 1 y_73_ ^ 2 ] >= 11892.87
quadratic_ranged_343_lb: [ 1 x_56_ ^ 2 - 2 x_73_ * x_56_ + 1 x_73_ ^ 2 + 1 y_56_ ^ 2 - 2 y_73_ * y_56_ + 1 y_73_ ^ 2 ] >= 11682.99
quadratic_ranged_344_lb: [ 1 x_68_ ^ 2 - 2 x_73_ * x_68_ + 1 x_73_ ^ 2 + 1 y_68_ ^ 2 - 2 y_73_ * y_68_ + 1 y_73_ ^ 2 ] >= 8442.72
quadratic_ranged_345_lb: [ 1 x_71_ ^ 2 - 2 x_73_ * x_71_ + 1 x_73_ ^ 2 + 1 y_71_ ^ 2 - 2 y_73_ * y_71_ + 1 y_73_ ^ 2 ] >= 19626.75
quadratic_ranged_346_lb: [ 1 x_72_ ^ 2 - 2 x_73_ * x_72_ + 1 x_73_ ^ 2 + 1 y_72_ ^ 2 - 2 y_73_ * y_72_ + 1 y_73_ ^ 2 ] >= 21480.03
quadratic_ranged_347_lb: [ 1 x_6_ ^ 2 - 2 x_74_ * x_6_ + 1 x_74_ ^ 2 + 1 y_6_ ^ 2 - 2 y_74_ * y_6_ + 1 y_74_ ^ 2 ] >= 8983.26
quadratic_ranged_348_lb: [ 1 x_16_ ^ 2 - 2 x_74_ * x_16_ + 1 x_74_ ^ 2 + 1 y_16_ ^ 2 - 2 y_74_ * y_16_ + 1 y_74_ ^ 2 ] >= 6336.99
quadratic_ranged_349_lb: [ 1 x_28_ ^ 2 - 2 x_74_ * x_28_ + 1 x_74_ ^ 2 + 1 y_28_ ^ 2 - 2 y_74_ * y_28_ + 1 y_74_ ^ 2 ] >= 2475.99
quadratic_ranged_350_lb: [ 1 x_33_ ^ 2 - 2 x_74_ * x_33_ + 1 x_74_ ^ 2 + 1 y_33_ ^ 2 - 2 y_74_ * y_33_ + 1 y_74_ ^ 2 ] >= 47936.79
quadratic_ranged_351_lb: [ 1 x_42_ ^ 2 - 2 x_74_ * x_42_ + 1 x_74_ ^ 2 + 1 y_42_ ^ 2 - 2 y_74_ * y_42_ + 1 y_74_ ^ 2 ] >= 34722.27
quadratic_ranged_352_lb: [ 1 x_56_ ^ 2 - 2 x_74_ * x_56_ + 1 x_74_ ^ 2 + 1 y_56_ ^ 2 - 2 y_74_ * y_56_ + 1 y_74_ ^ 2 ] >= 4697.55
quadratic_ranged_353_lb: [ 1 x_65_ ^ 2 - 2 x_74_ * x_65_ + 1 x_74_ ^ 2 + 1 y_65_ ^ 2 - 2 y_74_ * y_65_ + 1 y_74_ ^ 2 ] >= 453.42
quadratic_ranged_354_lb: [ 1 x_73_ ^ 2 - 2 x_74_ * x_73_ + 1 x_74_ ^ 2 + 1 y_73_ ^ 2 - 2 y_74_ * y_73_ + 1 y_74_ ^ 2 ] >= 31046.4
quadratic_ranged_355_lb: [ 1 x_2_ ^ 2 - 2 x_75_ * x_2_ + 1 x_75_ ^ 2 + 1 y_2_ ^ 2 - 2 y_75_ * y_2_ + 1 y_75_ ^ 2 ] >= 21705.75
quadratic_ranged_356_lb: [ 1 x_13_ ^ 2 - 2 x_75_ * x_13_ + 1 x_75_ ^ 2 + 1 y_13_ ^ 2 - 2 y_75_ * y_13_ + 1 y_75_ ^ 2 ] >= 9588.15
quadratic_ranged_357_lb: [ 1 x_22_ ^ 2 - 2 x_75_ * x_22_ + 1 x_75_ ^ 2 + 1 y_22_ ^ 2 - 2 y_75_ * y_22_ + 1 y_75_ ^ 2 ] >= 4459.95
quadratic_ranged_358_lb: [ 1 x_40_ ^ 2 - 2 x_75_ * x_40_ + 1 x_75_ ^ 2 + 1 y_40_ ^ 2 - 2 y_75_ * y_40_ + 1 y_75_ ^ 2 ] >= 5860.8
quadratic_ranged_359_lb: [ 1 x_50_ ^ 2 - 2 x_75_ * x_50_ + 1 x_75_ ^ 2 + 1 y_50_ ^ 2 - 2 y_75_ * y_50_ + 1 y_75_ ^ 2 ] >= 13662.99
quadratic_ranged_360_lb: [ 1 x_52_ ^ 2 - 2 x_75_ * x_52_ + 1 x_75_ ^ 2 + 1 y_52_ ^ 2 - 2 y_75_ * y_52_ + 1 y_75_ ^ 2 ] >= 1174.14
quadratic_ranged_361_lb: [ 1 x_62_ ^ 2 - 2 x_75_ * x_62_ + 1 x_75_ ^ 2 + 1 y_62_ ^ 2 - 2 y_75_ * y_62_ + 1 y_75_ ^ 2 ] >= 10931.58
quadratic_ranged_362_lb: [ 1 x_74_ ^ 2 - 2 x_75_ * x_74_ + 1 x_75_ ^ 2 + 1 y_74_ ^ 2 - 2 y_75_ * y_74_ + 1 y_75_ ^ 2 ] >= 18391.23
quadratic_ranged_363_lb: [ 1 x_5_ ^ 2 - 2 x_76_ * x_5_ + 1 x_76_ ^ 2 + 1 y_5_ ^ 2 - 2 y_76_ * y_5_ + 1 y_76_ ^ 2 ] >= 7337.88
quadratic_ranged_364_lb: [ 1 x_6_ ^ 2 - 2 x_76_ * x_6_ + 1 x_76_ ^ 2 + 1 y_6_ ^ 2 - 2 y_76_ * y_6_ + 1 y_76_ ^ 2 ] >= 16523.1
quadratic_ranged_365_lb: [ 1 x_15_ ^ 2 - 2 x_76_ * x_15_ + 1 x_76_ ^ 2 + 1 y_15_ ^ 2 - 2 y_76_ * y_15_ + 1 y_76_ ^ 2 ] >= 23107.59
quadratic_ranged_366_lb: [ 1 x_17_ ^ 2 - 2 x_76_ * x_17_ + 1 x_76_ ^ 2 + 1 y_17_ ^ 2 - 2 y_76_ * y_17_ + 1 y_76_ ^ 2 ] >= 6637.95
quadratic_ranged_367_lb: [ 1 x_20_ ^ 2 - 2 x_76_ * x_20_ + 1 x_76_ ^ 2 + 1 y_20_ ^ 2 - 2 y_76_ * y_20_ + 1 y_76_ ^ 2 ] >= 35811.27
quadratic_ranged_368_lb: [ 1 x_25_ ^ 2 - 2 x_76_ * x_25_ + 1 x_76_ ^ 2 + 1 y_25_ ^ 2 - 2 y_76_ * y_25_ + 1 y_76_ ^ 2 ] >= 12075.03
quadratic_ranged_369_lb: [ 1 x_27_ ^ 2 - 2 x_76_ * x_27_ + 1 x_76_ ^ 2 + 1 y_27_ ^ 2 - 2 y_76_ * y_27_ + 1 y_76_ ^ 2 ] >= 24619.32
quadratic_ranged_370_lb: [ 1 x_29_ ^ 2 - 2 x_76_ * x_29_ + 1 x_76_ ^ 2 + 1 y_29_ ^ 2 - 2 y_76_ * y_29_ + 1 y_76_ ^ 2 ] >= 18418.95
quadratic_ranged_371_lb: [ 1 x_33_ ^ 2 - 2 x_76_ * x_33_ + 1 x_76_ ^ 2 + 1 y_33_ ^ 2 - 2 y_76_ * y_33_ + 1 y_76_ ^ 2 ] >= 167.31
quadratic_ranged_372_lb: [ 1 x_37_ ^ 2 - 2 x_76_ * x_37_ + 1 x_76_ ^ 2 + 1 y_37_ ^ 2 - 2 y_76_ * y_37_ + 1 y_76_ ^ 2 ] >= 2712.6
quadratic_ranged_373_lb: [ 1 x_38_ ^ 2 - 2 x_76_ * x_38_ + 1 x_76_ ^ 2 + 1 y_38_ ^ 2 - 2 y_76_ * y_38_ + 1 y_76_ ^ 2 ] >= 3766.95
quadratic_ranged_374_lb: [ 1 x_40_ ^ 2 - 2 x_76_ * x_40_ + 1 x_76_ ^ 2 + 1 y_40_ ^ 2 - 2 y_76_ * y_40_ + 1 y_76_ ^ 2 ] >= 17943.75
quadratic_ranged_375_lb: [ 1 x_62_ ^ 2 - 2 x_76_ * x_62_ + 1 x_76_ ^ 2 + 1 y_62_ ^ 2 - 2 y_76_ * y_62_ + 1 y_76_ ^ 2 ] >= 1901.79
quadratic_ranged_376_lb: [ 1 x_75_ ^ 2 - 2 x_76_ * x_75_ + 1 x_76_ ^ 2 + 1 y_75_ ^ 2 - 2 y_76_ * y_75_ + 1 y_76_ ^ 2 ] >= 6182.55
quadratic_ranged_377_lb: [ 1 x_9_ ^ 2 - 2 x_77_ * x_9_ + 1 x_77_ ^ 2 + 1 y_9_ ^ 2 - 2 y_77_ * y_9_ + 1 y_77_ ^ 2 ] >= 44084.7
quadratic_ranged_378_lb: [ 1 x_10_ ^ 2 - 2 x_77_ * x_10_ + 1 x_77_ ^ 2 + 1 y_10_ ^ 2 - 2 y_77_ * y_10_ + 1 y_77_ ^ 2 ] >= 25598.43
quadratic_ranged_379_lb: [ 1 x_14_ ^ 2 - 2 x_77_ * x_14_ + 1 x_77_ ^ 2 + 1 y_14_ ^ 2 - 2 y_77_ * y_14_ + 1 y_77_ ^ 2 ] >= 18723.87
quadratic_ranged_380_lb: [ 1 x_17_ ^ 2 - 2 x_77_ * x_17_ + 1 x_77_ ^ 2 + 1 y_17_ ^ 2 - 2 y_77_ * y_17_ + 1 y_77_ ^ 2 ] >= 12419.55
quadratic_ranged_381_lb: [ 1 x_24_ ^ 2 - 2 x_77_ * x_24_ + 1 x_77_ ^ 2 + 1 y_24_ ^ 2 - 2 y_77_ * y_24_ + 1 y_77_ ^ 2 ] >= 9870.3
quadratic_ranged_382_lb: [ 1 x_35_ ^ 2 - 2 x_77_ * x_35_ + 1 x_77_ ^ 2 + 1 y_35_ ^ 2 - 2 y_77_ * y_35_ + 1 y_77_ ^ 2 ] >= 32412.6
quadratic_ranged_383_lb: [ 1 x_44_ ^ 2 - 2 x_77_ * x_44_ + 1 x_77_ ^ 2 + 1 y_44_ ^ 2 - 2 y_77_ * y_44_ + 1 y_77_ ^ 2 ] >= 5418.2699999999995
quadratic_ranged_384_lb: [ 1 x_61_ ^ 2 - 2 x_77_ * x_61_ + 1 x_77_ ^ 2 + 1 y_61_ ^ 2 - 2 y_77_ * y_61_ + 1 y_77_ ^ 2 ] >= 258.39
quadratic_ranged_385_lb: [ 1 x_64_ ^ 2 - 2 x_77_ * x_64_ + 1 x_77_ ^ 2 + 1 y_64_ ^ 2 - 2 y_77_ * y_64_ + 1 y_77_ ^ 2 ] >= 25520.22
quadratic_ranged_386_lb: [ 1 x_76_ ^ 2 - 2 x_77_ * x_76_ + 1 x_77_ ^ 2 + 1 y_76_ ^ 2 - 2 y_77_ * y_76_ + 1 y_77_ ^ 2 ] >= 32077.98
quadratic_ranged_387_lb: [ 1 x_1_ ^ 2 - 2 x_78_ * x_1_ + 1 x_78_ ^ 2 + 1 y_1_ ^ 2 - 2 y_78_ * y_1_ + 1 y_78_ ^ 2 ] >= 29323.8
quadratic_ranged_388_lb: [ 1 x_3_ ^ 2 - 2 x_78_ * x_3_ + 1 x_78_ ^ 2 + 1 y_3_ ^ 2 - 2 y_78_ * y_3_ + 1 y_78_ ^ 2 ] >= 16601.31
quadratic_ranged_389_lb: [ 1 x_39_ ^ 2 - 2 x_78_ * x_39_ + 1 x_78_ ^ 2 + 1 y_39_ ^ 2 - 2 y_78_ * y_39_ + 1 y_78_ ^ 2 ] >= 3171.96
quadratic_ranged_390_lb: [ 1 x_58_ ^ 2 - 2 x_78_ * x_58_ + 1 x_78_ ^ 2 + 1 y_58_ ^ 2 - 2 y_78_ * y_58_ + 1 y_78_ ^ 2 ] >= 6312.24
quadratic_ranged_391_lb: [ 1 x_61_ ^ 2 - 2 x_78_ * x_61_ + 1 x_78_ ^ 2 + 1 y_61_ ^ 2 - 2 y_78_ * y_61_ + 1 y_78_ ^ 2 ] >= 1673.1
quadratic_ranged_392_lb: [ 1 x_76_ ^ 2 - 2 x_78_ * x_76_ + 1 x_78_ ^ 2 + 1 y_76_ ^ 2 - 2 y_78_ * y_76_ + 1 y_78_ ^ 2 ] >= 21408.75
quadratic_ranged_393_lb: [ 1 x_77_ ^ 2 - 2 x_78_ * x_77_ + 1 x_78_ ^ 2 + 1 y_77_ ^ 2 - 2 y_78_ * y_77_ + 1 y_78_ ^ 2 ] >= 3184.83
quadratic_ranged_394_lb: [ 1 x_11_ ^ 2 - 2 x_79_ * x_11_ + 1 x_79_ ^ 2 + 1 y_11_ ^ 2 - 2 y_79_ * y_11_ + 1 y_79_ ^ 2 ] >= 12808.619999999999
quadratic_ranged_395_lb: [ 1 x_28_ ^ 2 - 2 x_79_ * x_28_ + 1 x_79_ ^ 2 + 1 y_28_ ^ 2 - 2 y_79_ * y_28_ + 1 y_79_ ^ 2 ] >= 35070.75
quadratic_ranged_396_lb: [ 1 x_47_ ^ 2 - 2 x_79_ * x_47_ + 1 x_79_ ^ 2 + 1 y_47_ ^ 2 - 2 y_79_ * y_47_ + 1 y_79_ ^ 2 ] >= 2449.2599999999998
quadratic_ranged_397_lb: [ 1 x_64_ ^ 2 - 2 x_79_ * x_64_ + 1 x_79_ ^ 2 + 1 y_64_ ^ 2 - 2 y_79_ * y_64_ + 1 y_79_ ^ 2 ] >= 37988.28
quadratic_ranged_398_lb: [ 1 x_73_ ^ 2 - 2 x_79_ * x_73_ + 1 x_79_ ^ 2 + 1 y_73_ ^ 2 - 2 y_79_ * y_73_ + 1 y_79_ ^ 2 ] >= 2669.04
quadratic_ranged_399_lb: [ 1 x_77_ ^ 2 - 2 x_79_ * x_77_ + 1 x_79_ ^ 2 + 1 y_77_ ^ 2 - 2 y_79_ * y_77_ + 1 y_79_ ^ 2 ] >= 31539.42
quadratic_ranged_400_lb: [ 1 x_78_ ^ 2 - 2 x_79_ * x_78_ + 1 x_79_ ^ 2 + 1 y_78_ ^ 2 - 2 y_79_ * y_78_ + 1 y_79_ ^ 2 ] >= 15508.35
quadratic_ranged_401_lb: [ 1 x_22_ ^ 2 - 2 x_80_ * x_22_ + 1 x_80_ ^ 2 + 1 y_22_ ^ 2 - 2 y_80_ * y_22_ + 1 y_80_ ^ 2 ] >= 24813.36
quadratic_ranged_402_lb: [ 1 x_26_ ^ 2 - 2 x_80_ * x_26_ + 1 x_80_ ^ 2 + 1 y_26_ ^ 2 - 2 y_80_ * y_26_ + 1 y_80_ ^ 2 ] >= 114.84
quadratic_ranged_403_lb: [ 1 x_56_ ^ 2 - 2 x_80_ * x_56_ + 1 x_80_ ^ 2 + 1 y_56_ ^ 2 - 2 y_80_ * y_56_ + 1 y_80_ ^ 2 ] >= 10491.03
quadratic_ranged_404_lb: [ 1 x_71_ ^ 2 - 2 x_80_ * x_71_ + 1 x_80_ ^ 2 + 1 y_71_ ^ 2 - 2 y_80_ * y_71_ + 1 y_80_ ^ 2 ] >= 11797.83
quadratic_ranged_405_lb: [ 1 x_72_ ^ 2 - 2 x_80_ * x_72_ + 1 x_80_ ^ 2 + 1 y_72_ ^ 2 - 2 y_80_ * y_72_ + 1 y_80_ ^ 2 ] >= 12740.31
quadratic_ranged_406_lb: [ 1 x_79_ ^ 2 - 2 x_80_ * x_79_ + 1 x_80_ ^ 2 + 1 y_79_ ^ 2 - 2 y_80_ * y_79_ + 1 y_80_ ^ 2 ] >= 7001.28
quadratic_ranged_407_lb: [ 1 x_9_ ^ 2 - 2 x_81_ * x_9_ + 1 x_81_ ^ 2 + 1 y_9_ ^ 2 - 2 y_81_ * y_9_ + 1 y_81_ ^ 2 ] >= 14988.6
quadratic_ranged_408_lb: [ 1 x_14_ ^ 2 - 2 x_81_ * x_14_ + 1 x_81_ ^ 2 + 1 y_14_ ^ 2 - 2 y_81_ * y_14_ + 1 y_81_ ^ 2 ] >= 36959.67
quadratic_ranged_409_lb: [ 1 x_25_ ^ 2 - 2 x_81_ * x_25_ + 1 x_81_ ^ 2 + 1 y_25_ ^ 2 - 2 y_81_ * y_25_ + 1 y_81_ ^ 2 ] >= 650.43
quadratic_ranged_410_lb: [ 1 x_74_ ^ 2 - 2 x_81_ * x_74_ + 1 x_81_ ^ 2 + 1 y_74_ ^ 2 - 2 y_81_ * y_74_ + 1 y_81_ ^ 2 ] >= 23383.8
quadratic_ranged_411_lb: [ 1 x_80_ ^ 2 - 2 x_81_ * x_80_ + 1 x_81_ ^ 2 + 1 y_80_ ^ 2 - 2 y_81_ * y_80_ + 1 y_81_ ^ 2 ] >= 1144.44
quadratic_ranged_412_lb: [ 1 x_25_ ^ 2 - 2 x_82_ * x_25_ + 1 x_82_ ^ 2 + 1 y_25_ ^ 2 - 2 y_82_ * y_25_ + 1 y_82_ ^ 2 ] >= 15691.5
quadratic_ranged_413_lb: [ 1 x_29_ ^ 2 - 2 x_82_ * x_29_ + 1 x_82_ ^ 2 + 1 y_29_ ^ 2 - 2 y_82_ * y_29_ + 1 y_82_ ^ 2 ] >= 12897.72
quadratic_ranged_414_lb: [ 1 x_42_ ^ 2 - 2 x_82_ * x_42_ + 1 x_82_ ^ 2 + 1 y_42_ ^ 2 - 2 y_82_ * y_42_ + 1 y_82_ ^ 2 ] >= 13909.5
quadratic_ranged_415_lb: [ 1 x_45_ ^ 2 - 2 x_82_ * x_45_ + 1 x_82_ ^ 2 + 1 y_45_ ^ 2 - 2 y_82_ * y_45_ + 1 y_82_ ^ 2 ] >= 8682.3
quadratic_ranged_416_lb: [ 1 x_46_ ^ 2 - 2 x_82_ * x_46_ + 1 x_82_ ^ 2 + 1 y_46_ ^ 2 - 2 y_82_ * y_46_ + 1 y_82_ ^ 2 ] >= 34821.27
quadratic_ranged_417_lb: [ 1 x_51_ ^ 2 - 2 x_82_ * x_51_ + 1 x_82_ ^ 2 + 1 y_51_ ^ 2 - 2 y_82_ * y_51_ + 1 y_82_ ^ 2 ] >= 29938.59
quadratic_ranged_418_lb: [ 1 x_79_ ^ 2 - 2 x_82_ * x_79_ + 1 x_82_ ^ 2 + 1 y_79_ ^ 2 - 2 y_82_ * y_79_ + 1 y_82_ ^ 2 ] >= 41485.95
quadratic_ranged_419_lb: [ 1 x_81_ ^ 2 - 2 x_82_ * x_81_ + 1 x_82_ ^ 2 + 1 y_81_ ^ 2 - 2 y_82_ * y_81_ + 1 y_82_ ^ 2 ] >= 22097.79
quadratic_ranged_420_lb: [ 1 x_7_ ^ 2 - 2 x_83_ * x_7_ + 1 x_83_ ^ 2 + 1 y_7_ ^ 2 - 2 y_83_ * y_7_ + 1 y_83_ ^ 2 ] >= 4578.75
quadratic_ranged_421_lb: [ 1 x_54_ ^ 2 - 2 x_83_ * x_54_ + 1 x_83_ ^ 2 + 1 y_54_ ^ 2 - 2 y_83_ * y_54_ + 1 y_83_ ^ 2 ] >= 2237.4
quadratic_ranged_422_lb: [ 1 x_72_ ^ 2 - 2 x_83_ * x_72_ + 1 x_83_ ^ 2 + 1 y_72_ ^ 2 - 2 y_83_ * y_72_ + 1 y_83_ ^ 2 ] >= 15084.63
quadratic_ranged_423_lb: [ 1 x_76_ ^ 2 - 2 x_83_ * x_76_ + 1 x_83_ ^ 2 + 1 y_76_ ^ 2 - 2 y_83_ * y_76_ + 1 y_83_ ^ 2 ] >= 18136.8
quadratic_ranged_424_lb: [ 1 x_81_ ^ 2 - 2 x_83_ * x_81_ + 1 x_83_ ^ 2 + 1 y_81_ ^ 2 - 2 y_83_ * y_81_ + 1 y_83_ ^ 2 ] >= 13642.2
quadratic_ranged_425_lb: [ 1 x_82_ ^ 2 - 2 x_83_ * x_82_ + 1 x_83_ ^ 2 + 1 y_82_ ^ 2 - 2 y_83_ * y_82_ + 1 y_83_ ^ 2 ] >= 8815.95
quadratic_ranged_426_lb: [ 1 x_5_ ^ 2 - 2 x_84_ * x_5_ + 1 x_84_ ^ 2 + 1 y_5_ ^ 2 - 2 y_84_ * y_5_ + 1 y_84_ ^ 2 ] >= 23779.8
quadratic_ranged_427_lb: [ 1 x_18_ ^ 2 - 2 x_84_ * x_18_ + 1 x_84_ ^ 2 + 1 y_18_ ^ 2 - 2 y_84_ * y_18_ + 1 y_84_ ^ 2 ] >= 11896.83
quadratic_ranged_428_lb: [ 1 x_51_ ^ 2 - 2 x_84_ * x_51_ + 1 x_84_ ^ 2 + 1 y_51_ ^ 2 - 2 y_84_ * y_51_ + 1 y_84_ ^ 2 ] >= 5860.8
quadratic_ranged_429_lb: [ 1 x_57_ ^ 2 - 2 x_84_ * x_57_ + 1 x_84_ ^ 2 + 1 y_57_ ^ 2 - 2 y_84_ * y_57_ + 1 y_84_ ^ 2 ] >= 8273.43
quadratic_ranged_430_lb: [ 1 x_64_ ^ 2 - 2 x_84_ * x_64_ + 1 x_84_ ^ 2 + 1 y_64_ ^ 2 - 2 y_84_ * y_64_ + 1 y_84_ ^ 2 ] >= 21245.4
quadratic_ranged_431_lb: [ 1 x_75_ ^ 2 - 2 x_84_ * x_75_ + 1 x_84_ ^ 2 + 1 y_75_ ^ 2 - 2 y_84_ * y_75_ + 1 y_84_ ^ 2 ] >= 10982.07
quadratic_ranged_432_lb: [ 1 x_83_ ^ 2 - 2 x_84_ * x_83_ + 1 x_84_ ^ 2 + 1 y_83_ ^ 2 - 2 y_84_ * y_83_ + 1 y_84_ ^ 2 ] >= 2867.04
quadratic_ranged_433_lb: [ 1 x_7_ ^ 2 - 2 x_85_ * x_7_ + 1 x_85_ ^ 2 + 1 y_7_ ^ 2 - 2 y_85_ * y_7_ + 1 y_85_ ^ 2 ] >= 11124.63
quadratic_ranged_434_lb: [ 1 x_8_ ^ 2 - 2 x_85_ * x_8_ + 1 x_85_ ^ 2 + 1 y_8_ ^ 2 - 2 y_85_ * y_8_ + 1 y_85_ ^ 2 ] >= 3576.87
quadratic_ranged_435_lb: [ 1 x_21_ ^ 2 - 2 x_85_ * x_21_ + 1 x_85_ ^ 2 + 1 y_21_ ^ 2 - 2 y_85_ * y_21_ + 1 y_85_ ^ 2 ] >= 7177.5
quadratic_ranged_436_lb: [ 1 x_26_ ^ 2 - 2 x_85_ * x_26_ + 1 x_85_ ^ 2 + 1 y_26_ ^ 2 - 2 y_85_ * y_26_ + 1 y_85_ ^ 2 ] >= 3298.68
quadratic_ranged_437_lb: [ 1 x_31_ ^ 2 - 2 x_85_ * x_31_ + 1 x_85_ ^ 2 + 1 y_31_ ^ 2 - 2 y_85_ * y_31_ + 1 y_85_ ^ 2 ] >= 15920.19
quadratic_ranged_438_lb: [ 1 x_59_ ^ 2 - 2 x_85_ * x_59_ + 1 x_85_ ^ 2 + 1 y_59_ ^ 2 - 2 y_85_ * y_59_ + 1 y_85_ ^ 2 ] >= 1475.1
quadratic_ranged_439_lb: [ 1 x_61_ ^ 2 - 2 x_85_ * x_61_ + 1 x_85_ ^ 2 + 1 y_61_ ^ 2 - 2 y_85_ * y_61_ + 1 y_85_ ^ 2 ] >= 6780.51
quadratic_ranged_440_lb: [ 1 x_62_ ^ 2 - 2 x_85_ * x_62_ + 1 x_85_ ^ 2 + 1 y_62_ ^ 2 - 2 y_85_ * y_62_ + 1 y_85_ ^ 2 ] >= 8495.19
quadratic_ranged_441_lb: [ 1 x_76_ ^ 2 - 2 x_85_ * x_76_ + 1 x_85_ ^ 2 + 1 y_76_ ^ 2 - 2 y_85_ * y_76_ + 1 y_85_ ^ 2 ] >= 7991.28
quadratic_ranged_442_lb: [ 1 x_80_ ^ 2 - 2 x_85_ * x_80_ + 1 x_85_ ^ 2 + 1 y_80_ ^ 2 - 2 y_85_ * y_80_ + 1 y_85_ ^ 2 ] >= 4411.44
quadratic_ranged_443_lb: [ 1 x_84_ ^ 2 - 2 x_85_ * x_84_ + 1 x_85_ ^ 2 + 1 y_84_ ^ 2 - 2 y_85_ * y_84_ + 1 y_85_ ^ 2 ] >= 4506.48
quadratic_ranged_444_lb: [ 1 x_10_ ^ 2 - 2 x_86_ * x_10_ + 1 x_86_ ^ 2 + 1 y_10_ ^ 2 - 2 y_86_ * y_10_ + 1 y_86_ ^ 2 ] >= 20497.95
quadratic_ranged_445_lb: [ 1 x_23_ ^ 2 - 2 x_86_ * x_23_ + 1 x_86_ ^ 2 + 1 y_23_ ^ 2 - 2 y_86_ * y_23_ + 1 y_86_ ^ 2 ] >= 3323.43
quadratic_ranged_446_lb: [ 1 x_34_ ^ 2 - 2 x_86_ * x_34_ + 1 x_86_ ^ 2 + 1 y_34_ ^ 2 - 2 y_86_ * y_34_ + 1 y_86_ ^ 2 ] >= 4302.54
quadratic_ranged_447_lb: [ 1 x_38_ ^ 2 - 2 x_86_ * x_38_ + 1 x_86_ ^ 2 + 1 y_38_ ^ 2 - 2 y_86_ * y_38_ + 1 y_86_ ^ 2 ] >= 34393.59
quadratic_ranged_448_lb: [ 1 x_53_ ^ 2 - 2 x_86_ * x_53_ + 1 x_86_ ^ 2 + 1 y_53_ ^ 2 - 2 y_86_ * y_53_ + 1 y_86_ ^ 2 ] >= 28164.51
quadratic_ranged_449_lb: [ 1 x_61_ ^ 2 - 2 x_86_ * x_61_ + 1 x_86_ ^ 2 + 1 y_61_ ^ 2 - 2 y_86_ * y_61_ + 1 y_86_ ^ 2 ] >= 385.11
quadratic_ranged_450_lb: [ 1 x_73_ ^ 2 - 2 x_86_ * x_73_ + 1 x_86_ ^ 2 + 1 y_73_ ^ 2 - 2 y_86_ * y_73_ + 1 y_86_ ^ 2 ] >= 24730.2
quadratic_ranged_451_lb: [ 1 x_76_ ^ 2 - 2 x_86_ * x_76_ + 1 x_86_ ^ 2 + 1 y_76_ ^ 2 - 2 y_86_ * y_76_ + 1 y_86_ ^ 2 ] >= 24841.079999999998
quadratic_ranged_452_lb: [ 1 x_78_ ^ 2 - 2 x_86_ * x_78_ + 1 x_86_ ^ 2 + 1 y_78_ ^ 2 - 2 y_86_ * y_78_ + 1 y_86_ ^ 2 ] >= 2769.03
quadratic_ranged_453_lb: [ 1 x_85_ ^ 2 - 2 x_86_ * x_85_ + 1 x_86_ ^ 2 + 1 y_85_ ^ 2 - 2 y_86_ * y_85_ + 1 y_86_ ^ 2 ] >= 6435
quadratic_ranged_454_lb: [ 1 x_36_ ^ 2 - 2 x_87_ * x_36_ + 1 x_87_ ^ 2 + 1 y_36_ ^ 2 - 2 y_87_ * y_36_ + 1 y_87_ ^ 2 ] >= 4973.76
quadratic_ranged_455_lb: [ 1 x_39_ ^ 2 - 2 x_87_ * x_39_ + 1 x_87_ ^ 2 + 1 y_39_ ^ 2 - 2 y_87_ * y_39_ + 1 y_87_ ^ 2 ] >= 22898.7
quadratic_ranged_456_lb: [ 1 x_41_ ^ 2 - 2 x_87_ * x_41_ + 1 x_87_ ^ 2 + 1 y_41_ ^ 2 - 2 y_87_ * y_41_ + 1 y_87_ ^ 2 ] >= 16499.34
quadratic_ranged_457_lb: [ 1 x_43_ ^ 2 - 2 x_87_ * x_43_ + 1 x_87_ ^ 2 + 1 y_43_ ^ 2 - 2 y_87_ * y_43_ + 1 y_87_ ^ 2 ] >= 5247
quadratic_ranged_458_lb: [ 1 x_48_ ^ 2 - 2 x_87_ * x_48_ + 1 x_87_ ^ 2 + 1 y_48_ ^ 2 - 2 y_87_ * y_48_ + 1 y_87_ ^ 2 ] >= 25309.35
quadratic_ranged_459_lb: [ 1 x_69_ ^ 2 - 2 x_87_ * x_69_ + 1 x_87_ ^ 2 + 1 y_69_ ^ 2 - 2 y_87_ * y_69_ + 1 y_87_ ^ 2 ] >= 8736.75
quadratic_ranged_460_lb: [ 1 x_77_ ^ 2 - 2 x_87_ * x_77_ + 1 x_87_ ^ 2 + 1 y_77_ ^ 2 - 2 y_87_ * y_77_ + 1 y_87_ ^ 2 ] >= 31102.829999999998
quadratic_ranged_461_lb: [ 1 x_86_ ^ 2 - 2 x_87_ * x_86_ + 1 x_87_ ^ 2 + 1 y_86_ ^ 2 - 2 y_87_ * y_86_ + 1 y_87_ ^ 2 ] >= 25804.35
quadratic_ranged_462_lb: [ 1 x_2_ ^ 2 - 2 x_88_ * x_2_ + 1 x_88_ ^ 2 + 1 y_2_ ^ 2 - 2 y_88_ * y_2_ + 1 y_88_ ^ 2 ] >= 29086.2
quadratic_ranged_463_lb: [ 1 x_28_ ^ 2 - 2 x_88_ * x_28_ + 1 x_88_ ^ 2 + 1 y_28_ ^ 2 - 2 y_88_ * y_28_ + 1 y_88_ ^ 2 ] >= 49326.75
quadratic_ranged_464_lb: [ 1 x_29_ ^ 2 - 2 x_88_ * x_29_ + 1 x_88_ ^ 2 + 1 y_29_ ^ 2 - 2 y_88_ * y_29_ + 1 y_88_ ^ 2 ] >= 30675.15
quadratic_ranged_465_lb: [ 1 x_31_ ^ 2 - 2 x_88_ * x_31_ + 1 x_88_ ^ 2 + 1 y_31_ ^ 2 - 2 y_88_ * y_31_ + 1 y_88_ ^ 2 ] >= 36215.19
quadratic_ranged_466_lb: [ 1 x_36_ ^ 2 - 2 x_88_ * x_36_ + 1 x_88_ ^ 2 + 1 y_36_ ^ 2 - 2 y_88_ * y_36_ + 1 y_88_ ^ 2 ] >= 16478.55
quadratic_ranged_467_lb: [ 1 x_57_ ^ 2 - 2 x_88_ * x_57_ + 1 x_88_ ^ 2 + 1 y_57_ ^ 2 - 2 y_88_ * y_57_ + 1 y_88_ ^ 2 ] >= 10550.43
quadratic_ranged_468_lb: [ 1 x_64_ ^ 2 - 2 x_88_ * x_64_ + 1 x_88_ ^ 2 + 1 y_64_ ^ 2 - 2 y_88_ * y_64_ + 1 y_88_ ^ 2 ] >= 9702
quadratic_ranged_469_lb: [ 1 x_70_ ^ 2 - 2 x_88_ * x_70_ + 1 x_88_ ^ 2 + 1 y_70_ ^ 2 - 2 y_88_ * y_70_ + 1 y_88_ ^ 2 ] >= 53781.75
quadratic_ranged_470_lb: [ 1 x_76_ ^ 2 - 2 x_88_ * x_76_ + 1 x_88_ ^ 2 + 1 y_76_ ^ 2 - 2 y_88_ * y_76_ + 1 y_88_ ^ 2 ] >= 4914.36
quadratic_ranged_471_lb: [ 1 x_87_ ^ 2 - 2 x_88_ * x_87_ + 1 x_88_ ^ 2 + 1 y_87_ ^ 2 - 2 y_88_ * y_87_ + 1 y_88_ ^ 2 ] >= 4162.95
quadratic_ranged_472_lb: [ 1 x_7_ ^ 2 - 2 x_89_ * x_7_ + 1 x_89_ ^ 2 + 1 y_7_ ^ 2 - 2 y_89_ * y_7_ + 1 y_89_ ^ 2 ] >= 20894.94
quadratic_ranged_473_lb: [ 1 x_24_ ^ 2 - 2 x_89_ * x_24_ + 1 x_89_ ^ 2 + 1 y_24_ ^ 2 - 2 y_89_ * y_24_ + 1 y_89_ ^ 2 ] >= 4657.95
quadratic_ranged_474_lb: [ 1 x_33_ ^ 2 - 2 x_89_ * x_33_ + 1 x_89_ ^ 2 + 1 y_33_ ^ 2 - 2 y_89_ * y_33_ + 1 y_89_ ^ 2 ] >= 28086.3
quadratic_ranged_475_lb: [ 1 x_43_ ^ 2 - 2 x_89_ * x_43_ + 1 x_89_ ^ 2 + 1 y_43_ ^ 2 - 2 y_89_ * y_43_ + 1 y_89_ ^ 2 ] >= 633.6
quadratic_ranged_476_lb: [ 1 x_55_ ^ 2 - 2 x_89_ * x_55_ + 1 x_89_ ^ 2 + 1 y_55_ ^ 2 - 2 y_89_ * y_55_ + 1 y_89_ ^ 2 ] >= 33233.31
quadratic_ranged_477_lb: [ 1 x_57_ ^ 2 - 2 x_89_ * x_57_ + 1 x_89_ ^ 2 + 1 y_57_ ^ 2 - 2 y_89_ * y_57_ + 1 y_89_ ^ 2 ] >= 8696.16
quadratic_ranged_478_lb: [ 1 x_84_ ^ 2 - 2 x_89_ * x_84_ + 1 x_89_ ^ 2 + 1 y_84_ ^ 2 - 2 y_89_ * y_84_ + 1 y_89_ ^ 2 ] >= 11172.15
quadratic_ranged_479_lb: [ 1 x_88_ ^ 2 - 2 x_89_ * x_88_ + 1 x_89_ ^ 2 + 1 y_88_ ^ 2 - 2 y_89_ * y_88_ + 1 y_89_ ^ 2 ] >= 23190.75
quadratic_ranged_480_lb: [ 1 x_19_ ^ 2 - 2 x_90_ * x_19_ + 1 x_90_ ^ 2 + 1 y_19_ ^ 2 - 2 y_90_ * y_19_ + 1 y_90_ ^ 2 ] >= 9007.02
quadratic_ranged_481_lb: [ 1 x_22_ ^ 2 - 2 x_90_ * x_22_ + 1 x_90_ ^ 2 + 1 y_22_ ^ 2 - 2 y_90_ * y_22_ + 1 y_90_ ^ 2 ] >= 17052.75
quadratic_ranged_482_lb: [ 1 x_39_ ^ 2 - 2 x_90_ * x_39_ + 1 x_90_ ^ 2 + 1 y_39_ ^ 2 - 2 y_90_ * y_39_ + 1 y_90_ ^ 2 ] >= 13283.82
quadratic_ranged_483_lb: [ 1 x_46_ ^ 2 - 2 x_90_ * x_46_ + 1 x_90_ ^ 2 + 1 y_46_ ^ 2 - 2 y_90_ * y_46_ + 1 y_90_ ^ 2 ] >= 13116.51
quadratic_ranged_484_lb: [ 1 x_68_ ^ 2 - 2 x_90_ * x_68_ + 1 x_90_ ^ 2 + 1 y_68_ ^ 2 - 2 y_90_ * y_68_ + 1 y_90_ ^ 2 ] >= 4800.51
quadratic_ranged_485_lb: [ 1 x_78_ ^ 2 - 2 x_90_ * x_78_ + 1 x_90_ ^ 2 + 1 y_78_ ^ 2 - 2 y_90_ * y_78_ + 1 y_90_ ^ 2 ] >= 9814.86
quadratic_ranged_486_lb: [ 1 x_89_ ^ 2 - 2 x_90_ * x_89_ + 1 x_90_ ^ 2 + 1 y_89_ ^ 2 - 2 y_90_ * y_89_ + 1 y_90_ ^ 2 ] >= 10771.2
quadratic_ranged_487_lb: [ 1 x_1_ ^ 2 - 2 x_91_ * x_1_ + 1 x_91_ ^ 2 + 1 y_1_ ^ 2 - 2 y_91_ * y_1_ + 1 y_91_ ^ 2 ] >= 56997.27
quadratic_ranged_488_lb: [ 1 x_5_ ^ 2 - 2 x_91_ * x_5_ + 1 x_91_ ^ 2 + 1 y_5_ ^ 2 - 2 y_91_ * y_5_ + 1 y_91_ ^ 2 ] >= 31887.9
quadratic_ranged_489_lb: [ 1 x_12_ ^ 2 - 2 x_91_ * x_12_ + 1 x_91_ ^ 2 + 1 y_12_ ^ 2 - 2 y_91_ * y_12_ + 1 y_91_ ^ 2 ] >= 20025.72
quadratic_ranged_490_lb: [ 1 x_18_ ^ 2 - 2 x_91_ * x_18_ + 1 x_91_ ^ 2 + 1 y_18_ ^ 2 - 2 y_91_ * y_18_ + 1 y_91_ ^ 2 ] >= 14280.75
quadratic_ranged_491_lb: [ 1 x_27_ ^ 2 - 2 x_91_ * x_27_ + 1 x_91_ ^ 2 + 1 y_27_ ^ 2 - 2 y_91_ * y_27_ + 1 y_91_ ^ 2 ] >= 4167.9
quadratic_ranged_492_lb: [ 1 x_40_ ^ 2 - 2 x_91_ * x_40_ + 1 x_91_ ^ 2 + 1 y_40_ ^ 2 - 2 y_91_ * y_40_ + 1 y_91_ ^ 2 ] >= 5707.35
quadratic_ranged_493_lb: [ 1 x_44_ ^ 2 - 2 x_91_ * x_44_ + 1 x_91_ ^ 2 + 1 y_44_ ^ 2 - 2 y_91_ * y_44_ + 1 y_91_ ^ 2 ] >= 11481.03
quadratic_ranged_494_lb: [ 1 x_58_ ^ 2 - 2 x_91_ * x_58_ + 1 x_91_ ^ 2 + 1 y_58_ ^ 2 - 2 y_91_ * y_58_ + 1 y_91_ ^ 2 ] >= 16387.47
quadratic_ranged_495_lb: [ 1 x_88_ ^ 2 - 2 x_91_ * x_88_ + 1 x_91_ ^ 2 + 1 y_88_ ^ 2 - 2 y_91_ * y_88_ + 1 y_91_ ^ 2 ] >= 64391.58
quadratic_ranged_496_lb: [ 1 x_90_ ^ 2 - 2 x_91_ * x_90_ + 1 x_91_ ^ 2 + 1 y_90_ ^ 2 - 2 y_91_ * y_90_ + 1 y_91_ ^ 2 ] >= 27479.43
quadratic_ranged_497_lb: [ 1 x_1_ ^ 2 - 2 x_92_ * x_1_ + 1 x_92_ ^ 2 + 1 y_1_ ^ 2 - 2 y_92_ * y_1_ + 1 y_92_ ^ 2 ] >= 58608
quadratic_ranged_498_lb: [ 1 x_20_ ^ 2 - 2 x_92_ * x_20_ + 1 x_92_ ^ 2 + 1 y_20_ ^ 2 - 2 y_92_ * y_20_ + 1 y_92_ ^ 2 ] >= 1445.4
quadratic_ranged_499_lb: [ 1 x_34_ ^ 2 - 2 x_92_ * x_34_ + 1 x_92_ ^ 2 + 1 y_34_ ^ 2 - 2 y_92_ * y_34_ + 1 y_92_ ^ 2 ] >= 13805.55
quadratic_ranged_500_lb: [ 1 x_35_ ^ 2 - 2 x_92_ * x_35_ + 1 x_92_ ^ 2 + 1 y_35_ ^ 2 - 2 y_92_ * y_35_ + 1 y_92_ ^ 2 ] >= 37644.75
quadratic_ranged_501_lb: [ 1 x_48_ ^ 2 - 2 x_92_ * x_48_ + 1 x_92_ ^ 2 + 1 y_48_ ^ 2 - 2 y_92_ * y_48_ + 1 y_92_ ^ 2 ] >= 29289.15
quadratic_ranged_502_lb: [ 1 x_52_ ^ 2 - 2 x_92_ * x_52_ + 1 x_92_ ^ 2 + 1 y_52_ ^ 2 - 2 y_92_ * y_52_ + 1 y_92_ ^ 2 ] >= 19206
quadratic_ranged_503_lb: [ 1 x_58_ ^ 2 - 2 x_92_ * x_58_ + 1 x_92_ ^ 2 + 1 y_58_ ^ 2 - 2 y_92_ * y_58_ + 1 y_92_ ^ 2 ] >= 17919
quadratic_ranged_504_lb: [ 1 x_62_ ^ 2 - 2 x_92_ * x_62_ + 1 x_92_ ^ 2 + 1 y_62_ ^ 2 - 2 y_92_ * y_62_ + 1 y_92_ ^ 2 ] >= 46510.2
quadratic_ranged_505_lb: [ 1 x_74_ ^ 2 - 2 x_92_ * x_74_ + 1 x_92_ ^ 2 + 1 y_74_ ^ 2 - 2 y_92_ * y_74_ + 1 y_92_ ^ 2 ] >= 16.83
quadratic_ranged_506_lb: [ 1 x_75_ ^ 2 - 2 x_92_ * x_75_ + 1 x_92_ ^ 2 + 1 y_75_ ^ 2 - 2 y_92_ * y_75_ + 1 y_92_ ^ 2 ] >= 19342.62
quadratic_ranged_507_lb: [ 1 x_78_ ^ 2 - 2 x_92_ * x_78_ + 1 x_92_ ^ 2 + 1 y_78_ ^ 2 - 2 y_92_ * y_78_ + 1 y_92_ ^ 2 ] >= 5310.36
quadratic_ranged_508_lb: [ 1 x_88_ ^ 2 - 2 x_92_ * x_88_ + 1 x_92_ ^ 2 + 1 y_88_ ^ 2 - 2 y_92_ * y_88_ + 1 y_92_ ^ 2 ] >= 66057.75
quadratic_ranged_509_lb: [ 1 x_91_ ^ 2 - 2 x_92_ * x_91_ + 1 x_92_ ^ 2 + 1 y_91_ ^ 2 - 2 y_92_ * y_91_ + 1 y_92_ ^ 2 ] >= 36.63
quadratic_ranged_510_lb: [ 1 x_7_ ^ 2 - 2 x_93_ * x_7_ + 1 x_93_ ^ 2 + 1 y_7_ ^ 2 - 2 y_93_ * y_7_ + 1 y_93_ ^ 2 ] >= 23289.75
quadratic_ranged_511_lb: [ 1 x_34_ ^ 2 - 2 x_93_ * x_34_ + 1 x_93_ ^ 2 + 1 y_34_ ^ 2 - 2 y_93_ * y_34_ + 1 y_93_ ^ 2 ] >= 17392.32
quadratic_ranged_512_lb: [ 1 x_48_ ^ 2 - 2 x_93_ * x_48_ + 1 x_93_ ^ 2 + 1 y_48_ ^ 2 - 2 y_93_ * y_48_ + 1 y_93_ ^ 2 ] >= 15382.619999999999
quadratic_ranged_513_lb: [ 1 x_50_ ^ 2 - 2 x_93_ * x_50_ + 1 x_93_ ^ 2 + 1 y_50_ ^ 2 - 2 y_93_ * y_50_ + 1 y_93_ ^ 2 ] >= 9482.22
quadratic_ranged_514_lb: [ 1 x_61_ ^ 2 - 2 x_93_ * x_61_ + 1 x_93_ ^ 2 + 1 y_61_ ^ 2 - 2 y_93_ * y_61_ + 1 y_93_ ^ 2 ] >= 17333.91
quadratic_ranged_515_lb: [ 1 x_65_ ^ 2 - 2 x_93_ * x_65_ + 1 x_93_ ^ 2 + 1 y_65_ ^ 2 - 2 y_93_ * y_65_ + 1 y_93_ ^ 2 ] >= 22255.2
quadratic_ranged_516_lb: [ 1 x_71_ ^ 2 - 2 x_93_ * x_71_ + 1 x_93_ ^ 2 + 1 y_71_ ^ 2 - 2 y_93_ * y_71_ + 1 y_93_ ^ 2 ] >= 4859.91
quadratic_ranged_517_lb: [ 1 x_89_ ^ 2 - 2 x_93_ * x_89_ + 1 x_93_ ^ 2 + 1 y_89_ ^ 2 - 2 y_93_ * y_89_ + 1 y_93_ ^ 2 ] >= 11374.11
quadratic_ranged_518_lb: [ 1 x_92_ ^ 2 - 2 x_93_ * x_92_ + 1 x_93_ ^ 2 + 1 y_92_ ^ 2 - 2 y_93_ * y_92_ + 1 y_93_ ^ 2 ] >= 29796.03
quadratic_ranged_519_lb: [ 1 x_8_ ^ 2 - 2 x_94_ * x_8_ + 1 x_94_ ^ 2 + 1 y_8_ ^ 2 - 2 y_94_ * y_8_ + 1 y_94_ ^ 2 ] >= 3889.71
quadratic_ranged_520_lb: [ 1 x_36_ ^ 2 - 2 x_94_ * x_36_ + 1 x_94_ ^ 2 + 1 y_36_ ^ 2 - 2 y_94_ * y_36_ + 1 y_94_ ^ 2 ] >= 12419.55
quadratic_ranged_521_lb: [ 1 x_42_ ^ 2 - 2 x_94_ * x_42_ + 1 x_94_ ^ 2 + 1 y_42_ ^ 2 - 2 y_94_ * y_42_ + 1 y_94_ ^ 2 ] >= 4162.95
quadratic_ranged_522_lb: [ 1 x_48_ ^ 2 - 2 x_94_ * x_48_ + 1 x_94_ ^ 2 + 1 y_48_ ^ 2 - 2 y_94_ * y_48_ + 1 y_94_ ^ 2 ] >= 30319.739999999998
quadratic_ranged_523_lb: [ 1 x_58_ ^ 2 - 2 x_94_ * x_58_ + 1 x_94_ ^ 2 + 1 y_58_ ^ 2 - 2 y_94_ * y_58_ + 1 y_94_ ^ 2 ] >= 27245.79
quadratic_ranged_524_lb: [ 1 x_75_ ^ 2 - 2 x_94_ * x_75_ + 1 x_94_ ^ 2 + 1 y_75_ ^ 2 - 2 y_94_ * y_75_ + 1 y_94_ ^ 2 ] >= 18573.39
quadratic_ranged_525_lb: [ 1 x_93_ ^ 2 - 2 x_94_ * x_93_ + 1 x_94_ ^ 2 + 1 y_93_ ^ 2 - 2 y_94_ * y_93_ + 1 y_94_ ^ 2 ] >= 5247
quadratic_ranged_526_lb: [ 1 x_17_ ^ 2 - 2 x_95_ * x_17_ + 1 x_95_ ^ 2 + 1 y_17_ ^ 2 - 2 y_95_ * y_17_ + 1 y_95_ ^ 2 ] >= 7928.91
quadratic_ranged_527_lb: [ 1 x_23_ ^ 2 - 2 x_95_ * x_23_ + 1 x_95_ ^ 2 + 1 y_23_ ^ 2 - 2 y_95_ * y_23_ + 1 y_95_ ^ 2 ] >= 23230.35
quadratic_ranged_528_lb: [ 1 x_31_ ^ 2 - 2 x_95_ * x_31_ + 1 x_95_ ^ 2 + 1 y_31_ ^ 2 - 2 y_95_ * y_31_ + 1 y_95_ ^ 2 ] >= 18616.95
quadratic_ranged_529_lb: [ 1 x_32_ ^ 2 - 2 x_95_ * x_32_ + 1 x_95_ ^ 2 + 1 y_32_ ^ 2 - 2 y_95_ * y_32_ + 1 y_95_ ^ 2 ] >= 14161.95
quadratic_ranged_530_lb: [ 1 x_34_ ^ 2 - 2 x_95_ * x_34_ + 1 x_95_ ^ 2 + 1 y_34_ ^ 2 - 2 y_95_ * y_34_ + 1 y_95_ ^ 2 ] >= 23294.7
quadratic_ranged_531_lb: [ 1 x_47_ ^ 2 - 2 x_95_ * x_47_ + 1 x_95_ ^ 2 + 1 y_47_ ^ 2 - 2 y_95_ * y_47_ + 1 y_95_ ^ 2 ] >= 18724.86
quadratic_ranged_532_lb: [ 1 x_55_ ^ 2 - 2 x_95_ * x_55_ + 1 x_95_ ^ 2 + 1 y_55_ ^ 2 - 2 y_95_ * y_55_ + 1 y_95_ ^ 2 ] >= 3821.4
quadratic_ranged_533_lb: [ 1 x_58_ ^ 2 - 2 x_95_ * x_58_ + 1 x_95_ ^ 2 + 1 y_58_ ^ 2 - 2 y_95_ * y_58_ + 1 y_95_ ^ 2 ] >= 30140.55
quadratic_ranged_534_lb: [ 1 x_90_ ^ 2 - 2 x_95_ * x_90_ + 1 x_95_ ^ 2 + 1 y_90_ ^ 2 - 2 y_95_ * y_90_ + 1 y_95_ ^ 2 ] >= 3719.43
quadratic_ranged_535_lb: [ 1 x_91_ ^ 2 - 2 x_95_ * x_91_ + 1 x_95_ ^ 2 + 1 y_91_ ^ 2 - 2 y_95_ * y_91_ + 1 y_95_ ^ 2 ] >= 47712.06
quadratic_ranged_536_lb: [ 1 x_94_ ^ 2 - 2 x_95_ * x_94_ + 1 x_95_ ^ 2 + 1 y_94_ ^ 2 - 2 y_95_ * y_94_ + 1 y_95_ ^ 2 ] >= 2948.22
quadratic_ranged_537_lb: [ 1 x_9_ ^ 2 - 2 x_96_ * x_9_ + 1 x_96_ ^ 2 + 1 y_9_ ^ 2 - 2 y_96_ * y_9_ + 1 y_96_ ^ 2 ] >= 21423.6
quadratic_ranged_538_lb: [ 1 x_25_ ^ 2 - 2 x_96_ * x_25_ + 1 x_96_ ^ 2 + 1 y_25_ ^ 2 - 2 y_96_ * y_25_ + 1 y_96_ ^ 2 ] >= 20830.59
quadratic_ranged_539_lb: [ 1 x_38_ ^ 2 - 2 x_96_ * x_38_ + 1 x_96_ ^ 2 + 1 y_38_ ^ 2 - 2 y_96_ * y_38_ + 1 y_96_ ^ 2 ] >= 21709.71
quadratic_ranged_540_lb: [ 1 x_55_ ^ 2 - 2 x_96_ * x_55_ + 1 x_96_ ^ 2 + 1 y_55_ ^ 2 - 2 y_96_ * y_55_ + 1 y_96_ ^ 2 ] >= 2585.88
quadratic_ranged_541_lb: [ 1 x_59_ ^ 2 - 2 x_96_ * x_59_ + 1 x_96_ ^ 2 + 1 y_59_ ^ 2 - 2 y_96_ * y_59_ + 1 y_96_ ^ 2 ] >= 6092.46
quadratic_ranged_542_lb: [ 1 x_79_ ^ 2 - 2 x_96_ * x_79_ + 1 x_96_ ^ 2 + 1 y_79_ ^ 2 - 2 y_96_ * y_79_ + 1 y_96_ ^ 2 ] >= 48383.28
quadratic_ranged_543_lb: [ 1 x_95_ ^ 2 - 2 x_96_ * x_95_ + 1 x_96_ ^ 2 + 1 y_95_ ^ 2 - 2 y_96_ * y_95_ + 1 y_96_ ^ 2 ] >= 12014.64
quadratic_ranged_544_lb: [ 1 x_16_ ^ 2 - 2 x_97_ * x_16_ + 1 x_97_ ^ 2 + 1 y_16_ ^ 2 - 2 y_97_ * y_16_ + 1 y_97_ ^ 2 ] >= 48.51
quadratic_ranged_545_lb: [ 1 x_21_ ^ 2 - 2 x_97_ * x_21_ + 1 x_97_ ^ 2 + 1 y_21_ ^ 2 - 2 y_97_ * y_21_ + 1 y_97_ ^ 2 ] >= 25029.18
quadratic_ranged_546_lb: [ 1 x_32_ ^ 2 - 2 x_97_ * x_32_ + 1 x_97_ ^ 2 + 1 y_32_ ^ 2 - 2 y_97_ * y_32_ + 1 y_97_ ^ 2 ] >= 35941.95
quadratic_ranged_547_lb: [ 1 x_38_ ^ 2 - 2 x_97_ * x_38_ + 1 x_97_ ^ 2 + 1 y_38_ ^ 2 - 2 y_97_ * y_38_ + 1 y_97_ ^ 2 ] >= 26794.35
quadratic_ranged_548_lb: [ 1 x_42_ ^ 2 - 2 x_97_ * x_42_ + 1 x_97_ ^ 2 + 1 y_42_ ^ 2 - 2 y_97_ * y_42_ + 1 y_97_ ^ 2 ] >= 13888.71
quadratic_ranged_549_lb: [ 1 x_44_ ^ 2 - 2 x_97_ * x_44_ + 1 x_97_ ^ 2 + 1 y_44_ ^ 2 - 2 y_97_ * y_44_ + 1 y_97_ ^ 2 ] >= 14486.67
quadratic_ranged_550_lb: [ 1 x_79_ ^ 2 - 2 x_97_ * x_79_ + 1 x_97_ ^ 2 + 1 y_79_ ^ 2 - 2 y_97_ * y_79_ + 1 y_97_ ^ 2 ] >= 11266.2
quadratic_ranged_551_lb: [ 1 x_85_ ^ 2 - 2 x_97_ * x_85_ + 1 x_97_ ^ 2 + 1 y_85_ ^ 2 - 2 y_97_ * y_85_ + 1 y_97_ ^ 2 ] >= 5437.08
quadratic_ranged_552_lb: [ 1 x_96_ ^ 2 - 2 x_97_ * x_96_ + 1 x_97_ ^ 2 + 1 y_96_ ^ 2 - 2 y_97_ * y_96_ + 1 y_97_ ^ 2 ] >= 21340.44
quadratic_ranged_553_lb: [ 1 x_6_ ^ 2 - 2 x_98_ * x_6_ + 1 x_98_ ^ 2 + 1 y_6_ ^ 2 - 2 y_98_ * y_6_ + 1 y_98_ ^ 2 ] >= 2784.87
quadratic_ranged_554_lb: [ 1 x_9_ ^ 2 - 2 x_98_ * x_9_ + 1 x_98_ ^ 2 + 1 y_9_ ^ 2 - 2 y_98_ * y_9_ + 1 y_98_ ^ 2 ] >= 39395.07
quadratic_ranged_555_lb: [ 1 x_16_ ^ 2 - 2 x_98_ * x_16_ + 1 x_98_ ^ 2 + 1 y_16_ ^ 2 - 2 y_98_ * y_16_ + 1 y_98_ ^ 2 ] >= 4730.22
quadratic_ranged_556_lb: [ 1 x_25_ ^ 2 - 2 x_98_ * x_25_ + 1 x_98_ ^ 2 + 1 y_25_ ^ 2 - 2 y_98_ * y_25_ + 1 y_98_ ^ 2 ] >= 17111.16
quadratic_ranged_557_lb: [ 1 x_37_ ^ 2 - 2 x_98_ * x_37_ + 1 x_98_ ^ 2 + 1 y_37_ ^ 2 - 2 y_98_ * y_37_ + 1 y_98_ ^ 2 ] >= 38709.99
quadratic_ranged_558_lb: [ 1 x_68_ ^ 2 - 2 x_98_ * x_68_ + 1 x_98_ ^ 2 + 1 y_68_ ^ 2 - 2 y_98_ * y_68_ + 1 y_98_ ^ 2 ] >= 4923.2699999999995
quadratic_ranged_559_lb: [ 1 x_71_ ^ 2 - 2 x_98_ * x_71_ + 1 x_98_ ^ 2 + 1 y_71_ ^ 2 - 2 y_98_ * y_71_ + 1 y_98_ ^ 2 ] >= 8751.6
quadratic_ranged_560_lb: [ 1 x_77_ ^ 2 - 2 x_98_ * x_77_ + 1 x_98_ ^ 2 + 1 y_77_ ^ 2 - 2 y_98_ * y_77_ + 1 y_98_ ^ 2 ] >= 183.15
quadratic_ranged_561_lb: [ 1 x_81_ ^ 2 - 2 x_98_ * x_81_ + 1 x_98_ ^ 2 + 1 y_81_ ^ 2 - 2 y_98_ * y_81_ + 1 y_98_ ^ 2 ] >= 18616.95
quadratic_ranged_562_lb: [ 1 x_83_ ^ 2 - 2 x_98_ * x_83_ + 1 x_98_ ^ 2 + 1 y_83_ ^ 2 - 2 y_98_ * y_83_ + 1 y_98_ ^ 2 ] >= 1006.83
quadratic_ranged_563_lb: [ 1 x_97_ ^ 2 - 2 x_98_ * x_97_ + 1 x_98_ ^ 2 + 1 y_97_ ^ 2 - 2 y_98_ * y_97_ + 1 y_98_ ^ 2 ] >= 5014.35
quadratic_ranged_564_lb: [ 1 x_21_ ^ 2 - 2 x_99_ * x_21_ + 1 x_99_ ^ 2 + 1 y_21_ ^ 2 - 2 y_99_ * y_21_ + 1 y_99_ ^ 2 ] >= 1180.08
quadratic_ranged_565_lb: [ 1 x_31_ ^ 2 - 2 x_99_ * x_31_ + 1 x_99_ ^ 2 + 1 y_31_ ^ 2 - 2 y_99_ * y_31_ + 1 y_99_ ^ 2 ] >= 8063.55
quadratic_ranged_566_lb: [ 1 x_69_ ^ 2 - 2 x_99_ * x_69_ + 1 x_99_ ^ 2 + 1 y_69_ ^ 2 - 2 y_99_ * y_69_ + 1 y_99_ ^ 2 ] >= 479.15999999999997
quadratic_ranged_567_lb: [ 1 x_86_ ^ 2 - 2 x_99_ * x_86_ + 1 x_99_ ^ 2 + 1 y_86_ ^ 2 - 2 y_99_ * y_86_ + 1 y_99_ ^ 2 ] >= 11644.38
quadratic_ranged_568_lb: [ 1 x_90_ ^ 2 - 2 x_99_ * x_90_ + 1 x_99_ ^ 2 + 1 y_90_ ^ 2 - 2 y_99_ * y_90_ + 1 y_99_ ^ 2 ] >= 2666.07
quadratic_ranged_569_lb: [ 1 x_96_ ^ 2 - 2 x_99_ * x_96_ + 1 x_99_ ^ 2 + 1 y_96_ ^ 2 - 2 y_99_ * y_96_ + 1 y_99_ ^ 2 ] >= 2861.1
quadratic_ranged_570_lb: [ 1 x_97_ ^ 2 - 2 x_99_ * x_97_ + 1 x_99_ ^ 2 + 1 y_97_ ^ 2 - 2 y_99_ * y_97_ + 1 y_99_ ^ 2 ] >= 15517.26
quadratic_ranged_571_lb: [ 1 x_98_ ^ 2 - 2 x_99_ * x_98_ + 1 x_99_ ^ 2 + 1 y_98_ ^ 2 - 2 y_99_ * y_98_ + 1 y_99_ ^ 2 ] >= 13662.99
quadratic_ranged_572_lb: [ 1 x_1_ ^ 2 - 2 x_100_ * x_1_ + 1 x_100_ ^ 2 + 1 y_1_ ^ 2 - 2 y_100_ * y_1_ + 1 y_100_ ^ 2 ] >= 24101.55
quadratic_ranged_573_lb: [ 1 x_16_ ^ 2 - 2 x_100_ * x_16_ + 1 x_100_ ^ 2 + 1 y_16_ ^ 2 - 2 y_100_ * y_16_ + 1 y_100_ ^ 2 ] >= 26204.31
quadratic_ranged_574_lb: [ 1 x_32_ ^ 2 - 2 x_100_ * x_32_ + 1 x_100_ ^ 2 + 1 y_32_ ^ 2 - 2 y_100_ * y_32_ + 1 y_100_ ^ 2 ] >= 456.39
quadratic_ranged_575_lb: [ 1 x_38_ ^ 2 - 2 x_100_ * x_38_ + 1 x_100_ ^ 2 + 1 y_38_ ^ 2 - 2 y_100_ * y_38_ + 1 y_100_ ^ 2 ] >= 22893.75
quadratic_ranged_576_lb: [ 1 x_41_ ^ 2 - 2 x_100_ * x_41_ + 1 x_100_ ^ 2 + 1 y_41_ ^ 2 - 2 y_100_ * y_41_ + 1 y_100_ ^ 2 ] >= 9330.75
quadratic_ranged_577_lb: [ 1 x_43_ ^ 2 - 2 x_100_ * x_43_ + 1 x_100_ ^ 2 + 1 y_43_ ^ 2 - 2 y_100_ * y_43_ + 1 y_100_ ^ 2 ] >= 41394.87
quadratic_ranged_578_lb: [ 1 x_46_ ^ 2 - 2 x_100_ * x_46_ + 1 x_100_ ^ 2 + 1 y_46_ ^ 2 - 2 y_100_ * y_46_ + 1 y_100_ ^ 2 ] >= 48822.84
quadratic_ranged_579_lb: [ 1 x_49_ ^ 2 - 2 x_100_ * x_49_ + 1 x_100_ ^ 2 + 1 y_49_ ^ 2 - 2 y_100_ * y_49_ + 1 y_100_ ^ 2 ] >= 13116.51
quadratic_ranged_580_lb: [ 1 x_55_ ^ 2 - 2 x_100_ * x_55_ + 1 x_100_ ^ 2 + 1 y_55_ ^ 2 - 2 y_100_ * y_55_ + 1 y_100_ ^ 2 ] >= 2195.82
quadratic_ranged_581_lb: [ 1 x_65_ ^ 2 - 2 x_100_ * x_65_ + 1 x_100_ ^ 2 + 1 y_65_ ^ 2 - 2 y_100_ * y_65_ + 1 y_100_ ^ 2 ] >= 24714.36
quadratic_ranged_582_lb: [ 1 x_73_ ^ 2 - 2 x_100_ * x_73_ + 1 x_100_ ^ 2 + 1 y_73_ ^ 2 - 2 y_100_ * y_73_ + 1 y_100_ ^ 2 ] >= 37804.14
quadratic_ranged_583_lb: [ 1 x_81_ ^ 2 - 2 x_100_ * x_81_ + 1 x_100_ ^ 2 + 1 y_81_ ^ 2 - 2 y_100_ * y_81_ + 1 y_100_ ^ 2 ] >= 33479.82
quadratic_ranged_584_lb: [ 1 x_97_ ^ 2 - 2 x_100_ * x_97_ + 1 x_100_ ^ 2 + 1 y_97_ ^ 2 - 2 y_100_ * y_97_ + 1 y_100_ ^ 2 ] >= 28331.82
quadratic_ranged_585_lb: [ 1 x_99_ ^ 2 - 2 x_100_ * x_99_ + 1 x_100_ ^ 2 + 1 y_99_ ^ 2 - 2 y_100_ * y_99_ + 1 y_100_ ^ 2 ] >= 4118.4
c1_1: 1 x_25_ = 0
c2_1: 1 y_25_ = 0
Bounds
-130 <= x_1_ <= 130
-54 <= x_2_ <= 54
-90 <= x_3_ <= 90
-91 <= x_4_ <= 91
-157 <= x_5_ <= 157
-147 <= x_6_ <= 147
-133 <= x_7_ <= 133
-63 <= x_8_ <= 63
-108 <= x_9_ <= 108
-97 <= x_10_ <= 97
-62 <= x_11_ <= 62
-85 <= x_12_ <= 85
-99 <= x_13_ <= 99
-175 <= x_14_ <= 175
-175 <= x_15_ <= 175
-100 <= x_16_ <= 100
-50 <= x_17_ <= 50
-144 <= x_18_ <= 144
-188 <= x_19_ <= 188
-197 <= x_20_ <= 197
-122 <= x_21_ <= 122
-176 <= x_22_ <= 176
-165 <= x_23_ <= 165
-44 <= x_24_ <= 44
x_25_ = 0
-6 <= x_26_ <= 6
-88 <= x_27_ <= 88
-146 <= x_28_ <= 146
-114 <= x_29_ <= 114
-125 <= x_30_ <= 125
-185 <= x_31_ <= 185
-182 <= x_32_ <= 182
-124 <= x_33_ <= 124
-158 <= x_34_ <= 158
-53 <= x_35_ <= 53
-69 <= x_36_ <= 69
-116 <= x_37_ <= 116
-100 <= x_38_ <= 100
-124 <= x_39_ <= 124
-94 <= x_40_ <= 94
-113 <= x_41_ <= 113
-39 <= x_42_ <= 39
-67 <= x_43_ <= 67
-170 <= x_44_ <= 170
-76 <= x_45_ <= 76
-72 <= x_46_ <= 72
-40 <= x_47_ <= 40
-178 <= x_48_ <= 178
-156 <= x_49_ <= 156
-97 <= x_50_ <= 97
-90 <= x_51_ <= 90
-118 <= x_52_ <= 118
-187 <= x_53_ <= 187
-110 <= x_54_ <= 110
-132 <= x_55_ <= 132
-120 <= x_56_ <= 120
-41 <= x_57_ <= 41
-91 <= x_58_ <= 91
-102 <= x_59_ <= 102
-122 <= x_60_ <= 122
-137 <= x_61_ <= 137
-90 <= x_62_ <= 90
-63 <= x_63_ <= 63
-133 <= x_64_ <= 133
-138 <= x_65_ <= 138
-5 <= x_66_ <= 5
-49 <= x_67_ <= 49
-68 <= x_68_ <= 68
-169 <= x_69_ <= 169
-159 <= x_70_ <= 159
-108 <= x_71_ <= 108
-130 <= x_72_ <= 130
-135 <= x_73_ <= 135
-160 <= x_74_ <= 160
-152 <= x_75_ <= 152
-110 <= x_76_ <= 110
-145 <= x_77_ <= 145
-171 <= x_78_ <= 171
-90 <= x_79_ <= 90
-16 <= x_80_ <= 16
-25 <= x_81_ <= 25
-126 <= x_82_ <= 126
-143 <= x_83_ <= 143
-131 <= x_84_ <= 131
-64 <= x_85_ <= 64
-145 <= x_86_ <= 145
-140 <= x_87_ <= 140
-145 <= x_88_ <= 145
-92 <= x_89_ <= 92
-138 <= x_90_ <= 138
-153 <= x_91_ <= 153
-159 <= x_92_ <= 159
-177 <= x_93_ <= 177
-104 <= x_94_ <= 104
-139 <= x_95_ <= 139
-145 <= x_96_ <= 145
-107 <= x_97_ <= 107
-132 <= x_98_ <= 132
-157 <= x_99_ <= 157
-179 <= x_100_ <= 179
-130 <= y_1_ <= 130
-54 <= y_2_ <= 54
-90 <= y_3_ <= 90
-91 <= y_4_ <= 91
-157 <= y_5_ <= 157
-147 <= y_6_ <= 147
-133 <= y_7_ <= 133
-63 <= y_8_ <= 63
-108 <= y_9_ <= 108
-97 <= y_10_ <= 97
-62 <= y_11_ <= 62
-85 <= y_12_ <= 85
-99 <= y_13_ <= 99
-175 <= y_14_ <= 175
-175 <= y_15_ <= 175
-100 <= y_16_ <= 100
-50 <= y_17_ <= 50
-144 <= y_18_ <= 144
-188 <= y_19_ <= 188
-197 <= y_20_ <= 197
-122 <= y_21_ <= 122
-176 <= y_22_ <= 176
-165 <= y_23_ <= 165
-44 <= y_24_ <= 44
y_25_ = 0
-6 <= y_26_ <= 6
-88 <= y_27_ <= 88
-146 <= y_28_ <= 146
-114 <= y_29_ <= 114
-125 <= y_30_ <= 125
-185 <= y_31_ <= 185
-182 <= y_32_ <= 182
-124 <= y_33_ <= 124
-158 <= y_34_ <= 158
-53 <= y_35_ <= 53
-69 <= y_36_ <= 69
-116 <= y_37_ <= 116
-100 <= y_38_ <= 100
-124 <= y_39_ <= 124
-94 <= y_40_ <= 94
-113 <= y_41_ <= 113
-39 <= y_42_ <= 39
-67 <= y_43_ <= 67
-170 <= y_44_ <= 170
-76 <= y_45_ <= 76
-72 <= y_46_ <= 72
-40 <= y_47_ <= 40
-178 <= y_48_ <= 178
-156 <= y_49_ <= 156
-97 <= y_50_ <= 97
-90 <= y_51_ <= 90
-118 <= y_52_ <= 118
-187 <= y_53_ <= 187
-110 <= y_54_ <= 110
-132 <= y_55_ <= 132
-120 <= y_56_ <= 120
-41 <= y_57_ <= 41
-91 <= y_58_ <= 91
-102 <= y_59_ <= 102
-122 <= y_60_ <= 122
-137 <= y_61_ <= 137
-90 <= y_62_ <= 90
-63 <= y_63_ <= 63
-133 <= y_64_ <= 133
-138 <= y_65_ <= 138
-5 <= y_66_ <= 5
-49 <= y_67_ <= 49
-68 <= y_68_ <= 68
-169 <= y_69_ <= 169
-159 <= y_70_ <= 159
-108 <= y_71_ <= 108
-130 <= y_72_ <= 130
-135 <= y_73_ <= 135
-160 <= y_74_ <= 160
-152 <= y_75_ <= 152
-110 <= y_76_ <= 110
-145 <= y_77_ <= 145
-171 <= y_78_ <= 171
-90 <= y_79_ <= 90
-16 <= y_80_ <= 16
-25 <= y_81_ <= 25
-126 <= y_82_ <= 126
-143 <= y_83_ <= 143
-131 <= y_84_ <= 131
-64 <= y_85_ <= 64
-145 <= y_86_ <= 145
-140 <= y_87_ <= 140
-145 <= y_88_ <= 145
-92 <= y_89_ <= 92
-138 <= y_90_ <= 138
-153 <= y_91_ <= 153
-159 <= y_92_ <= 159
-177 <= y_93_ <= 177
-104 <= y_94_ <= 104
-139 <= y_95_ <= 139
-145 <= y_96_ <= 145
-107 <= y_97_ <= 107
-132 <= y_98_ <= 132
-157 <= y_99_ <= 157
-179 <= y_100_ <= 179
General
x_1_
x_2_
x_3_
x_4_
x_5_
x_6_
x_7_
x_8_
x_9_
x_10_
x_11_
x_12_
x_13_
x_14_
x_15_
x_16_
x_17_
x_18_
x_19_
x_20_
x_21_
x_22_
x_23_
x_24_
x_25_
x_26_
x_27_
x_28_
x_29_
x_30_
x_31_
x_32_
x_33_
x_34_
x_35_
x_36_
x_37_
x_38_
x_39_
x_40_
x_41_
x_42_
x_43_
x_44_
x_45_
x_46_
x_47_
x_48_
x_49_
x_50_
x_51_
x_52_
x_53_
x_54_
x_55_
x_56_
x_57_
x_58_
x_59_
x_60_
x_61_
x_62_
x_63_
x_64_
x_65_
x_66_
x_67_
x_68_
x_69_
x_70_
x_71_
x_72_
x_73_
x_74_
x_75_
x_76_
x_77_
x_78_
x_79_
x_80_
x_81_
x_82_
x_83_
x_84_
x_85_
x_86_
x_87_
x_88_
x_89_
x_90_
x_91_
x_92_
x_93_
x_94_
x_95_
x_96_
x_97_
x_98_
x_99_
x_100_
y_1_
y_2_
y_3_
y_4_
y_5_
y_6_
y_7_
y_8_
y_9_
y_10_
y_11_
y_12_
y_13_
y_14_
y_15_
y_16_
y_17_
y_18_
y_19_
y_20_
y_21_
y_22_
y_23_
y_24_
y_25_
y_26_
y_27_
y_28_
y_29_
y_30_
y_31_
y_32_
y_33_
y_34_
y_35_
y_36_
y_37_
y_38_
y_39_
y_40_
y_41_
y_42_
y_43_
y_44_
y_45_
y_46_
y_47_
y_48_
y_49_
y_50_
y_51_
y_52_
y_53_
y_54_
y_55_
y_56_
y_57_
y_58_
y_59_
y_60_
y_61_
y_62_
y_63_
y_64_
y_65_
y_66_
y_67_
y_68_
y_69_
y_70_
y_71_
y_72_
y_73_
y_74_
y_75_
y_76_
y_77_
y_78_
y_79_
y_80_
y_81_
y_82_
y_83_
y_84_
y_85_
y_86_
y_87_
y_88_
y_89_
y_90_
y_91_
y_92_
y_93_
y_94_
y_95_
y_96_
y_97_
y_98_
y_99_
y_100_
End
