minimize
obj: 
subject to
c1_1: 42 x_1_ + 148 y_1_ + [ 1 x_1_ ^ 2 + 1 y_1_ ^ 2 ] <= 40694
c2_1: 42 x_2_ + 148 y_2_ + [ 1 x_2_ ^ 2 + 1 y_2_ ^ 2 ] <= 11113
c3_1: 42 x_3_ + 148 y_3_ + [ 1 x_3_ ^ 2 + 1 y_3_ ^ 2 ] <= -4176
c4_1: 42 x_4_ + 148 y_4_ + [ 1 x_4_ ^ 2 + 1 y_4_ ^ 2 ] <= -2174
c5_1: 42 x_5_ + 148 y_5_ + [ 1 x_5_ ^ 2 + 1 y_5_ ^ 2 ] <= 5823
c6_1: 42 x_6_ + 148 y_6_ + [ 1 x_6_ ^ 2 + 1 y_6_ ^ 2 ] <= 4356
c7_1: 42 x_7_ + 148 y_7_ + [ 1 x_7_ ^ 2 + 1 y_7_ ^ 2 ] <= 16246
c8_1: 42 x_8_ + 148 y_8_ + [ 1 x_8_ ^ 2 + 1 y_8_ ^ 2 ] <= 7324
c9_1: 42 x_9_ + 148 y_9_ + [ 1 x_9_ ^ 2 + 1 y_9_ ^ 2 ] <= -4868
c10_1: 42 x_10_ + 148 y_10_ + [ 1 x_10_ ^ 2 + 1 y_10_ ^ 2 ] <= -5891
c11_1: 42 x_12_ + 148 y_12_ + [ 1 x_12_ ^ 2 + 1 y_12_ ^ 2 ] <= -1635
c12_1: 42 x_13_ + 148 y_13_ + [ 1 x_13_ ^ 2 + 1 y_13_ ^ 2 ] <= -731
c13_1: 42 x_14_ + 148 y_14_ + [ 1 x_14_ ^ 2 + 1 y_14_ ^ 2 ] <= 26642
c14_1: 42 x_15_ + 148 y_15_ + [ 1 x_15_ ^ 2 + 1 y_15_ ^ 2 ] <= -2699
c15_1: 42 x_16_ + 148 y_16_ + [ 1 x_16_ ^ 2 + 1 y_16_ ^ 2 ] <= 8089
c16_1: 42 x_17_ + 148 y_17_ + [ 1 x_17_ ^ 2 + 1 y_17_ ^ 2 ] <= -709
c17_1: 42 x_18_ + 148 y_18_ + [ 1 x_18_ ^ 2 + 1 y_18_ ^ 2 ] <= 6996
c18_1: 42 x_19_ + 148 y_19_ + [ 1 x_19_ ^ 2 + 1 y_19_ ^ 2 ] <= 680
c19_1: 42 x_20_ + 148 y_20_ + [ 1 x_20_ ^ 2 + 1 y_20_ ^ 2 ] <= 22331
c20_1: -20 x_1_ + 60 y_1_ + [ 1 x_1_ ^ 2 + 1 y_1_ ^ 2 ] <= 59084
c21_1: -20 x_2_ + 60 y_2_ + [ 1 x_2_ ^ 2 + 1 y_2_ ^ 2 ] <= 22064
c22_1: -20 x_3_ + 60 y_3_ + [ 1 x_3_ ^ 2 + 1 y_3_ ^ 2 ] <= 2946
c23_1: -20 x_5_ + 60 y_5_ + [ 1 x_5_ ^ 2 + 1 y_5_ ^ 2 ] <= 1225
c24_1: -20 x_6_ + 60 y_6_ + [ 1 x_6_ ^ 2 + 1 y_6_ ^ 2 ] <= 16051
c25_1: -20 x_7_ + 60 y_7_ + [ 1 x_7_ ^ 2 + 1 y_7_ ^ 2 ] <= 6690
c26_1: -20 x_8_ + 60 y_8_ + [ 1 x_8_ ^ 2 + 1 y_8_ ^ 2 ] <= 30041
c27_1: -20 x_9_ + 60 y_9_ + [ 1 x_9_ ^ 2 + 1 y_9_ ^ 2 ] <= 5951
c28_1: -20 x_10_ + 60 y_10_ + [ 1 x_10_ ^ 2 + 1 y_10_ ^ 2 ] <= 2145
c29_1: -20 x_11_ + 60 y_11_ + [ 1 x_11_ ^ 2 + 1 y_11_ ^ 2 ] <= 2743
c30_1: -20 x_12_ + 60 y_12_ + [ 1 x_12_ ^ 2 + 1 y_12_ ^ 2 ] <= 12851
c31_1: -20 x_13_ + 60 y_13_ + [ 1 x_13_ ^ 2 + 1 y_13_ ^ 2 ] <= 9954
c32_1: -20 x_14_ + 60 y_14_ + [ 1 x_14_ ^ 2 + 1 y_14_ ^ 2 ] <= 13223
c33_1: -20 x_15_ + 60 y_15_ + [ 1 x_15_ ^ 2 + 1 y_15_ ^ 2 ] <= 12902
c34_1: -20 x_16_ + 60 y_16_ + [ 1 x_16_ ^ 2 + 1 y_16_ ^ 2 ] <= 25085
c35_1: -20 x_17_ + 60 y_17_ + [ 1 x_17_ ^ 2 + 1 y_17_ ^ 2 ] <= 11456
c36_1: -20 x_18_ + 60 y_18_ + [ 1 x_18_ ^ 2 + 1 y_18_ ^ 2 ] <= 20397
c37_1: -20 x_19_ + 60 y_19_ + [ 1 x_19_ ^ 2 + 1 y_19_ ^ 2 ] <= 9517
c38_1: -20 x_20_ + 60 y_20_ + [ 1 x_20_ ^ 2 + 1 y_20_ ^ 2 ] <= 10426
c39_1: 26 x_1_ + 98 y_1_ + [ 1 x_1_ ^ 2 + 1 y_1_ ^ 2 ] <= 54118
c40_1: 26 x_2_ + 98 y_2_ + [ 1 x_2_ ^ 2 + 1 y_2_ ^ 2 ] <= 20745
c41_1: 26 x_3_ + 98 y_3_ + [ 1 x_3_ ^ 2 + 1 y_3_ ^ 2 ] <= 1633
c42_1: 26 x_4_ + 98 y_4_ + [ 1 x_4_ ^ 2 + 1 y_4_ ^ 2 ] <= 4381
c43_1: 26 x_5_ + 98 y_5_ + [ 1 x_5_ ^ 2 + 1 y_5_ ^ 2 ] <= 6861
c44_1: 26 x_6_ + 98 y_6_ + [ 1 x_6_ ^ 2 + 1 y_6_ ^ 2 ] <= 12694
c45_1: 26 x_7_ + 98 y_7_ + [ 1 x_7_ ^ 2 + 1 y_7_ ^ 2 ] <= 26694
c46_1: 26 x_8_ + 98 y_8_ + [ 1 x_8_ ^ 2 + 1 y_8_ ^ 2 ] <= 9720
c47_1: 26 x_10_ + 98 y_10_ + [ 1 x_10_ ^ 2 + 1 y_10_ ^ 2 ] <= -1825
c48_1: 26 x_11_ + 98 y_11_ + [ 1 x_11_ ^ 2 + 1 y_11_ ^ 2 ] <= -1521
c49_1: 26 x_12_ + 98 y_12_ + [ 1 x_12_ ^ 2 + 1 y_12_ ^ 2 ] <= 507
c50_1: 26 x_13_ + 98 y_13_ + [ 1 x_13_ ^ 2 + 1 y_13_ ^ 2 ] <= -1000
c51_1: 26 x_14_ + 98 y_14_ + [ 1 x_14_ ^ 2 + 1 y_14_ ^ 2 ] <= 27540
c52_1: 26 x_15_ + 98 y_15_ + [ 1 x_15_ ^ 2 + 1 y_15_ ^ 2 ] <= 2276
c53_1: 26 x_16_ + 98 y_16_ + [ 1 x_16_ ^ 2 + 1 y_16_ ^ 2 ] <= 6737
c54_1: 26 x_17_ + 98 y_17_ + [ 1 x_17_ ^ 2 + 1 y_17_ ^ 2 ] <= 4271
c55: 26 x_18_ + 98 y_18_ + [ 1 x_18_ ^ 2 + 1 y_18_ ^ 2 ] <= 4030
c56: 26 x_19_ + 98 y_19_ + [ 1 x_19_ ^ 2 + 1 y_19_ ^ 2 ] <= 2955
c57: 26 x_20_ + 98 y_20_ + [ 1 x_20_ ^ 2 + 1 y_20_ ^ 2 ] <= 31986
c1_2: 1 x_11_ = -21
c2_2: 1 y_11_ = -74
c3_2: 1 x_4_ = 10
c4_2: 1 y_4_ = -30
c5_2: 1 x_9_ = -13
c6_2: 1 y_9_ = -49
c1: [ 1 x_1_ ^ 2 - 2 x_2_ * x_1_ + 1 x_2_ ^ 2 + 1 y_1_ ^ 2 - 2 y_2_ * y_1_ + 1 y_2_ ^ 2 ] = 41290
c2: [ 1 x_2_ ^ 2 - 2 x_3_ * x_2_ + 1 x_3_ ^ 2 + 1 y_2_ ^ 2 - 2 y_3_ * y_2_ + 1 y_3_ ^ 2 ] = 7930
c3: [ 1 x_3_ ^ 2 - 2 x_4_ * x_3_ + 1 x_4_ ^ 2 + 1 y_3_ ^ 2 - 2 y_4_ * y_3_ + 1 y_4_ ^ 2 ] = 3946
c4: [ 1 x_4_ ^ 2 - 2 x_5_ * x_4_ + 1 x_5_ ^ 2 + 1 y_4_ ^ 2 - 2 y_5_ * y_4_ + 1 y_5_ ^ 2 ] = 2225
c5: [ 1 x_1_ ^ 2 - 2 x_6_ * x_1_ + 1 x_6_ ^ 2 + 1 y_1_ ^ 2 - 2 y_6_ * y_1_ + 1 y_6_ ^ 2 ] = 13120
c6: [ 1 x_3_ ^ 2 - 2 x_6_ * x_3_ + 1 x_6_ ^ 2 + 1 y_3_ ^ 2 - 2 y_6_ * y_3_ + 1 y_6_ ^ 2 ] = 8320
c7: [ 1 x_5_ ^ 2 - 2 x_6_ * x_5_ + 1 x_6_ ^ 2 + 1 y_5_ ^ 2 - 2 y_6_ * y_5_ + 1 y_6_ ^ 2 ] = 6957
c8: [ 1 x_4_ ^ 2 - 2 x_7_ * x_4_ + 1 x_7_ ^ 2 + 1 y_4_ ^ 2 - 2 y_7_ * y_4_ + 1 y_7_ ^ 2 ] = 7690
c9: [ 1 x_6_ ^ 2 - 2 x_7_ * x_6_ + 1 x_7_ ^ 2 + 1 y_6_ ^ 2 - 2 y_7_ * y_6_ + 1 y_7_ ^ 2 ] = 3104
c10: [ 1 x_3_ ^ 2 - 2 x_8_ * x_3_ + 1 x_8_ ^ 2 + 1 y_3_ ^ 2 - 2 y_8_ * y_3_ + 1 y_8_ ^ 2 ] = 22114
c11: [ 1 x_7_ ^ 2 - 2 x_8_ * x_7_ + 1 x_8_ ^ 2 + 1 y_7_ ^ 2 - 2 y_8_ * y_7_ + 1 y_8_ ^ 2 ] = 12322
c12: [ 1 x_8_ ^ 2 - 2 x_9_ * x_8_ + 1 x_9_ ^ 2 + 1 y_8_ ^ 2 - 2 y_9_ * y_8_ + 1 y_9_ ^ 2 ] = 12290
c13: [ 1 x_2_ ^ 2 - 2 x_10_ * x_2_ + 1 x_10_ ^ 2 + 1 y_2_ ^ 2 - 2 y_10_ * y_2_ + 1 y_10_ ^ 2 ] = 15725
c14: [ 1 x_3_ ^ 2 - 2 x_10_ * x_3_ + 1 x_10_ ^ 2 + 1 y_3_ ^ 2 - 2 y_10_ * y_3_ + 1 y_10_ ^ 2 ] = 1409
c15: [ 1 x_4_ ^ 2 - 2 x_10_ * x_4_ + 1 x_10_ ^ 2 + 1 y_4_ ^ 2 - 2 y_10_ * y_4_ + 1 y_10_ ^ 2 ] = 3145
c16: [ 1 x_6_ ^ 2 - 2 x_10_ * x_6_ + 1 x_10_ ^ 2 + 1 y_6_ ^ 2 - 2 y_10_ * y_6_ + 1 y_10_ ^ 2 ] = 9265
c17: [ 1 x_8_ ^ 2 - 2 x_10_ * x_8_ + 1 x_10_ ^ 2 + 1 y_8_ ^ 2 - 2 y_10_ * y_8_ + 1 y_10_ ^ 2 ] = 14425
c18: [ 1 x_9_ ^ 2 - 2 x_10_ * x_9_ + 1 x_10_ ^ 2 + 1 y_9_ ^ 2 - 2 y_10_ * y_9_ + 1 y_10_ ^ 2 ] = 745
c19: [ 1 x_3_ ^ 2 - 2 x_11_ * x_3_ + 1 x_11_ ^ 2 + 1 y_3_ ^ 2 - 2 y_11_ * y_3_ + 1 y_11_ ^ 2 ] = 1741
c20: [ 1 x_8_ ^ 2 - 2 x_11_ * x_8_ + 1 x_11_ ^ 2 + 1 y_8_ ^ 2 - 2 y_11_ * y_8_ + 1 y_11_ ^ 2 ] = 13241
c21: [ 1 x_10_ ^ 2 - 2 x_11_ * x_10_ + 1 x_11_ ^ 2 + 1 y_10_ ^ 2 - 2 y_11_ * y_10_ + 1 y_11_ ^ 2 ] = 26
c22: [ 1 x_9_ ^ 2 - 2 x_12_ * x_9_ + 1 x_12_ ^ 2 + 1 y_9_ ^ 2 - 2 y_12_ * y_9_ + 1 y_12_ ^ 2 ] = 3077
c23: [ 1 x_10_ ^ 2 - 2 x_12_ * x_10_ + 1 x_12_ ^ 2 + 1 y_10_ ^ 2 - 2 y_12_ * y_10_ + 1 y_12_ ^ 2 ] = 3796
c24: [ 1 x_11_ ^ 2 - 2 x_12_ * x_11_ + 1 x_12_ ^ 2 + 1 y_11_ ^ 2 - 2 y_12_ * y_11_ + 1 y_12_ ^ 2 ] = 4282
c25: [ 1 x_5_ ^ 2 - 2 x_13_ * x_5_ + 1 x_13_ ^ 2 + 1 y_5_ ^ 2 - 2 y_13_ * y_5_ + 1 y_13_ ^ 2 ] = 3305
c26: [ 1 x_9_ ^ 2 - 2 x_13_ * x_9_ + 1 x_13_ ^ 2 + 1 y_9_ ^ 2 - 2 y_13_ * y_9_ + 1 y_13_ ^ 2 ] = 1570
c27: [ 1 x_12_ ^ 2 - 2 x_13_ * x_12_ + 1 x_13_ ^ 2 + 1 y_12_ ^ 2 - 2 y_13_ * y_12_ + 1 y_13_ ^ 2 ] = 8105
c28: [ 1 x_6_ ^ 2 - 2 x_14_ * x_6_ + 1 x_14_ ^ 2 + 1 y_6_ ^ 2 - 2 y_14_ * y_6_ + 1 y_14_ ^ 2 ] = 7033
c29: [ 1 x_7_ ^ 2 - 2 x_14_ * x_7_ + 1 x_14_ ^ 2 + 1 y_7_ ^ 2 - 2 y_14_ * y_7_ + 1 y_14_ ^ 2 ] = 11729
c30: [ 1 x_13_ ^ 2 - 2 x_14_ * x_13_ + 1 x_14_ ^ 2 + 1 y_13_ ^ 2 - 2 y_14_ * y_13_ + 1 y_14_ ^ 2 ] = 17929
c31: [ 1 x_11_ ^ 2 - 2 x_15_ * x_11_ + 1 x_15_ ^ 2 + 1 y_11_ ^ 2 - 2 y_15_ * y_11_ + 1 y_15_ ^ 2 ] = 3218
c32: [ 1 x_12_ ^ 2 - 2 x_15_ * x_12_ + 1 x_15_ ^ 2 + 1 y_12_ ^ 2 - 2 y_15_ * y_12_ + 1 y_15_ ^ 2 ] = 200
c33: [ 1 x_14_ ^ 2 - 2 x_15_ * x_14_ + 1 x_15_ ^ 2 + 1 y_14_ ^ 2 - 2 y_15_ * y_14_ + 1 y_15_ ^ 2 ] = 16164
c34: [ 1 x_13_ ^ 2 - 2 x_16_ * x_13_ + 1 x_16_ ^ 2 + 1 y_13_ ^ 2 - 2 y_16_ * y_13_ + 1 y_16_ ^ 2 ] = 3232
c35: [ 1 x_15_ ^ 2 - 2 x_16_ * x_15_ + 1 x_16_ ^ 2 + 1 y_15_ ^ 2 - 2 y_16_ * y_15_ + 1 y_16_ ^ 2 ] = 3797
c36: [ 1 x_9_ ^ 2 - 2 x_17_ * x_9_ + 1 x_17_ ^ 2 + 1 y_9_ ^ 2 - 2 y_17_ * y_9_ + 1 y_17_ ^ 2 ] = 6841
c37: [ 1 x_10_ ^ 2 - 2 x_17_ * x_10_ + 1 x_17_ ^ 2 + 1 y_10_ ^ 2 - 2 y_17_ * y_10_ + 1 y_17_ ^ 2 ] = 4498
c38: [ 1 x_13_ ^ 2 - 2 x_17_ * x_13_ + 1 x_17_ ^ 2 + 1 y_13_ ^ 2 - 2 y_17_ * y_13_ + 1 y_17_ ^ 2 ] = 14945
c39: [ 1 x_16_ ^ 2 - 2 x_17_ * x_16_ + 1 x_17_ ^ 2 + 1 y_16_ ^ 2 - 2 y_17_ * y_16_ + 1 y_17_ ^ 2 ] = 5689
c40: [ 1 x_13_ ^ 2 - 2 x_18_ * x_13_ + 1 x_18_ ^ 2 + 1 y_13_ ^ 2 - 2 y_18_ * y_13_ + 1 y_18_ ^ 2 ] = 1732
c41: [ 1 x_17_ ^ 2 - 2 x_18_ * x_17_ + 1 x_18_ ^ 2 + 1 y_17_ ^ 2 - 2 y_18_ * y_17_ + 1 y_18_ ^ 2 ] = 23425
c42: [ 1 x_4_ ^ 2 - 2 x_19_ * x_4_ + 1 x_19_ ^ 2 + 1 y_4_ ^ 2 - 2 y_19_ * y_4_ + 1 y_19_ ^ 2 ] = 10517
c43: [ 1 x_9_ ^ 2 - 2 x_19_ * x_9_ + 1 x_19_ ^ 2 + 1 y_9_ ^ 2 - 2 y_19_ * y_9_ + 1 y_19_ ^ 2 ] = 5525
c44: [ 1 x_14_ ^ 2 - 2 x_19_ * x_14_ + 1 x_19_ ^ 2 + 1 y_14_ ^ 2 - 2 y_19_ * y_14_ + 1 y_19_ ^ 2 ] = 27560
c45: [ 1 x_15_ ^ 2 - 2 x_19_ * x_15_ + 1 x_19_ ^ 2 + 1 y_15_ ^ 2 - 2 y_19_ * y_15_ + 1 y_19_ ^ 2 ] = 1556
c46: [ 1 x_17_ ^ 2 - 2 x_19_ * x_17_ + 1 x_19_ ^ 2 + 1 y_17_ ^ 2 - 2 y_19_ * y_17_ + 1 y_19_ ^ 2 ] = 82
c47: [ 1 x_18_ ^ 2 - 2 x_19_ * x_18_ + 1 x_19_ ^ 2 + 1 y_18_ ^ 2 - 2 y_19_ * y_18_ + 1 y_19_ ^ 2 ] = 20761
c48: [ 1 x_1_ ^ 2 - 2 x_20_ * x_1_ + 1 x_20_ ^ 2 + 1 y_1_ ^ 2 - 2 y_20_ * y_1_ + 1 y_20_ ^ 2 ] = 35732
c49: [ 1 x_2_ ^ 2 - 2 x_20_ * x_2_ + 1 x_20_ ^ 2 + 1 y_2_ ^ 2 - 2 y_20_ * y_2_ + 1 y_20_ ^ 2 ] = 5194
c50: [ 1 x_4_ ^ 2 - 2 x_20_ * x_4_ + 1 x_20_ ^ 2 + 1 y_4_ ^ 2 - 2 y_20_ * y_4_ + 1 y_20_ ^ 2 ] = 11426
c51: [ 1 x_14_ ^ 2 - 2 x_20_ * x_14_ + 1 x_20_ ^ 2 + 1 y_14_ ^ 2 - 2 y_20_ * y_14_ + 1 y_20_ ^ 2 ] = 153
c52: [ 1 x_16_ ^ 2 - 2 x_20_ * x_16_ + 1 x_20_ ^ 2 + 1 y_16_ ^ 2 - 2 y_20_ * y_16_ + 1 y_20_ ^ 2 ] = 22250
c53: [ 1 x_18_ ^ 2 - 2 x_20_ * x_18_ + 1 x_20_ ^ 2 + 1 y_18_ ^ 2 - 2 y_20_ * y_18_ + 1 y_20_ ^ 2 ] = 25994
c54: [ 1 x_19_ ^ 2 - 2 x_20_ * x_19_ + 1 x_20_ ^ 2 + 1 y_19_ ^ 2 - 2 y_20_ * y_19_ + 1 y_20_ ^ 2 ] = 23645
Bounds
-235 <= x_1_ <= 194
-141 <= x_2_ <= 109
-52 <= x_3_ <= 20
x_4_ = 10
-37 <= x_5_ <= 57
-120 <= x_6_ <= 80
-77 <= x_7_ <= 97
-123 <= x_8_ <= 94
x_9_ = -13
-26 <= x_10_ <= -16
x_11_ = -21
-68 <= x_12_ <= 42
-52 <= x_13_ <= 26
-109 <= x_14_ <= 129
-77 <= x_15_ <= 35
-109 <= x_16_ <= 83
-93 <= x_17_ <= 51
-94 <= x_18_ <= 68
-87 <= x_19_ <= 60
-96 <= x_20_ <= 116
-275 <= y_1_ <= 141
-181 <= y_2_ <= 56
-92 <= y_3_ <= -33
y_4_ = -30
-77 <= y_5_ <= 17
-160 <= y_6_ <= 27
-117 <= y_7_ <= 57
-159 <= y_8_ <= 41
y_9_ = -49
-76 <= y_10_ <= -69
y_11_ = -74
-104 <= y_12_ <= -9
-88 <= y_13_ <= -10
-149 <= y_14_ <= 89
-118 <= y_15_ <= -18
-145 <= y_16_ <= 44
-131 <= y_17_ <= -2
-130 <= y_18_ <= 32
-123 <= y_19_ <= 7
-136 <= y_20_ <= 76
General
x_1_
x_2_
x_3_
x_4_
x_5_
x_6_
x_7_
x_8_
x_9_
x_10_
x_11_
x_12_
x_13_
x_14_
x_15_
x_16_
x_17_
x_18_
x_19_
x_20_
y_1_
y_2_
y_3_
y_4_
y_5_
y_6_
y_7_
y_8_
y_9_
y_10_
y_11_
y_12_
y_13_
y_14_
y_15_
y_16_
y_17_
y_18_
y_19_
y_20_
End
