minimize
obj: 
subject to
c1: -122 x_1_ + 16 y_1_ + [ 1 x_1_ ^ 2 + 1 y_1_ ^ 2 ] <= 26900.36823690937
c2: -122 x_2_ + 16 y_2_ + [ 1 x_2_ ^ 2 + 1 y_2_ ^ 2 ] <= 23346.538152456556
c3: -122 x_3_ + 16 y_3_ + [ 1 x_3_ ^ 2 + 1 y_3_ ^ 2 ] <= 18695.23958381804
c4: -122 x_4_ + 16 y_4_ + [ 1 x_4_ ^ 2 + 1 y_4_ ^ 2 ] <= 20985.830453072955
c5: -122 x_5_ + 16 y_5_ + [ 1 x_5_ ^ 2 + 1 y_5_ ^ 2 ] <= 18453.67212252779
c6: -122 x_6_ + 16 y_6_ + [ 1 x_6_ ^ 2 + 1 y_6_ ^ 2 ] <= 17394.145639068614
c7: -122 x_7_ + 16 y_7_ + [ 1 x_7_ ^ 2 + 1 y_7_ ^ 2 ] <= -2131.63
c8: -122 x_8_ + 16 y_8_ + [ 1 x_8_ ^ 2 + 1 y_8_ ^ 2 ] <= 4035.8008027689657
c9: -122 x_9_ + 16 y_9_ + [ 1 x_9_ ^ 2 + 1 y_9_ ^ 2 ] <= 7524.65826219
c10: -122 x_10_ + 16 y_10_ + [ 1 x_10_ ^ 2 + 1 y_10_ ^ 2 ] <= 18396.640355901516
c11: -122 x_11_ + 16 y_11_ + [ 1 x_11_ ^ 2 + 1 y_11_ ^ 2 ] <= 2687.08
c12: -122 x_12_ + 16 y_12_ + [ 1 x_12_ ^ 2 + 1 y_12_ ^ 2 ] <= 49924.29554522645
c13: -122 x_13_ + 16 y_13_ + [ 1 x_13_ ^ 2 + 1 y_13_ ^ 2 ] <= 15915.436211680415
c14: -122 x_14_ + 16 y_14_ + [ 1 x_14_ ^ 2 + 1 y_14_ ^ 2 ] <= 16489.34134637135
c15: -122 x_15_ + 16 y_15_ + [ 1 x_15_ ^ 2 + 1 y_15_ ^ 2 ] <= 8578.21961032846
c16: -122 x_16_ + 16 y_16_ + [ 1 x_16_ ^ 2 + 1 y_16_ ^ 2 ] <= 20034.71326636609
c17: -122 x_17_ + 16 y_17_ + [ 1 x_17_ ^ 2 + 1 y_17_ ^ 2 ] <= 16471.511413793745
c18: -122 x_18_ + 16 y_18_ + [ 1 x_18_ ^ 2 + 1 y_18_ ^ 2 ] <= 20508.330201946832
c19: -122 x_19_ + 16 y_19_ + [ 1 x_19_ ^ 2 + 1 y_19_ ^ 2 ] <= 8405.932200873978
c20: -122 x_20_ + 16 y_20_ + [ 1 x_20_ ^ 2 + 1 y_20_ ^ 2 ] <= 27162.230760216116
c21: -122 x_21_ + 16 y_21_ + [ 1 x_21_ ^ 2 + 1 y_21_ ^ 2 ] <= 462.8464903133363
c22: -122 x_22_ + 16 y_22_ + [ 1 x_22_ ^ 2 + 1 y_22_ ^ 2 ] <= 26334.440732741456
c23: -122 x_23_ + 16 y_23_ + [ 1 x_23_ ^ 2 + 1 y_23_ ^ 2 ] <= 22.699999999999818
c24: -122 x_24_ + 16 y_24_ + [ 1 x_24_ ^ 2 + 1 y_24_ ^ 2 ] <= 6267.254018248603
c25: -122 x_25_ + 16 y_25_ + [ 1 x_25_ ^ 2 + 1 y_25_ ^ 2 ] <= 26014.357725705548
c26: -122 x_26_ + 16 y_26_ + [ 1 x_26_ ^ 2 + 1 y_26_ ^ 2 ] <= 21459.474944718266
c27: -122 x_27_ + 16 y_27_ + [ 1 x_27_ ^ 2 + 1 y_27_ ^ 2 ] <= 44597.75319400881
c28: -122 x_28_ + 16 y_28_ + [ 1 x_28_ ^ 2 + 1 y_28_ ^ 2 ] <= 6675.591489314931
c29: -122 x_29_ + 16 y_29_ + [ 1 x_29_ ^ 2 + 1 y_29_ ^ 2 ] <= 8578.409999999994
c30: -122 x_30_ + 16 y_30_ + [ 1 x_30_ ^ 2 + 1 y_30_ ^ 2 ] <= 23344.57777320823
c31: -122 x_31_ + 16 y_31_ + [ 1 x_31_ ^ 2 + 1 y_31_ ^ 2 ] <= 20120.112848516426
c32: -122 x_32_ + 16 y_32_ + [ 1 x_32_ ^ 2 + 1 y_32_ ^ 2 ] <= -876.2000000000003
c33: -122 x_33_ + 16 y_33_ + [ 1 x_33_ ^ 2 + 1 y_33_ ^ 2 ] <= 3875.8499999999995
c34: -122 x_34_ + 16 y_34_ + [ 1 x_34_ ^ 2 + 1 y_34_ ^ 2 ] <= 14363.446848077852
c35: -122 x_35_ + 16 y_35_ + [ 1 x_35_ ^ 2 + 1 y_35_ ^ 2 ] <= 25287.875855503436
c36: -122 x_36_ + 16 y_36_ + [ 1 x_36_ ^ 2 + 1 y_36_ ^ 2 ] <= 18682.48685492674
c37: -122 x_37_ + 16 y_37_ + [ 1 x_37_ ^ 2 + 1 y_37_ ^ 2 ] <= 15180.779999999995
c38: -122 x_38_ + 16 y_38_ + [ 1 x_38_ ^ 2 + 1 y_38_ ^ 2 ] <= 11127.097880043691
c39: -122 x_39_ + 16 y_39_ + [ 1 x_39_ ^ 2 + 1 y_39_ ^ 2 ] <= 19729.65722089905
c40: -122 x_40_ + 16 y_40_ + [ 1 x_40_ ^ 2 + 1 y_40_ ^ 2 ] <= -1868.0200000000004
c41: -122 x_41_ + 16 y_41_ + [ 1 x_41_ ^ 2 + 1 y_41_ ^ 2 ] <= 8466.974223269288
c42: -122 x_42_ + 16 y_42_ + [ 1 x_42_ ^ 2 + 1 y_42_ ^ 2 ] <= 6107.233086898252
c43: -122 x_43_ + 16 y_43_ + [ 1 x_43_ ^ 2 + 1 y_43_ ^ 2 ] <= 231.76999999999998
c44: -122 x_45_ + 16 y_45_ + [ 1 x_45_ ^ 2 + 1 y_45_ ^ 2 ] <= 14548.519999999997
c45: -122 x_46_ + 16 y_46_ + [ 1 x_46_ ^ 2 + 1 y_46_ ^ 2 ] <= 21274.36210380166
c46: -122 x_47_ + 16 y_47_ + [ 1 x_47_ ^ 2 + 1 y_47_ ^ 2 ] <= 26785.67967482291
c47: -122 x_48_ + 16 y_48_ + [ 1 x_48_ ^ 2 + 1 y_48_ ^ 2 ] <= 28426.122322571067
c48: -122 x_49_ + 16 y_49_ + [ 1 x_49_ ^ 2 + 1 y_49_ ^ 2 ] <= 4151.7653902921365
c49: -122 x_50_ + 16 y_50_ + [ 1 x_50_ ^ 2 + 1 y_50_ ^ 2 ] <= 17896.88624640378
c50: -122 x_51_ + 16 y_51_ + [ 1 x_51_ ^ 2 + 1 y_51_ ^ 2 ] <= 18347.859766541744
c51: -122 x_52_ + 16 y_52_ + [ 1 x_52_ ^ 2 + 1 y_52_ ^ 2 ] <= 33792.81763660147
c52: -122 x_53_ + 16 y_53_ + [ 1 x_53_ ^ 2 + 1 y_53_ ^ 2 ] <= 26019.491555647386
c53: -122 x_54_ + 16 y_54_ + [ 1 x_54_ ^ 2 + 1 y_54_ ^ 2 ] <= 5866.963763939259
c54: -122 x_55_ + 16 y_55_ + [ 1 x_55_ ^ 2 + 1 y_55_ ^ 2 ] <= 24124.782423712957
c55: -122 x_56_ + 16 y_56_ + [ 1 x_56_ ^ 2 + 1 y_56_ ^ 2 ] <= 22688.42586140586
c56: -122 x_57_ + 16 y_57_ + [ 1 x_57_ ^ 2 + 1 y_57_ ^ 2 ] <= 3861.9436241590056
c57: -122 x_58_ + 16 y_58_ + [ 1 x_58_ ^ 2 + 1 y_58_ ^ 2 ] <= 8195.381208996256
c58: -122 x_59_ + 16 y_59_ + [ 1 x_59_ ^ 2 + 1 y_59_ ^ 2 ] <= 9842.293303412322
c59: -122 x_60_ + 16 y_60_ + [ 1 x_60_ ^ 2 + 1 y_60_ ^ 2 ] <= 27126.1652415805
c60: -122 x_61_ + 16 y_61_ + [ 1 x_61_ ^ 2 + 1 y_61_ ^ 2 ] <= 22330.543655746187
c61: -122 x_62_ + 16 y_62_ + [ 1 x_62_ ^ 2 + 1 y_62_ ^ 2 ] <= 35518.83046972448
c62: -122 x_63_ + 16 y_63_ + [ 1 x_63_ ^ 2 + 1 y_63_ ^ 2 ] <= 4171.554412786599
c63: -122 x_64_ + 16 y_64_ + [ 1 x_64_ ^ 2 + 1 y_64_ ^ 2 ] <= 8382.760362532847
c64: -122 x_65_ + 16 y_65_ + [ 1 x_65_ ^ 2 + 1 y_65_ ^ 2 ] <= 13958.679999999997
c65: -122 x_66_ + 16 y_66_ + [ 1 x_66_ ^ 2 + 1 y_66_ ^ 2 ] <= 42878.665056229474
c66: -122 x_67_ + 16 y_67_ + [ 1 x_67_ ^ 2 + 1 y_67_ ^ 2 ] <= 11914.224074990017
c67: -122 x_68_ + 16 y_68_ + [ 1 x_68_ ^ 2 + 1 y_68_ ^ 2 ] <= 19743.065045855124
c68: -122 x_69_ + 16 y_69_ + [ 1 x_69_ ^ 2 + 1 y_69_ ^ 2 ] <= 6626.080486117218
c69: -122 x_70_ + 16 y_70_ + [ 1 x_70_ ^ 2 + 1 y_70_ ^ 2 ] <= 9517.337324876707
c70: -122 x_71_ + 16 y_71_ + [ 1 x_71_ ^ 2 + 1 y_71_ ^ 2 ] <= 17891.466383950647
c71: -122 x_72_ + 16 y_72_ + [ 1 x_72_ ^ 2 + 1 y_72_ ^ 2 ] <= 14502.627452268258
c72: -122 x_73_ + 16 y_73_ + [ 1 x_73_ ^ 2 + 1 y_73_ ^ 2 ] <= 11638.462113104602
c73: -122 x_74_ + 16 y_74_ + [ 1 x_74_ ^ 2 + 1 y_74_ ^ 2 ] <= 19916.5632842372
c74: -122 x_75_ + 16 y_75_ + [ 1 x_75_ ^ 2 + 1 y_75_ ^ 2 ] <= 30952.37410904013
c75: -122 x_76_ + 16 y_76_ + [ 1 x_76_ ^ 2 + 1 y_76_ ^ 2 ] <= 22299.72660714615
c76: -122 x_77_ + 16 y_77_ + [ 1 x_77_ ^ 2 + 1 y_77_ ^ 2 ] <= 18531.95999999999
c77: -122 x_78_ + 16 y_78_ + [ 1 x_78_ ^ 2 + 1 y_78_ ^ 2 ] <= 3477.4533208334315
c78: -122 x_79_ + 16 y_79_ + [ 1 x_79_ ^ 2 + 1 y_79_ ^ 2 ] <= 19364.49668755685
c79: -122 x_80_ + 16 y_80_ + [ 1 x_80_ ^ 2 + 1 y_80_ ^ 2 ] <= 26328.53247906011
c80: -122 x_81_ + 16 y_81_ + [ 1 x_81_ ^ 2 + 1 y_81_ ^ 2 ] <= 2760.7887375827913
c81: -122 x_82_ + 16 y_82_ + [ 1 x_82_ ^ 2 + 1 y_82_ ^ 2 ] <= 14027.397476679904
c82: -122 x_83_ + 16 y_83_ + [ 1 x_83_ ^ 2 + 1 y_83_ ^ 2 ] <= 20438.583319490594
c83: -122 x_84_ + 16 y_84_ + [ 1 x_84_ ^ 2 + 1 y_84_ ^ 2 ] <= 20157.19332333222
c84: -122 x_85_ + 16 y_85_ + [ 1 x_85_ ^ 2 + 1 y_85_ ^ 2 ] <= 8630.953642434783
c85: -122 x_86_ + 16 y_86_ + [ 1 x_86_ ^ 2 + 1 y_86_ ^ 2 ] <= 7663.605835997525
c86: -122 x_87_ + 16 y_87_ + [ 1 x_87_ ^ 2 + 1 y_87_ ^ 2 ] <= 22748.90775323029
c87: -122 x_88_ + 16 y_88_ + [ 1 x_88_ ^ 2 + 1 y_88_ ^ 2 ] <= -3153.75
c88: -122 x_89_ + 16 y_89_ + [ 1 x_89_ ^ 2 + 1 y_89_ ^ 2 ] <= -2353.369912645988
c89: -122 x_90_ + 16 y_90_ + [ 1 x_90_ ^ 2 + 1 y_90_ ^ 2 ] <= 6244.244703991961
c90: -122 x_91_ + 16 y_91_ + [ 1 x_91_ ^ 2 + 1 y_91_ ^ 2 ] <= 14566.960226687253
c91: -122 x_92_ + 16 y_92_ + [ 1 x_92_ ^ 2 + 1 y_92_ ^ 2 ] <= 15600.67219346036
c92: -122 x_93_ + 16 y_93_ + [ 1 x_93_ ^ 2 + 1 y_93_ ^ 2 ] <= 14726.590831355603
c93: -122 x_94_ + 16 y_94_ + [ 1 x_94_ ^ 2 + 1 y_94_ ^ 2 ] <= 13716.6497200189
c94: -122 x_95_ + 16 y_95_ + [ 1 x_95_ ^ 2 + 1 y_95_ ^ 2 ] <= 215.60999999999967
c95: -122 x_96_ + 16 y_96_ + [ 1 x_96_ ^ 2 + 1 y_96_ ^ 2 ] <= 28085.19770796105
c96: -122 x_97_ + 16 y_97_ + [ 1 x_97_ ^ 2 + 1 y_97_ ^ 2 ] <= 31578.52195187816
c97: -122 x_98_ + 16 y_98_ + [ 1 x_98_ ^ 2 + 1 y_98_ ^ 2 ] <= 6320.4025181279085
c98: -122 x_99_ + 16 y_99_ + [ 1 x_99_ ^ 2 + 1 y_99_ ^ 2 ] <= 13061.881615711492
c99: -122 x_100_ + 16 y_100_ + [ 1 x_100_ ^ 2 + 1 y_100_ ^ 2 ] <= 19278.59284308741
c100: 6 x_1_ + 136 y_1_ + [ 1 x_1_ ^ 2 + 1 y_1_ ^ 2 ] <= 4450.608615465888
c101: 6 x_2_ + 136 y_2_ + [ 1 x_2_ ^ 2 + 1 y_2_ ^ 2 ] <= 4532.5325154381535
c102: 6 x_3_ + 136 y_3_ + [ 1 x_3_ ^ 2 + 1 y_3_ ^ 2 ] <= 17384.10602189234
c103: 6 x_4_ + 136 y_4_ + [ 1 x_4_ ^ 2 + 1 y_4_ ^ 2 ] <= 21517.33891506718
c104: 6 x_5_ + 136 y_5_ + [ 1 x_5_ ^ 2 + 1 y_5_ ^ 2 ] <= 6155.839197016596
c105: 6 x_6_ + 136 y_6_ + [ 1 x_6_ ^ 2 + 1 y_6_ ^ 2 ] <= 14478.735533517785
c106: 6 x_7_ + 136 y_7_ + [ 1 x_7_ ^ 2 + 1 y_7_ ^ 2 ] <= 13592.522520355971
c107: 6 x_8_ + 136 y_8_ + [ 1 x_8_ ^ 2 + 1 y_8_ ^ 2 ] <= 25009.158149747942
c108: 6 x_9_ + 136 y_9_ + [ 1 x_9_ ^ 2 + 1 y_9_ ^ 2 ] <= 3746.13952291438
c109: 6 x_10_ + 136 y_10_ + [ 1 x_10_ ^ 2 + 1 y_10_ ^ 2 ] <= 15756.556860996061
c110: 6 x_11_ + 136 y_11_ + [ 1 x_11_ ^ 2 + 1 y_11_ ^ 2 ] <= 20499.856396093084
c111: 6 x_12_ + 136 y_12_ + [ 1 x_12_ ^ 2 + 1 y_12_ ^ 2 ] <= 53972.18157113418
c112: 6 x_13_ + 136 y_13_ + [ 1 x_13_ ^ 2 + 1 y_13_ ^ 2 ] <= 20093.82
c113: 6 x_14_ + 136 y_14_ + [ 1 x_14_ ^ 2 + 1 y_14_ ^ 2 ] <= -4474.43
c114: 6 x_15_ + 136 y_15_ + [ 1 x_15_ ^ 2 + 1 y_15_ ^ 2 ] <= -476.1584932123624
c115: 6 x_16_ + 136 y_16_ + [ 1 x_16_ ^ 2 + 1 y_16_ ^ 2 ] <= 8518.21
c116: 6 x_17_ + 136 y_17_ + [ 1 x_17_ ^ 2 + 1 y_17_ ^ 2 ] <= 5332.267073397425
c117: 6 x_18_ + 136 y_18_ + [ 1 x_18_ ^ 2 + 1 y_18_ ^ 2 ] <= 10890.699999999995
c118: 6 x_19_ + 136 y_19_ + [ 1 x_19_ ^ 2 + 1 y_19_ ^ 2 ] <= 13811.299517911142
c119: 6 x_20_ + 136 y_20_ + [ 1 x_20_ ^ 2 + 1 y_20_ ^ 2 ] <= 5099.238641587643
c120: 6 x_21_ + 136 y_21_ + [ 1 x_21_ ^ 2 + 1 y_21_ ^ 2 ] <= 19506.276598645407
c121: 6 x_22_ + 136 y_22_ + [ 1 x_22_ ^ 2 + 1 y_22_ ^ 2 ] <= 23265.48917274453
c122: 6 x_23_ + 136 y_23_ + [ 1 x_23_ ^ 2 + 1 y_23_ ^ 2 ] <= 10624.056027886036
c123: 6 x_24_ + 136 y_24_ + [ 1 x_24_ ^ 2 + 1 y_24_ ^ 2 ] <= 27837.73870603432
c124: 6 x_25_ + 136 y_25_ + [ 1 x_25_ ^ 2 + 1 y_25_ ^ 2 ] <= 34033.502251378115
c125: 6 x_26_ + 136 y_26_ + [ 1 x_26_ ^ 2 + 1 y_26_ ^ 2 ] <= 19013.459580159953
c126: 6 x_27_ + 136 y_27_ + [ 1 x_27_ ^ 2 + 1 y_27_ ^ 2 ] <= 42041.93429026861
c127: 6 x_28_ + 136 y_28_ + [ 1 x_28_ ^ 2 + 1 y_28_ ^ 2 ] <= 35177.20742629273
c128: 6 x_29_ + 136 y_29_ + [ 1 x_29_ ^ 2 + 1 y_29_ ^ 2 ] <= 14055.898428274206
c129: 6 x_30_ + 136 y_30_ + [ 1 x_30_ ^ 2 + 1 y_30_ ^ 2 ] <= 30025.883843991054
c130: 6 x_31_ + 136 y_31_ + [ 1 x_31_ ^ 2 + 1 y_31_ ^ 2 ] <= 33481.19671795698
c131: 6 x_32_ + 136 y_32_ + [ 1 x_32_ ^ 2 + 1 y_32_ ^ 2 ] <= 13778.73918469311
c132: 6 x_33_ + 136 y_33_ + [ 1 x_33_ ^ 2 + 1 y_33_ ^ 2 ] <= -2846.31
c133: 6 x_34_ + 136 y_34_ + [ 1 x_34_ ^ 2 + 1 y_34_ ^ 2 ] <= 3110.952095489446
c134: 6 x_35_ + 136 y_35_ + [ 1 x_35_ ^ 2 + 1 y_35_ ^ 2 ] <= 21001.10370801003
c135: 6 x_36_ + 136 y_36_ + [ 1 x_36_ ^ 2 + 1 y_36_ ^ 2 ] <= 20171.1228290982
c136: 6 x_37_ + 136 y_37_ + [ 1 x_37_ ^ 2 + 1 y_37_ ^ 2 ] <= 5207.60581945368
c137: 6 x_38_ + 136 y_38_ + [ 1 x_38_ ^ 2 + 1 y_38_ ^ 2 ] <= 2094.6099999999997
c138: 6 x_39_ + 136 y_39_ + [ 1 x_39_ ^ 2 + 1 y_39_ ^ 2 ] <= 3292.943616765224
c139: 6 x_40_ + 136 y_40_ + [ 1 x_40_ ^ 2 + 1 y_40_ ^ 2 ] <= 13392.315511981971
c140: 6 x_41_ + 136 y_41_ + [ 1 x_41_ ^ 2 + 1 y_41_ ^ 2 ] <= 16058.756901517776
c141: 6 x_42_ + 136 y_42_ + [ 1 x_42_ ^ 2 + 1 y_42_ ^ 2 ] <= 121.44196192675554
c142: 6 x_43_ + 136 y_43_ + [ 1 x_43_ ^ 2 + 1 y_43_ ^ 2 ] <= 6221.3620990526815
c143: 6 x_44_ + 136 y_44_ + [ 1 x_44_ ^ 2 + 1 y_44_ ^ 2 ] <= 12213.881615711492
c144: 6 x_45_ + 136 y_45_ + [ 1 x_45_ ^ 2 + 1 y_45_ ^ 2 ] <= 2453.159999999998
c145: 6 x_46_ + 136 y_46_ + [ 1 x_46_ ^ 2 + 1 y_46_ ^ 2 ] <= 17241.50746507568
c146: 6 x_47_ + 136 y_47_ + [ 1 x_47_ ^ 2 + 1 y_47_ ^ 2 ] <= -1727.0240980465328
c147: 6 x_48_ + 136 y_48_ + [ 1 x_48_ ^ 2 + 1 y_48_ ^ 2 ] <= -676.8300000000013
c148: 6 x_49_ + 136 y_49_ + [ 1 x_49_ ^ 2 + 1 y_49_ ^ 2 ] <= 27740.176139497482
c149: 6 x_50_ + 136 y_50_ + [ 1 x_50_ ^ 2 + 1 y_50_ ^ 2 ] <= 15430.649999999998
c150: 6 x_51_ + 136 y_51_ + [ 1 x_51_ ^ 2 + 1 y_51_ ^ 2 ] <= 4823.504869623352
c151: 6 x_52_ + 136 y_52_ + [ 1 x_52_ ^ 2 + 1 y_52_ ^ 2 ] <= 40722.98763067047
c152: 6 x_53_ + 136 y_53_ + [ 1 x_53_ ^ 2 + 1 y_53_ ^ 2 ] <= 32747.537762449727
c153: 6 x_54_ + 136 y_54_ + [ 1 x_54_ ^ 2 + 1 y_54_ ^ 2 ] <= 2328.427787289077
c154: 6 x_55_ + 136 y_55_ + [ 1 x_55_ ^ 2 + 1 y_55_ ^ 2 ] <= 18547.968120444373
c155: 6 x_56_ + 136 y_56_ + [ 1 x_56_ ^ 2 + 1 y_56_ ^ 2 ] <= 4151.715392015083
c156: 6 x_57_ + 136 y_57_ + [ 1 x_57_ ^ 2 + 1 y_57_ ^ 2 ] <= 4927.774925346621
c157: 6 x_58_ + 136 y_58_ + [ 1 x_58_ ^ 2 + 1 y_58_ ^ 2 ] <= 18792.383387469203
c158: 6 x_59_ + 136 y_59_ + [ 1 x_59_ ^ 2 + 1 y_59_ ^ 2 ] <= 16065.080458241973
c159: 6 x_60_ + 136 y_60_ + [ 1 x_60_ ^ 2 + 1 y_60_ ^ 2 ] <= 32540.6193045506
c160: 6 x_61_ + 136 y_61_ + [ 1 x_61_ ^ 2 + 1 y_61_ ^ 2 ] <= 27262.08243321428
c161: 6 x_62_ + 136 y_62_ + [ 1 x_62_ ^ 2 + 1 y_62_ ^ 2 ] <= 14515.991480379365
c162: 6 x_63_ + 136 y_63_ + [ 1 x_63_ ^ 2 + 1 y_63_ ^ 2 ] <= 3322.319485621986
c163: 6 x_64_ + 136 y_64_ + [ 1 x_64_ ^ 2 + 1 y_64_ ^ 2 ] <= 37639.85824364232
c164: 6 x_65_ + 136 y_65_ + [ 1 x_65_ ^ 2 + 1 y_65_ ^ 2 ] <= 14797.699323622146
c165: 6 x_66_ + 136 y_66_ + [ 1 x_66_ ^ 2 + 1 y_66_ ^ 2 ] <= 27869.031133769204
c166: 6 x_67_ + 136 y_67_ + [ 1 x_67_ ^ 2 + 1 y_67_ ^ 2 ] <= 18111.56656023824
c167: 6 x_68_ + 136 y_68_ + [ 1 x_68_ ^ 2 + 1 y_68_ ^ 2 ] <= 42404.42215684658
c168: 6 x_69_ + 136 y_69_ + [ 1 x_69_ ^ 2 + 1 y_69_ ^ 2 ] <= 16000.652021790273
c169: 6 x_70_ + 136 y_70_ + [ 1 x_70_ ^ 2 + 1 y_70_ ^ 2 ] <= 5472.581614563085
c170: 6 x_71_ + 136 y_71_ + [ 1 x_71_ ^ 2 + 1 y_71_ ^ 2 ] <= 7798.08
c171: 6 x_72_ + 136 y_72_ + [ 1 x_72_ ^ 2 + 1 y_72_ ^ 2 ] <= 28475.93911884202
c172: 6 x_73_ + 136 y_73_ + [ 1 x_73_ ^ 2 + 1 y_73_ ^ 2 ] <= 18812.96430555472
c173: 6 x_74_ + 136 y_74_ + [ 1 x_74_ ^ 2 + 1 y_74_ ^ 2 ] <= 26553.128204471595
c174: 6 x_75_ + 136 y_75_ + [ 1 x_75_ ^ 2 + 1 y_75_ ^ 2 ] <= 28892.678738733528
c175: 6 x_76_ + 136 y_76_ + [ 1 x_76_ ^ 2 + 1 y_76_ ^ 2 ] <= 23964.965694182807
c176: 6 x_77_ + 136 y_77_ + [ 1 x_77_ ^ 2 + 1 y_77_ ^ 2 ] <= 602.8399999999983
c177: 6 x_78_ + 136 y_78_ + [ 1 x_78_ ^ 2 + 1 y_78_ ^ 2 ] <= 3982.8665305552295
c178: 6 x_79_ + 136 y_79_ + [ 1 x_79_ ^ 2 + 1 y_79_ ^ 2 ] <= 18881.190753575793
c179: 6 x_80_ + 136 y_80_ + [ 1 x_80_ ^ 2 + 1 y_80_ ^ 2 ] <= 21968.383817694707
c180: 6 x_81_ + 136 y_81_ + [ 1 x_81_ ^ 2 + 1 y_81_ ^ 2 ] <= 22517.08847500276
c181: 6 x_82_ + 136 y_82_ + [ 1 x_82_ ^ 2 + 1 y_82_ ^ 2 ] <= 19700.88718536149
c182: 6 x_83_ + 136 y_83_ + [ 1 x_83_ ^ 2 + 1 y_83_ ^ 2 ] <= 10584.100128006192
c183: 6 x_84_ + 136 y_84_ + [ 1 x_84_ ^ 2 + 1 y_84_ ^ 2 ] <= 6060.7182693323575
c184: 6 x_85_ + 136 y_85_ + [ 1 x_85_ ^ 2 + 1 y_85_ ^ 2 ] <= 5046.022147806694
c185: 6 x_86_ + 136 y_86_ + [ 1 x_86_ ^ 2 + 1 y_86_ ^ 2 ] <= 24831.342417416476
c186: 6 x_87_ + 136 y_87_ + [ 1 x_87_ ^ 2 + 1 y_87_ ^ 2 ] <= 220.05000000000018
c187: 6 x_88_ + 136 y_88_ + [ 1 x_88_ ^ 2 + 1 y_88_ ^ 2 ] <= 12555.341151317658
c188: 6 x_89_ + 136 y_89_ + [ 1 x_89_ ^ 2 + 1 y_89_ ^ 2 ] <= 15122.772690959824
c189: 6 x_90_ + 136 y_90_ + [ 1 x_90_ ^ 2 + 1 y_90_ ^ 2 ] <= 17256.12024221651
c190: 6 x_91_ + 136 y_91_ + [ 1 x_91_ ^ 2 + 1 y_91_ ^ 2 ] <= 6715.807690521255
c191: 6 x_92_ + 136 y_92_ + [ 1 x_92_ ^ 2 + 1 y_92_ ^ 2 ] <= 20945.60817277983
c192: 6 x_93_ + 136 y_93_ + [ 1 x_93_ ^ 2 + 1 y_93_ ^ 2 ] <= 11156.466900445024
c193: 6 x_94_ + 136 y_94_ + [ 1 x_94_ ^ 2 + 1 y_94_ ^ 2 ] <= 14937.740854537427
c194: 6 x_95_ + 136 y_95_ + [ 1 x_95_ ^ 2 + 1 y_95_ ^ 2 ] <= 22757.732954164076
c195: 6 x_96_ + 136 y_96_ + [ 1 x_96_ ^ 2 + 1 y_96_ ^ 2 ] <= 24023.402886050637
c196: 6 x_97_ + 136 y_97_ + [ 1 x_97_ ^ 2 + 1 y_97_ ^ 2 ] <= 26926.789420581958
c197: 6 x_98_ + 136 y_98_ + [ 1 x_98_ ^ 2 + 1 y_98_ ^ 2 ] <= 3489.4199999999973
c198: 6 x_100_ + 136 y_100_ + [ 1 x_100_ ^ 2 + 1 y_100_ ^ 2 ] <= 2956.1400000000003
c199: 80 x_1_ - 136 y_1_ + [ 1 x_1_ ^ 2 + 1 y_1_ ^ 2 ] <= 16569.50530053103
c200: 80 x_2_ - 136 y_2_ + [ 1 x_2_ ^ 2 + 1 y_2_ ^ 2 ] <= 20869.683825011416
c201: 80 x_3_ - 136 y_3_ + [ 1 x_3_ ^ 2 + 1 y_3_ ^ 2 ] <= 4532.998790996255
c202: 80 x_4_ - 136 y_4_ + [ 1 x_4_ ^ 2 + 1 y_4_ ^ 2 ] <= 12488.330967981587
c203: 80 x_5_ - 136 y_5_ + [ 1 x_5_ ^ 2 + 1 y_5_ ^ 2 ] <= 33140.510737111
c204: 80 x_6_ - 136 y_6_ + [ 1 x_6_ ^ 2 + 1 y_6_ ^ 2 ] <= 30958.449170654458
c205: 80 x_7_ - 136 y_7_ + [ 1 x_7_ ^ 2 + 1 y_7_ ^ 2 ] <= 19594.814844189626
c206: 80 x_8_ - 136 y_8_ + [ 1 x_8_ ^ 2 + 1 y_8_ ^ 2 ] <= 5696.762477512026
c207: 80 x_9_ - 136 y_9_ + [ 1 x_9_ ^ 2 + 1 y_9_ ^ 2 ] <= 14329.555943331969
c208: 80 x_10_ - 136 y_10_ + [ 1 x_10_ ^ 2 + 1 y_10_ ^ 2 ] <= 28617.08239250551
c209: 80 x_11_ - 136 y_11_ + [ 1 x_11_ ^ 2 + 1 y_11_ ^ 2 ] <= 3885.22107976167
c210: 80 x_12_ - 136 y_12_ + [ 1 x_12_ ^ 2 + 1 y_12_ ^ 2 ] <= 29027.839668824665
c211: 80 x_13_ - 136 y_13_ + [ 1 x_13_ ^ 2 + 1 y_13_ ^ 2 ] <= 9435.243620146572
c212: 80 x_14_ - 136 y_14_ + [ 1 x_14_ ^ 2 + 1 y_14_ ^ 2 ] <= 17565.568023672487
c213: 80 x_15_ - 136 y_15_ + [ 1 x_15_ ^ 2 + 1 y_15_ ^ 2 ] <= 12082.25
c214: 80 x_16_ - 136 y_16_ + [ 1 x_16_ ^ 2 + 1 y_16_ ^ 2 ] <= 23294.40681187686
c215: 80 x_17_ - 136 y_17_ + [ 1 x_17_ ^ 2 + 1 y_17_ ^ 2 ] <= 24042.99056312697
c216: 80 x_18_ - 136 y_18_ + [ 1 x_18_ ^ 2 + 1 y_18_ ^ 2 ] <= 24589.348578514942
c217: 80 x_19_ - 136 y_19_ + [ 1 x_19_ ^ 2 + 1 y_19_ ^ 2 ] <= 37858.24261972119
c218: 80 x_20_ - 136 y_20_ + [ 1 x_20_ ^ 2 + 1 y_20_ ^ 2 ] <= 26386.118868828315
c219: 80 x_21_ - 136 y_21_ + [ 1 x_21_ ^ 2 + 1 y_21_ ^ 2 ] <= 31827.921890320053
c220: 80 x_22_ - 136 y_22_ + [ 1 x_22_ ^ 2 + 1 y_22_ ^ 2 ] <= 2124.355204614765
c221: 80 x_23_ - 136 y_23_ + [ 1 x_23_ ^ 2 + 1 y_23_ ^ 2 ] <= 2349.889999999996
c222: 80 x_24_ - 136 y_24_ + [ 1 x_24_ ^ 2 + 1 y_24_ ^ 2 ] <= 8160.419999999998
c223: 80 x_25_ - 136 y_25_ + [ 1 x_25_ ^ 2 + 1 y_25_ ^ 2 ] <= 8986.821822290587
c224: 80 x_26_ - 136 y_26_ + [ 1 x_26_ ^ 2 + 1 y_26_ ^ 2 ] <= 32430.60350277435
c225: 80 x_27_ - 136 y_27_ + [ 1 x_27_ ^ 2 + 1 y_27_ ^ 2 ] <= 22165.502595860096
c226: 80 x_28_ - 136 y_28_ + [ 1 x_28_ ^ 2 + 1 y_28_ ^ 2 ] <= 6938.319999999998
c227: 80 x_29_ - 136 y_29_ + [ 1 x_29_ ^ 2 + 1 y_29_ ^ 2 ] <= 2459.267570916283
c228: 80 x_30_ - 136 y_30_ + [ 1 x_30_ ^ 2 + 1 y_30_ ^ 2 ] <= 15297.995580856521
c229: 80 x_31_ - 136 y_31_ + [ 1 x_31_ ^ 2 + 1 y_31_ ^ 2 ] <= 9008.206864231974
c230: 80 x_32_ - 136 y_32_ + [ 1 x_32_ ^ 2 + 1 y_32_ ^ 2 ] <= 8565.203096226842
c231: 80 x_33_ - 136 y_33_ + [ 1 x_33_ ^ 2 + 1 y_33_ ^ 2 ] <= 21133.775508082806
c232: 80 x_34_ - 136 y_34_ + [ 1 x_34_ ^ 2 + 1 y_34_ ^ 2 ] <= 19001.935541765044
c233: 80 x_35_ - 136 y_35_ + [ 1 x_35_ ^ 2 + 1 y_35_ ^ 2 ] <= 33129.23126460795
c234: 80 x_36_ - 136 y_36_ + [ 1 x_36_ ^ 2 + 1 y_36_ ^ 2 ] <= 38918.27248245996
c235: 80 x_37_ - 136 y_37_ + [ 1 x_37_ ^ 2 + 1 y_37_ ^ 2 ] <= 5542.020516261515
c236: 80 x_38_ - 136 y_38_ + [ 1 x_38_ ^ 2 + 1 y_38_ ^ 2 ] <= 43803.474181875674
c237: 80 x_39_ - 136 y_39_ + [ 1 x_39_ ^ 2 + 1 y_39_ ^ 2 ] <= 18706.06439172262
c238: 80 x_40_ - 136 y_40_ + [ 1 x_40_ ^ 2 + 1 y_40_ ^ 2 ] <= 30150.761836872036
c239: 80 x_41_ - 136 y_41_ + [ 1 x_41_ ^ 2 + 1 y_41_ ^ 2 ] <= 25974.92567274867
c240: 80 x_42_ - 136 y_42_ + [ 1 x_42_ ^ 2 + 1 y_42_ ^ 2 ] <= 38127.80225663643
c241: 80 x_43_ - 136 y_43_ + [ 1 x_43_ ^ 2 + 1 y_43_ ^ 2 ] <= 33064.21603990772
c242: 80 x_44_ - 136 y_44_ + [ 1 x_44_ ^ 2 + 1 y_44_ ^ 2 ] <= 15457.886246403781
c243: 80 x_45_ - 136 y_45_ + [ 1 x_45_ ^ 2 + 1 y_45_ ^ 2 ] <= 30489.074306677605
c244: 80 x_46_ - 136 y_46_ + [ 1 x_46_ ^ 2 + 1 y_46_ ^ 2 ] <= 28895.757895120456
c245: 80 x_47_ - 136 y_47_ + [ 1 x_47_ ^ 2 + 1 y_47_ ^ 2 ] <= 23900.32789494127
c246: 80 x_48_ - 136 y_48_ + [ 1 x_48_ ^ 2 + 1 y_48_ ^ 2 ] <= 11137.460682833633
c247: 80 x_49_ - 136 y_49_ + [ 1 x_49_ ^ 2 + 1 y_49_ ^ 2 ] <= -2841.51
c248: 80 x_51_ - 136 y_51_ + [ 1 x_51_ ^ 2 + 1 y_51_ ^ 2 ] <= 3265.960000000001
c249: 80 x_52_ - 136 y_52_ + [ 1 x_52_ ^ 2 + 1 y_52_ ^ 2 ] <= 14048.359270861787
c250: 80 x_53_ - 136 y_53_ + [ 1 x_53_ ^ 2 + 1 y_53_ ^ 2 ] <= 10468.67658967455
c251: 80 x_54_ - 136 y_54_ + [ 1 x_54_ ^ 2 + 1 y_54_ ^ 2 ] <= 12263.038326600974
c252: 80 x_55_ - 136 y_55_ + [ 1 x_55_ ^ 2 + 1 y_55_ ^ 2 ] <= 21568.188815723734
c253: 80 x_56_ - 136 y_56_ + [ 1 x_56_ ^ 2 + 1 y_56_ ^ 2 ] <= 20212.033617578832
c254: 80 x_57_ - 136 y_57_ + [ 1 x_57_ ^ 2 + 1 y_57_ ^ 2 ] <= 7779.300766869041
c255: 80 x_58_ - 136 y_58_ + [ 1 x_58_ ^ 2 + 1 y_58_ ^ 2 ] <= 10136.954983741192
c256: 80 x_59_ - 136 y_59_ + [ 1 x_59_ ^ 2 + 1 y_59_ ^ 2 ] <= 12677.561826005956
c257: 80 x_60_ - 136 y_60_ + [ 1 x_60_ ^ 2 + 1 y_60_ ^ 2 ] <= 12299.284338696496
c258: 80 x_61_ - 136 y_61_ + [ 1 x_61_ ^ 2 + 1 y_61_ ^ 2 ] <= 16369.980985587637
c259: 80 x_62_ - 136 y_62_ + [ 1 x_62_ ^ 2 + 1 y_62_ ^ 2 ] <= 26124.473353363785
c260: 80 x_63_ - 136 y_63_ + [ 1 x_63_ ^ 2 + 1 y_63_ ^ 2 ] <= 9885.234856562054
c261: 80 x_64_ - 136 y_64_ + [ 1 x_64_ ^ 2 + 1 y_64_ ^ 2 ] <= 3142.739999999998
c262: 80 x_65_ - 136 y_65_ + [ 1 x_65_ ^ 2 + 1 y_65_ ^ 2 ] <= 15440.640992226763
c263: 80 x_66_ - 136 y_66_ + [ 1 x_66_ ^ 2 + 1 y_66_ ^ 2 ] <= 32100.006692557552
c264: 80 x_67_ - 136 y_67_ + [ 1 x_67_ ^ 2 + 1 y_67_ ^ 2 ] <= 29.390105896518435
c265: 80 x_68_ - 136 y_68_ + [ 1 x_68_ ^ 2 + 1 y_68_ ^ 2 ] <= 33737.33609514444
c266: 80 x_69_ - 136 y_69_ + [ 1 x_69_ ^ 2 + 1 y_69_ ^ 2 ] <= 22618.724269047958
c267: 80 x_70_ - 136 y_70_ + [ 1 x_70_ ^ 2 + 1 y_70_ ^ 2 ] <= 16987.74013682833
c268: 80 x_71_ - 136 y_71_ + [ 1 x_71_ ^ 2 + 1 y_71_ ^ 2 ] <= 14196.389607186455
c269: 80 x_72_ - 136 y_72_ + [ 1 x_72_ ^ 2 + 1 y_72_ ^ 2 ] <= -4598.91
c270: 80 x_73_ - 136 y_73_ + [ 1 x_73_ ^ 2 + 1 y_73_ ^ 2 ] <= -935.4699804059637
c271: 80 x_74_ - 136 y_74_ + [ 1 x_74_ ^ 2 + 1 y_74_ ^ 2 ] <= 4279.00478451197
c272: 80 x_75_ - 136 y_75_ + [ 1 x_75_ ^ 2 + 1 y_75_ ^ 2 ] <= 23071.166252478735
c273: 80 x_76_ - 136 y_76_ + [ 1 x_76_ ^ 2 + 1 y_76_ ^ 2 ] <= 39652.679198036516
c274: 80 x_77_ - 136 y_77_ + [ 1 x_77_ ^ 2 + 1 y_77_ ^ 2 ] <= 13694.210000000003
c275: 80 x_78_ - 136 y_78_ + [ 1 x_78_ ^ 2 + 1 y_78_ ^ 2 ] <= 31067.835205274838
c276: 80 x_79_ - 136 y_79_ + [ 1 x_79_ ^ 2 + 1 y_79_ ^ 2 ] <= 14241.168006944023
c277: 80 x_80_ - 136 y_80_ + [ 1 x_80_ ^ 2 + 1 y_80_ ^ 2 ] <= 17843.6091291772
c278: 80 x_81_ - 136 y_81_ + [ 1 x_81_ ^ 2 + 1 y_81_ ^ 2 ] <= 28393.392279923748
c279: 80 x_82_ - 136 y_82_ + [ 1 x_82_ ^ 2 + 1 y_82_ ^ 2 ] <= 23924.31538455203
c280: 80 x_83_ - 136 y_83_ + [ 1 x_83_ ^ 2 + 1 y_83_ ^ 2 ] <= 31483.67047451406
c281: 80 x_84_ - 136 y_84_ + [ 1 x_84_ ^ 2 + 1 y_84_ ^ 2 ] <= 23454.758143518826
c282: 80 x_85_ - 136 y_85_ + [ 1 x_85_ ^ 2 + 1 y_85_ ^ 2 ] <= 41876.30155405017
c283: 80 x_86_ - 136 y_86_ + [ 1 x_86_ ^ 2 + 1 y_86_ ^ 2 ] <= 2103.1711655611944
c284: 80 x_87_ - 136 y_87_ + [ 1 x_87_ ^ 2 + 1 y_87_ ^ 2 ] <= 23874.22131638888
c285: 80 x_88_ - 136 y_88_ + [ 1 x_88_ ^ 2 + 1 y_88_ ^ 2 ] <= 17806.642961468744
c286: 80 x_89_ - 136 y_89_ + [ 1 x_89_ ^ 2 + 1 y_89_ ^ 2 ] <= 21909.48738554262
c287: 80 x_90_ - 136 y_90_ + [ 1 x_90_ ^ 2 + 1 y_90_ ^ 2 ] <= 10009.994873638976
c288: 80 x_91_ - 136 y_91_ + [ 1 x_91_ ^ 2 + 1 y_91_ ^ 2 ] <= 18621.890494893054
c289: 80 x_92_ - 136 y_92_ + [ 1 x_92_ ^ 2 + 1 y_92_ ^ 2 ] <= 8541.497953403827
c290: 80 x_93_ - 136 y_93_ + [ 1 x_93_ ^ 2 + 1 y_93_ ^ 2 ] <= 6416.1690687712
c291: 80 x_94_ - 136 y_94_ + [ 1 x_94_ ^ 2 + 1 y_94_ ^ 2 ] <= 29337.974193336282
c292: 80 x_95_ - 136 y_95_ + [ 1 x_95_ ^ 2 + 1 y_95_ ^ 2 ] <= 831.5511467664883
c293: 80 x_96_ - 136 y_96_ + [ 1 x_96_ ^ 2 + 1 y_96_ ^ 2 ] <= 21267.74916912791
c294: 80 x_97_ - 136 y_97_ + [ 1 x_97_ ^ 2 + 1 y_97_ ^ 2 ] <= 37925.06081231414
c295: 80 x_98_ - 136 y_98_ + [ 1 x_98_ ^ 2 + 1 y_98_ ^ 2 ] <= 11045.736573223567
c296: 80 x_99_ - 136 y_99_ + [ 1 x_99_ ^ 2 + 1 y_99_ ^ 2 ] <= 13839.649999999998
c297: 80 x_100_ - 136 y_100_ + [ 1 x_100_ ^ 2 + 1 y_100_ ^ 2 ] <= 22195.592174776924
quadratic_ranged_1_ub: [ 1 x_1_ ^ 2 - 2 x_2_ * x_1_ + 1 x_2_ ^ 2 + 1 y_1_ ^ 2 - 2 y_2_ * y_1_ + 1 y_2_ ^ 2 ] <= 792.85
quadratic_ranged_2_ub: [ 1 x_2_ ^ 2 - 2 x_3_ * x_2_ + 1 x_3_ ^ 2 + 1 y_2_ ^ 2 - 2 y_3_ * y_2_ + 1 y_3_ ^ 2 ] <= 13660.25
quadratic_ranged_3_ub: [ 1 x_3_ ^ 2 - 2 x_4_ * x_3_ + 1 x_4_ ^ 2 + 1 y_3_ ^ 2 - 2 y_4_ * y_3_ + 1 y_4_ ^ 2 ] <= 5063.13
quadratic_ranged_4_ub: [ 1 x_4_ ^ 2 - 2 x_5_ * x_4_ + 1 x_5_ ^ 2 + 1 y_4_ ^ 2 - 2 y_5_ * y_4_ + 1 y_5_ ^ 2 ] <= 20979.72
quadratic_ranged_5_ub: [ 1 x_2_ ^ 2 - 2 x_6_ * x_2_ + 1 x_6_ ^ 2 + 1 y_2_ ^ 2 - 2 y_6_ * y_2_ + 1 y_6_ ^ 2 ] <= 2385.62
quadratic_ranged_6_ub: [ 1 x_5_ ^ 2 - 2 x_6_ * x_5_ + 1 x_6_ ^ 2 + 1 y_5_ ^ 2 - 2 y_6_ * y_5_ + 1 y_6_ ^ 2 ] <= 1181.7
quadratic_ranged_7_ub: [ 1 x_1_ ^ 2 - 2 x_7_ * x_1_ + 1 x_7_ ^ 2 + 1 y_1_ ^ 2 - 2 y_7_ * y_1_ + 1 y_7_ ^ 2 ] <= 18093.14
quadratic_ranged_8_ub: [ 1 x_6_ ^ 2 - 2 x_7_ * x_6_ + 1 x_7_ ^ 2 + 1 y_6_ ^ 2 - 2 y_7_ * y_6_ + 1 y_7_ ^ 2 ] <= 11325.13
quadratic_ranged_9_ub: [ 1 x_3_ ^ 2 - 2 x_8_ * x_3_ + 1 x_8_ ^ 2 + 1 y_3_ ^ 2 - 2 y_8_ * y_3_ + 1 y_8_ ^ 2 ] <= 5898.4
quadratic_ranged_10_ub: [ 1 x_7_ ^ 2 - 2 x_8_ * x_7_ + 1 x_8_ ^ 2 + 1 y_7_ ^ 2 - 2 y_8_ * y_7_ + 1 y_8_ ^ 2 ] <= 2652.26
quadratic_ranged_11_ub: [ 1 x_8_ ^ 2 - 2 x_9_ * x_8_ + 1 x_9_ ^ 2 + 1 y_8_ ^ 2 - 2 y_9_ * y_8_ + 1 y_9_ ^ 2 ] <= 7126.56
quadratic_ranged_12_ub: [ 1 x_9_ ^ 2 - 2 x_10_ * x_9_ + 1 x_10_ ^ 2 + 1 y_9_ ^ 2 - 2 y_10_ * y_9_ + 1 y_10_ ^ 2 ] <= 2627.01
quadratic_ranged_13_ub: [ 1 x_10_ ^ 2 - 2 x_11_ * x_10_ + 1 x_11_ ^ 2 + 1 y_10_ ^ 2 - 2 y_11_ * y_10_ + 1 y_11_ ^ 2 ] <= 9958.6
quadratic_ranged_14_ub: [ 1 x_10_ ^ 2 - 2 x_12_ * x_10_ + 1 x_12_ ^ 2 + 1 y_10_ ^ 2 - 2 y_12_ * y_10_ + 1 y_12_ ^ 2 ] <= 11384.72
quadratic_ranged_15_ub: [ 1 x_11_ ^ 2 - 2 x_12_ * x_11_ + 1 x_12_ ^ 2 + 1 y_11_ ^ 2 - 2 y_12_ * y_11_ + 1 y_12_ ^ 2 ] <= 25957
quadratic_ranged_16_ub: [ 1 x_5_ ^ 2 - 2 x_13_ * x_5_ + 1 x_13_ ^ 2 + 1 y_5_ ^ 2 - 2 y_13_ * y_5_ + 1 y_13_ ^ 2 ] <= 23032.04
quadratic_ranged_17_ub: [ 1 x_7_ ^ 2 - 2 x_13_ * x_7_ + 1 x_13_ ^ 2 + 1 y_7_ ^ 2 - 2 y_13_ * y_7_ + 1 y_13_ ^ 2 ] <= 9939.41
quadratic_ranged_18_ub: [ 1 x_9_ ^ 2 - 2 x_13_ * x_9_ + 1 x_13_ ^ 2 + 1 y_9_ ^ 2 - 2 y_13_ * y_9_ + 1 y_13_ ^ 2 ] <= 14266.25
quadratic_ranged_19_ub: [ 1 x_12_ ^ 2 - 2 x_13_ * x_12_ + 1 x_13_ ^ 2 + 1 y_12_ ^ 2 - 2 y_13_ * y_12_ + 1 y_13_ ^ 2 ] <= 17503.3
quadratic_ranged_20_ub: [ 1 x_13_ ^ 2 - 2 x_14_ * x_13_ + 1 x_14_ ^ 2 + 1 y_13_ ^ 2 - 2 y_14_ * y_13_ + 1 y_14_ ^ 2 ] <= 25804.49
quadratic_ranged_21_ub: [ 1 x_7_ ^ 2 - 2 x_15_ * x_7_ + 1 x_15_ ^ 2 + 1 y_7_ ^ 2 - 2 y_15_ * y_7_ + 1 y_15_ ^ 2 ] <= 4974.25
quadratic_ranged_22_ub: [ 1 x_8_ ^ 2 - 2 x_15_ * x_8_ + 1 x_15_ ^ 2 + 1 y_8_ ^ 2 - 2 y_15_ * y_8_ + 1 y_15_ ^ 2 ] <= 14787.41
quadratic_ranged_23_ub: [ 1 x_14_ ^ 2 - 2 x_15_ * x_14_ + 1 x_15_ ^ 2 + 1 y_14_ ^ 2 - 2 y_15_ * y_14_ + 1 y_15_ ^ 2 ] <= 2691.65
quadratic_ranged_24_ub: [ 1 x_7_ ^ 2 - 2 x_16_ * x_7_ + 1 x_16_ ^ 2 + 1 y_7_ ^ 2 - 2 y_16_ * y_7_ + 1 y_16_ ^ 2 ] <= 12921.94
quadratic_ranged_25_ub: [ 1 x_8_ ^ 2 - 2 x_16_ * x_8_ + 1 x_16_ ^ 2 + 1 y_8_ ^ 2 - 2 y_16_ * y_8_ + 1 y_16_ ^ 2 ] <= 14948
quadratic_ranged_26_ub: [ 1 x_15_ ^ 2 - 2 x_16_ * x_15_ + 1 x_16_ ^ 2 + 1 y_15_ ^ 2 - 2 y_16_ * y_15_ + 1 y_16_ ^ 2 ] <= 16047.89
quadratic_ranged_27_ub: [ 1 x_3_ ^ 2 - 2 x_17_ * x_3_ + 1 x_17_ ^ 2 + 1 y_3_ ^ 2 - 2 y_17_ * y_3_ + 1 y_17_ ^ 2 ] <= 11871.54
quadratic_ranged_28_ub: [ 1 x_16_ ^ 2 - 2 x_17_ * x_16_ + 1 x_17_ ^ 2 + 1 y_16_ ^ 2 - 2 y_17_ * y_16_ + 1 y_17_ ^ 2 ] <= 16606.420000000002
quadratic_ranged_29_ub: [ 1 x_6_ ^ 2 - 2 x_18_ * x_6_ + 1 x_18_ ^ 2 + 1 y_6_ ^ 2 - 2 y_18_ * y_6_ + 1 y_18_ ^ 2 ] <= 14594.5
quadratic_ranged_30_ub: [ 1 x_9_ ^ 2 - 2 x_18_ * x_9_ + 1 x_18_ ^ 2 + 1 y_9_ ^ 2 - 2 y_18_ * y_9_ + 1 y_18_ ^ 2 ] <= 4045.05
quadratic_ranged_31_ub: [ 1 x_17_ ^ 2 - 2 x_18_ * x_17_ + 1 x_18_ ^ 2 + 1 y_17_ ^ 2 - 2 y_18_ * y_17_ + 1 y_18_ ^ 2 ] <= 19215.25
quadratic_ranged_32_ub: [ 1 x_17_ ^ 2 - 2 x_19_ * x_17_ + 1 x_19_ ^ 2 + 1 y_17_ ^ 2 - 2 y_19_ * y_17_ + 1 y_19_ ^ 2 ] <= 1294.82
quadratic_ranged_33_ub: [ 1 x_18_ ^ 2 - 2 x_19_ * x_18_ + 1 x_19_ ^ 2 + 1 y_18_ ^ 2 - 2 y_19_ * y_18_ + 1 y_19_ ^ 2 ] <= 13393.61
quadratic_ranged_34_ub: [ 1 x_3_ ^ 2 - 2 x_20_ * x_3_ + 1 x_20_ ^ 2 + 1 y_3_ ^ 2 - 2 y_20_ * y_3_ + 1 y_20_ ^ 2 ] <= 5908.5
quadratic_ranged_35_ub: [ 1 x_19_ ^ 2 - 2 x_20_ * x_19_ + 1 x_20_ ^ 2 + 1 y_19_ ^ 2 - 2 y_20_ * y_19_ + 1 y_20_ ^ 2 ] <= 5173.22
quadratic_ranged_36_ub: [ 1 x_9_ ^ 2 - 2 x_21_ * x_9_ + 1 x_21_ ^ 2 + 1 y_9_ ^ 2 - 2 y_21_ * y_9_ + 1 y_21_ ^ 2 ] <= 4074.34
quadratic_ranged_37_ub: [ 1 x_20_ ^ 2 - 2 x_21_ * x_20_ + 1 x_21_ ^ 2 + 1 y_20_ ^ 2 - 2 y_21_ * y_20_ + 1 y_21_ ^ 2 ] <= 20656.52
quadratic_ranged_38_ub: [ 1 x_2_ ^ 2 - 2 x_22_ * x_2_ + 1 x_22_ ^ 2 + 1 y_2_ ^ 2 - 2 y_22_ * y_2_ + 1 y_22_ ^ 2 ] <= 20144.45
quadratic_ranged_39_ub: [ 1 x_8_ ^ 2 - 2 x_22_ * x_8_ + 1 x_22_ ^ 2 + 1 y_8_ ^ 2 - 2 y_22_ * y_8_ + 1 y_22_ ^ 2 ] <= 13384.52
quadratic_ranged_40_ub: [ 1 x_21_ ^ 2 - 2 x_22_ * x_21_ + 1 x_22_ ^ 2 + 1 y_21_ ^ 2 - 2 y_22_ * y_21_ + 1 y_22_ ^ 2 ] <= 22650.26
quadratic_ranged_41_ub: [ 1 x_22_ ^ 2 - 2 x_23_ * x_22_ + 1 x_23_ ^ 2 + 1 y_22_ ^ 2 - 2 y_23_ * y_22_ + 1 y_23_ ^ 2 ] <= 12508.85
quadratic_ranged_42_ub: [ 1 x_18_ ^ 2 - 2 x_24_ * x_18_ + 1 x_24_ ^ 2 + 1 y_18_ ^ 2 - 2 y_24_ * y_18_ + 1 y_24_ ^ 2 ] <= 3091.61
quadratic_ranged_43_ub: [ 1 x_23_ ^ 2 - 2 x_24_ * x_23_ + 1 x_24_ ^ 2 + 1 y_23_ ^ 2 - 2 y_24_ * y_23_ + 1 y_24_ ^ 2 ] <= 11834.17
quadratic_ranged_44_ub: [ 1 x_19_ ^ 2 - 2 x_25_ * x_19_ + 1 x_25_ ^ 2 + 1 y_19_ ^ 2 - 2 y_25_ * y_19_ + 1 y_25_ ^ 2 ] <= 26115.57
quadratic_ranged_45_ub: [ 1 x_24_ ^ 2 - 2 x_25_ * x_24_ + 1 x_25_ ^ 2 + 1 y_24_ ^ 2 - 2 y_25_ * y_24_ + 1 y_25_ ^ 2 ] <= 9058.69
quadratic_ranged_46_ub: [ 1 x_20_ ^ 2 - 2 x_26_ * x_20_ + 1 x_26_ ^ 2 + 1 y_20_ ^ 2 - 2 y_26_ * y_20_ + 1 y_26_ ^ 2 ] <= 18329.48
quadratic_ranged_47_ub: [ 1 x_25_ ^ 2 - 2 x_26_ * x_25_ + 1 x_26_ ^ 2 + 1 y_25_ ^ 2 - 2 y_26_ * y_25_ + 1 y_26_ ^ 2 ] <= 8464.81
quadratic_ranged_48_ub: [ 1 x_17_ ^ 2 - 2 x_27_ * x_17_ + 1 x_27_ ^ 2 + 1 y_17_ ^ 2 - 2 y_27_ * y_17_ + 1 y_27_ ^ 2 ] <= 39979.840000000004
quadratic_ranged_49_ub: [ 1 x_25_ ^ 2 - 2 x_27_ * x_25_ + 1 x_27_ ^ 2 + 1 y_25_ ^ 2 - 2 y_27_ * y_25_ + 1 y_27_ ^ 2 ] <= 8206.25
quadratic_ranged_50_ub: [ 1 x_26_ ^ 2 - 2 x_27_ * x_26_ + 1 x_27_ ^ 2 + 1 y_26_ ^ 2 - 2 y_27_ * y_26_ + 1 y_27_ ^ 2 ] <= 28801.16
quadratic_ranged_51_ub: [ 1 x_2_ ^ 2 - 2 x_28_ * x_2_ + 1 x_28_ ^ 2 + 1 y_2_ ^ 2 - 2 y_28_ * y_2_ + 1 y_28_ ^ 2 ] <= 47620.49
quadratic_ranged_52_ub: [ 1 x_6_ ^ 2 - 2 x_28_ * x_6_ + 1 x_28_ ^ 2 + 1 y_6_ ^ 2 - 2 y_28_ * y_6_ + 1 y_28_ ^ 2 ] <= 28850.65
quadratic_ranged_53_ub: [ 1 x_7_ ^ 2 - 2 x_28_ * x_7_ + 1 x_28_ ^ 2 + 1 y_7_ ^ 2 - 2 y_28_ * y_7_ + 1 y_28_ ^ 2 ] <= 4163.22
quadratic_ranged_54_ub: [ 1 x_10_ ^ 2 - 2 x_28_ * x_10_ + 1 x_28_ ^ 2 + 1 y_10_ ^ 2 - 2 y_28_ * y_10_ + 1 y_28_ ^ 2 ] <= 7176.05
quadratic_ranged_55_ub: [ 1 x_22_ ^ 2 - 2 x_28_ * x_22_ + 1 x_28_ ^ 2 + 1 y_22_ ^ 2 - 2 y_28_ * y_22_ + 1 y_28_ ^ 2 ] <= 25472.2
quadratic_ranged_56_ub: [ 1 x_23_ ^ 2 - 2 x_28_ * x_23_ + 1 x_28_ ^ 2 + 1 y_23_ ^ 2 - 2 y_28_ * y_23_ + 1 y_28_ ^ 2 ] <= 13530.97
quadratic_ranged_57_ub: [ 1 x_27_ ^ 2 - 2 x_28_ * x_27_ + 1 x_28_ ^ 2 + 1 y_27_ ^ 2 - 2 y_28_ * y_27_ + 1 y_28_ ^ 2 ] <= 30455.54
quadratic_ranged_58_ub: [ 1 x_4_ ^ 2 - 2 x_29_ * x_4_ + 1 x_29_ ^ 2 + 1 y_4_ ^ 2 - 2 y_29_ * y_4_ + 1 y_29_ ^ 2 ] <= 2134.13
quadratic_ranged_59_ub: [ 1 x_28_ ^ 2 - 2 x_29_ * x_28_ + 1 x_29_ ^ 2 + 1 y_28_ ^ 2 - 2 y_29_ * y_28_ + 1 y_29_ ^ 2 ] <= 12736.1
quadratic_ranged_60_ub: [ 1 x_3_ ^ 2 - 2 x_30_ * x_3_ + 1 x_30_ ^ 2 + 1 y_3_ ^ 2 - 2 y_30_ * y_3_ + 1 y_30_ ^ 2 ] <= 6344.82
quadratic_ranged_61_ub: [ 1 x_19_ ^ 2 - 2 x_30_ * x_19_ + 1 x_30_ ^ 2 + 1 y_19_ ^ 2 - 2 y_30_ * y_19_ + 1 y_30_ ^ 2 ] <= 32758.34
quadratic_ranged_62_ub: [ 1 x_29_ ^ 2 - 2 x_30_ * x_29_ + 1 x_30_ ^ 2 + 1 y_29_ ^ 2 - 2 y_30_ * y_29_ + 1 y_30_ ^ 2 ] <= 2864.36
quadratic_ranged_63_ub: [ 1 x_21_ ^ 2 - 2 x_31_ * x_21_ + 1 x_31_ ^ 2 + 1 y_21_ ^ 2 - 2 y_31_ * y_21_ + 1 y_31_ ^ 2 ] <= 16629.65
quadratic_ranged_64_ub: [ 1 x_22_ ^ 2 - 2 x_31_ * x_22_ + 1 x_31_ ^ 2 + 1 y_22_ ^ 2 - 2 y_31_ * y_22_ + 1 y_31_ ^ 2 ] <= 1027.17
quadratic_ranged_65_ub: [ 1 x_30_ ^ 2 - 2 x_31_ * x_30_ + 1 x_31_ ^ 2 + 1 y_30_ ^ 2 - 2 y_31_ * y_30_ + 1 y_31_ ^ 2 ] <= 3285.53
quadratic_ranged_66_ub: [ 1 x_20_ ^ 2 - 2 x_32_ * x_20_ + 1 x_32_ ^ 2 + 1 y_20_ ^ 2 - 2 y_32_ * y_20_ + 1 y_32_ ^ 2 ] <= 14880.33
quadratic_ranged_67_ub: [ 1 x_24_ ^ 2 - 2 x_32_ * x_24_ + 1 x_32_ ^ 2 + 1 y_24_ ^ 2 - 2 y_32_ * y_24_ + 1 y_32_ ^ 2 ] <= 2146.25
quadratic_ranged_68_ub: [ 1 x_31_ ^ 2 - 2 x_32_ * x_31_ + 1 x_32_ ^ 2 + 1 y_31_ ^ 2 - 2 y_32_ * y_31_ + 1 y_32_ ^ 2 ] <= 10136.36
quadratic_ranged_69_ub: [ 1 x_4_ ^ 2 - 2 x_33_ * x_4_ + 1 x_33_ ^ 2 + 1 y_4_ ^ 2 - 2 y_33_ * y_4_ + 1 y_33_ ^ 2 ] <= 14266.25
quadratic_ranged_70_ub: [ 1 x_5_ ^ 2 - 2 x_33_ * x_5_ + 1 x_33_ ^ 2 + 1 y_5_ ^ 2 - 2 y_33_ * y_5_ + 1 y_33_ ^ 2 ] <= 3794.57
quadratic_ranged_71_ub: [ 1 x_16_ ^ 2 - 2 x_33_ * x_16_ + 1 x_33_ ^ 2 + 1 y_16_ ^ 2 - 2 y_33_ * y_16_ + 1 y_33_ ^ 2 ] <= 5480.26
quadratic_ranged_72_ub: [ 1 x_17_ ^ 2 - 2 x_33_ * x_17_ + 1 x_33_ ^ 2 + 1 y_17_ ^ 2 - 2 y_33_ * y_17_ + 1 y_33_ ^ 2 ] <= 3312.8
quadratic_ranged_73_ub: [ 1 x_32_ ^ 2 - 2 x_33_ * x_32_ + 1 x_33_ ^ 2 + 1 y_32_ ^ 2 - 2 y_33_ * y_32_ + 1 y_33_ ^ 2 ] <= 8727.41
quadratic_ranged_74_ub: [ 1 x_15_ ^ 2 - 2 x_34_ * x_15_ + 1 x_34_ ^ 2 + 1 y_15_ ^ 2 - 2 y_34_ * y_15_ + 1 y_34_ ^ 2 ] <= 553.48
quadratic_ranged_75_ub: [ 1 x_18_ ^ 2 - 2 x_34_ * x_18_ + 1 x_34_ ^ 2 + 1 y_18_ ^ 2 - 2 y_34_ * y_18_ + 1 y_34_ ^ 2 ] <= 12572.48
quadratic_ranged_76_ub: [ 1 x_31_ ^ 2 - 2 x_34_ * x_31_ + 1 x_34_ ^ 2 + 1 y_31_ ^ 2 - 2 y_34_ * y_31_ + 1 y_34_ ^ 2 ] <= 21357.46
quadratic_ranged_77_ub: [ 1 x_33_ ^ 2 - 2 x_34_ * x_33_ + 1 x_34_ ^ 2 + 1 y_33_ ^ 2 - 2 y_34_ * y_33_ + 1 y_34_ ^ 2 ] <= 6263.01
quadratic_ranged_78_ub: [ 1 x_20_ ^ 2 - 2 x_35_ * x_20_ + 1 x_35_ ^ 2 + 1 y_20_ ^ 2 - 2 y_35_ * y_20_ + 1 y_35_ ^ 2 ] <= 9698.02
quadratic_ranged_79_ub: [ 1 x_24_ ^ 2 - 2 x_35_ * x_24_ + 1 x_35_ ^ 2 + 1 y_24_ ^ 2 - 2 y_35_ * y_24_ + 1 y_35_ ^ 2 ] <= 26714.5
quadratic_ranged_80_ub: [ 1 x_27_ ^ 2 - 2 x_35_ * x_27_ + 1 x_35_ ^ 2 + 1 y_27_ ^ 2 - 2 y_35_ * y_27_ + 1 y_35_ ^ 2 ] <= 3128.98
quadratic_ranged_81_ub: [ 1 x_34_ ^ 2 - 2 x_35_ * x_34_ + 1 x_35_ ^ 2 + 1 y_34_ ^ 2 - 2 y_35_ * y_34_ + 1 y_35_ ^ 2 ] <= 26499.37
quadratic_ranged_82_ub: [ 1 x_6_ ^ 2 - 2 x_36_ * x_6_ + 1 x_36_ ^ 2 + 1 y_6_ ^ 2 - 2 y_36_ * y_6_ + 1 y_36_ ^ 2 ] <= 21578.65
quadratic_ranged_83_ub: [ 1 x_20_ ^ 2 - 2 x_36_ * x_20_ + 1 x_36_ ^ 2 + 1 y_20_ ^ 2 - 2 y_36_ * y_20_ + 1 y_36_ ^ 2 ] <= 20054.56
quadratic_ranged_84_ub: [ 1 x_32_ ^ 2 - 2 x_36_ * x_32_ + 1 x_36_ ^ 2 + 1 y_32_ ^ 2 - 2 y_36_ * y_32_ + 1 y_36_ ^ 2 ] <= 9870.73
quadratic_ranged_85_ub: [ 1 x_35_ ^ 2 - 2 x_36_ * x_35_ + 1 x_36_ ^ 2 + 1 y_35_ ^ 2 - 2 y_36_ * y_35_ + 1 y_36_ ^ 2 ] <= 38470.9
quadratic_ranged_86_ub: [ 1 x_1_ ^ 2 - 2 x_37_ * x_1_ + 1 x_37_ ^ 2 + 1 y_1_ ^ 2 - 2 y_37_ * y_1_ + 1 y_37_ ^ 2 ] <= 5883.25
quadratic_ranged_87_ub: [ 1 x_10_ ^ 2 - 2 x_37_ * x_10_ + 1 x_37_ ^ 2 + 1 y_10_ ^ 2 - 2 y_37_ * y_10_ + 1 y_37_ ^ 2 ] <= 24896.5
quadratic_ranged_88_ub: [ 1 x_26_ ^ 2 - 2 x_37_ * x_26_ + 1 x_37_ ^ 2 + 1 y_26_ ^ 2 - 2 y_37_ * y_26_ + 1 y_37_ ^ 2 ] <= 21093.85
quadratic_ranged_89_ub: [ 1 x_33_ ^ 2 - 2 x_37_ * x_33_ + 1 x_37_ ^ 2 + 1 y_33_ ^ 2 - 2 y_37_ * y_33_ + 1 y_37_ ^ 2 ] <= 3241.09
quadratic_ranged_90_ub: [ 1 x_34_ ^ 2 - 2 x_37_ * x_34_ + 1 x_37_ ^ 2 + 1 y_34_ ^ 2 - 2 y_37_ * y_34_ + 1 y_37_ ^ 2 ] <= 18503.2
quadratic_ranged_91_ub: [ 1 x_36_ ^ 2 - 2 x_37_ * x_36_ + 1 x_37_ ^ 2 + 1 y_36_ ^ 2 - 2 y_37_ * y_36_ + 1 y_37_ ^ 2 ] <= 31614.010000000002
quadratic_ranged_92_ub: [ 1 x_2_ ^ 2 - 2 x_38_ * x_2_ + 1 x_38_ ^ 2 + 1 y_2_ ^ 2 - 2 y_38_ * y_2_ + 1 y_38_ ^ 2 ] <= 23978.41
quadratic_ranged_93_ub: [ 1 x_32_ ^ 2 - 2 x_38_ * x_32_ + 1 x_38_ ^ 2 + 1 y_32_ ^ 2 - 2 y_38_ * y_32_ + 1 y_38_ ^ 2 ] <= 15761.05
quadratic_ranged_94_ub: [ 1 x_37_ ^ 2 - 2 x_38_ * x_37_ + 1 x_38_ ^ 2 + 1 y_37_ ^ 2 - 2 y_38_ * y_37_ + 1 y_38_ ^ 2 ] <= 28487.05
quadratic_ranged_95_ub: [ 1 x_1_ ^ 2 - 2 x_39_ * x_1_ + 1 x_39_ ^ 2 + 1 y_1_ ^ 2 - 2 y_39_ * y_1_ + 1 y_39_ ^ 2 ] <= 2767.4
quadratic_ranged_96_ub: [ 1 x_3_ ^ 2 - 2 x_39_ * x_3_ + 1 x_39_ ^ 2 + 1 y_3_ ^ 2 - 2 y_39_ * y_3_ + 1 y_39_ ^ 2 ] <= 3522.88
quadratic_ranged_97_ub: [ 1 x_5_ ^ 2 - 2 x_39_ * x_5_ + 1 x_39_ ^ 2 + 1 y_5_ ^ 2 - 2 y_39_ * y_5_ + 1 y_39_ ^ 2 ] <= 1641.25
quadratic_ranged_98_ub: [ 1 x_19_ ^ 2 - 2 x_39_ * x_19_ + 1 x_39_ ^ 2 + 1 y_19_ ^ 2 - 2 y_39_ * y_19_ + 1 y_39_ ^ 2 ] <= 8160.8
quadratic_ranged_99_ub: [ 1 x_38_ ^ 2 - 2 x_39_ * x_38_ + 1 x_39_ ^ 2 + 1 y_38_ ^ 2 - 2 y_39_ * y_38_ + 1 y_39_ ^ 2 ] <= 19925.28
quadratic_ranged_100_ub: [ 1 x_3_ ^ 2 - 2 x_40_ * x_3_ + 1 x_40_ ^ 2 + 1 y_3_ ^ 2 - 2 y_40_ * y_3_ + 1 y_40_ ^ 2 ] <= 11846.29
quadratic_ranged_101_ub: [ 1 x_6_ ^ 2 - 2 x_40_ * x_6_ + 1 x_40_ ^ 2 + 1 y_6_ ^ 2 - 2 y_40_ * y_6_ + 1 y_40_ ^ 2 ] <= 10352.5
quadratic_ranged_102_ub: [ 1 x_8_ ^ 2 - 2 x_40_ * x_8_ + 1 x_40_ ^ 2 + 1 y_8_ ^ 2 - 2 y_40_ * y_8_ + 1 y_40_ ^ 2 ] <= 16363.01
quadratic_ranged_103_ub: [ 1 x_13_ ^ 2 - 2 x_40_ * x_13_ + 1 x_40_ ^ 2 + 1 y_13_ ^ 2 - 2 y_40_ * y_13_ + 1 y_40_ ^ 2 ] <= 27835.6
quadratic_ranged_104_ub: [ 1 x_27_ ^ 2 - 2 x_40_ * x_27_ + 1 x_40_ ^ 2 + 1 y_27_ ^ 2 - 2 y_40_ * y_27_ + 1 y_40_ ^ 2 ] <= 43439.090000000004
quadratic_ranged_105_ub: [ 1 x_31_ ^ 2 - 2 x_40_ * x_31_ + 1 x_40_ ^ 2 + 1 y_31_ ^ 2 - 2 y_40_ * y_31_ + 1 y_40_ ^ 2 ] <= 21123.14
quadratic_ranged_106_ub: [ 1 x_39_ ^ 2 - 2 x_40_ * x_39_ + 1 x_40_ ^ 2 + 1 y_39_ ^ 2 - 2 y_40_ * y_39_ + 1 y_40_ ^ 2 ] <= 12226.05
quadratic_ranged_107_ub: [ 1 x_6_ ^ 2 - 2 x_41_ * x_6_ + 1 x_41_ ^ 2 + 1 y_6_ ^ 2 - 2 y_41_ * y_6_ + 1 y_41_ ^ 2 ] <= 21381.7
quadratic_ranged_108_ub: [ 1 x_14_ ^ 2 - 2 x_41_ * x_14_ + 1 x_41_ ^ 2 + 1 y_14_ ^ 2 - 2 y_41_ * y_14_ + 1 y_41_ ^ 2 ] <= 17227.57
quadratic_ranged_109_ub: [ 1 x_15_ ^ 2 - 2 x_41_ * x_15_ + 1 x_41_ ^ 2 + 1 y_15_ ^ 2 - 2 y_41_ * y_15_ + 1 y_41_ ^ 2 ] <= 6367.04
quadratic_ranged_110_ub: [ 1 x_18_ ^ 2 - 2 x_41_ * x_18_ + 1 x_41_ ^ 2 + 1 y_18_ ^ 2 - 2 y_41_ * y_18_ + 1 y_41_ ^ 2 ] <= 6726.6
quadratic_ranged_111_ub: [ 1 x_34_ ^ 2 - 2 x_41_ * x_34_ + 1 x_41_ ^ 2 + 1 y_34_ ^ 2 - 2 y_41_ * y_34_ + 1 y_41_ ^ 2 ] <= 5094.44
quadratic_ranged_112_ub: [ 1 x_37_ ^ 2 - 2 x_41_ * x_37_ + 1 x_41_ ^ 2 + 1 y_37_ ^ 2 - 2 y_41_ * y_37_ + 1 y_41_ ^ 2 ] <= 28090.12
quadratic_ranged_113_ub: [ 1 x_40_ ^ 2 - 2 x_41_ * x_40_ + 1 x_41_ ^ 2 + 1 y_40_ ^ 2 - 2 y_41_ * y_40_ + 1 y_41_ ^ 2 ] <= 4476.32
quadratic_ranged_114_ub: [ 1 x_14_ ^ 2 - 2 x_42_ * x_14_ + 1 x_42_ ^ 2 + 1 y_14_ ^ 2 - 2 y_42_ * y_14_ + 1 y_42_ ^ 2 ] <= 3176.45
quadratic_ranged_115_ub: [ 1 x_21_ ^ 2 - 2 x_42_ * x_21_ + 1 x_42_ ^ 2 + 1 y_21_ ^ 2 - 2 y_42_ * y_21_ + 1 y_42_ ^ 2 ] <= 15078.29
quadratic_ranged_116_ub: [ 1 x_41_ ^ 2 - 2 x_42_ * x_41_ + 1 x_42_ ^ 2 + 1 y_41_ ^ 2 - 2 y_42_ * y_41_ + 1 y_42_ ^ 2 ] <= 9118.28
quadratic_ranged_117_ub: [ 1 x_14_ ^ 2 - 2 x_43_ * x_14_ + 1 x_43_ ^ 2 + 1 y_14_ ^ 2 - 2 y_43_ * y_14_ + 1 y_43_ ^ 2 ] <= 8389.06
quadratic_ranged_118_ub: [ 1 x_16_ ^ 2 - 2 x_43_ * x_16_ + 1 x_43_ ^ 2 + 1 y_16_ ^ 2 - 2 y_43_ * y_16_ + 1 y_43_ ^ 2 ] <= 31909.94
quadratic_ranged_119_ub: [ 1 x_22_ ^ 2 - 2 x_43_ * x_22_ + 1 x_43_ ^ 2 + 1 y_22_ ^ 2 - 2 y_43_ * y_22_ + 1 y_43_ ^ 2 ] <= 42470.5
quadratic_ranged_120_ub: [ 1 x_30_ ^ 2 - 2 x_43_ * x_30_ + 1 x_43_ ^ 2 + 1 y_30_ ^ 2 - 2 y_43_ * y_30_ + 1 y_43_ ^ 2 ] <= 46221.64
quadratic_ranged_121_ub: [ 1 x_42_ ^ 2 - 2 x_43_ * x_42_ + 1 x_43_ ^ 2 + 1 y_42_ ^ 2 - 2 y_43_ * y_42_ + 1 y_43_ ^ 2 ] <= 1301.89
quadratic_ranged_122_ub: [ 1 x_7_ ^ 2 - 2 x_44_ * x_7_ + 1 x_44_ ^ 2 + 1 y_7_ ^ 2 - 2 y_44_ * y_7_ + 1 y_44_ ^ 2 ] <= 1653.3700000000001
quadratic_ranged_123_ub: [ 1 x_11_ ^ 2 - 2 x_44_ * x_11_ + 1 x_44_ ^ 2 + 1 y_11_ ^ 2 - 2 y_44_ * y_11_ + 1 y_44_ ^ 2 ] <= 6472.08
quadratic_ranged_124_ub: [ 1 x_23_ ^ 2 - 2 x_44_ * x_23_ + 1 x_44_ ^ 2 + 1 y_23_ ^ 2 - 2 y_44_ * y_23_ + 1 y_44_ ^ 2 ] <= 3807.7
quadratic_ranged_125_ub: [ 1 x_29_ ^ 2 - 2 x_44_ * x_29_ + 1 x_44_ ^ 2 + 1 y_29_ ^ 2 - 2 y_44_ * y_29_ + 1 y_44_ ^ 2 ] <= 12363.41
quadratic_ranged_126_ub: [ 1 x_32_ ^ 2 - 2 x_44_ * x_32_ + 1 x_44_ ^ 2 + 1 y_32_ ^ 2 - 2 y_44_ * y_32_ + 1 y_44_ ^ 2 ] <= 2908.8
quadratic_ranged_127_ub: [ 1 x_33_ ^ 2 - 2 x_44_ * x_33_ + 1 x_44_ ^ 2 + 1 y_33_ ^ 2 - 2 y_44_ * y_33_ + 1 y_44_ ^ 2 ] <= 7660.85
quadratic_ranged_128_ub: [ 1 x_37_ ^ 2 - 2 x_44_ * x_37_ + 1 x_44_ ^ 2 + 1 y_37_ ^ 2 - 2 y_44_ * y_37_ + 1 y_44_ ^ 2 ] <= 18965.78
quadratic_ranged_129_ub: [ 1 x_40_ ^ 2 - 2 x_44_ * x_40_ + 1 x_44_ ^ 2 + 1 y_40_ ^ 2 - 2 y_44_ * y_40_ + 1 y_44_ ^ 2 ] <= 1916.98
quadratic_ranged_130_ub: [ 1 x_43_ ^ 2 - 2 x_44_ * x_43_ + 1 x_44_ ^ 2 + 1 y_43_ ^ 2 - 2 y_44_ * y_43_ + 1 y_44_ ^ 2 ] <= 4016.77
quadratic_ranged_131_ub: [ 1 x_15_ ^ 2 - 2 x_45_ * x_15_ + 1 x_45_ ^ 2 + 1 y_15_ ^ 2 - 2 y_45_ * y_15_ + 1 y_45_ ^ 2 ] <= 11346.34
quadratic_ranged_132_ub: [ 1 x_25_ ^ 2 - 2 x_45_ * x_25_ + 1 x_45_ ^ 2 + 1 y_25_ ^ 2 - 2 y_45_ * y_25_ + 1 y_45_ ^ 2 ] <= 17727.52
quadratic_ranged_133_ub: [ 1 x_34_ ^ 2 - 2 x_45_ * x_34_ + 1 x_45_ ^ 2 + 1 y_34_ ^ 2 - 2 y_45_ * y_34_ + 1 y_45_ ^ 2 ] <= 16881.14
quadratic_ranged_134_ub: [ 1 x_44_ ^ 2 - 2 x_45_ * x_44_ + 1 x_45_ ^ 2 + 1 y_44_ ^ 2 - 2 y_45_ * y_44_ + 1 y_45_ ^ 2 ] <= 18333.52
quadratic_ranged_135_ub: [ 1 x_9_ ^ 2 - 2 x_46_ * x_9_ + 1 x_46_ ^ 2 + 1 y_9_ ^ 2 - 2 y_46_ * y_9_ + 1 y_46_ ^ 2 ] <= 10926.18
quadratic_ranged_136_ub: [ 1 x_26_ ^ 2 - 2 x_46_ * x_26_ + 1 x_46_ ^ 2 + 1 y_26_ ^ 2 - 2 y_46_ * y_26_ + 1 y_46_ ^ 2 ] <= 9603.08
quadratic_ranged_137_ub: [ 1 x_27_ ^ 2 - 2 x_46_ * x_27_ + 1 x_46_ ^ 2 + 1 y_27_ ^ 2 - 2 y_46_ * y_27_ + 1 y_46_ ^ 2 ] <= 5381.28
quadratic_ranged_138_ub: [ 1 x_30_ ^ 2 - 2 x_46_ * x_30_ + 1 x_46_ ^ 2 + 1 y_30_ ^ 2 - 2 y_46_ * y_30_ + 1 y_46_ ^ 2 ] <= 1656.4
quadratic_ranged_139_ub: [ 1 x_38_ ^ 2 - 2 x_46_ * x_38_ + 1 x_46_ ^ 2 + 1 y_38_ ^ 2 - 2 y_46_ * y_38_ + 1 y_46_ ^ 2 ] <= 35400.5
quadratic_ranged_140_ub: [ 1 x_41_ ^ 2 - 2 x_46_ * x_41_ + 1 x_46_ ^ 2 + 1 y_41_ ^ 2 - 2 y_46_ * y_41_ + 1 y_46_ ^ 2 ] <= 19061.73
quadratic_ranged_141_ub: [ 1 x_45_ ^ 2 - 2 x_46_ * x_45_ + 1 x_46_ ^ 2 + 1 y_45_ ^ 2 - 2 y_46_ * y_45_ + 1 y_46_ ^ 2 ] <= 12036.17
quadratic_ranged_142_ub: [ 1 x_14_ ^ 2 - 2 x_47_ * x_14_ + 1 x_47_ ^ 2 + 1 y_14_ ^ 2 - 2 y_47_ * y_14_ + 1 y_47_ ^ 2 ] <= 1706.9
quadratic_ranged_143_ub: [ 1 x_29_ ^ 2 - 2 x_47_ * x_29_ + 1 x_47_ ^ 2 + 1 y_29_ ^ 2 - 2 y_47_ * y_29_ + 1 y_47_ ^ 2 ] <= 6855.88
quadratic_ranged_144_ub: [ 1 x_30_ ^ 2 - 2 x_47_ * x_30_ + 1 x_47_ ^ 2 + 1 y_30_ ^ 2 - 2 y_47_ * y_30_ + 1 y_47_ ^ 2 ] <= 17493.2
quadratic_ranged_145_ub: [ 1 x_46_ ^ 2 - 2 x_47_ * x_46_ + 1 x_47_ ^ 2 + 1 y_46_ ^ 2 - 2 y_47_ * y_46_ + 1 y_47_ ^ 2 ] <= 12669.44
quadratic_ranged_146_ub: [ 1 x_1_ ^ 2 - 2 x_48_ * x_1_ + 1 x_48_ ^ 2 + 1 y_1_ ^ 2 - 2 y_48_ * y_1_ + 1 y_48_ ^ 2 ] <= 1050.4
quadratic_ranged_147_ub: [ 1 x_14_ ^ 2 - 2 x_48_ * x_14_ + 1 x_48_ ^ 2 + 1 y_14_ ^ 2 - 2 y_48_ * y_14_ + 1 y_48_ ^ 2 ] <= 2929
quadratic_ranged_148_ub: [ 1 x_30_ ^ 2 - 2 x_48_ * x_30_ + 1 x_48_ ^ 2 + 1 y_30_ ^ 2 - 2 y_48_ * y_30_ + 1 y_48_ ^ 2 ] <= 21236.26
quadratic_ranged_149_ub: [ 1 x_32_ ^ 2 - 2 x_48_ * x_32_ + 1 x_48_ ^ 2 + 1 y_32_ ^ 2 - 2 y_48_ * y_32_ + 1 y_48_ ^ 2 ] <= 19227.37
quadratic_ranged_150_ub: [ 1 x_37_ ^ 2 - 2 x_48_ * x_37_ + 1 x_48_ ^ 2 + 1 y_37_ ^ 2 - 2 y_48_ * y_37_ + 1 y_48_ ^ 2 ] <= 2012.93
quadratic_ranged_151_ub: [ 1 x_39_ ^ 2 - 2 x_48_ * x_39_ + 1 x_48_ ^ 2 + 1 y_39_ ^ 2 - 2 y_48_ * y_39_ + 1 y_48_ ^ 2 ] <= 682.76
quadratic_ranged_152_ub: [ 1 x_47_ ^ 2 - 2 x_48_ * x_47_ + 1 x_48_ ^ 2 + 1 y_47_ ^ 2 - 2 y_48_ * y_47_ + 1 y_48_ ^ 2 ] <= 1747.3
quadratic_ranged_153_ub: [ 1 x_1_ ^ 2 - 2 x_49_ * x_1_ + 1 x_49_ ^ 2 + 1 y_1_ ^ 2 - 2 y_49_ * y_1_ + 1 y_49_ ^ 2 ] <= 24063.25
quadratic_ranged_154_ub: [ 1 x_48_ ^ 2 - 2 x_49_ * x_48_ + 1 x_49_ ^ 2 + 1 y_48_ ^ 2 - 2 y_49_ * y_48_ + 1 y_49_ ^ 2 ] <= 19296.05
quadratic_ranged_155_ub: [ 1 x_15_ ^ 2 - 2 x_50_ * x_15_ + 1 x_50_ ^ 2 + 1 y_15_ ^ 2 - 2 y_50_ * y_15_ + 1 y_50_ ^ 2 ] <= 18306.25
quadratic_ranged_156_ub: [ 1 x_23_ ^ 2 - 2 x_50_ * x_23_ + 1 x_50_ ^ 2 + 1 y_23_ ^ 2 - 2 y_50_ * y_23_ + 1 y_50_ ^ 2 ] <= 8573.89
quadratic_ranged_157_ub: [ 1 x_24_ ^ 2 - 2 x_50_ * x_24_ + 1 x_50_ ^ 2 + 1 y_24_ ^ 2 - 2 y_50_ * y_24_ + 1 y_50_ ^ 2 ] <= 14384.42
quadratic_ranged_158_ub: [ 1 x_28_ ^ 2 - 2 x_50_ * x_28_ + 1 x_50_ ^ 2 + 1 y_28_ ^ 2 - 2 y_50_ * y_28_ + 1 y_50_ ^ 2 ] <= 13162.32
quadratic_ranged_159_ub: [ 1 x_49_ ^ 2 - 2 x_50_ * x_49_ + 1 x_50_ ^ 2 + 1 y_49_ ^ 2 - 2 y_50_ * y_49_ + 1 y_50_ ^ 2 ] <= 3382.4900000000002
quadratic_ranged_160_ub: [ 1 x_10_ ^ 2 - 2 x_51_ * x_10_ + 1 x_51_ ^ 2 + 1 y_10_ ^ 2 - 2 y_51_ * y_10_ + 1 y_51_ ^ 2 ] <= 25040.93
quadratic_ranged_161_ub: [ 1 x_15_ ^ 2 - 2 x_51_ * x_15_ + 1 x_51_ ^ 2 + 1 y_15_ ^ 2 - 2 y_51_ * y_15_ + 1 y_51_ ^ 2 ] <= 11979.61
quadratic_ranged_162_ub: [ 1 x_37_ ^ 2 - 2 x_51_ * x_37_ + 1 x_51_ ^ 2 + 1 y_37_ ^ 2 - 2 y_51_ * y_37_ + 1 y_51_ ^ 2 ] <= 122.21000000000001
quadratic_ranged_163_ub: [ 1 x_48_ ^ 2 - 2 x_51_ * x_48_ + 1 x_51_ ^ 2 + 1 y_48_ ^ 2 - 2 y_51_ * y_48_ + 1 y_51_ ^ 2 ] <= 1179.68
quadratic_ranged_164_ub: [ 1 x_49_ ^ 2 - 2 x_51_ * x_49_ + 1 x_51_ ^ 2 + 1 y_49_ ^ 2 - 2 y_51_ * y_49_ + 1 y_51_ ^ 2 ] <= 15199.49
quadratic_ranged_165_ub: [ 1 x_50_ ^ 2 - 2 x_51_ * x_50_ + 1 x_51_ ^ 2 + 1 y_50_ ^ 2 - 2 y_51_ * y_50_ + 1 y_51_ ^ 2 ] <= 9489.960000000001
quadratic_ranged_166_ub: [ 1 x_35_ ^ 2 - 2 x_52_ * x_35_ + 1 x_52_ ^ 2 + 1 y_35_ ^ 2 - 2 y_52_ * y_35_ + 1 y_52_ ^ 2 ] <= 5876.18
quadratic_ranged_167_ub: [ 1 x_37_ ^ 2 - 2 x_52_ * x_37_ + 1 x_52_ ^ 2 + 1 y_37_ ^ 2 - 2 y_52_ * y_37_ + 1 y_52_ ^ 2 ] <= 13603.69
quadratic_ranged_168_ub: [ 1 x_51_ ^ 2 - 2 x_52_ * x_51_ + 1 x_52_ ^ 2 + 1 y_51_ ^ 2 - 2 y_52_ * y_51_ + 1 y_52_ ^ 2 ] <= 16170.1
quadratic_ranged_169_ub: [ 1 x_1_ ^ 2 - 2 x_53_ * x_1_ + 1 x_53_ ^ 2 + 1 y_1_ ^ 2 - 2 y_53_ * y_1_ + 1 y_53_ ^ 2 ] <= 31917.010000000002
quadratic_ranged_170_ub: [ 1 x_22_ ^ 2 - 2 x_53_ * x_22_ + 1 x_53_ ^ 2 + 1 y_22_ ^ 2 - 2 y_53_ * y_22_ + 1 y_53_ ^ 2 ] <= 1431.17
quadratic_ranged_171_ub: [ 1 x_37_ ^ 2 - 2 x_53_ * x_37_ + 1 x_53_ ^ 2 + 1 y_37_ ^ 2 - 2 y_53_ * y_37_ + 1 y_53_ ^ 2 ] <= 11144.34
quadratic_ranged_172_ub: [ 1 x_49_ ^ 2 - 2 x_53_ * x_49_ + 1 x_53_ ^ 2 + 1 y_49_ ^ 2 - 2 y_53_ * y_49_ + 1 y_53_ ^ 2 ] <= 9489.960000000001
quadratic_ranged_173_ub: [ 1 x_52_ ^ 2 - 2 x_53_ * x_52_ + 1 x_53_ ^ 2 + 1 y_52_ ^ 2 - 2 y_53_ * y_52_ + 1 y_53_ ^ 2 ] <= 1192.81
quadratic_ranged_174_ub: [ 1 x_9_ ^ 2 - 2 x_54_ * x_9_ + 1 x_54_ ^ 2 + 1 y_9_ ^ 2 - 2 y_54_ * y_9_ + 1 y_54_ ^ 2 ] <= 65.65
quadratic_ranged_175_ub: [ 1 x_14_ ^ 2 - 2 x_54_ * x_14_ + 1 x_54_ ^ 2 + 1 y_14_ ^ 2 - 2 y_54_ * y_14_ + 1 y_54_ ^ 2 ] <= 5018.69
quadratic_ranged_176_ub: [ 1 x_25_ ^ 2 - 2 x_54_ * x_25_ + 1 x_54_ ^ 2 + 1 y_25_ ^ 2 - 2 y_54_ * y_25_ + 1 y_54_ ^ 2 ] <= 12814.880000000001
quadratic_ranged_177_ub: [ 1 x_43_ ^ 2 - 2 x_54_ * x_43_ + 1 x_54_ ^ 2 + 1 y_43_ ^ 2 - 2 y_54_ * y_43_ + 1 y_54_ ^ 2 ] <= 6000.41
quadratic_ranged_178_ub: [ 1 x_45_ ^ 2 - 2 x_54_ * x_45_ + 1 x_54_ ^ 2 + 1 y_45_ ^ 2 - 2 y_54_ * y_45_ + 1 y_54_ ^ 2 ] <= 9372.8
quadratic_ranged_179_ub: [ 1 x_52_ ^ 2 - 2 x_54_ * x_52_ + 1 x_54_ ^ 2 + 1 y_52_ ^ 2 - 2 y_54_ * y_52_ + 1 y_54_ ^ 2 ] <= 16779.13
quadratic_ranged_180_ub: [ 1 x_53_ ^ 2 - 2 x_54_ * x_53_ + 1 x_54_ ^ 2 + 1 y_53_ ^ 2 - 2 y_54_ * y_53_ + 1 y_54_ ^ 2 ] <= 21088.8
quadratic_ranged_181_ub: [ 1 x_22_ ^ 2 - 2 x_55_ * x_22_ + 1 x_55_ ^ 2 + 1 y_22_ ^ 2 - 2 y_55_ * y_22_ + 1 y_55_ ^ 2 ] <= 5676.2
quadratic_ranged_182_ub: [ 1 x_27_ ^ 2 - 2 x_55_ * x_27_ + 1 x_55_ ^ 2 + 1 y_27_ ^ 2 - 2 y_55_ * y_27_ + 1 y_55_ ^ 2 ] <= 9867.7
quadratic_ranged_183_ub: [ 1 x_43_ ^ 2 - 2 x_55_ * x_43_ + 1 x_55_ ^ 2 + 1 y_43_ ^ 2 - 2 y_55_ * y_43_ + 1 y_55_ ^ 2 ] <= 21001.94
quadratic_ranged_184_ub: [ 1 x_52_ ^ 2 - 2 x_55_ * x_52_ + 1 x_55_ ^ 2 + 1 y_52_ ^ 2 - 2 y_55_ * y_52_ + 1 y_55_ ^ 2 ] <= 3686.5
quadratic_ranged_185_ub: [ 1 x_54_ ^ 2 - 2 x_55_ * x_54_ + 1 x_55_ ^ 2 + 1 y_54_ ^ 2 - 2 y_55_ * y_54_ + 1 y_55_ ^ 2 ] <= 4735.89
quadratic_ranged_186_ub: [ 1 x_2_ ^ 2 - 2 x_56_ * x_2_ + 1 x_56_ ^ 2 + 1 y_2_ ^ 2 - 2 y_56_ * y_2_ + 1 y_56_ ^ 2 ] <= 4.04
quadratic_ranged_187_ub: [ 1 x_7_ ^ 2 - 2 x_56_ * x_7_ + 1 x_56_ ^ 2 + 1 y_7_ ^ 2 - 2 y_56_ * y_7_ + 1 y_56_ ^ 2 ] <= 23348.170000000002
quadratic_ranged_188_ub: [ 1 x_22_ ^ 2 - 2 x_56_ * x_22_ + 1 x_56_ ^ 2 + 1 y_22_ ^ 2 - 2 y_56_ * y_22_ + 1 y_56_ ^ 2 ] <= 20180.81
quadratic_ranged_189_ub: [ 1 x_23_ ^ 2 - 2 x_56_ * x_23_ + 1 x_56_ ^ 2 + 1 y_23_ ^ 2 - 2 y_56_ * y_23_ + 1 y_56_ ^ 2 ] <= 10201
quadratic_ranged_190_ub: [ 1 x_32_ ^ 2 - 2 x_56_ * x_32_ + 1 x_56_ ^ 2 + 1 y_32_ ^ 2 - 2 y_56_ * y_32_ + 1 y_56_ ^ 2 ] <= 27724.5
quadratic_ranged_191_ub: [ 1 x_34_ ^ 2 - 2 x_56_ * x_34_ + 1 x_56_ ^ 2 + 1 y_34_ ^ 2 - 2 y_56_ * y_34_ + 1 y_56_ ^ 2 ] <= 16826.6
quadratic_ranged_192_ub: [ 1 x_36_ ^ 2 - 2 x_56_ * x_36_ + 1 x_56_ ^ 2 + 1 y_36_ ^ 2 - 2 y_56_ * y_36_ + 1 y_56_ ^ 2 ] <= 32365.45
quadratic_ranged_193_ub: [ 1 x_40_ ^ 2 - 2 x_56_ * x_40_ + 1 x_56_ ^ 2 + 1 y_40_ ^ 2 - 2 y_56_ * y_40_ + 1 y_56_ ^ 2 ] <= 17582.08
quadratic_ranged_194_ub: [ 1 x_48_ ^ 2 - 2 x_56_ * x_48_ + 1 x_56_ ^ 2 + 1 y_48_ ^ 2 - 2 y_56_ * y_48_ + 1 y_56_ ^ 2 ] <= 950.41
quadratic_ranged_195_ub: [ 1 x_55_ ^ 2 - 2 x_56_ * x_55_ + 1 x_56_ ^ 2 + 1 y_55_ ^ 2 - 2 y_56_ * y_55_ + 1 y_56_ ^ 2 ] <= 20944.37
quadratic_ranged_196_ub: [ 1 x_7_ ^ 2 - 2 x_57_ * x_7_ + 1 x_57_ ^ 2 + 1 y_7_ ^ 2 - 2 y_57_ * y_7_ + 1 y_57_ ^ 2 ] <= 3172.41
quadratic_ranged_197_ub: [ 1 x_12_ ^ 2 - 2 x_57_ * x_12_ + 1 x_57_ ^ 2 + 1 y_12_ ^ 2 - 2 y_57_ * y_12_ + 1 y_57_ ^ 2 ] <= 20824.18
quadratic_ranged_198_ub: [ 1 x_17_ ^ 2 - 2 x_57_ * x_17_ + 1 x_57_ ^ 2 + 1 y_17_ ^ 2 - 2 y_57_ * y_17_ + 1 y_57_ ^ 2 ] <= 3095.65
quadratic_ranged_199_ub: [ 1 x_23_ ^ 2 - 2 x_57_ * x_23_ + 1 x_57_ ^ 2 + 1 y_23_ ^ 2 - 2 y_57_ * y_23_ + 1 y_57_ ^ 2 ] <= 662.5600000000001
quadratic_ranged_200_ub: [ 1 x_45_ ^ 2 - 2 x_57_ * x_45_ + 1 x_57_ ^ 2 + 1 y_45_ ^ 2 - 2 y_57_ * y_45_ + 1 y_57_ ^ 2 ] <= 8817.3
quadratic_ranged_201_ub: [ 1 x_53_ ^ 2 - 2 x_57_ * x_53_ + 1 x_57_ ^ 2 + 1 y_53_ ^ 2 - 2 y_57_ * y_53_ + 1 y_57_ ^ 2 ] <= 24516.74
quadratic_ranged_202_ub: [ 1 x_56_ ^ 2 - 2 x_57_ * x_56_ + 1 x_57_ ^ 2 + 1 y_56_ ^ 2 - 2 y_57_ * y_56_ + 1 y_57_ ^ 2 ] <= 11655.4
quadratic_ranged_203_ub: [ 1 x_10_ ^ 2 - 2 x_58_ * x_10_ + 1 x_58_ ^ 2 + 1 y_10_ ^ 2 - 2 y_58_ * y_10_ + 1 y_58_ ^ 2 ] <= 11280.69
quadratic_ranged_204_ub: [ 1 x_11_ ^ 2 - 2 x_58_ * x_11_ + 1 x_58_ ^ 2 + 1 y_11_ ^ 2 - 2 y_58_ * y_11_ + 1 y_58_ ^ 2 ] <= 841.33
quadratic_ranged_205_ub: [ 1 x_24_ ^ 2 - 2 x_58_ * x_24_ + 1 x_58_ ^ 2 + 1 y_24_ ^ 2 - 2 y_58_ * y_24_ + 1 y_58_ ^ 2 ] <= 13996.58
quadratic_ranged_206_ub: [ 1 x_31_ ^ 2 - 2 x_58_ * x_31_ + 1 x_58_ ^ 2 + 1 y_31_ ^ 2 - 2 y_58_ * y_31_ + 1 y_58_ ^ 2 ] <= 2570.45
quadratic_ranged_207_ub: [ 1 x_32_ ^ 2 - 2 x_58_ * x_32_ + 1 x_58_ ^ 2 + 1 y_32_ ^ 2 - 2 y_58_ * y_32_ + 1 y_58_ ^ 2 ] <= 5216.65
quadratic_ranged_208_ub: [ 1 x_36_ ^ 2 - 2 x_58_ * x_36_ + 1 x_58_ ^ 2 + 1 y_36_ ^ 2 - 2 y_58_ * y_36_ + 1 y_58_ ^ 2 ] <= 16816.5
quadratic_ranged_209_ub: [ 1 x_49_ ^ 2 - 2 x_58_ * x_49_ + 1 x_58_ ^ 2 + 1 y_49_ ^ 2 - 2 y_58_ * y_49_ + 1 y_58_ ^ 2 ] <= 4865.17
quadratic_ranged_210_ub: [ 1 x_53_ ^ 2 - 2 x_58_ * x_53_ + 1 x_58_ ^ 2 + 1 y_53_ ^ 2 - 2 y_58_ * y_53_ + 1 y_58_ ^ 2 ] <= 10973.65
quadratic_ranged_211_ub: [ 1 x_57_ ^ 2 - 2 x_58_ * x_57_ + 1 x_58_ ^ 2 + 1 y_57_ ^ 2 - 2 y_58_ * y_57_ + 1 y_58_ ^ 2 ] <= 3055.25
quadratic_ranged_212_ub: [ 1 x_1_ ^ 2 - 2 x_59_ * x_1_ + 1 x_59_ ^ 2 + 1 y_1_ ^ 2 - 2 y_59_ * y_1_ + 1 y_59_ ^ 2 ] <= 22229.09
quadratic_ranged_213_ub: [ 1 x_4_ ^ 2 - 2 x_59_ * x_4_ + 1 x_59_ ^ 2 + 1 y_4_ ^ 2 - 2 y_59_ * y_4_ + 1 y_59_ ^ 2 ] <= 10215.14
quadratic_ranged_214_ub: [ 1 x_8_ ^ 2 - 2 x_59_ * x_8_ + 1 x_59_ ^ 2 + 1 y_8_ ^ 2 - 2 y_59_ * y_8_ + 1 y_59_ ^ 2 ] <= 800.9300000000001
quadratic_ranged_215_ub: [ 1 x_37_ ^ 2 - 2 x_59_ * x_37_ + 1 x_59_ ^ 2 + 1 y_37_ ^ 2 - 2 y_59_ * y_37_ + 1 y_59_ ^ 2 ] <= 13996.58
quadratic_ranged_216_ub: [ 1 x_54_ ^ 2 - 2 x_59_ * x_54_ + 1 x_59_ ^ 2 + 1 y_54_ ^ 2 - 2 y_59_ * y_54_ + 1 y_59_ ^ 2 ] <= 3652.16
quadratic_ranged_217_ub: [ 1 x_58_ ^ 2 - 2 x_59_ * x_58_ + 1 x_59_ ^ 2 + 1 y_58_ ^ 2 - 2 y_59_ * y_58_ + 1 y_59_ ^ 2 ] <= 4582.37
quadratic_ranged_218_ub: [ 1 x_30_ ^ 2 - 2 x_60_ * x_30_ + 1 x_60_ ^ 2 + 1 y_30_ ^ 2 - 2 y_60_ * y_30_ + 1 y_60_ ^ 2 ] <= 1092.82
quadratic_ranged_219_ub: [ 1 x_55_ ^ 2 - 2 x_60_ * x_55_ + 1 x_60_ ^ 2 + 1 y_55_ ^ 2 - 2 y_60_ * y_55_ + 1 y_60_ ^ 2 ] <= 4597.52
quadratic_ranged_220_ub: [ 1 x_59_ ^ 2 - 2 x_60_ * x_59_ + 1 x_60_ ^ 2 + 1 y_59_ ^ 2 - 2 y_60_ * y_59_ + 1 y_60_ ^ 2 ] <= 10913.05
quadratic_ranged_221_ub: [ 1 x_1_ ^ 2 - 2 x_61_ * x_1_ + 1 x_61_ ^ 2 + 1 y_1_ ^ 2 - 2 y_61_ * y_1_ + 1 y_61_ ^ 2 ] <= 25262.12
quadratic_ranged_222_ub: [ 1 x_7_ ^ 2 - 2 x_61_ * x_7_ + 1 x_61_ ^ 2 + 1 y_7_ ^ 2 - 2 y_61_ * y_7_ + 1 y_61_ ^ 2 ] <= 14626.82
quadratic_ranged_223_ub: [ 1 x_28_ ^ 2 - 2 x_61_ * x_28_ + 1 x_61_ ^ 2 + 1 y_28_ ^ 2 - 2 y_61_ * y_28_ + 1 y_61_ ^ 2 ] <= 22123.04
quadratic_ranged_224_ub: [ 1 x_48_ ^ 2 - 2 x_61_ * x_48_ + 1 x_61_ ^ 2 + 1 y_48_ ^ 2 - 2 y_61_ * y_48_ + 1 y_61_ ^ 2 ] <= 16648.84
quadratic_ranged_225_ub: [ 1 x_54_ ^ 2 - 2 x_61_ * x_54_ + 1 x_61_ ^ 2 + 1 y_54_ ^ 2 - 2 y_61_ * y_54_ + 1 y_61_ ^ 2 ] <= 17324.53
quadratic_ranged_226_ub: [ 1 x_59_ ^ 2 - 2 x_61_ * x_59_ + 1 x_61_ ^ 2 + 1 y_59_ ^ 2 - 2 y_61_ * y_59_ + 1 y_61_ ^ 2 ] <= 11094.85
quadratic_ranged_227_ub: [ 1 x_60_ ^ 2 - 2 x_61_ * x_60_ + 1 x_61_ ^ 2 + 1 y_60_ ^ 2 - 2 y_61_ * y_60_ + 1 y_61_ ^ 2 ] <= 202
quadratic_ranged_228_ub: [ 1 x_13_ ^ 2 - 2 x_62_ * x_13_ + 1 x_62_ ^ 2 + 1 y_13_ ^ 2 - 2 y_62_ * y_13_ + 1 y_62_ ^ 2 ] <= 3395.62
quadratic_ranged_229_ub: [ 1 x_18_ ^ 2 - 2 x_62_ * x_18_ + 1 x_62_ ^ 2 + 1 y_18_ ^ 2 - 2 y_62_ * y_18_ + 1 y_62_ ^ 2 ] <= 10263.62
quadratic_ranged_230_ub: [ 1 x_47_ ^ 2 - 2 x_62_ * x_47_ + 1 x_62_ ^ 2 + 1 y_47_ ^ 2 - 2 y_62_ * y_47_ + 1 y_62_ ^ 2 ] <= 7135.65
quadratic_ranged_231_ub: [ 1 x_61_ ^ 2 - 2 x_62_ * x_61_ + 1 x_62_ ^ 2 + 1 y_61_ ^ 2 - 2 y_62_ * y_61_ + 1 y_62_ ^ 2 ] <= 1617.01
quadratic_ranged_232_ub: [ 1 x_10_ ^ 2 - 2 x_63_ * x_10_ + 1 x_63_ ^ 2 + 1 y_10_ ^ 2 - 2 y_63_ * y_10_ + 1 y_63_ ^ 2 ] <= 3568.33
quadratic_ranged_233_ub: [ 1 x_16_ ^ 2 - 2 x_63_ * x_16_ + 1 x_63_ ^ 2 + 1 y_16_ ^ 2 - 2 y_63_ * y_16_ + 1 y_63_ ^ 2 ] <= 12000.82
quadratic_ranged_234_ub: [ 1 x_26_ ^ 2 - 2 x_63_ * x_26_ + 1 x_63_ ^ 2 + 1 y_26_ ^ 2 - 2 y_63_ * y_26_ + 1 y_63_ ^ 2 ] <= 4856.08
quadratic_ranged_235_ub: [ 1 x_33_ ^ 2 - 2 x_63_ * x_33_ + 1 x_63_ ^ 2 + 1 y_33_ ^ 2 - 2 y_63_ * y_33_ + 1 y_63_ ^ 2 ] <= 2201.8
quadratic_ranged_236_ub: [ 1 x_37_ ^ 2 - 2 x_63_ * x_37_ + 1 x_63_ ^ 2 + 1 y_37_ ^ 2 - 2 y_63_ * y_37_ + 1 y_63_ ^ 2 ] <= 10044.45
quadratic_ranged_237_ub: [ 1 x_43_ ^ 2 - 2 x_63_ * x_43_ + 1 x_63_ ^ 2 + 1 y_43_ ^ 2 - 2 y_63_ * y_43_ + 1 y_63_ ^ 2 ] <= 5082.32
quadratic_ranged_238_ub: [ 1 x_54_ ^ 2 - 2 x_63_ * x_54_ + 1 x_63_ ^ 2 + 1 y_54_ ^ 2 - 2 y_63_ * y_54_ + 1 y_63_ ^ 2 ] <= 81.81
quadratic_ranged_239_ub: [ 1 x_57_ ^ 2 - 2 x_63_ * x_57_ + 1 x_63_ ^ 2 + 1 y_57_ ^ 2 - 2 y_63_ * y_57_ + 1 y_63_ ^ 2 ] <= 73.73
quadratic_ranged_240_ub: [ 1 x_62_ ^ 2 - 2 x_63_ * x_62_ + 1 x_63_ ^ 2 + 1 y_62_ ^ 2 - 2 y_63_ * y_62_ + 1 y_63_ ^ 2 ] <= 12981.53
quadratic_ranged_241_ub: [ 1 x_25_ ^ 2 - 2 x_64_ * x_25_ + 1 x_64_ ^ 2 + 1 y_25_ ^ 2 - 2 y_64_ * y_25_ + 1 y_64_ ^ 2 ] <= 3883.45
quadratic_ranged_242_ub: [ 1 x_28_ ^ 2 - 2 x_64_ * x_28_ + 1 x_64_ ^ 2 + 1 y_28_ ^ 2 - 2 y_64_ * y_28_ + 1 y_64_ ^ 2 ] <= 810.02
quadratic_ranged_243_ub: [ 1 x_47_ ^ 2 - 2 x_64_ * x_47_ + 1 x_64_ ^ 2 + 1 y_47_ ^ 2 - 2 y_64_ * y_47_ + 1 y_64_ ^ 2 ] <= 23011.84
quadratic_ranged_244_ub: [ 1 x_50_ ^ 2 - 2 x_64_ * x_50_ + 1 x_64_ ^ 2 + 1 y_50_ ^ 2 - 2 y_64_ * y_50_ + 1 y_64_ ^ 2 ] <= 9366.74
quadratic_ranged_245_ub: [ 1 x_63_ ^ 2 - 2 x_64_ * x_63_ + 1 x_64_ ^ 2 + 1 y_63_ ^ 2 - 2 y_64_ * y_63_ + 1 y_64_ ^ 2 ] <= 14499.56
quadratic_ranged_246_ub: [ 1 x_1_ ^ 2 - 2 x_65_ * x_1_ + 1 x_65_ ^ 2 + 1 y_1_ ^ 2 - 2 y_65_ * y_1_ + 1 y_65_ ^ 2 ] <= 8004.25
quadratic_ranged_247_ub: [ 1 x_3_ ^ 2 - 2 x_65_ * x_3_ + 1 x_65_ ^ 2 + 1 y_3_ ^ 2 - 2 y_65_ * y_3_ + 1 y_65_ ^ 2 ] <= 2372.4900000000002
quadratic_ranged_248_ub: [ 1 x_11_ ^ 2 - 2 x_65_ * x_11_ + 1 x_65_ ^ 2 + 1 y_11_ ^ 2 - 2 y_65_ * y_11_ + 1 y_65_ ^ 2 ] <= 3854.16
quadratic_ranged_249_ub: [ 1 x_13_ ^ 2 - 2 x_65_ * x_13_ + 1 x_65_ ^ 2 + 1 y_13_ ^ 2 - 2 y_65_ * y_13_ + 1 y_65_ ^ 2 ] <= 7039.7
quadratic_ranged_250_ub: [ 1 x_22_ ^ 2 - 2 x_65_ * x_22_ + 1 x_65_ ^ 2 + 1 y_22_ ^ 2 - 2 y_65_ * y_22_ + 1 y_65_ ^ 2 ] <= 3115.85
quadratic_ranged_251_ub: [ 1 x_29_ ^ 2 - 2 x_65_ * x_29_ + 1 x_65_ ^ 2 + 1 y_29_ ^ 2 - 2 y_65_ * y_29_ + 1 y_65_ ^ 2 ] <= 3176.45
quadratic_ranged_252_ub: [ 1 x_32_ ^ 2 - 2 x_65_ * x_32_ + 1 x_65_ ^ 2 + 1 y_32_ ^ 2 - 2 y_65_ * y_32_ + 1 y_65_ ^ 2 ] <= 13089.6
quadratic_ranged_253_ub: [ 1 x_44_ ^ 2 - 2 x_65_ * x_44_ + 1 x_65_ ^ 2 + 1 y_44_ ^ 2 - 2 y_65_ * y_44_ + 1 y_65_ ^ 2 ] <= 17743.68
quadratic_ranged_254_ub: [ 1 x_60_ ^ 2 - 2 x_65_ * x_60_ + 1 x_65_ ^ 2 + 1 y_60_ ^ 2 - 2 y_65_ * y_60_ + 1 y_65_ ^ 2 ] <= 3192.61
quadratic_ranged_255_ub: [ 1 x_64_ ^ 2 - 2 x_65_ * x_64_ + 1 x_65_ ^ 2 + 1 y_64_ ^ 2 - 2 y_65_ * y_64_ + 1 y_65_ ^ 2 ] <= 23529.97
quadratic_ranged_256_ub: [ 1 x_11_ ^ 2 - 2 x_66_ * x_11_ + 1 x_66_ ^ 2 + 1 y_11_ ^ 2 - 2 y_66_ * y_11_ + 1 y_66_ ^ 2 ] <= 23804.69
quadratic_ranged_257_ub: [ 1 x_33_ ^ 2 - 2 x_66_ * x_33_ + 1 x_66_ ^ 2 + 1 y_33_ ^ 2 - 2 y_66_ * y_33_ + 1 y_66_ ^ 2 ] <= 26270.1
quadratic_ranged_258_ub: [ 1 x_63_ ^ 2 - 2 x_66_ * x_63_ + 1 x_66_ ^ 2 + 1 y_63_ ^ 2 - 2 y_66_ * y_63_ + 1 y_66_ ^ 2 ] <= 16267.06
quadratic_ranged_259_ub: [ 1 x_65_ ^ 2 - 2 x_66_ * x_65_ + 1 x_66_ ^ 2 + 1 y_65_ ^ 2 - 2 y_66_ * y_65_ + 1 y_66_ ^ 2 ] <= 32325.05
quadratic_ranged_260_ub: [ 1 x_3_ ^ 2 - 2 x_67_ * x_3_ + 1 x_67_ ^ 2 + 1 y_3_ ^ 2 - 2 y_67_ * y_3_ + 1 y_67_ ^ 2 ] <= 607.01
quadratic_ranged_261_ub: [ 1 x_4_ ^ 2 - 2 x_67_ * x_4_ + 1 x_67_ ^ 2 + 1 y_4_ ^ 2 - 2 y_67_ * y_4_ + 1 y_67_ ^ 2 ] <= 3330.98
quadratic_ranged_262_ub: [ 1 x_23_ ^ 2 - 2 x_67_ * x_23_ + 1 x_67_ ^ 2 + 1 y_23_ ^ 2 - 2 y_67_ * y_23_ + 1 y_67_ ^ 2 ] <= 4203.62
quadratic_ranged_263_ub: [ 1 x_29_ ^ 2 - 2 x_67_ * x_29_ + 1 x_67_ ^ 2 + 1 y_29_ ^ 2 - 2 y_67_ * y_29_ + 1 y_67_ ^ 2 ] <= 198.97
quadratic_ranged_264_ub: [ 1 x_40_ ^ 2 - 2 x_67_ * x_40_ + 1 x_67_ ^ 2 + 1 y_40_ ^ 2 - 2 y_67_ * y_40_ + 1 y_67_ ^ 2 ] <= 15184.34
quadratic_ranged_265_ub: [ 1 x_51_ ^ 2 - 2 x_67_ * x_51_ + 1 x_67_ ^ 2 + 1 y_51_ ^ 2 - 2 y_67_ * y_51_ + 1 y_67_ ^ 2 ] <= 7725.49
quadratic_ranged_266_ub: [ 1 x_66_ ^ 2 - 2 x_67_ * x_66_ + 1 x_67_ ^ 2 + 1 y_66_ ^ 2 - 2 y_67_ * y_66_ + 1 y_67_ ^ 2 ] <= 13615.81
quadratic_ranged_267_ub: [ 1 x_2_ ^ 2 - 2 x_68_ * x_2_ + 1 x_68_ ^ 2 + 1 y_2_ ^ 2 - 2 y_68_ * y_2_ + 1 y_68_ ^ 2 ] <= 23093.65
quadratic_ranged_268_ub: [ 1 x_8_ ^ 2 - 2 x_68_ * x_8_ + 1 x_68_ ^ 2 + 1 y_8_ ^ 2 - 2 y_68_ * y_8_ + 1 y_68_ ^ 2 ] <= 29542.5
quadratic_ranged_269_ub: [ 1 x_11_ ^ 2 - 2 x_68_ * x_11_ + 1 x_68_ ^ 2 + 1 y_11_ ^ 2 - 2 y_68_ * y_11_ + 1 y_68_ ^ 2 ] <= 12815.89
quadratic_ranged_270_ub: [ 1 x_12_ ^ 2 - 2 x_68_ * x_12_ + 1 x_68_ ^ 2 + 1 y_12_ ^ 2 - 2 y_68_ * y_12_ + 1 y_68_ ^ 2 ] <= 35464.13
quadratic_ranged_271_ub: [ 1 x_23_ ^ 2 - 2 x_68_ * x_23_ + 1 x_68_ ^ 2 + 1 y_23_ ^ 2 - 2 y_68_ * y_23_ + 1 y_68_ ^ 2 ] <= 11515.01
quadratic_ranged_272_ub: [ 1 x_25_ ^ 2 - 2 x_68_ * x_25_ + 1 x_68_ ^ 2 + 1 y_25_ ^ 2 - 2 y_68_ * y_25_ + 1 y_68_ ^ 2 ] <= 41693.81
quadratic_ranged_273_ub: [ 1 x_36_ ^ 2 - 2 x_68_ * x_36_ + 1 x_68_ ^ 2 + 1 y_36_ ^ 2 - 2 y_68_ * y_36_ + 1 y_68_ ^ 2 ] <= 3526.92
quadratic_ranged_274_ub: [ 1 x_51_ ^ 2 - 2 x_68_ * x_51_ + 1 x_68_ ^ 2 + 1 y_51_ ^ 2 - 2 y_68_ * y_51_ + 1 y_68_ ^ 2 ] <= 27837.62
quadratic_ranged_275_ub: [ 1 x_67_ ^ 2 - 2 x_68_ * x_67_ + 1 x_68_ ^ 2 + 1 y_67_ ^ 2 - 2 y_68_ * y_67_ + 1 y_68_ ^ 2 ] <= 28264.85
quadratic_ranged_276_ub: [ 1 x_16_ ^ 2 - 2 x_69_ * x_16_ + 1 x_69_ ^ 2 + 1 y_16_ ^ 2 - 2 y_69_ * y_16_ + 1 y_69_ ^ 2 ] <= 12880.53
quadratic_ranged_277_ub: [ 1 x_24_ ^ 2 - 2 x_69_ * x_24_ + 1 x_69_ ^ 2 + 1 y_24_ ^ 2 - 2 y_69_ * y_24_ + 1 y_69_ ^ 2 ] <= 2489.65
quadratic_ranged_278_ub: [ 1 x_34_ ^ 2 - 2 x_69_ * x_34_ + 1 x_69_ ^ 2 + 1 y_34_ ^ 2 - 2 y_69_ * y_34_ + 1 y_69_ ^ 2 ] <= 11837.2
quadratic_ranged_279_ub: [ 1 x_43_ ^ 2 - 2 x_69_ * x_43_ + 1 x_69_ ^ 2 + 1 y_43_ ^ 2 - 2 y_69_ * y_43_ + 1 y_69_ ^ 2 ] <= 16775.09
quadratic_ranged_280_ub: [ 1 x_56_ ^ 2 - 2 x_69_ * x_56_ + 1 x_69_ ^ 2 + 1 y_56_ ^ 2 - 2 y_69_ * y_56_ + 1 y_69_ ^ 2 ] <= 29059.72
quadratic_ranged_281_ub: [ 1 x_68_ ^ 2 - 2 x_69_ * x_68_ + 1 x_69_ ^ 2 + 1 y_68_ ^ 2 - 2 y_69_ * y_68_ + 1 y_69_ ^ 2 ] <= 22410.89
quadratic_ranged_282_ub: [ 1 x_9_ ^ 2 - 2 x_70_ * x_9_ + 1 x_70_ ^ 2 + 1 y_9_ ^ 2 - 2 y_70_ * y_9_ + 1 y_70_ ^ 2 ] <= 80.8
quadratic_ranged_283_ub: [ 1 x_16_ ^ 2 - 2 x_70_ * x_16_ + 1 x_70_ ^ 2 + 1 y_16_ ^ 2 - 2 y_70_ * y_16_ + 1 y_70_ ^ 2 ] <= 10681.76
quadratic_ranged_284_ub: [ 1 x_38_ ^ 2 - 2 x_70_ * x_38_ + 1 x_70_ ^ 2 + 1 y_38_ ^ 2 - 2 y_70_ * y_38_ + 1 y_70_ ^ 2 ] <= 8403.2
quadratic_ranged_285_ub: [ 1 x_48_ ^ 2 - 2 x_70_ * x_48_ + 1 x_70_ ^ 2 + 1 y_48_ ^ 2 - 2 y_70_ * y_48_ + 1 y_70_ ^ 2 ] <= 9797
quadratic_ranged_286_ub: [ 1 x_56_ ^ 2 - 2 x_70_ * x_56_ + 1 x_70_ ^ 2 + 1 y_56_ ^ 2 - 2 y_70_ * y_56_ + 1 y_70_ ^ 2 ] <= 15296.45
quadratic_ranged_287_ub: [ 1 x_69_ ^ 2 - 2 x_70_ * x_69_ + 1 x_70_ ^ 2 + 1 y_69_ ^ 2 - 2 y_70_ * y_69_ + 1 y_70_ ^ 2 ] <= 3346.13
quadratic_ranged_288_ub: [ 1 x_16_ ^ 2 - 2 x_71_ * x_16_ + 1 x_71_ ^ 2 + 1 y_16_ ^ 2 - 2 y_71_ * y_16_ + 1 y_71_ ^ 2 ] <= 18993.05
quadratic_ranged_289_ub: [ 1 x_25_ ^ 2 - 2 x_71_ * x_25_ + 1 x_71_ ^ 2 + 1 y_25_ ^ 2 - 2 y_71_ * y_25_ + 1 y_71_ ^ 2 ] <= 9619.24
quadratic_ranged_290_ub: [ 1 x_35_ ^ 2 - 2 x_71_ * x_35_ + 1 x_71_ ^ 2 + 1 y_35_ ^ 2 - 2 y_71_ * y_35_ + 1 y_71_ ^ 2 ] <= 20225.25
quadratic_ranged_291_ub: [ 1 x_41_ ^ 2 - 2 x_71_ * x_41_ + 1 x_71_ ^ 2 + 1 y_41_ ^ 2 - 2 y_71_ * y_41_ + 1 y_71_ ^ 2 ] <= 1335.22
quadratic_ranged_292_ub: [ 1 x_52_ ^ 2 - 2 x_71_ * x_52_ + 1 x_71_ ^ 2 + 1 y_52_ ^ 2 - 2 y_71_ * y_52_ + 1 y_71_ ^ 2 ] <= 15381.29
quadratic_ranged_293_ub: [ 1 x_66_ ^ 2 - 2 x_71_ * x_66_ + 1 x_71_ ^ 2 + 1 y_66_ ^ 2 - 2 y_71_ * y_66_ + 1 y_71_ ^ 2 ] <= 4731.85
quadratic_ranged_294_ub: [ 1 x_68_ ^ 2 - 2 x_71_ * x_68_ + 1 x_71_ ^ 2 + 1 y_68_ ^ 2 - 2 y_71_ * y_68_ + 1 y_71_ ^ 2 ] <= 13615.81
quadratic_ranged_295_ub: [ 1 x_70_ ^ 2 - 2 x_71_ * x_70_ + 1 x_71_ ^ 2 + 1 y_70_ ^ 2 - 2 y_71_ * y_70_ + 1 y_71_ ^ 2 ] <= 2291.69
quadratic_ranged_296_ub: [ 1 x_1_ ^ 2 - 2 x_72_ * x_1_ + 1 x_72_ ^ 2 + 1 y_1_ ^ 2 - 2 y_72_ * y_1_ + 1 y_72_ ^ 2 ] <= 12246.25
quadratic_ranged_297_ub: [ 1 x_11_ ^ 2 - 2 x_72_ * x_11_ + 1 x_72_ ^ 2 + 1 y_11_ ^ 2 - 2 y_72_ * y_11_ + 1 y_72_ ^ 2 ] <= 3627.92
quadratic_ranged_298_ub: [ 1 x_12_ ^ 2 - 2 x_72_ * x_12_ + 1 x_72_ ^ 2 + 1 y_12_ ^ 2 - 2 y_72_ * y_12_ + 1 y_72_ ^ 2 ] <= 21739.24
quadratic_ranged_299_ub: [ 1 x_22_ ^ 2 - 2 x_72_ * x_22_ + 1 x_72_ ^ 2 + 1 y_22_ ^ 2 - 2 y_72_ * y_22_ + 1 y_72_ ^ 2 ] <= 2606.81
quadratic_ranged_300_ub: [ 1 x_24_ ^ 2 - 2 x_72_ * x_24_ + 1 x_72_ ^ 2 + 1 y_24_ ^ 2 - 2 y_72_ * y_24_ + 1 y_72_ ^ 2 ] <= 16003.45
quadratic_ranged_301_ub: [ 1 x_28_ ^ 2 - 2 x_72_ * x_28_ + 1 x_72_ ^ 2 + 1 y_28_ ^ 2 - 2 y_72_ * y_28_ + 1 y_72_ ^ 2 ] <= 15963.05
quadratic_ranged_302_ub: [ 1 x_32_ ^ 2 - 2 x_72_ * x_32_ + 1 x_72_ ^ 2 + 1 y_32_ ^ 2 - 2 y_72_ * y_32_ + 1 y_72_ ^ 2 ] <= 6609.4400000000005
quadratic_ranged_303_ub: [ 1 x_50_ ^ 2 - 2 x_72_ * x_50_ + 1 x_72_ ^ 2 + 1 y_50_ ^ 2 - 2 y_72_ * y_50_ + 1 y_72_ ^ 2 ] <= 1625.09
quadratic_ranged_304_ub: [ 1 x_71_ ^ 2 - 2 x_72_ * x_71_ + 1 x_72_ ^ 2 + 1 y_71_ ^ 2 - 2 y_72_ * y_71_ + 1 y_72_ ^ 2 ] <= 10524.2
quadratic_ranged_305_ub: [ 1 x_9_ ^ 2 - 2 x_73_ * x_9_ + 1 x_73_ ^ 2 + 1 y_9_ ^ 2 - 2 y_73_ * y_9_ + 1 y_73_ ^ 2 ] <= 4990.41
quadratic_ranged_306_ub: [ 1 x_11_ ^ 2 - 2 x_73_ * x_11_ + 1 x_73_ ^ 2 + 1 y_11_ ^ 2 - 2 y_73_ * y_11_ + 1 y_73_ ^ 2 ] <= 4953.04
quadratic_ranged_307_ub: [ 1 x_25_ ^ 2 - 2 x_73_ * x_25_ + 1 x_73_ ^ 2 + 1 y_25_ ^ 2 - 2 y_73_ * y_25_ + 1 y_73_ ^ 2 ] <= 2561.36
quadratic_ranged_308_ub: [ 1 x_27_ ^ 2 - 2 x_73_ * x_27_ + 1 x_73_ ^ 2 + 1 y_27_ ^ 2 - 2 y_73_ * y_27_ + 1 y_73_ ^ 2 ] <= 9171.81
quadratic_ranged_309_ub: [ 1 x_40_ ^ 2 - 2 x_73_ * x_40_ + 1 x_73_ ^ 2 + 1 y_40_ ^ 2 - 2 y_73_ * y_40_ + 1 y_73_ ^ 2 ] <= 13923.86
quadratic_ranged_310_ub: [ 1 x_43_ ^ 2 - 2 x_73_ * x_43_ + 1 x_73_ ^ 2 + 1 y_43_ ^ 2 - 2 y_73_ * y_43_ + 1 y_73_ ^ 2 ] <= 21445.33
quadratic_ranged_311_ub: [ 1 x_49_ ^ 2 - 2 x_73_ * x_49_ + 1 x_73_ ^ 2 + 1 y_49_ ^ 2 - 2 y_73_ * y_49_ + 1 y_73_ ^ 2 ] <= 1232.2
quadratic_ranged_312_ub: [ 1 x_53_ ^ 2 - 2 x_73_ * x_53_ + 1 x_73_ ^ 2 + 1 y_53_ ^ 2 - 2 y_73_ * y_53_ + 1 y_73_ ^ 2 ] <= 5922.64
quadratic_ranged_313_ub: [ 1 x_54_ ^ 2 - 2 x_73_ * x_54_ + 1 x_73_ ^ 2 + 1 y_54_ ^ 2 - 2 y_73_ * y_54_ + 1 y_73_ ^ 2 ] <= 4856.08
quadratic_ranged_314_ub: [ 1 x_60_ ^ 2 - 2 x_73_ * x_60_ + 1 x_73_ ^ 2 + 1 y_60_ ^ 2 - 2 y_73_ * y_60_ + 1 y_73_ ^ 2 ] <= 4016.77
quadratic_ranged_315_ub: [ 1 x_67_ ^ 2 - 2 x_73_ * x_67_ + 1 x_73_ ^ 2 + 1 y_67_ ^ 2 - 2 y_73_ * y_67_ + 1 y_73_ ^ 2 ] <= 40.4
quadratic_ranged_316_ub: [ 1 x_72_ ^ 2 - 2 x_73_ * x_72_ + 1 x_73_ ^ 2 + 1 y_72_ ^ 2 - 2 y_73_ * y_72_ + 1 y_73_ ^ 2 ] <= 1050.4
quadratic_ranged_317_ub: [ 1 x_3_ ^ 2 - 2 x_74_ * x_3_ + 1 x_74_ ^ 2 + 1 y_3_ ^ 2 - 2 y_74_ * y_3_ + 1 y_74_ ^ 2 ] <= 2918.9
quadratic_ranged_318_ub: [ 1 x_11_ ^ 2 - 2 x_74_ * x_11_ + 1 x_74_ ^ 2 + 1 y_11_ ^ 2 - 2 y_74_ * y_11_ + 1 y_74_ ^ 2 ] <= 9963.65
quadratic_ranged_319_ub: [ 1 x_31_ ^ 2 - 2 x_74_ * x_31_ + 1 x_74_ ^ 2 + 1 y_31_ ^ 2 - 2 y_74_ * y_31_ + 1 y_74_ ^ 2 ] <= 4481.37
quadratic_ranged_320_ub: [ 1 x_38_ ^ 2 - 2 x_74_ * x_38_ + 1 x_74_ ^ 2 + 1 y_38_ ^ 2 - 2 y_74_ * y_38_ + 1 y_74_ ^ 2 ] <= 30673.7
quadratic_ranged_321_ub: [ 1 x_42_ ^ 2 - 2 x_74_ * x_42_ + 1 x_74_ ^ 2 + 1 y_42_ ^ 2 - 2 y_74_ * y_42_ + 1 y_74_ ^ 2 ] <= 25352.010000000002
quadratic_ranged_322_ub: [ 1 x_52_ ^ 2 - 2 x_74_ * x_52_ + 1 x_74_ ^ 2 + 1 y_52_ ^ 2 - 2 y_74_ * y_52_ + 1 y_74_ ^ 2 ] <= 1591.76
quadratic_ranged_323_ub: [ 1 x_54_ ^ 2 - 2 x_74_ * x_54_ + 1 x_74_ ^ 2 + 1 y_54_ ^ 2 - 2 y_74_ * y_54_ + 1 y_74_ ^ 2 ] <= 8678.93
quadratic_ranged_324_ub: [ 1 x_63_ ^ 2 - 2 x_74_ * x_63_ + 1 x_74_ ^ 2 + 1 y_63_ ^ 2 - 2 y_74_ * y_63_ + 1 y_74_ ^ 2 ] <= 10342.4
quadratic_ranged_325_ub: [ 1 x_73_ ^ 2 - 2 x_74_ * x_73_ + 1 x_74_ ^ 2 + 1 y_73_ ^ 2 - 2 y_74_ * y_73_ + 1 y_74_ ^ 2 ] <= 885.77
quadratic_ranged_326_ub: [ 1 x_13_ ^ 2 - 2 x_75_ * x_13_ + 1 x_75_ ^ 2 + 1 y_13_ ^ 2 - 2 y_75_ * y_13_ + 1 y_75_ ^ 2 ] <= 2117.97
quadratic_ranged_327_ub: [ 1 x_39_ ^ 2 - 2 x_75_ * x_39_ + 1 x_75_ ^ 2 + 1 y_39_ ^ 2 - 2 y_75_ * y_39_ + 1 y_75_ ^ 2 ] <= 8849.62
quadratic_ranged_328_ub: [ 1 x_42_ ^ 2 - 2 x_75_ * x_42_ + 1 x_75_ ^ 2 + 1 y_42_ ^ 2 - 2 y_75_ * y_42_ + 1 y_75_ ^ 2 ] <= 34462.21
quadratic_ranged_329_ub: [ 1 x_59_ ^ 2 - 2 x_75_ * x_59_ + 1 x_75_ ^ 2 + 1 y_59_ ^ 2 - 2 y_75_ * y_59_ + 1 y_75_ ^ 2 ] <= 12391.69
quadratic_ranged_330_ub: [ 1 x_74_ ^ 2 - 2 x_75_ * x_74_ + 1 x_75_ ^ 2 + 1 y_74_ ^ 2 - 2 y_75_ * y_74_ + 1 y_75_ ^ 2 ] <= 5728.72
quadratic_ranged_331_ub: [ 1 x_13_ ^ 2 - 2 x_76_ * x_13_ + 1 x_76_ ^ 2 + 1 y_13_ ^ 2 - 2 y_76_ * y_13_ + 1 y_76_ ^ 2 ] <= 42776.53
quadratic_ranged_332_ub: [ 1 x_37_ ^ 2 - 2 x_76_ * x_37_ + 1 x_76_ ^ 2 + 1 y_37_ ^ 2 - 2 y_76_ * y_37_ + 1 y_76_ ^ 2 ] <= 33876.41
quadratic_ranged_333_ub: [ 1 x_51_ ^ 2 - 2 x_76_ * x_51_ + 1 x_76_ ^ 2 + 1 y_51_ ^ 2 - 2 y_76_ * y_51_ + 1 y_76_ ^ 2 ] <= 32798.74
quadratic_ranged_334_ub: [ 1 x_62_ ^ 2 - 2 x_76_ * x_62_ + 1 x_76_ ^ 2 + 1 y_62_ ^ 2 - 2 y_76_ * y_62_ + 1 y_76_ ^ 2 ] <= 40477.77
quadratic_ranged_335_ub: [ 1 x_63_ ^ 2 - 2 x_76_ * x_63_ + 1 x_76_ ^ 2 + 1 y_63_ ^ 2 - 2 y_76_ * y_63_ + 1 y_76_ ^ 2 ] <= 7615.4
quadratic_ranged_336_ub: [ 1 x_75_ ^ 2 - 2 x_76_ * x_75_ + 1 x_76_ ^ 2 + 1 y_75_ ^ 2 - 2 y_76_ * y_75_ + 1 y_76_ ^ 2 ] <= 48985
quadratic_ranged_337_ub: [ 1 x_3_ ^ 2 - 2 x_77_ * x_3_ + 1 x_77_ ^ 2 + 1 y_3_ ^ 2 - 2 y_77_ * y_3_ + 1 y_77_ ^ 2 ] <= 10606.01
quadratic_ranged_338_ub: [ 1 x_17_ ^ 2 - 2 x_77_ * x_17_ + 1 x_77_ ^ 2 + 1 y_17_ ^ 2 - 2 y_77_ * y_17_ + 1 y_77_ ^ 2 ] <= 6061.01
quadratic_ranged_339_ub: [ 1 x_19_ ^ 2 - 2 x_77_ * x_19_ + 1 x_77_ ^ 2 + 1 y_19_ ^ 2 - 2 y_77_ * y_19_ + 1 y_77_ ^ 2 ] <= 11171.61
quadratic_ranged_340_ub: [ 1 x_22_ ^ 2 - 2 x_77_ * x_22_ + 1 x_77_ ^ 2 + 1 y_22_ ^ 2 - 2 y_77_ * y_22_ + 1 y_77_ ^ 2 ] <= 16116.57
quadratic_ranged_341_ub: [ 1 x_29_ ^ 2 - 2 x_77_ * x_29_ + 1 x_77_ ^ 2 + 1 y_29_ ^ 2 - 2 y_77_ * y_29_ + 1 y_77_ ^ 2 ] <= 14973.25
quadratic_ranged_342_ub: [ 1 x_44_ ^ 2 - 2 x_77_ * x_44_ + 1 x_77_ ^ 2 + 1 y_44_ ^ 2 - 2 y_77_ * y_44_ + 1 y_77_ ^ 2 ] <= 22316.96
quadratic_ranged_343_ub: [ 1 x_50_ ^ 2 - 2 x_77_ * x_50_ + 1 x_77_ ^ 2 + 1 y_50_ ^ 2 - 2 y_77_ * y_50_ + 1 y_77_ ^ 2 ] <= 19918.21
quadratic_ranged_344_ub: [ 1 x_64_ ^ 2 - 2 x_77_ * x_64_ + 1 x_77_ ^ 2 + 1 y_64_ ^ 2 - 2 y_77_ * y_64_ + 1 y_77_ ^ 2 ] <= 42728.05
quadratic_ranged_345_ub: [ 1 x_65_ ^ 2 - 2 x_77_ * x_65_ + 1 x_77_ ^ 2 + 1 y_65_ ^ 2 - 2 y_77_ * y_65_ + 1 y_77_ ^ 2 ] <= 5252
quadratic_ranged_346_ub: [ 1 x_71_ ^ 2 - 2 x_77_ * x_71_ + 1 x_77_ ^ 2 + 1 y_71_ ^ 2 - 2 y_77_ * y_71_ + 1 y_77_ ^ 2 ] <= 26684.2
quadratic_ranged_347_ub: [ 1 x_76_ ^ 2 - 2 x_77_ * x_76_ + 1 x_77_ ^ 2 + 1 y_76_ ^ 2 - 2 y_77_ * y_76_ + 1 y_77_ ^ 2 ] <= 30587.85
quadratic_ranged_348_ub: [ 1 x_13_ ^ 2 - 2 x_78_ * x_13_ + 1 x_78_ ^ 2 + 1 y_13_ ^ 2 - 2 y_78_ * y_13_ + 1 y_78_ ^ 2 ] <= 42359.4
quadratic_ranged_349_ub: [ 1 x_14_ ^ 2 - 2 x_78_ * x_14_ + 1 x_78_ ^ 2 + 1 y_14_ ^ 2 - 2 y_78_ * y_14_ + 1 y_78_ ^ 2 ] <= 6436.7300000000005
quadratic_ranged_350_ub: [ 1 x_18_ ^ 2 - 2 x_78_ * x_18_ + 1 x_78_ ^ 2 + 1 y_18_ ^ 2 - 2 y_78_ * y_18_ + 1 y_78_ ^ 2 ] <= 22559.36
quadratic_ranged_351_ub: [ 1 x_36_ ^ 2 - 2 x_78_ * x_36_ + 1 x_78_ ^ 2 + 1 y_36_ ^ 2 - 2 y_78_ * y_36_ + 1 y_78_ ^ 2 ] <= 4182.41
quadratic_ranged_352_ub: [ 1 x_40_ ^ 2 - 2 x_78_ * x_40_ + 1 x_78_ ^ 2 + 1 y_40_ ^ 2 - 2 y_78_ * y_40_ + 1 y_78_ ^ 2 ] <= 1717
quadratic_ranged_353_ub: [ 1 x_43_ ^ 2 - 2 x_78_ * x_43_ + 1 x_78_ ^ 2 + 1 y_43_ ^ 2 - 2 y_78_ * y_43_ + 1 y_78_ ^ 2 ] <= 659.53
quadratic_ranged_354_ub: [ 1 x_45_ ^ 2 - 2 x_78_ * x_45_ + 1 x_78_ ^ 2 + 1 y_45_ ^ 2 - 2 y_78_ * y_45_ + 1 y_78_ ^ 2 ] <= 23765.3
quadratic_ranged_355_ub: [ 1 x_52_ ^ 2 - 2 x_78_ * x_52_ + 1 x_78_ ^ 2 + 1 y_52_ ^ 2 - 2 y_78_ * y_52_ + 1 y_78_ ^ 2 ] <= 47176.090000000004
quadratic_ranged_356_ub: [ 1 x_55_ ^ 2 - 2 x_78_ * x_55_ + 1 x_78_ ^ 2 + 1 y_55_ ^ 2 - 2 y_78_ * y_55_ + 1 y_78_ ^ 2 ] <= 24487.45
quadratic_ranged_357_ub: [ 1 x_57_ ^ 2 - 2 x_78_ * x_57_ + 1 x_78_ ^ 2 + 1 y_57_ ^ 2 - 2 y_78_ * y_57_ + 1 y_78_ ^ 2 ] <= 5591.36
quadratic_ranged_358_ub: [ 1 x_63_ ^ 2 - 2 x_78_ * x_63_ + 1 x_78_ ^ 2 + 1 y_63_ ^ 2 - 2 y_78_ * y_63_ + 1 y_78_ ^ 2 ] <= 6368.05
quadratic_ranged_359_ub: [ 1 x_66_ ^ 2 - 2 x_78_ * x_66_ + 1 x_78_ ^ 2 + 1 y_66_ ^ 2 - 2 y_78_ * y_66_ + 1 y_78_ ^ 2 ] <= 32224.05
quadratic_ranged_360_ub: [ 1 x_67_ ^ 2 - 2 x_78_ * x_67_ + 1 x_78_ ^ 2 + 1 y_67_ ^ 2 - 2 y_78_ * y_67_ + 1 y_78_ ^ 2 ] <= 26253.94
quadratic_ranged_361_ub: [ 1 x_71_ ^ 2 - 2 x_78_ * x_71_ + 1 x_78_ ^ 2 + 1 y_71_ ^ 2 - 2 y_78_ * y_71_ + 1 y_78_ ^ 2 ] <= 13382.5
quadratic_ranged_362_ub: [ 1 x_73_ ^ 2 - 2 x_78_ * x_73_ + 1 x_78_ ^ 2 + 1 y_73_ ^ 2 - 2 y_78_ * y_73_ + 1 y_78_ ^ 2 ] <= 24710.66
quadratic_ranged_363_ub: [ 1 x_77_ ^ 2 - 2 x_78_ * x_77_ + 1 x_78_ ^ 2 + 1 y_77_ ^ 2 - 2 y_78_ * y_77_ + 1 y_78_ ^ 2 ] <= 20048.5
quadratic_ranged_364_ub: [ 1 x_31_ ^ 2 - 2 x_79_ * x_31_ + 1 x_79_ ^ 2 + 1 y_31_ ^ 2 - 2 y_79_ * y_31_ + 1 y_79_ ^ 2 ] <= 1754.3700000000001
quadratic_ranged_365_ub: [ 1 x_52_ ^ 2 - 2 x_79_ * x_52_ + 1 x_79_ ^ 2 + 1 y_52_ ^ 2 - 2 y_79_ * y_52_ + 1 y_79_ ^ 2 ] <= 7615.4
quadratic_ranged_366_ub: [ 1 x_57_ ^ 2 - 2 x_79_ * x_57_ + 1 x_79_ ^ 2 + 1 y_57_ ^ 2 - 2 y_79_ * y_57_ + 1 y_79_ ^ 2 ] <= 4186.45
quadratic_ranged_367_ub: [ 1 x_59_ ^ 2 - 2 x_79_ * x_59_ + 1 x_79_ ^ 2 + 1 y_59_ ^ 2 - 2 y_79_ * y_59_ + 1 y_79_ ^ 2 ] <= 4045.05
quadratic_ranged_368_ub: [ 1 x_70_ ^ 2 - 2 x_79_ * x_70_ + 1 x_79_ ^ 2 + 1 y_70_ ^ 2 - 2 y_79_ * y_70_ + 1 y_79_ ^ 2 ] <= 2789.62
quadratic_ranged_369_ub: [ 1 x_75_ ^ 2 - 2 x_79_ * x_75_ + 1 x_79_ ^ 2 + 1 y_75_ ^ 2 - 2 y_79_ * y_75_ + 1 y_79_ ^ 2 ] <= 5304.52
quadratic_ranged_370_ub: [ 1 x_76_ ^ 2 - 2 x_79_ * x_76_ + 1 x_79_ ^ 2 + 1 y_76_ ^ 2 - 2 y_79_ * y_76_ + 1 y_79_ ^ 2 ] <= 22179.6
quadratic_ranged_371_ub: [ 1 x_78_ ^ 2 - 2 x_79_ * x_78_ + 1 x_79_ ^ 2 + 1 y_78_ ^ 2 - 2 y_79_ * y_78_ + 1 y_79_ ^ 2 ] <= 19287.97
quadratic_ranged_372_ub: [ 1 x_4_ ^ 2 - 2 x_80_ * x_4_ + 1 x_80_ ^ 2 + 1 y_4_ ^ 2 - 2 y_80_ * y_4_ + 1 y_80_ ^ 2 ] <= 2016.97
quadratic_ranged_373_ub: [ 1 x_20_ ^ 2 - 2 x_80_ * x_20_ + 1 x_80_ ^ 2 + 1 y_20_ ^ 2 - 2 y_80_ * y_20_ + 1 y_80_ ^ 2 ] <= 12867.4
quadratic_ranged_374_ub: [ 1 x_28_ ^ 2 - 2 x_80_ * x_28_ + 1 x_80_ ^ 2 + 1 y_28_ ^ 2 - 2 y_80_ * y_28_ + 1 y_80_ ^ 2 ] <= 30382.82
quadratic_ranged_375_ub: [ 1 x_29_ ^ 2 - 2 x_80_ * x_29_ + 1 x_80_ ^ 2 + 1 y_29_ ^ 2 - 2 y_80_ * y_29_ + 1 y_80_ ^ 2 ] <= 3886.48
quadratic_ranged_376_ub: [ 1 x_38_ ^ 2 - 2 x_80_ * x_38_ + 1 x_80_ ^ 2 + 1 y_38_ ^ 2 - 2 y_80_ * y_38_ + 1 y_80_ ^ 2 ] <= 46211.54
quadratic_ranged_377_ub: [ 1 x_62_ ^ 2 - 2 x_80_ * x_62_ + 1 x_80_ ^ 2 + 1 y_62_ ^ 2 - 2 y_80_ * y_62_ + 1 y_80_ ^ 2 ] <= 611.05
quadratic_ranged_378_ub: [ 1 x_64_ ^ 2 - 2 x_80_ * x_64_ + 1 x_80_ ^ 2 + 1 y_64_ ^ 2 - 2 y_80_ * y_64_ + 1 y_80_ ^ 2 ] <= 25052.04
quadratic_ranged_379_ub: [ 1 x_68_ ^ 2 - 2 x_80_ * x_68_ + 1 x_80_ ^ 2 + 1 y_68_ ^ 2 - 2 y_80_ * y_68_ + 1 y_80_ ^ 2 ] <= 48560.8
quadratic_ranged_380_ub: [ 1 x_70_ ^ 2 - 2 x_80_ * x_70_ + 1 x_80_ ^ 2 + 1 y_70_ ^ 2 - 2 y_80_ * y_70_ + 1 y_80_ ^ 2 ] <= 16929.62
quadratic_ranged_381_ub: [ 1 x_73_ ^ 2 - 2 x_80_ * x_73_ + 1 x_80_ ^ 2 + 1 y_73_ ^ 2 - 2 y_80_ * y_73_ + 1 y_80_ ^ 2 ] <= 6792.25
quadratic_ranged_382_ub: [ 1 x_79_ ^ 2 - 2 x_80_ * x_79_ + 1 x_80_ ^ 2 + 1 y_79_ ^ 2 - 2 y_80_ * y_79_ + 1 y_80_ ^ 2 ] <= 5983.24
quadratic_ranged_383_ub: [ 1 x_3_ ^ 2 - 2 x_81_ * x_3_ + 1 x_81_ ^ 2 + 1 y_3_ ^ 2 - 2 y_81_ * y_3_ + 1 y_81_ ^ 2 ] <= 6780.13
quadratic_ranged_384_ub: [ 1 x_21_ ^ 2 - 2 x_81_ * x_21_ + 1 x_81_ ^ 2 + 1 y_21_ ^ 2 - 2 y_81_ * y_21_ + 1 y_81_ ^ 2 ] <= 247.45
quadratic_ranged_385_ub: [ 1 x_31_ ^ 2 - 2 x_81_ * x_31_ + 1 x_81_ ^ 2 + 1 y_31_ ^ 2 - 2 y_81_ * y_31_ + 1 y_81_ ^ 2 ] <= 13384.52
quadratic_ranged_386_ub: [ 1 x_38_ ^ 2 - 2 x_81_ * x_38_ + 1 x_81_ ^ 2 + 1 y_38_ ^ 2 - 2 y_81_ * y_38_ + 1 y_81_ ^ 2 ] <= 17284.13
quadratic_ranged_387_ub: [ 1 x_48_ ^ 2 - 2 x_81_ * x_48_ + 1 x_81_ ^ 2 + 1 y_48_ ^ 2 - 2 y_81_ * y_48_ + 1 y_81_ ^ 2 ] <= 24281.41
quadratic_ranged_388_ub: [ 1 x_58_ ^ 2 - 2 x_81_ * x_58_ + 1 x_81_ ^ 2 + 1 y_58_ ^ 2 - 2 y_81_ * y_58_ + 1 y_81_ ^ 2 ] <= 8008.29
quadratic_ranged_389_ub: [ 1 x_68_ ^ 2 - 2 x_81_ * x_68_ + 1 x_81_ ^ 2 + 1 y_68_ ^ 2 - 2 y_81_ * y_68_ + 1 y_81_ ^ 2 ] <= 20661.57
quadratic_ranged_390_ub: [ 1 x_69_ ^ 2 - 2 x_81_ * x_69_ + 1 x_81_ ^ 2 + 1 y_69_ ^ 2 - 2 y_81_ * y_69_ + 1 y_81_ ^ 2 ] <= 446.42
quadratic_ranged_391_ub: [ 1 x_80_ ^ 2 - 2 x_81_ * x_80_ + 1 x_81_ ^ 2 + 1 y_80_ ^ 2 - 2 y_81_ * y_80_ + 1 y_81_ ^ 2 ] <= 22148.29
quadratic_ranged_392_ub: [ 1 x_5_ ^ 2 - 2 x_82_ * x_5_ + 1 x_82_ ^ 2 + 1 y_5_ ^ 2 - 2 y_82_ * y_5_ + 1 y_82_ ^ 2 ] <= 2716.9
quadratic_ranged_393_ub: [ 1 x_6_ ^ 2 - 2 x_82_ * x_6_ + 1 x_82_ ^ 2 + 1 y_6_ ^ 2 - 2 y_82_ * y_6_ + 1 y_82_ ^ 2 ] <= 505
quadratic_ranged_394_ub: [ 1 x_13_ ^ 2 - 2 x_82_ * x_13_ + 1 x_82_ ^ 2 + 1 y_13_ ^ 2 - 2 y_82_ * y_13_ + 1 y_82_ ^ 2 ] <= 17697.22
quadratic_ranged_395_ub: [ 1 x_22_ ^ 2 - 2 x_82_ * x_22_ + 1 x_82_ ^ 2 + 1 y_22_ ^ 2 - 2 y_82_ * y_22_ + 1 y_82_ ^ 2 ] <= 14864.17
quadratic_ranged_396_ub: [ 1 x_38_ ^ 2 - 2 x_82_ * x_38_ + 1 x_82_ ^ 2 + 1 y_38_ ^ 2 - 2 y_82_ * y_38_ + 1 y_82_ ^ 2 ] <= 11624.09
quadratic_ranged_397_ub: [ 1 x_67_ ^ 2 - 2 x_82_ * x_67_ + 1 x_82_ ^ 2 + 1 y_67_ ^ 2 - 2 y_82_ * y_67_ + 1 y_82_ ^ 2 ] <= 8940.52
quadratic_ranged_398_ub: [ 1 x_81_ ^ 2 - 2 x_82_ * x_81_ + 1 x_82_ ^ 2 + 1 y_81_ ^ 2 - 2 y_82_ * y_81_ + 1 y_82_ ^ 2 ] <= 15533.8
quadratic_ranged_399_ub: [ 1 x_15_ ^ 2 - 2 x_83_ * x_15_ + 1 x_83_ ^ 2 + 1 y_15_ ^ 2 - 2 y_83_ * y_15_ + 1 y_83_ ^ 2 ] <= 3467.33
quadratic_ranged_400_ub: [ 1 x_20_ ^ 2 - 2 x_83_ * x_20_ + 1 x_83_ ^ 2 + 1 y_20_ ^ 2 - 2 y_83_ * y_20_ + 1 y_83_ ^ 2 ] <= 13097.68
quadratic_ranged_401_ub: [ 1 x_25_ ^ 2 - 2 x_83_ * x_25_ + 1 x_83_ ^ 2 + 1 y_25_ ^ 2 - 2 y_83_ * y_25_ + 1 y_83_ ^ 2 ] <= 12399.77
quadratic_ranged_402_ub: [ 1 x_26_ ^ 2 - 2 x_83_ * x_26_ + 1 x_83_ ^ 2 + 1 y_26_ ^ 2 - 2 y_83_ * y_26_ + 1 y_83_ ^ 2 ] <= 925.16
quadratic_ranged_403_ub: [ 1 x_36_ ^ 2 - 2 x_83_ * x_36_ + 1 x_83_ ^ 2 + 1 y_36_ ^ 2 - 2 y_83_ * y_36_ + 1 y_83_ ^ 2 ] <= 3563.28
quadratic_ranged_404_ub: [ 1 x_62_ ^ 2 - 2 x_83_ * x_62_ + 1 x_83_ ^ 2 + 1 y_62_ ^ 2 - 2 y_83_ * y_62_ + 1 y_83_ ^ 2 ] <= 18447.65
quadratic_ranged_405_ub: [ 1 x_69_ ^ 2 - 2 x_83_ * x_69_ + 1 x_83_ ^ 2 + 1 y_69_ ^ 2 - 2 y_83_ * y_69_ + 1 y_83_ ^ 2 ] <= 2873.45
quadratic_ranged_406_ub: [ 1 x_78_ ^ 2 - 2 x_83_ * x_78_ + 1 x_83_ ^ 2 + 1 y_78_ ^ 2 - 2 y_83_ * y_78_ + 1 y_83_ ^ 2 ] <= 9357.65
quadratic_ranged_407_ub: [ 1 x_82_ ^ 2 - 2 x_83_ * x_82_ + 1 x_83_ ^ 2 + 1 y_82_ ^ 2 - 2 y_83_ * y_82_ + 1 y_83_ ^ 2 ] <= 9628.33
quadratic_ranged_408_ub: [ 1 x_17_ ^ 2 - 2 x_84_ * x_17_ + 1 x_84_ ^ 2 + 1 y_17_ ^ 2 - 2 y_84_ * y_17_ + 1 y_84_ ^ 2 ] <= 12133.13
quadratic_ranged_409_ub: [ 1 x_35_ ^ 2 - 2 x_84_ * x_35_ + 1 x_84_ ^ 2 + 1 y_35_ ^ 2 - 2 y_84_ * y_35_ + 1 y_84_ ^ 2 ] <= 3859.21
quadratic_ranged_410_ub: [ 1 x_45_ ^ 2 - 2 x_84_ * x_45_ + 1 x_84_ ^ 2 + 1 y_45_ ^ 2 - 2 y_84_ * y_45_ + 1 y_84_ ^ 2 ] <= 373.7
quadratic_ranged_411_ub: [ 1 x_48_ ^ 2 - 2 x_84_ * x_48_ + 1 x_84_ ^ 2 + 1 y_48_ ^ 2 - 2 y_84_ * y_48_ + 1 y_84_ ^ 2 ] <= 1641.25
quadratic_ranged_412_ub: [ 1 x_53_ ^ 2 - 2 x_84_ * x_53_ + 1 x_84_ ^ 2 + 1 y_53_ ^ 2 - 2 y_84_ * y_53_ + 1 y_84_ ^ 2 ] <= 14667.22
quadratic_ranged_413_ub: [ 1 x_64_ ^ 2 - 2 x_84_ * x_64_ + 1 x_84_ ^ 2 + 1 y_64_ ^ 2 - 2 y_84_ * y_64_ + 1 y_84_ ^ 2 ] <= 35298.49
quadratic_ranged_414_ub: [ 1 x_65_ ^ 2 - 2 x_84_ * x_65_ + 1 x_84_ ^ 2 + 1 y_65_ ^ 2 - 2 y_84_ * y_65_ + 1 y_84_ ^ 2 ] <= 1294.82
quadratic_ranged_415_ub: [ 1 x_73_ ^ 2 - 2 x_84_ * x_73_ + 1 x_84_ ^ 2 + 1 y_73_ ^ 2 - 2 y_84_ * y_73_ + 1 y_84_ ^ 2 ] <= 10796.9
quadratic_ranged_416_ub: [ 1 x_83_ ^ 2 - 2 x_84_ * x_83_ + 1 x_84_ ^ 2 + 1 y_83_ ^ 2 - 2 y_84_ * y_83_ + 1 y_84_ ^ 2 ] <= 23332.01
quadratic_ranged_417_ub: [ 1 x_8_ ^ 2 - 2 x_85_ * x_8_ + 1 x_85_ ^ 2 + 1 y_8_ ^ 2 - 2 y_85_ * y_8_ + 1 y_85_ ^ 2 ] <= 30470.69
quadratic_ranged_418_ub: [ 1 x_13_ ^ 2 - 2 x_85_ * x_13_ + 1 x_85_ ^ 2 + 1 y_13_ ^ 2 - 2 y_85_ * y_13_ + 1 y_85_ ^ 2 ] <= 48015.4
quadratic_ranged_419_ub: [ 1 x_19_ ^ 2 - 2 x_85_ * x_19_ + 1 x_85_ ^ 2 + 1 y_19_ ^ 2 - 2 y_85_ * y_19_ + 1 y_85_ ^ 2 ] <= 4372.29
quadratic_ranged_420_ub: [ 1 x_28_ ^ 2 - 2 x_85_ * x_28_ + 1 x_85_ ^ 2 + 1 y_28_ ^ 2 - 2 y_85_ * y_28_ + 1 y_85_ ^ 2 ] <= 27093.25
quadratic_ranged_421_ub: [ 1 x_37_ ^ 2 - 2 x_85_ * x_37_ + 1 x_85_ ^ 2 + 1 y_37_ ^ 2 - 2 y_85_ * y_37_ + 1 y_85_ ^ 2 ] <= 33976.4
quadratic_ranged_422_ub: [ 1 x_38_ ^ 2 - 2 x_85_ * x_38_ + 1 x_85_ ^ 2 + 1 y_38_ ^ 2 - 2 y_85_ * y_38_ + 1 y_85_ ^ 2 ] <= 267.65
quadratic_ranged_423_ub: [ 1 x_46_ ^ 2 - 2 x_85_ * x_46_ + 1 x_85_ ^ 2 + 1 y_46_ ^ 2 - 2 y_85_ * y_46_ + 1 y_85_ ^ 2 ] <= 41657.45
quadratic_ranged_424_ub: [ 1 x_49_ ^ 2 - 2 x_85_ * x_49_ + 1 x_85_ ^ 2 + 1 y_49_ ^ 2 - 2 y_85_ * y_49_ + 1 y_85_ ^ 2 ] <= 27207.38
quadratic_ranged_425_ub: [ 1 x_52_ ^ 2 - 2 x_85_ * x_52_ + 1 x_85_ ^ 2 + 1 y_52_ ^ 2 - 2 y_85_ * y_52_ + 1 y_85_ ^ 2 ] <= 52504.85
quadratic_ranged_426_ub: [ 1 x_60_ ^ 2 - 2 x_85_ * x_60_ + 1 x_85_ ^ 2 + 1 y_60_ ^ 2 - 2 y_85_ * y_60_ + 1 y_85_ ^ 2 ] <= 50254.57
quadratic_ranged_427_ub: [ 1 x_71_ ^ 2 - 2 x_85_ * x_71_ + 1 x_85_ ^ 2 + 1 y_71_ ^ 2 - 2 y_85_ * y_71_ + 1 y_85_ ^ 2 ] <= 13867.3
quadratic_ranged_428_ub: [ 1 x_78_ ^ 2 - 2 x_85_ * x_78_ + 1 x_85_ ^ 2 + 1 y_78_ ^ 2 - 2 y_85_ * y_78_ + 1 y_85_ ^ 2 ] <= 686.8
quadratic_ranged_429_ub: [ 1 x_84_ ^ 2 - 2 x_85_ * x_84_ + 1 x_85_ ^ 2 + 1 y_84_ ^ 2 - 2 y_85_ * y_84_ + 1 y_85_ ^ 2 ] <= 37592.2
quadratic_ranged_430_ub: [ 1 x_16_ ^ 2 - 2 x_86_ * x_16_ + 1 x_86_ ^ 2 + 1 y_16_ ^ 2 - 2 y_86_ * y_16_ + 1 y_86_ ^ 2 ] <= 6489.25
quadratic_ranged_431_ub: [ 1 x_23_ ^ 2 - 2 x_86_ * x_23_ + 1 x_86_ ^ 2 + 1 y_23_ ^ 2 - 2 y_86_ * y_23_ + 1 y_86_ ^ 2 ] <= 6110.5
quadratic_ranged_432_ub: [ 1 x_32_ ^ 2 - 2 x_86_ * x_32_ + 1 x_86_ ^ 2 + 1 y_32_ ^ 2 - 2 y_86_ * y_32_ + 1 y_86_ ^ 2 ] <= 2815.88
quadratic_ranged_433_ub: [ 1 x_37_ ^ 2 - 2 x_86_ * x_37_ + 1 x_86_ ^ 2 + 1 y_37_ ^ 2 - 2 y_86_ * y_37_ + 1 y_86_ ^ 2 ] <= 9649.54
quadratic_ranged_434_ub: [ 1 x_39_ ^ 2 - 2 x_86_ * x_39_ + 1 x_86_ ^ 2 + 1 y_39_ ^ 2 - 2 y_86_ * y_39_ + 1 y_86_ ^ 2 ] <= 10416.13
quadratic_ranged_435_ub: [ 1 x_73_ ^ 2 - 2 x_86_ * x_73_ + 1 x_86_ ^ 2 + 1 y_73_ ^ 2 - 2 y_86_ * y_73_ + 1 y_86_ ^ 2 ] <= 343.4
quadratic_ranged_436_ub: [ 1 x_79_ ^ 2 - 2 x_86_ * x_79_ + 1 x_86_ ^ 2 + 1 y_79_ ^ 2 - 2 y_86_ * y_79_ + 1 y_86_ ^ 2 ] <= 2683.57
quadratic_ranged_437_ub: [ 1 x_85_ ^ 2 - 2 x_86_ * x_85_ + 1 x_86_ ^ 2 + 1 y_85_ ^ 2 - 2 y_86_ * y_85_ + 1 y_86_ ^ 2 ] <= 33332.02
quadratic_ranged_438_ub: [ 1 x_20_ ^ 2 - 2 x_87_ * x_20_ + 1 x_87_ ^ 2 + 1 y_20_ ^ 2 - 2 y_87_ * y_20_ + 1 y_87_ ^ 2 ] <= 840.32
quadratic_ranged_439_ub: [ 1 x_22_ ^ 2 - 2 x_87_ * x_22_ + 1 x_87_ ^ 2 + 1 y_22_ ^ 2 - 2 y_87_ * y_22_ + 1 y_87_ ^ 2 ] <= 9479.86
quadratic_ranged_440_ub: [ 1 x_30_ ^ 2 - 2 x_87_ * x_30_ + 1 x_87_ ^ 2 + 1 y_30_ ^ 2 - 2 y_87_ * y_30_ + 1 y_87_ ^ 2 ] <= 16547.84
quadratic_ranged_441_ub: [ 1 x_38_ ^ 2 - 2 x_87_ * x_38_ + 1 x_87_ ^ 2 + 1 y_38_ ^ 2 - 2 y_87_ * y_38_ + 1 y_87_ ^ 2 ] <= 22351.3
quadratic_ranged_442_ub: [ 1 x_41_ ^ 2 - 2 x_87_ * x_41_ + 1 x_87_ ^ 2 + 1 y_41_ ^ 2 - 2 y_87_ * y_41_ + 1 y_87_ ^ 2 ] <= 26046.89
quadratic_ranged_443_ub: [ 1 x_42_ ^ 2 - 2 x_87_ * x_42_ + 1 x_87_ ^ 2 + 1 y_42_ ^ 2 - 2 y_87_ * y_42_ + 1 y_87_ ^ 2 ] <= 13179.49
quadratic_ranged_444_ub: [ 1 x_67_ ^ 2 - 2 x_87_ * x_67_ + 1 x_87_ ^ 2 + 1 y_67_ ^ 2 - 2 y_87_ * y_67_ + 1 y_87_ ^ 2 ] <= 8913.25
quadratic_ranged_445_ub: [ 1 x_86_ ^ 2 - 2 x_87_ * x_86_ + 1 x_87_ ^ 2 + 1 y_86_ ^ 2 - 2 y_87_ * y_86_ + 1 y_87_ ^ 2 ] <= 12844.17
quadratic_ranged_446_ub: [ 1 x_14_ ^ 2 - 2 x_88_ * x_14_ + 1 x_88_ ^ 2 + 1 y_14_ ^ 2 - 2 y_88_ * y_14_ + 1 y_88_ ^ 2 ] <= 14045.06
quadratic_ranged_447_ub: [ 1 x_17_ ^ 2 - 2 x_88_ * x_17_ + 1 x_88_ ^ 2 + 1 y_17_ ^ 2 - 2 y_88_ * y_17_ + 1 y_88_ ^ 2 ] <= 13736
quadratic_ranged_448_ub: [ 1 x_19_ ^ 2 - 2 x_88_ * x_19_ + 1 x_88_ ^ 2 + 1 y_19_ ^ 2 - 2 y_88_ * y_19_ + 1 y_88_ ^ 2 ] <= 7274.02
quadratic_ranged_449_ub: [ 1 x_32_ ^ 2 - 2 x_88_ * x_32_ + 1 x_88_ ^ 2 + 1 y_32_ ^ 2 - 2 y_88_ * y_32_ + 1 y_88_ ^ 2 ] <= 1116.05
quadratic_ranged_450_ub: [ 1 x_33_ ^ 2 - 2 x_88_ * x_33_ + 1 x_88_ ^ 2 + 1 y_33_ ^ 2 - 2 y_88_ * y_33_ + 1 y_88_ ^ 2 ] <= 9453.6
quadratic_ranged_451_ub: [ 1 x_38_ ^ 2 - 2 x_88_ * x_38_ + 1 x_88_ ^ 2 + 1 y_38_ ^ 2 - 2 y_88_ * y_38_ + 1 y_88_ ^ 2 ] <= 9407.14
quadratic_ranged_452_ub: [ 1 x_44_ ^ 2 - 2 x_88_ * x_44_ + 1 x_88_ ^ 2 + 1 y_44_ ^ 2 - 2 y_88_ * y_44_ + 1 y_88_ ^ 2 ] <= 631.25
quadratic_ranged_453_ub: [ 1 x_53_ ^ 2 - 2 x_88_ * x_53_ + 1 x_88_ ^ 2 + 1 y_53_ ^ 2 - 2 y_88_ * y_53_ + 1 y_88_ ^ 2 ] <= 24123.85
quadratic_ranged_454_ub: [ 1 x_58_ ^ 2 - 2 x_88_ * x_58_ + 1 x_88_ ^ 2 + 1 y_58_ ^ 2 - 2 y_88_ * y_58_ + 1 y_88_ ^ 2 ] <= 7524.5
quadratic_ranged_455_ub: [ 1 x_61_ ^ 2 - 2 x_88_ * x_61_ + 1 x_88_ ^ 2 + 1 y_61_ ^ 2 - 2 y_88_ * y_61_ + 1 y_88_ ^ 2 ] <= 21688.74
quadratic_ranged_456_ub: [ 1 x_82_ ^ 2 - 2 x_88_ * x_82_ + 1 x_88_ ^ 2 + 1 y_82_ ^ 2 - 2 y_88_ * y_82_ + 1 y_88_ ^ 2 ] <= 11737.210000000001
quadratic_ranged_457_ub: [ 1 x_87_ ^ 2 - 2 x_88_ * x_87_ + 1 x_88_ ^ 2 + 1 y_87_ ^ 2 - 2 y_88_ * y_87_ + 1 y_88_ ^ 2 ] <= 18979.920000000002
quadratic_ranged_458_ub: [ 1 x_5_ ^ 2 - 2 x_89_ * x_5_ + 1 x_89_ ^ 2 + 1 y_5_ ^ 2 - 2 y_89_ * y_5_ + 1 y_89_ ^ 2 ] <= 22750.25
quadratic_ranged_459_ub: [ 1 x_21_ ^ 2 - 2 x_89_ * x_21_ + 1 x_89_ ^ 2 + 1 y_21_ ^ 2 - 2 y_89_ * y_21_ + 1 y_89_ ^ 2 ] <= 747.4
quadratic_ranged_460_ub: [ 1 x_39_ ^ 2 - 2 x_89_ * x_39_ + 1 x_89_ ^ 2 + 1 y_39_ ^ 2 - 2 y_89_ * y_39_ + 1 y_89_ ^ 2 ] <= 13342.1
quadratic_ranged_461_ub: [ 1 x_63_ ^ 2 - 2 x_89_ * x_63_ + 1 x_89_ ^ 2 + 1 y_63_ ^ 2 - 2 y_89_ * y_63_ + 1 y_89_ ^ 2 ] <= 2638.12
quadratic_ranged_462_ub: [ 1 x_64_ ^ 2 - 2 x_89_ * x_64_ + 1 x_89_ ^ 2 + 1 y_64_ ^ 2 - 2 y_89_ * y_64_ + 1 y_89_ ^ 2 ] <= 5252
quadratic_ranged_463_ub: [ 1 x_68_ ^ 2 - 2 x_89_ * x_68_ + 1 x_89_ ^ 2 + 1 y_68_ ^ 2 - 2 y_89_ * y_68_ + 1 y_89_ ^ 2 ] <= 13352.2
quadratic_ranged_464_ub: [ 1 x_88_ ^ 2 - 2 x_89_ * x_88_ + 1 x_89_ ^ 2 + 1 y_88_ ^ 2 - 2 y_89_ * y_88_ + 1 y_89_ ^ 2 ] <= 161.6
quadratic_ranged_465_ub: [ 1 x_8_ ^ 2 - 2 x_90_ * x_8_ + 1 x_90_ ^ 2 + 1 y_8_ ^ 2 - 2 y_90_ * y_8_ + 1 y_90_ ^ 2 ] <= 4704.58
quadratic_ranged_466_ub: [ 1 x_21_ ^ 2 - 2 x_90_ * x_21_ + 1 x_90_ ^ 2 + 1 y_21_ ^ 2 - 2 y_90_ * y_21_ + 1 y_90_ ^ 2 ] <= 6633.68
quadratic_ranged_467_ub: [ 1 x_29_ ^ 2 - 2 x_90_ * x_29_ + 1 x_90_ ^ 2 + 1 y_29_ ^ 2 - 2 y_90_ * y_29_ + 1 y_90_ ^ 2 ] <= 1171.6
quadratic_ranged_468_ub: [ 1 x_30_ ^ 2 - 2 x_90_ * x_30_ + 1 x_90_ ^ 2 + 1 y_30_ ^ 2 - 2 y_90_ * y_30_ + 1 y_90_ ^ 2 ] <= 7680.04
quadratic_ranged_469_ub: [ 1 x_35_ ^ 2 - 2 x_90_ * x_35_ + 1 x_90_ ^ 2 + 1 y_35_ ^ 2 - 2 y_90_ * y_35_ + 1 y_90_ ^ 2 ] <= 5035.86
quadratic_ranged_470_ub: [ 1 x_40_ ^ 2 - 2 x_90_ * x_40_ + 1 x_90_ ^ 2 + 1 y_40_ ^ 2 - 2 y_90_ * y_40_ + 1 y_90_ ^ 2 ] <= 9769.73
quadratic_ranged_471_ub: [ 1 x_42_ ^ 2 - 2 x_90_ * x_42_ + 1 x_90_ ^ 2 + 1 y_42_ ^ 2 - 2 y_90_ * y_42_ + 1 y_90_ ^ 2 ] <= 12755.29
quadratic_ranged_472_ub: [ 1 x_48_ ^ 2 - 2 x_90_ * x_48_ + 1 x_90_ ^ 2 + 1 y_48_ ^ 2 - 2 y_90_ * y_48_ + 1 y_90_ ^ 2 ] <= 8308.26
quadratic_ranged_473_ub: [ 1 x_57_ ^ 2 - 2 x_90_ * x_57_ + 1 x_90_ ^ 2 + 1 y_57_ ^ 2 - 2 y_90_ * y_57_ + 1 y_90_ ^ 2 ] <= 3830.93
quadratic_ranged_474_ub: [ 1 x_83_ ^ 2 - 2 x_90_ * x_83_ + 1 x_90_ ^ 2 + 1 y_83_ ^ 2 - 2 y_90_ * y_83_ + 1 y_90_ ^ 2 ] <= 5207.56
quadratic_ranged_475_ub: [ 1 x_87_ ^ 2 - 2 x_90_ * x_87_ + 1 x_90_ ^ 2 + 1 y_87_ ^ 2 - 2 y_90_ * y_87_ + 1 y_90_ ^ 2 ] <= 6128.68
quadratic_ranged_476_ub: [ 1 x_89_ ^ 2 - 2 x_90_ * x_89_ + 1 x_90_ ^ 2 + 1 y_89_ ^ 2 - 2 y_90_ * y_89_ + 1 y_90_ ^ 2 ] <= 3882.44
quadratic_ranged_477_ub: [ 1 x_2_ ^ 2 - 2 x_91_ * x_2_ + 1 x_91_ ^ 2 + 1 y_2_ ^ 2 - 2 y_91_ * y_2_ + 1 y_91_ ^ 2 ] <= 13255.24
quadratic_ranged_478_ub: [ 1 x_6_ ^ 2 - 2 x_91_ * x_6_ + 1 x_91_ ^ 2 + 1 y_6_ ^ 2 - 2 y_91_ * y_6_ + 1 y_91_ ^ 2 ] <= 6676.1
quadratic_ranged_479_ub: [ 1 x_11_ ^ 2 - 2 x_91_ * x_11_ + 1 x_91_ ^ 2 + 1 y_11_ ^ 2 - 2 y_91_ * y_11_ + 1 y_91_ ^ 2 ] <= 3258.26
quadratic_ranged_480_ub: [ 1 x_31_ ^ 2 - 2 x_91_ * x_31_ + 1 x_91_ ^ 2 + 1 y_31_ ^ 2 - 2 y_91_ * y_31_ + 1 y_91_ ^ 2 ] <= 16800.34
quadratic_ranged_481_ub: [ 1 x_34_ ^ 2 - 2 x_91_ * x_34_ + 1 x_91_ ^ 2 + 1 y_34_ ^ 2 - 2 y_91_ * y_34_ + 1 y_91_ ^ 2 ] <= 343.4
quadratic_ranged_482_ub: [ 1 x_41_ ^ 2 - 2 x_91_ * x_41_ + 1 x_91_ ^ 2 + 1 y_41_ ^ 2 - 2 y_91_ * y_41_ + 1 y_91_ ^ 2 ] <= 6334.72
quadratic_ranged_483_ub: [ 1 x_70_ ^ 2 - 2 x_91_ * x_70_ + 1 x_91_ ^ 2 + 1 y_70_ ^ 2 - 2 y_91_ * y_70_ + 1 y_91_ ^ 2 ] <= 2190.69
quadratic_ranged_484_ub: [ 1 x_75_ ^ 2 - 2 x_91_ * x_75_ + 1 x_91_ ^ 2 + 1 y_75_ ^ 2 - 2 y_91_ * y_75_ + 1 y_91_ ^ 2 ] <= 26046.89
quadratic_ranged_485_ub: [ 1 x_78_ ^ 2 - 2 x_91_ * x_78_ + 1 x_91_ ^ 2 + 1 y_78_ ^ 2 - 2 y_91_ * y_78_ + 1 y_91_ ^ 2 ] <= 2525
quadratic_ranged_486_ub: [ 1 x_85_ ^ 2 - 2 x_91_ * x_85_ + 1 x_91_ ^ 2 + 1 y_85_ ^ 2 - 2 y_91_ * y_85_ + 1 y_91_ ^ 2 ] <= 4625.8
quadratic_ranged_487_ub: [ 1 x_90_ ^ 2 - 2 x_91_ * x_90_ + 1 x_91_ ^ 2 + 1 y_90_ ^ 2 - 2 y_91_ * y_90_ + 1 y_91_ ^ 2 ] <= 7466.93
quadratic_ranged_488_ub: [ 1 x_7_ ^ 2 - 2 x_92_ * x_7_ + 1 x_92_ ^ 2 + 1 y_7_ ^ 2 - 2 y_92_ * y_7_ + 1 y_92_ ^ 2 ] <= 9716.2
quadratic_ranged_489_ub: [ 1 x_13_ ^ 2 - 2 x_92_ * x_13_ + 1 x_92_ ^ 2 + 1 y_13_ ^ 2 - 2 y_92_ * y_13_ + 1 y_92_ ^ 2 ] <= 13.13
quadratic_ranged_490_ub: [ 1 x_20_ ^ 2 - 2 x_92_ * x_20_ + 1 x_92_ ^ 2 + 1 y_20_ ^ 2 - 2 y_92_ * y_20_ + 1 y_92_ ^ 2 ] <= 19234.44
quadratic_ranged_491_ub: [ 1 x_45_ ^ 2 - 2 x_92_ * x_45_ + 1 x_92_ ^ 2 + 1 y_45_ ^ 2 - 2 y_92_ * y_45_ + 1 y_92_ ^ 2 ] <= 12597.73
quadratic_ranged_492_ub: [ 1 x_48_ ^ 2 - 2 x_92_ * x_48_ + 1 x_92_ ^ 2 + 1 y_48_ ^ 2 - 2 y_92_ * y_48_ + 1 y_92_ ^ 2 ] <= 20048.5
quadratic_ranged_493_ub: [ 1 x_53_ ^ 2 - 2 x_92_ * x_53_ + 1 x_92_ ^ 2 + 1 y_53_ ^ 2 - 2 y_92_ * y_53_ + 1 y_92_ ^ 2 ] <= 1116.05
quadratic_ranged_494_ub: [ 1 x_59_ ^ 2 - 2 x_92_ * x_59_ + 1 x_92_ ^ 2 + 1 y_59_ ^ 2 - 2 y_92_ * y_59_ + 1 y_92_ ^ 2 ] <= 6206.45
quadratic_ranged_495_ub: [ 1 x_73_ ^ 2 - 2 x_92_ * x_73_ + 1 x_92_ ^ 2 + 1 y_73_ ^ 2 - 2 y_92_ * y_73_ + 1 y_92_ ^ 2 ] <= 2380.57
quadratic_ranged_496_ub: [ 1 x_82_ ^ 2 - 2 x_92_ * x_82_ + 1 x_92_ ^ 2 + 1 y_82_ ^ 2 - 2 y_92_ * y_82_ + 1 y_92_ ^ 2 ] <= 18124.45
quadratic_ranged_497_ub: [ 1 x_88_ ^ 2 - 2 x_92_ * x_88_ + 1 x_92_ ^ 2 + 1 y_88_ ^ 2 - 2 y_92_ * y_88_ + 1 y_92_ ^ 2 ] <= 15178.28
quadratic_ranged_498_ub: [ 1 x_91_ ^ 2 - 2 x_92_ * x_91_ + 1 x_92_ ^ 2 + 1 y_91_ ^ 2 - 2 y_92_ * y_91_ + 1 y_92_ ^ 2 ] <= 24362.21
quadratic_ranged_499_ub: [ 1 x_4_ ^ 2 - 2 x_93_ * x_4_ + 1 x_93_ ^ 2 + 1 y_4_ ^ 2 - 2 y_93_ * y_4_ + 1 y_93_ ^ 2 ] <= 12978.5
quadratic_ranged_500_ub: [ 1 x_6_ ^ 2 - 2 x_93_ * x_6_ + 1 x_93_ ^ 2 + 1 y_6_ ^ 2 - 2 y_93_ * y_6_ + 1 y_93_ ^ 2 ] <= 6464
quadratic_ranged_501_ub: [ 1 x_13_ ^ 2 - 2 x_93_ * x_13_ + 1 x_93_ ^ 2 + 1 y_13_ ^ 2 - 2 y_93_ * y_13_ + 1 y_93_ ^ 2 ] <= 10061.62
quadratic_ranged_502_ub: [ 1 x_39_ ^ 2 - 2 x_93_ * x_39_ + 1 x_93_ ^ 2 + 1 y_39_ ^ 2 - 2 y_93_ * y_39_ + 1 y_93_ ^ 2 ] <= 6258.97
quadratic_ranged_503_ub: [ 1 x_43_ ^ 2 - 2 x_93_ * x_43_ + 1 x_93_ ^ 2 + 1 y_43_ ^ 2 - 2 y_93_ * y_43_ + 1 y_93_ ^ 2 ] <= 9018.29
quadratic_ranged_504_ub: [ 1 x_49_ ^ 2 - 2 x_93_ * x_49_ + 1 x_93_ ^ 2 + 1 y_49_ ^ 2 - 2 y_93_ * y_49_ + 1 y_93_ ^ 2 ] <= 2945.16
quadratic_ranged_505_ub: [ 1 x_51_ ^ 2 - 2 x_93_ * x_51_ + 1 x_93_ ^ 2 + 1 y_51_ ^ 2 - 2 y_93_ * y_51_ + 1 y_93_ ^ 2 ] <= 9418.25
quadratic_ranged_506_ub: [ 1 x_71_ ^ 2 - 2 x_93_ * x_71_ + 1 x_93_ ^ 2 + 1 y_71_ ^ 2 - 2 y_93_ * y_71_ + 1 y_93_ ^ 2 ] <= 2185.64
quadratic_ranged_507_ub: [ 1 x_92_ ^ 2 - 2 x_93_ * x_92_ + 1 x_93_ ^ 2 + 1 y_92_ ^ 2 - 2 y_93_ * y_92_ + 1 y_93_ ^ 2 ] <= 10024.25
quadratic_ranged_508_ub: [ 1 x_12_ ^ 2 - 2 x_94_ * x_12_ + 1 x_94_ ^ 2 + 1 y_12_ ^ 2 - 2 y_94_ * y_12_ + 1 y_94_ ^ 2 ] <= 20466.64
quadratic_ranged_509_ub: [ 1 x_32_ ^ 2 - 2 x_94_ * x_32_ + 1 x_94_ ^ 2 + 1 y_32_ ^ 2 - 2 y_94_ * y_32_ + 1 y_94_ ^ 2 ] <= 9085.960000000001
quadratic_ranged_510_ub: [ 1 x_36_ ^ 2 - 2 x_94_ * x_36_ + 1 x_94_ ^ 2 + 1 y_36_ ^ 2 - 2 y_94_ * y_36_ + 1 y_94_ ^ 2 ] <= 570.65
quadratic_ranged_511_ub: [ 1 x_76_ ^ 2 - 2 x_94_ * x_76_ + 1 x_94_ ^ 2 + 1 y_76_ ^ 2 - 2 y_94_ * y_76_ + 1 y_94_ ^ 2 ] <= 853.45
quadratic_ranged_512_ub: [ 1 x_78_ ^ 2 - 2 x_94_ * x_78_ + 1 x_94_ ^ 2 + 1 y_78_ ^ 2 - 2 y_94_ * y_78_ + 1 y_94_ ^ 2 ] <= 2215.94
quadratic_ranged_513_ub: [ 1 x_83_ ^ 2 - 2 x_94_ * x_83_ + 1 x_94_ ^ 2 + 1 y_83_ ^ 2 - 2 y_94_ * y_83_ + 1 y_94_ ^ 2 ] <= 3031.01
quadratic_ranged_514_ub: [ 1 x_93_ ^ 2 - 2 x_94_ * x_93_ + 1 x_94_ ^ 2 + 1 y_93_ ^ 2 - 2 y_94_ * y_93_ + 1 y_94_ ^ 2 ] <= 6161
quadratic_ranged_515_ub: [ 1 x_2_ ^ 2 - 2 x_95_ * x_2_ + 1 x_95_ ^ 2 + 1 y_2_ ^ 2 - 2 y_95_ * y_2_ + 1 y_95_ ^ 2 ] <= 32470.49
quadratic_ranged_516_ub: [ 1 x_8_ ^ 2 - 2 x_95_ * x_8_ + 1 x_95_ ^ 2 + 1 y_8_ ^ 2 - 2 y_95_ * y_8_ + 1 y_95_ ^ 2 ] <= 634.28
quadratic_ranged_517_ub: [ 1 x_22_ ^ 2 - 2 x_95_ * x_22_ + 1 x_95_ ^ 2 + 1 y_22_ ^ 2 - 2 y_95_ * y_22_ + 1 y_95_ ^ 2 ] <= 16071.12
quadratic_ranged_518_ub: [ 1 x_28_ ^ 2 - 2 x_95_ * x_28_ + 1 x_95_ ^ 2 + 1 y_28_ ^ 2 - 2 y_95_ * y_28_ + 1 y_95_ ^ 2 ] <= 1523.08
quadratic_ranged_519_ub: [ 1 x_37_ ^ 2 - 2 x_95_ * x_37_ + 1 x_95_ ^ 2 + 1 y_37_ ^ 2 - 2 y_95_ * y_37_ + 1 y_95_ ^ 2 ] <= 18071.93
quadratic_ranged_520_ub: [ 1 x_42_ ^ 2 - 2 x_95_ * x_42_ + 1 x_95_ ^ 2 + 1 y_42_ ^ 2 - 2 y_95_ * y_42_ + 1 y_95_ ^ 2 ] <= 16807.41
quadratic_ranged_521_ub: [ 1 x_44_ ^ 2 - 2 x_95_ * x_44_ + 1 x_95_ ^ 2 + 1 y_44_ ^ 2 - 2 y_95_ * y_44_ + 1 y_95_ ^ 2 ] <= 4000.61
quadratic_ranged_522_ub: [ 1 x_47_ ^ 2 - 2 x_95_ * x_47_ + 1 x_95_ ^ 2 + 1 y_47_ ^ 2 - 2 y_95_ * y_47_ + 1 y_95_ ^ 2 ] <= 12453.3
quadratic_ranged_523_ub: [ 1 x_49_ ^ 2 - 2 x_95_ * x_49_ + 1 x_95_ ^ 2 + 1 y_49_ ^ 2 - 2 y_95_ * y_49_ + 1 y_95_ ^ 2 ] <= 667.61
quadratic_ranged_524_ub: [ 1 x_90_ ^ 2 - 2 x_95_ * x_90_ + 1 x_95_ ^ 2 + 1 y_90_ ^ 2 - 2 y_95_ * y_90_ + 1 y_95_ ^ 2 ] <= 4025.86
quadratic_ranged_525_ub: [ 1 x_94_ ^ 2 - 2 x_95_ * x_94_ + 1 x_95_ ^ 2 + 1 y_94_ ^ 2 - 2 y_95_ * y_94_ + 1 y_95_ ^ 2 ] <= 10937.29
quadratic_ranged_526_ub: [ 1 x_8_ ^ 2 - 2 x_96_ * x_8_ + 1 x_96_ ^ 2 + 1 y_8_ ^ 2 - 2 y_96_ * y_8_ + 1 y_96_ ^ 2 ] <= 10512.08
quadratic_ranged_527_ub: [ 1 x_16_ ^ 2 - 2 x_96_ * x_16_ + 1 x_96_ ^ 2 + 1 y_16_ ^ 2 - 2 y_96_ * y_16_ + 1 y_96_ ^ 2 ] <= 2981.52
quadratic_ranged_528_ub: [ 1 x_58_ ^ 2 - 2 x_96_ * x_58_ + 1 x_96_ ^ 2 + 1 y_58_ ^ 2 - 2 y_96_ * y_58_ + 1 y_96_ ^ 2 ] <= 7276.04
quadratic_ranged_529_ub: [ 1 x_62_ ^ 2 - 2 x_96_ * x_62_ + 1 x_96_ ^ 2 + 1 y_62_ ^ 2 - 2 y_96_ * y_62_ + 1 y_96_ ^ 2 ] <= 1467.53
quadratic_ranged_530_ub: [ 1 x_74_ ^ 2 - 2 x_96_ * x_74_ + 1 x_96_ ^ 2 + 1 y_74_ ^ 2 - 2 y_96_ * y_74_ + 1 y_96_ ^ 2 ] <= 4009.7
quadratic_ranged_531_ub: [ 1 x_90_ ^ 2 - 2 x_96_ * x_90_ + 1 x_96_ ^ 2 + 1 y_90_ ^ 2 - 2 y_96_ * y_90_ + 1 y_96_ ^ 2 ] <= 6142.82
quadratic_ranged_532_ub: [ 1 x_95_ ^ 2 - 2 x_96_ * x_95_ + 1 x_96_ ^ 2 + 1 y_95_ ^ 2 - 2 y_96_ * y_95_ + 1 y_96_ ^ 2 ] <= 13529.960000000001
quadratic_ranged_533_ub: [ 1 x_4_ ^ 2 - 2 x_97_ * x_4_ + 1 x_97_ ^ 2 + 1 y_4_ ^ 2 - 2 y_97_ * y_4_ + 1 y_97_ ^ 2 ] <= 19090.01
quadratic_ranged_534_ub: [ 1 x_5_ ^ 2 - 2 x_97_ * x_5_ + 1 x_97_ ^ 2 + 1 y_5_ ^ 2 - 2 y_97_ * y_5_ + 1 y_97_ ^ 2 ] <= 34143.05
quadratic_ranged_535_ub: [ 1 x_19_ ^ 2 - 2 x_97_ * x_19_ + 1 x_97_ ^ 2 + 1 y_19_ ^ 2 - 2 y_97_ * y_19_ + 1 y_97_ ^ 2 ] <= 14739.94
quadratic_ranged_536_ub: [ 1 x_25_ ^ 2 - 2 x_97_ * x_25_ + 1 x_97_ ^ 2 + 1 y_25_ ^ 2 - 2 y_97_ * y_25_ + 1 y_97_ ^ 2 ] <= 7531.57
quadratic_ranged_537_ub: [ 1 x_96_ ^ 2 - 2 x_97_ * x_96_ + 1 x_97_ ^ 2 + 1 y_96_ ^ 2 - 2 y_97_ * y_96_ + 1 y_97_ ^ 2 ] <= 19878.82
quadratic_ranged_538_ub: [ 1 x_1_ ^ 2 - 2 x_98_ * x_1_ + 1 x_98_ ^ 2 + 1 y_1_ ^ 2 - 2 y_98_ * y_1_ + 1 y_98_ ^ 2 ] <= 11882.65
quadratic_ranged_539_ub: [ 1 x_5_ ^ 2 - 2 x_98_ * x_5_ + 1 x_98_ ^ 2 + 1 y_5_ ^ 2 - 2 y_98_ * y_5_ + 1 y_98_ ^ 2 ] <= 11105.960000000001
quadratic_ranged_540_ub: [ 1 x_10_ ^ 2 - 2 x_98_ * x_10_ + 1 x_98_ ^ 2 + 1 y_10_ ^ 2 - 2 y_98_ * y_10_ + 1 y_98_ ^ 2 ] <= 10085.86
quadratic_ranged_541_ub: [ 1 x_15_ ^ 2 - 2 x_98_ * x_15_ + 1 x_98_ ^ 2 + 1 y_15_ ^ 2 - 2 y_98_ * y_15_ + 1 y_98_ ^ 2 ] <= 6625.6
quadratic_ranged_542_ub: [ 1 x_16_ ^ 2 - 2 x_98_ * x_16_ + 1 x_98_ ^ 2 + 1 y_16_ ^ 2 - 2 y_98_ * y_16_ + 1 y_98_ ^ 2 ] <= 4146.05
quadratic_ranged_543_ub: [ 1 x_23_ ^ 2 - 2 x_98_ * x_23_ + 1 x_98_ ^ 2 + 1 y_23_ ^ 2 - 2 y_98_ * y_23_ + 1 y_98_ ^ 2 ] <= 1506.92
quadratic_ranged_544_ub: [ 1 x_24_ ^ 2 - 2 x_98_ * x_24_ + 1 x_98_ ^ 2 + 1 y_24_ ^ 2 - 2 y_98_ * y_24_ + 1 y_98_ ^ 2 ] <= 10193.93
quadratic_ranged_545_ub: [ 1 x_35_ ^ 2 - 2 x_98_ * x_35_ + 1 x_98_ ^ 2 + 1 y_35_ ^ 2 - 2 y_98_ * y_35_ + 1 y_98_ ^ 2 ] <= 4897.49
quadratic_ranged_546_ub: [ 1 x_36_ ^ 2 - 2 x_98_ * x_36_ + 1 x_98_ ^ 2 + 1 y_36_ ^ 2 - 2 y_98_ * y_36_ + 1 y_98_ ^ 2 ] <= 16294.33
quadratic_ranged_547_ub: [ 1 x_42_ ^ 2 - 2 x_98_ * x_42_ + 1 x_98_ ^ 2 + 1 y_42_ ^ 2 - 2 y_98_ * y_42_ + 1 y_98_ ^ 2 ] <= 12867.4
quadratic_ranged_548_ub: [ 1 x_45_ ^ 2 - 2 x_98_ * x_45_ + 1 x_98_ ^ 2 + 1 y_45_ ^ 2 - 2 y_98_ * y_45_ + 1 y_98_ ^ 2 ] <= 5383.3
quadratic_ranged_549_ub: [ 1 x_46_ ^ 2 - 2 x_98_ * x_46_ + 1 x_98_ ^ 2 + 1 y_46_ ^ 2 - 2 y_98_ * y_46_ + 1 y_98_ ^ 2 ] <= 3338.05
quadratic_ranged_550_ub: [ 1 x_57_ ^ 2 - 2 x_98_ * x_57_ + 1 x_98_ ^ 2 + 1 y_57_ ^ 2 - 2 y_98_ * y_57_ + 1 y_98_ ^ 2 ] <= 3898.6
quadratic_ranged_551_ub: [ 1 x_66_ ^ 2 - 2 x_98_ * x_66_ + 1 x_98_ ^ 2 + 1 y_66_ ^ 2 - 2 y_98_ * y_66_ + 1 y_98_ ^ 2 ] <= 14775.29
quadratic_ranged_552_ub: [ 1 x_69_ ^ 2 - 2 x_98_ * x_69_ + 1 x_98_ ^ 2 + 1 y_69_ ^ 2 - 2 y_98_ * y_69_ + 1 y_98_ ^ 2 ] <= 2864.36
quadratic_ranged_553_ub: [ 1 x_77_ ^ 2 - 2 x_98_ * x_77_ + 1 x_98_ ^ 2 + 1 y_77_ ^ 2 - 2 y_98_ * y_77_ + 1 y_98_ ^ 2 ] <= 11758.42
quadratic_ranged_554_ub: [ 1 x_88_ ^ 2 - 2 x_98_ * x_88_ + 1 x_98_ ^ 2 + 1 y_88_ ^ 2 - 2 y_98_ * y_88_ + 1 y_98_ ^ 2 ] <= 5697.41
quadratic_ranged_555_ub: [ 1 x_92_ ^ 2 - 2 x_98_ * x_92_ + 1 x_98_ ^ 2 + 1 y_92_ ^ 2 - 2 y_98_ * y_92_ + 1 y_98_ ^ 2 ] <= 4873.25
quadratic_ranged_556_ub: [ 1 x_93_ ^ 2 - 2 x_98_ * x_93_ + 1 x_98_ ^ 2 + 1 y_93_ ^ 2 - 2 y_98_ * y_93_ + 1 y_98_ ^ 2 ] <= 1262.5
quadratic_ranged_557_ub: [ 1 x_97_ ^ 2 - 2 x_98_ * x_97_ + 1 x_98_ ^ 2 + 1 y_97_ ^ 2 - 2 y_98_ * y_97_ + 1 y_98_ ^ 2 ] <= 7660.85
quadratic_ranged_558_ub: [ 1 x_13_ ^ 2 - 2 x_99_ * x_13_ + 1 x_99_ ^ 2 + 1 y_13_ ^ 2 - 2 y_99_ * y_13_ + 1 y_99_ ^ 2 ] <= 24726.82
quadratic_ranged_559_ub: [ 1 x_14_ ^ 2 - 2 x_99_ * x_14_ + 1 x_99_ ^ 2 + 1 y_14_ ^ 2 - 2 y_99_ * y_14_ + 1 y_99_ ^ 2 ] <= 158.57
quadratic_ranged_560_ub: [ 1 x_16_ ^ 2 - 2 x_99_ * x_16_ + 1 x_99_ ^ 2 + 1 y_16_ ^ 2 - 2 y_99_ * y_16_ + 1 y_99_ ^ 2 ] <= 13151.210000000001
quadratic_ranged_561_ub: [ 1 x_18_ ^ 2 - 2 x_99_ * x_18_ + 1 x_99_ ^ 2 + 1 y_18_ ^ 2 - 2 y_99_ * y_18_ + 1 y_99_ ^ 2 ] <= 15523.7
quadratic_ranged_562_ub: [ 1 x_33_ ^ 2 - 2 x_99_ * x_33_ + 1 x_99_ ^ 2 + 1 y_33_ ^ 2 - 2 y_99_ * y_33_ + 1 y_99_ ^ 2 ] <= 1786.69
quadratic_ranged_563_ub: [ 1 x_38_ ^ 2 - 2 x_99_ * x_38_ + 1 x_99_ ^ 2 + 1 y_38_ ^ 2 - 2 y_99_ * y_38_ + 1 y_99_ ^ 2 ] <= 6727.61
quadratic_ranged_564_ub: [ 1 x_45_ ^ 2 - 2 x_99_ * x_45_ + 1 x_99_ ^ 2 + 1 y_45_ ^ 2 - 2 y_99_ * y_45_ + 1 y_99_ ^ 2 ] <= 7086.16
quadratic_ranged_565_ub: [ 1 x_48_ ^ 2 - 2 x_99_ * x_48_ + 1 x_99_ ^ 2 + 1 y_48_ ^ 2 - 2 y_99_ * y_48_ + 1 y_99_ ^ 2 ] <= 3956.17
quadratic_ranged_566_ub: [ 1 x_50_ ^ 2 - 2 x_99_ * x_50_ + 1 x_99_ ^ 2 + 1 y_50_ ^ 2 - 2 y_99_ * y_50_ + 1 y_99_ ^ 2 ] <= 20063.65
quadratic_ranged_567_ub: [ 1 x_71_ ^ 2 - 2 x_99_ * x_71_ + 1 x_99_ ^ 2 + 1 y_71_ ^ 2 - 2 y_99_ * y_71_ + 1 y_99_ ^ 2 ] <= 12431.08
quadratic_ranged_568_ub: [ 1 x_77_ ^ 2 - 2 x_99_ * x_77_ + 1 x_99_ ^ 2 + 1 y_77_ ^ 2 - 2 y_99_ * y_77_ + 1 y_99_ ^ 2 ] <= 5235.84
quadratic_ranged_569_ub: [ 1 x_87_ ^ 2 - 2 x_99_ * x_87_ + 1 x_99_ ^ 2 + 1 y_87_ ^ 2 - 2 y_99_ * y_87_ + 1 y_99_ ^ 2 ] <= 4853.05
quadratic_ranged_570_ub: [ 1 x_98_ ^ 2 - 2 x_99_ * x_98_ + 1 x_99_ ^ 2 + 1 y_98_ ^ 2 - 2 y_99_ * y_98_ + 1 y_99_ ^ 2 ] <= 8122.42
quadratic_ranged_571_ub: [ 1 x_1_ ^ 2 - 2 x_100_ * x_1_ + 1 x_100_ ^ 2 + 1 y_1_ ^ 2 - 2 y_100_ * y_1_ + 1 y_100_ ^ 2 ] <= 2994.65
quadratic_ranged_572_ub: [ 1 x_11_ ^ 2 - 2 x_100_ * x_11_ + 1 x_100_ ^ 2 + 1 y_11_ ^ 2 - 2 y_100_ * y_11_ + 1 y_100_ ^ 2 ] <= 5100.5
quadratic_ranged_573_ub: [ 1 x_30_ ^ 2 - 2 x_100_ * x_30_ + 1 x_100_ ^ 2 + 1 y_30_ ^ 2 - 2 y_100_ * y_30_ + 1 y_100_ ^ 2 ] <= 18580.97
quadratic_ranged_574_ub: [ 1 x_40_ ^ 2 - 2 x_100_ * x_40_ + 1 x_100_ ^ 2 + 1 y_40_ ^ 2 - 2 y_100_ * y_40_ + 1 y_100_ ^ 2 ] <= 19860.64
quadratic_ranged_575_ub: [ 1 x_43_ ^ 2 - 2 x_100_ * x_43_ + 1 x_100_ ^ 2 + 1 y_43_ ^ 2 - 2 y_100_ * y_43_ + 1 y_100_ ^ 2 ] <= 27517.45
quadratic_ranged_576_ub: [ 1 x_45_ ^ 2 - 2 x_100_ * x_45_ + 1 x_100_ ^ 2 + 1 y_45_ ^ 2 - 2 y_100_ * y_45_ + 1 y_100_ ^ 2 ] <= 616.1
quadratic_ranged_577_ub: [ 1 x_52_ ^ 2 - 2 x_100_ * x_52_ + 1 x_100_ ^ 2 + 1 y_52_ ^ 2 - 2 y_100_ * y_52_ + 1 y_100_ ^ 2 ] <= 22596.73
quadratic_ranged_578_ub: [ 1 x_55_ ^ 2 - 2 x_100_ * x_55_ + 1 x_100_ ^ 2 + 1 y_55_ ^ 2 - 2 y_100_ * y_55_ + 1 y_100_ ^ 2 ] <= 13833.97
quadratic_ranged_579_ub: [ 1 x_57_ ^ 2 - 2 x_100_ * x_57_ + 1 x_100_ ^ 2 + 1 y_57_ ^ 2 - 2 y_100_ * y_57_ + 1 y_100_ ^ 2 ] <= 11493.8
quadratic_ranged_580_ub: [ 1 x_59_ ^ 2 - 2 x_100_ * x_59_ + 1 x_100_ ^ 2 + 1 y_59_ ^ 2 - 2 y_100_ * y_59_ + 1 y_100_ ^ 2 ] <= 20896.9
quadratic_ranged_581_ub: [ 1 x_67_ ^ 2 - 2 x_100_ * x_67_ + 1 x_100_ ^ 2 + 1 y_67_ ^ 2 - 2 y_100_ * y_67_ + 1 y_100_ ^ 2 ] <= 12267.460000000001
quadratic_ranged_582_ub: [ 1 x_77_ ^ 2 - 2 x_100_ * x_77_ + 1 x_100_ ^ 2 + 1 y_77_ ^ 2 - 2 y_100_ * y_77_ + 1 y_100_ ^ 2 ] <= 753.46
quadratic_ranged_583_ub: [ 1 x_91_ ^ 2 - 2 x_100_ * x_91_ + 1 x_100_ ^ 2 + 1 y_91_ ^ 2 - 2 y_100_ * y_91_ + 1 y_100_ ^ 2 ] <= 14608.64
quadratic_ranged_584_ub: [ 1 x_95_ ^ 2 - 2 x_100_ * x_95_ + 1 x_100_ ^ 2 + 1 y_95_ ^ 2 - 2 y_100_ * y_95_ + 1 y_100_ ^ 2 ] <= 25663.09
quadratic_ranged_585_ub: [ 1 x_99_ ^ 2 - 2 x_100_ * x_99_ + 1 x_100_ ^ 2 + 1 y_99_ ^ 2 - 2 y_100_ * y_99_ + 1 y_100_ ^ 2 ] <= 7589.14
quadratic_ranged_1_lb: [ 1 x_1_ ^ 2 - 2 x_2_ * x_1_ + 1 x_2_ ^ 2 + 1 y_1_ ^ 2 - 2 y_2_ * y_1_ + 1 y_2_ ^ 2 ] >= 777.15
quadratic_ranged_2_lb: [ 1 x_2_ ^ 2 - 2 x_3_ * x_2_ + 1 x_3_ ^ 2 + 1 y_2_ ^ 2 - 2 y_3_ * y_2_ + 1 y_3_ ^ 2 ] >= 13389.75
quadratic_ranged_3_lb: [ 1 x_3_ ^ 2 - 2 x_4_ * x_3_ + 1 x_4_ ^ 2 + 1 y_3_ ^ 2 - 2 y_4_ * y_3_ + 1 y_4_ ^ 2 ] >= 4962.87
quadratic_ranged_4_lb: [ 1 x_4_ ^ 2 - 2 x_5_ * x_4_ + 1 x_5_ ^ 2 + 1 y_4_ ^ 2 - 2 y_5_ * y_4_ + 1 y_5_ ^ 2 ] >= 20564.28
quadratic_ranged_5_lb: [ 1 x_2_ ^ 2 - 2 x_6_ * x_2_ + 1 x_6_ ^ 2 + 1 y_2_ ^ 2 - 2 y_6_ * y_2_ + 1 y_6_ ^ 2 ] >= 2338.38
quadratic_ranged_6_lb: [ 1 x_5_ ^ 2 - 2 x_6_ * x_5_ + 1 x_6_ ^ 2 + 1 y_5_ ^ 2 - 2 y_6_ * y_5_ + 1 y_6_ ^ 2 ] >= 1158.3
quadratic_ranged_7_lb: [ 1 x_1_ ^ 2 - 2 x_7_ * x_1_ + 1 x_7_ ^ 2 + 1 y_1_ ^ 2 - 2 y_7_ * y_1_ + 1 y_7_ ^ 2 ] >= 17734.86
quadratic_ranged_8_lb: [ 1 x_6_ ^ 2 - 2 x_7_ * x_6_ + 1 x_7_ ^ 2 + 1 y_6_ ^ 2 - 2 y_7_ * y_6_ + 1 y_7_ ^ 2 ] >= 11100.87
quadratic_ranged_9_lb: [ 1 x_3_ ^ 2 - 2 x_8_ * x_3_ + 1 x_8_ ^ 2 + 1 y_3_ ^ 2 - 2 y_8_ * y_3_ + 1 y_8_ ^ 2 ] >= 5781.6
quadratic_ranged_10_lb: [ 1 x_7_ ^ 2 - 2 x_8_ * x_7_ + 1 x_8_ ^ 2 + 1 y_7_ ^ 2 - 2 y_8_ * y_7_ + 1 y_8_ ^ 2 ] >= 2599.74
quadratic_ranged_11_lb: [ 1 x_8_ ^ 2 - 2 x_9_ * x_8_ + 1 x_9_ ^ 2 + 1 y_8_ ^ 2 - 2 y_9_ * y_8_ + 1 y_9_ ^ 2 ] >= 6985.44
quadratic_ranged_12_lb: [ 1 x_9_ ^ 2 - 2 x_10_ * x_9_ + 1 x_10_ ^ 2 + 1 y_9_ ^ 2 - 2 y_10_ * y_9_ + 1 y_10_ ^ 2 ] >= 2574.99
quadratic_ranged_13_lb: [ 1 x_10_ ^ 2 - 2 x_11_ * x_10_ + 1 x_11_ ^ 2 + 1 y_10_ ^ 2 - 2 y_11_ * y_10_ + 1 y_11_ ^ 2 ] >= 9761.4
quadratic_ranged_14_lb: [ 1 x_10_ ^ 2 - 2 x_12_ * x_10_ + 1 x_12_ ^ 2 + 1 y_10_ ^ 2 - 2 y_12_ * y_10_ + 1 y_12_ ^ 2 ] >= 11159.28
quadratic_ranged_15_lb: [ 1 x_11_ ^ 2 - 2 x_12_ * x_11_ + 1 x_12_ ^ 2 + 1 y_11_ ^ 2 - 2 y_12_ * y_11_ + 1 y_12_ ^ 2 ] >= 25443
quadratic_ranged_16_lb: [ 1 x_5_ ^ 2 - 2 x_13_ * x_5_ + 1 x_13_ ^ 2 + 1 y_5_ ^ 2 - 2 y_13_ * y_5_ + 1 y_13_ ^ 2 ] >= 22575.96
quadratic_ranged_17_lb: [ 1 x_7_ ^ 2 - 2 x_13_ * x_7_ + 1 x_13_ ^ 2 + 1 y_7_ ^ 2 - 2 y_13_ * y_7_ + 1 y_13_ ^ 2 ] >= 9742.59
quadratic_ranged_18_lb: [ 1 x_9_ ^ 2 - 2 x_13_ * x_9_ + 1 x_13_ ^ 2 + 1 y_9_ ^ 2 - 2 y_13_ * y_9_ + 1 y_13_ ^ 2 ] >= 13983.75
quadratic_ranged_19_lb: [ 1 x_12_ ^ 2 - 2 x_13_ * x_12_ + 1 x_13_ ^ 2 + 1 y_12_ ^ 2 - 2 y_13_ * y_12_ + 1 y_13_ ^ 2 ] >= 17156.7
quadratic_ranged_20_lb: [ 1 x_13_ ^ 2 - 2 x_14_ * x_13_ + 1 x_14_ ^ 2 + 1 y_13_ ^ 2 - 2 y_14_ * y_13_ + 1 y_14_ ^ 2 ] >= 25293.51
quadratic_ranged_21_lb: [ 1 x_7_ ^ 2 - 2 x_15_ * x_7_ + 1 x_15_ ^ 2 + 1 y_7_ ^ 2 - 2 y_15_ * y_7_ + 1 y_15_ ^ 2 ] >= 4875.75
quadratic_ranged_22_lb: [ 1 x_8_ ^ 2 - 2 x_15_ * x_8_ + 1 x_15_ ^ 2 + 1 y_8_ ^ 2 - 2 y_15_ * y_8_ + 1 y_15_ ^ 2 ] >= 14494.59
quadratic_ranged_23_lb: [ 1 x_14_ ^ 2 - 2 x_15_ * x_14_ + 1 x_15_ ^ 2 + 1 y_14_ ^ 2 - 2 y_15_ * y_14_ + 1 y_15_ ^ 2 ] >= 2638.35
quadratic_ranged_24_lb: [ 1 x_7_ ^ 2 - 2 x_16_ * x_7_ + 1 x_16_ ^ 2 + 1 y_7_ ^ 2 - 2 y_16_ * y_7_ + 1 y_16_ ^ 2 ] >= 12666.06
quadratic_ranged_25_lb: [ 1 x_8_ ^ 2 - 2 x_16_ * x_8_ + 1 x_16_ ^ 2 + 1 y_8_ ^ 2 - 2 y_16_ * y_8_ + 1 y_16_ ^ 2 ] >= 14652
quadratic_ranged_26_lb: [ 1 x_15_ ^ 2 - 2 x_16_ * x_15_ + 1 x_16_ ^ 2 + 1 y_15_ ^ 2 - 2 y_16_ * y_15_ + 1 y_16_ ^ 2 ] >= 15730.11
quadratic_ranged_27_lb: [ 1 x_3_ ^ 2 - 2 x_17_ * x_3_ + 1 x_17_ ^ 2 + 1 y_3_ ^ 2 - 2 y_17_ * y_3_ + 1 y_17_ ^ 2 ] >= 11636.46
quadratic_ranged_28_lb: [ 1 x_16_ ^ 2 - 2 x_17_ * x_16_ + 1 x_17_ ^ 2 + 1 y_16_ ^ 2 - 2 y_17_ * y_16_ + 1 y_17_ ^ 2 ] >= 16277.58
quadratic_ranged_29_lb: [ 1 x_6_ ^ 2 - 2 x_18_ * x_6_ + 1 x_18_ ^ 2 + 1 y_6_ ^ 2 - 2 y_18_ * y_6_ + 1 y_18_ ^ 2 ] >= 14305.5
quadratic_ranged_30_lb: [ 1 x_9_ ^ 2 - 2 x_18_ * x_9_ + 1 x_18_ ^ 2 + 1 y_9_ ^ 2 - 2 y_18_ * y_9_ + 1 y_18_ ^ 2 ] >= 3964.95
quadratic_ranged_31_lb: [ 1 x_17_ ^ 2 - 2 x_18_ * x_17_ + 1 x_18_ ^ 2 + 1 y_17_ ^ 2 - 2 y_18_ * y_17_ + 1 y_18_ ^ 2 ] >= 18834.75
quadratic_ranged_32_lb: [ 1 x_17_ ^ 2 - 2 x_19_ * x_17_ + 1 x_19_ ^ 2 + 1 y_17_ ^ 2 - 2 y_19_ * y_17_ + 1 y_19_ ^ 2 ] >= 1269.18
quadratic_ranged_33_lb: [ 1 x_18_ ^ 2 - 2 x_19_ * x_18_ + 1 x_19_ ^ 2 + 1 y_18_ ^ 2 - 2 y_19_ * y_18_ + 1 y_19_ ^ 2 ] >= 13128.39
quadratic_ranged_34_lb: [ 1 x_3_ ^ 2 - 2 x_20_ * x_3_ + 1 x_20_ ^ 2 + 1 y_3_ ^ 2 - 2 y_20_ * y_3_ + 1 y_20_ ^ 2 ] >= 5791.5
quadratic_ranged_35_lb: [ 1 x_19_ ^ 2 - 2 x_20_ * x_19_ + 1 x_20_ ^ 2 + 1 y_19_ ^ 2 - 2 y_20_ * y_19_ + 1 y_20_ ^ 2 ] >= 5070.78
quadratic_ranged_36_lb: [ 1 x_9_ ^ 2 - 2 x_21_ * x_9_ + 1 x_21_ ^ 2 + 1 y_9_ ^ 2 - 2 y_21_ * y_9_ + 1 y_21_ ^ 2 ] >= 3993.66
quadratic_ranged_37_lb: [ 1 x_20_ ^ 2 - 2 x_21_ * x_20_ + 1 x_21_ ^ 2 + 1 y_20_ ^ 2 - 2 y_21_ * y_20_ + 1 y_21_ ^ 2 ] >= 20247.48
quadratic_ranged_38_lb: [ 1 x_2_ ^ 2 - 2 x_22_ * x_2_ + 1 x_22_ ^ 2 + 1 y_2_ ^ 2 - 2 y_22_ * y_2_ + 1 y_22_ ^ 2 ] >= 19745.55
quadratic_ranged_39_lb: [ 1 x_8_ ^ 2 - 2 x_22_ * x_8_ + 1 x_22_ ^ 2 + 1 y_8_ ^ 2 - 2 y_22_ * y_8_ + 1 y_22_ ^ 2 ] >= 13119.48
quadratic_ranged_40_lb: [ 1 x_21_ ^ 2 - 2 x_22_ * x_21_ + 1 x_22_ ^ 2 + 1 y_21_ ^ 2 - 2 y_22_ * y_21_ + 1 y_22_ ^ 2 ] >= 22201.74
quadratic_ranged_41_lb: [ 1 x_22_ ^ 2 - 2 x_23_ * x_22_ + 1 x_23_ ^ 2 + 1 y_22_ ^ 2 - 2 y_23_ * y_22_ + 1 y_23_ ^ 2 ] >= 12261.15
quadratic_ranged_42_lb: [ 1 x_18_ ^ 2 - 2 x_24_ * x_18_ + 1 x_24_ ^ 2 + 1 y_18_ ^ 2 - 2 y_24_ * y_18_ + 1 y_24_ ^ 2 ] >= 3030.39
quadratic_ranged_43_lb: [ 1 x_23_ ^ 2 - 2 x_24_ * x_23_ + 1 x_24_ ^ 2 + 1 y_23_ ^ 2 - 2 y_24_ * y_23_ + 1 y_24_ ^ 2 ] >= 11599.83
quadratic_ranged_44_lb: [ 1 x_19_ ^ 2 - 2 x_25_ * x_19_ + 1 x_25_ ^ 2 + 1 y_19_ ^ 2 - 2 y_25_ * y_19_ + 1 y_25_ ^ 2 ] >= 25598.43
quadratic_ranged_45_lb: [ 1 x_24_ ^ 2 - 2 x_25_ * x_24_ + 1 x_25_ ^ 2 + 1 y_24_ ^ 2 - 2 y_25_ * y_24_ + 1 y_25_ ^ 2 ] >= 8879.31
quadratic_ranged_46_lb: [ 1 x_20_ ^ 2 - 2 x_26_ * x_20_ + 1 x_26_ ^ 2 + 1 y_20_ ^ 2 - 2 y_26_ * y_20_ + 1 y_26_ ^ 2 ] >= 17966.52
quadratic_ranged_47_lb: [ 1 x_25_ ^ 2 - 2 x_26_ * x_25_ + 1 x_26_ ^ 2 + 1 y_25_ ^ 2 - 2 y_26_ * y_25_ + 1 y_26_ ^ 2 ] >= 8297.19
quadratic_ranged_48_lb: [ 1 x_17_ ^ 2 - 2 x_27_ * x_17_ + 1 x_27_ ^ 2 + 1 y_17_ ^ 2 - 2 y_27_ * y_17_ + 1 y_27_ ^ 2 ] >= 39188.159999999996
quadratic_ranged_49_lb: [ 1 x_25_ ^ 2 - 2 x_27_ * x_25_ + 1 x_27_ ^ 2 + 1 y_25_ ^ 2 - 2 y_27_ * y_25_ + 1 y_27_ ^ 2 ] >= 8043.75
quadratic_ranged_50_lb: [ 1 x_26_ ^ 2 - 2 x_27_ * x_26_ + 1 x_27_ ^ 2 + 1 y_26_ ^ 2 - 2 y_27_ * y_26_ + 1 y_27_ ^ 2 ] >= 28230.84
quadratic_ranged_51_lb: [ 1 x_2_ ^ 2 - 2 x_28_ * x_2_ + 1 x_28_ ^ 2 + 1 y_2_ ^ 2 - 2 y_28_ * y_2_ + 1 y_28_ ^ 2 ] >= 46677.51
quadratic_ranged_52_lb: [ 1 x_6_ ^ 2 - 2 x_28_ * x_6_ + 1 x_28_ ^ 2 + 1 y_6_ ^ 2 - 2 y_28_ * y_6_ + 1 y_28_ ^ 2 ] >= 28279.35
quadratic_ranged_53_lb: [ 1 x_7_ ^ 2 - 2 x_28_ * x_7_ + 1 x_28_ ^ 2 + 1 y_7_ ^ 2 - 2 y_28_ * y_7_ + 1 y_28_ ^ 2 ] >= 4080.7799999999997
quadratic_ranged_54_lb: [ 1 x_10_ ^ 2 - 2 x_28_ * x_10_ + 1 x_28_ ^ 2 + 1 y_10_ ^ 2 - 2 y_28_ * y_10_ + 1 y_28_ ^ 2 ] >= 7033.95
quadratic_ranged_55_lb: [ 1 x_22_ ^ 2 - 2 x_28_ * x_22_ + 1 x_28_ ^ 2 + 1 y_22_ ^ 2 - 2 y_28_ * y_22_ + 1 y_28_ ^ 2 ] >= 24967.8
quadratic_ranged_56_lb: [ 1 x_23_ ^ 2 - 2 x_28_ * x_23_ + 1 x_28_ ^ 2 + 1 y_23_ ^ 2 - 2 y_28_ * y_23_ + 1 y_28_ ^ 2 ] >= 13263.03
quadratic_ranged_57_lb: [ 1 x_27_ ^ 2 - 2 x_28_ * x_27_ + 1 x_28_ ^ 2 + 1 y_27_ ^ 2 - 2 y_28_ * y_27_ + 1 y_28_ ^ 2 ] >= 29852.46
quadratic_ranged_58_lb: [ 1 x_4_ ^ 2 - 2 x_29_ * x_4_ + 1 x_29_ ^ 2 + 1 y_4_ ^ 2 - 2 y_29_ * y_4_ + 1 y_29_ ^ 2 ] >= 2091.87
quadratic_ranged_59_lb: [ 1 x_28_ ^ 2 - 2 x_29_ * x_28_ + 1 x_29_ ^ 2 + 1 y_28_ ^ 2 - 2 y_29_ * y_28_ + 1 y_29_ ^ 2 ] >= 12483.9
quadratic_ranged_60_lb: [ 1 x_3_ ^ 2 - 2 x_30_ * x_3_ + 1 x_30_ ^ 2 + 1 y_3_ ^ 2 - 2 y_30_ * y_3_ + 1 y_30_ ^ 2 ] >= 6219.18
quadratic_ranged_61_lb: [ 1 x_19_ ^ 2 - 2 x_30_ * x_19_ + 1 x_30_ ^ 2 + 1 y_19_ ^ 2 - 2 y_30_ * y_19_ + 1 y_30_ ^ 2 ] >= 32109.66
quadratic_ranged_62_lb: [ 1 x_29_ ^ 2 - 2 x_30_ * x_29_ + 1 x_30_ ^ 2 + 1 y_29_ ^ 2 - 2 y_30_ * y_29_ + 1 y_30_ ^ 2 ] >= 2807.64
quadratic_ranged_63_lb: [ 1 x_21_ ^ 2 - 2 x_31_ * x_21_ + 1 x_31_ ^ 2 + 1 y_21_ ^ 2 - 2 y_31_ * y_21_ + 1 y_31_ ^ 2 ] >= 16300.35
quadratic_ranged_64_lb: [ 1 x_22_ ^ 2 - 2 x_31_ * x_22_ + 1 x_31_ ^ 2 + 1 y_22_ ^ 2 - 2 y_31_ * y_22_ + 1 y_31_ ^ 2 ] >= 1006.83
quadratic_ranged_65_lb: [ 1 x_30_ ^ 2 - 2 x_31_ * x_30_ + 1 x_31_ ^ 2 + 1 y_30_ ^ 2 - 2 y_31_ * y_30_ + 1 y_31_ ^ 2 ] >= 3220.47
quadratic_ranged_66_lb: [ 1 x_20_ ^ 2 - 2 x_32_ * x_20_ + 1 x_32_ ^ 2 + 1 y_20_ ^ 2 - 2 y_32_ * y_20_ + 1 y_32_ ^ 2 ] >= 14585.67
quadratic_ranged_67_lb: [ 1 x_24_ ^ 2 - 2 x_32_ * x_24_ + 1 x_32_ ^ 2 + 1 y_24_ ^ 2 - 2 y_32_ * y_24_ + 1 y_32_ ^ 2 ] >= 2103.75
quadratic_ranged_68_lb: [ 1 x_31_ ^ 2 - 2 x_32_ * x_31_ + 1 x_32_ ^ 2 + 1 y_31_ ^ 2 - 2 y_32_ * y_31_ + 1 y_32_ ^ 2 ] >= 9935.64
quadratic_ranged_69_lb: [ 1 x_4_ ^ 2 - 2 x_33_ * x_4_ + 1 x_33_ ^ 2 + 1 y_4_ ^ 2 - 2 y_33_ * y_4_ + 1 y_33_ ^ 2 ] >= 13983.75
quadratic_ranged_70_lb: [ 1 x_5_ ^ 2 - 2 x_33_ * x_5_ + 1 x_33_ ^ 2 + 1 y_5_ ^ 2 - 2 y_33_ * y_5_ + 1 y_33_ ^ 2 ] >= 3719.43
quadratic_ranged_71_lb: [ 1 x_16_ ^ 2 - 2 x_33_ * x_16_ + 1 x_33_ ^ 2 + 1 y_16_ ^ 2 - 2 y_33_ * y_16_ + 1 y_33_ ^ 2 ] >= 5371.74
quadratic_ranged_72_lb: [ 1 x_17_ ^ 2 - 2 x_33_ * x_17_ + 1 x_33_ ^ 2 + 1 y_17_ ^ 2 - 2 y_33_ * y_17_ + 1 y_33_ ^ 2 ] >= 3247.2
quadratic_ranged_73_lb: [ 1 x_32_ ^ 2 - 2 x_33_ * x_32_ + 1 x_33_ ^ 2 + 1 y_32_ ^ 2 - 2 y_33_ * y_32_ + 1 y_33_ ^ 2 ] >= 8554.59
quadratic_ranged_74_lb: [ 1 x_15_ ^ 2 - 2 x_34_ * x_15_ + 1 x_34_ ^ 2 + 1 y_15_ ^ 2 - 2 y_34_ * y_15_ + 1 y_34_ ^ 2 ] >= 542.52
quadratic_ranged_75_lb: [ 1 x_18_ ^ 2 - 2 x_34_ * x_18_ + 1 x_34_ ^ 2 + 1 y_18_ ^ 2 - 2 y_34_ * y_18_ + 1 y_34_ ^ 2 ] >= 12323.52
quadratic_ranged_76_lb: [ 1 x_31_ ^ 2 - 2 x_34_ * x_31_ + 1 x_34_ ^ 2 + 1 y_31_ ^ 2 - 2 y_34_ * y_31_ + 1 y_34_ ^ 2 ] >= 20934.54
quadratic_ranged_77_lb: [ 1 x_33_ ^ 2 - 2 x_34_ * x_33_ + 1 x_34_ ^ 2 + 1 y_33_ ^ 2 - 2 y_34_ * y_33_ + 1 y_34_ ^ 2 ] >= 6138.99
quadratic_ranged_78_lb: [ 1 x_20_ ^ 2 - 2 x_35_ * x_20_ + 1 x_35_ ^ 2 + 1 y_20_ ^ 2 - 2 y_35_ * y_20_ + 1 y_35_ ^ 2 ] >= 9505.98
quadratic_ranged_79_lb: [ 1 x_24_ ^ 2 - 2 x_35_ * x_24_ + 1 x_35_ ^ 2 + 1 y_24_ ^ 2 - 2 y_35_ * y_24_ + 1 y_35_ ^ 2 ] >= 26185.5
quadratic_ranged_80_lb: [ 1 x_27_ ^ 2 - 2 x_35_ * x_27_ + 1 x_35_ ^ 2 + 1 y_27_ ^ 2 - 2 y_35_ * y_27_ + 1 y_35_ ^ 2 ] >= 3067.02
quadratic_ranged_81_lb: [ 1 x_34_ ^ 2 - 2 x_35_ * x_34_ + 1 x_35_ ^ 2 + 1 y_34_ ^ 2 - 2 y_35_ * y_34_ + 1 y_35_ ^ 2 ] >= 25974.63
quadratic_ranged_82_lb: [ 1 x_6_ ^ 2 - 2 x_36_ * x_6_ + 1 x_36_ ^ 2 + 1 y_6_ ^ 2 - 2 y_36_ * y_6_ + 1 y_36_ ^ 2 ] >= 21151.35
quadratic_ranged_83_lb: [ 1 x_20_ ^ 2 - 2 x_36_ * x_20_ + 1 x_36_ ^ 2 + 1 y_20_ ^ 2 - 2 y_36_ * y_20_ + 1 y_36_ ^ 2 ] >= 19657.44
quadratic_ranged_84_lb: [ 1 x_32_ ^ 2 - 2 x_36_ * x_32_ + 1 x_36_ ^ 2 + 1 y_32_ ^ 2 - 2 y_36_ * y_32_ + 1 y_36_ ^ 2 ] >= 9675.27
quadratic_ranged_85_lb: [ 1 x_35_ ^ 2 - 2 x_36_ * x_35_ + 1 x_36_ ^ 2 + 1 y_35_ ^ 2 - 2 y_36_ * y_35_ + 1 y_36_ ^ 2 ] >= 37709.1
quadratic_ranged_86_lb: [ 1 x_1_ ^ 2 - 2 x_37_ * x_1_ + 1 x_37_ ^ 2 + 1 y_1_ ^ 2 - 2 y_37_ * y_1_ + 1 y_37_ ^ 2 ] >= 5766.75
quadratic_ranged_87_lb: [ 1 x_10_ ^ 2 - 2 x_37_ * x_10_ + 1 x_37_ ^ 2 + 1 y_10_ ^ 2 - 2 y_37_ * y_10_ + 1 y_37_ ^ 2 ] >= 24403.5
quadratic_ranged_88_lb: [ 1 x_26_ ^ 2 - 2 x_37_ * x_26_ + 1 x_37_ ^ 2 + 1 y_26_ ^ 2 - 2 y_37_ * y_26_ + 1 y_37_ ^ 2 ] >= 20676.15
quadratic_ranged_89_lb: [ 1 x_33_ ^ 2 - 2 x_37_ * x_33_ + 1 x_37_ ^ 2 + 1 y_33_ ^ 2 - 2 y_37_ * y_33_ + 1 y_37_ ^ 2 ] >= 3176.91
quadratic_ranged_90_lb: [ 1 x_34_ ^ 2 - 2 x_37_ * x_34_ + 1 x_37_ ^ 2 + 1 y_34_ ^ 2 - 2 y_37_ * y_34_ + 1 y_37_ ^ 2 ] >= 18136.8
quadratic_ranged_91_lb: [ 1 x_36_ ^ 2 - 2 x_37_ * x_36_ + 1 x_37_ ^ 2 + 1 y_36_ ^ 2 - 2 y_37_ * y_36_ + 1 y_37_ ^ 2 ] >= 30987.989999999998
quadratic_ranged_92_lb: [ 1 x_2_ ^ 2 - 2 x_38_ * x_2_ + 1 x_38_ ^ 2 + 1 y_2_ ^ 2 - 2 y_38_ * y_2_ + 1 y_38_ ^ 2 ] >= 23503.59
quadratic_ranged_93_lb: [ 1 x_32_ ^ 2 - 2 x_38_ * x_32_ + 1 x_38_ ^ 2 + 1 y_32_ ^ 2 - 2 y_38_ * y_32_ + 1 y_38_ ^ 2 ] >= 15448.95
quadratic_ranged_94_lb: [ 1 x_37_ ^ 2 - 2 x_38_ * x_37_ + 1 x_38_ ^ 2 + 1 y_37_ ^ 2 - 2 y_38_ * y_37_ + 1 y_38_ ^ 2 ] >= 27922.95
quadratic_ranged_95_lb: [ 1 x_1_ ^ 2 - 2 x_39_ * x_1_ + 1 x_39_ ^ 2 + 1 y_1_ ^ 2 - 2 y_39_ * y_1_ + 1 y_39_ ^ 2 ] >= 2712.6
quadratic_ranged_96_lb: [ 1 x_3_ ^ 2 - 2 x_39_ * x_3_ + 1 x_39_ ^ 2 + 1 y_3_ ^ 2 - 2 y_39_ * y_3_ + 1 y_39_ ^ 2 ] >= 3453.12
quadratic_ranged_97_lb: [ 1 x_5_ ^ 2 - 2 x_39_ * x_5_ + 1 x_39_ ^ 2 + 1 y_5_ ^ 2 - 2 y_39_ * y_5_ + 1 y_39_ ^ 2 ] >= 1608.75
quadratic_ranged_98_lb: [ 1 x_19_ ^ 2 - 2 x_39_ * x_19_ + 1 x_39_ ^ 2 + 1 y_19_ ^ 2 - 2 y_39_ * y_19_ + 1 y_39_ ^ 2 ] >= 7999.2
quadratic_ranged_99_lb: [ 1 x_38_ ^ 2 - 2 x_39_ * x_38_ + 1 x_39_ ^ 2 + 1 y_38_ ^ 2 - 2 y_39_ * y_38_ + 1 y_39_ ^ 2 ] >= 19530.72
quadratic_ranged_100_lb: [ 1 x_3_ ^ 2 - 2 x_40_ * x_3_ + 1 x_40_ ^ 2 + 1 y_3_ ^ 2 - 2 y_40_ * y_3_ + 1 y_40_ ^ 2 ] >= 11611.71
quadratic_ranged_101_lb: [ 1 x_6_ ^ 2 - 2 x_40_ * x_6_ + 1 x_40_ ^ 2 + 1 y_6_ ^ 2 - 2 y_40_ * y_6_ + 1 y_40_ ^ 2 ] >= 10147.5
quadratic_ranged_102_lb: [ 1 x_8_ ^ 2 - 2 x_40_ * x_8_ + 1 x_40_ ^ 2 + 1 y_8_ ^ 2 - 2 y_40_ * y_8_ + 1 y_40_ ^ 2 ] >= 16038.99
quadratic_ranged_103_lb: [ 1 x_13_ ^ 2 - 2 x_40_ * x_13_ + 1 x_40_ ^ 2 + 1 y_13_ ^ 2 - 2 y_40_ * y_13_ + 1 y_40_ ^ 2 ] >= 27284.4
quadratic_ranged_104_lb: [ 1 x_27_ ^ 2 - 2 x_40_ * x_27_ + 1 x_40_ ^ 2 + 1 y_27_ ^ 2 - 2 y_40_ * y_27_ + 1 y_40_ ^ 2 ] >= 42578.909999999996
quadratic_ranged_105_lb: [ 1 x_31_ ^ 2 - 2 x_40_ * x_31_ + 1 x_40_ ^ 2 + 1 y_31_ ^ 2 - 2 y_40_ * y_31_ + 1 y_40_ ^ 2 ] >= 20704.86
quadratic_ranged_106_lb: [ 1 x_39_ ^ 2 - 2 x_40_ * x_39_ + 1 x_40_ ^ 2 + 1 y_39_ ^ 2 - 2 y_40_ * y_39_ + 1 y_40_ ^ 2 ] >= 11983.95
quadratic_ranged_107_lb: [ 1 x_6_ ^ 2 - 2 x_41_ * x_6_ + 1 x_41_ ^ 2 + 1 y_6_ ^ 2 - 2 y_41_ * y_6_ + 1 y_41_ ^ 2 ] >= 20958.3
quadratic_ranged_108_lb: [ 1 x_14_ ^ 2 - 2 x_41_ * x_14_ + 1 x_41_ ^ 2 + 1 y_14_ ^ 2 - 2 y_41_ * y_14_ + 1 y_41_ ^ 2 ] >= 16886.43
quadratic_ranged_109_lb: [ 1 x_15_ ^ 2 - 2 x_41_ * x_15_ + 1 x_41_ ^ 2 + 1 y_15_ ^ 2 - 2 y_41_ * y_15_ + 1 y_41_ ^ 2 ] >= 6240.96
quadratic_ranged_110_lb: [ 1 x_18_ ^ 2 - 2 x_41_ * x_18_ + 1 x_41_ ^ 2 + 1 y_18_ ^ 2 - 2 y_41_ * y_18_ + 1 y_41_ ^ 2 ] >= 6593.4
quadratic_ranged_111_lb: [ 1 x_34_ ^ 2 - 2 x_41_ * x_34_ + 1 x_41_ ^ 2 + 1 y_34_ ^ 2 - 2 y_41_ * y_34_ + 1 y_41_ ^ 2 ] >= 4993.56
quadratic_ranged_112_lb: [ 1 x_37_ ^ 2 - 2 x_41_ * x_37_ + 1 x_41_ ^ 2 + 1 y_37_ ^ 2 - 2 y_41_ * y_37_ + 1 y_41_ ^ 2 ] >= 27533.88
quadratic_ranged_113_lb: [ 1 x_40_ ^ 2 - 2 x_41_ * x_40_ + 1 x_41_ ^ 2 + 1 y_40_ ^ 2 - 2 y_41_ * y_40_ + 1 y_41_ ^ 2 ] >= 4387.68
quadratic_ranged_114_lb: [ 1 x_14_ ^ 2 - 2 x_42_ * x_14_ + 1 x_42_ ^ 2 + 1 y_14_ ^ 2 - 2 y_42_ * y_14_ + 1 y_42_ ^ 2 ] >= 3113.55
quadratic_ranged_115_lb: [ 1 x_21_ ^ 2 - 2 x_42_ * x_21_ + 1 x_42_ ^ 2 + 1 y_21_ ^ 2 - 2 y_42_ * y_21_ + 1 y_42_ ^ 2 ] >= 14779.71
quadratic_ranged_116_lb: [ 1 x_41_ ^ 2 - 2 x_42_ * x_41_ + 1 x_42_ ^ 2 + 1 y_41_ ^ 2 - 2 y_42_ * y_41_ + 1 y_42_ ^ 2 ] >= 8937.72
quadratic_ranged_117_lb: [ 1 x_14_ ^ 2 - 2 x_43_ * x_14_ + 1 x_43_ ^ 2 + 1 y_14_ ^ 2 - 2 y_43_ * y_14_ + 1 y_43_ ^ 2 ] >= 8222.94
quadratic_ranged_118_lb: [ 1 x_16_ ^ 2 - 2 x_43_ * x_16_ + 1 x_43_ ^ 2 + 1 y_16_ ^ 2 - 2 y_43_ * y_16_ + 1 y_43_ ^ 2 ] >= 31278.06
quadratic_ranged_119_lb: [ 1 x_22_ ^ 2 - 2 x_43_ * x_22_ + 1 x_43_ ^ 2 + 1 y_22_ ^ 2 - 2 y_43_ * y_22_ + 1 y_43_ ^ 2 ] >= 41629.5
quadratic_ranged_120_lb: [ 1 x_30_ ^ 2 - 2 x_43_ * x_30_ + 1 x_43_ ^ 2 + 1 y_30_ ^ 2 - 2 y_43_ * y_30_ + 1 y_43_ ^ 2 ] >= 45306.36
quadratic_ranged_121_lb: [ 1 x_42_ ^ 2 - 2 x_43_ * x_42_ + 1 x_43_ ^ 2 + 1 y_42_ ^ 2 - 2 y_43_ * y_42_ + 1 y_43_ ^ 2 ] >= 1276.11
quadratic_ranged_122_lb: [ 1 x_7_ ^ 2 - 2 x_44_ * x_7_ + 1 x_44_ ^ 2 + 1 y_7_ ^ 2 - 2 y_44_ * y_7_ + 1 y_44_ ^ 2 ] >= 1620.6299999999999
quadratic_ranged_123_lb: [ 1 x_11_ ^ 2 - 2 x_44_ * x_11_ + 1 x_44_ ^ 2 + 1 y_11_ ^ 2 - 2 y_44_ * y_11_ + 1 y_44_ ^ 2 ] >= 6343.92
quadratic_ranged_124_lb: [ 1 x_23_ ^ 2 - 2 x_44_ * x_23_ + 1 x_44_ ^ 2 + 1 y_23_ ^ 2 - 2 y_44_ * y_23_ + 1 y_44_ ^ 2 ] >= 3732.3
quadratic_ranged_125_lb: [ 1 x_29_ ^ 2 - 2 x_44_ * x_29_ + 1 x_44_ ^ 2 + 1 y_29_ ^ 2 - 2 y_44_ * y_29_ + 1 y_44_ ^ 2 ] >= 12118.59
quadratic_ranged_126_lb: [ 1 x_32_ ^ 2 - 2 x_44_ * x_32_ + 1 x_44_ ^ 2 + 1 y_32_ ^ 2 - 2 y_44_ * y_32_ + 1 y_44_ ^ 2 ] >= 2851.2
quadratic_ranged_127_lb: [ 1 x_33_ ^ 2 - 2 x_44_ * x_33_ + 1 x_44_ ^ 2 + 1 y_33_ ^ 2 - 2 y_44_ * y_33_ + 1 y_44_ ^ 2 ] >= 7509.15
quadratic_ranged_128_lb: [ 1 x_37_ ^ 2 - 2 x_44_ * x_37_ + 1 x_44_ ^ 2 + 1 y_37_ ^ 2 - 2 y_44_ * y_37_ + 1 y_44_ ^ 2 ] >= 18590.22
quadratic_ranged_129_lb: [ 1 x_40_ ^ 2 - 2 x_44_ * x_40_ + 1 x_44_ ^ 2 + 1 y_40_ ^ 2 - 2 y_44_ * y_40_ + 1 y_44_ ^ 2 ] >= 1879.02
quadratic_ranged_130_lb: [ 1 x_43_ ^ 2 - 2 x_44_ * x_43_ + 1 x_44_ ^ 2 + 1 y_43_ ^ 2 - 2 y_44_ * y_43_ + 1 y_44_ ^ 2 ] >= 3937.23
quadratic_ranged_131_lb: [ 1 x_15_ ^ 2 - 2 x_45_ * x_15_ + 1 x_45_ ^ 2 + 1 y_15_ ^ 2 - 2 y_45_ * y_15_ + 1 y_45_ ^ 2 ] >= 11121.66
quadratic_ranged_132_lb: [ 1 x_25_ ^ 2 - 2 x_45_ * x_25_ + 1 x_45_ ^ 2 + 1 y_25_ ^ 2 - 2 y_45_ * y_25_ + 1 y_45_ ^ 2 ] >= 17376.48
quadratic_ranged_133_lb: [ 1 x_34_ ^ 2 - 2 x_45_ * x_34_ + 1 x_45_ ^ 2 + 1 y_34_ ^ 2 - 2 y_45_ * y_34_ + 1 y_45_ ^ 2 ] >= 16546.86
quadratic_ranged_134_lb: [ 1 x_44_ ^ 2 - 2 x_45_ * x_44_ + 1 x_45_ ^ 2 + 1 y_44_ ^ 2 - 2 y_45_ * y_44_ + 1 y_45_ ^ 2 ] >= 17970.48
quadratic_ranged_135_lb: [ 1 x_9_ ^ 2 - 2 x_46_ * x_9_ + 1 x_46_ ^ 2 + 1 y_9_ ^ 2 - 2 y_46_ * y_9_ + 1 y_46_ ^ 2 ] >= 10709.82
quadratic_ranged_136_lb: [ 1 x_26_ ^ 2 - 2 x_46_ * x_26_ + 1 x_46_ ^ 2 + 1 y_26_ ^ 2 - 2 y_46_ * y_26_ + 1 y_46_ ^ 2 ] >= 9412.92
quadratic_ranged_137_lb: [ 1 x_27_ ^ 2 - 2 x_46_ * x_27_ + 1 x_46_ ^ 2 + 1 y_27_ ^ 2 - 2 y_46_ * y_27_ + 1 y_46_ ^ 2 ] >= 5274.72
quadratic_ranged_138_lb: [ 1 x_30_ ^ 2 - 2 x_46_ * x_30_ + 1 x_46_ ^ 2 + 1 y_30_ ^ 2 - 2 y_46_ * y_30_ + 1 y_46_ ^ 2 ] >= 1623.6
quadratic_ranged_139_lb: [ 1 x_38_ ^ 2 - 2 x_46_ * x_38_ + 1 x_46_ ^ 2 + 1 y_38_ ^ 2 - 2 y_46_ * y_38_ + 1 y_46_ ^ 2 ] >= 34699.5
quadratic_ranged_140_lb: [ 1 x_41_ ^ 2 - 2 x_46_ * x_41_ + 1 x_46_ ^ 2 + 1 y_41_ ^ 2 - 2 y_46_ * y_41_ + 1 y_46_ ^ 2 ] >= 18684.27
quadratic_ranged_141_lb: [ 1 x_45_ ^ 2 - 2 x_46_ * x_45_ + 1 x_46_ ^ 2 + 1 y_45_ ^ 2 - 2 y_46_ * y_45_ + 1 y_46_ ^ 2 ] >= 11797.83
quadratic_ranged_142_lb: [ 1 x_14_ ^ 2 - 2 x_47_ * x_14_ + 1 x_47_ ^ 2 + 1 y_14_ ^ 2 - 2 y_47_ * y_14_ + 1 y_47_ ^ 2 ] >= 1673.1
quadratic_ranged_143_lb: [ 1 x_29_ ^ 2 - 2 x_47_ * x_29_ + 1 x_47_ ^ 2 + 1 y_29_ ^ 2 - 2 y_47_ * y_29_ + 1 y_47_ ^ 2 ] >= 6720.12
quadratic_ranged_144_lb: [ 1 x_30_ ^ 2 - 2 x_47_ * x_30_ + 1 x_47_ ^ 2 + 1 y_30_ ^ 2 - 2 y_47_ * y_30_ + 1 y_47_ ^ 2 ] >= 17146.8
quadratic_ranged_145_lb: [ 1 x_46_ ^ 2 - 2 x_47_ * x_46_ + 1 x_47_ ^ 2 + 1 y_46_ ^ 2 - 2 y_47_ * y_46_ + 1 y_47_ ^ 2 ] >= 12418.56
quadratic_ranged_146_lb: [ 1 x_1_ ^ 2 - 2 x_48_ * x_1_ + 1 x_48_ ^ 2 + 1 y_1_ ^ 2 - 2 y_48_ * y_1_ + 1 y_48_ ^ 2 ] >= 1029.6
quadratic_ranged_147_lb: [ 1 x_14_ ^ 2 - 2 x_48_ * x_14_ + 1 x_48_ ^ 2 + 1 y_14_ ^ 2 - 2 y_48_ * y_14_ + 1 y_48_ ^ 2 ] >= 2871
quadratic_ranged_148_lb: [ 1 x_30_ ^ 2 - 2 x_48_ * x_30_ + 1 x_48_ ^ 2 + 1 y_30_ ^ 2 - 2 y_48_ * y_30_ + 1 y_48_ ^ 2 ] >= 20815.74
quadratic_ranged_149_lb: [ 1 x_32_ ^ 2 - 2 x_48_ * x_32_ + 1 x_48_ ^ 2 + 1 y_32_ ^ 2 - 2 y_48_ * y_32_ + 1 y_48_ ^ 2 ] >= 18846.63
quadratic_ranged_150_lb: [ 1 x_37_ ^ 2 - 2 x_48_ * x_37_ + 1 x_48_ ^ 2 + 1 y_37_ ^ 2 - 2 y_48_ * y_37_ + 1 y_48_ ^ 2 ] >= 1973.07
quadratic_ranged_151_lb: [ 1 x_39_ ^ 2 - 2 x_48_ * x_39_ + 1 x_48_ ^ 2 + 1 y_39_ ^ 2 - 2 y_48_ * y_39_ + 1 y_48_ ^ 2 ] >= 669.24
quadratic_ranged_152_lb: [ 1 x_47_ ^ 2 - 2 x_48_ * x_47_ + 1 x_48_ ^ 2 + 1 y_47_ ^ 2 - 2 y_48_ * y_47_ + 1 y_48_ ^ 2 ] >= 1712.7
quadratic_ranged_153_lb: [ 1 x_1_ ^ 2 - 2 x_49_ * x_1_ + 1 x_49_ ^ 2 + 1 y_1_ ^ 2 - 2 y_49_ * y_1_ + 1 y_49_ ^ 2 ] >= 23586.75
quadratic_ranged_154_lb: [ 1 x_48_ ^ 2 - 2 x_49_ * x_48_ + 1 x_49_ ^ 2 + 1 y_48_ ^ 2 - 2 y_49_ * y_48_ + 1 y_49_ ^ 2 ] >= 18913.95
quadratic_ranged_155_lb: [ 1 x_15_ ^ 2 - 2 x_50_ * x_15_ + 1 x_50_ ^ 2 + 1 y_15_ ^ 2 - 2 y_50_ * y_15_ + 1 y_50_ ^ 2 ] >= 17943.75
quadratic_ranged_156_lb: [ 1 x_23_ ^ 2 - 2 x_50_ * x_23_ + 1 x_50_ ^ 2 + 1 y_23_ ^ 2 - 2 y_50_ * y_23_ + 1 y_50_ ^ 2 ] >= 8404.11
quadratic_ranged_157_lb: [ 1 x_24_ ^ 2 - 2 x_50_ * x_24_ + 1 x_50_ ^ 2 + 1 y_24_ ^ 2 - 2 y_50_ * y_24_ + 1 y_50_ ^ 2 ] >= 14099.58
quadratic_ranged_158_lb: [ 1 x_28_ ^ 2 - 2 x_50_ * x_28_ + 1 x_50_ ^ 2 + 1 y_28_ ^ 2 - 2 y_50_ * y_28_ + 1 y_50_ ^ 2 ] >= 12901.68
quadratic_ranged_159_lb: [ 1 x_49_ ^ 2 - 2 x_50_ * x_49_ + 1 x_50_ ^ 2 + 1 y_49_ ^ 2 - 2 y_50_ * y_49_ + 1 y_50_ ^ 2 ] >= 3315.5099999999998
quadratic_ranged_160_lb: [ 1 x_10_ ^ 2 - 2 x_51_ * x_10_ + 1 x_51_ ^ 2 + 1 y_10_ ^ 2 - 2 y_51_ * y_10_ + 1 y_51_ ^ 2 ] >= 24545.07
quadratic_ranged_161_lb: [ 1 x_15_ ^ 2 - 2 x_51_ * x_15_ + 1 x_51_ ^ 2 + 1 y_15_ ^ 2 - 2 y_51_ * y_15_ + 1 y_51_ ^ 2 ] >= 11742.39
quadratic_ranged_162_lb: [ 1 x_37_ ^ 2 - 2 x_51_ * x_37_ + 1 x_51_ ^ 2 + 1 y_37_ ^ 2 - 2 y_51_ * y_37_ + 1 y_51_ ^ 2 ] >= 119.78999999999999
quadratic_ranged_163_lb: [ 1 x_48_ ^ 2 - 2 x_51_ * x_48_ + 1 x_51_ ^ 2 + 1 y_48_ ^ 2 - 2 y_51_ * y_48_ + 1 y_51_ ^ 2 ] >= 1156.32
quadratic_ranged_164_lb: [ 1 x_49_ ^ 2 - 2 x_51_ * x_49_ + 1 x_51_ ^ 2 + 1 y_49_ ^ 2 - 2 y_51_ * y_49_ + 1 y_51_ ^ 2 ] >= 14898.51
quadratic_ranged_165_lb: [ 1 x_50_ ^ 2 - 2 x_51_ * x_50_ + 1 x_51_ ^ 2 + 1 y_50_ ^ 2 - 2 y_51_ * y_50_ + 1 y_51_ ^ 2 ] >= 9302.039999999999
quadratic_ranged_166_lb: [ 1 x_35_ ^ 2 - 2 x_52_ * x_35_ + 1 x_52_ ^ 2 + 1 y_35_ ^ 2 - 2 y_52_ * y_35_ + 1 y_52_ ^ 2 ] >= 5759.82
quadratic_ranged_167_lb: [ 1 x_37_ ^ 2 - 2 x_52_ * x_37_ + 1 x_52_ ^ 2 + 1 y_37_ ^ 2 - 2 y_52_ * y_37_ + 1 y_52_ ^ 2 ] >= 13334.31
quadratic_ranged_168_lb: [ 1 x_51_ ^ 2 - 2 x_52_ * x_51_ + 1 x_52_ ^ 2 + 1 y_51_ ^ 2 - 2 y_52_ * y_51_ + 1 y_52_ ^ 2 ] >= 15849.9
quadratic_ranged_169_lb: [ 1 x_1_ ^ 2 - 2 x_53_ * x_1_ + 1 x_53_ ^ 2 + 1 y_1_ ^ 2 - 2 y_53_ * y_1_ + 1 y_53_ ^ 2 ] >= 31284.989999999998
quadratic_ranged_170_lb: [ 1 x_22_ ^ 2 - 2 x_53_ * x_22_ + 1 x_53_ ^ 2 + 1 y_22_ ^ 2 - 2 y_53_ * y_22_ + 1 y_53_ ^ 2 ] >= 1402.83
quadratic_ranged_171_lb: [ 1 x_37_ ^ 2 - 2 x_53_ * x_37_ + 1 x_53_ ^ 2 + 1 y_37_ ^ 2 - 2 y_53_ * y_37_ + 1 y_53_ ^ 2 ] >= 10923.66
quadratic_ranged_172_lb: [ 1 x_49_ ^ 2 - 2 x_53_ * x_49_ + 1 x_53_ ^ 2 + 1 y_49_ ^ 2 - 2 y_53_ * y_49_ + 1 y_53_ ^ 2 ] >= 9302.039999999999
quadratic_ranged_173_lb: [ 1 x_52_ ^ 2 - 2 x_53_ * x_52_ + 1 x_53_ ^ 2 + 1 y_52_ ^ 2 - 2 y_53_ * y_52_ + 1 y_53_ ^ 2 ] >= 1169.19
quadratic_ranged_174_lb: [ 1 x_9_ ^ 2 - 2 x_54_ * x_9_ + 1 x_54_ ^ 2 + 1 y_9_ ^ 2 - 2 y_54_ * y_9_ + 1 y_54_ ^ 2 ] >= 64.35
quadratic_ranged_175_lb: [ 1 x_14_ ^ 2 - 2 x_54_ * x_14_ + 1 x_54_ ^ 2 + 1 y_14_ ^ 2 - 2 y_54_ * y_14_ + 1 y_54_ ^ 2 ] >= 4919.31
quadratic_ranged_176_lb: [ 1 x_25_ ^ 2 - 2 x_54_ * x_25_ + 1 x_54_ ^ 2 + 1 y_25_ ^ 2 - 2 y_54_ * y_25_ + 1 y_54_ ^ 2 ] >= 12561.119999999999
quadratic_ranged_177_lb: [ 1 x_43_ ^ 2 - 2 x_54_ * x_43_ + 1 x_54_ ^ 2 + 1 y_43_ ^ 2 - 2 y_54_ * y_43_ + 1 y_54_ ^ 2 ] >= 5881.59
quadratic_ranged_178_lb: [ 1 x_45_ ^ 2 - 2 x_54_ * x_45_ + 1 x_54_ ^ 2 + 1 y_45_ ^ 2 - 2 y_54_ * y_45_ + 1 y_54_ ^ 2 ] >= 9187.2
quadratic_ranged_179_lb: [ 1 x_52_ ^ 2 - 2 x_54_ * x_52_ + 1 x_54_ ^ 2 + 1 y_52_ ^ 2 - 2 y_54_ * y_52_ + 1 y_54_ ^ 2 ] >= 16446.87
quadratic_ranged_180_lb: [ 1 x_53_ ^ 2 - 2 x_54_ * x_53_ + 1 x_54_ ^ 2 + 1 y_53_ ^ 2 - 2 y_54_ * y_53_ + 1 y_54_ ^ 2 ] >= 20671.2
quadratic_ranged_181_lb: [ 1 x_22_ ^ 2 - 2 x_55_ * x_22_ + 1 x_55_ ^ 2 + 1 y_22_ ^ 2 - 2 y_55_ * y_22_ + 1 y_55_ ^ 2 ] >= 5563.8
quadratic_ranged_182_lb: [ 1 x_27_ ^ 2 - 2 x_55_ * x_27_ + 1 x_55_ ^ 2 + 1 y_27_ ^ 2 - 2 y_55_ * y_27_ + 1 y_55_ ^ 2 ] >= 9672.3
quadratic_ranged_183_lb: [ 1 x_43_ ^ 2 - 2 x_55_ * x_43_ + 1 x_55_ ^ 2 + 1 y_43_ ^ 2 - 2 y_55_ * y_43_ + 1 y_55_ ^ 2 ] >= 20586.06
quadratic_ranged_184_lb: [ 1 x_52_ ^ 2 - 2 x_55_ * x_52_ + 1 x_55_ ^ 2 + 1 y_52_ ^ 2 - 2 y_55_ * y_52_ + 1 y_55_ ^ 2 ] >= 3613.5
quadratic_ranged_185_lb: [ 1 x_54_ ^ 2 - 2 x_55_ * x_54_ + 1 x_55_ ^ 2 + 1 y_54_ ^ 2 - 2 y_55_ * y_54_ + 1 y_55_ ^ 2 ] >= 4642.11
quadratic_ranged_186_lb: [ 1 x_2_ ^ 2 - 2 x_56_ * x_2_ + 1 x_56_ ^ 2 + 1 y_2_ ^ 2 - 2 y_56_ * y_2_ + 1 y_56_ ^ 2 ] >= 3.96
quadratic_ranged_187_lb: [ 1 x_7_ ^ 2 - 2 x_56_ * x_7_ + 1 x_56_ ^ 2 + 1 y_7_ ^ 2 - 2 y_56_ * y_7_ + 1 y_56_ ^ 2 ] >= 22885.829999999998
quadratic_ranged_188_lb: [ 1 x_22_ ^ 2 - 2 x_56_ * x_22_ + 1 x_56_ ^ 2 + 1 y_22_ ^ 2 - 2 y_56_ * y_22_ + 1 y_56_ ^ 2 ] >= 19781.19
quadratic_ranged_189_lb: [ 1 x_23_ ^ 2 - 2 x_56_ * x_23_ + 1 x_56_ ^ 2 + 1 y_23_ ^ 2 - 2 y_56_ * y_23_ + 1 y_56_ ^ 2 ] >= 9999
quadratic_ranged_190_lb: [ 1 x_32_ ^ 2 - 2 x_56_ * x_32_ + 1 x_56_ ^ 2 + 1 y_32_ ^ 2 - 2 y_56_ * y_32_ + 1 y_56_ ^ 2 ] >= 27175.5
quadratic_ranged_191_lb: [ 1 x_34_ ^ 2 - 2 x_56_ * x_34_ + 1 x_56_ ^ 2 + 1 y_34_ ^ 2 - 2 y_56_ * y_34_ + 1 y_56_ ^ 2 ] >= 16493.4
quadratic_ranged_192_lb: [ 1 x_36_ ^ 2 - 2 x_56_ * x_36_ + 1 x_56_ ^ 2 + 1 y_36_ ^ 2 - 2 y_56_ * y_36_ + 1 y_56_ ^ 2 ] >= 31724.55
quadratic_ranged_193_lb: [ 1 x_40_ ^ 2 - 2 x_56_ * x_40_ + 1 x_56_ ^ 2 + 1 y_40_ ^ 2 - 2 y_56_ * y_40_ + 1 y_56_ ^ 2 ] >= 17233.92
quadratic_ranged_194_lb: [ 1 x_48_ ^ 2 - 2 x_56_ * x_48_ + 1 x_56_ ^ 2 + 1 y_48_ ^ 2 - 2 y_56_ * y_48_ + 1 y_56_ ^ 2 ] >= 931.59
quadratic_ranged_195_lb: [ 1 x_55_ ^ 2 - 2 x_56_ * x_55_ + 1 x_56_ ^ 2 + 1 y_55_ ^ 2 - 2 y_56_ * y_55_ + 1 y_56_ ^ 2 ] >= 20529.63
quadratic_ranged_196_lb: [ 1 x_7_ ^ 2 - 2 x_57_ * x_7_ + 1 x_57_ ^ 2 + 1 y_7_ ^ 2 - 2 y_57_ * y_7_ + 1 y_57_ ^ 2 ] >= 3109.59
quadratic_ranged_197_lb: [ 1 x_12_ ^ 2 - 2 x_57_ * x_12_ + 1 x_57_ ^ 2 + 1 y_12_ ^ 2 - 2 y_57_ * y_12_ + 1 y_57_ ^ 2 ] >= 20411.82
quadratic_ranged_198_lb: [ 1 x_17_ ^ 2 - 2 x_57_ * x_17_ + 1 x_57_ ^ 2 + 1 y_17_ ^ 2 - 2 y_57_ * y_17_ + 1 y_57_ ^ 2 ] >= 3034.35
quadratic_ranged_199_lb: [ 1 x_23_ ^ 2 - 2 x_57_ * x_23_ + 1 x_57_ ^ 2 + 1 y_23_ ^ 2 - 2 y_57_ * y_23_ + 1 y_57_ ^ 2 ] >= 649.4399999999999
quadratic_ranged_200_lb: [ 1 x_45_ ^ 2 - 2 x_57_ * x_45_ + 1 x_57_ ^ 2 + 1 y_45_ ^ 2 - 2 y_57_ * y_45_ + 1 y_57_ ^ 2 ] >= 8642.7
quadratic_ranged_201_lb: [ 1 x_53_ ^ 2 - 2 x_57_ * x_53_ + 1 x_57_ ^ 2 + 1 y_53_ ^ 2 - 2 y_57_ * y_53_ + 1 y_57_ ^ 2 ] >= 24031.26
quadratic_ranged_202_lb: [ 1 x_56_ ^ 2 - 2 x_57_ * x_56_ + 1 x_57_ ^ 2 + 1 y_56_ ^ 2 - 2 y_57_ * y_56_ + 1 y_57_ ^ 2 ] >= 11424.6
quadratic_ranged_203_lb: [ 1 x_10_ ^ 2 - 2 x_58_ * x_10_ + 1 x_58_ ^ 2 + 1 y_10_ ^ 2 - 2 y_58_ * y_10_ + 1 y_58_ ^ 2 ] >= 11057.31
quadratic_ranged_204_lb: [ 1 x_11_ ^ 2 - 2 x_58_ * x_11_ + 1 x_58_ ^ 2 + 1 y_11_ ^ 2 - 2 y_58_ * y_11_ + 1 y_58_ ^ 2 ] >= 824.67
quadratic_ranged_205_lb: [ 1 x_24_ ^ 2 - 2 x_58_ * x_24_ + 1 x_58_ ^ 2 + 1 y_24_ ^ 2 - 2 y_58_ * y_24_ + 1 y_58_ ^ 2 ] >= 13719.42
quadratic_ranged_206_lb: [ 1 x_31_ ^ 2 - 2 x_58_ * x_31_ + 1 x_58_ ^ 2 + 1 y_31_ ^ 2 - 2 y_58_ * y_31_ + 1 y_58_ ^ 2 ] >= 2519.55
quadratic_ranged_207_lb: [ 1 x_32_ ^ 2 - 2 x_58_ * x_32_ + 1 x_58_ ^ 2 + 1 y_32_ ^ 2 - 2 y_58_ * y_32_ + 1 y_58_ ^ 2 ] >= 5113.35
quadratic_ranged_208_lb: [ 1 x_36_ ^ 2 - 2 x_58_ * x_36_ + 1 x_58_ ^ 2 + 1 y_36_ ^ 2 - 2 y_58_ * y_36_ + 1 y_58_ ^ 2 ] >= 16483.5
quadratic_ranged_209_lb: [ 1 x_49_ ^ 2 - 2 x_58_ * x_49_ + 1 x_58_ ^ 2 + 1 y_49_ ^ 2 - 2 y_58_ * y_49_ + 1 y_58_ ^ 2 ] >= 4768.83
quadratic_ranged_210_lb: [ 1 x_53_ ^ 2 - 2 x_58_ * x_53_ + 1 x_58_ ^ 2 + 1 y_53_ ^ 2 - 2 y_58_ * y_53_ + 1 y_58_ ^ 2 ] >= 10756.35
quadratic_ranged_211_lb: [ 1 x_57_ ^ 2 - 2 x_58_ * x_57_ + 1 x_58_ ^ 2 + 1 y_57_ ^ 2 - 2 y_58_ * y_57_ + 1 y_58_ ^ 2 ] >= 2994.75
quadratic_ranged_212_lb: [ 1 x_1_ ^ 2 - 2 x_59_ * x_1_ + 1 x_59_ ^ 2 + 1 y_1_ ^ 2 - 2 y_59_ * y_1_ + 1 y_59_ ^ 2 ] >= 21788.91
quadratic_ranged_213_lb: [ 1 x_4_ ^ 2 - 2 x_59_ * x_4_ + 1 x_59_ ^ 2 + 1 y_4_ ^ 2 - 2 y_59_ * y_4_ + 1 y_59_ ^ 2 ] >= 10012.86
quadratic_ranged_214_lb: [ 1 x_8_ ^ 2 - 2 x_59_ * x_8_ + 1 x_59_ ^ 2 + 1 y_8_ ^ 2 - 2 y_59_ * y_8_ + 1 y_59_ ^ 2 ] >= 785.0699999999999
quadratic_ranged_215_lb: [ 1 x_37_ ^ 2 - 2 x_59_ * x_37_ + 1 x_59_ ^ 2 + 1 y_37_ ^ 2 - 2 y_59_ * y_37_ + 1 y_59_ ^ 2 ] >= 13719.42
quadratic_ranged_216_lb: [ 1 x_54_ ^ 2 - 2 x_59_ * x_54_ + 1 x_59_ ^ 2 + 1 y_54_ ^ 2 - 2 y_59_ * y_54_ + 1 y_59_ ^ 2 ] >= 3579.84
quadratic_ranged_217_lb: [ 1 x_58_ ^ 2 - 2 x_59_ * x_58_ + 1 x_59_ ^ 2 + 1 y_58_ ^ 2 - 2 y_59_ * y_58_ + 1 y_59_ ^ 2 ] >= 4491.63
quadratic_ranged_218_lb: [ 1 x_30_ ^ 2 - 2 x_60_ * x_30_ + 1 x_60_ ^ 2 + 1 y_30_ ^ 2 - 2 y_60_ * y_30_ + 1 y_60_ ^ 2 ] >= 1071.18
quadratic_ranged_219_lb: [ 1 x_55_ ^ 2 - 2 x_60_ * x_55_ + 1 x_60_ ^ 2 + 1 y_55_ ^ 2 - 2 y_60_ * y_55_ + 1 y_60_ ^ 2 ] >= 4506.48
quadratic_ranged_220_lb: [ 1 x_59_ ^ 2 - 2 x_60_ * x_59_ + 1 x_60_ ^ 2 + 1 y_59_ ^ 2 - 2 y_60_ * y_59_ + 1 y_60_ ^ 2 ] >= 10696.95
quadratic_ranged_221_lb: [ 1 x_1_ ^ 2 - 2 x_61_ * x_1_ + 1 x_61_ ^ 2 + 1 y_1_ ^ 2 - 2 y_61_ * y_1_ + 1 y_61_ ^ 2 ] >= 24761.88
quadratic_ranged_222_lb: [ 1 x_7_ ^ 2 - 2 x_61_ * x_7_ + 1 x_61_ ^ 2 + 1 y_7_ ^ 2 - 2 y_61_ * y_7_ + 1 y_61_ ^ 2 ] >= 14337.18
quadratic_ranged_223_lb: [ 1 x_28_ ^ 2 - 2 x_61_ * x_28_ + 1 x_61_ ^ 2 + 1 y_28_ ^ 2 - 2 y_61_ * y_28_ + 1 y_61_ ^ 2 ] >= 21684.96
quadratic_ranged_224_lb: [ 1 x_48_ ^ 2 - 2 x_61_ * x_48_ + 1 x_61_ ^ 2 + 1 y_48_ ^ 2 - 2 y_61_ * y_48_ + 1 y_61_ ^ 2 ] >= 16319.16
quadratic_ranged_225_lb: [ 1 x_54_ ^ 2 - 2 x_61_ * x_54_ + 1 x_61_ ^ 2 + 1 y_54_ ^ 2 - 2 y_61_ * y_54_ + 1 y_61_ ^ 2 ] >= 16981.47
quadratic_ranged_226_lb: [ 1 x_59_ ^ 2 - 2 x_61_ * x_59_ + 1 x_61_ ^ 2 + 1 y_59_ ^ 2 - 2 y_61_ * y_59_ + 1 y_61_ ^ 2 ] >= 10875.15
quadratic_ranged_227_lb: [ 1 x_60_ ^ 2 - 2 x_61_ * x_60_ + 1 x_61_ ^ 2 + 1 y_60_ ^ 2 - 2 y_61_ * y_60_ + 1 y_61_ ^ 2 ] >= 198
quadratic_ranged_228_lb: [ 1 x_13_ ^ 2 - 2 x_62_ * x_13_ + 1 x_62_ ^ 2 + 1 y_13_ ^ 2 - 2 y_62_ * y_13_ + 1 y_62_ ^ 2 ] >= 3328.38
quadratic_ranged_229_lb: [ 1 x_18_ ^ 2 - 2 x_62_ * x_18_ + 1 x_62_ ^ 2 + 1 y_18_ ^ 2 - 2 y_62_ * y_18_ + 1 y_62_ ^ 2 ] >= 10060.38
quadratic_ranged_230_lb: [ 1 x_47_ ^ 2 - 2 x_62_ * x_47_ + 1 x_62_ ^ 2 + 1 y_47_ ^ 2 - 2 y_62_ * y_47_ + 1 y_62_ ^ 2 ] >= 6994.35
quadratic_ranged_231_lb: [ 1 x_61_ ^ 2 - 2 x_62_ * x_61_ + 1 x_62_ ^ 2 + 1 y_61_ ^ 2 - 2 y_62_ * y_61_ + 1 y_62_ ^ 2 ] >= 1584.99
quadratic_ranged_232_lb: [ 1 x_10_ ^ 2 - 2 x_63_ * x_10_ + 1 x_63_ ^ 2 + 1 y_10_ ^ 2 - 2 y_63_ * y_10_ + 1 y_63_ ^ 2 ] >= 3497.67
quadratic_ranged_233_lb: [ 1 x_16_ ^ 2 - 2 x_63_ * x_16_ + 1 x_63_ ^ 2 + 1 y_16_ ^ 2 - 2 y_63_ * y_16_ + 1 y_63_ ^ 2 ] >= 11763.18
quadratic_ranged_234_lb: [ 1 x_26_ ^ 2 - 2 x_63_ * x_26_ + 1 x_63_ ^ 2 + 1 y_26_ ^ 2 - 2 y_63_ * y_26_ + 1 y_63_ ^ 2 ] >= 4759.92
quadratic_ranged_235_lb: [ 1 x_33_ ^ 2 - 2 x_63_ * x_33_ + 1 x_63_ ^ 2 + 1 y_33_ ^ 2 - 2 y_63_ * y_33_ + 1 y_63_ ^ 2 ] >= 2158.2
quadratic_ranged_236_lb: [ 1 x_37_ ^ 2 - 2 x_63_ * x_37_ + 1 x_63_ ^ 2 + 1 y_37_ ^ 2 - 2 y_63_ * y_37_ + 1 y_63_ ^ 2 ] >= 9845.55
quadratic_ranged_237_lb: [ 1 x_43_ ^ 2 - 2 x_63_ * x_43_ + 1 x_63_ ^ 2 + 1 y_43_ ^ 2 - 2 y_63_ * y_43_ + 1 y_63_ ^ 2 ] >= 4981.68
quadratic_ranged_238_lb: [ 1 x_54_ ^ 2 - 2 x_63_ * x_54_ + 1 x_63_ ^ 2 + 1 y_54_ ^ 2 - 2 y_63_ * y_54_ + 1 y_63_ ^ 2 ] >= 80.19
quadratic_ranged_239_lb: [ 1 x_57_ ^ 2 - 2 x_63_ * x_57_ + 1 x_63_ ^ 2 + 1 y_57_ ^ 2 - 2 y_63_ * y_57_ + 1 y_63_ ^ 2 ] >= 72.27
quadratic_ranged_240_lb: [ 1 x_62_ ^ 2 - 2 x_63_ * x_62_ + 1 x_63_ ^ 2 + 1 y_62_ ^ 2 - 2 y_63_ * y_62_ + 1 y_63_ ^ 2 ] >= 12724.47
quadratic_ranged_241_lb: [ 1 x_25_ ^ 2 - 2 x_64_ * x_25_ + 1 x_64_ ^ 2 + 1 y_25_ ^ 2 - 2 y_64_ * y_25_ + 1 y_64_ ^ 2 ] >= 3806.55
quadratic_ranged_242_lb: [ 1 x_28_ ^ 2 - 2 x_64_ * x_28_ + 1 x_64_ ^ 2 + 1 y_28_ ^ 2 - 2 y_64_ * y_28_ + 1 y_64_ ^ 2 ] >= 793.98
quadratic_ranged_243_lb: [ 1 x_47_ ^ 2 - 2 x_64_ * x_47_ + 1 x_64_ ^ 2 + 1 y_47_ ^ 2 - 2 y_64_ * y_47_ + 1 y_64_ ^ 2 ] >= 22556.16
quadratic_ranged_244_lb: [ 1 x_50_ ^ 2 - 2 x_64_ * x_50_ + 1 x_64_ ^ 2 + 1 y_50_ ^ 2 - 2 y_64_ * y_50_ + 1 y_64_ ^ 2 ] >= 9181.26
quadratic_ranged_245_lb: [ 1 x_63_ ^ 2 - 2 x_64_ * x_63_ + 1 x_64_ ^ 2 + 1 y_63_ ^ 2 - 2 y_64_ * y_63_ + 1 y_64_ ^ 2 ] >= 14212.44
quadratic_ranged_246_lb: [ 1 x_1_ ^ 2 - 2 x_65_ * x_1_ + 1 x_65_ ^ 2 + 1 y_1_ ^ 2 - 2 y_65_ * y_1_ + 1 y_65_ ^ 2 ] >= 7845.75
quadratic_ranged_247_lb: [ 1 x_3_ ^ 2 - 2 x_65_ * x_3_ + 1 x_65_ ^ 2 + 1 y_3_ ^ 2 - 2 y_65_ * y_3_ + 1 y_65_ ^ 2 ] >= 2325.5099999999998
quadratic_ranged_248_lb: [ 1 x_11_ ^ 2 - 2 x_65_ * x_11_ + 1 x_65_ ^ 2 + 1 y_11_ ^ 2 - 2 y_65_ * y_11_ + 1 y_65_ ^ 2 ] >= 3777.84
quadratic_ranged_249_lb: [ 1 x_13_ ^ 2 - 2 x_65_ * x_13_ + 1 x_65_ ^ 2 + 1 y_13_ ^ 2 - 2 y_65_ * y_13_ + 1 y_65_ ^ 2 ] >= 6900.3
quadratic_ranged_250_lb: [ 1 x_22_ ^ 2 - 2 x_65_ * x_22_ + 1 x_65_ ^ 2 + 1 y_22_ ^ 2 - 2 y_65_ * y_22_ + 1 y_65_ ^ 2 ] >= 3054.15
quadratic_ranged_251_lb: [ 1 x_29_ ^ 2 - 2 x_65_ * x_29_ + 1 x_65_ ^ 2 + 1 y_29_ ^ 2 - 2 y_65_ * y_29_ + 1 y_65_ ^ 2 ] >= 3113.55
quadratic_ranged_252_lb: [ 1 x_32_ ^ 2 - 2 x_65_ * x_32_ + 1 x_65_ ^ 2 + 1 y_32_ ^ 2 - 2 y_65_ * y_32_ + 1 y_65_ ^ 2 ] >= 12830.4
quadratic_ranged_253_lb: [ 1 x_44_ ^ 2 - 2 x_65_ * x_44_ + 1 x_65_ ^ 2 + 1 y_44_ ^ 2 - 2 y_65_ * y_44_ + 1 y_65_ ^ 2 ] >= 17392.32
quadratic_ranged_254_lb: [ 1 x_60_ ^ 2 - 2 x_65_ * x_60_ + 1 x_65_ ^ 2 + 1 y_60_ ^ 2 - 2 y_65_ * y_60_ + 1 y_65_ ^ 2 ] >= 3129.39
quadratic_ranged_255_lb: [ 1 x_64_ ^ 2 - 2 x_65_ * x_64_ + 1 x_65_ ^ 2 + 1 y_64_ ^ 2 - 2 y_65_ * y_64_ + 1 y_65_ ^ 2 ] >= 23064.03
quadratic_ranged_256_lb: [ 1 x_11_ ^ 2 - 2 x_66_ * x_11_ + 1 x_66_ ^ 2 + 1 y_11_ ^ 2 - 2 y_66_ * y_11_ + 1 y_66_ ^ 2 ] >= 23333.31
quadratic_ranged_257_lb: [ 1 x_33_ ^ 2 - 2 x_66_ * x_33_ + 1 x_66_ ^ 2 + 1 y_33_ ^ 2 - 2 y_66_ * y_33_ + 1 y_66_ ^ 2 ] >= 25749.9
quadratic_ranged_258_lb: [ 1 x_63_ ^ 2 - 2 x_66_ * x_63_ + 1 x_66_ ^ 2 + 1 y_63_ ^ 2 - 2 y_66_ * y_63_ + 1 y_66_ ^ 2 ] >= 15944.94
quadratic_ranged_259_lb: [ 1 x_65_ ^ 2 - 2 x_66_ * x_65_ + 1 x_66_ ^ 2 + 1 y_65_ ^ 2 - 2 y_66_ * y_65_ + 1 y_66_ ^ 2 ] >= 31684.95
quadratic_ranged_260_lb: [ 1 x_3_ ^ 2 - 2 x_67_ * x_3_ + 1 x_67_ ^ 2 + 1 y_3_ ^ 2 - 2 y_67_ * y_3_ + 1 y_67_ ^ 2 ] >= 594.99
quadratic_ranged_261_lb: [ 1 x_4_ ^ 2 - 2 x_67_ * x_4_ + 1 x_67_ ^ 2 + 1 y_4_ ^ 2 - 2 y_67_ * y_4_ + 1 y_67_ ^ 2 ] >= 3265.02
quadratic_ranged_262_lb: [ 1 x_23_ ^ 2 - 2 x_67_ * x_23_ + 1 x_67_ ^ 2 + 1 y_23_ ^ 2 - 2 y_67_ * y_23_ + 1 y_67_ ^ 2 ] >= 4120.38
quadratic_ranged_263_lb: [ 1 x_29_ ^ 2 - 2 x_67_ * x_29_ + 1 x_67_ ^ 2 + 1 y_29_ ^ 2 - 2 y_67_ * y_29_ + 1 y_67_ ^ 2 ] >= 195.03
quadratic_ranged_264_lb: [ 1 x_40_ ^ 2 - 2 x_67_ * x_40_ + 1 x_67_ ^ 2 + 1 y_40_ ^ 2 - 2 y_67_ * y_40_ + 1 y_67_ ^ 2 ] >= 14883.66
quadratic_ranged_265_lb: [ 1 x_51_ ^ 2 - 2 x_67_ * x_51_ + 1 x_67_ ^ 2 + 1 y_51_ ^ 2 - 2 y_67_ * y_51_ + 1 y_67_ ^ 2 ] >= 7572.51
quadratic_ranged_266_lb: [ 1 x_66_ ^ 2 - 2 x_67_ * x_66_ + 1 x_67_ ^ 2 + 1 y_66_ ^ 2 - 2 y_67_ * y_66_ + 1 y_67_ ^ 2 ] >= 13346.19
quadratic_ranged_267_lb: [ 1 x_2_ ^ 2 - 2 x_68_ * x_2_ + 1 x_68_ ^ 2 + 1 y_2_ ^ 2 - 2 y_68_ * y_2_ + 1 y_68_ ^ 2 ] >= 22636.35
quadratic_ranged_268_lb: [ 1 x_8_ ^ 2 - 2 x_68_ * x_8_ + 1 x_68_ ^ 2 + 1 y_8_ ^ 2 - 2 y_68_ * y_8_ + 1 y_68_ ^ 2 ] >= 28957.5
quadratic_ranged_269_lb: [ 1 x_11_ ^ 2 - 2 x_68_ * x_11_ + 1 x_68_ ^ 2 + 1 y_11_ ^ 2 - 2 y_68_ * y_11_ + 1 y_68_ ^ 2 ] >= 12562.11
quadratic_ranged_270_lb: [ 1 x_12_ ^ 2 - 2 x_68_ * x_12_ + 1 x_68_ ^ 2 + 1 y_12_ ^ 2 - 2 y_68_ * y_12_ + 1 y_68_ ^ 2 ] >= 34761.87
quadratic_ranged_271_lb: [ 1 x_23_ ^ 2 - 2 x_68_ * x_23_ + 1 x_68_ ^ 2 + 1 y_23_ ^ 2 - 2 y_68_ * y_23_ + 1 y_68_ ^ 2 ] >= 11286.99
quadratic_ranged_272_lb: [ 1 x_25_ ^ 2 - 2 x_68_ * x_25_ + 1 x_68_ ^ 2 + 1 y_25_ ^ 2 - 2 y_68_ * y_25_ + 1 y_68_ ^ 2 ] >= 40868.19
quadratic_ranged_273_lb: [ 1 x_36_ ^ 2 - 2 x_68_ * x_36_ + 1 x_68_ ^ 2 + 1 y_36_ ^ 2 - 2 y_68_ * y_36_ + 1 y_68_ ^ 2 ] >= 3457.08
quadratic_ranged_274_lb: [ 1 x_51_ ^ 2 - 2 x_68_ * x_51_ + 1 x_68_ ^ 2 + 1 y_51_ ^ 2 - 2 y_68_ * y_51_ + 1 y_68_ ^ 2 ] >= 27286.38
quadratic_ranged_275_lb: [ 1 x_67_ ^ 2 - 2 x_68_ * x_67_ + 1 x_68_ ^ 2 + 1 y_67_ ^ 2 - 2 y_68_ * y_67_ + 1 y_68_ ^ 2 ] >= 27705.15
quadratic_ranged_276_lb: [ 1 x_16_ ^ 2 - 2 x_69_ * x_16_ + 1 x_69_ ^ 2 + 1 y_16_ ^ 2 - 2 y_69_ * y_16_ + 1 y_69_ ^ 2 ] >= 12625.47
quadratic_ranged_277_lb: [ 1 x_24_ ^ 2 - 2 x_69_ * x_24_ + 1 x_69_ ^ 2 + 1 y_24_ ^ 2 - 2 y_69_ * y_24_ + 1 y_69_ ^ 2 ] >= 2440.35
quadratic_ranged_278_lb: [ 1 x_34_ ^ 2 - 2 x_69_ * x_34_ + 1 x_69_ ^ 2 + 1 y_34_ ^ 2 - 2 y_69_ * y_34_ + 1 y_69_ ^ 2 ] >= 11602.8
quadratic_ranged_279_lb: [ 1 x_43_ ^ 2 - 2 x_69_ * x_43_ + 1 x_69_ ^ 2 + 1 y_43_ ^ 2 - 2 y_69_ * y_43_ + 1 y_69_ ^ 2 ] >= 16442.91
quadratic_ranged_280_lb: [ 1 x_56_ ^ 2 - 2 x_69_ * x_56_ + 1 x_69_ ^ 2 + 1 y_56_ ^ 2 - 2 y_69_ * y_56_ + 1 y_69_ ^ 2 ] >= 28484.28
quadratic_ranged_281_lb: [ 1 x_68_ ^ 2 - 2 x_69_ * x_68_ + 1 x_69_ ^ 2 + 1 y_68_ ^ 2 - 2 y_69_ * y_68_ + 1 y_69_ ^ 2 ] >= 21967.11
quadratic_ranged_282_lb: [ 1 x_9_ ^ 2 - 2 x_70_ * x_9_ + 1 x_70_ ^ 2 + 1 y_9_ ^ 2 - 2 y_70_ * y_9_ + 1 y_70_ ^ 2 ] >= 79.2
quadratic_ranged_283_lb: [ 1 x_16_ ^ 2 - 2 x_70_ * x_16_ + 1 x_70_ ^ 2 + 1 y_16_ ^ 2 - 2 y_70_ * y_16_ + 1 y_70_ ^ 2 ] >= 10470.24
quadratic_ranged_284_lb: [ 1 x_38_ ^ 2 - 2 x_70_ * x_38_ + 1 x_70_ ^ 2 + 1 y_38_ ^ 2 - 2 y_70_ * y_38_ + 1 y_70_ ^ 2 ] >= 8236.8
quadratic_ranged_285_lb: [ 1 x_48_ ^ 2 - 2 x_70_ * x_48_ + 1 x_70_ ^ 2 + 1 y_48_ ^ 2 - 2 y_70_ * y_48_ + 1 y_70_ ^ 2 ] >= 9603
quadratic_ranged_286_lb: [ 1 x_56_ ^ 2 - 2 x_70_ * x_56_ + 1 x_70_ ^ 2 + 1 y_56_ ^ 2 - 2 y_70_ * y_56_ + 1 y_70_ ^ 2 ] >= 14993.55
quadratic_ranged_287_lb: [ 1 x_69_ ^ 2 - 2 x_70_ * x_69_ + 1 x_70_ ^ 2 + 1 y_69_ ^ 2 - 2 y_70_ * y_69_ + 1 y_70_ ^ 2 ] >= 3279.87
quadratic_ranged_288_lb: [ 1 x_16_ ^ 2 - 2 x_71_ * x_16_ + 1 x_71_ ^ 2 + 1 y_16_ ^ 2 - 2 y_71_ * y_16_ + 1 y_71_ ^ 2 ] >= 18616.95
quadratic_ranged_289_lb: [ 1 x_25_ ^ 2 - 2 x_71_ * x_25_ + 1 x_71_ ^ 2 + 1 y_25_ ^ 2 - 2 y_71_ * y_25_ + 1 y_71_ ^ 2 ] >= 9428.76
quadratic_ranged_290_lb: [ 1 x_35_ ^ 2 - 2 x_71_ * x_35_ + 1 x_71_ ^ 2 + 1 y_35_ ^ 2 - 2 y_71_ * y_35_ + 1 y_71_ ^ 2 ] >= 19824.75
quadratic_ranged_291_lb: [ 1 x_41_ ^ 2 - 2 x_71_ * x_41_ + 1 x_71_ ^ 2 + 1 y_41_ ^ 2 - 2 y_71_ * y_41_ + 1 y_71_ ^ 2 ] >= 1308.78
quadratic_ranged_292_lb: [ 1 x_52_ ^ 2 - 2 x_71_ * x_52_ + 1 x_71_ ^ 2 + 1 y_52_ ^ 2 - 2 y_71_ * y_52_ + 1 y_71_ ^ 2 ] >= 15076.71
quadratic_ranged_293_lb: [ 1 x_66_ ^ 2 - 2 x_71_ * x_66_ + 1 x_71_ ^ 2 + 1 y_66_ ^ 2 - 2 y_71_ * y_66_ + 1 y_71_ ^ 2 ] >= 4638.15
quadratic_ranged_294_lb: [ 1 x_68_ ^ 2 - 2 x_71_ * x_68_ + 1 x_71_ ^ 2 + 1 y_68_ ^ 2 - 2 y_71_ * y_68_ + 1 y_71_ ^ 2 ] >= 13346.19
quadratic_ranged_295_lb: [ 1 x_70_ ^ 2 - 2 x_71_ * x_70_ + 1 x_71_ ^ 2 + 1 y_70_ ^ 2 - 2 y_71_ * y_70_ + 1 y_71_ ^ 2 ] >= 2246.31
quadratic_ranged_296_lb: [ 1 x_1_ ^ 2 - 2 x_72_ * x_1_ + 1 x_72_ ^ 2 + 1 y_1_ ^ 2 - 2 y_72_ * y_1_ + 1 y_72_ ^ 2 ] >= 12003.75
quadratic_ranged_297_lb: [ 1 x_11_ ^ 2 - 2 x_72_ * x_11_ + 1 x_72_ ^ 2 + 1 y_11_ ^ 2 - 2 y_72_ * y_11_ + 1 y_72_ ^ 2 ] >= 3556.08
quadratic_ranged_298_lb: [ 1 x_12_ ^ 2 - 2 x_72_ * x_12_ + 1 x_72_ ^ 2 + 1 y_12_ ^ 2 - 2 y_72_ * y_12_ + 1 y_72_ ^ 2 ] >= 21308.76
quadratic_ranged_299_lb: [ 1 x_22_ ^ 2 - 2 x_72_ * x_22_ + 1 x_72_ ^ 2 + 1 y_22_ ^ 2 - 2 y_72_ * y_22_ + 1 y_72_ ^ 2 ] >= 2555.19
quadratic_ranged_300_lb: [ 1 x_24_ ^ 2 - 2 x_72_ * x_24_ + 1 x_72_ ^ 2 + 1 y_24_ ^ 2 - 2 y_72_ * y_24_ + 1 y_72_ ^ 2 ] >= 15686.55
quadratic_ranged_301_lb: [ 1 x_28_ ^ 2 - 2 x_72_ * x_28_ + 1 x_72_ ^ 2 + 1 y_28_ ^ 2 - 2 y_72_ * y_28_ + 1 y_72_ ^ 2 ] >= 15646.95
quadratic_ranged_302_lb: [ 1 x_32_ ^ 2 - 2 x_72_ * x_32_ + 1 x_72_ ^ 2 + 1 y_32_ ^ 2 - 2 y_72_ * y_32_ + 1 y_72_ ^ 2 ] >= 6478.5599999999995
quadratic_ranged_303_lb: [ 1 x_50_ ^ 2 - 2 x_72_ * x_50_ + 1 x_72_ ^ 2 + 1 y_50_ ^ 2 - 2 y_72_ * y_50_ + 1 y_72_ ^ 2 ] >= 1592.91
quadratic_ranged_304_lb: [ 1 x_71_ ^ 2 - 2 x_72_ * x_71_ + 1 x_72_ ^ 2 + 1 y_71_ ^ 2 - 2 y_72_ * y_71_ + 1 y_72_ ^ 2 ] >= 10315.8
quadratic_ranged_305_lb: [ 1 x_9_ ^ 2 - 2 x_73_ * x_9_ + 1 x_73_ ^ 2 + 1 y_9_ ^ 2 - 2 y_73_ * y_9_ + 1 y_73_ ^ 2 ] >= 4891.59
quadratic_ranged_306_lb: [ 1 x_11_ ^ 2 - 2 x_73_ * x_11_ + 1 x_73_ ^ 2 + 1 y_11_ ^ 2 - 2 y_73_ * y_11_ + 1 y_73_ ^ 2 ] >= 4854.96
quadratic_ranged_307_lb: [ 1 x_25_ ^ 2 - 2 x_73_ * x_25_ + 1 x_73_ ^ 2 + 1 y_25_ ^ 2 - 2 y_73_ * y_25_ + 1 y_73_ ^ 2 ] >= 2510.64
quadratic_ranged_308_lb: [ 1 x_27_ ^ 2 - 2 x_73_ * x_27_ + 1 x_73_ ^ 2 + 1 y_27_ ^ 2 - 2 y_73_ * y_27_ + 1 y_73_ ^ 2 ] >= 8990.19
quadratic_ranged_309_lb: [ 1 x_40_ ^ 2 - 2 x_73_ * x_40_ + 1 x_73_ ^ 2 + 1 y_40_ ^ 2 - 2 y_73_ * y_40_ + 1 y_73_ ^ 2 ] >= 13648.14
quadratic_ranged_310_lb: [ 1 x_43_ ^ 2 - 2 x_73_ * x_43_ + 1 x_73_ ^ 2 + 1 y_43_ ^ 2 - 2 y_73_ * y_43_ + 1 y_73_ ^ 2 ] >= 21020.67
quadratic_ranged_311_lb: [ 1 x_49_ ^ 2 - 2 x_73_ * x_49_ + 1 x_73_ ^ 2 + 1 y_49_ ^ 2 - 2 y_73_ * y_49_ + 1 y_73_ ^ 2 ] >= 1207.8
quadratic_ranged_312_lb: [ 1 x_53_ ^ 2 - 2 x_73_ * x_53_ + 1 x_73_ ^ 2 + 1 y_53_ ^ 2 - 2 y_73_ * y_53_ + 1 y_73_ ^ 2 ] >= 5805.36
quadratic_ranged_313_lb: [ 1 x_54_ ^ 2 - 2 x_73_ * x_54_ + 1 x_73_ ^ 2 + 1 y_54_ ^ 2 - 2 y_73_ * y_54_ + 1 y_73_ ^ 2 ] >= 4759.92
quadratic_ranged_314_lb: [ 1 x_60_ ^ 2 - 2 x_73_ * x_60_ + 1 x_73_ ^ 2 + 1 y_60_ ^ 2 - 2 y_73_ * y_60_ + 1 y_73_ ^ 2 ] >= 3937.23
quadratic_ranged_315_lb: [ 1 x_67_ ^ 2 - 2 x_73_ * x_67_ + 1 x_73_ ^ 2 + 1 y_67_ ^ 2 - 2 y_73_ * y_67_ + 1 y_73_ ^ 2 ] >= 39.6
quadratic_ranged_316_lb: [ 1 x_72_ ^ 2 - 2 x_73_ * x_72_ + 1 x_73_ ^ 2 + 1 y_72_ ^ 2 - 2 y_73_ * y_72_ + 1 y_73_ ^ 2 ] >= 1029.6
quadratic_ranged_317_lb: [ 1 x_3_ ^ 2 - 2 x_74_ * x_3_ + 1 x_74_ ^ 2 + 1 y_3_ ^ 2 - 2 y_74_ * y_3_ + 1 y_74_ ^ 2 ] >= 2861.1
quadratic_ranged_318_lb: [ 1 x_11_ ^ 2 - 2 x_74_ * x_11_ + 1 x_74_ ^ 2 + 1 y_11_ ^ 2 - 2 y_74_ * y_11_ + 1 y_74_ ^ 2 ] >= 9766.35
quadratic_ranged_319_lb: [ 1 x_31_ ^ 2 - 2 x_74_ * x_31_ + 1 x_74_ ^ 2 + 1 y_31_ ^ 2 - 2 y_74_ * y_31_ + 1 y_74_ ^ 2 ] >= 4392.63
quadratic_ranged_320_lb: [ 1 x_38_ ^ 2 - 2 x_74_ * x_38_ + 1 x_74_ ^ 2 + 1 y_38_ ^ 2 - 2 y_74_ * y_38_ + 1 y_74_ ^ 2 ] >= 30066.3
quadratic_ranged_321_lb: [ 1 x_42_ ^ 2 - 2 x_74_ * x_42_ + 1 x_74_ ^ 2 + 1 y_42_ ^ 2 - 2 y_74_ * y_42_ + 1 y_74_ ^ 2 ] >= 24849.989999999998
quadratic_ranged_322_lb: [ 1 x_52_ ^ 2 - 2 x_74_ * x_52_ + 1 x_74_ ^ 2 + 1 y_52_ ^ 2 - 2 y_74_ * y_52_ + 1 y_74_ ^ 2 ] >= 1560.24
quadratic_ranged_323_lb: [ 1 x_54_ ^ 2 - 2 x_74_ * x_54_ + 1 x_74_ ^ 2 + 1 y_54_ ^ 2 - 2 y_74_ * y_54_ + 1 y_74_ ^ 2 ] >= 8507.07
quadratic_ranged_324_lb: [ 1 x_63_ ^ 2 - 2 x_74_ * x_63_ + 1 x_74_ ^ 2 + 1 y_63_ ^ 2 - 2 y_74_ * y_63_ + 1 y_74_ ^ 2 ] >= 10137.6
quadratic_ranged_325_lb: [ 1 x_73_ ^ 2 - 2 x_74_ * x_73_ + 1 x_74_ ^ 2 + 1 y_73_ ^ 2 - 2 y_74_ * y_73_ + 1 y_74_ ^ 2 ] >= 868.23
quadratic_ranged_326_lb: [ 1 x_13_ ^ 2 - 2 x_75_ * x_13_ + 1 x_75_ ^ 2 + 1 y_13_ ^ 2 - 2 y_75_ * y_13_ + 1 y_75_ ^ 2 ] >= 2076.03
quadratic_ranged_327_lb: [ 1 x_39_ ^ 2 - 2 x_75_ * x_39_ + 1 x_75_ ^ 2 + 1 y_39_ ^ 2 - 2 y_75_ * y_39_ + 1 y_75_ ^ 2 ] >= 8674.38
quadratic_ranged_328_lb: [ 1 x_42_ ^ 2 - 2 x_75_ * x_42_ + 1 x_75_ ^ 2 + 1 y_42_ ^ 2 - 2 y_75_ * y_42_ + 1 y_75_ ^ 2 ] >= 33779.79
quadratic_ranged_329_lb: [ 1 x_59_ ^ 2 - 2 x_75_ * x_59_ + 1 x_75_ ^ 2 + 1 y_59_ ^ 2 - 2 y_75_ * y_59_ + 1 y_75_ ^ 2 ] >= 12146.31
quadratic_ranged_330_lb: [ 1 x_74_ ^ 2 - 2 x_75_ * x_74_ + 1 x_75_ ^ 2 + 1 y_74_ ^ 2 - 2 y_75_ * y_74_ + 1 y_75_ ^ 2 ] >= 5615.28
quadratic_ranged_331_lb: [ 1 x_13_ ^ 2 - 2 x_76_ * x_13_ + 1 x_76_ ^ 2 + 1 y_13_ ^ 2 - 2 y_76_ * y_13_ + 1 y_76_ ^ 2 ] >= 41929.47
quadratic_ranged_332_lb: [ 1 x_37_ ^ 2 - 2 x_76_ * x_37_ + 1 x_76_ ^ 2 + 1 y_37_ ^ 2 - 2 y_76_ * y_37_ + 1 y_76_ ^ 2 ] >= 33205.59
quadratic_ranged_333_lb: [ 1 x_51_ ^ 2 - 2 x_76_ * x_51_ + 1 x_76_ ^ 2 + 1 y_51_ ^ 2 - 2 y_76_ * y_51_ + 1 y_76_ ^ 2 ] >= 32149.26
quadratic_ranged_334_lb: [ 1 x_62_ ^ 2 - 2 x_76_ * x_62_ + 1 x_76_ ^ 2 + 1 y_62_ ^ 2 - 2 y_76_ * y_62_ + 1 y_76_ ^ 2 ] >= 39676.23
quadratic_ranged_335_lb: [ 1 x_63_ ^ 2 - 2 x_76_ * x_63_ + 1 x_76_ ^ 2 + 1 y_63_ ^ 2 - 2 y_76_ * y_63_ + 1 y_76_ ^ 2 ] >= 7464.6
quadratic_ranged_336_lb: [ 1 x_75_ ^ 2 - 2 x_76_ * x_75_ + 1 x_76_ ^ 2 + 1 y_75_ ^ 2 - 2 y_76_ * y_75_ + 1 y_76_ ^ 2 ] >= 48015
quadratic_ranged_337_lb: [ 1 x_3_ ^ 2 - 2 x_77_ * x_3_ + 1 x_77_ ^ 2 + 1 y_3_ ^ 2 - 2 y_77_ * y_3_ + 1 y_77_ ^ 2 ] >= 10395.99
quadratic_ranged_338_lb: [ 1 x_17_ ^ 2 - 2 x_77_ * x_17_ + 1 x_77_ ^ 2 + 1 y_17_ ^ 2 - 2 y_77_ * y_17_ + 1 y_77_ ^ 2 ] >= 5940.99
quadratic_ranged_339_lb: [ 1 x_19_ ^ 2 - 2 x_77_ * x_19_ + 1 x_77_ ^ 2 + 1 y_19_ ^ 2 - 2 y_77_ * y_19_ + 1 y_77_ ^ 2 ] >= 10950.39
quadratic_ranged_340_lb: [ 1 x_22_ ^ 2 - 2 x_77_ * x_22_ + 1 x_77_ ^ 2 + 1 y_22_ ^ 2 - 2 y_77_ * y_22_ + 1 y_77_ ^ 2 ] >= 15797.43
quadratic_ranged_341_lb: [ 1 x_29_ ^ 2 - 2 x_77_ * x_29_ + 1 x_77_ ^ 2 + 1 y_29_ ^ 2 - 2 y_77_ * y_29_ + 1 y_77_ ^ 2 ] >= 14676.75
quadratic_ranged_342_lb: [ 1 x_44_ ^ 2 - 2 x_77_ * x_44_ + 1 x_77_ ^ 2 + 1 y_44_ ^ 2 - 2 y_77_ * y_44_ + 1 y_77_ ^ 2 ] >= 21875.04
quadratic_ranged_343_lb: [ 1 x_50_ ^ 2 - 2 x_77_ * x_50_ + 1 x_77_ ^ 2 + 1 y_50_ ^ 2 - 2 y_77_ * y_50_ + 1 y_77_ ^ 2 ] >= 19523.79
quadratic_ranged_344_lb: [ 1 x_64_ ^ 2 - 2 x_77_ * x_64_ + 1 x_77_ ^ 2 + 1 y_64_ ^ 2 - 2 y_77_ * y_64_ + 1 y_77_ ^ 2 ] >= 41881.95
quadratic_ranged_345_lb: [ 1 x_65_ ^ 2 - 2 x_77_ * x_65_ + 1 x_77_ ^ 2 + 1 y_65_ ^ 2 - 2 y_77_ * y_65_ + 1 y_77_ ^ 2 ] >= 5148
quadratic_ranged_346_lb: [ 1 x_71_ ^ 2 - 2 x_77_ * x_71_ + 1 x_77_ ^ 2 + 1 y_71_ ^ 2 - 2 y_77_ * y_71_ + 1 y_77_ ^ 2 ] >= 26155.8
quadratic_ranged_347_lb: [ 1 x_76_ ^ 2 - 2 x_77_ * x_76_ + 1 x_77_ ^ 2 + 1 y_76_ ^ 2 - 2 y_77_ * y_76_ + 1 y_77_ ^ 2 ] >= 29982.15
quadratic_ranged_348_lb: [ 1 x_13_ ^ 2 - 2 x_78_ * x_13_ + 1 x_78_ ^ 2 + 1 y_13_ ^ 2 - 2 y_78_ * y_13_ + 1 y_78_ ^ 2 ] >= 41520.6
quadratic_ranged_349_lb: [ 1 x_14_ ^ 2 - 2 x_78_ * x_14_ + 1 x_78_ ^ 2 + 1 y_14_ ^ 2 - 2 y_78_ * y_14_ + 1 y_78_ ^ 2 ] >= 6309.2699999999995
quadratic_ranged_350_lb: [ 1 x_18_ ^ 2 - 2 x_78_ * x_18_ + 1 x_78_ ^ 2 + 1 y_18_ ^ 2 - 2 y_78_ * y_18_ + 1 y_78_ ^ 2 ] >= 22112.64
quadratic_ranged_351_lb: [ 1 x_36_ ^ 2 - 2 x_78_ * x_36_ + 1 x_78_ ^ 2 + 1 y_36_ ^ 2 - 2 y_78_ * y_36_ + 1 y_78_ ^ 2 ] >= 4099.59
quadratic_ranged_352_lb: [ 1 x_40_ ^ 2 - 2 x_78_ * x_40_ + 1 x_78_ ^ 2 + 1 y_40_ ^ 2 - 2 y_78_ * y_40_ + 1 y_78_ ^ 2 ] >= 1683
quadratic_ranged_353_lb: [ 1 x_43_ ^ 2 - 2 x_78_ * x_43_ + 1 x_78_ ^ 2 + 1 y_43_ ^ 2 - 2 y_78_ * y_43_ + 1 y_78_ ^ 2 ] >= 646.47
quadratic_ranged_354_lb: [ 1 x_45_ ^ 2 - 2 x_78_ * x_45_ + 1 x_78_ ^ 2 + 1 y_45_ ^ 2 - 2 y_78_ * y_45_ + 1 y_78_ ^ 2 ] >= 23294.7
quadratic_ranged_355_lb: [ 1 x_52_ ^ 2 - 2 x_78_ * x_52_ + 1 x_78_ ^ 2 + 1 y_52_ ^ 2 - 2 y_78_ * y_52_ + 1 y_78_ ^ 2 ] >= 46241.909999999996
quadratic_ranged_356_lb: [ 1 x_55_ ^ 2 - 2 x_78_ * x_55_ + 1 x_78_ ^ 2 + 1 y_55_ ^ 2 - 2 y_78_ * y_55_ + 1 y_78_ ^ 2 ] >= 24002.55
quadratic_ranged_357_lb: [ 1 x_57_ ^ 2 - 2 x_78_ * x_57_ + 1 x_78_ ^ 2 + 1 y_57_ ^ 2 - 2 y_78_ * y_57_ + 1 y_78_ ^ 2 ] >= 5480.64
quadratic_ranged_358_lb: [ 1 x_63_ ^ 2 - 2 x_78_ * x_63_ + 1 x_78_ ^ 2 + 1 y_63_ ^ 2 - 2 y_78_ * y_63_ + 1 y_78_ ^ 2 ] >= 6241.95
quadratic_ranged_359_lb: [ 1 x_66_ ^ 2 - 2 x_78_ * x_66_ + 1 x_78_ ^ 2 + 1 y_66_ ^ 2 - 2 y_78_ * y_66_ + 1 y_78_ ^ 2 ] >= 31585.95
quadratic_ranged_360_lb: [ 1 x_67_ ^ 2 - 2 x_78_ * x_67_ + 1 x_78_ ^ 2 + 1 y_67_ ^ 2 - 2 y_78_ * y_67_ + 1 y_78_ ^ 2 ] >= 25734.06
quadratic_ranged_361_lb: [ 1 x_71_ ^ 2 - 2 x_78_ * x_71_ + 1 x_78_ ^ 2 + 1 y_71_ ^ 2 - 2 y_78_ * y_71_ + 1 y_78_ ^ 2 ] >= 13117.5
quadratic_ranged_362_lb: [ 1 x_73_ ^ 2 - 2 x_78_ * x_73_ + 1 x_78_ ^ 2 + 1 y_73_ ^ 2 - 2 y_78_ * y_73_ + 1 y_78_ ^ 2 ] >= 24221.34
quadratic_ranged_363_lb: [ 1 x_77_ ^ 2 - 2 x_78_ * x_77_ + 1 x_78_ ^ 2 + 1 y_77_ ^ 2 - 2 y_78_ * y_77_ + 1 y_78_ ^ 2 ] >= 19651.5
quadratic_ranged_364_lb: [ 1 x_31_ ^ 2 - 2 x_79_ * x_31_ + 1 x_79_ ^ 2 + 1 y_31_ ^ 2 - 2 y_79_ * y_31_ + 1 y_79_ ^ 2 ] >= 1719.6299999999999
quadratic_ranged_365_lb: [ 1 x_52_ ^ 2 - 2 x_79_ * x_52_ + 1 x_79_ ^ 2 + 1 y_52_ ^ 2 - 2 y_79_ * y_52_ + 1 y_79_ ^ 2 ] >= 7464.6
quadratic_ranged_366_lb: [ 1 x_57_ ^ 2 - 2 x_79_ * x_57_ + 1 x_79_ ^ 2 + 1 y_57_ ^ 2 - 2 y_79_ * y_57_ + 1 y_79_ ^ 2 ] >= 4103.55
quadratic_ranged_367_lb: [ 1 x_59_ ^ 2 - 2 x_79_ * x_59_ + 1 x_79_ ^ 2 + 1 y_59_ ^ 2 - 2 y_79_ * y_59_ + 1 y_79_ ^ 2 ] >= 3964.95
quadratic_ranged_368_lb: [ 1 x_70_ ^ 2 - 2 x_79_ * x_70_ + 1 x_79_ ^ 2 + 1 y_70_ ^ 2 - 2 y_79_ * y_70_ + 1 y_79_ ^ 2 ] >= 2734.38
quadratic_ranged_369_lb: [ 1 x_75_ ^ 2 - 2 x_79_ * x_75_ + 1 x_79_ ^ 2 + 1 y_75_ ^ 2 - 2 y_79_ * y_75_ + 1 y_79_ ^ 2 ] >= 5199.48
quadratic_ranged_370_lb: [ 1 x_76_ ^ 2 - 2 x_79_ * x_76_ + 1 x_79_ ^ 2 + 1 y_76_ ^ 2 - 2 y_79_ * y_76_ + 1 y_79_ ^ 2 ] >= 21740.4
quadratic_ranged_371_lb: [ 1 x_78_ ^ 2 - 2 x_79_ * x_78_ + 1 x_79_ ^ 2 + 1 y_78_ ^ 2 - 2 y_79_ * y_78_ + 1 y_79_ ^ 2 ] >= 18906.03
quadratic_ranged_372_lb: [ 1 x_4_ ^ 2 - 2 x_80_ * x_4_ + 1 x_80_ ^ 2 + 1 y_4_ ^ 2 - 2 y_80_ * y_4_ + 1 y_80_ ^ 2 ] >= 1977.03
quadratic_ranged_373_lb: [ 1 x_20_ ^ 2 - 2 x_80_ * x_20_ + 1 x_80_ ^ 2 + 1 y_20_ ^ 2 - 2 y_80_ * y_20_ + 1 y_80_ ^ 2 ] >= 12612.6
quadratic_ranged_374_lb: [ 1 x_28_ ^ 2 - 2 x_80_ * x_28_ + 1 x_80_ ^ 2 + 1 y_28_ ^ 2 - 2 y_80_ * y_28_ + 1 y_80_ ^ 2 ] >= 29781.18
quadratic_ranged_375_lb: [ 1 x_29_ ^ 2 - 2 x_80_ * x_29_ + 1 x_80_ ^ 2 + 1 y_29_ ^ 2 - 2 y_80_ * y_29_ + 1 y_80_ ^ 2 ] >= 3809.52
quadratic_ranged_376_lb: [ 1 x_38_ ^ 2 - 2 x_80_ * x_38_ + 1 x_80_ ^ 2 + 1 y_38_ ^ 2 - 2 y_80_ * y_38_ + 1 y_80_ ^ 2 ] >= 45296.46
quadratic_ranged_377_lb: [ 1 x_62_ ^ 2 - 2 x_80_ * x_62_ + 1 x_80_ ^ 2 + 1 y_62_ ^ 2 - 2 y_80_ * y_62_ + 1 y_80_ ^ 2 ] >= 598.95
quadratic_ranged_378_lb: [ 1 x_64_ ^ 2 - 2 x_80_ * x_64_ + 1 x_80_ ^ 2 + 1 y_64_ ^ 2 - 2 y_80_ * y_64_ + 1 y_80_ ^ 2 ] >= 24555.96
quadratic_ranged_379_lb: [ 1 x_68_ ^ 2 - 2 x_80_ * x_68_ + 1 x_80_ ^ 2 + 1 y_68_ ^ 2 - 2 y_80_ * y_68_ + 1 y_80_ ^ 2 ] >= 47599.2
quadratic_ranged_380_lb: [ 1 x_70_ ^ 2 - 2 x_80_ * x_70_ + 1 x_80_ ^ 2 + 1 y_70_ ^ 2 - 2 y_80_ * y_70_ + 1 y_80_ ^ 2 ] >= 16594.38
quadratic_ranged_381_lb: [ 1 x_73_ ^ 2 - 2 x_80_ * x_73_ + 1 x_80_ ^ 2 + 1 y_73_ ^ 2 - 2 y_80_ * y_73_ + 1 y_80_ ^ 2 ] >= 6657.75
quadratic_ranged_382_lb: [ 1 x_79_ ^ 2 - 2 x_80_ * x_79_ + 1 x_80_ ^ 2 + 1 y_79_ ^ 2 - 2 y_80_ * y_79_ + 1 y_80_ ^ 2 ] >= 5864.76
quadratic_ranged_383_lb: [ 1 x_3_ ^ 2 - 2 x_81_ * x_3_ + 1 x_81_ ^ 2 + 1 y_3_ ^ 2 - 2 y_81_ * y_3_ + 1 y_81_ ^ 2 ] >= 6645.87
quadratic_ranged_384_lb: [ 1 x_21_ ^ 2 - 2 x_81_ * x_21_ + 1 x_81_ ^ 2 + 1 y_21_ ^ 2 - 2 y_81_ * y_21_ + 1 y_81_ ^ 2 ] >= 242.55
quadratic_ranged_385_lb: [ 1 x_31_ ^ 2 - 2 x_81_ * x_31_ + 1 x_81_ ^ 2 + 1 y_31_ ^ 2 - 2 y_81_ * y_31_ + 1 y_81_ ^ 2 ] >= 13119.48
quadratic_ranged_386_lb: [ 1 x_38_ ^ 2 - 2 x_81_ * x_38_ + 1 x_81_ ^ 2 + 1 y_38_ ^ 2 - 2 y_81_ * y_38_ + 1 y_81_ ^ 2 ] >= 16941.87
quadratic_ranged_387_lb: [ 1 x_48_ ^ 2 - 2 x_81_ * x_48_ + 1 x_81_ ^ 2 + 1 y_48_ ^ 2 - 2 y_81_ * y_48_ + 1 y_81_ ^ 2 ] >= 23800.59
quadratic_ranged_388_lb: [ 1 x_58_ ^ 2 - 2 x_81_ * x_58_ + 1 x_81_ ^ 2 + 1 y_58_ ^ 2 - 2 y_81_ * y_58_ + 1 y_81_ ^ 2 ] >= 7849.71
quadratic_ranged_389_lb: [ 1 x_68_ ^ 2 - 2 x_81_ * x_68_ + 1 x_81_ ^ 2 + 1 y_68_ ^ 2 - 2 y_81_ * y_68_ + 1 y_81_ ^ 2 ] >= 20252.43
quadratic_ranged_390_lb: [ 1 x_69_ ^ 2 - 2 x_81_ * x_69_ + 1 x_81_ ^ 2 + 1 y_69_ ^ 2 - 2 y_81_ * y_69_ + 1 y_81_ ^ 2 ] >= 437.58
quadratic_ranged_391_lb: [ 1 x_80_ ^ 2 - 2 x_81_ * x_80_ + 1 x_81_ ^ 2 + 1 y_80_ ^ 2 - 2 y_81_ * y_80_ + 1 y_81_ ^ 2 ] >= 21709.71
quadratic_ranged_392_lb: [ 1 x_5_ ^ 2 - 2 x_82_ * x_5_ + 1 x_82_ ^ 2 + 1 y_5_ ^ 2 - 2 y_82_ * y_5_ + 1 y_82_ ^ 2 ] >= 2663.1
quadratic_ranged_393_lb: [ 1 x_6_ ^ 2 - 2 x_82_ * x_6_ + 1 x_82_ ^ 2 + 1 y_6_ ^ 2 - 2 y_82_ * y_6_ + 1 y_82_ ^ 2 ] >= 495
quadratic_ranged_394_lb: [ 1 x_13_ ^ 2 - 2 x_82_ * x_13_ + 1 x_82_ ^ 2 + 1 y_13_ ^ 2 - 2 y_82_ * y_13_ + 1 y_82_ ^ 2 ] >= 17346.78
quadratic_ranged_395_lb: [ 1 x_22_ ^ 2 - 2 x_82_ * x_22_ + 1 x_82_ ^ 2 + 1 y_22_ ^ 2 - 2 y_82_ * y_22_ + 1 y_82_ ^ 2 ] >= 14569.83
quadratic_ranged_396_lb: [ 1 x_38_ ^ 2 - 2 x_82_ * x_38_ + 1 x_82_ ^ 2 + 1 y_38_ ^ 2 - 2 y_82_ * y_38_ + 1 y_82_ ^ 2 ] >= 11393.91
quadratic_ranged_397_lb: [ 1 x_67_ ^ 2 - 2 x_82_ * x_67_ + 1 x_82_ ^ 2 + 1 y_67_ ^ 2 - 2 y_82_ * y_67_ + 1 y_82_ ^ 2 ] >= 8763.48
quadratic_ranged_398_lb: [ 1 x_81_ ^ 2 - 2 x_82_ * x_81_ + 1 x_82_ ^ 2 + 1 y_81_ ^ 2 - 2 y_82_ * y_81_ + 1 y_82_ ^ 2 ] >= 15226.2
quadratic_ranged_399_lb: [ 1 x_15_ ^ 2 - 2 x_83_ * x_15_ + 1 x_83_ ^ 2 + 1 y_15_ ^ 2 - 2 y_83_ * y_15_ + 1 y_83_ ^ 2 ] >= 3398.67
quadratic_ranged_400_lb: [ 1 x_20_ ^ 2 - 2 x_83_ * x_20_ + 1 x_83_ ^ 2 + 1 y_20_ ^ 2 - 2 y_83_ * y_20_ + 1 y_83_ ^ 2 ] >= 12838.32
quadratic_ranged_401_lb: [ 1 x_25_ ^ 2 - 2 x_83_ * x_25_ + 1 x_83_ ^ 2 + 1 y_25_ ^ 2 - 2 y_83_ * y_25_ + 1 y_83_ ^ 2 ] >= 12154.23
quadratic_ranged_402_lb: [ 1 x_26_ ^ 2 - 2 x_83_ * x_26_ + 1 x_83_ ^ 2 + 1 y_26_ ^ 2 - 2 y_83_ * y_26_ + 1 y_83_ ^ 2 ] >= 906.84
quadratic_ranged_403_lb: [ 1 x_36_ ^ 2 - 2 x_83_ * x_36_ + 1 x_83_ ^ 2 + 1 y_36_ ^ 2 - 2 y_83_ * y_36_ + 1 y_83_ ^ 2 ] >= 3492.72
quadratic_ranged_404_lb: [ 1 x_62_ ^ 2 - 2 x_83_ * x_62_ + 1 x_83_ ^ 2 + 1 y_62_ ^ 2 - 2 y_83_ * y_62_ + 1 y_83_ ^ 2 ] >= 18082.35
quadratic_ranged_405_lb: [ 1 x_69_ ^ 2 - 2 x_83_ * x_69_ + 1 x_83_ ^ 2 + 1 y_69_ ^ 2 - 2 y_83_ * y_69_ + 1 y_83_ ^ 2 ] >= 2816.55
quadratic_ranged_406_lb: [ 1 x_78_ ^ 2 - 2 x_83_ * x_78_ + 1 x_83_ ^ 2 + 1 y_78_ ^ 2 - 2 y_83_ * y_78_ + 1 y_83_ ^ 2 ] >= 9172.35
quadratic_ranged_407_lb: [ 1 x_82_ ^ 2 - 2 x_83_ * x_82_ + 1 x_83_ ^ 2 + 1 y_82_ ^ 2 - 2 y_83_ * y_82_ + 1 y_83_ ^ 2 ] >= 9437.67
quadratic_ranged_408_lb: [ 1 x_17_ ^ 2 - 2 x_84_ * x_17_ + 1 x_84_ ^ 2 + 1 y_17_ ^ 2 - 2 y_84_ * y_17_ + 1 y_84_ ^ 2 ] >= 11892.87
quadratic_ranged_409_lb: [ 1 x_35_ ^ 2 - 2 x_84_ * x_35_ + 1 x_84_ ^ 2 + 1 y_35_ ^ 2 - 2 y_84_ * y_35_ + 1 y_84_ ^ 2 ] >= 3782.79
quadratic_ranged_410_lb: [ 1 x_45_ ^ 2 - 2 x_84_ * x_45_ + 1 x_84_ ^ 2 + 1 y_45_ ^ 2 - 2 y_84_ * y_45_ + 1 y_84_ ^ 2 ] >= 366.3
quadratic_ranged_411_lb: [ 1 x_48_ ^ 2 - 2 x_84_ * x_48_ + 1 x_84_ ^ 2 + 1 y_48_ ^ 2 - 2 y_84_ * y_48_ + 1 y_84_ ^ 2 ] >= 1608.75
quadratic_ranged_412_lb: [ 1 x_53_ ^ 2 - 2 x_84_ * x_53_ + 1 x_84_ ^ 2 + 1 y_53_ ^ 2 - 2 y_84_ * y_53_ + 1 y_84_ ^ 2 ] >= 14376.78
quadratic_ranged_413_lb: [ 1 x_64_ ^ 2 - 2 x_84_ * x_64_ + 1 x_84_ ^ 2 + 1 y_64_ ^ 2 - 2 y_84_ * y_64_ + 1 y_84_ ^ 2 ] >= 34599.51
quadratic_ranged_414_lb: [ 1 x_65_ ^ 2 - 2 x_84_ * x_65_ + 1 x_84_ ^ 2 + 1 y_65_ ^ 2 - 2 y_84_ * y_65_ + 1 y_84_ ^ 2 ] >= 1269.18
quadratic_ranged_415_lb: [ 1 x_73_ ^ 2 - 2 x_84_ * x_73_ + 1 x_84_ ^ 2 + 1 y_73_ ^ 2 - 2 y_84_ * y_73_ + 1 y_84_ ^ 2 ] >= 10583.1
quadratic_ranged_416_lb: [ 1 x_83_ ^ 2 - 2 x_84_ * x_83_ + 1 x_84_ ^ 2 + 1 y_83_ ^ 2 - 2 y_84_ * y_83_ + 1 y_84_ ^ 2 ] >= 22869.99
quadratic_ranged_417_lb: [ 1 x_8_ ^ 2 - 2 x_85_ * x_8_ + 1 x_85_ ^ 2 + 1 y_8_ ^ 2 - 2 y_85_ * y_8_ + 1 y_85_ ^ 2 ] >= 29867.31
quadratic_ranged_418_lb: [ 1 x_13_ ^ 2 - 2 x_85_ * x_13_ + 1 x_85_ ^ 2 + 1 y_13_ ^ 2 - 2 y_85_ * y_13_ + 1 y_85_ ^ 2 ] >= 47064.6
quadratic_ranged_419_lb: [ 1 x_19_ ^ 2 - 2 x_85_ * x_19_ + 1 x_85_ ^ 2 + 1 y_19_ ^ 2 - 2 y_85_ * y_19_ + 1 y_85_ ^ 2 ] >= 4285.71
quadratic_ranged_420_lb: [ 1 x_28_ ^ 2 - 2 x_85_ * x_28_ + 1 x_85_ ^ 2 + 1 y_28_ ^ 2 - 2 y_85_ * y_28_ + 1 y_85_ ^ 2 ] >= 26556.75
quadratic_ranged_421_lb: [ 1 x_37_ ^ 2 - 2 x_85_ * x_37_ + 1 x_85_ ^ 2 + 1 y_37_ ^ 2 - 2 y_85_ * y_37_ + 1 y_85_ ^ 2 ] >= 33303.6
quadratic_ranged_422_lb: [ 1 x_38_ ^ 2 - 2 x_85_ * x_38_ + 1 x_85_ ^ 2 + 1 y_38_ ^ 2 - 2 y_85_ * y_38_ + 1 y_85_ ^ 2 ] >= 262.35
quadratic_ranged_423_lb: [ 1 x_46_ ^ 2 - 2 x_85_ * x_46_ + 1 x_85_ ^ 2 + 1 y_46_ ^ 2 - 2 y_85_ * y_46_ + 1 y_85_ ^ 2 ] >= 40832.55
quadratic_ranged_424_lb: [ 1 x_49_ ^ 2 - 2 x_85_ * x_49_ + 1 x_85_ ^ 2 + 1 y_49_ ^ 2 - 2 y_85_ * y_49_ + 1 y_85_ ^ 2 ] >= 26668.62
quadratic_ranged_425_lb: [ 1 x_52_ ^ 2 - 2 x_85_ * x_52_ + 1 x_85_ ^ 2 + 1 y_52_ ^ 2 - 2 y_85_ * y_52_ + 1 y_85_ ^ 2 ] >= 51465.15
quadratic_ranged_426_lb: [ 1 x_60_ ^ 2 - 2 x_85_ * x_60_ + 1 x_85_ ^ 2 + 1 y_60_ ^ 2 - 2 y_85_ * y_60_ + 1 y_85_ ^ 2 ] >= 49259.43
quadratic_ranged_427_lb: [ 1 x_71_ ^ 2 - 2 x_85_ * x_71_ + 1 x_85_ ^ 2 + 1 y_71_ ^ 2 - 2 y_85_ * y_71_ + 1 y_85_ ^ 2 ] >= 13592.7
quadratic_ranged_428_lb: [ 1 x_78_ ^ 2 - 2 x_85_ * x_78_ + 1 x_85_ ^ 2 + 1 y_78_ ^ 2 - 2 y_85_ * y_78_ + 1 y_85_ ^ 2 ] >= 673.2
quadratic_ranged_429_lb: [ 1 x_84_ ^ 2 - 2 x_85_ * x_84_ + 1 x_85_ ^ 2 + 1 y_84_ ^ 2 - 2 y_85_ * y_84_ + 1 y_85_ ^ 2 ] >= 36847.8
quadratic_ranged_430_lb: [ 1 x_16_ ^ 2 - 2 x_86_ * x_16_ + 1 x_86_ ^ 2 + 1 y_16_ ^ 2 - 2 y_86_ * y_16_ + 1 y_86_ ^ 2 ] >= 6360.75
quadratic_ranged_431_lb: [ 1 x_23_ ^ 2 - 2 x_86_ * x_23_ + 1 x_86_ ^ 2 + 1 y_23_ ^ 2 - 2 y_86_ * y_23_ + 1 y_86_ ^ 2 ] >= 5989.5
quadratic_ranged_432_lb: [ 1 x_32_ ^ 2 - 2 x_86_ * x_32_ + 1 x_86_ ^ 2 + 1 y_32_ ^ 2 - 2 y_86_ * y_32_ + 1 y_86_ ^ 2 ] >= 2760.12
quadratic_ranged_433_lb: [ 1 x_37_ ^ 2 - 2 x_86_ * x_37_ + 1 x_86_ ^ 2 + 1 y_37_ ^ 2 - 2 y_86_ * y_37_ + 1 y_86_ ^ 2 ] >= 9458.46
quadratic_ranged_434_lb: [ 1 x_39_ ^ 2 - 2 x_86_ * x_39_ + 1 x_86_ ^ 2 + 1 y_39_ ^ 2 - 2 y_86_ * y_39_ + 1 y_86_ ^ 2 ] >= 10209.87
quadratic_ranged_435_lb: [ 1 x_73_ ^ 2 - 2 x_86_ * x_73_ + 1 x_86_ ^ 2 + 1 y_73_ ^ 2 - 2 y_86_ * y_73_ + 1 y_86_ ^ 2 ] >= 336.6
quadratic_ranged_436_lb: [ 1 x_79_ ^ 2 - 2 x_86_ * x_79_ + 1 x_86_ ^ 2 + 1 y_79_ ^ 2 - 2 y_86_ * y_79_ + 1 y_86_ ^ 2 ] >= 2630.43
quadratic_ranged_437_lb: [ 1 x_85_ ^ 2 - 2 x_86_ * x_85_ + 1 x_86_ ^ 2 + 1 y_85_ ^ 2 - 2 y_86_ * y_85_ + 1 y_86_ ^ 2 ] >= 32671.98
quadratic_ranged_438_lb: [ 1 x_20_ ^ 2 - 2 x_87_ * x_20_ + 1 x_87_ ^ 2 + 1 y_20_ ^ 2 - 2 y_87_ * y_20_ + 1 y_87_ ^ 2 ] >= 823.68
quadratic_ranged_439_lb: [ 1 x_22_ ^ 2 - 2 x_87_ * x_22_ + 1 x_87_ ^ 2 + 1 y_22_ ^ 2 - 2 y_87_ * y_22_ + 1 y_87_ ^ 2 ] >= 9292.14
quadratic_ranged_440_lb: [ 1 x_30_ ^ 2 - 2 x_87_ * x_30_ + 1 x_87_ ^ 2 + 1 y_30_ ^ 2 - 2 y_87_ * y_30_ + 1 y_87_ ^ 2 ] >= 16220.16
quadratic_ranged_441_lb: [ 1 x_38_ ^ 2 - 2 x_87_ * x_38_ + 1 x_87_ ^ 2 + 1 y_38_ ^ 2 - 2 y_87_ * y_38_ + 1 y_87_ ^ 2 ] >= 21908.7
quadratic_ranged_442_lb: [ 1 x_41_ ^ 2 - 2 x_87_ * x_41_ + 1 x_87_ ^ 2 + 1 y_41_ ^ 2 - 2 y_87_ * y_41_ + 1 y_87_ ^ 2 ] >= 25531.11
quadratic_ranged_443_lb: [ 1 x_42_ ^ 2 - 2 x_87_ * x_42_ + 1 x_87_ ^ 2 + 1 y_42_ ^ 2 - 2 y_87_ * y_42_ + 1 y_87_ ^ 2 ] >= 12918.51
quadratic_ranged_444_lb: [ 1 x_67_ ^ 2 - 2 x_87_ * x_67_ + 1 x_87_ ^ 2 + 1 y_67_ ^ 2 - 2 y_87_ * y_67_ + 1 y_87_ ^ 2 ] >= 8736.75
quadratic_ranged_445_lb: [ 1 x_86_ ^ 2 - 2 x_87_ * x_86_ + 1 x_87_ ^ 2 + 1 y_86_ ^ 2 - 2 y_87_ * y_86_ + 1 y_87_ ^ 2 ] >= 12589.83
quadratic_ranged_446_lb: [ 1 x_14_ ^ 2 - 2 x_88_ * x_14_ + 1 x_88_ ^ 2 + 1 y_14_ ^ 2 - 2 y_88_ * y_14_ + 1 y_88_ ^ 2 ] >= 13766.94
quadratic_ranged_447_lb: [ 1 x_17_ ^ 2 - 2 x_88_ * x_17_ + 1 x_88_ ^ 2 + 1 y_17_ ^ 2 - 2 y_88_ * y_17_ + 1 y_88_ ^ 2 ] >= 13464
quadratic_ranged_448_lb: [ 1 x_19_ ^ 2 - 2 x_88_ * x_19_ + 1 x_88_ ^ 2 + 1 y_19_ ^ 2 - 2 y_88_ * y_19_ + 1 y_88_ ^ 2 ] >= 7129.98
quadratic_ranged_449_lb: [ 1 x_32_ ^ 2 - 2 x_88_ * x_32_ + 1 x_88_ ^ 2 + 1 y_32_ ^ 2 - 2 y_88_ * y_32_ + 1 y_88_ ^ 2 ] >= 1093.95
quadratic_ranged_450_lb: [ 1 x_33_ ^ 2 - 2 x_88_ * x_33_ + 1 x_88_ ^ 2 + 1 y_33_ ^ 2 - 2 y_88_ * y_33_ + 1 y_88_ ^ 2 ] >= 9266.4
quadratic_ranged_451_lb: [ 1 x_38_ ^ 2 - 2 x_88_ * x_38_ + 1 x_88_ ^ 2 + 1 y_38_ ^ 2 - 2 y_88_ * y_38_ + 1 y_88_ ^ 2 ] >= 9220.86
quadratic_ranged_452_lb: [ 1 x_44_ ^ 2 - 2 x_88_ * x_44_ + 1 x_88_ ^ 2 + 1 y_44_ ^ 2 - 2 y_88_ * y_44_ + 1 y_88_ ^ 2 ] >= 618.75
quadratic_ranged_453_lb: [ 1 x_53_ ^ 2 - 2 x_88_ * x_53_ + 1 x_88_ ^ 2 + 1 y_53_ ^ 2 - 2 y_88_ * y_53_ + 1 y_88_ ^ 2 ] >= 23646.15
quadratic_ranged_454_lb: [ 1 x_58_ ^ 2 - 2 x_88_ * x_58_ + 1 x_88_ ^ 2 + 1 y_58_ ^ 2 - 2 y_88_ * y_58_ + 1 y_88_ ^ 2 ] >= 7375.5
quadratic_ranged_455_lb: [ 1 x_61_ ^ 2 - 2 x_88_ * x_61_ + 1 x_88_ ^ 2 + 1 y_61_ ^ 2 - 2 y_88_ * y_61_ + 1 y_88_ ^ 2 ] >= 21259.26
quadratic_ranged_456_lb: [ 1 x_82_ ^ 2 - 2 x_88_ * x_82_ + 1 x_88_ ^ 2 + 1 y_82_ ^ 2 - 2 y_88_ * y_82_ + 1 y_88_ ^ 2 ] >= 11504.789999999999
quadratic_ranged_457_lb: [ 1 x_87_ ^ 2 - 2 x_88_ * x_87_ + 1 x_88_ ^ 2 + 1 y_87_ ^ 2 - 2 y_88_ * y_87_ + 1 y_88_ ^ 2 ] >= 18604.079999999998
quadratic_ranged_458_lb: [ 1 x_5_ ^ 2 - 2 x_89_ * x_5_ + 1 x_89_ ^ 2 + 1 y_5_ ^ 2 - 2 y_89_ * y_5_ + 1 y_89_ ^ 2 ] >= 22299.75
quadratic_ranged_459_lb: [ 1 x_21_ ^ 2 - 2 x_89_ * x_21_ + 1 x_89_ ^ 2 + 1 y_21_ ^ 2 - 2 y_89_ * y_21_ + 1 y_89_ ^ 2 ] >= 732.6
quadratic_ranged_460_lb: [ 1 x_39_ ^ 2 - 2 x_89_ * x_39_ + 1 x_89_ ^ 2 + 1 y_39_ ^ 2 - 2 y_89_ * y_39_ + 1 y_89_ ^ 2 ] >= 13077.9
quadratic_ranged_461_lb: [ 1 x_63_ ^ 2 - 2 x_89_ * x_63_ + 1 x_89_ ^ 2 + 1 y_63_ ^ 2 - 2 y_89_ * y_63_ + 1 y_89_ ^ 2 ] >= 2585.88
quadratic_ranged_462_lb: [ 1 x_64_ ^ 2 - 2 x_89_ * x_64_ + 1 x_89_ ^ 2 + 1 y_64_ ^ 2 - 2 y_89_ * y_64_ + 1 y_89_ ^ 2 ] >= 5148
quadratic_ranged_463_lb: [ 1 x_68_ ^ 2 - 2 x_89_ * x_68_ + 1 x_89_ ^ 2 + 1 y_68_ ^ 2 - 2 y_89_ * y_68_ + 1 y_89_ ^ 2 ] >= 13087.8
quadratic_ranged_464_lb: [ 1 x_88_ ^ 2 - 2 x_89_ * x_88_ + 1 x_89_ ^ 2 + 1 y_88_ ^ 2 - 2 y_89_ * y_88_ + 1 y_89_ ^ 2 ] >= 158.4
quadratic_ranged_465_lb: [ 1 x_8_ ^ 2 - 2 x_90_ * x_8_ + 1 x_90_ ^ 2 + 1 y_8_ ^ 2 - 2 y_90_ * y_8_ + 1 y_90_ ^ 2 ] >= 4611.42
quadratic_ranged_466_lb: [ 1 x_21_ ^ 2 - 2 x_90_ * x_21_ + 1 x_90_ ^ 2 + 1 y_21_ ^ 2 - 2 y_90_ * y_21_ + 1 y_90_ ^ 2 ] >= 6502.32
quadratic_ranged_467_lb: [ 1 x_29_ ^ 2 - 2 x_90_ * x_29_ + 1 x_90_ ^ 2 + 1 y_29_ ^ 2 - 2 y_90_ * y_29_ + 1 y_90_ ^ 2 ] >= 1148.4
quadratic_ranged_468_lb: [ 1 x_30_ ^ 2 - 2 x_90_ * x_30_ + 1 x_90_ ^ 2 + 1 y_30_ ^ 2 - 2 y_90_ * y_30_ + 1 y_90_ ^ 2 ] >= 7527.96
quadratic_ranged_469_lb: [ 1 x_35_ ^ 2 - 2 x_90_ * x_35_ + 1 x_90_ ^ 2 + 1 y_35_ ^ 2 - 2 y_90_ * y_35_ + 1 y_90_ ^ 2 ] >= 4936.14
quadratic_ranged_470_lb: [ 1 x_40_ ^ 2 - 2 x_90_ * x_40_ + 1 x_90_ ^ 2 + 1 y_40_ ^ 2 - 2 y_90_ * y_40_ + 1 y_90_ ^ 2 ] >= 9576.27
quadratic_ranged_471_lb: [ 1 x_42_ ^ 2 - 2 x_90_ * x_42_ + 1 x_90_ ^ 2 + 1 y_42_ ^ 2 - 2 y_90_ * y_42_ + 1 y_90_ ^ 2 ] >= 12502.71
quadratic_ranged_472_lb: [ 1 x_48_ ^ 2 - 2 x_90_ * x_48_ + 1 x_90_ ^ 2 + 1 y_48_ ^ 2 - 2 y_90_ * y_48_ + 1 y_90_ ^ 2 ] >= 8143.74
quadratic_ranged_473_lb: [ 1 x_57_ ^ 2 - 2 x_90_ * x_57_ + 1 x_90_ ^ 2 + 1 y_57_ ^ 2 - 2 y_90_ * y_57_ + 1 y_90_ ^ 2 ] >= 3755.07
quadratic_ranged_474_lb: [ 1 x_83_ ^ 2 - 2 x_90_ * x_83_ + 1 x_90_ ^ 2 + 1 y_83_ ^ 2 - 2 y_90_ * y_83_ + 1 y_90_ ^ 2 ] >= 5104.44
quadratic_ranged_475_lb: [ 1 x_87_ ^ 2 - 2 x_90_ * x_87_ + 1 x_90_ ^ 2 + 1 y_87_ ^ 2 - 2 y_90_ * y_87_ + 1 y_90_ ^ 2 ] >= 6007.32
quadratic_ranged_476_lb: [ 1 x_89_ ^ 2 - 2 x_90_ * x_89_ + 1 x_90_ ^ 2 + 1 y_89_ ^ 2 - 2 y_90_ * y_89_ + 1 y_90_ ^ 2 ] >= 3805.56
quadratic_ranged_477_lb: [ 1 x_2_ ^ 2 - 2 x_91_ * x_2_ + 1 x_91_ ^ 2 + 1 y_2_ ^ 2 - 2 y_91_ * y_2_ + 1 y_91_ ^ 2 ] >= 12992.76
quadratic_ranged_478_lb: [ 1 x_6_ ^ 2 - 2 x_91_ * x_6_ + 1 x_91_ ^ 2 + 1 y_6_ ^ 2 - 2 y_91_ * y_6_ + 1 y_91_ ^ 2 ] >= 6543.9
quadratic_ranged_479_lb: [ 1 x_11_ ^ 2 - 2 x_91_ * x_11_ + 1 x_91_ ^ 2 + 1 y_11_ ^ 2 - 2 y_91_ * y_11_ + 1 y_91_ ^ 2 ] >= 3193.74
quadratic_ranged_480_lb: [ 1 x_31_ ^ 2 - 2 x_91_ * x_31_ + 1 x_91_ ^ 2 + 1 y_31_ ^ 2 - 2 y_91_ * y_31_ + 1 y_91_ ^ 2 ] >= 16467.66
quadratic_ranged_481_lb: [ 1 x_34_ ^ 2 - 2 x_91_ * x_34_ + 1 x_91_ ^ 2 + 1 y_34_ ^ 2 - 2 y_91_ * y_34_ + 1 y_91_ ^ 2 ] >= 336.6
quadratic_ranged_482_lb: [ 1 x_41_ ^ 2 - 2 x_91_ * x_41_ + 1 x_91_ ^ 2 + 1 y_41_ ^ 2 - 2 y_91_ * y_41_ + 1 y_91_ ^ 2 ] >= 6209.28
quadratic_ranged_483_lb: [ 1 x_70_ ^ 2 - 2 x_91_ * x_70_ + 1 x_91_ ^ 2 + 1 y_70_ ^ 2 - 2 y_91_ * y_70_ + 1 y_91_ ^ 2 ] >= 2147.31
quadratic_ranged_484_lb: [ 1 x_75_ ^ 2 - 2 x_91_ * x_75_ + 1 x_91_ ^ 2 + 1 y_75_ ^ 2 - 2 y_91_ * y_75_ + 1 y_91_ ^ 2 ] >= 25531.11
quadratic_ranged_485_lb: [ 1 x_78_ ^ 2 - 2 x_91_ * x_78_ + 1 x_91_ ^ 2 + 1 y_78_ ^ 2 - 2 y_91_ * y_78_ + 1 y_91_ ^ 2 ] >= 2475
quadratic_ranged_486_lb: [ 1 x_85_ ^ 2 - 2 x_91_ * x_85_ + 1 x_91_ ^ 2 + 1 y_85_ ^ 2 - 2 y_91_ * y_85_ + 1 y_91_ ^ 2 ] >= 4534.2
quadratic_ranged_487_lb: [ 1 x_90_ ^ 2 - 2 x_91_ * x_90_ + 1 x_91_ ^ 2 + 1 y_90_ ^ 2 - 2 y_91_ * y_90_ + 1 y_91_ ^ 2 ] >= 7319.07
quadratic_ranged_488_lb: [ 1 x_7_ ^ 2 - 2 x_92_ * x_7_ + 1 x_92_ ^ 2 + 1 y_7_ ^ 2 - 2 y_92_ * y_7_ + 1 y_92_ ^ 2 ] >= 9523.8
quadratic_ranged_489_lb: [ 1 x_13_ ^ 2 - 2 x_92_ * x_13_ + 1 x_92_ ^ 2 + 1 y_13_ ^ 2 - 2 y_92_ * y_13_ + 1 y_92_ ^ 2 ] >= 12.87
quadratic_ranged_490_lb: [ 1 x_20_ ^ 2 - 2 x_92_ * x_20_ + 1 x_92_ ^ 2 + 1 y_20_ ^ 2 - 2 y_92_ * y_20_ + 1 y_92_ ^ 2 ] >= 18853.56
quadratic_ranged_491_lb: [ 1 x_45_ ^ 2 - 2 x_92_ * x_45_ + 1 x_92_ ^ 2 + 1 y_45_ ^ 2 - 2 y_92_ * y_45_ + 1 y_92_ ^ 2 ] >= 12348.27
quadratic_ranged_492_lb: [ 1 x_48_ ^ 2 - 2 x_92_ * x_48_ + 1 x_92_ ^ 2 + 1 y_48_ ^ 2 - 2 y_92_ * y_48_ + 1 y_92_ ^ 2 ] >= 19651.5
quadratic_ranged_493_lb: [ 1 x_53_ ^ 2 - 2 x_92_ * x_53_ + 1 x_92_ ^ 2 + 1 y_53_ ^ 2 - 2 y_92_ * y_53_ + 1 y_92_ ^ 2 ] >= 1093.95
quadratic_ranged_494_lb: [ 1 x_59_ ^ 2 - 2 x_92_ * x_59_ + 1 x_92_ ^ 2 + 1 y_59_ ^ 2 - 2 y_92_ * y_59_ + 1 y_92_ ^ 2 ] >= 6083.55
quadratic_ranged_495_lb: [ 1 x_73_ ^ 2 - 2 x_92_ * x_73_ + 1 x_92_ ^ 2 + 1 y_73_ ^ 2 - 2 y_92_ * y_73_ + 1 y_92_ ^ 2 ] >= 2333.43
quadratic_ranged_496_lb: [ 1 x_82_ ^ 2 - 2 x_92_ * x_82_ + 1 x_92_ ^ 2 + 1 y_82_ ^ 2 - 2 y_92_ * y_82_ + 1 y_92_ ^ 2 ] >= 17765.55
quadratic_ranged_497_lb: [ 1 x_88_ ^ 2 - 2 x_92_ * x_88_ + 1 x_92_ ^ 2 + 1 y_88_ ^ 2 - 2 y_92_ * y_88_ + 1 y_92_ ^ 2 ] >= 14877.72
quadratic_ranged_498_lb: [ 1 x_91_ ^ 2 - 2 x_92_ * x_91_ + 1 x_92_ ^ 2 + 1 y_91_ ^ 2 - 2 y_92_ * y_91_ + 1 y_92_ ^ 2 ] >= 23879.79
quadratic_ranged_499_lb: [ 1 x_4_ ^ 2 - 2 x_93_ * x_4_ + 1 x_93_ ^ 2 + 1 y_4_ ^ 2 - 2 y_93_ * y_4_ + 1 y_93_ ^ 2 ] >= 12721.5
quadratic_ranged_500_lb: [ 1 x_6_ ^ 2 - 2 x_93_ * x_6_ + 1 x_93_ ^ 2 + 1 y_6_ ^ 2 - 2 y_93_ * y_6_ + 1 y_93_ ^ 2 ] >= 6336
quadratic_ranged_501_lb: [ 1 x_13_ ^ 2 - 2 x_93_ * x_13_ + 1 x_93_ ^ 2 + 1 y_13_ ^ 2 - 2 y_93_ * y_13_ + 1 y_93_ ^ 2 ] >= 9862.38
quadratic_ranged_502_lb: [ 1 x_39_ ^ 2 - 2 x_93_ * x_39_ + 1 x_93_ ^ 2 + 1 y_39_ ^ 2 - 2 y_93_ * y_39_ + 1 y_93_ ^ 2 ] >= 6135.03
quadratic_ranged_503_lb: [ 1 x_43_ ^ 2 - 2 x_93_ * x_43_ + 1 x_93_ ^ 2 + 1 y_43_ ^ 2 - 2 y_93_ * y_43_ + 1 y_93_ ^ 2 ] >= 8839.71
quadratic_ranged_504_lb: [ 1 x_49_ ^ 2 - 2 x_93_ * x_49_ + 1 x_93_ ^ 2 + 1 y_49_ ^ 2 - 2 y_93_ * y_49_ + 1 y_93_ ^ 2 ] >= 2886.84
quadratic_ranged_505_lb: [ 1 x_51_ ^ 2 - 2 x_93_ * x_51_ + 1 x_93_ ^ 2 + 1 y_51_ ^ 2 - 2 y_93_ * y_51_ + 1 y_93_ ^ 2 ] >= 9231.75
quadratic_ranged_506_lb: [ 1 x_71_ ^ 2 - 2 x_93_ * x_71_ + 1 x_93_ ^ 2 + 1 y_71_ ^ 2 - 2 y_93_ * y_71_ + 1 y_93_ ^ 2 ] >= 2142.36
quadratic_ranged_507_lb: [ 1 x_92_ ^ 2 - 2 x_93_ * x_92_ + 1 x_93_ ^ 2 + 1 y_92_ ^ 2 - 2 y_93_ * y_92_ + 1 y_93_ ^ 2 ] >= 9825.75
quadratic_ranged_508_lb: [ 1 x_12_ ^ 2 - 2 x_94_ * x_12_ + 1 x_94_ ^ 2 + 1 y_12_ ^ 2 - 2 y_94_ * y_12_ + 1 y_94_ ^ 2 ] >= 20061.36
quadratic_ranged_509_lb: [ 1 x_32_ ^ 2 - 2 x_94_ * x_32_ + 1 x_94_ ^ 2 + 1 y_32_ ^ 2 - 2 y_94_ * y_32_ + 1 y_94_ ^ 2 ] >= 8906.039999999999
quadratic_ranged_510_lb: [ 1 x_36_ ^ 2 - 2 x_94_ * x_36_ + 1 x_94_ ^ 2 + 1 y_36_ ^ 2 - 2 y_94_ * y_36_ + 1 y_94_ ^ 2 ] >= 559.35
quadratic_ranged_511_lb: [ 1 x_76_ ^ 2 - 2 x_94_ * x_76_ + 1 x_94_ ^ 2 + 1 y_76_ ^ 2 - 2 y_94_ * y_76_ + 1 y_94_ ^ 2 ] >= 836.55
quadratic_ranged_512_lb: [ 1 x_78_ ^ 2 - 2 x_94_ * x_78_ + 1 x_94_ ^ 2 + 1 y_78_ ^ 2 - 2 y_94_ * y_78_ + 1 y_94_ ^ 2 ] >= 2172.06
quadratic_ranged_513_lb: [ 1 x_83_ ^ 2 - 2 x_94_ * x_83_ + 1 x_94_ ^ 2 + 1 y_83_ ^ 2 - 2 y_94_ * y_83_ + 1 y_94_ ^ 2 ] >= 2970.99
quadratic_ranged_514_lb: [ 1 x_93_ ^ 2 - 2 x_94_ * x_93_ + 1 x_94_ ^ 2 + 1 y_93_ ^ 2 - 2 y_94_ * y_93_ + 1 y_94_ ^ 2 ] >= 6039
quadratic_ranged_515_lb: [ 1 x_2_ ^ 2 - 2 x_95_ * x_2_ + 1 x_95_ ^ 2 + 1 y_2_ ^ 2 - 2 y_95_ * y_2_ + 1 y_95_ ^ 2 ] >= 31827.51
quadratic_ranged_516_lb: [ 1 x_8_ ^ 2 - 2 x_95_ * x_8_ + 1 x_95_ ^ 2 + 1 y_8_ ^ 2 - 2 y_95_ * y_8_ + 1 y_95_ ^ 2 ] >= 621.72
quadratic_ranged_517_lb: [ 1 x_22_ ^ 2 - 2 x_95_ * x_22_ + 1 x_95_ ^ 2 + 1 y_22_ ^ 2 - 2 y_95_ * y_22_ + 1 y_95_ ^ 2 ] >= 15752.88
quadratic_ranged_518_lb: [ 1 x_28_ ^ 2 - 2 x_95_ * x_28_ + 1 x_95_ ^ 2 + 1 y_28_ ^ 2 - 2 y_95_ * y_28_ + 1 y_95_ ^ 2 ] >= 1492.92
quadratic_ranged_519_lb: [ 1 x_37_ ^ 2 - 2 x_95_ * x_37_ + 1 x_95_ ^ 2 + 1 y_37_ ^ 2 - 2 y_95_ * y_37_ + 1 y_95_ ^ 2 ] >= 17714.07
quadratic_ranged_520_lb: [ 1 x_42_ ^ 2 - 2 x_95_ * x_42_ + 1 x_95_ ^ 2 + 1 y_42_ ^ 2 - 2 y_95_ * y_42_ + 1 y_95_ ^ 2 ] >= 16474.59
quadratic_ranged_521_lb: [ 1 x_44_ ^ 2 - 2 x_95_ * x_44_ + 1 x_95_ ^ 2 + 1 y_44_ ^ 2 - 2 y_95_ * y_44_ + 1 y_95_ ^ 2 ] >= 3921.39
quadratic_ranged_522_lb: [ 1 x_47_ ^ 2 - 2 x_95_ * x_47_ + 1 x_95_ ^ 2 + 1 y_47_ ^ 2 - 2 y_95_ * y_47_ + 1 y_95_ ^ 2 ] >= 12206.7
quadratic_ranged_523_lb: [ 1 x_49_ ^ 2 - 2 x_95_ * x_49_ + 1 x_95_ ^ 2 + 1 y_49_ ^ 2 - 2 y_95_ * y_49_ + 1 y_95_ ^ 2 ] >= 654.39
quadratic_ranged_524_lb: [ 1 x_90_ ^ 2 - 2 x_95_ * x_90_ + 1 x_95_ ^ 2 + 1 y_90_ ^ 2 - 2 y_95_ * y_90_ + 1 y_95_ ^ 2 ] >= 3946.14
quadratic_ranged_525_lb: [ 1 x_94_ ^ 2 - 2 x_95_ * x_94_ + 1 x_95_ ^ 2 + 1 y_94_ ^ 2 - 2 y_95_ * y_94_ + 1 y_95_ ^ 2 ] >= 10720.71
quadratic_ranged_526_lb: [ 1 x_8_ ^ 2 - 2 x_96_ * x_8_ + 1 x_96_ ^ 2 + 1 y_8_ ^ 2 - 2 y_96_ * y_8_ + 1 y_96_ ^ 2 ] >= 10303.92
quadratic_ranged_527_lb: [ 1 x_16_ ^ 2 - 2 x_96_ * x_16_ + 1 x_96_ ^ 2 + 1 y_16_ ^ 2 - 2 y_96_ * y_16_ + 1 y_96_ ^ 2 ] >= 2922.48
quadratic_ranged_528_lb: [ 1 x_58_ ^ 2 - 2 x_96_ * x_58_ + 1 x_96_ ^ 2 + 1 y_58_ ^ 2 - 2 y_96_ * y_58_ + 1 y_96_ ^ 2 ] >= 7131.96
quadratic_ranged_529_lb: [ 1 x_62_ ^ 2 - 2 x_96_ * x_62_ + 1 x_96_ ^ 2 + 1 y_62_ ^ 2 - 2 y_96_ * y_62_ + 1 y_96_ ^ 2 ] >= 1438.47
quadratic_ranged_530_lb: [ 1 x_74_ ^ 2 - 2 x_96_ * x_74_ + 1 x_96_ ^ 2 + 1 y_74_ ^ 2 - 2 y_96_ * y_74_ + 1 y_96_ ^ 2 ] >= 3930.3
quadratic_ranged_531_lb: [ 1 x_90_ ^ 2 - 2 x_96_ * x_90_ + 1 x_96_ ^ 2 + 1 y_90_ ^ 2 - 2 y_96_ * y_90_ + 1 y_96_ ^ 2 ] >= 6021.18
quadratic_ranged_532_lb: [ 1 x_95_ ^ 2 - 2 x_96_ * x_95_ + 1 x_96_ ^ 2 + 1 y_95_ ^ 2 - 2 y_96_ * y_95_ + 1 y_96_ ^ 2 ] >= 13262.039999999999
quadratic_ranged_533_lb: [ 1 x_4_ ^ 2 - 2 x_97_ * x_4_ + 1 x_97_ ^ 2 + 1 y_4_ ^ 2 - 2 y_97_ * y_4_ + 1 y_97_ ^ 2 ] >= 18711.99
quadratic_ranged_534_lb: [ 1 x_5_ ^ 2 - 2 x_97_ * x_5_ + 1 x_97_ ^ 2 + 1 y_5_ ^ 2 - 2 y_97_ * y_5_ + 1 y_97_ ^ 2 ] >= 33466.95
quadratic_ranged_535_lb: [ 1 x_19_ ^ 2 - 2 x_97_ * x_19_ + 1 x_97_ ^ 2 + 1 y_19_ ^ 2 - 2 y_97_ * y_19_ + 1 y_97_ ^ 2 ] >= 14448.06
quadratic_ranged_536_lb: [ 1 x_25_ ^ 2 - 2 x_97_ * x_25_ + 1 x_97_ ^ 2 + 1 y_25_ ^ 2 - 2 y_97_ * y_25_ + 1 y_97_ ^ 2 ] >= 7382.43
quadratic_ranged_537_lb: [ 1 x_96_ ^ 2 - 2 x_97_ * x_96_ + 1 x_97_ ^ 2 + 1 y_96_ ^ 2 - 2 y_97_ * y_96_ + 1 y_97_ ^ 2 ] >= 19485.18
quadratic_ranged_538_lb: [ 1 x_1_ ^ 2 - 2 x_98_ * x_1_ + 1 x_98_ ^ 2 + 1 y_1_ ^ 2 - 2 y_98_ * y_1_ + 1 y_98_ ^ 2 ] >= 11647.35
quadratic_ranged_539_lb: [ 1 x_5_ ^ 2 - 2 x_98_ * x_5_ + 1 x_98_ ^ 2 + 1 y_5_ ^ 2 - 2 y_98_ * y_5_ + 1 y_98_ ^ 2 ] >= 10886.039999999999
quadratic_ranged_540_lb: [ 1 x_10_ ^ 2 - 2 x_98_ * x_10_ + 1 x_98_ ^ 2 + 1 y_10_ ^ 2 - 2 y_98_ * y_10_ + 1 y_98_ ^ 2 ] >= 9886.14
quadratic_ranged_541_lb: [ 1 x_15_ ^ 2 - 2 x_98_ * x_15_ + 1 x_98_ ^ 2 + 1 y_15_ ^ 2 - 2 y_98_ * y_15_ + 1 y_98_ ^ 2 ] >= 6494.4
quadratic_ranged_542_lb: [ 1 x_16_ ^ 2 - 2 x_98_ * x_16_ + 1 x_98_ ^ 2 + 1 y_16_ ^ 2 - 2 y_98_ * y_16_ + 1 y_98_ ^ 2 ] >= 4063.95
quadratic_ranged_543_lb: [ 1 x_23_ ^ 2 - 2 x_98_ * x_23_ + 1 x_98_ ^ 2 + 1 y_23_ ^ 2 - 2 y_98_ * y_23_ + 1 y_98_ ^ 2 ] >= 1477.08
quadratic_ranged_544_lb: [ 1 x_24_ ^ 2 - 2 x_98_ * x_24_ + 1 x_98_ ^ 2 + 1 y_24_ ^ 2 - 2 y_98_ * y_24_ + 1 y_98_ ^ 2 ] >= 9992.07
quadratic_ranged_545_lb: [ 1 x_35_ ^ 2 - 2 x_98_ * x_35_ + 1 x_98_ ^ 2 + 1 y_35_ ^ 2 - 2 y_98_ * y_35_ + 1 y_98_ ^ 2 ] >= 4800.51
quadratic_ranged_546_lb: [ 1 x_36_ ^ 2 - 2 x_98_ * x_36_ + 1 x_98_ ^ 2 + 1 y_36_ ^ 2 - 2 y_98_ * y_36_ + 1 y_98_ ^ 2 ] >= 15971.67
quadratic_ranged_547_lb: [ 1 x_42_ ^ 2 - 2 x_98_ * x_42_ + 1 x_98_ ^ 2 + 1 y_42_ ^ 2 - 2 y_98_ * y_42_ + 1 y_98_ ^ 2 ] >= 12612.6
quadratic_ranged_548_lb: [ 1 x_45_ ^ 2 - 2 x_98_ * x_45_ + 1 x_98_ ^ 2 + 1 y_45_ ^ 2 - 2 y_98_ * y_45_ + 1 y_98_ ^ 2 ] >= 5276.7
quadratic_ranged_549_lb: [ 1 x_46_ ^ 2 - 2 x_98_ * x_46_ + 1 x_98_ ^ 2 + 1 y_46_ ^ 2 - 2 y_98_ * y_46_ + 1 y_98_ ^ 2 ] >= 3271.95
quadratic_ranged_550_lb: [ 1 x_57_ ^ 2 - 2 x_98_ * x_57_ + 1 x_98_ ^ 2 + 1 y_57_ ^ 2 - 2 y_98_ * y_57_ + 1 y_98_ ^ 2 ] >= 3821.4
quadratic_ranged_551_lb: [ 1 x_66_ ^ 2 - 2 x_98_ * x_66_ + 1 x_98_ ^ 2 + 1 y_66_ ^ 2 - 2 y_98_ * y_66_ + 1 y_98_ ^ 2 ] >= 14482.71
quadratic_ranged_552_lb: [ 1 x_69_ ^ 2 - 2 x_98_ * x_69_ + 1 x_98_ ^ 2 + 1 y_69_ ^ 2 - 2 y_98_ * y_69_ + 1 y_98_ ^ 2 ] >= 2807.64
quadratic_ranged_553_lb: [ 1 x_77_ ^ 2 - 2 x_98_ * x_77_ + 1 x_98_ ^ 2 + 1 y_77_ ^ 2 - 2 y_98_ * y_77_ + 1 y_98_ ^ 2 ] >= 11525.58
quadratic_ranged_554_lb: [ 1 x_88_ ^ 2 - 2 x_98_ * x_88_ + 1 x_98_ ^ 2 + 1 y_88_ ^ 2 - 2 y_98_ * y_88_ + 1 y_98_ ^ 2 ] >= 5584.59
quadratic_ranged_555_lb: [ 1 x_92_ ^ 2 - 2 x_98_ * x_92_ + 1 x_98_ ^ 2 + 1 y_92_ ^ 2 - 2 y_98_ * y_92_ + 1 y_98_ ^ 2 ] >= 4776.75
quadratic_ranged_556_lb: [ 1 x_93_ ^ 2 - 2 x_98_ * x_93_ + 1 x_98_ ^ 2 + 1 y_93_ ^ 2 - 2 y_98_ * y_93_ + 1 y_98_ ^ 2 ] >= 1237.5
quadratic_ranged_557_lb: [ 1 x_97_ ^ 2 - 2 x_98_ * x_97_ + 1 x_98_ ^ 2 + 1 y_97_ ^ 2 - 2 y_98_ * y_97_ + 1 y_98_ ^ 2 ] >= 7509.15
quadratic_ranged_558_lb: [ 1 x_13_ ^ 2 - 2 x_99_ * x_13_ + 1 x_99_ ^ 2 + 1 y_13_ ^ 2 - 2 y_99_ * y_13_ + 1 y_99_ ^ 2 ] >= 24237.18
quadratic_ranged_559_lb: [ 1 x_14_ ^ 2 - 2 x_99_ * x_14_ + 1 x_99_ ^ 2 + 1 y_14_ ^ 2 - 2 y_99_ * y_14_ + 1 y_99_ ^ 2 ] >= 155.43
quadratic_ranged_560_lb: [ 1 x_16_ ^ 2 - 2 x_99_ * x_16_ + 1 x_99_ ^ 2 + 1 y_16_ ^ 2 - 2 y_99_ * y_16_ + 1 y_99_ ^ 2 ] >= 12890.789999999999
quadratic_ranged_561_lb: [ 1 x_18_ ^ 2 - 2 x_99_ * x_18_ + 1 x_99_ ^ 2 + 1 y_18_ ^ 2 - 2 y_99_ * y_18_ + 1 y_99_ ^ 2 ] >= 15216.3
quadratic_ranged_562_lb: [ 1 x_33_ ^ 2 - 2 x_99_ * x_33_ + 1 x_99_ ^ 2 + 1 y_33_ ^ 2 - 2 y_99_ * y_33_ + 1 y_99_ ^ 2 ] >= 1751.31
quadratic_ranged_563_lb: [ 1 x_38_ ^ 2 - 2 x_99_ * x_38_ + 1 x_99_ ^ 2 + 1 y_38_ ^ 2 - 2 y_99_ * y_38_ + 1 y_99_ ^ 2 ] >= 6594.39
quadratic_ranged_564_lb: [ 1 x_45_ ^ 2 - 2 x_99_ * x_45_ + 1 x_99_ ^ 2 + 1 y_45_ ^ 2 - 2 y_99_ * y_45_ + 1 y_99_ ^ 2 ] >= 6945.84
quadratic_ranged_565_lb: [ 1 x_48_ ^ 2 - 2 x_99_ * x_48_ + 1 x_99_ ^ 2 + 1 y_48_ ^ 2 - 2 y_99_ * y_48_ + 1 y_99_ ^ 2 ] >= 3877.83
quadratic_ranged_566_lb: [ 1 x_50_ ^ 2 - 2 x_99_ * x_50_ + 1 x_99_ ^ 2 + 1 y_50_ ^ 2 - 2 y_99_ * y_50_ + 1 y_99_ ^ 2 ] >= 19666.35
quadratic_ranged_567_lb: [ 1 x_71_ ^ 2 - 2 x_99_ * x_71_ + 1 x_99_ ^ 2 + 1 y_71_ ^ 2 - 2 y_99_ * y_71_ + 1 y_99_ ^ 2 ] >= 12184.92
quadratic_ranged_568_lb: [ 1 x_77_ ^ 2 - 2 x_99_ * x_77_ + 1 x_99_ ^ 2 + 1 y_77_ ^ 2 - 2 y_99_ * y_77_ + 1 y_99_ ^ 2 ] >= 5132.16
quadratic_ranged_569_lb: [ 1 x_87_ ^ 2 - 2 x_99_ * x_87_ + 1 x_99_ ^ 2 + 1 y_87_ ^ 2 - 2 y_99_ * y_87_ + 1 y_99_ ^ 2 ] >= 4756.95
quadratic_ranged_570_lb: [ 1 x_98_ ^ 2 - 2 x_99_ * x_98_ + 1 x_99_ ^ 2 + 1 y_98_ ^ 2 - 2 y_99_ * y_98_ + 1 y_99_ ^ 2 ] >= 7961.58
quadratic_ranged_571_lb: [ 1 x_1_ ^ 2 - 2 x_100_ * x_1_ + 1 x_100_ ^ 2 + 1 y_1_ ^ 2 - 2 y_100_ * y_1_ + 1 y_100_ ^ 2 ] >= 2935.35
quadratic_ranged_572_lb: [ 1 x_11_ ^ 2 - 2 x_100_ * x_11_ + 1 x_100_ ^ 2 + 1 y_11_ ^ 2 - 2 y_100_ * y_11_ + 1 y_100_ ^ 2 ] >= 4999.5
quadratic_ranged_573_lb: [ 1 x_30_ ^ 2 - 2 x_100_ * x_30_ + 1 x_100_ ^ 2 + 1 y_30_ ^ 2 - 2 y_100_ * y_30_ + 1 y_100_ ^ 2 ] >= 18213.03
quadratic_ranged_574_lb: [ 1 x_40_ ^ 2 - 2 x_100_ * x_40_ + 1 x_100_ ^ 2 + 1 y_40_ ^ 2 - 2 y_100_ * y_40_ + 1 y_100_ ^ 2 ] >= 19467.36
quadratic_ranged_575_lb: [ 1 x_43_ ^ 2 - 2 x_100_ * x_43_ + 1 x_100_ ^ 2 + 1 y_43_ ^ 2 - 2 y_100_ * y_43_ + 1 y_100_ ^ 2 ] >= 26972.55
quadratic_ranged_576_lb: [ 1 x_45_ ^ 2 - 2 x_100_ * x_45_ + 1 x_100_ ^ 2 + 1 y_45_ ^ 2 - 2 y_100_ * y_45_ + 1 y_100_ ^ 2 ] >= 603.9
quadratic_ranged_577_lb: [ 1 x_52_ ^ 2 - 2 x_100_ * x_52_ + 1 x_100_ ^ 2 + 1 y_52_ ^ 2 - 2 y_100_ * y_52_ + 1 y_100_ ^ 2 ] >= 22149.27
quadratic_ranged_578_lb: [ 1 x_55_ ^ 2 - 2 x_100_ * x_55_ + 1 x_100_ ^ 2 + 1 y_55_ ^ 2 - 2 y_100_ * y_55_ + 1 y_100_ ^ 2 ] >= 13560.03
quadratic_ranged_579_lb: [ 1 x_57_ ^ 2 - 2 x_100_ * x_57_ + 1 x_100_ ^ 2 + 1 y_57_ ^ 2 - 2 y_100_ * y_57_ + 1 y_100_ ^ 2 ] >= 11266.2
quadratic_ranged_580_lb: [ 1 x_59_ ^ 2 - 2 x_100_ * x_59_ + 1 x_100_ ^ 2 + 1 y_59_ ^ 2 - 2 y_100_ * y_59_ + 1 y_100_ ^ 2 ] >= 20483.1
quadratic_ranged_581_lb: [ 1 x_67_ ^ 2 - 2 x_100_ * x_67_ + 1 x_100_ ^ 2 + 1 y_67_ ^ 2 - 2 y_100_ * y_67_ + 1 y_100_ ^ 2 ] >= 12024.539999999999
quadratic_ranged_582_lb: [ 1 x_77_ ^ 2 - 2 x_100_ * x_77_ + 1 x_100_ ^ 2 + 1 y_77_ ^ 2 - 2 y_100_ * y_77_ + 1 y_100_ ^ 2 ] >= 738.54
quadratic_ranged_583_lb: [ 1 x_91_ ^ 2 - 2 x_100_ * x_91_ + 1 x_100_ ^ 2 + 1 y_91_ ^ 2 - 2 y_100_ * y_91_ + 1 y_100_ ^ 2 ] >= 14319.36
quadratic_ranged_584_lb: [ 1 x_95_ ^ 2 - 2 x_100_ * x_95_ + 1 x_100_ ^ 2 + 1 y_95_ ^ 2 - 2 y_100_ * y_95_ + 1 y_100_ ^ 2 ] >= 25154.91
quadratic_ranged_585_lb: [ 1 x_99_ ^ 2 - 2 x_100_ * x_99_ + 1 x_100_ ^ 2 + 1 y_99_ ^ 2 - 2 y_100_ * y_99_ + 1 y_100_ ^ 2 ] >= 7438.86
c1_1: 1 x_44_ = 61
c2_1: 1 y_44_ = -8
c3_1: 1 x_99_ = -3
c4_1: 1 y_99_ = -68
c5_1: 1 x_50_ = -40
c6_1: 1 y_50_ = 68
Bounds
-98 <= x_1_ <= 92
-98 <= x_2_ <= 92
-88 <= x_3_ <= 63
-96 <= x_4_ <= 96
-88 <= x_5_ <= 100
-84 <= x_6_ <= 135
21 <= x_7_ <= 101
-27 <= x_8_ <= 69
-45 <= x_9_ <= 88
-87 <= x_10_ <= 139
-19 <= x_11_ <= 60
-170 <= x_12_ <= 147
-79 <= x_13_ <= 85
-15 <= x_14_ <= 9
-50 <= x_15_ <= 61
-93 <= x_16_ <= 111
-81 <= x_17_ <= 96
-94 <= x_18_ <= 121
-49 <= x_19_ <= 132
-101 <= x_20_ <= 95
-4 <= x_21_ <= 126
-112 <= x_22_ <= 51
0 <= x_23_ <= 52
-39 <= x_24_ <= 79
-111 <= x_25_ <= 83
-97 <= x_26_ <= 150
-158 <= x_27_ <= 128
-41 <= x_28_ <= 74
-50 <= x_29_ <= 53
-103 <= x_30_ <= 106
-93 <= x_31_ <= 83
8 <= x_32_ <= 81
-26 <= x_33_ <= 39
-73 <= x_34_ <= 84
-109 <= x_35_ <= 157
-88 <= x_36_ <= 154
-76 <= x_37_ <= 68
-61 <= x_38_ <= 79
-92 <= x_39_ <= 86
18 <= x_40_ <= 104
-49 <= x_41_ <= 139
-38 <= x_42_ <= 65
-2 <= x_43_ <= 101
x_44_ = 61
-74 <= x_45_ <= 81
-97 <= x_46_ <= 144
-56 <= x_47_ <= 50
-65 <= x_48_ <= 59
-28 <= x_49_ <= 18
x_50_ = -40
-87 <= x_51_ <= 57
-132 <= x_52_ <= 102
-111 <= x_53_ <= 89
-37 <= x_54_ <= 80
-106 <= x_55_ <= 126
-96 <= x_56_ <= 90
-26 <= x_57_ <= 78
-48 <= x_58_ <= 87
-55 <= x_59_ <= 97
-114 <= x_60_ <= 96
-100 <= x_61_ <= 110
-137 <= x_62_ <= 135
-28 <= x_63_ <= 86
-49 <= x_64_ <= 56
-72 <= x_65_ <= 107
-155 <= x_66_ <= 155
-64 <= x_67_ <= 39
-92 <= x_68_ <= 159
-41 <= x_69_ <= 129
-54 <= x_70_ <= 97
-86 <= x_71_ <= 102
-74 <= x_72_ <= 0
-63 <= x_73_ <= 32
-92 <= x_74_ <= 62
-125 <= x_75_ <= 131
-100 <= x_76_ <= 166
-75 <= x_77_ <= 69
-24 <= x_78_ <= 89
-91 <= x_79_ <= 103
-112 <= x_80_ <= 115
-19 <= x_81_ <= 141
-72 <= x_82_ <= 133
-94 <= x_83_ <= 120
-93 <= x_84_ <= 100
-50 <= x_85_ <= 95
-45 <= x_86_ <= 51
-72 <= x_87_ <= 66
36 <= x_88_ <= 86
24 <= x_89_ <= 98
-39 <= x_90_ <= 87
-74 <= x_91_ <= 103
-78 <= x_92_ <= 81
-75 <= x_93_ <= 72
-71 <= x_94_ <= 136
-2 <= x_95_ <= 43
-117 <= x_96_ <= 125
-127 <= x_97_ <= 170
-39 <= x_98_ <= 87
x_99_ = -3
-90 <= x_100_ <= 84
-82 <= y_1_ <= 27
-96 <= y_2_ <= 27
-35 <= y_3_ <= 80
-68 <= y_4_ <= 93
-130 <= y_5_ <= 35
-124 <= y_6_ <= 70
-48 <= y_7_ <= 32
-41 <= y_8_ <= 80
-75 <= y_9_ <= 23
-118 <= y_10_ <= 74
-32 <= y_11_ <= 72
-119 <= y_12_ <= 174
-57 <= y_13_ <= 89
-80 <= y_14_ <= -56
-67 <= y_15_ <= -4
-103 <= y_16_ <= 46
-105 <= y_17_ <= 31
-107 <= y_18_ <= 56
-118 <= y_19_ <= 67
-112 <= y_20_ <= 30
-73 <= y_21_ <= 57
-23 <= y_22_ <= 99
-24 <= y_23_ <= 53
-51 <= y_24_ <= 92
-55 <= y_25_ <= 128
-128 <= y_26_ <= 85
-100 <= y_27_ <= 148
-46 <= y_28_ <= 94
-25 <= y_29_ <= 68
-78 <= y_30_ <= 118
-55 <= y_31_ <= 127
-53 <= y_32_ <= 45
-95 <= y_33_ <= -26
-90 <= y_34_ <= 19
-130 <= y_35_ <= 92
-144 <= y_36_ <= 89
-40 <= y_37_ <= 31
-130 <= y_38_ <= 14
-89 <= y_39_ <= 21
-51 <= y_40_ <= 35
-111 <= y_41_ <= 75
-107 <= y_42_ <= 0
-71 <= y_43_ <= 36
y_44_ = -8
-123 <= y_45_ <= 16
-119 <= y_46_ <= 79
-105 <= y_47_ <= -15
-63 <= y_48_ <= -6
10 <= y_49_ <= 81
y_50_ = 68
-29 <= y_51_ <= 29
-74 <= y_52_ <= 144
-61 <= y_53_ <= 125
-67 <= y_54_ <= 15
-98 <= y_55_ <= 84
-94 <= y_56_ <= 25
-50 <= y_57_ <= 29
-59 <= y_58_ <= 85
-69 <= y_59_ <= 75
-68 <= y_60_ <= 124
-82 <= y_61_ <= 110
-111 <= y_62_ <= 70
-58 <= y_63_ <= 21
-28 <= y_64_ <= 102
-79 <= y_65_ <= 71
-127 <= y_66_ <= 112
-11 <= y_67_ <= 82
-131 <= y_68_ <= 145
-101 <= y_69_ <= 75
-84 <= y_70_ <= 32
-74 <= y_71_ <= 43
28 <= y_72_ <= 108
-4 <= y_73_ <= 85
-34 <= y_74_ <= 108
-103 <= y_75_ <= 115
-146 <= y_76_ <= 101
-73 <= y_77_ <= 4
-93 <= y_78_ <= 24
-75 <= y_79_ <= 85
-87 <= y_80_ <= 95
-88 <= y_81_ <= 72
-105 <= y_82_ <= 87
-126 <= y_83_ <= 55
-104 <= y_84_ <= 35
-119 <= y_85_ <= 30
-23 <= y_86_ <= 98
-105 <= y_87_ <= 1
-33 <= y_88_ <= 17
-45 <= y_89_ <= 29
-59 <= y_90_ <= 79
-89 <= y_91_ <= 38
-53 <= y_92_ <= 91
-44 <= y_93_ <= 57
-120 <= y_94_ <= 71
-15 <= y_95_ <= 55
-97 <= y_96_ <= 101
-142 <= y_97_ <= 109
-63 <= y_98_ <= 22
y_99_ = -68
-100 <= y_100_ <= 19
General
x_1_
x_2_
x_3_
x_4_
x_5_
x_6_
x_7_
x_8_
x_9_
x_10_
x_11_
x_12_
x_13_
x_14_
x_15_
x_16_
x_17_
x_18_
x_19_
x_20_
x_21_
x_22_
x_23_
x_24_
x_25_
x_26_
x_27_
x_28_
x_29_
x_30_
x_31_
x_32_
x_33_
x_34_
x_35_
x_36_
x_37_
x_38_
x_39_
x_40_
x_41_
x_42_
x_43_
x_44_
x_45_
x_46_
x_47_
x_48_
x_49_
x_50_
x_51_
x_52_
x_53_
x_54_
x_55_
x_56_
x_57_
x_58_
x_59_
x_60_
x_61_
x_62_
x_63_
x_64_
x_65_
x_66_
x_67_
x_68_
x_69_
x_70_
x_71_
x_72_
x_73_
x_74_
x_75_
x_76_
x_77_
x_78_
x_79_
x_80_
x_81_
x_82_
x_83_
x_84_
x_85_
x_86_
x_87_
x_88_
x_89_
x_90_
x_91_
x_92_
x_93_
x_94_
x_95_
x_96_
x_97_
x_98_
x_99_
x_100_
y_1_
y_2_
y_3_
y_4_
y_5_
y_6_
y_7_
y_8_
y_9_
y_10_
y_11_
y_12_
y_13_
y_14_
y_15_
y_16_
y_17_
y_18_
y_19_
y_20_
y_21_
y_22_
y_23_
y_24_
y_25_
y_26_
y_27_
y_28_
y_29_
y_30_
y_31_
y_32_
y_33_
y_34_
y_35_
y_36_
y_37_
y_38_
y_39_
y_40_
y_41_
y_42_
y_43_
y_44_
y_45_
y_46_
y_47_
y_48_
y_49_
y_50_
y_51_
y_52_
y_53_
y_54_
y_55_
y_56_
y_57_
y_58_
y_59_
y_60_
y_61_
y_62_
y_63_
y_64_
y_65_
y_66_
y_67_
y_68_
y_69_
y_70_
y_71_
y_72_
y_73_
y_74_
y_75_
y_76_
y_77_
y_78_
y_79_
y_80_
y_81_
y_82_
y_83_
y_84_
y_85_
y_86_
y_87_
y_88_
y_89_
y_90_
y_91_
y_92_
y_93_
y_94_
y_95_
y_96_
y_97_
y_98_
y_99_
y_100_
End
