minimize
obj: 
subject to
c1: -70 x_1_ - 166 y_1_ + [ 1 x_1_ ^ 2 + 1 y_1_ ^ 2 ] <= 30105.941728339465
c2: -70 x_2_ - 166 y_2_ + [ 1 x_2_ ^ 2 + 1 y_2_ ^ 2 ] <= 19710.633983923242
c3: -70 x_3_ - 166 y_3_ + [ 1 x_3_ ^ 2 + 1 y_3_ ^ 2 ] <= 27998.103850251027
c4: -70 x_4_ - 166 y_4_ + [ 1 x_4_ ^ 2 + 1 y_4_ ^ 2 ] <= 12826.122197184784
c5: -70 x_5_ - 166 y_5_ + [ 1 x_5_ ^ 2 + 1 y_5_ ^ 2 ] <= 14215.979586908386
c6: -70 x_6_ - 166 y_6_ + [ 1 x_6_ ^ 2 + 1 y_6_ ^ 2 ] <= 10021.957494615217
c7: -70 x_7_ - 166 y_7_ + [ 1 x_7_ ^ 2 + 1 y_7_ ^ 2 ] <= 14792.318173964079
c8: -70 x_8_ - 166 y_8_ + [ 1 x_8_ ^ 2 + 1 y_8_ ^ 2 ] <= 27255.66468322859
c9: -70 x_9_ - 166 y_9_ + [ 1 x_9_ ^ 2 + 1 y_9_ ^ 2 ] <= 44686.88426697789
c10: -70 x_10_ - 166 y_10_ + [ 1 x_10_ ^ 2 + 1 y_10_ ^ 2 ] <= -963.3871936364812
c11: -70 x_11_ - 166 y_11_ + [ 1 x_11_ ^ 2 + 1 y_11_ ^ 2 ] <= 42600.38183778079
c12: -70 x_12_ - 166 y_12_ + [ 1 x_12_ ^ 2 + 1 y_12_ ^ 2 ] <= 3038.42
c13: -70 x_14_ - 166 y_14_ + [ 1 x_14_ ^ 2 + 1 y_14_ ^ 2 ] <= 27423.859999999993
c14: -70 x_15_ - 166 y_15_ + [ 1 x_15_ ^ 2 + 1 y_15_ ^ 2 ] <= 6615.959699458024
c15: -70 x_16_ - 166 y_16_ + [ 1 x_16_ ^ 2 + 1 y_16_ ^ 2 ] <= 22747.207665634083
c16: -70 x_17_ - 166 y_17_ + [ 1 x_17_ ^ 2 + 1 y_17_ ^ 2 ] <= 10961.495727603084
c17: -70 x_18_ - 166 y_18_ + [ 1 x_18_ ^ 2 + 1 y_18_ ^ 2 ] <= 3134.624087441751
c18: -70 x_19_ - 166 y_19_ + [ 1 x_19_ ^ 2 + 1 y_19_ ^ 2 ] <= 2031.801472443689
c19: -70 x_20_ - 166 y_20_ + [ 1 x_20_ ^ 2 + 1 y_20_ ^ 2 ] <= 28438.09884148505
c20: -70 x_21_ - 166 y_21_ + [ 1 x_21_ ^ 2 + 1 y_21_ ^ 2 ] <= 23599.411482773958
c21: -70 x_22_ - 166 y_22_ + [ 1 x_22_ ^ 2 + 1 y_22_ ^ 2 ] <= 14318.455649964118
c22: -70 x_23_ - 166 y_23_ + [ 1 x_23_ ^ 2 + 1 y_23_ ^ 2 ] <= -6461.64
c23: -70 x_24_ - 166 y_24_ + [ 1 x_24_ ^ 2 + 1 y_24_ ^ 2 ] <= 17856.742045615454
c24: -70 x_25_ - 166 y_25_ + [ 1 x_25_ ^ 2 + 1 y_25_ ^ 2 ] <= 49664.66124327536
c25: -70 x_26_ - 166 y_26_ + [ 1 x_26_ ^ 2 + 1 y_26_ ^ 2 ] <= 39545.40461800279
c26: -70 x_27_ - 166 y_27_ + [ 1 x_27_ ^ 2 + 1 y_27_ ^ 2 ] <= 21572.453293336166
c27: -70 x_28_ - 166 y_28_ + [ 1 x_28_ ^ 2 + 1 y_28_ ^ 2 ] <= 9071.981318684295
c28: -70 x_29_ - 166 y_29_ + [ 1 x_29_ ^ 2 + 1 y_29_ ^ 2 ] <= 21289.08869446862
c29: -70 x_30_ - 166 y_30_ + [ 1 x_30_ ^ 2 + 1 y_30_ ^ 2 ] <= 37213.98746778448
c30: -70 x_31_ - 166 y_31_ + [ 1 x_31_ ^ 2 + 1 y_31_ ^ 2 ] <= 32732.525522020755
c31: -70 x_32_ - 166 y_32_ + [ 1 x_32_ ^ 2 + 1 y_32_ ^ 2 ] <= 15649.843918218605
c32: -70 x_33_ - 166 y_33_ + [ 1 x_33_ ^ 2 + 1 y_33_ ^ 2 ] <= 7968.460626550326
c33: -70 x_34_ - 166 y_34_ + [ 1 x_34_ ^ 2 + 1 y_34_ ^ 2 ] <= 5872.923474128256
c34: -70 x_35_ - 166 y_35_ + [ 1 x_35_ ^ 2 + 1 y_35_ ^ 2 ] <= 7767.538697663647
c35: -70 x_36_ - 166 y_36_ + [ 1 x_36_ ^ 2 + 1 y_36_ ^ 2 ] <= -6331.35
c36: -70 x_37_ - 166 y_37_ + [ 1 x_37_ ^ 2 + 1 y_37_ ^ 2 ] <= -4966.73997596306
c37: -70 x_38_ - 166 y_38_ + [ 1 x_38_ ^ 2 + 1 y_38_ ^ 2 ] <= 4647.970225868072
c38: -70 x_39_ - 166 y_39_ + [ 1 x_39_ ^ 2 + 1 y_39_ ^ 2 ] <= 27435.803868871066
c39: -70 x_40_ - 166 y_40_ + [ 1 x_40_ ^ 2 + 1 y_40_ ^ 2 ] <= 19304.092475288544
c40: -70 x_41_ - 166 y_41_ + [ 1 x_41_ ^ 2 + 1 y_41_ ^ 2 ] <= 9476.58940602787
c41: -70 x_42_ - 166 y_42_ + [ 1 x_42_ ^ 2 + 1 y_42_ ^ 2 ] <= -1121.4345653571772
c42: -70 x_43_ - 166 y_43_ + [ 1 x_43_ ^ 2 + 1 y_43_ ^ 2 ] <= 15101.216268561402
c43: -70 x_44_ - 166 y_44_ + [ 1 x_44_ ^ 2 + 1 y_44_ ^ 2 ] <= 10115.490000000002
c44: -70 x_45_ - 166 y_45_ + [ 1 x_45_ ^ 2 + 1 y_45_ ^ 2 ] <= 15251.83820229087
c45: -70 x_46_ - 166 y_46_ + [ 1 x_46_ ^ 2 + 1 y_46_ ^ 2 ] <= 38243.41950664512
c46: -70 x_47_ - 166 y_47_ + [ 1 x_47_ ^ 2 + 1 y_47_ ^ 2 ] <= 13149.529999999999
c47: -70 x_48_ - 166 y_48_ + [ 1 x_48_ ^ 2 + 1 y_48_ ^ 2 ] <= 19733.151646896426
c48: -70 x_49_ - 166 y_49_ + [ 1 x_49_ ^ 2 + 1 y_49_ ^ 2 ] <= 10201.13339163363
c49: -70 x_50_ - 166 y_50_ + [ 1 x_50_ ^ 2 + 1 y_50_ ^ 2 ] <= 10627.739952905562
c50: -70 x_51_ - 166 y_51_ + [ 1 x_51_ ^ 2 + 1 y_51_ ^ 2 ] <= 3773.8278786201536
c51: -70 x_52_ - 166 y_52_ + [ 1 x_52_ ^ 2 + 1 y_52_ ^ 2 ] <= 14137.682878612857
c52: -70 x_53_ - 166 y_53_ + [ 1 x_53_ ^ 2 + 1 y_53_ ^ 2 ] <= 9802.28449670074
c53: -70 x_54_ - 166 y_54_ + [ 1 x_54_ ^ 2 + 1 y_54_ ^ 2 ] <= 28743.16407274099
c54: -70 x_55_ - 166 y_55_ + [ 1 x_55_ ^ 2 + 1 y_55_ ^ 2 ] <= 10716.685763921956
c55: -70 x_56_ - 166 y_56_ + [ 1 x_56_ ^ 2 + 1 y_56_ ^ 2 ] <= 11387.942064190287
c56: -70 x_57_ - 166 y_57_ + [ 1 x_57_ ^ 2 + 1 y_57_ ^ 2 ] <= 16363.796003623163
c57: -70 x_58_ - 166 y_58_ + [ 1 x_58_ ^ 2 + 1 y_58_ ^ 2 ] <= 28346.421508593623
c58: -70 x_59_ - 166 y_59_ + [ 1 x_59_ ^ 2 + 1 y_59_ ^ 2 ] <= 22053.620468720335
c59: -70 x_60_ - 166 y_60_ + [ 1 x_60_ ^ 2 + 1 y_60_ ^ 2 ] <= 22760.83882862642
c60: -70 x_61_ - 166 y_61_ + [ 1 x_61_ ^ 2 + 1 y_61_ ^ 2 ] <= 34087.2001722473
c61: -70 x_62_ - 166 y_62_ + [ 1 x_62_ ^ 2 + 1 y_62_ ^ 2 ] <= 14673.606344719312
c62: -70 x_63_ - 166 y_63_ + [ 1 x_63_ ^ 2 + 1 y_63_ ^ 2 ] <= 13879.133800980708
c63: -70 x_64_ - 166 y_64_ + [ 1 x_64_ ^ 2 + 1 y_64_ ^ 2 ] <= 19691.36880924754
c64: -70 x_65_ - 166 y_65_ + [ 1 x_65_ ^ 2 + 1 y_65_ ^ 2 ] <= -4428.51
c65: -70 x_66_ - 166 y_66_ + [ 1 x_66_ ^ 2 + 1 y_66_ ^ 2 ] <= 36957.94442771619
c66: -70 x_67_ - 166 y_67_ + [ 1 x_67_ ^ 2 + 1 y_67_ ^ 2 ] <= 22573.159947647528
c67: -70 x_68_ - 166 y_68_ + [ 1 x_68_ ^ 2 + 1 y_68_ ^ 2 ] <= 29196.754734662274
c68: -70 x_69_ - 166 y_69_ + [ 1 x_69_ ^ 2 + 1 y_69_ ^ 2 ] <= 25724.721234648612
c69: -70 x_70_ - 166 y_70_ + [ 1 x_70_ ^ 2 + 1 y_70_ ^ 2 ] <= 11218.409999999996
c70: -70 x_71_ - 166 y_71_ + [ 1 x_71_ ^ 2 + 1 y_71_ ^ 2 ] <= 24592.837790493275
c71: -70 x_72_ - 166 y_72_ + [ 1 x_72_ ^ 2 + 1 y_72_ ^ 2 ] <= 20709.094434216342
c72: -70 x_73_ - 166 y_73_ + [ 1 x_73_ ^ 2 + 1 y_73_ ^ 2 ] <= -2285.1889309698226
c73: -70 x_74_ - 166 y_74_ + [ 1 x_74_ ^ 2 + 1 y_74_ ^ 2 ] <= 12309.423014333337
c74: -70 x_75_ - 166 y_75_ + [ 1 x_75_ ^ 2 + 1 y_75_ ^ 2 ] <= -5639.5
c75: -70 x_76_ - 166 y_76_ + [ 1 x_76_ ^ 2 + 1 y_76_ ^ 2 ] <= 16381.13170953728
c76: -70 x_77_ - 166 y_77_ + [ 1 x_77_ ^ 2 + 1 y_77_ ^ 2 ] <= 35336.53839705855
c77: -70 x_78_ - 166 y_78_ + [ 1 x_78_ ^ 2 + 1 y_78_ ^ 2 ] <= 6042.609316544202
c78: -70 x_79_ - 166 y_79_ + [ 1 x_79_ ^ 2 + 1 y_79_ ^ 2 ] <= 13782.451437885204
c79: -70 x_80_ - 166 y_80_ + [ 1 x_80_ ^ 2 + 1 y_80_ ^ 2 ] <= -1260.1399999999994
c80: -70 x_81_ - 166 y_81_ + [ 1 x_81_ ^ 2 + 1 y_81_ ^ 2 ] <= 17781.465197873826
c81: -70 x_82_ - 166 y_82_ + [ 1 x_82_ ^ 2 + 1 y_82_ ^ 2 ] <= 28797.759663056437
c82: -70 x_83_ - 166 y_83_ + [ 1 x_83_ ^ 2 + 1 y_83_ ^ 2 ] <= 19461.163928474416
c83: -70 x_84_ - 166 y_84_ + [ 1 x_84_ ^ 2 + 1 y_84_ ^ 2 ] <= 9111.104864717927
c84: -70 x_85_ - 166 y_85_ + [ 1 x_85_ ^ 2 + 1 y_85_ ^ 2 ] <= 4121.139999999998
c85: -70 x_86_ - 166 y_86_ + [ 1 x_86_ ^ 2 + 1 y_86_ ^ 2 ] <= 31063.18335642715
c86: -70 x_87_ - 166 y_87_ + [ 1 x_87_ ^ 2 + 1 y_87_ ^ 2 ] <= 36592.13530738896
c87: -70 x_88_ - 166 y_88_ + [ 1 x_88_ ^ 2 + 1 y_88_ ^ 2 ] <= 34054.82475054161
c88: -70 x_89_ - 166 y_89_ + [ 1 x_89_ ^ 2 + 1 y_89_ ^ 2 ] <= 40793.83515931794
c89: -70 x_90_ - 166 y_90_ + [ 1 x_90_ ^ 2 + 1 y_90_ ^ 2 ] <= 17857.974517283797
c90: -70 x_91_ - 166 y_91_ + [ 1 x_91_ ^ 2 + 1 y_91_ ^ 2 ] <= 20268.52593240886
c91: -70 x_92_ - 166 y_92_ + [ 1 x_92_ ^ 2 + 1 y_92_ ^ 2 ] <= 27016.022412908467
c92: -70 x_93_ - 166 y_93_ + [ 1 x_93_ ^ 2 + 1 y_93_ ^ 2 ] <= 6946.675960132203
c93: -70 x_94_ - 166 y_94_ + [ 1 x_94_ ^ 2 + 1 y_94_ ^ 2 ] <= 2184.792230701809
c94: -70 x_95_ - 166 y_95_ + [ 1 x_95_ ^ 2 + 1 y_95_ ^ 2 ] <= -7454.47
c95: -70 x_96_ - 166 y_96_ + [ 1 x_96_ ^ 2 + 1 y_96_ ^ 2 ] <= 6216.64964454258
c96: -70 x_97_ - 166 y_97_ + [ 1 x_97_ ^ 2 + 1 y_97_ ^ 2 ] <= 36029.574058223756
c97: -70 x_98_ - 166 y_98_ + [ 1 x_98_ ^ 2 + 1 y_98_ ^ 2 ] <= 22030.731726489408
c98: -70 x_99_ - 166 y_99_ + [ 1 x_99_ ^ 2 + 1 y_99_ ^ 2 ] <= 4337.000054268832
c99: -70 x_100_ - 166 y_100_ + [ 1 x_100_ ^ 2 + 1 y_100_ ^ 2 ] <= -4560.493075301947
c100: 76 x_1_ + 148 y_1_ + [ 1 x_1_ ^ 2 + 1 y_1_ ^ 2 ] <= 12894.275492302895
c101: 76 x_2_ + 148 y_2_ + [ 1 x_2_ ^ 2 + 1 y_2_ ^ 2 ] <= 1971.3697268001379
c102: 76 x_3_ + 148 y_3_ + [ 1 x_3_ ^ 2 + 1 y_3_ ^ 2 ] <= 30780.207110469426
c103: 76 x_4_ + 148 y_4_ + [ 1 x_4_ ^ 2 + 1 y_4_ ^ 2 ] <= 15233.519472820335
c104: 76 x_5_ + 148 y_5_ + [ 1 x_5_ ^ 2 + 1 y_5_ ^ 2 ] <= 25730.864538563234
c105: 76 x_6_ + 148 y_6_ + [ 1 x_6_ ^ 2 + 1 y_6_ ^ 2 ] <= 27743.54854617152
c106: 76 x_7_ + 148 y_7_ + [ 1 x_7_ ^ 2 + 1 y_7_ ^ 2 ] <= 24084.56417596624
c107: 76 x_8_ + 148 y_8_ + [ 1 x_8_ ^ 2 + 1 y_8_ ^ 2 ] <= 17232.129999999994
c108: 76 x_9_ + 148 y_9_ + [ 1 x_9_ ^ 2 + 1 y_9_ ^ 2 ] <= 38185.12050221913
c109: 76 x_10_ + 148 y_10_ + [ 1 x_10_ ^ 2 + 1 y_10_ ^ 2 ] <= 32274.618532089575
c110: 76 x_11_ + 148 y_11_ + [ 1 x_11_ ^ 2 + 1 y_11_ ^ 2 ] <= 23167.94197586662
c111: 76 x_12_ + 148 y_12_ + [ 1 x_12_ ^ 2 + 1 y_12_ ^ 2 ] <= 26666.859080983428
c112: 76 x_13_ + 148 y_13_ + [ 1 x_13_ ^ 2 + 1 y_13_ ^ 2 ] <= 38407.987467784464
c113: 76 x_14_ + 148 y_14_ + [ 1 x_14_ ^ 2 + 1 y_14_ ^ 2 ] <= 24149.741925552848
c114: 76 x_15_ + 148 y_15_ + [ 1 x_15_ ^ 2 + 1 y_15_ ^ 2 ] <= 1458.9599999999991
c115: 76 x_16_ + 148 y_16_ + [ 1 x_16_ ^ 2 + 1 y_16_ ^ 2 ] <= 14350.238018603552
c116: 76 x_17_ + 148 y_17_ + [ 1 x_17_ ^ 2 + 1 y_17_ ^ 2 ] <= 40467.54228251684
c117: 76 x_18_ + 148 y_18_ + [ 1 x_18_ ^ 2 + 1 y_18_ ^ 2 ] <= 4495.6774787313825
c118: 76 x_19_ + 148 y_19_ + [ 1 x_19_ ^ 2 + 1 y_19_ ^ 2 ] <= 26655.33802249063
c119: 76 x_20_ + 148 y_20_ + [ 1 x_20_ ^ 2 + 1 y_20_ ^ 2 ] <= 13773.47336649854
c120: 76 x_21_ + 148 y_21_ + [ 1 x_21_ ^ 2 + 1 y_21_ ^ 2 ] <= 17684.768599593397
c121: 76 x_22_ + 148 y_22_ + [ 1 x_22_ ^ 2 + 1 y_22_ ^ 2 ] <= 62208.065819475625
c122: 76 x_23_ + 148 y_23_ + [ 1 x_23_ ^ 2 + 1 y_23_ ^ 2 ] <= 33513.039723104645
c123: 76 x_24_ + 148 y_24_ + [ 1 x_24_ ^ 2 + 1 y_24_ ^ 2 ] <= 43705.51916777328
c124: 76 x_25_ + 148 y_25_ + [ 1 x_25_ ^ 2 + 1 y_25_ ^ 2 ] <= 37407.73867851227
c125: 76 x_26_ + 148 y_26_ + [ 1 x_26_ ^ 2 + 1 y_26_ ^ 2 ] <= 24494.597640709442
c126: 76 x_27_ + 148 y_27_ + [ 1 x_27_ ^ 2 + 1 y_27_ ^ 2 ] <= 33074.75149922883
c127: 76 x_28_ + 148 y_28_ + [ 1 x_28_ ^ 2 + 1 y_28_ ^ 2 ] <= 23402.621295498237
c128: 76 x_29_ + 148 y_29_ + [ 1 x_29_ ^ 2 + 1 y_29_ ^ 2 ] <= 18251.21999999999
c129: 76 x_31_ + 148 y_31_ + [ 1 x_31_ ^ 2 + 1 y_31_ ^ 2 ] <= 6997.800000000001
c130: 76 x_32_ + 148 y_32_ + [ 1 x_32_ ^ 2 + 1 y_32_ ^ 2 ] <= 24537.138374570466
c131: 76 x_33_ + 148 y_33_ + [ 1 x_33_ ^ 2 + 1 y_33_ ^ 2 ] <= 34982.18040161064
c132: 76 x_34_ + 148 y_34_ + [ 1 x_34_ ^ 2 + 1 y_34_ ^ 2 ] <= 35618.72463577561
c133: 76 x_35_ + 148 y_35_ + [ 1 x_35_ ^ 2 + 1 y_35_ ^ 2 ] <= 49262.56704502653
c134: 76 x_36_ + 148 y_36_ + [ 1 x_36_ ^ 2 + 1 y_36_ ^ 2 ] <= 36775.01550516793
c135: 76 x_37_ + 148 y_37_ + [ 1 x_37_ ^ 2 + 1 y_37_ ^ 2 ] <= 21815.490400422626
c136: 76 x_38_ + 148 y_38_ + [ 1 x_38_ ^ 2 + 1 y_38_ ^ 2 ] <= 26529.476470600966
c137: 76 x_39_ + 148 y_39_ + [ 1 x_39_ ^ 2 + 1 y_39_ ^ 2 ] <= 11218.26978828073
c138: 76 x_40_ + 148 y_40_ + [ 1 x_40_ ^ 2 + 1 y_40_ ^ 2 ] <= 5681.967374618218
c139: 76 x_41_ + 148 y_41_ + [ 1 x_41_ ^ 2 + 1 y_41_ ^ 2 ] <= 21297.413002654754
c140: 76 x_42_ + 148 y_42_ + [ 1 x_42_ ^ 2 + 1 y_42_ ^ 2 ] <= 39005.42710350798
c141: 76 x_43_ + 148 y_43_ + [ 1 x_43_ ^ 2 + 1 y_43_ ^ 2 ] <= 36155.362134879746
c142: 76 x_44_ + 148 y_44_ + [ 1 x_44_ ^ 2 + 1 y_44_ ^ 2 ] <= 29255.002677429882
c143: 76 x_45_ + 148 y_45_ + [ 1 x_45_ ^ 2 + 1 y_45_ ^ 2 ] <= 22104.59673720879
c144: 76 x_46_ + 148 y_46_ + [ 1 x_46_ ^ 2 + 1 y_46_ ^ 2 ] <= 66397.31740915477
c145: 76 x_47_ + 148 y_47_ + [ 1 x_47_ ^ 2 + 1 y_47_ ^ 2 ] <= 20244.909954125153
c146: 76 x_48_ + 148 y_48_ + [ 1 x_48_ ^ 2 + 1 y_48_ ^ 2 ] <= 34444.495926366
c147: 76 x_49_ + 148 y_49_ + [ 1 x_49_ ^ 2 + 1 y_49_ ^ 2 ] <= 22609.46381118737
c148: 76 x_50_ + 148 y_50_ + [ 1 x_50_ ^ 2 + 1 y_50_ ^ 2 ] <= 25458.071957700064
c149: 76 x_51_ + 148 y_51_ + [ 1 x_51_ ^ 2 + 1 y_51_ ^ 2 ] <= 16205.26053263888
c150: 76 x_52_ + 148 y_52_ + [ 1 x_52_ ^ 2 + 1 y_52_ ^ 2 ] <= 13293.727332771286
c151: 76 x_53_ + 148 y_53_ + [ 1 x_53_ ^ 2 + 1 y_53_ ^ 2 ] <= 19223.11191895379
c152: 76 x_54_ + 148 y_54_ + [ 1 x_54_ ^ 2 + 1 y_54_ ^ 2 ] <= 53118.79763665531
c153: 76 x_55_ + 148 y_55_ + [ 1 x_55_ ^ 2 + 1 y_55_ ^ 2 ] <= 21605.017391594014
c154: 76 x_56_ + 148 y_56_ + [ 1 x_56_ ^ 2 + 1 y_56_ ^ 2 ] <= 16391.528239054478
c155: 76 x_57_ + 148 y_57_ + [ 1 x_57_ ^ 2 + 1 y_57_ ^ 2 ] <= 27415.92479035158
c156: 76 x_58_ + 148 y_58_ + [ 1 x_58_ ^ 2 + 1 y_58_ ^ 2 ] <= 29840.686230760606
c157: 76 x_59_ + 148 y_59_ + [ 1 x_59_ ^ 2 + 1 y_59_ ^ 2 ] <= 25292.672436546978
c158: 76 x_60_ + 148 y_60_ + [ 1 x_60_ ^ 2 + 1 y_60_ ^ 2 ] <= 20402.30525513656
c159: 76 x_61_ + 148 y_61_ + [ 1 x_61_ ^ 2 + 1 y_61_ ^ 2 ] <= 33082.6812632134
c160: 76 x_62_ + 148 y_62_ + [ 1 x_62_ ^ 2 + 1 y_62_ ^ 2 ] <= 41034.6852845738
c161: 76 x_63_ + 148 y_63_ + [ 1 x_63_ ^ 2 + 1 y_63_ ^ 2 ] <= 26861.21357130079
c162: 76 x_64_ + 148 y_64_ + [ 1 x_64_ ^ 2 + 1 y_64_ ^ 2 ] <= 38479.32122729263
c163: 76 x_65_ + 148 y_65_ + [ 1 x_65_ ^ 2 + 1 y_65_ ^ 2 ] <= 30179.977142956166
c164: 76 x_66_ + 148 y_66_ + [ 1 x_66_ ^ 2 + 1 y_66_ ^ 2 ] <= -5237.34
c165: 76 x_67_ + 148 y_67_ + [ 1 x_67_ ^ 2 + 1 y_67_ ^ 2 ] <= 18588.940012810912
c166: 76 x_68_ + 148 y_68_ + [ 1 x_68_ ^ 2 + 1 y_68_ ^ 2 ] <= 12633.634218018888
c167: 76 x_69_ + 148 y_69_ + [ 1 x_69_ ^ 2 + 1 y_69_ ^ 2 ] <= 22250.521959316968
c168: 76 x_70_ + 148 y_70_ + [ 1 x_70_ ^ 2 + 1 y_70_ ^ 2 ] <= 9152.129999999997
c169: 76 x_71_ + 148 y_71_ + [ 1 x_71_ ^ 2 + 1 y_71_ ^ 2 ] <= 28926.144179896837
c170: 76 x_72_ + 148 y_72_ + [ 1 x_72_ ^ 2 + 1 y_72_ ^ 2 ] <= 12664.118941904435
c171: 76 x_73_ + 148 y_73_ + [ 1 x_73_ ^ 2 + 1 y_73_ ^ 2 ] <= 23672.91921774689
c172: 76 x_74_ + 148 y_74_ + [ 1 x_74_ ^ 2 + 1 y_74_ ^ 2 ] <= 1105.4599999999973
c173: 76 x_75_ + 148 y_75_ + [ 1 x_75_ ^ 2 + 1 y_75_ ^ 2 ] <= 19700.976191293103
c174: 76 x_76_ + 148 y_76_ + [ 1 x_76_ ^ 2 + 1 y_76_ ^ 2 ] <= 26250.159407842046
c175: 76 x_77_ + 148 y_77_ + [ 1 x_77_ ^ 2 + 1 y_77_ ^ 2 ] <= 24984.226047942106
c176: 76 x_78_ + 148 y_78_ + [ 1 x_78_ ^ 2 + 1 y_78_ ^ 2 ] <= 34149.42041658667
c177: 76 x_79_ + 148 y_79_ + [ 1 x_79_ ^ 2 + 1 y_79_ ^ 2 ] <= 28345.78435082719
c178: 76 x_80_ + 148 y_80_ + [ 1 x_80_ ^ 2 + 1 y_80_ ^ 2 ] <= 26727.735095849137
c179: 76 x_81_ + 148 y_81_ + [ 1 x_81_ ^ 2 + 1 y_81_ ^ 2 ] <= 10264.665127421638
c180: 76 x_82_ + 148 y_82_ + [ 1 x_82_ ^ 2 + 1 y_82_ ^ 2 ] <= 25692.90200198203
c181: 76 x_83_ + 148 y_83_ + [ 1 x_83_ ^ 2 + 1 y_83_ ^ 2 ] <= 33597.36854166112
c182: 76 x_84_ + 148 y_84_ + [ 1 x_84_ ^ 2 + 1 y_84_ ^ 2 ] <= 10511.68058985842
c183: 76 x_85_ + 148 y_85_ + [ 1 x_85_ ^ 2 + 1 y_85_ ^ 2 ] <= 38834.466962399776
c184: 76 x_86_ + 148 y_86_ + [ 1 x_86_ ^ 2 + 1 y_86_ ^ 2 ] <= 42343.42682927552
c185: 76 x_87_ + 148 y_87_ + [ 1 x_87_ ^ 2 + 1 y_87_ ^ 2 ] <= 27852.669381976702
c186: 76 x_88_ + 148 y_88_ + [ 1 x_88_ ^ 2 + 1 y_88_ ^ 2 ] <= 32424.9047997815
c187: 76 x_89_ + 148 y_89_ + [ 1 x_89_ ^ 2 + 1 y_89_ ^ 2 ] <= 36340.63785603731
c188: 76 x_90_ + 148 y_90_ + [ 1 x_90_ ^ 2 + 1 y_90_ ^ 2 ] <= 15374.228429814139
c189: 76 x_91_ + 148 y_91_ + [ 1 x_91_ ^ 2 + 1 y_91_ ^ 2 ] <= 37570.94267901276
c190: 76 x_92_ + 148 y_92_ + [ 1 x_92_ ^ 2 + 1 y_92_ ^ 2 ] <= 27139.1294119129
c191: 76 x_93_ + 148 y_93_ + [ 1 x_93_ ^ 2 + 1 y_93_ ^ 2 ] <= 30553.909433914458
c192: 76 x_94_ + 148 y_94_ + [ 1 x_94_ ^ 2 + 1 y_94_ ^ 2 ] <= 52719.08890077349
c193: 76 x_95_ + 148 y_95_ + [ 1 x_95_ ^ 2 + 1 y_95_ ^ 2 ] <= 50002.81217339306
c194: 76 x_96_ + 148 y_96_ + [ 1 x_96_ ^ 2 + 1 y_96_ ^ 2 ] <= 21695.61540983084
c195: 76 x_97_ + 148 y_97_ + [ 1 x_97_ ^ 2 + 1 y_97_ ^ 2 ] <= 38152.031435310506
c196: 76 x_98_ + 148 y_98_ + [ 1 x_98_ ^ 2 + 1 y_98_ ^ 2 ] <= 6938.6071784760115
c197: 76 x_99_ + 148 y_99_ + [ 1 x_99_ ^ 2 + 1 y_99_ ^ 2 ] <= 16992.658386595343
c198: 76 x_100_ + 148 y_100_ + [ 1 x_100_ ^ 2 + 1 y_100_ ^ 2 ] <= 41498.37280203624
c199: -172 x_1_ + 72 y_1_ + [ 1 x_1_ ^ 2 + 1 y_1_ ^ 2 ] <= 34407.75533831802
c200: -172 x_2_ + 72 y_2_ + [ 1 x_2_ ^ 2 + 1 y_2_ ^ 2 ] <= 35024.76685628204
c201: -172 x_3_ + 72 y_3_ + [ 1 x_3_ ^ 2 + 1 y_3_ ^ 2 ] <= 11871.640757584682
c202: -172 x_4_ + 72 y_4_ + [ 1 x_4_ ^ 2 + 1 y_4_ ^ 2 ] <= 7256.228794571585
c203: -172 x_5_ + 72 y_5_ + [ 1 x_5_ ^ 2 + 1 y_5_ ^ 2 ] <= 5407.43834721723
c204: -172 x_6_ + 72 y_6_ + [ 1 x_6_ ^ 2 + 1 y_6_ ^ 2 ] <= -6328.6
c205: -172 x_7_ + 72 y_7_ + [ 1 x_7_ ^ 2 + 1 y_7_ ^ 2 ] <= 30261.55586538907
c206: -172 x_8_ + 72 y_8_ + [ 1 x_8_ ^ 2 + 1 y_8_ ^ 2 ] <= 60943.714058131765
c207: -172 x_9_ + 72 y_9_ + [ 1 x_9_ ^ 2 + 1 y_9_ ^ 2 ] <= 41036.35789520593
c208: -172 x_10_ + 72 y_10_ + [ 1 x_10_ ^ 2 + 1 y_10_ ^ 2 ] <= 21491.479429812214
c209: -172 x_11_ + 72 y_11_ + [ 1 x_11_ ^ 2 + 1 y_11_ ^ 2 ] <= 50017.00385493409
c210: -172 x_12_ + 72 y_12_ + [ 1 x_12_ ^ 2 + 1 y_12_ ^ 2 ] <= 28788.497330304723
c211: -172 x_13_ + 72 y_13_ + [ 1 x_13_ ^ 2 + 1 y_13_ ^ 2 ] <= 17278.742045615454
c212: -172 x_14_ + 72 y_14_ + [ 1 x_14_ ^ 2 + 1 y_14_ ^ 2 ] <= 51179.65985901046
c213: -172 x_15_ + 72 y_15_ + [ 1 x_15_ ^ 2 + 1 y_15_ ^ 2 ] <= 31550.057876732382
c214: -172 x_16_ + 72 y_16_ + [ 1 x_16_ ^ 2 + 1 y_16_ ^ 2 ] <= 40355.14573661247
c215: -172 x_17_ + 72 y_17_ + [ 1 x_17_ ^ 2 + 1 y_17_ ^ 2 ] <= 18207.405273028202
c216: -172 x_18_ + 72 y_18_ + [ 1 x_18_ ^ 2 + 1 y_18_ ^ 2 ] <= 25642.87350022138
c217: -172 x_19_ + 72 y_19_ + [ 1 x_19_ ^ 2 + 1 y_19_ ^ 2 ] <= 7341.303872833934
c218: -172 x_20_ + 72 y_20_ + [ 1 x_20_ ^ 2 + 1 y_20_ ^ 2 ] <= 23601.42308572151
c219: -172 x_21_ + 72 y_21_ + [ 1 x_21_ ^ 2 + 1 y_21_ ^ 2 ] <= 28482.594709510486
c220: -172 x_22_ + 72 y_22_ + [ 1 x_22_ ^ 2 + 1 y_22_ ^ 2 ] <= 48393.63416176273
c221: -172 x_23_ + 72 y_23_ + [ 1 x_23_ ^ 2 + 1 y_23_ ^ 2 ] <= 7211.459999999999
c222: -172 x_25_ + 72 y_25_ + [ 1 x_25_ ^ 2 + 1 y_25_ ^ 2 ] <= 21132.289999999994
c223: -172 x_26_ + 72 y_26_ + [ 1 x_26_ ^ 2 + 1 y_26_ ^ 2 ] <= 28098.50345627099
c224: -172 x_27_ + 72 y_27_ + [ 1 x_27_ ^ 2 + 1 y_27_ ^ 2 ] <= 7413.196790085058
c225: -172 x_28_ + 72 y_28_ + [ 1 x_28_ ^ 2 + 1 y_28_ ^ 2 ] <= 41206.702576467855
c226: -172 x_29_ + 72 y_29_ + [ 1 x_29_ ^ 2 + 1 y_29_ ^ 2 ] <= 11127.61483933893
c227: -172 x_30_ + 72 y_30_ + [ 1 x_30_ ^ 2 + 1 y_30_ ^ 2 ] <= 41933.51916777328
c228: -172 x_31_ + 72 y_31_ + [ 1 x_31_ ^ 2 + 1 y_31_ ^ 2 ] <= 2762.8703046454357
c229: -172 x_32_ + 72 y_32_ + [ 1 x_32_ ^ 2 + 1 y_32_ ^ 2 ] <= -6422.473250655812
c230: -172 x_33_ + 72 y_33_ + [ 1 x_33_ ^ 2 + 1 y_33_ ^ 2 ] <= -4762.130619404907
c231: -172 x_34_ + 72 y_34_ + [ 1 x_34_ ^ 2 + 1 y_34_ ^ 2 ] <= -409.6867390665502
c232: -172 x_35_ + 72 y_35_ + [ 1 x_35_ ^ 2 + 1 y_35_ ^ 2 ] <= 6962.4199359703
c233: -172 x_36_ + 72 y_36_ + [ 1 x_36_ ^ 2 + 1 y_36_ ^ 2 ] <= 5453.049999999999
c234: -172 x_37_ + 72 y_37_ + [ 1 x_37_ ^ 2 + 1 y_37_ ^ 2 ] <= 12412.268517807679
c235: -172 x_38_ + 72 y_38_ + [ 1 x_38_ ^ 2 + 1 y_38_ ^ 2 ] <= -876.6200000000017
c236: -172 x_39_ + 72 y_39_ + [ 1 x_39_ ^ 2 + 1 y_39_ ^ 2 ] <= 25646.49725771071
c237: -172 x_40_ + 72 y_40_ + [ 1 x_40_ ^ 2 + 1 y_40_ ^ 2 ] <= 17108.364771337958
c238: -172 x_41_ + 72 y_41_ + [ 1 x_41_ ^ 2 + 1 y_41_ ^ 2 ] <= -4227.633980390872
c239: -172 x_42_ + 72 y_42_ + [ 1 x_42_ ^ 2 + 1 y_42_ ^ 2 ] <= 4723.168853155157
c240: -172 x_43_ + 72 y_43_ + [ 1 x_43_ ^ 2 + 1 y_43_ ^ 2 ] <= 9584.63653629199
c241: -172 x_44_ + 72 y_44_ + [ 1 x_44_ ^ 2 + 1 y_44_ ^ 2 ] <= 5194.81615056115
c242: -172 x_45_ + 72 y_45_ + [ 1 x_45_ ^ 2 + 1 y_45_ ^ 2 ] <= 40146.422465264615
c243: -172 x_46_ + 72 y_46_ + [ 1 x_46_ ^ 2 + 1 y_46_ ^ 2 ] <= 16877.348861646755
c244: -172 x_47_ + 72 y_47_ + [ 1 x_47_ ^ 2 + 1 y_47_ ^ 2 ] <= 30352.600745391952
c245: -172 x_48_ + 72 y_48_ + [ 1 x_48_ ^ 2 + 1 y_48_ ^ 2 ] <= 19009.335121564385
c246: -172 x_49_ + 72 y_49_ + [ 1 x_49_ ^ 2 + 1 y_49_ ^ 2 ] <= 9504.914052449487
c247: -172 x_50_ + 72 y_50_ + [ 1 x_50_ ^ 2 + 1 y_50_ ^ 2 ] <= 29499.372798264914
c248: -172 x_51_ + 72 y_51_ + [ 1 x_51_ ^ 2 + 1 y_51_ ^ 2 ] <= 34454.40017910907
c249: -172 x_52_ + 72 y_52_ + [ 1 x_52_ ^ 2 + 1 y_52_ ^ 2 ] <= 23001.411661929196
c250: -172 x_53_ + 72 y_53_ + [ 1 x_53_ ^ 2 + 1 y_53_ ^ 2 ] <= 30329.95838790788
c251: -172 x_54_ + 72 y_54_ + [ 1 x_54_ ^ 2 + 1 y_54_ ^ 2 ] <= 28768.832256036992
c252: -172 x_55_ + 72 y_55_ + [ 1 x_55_ ^ 2 + 1 y_55_ ^ 2 ] <= 42563.86539385797
c253: -172 x_56_ + 72 y_56_ + [ 1 x_56_ ^ 2 + 1 y_56_ ^ 2 ] <= 18158.84999999999
c254: -172 x_57_ + 72 y_57_ + [ 1 x_57_ ^ 2 + 1 y_57_ ^ 2 ] <= 22871.377926134144
c255: -172 x_58_ + 72 y_58_ + [ 1 x_58_ ^ 2 + 1 y_58_ ^ 2 ] <= 17740.795329984277
c256: -172 x_59_ + 72 y_59_ + [ 1 x_59_ ^ 2 + 1 y_59_ ^ 2 ] <= 24578.89470042292
c257: -172 x_60_ + 72 y_60_ + [ 1 x_60_ ^ 2 + 1 y_60_ ^ 2 ] <= 12781.707310313392
c258: -172 x_61_ + 72 y_61_ + [ 1 x_61_ ^ 2 + 1 y_61_ ^ 2 ] <= 8434.190564788067
c259: -172 x_62_ + 72 y_62_ + [ 1 x_62_ ^ 2 + 1 y_62_ ^ 2 ] <= -2856.04709850208
c260: -172 x_63_ + 72 y_63_ + [ 1 x_63_ ^ 2 + 1 y_63_ ^ 2 ] <= -6994.1900000000005
c261: -172 x_64_ + 72 y_64_ + [ 1 x_64_ ^ 2 + 1 y_64_ ^ 2 ] <= 8341.584787003518
c262: -172 x_65_ + 72 y_65_ + [ 1 x_65_ ^ 2 + 1 y_65_ ^ 2 ] <= 19952.132478161835
c263: -172 x_66_ + 72 y_66_ + [ 1 x_66_ ^ 2 + 1 y_66_ ^ 2 ] <= 44335.21087020932
c264: -172 x_67_ + 72 y_67_ + [ 1 x_67_ ^ 2 + 1 y_67_ ^ 2 ] <= 23455.76528522816
c265: -172 x_68_ + 72 y_68_ + [ 1 x_68_ ^ 2 + 1 y_68_ ^ 2 ] <= 5231.945175488843
c266: -172 x_69_ + 72 y_69_ + [ 1 x_69_ ^ 2 + 1 y_69_ ^ 2 ] <= -1115.9900000000016
c267: -172 x_70_ + 72 y_70_ + [ 1 x_70_ ^ 2 + 1 y_70_ ^ 2 ] <= 2976.407134174722
c268: -172 x_71_ + 72 y_71_ + [ 1 x_71_ ^ 2 + 1 y_71_ ^ 2 ] <= 21756.68393136775
c269: -172 x_72_ + 72 y_72_ + [ 1 x_72_ ^ 2 + 1 y_72_ ^ 2 ] <= 40906.41874568103
c270: -172 x_73_ + 72 y_73_ + [ 1 x_73_ ^ 2 + 1 y_73_ ^ 2 ] <= 4112.882640062233
c271: -172 x_74_ + 72 y_74_ + [ 1 x_74_ ^ 2 + 1 y_74_ ^ 2 ] <= 19615.775061798762
c272: -172 x_75_ + 72 y_75_ + [ 1 x_75_ ^ 2 + 1 y_75_ ^ 2 ] <= 14299.408833195237
c273: -172 x_76_ + 72 y_76_ + [ 1 x_76_ ^ 2 + 1 y_76_ ^ 2 ] <= 16771.37645595629
c274: -172 x_77_ + 72 y_77_ + [ 1 x_77_ ^ 2 + 1 y_77_ ^ 2 ] <= 25829.804272117894
c275: -172 x_78_ + 72 y_78_ + [ 1 x_78_ ^ 2 + 1 y_78_ ^ 2 ] <= 1047.9498307517551
c276: -172 x_79_ + 72 y_79_ + [ 1 x_79_ ^ 2 + 1 y_79_ ^ 2 ] <= 28029.8435144854
c277: -172 x_80_ + 72 y_80_ + [ 1 x_80_ ^ 2 + 1 y_80_ ^ 2 ] <= 9501.880099339443
c278: -172 x_81_ + 72 y_81_ + [ 1 x_81_ ^ 2 + 1 y_81_ ^ 2 ] <= 21199.774588923356
c279: -172 x_82_ + 72 y_82_ + [ 1 x_82_ ^ 2 + 1 y_82_ ^ 2 ] <= 21915.516931670925
c280: -172 x_83_ + 72 y_83_ + [ 1 x_83_ ^ 2 + 1 y_83_ ^ 2 ] <= 5535.194134848758
c281: -172 x_84_ + 72 y_84_ + [ 1 x_84_ ^ 2 + 1 y_84_ ^ 2 ] <= 26187.30280981039
c282: -172 x_85_ + 72 y_85_ + [ 1 x_85_ ^ 2 + 1 y_85_ ^ 2 ] <= 1041.9875302856453
c283: -172 x_86_ + 72 y_86_ + [ 1 x_86_ ^ 2 + 1 y_86_ ^ 2 ] <= 41164.115065876955
c284: -172 x_87_ + 72 y_87_ + [ 1 x_87_ ^ 2 + 1 y_87_ ^ 2 ] <= 10591.929999999997
c285: -172 x_88_ + 72 y_88_ + [ 1 x_88_ ^ 2 + 1 y_88_ ^ 2 ] <= 41742.62811462162
c286: -172 x_89_ + 72 y_89_ + [ 1 x_89_ ^ 2 + 1 y_89_ ^ 2 ] <= 6743.1791064045665
c287: -172 x_90_ + 72 y_90_ + [ 1 x_90_ ^ 2 + 1 y_90_ ^ 2 ] <= 15161.055794419222
c288: -172 x_91_ + 72 y_91_ + [ 1 x_91_ ^ 2 + 1 y_91_ ^ 2 ] <= 12017.193016509762
c289: -172 x_92_ + 72 y_92_ + [ 1 x_92_ ^ 2 + 1 y_92_ ^ 2 ] <= 38056.70274154721
c290: -172 x_93_ + 72 y_93_ + [ 1 x_93_ ^ 2 + 1 y_93_ ^ 2 ] <= 26000.25497152962
c291: -172 x_94_ + 72 y_94_ + [ 1 x_94_ ^ 2 + 1 y_94_ ^ 2 ] <= 27649.430128941494
c292: -172 x_95_ + 72 y_95_ + [ 1 x_95_ ^ 2 + 1 y_95_ ^ 2 ] <= 22234.92788253519
c293: -172 x_96_ + 72 y_96_ + [ 1 x_96_ ^ 2 + 1 y_96_ ^ 2 ] <= 23525.784602862295
c294: -172 x_97_ + 72 y_97_ + [ 1 x_97_ ^ 2 + 1 y_97_ ^ 2 ] <= 15649.895106734984
c295: -172 x_98_ + 72 y_98_ + [ 1 x_98_ ^ 2 + 1 y_98_ ^ 2 ] <= 14892.983472039083
c296: -172 x_99_ + 72 y_99_ + [ 1 x_99_ ^ 2 + 1 y_99_ ^ 2 ] <= 14840.304294805002
c297: -172 x_100_ + 72 y_100_ + [ 1 x_100_ ^ 2 + 1 y_100_ ^ 2 ] <= 6603.0908385893545
quadratic_ranged_1_ub: [ 1 x_1_ ^ 2 - 2 x_2_ * x_1_ + 1 x_2_ ^ 2 + 1 y_1_ ^ 2 - 2 y_2_ * y_1_ + 1 y_2_ ^ 2 ] <= 2159.38
quadratic_ranged_2_ub: [ 1 x_2_ ^ 2 - 2 x_3_ * x_2_ + 1 x_3_ ^ 2 + 1 y_2_ ^ 2 - 2 y_3_ * y_2_ + 1 y_3_ ^ 2 ] <= 19959.62
quadratic_ranged_3_ub: [ 1 x_1_ ^ 2 - 2 x_4_ * x_1_ + 1 x_4_ ^ 2 + 1 y_1_ ^ 2 - 2 y_4_ * y_1_ + 1 y_4_ ^ 2 ] <= 19078.9
quadratic_ranged_4_ub: [ 1 x_3_ ^ 2 - 2 x_4_ * x_3_ + 1 x_4_ ^ 2 + 1 y_3_ ^ 2 - 2 y_4_ * y_3_ + 1 y_4_ ^ 2 ] <= 2054.34
quadratic_ranged_5_ub: [ 1 x_3_ ^ 2 - 2 x_5_ * x_3_ + 1 x_5_ ^ 2 + 1 y_3_ ^ 2 - 2 y_5_ * y_3_ + 1 y_5_ ^ 2 ] <= 16043.85
quadratic_ranged_6_ub: [ 1 x_4_ ^ 2 - 2 x_5_ * x_4_ + 1 x_5_ ^ 2 + 1 y_4_ ^ 2 - 2 y_5_ * y_4_ + 1 y_5_ ^ 2 ] <= 17607.33
quadratic_ranged_7_ub: [ 1 x_4_ ^ 2 - 2 x_6_ * x_4_ + 1 x_6_ ^ 2 + 1 y_4_ ^ 2 - 2 y_6_ * y_4_ + 1 y_6_ ^ 2 ] <= 9780.84
quadratic_ranged_8_ub: [ 1 x_5_ ^ 2 - 2 x_6_ * x_5_ + 1 x_6_ ^ 2 + 1 y_5_ ^ 2 - 2 y_6_ * y_5_ + 1 y_6_ ^ 2 ] <= 4917.69
quadratic_ranged_9_ub: [ 1 x_1_ ^ 2 - 2 x_7_ * x_1_ + 1 x_7_ ^ 2 + 1 y_1_ ^ 2 - 2 y_7_ * y_1_ + 1 y_7_ ^ 2 ] <= 1949.3
quadratic_ranged_10_ub: [ 1 x_4_ ^ 2 - 2 x_7_ * x_4_ + 1 x_7_ ^ 2 + 1 y_4_ ^ 2 - 2 y_7_ * y_4_ + 1 y_7_ ^ 2 ] <= 8831.44
quadratic_ranged_11_ub: [ 1 x_6_ ^ 2 - 2 x_7_ * x_6_ + 1 x_7_ ^ 2 + 1 y_6_ ^ 2 - 2 y_7_ * y_6_ + 1 y_7_ ^ 2 ] <= 22127.08
quadratic_ranged_12_ub: [ 1 x_4_ ^ 2 - 2 x_8_ * x_4_ + 1 x_8_ ^ 2 + 1 y_4_ ^ 2 - 2 y_8_ * y_4_ + 1 y_8_ ^ 2 ] <= 24887.41
quadratic_ranged_13_ub: [ 1 x_7_ ^ 2 - 2 x_8_ * x_7_ + 1 x_8_ ^ 2 + 1 y_7_ ^ 2 - 2 y_8_ * y_7_ + 1 y_8_ ^ 2 ] <= 4424.81
quadratic_ranged_14_ub: [ 1 x_8_ ^ 2 - 2 x_9_ * x_8_ + 1 x_9_ ^ 2 + 1 y_8_ ^ 2 - 2 y_9_ * y_8_ + 1 y_9_ ^ 2 ] <= 29355.65
quadratic_ranged_15_ub: [ 1 x_9_ ^ 2 - 2 x_10_ * x_9_ + 1 x_10_ ^ 2 + 1 y_9_ ^ 2 - 2 y_10_ * y_9_ + 1 y_10_ ^ 2 ] <= 22110.920000000002
quadratic_ranged_16_ub: [ 1 x_2_ ^ 2 - 2 x_11_ * x_2_ + 1 x_11_ ^ 2 + 1 y_2_ ^ 2 - 2 y_11_ * y_2_ + 1 y_11_ ^ 2 ] <= 6267.05
quadratic_ranged_17_ub: [ 1 x_8_ ^ 2 - 2 x_11_ * x_8_ + 1 x_11_ ^ 2 + 1 y_8_ ^ 2 - 2 y_11_ * y_8_ + 1 y_11_ ^ 2 ] <= 21995.78
quadratic_ranged_18_ub: [ 1 x_10_ ^ 2 - 2 x_11_ * x_10_ + 1 x_11_ ^ 2 + 1 y_10_ ^ 2 - 2 y_11_ * y_10_ + 1 y_11_ ^ 2 ] <= 20180.81
quadratic_ranged_19_ub: [ 1 x_11_ ^ 2 - 2 x_12_ * x_11_ + 1 x_12_ ^ 2 + 1 y_11_ ^ 2 - 2 y_12_ * y_11_ + 1 y_12_ ^ 2 ] <= 14302.61
quadratic_ranged_20_ub: [ 1 x_12_ ^ 2 - 2 x_13_ * x_12_ + 1 x_13_ ^ 2 + 1 y_12_ ^ 2 - 2 y_13_ * y_12_ + 1 y_13_ ^ 2 ] <= 11152.42
quadratic_ranged_21_ub: [ 1 x_13_ ^ 2 - 2 x_14_ * x_13_ + 1 x_14_ ^ 2 + 1 y_13_ ^ 2 - 2 y_14_ * y_13_ + 1 y_14_ ^ 2 ] <= 35537.86
quadratic_ranged_22_ub: [ 1 x_8_ ^ 2 - 2 x_15_ * x_8_ + 1 x_15_ ^ 2 + 1 y_8_ ^ 2 - 2 y_15_ * y_8_ + 1 y_15_ ^ 2 ] <= 4449.05
quadratic_ranged_23_ub: [ 1 x_14_ ^ 2 - 2 x_15_ * x_14_ + 1 x_15_ ^ 2 + 1 y_14_ ^ 2 - 2 y_15_ * y_14_ + 1 y_15_ ^ 2 ] <= 7179.08
quadratic_ranged_24_ub: [ 1 x_12_ ^ 2 - 2 x_16_ * x_12_ + 1 x_16_ ^ 2 + 1 y_12_ ^ 2 - 2 y_16_ * y_12_ + 1 y_16_ ^ 2 ] <= 10100
quadratic_ranged_25_ub: [ 1 x_15_ ^ 2 - 2 x_16_ * x_15_ + 1 x_16_ ^ 2 + 1 y_15_ ^ 2 - 2 y_16_ * y_15_ + 1 y_16_ ^ 2 ] <= 2949.2
quadratic_ranged_26_ub: [ 1 x_8_ ^ 2 - 2 x_17_ * x_8_ + 1 x_17_ ^ 2 + 1 y_8_ ^ 2 - 2 y_17_ * y_8_ + 1 y_17_ ^ 2 ] <= 30891.86
quadratic_ranged_27_ub: [ 1 x_10_ ^ 2 - 2 x_17_ * x_10_ + 1 x_17_ ^ 2 + 1 y_10_ ^ 2 - 2 y_17_ * y_10_ + 1 y_17_ ^ 2 ] <= 14023.85
quadratic_ranged_28_ub: [ 1 x_16_ ^ 2 - 2 x_17_ * x_16_ + 1 x_17_ ^ 2 + 1 y_16_ ^ 2 - 2 y_17_ * y_16_ + 1 y_17_ ^ 2 ] <= 26935.69
quadratic_ranged_29_ub: [ 1 x_4_ ^ 2 - 2 x_18_ * x_4_ + 1 x_18_ ^ 2 + 1 y_4_ ^ 2 - 2 y_18_ * y_4_ + 1 y_18_ ^ 2 ] <= 9780.84
quadratic_ranged_30_ub: [ 1 x_15_ ^ 2 - 2 x_18_ * x_15_ + 1 x_18_ ^ 2 + 1 y_15_ ^ 2 - 2 y_18_ * y_15_ + 1 y_18_ ^ 2 ] <= 234.32
quadratic_ranged_31_ub: [ 1 x_17_ ^ 2 - 2 x_18_ * x_17_ + 1 x_18_ ^ 2 + 1 y_17_ ^ 2 - 2 y_18_ * y_17_ + 1 y_18_ ^ 2 ] <= 14815.69
quadratic_ranged_32_ub: [ 1 x_4_ ^ 2 - 2 x_19_ * x_4_ + 1 x_19_ ^ 2 + 1 y_4_ ^ 2 - 2 y_19_ * y_4_ + 1 y_19_ ^ 2 ] <= 6048.89
quadratic_ranged_33_ub: [ 1 x_17_ ^ 2 - 2 x_19_ * x_17_ + 1 x_19_ ^ 2 + 1 y_17_ ^ 2 - 2 y_19_ * y_17_ + 1 y_19_ ^ 2 ] <= 1397.84
quadratic_ranged_34_ub: [ 1 x_18_ ^ 2 - 2 x_19_ * x_18_ + 1 x_19_ ^ 2 + 1 y_18_ ^ 2 - 2 y_19_ * y_18_ + 1 y_19_ ^ 2 ] <= 8800.13
quadratic_ranged_35_ub: [ 1 x_1_ ^ 2 - 2 x_20_ * x_1_ + 1 x_20_ ^ 2 + 1 y_1_ ^ 2 - 2 y_20_ * y_1_ + 1 y_20_ ^ 2 ] <= 5192.41
quadratic_ranged_36_ub: [ 1 x_14_ ^ 2 - 2 x_20_ * x_14_ + 1 x_20_ ^ 2 + 1 y_14_ ^ 2 - 2 y_20_ * y_14_ + 1 y_20_ ^ 2 ] <= 4222.81
quadratic_ranged_37_ub: [ 1 x_19_ ^ 2 - 2 x_20_ * x_19_ + 1 x_20_ ^ 2 + 1 y_19_ ^ 2 - 2 y_20_ * y_19_ + 1 y_20_ ^ 2 ] <= 9348.56
quadratic_ranged_38_ub: [ 1 x_3_ ^ 2 - 2 x_21_ * x_3_ + 1 x_21_ ^ 2 + 1 y_3_ ^ 2 - 2 y_21_ * y_3_ + 1 y_21_ ^ 2 ] <= 10985.77
quadratic_ranged_39_ub: [ 1 x_5_ ^ 2 - 2 x_21_ * x_5_ + 1 x_21_ ^ 2 + 1 y_5_ ^ 2 - 2 y_21_ * y_5_ + 1 y_21_ ^ 2 ] <= 21024.16
quadratic_ranged_40_ub: [ 1 x_16_ ^ 2 - 2 x_21_ * x_16_ + 1 x_21_ ^ 2 + 1 y_16_ ^ 2 - 2 y_21_ * y_16_ + 1 y_21_ ^ 2 ] <= 2780.53
quadratic_ranged_41_ub: [ 1 x_20_ ^ 2 - 2 x_21_ * x_20_ + 1 x_21_ ^ 2 + 1 y_20_ ^ 2 - 2 y_21_ * y_20_ + 1 y_21_ ^ 2 ] <= 171.7
quadratic_ranged_42_ub: [ 1 x_14_ ^ 2 - 2 x_22_ * x_14_ + 1 x_22_ ^ 2 + 1 y_14_ ^ 2 - 2 y_22_ * y_14_ + 1 y_22_ ^ 2 ] <= 20160.61
quadratic_ranged_43_ub: [ 1 x_21_ ^ 2 - 2 x_22_ * x_21_ + 1 x_22_ ^ 2 + 1 y_21_ ^ 2 - 2 y_22_ * y_21_ + 1 y_22_ ^ 2 ] <= 11249.38
quadratic_ranged_44_ub: [ 1 x_13_ ^ 2 - 2 x_23_ * x_13_ + 1 x_23_ ^ 2 + 1 y_13_ ^ 2 - 2 y_23_ * y_13_ + 1 y_23_ ^ 2 ] <= 1652.3600000000001
quadratic_ranged_45_ub: [ 1 x_19_ ^ 2 - 2 x_23_ * x_19_ + 1 x_23_ ^ 2 + 1 y_19_ ^ 2 - 2 y_23_ * y_19_ + 1 y_23_ ^ 2 ] <= 5325.7300000000005
quadratic_ranged_46_ub: [ 1 x_22_ ^ 2 - 2 x_23_ * x_22_ + 1 x_23_ ^ 2 + 1 y_22_ ^ 2 - 2 y_23_ * y_22_ + 1 y_23_ ^ 2 ] <= 19918.21
quadratic_ranged_47_ub: [ 1 x_6_ ^ 2 - 2 x_24_ * x_6_ + 1 x_24_ ^ 2 + 1 y_6_ ^ 2 - 2 y_24_ * y_6_ + 1 y_24_ ^ 2 ] <= 2363.4
quadratic_ranged_48_ub: [ 1 x_23_ ^ 2 - 2 x_24_ * x_23_ + 1 x_24_ ^ 2 + 1 y_23_ ^ 2 - 2 y_24_ * y_23_ + 1 y_24_ ^ 2 ] <= 15903.460000000001
quadratic_ranged_49_ub: [ 1 x_4_ ^ 2 - 2 x_25_ * x_4_ + 1 x_25_ ^ 2 + 1 y_4_ ^ 2 - 2 y_25_ * y_4_ + 1 y_25_ ^ 2 ] <= 10044.45
quadratic_ranged_50_ub: [ 1 x_6_ ^ 2 - 2 x_25_ * x_6_ + 1 x_25_ ^ 2 + 1 y_6_ ^ 2 - 2 y_25_ * y_6_ + 1 y_25_ ^ 2 ] <= 38841.57
quadratic_ranged_51_ub: [ 1 x_22_ ^ 2 - 2 x_25_ * x_22_ + 1 x_25_ ^ 2 + 1 y_22_ ^ 2 - 2 y_25_ * y_22_ + 1 y_25_ ^ 2 ] <= 26704.4
quadratic_ranged_52_ub: [ 1 x_24_ ^ 2 - 2 x_25_ * x_24_ + 1 x_25_ ^ 2 + 1 y_24_ ^ 2 - 2 y_25_ * y_24_ + 1 y_25_ ^ 2 ] <= 29824.29
quadratic_ranged_53_ub: [ 1 x_9_ ^ 2 - 2 x_26_ * x_9_ + 1 x_26_ ^ 2 + 1 y_9_ ^ 2 - 2 y_26_ * y_9_ + 1 y_26_ ^ 2 ] <= 13366.34
quadratic_ranged_54_ub: [ 1 x_17_ ^ 2 - 2 x_26_ * x_17_ + 1 x_26_ ^ 2 + 1 y_17_ ^ 2 - 2 y_26_ * y_17_ + 1 y_26_ ^ 2 ] <= 16072.130000000001
quadratic_ranged_55_ub: [ 1 x_21_ ^ 2 - 2 x_26_ * x_21_ + 1 x_26_ ^ 2 + 1 y_21_ ^ 2 - 2 y_26_ * y_21_ + 1 y_26_ ^ 2 ] <= 2190.69
quadratic_ranged_56_ub: [ 1 x_25_ ^ 2 - 2 x_26_ * x_25_ + 1 x_26_ ^ 2 + 1 y_25_ ^ 2 - 2 y_26_ * y_25_ + 1 y_26_ ^ 2 ] <= 11555.41
quadratic_ranged_57_ub: [ 1 x_15_ ^ 2 - 2 x_27_ * x_15_ + 1 x_27_ ^ 2 + 1 y_15_ ^ 2 - 2 y_27_ * y_15_ + 1 y_27_ ^ 2 ] <= 11761.45
quadratic_ranged_58_ub: [ 1 x_21_ ^ 2 - 2 x_27_ * x_21_ + 1 x_27_ ^ 2 + 1 y_21_ ^ 2 - 2 y_27_ * y_21_ + 1 y_27_ ^ 2 ] <= 6918.5
quadratic_ranged_59_ub: [ 1 x_26_ ^ 2 - 2 x_27_ * x_26_ + 1 x_27_ ^ 2 + 1 y_26_ ^ 2 - 2 y_27_ * y_26_ + 1 y_27_ ^ 2 ] <= 12617.93
quadratic_ranged_60_ub: [ 1 x_3_ ^ 2 - 2 x_28_ * x_3_ + 1 x_28_ ^ 2 + 1 y_3_ ^ 2 - 2 y_28_ * y_3_ + 1 y_28_ ^ 2 ] <= 32842.17
quadratic_ranged_61_ub: [ 1 x_5_ ^ 2 - 2 x_28_ * x_5_ + 1 x_28_ ^ 2 + 1 y_5_ ^ 2 - 2 y_28_ * y_5_ + 1 y_28_ ^ 2 ] <= 17598.24
quadratic_ranged_62_ub: [ 1 x_12_ ^ 2 - 2 x_28_ * x_12_ + 1 x_28_ ^ 2 + 1 y_12_ ^ 2 - 2 y_28_ * y_12_ + 1 y_28_ ^ 2 ] <= 14569.25
quadratic_ranged_63_ub: [ 1 x_27_ ^ 2 - 2 x_28_ * x_27_ + 1 x_28_ ^ 2 + 1 y_27_ ^ 2 - 2 y_28_ * y_27_ + 1 y_28_ ^ 2 ] <= 25825.7
quadratic_ranged_64_ub: [ 1 x_5_ ^ 2 - 2 x_29_ * x_5_ + 1 x_29_ ^ 2 + 1 y_5_ ^ 2 - 2 y_29_ * y_5_ + 1 y_29_ ^ 2 ] <= 485.81
quadratic_ranged_65_ub: [ 1 x_18_ ^ 2 - 2 x_29_ * x_18_ + 1 x_29_ ^ 2 + 1 y_18_ ^ 2 - 2 y_29_ * y_18_ + 1 y_29_ ^ 2 ] <= 10530.26
quadratic_ranged_66_ub: [ 1 x_28_ ^ 2 - 2 x_29_ * x_28_ + 1 x_29_ ^ 2 + 1 y_28_ ^ 2 - 2 y_29_ * y_28_ + 1 y_29_ ^ 2 ] <= 15684.29
quadratic_ranged_67_ub: [ 1 x_8_ ^ 2 - 2 x_30_ * x_8_ + 1 x_30_ ^ 2 + 1 y_8_ ^ 2 - 2 y_30_ * y_8_ + 1 y_30_ ^ 2 ] <= 24152.13
quadratic_ranged_68_ub: [ 1 x_15_ ^ 2 - 2 x_30_ * x_15_ + 1 x_30_ ^ 2 + 1 y_15_ ^ 2 - 2 y_30_ * y_15_ + 1 y_30_ ^ 2 ] <= 8378.960000000001
quadratic_ranged_69_ub: [ 1 x_29_ ^ 2 - 2 x_30_ * x_29_ + 1 x_30_ ^ 2 + 1 y_29_ ^ 2 - 2 y_30_ * y_29_ + 1 y_30_ ^ 2 ] <= 25171.22
quadratic_ranged_70_ub: [ 1 x_1_ ^ 2 - 2 x_31_ * x_1_ + 1 x_31_ ^ 2 + 1 y_1_ ^ 2 - 2 y_31_ * y_1_ + 1 y_31_ ^ 2 ] <= 35497.46
quadratic_ranged_71_ub: [ 1 x_20_ ^ 2 - 2 x_31_ * x_20_ + 1 x_31_ ^ 2 + 1 y_20_ ^ 2 - 2 y_31_ * y_20_ + 1 y_31_ ^ 2 ] <= 15470.17
quadratic_ranged_72_ub: [ 1 x_30_ ^ 2 - 2 x_31_ * x_30_ + 1 x_31_ ^ 2 + 1 y_30_ ^ 2 - 2 y_31_ * y_30_ + 1 y_31_ ^ 2 ] <= 13917.8
quadratic_ranged_73_ub: [ 1 x_1_ ^ 2 - 2 x_32_ * x_1_ + 1 x_32_ ^ 2 + 1 y_1_ ^ 2 - 2 y_32_ * y_1_ + 1 y_32_ ^ 2 ] <= 37315.46
quadratic_ranged_74_ub: [ 1 x_20_ ^ 2 - 2 x_32_ * x_20_ + 1 x_32_ ^ 2 + 1 y_20_ ^ 2 - 2 y_32_ * y_20_ + 1 y_32_ ^ 2 ] <= 21057.49
quadratic_ranged_75_ub: [ 1 x_27_ ^ 2 - 2 x_32_ * x_27_ + 1 x_32_ ^ 2 + 1 y_27_ ^ 2 - 2 y_32_ * y_27_ + 1 y_32_ ^ 2 ] <= 6283.21
quadratic_ranged_76_ub: [ 1 x_31_ ^ 2 - 2 x_32_ * x_31_ + 1 x_32_ ^ 2 + 1 y_31_ ^ 2 - 2 y_32_ * y_31_ + 1 y_32_ ^ 2 ] <= 3526.92
quadratic_ranged_77_ub: [ 1 x_11_ ^ 2 - 2 x_33_ * x_11_ + 1 x_33_ ^ 2 + 1 y_11_ ^ 2 - 2 y_33_ * y_11_ + 1 y_33_ ^ 2 ] <= 35759.05
quadratic_ranged_78_ub: [ 1 x_32_ ^ 2 - 2 x_33_ * x_32_ + 1 x_33_ ^ 2 + 1 y_32_ ^ 2 - 2 y_33_ * y_32_ + 1 y_33_ ^ 2 ] <= 747.4
quadratic_ranged_79_ub: [ 1 x_2_ ^ 2 - 2 x_34_ * x_2_ + 1 x_34_ ^ 2 + 1 y_2_ ^ 2 - 2 y_34_ * y_2_ + 1 y_34_ ^ 2 ] <= 18497.14
quadratic_ranged_80_ub: [ 1 x_28_ ^ 2 - 2 x_34_ * x_28_ + 1 x_34_ ^ 2 + 1 y_28_ ^ 2 - 2 y_34_ * y_28_ + 1 y_34_ ^ 2 ] <= 27432.61
quadratic_ranged_81_ub: [ 1 x_33_ ^ 2 - 2 x_34_ * x_33_ + 1 x_34_ ^ 2 + 1 y_33_ ^ 2 - 2 y_34_ * y_33_ + 1 y_34_ ^ 2 ] <= 801.94
quadratic_ranged_82_ub: [ 1 x_27_ ^ 2 - 2 x_35_ * x_27_ + 1 x_35_ ^ 2 + 1 y_27_ ^ 2 - 2 y_35_ * y_27_ + 1 y_35_ ^ 2 ] <= 3834.9700000000003
quadratic_ranged_83_ub: [ 1 x_28_ ^ 2 - 2 x_35_ * x_28_ + 1 x_35_ ^ 2 + 1 y_28_ ^ 2 - 2 y_35_ * y_28_ + 1 y_35_ ^ 2 ] <= 30099.010000000002
quadratic_ranged_84_ub: [ 1 x_34_ ^ 2 - 2 x_35_ * x_34_ + 1 x_35_ ^ 2 + 1 y_34_ ^ 2 - 2 y_35_ * y_34_ + 1 y_35_ ^ 2 ] <= 1163.52
quadratic_ranged_85_ub: [ 1 x_13_ ^ 2 - 2 x_36_ * x_13_ + 1 x_36_ ^ 2 + 1 y_13_ ^ 2 - 2 y_36_ * y_13_ + 1 y_36_ ^ 2 ] <= 1782.65
quadratic_ranged_86_ub: [ 1 x_15_ ^ 2 - 2 x_36_ * x_15_ + 1 x_36_ ^ 2 + 1 y_15_ ^ 2 - 2 y_36_ * y_15_ + 1 y_36_ ^ 2 ] <= 21206.97
quadratic_ranged_87_ub: [ 1 x_24_ ^ 2 - 2 x_36_ * x_24_ + 1 x_36_ ^ 2 + 1 y_24_ ^ 2 - 2 y_36_ * y_24_ + 1 y_36_ ^ 2 ] <= 14145.05
quadratic_ranged_88_ub: [ 1 x_35_ ^ 2 - 2 x_36_ * x_35_ + 1 x_36_ ^ 2 + 1 y_35_ ^ 2 - 2 y_36_ * y_35_ + 1 y_36_ ^ 2 ] <= 7022.53
quadratic_ranged_89_ub: [ 1 x_10_ ^ 2 - 2 x_37_ * x_10_ + 1 x_37_ ^ 2 + 1 y_10_ ^ 2 - 2 y_37_ * y_10_ + 1 y_37_ ^ 2 ] <= 810.02
quadratic_ranged_90_ub: [ 1 x_36_ ^ 2 - 2 x_37_ * x_36_ + 1 x_37_ ^ 2 + 1 y_36_ ^ 2 - 2 y_37_ * y_36_ + 1 y_37_ ^ 2 ] <= 8145.65
quadratic_ranged_91_ub: [ 1 x_1_ ^ 2 - 2 x_38_ * x_1_ + 1 x_38_ ^ 2 + 1 y_1_ ^ 2 - 2 y_38_ * y_1_ + 1 y_38_ ^ 2 ] <= 14208.68
quadratic_ranged_92_ub: [ 1 x_3_ ^ 2 - 2 x_38_ * x_3_ + 1 x_38_ ^ 2 + 1 y_3_ ^ 2 - 2 y_38_ * y_3_ + 1 y_38_ ^ 2 ] <= 7700.24
quadratic_ranged_93_ub: [ 1 x_16_ ^ 2 - 2 x_38_ * x_16_ + 1 x_38_ ^ 2 + 1 y_16_ ^ 2 - 2 y_38_ * y_16_ + 1 y_38_ ^ 2 ] <= 17705.3
quadratic_ranged_94_ub: [ 1 x_24_ ^ 2 - 2 x_38_ * x_24_ + 1 x_38_ ^ 2 + 1 y_24_ ^ 2 - 2 y_38_ * y_24_ + 1 y_38_ ^ 2 ] <= 7815.38
quadratic_ranged_95_ub: [ 1 x_37_ ^ 2 - 2 x_38_ * x_37_ + 1 x_38_ ^ 2 + 1 y_37_ ^ 2 - 2 y_38_ * y_37_ + 1 y_38_ ^ 2 ] <= 3234.02
quadratic_ranged_96_ub: [ 1 x_4_ ^ 2 - 2 x_39_ * x_4_ + 1 x_39_ ^ 2 + 1 y_4_ ^ 2 - 2 y_39_ * y_4_ + 1 y_39_ ^ 2 ] <= 14448.05
quadratic_ranged_97_ub: [ 1 x_6_ ^ 2 - 2 x_39_ * x_6_ + 1 x_39_ ^ 2 + 1 y_6_ ^ 2 - 2 y_39_ * y_6_ + 1 y_39_ ^ 2 ] <= 26325.65
quadratic_ranged_98_ub: [ 1 x_19_ ^ 2 - 2 x_39_ * x_19_ + 1 x_39_ ^ 2 + 1 y_19_ ^ 2 - 2 y_39_ * y_19_ + 1 y_39_ ^ 2 ] <= 13453.2
quadratic_ranged_99_ub: [ 1 x_34_ ^ 2 - 2 x_39_ * x_34_ + 1 x_39_ ^ 2 + 1 y_34_ ^ 2 - 2 y_39_ * y_34_ + 1 y_39_ ^ 2 ] <= 20815.09
quadratic_ranged_100_ub: [ 1 x_38_ ^ 2 - 2 x_39_ * x_38_ + 1 x_39_ ^ 2 + 1 y_38_ ^ 2 - 2 y_39_ * y_38_ + 1 y_39_ ^ 2 ] <= 9389.97
quadratic_ranged_101_ub: [ 1 x_4_ ^ 2 - 2 x_40_ * x_4_ + 1 x_40_ ^ 2 + 1 y_4_ ^ 2 - 2 y_40_ * y_4_ + 1 y_40_ ^ 2 ] <= 1338.25
quadratic_ranged_102_ub: [ 1 x_7_ ^ 2 - 2 x_40_ * x_7_ + 1 x_40_ ^ 2 + 1 y_7_ ^ 2 - 2 y_40_ * y_7_ + 1 y_40_ ^ 2 ] <= 4073.33
quadratic_ranged_103_ub: [ 1 x_9_ ^ 2 - 2 x_40_ * x_9_ + 1 x_40_ ^ 2 + 1 y_9_ ^ 2 - 2 y_40_ * y_9_ + 1 y_40_ ^ 2 ] <= 10024.25
quadratic_ranged_104_ub: [ 1 x_26_ ^ 2 - 2 x_40_ * x_26_ + 1 x_40_ ^ 2 + 1 y_26_ ^ 2 - 2 y_40_ * y_26_ + 1 y_40_ ^ 2 ] <= 4222.81
quadratic_ranged_105_ub: [ 1 x_39_ ^ 2 - 2 x_40_ * x_39_ + 1 x_40_ ^ 2 + 1 y_39_ ^ 2 - 2 y_40_ * y_39_ + 1 y_40_ ^ 2 ] <= 7615.4
quadratic_ranged_106_ub: [ 1 x_2_ ^ 2 - 2 x_41_ * x_2_ + 1 x_41_ ^ 2 + 1 y_2_ ^ 2 - 2 y_41_ * y_2_ + 1 y_41_ ^ 2 ] <= 27867.920000000002
quadratic_ranged_107_ub: [ 1 x_6_ ^ 2 - 2 x_41_ * x_6_ + 1 x_41_ ^ 2 + 1 y_6_ ^ 2 - 2 y_41_ * y_6_ + 1 y_41_ ^ 2 ] <= 331.28000000000003
quadratic_ranged_108_ub: [ 1 x_8_ ^ 2 - 2 x_41_ * x_8_ + 1 x_41_ ^ 2 + 1 y_8_ ^ 2 - 2 y_41_ * y_8_ + 1 y_41_ ^ 2 ] <= 39027.41
quadratic_ranged_109_ub: [ 1 x_9_ ^ 2 - 2 x_41_ * x_9_ + 1 x_41_ ^ 2 + 1 y_9_ ^ 2 - 2 y_41_ * y_9_ + 1 y_41_ ^ 2 ] <= 31029.22
quadratic_ranged_110_ub: [ 1 x_34_ ^ 2 - 2 x_41_ * x_34_ + 1 x_41_ ^ 2 + 1 y_34_ ^ 2 - 2 y_41_ * y_34_ + 1 y_41_ ^ 2 ] <= 1464.5
quadratic_ranged_111_ub: [ 1 x_40_ ^ 2 - 2 x_41_ * x_40_ + 1 x_41_ ^ 2 + 1 y_40_ ^ 2 - 2 y_41_ * y_40_ + 1 y_41_ ^ 2 ] <= 8800.13
quadratic_ranged_112_ub: [ 1 x_9_ ^ 2 - 2 x_42_ * x_9_ + 1 x_42_ ^ 2 + 1 y_9_ ^ 2 - 2 y_42_ * y_9_ + 1 y_42_ ^ 2 ] <= 37915.4
quadratic_ranged_113_ub: [ 1 x_36_ ^ 2 - 2 x_42_ * x_36_ + 1 x_42_ ^ 2 + 1 y_36_ ^ 2 - 2 y_42_ * y_36_ + 1 y_42_ ^ 2 ] <= 1713.97
quadratic_ranged_114_ub: [ 1 x_41_ ^ 2 - 2 x_42_ * x_41_ + 1 x_42_ ^ 2 + 1 y_41_ ^ 2 - 2 y_42_ * y_41_ + 1 y_42_ ^ 2 ] <= 2401.78
quadratic_ranged_115_ub: [ 1 x_5_ ^ 2 - 2 x_43_ * x_5_ + 1 x_43_ ^ 2 + 1 y_5_ ^ 2 - 2 y_43_ * y_5_ + 1 y_43_ ^ 2 ] <= 11588.74
quadratic_ranged_116_ub: [ 1 x_9_ ^ 2 - 2 x_43_ * x_9_ + 1 x_43_ ^ 2 + 1 y_9_ ^ 2 - 2 y_43_ * y_9_ + 1 y_43_ ^ 2 ] <= 17134.65
quadratic_ranged_117_ub: [ 1 x_16_ ^ 2 - 2 x_43_ * x_16_ + 1 x_43_ ^ 2 + 1 y_16_ ^ 2 - 2 y_43_ * y_16_ + 1 y_43_ ^ 2 ] <= 23226.97
quadratic_ranged_118_ub: [ 1 x_20_ ^ 2 - 2 x_43_ * x_20_ + 1 x_43_ ^ 2 + 1 y_20_ ^ 2 - 2 y_43_ * y_20_ + 1 y_43_ ^ 2 ] <= 10504
quadratic_ranged_119_ub: [ 1 x_22_ ^ 2 - 2 x_43_ * x_22_ + 1 x_43_ ^ 2 + 1 y_22_ ^ 2 - 2 y_43_ * y_22_ + 1 y_43_ ^ 2 ] <= 27253.84
quadratic_ranged_120_ub: [ 1 x_42_ ^ 2 - 2 x_43_ * x_42_ + 1 x_43_ ^ 2 + 1 y_42_ ^ 2 - 2 y_43_ * y_42_ + 1 y_43_ ^ 2 ] <= 5964.05
quadratic_ranged_121_ub: [ 1 x_6_ ^ 2 - 2 x_44_ * x_6_ + 1 x_44_ ^ 2 + 1 y_6_ ^ 2 - 2 y_44_ * y_6_ + 1 y_44_ ^ 2 ] <= 4792.45
quadratic_ranged_122_ub: [ 1 x_13_ ^ 2 - 2 x_44_ * x_13_ + 1 x_44_ ^ 2 + 1 y_13_ ^ 2 - 2 y_44_ * y_13_ + 1 y_44_ ^ 2 ] <= 18229.49
quadratic_ranged_123_ub: [ 1 x_16_ ^ 2 - 2 x_44_ * x_16_ + 1 x_44_ ^ 2 + 1 y_16_ ^ 2 - 2 y_44_ * y_16_ + 1 y_44_ ^ 2 ] <= 24923.77
quadratic_ranged_124_ub: [ 1 x_18_ ^ 2 - 2 x_44_ * x_18_ + 1 x_44_ ^ 2 + 1 y_18_ ^ 2 - 2 y_44_ * y_18_ + 1 y_44_ ^ 2 ] <= 17651.77
quadratic_ranged_125_ub: [ 1 x_26_ ^ 2 - 2 x_44_ * x_26_ + 1 x_44_ ^ 2 + 1 y_26_ ^ 2 - 2 y_44_ * y_26_ + 1 y_44_ ^ 2 ] <= 17934.57
quadratic_ranged_126_ub: [ 1 x_29_ ^ 2 - 2 x_44_ * x_29_ + 1 x_44_ ^ 2 + 1 y_29_ ^ 2 - 2 y_44_ * y_29_ + 1 y_44_ ^ 2 ] <= 10973.65
quadratic_ranged_127_ub: [ 1 x_43_ ^ 2 - 2 x_44_ * x_43_ + 1 x_44_ ^ 2 + 1 y_43_ ^ 2 - 2 y_44_ * y_43_ + 1 y_44_ ^ 2 ] <= 300.98
quadratic_ranged_128_ub: [ 1 x_14_ ^ 2 - 2 x_45_ * x_14_ + 1 x_45_ ^ 2 + 1 y_14_ ^ 2 - 2 y_45_ * y_14_ + 1 y_45_ ^ 2 ] <= 19490.98
quadratic_ranged_129_ub: [ 1 x_20_ ^ 2 - 2 x_45_ * x_20_ + 1 x_45_ ^ 2 + 1 y_20_ ^ 2 - 2 y_45_ * y_20_ + 1 y_45_ ^ 2 ] <= 7971.93
quadratic_ranged_130_ub: [ 1 x_27_ ^ 2 - 2 x_45_ * x_27_ + 1 x_45_ ^ 2 + 1 y_27_ ^ 2 - 2 y_45_ * y_27_ + 1 y_45_ ^ 2 ] <= 23925.89
quadratic_ranged_131_ub: [ 1 x_39_ ^ 2 - 2 x_45_ * x_39_ + 1 x_45_ ^ 2 + 1 y_39_ ^ 2 - 2 y_45_ * y_39_ + 1 y_45_ ^ 2 ] <= 1273.61
quadratic_ranged_132_ub: [ 1 x_44_ ^ 2 - 2 x_45_ * x_44_ + 1 x_45_ ^ 2 + 1 y_44_ ^ 2 - 2 y_45_ * y_44_ + 1 y_45_ ^ 2 ] <= 30317.170000000002
quadratic_ranged_133_ub: [ 1 x_2_ ^ 2 - 2 x_46_ * x_2_ + 1 x_46_ ^ 2 + 1 y_2_ ^ 2 - 2 y_46_ * y_2_ + 1 y_46_ ^ 2 ] <= 31144.36
quadratic_ranged_134_ub: [ 1 x_9_ ^ 2 - 2 x_46_ * x_9_ + 1 x_46_ ^ 2 + 1 y_9_ ^ 2 - 2 y_46_ * y_9_ + 1 y_46_ ^ 2 ] <= 26892.260000000002
quadratic_ranged_135_ub: [ 1 x_10_ ^ 2 - 2 x_46_ * x_10_ + 1 x_46_ ^ 2 + 1 y_10_ ^ 2 - 2 y_46_ * y_10_ + 1 y_46_ ^ 2 ] <= 26447.86
quadratic_ranged_136_ub: [ 1 x_37_ ^ 2 - 2 x_46_ * x_37_ + 1 x_46_ ^ 2 + 1 y_37_ ^ 2 - 2 y_46_ * y_37_ + 1 y_46_ ^ 2 ] <= 25346.96
quadratic_ranged_137_ub: [ 1 x_45_ ^ 2 - 2 x_46_ * x_45_ + 1 x_46_ ^ 2 + 1 y_45_ ^ 2 - 2 y_46_ * y_45_ + 1 y_46_ ^ 2 ] <= 39836.42
quadratic_ranged_138_ub: [ 1 x_4_ ^ 2 - 2 x_47_ * x_4_ + 1 x_47_ ^ 2 + 1 y_4_ ^ 2 - 2 y_47_ * y_4_ + 1 y_47_ ^ 2 ] <= 6570.05
quadratic_ranged_139_ub: [ 1 x_6_ ^ 2 - 2 x_47_ * x_6_ + 1 x_47_ ^ 2 + 1 y_6_ ^ 2 - 2 y_47_ * y_6_ + 1 y_47_ ^ 2 ] <= 25574.21
quadratic_ranged_140_ub: [ 1 x_13_ ^ 2 - 2 x_47_ * x_13_ + 1 x_47_ ^ 2 + 1 y_13_ ^ 2 - 2 y_47_ * y_13_ + 1 y_47_ ^ 2 ] <= 21263.53
quadratic_ranged_141_ub: [ 1 x_28_ ^ 2 - 2 x_47_ * x_28_ + 1 x_47_ ^ 2 + 1 y_28_ ^ 2 - 2 y_47_ * y_28_ + 1 y_47_ ^ 2 ] <= 9948.5
quadratic_ranged_142_ub: [ 1 x_43_ ^ 2 - 2 x_47_ * x_43_ + 1 x_47_ ^ 2 + 1 y_43_ ^ 2 - 2 y_47_ * y_43_ + 1 y_47_ ^ 2 ] <= 14608.64
quadratic_ranged_143_ub: [ 1 x_46_ ^ 2 - 2 x_47_ * x_46_ + 1 x_47_ ^ 2 + 1 y_46_ ^ 2 - 2 y_47_ * y_46_ + 1 y_47_ ^ 2 ] <= 26584.21
quadratic_ranged_144_ub: [ 1 x_17_ ^ 2 - 2 x_48_ * x_17_ + 1 x_48_ ^ 2 + 1 y_17_ ^ 2 - 2 y_48_ * y_17_ + 1 y_48_ ^ 2 ] <= 4824.77
quadratic_ranged_145_ub: [ 1 x_47_ ^ 2 - 2 x_48_ * x_47_ + 1 x_48_ ^ 2 + 1 y_47_ ^ 2 - 2 y_48_ * y_47_ + 1 y_48_ ^ 2 ] <= 4154.13
quadratic_ranged_146_ub: [ 1 x_5_ ^ 2 - 2 x_49_ * x_5_ + 1 x_49_ ^ 2 + 1 y_5_ ^ 2 - 2 y_49_ * y_5_ + 1 y_49_ ^ 2 ] <= 6328.66
quadratic_ranged_147_ub: [ 1 x_9_ ^ 2 - 2 x_49_ * x_9_ + 1 x_49_ ^ 2 + 1 y_9_ ^ 2 - 2 y_49_ * y_9_ + 1 y_49_ ^ 2 ] <= 17025.57
quadratic_ranged_148_ub: [ 1 x_15_ ^ 2 - 2 x_49_ * x_15_ + 1 x_49_ ^ 2 + 1 y_15_ ^ 2 - 2 y_49_ * y_15_ + 1 y_49_ ^ 2 ] <= 6448.85
quadratic_ranged_149_ub: [ 1 x_26_ ^ 2 - 2 x_49_ * x_26_ + 1 x_49_ ^ 2 + 1 y_26_ ^ 2 - 2 y_49_ * y_26_ + 1 y_49_ ^ 2 ] <= 6885.17
quadratic_ranged_150_ub: [ 1 x_27_ ^ 2 - 2 x_49_ * x_27_ + 1 x_49_ ^ 2 + 1 y_27_ ^ 2 - 2 y_49_ * y_27_ + 1 y_49_ ^ 2 ] <= 2282.6
quadratic_ranged_151_ub: [ 1 x_29_ ^ 2 - 2 x_49_ * x_29_ + 1 x_49_ ^ 2 + 1 y_29_ ^ 2 - 2 y_49_ * y_29_ + 1 y_49_ ^ 2 ] <= 3309.77
quadratic_ranged_152_ub: [ 1 x_36_ ^ 2 - 2 x_49_ * x_36_ + 1 x_49_ ^ 2 + 1 y_36_ ^ 2 - 2 y_49_ * y_36_ + 1 y_49_ ^ 2 ] <= 8669.84
quadratic_ranged_153_ub: [ 1 x_41_ ^ 2 - 2 x_49_ * x_41_ + 1 x_49_ ^ 2 + 1 y_41_ ^ 2 - 2 y_49_ * y_41_ + 1 y_49_ ^ 2 ] <= 4634.89
quadratic_ranged_154_ub: [ 1 x_48_ ^ 2 - 2 x_49_ * x_48_ + 1 x_49_ ^ 2 + 1 y_48_ ^ 2 - 2 y_49_ * y_48_ + 1 y_49_ ^ 2 ] <= 994.85
quadratic_ranged_155_ub: [ 1 x_21_ ^ 2 - 2 x_50_ * x_21_ + 1 x_50_ ^ 2 + 1 y_21_ ^ 2 - 2 y_50_ * y_21_ + 1 y_50_ ^ 2 ] <= 3192.61
quadratic_ranged_156_ub: [ 1 x_28_ ^ 2 - 2 x_50_ * x_28_ + 1 x_50_ ^ 2 + 1 y_28_ ^ 2 - 2 y_50_ * y_28_ + 1 y_50_ ^ 2 ] <= 2489.65
quadratic_ranged_157_ub: [ 1 x_36_ ^ 2 - 2 x_50_ * x_36_ + 1 x_50_ ^ 2 + 1 y_36_ ^ 2 - 2 y_50_ * y_36_ + 1 y_50_ ^ 2 ] <= 18156.77
quadratic_ranged_158_ub: [ 1 x_49_ ^ 2 - 2 x_50_ * x_49_ + 1 x_50_ ^ 2 + 1 y_49_ ^ 2 - 2 y_50_ * y_49_ + 1 y_50_ ^ 2 ] <= 6267.05
quadratic_ranged_159_ub: [ 1 x_2_ ^ 2 - 2 x_51_ * x_2_ + 1 x_51_ ^ 2 + 1 y_2_ ^ 2 - 2 y_51_ * y_2_ + 1 y_51_ ^ 2 ] <= 3338.05
quadratic_ranged_160_ub: [ 1 x_3_ ^ 2 - 2 x_51_ * x_3_ + 1 x_51_ ^ 2 + 1 y_3_ ^ 2 - 2 y_51_ * y_3_ + 1 y_51_ ^ 2 ] <= 25626.73
quadratic_ranged_161_ub: [ 1 x_7_ ^ 2 - 2 x_51_ * x_7_ + 1 x_51_ ^ 2 + 1 y_7_ ^ 2 - 2 y_51_ * y_7_ + 1 y_51_ ^ 2 ] <= 1790.73
quadratic_ranged_162_ub: [ 1 x_16_ ^ 2 - 2 x_51_ * x_16_ + 1 x_51_ ^ 2 + 1 y_16_ ^ 2 - 2 y_51_ * y_16_ + 1 y_51_ ^ 2 ] <= 6768.01
quadratic_ranged_163_ub: [ 1 x_17_ ^ 2 - 2 x_51_ * x_17_ + 1 x_51_ ^ 2 + 1 y_17_ ^ 2 - 2 y_51_ * y_17_ + 1 y_51_ ^ 2 ] <= 20684.8
quadratic_ranged_164_ub: [ 1 x_28_ ^ 2 - 2 x_51_ * x_28_ + 1 x_51_ ^ 2 + 1 y_28_ ^ 2 - 2 y_51_ * y_28_ + 1 y_51_ ^ 2 ] <= 486.82
quadratic_ranged_165_ub: [ 1 x_29_ ^ 2 - 2 x_51_ * x_29_ + 1 x_51_ ^ 2 + 1 y_29_ ^ 2 - 2 y_51_ * y_29_ + 1 y_51_ ^ 2 ] <= 12670.45
quadratic_ranged_166_ub: [ 1 x_33_ ^ 2 - 2 x_51_ * x_33_ + 1 x_51_ ^ 2 + 1 y_33_ ^ 2 - 2 y_51_ * y_33_ + 1 y_51_ ^ 2 ] <= 21033.25
quadratic_ranged_167_ub: [ 1 x_50_ ^ 2 - 2 x_51_ * x_50_ + 1 x_51_ ^ 2 + 1 y_50_ ^ 2 - 2 y_51_ * y_50_ + 1 y_51_ ^ 2 ] <= 776.69
quadratic_ranged_168_ub: [ 1 x_1_ ^ 2 - 2 x_52_ * x_1_ + 1 x_52_ ^ 2 + 1 y_1_ ^ 2 - 2 y_52_ * y_1_ + 1 y_52_ ^ 2 ] <= 2271.4900000000002
quadratic_ranged_169_ub: [ 1 x_16_ ^ 2 - 2 x_52_ * x_16_ + 1 x_52_ ^ 2 + 1 y_16_ ^ 2 - 2 y_52_ * y_16_ + 1 y_52_ ^ 2 ] <= 2065.45
quadratic_ranged_170_ub: [ 1 x_44_ ^ 2 - 2 x_52_ * x_44_ + 1 x_52_ ^ 2 + 1 y_44_ ^ 2 - 2 y_52_ * y_44_ + 1 y_52_ ^ 2 ] <= 17107.38
quadratic_ranged_171_ub: [ 1 x_51_ ^ 2 - 2 x_52_ * x_51_ + 1 x_52_ ^ 2 + 1 y_51_ ^ 2 - 2 y_52_ * y_51_ + 1 y_52_ ^ 2 ] <= 2331.08
quadratic_ranged_172_ub: [ 1 x_21_ ^ 2 - 2 x_53_ * x_21_ + 1 x_53_ ^ 2 + 1 y_21_ ^ 2 - 2 y_53_ * y_21_ + 1 y_53_ ^ 2 ] <= 1956.3700000000001
quadratic_ranged_173_ub: [ 1 x_52_ ^ 2 - 2 x_53_ * x_52_ + 1 x_53_ ^ 2 + 1 y_52_ ^ 2 - 2 y_53_ * y_52_ + 1 y_53_ ^ 2 ] <= 380.77
quadratic_ranged_174_ub: [ 1 x_5_ ^ 2 - 2 x_54_ * x_5_ + 1 x_54_ ^ 2 + 1 y_5_ ^ 2 - 2 y_54_ * y_5_ + 1 y_54_ ^ 2 ] <= 16871.04
quadratic_ranged_175_ub: [ 1 x_7_ ^ 2 - 2 x_54_ * x_7_ + 1 x_54_ ^ 2 + 1 y_7_ ^ 2 - 2 y_54_ * y_7_ + 1 y_54_ ^ 2 ] <= 8464.81
quadratic_ranged_176_ub: [ 1 x_10_ ^ 2 - 2 x_54_ * x_10_ + 1 x_54_ ^ 2 + 1 y_10_ ^ 2 - 2 y_54_ * y_10_ + 1 y_54_ ^ 2 ] <= 11539.25
quadratic_ranged_177_ub: [ 1 x_11_ ^ 2 - 2 x_54_ * x_11_ + 1 x_54_ ^ 2 + 1 y_11_ ^ 2 - 2 y_54_ * y_11_ + 1 y_54_ ^ 2 ] <= 13746.1
quadratic_ranged_178_ub: [ 1 x_29_ ^ 2 - 2 x_54_ * x_29_ + 1 x_54_ ^ 2 + 1 y_29_ ^ 2 - 2 y_54_ * y_29_ + 1 y_54_ ^ 2 ] <= 11636.210000000001
quadratic_ranged_179_ub: [ 1 x_42_ ^ 2 - 2 x_54_ * x_42_ + 1 x_54_ ^ 2 + 1 y_42_ ^ 2 - 2 y_54_ * y_42_ + 1 y_54_ ^ 2 ] <= 12003.85
quadratic_ranged_180_ub: [ 1 x_47_ ^ 2 - 2 x_54_ * x_47_ + 1 x_54_ ^ 2 + 1 y_47_ ^ 2 - 2 y_54_ * y_47_ + 1 y_54_ ^ 2 ] <= 6433.7
quadratic_ranged_181_ub: [ 1 x_53_ ^ 2 - 2 x_54_ * x_53_ + 1 x_54_ ^ 2 + 1 y_53_ ^ 2 - 2 y_54_ * y_53_ + 1 y_54_ ^ 2 ] <= 7192.21
quadratic_ranged_182_ub: [ 1 x_2_ ^ 2 - 2 x_55_ * x_2_ + 1 x_55_ ^ 2 + 1 y_2_ ^ 2 - 2 y_55_ * y_2_ + 1 y_55_ ^ 2 ] <= 7469.96
quadratic_ranged_183_ub: [ 1 x_10_ ^ 2 - 2 x_55_ * x_10_ + 1 x_55_ ^ 2 + 1 y_10_ ^ 2 - 2 y_55_ * y_10_ + 1 y_55_ ^ 2 ] <= 2773.46
quadratic_ranged_184_ub: [ 1 x_18_ ^ 2 - 2 x_55_ * x_18_ + 1 x_55_ ^ 2 + 1 y_18_ ^ 2 - 2 y_55_ * y_18_ + 1 y_55_ ^ 2 ] <= 3850.12
quadratic_ranged_185_ub: [ 1 x_27_ ^ 2 - 2 x_55_ * x_27_ + 1 x_55_ ^ 2 + 1 y_27_ ^ 2 - 2 y_55_ * y_27_ + 1 y_55_ ^ 2 ] <= 28992.05
quadratic_ranged_186_ub: [ 1 x_32_ ^ 2 - 2 x_55_ * x_32_ + 1 x_55_ ^ 2 + 1 y_32_ ^ 2 - 2 y_55_ * y_32_ + 1 y_55_ ^ 2 ] <= 36024.68
quadratic_ranged_187_ub: [ 1 x_45_ ^ 2 - 2 x_55_ * x_45_ + 1 x_55_ ^ 2 + 1 y_45_ ^ 2 - 2 y_55_ * y_45_ + 1 y_55_ ^ 2 ] <= 244.42000000000002
quadratic_ranged_188_ub: [ 1 x_52_ ^ 2 - 2 x_55_ * x_52_ + 1 x_55_ ^ 2 + 1 y_52_ ^ 2 - 2 y_55_ * y_52_ + 1 y_55_ ^ 2 ] <= 6372.09
quadratic_ranged_189_ub: [ 1 x_54_ ^ 2 - 2 x_55_ * x_54_ + 1 x_55_ ^ 2 + 1 y_54_ ^ 2 - 2 y_55_ * y_54_ + 1 y_55_ ^ 2 ] <= 24802.57
quadratic_ranged_190_ub: [ 1 x_5_ ^ 2 - 2 x_56_ * x_5_ + 1 x_56_ ^ 2 + 1 y_5_ ^ 2 - 2 y_56_ * y_5_ + 1 y_56_ ^ 2 ] <= 19278.88
quadratic_ranged_191_ub: [ 1 x_9_ ^ 2 - 2 x_56_ * x_9_ + 1 x_56_ ^ 2 + 1 y_9_ ^ 2 - 2 y_56_ * y_9_ + 1 y_56_ ^ 2 ] <= 14145.05
quadratic_ranged_192_ub: [ 1 x_17_ ^ 2 - 2 x_56_ * x_17_ + 1 x_56_ ^ 2 + 1 y_17_ ^ 2 - 2 y_56_ * y_17_ + 1 y_56_ ^ 2 ] <= 19377.86
quadratic_ranged_193_ub: [ 1 x_24_ ^ 2 - 2 x_56_ * x_24_ + 1 x_56_ ^ 2 + 1 y_24_ ^ 2 - 2 y_56_ * y_24_ + 1 y_56_ ^ 2 ] <= 26850.85
quadratic_ranged_194_ub: [ 1 x_29_ ^ 2 - 2 x_56_ * x_29_ + 1 x_56_ ^ 2 + 1 y_29_ ^ 2 - 2 y_56_ * y_29_ + 1 y_56_ ^ 2 ] <= 15336.85
quadratic_ranged_195_ub: [ 1 x_48_ ^ 2 - 2 x_56_ * x_48_ + 1 x_56_ ^ 2 + 1 y_48_ ^ 2 - 2 y_56_ * y_48_ + 1 y_56_ ^ 2 ] <= 5636.81
quadratic_ranged_196_ub: [ 1 x_52_ ^ 2 - 2 x_56_ * x_52_ + 1 x_56_ ^ 2 + 1 y_52_ ^ 2 - 2 y_56_ * y_52_ + 1 y_56_ ^ 2 ] <= 309.06
quadratic_ranged_197_ub: [ 1 x_55_ ^ 2 - 2 x_56_ * x_55_ + 1 x_56_ ^ 2 + 1 y_55_ ^ 2 - 2 y_56_ * y_55_ + 1 y_56_ ^ 2 ] <= 4045.05
quadratic_ranged_198_ub: [ 1 x_2_ ^ 2 - 2 x_57_ * x_2_ + 1 x_57_ ^ 2 + 1 y_2_ ^ 2 - 2 y_57_ * y_2_ + 1 y_57_ ^ 2 ] <= 8282
quadratic_ranged_199_ub: [ 1 x_5_ ^ 2 - 2 x_57_ * x_5_ + 1 x_57_ ^ 2 + 1 y_5_ ^ 2 - 2 y_57_ * y_5_ + 1 y_57_ ^ 2 ] <= 25315.65
quadratic_ranged_200_ub: [ 1 x_6_ ^ 2 - 2 x_57_ * x_6_ + 1 x_57_ ^ 2 + 1 y_6_ ^ 2 - 2 y_57_ * y_6_ + 1 y_57_ ^ 2 ] <= 16652.88
quadratic_ranged_201_ub: [ 1 x_12_ ^ 2 - 2 x_57_ * x_12_ + 1 x_57_ ^ 2 + 1 y_12_ ^ 2 - 2 y_57_ * y_12_ + 1 y_57_ ^ 2 ] <= 2585.6
quadratic_ranged_202_ub: [ 1 x_14_ ^ 2 - 2 x_57_ * x_14_ + 1 x_57_ ^ 2 + 1 y_14_ ^ 2 - 2 y_57_ * y_14_ + 1 y_57_ ^ 2 ] <= 5546.92
quadratic_ranged_203_ub: [ 1 x_38_ ^ 2 - 2 x_57_ * x_38_ + 1 x_57_ ^ 2 + 1 y_38_ ^ 2 - 2 y_57_ * y_38_ + 1 y_57_ ^ 2 ] <= 11039.3
quadratic_ranged_204_ub: [ 1 x_42_ ^ 2 - 2 x_57_ * x_42_ + 1 x_57_ ^ 2 + 1 y_42_ ^ 2 - 2 y_57_ * y_42_ + 1 y_57_ ^ 2 ] <= 19927.3
quadratic_ranged_205_ub: [ 1 x_51_ ^ 2 - 2 x_57_ * x_51_ + 1 x_57_ ^ 2 + 1 y_51_ ^ 2 - 2 y_57_ * y_51_ + 1 y_57_ ^ 2 ] <= 17457.85
quadratic_ranged_206_ub: [ 1 x_53_ ^ 2 - 2 x_57_ * x_53_ + 1 x_57_ ^ 2 + 1 y_53_ ^ 2 - 2 y_57_ * y_53_ + 1 y_57_ ^ 2 ] <= 8267.86
quadratic_ranged_207_ub: [ 1 x_56_ ^ 2 - 2 x_57_ * x_56_ + 1 x_57_ ^ 2 + 1 y_56_ ^ 2 - 2 y_57_ * y_56_ + 1 y_57_ ^ 2 ] <= 11167.57
quadratic_ranged_208_ub: [ 1 x_8_ ^ 2 - 2 x_58_ * x_8_ + 1 x_58_ ^ 2 + 1 y_8_ ^ 2 - 2 y_58_ * y_8_ + 1 y_58_ ^ 2 ] <= 13552.18
quadratic_ranged_209_ub: [ 1 x_11_ ^ 2 - 2 x_58_ * x_11_ + 1 x_58_ ^ 2 + 1 y_11_ ^ 2 - 2 y_58_ * y_11_ + 1 y_58_ ^ 2 ] <= 6354.92
quadratic_ranged_210_ub: [ 1 x_16_ ^ 2 - 2 x_58_ * x_16_ + 1 x_58_ ^ 2 + 1 y_16_ ^ 2 - 2 y_58_ * y_16_ + 1 y_58_ ^ 2 ] <= 3903.65
quadratic_ranged_211_ub: [ 1 x_17_ ^ 2 - 2 x_58_ * x_17_ + 1 x_58_ ^ 2 + 1 y_17_ ^ 2 - 2 y_58_ * y_17_ + 1 y_58_ ^ 2 ] <= 10996.88
quadratic_ranged_212_ub: [ 1 x_34_ ^ 2 - 2 x_58_ * x_34_ + 1 x_58_ ^ 2 + 1 y_34_ ^ 2 - 2 y_58_ * y_34_ + 1 y_58_ ^ 2 ] <= 8949.61
quadratic_ranged_213_ub: [ 1 x_38_ ^ 2 - 2 x_58_ * x_38_ + 1 x_58_ ^ 2 + 1 y_38_ ^ 2 - 2 y_58_ * y_38_ + 1 y_58_ ^ 2 ] <= 7640.65
quadratic_ranged_214_ub: [ 1 x_57_ ^ 2 - 2 x_58_ * x_57_ + 1 x_58_ ^ 2 + 1 y_57_ ^ 2 - 2 y_58_ * y_57_ + 1 y_58_ ^ 2 ] <= 1843.25
quadratic_ranged_215_ub: [ 1 x_3_ ^ 2 - 2 x_59_ * x_3_ + 1 x_59_ ^ 2 + 1 y_3_ ^ 2 - 2 y_59_ * y_3_ + 1 y_59_ ^ 2 ] <= 6807.4
quadratic_ranged_216_ub: [ 1 x_21_ ^ 2 - 2 x_59_ * x_21_ + 1 x_59_ ^ 2 + 1 y_21_ ^ 2 - 2 y_59_ * y_21_ + 1 y_59_ ^ 2 ] <= 853.45
quadratic_ranged_217_ub: [ 1 x_22_ ^ 2 - 2 x_59_ * x_22_ + 1 x_59_ ^ 2 + 1 y_22_ ^ 2 - 2 y_59_ * y_22_ + 1 y_59_ ^ 2 ] <= 17562.89
quadratic_ranged_218_ub: [ 1 x_28_ ^ 2 - 2 x_59_ * x_28_ + 1 x_59_ ^ 2 + 1 y_28_ ^ 2 - 2 y_59_ * y_28_ + 1 y_59_ ^ 2 ] <= 17263.93
quadratic_ranged_219_ub: [ 1 x_35_ ^ 2 - 2 x_59_ * x_35_ + 1 x_59_ ^ 2 + 1 y_35_ ^ 2 - 2 y_59_ * y_35_ + 1 y_59_ ^ 2 ] <= 13917.8
quadratic_ranged_220_ub: [ 1 x_49_ ^ 2 - 2 x_59_ * x_49_ + 1 x_59_ ^ 2 + 1 y_49_ ^ 2 - 2 y_59_ * y_49_ + 1 y_59_ ^ 2 ] <= 5152.01
quadratic_ranged_221_ub: [ 1 x_58_ ^ 2 - 2 x_59_ * x_58_ + 1 x_59_ ^ 2 + 1 y_58_ ^ 2 - 2 y_59_ * y_58_ + 1 y_59_ ^ 2 ] <= 392.89
quadratic_ranged_222_ub: [ 1 x_8_ ^ 2 - 2 x_60_ * x_8_ + 1 x_60_ ^ 2 + 1 y_8_ ^ 2 - 2 y_60_ * y_8_ + 1 y_60_ ^ 2 ] <= 30135.37
quadratic_ranged_223_ub: [ 1 x_14_ ^ 2 - 2 x_60_ * x_14_ + 1 x_60_ ^ 2 + 1 y_14_ ^ 2 - 2 y_60_ * y_14_ + 1 y_60_ ^ 2 ] <= 18281
quadratic_ranged_224_ub: [ 1 x_18_ ^ 2 - 2 x_60_ * x_18_ + 1 x_60_ ^ 2 + 1 y_18_ ^ 2 - 2 y_60_ * y_18_ + 1 y_60_ ^ 2 ] <= 13323.92
quadratic_ranged_225_ub: [ 1 x_20_ ^ 2 - 2 x_60_ * x_20_ + 1 x_60_ ^ 2 + 1 y_20_ ^ 2 - 2 y_60_ * y_20_ + 1 y_60_ ^ 2 ] <= 8945.57
quadratic_ranged_226_ub: [ 1 x_21_ ^ 2 - 2 x_60_ * x_21_ + 1 x_60_ ^ 2 + 1 y_21_ ^ 2 - 2 y_60_ * y_21_ + 1 y_60_ ^ 2 ] <= 8303.210000000001
quadratic_ranged_227_ub: [ 1 x_45_ ^ 2 - 2 x_60_ * x_45_ + 1 x_60_ ^ 2 + 1 y_45_ ^ 2 - 2 y_60_ * y_45_ + 1 y_60_ ^ 2 ] <= 24444.02
quadratic_ranged_228_ub: [ 1 x_47_ ^ 2 - 2 x_60_ * x_47_ + 1 x_60_ ^ 2 + 1 y_47_ ^ 2 - 2 y_60_ * y_47_ + 1 y_60_ ^ 2 ] <= 12589.65
quadratic_ranged_229_ub: [ 1 x_48_ ^ 2 - 2 x_60_ * x_48_ + 1 x_60_ ^ 2 + 1 y_48_ ^ 2 - 2 y_60_ * y_48_ + 1 y_60_ ^ 2 ] <= 2908.8
quadratic_ranged_230_ub: [ 1 x_50_ ^ 2 - 2 x_60_ * x_50_ + 1 x_60_ ^ 2 + 1 y_50_ ^ 2 - 2 y_60_ * y_50_ + 1 y_60_ ^ 2 ] <= 13649.14
quadratic_ranged_231_ub: [ 1 x_58_ ^ 2 - 2 x_60_ * x_58_ + 1 x_60_ ^ 2 + 1 y_58_ ^ 2 - 2 y_60_ * y_58_ + 1 y_60_ ^ 2 ] <= 6662.97
quadratic_ranged_232_ub: [ 1 x_59_ ^ 2 - 2 x_60_ * x_59_ + 1 x_60_ ^ 2 + 1 y_59_ ^ 2 - 2 y_60_ * y_59_ + 1 y_60_ ^ 2 ] <= 5213.62
quadratic_ranged_233_ub: [ 1 x_51_ ^ 2 - 2 x_61_ * x_51_ + 1 x_61_ ^ 2 + 1 y_51_ ^ 2 - 2 y_61_ * y_51_ + 1 y_61_ ^ 2 ] <= 18180
quadratic_ranged_234_ub: [ 1 x_54_ ^ 2 - 2 x_61_ * x_54_ + 1 x_61_ ^ 2 + 1 y_54_ ^ 2 - 2 y_61_ * y_54_ + 1 y_61_ ^ 2 ] <= 3928.9
quadratic_ranged_235_ub: [ 1 x_60_ ^ 2 - 2 x_61_ * x_60_ + 1 x_61_ ^ 2 + 1 y_60_ ^ 2 - 2 y_61_ * y_60_ + 1 y_61_ ^ 2 ] <= 1204.93
quadratic_ranged_236_ub: [ 1 x_18_ ^ 2 - 2 x_62_ * x_18_ + 1 x_62_ ^ 2 + 1 y_18_ ^ 2 - 2 y_62_ * y_18_ + 1 y_62_ ^ 2 ] <= 19877.81
quadratic_ranged_237_ub: [ 1 x_19_ ^ 2 - 2 x_62_ * x_19_ + 1 x_62_ ^ 2 + 1 y_19_ ^ 2 - 2 y_62_ * y_19_ + 1 y_62_ ^ 2 ] <= 2522.98
quadratic_ranged_238_ub: [ 1 x_26_ ^ 2 - 2 x_62_ * x_26_ + 1 x_62_ ^ 2 + 1 y_26_ ^ 2 - 2 y_62_ * y_26_ + 1 y_62_ ^ 2 ] <= 22487.65
quadratic_ranged_239_ub: [ 1 x_45_ ^ 2 - 2 x_62_ * x_45_ + 1 x_62_ ^ 2 + 1 y_45_ ^ 2 - 2 y_62_ * y_45_ + 1 y_62_ ^ 2 ] <= 25574.21
quadratic_ranged_240_ub: [ 1 x_46_ ^ 2 - 2 x_62_ * x_46_ + 1 x_62_ ^ 2 + 1 y_46_ ^ 2 - 2 y_62_ * y_46_ + 1 y_62_ ^ 2 ] <= 6974.05
quadratic_ranged_241_ub: [ 1 x_55_ ^ 2 - 2 x_62_ * x_55_ + 1 x_62_ ^ 2 + 1 y_55_ ^ 2 - 2 y_62_ * y_55_ + 1 y_62_ ^ 2 ] <= 30062.65
quadratic_ranged_242_ub: [ 1 x_61_ ^ 2 - 2 x_62_ * x_61_ + 1 x_62_ ^ 2 + 1 y_61_ ^ 2 - 2 y_62_ * y_61_ + 1 y_62_ ^ 2 ] <= 2967.38
quadratic_ranged_243_ub: [ 1 x_2_ ^ 2 - 2 x_63_ * x_2_ + 1 x_63_ ^ 2 + 1 y_2_ ^ 2 - 2 y_63_ * y_2_ + 1 y_63_ ^ 2 ] <= 28184.05
quadratic_ranged_244_ub: [ 1 x_18_ ^ 2 - 2 x_63_ * x_18_ + 1 x_63_ ^ 2 + 1 y_18_ ^ 2 - 2 y_63_ * y_18_ + 1 y_63_ ^ 2 ] <= 20762.57
quadratic_ranged_245_ub: [ 1 x_24_ ^ 2 - 2 x_63_ * x_24_ + 1 x_63_ ^ 2 + 1 y_24_ ^ 2 - 2 y_63_ * y_24_ + 1 y_63_ ^ 2 ] <= 1697.81
quadratic_ranged_246_ub: [ 1 x_26_ ^ 2 - 2 x_63_ * x_26_ + 1 x_63_ ^ 2 + 1 y_26_ ^ 2 - 2 y_63_ * y_26_ + 1 y_63_ ^ 2 ] <= 22681.57
quadratic_ranged_247_ub: [ 1 x_32_ ^ 2 - 2 x_63_ * x_32_ + 1 x_63_ ^ 2 + 1 y_32_ ^ 2 - 2 y_63_ * y_32_ + 1 y_63_ ^ 2 ] <= 41.410000000000004
quadratic_ranged_248_ub: [ 1 x_33_ ^ 2 - 2 x_63_ * x_33_ + 1 x_63_ ^ 2 + 1 y_33_ ^ 2 - 2 y_63_ * y_33_ + 1 y_63_ ^ 2 ] <= 461.57
quadratic_ranged_249_ub: [ 1 x_47_ ^ 2 - 2 x_63_ * x_47_ + 1 x_63_ ^ 2 + 1 y_47_ ^ 2 - 2 y_63_ * y_47_ + 1 y_63_ ^ 2 ] <= 26005.48
quadratic_ranged_250_ub: [ 1 x_62_ ^ 2 - 2 x_63_ * x_62_ + 1 x_63_ ^ 2 + 1 y_62_ ^ 2 - 2 y_63_ * y_62_ + 1 y_63_ ^ 2 ] <= 1238.26
quadratic_ranged_251_ub: [ 1 x_23_ ^ 2 - 2 x_64_ * x_23_ + 1 x_64_ ^ 2 + 1 y_23_ ^ 2 - 2 y_64_ * y_23_ + 1 y_64_ ^ 2 ] <= 28928.420000000002
quadratic_ranged_252_ub: [ 1 x_35_ ^ 2 - 2 x_64_ * x_35_ + 1 x_64_ ^ 2 + 1 y_35_ ^ 2 - 2 y_64_ * y_35_ + 1 y_64_ ^ 2 ] <= 6668.02
quadratic_ranged_253_ub: [ 1 x_37_ ^ 2 - 2 x_64_ * x_37_ + 1 x_64_ ^ 2 + 1 y_37_ ^ 2 - 2 y_64_ * y_37_ + 1 y_64_ ^ 2 ] <= 28869.84
quadratic_ranged_254_ub: [ 1 x_41_ ^ 2 - 2 x_64_ * x_41_ + 1 x_64_ ^ 2 + 1 y_41_ ^ 2 - 2 y_64_ * y_41_ + 1 y_64_ ^ 2 ] <= 6322.6
quadratic_ranged_255_ub: [ 1 x_44_ ^ 2 - 2 x_64_ * x_44_ + 1 x_64_ ^ 2 + 1 y_44_ ^ 2 - 2 y_64_ * y_44_ + 1 y_64_ ^ 2 ] <= 1006.97
quadratic_ranged_256_ub: [ 1 x_55_ ^ 2 - 2 x_64_ * x_55_ + 1 x_64_ ^ 2 + 1 y_55_ ^ 2 - 2 y_64_ * y_55_ + 1 y_64_ ^ 2 ] <= 47066
quadratic_ranged_257_ub: [ 1 x_60_ ^ 2 - 2 x_64_ * x_60_ + 1 x_64_ ^ 2 + 1 y_60_ ^ 2 - 2 y_64_ * y_60_ + 1 y_64_ ^ 2 ] <= 2282.6
quadratic_ranged_258_ub: [ 1 x_63_ ^ 2 - 2 x_64_ * x_63_ + 1 x_64_ ^ 2 + 1 y_63_ ^ 2 - 2 y_64_ * y_63_ + 1 y_64_ ^ 2 ] <= 7975.97
quadratic_ranged_259_ub: [ 1 x_4_ ^ 2 - 2 x_65_ * x_4_ + 1 x_65_ ^ 2 + 1 y_4_ ^ 2 - 2 y_65_ * y_4_ + 1 y_65_ ^ 2 ] <= 20770.65
quadratic_ranged_260_ub: [ 1 x_5_ ^ 2 - 2 x_65_ * x_5_ + 1 x_65_ ^ 2 + 1 y_5_ ^ 2 - 2 y_65_ * y_5_ + 1 y_65_ ^ 2 ] <= 7871.9400000000005
quadratic_ranged_261_ub: [ 1 x_9_ ^ 2 - 2 x_65_ * x_9_ + 1 x_65_ ^ 2 + 1 y_9_ ^ 2 - 2 y_65_ * y_9_ + 1 y_65_ ^ 2 ] <= 35601.49
quadratic_ranged_262_ub: [ 1 x_10_ ^ 2 - 2 x_65_ * x_10_ + 1 x_65_ ^ 2 + 1 y_10_ ^ 2 - 2 y_65_ * y_10_ + 1 y_65_ ^ 2 ] <= 1600.85
quadratic_ranged_263_ub: [ 1 x_11_ ^ 2 - 2 x_65_ * x_11_ + 1 x_65_ ^ 2 + 1 y_11_ ^ 2 - 2 y_65_ * y_11_ + 1 y_65_ ^ 2 ] <= 32695.72
quadratic_ranged_264_ub: [ 1 x_13_ ^ 2 - 2 x_65_ * x_13_ + 1 x_65_ ^ 2 + 1 y_13_ ^ 2 - 2 y_65_ * y_13_ + 1 y_65_ ^ 2 ] <= 3685.4900000000002
quadratic_ranged_265_ub: [ 1 x_35_ ^ 2 - 2 x_65_ * x_35_ + 1 x_65_ ^ 2 + 1 y_35_ ^ 2 - 2 y_65_ * y_35_ + 1 y_65_ ^ 2 ] <= 20584.81
quadratic_ranged_266_ub: [ 1 x_37_ ^ 2 - 2 x_65_ * x_37_ + 1 x_65_ ^ 2 + 1 y_37_ ^ 2 - 2 y_65_ * y_37_ + 1 y_65_ ^ 2 ] <= 574.69
quadratic_ranged_267_ub: [ 1 x_40_ ^ 2 - 2 x_65_ * x_40_ + 1 x_65_ ^ 2 + 1 y_40_ ^ 2 - 2 y_65_ * y_40_ + 1 y_65_ ^ 2 ] <= 11606.92
quadratic_ranged_268_ub: [ 1 x_46_ ^ 2 - 2 x_65_ * x_46_ + 1 x_65_ ^ 2 + 1 y_46_ ^ 2 - 2 y_65_ * y_46_ + 1 y_65_ ^ 2 ] <= 33415.85
quadratic_ranged_269_ub: [ 1 x_47_ ^ 2 - 2 x_65_ * x_47_ + 1 x_65_ ^ 2 + 1 y_47_ ^ 2 - 2 y_65_ * y_47_ + 1 y_65_ ^ 2 ] <= 14584.4
quadratic_ranged_270_ub: [ 1 x_51_ ^ 2 - 2 x_65_ * x_51_ + 1 x_65_ ^ 2 + 1 y_51_ ^ 2 - 2 y_65_ * y_51_ + 1 y_65_ ^ 2 ] <= 2335.12
quadratic_ranged_271_ub: [ 1 x_52_ ^ 2 - 2 x_65_ * x_52_ + 1 x_65_ ^ 2 + 1 y_52_ ^ 2 - 2 y_65_ * y_52_ + 1 y_65_ ^ 2 ] <= 7825.4800000000005
quadratic_ranged_272_ub: [ 1 x_53_ ^ 2 - 2 x_65_ * x_53_ + 1 x_65_ ^ 2 + 1 y_53_ ^ 2 - 2 y_65_ * y_53_ + 1 y_65_ ^ 2 ] <= 5349.97
quadratic_ranged_273_ub: [ 1 x_56_ ^ 2 - 2 x_65_ * x_56_ + 1 x_65_ ^ 2 + 1 y_56_ ^ 2 - 2 y_65_ * y_56_ + 1 y_65_ ^ 2 ] <= 6231.7
quadratic_ranged_274_ub: [ 1 x_57_ ^ 2 - 2 x_65_ * x_57_ + 1 x_65_ ^ 2 + 1 y_57_ ^ 2 - 2 y_65_ * y_57_ + 1 y_65_ ^ 2 ] <= 24806.61
quadratic_ranged_275_ub: [ 1 x_62_ ^ 2 - 2 x_65_ * x_62_ + 1 x_65_ ^ 2 + 1 y_62_ ^ 2 - 2 y_65_ * y_62_ + 1 y_65_ ^ 2 ] <= 16929.62
quadratic_ranged_276_ub: [ 1 x_64_ ^ 2 - 2 x_65_ * x_64_ + 1 x_65_ ^ 2 + 1 y_64_ ^ 2 - 2 y_65_ * y_64_ + 1 y_65_ ^ 2 ] <= 37552.81
quadratic_ranged_277_ub: [ 1 x_2_ ^ 2 - 2 x_66_ * x_2_ + 1 x_66_ ^ 2 + 1 y_2_ ^ 2 - 2 y_66_ * y_2_ + 1 y_66_ ^ 2 ] <= 2838.1
quadratic_ranged_278_ub: [ 1 x_19_ ^ 2 - 2 x_66_ * x_19_ + 1 x_66_ ^ 2 + 1 y_19_ ^ 2 - 2 y_66_ * y_19_ + 1 y_66_ ^ 2 ] <= 20225.25
quadratic_ranged_279_ub: [ 1 x_29_ ^ 2 - 2 x_66_ * x_29_ + 1 x_66_ ^ 2 + 1 y_29_ ^ 2 - 2 y_66_ * y_29_ + 1 y_66_ ^ 2 ] <= 27815.4
quadratic_ranged_280_ub: [ 1 x_30_ ^ 2 - 2 x_66_ * x_30_ + 1 x_66_ ^ 2 + 1 y_30_ ^ 2 - 2 y_66_ * y_30_ + 1 y_66_ ^ 2 ] <= 1682.66
quadratic_ranged_281_ub: [ 1 x_36_ ^ 2 - 2 x_66_ * x_36_ + 1 x_66_ ^ 2 + 1 y_36_ ^ 2 - 2 y_66_ * y_36_ + 1 y_66_ ^ 2 ] <= 41132.25
quadratic_ranged_282_ub: [ 1 x_39_ ^ 2 - 2 x_66_ * x_39_ + 1 x_66_ ^ 2 + 1 y_39_ ^ 2 - 2 y_66_ * y_39_ + 1 y_66_ ^ 2 ] <= 8771.85
quadratic_ranged_283_ub: [ 1 x_65_ ^ 2 - 2 x_66_ * x_65_ + 1 x_66_ ^ 2 + 1 y_65_ ^ 2 - 2 y_66_ * y_65_ + 1 y_66_ ^ 2 ] <= 22980.53
quadratic_ranged_284_ub: [ 1 x_6_ ^ 2 - 2 x_67_ * x_6_ + 1 x_67_ ^ 2 + 1 y_6_ ^ 2 - 2 y_67_ * y_6_ + 1 y_67_ ^ 2 ] <= 17078.09
quadratic_ranged_285_ub: [ 1 x_11_ ^ 2 - 2 x_67_ * x_11_ + 1 x_67_ ^ 2 + 1 y_11_ ^ 2 - 2 y_67_ * y_11_ + 1 y_67_ ^ 2 ] <= 22141.22
quadratic_ranged_286_ub: [ 1 x_28_ ^ 2 - 2 x_67_ * x_28_ + 1 x_67_ ^ 2 + 1 y_28_ ^ 2 - 2 y_67_ * y_28_ + 1 y_67_ ^ 2 ] <= 1943.24
quadratic_ranged_287_ub: [ 1 x_31_ ^ 2 - 2 x_67_ * x_31_ + 1 x_67_ ^ 2 + 1 y_31_ ^ 2 - 2 y_67_ * y_31_ + 1 y_67_ ^ 2 ] <= 22063.45
quadratic_ranged_288_ub: [ 1 x_39_ ^ 2 - 2 x_67_ * x_39_ + 1 x_67_ ^ 2 + 1 y_39_ ^ 2 - 2 y_67_ * y_39_ + 1 y_67_ ^ 2 ] <= 1674.58
quadratic_ranged_289_ub: [ 1 x_60_ ^ 2 - 2 x_67_ * x_60_ + 1 x_67_ ^ 2 + 1 y_60_ ^ 2 - 2 y_67_ * y_60_ + 1 y_67_ ^ 2 ] <= 14880.33
quadratic_ranged_290_ub: [ 1 x_66_ ^ 2 - 2 x_67_ * x_66_ + 1 x_67_ ^ 2 + 1 y_66_ ^ 2 - 2 y_67_ * y_66_ + 1 y_67_ ^ 2 ] <= 14088.49
quadratic_ranged_291_ub: [ 1 x_17_ ^ 2 - 2 x_68_ * x_17_ + 1 x_68_ ^ 2 + 1 y_17_ ^ 2 - 2 y_68_ * y_17_ + 1 y_68_ ^ 2 ] <= 6061.01
quadratic_ranged_292_ub: [ 1 x_20_ ^ 2 - 2 x_68_ * x_20_ + 1 x_68_ ^ 2 + 1 y_20_ ^ 2 - 2 y_68_ * y_20_ + 1 y_68_ ^ 2 ] <= 4776.29
quadratic_ranged_293_ub: [ 1 x_47_ ^ 2 - 2 x_68_ * x_47_ + 1 x_68_ ^ 2 + 1 y_47_ ^ 2 - 2 y_68_ * y_47_ + 1 y_68_ ^ 2 ] <= 6335.7300000000005
quadratic_ranged_294_ub: [ 1 x_56_ ^ 2 - 2 x_68_ * x_56_ + 1 x_68_ ^ 2 + 1 y_56_ ^ 2 - 2 y_68_ * y_56_ + 1 y_68_ ^ 2 ] <= 12145.25
quadratic_ranged_295_ub: [ 1 x_67_ ^ 2 - 2 x_68_ * x_67_ + 1 x_68_ ^ 2 + 1 y_67_ ^ 2 - 2 y_68_ * y_67_ + 1 y_68_ ^ 2 ] <= 14662.17
quadratic_ranged_296_ub: [ 1 x_3_ ^ 2 - 2 x_69_ * x_3_ + 1 x_69_ ^ 2 + 1 y_3_ ^ 2 - 2 y_69_ * y_3_ + 1 y_69_ ^ 2 ] <= 3176.45
quadratic_ranged_297_ub: [ 1 x_4_ ^ 2 - 2 x_69_ * x_4_ + 1 x_69_ ^ 2 + 1 y_4_ ^ 2 - 2 y_69_ * y_4_ + 1 y_69_ ^ 2 ] <= 1540.25
quadratic_ranged_298_ub: [ 1 x_5_ ^ 2 - 2 x_69_ * x_5_ + 1 x_69_ ^ 2 + 1 y_5_ ^ 2 - 2 y_69_ * y_5_ + 1 y_69_ ^ 2 ] <= 28643.6
quadratic_ranged_299_ub: [ 1 x_24_ ^ 2 - 2 x_69_ * x_24_ + 1 x_69_ ^ 2 + 1 y_24_ ^ 2 - 2 y_69_ * y_24_ + 1 y_69_ ^ 2 ] <= 7576.01
quadratic_ranged_300_ub: [ 1 x_41_ ^ 2 - 2 x_69_ * x_41_ + 1 x_69_ ^ 2 + 1 y_41_ ^ 2 - 2 y_69_ * y_41_ + 1 y_69_ ^ 2 ] <= 12771.45
quadratic_ranged_301_ub: [ 1 x_51_ ^ 2 - 2 x_69_ * x_51_ + 1 x_69_ ^ 2 + 1 y_51_ ^ 2 - 2 y_69_ * y_51_ + 1 y_69_ ^ 2 ] <= 26334.74
quadratic_ranged_302_ub: [ 1 x_58_ ^ 2 - 2 x_69_ * x_58_ + 1 x_69_ ^ 2 + 1 y_58_ ^ 2 - 2 y_69_ * y_58_ + 1 y_69_ ^ 2 ] <= 5706.5
quadratic_ranged_303_ub: [ 1 x_68_ ^ 2 - 2 x_69_ * x_68_ + 1 x_69_ ^ 2 + 1 y_68_ ^ 2 - 2 y_69_ * y_68_ + 1 y_69_ ^ 2 ] <= 958.49
quadratic_ranged_304_ub: [ 1 x_13_ ^ 2 - 2 x_70_ * x_13_ + 1 x_70_ ^ 2 + 1 y_13_ ^ 2 - 2 y_70_ * y_13_ + 1 y_70_ ^ 2 ] <= 19332.41
quadratic_ranged_305_ub: [ 1 x_20_ ^ 2 - 2 x_70_ * x_20_ + 1 x_70_ ^ 2 + 1 y_20_ ^ 2 - 2 y_70_ * y_20_ + 1 y_70_ ^ 2 ] <= 17715.4
quadratic_ranged_306_ub: [ 1 x_30_ ^ 2 - 2 x_70_ * x_30_ + 1 x_70_ ^ 2 + 1 y_30_ ^ 2 - 2 y_70_ * y_30_ + 1 y_70_ ^ 2 ] <= 16072.130000000001
quadratic_ranged_307_ub: [ 1 x_39_ ^ 2 - 2 x_70_ * x_39_ + 1 x_70_ ^ 2 + 1 y_39_ ^ 2 - 2 y_70_ * y_39_ + 1 y_70_ ^ 2 ] <= 30805
quadratic_ranged_308_ub: [ 1 x_41_ ^ 2 - 2 x_70_ * x_41_ + 1 x_70_ ^ 2 + 1 y_41_ ^ 2 - 2 y_70_ * y_41_ + 1 y_70_ ^ 2 ] <= 1697.81
quadratic_ranged_309_ub: [ 1 x_42_ ^ 2 - 2 x_70_ * x_42_ + 1 x_70_ ^ 2 + 1 y_42_ ^ 2 - 2 y_70_ * y_42_ + 1 y_70_ ^ 2 ] <= 7660.85
quadratic_ranged_310_ub: [ 1 x_49_ ^ 2 - 2 x_70_ * x_49_ + 1 x_70_ ^ 2 + 1 y_49_ ^ 2 - 2 y_70_ * y_49_ + 1 y_70_ ^ 2 ] <= 5922.64
quadratic_ranged_311_ub: [ 1 x_57_ ^ 2 - 2 x_70_ * x_57_ + 1 x_70_ ^ 2 + 1 y_57_ ^ 2 - 2 y_70_ * y_57_ + 1 y_70_ ^ 2 ] <= 9519.25
quadratic_ranged_312_ub: [ 1 x_60_ ^ 2 - 2 x_70_ * x_60_ + 1 x_70_ ^ 2 + 1 y_60_ ^ 2 - 2 y_70_ * y_60_ + 1 y_70_ ^ 2 ] <= 1483.69
quadratic_ranged_313_ub: [ 1 x_65_ ^ 2 - 2 x_70_ * x_65_ + 1 x_70_ ^ 2 + 1 y_65_ ^ 2 - 2 y_70_ * y_65_ + 1 y_70_ ^ 2 ] <= 30901.96
quadratic_ranged_314_ub: [ 1 x_69_ ^ 2 - 2 x_70_ * x_69_ + 1 x_70_ ^ 2 + 1 y_69_ ^ 2 - 2 y_70_ * y_69_ + 1 y_70_ ^ 2 ] <= 6506.42
quadratic_ranged_315_ub: [ 1 x_7_ ^ 2 - 2 x_71_ * x_7_ + 1 x_71_ ^ 2 + 1 y_7_ ^ 2 - 2 y_71_ * y_7_ + 1 y_71_ ^ 2 ] <= 10387.85
quadratic_ranged_316_ub: [ 1 x_8_ ^ 2 - 2 x_71_ * x_8_ + 1 x_71_ ^ 2 + 1 y_8_ ^ 2 - 2 y_71_ * y_8_ + 1 y_71_ ^ 2 ] <= 9635.4
quadratic_ranged_317_ub: [ 1 x_11_ ^ 2 - 2 x_71_ * x_11_ + 1 x_71_ ^ 2 + 1 y_11_ ^ 2 - 2 y_71_ * y_11_ + 1 y_71_ ^ 2 ] <= 39497.06
quadratic_ranged_318_ub: [ 1 x_14_ ^ 2 - 2 x_71_ * x_14_ + 1 x_71_ ^ 2 + 1 y_14_ ^ 2 - 2 y_71_ * y_14_ + 1 y_71_ ^ 2 ] <= 32567.45
quadratic_ranged_319_ub: [ 1 x_15_ ^ 2 - 2 x_71_ * x_15_ + 1 x_71_ ^ 2 + 1 y_15_ ^ 2 - 2 y_71_ * y_15_ + 1 y_71_ ^ 2 ] <= 9563.69
quadratic_ranged_320_ub: [ 1 x_27_ ^ 2 - 2 x_71_ * x_27_ + 1 x_71_ ^ 2 + 1 y_27_ ^ 2 - 2 y_71_ * y_27_ + 1 y_71_ ^ 2 ] <= 18715.3
quadratic_ranged_321_ub: [ 1 x_33_ ^ 2 - 2 x_71_ * x_33_ + 1 x_71_ ^ 2 + 1 y_33_ ^ 2 - 2 y_71_ * y_33_ + 1 y_71_ ^ 2 ] <= 12500.77
quadratic_ranged_322_ub: [ 1 x_70_ ^ 2 - 2 x_71_ * x_70_ + 1 x_71_ ^ 2 + 1 y_70_ ^ 2 - 2 y_71_ * y_70_ + 1 y_71_ ^ 2 ] <= 24637.94
quadratic_ranged_323_ub: [ 1 x_5_ ^ 2 - 2 x_72_ * x_5_ + 1 x_72_ ^ 2 + 1 y_5_ ^ 2 - 2 y_72_ * y_5_ + 1 y_72_ ^ 2 ] <= 30644.41
quadratic_ranged_324_ub: [ 1 x_8_ ^ 2 - 2 x_72_ * x_8_ + 1 x_72_ ^ 2 + 1 y_8_ ^ 2 - 2 y_72_ * y_8_ + 1 y_72_ ^ 2 ] <= 8739.53
quadratic_ranged_325_ub: [ 1 x_15_ ^ 2 - 2 x_72_ * x_15_ + 1 x_72_ ^ 2 + 1 y_15_ ^ 2 - 2 y_72_ * y_15_ + 1 y_72_ ^ 2 ] <= 2343.2
quadratic_ranged_326_ub: [ 1 x_19_ ^ 2 - 2 x_72_ * x_19_ + 1 x_72_ ^ 2 + 1 y_19_ ^ 2 - 2 y_72_ * y_19_ + 1 y_72_ ^ 2 ] <= 19114.25
quadratic_ranged_327_ub: [ 1 x_23_ ^ 2 - 2 x_72_ * x_23_ + 1 x_72_ ^ 2 + 1 y_23_ ^ 2 - 2 y_72_ * y_23_ + 1 y_72_ ^ 2 ] <= 37533.62
quadratic_ranged_328_ub: [ 1 x_33_ ^ 2 - 2 x_72_ * x_33_ + 1 x_72_ ^ 2 + 1 y_33_ ^ 2 - 2 y_72_ * y_33_ + 1 y_72_ ^ 2 ] <= 25617.64
quadratic_ranged_329_ub: [ 1 x_36_ ^ 2 - 2 x_72_ * x_36_ + 1 x_72_ ^ 2 + 1 y_36_ ^ 2 - 2 y_72_ * y_36_ + 1 y_72_ ^ 2 ] <= 36688.25
quadratic_ranged_330_ub: [ 1 x_42_ ^ 2 - 2 x_72_ * x_42_ + 1 x_72_ ^ 2 + 1 y_42_ ^ 2 - 2 y_72_ * y_42_ + 1 y_72_ ^ 2 ] <= 31255.46
quadratic_ranged_331_ub: [ 1 x_48_ ^ 2 - 2 x_72_ * x_48_ + 1 x_72_ ^ 2 + 1 y_48_ ^ 2 - 2 y_72_ * y_48_ + 1 y_72_ ^ 2 ] <= 7191.2
quadratic_ranged_332_ub: [ 1 x_63_ ^ 2 - 2 x_72_ * x_63_ + 1 x_72_ ^ 2 + 1 y_63_ ^ 2 - 2 y_72_ * y_63_ + 1 y_72_ ^ 2 ] <= 32943.17
quadratic_ranged_333_ub: [ 1 x_71_ ^ 2 - 2 x_72_ * x_71_ + 1 x_72_ ^ 2 + 1 y_71_ ^ 2 - 2 y_72_ * y_71_ + 1 y_72_ ^ 2 ] <= 21368.57
quadratic_ranged_334_ub: [ 1 x_33_ ^ 2 - 2 x_73_ * x_33_ + 1 x_73_ ^ 2 + 1 y_33_ ^ 2 - 2 y_73_ * y_33_ + 1 y_73_ ^ 2 ] <= 2547.22
quadratic_ranged_335_ub: [ 1 x_36_ ^ 2 - 2 x_73_ * x_36_ + 1 x_73_ ^ 2 + 1 y_36_ ^ 2 - 2 y_73_ * y_36_ + 1 y_73_ ^ 2 ] <= 1164.53
quadratic_ranged_336_ub: [ 1 x_56_ ^ 2 - 2 x_73_ * x_56_ + 1 x_73_ ^ 2 + 1 y_56_ ^ 2 - 2 y_73_ * y_56_ + 1 y_73_ ^ 2 ] <= 23711.77
quadratic_ranged_337_ub: [ 1 x_72_ ^ 2 - 2 x_73_ * x_72_ + 1 x_73_ ^ 2 + 1 y_72_ ^ 2 - 2 y_73_ * y_72_ + 1 y_73_ ^ 2 ] <= 33655.22
quadratic_ranged_338_ub: [ 1 x_15_ ^ 2 - 2 x_74_ * x_15_ + 1 x_74_ ^ 2 + 1 y_15_ ^ 2 - 2 y_74_ * y_15_ + 1 y_74_ ^ 2 ] <= 6312.5
quadratic_ranged_339_ub: [ 1 x_21_ ^ 2 - 2 x_74_ * x_21_ + 1 x_74_ ^ 2 + 1 y_21_ ^ 2 - 2 y_74_ * y_21_ + 1 y_74_ ^ 2 ] <= 4525.81
quadratic_ranged_340_ub: [ 1 x_23_ ^ 2 - 2 x_74_ * x_23_ + 1 x_74_ ^ 2 + 1 y_23_ ^ 2 - 2 y_74_ * y_23_ + 1 y_74_ ^ 2 ] <= 12431.08
quadratic_ranged_341_ub: [ 1 x_30_ ^ 2 - 2 x_74_ * x_30_ + 1 x_74_ ^ 2 + 1 y_30_ ^ 2 - 2 y_74_ * y_30_ + 1 y_74_ ^ 2 ] <= 8025.46
quadratic_ranged_342_ub: [ 1 x_40_ ^ 2 - 2 x_74_ * x_40_ + 1 x_74_ ^ 2 + 1 y_40_ ^ 2 - 2 y_74_ * y_40_ + 1 y_74_ ^ 2 ] <= 514.09
quadratic_ranged_343_ub: [ 1 x_55_ ^ 2 - 2 x_74_ * x_55_ + 1 x_74_ ^ 2 + 1 y_55_ ^ 2 - 2 y_74_ * y_55_ + 1 y_74_ ^ 2 ] <= 18230.5
quadratic_ranged_344_ub: [ 1 x_68_ ^ 2 - 2 x_74_ * x_68_ + 1 x_74_ ^ 2 + 1 y_68_ ^ 2 - 2 y_74_ * y_68_ + 1 y_74_ ^ 2 ] <= 2525
quadratic_ranged_345_ub: [ 1 x_73_ ^ 2 - 2 x_74_ * x_73_ + 1 x_74_ ^ 2 + 1 y_73_ ^ 2 - 2 y_74_ * y_73_ + 1 y_74_ ^ 2 ] <= 7280.08
quadratic_ranged_346_ub: [ 1 x_13_ ^ 2 - 2 x_75_ * x_13_ + 1 x_75_ ^ 2 + 1 y_13_ ^ 2 - 2 y_75_ * y_13_ + 1 y_75_ ^ 2 ] <= 2474.5
quadratic_ranged_347_ub: [ 1 x_18_ ^ 2 - 2 x_75_ * x_18_ + 1 x_75_ ^ 2 + 1 y_18_ ^ 2 - 2 y_75_ * y_18_ + 1 y_75_ ^ 2 ] <= 3171.4
quadratic_ranged_348_ub: [ 1 x_19_ ^ 2 - 2 x_75_ * x_19_ + 1 x_75_ ^ 2 + 1 y_19_ ^ 2 - 2 y_75_ * y_19_ + 1 y_75_ ^ 2 ] <= 6703.37
quadratic_ranged_349_ub: [ 1 x_31_ ^ 2 - 2 x_75_ * x_31_ + 1 x_75_ ^ 2 + 1 y_31_ ^ 2 - 2 y_75_ * y_31_ + 1 y_75_ ^ 2 ] <= 23213.84
quadratic_ranged_350_ub: [ 1 x_35_ ^ 2 - 2 x_75_ * x_35_ + 1 x_75_ ^ 2 + 1 y_35_ ^ 2 - 2 y_75_ * y_35_ + 1 y_75_ ^ 2 ] <= 15887.3
quadratic_ranged_351_ub: [ 1 x_37_ ^ 2 - 2 x_75_ * x_37_ + 1 x_75_ ^ 2 + 1 y_37_ ^ 2 - 2 y_75_ * y_37_ + 1 y_75_ ^ 2 ] <= 40.4
quadratic_ranged_352_ub: [ 1 x_59_ ^ 2 - 2 x_75_ * x_59_ + 1 x_75_ ^ 2 + 1 y_59_ ^ 2 - 2 y_75_ * y_59_ + 1 y_75_ ^ 2 ] <= 15362.1
quadratic_ranged_353_ub: [ 1 x_74_ ^ 2 - 2 x_75_ * x_74_ + 1 x_75_ ^ 2 + 1 y_74_ ^ 2 - 2 y_75_ * y_74_ + 1 y_75_ ^ 2 ] <= 8679.94
quadratic_ranged_354_ub: [ 1 x_1_ ^ 2 - 2 x_76_ * x_1_ + 1 x_76_ ^ 2 + 1 y_1_ ^ 2 - 2 y_76_ * y_1_ + 1 y_76_ ^ 2 ] <= 11212.01
quadratic_ranged_355_ub: [ 1 x_4_ ^ 2 - 2 x_76_ * x_4_ + 1 x_76_ ^ 2 + 1 y_4_ ^ 2 - 2 y_76_ * y_4_ + 1 y_76_ ^ 2 ] <= 1107.97
quadratic_ranged_356_ub: [ 1 x_8_ ^ 2 - 2 x_76_ * x_8_ + 1 x_76_ ^ 2 + 1 y_8_ ^ 2 - 2 y_76_ * y_8_ + 1 y_76_ ^ 2 ] <= 16226.66
quadratic_ranged_357_ub: [ 1 x_11_ ^ 2 - 2 x_76_ * x_11_ + 1 x_76_ ^ 2 + 1 y_11_ ^ 2 - 2 y_76_ * y_11_ + 1 y_76_ ^ 2 ] <= 8908.2
quadratic_ranged_358_ub: [ 1 x_36_ ^ 2 - 2 x_76_ * x_36_ + 1 x_76_ ^ 2 + 1 y_36_ ^ 2 - 2 y_76_ * y_36_ + 1 y_76_ ^ 2 ] <= 21674.6
quadratic_ranged_359_ub: [ 1 x_43_ ^ 2 - 2 x_76_ * x_43_ + 1 x_76_ ^ 2 + 1 y_43_ ^ 2 - 2 y_76_ * y_43_ + 1 y_76_ ^ 2 ] <= 5235.84
quadratic_ranged_360_ub: [ 1 x_49_ ^ 2 - 2 x_76_ * x_49_ + 1 x_76_ ^ 2 + 1 y_49_ ^ 2 - 2 y_76_ * y_49_ + 1 y_76_ ^ 2 ] <= 3090.6
quadratic_ranged_361_ub: [ 1 x_72_ ^ 2 - 2 x_76_ * x_72_ + 1 x_76_ ^ 2 + 1 y_72_ ^ 2 - 2 y_76_ * y_72_ + 1 y_76_ ^ 2 ] <= 4954.05
quadratic_ranged_362_ub: [ 1 x_73_ ^ 2 - 2 x_76_ * x_73_ + 1 x_76_ ^ 2 + 1 y_73_ ^ 2 - 2 y_76_ * y_73_ + 1 y_76_ ^ 2 ] <= 16726.61
quadratic_ranged_363_ub: [ 1 x_75_ ^ 2 - 2 x_76_ * x_75_ + 1 x_76_ ^ 2 + 1 y_75_ ^ 2 - 2 y_76_ * y_75_ + 1 y_76_ ^ 2 ] <= 11781.65
quadratic_ranged_364_ub: [ 1 x_9_ ^ 2 - 2 x_77_ * x_9_ + 1 x_77_ ^ 2 + 1 y_9_ ^ 2 - 2 y_77_ * y_9_ + 1 y_77_ ^ 2 ] <= 1383.7
quadratic_ranged_365_ub: [ 1 x_15_ ^ 2 - 2 x_77_ * x_15_ + 1 x_77_ ^ 2 + 1 y_15_ ^ 2 - 2 y_77_ * y_15_ + 1 y_77_ ^ 2 ] <= 7583.08
quadratic_ranged_366_ub: [ 1 x_20_ ^ 2 - 2 x_77_ * x_20_ + 1 x_77_ ^ 2 + 1 y_20_ ^ 2 - 2 y_77_ * y_20_ + 1 y_77_ ^ 2 ] <= 4327.85
quadratic_ranged_367_ub: [ 1 x_28_ ^ 2 - 2 x_77_ * x_28_ + 1 x_77_ ^ 2 + 1 y_28_ ^ 2 - 2 y_77_ * y_28_ + 1 y_77_ ^ 2 ] <= 20180.81
quadratic_ranged_368_ub: [ 1 x_31_ ^ 2 - 2 x_77_ * x_31_ + 1 x_77_ ^ 2 + 1 y_31_ ^ 2 - 2 y_77_ * y_31_ + 1 y_77_ ^ 2 ] <= 24983.36
quadratic_ranged_369_ub: [ 1 x_37_ ^ 2 - 2 x_77_ * x_37_ + 1 x_77_ ^ 2 + 1 y_37_ ^ 2 - 2 y_77_ * y_37_ + 1 y_77_ ^ 2 ] <= 23351.2
quadratic_ranged_370_ub: [ 1 x_69_ ^ 2 - 2 x_77_ * x_69_ + 1 x_77_ ^ 2 + 1 y_69_ ^ 2 - 2 y_77_ * y_69_ + 1 y_77_ ^ 2 ] <= 9753.57
quadratic_ranged_371_ub: [ 1 x_71_ ^ 2 - 2 x_77_ * x_71_ + 1 x_77_ ^ 2 + 1 y_71_ ^ 2 - 2 y_77_ * y_71_ + 1 y_77_ ^ 2 ] <= 33076.49
quadratic_ranged_372_ub: [ 1 x_72_ ^ 2 - 2 x_77_ * x_72_ + 1 x_77_ ^ 2 + 1 y_72_ ^ 2 - 2 y_77_ * y_72_ + 1 y_77_ ^ 2 ] <= 2153.32
quadratic_ranged_373_ub: [ 1 x_76_ ^ 2 - 2 x_77_ * x_76_ + 1 x_77_ ^ 2 + 1 y_76_ ^ 2 - 2 y_77_ * y_76_ + 1 y_77_ ^ 2 ] <= 5434.81
quadratic_ranged_374_ub: [ 1 x_1_ ^ 2 - 2 x_78_ * x_1_ + 1 x_78_ ^ 2 + 1 y_1_ ^ 2 - 2 y_78_ * y_1_ + 1 y_78_ ^ 2 ] <= 19259.69
quadratic_ranged_375_ub: [ 1 x_2_ ^ 2 - 2 x_78_ * x_2_ + 1 x_78_ ^ 2 + 1 y_2_ ^ 2 - 2 y_78_ * y_2_ + 1 y_78_ ^ 2 ] <= 16245.85
quadratic_ranged_376_ub: [ 1 x_9_ ^ 2 - 2 x_78_ * x_9_ + 1 x_78_ ^ 2 + 1 y_9_ ^ 2 - 2 y_78_ * y_9_ + 1 y_78_ ^ 2 ] <= 29214.25
quadratic_ranged_377_ub: [ 1 x_18_ ^ 2 - 2 x_78_ * x_18_ + 1 x_78_ ^ 2 + 1 y_18_ ^ 2 - 2 y_78_ * y_18_ + 1 y_78_ ^ 2 ] <= 9179.89
quadratic_ranged_378_ub: [ 1 x_41_ ^ 2 - 2 x_78_ * x_41_ + 1 x_78_ ^ 2 + 1 y_41_ ^ 2 - 2 y_78_ * y_41_ + 1 y_78_ ^ 2 ] <= 4000.61
quadratic_ranged_379_ub: [ 1 x_50_ ^ 2 - 2 x_78_ * x_50_ + 1 x_78_ ^ 2 + 1 y_50_ ^ 2 - 2 y_78_ * y_50_ + 1 y_78_ ^ 2 ] <= 9357.65
quadratic_ranged_380_ub: [ 1 x_63_ ^ 2 - 2 x_78_ * x_63_ + 1 x_78_ ^ 2 + 1 y_63_ ^ 2 - 2 y_78_ * y_63_ + 1 y_78_ ^ 2 ] <= 3304.7200000000003
quadratic_ranged_381_ub: [ 1 x_68_ ^ 2 - 2 x_78_ * x_68_ + 1 x_78_ ^ 2 + 1 y_68_ ^ 2 - 2 y_78_ * y_68_ + 1 y_78_ ^ 2 ] <= 10731.25
quadratic_ranged_382_ub: [ 1 x_77_ ^ 2 - 2 x_78_ * x_77_ + 1 x_78_ ^ 2 + 1 y_77_ ^ 2 - 2 y_78_ * y_77_ + 1 y_78_ ^ 2 ] <= 27731.57
quadratic_ranged_383_ub: [ 1 x_11_ ^ 2 - 2 x_79_ * x_11_ + 1 x_79_ ^ 2 + 1 y_11_ ^ 2 - 2 y_79_ * y_11_ + 1 y_79_ ^ 2 ] <= 10027.28
quadratic_ranged_384_ub: [ 1 x_14_ ^ 2 - 2 x_79_ * x_14_ + 1 x_79_ ^ 2 + 1 y_14_ ^ 2 - 2 y_79_ * y_14_ + 1 y_79_ ^ 2 ] <= 6630.65
quadratic_ranged_385_ub: [ 1 x_19_ ^ 2 - 2 x_79_ * x_19_ + 1 x_79_ ^ 2 + 1 y_19_ ^ 2 - 2 y_79_ * y_19_ + 1 y_79_ ^ 2 ] <= 7453.8
quadratic_ranged_386_ub: [ 1 x_51_ ^ 2 - 2 x_79_ * x_51_ + 1 x_79_ ^ 2 + 1 y_51_ ^ 2 - 2 y_79_ * y_51_ + 1 y_79_ ^ 2 ] <= 3219.88
quadratic_ranged_387_ub: [ 1 x_65_ ^ 2 - 2 x_79_ * x_65_ + 1 x_79_ ^ 2 + 1 y_65_ ^ 2 - 2 y_79_ * y_65_ + 1 y_79_ ^ 2 ] <= 7615.4
quadratic_ranged_388_ub: [ 1 x_78_ ^ 2 - 2 x_79_ * x_78_ + 1 x_79_ ^ 2 + 1 y_78_ ^ 2 - 2 y_79_ * y_78_ + 1 y_79_ ^ 2 ] <= 8637.52
quadratic_ranged_389_ub: [ 1 x_4_ ^ 2 - 2 x_80_ * x_4_ + 1 x_80_ ^ 2 + 1 y_4_ ^ 2 - 2 y_80_ * y_4_ + 1 y_80_ ^ 2 ] <= 3833.96
quadratic_ranged_390_ub: [ 1 x_7_ ^ 2 - 2 x_80_ * x_7_ + 1 x_80_ ^ 2 + 1 y_7_ ^ 2 - 2 y_80_ * y_7_ + 1 y_80_ ^ 2 ] <= 11493.8
quadratic_ranged_391_ub: [ 1 x_13_ ^ 2 - 2 x_80_ * x_13_ + 1 x_80_ ^ 2 + 1 y_13_ ^ 2 - 2 y_80_ * y_13_ + 1 y_80_ ^ 2 ] <= 6853.86
quadratic_ranged_392_ub: [ 1 x_23_ ^ 2 - 2 x_80_ * x_23_ + 1 x_80_ ^ 2 + 1 y_23_ ^ 2 - 2 y_80_ * y_23_ + 1 y_80_ ^ 2 ] <= 8275.94
quadratic_ranged_393_ub: [ 1 x_53_ ^ 2 - 2 x_80_ * x_53_ + 1 x_80_ ^ 2 + 1 y_53_ ^ 2 - 2 y_80_ * y_53_ + 1 y_80_ ^ 2 ] <= 8655.7
quadratic_ranged_394_ub: [ 1 x_71_ ^ 2 - 2 x_80_ * x_71_ + 1 x_80_ ^ 2 + 1 y_71_ ^ 2 - 2 y_80_ * y_71_ + 1 y_80_ ^ 2 ] <= 9616.210000000001
quadratic_ranged_395_ub: [ 1 x_76_ ^ 2 - 2 x_80_ * x_76_ + 1 x_80_ ^ 2 + 1 y_76_ ^ 2 - 2 y_80_ * y_76_ + 1 y_80_ ^ 2 ] <= 5434.81
quadratic_ranged_396_ub: [ 1 x_78_ ^ 2 - 2 x_80_ * x_78_ + 1 x_80_ ^ 2 + 1 y_78_ ^ 2 - 2 y_80_ * y_78_ + 1 y_80_ ^ 2 ] <= 1309.97
quadratic_ranged_397_ub: [ 1 x_79_ ^ 2 - 2 x_80_ * x_79_ + 1 x_80_ ^ 2 + 1 y_79_ ^ 2 - 2 y_80_ * y_79_ + 1 y_80_ ^ 2 ] <= 7648.7300000000005
quadratic_ranged_398_ub: [ 1 x_3_ ^ 2 - 2 x_81_ * x_3_ + 1 x_81_ ^ 2 + 1 y_3_ ^ 2 - 2 y_81_ * y_3_ + 1 y_81_ ^ 2 ] <= 9769.73
quadratic_ranged_399_ub: [ 1 x_11_ ^ 2 - 2 x_81_ * x_11_ + 1 x_81_ ^ 2 + 1 y_11_ ^ 2 - 2 y_81_ * y_11_ + 1 y_81_ ^ 2 ] <= 7322.5
quadratic_ranged_400_ub: [ 1 x_15_ ^ 2 - 2 x_81_ * x_15_ + 1 x_81_ ^ 2 + 1 y_15_ ^ 2 - 2 y_81_ * y_15_ + 1 y_81_ ^ 2 ] <= 1564.49
quadratic_ranged_401_ub: [ 1 x_25_ ^ 2 - 2 x_81_ * x_25_ + 1 x_81_ ^ 2 + 1 y_25_ ^ 2 - 2 y_81_ * y_25_ + 1 y_81_ ^ 2 ] <= 6312.5
quadratic_ranged_402_ub: [ 1 x_32_ ^ 2 - 2 x_81_ * x_32_ + 1 x_81_ ^ 2 + 1 y_32_ ^ 2 - 2 y_81_ * y_32_ + 1 y_81_ ^ 2 ] <= 18871.85
quadratic_ranged_403_ub: [ 1 x_63_ ^ 2 - 2 x_81_ * x_63_ + 1 x_81_ ^ 2 + 1 y_63_ ^ 2 - 2 y_81_ * y_63_ + 1 y_81_ ^ 2 ] <= 17341.7
quadratic_ranged_404_ub: [ 1 x_71_ ^ 2 - 2 x_81_ * x_71_ + 1 x_81_ ^ 2 + 1 y_71_ ^ 2 - 2 y_81_ * y_71_ + 1 y_81_ ^ 2 ] <= 14176.36
quadratic_ranged_405_ub: [ 1 x_80_ ^ 2 - 2 x_81_ * x_80_ + 1 x_81_ ^ 2 + 1 y_80_ ^ 2 - 2 y_81_ * y_80_ + 1 y_81_ ^ 2 ] <= 7571.97
quadratic_ranged_406_ub: [ 1 x_16_ ^ 2 - 2 x_82_ * x_16_ + 1 x_82_ ^ 2 + 1 y_16_ ^ 2 - 2 y_82_ * y_16_ + 1 y_82_ ^ 2 ] <= 22916.9
quadratic_ranged_407_ub: [ 1 x_21_ ^ 2 - 2 x_82_ * x_21_ + 1 x_82_ ^ 2 + 1 y_21_ ^ 2 - 2 y_82_ * y_21_ + 1 y_82_ ^ 2 ] <= 11212.01
quadratic_ranged_408_ub: [ 1 x_44_ ^ 2 - 2 x_82_ * x_44_ + 1 x_82_ ^ 2 + 1 y_44_ ^ 2 - 2 y_82_ * y_44_ + 1 y_82_ ^ 2 ] <= 3261.29
quadratic_ranged_409_ub: [ 1 x_45_ ^ 2 - 2 x_82_ * x_45_ + 1 x_82_ ^ 2 + 1 y_45_ ^ 2 - 2 y_82_ * y_45_ + 1 y_82_ ^ 2 ] <= 39503.12
quadratic_ranged_410_ub: [ 1 x_61_ ^ 2 - 2 x_82_ * x_61_ + 1 x_82_ ^ 2 + 1 y_61_ ^ 2 - 2 y_82_ * y_61_ + 1 y_82_ ^ 2 ] <= 9907.09
quadratic_ranged_411_ub: [ 1 x_74_ ^ 2 - 2 x_82_ * x_74_ + 1 x_82_ ^ 2 + 1 y_74_ ^ 2 - 2 y_82_ * y_74_ + 1 y_82_ ^ 2 ] <= 8282
quadratic_ranged_412_ub: [ 1 x_76_ ^ 2 - 2 x_82_ * x_76_ + 1 x_82_ ^ 2 + 1 y_76_ ^ 2 - 2 y_82_ * y_76_ + 1 y_82_ ^ 2 ] <= 6860.93
quadratic_ranged_413_ub: [ 1 x_81_ ^ 2 - 2 x_82_ * x_81_ + 1 x_82_ ^ 2 + 1 y_81_ ^ 2 - 2 y_82_ * y_81_ + 1 y_82_ ^ 2 ] <= 10997.89
quadratic_ranged_414_ub: [ 1 x_7_ ^ 2 - 2 x_83_ * x_7_ + 1 x_83_ ^ 2 + 1 y_7_ ^ 2 - 2 y_83_ * y_7_ + 1 y_83_ ^ 2 ] <= 23356.25
quadratic_ranged_415_ub: [ 1 x_16_ ^ 2 - 2 x_83_ * x_16_ + 1 x_83_ ^ 2 + 1 y_16_ ^ 2 - 2 y_83_ * y_16_ + 1 y_83_ ^ 2 ] <= 31686.73
quadratic_ranged_416_ub: [ 1 x_23_ ^ 2 - 2 x_83_ * x_23_ + 1 x_83_ ^ 2 + 1 y_23_ ^ 2 - 2 y_83_ * y_23_ + 1 y_83_ ^ 2 ] <= 21251.41
quadratic_ranged_417_ub: [ 1 x_36_ ^ 2 - 2 x_83_ * x_36_ + 1 x_83_ ^ 2 + 1 y_36_ ^ 2 - 2 y_83_ * y_36_ + 1 y_83_ ^ 2 ] <= 19238.48
quadratic_ranged_418_ub: [ 1 x_40_ ^ 2 - 2 x_83_ * x_40_ + 1 x_83_ ^ 2 + 1 y_40_ ^ 2 - 2 y_83_ * y_40_ + 1 y_83_ ^ 2 ] <= 7926.4800000000005
quadratic_ranged_419_ub: [ 1 x_41_ ^ 2 - 2 x_83_ * x_41_ + 1 x_83_ ^ 2 + 1 y_41_ ^ 2 - 2 y_83_ * y_41_ + 1 y_83_ ^ 2 ] <= 2752.25
quadratic_ranged_420_ub: [ 1 x_56_ ^ 2 - 2 x_83_ * x_56_ + 1 x_83_ ^ 2 + 1 y_56_ ^ 2 - 2 y_83_ * y_56_ + 1 y_83_ ^ 2 ] <= 27538.66
quadratic_ranged_421_ub: [ 1 x_59_ ^ 2 - 2 x_83_ * x_59_ + 1 x_83_ ^ 2 + 1 y_59_ ^ 2 - 2 y_83_ * y_59_ + 1 y_83_ ^ 2 ] <= 10589.85
quadratic_ranged_422_ub: [ 1 x_79_ ^ 2 - 2 x_83_ * x_79_ + 1 x_83_ ^ 2 + 1 y_79_ ^ 2 - 2 y_83_ * y_79_ + 1 y_83_ ^ 2 ] <= 17226.56
quadratic_ranged_423_ub: [ 1 x_82_ ^ 2 - 2 x_83_ * x_82_ + 1 x_83_ ^ 2 + 1 y_82_ ^ 2 - 2 y_83_ * y_82_ + 1 y_83_ ^ 2 ] <= 4004.65
quadratic_ranged_424_ub: [ 1 x_9_ ^ 2 - 2 x_84_ * x_9_ + 1 x_84_ ^ 2 + 1 y_9_ ^ 2 - 2 y_84_ * y_9_ + 1 y_84_ ^ 2 ] <= 13018.9
quadratic_ranged_425_ub: [ 1 x_14_ ^ 2 - 2 x_84_ * x_14_ + 1 x_84_ ^ 2 + 1 y_14_ ^ 2 - 2 y_84_ * y_14_ + 1 y_84_ ^ 2 ] <= 6722.56
quadratic_ranged_426_ub: [ 1 x_18_ ^ 2 - 2 x_84_ * x_18_ + 1 x_84_ ^ 2 + 1 y_18_ ^ 2 - 2 y_84_ * y_18_ + 1 y_84_ ^ 2 ] <= 634.28
quadratic_ranged_427_ub: [ 1 x_38_ ^ 2 - 2 x_84_ * x_38_ + 1 x_84_ ^ 2 + 1 y_38_ ^ 2 - 2 y_84_ * y_38_ + 1 y_84_ ^ 2 ] <= 9673.78
quadratic_ranged_428_ub: [ 1 x_58_ ^ 2 - 2 x_84_ * x_58_ + 1 x_84_ ^ 2 + 1 y_58_ ^ 2 - 2 y_84_ * y_58_ + 1 y_84_ ^ 2 ] <= 3564.29
quadratic_ranged_429_ub: [ 1 x_70_ ^ 2 - 2 x_84_ * x_70_ + 1 x_84_ ^ 2 + 1 y_70_ ^ 2 - 2 y_84_ * y_70_ + 1 y_84_ ^ 2 ] <= 27780.05
quadratic_ranged_430_ub: [ 1 x_78_ ^ 2 - 2 x_84_ * x_78_ + 1 x_84_ ^ 2 + 1 y_78_ ^ 2 - 2 y_84_ * y_78_ + 1 y_84_ ^ 2 ] <= 14229.89
quadratic_ranged_431_ub: [ 1 x_83_ ^ 2 - 2 x_84_ * x_83_ + 1 x_84_ ^ 2 + 1 y_83_ ^ 2 - 2 y_84_ * y_83_ + 1 y_84_ ^ 2 ] <= 27355.85
quadratic_ranged_432_ub: [ 1 x_13_ ^ 2 - 2 x_85_ * x_13_ + 1 x_85_ ^ 2 + 1 y_13_ ^ 2 - 2 y_85_ * y_13_ + 1 y_85_ ^ 2 ] <= 12235.14
quadratic_ranged_433_ub: [ 1 x_34_ ^ 2 - 2 x_85_ * x_34_ + 1 x_85_ ^ 2 + 1 y_34_ ^ 2 - 2 y_85_ * y_34_ + 1 y_85_ ^ 2 ] <= 58.58
quadratic_ranged_434_ub: [ 1 x_38_ ^ 2 - 2 x_85_ * x_38_ + 1 x_85_ ^ 2 + 1 y_38_ ^ 2 - 2 y_85_ * y_38_ + 1 y_85_ ^ 2 ] <= 4373.3
quadratic_ranged_435_ub: [ 1 x_44_ ^ 2 - 2 x_85_ * x_44_ + 1 x_85_ ^ 2 + 1 y_44_ ^ 2 - 2 y_85_ * y_44_ + 1 y_85_ ^ 2 ] <= 800.9300000000001
quadratic_ranged_436_ub: [ 1 x_77_ ^ 2 - 2 x_85_ * x_77_ + 1 x_85_ ^ 2 + 1 y_77_ ^ 2 - 2 y_85_ * y_77_ + 1 y_85_ ^ 2 ] <= 24078.4
quadratic_ranged_437_ub: [ 1 x_84_ ^ 2 - 2 x_85_ * x_84_ + 1 x_85_ ^ 2 + 1 y_84_ ^ 2 - 2 y_85_ * y_84_ + 1 y_85_ ^ 2 ] <= 20296.96
quadratic_ranged_438_ub: [ 1 x_32_ ^ 2 - 2 x_86_ * x_32_ + 1 x_86_ ^ 2 + 1 y_32_ ^ 2 - 2 y_86_ * y_32_ + 1 y_86_ ^ 2 ] <= 34123.86
quadratic_ranged_439_ub: [ 1 x_47_ ^ 2 - 2 x_86_ * x_47_ + 1 x_86_ ^ 2 + 1 y_47_ ^ 2 - 2 y_86_ * y_47_ + 1 y_86_ ^ 2 ] <= 12900.73
quadratic_ranged_440_ub: [ 1 x_50_ ^ 2 - 2 x_86_ * x_50_ + 1 x_86_ ^ 2 + 1 y_50_ ^ 2 - 2 y_86_ * y_50_ + 1 y_86_ ^ 2 ] <= 3724.88
quadratic_ranged_441_ub: [ 1 x_63_ ^ 2 - 2 x_86_ * x_63_ + 1 x_86_ ^ 2 + 1 y_63_ ^ 2 - 2 y_86_ * y_63_ + 1 y_86_ ^ 2 ] <= 33153.25
quadratic_ranged_442_ub: [ 1 x_71_ ^ 2 - 2 x_86_ * x_71_ + 1 x_86_ ^ 2 + 1 y_71_ ^ 2 - 2 y_86_ * y_71_ + 1 y_86_ ^ 2 ] <= 5685.29
quadratic_ranged_443_ub: [ 1 x_74_ ^ 2 - 2 x_86_ * x_74_ + 1 x_86_ ^ 2 + 1 y_74_ ^ 2 - 2 y_86_ * y_74_ + 1 y_86_ ^ 2 ] <= 17521.48
quadratic_ranged_444_ub: [ 1 x_76_ ^ 2 - 2 x_86_ * x_76_ + 1 x_86_ ^ 2 + 1 y_76_ ^ 2 - 2 y_86_ * y_76_ + 1 y_86_ ^ 2 ] <= 17312.41
quadratic_ranged_445_ub: [ 1 x_82_ ^ 2 - 2 x_86_ * x_82_ + 1 x_86_ ^ 2 + 1 y_82_ ^ 2 - 2 y_86_ * y_82_ + 1 y_86_ ^ 2 ] <= 45397.48
quadratic_ranged_446_ub: [ 1 x_85_ ^ 2 - 2 x_86_ * x_85_ + 1 x_86_ ^ 2 + 1 y_85_ ^ 2 - 2 y_86_ * y_85_ + 1 y_86_ ^ 2 ] <= 30310.1
quadratic_ranged_447_ub: [ 1 x_1_ ^ 2 - 2 x_87_ * x_1_ + 1 x_87_ ^ 2 + 1 y_1_ ^ 2 - 2 y_87_ * y_1_ + 1 y_87_ ^ 2 ] <= 10961.53
quadratic_ranged_448_ub: [ 1 x_23_ ^ 2 - 2 x_87_ * x_23_ + 1 x_87_ ^ 2 + 1 y_23_ ^ 2 - 2 y_87_ * y_23_ + 1 y_87_ ^ 2 ] <= 36688.25
quadratic_ranged_449_ub: [ 1 x_24_ ^ 2 - 2 x_87_ * x_24_ + 1 x_87_ ^ 2 + 1 y_24_ ^ 2 - 2 y_87_ * y_24_ + 1 y_87_ ^ 2 ] <= 19283.93
quadratic_ranged_450_ub: [ 1 x_38_ ^ 2 - 2 x_87_ * x_38_ + 1 x_87_ ^ 2 + 1 y_38_ ^ 2 - 2 y_87_ * y_38_ + 1 y_87_ ^ 2 ] <= 13761.25
quadratic_ranged_451_ub: [ 1 x_63_ ^ 2 - 2 x_87_ * x_63_ + 1 x_87_ ^ 2 + 1 y_63_ ^ 2 - 2 y_87_ * y_63_ + 1 y_87_ ^ 2 ] <= 24926.8
quadratic_ranged_452_ub: [ 1 x_70_ ^ 2 - 2 x_87_ * x_70_ + 1 x_87_ ^ 2 + 1 y_70_ ^ 2 - 2 y_87_ * y_70_ + 1 y_87_ ^ 2 ] <= 18745.6
quadratic_ranged_453_ub: [ 1 x_73_ ^ 2 - 2 x_87_ * x_73_ + 1 x_87_ ^ 2 + 1 y_73_ ^ 2 - 2 y_87_ * y_73_ + 1 y_87_ ^ 2 ] <= 29396.05
quadratic_ranged_454_ub: [ 1 x_85_ ^ 2 - 2 x_87_ * x_85_ + 1 x_87_ ^ 2 + 1 y_85_ ^ 2 - 2 y_87_ * y_85_ + 1 y_87_ ^ 2 ] <= 15336.85
quadratic_ranged_455_ub: [ 1 x_86_ ^ 2 - 2 x_87_ * x_86_ + 1 x_87_ ^ 2 + 1 y_86_ ^ 2 - 2 y_87_ * y_86_ + 1 y_87_ ^ 2 ] <= 20851.45
quadratic_ranged_456_ub: [ 1 x_41_ ^ 2 - 2 x_88_ * x_41_ + 1 x_88_ ^ 2 + 1 y_41_ ^ 2 - 2 y_88_ * y_41_ + 1 y_88_ ^ 2 ] <= 24888.420000000002
quadratic_ranged_457_ub: [ 1 x_52_ ^ 2 - 2 x_88_ * x_52_ + 1 x_88_ ^ 2 + 1 y_52_ ^ 2 - 2 y_88_ * y_52_ + 1 y_88_ ^ 2 ] <= 3156.25
quadratic_ranged_458_ub: [ 1 x_87_ ^ 2 - 2 x_88_ * x_87_ + 1 x_88_ ^ 2 + 1 y_87_ ^ 2 - 2 y_88_ * y_87_ + 1 y_88_ ^ 2 ] <= 13842.05
quadratic_ranged_459_ub: [ 1 x_1_ ^ 2 - 2 x_89_ * x_1_ + 1 x_89_ ^ 2 + 1 y_1_ ^ 2 - 2 y_89_ * y_1_ + 1 y_89_ ^ 2 ] <= 22002.85
quadratic_ranged_460_ub: [ 1 x_6_ ^ 2 - 2 x_89_ * x_6_ + 1 x_89_ ^ 2 + 1 y_6_ ^ 2 - 2 y_89_ * y_6_ + 1 y_89_ ^ 2 ] <= 22996.69
quadratic_ranged_461_ub: [ 1 x_16_ ^ 2 - 2 x_89_ * x_16_ + 1 x_89_ ^ 2 + 1 y_16_ ^ 2 - 2 y_89_ * y_16_ + 1 y_89_ ^ 2 ] <= 10331.29
quadratic_ranged_462_ub: [ 1 x_18_ ^ 2 - 2 x_89_ * x_18_ + 1 x_89_ ^ 2 + 1 y_18_ ^ 2 - 2 y_89_ * y_18_ + 1 y_89_ ^ 2 ] <= 14694.49
quadratic_ranged_463_ub: [ 1 x_35_ ^ 2 - 2 x_89_ * x_35_ + 1 x_89_ ^ 2 + 1 y_35_ ^ 2 - 2 y_89_ * y_35_ + 1 y_89_ ^ 2 ] <= 18993.05
quadratic_ranged_464_ub: [ 1 x_49_ ^ 2 - 2 x_89_ * x_49_ + 1 x_89_ ^ 2 + 1 y_49_ ^ 2 - 2 y_89_ * y_49_ + 1 y_89_ ^ 2 ] <= 10875.68
quadratic_ranged_465_ub: [ 1 x_62_ ^ 2 - 2 x_89_ * x_62_ + 1 x_89_ ^ 2 + 1 y_62_ ^ 2 - 2 y_89_ * y_62_ + 1 y_89_ ^ 2 ] <= 29647.54
quadratic_ranged_466_ub: [ 1 x_63_ ^ 2 - 2 x_89_ * x_63_ + 1 x_89_ ^ 2 + 1 y_63_ ^ 2 - 2 y_89_ * y_63_ + 1 y_89_ ^ 2 ] <= 22139.2
quadratic_ranged_467_ub: [ 1 x_69_ ^ 2 - 2 x_89_ * x_69_ + 1 x_89_ ^ 2 + 1 y_69_ ^ 2 - 2 y_89_ * y_69_ + 1 y_89_ ^ 2 ] <= 1383.7
quadratic_ranged_468_ub: [ 1 x_73_ ^ 2 - 2 x_89_ * x_73_ + 1 x_89_ ^ 2 + 1 y_73_ ^ 2 - 2 y_89_ * y_73_ + 1 y_89_ ^ 2 ] <= 30305.05
quadratic_ranged_469_ub: [ 1 x_84_ ^ 2 - 2 x_89_ * x_84_ + 1 x_89_ ^ 2 + 1 y_84_ ^ 2 - 2 y_89_ * y_84_ + 1 y_89_ ^ 2 ] <= 13579.45
quadratic_ranged_470_ub: [ 1 x_86_ ^ 2 - 2 x_89_ * x_86_ + 1 x_89_ ^ 2 + 1 y_86_ ^ 2 - 2 y_89_ * y_86_ + 1 y_89_ ^ 2 ] <= 33597.65
quadratic_ranged_471_ub: [ 1 x_88_ ^ 2 - 2 x_89_ * x_88_ + 1 x_89_ ^ 2 + 1 y_88_ ^ 2 - 2 y_89_ * y_88_ + 1 y_89_ ^ 2 ] <= 23711.77
quadratic_ranged_472_ub: [ 1 x_6_ ^ 2 - 2 x_90_ * x_6_ + 1 x_90_ ^ 2 + 1 y_6_ ^ 2 - 2 y_90_ * y_6_ + 1 y_90_ ^ 2 ] <= 11199.89
quadratic_ranged_473_ub: [ 1 x_10_ ^ 2 - 2 x_90_ * x_10_ + 1 x_90_ ^ 2 + 1 y_10_ ^ 2 - 2 y_90_ * y_10_ + 1 y_90_ ^ 2 ] <= 5867.09
quadratic_ranged_474_ub: [ 1 x_15_ ^ 2 - 2 x_90_ * x_15_ + 1 x_90_ ^ 2 + 1 y_15_ ^ 2 - 2 y_90_ * y_15_ + 1 y_90_ ^ 2 ] <= 3338.05
quadratic_ranged_475_ub: [ 1 x_18_ ^ 2 - 2 x_90_ * x_18_ + 1 x_90_ ^ 2 + 1 y_18_ ^ 2 - 2 y_90_ * y_18_ + 1 y_90_ ^ 2 ] <= 4085.45
quadratic_ranged_476_ub: [ 1 x_35_ ^ 2 - 2 x_90_ * x_35_ + 1 x_90_ ^ 2 + 1 y_35_ ^ 2 - 2 y_90_ * y_35_ + 1 y_90_ ^ 2 ] <= 9139.49
quadratic_ranged_477_ub: [ 1 x_57_ ^ 2 - 2 x_90_ * x_57_ + 1 x_90_ ^ 2 + 1 y_57_ ^ 2 - 2 y_90_ * y_57_ + 1 y_90_ ^ 2 ] <= 2049.29
quadratic_ranged_478_ub: [ 1 x_59_ ^ 2 - 2 x_90_ * x_59_ + 1 x_90_ ^ 2 + 1 y_59_ ^ 2 - 2 y_90_ * y_59_ + 1 y_90_ ^ 2 ] <= 910.01
quadratic_ranged_479_ub: [ 1 x_60_ ^ 2 - 2 x_90_ * x_60_ + 1 x_90_ ^ 2 + 1 y_60_ ^ 2 - 2 y_90_ * y_60_ + 1 y_90_ ^ 2 ] <= 3394.61
quadratic_ranged_480_ub: [ 1 x_79_ ^ 2 - 2 x_90_ * x_79_ + 1 x_90_ ^ 2 + 1 y_79_ ^ 2 - 2 y_90_ * y_79_ + 1 y_90_ ^ 2 ] <= 1480.66
quadratic_ranged_481_ub: [ 1 x_89_ ^ 2 - 2 x_90_ * x_89_ + 1 x_90_ ^ 2 + 1 y_89_ ^ 2 - 2 y_90_ * y_89_ + 1 y_90_ ^ 2 ] <= 4704.58
quadratic_ranged_482_ub: [ 1 x_2_ ^ 2 - 2 x_91_ * x_2_ + 1 x_91_ ^ 2 + 1 y_2_ ^ 2 - 2 y_91_ * y_2_ + 1 y_91_ ^ 2 ] <= 18818.32
quadratic_ranged_483_ub: [ 1 x_5_ ^ 2 - 2 x_91_ * x_5_ + 1 x_91_ ^ 2 + 1 y_5_ ^ 2 - 2 y_91_ * y_5_ + 1 y_91_ ^ 2 ] <= 914.05
quadratic_ranged_484_ub: [ 1 x_8_ ^ 2 - 2 x_91_ * x_8_ + 1 x_91_ ^ 2 + 1 y_8_ ^ 2 - 2 y_91_ * y_8_ + 1 y_91_ ^ 2 ] <= 14714.69
quadratic_ranged_485_ub: [ 1 x_31_ ^ 2 - 2 x_91_ * x_31_ + 1 x_91_ ^ 2 + 1 y_31_ ^ 2 - 2 y_91_ * y_31_ + 1 y_91_ ^ 2 ] <= 19379.88
quadratic_ranged_486_ub: [ 1 x_38_ ^ 2 - 2 x_91_ * x_38_ + 1 x_91_ ^ 2 + 1 y_38_ ^ 2 - 2 y_91_ * y_38_ + 1 y_91_ ^ 2 ] <= 3080.5
quadratic_ranged_487_ub: [ 1 x_44_ ^ 2 - 2 x_91_ * x_44_ + 1 x_91_ ^ 2 + 1 y_44_ ^ 2 - 2 y_91_ * y_44_ + 1 y_91_ ^ 2 ] <= 19090.01
quadratic_ranged_488_ub: [ 1 x_50_ ^ 2 - 2 x_91_ * x_50_ + 1 x_91_ ^ 2 + 1 y_50_ ^ 2 - 2 y_91_ * y_50_ + 1 y_91_ ^ 2 ] <= 9681.86
quadratic_ranged_489_ub: [ 1 x_55_ ^ 2 - 2 x_91_ * x_55_ + 1 x_91_ ^ 2 + 1 y_55_ ^ 2 - 2 y_91_ * y_55_ + 1 y_91_ ^ 2 ] <= 11348.36
quadratic_ranged_490_ub: [ 1 x_77_ ^ 2 - 2 x_91_ * x_77_ + 1 x_91_ ^ 2 + 1 y_77_ ^ 2 - 2 y_91_ * y_77_ + 1 y_91_ ^ 2 ] <= 36461
quadratic_ranged_491_ub: [ 1 x_90_ ^ 2 - 2 x_91_ * x_90_ + 1 x_91_ ^ 2 + 1 y_90_ ^ 2 - 2 y_91_ * y_90_ + 1 y_91_ ^ 2 ] <= 13345.130000000001
quadratic_ranged_492_ub: [ 1 x_7_ ^ 2 - 2 x_92_ * x_7_ + 1 x_92_ ^ 2 + 1 y_7_ ^ 2 - 2 y_92_ * y_7_ + 1 y_92_ ^ 2 ] <= 1301.89
quadratic_ranged_493_ub: [ 1 x_20_ ^ 2 - 2 x_92_ * x_20_ + 1 x_92_ ^ 2 + 1 y_20_ ^ 2 - 2 y_92_ * y_20_ + 1 y_92_ ^ 2 ] <= 1656.4
quadratic_ranged_494_ub: [ 1 x_21_ ^ 2 - 2 x_92_ * x_21_ + 1 x_92_ ^ 2 + 1 y_21_ ^ 2 - 2 y_92_ * y_21_ + 1 y_92_ ^ 2 ] <= 2676.5
quadratic_ranged_495_ub: [ 1 x_46_ ^ 2 - 2 x_92_ * x_46_ + 1 x_92_ ^ 2 + 1 y_46_ ^ 2 - 2 y_92_ * y_46_ + 1 y_92_ ^ 2 ] <= 18702.170000000002
quadratic_ranged_496_ub: [ 1 x_57_ ^ 2 - 2 x_92_ * x_57_ + 1 x_92_ ^ 2 + 1 y_57_ ^ 2 - 2 y_92_ * y_57_ + 1 y_92_ ^ 2 ] <= 7943.65
quadratic_ranged_497_ub: [ 1 x_58_ ^ 2 - 2 x_92_ * x_58_ + 1 x_92_ ^ 2 + 1 y_58_ ^ 2 - 2 y_92_ * y_58_ + 1 y_92_ ^ 2 ] <= 2876.48
quadratic_ranged_498_ub: [ 1 x_72_ ^ 2 - 2 x_92_ * x_72_ + 1 x_92_ ^ 2 + 1 y_72_ ^ 2 - 2 y_92_ * y_72_ + 1 y_92_ ^ 2 ] <= 5790.33
quadratic_ranged_499_ub: [ 1 x_77_ ^ 2 - 2 x_92_ * x_77_ + 1 x_92_ ^ 2 + 1 y_77_ ^ 2 - 2 y_92_ * y_77_ + 1 y_92_ ^ 2 ] <= 11337.25
quadratic_ranged_500_ub: [ 1 x_91_ ^ 2 - 2 x_92_ * x_91_ + 1 x_92_ ^ 2 + 1 y_91_ ^ 2 - 2 y_92_ * y_91_ + 1 y_92_ ^ 2 ] <= 7192.21
quadratic_ranged_501_ub: [ 1 x_1_ ^ 2 - 2 x_93_ * x_1_ + 1 x_93_ ^ 2 + 1 y_1_ ^ 2 - 2 y_93_ * y_1_ + 1 y_93_ ^ 2 ] <= 20390.89
quadratic_ranged_502_ub: [ 1 x_40_ ^ 2 - 2 x_93_ * x_40_ + 1 x_93_ ^ 2 + 1 y_40_ ^ 2 - 2 y_93_ * y_40_ + 1 y_93_ ^ 2 ] <= 6613.4800000000005
quadratic_ranged_503_ub: [ 1 x_49_ ^ 2 - 2 x_93_ * x_49_ + 1 x_93_ ^ 2 + 1 y_49_ ^ 2 - 2 y_93_ * y_49_ + 1 y_93_ ^ 2 ] <= 2638.12
quadratic_ranged_504_ub: [ 1 x_53_ ^ 2 - 2 x_93_ * x_53_ + 1 x_93_ ^ 2 + 1 y_53_ ^ 2 - 2 y_93_ * y_53_ + 1 y_93_ ^ 2 ] <= 9773.77
quadratic_ranged_505_ub: [ 1 x_75_ ^ 2 - 2 x_93_ * x_75_ + 1 x_93_ ^ 2 + 1 y_75_ ^ 2 - 2 y_93_ * y_75_ + 1 y_93_ ^ 2 ] <= 5325.7300000000005
quadratic_ranged_506_ub: [ 1 x_90_ ^ 2 - 2 x_93_ * x_90_ + 1 x_93_ ^ 2 + 1 y_90_ ^ 2 - 2 y_93_ * y_90_ + 1 y_93_ ^ 2 ] <= 8566.82
quadratic_ranged_507_ub: [ 1 x_92_ ^ 2 - 2 x_93_ * x_92_ + 1 x_93_ ^ 2 + 1 y_92_ ^ 2 - 2 y_93_ * y_92_ + 1 y_93_ ^ 2 ] <= 6213.52
quadratic_ranged_508_ub: [ 1 x_21_ ^ 2 - 2 x_94_ * x_21_ + 1 x_94_ ^ 2 + 1 y_21_ ^ 2 - 2 y_94_ * y_21_ + 1 y_94_ ^ 2 ] <= 13478.45
quadratic_ranged_509_ub: [ 1 x_22_ ^ 2 - 2 x_94_ * x_22_ + 1 x_94_ ^ 2 + 1 y_22_ ^ 2 - 2 y_94_ * y_22_ + 1 y_94_ ^ 2 ] <= 2332.09
quadratic_ranged_510_ub: [ 1 x_33_ ^ 2 - 2 x_94_ * x_33_ + 1 x_94_ ^ 2 + 1 y_33_ ^ 2 - 2 y_94_ * y_33_ + 1 y_94_ ^ 2 ] <= 16370.08
quadratic_ranged_511_ub: [ 1 x_44_ ^ 2 - 2 x_94_ * x_44_ + 1 x_94_ ^ 2 + 1 y_44_ ^ 2 - 2 y_94_ * y_44_ + 1 y_94_ ^ 2 ] <= 25101.53
quadratic_ranged_512_ub: [ 1 x_48_ ^ 2 - 2 x_94_ * x_48_ + 1 x_94_ ^ 2 + 1 y_48_ ^ 2 - 2 y_94_ * y_48_ + 1 y_94_ ^ 2 ] <= 10427.24
quadratic_ranged_513_ub: [ 1 x_50_ ^ 2 - 2 x_94_ * x_50_ + 1 x_94_ ^ 2 + 1 y_50_ ^ 2 - 2 y_94_ * y_50_ + 1 y_94_ ^ 2 ] <= 4130.9
quadratic_ranged_514_ub: [ 1 x_64_ ^ 2 - 2 x_94_ * x_64_ + 1 x_94_ ^ 2 + 1 y_64_ ^ 2 - 2 y_94_ * y_64_ + 1 y_94_ ^ 2 ] <= 35632.8
quadratic_ranged_515_ub: [ 1 x_76_ ^ 2 - 2 x_94_ * x_76_ + 1 x_94_ ^ 2 + 1 y_76_ ^ 2 - 2 y_94_ * y_76_ + 1 y_94_ ^ 2 ] <= 14553.09
quadratic_ranged_516_ub: [ 1 x_93_ ^ 2 - 2 x_94_ * x_93_ + 1 x_94_ ^ 2 + 1 y_93_ ^ 2 - 2 y_94_ * y_93_ + 1 y_94_ ^ 2 ] <= 6707.41
quadratic_ranged_517_ub: [ 1 x_13_ ^ 2 - 2 x_95_ * x_13_ + 1 x_95_ ^ 2 + 1 y_13_ ^ 2 - 2 y_95_ * y_13_ + 1 y_95_ ^ 2 ] <= 659.53
quadratic_ranged_518_ub: [ 1 x_14_ ^ 2 - 2 x_95_ * x_14_ + 1 x_95_ ^ 2 + 1 y_14_ ^ 2 - 2 y_95_ * y_14_ + 1 y_95_ ^ 2 ] <= 45293.45
quadratic_ranged_519_ub: [ 1 x_19_ ^ 2 - 2 x_95_ * x_19_ + 1 x_95_ ^ 2 + 1 y_19_ ^ 2 - 2 y_95_ * y_19_ + 1 y_95_ ^ 2 ] <= 5631.76
quadratic_ranged_520_ub: [ 1 x_21_ ^ 2 - 2 x_95_ * x_21_ + 1 x_95_ ^ 2 + 1 y_21_ ^ 2 - 2 y_95_ * y_21_ + 1 y_95_ ^ 2 ] <= 24686.420000000002
quadratic_ranged_521_ub: [ 1 x_34_ ^ 2 - 2 x_95_ * x_34_ + 1 x_95_ ^ 2 + 1 y_34_ ^ 2 - 2 y_95_ * y_34_ + 1 y_95_ ^ 2 ] <= 14803.57
quadratic_ranged_522_ub: [ 1 x_41_ ^ 2 - 2 x_95_ * x_41_ + 1 x_95_ ^ 2 + 1 y_41_ ^ 2 - 2 y_95_ * y_41_ + 1 y_95_ ^ 2 ] <= 11890.73
quadratic_ranged_523_ub: [ 1 x_53_ ^ 2 - 2 x_95_ * x_53_ + 1 x_95_ ^ 2 + 1 y_53_ ^ 2 - 2 y_95_ * y_53_ + 1 y_95_ ^ 2 ] <= 15688.33
quadratic_ranged_524_ub: [ 1 x_66_ ^ 2 - 2 x_95_ * x_66_ + 1 x_95_ ^ 2 + 1 y_66_ ^ 2 - 2 y_95_ * y_66_ + 1 y_95_ ^ 2 ] <= 39492.01
quadratic_ranged_525_ub: [ 1 x_87_ ^ 2 - 2 x_95_ * x_87_ + 1 x_95_ ^ 2 + 1 y_87_ ^ 2 - 2 y_95_ * y_87_ + 1 y_95_ ^ 2 ] <= 34505.64
quadratic_ranged_526_ub: [ 1 x_94_ ^ 2 - 2 x_95_ * x_94_ + 1 x_95_ ^ 2 + 1 y_94_ ^ 2 - 2 y_95_ * y_94_ + 1 y_95_ ^ 2 ] <= 5745.89
quadratic_ranged_527_ub: [ 1 x_5_ ^ 2 - 2 x_96_ * x_5_ + 1 x_96_ ^ 2 + 1 y_5_ ^ 2 - 2 y_96_ * y_5_ + 1 y_96_ ^ 2 ] <= 13873.36
quadratic_ranged_528_ub: [ 1 x_12_ ^ 2 - 2 x_96_ * x_12_ + 1 x_96_ ^ 2 + 1 y_12_ ^ 2 - 2 y_96_ * y_12_ + 1 y_96_ ^ 2 ] <= 198.97
quadratic_ranged_529_ub: [ 1 x_18_ ^ 2 - 2 x_96_ * x_18_ + 1 x_96_ ^ 2 + 1 y_18_ ^ 2 - 2 y_96_ * y_18_ + 1 y_96_ ^ 2 ] <= 3883.45
quadratic_ranged_530_ub: [ 1 x_27_ ^ 2 - 2 x_96_ * x_27_ + 1 x_96_ ^ 2 + 1 y_27_ ^ 2 - 2 y_96_ * y_27_ + 1 y_96_ ^ 2 ] <= 2765.38
quadratic_ranged_531_ub: [ 1 x_43_ ^ 2 - 2 x_96_ * x_43_ + 1 x_96_ ^ 2 + 1 y_43_ ^ 2 - 2 y_96_ * y_43_ + 1 y_96_ ^ 2 ] <= 4437.94
quadratic_ranged_532_ub: [ 1 x_46_ ^ 2 - 2 x_96_ * x_46_ + 1 x_96_ ^ 2 + 1 y_46_ ^ 2 - 2 y_96_ * y_46_ + 1 y_96_ ^ 2 ] <= 11979.61
quadratic_ranged_533_ub: [ 1 x_84_ ^ 2 - 2 x_96_ * x_84_ + 1 x_96_ ^ 2 + 1 y_84_ ^ 2 - 2 y_96_ * y_84_ + 1 y_96_ ^ 2 ] <= 5018.69
quadratic_ranged_534_ub: [ 1 x_91_ ^ 2 - 2 x_96_ * x_91_ + 1 x_96_ ^ 2 + 1 y_91_ ^ 2 - 2 y_96_ * y_91_ + 1 y_96_ ^ 2 ] <= 12916.89
quadratic_ranged_535_ub: [ 1 x_95_ ^ 2 - 2 x_96_ * x_95_ + 1 x_96_ ^ 2 + 1 y_95_ ^ 2 - 2 y_96_ * y_95_ + 1 y_96_ ^ 2 ] <= 17624.5
quadratic_ranged_536_ub: [ 1 x_8_ ^ 2 - 2 x_97_ * x_8_ + 1 x_97_ ^ 2 + 1 y_8_ ^ 2 - 2 y_97_ * y_8_ + 1 y_97_ ^ 2 ] <= 30770.66
quadratic_ranged_537_ub: [ 1 x_16_ ^ 2 - 2 x_97_ * x_16_ + 1 x_97_ ^ 2 + 1 y_16_ ^ 2 - 2 y_97_ * y_16_ + 1 y_97_ ^ 2 ] <= 8331.49
quadratic_ranged_538_ub: [ 1 x_25_ ^ 2 - 2 x_97_ * x_25_ + 1 x_97_ ^ 2 + 1 y_25_ ^ 2 - 2 y_97_ * y_25_ + 1 y_97_ ^ 2 ] <= 989.8
quadratic_ranged_539_ub: [ 1 x_29_ ^ 2 - 2 x_97_ * x_29_ + 1 x_97_ ^ 2 + 1 y_29_ ^ 2 - 2 y_97_ * y_29_ + 1 y_97_ ^ 2 ] <= 34567.25
quadratic_ranged_540_ub: [ 1 x_31_ ^ 2 - 2 x_97_ * x_31_ + 1 x_97_ ^ 2 + 1 y_31_ ^ 2 - 2 y_97_ * y_31_ + 1 y_97_ ^ 2 ] <= 19021.33
quadratic_ranged_541_ub: [ 1 x_32_ ^ 2 - 2 x_97_ * x_32_ + 1 x_97_ ^ 2 + 1 y_32_ ^ 2 - 2 y_97_ * y_32_ + 1 y_97_ ^ 2 ] <= 34377.37
quadratic_ranged_542_ub: [ 1 x_36_ ^ 2 - 2 x_97_ * x_36_ + 1 x_97_ ^ 2 + 1 y_36_ ^ 2 - 2 y_97_ * y_36_ + 1 y_97_ ^ 2 ] <= 49271.840000000004
quadratic_ranged_543_ub: [ 1 x_46_ ^ 2 - 2 x_97_ * x_46_ + 1 x_97_ ^ 2 + 1 y_46_ ^ 2 - 2 y_97_ * y_46_ + 1 y_97_ ^ 2 ] <= 25368.170000000002
quadratic_ranged_544_ub: [ 1 x_62_ ^ 2 - 2 x_97_ * x_62_ + 1 x_97_ ^ 2 + 1 y_62_ ^ 2 - 2 y_97_ * y_62_ + 1 y_97_ ^ 2 ] <= 40191.94
quadratic_ranged_545_ub: [ 1 x_81_ ^ 2 - 2 x_97_ * x_81_ + 1 x_97_ ^ 2 + 1 y_81_ ^ 2 - 2 y_97_ * y_81_ + 1 y_97_ ^ 2 ] <= 6595.3
quadratic_ranged_546_ub: [ 1 x_88_ ^ 2 - 2 x_97_ * x_88_ + 1 x_97_ ^ 2 + 1 y_88_ ^ 2 - 2 y_97_ * y_88_ + 1 y_97_ ^ 2 ] <= 26196.37
quadratic_ranged_547_ub: [ 1 x_89_ ^ 2 - 2 x_97_ * x_89_ + 1 x_97_ ^ 2 + 1 y_89_ ^ 2 - 2 y_97_ * y_89_ + 1 y_97_ ^ 2 ] <= 1010
quadratic_ranged_548_ub: [ 1 x_96_ ^ 2 - 2 x_97_ * x_96_ + 1 x_97_ ^ 2 + 1 y_96_ ^ 2 - 2 y_97_ * y_96_ + 1 y_97_ ^ 2 ] <= 8170.9
quadratic_ranged_549_ub: [ 1 x_6_ ^ 2 - 2 x_98_ * x_6_ + 1 x_98_ ^ 2 + 1 y_6_ ^ 2 - 2 y_98_ * y_6_ + 1 y_98_ ^ 2 ] <= 15781.25
quadratic_ranged_550_ub: [ 1 x_9_ ^ 2 - 2 x_98_ * x_9_ + 1 x_98_ ^ 2 + 1 y_9_ ^ 2 - 2 y_98_ * y_9_ + 1 y_98_ ^ 2 ] <= 12145.25
quadratic_ranged_551_ub: [ 1 x_20_ ^ 2 - 2 x_98_ * x_20_ + 1 x_98_ ^ 2 + 1 y_20_ ^ 2 - 2 y_98_ * y_20_ + 1 y_98_ ^ 2 ] <= 682.76
quadratic_ranged_552_ub: [ 1 x_25_ ^ 2 - 2 x_98_ * x_25_ + 1 x_98_ ^ 2 + 1 y_25_ ^ 2 - 2 y_98_ * y_25_ + 1 y_98_ ^ 2 ] <= 11445.32
quadratic_ranged_553_ub: [ 1 x_28_ ^ 2 - 2 x_98_ * x_28_ + 1 x_98_ ^ 2 + 1 y_28_ ^ 2 - 2 y_98_ * y_28_ + 1 y_98_ ^ 2 ] <= 5391.38
quadratic_ranged_554_ub: [ 1 x_35_ ^ 2 - 2 x_98_ * x_35_ + 1 x_98_ ^ 2 + 1 y_35_ ^ 2 - 2 y_98_ * y_35_ + 1 y_98_ ^ 2 ] <= 14233.93
quadratic_ranged_555_ub: [ 1 x_38_ ^ 2 - 2 x_98_ * x_38_ + 1 x_98_ ^ 2 + 1 y_38_ ^ 2 - 2 y_98_ * y_38_ + 1 y_98_ ^ 2 ] <= 4247.05
quadratic_ranged_556_ub: [ 1 x_47_ ^ 2 - 2 x_98_ * x_47_ + 1 x_98_ ^ 2 + 1 y_47_ ^ 2 - 2 y_98_ * y_47_ + 1 y_98_ ^ 2 ] <= 2217.96
quadratic_ranged_557_ub: [ 1 x_52_ ^ 2 - 2 x_98_ * x_52_ + 1 x_98_ ^ 2 + 1 y_52_ ^ 2 - 2 y_98_ * y_52_ + 1 y_98_ ^ 2 ] <= 597.92
quadratic_ranged_558_ub: [ 1 x_56_ ^ 2 - 2 x_98_ * x_56_ + 1 x_98_ ^ 2 + 1 y_56_ ^ 2 - 2 y_98_ * y_56_ + 1 y_98_ ^ 2 ] <= 1222.1
quadratic_ranged_559_ub: [ 1 x_61_ ^ 2 - 2 x_98_ * x_61_ + 1 x_98_ ^ 2 + 1 y_61_ ^ 2 - 2 y_98_ * y_61_ + 1 y_98_ ^ 2 ] <= 9182.92
quadratic_ranged_560_ub: [ 1 x_66_ ^ 2 - 2 x_98_ * x_66_ + 1 x_98_ ^ 2 + 1 y_66_ ^ 2 - 2 y_98_ * y_66_ + 1 y_98_ ^ 2 ] <= 5883.25
quadratic_ranged_561_ub: [ 1 x_70_ ^ 2 - 2 x_98_ * x_70_ + 1 x_98_ ^ 2 + 1 y_70_ ^ 2 - 2 y_98_ * y_70_ + 1 y_98_ ^ 2 ] <= 17460.88
quadratic_ranged_562_ub: [ 1 x_73_ ^ 2 - 2 x_98_ * x_73_ + 1 x_98_ ^ 2 + 1 y_73_ ^ 2 - 2 y_98_ * y_73_ + 1 y_98_ ^ 2 ] <= 15445.93
quadratic_ranged_563_ub: [ 1 x_77_ ^ 2 - 2 x_98_ * x_77_ + 1 x_98_ ^ 2 + 1 y_77_ ^ 2 - 2 y_98_ * y_77_ + 1 y_98_ ^ 2 ] <= 8375.93
quadratic_ranged_564_ub: [ 1 x_87_ ^ 2 - 2 x_98_ * x_87_ + 1 x_98_ ^ 2 + 1 y_87_ ^ 2 - 2 y_98_ * y_87_ + 1 y_98_ ^ 2 ] <= 4726.8
quadratic_ranged_565_ub: [ 1 x_97_ ^ 2 - 2 x_98_ * x_97_ + 1 x_98_ ^ 2 + 1 y_97_ ^ 2 - 2 y_98_ * y_97_ + 1 y_98_ ^ 2 ] <= 12548.24
quadratic_ranged_566_ub: [ 1 x_5_ ^ 2 - 2 x_99_ * x_5_ + 1 x_99_ ^ 2 + 1 y_5_ ^ 2 - 2 y_99_ * y_5_ + 1 y_99_ ^ 2 ] <= 10382.8
quadratic_ranged_567_ub: [ 1 x_9_ ^ 2 - 2 x_99_ * x_9_ + 1 x_99_ ^ 2 + 1 y_9_ ^ 2 - 2 y_99_ * y_9_ + 1 y_99_ ^ 2 ] <= 13971.33
quadratic_ranged_568_ub: [ 1 x_42_ ^ 2 - 2 x_99_ * x_42_ + 1 x_99_ ^ 2 + 1 y_42_ ^ 2 - 2 y_99_ * y_42_ + 1 y_99_ ^ 2 ] <= 6182.21
quadratic_ranged_569_ub: [ 1 x_44_ ^ 2 - 2 x_99_ * x_44_ + 1 x_99_ ^ 2 + 1 y_44_ ^ 2 - 2 y_99_ * y_44_ + 1 y_99_ ^ 2 ] <= 1264.52
quadratic_ranged_570_ub: [ 1 x_50_ ^ 2 - 2 x_99_ * x_50_ + 1 x_99_ ^ 2 + 1 y_50_ ^ 2 - 2 y_99_ * y_50_ + 1 y_99_ ^ 2 ] <= 9903.05
quadratic_ranged_571_ub: [ 1 x_66_ ^ 2 - 2 x_99_ * x_66_ + 1 x_99_ ^ 2 + 1 y_66_ ^ 2 - 2 y_99_ * y_66_ + 1 y_99_ ^ 2 ] <= 12908.81
quadratic_ranged_572_ub: [ 1 x_67_ ^ 2 - 2 x_99_ * x_67_ + 1 x_99_ ^ 2 + 1 y_67_ ^ 2 - 2 y_99_ * y_67_ + 1 y_99_ ^ 2 ] <= 10863.56
quadratic_ranged_573_ub: [ 1 x_75_ ^ 2 - 2 x_99_ * x_75_ + 1 x_99_ ^ 2 + 1 y_75_ ^ 2 - 2 y_99_ * y_75_ + 1 y_99_ ^ 2 ] <= 12424.01
quadratic_ranged_574_ub: [ 1 x_80_ ^ 2 - 2 x_99_ * x_80_ + 1 x_99_ ^ 2 + 1 y_80_ ^ 2 - 2 y_99_ * y_80_ + 1 y_99_ ^ 2 ] <= 829.21
quadratic_ranged_575_ub: [ 1 x_83_ ^ 2 - 2 x_99_ * x_83_ + 1 x_99_ ^ 2 + 1 y_83_ ^ 2 - 2 y_99_ * y_83_ + 1 y_99_ ^ 2 ] <= 2967.38
quadratic_ranged_576_ub: [ 1 x_98_ ^ 2 - 2 x_99_ * x_98_ + 1 x_99_ ^ 2 + 1 y_98_ ^ 2 - 2 y_99_ * y_98_ + 1 y_99_ ^ 2 ] <= 6045.86
quadratic_ranged_577_ub: [ 1 x_1_ ^ 2 - 2 x_100_ * x_1_ + 1 x_100_ ^ 2 + 1 y_1_ ^ 2 - 2 y_100_ * y_1_ + 1 y_100_ ^ 2 ] <= 23432
quadratic_ranged_578_ub: [ 1 x_6_ ^ 2 - 2 x_100_ * x_6_ + 1 x_100_ ^ 2 + 1 y_6_ ^ 2 - 2 y_100_ * y_6_ + 1 y_100_ ^ 2 ] <= 5633.78
quadratic_ranged_579_ub: [ 1 x_23_ ^ 2 - 2 x_100_ * x_23_ + 1 x_100_ ^ 2 + 1 y_23_ ^ 2 - 2 y_100_ * y_23_ + 1 y_100_ ^ 2 ] <= 359.56
quadratic_ranged_580_ub: [ 1 x_48_ ^ 2 - 2 x_100_ * x_48_ + 1 x_100_ ^ 2 + 1 y_48_ ^ 2 - 2 y_100_ * y_48_ + 1 y_100_ ^ 2 ] <= 11879.62
quadratic_ranged_581_ub: [ 1 x_50_ ^ 2 - 2 x_100_ * x_50_ + 1 x_100_ ^ 2 + 1 y_50_ ^ 2 - 2 y_100_ * y_50_ + 1 y_100_ ^ 2 ] <= 13675.4
quadratic_ranged_582_ub: [ 1 x_58_ ^ 2 - 2 x_100_ * x_58_ + 1 x_100_ ^ 2 + 1 y_58_ ^ 2 - 2 y_100_ * y_58_ + 1 y_100_ ^ 2 ] <= 20548.45
quadratic_ranged_583_ub: [ 1 x_60_ ^ 2 - 2 x_100_ * x_60_ + 1 x_100_ ^ 2 + 1 y_60_ ^ 2 - 2 y_100_ * y_60_ + 1 y_100_ ^ 2 ] <= 13479.460000000001
quadratic_ranged_584_ub: [ 1 x_98_ ^ 2 - 2 x_100_ * x_98_ + 1 x_100_ ^ 2 + 1 y_98_ ^ 2 - 2 y_100_ * y_98_ + 1 y_100_ ^ 2 ] <= 13082.53
quadratic_ranged_585_ub: [ 1 x_99_ ^ 2 - 2 x_100_ * x_99_ + 1 x_100_ ^ 2 + 1 y_99_ ^ 2 - 2 y_100_ * y_99_ + 1 y_100_ ^ 2 ] <= 11042.33
quadratic_ranged_1_lb: [ 1 x_1_ ^ 2 - 2 x_2_ * x_1_ + 1 x_2_ ^ 2 + 1 y_1_ ^ 2 - 2 y_2_ * y_1_ + 1 y_2_ ^ 2 ] >= 2116.62
quadratic_ranged_2_lb: [ 1 x_2_ ^ 2 - 2 x_3_ * x_2_ + 1 x_3_ ^ 2 + 1 y_2_ ^ 2 - 2 y_3_ * y_2_ + 1 y_3_ ^ 2 ] >= 19564.38
quadratic_ranged_3_lb: [ 1 x_1_ ^ 2 - 2 x_4_ * x_1_ + 1 x_4_ ^ 2 + 1 y_1_ ^ 2 - 2 y_4_ * y_1_ + 1 y_4_ ^ 2 ] >= 18701.1
quadratic_ranged_4_lb: [ 1 x_3_ ^ 2 - 2 x_4_ * x_3_ + 1 x_4_ ^ 2 + 1 y_3_ ^ 2 - 2 y_4_ * y_3_ + 1 y_4_ ^ 2 ] >= 2013.66
quadratic_ranged_5_lb: [ 1 x_3_ ^ 2 - 2 x_5_ * x_3_ + 1 x_5_ ^ 2 + 1 y_3_ ^ 2 - 2 y_5_ * y_3_ + 1 y_5_ ^ 2 ] >= 15726.15
quadratic_ranged_6_lb: [ 1 x_4_ ^ 2 - 2 x_5_ * x_4_ + 1 x_5_ ^ 2 + 1 y_4_ ^ 2 - 2 y_5_ * y_4_ + 1 y_5_ ^ 2 ] >= 17258.67
quadratic_ranged_7_lb: [ 1 x_4_ ^ 2 - 2 x_6_ * x_4_ + 1 x_6_ ^ 2 + 1 y_4_ ^ 2 - 2 y_6_ * y_4_ + 1 y_6_ ^ 2 ] >= 9587.16
quadratic_ranged_8_lb: [ 1 x_5_ ^ 2 - 2 x_6_ * x_5_ + 1 x_6_ ^ 2 + 1 y_5_ ^ 2 - 2 y_6_ * y_5_ + 1 y_6_ ^ 2 ] >= 4820.31
quadratic_ranged_9_lb: [ 1 x_1_ ^ 2 - 2 x_7_ * x_1_ + 1 x_7_ ^ 2 + 1 y_1_ ^ 2 - 2 y_7_ * y_1_ + 1 y_7_ ^ 2 ] >= 1910.7
quadratic_ranged_10_lb: [ 1 x_4_ ^ 2 - 2 x_7_ * x_4_ + 1 x_7_ ^ 2 + 1 y_4_ ^ 2 - 2 y_7_ * y_4_ + 1 y_7_ ^ 2 ] >= 8656.56
quadratic_ranged_11_lb: [ 1 x_6_ ^ 2 - 2 x_7_ * x_6_ + 1 x_7_ ^ 2 + 1 y_6_ ^ 2 - 2 y_7_ * y_6_ + 1 y_7_ ^ 2 ] >= 21688.92
quadratic_ranged_12_lb: [ 1 x_4_ ^ 2 - 2 x_8_ * x_4_ + 1 x_8_ ^ 2 + 1 y_4_ ^ 2 - 2 y_8_ * y_4_ + 1 y_8_ ^ 2 ] >= 24394.59
quadratic_ranged_13_lb: [ 1 x_7_ ^ 2 - 2 x_8_ * x_7_ + 1 x_8_ ^ 2 + 1 y_7_ ^ 2 - 2 y_8_ * y_7_ + 1 y_8_ ^ 2 ] >= 4337.19
quadratic_ranged_14_lb: [ 1 x_8_ ^ 2 - 2 x_9_ * x_8_ + 1 x_9_ ^ 2 + 1 y_8_ ^ 2 - 2 y_9_ * y_8_ + 1 y_9_ ^ 2 ] >= 28774.35
quadratic_ranged_15_lb: [ 1 x_9_ ^ 2 - 2 x_10_ * x_9_ + 1 x_10_ ^ 2 + 1 y_9_ ^ 2 - 2 y_10_ * y_9_ + 1 y_10_ ^ 2 ] >= 21673.079999999998
quadratic_ranged_16_lb: [ 1 x_2_ ^ 2 - 2 x_11_ * x_2_ + 1 x_11_ ^ 2 + 1 y_2_ ^ 2 - 2 y_11_ * y_2_ + 1 y_11_ ^ 2 ] >= 6142.95
quadratic_ranged_17_lb: [ 1 x_8_ ^ 2 - 2 x_11_ * x_8_ + 1 x_11_ ^ 2 + 1 y_8_ ^ 2 - 2 y_11_ * y_8_ + 1 y_11_ ^ 2 ] >= 21560.22
quadratic_ranged_18_lb: [ 1 x_10_ ^ 2 - 2 x_11_ * x_10_ + 1 x_11_ ^ 2 + 1 y_10_ ^ 2 - 2 y_11_ * y_10_ + 1 y_11_ ^ 2 ] >= 19781.19
quadratic_ranged_19_lb: [ 1 x_11_ ^ 2 - 2 x_12_ * x_11_ + 1 x_12_ ^ 2 + 1 y_11_ ^ 2 - 2 y_12_ * y_11_ + 1 y_12_ ^ 2 ] >= 14019.39
quadratic_ranged_20_lb: [ 1 x_12_ ^ 2 - 2 x_13_ * x_12_ + 1 x_13_ ^ 2 + 1 y_12_ ^ 2 - 2 y_13_ * y_12_ + 1 y_13_ ^ 2 ] >= 10931.58
quadratic_ranged_21_lb: [ 1 x_13_ ^ 2 - 2 x_14_ * x_13_ + 1 x_14_ ^ 2 + 1 y_13_ ^ 2 - 2 y_14_ * y_13_ + 1 y_14_ ^ 2 ] >= 34834.14
quadratic_ranged_22_lb: [ 1 x_8_ ^ 2 - 2 x_15_ * x_8_ + 1 x_15_ ^ 2 + 1 y_8_ ^ 2 - 2 y_15_ * y_8_ + 1 y_15_ ^ 2 ] >= 4360.95
quadratic_ranged_23_lb: [ 1 x_14_ ^ 2 - 2 x_15_ * x_14_ + 1 x_15_ ^ 2 + 1 y_14_ ^ 2 - 2 y_15_ * y_14_ + 1 y_15_ ^ 2 ] >= 7036.92
quadratic_ranged_24_lb: [ 1 x_12_ ^ 2 - 2 x_16_ * x_12_ + 1 x_16_ ^ 2 + 1 y_12_ ^ 2 - 2 y_16_ * y_12_ + 1 y_16_ ^ 2 ] >= 9900
quadratic_ranged_25_lb: [ 1 x_15_ ^ 2 - 2 x_16_ * x_15_ + 1 x_16_ ^ 2 + 1 y_15_ ^ 2 - 2 y_16_ * y_15_ + 1 y_16_ ^ 2 ] >= 2890.8
quadratic_ranged_26_lb: [ 1 x_8_ ^ 2 - 2 x_17_ * x_8_ + 1 x_17_ ^ 2 + 1 y_8_ ^ 2 - 2 y_17_ * y_8_ + 1 y_17_ ^ 2 ] >= 30280.14
quadratic_ranged_27_lb: [ 1 x_10_ ^ 2 - 2 x_17_ * x_10_ + 1 x_17_ ^ 2 + 1 y_10_ ^ 2 - 2 y_17_ * y_10_ + 1 y_17_ ^ 2 ] >= 13746.15
quadratic_ranged_28_lb: [ 1 x_16_ ^ 2 - 2 x_17_ * x_16_ + 1 x_17_ ^ 2 + 1 y_16_ ^ 2 - 2 y_17_ * y_16_ + 1 y_17_ ^ 2 ] >= 26402.31
quadratic_ranged_29_lb: [ 1 x_4_ ^ 2 - 2 x_18_ * x_4_ + 1 x_18_ ^ 2 + 1 y_4_ ^ 2 - 2 y_18_ * y_4_ + 1 y_18_ ^ 2 ] >= 9587.16
quadratic_ranged_30_lb: [ 1 x_15_ ^ 2 - 2 x_18_ * x_15_ + 1 x_18_ ^ 2 + 1 y_15_ ^ 2 - 2 y_18_ * y_15_ + 1 y_18_ ^ 2 ] >= 229.68
quadratic_ranged_31_lb: [ 1 x_17_ ^ 2 - 2 x_18_ * x_17_ + 1 x_18_ ^ 2 + 1 y_17_ ^ 2 - 2 y_18_ * y_17_ + 1 y_18_ ^ 2 ] >= 14522.31
quadratic_ranged_32_lb: [ 1 x_4_ ^ 2 - 2 x_19_ * x_4_ + 1 x_19_ ^ 2 + 1 y_4_ ^ 2 - 2 y_19_ * y_4_ + 1 y_19_ ^ 2 ] >= 5929.11
quadratic_ranged_33_lb: [ 1 x_17_ ^ 2 - 2 x_19_ * x_17_ + 1 x_19_ ^ 2 + 1 y_17_ ^ 2 - 2 y_19_ * y_17_ + 1 y_19_ ^ 2 ] >= 1370.16
quadratic_ranged_34_lb: [ 1 x_18_ ^ 2 - 2 x_19_ * x_18_ + 1 x_19_ ^ 2 + 1 y_18_ ^ 2 - 2 y_19_ * y_18_ + 1 y_19_ ^ 2 ] >= 8625.87
quadratic_ranged_35_lb: [ 1 x_1_ ^ 2 - 2 x_20_ * x_1_ + 1 x_20_ ^ 2 + 1 y_1_ ^ 2 - 2 y_20_ * y_1_ + 1 y_20_ ^ 2 ] >= 5089.59
quadratic_ranged_36_lb: [ 1 x_14_ ^ 2 - 2 x_20_ * x_14_ + 1 x_20_ ^ 2 + 1 y_14_ ^ 2 - 2 y_20_ * y_14_ + 1 y_20_ ^ 2 ] >= 4139.19
quadratic_ranged_37_lb: [ 1 x_19_ ^ 2 - 2 x_20_ * x_19_ + 1 x_20_ ^ 2 + 1 y_19_ ^ 2 - 2 y_20_ * y_19_ + 1 y_20_ ^ 2 ] >= 9163.44
quadratic_ranged_38_lb: [ 1 x_3_ ^ 2 - 2 x_21_ * x_3_ + 1 x_21_ ^ 2 + 1 y_3_ ^ 2 - 2 y_21_ * y_3_ + 1 y_21_ ^ 2 ] >= 10768.23
quadratic_ranged_39_lb: [ 1 x_5_ ^ 2 - 2 x_21_ * x_5_ + 1 x_21_ ^ 2 + 1 y_5_ ^ 2 - 2 y_21_ * y_5_ + 1 y_21_ ^ 2 ] >= 20607.84
quadratic_ranged_40_lb: [ 1 x_16_ ^ 2 - 2 x_21_ * x_16_ + 1 x_21_ ^ 2 + 1 y_16_ ^ 2 - 2 y_21_ * y_16_ + 1 y_21_ ^ 2 ] >= 2725.47
quadratic_ranged_41_lb: [ 1 x_20_ ^ 2 - 2 x_21_ * x_20_ + 1 x_21_ ^ 2 + 1 y_20_ ^ 2 - 2 y_21_ * y_20_ + 1 y_21_ ^ 2 ] >= 168.3
quadratic_ranged_42_lb: [ 1 x_14_ ^ 2 - 2 x_22_ * x_14_ + 1 x_22_ ^ 2 + 1 y_14_ ^ 2 - 2 y_22_ * y_14_ + 1 y_22_ ^ 2 ] >= 19761.39
quadratic_ranged_43_lb: [ 1 x_21_ ^ 2 - 2 x_22_ * x_21_ + 1 x_22_ ^ 2 + 1 y_21_ ^ 2 - 2 y_22_ * y_21_ + 1 y_22_ ^ 2 ] >= 11026.62
quadratic_ranged_44_lb: [ 1 x_13_ ^ 2 - 2 x_23_ * x_13_ + 1 x_23_ ^ 2 + 1 y_13_ ^ 2 - 2 y_23_ * y_13_ + 1 y_23_ ^ 2 ] >= 1619.6399999999999
quadratic_ranged_45_lb: [ 1 x_19_ ^ 2 - 2 x_23_ * x_19_ + 1 x_23_ ^ 2 + 1 y_19_ ^ 2 - 2 y_23_ * y_19_ + 1 y_23_ ^ 2 ] >= 5220.2699999999995
quadratic_ranged_46_lb: [ 1 x_22_ ^ 2 - 2 x_23_ * x_22_ + 1 x_23_ ^ 2 + 1 y_22_ ^ 2 - 2 y_23_ * y_22_ + 1 y_23_ ^ 2 ] >= 19523.79
quadratic_ranged_47_lb: [ 1 x_6_ ^ 2 - 2 x_24_ * x_6_ + 1 x_24_ ^ 2 + 1 y_6_ ^ 2 - 2 y_24_ * y_6_ + 1 y_24_ ^ 2 ] >= 2316.6
quadratic_ranged_48_lb: [ 1 x_23_ ^ 2 - 2 x_24_ * x_23_ + 1 x_24_ ^ 2 + 1 y_23_ ^ 2 - 2 y_24_ * y_23_ + 1 y_24_ ^ 2 ] >= 15588.539999999999
quadratic_ranged_49_lb: [ 1 x_4_ ^ 2 - 2 x_25_ * x_4_ + 1 x_25_ ^ 2 + 1 y_4_ ^ 2 - 2 y_25_ * y_4_ + 1 y_25_ ^ 2 ] >= 9845.55
quadratic_ranged_50_lb: [ 1 x_6_ ^ 2 - 2 x_25_ * x_6_ + 1 x_25_ ^ 2 + 1 y_6_ ^ 2 - 2 y_25_ * y_6_ + 1 y_25_ ^ 2 ] >= 38072.43
quadratic_ranged_51_lb: [ 1 x_22_ ^ 2 - 2 x_25_ * x_22_ + 1 x_25_ ^ 2 + 1 y_22_ ^ 2 - 2 y_25_ * y_22_ + 1 y_25_ ^ 2 ] >= 26175.6
quadratic_ranged_52_lb: [ 1 x_24_ ^ 2 - 2 x_25_ * x_24_ + 1 x_25_ ^ 2 + 1 y_24_ ^ 2 - 2 y_25_ * y_24_ + 1 y_25_ ^ 2 ] >= 29233.71
quadratic_ranged_53_lb: [ 1 x_9_ ^ 2 - 2 x_26_ * x_9_ + 1 x_26_ ^ 2 + 1 y_9_ ^ 2 - 2 y_26_ * y_9_ + 1 y_26_ ^ 2 ] >= 13101.66
quadratic_ranged_54_lb: [ 1 x_17_ ^ 2 - 2 x_26_ * x_17_ + 1 x_26_ ^ 2 + 1 y_17_ ^ 2 - 2 y_26_ * y_17_ + 1 y_26_ ^ 2 ] >= 15753.869999999999
quadratic_ranged_55_lb: [ 1 x_21_ ^ 2 - 2 x_26_ * x_21_ + 1 x_26_ ^ 2 + 1 y_21_ ^ 2 - 2 y_26_ * y_21_ + 1 y_26_ ^ 2 ] >= 2147.31
quadratic_ranged_56_lb: [ 1 x_25_ ^ 2 - 2 x_26_ * x_25_ + 1 x_26_ ^ 2 + 1 y_25_ ^ 2 - 2 y_26_ * y_25_ + 1 y_26_ ^ 2 ] >= 11326.59
quadratic_ranged_57_lb: [ 1 x_15_ ^ 2 - 2 x_27_ * x_15_ + 1 x_27_ ^ 2 + 1 y_15_ ^ 2 - 2 y_27_ * y_15_ + 1 y_27_ ^ 2 ] >= 11528.55
quadratic_ranged_58_lb: [ 1 x_21_ ^ 2 - 2 x_27_ * x_21_ + 1 x_27_ ^ 2 + 1 y_21_ ^ 2 - 2 y_27_ * y_21_ + 1 y_27_ ^ 2 ] >= 6781.5
quadratic_ranged_59_lb: [ 1 x_26_ ^ 2 - 2 x_27_ * x_26_ + 1 x_27_ ^ 2 + 1 y_26_ ^ 2 - 2 y_27_ * y_26_ + 1 y_27_ ^ 2 ] >= 12368.07
quadratic_ranged_60_lb: [ 1 x_3_ ^ 2 - 2 x_28_ * x_3_ + 1 x_28_ ^ 2 + 1 y_3_ ^ 2 - 2 y_28_ * y_3_ + 1 y_28_ ^ 2 ] >= 32191.829999999998
quadratic_ranged_61_lb: [ 1 x_5_ ^ 2 - 2 x_28_ * x_5_ + 1 x_28_ ^ 2 + 1 y_5_ ^ 2 - 2 y_28_ * y_5_ + 1 y_28_ ^ 2 ] >= 17249.76
quadratic_ranged_62_lb: [ 1 x_12_ ^ 2 - 2 x_28_ * x_12_ + 1 x_28_ ^ 2 + 1 y_12_ ^ 2 - 2 y_28_ * y_12_ + 1 y_28_ ^ 2 ] >= 14280.75
quadratic_ranged_63_lb: [ 1 x_27_ ^ 2 - 2 x_28_ * x_27_ + 1 x_28_ ^ 2 + 1 y_27_ ^ 2 - 2 y_28_ * y_27_ + 1 y_28_ ^ 2 ] >= 25314.3
quadratic_ranged_64_lb: [ 1 x_5_ ^ 2 - 2 x_29_ * x_5_ + 1 x_29_ ^ 2 + 1 y_5_ ^ 2 - 2 y_29_ * y_5_ + 1 y_29_ ^ 2 ] >= 476.19
quadratic_ranged_65_lb: [ 1 x_18_ ^ 2 - 2 x_29_ * x_18_ + 1 x_29_ ^ 2 + 1 y_18_ ^ 2 - 2 y_29_ * y_18_ + 1 y_29_ ^ 2 ] >= 10321.74
quadratic_ranged_66_lb: [ 1 x_28_ ^ 2 - 2 x_29_ * x_28_ + 1 x_29_ ^ 2 + 1 y_28_ ^ 2 - 2 y_29_ * y_28_ + 1 y_29_ ^ 2 ] >= 15373.71
quadratic_ranged_67_lb: [ 1 x_8_ ^ 2 - 2 x_30_ * x_8_ + 1 x_30_ ^ 2 + 1 y_8_ ^ 2 - 2 y_30_ * y_8_ + 1 y_30_ ^ 2 ] >= 23673.87
quadratic_ranged_68_lb: [ 1 x_15_ ^ 2 - 2 x_30_ * x_15_ + 1 x_30_ ^ 2 + 1 y_15_ ^ 2 - 2 y_30_ * y_15_ + 1 y_30_ ^ 2 ] >= 8213.039999999999
quadratic_ranged_69_lb: [ 1 x_29_ ^ 2 - 2 x_30_ * x_29_ + 1 x_30_ ^ 2 + 1 y_29_ ^ 2 - 2 y_30_ * y_29_ + 1 y_30_ ^ 2 ] >= 24672.78
quadratic_ranged_70_lb: [ 1 x_1_ ^ 2 - 2 x_31_ * x_1_ + 1 x_31_ ^ 2 + 1 y_1_ ^ 2 - 2 y_31_ * y_1_ + 1 y_31_ ^ 2 ] >= 34794.54
quadratic_ranged_71_lb: [ 1 x_20_ ^ 2 - 2 x_31_ * x_20_ + 1 x_31_ ^ 2 + 1 y_20_ ^ 2 - 2 y_31_ * y_20_ + 1 y_31_ ^ 2 ] >= 15163.83
quadratic_ranged_72_lb: [ 1 x_30_ ^ 2 - 2 x_31_ * x_30_ + 1 x_31_ ^ 2 + 1 y_30_ ^ 2 - 2 y_31_ * y_30_ + 1 y_31_ ^ 2 ] >= 13642.2
quadratic_ranged_73_lb: [ 1 x_1_ ^ 2 - 2 x_32_ * x_1_ + 1 x_32_ ^ 2 + 1 y_1_ ^ 2 - 2 y_32_ * y_1_ + 1 y_32_ ^ 2 ] >= 36576.54
quadratic_ranged_74_lb: [ 1 x_20_ ^ 2 - 2 x_32_ * x_20_ + 1 x_32_ ^ 2 + 1 y_20_ ^ 2 - 2 y_32_ * y_20_ + 1 y_32_ ^ 2 ] >= 20640.51
quadratic_ranged_75_lb: [ 1 x_27_ ^ 2 - 2 x_32_ * x_27_ + 1 x_32_ ^ 2 + 1 y_27_ ^ 2 - 2 y_32_ * y_27_ + 1 y_32_ ^ 2 ] >= 6158.79
quadratic_ranged_76_lb: [ 1 x_31_ ^ 2 - 2 x_32_ * x_31_ + 1 x_32_ ^ 2 + 1 y_31_ ^ 2 - 2 y_32_ * y_31_ + 1 y_32_ ^ 2 ] >= 3457.08
quadratic_ranged_77_lb: [ 1 x_11_ ^ 2 - 2 x_33_ * x_11_ + 1 x_33_ ^ 2 + 1 y_11_ ^ 2 - 2 y_33_ * y_11_ + 1 y_33_ ^ 2 ] >= 35050.95
quadratic_ranged_78_lb: [ 1 x_32_ ^ 2 - 2 x_33_ * x_32_ + 1 x_33_ ^ 2 + 1 y_32_ ^ 2 - 2 y_33_ * y_32_ + 1 y_33_ ^ 2 ] >= 732.6
quadratic_ranged_79_lb: [ 1 x_2_ ^ 2 - 2 x_34_ * x_2_ + 1 x_34_ ^ 2 + 1 y_2_ ^ 2 - 2 y_34_ * y_2_ + 1 y_34_ ^ 2 ] >= 18130.86
quadratic_ranged_80_lb: [ 1 x_28_ ^ 2 - 2 x_34_ * x_28_ + 1 x_34_ ^ 2 + 1 y_28_ ^ 2 - 2 y_34_ * y_28_ + 1 y_34_ ^ 2 ] >= 26889.39
quadratic_ranged_81_lb: [ 1 x_33_ ^ 2 - 2 x_34_ * x_33_ + 1 x_34_ ^ 2 + 1 y_33_ ^ 2 - 2 y_34_ * y_33_ + 1 y_34_ ^ 2 ] >= 786.06
quadratic_ranged_82_lb: [ 1 x_27_ ^ 2 - 2 x_35_ * x_27_ + 1 x_35_ ^ 2 + 1 y_27_ ^ 2 - 2 y_35_ * y_27_ + 1 y_35_ ^ 2 ] >= 3759.0299999999997
quadratic_ranged_83_lb: [ 1 x_28_ ^ 2 - 2 x_35_ * x_28_ + 1 x_35_ ^ 2 + 1 y_28_ ^ 2 - 2 y_35_ * y_28_ + 1 y_35_ ^ 2 ] >= 29502.989999999998
quadratic_ranged_84_lb: [ 1 x_34_ ^ 2 - 2 x_35_ * x_34_ + 1 x_35_ ^ 2 + 1 y_34_ ^ 2 - 2 y_35_ * y_34_ + 1 y_35_ ^ 2 ] >= 1140.48
quadratic_ranged_85_lb: [ 1 x_13_ ^ 2 - 2 x_36_ * x_13_ + 1 x_36_ ^ 2 + 1 y_13_ ^ 2 - 2 y_36_ * y_13_ + 1 y_36_ ^ 2 ] >= 1747.35
quadratic_ranged_86_lb: [ 1 x_15_ ^ 2 - 2 x_36_ * x_15_ + 1 x_36_ ^ 2 + 1 y_15_ ^ 2 - 2 y_36_ * y_15_ + 1 y_36_ ^ 2 ] >= 20787.03
quadratic_ranged_87_lb: [ 1 x_24_ ^ 2 - 2 x_36_ * x_24_ + 1 x_36_ ^ 2 + 1 y_24_ ^ 2 - 2 y_36_ * y_24_ + 1 y_36_ ^ 2 ] >= 13864.95
quadratic_ranged_88_lb: [ 1 x_35_ ^ 2 - 2 x_36_ * x_35_ + 1 x_36_ ^ 2 + 1 y_35_ ^ 2 - 2 y_36_ * y_35_ + 1 y_36_ ^ 2 ] >= 6883.47
quadratic_ranged_89_lb: [ 1 x_10_ ^ 2 - 2 x_37_ * x_10_ + 1 x_37_ ^ 2 + 1 y_10_ ^ 2 - 2 y_37_ * y_10_ + 1 y_37_ ^ 2 ] >= 793.98
quadratic_ranged_90_lb: [ 1 x_36_ ^ 2 - 2 x_37_ * x_36_ + 1 x_37_ ^ 2 + 1 y_36_ ^ 2 - 2 y_37_ * y_36_ + 1 y_37_ ^ 2 ] >= 7984.35
quadratic_ranged_91_lb: [ 1 x_1_ ^ 2 - 2 x_38_ * x_1_ + 1 x_38_ ^ 2 + 1 y_1_ ^ 2 - 2 y_38_ * y_1_ + 1 y_38_ ^ 2 ] >= 13927.32
quadratic_ranged_92_lb: [ 1 x_3_ ^ 2 - 2 x_38_ * x_3_ + 1 x_38_ ^ 2 + 1 y_3_ ^ 2 - 2 y_38_ * y_3_ + 1 y_38_ ^ 2 ] >= 7547.76
quadratic_ranged_93_lb: [ 1 x_16_ ^ 2 - 2 x_38_ * x_16_ + 1 x_38_ ^ 2 + 1 y_16_ ^ 2 - 2 y_38_ * y_16_ + 1 y_38_ ^ 2 ] >= 17354.7
quadratic_ranged_94_lb: [ 1 x_24_ ^ 2 - 2 x_38_ * x_24_ + 1 x_38_ ^ 2 + 1 y_24_ ^ 2 - 2 y_38_ * y_24_ + 1 y_38_ ^ 2 ] >= 7660.62
quadratic_ranged_95_lb: [ 1 x_37_ ^ 2 - 2 x_38_ * x_37_ + 1 x_38_ ^ 2 + 1 y_37_ ^ 2 - 2 y_38_ * y_37_ + 1 y_38_ ^ 2 ] >= 3169.98
quadratic_ranged_96_lb: [ 1 x_4_ ^ 2 - 2 x_39_ * x_4_ + 1 x_39_ ^ 2 + 1 y_4_ ^ 2 - 2 y_39_ * y_4_ + 1 y_39_ ^ 2 ] >= 14161.95
quadratic_ranged_97_lb: [ 1 x_6_ ^ 2 - 2 x_39_ * x_6_ + 1 x_39_ ^ 2 + 1 y_6_ ^ 2 - 2 y_39_ * y_6_ + 1 y_39_ ^ 2 ] >= 25804.35
quadratic_ranged_98_lb: [ 1 x_19_ ^ 2 - 2 x_39_ * x_19_ + 1 x_39_ ^ 2 + 1 y_19_ ^ 2 - 2 y_39_ * y_19_ + 1 y_39_ ^ 2 ] >= 13186.8
quadratic_ranged_99_lb: [ 1 x_34_ ^ 2 - 2 x_39_ * x_34_ + 1 x_39_ ^ 2 + 1 y_34_ ^ 2 - 2 y_39_ * y_34_ + 1 y_39_ ^ 2 ] >= 20402.91
quadratic_ranged_100_lb: [ 1 x_38_ ^ 2 - 2 x_39_ * x_38_ + 1 x_39_ ^ 2 + 1 y_38_ ^ 2 - 2 y_39_ * y_38_ + 1 y_39_ ^ 2 ] >= 9204.03
quadratic_ranged_101_lb: [ 1 x_4_ ^ 2 - 2 x_40_ * x_4_ + 1 x_40_ ^ 2 + 1 y_4_ ^ 2 - 2 y_40_ * y_4_ + 1 y_40_ ^ 2 ] >= 1311.75
quadratic_ranged_102_lb: [ 1 x_7_ ^ 2 - 2 x_40_ * x_7_ + 1 x_40_ ^ 2 + 1 y_7_ ^ 2 - 2 y_40_ * y_7_ + 1 y_40_ ^ 2 ] >= 3992.67
quadratic_ranged_103_lb: [ 1 x_9_ ^ 2 - 2 x_40_ * x_9_ + 1 x_40_ ^ 2 + 1 y_9_ ^ 2 - 2 y_40_ * y_9_ + 1 y_40_ ^ 2 ] >= 9825.75
quadratic_ranged_104_lb: [ 1 x_26_ ^ 2 - 2 x_40_ * x_26_ + 1 x_40_ ^ 2 + 1 y_26_ ^ 2 - 2 y_40_ * y_26_ + 1 y_40_ ^ 2 ] >= 4139.19
quadratic_ranged_105_lb: [ 1 x_39_ ^ 2 - 2 x_40_ * x_39_ + 1 x_40_ ^ 2 + 1 y_39_ ^ 2 - 2 y_40_ * y_39_ + 1 y_40_ ^ 2 ] >= 7464.6
quadratic_ranged_106_lb: [ 1 x_2_ ^ 2 - 2 x_41_ * x_2_ + 1 x_41_ ^ 2 + 1 y_2_ ^ 2 - 2 y_41_ * y_2_ + 1 y_41_ ^ 2 ] >= 27316.079999999998
quadratic_ranged_107_lb: [ 1 x_6_ ^ 2 - 2 x_41_ * x_6_ + 1 x_41_ ^ 2 + 1 y_6_ ^ 2 - 2 y_41_ * y_6_ + 1 y_41_ ^ 2 ] >= 324.71999999999997
quadratic_ranged_108_lb: [ 1 x_8_ ^ 2 - 2 x_41_ * x_8_ + 1 x_41_ ^ 2 + 1 y_8_ ^ 2 - 2 y_41_ * y_8_ + 1 y_41_ ^ 2 ] >= 38254.59
quadratic_ranged_109_lb: [ 1 x_9_ ^ 2 - 2 x_41_ * x_9_ + 1 x_41_ ^ 2 + 1 y_9_ ^ 2 - 2 y_41_ * y_9_ + 1 y_41_ ^ 2 ] >= 30414.78
quadratic_ranged_110_lb: [ 1 x_34_ ^ 2 - 2 x_41_ * x_34_ + 1 x_41_ ^ 2 + 1 y_34_ ^ 2 - 2 y_41_ * y_34_ + 1 y_41_ ^ 2 ] >= 1435.5
quadratic_ranged_111_lb: [ 1 x_40_ ^ 2 - 2 x_41_ * x_40_ + 1 x_41_ ^ 2 + 1 y_40_ ^ 2 - 2 y_41_ * y_40_ + 1 y_41_ ^ 2 ] >= 8625.87
quadratic_ranged_112_lb: [ 1 x_9_ ^ 2 - 2 x_42_ * x_9_ + 1 x_42_ ^ 2 + 1 y_9_ ^ 2 - 2 y_42_ * y_9_ + 1 y_42_ ^ 2 ] >= 37164.6
quadratic_ranged_113_lb: [ 1 x_36_ ^ 2 - 2 x_42_ * x_36_ + 1 x_42_ ^ 2 + 1 y_36_ ^ 2 - 2 y_42_ * y_36_ + 1 y_42_ ^ 2 ] >= 1680.03
quadratic_ranged_114_lb: [ 1 x_41_ ^ 2 - 2 x_42_ * x_41_ + 1 x_42_ ^ 2 + 1 y_41_ ^ 2 - 2 y_42_ * y_41_ + 1 y_42_ ^ 2 ] >= 2354.22
quadratic_ranged_115_lb: [ 1 x_5_ ^ 2 - 2 x_43_ * x_5_ + 1 x_43_ ^ 2 + 1 y_5_ ^ 2 - 2 y_43_ * y_5_ + 1 y_43_ ^ 2 ] >= 11359.26
quadratic_ranged_116_lb: [ 1 x_9_ ^ 2 - 2 x_43_ * x_9_ + 1 x_43_ ^ 2 + 1 y_9_ ^ 2 - 2 y_43_ * y_9_ + 1 y_43_ ^ 2 ] >= 16795.35
quadratic_ranged_117_lb: [ 1 x_16_ ^ 2 - 2 x_43_ * x_16_ + 1 x_43_ ^ 2 + 1 y_16_ ^ 2 - 2 y_43_ * y_16_ + 1 y_43_ ^ 2 ] >= 22767.03
quadratic_ranged_118_lb: [ 1 x_20_ ^ 2 - 2 x_43_ * x_20_ + 1 x_43_ ^ 2 + 1 y_20_ ^ 2 - 2 y_43_ * y_20_ + 1 y_43_ ^ 2 ] >= 10296
quadratic_ranged_119_lb: [ 1 x_22_ ^ 2 - 2 x_43_ * x_22_ + 1 x_43_ ^ 2 + 1 y_22_ ^ 2 - 2 y_43_ * y_22_ + 1 y_43_ ^ 2 ] >= 26714.16
quadratic_ranged_120_lb: [ 1 x_42_ ^ 2 - 2 x_43_ * x_42_ + 1 x_43_ ^ 2 + 1 y_42_ ^ 2 - 2 y_43_ * y_42_ + 1 y_43_ ^ 2 ] >= 5845.95
quadratic_ranged_121_lb: [ 1 x_6_ ^ 2 - 2 x_44_ * x_6_ + 1 x_44_ ^ 2 + 1 y_6_ ^ 2 - 2 y_44_ * y_6_ + 1 y_44_ ^ 2 ] >= 4697.55
quadratic_ranged_122_lb: [ 1 x_13_ ^ 2 - 2 x_44_ * x_13_ + 1 x_44_ ^ 2 + 1 y_13_ ^ 2 - 2 y_44_ * y_13_ + 1 y_44_ ^ 2 ] >= 17868.51
quadratic_ranged_123_lb: [ 1 x_16_ ^ 2 - 2 x_44_ * x_16_ + 1 x_44_ ^ 2 + 1 y_16_ ^ 2 - 2 y_44_ * y_16_ + 1 y_44_ ^ 2 ] >= 24430.23
quadratic_ranged_124_lb: [ 1 x_18_ ^ 2 - 2 x_44_ * x_18_ + 1 x_44_ ^ 2 + 1 y_18_ ^ 2 - 2 y_44_ * y_18_ + 1 y_44_ ^ 2 ] >= 17302.23
quadratic_ranged_125_lb: [ 1 x_26_ ^ 2 - 2 x_44_ * x_26_ + 1 x_44_ ^ 2 + 1 y_26_ ^ 2 - 2 y_44_ * y_26_ + 1 y_44_ ^ 2 ] >= 17579.43
quadratic_ranged_126_lb: [ 1 x_29_ ^ 2 - 2 x_44_ * x_29_ + 1 x_44_ ^ 2 + 1 y_29_ ^ 2 - 2 y_44_ * y_29_ + 1 y_44_ ^ 2 ] >= 10756.35
quadratic_ranged_127_lb: [ 1 x_43_ ^ 2 - 2 x_44_ * x_43_ + 1 x_44_ ^ 2 + 1 y_43_ ^ 2 - 2 y_44_ * y_43_ + 1 y_44_ ^ 2 ] >= 295.02
quadratic_ranged_128_lb: [ 1 x_14_ ^ 2 - 2 x_45_ * x_14_ + 1 x_45_ ^ 2 + 1 y_14_ ^ 2 - 2 y_45_ * y_14_ + 1 y_45_ ^ 2 ] >= 19105.02
quadratic_ranged_129_lb: [ 1 x_20_ ^ 2 - 2 x_45_ * x_20_ + 1 x_45_ ^ 2 + 1 y_20_ ^ 2 - 2 y_45_ * y_20_ + 1 y_45_ ^ 2 ] >= 7814.07
quadratic_ranged_130_lb: [ 1 x_27_ ^ 2 - 2 x_45_ * x_27_ + 1 x_45_ ^ 2 + 1 y_27_ ^ 2 - 2 y_45_ * y_27_ + 1 y_45_ ^ 2 ] >= 23452.11
quadratic_ranged_131_lb: [ 1 x_39_ ^ 2 - 2 x_45_ * x_39_ + 1 x_45_ ^ 2 + 1 y_39_ ^ 2 - 2 y_45_ * y_39_ + 1 y_45_ ^ 2 ] >= 1248.39
quadratic_ranged_132_lb: [ 1 x_44_ ^ 2 - 2 x_45_ * x_44_ + 1 x_45_ ^ 2 + 1 y_44_ ^ 2 - 2 y_45_ * y_44_ + 1 y_45_ ^ 2 ] >= 29716.829999999998
quadratic_ranged_133_lb: [ 1 x_2_ ^ 2 - 2 x_46_ * x_2_ + 1 x_46_ ^ 2 + 1 y_2_ ^ 2 - 2 y_46_ * y_2_ + 1 y_46_ ^ 2 ] >= 30527.64
quadratic_ranged_134_lb: [ 1 x_9_ ^ 2 - 2 x_46_ * x_9_ + 1 x_46_ ^ 2 + 1 y_9_ ^ 2 - 2 y_46_ * y_9_ + 1 y_46_ ^ 2 ] >= 26359.739999999998
quadratic_ranged_135_lb: [ 1 x_10_ ^ 2 - 2 x_46_ * x_10_ + 1 x_46_ ^ 2 + 1 y_10_ ^ 2 - 2 y_46_ * y_10_ + 1 y_46_ ^ 2 ] >= 25924.14
quadratic_ranged_136_lb: [ 1 x_37_ ^ 2 - 2 x_46_ * x_37_ + 1 x_46_ ^ 2 + 1 y_37_ ^ 2 - 2 y_46_ * y_37_ + 1 y_46_ ^ 2 ] >= 24845.04
quadratic_ranged_137_lb: [ 1 x_45_ ^ 2 - 2 x_46_ * x_45_ + 1 x_46_ ^ 2 + 1 y_45_ ^ 2 - 2 y_46_ * y_45_ + 1 y_46_ ^ 2 ] >= 39047.58
quadratic_ranged_138_lb: [ 1 x_4_ ^ 2 - 2 x_47_ * x_4_ + 1 x_47_ ^ 2 + 1 y_4_ ^ 2 - 2 y_47_ * y_4_ + 1 y_47_ ^ 2 ] >= 6439.95
quadratic_ranged_139_lb: [ 1 x_6_ ^ 2 - 2 x_47_ * x_6_ + 1 x_47_ ^ 2 + 1 y_6_ ^ 2 - 2 y_47_ * y_6_ + 1 y_47_ ^ 2 ] >= 25067.79
quadratic_ranged_140_lb: [ 1 x_13_ ^ 2 - 2 x_47_ * x_13_ + 1 x_47_ ^ 2 + 1 y_13_ ^ 2 - 2 y_47_ * y_13_ + 1 y_47_ ^ 2 ] >= 20842.47
quadratic_ranged_141_lb: [ 1 x_28_ ^ 2 - 2 x_47_ * x_28_ + 1 x_47_ ^ 2 + 1 y_28_ ^ 2 - 2 y_47_ * y_28_ + 1 y_47_ ^ 2 ] >= 9751.5
quadratic_ranged_142_lb: [ 1 x_43_ ^ 2 - 2 x_47_ * x_43_ + 1 x_47_ ^ 2 + 1 y_43_ ^ 2 - 2 y_47_ * y_43_ + 1 y_47_ ^ 2 ] >= 14319.36
quadratic_ranged_143_lb: [ 1 x_46_ ^ 2 - 2 x_47_ * x_46_ + 1 x_47_ ^ 2 + 1 y_46_ ^ 2 - 2 y_47_ * y_46_ + 1 y_47_ ^ 2 ] >= 26057.79
quadratic_ranged_144_lb: [ 1 x_17_ ^ 2 - 2 x_48_ * x_17_ + 1 x_48_ ^ 2 + 1 y_17_ ^ 2 - 2 y_48_ * y_17_ + 1 y_48_ ^ 2 ] >= 4729.23
quadratic_ranged_145_lb: [ 1 x_47_ ^ 2 - 2 x_48_ * x_47_ + 1 x_48_ ^ 2 + 1 y_47_ ^ 2 - 2 y_48_ * y_47_ + 1 y_48_ ^ 2 ] >= 4071.87
quadratic_ranged_146_lb: [ 1 x_5_ ^ 2 - 2 x_49_ * x_5_ + 1 x_49_ ^ 2 + 1 y_5_ ^ 2 - 2 y_49_ * y_5_ + 1 y_49_ ^ 2 ] >= 6203.34
quadratic_ranged_147_lb: [ 1 x_9_ ^ 2 - 2 x_49_ * x_9_ + 1 x_49_ ^ 2 + 1 y_9_ ^ 2 - 2 y_49_ * y_9_ + 1 y_49_ ^ 2 ] >= 16688.43
quadratic_ranged_148_lb: [ 1 x_15_ ^ 2 - 2 x_49_ * x_15_ + 1 x_49_ ^ 2 + 1 y_15_ ^ 2 - 2 y_49_ * y_15_ + 1 y_49_ ^ 2 ] >= 6321.15
quadratic_ranged_149_lb: [ 1 x_26_ ^ 2 - 2 x_49_ * x_26_ + 1 x_49_ ^ 2 + 1 y_26_ ^ 2 - 2 y_49_ * y_26_ + 1 y_49_ ^ 2 ] >= 6748.83
quadratic_ranged_150_lb: [ 1 x_27_ ^ 2 - 2 x_49_ * x_27_ + 1 x_49_ ^ 2 + 1 y_27_ ^ 2 - 2 y_49_ * y_27_ + 1 y_49_ ^ 2 ] >= 2237.4
quadratic_ranged_151_lb: [ 1 x_29_ ^ 2 - 2 x_49_ * x_29_ + 1 x_49_ ^ 2 + 1 y_29_ ^ 2 - 2 y_49_ * y_29_ + 1 y_49_ ^ 2 ] >= 3244.23
quadratic_ranged_152_lb: [ 1 x_36_ ^ 2 - 2 x_49_ * x_36_ + 1 x_49_ ^ 2 + 1 y_36_ ^ 2 - 2 y_49_ * y_36_ + 1 y_49_ ^ 2 ] >= 8498.16
quadratic_ranged_153_lb: [ 1 x_41_ ^ 2 - 2 x_49_ * x_41_ + 1 x_49_ ^ 2 + 1 y_41_ ^ 2 - 2 y_49_ * y_41_ + 1 y_49_ ^ 2 ] >= 4543.11
quadratic_ranged_154_lb: [ 1 x_48_ ^ 2 - 2 x_49_ * x_48_ + 1 x_49_ ^ 2 + 1 y_48_ ^ 2 - 2 y_49_ * y_48_ + 1 y_49_ ^ 2 ] >= 975.15
quadratic_ranged_155_lb: [ 1 x_21_ ^ 2 - 2 x_50_ * x_21_ + 1 x_50_ ^ 2 + 1 y_21_ ^ 2 - 2 y_50_ * y_21_ + 1 y_50_ ^ 2 ] >= 3129.39
quadratic_ranged_156_lb: [ 1 x_28_ ^ 2 - 2 x_50_ * x_28_ + 1 x_50_ ^ 2 + 1 y_28_ ^ 2 - 2 y_50_ * y_28_ + 1 y_50_ ^ 2 ] >= 2440.35
quadratic_ranged_157_lb: [ 1 x_36_ ^ 2 - 2 x_50_ * x_36_ + 1 x_50_ ^ 2 + 1 y_36_ ^ 2 - 2 y_50_ * y_36_ + 1 y_50_ ^ 2 ] >= 17797.23
quadratic_ranged_158_lb: [ 1 x_49_ ^ 2 - 2 x_50_ * x_49_ + 1 x_50_ ^ 2 + 1 y_49_ ^ 2 - 2 y_50_ * y_49_ + 1 y_50_ ^ 2 ] >= 6142.95
quadratic_ranged_159_lb: [ 1 x_2_ ^ 2 - 2 x_51_ * x_2_ + 1 x_51_ ^ 2 + 1 y_2_ ^ 2 - 2 y_51_ * y_2_ + 1 y_51_ ^ 2 ] >= 3271.95
quadratic_ranged_160_lb: [ 1 x_3_ ^ 2 - 2 x_51_ * x_3_ + 1 x_51_ ^ 2 + 1 y_3_ ^ 2 - 2 y_51_ * y_3_ + 1 y_51_ ^ 2 ] >= 25119.27
quadratic_ranged_161_lb: [ 1 x_7_ ^ 2 - 2 x_51_ * x_7_ + 1 x_51_ ^ 2 + 1 y_7_ ^ 2 - 2 y_51_ * y_7_ + 1 y_51_ ^ 2 ] >= 1755.27
quadratic_ranged_162_lb: [ 1 x_16_ ^ 2 - 2 x_51_ * x_16_ + 1 x_51_ ^ 2 + 1 y_16_ ^ 2 - 2 y_51_ * y_16_ + 1 y_51_ ^ 2 ] >= 6633.99
quadratic_ranged_163_lb: [ 1 x_17_ ^ 2 - 2 x_51_ * x_17_ + 1 x_51_ ^ 2 + 1 y_17_ ^ 2 - 2 y_51_ * y_17_ + 1 y_51_ ^ 2 ] >= 20275.2
quadratic_ranged_164_lb: [ 1 x_28_ ^ 2 - 2 x_51_ * x_28_ + 1 x_51_ ^ 2 + 1 y_28_ ^ 2 - 2 y_51_ * y_28_ + 1 y_51_ ^ 2 ] >= 477.18
quadratic_ranged_165_lb: [ 1 x_29_ ^ 2 - 2 x_51_ * x_29_ + 1 x_51_ ^ 2 + 1 y_29_ ^ 2 - 2 y_51_ * y_29_ + 1 y_51_ ^ 2 ] >= 12419.55
quadratic_ranged_166_lb: [ 1 x_33_ ^ 2 - 2 x_51_ * x_33_ + 1 x_51_ ^ 2 + 1 y_33_ ^ 2 - 2 y_51_ * y_33_ + 1 y_51_ ^ 2 ] >= 20616.75
quadratic_ranged_167_lb: [ 1 x_50_ ^ 2 - 2 x_51_ * x_50_ + 1 x_51_ ^ 2 + 1 y_50_ ^ 2 - 2 y_51_ * y_50_ + 1 y_51_ ^ 2 ] >= 761.31
quadratic_ranged_168_lb: [ 1 x_1_ ^ 2 - 2 x_52_ * x_1_ + 1 x_52_ ^ 2 + 1 y_1_ ^ 2 - 2 y_52_ * y_1_ + 1 y_52_ ^ 2 ] >= 2226.5099999999998
quadratic_ranged_169_lb: [ 1 x_16_ ^ 2 - 2 x_52_ * x_16_ + 1 x_52_ ^ 2 + 1 y_16_ ^ 2 - 2 y_52_ * y_16_ + 1 y_52_ ^ 2 ] >= 2024.55
quadratic_ranged_170_lb: [ 1 x_44_ ^ 2 - 2 x_52_ * x_44_ + 1 x_52_ ^ 2 + 1 y_44_ ^ 2 - 2 y_52_ * y_44_ + 1 y_52_ ^ 2 ] >= 16768.62
quadratic_ranged_171_lb: [ 1 x_51_ ^ 2 - 2 x_52_ * x_51_ + 1 x_52_ ^ 2 + 1 y_51_ ^ 2 - 2 y_52_ * y_51_ + 1 y_52_ ^ 2 ] >= 2284.92
quadratic_ranged_172_lb: [ 1 x_21_ ^ 2 - 2 x_53_ * x_21_ + 1 x_53_ ^ 2 + 1 y_21_ ^ 2 - 2 y_53_ * y_21_ + 1 y_53_ ^ 2 ] >= 1917.6299999999999
quadratic_ranged_173_lb: [ 1 x_52_ ^ 2 - 2 x_53_ * x_52_ + 1 x_53_ ^ 2 + 1 y_52_ ^ 2 - 2 y_53_ * y_52_ + 1 y_53_ ^ 2 ] >= 373.23
quadratic_ranged_174_lb: [ 1 x_5_ ^ 2 - 2 x_54_ * x_5_ + 1 x_54_ ^ 2 + 1 y_5_ ^ 2 - 2 y_54_ * y_5_ + 1 y_54_ ^ 2 ] >= 16536.96
quadratic_ranged_175_lb: [ 1 x_7_ ^ 2 - 2 x_54_ * x_7_ + 1 x_54_ ^ 2 + 1 y_7_ ^ 2 - 2 y_54_ * y_7_ + 1 y_54_ ^ 2 ] >= 8297.19
quadratic_ranged_176_lb: [ 1 x_10_ ^ 2 - 2 x_54_ * x_10_ + 1 x_54_ ^ 2 + 1 y_10_ ^ 2 - 2 y_54_ * y_10_ + 1 y_54_ ^ 2 ] >= 11310.75
quadratic_ranged_177_lb: [ 1 x_11_ ^ 2 - 2 x_54_ * x_11_ + 1 x_54_ ^ 2 + 1 y_11_ ^ 2 - 2 y_54_ * y_11_ + 1 y_54_ ^ 2 ] >= 13473.9
quadratic_ranged_178_lb: [ 1 x_29_ ^ 2 - 2 x_54_ * x_29_ + 1 x_54_ ^ 2 + 1 y_29_ ^ 2 - 2 y_54_ * y_29_ + 1 y_54_ ^ 2 ] >= 11405.789999999999
quadratic_ranged_179_lb: [ 1 x_42_ ^ 2 - 2 x_54_ * x_42_ + 1 x_54_ ^ 2 + 1 y_42_ ^ 2 - 2 y_54_ * y_42_ + 1 y_54_ ^ 2 ] >= 11766.15
quadratic_ranged_180_lb: [ 1 x_47_ ^ 2 - 2 x_54_ * x_47_ + 1 x_54_ ^ 2 + 1 y_47_ ^ 2 - 2 y_54_ * y_47_ + 1 y_54_ ^ 2 ] >= 6306.3
quadratic_ranged_181_lb: [ 1 x_53_ ^ 2 - 2 x_54_ * x_53_ + 1 x_54_ ^ 2 + 1 y_53_ ^ 2 - 2 y_54_ * y_53_ + 1 y_54_ ^ 2 ] >= 7049.79
quadratic_ranged_182_lb: [ 1 x_2_ ^ 2 - 2 x_55_ * x_2_ + 1 x_55_ ^ 2 + 1 y_2_ ^ 2 - 2 y_55_ * y_2_ + 1 y_55_ ^ 2 ] >= 7322.04
quadratic_ranged_183_lb: [ 1 x_10_ ^ 2 - 2 x_55_ * x_10_ + 1 x_55_ ^ 2 + 1 y_10_ ^ 2 - 2 y_55_ * y_10_ + 1 y_55_ ^ 2 ] >= 2718.54
quadratic_ranged_184_lb: [ 1 x_18_ ^ 2 - 2 x_55_ * x_18_ + 1 x_55_ ^ 2 + 1 y_18_ ^ 2 - 2 y_55_ * y_18_ + 1 y_55_ ^ 2 ] >= 3773.88
quadratic_ranged_185_lb: [ 1 x_27_ ^ 2 - 2 x_55_ * x_27_ + 1 x_55_ ^ 2 + 1 y_27_ ^ 2 - 2 y_55_ * y_27_ + 1 y_55_ ^ 2 ] >= 28417.95
quadratic_ranged_186_lb: [ 1 x_32_ ^ 2 - 2 x_55_ * x_32_ + 1 x_55_ ^ 2 + 1 y_32_ ^ 2 - 2 y_55_ * y_32_ + 1 y_55_ ^ 2 ] >= 35311.32
quadratic_ranged_187_lb: [ 1 x_45_ ^ 2 - 2 x_55_ * x_45_ + 1 x_55_ ^ 2 + 1 y_45_ ^ 2 - 2 y_55_ * y_45_ + 1 y_55_ ^ 2 ] >= 239.57999999999998
quadratic_ranged_188_lb: [ 1 x_52_ ^ 2 - 2 x_55_ * x_52_ + 1 x_55_ ^ 2 + 1 y_52_ ^ 2 - 2 y_55_ * y_52_ + 1 y_55_ ^ 2 ] >= 6245.91
quadratic_ranged_189_lb: [ 1 x_54_ ^ 2 - 2 x_55_ * x_54_ + 1 x_55_ ^ 2 + 1 y_54_ ^ 2 - 2 y_55_ * y_54_ + 1 y_55_ ^ 2 ] >= 24311.43
quadratic_ranged_190_lb: [ 1 x_5_ ^ 2 - 2 x_56_ * x_5_ + 1 x_56_ ^ 2 + 1 y_5_ ^ 2 - 2 y_56_ * y_5_ + 1 y_56_ ^ 2 ] >= 18897.12
quadratic_ranged_191_lb: [ 1 x_9_ ^ 2 - 2 x_56_ * x_9_ + 1 x_56_ ^ 2 + 1 y_9_ ^ 2 - 2 y_56_ * y_9_ + 1 y_56_ ^ 2 ] >= 13864.95
quadratic_ranged_192_lb: [ 1 x_17_ ^ 2 - 2 x_56_ * x_17_ + 1 x_56_ ^ 2 + 1 y_17_ ^ 2 - 2 y_56_ * y_17_ + 1 y_56_ ^ 2 ] >= 18994.14
quadratic_ranged_193_lb: [ 1 x_24_ ^ 2 - 2 x_56_ * x_24_ + 1 x_56_ ^ 2 + 1 y_24_ ^ 2 - 2 y_56_ * y_24_ + 1 y_56_ ^ 2 ] >= 26319.15
quadratic_ranged_194_lb: [ 1 x_29_ ^ 2 - 2 x_56_ * x_29_ + 1 x_56_ ^ 2 + 1 y_29_ ^ 2 - 2 y_56_ * y_29_ + 1 y_56_ ^ 2 ] >= 15033.15
quadratic_ranged_195_lb: [ 1 x_48_ ^ 2 - 2 x_56_ * x_48_ + 1 x_56_ ^ 2 + 1 y_48_ ^ 2 - 2 y_56_ * y_48_ + 1 y_56_ ^ 2 ] >= 5525.19
quadratic_ranged_196_lb: [ 1 x_52_ ^ 2 - 2 x_56_ * x_52_ + 1 x_56_ ^ 2 + 1 y_52_ ^ 2 - 2 y_56_ * y_52_ + 1 y_56_ ^ 2 ] >= 302.94
quadratic_ranged_197_lb: [ 1 x_55_ ^ 2 - 2 x_56_ * x_55_ + 1 x_56_ ^ 2 + 1 y_55_ ^ 2 - 2 y_56_ * y_55_ + 1 y_56_ ^ 2 ] >= 3964.95
quadratic_ranged_198_lb: [ 1 x_2_ ^ 2 - 2 x_57_ * x_2_ + 1 x_57_ ^ 2 + 1 y_2_ ^ 2 - 2 y_57_ * y_2_ + 1 y_57_ ^ 2 ] >= 8118
quadratic_ranged_199_lb: [ 1 x_5_ ^ 2 - 2 x_57_ * x_5_ + 1 x_57_ ^ 2 + 1 y_5_ ^ 2 - 2 y_57_ * y_5_ + 1 y_57_ ^ 2 ] >= 24814.35
quadratic_ranged_200_lb: [ 1 x_6_ ^ 2 - 2 x_57_ * x_6_ + 1 x_57_ ^ 2 + 1 y_6_ ^ 2 - 2 y_57_ * y_6_ + 1 y_57_ ^ 2 ] >= 16323.119999999999
quadratic_ranged_201_lb: [ 1 x_12_ ^ 2 - 2 x_57_ * x_12_ + 1 x_57_ ^ 2 + 1 y_12_ ^ 2 - 2 y_57_ * y_12_ + 1 y_57_ ^ 2 ] >= 2534.4
quadratic_ranged_202_lb: [ 1 x_14_ ^ 2 - 2 x_57_ * x_14_ + 1 x_57_ ^ 2 + 1 y_14_ ^ 2 - 2 y_57_ * y_14_ + 1 y_57_ ^ 2 ] >= 5437.08
quadratic_ranged_203_lb: [ 1 x_38_ ^ 2 - 2 x_57_ * x_38_ + 1 x_57_ ^ 2 + 1 y_38_ ^ 2 - 2 y_57_ * y_38_ + 1 y_57_ ^ 2 ] >= 10820.7
quadratic_ranged_204_lb: [ 1 x_42_ ^ 2 - 2 x_57_ * x_42_ + 1 x_57_ ^ 2 + 1 y_42_ ^ 2 - 2 y_57_ * y_42_ + 1 y_57_ ^ 2 ] >= 19532.7
quadratic_ranged_205_lb: [ 1 x_51_ ^ 2 - 2 x_57_ * x_51_ + 1 x_57_ ^ 2 + 1 y_51_ ^ 2 - 2 y_57_ * y_51_ + 1 y_57_ ^ 2 ] >= 17112.15
quadratic_ranged_206_lb: [ 1 x_53_ ^ 2 - 2 x_57_ * x_53_ + 1 x_57_ ^ 2 + 1 y_53_ ^ 2 - 2 y_57_ * y_53_ + 1 y_57_ ^ 2 ] >= 8104.14
quadratic_ranged_207_lb: [ 1 x_56_ ^ 2 - 2 x_57_ * x_56_ + 1 x_57_ ^ 2 + 1 y_56_ ^ 2 - 2 y_57_ * y_56_ + 1 y_57_ ^ 2 ] >= 10946.43
quadratic_ranged_208_lb: [ 1 x_8_ ^ 2 - 2 x_58_ * x_8_ + 1 x_58_ ^ 2 + 1 y_8_ ^ 2 - 2 y_58_ * y_8_ + 1 y_58_ ^ 2 ] >= 13283.82
quadratic_ranged_209_lb: [ 1 x_11_ ^ 2 - 2 x_58_ * x_11_ + 1 x_58_ ^ 2 + 1 y_11_ ^ 2 - 2 y_58_ * y_11_ + 1 y_58_ ^ 2 ] >= 6229.08
quadratic_ranged_210_lb: [ 1 x_16_ ^ 2 - 2 x_58_ * x_16_ + 1 x_58_ ^ 2 + 1 y_16_ ^ 2 - 2 y_58_ * y_16_ + 1 y_58_ ^ 2 ] >= 3826.35
quadratic_ranged_211_lb: [ 1 x_17_ ^ 2 - 2 x_58_ * x_17_ + 1 x_58_ ^ 2 + 1 y_17_ ^ 2 - 2 y_58_ * y_17_ + 1 y_58_ ^ 2 ] >= 10779.12
quadratic_ranged_212_lb: [ 1 x_34_ ^ 2 - 2 x_58_ * x_34_ + 1 x_58_ ^ 2 + 1 y_34_ ^ 2 - 2 y_58_ * y_34_ + 1 y_58_ ^ 2 ] >= 8772.39
quadratic_ranged_213_lb: [ 1 x_38_ ^ 2 - 2 x_58_ * x_38_ + 1 x_58_ ^ 2 + 1 y_38_ ^ 2 - 2 y_58_ * y_38_ + 1 y_58_ ^ 2 ] >= 7489.35
quadratic_ranged_214_lb: [ 1 x_57_ ^ 2 - 2 x_58_ * x_57_ + 1 x_58_ ^ 2 + 1 y_57_ ^ 2 - 2 y_58_ * y_57_ + 1 y_58_ ^ 2 ] >= 1806.75
quadratic_ranged_215_lb: [ 1 x_3_ ^ 2 - 2 x_59_ * x_3_ + 1 x_59_ ^ 2 + 1 y_3_ ^ 2 - 2 y_59_ * y_3_ + 1 y_59_ ^ 2 ] >= 6672.6
quadratic_ranged_216_lb: [ 1 x_21_ ^ 2 - 2 x_59_ * x_21_ + 1 x_59_ ^ 2 + 1 y_21_ ^ 2 - 2 y_59_ * y_21_ + 1 y_59_ ^ 2 ] >= 836.55
quadratic_ranged_217_lb: [ 1 x_22_ ^ 2 - 2 x_59_ * x_22_ + 1 x_59_ ^ 2 + 1 y_22_ ^ 2 - 2 y_59_ * y_22_ + 1 y_59_ ^ 2 ] >= 17215.11
quadratic_ranged_218_lb: [ 1 x_28_ ^ 2 - 2 x_59_ * x_28_ + 1 x_59_ ^ 2 + 1 y_28_ ^ 2 - 2 y_59_ * y_28_ + 1 y_59_ ^ 2 ] >= 16922.07
quadratic_ranged_219_lb: [ 1 x_35_ ^ 2 - 2 x_59_ * x_35_ + 1 x_59_ ^ 2 + 1 y_35_ ^ 2 - 2 y_59_ * y_35_ + 1 y_59_ ^ 2 ] >= 13642.2
quadratic_ranged_220_lb: [ 1 x_49_ ^ 2 - 2 x_59_ * x_49_ + 1 x_59_ ^ 2 + 1 y_49_ ^ 2 - 2 y_59_ * y_49_ + 1 y_59_ ^ 2 ] >= 5049.99
quadratic_ranged_221_lb: [ 1 x_58_ ^ 2 - 2 x_59_ * x_58_ + 1 x_59_ ^ 2 + 1 y_58_ ^ 2 - 2 y_59_ * y_58_ + 1 y_59_ ^ 2 ] >= 385.11
quadratic_ranged_222_lb: [ 1 x_8_ ^ 2 - 2 x_60_ * x_8_ + 1 x_60_ ^ 2 + 1 y_8_ ^ 2 - 2 y_60_ * y_8_ + 1 y_60_ ^ 2 ] >= 29538.63
quadratic_ranged_223_lb: [ 1 x_14_ ^ 2 - 2 x_60_ * x_14_ + 1 x_60_ ^ 2 + 1 y_14_ ^ 2 - 2 y_60_ * y_14_ + 1 y_60_ ^ 2 ] >= 17919
quadratic_ranged_224_lb: [ 1 x_18_ ^ 2 - 2 x_60_ * x_18_ + 1 x_60_ ^ 2 + 1 y_18_ ^ 2 - 2 y_60_ * y_18_ + 1 y_60_ ^ 2 ] >= 13060.08
quadratic_ranged_225_lb: [ 1 x_20_ ^ 2 - 2 x_60_ * x_20_ + 1 x_60_ ^ 2 + 1 y_20_ ^ 2 - 2 y_60_ * y_20_ + 1 y_60_ ^ 2 ] >= 8768.43
quadratic_ranged_226_lb: [ 1 x_21_ ^ 2 - 2 x_60_ * x_21_ + 1 x_60_ ^ 2 + 1 y_21_ ^ 2 - 2 y_60_ * y_21_ + 1 y_60_ ^ 2 ] >= 8138.79
quadratic_ranged_227_lb: [ 1 x_45_ ^ 2 - 2 x_60_ * x_45_ + 1 x_60_ ^ 2 + 1 y_45_ ^ 2 - 2 y_60_ * y_45_ + 1 y_60_ ^ 2 ] >= 23959.98
quadratic_ranged_228_lb: [ 1 x_47_ ^ 2 - 2 x_60_ * x_47_ + 1 x_60_ ^ 2 + 1 y_47_ ^ 2 - 2 y_60_ * y_47_ + 1 y_60_ ^ 2 ] >= 12340.35
quadratic_ranged_229_lb: [ 1 x_48_ ^ 2 - 2 x_60_ * x_48_ + 1 x_60_ ^ 2 + 1 y_48_ ^ 2 - 2 y_60_ * y_48_ + 1 y_60_ ^ 2 ] >= 2851.2
quadratic_ranged_230_lb: [ 1 x_50_ ^ 2 - 2 x_60_ * x_50_ + 1 x_60_ ^ 2 + 1 y_50_ ^ 2 - 2 y_60_ * y_50_ + 1 y_60_ ^ 2 ] >= 13378.86
quadratic_ranged_231_lb: [ 1 x_58_ ^ 2 - 2 x_60_ * x_58_ + 1 x_60_ ^ 2 + 1 y_58_ ^ 2 - 2 y_60_ * y_58_ + 1 y_60_ ^ 2 ] >= 6531.03
quadratic_ranged_232_lb: [ 1 x_59_ ^ 2 - 2 x_60_ * x_59_ + 1 x_60_ ^ 2 + 1 y_59_ ^ 2 - 2 y_60_ * y_59_ + 1 y_60_ ^ 2 ] >= 5110.38
quadratic_ranged_233_lb: [ 1 x_51_ ^ 2 - 2 x_61_ * x_51_ + 1 x_61_ ^ 2 + 1 y_51_ ^ 2 - 2 y_61_ * y_51_ + 1 y_61_ ^ 2 ] >= 17820
quadratic_ranged_234_lb: [ 1 x_54_ ^ 2 - 2 x_61_ * x_54_ + 1 x_61_ ^ 2 + 1 y_54_ ^ 2 - 2 y_61_ * y_54_ + 1 y_61_ ^ 2 ] >= 3851.1
quadratic_ranged_235_lb: [ 1 x_60_ ^ 2 - 2 x_61_ * x_60_ + 1 x_61_ ^ 2 + 1 y_60_ ^ 2 - 2 y_61_ * y_60_ + 1 y_61_ ^ 2 ] >= 1181.07
quadratic_ranged_236_lb: [ 1 x_18_ ^ 2 - 2 x_62_ * x_18_ + 1 x_62_ ^ 2 + 1 y_18_ ^ 2 - 2 y_62_ * y_18_ + 1 y_62_ ^ 2 ] >= 19484.19
quadratic_ranged_237_lb: [ 1 x_19_ ^ 2 - 2 x_62_ * x_19_ + 1 x_62_ ^ 2 + 1 y_19_ ^ 2 - 2 y_62_ * y_19_ + 1 y_62_ ^ 2 ] >= 2473.02
quadratic_ranged_238_lb: [ 1 x_26_ ^ 2 - 2 x_62_ * x_26_ + 1 x_62_ ^ 2 + 1 y_26_ ^ 2 - 2 y_62_ * y_26_ + 1 y_62_ ^ 2 ] >= 22042.35
quadratic_ranged_239_lb: [ 1 x_45_ ^ 2 - 2 x_62_ * x_45_ + 1 x_62_ ^ 2 + 1 y_45_ ^ 2 - 2 y_62_ * y_45_ + 1 y_62_ ^ 2 ] >= 25067.79
quadratic_ranged_240_lb: [ 1 x_46_ ^ 2 - 2 x_62_ * x_46_ + 1 x_62_ ^ 2 + 1 y_46_ ^ 2 - 2 y_62_ * y_46_ + 1 y_62_ ^ 2 ] >= 6835.95
quadratic_ranged_241_lb: [ 1 x_55_ ^ 2 - 2 x_62_ * x_55_ + 1 x_62_ ^ 2 + 1 y_55_ ^ 2 - 2 y_62_ * y_55_ + 1 y_62_ ^ 2 ] >= 29467.35
quadratic_ranged_242_lb: [ 1 x_61_ ^ 2 - 2 x_62_ * x_61_ + 1 x_62_ ^ 2 + 1 y_61_ ^ 2 - 2 y_62_ * y_61_ + 1 y_62_ ^ 2 ] >= 2908.62
quadratic_ranged_243_lb: [ 1 x_2_ ^ 2 - 2 x_63_ * x_2_ + 1 x_63_ ^ 2 + 1 y_2_ ^ 2 - 2 y_63_ * y_2_ + 1 y_63_ ^ 2 ] >= 27625.95
quadratic_ranged_244_lb: [ 1 x_18_ ^ 2 - 2 x_63_ * x_18_ + 1 x_63_ ^ 2 + 1 y_18_ ^ 2 - 2 y_63_ * y_18_ + 1 y_63_ ^ 2 ] >= 20351.43
quadratic_ranged_245_lb: [ 1 x_24_ ^ 2 - 2 x_63_ * x_24_ + 1 x_63_ ^ 2 + 1 y_24_ ^ 2 - 2 y_63_ * y_24_ + 1 y_63_ ^ 2 ] >= 1664.19
quadratic_ranged_246_lb: [ 1 x_26_ ^ 2 - 2 x_63_ * x_26_ + 1 x_63_ ^ 2 + 1 y_26_ ^ 2 - 2 y_63_ * y_26_ + 1 y_63_ ^ 2 ] >= 22232.43
quadratic_ranged_247_lb: [ 1 x_32_ ^ 2 - 2 x_63_ * x_32_ + 1 x_63_ ^ 2 + 1 y_32_ ^ 2 - 2 y_63_ * y_32_ + 1 y_63_ ^ 2 ] >= 40.589999999999996
quadratic_ranged_248_lb: [ 1 x_33_ ^ 2 - 2 x_63_ * x_33_ + 1 x_63_ ^ 2 + 1 y_33_ ^ 2 - 2 y_63_ * y_33_ + 1 y_63_ ^ 2 ] >= 452.43
quadratic_ranged_249_lb: [ 1 x_47_ ^ 2 - 2 x_63_ * x_47_ + 1 x_63_ ^ 2 + 1 y_47_ ^ 2 - 2 y_63_ * y_47_ + 1 y_63_ ^ 2 ] >= 25490.52
quadratic_ranged_250_lb: [ 1 x_62_ ^ 2 - 2 x_63_ * x_62_ + 1 x_63_ ^ 2 + 1 y_62_ ^ 2 - 2 y_63_ * y_62_ + 1 y_63_ ^ 2 ] >= 1213.74
quadratic_ranged_251_lb: [ 1 x_23_ ^ 2 - 2 x_64_ * x_23_ + 1 x_64_ ^ 2 + 1 y_23_ ^ 2 - 2 y_64_ * y_23_ + 1 y_64_ ^ 2 ] >= 28355.579999999998
quadratic_ranged_252_lb: [ 1 x_35_ ^ 2 - 2 x_64_ * x_35_ + 1 x_64_ ^ 2 + 1 y_35_ ^ 2 - 2 y_64_ * y_35_ + 1 y_64_ ^ 2 ] >= 6535.98
quadratic_ranged_253_lb: [ 1 x_37_ ^ 2 - 2 x_64_ * x_37_ + 1 x_64_ ^ 2 + 1 y_37_ ^ 2 - 2 y_64_ * y_37_ + 1 y_64_ ^ 2 ] >= 28298.16
quadratic_ranged_254_lb: [ 1 x_41_ ^ 2 - 2 x_64_ * x_41_ + 1 x_64_ ^ 2 + 1 y_41_ ^ 2 - 2 y_64_ * y_41_ + 1 y_64_ ^ 2 ] >= 6197.4
quadratic_ranged_255_lb: [ 1 x_44_ ^ 2 - 2 x_64_ * x_44_ + 1 x_64_ ^ 2 + 1 y_44_ ^ 2 - 2 y_64_ * y_44_ + 1 y_64_ ^ 2 ] >= 987.03
quadratic_ranged_256_lb: [ 1 x_55_ ^ 2 - 2 x_64_ * x_55_ + 1 x_64_ ^ 2 + 1 y_55_ ^ 2 - 2 y_64_ * y_55_ + 1 y_64_ ^ 2 ] >= 46134
quadratic_ranged_257_lb: [ 1 x_60_ ^ 2 - 2 x_64_ * x_60_ + 1 x_64_ ^ 2 + 1 y_60_ ^ 2 - 2 y_64_ * y_60_ + 1 y_64_ ^ 2 ] >= 2237.4
quadratic_ranged_258_lb: [ 1 x_63_ ^ 2 - 2 x_64_ * x_63_ + 1 x_64_ ^ 2 + 1 y_63_ ^ 2 - 2 y_64_ * y_63_ + 1 y_64_ ^ 2 ] >= 7818.03
quadratic_ranged_259_lb: [ 1 x_4_ ^ 2 - 2 x_65_ * x_4_ + 1 x_65_ ^ 2 + 1 y_4_ ^ 2 - 2 y_65_ * y_4_ + 1 y_65_ ^ 2 ] >= 20359.35
quadratic_ranged_260_lb: [ 1 x_5_ ^ 2 - 2 x_65_ * x_5_ + 1 x_65_ ^ 2 + 1 y_5_ ^ 2 - 2 y_65_ * y_5_ + 1 y_65_ ^ 2 ] >= 7716.0599999999995
quadratic_ranged_261_lb: [ 1 x_9_ ^ 2 - 2 x_65_ * x_9_ + 1 x_65_ ^ 2 + 1 y_9_ ^ 2 - 2 y_65_ * y_9_ + 1 y_65_ ^ 2 ] >= 34896.51
quadratic_ranged_262_lb: [ 1 x_10_ ^ 2 - 2 x_65_ * x_10_ + 1 x_65_ ^ 2 + 1 y_10_ ^ 2 - 2 y_65_ * y_10_ + 1 y_65_ ^ 2 ] >= 1569.15
quadratic_ranged_263_lb: [ 1 x_11_ ^ 2 - 2 x_65_ * x_11_ + 1 x_65_ ^ 2 + 1 y_11_ ^ 2 - 2 y_65_ * y_11_ + 1 y_65_ ^ 2 ] >= 32048.28
quadratic_ranged_264_lb: [ 1 x_13_ ^ 2 - 2 x_65_ * x_13_ + 1 x_65_ ^ 2 + 1 y_13_ ^ 2 - 2 y_65_ * y_13_ + 1 y_65_ ^ 2 ] >= 3612.5099999999998
quadratic_ranged_265_lb: [ 1 x_35_ ^ 2 - 2 x_65_ * x_35_ + 1 x_65_ ^ 2 + 1 y_35_ ^ 2 - 2 y_65_ * y_35_ + 1 y_65_ ^ 2 ] >= 20177.19
quadratic_ranged_266_lb: [ 1 x_37_ ^ 2 - 2 x_65_ * x_37_ + 1 x_65_ ^ 2 + 1 y_37_ ^ 2 - 2 y_65_ * y_37_ + 1 y_65_ ^ 2 ] >= 563.31
quadratic_ranged_267_lb: [ 1 x_40_ ^ 2 - 2 x_65_ * x_40_ + 1 x_65_ ^ 2 + 1 y_40_ ^ 2 - 2 y_65_ * y_40_ + 1 y_65_ ^ 2 ] >= 11377.08
quadratic_ranged_268_lb: [ 1 x_46_ ^ 2 - 2 x_65_ * x_46_ + 1 x_65_ ^ 2 + 1 y_46_ ^ 2 - 2 y_65_ * y_46_ + 1 y_65_ ^ 2 ] >= 32754.15
quadratic_ranged_269_lb: [ 1 x_47_ ^ 2 - 2 x_65_ * x_47_ + 1 x_65_ ^ 2 + 1 y_47_ ^ 2 - 2 y_65_ * y_47_ + 1 y_65_ ^ 2 ] >= 14295.6
quadratic_ranged_270_lb: [ 1 x_51_ ^ 2 - 2 x_65_ * x_51_ + 1 x_65_ ^ 2 + 1 y_51_ ^ 2 - 2 y_65_ * y_51_ + 1 y_65_ ^ 2 ] >= 2288.88
quadratic_ranged_271_lb: [ 1 x_52_ ^ 2 - 2 x_65_ * x_52_ + 1 x_65_ ^ 2 + 1 y_52_ ^ 2 - 2 y_65_ * y_52_ + 1 y_65_ ^ 2 ] >= 7670.5199999999995
quadratic_ranged_272_lb: [ 1 x_53_ ^ 2 - 2 x_65_ * x_53_ + 1 x_65_ ^ 2 + 1 y_53_ ^ 2 - 2 y_65_ * y_53_ + 1 y_65_ ^ 2 ] >= 5244.03
quadratic_ranged_273_lb: [ 1 x_56_ ^ 2 - 2 x_65_ * x_56_ + 1 x_65_ ^ 2 + 1 y_56_ ^ 2 - 2 y_65_ * y_56_ + 1 y_65_ ^ 2 ] >= 6108.3
quadratic_ranged_274_lb: [ 1 x_57_ ^ 2 - 2 x_65_ * x_57_ + 1 x_65_ ^ 2 + 1 y_57_ ^ 2 - 2 y_65_ * y_57_ + 1 y_65_ ^ 2 ] >= 24315.39
quadratic_ranged_275_lb: [ 1 x_62_ ^ 2 - 2 x_65_ * x_62_ + 1 x_65_ ^ 2 + 1 y_62_ ^ 2 - 2 y_65_ * y_62_ + 1 y_65_ ^ 2 ] >= 16594.38
quadratic_ranged_276_lb: [ 1 x_64_ ^ 2 - 2 x_65_ * x_64_ + 1 x_65_ ^ 2 + 1 y_64_ ^ 2 - 2 y_65_ * y_64_ + 1 y_65_ ^ 2 ] >= 36809.19
quadratic_ranged_277_lb: [ 1 x_2_ ^ 2 - 2 x_66_ * x_2_ + 1 x_66_ ^ 2 + 1 y_2_ ^ 2 - 2 y_66_ * y_2_ + 1 y_66_ ^ 2 ] >= 2781.9
quadratic_ranged_278_lb: [ 1 x_19_ ^ 2 - 2 x_66_ * x_19_ + 1 x_66_ ^ 2 + 1 y_19_ ^ 2 - 2 y_66_ * y_19_ + 1 y_66_ ^ 2 ] >= 19824.75
quadratic_ranged_279_lb: [ 1 x_29_ ^ 2 - 2 x_66_ * x_29_ + 1 x_66_ ^ 2 + 1 y_29_ ^ 2 - 2 y_66_ * y_29_ + 1 y_66_ ^ 2 ] >= 27264.6
quadratic_ranged_280_lb: [ 1 x_30_ ^ 2 - 2 x_66_ * x_30_ + 1 x_66_ ^ 2 + 1 y_30_ ^ 2 - 2 y_66_ * y_30_ + 1 y_66_ ^ 2 ] >= 1649.34
quadratic_ranged_281_lb: [ 1 x_36_ ^ 2 - 2 x_66_ * x_36_ + 1 x_66_ ^ 2 + 1 y_36_ ^ 2 - 2 y_66_ * y_36_ + 1 y_66_ ^ 2 ] >= 40317.75
quadratic_ranged_282_lb: [ 1 x_39_ ^ 2 - 2 x_66_ * x_39_ + 1 x_66_ ^ 2 + 1 y_39_ ^ 2 - 2 y_66_ * y_39_ + 1 y_66_ ^ 2 ] >= 8598.15
quadratic_ranged_283_lb: [ 1 x_65_ ^ 2 - 2 x_66_ * x_65_ + 1 x_66_ ^ 2 + 1 y_65_ ^ 2 - 2 y_66_ * y_65_ + 1 y_66_ ^ 2 ] >= 22525.47
quadratic_ranged_284_lb: [ 1 x_6_ ^ 2 - 2 x_67_ * x_6_ + 1 x_67_ ^ 2 + 1 y_6_ ^ 2 - 2 y_67_ * y_6_ + 1 y_67_ ^ 2 ] >= 16739.91
quadratic_ranged_285_lb: [ 1 x_11_ ^ 2 - 2 x_67_ * x_11_ + 1 x_67_ ^ 2 + 1 y_11_ ^ 2 - 2 y_67_ * y_11_ + 1 y_67_ ^ 2 ] >= 21702.78
quadratic_ranged_286_lb: [ 1 x_28_ ^ 2 - 2 x_67_ * x_28_ + 1 x_67_ ^ 2 + 1 y_28_ ^ 2 - 2 y_67_ * y_28_ + 1 y_67_ ^ 2 ] >= 1904.76
quadratic_ranged_287_lb: [ 1 x_31_ ^ 2 - 2 x_67_ * x_31_ + 1 x_67_ ^ 2 + 1 y_31_ ^ 2 - 2 y_67_ * y_31_ + 1 y_67_ ^ 2 ] >= 21626.55
quadratic_ranged_288_lb: [ 1 x_39_ ^ 2 - 2 x_67_ * x_39_ + 1 x_67_ ^ 2 + 1 y_39_ ^ 2 - 2 y_67_ * y_39_ + 1 y_67_ ^ 2 ] >= 1641.42
quadratic_ranged_289_lb: [ 1 x_60_ ^ 2 - 2 x_67_ * x_60_ + 1 x_67_ ^ 2 + 1 y_60_ ^ 2 - 2 y_67_ * y_60_ + 1 y_67_ ^ 2 ] >= 14585.67
quadratic_ranged_290_lb: [ 1 x_66_ ^ 2 - 2 x_67_ * x_66_ + 1 x_67_ ^ 2 + 1 y_66_ ^ 2 - 2 y_67_ * y_66_ + 1 y_67_ ^ 2 ] >= 13809.51
quadratic_ranged_291_lb: [ 1 x_17_ ^ 2 - 2 x_68_ * x_17_ + 1 x_68_ ^ 2 + 1 y_17_ ^ 2 - 2 y_68_ * y_17_ + 1 y_68_ ^ 2 ] >= 5940.99
quadratic_ranged_292_lb: [ 1 x_20_ ^ 2 - 2 x_68_ * x_20_ + 1 x_68_ ^ 2 + 1 y_20_ ^ 2 - 2 y_68_ * y_20_ + 1 y_68_ ^ 2 ] >= 4681.71
quadratic_ranged_293_lb: [ 1 x_47_ ^ 2 - 2 x_68_ * x_47_ + 1 x_68_ ^ 2 + 1 y_47_ ^ 2 - 2 y_68_ * y_47_ + 1 y_68_ ^ 2 ] >= 6210.2699999999995
quadratic_ranged_294_lb: [ 1 x_56_ ^ 2 - 2 x_68_ * x_56_ + 1 x_68_ ^ 2 + 1 y_56_ ^ 2 - 2 y_68_ * y_56_ + 1 y_68_ ^ 2 ] >= 11904.75
quadratic_ranged_295_lb: [ 1 x_67_ ^ 2 - 2 x_68_ * x_67_ + 1 x_68_ ^ 2 + 1 y_67_ ^ 2 - 2 y_68_ * y_67_ + 1 y_68_ ^ 2 ] >= 14371.83
quadratic_ranged_296_lb: [ 1 x_3_ ^ 2 - 2 x_69_ * x_3_ + 1 x_69_ ^ 2 + 1 y_3_ ^ 2 - 2 y_69_ * y_3_ + 1 y_69_ ^ 2 ] >= 3113.55
quadratic_ranged_297_lb: [ 1 x_4_ ^ 2 - 2 x_69_ * x_4_ + 1 x_69_ ^ 2 + 1 y_4_ ^ 2 - 2 y_69_ * y_4_ + 1 y_69_ ^ 2 ] >= 1509.75
quadratic_ranged_298_lb: [ 1 x_5_ ^ 2 - 2 x_69_ * x_5_ + 1 x_69_ ^ 2 + 1 y_5_ ^ 2 - 2 y_69_ * y_5_ + 1 y_69_ ^ 2 ] >= 28076.4
quadratic_ranged_299_lb: [ 1 x_24_ ^ 2 - 2 x_69_ * x_24_ + 1 x_69_ ^ 2 + 1 y_24_ ^ 2 - 2 y_69_ * y_24_ + 1 y_69_ ^ 2 ] >= 7425.99
quadratic_ranged_300_lb: [ 1 x_41_ ^ 2 - 2 x_69_ * x_41_ + 1 x_69_ ^ 2 + 1 y_41_ ^ 2 - 2 y_69_ * y_41_ + 1 y_69_ ^ 2 ] >= 12518.55
quadratic_ranged_301_lb: [ 1 x_51_ ^ 2 - 2 x_69_ * x_51_ + 1 x_69_ ^ 2 + 1 y_51_ ^ 2 - 2 y_69_ * y_51_ + 1 y_69_ ^ 2 ] >= 25813.26
quadratic_ranged_302_lb: [ 1 x_58_ ^ 2 - 2 x_69_ * x_58_ + 1 x_69_ ^ 2 + 1 y_58_ ^ 2 - 2 y_69_ * y_58_ + 1 y_69_ ^ 2 ] >= 5593.5
quadratic_ranged_303_lb: [ 1 x_68_ ^ 2 - 2 x_69_ * x_68_ + 1 x_69_ ^ 2 + 1 y_68_ ^ 2 - 2 y_69_ * y_68_ + 1 y_69_ ^ 2 ] >= 939.51
quadratic_ranged_304_lb: [ 1 x_13_ ^ 2 - 2 x_70_ * x_13_ + 1 x_70_ ^ 2 + 1 y_13_ ^ 2 - 2 y_70_ * y_13_ + 1 y_70_ ^ 2 ] >= 18949.59
quadratic_ranged_305_lb: [ 1 x_20_ ^ 2 - 2 x_70_ * x_20_ + 1 x_70_ ^ 2 + 1 y_20_ ^ 2 - 2 y_70_ * y_20_ + 1 y_70_ ^ 2 ] >= 17364.6
quadratic_ranged_306_lb: [ 1 x_30_ ^ 2 - 2 x_70_ * x_30_ + 1 x_70_ ^ 2 + 1 y_30_ ^ 2 - 2 y_70_ * y_30_ + 1 y_70_ ^ 2 ] >= 15753.869999999999
quadratic_ranged_307_lb: [ 1 x_39_ ^ 2 - 2 x_70_ * x_39_ + 1 x_70_ ^ 2 + 1 y_39_ ^ 2 - 2 y_70_ * y_39_ + 1 y_70_ ^ 2 ] >= 30195
quadratic_ranged_308_lb: [ 1 x_41_ ^ 2 - 2 x_70_ * x_41_ + 1 x_70_ ^ 2 + 1 y_41_ ^ 2 - 2 y_70_ * y_41_ + 1 y_70_ ^ 2 ] >= 1664.19
quadratic_ranged_309_lb: [ 1 x_42_ ^ 2 - 2 x_70_ * x_42_ + 1 x_70_ ^ 2 + 1 y_42_ ^ 2 - 2 y_70_ * y_42_ + 1 y_70_ ^ 2 ] >= 7509.15
quadratic_ranged_310_lb: [ 1 x_49_ ^ 2 - 2 x_70_ * x_49_ + 1 x_70_ ^ 2 + 1 y_49_ ^ 2 - 2 y_70_ * y_49_ + 1 y_70_ ^ 2 ] >= 5805.36
quadratic_ranged_311_lb: [ 1 x_57_ ^ 2 - 2 x_70_ * x_57_ + 1 x_70_ ^ 2 + 1 y_57_ ^ 2 - 2 y_70_ * y_57_ + 1 y_70_ ^ 2 ] >= 9330.75
quadratic_ranged_312_lb: [ 1 x_60_ ^ 2 - 2 x_70_ * x_60_ + 1 x_70_ ^ 2 + 1 y_60_ ^ 2 - 2 y_70_ * y_60_ + 1 y_70_ ^ 2 ] >= 1454.31
quadratic_ranged_313_lb: [ 1 x_65_ ^ 2 - 2 x_70_ * x_65_ + 1 x_70_ ^ 2 + 1 y_65_ ^ 2 - 2 y_70_ * y_65_ + 1 y_70_ ^ 2 ] >= 30290.04
quadratic_ranged_314_lb: [ 1 x_69_ ^ 2 - 2 x_70_ * x_69_ + 1 x_70_ ^ 2 + 1 y_69_ ^ 2 - 2 y_70_ * y_69_ + 1 y_70_ ^ 2 ] >= 6377.58
quadratic_ranged_315_lb: [ 1 x_7_ ^ 2 - 2 x_71_ * x_7_ + 1 x_71_ ^ 2 + 1 y_7_ ^ 2 - 2 y_71_ * y_7_ + 1 y_71_ ^ 2 ] >= 10182.15
quadratic_ranged_316_lb: [ 1 x_8_ ^ 2 - 2 x_71_ * x_8_ + 1 x_71_ ^ 2 + 1 y_8_ ^ 2 - 2 y_71_ * y_8_ + 1 y_71_ ^ 2 ] >= 9444.6
quadratic_ranged_317_lb: [ 1 x_11_ ^ 2 - 2 x_71_ * x_11_ + 1 x_71_ ^ 2 + 1 y_11_ ^ 2 - 2 y_71_ * y_11_ + 1 y_71_ ^ 2 ] >= 38714.94
quadratic_ranged_318_lb: [ 1 x_14_ ^ 2 - 2 x_71_ * x_14_ + 1 x_71_ ^ 2 + 1 y_14_ ^ 2 - 2 y_71_ * y_14_ + 1 y_71_ ^ 2 ] >= 31922.55
quadratic_ranged_319_lb: [ 1 x_15_ ^ 2 - 2 x_71_ * x_15_ + 1 x_71_ ^ 2 + 1 y_15_ ^ 2 - 2 y_71_ * y_15_ + 1 y_71_ ^ 2 ] >= 9374.31
quadratic_ranged_320_lb: [ 1 x_27_ ^ 2 - 2 x_71_ * x_27_ + 1 x_71_ ^ 2 + 1 y_27_ ^ 2 - 2 y_71_ * y_27_ + 1 y_71_ ^ 2 ] >= 18344.7
quadratic_ranged_321_lb: [ 1 x_33_ ^ 2 - 2 x_71_ * x_33_ + 1 x_71_ ^ 2 + 1 y_33_ ^ 2 - 2 y_71_ * y_33_ + 1 y_71_ ^ 2 ] >= 12253.23
quadratic_ranged_322_lb: [ 1 x_70_ ^ 2 - 2 x_71_ * x_70_ + 1 x_71_ ^ 2 + 1 y_70_ ^ 2 - 2 y_71_ * y_70_ + 1 y_71_ ^ 2 ] >= 24150.06
quadratic_ranged_323_lb: [ 1 x_5_ ^ 2 - 2 x_72_ * x_5_ + 1 x_72_ ^ 2 + 1 y_5_ ^ 2 - 2 y_72_ * y_5_ + 1 y_72_ ^ 2 ] >= 30037.59
quadratic_ranged_324_lb: [ 1 x_8_ ^ 2 - 2 x_72_ * x_8_ + 1 x_72_ ^ 2 + 1 y_8_ ^ 2 - 2 y_72_ * y_8_ + 1 y_72_ ^ 2 ] >= 8566.47
quadratic_ranged_325_lb: [ 1 x_15_ ^ 2 - 2 x_72_ * x_15_ + 1 x_72_ ^ 2 + 1 y_15_ ^ 2 - 2 y_72_ * y_15_ + 1 y_72_ ^ 2 ] >= 2296.8
quadratic_ranged_326_lb: [ 1 x_19_ ^ 2 - 2 x_72_ * x_19_ + 1 x_72_ ^ 2 + 1 y_19_ ^ 2 - 2 y_72_ * y_19_ + 1 y_72_ ^ 2 ] >= 18735.75
quadratic_ranged_327_lb: [ 1 x_23_ ^ 2 - 2 x_72_ * x_23_ + 1 x_72_ ^ 2 + 1 y_23_ ^ 2 - 2 y_72_ * y_23_ + 1 y_72_ ^ 2 ] >= 36790.38
quadratic_ranged_328_lb: [ 1 x_33_ ^ 2 - 2 x_72_ * x_33_ + 1 x_72_ ^ 2 + 1 y_33_ ^ 2 - 2 y_72_ * y_33_ + 1 y_72_ ^ 2 ] >= 25110.36
quadratic_ranged_329_lb: [ 1 x_36_ ^ 2 - 2 x_72_ * x_36_ + 1 x_72_ ^ 2 + 1 y_36_ ^ 2 - 2 y_72_ * y_36_ + 1 y_72_ ^ 2 ] >= 35961.75
quadratic_ranged_330_lb: [ 1 x_42_ ^ 2 - 2 x_72_ * x_42_ + 1 x_72_ ^ 2 + 1 y_42_ ^ 2 - 2 y_72_ * y_42_ + 1 y_72_ ^ 2 ] >= 30636.54
quadratic_ranged_331_lb: [ 1 x_48_ ^ 2 - 2 x_72_ * x_48_ + 1 x_72_ ^ 2 + 1 y_48_ ^ 2 - 2 y_72_ * y_48_ + 1 y_72_ ^ 2 ] >= 7048.8
quadratic_ranged_332_lb: [ 1 x_63_ ^ 2 - 2 x_72_ * x_63_ + 1 x_72_ ^ 2 + 1 y_63_ ^ 2 - 2 y_72_ * y_63_ + 1 y_72_ ^ 2 ] >= 32290.829999999998
quadratic_ranged_333_lb: [ 1 x_71_ ^ 2 - 2 x_72_ * x_71_ + 1 x_72_ ^ 2 + 1 y_71_ ^ 2 - 2 y_72_ * y_71_ + 1 y_72_ ^ 2 ] >= 20945.43
quadratic_ranged_334_lb: [ 1 x_33_ ^ 2 - 2 x_73_ * x_33_ + 1 x_73_ ^ 2 + 1 y_33_ ^ 2 - 2 y_73_ * y_33_ + 1 y_73_ ^ 2 ] >= 2496.78
quadratic_ranged_335_lb: [ 1 x_36_ ^ 2 - 2 x_73_ * x_36_ + 1 x_73_ ^ 2 + 1 y_36_ ^ 2 - 2 y_73_ * y_36_ + 1 y_73_ ^ 2 ] >= 1141.47
quadratic_ranged_336_lb: [ 1 x_56_ ^ 2 - 2 x_73_ * x_56_ + 1 x_73_ ^ 2 + 1 y_56_ ^ 2 - 2 y_73_ * y_56_ + 1 y_73_ ^ 2 ] >= 23242.23
quadratic_ranged_337_lb: [ 1 x_72_ ^ 2 - 2 x_73_ * x_72_ + 1 x_73_ ^ 2 + 1 y_72_ ^ 2 - 2 y_73_ * y_72_ + 1 y_73_ ^ 2 ] >= 32988.78
quadratic_ranged_338_lb: [ 1 x_15_ ^ 2 - 2 x_74_ * x_15_ + 1 x_74_ ^ 2 + 1 y_15_ ^ 2 - 2 y_74_ * y_15_ + 1 y_74_ ^ 2 ] >= 6187.5
quadratic_ranged_339_lb: [ 1 x_21_ ^ 2 - 2 x_74_ * x_21_ + 1 x_74_ ^ 2 + 1 y_21_ ^ 2 - 2 y_74_ * y_21_ + 1 y_74_ ^ 2 ] >= 4436.19
quadratic_ranged_340_lb: [ 1 x_23_ ^ 2 - 2 x_74_ * x_23_ + 1 x_74_ ^ 2 + 1 y_23_ ^ 2 - 2 y_74_ * y_23_ + 1 y_74_ ^ 2 ] >= 12184.92
quadratic_ranged_341_lb: [ 1 x_30_ ^ 2 - 2 x_74_ * x_30_ + 1 x_74_ ^ 2 + 1 y_30_ ^ 2 - 2 y_74_ * y_30_ + 1 y_74_ ^ 2 ] >= 7866.54
quadratic_ranged_342_lb: [ 1 x_40_ ^ 2 - 2 x_74_ * x_40_ + 1 x_74_ ^ 2 + 1 y_40_ ^ 2 - 2 y_74_ * y_40_ + 1 y_74_ ^ 2 ] >= 503.90999999999997
quadratic_ranged_343_lb: [ 1 x_55_ ^ 2 - 2 x_74_ * x_55_ + 1 x_74_ ^ 2 + 1 y_55_ ^ 2 - 2 y_74_ * y_55_ + 1 y_74_ ^ 2 ] >= 17869.5
quadratic_ranged_344_lb: [ 1 x_68_ ^ 2 - 2 x_74_ * x_68_ + 1 x_74_ ^ 2 + 1 y_68_ ^ 2 - 2 y_74_ * y_68_ + 1 y_74_ ^ 2 ] >= 2475
quadratic_ranged_345_lb: [ 1 x_73_ ^ 2 - 2 x_74_ * x_73_ + 1 x_74_ ^ 2 + 1 y_73_ ^ 2 - 2 y_74_ * y_73_ + 1 y_74_ ^ 2 ] >= 7135.92
quadratic_ranged_346_lb: [ 1 x_13_ ^ 2 - 2 x_75_ * x_13_ + 1 x_75_ ^ 2 + 1 y_13_ ^ 2 - 2 y_75_ * y_13_ + 1 y_75_ ^ 2 ] >= 2425.5
quadratic_ranged_347_lb: [ 1 x_18_ ^ 2 - 2 x_75_ * x_18_ + 1 x_75_ ^ 2 + 1 y_18_ ^ 2 - 2 y_75_ * y_18_ + 1 y_75_ ^ 2 ] >= 3108.6
quadratic_ranged_348_lb: [ 1 x_19_ ^ 2 - 2 x_75_ * x_19_ + 1 x_75_ ^ 2 + 1 y_19_ ^ 2 - 2 y_75_ * y_19_ + 1 y_75_ ^ 2 ] >= 6570.63
quadratic_ranged_349_lb: [ 1 x_31_ ^ 2 - 2 x_75_ * x_31_ + 1 x_75_ ^ 2 + 1 y_31_ ^ 2 - 2 y_75_ * y_31_ + 1 y_75_ ^ 2 ] >= 22754.16
quadratic_ranged_350_lb: [ 1 x_35_ ^ 2 - 2 x_75_ * x_35_ + 1 x_75_ ^ 2 + 1 y_35_ ^ 2 - 2 y_75_ * y_35_ + 1 y_75_ ^ 2 ] >= 15572.7
quadratic_ranged_351_lb: [ 1 x_37_ ^ 2 - 2 x_75_ * x_37_ + 1 x_75_ ^ 2 + 1 y_37_ ^ 2 - 2 y_75_ * y_37_ + 1 y_75_ ^ 2 ] >= 39.6
quadratic_ranged_352_lb: [ 1 x_59_ ^ 2 - 2 x_75_ * x_59_ + 1 x_75_ ^ 2 + 1 y_59_ ^ 2 - 2 y_75_ * y_59_ + 1 y_75_ ^ 2 ] >= 15057.9
quadratic_ranged_353_lb: [ 1 x_74_ ^ 2 - 2 x_75_ * x_74_ + 1 x_75_ ^ 2 + 1 y_74_ ^ 2 - 2 y_75_ * y_74_ + 1 y_75_ ^ 2 ] >= 8508.06
quadratic_ranged_354_lb: [ 1 x_1_ ^ 2 - 2 x_76_ * x_1_ + 1 x_76_ ^ 2 + 1 y_1_ ^ 2 - 2 y_76_ * y_1_ + 1 y_76_ ^ 2 ] >= 10989.99
quadratic_ranged_355_lb: [ 1 x_4_ ^ 2 - 2 x_76_ * x_4_ + 1 x_76_ ^ 2 + 1 y_4_ ^ 2 - 2 y_76_ * y_4_ + 1 y_76_ ^ 2 ] >= 1086.03
quadratic_ranged_356_lb: [ 1 x_8_ ^ 2 - 2 x_76_ * x_8_ + 1 x_76_ ^ 2 + 1 y_8_ ^ 2 - 2 y_76_ * y_8_ + 1 y_76_ ^ 2 ] >= 15905.34
quadratic_ranged_357_lb: [ 1 x_11_ ^ 2 - 2 x_76_ * x_11_ + 1 x_76_ ^ 2 + 1 y_11_ ^ 2 - 2 y_76_ * y_11_ + 1 y_76_ ^ 2 ] >= 8731.8
quadratic_ranged_358_lb: [ 1 x_36_ ^ 2 - 2 x_76_ * x_36_ + 1 x_76_ ^ 2 + 1 y_36_ ^ 2 - 2 y_76_ * y_36_ + 1 y_76_ ^ 2 ] >= 21245.4
quadratic_ranged_359_lb: [ 1 x_43_ ^ 2 - 2 x_76_ * x_43_ + 1 x_76_ ^ 2 + 1 y_43_ ^ 2 - 2 y_76_ * y_43_ + 1 y_76_ ^ 2 ] >= 5132.16
quadratic_ranged_360_lb: [ 1 x_49_ ^ 2 - 2 x_76_ * x_49_ + 1 x_76_ ^ 2 + 1 y_49_ ^ 2 - 2 y_76_ * y_49_ + 1 y_76_ ^ 2 ] >= 3029.4
quadratic_ranged_361_lb: [ 1 x_72_ ^ 2 - 2 x_76_ * x_72_ + 1 x_76_ ^ 2 + 1 y_72_ ^ 2 - 2 y_76_ * y_72_ + 1 y_76_ ^ 2 ] >= 4855.95
quadratic_ranged_362_lb: [ 1 x_73_ ^ 2 - 2 x_76_ * x_73_ + 1 x_76_ ^ 2 + 1 y_73_ ^ 2 - 2 y_76_ * y_73_ + 1 y_76_ ^ 2 ] >= 16395.39
quadratic_ranged_363_lb: [ 1 x_75_ ^ 2 - 2 x_76_ * x_75_ + 1 x_76_ ^ 2 + 1 y_75_ ^ 2 - 2 y_76_ * y_75_ + 1 y_76_ ^ 2 ] >= 11548.35
quadratic_ranged_364_lb: [ 1 x_9_ ^ 2 - 2 x_77_ * x_9_ + 1 x_77_ ^ 2 + 1 y_9_ ^ 2 - 2 y_77_ * y_9_ + 1 y_77_ ^ 2 ] >= 1356.3
quadratic_ranged_365_lb: [ 1 x_15_ ^ 2 - 2 x_77_ * x_15_ + 1 x_77_ ^ 2 + 1 y_15_ ^ 2 - 2 y_77_ * y_15_ + 1 y_77_ ^ 2 ] >= 7432.92
quadratic_ranged_366_lb: [ 1 x_20_ ^ 2 - 2 x_77_ * x_20_ + 1 x_77_ ^ 2 + 1 y_20_ ^ 2 - 2 y_77_ * y_20_ + 1 y_77_ ^ 2 ] >= 4242.15
quadratic_ranged_367_lb: [ 1 x_28_ ^ 2 - 2 x_77_ * x_28_ + 1 x_77_ ^ 2 + 1 y_28_ ^ 2 - 2 y_77_ * y_28_ + 1 y_77_ ^ 2 ] >= 19781.19
quadratic_ranged_368_lb: [ 1 x_31_ ^ 2 - 2 x_77_ * x_31_ + 1 x_77_ ^ 2 + 1 y_31_ ^ 2 - 2 y_77_ * y_31_ + 1 y_77_ ^ 2 ] >= 24488.64
quadratic_ranged_369_lb: [ 1 x_37_ ^ 2 - 2 x_77_ * x_37_ + 1 x_77_ ^ 2 + 1 y_37_ ^ 2 - 2 y_77_ * y_37_ + 1 y_77_ ^ 2 ] >= 22888.8
quadratic_ranged_370_lb: [ 1 x_69_ ^ 2 - 2 x_77_ * x_69_ + 1 x_77_ ^ 2 + 1 y_69_ ^ 2 - 2 y_77_ * y_69_ + 1 y_77_ ^ 2 ] >= 9560.43
quadratic_ranged_371_lb: [ 1 x_71_ ^ 2 - 2 x_77_ * x_71_ + 1 x_77_ ^ 2 + 1 y_71_ ^ 2 - 2 y_77_ * y_71_ + 1 y_77_ ^ 2 ] >= 32421.51
quadratic_ranged_372_lb: [ 1 x_72_ ^ 2 - 2 x_77_ * x_72_ + 1 x_77_ ^ 2 + 1 y_72_ ^ 2 - 2 y_77_ * y_72_ + 1 y_77_ ^ 2 ] >= 2110.68
quadratic_ranged_373_lb: [ 1 x_76_ ^ 2 - 2 x_77_ * x_76_ + 1 x_77_ ^ 2 + 1 y_76_ ^ 2 - 2 y_77_ * y_76_ + 1 y_77_ ^ 2 ] >= 5327.19
quadratic_ranged_374_lb: [ 1 x_1_ ^ 2 - 2 x_78_ * x_1_ + 1 x_78_ ^ 2 + 1 y_1_ ^ 2 - 2 y_78_ * y_1_ + 1 y_78_ ^ 2 ] >= 18878.31
quadratic_ranged_375_lb: [ 1 x_2_ ^ 2 - 2 x_78_ * x_2_ + 1 x_78_ ^ 2 + 1 y_2_ ^ 2 - 2 y_78_ * y_2_ + 1 y_78_ ^ 2 ] >= 15924.15
quadratic_ranged_376_lb: [ 1 x_9_ ^ 2 - 2 x_78_ * x_9_ + 1 x_78_ ^ 2 + 1 y_9_ ^ 2 - 2 y_78_ * y_9_ + 1 y_78_ ^ 2 ] >= 28635.75
quadratic_ranged_377_lb: [ 1 x_18_ ^ 2 - 2 x_78_ * x_18_ + 1 x_78_ ^ 2 + 1 y_18_ ^ 2 - 2 y_78_ * y_18_ + 1 y_78_ ^ 2 ] >= 8998.11
quadratic_ranged_378_lb: [ 1 x_41_ ^ 2 - 2 x_78_ * x_41_ + 1 x_78_ ^ 2 + 1 y_41_ ^ 2 - 2 y_78_ * y_41_ + 1 y_78_ ^ 2 ] >= 3921.39
quadratic_ranged_379_lb: [ 1 x_50_ ^ 2 - 2 x_78_ * x_50_ + 1 x_78_ ^ 2 + 1 y_50_ ^ 2 - 2 y_78_ * y_50_ + 1 y_78_ ^ 2 ] >= 9172.35
quadratic_ranged_380_lb: [ 1 x_63_ ^ 2 - 2 x_78_ * x_63_ + 1 x_78_ ^ 2 + 1 y_63_ ^ 2 - 2 y_78_ * y_63_ + 1 y_78_ ^ 2 ] >= 3239.2799999999997
quadratic_ranged_381_lb: [ 1 x_68_ ^ 2 - 2 x_78_ * x_68_ + 1 x_78_ ^ 2 + 1 y_68_ ^ 2 - 2 y_78_ * y_68_ + 1 y_78_ ^ 2 ] >= 10518.75
quadratic_ranged_382_lb: [ 1 x_77_ ^ 2 - 2 x_78_ * x_77_ + 1 x_78_ ^ 2 + 1 y_77_ ^ 2 - 2 y_78_ * y_77_ + 1 y_78_ ^ 2 ] >= 27182.43
quadratic_ranged_383_lb: [ 1 x_11_ ^ 2 - 2 x_79_ * x_11_ + 1 x_79_ ^ 2 + 1 y_11_ ^ 2 - 2 y_79_ * y_11_ + 1 y_79_ ^ 2 ] >= 9828.72
quadratic_ranged_384_lb: [ 1 x_14_ ^ 2 - 2 x_79_ * x_14_ + 1 x_79_ ^ 2 + 1 y_14_ ^ 2 - 2 y_79_ * y_14_ + 1 y_79_ ^ 2 ] >= 6499.35
quadratic_ranged_385_lb: [ 1 x_19_ ^ 2 - 2 x_79_ * x_19_ + 1 x_79_ ^ 2 + 1 y_19_ ^ 2 - 2 y_79_ * y_19_ + 1 y_79_ ^ 2 ] >= 7306.2
quadratic_ranged_386_lb: [ 1 x_51_ ^ 2 - 2 x_79_ * x_51_ + 1 x_79_ ^ 2 + 1 y_51_ ^ 2 - 2 y_79_ * y_51_ + 1 y_79_ ^ 2 ] >= 3156.12
quadratic_ranged_387_lb: [ 1 x_65_ ^ 2 - 2 x_79_ * x_65_ + 1 x_79_ ^ 2 + 1 y_65_ ^ 2 - 2 y_79_ * y_65_ + 1 y_79_ ^ 2 ] >= 7464.6
quadratic_ranged_388_lb: [ 1 x_78_ ^ 2 - 2 x_79_ * x_78_ + 1 x_79_ ^ 2 + 1 y_78_ ^ 2 - 2 y_79_ * y_78_ + 1 y_79_ ^ 2 ] >= 8466.48
quadratic_ranged_389_lb: [ 1 x_4_ ^ 2 - 2 x_80_ * x_4_ + 1 x_80_ ^ 2 + 1 y_4_ ^ 2 - 2 y_80_ * y_4_ + 1 y_80_ ^ 2 ] >= 3758.04
quadratic_ranged_390_lb: [ 1 x_7_ ^ 2 - 2 x_80_ * x_7_ + 1 x_80_ ^ 2 + 1 y_7_ ^ 2 - 2 y_80_ * y_7_ + 1 y_80_ ^ 2 ] >= 11266.2
quadratic_ranged_391_lb: [ 1 x_13_ ^ 2 - 2 x_80_ * x_13_ + 1 x_80_ ^ 2 + 1 y_13_ ^ 2 - 2 y_80_ * y_13_ + 1 y_80_ ^ 2 ] >= 6718.14
quadratic_ranged_392_lb: [ 1 x_23_ ^ 2 - 2 x_80_ * x_23_ + 1 x_80_ ^ 2 + 1 y_23_ ^ 2 - 2 y_80_ * y_23_ + 1 y_80_ ^ 2 ] >= 8112.0599999999995
quadratic_ranged_393_lb: [ 1 x_53_ ^ 2 - 2 x_80_ * x_53_ + 1 x_80_ ^ 2 + 1 y_53_ ^ 2 - 2 y_80_ * y_53_ + 1 y_80_ ^ 2 ] >= 8484.3
quadratic_ranged_394_lb: [ 1 x_71_ ^ 2 - 2 x_80_ * x_71_ + 1 x_80_ ^ 2 + 1 y_71_ ^ 2 - 2 y_80_ * y_71_ + 1 y_80_ ^ 2 ] >= 9425.789999999999
quadratic_ranged_395_lb: [ 1 x_76_ ^ 2 - 2 x_80_ * x_76_ + 1 x_80_ ^ 2 + 1 y_76_ ^ 2 - 2 y_80_ * y_76_ + 1 y_80_ ^ 2 ] >= 5327.19
quadratic_ranged_396_lb: [ 1 x_78_ ^ 2 - 2 x_80_ * x_78_ + 1 x_80_ ^ 2 + 1 y_78_ ^ 2 - 2 y_80_ * y_78_ + 1 y_80_ ^ 2 ] >= 1284.03
quadratic_ranged_397_lb: [ 1 x_79_ ^ 2 - 2 x_80_ * x_79_ + 1 x_80_ ^ 2 + 1 y_79_ ^ 2 - 2 y_80_ * y_79_ + 1 y_80_ ^ 2 ] >= 7497.2699999999995
quadratic_ranged_398_lb: [ 1 x_3_ ^ 2 - 2 x_81_ * x_3_ + 1 x_81_ ^ 2 + 1 y_3_ ^ 2 - 2 y_81_ * y_3_ + 1 y_81_ ^ 2 ] >= 9576.27
quadratic_ranged_399_lb: [ 1 x_11_ ^ 2 - 2 x_81_ * x_11_ + 1 x_81_ ^ 2 + 1 y_11_ ^ 2 - 2 y_81_ * y_11_ + 1 y_81_ ^ 2 ] >= 7177.5
quadratic_ranged_400_lb: [ 1 x_15_ ^ 2 - 2 x_81_ * x_15_ + 1 x_81_ ^ 2 + 1 y_15_ ^ 2 - 2 y_81_ * y_15_ + 1 y_81_ ^ 2 ] >= 1533.51
quadratic_ranged_401_lb: [ 1 x_25_ ^ 2 - 2 x_81_ * x_25_ + 1 x_81_ ^ 2 + 1 y_25_ ^ 2 - 2 y_81_ * y_25_ + 1 y_81_ ^ 2 ] >= 6187.5
quadratic_ranged_402_lb: [ 1 x_32_ ^ 2 - 2 x_81_ * x_32_ + 1 x_81_ ^ 2 + 1 y_32_ ^ 2 - 2 y_81_ * y_32_ + 1 y_81_ ^ 2 ] >= 18498.15
quadratic_ranged_403_lb: [ 1 x_63_ ^ 2 - 2 x_81_ * x_63_ + 1 x_81_ ^ 2 + 1 y_63_ ^ 2 - 2 y_81_ * y_63_ + 1 y_81_ ^ 2 ] >= 16998.3
quadratic_ranged_404_lb: [ 1 x_71_ ^ 2 - 2 x_81_ * x_71_ + 1 x_81_ ^ 2 + 1 y_71_ ^ 2 - 2 y_81_ * y_71_ + 1 y_81_ ^ 2 ] >= 13895.64
quadratic_ranged_405_lb: [ 1 x_80_ ^ 2 - 2 x_81_ * x_80_ + 1 x_81_ ^ 2 + 1 y_80_ ^ 2 - 2 y_81_ * y_80_ + 1 y_81_ ^ 2 ] >= 7422.03
quadratic_ranged_406_lb: [ 1 x_16_ ^ 2 - 2 x_82_ * x_16_ + 1 x_82_ ^ 2 + 1 y_16_ ^ 2 - 2 y_82_ * y_16_ + 1 y_82_ ^ 2 ] >= 22463.1
quadratic_ranged_407_lb: [ 1 x_21_ ^ 2 - 2 x_82_ * x_21_ + 1 x_82_ ^ 2 + 1 y_21_ ^ 2 - 2 y_82_ * y_21_ + 1 y_82_ ^ 2 ] >= 10989.99
quadratic_ranged_408_lb: [ 1 x_44_ ^ 2 - 2 x_82_ * x_44_ + 1 x_82_ ^ 2 + 1 y_44_ ^ 2 - 2 y_82_ * y_44_ + 1 y_82_ ^ 2 ] >= 3196.71
quadratic_ranged_409_lb: [ 1 x_45_ ^ 2 - 2 x_82_ * x_45_ + 1 x_82_ ^ 2 + 1 y_45_ ^ 2 - 2 y_82_ * y_45_ + 1 y_82_ ^ 2 ] >= 38720.88
quadratic_ranged_410_lb: [ 1 x_61_ ^ 2 - 2 x_82_ * x_61_ + 1 x_82_ ^ 2 + 1 y_61_ ^ 2 - 2 y_82_ * y_61_ + 1 y_82_ ^ 2 ] >= 9710.91
quadratic_ranged_411_lb: [ 1 x_74_ ^ 2 - 2 x_82_ * x_74_ + 1 x_82_ ^ 2 + 1 y_74_ ^ 2 - 2 y_82_ * y_74_ + 1 y_82_ ^ 2 ] >= 8118
quadratic_ranged_412_lb: [ 1 x_76_ ^ 2 - 2 x_82_ * x_76_ + 1 x_82_ ^ 2 + 1 y_76_ ^ 2 - 2 y_82_ * y_76_ + 1 y_82_ ^ 2 ] >= 6725.07
quadratic_ranged_413_lb: [ 1 x_81_ ^ 2 - 2 x_82_ * x_81_ + 1 x_82_ ^ 2 + 1 y_81_ ^ 2 - 2 y_82_ * y_81_ + 1 y_82_ ^ 2 ] >= 10780.11
quadratic_ranged_414_lb: [ 1 x_7_ ^ 2 - 2 x_83_ * x_7_ + 1 x_83_ ^ 2 + 1 y_7_ ^ 2 - 2 y_83_ * y_7_ + 1 y_83_ ^ 2 ] >= 22893.75
quadratic_ranged_415_lb: [ 1 x_16_ ^ 2 - 2 x_83_ * x_16_ + 1 x_83_ ^ 2 + 1 y_16_ ^ 2 - 2 y_83_ * y_16_ + 1 y_83_ ^ 2 ] >= 31059.27
quadratic_ranged_416_lb: [ 1 x_23_ ^ 2 - 2 x_83_ * x_23_ + 1 x_83_ ^ 2 + 1 y_23_ ^ 2 - 2 y_83_ * y_23_ + 1 y_83_ ^ 2 ] >= 20830.59
quadratic_ranged_417_lb: [ 1 x_36_ ^ 2 - 2 x_83_ * x_36_ + 1 x_83_ ^ 2 + 1 y_36_ ^ 2 - 2 y_83_ * y_36_ + 1 y_83_ ^ 2 ] >= 18857.52
quadratic_ranged_418_lb: [ 1 x_40_ ^ 2 - 2 x_83_ * x_40_ + 1 x_83_ ^ 2 + 1 y_40_ ^ 2 - 2 y_83_ * y_40_ + 1 y_83_ ^ 2 ] >= 7769.5199999999995
quadratic_ranged_419_lb: [ 1 x_41_ ^ 2 - 2 x_83_ * x_41_ + 1 x_83_ ^ 2 + 1 y_41_ ^ 2 - 2 y_83_ * y_41_ + 1 y_83_ ^ 2 ] >= 2697.75
quadratic_ranged_420_lb: [ 1 x_56_ ^ 2 - 2 x_83_ * x_56_ + 1 x_83_ ^ 2 + 1 y_56_ ^ 2 - 2 y_83_ * y_56_ + 1 y_83_ ^ 2 ] >= 26993.34
quadratic_ranged_421_lb: [ 1 x_59_ ^ 2 - 2 x_83_ * x_59_ + 1 x_83_ ^ 2 + 1 y_59_ ^ 2 - 2 y_83_ * y_59_ + 1 y_83_ ^ 2 ] >= 10380.15
quadratic_ranged_422_lb: [ 1 x_79_ ^ 2 - 2 x_83_ * x_79_ + 1 x_83_ ^ 2 + 1 y_79_ ^ 2 - 2 y_83_ * y_79_ + 1 y_83_ ^ 2 ] >= 16885.44
quadratic_ranged_423_lb: [ 1 x_82_ ^ 2 - 2 x_83_ * x_82_ + 1 x_83_ ^ 2 + 1 y_82_ ^ 2 - 2 y_83_ * y_82_ + 1 y_83_ ^ 2 ] >= 3925.35
quadratic_ranged_424_lb: [ 1 x_9_ ^ 2 - 2 x_84_ * x_9_ + 1 x_84_ ^ 2 + 1 y_9_ ^ 2 - 2 y_84_ * y_9_ + 1 y_84_ ^ 2 ] >= 12761.1
quadratic_ranged_425_lb: [ 1 x_14_ ^ 2 - 2 x_84_ * x_14_ + 1 x_84_ ^ 2 + 1 y_14_ ^ 2 - 2 y_84_ * y_14_ + 1 y_84_ ^ 2 ] >= 6589.44
quadratic_ranged_426_lb: [ 1 x_18_ ^ 2 - 2 x_84_ * x_18_ + 1 x_84_ ^ 2 + 1 y_18_ ^ 2 - 2 y_84_ * y_18_ + 1 y_84_ ^ 2 ] >= 621.72
quadratic_ranged_427_lb: [ 1 x_38_ ^ 2 - 2 x_84_ * x_38_ + 1 x_84_ ^ 2 + 1 y_38_ ^ 2 - 2 y_84_ * y_38_ + 1 y_84_ ^ 2 ] >= 9482.22
quadratic_ranged_428_lb: [ 1 x_58_ ^ 2 - 2 x_84_ * x_58_ + 1 x_84_ ^ 2 + 1 y_58_ ^ 2 - 2 y_84_ * y_58_ + 1 y_84_ ^ 2 ] >= 3493.71
quadratic_ranged_429_lb: [ 1 x_70_ ^ 2 - 2 x_84_ * x_70_ + 1 x_84_ ^ 2 + 1 y_70_ ^ 2 - 2 y_84_ * y_70_ + 1 y_84_ ^ 2 ] >= 27229.95
quadratic_ranged_430_lb: [ 1 x_78_ ^ 2 - 2 x_84_ * x_78_ + 1 x_84_ ^ 2 + 1 y_78_ ^ 2 - 2 y_84_ * y_78_ + 1 y_84_ ^ 2 ] >= 13948.11
quadratic_ranged_431_lb: [ 1 x_83_ ^ 2 - 2 x_84_ * x_83_ + 1 x_84_ ^ 2 + 1 y_83_ ^ 2 - 2 y_84_ * y_83_ + 1 y_84_ ^ 2 ] >= 26814.15
quadratic_ranged_432_lb: [ 1 x_13_ ^ 2 - 2 x_85_ * x_13_ + 1 x_85_ ^ 2 + 1 y_13_ ^ 2 - 2 y_85_ * y_13_ + 1 y_85_ ^ 2 ] >= 11992.86
quadratic_ranged_433_lb: [ 1 x_34_ ^ 2 - 2 x_85_ * x_34_ + 1 x_85_ ^ 2 + 1 y_34_ ^ 2 - 2 y_85_ * y_34_ + 1 y_85_ ^ 2 ] >= 57.42
quadratic_ranged_434_lb: [ 1 x_38_ ^ 2 - 2 x_85_ * x_38_ + 1 x_85_ ^ 2 + 1 y_38_ ^ 2 - 2 y_85_ * y_38_ + 1 y_85_ ^ 2 ] >= 4286.7
quadratic_ranged_435_lb: [ 1 x_44_ ^ 2 - 2 x_85_ * x_44_ + 1 x_85_ ^ 2 + 1 y_44_ ^ 2 - 2 y_85_ * y_44_ + 1 y_85_ ^ 2 ] >= 785.0699999999999
quadratic_ranged_436_lb: [ 1 x_77_ ^ 2 - 2 x_85_ * x_77_ + 1 x_85_ ^ 2 + 1 y_77_ ^ 2 - 2 y_85_ * y_77_ + 1 y_85_ ^ 2 ] >= 23601.6
quadratic_ranged_437_lb: [ 1 x_84_ ^ 2 - 2 x_85_ * x_84_ + 1 x_85_ ^ 2 + 1 y_84_ ^ 2 - 2 y_85_ * y_84_ + 1 y_85_ ^ 2 ] >= 19895.04
quadratic_ranged_438_lb: [ 1 x_32_ ^ 2 - 2 x_86_ * x_32_ + 1 x_86_ ^ 2 + 1 y_32_ ^ 2 - 2 y_86_ * y_32_ + 1 y_86_ ^ 2 ] >= 33448.14
quadratic_ranged_439_lb: [ 1 x_47_ ^ 2 - 2 x_86_ * x_47_ + 1 x_86_ ^ 2 + 1 y_47_ ^ 2 - 2 y_86_ * y_47_ + 1 y_86_ ^ 2 ] >= 12645.27
quadratic_ranged_440_lb: [ 1 x_50_ ^ 2 - 2 x_86_ * x_50_ + 1 x_86_ ^ 2 + 1 y_50_ ^ 2 - 2 y_86_ * y_50_ + 1 y_86_ ^ 2 ] >= 3651.12
quadratic_ranged_441_lb: [ 1 x_63_ ^ 2 - 2 x_86_ * x_63_ + 1 x_86_ ^ 2 + 1 y_63_ ^ 2 - 2 y_86_ * y_63_ + 1 y_86_ ^ 2 ] >= 32496.75
quadratic_ranged_442_lb: [ 1 x_71_ ^ 2 - 2 x_86_ * x_71_ + 1 x_86_ ^ 2 + 1 y_71_ ^ 2 - 2 y_86_ * y_71_ + 1 y_86_ ^ 2 ] >= 5572.71
quadratic_ranged_443_lb: [ 1 x_74_ ^ 2 - 2 x_86_ * x_74_ + 1 x_86_ ^ 2 + 1 y_74_ ^ 2 - 2 y_86_ * y_74_ + 1 y_86_ ^ 2 ] >= 17174.52
quadratic_ranged_444_lb: [ 1 x_76_ ^ 2 - 2 x_86_ * x_76_ + 1 x_86_ ^ 2 + 1 y_76_ ^ 2 - 2 y_86_ * y_76_ + 1 y_86_ ^ 2 ] >= 16969.59
quadratic_ranged_445_lb: [ 1 x_82_ ^ 2 - 2 x_86_ * x_82_ + 1 x_86_ ^ 2 + 1 y_82_ ^ 2 - 2 y_86_ * y_82_ + 1 y_86_ ^ 2 ] >= 44498.52
quadratic_ranged_446_lb: [ 1 x_85_ ^ 2 - 2 x_86_ * x_85_ + 1 x_86_ ^ 2 + 1 y_85_ ^ 2 - 2 y_86_ * y_85_ + 1 y_86_ ^ 2 ] >= 29709.9
quadratic_ranged_447_lb: [ 1 x_1_ ^ 2 - 2 x_87_ * x_1_ + 1 x_87_ ^ 2 + 1 y_1_ ^ 2 - 2 y_87_ * y_1_ + 1 y_87_ ^ 2 ] >= 10744.47
quadratic_ranged_448_lb: [ 1 x_23_ ^ 2 - 2 x_87_ * x_23_ + 1 x_87_ ^ 2 + 1 y_23_ ^ 2 - 2 y_87_ * y_23_ + 1 y_87_ ^ 2 ] >= 35961.75
quadratic_ranged_449_lb: [ 1 x_24_ ^ 2 - 2 x_87_ * x_24_ + 1 x_87_ ^ 2 + 1 y_24_ ^ 2 - 2 y_87_ * y_24_ + 1 y_87_ ^ 2 ] >= 18902.07
quadratic_ranged_450_lb: [ 1 x_38_ ^ 2 - 2 x_87_ * x_38_ + 1 x_87_ ^ 2 + 1 y_38_ ^ 2 - 2 y_87_ * y_38_ + 1 y_87_ ^ 2 ] >= 13488.75
quadratic_ranged_451_lb: [ 1 x_63_ ^ 2 - 2 x_87_ * x_63_ + 1 x_87_ ^ 2 + 1 y_63_ ^ 2 - 2 y_87_ * y_63_ + 1 y_87_ ^ 2 ] >= 24433.2
quadratic_ranged_452_lb: [ 1 x_70_ ^ 2 - 2 x_87_ * x_70_ + 1 x_87_ ^ 2 + 1 y_70_ ^ 2 - 2 y_87_ * y_70_ + 1 y_87_ ^ 2 ] >= 18374.4
quadratic_ranged_453_lb: [ 1 x_73_ ^ 2 - 2 x_87_ * x_73_ + 1 x_87_ ^ 2 + 1 y_73_ ^ 2 - 2 y_87_ * y_73_ + 1 y_87_ ^ 2 ] >= 28813.95
quadratic_ranged_454_lb: [ 1 x_85_ ^ 2 - 2 x_87_ * x_85_ + 1 x_87_ ^ 2 + 1 y_85_ ^ 2 - 2 y_87_ * y_85_ + 1 y_87_ ^ 2 ] >= 15033.15
quadratic_ranged_455_lb: [ 1 x_86_ ^ 2 - 2 x_87_ * x_86_ + 1 x_87_ ^ 2 + 1 y_86_ ^ 2 - 2 y_87_ * y_86_ + 1 y_87_ ^ 2 ] >= 20438.55
quadratic_ranged_456_lb: [ 1 x_41_ ^ 2 - 2 x_88_ * x_41_ + 1 x_88_ ^ 2 + 1 y_41_ ^ 2 - 2 y_88_ * y_41_ + 1 y_88_ ^ 2 ] >= 24395.579999999998
quadratic_ranged_457_lb: [ 1 x_52_ ^ 2 - 2 x_88_ * x_52_ + 1 x_88_ ^ 2 + 1 y_52_ ^ 2 - 2 y_88_ * y_52_ + 1 y_88_ ^ 2 ] >= 3093.75
quadratic_ranged_458_lb: [ 1 x_87_ ^ 2 - 2 x_88_ * x_87_ + 1 x_88_ ^ 2 + 1 y_87_ ^ 2 - 2 y_88_ * y_87_ + 1 y_88_ ^ 2 ] >= 13567.95
quadratic_ranged_459_lb: [ 1 x_1_ ^ 2 - 2 x_89_ * x_1_ + 1 x_89_ ^ 2 + 1 y_1_ ^ 2 - 2 y_89_ * y_1_ + 1 y_89_ ^ 2 ] >= 21567.15
quadratic_ranged_460_lb: [ 1 x_6_ ^ 2 - 2 x_89_ * x_6_ + 1 x_89_ ^ 2 + 1 y_6_ ^ 2 - 2 y_89_ * y_6_ + 1 y_89_ ^ 2 ] >= 22541.31
quadratic_ranged_461_lb: [ 1 x_16_ ^ 2 - 2 x_89_ * x_16_ + 1 x_89_ ^ 2 + 1 y_16_ ^ 2 - 2 y_89_ * y_16_ + 1 y_89_ ^ 2 ] >= 10126.71
quadratic_ranged_462_lb: [ 1 x_18_ ^ 2 - 2 x_89_ * x_18_ + 1 x_89_ ^ 2 + 1 y_18_ ^ 2 - 2 y_89_ * y_18_ + 1 y_89_ ^ 2 ] >= 14403.51
quadratic_ranged_463_lb: [ 1 x_35_ ^ 2 - 2 x_89_ * x_35_ + 1 x_89_ ^ 2 + 1 y_35_ ^ 2 - 2 y_89_ * y_35_ + 1 y_89_ ^ 2 ] >= 18616.95
quadratic_ranged_464_lb: [ 1 x_49_ ^ 2 - 2 x_89_ * x_49_ + 1 x_89_ ^ 2 + 1 y_49_ ^ 2 - 2 y_89_ * y_49_ + 1 y_89_ ^ 2 ] >= 10660.32
quadratic_ranged_465_lb: [ 1 x_62_ ^ 2 - 2 x_89_ * x_62_ + 1 x_89_ ^ 2 + 1 y_62_ ^ 2 - 2 y_89_ * y_62_ + 1 y_89_ ^ 2 ] >= 29060.46
quadratic_ranged_466_lb: [ 1 x_63_ ^ 2 - 2 x_89_ * x_63_ + 1 x_89_ ^ 2 + 1 y_63_ ^ 2 - 2 y_89_ * y_63_ + 1 y_89_ ^ 2 ] >= 21700.8
quadratic_ranged_467_lb: [ 1 x_69_ ^ 2 - 2 x_89_ * x_69_ + 1 x_89_ ^ 2 + 1 y_69_ ^ 2 - 2 y_89_ * y_69_ + 1 y_89_ ^ 2 ] >= 1356.3
quadratic_ranged_468_lb: [ 1 x_73_ ^ 2 - 2 x_89_ * x_73_ + 1 x_89_ ^ 2 + 1 y_73_ ^ 2 - 2 y_89_ * y_73_ + 1 y_89_ ^ 2 ] >= 29704.95
quadratic_ranged_469_lb: [ 1 x_84_ ^ 2 - 2 x_89_ * x_84_ + 1 x_89_ ^ 2 + 1 y_84_ ^ 2 - 2 y_89_ * y_84_ + 1 y_89_ ^ 2 ] >= 13310.55
quadratic_ranged_470_lb: [ 1 x_86_ ^ 2 - 2 x_89_ * x_86_ + 1 x_89_ ^ 2 + 1 y_86_ ^ 2 - 2 y_89_ * y_86_ + 1 y_89_ ^ 2 ] >= 32932.35
quadratic_ranged_471_lb: [ 1 x_88_ ^ 2 - 2 x_89_ * x_88_ + 1 x_89_ ^ 2 + 1 y_88_ ^ 2 - 2 y_89_ * y_88_ + 1 y_89_ ^ 2 ] >= 23242.23
quadratic_ranged_472_lb: [ 1 x_6_ ^ 2 - 2 x_90_ * x_6_ + 1 x_90_ ^ 2 + 1 y_6_ ^ 2 - 2 y_90_ * y_6_ + 1 y_90_ ^ 2 ] >= 10978.11
quadratic_ranged_473_lb: [ 1 x_10_ ^ 2 - 2 x_90_ * x_10_ + 1 x_90_ ^ 2 + 1 y_10_ ^ 2 - 2 y_90_ * y_10_ + 1 y_90_ ^ 2 ] >= 5750.91
quadratic_ranged_474_lb: [ 1 x_15_ ^ 2 - 2 x_90_ * x_15_ + 1 x_90_ ^ 2 + 1 y_15_ ^ 2 - 2 y_90_ * y_15_ + 1 y_90_ ^ 2 ] >= 3271.95
quadratic_ranged_475_lb: [ 1 x_18_ ^ 2 - 2 x_90_ * x_18_ + 1 x_90_ ^ 2 + 1 y_18_ ^ 2 - 2 y_90_ * y_18_ + 1 y_90_ ^ 2 ] >= 4004.55
quadratic_ranged_476_lb: [ 1 x_35_ ^ 2 - 2 x_90_ * x_35_ + 1 x_90_ ^ 2 + 1 y_35_ ^ 2 - 2 y_90_ * y_35_ + 1 y_90_ ^ 2 ] >= 8958.51
quadratic_ranged_477_lb: [ 1 x_57_ ^ 2 - 2 x_90_ * x_57_ + 1 x_90_ ^ 2 + 1 y_57_ ^ 2 - 2 y_90_ * y_57_ + 1 y_90_ ^ 2 ] >= 2008.71
quadratic_ranged_478_lb: [ 1 x_59_ ^ 2 - 2 x_90_ * x_59_ + 1 x_90_ ^ 2 + 1 y_59_ ^ 2 - 2 y_90_ * y_59_ + 1 y_90_ ^ 2 ] >= 891.99
quadratic_ranged_479_lb: [ 1 x_60_ ^ 2 - 2 x_90_ * x_60_ + 1 x_90_ ^ 2 + 1 y_60_ ^ 2 - 2 y_90_ * y_60_ + 1 y_90_ ^ 2 ] >= 3327.39
quadratic_ranged_480_lb: [ 1 x_79_ ^ 2 - 2 x_90_ * x_79_ + 1 x_90_ ^ 2 + 1 y_79_ ^ 2 - 2 y_90_ * y_79_ + 1 y_90_ ^ 2 ] >= 1451.34
quadratic_ranged_481_lb: [ 1 x_89_ ^ 2 - 2 x_90_ * x_89_ + 1 x_90_ ^ 2 + 1 y_89_ ^ 2 - 2 y_90_ * y_89_ + 1 y_90_ ^ 2 ] >= 4611.42
quadratic_ranged_482_lb: [ 1 x_2_ ^ 2 - 2 x_91_ * x_2_ + 1 x_91_ ^ 2 + 1 y_2_ ^ 2 - 2 y_91_ * y_2_ + 1 y_91_ ^ 2 ] >= 18445.68
quadratic_ranged_483_lb: [ 1 x_5_ ^ 2 - 2 x_91_ * x_5_ + 1 x_91_ ^ 2 + 1 y_5_ ^ 2 - 2 y_91_ * y_5_ + 1 y_91_ ^ 2 ] >= 895.95
quadratic_ranged_484_lb: [ 1 x_8_ ^ 2 - 2 x_91_ * x_8_ + 1 x_91_ ^ 2 + 1 y_8_ ^ 2 - 2 y_91_ * y_8_ + 1 y_91_ ^ 2 ] >= 14423.31
quadratic_ranged_485_lb: [ 1 x_31_ ^ 2 - 2 x_91_ * x_31_ + 1 x_91_ ^ 2 + 1 y_31_ ^ 2 - 2 y_91_ * y_31_ + 1 y_91_ ^ 2 ] >= 18996.12
quadratic_ranged_486_lb: [ 1 x_38_ ^ 2 - 2 x_91_ * x_38_ + 1 x_91_ ^ 2 + 1 y_38_ ^ 2 - 2 y_91_ * y_38_ + 1 y_91_ ^ 2 ] >= 3019.5
quadratic_ranged_487_lb: [ 1 x_44_ ^ 2 - 2 x_91_ * x_44_ + 1 x_91_ ^ 2 + 1 y_44_ ^ 2 - 2 y_91_ * y_44_ + 1 y_91_ ^ 2 ] >= 18711.99
quadratic_ranged_488_lb: [ 1 x_50_ ^ 2 - 2 x_91_ * x_50_ + 1 x_91_ ^ 2 + 1 y_50_ ^ 2 - 2 y_91_ * y_50_ + 1 y_91_ ^ 2 ] >= 9490.14
quadratic_ranged_489_lb: [ 1 x_55_ ^ 2 - 2 x_91_ * x_55_ + 1 x_91_ ^ 2 + 1 y_55_ ^ 2 - 2 y_91_ * y_55_ + 1 y_91_ ^ 2 ] >= 11123.64
quadratic_ranged_490_lb: [ 1 x_77_ ^ 2 - 2 x_91_ * x_77_ + 1 x_91_ ^ 2 + 1 y_77_ ^ 2 - 2 y_91_ * y_77_ + 1 y_91_ ^ 2 ] >= 35739
quadratic_ranged_491_lb: [ 1 x_90_ ^ 2 - 2 x_91_ * x_90_ + 1 x_91_ ^ 2 + 1 y_90_ ^ 2 - 2 y_91_ * y_90_ + 1 y_91_ ^ 2 ] >= 13080.869999999999
quadratic_ranged_492_lb: [ 1 x_7_ ^ 2 - 2 x_92_ * x_7_ + 1 x_92_ ^ 2 + 1 y_7_ ^ 2 - 2 y_92_ * y_7_ + 1 y_92_ ^ 2 ] >= 1276.11
quadratic_ranged_493_lb: [ 1 x_20_ ^ 2 - 2 x_92_ * x_20_ + 1 x_92_ ^ 2 + 1 y_20_ ^ 2 - 2 y_92_ * y_20_ + 1 y_92_ ^ 2 ] >= 1623.6
quadratic_ranged_494_lb: [ 1 x_21_ ^ 2 - 2 x_92_ * x_21_ + 1 x_92_ ^ 2 + 1 y_21_ ^ 2 - 2 y_92_ * y_21_ + 1 y_92_ ^ 2 ] >= 2623.5
quadratic_ranged_495_lb: [ 1 x_46_ ^ 2 - 2 x_92_ * x_46_ + 1 x_92_ ^ 2 + 1 y_46_ ^ 2 - 2 y_92_ * y_46_ + 1 y_92_ ^ 2 ] >= 18331.829999999998
quadratic_ranged_496_lb: [ 1 x_57_ ^ 2 - 2 x_92_ * x_57_ + 1 x_92_ ^ 2 + 1 y_57_ ^ 2 - 2 y_92_ * y_57_ + 1 y_92_ ^ 2 ] >= 7786.35
quadratic_ranged_497_lb: [ 1 x_58_ ^ 2 - 2 x_92_ * x_58_ + 1 x_92_ ^ 2 + 1 y_58_ ^ 2 - 2 y_92_ * y_58_ + 1 y_92_ ^ 2 ] >= 2819.52
quadratic_ranged_498_lb: [ 1 x_72_ ^ 2 - 2 x_92_ * x_72_ + 1 x_92_ ^ 2 + 1 y_72_ ^ 2 - 2 y_92_ * y_72_ + 1 y_92_ ^ 2 ] >= 5675.67
quadratic_ranged_499_lb: [ 1 x_77_ ^ 2 - 2 x_92_ * x_77_ + 1 x_92_ ^ 2 + 1 y_77_ ^ 2 - 2 y_92_ * y_77_ + 1 y_92_ ^ 2 ] >= 11112.75
quadratic_ranged_500_lb: [ 1 x_91_ ^ 2 - 2 x_92_ * x_91_ + 1 x_92_ ^ 2 + 1 y_91_ ^ 2 - 2 y_92_ * y_91_ + 1 y_92_ ^ 2 ] >= 7049.79
quadratic_ranged_501_lb: [ 1 x_1_ ^ 2 - 2 x_93_ * x_1_ + 1 x_93_ ^ 2 + 1 y_1_ ^ 2 - 2 y_93_ * y_1_ + 1 y_93_ ^ 2 ] >= 19987.11
quadratic_ranged_502_lb: [ 1 x_40_ ^ 2 - 2 x_93_ * x_40_ + 1 x_93_ ^ 2 + 1 y_40_ ^ 2 - 2 y_93_ * y_40_ + 1 y_93_ ^ 2 ] >= 6482.5199999999995
quadratic_ranged_503_lb: [ 1 x_49_ ^ 2 - 2 x_93_ * x_49_ + 1 x_93_ ^ 2 + 1 y_49_ ^ 2 - 2 y_93_ * y_49_ + 1 y_93_ ^ 2 ] >= 2585.88
quadratic_ranged_504_lb: [ 1 x_53_ ^ 2 - 2 x_93_ * x_53_ + 1 x_93_ ^ 2 + 1 y_53_ ^ 2 - 2 y_93_ * y_53_ + 1 y_93_ ^ 2 ] >= 9580.23
quadratic_ranged_505_lb: [ 1 x_75_ ^ 2 - 2 x_93_ * x_75_ + 1 x_93_ ^ 2 + 1 y_75_ ^ 2 - 2 y_93_ * y_75_ + 1 y_93_ ^ 2 ] >= 5220.2699999999995
quadratic_ranged_506_lb: [ 1 x_90_ ^ 2 - 2 x_93_ * x_90_ + 1 x_93_ ^ 2 + 1 y_90_ ^ 2 - 2 y_93_ * y_90_ + 1 y_93_ ^ 2 ] >= 8397.18
quadratic_ranged_507_lb: [ 1 x_92_ ^ 2 - 2 x_93_ * x_92_ + 1 x_93_ ^ 2 + 1 y_92_ ^ 2 - 2 y_93_ * y_92_ + 1 y_93_ ^ 2 ] >= 6090.48
quadratic_ranged_508_lb: [ 1 x_21_ ^ 2 - 2 x_94_ * x_21_ + 1 x_94_ ^ 2 + 1 y_21_ ^ 2 - 2 y_94_ * y_21_ + 1 y_94_ ^ 2 ] >= 13211.55
quadratic_ranged_509_lb: [ 1 x_22_ ^ 2 - 2 x_94_ * x_22_ + 1 x_94_ ^ 2 + 1 y_22_ ^ 2 - 2 y_94_ * y_22_ + 1 y_94_ ^ 2 ] >= 2285.91
quadratic_ranged_510_lb: [ 1 x_33_ ^ 2 - 2 x_94_ * x_33_ + 1 x_94_ ^ 2 + 1 y_33_ ^ 2 - 2 y_94_ * y_33_ + 1 y_94_ ^ 2 ] >= 16045.92
quadratic_ranged_511_lb: [ 1 x_44_ ^ 2 - 2 x_94_ * x_44_ + 1 x_94_ ^ 2 + 1 y_44_ ^ 2 - 2 y_94_ * y_44_ + 1 y_94_ ^ 2 ] >= 24604.47
quadratic_ranged_512_lb: [ 1 x_48_ ^ 2 - 2 x_94_ * x_48_ + 1 x_94_ ^ 2 + 1 y_48_ ^ 2 - 2 y_94_ * y_48_ + 1 y_94_ ^ 2 ] >= 10220.76
quadratic_ranged_513_lb: [ 1 x_50_ ^ 2 - 2 x_94_ * x_50_ + 1 x_94_ ^ 2 + 1 y_50_ ^ 2 - 2 y_94_ * y_50_ + 1 y_94_ ^ 2 ] >= 4049.1
quadratic_ranged_514_lb: [ 1 x_64_ ^ 2 - 2 x_94_ * x_64_ + 1 x_94_ ^ 2 + 1 y_64_ ^ 2 - 2 y_94_ * y_64_ + 1 y_94_ ^ 2 ] >= 34927.2
quadratic_ranged_515_lb: [ 1 x_76_ ^ 2 - 2 x_94_ * x_76_ + 1 x_94_ ^ 2 + 1 y_76_ ^ 2 - 2 y_94_ * y_76_ + 1 y_94_ ^ 2 ] >= 14264.91
quadratic_ranged_516_lb: [ 1 x_93_ ^ 2 - 2 x_94_ * x_93_ + 1 x_94_ ^ 2 + 1 y_93_ ^ 2 - 2 y_94_ * y_93_ + 1 y_94_ ^ 2 ] >= 6574.59
quadratic_ranged_517_lb: [ 1 x_13_ ^ 2 - 2 x_95_ * x_13_ + 1 x_95_ ^ 2 + 1 y_13_ ^ 2 - 2 y_95_ * y_13_ + 1 y_95_ ^ 2 ] >= 646.47
quadratic_ranged_518_lb: [ 1 x_14_ ^ 2 - 2 x_95_ * x_14_ + 1 x_95_ ^ 2 + 1 y_14_ ^ 2 - 2 y_95_ * y_14_ + 1 y_95_ ^ 2 ] >= 44396.55
quadratic_ranged_519_lb: [ 1 x_19_ ^ 2 - 2 x_95_ * x_19_ + 1 x_95_ ^ 2 + 1 y_19_ ^ 2 - 2 y_95_ * y_19_ + 1 y_95_ ^ 2 ] >= 5520.24
quadratic_ranged_520_lb: [ 1 x_21_ ^ 2 - 2 x_95_ * x_21_ + 1 x_95_ ^ 2 + 1 y_21_ ^ 2 - 2 y_95_ * y_21_ + 1 y_95_ ^ 2 ] >= 24197.579999999998
quadratic_ranged_521_lb: [ 1 x_34_ ^ 2 - 2 x_95_ * x_34_ + 1 x_95_ ^ 2 + 1 y_34_ ^ 2 - 2 y_95_ * y_34_ + 1 y_95_ ^ 2 ] >= 14510.43
quadratic_ranged_522_lb: [ 1 x_41_ ^ 2 - 2 x_95_ * x_41_ + 1 x_95_ ^ 2 + 1 y_41_ ^ 2 - 2 y_95_ * y_41_ + 1 y_95_ ^ 2 ] >= 11655.27
quadratic_ranged_523_lb: [ 1 x_53_ ^ 2 - 2 x_95_ * x_53_ + 1 x_95_ ^ 2 + 1 y_53_ ^ 2 - 2 y_95_ * y_53_ + 1 y_95_ ^ 2 ] >= 15377.67
quadratic_ranged_524_lb: [ 1 x_66_ ^ 2 - 2 x_95_ * x_66_ + 1 x_95_ ^ 2 + 1 y_66_ ^ 2 - 2 y_95_ * y_66_ + 1 y_95_ ^ 2 ] >= 38709.99
quadratic_ranged_525_lb: [ 1 x_87_ ^ 2 - 2 x_95_ * x_87_ + 1 x_95_ ^ 2 + 1 y_87_ ^ 2 - 2 y_95_ * y_87_ + 1 y_95_ ^ 2 ] >= 33822.36
quadratic_ranged_526_lb: [ 1 x_94_ ^ 2 - 2 x_95_ * x_94_ + 1 x_95_ ^ 2 + 1 y_94_ ^ 2 - 2 y_95_ * y_94_ + 1 y_95_ ^ 2 ] >= 5632.11
quadratic_ranged_527_lb: [ 1 x_5_ ^ 2 - 2 x_96_ * x_5_ + 1 x_96_ ^ 2 + 1 y_5_ ^ 2 - 2 y_96_ * y_5_ + 1 y_96_ ^ 2 ] >= 13598.64
quadratic_ranged_528_lb: [ 1 x_12_ ^ 2 - 2 x_96_ * x_12_ + 1 x_96_ ^ 2 + 1 y_12_ ^ 2 - 2 y_96_ * y_12_ + 1 y_96_ ^ 2 ] >= 195.03
quadratic_ranged_529_lb: [ 1 x_18_ ^ 2 - 2 x_96_ * x_18_ + 1 x_96_ ^ 2 + 1 y_18_ ^ 2 - 2 y_96_ * y_18_ + 1 y_96_ ^ 2 ] >= 3806.55
quadratic_ranged_530_lb: [ 1 x_27_ ^ 2 - 2 x_96_ * x_27_ + 1 x_96_ ^ 2 + 1 y_27_ ^ 2 - 2 y_96_ * y_27_ + 1 y_96_ ^ 2 ] >= 2710.62
quadratic_ranged_531_lb: [ 1 x_43_ ^ 2 - 2 x_96_ * x_43_ + 1 x_96_ ^ 2 + 1 y_43_ ^ 2 - 2 y_96_ * y_43_ + 1 y_96_ ^ 2 ] >= 4350.06
quadratic_ranged_532_lb: [ 1 x_46_ ^ 2 - 2 x_96_ * x_46_ + 1 x_96_ ^ 2 + 1 y_46_ ^ 2 - 2 y_96_ * y_46_ + 1 y_96_ ^ 2 ] >= 11742.39
quadratic_ranged_533_lb: [ 1 x_84_ ^ 2 - 2 x_96_ * x_84_ + 1 x_96_ ^ 2 + 1 y_84_ ^ 2 - 2 y_96_ * y_84_ + 1 y_96_ ^ 2 ] >= 4919.31
quadratic_ranged_534_lb: [ 1 x_91_ ^ 2 - 2 x_96_ * x_91_ + 1 x_96_ ^ 2 + 1 y_91_ ^ 2 - 2 y_96_ * y_91_ + 1 y_96_ ^ 2 ] >= 12661.11
quadratic_ranged_535_lb: [ 1 x_95_ ^ 2 - 2 x_96_ * x_95_ + 1 x_96_ ^ 2 + 1 y_95_ ^ 2 - 2 y_96_ * y_95_ + 1 y_96_ ^ 2 ] >= 17275.5
quadratic_ranged_536_lb: [ 1 x_8_ ^ 2 - 2 x_97_ * x_8_ + 1 x_97_ ^ 2 + 1 y_8_ ^ 2 - 2 y_97_ * y_8_ + 1 y_97_ ^ 2 ] >= 30161.34
quadratic_ranged_537_lb: [ 1 x_16_ ^ 2 - 2 x_97_ * x_16_ + 1 x_97_ ^ 2 + 1 y_16_ ^ 2 - 2 y_97_ * y_16_ + 1 y_97_ ^ 2 ] >= 8166.51
quadratic_ranged_538_lb: [ 1 x_25_ ^ 2 - 2 x_97_ * x_25_ + 1 x_97_ ^ 2 + 1 y_25_ ^ 2 - 2 y_97_ * y_25_ + 1 y_97_ ^ 2 ] >= 970.2
quadratic_ranged_539_lb: [ 1 x_29_ ^ 2 - 2 x_97_ * x_29_ + 1 x_97_ ^ 2 + 1 y_29_ ^ 2 - 2 y_97_ * y_29_ + 1 y_97_ ^ 2 ] >= 33882.75
quadratic_ranged_540_lb: [ 1 x_31_ ^ 2 - 2 x_97_ * x_31_ + 1 x_97_ ^ 2 + 1 y_31_ ^ 2 - 2 y_97_ * y_31_ + 1 y_97_ ^ 2 ] >= 18644.67
quadratic_ranged_541_lb: [ 1 x_32_ ^ 2 - 2 x_97_ * x_32_ + 1 x_97_ ^ 2 + 1 y_32_ ^ 2 - 2 y_97_ * y_32_ + 1 y_97_ ^ 2 ] >= 33696.63
quadratic_ranged_542_lb: [ 1 x_36_ ^ 2 - 2 x_97_ * x_36_ + 1 x_97_ ^ 2 + 1 y_36_ ^ 2 - 2 y_97_ * y_36_ + 1 y_97_ ^ 2 ] >= 48296.159999999996
quadratic_ranged_543_lb: [ 1 x_46_ ^ 2 - 2 x_97_ * x_46_ + 1 x_97_ ^ 2 + 1 y_46_ ^ 2 - 2 y_97_ * y_46_ + 1 y_97_ ^ 2 ] >= 24865.829999999998
quadratic_ranged_544_lb: [ 1 x_62_ ^ 2 - 2 x_97_ * x_62_ + 1 x_97_ ^ 2 + 1 y_62_ ^ 2 - 2 y_97_ * y_62_ + 1 y_97_ ^ 2 ] >= 39396.06
quadratic_ranged_545_lb: [ 1 x_81_ ^ 2 - 2 x_97_ * x_81_ + 1 x_97_ ^ 2 + 1 y_81_ ^ 2 - 2 y_97_ * y_81_ + 1 y_97_ ^ 2 ] >= 6464.7
quadratic_ranged_546_lb: [ 1 x_88_ ^ 2 - 2 x_97_ * x_88_ + 1 x_97_ ^ 2 + 1 y_88_ ^ 2 - 2 y_97_ * y_88_ + 1 y_97_ ^ 2 ] >= 25677.63
quadratic_ranged_547_lb: [ 1 x_89_ ^ 2 - 2 x_97_ * x_89_ + 1 x_97_ ^ 2 + 1 y_89_ ^ 2 - 2 y_97_ * y_89_ + 1 y_97_ ^ 2 ] >= 990
quadratic_ranged_548_lb: [ 1 x_96_ ^ 2 - 2 x_97_ * x_96_ + 1 x_97_ ^ 2 + 1 y_96_ ^ 2 - 2 y_97_ * y_96_ + 1 y_97_ ^ 2 ] >= 8009.1
quadratic_ranged_549_lb: [ 1 x_6_ ^ 2 - 2 x_98_ * x_6_ + 1 x_98_ ^ 2 + 1 y_6_ ^ 2 - 2 y_98_ * y_6_ + 1 y_98_ ^ 2 ] >= 15468.75
quadratic_ranged_550_lb: [ 1 x_9_ ^ 2 - 2 x_98_ * x_9_ + 1 x_98_ ^ 2 + 1 y_9_ ^ 2 - 2 y_98_ * y_9_ + 1 y_98_ ^ 2 ] >= 11904.75
quadratic_ranged_551_lb: [ 1 x_20_ ^ 2 - 2 x_98_ * x_20_ + 1 x_98_ ^ 2 + 1 y_20_ ^ 2 - 2 y_98_ * y_20_ + 1 y_98_ ^ 2 ] >= 669.24
quadratic_ranged_552_lb: [ 1 x_25_ ^ 2 - 2 x_98_ * x_25_ + 1 x_98_ ^ 2 + 1 y_25_ ^ 2 - 2 y_98_ * y_25_ + 1 y_98_ ^ 2 ] >= 11218.68
quadratic_ranged_553_lb: [ 1 x_28_ ^ 2 - 2 x_98_ * x_28_ + 1 x_98_ ^ 2 + 1 y_28_ ^ 2 - 2 y_98_ * y_28_ + 1 y_98_ ^ 2 ] >= 5284.62
quadratic_ranged_554_lb: [ 1 x_35_ ^ 2 - 2 x_98_ * x_35_ + 1 x_98_ ^ 2 + 1 y_35_ ^ 2 - 2 y_98_ * y_35_ + 1 y_98_ ^ 2 ] >= 13952.07
quadratic_ranged_555_lb: [ 1 x_38_ ^ 2 - 2 x_98_ * x_38_ + 1 x_98_ ^ 2 + 1 y_38_ ^ 2 - 2 y_98_ * y_38_ + 1 y_98_ ^ 2 ] >= 4162.95
quadratic_ranged_556_lb: [ 1 x_47_ ^ 2 - 2 x_98_ * x_47_ + 1 x_98_ ^ 2 + 1 y_47_ ^ 2 - 2 y_98_ * y_47_ + 1 y_98_ ^ 2 ] >= 2174.04
quadratic_ranged_557_lb: [ 1 x_52_ ^ 2 - 2 x_98_ * x_52_ + 1 x_98_ ^ 2 + 1 y_52_ ^ 2 - 2 y_98_ * y_52_ + 1 y_98_ ^ 2 ] >= 586.08
quadratic_ranged_558_lb: [ 1 x_56_ ^ 2 - 2 x_98_ * x_56_ + 1 x_98_ ^ 2 + 1 y_56_ ^ 2 - 2 y_98_ * y_56_ + 1 y_98_ ^ 2 ] >= 1197.9
quadratic_ranged_559_lb: [ 1 x_61_ ^ 2 - 2 x_98_ * x_61_ + 1 x_98_ ^ 2 + 1 y_61_ ^ 2 - 2 y_98_ * y_61_ + 1 y_98_ ^ 2 ] >= 9001.08
quadratic_ranged_560_lb: [ 1 x_66_ ^ 2 - 2 x_98_ * x_66_ + 1 x_98_ ^ 2 + 1 y_66_ ^ 2 - 2 y_98_ * y_66_ + 1 y_98_ ^ 2 ] >= 5766.75
quadratic_ranged_561_lb: [ 1 x_70_ ^ 2 - 2 x_98_ * x_70_ + 1 x_98_ ^ 2 + 1 y_70_ ^ 2 - 2 y_98_ * y_70_ + 1 y_98_ ^ 2 ] >= 17115.12
quadratic_ranged_562_lb: [ 1 x_73_ ^ 2 - 2 x_98_ * x_73_ + 1 x_98_ ^ 2 + 1 y_73_ ^ 2 - 2 y_98_ * y_73_ + 1 y_98_ ^ 2 ] >= 15140.07
quadratic_ranged_563_lb: [ 1 x_77_ ^ 2 - 2 x_98_ * x_77_ + 1 x_98_ ^ 2 + 1 y_77_ ^ 2 - 2 y_98_ * y_77_ + 1 y_98_ ^ 2 ] >= 8210.07
quadratic_ranged_564_lb: [ 1 x_87_ ^ 2 - 2 x_98_ * x_87_ + 1 x_98_ ^ 2 + 1 y_87_ ^ 2 - 2 y_98_ * y_87_ + 1 y_98_ ^ 2 ] >= 4633.2
quadratic_ranged_565_lb: [ 1 x_97_ ^ 2 - 2 x_98_ * x_97_ + 1 x_98_ ^ 2 + 1 y_97_ ^ 2 - 2 y_98_ * y_97_ + 1 y_98_ ^ 2 ] >= 12299.76
quadratic_ranged_566_lb: [ 1 x_5_ ^ 2 - 2 x_99_ * x_5_ + 1 x_99_ ^ 2 + 1 y_5_ ^ 2 - 2 y_99_ * y_5_ + 1 y_99_ ^ 2 ] >= 10177.2
quadratic_ranged_567_lb: [ 1 x_9_ ^ 2 - 2 x_99_ * x_9_ + 1 x_99_ ^ 2 + 1 y_9_ ^ 2 - 2 y_99_ * y_9_ + 1 y_99_ ^ 2 ] >= 13694.67
quadratic_ranged_568_lb: [ 1 x_42_ ^ 2 - 2 x_99_ * x_42_ + 1 x_99_ ^ 2 + 1 y_42_ ^ 2 - 2 y_99_ * y_42_ + 1 y_99_ ^ 2 ] >= 6059.79
quadratic_ranged_569_lb: [ 1 x_44_ ^ 2 - 2 x_99_ * x_44_ + 1 x_99_ ^ 2 + 1 y_44_ ^ 2 - 2 y_99_ * y_44_ + 1 y_99_ ^ 2 ] >= 1239.48
quadratic_ranged_570_lb: [ 1 x_50_ ^ 2 - 2 x_99_ * x_50_ + 1 x_99_ ^ 2 + 1 y_50_ ^ 2 - 2 y_99_ * y_50_ + 1 y_99_ ^ 2 ] >= 9706.95
quadratic_ranged_571_lb: [ 1 x_66_ ^ 2 - 2 x_99_ * x_66_ + 1 x_99_ ^ 2 + 1 y_66_ ^ 2 - 2 y_99_ * y_66_ + 1 y_99_ ^ 2 ] >= 12653.19
quadratic_ranged_572_lb: [ 1 x_67_ ^ 2 - 2 x_99_ * x_67_ + 1 x_99_ ^ 2 + 1 y_67_ ^ 2 - 2 y_99_ * y_67_ + 1 y_99_ ^ 2 ] >= 10648.44
quadratic_ranged_573_lb: [ 1 x_75_ ^ 2 - 2 x_99_ * x_75_ + 1 x_99_ ^ 2 + 1 y_75_ ^ 2 - 2 y_99_ * y_75_ + 1 y_99_ ^ 2 ] >= 12177.99
quadratic_ranged_574_lb: [ 1 x_80_ ^ 2 - 2 x_99_ * x_80_ + 1 x_99_ ^ 2 + 1 y_80_ ^ 2 - 2 y_99_ * y_80_ + 1 y_99_ ^ 2 ] >= 812.79
quadratic_ranged_575_lb: [ 1 x_83_ ^ 2 - 2 x_99_ * x_83_ + 1 x_99_ ^ 2 + 1 y_83_ ^ 2 - 2 y_99_ * y_83_ + 1 y_99_ ^ 2 ] >= 2908.62
quadratic_ranged_576_lb: [ 1 x_98_ ^ 2 - 2 x_99_ * x_98_ + 1 x_99_ ^ 2 + 1 y_98_ ^ 2 - 2 y_99_ * y_98_ + 1 y_99_ ^ 2 ] >= 5926.14
quadratic_ranged_577_lb: [ 1 x_1_ ^ 2 - 2 x_100_ * x_1_ + 1 x_100_ ^ 2 + 1 y_1_ ^ 2 - 2 y_100_ * y_1_ + 1 y_100_ ^ 2 ] >= 22968
quadratic_ranged_578_lb: [ 1 x_6_ ^ 2 - 2 x_100_ * x_6_ + 1 x_100_ ^ 2 + 1 y_6_ ^ 2 - 2 y_100_ * y_6_ + 1 y_100_ ^ 2 ] >= 5522.22
quadratic_ranged_579_lb: [ 1 x_23_ ^ 2 - 2 x_100_ * x_23_ + 1 x_100_ ^ 2 + 1 y_23_ ^ 2 - 2 y_100_ * y_23_ + 1 y_100_ ^ 2 ] >= 352.44
quadratic_ranged_580_lb: [ 1 x_48_ ^ 2 - 2 x_100_ * x_48_ + 1 x_100_ ^ 2 + 1 y_48_ ^ 2 - 2 y_100_ * y_48_ + 1 y_100_ ^ 2 ] >= 11644.38
quadratic_ranged_581_lb: [ 1 x_50_ ^ 2 - 2 x_100_ * x_50_ + 1 x_100_ ^ 2 + 1 y_50_ ^ 2 - 2 y_100_ * y_50_ + 1 y_100_ ^ 2 ] >= 13404.6
quadratic_ranged_582_lb: [ 1 x_58_ ^ 2 - 2 x_100_ * x_58_ + 1 x_100_ ^ 2 + 1 y_58_ ^ 2 - 2 y_100_ * y_58_ + 1 y_100_ ^ 2 ] >= 20141.55
quadratic_ranged_583_lb: [ 1 x_60_ ^ 2 - 2 x_100_ * x_60_ + 1 x_100_ ^ 2 + 1 y_60_ ^ 2 - 2 y_100_ * y_60_ + 1 y_100_ ^ 2 ] >= 13212.539999999999
quadratic_ranged_584_lb: [ 1 x_98_ ^ 2 - 2 x_100_ * x_98_ + 1 x_100_ ^ 2 + 1 y_98_ ^ 2 - 2 y_100_ * y_98_ + 1 y_100_ ^ 2 ] >= 12823.47
quadratic_ranged_585_lb: [ 1 x_99_ ^ 2 - 2 x_100_ * x_99_ + 1 x_100_ ^ 2 + 1 y_99_ ^ 2 - 2 y_100_ * y_99_ + 1 y_100_ ^ 2 ] >= 10823.67
c1_1: 1 x_13_ = 35
c2_1: 1 y_13_ = 83
c3_1: 1 x_30_ = -38
c4_1: 1 y_30_ = -74
c5_1: 1 x_24_ = 86
c6_1: 1 y_24_ = -36
Bounds
-121 <= x_1_ <= 102
-123 <= x_2_ <= 56
-57 <= x_3_ <= 156
-40 <= x_4_ <= 110
-32 <= x_5_ <= 142
38 <= x_6_ <= 134
-111 <= x_7_ <= 138
-153 <= x_8_ <= 117
-136 <= x_9_ <= 174
-49 <= x_10_ <= 119
-156 <= x_11_ <= 135
-70 <= x_12_ <= 140
x_13_ = 35
-153 <= x_14_ <= 138
-86 <= x_15_ <= 53
-135 <= x_16_ <= 107
-78 <= x_17_ <= 173
-71 <= x_18_ <= 68
-40 <= x_19_ <= 135
-93 <= x_20_ <= 105
-106 <= x_21_ <= 118
-114 <= x_22_ <= 184
-5 <= x_23_ <= 75
x_24_ = 86
-86 <= x_25_ <= 172
-105 <= x_26_ <= 139
-40 <= x_27_ <= 161
-96 <= x_28_ <= 136
-54 <= x_29_ <= 120
x_30_ = -38
-21 <= x_31_ <= 79
39 <= x_32_ <= 133
24 <= x_33_ <= 148
-5 <= x_34_ <= 153
-39 <= x_35_ <= 161
-7 <= x_36_ <= 77
-21 <= x_37_ <= 91
-2 <= x_38_ <= 144
-99 <= x_39_ <= 96
-74 <= x_40_ <= 74
20 <= x_41_ <= 129
-29 <= x_42_ <= 118
-49 <= x_43_ <= 169
-31 <= x_44_ <= 152
-117 <= x_45_ <= 132
-73 <= x_46_ <= 232
-110 <= x_47_ <= 126
-80 <= x_48_ <= 165
-48 <= x_49_ <= 133
-101 <= x_50_ <= 141
-74 <= x_51_ <= 114
-92 <= x_52_ <= 104
-98 <= x_53_ <= 123
-107 <= x_54_ <= 207
-102 <= x_55_ <= 130
-77 <= x_56_ <= 114
-91 <= x_57_ <= 147
-76 <= x_58_ <= 153
-96 <= x_59_ <= 141
-60 <= x_60_ <= 127
-44 <= x_61_ <= 162
10 <= x_62_ <= 162
45 <= x_63_ <= 127
-44 <= x_64_ <= 175
-25 <= x_65_ <= 95
-79 <= x_66_ <= 3
-93 <= x_67_ <= 121
-31 <= x_68_ <= 101
-1 <= x_69_ <= 132
-22 <= x_70_ <= 88
-88 <= x_71_ <= 151
-134 <= x_72_ <= 101
-27 <= x_73_ <= 111
-82 <= x_74_ <= 51
-14 <= x_75_ <= 84
-73 <= x_76_ <= 144
-99 <= x_77_ <= 140
-12 <= x_78_ <= 153
-105 <= x_79_ <= 149
-47 <= x_80_ <= 117
-86 <= x_81_ <= 93
-88 <= x_82_ <= 142
-33 <= x_83_ <= 163
-96 <= x_84_ <= 94
-12 <= x_85_ <= 145
-137 <= x_86_ <= 183
-52 <= x_87_ <= 148
-138 <= x_88_ <= 160
-38 <= x_89_ <= 169
-68 <= x_90_ <= 111
-57 <= x_91_ <= 172
-130 <= x_92_ <= 146
-87 <= x_93_ <= 155
-66 <= x_94_ <= 136
10 <= x_95_ <= 60
-84 <= x_96_ <= 131
-70 <= x_97_ <= 174
-67 <= x_98_ <= 79
-67 <= x_99_ <= 116
-24 <= x_100_ <= 94
-112 <= y_1_ <= 66
-83 <= y_2_ <= 20
-107 <= y_3_ <= 107
-61 <= y_4_ <= 74
-66 <= y_5_ <= 82
-51 <= y_6_ <= 12
-68 <= y_7_ <= 102
-105 <= y_8_ <= 81
-146 <= y_9_ <= 138
-1 <= y_10_ <= 123
-142 <= y_11_ <= 99
-22 <= y_12_ <= 109
y_13_ = 83
-105 <= y_14_ <= 102
-38 <= y_15_ <= 17
-92 <= y_16_ <= 71
-55 <= y_17_ <= 128
-23 <= y_18_ <= 32
-17 <= y_19_ <= 90
-108 <= y_20_ <= 69
-95 <= y_21_ <= 82
-66 <= y_22_ <= 188
43 <= y_23_ <= 90
y_24_ = -36
-157 <= y_25_ <= 136
-135 <= y_26_ <= 103
-89 <= y_27_ <= 90
-48 <= y_28_ <= 100
-88 <= y_29_ <= 84
y_30_ = -74
-119 <= y_31_ <= 43
-71 <= y_32_ <= 11
-43 <= y_33_ <= 26
-35 <= y_34_ <= 55
-43 <= y_35_ <= 89
41 <= y_36_ <= 82
27 <= y_37_ <= 95
-29 <= y_38_ <= 52
-105 <= y_39_ <= 60
-82 <= y_40_ <= 38
-49 <= y_41_ <= 30
0 <= y_42_ <= 79
-69 <= y_43_ <= 99
-52 <= y_44_ <= 81
-69 <= y_45_ <= 96
-132 <= y_46_ <= 123
-62 <= y_47_ <= 90
-83 <= y_48_ <= 129
-52 <= y_49_ <= 97
-53 <= y_50_ <= 105
-26 <= y_51_ <= 78
-66 <= y_52_ <= 68
-50 <= y_53_ <= 87
-108 <= y_54_ <= 157
-54 <= y_55_ <= 94
-56 <= y_56_ <= 78
-73 <= y_57_ <= 111
-107 <= y_58_ <= 117
-90 <= y_59_ <= 105
-92 <= y_60_ <= 91
-122 <= y_61_ <= 94
-67 <= y_62_ <= 40
-65 <= y_63_ <= 5
-83 <= y_64_ <= 94
23 <= y_65_ <= 118
-115 <= y_66_ <= -33
-92 <= y_67_ <= 85
-110 <= y_68_ <= 65
-100 <= y_69_ <= 51
-56 <= y_70_ <= 52
-97 <= y_71_ <= 115
-86 <= y_72_ <= 65
7 <= y_73_ <= 77
-59 <= y_74_ <= 15
34 <= y_75_ <= 89
-73 <= y_76_ <= 108
-125 <= y_77_ <= 104
-35 <= y_78_ <= 62
-64 <= y_79_ <= 113
1 <= y_80_ <= 98
-77 <= y_81_ <= 57
-109 <= y_82_ <= 106
-83 <= y_83_ <= 83
-48 <= y_84_ <= 58
-27 <= y_85_ <= 62
-114 <= y_86_ <= 147
-128 <= y_87_ <= 102
-122 <= y_88_ <= 124
-138 <= y_89_ <= 88
-78 <= y_90_ <= 75
-85 <= y_91_ <= 107
-104 <= y_92_ <= 110
-39 <= y_93_ <= 119
-18 <= y_94_ <= 154
58 <= y_95_ <= 108
-36 <= y_96_ <= 95
-127 <= y_97_ <= 120
-90 <= y_98_ <= 43
-28 <= y_99_ <= 80
24 <= y_100_ <= 87
General
x_1_
x_2_
x_3_
x_4_
x_5_
x_6_
x_7_
x_8_
x_9_
x_10_
x_11_
x_12_
x_13_
x_14_
x_15_
x_16_
x_17_
x_18_
x_19_
x_20_
x_21_
x_22_
x_23_
x_24_
x_25_
x_26_
x_27_
x_28_
x_29_
x_30_
x_31_
x_32_
x_33_
x_34_
x_35_
x_36_
x_37_
x_38_
x_39_
x_40_
x_41_
x_42_
x_43_
x_44_
x_45_
x_46_
x_47_
x_48_
x_49_
x_50_
x_51_
x_52_
x_53_
x_54_
x_55_
x_56_
x_57_
x_58_
x_59_
x_60_
x_61_
x_62_
x_63_
x_64_
x_65_
x_66_
x_67_
x_68_
x_69_
x_70_
x_71_
x_72_
x_73_
x_74_
x_75_
x_76_
x_77_
x_78_
x_79_
x_80_
x_81_
x_82_
x_83_
x_84_
x_85_
x_86_
x_87_
x_88_
x_89_
x_90_
x_91_
x_92_
x_93_
x_94_
x_95_
x_96_
x_97_
x_98_
x_99_
x_100_
y_1_
y_2_
y_3_
y_4_
y_5_
y_6_
y_7_
y_8_
y_9_
y_10_
y_11_
y_12_
y_13_
y_14_
y_15_
y_16_
y_17_
y_18_
y_19_
y_20_
y_21_
y_22_
y_23_
y_24_
y_25_
y_26_
y_27_
y_28_
y_29_
y_30_
y_31_
y_32_
y_33_
y_34_
y_35_
y_36_
y_37_
y_38_
y_39_
y_40_
y_41_
y_42_
y_43_
y_44_
y_45_
y_46_
y_47_
y_48_
y_49_
y_50_
y_51_
y_52_
y_53_
y_54_
y_55_
y_56_
y_57_
y_58_
y_59_
y_60_
y_61_
y_62_
y_63_
y_64_
y_65_
y_66_
y_67_
y_68_
y_69_
y_70_
y_71_
y_72_
y_73_
y_74_
y_75_
y_76_
y_77_
y_78_
y_79_
y_80_
y_81_
y_82_
y_83_
y_84_
y_85_
y_86_
y_87_
y_88_
y_89_
y_90_
y_91_
y_92_
y_93_
y_94_
y_95_
y_96_
y_97_
y_98_
y_99_
y_100_
End
