minimize
obj: 
subject to
c1: 188 x_1_ - 76 y_1_ + [ 1 x_1_ ^ 2 + 1 y_1_ ^ 2 ] <= 19153.77105146638
c2: 188 x_2_ - 76 y_2_ + [ 1 x_2_ ^ 2 + 1 y_2_ ^ 2 ] <= 33901.078837052
c3: 188 x_3_ - 76 y_3_ + [ 1 x_3_ ^ 2 + 1 y_3_ ^ 2 ] <= 9844.60913441941
c4: 188 x_4_ - 76 y_4_ + [ 1 x_4_ ^ 2 + 1 y_4_ ^ 2 ] <= 25743.109366005745
c5: 188 x_5_ - 76 y_5_ + [ 1 x_5_ ^ 2 + 1 y_5_ ^ 2 ] <= 1798.5559549487243
c6: 188 x_6_ - 76 y_6_ + [ 1 x_6_ ^ 2 + 1 y_6_ ^ 2 ] <= 21957.309263157316
c7: 188 x_7_ - 76 y_7_ + [ 1 x_7_ ^ 2 + 1 y_7_ ^ 2 ] <= 40266.1071756256
c8: 188 x_8_ - 76 y_8_ + [ 1 x_8_ ^ 2 + 1 y_8_ ^ 2 ] <= 5015.159080222578
c9: 188 x_9_ - 76 y_9_ + [ 1 x_9_ ^ 2 + 1 y_9_ ^ 2 ] <= 12966.060567825152
c10: 188 x_10_ - 76 y_10_ + [ 1 x_10_ ^ 2 + 1 y_10_ ^ 2 ] <= 29587.92008493543
c11: 188 x_11_ - 76 y_11_ + [ 1 x_11_ ^ 2 + 1 y_11_ ^ 2 ] <= 15967.87999999999
c12: 188 x_12_ - 76 y_12_ + [ 1 x_12_ ^ 2 + 1 y_12_ ^ 2 ] <= 30937.080173301314
c13: 188 x_13_ - 76 y_13_ + [ 1 x_13_ ^ 2 + 1 y_13_ ^ 2 ] <= -9316.848869640056
c14: 188 x_14_ - 76 y_14_ + [ 1 x_14_ ^ 2 + 1 y_14_ ^ 2 ] <= -10098.2
c15: 188 x_16_ - 76 y_16_ + [ 1 x_16_ ^ 2 + 1 y_16_ ^ 2 ] <= 12313.699999999993
c16: 188 x_17_ - 76 y_17_ + [ 1 x_17_ ^ 2 + 1 y_17_ ^ 2 ] <= 28226.25
c17: 188 x_18_ - 76 y_18_ + [ 1 x_18_ ^ 2 + 1 y_18_ ^ 2 ] <= 28491.221977705456
c18: 188 x_19_ - 76 y_19_ + [ 1 x_19_ ^ 2 + 1 y_19_ ^ 2 ] <= 23666.69937943024
c19: 188 x_20_ - 76 y_20_ + [ 1 x_20_ ^ 2 + 1 y_20_ ^ 2 ] <= 19754.432294147387
c20: 188 x_21_ - 76 y_21_ + [ 1 x_21_ ^ 2 + 1 y_21_ ^ 2 ] <= 27589.16314594623
c21: 188 x_22_ - 76 y_22_ + [ 1 x_22_ ^ 2 + 1 y_22_ ^ 2 ] <= 14356.208313906543
c22: 188 x_23_ - 76 y_23_ + [ 1 x_23_ ^ 2 + 1 y_23_ ^ 2 ] <= 20899.576667209167
c23: 188 x_24_ - 76 y_24_ + [ 1 x_24_ ^ 2 + 1 y_24_ ^ 2 ] <= 24747.48112051566
c24: 188 x_25_ - 76 y_25_ + [ 1 x_25_ ^ 2 + 1 y_25_ ^ 2 ] <= -3313.24284040377
c25: 188 x_26_ - 76 y_26_ + [ 1 x_26_ ^ 2 + 1 y_26_ ^ 2 ] <= 12483.475105624599
c26: 188 x_27_ - 76 y_27_ + [ 1 x_27_ ^ 2 + 1 y_27_ ^ 2 ] <= 3810.8432348708884
c27: 188 x_28_ - 76 y_28_ + [ 1 x_28_ ^ 2 + 1 y_28_ ^ 2 ] <= 10308.339535917865
c28: 188 x_29_ - 76 y_29_ + [ 1 x_29_ ^ 2 + 1 y_29_ ^ 2 ] <= 10172.507640246775
c29: 188 x_30_ - 76 y_30_ + [ 1 x_30_ ^ 2 + 1 y_30_ ^ 2 ] <= 9149.369999999995
c30: 188 x_31_ - 76 y_31_ + [ 1 x_31_ ^ 2 + 1 y_31_ ^ 2 ] <= 51547.31786044435
c31: 188 x_32_ - 76 y_32_ + [ 1 x_32_ ^ 2 + 1 y_32_ ^ 2 ] <= -5728.688047484928
c32: 188 x_33_ - 76 y_33_ + [ 1 x_33_ ^ 2 + 1 y_33_ ^ 2 ] <= 6258.299543536596
c33: 188 x_34_ - 76 y_34_ + [ 1 x_34_ ^ 2 + 1 y_34_ ^ 2 ] <= 22489.194424578083
c34: 188 x_35_ - 76 y_35_ + [ 1 x_35_ ^ 2 + 1 y_35_ ^ 2 ] <= 18355.902778129297
c35: 188 x_36_ - 76 y_36_ + [ 1 x_36_ ^ 2 + 1 y_36_ ^ 2 ] <= 30718.55762013107
c36: 188 x_37_ - 76 y_37_ + [ 1 x_37_ ^ 2 + 1 y_37_ ^ 2 ] <= 29579.608070602568
c37: 188 x_38_ - 76 y_38_ + [ 1 x_38_ ^ 2 + 1 y_38_ ^ 2 ] <= 18558.50242867094
c38: 188 x_39_ - 76 y_39_ + [ 1 x_39_ ^ 2 + 1 y_39_ ^ 2 ] <= 38040.35171560307
c39: 188 x_40_ - 76 y_40_ + [ 1 x_40_ ^ 2 + 1 y_40_ ^ 2 ] <= 1890.4999999999982
c40: 188 x_41_ - 76 y_41_ + [ 1 x_41_ ^ 2 + 1 y_41_ ^ 2 ] <= 45120.497955484665
c41: 188 x_42_ - 76 y_42_ + [ 1 x_42_ ^ 2 + 1 y_42_ ^ 2 ] <= -4962.350000000002
c42: 188 x_43_ - 76 y_43_ + [ 1 x_43_ ^ 2 + 1 y_43_ ^ 2 ] <= 6744.807847983371
c43: 188 x_44_ - 76 y_44_ + [ 1 x_44_ ^ 2 + 1 y_44_ ^ 2 ] <= 32521.256072470132
c44: 188 x_45_ - 76 y_45_ + [ 1 x_45_ ^ 2 + 1 y_45_ ^ 2 ] <= 27033.57390568326
c45: 188 x_46_ - 76 y_46_ + [ 1 x_46_ ^ 2 + 1 y_46_ ^ 2 ] <= 16245.730526910123
c46: 188 x_47_ - 76 y_47_ + [ 1 x_47_ ^ 2 + 1 y_47_ ^ 2 ] <= 2127.384071562561
c47: 188 x_48_ - 76 y_48_ + [ 1 x_48_ ^ 2 + 1 y_48_ ^ 2 ] <= 33532.159315897
c48: 188 x_49_ - 76 y_49_ + [ 1 x_49_ ^ 2 + 1 y_49_ ^ 2 ] <= 28686.16214975364
c49: 188 x_50_ - 76 y_50_ + [ 1 x_50_ ^ 2 + 1 y_50_ ^ 2 ] <= 7074.870330876482
c50: 188 x_51_ - 76 y_51_ + [ 1 x_51_ ^ 2 + 1 y_51_ ^ 2 ] <= -7198.892725682711
c51: 188 x_52_ - 76 y_52_ + [ 1 x_52_ ^ 2 + 1 y_52_ ^ 2 ] <= 7483.880000000001
c52: 188 x_53_ - 76 y_53_ + [ 1 x_53_ ^ 2 + 1 y_53_ ^ 2 ] <= 43517.20688097351
c53: 188 x_54_ - 76 y_54_ + [ 1 x_54_ ^ 2 + 1 y_54_ ^ 2 ] <= -421.36376924514116
c54: 188 x_55_ - 76 y_55_ + [ 1 x_55_ ^ 2 + 1 y_55_ ^ 2 ] <= 5263.005928134935
c55: 188 x_56_ - 76 y_56_ + [ 1 x_56_ ^ 2 + 1 y_56_ ^ 2 ] <= 27138.34076177181
c56: 188 x_57_ - 76 y_57_ + [ 1 x_57_ ^ 2 + 1 y_57_ ^ 2 ] <= 27164.92558845366
c57: 188 x_58_ - 76 y_58_ + [ 1 x_58_ ^ 2 + 1 y_58_ ^ 2 ] <= -130.51000000000022
c58: 188 x_59_ - 76 y_59_ + [ 1 x_59_ ^ 2 + 1 y_59_ ^ 2 ] <= 37175.09419736639
c59: 188 x_60_ - 76 y_60_ + [ 1 x_60_ ^ 2 + 1 y_60_ ^ 2 ] <= -3909.545193328555
c60: 188 x_61_ - 76 y_61_ + [ 1 x_61_ ^ 2 + 1 y_61_ ^ 2 ] <= 4667.218536516573
c61: 188 x_62_ - 76 y_62_ + [ 1 x_62_ ^ 2 + 1 y_62_ ^ 2 ] <= 16098.928142426856
c62: 188 x_63_ - 76 y_63_ + [ 1 x_63_ ^ 2 + 1 y_63_ ^ 2 ] <= 2355.3292574709158
c63: 188 x_64_ - 76 y_64_ + [ 1 x_64_ ^ 2 + 1 y_64_ ^ 2 ] <= 3076.9038944144268
c64: 188 x_65_ - 76 y_65_ + [ 1 x_65_ ^ 2 + 1 y_65_ ^ 2 ] <= 33354.457877235
c65: 188 x_66_ - 76 y_66_ + [ 1 x_66_ ^ 2 + 1 y_66_ ^ 2 ] <= 18355.507126406028
c66: 188 x_67_ - 76 y_67_ + [ 1 x_67_ ^ 2 + 1 y_67_ ^ 2 ] <= 25522.814794551967
c67: 188 x_68_ - 76 y_68_ + [ 1 x_68_ ^ 2 + 1 y_68_ ^ 2 ] <= 25750.750850540957
c68: 188 x_69_ - 76 y_69_ + [ 1 x_69_ ^ 2 + 1 y_69_ ^ 2 ] <= 22300.76344225816
c69: 188 x_70_ - 76 y_70_ + [ 1 x_70_ ^ 2 + 1 y_70_ ^ 2 ] <= 15448.696069177258
c70: 188 x_71_ - 76 y_71_ + [ 1 x_71_ ^ 2 + 1 y_71_ ^ 2 ] <= 34631.076009503326
c71: 188 x_72_ - 76 y_72_ + [ 1 x_72_ ^ 2 + 1 y_72_ ^ 2 ] <= 13809.03973200489
c72: 188 x_73_ - 76 y_73_ + [ 1 x_73_ ^ 2 + 1 y_73_ ^ 2 ] <= 18747.98622207746
c73: 188 x_74_ - 76 y_74_ + [ 1 x_74_ ^ 2 + 1 y_74_ ^ 2 ] <= 14223.414486891677
c74: 188 x_75_ - 76 y_75_ + [ 1 x_75_ ^ 2 + 1 y_75_ ^ 2 ] <= 35790.83419870226
c75: 188 x_76_ - 76 y_76_ + [ 1 x_76_ ^ 2 + 1 y_76_ ^ 2 ] <= 10308.339535917865
c76: 188 x_77_ - 76 y_77_ + [ 1 x_77_ ^ 2 + 1 y_77_ ^ 2 ] <= 35462.82306656904
c77: 188 x_78_ - 76 y_78_ + [ 1 x_78_ ^ 2 + 1 y_78_ ^ 2 ] <= 30837.809433621886
c78: 188 x_79_ - 76 y_79_ + [ 1 x_79_ ^ 2 + 1 y_79_ ^ 2 ] <= 27220.70415694369
c79: 188 x_80_ - 76 y_80_ + [ 1 x_80_ ^ 2 + 1 y_80_ ^ 2 ] <= -337.3440552317643
c80: 188 x_81_ - 76 y_81_ + [ 1 x_81_ ^ 2 + 1 y_81_ ^ 2 ] <= 28098.900922366447
c81: 188 x_82_ - 76 y_82_ + [ 1 x_82_ ^ 2 + 1 y_82_ ^ 2 ] <= 20097.810103411386
c82: 188 x_83_ - 76 y_83_ + [ 1 x_83_ ^ 2 + 1 y_83_ ^ 2 ] <= 23771.14
c83: 188 x_84_ - 76 y_84_ + [ 1 x_84_ ^ 2 + 1 y_84_ ^ 2 ] <= 37626.694539486416
c84: 188 x_85_ - 76 y_85_ + [ 1 x_85_ ^ 2 + 1 y_85_ ^ 2 ] <= 45127.01641017152
c85: 188 x_86_ - 76 y_86_ + [ 1 x_86_ ^ 2 + 1 y_86_ ^ 2 ] <= 19329.547062073056
c86: 188 x_87_ - 76 y_87_ + [ 1 x_87_ ^ 2 + 1 y_87_ ^ 2 ] <= 37294.95372683037
c87: 188 x_88_ - 76 y_88_ + [ 1 x_88_ ^ 2 + 1 y_88_ ^ 2 ] <= 27581.137244539284
c88: 188 x_89_ - 76 y_89_ + [ 1 x_89_ ^ 2 + 1 y_89_ ^ 2 ] <= 27997.1696007925
c89: 188 x_90_ - 76 y_90_ + [ 1 x_90_ ^ 2 + 1 y_90_ ^ 2 ] <= -3987.7930741117843
c90: 188 x_91_ - 76 y_91_ + [ 1 x_91_ ^ 2 + 1 y_91_ ^ 2 ] <= 47406.99209666635
c91: 188 x_92_ - 76 y_92_ + [ 1 x_92_ ^ 2 + 1 y_92_ ^ 2 ] <= 33589.83060304259
c92: 188 x_93_ - 76 y_93_ + [ 1 x_93_ ^ 2 + 1 y_93_ ^ 2 ] <= 36639.72859529536
c93: 188 x_94_ - 76 y_94_ + [ 1 x_94_ ^ 2 + 1 y_94_ ^ 2 ] <= 59083.52111809436
c94: 188 x_95_ - 76 y_95_ + [ 1 x_95_ ^ 2 + 1 y_95_ ^ 2 ] <= 24088.022541870538
c95: 188 x_96_ - 76 y_96_ + [ 1 x_96_ ^ 2 + 1 y_96_ ^ 2 ] <= 54912.55907216683
c96: 188 x_97_ - 76 y_97_ + [ 1 x_97_ ^ 2 + 1 y_97_ ^ 2 ] <= 48242.65570030145
c97: 188 x_98_ - 76 y_98_ + [ 1 x_98_ ^ 2 + 1 y_98_ ^ 2 ] <= 31471.796421269093
c98: 188 x_99_ - 76 y_99_ + [ 1 x_99_ ^ 2 + 1 y_99_ ^ 2 ] <= 26575.387182986524
c99: 188 x_100_ - 76 y_100_ + [ 1 x_100_ ^ 2 + 1 y_100_ ^ 2 ] <= 13974.00341283156
c100: 54 x_1_ + 176 y_1_ + [ 1 x_1_ ^ 2 + 1 y_1_ ^ 2 ] <= 17441.558707337394
c101: 54 x_2_ + 176 y_2_ + [ 1 x_2_ ^ 2 + 1 y_2_ ^ 2 ] <= 32909.97665788716
c102: 54 x_3_ + 176 y_3_ + [ 1 x_3_ ^ 2 + 1 y_3_ ^ 2 ] <= 38258.69169426659
c103: 54 x_4_ + 176 y_4_ + [ 1 x_4_ ^ 2 + 1 y_4_ ^ 2 ] <= 35216.11288263403
c104: 54 x_5_ + 176 y_5_ + [ 1 x_5_ ^ 2 + 1 y_5_ ^ 2 ] <= -5094.606737784265
c105: 54 x_6_ + 176 y_6_ + [ 1 x_6_ ^ 2 + 1 y_6_ ^ 2 ] <= 40054.36052002089
c106: 54 x_7_ + 176 y_7_ + [ 1 x_7_ ^ 2 + 1 y_7_ ^ 2 ] <= 12504.018399304365
c107: 54 x_8_ + 176 y_8_ + [ 1 x_8_ ^ 2 + 1 y_8_ ^ 2 ] <= 23023.46706450078
c108: 54 x_9_ + 176 y_9_ + [ 1 x_9_ ^ 2 + 1 y_9_ ^ 2 ] <= 19539.20038819755
c109: 54 x_10_ + 176 y_10_ + [ 1 x_10_ ^ 2 + 1 y_10_ ^ 2 ] <= 42793.03616301178
c110: 54 x_11_ + 176 y_11_ + [ 1 x_11_ ^ 2 + 1 y_11_ ^ 2 ] <= 19233.091956774944
c111: 54 x_12_ + 176 y_12_ + [ 1 x_12_ ^ 2 + 1 y_12_ ^ 2 ] <= 13851.653168310826
c112: 54 x_13_ + 176 y_13_ + [ 1 x_13_ ^ 2 + 1 y_13_ ^ 2 ] <= 17866.86091996643
c113: 54 x_14_ + 176 y_14_ + [ 1 x_14_ ^ 2 + 1 y_14_ ^ 2 ] <= 12477.896208243925
c114: 54 x_15_ + 176 y_15_ + [ 1 x_15_ ^ 2 + 1 y_15_ ^ 2 ] <= 12115.339535917865
c115: 54 x_16_ + 176 y_16_ + [ 1 x_16_ ^ 2 + 1 y_16_ ^ 2 ] <= 17776.031885548662
c116: 54 x_17_ + 176 y_17_ + [ 1 x_17_ ^ 2 + 1 y_17_ ^ 2 ] <= 1033.480568785697
c117: 54 x_18_ + 176 y_18_ + [ 1 x_18_ ^ 2 + 1 y_18_ ^ 2 ] <= 32398.788881948734
c118: 54 x_19_ + 176 y_19_ + [ 1 x_19_ ^ 2 + 1 y_19_ ^ 2 ] <= 10088.212700322361
c119: 54 x_20_ + 176 y_20_ + [ 1 x_20_ ^ 2 + 1 y_20_ ^ 2 ] <= 12542.242698725495
c120: 54 x_21_ + 176 y_21_ + [ 1 x_21_ ^ 2 + 1 y_21_ ^ 2 ] <= 36664.52283521256
c121: 54 x_22_ + 176 y_22_ + [ 1 x_22_ ^ 2 + 1 y_22_ ^ 2 ] <= 39354.344514412944
c122: 54 x_23_ + 176 y_23_ + [ 1 x_23_ ^ 2 + 1 y_23_ ^ 2 ] <= 30195.816962614044
c123: 54 x_24_ + 176 y_24_ + [ 1 x_24_ ^ 2 + 1 y_24_ ^ 2 ] <= 37000.53038769098
c124: 54 x_25_ + 176 y_25_ + [ 1 x_25_ ^ 2 + 1 y_25_ ^ 2 ] <= 26505.233753262524
c125: 54 x_26_ + 176 y_26_ + [ 1 x_26_ ^ 2 + 1 y_26_ ^ 2 ] <= 24712.98816671301
c126: 54 x_27_ + 176 y_27_ + [ 1 x_27_ ^ 2 + 1 y_27_ ^ 2 ] <= 5063.576483843532
c127: 54 x_28_ + 176 y_28_ + [ 1 x_28_ ^ 2 + 1 y_28_ ^ 2 ] <= 11444.199999999993
c128: 54 x_29_ + 176 y_29_ + [ 1 x_29_ ^ 2 + 1 y_29_ ^ 2 ] <= 11310.604067858712
c129: 54 x_30_ + 176 y_30_ + [ 1 x_30_ ^ 2 + 1 y_30_ ^ 2 ] <= 8124.535199717062
c130: 54 x_31_ + 176 y_31_ + [ 1 x_31_ ^ 2 + 1 y_31_ ^ 2 ] <= 33754.08999999999
c131: 54 x_32_ + 176 y_32_ + [ 1 x_32_ ^ 2 + 1 y_32_ ^ 2 ] <= -234.86812965941135
c132: 54 x_33_ + 176 y_33_ + [ 1 x_33_ ^ 2 + 1 y_33_ ^ 2 ] <= 36979.05906151341
c133: 54 x_34_ + 176 y_34_ + [ 1 x_34_ ^ 2 + 1 y_34_ ^ 2 ] <= 20723.607795454118
c134: 54 x_35_ + 176 y_35_ + [ 1 x_35_ ^ 2 + 1 y_35_ ^ 2 ] <= 25977.93765107863
c135: 54 x_36_ + 176 y_36_ + [ 1 x_36_ ^ 2 + 1 y_36_ ^ 2 ] <= -1539.3499999999995
c136: 54 x_37_ + 176 y_37_ + [ 1 x_37_ ^ 2 + 1 y_37_ ^ 2 ] <= 7175.362341569855
c137: 54 x_38_ + 176 y_38_ + [ 1 x_38_ ^ 2 + 1 y_38_ ^ 2 ] <= 15528.166189926498
c138: 54 x_39_ + 176 y_39_ + [ 1 x_39_ ^ 2 + 1 y_39_ ^ 2 ] <= 9505.745747178873
c139: 54 x_40_ + 176 y_40_ + [ 1 x_40_ ^ 2 + 1 y_40_ ^ 2 ] <= 29631.757091564563
c140: 54 x_41_ + 176 y_41_ + [ 1 x_41_ ^ 2 + 1 y_41_ ^ 2 ] <= 6575.463898216731
c141: 54 x_42_ + 176 y_42_ + [ 1 x_42_ ^ 2 + 1 y_42_ ^ 2 ] <= -3493.7000000000016
c142: 54 x_43_ + 176 y_43_ + [ 1 x_43_ ^ 2 + 1 y_43_ ^ 2 ] <= 5305.134585121854
c143: 54 x_44_ + 176 y_44_ + [ 1 x_44_ ^ 2 + 1 y_44_ ^ 2 ] <= 26933.585481966642
c144: 54 x_45_ + 176 y_45_ + [ 1 x_45_ ^ 2 + 1 y_45_ ^ 2 ] <= 39680.10797248766
c145: 54 x_46_ + 176 y_46_ + [ 1 x_46_ ^ 2 + 1 y_46_ ^ 2 ] <= 36850.90243288015
c146: 54 x_47_ + 176 y_47_ + [ 1 x_47_ ^ 2 + 1 y_47_ ^ 2 ] <= 3414.6224878187277
c147: 54 x_48_ + 176 y_48_ + [ 1 x_48_ ^ 2 + 1 y_48_ ^ 2 ] <= -4139.783816786505
c148: 54 x_49_ + 176 y_49_ + [ 1 x_49_ ^ 2 + 1 y_49_ ^ 2 ] <= 4476.824925815772
c149: 54 x_50_ + 176 y_50_ + [ 1 x_50_ ^ 2 + 1 y_50_ ^ 2 ] <= 8266.138164631408
c150: 54 x_51_ + 176 y_51_ + [ 1 x_51_ ^ 2 + 1 y_51_ ^ 2 ] <= 16759.92595618043
c151: 54 x_52_ + 176 y_52_ + [ 1 x_52_ ^ 2 + 1 y_52_ ^ 2 ] <= 15728.74176787469
c152: 54 x_53_ + 176 y_53_ + [ 1 x_53_ ^ 2 + 1 y_53_ ^ 2 ] <= 5492.978139273633
c153: 54 x_54_ + 176 y_54_ + [ 1 x_54_ ^ 2 + 1 y_54_ ^ 2 ] <= 5528.46495795768
c154: 54 x_55_ + 176 y_55_ + [ 1 x_55_ ^ 2 + 1 y_55_ ^ 2 ] <= 12790.529999999999
c155: 54 x_56_ + 176 y_56_ + [ 1 x_56_ ^ 2 + 1 y_56_ ^ 2 ] <= 6148.273222190395
c156: 54 x_57_ + 176 y_57_ + [ 1 x_57_ ^ 2 + 1 y_57_ ^ 2 ] <= 2043.2372853004163
c157: 54 x_58_ + 176 y_58_ + [ 1 x_58_ ^ 2 + 1 y_58_ ^ 2 ] <= 23043.115591780454
c158: 54 x_59_ + 176 y_59_ + [ 1 x_59_ ^ 2 + 1 y_59_ ^ 2 ] <= 15674.381761029188
c159: 54 x_60_ + 176 y_60_ + [ 1 x_60_ ^ 2 + 1 y_60_ ^ 2 ] <= 13905.598855798948
c160: 54 x_61_ + 176 y_61_ + [ 1 x_61_ ^ 2 + 1 y_61_ ^ 2 ] <= -482.1021067446445
c161: 54 x_62_ + 176 y_62_ + [ 1 x_62_ ^ 2 + 1 y_62_ ^ 2 ] <= 8170.890181863146
c162: 54 x_63_ + 176 y_63_ + [ 1 x_63_ ^ 2 + 1 y_63_ ^ 2 ] <= 21574.645392508424
c163: 54 x_64_ + 176 y_64_ + [ 1 x_64_ ^ 2 + 1 y_64_ ^ 2 ] <= 4344.411757903748
c164: 54 x_65_ + 176 y_65_ + [ 1 x_65_ ^ 2 + 1 y_65_ ^ 2 ] <= 19373.498934447707
c165: 54 x_66_ + 176 y_66_ + [ 1 x_66_ ^ 2 + 1 y_66_ ^ 2 ] <= -2348.046041966876
c166: 54 x_67_ + 176 y_67_ + [ 1 x_67_ ^ 2 + 1 y_67_ ^ 2 ] <= 36690.501095337735
c167: 54 x_68_ + 176 y_68_ + [ 1 x_68_ ^ 2 + 1 y_68_ ^ 2 ] <= 14342.836429755374
c168: 54 x_69_ + 176 y_69_ + [ 1 x_69_ ^ 2 + 1 y_69_ ^ 2 ] <= 5675.9863605113405
c169: 54 x_70_ + 176 y_70_ + [ 1 x_70_ ^ 2 + 1 y_70_ ^ 2 ] <= 1298.2751648632457
c170: 54 x_71_ + 176 y_71_ + [ 1 x_71_ ^ 2 + 1 y_71_ ^ 2 ] <= 526.7907510593814
c171: 54 x_72_ + 176 y_72_ + [ 1 x_72_ ^ 2 + 1 y_72_ ^ 2 ] <= -8335.64
c172: 54 x_73_ + 176 y_73_ + [ 1 x_73_ ^ 2 + 1 y_73_ ^ 2 ] <= -2469.317777880293
c173: 54 x_74_ + 176 y_74_ + [ 1 x_74_ ^ 2 + 1 y_74_ ^ 2 ] <= 757.0588078135224
c174: 54 x_75_ + 176 y_75_ + [ 1 x_75_ ^ 2 + 1 y_75_ ^ 2 ] <= 1200.7799999999988
c175: 54 x_77_ + 176 y_77_ + [ 1 x_77_ ^ 2 + 1 y_77_ ^ 2 ] <= 33149.09999999999
c176: 54 x_78_ + 176 y_78_ + [ 1 x_78_ ^ 2 + 1 y_78_ ^ 2 ] <= 28957.6
c177: 54 x_79_ + 176 y_79_ + [ 1 x_79_ ^ 2 + 1 y_79_ ^ 2 ] <= 2278.449999999999
c178: 54 x_80_ + 176 y_80_ + [ 1 x_80_ ^ 2 + 1 y_80_ ^ 2 ] <= 20254.714588844494
c179: 54 x_81_ + 176 y_81_ + [ 1 x_81_ ^ 2 + 1 y_81_ ^ 2 ] <= -5725.252360667078
c180: 54 x_82_ + 176 y_82_ + [ 1 x_82_ ^ 2 + 1 y_82_ ^ 2 ] <= 6536.625259952212
c181: 54 x_83_ + 176 y_83_ + [ 1 x_83_ ^ 2 + 1 y_83_ ^ 2 ] <= 29279.006070379924
c182: 54 x_84_ + 176 y_84_ + [ 1 x_84_ ^ 2 + 1 y_84_ ^ 2 ] <= 34459.66810045392
c183: 54 x_85_ + 176 y_85_ + [ 1 x_85_ ^ 2 + 1 y_85_ ^ 2 ] <= 17787.930873773337
c184: 54 x_86_ + 176 y_86_ + [ 1 x_86_ ^ 2 + 1 y_86_ ^ 2 ] <= 28050.555510553597
c185: 54 x_87_ + 176 y_87_ + [ 1 x_87_ ^ 2 + 1 y_87_ ^ 2 ] <= 5510.887955116172
c186: 54 x_88_ + 176 y_88_ + [ 1 x_88_ ^ 2 + 1 y_88_ ^ 2 ] <= 27416.2721477796
c187: 54 x_89_ + 176 y_89_ + [ 1 x_89_ ^ 2 + 1 y_89_ ^ 2 ] <= 32548.746583352826
c188: 54 x_90_ + 176 y_90_ + [ 1 x_90_ ^ 2 + 1 y_90_ ^ 2 ] <= 27442.595108296016
c189: 54 x_91_ + 176 y_91_ + [ 1 x_91_ ^ 2 + 1 y_91_ ^ 2 ] <= 34506.164927704725
c190: 54 x_92_ + 176 y_92_ + [ 1 x_92_ ^ 2 + 1 y_92_ ^ 2 ] <= 10054.717269786095
c191: 54 x_93_ + 176 y_93_ + [ 1 x_93_ ^ 2 + 1 y_93_ ^ 2 ] <= 26106.980182425068
c192: 54 x_94_ + 176 y_94_ + [ 1 x_94_ ^ 2 + 1 y_94_ ^ 2 ] <= 48534.487289113255
c193: 54 x_95_ + 176 y_95_ + [ 1 x_95_ ^ 2 + 1 y_95_ ^ 2 ] <= 25029.94340989781
c194: 54 x_96_ + 176 y_96_ + [ 1 x_96_ ^ 2 + 1 y_96_ ^ 2 ] <= 55520.95861155095
c195: 54 x_97_ + 176 y_97_ + [ 1 x_97_ ^ 2 + 1 y_97_ ^ 2 ] <= 24679.146543526345
c196: 54 x_98_ + 176 y_98_ + [ 1 x_98_ ^ 2 + 1 y_98_ ^ 2 ] <= -480.869999999999
c197: 54 x_99_ + 176 y_99_ + [ 1 x_99_ ^ 2 + 1 y_99_ ^ 2 ] <= 3056.7079591081074
c198: 54 x_100_ + 176 y_100_ + [ 1 x_100_ ^ 2 + 1 y_100_ ^ 2 ] <= -55.78009382137316
c199: -180 x_1_ + 180 y_1_ + [ 1 x_1_ ^ 2 + 1 y_1_ ^ 2 ] <= 27895.60002501602
c200: -180 x_2_ + 180 y_2_ + [ 1 x_2_ ^ 2 + 1 y_2_ ^ 2 ] <= 40481.23088848058
c201: -180 x_3_ + 180 y_3_ + [ 1 x_3_ ^ 2 + 1 y_3_ ^ 2 ] <= 33336.605560683165
c202: -180 x_4_ + 180 y_4_ + [ 1 x_4_ ^ 2 + 1 y_4_ ^ 2 ] <= 42587.58009806531
c203: -180 x_5_ + 180 y_5_ + [ 1 x_5_ ^ 2 + 1 y_5_ ^ 2 ] <= 654.479907661138
c204: -180 x_6_ + 180 y_6_ + [ 1 x_6_ ^ 2 + 1 y_6_ ^ 2 ] <= 17482.48999999999
c205: -180 x_7_ + 180 y_7_ + [ 1 x_7_ ^ 2 + 1 y_7_ ^ 2 ] <= 15620.713373035771
c206: -180 x_8_ + 180 y_8_ + [ 1 x_8_ ^ 2 + 1 y_8_ ^ 2 ] <= 13175.775164287701
c207: -180 x_9_ + 180 y_9_ + [ 1 x_9_ ^ 2 + 1 y_9_ ^ 2 ] <= 33859.532757494126
c208: -180 x_10_ + 180 y_10_ + [ 1 x_10_ ^ 2 + 1 y_10_ ^ 2 ] <= 24589.36167035329
c209: -180 x_11_ + 180 y_11_ + [ 1 x_11_ ^ 2 + 1 y_11_ ^ 2 ] <= -3104.0628294763446
c210: -180 x_12_ + 180 y_12_ + [ 1 x_12_ ^ 2 + 1 y_12_ ^ 2 ] <= -10808.100389332812
c211: -180 x_13_ + 180 y_13_ + [ 1 x_13_ ^ 2 + 1 y_13_ ^ 2 ] <= 43916.93269345079
c212: -180 x_14_ + 180 y_14_ + [ 1 x_14_ ^ 2 + 1 y_14_ ^ 2 ] <= 35618.23624285344
c213: -180 x_15_ + 180 y_15_ + [ 1 x_15_ ^ 2 + 1 y_15_ ^ 2 ] <= 39200.497955484665
c214: -180 x_16_ + 180 y_16_ + [ 1 x_16_ ^ 2 + 1 y_16_ ^ 2 ] <= -5063.740000000002
c215: -180 x_17_ + 180 y_17_ + [ 1 x_17_ ^ 2 + 1 y_17_ ^ 2 ] <= 20235.728934726416
c216: -180 x_18_ + 180 y_18_ + [ 1 x_18_ ^ 2 + 1 y_18_ ^ 2 ] <= 25745.300000000003
c217: -180 x_19_ + 180 y_19_ + [ 1 x_19_ ^ 2 + 1 y_19_ ^ 2 ] <= 5426.791515993795
c218: -180 x_20_ + 180 y_20_ + [ 1 x_20_ ^ 2 + 1 y_20_ ^ 2 ] <= 14488.567669959939
c219: -180 x_21_ + 180 y_21_ + [ 1 x_21_ ^ 2 + 1 y_21_ ^ 2 ] <= 12971.780896634955
c220: -180 x_22_ + 180 y_22_ + [ 1 x_22_ ^ 2 + 1 y_22_ ^ 2 ] <= 21775.336965999566
c221: -180 x_23_ + 180 y_23_ + [ 1 x_23_ ^ 2 + 1 y_23_ ^ 2 ] <= 15645.999193008083
c222: -180 x_24_ + 180 y_24_ + [ 1 x_24_ ^ 2 + 1 y_24_ ^ 2 ] <= 23773.72368638563
c223: -180 x_25_ + 180 y_25_ + [ 1 x_25_ ^ 2 + 1 y_25_ ^ 2 ] <= 46132.13055903431
c224: -180 x_26_ + 180 y_26_ + [ 1 x_26_ ^ 2 + 1 y_26_ ^ 2 ] <= 30091.919785025966
c225: -180 x_27_ + 180 y_27_ + [ 1 x_27_ ^ 2 + 1 y_27_ ^ 2 ] <= 26792.280331626185
c226: -180 x_28_ + 180 y_28_ + [ 1 x_28_ ^ 2 + 1 y_28_ ^ 2 ] <= 38096.00890893559
c227: -180 x_29_ + 180 y_29_ + [ 1 x_29_ ^ 2 + 1 y_29_ ^ 2 ] <= 17655.735230584993
c228: -180 x_30_ + 180 y_30_ + [ 1 x_30_ ^ 2 + 1 y_30_ ^ 2 ] <= -1619.7019356183428
c229: -180 x_31_ + 180 y_31_ + [ 1 x_31_ ^ 2 + 1 y_31_ ^ 2 ] <= 17966.81043085918
c230: -180 x_32_ + 180 y_32_ + [ 1 x_32_ ^ 2 + 1 y_32_ ^ 2 ] <= 17161.345749364
c231: -180 x_33_ + 180 y_33_ + [ 1 x_33_ ^ 2 + 1 y_33_ ^ 2 ] <= 32608.217688811586
c232: -180 x_34_ + 180 y_34_ + [ 1 x_34_ ^ 2 + 1 y_34_ ^ 2 ] <= -12929.664149178945
c233: -180 x_35_ + 180 y_35_ + [ 1 x_35_ ^ 2 + 1 y_35_ ^ 2 ] <= 21023.757688256854
c234: -180 x_36_ + 180 y_36_ + [ 1 x_36_ ^ 2 + 1 y_36_ ^ 2 ] <= 12669.839999999993
c235: -180 x_37_ + 180 y_37_ + [ 1 x_37_ ^ 2 + 1 y_37_ ^ 2 ] <= 28632.194652571554
c236: -180 x_38_ + 180 y_38_ + [ 1 x_38_ ^ 2 + 1 y_38_ ^ 2 ] <= 28895.586117265753
c237: -180 x_39_ + 180 y_39_ + [ 1 x_39_ ^ 2 + 1 y_39_ ^ 2 ] <= 12271.495508022865
c238: -180 x_40_ + 180 y_40_ + [ 1 x_40_ ^ 2 + 1 y_40_ ^ 2 ] <= 20291.299999999996
c239: -180 x_42_ + 180 y_42_ + [ 1 x_42_ ^ 2 + 1 y_42_ ^ 2 ] <= 10190.289999999997
c240: -180 x_43_ + 180 y_43_ + [ 1 x_43_ ^ 2 + 1 y_43_ ^ 2 ] <= 6913.2545824631125
c241: -180 x_44_ + 180 y_44_ + [ 1 x_44_ ^ 2 + 1 y_44_ ^ 2 ] <= 35982.97724086599
c242: -180 x_45_ + 180 y_45_ + [ 1 x_45_ ^ 2 + 1 y_45_ ^ 2 ] <= 32720.001360258575
c243: -180 x_46_ + 180 y_46_ + [ 1 x_46_ ^ 2 + 1 y_46_ ^ 2 ] <= 20234.66432851184
c244: -180 x_47_ + 180 y_47_ + [ 1 x_47_ ^ 2 + 1 y_47_ ^ 2 ] <= 23811.75247710071
c245: -180 x_48_ + 180 y_48_ + [ 1 x_48_ ^ 2 + 1 y_48_ ^ 2 ] <= 11044.543841613115
c246: -180 x_49_ + 180 y_49_ + [ 1 x_49_ ^ 2 + 1 y_49_ ^ 2 ] <= 29181.50039754731
c247: -180 x_50_ + 180 y_50_ + [ 1 x_50_ ^ 2 + 1 y_50_ ^ 2 ] <= 31974.2119013771
c248: -180 x_51_ + 180 y_51_ + [ 1 x_51_ ^ 2 + 1 y_51_ ^ 2 ] <= 40669.62612546929
c249: -180 x_52_ + 180 y_52_ + [ 1 x_52_ ^ 2 + 1 y_52_ ^ 2 ] <= 2067.7618737852354
c250: -180 x_53_ + 180 y_53_ + [ 1 x_53_ ^ 2 + 1 y_53_ ^ 2 ] <= -16179.8
c251: -180 x_54_ + 180 y_54_ + [ 1 x_54_ ^ 2 + 1 y_54_ ^ 2 ] <= 3915.4228034444204
c252: -180 x_55_ + 180 y_55_ + [ 1 x_55_ ^ 2 + 1 y_55_ ^ 2 ] <= 33138.499999999985
c253: -180 x_56_ + 180 y_56_ + [ 1 x_56_ ^ 2 + 1 y_56_ ^ 2 ] <= 21157.97135660585
c254: -180 x_57_ + 180 y_57_ + [ 1 x_57_ ^ 2 + 1 y_57_ ^ 2 ] <= 15613.847693728243
c255: -180 x_58_ + 180 y_58_ + [ 1 x_58_ ^ 2 + 1 y_58_ ^ 2 ] <= 25542.43440280304
c256: -180 x_59_ + 180 y_59_ + [ 1 x_59_ ^ 2 + 1 y_59_ ^ 2 ] <= 12863.263936388197
c257: -180 x_60_ + 180 y_60_ + [ 1 x_60_ ^ 2 + 1 y_60_ ^ 2 ] <= 29667.12999999999
c258: -180 x_61_ + 180 y_61_ + [ 1 x_61_ ^ 2 + 1 y_61_ ^ 2 ] <= 9750.851407187922
c259: -180 x_62_ + 180 y_62_ + [ 1 x_62_ ^ 2 + 1 y_62_ ^ 2 ] <= 32038.50792689914
c260: -180 x_63_ + 180 y_63_ + [ 1 x_63_ ^ 2 + 1 y_63_ ^ 2 ] <= 18497.26395090785
c261: -180 x_64_ + 180 y_64_ + [ 1 x_64_ ^ 2 + 1 y_64_ ^ 2 ] <= 25866.31286899885
c262: -180 x_65_ + 180 y_65_ + [ 1 x_65_ ^ 2 + 1 y_65_ ^ 2 ] <= 4783.624566108247
c263: -180 x_66_ + 180 y_66_ + [ 1 x_66_ ^ 2 + 1 y_66_ ^ 2 ] <= 7539.951796629652
c264: -180 x_67_ + 180 y_67_ + [ 1 x_67_ ^ 2 + 1 y_67_ ^ 2 ] <= 69936.08792808851
c265: -180 x_68_ + 180 y_68_ + [ 1 x_68_ ^ 2 + 1 y_68_ ^ 2 ] <= 7598.625715158447
c266: -180 x_69_ + 180 y_69_ + [ 1 x_69_ ^ 2 + 1 y_69_ ^ 2 ] <= -3908.509374351159
c267: -180 x_70_ + 180 y_70_ + [ 1 x_70_ ^ 2 + 1 y_70_ ^ 2 ] <= -7961.307423517008
c268: -180 x_71_ + 180 y_71_ + [ 1 x_71_ ^ 2 + 1 y_71_ ^ 2 ] <= -15426.884551924979
c269: -180 x_72_ + 180 y_72_ + [ 1 x_72_ ^ 2 + 1 y_72_ ^ 2 ] <= -3889.628762537086
c270: -180 x_73_ + 180 y_73_ + [ 1 x_73_ ^ 2 + 1 y_73_ ^ 2 ] <= -3626.0618931315366
c271: -180 x_74_ + 180 y_74_ + [ 1 x_74_ ^ 2 + 1 y_74_ ^ 2 ] <= 21944.136441733353
c272: -180 x_75_ + 180 y_75_ + [ 1 x_75_ ^ 2 + 1 y_75_ ^ 2 ] <= 13258.035429654807
c273: -180 x_76_ + 180 y_76_ + [ 1 x_76_ ^ 2 + 1 y_76_ ^ 2 ] <= -1151.5361017832693
c274: -180 x_77_ + 180 y_77_ + [ 1 x_77_ ^ 2 + 1 y_77_ ^ 2 ] <= 23564.455079419247
c275: -180 x_78_ + 180 y_78_ + [ 1 x_78_ ^ 2 + 1 y_78_ ^ 2 ] <= 28114.7626795853
c276: -180 x_79_ + 180 y_79_ + [ 1 x_79_ ^ 2 + 1 y_79_ ^ 2 ] <= 35039.474207190804
c277: -180 x_80_ + 180 y_80_ + [ 1 x_80_ ^ 2 + 1 y_80_ ^ 2 ] <= 26078.5897636168
c278: -180 x_81_ + 180 y_81_ + [ 1 x_81_ ^ 2 + 1 y_81_ ^ 2 ] <= 6798.027831699088
c279: -180 x_82_ + 180 y_82_ + [ 1 x_82_ ^ 2 + 1 y_82_ ^ 2 ] <= 21519.323694433966
c280: -180 x_83_ + 180 y_83_ + [ 1 x_83_ ^ 2 + 1 y_83_ ^ 2 ] <= 10501.590040933017
c281: -180 x_84_ + 180 y_84_ + [ 1 x_84_ ^ 2 + 1 y_84_ ^ 2 ] <= 22906.123133867084
c282: -180 x_85_ + 180 y_85_ + [ 1 x_85_ ^ 2 + 1 y_85_ ^ 2 ] <= 19500.57167620697
c283: -180 x_86_ + 180 y_86_ + [ 1 x_86_ ^ 2 + 1 y_86_ ^ 2 ] <= 29858.496701026845
c284: -180 x_87_ + 180 y_87_ + [ 1 x_87_ ^ 2 + 1 y_87_ ^ 2 ] <= 31099.957650289965
c285: -180 x_88_ + 180 y_88_ + [ 1 x_88_ ^ 2 + 1 y_88_ ^ 2 ] <= 7318.165833170424
c286: -180 x_89_ + 180 y_89_ + [ 1 x_89_ ^ 2 + 1 y_89_ ^ 2 ] <= 29322.15711993446
c287: -180 x_90_ + 180 y_90_ + [ 1 x_90_ ^ 2 + 1 y_90_ ^ 2 ] <= 48218.35124154416
c288: -180 x_91_ + 180 y_91_ + [ 1 x_91_ ^ 2 + 1 y_91_ ^ 2 ] <= 36585.90833436028
c289: -180 x_92_ + 180 y_92_ + [ 1 x_92_ ^ 2 + 1 y_92_ ^ 2 ] <= 10372.344666610876
c290: -180 x_93_ + 180 y_93_ + [ 1 x_93_ ^ 2 + 1 y_93_ ^ 2 ] <= 5863.449999999997
c291: -180 x_94_ + 180 y_94_ + [ 1 x_94_ ^ 2 + 1 y_94_ ^ 2 ] <= 37013.21211382966
c292: -180 x_95_ + 180 y_95_ + [ 1 x_95_ ^ 2 + 1 y_95_ ^ 2 ] <= 53939.64026505445
c293: -180 x_96_ + 180 y_96_ + [ 1 x_96_ ^ 2 + 1 y_96_ ^ 2 ] <= 54478.27434764602
c294: -180 x_97_ + 180 y_97_ + [ 1 x_97_ ^ 2 + 1 y_97_ ^ 2 ] <= 14021.26552653149
c295: -180 x_98_ + 180 y_98_ + [ 1 x_98_ ^ 2 + 1 y_98_ ^ 2 ] <= 23394.60094716896
c296: -180 x_99_ + 180 y_99_ + [ 1 x_99_ ^ 2 + 1 y_99_ ^ 2 ] <= 29554.67584959868
c297: -180 x_100_ + 180 y_100_ + [ 1 x_100_ ^ 2 + 1 y_100_ ^ 2 ] <= 3566.791755123948
quadratic_ranged_1_ub: [ 1 x_1_ ^ 2 - 2 x_2_ * x_1_ + 1 x_2_ ^ 2 + 1 y_1_ ^ 2 - 2 y_2_ * y_1_ + 1 y_2_ ^ 2 ] <= 4222.81
quadratic_ranged_2_ub: [ 1 x_2_ ^ 2 - 2 x_3_ * x_2_ + 1 x_3_ ^ 2 + 1 y_2_ ^ 2 - 2 y_3_ * y_2_ + 1 y_3_ ^ 2 ] <= 5119.69
quadratic_ranged_3_ub: [ 1 x_3_ ^ 2 - 2 x_4_ * x_3_ + 1 x_4_ ^ 2 + 1 y_3_ ^ 2 - 2 y_4_ * y_3_ + 1 y_4_ ^ 2 ] <= 9334.42
quadratic_ranged_4_ub: [ 1 x_2_ ^ 2 - 2 x_5_ * x_2_ + 1 x_5_ ^ 2 + 1 y_2_ ^ 2 - 2 y_5_ * y_2_ + 1 y_5_ ^ 2 ] <= 23372.41
quadratic_ranged_5_ub: [ 1 x_4_ ^ 2 - 2 x_5_ * x_4_ + 1 x_5_ ^ 2 + 1 y_4_ ^ 2 - 2 y_5_ * y_4_ + 1 y_5_ ^ 2 ] <= 22769.44
quadratic_ranged_6_ub: [ 1 x_5_ ^ 2 - 2 x_6_ * x_5_ + 1 x_6_ ^ 2 + 1 y_5_ ^ 2 - 2 y_6_ * y_5_ + 1 y_6_ ^ 2 ] <= 31714
quadratic_ranged_7_ub: [ 1 x_3_ ^ 2 - 2 x_7_ * x_3_ + 1 x_7_ ^ 2 + 1 y_3_ ^ 2 - 2 y_7_ * y_3_ + 1 y_7_ ^ 2 ] <= 17479.06
quadratic_ranged_8_ub: [ 1 x_6_ ^ 2 - 2 x_7_ * x_6_ + 1 x_7_ ^ 2 + 1 y_6_ ^ 2 - 2 y_7_ * y_6_ + 1 y_7_ ^ 2 ] <= 8960.72
quadratic_ranged_9_ub: [ 1 x_7_ ^ 2 - 2 x_8_ * x_7_ + 1 x_8_ ^ 2 + 1 y_7_ ^ 2 - 2 y_8_ * y_7_ + 1 y_8_ ^ 2 ] <= 14136.97
quadratic_ranged_10_ub: [ 1 x_8_ ^ 2 - 2 x_9_ * x_8_ + 1 x_9_ ^ 2 + 1 y_8_ ^ 2 - 2 y_9_ * y_8_ + 1 y_9_ ^ 2 ] <= 2740.13
quadratic_ranged_11_ub: [ 1 x_1_ ^ 2 - 2 x_10_ * x_1_ + 1 x_10_ ^ 2 + 1 y_1_ ^ 2 - 2 y_10_ * y_1_ + 1 y_10_ ^ 2 ] <= 4282.4
quadratic_ranged_12_ub: [ 1 x_9_ ^ 2 - 2 x_10_ * x_9_ + 1 x_10_ ^ 2 + 1 y_9_ ^ 2 - 2 y_10_ * y_9_ + 1 y_10_ ^ 2 ] <= 43587.56
quadratic_ranged_13_ub: [ 1 x_8_ ^ 2 - 2 x_11_ * x_8_ + 1 x_11_ ^ 2 + 1 y_8_ ^ 2 - 2 y_11_ * y_8_ + 1 y_11_ ^ 2 ] <= 13869.32
quadratic_ranged_14_ub: [ 1 x_10_ ^ 2 - 2 x_11_ * x_10_ + 1 x_11_ ^ 2 + 1 y_10_ ^ 2 - 2 y_11_ * y_10_ + 1 y_11_ ^ 2 ] <= 7660.85
quadratic_ranged_15_ub: [ 1 x_11_ ^ 2 - 2 x_12_ * x_11_ + 1 x_12_ ^ 2 + 1 y_11_ ^ 2 - 2 y_12_ * y_11_ + 1 y_12_ ^ 2 ] <= 1681.65
quadratic_ranged_16_ub: [ 1 x_6_ ^ 2 - 2 x_13_ * x_6_ + 1 x_13_ ^ 2 + 1 y_6_ ^ 2 - 2 y_13_ * y_6_ + 1 y_13_ ^ 2 ] <= 29049.62
quadratic_ranged_17_ub: [ 1 x_8_ ^ 2 - 2 x_13_ * x_8_ + 1 x_13_ ^ 2 + 1 y_8_ ^ 2 - 2 y_13_ * y_8_ + 1 y_13_ ^ 2 ] <= 8581.97
quadratic_ranged_18_ub: [ 1 x_12_ ^ 2 - 2 x_13_ * x_12_ + 1 x_13_ ^ 2 + 1 y_12_ ^ 2 - 2 y_13_ * y_12_ + 1 y_13_ ^ 2 ] <= 35715.62
quadratic_ranged_19_ub: [ 1 x_13_ ^ 2 - 2 x_14_ * x_13_ + 1 x_14_ ^ 2 + 1 y_13_ ^ 2 - 2 y_14_ * y_13_ + 1 y_14_ ^ 2 ] <= 308.05
quadratic_ranged_20_ub: [ 1 x_11_ ^ 2 - 2 x_15_ * x_11_ + 1 x_15_ ^ 2 + 1 y_11_ ^ 2 - 2 y_15_ * y_11_ + 1 y_15_ ^ 2 ] <= 26247.88
quadratic_ranged_21_ub: [ 1 x_14_ ^ 2 - 2 x_15_ * x_14_ + 1 x_15_ ^ 2 + 1 y_14_ ^ 2 - 2 y_15_ * y_14_ + 1 y_15_ ^ 2 ] <= 181.8
quadratic_ranged_22_ub: [ 1 x_1_ ^ 2 - 2 x_16_ * x_1_ + 1 x_16_ ^ 2 + 1 y_1_ ^ 2 - 2 y_16_ * y_1_ + 1 y_16_ ^ 2 ] <= 18471.89
quadratic_ranged_23_ub: [ 1 x_13_ ^ 2 - 2 x_16_ * x_13_ + 1 x_16_ ^ 2 + 1 y_13_ ^ 2 - 2 y_16_ * y_13_ + 1 y_16_ ^ 2 ] <= 19841.45
quadratic_ranged_24_ub: [ 1 x_15_ ^ 2 - 2 x_16_ * x_15_ + 1 x_16_ ^ 2 + 1 y_15_ ^ 2 - 2 y_16_ * y_15_ + 1 y_16_ ^ 2 ] <= 22593.7
quadratic_ranged_25_ub: [ 1 x_15_ ^ 2 - 2 x_17_ * x_15_ + 1 x_17_ ^ 2 + 1 y_15_ ^ 2 - 2 y_17_ * y_15_ + 1 y_17_ ^ 2 ] <= 38506.25
quadratic_ranged_26_ub: [ 1 x_16_ ^ 2 - 2 x_17_ * x_16_ + 1 x_17_ ^ 2 + 1 y_16_ ^ 2 - 2 y_17_ * y_16_ + 1 y_17_ ^ 2 ] <= 7285.13
quadratic_ranged_27_ub: [ 1 x_9_ ^ 2 - 2 x_18_ * x_9_ + 1 x_18_ ^ 2 + 1 y_9_ ^ 2 - 2 y_18_ * y_9_ + 1 y_18_ ^ 2 ] <= 36352.93
quadratic_ranged_28_ub: [ 1 x_17_ ^ 2 - 2 x_18_ * x_17_ + 1 x_18_ ^ 2 + 1 y_17_ ^ 2 - 2 y_18_ * y_17_ + 1 y_18_ ^ 2 ] <= 31517.05
quadratic_ranged_29_ub: [ 1 x_18_ ^ 2 - 2 x_19_ * x_18_ + 1 x_19_ ^ 2 + 1 y_18_ ^ 2 - 2 y_19_ * y_18_ + 1 y_19_ ^ 2 ] <= 20824.18
quadratic_ranged_30_ub: [ 1 x_19_ ^ 2 - 2 x_20_ * x_19_ + 1 x_20_ ^ 2 + 1 y_19_ ^ 2 - 2 y_20_ * y_19_ + 1 y_20_ ^ 2 ] <= 15450.98
quadratic_ranged_31_ub: [ 1 x_6_ ^ 2 - 2 x_21_ * x_6_ + 1 x_21_ ^ 2 + 1 y_6_ ^ 2 - 2 y_21_ * y_6_ + 1 y_21_ ^ 2 ] <= 1785.68
quadratic_ranged_32_ub: [ 1 x_9_ ^ 2 - 2 x_21_ * x_9_ + 1 x_21_ ^ 2 + 1 y_9_ ^ 2 - 2 y_21_ * y_9_ + 1 y_21_ ^ 2 ] <= 42634.12
quadratic_ranged_33_ub: [ 1 x_11_ ^ 2 - 2 x_21_ * x_11_ + 1 x_21_ ^ 2 + 1 y_11_ ^ 2 - 2 y_21_ * y_11_ + 1 y_21_ ^ 2 ] <= 3176.45
quadratic_ranged_34_ub: [ 1 x_20_ ^ 2 - 2 x_21_ * x_20_ + 1 x_21_ ^ 2 + 1 y_20_ ^ 2 - 2 y_21_ * y_20_ + 1 y_21_ ^ 2 ] <= 37419.49
quadratic_ranged_35_ub: [ 1 x_1_ ^ 2 - 2 x_22_ * x_1_ + 1 x_22_ ^ 2 + 1 y_1_ ^ 2 - 2 y_22_ * y_1_ + 1 y_22_ ^ 2 ] <= 3330.98
quadratic_ranged_36_ub: [ 1 x_11_ ^ 2 - 2 x_22_ * x_11_ + 1 x_22_ ^ 2 + 1 y_11_ ^ 2 - 2 y_22_ * y_11_ + 1 y_22_ ^ 2 ] <= 9103.13
quadratic_ranged_37_ub: [ 1 x_13_ ^ 2 - 2 x_22_ * x_13_ + 1 x_22_ ^ 2 + 1 y_13_ ^ 2 - 2 y_22_ * y_13_ + 1 y_22_ ^ 2 ] <= 15857
quadratic_ranged_38_ub: [ 1 x_21_ ^ 2 - 2 x_22_ * x_21_ + 1 x_22_ ^ 2 + 1 y_21_ ^ 2 - 2 y_22_ * y_21_ + 1 y_22_ ^ 2 ] <= 6070.1
quadratic_ranged_39_ub: [ 1 x_3_ ^ 2 - 2 x_23_ * x_3_ + 1 x_23_ ^ 2 + 1 y_3_ ^ 2 - 2 y_23_ * y_3_ + 1 y_23_ ^ 2 ] <= 29816.21
quadratic_ranged_40_ub: [ 1 x_17_ ^ 2 - 2 x_23_ * x_17_ + 1 x_23_ ^ 2 + 1 y_17_ ^ 2 - 2 y_23_ * y_17_ + 1 y_23_ ^ 2 ] <= 22734.09
quadratic_ranged_41_ub: [ 1 x_22_ ^ 2 - 2 x_23_ * x_22_ + 1 x_23_ ^ 2 + 1 y_22_ ^ 2 - 2 y_23_ * y_22_ + 1 y_23_ ^ 2 ] <= 37960.85
quadratic_ranged_42_ub: [ 1 x_12_ ^ 2 - 2 x_24_ * x_12_ + 1 x_24_ ^ 2 + 1 y_12_ ^ 2 - 2 y_24_ * y_12_ + 1 y_24_ ^ 2 ] <= 16003.45
quadratic_ranged_43_ub: [ 1 x_20_ ^ 2 - 2 x_24_ * x_20_ + 1 x_24_ ^ 2 + 1 y_20_ ^ 2 - 2 y_24_ * y_20_ + 1 y_24_ ^ 2 ] <= 25163.14
quadratic_ranged_44_ub: [ 1 x_23_ ^ 2 - 2 x_24_ * x_23_ + 1 x_24_ ^ 2 + 1 y_23_ ^ 2 - 2 y_24_ * y_23_ + 1 y_24_ ^ 2 ] <= 32223.04
quadratic_ranged_45_ub: [ 1 x_1_ ^ 2 - 2 x_25_ * x_1_ + 1 x_25_ ^ 2 + 1 y_1_ ^ 2 - 2 y_25_ * y_1_ + 1 y_25_ ^ 2 ] <= 7760.84
quadratic_ranged_46_ub: [ 1 x_24_ ^ 2 - 2 x_25_ * x_24_ + 1 x_25_ ^ 2 + 1 y_24_ ^ 2 - 2 y_25_ * y_24_ + 1 y_25_ ^ 2 ] <= 10751.45
quadratic_ranged_47_ub: [ 1 x_1_ ^ 2 - 2 x_26_ * x_1_ + 1 x_26_ ^ 2 + 1 y_1_ ^ 2 - 2 y_26_ * y_1_ + 1 y_26_ ^ 2 ] <= 616.1
quadratic_ranged_48_ub: [ 1 x_25_ ^ 2 - 2 x_26_ * x_25_ + 1 x_26_ ^ 2 + 1 y_25_ ^ 2 - 2 y_26_ * y_25_ + 1 y_26_ ^ 2 ] <= 7936.58
quadratic_ranged_49_ub: [ 1 x_26_ ^ 2 - 2 x_27_ * x_26_ + 1 x_27_ ^ 2 + 1 y_26_ ^ 2 - 2 y_27_ * y_26_ + 1 y_27_ ^ 2 ] <= 19135.46
quadratic_ranged_50_ub: [ 1 x_9_ ^ 2 - 2 x_28_ * x_9_ + 1 x_28_ ^ 2 + 1 y_9_ ^ 2 - 2 y_28_ * y_9_ + 1 y_28_ ^ 2 ] <= 20402
quadratic_ranged_51_ub: [ 1 x_27_ ^ 2 - 2 x_28_ * x_27_ + 1 x_28_ ^ 2 + 1 y_27_ ^ 2 - 2 y_28_ * y_27_ + 1 y_28_ ^ 2 ] <= 8669.84
quadratic_ranged_52_ub: [ 1 x_17_ ^ 2 - 2 x_29_ * x_17_ + 1 x_29_ ^ 2 + 1 y_17_ ^ 2 - 2 y_29_ * y_17_ + 1 y_29_ ^ 2 ] <= 20851.45
quadratic_ranged_53_ub: [ 1 x_27_ ^ 2 - 2 x_29_ * x_27_ + 1 x_29_ ^ 2 + 1 y_27_ ^ 2 - 2 y_29_ * y_27_ + 1 y_29_ ^ 2 ] <= 590.85
quadratic_ranged_54_ub: [ 1 x_28_ ^ 2 - 2 x_29_ * x_28_ + 1 x_29_ ^ 2 + 1 y_28_ ^ 2 - 2 y_29_ * y_28_ + 1 y_29_ ^ 2 ] <= 11357.45
quadratic_ranged_55_ub: [ 1 x_7_ ^ 2 - 2 x_30_ * x_7_ + 1 x_30_ ^ 2 + 1 y_7_ ^ 2 - 2 y_30_ * y_7_ + 1 y_30_ ^ 2 ] <= 12657.32
quadratic_ranged_56_ub: [ 1 x_15_ ^ 2 - 2 x_30_ * x_15_ + 1 x_30_ ^ 2 + 1 y_15_ ^ 2 - 2 y_30_ * y_15_ + 1 y_30_ ^ 2 ] <= 19429.37
quadratic_ranged_57_ub: [ 1 x_23_ ^ 2 - 2 x_30_ * x_23_ + 1 x_30_ ^ 2 + 1 y_23_ ^ 2 - 2 y_30_ * y_23_ + 1 y_30_ ^ 2 ] <= 4598.53
quadratic_ranged_58_ub: [ 1 x_24_ ^ 2 - 2 x_30_ * x_24_ + 1 x_30_ ^ 2 + 1 y_24_ ^ 2 - 2 y_30_ * y_24_ + 1 y_30_ ^ 2 ] <= 25679.25
quadratic_ranged_59_ub: [ 1 x_29_ ^ 2 - 2 x_30_ * x_29_ + 1 x_30_ ^ 2 + 1 y_29_ ^ 2 - 2 y_30_ * y_29_ + 1 y_30_ ^ 2 ] <= 4000.61
quadratic_ranged_60_ub: [ 1 x_11_ ^ 2 - 2 x_31_ * x_11_ + 1 x_31_ ^ 2 + 1 y_11_ ^ 2 - 2 y_31_ * y_11_ + 1 y_31_ ^ 2 ] <= 7506.32
quadratic_ranged_61_ub: [ 1 x_18_ ^ 2 - 2 x_31_ * x_18_ + 1 x_31_ ^ 2 + 1 y_18_ ^ 2 - 2 y_31_ * y_18_ + 1 y_31_ ^ 2 ] <= 6651.86
quadratic_ranged_62_ub: [ 1 x_27_ ^ 2 - 2 x_31_ * x_27_ + 1 x_31_ ^ 2 + 1 y_27_ ^ 2 - 2 y_31_ * y_27_ + 1 y_31_ ^ 2 ] <= 41443.33
quadratic_ranged_63_ub: [ 1 x_30_ ^ 2 - 2 x_31_ * x_30_ + 1 x_31_ ^ 2 + 1 y_30_ ^ 2 - 2 y_31_ * y_30_ + 1 y_31_ ^ 2 ] <= 35803.49
quadratic_ranged_64_ub: [ 1 x_9_ ^ 2 - 2 x_32_ * x_9_ + 1 x_32_ ^ 2 + 1 y_9_ ^ 2 - 2 y_32_ * y_9_ + 1 y_32_ ^ 2 ] <= 7225.54
quadratic_ranged_65_ub: [ 1 x_14_ ^ 2 - 2 x_32_ * x_14_ + 1 x_32_ ^ 2 + 1 y_14_ ^ 2 - 2 y_32_ * y_14_ + 1 y_32_ ^ 2 ] <= 2913.85
quadratic_ranged_66_ub: [ 1 x_18_ ^ 2 - 2 x_32_ * x_18_ + 1 x_32_ ^ 2 + 1 y_18_ ^ 2 - 2 y_32_ * y_18_ + 1 y_32_ ^ 2 ] <= 16754.89
quadratic_ranged_67_ub: [ 1 x_31_ ^ 2 - 2 x_32_ * x_31_ + 1 x_32_ ^ 2 + 1 y_31_ ^ 2 - 2 y_32_ * y_31_ + 1 y_32_ ^ 2 ] <= 35480.29
quadratic_ranged_68_ub: [ 1 x_13_ ^ 2 - 2 x_33_ * x_13_ + 1 x_33_ ^ 2 + 1 y_13_ ^ 2 - 2 y_33_ * y_13_ + 1 y_33_ ^ 2 ] <= 9519.25
quadratic_ranged_69_ub: [ 1 x_26_ ^ 2 - 2 x_33_ * x_26_ + 1 x_33_ ^ 2 + 1 y_26_ ^ 2 - 2 y_33_ * y_26_ + 1 y_33_ ^ 2 ] <= 962.53
quadratic_ranged_70_ub: [ 1 x_32_ ^ 2 - 2 x_33_ * x_32_ + 1 x_33_ ^ 2 + 1 y_32_ ^ 2 - 2 y_33_ * y_32_ + 1 y_33_ ^ 2 ] <= 19077.89
quadratic_ranged_71_ub: [ 1 x_23_ ^ 2 - 2 x_34_ * x_23_ + 1 x_34_ ^ 2 + 1 y_23_ ^ 2 - 2 y_34_ * y_23_ + 1 y_34_ ^ 2 ] <= 16435.73
quadratic_ranged_72_ub: [ 1 x_33_ ^ 2 - 2 x_34_ * x_33_ + 1 x_34_ ^ 2 + 1 y_33_ ^ 2 - 2 y_34_ * y_33_ + 1 y_34_ ^ 2 ] <= 26810.45
quadratic_ranged_73_ub: [ 1 x_3_ ^ 2 - 2 x_35_ * x_3_ + 1 x_35_ ^ 2 + 1 y_3_ ^ 2 - 2 y_35_ * y_3_ + 1 y_35_ ^ 2 ] <= 934.25
quadratic_ranged_74_ub: [ 1 x_21_ ^ 2 - 2 x_35_ * x_21_ + 1 x_35_ ^ 2 + 1 y_21_ ^ 2 - 2 y_35_ * y_21_ + 1 y_35_ ^ 2 ] <= 9216.25
quadratic_ranged_75_ub: [ 1 x_25_ ^ 2 - 2 x_35_ * x_25_ + 1 x_35_ ^ 2 + 1 y_25_ ^ 2 - 2 y_35_ * y_25_ + 1 y_35_ ^ 2 ] <= 7353.81
quadratic_ranged_76_ub: [ 1 x_27_ ^ 2 - 2 x_35_ * x_27_ + 1 x_35_ ^ 2 + 1 y_27_ ^ 2 - 2 y_35_ * y_27_ + 1 y_35_ ^ 2 ] <= 19033.45
quadratic_ranged_77_ub: [ 1 x_34_ ^ 2 - 2 x_35_ * x_34_ + 1 x_35_ ^ 2 + 1 y_34_ ^ 2 - 2 y_35_ * y_34_ + 1 y_35_ ^ 2 ] <= 18427.45
quadratic_ranged_78_ub: [ 1 x_16_ ^ 2 - 2 x_36_ * x_16_ + 1 x_36_ ^ 2 + 1 y_16_ ^ 2 - 2 y_36_ * y_16_ + 1 y_36_ ^ 2 ] <= 8033.54
quadratic_ranged_79_ub: [ 1 x_35_ ^ 2 - 2 x_36_ * x_35_ + 1 x_36_ ^ 2 + 1 y_35_ ^ 2 - 2 y_36_ * y_35_ + 1 y_36_ ^ 2 ] <= 10473.7
quadratic_ranged_80_ub: [ 1 x_8_ ^ 2 - 2 x_37_ * x_8_ + 1 x_37_ ^ 2 + 1 y_8_ ^ 2 - 2 y_37_ * y_8_ + 1 y_37_ ^ 2 ] <= 6581.16
quadratic_ranged_81_ub: [ 1 x_12_ ^ 2 - 2 x_37_ * x_12_ + 1 x_37_ ^ 2 + 1 y_12_ ^ 2 - 2 y_37_ * y_12_ + 1 y_37_ ^ 2 ] <= 37754.81
quadratic_ranged_82_ub: [ 1 x_26_ ^ 2 - 2 x_37_ * x_26_ + 1 x_37_ ^ 2 + 1 y_26_ ^ 2 - 2 y_37_ * y_26_ + 1 y_37_ ^ 2 ] <= 12589.65
quadratic_ranged_83_ub: [ 1 x_36_ ^ 2 - 2 x_37_ * x_36_ + 1 x_37_ ^ 2 + 1 y_36_ ^ 2 - 2 y_37_ * y_36_ + 1 y_37_ ^ 2 ] <= 1749.32
quadratic_ranged_84_ub: [ 1 x_7_ ^ 2 - 2 x_38_ * x_7_ + 1 x_38_ ^ 2 + 1 y_7_ ^ 2 - 2 y_38_ * y_7_ + 1 y_38_ ^ 2 ] <= 23361.3
quadratic_ranged_85_ub: [ 1 x_17_ ^ 2 - 2 x_38_ * x_17_ + 1 x_38_ ^ 2 + 1 y_17_ ^ 2 - 2 y_38_ * y_17_ + 1 y_38_ ^ 2 ] <= 33309.8
quadratic_ranged_86_ub: [ 1 x_37_ ^ 2 - 2 x_38_ * x_37_ + 1 x_38_ ^ 2 + 1 y_37_ ^ 2 - 2 y_38_ * y_37_ + 1 y_38_ ^ 2 ] <= 889.8100000000001
quadratic_ranged_87_ub: [ 1 x_5_ ^ 2 - 2 x_39_ * x_5_ + 1 x_39_ ^ 2 + 1 y_5_ ^ 2 - 2 y_39_ * y_5_ + 1 y_39_ ^ 2 ] <= 12081.62
quadratic_ranged_88_ub: [ 1 x_29_ ^ 2 - 2 x_39_ * x_29_ + 1 x_39_ ^ 2 + 1 y_29_ ^ 2 - 2 y_39_ * y_29_ + 1 y_39_ ^ 2 ] <= 23647.13
quadratic_ranged_89_ub: [ 1 x_30_ ^ 2 - 2 x_39_ * x_30_ + 1 x_39_ ^ 2 + 1 y_30_ ^ 2 - 2 y_39_ * y_30_ + 1 y_39_ ^ 2 ] <= 9027.38
quadratic_ranged_90_ub: [ 1 x_32_ ^ 2 - 2 x_39_ * x_32_ + 1 x_39_ ^ 2 + 1 y_32_ ^ 2 - 2 y_39_ * y_32_ + 1 y_39_ ^ 2 ] <= 25888.32
quadratic_ranged_91_ub: [ 1 x_38_ ^ 2 - 2 x_39_ * x_38_ + 1 x_39_ ^ 2 + 1 y_38_ ^ 2 - 2 y_39_ * y_38_ + 1 y_39_ ^ 2 ] <= 33887.52
quadratic_ranged_92_ub: [ 1 x_3_ ^ 2 - 2 x_40_ * x_3_ + 1 x_40_ ^ 2 + 1 y_3_ ^ 2 - 2 y_40_ * y_3_ + 1 y_40_ ^ 2 ] <= 994.85
quadratic_ranged_93_ub: [ 1 x_5_ ^ 2 - 2 x_40_ * x_5_ + 1 x_40_ ^ 2 + 1 y_5_ ^ 2 - 2 y_40_ * y_5_ + 1 y_40_ ^ 2 ] <= 18791.05
quadratic_ranged_94_ub: [ 1 x_6_ ^ 2 - 2 x_40_ * x_6_ + 1 x_40_ ^ 2 + 1 y_6_ ^ 2 - 2 y_40_ * y_6_ + 1 y_40_ ^ 2 ] <= 4792.45
quadratic_ranged_95_ub: [ 1 x_8_ ^ 2 - 2 x_40_ * x_8_ + 1 x_40_ ^ 2 + 1 y_8_ ^ 2 - 2 y_40_ * y_8_ + 1 y_40_ ^ 2 ] <= 19038.5
quadratic_ranged_96_ub: [ 1 x_15_ ^ 2 - 2 x_40_ * x_15_ + 1 x_40_ ^ 2 + 1 y_15_ ^ 2 - 2 y_40_ * y_15_ + 1 y_40_ ^ 2 ] <= 12170.5
quadratic_ranged_97_ub: [ 1 x_27_ ^ 2 - 2 x_40_ * x_27_ + 1 x_40_ ^ 2 + 1 y_27_ ^ 2 - 2 y_40_ * y_27_ + 1 y_40_ ^ 2 ] <= 22750.25
quadratic_ranged_98_ub: [ 1 x_39_ ^ 2 - 2 x_40_ * x_39_ + 1 x_40_ ^ 2 + 1 y_39_ ^ 2 - 2 y_40_ * y_39_ + 1 y_40_ ^ 2 ] <= 24887.41
quadratic_ranged_99_ub: [ 1 x_6_ ^ 2 - 2 x_41_ * x_6_ + 1 x_41_ ^ 2 + 1 y_6_ ^ 2 - 2 y_41_ * y_6_ + 1 y_41_ ^ 2 ] <= 33682.49
quadratic_ranged_100_ub: [ 1 x_16_ ^ 2 - 2 x_41_ * x_16_ + 1 x_41_ ^ 2 + 1 y_16_ ^ 2 - 2 y_41_ * y_16_ + 1 y_41_ ^ 2 ] <= 11136.26
quadratic_ranged_101_ub: [ 1 x_18_ ^ 2 - 2 x_41_ * x_18_ + 1 x_41_ ^ 2 + 1 y_18_ ^ 2 - 2 y_41_ * y_18_ + 1 y_41_ ^ 2 ] <= 41945.3
quadratic_ranged_102_ub: [ 1 x_36_ ^ 2 - 2 x_41_ * x_36_ + 1 x_41_ ^ 2 + 1 y_36_ ^ 2 - 2 y_41_ * y_36_ + 1 y_41_ ^ 2 ] <= 28869.84
quadratic_ranged_103_ub: [ 1 x_40_ ^ 2 - 2 x_41_ * x_40_ + 1 x_41_ ^ 2 + 1 y_40_ ^ 2 - 2 y_41_ * y_40_ + 1 y_41_ ^ 2 ] <= 36491.3
quadratic_ranged_104_ub: [ 1 x_5_ ^ 2 - 2 x_42_ * x_5_ + 1 x_42_ ^ 2 + 1 y_5_ ^ 2 - 2 y_42_ * y_5_ + 1 y_42_ ^ 2 ] <= 1367.54
quadratic_ranged_105_ub: [ 1 x_15_ ^ 2 - 2 x_42_ * x_15_ + 1 x_42_ ^ 2 + 1 y_15_ ^ 2 - 2 y_42_ * y_15_ + 1 y_42_ ^ 2 ] <= 5317.65
quadratic_ranged_106_ub: [ 1 x_28_ ^ 2 - 2 x_42_ * x_28_ + 1 x_42_ ^ 2 + 1 y_28_ ^ 2 - 2 y_42_ * y_28_ + 1 y_42_ ^ 2 ] <= 4979.3
quadratic_ranged_107_ub: [ 1 x_32_ ^ 2 - 2 x_42_ * x_32_ + 1 x_42_ ^ 2 + 1 y_32_ ^ 2 - 2 y_42_ * y_32_ + 1 y_42_ ^ 2 ] <= 408.04
quadratic_ranged_108_ub: [ 1 x_34_ ^ 2 - 2 x_42_ * x_34_ + 1 x_42_ ^ 2 + 1 y_34_ ^ 2 - 2 y_42_ * y_34_ + 1 y_42_ ^ 2 ] <= 11685.7
quadratic_ranged_109_ub: [ 1 x_41_ ^ 2 - 2 x_42_ * x_41_ + 1 x_42_ ^ 2 + 1 y_41_ ^ 2 - 2 y_42_ * y_41_ + 1 y_42_ ^ 2 ] <= 26390.29
quadratic_ranged_110_ub: [ 1 x_6_ ^ 2 - 2 x_43_ * x_6_ + 1 x_43_ ^ 2 + 1 y_6_ ^ 2 - 2 y_43_ * y_6_ + 1 y_43_ ^ 2 ] <= 17123.54
quadratic_ranged_111_ub: [ 1 x_9_ ^ 2 - 2 x_43_ * x_9_ + 1 x_43_ ^ 2 + 1 y_9_ ^ 2 - 2 y_43_ * y_9_ + 1 y_43_ ^ 2 ] <= 9342.5
quadratic_ranged_112_ub: [ 1 x_16_ ^ 2 - 2 x_43_ * x_16_ + 1 x_43_ ^ 2 + 1 y_16_ ^ 2 - 2 y_43_ * y_16_ + 1 y_43_ ^ 2 ] <= 6004.45
quadratic_ranged_113_ub: [ 1 x_21_ ^ 2 - 2 x_43_ * x_21_ + 1 x_43_ ^ 2 + 1 y_21_ ^ 2 - 2 y_43_ * y_21_ + 1 y_43_ ^ 2 ] <= 13649.14
quadratic_ranged_114_ub: [ 1 x_25_ ^ 2 - 2 x_43_ * x_25_ + 1 x_43_ ^ 2 + 1 y_25_ ^ 2 - 2 y_43_ * y_25_ + 1 y_43_ ^ 2 ] <= 16856.9
quadratic_ranged_115_ub: [ 1 x_27_ ^ 2 - 2 x_43_ * x_27_ + 1 x_43_ ^ 2 + 1 y_27_ ^ 2 - 2 y_43_ * y_27_ + 1 y_43_ ^ 2 ] <= 7831.54
quadratic_ranged_116_ub: [ 1 x_42_ ^ 2 - 2 x_43_ * x_42_ + 1 x_43_ ^ 2 + 1 y_42_ ^ 2 - 2 y_43_ * y_42_ + 1 y_43_ ^ 2 ] <= 3312.8
quadratic_ranged_117_ub: [ 1 x_21_ ^ 2 - 2 x_44_ * x_21_ + 1 x_44_ ^ 2 + 1 y_21_ ^ 2 - 2 y_44_ * y_21_ + 1 y_44_ ^ 2 ] <= 29388.98
quadratic_ranged_118_ub: [ 1 x_27_ ^ 2 - 2 x_44_ * x_27_ + 1 x_44_ ^ 2 + 1 y_27_ ^ 2 - 2 y_44_ * y_27_ + 1 y_44_ ^ 2 ] <= 10481.78
quadratic_ranged_119_ub: [ 1 x_28_ ^ 2 - 2 x_44_ * x_28_ + 1 x_44_ ^ 2 + 1 y_28_ ^ 2 - 2 y_44_ * y_28_ + 1 y_44_ ^ 2 ] <= 18715.3
quadratic_ranged_120_ub: [ 1 x_43_ ^ 2 - 2 x_44_ * x_43_ + 1 x_44_ ^ 2 + 1 y_43_ ^ 2 - 2 y_44_ * y_43_ + 1 y_44_ ^ 2 ] <= 5837.8
quadratic_ranged_121_ub: [ 1 x_1_ ^ 2 - 2 x_45_ * x_1_ + 1 x_45_ ^ 2 + 1 y_1_ ^ 2 - 2 y_45_ * y_1_ + 1 y_45_ ^ 2 ] <= 7191.2
quadratic_ranged_122_ub: [ 1 x_7_ ^ 2 - 2 x_45_ * x_7_ + 1 x_45_ ^ 2 + 1 y_7_ ^ 2 - 2 y_45_ * y_7_ + 1 y_45_ ^ 2 ] <= 8564.8
quadratic_ranged_123_ub: [ 1 x_17_ ^ 2 - 2 x_45_ * x_17_ + 1 x_45_ ^ 2 + 1 y_17_ ^ 2 - 2 y_45_ * y_17_ + 1 y_45_ ^ 2 ] <= 26189.3
quadratic_ranged_124_ub: [ 1 x_26_ ^ 2 - 2 x_45_ * x_26_ + 1 x_45_ ^ 2 + 1 y_26_ ^ 2 - 2 y_45_ * y_26_ + 1 y_45_ ^ 2 ] <= 4454.1
quadratic_ranged_125_ub: [ 1 x_27_ ^ 2 - 2 x_45_ * x_27_ + 1 x_45_ ^ 2 + 1 y_27_ ^ 2 - 2 y_45_ * y_27_ + 1 y_45_ ^ 2 ] <= 39369.8
quadratic_ranged_126_ub: [ 1 x_44_ ^ 2 - 2 x_45_ * x_44_ + 1 x_45_ ^ 2 + 1 y_44_ ^ 2 - 2 y_45_ * y_44_ + 1 y_45_ ^ 2 ] <= 36628.66
quadratic_ranged_127_ub: [ 1 x_10_ ^ 2 - 2 x_46_ * x_10_ + 1 x_46_ ^ 2 + 1 y_10_ ^ 2 - 2 y_46_ * y_10_ + 1 y_46_ ^ 2 ] <= 1354.41
quadratic_ranged_128_ub: [ 1 x_13_ ^ 2 - 2 x_46_ * x_13_ + 1 x_46_ ^ 2 + 1 y_13_ ^ 2 - 2 y_46_ * y_13_ + 1 y_46_ ^ 2 ] <= 22265.45
quadratic_ranged_129_ub: [ 1 x_17_ ^ 2 - 2 x_46_ * x_17_ + 1 x_46_ ^ 2 + 1 y_17_ ^ 2 - 2 y_46_ * y_17_ + 1 y_46_ ^ 2 ] <= 17368.97
quadratic_ranged_130_ub: [ 1 x_21_ ^ 2 - 2 x_46_ * x_21_ + 1 x_46_ ^ 2 + 1 y_21_ ^ 2 - 2 y_46_ * y_21_ + 1 y_46_ ^ 2 ] <= 1006.97
quadratic_ranged_131_ub: [ 1 x_28_ ^ 2 - 2 x_46_ * x_28_ + 1 x_46_ ^ 2 + 1 y_28_ ^ 2 - 2 y_46_ * y_28_ + 1 y_46_ ^ 2 ] <= 10226.25
quadratic_ranged_132_ub: [ 1 x_33_ ^ 2 - 2 x_46_ * x_33_ + 1 x_46_ ^ 2 + 1 y_33_ ^ 2 - 2 y_46_ * y_33_ + 1 y_46_ ^ 2 ] <= 6764.9800000000005
quadratic_ranged_133_ub: [ 1 x_45_ ^ 2 - 2 x_46_ * x_45_ + 1 x_46_ ^ 2 + 1 y_45_ ^ 2 - 2 y_46_ * y_45_ + 1 y_46_ ^ 2 ] <= 918.09
quadratic_ranged_134_ub: [ 1 x_16_ ^ 2 - 2 x_47_ * x_16_ + 1 x_47_ ^ 2 + 1 y_16_ ^ 2 - 2 y_47_ * y_16_ + 1 y_47_ ^ 2 ] <= 8930.42
quadratic_ranged_135_ub: [ 1 x_19_ ^ 2 - 2 x_47_ * x_19_ + 1 x_47_ ^ 2 + 1 y_19_ ^ 2 - 2 y_47_ * y_19_ + 1 y_47_ ^ 2 ] <= 22729.04
quadratic_ranged_136_ub: [ 1 x_27_ ^ 2 - 2 x_47_ * x_27_ + 1 x_47_ ^ 2 + 1 y_27_ ^ 2 - 2 y_47_ * y_27_ + 1 y_47_ ^ 2 ] <= 53.53
quadratic_ranged_137_ub: [ 1 x_42_ ^ 2 - 2 x_47_ * x_42_ + 1 x_47_ ^ 2 + 1 y_42_ ^ 2 - 2 y_47_ * y_42_ + 1 y_47_ ^ 2 ] <= 1479.65
quadratic_ranged_138_ub: [ 1 x_43_ ^ 2 - 2 x_47_ * x_43_ + 1 x_47_ ^ 2 + 1 y_43_ ^ 2 - 2 y_47_ * y_43_ + 1 y_47_ ^ 2 ] <= 9179.89
quadratic_ranged_139_ub: [ 1 x_46_ ^ 2 - 2 x_47_ * x_46_ + 1 x_47_ ^ 2 + 1 y_46_ ^ 2 - 2 y_47_ * y_46_ + 1 y_47_ ^ 2 ] <= 34279.4
quadratic_ranged_140_ub: [ 1 x_11_ ^ 2 - 2 x_48_ * x_11_ + 1 x_48_ ^ 2 + 1 y_11_ ^ 2 - 2 y_48_ * y_11_ + 1 y_48_ ^ 2 ] <= 10125.25
quadratic_ranged_141_ub: [ 1 x_12_ ^ 2 - 2 x_48_ * x_12_ + 1 x_48_ ^ 2 + 1 y_12_ ^ 2 - 2 y_48_ * y_12_ + 1 y_48_ ^ 2 ] <= 11516.02
quadratic_ranged_142_ub: [ 1 x_18_ ^ 2 - 2 x_48_ * x_18_ + 1 x_48_ ^ 2 + 1 y_18_ ^ 2 - 2 y_48_ * y_18_ + 1 y_48_ ^ 2 ] <= 27529.57
quadratic_ranged_143_ub: [ 1 x_20_ ^ 2 - 2 x_48_ * x_20_ + 1 x_48_ ^ 2 + 1 y_20_ ^ 2 - 2 y_48_ * y_20_ + 1 y_48_ ^ 2 ] <= 6263.01
quadratic_ranged_144_ub: [ 1 x_47_ ^ 2 - 2 x_48_ * x_47_ + 1 x_48_ ^ 2 + 1 y_47_ ^ 2 - 2 y_48_ * y_47_ + 1 y_48_ ^ 2 ] <= 12044.25
quadratic_ranged_145_ub: [ 1 x_3_ ^ 2 - 2 x_49_ * x_3_ + 1 x_49_ ^ 2 + 1 y_3_ ^ 2 - 2 y_49_ * y_3_ + 1 y_49_ ^ 2 ] <= 14806.6
quadratic_ranged_146_ub: [ 1 x_9_ ^ 2 - 2 x_49_ * x_9_ + 1 x_49_ ^ 2 + 1 y_9_ ^ 2 - 2 y_49_ * y_9_ + 1 y_49_ ^ 2 ] <= 11160.5
quadratic_ranged_147_ub: [ 1 x_23_ ^ 2 - 2 x_49_ * x_23_ + 1 x_49_ ^ 2 + 1 y_23_ ^ 2 - 2 y_49_ * y_23_ + 1 y_49_ ^ 2 ] <= 13773.37
quadratic_ranged_148_ub: [ 1 x_33_ ^ 2 - 2 x_49_ * x_33_ + 1 x_49_ ^ 2 + 1 y_33_ ^ 2 - 2 y_49_ * y_33_ + 1 y_49_ ^ 2 ] <= 14827.81
quadratic_ranged_149_ub: [ 1 x_44_ ^ 2 - 2 x_49_ * x_44_ + 1 x_49_ ^ 2 + 1 y_44_ ^ 2 - 2 y_49_ * y_44_ + 1 y_49_ ^ 2 ] <= 5530.76
quadratic_ranged_150_ub: [ 1 x_48_ ^ 2 - 2 x_49_ * x_48_ + 1 x_49_ ^ 2 + 1 y_48_ ^ 2 - 2 y_49_ * y_48_ + 1 y_49_ ^ 2 ] <= 3656.2
quadratic_ranged_151_ub: [ 1 x_1_ ^ 2 - 2 x_50_ * x_1_ + 1 x_50_ ^ 2 + 1 y_1_ ^ 2 - 2 y_50_ * y_1_ + 1 y_50_ ^ 2 ] <= 17179.09
quadratic_ranged_152_ub: [ 1 x_8_ ^ 2 - 2 x_50_ * x_8_ + 1 x_50_ ^ 2 + 1 y_8_ ^ 2 - 2 y_50_ * y_8_ + 1 y_50_ ^ 2 ] <= 2312.9
quadratic_ranged_153_ub: [ 1 x_9_ ^ 2 - 2 x_50_ * x_9_ + 1 x_50_ ^ 2 + 1 y_9_ ^ 2 - 2 y_50_ * y_9_ + 1 y_50_ ^ 2 ] <= 3822.85
quadratic_ranged_154_ub: [ 1 x_43_ ^ 2 - 2 x_50_ * x_43_ + 1 x_50_ ^ 2 + 1 y_43_ ^ 2 - 2 y_50_ * y_43_ + 1 y_50_ ^ 2 ] <= 9252.61
quadratic_ranged_155_ub: [ 1 x_45_ ^ 2 - 2 x_50_ * x_45_ + 1 x_50_ ^ 2 + 1 y_45_ ^ 2 - 2 y_50_ * y_45_ + 1 y_50_ ^ 2 ] <= 45160.13
quadratic_ranged_156_ub: [ 1 x_46_ ^ 2 - 2 x_50_ * x_46_ + 1 x_50_ ^ 2 + 1 y_46_ ^ 2 - 2 y_50_ * y_46_ + 1 y_50_ ^ 2 ] <= 36248.9
quadratic_ranged_157_ub: [ 1 x_47_ ^ 2 - 2 x_50_ * x_47_ + 1 x_50_ ^ 2 + 1 y_47_ ^ 2 - 2 y_50_ * y_47_ + 1 y_50_ ^ 2 ] <= 414.1
quadratic_ranged_158_ub: [ 1 x_49_ ^ 2 - 2 x_50_ * x_49_ + 1 x_50_ ^ 2 + 1 y_49_ ^ 2 - 2 y_50_ * y_49_ + 1 y_50_ ^ 2 ] <= 13902.65
quadratic_ranged_159_ub: [ 1 x_13_ ^ 2 - 2 x_51_ * x_13_ + 1 x_51_ ^ 2 + 1 y_13_ ^ 2 - 2 y_51_ * y_13_ + 1 y_51_ ^ 2 ] <= 598.93
quadratic_ranged_160_ub: [ 1 x_26_ ^ 2 - 2 x_51_ * x_26_ + 1 x_51_ ^ 2 + 1 y_26_ ^ 2 - 2 y_51_ * y_26_ + 1 y_51_ ^ 2 ] <= 9095.05
quadratic_ranged_161_ub: [ 1 x_27_ ^ 2 - 2 x_51_ * x_27_ + 1 x_51_ ^ 2 + 1 y_27_ ^ 2 - 2 y_51_ * y_27_ + 1 y_51_ ^ 2 ] <= 8573.89
quadratic_ranged_162_ub: [ 1 x_42_ ^ 2 - 2 x_51_ * x_42_ + 1 x_51_ ^ 2 + 1 y_42_ ^ 2 - 2 y_51_ * y_42_ + 1 y_51_ ^ 2 ] <= 7794.17
quadratic_ranged_163_ub: [ 1 x_45_ ^ 2 - 2 x_51_ * x_45_ + 1 x_51_ ^ 2 + 1 y_45_ ^ 2 - 2 y_51_ * y_45_ + 1 y_51_ ^ 2 ] <= 26063.05
quadratic_ranged_164_ub: [ 1 x_50_ ^ 2 - 2 x_51_ * x_50_ + 1 x_51_ ^ 2 + 1 y_50_ ^ 2 - 2 y_51_ * y_50_ + 1 y_51_ ^ 2 ] <= 12921.94
quadratic_ranged_165_ub: [ 1 x_8_ ^ 2 - 2 x_52_ * x_8_ + 1 x_52_ ^ 2 + 1 y_8_ ^ 2 - 2 y_52_ * y_8_ + 1 y_52_ ^ 2 ] <= 1313
quadratic_ranged_166_ub: [ 1 x_10_ ^ 2 - 2 x_52_ * x_10_ + 1 x_52_ ^ 2 + 1 y_10_ ^ 2 - 2 y_52_ * y_10_ + 1 y_52_ ^ 2 ] <= 37536.65
quadratic_ranged_167_ub: [ 1 x_15_ ^ 2 - 2 x_52_ * x_15_ + 1 x_52_ ^ 2 + 1 y_15_ ^ 2 - 2 y_52_ * y_15_ + 1 y_52_ ^ 2 ] <= 17763.88
quadratic_ranged_168_ub: [ 1 x_20_ ^ 2 - 2 x_52_ * x_20_ + 1 x_52_ ^ 2 + 1 y_20_ ^ 2 - 2 y_52_ * y_20_ + 1 y_52_ ^ 2 ] <= 1601.8600000000001
quadratic_ranged_169_ub: [ 1 x_23_ ^ 2 - 2 x_52_ * x_23_ + 1 x_52_ ^ 2 + 1 y_23_ ^ 2 - 2 y_52_ * y_23_ + 1 y_52_ ^ 2 ] <= 1874.56
quadratic_ranged_170_ub: [ 1 x_40_ ^ 2 - 2 x_52_ * x_40_ + 1 x_52_ ^ 2 + 1 y_40_ ^ 2 - 2 y_52_ * y_40_ + 1 y_52_ ^ 2 ] <= 29922.260000000002
quadratic_ranged_171_ub: [ 1 x_51_ ^ 2 - 2 x_52_ * x_51_ + 1 x_52_ ^ 2 + 1 y_51_ ^ 2 - 2 y_52_ * y_51_ + 1 y_52_ ^ 2 ] <= 22321
quadratic_ranged_172_ub: [ 1 x_12_ ^ 2 - 2 x_53_ * x_12_ + 1 x_53_ ^ 2 + 1 y_12_ ^ 2 - 2 y_53_ * y_12_ + 1 y_53_ ^ 2 ] <= 4752.05
quadratic_ranged_173_ub: [ 1 x_22_ ^ 2 - 2 x_53_ * x_22_ + 1 x_53_ ^ 2 + 1 y_22_ ^ 2 - 2 y_53_ * y_22_ + 1 y_53_ ^ 2 ] <= 36243.85
quadratic_ranged_174_ub: [ 1 x_25_ ^ 2 - 2 x_53_ * x_25_ + 1 x_53_ ^ 2 + 1 y_25_ ^ 2 - 2 y_53_ * y_25_ + 1 y_53_ ^ 2 ] <= 60108.13
quadratic_ranged_175_ub: [ 1 x_34_ ^ 2 - 2 x_53_ * x_34_ + 1 x_53_ ^ 2 + 1 y_34_ ^ 2 - 2 y_53_ * y_34_ + 1 y_53_ ^ 2 ] <= 2776.4900000000002
quadratic_ranged_176_ub: [ 1 x_41_ ^ 2 - 2 x_53_ * x_41_ + 1 x_53_ ^ 2 + 1 y_41_ ^ 2 - 2 y_53_ * y_41_ + 1 y_53_ ^ 2 ] <= 20.2
quadratic_ranged_177_ub: [ 1 x_42_ ^ 2 - 2 x_53_ * x_42_ + 1 x_53_ ^ 2 + 1 y_42_ ^ 2 - 2 y_53_ * y_42_ + 1 y_53_ ^ 2 ] <= 25287.37
quadratic_ranged_178_ub: [ 1 x_52_ ^ 2 - 2 x_53_ * x_52_ + 1 x_53_ ^ 2 + 1 y_52_ ^ 2 - 2 y_53_ * y_52_ + 1 y_53_ ^ 2 ] <= 17073.04
quadratic_ranged_179_ub: [ 1 x_14_ ^ 2 - 2 x_54_ * x_14_ + 1 x_54_ ^ 2 + 1 y_14_ ^ 2 - 2 y_54_ * y_14_ + 1 y_54_ ^ 2 ] <= 7362.9
quadratic_ranged_180_ub: [ 1 x_19_ ^ 2 - 2 x_54_ * x_19_ + 1 x_54_ ^ 2 + 1 y_19_ ^ 2 - 2 y_54_ * y_19_ + 1 y_54_ ^ 2 ] <= 7217.46
quadratic_ranged_181_ub: [ 1 x_38_ ^ 2 - 2 x_54_ * x_38_ + 1 x_54_ ^ 2 + 1 y_38_ ^ 2 - 2 y_54_ * y_38_ + 1 y_54_ ^ 2 ] <= 4974.25
quadratic_ranged_182_ub: [ 1 x_52_ ^ 2 - 2 x_54_ * x_52_ + 1 x_54_ ^ 2 + 1 y_52_ ^ 2 - 2 y_54_ * y_52_ + 1 y_54_ ^ 2 ] <= 7492.18
quadratic_ranged_183_ub: [ 1 x_53_ ^ 2 - 2 x_54_ * x_53_ + 1 x_54_ ^ 2 + 1 y_53_ ^ 2 - 2 y_54_ * y_53_ + 1 y_54_ ^ 2 ] <= 18860.74
quadratic_ranged_184_ub: [ 1 x_3_ ^ 2 - 2 x_55_ * x_3_ + 1 x_55_ ^ 2 + 1 y_3_ ^ 2 - 2 y_55_ * y_3_ + 1 y_55_ ^ 2 ] <= 6335.7300000000005
quadratic_ranged_185_ub: [ 1 x_25_ ^ 2 - 2 x_55_ * x_25_ + 1 x_55_ ^ 2 + 1 y_25_ ^ 2 - 2 y_55_ * y_25_ + 1 y_55_ ^ 2 ] <= 1697.81
quadratic_ranged_186_ub: [ 1 x_41_ ^ 2 - 2 x_55_ * x_41_ + 1 x_55_ ^ 2 + 1 y_41_ ^ 2 - 2 y_55_ * y_41_ + 1 y_55_ ^ 2 ] <= 49338.5
quadratic_ranged_187_ub: [ 1 x_46_ ^ 2 - 2 x_55_ * x_46_ + 1 x_55_ ^ 2 + 1 y_46_ ^ 2 - 2 y_55_ * y_46_ + 1 y_55_ ^ 2 ] <= 22052.34
quadratic_ranged_188_ub: [ 1 x_54_ ^ 2 - 2 x_55_ * x_54_ + 1 x_55_ ^ 2 + 1 y_54_ ^ 2 - 2 y_55_ * y_54_ + 1 y_55_ ^ 2 ] <= 6536.72
quadratic_ranged_189_ub: [ 1 x_19_ ^ 2 - 2 x_56_ * x_19_ + 1 x_56_ ^ 2 + 1 y_19_ ^ 2 - 2 y_56_ * y_19_ + 1 y_56_ ^ 2 ] <= 12930.02
quadratic_ranged_190_ub: [ 1 x_21_ ^ 2 - 2 x_56_ * x_21_ + 1 x_56_ ^ 2 + 1 y_21_ ^ 2 - 2 y_56_ * y_21_ + 1 y_56_ ^ 2 ] <= 40469.69
quadratic_ranged_191_ub: [ 1 x_38_ ^ 2 - 2 x_56_ * x_38_ + 1 x_56_ ^ 2 + 1 y_38_ ^ 2 - 2 y_56_ * y_38_ + 1 y_56_ ^ 2 ] <= 17647.73
quadratic_ranged_192_ub: [ 1 x_48_ ^ 2 - 2 x_56_ * x_48_ + 1 x_56_ ^ 2 + 1 y_48_ ^ 2 - 2 y_56_ * y_48_ + 1 y_56_ ^ 2 ] <= 3035.05
quadratic_ranged_193_ub: [ 1 x_54_ ^ 2 - 2 x_56_ * x_54_ + 1 x_56_ ^ 2 + 1 y_54_ ^ 2 - 2 y_56_ * y_54_ + 1 y_56_ ^ 2 ] <= 8863.76
quadratic_ranged_194_ub: [ 1 x_55_ ^ 2 - 2 x_56_ * x_55_ + 1 x_56_ ^ 2 + 1 y_55_ ^ 2 - 2 y_56_ * y_55_ + 1 y_56_ ^ 2 ] <= 20296.96
quadratic_ranged_195_ub: [ 1 x_6_ ^ 2 - 2 x_57_ * x_6_ + 1 x_57_ ^ 2 + 1 y_6_ ^ 2 - 2 y_57_ * y_6_ + 1 y_57_ ^ 2 ] <= 26150.920000000002
quadratic_ranged_196_ub: [ 1 x_7_ ^ 2 - 2 x_57_ * x_7_ + 1 x_57_ ^ 2 + 1 y_7_ ^ 2 - 2 y_57_ * y_7_ + 1 y_57_ ^ 2 ] <= 8245.64
quadratic_ranged_197_ub: [ 1 x_9_ ^ 2 - 2 x_57_ * x_9_ + 1 x_57_ ^ 2 + 1 y_9_ ^ 2 - 2 y_57_ * y_9_ + 1 y_57_ ^ 2 ] <= 4201.6
quadratic_ranged_198_ub: [ 1 x_35_ ^ 2 - 2 x_57_ * x_35_ + 1 x_57_ ^ 2 + 1 y_35_ ^ 2 - 2 y_57_ * y_35_ + 1 y_57_ ^ 2 ] <= 13458.25
quadratic_ranged_199_ub: [ 1 x_47_ ^ 2 - 2 x_57_ * x_47_ + 1 x_57_ ^ 2 + 1 y_47_ ^ 2 - 2 y_57_ * y_47_ + 1 y_57_ ^ 2 ] <= 6994.25
quadratic_ranged_200_ub: [ 1 x_55_ ^ 2 - 2 x_57_ * x_55_ + 1 x_57_ ^ 2 + 1 y_55_ ^ 2 - 2 y_57_ * y_55_ + 1 y_57_ ^ 2 ] <= 13530.97
quadratic_ranged_201_ub: [ 1 x_56_ ^ 2 - 2 x_57_ * x_56_ + 1 x_57_ ^ 2 + 1 y_56_ ^ 2 - 2 y_57_ * y_56_ + 1 y_57_ ^ 2 ] <= 3398.65
quadratic_ranged_202_ub: [ 1 x_12_ ^ 2 - 2 x_58_ * x_12_ + 1 x_58_ ^ 2 + 1 y_12_ ^ 2 - 2 y_58_ * y_12_ + 1 y_58_ ^ 2 ] <= 17129.6
quadratic_ranged_203_ub: [ 1 x_14_ ^ 2 - 2 x_58_ * x_14_ + 1 x_58_ ^ 2 + 1 y_14_ ^ 2 - 2 y_58_ * y_14_ + 1 y_58_ ^ 2 ] <= 12258.37
quadratic_ranged_204_ub: [ 1 x_15_ ^ 2 - 2 x_58_ * x_15_ + 1 x_58_ ^ 2 + 1 y_15_ ^ 2 - 2 y_58_ * y_15_ + 1 y_58_ ^ 2 ] <= 10149.49
quadratic_ranged_205_ub: [ 1 x_25_ ^ 2 - 2 x_58_ * x_25_ + 1 x_58_ ^ 2 + 1 y_25_ ^ 2 - 2 y_58_ * y_25_ + 1 y_58_ ^ 2 ] <= 7728.52
quadratic_ranged_206_ub: [ 1 x_46_ ^ 2 - 2 x_58_ * x_46_ + 1 x_58_ ^ 2 + 1 y_46_ ^ 2 - 2 y_58_ * y_46_ + 1 y_58_ ^ 2 ] <= 3859.21
quadratic_ranged_207_ub: [ 1 x_55_ ^ 2 - 2 x_58_ * x_55_ + 1 x_58_ ^ 2 + 1 y_55_ ^ 2 - 2 y_58_ * y_55_ + 1 y_58_ ^ 2 ] <= 8101.21
quadratic_ranged_208_ub: [ 1 x_57_ ^ 2 - 2 x_58_ * x_57_ + 1 x_58_ ^ 2 + 1 y_57_ ^ 2 - 2 y_58_ * y_57_ + 1 y_58_ ^ 2 ] <= 13271.4
quadratic_ranged_209_ub: [ 1 x_16_ ^ 2 - 2 x_59_ * x_16_ + 1 x_59_ ^ 2 + 1 y_16_ ^ 2 - 2 y_59_ * y_16_ + 1 y_59_ ^ 2 ] <= 18645.61
quadratic_ranged_210_ub: [ 1 x_19_ ^ 2 - 2 x_59_ * x_19_ + 1 x_59_ ^ 2 + 1 y_19_ ^ 2 - 2 y_59_ * y_19_ + 1 y_59_ ^ 2 ] <= 2546.21
quadratic_ranged_211_ub: [ 1 x_40_ ^ 2 - 2 x_59_ * x_40_ + 1 x_59_ ^ 2 + 1 y_40_ ^ 2 - 2 y_59_ * y_40_ + 1 y_59_ ^ 2 ] <= 14423.81
quadratic_ranged_212_ub: [ 1 x_58_ ^ 2 - 2 x_59_ * x_58_ + 1 x_59_ ^ 2 + 1 y_58_ ^ 2 - 2 y_59_ * y_58_ + 1 y_59_ ^ 2 ] <= 13711.76
quadratic_ranged_213_ub: [ 1 x_8_ ^ 2 - 2 x_60_ * x_8_ + 1 x_60_ ^ 2 + 1 y_8_ ^ 2 - 2 y_60_ * y_8_ + 1 y_60_ ^ 2 ] <= 11094.85
quadratic_ranged_214_ub: [ 1 x_20_ ^ 2 - 2 x_60_ * x_20_ + 1 x_60_ ^ 2 + 1 y_20_ ^ 2 - 2 y_60_ * y_20_ + 1 y_60_ ^ 2 ] <= 11349.37
quadratic_ranged_215_ub: [ 1 x_41_ ^ 2 - 2 x_60_ * x_41_ + 1 x_60_ ^ 2 + 1 y_41_ ^ 2 - 2 y_60_ * y_41_ + 1 y_60_ ^ 2 ] <= 45867.13
quadratic_ranged_216_ub: [ 1 x_42_ ^ 2 - 2 x_60_ * x_42_ + 1 x_60_ ^ 2 + 1 y_42_ ^ 2 - 2 y_60_ * y_42_ + 1 y_60_ ^ 2 ] <= 6245.84
quadratic_ranged_217_ub: [ 1 x_51_ ^ 2 - 2 x_60_ * x_51_ + 1 x_60_ ^ 2 + 1 y_51_ ^ 2 - 2 y_60_ * y_51_ + 1 y_60_ ^ 2 ] <= 590.85
quadratic_ranged_218_ub: [ 1 x_59_ ^ 2 - 2 x_60_ * x_59_ + 1 x_60_ ^ 2 + 1 y_59_ ^ 2 - 2 y_60_ * y_59_ + 1 y_60_ ^ 2 ] <= 28815.3
quadratic_ranged_219_ub: [ 1 x_4_ ^ 2 - 2 x_61_ * x_4_ + 1 x_61_ ^ 2 + 1 y_4_ ^ 2 - 2 y_61_ * y_4_ + 1 y_61_ ^ 2 ] <= 14325.84
quadratic_ranged_220_ub: [ 1 x_5_ ^ 2 - 2 x_61_ * x_5_ + 1 x_61_ ^ 2 + 1 y_5_ ^ 2 - 2 y_61_ * y_5_ + 1 y_61_ ^ 2 ] <= 977.6800000000001
quadratic_ranged_221_ub: [ 1 x_6_ ^ 2 - 2 x_61_ * x_6_ + 1 x_61_ ^ 2 + 1 y_6_ ^ 2 - 2 y_61_ * y_6_ + 1 y_61_ ^ 2 ] <= 21670.56
quadratic_ranged_222_ub: [ 1 x_38_ ^ 2 - 2 x_61_ * x_38_ + 1 x_61_ ^ 2 + 1 y_38_ ^ 2 - 2 y_61_ * y_38_ + 1 y_61_ ^ 2 ] <= 9075.86
quadratic_ranged_223_ub: [ 1 x_42_ ^ 2 - 2 x_61_ * x_42_ + 1 x_61_ ^ 2 + 1 y_42_ ^ 2 - 2 y_61_ * y_42_ + 1 y_61_ ^ 2 ] <= 2434.1
quadratic_ranged_224_ub: [ 1 x_54_ ^ 2 - 2 x_61_ * x_54_ + 1 x_61_ ^ 2 + 1 y_54_ ^ 2 - 2 y_61_ * y_54_ + 1 y_61_ ^ 2 ] <= 837.29
quadratic_ranged_225_ub: [ 1 x_55_ ^ 2 - 2 x_61_ * x_55_ + 1 x_61_ ^ 2 + 1 y_55_ ^ 2 - 2 y_61_ * y_55_ + 1 y_61_ ^ 2 ] <= 11216.05
quadratic_ranged_226_ub: [ 1 x_60_ ^ 2 - 2 x_61_ * x_60_ + 1 x_61_ ^ 2 + 1 y_60_ ^ 2 - 2 y_61_ * y_60_ + 1 y_61_ ^ 2 ] <= 10142.42
quadratic_ranged_227_ub: [ 1 x_8_ ^ 2 - 2 x_62_ * x_8_ + 1 x_62_ ^ 2 + 1 y_8_ ^ 2 - 2 y_62_ * y_8_ + 1 y_62_ ^ 2 ] <= 4674.28
quadratic_ranged_228_ub: [ 1 x_44_ ^ 2 - 2 x_62_ * x_44_ + 1 x_62_ ^ 2 + 1 y_44_ ^ 2 - 2 y_62_ * y_44_ + 1 y_62_ ^ 2 ] <= 13781.45
quadratic_ranged_229_ub: [ 1 x_49_ ^ 2 - 2 x_62_ * x_49_ + 1 x_62_ ^ 2 + 1 y_49_ ^ 2 - 2 y_62_ * y_49_ + 1 y_62_ ^ 2 ] <= 5935.77
quadratic_ranged_230_ub: [ 1 x_61_ ^ 2 - 2 x_62_ * x_61_ + 1 x_62_ ^ 2 + 1 y_61_ ^ 2 - 2 y_62_ * y_61_ + 1 y_62_ ^ 2 ] <= 3426.93
quadratic_ranged_231_ub: [ 1 x_4_ ^ 2 - 2 x_63_ * x_4_ + 1 x_63_ ^ 2 + 1 y_4_ ^ 2 - 2 y_63_ * y_4_ + 1 y_63_ ^ 2 ] <= 5989.3
quadratic_ranged_232_ub: [ 1 x_6_ ^ 2 - 2 x_63_ * x_6_ + 1 x_63_ ^ 2 + 1 y_6_ ^ 2 - 2 y_63_ * y_6_ + 1 y_63_ ^ 2 ] <= 7928.5
quadratic_ranged_233_ub: [ 1 x_14_ ^ 2 - 2 x_63_ * x_14_ + 1 x_63_ ^ 2 + 1 y_14_ ^ 2 - 2 y_63_ * y_14_ + 1 y_63_ ^ 2 ] <= 9785.89
quadratic_ranged_234_ub: [ 1 x_23_ ^ 2 - 2 x_63_ * x_23_ + 1 x_63_ ^ 2 + 1 y_23_ ^ 2 - 2 y_63_ * y_23_ + 1 y_63_ ^ 2 ] <= 22338.170000000002
quadratic_ranged_235_ub: [ 1 x_25_ ^ 2 - 2 x_63_ * x_25_ + 1 x_63_ ^ 2 + 1 y_25_ ^ 2 - 2 y_63_ * y_25_ + 1 y_63_ ^ 2 ] <= 6619.54
quadratic_ranged_236_ub: [ 1 x_29_ ^ 2 - 2 x_63_ * x_29_ + 1 x_63_ ^ 2 + 1 y_29_ ^ 2 - 2 y_63_ * y_29_ + 1 y_63_ ^ 2 ] <= 18597.13
quadratic_ranged_237_ub: [ 1 x_34_ ^ 2 - 2 x_63_ * x_34_ + 1 x_63_ ^ 2 + 1 y_34_ ^ 2 - 2 y_63_ * y_34_ + 1 y_63_ ^ 2 ] <= 16662.98
quadratic_ranged_238_ub: [ 1 x_36_ ^ 2 - 2 x_63_ * x_36_ + 1 x_63_ ^ 2 + 1 y_36_ ^ 2 - 2 y_63_ * y_36_ + 1 y_63_ ^ 2 ] <= 8113.33
quadratic_ranged_239_ub: [ 1 x_54_ ^ 2 - 2 x_63_ * x_54_ + 1 x_63_ ^ 2 + 1 y_54_ ^ 2 - 2 y_63_ * y_54_ + 1 y_63_ ^ 2 ] <= 4004.65
quadratic_ranged_240_ub: [ 1 x_56_ ^ 2 - 2 x_63_ * x_56_ + 1 x_63_ ^ 2 + 1 y_56_ ^ 2 - 2 y_63_ * y_56_ + 1 y_63_ ^ 2 ] <= 24717.73
quadratic_ranged_241_ub: [ 1 x_61_ ^ 2 - 2 x_63_ * x_61_ + 1 x_63_ ^ 2 + 1 y_61_ ^ 2 - 2 y_63_ * y_61_ + 1 y_63_ ^ 2 ] <= 8001.22
quadratic_ranged_242_ub: [ 1 x_62_ ^ 2 - 2 x_63_ * x_62_ + 1 x_63_ ^ 2 + 1 y_62_ ^ 2 - 2 y_63_ * y_62_ + 1 y_63_ ^ 2 ] <= 2865.37
quadratic_ranged_243_ub: [ 1 x_3_ ^ 2 - 2 x_64_ * x_3_ + 1 x_64_ ^ 2 + 1 y_3_ ^ 2 - 2 y_64_ * y_3_ + 1 y_64_ ^ 2 ] <= 20366.65
quadratic_ranged_244_ub: [ 1 x_13_ ^ 2 - 2 x_64_ * x_13_ + 1 x_64_ ^ 2 + 1 y_13_ ^ 2 - 2 y_64_ * y_13_ + 1 y_64_ ^ 2 ] <= 10549.45
quadratic_ranged_245_ub: [ 1 x_19_ ^ 2 - 2 x_64_ * x_19_ + 1 x_64_ ^ 2 + 1 y_19_ ^ 2 - 2 y_64_ * y_19_ + 1 y_64_ ^ 2 ] <= 6385.22
quadratic_ranged_246_ub: [ 1 x_26_ ^ 2 - 2 x_64_ * x_26_ + 1 x_64_ ^ 2 + 1 y_26_ ^ 2 - 2 y_64_ * y_26_ + 1 y_64_ ^ 2 ] <= 14694.49
quadratic_ranged_247_ub: [ 1 x_27_ ^ 2 - 2 x_64_ * x_27_ + 1 x_64_ ^ 2 + 1 y_27_ ^ 2 - 2 y_64_ * y_27_ + 1 y_64_ ^ 2 ] <= 4307.65
quadratic_ranged_248_ub: [ 1 x_42_ ^ 2 - 2 x_64_ * x_42_ + 1 x_64_ ^ 2 + 1 y_42_ ^ 2 - 2 y_64_ * y_42_ + 1 y_64_ ^ 2 ] <= 1819.01
quadratic_ranged_249_ub: [ 1 x_60_ ^ 2 - 2 x_64_ * x_60_ + 1 x_64_ ^ 2 + 1 y_60_ ^ 2 - 2 y_64_ * y_60_ + 1 y_64_ ^ 2 ] <= 12553.29
quadratic_ranged_250_ub: [ 1 x_63_ ^ 2 - 2 x_64_ * x_63_ + 1 x_64_ ^ 2 + 1 y_63_ ^ 2 - 2 y_64_ * y_63_ + 1 y_64_ ^ 2 ] <= 12448.25
quadratic_ranged_251_ub: [ 1 x_1_ ^ 2 - 2 x_65_ * x_1_ + 1 x_65_ ^ 2 + 1 y_1_ ^ 2 - 2 y_65_ * y_1_ + 1 y_65_ ^ 2 ] <= 9366.74
quadratic_ranged_252_ub: [ 1 x_3_ ^ 2 - 2 x_65_ * x_3_ + 1 x_65_ ^ 2 + 1 y_3_ ^ 2 - 2 y_65_ * y_3_ + 1 y_65_ ^ 2 ] <= 17016.48
quadratic_ranged_253_ub: [ 1 x_34_ ^ 2 - 2 x_65_ * x_34_ + 1 x_65_ ^ 2 + 1 y_34_ ^ 2 - 2 y_65_ * y_34_ + 1 y_65_ ^ 2 ] <= 7686.1
quadratic_ranged_254_ub: [ 1 x_37_ ^ 2 - 2 x_65_ * x_37_ + 1 x_65_ ^ 2 + 1 y_37_ ^ 2 - 2 y_65_ * y_37_ + 1 y_65_ ^ 2 ] <= 32805.81
quadratic_ranged_255_ub: [ 1 x_46_ ^ 2 - 2 x_65_ * x_46_ + 1 x_65_ ^ 2 + 1 y_46_ ^ 2 - 2 y_65_ * y_46_ + 1 y_65_ ^ 2 ] <= 2117.97
quadratic_ranged_256_ub: [ 1 x_47_ ^ 2 - 2 x_65_ * x_47_ + 1 x_65_ ^ 2 + 1 y_47_ ^ 2 - 2 y_65_ * y_47_ + 1 y_65_ ^ 2 ] <= 36239.81
quadratic_ranged_257_ub: [ 1 x_50_ ^ 2 - 2 x_65_ * x_50_ + 1 x_65_ ^ 2 + 1 y_50_ ^ 2 - 2 y_65_ * y_50_ + 1 y_65_ ^ 2 ] <= 36373.13
quadratic_ranged_258_ub: [ 1 x_59_ ^ 2 - 2 x_65_ * x_59_ + 1 x_65_ ^ 2 + 1 y_59_ ^ 2 - 2 y_65_ * y_59_ + 1 y_65_ ^ 2 ] <= 656.5
quadratic_ranged_259_ub: [ 1 x_60_ ^ 2 - 2 x_65_ * x_60_ + 1 x_65_ ^ 2 + 1 y_60_ ^ 2 - 2 y_65_ * y_60_ + 1 y_65_ ^ 2 ] <= 24987.4
quadratic_ranged_260_ub: [ 1 x_64_ ^ 2 - 2 x_65_ * x_64_ + 1 x_65_ ^ 2 + 1 y_64_ ^ 2 - 2 y_65_ * y_64_ + 1 y_65_ ^ 2 ] <= 16948.81
quadratic_ranged_261_ub: [ 1 x_6_ ^ 2 - 2 x_66_ * x_6_ + 1 x_66_ ^ 2 + 1 y_6_ ^ 2 - 2 y_66_ * y_6_ + 1 y_66_ ^ 2 ] <= 20171.72
quadratic_ranged_262_ub: [ 1 x_7_ ^ 2 - 2 x_66_ * x_7_ + 1 x_66_ ^ 2 + 1 y_7_ ^ 2 - 2 y_66_ * y_7_ + 1 y_66_ ^ 2 ] <= 4431.88
quadratic_ranged_263_ub: [ 1 x_26_ ^ 2 - 2 x_66_ * x_26_ + 1 x_66_ ^ 2 + 1 y_26_ ^ 2 - 2 y_66_ * y_26_ + 1 y_66_ ^ 2 ] <= 10796.9
quadratic_ranged_264_ub: [ 1 x_56_ ^ 2 - 2 x_66_ * x_56_ + 1 x_66_ ^ 2 + 1 y_56_ ^ 2 - 2 y_66_ * y_56_ + 1 y_66_ ^ 2 ] <= 6448.85
quadratic_ranged_265_ub: [ 1 x_57_ ^ 2 - 2 x_66_ * x_57_ + 1 x_66_ ^ 2 + 1 y_57_ ^ 2 - 2 y_66_ * y_57_ + 1 y_66_ ^ 2 ] <= 589.84
quadratic_ranged_266_ub: [ 1 x_65_ ^ 2 - 2 x_66_ * x_65_ + 1 x_66_ ^ 2 + 1 y_65_ ^ 2 - 2 y_66_ * y_65_ + 1 y_66_ ^ 2 ] <= 8736.5
quadratic_ranged_267_ub: [ 1 x_16_ ^ 2 - 2 x_67_ * x_16_ + 1 x_67_ ^ 2 + 1 y_16_ ^ 2 - 2 y_67_ * y_16_ + 1 y_67_ ^ 2 ] <= 38600.18
quadratic_ranged_268_ub: [ 1 x_21_ ^ 2 - 2 x_67_ * x_21_ + 1 x_67_ ^ 2 + 1 y_21_ ^ 2 - 2 y_67_ * y_21_ + 1 y_67_ ^ 2 ] <= 29452.61
quadratic_ranged_269_ub: [ 1 x_22_ ^ 2 - 2 x_67_ * x_22_ + 1 x_67_ ^ 2 + 1 y_22_ ^ 2 - 2 y_67_ * y_22_ + 1 y_67_ ^ 2 ] <= 9725.29
quadratic_ranged_270_ub: [ 1 x_32_ ^ 2 - 2 x_67_ * x_32_ + 1 x_67_ ^ 2 + 1 y_32_ ^ 2 - 2 y_67_ * y_32_ + 1 y_67_ ^ 2 ] <= 14823.77
quadratic_ranged_271_ub: [ 1 x_37_ ^ 2 - 2 x_67_ * x_37_ + 1 x_67_ ^ 2 + 1 y_37_ ^ 2 - 2 y_67_ * y_37_ + 1 y_67_ ^ 2 ] <= 7958.8
quadratic_ranged_272_ub: [ 1 x_47_ ^ 2 - 2 x_67_ * x_47_ + 1 x_67_ ^ 2 + 1 y_47_ ^ 2 - 2 y_67_ * y_47_ + 1 y_67_ ^ 2 ] <= 19169.8
quadratic_ranged_273_ub: [ 1 x_56_ ^ 2 - 2 x_67_ * x_56_ + 1 x_67_ ^ 2 + 1 y_56_ ^ 2 - 2 y_67_ * y_56_ + 1 y_67_ ^ 2 ] <= 36814.5
quadratic_ranged_274_ub: [ 1 x_62_ ^ 2 - 2 x_67_ * x_62_ + 1 x_67_ ^ 2 + 1 y_62_ ^ 2 - 2 y_67_ * y_62_ + 1 y_67_ ^ 2 ] <= 7053.84
quadratic_ranged_275_ub: [ 1 x_64_ ^ 2 - 2 x_67_ * x_64_ + 1 x_67_ ^ 2 + 1 y_64_ ^ 2 - 2 y_67_ * y_64_ + 1 y_67_ ^ 2 ] <= 24250.1
quadratic_ranged_276_ub: [ 1 x_66_ ^ 2 - 2 x_67_ * x_66_ + 1 x_67_ ^ 2 + 1 y_66_ ^ 2 - 2 y_67_ * y_66_ + 1 y_67_ ^ 2 ] <= 24556.13
quadratic_ranged_277_ub: [ 1 x_2_ ^ 2 - 2 x_68_ * x_2_ + 1 x_68_ ^ 2 + 1 y_2_ ^ 2 - 2 y_68_ * y_2_ + 1 y_68_ ^ 2 ] <= 28199.2
quadratic_ranged_278_ub: [ 1 x_6_ ^ 2 - 2 x_68_ * x_6_ + 1 x_68_ ^ 2 + 1 y_6_ ^ 2 - 2 y_68_ * y_6_ + 1 y_68_ ^ 2 ] <= 34801.57
quadratic_ranged_279_ub: [ 1 x_8_ ^ 2 - 2 x_68_ * x_8_ + 1 x_68_ ^ 2 + 1 y_8_ ^ 2 - 2 y_68_ * y_8_ + 1 y_68_ ^ 2 ] <= 4476.32
quadratic_ranged_280_ub: [ 1 x_23_ ^ 2 - 2 x_68_ * x_23_ + 1 x_68_ ^ 2 + 1 y_23_ ^ 2 - 2 y_68_ * y_23_ + 1 y_68_ ^ 2 ] <= 9958.6
quadratic_ranged_281_ub: [ 1 x_31_ ^ 2 - 2 x_68_ * x_31_ + 1 x_68_ ^ 2 + 1 y_31_ ^ 2 - 2 y_68_ * y_31_ + 1 y_68_ ^ 2 ] <= 34230.92
quadratic_ranged_282_ub: [ 1 x_33_ ^ 2 - 2 x_68_ * x_33_ + 1 x_68_ ^ 2 + 1 y_33_ ^ 2 - 2 y_68_ * y_33_ + 1 y_68_ ^ 2 ] <= 33824.9
quadratic_ranged_283_ub: [ 1 x_45_ ^ 2 - 2 x_68_ * x_45_ + 1 x_68_ ^ 2 + 1 y_45_ ^ 2 - 2 y_68_ * y_45_ + 1 y_68_ ^ 2 ] <= 33003.77
quadratic_ranged_284_ub: [ 1 x_49_ ^ 2 - 2 x_68_ * x_49_ + 1 x_68_ ^ 2 + 1 y_49_ ^ 2 - 2 y_68_ * y_49_ + 1 y_68_ ^ 2 ] <= 4331.89
quadratic_ranged_285_ub: [ 1 x_54_ ^ 2 - 2 x_68_ * x_54_ + 1 x_68_ ^ 2 + 1 y_54_ ^ 2 - 2 y_68_ * y_54_ + 1 y_68_ ^ 2 ] <= 8195.14
quadratic_ranged_286_ub: [ 1 x_55_ ^ 2 - 2 x_68_ * x_55_ + 1 x_68_ ^ 2 + 1 y_55_ ^ 2 - 2 y_68_ * y_55_ + 1 y_68_ ^ 2 ] <= 27110.420000000002
quadratic_ranged_287_ub: [ 1 x_57_ ^ 2 - 2 x_68_ * x_57_ + 1 x_68_ ^ 2 + 1 y_57_ ^ 2 - 2 y_68_ * y_57_ + 1 y_68_ ^ 2 ] <= 2352.29
quadratic_ranged_288_ub: [ 1 x_62_ ^ 2 - 2 x_68_ * x_62_ + 1 x_68_ ^ 2 + 1 y_62_ ^ 2 - 2 y_68_ * y_62_ + 1 y_68_ ^ 2 ] <= 14321.8
quadratic_ranged_289_ub: [ 1 x_67_ ^ 2 - 2 x_68_ * x_67_ + 1 x_68_ ^ 2 + 1 y_67_ ^ 2 - 2 y_68_ * y_67_ + 1 y_68_ ^ 2 ] <= 41276.68
quadratic_ranged_290_ub: [ 1 x_3_ ^ 2 - 2 x_69_ * x_3_ + 1 x_69_ ^ 2 + 1 y_3_ ^ 2 - 2 y_69_ * y_3_ + 1 y_69_ ^ 2 ] <= 19917.2
quadratic_ranged_291_ub: [ 1 x_16_ ^ 2 - 2 x_69_ * x_16_ + 1 x_69_ ^ 2 + 1 y_16_ ^ 2 - 2 y_69_ * y_16_ + 1 y_69_ ^ 2 ] <= 3564.29
quadratic_ranged_292_ub: [ 1 x_19_ ^ 2 - 2 x_69_ * x_19_ + 1 x_69_ ^ 2 + 1 y_19_ ^ 2 - 2 y_69_ * y_19_ + 1 y_69_ ^ 2 ] <= 1309.97
quadratic_ranged_293_ub: [ 1 x_31_ ^ 2 - 2 x_69_ * x_31_ + 1 x_69_ ^ 2 + 1 y_31_ ^ 2 - 2 y_69_ * y_31_ + 1 y_69_ ^ 2 ] <= 20390.89
quadratic_ranged_294_ub: [ 1 x_36_ ^ 2 - 2 x_69_ * x_36_ + 1 x_69_ ^ 2 + 1 y_36_ ^ 2 - 2 y_69_ * y_36_ + 1 y_69_ ^ 2 ] <= 7313.41
quadratic_ranged_295_ub: [ 1 x_56_ ^ 2 - 2 x_69_ * x_56_ + 1 x_69_ ^ 2 + 1 y_56_ ^ 2 - 2 y_69_ * y_56_ + 1 y_69_ ^ 2 ] <= 6792.25
quadratic_ranged_296_ub: [ 1 x_60_ ^ 2 - 2 x_69_ * x_60_ + 1 x_69_ ^ 2 + 1 y_60_ ^ 2 - 2 y_69_ * y_60_ + 1 y_69_ ^ 2 ] <= 16745.8
quadratic_ranged_297_ub: [ 1 x_68_ ^ 2 - 2 x_69_ * x_68_ + 1 x_69_ ^ 2 + 1 y_68_ ^ 2 - 2 y_69_ * y_68_ + 1 y_69_ ^ 2 ] <= 1883.65
quadratic_ranged_298_ub: [ 1 x_30_ ^ 2 - 2 x_70_ * x_30_ + 1 x_70_ ^ 2 + 1 y_30_ ^ 2 - 2 y_70_ * y_30_ + 1 y_70_ ^ 2 ] <= 898.9
quadratic_ranged_299_ub: [ 1 x_32_ ^ 2 - 2 x_70_ * x_32_ + 1 x_70_ ^ 2 + 1 y_32_ ^ 2 - 2 y_70_ * y_32_ + 1 y_70_ ^ 2 ] <= 8637.52
quadratic_ranged_300_ub: [ 1 x_37_ ^ 2 - 2 x_70_ * x_37_ + 1 x_70_ ^ 2 + 1 y_37_ ^ 2 - 2 y_70_ * y_37_ + 1 y_70_ ^ 2 ] <= 15316.65
quadratic_ranged_301_ub: [ 1 x_51_ ^ 2 - 2 x_70_ * x_51_ + 1 x_70_ ^ 2 + 1 y_51_ ^ 2 - 2 y_70_ * y_51_ + 1 y_70_ ^ 2 ] <= 22996.69
quadratic_ranged_302_ub: [ 1 x_58_ ^ 2 - 2 x_70_ * x_58_ + 1 x_70_ ^ 2 + 1 y_58_ ^ 2 - 2 y_70_ * y_58_ + 1 y_70_ ^ 2 ] <= 16339.78
quadratic_ranged_303_ub: [ 1 x_69_ ^ 2 - 2 x_70_ * x_69_ + 1 x_70_ ^ 2 + 1 y_69_ ^ 2 - 2 y_70_ * y_69_ + 1 y_70_ ^ 2 ] <= 404
quadratic_ranged_304_ub: [ 1 x_5_ ^ 2 - 2 x_71_ * x_5_ + 1 x_71_ ^ 2 + 1 y_5_ ^ 2 - 2 y_71_ * y_5_ + 1 y_71_ ^ 2 ] <= 10408.05
quadratic_ranged_305_ub: [ 1 x_22_ ^ 2 - 2 x_71_ * x_22_ + 1 x_71_ ^ 2 + 1 y_22_ ^ 2 - 2 y_71_ * y_22_ + 1 y_71_ ^ 2 ] <= 32821.97
quadratic_ranged_306_ub: [ 1 x_38_ ^ 2 - 2 x_71_ * x_38_ + 1 x_71_ ^ 2 + 1 y_38_ ^ 2 - 2 y_71_ * y_38_ + 1 y_71_ ^ 2 ] <= 35197.49
quadratic_ranged_307_ub: [ 1 x_53_ ^ 2 - 2 x_71_ * x_53_ + 1 x_71_ ^ 2 + 1 y_53_ ^ 2 - 2 y_71_ * y_53_ + 1 y_71_ ^ 2 ] <= 543.38
quadratic_ranged_308_ub: [ 1 x_70_ ^ 2 - 2 x_71_ * x_70_ + 1 x_71_ ^ 2 + 1 y_70_ ^ 2 - 2 y_71_ * y_70_ + 1 y_71_ ^ 2 ] <= 3964.25
quadratic_ranged_309_ub: [ 1 x_5_ ^ 2 - 2 x_72_ * x_5_ + 1 x_72_ ^ 2 + 1 y_5_ ^ 2 - 2 y_72_ * y_5_ + 1 y_72_ ^ 2 ] <= 2153.32
quadratic_ranged_310_ub: [ 1 x_12_ ^ 2 - 2 x_72_ * x_12_ + 1 x_72_ ^ 2 + 1 y_12_ ^ 2 - 2 y_72_ * y_12_ + 1 y_72_ ^ 2 ] <= 18959.72
quadratic_ranged_311_ub: [ 1 x_17_ ^ 2 - 2 x_72_ * x_17_ + 1 x_72_ ^ 2 + 1 y_17_ ^ 2 - 2 y_72_ * y_17_ + 1 y_72_ ^ 2 ] <= 7831.54
quadratic_ranged_312_ub: [ 1 x_36_ ^ 2 - 2 x_72_ * x_36_ + 1 x_72_ ^ 2 + 1 y_36_ ^ 2 - 2 y_72_ * y_36_ + 1 y_72_ ^ 2 ] <= 8658.73
quadratic_ranged_313_ub: [ 1 x_37_ ^ 2 - 2 x_72_ * x_37_ + 1 x_72_ ^ 2 + 1 y_37_ ^ 2 - 2 y_72_ * y_37_ + 1 y_72_ ^ 2 ] <= 17336.65
quadratic_ranged_314_ub: [ 1 x_58_ ^ 2 - 2 x_72_ * x_58_ + 1 x_72_ ^ 2 + 1 y_58_ ^ 2 - 2 y_72_ * y_58_ + 1 y_72_ ^ 2 ] <= 27492.2
quadratic_ranged_315_ub: [ 1 x_62_ ^ 2 - 2 x_72_ * x_62_ + 1 x_72_ ^ 2 + 1 y_62_ ^ 2 - 2 y_72_ * y_62_ + 1 y_72_ ^ 2 ] <= 13757.210000000001
quadratic_ranged_316_ub: [ 1 x_65_ ^ 2 - 2 x_72_ * x_65_ + 1 x_72_ ^ 2 + 1 y_65_ ^ 2 - 2 y_72_ * y_65_ + 1 y_72_ ^ 2 ] <= 24072.34
quadratic_ranged_317_ub: [ 1 x_66_ ^ 2 - 2 x_72_ * x_66_ + 1 x_72_ ^ 2 + 1 y_66_ ^ 2 - 2 y_72_ * y_66_ + 1 y_72_ ^ 2 ] <= 4427.84
quadratic_ranged_318_ub: [ 1 x_71_ ^ 2 - 2 x_72_ * x_71_ + 1 x_72_ ^ 2 + 1 y_71_ ^ 2 - 2 y_72_ * y_71_ + 1 y_72_ ^ 2 ] <= 6913.45
quadratic_ranged_319_ub: [ 1 x_2_ ^ 2 - 2 x_73_ * x_2_ + 1 x_73_ ^ 2 + 1 y_2_ ^ 2 - 2 y_73_ * y_2_ + 1 y_73_ ^ 2 ] <= 15862.05
quadratic_ranged_320_ub: [ 1 x_39_ ^ 2 - 2 x_73_ * x_39_ + 1 x_73_ ^ 2 + 1 y_39_ ^ 2 - 2 y_73_ * y_39_ + 1 y_73_ ^ 2 ] <= 3203.7200000000003
quadratic_ranged_321_ub: [ 1 x_43_ ^ 2 - 2 x_73_ * x_43_ + 1 x_73_ ^ 2 + 1 y_43_ ^ 2 - 2 y_73_ * y_43_ + 1 y_73_ ^ 2 ] <= 1591.76
quadratic_ranged_322_ub: [ 1 x_50_ ^ 2 - 2 x_73_ * x_50_ + 1 x_73_ ^ 2 + 1 y_50_ ^ 2 - 2 y_73_ * y_50_ + 1 y_73_ ^ 2 ] <= 12642.17
quadratic_ranged_323_ub: [ 1 x_52_ ^ 2 - 2 x_73_ * x_52_ + 1 x_73_ ^ 2 + 1 y_52_ ^ 2 - 2 y_73_ * y_52_ + 1 y_73_ ^ 2 ] <= 6097.37
quadratic_ranged_324_ub: [ 1 x_59_ ^ 2 - 2 x_73_ * x_59_ + 1 x_73_ ^ 2 + 1 y_59_ ^ 2 - 2 y_73_ * y_59_ + 1 y_73_ ^ 2 ] <= 6070.1
quadratic_ranged_325_ub: [ 1 x_70_ ^ 2 - 2 x_73_ * x_70_ + 1 x_73_ ^ 2 + 1 y_70_ ^ 2 - 2 y_73_ * y_70_ + 1 y_73_ ^ 2 ] <= 456.52
quadratic_ranged_326_ub: [ 1 x_72_ ^ 2 - 2 x_73_ * x_72_ + 1 x_73_ ^ 2 + 1 y_72_ ^ 2 - 2 y_73_ * y_72_ + 1 y_73_ ^ 2 ] <= 4324.82
quadratic_ranged_327_ub: [ 1 x_12_ ^ 2 - 2 x_74_ * x_12_ + 1 x_74_ ^ 2 + 1 y_12_ ^ 2 - 2 y_74_ * y_12_ + 1 y_74_ ^ 2 ] <= 41350.41
quadratic_ranged_328_ub: [ 1 x_21_ ^ 2 - 2 x_74_ * x_21_ + 1 x_74_ ^ 2 + 1 y_21_ ^ 2 - 2 y_74_ * y_21_ + 1 y_74_ ^ 2 ] <= 52880.57
quadratic_ranged_329_ub: [ 1 x_22_ ^ 2 - 2 x_74_ * x_22_ + 1 x_74_ ^ 2 + 1 y_22_ ^ 2 - 2 y_74_ * y_22_ + 1 y_74_ ^ 2 ] <= 43027.01
quadratic_ranged_330_ub: [ 1 x_26_ ^ 2 - 2 x_74_ * x_26_ + 1 x_74_ ^ 2 + 1 y_26_ ^ 2 - 2 y_74_ * y_26_ + 1 y_74_ ^ 2 ] <= 30179.81
quadratic_ranged_331_ub: [ 1 x_27_ ^ 2 - 2 x_74_ * x_27_ + 1 x_74_ ^ 2 + 1 y_27_ ^ 2 - 2 y_74_ * y_27_ + 1 y_74_ ^ 2 ] <= 1431.17
quadratic_ranged_332_ub: [ 1 x_54_ ^ 2 - 2 x_74_ * x_54_ + 1 x_74_ ^ 2 + 1 y_54_ ^ 2 - 2 y_74_ * y_54_ + 1 y_74_ ^ 2 ] <= 11394.82
quadratic_ranged_333_ub: [ 1 x_63_ ^ 2 - 2 x_74_ * x_63_ + 1 x_74_ ^ 2 + 1 y_63_ ^ 2 - 2 y_74_ * y_63_ + 1 y_74_ ^ 2 ] <= 26046.89
quadratic_ranged_334_ub: [ 1 x_68_ ^ 2 - 2 x_74_ * x_68_ + 1 x_74_ ^ 2 + 1 y_68_ ^ 2 - 2 y_74_ * y_68_ + 1 y_74_ ^ 2 ] <= 13271.4
quadratic_ranged_335_ub: [ 1 x_72_ ^ 2 - 2 x_74_ * x_72_ + 1 x_74_ ^ 2 + 1 y_72_ ^ 2 - 2 y_74_ * y_72_ + 1 y_74_ ^ 2 ] <= 7115.45
quadratic_ranged_336_ub: [ 1 x_73_ ^ 2 - 2 x_74_ * x_73_ + 1 x_74_ ^ 2 + 1 y_73_ ^ 2 - 2 y_74_ * y_73_ + 1 y_74_ ^ 2 ] <= 15882.25
quadratic_ranged_337_ub: [ 1 x_6_ ^ 2 - 2 x_75_ * x_6_ + 1 x_75_ ^ 2 + 1 y_6_ ^ 2 - 2 y_75_ * y_6_ + 1 y_75_ ^ 2 ] <= 28193.14
quadratic_ranged_338_ub: [ 1 x_19_ ^ 2 - 2 x_75_ * x_19_ + 1 x_75_ ^ 2 + 1 y_19_ ^ 2 - 2 y_75_ * y_19_ + 1 y_75_ ^ 2 ] <= 1435.21
quadratic_ranged_339_ub: [ 1 x_20_ ^ 2 - 2 x_75_ * x_20_ + 1 x_75_ ^ 2 + 1 y_20_ ^ 2 - 2 y_75_ * y_20_ + 1 y_75_ ^ 2 ] <= 19445.53
quadratic_ranged_340_ub: [ 1 x_24_ ^ 2 - 2 x_75_ * x_24_ + 1 x_75_ ^ 2 + 1 y_24_ ^ 2 - 2 y_75_ * y_24_ + 1 y_75_ ^ 2 ] <= 26996.29
quadratic_ranged_341_ub: [ 1 x_30_ ^ 2 - 2 x_75_ * x_30_ + 1 x_75_ ^ 2 + 1 y_30_ ^ 2 - 2 y_75_ * y_30_ + 1 y_75_ ^ 2 ] <= 7298.26
quadratic_ranged_342_ub: [ 1 x_31_ ^ 2 - 2 x_75_ * x_31_ + 1 x_75_ ^ 2 + 1 y_31_ ^ 2 - 2 y_75_ * y_31_ + 1 y_75_ ^ 2 ] <= 28167.89
quadratic_ranged_343_ub: [ 1 x_37_ ^ 2 - 2 x_75_ * x_37_ + 1 x_75_ ^ 2 + 1 y_37_ ^ 2 - 2 y_75_ * y_37_ + 1 y_75_ ^ 2 ] <= 34809.65
quadratic_ranged_344_ub: [ 1 x_45_ ^ 2 - 2 x_75_ * x_45_ + 1 x_75_ ^ 2 + 1 y_45_ ^ 2 - 2 y_75_ * y_45_ + 1 y_75_ ^ 2 ] <= 27522.5
quadratic_ranged_345_ub: [ 1 x_51_ ^ 2 - 2 x_75_ * x_51_ + 1 x_75_ ^ 2 + 1 y_51_ ^ 2 - 2 y_75_ * y_51_ + 1 y_75_ ^ 2 ] <= 43839.05
quadratic_ranged_346_ub: [ 1 x_54_ ^ 2 - 2 x_75_ * x_54_ + 1 x_75_ ^ 2 + 1 y_54_ ^ 2 - 2 y_75_ * y_54_ + 1 y_75_ ^ 2 ] <= 13530.97
quadratic_ranged_347_ub: [ 1 x_59_ ^ 2 - 2 x_75_ * x_59_ + 1 x_75_ ^ 2 + 1 y_59_ ^ 2 - 2 y_75_ * y_59_ + 1 y_75_ ^ 2 ] <= 5536.82
quadratic_ranged_348_ub: [ 1 x_61_ ^ 2 - 2 x_75_ * x_61_ + 1 x_75_ ^ 2 + 1 y_61_ ^ 2 - 2 y_75_ * y_61_ + 1 y_75_ ^ 2 ] <= 8534.5
quadratic_ranged_349_ub: [ 1 x_69_ ^ 2 - 2 x_75_ * x_69_ + 1 x_75_ ^ 2 + 1 y_69_ ^ 2 - 2 y_75_ * y_69_ + 1 y_75_ ^ 2 ] <= 3692.56
quadratic_ranged_350_ub: [ 1 x_74_ ^ 2 - 2 x_75_ * x_74_ + 1 x_75_ ^ 2 + 1 y_74_ ^ 2 - 2 y_75_ * y_74_ + 1 y_75_ ^ 2 ] <= 28515.33
quadratic_ranged_351_ub: [ 1 x_31_ ^ 2 - 2 x_76_ * x_31_ + 1 x_76_ ^ 2 + 1 y_31_ ^ 2 - 2 y_76_ * y_31_ + 1 y_76_ ^ 2 ] <= 42227.090000000004
quadratic_ranged_352_ub: [ 1 x_36_ ^ 2 - 2 x_76_ * x_36_ + 1 x_76_ ^ 2 + 1 y_36_ ^ 2 - 2 y_76_ * y_36_ + 1 y_76_ ^ 2 ] <= 6933.65
quadratic_ranged_353_ub: [ 1 x_42_ ^ 2 - 2 x_76_ * x_42_ + 1 x_76_ ^ 2 + 1 y_42_ ^ 2 - 2 y_76_ * y_42_ + 1 y_76_ ^ 2 ] <= 4979.3
quadratic_ranged_354_ub: [ 1 x_55_ ^ 2 - 2 x_76_ * x_55_ + 1 x_76_ ^ 2 + 1 y_55_ ^ 2 - 2 y_76_ * y_55_ + 1 y_76_ ^ 2 ] <= 21263.53
quadratic_ranged_355_ub: [ 1 x_72_ ^ 2 - 2 x_76_ * x_72_ + 1 x_76_ ^ 2 + 1 y_72_ ^ 2 - 2 y_76_ * y_72_ + 1 y_76_ ^ 2 ] <= 137.36
quadratic_ranged_356_ub: [ 1 x_75_ ^ 2 - 2 x_76_ * x_75_ + 1 x_76_ ^ 2 + 1 y_75_ ^ 2 - 2 y_76_ * y_75_ + 1 y_76_ ^ 2 ] <= 9673.78
quadratic_ranged_357_ub: [ 1 x_12_ ^ 2 - 2 x_77_ * x_12_ + 1 x_77_ ^ 2 + 1 y_12_ ^ 2 - 2 y_77_ * y_12_ + 1 y_77_ ^ 2 ] <= 15871.14
quadratic_ranged_358_ub: [ 1 x_20_ ^ 2 - 2 x_77_ * x_20_ + 1 x_77_ ^ 2 + 1 y_20_ ^ 2 - 2 y_77_ * y_20_ + 1 y_77_ ^ 2 ] <= 37637.65
quadratic_ranged_359_ub: [ 1 x_27_ ^ 2 - 2 x_77_ * x_27_ + 1 x_77_ ^ 2 + 1 y_27_ ^ 2 - 2 y_77_ * y_27_ + 1 y_77_ ^ 2 ] <= 37921.46
quadratic_ranged_360_ub: [ 1 x_29_ ^ 2 - 2 x_77_ * x_29_ + 1 x_77_ ^ 2 + 1 y_29_ ^ 2 - 2 y_77_ * y_29_ + 1 y_77_ ^ 2 ] <= 40869.65
quadratic_ranged_361_ub: [ 1 x_44_ ^ 2 - 2 x_77_ * x_44_ + 1 x_77_ ^ 2 + 1 y_44_ ^ 2 - 2 y_77_ * y_44_ + 1 y_77_ ^ 2 ] <= 38428.48
quadratic_ranged_362_ub: [ 1 x_49_ ^ 2 - 2 x_77_ * x_49_ + 1 x_77_ ^ 2 + 1 y_49_ ^ 2 - 2 y_77_ * y_49_ + 1 y_77_ ^ 2 ] <= 14855.08
quadratic_ranged_363_ub: [ 1 x_55_ ^ 2 - 2 x_77_ * x_55_ + 1 x_77_ ^ 2 + 1 y_55_ ^ 2 - 2 y_77_ * y_55_ + 1 y_77_ ^ 2 ] <= 21901.85
quadratic_ranged_364_ub: [ 1 x_67_ ^ 2 - 2 x_77_ * x_67_ + 1 x_77_ ^ 2 + 1 y_67_ ^ 2 - 2 y_77_ * y_67_ + 1 y_77_ ^ 2 ] <= 15530.77
quadratic_ranged_365_ub: [ 1 x_70_ ^ 2 - 2 x_77_ * x_70_ + 1 x_77_ ^ 2 + 1 y_70_ ^ 2 - 2 y_77_ * y_70_ + 1 y_77_ ^ 2 ] <= 26534.72
quadratic_ranged_366_ub: [ 1 x_74_ ^ 2 - 2 x_77_ * x_74_ + 1 x_77_ ^ 2 + 1 y_74_ ^ 2 - 2 y_77_ * y_74_ + 1 y_77_ ^ 2 ] <= 52258.41
quadratic_ranged_367_ub: [ 1 x_75_ ^ 2 - 2 x_77_ * x_75_ + 1 x_77_ ^ 2 + 1 y_75_ ^ 2 - 2 y_77_ * y_75_ + 1 y_77_ ^ 2 ] <= 30906
quadratic_ranged_368_ub: [ 1 x_76_ ^ 2 - 2 x_77_ * x_76_ + 1 x_77_ ^ 2 + 1 y_76_ ^ 2 - 2 y_77_ * y_76_ + 1 y_77_ ^ 2 ] <= 41622.1
quadratic_ranged_369_ub: [ 1 x_36_ ^ 2 - 2 x_78_ * x_36_ + 1 x_78_ ^ 2 + 1 y_36_ ^ 2 - 2 y_78_ * y_36_ + 1 y_78_ ^ 2 ] <= 22544.21
quadratic_ranged_370_ub: [ 1 x_43_ ^ 2 - 2 x_78_ * x_43_ + 1 x_78_ ^ 2 + 1 y_43_ ^ 2 - 2 y_78_ * y_43_ + 1 y_78_ ^ 2 ] <= 13140.1
quadratic_ranged_371_ub: [ 1 x_51_ ^ 2 - 2 x_78_ * x_51_ + 1 x_78_ ^ 2 + 1 y_51_ ^ 2 - 2 y_78_ * y_51_ + 1 y_78_ ^ 2 ] <= 21687.73
quadratic_ranged_372_ub: [ 1 x_55_ ^ 2 - 2 x_78_ * x_55_ + 1 x_78_ ^ 2 + 1 y_55_ ^ 2 - 2 y_78_ * y_55_ + 1 y_78_ ^ 2 ] <= 20548.45
quadratic_ranged_373_ub: [ 1 x_74_ ^ 2 - 2 x_78_ * x_74_ + 1 x_78_ ^ 2 + 1 y_74_ ^ 2 - 2 y_78_ * y_74_ + 1 y_78_ ^ 2 ] <= 48279.01
quadratic_ranged_374_ub: [ 1 x_76_ ^ 2 - 2 x_78_ * x_76_ + 1 x_78_ ^ 2 + 1 y_76_ ^ 2 - 2 y_78_ * y_76_ + 1 y_78_ ^ 2 ] <= 37430.6
quadratic_ranged_375_ub: [ 1 x_77_ ^ 2 - 2 x_78_ * x_77_ + 1 x_78_ ^ 2 + 1 y_77_ ^ 2 - 2 y_78_ * y_77_ + 1 y_78_ ^ 2 ] <= 123.22
quadratic_ranged_376_ub: [ 1 x_18_ ^ 2 - 2 x_79_ * x_18_ + 1 x_79_ ^ 2 + 1 y_18_ ^ 2 - 2 y_79_ * y_18_ + 1 y_79_ ^ 2 ] <= 9698.02
quadratic_ranged_377_ub: [ 1 x_20_ ^ 2 - 2 x_79_ * x_20_ + 1 x_79_ ^ 2 + 1 y_20_ ^ 2 - 2 y_79_ * y_20_ + 1 y_79_ ^ 2 ] <= 12130.1
quadratic_ranged_378_ub: [ 1 x_27_ ^ 2 - 2 x_79_ * x_27_ + 1 x_79_ ^ 2 + 1 y_27_ ^ 2 - 2 y_79_ * y_27_ + 1 y_79_ ^ 2 ] <= 14993.45
quadratic_ranged_379_ub: [ 1 x_49_ ^ 2 - 2 x_79_ * x_49_ + 1 x_79_ ^ 2 + 1 y_49_ ^ 2 - 2 y_79_ * y_49_ + 1 y_79_ ^ 2 ] <= 328.25
quadratic_ranged_380_ub: [ 1 x_59_ ^ 2 - 2 x_79_ * x_59_ + 1 x_79_ ^ 2 + 1 y_59_ ^ 2 - 2 y_79_ * y_59_ + 1 y_79_ ^ 2 ] <= 3762.25
quadratic_ranged_381_ub: [ 1 x_76_ ^ 2 - 2 x_79_ * x_76_ + 1 x_79_ ^ 2 + 1 y_76_ ^ 2 - 2 y_79_ * y_76_ + 1 y_79_ ^ 2 ] <= 10751.45
quadratic_ranged_382_ub: [ 1 x_78_ ^ 2 - 2 x_79_ * x_78_ + 1 x_79_ ^ 2 + 1 y_78_ ^ 2 - 2 y_79_ * y_78_ + 1 y_79_ ^ 2 ] <= 8626.41
quadratic_ranged_383_ub: [ 1 x_2_ ^ 2 - 2 x_80_ * x_2_ + 1 x_80_ ^ 2 + 1 y_2_ ^ 2 - 2 y_80_ * y_2_ + 1 y_80_ ^ 2 ] <= 12205.85
quadratic_ranged_384_ub: [ 1 x_22_ ^ 2 - 2 x_80_ * x_22_ + 1 x_80_ ^ 2 + 1 y_22_ ^ 2 - 2 y_80_ * y_22_ + 1 y_80_ ^ 2 ] <= 9409.16
quadratic_ranged_385_ub: [ 1 x_27_ ^ 2 - 2 x_80_ * x_27_ + 1 x_80_ ^ 2 + 1 y_27_ ^ 2 - 2 y_80_ * y_27_ + 1 y_80_ ^ 2 ] <= 6781.14
quadratic_ranged_386_ub: [ 1 x_30_ ^ 2 - 2 x_80_ * x_30_ + 1 x_80_ ^ 2 + 1 y_30_ ^ 2 - 2 y_80_ * y_30_ + 1 y_80_ ^ 2 ] <= 14893.460000000001
quadratic_ranged_387_ub: [ 1 x_45_ ^ 2 - 2 x_80_ * x_45_ + 1 x_80_ ^ 2 + 1 y_45_ ^ 2 - 2 y_80_ * y_45_ + 1 y_80_ ^ 2 ] <= 16929.62
quadratic_ranged_388_ub: [ 1 x_46_ ^ 2 - 2 x_80_ * x_46_ + 1 x_80_ ^ 2 + 1 y_46_ ^ 2 - 2 y_80_ * y_46_ + 1 y_80_ ^ 2 ] <= 14035.97
quadratic_ranged_389_ub: [ 1 x_49_ ^ 2 - 2 x_80_ * x_49_ + 1 x_80_ ^ 2 + 1 y_49_ ^ 2 - 2 y_80_ * y_49_ + 1 y_80_ ^ 2 ] <= 9542.48
quadratic_ranged_390_ub: [ 1 x_60_ ^ 2 - 2 x_80_ * x_60_ + 1 x_80_ ^ 2 + 1 y_60_ ^ 2 - 2 y_80_ * y_60_ + 1 y_80_ ^ 2 ] <= 395.92
quadratic_ranged_391_ub: [ 1 x_68_ ^ 2 - 2 x_80_ * x_68_ + 1 x_80_ ^ 2 + 1 y_68_ ^ 2 - 2 y_80_ * y_68_ + 1 y_80_ ^ 2 ] <= 20229.29
quadratic_ranged_392_ub: [ 1 x_69_ ^ 2 - 2 x_80_ * x_69_ + 1 x_80_ ^ 2 + 1 y_69_ ^ 2 - 2 y_80_ * y_69_ + 1 y_80_ ^ 2 ] <= 11994.76
quadratic_ranged_393_ub: [ 1 x_70_ ^ 2 - 2 x_80_ * x_70_ + 1 x_80_ ^ 2 + 1 y_70_ ^ 2 - 2 y_80_ * y_70_ + 1 y_80_ ^ 2 ] <= 13190.6
quadratic_ranged_394_ub: [ 1 x_79_ ^ 2 - 2 x_80_ * x_79_ + 1 x_80_ ^ 2 + 1 y_79_ ^ 2 - 2 y_80_ * y_79_ + 1 y_80_ ^ 2 ] <= 8824.37
quadratic_ranged_395_ub: [ 1 x_6_ ^ 2 - 2 x_81_ * x_6_ + 1 x_81_ ^ 2 + 1 y_6_ ^ 2 - 2 y_81_ * y_6_ + 1 y_81_ ^ 2 ] <= 32825
quadratic_ranged_396_ub: [ 1 x_24_ ^ 2 - 2 x_81_ * x_24_ + 1 x_81_ ^ 2 + 1 y_24_ ^ 2 - 2 y_81_ * y_24_ + 1 y_81_ ^ 2 ] <= 25865.09
quadratic_ranged_397_ub: [ 1 x_35_ ^ 2 - 2 x_81_ * x_35_ + 1 x_81_ ^ 2 + 1 y_35_ ^ 2 - 2 y_81_ * y_35_ + 1 y_81_ ^ 2 ] <= 23517.85
quadratic_ranged_398_ub: [ 1 x_37_ ^ 2 - 2 x_81_ * x_37_ + 1 x_81_ ^ 2 + 1 y_37_ ^ 2 - 2 y_81_ * y_37_ + 1 y_81_ ^ 2 ] <= 21905.89
quadratic_ranged_399_ub: [ 1 x_40_ ^ 2 - 2 x_81_ * x_40_ + 1 x_81_ ^ 2 + 1 y_40_ ^ 2 - 2 y_81_ * y_40_ + 1 y_81_ ^ 2 ] <= 26378.170000000002
quadratic_ranged_400_ub: [ 1 x_48_ ^ 2 - 2 x_81_ * x_48_ + 1 x_81_ ^ 2 + 1 y_48_ ^ 2 - 2 y_81_ * y_48_ + 1 y_81_ ^ 2 ] <= 179.78
quadratic_ranged_401_ub: [ 1 x_49_ ^ 2 - 2 x_81_ * x_49_ + 1 x_81_ ^ 2 + 1 y_49_ ^ 2 - 2 y_81_ * y_49_ + 1 y_81_ ^ 2 ] <= 3767.3
quadratic_ranged_402_ub: [ 1 x_63_ ^ 2 - 2 x_81_ * x_63_ + 1 x_81_ ^ 2 + 1 y_63_ ^ 2 - 2 y_81_ * y_63_ + 1 y_81_ ^ 2 ] <= 20929.22
quadratic_ranged_403_ub: [ 1 x_72_ ^ 2 - 2 x_81_ * x_72_ + 1 x_81_ ^ 2 + 1 y_72_ ^ 2 - 2 y_81_ * y_72_ + 1 y_81_ ^ 2 ] <= 1656.4
quadratic_ranged_404_ub: [ 1 x_79_ ^ 2 - 2 x_81_ * x_79_ + 1 x_81_ ^ 2 + 1 y_79_ ^ 2 - 2 y_81_ * y_79_ + 1 y_81_ ^ 2 ] <= 6226.65
quadratic_ranged_405_ub: [ 1 x_80_ ^ 2 - 2 x_81_ * x_80_ + 1 x_81_ ^ 2 + 1 y_80_ ^ 2 - 2 y_81_ * y_80_ + 1 y_81_ ^ 2 ] <= 19983.86
quadratic_ranged_406_ub: [ 1 x_1_ ^ 2 - 2 x_82_ * x_1_ + 1 x_82_ ^ 2 + 1 y_1_ ^ 2 - 2 y_82_ * y_1_ + 1 y_82_ ^ 2 ] <= 1479.65
quadratic_ranged_407_ub: [ 1 x_5_ ^ 2 - 2 x_82_ * x_5_ + 1 x_82_ ^ 2 + 1 y_5_ ^ 2 - 2 y_82_ * y_5_ + 1 y_82_ ^ 2 ] <= 4146.05
quadratic_ranged_408_ub: [ 1 x_29_ ^ 2 - 2 x_82_ * x_29_ + 1 x_82_ ^ 2 + 1 y_29_ ^ 2 - 2 y_82_ * y_29_ + 1 y_82_ ^ 2 ] <= 7322.5
quadratic_ranged_409_ub: [ 1 x_39_ ^ 2 - 2 x_82_ * x_39_ + 1 x_82_ ^ 2 + 1 y_39_ ^ 2 - 2 y_82_ * y_39_ + 1 y_82_ ^ 2 ] <= 16730.65
quadratic_ranged_410_ub: [ 1 x_55_ ^ 2 - 2 x_82_ * x_55_ + 1 x_82_ ^ 2 + 1 y_55_ ^ 2 - 2 y_82_ * y_55_ + 1 y_82_ ^ 2 ] <= 4252.1
quadratic_ranged_411_ub: [ 1 x_66_ ^ 2 - 2 x_82_ * x_66_ + 1 x_82_ ^ 2 + 1 y_66_ ^ 2 - 2 y_82_ * y_66_ + 1 y_82_ ^ 2 ] <= 3863.25
quadratic_ranged_412_ub: [ 1 x_75_ ^ 2 - 2 x_82_ * x_75_ + 1 x_82_ ^ 2 + 1 y_75_ ^ 2 - 2 y_82_ * y_75_ + 1 y_82_ ^ 2 ] <= 17700.25
quadratic_ranged_413_ub: [ 1 x_81_ ^ 2 - 2 x_82_ * x_81_ + 1 x_82_ ^ 2 + 1 y_81_ ^ 2 - 2 y_82_ * y_81_ + 1 y_82_ ^ 2 ] <= 11349.37
quadratic_ranged_414_ub: [ 1 x_15_ ^ 2 - 2 x_83_ * x_15_ + 1 x_83_ ^ 2 + 1 y_15_ ^ 2 - 2 y_83_ * y_15_ + 1 y_83_ ^ 2 ] <= 34051.14
quadratic_ranged_415_ub: [ 1 x_17_ ^ 2 - 2 x_83_ * x_17_ + 1 x_83_ ^ 2 + 1 y_17_ ^ 2 - 2 y_83_ * y_17_ + 1 y_83_ ^ 2 ] <= 9369.77
quadratic_ranged_416_ub: [ 1 x_21_ ^ 2 - 2 x_83_ * x_21_ + 1 x_83_ ^ 2 + 1 y_21_ ^ 2 - 2 y_83_ * y_21_ + 1 y_83_ ^ 2 ] <= 986.77
quadratic_ranged_417_ub: [ 1 x_24_ ^ 2 - 2 x_83_ * x_24_ + 1 x_83_ ^ 2 + 1 y_24_ ^ 2 - 2 y_83_ * y_24_ + 1 y_83_ ^ 2 ] <= 8372.9
quadratic_ranged_418_ub: [ 1 x_43_ ^ 2 - 2 x_83_ * x_43_ + 1 x_83_ ^ 2 + 1 y_43_ ^ 2 - 2 y_83_ * y_43_ + 1 y_83_ ^ 2 ] <= 9672.77
quadratic_ranged_419_ub: [ 1 x_45_ ^ 2 - 2 x_83_ * x_45_ + 1 x_83_ ^ 2 + 1 y_45_ ^ 2 - 2 y_83_ * y_45_ + 1 y_83_ ^ 2 ] <= 5115.65
quadratic_ranged_420_ub: [ 1 x_46_ ^ 2 - 2 x_83_ * x_46_ + 1 x_83_ ^ 2 + 1 y_46_ ^ 2 - 2 y_83_ * y_46_ + 1 y_83_ ^ 2 ] <= 2118.98
quadratic_ranged_421_ub: [ 1 x_80_ ^ 2 - 2 x_83_ * x_80_ + 1 x_83_ ^ 2 + 1 y_80_ ^ 2 - 2 y_83_ * y_80_ + 1 y_83_ ^ 2 ] <= 20912.05
quadratic_ranged_422_ub: [ 1 x_82_ ^ 2 - 2 x_83_ * x_82_ + 1 x_83_ ^ 2 + 1 y_82_ ^ 2 - 2 y_83_ * y_82_ + 1 y_83_ ^ 2 ] <= 13907.7
quadratic_ranged_423_ub: [ 1 x_56_ ^ 2 - 2 x_84_ * x_56_ + 1 x_84_ ^ 2 + 1 y_56_ ^ 2 - 2 y_84_ * y_56_ + 1 y_84_ ^ 2 ] <= 36562
quadratic_ranged_424_ub: [ 1 x_57_ ^ 2 - 2 x_84_ * x_57_ + 1 x_84_ ^ 2 + 1 y_57_ ^ 2 - 2 y_84_ * y_57_ + 1 y_84_ ^ 2 ] <= 17720.45
quadratic_ranged_425_ub: [ 1 x_67_ ^ 2 - 2 x_84_ * x_67_ + 1 x_84_ ^ 2 + 1 y_67_ ^ 2 - 2 y_84_ * y_67_ + 1 y_84_ ^ 2 ] <= 24290.5
quadratic_ranged_426_ub: [ 1 x_83_ ^ 2 - 2 x_84_ * x_83_ + 1 x_84_ ^ 2 + 1 y_83_ ^ 2 - 2 y_84_ * y_83_ + 1 y_84_ ^ 2 ] <= 1179.68
quadratic_ranged_427_ub: [ 1 x_18_ ^ 2 - 2 x_85_ * x_18_ + 1 x_85_ ^ 2 + 1 y_18_ ^ 2 - 2 y_85_ * y_18_ + 1 y_85_ ^ 2 ] <= 17700.25
quadratic_ranged_428_ub: [ 1 x_39_ ^ 2 - 2 x_85_ * x_39_ + 1 x_85_ ^ 2 + 1 y_39_ ^ 2 - 2 y_85_ * y_39_ + 1 y_85_ ^ 2 ] <= 3363.3
quadratic_ranged_429_ub: [ 1 x_48_ ^ 2 - 2 x_85_ * x_48_ + 1 x_85_ ^ 2 + 1 y_48_ ^ 2 - 2 y_85_ * y_48_ + 1 y_85_ ^ 2 ] <= 11984.66
quadratic_ranged_430_ub: [ 1 x_49_ ^ 2 - 2 x_85_ * x_49_ + 1 x_85_ ^ 2 + 1 y_49_ ^ 2 - 2 y_85_ * y_49_ + 1 y_85_ ^ 2 ] <= 4300.58
quadratic_ranged_431_ub: [ 1 x_80_ ^ 2 - 2 x_85_ * x_80_ + 1 x_85_ ^ 2 + 1 y_80_ ^ 2 - 2 y_85_ * y_80_ + 1 y_85_ ^ 2 ] <= 21777.62
quadratic_ranged_432_ub: [ 1 x_84_ ^ 2 - 2 x_85_ * x_84_ + 1 x_85_ ^ 2 + 1 y_84_ ^ 2 - 2 y_85_ * y_84_ + 1 y_85_ ^ 2 ] <= 3382.4900000000002
quadratic_ranged_433_ub: [ 1 x_3_ ^ 2 - 2 x_86_ * x_3_ + 1 x_86_ ^ 2 + 1 y_3_ ^ 2 - 2 y_86_ * y_3_ + 1 y_86_ ^ 2 ] <= 995.86
quadratic_ranged_434_ub: [ 1 x_6_ ^ 2 - 2 x_86_ * x_6_ + 1 x_86_ ^ 2 + 1 y_6_ ^ 2 - 2 y_86_ * y_6_ + 1 y_86_ ^ 2 ] <= 14172.32
quadratic_ranged_435_ub: [ 1 x_7_ ^ 2 - 2 x_86_ * x_7_ + 1 x_86_ ^ 2 + 1 y_7_ ^ 2 - 2 y_86_ * y_7_ + 1 y_86_ ^ 2 ] <= 17170
quadratic_ranged_436_ub: [ 1 x_20_ ^ 2 - 2 x_86_ * x_20_ + 1 x_86_ ^ 2 + 1 y_20_ ^ 2 - 2 y_86_ * y_20_ + 1 y_86_ ^ 2 ] <= 15470.17
quadratic_ranged_437_ub: [ 1 x_46_ ^ 2 - 2 x_86_ * x_46_ + 1 x_86_ ^ 2 + 1 y_46_ ^ 2 - 2 y_86_ * y_46_ + 1 y_86_ ^ 2 ] <= 10779.73
quadratic_ranged_438_ub: [ 1 x_54_ ^ 2 - 2 x_86_ * x_54_ + 1 x_86_ ^ 2 + 1 y_54_ ^ 2 - 2 y_86_ * y_54_ + 1 y_86_ ^ 2 ] <= 5297.45
quadratic_ranged_439_ub: [ 1 x_73_ ^ 2 - 2 x_86_ * x_73_ + 1 x_86_ ^ 2 + 1 y_73_ ^ 2 - 2 y_86_ * y_73_ + 1 y_86_ ^ 2 ] <= 16711.46
quadratic_ranged_440_ub: [ 1 x_85_ ^ 2 - 2 x_86_ * x_85_ + 1 x_86_ ^ 2 + 1 y_85_ ^ 2 - 2 y_86_ * y_85_ + 1 y_86_ ^ 2 ] <= 21496.84
quadratic_ranged_441_ub: [ 1 x_3_ ^ 2 - 2 x_87_ * x_3_ + 1 x_87_ ^ 2 + 1 y_3_ ^ 2 - 2 y_87_ * y_3_ + 1 y_87_ ^ 2 ] <= 11680.65
quadratic_ranged_442_ub: [ 1 x_18_ ^ 2 - 2 x_87_ * x_18_ + 1 x_87_ ^ 2 + 1 y_18_ ^ 2 - 2 y_87_ * y_18_ + 1 y_87_ ^ 2 ] <= 9512.18
quadratic_ranged_443_ub: [ 1 x_27_ ^ 2 - 2 x_87_ * x_27_ + 1 x_87_ ^ 2 + 1 y_27_ ^ 2 - 2 y_87_ * y_27_ + 1 y_87_ ^ 2 ] <= 15611.57
quadratic_ranged_444_ub: [ 1 x_36_ ^ 2 - 2 x_87_ * x_36_ + 1 x_87_ ^ 2 + 1 y_36_ ^ 2 - 2 y_87_ * y_36_ + 1 y_87_ ^ 2 ] <= 8694.08
quadratic_ranged_445_ub: [ 1 x_48_ ^ 2 - 2 x_87_ * x_48_ + 1 x_87_ ^ 2 + 1 y_48_ ^ 2 - 2 y_87_ * y_48_ + 1 y_87_ ^ 2 ] <= 6570.05
quadratic_ranged_446_ub: [ 1 x_49_ ^ 2 - 2 x_87_ * x_49_ + 1 x_87_ ^ 2 + 1 y_49_ ^ 2 - 2 y_87_ * y_49_ + 1 y_87_ ^ 2 ] <= 429.25
quadratic_ranged_447_ub: [ 1 x_72_ ^ 2 - 2 x_87_ * x_72_ + 1 x_87_ ^ 2 + 1 y_72_ ^ 2 - 2 y_87_ * y_72_ + 1 y_87_ ^ 2 ] <= 11349.37
quadratic_ranged_448_ub: [ 1 x_78_ ^ 2 - 2 x_87_ * x_78_ + 1 x_87_ ^ 2 + 1 y_78_ ^ 2 - 2 y_87_ * y_78_ + 1 y_87_ ^ 2 ] <= 8186.05
quadratic_ranged_449_ub: [ 1 x_86_ ^ 2 - 2 x_87_ * x_86_ + 1 x_87_ ^ 2 + 1 y_86_ ^ 2 - 2 y_87_ * y_86_ + 1 y_87_ ^ 2 ] <= 10052.53
quadratic_ranged_450_ub: [ 1 x_5_ ^ 2 - 2 x_88_ * x_5_ + 1 x_88_ ^ 2 + 1 y_5_ ^ 2 - 2 y_88_ * y_5_ + 1 y_88_ ^ 2 ] <= 22451.29
quadratic_ranged_451_ub: [ 1 x_16_ ^ 2 - 2 x_88_ * x_16_ + 1 x_88_ ^ 2 + 1 y_16_ ^ 2 - 2 y_88_ * y_16_ + 1 y_88_ ^ 2 ] <= 25795.4
quadratic_ranged_452_ub: [ 1 x_33_ ^ 2 - 2 x_88_ * x_33_ + 1 x_88_ ^ 2 + 1 y_33_ ^ 2 - 2 y_88_ * y_33_ + 1 y_88_ ^ 2 ] <= 17751.76
quadratic_ranged_453_ub: [ 1 x_34_ ^ 2 - 2 x_88_ * x_34_ + 1 x_88_ ^ 2 + 1 y_34_ ^ 2 - 2 y_88_ * y_34_ + 1 y_88_ ^ 2 ] <= 9248.57
quadratic_ranged_454_ub: [ 1 x_36_ ^ 2 - 2 x_88_ * x_36_ + 1 x_88_ ^ 2 + 1 y_36_ ^ 2 - 2 y_88_ * y_36_ + 1 y_88_ ^ 2 ] <= 26771.06
quadratic_ranged_455_ub: [ 1 x_40_ ^ 2 - 2 x_88_ * x_40_ + 1 x_88_ ^ 2 + 1 y_40_ ^ 2 - 2 y_88_ * y_40_ + 1 y_88_ ^ 2 ] <= 11946.28
quadratic_ranged_456_ub: [ 1 x_60_ ^ 2 - 2 x_88_ * x_60_ + 1 x_88_ ^ 2 + 1 y_60_ ^ 2 - 2 y_88_ * y_60_ + 1 y_88_ ^ 2 ] <= 29076.89
quadratic_ranged_457_ub: [ 1 x_75_ ^ 2 - 2 x_88_ * x_75_ + 1 x_88_ ^ 2 + 1 y_75_ ^ 2 - 2 y_88_ * y_75_ + 1 y_88_ ^ 2 ] <= 10549.45
quadratic_ranged_458_ub: [ 1 x_82_ ^ 2 - 2 x_88_ * x_82_ + 1 x_88_ ^ 2 + 1 y_82_ ^ 2 - 2 y_88_ * y_82_ + 1 y_88_ ^ 2 ] <= 16372.1
quadratic_ranged_459_ub: [ 1 x_83_ ^ 2 - 2 x_88_ * x_83_ + 1 x_88_ ^ 2 + 1 y_83_ ^ 2 - 2 y_88_ * y_83_ + 1 y_88_ ^ 2 ] <= 101
quadratic_ranged_460_ub: [ 1 x_87_ ^ 2 - 2 x_88_ * x_87_ + 1 x_88_ ^ 2 + 1 y_87_ ^ 2 - 2 y_88_ * y_87_ + 1 y_88_ ^ 2 ] <= 5068.18
quadratic_ranged_461_ub: [ 1 x_2_ ^ 2 - 2 x_89_ * x_2_ + 1 x_89_ ^ 2 + 1 y_2_ ^ 2 - 2 y_89_ * y_2_ + 1 y_89_ ^ 2 ] <= 14091.52
quadratic_ranged_462_ub: [ 1 x_19_ ^ 2 - 2 x_89_ * x_19_ + 1 x_89_ ^ 2 + 1 y_19_ ^ 2 - 2 y_89_ * y_19_ + 1 y_89_ ^ 2 ] <= 4395.52
quadratic_ranged_463_ub: [ 1 x_26_ ^ 2 - 2 x_89_ * x_26_ + 1 x_89_ ^ 2 + 1 y_26_ ^ 2 - 2 y_89_ * y_26_ + 1 y_89_ ^ 2 ] <= 8836.49
quadratic_ranged_464_ub: [ 1 x_58_ ^ 2 - 2 x_89_ * x_58_ + 1 x_89_ ^ 2 + 1 y_58_ ^ 2 - 2 y_89_ * y_58_ + 1 y_89_ ^ 2 ] <= 9006.17
quadratic_ranged_465_ub: [ 1 x_88_ ^ 2 - 2 x_89_ * x_88_ + 1 x_89_ ^ 2 + 1 y_88_ ^ 2 - 2 y_89_ * y_88_ + 1 y_89_ ^ 2 ] <= 13794.58
quadratic_ranged_466_ub: [ 1 x_2_ ^ 2 - 2 x_90_ * x_2_ + 1 x_90_ ^ 2 + 1 y_2_ ^ 2 - 2 y_90_ * y_2_ + 1 y_90_ ^ 2 ] <= 18236.56
quadratic_ranged_467_ub: [ 1 x_13_ ^ 2 - 2 x_90_ * x_13_ + 1 x_90_ ^ 2 + 1 y_13_ ^ 2 - 2 y_90_ * y_13_ + 1 y_90_ ^ 2 ] <= 3285.53
quadratic_ranged_468_ub: [ 1 x_14_ ^ 2 - 2 x_90_ * x_14_ + 1 x_90_ ^ 2 + 1 y_14_ ^ 2 - 2 y_90_ * y_14_ + 1 y_90_ ^ 2 ] <= 4334.92
quadratic_ranged_469_ub: [ 1 x_22_ ^ 2 - 2 x_90_ * x_22_ + 1 x_90_ ^ 2 + 1 y_22_ ^ 2 - 2 y_90_ * y_22_ + 1 y_90_ ^ 2 ] <= 12678.53
quadratic_ranged_470_ub: [ 1 x_25_ ^ 2 - 2 x_90_ * x_25_ + 1 x_90_ ^ 2 + 1 y_25_ ^ 2 - 2 y_90_ * y_25_ + 1 y_90_ ^ 2 ] <= 17.17
quadratic_ranged_471_ub: [ 1 x_42_ ^ 2 - 2 x_90_ * x_42_ + 1 x_90_ ^ 2 + 1 y_42_ ^ 2 - 2 y_90_ * y_42_ + 1 y_90_ ^ 2 ] <= 14149.09
quadratic_ranged_472_ub: [ 1 x_44_ ^ 2 - 2 x_90_ * x_44_ + 1 x_90_ ^ 2 + 1 y_44_ ^ 2 - 2 y_90_ * y_44_ + 1 y_90_ ^ 2 ] <= 39831.37
quadratic_ranged_473_ub: [ 1 x_61_ ^ 2 - 2 x_90_ * x_61_ + 1 x_90_ ^ 2 + 1 y_61_ ^ 2 - 2 y_90_ * y_61_ + 1 y_90_ ^ 2 ] <= 20051.53
quadratic_ranged_474_ub: [ 1 x_62_ ^ 2 - 2 x_90_ * x_62_ + 1 x_90_ ^ 2 + 1 y_62_ ^ 2 - 2 y_90_ * y_62_ + 1 y_90_ ^ 2 ] <= 6904.36
quadratic_ranged_475_ub: [ 1 x_72_ ^ 2 - 2 x_90_ * x_72_ + 1 x_90_ ^ 2 + 1 y_72_ ^ 2 - 2 y_90_ * y_72_ + 1 y_90_ ^ 2 ] <= 39003.17
quadratic_ranged_476_ub: [ 1 x_79_ ^ 2 - 2 x_90_ * x_79_ + 1 x_90_ ^ 2 + 1 y_79_ ^ 2 - 2 y_90_ * y_79_ + 1 y_90_ ^ 2 ] <= 22139.2
quadratic_ranged_477_ub: [ 1 x_83_ ^ 2 - 2 x_90_ * x_83_ + 1 x_90_ ^ 2 + 1 y_83_ ^ 2 - 2 y_90_ * y_83_ + 1 y_90_ ^ 2 ] <= 35465.14
quadratic_ranged_478_ub: [ 1 x_84_ ^ 2 - 2 x_90_ * x_84_ + 1 x_90_ ^ 2 + 1 y_84_ ^ 2 - 2 y_90_ * y_84_ + 1 y_90_ ^ 2 ] <= 28071.94
quadratic_ranged_479_ub: [ 1 x_89_ ^ 2 - 2 x_90_ * x_89_ + 1 x_90_ ^ 2 + 1 y_89_ ^ 2 - 2 y_90_ * y_89_ + 1 y_90_ ^ 2 ] <= 19270.8
quadratic_ranged_480_ub: [ 1 x_2_ ^ 2 - 2 x_91_ * x_2_ + 1 x_91_ ^ 2 + 1 y_2_ ^ 2 - 2 y_91_ * y_2_ + 1 y_91_ ^ 2 ] <= 29876.81
quadratic_ranged_481_ub: [ 1 x_4_ ^ 2 - 2 x_91_ * x_4_ + 1 x_91_ ^ 2 + 1 y_4_ ^ 2 - 2 y_91_ * y_4_ + 1 y_91_ ^ 2 ] <= 22704.8
quadratic_ranged_482_ub: [ 1 x_13_ ^ 2 - 2 x_91_ * x_13_ + 1 x_91_ ^ 2 + 1 y_13_ ^ 2 - 2 y_91_ * y_13_ + 1 y_91_ ^ 2 ] <= 45944.9
quadratic_ranged_483_ub: [ 1 x_30_ ^ 2 - 2 x_91_ * x_30_ + 1 x_91_ ^ 2 + 1 y_30_ ^ 2 - 2 y_91_ * y_30_ + 1 y_91_ ^ 2 ] <= 11881.64
quadratic_ranged_484_ub: [ 1 x_36_ ^ 2 - 2 x_91_ * x_36_ + 1 x_91_ ^ 2 + 1 y_36_ ^ 2 - 2 y_91_ * y_36_ + 1 y_91_ ^ 2 ] <= 29173.85
quadratic_ranged_485_ub: [ 1 x_40_ ^ 2 - 2 x_91_ * x_40_ + 1 x_91_ ^ 2 + 1 y_40_ ^ 2 - 2 y_91_ * y_40_ + 1 y_91_ ^ 2 ] <= 35637.85
quadratic_ranged_486_ub: [ 1 x_46_ ^ 2 - 2 x_91_ * x_46_ + 1 x_91_ ^ 2 + 1 y_46_ ^ 2 - 2 y_91_ * y_46_ + 1 y_91_ ^ 2 ] <= 22499.77
quadratic_ranged_487_ub: [ 1 x_58_ ^ 2 - 2 x_91_ * x_58_ + 1 x_91_ ^ 2 + 1 y_58_ ^ 2 - 2 y_91_ * y_58_ + 1 y_91_ ^ 2 ] <= 33128
quadratic_ranged_488_ub: [ 1 x_61_ ^ 2 - 2 x_91_ * x_61_ + 1 x_91_ ^ 2 + 1 y_61_ ^ 2 - 2 y_91_ * y_61_ + 1 y_91_ ^ 2 ] <= 13905.68
quadratic_ranged_489_ub: [ 1 x_79_ ^ 2 - 2 x_91_ * x_79_ + 1 x_91_ ^ 2 + 1 y_79_ ^ 2 - 2 y_91_ * y_79_ + 1 y_91_ ^ 2 ] <= 11135.25
quadratic_ranged_490_ub: [ 1 x_80_ ^ 2 - 2 x_91_ * x_80_ + 1 x_91_ ^ 2 + 1 y_80_ ^ 2 - 2 y_91_ * y_80_ + 1 y_91_ ^ 2 ] <= 37606.340000000004
quadratic_ranged_491_ub: [ 1 x_90_ ^ 2 - 2 x_91_ * x_90_ + 1 x_91_ ^ 2 + 1 y_90_ ^ 2 - 2 y_91_ * y_90_ + 1 y_91_ ^ 2 ] <= 63647.17
quadratic_ranged_492_ub: [ 1 x_4_ ^ 2 - 2 x_92_ * x_4_ + 1 x_92_ ^ 2 + 1 y_4_ ^ 2 - 2 y_92_ * y_4_ + 1 y_92_ ^ 2 ] <= 6312.5
quadratic_ranged_493_ub: [ 1 x_5_ ^ 2 - 2 x_92_ * x_5_ + 1 x_92_ ^ 2 + 1 y_5_ ^ 2 - 2 y_92_ * y_5_ + 1 y_92_ ^ 2 ] <= 10602.98
quadratic_ranged_494_ub: [ 1 x_7_ ^ 2 - 2 x_92_ * x_7_ + 1 x_92_ ^ 2 + 1 y_7_ ^ 2 - 2 y_92_ * y_7_ + 1 y_92_ ^ 2 ] <= 236.34
quadratic_ranged_495_ub: [ 1 x_19_ ^ 2 - 2 x_92_ * x_19_ + 1 x_92_ ^ 2 + 1 y_19_ ^ 2 - 2 y_92_ * y_19_ + 1 y_92_ ^ 2 ] <= 635.29
quadratic_ranged_496_ub: [ 1 x_21_ ^ 2 - 2 x_92_ * x_21_ + 1 x_92_ ^ 2 + 1 y_21_ ^ 2 - 2 y_92_ * y_21_ + 1 y_92_ ^ 2 ] <= 5827.7
quadratic_ranged_497_ub: [ 1 x_36_ ^ 2 - 2 x_92_ * x_36_ + 1 x_92_ ^ 2 + 1 y_36_ ^ 2 - 2 y_92_ * y_36_ + 1 y_92_ ^ 2 ] <= 16060.01
quadratic_ranged_498_ub: [ 1 x_66_ ^ 2 - 2 x_92_ * x_66_ + 1 x_92_ ^ 2 + 1 y_66_ ^ 2 - 2 y_92_ * y_66_ + 1 y_92_ ^ 2 ] <= 3347.14
quadratic_ranged_499_ub: [ 1 x_69_ ^ 2 - 2 x_92_ * x_69_ + 1 x_92_ ^ 2 + 1 y_69_ ^ 2 - 2 y_92_ * y_69_ + 1 y_92_ ^ 2 ] <= 2718.92
quadratic_ranged_500_ub: [ 1 x_77_ ^ 2 - 2 x_92_ * x_77_ + 1 x_92_ ^ 2 + 1 y_77_ ^ 2 - 2 y_92_ * y_77_ + 1 y_92_ ^ 2 ] <= 13788.52
quadratic_ranged_501_ub: [ 1 x_78_ ^ 2 - 2 x_92_ * x_78_ + 1 x_92_ ^ 2 + 1 y_78_ ^ 2 - 2 y_92_ * y_78_ + 1 y_92_ ^ 2 ] <= 11362.5
quadratic_ranged_502_ub: [ 1 x_82_ ^ 2 - 2 x_92_ * x_82_ + 1 x_92_ ^ 2 + 1 y_82_ ^ 2 - 2 y_92_ * y_82_ + 1 y_92_ ^ 2 ] <= 9894.97
quadratic_ranged_503_ub: [ 1 x_85_ ^ 2 - 2 x_92_ * x_85_ + 1 x_92_ ^ 2 + 1 y_85_ ^ 2 - 2 y_92_ * y_85_ + 1 y_92_ ^ 2 ] <= 672.66
quadratic_ranged_504_ub: [ 1 x_91_ ^ 2 - 2 x_92_ * x_91_ + 1 x_92_ ^ 2 + 1 y_91_ ^ 2 - 2 y_92_ * y_91_ + 1 y_92_ ^ 2 ] <= 5544.9
quadratic_ranged_505_ub: [ 1 x_6_ ^ 2 - 2 x_93_ * x_6_ + 1 x_93_ ^ 2 + 1 y_6_ ^ 2 - 2 y_93_ * y_6_ + 1 y_93_ ^ 2 ] <= 1373.6
quadratic_ranged_506_ub: [ 1 x_19_ ^ 2 - 2 x_93_ * x_19_ + 1 x_93_ ^ 2 + 1 y_19_ ^ 2 - 2 y_93_ * y_19_ + 1 y_93_ ^ 2 ] <= 9430.37
quadratic_ranged_507_ub: [ 1 x_25_ ^ 2 - 2 x_93_ * x_25_ + 1 x_93_ ^ 2 + 1 y_25_ ^ 2 - 2 y_93_ * y_25_ + 1 y_93_ ^ 2 ] <= 24244.04
quadratic_ranged_508_ub: [ 1 x_26_ ^ 2 - 2 x_93_ * x_26_ + 1 x_93_ ^ 2 + 1 y_26_ ^ 2 - 2 y_93_ * y_26_ + 1 y_93_ ^ 2 ] <= 4437.94
quadratic_ranged_509_ub: [ 1 x_31_ ^ 2 - 2 x_93_ * x_31_ + 1 x_93_ ^ 2 + 1 y_31_ ^ 2 - 2 y_93_ * y_31_ + 1 y_93_ ^ 2 ] <= 1318.05
quadratic_ranged_510_ub: [ 1 x_34_ ^ 2 - 2 x_93_ * x_34_ + 1 x_93_ ^ 2 + 1 y_34_ ^ 2 - 2 y_93_ * y_34_ + 1 y_93_ ^ 2 ] <= 13158.28
quadratic_ranged_511_ub: [ 1 x_36_ ^ 2 - 2 x_93_ * x_36_ + 1 x_93_ ^ 2 + 1 y_36_ ^ 2 - 2 y_93_ * y_36_ + 1 y_93_ ^ 2 ] <= 20960.53
quadratic_ranged_512_ub: [ 1 x_38_ ^ 2 - 2 x_93_ * x_38_ + 1 x_93_ ^ 2 + 1 y_38_ ^ 2 - 2 y_93_ * y_38_ + 1 y_93_ ^ 2 ] <= 21599.86
quadratic_ranged_513_ub: [ 1 x_41_ ^ 2 - 2 x_93_ * x_41_ + 1 x_93_ ^ 2 + 1 y_41_ ^ 2 - 2 y_93_ * y_41_ + 1 y_93_ ^ 2 ] <= 22063.45
quadratic_ranged_514_ub: [ 1 x_44_ ^ 2 - 2 x_93_ * x_44_ + 1 x_93_ ^ 2 + 1 y_44_ ^ 2 - 2 y_93_ * y_44_ + 1 y_93_ ^ 2 ] <= 25769.14
quadratic_ranged_515_ub: [ 1 x_50_ ^ 2 - 2 x_93_ * x_50_ + 1 x_93_ ^ 2 + 1 y_50_ ^ 2 - 2 y_93_ * y_50_ + 1 y_93_ ^ 2 ] <= 36849.85
quadratic_ranged_516_ub: [ 1 x_70_ ^ 2 - 2 x_93_ * x_70_ + 1 x_93_ ^ 2 + 1 y_70_ ^ 2 - 2 y_93_ * y_70_ + 1 y_93_ ^ 2 ] <= 16412.5
quadratic_ranged_517_ub: [ 1 x_73_ ^ 2 - 2 x_93_ * x_73_ + 1 x_93_ ^ 2 + 1 y_73_ ^ 2 - 2 y_93_ * y_73_ + 1 y_93_ ^ 2 ] <= 11766.5
quadratic_ranged_518_ub: [ 1 x_92_ ^ 2 - 2 x_93_ * x_92_ + 1 x_93_ ^ 2 + 1 y_92_ ^ 2 - 2 y_93_ * y_92_ + 1 y_93_ ^ 2 ] <= 5383.3
quadratic_ranged_519_ub: [ 1 x_26_ ^ 2 - 2 x_94_ * x_26_ + 1 x_94_ ^ 2 + 1 y_26_ ^ 2 - 2 y_94_ * y_26_ + 1 y_94_ ^ 2 ] <= 26390.29
quadratic_ranged_520_ub: [ 1 x_31_ ^ 2 - 2 x_94_ * x_31_ + 1 x_94_ ^ 2 + 1 y_31_ ^ 2 - 2 y_94_ * y_31_ + 1 y_94_ ^ 2 ] <= 51231.24
quadratic_ranged_521_ub: [ 1 x_58_ ^ 2 - 2 x_94_ * x_58_ + 1 x_94_ ^ 2 + 1 y_58_ ^ 2 - 2 y_94_ * y_58_ + 1 y_94_ ^ 2 ] <= 26446.85
quadratic_ranged_522_ub: [ 1 x_69_ ^ 2 - 2 x_94_ * x_69_ + 1 x_94_ ^ 2 + 1 y_69_ ^ 2 - 2 y_94_ * y_69_ + 1 y_94_ ^ 2 ] <= 14355.130000000001
quadratic_ranged_523_ub: [ 1 x_79_ ^ 2 - 2 x_94_ * x_79_ + 1 x_94_ ^ 2 + 1 y_79_ ^ 2 - 2 y_94_ * y_79_ + 1 y_94_ ^ 2 ] <= 19715.2
quadratic_ranged_524_ub: [ 1 x_89_ ^ 2 - 2 x_94_ * x_89_ + 1 x_94_ ^ 2 + 1 y_89_ ^ 2 - 2 y_94_ * y_89_ + 1 y_94_ ^ 2 ] <= 9348.56
quadratic_ranged_525_ub: [ 1 x_92_ ^ 2 - 2 x_94_ * x_92_ + 1 x_94_ ^ 2 + 1 y_92_ ^ 2 - 2 y_94_ * y_92_ + 1 y_94_ ^ 2 ] <= 28862.77
quadratic_ranged_526_ub: [ 1 x_93_ ^ 2 - 2 x_94_ * x_93_ + 1 x_94_ ^ 2 + 1 y_93_ ^ 2 - 2 y_94_ * y_93_ + 1 y_94_ ^ 2 ] <= 40623.21
quadratic_ranged_527_ub: [ 1 x_3_ ^ 2 - 2 x_95_ * x_3_ + 1 x_95_ ^ 2 + 1 y_3_ ^ 2 - 2 y_95_ * y_3_ + 1 y_95_ ^ 2 ] <= 18924.37
quadratic_ranged_528_ub: [ 1 x_6_ ^ 2 - 2 x_95_ * x_6_ + 1 x_95_ ^ 2 + 1 y_6_ ^ 2 - 2 y_95_ * y_6_ + 1 y_95_ ^ 2 ] <= 10779.73
quadratic_ranged_529_ub: [ 1 x_14_ ^ 2 - 2 x_95_ * x_14_ + 1 x_95_ ^ 2 + 1 y_14_ ^ 2 - 2 y_95_ * y_14_ + 1 y_95_ ^ 2 ] <= 29550.58
quadratic_ranged_530_ub: [ 1 x_36_ ^ 2 - 2 x_95_ * x_36_ + 1 x_95_ ^ 2 + 1 y_36_ ^ 2 - 2 y_95_ * y_36_ + 1 y_95_ ^ 2 ] <= 16291.3
quadratic_ranged_531_ub: [ 1 x_37_ ^ 2 - 2 x_95_ * x_37_ + 1 x_95_ ^ 2 + 1 y_37_ ^ 2 - 2 y_95_ * y_37_ + 1 y_95_ ^ 2 ] <= 26714.5
quadratic_ranged_532_ub: [ 1 x_51_ ^ 2 - 2 x_95_ * x_51_ + 1 x_95_ ^ 2 + 1 y_51_ ^ 2 - 2 y_95_ * y_51_ + 1 y_95_ ^ 2 ] <= 30067.7
quadratic_ranged_533_ub: [ 1 x_55_ ^ 2 - 2 x_95_ * x_55_ + 1 x_95_ ^ 2 + 1 y_55_ ^ 2 - 2 y_95_ * y_55_ + 1 y_95_ ^ 2 ] <= 26502.4
quadratic_ranged_534_ub: [ 1 x_56_ ^ 2 - 2 x_95_ * x_56_ + 1 x_95_ ^ 2 + 1 y_56_ ^ 2 - 2 y_95_ * y_56_ + 1 y_95_ ^ 2 ] <= 19133.44
quadratic_ranged_535_ub: [ 1 x_80_ ^ 2 - 2 x_95_ * x_80_ + 1 x_95_ ^ 2 + 1 y_80_ ^ 2 - 2 y_95_ * y_80_ + 1 y_95_ ^ 2 ] <= 17312.41
quadratic_ranged_536_ub: [ 1 x_84_ ^ 2 - 2 x_95_ * x_84_ + 1 x_95_ ^ 2 + 1 y_84_ ^ 2 - 2 y_95_ * y_84_ + 1 y_95_ ^ 2 ] <= 4500.56
quadratic_ranged_537_ub: [ 1 x_91_ ^ 2 - 2 x_95_ * x_91_ + 1 x_95_ ^ 2 + 1 y_91_ ^ 2 - 2 y_95_ * y_91_ + 1 y_95_ ^ 2 ] <= 6364.01
quadratic_ranged_538_ub: [ 1 x_94_ ^ 2 - 2 x_95_ * x_94_ + 1 x_95_ ^ 2 + 1 y_94_ ^ 2 - 2 y_95_ * y_94_ + 1 y_95_ ^ 2 ] <= 29728.34
quadratic_ranged_539_ub: [ 1 x_18_ ^ 2 - 2 x_96_ * x_18_ + 1 x_96_ ^ 2 + 1 y_18_ ^ 2 - 2 y_96_ * y_18_ + 1 y_96_ ^ 2 ] <= 3726.9
quadratic_ranged_540_ub: [ 1 x_19_ ^ 2 - 2 x_96_ * x_19_ + 1 x_96_ ^ 2 + 1 y_19_ ^ 2 - 2 y_96_ * y_19_ + 1 y_96_ ^ 2 ] <= 22987.6
quadratic_ranged_541_ub: [ 1 x_23_ ^ 2 - 2 x_96_ * x_23_ + 1 x_96_ ^ 2 + 1 y_23_ ^ 2 - 2 y_96_ * y_23_ + 1 y_96_ ^ 2 ] <= 15436.84
quadratic_ranged_542_ub: [ 1 x_29_ ^ 2 - 2 x_96_ * x_29_ + 1 x_96_ ^ 2 + 1 y_29_ ^ 2 - 2 y_96_ * y_29_ + 1 y_96_ ^ 2 ] <= 12614.9
quadratic_ranged_543_ub: [ 1 x_45_ ^ 2 - 2 x_96_ * x_45_ + 1 x_96_ ^ 2 + 1 y_45_ ^ 2 - 2 y_96_ * y_45_ + 1 y_96_ ^ 2 ] <= 17599.25
quadratic_ranged_544_ub: [ 1 x_83_ ^ 2 - 2 x_96_ * x_83_ + 1 x_96_ ^ 2 + 1 y_83_ ^ 2 - 2 y_96_ * y_83_ + 1 y_96_ ^ 2 ] <= 23999.62
quadratic_ranged_545_ub: [ 1 x_84_ ^ 2 - 2 x_96_ * x_84_ + 1 x_96_ ^ 2 + 1 y_84_ ^ 2 - 2 y_96_ * y_84_ + 1 y_96_ ^ 2 ] <= 19515.22
quadratic_ranged_546_ub: [ 1 x_85_ ^ 2 - 2 x_96_ * x_85_ + 1 x_96_ ^ 2 + 1 y_85_ ^ 2 - 2 y_96_ * y_85_ + 1 y_96_ ^ 2 ] <= 25590.37
quadratic_ranged_547_ub: [ 1 x_95_ ^ 2 - 2 x_96_ * x_95_ + 1 x_96_ ^ 2 + 1 y_95_ ^ 2 - 2 y_96_ * y_95_ + 1 y_96_ ^ 2 ] <= 21074.66
quadratic_ranged_548_ub: [ 1 x_9_ ^ 2 - 2 x_97_ * x_9_ + 1 x_97_ ^ 2 + 1 y_9_ ^ 2 - 2 y_97_ * y_9_ + 1 y_97_ ^ 2 ] <= 30229.3
quadratic_ranged_549_ub: [ 1 x_20_ ^ 2 - 2 x_97_ * x_20_ + 1 x_97_ ^ 2 + 1 y_20_ ^ 2 - 2 y_97_ * y_20_ + 1 y_97_ ^ 2 ] <= 26083.25
quadratic_ranged_550_ub: [ 1 x_49_ ^ 2 - 2 x_97_ * x_49_ + 1 x_97_ ^ 2 + 1 y_49_ ^ 2 - 2 y_97_ * y_49_ + 1 y_97_ ^ 2 ] <= 4662.16
quadratic_ranged_551_ub: [ 1 x_70_ ^ 2 - 2 x_97_ * x_70_ + 1 x_97_ ^ 2 + 1 y_70_ ^ 2 - 2 y_97_ * y_70_ + 1 y_97_ ^ 2 ] <= 11703.88
quadratic_ranged_552_ub: [ 1 x_84_ ^ 2 - 2 x_97_ * x_84_ + 1 x_97_ ^ 2 + 1 y_84_ ^ 2 - 2 y_97_ * y_84_ + 1 y_97_ ^ 2 ] <= 631.25
quadratic_ranged_553_ub: [ 1 x_93_ ^ 2 - 2 x_97_ * x_93_ + 1 x_97_ ^ 2 + 1 y_93_ ^ 2 - 2 y_97_ * y_93_ + 1 y_97_ ^ 2 ] <= 640.34
quadratic_ranged_554_ub: [ 1 x_96_ ^ 2 - 2 x_97_ * x_96_ + 1 x_97_ ^ 2 + 1 y_96_ ^ 2 - 2 y_97_ * y_96_ + 1 y_97_ ^ 2 ] <= 18132.53
quadratic_ranged_555_ub: [ 1 x_17_ ^ 2 - 2 x_98_ * x_17_ + 1 x_98_ ^ 2 + 1 y_17_ ^ 2 - 2 y_98_ * y_17_ + 1 y_98_ ^ 2 ] <= 65.65
quadratic_ranged_556_ub: [ 1 x_33_ ^ 2 - 2 x_98_ * x_33_ + 1 x_98_ ^ 2 + 1 y_33_ ^ 2 - 2 y_98_ * y_33_ + 1 y_98_ ^ 2 ] <= 35115.68
quadratic_ranged_557_ub: [ 1 x_43_ ^ 2 - 2 x_98_ * x_43_ + 1 x_98_ ^ 2 + 1 y_43_ ^ 2 - 2 y_98_ * y_43_ + 1 y_98_ ^ 2 ] <= 7891.13
quadratic_ranged_558_ub: [ 1 x_48_ ^ 2 - 2 x_98_ * x_48_ + 1 x_98_ ^ 2 + 1 y_48_ ^ 2 - 2 y_98_ * y_48_ + 1 y_98_ ^ 2 ] <= 2841.13
quadratic_ranged_559_ub: [ 1 x_76_ ^ 2 - 2 x_98_ * x_76_ + 1 x_98_ ^ 2 + 1 y_76_ ^ 2 - 2 y_98_ * y_76_ + 1 y_98_ ^ 2 ] <= 7992.13
quadratic_ranged_560_ub: [ 1 x_87_ ^ 2 - 2 x_98_ * x_87_ + 1 x_98_ ^ 2 + 1 y_87_ ^ 2 - 2 y_98_ * y_87_ + 1 y_98_ ^ 2 ] <= 6530.66
quadratic_ranged_561_ub: [ 1 x_97_ ^ 2 - 2 x_98_ * x_97_ + 1 x_98_ ^ 2 + 1 y_97_ ^ 2 - 2 y_98_ * y_97_ + 1 y_98_ ^ 2 ] <= 11430.17
quadratic_ranged_562_ub: [ 1 x_10_ ^ 2 - 2 x_99_ * x_10_ + 1 x_99_ ^ 2 + 1 y_10_ ^ 2 - 2 y_99_ * y_10_ + 1 y_99_ ^ 2 ] <= 30244.45
quadratic_ranged_563_ub: [ 1 x_17_ ^ 2 - 2 x_99_ * x_17_ + 1 x_99_ ^ 2 + 1 y_17_ ^ 2 - 2 y_99_ * y_17_ + 1 y_99_ ^ 2 ] <= 679.73
quadratic_ranged_564_ub: [ 1 x_23_ ^ 2 - 2 x_99_ * x_23_ + 1 x_99_ ^ 2 + 1 y_23_ ^ 2 - 2 y_99_ * y_23_ + 1 y_99_ ^ 2 ] <= 16517.54
quadratic_ranged_565_ub: [ 1 x_56_ ^ 2 - 2 x_99_ * x_56_ + 1 x_99_ ^ 2 + 1 y_56_ ^ 2 - 2 y_99_ * y_56_ + 1 y_99_ ^ 2 ] <= 8245.64
quadratic_ranged_566_ub: [ 1 x_57_ ^ 2 - 2 x_99_ * x_57_ + 1 x_99_ ^ 2 + 1 y_57_ ^ 2 - 2 y_99_ * y_57_ + 1 y_99_ ^ 2 ] <= 4703.57
quadratic_ranged_567_ub: [ 1 x_59_ ^ 2 - 2 x_99_ * x_59_ + 1 x_99_ ^ 2 + 1 y_59_ ^ 2 - 2 y_99_ * y_59_ + 1 y_99_ ^ 2 ] <= 8440.57
quadratic_ranged_568_ub: [ 1 x_64_ ^ 2 - 2 x_99_ * x_64_ + 1 x_99_ ^ 2 + 1 y_64_ ^ 2 - 2 y_99_ * y_64_ + 1 y_99_ ^ 2 ] <= 5837.8
quadratic_ranged_569_ub: [ 1 x_65_ ^ 2 - 2 x_99_ * x_65_ + 1 x_99_ ^ 2 + 1 y_65_ ^ 2 - 2 y_99_ * y_65_ + 1 y_99_ ^ 2 ] <= 12621.97
quadratic_ranged_570_ub: [ 1 x_79_ ^ 2 - 2 x_99_ * x_79_ + 1 x_99_ ^ 2 + 1 y_79_ ^ 2 - 2 y_99_ * y_79_ + 1 y_99_ ^ 2 ] <= 6853.86
quadratic_ranged_571_ub: [ 1 x_82_ ^ 2 - 2 x_99_ * x_82_ + 1 x_99_ ^ 2 + 1 y_82_ ^ 2 - 2 y_99_ * y_82_ + 1 y_99_ ^ 2 ] <= 14885.380000000001
quadratic_ranged_572_ub: [ 1 x_86_ ^ 2 - 2 x_99_ * x_86_ + 1 x_99_ ^ 2 + 1 y_86_ ^ 2 - 2 y_99_ * y_86_ + 1 y_99_ ^ 2 ] <= 30498.97
quadratic_ranged_573_ub: [ 1 x_88_ ^ 2 - 2 x_99_ * x_88_ + 1 x_99_ ^ 2 + 1 y_88_ ^ 2 - 2 y_99_ * y_88_ + 1 y_99_ ^ 2 ] <= 14293.52
quadratic_ranged_574_ub: [ 1 x_95_ ^ 2 - 2 x_99_ * x_95_ + 1 x_99_ ^ 2 + 1 y_95_ ^ 2 - 2 y_99_ * y_95_ + 1 y_99_ ^ 2 ] <= 5724.68
quadratic_ranged_575_ub: [ 1 x_98_ ^ 2 - 2 x_99_ * x_98_ + 1 x_99_ ^ 2 + 1 y_98_ ^ 2 - 2 y_99_ * y_98_ + 1 y_99_ ^ 2 ] <= 323.2
quadratic_ranged_576_ub: [ 1 x_1_ ^ 2 - 2 x_100_ * x_1_ + 1 x_100_ ^ 2 + 1 y_1_ ^ 2 - 2 y_100_ * y_1_ + 1 y_100_ ^ 2 ] <= 4815.68
quadratic_ranged_577_ub: [ 1 x_5_ ^ 2 - 2 x_100_ * x_5_ + 1 x_100_ ^ 2 + 1 y_5_ ^ 2 - 2 y_100_ * y_5_ + 1 y_100_ ^ 2 ] <= 2100.8
quadratic_ranged_578_ub: [ 1 x_16_ ^ 2 - 2 x_100_ * x_16_ + 1 x_100_ ^ 2 + 1 y_16_ ^ 2 - 2 y_100_ * y_16_ + 1 y_100_ ^ 2 ] <= 4937.89
quadratic_ranged_579_ub: [ 1 x_29_ ^ 2 - 2 x_100_ * x_29_ + 1 x_100_ ^ 2 + 1 y_29_ ^ 2 - 2 y_100_ * y_29_ + 1 y_100_ ^ 2 ] <= 7701.25
quadratic_ranged_580_ub: [ 1 x_38_ ^ 2 - 2 x_100_ * x_38_ + 1 x_100_ ^ 2 + 1 y_38_ ^ 2 - 2 y_100_ * y_38_ + 1 y_100_ ^ 2 ] <= 10473.7
quadratic_ranged_581_ub: [ 1 x_45_ ^ 2 - 2 x_100_ * x_45_ + 1 x_100_ ^ 2 + 1 y_45_ ^ 2 - 2 y_100_ * y_45_ + 1 y_100_ ^ 2 ] <= 16305.44
quadratic_ranged_582_ub: [ 1 x_52_ ^ 2 - 2 x_100_ * x_52_ + 1 x_100_ ^ 2 + 1 y_52_ ^ 2 - 2 y_100_ * y_52_ + 1 y_100_ ^ 2 ] <= 6113.53
quadratic_ranged_583_ub: [ 1 x_66_ ^ 2 - 2 x_100_ * x_66_ + 1 x_100_ ^ 2 + 1 y_66_ ^ 2 - 2 y_100_ * y_66_ + 1 y_100_ ^ 2 ] <= 181.8
quadratic_ranged_584_ub: [ 1 x_73_ ^ 2 - 2 x_100_ * x_73_ + 1 x_100_ ^ 2 + 1 y_73_ ^ 2 - 2 y_100_ * y_73_ + 1 y_100_ ^ 2 ] <= 810.02
quadratic_ranged_585_ub: [ 1 x_99_ ^ 2 - 2 x_100_ * x_99_ + 1 x_100_ ^ 2 + 1 y_99_ ^ 2 - 2 y_100_ * y_99_ + 1 y_100_ ^ 2 ] <= 5374.21
quadratic_ranged_1_lb: [ 1 x_1_ ^ 2 - 2 x_2_ * x_1_ + 1 x_2_ ^ 2 + 1 y_1_ ^ 2 - 2 y_2_ * y_1_ + 1 y_2_ ^ 2 ] >= 4139.19
quadratic_ranged_2_lb: [ 1 x_2_ ^ 2 - 2 x_3_ * x_2_ + 1 x_3_ ^ 2 + 1 y_2_ ^ 2 - 2 y_3_ * y_2_ + 1 y_3_ ^ 2 ] >= 5018.31
quadratic_ranged_3_lb: [ 1 x_3_ ^ 2 - 2 x_4_ * x_3_ + 1 x_4_ ^ 2 + 1 y_3_ ^ 2 - 2 y_4_ * y_3_ + 1 y_4_ ^ 2 ] >= 9149.58
quadratic_ranged_4_lb: [ 1 x_2_ ^ 2 - 2 x_5_ * x_2_ + 1 x_5_ ^ 2 + 1 y_2_ ^ 2 - 2 y_5_ * y_2_ + 1 y_5_ ^ 2 ] >= 22909.59
quadratic_ranged_5_lb: [ 1 x_4_ ^ 2 - 2 x_5_ * x_4_ + 1 x_5_ ^ 2 + 1 y_4_ ^ 2 - 2 y_5_ * y_4_ + 1 y_5_ ^ 2 ] >= 22318.56
quadratic_ranged_6_lb: [ 1 x_5_ ^ 2 - 2 x_6_ * x_5_ + 1 x_6_ ^ 2 + 1 y_5_ ^ 2 - 2 y_6_ * y_5_ + 1 y_6_ ^ 2 ] >= 31086
quadratic_ranged_7_lb: [ 1 x_3_ ^ 2 - 2 x_7_ * x_3_ + 1 x_7_ ^ 2 + 1 y_3_ ^ 2 - 2 y_7_ * y_3_ + 1 y_7_ ^ 2 ] >= 17132.94
quadratic_ranged_8_lb: [ 1 x_6_ ^ 2 - 2 x_7_ * x_6_ + 1 x_7_ ^ 2 + 1 y_6_ ^ 2 - 2 y_7_ * y_6_ + 1 y_7_ ^ 2 ] >= 8783.28
quadratic_ranged_9_lb: [ 1 x_7_ ^ 2 - 2 x_8_ * x_7_ + 1 x_8_ ^ 2 + 1 y_7_ ^ 2 - 2 y_8_ * y_7_ + 1 y_8_ ^ 2 ] >= 13857.03
quadratic_ranged_10_lb: [ 1 x_8_ ^ 2 - 2 x_9_ * x_8_ + 1 x_9_ ^ 2 + 1 y_8_ ^ 2 - 2 y_9_ * y_8_ + 1 y_9_ ^ 2 ] >= 2685.87
quadratic_ranged_11_lb: [ 1 x_1_ ^ 2 - 2 x_10_ * x_1_ + 1 x_10_ ^ 2 + 1 y_1_ ^ 2 - 2 y_10_ * y_1_ + 1 y_10_ ^ 2 ] >= 4197.6
quadratic_ranged_12_lb: [ 1 x_9_ ^ 2 - 2 x_10_ * x_9_ + 1 x_10_ ^ 2 + 1 y_9_ ^ 2 - 2 y_10_ * y_9_ + 1 y_10_ ^ 2 ] >= 42724.44
quadratic_ranged_13_lb: [ 1 x_8_ ^ 2 - 2 x_11_ * x_8_ + 1 x_11_ ^ 2 + 1 y_8_ ^ 2 - 2 y_11_ * y_8_ + 1 y_11_ ^ 2 ] >= 13594.68
quadratic_ranged_14_lb: [ 1 x_10_ ^ 2 - 2 x_11_ * x_10_ + 1 x_11_ ^ 2 + 1 y_10_ ^ 2 - 2 y_11_ * y_10_ + 1 y_11_ ^ 2 ] >= 7509.15
quadratic_ranged_15_lb: [ 1 x_11_ ^ 2 - 2 x_12_ * x_11_ + 1 x_12_ ^ 2 + 1 y_11_ ^ 2 - 2 y_12_ * y_11_ + 1 y_12_ ^ 2 ] >= 1648.35
quadratic_ranged_16_lb: [ 1 x_6_ ^ 2 - 2 x_13_ * x_6_ + 1 x_13_ ^ 2 + 1 y_6_ ^ 2 - 2 y_13_ * y_6_ + 1 y_13_ ^ 2 ] >= 28474.38
quadratic_ranged_17_lb: [ 1 x_8_ ^ 2 - 2 x_13_ * x_8_ + 1 x_13_ ^ 2 + 1 y_8_ ^ 2 - 2 y_13_ * y_8_ + 1 y_13_ ^ 2 ] >= 8412.03
quadratic_ranged_18_lb: [ 1 x_12_ ^ 2 - 2 x_13_ * x_12_ + 1 x_13_ ^ 2 + 1 y_12_ ^ 2 - 2 y_13_ * y_12_ + 1 y_13_ ^ 2 ] >= 35008.38
quadratic_ranged_19_lb: [ 1 x_13_ ^ 2 - 2 x_14_ * x_13_ + 1 x_14_ ^ 2 + 1 y_13_ ^ 2 - 2 y_14_ * y_13_ + 1 y_14_ ^ 2 ] >= 301.95
quadratic_ranged_20_lb: [ 1 x_11_ ^ 2 - 2 x_15_ * x_11_ + 1 x_15_ ^ 2 + 1 y_11_ ^ 2 - 2 y_15_ * y_11_ + 1 y_15_ ^ 2 ] >= 25728.12
quadratic_ranged_21_lb: [ 1 x_14_ ^ 2 - 2 x_15_ * x_14_ + 1 x_15_ ^ 2 + 1 y_14_ ^ 2 - 2 y_15_ * y_14_ + 1 y_15_ ^ 2 ] >= 178.2
quadratic_ranged_22_lb: [ 1 x_1_ ^ 2 - 2 x_16_ * x_1_ + 1 x_16_ ^ 2 + 1 y_1_ ^ 2 - 2 y_16_ * y_1_ + 1 y_16_ ^ 2 ] >= 18106.11
quadratic_ranged_23_lb: [ 1 x_13_ ^ 2 - 2 x_16_ * x_13_ + 1 x_16_ ^ 2 + 1 y_13_ ^ 2 - 2 y_16_ * y_13_ + 1 y_16_ ^ 2 ] >= 19448.55
quadratic_ranged_24_lb: [ 1 x_15_ ^ 2 - 2 x_16_ * x_15_ + 1 x_16_ ^ 2 + 1 y_15_ ^ 2 - 2 y_16_ * y_15_ + 1 y_16_ ^ 2 ] >= 22146.3
quadratic_ranged_25_lb: [ 1 x_15_ ^ 2 - 2 x_17_ * x_15_ + 1 x_17_ ^ 2 + 1 y_15_ ^ 2 - 2 y_17_ * y_15_ + 1 y_17_ ^ 2 ] >= 37743.75
quadratic_ranged_26_lb: [ 1 x_16_ ^ 2 - 2 x_17_ * x_16_ + 1 x_17_ ^ 2 + 1 y_16_ ^ 2 - 2 y_17_ * y_16_ + 1 y_17_ ^ 2 ] >= 7140.87
quadratic_ranged_27_lb: [ 1 x_9_ ^ 2 - 2 x_18_ * x_9_ + 1 x_18_ ^ 2 + 1 y_9_ ^ 2 - 2 y_18_ * y_9_ + 1 y_18_ ^ 2 ] >= 35633.07
quadratic_ranged_28_lb: [ 1 x_17_ ^ 2 - 2 x_18_ * x_17_ + 1 x_18_ ^ 2 + 1 y_17_ ^ 2 - 2 y_18_ * y_17_ + 1 y_18_ ^ 2 ] >= 30892.95
quadratic_ranged_29_lb: [ 1 x_18_ ^ 2 - 2 x_19_ * x_18_ + 1 x_19_ ^ 2 + 1 y_18_ ^ 2 - 2 y_19_ * y_18_ + 1 y_19_ ^ 2 ] >= 20411.82
quadratic_ranged_30_lb: [ 1 x_19_ ^ 2 - 2 x_20_ * x_19_ + 1 x_20_ ^ 2 + 1 y_19_ ^ 2 - 2 y_20_ * y_19_ + 1 y_20_ ^ 2 ] >= 15145.02
quadratic_ranged_31_lb: [ 1 x_6_ ^ 2 - 2 x_21_ * x_6_ + 1 x_21_ ^ 2 + 1 y_6_ ^ 2 - 2 y_21_ * y_6_ + 1 y_21_ ^ 2 ] >= 1750.32
quadratic_ranged_32_lb: [ 1 x_9_ ^ 2 - 2 x_21_ * x_9_ + 1 x_21_ ^ 2 + 1 y_9_ ^ 2 - 2 y_21_ * y_9_ + 1 y_21_ ^ 2 ] >= 41789.88
quadratic_ranged_33_lb: [ 1 x_11_ ^ 2 - 2 x_21_ * x_11_ + 1 x_21_ ^ 2 + 1 y_11_ ^ 2 - 2 y_21_ * y_11_ + 1 y_21_ ^ 2 ] >= 3113.55
quadratic_ranged_34_lb: [ 1 x_20_ ^ 2 - 2 x_21_ * x_20_ + 1 x_21_ ^ 2 + 1 y_20_ ^ 2 - 2 y_21_ * y_20_ + 1 y_21_ ^ 2 ] >= 36678.51
quadratic_ranged_35_lb: [ 1 x_1_ ^ 2 - 2 x_22_ * x_1_ + 1 x_22_ ^ 2 + 1 y_1_ ^ 2 - 2 y_22_ * y_1_ + 1 y_22_ ^ 2 ] >= 3265.02
quadratic_ranged_36_lb: [ 1 x_11_ ^ 2 - 2 x_22_ * x_11_ + 1 x_22_ ^ 2 + 1 y_11_ ^ 2 - 2 y_22_ * y_11_ + 1 y_22_ ^ 2 ] >= 8922.87
quadratic_ranged_37_lb: [ 1 x_13_ ^ 2 - 2 x_22_ * x_13_ + 1 x_22_ ^ 2 + 1 y_13_ ^ 2 - 2 y_22_ * y_13_ + 1 y_22_ ^ 2 ] >= 15543
quadratic_ranged_38_lb: [ 1 x_21_ ^ 2 - 2 x_22_ * x_21_ + 1 x_22_ ^ 2 + 1 y_21_ ^ 2 - 2 y_22_ * y_21_ + 1 y_22_ ^ 2 ] >= 5949.9
quadratic_ranged_39_lb: [ 1 x_3_ ^ 2 - 2 x_23_ * x_3_ + 1 x_23_ ^ 2 + 1 y_3_ ^ 2 - 2 y_23_ * y_3_ + 1 y_23_ ^ 2 ] >= 29225.79
quadratic_ranged_40_lb: [ 1 x_17_ ^ 2 - 2 x_23_ * x_17_ + 1 x_23_ ^ 2 + 1 y_17_ ^ 2 - 2 y_23_ * y_17_ + 1 y_23_ ^ 2 ] >= 22283.91
quadratic_ranged_41_lb: [ 1 x_22_ ^ 2 - 2 x_23_ * x_22_ + 1 x_23_ ^ 2 + 1 y_22_ ^ 2 - 2 y_23_ * y_22_ + 1 y_23_ ^ 2 ] >= 37209.15
quadratic_ranged_42_lb: [ 1 x_12_ ^ 2 - 2 x_24_ * x_12_ + 1 x_24_ ^ 2 + 1 y_12_ ^ 2 - 2 y_24_ * y_12_ + 1 y_24_ ^ 2 ] >= 15686.55
quadratic_ranged_43_lb: [ 1 x_20_ ^ 2 - 2 x_24_ * x_20_ + 1 x_24_ ^ 2 + 1 y_20_ ^ 2 - 2 y_24_ * y_20_ + 1 y_24_ ^ 2 ] >= 24664.86
quadratic_ranged_44_lb: [ 1 x_23_ ^ 2 - 2 x_24_ * x_23_ + 1 x_24_ ^ 2 + 1 y_23_ ^ 2 - 2 y_24_ * y_23_ + 1 y_24_ ^ 2 ] >= 31584.96
quadratic_ranged_45_lb: [ 1 x_1_ ^ 2 - 2 x_25_ * x_1_ + 1 x_25_ ^ 2 + 1 y_1_ ^ 2 - 2 y_25_ * y_1_ + 1 y_25_ ^ 2 ] >= 7607.16
quadratic_ranged_46_lb: [ 1 x_24_ ^ 2 - 2 x_25_ * x_24_ + 1 x_25_ ^ 2 + 1 y_24_ ^ 2 - 2 y_25_ * y_24_ + 1 y_25_ ^ 2 ] >= 10538.55
quadratic_ranged_47_lb: [ 1 x_1_ ^ 2 - 2 x_26_ * x_1_ + 1 x_26_ ^ 2 + 1 y_1_ ^ 2 - 2 y_26_ * y_1_ + 1 y_26_ ^ 2 ] >= 603.9
quadratic_ranged_48_lb: [ 1 x_25_ ^ 2 - 2 x_26_ * x_25_ + 1 x_26_ ^ 2 + 1 y_25_ ^ 2 - 2 y_26_ * y_25_ + 1 y_26_ ^ 2 ] >= 7779.42
quadratic_ranged_49_lb: [ 1 x_26_ ^ 2 - 2 x_27_ * x_26_ + 1 x_27_ ^ 2 + 1 y_26_ ^ 2 - 2 y_27_ * y_26_ + 1 y_27_ ^ 2 ] >= 18756.54
quadratic_ranged_50_lb: [ 1 x_9_ ^ 2 - 2 x_28_ * x_9_ + 1 x_28_ ^ 2 + 1 y_9_ ^ 2 - 2 y_28_ * y_9_ + 1 y_28_ ^ 2 ] >= 19998
quadratic_ranged_51_lb: [ 1 x_27_ ^ 2 - 2 x_28_ * x_27_ + 1 x_28_ ^ 2 + 1 y_27_ ^ 2 - 2 y_28_ * y_27_ + 1 y_28_ ^ 2 ] >= 8498.16
quadratic_ranged_52_lb: [ 1 x_17_ ^ 2 - 2 x_29_ * x_17_ + 1 x_29_ ^ 2 + 1 y_17_ ^ 2 - 2 y_29_ * y_17_ + 1 y_29_ ^ 2 ] >= 20438.55
quadratic_ranged_53_lb: [ 1 x_27_ ^ 2 - 2 x_29_ * x_27_ + 1 x_29_ ^ 2 + 1 y_27_ ^ 2 - 2 y_29_ * y_27_ + 1 y_29_ ^ 2 ] >= 579.15
quadratic_ranged_54_lb: [ 1 x_28_ ^ 2 - 2 x_29_ * x_28_ + 1 x_29_ ^ 2 + 1 y_28_ ^ 2 - 2 y_29_ * y_28_ + 1 y_29_ ^ 2 ] >= 11132.55
quadratic_ranged_55_lb: [ 1 x_7_ ^ 2 - 2 x_30_ * x_7_ + 1 x_30_ ^ 2 + 1 y_7_ ^ 2 - 2 y_30_ * y_7_ + 1 y_30_ ^ 2 ] >= 12406.68
quadratic_ranged_56_lb: [ 1 x_15_ ^ 2 - 2 x_30_ * x_15_ + 1 x_30_ ^ 2 + 1 y_15_ ^ 2 - 2 y_30_ * y_15_ + 1 y_30_ ^ 2 ] >= 19044.63
quadratic_ranged_57_lb: [ 1 x_23_ ^ 2 - 2 x_30_ * x_23_ + 1 x_30_ ^ 2 + 1 y_23_ ^ 2 - 2 y_30_ * y_23_ + 1 y_30_ ^ 2 ] >= 4507.47
quadratic_ranged_58_lb: [ 1 x_24_ ^ 2 - 2 x_30_ * x_24_ + 1 x_30_ ^ 2 + 1 y_24_ ^ 2 - 2 y_30_ * y_24_ + 1 y_30_ ^ 2 ] >= 25170.75
quadratic_ranged_59_lb: [ 1 x_29_ ^ 2 - 2 x_30_ * x_29_ + 1 x_30_ ^ 2 + 1 y_29_ ^ 2 - 2 y_30_ * y_29_ + 1 y_30_ ^ 2 ] >= 3921.39
quadratic_ranged_60_lb: [ 1 x_11_ ^ 2 - 2 x_31_ * x_11_ + 1 x_31_ ^ 2 + 1 y_11_ ^ 2 - 2 y_31_ * y_11_ + 1 y_31_ ^ 2 ] >= 7357.68
quadratic_ranged_61_lb: [ 1 x_18_ ^ 2 - 2 x_31_ * x_18_ + 1 x_31_ ^ 2 + 1 y_18_ ^ 2 - 2 y_31_ * y_18_ + 1 y_31_ ^ 2 ] >= 6520.14
quadratic_ranged_62_lb: [ 1 x_27_ ^ 2 - 2 x_31_ * x_27_ + 1 x_31_ ^ 2 + 1 y_27_ ^ 2 - 2 y_31_ * y_27_ + 1 y_31_ ^ 2 ] >= 40622.67
quadratic_ranged_63_lb: [ 1 x_30_ ^ 2 - 2 x_31_ * x_30_ + 1 x_31_ ^ 2 + 1 y_30_ ^ 2 - 2 y_31_ * y_30_ + 1 y_31_ ^ 2 ] >= 35094.51
quadratic_ranged_64_lb: [ 1 x_9_ ^ 2 - 2 x_32_ * x_9_ + 1 x_32_ ^ 2 + 1 y_9_ ^ 2 - 2 y_32_ * y_9_ + 1 y_32_ ^ 2 ] >= 7082.46
quadratic_ranged_65_lb: [ 1 x_14_ ^ 2 - 2 x_32_ * x_14_ + 1 x_32_ ^ 2 + 1 y_14_ ^ 2 - 2 y_32_ * y_14_ + 1 y_32_ ^ 2 ] >= 2856.15
quadratic_ranged_66_lb: [ 1 x_18_ ^ 2 - 2 x_32_ * x_18_ + 1 x_32_ ^ 2 + 1 y_18_ ^ 2 - 2 y_32_ * y_18_ + 1 y_32_ ^ 2 ] >= 16423.11
quadratic_ranged_67_lb: [ 1 x_31_ ^ 2 - 2 x_32_ * x_31_ + 1 x_32_ ^ 2 + 1 y_31_ ^ 2 - 2 y_32_ * y_31_ + 1 y_32_ ^ 2 ] >= 34777.71
quadratic_ranged_68_lb: [ 1 x_13_ ^ 2 - 2 x_33_ * x_13_ + 1 x_33_ ^ 2 + 1 y_13_ ^ 2 - 2 y_33_ * y_13_ + 1 y_33_ ^ 2 ] >= 9330.75
quadratic_ranged_69_lb: [ 1 x_26_ ^ 2 - 2 x_33_ * x_26_ + 1 x_33_ ^ 2 + 1 y_26_ ^ 2 - 2 y_33_ * y_26_ + 1 y_33_ ^ 2 ] >= 943.47
quadratic_ranged_70_lb: [ 1 x_32_ ^ 2 - 2 x_33_ * x_32_ + 1 x_33_ ^ 2 + 1 y_32_ ^ 2 - 2 y_33_ * y_32_ + 1 y_33_ ^ 2 ] >= 18700.11
quadratic_ranged_71_lb: [ 1 x_23_ ^ 2 - 2 x_34_ * x_23_ + 1 x_34_ ^ 2 + 1 y_23_ ^ 2 - 2 y_34_ * y_23_ + 1 y_34_ ^ 2 ] >= 16110.27
quadratic_ranged_72_lb: [ 1 x_33_ ^ 2 - 2 x_34_ * x_33_ + 1 x_34_ ^ 2 + 1 y_33_ ^ 2 - 2 y_34_ * y_33_ + 1 y_34_ ^ 2 ] >= 26279.55
quadratic_ranged_73_lb: [ 1 x_3_ ^ 2 - 2 x_35_ * x_3_ + 1 x_35_ ^ 2 + 1 y_3_ ^ 2 - 2 y_35_ * y_3_ + 1 y_35_ ^ 2 ] >= 915.75
quadratic_ranged_74_lb: [ 1 x_21_ ^ 2 - 2 x_35_ * x_21_ + 1 x_35_ ^ 2 + 1 y_21_ ^ 2 - 2 y_35_ * y_21_ + 1 y_35_ ^ 2 ] >= 9033.75
quadratic_ranged_75_lb: [ 1 x_25_ ^ 2 - 2 x_35_ * x_25_ + 1 x_35_ ^ 2 + 1 y_25_ ^ 2 - 2 y_35_ * y_25_ + 1 y_35_ ^ 2 ] >= 7208.19
quadratic_ranged_76_lb: [ 1 x_27_ ^ 2 - 2 x_35_ * x_27_ + 1 x_35_ ^ 2 + 1 y_27_ ^ 2 - 2 y_35_ * y_27_ + 1 y_35_ ^ 2 ] >= 18656.55
quadratic_ranged_77_lb: [ 1 x_34_ ^ 2 - 2 x_35_ * x_34_ + 1 x_35_ ^ 2 + 1 y_34_ ^ 2 - 2 y_35_ * y_34_ + 1 y_35_ ^ 2 ] >= 18062.55
quadratic_ranged_78_lb: [ 1 x_16_ ^ 2 - 2 x_36_ * x_16_ + 1 x_36_ ^ 2 + 1 y_16_ ^ 2 - 2 y_36_ * y_16_ + 1 y_36_ ^ 2 ] >= 7874.46
quadratic_ranged_79_lb: [ 1 x_35_ ^ 2 - 2 x_36_ * x_35_ + 1 x_36_ ^ 2 + 1 y_35_ ^ 2 - 2 y_36_ * y_35_ + 1 y_36_ ^ 2 ] >= 10266.3
quadratic_ranged_80_lb: [ 1 x_8_ ^ 2 - 2 x_37_ * x_8_ + 1 x_37_ ^ 2 + 1 y_8_ ^ 2 - 2 y_37_ * y_8_ + 1 y_37_ ^ 2 ] >= 6450.84
quadratic_ranged_81_lb: [ 1 x_12_ ^ 2 - 2 x_37_ * x_12_ + 1 x_37_ ^ 2 + 1 y_12_ ^ 2 - 2 y_37_ * y_12_ + 1 y_37_ ^ 2 ] >= 37007.19
quadratic_ranged_82_lb: [ 1 x_26_ ^ 2 - 2 x_37_ * x_26_ + 1 x_37_ ^ 2 + 1 y_26_ ^ 2 - 2 y_37_ * y_26_ + 1 y_37_ ^ 2 ] >= 12340.35
quadratic_ranged_83_lb: [ 1 x_36_ ^ 2 - 2 x_37_ * x_36_ + 1 x_37_ ^ 2 + 1 y_36_ ^ 2 - 2 y_37_ * y_36_ + 1 y_37_ ^ 2 ] >= 1714.68
quadratic_ranged_84_lb: [ 1 x_7_ ^ 2 - 2 x_38_ * x_7_ + 1 x_38_ ^ 2 + 1 y_7_ ^ 2 - 2 y_38_ * y_7_ + 1 y_38_ ^ 2 ] >= 22898.7
quadratic_ranged_85_lb: [ 1 x_17_ ^ 2 - 2 x_38_ * x_17_ + 1 x_38_ ^ 2 + 1 y_17_ ^ 2 - 2 y_38_ * y_17_ + 1 y_38_ ^ 2 ] >= 32650.2
quadratic_ranged_86_lb: [ 1 x_37_ ^ 2 - 2 x_38_ * x_37_ + 1 x_38_ ^ 2 + 1 y_37_ ^ 2 - 2 y_38_ * y_37_ + 1 y_38_ ^ 2 ] >= 872.1899999999999
quadratic_ranged_87_lb: [ 1 x_5_ ^ 2 - 2 x_39_ * x_5_ + 1 x_39_ ^ 2 + 1 y_5_ ^ 2 - 2 y_39_ * y_5_ + 1 y_39_ ^ 2 ] >= 11842.38
quadratic_ranged_88_lb: [ 1 x_29_ ^ 2 - 2 x_39_ * x_29_ + 1 x_39_ ^ 2 + 1 y_29_ ^ 2 - 2 y_39_ * y_29_ + 1 y_39_ ^ 2 ] >= 23178.87
quadratic_ranged_89_lb: [ 1 x_30_ ^ 2 - 2 x_39_ * x_30_ + 1 x_39_ ^ 2 + 1 y_30_ ^ 2 - 2 y_39_ * y_30_ + 1 y_39_ ^ 2 ] >= 8848.62
quadratic_ranged_90_lb: [ 1 x_32_ ^ 2 - 2 x_39_ * x_32_ + 1 x_39_ ^ 2 + 1 y_32_ ^ 2 - 2 y_39_ * y_32_ + 1 y_39_ ^ 2 ] >= 25375.68
quadratic_ranged_91_lb: [ 1 x_38_ ^ 2 - 2 x_39_ * x_38_ + 1 x_39_ ^ 2 + 1 y_38_ ^ 2 - 2 y_39_ * y_38_ + 1 y_39_ ^ 2 ] >= 33216.48
quadratic_ranged_92_lb: [ 1 x_3_ ^ 2 - 2 x_40_ * x_3_ + 1 x_40_ ^ 2 + 1 y_3_ ^ 2 - 2 y_40_ * y_3_ + 1 y_40_ ^ 2 ] >= 975.15
quadratic_ranged_93_lb: [ 1 x_5_ ^ 2 - 2 x_40_ * x_5_ + 1 x_40_ ^ 2 + 1 y_5_ ^ 2 - 2 y_40_ * y_5_ + 1 y_40_ ^ 2 ] >= 18418.95
quadratic_ranged_94_lb: [ 1 x_6_ ^ 2 - 2 x_40_ * x_6_ + 1 x_40_ ^ 2 + 1 y_6_ ^ 2 - 2 y_40_ * y_6_ + 1 y_40_ ^ 2 ] >= 4697.55
quadratic_ranged_95_lb: [ 1 x_8_ ^ 2 - 2 x_40_ * x_8_ + 1 x_40_ ^ 2 + 1 y_8_ ^ 2 - 2 y_40_ * y_8_ + 1 y_40_ ^ 2 ] >= 18661.5
quadratic_ranged_96_lb: [ 1 x_15_ ^ 2 - 2 x_40_ * x_15_ + 1 x_40_ ^ 2 + 1 y_15_ ^ 2 - 2 y_40_ * y_15_ + 1 y_40_ ^ 2 ] >= 11929.5
quadratic_ranged_97_lb: [ 1 x_27_ ^ 2 - 2 x_40_ * x_27_ + 1 x_40_ ^ 2 + 1 y_27_ ^ 2 - 2 y_40_ * y_27_ + 1 y_40_ ^ 2 ] >= 22299.75
quadratic_ranged_98_lb: [ 1 x_39_ ^ 2 - 2 x_40_ * x_39_ + 1 x_40_ ^ 2 + 1 y_39_ ^ 2 - 2 y_40_ * y_39_ + 1 y_40_ ^ 2 ] >= 24394.59
quadratic_ranged_99_lb: [ 1 x_6_ ^ 2 - 2 x_41_ * x_6_ + 1 x_41_ ^ 2 + 1 y_6_ ^ 2 - 2 y_41_ * y_6_ + 1 y_41_ ^ 2 ] >= 33015.51
quadratic_ranged_100_lb: [ 1 x_16_ ^ 2 - 2 x_41_ * x_16_ + 1 x_41_ ^ 2 + 1 y_16_ ^ 2 - 2 y_41_ * y_16_ + 1 y_41_ ^ 2 ] >= 10915.74
quadratic_ranged_101_lb: [ 1 x_18_ ^ 2 - 2 x_41_ * x_18_ + 1 x_41_ ^ 2 + 1 y_18_ ^ 2 - 2 y_41_ * y_18_ + 1 y_41_ ^ 2 ] >= 41114.7
quadratic_ranged_102_lb: [ 1 x_36_ ^ 2 - 2 x_41_ * x_36_ + 1 x_41_ ^ 2 + 1 y_36_ ^ 2 - 2 y_41_ * y_36_ + 1 y_41_ ^ 2 ] >= 28298.16
quadratic_ranged_103_lb: [ 1 x_40_ ^ 2 - 2 x_41_ * x_40_ + 1 x_41_ ^ 2 + 1 y_40_ ^ 2 - 2 y_41_ * y_40_ + 1 y_41_ ^ 2 ] >= 35768.7
quadratic_ranged_104_lb: [ 1 x_5_ ^ 2 - 2 x_42_ * x_5_ + 1 x_42_ ^ 2 + 1 y_5_ ^ 2 - 2 y_42_ * y_5_ + 1 y_42_ ^ 2 ] >= 1340.46
quadratic_ranged_105_lb: [ 1 x_15_ ^ 2 - 2 x_42_ * x_15_ + 1 x_42_ ^ 2 + 1 y_15_ ^ 2 - 2 y_42_ * y_15_ + 1 y_42_ ^ 2 ] >= 5212.35
quadratic_ranged_106_lb: [ 1 x_28_ ^ 2 - 2 x_42_ * x_28_ + 1 x_42_ ^ 2 + 1 y_28_ ^ 2 - 2 y_42_ * y_28_ + 1 y_42_ ^ 2 ] >= 4880.7
quadratic_ranged_107_lb: [ 1 x_32_ ^ 2 - 2 x_42_ * x_32_ + 1 x_42_ ^ 2 + 1 y_32_ ^ 2 - 2 y_42_ * y_32_ + 1 y_42_ ^ 2 ] >= 399.96
quadratic_ranged_108_lb: [ 1 x_34_ ^ 2 - 2 x_42_ * x_34_ + 1 x_42_ ^ 2 + 1 y_34_ ^ 2 - 2 y_42_ * y_34_ + 1 y_42_ ^ 2 ] >= 11454.3
quadratic_ranged_109_lb: [ 1 x_41_ ^ 2 - 2 x_42_ * x_41_ + 1 x_42_ ^ 2 + 1 y_41_ ^ 2 - 2 y_42_ * y_41_ + 1 y_42_ ^ 2 ] >= 25867.71
quadratic_ranged_110_lb: [ 1 x_6_ ^ 2 - 2 x_43_ * x_6_ + 1 x_43_ ^ 2 + 1 y_6_ ^ 2 - 2 y_43_ * y_6_ + 1 y_43_ ^ 2 ] >= 16784.46
quadratic_ranged_111_lb: [ 1 x_9_ ^ 2 - 2 x_43_ * x_9_ + 1 x_43_ ^ 2 + 1 y_9_ ^ 2 - 2 y_43_ * y_9_ + 1 y_43_ ^ 2 ] >= 9157.5
quadratic_ranged_112_lb: [ 1 x_16_ ^ 2 - 2 x_43_ * x_16_ + 1 x_43_ ^ 2 + 1 y_16_ ^ 2 - 2 y_43_ * y_16_ + 1 y_43_ ^ 2 ] >= 5885.55
quadratic_ranged_113_lb: [ 1 x_21_ ^ 2 - 2 x_43_ * x_21_ + 1 x_43_ ^ 2 + 1 y_21_ ^ 2 - 2 y_43_ * y_21_ + 1 y_43_ ^ 2 ] >= 13378.86
quadratic_ranged_114_lb: [ 1 x_25_ ^ 2 - 2 x_43_ * x_25_ + 1 x_43_ ^ 2 + 1 y_25_ ^ 2 - 2 y_43_ * y_25_ + 1 y_43_ ^ 2 ] >= 16523.1
quadratic_ranged_115_lb: [ 1 x_27_ ^ 2 - 2 x_43_ * x_27_ + 1 x_43_ ^ 2 + 1 y_27_ ^ 2 - 2 y_43_ * y_27_ + 1 y_43_ ^ 2 ] >= 7676.46
quadratic_ranged_116_lb: [ 1 x_42_ ^ 2 - 2 x_43_ * x_42_ + 1 x_43_ ^ 2 + 1 y_42_ ^ 2 - 2 y_43_ * y_42_ + 1 y_43_ ^ 2 ] >= 3247.2
quadratic_ranged_117_lb: [ 1 x_21_ ^ 2 - 2 x_44_ * x_21_ + 1 x_44_ ^ 2 + 1 y_21_ ^ 2 - 2 y_44_ * y_21_ + 1 y_44_ ^ 2 ] >= 28807.02
quadratic_ranged_118_lb: [ 1 x_27_ ^ 2 - 2 x_44_ * x_27_ + 1 x_44_ ^ 2 + 1 y_27_ ^ 2 - 2 y_44_ * y_27_ + 1 y_44_ ^ 2 ] >= 10274.22
quadratic_ranged_119_lb: [ 1 x_28_ ^ 2 - 2 x_44_ * x_28_ + 1 x_44_ ^ 2 + 1 y_28_ ^ 2 - 2 y_44_ * y_28_ + 1 y_44_ ^ 2 ] >= 18344.7
quadratic_ranged_120_lb: [ 1 x_43_ ^ 2 - 2 x_44_ * x_43_ + 1 x_44_ ^ 2 + 1 y_43_ ^ 2 - 2 y_44_ * y_43_ + 1 y_44_ ^ 2 ] >= 5722.2
quadratic_ranged_121_lb: [ 1 x_1_ ^ 2 - 2 x_45_ * x_1_ + 1 x_45_ ^ 2 + 1 y_1_ ^ 2 - 2 y_45_ * y_1_ + 1 y_45_ ^ 2 ] >= 7048.8
quadratic_ranged_122_lb: [ 1 x_7_ ^ 2 - 2 x_45_ * x_7_ + 1 x_45_ ^ 2 + 1 y_7_ ^ 2 - 2 y_45_ * y_7_ + 1 y_45_ ^ 2 ] >= 8395.2
quadratic_ranged_123_lb: [ 1 x_17_ ^ 2 - 2 x_45_ * x_17_ + 1 x_45_ ^ 2 + 1 y_17_ ^ 2 - 2 y_45_ * y_17_ + 1 y_45_ ^ 2 ] >= 25670.7
quadratic_ranged_124_lb: [ 1 x_26_ ^ 2 - 2 x_45_ * x_26_ + 1 x_45_ ^ 2 + 1 y_26_ ^ 2 - 2 y_45_ * y_26_ + 1 y_45_ ^ 2 ] >= 4365.9
quadratic_ranged_125_lb: [ 1 x_27_ ^ 2 - 2 x_45_ * x_27_ + 1 x_45_ ^ 2 + 1 y_27_ ^ 2 - 2 y_45_ * y_27_ + 1 y_45_ ^ 2 ] >= 38590.2
quadratic_ranged_126_lb: [ 1 x_44_ ^ 2 - 2 x_45_ * x_44_ + 1 x_45_ ^ 2 + 1 y_44_ ^ 2 - 2 y_45_ * y_44_ + 1 y_45_ ^ 2 ] >= 35903.34
quadratic_ranged_127_lb: [ 1 x_10_ ^ 2 - 2 x_46_ * x_10_ + 1 x_46_ ^ 2 + 1 y_10_ ^ 2 - 2 y_46_ * y_10_ + 1 y_46_ ^ 2 ] >= 1327.59
quadratic_ranged_128_lb: [ 1 x_13_ ^ 2 - 2 x_46_ * x_13_ + 1 x_46_ ^ 2 + 1 y_13_ ^ 2 - 2 y_46_ * y_13_ + 1 y_46_ ^ 2 ] >= 21824.55
quadratic_ranged_129_lb: [ 1 x_17_ ^ 2 - 2 x_46_ * x_17_ + 1 x_46_ ^ 2 + 1 y_17_ ^ 2 - 2 y_46_ * y_17_ + 1 y_46_ ^ 2 ] >= 17025.03
quadratic_ranged_130_lb: [ 1 x_21_ ^ 2 - 2 x_46_ * x_21_ + 1 x_46_ ^ 2 + 1 y_21_ ^ 2 - 2 y_46_ * y_21_ + 1 y_46_ ^ 2 ] >= 987.03
quadratic_ranged_131_lb: [ 1 x_28_ ^ 2 - 2 x_46_ * x_28_ + 1 x_46_ ^ 2 + 1 y_28_ ^ 2 - 2 y_46_ * y_28_ + 1 y_46_ ^ 2 ] >= 10023.75
quadratic_ranged_132_lb: [ 1 x_33_ ^ 2 - 2 x_46_ * x_33_ + 1 x_46_ ^ 2 + 1 y_33_ ^ 2 - 2 y_46_ * y_33_ + 1 y_46_ ^ 2 ] >= 6631.0199999999995
quadratic_ranged_133_lb: [ 1 x_45_ ^ 2 - 2 x_46_ * x_45_ + 1 x_46_ ^ 2 + 1 y_45_ ^ 2 - 2 y_46_ * y_45_ + 1 y_46_ ^ 2 ] >= 899.91
quadratic_ranged_134_lb: [ 1 x_16_ ^ 2 - 2 x_47_ * x_16_ + 1 x_47_ ^ 2 + 1 y_16_ ^ 2 - 2 y_47_ * y_16_ + 1 y_47_ ^ 2 ] >= 8753.58
quadratic_ranged_135_lb: [ 1 x_19_ ^ 2 - 2 x_47_ * x_19_ + 1 x_47_ ^ 2 + 1 y_19_ ^ 2 - 2 y_47_ * y_19_ + 1 y_47_ ^ 2 ] >= 22278.96
quadratic_ranged_136_lb: [ 1 x_27_ ^ 2 - 2 x_47_ * x_27_ + 1 x_47_ ^ 2 + 1 y_27_ ^ 2 - 2 y_47_ * y_27_ + 1 y_47_ ^ 2 ] >= 52.47
quadratic_ranged_137_lb: [ 1 x_42_ ^ 2 - 2 x_47_ * x_42_ + 1 x_47_ ^ 2 + 1 y_42_ ^ 2 - 2 y_47_ * y_42_ + 1 y_47_ ^ 2 ] >= 1450.35
quadratic_ranged_138_lb: [ 1 x_43_ ^ 2 - 2 x_47_ * x_43_ + 1 x_47_ ^ 2 + 1 y_43_ ^ 2 - 2 y_47_ * y_43_ + 1 y_47_ ^ 2 ] >= 8998.11
quadratic_ranged_139_lb: [ 1 x_46_ ^ 2 - 2 x_47_ * x_46_ + 1 x_47_ ^ 2 + 1 y_46_ ^ 2 - 2 y_47_ * y_46_ + 1 y_47_ ^ 2 ] >= 33600.6
quadratic_ranged_140_lb: [ 1 x_11_ ^ 2 - 2 x_48_ * x_11_ + 1 x_48_ ^ 2 + 1 y_11_ ^ 2 - 2 y_48_ * y_11_ + 1 y_48_ ^ 2 ] >= 9924.75
quadratic_ranged_141_lb: [ 1 x_12_ ^ 2 - 2 x_48_ * x_12_ + 1 x_48_ ^ 2 + 1 y_12_ ^ 2 - 2 y_48_ * y_12_ + 1 y_48_ ^ 2 ] >= 11287.98
quadratic_ranged_142_lb: [ 1 x_18_ ^ 2 - 2 x_48_ * x_18_ + 1 x_48_ ^ 2 + 1 y_18_ ^ 2 - 2 y_48_ * y_18_ + 1 y_48_ ^ 2 ] >= 26984.43
quadratic_ranged_143_lb: [ 1 x_20_ ^ 2 - 2 x_48_ * x_20_ + 1 x_48_ ^ 2 + 1 y_20_ ^ 2 - 2 y_48_ * y_20_ + 1 y_48_ ^ 2 ] >= 6138.99
quadratic_ranged_144_lb: [ 1 x_47_ ^ 2 - 2 x_48_ * x_47_ + 1 x_48_ ^ 2 + 1 y_47_ ^ 2 - 2 y_48_ * y_47_ + 1 y_48_ ^ 2 ] >= 11805.75
quadratic_ranged_145_lb: [ 1 x_3_ ^ 2 - 2 x_49_ * x_3_ + 1 x_49_ ^ 2 + 1 y_3_ ^ 2 - 2 y_49_ * y_3_ + 1 y_49_ ^ 2 ] >= 14513.4
quadratic_ranged_146_lb: [ 1 x_9_ ^ 2 - 2 x_49_ * x_9_ + 1 x_49_ ^ 2 + 1 y_9_ ^ 2 - 2 y_49_ * y_9_ + 1 y_49_ ^ 2 ] >= 10939.5
quadratic_ranged_147_lb: [ 1 x_23_ ^ 2 - 2 x_49_ * x_23_ + 1 x_49_ ^ 2 + 1 y_23_ ^ 2 - 2 y_49_ * y_23_ + 1 y_49_ ^ 2 ] >= 13500.63
quadratic_ranged_148_lb: [ 1 x_33_ ^ 2 - 2 x_49_ * x_33_ + 1 x_49_ ^ 2 + 1 y_33_ ^ 2 - 2 y_49_ * y_33_ + 1 y_49_ ^ 2 ] >= 14534.19
quadratic_ranged_149_lb: [ 1 x_44_ ^ 2 - 2 x_49_ * x_44_ + 1 x_49_ ^ 2 + 1 y_44_ ^ 2 - 2 y_49_ * y_44_ + 1 y_49_ ^ 2 ] >= 5421.24
quadratic_ranged_150_lb: [ 1 x_48_ ^ 2 - 2 x_49_ * x_48_ + 1 x_49_ ^ 2 + 1 y_48_ ^ 2 - 2 y_49_ * y_48_ + 1 y_49_ ^ 2 ] >= 3583.8
quadratic_ranged_151_lb: [ 1 x_1_ ^ 2 - 2 x_50_ * x_1_ + 1 x_50_ ^ 2 + 1 y_1_ ^ 2 - 2 y_50_ * y_1_ + 1 y_50_ ^ 2 ] >= 16838.91
quadratic_ranged_152_lb: [ 1 x_8_ ^ 2 - 2 x_50_ * x_8_ + 1 x_50_ ^ 2 + 1 y_8_ ^ 2 - 2 y_50_ * y_8_ + 1 y_50_ ^ 2 ] >= 2267.1
quadratic_ranged_153_lb: [ 1 x_9_ ^ 2 - 2 x_50_ * x_9_ + 1 x_50_ ^ 2 + 1 y_9_ ^ 2 - 2 y_50_ * y_9_ + 1 y_50_ ^ 2 ] >= 3747.15
quadratic_ranged_154_lb: [ 1 x_43_ ^ 2 - 2 x_50_ * x_43_ + 1 x_50_ ^ 2 + 1 y_43_ ^ 2 - 2 y_50_ * y_43_ + 1 y_50_ ^ 2 ] >= 9069.39
quadratic_ranged_155_lb: [ 1 x_45_ ^ 2 - 2 x_50_ * x_45_ + 1 x_50_ ^ 2 + 1 y_45_ ^ 2 - 2 y_50_ * y_45_ + 1 y_50_ ^ 2 ] >= 44265.87
quadratic_ranged_156_lb: [ 1 x_46_ ^ 2 - 2 x_50_ * x_46_ + 1 x_50_ ^ 2 + 1 y_46_ ^ 2 - 2 y_50_ * y_46_ + 1 y_50_ ^ 2 ] >= 35531.1
quadratic_ranged_157_lb: [ 1 x_47_ ^ 2 - 2 x_50_ * x_47_ + 1 x_50_ ^ 2 + 1 y_47_ ^ 2 - 2 y_50_ * y_47_ + 1 y_50_ ^ 2 ] >= 405.9
quadratic_ranged_158_lb: [ 1 x_49_ ^ 2 - 2 x_50_ * x_49_ + 1 x_50_ ^ 2 + 1 y_49_ ^ 2 - 2 y_50_ * y_49_ + 1 y_50_ ^ 2 ] >= 13627.35
quadratic_ranged_159_lb: [ 1 x_13_ ^ 2 - 2 x_51_ * x_13_ + 1 x_51_ ^ 2 + 1 y_13_ ^ 2 - 2 y_51_ * y_13_ + 1 y_51_ ^ 2 ] >= 587.07
quadratic_ranged_160_lb: [ 1 x_26_ ^ 2 - 2 x_51_ * x_26_ + 1 x_51_ ^ 2 + 1 y_26_ ^ 2 - 2 y_51_ * y_26_ + 1 y_51_ ^ 2 ] >= 8914.95
quadratic_ranged_161_lb: [ 1 x_27_ ^ 2 - 2 x_51_ * x_27_ + 1 x_51_ ^ 2 + 1 y_27_ ^ 2 - 2 y_51_ * y_27_ + 1 y_51_ ^ 2 ] >= 8404.11
quadratic_ranged_162_lb: [ 1 x_42_ ^ 2 - 2 x_51_ * x_42_ + 1 x_51_ ^ 2 + 1 y_42_ ^ 2 - 2 y_51_ * y_42_ + 1 y_51_ ^ 2 ] >= 7639.83
quadratic_ranged_163_lb: [ 1 x_45_ ^ 2 - 2 x_51_ * x_45_ + 1 x_51_ ^ 2 + 1 y_45_ ^ 2 - 2 y_51_ * y_45_ + 1 y_51_ ^ 2 ] >= 25546.95
quadratic_ranged_164_lb: [ 1 x_50_ ^ 2 - 2 x_51_ * x_50_ + 1 x_51_ ^ 2 + 1 y_50_ ^ 2 - 2 y_51_ * y_50_ + 1 y_51_ ^ 2 ] >= 12666.06
quadratic_ranged_165_lb: [ 1 x_8_ ^ 2 - 2 x_52_ * x_8_ + 1 x_52_ ^ 2 + 1 y_8_ ^ 2 - 2 y_52_ * y_8_ + 1 y_52_ ^ 2 ] >= 1287
quadratic_ranged_166_lb: [ 1 x_10_ ^ 2 - 2 x_52_ * x_10_ + 1 x_52_ ^ 2 + 1 y_10_ ^ 2 - 2 y_52_ * y_10_ + 1 y_52_ ^ 2 ] >= 36793.35
quadratic_ranged_167_lb: [ 1 x_15_ ^ 2 - 2 x_52_ * x_15_ + 1 x_52_ ^ 2 + 1 y_15_ ^ 2 - 2 y_52_ * y_15_ + 1 y_52_ ^ 2 ] >= 17412.12
quadratic_ranged_168_lb: [ 1 x_20_ ^ 2 - 2 x_52_ * x_20_ + 1 x_52_ ^ 2 + 1 y_20_ ^ 2 - 2 y_52_ * y_20_ + 1 y_52_ ^ 2 ] >= 1570.1399999999999
quadratic_ranged_169_lb: [ 1 x_23_ ^ 2 - 2 x_52_ * x_23_ + 1 x_52_ ^ 2 + 1 y_23_ ^ 2 - 2 y_52_ * y_23_ + 1 y_52_ ^ 2 ] >= 1837.44
quadratic_ranged_170_lb: [ 1 x_40_ ^ 2 - 2 x_52_ * x_40_ + 1 x_52_ ^ 2 + 1 y_40_ ^ 2 - 2 y_52_ * y_40_ + 1 y_52_ ^ 2 ] >= 29329.739999999998
quadratic_ranged_171_lb: [ 1 x_51_ ^ 2 - 2 x_52_ * x_51_ + 1 x_52_ ^ 2 + 1 y_51_ ^ 2 - 2 y_52_ * y_51_ + 1 y_52_ ^ 2 ] >= 21879
quadratic_ranged_172_lb: [ 1 x_12_ ^ 2 - 2 x_53_ * x_12_ + 1 x_53_ ^ 2 + 1 y_12_ ^ 2 - 2 y_53_ * y_12_ + 1 y_53_ ^ 2 ] >= 4657.95
quadratic_ranged_173_lb: [ 1 x_22_ ^ 2 - 2 x_53_ * x_22_ + 1 x_53_ ^ 2 + 1 y_22_ ^ 2 - 2 y_53_ * y_22_ + 1 y_53_ ^ 2 ] >= 35526.15
quadratic_ranged_174_lb: [ 1 x_25_ ^ 2 - 2 x_53_ * x_25_ + 1 x_53_ ^ 2 + 1 y_25_ ^ 2 - 2 y_53_ * y_25_ + 1 y_53_ ^ 2 ] >= 58917.87
quadratic_ranged_175_lb: [ 1 x_34_ ^ 2 - 2 x_53_ * x_34_ + 1 x_53_ ^ 2 + 1 y_34_ ^ 2 - 2 y_53_ * y_34_ + 1 y_53_ ^ 2 ] >= 2721.5099999999998
quadratic_ranged_176_lb: [ 1 x_41_ ^ 2 - 2 x_53_ * x_41_ + 1 x_53_ ^ 2 + 1 y_41_ ^ 2 - 2 y_53_ * y_41_ + 1 y_53_ ^ 2 ] >= 19.8
quadratic_ranged_177_lb: [ 1 x_42_ ^ 2 - 2 x_53_ * x_42_ + 1 x_53_ ^ 2 + 1 y_42_ ^ 2 - 2 y_53_ * y_42_ + 1 y_53_ ^ 2 ] >= 24786.63
quadratic_ranged_178_lb: [ 1 x_52_ ^ 2 - 2 x_53_ * x_52_ + 1 x_53_ ^ 2 + 1 y_52_ ^ 2 - 2 y_53_ * y_52_ + 1 y_53_ ^ 2 ] >= 16734.96
quadratic_ranged_179_lb: [ 1 x_14_ ^ 2 - 2 x_54_ * x_14_ + 1 x_54_ ^ 2 + 1 y_14_ ^ 2 - 2 y_54_ * y_14_ + 1 y_54_ ^ 2 ] >= 7217.1
quadratic_ranged_180_lb: [ 1 x_19_ ^ 2 - 2 x_54_ * x_19_ + 1 x_54_ ^ 2 + 1 y_19_ ^ 2 - 2 y_54_ * y_19_ + 1 y_54_ ^ 2 ] >= 7074.54
quadratic_ranged_181_lb: [ 1 x_38_ ^ 2 - 2 x_54_ * x_38_ + 1 x_54_ ^ 2 + 1 y_38_ ^ 2 - 2 y_54_ * y_38_ + 1 y_54_ ^ 2 ] >= 4875.75
quadratic_ranged_182_lb: [ 1 x_52_ ^ 2 - 2 x_54_ * x_52_ + 1 x_54_ ^ 2 + 1 y_52_ ^ 2 - 2 y_54_ * y_52_ + 1 y_54_ ^ 2 ] >= 7343.82
quadratic_ranged_183_lb: [ 1 x_53_ ^ 2 - 2 x_54_ * x_53_ + 1 x_54_ ^ 2 + 1 y_53_ ^ 2 - 2 y_54_ * y_53_ + 1 y_54_ ^ 2 ] >= 18487.26
quadratic_ranged_184_lb: [ 1 x_3_ ^ 2 - 2 x_55_ * x_3_ + 1 x_55_ ^ 2 + 1 y_3_ ^ 2 - 2 y_55_ * y_3_ + 1 y_55_ ^ 2 ] >= 6210.2699999999995
quadratic_ranged_185_lb: [ 1 x_25_ ^ 2 - 2 x_55_ * x_25_ + 1 x_55_ ^ 2 + 1 y_25_ ^ 2 - 2 y_55_ * y_25_ + 1 y_55_ ^ 2 ] >= 1664.19
quadratic_ranged_186_lb: [ 1 x_41_ ^ 2 - 2 x_55_ * x_41_ + 1 x_55_ ^ 2 + 1 y_41_ ^ 2 - 2 y_55_ * y_41_ + 1 y_55_ ^ 2 ] >= 48361.5
quadratic_ranged_187_lb: [ 1 x_46_ ^ 2 - 2 x_55_ * x_46_ + 1 x_55_ ^ 2 + 1 y_46_ ^ 2 - 2 y_55_ * y_46_ + 1 y_55_ ^ 2 ] >= 21615.66
quadratic_ranged_188_lb: [ 1 x_54_ ^ 2 - 2 x_55_ * x_54_ + 1 x_55_ ^ 2 + 1 y_54_ ^ 2 - 2 y_55_ * y_54_ + 1 y_55_ ^ 2 ] >= 6407.28
quadratic_ranged_189_lb: [ 1 x_19_ ^ 2 - 2 x_56_ * x_19_ + 1 x_56_ ^ 2 + 1 y_19_ ^ 2 - 2 y_56_ * y_19_ + 1 y_56_ ^ 2 ] >= 12673.98
quadratic_ranged_190_lb: [ 1 x_21_ ^ 2 - 2 x_56_ * x_21_ + 1 x_56_ ^ 2 + 1 y_21_ ^ 2 - 2 y_56_ * y_21_ + 1 y_56_ ^ 2 ] >= 39668.31
quadratic_ranged_191_lb: [ 1 x_38_ ^ 2 - 2 x_56_ * x_38_ + 1 x_56_ ^ 2 + 1 y_38_ ^ 2 - 2 y_56_ * y_38_ + 1 y_56_ ^ 2 ] >= 17298.27
quadratic_ranged_192_lb: [ 1 x_48_ ^ 2 - 2 x_56_ * x_48_ + 1 x_56_ ^ 2 + 1 y_48_ ^ 2 - 2 y_56_ * y_48_ + 1 y_56_ ^ 2 ] >= 2974.95
quadratic_ranged_193_lb: [ 1 x_54_ ^ 2 - 2 x_56_ * x_54_ + 1 x_56_ ^ 2 + 1 y_54_ ^ 2 - 2 y_56_ * y_54_ + 1 y_56_ ^ 2 ] >= 8688.24
quadratic_ranged_194_lb: [ 1 x_55_ ^ 2 - 2 x_56_ * x_55_ + 1 x_56_ ^ 2 + 1 y_55_ ^ 2 - 2 y_56_ * y_55_ + 1 y_56_ ^ 2 ] >= 19895.04
quadratic_ranged_195_lb: [ 1 x_6_ ^ 2 - 2 x_57_ * x_6_ + 1 x_57_ ^ 2 + 1 y_6_ ^ 2 - 2 y_57_ * y_6_ + 1 y_57_ ^ 2 ] >= 25633.079999999998
quadratic_ranged_196_lb: [ 1 x_7_ ^ 2 - 2 x_57_ * x_7_ + 1 x_57_ ^ 2 + 1 y_7_ ^ 2 - 2 y_57_ * y_7_ + 1 y_57_ ^ 2 ] >= 8082.36
quadratic_ranged_197_lb: [ 1 x_9_ ^ 2 - 2 x_57_ * x_9_ + 1 x_57_ ^ 2 + 1 y_9_ ^ 2 - 2 y_57_ * y_9_ + 1 y_57_ ^ 2 ] >= 4118.4
quadratic_ranged_198_lb: [ 1 x_35_ ^ 2 - 2 x_57_ * x_35_ + 1 x_57_ ^ 2 + 1 y_35_ ^ 2 - 2 y_57_ * y_35_ + 1 y_57_ ^ 2 ] >= 13191.75
quadratic_ranged_199_lb: [ 1 x_47_ ^ 2 - 2 x_57_ * x_47_ + 1 x_57_ ^ 2 + 1 y_47_ ^ 2 - 2 y_57_ * y_47_ + 1 y_57_ ^ 2 ] >= 6855.75
quadratic_ranged_200_lb: [ 1 x_55_ ^ 2 - 2 x_57_ * x_55_ + 1 x_57_ ^ 2 + 1 y_55_ ^ 2 - 2 y_57_ * y_55_ + 1 y_57_ ^ 2 ] >= 13263.03
quadratic_ranged_201_lb: [ 1 x_56_ ^ 2 - 2 x_57_ * x_56_ + 1 x_57_ ^ 2 + 1 y_56_ ^ 2 - 2 y_57_ * y_56_ + 1 y_57_ ^ 2 ] >= 3331.35
quadratic_ranged_202_lb: [ 1 x_12_ ^ 2 - 2 x_58_ * x_12_ + 1 x_58_ ^ 2 + 1 y_12_ ^ 2 - 2 y_58_ * y_12_ + 1 y_58_ ^ 2 ] >= 16790.4
quadratic_ranged_203_lb: [ 1 x_14_ ^ 2 - 2 x_58_ * x_14_ + 1 x_58_ ^ 2 + 1 y_14_ ^ 2 - 2 y_58_ * y_14_ + 1 y_58_ ^ 2 ] >= 12015.63
quadratic_ranged_204_lb: [ 1 x_15_ ^ 2 - 2 x_58_ * x_15_ + 1 x_58_ ^ 2 + 1 y_15_ ^ 2 - 2 y_58_ * y_15_ + 1 y_58_ ^ 2 ] >= 9948.51
quadratic_ranged_205_lb: [ 1 x_25_ ^ 2 - 2 x_58_ * x_25_ + 1 x_58_ ^ 2 + 1 y_25_ ^ 2 - 2 y_58_ * y_25_ + 1 y_58_ ^ 2 ] >= 7575.48
quadratic_ranged_206_lb: [ 1 x_46_ ^ 2 - 2 x_58_ * x_46_ + 1 x_58_ ^ 2 + 1 y_46_ ^ 2 - 2 y_58_ * y_46_ + 1 y_58_ ^ 2 ] >= 3782.79
quadratic_ranged_207_lb: [ 1 x_55_ ^ 2 - 2 x_58_ * x_55_ + 1 x_58_ ^ 2 + 1 y_55_ ^ 2 - 2 y_58_ * y_55_ + 1 y_58_ ^ 2 ] >= 7940.79
quadratic_ranged_208_lb: [ 1 x_57_ ^ 2 - 2 x_58_ * x_57_ + 1 x_58_ ^ 2 + 1 y_57_ ^ 2 - 2 y_58_ * y_57_ + 1 y_58_ ^ 2 ] >= 13008.6
quadratic_ranged_209_lb: [ 1 x_16_ ^ 2 - 2 x_59_ * x_16_ + 1 x_59_ ^ 2 + 1 y_16_ ^ 2 - 2 y_59_ * y_16_ + 1 y_59_ ^ 2 ] >= 18276.39
quadratic_ranged_210_lb: [ 1 x_19_ ^ 2 - 2 x_59_ * x_19_ + 1 x_59_ ^ 2 + 1 y_19_ ^ 2 - 2 y_59_ * y_19_ + 1 y_59_ ^ 2 ] >= 2495.79
quadratic_ranged_211_lb: [ 1 x_40_ ^ 2 - 2 x_59_ * x_40_ + 1 x_59_ ^ 2 + 1 y_40_ ^ 2 - 2 y_59_ * y_40_ + 1 y_59_ ^ 2 ] >= 14138.19
quadratic_ranged_212_lb: [ 1 x_58_ ^ 2 - 2 x_59_ * x_58_ + 1 x_59_ ^ 2 + 1 y_58_ ^ 2 - 2 y_59_ * y_58_ + 1 y_59_ ^ 2 ] >= 13440.24
quadratic_ranged_213_lb: [ 1 x_8_ ^ 2 - 2 x_60_ * x_8_ + 1 x_60_ ^ 2 + 1 y_8_ ^ 2 - 2 y_60_ * y_8_ + 1 y_60_ ^ 2 ] >= 10875.15
quadratic_ranged_214_lb: [ 1 x_20_ ^ 2 - 2 x_60_ * x_20_ + 1 x_60_ ^ 2 + 1 y_20_ ^ 2 - 2 y_60_ * y_20_ + 1 y_60_ ^ 2 ] >= 11124.63
quadratic_ranged_215_lb: [ 1 x_41_ ^ 2 - 2 x_60_ * x_41_ + 1 x_60_ ^ 2 + 1 y_41_ ^ 2 - 2 y_60_ * y_41_ + 1 y_60_ ^ 2 ] >= 44958.87
quadratic_ranged_216_lb: [ 1 x_42_ ^ 2 - 2 x_60_ * x_42_ + 1 x_60_ ^ 2 + 1 y_42_ ^ 2 - 2 y_60_ * y_42_ + 1 y_60_ ^ 2 ] >= 6122.16
quadratic_ranged_217_lb: [ 1 x_51_ ^ 2 - 2 x_60_ * x_51_ + 1 x_60_ ^ 2 + 1 y_51_ ^ 2 - 2 y_60_ * y_51_ + 1 y_60_ ^ 2 ] >= 579.15
quadratic_ranged_218_lb: [ 1 x_59_ ^ 2 - 2 x_60_ * x_59_ + 1 x_60_ ^ 2 + 1 y_59_ ^ 2 - 2 y_60_ * y_59_ + 1 y_60_ ^ 2 ] >= 28244.7
quadratic_ranged_219_lb: [ 1 x_4_ ^ 2 - 2 x_61_ * x_4_ + 1 x_61_ ^ 2 + 1 y_4_ ^ 2 - 2 y_61_ * y_4_ + 1 y_61_ ^ 2 ] >= 14042.16
quadratic_ranged_220_lb: [ 1 x_5_ ^ 2 - 2 x_61_ * x_5_ + 1 x_61_ ^ 2 + 1 y_5_ ^ 2 - 2 y_61_ * y_5_ + 1 y_61_ ^ 2 ] >= 958.3199999999999
quadratic_ranged_221_lb: [ 1 x_6_ ^ 2 - 2 x_61_ * x_6_ + 1 x_61_ ^ 2 + 1 y_6_ ^ 2 - 2 y_61_ * y_6_ + 1 y_61_ ^ 2 ] >= 21241.44
quadratic_ranged_222_lb: [ 1 x_38_ ^ 2 - 2 x_61_ * x_38_ + 1 x_61_ ^ 2 + 1 y_38_ ^ 2 - 2 y_61_ * y_38_ + 1 y_61_ ^ 2 ] >= 8896.14
quadratic_ranged_223_lb: [ 1 x_42_ ^ 2 - 2 x_61_ * x_42_ + 1 x_61_ ^ 2 + 1 y_42_ ^ 2 - 2 y_61_ * y_42_ + 1 y_61_ ^ 2 ] >= 2385.9
quadratic_ranged_224_lb: [ 1 x_54_ ^ 2 - 2 x_61_ * x_54_ + 1 x_61_ ^ 2 + 1 y_54_ ^ 2 - 2 y_61_ * y_54_ + 1 y_61_ ^ 2 ] >= 820.71
quadratic_ranged_225_lb: [ 1 x_55_ ^ 2 - 2 x_61_ * x_55_ + 1 x_61_ ^ 2 + 1 y_55_ ^ 2 - 2 y_61_ * y_55_ + 1 y_61_ ^ 2 ] >= 10993.95
quadratic_ranged_226_lb: [ 1 x_60_ ^ 2 - 2 x_61_ * x_60_ + 1 x_61_ ^ 2 + 1 y_60_ ^ 2 - 2 y_61_ * y_60_ + 1 y_61_ ^ 2 ] >= 9941.58
quadratic_ranged_227_lb: [ 1 x_8_ ^ 2 - 2 x_62_ * x_8_ + 1 x_62_ ^ 2 + 1 y_8_ ^ 2 - 2 y_62_ * y_8_ + 1 y_62_ ^ 2 ] >= 4581.72
quadratic_ranged_228_lb: [ 1 x_44_ ^ 2 - 2 x_62_ * x_44_ + 1 x_62_ ^ 2 + 1 y_44_ ^ 2 - 2 y_62_ * y_44_ + 1 y_62_ ^ 2 ] >= 13508.55
quadratic_ranged_229_lb: [ 1 x_49_ ^ 2 - 2 x_62_ * x_49_ + 1 x_62_ ^ 2 + 1 y_49_ ^ 2 - 2 y_62_ * y_49_ + 1 y_62_ ^ 2 ] >= 5818.23
quadratic_ranged_230_lb: [ 1 x_61_ ^ 2 - 2 x_62_ * x_61_ + 1 x_62_ ^ 2 + 1 y_61_ ^ 2 - 2 y_62_ * y_61_ + 1 y_62_ ^ 2 ] >= 3359.07
quadratic_ranged_231_lb: [ 1 x_4_ ^ 2 - 2 x_63_ * x_4_ + 1 x_63_ ^ 2 + 1 y_4_ ^ 2 - 2 y_63_ * y_4_ + 1 y_63_ ^ 2 ] >= 5870.7
quadratic_ranged_232_lb: [ 1 x_6_ ^ 2 - 2 x_63_ * x_6_ + 1 x_63_ ^ 2 + 1 y_6_ ^ 2 - 2 y_63_ * y_6_ + 1 y_63_ ^ 2 ] >= 7771.5
quadratic_ranged_233_lb: [ 1 x_14_ ^ 2 - 2 x_63_ * x_14_ + 1 x_63_ ^ 2 + 1 y_14_ ^ 2 - 2 y_63_ * y_14_ + 1 y_63_ ^ 2 ] >= 9592.11
quadratic_ranged_234_lb: [ 1 x_23_ ^ 2 - 2 x_63_ * x_23_ + 1 x_63_ ^ 2 + 1 y_23_ ^ 2 - 2 y_63_ * y_23_ + 1 y_63_ ^ 2 ] >= 21895.829999999998
quadratic_ranged_235_lb: [ 1 x_25_ ^ 2 - 2 x_63_ * x_25_ + 1 x_63_ ^ 2 + 1 y_25_ ^ 2 - 2 y_63_ * y_25_ + 1 y_63_ ^ 2 ] >= 6488.46
quadratic_ranged_236_lb: [ 1 x_29_ ^ 2 - 2 x_63_ * x_29_ + 1 x_63_ ^ 2 + 1 y_29_ ^ 2 - 2 y_63_ * y_29_ + 1 y_63_ ^ 2 ] >= 18228.87
quadratic_ranged_237_lb: [ 1 x_34_ ^ 2 - 2 x_63_ * x_34_ + 1 x_63_ ^ 2 + 1 y_34_ ^ 2 - 2 y_63_ * y_34_ + 1 y_63_ ^ 2 ] >= 16333.02
quadratic_ranged_238_lb: [ 1 x_36_ ^ 2 - 2 x_63_ * x_36_ + 1 x_63_ ^ 2 + 1 y_36_ ^ 2 - 2 y_63_ * y_36_ + 1 y_63_ ^ 2 ] >= 7952.67
quadratic_ranged_239_lb: [ 1 x_54_ ^ 2 - 2 x_63_ * x_54_ + 1 x_63_ ^ 2 + 1 y_54_ ^ 2 - 2 y_63_ * y_54_ + 1 y_63_ ^ 2 ] >= 3925.35
quadratic_ranged_240_lb: [ 1 x_56_ ^ 2 - 2 x_63_ * x_56_ + 1 x_63_ ^ 2 + 1 y_56_ ^ 2 - 2 y_63_ * y_56_ + 1 y_63_ ^ 2 ] >= 24228.27
quadratic_ranged_241_lb: [ 1 x_61_ ^ 2 - 2 x_63_ * x_61_ + 1 x_63_ ^ 2 + 1 y_61_ ^ 2 - 2 y_63_ * y_61_ + 1 y_63_ ^ 2 ] >= 7842.78
quadratic_ranged_242_lb: [ 1 x_62_ ^ 2 - 2 x_63_ * x_62_ + 1 x_63_ ^ 2 + 1 y_62_ ^ 2 - 2 y_63_ * y_62_ + 1 y_63_ ^ 2 ] >= 2808.63
quadratic_ranged_243_lb: [ 1 x_3_ ^ 2 - 2 x_64_ * x_3_ + 1 x_64_ ^ 2 + 1 y_3_ ^ 2 - 2 y_64_ * y_3_ + 1 y_64_ ^ 2 ] >= 19963.35
quadratic_ranged_244_lb: [ 1 x_13_ ^ 2 - 2 x_64_ * x_13_ + 1 x_64_ ^ 2 + 1 y_13_ ^ 2 - 2 y_64_ * y_13_ + 1 y_64_ ^ 2 ] >= 10340.55
quadratic_ranged_245_lb: [ 1 x_19_ ^ 2 - 2 x_64_ * x_19_ + 1 x_64_ ^ 2 + 1 y_19_ ^ 2 - 2 y_64_ * y_19_ + 1 y_64_ ^ 2 ] >= 6258.78
quadratic_ranged_246_lb: [ 1 x_26_ ^ 2 - 2 x_64_ * x_26_ + 1 x_64_ ^ 2 + 1 y_26_ ^ 2 - 2 y_64_ * y_26_ + 1 y_64_ ^ 2 ] >= 14403.51
quadratic_ranged_247_lb: [ 1 x_27_ ^ 2 - 2 x_64_ * x_27_ + 1 x_64_ ^ 2 + 1 y_27_ ^ 2 - 2 y_64_ * y_27_ + 1 y_64_ ^ 2 ] >= 4222.35
quadratic_ranged_248_lb: [ 1 x_42_ ^ 2 - 2 x_64_ * x_42_ + 1 x_64_ ^ 2 + 1 y_42_ ^ 2 - 2 y_64_ * y_42_ + 1 y_64_ ^ 2 ] >= 1782.99
quadratic_ranged_249_lb: [ 1 x_60_ ^ 2 - 2 x_64_ * x_60_ + 1 x_64_ ^ 2 + 1 y_60_ ^ 2 - 2 y_64_ * y_60_ + 1 y_64_ ^ 2 ] >= 12304.71
quadratic_ranged_250_lb: [ 1 x_63_ ^ 2 - 2 x_64_ * x_63_ + 1 x_64_ ^ 2 + 1 y_63_ ^ 2 - 2 y_64_ * y_63_ + 1 y_64_ ^ 2 ] >= 12201.75
quadratic_ranged_251_lb: [ 1 x_1_ ^ 2 - 2 x_65_ * x_1_ + 1 x_65_ ^ 2 + 1 y_1_ ^ 2 - 2 y_65_ * y_1_ + 1 y_65_ ^ 2 ] >= 9181.26
quadratic_ranged_252_lb: [ 1 x_3_ ^ 2 - 2 x_65_ * x_3_ + 1 x_65_ ^ 2 + 1 y_3_ ^ 2 - 2 y_65_ * y_3_ + 1 y_65_ ^ 2 ] >= 16679.52
quadratic_ranged_253_lb: [ 1 x_34_ ^ 2 - 2 x_65_ * x_34_ + 1 x_65_ ^ 2 + 1 y_34_ ^ 2 - 2 y_65_ * y_34_ + 1 y_65_ ^ 2 ] >= 7533.9
quadratic_ranged_254_lb: [ 1 x_37_ ^ 2 - 2 x_65_ * x_37_ + 1 x_65_ ^ 2 + 1 y_37_ ^ 2 - 2 y_65_ * y_37_ + 1 y_65_ ^ 2 ] >= 32156.19
quadratic_ranged_255_lb: [ 1 x_46_ ^ 2 - 2 x_65_ * x_46_ + 1 x_65_ ^ 2 + 1 y_46_ ^ 2 - 2 y_65_ * y_46_ + 1 y_65_ ^ 2 ] >= 2076.03
quadratic_ranged_256_lb: [ 1 x_47_ ^ 2 - 2 x_65_ * x_47_ + 1 x_65_ ^ 2 + 1 y_47_ ^ 2 - 2 y_65_ * y_47_ + 1 y_65_ ^ 2 ] >= 35522.19
quadratic_ranged_257_lb: [ 1 x_50_ ^ 2 - 2 x_65_ * x_50_ + 1 x_65_ ^ 2 + 1 y_50_ ^ 2 - 2 y_65_ * y_50_ + 1 y_65_ ^ 2 ] >= 35652.87
quadratic_ranged_258_lb: [ 1 x_59_ ^ 2 - 2 x_65_ * x_59_ + 1 x_65_ ^ 2 + 1 y_59_ ^ 2 - 2 y_65_ * y_59_ + 1 y_65_ ^ 2 ] >= 643.5
quadratic_ranged_259_lb: [ 1 x_60_ ^ 2 - 2 x_65_ * x_60_ + 1 x_65_ ^ 2 + 1 y_60_ ^ 2 - 2 y_65_ * y_60_ + 1 y_65_ ^ 2 ] >= 24492.6
quadratic_ranged_260_lb: [ 1 x_64_ ^ 2 - 2 x_65_ * x_64_ + 1 x_65_ ^ 2 + 1 y_64_ ^ 2 - 2 y_65_ * y_64_ + 1 y_65_ ^ 2 ] >= 16613.19
quadratic_ranged_261_lb: [ 1 x_6_ ^ 2 - 2 x_66_ * x_6_ + 1 x_66_ ^ 2 + 1 y_6_ ^ 2 - 2 y_66_ * y_6_ + 1 y_66_ ^ 2 ] >= 19772.28
quadratic_ranged_262_lb: [ 1 x_7_ ^ 2 - 2 x_66_ * x_7_ + 1 x_66_ ^ 2 + 1 y_7_ ^ 2 - 2 y_66_ * y_7_ + 1 y_66_ ^ 2 ] >= 4344.12
quadratic_ranged_263_lb: [ 1 x_26_ ^ 2 - 2 x_66_ * x_26_ + 1 x_66_ ^ 2 + 1 y_26_ ^ 2 - 2 y_66_ * y_26_ + 1 y_66_ ^ 2 ] >= 10583.1
quadratic_ranged_264_lb: [ 1 x_56_ ^ 2 - 2 x_66_ * x_56_ + 1 x_66_ ^ 2 + 1 y_56_ ^ 2 - 2 y_66_ * y_56_ + 1 y_66_ ^ 2 ] >= 6321.15
quadratic_ranged_265_lb: [ 1 x_57_ ^ 2 - 2 x_66_ * x_57_ + 1 x_66_ ^ 2 + 1 y_57_ ^ 2 - 2 y_66_ * y_57_ + 1 y_66_ ^ 2 ] >= 578.16
quadratic_ranged_266_lb: [ 1 x_65_ ^ 2 - 2 x_66_ * x_65_ + 1 x_66_ ^ 2 + 1 y_65_ ^ 2 - 2 y_66_ * y_65_ + 1 y_66_ ^ 2 ] >= 8563.5
quadratic_ranged_267_lb: [ 1 x_16_ ^ 2 - 2 x_67_ * x_16_ + 1 x_67_ ^ 2 + 1 y_16_ ^ 2 - 2 y_67_ * y_16_ + 1 y_67_ ^ 2 ] >= 37835.82
quadratic_ranged_268_lb: [ 1 x_21_ ^ 2 - 2 x_67_ * x_21_ + 1 x_67_ ^ 2 + 1 y_21_ ^ 2 - 2 y_67_ * y_21_ + 1 y_67_ ^ 2 ] >= 28869.39
quadratic_ranged_269_lb: [ 1 x_22_ ^ 2 - 2 x_67_ * x_22_ + 1 x_67_ ^ 2 + 1 y_22_ ^ 2 - 2 y_67_ * y_22_ + 1 y_67_ ^ 2 ] >= 9532.71
quadratic_ranged_270_lb: [ 1 x_32_ ^ 2 - 2 x_67_ * x_32_ + 1 x_67_ ^ 2 + 1 y_32_ ^ 2 - 2 y_67_ * y_32_ + 1 y_67_ ^ 2 ] >= 14530.23
quadratic_ranged_271_lb: [ 1 x_37_ ^ 2 - 2 x_67_ * x_37_ + 1 x_67_ ^ 2 + 1 y_37_ ^ 2 - 2 y_67_ * y_37_ + 1 y_67_ ^ 2 ] >= 7801.2
quadratic_ranged_272_lb: [ 1 x_47_ ^ 2 - 2 x_67_ * x_47_ + 1 x_67_ ^ 2 + 1 y_47_ ^ 2 - 2 y_67_ * y_47_ + 1 y_67_ ^ 2 ] >= 18790.2
quadratic_ranged_273_lb: [ 1 x_56_ ^ 2 - 2 x_67_ * x_56_ + 1 x_67_ ^ 2 + 1 y_56_ ^ 2 - 2 y_67_ * y_56_ + 1 y_67_ ^ 2 ] >= 36085.5
quadratic_ranged_274_lb: [ 1 x_62_ ^ 2 - 2 x_67_ * x_62_ + 1 x_67_ ^ 2 + 1 y_62_ ^ 2 - 2 y_67_ * y_62_ + 1 y_67_ ^ 2 ] >= 6914.16
quadratic_ranged_275_lb: [ 1 x_64_ ^ 2 - 2 x_67_ * x_64_ + 1 x_67_ ^ 2 + 1 y_64_ ^ 2 - 2 y_67_ * y_64_ + 1 y_67_ ^ 2 ] >= 23769.9
quadratic_ranged_276_lb: [ 1 x_66_ ^ 2 - 2 x_67_ * x_66_ + 1 x_67_ ^ 2 + 1 y_66_ ^ 2 - 2 y_67_ * y_66_ + 1 y_67_ ^ 2 ] >= 24069.87
quadratic_ranged_277_lb: [ 1 x_2_ ^ 2 - 2 x_68_ * x_2_ + 1 x_68_ ^ 2 + 1 y_2_ ^ 2 - 2 y_68_ * y_2_ + 1 y_68_ ^ 2 ] >= 27640.8
quadratic_ranged_278_lb: [ 1 x_6_ ^ 2 - 2 x_68_ * x_6_ + 1 x_68_ ^ 2 + 1 y_6_ ^ 2 - 2 y_68_ * y_6_ + 1 y_68_ ^ 2 ] >= 34112.43
quadratic_ranged_279_lb: [ 1 x_8_ ^ 2 - 2 x_68_ * x_8_ + 1 x_68_ ^ 2 + 1 y_8_ ^ 2 - 2 y_68_ * y_8_ + 1 y_68_ ^ 2 ] >= 4387.68
quadratic_ranged_280_lb: [ 1 x_23_ ^ 2 - 2 x_68_ * x_23_ + 1 x_68_ ^ 2 + 1 y_23_ ^ 2 - 2 y_68_ * y_23_ + 1 y_68_ ^ 2 ] >= 9761.4
quadratic_ranged_281_lb: [ 1 x_31_ ^ 2 - 2 x_68_ * x_31_ + 1 x_68_ ^ 2 + 1 y_31_ ^ 2 - 2 y_68_ * y_31_ + 1 y_68_ ^ 2 ] >= 33553.08
quadratic_ranged_282_lb: [ 1 x_33_ ^ 2 - 2 x_68_ * x_33_ + 1 x_68_ ^ 2 + 1 y_33_ ^ 2 - 2 y_68_ * y_33_ + 1 y_68_ ^ 2 ] >= 33155.1
quadratic_ranged_283_lb: [ 1 x_45_ ^ 2 - 2 x_68_ * x_45_ + 1 x_68_ ^ 2 + 1 y_45_ ^ 2 - 2 y_68_ * y_45_ + 1 y_68_ ^ 2 ] >= 32350.23
quadratic_ranged_284_lb: [ 1 x_49_ ^ 2 - 2 x_68_ * x_49_ + 1 x_68_ ^ 2 + 1 y_49_ ^ 2 - 2 y_68_ * y_49_ + 1 y_68_ ^ 2 ] >= 4246.11
quadratic_ranged_285_lb: [ 1 x_54_ ^ 2 - 2 x_68_ * x_54_ + 1 x_68_ ^ 2 + 1 y_54_ ^ 2 - 2 y_68_ * y_54_ + 1 y_68_ ^ 2 ] >= 8032.86
quadratic_ranged_286_lb: [ 1 x_55_ ^ 2 - 2 x_68_ * x_55_ + 1 x_68_ ^ 2 + 1 y_55_ ^ 2 - 2 y_68_ * y_55_ + 1 y_68_ ^ 2 ] >= 26573.579999999998
quadratic_ranged_287_lb: [ 1 x_57_ ^ 2 - 2 x_68_ * x_57_ + 1 x_68_ ^ 2 + 1 y_57_ ^ 2 - 2 y_68_ * y_57_ + 1 y_68_ ^ 2 ] >= 2305.71
quadratic_ranged_288_lb: [ 1 x_62_ ^ 2 - 2 x_68_ * x_62_ + 1 x_68_ ^ 2 + 1 y_62_ ^ 2 - 2 y_68_ * y_62_ + 1 y_68_ ^ 2 ] >= 14038.2
quadratic_ranged_289_lb: [ 1 x_67_ ^ 2 - 2 x_68_ * x_67_ + 1 x_68_ ^ 2 + 1 y_67_ ^ 2 - 2 y_68_ * y_67_ + 1 y_68_ ^ 2 ] >= 40459.32
quadratic_ranged_290_lb: [ 1 x_3_ ^ 2 - 2 x_69_ * x_3_ + 1 x_69_ ^ 2 + 1 y_3_ ^ 2 - 2 y_69_ * y_3_ + 1 y_69_ ^ 2 ] >= 19522.8
quadratic_ranged_291_lb: [ 1 x_16_ ^ 2 - 2 x_69_ * x_16_ + 1 x_69_ ^ 2 + 1 y_16_ ^ 2 - 2 y_69_ * y_16_ + 1 y_69_ ^ 2 ] >= 3493.71
quadratic_ranged_292_lb: [ 1 x_19_ ^ 2 - 2 x_69_ * x_19_ + 1 x_69_ ^ 2 + 1 y_19_ ^ 2 - 2 y_69_ * y_19_ + 1 y_69_ ^ 2 ] >= 1284.03
quadratic_ranged_293_lb: [ 1 x_31_ ^ 2 - 2 x_69_ * x_31_ + 1 x_69_ ^ 2 + 1 y_31_ ^ 2 - 2 y_69_ * y_31_ + 1 y_69_ ^ 2 ] >= 19987.11
quadratic_ranged_294_lb: [ 1 x_36_ ^ 2 - 2 x_69_ * x_36_ + 1 x_69_ ^ 2 + 1 y_36_ ^ 2 - 2 y_69_ * y_36_ + 1 y_69_ ^ 2 ] >= 7168.59
quadratic_ranged_295_lb: [ 1 x_56_ ^ 2 - 2 x_69_ * x_56_ + 1 x_69_ ^ 2 + 1 y_56_ ^ 2 - 2 y_69_ * y_56_ + 1 y_69_ ^ 2 ] >= 6657.75
quadratic_ranged_296_lb: [ 1 x_60_ ^ 2 - 2 x_69_ * x_60_ + 1 x_69_ ^ 2 + 1 y_60_ ^ 2 - 2 y_69_ * y_60_ + 1 y_69_ ^ 2 ] >= 16414.2
quadratic_ranged_297_lb: [ 1 x_68_ ^ 2 - 2 x_69_ * x_68_ + 1 x_69_ ^ 2 + 1 y_68_ ^ 2 - 2 y_69_ * y_68_ + 1 y_69_ ^ 2 ] >= 1846.35
quadratic_ranged_298_lb: [ 1 x_30_ ^ 2 - 2 x_70_ * x_30_ + 1 x_70_ ^ 2 + 1 y_30_ ^ 2 - 2 y_70_ * y_30_ + 1 y_70_ ^ 2 ] >= 881.1
quadratic_ranged_299_lb: [ 1 x_32_ ^ 2 - 2 x_70_ * x_32_ + 1 x_70_ ^ 2 + 1 y_32_ ^ 2 - 2 y_70_ * y_32_ + 1 y_70_ ^ 2 ] >= 8466.48
quadratic_ranged_300_lb: [ 1 x_37_ ^ 2 - 2 x_70_ * x_37_ + 1 x_70_ ^ 2 + 1 y_37_ ^ 2 - 2 y_70_ * y_37_ + 1 y_70_ ^ 2 ] >= 15013.35
quadratic_ranged_301_lb: [ 1 x_51_ ^ 2 - 2 x_70_ * x_51_ + 1 x_70_ ^ 2 + 1 y_51_ ^ 2 - 2 y_70_ * y_51_ + 1 y_70_ ^ 2 ] >= 22541.31
quadratic_ranged_302_lb: [ 1 x_58_ ^ 2 - 2 x_70_ * x_58_ + 1 x_70_ ^ 2 + 1 y_58_ ^ 2 - 2 y_70_ * y_58_ + 1 y_70_ ^ 2 ] >= 16016.22
quadratic_ranged_303_lb: [ 1 x_69_ ^ 2 - 2 x_70_ * x_69_ + 1 x_70_ ^ 2 + 1 y_69_ ^ 2 - 2 y_70_ * y_69_ + 1 y_70_ ^ 2 ] >= 396
quadratic_ranged_304_lb: [ 1 x_5_ ^ 2 - 2 x_71_ * x_5_ + 1 x_71_ ^ 2 + 1 y_5_ ^ 2 - 2 y_71_ * y_5_ + 1 y_71_ ^ 2 ] >= 10201.95
quadratic_ranged_305_lb: [ 1 x_22_ ^ 2 - 2 x_71_ * x_22_ + 1 x_71_ ^ 2 + 1 y_22_ ^ 2 - 2 y_71_ * y_22_ + 1 y_71_ ^ 2 ] >= 32172.03
quadratic_ranged_306_lb: [ 1 x_38_ ^ 2 - 2 x_71_ * x_38_ + 1 x_71_ ^ 2 + 1 y_38_ ^ 2 - 2 y_71_ * y_38_ + 1 y_71_ ^ 2 ] >= 34500.51
quadratic_ranged_307_lb: [ 1 x_53_ ^ 2 - 2 x_71_ * x_53_ + 1 x_71_ ^ 2 + 1 y_53_ ^ 2 - 2 y_71_ * y_53_ + 1 y_71_ ^ 2 ] >= 532.62
quadratic_ranged_308_lb: [ 1 x_70_ ^ 2 - 2 x_71_ * x_70_ + 1 x_71_ ^ 2 + 1 y_70_ ^ 2 - 2 y_71_ * y_70_ + 1 y_71_ ^ 2 ] >= 3885.75
quadratic_ranged_309_lb: [ 1 x_5_ ^ 2 - 2 x_72_ * x_5_ + 1 x_72_ ^ 2 + 1 y_5_ ^ 2 - 2 y_72_ * y_5_ + 1 y_72_ ^ 2 ] >= 2110.68
quadratic_ranged_310_lb: [ 1 x_12_ ^ 2 - 2 x_72_ * x_12_ + 1 x_72_ ^ 2 + 1 y_12_ ^ 2 - 2 y_72_ * y_12_ + 1 y_72_ ^ 2 ] >= 18584.28
quadratic_ranged_311_lb: [ 1 x_17_ ^ 2 - 2 x_72_ * x_17_ + 1 x_72_ ^ 2 + 1 y_17_ ^ 2 - 2 y_72_ * y_17_ + 1 y_72_ ^ 2 ] >= 7676.46
quadratic_ranged_312_lb: [ 1 x_36_ ^ 2 - 2 x_72_ * x_36_ + 1 x_72_ ^ 2 + 1 y_36_ ^ 2 - 2 y_72_ * y_36_ + 1 y_72_ ^ 2 ] >= 8487.27
quadratic_ranged_313_lb: [ 1 x_37_ ^ 2 - 2 x_72_ * x_37_ + 1 x_72_ ^ 2 + 1 y_37_ ^ 2 - 2 y_72_ * y_37_ + 1 y_72_ ^ 2 ] >= 16993.35
quadratic_ranged_314_lb: [ 1 x_58_ ^ 2 - 2 x_72_ * x_58_ + 1 x_72_ ^ 2 + 1 y_58_ ^ 2 - 2 y_72_ * y_58_ + 1 y_72_ ^ 2 ] >= 26947.8
quadratic_ranged_315_lb: [ 1 x_62_ ^ 2 - 2 x_72_ * x_62_ + 1 x_72_ ^ 2 + 1 y_62_ ^ 2 - 2 y_72_ * y_62_ + 1 y_72_ ^ 2 ] >= 13484.789999999999
quadratic_ranged_316_lb: [ 1 x_65_ ^ 2 - 2 x_72_ * x_65_ + 1 x_72_ ^ 2 + 1 y_65_ ^ 2 - 2 y_72_ * y_65_ + 1 y_72_ ^ 2 ] >= 23595.66
quadratic_ranged_317_lb: [ 1 x_66_ ^ 2 - 2 x_72_ * x_66_ + 1 x_72_ ^ 2 + 1 y_66_ ^ 2 - 2 y_72_ * y_66_ + 1 y_72_ ^ 2 ] >= 4340.16
quadratic_ranged_318_lb: [ 1 x_71_ ^ 2 - 2 x_72_ * x_71_ + 1 x_72_ ^ 2 + 1 y_71_ ^ 2 - 2 y_72_ * y_71_ + 1 y_72_ ^ 2 ] >= 6776.55
quadratic_ranged_319_lb: [ 1 x_2_ ^ 2 - 2 x_73_ * x_2_ + 1 x_73_ ^ 2 + 1 y_2_ ^ 2 - 2 y_73_ * y_2_ + 1 y_73_ ^ 2 ] >= 15547.95
quadratic_ranged_320_lb: [ 1 x_39_ ^ 2 - 2 x_73_ * x_39_ + 1 x_73_ ^ 2 + 1 y_39_ ^ 2 - 2 y_73_ * y_39_ + 1 y_73_ ^ 2 ] >= 3140.2799999999997
quadratic_ranged_321_lb: [ 1 x_43_ ^ 2 - 2 x_73_ * x_43_ + 1 x_73_ ^ 2 + 1 y_43_ ^ 2 - 2 y_73_ * y_43_ + 1 y_73_ ^ 2 ] >= 1560.24
quadratic_ranged_322_lb: [ 1 x_50_ ^ 2 - 2 x_73_ * x_50_ + 1 x_73_ ^ 2 + 1 y_50_ ^ 2 - 2 y_73_ * y_50_ + 1 y_73_ ^ 2 ] >= 12391.83
quadratic_ranged_323_lb: [ 1 x_52_ ^ 2 - 2 x_73_ * x_52_ + 1 x_73_ ^ 2 + 1 y_52_ ^ 2 - 2 y_73_ * y_52_ + 1 y_73_ ^ 2 ] >= 5976.63
quadratic_ranged_324_lb: [ 1 x_59_ ^ 2 - 2 x_73_ * x_59_ + 1 x_73_ ^ 2 + 1 y_59_ ^ 2 - 2 y_73_ * y_59_ + 1 y_73_ ^ 2 ] >= 5949.9
quadratic_ranged_325_lb: [ 1 x_70_ ^ 2 - 2 x_73_ * x_70_ + 1 x_73_ ^ 2 + 1 y_70_ ^ 2 - 2 y_73_ * y_70_ + 1 y_73_ ^ 2 ] >= 447.48
quadratic_ranged_326_lb: [ 1 x_72_ ^ 2 - 2 x_73_ * x_72_ + 1 x_73_ ^ 2 + 1 y_72_ ^ 2 - 2 y_73_ * y_72_ + 1 y_73_ ^ 2 ] >= 4239.18
quadratic_ranged_327_lb: [ 1 x_12_ ^ 2 - 2 x_74_ * x_12_ + 1 x_74_ ^ 2 + 1 y_12_ ^ 2 - 2 y_74_ * y_12_ + 1 y_74_ ^ 2 ] >= 40531.59
quadratic_ranged_328_lb: [ 1 x_21_ ^ 2 - 2 x_74_ * x_21_ + 1 x_74_ ^ 2 + 1 y_21_ ^ 2 - 2 y_74_ * y_21_ + 1 y_74_ ^ 2 ] >= 51833.43
quadratic_ranged_329_lb: [ 1 x_22_ ^ 2 - 2 x_74_ * x_22_ + 1 x_74_ ^ 2 + 1 y_22_ ^ 2 - 2 y_74_ * y_22_ + 1 y_74_ ^ 2 ] >= 42174.99
quadratic_ranged_330_lb: [ 1 x_26_ ^ 2 - 2 x_74_ * x_26_ + 1 x_74_ ^ 2 + 1 y_26_ ^ 2 - 2 y_74_ * y_26_ + 1 y_74_ ^ 2 ] >= 29582.19
quadratic_ranged_331_lb: [ 1 x_27_ ^ 2 - 2 x_74_ * x_27_ + 1 x_74_ ^ 2 + 1 y_27_ ^ 2 - 2 y_74_ * y_27_ + 1 y_74_ ^ 2 ] >= 1402.83
quadratic_ranged_332_lb: [ 1 x_54_ ^ 2 - 2 x_74_ * x_54_ + 1 x_74_ ^ 2 + 1 y_54_ ^ 2 - 2 y_74_ * y_54_ + 1 y_74_ ^ 2 ] >= 11169.18
quadratic_ranged_333_lb: [ 1 x_63_ ^ 2 - 2 x_74_ * x_63_ + 1 x_74_ ^ 2 + 1 y_63_ ^ 2 - 2 y_74_ * y_63_ + 1 y_74_ ^ 2 ] >= 25531.11
quadratic_ranged_334_lb: [ 1 x_68_ ^ 2 - 2 x_74_ * x_68_ + 1 x_74_ ^ 2 + 1 y_68_ ^ 2 - 2 y_74_ * y_68_ + 1 y_74_ ^ 2 ] >= 13008.6
quadratic_ranged_335_lb: [ 1 x_72_ ^ 2 - 2 x_74_ * x_72_ + 1 x_74_ ^ 2 + 1 y_72_ ^ 2 - 2 y_74_ * y_72_ + 1 y_74_ ^ 2 ] >= 6974.55
quadratic_ranged_336_lb: [ 1 x_73_ ^ 2 - 2 x_74_ * x_73_ + 1 x_74_ ^ 2 + 1 y_73_ ^ 2 - 2 y_74_ * y_73_ + 1 y_74_ ^ 2 ] >= 15567.75
quadratic_ranged_337_lb: [ 1 x_6_ ^ 2 - 2 x_75_ * x_6_ + 1 x_75_ ^ 2 + 1 y_6_ ^ 2 - 2 y_75_ * y_6_ + 1 y_75_ ^ 2 ] >= 27634.86
quadratic_ranged_338_lb: [ 1 x_19_ ^ 2 - 2 x_75_ * x_19_ + 1 x_75_ ^ 2 + 1 y_19_ ^ 2 - 2 y_75_ * y_19_ + 1 y_75_ ^ 2 ] >= 1406.79
quadratic_ranged_339_lb: [ 1 x_20_ ^ 2 - 2 x_75_ * x_20_ + 1 x_75_ ^ 2 + 1 y_20_ ^ 2 - 2 y_75_ * y_20_ + 1 y_75_ ^ 2 ] >= 19060.47
quadratic_ranged_340_lb: [ 1 x_24_ ^ 2 - 2 x_75_ * x_24_ + 1 x_75_ ^ 2 + 1 y_24_ ^ 2 - 2 y_75_ * y_24_ + 1 y_75_ ^ 2 ] >= 26461.71
quadratic_ranged_341_lb: [ 1 x_30_ ^ 2 - 2 x_75_ * x_30_ + 1 x_75_ ^ 2 + 1 y_30_ ^ 2 - 2 y_75_ * y_30_ + 1 y_75_ ^ 2 ] >= 7153.74
quadratic_ranged_342_lb: [ 1 x_31_ ^ 2 - 2 x_75_ * x_31_ + 1 x_75_ ^ 2 + 1 y_31_ ^ 2 - 2 y_75_ * y_31_ + 1 y_75_ ^ 2 ] >= 27610.11
quadratic_ranged_343_lb: [ 1 x_37_ ^ 2 - 2 x_75_ * x_37_ + 1 x_75_ ^ 2 + 1 y_37_ ^ 2 - 2 y_75_ * y_37_ + 1 y_75_ ^ 2 ] >= 34120.35
quadratic_ranged_344_lb: [ 1 x_45_ ^ 2 - 2 x_75_ * x_45_ + 1 x_75_ ^ 2 + 1 y_45_ ^ 2 - 2 y_75_ * y_45_ + 1 y_75_ ^ 2 ] >= 26977.5
quadratic_ranged_345_lb: [ 1 x_51_ ^ 2 - 2 x_75_ * x_51_ + 1 x_75_ ^ 2 + 1 y_51_ ^ 2 - 2 y_75_ * y_51_ + 1 y_75_ ^ 2 ] >= 42970.95
quadratic_ranged_346_lb: [ 1 x_54_ ^ 2 - 2 x_75_ * x_54_ + 1 x_75_ ^ 2 + 1 y_54_ ^ 2 - 2 y_75_ * y_54_ + 1 y_75_ ^ 2 ] >= 13263.03
quadratic_ranged_347_lb: [ 1 x_59_ ^ 2 - 2 x_75_ * x_59_ + 1 x_75_ ^ 2 + 1 y_59_ ^ 2 - 2 y_75_ * y_59_ + 1 y_75_ ^ 2 ] >= 5427.18
quadratic_ranged_348_lb: [ 1 x_61_ ^ 2 - 2 x_75_ * x_61_ + 1 x_75_ ^ 2 + 1 y_61_ ^ 2 - 2 y_75_ * y_61_ + 1 y_75_ ^ 2 ] >= 8365.5
quadratic_ranged_349_lb: [ 1 x_69_ ^ 2 - 2 x_75_ * x_69_ + 1 x_75_ ^ 2 + 1 y_69_ ^ 2 - 2 y_75_ * y_69_ + 1 y_75_ ^ 2 ] >= 3619.44
quadratic_ranged_350_lb: [ 1 x_74_ ^ 2 - 2 x_75_ * x_74_ + 1 x_75_ ^ 2 + 1 y_74_ ^ 2 - 2 y_75_ * y_74_ + 1 y_75_ ^ 2 ] >= 27950.67
quadratic_ranged_351_lb: [ 1 x_31_ ^ 2 - 2 x_76_ * x_31_ + 1 x_76_ ^ 2 + 1 y_31_ ^ 2 - 2 y_76_ * y_31_ + 1 y_76_ ^ 2 ] >= 41390.909999999996
quadratic_ranged_352_lb: [ 1 x_36_ ^ 2 - 2 x_76_ * x_36_ + 1 x_76_ ^ 2 + 1 y_36_ ^ 2 - 2 y_76_ * y_36_ + 1 y_76_ ^ 2 ] >= 6796.35
quadratic_ranged_353_lb: [ 1 x_42_ ^ 2 - 2 x_76_ * x_42_ + 1 x_76_ ^ 2 + 1 y_42_ ^ 2 - 2 y_76_ * y_42_ + 1 y_76_ ^ 2 ] >= 4880.7
quadratic_ranged_354_lb: [ 1 x_55_ ^ 2 - 2 x_76_ * x_55_ + 1 x_76_ ^ 2 + 1 y_55_ ^ 2 - 2 y_76_ * y_55_ + 1 y_76_ ^ 2 ] >= 20842.47
quadratic_ranged_355_lb: [ 1 x_72_ ^ 2 - 2 x_76_ * x_72_ + 1 x_76_ ^ 2 + 1 y_72_ ^ 2 - 2 y_76_ * y_72_ + 1 y_76_ ^ 2 ] >= 134.64
quadratic_ranged_356_lb: [ 1 x_75_ ^ 2 - 2 x_76_ * x_75_ + 1 x_76_ ^ 2 + 1 y_75_ ^ 2 - 2 y_76_ * y_75_ + 1 y_76_ ^ 2 ] >= 9482.22
quadratic_ranged_357_lb: [ 1 x_12_ ^ 2 - 2 x_77_ * x_12_ + 1 x_77_ ^ 2 + 1 y_12_ ^ 2 - 2 y_77_ * y_12_ + 1 y_77_ ^ 2 ] >= 15556.86
quadratic_ranged_358_lb: [ 1 x_20_ ^ 2 - 2 x_77_ * x_20_ + 1 x_77_ ^ 2 + 1 y_20_ ^ 2 - 2 y_77_ * y_20_ + 1 y_77_ ^ 2 ] >= 36892.35
quadratic_ranged_359_lb: [ 1 x_27_ ^ 2 - 2 x_77_ * x_27_ + 1 x_77_ ^ 2 + 1 y_27_ ^ 2 - 2 y_77_ * y_27_ + 1 y_77_ ^ 2 ] >= 37170.54
quadratic_ranged_360_lb: [ 1 x_29_ ^ 2 - 2 x_77_ * x_29_ + 1 x_77_ ^ 2 + 1 y_29_ ^ 2 - 2 y_77_ * y_29_ + 1 y_77_ ^ 2 ] >= 40060.35
quadratic_ranged_361_lb: [ 1 x_44_ ^ 2 - 2 x_77_ * x_44_ + 1 x_77_ ^ 2 + 1 y_44_ ^ 2 - 2 y_77_ * y_44_ + 1 y_77_ ^ 2 ] >= 37667.52
quadratic_ranged_362_lb: [ 1 x_49_ ^ 2 - 2 x_77_ * x_49_ + 1 x_77_ ^ 2 + 1 y_49_ ^ 2 - 2 y_77_ * y_49_ + 1 y_77_ ^ 2 ] >= 14560.92
quadratic_ranged_363_lb: [ 1 x_55_ ^ 2 - 2 x_77_ * x_55_ + 1 x_77_ ^ 2 + 1 y_55_ ^ 2 - 2 y_77_ * y_55_ + 1 y_77_ ^ 2 ] >= 21468.15
quadratic_ranged_364_lb: [ 1 x_67_ ^ 2 - 2 x_77_ * x_67_ + 1 x_77_ ^ 2 + 1 y_67_ ^ 2 - 2 y_77_ * y_67_ + 1 y_77_ ^ 2 ] >= 15223.23
quadratic_ranged_365_lb: [ 1 x_70_ ^ 2 - 2 x_77_ * x_70_ + 1 x_77_ ^ 2 + 1 y_70_ ^ 2 - 2 y_77_ * y_70_ + 1 y_77_ ^ 2 ] >= 26009.28
quadratic_ranged_366_lb: [ 1 x_74_ ^ 2 - 2 x_77_ * x_74_ + 1 x_77_ ^ 2 + 1 y_74_ ^ 2 - 2 y_77_ * y_74_ + 1 y_77_ ^ 2 ] >= 51223.59
quadratic_ranged_367_lb: [ 1 x_75_ ^ 2 - 2 x_77_ * x_75_ + 1 x_77_ ^ 2 + 1 y_75_ ^ 2 - 2 y_77_ * y_75_ + 1 y_77_ ^ 2 ] >= 30294
quadratic_ranged_368_lb: [ 1 x_76_ ^ 2 - 2 x_77_ * x_76_ + 1 x_77_ ^ 2 + 1 y_76_ ^ 2 - 2 y_77_ * y_76_ + 1 y_77_ ^ 2 ] >= 40797.9
quadratic_ranged_369_lb: [ 1 x_36_ ^ 2 - 2 x_78_ * x_36_ + 1 x_78_ ^ 2 + 1 y_36_ ^ 2 - 2 y_78_ * y_36_ + 1 y_78_ ^ 2 ] >= 22097.79
quadratic_ranged_370_lb: [ 1 x_43_ ^ 2 - 2 x_78_ * x_43_ + 1 x_78_ ^ 2 + 1 y_43_ ^ 2 - 2 y_78_ * y_43_ + 1 y_78_ ^ 2 ] >= 12879.9
quadratic_ranged_371_lb: [ 1 x_51_ ^ 2 - 2 x_78_ * x_51_ + 1 x_78_ ^ 2 + 1 y_51_ ^ 2 - 2 y_78_ * y_51_ + 1 y_78_ ^ 2 ] >= 21258.27
quadratic_ranged_372_lb: [ 1 x_55_ ^ 2 - 2 x_78_ * x_55_ + 1 x_78_ ^ 2 + 1 y_55_ ^ 2 - 2 y_78_ * y_55_ + 1 y_78_ ^ 2 ] >= 20141.55
quadratic_ranged_373_lb: [ 1 x_74_ ^ 2 - 2 x_78_ * x_74_ + 1 x_78_ ^ 2 + 1 y_74_ ^ 2 - 2 y_78_ * y_74_ + 1 y_78_ ^ 2 ] >= 47322.99
quadratic_ranged_374_lb: [ 1 x_76_ ^ 2 - 2 x_78_ * x_76_ + 1 x_78_ ^ 2 + 1 y_76_ ^ 2 - 2 y_78_ * y_76_ + 1 y_78_ ^ 2 ] >= 36689.4
quadratic_ranged_375_lb: [ 1 x_77_ ^ 2 - 2 x_78_ * x_77_ + 1 x_78_ ^ 2 + 1 y_77_ ^ 2 - 2 y_78_ * y_77_ + 1 y_78_ ^ 2 ] >= 120.78
quadratic_ranged_376_lb: [ 1 x_18_ ^ 2 - 2 x_79_ * x_18_ + 1 x_79_ ^ 2 + 1 y_18_ ^ 2 - 2 y_79_ * y_18_ + 1 y_79_ ^ 2 ] >= 9505.98
quadratic_ranged_377_lb: [ 1 x_20_ ^ 2 - 2 x_79_ * x_20_ + 1 x_79_ ^ 2 + 1 y_20_ ^ 2 - 2 y_79_ * y_20_ + 1 y_79_ ^ 2 ] >= 11889.9
quadratic_ranged_378_lb: [ 1 x_27_ ^ 2 - 2 x_79_ * x_27_ + 1 x_79_ ^ 2 + 1 y_27_ ^ 2 - 2 y_79_ * y_27_ + 1 y_79_ ^ 2 ] >= 14696.55
quadratic_ranged_379_lb: [ 1 x_49_ ^ 2 - 2 x_79_ * x_49_ + 1 x_79_ ^ 2 + 1 y_49_ ^ 2 - 2 y_79_ * y_49_ + 1 y_79_ ^ 2 ] >= 321.75
quadratic_ranged_380_lb: [ 1 x_59_ ^ 2 - 2 x_79_ * x_59_ + 1 x_79_ ^ 2 + 1 y_59_ ^ 2 - 2 y_79_ * y_59_ + 1 y_79_ ^ 2 ] >= 3687.75
quadratic_ranged_381_lb: [ 1 x_76_ ^ 2 - 2 x_79_ * x_76_ + 1 x_79_ ^ 2 + 1 y_76_ ^ 2 - 2 y_79_ * y_76_ + 1 y_79_ ^ 2 ] >= 10538.55
quadratic_ranged_382_lb: [ 1 x_78_ ^ 2 - 2 x_79_ * x_78_ + 1 x_79_ ^ 2 + 1 y_78_ ^ 2 - 2 y_79_ * y_78_ + 1 y_79_ ^ 2 ] >= 8455.59
quadratic_ranged_383_lb: [ 1 x_2_ ^ 2 - 2 x_80_ * x_2_ + 1 x_80_ ^ 2 + 1 y_2_ ^ 2 - 2 y_80_ * y_2_ + 1 y_80_ ^ 2 ] >= 11964.15
quadratic_ranged_384_lb: [ 1 x_22_ ^ 2 - 2 x_80_ * x_22_ + 1 x_80_ ^ 2 + 1 y_22_ ^ 2 - 2 y_80_ * y_22_ + 1 y_80_ ^ 2 ] >= 9222.84
quadratic_ranged_385_lb: [ 1 x_27_ ^ 2 - 2 x_80_ * x_27_ + 1 x_80_ ^ 2 + 1 y_27_ ^ 2 - 2 y_80_ * y_27_ + 1 y_80_ ^ 2 ] >= 6646.86
quadratic_ranged_386_lb: [ 1 x_30_ ^ 2 - 2 x_80_ * x_30_ + 1 x_80_ ^ 2 + 1 y_30_ ^ 2 - 2 y_80_ * y_30_ + 1 y_80_ ^ 2 ] >= 14598.539999999999
quadratic_ranged_387_lb: [ 1 x_45_ ^ 2 - 2 x_80_ * x_45_ + 1 x_80_ ^ 2 + 1 y_45_ ^ 2 - 2 y_80_ * y_45_ + 1 y_80_ ^ 2 ] >= 16594.38
quadratic_ranged_388_lb: [ 1 x_46_ ^ 2 - 2 x_80_ * x_46_ + 1 x_80_ ^ 2 + 1 y_46_ ^ 2 - 2 y_80_ * y_46_ + 1 y_80_ ^ 2 ] >= 13758.03
quadratic_ranged_389_lb: [ 1 x_49_ ^ 2 - 2 x_80_ * x_49_ + 1 x_80_ ^ 2 + 1 y_49_ ^ 2 - 2 y_80_ * y_49_ + 1 y_80_ ^ 2 ] >= 9353.52
quadratic_ranged_390_lb: [ 1 x_60_ ^ 2 - 2 x_80_ * x_60_ + 1 x_80_ ^ 2 + 1 y_60_ ^ 2 - 2 y_80_ * y_60_ + 1 y_80_ ^ 2 ] >= 388.08
quadratic_ranged_391_lb: [ 1 x_68_ ^ 2 - 2 x_80_ * x_68_ + 1 x_80_ ^ 2 + 1 y_68_ ^ 2 - 2 y_80_ * y_68_ + 1 y_80_ ^ 2 ] >= 19828.71
quadratic_ranged_392_lb: [ 1 x_69_ ^ 2 - 2 x_80_ * x_69_ + 1 x_80_ ^ 2 + 1 y_69_ ^ 2 - 2 y_80_ * y_69_ + 1 y_80_ ^ 2 ] >= 11757.24
quadratic_ranged_393_lb: [ 1 x_70_ ^ 2 - 2 x_80_ * x_70_ + 1 x_80_ ^ 2 + 1 y_70_ ^ 2 - 2 y_80_ * y_70_ + 1 y_80_ ^ 2 ] >= 12929.4
quadratic_ranged_394_lb: [ 1 x_79_ ^ 2 - 2 x_80_ * x_79_ + 1 x_80_ ^ 2 + 1 y_79_ ^ 2 - 2 y_80_ * y_79_ + 1 y_80_ ^ 2 ] >= 8649.63
quadratic_ranged_395_lb: [ 1 x_6_ ^ 2 - 2 x_81_ * x_6_ + 1 x_81_ ^ 2 + 1 y_6_ ^ 2 - 2 y_81_ * y_6_ + 1 y_81_ ^ 2 ] >= 32175
quadratic_ranged_396_lb: [ 1 x_24_ ^ 2 - 2 x_81_ * x_24_ + 1 x_81_ ^ 2 + 1 y_24_ ^ 2 - 2 y_81_ * y_24_ + 1 y_81_ ^ 2 ] >= 25352.91
quadratic_ranged_397_lb: [ 1 x_35_ ^ 2 - 2 x_81_ * x_35_ + 1 x_81_ ^ 2 + 1 y_35_ ^ 2 - 2 y_81_ * y_35_ + 1 y_81_ ^ 2 ] >= 23052.15
quadratic_ranged_398_lb: [ 1 x_37_ ^ 2 - 2 x_81_ * x_37_ + 1 x_81_ ^ 2 + 1 y_37_ ^ 2 - 2 y_81_ * y_37_ + 1 y_81_ ^ 2 ] >= 21472.11
quadratic_ranged_399_lb: [ 1 x_40_ ^ 2 - 2 x_81_ * x_40_ + 1 x_81_ ^ 2 + 1 y_40_ ^ 2 - 2 y_81_ * y_40_ + 1 y_81_ ^ 2 ] >= 25855.829999999998
quadratic_ranged_400_lb: [ 1 x_48_ ^ 2 - 2 x_81_ * x_48_ + 1 x_81_ ^ 2 + 1 y_48_ ^ 2 - 2 y_81_ * y_48_ + 1 y_81_ ^ 2 ] >= 176.22
quadratic_ranged_401_lb: [ 1 x_49_ ^ 2 - 2 x_81_ * x_49_ + 1 x_81_ ^ 2 + 1 y_49_ ^ 2 - 2 y_81_ * y_49_ + 1 y_81_ ^ 2 ] >= 3692.7
quadratic_ranged_402_lb: [ 1 x_63_ ^ 2 - 2 x_81_ * x_63_ + 1 x_81_ ^ 2 + 1 y_63_ ^ 2 - 2 y_81_ * y_63_ + 1 y_81_ ^ 2 ] >= 20514.78
quadratic_ranged_403_lb: [ 1 x_72_ ^ 2 - 2 x_81_ * x_72_ + 1 x_81_ ^ 2 + 1 y_72_ ^ 2 - 2 y_81_ * y_72_ + 1 y_81_ ^ 2 ] >= 1623.6
quadratic_ranged_404_lb: [ 1 x_79_ ^ 2 - 2 x_81_ * x_79_ + 1 x_81_ ^ 2 + 1 y_79_ ^ 2 - 2 y_81_ * y_79_ + 1 y_81_ ^ 2 ] >= 6103.35
quadratic_ranged_405_lb: [ 1 x_80_ ^ 2 - 2 x_81_ * x_80_ + 1 x_81_ ^ 2 + 1 y_80_ ^ 2 - 2 y_81_ * y_80_ + 1 y_81_ ^ 2 ] >= 19588.14
quadratic_ranged_406_lb: [ 1 x_1_ ^ 2 - 2 x_82_ * x_1_ + 1 x_82_ ^ 2 + 1 y_1_ ^ 2 - 2 y_82_ * y_1_ + 1 y_82_ ^ 2 ] >= 1450.35
quadratic_ranged_407_lb: [ 1 x_5_ ^ 2 - 2 x_82_ * x_5_ + 1 x_82_ ^ 2 + 1 y_5_ ^ 2 - 2 y_82_ * y_5_ + 1 y_82_ ^ 2 ] >= 4063.95
quadratic_ranged_408_lb: [ 1 x_29_ ^ 2 - 2 x_82_ * x_29_ + 1 x_82_ ^ 2 + 1 y_29_ ^ 2 - 2 y_82_ * y_29_ + 1 y_82_ ^ 2 ] >= 7177.5
quadratic_ranged_409_lb: [ 1 x_39_ ^ 2 - 2 x_82_ * x_39_ + 1 x_82_ ^ 2 + 1 y_39_ ^ 2 - 2 y_82_ * y_39_ + 1 y_82_ ^ 2 ] >= 16399.35
quadratic_ranged_410_lb: [ 1 x_55_ ^ 2 - 2 x_82_ * x_55_ + 1 x_82_ ^ 2 + 1 y_55_ ^ 2 - 2 y_82_ * y_55_ + 1 y_82_ ^ 2 ] >= 4167.9
quadratic_ranged_411_lb: [ 1 x_66_ ^ 2 - 2 x_82_ * x_66_ + 1 x_82_ ^ 2 + 1 y_66_ ^ 2 - 2 y_82_ * y_66_ + 1 y_82_ ^ 2 ] >= 3786.75
quadratic_ranged_412_lb: [ 1 x_75_ ^ 2 - 2 x_82_ * x_75_ + 1 x_82_ ^ 2 + 1 y_75_ ^ 2 - 2 y_82_ * y_75_ + 1 y_82_ ^ 2 ] >= 17349.75
quadratic_ranged_413_lb: [ 1 x_81_ ^ 2 - 2 x_82_ * x_81_ + 1 x_82_ ^ 2 + 1 y_81_ ^ 2 - 2 y_82_ * y_81_ + 1 y_82_ ^ 2 ] >= 11124.63
quadratic_ranged_414_lb: [ 1 x_15_ ^ 2 - 2 x_83_ * x_15_ + 1 x_83_ ^ 2 + 1 y_15_ ^ 2 - 2 y_83_ * y_15_ + 1 y_83_ ^ 2 ] >= 33376.86
quadratic_ranged_415_lb: [ 1 x_17_ ^ 2 - 2 x_83_ * x_17_ + 1 x_83_ ^ 2 + 1 y_17_ ^ 2 - 2 y_83_ * y_17_ + 1 y_83_ ^ 2 ] >= 9184.23
quadratic_ranged_416_lb: [ 1 x_21_ ^ 2 - 2 x_83_ * x_21_ + 1 x_83_ ^ 2 + 1 y_21_ ^ 2 - 2 y_83_ * y_21_ + 1 y_83_ ^ 2 ] >= 967.23
quadratic_ranged_417_lb: [ 1 x_24_ ^ 2 - 2 x_83_ * x_24_ + 1 x_83_ ^ 2 + 1 y_24_ ^ 2 - 2 y_83_ * y_24_ + 1 y_83_ ^ 2 ] >= 8207.1
quadratic_ranged_418_lb: [ 1 x_43_ ^ 2 - 2 x_83_ * x_43_ + 1 x_83_ ^ 2 + 1 y_43_ ^ 2 - 2 y_83_ * y_43_ + 1 y_83_ ^ 2 ] >= 9481.23
quadratic_ranged_419_lb: [ 1 x_45_ ^ 2 - 2 x_83_ * x_45_ + 1 x_83_ ^ 2 + 1 y_45_ ^ 2 - 2 y_83_ * y_45_ + 1 y_83_ ^ 2 ] >= 5014.35
quadratic_ranged_420_lb: [ 1 x_46_ ^ 2 - 2 x_83_ * x_46_ + 1 x_83_ ^ 2 + 1 y_46_ ^ 2 - 2 y_83_ * y_46_ + 1 y_83_ ^ 2 ] >= 2077.02
quadratic_ranged_421_lb: [ 1 x_80_ ^ 2 - 2 x_83_ * x_80_ + 1 x_83_ ^ 2 + 1 y_80_ ^ 2 - 2 y_83_ * y_80_ + 1 y_83_ ^ 2 ] >= 20497.95
quadratic_ranged_422_lb: [ 1 x_82_ ^ 2 - 2 x_83_ * x_82_ + 1 x_83_ ^ 2 + 1 y_82_ ^ 2 - 2 y_83_ * y_82_ + 1 y_83_ ^ 2 ] >= 13632.3
quadratic_ranged_423_lb: [ 1 x_56_ ^ 2 - 2 x_84_ * x_56_ + 1 x_84_ ^ 2 + 1 y_56_ ^ 2 - 2 y_84_ * y_56_ + 1 y_84_ ^ 2 ] >= 35838
quadratic_ranged_424_lb: [ 1 x_57_ ^ 2 - 2 x_84_ * x_57_ + 1 x_84_ ^ 2 + 1 y_57_ ^ 2 - 2 y_84_ * y_57_ + 1 y_84_ ^ 2 ] >= 17369.55
quadratic_ranged_425_lb: [ 1 x_67_ ^ 2 - 2 x_84_ * x_67_ + 1 x_84_ ^ 2 + 1 y_67_ ^ 2 - 2 y_84_ * y_67_ + 1 y_84_ ^ 2 ] >= 23809.5
quadratic_ranged_426_lb: [ 1 x_83_ ^ 2 - 2 x_84_ * x_83_ + 1 x_84_ ^ 2 + 1 y_83_ ^ 2 - 2 y_84_ * y_83_ + 1 y_84_ ^ 2 ] >= 1156.32
quadratic_ranged_427_lb: [ 1 x_18_ ^ 2 - 2 x_85_ * x_18_ + 1 x_85_ ^ 2 + 1 y_18_ ^ 2 - 2 y_85_ * y_18_ + 1 y_85_ ^ 2 ] >= 17349.75
quadratic_ranged_428_lb: [ 1 x_39_ ^ 2 - 2 x_85_ * x_39_ + 1 x_85_ ^ 2 + 1 y_39_ ^ 2 - 2 y_85_ * y_39_ + 1 y_85_ ^ 2 ] >= 3296.7
quadratic_ranged_429_lb: [ 1 x_48_ ^ 2 - 2 x_85_ * x_48_ + 1 x_85_ ^ 2 + 1 y_48_ ^ 2 - 2 y_85_ * y_48_ + 1 y_85_ ^ 2 ] >= 11747.34
quadratic_ranged_430_lb: [ 1 x_49_ ^ 2 - 2 x_85_ * x_49_ + 1 x_85_ ^ 2 + 1 y_49_ ^ 2 - 2 y_85_ * y_49_ + 1 y_85_ ^ 2 ] >= 4215.42
quadratic_ranged_431_lb: [ 1 x_80_ ^ 2 - 2 x_85_ * x_80_ + 1 x_85_ ^ 2 + 1 y_80_ ^ 2 - 2 y_85_ * y_80_ + 1 y_85_ ^ 2 ] >= 21346.38
quadratic_ranged_432_lb: [ 1 x_84_ ^ 2 - 2 x_85_ * x_84_ + 1 x_85_ ^ 2 + 1 y_84_ ^ 2 - 2 y_85_ * y_84_ + 1 y_85_ ^ 2 ] >= 3315.5099999999998
quadratic_ranged_433_lb: [ 1 x_3_ ^ 2 - 2 x_86_ * x_3_ + 1 x_86_ ^ 2 + 1 y_3_ ^ 2 - 2 y_86_ * y_3_ + 1 y_86_ ^ 2 ] >= 976.14
quadratic_ranged_434_lb: [ 1 x_6_ ^ 2 - 2 x_86_ * x_6_ + 1 x_86_ ^ 2 + 1 y_6_ ^ 2 - 2 y_86_ * y_6_ + 1 y_86_ ^ 2 ] >= 13891.68
quadratic_ranged_435_lb: [ 1 x_7_ ^ 2 - 2 x_86_ * x_7_ + 1 x_86_ ^ 2 + 1 y_7_ ^ 2 - 2 y_86_ * y_7_ + 1 y_86_ ^ 2 ] >= 16830
quadratic_ranged_436_lb: [ 1 x_20_ ^ 2 - 2 x_86_ * x_20_ + 1 x_86_ ^ 2 + 1 y_20_ ^ 2 - 2 y_86_ * y_20_ + 1 y_86_ ^ 2 ] >= 15163.83
quadratic_ranged_437_lb: [ 1 x_46_ ^ 2 - 2 x_86_ * x_46_ + 1 x_86_ ^ 2 + 1 y_46_ ^ 2 - 2 y_86_ * y_46_ + 1 y_86_ ^ 2 ] >= 10566.27
quadratic_ranged_438_lb: [ 1 x_54_ ^ 2 - 2 x_86_ * x_54_ + 1 x_86_ ^ 2 + 1 y_54_ ^ 2 - 2 y_86_ * y_54_ + 1 y_86_ ^ 2 ] >= 5192.55
quadratic_ranged_439_lb: [ 1 x_73_ ^ 2 - 2 x_86_ * x_73_ + 1 x_86_ ^ 2 + 1 y_73_ ^ 2 - 2 y_86_ * y_73_ + 1 y_86_ ^ 2 ] >= 16380.539999999999
quadratic_ranged_440_lb: [ 1 x_85_ ^ 2 - 2 x_86_ * x_85_ + 1 x_86_ ^ 2 + 1 y_85_ ^ 2 - 2 y_86_ * y_85_ + 1 y_86_ ^ 2 ] >= 21071.16
quadratic_ranged_441_lb: [ 1 x_3_ ^ 2 - 2 x_87_ * x_3_ + 1 x_87_ ^ 2 + 1 y_3_ ^ 2 - 2 y_87_ * y_3_ + 1 y_87_ ^ 2 ] >= 11449.35
quadratic_ranged_442_lb: [ 1 x_18_ ^ 2 - 2 x_87_ * x_18_ + 1 x_87_ ^ 2 + 1 y_18_ ^ 2 - 2 y_87_ * y_18_ + 1 y_87_ ^ 2 ] >= 9323.82
quadratic_ranged_443_lb: [ 1 x_27_ ^ 2 - 2 x_87_ * x_27_ + 1 x_87_ ^ 2 + 1 y_27_ ^ 2 - 2 y_87_ * y_27_ + 1 y_87_ ^ 2 ] >= 15302.43
quadratic_ranged_444_lb: [ 1 x_36_ ^ 2 - 2 x_87_ * x_36_ + 1 x_87_ ^ 2 + 1 y_36_ ^ 2 - 2 y_87_ * y_36_ + 1 y_87_ ^ 2 ] >= 8521.92
quadratic_ranged_445_lb: [ 1 x_48_ ^ 2 - 2 x_87_ * x_48_ + 1 x_87_ ^ 2 + 1 y_48_ ^ 2 - 2 y_87_ * y_48_ + 1 y_87_ ^ 2 ] >= 6439.95
quadratic_ranged_446_lb: [ 1 x_49_ ^ 2 - 2 x_87_ * x_49_ + 1 x_87_ ^ 2 + 1 y_49_ ^ 2 - 2 y_87_ * y_49_ + 1 y_87_ ^ 2 ] >= 420.75
quadratic_ranged_447_lb: [ 1 x_72_ ^ 2 - 2 x_87_ * x_72_ + 1 x_87_ ^ 2 + 1 y_72_ ^ 2 - 2 y_87_ * y_72_ + 1 y_87_ ^ 2 ] >= 11124.63
quadratic_ranged_448_lb: [ 1 x_78_ ^ 2 - 2 x_87_ * x_78_ + 1 x_87_ ^ 2 + 1 y_78_ ^ 2 - 2 y_87_ * y_78_ + 1 y_87_ ^ 2 ] >= 8023.95
quadratic_ranged_449_lb: [ 1 x_86_ ^ 2 - 2 x_87_ * x_86_ + 1 x_87_ ^ 2 + 1 y_86_ ^ 2 - 2 y_87_ * y_86_ + 1 y_87_ ^ 2 ] >= 9853.47
quadratic_ranged_450_lb: [ 1 x_5_ ^ 2 - 2 x_88_ * x_5_ + 1 x_88_ ^ 2 + 1 y_5_ ^ 2 - 2 y_88_ * y_5_ + 1 y_88_ ^ 2 ] >= 22006.71
quadratic_ranged_451_lb: [ 1 x_16_ ^ 2 - 2 x_88_ * x_16_ + 1 x_88_ ^ 2 + 1 y_16_ ^ 2 - 2 y_88_ * y_16_ + 1 y_88_ ^ 2 ] >= 25284.6
quadratic_ranged_452_lb: [ 1 x_33_ ^ 2 - 2 x_88_ * x_33_ + 1 x_88_ ^ 2 + 1 y_33_ ^ 2 - 2 y_88_ * y_33_ + 1 y_88_ ^ 2 ] >= 17400.24
quadratic_ranged_453_lb: [ 1 x_34_ ^ 2 - 2 x_88_ * x_34_ + 1 x_88_ ^ 2 + 1 y_34_ ^ 2 - 2 y_88_ * y_34_ + 1 y_88_ ^ 2 ] >= 9065.43
quadratic_ranged_454_lb: [ 1 x_36_ ^ 2 - 2 x_88_ * x_36_ + 1 x_88_ ^ 2 + 1 y_36_ ^ 2 - 2 y_88_ * y_36_ + 1 y_88_ ^ 2 ] >= 26240.94
quadratic_ranged_455_lb: [ 1 x_40_ ^ 2 - 2 x_88_ * x_40_ + 1 x_88_ ^ 2 + 1 y_40_ ^ 2 - 2 y_88_ * y_40_ + 1 y_88_ ^ 2 ] >= 11709.72
quadratic_ranged_456_lb: [ 1 x_60_ ^ 2 - 2 x_88_ * x_60_ + 1 x_88_ ^ 2 + 1 y_60_ ^ 2 - 2 y_88_ * y_60_ + 1 y_88_ ^ 2 ] >= 28501.11
quadratic_ranged_457_lb: [ 1 x_75_ ^ 2 - 2 x_88_ * x_75_ + 1 x_88_ ^ 2 + 1 y_75_ ^ 2 - 2 y_88_ * y_75_ + 1 y_88_ ^ 2 ] >= 10340.55
quadratic_ranged_458_lb: [ 1 x_82_ ^ 2 - 2 x_88_ * x_82_ + 1 x_88_ ^ 2 + 1 y_82_ ^ 2 - 2 y_88_ * y_82_ + 1 y_88_ ^ 2 ] >= 16047.9
quadratic_ranged_459_lb: [ 1 x_83_ ^ 2 - 2 x_88_ * x_83_ + 1 x_88_ ^ 2 + 1 y_83_ ^ 2 - 2 y_88_ * y_83_ + 1 y_88_ ^ 2 ] >= 99
quadratic_ranged_460_lb: [ 1 x_87_ ^ 2 - 2 x_88_ * x_87_ + 1 x_88_ ^ 2 + 1 y_87_ ^ 2 - 2 y_88_ * y_87_ + 1 y_88_ ^ 2 ] >= 4967.82
quadratic_ranged_461_lb: [ 1 x_2_ ^ 2 - 2 x_89_ * x_2_ + 1 x_89_ ^ 2 + 1 y_2_ ^ 2 - 2 y_89_ * y_2_ + 1 y_89_ ^ 2 ] >= 13812.48
quadratic_ranged_462_lb: [ 1 x_19_ ^ 2 - 2 x_89_ * x_19_ + 1 x_89_ ^ 2 + 1 y_19_ ^ 2 - 2 y_89_ * y_19_ + 1 y_89_ ^ 2 ] >= 4308.48
quadratic_ranged_463_lb: [ 1 x_26_ ^ 2 - 2 x_89_ * x_26_ + 1 x_89_ ^ 2 + 1 y_26_ ^ 2 - 2 y_89_ * y_26_ + 1 y_89_ ^ 2 ] >= 8661.51
quadratic_ranged_464_lb: [ 1 x_58_ ^ 2 - 2 x_89_ * x_58_ + 1 x_89_ ^ 2 + 1 y_58_ ^ 2 - 2 y_89_ * y_58_ + 1 y_89_ ^ 2 ] >= 8827.83
quadratic_ranged_465_lb: [ 1 x_88_ ^ 2 - 2 x_89_ * x_88_ + 1 x_89_ ^ 2 + 1 y_88_ ^ 2 - 2 y_89_ * y_88_ + 1 y_89_ ^ 2 ] >= 13521.42
quadratic_ranged_466_lb: [ 1 x_2_ ^ 2 - 2 x_90_ * x_2_ + 1 x_90_ ^ 2 + 1 y_2_ ^ 2 - 2 y_90_ * y_2_ + 1 y_90_ ^ 2 ] >= 17875.44
quadratic_ranged_467_lb: [ 1 x_13_ ^ 2 - 2 x_90_ * x_13_ + 1 x_90_ ^ 2 + 1 y_13_ ^ 2 - 2 y_90_ * y_13_ + 1 y_90_ ^ 2 ] >= 3220.47
quadratic_ranged_468_lb: [ 1 x_14_ ^ 2 - 2 x_90_ * x_14_ + 1 x_90_ ^ 2 + 1 y_14_ ^ 2 - 2 y_90_ * y_14_ + 1 y_90_ ^ 2 ] >= 4249.08
quadratic_ranged_469_lb: [ 1 x_22_ ^ 2 - 2 x_90_ * x_22_ + 1 x_90_ ^ 2 + 1 y_22_ ^ 2 - 2 y_90_ * y_22_ + 1 y_90_ ^ 2 ] >= 12427.47
quadratic_ranged_470_lb: [ 1 x_25_ ^ 2 - 2 x_90_ * x_25_ + 1 x_90_ ^ 2 + 1 y_25_ ^ 2 - 2 y_90_ * y_25_ + 1 y_90_ ^ 2 ] >= 16.83
quadratic_ranged_471_lb: [ 1 x_42_ ^ 2 - 2 x_90_ * x_42_ + 1 x_90_ ^ 2 + 1 y_42_ ^ 2 - 2 y_90_ * y_42_ + 1 y_90_ ^ 2 ] >= 13868.91
quadratic_ranged_472_lb: [ 1 x_44_ ^ 2 - 2 x_90_ * x_44_ + 1 x_90_ ^ 2 + 1 y_44_ ^ 2 - 2 y_90_ * y_44_ + 1 y_90_ ^ 2 ] >= 39042.63
quadratic_ranged_473_lb: [ 1 x_61_ ^ 2 - 2 x_90_ * x_61_ + 1 x_90_ ^ 2 + 1 y_61_ ^ 2 - 2 y_90_ * y_61_ + 1 y_90_ ^ 2 ] >= 19654.47
quadratic_ranged_474_lb: [ 1 x_62_ ^ 2 - 2 x_90_ * x_62_ + 1 x_90_ ^ 2 + 1 y_62_ ^ 2 - 2 y_90_ * y_62_ + 1 y_90_ ^ 2 ] >= 6767.64
quadratic_ranged_475_lb: [ 1 x_72_ ^ 2 - 2 x_90_ * x_72_ + 1 x_90_ ^ 2 + 1 y_72_ ^ 2 - 2 y_90_ * y_72_ + 1 y_90_ ^ 2 ] >= 38230.83
quadratic_ranged_476_lb: [ 1 x_79_ ^ 2 - 2 x_90_ * x_79_ + 1 x_90_ ^ 2 + 1 y_79_ ^ 2 - 2 y_90_ * y_79_ + 1 y_90_ ^ 2 ] >= 21700.8
quadratic_ranged_477_lb: [ 1 x_83_ ^ 2 - 2 x_90_ * x_83_ + 1 x_90_ ^ 2 + 1 y_83_ ^ 2 - 2 y_90_ * y_83_ + 1 y_90_ ^ 2 ] >= 34762.86
quadratic_ranged_478_lb: [ 1 x_84_ ^ 2 - 2 x_90_ * x_84_ + 1 x_90_ ^ 2 + 1 y_84_ ^ 2 - 2 y_90_ * y_84_ + 1 y_90_ ^ 2 ] >= 27516.06
quadratic_ranged_479_lb: [ 1 x_89_ ^ 2 - 2 x_90_ * x_89_ + 1 x_90_ ^ 2 + 1 y_89_ ^ 2 - 2 y_90_ * y_89_ + 1 y_90_ ^ 2 ] >= 18889.2
quadratic_ranged_480_lb: [ 1 x_2_ ^ 2 - 2 x_91_ * x_2_ + 1 x_91_ ^ 2 + 1 y_2_ ^ 2 - 2 y_91_ * y_2_ + 1 y_91_ ^ 2 ] >= 29285.19
quadratic_ranged_481_lb: [ 1 x_4_ ^ 2 - 2 x_91_ * x_4_ + 1 x_91_ ^ 2 + 1 y_4_ ^ 2 - 2 y_91_ * y_4_ + 1 y_91_ ^ 2 ] >= 22255.2
quadratic_ranged_482_lb: [ 1 x_13_ ^ 2 - 2 x_91_ * x_13_ + 1 x_91_ ^ 2 + 1 y_13_ ^ 2 - 2 y_91_ * y_13_ + 1 y_91_ ^ 2 ] >= 45035.1
quadratic_ranged_483_lb: [ 1 x_30_ ^ 2 - 2 x_91_ * x_30_ + 1 x_91_ ^ 2 + 1 y_30_ ^ 2 - 2 y_91_ * y_30_ + 1 y_91_ ^ 2 ] >= 11646.36
quadratic_ranged_484_lb: [ 1 x_36_ ^ 2 - 2 x_91_ * x_36_ + 1 x_91_ ^ 2 + 1 y_36_ ^ 2 - 2 y_91_ * y_36_ + 1 y_91_ ^ 2 ] >= 28596.15
quadratic_ranged_485_lb: [ 1 x_40_ ^ 2 - 2 x_91_ * x_40_ + 1 x_91_ ^ 2 + 1 y_40_ ^ 2 - 2 y_91_ * y_40_ + 1 y_91_ ^ 2 ] >= 34932.15
quadratic_ranged_486_lb: [ 1 x_46_ ^ 2 - 2 x_91_ * x_46_ + 1 x_91_ ^ 2 + 1 y_46_ ^ 2 - 2 y_91_ * y_46_ + 1 y_91_ ^ 2 ] >= 22054.23
quadratic_ranged_487_lb: [ 1 x_58_ ^ 2 - 2 x_91_ * x_58_ + 1 x_91_ ^ 2 + 1 y_58_ ^ 2 - 2 y_91_ * y_58_ + 1 y_91_ ^ 2 ] >= 32472
quadratic_ranged_488_lb: [ 1 x_61_ ^ 2 - 2 x_91_ * x_61_ + 1 x_91_ ^ 2 + 1 y_61_ ^ 2 - 2 y_91_ * y_61_ + 1 y_91_ ^ 2 ] >= 13630.32
quadratic_ranged_489_lb: [ 1 x_79_ ^ 2 - 2 x_91_ * x_79_ + 1 x_91_ ^ 2 + 1 y_79_ ^ 2 - 2 y_91_ * y_79_ + 1 y_91_ ^ 2 ] >= 10914.75
quadratic_ranged_490_lb: [ 1 x_80_ ^ 2 - 2 x_91_ * x_80_ + 1 x_91_ ^ 2 + 1 y_80_ ^ 2 - 2 y_91_ * y_80_ + 1 y_91_ ^ 2 ] >= 36861.659999999996
quadratic_ranged_491_lb: [ 1 x_90_ ^ 2 - 2 x_91_ * x_90_ + 1 x_91_ ^ 2 + 1 y_90_ ^ 2 - 2 y_91_ * y_90_ + 1 y_91_ ^ 2 ] >= 62386.83
quadratic_ranged_492_lb: [ 1 x_4_ ^ 2 - 2 x_92_ * x_4_ + 1 x_92_ ^ 2 + 1 y_4_ ^ 2 - 2 y_92_ * y_4_ + 1 y_92_ ^ 2 ] >= 6187.5
quadratic_ranged_493_lb: [ 1 x_5_ ^ 2 - 2 x_92_ * x_5_ + 1 x_92_ ^ 2 + 1 y_5_ ^ 2 - 2 y_92_ * y_5_ + 1 y_92_ ^ 2 ] >= 10393.02
quadratic_ranged_494_lb: [ 1 x_7_ ^ 2 - 2 x_92_ * x_7_ + 1 x_92_ ^ 2 + 1 y_7_ ^ 2 - 2 y_92_ * y_7_ + 1 y_92_ ^ 2 ] >= 231.66
quadratic_ranged_495_lb: [ 1 x_19_ ^ 2 - 2 x_92_ * x_19_ + 1 x_92_ ^ 2 + 1 y_19_ ^ 2 - 2 y_92_ * y_19_ + 1 y_92_ ^ 2 ] >= 622.71
quadratic_ranged_496_lb: [ 1 x_21_ ^ 2 - 2 x_92_ * x_21_ + 1 x_92_ ^ 2 + 1 y_21_ ^ 2 - 2 y_92_ * y_21_ + 1 y_92_ ^ 2 ] >= 5712.3
quadratic_ranged_497_lb: [ 1 x_36_ ^ 2 - 2 x_92_ * x_36_ + 1 x_92_ ^ 2 + 1 y_36_ ^ 2 - 2 y_92_ * y_36_ + 1 y_92_ ^ 2 ] >= 15741.99
quadratic_ranged_498_lb: [ 1 x_66_ ^ 2 - 2 x_92_ * x_66_ + 1 x_92_ ^ 2 + 1 y_66_ ^ 2 - 2 y_92_ * y_66_ + 1 y_92_ ^ 2 ] >= 3280.86
quadratic_ranged_499_lb: [ 1 x_69_ ^ 2 - 2 x_92_ * x_69_ + 1 x_92_ ^ 2 + 1 y_69_ ^ 2 - 2 y_92_ * y_69_ + 1 y_92_ ^ 2 ] >= 2665.08
quadratic_ranged_500_lb: [ 1 x_77_ ^ 2 - 2 x_92_ * x_77_ + 1 x_92_ ^ 2 + 1 y_77_ ^ 2 - 2 y_92_ * y_77_ + 1 y_92_ ^ 2 ] >= 13515.48
quadratic_ranged_501_lb: [ 1 x_78_ ^ 2 - 2 x_92_ * x_78_ + 1 x_92_ ^ 2 + 1 y_78_ ^ 2 - 2 y_92_ * y_78_ + 1 y_92_ ^ 2 ] >= 11137.5
quadratic_ranged_502_lb: [ 1 x_82_ ^ 2 - 2 x_92_ * x_82_ + 1 x_92_ ^ 2 + 1 y_82_ ^ 2 - 2 y_92_ * y_82_ + 1 y_92_ ^ 2 ] >= 9699.03
quadratic_ranged_503_lb: [ 1 x_85_ ^ 2 - 2 x_92_ * x_85_ + 1 x_92_ ^ 2 + 1 y_85_ ^ 2 - 2 y_92_ * y_85_ + 1 y_92_ ^ 2 ] >= 659.34
quadratic_ranged_504_lb: [ 1 x_91_ ^ 2 - 2 x_92_ * x_91_ + 1 x_92_ ^ 2 + 1 y_91_ ^ 2 - 2 y_92_ * y_91_ + 1 y_92_ ^ 2 ] >= 5435.1
quadratic_ranged_505_lb: [ 1 x_6_ ^ 2 - 2 x_93_ * x_6_ + 1 x_93_ ^ 2 + 1 y_6_ ^ 2 - 2 y_93_ * y_6_ + 1 y_93_ ^ 2 ] >= 1346.4
quadratic_ranged_506_lb: [ 1 x_19_ ^ 2 - 2 x_93_ * x_19_ + 1 x_93_ ^ 2 + 1 y_19_ ^ 2 - 2 y_93_ * y_19_ + 1 y_93_ ^ 2 ] >= 9243.63
quadratic_ranged_507_lb: [ 1 x_25_ ^ 2 - 2 x_93_ * x_25_ + 1 x_93_ ^ 2 + 1 y_25_ ^ 2 - 2 y_93_ * y_25_ + 1 y_93_ ^ 2 ] >= 23763.96
quadratic_ranged_508_lb: [ 1 x_26_ ^ 2 - 2 x_93_ * x_26_ + 1 x_93_ ^ 2 + 1 y_26_ ^ 2 - 2 y_93_ * y_26_ + 1 y_93_ ^ 2 ] >= 4350.06
quadratic_ranged_509_lb: [ 1 x_31_ ^ 2 - 2 x_93_ * x_31_ + 1 x_93_ ^ 2 + 1 y_31_ ^ 2 - 2 y_93_ * y_31_ + 1 y_93_ ^ 2 ] >= 1291.95
quadratic_ranged_510_lb: [ 1 x_34_ ^ 2 - 2 x_93_ * x_34_ + 1 x_93_ ^ 2 + 1 y_34_ ^ 2 - 2 y_93_ * y_34_ + 1 y_93_ ^ 2 ] >= 12897.72
quadratic_ranged_511_lb: [ 1 x_36_ ^ 2 - 2 x_93_ * x_36_ + 1 x_93_ ^ 2 + 1 y_36_ ^ 2 - 2 y_93_ * y_36_ + 1 y_93_ ^ 2 ] >= 20545.47
quadratic_ranged_512_lb: [ 1 x_38_ ^ 2 - 2 x_93_ * x_38_ + 1 x_93_ ^ 2 + 1 y_38_ ^ 2 - 2 y_93_ * y_38_ + 1 y_93_ ^ 2 ] >= 21172.14
quadratic_ranged_513_lb: [ 1 x_41_ ^ 2 - 2 x_93_ * x_41_ + 1 x_93_ ^ 2 + 1 y_41_ ^ 2 - 2 y_93_ * y_41_ + 1 y_93_ ^ 2 ] >= 21626.55
quadratic_ranged_514_lb: [ 1 x_44_ ^ 2 - 2 x_93_ * x_44_ + 1 x_93_ ^ 2 + 1 y_44_ ^ 2 - 2 y_93_ * y_44_ + 1 y_93_ ^ 2 ] >= 25258.86
quadratic_ranged_515_lb: [ 1 x_50_ ^ 2 - 2 x_93_ * x_50_ + 1 x_93_ ^ 2 + 1 y_50_ ^ 2 - 2 y_93_ * y_50_ + 1 y_93_ ^ 2 ] >= 36120.15
quadratic_ranged_516_lb: [ 1 x_70_ ^ 2 - 2 x_93_ * x_70_ + 1 x_93_ ^ 2 + 1 y_70_ ^ 2 - 2 y_93_ * y_70_ + 1 y_93_ ^ 2 ] >= 16087.5
quadratic_ranged_517_lb: [ 1 x_73_ ^ 2 - 2 x_93_ * x_73_ + 1 x_93_ ^ 2 + 1 y_73_ ^ 2 - 2 y_93_ * y_73_ + 1 y_93_ ^ 2 ] >= 11533.5
quadratic_ranged_518_lb: [ 1 x_92_ ^ 2 - 2 x_93_ * x_92_ + 1 x_93_ ^ 2 + 1 y_92_ ^ 2 - 2 y_93_ * y_92_ + 1 y_93_ ^ 2 ] >= 5276.7
quadratic_ranged_519_lb: [ 1 x_26_ ^ 2 - 2 x_94_ * x_26_ + 1 x_94_ ^ 2 + 1 y_26_ ^ 2 - 2 y_94_ * y_26_ + 1 y_94_ ^ 2 ] >= 25867.71
quadratic_ranged_520_lb: [ 1 x_31_ ^ 2 - 2 x_94_ * x_31_ + 1 x_94_ ^ 2 + 1 y_31_ ^ 2 - 2 y_94_ * y_31_ + 1 y_94_ ^ 2 ] >= 50216.76
quadratic_ranged_521_lb: [ 1 x_58_ ^ 2 - 2 x_94_ * x_58_ + 1 x_94_ ^ 2 + 1 y_58_ ^ 2 - 2 y_94_ * y_58_ + 1 y_94_ ^ 2 ] >= 25923.15
quadratic_ranged_522_lb: [ 1 x_69_ ^ 2 - 2 x_94_ * x_69_ + 1 x_94_ ^ 2 + 1 y_69_ ^ 2 - 2 y_94_ * y_69_ + 1 y_94_ ^ 2 ] >= 14070.869999999999
quadratic_ranged_523_lb: [ 1 x_79_ ^ 2 - 2 x_94_ * x_79_ + 1 x_94_ ^ 2 + 1 y_79_ ^ 2 - 2 y_94_ * y_79_ + 1 y_94_ ^ 2 ] >= 19324.8
quadratic_ranged_524_lb: [ 1 x_89_ ^ 2 - 2 x_94_ * x_89_ + 1 x_94_ ^ 2 + 1 y_89_ ^ 2 - 2 y_94_ * y_89_ + 1 y_94_ ^ 2 ] >= 9163.44
quadratic_ranged_525_lb: [ 1 x_92_ ^ 2 - 2 x_94_ * x_92_ + 1 x_94_ ^ 2 + 1 y_92_ ^ 2 - 2 y_94_ * y_92_ + 1 y_94_ ^ 2 ] >= 28291.23
quadratic_ranged_526_lb: [ 1 x_93_ ^ 2 - 2 x_94_ * x_93_ + 1 x_94_ ^ 2 + 1 y_93_ ^ 2 - 2 y_94_ * y_93_ + 1 y_94_ ^ 2 ] >= 39818.79
quadratic_ranged_527_lb: [ 1 x_3_ ^ 2 - 2 x_95_ * x_3_ + 1 x_95_ ^ 2 + 1 y_3_ ^ 2 - 2 y_95_ * y_3_ + 1 y_95_ ^ 2 ] >= 18549.63
quadratic_ranged_528_lb: [ 1 x_6_ ^ 2 - 2 x_95_ * x_6_ + 1 x_95_ ^ 2 + 1 y_6_ ^ 2 - 2 y_95_ * y_6_ + 1 y_95_ ^ 2 ] >= 10566.27
quadratic_ranged_529_lb: [ 1 x_14_ ^ 2 - 2 x_95_ * x_14_ + 1 x_95_ ^ 2 + 1 y_14_ ^ 2 - 2 y_95_ * y_14_ + 1 y_95_ ^ 2 ] >= 28965.42
quadratic_ranged_530_lb: [ 1 x_36_ ^ 2 - 2 x_95_ * x_36_ + 1 x_95_ ^ 2 + 1 y_36_ ^ 2 - 2 y_95_ * y_36_ + 1 y_95_ ^ 2 ] >= 15968.7
quadratic_ranged_531_lb: [ 1 x_37_ ^ 2 - 2 x_95_ * x_37_ + 1 x_95_ ^ 2 + 1 y_37_ ^ 2 - 2 y_95_ * y_37_ + 1 y_95_ ^ 2 ] >= 26185.5
quadratic_ranged_532_lb: [ 1 x_51_ ^ 2 - 2 x_95_ * x_51_ + 1 x_95_ ^ 2 + 1 y_51_ ^ 2 - 2 y_95_ * y_51_ + 1 y_95_ ^ 2 ] >= 29472.3
quadratic_ranged_533_lb: [ 1 x_55_ ^ 2 - 2 x_95_ * x_55_ + 1 x_95_ ^ 2 + 1 y_55_ ^ 2 - 2 y_95_ * y_55_ + 1 y_95_ ^ 2 ] >= 25977.6
quadratic_ranged_534_lb: [ 1 x_56_ ^ 2 - 2 x_95_ * x_56_ + 1 x_95_ ^ 2 + 1 y_56_ ^ 2 - 2 y_95_ * y_56_ + 1 y_95_ ^ 2 ] >= 18754.56
quadratic_ranged_535_lb: [ 1 x_80_ ^ 2 - 2 x_95_ * x_80_ + 1 x_95_ ^ 2 + 1 y_80_ ^ 2 - 2 y_95_ * y_80_ + 1 y_95_ ^ 2 ] >= 16969.59
quadratic_ranged_536_lb: [ 1 x_84_ ^ 2 - 2 x_95_ * x_84_ + 1 x_95_ ^ 2 + 1 y_84_ ^ 2 - 2 y_95_ * y_84_ + 1 y_95_ ^ 2 ] >= 4411.44
quadratic_ranged_537_lb: [ 1 x_91_ ^ 2 - 2 x_95_ * x_91_ + 1 x_95_ ^ 2 + 1 y_91_ ^ 2 - 2 y_95_ * y_91_ + 1 y_95_ ^ 2 ] >= 6237.99
quadratic_ranged_538_lb: [ 1 x_94_ ^ 2 - 2 x_95_ * x_94_ + 1 x_95_ ^ 2 + 1 y_94_ ^ 2 - 2 y_95_ * y_94_ + 1 y_95_ ^ 2 ] >= 29139.66
quadratic_ranged_539_lb: [ 1 x_18_ ^ 2 - 2 x_96_ * x_18_ + 1 x_96_ ^ 2 + 1 y_18_ ^ 2 - 2 y_96_ * y_18_ + 1 y_96_ ^ 2 ] >= 3653.1
quadratic_ranged_540_lb: [ 1 x_19_ ^ 2 - 2 x_96_ * x_19_ + 1 x_96_ ^ 2 + 1 y_19_ ^ 2 - 2 y_96_ * y_19_ + 1 y_96_ ^ 2 ] >= 22532.4
quadratic_ranged_541_lb: [ 1 x_23_ ^ 2 - 2 x_96_ * x_23_ + 1 x_96_ ^ 2 + 1 y_23_ ^ 2 - 2 y_96_ * y_23_ + 1 y_96_ ^ 2 ] >= 15131.16
quadratic_ranged_542_lb: [ 1 x_29_ ^ 2 - 2 x_96_ * x_29_ + 1 x_96_ ^ 2 + 1 y_29_ ^ 2 - 2 y_96_ * y_29_ + 1 y_96_ ^ 2 ] >= 12365.1
quadratic_ranged_543_lb: [ 1 x_45_ ^ 2 - 2 x_96_ * x_45_ + 1 x_96_ ^ 2 + 1 y_45_ ^ 2 - 2 y_96_ * y_45_ + 1 y_96_ ^ 2 ] >= 17250.75
quadratic_ranged_544_lb: [ 1 x_83_ ^ 2 - 2 x_96_ * x_83_ + 1 x_96_ ^ 2 + 1 y_83_ ^ 2 - 2 y_96_ * y_83_ + 1 y_96_ ^ 2 ] >= 23524.38
quadratic_ranged_545_lb: [ 1 x_84_ ^ 2 - 2 x_96_ * x_84_ + 1 x_96_ ^ 2 + 1 y_84_ ^ 2 - 2 y_96_ * y_84_ + 1 y_96_ ^ 2 ] >= 19128.78
quadratic_ranged_546_lb: [ 1 x_85_ ^ 2 - 2 x_96_ * x_85_ + 1 x_96_ ^ 2 + 1 y_85_ ^ 2 - 2 y_96_ * y_85_ + 1 y_96_ ^ 2 ] >= 25083.63
quadratic_ranged_547_lb: [ 1 x_95_ ^ 2 - 2 x_96_ * x_95_ + 1 x_96_ ^ 2 + 1 y_95_ ^ 2 - 2 y_96_ * y_95_ + 1 y_96_ ^ 2 ] >= 20657.34
quadratic_ranged_548_lb: [ 1 x_9_ ^ 2 - 2 x_97_ * x_9_ + 1 x_97_ ^ 2 + 1 y_9_ ^ 2 - 2 y_97_ * y_9_ + 1 y_97_ ^ 2 ] >= 29630.7
quadratic_ranged_549_lb: [ 1 x_20_ ^ 2 - 2 x_97_ * x_20_ + 1 x_97_ ^ 2 + 1 y_20_ ^ 2 - 2 y_97_ * y_20_ + 1 y_97_ ^ 2 ] >= 25566.75
quadratic_ranged_550_lb: [ 1 x_49_ ^ 2 - 2 x_97_ * x_49_ + 1 x_97_ ^ 2 + 1 y_49_ ^ 2 - 2 y_97_ * y_49_ + 1 y_97_ ^ 2 ] >= 4569.84
quadratic_ranged_551_lb: [ 1 x_70_ ^ 2 - 2 x_97_ * x_70_ + 1 x_97_ ^ 2 + 1 y_70_ ^ 2 - 2 y_97_ * y_70_ + 1 y_97_ ^ 2 ] >= 11472.12
quadratic_ranged_552_lb: [ 1 x_84_ ^ 2 - 2 x_97_ * x_84_ + 1 x_97_ ^ 2 + 1 y_84_ ^ 2 - 2 y_97_ * y_84_ + 1 y_97_ ^ 2 ] >= 618.75
quadratic_ranged_553_lb: [ 1 x_93_ ^ 2 - 2 x_97_ * x_93_ + 1 x_97_ ^ 2 + 1 y_93_ ^ 2 - 2 y_97_ * y_93_ + 1 y_97_ ^ 2 ] >= 627.66
quadratic_ranged_554_lb: [ 1 x_96_ ^ 2 - 2 x_97_ * x_96_ + 1 x_97_ ^ 2 + 1 y_96_ ^ 2 - 2 y_97_ * y_96_ + 1 y_97_ ^ 2 ] >= 17773.47
quadratic_ranged_555_lb: [ 1 x_17_ ^ 2 - 2 x_98_ * x_17_ + 1 x_98_ ^ 2 + 1 y_17_ ^ 2 - 2 y_98_ * y_17_ + 1 y_98_ ^ 2 ] >= 64.35
quadratic_ranged_556_lb: [ 1 x_33_ ^ 2 - 2 x_98_ * x_33_ + 1 x_98_ ^ 2 + 1 y_33_ ^ 2 - 2 y_98_ * y_33_ + 1 y_98_ ^ 2 ] >= 34420.32
quadratic_ranged_557_lb: [ 1 x_43_ ^ 2 - 2 x_98_ * x_43_ + 1 x_98_ ^ 2 + 1 y_43_ ^ 2 - 2 y_98_ * y_43_ + 1 y_98_ ^ 2 ] >= 7734.87
quadratic_ranged_558_lb: [ 1 x_48_ ^ 2 - 2 x_98_ * x_48_ + 1 x_98_ ^ 2 + 1 y_48_ ^ 2 - 2 y_98_ * y_48_ + 1 y_98_ ^ 2 ] >= 2784.87
quadratic_ranged_559_lb: [ 1 x_76_ ^ 2 - 2 x_98_ * x_76_ + 1 x_98_ ^ 2 + 1 y_76_ ^ 2 - 2 y_98_ * y_76_ + 1 y_98_ ^ 2 ] >= 7833.87
quadratic_ranged_560_lb: [ 1 x_87_ ^ 2 - 2 x_98_ * x_87_ + 1 x_98_ ^ 2 + 1 y_87_ ^ 2 - 2 y_98_ * y_87_ + 1 y_98_ ^ 2 ] >= 6401.34
quadratic_ranged_561_lb: [ 1 x_97_ ^ 2 - 2 x_98_ * x_97_ + 1 x_98_ ^ 2 + 1 y_97_ ^ 2 - 2 y_98_ * y_97_ + 1 y_98_ ^ 2 ] >= 11203.83
quadratic_ranged_562_lb: [ 1 x_10_ ^ 2 - 2 x_99_ * x_10_ + 1 x_99_ ^ 2 + 1 y_10_ ^ 2 - 2 y_99_ * y_10_ + 1 y_99_ ^ 2 ] >= 29645.55
quadratic_ranged_563_lb: [ 1 x_17_ ^ 2 - 2 x_99_ * x_17_ + 1 x_99_ ^ 2 + 1 y_17_ ^ 2 - 2 y_99_ * y_17_ + 1 y_99_ ^ 2 ] >= 666.27
quadratic_ranged_564_lb: [ 1 x_23_ ^ 2 - 2 x_99_ * x_23_ + 1 x_99_ ^ 2 + 1 y_23_ ^ 2 - 2 y_99_ * y_23_ + 1 y_99_ ^ 2 ] >= 16190.46
quadratic_ranged_565_lb: [ 1 x_56_ ^ 2 - 2 x_99_ * x_56_ + 1 x_99_ ^ 2 + 1 y_56_ ^ 2 - 2 y_99_ * y_56_ + 1 y_99_ ^ 2 ] >= 8082.36
quadratic_ranged_566_lb: [ 1 x_57_ ^ 2 - 2 x_99_ * x_57_ + 1 x_99_ ^ 2 + 1 y_57_ ^ 2 - 2 y_99_ * y_57_ + 1 y_99_ ^ 2 ] >= 4610.43
quadratic_ranged_567_lb: [ 1 x_59_ ^ 2 - 2 x_99_ * x_59_ + 1 x_99_ ^ 2 + 1 y_59_ ^ 2 - 2 y_99_ * y_59_ + 1 y_99_ ^ 2 ] >= 8273.43
quadratic_ranged_568_lb: [ 1 x_64_ ^ 2 - 2 x_99_ * x_64_ + 1 x_99_ ^ 2 + 1 y_64_ ^ 2 - 2 y_99_ * y_64_ + 1 y_99_ ^ 2 ] >= 5722.2
quadratic_ranged_569_lb: [ 1 x_65_ ^ 2 - 2 x_99_ * x_65_ + 1 x_99_ ^ 2 + 1 y_65_ ^ 2 - 2 y_99_ * y_65_ + 1 y_99_ ^ 2 ] >= 12372.03
quadratic_ranged_570_lb: [ 1 x_79_ ^ 2 - 2 x_99_ * x_79_ + 1 x_99_ ^ 2 + 1 y_79_ ^ 2 - 2 y_99_ * y_79_ + 1 y_99_ ^ 2 ] >= 6718.14
quadratic_ranged_571_lb: [ 1 x_82_ ^ 2 - 2 x_99_ * x_82_ + 1 x_99_ ^ 2 + 1 y_82_ ^ 2 - 2 y_99_ * y_82_ + 1 y_99_ ^ 2 ] >= 14590.619999999999
quadratic_ranged_572_lb: [ 1 x_86_ ^ 2 - 2 x_99_ * x_86_ + 1 x_99_ ^ 2 + 1 y_86_ ^ 2 - 2 y_99_ * y_86_ + 1 y_99_ ^ 2 ] >= 29895.03
quadratic_ranged_573_lb: [ 1 x_88_ ^ 2 - 2 x_99_ * x_88_ + 1 x_99_ ^ 2 + 1 y_88_ ^ 2 - 2 y_99_ * y_88_ + 1 y_99_ ^ 2 ] >= 14010.48
quadratic_ranged_574_lb: [ 1 x_95_ ^ 2 - 2 x_99_ * x_95_ + 1 x_99_ ^ 2 + 1 y_95_ ^ 2 - 2 y_99_ * y_95_ + 1 y_99_ ^ 2 ] >= 5611.32
quadratic_ranged_575_lb: [ 1 x_98_ ^ 2 - 2 x_99_ * x_98_ + 1 x_99_ ^ 2 + 1 y_98_ ^ 2 - 2 y_99_ * y_98_ + 1 y_99_ ^ 2 ] >= 316.8
quadratic_ranged_576_lb: [ 1 x_1_ ^ 2 - 2 x_100_ * x_1_ + 1 x_100_ ^ 2 + 1 y_1_ ^ 2 - 2 y_100_ * y_1_ + 1 y_100_ ^ 2 ] >= 4720.32
quadratic_ranged_577_lb: [ 1 x_5_ ^ 2 - 2 x_100_ * x_5_ + 1 x_100_ ^ 2 + 1 y_5_ ^ 2 - 2 y_100_ * y_5_ + 1 y_100_ ^ 2 ] >= 2059.2
quadratic_ranged_578_lb: [ 1 x_16_ ^ 2 - 2 x_100_ * x_16_ + 1 x_100_ ^ 2 + 1 y_16_ ^ 2 - 2 y_100_ * y_16_ + 1 y_100_ ^ 2 ] >= 4840.11
quadratic_ranged_579_lb: [ 1 x_29_ ^ 2 - 2 x_100_ * x_29_ + 1 x_100_ ^ 2 + 1 y_29_ ^ 2 - 2 y_100_ * y_29_ + 1 y_100_ ^ 2 ] >= 7548.75
quadratic_ranged_580_lb: [ 1 x_38_ ^ 2 - 2 x_100_ * x_38_ + 1 x_100_ ^ 2 + 1 y_38_ ^ 2 - 2 y_100_ * y_38_ + 1 y_100_ ^ 2 ] >= 10266.3
quadratic_ranged_581_lb: [ 1 x_45_ ^ 2 - 2 x_100_ * x_45_ + 1 x_100_ ^ 2 + 1 y_45_ ^ 2 - 2 y_100_ * y_45_ + 1 y_100_ ^ 2 ] >= 15982.56
quadratic_ranged_582_lb: [ 1 x_52_ ^ 2 - 2 x_100_ * x_52_ + 1 x_100_ ^ 2 + 1 y_52_ ^ 2 - 2 y_100_ * y_52_ + 1 y_100_ ^ 2 ] >= 5992.47
quadratic_ranged_583_lb: [ 1 x_66_ ^ 2 - 2 x_100_ * x_66_ + 1 x_100_ ^ 2 + 1 y_66_ ^ 2 - 2 y_100_ * y_66_ + 1 y_100_ ^ 2 ] >= 178.2
quadratic_ranged_584_lb: [ 1 x_73_ ^ 2 - 2 x_100_ * x_73_ + 1 x_100_ ^ 2 + 1 y_73_ ^ 2 - 2 y_100_ * y_73_ + 1 y_100_ ^ 2 ] >= 793.98
quadratic_ranged_585_lb: [ 1 x_99_ ^ 2 - 2 x_100_ * x_99_ + 1 x_100_ ^ 2 + 1 y_99_ ^ 2 - 2 y_100_ * y_99_ + 1 y_100_ ^ 2 ] >= 5267.79
c1_1: 1 x_15_ = -94
c2_1: 1 y_15_ = 38
c3_1: 1 x_76_ = -27
c4_1: 1 y_76_ = -88
c5_1: 1 x_41_ = 90
c6_1: 1 y_41_ = -90
Bounds
-119 <= x_1_ <= 77
-148 <= x_2_ <= 116
-132 <= x_3_ <= 47
-152 <= x_4_ <= 95
-39 <= x_5_ <= 15
-93 <= x_6_ <= 85
-88 <= x_7_ <= 117
-81 <= x_8_ <= 29
-133 <= x_9_ <= 58
-111 <= x_10_ <= 105
-24 <= x_11_ <= 68
17 <= x_12_ <= 109
-125 <= x_13_ <= -63
-107 <= x_14_ <= -81
x_15_ = -94
-15 <= x_16_ <= 56
-100 <= x_17_ <= 70
-114 <= x_18_ <= 102
-57 <= x_19_ <= 90
-85 <= x_20_ <= 79
-80 <= x_21_ <= 100
-104 <= x_22_ <= 62
-88 <= x_23_ <= 82
-109 <= x_24_ <= 93
-159 <= x_25_ <= -11
-125 <= x_26_ <= 56
-117 <= x_27_ <= 24
-143 <= x_28_ <= 49
-93 <= x_29_ <= 49
-30 <= x_30_ <= 45
-94 <= x_31_ <= 154
-92 <= x_32_ <= -27
-130 <= x_33_ <= 34
33 <= x_34_ <= 87
-102 <= x_35_ <= 75
-79 <= x_36_ <= 56
-121 <= x_37_ <= 98
-122 <= x_38_ <= 75
-78 <= x_39_ <= 107
-101 <= x_40_ <= 16
x_41_ = 90
-72 <= x_42_ <= -22
-62 <= x_43_ <= 36
-138 <= x_44_ <= 112
-131 <= x_45_ <= 99
-100 <= x_46_ <= 68
-110 <= x_47_ <= 17
-75 <= x_48_ <= 38
-123 <= x_49_ <= 86
-129 <= x_50_ <= 37
-148 <= x_51_ <= -39
-45 <= x_52_ <= 39
86 <= x_53_ <= 91
-51 <= x_54_ <= 5
-132 <= x_55_ <= 30
-103 <= x_56_ <= 93
-88 <= x_57_ <= 75
-114 <= x_58_ <= 6
-80 <= x_59_ <= 123
-124 <= x_60_ <= -15
-71 <= x_61_ <= 28
-129 <= x_62_ <= 68
-96 <= x_63_ <= 18
-115 <= x_64_ <= 21
-54 <= x_65_ <= 114
-64 <= x_66_ <= 51
-203 <= x_67_ <= 95
-64 <= x_68_ <= 95
-20 <= x_69_ <= 86
0 <= x_70_ <= 66
63 <= x_71_ <= 67
-20 <= x_72_ <= -16
-22 <= x_73_ <= 50
-105 <= x_74_ <= 62
-81 <= x_75_ <= 71
x_76_ = -27
-109 <= x_77_ <= 119
-120 <= x_78_ <= 108
-130 <= x_79_ <= 76
-115 <= x_80_ <= 5
-61 <= x_81_ <= 25
-104 <= x_82_ <= 80
-73 <= x_83_ <= 90
-107 <= x_84_ <= 124
-98 <= x_85_ <= 135
-124 <= x_86_ <= 78
-127 <= x_87_ <= 91
-63 <= x_88_ <= 100
-123 <= x_89_ <= 101
-163 <= x_90_ <= -15
-139 <= x_91_ <= 146
-73 <= x_92_ <= 109
-58 <= x_93_ <= 122
-140 <= x_94_ <= 169
-174 <= x_95_ <= 91
-175 <= x_96_ <= 161
-83 <= x_97_ <= 147
-108 <= x_98_ <= 62
-123 <= x_99_ <= 80
-50 <= x_100_ <= 61
-133 <= y_1_ <= 72
-172 <= y_2_ <= 115
-103 <= y_3_ <= 128
-151 <= y_4_ <= 121
-71 <= y_5_ <= -30
-141 <= y_6_ <= 93
-186 <= y_7_ <= 56
-85 <= y_8_ <= 81
-114 <= y_9_ <= 79
-161 <= y_10_ <= 111
-124 <= y_11_ <= 24
-163 <= y_12_ <= -17
7 <= y_13_ <= 69
25 <= y_14_ <= 51
y_15_ = 38
-112 <= y_16_ <= 15
-158 <= y_17_ <= 9
-158 <= y_18_ <= 114
-146 <= y_19_ <= 48
-135 <= y_20_ <= 56
-156 <= y_21_ <= 80
-118 <= y_22_ <= 104
-138 <= y_23_ <= 88
-149 <= y_24_ <= 109
-45 <= y_25_ <= 99
-112 <= y_26_ <= 94
-80 <= y_27_ <= 28
-105 <= y_28_ <= 53
-105 <= y_29_ <= 52
-101 <= y_30_ <= 30
-210 <= y_31_ <= 94
-29 <= y_32_ <= 2
-90 <= y_33_ <= 125
-143 <= y_34_ <= -33
-131 <= y_35_ <= 97
-164 <= y_36_ <= -5
-161 <= y_37_ <= 37
-131 <= y_38_ <= 66
-181 <= y_39_ <= 46
-72 <= y_40_ <= 101
y_41_ = -90
-34 <= y_42_ <= -18
-92 <= y_43_ <= 29
-168 <= y_44_ <= 100
-155 <= y_45_ <= 131
-124 <= y_46_ <= 100
-73 <= y_47_ <= 21
-153 <= y_48_ <= -23
-159 <= y_49_ <= 25
-93 <= y_50_ <= 41
-17 <= y_51_ <= 70
-95 <= y_52_ <= 45
-94 <= y_53_ <= -86
-61 <= y_54_ <= 30
-86 <= y_55_ <= 57
-155 <= y_56_ <= 32
-155 <= y_57_ <= 14
-62 <= y_58_ <= 89
-179 <= y_59_ <= 67
-41 <= y_60_ <= 61
-84 <= y_61_ <= 1
-124 <= y_62_ <= 41
-74 <= y_63_ <= 85
-77 <= y_64_ <= 25
-170 <= y_65_ <= 54
-131 <= y_66_ <= -10
-151 <= y_67_ <= 124
-151 <= y_68_ <= 63
-142 <= y_69_ <= 20
-122 <= y_70_ <= 0
-117 <= y_71_ <= -63
-99 <= y_72_ <= -77
-132 <= y_73_ <= -11
-118 <= y_74_ <= 8
-176 <= y_75_ <= 10
y_76_ = -88
-175 <= y_77_ <= 109
-164 <= y_78_ <= 105
-155 <= y_79_ <= 15
-61 <= y_80_ <= 81
-140 <= y_81_ <= -36
-136 <= y_82_ <= 34
-146 <= y_83_ <= 73
-180 <= y_84_ <= 107
-197 <= y_85_ <= 74
-134 <= y_86_ <= 103
-180 <= y_87_ <= 30
-156 <= y_88_ <= 63
-157 <= y_89_ <= 114
-41 <= y_90_ <= 101
-202 <= y_91_ <= 119
-171 <= y_92_ <= 48
-178 <= y_93_ <= 58
-225 <= y_94_ <= 140
-147 <= y_95_ <= 95
-217 <= y_96_ <= 164
-203 <= y_97_ <= 83
-166 <= y_98_ <= 1
-153 <= y_99_ <= 19
-117 <= y_100_ <= 3
General
x_1_
x_2_
x_3_
x_4_
x_5_
x_6_
x_7_
x_8_
x_9_
x_10_
x_11_
x_12_
x_13_
x_14_
x_15_
x_16_
x_17_
x_18_
x_19_
x_20_
x_21_
x_22_
x_23_
x_24_
x_25_
x_26_
x_27_
x_28_
x_29_
x_30_
x_31_
x_32_
x_33_
x_34_
x_35_
x_36_
x_37_
x_38_
x_39_
x_40_
x_41_
x_42_
x_43_
x_44_
x_45_
x_46_
x_47_
x_48_
x_49_
x_50_
x_51_
x_52_
x_53_
x_54_
x_55_
x_56_
x_57_
x_58_
x_59_
x_60_
x_61_
x_62_
x_63_
x_64_
x_65_
x_66_
x_67_
x_68_
x_69_
x_70_
x_71_
x_72_
x_73_
x_74_
x_75_
x_76_
x_77_
x_78_
x_79_
x_80_
x_81_
x_82_
x_83_
x_84_
x_85_
x_86_
x_87_
x_88_
x_89_
x_90_
x_91_
x_92_
x_93_
x_94_
x_95_
x_96_
x_97_
x_98_
x_99_
x_100_
y_1_
y_2_
y_3_
y_4_
y_5_
y_6_
y_7_
y_8_
y_9_
y_10_
y_11_
y_12_
y_13_
y_14_
y_15_
y_16_
y_17_
y_18_
y_19_
y_20_
y_21_
y_22_
y_23_
y_24_
y_25_
y_26_
y_27_
y_28_
y_29_
y_30_
y_31_
y_32_
y_33_
y_34_
y_35_
y_36_
y_37_
y_38_
y_39_
y_40_
y_41_
y_42_
y_43_
y_44_
y_45_
y_46_
y_47_
y_48_
y_49_
y_50_
y_51_
y_52_
y_53_
y_54_
y_55_
y_56_
y_57_
y_58_
y_59_
y_60_
y_61_
y_62_
y_63_
y_64_
y_65_
y_66_
y_67_
y_68_
y_69_
y_70_
y_71_
y_72_
y_73_
y_74_
y_75_
y_76_
y_77_
y_78_
y_79_
y_80_
y_81_
y_82_
y_83_
y_84_
y_85_
y_86_
y_87_
y_88_
y_89_
y_90_
y_91_
y_92_
y_93_
y_94_
y_95_
y_96_
y_97_
y_98_
y_99_
y_100_
End
