minimize
obj: 
subject to
c1: -108 x_1_ + 154 y_1_ + [ 1 x_1_ ^ 2 + 1 y_1_ ^ 2 ] <= 10123.234963285573
c2: -108 x_2_ + 154 y_2_ + [ 1 x_2_ ^ 2 + 1 y_2_ ^ 2 ] <= -7724.91
c3: -108 x_4_ + 154 y_4_ + [ 1 x_4_ ^ 2 + 1 y_4_ ^ 2 ] <= 12757.89
c4: -108 x_5_ + 154 y_5_ + [ 1 x_5_ ^ 2 + 1 y_5_ ^ 2 ] <= 28940.28902001409
c5: -108 x_6_ + 154 y_6_ + [ 1 x_6_ ^ 2 + 1 y_6_ ^ 2 ] <= 38031.27330311018
c6: -108 x_7_ + 154 y_7_ + [ 1 x_7_ ^ 2 + 1 y_7_ ^ 2 ] <= 35828.04872284763
c7: -108 x_8_ + 154 y_8_ + [ 1 x_8_ ^ 2 + 1 y_8_ ^ 2 ] <= -7991.55
c8: -108 x_9_ + 154 y_9_ + [ 1 x_9_ ^ 2 + 1 y_9_ ^ 2 ] <= 25032.476065976327
c9: -108 x_10_ + 154 y_10_ + [ 1 x_10_ ^ 2 + 1 y_10_ ^ 2 ] <= 55591.728491437934
c10: -108 x_11_ + 154 y_11_ + [ 1 x_11_ ^ 2 + 1 y_11_ ^ 2 ] <= 12050.889999999996
c11: -108 x_12_ + 154 y_12_ + [ 1 x_12_ ^ 2 + 1 y_12_ ^ 2 ] <= -8037
c12: -108 x_13_ + 154 y_13_ + [ 1 x_13_ ^ 2 + 1 y_13_ ^ 2 ] <= 24970.579108514277
c13: -108 x_14_ + 154 y_14_ + [ 1 x_14_ ^ 2 + 1 y_14_ ^ 2 ] <= -843.7800000000034
c14: -108 x_15_ + 154 y_15_ + [ 1 x_15_ ^ 2 + 1 y_15_ ^ 2 ] <= 15053.164618042836
c15: -108 x_16_ + 154 y_16_ + [ 1 x_16_ ^ 2 + 1 y_16_ ^ 2 ] <= 35259.67999999999
c16: -108 x_17_ + 154 y_17_ + [ 1 x_17_ ^ 2 + 1 y_17_ ^ 2 ] <= 16381.95435983313
c17: -108 x_18_ + 154 y_18_ + [ 1 x_18_ ^ 2 + 1 y_18_ ^ 2 ] <= 48989.42972886156
c18: -108 x_19_ + 154 y_19_ + [ 1 x_19_ ^ 2 + 1 y_19_ ^ 2 ] <= 107740.2130192939
c19: -108 x_20_ + 154 y_20_ + [ 1 x_20_ ^ 2 + 1 y_20_ ^ 2 ] <= 52967.14373540379
c20: 18 x_1_ + 162 y_1_ + [ 1 x_1_ ^ 2 + 1 y_1_ ^ 2 ] <= 62781.56051010301
c21: 18 x_2_ + 162 y_2_ + [ 1 x_2_ ^ 2 + 1 y_2_ ^ 2 ] <= 60874.20593660801
c22: 18 x_3_ + 162 y_3_ + [ 1 x_3_ ^ 2 + 1 y_3_ ^ 2 ] <= 57794.728491437934
c23: 18 x_4_ + 162 y_4_ + [ 1 x_4_ ^ 2 + 1 y_4_ ^ 2 ] <= 24587.199999999993
c24: 18 x_5_ + 162 y_5_ + [ 1 x_5_ ^ 2 + 1 y_5_ ^ 2 ] <= 43589.129310568715
c25: 18 x_6_ + 162 y_6_ + [ 1 x_6_ ^ 2 + 1 y_6_ ^ 2 ] <= 69186.17370798862
c26: 18 x_7_ + 162 y_7_ + [ 1 x_7_ ^ 2 + 1 y_7_ ^ 2 ] <= 12003.862067142847
c27: 18 x_8_ + 162 y_8_ + [ 1 x_8_ ^ 2 + 1 y_8_ ^ 2 ] <= 73479.70247665505
c28: 18 x_9_ + 162 y_9_ + [ 1 x_9_ ^ 2 + 1 y_9_ ^ 2 ] <= 5293.17
c29: 18 x_11_ + 162 y_11_ + [ 1 x_11_ ^ 2 + 1 y_11_ ^ 2 ] <= 5302.259999999997
c30: 18 x_12_ + 162 y_12_ + [ 1 x_12_ ^ 2 + 1 y_12_ ^ 2 ] <= 73006.51243957791
c31: 18 x_13_ + 162 y_13_ + [ 1 x_13_ ^ 2 + 1 y_13_ ^ 2 ] <= 31902.52927361941
c32: 18 x_14_ + 162 y_14_ + [ 1 x_14_ ^ 2 + 1 y_14_ ^ 2 ] <= 51111.011127784586
c33: 18 x_15_ + 162 y_15_ + [ 1 x_15_ ^ 2 + 1 y_15_ ^ 2 ] <= 42068.77847340756
c34: 18 x_16_ + 162 y_16_ + [ 1 x_16_ ^ 2 + 1 y_16_ ^ 2 ] <= 26051.54728234731
c35: 18 x_17_ + 162 y_17_ + [ 1 x_17_ ^ 2 + 1 y_17_ ^ 2 ] <= 53954.61219150025
c36: 18 x_18_ + 162 y_18_ + [ 1 x_18_ ^ 2 + 1 y_18_ ^ 2 ] <= 100825.09092353143
c37: 18 x_19_ + 162 y_19_ + [ 1 x_19_ ^ 2 + 1 y_19_ ^ 2 ] <= 118591.35319639984
c38: 18 x_20_ + 162 y_20_ + [ 1 x_20_ ^ 2 + 1 y_20_ ^ 2 ] <= 39550.112994934265
c39: 186 x_1_ + 24 y_1_ + [ 1 x_1_ ^ 2 + 1 y_1_ ^ 2 ] <= 14995.529999999999
c40: 186 x_2_ + 24 y_2_ + [ 1 x_2_ ^ 2 + 1 y_2_ ^ 2 ] <= 13884.529999999995
c41: 186 x_3_ + 24 y_3_ + [ 1 x_3_ ^ 2 + 1 y_3_ ^ 2 ] <= 25084.476065976327
c42: 186 x_4_ + 24 y_4_ + [ 1 x_4_ ^ 2 + 1 y_4_ ^ 2 ] <= 71465.36951584219
c43: 186 x_5_ + 24 y_5_ + [ 1 x_5_ ^ 2 + 1 y_5_ ^ 2 ] <= 61917.117454137406
c44: 186 x_6_ + 24 y_6_ + [ 1 x_6_ ^ 2 + 1 y_6_ ^ 2 ] <= 18803.171795246217
c45: 186 x_7_ + 24 y_7_ + [ 1 x_7_ ^ 2 + 1 y_7_ ^ 2 ] <= -8047.62
c46: 186 x_8_ + 24 y_8_ + [ 1 x_8_ ^ 2 + 1 y_8_ ^ 2 ] <= 26683.25
c47: 186 x_10_ + 24 y_10_ + [ 1 x_10_ ^ 2 + 1 y_10_ ^ 2 ] <= 3142.17
c48: 186 x_11_ + 24 y_11_ + [ 1 x_11_ ^ 2 + 1 y_11_ ^ 2 ] <= 38965.85826988955
c49: 186 x_12_ + 24 y_12_ + [ 1 x_12_ ^ 2 + 1 y_12_ ^ 2 ] <= 27534.83425801913
c50: 186 x_13_ + 24 y_13_ + [ 1 x_13_ ^ 2 + 1 y_13_ ^ 2 ] <= -1210.1775101570129
c51: 186 x_14_ + 24 y_14_ + [ 1 x_14_ ^ 2 + 1 y_14_ ^ 2 ] <= 39474.37547046687
c52: 186 x_15_ + 24 y_15_ + [ 1 x_15_ ^ 2 + 1 y_15_ ^ 2 ] <= 3629.6585851197724
c53: 186 x_16_ + 24 y_16_ + [ 1 x_16_ ^ 2 + 1 y_16_ ^ 2 ] <= 35737.850996276706
c54: 186 x_17_ + 24 y_17_ + [ 1 x_17_ ^ 2 + 1 y_17_ ^ 2 ] <= 21951.131747498686
c55: 186 x_18_ + 24 y_18_ + [ 1 x_18_ ^ 2 + 1 y_18_ ^ 2 ] <= 53749.02828516083
c56: 186 x_19_ + 24 y_19_ + [ 1 x_19_ ^ 2 + 1 y_19_ ^ 2 ] <= 51053.30491293165
c57: 186 x_20_ + 24 y_20_ + [ 1 x_20_ ^ 2 + 1 y_20_ ^ 2 ] <= 15244.600769317429
quadratic_ranged_1_ub: [ 1 x_1_ ^ 2 - 2 x_2_ * x_1_ + 1 x_2_ ^ 2 + 1 y_1_ ^ 2 - 2 y_2_ * y_1_ + 1 y_2_ ^ 2 ] <= 10869.62
quadratic_ranged_2_ub: [ 1 x_2_ ^ 2 - 2 x_3_ * x_2_ + 1 x_3_ ^ 2 + 1 y_2_ ^ 2 - 2 y_3_ * y_2_ + 1 y_3_ ^ 2 ] <= 1120.09
quadratic_ranged_3_ub: [ 1 x_2_ ^ 2 - 2 x_4_ * x_2_ + 1 x_4_ ^ 2 + 1 y_2_ ^ 2 - 2 y_4_ * y_2_ + 1 y_4_ ^ 2 ] <= 30800.96
quadratic_ranged_4_ub: [ 1 x_3_ ^ 2 - 2 x_4_ * x_3_ + 1 x_4_ ^ 2 + 1 y_3_ ^ 2 - 2 y_4_ * y_3_ + 1 y_4_ ^ 2 ] <= 21602.89
quadratic_ranged_5_ub: [ 1 x_4_ ^ 2 - 2 x_5_ * x_4_ + 1 x_5_ ^ 2 + 1 y_4_ ^ 2 - 2 y_5_ * y_4_ + 1 y_5_ ^ 2 ] <= 2247.25
quadratic_ranged_6_ub: [ 1 x_5_ ^ 2 - 2 x_6_ * x_5_ + 1 x_6_ ^ 2 + 1 y_5_ ^ 2 - 2 y_6_ * y_5_ + 1 y_6_ ^ 2 ] <= 9958.6
quadratic_ranged_7_ub: [ 1 x_6_ ^ 2 - 2 x_7_ * x_6_ + 1 x_7_ ^ 2 + 1 y_6_ ^ 2 - 2 y_7_ * y_6_ + 1 y_7_ ^ 2 ] <= 19270.8
quadratic_ranged_8_ub: [ 1 x_3_ ^ 2 - 2 x_8_ * x_3_ + 1 x_8_ ^ 2 + 1 y_3_ ^ 2 - 2 y_8_ * y_3_ + 1 y_8_ ^ 2 ] <= 853.45
quadratic_ranged_9_ub: [ 1 x_4_ ^ 2 - 2 x_8_ * x_4_ + 1 x_8_ ^ 2 + 1 y_4_ ^ 2 - 2 y_8_ * y_4_ + 1 y_8_ ^ 2 ] <= 27423.52
quadratic_ranged_10_ub: [ 1 x_7_ ^ 2 - 2 x_8_ * x_7_ + 1 x_8_ ^ 2 + 1 y_7_ ^ 2 - 2 y_8_ * y_7_ + 1 y_8_ ^ 2 ] <= 41972.57
quadratic_ranged_11_ub: [ 1 x_1_ ^ 2 - 2 x_9_ * x_1_ + 1 x_9_ ^ 2 + 1 y_1_ ^ 2 - 2 y_9_ * y_1_ + 1 y_9_ ^ 2 ] <= 23788.53
quadratic_ranged_12_ub: [ 1 x_2_ ^ 2 - 2 x_9_ * x_2_ + 1 x_9_ ^ 2 + 1 y_2_ ^ 2 - 2 y_9_ * y_2_ + 1 y_9_ ^ 2 ] <= 22677.53
quadratic_ranged_13_ub: [ 1 x_7_ ^ 2 - 2 x_9_ * x_7_ + 1 x_9_ ^ 2 + 1 y_7_ ^ 2 - 2 y_9_ * y_7_ + 1 y_9_ ^ 2 ] <= 745.38
quadratic_ranged_14_ub: [ 1 x_8_ ^ 2 - 2 x_9_ * x_8_ + 1 x_9_ ^ 2 + 1 y_8_ ^ 2 - 2 y_9_ * y_8_ + 1 y_9_ ^ 2 ] <= 35476.25
quadratic_ranged_15_ub: [ 1 x_4_ ^ 2 - 2 x_10_ * x_4_ + 1 x_10_ ^ 2 + 1 y_4_ ^ 2 - 2 y_10_ * y_4_ + 1 y_10_ ^ 2 ] <= 31229.2
quadratic_ranged_16_ub: [ 1 x_9_ ^ 2 - 2 x_10_ * x_9_ + 1 x_10_ ^ 2 + 1 y_9_ ^ 2 - 2 y_10_ * y_9_ + 1 y_10_ ^ 2 ] <= 11935.17
quadratic_ranged_17_ub: [ 1 x_3_ ^ 2 - 2 x_11_ * x_3_ + 1 x_11_ ^ 2 + 1 y_3_ ^ 2 - 2 y_11_ * y_3_ + 1 y_11_ ^ 2 ] <= 20895.89
quadratic_ranged_18_ub: [ 1 x_10_ ^ 2 - 2 x_11_ * x_10_ + 1 x_11_ ^ 2 + 1 y_10_ ^ 2 - 2 y_11_ * y_10_ + 1 y_11_ ^ 2 ] <= 11944.26
quadratic_ranged_19_ub: [ 1 x_3_ ^ 2 - 2 x_12_ * x_3_ + 1 x_12_ ^ 2 + 1 y_3_ ^ 2 - 2 y_12_ * y_3_ + 1 y_12_ ^ 2 ] <= 808
quadratic_ranged_20_ub: [ 1 x_4_ ^ 2 - 2 x_12_ * x_4_ + 1 x_12_ ^ 2 + 1 y_4_ ^ 2 - 2 y_12_ * y_4_ + 1 y_12_ ^ 2 ] <= 26733.69
quadratic_ranged_21_ub: [ 1 x_8_ ^ 2 - 2 x_12_ * x_8_ + 1 x_12_ ^ 2 + 1 y_8_ ^ 2 - 2 y_12_ * y_8_ + 1 y_12_ ^ 2 ] <= 5.05
quadratic_ranged_22_ub: [ 1 x_11_ ^ 2 - 2 x_12_ * x_11_ + 1 x_12_ ^ 2 + 1 y_11_ ^ 2 - 2 y_12_ * y_11_ + 1 y_12_ ^ 2 ] <= 29905.09
quadratic_ranged_23_ub: [ 1 x_1_ ^ 2 - 2 x_13_ * x_1_ + 1 x_13_ ^ 2 + 1 y_1_ ^ 2 - 2 y_13_ * y_1_ + 1 y_13_ ^ 2 ] <= 18265.85
quadratic_ranged_24_ub: [ 1 x_7_ ^ 2 - 2 x_13_ * x_7_ + 1 x_13_ ^ 2 + 1 y_7_ ^ 2 - 2 y_13_ * y_7_ + 1 y_13_ ^ 2 ] <= 3573.38
quadratic_ranged_25_ub: [ 1 x_12_ ^ 2 - 2 x_13_ * x_12_ + 1 x_13_ ^ 2 + 1 y_12_ ^ 2 - 2 y_13_ * y_12_ + 1 y_13_ ^ 2 ] <= 24169.3
quadratic_ranged_26_ub: [ 1 x_3_ ^ 2 - 2 x_14_ * x_3_ + 1 x_14_ ^ 2 + 1 y_3_ ^ 2 - 2 y_14_ * y_3_ + 1 y_14_ ^ 2 ] <= 8001.22
quadratic_ranged_27_ub: [ 1 x_4_ ^ 2 - 2 x_14_ * x_4_ + 1 x_14_ ^ 2 + 1 y_4_ ^ 2 - 2 y_14_ * y_4_ + 1 y_14_ ^ 2 ] <= 4045.05
quadratic_ranged_28_ub: [ 1 x_7_ ^ 2 - 2 x_14_ * x_7_ + 1 x_14_ ^ 2 + 1 y_7_ ^ 2 - 2 y_14_ * y_7_ + 1 y_14_ ^ 2 ] <= 37016.5
quadratic_ranged_29_ub: [ 1 x_11_ ^ 2 - 2 x_14_ * x_11_ + 1 x_14_ ^ 2 + 1 y_11_ ^ 2 - 2 y_14_ * y_11_ + 1 y_14_ ^ 2 ] <= 22681.57
quadratic_ranged_30_ub: [ 1 x_13_ ^ 2 - 2 x_14_ * x_13_ + 1 x_14_ ^ 2 + 1 y_13_ ^ 2 - 2 y_14_ * y_13_ + 1 y_14_ ^ 2 ] <= 28780.96
quadratic_ranged_31_ub: [ 1 x_6_ ^ 2 - 2 x_15_ * x_6_ + 1 x_15_ ^ 2 + 1 y_6_ ^ 2 - 2 y_15_ * y_6_ + 1 y_15_ ^ 2 ] <= 3833.96
quadratic_ranged_32_ub: [ 1 x_7_ ^ 2 - 2 x_15_ * x_7_ + 1 x_15_ ^ 2 + 1 y_7_ ^ 2 - 2 y_15_ * y_7_ + 1 y_15_ ^ 2 ] <= 7082.12
quadratic_ranged_33_ub: [ 1 x_12_ ^ 2 - 2 x_15_ * x_12_ + 1 x_15_ ^ 2 + 1 y_12_ ^ 2 - 2 y_15_ * y_12_ + 1 y_15_ ^ 2 ] <= 15917.6
quadratic_ranged_34_ub: [ 1 x_14_ ^ 2 - 2 x_15_ * x_14_ + 1 x_15_ ^ 2 + 1 y_14_ ^ 2 - 2 y_15_ * y_14_ + 1 y_15_ ^ 2 ] <= 21583.7
quadratic_ranged_35_ub: [ 1 x_1_ ^ 2 - 2 x_16_ * x_1_ + 1 x_16_ ^ 2 + 1 y_1_ ^ 2 - 2 y_16_ * y_1_ + 1 y_16_ ^ 2 ] <= 26531.69
quadratic_ranged_36_ub: [ 1 x_2_ ^ 2 - 2 x_16_ * x_2_ + 1 x_16_ ^ 2 + 1 y_2_ ^ 2 - 2 y_16_ * y_2_ + 1 y_16_ ^ 2 ] <= 45758.05
quadratic_ranged_37_ub: [ 1 x_3_ ^ 2 - 2 x_16_ * x_3_ + 1 x_16_ ^ 2 + 1 y_3_ ^ 2 - 2 y_16_ * y_3_ + 1 y_16_ ^ 2 ] <= 44104.68
quadratic_ranged_38_ub: [ 1 x_11_ ^ 2 - 2 x_16_ * x_11_ + 1 x_16_ ^ 2 + 1 y_11_ ^ 2 - 2 y_16_ * y_11_ + 1 y_16_ ^ 2 ] <= 5115.65
quadratic_ranged_39_ub: [ 1 x_13_ ^ 2 - 2 x_16_ * x_13_ + 1 x_16_ ^ 2 + 1 y_13_ ^ 2 - 2 y_16_ * y_13_ + 1 y_16_ ^ 2 ] <= 15362.1
quadratic_ranged_40_ub: [ 1 x_14_ ^ 2 - 2 x_16_ * x_14_ + 1 x_16_ ^ 2 + 1 y_14_ ^ 2 - 2 y_16_ * y_14_ + 1 y_16_ ^ 2 ] <= 37186.18
quadratic_ranged_41_ub: [ 1 x_15_ ^ 2 - 2 x_16_ * x_15_ + 1 x_16_ ^ 2 + 1 y_15_ ^ 2 - 2 y_16_ * y_15_ + 1 y_16_ ^ 2 ] <= 19444.52
quadratic_ranged_42_ub: [ 1 x_1_ ^ 2 - 2 x_17_ * x_1_ + 1 x_17_ ^ 2 + 1 y_1_ ^ 2 - 2 y_17_ * y_1_ + 1 y_17_ ^ 2 ] <= 445.41
quadratic_ranged_43_ub: [ 1 x_11_ ^ 2 - 2 x_17_ * x_11_ + 1 x_17_ ^ 2 + 1 y_11_ ^ 2 - 2 y_17_ * y_11_ + 1 y_17_ ^ 2 ] <= 18734.49
quadratic_ranged_44_ub: [ 1 x_16_ ^ 2 - 2 x_17_ * x_16_ + 1 x_17_ ^ 2 + 1 y_16_ ^ 2 - 2 y_17_ * y_16_ + 1 y_17_ ^ 2 ] <= 32831.06
quadratic_ranged_45_ub: [ 1 x_6_ ^ 2 - 2 x_18_ * x_6_ + 1 x_18_ ^ 2 + 1 y_6_ ^ 2 - 2 y_18_ * y_6_ + 1 y_18_ ^ 2 ] <= 7049.8
quadratic_ranged_46_ub: [ 1 x_17_ ^ 2 - 2 x_18_ * x_17_ + 1 x_18_ ^ 2 + 1 y_17_ ^ 2 - 2 y_18_ * y_17_ + 1 y_18_ ^ 2 ] <= 6668.02
quadratic_ranged_47_ub: [ 1 x_13_ ^ 2 - 2 x_19_ * x_13_ + 1 x_19_ ^ 2 + 1 y_13_ ^ 2 - 2 y_19_ * y_13_ + 1 y_19_ ^ 2 ] <= 24823.78
quadratic_ranged_48_ub: [ 1 x_18_ ^ 2 - 2 x_19_ * x_18_ + 1 x_19_ ^ 2 + 1 y_18_ ^ 2 - 2 y_19_ * y_18_ + 1 y_19_ ^ 2 ] <= 16838.72
quadratic_ranged_49_ub: [ 1 x_1_ ^ 2 - 2 x_20_ * x_1_ + 1 x_20_ ^ 2 + 1 y_1_ ^ 2 - 2 y_20_ * y_1_ + 1 y_20_ ^ 2 ] <= 12297.76
quadratic_ranged_50_ub: [ 1 x_4_ ^ 2 - 2 x_20_ * x_4_ + 1 x_20_ ^ 2 + 1 y_4_ ^ 2 - 2 y_20_ * y_4_ + 1 y_20_ ^ 2 ] <= 32370.5
quadratic_ranged_51_ub: [ 1 x_11_ ^ 2 - 2 x_20_ * x_11_ + 1 x_20_ ^ 2 + 1 y_11_ ^ 2 - 2 y_20_ * y_11_ + 1 y_20_ ^ 2 ] <= 11158.48
quadratic_ranged_52_ub: [ 1 x_13_ ^ 2 - 2 x_20_ * x_13_ + 1 x_20_ ^ 2 + 1 y_13_ ^ 2 - 2 y_20_ * y_13_ + 1 y_20_ ^ 2 ] <= 4618.7300000000005
quadratic_ranged_53_ub: [ 1 x_16_ ^ 2 - 2 x_20_ * x_16_ + 1 x_20_ ^ 2 + 1 y_16_ ^ 2 - 2 y_20_ * y_16_ + 1 y_20_ ^ 2 ] <= 31379.69
quadratic_ranged_54_ub: [ 1 x_19_ ^ 2 - 2 x_20_ * x_19_ + 1 x_20_ ^ 2 + 1 y_19_ ^ 2 - 2 y_20_ * y_19_ + 1 y_20_ ^ 2 ] <= 22245.25
quadratic_ranged_1_lb: [ 1 x_1_ ^ 2 - 2 x_2_ * x_1_ + 1 x_2_ ^ 2 + 1 y_1_ ^ 2 - 2 y_2_ * y_1_ + 1 y_2_ ^ 2 ] >= 10654.38
quadratic_ranged_2_lb: [ 1 x_2_ ^ 2 - 2 x_3_ * x_2_ + 1 x_3_ ^ 2 + 1 y_2_ ^ 2 - 2 y_3_ * y_2_ + 1 y_3_ ^ 2 ] >= 1097.91
quadratic_ranged_3_lb: [ 1 x_2_ ^ 2 - 2 x_4_ * x_2_ + 1 x_4_ ^ 2 + 1 y_2_ ^ 2 - 2 y_4_ * y_2_ + 1 y_4_ ^ 2 ] >= 30191.04
quadratic_ranged_4_lb: [ 1 x_3_ ^ 2 - 2 x_4_ * x_3_ + 1 x_4_ ^ 2 + 1 y_3_ ^ 2 - 2 y_4_ * y_3_ + 1 y_4_ ^ 2 ] >= 21175.11
quadratic_ranged_5_lb: [ 1 x_4_ ^ 2 - 2 x_5_ * x_4_ + 1 x_5_ ^ 2 + 1 y_4_ ^ 2 - 2 y_5_ * y_4_ + 1 y_5_ ^ 2 ] >= 2202.75
quadratic_ranged_6_lb: [ 1 x_5_ ^ 2 - 2 x_6_ * x_5_ + 1 x_6_ ^ 2 + 1 y_5_ ^ 2 - 2 y_6_ * y_5_ + 1 y_6_ ^ 2 ] >= 9761.4
quadratic_ranged_7_lb: [ 1 x_6_ ^ 2 - 2 x_7_ * x_6_ + 1 x_7_ ^ 2 + 1 y_6_ ^ 2 - 2 y_7_ * y_6_ + 1 y_7_ ^ 2 ] >= 18889.2
quadratic_ranged_8_lb: [ 1 x_3_ ^ 2 - 2 x_8_ * x_3_ + 1 x_8_ ^ 2 + 1 y_3_ ^ 2 - 2 y_8_ * y_3_ + 1 y_8_ ^ 2 ] >= 836.55
quadratic_ranged_9_lb: [ 1 x_4_ ^ 2 - 2 x_8_ * x_4_ + 1 x_8_ ^ 2 + 1 y_4_ ^ 2 - 2 y_8_ * y_4_ + 1 y_8_ ^ 2 ] >= 26880.48
quadratic_ranged_10_lb: [ 1 x_7_ ^ 2 - 2 x_8_ * x_7_ + 1 x_8_ ^ 2 + 1 y_7_ ^ 2 - 2 y_8_ * y_7_ + 1 y_8_ ^ 2 ] >= 41141.43
quadratic_ranged_11_lb: [ 1 x_1_ ^ 2 - 2 x_9_ * x_1_ + 1 x_9_ ^ 2 + 1 y_1_ ^ 2 - 2 y_9_ * y_1_ + 1 y_9_ ^ 2 ] >= 23317.47
quadratic_ranged_12_lb: [ 1 x_2_ ^ 2 - 2 x_9_ * x_2_ + 1 x_9_ ^ 2 + 1 y_2_ ^ 2 - 2 y_9_ * y_2_ + 1 y_9_ ^ 2 ] >= 22228.47
quadratic_ranged_13_lb: [ 1 x_7_ ^ 2 - 2 x_9_ * x_7_ + 1 x_9_ ^ 2 + 1 y_7_ ^ 2 - 2 y_9_ * y_7_ + 1 y_9_ ^ 2 ] >= 730.62
quadratic_ranged_14_lb: [ 1 x_8_ ^ 2 - 2 x_9_ * x_8_ + 1 x_9_ ^ 2 + 1 y_8_ ^ 2 - 2 y_9_ * y_8_ + 1 y_9_ ^ 2 ] >= 34773.75
quadratic_ranged_15_lb: [ 1 x_4_ ^ 2 - 2 x_10_ * x_4_ + 1 x_10_ ^ 2 + 1 y_4_ ^ 2 - 2 y_10_ * y_4_ + 1 y_10_ ^ 2 ] >= 30610.8
quadratic_ranged_16_lb: [ 1 x_9_ ^ 2 - 2 x_10_ * x_9_ + 1 x_10_ ^ 2 + 1 y_9_ ^ 2 - 2 y_10_ * y_9_ + 1 y_10_ ^ 2 ] >= 11698.83
quadratic_ranged_17_lb: [ 1 x_3_ ^ 2 - 2 x_11_ * x_3_ + 1 x_11_ ^ 2 + 1 y_3_ ^ 2 - 2 y_11_ * y_3_ + 1 y_11_ ^ 2 ] >= 20482.11
quadratic_ranged_18_lb: [ 1 x_10_ ^ 2 - 2 x_11_ * x_10_ + 1 x_11_ ^ 2 + 1 y_10_ ^ 2 - 2 y_11_ * y_10_ + 1 y_11_ ^ 2 ] >= 11707.74
quadratic_ranged_19_lb: [ 1 x_3_ ^ 2 - 2 x_12_ * x_3_ + 1 x_12_ ^ 2 + 1 y_3_ ^ 2 - 2 y_12_ * y_3_ + 1 y_12_ ^ 2 ] >= 792
quadratic_ranged_20_lb: [ 1 x_4_ ^ 2 - 2 x_12_ * x_4_ + 1 x_12_ ^ 2 + 1 y_4_ ^ 2 - 2 y_12_ * y_4_ + 1 y_12_ ^ 2 ] >= 26204.31
quadratic_ranged_21_lb: [ 1 x_8_ ^ 2 - 2 x_12_ * x_8_ + 1 x_12_ ^ 2 + 1 y_8_ ^ 2 - 2 y_12_ * y_8_ + 1 y_12_ ^ 2 ] >= 4.95
quadratic_ranged_22_lb: [ 1 x_11_ ^ 2 - 2 x_12_ * x_11_ + 1 x_12_ ^ 2 + 1 y_11_ ^ 2 - 2 y_12_ * y_11_ + 1 y_12_ ^ 2 ] >= 29312.91
quadratic_ranged_23_lb: [ 1 x_1_ ^ 2 - 2 x_13_ * x_1_ + 1 x_13_ ^ 2 + 1 y_1_ ^ 2 - 2 y_13_ * y_1_ + 1 y_13_ ^ 2 ] >= 17904.15
quadratic_ranged_24_lb: [ 1 x_7_ ^ 2 - 2 x_13_ * x_7_ + 1 x_13_ ^ 2 + 1 y_7_ ^ 2 - 2 y_13_ * y_7_ + 1 y_13_ ^ 2 ] >= 3502.62
quadratic_ranged_25_lb: [ 1 x_12_ ^ 2 - 2 x_13_ * x_12_ + 1 x_13_ ^ 2 + 1 y_12_ ^ 2 - 2 y_13_ * y_12_ + 1 y_13_ ^ 2 ] >= 23690.7
quadratic_ranged_26_lb: [ 1 x_3_ ^ 2 - 2 x_14_ * x_3_ + 1 x_14_ ^ 2 + 1 y_3_ ^ 2 - 2 y_14_ * y_3_ + 1 y_14_ ^ 2 ] >= 7842.78
quadratic_ranged_27_lb: [ 1 x_4_ ^ 2 - 2 x_14_ * x_4_ + 1 x_14_ ^ 2 + 1 y_4_ ^ 2 - 2 y_14_ * y_4_ + 1 y_14_ ^ 2 ] >= 3964.95
quadratic_ranged_28_lb: [ 1 x_7_ ^ 2 - 2 x_14_ * x_7_ + 1 x_14_ ^ 2 + 1 y_7_ ^ 2 - 2 y_14_ * y_7_ + 1 y_14_ ^ 2 ] >= 36283.5
quadratic_ranged_29_lb: [ 1 x_11_ ^ 2 - 2 x_14_ * x_11_ + 1 x_14_ ^ 2 + 1 y_11_ ^ 2 - 2 y_14_ * y_11_ + 1 y_14_ ^ 2 ] >= 22232.43
quadratic_ranged_30_lb: [ 1 x_13_ ^ 2 - 2 x_14_ * x_13_ + 1 x_14_ ^ 2 + 1 y_13_ ^ 2 - 2 y_14_ * y_13_ + 1 y_14_ ^ 2 ] >= 28211.04
quadratic_ranged_31_lb: [ 1 x_6_ ^ 2 - 2 x_15_ * x_6_ + 1 x_15_ ^ 2 + 1 y_6_ ^ 2 - 2 y_15_ * y_6_ + 1 y_15_ ^ 2 ] >= 3758.04
quadratic_ranged_32_lb: [ 1 x_7_ ^ 2 - 2 x_15_ * x_7_ + 1 x_15_ ^ 2 + 1 y_7_ ^ 2 - 2 y_15_ * y_7_ + 1 y_15_ ^ 2 ] >= 6941.88
quadratic_ranged_33_lb: [ 1 x_12_ ^ 2 - 2 x_15_ * x_12_ + 1 x_15_ ^ 2 + 1 y_12_ ^ 2 - 2 y_15_ * y_12_ + 1 y_15_ ^ 2 ] >= 15602.4
quadratic_ranged_34_lb: [ 1 x_14_ ^ 2 - 2 x_15_ * x_14_ + 1 x_15_ ^ 2 + 1 y_14_ ^ 2 - 2 y_15_ * y_14_ + 1 y_15_ ^ 2 ] >= 21156.3
quadratic_ranged_35_lb: [ 1 x_1_ ^ 2 - 2 x_16_ * x_1_ + 1 x_16_ ^ 2 + 1 y_1_ ^ 2 - 2 y_16_ * y_1_ + 1 y_16_ ^ 2 ] >= 26006.31
quadratic_ranged_36_lb: [ 1 x_2_ ^ 2 - 2 x_16_ * x_2_ + 1 x_16_ ^ 2 + 1 y_2_ ^ 2 - 2 y_16_ * y_2_ + 1 y_16_ ^ 2 ] >= 44851.95
quadratic_ranged_37_lb: [ 1 x_3_ ^ 2 - 2 x_16_ * x_3_ + 1 x_16_ ^ 2 + 1 y_3_ ^ 2 - 2 y_16_ * y_3_ + 1 y_16_ ^ 2 ] >= 43231.32
quadratic_ranged_38_lb: [ 1 x_11_ ^ 2 - 2 x_16_ * x_11_ + 1 x_16_ ^ 2 + 1 y_11_ ^ 2 - 2 y_16_ * y_11_ + 1 y_16_ ^ 2 ] >= 5014.35
quadratic_ranged_39_lb: [ 1 x_13_ ^ 2 - 2 x_16_ * x_13_ + 1 x_16_ ^ 2 + 1 y_13_ ^ 2 - 2 y_16_ * y_13_ + 1 y_16_ ^ 2 ] >= 15057.9
quadratic_ranged_40_lb: [ 1 x_14_ ^ 2 - 2 x_16_ * x_14_ + 1 x_16_ ^ 2 + 1 y_14_ ^ 2 - 2 y_16_ * y_14_ + 1 y_16_ ^ 2 ] >= 36449.82
quadratic_ranged_41_lb: [ 1 x_15_ ^ 2 - 2 x_16_ * x_15_ + 1 x_16_ ^ 2 + 1 y_15_ ^ 2 - 2 y_16_ * y_15_ + 1 y_16_ ^ 2 ] >= 19059.48
quadratic_ranged_42_lb: [ 1 x_1_ ^ 2 - 2 x_17_ * x_1_ + 1 x_17_ ^ 2 + 1 y_1_ ^ 2 - 2 y_17_ * y_1_ + 1 y_17_ ^ 2 ] >= 436.59
quadratic_ranged_43_lb: [ 1 x_11_ ^ 2 - 2 x_17_ * x_11_ + 1 x_17_ ^ 2 + 1 y_11_ ^ 2 - 2 y_17_ * y_11_ + 1 y_17_ ^ 2 ] >= 18363.51
quadratic_ranged_44_lb: [ 1 x_16_ ^ 2 - 2 x_17_ * x_16_ + 1 x_17_ ^ 2 + 1 y_16_ ^ 2 - 2 y_17_ * y_16_ + 1 y_17_ ^ 2 ] >= 32180.94
quadratic_ranged_45_lb: [ 1 x_6_ ^ 2 - 2 x_18_ * x_6_ + 1 x_18_ ^ 2 + 1 y_6_ ^ 2 - 2 y_18_ * y_6_ + 1 y_18_ ^ 2 ] >= 6910.2
quadratic_ranged_46_lb: [ 1 x_17_ ^ 2 - 2 x_18_ * x_17_ + 1 x_18_ ^ 2 + 1 y_17_ ^ 2 - 2 y_18_ * y_17_ + 1 y_18_ ^ 2 ] >= 6535.98
quadratic_ranged_47_lb: [ 1 x_13_ ^ 2 - 2 x_19_ * x_13_ + 1 x_19_ ^ 2 + 1 y_13_ ^ 2 - 2 y_19_ * y_13_ + 1 y_19_ ^ 2 ] >= 24332.22
quadratic_ranged_48_lb: [ 1 x_18_ ^ 2 - 2 x_19_ * x_18_ + 1 x_19_ ^ 2 + 1 y_18_ ^ 2 - 2 y_19_ * y_18_ + 1 y_19_ ^ 2 ] >= 16505.28
quadratic_ranged_49_lb: [ 1 x_1_ ^ 2 - 2 x_20_ * x_1_ + 1 x_20_ ^ 2 + 1 y_1_ ^ 2 - 2 y_20_ * y_1_ + 1 y_20_ ^ 2 ] >= 12054.24
quadratic_ranged_50_lb: [ 1 x_4_ ^ 2 - 2 x_20_ * x_4_ + 1 x_20_ ^ 2 + 1 y_4_ ^ 2 - 2 y_20_ * y_4_ + 1 y_20_ ^ 2 ] >= 31729.5
quadratic_ranged_51_lb: [ 1 x_11_ ^ 2 - 2 x_20_ * x_11_ + 1 x_20_ ^ 2 + 1 y_11_ ^ 2 - 2 y_20_ * y_11_ + 1 y_20_ ^ 2 ] >= 10937.52
quadratic_ranged_52_lb: [ 1 x_13_ ^ 2 - 2 x_20_ * x_13_ + 1 x_20_ ^ 2 + 1 y_13_ ^ 2 - 2 y_20_ * y_13_ + 1 y_20_ ^ 2 ] >= 4527.2699999999995
quadratic_ranged_53_lb: [ 1 x_16_ ^ 2 - 2 x_20_ * x_16_ + 1 x_20_ ^ 2 + 1 y_16_ ^ 2 - 2 y_20_ * y_16_ + 1 y_20_ ^ 2 ] >= 30758.31
quadratic_ranged_54_lb: [ 1 x_19_ ^ 2 - 2 x_20_ * x_19_ + 1 x_20_ ^ 2 + 1 y_19_ ^ 2 - 2 y_20_ * y_19_ + 1 y_20_ ^ 2 ] >= 21804.75
c1_1: 1 x_3_ = 54
c2_1: 1 y_3_ = -77
c3_1: 1 x_10_ = -9
c4_1: 1 y_10_ = -81
c5_1: 1 x_9_ = -93
c6_1: 1 y_9_ = -12
Bounds
-83 <= x_1_ <= 61
21 <= x_2_ <= 57
x_3_ = 54
-92 <= x_4_ <= 167
-140 <= x_5_ <= 172
-162 <= x_6_ <= 73
-120 <= x_7_ <= -66
25 <= x_8_ <= 83
x_9_ = -93
x_10_ = -9
-90 <= x_11_ <= 100
26 <= x_12_ <= 82
-129 <= x_13_ <= -6
-35 <= x_14_ <= 126
-100 <= x_15_ <= 18
-156 <= x_16_ <= 118
-104 <= x_17_ <= 82
-186 <= x_18_ <= 157
-287 <= x_19_ <= 151
-194 <= x_20_ <= 62
-166 <= y_1_ <= 60
-110 <= y_2_ <= -44
y_3_ = -77
-223 <= y_4_ <= 69
-271 <= y_5_ <= 117
-178 <= y_6_ <= 139
-39 <= y_7_ <= 15
-106 <= y_8_ <= -48
y_9_ = -12
y_10_ = -81
-190 <= y_11_ <= 28
-105 <= y_12_ <= -49
-99 <= y_13_ <= 75
-166 <= y_14_ <= 12
-123 <= y_15_ <= 77
-223 <= y_16_ <= 99
-187 <= y_17_ <= 81
-262 <= y_18_ <= 163
-256 <= y_19_ <= 232
-167 <= y_20_ <= 133
General
x_1_
x_2_
x_3_
x_4_
x_5_
x_6_
x_7_
x_8_
x_9_
x_10_
x_11_
x_12_
x_13_
x_14_
x_15_
x_16_
x_17_
x_18_
x_19_
x_20_
y_1_
y_2_
y_3_
y_4_
y_5_
y_6_
y_7_
y_8_
y_9_
y_10_
y_11_
y_12_
y_13_
y_14_
y_15_
y_16_
y_17_
y_18_
y_19_
y_20_
End
