minimize
obj: 
subject to
c1_3: -1 x_20_ + 1 y_20_ <= 0
c1: [ 1 x_1_ ^ 2 + 1 y_1_ ^ 2 ] <= 17393.1773189812
c2: [ 1 x_2_ ^ 2 + 1 y_2_ ^ 2 ] <= 10695.560493245841
c3: [ 1 x_3_ ^ 2 + 1 y_3_ ^ 2 ] <= 23608.440073867918
c4: [ 1 x_4_ ^ 2 + 1 y_4_ ^ 2 ] <= 14433.201985856102
c5: [ 1 x_5_ ^ 2 + 1 y_5_ ^ 2 ] <= 25782.783309838444
c6: [ 1 x_6_ ^ 2 + 1 y_6_ ^ 2 ] <= 26907.726089487045
c7: [ 1 x_7_ ^ 2 + 1 y_7_ ^ 2 ] <= 4036.949119338517
c8: [ 1 x_8_ ^ 2 + 1 y_8_ ^ 2 ] <= 14170.341224602089
c9: [ 1 x_9_ ^ 2 + 1 y_9_ ^ 2 ] <= 30559.977141873213
c10: [ 1 x_10_ ^ 2 + 1 y_10_ ^ 2 ] <= 23923.17564846059
c11: [ 1 x_11_ ^ 2 + 1 y_11_ ^ 2 ] <= 11692.59802899753
c12: [ 1 x_12_ ^ 2 + 1 y_12_ ^ 2 ] <= 22521.94853641591
c13: [ 1 x_13_ ^ 2 + 1 y_13_ ^ 2 ] <= 24673.702460986373
c14: [ 1 x_14_ ^ 2 + 1 y_14_ ^ 2 ] <= 17382.217561599955
c15: [ 1 x_15_ ^ 2 + 1 y_15_ ^ 2 ] <= 24105.216081889193
c16: [ 1 x_16_ ^ 2 + 1 y_16_ ^ 2 ] <= 15859.98970214194
c17: [ 1 x_17_ ^ 2 + 1 y_17_ ^ 2 ] <= 16909.952693979925
c18: [ 1 x_18_ ^ 2 + 1 y_18_ ^ 2 ] <= 5890.207254457223
c19: [ 1 x_19_ ^ 2 + 1 y_19_ ^ 2 ] <= 15010.174010712628
c20: [ 1 x_20_ ^ 2 + 1 y_20_ ^ 2 ] <= 37571.61041865599
c21: [ 1 x_21_ ^ 2 + 1 y_21_ ^ 2 ] <= 29954.653211979974
c22: [ 1 x_22_ ^ 2 + 1 y_22_ ^ 2 ] <= 13517.061827480678
c23: [ 1 x_23_ ^ 2 + 1 y_23_ ^ 2 ] <= 21020.159267442377
c24: [ 1 x_24_ ^ 2 + 1 y_24_ ^ 2 ] <= 12304.87720234095
c25: [ 1 x_25_ ^ 2 + 1 y_25_ ^ 2 ] <= 23996.48602587003
c26: [ 1 x_26_ ^ 2 + 1 y_26_ ^ 2 ] <= 8000.343752543756
c27: [ 1 x_27_ ^ 2 + 1 y_27_ ^ 2 ] <= 1312.9999999999998
c28: [ 1 x_28_ ^ 2 + 1 y_28_ ^ 2 ] <= 2978.3917592873554
c29: [ 1 x_29_ ^ 2 + 1 y_29_ ^ 2 ] <= 9626.569883808726
c30: [ 1 x_30_ ^ 2 + 1 y_30_ ^ 2 ] <= 9396.248565772215
c31: [ 1 x_31_ ^ 2 + 1 y_31_ ^ 2 ] <= 9893.029593904352
c32: [ 1 x_32_ ^ 2 + 1 y_32_ ^ 2 ] <= 15010.174010712628
c33: [ 1 x_33_ ^ 2 + 1 y_33_ ^ 2 ] <= 11564.84260729671
c34: [ 1 x_34_ ^ 2 + 1 y_34_ ^ 2 ] <= 12832.93545025739
c35: [ 1 x_35_ ^ 2 + 1 y_35_ ^ 2 ] <= 22510.53710227591
c36: [ 1 x_36_ ^ 2 + 1 y_36_ ^ 2 ] <= 24452.703971712202
c37: [ 1 x_37_ ^ 2 + 1 y_37_ ^ 2 ] <= 20180.810000000005
c38: [ 1 x_38_ ^ 2 + 1 y_38_ ^ 2 ] <= 18240.205515949918
c39: [ 1 x_39_ ^ 2 + 1 y_39_ ^ 2 ] <= 17499.371744607844
c40: [ 1 x_40_ ^ 2 + 1 y_40_ ^ 2 ] <= 36237.88499024921
c41: [ 1 x_41_ ^ 2 + 1 y_41_ ^ 2 ] <= 5262.095153546399
c42: [ 1 x_42_ ^ 2 + 1 y_42_ ^ 2 ] <= 20567.596662508873
c43: [ 1 x_43_ ^ 2 + 1 y_43_ ^ 2 ] <= 32661.095689949845
c44: [ 1 x_44_ ^ 2 + 1 y_44_ ^ 2 ] <= 36544.03908347111
c45: [ 1 x_45_ ^ 2 + 1 y_45_ ^ 2 ] <= 33267.29956704581
c46: [ 1 x_46_ ^ 2 + 1 y_46_ ^ 2 ] <= 32287.768964320894
c47: [ 1 x_47_ ^ 2 + 1 y_47_ ^ 2 ] <= 15352.522596099792
c48: [ 1 x_48_ ^ 2 + 1 y_48_ ^ 2 ] <= 5568.13
c49: [ 1 x_49_ ^ 2 + 1 y_49_ ^ 2 ] <= 11746.505805820654
c50: [ 1 x_50_ ^ 2 + 1 y_50_ ^ 2 ] <= 33884.6116718984
c51: [ 1 x_51_ ^ 2 + 1 y_51_ ^ 2 ] <= 11200.23858702919
c52: [ 1 x_52_ ^ 2 + 1 y_52_ ^ 2 ] <= 1843.2499999999998
c53: [ 1 x_54_ ^ 2 + 1 y_54_ ^ 2 ] <= 4583.379999999999
c54: [ 1 x_55_ ^ 2 + 1 y_55_ ^ 2 ] <= 10825.9454850806
c55: [ 1 x_56_ ^ 2 + 1 y_56_ ^ 2 ] <= 3840.019999999999
c56: [ 1 x_57_ ^ 2 + 1 y_57_ ^ 2 ] <= 5411.1764114051875
c57: [ 1 x_58_ ^ 2 + 1 y_58_ ^ 2 ] <= 11360.24950350608
c58: [ 1 x_59_ ^ 2 + 1 y_59_ ^ 2 ] <= 11040.680795478072
c59: [ 1 x_60_ ^ 2 + 1 y_60_ ^ 2 ] <= 23663.213678119453
c60: [ 1 x_61_ ^ 2 + 1 y_61_ ^ 2 ] <= 27256.91906827796
c61: [ 1 x_62_ ^ 2 + 1 y_62_ ^ 2 ] <= 8147.522412827247
c62: [ 1 x_63_ ^ 2 + 1 y_63_ ^ 2 ] <= 33115.79815088143
c63: [ 1 x_64_ ^ 2 + 1 y_64_ ^ 2 ] <= 5782.249999999999
c64: [ 1 x_65_ ^ 2 + 1 y_65_ ^ 2 ] <= 10331.289999999997
c65: [ 1 x_66_ ^ 2 + 1 y_66_ ^ 2 ] <= 34356.9716189967
c66: [ 1 x_67_ ^ 2 + 1 y_67_ ^ 2 ] <= 29707.92554430237
c67: [ 1 x_68_ ^ 2 + 1 y_68_ ^ 2 ] <= 21907.397486370006
c68: [ 1 x_69_ ^ 2 + 1 y_69_ ^ 2 ] <= 30760.031415705063
c69: [ 1 x_70_ ^ 2 + 1 y_70_ ^ 2 ] <= 6008.489999999998
c70: [ 1 x_71_ ^ 2 + 1 y_71_ ^ 2 ] <= 22594.83654897909
c71: [ 1 x_72_ ^ 2 + 1 y_72_ ^ 2 ] <= 18707.063108647264
c72: [ 1 x_73_ ^ 2 + 1 y_73_ ^ 2 ] <= 14921.710814299227
c73: [ 1 x_74_ ^ 2 + 1 y_74_ ^ 2 ] <= 15058.089999999997
c74: [ 1 x_75_ ^ 2 + 1 y_75_ ^ 2 ] <= 27934.426510730627
c75: [ 1 x_76_ ^ 2 + 1 y_76_ ^ 2 ] <= 17003.34330628058
c76: [ 1 x_77_ ^ 2 + 1 y_77_ ^ 2 ] <= 27158.274633194953
c77: [ 1 x_78_ ^ 2 + 1 y_78_ ^ 2 ] <= 16584.027010347694
c78: [ 1 x_79_ ^ 2 + 1 y_79_ ^ 2 ] <= 33014.262177412944
c79: [ 1 x_80_ ^ 2 + 1 y_80_ ^ 2 ] <= 17990.520531789025
c80: [ 1 x_81_ ^ 2 + 1 y_81_ ^ 2 ] <= 20241.538851115176
c81: [ 1 x_82_ ^ 2 + 1 y_82_ ^ 2 ] <= 23021.50260247031
c82: [ 1 x_83_ ^ 2 + 1 y_83_ ^ 2 ] <= 24176.282627603512
c83: [ 1 x_84_ ^ 2 + 1 y_84_ ^ 2 ] <= 34640.0873616282
c84: [ 1 x_85_ ^ 2 + 1 y_85_ ^ 2 ] <= 4525.809999999999
c85: [ 1 x_86_ ^ 2 + 1 y_86_ ^ 2 ] <= 30069.73718537355
c86: [ 1 x_87_ ^ 2 + 1 y_87_ ^ 2 ] <= 12449.444244180875
c87: [ 1 x_88_ ^ 2 + 1 y_88_ ^ 2 ] <= 15653.894903226954
c88: [ 1 x_89_ ^ 2 + 1 y_89_ ^ 2 ] <= 16387.107876523834
c89: [ 1 x_90_ ^ 2 + 1 y_90_ ^ 2 ] <= 15580.259999999998
c90: [ 1 x_91_ ^ 2 + 1 y_91_ ^ 2 ] <= 15304.67421676438
c91: [ 1 x_92_ ^ 2 + 1 y_92_ ^ 2 ] <= 10523.35563728359
c92: [ 1 x_93_ ^ 2 + 1 y_93_ ^ 2 ] <= 3791.5399999999995
c93: [ 1 x_94_ ^ 2 + 1 y_94_ ^ 2 ] <= 26326.676454860368
c94: [ 1 x_95_ ^ 2 + 1 y_95_ ^ 2 ] <= 5215.576629749025
c95: [ 1 x_96_ ^ 2 + 1 y_96_ ^ 2 ] <= 16330.47576994293
c96: [ 1 x_97_ ^ 2 + 1 y_97_ ^ 2 ] <= 37094.564147373705
c97: [ 1 x_98_ ^ 2 + 1 y_98_ ^ 2 ] <= 12931.32179407685
c98: [ 1 x_99_ ^ 2 + 1 y_99_ ^ 2 ] <= 32415.55482664166
c99: [ 1 x_100_ ^ 2 + 1 y_100_ ^ 2 ] <= 22730.144853791324
quadratic_ranged_1_ub: [ 1 x_1_ ^ 2 - 2 x_2_ * x_1_ + 1 x_2_ ^ 2 + 1 y_1_ ^ 2 - 2 y_2_ * y_1_ + 1 y_2_ ^ 2 ] <= 4271.29
quadratic_ranged_2_ub: [ 1 x_2_ ^ 2 - 2 x_3_ * x_2_ + 1 x_3_ ^ 2 + 1 y_2_ ^ 2 - 2 y_3_ * y_2_ + 1 y_3_ ^ 2 ] <= 5122.72
quadratic_ranged_3_ub: [ 1 x_3_ ^ 2 - 2 x_4_ * x_3_ + 1 x_4_ ^ 2 + 1 y_3_ ^ 2 - 2 y_4_ * y_3_ + 1 y_4_ ^ 2 ] <= 13615.81
quadratic_ranged_4_ub: [ 1 x_4_ ^ 2 - 2 x_5_ * x_4_ + 1 x_5_ ^ 2 + 1 y_4_ ^ 2 - 2 y_5_ * y_4_ + 1 y_5_ ^ 2 ] <= 19735.4
quadratic_ranged_5_ub: [ 1 x_4_ ^ 2 - 2 x_6_ * x_4_ + 1 x_6_ ^ 2 + 1 y_4_ ^ 2 - 2 y_6_ * y_4_ + 1 y_6_ ^ 2 ] <= 21727.12
quadratic_ranged_6_ub: [ 1 x_5_ ^ 2 - 2 x_6_ * x_5_ + 1 x_6_ ^ 2 + 1 y_5_ ^ 2 - 2 y_6_ * y_5_ + 1 y_6_ ^ 2 ] <= 3833.96
quadratic_ranged_7_ub: [ 1 x_6_ ^ 2 - 2 x_7_ * x_6_ + 1 x_7_ ^ 2 + 1 y_6_ ^ 2 - 2 y_7_ * y_6_ + 1 y_7_ ^ 2 ] <= 10100
quadratic_ranged_8_ub: [ 1 x_7_ ^ 2 - 2 x_8_ * x_7_ + 1 x_8_ ^ 2 + 1 y_7_ ^ 2 - 2 y_8_ * y_7_ + 1 y_8_ ^ 2 ] <= 3080.5
quadratic_ranged_9_ub: [ 1 x_7_ ^ 2 - 2 x_9_ * x_7_ + 1 x_9_ ^ 2 + 1 y_7_ ^ 2 - 2 y_9_ * y_7_ + 1 y_9_ ^ 2 ] <= 12382.6
quadratic_ranged_10_ub: [ 1 x_8_ ^ 2 - 2 x_9_ * x_8_ + 1 x_9_ ^ 2 + 1 y_8_ ^ 2 - 2 y_9_ * y_8_ + 1 y_9_ ^ 2 ] <= 26916.5
quadratic_ranged_11_ub: [ 1 x_9_ ^ 2 - 2 x_10_ * x_9_ + 1 x_10_ ^ 2 + 1 y_9_ ^ 2 - 2 y_10_ * y_9_ + 1 y_10_ ^ 2 ] <= 11171.61
quadratic_ranged_12_ub: [ 1 x_4_ ^ 2 - 2 x_11_ * x_4_ + 1 x_11_ ^ 2 + 1 y_4_ ^ 2 - 2 y_11_ * y_4_ + 1 y_11_ ^ 2 ] <= 17825.49
quadratic_ranged_13_ub: [ 1 x_7_ ^ 2 - 2 x_11_ * x_7_ + 1 x_11_ ^ 2 + 1 y_7_ ^ 2 - 2 y_11_ * y_7_ + 1 y_11_ ^ 2 ] <= 7915.37
quadratic_ranged_14_ub: [ 1 x_10_ ^ 2 - 2 x_11_ * x_10_ + 1 x_11_ ^ 2 + 1 y_10_ ^ 2 - 2 y_11_ * y_10_ + 1 y_11_ ^ 2 ] <= 31350.4
quadratic_ranged_15_ub: [ 1 x_4_ ^ 2 - 2 x_12_ * x_4_ + 1 x_12_ ^ 2 + 1 y_4_ ^ 2 - 2 y_12_ * y_4_ + 1 y_12_ ^ 2 ] <= 8327.45
quadratic_ranged_16_ub: [ 1 x_11_ ^ 2 - 2 x_12_ * x_11_ + 1 x_12_ ^ 2 + 1 y_11_ ^ 2 - 2 y_12_ * y_11_ + 1 y_12_ ^ 2 ] <= 2167.46
quadratic_ranged_17_ub: [ 1 x_12_ ^ 2 - 2 x_13_ * x_12_ + 1 x_13_ ^ 2 + 1 y_12_ ^ 2 - 2 y_13_ * y_12_ + 1 y_13_ ^ 2 ] <= 21752.37
quadratic_ranged_18_ub: [ 1 x_7_ ^ 2 - 2 x_14_ * x_7_ + 1 x_14_ ^ 2 + 1 y_7_ ^ 2 - 2 y_14_ * y_7_ + 1 y_14_ ^ 2 ] <= 11402.9
quadratic_ranged_19_ub: [ 1 x_13_ ^ 2 - 2 x_14_ * x_13_ + 1 x_14_ ^ 2 + 1 y_13_ ^ 2 - 2 y_14_ * y_13_ + 1 y_14_ ^ 2 ] <= 25704.5
quadratic_ranged_20_ub: [ 1 x_2_ ^ 2 - 2 x_15_ * x_2_ + 1 x_15_ ^ 2 + 1 y_2_ ^ 2 - 2 y_15_ * y_2_ + 1 y_15_ ^ 2 ] <= 20769.64
quadratic_ranged_21_ub: [ 1 x_4_ ^ 2 - 2 x_15_ * x_4_ + 1 x_15_ ^ 2 + 1 y_4_ ^ 2 - 2 y_15_ * y_4_ + 1 y_15_ ^ 2 ] <= 29941.45
quadratic_ranged_22_ub: [ 1 x_14_ ^ 2 - 2 x_15_ * x_14_ + 1 x_15_ ^ 2 + 1 y_14_ ^ 2 - 2 y_15_ * y_14_ + 1 y_15_ ^ 2 ] <= 25711.57
quadratic_ranged_23_ub: [ 1 x_13_ ^ 2 - 2 x_16_ * x_13_ + 1 x_16_ ^ 2 + 1 y_13_ ^ 2 - 2 y_16_ * y_13_ + 1 y_16_ ^ 2 ] <= 42897.73
quadratic_ranged_24_ub: [ 1 x_15_ ^ 2 - 2 x_16_ * x_15_ + 1 x_16_ ^ 2 + 1 y_15_ ^ 2 - 2 y_16_ * y_15_ + 1 y_16_ ^ 2 ] <= 4559.14
quadratic_ranged_25_ub: [ 1 x_15_ ^ 2 - 2 x_17_ * x_15_ + 1 x_17_ ^ 2 + 1 y_15_ ^ 2 - 2 y_17_ * y_15_ + 1 y_17_ ^ 2 ] <= 7476.02
quadratic_ranged_26_ub: [ 1 x_16_ ^ 2 - 2 x_17_ * x_16_ + 1 x_17_ ^ 2 + 1 y_16_ ^ 2 - 2 y_17_ * y_16_ + 1 y_17_ ^ 2 ] <= 15141.92
quadratic_ranged_27_ub: [ 1 x_10_ ^ 2 - 2 x_18_ * x_10_ + 1 x_18_ ^ 2 + 1 y_10_ ^ 2 - 2 y_18_ * y_10_ + 1 y_18_ ^ 2 ] <= 16816.5
quadratic_ranged_28_ub: [ 1 x_17_ ^ 2 - 2 x_18_ * x_17_ + 1 x_18_ ^ 2 + 1 y_17_ ^ 2 - 2 y_18_ * y_17_ + 1 y_18_ ^ 2 ] <= 9453.6
quadratic_ranged_29_ub: [ 1 x_3_ ^ 2 - 2 x_19_ * x_3_ + 1 x_19_ ^ 2 + 1 y_3_ ^ 2 - 2 y_19_ * y_3_ + 1 y_19_ ^ 2 ] <= 1591.76
quadratic_ranged_30_ub: [ 1 x_9_ ^ 2 - 2 x_19_ * x_9_ + 1 x_19_ ^ 2 + 1 y_9_ ^ 2 - 2 y_19_ * y_9_ + 1 y_19_ ^ 2 ] <= 33015.89
quadratic_ranged_31_ub: [ 1 x_17_ ^ 2 - 2 x_19_ * x_17_ + 1 x_19_ ^ 2 + 1 y_17_ ^ 2 - 2 y_19_ * y_17_ + 1 y_19_ ^ 2 ] <= 19523.3
quadratic_ranged_32_ub: [ 1 x_18_ ^ 2 - 2 x_19_ * x_18_ + 1 x_19_ ^ 2 + 1 y_18_ ^ 2 - 2 y_19_ * y_18_ + 1 y_19_ ^ 2 ] <= 2094.7400000000002
quadratic_ranged_33_ub: [ 1 x_5_ ^ 2 - 2 x_20_ * x_5_ + 1 x_20_ ^ 2 + 1 y_5_ ^ 2 - 2 y_20_ * y_5_ + 1 y_20_ ^ 2 ] <= 24899.53
quadratic_ranged_34_ub: [ 1 x_14_ ^ 2 - 2 x_20_ * x_14_ + 1 x_20_ ^ 2 + 1 y_14_ ^ 2 - 2 y_20_ * y_14_ + 1 y_20_ ^ 2 ] <= 3843.05
quadratic_ranged_35_ub: [ 1 x_19_ ^ 2 - 2 x_20_ * x_19_ + 1 x_20_ ^ 2 + 1 y_19_ ^ 2 - 2 y_20_ * y_19_ + 1 y_20_ ^ 2 ] <= 9342.5
quadratic_ranged_36_ub: [ 1 x_14_ ^ 2 - 2 x_21_ * x_14_ + 1 x_21_ ^ 2 + 1 y_14_ ^ 2 - 2 y_21_ * y_14_ + 1 y_21_ ^ 2 ] <= 17899.22
quadratic_ranged_37_ub: [ 1 x_17_ ^ 2 - 2 x_21_ * x_17_ + 1 x_21_ ^ 2 + 1 y_17_ ^ 2 - 2 y_21_ * y_17_ + 1 y_21_ ^ 2 ] <= 3592.57
quadratic_ranged_38_ub: [ 1 x_20_ ^ 2 - 2 x_21_ * x_20_ + 1 x_21_ ^ 2 + 1 y_20_ ^ 2 - 2 y_21_ * y_20_ + 1 y_21_ ^ 2 ] <= 36369.090000000004
quadratic_ranged_39_ub: [ 1 x_21_ ^ 2 - 2 x_22_ * x_21_ + 1 x_22_ ^ 2 + 1 y_21_ ^ 2 - 2 y_22_ * y_21_ + 1 y_22_ ^ 2 ] <= 5236.85
quadratic_ranged_40_ub: [ 1 x_10_ ^ 2 - 2 x_23_ * x_10_ + 1 x_23_ ^ 2 + 1 y_10_ ^ 2 - 2 y_23_ * y_10_ + 1 y_23_ ^ 2 ] <= 18200.2
quadratic_ranged_41_ub: [ 1 x_18_ ^ 2 - 2 x_23_ * x_18_ + 1 x_23_ ^ 2 + 1 y_18_ ^ 2 - 2 y_23_ * y_18_ + 1 y_23_ ^ 2 ] <= 4656.1
quadratic_ranged_42_ub: [ 1 x_22_ ^ 2 - 2 x_23_ * x_22_ + 1 x_23_ ^ 2 + 1 y_22_ ^ 2 - 2 y_23_ * y_22_ + 1 y_23_ ^ 2 ] <= 7033.64
quadratic_ranged_43_ub: [ 1 x_7_ ^ 2 - 2 x_24_ * x_7_ + 1 x_24_ ^ 2 + 1 y_7_ ^ 2 - 2 y_24_ * y_7_ + 1 y_24_ ^ 2 ] <= 9512.18
quadratic_ranged_44_ub: [ 1 x_23_ ^ 2 - 2 x_24_ * x_23_ + 1 x_24_ ^ 2 + 1 y_23_ ^ 2 - 2 y_24_ * y_23_ + 1 y_24_ ^ 2 ] <= 1289.77
quadratic_ranged_45_ub: [ 1 x_3_ ^ 2 - 2 x_25_ * x_3_ + 1 x_25_ ^ 2 + 1 y_3_ ^ 2 - 2 y_25_ * y_3_ + 1 y_25_ ^ 2 ] <= 34046.090000000004
quadratic_ranged_46_ub: [ 1 x_6_ ^ 2 - 2 x_25_ * x_6_ + 1 x_25_ ^ 2 + 1 y_6_ ^ 2 - 2 y_25_ * y_6_ + 1 y_25_ ^ 2 ] <= 11136.26
quadratic_ranged_47_ub: [ 1 x_7_ ^ 2 - 2 x_25_ * x_7_ + 1 x_25_ ^ 2 + 1 y_7_ ^ 2 - 2 y_25_ * y_7_ + 1 y_25_ ^ 2 ] <= 8348.66
quadratic_ranged_48_ub: [ 1 x_24_ ^ 2 - 2 x_25_ * x_24_ + 1 x_25_ ^ 2 + 1 y_24_ ^ 2 - 2 y_25_ * y_24_ + 1 y_25_ ^ 2 ] <= 27156.88
quadratic_ranged_49_ub: [ 1 x_16_ ^ 2 - 2 x_26_ * x_16_ + 1 x_26_ ^ 2 + 1 y_16_ ^ 2 - 2 y_26_ * y_16_ + 1 y_26_ ^ 2 ] <= 21001.94
quadratic_ranged_50_ub: [ 1 x_22_ ^ 2 - 2 x_26_ * x_22_ + 1 x_26_ ^ 2 + 1 y_22_ ^ 2 - 2 y_26_ * y_22_ + 1 y_26_ ^ 2 ] <= 19408.16
quadratic_ranged_51_ub: [ 1 x_25_ ^ 2 - 2 x_26_ * x_25_ + 1 x_26_ ^ 2 + 1 y_25_ ^ 2 - 2 y_26_ * y_25_ + 1 y_26_ ^ 2 ] <= 12933.05
quadratic_ranged_52_ub: [ 1 x_2_ ^ 2 - 2 x_27_ * x_2_ + 1 x_27_ ^ 2 + 1 y_2_ ^ 2 - 2 y_27_ * y_2_ + 1 y_27_ ^ 2 ] <= 4513.69
quadratic_ranged_53_ub: [ 1 x_4_ ^ 2 - 2 x_27_ * x_4_ + 1 x_27_ ^ 2 + 1 y_4_ ^ 2 - 2 y_27_ * y_4_ + 1 y_27_ ^ 2 ] <= 7039.7
quadratic_ranged_54_ub: [ 1 x_7_ ^ 2 - 2 x_27_ * x_7_ + 1 x_27_ ^ 2 + 1 y_7_ ^ 2 - 2 y_27_ * y_7_ + 1 y_27_ ^ 2 ] <= 745.38
quadratic_ranged_55_ub: [ 1 x_18_ ^ 2 - 2 x_27_ * x_18_ + 1 x_27_ ^ 2 + 1 y_18_ ^ 2 - 2 y_27_ * y_18_ + 1 y_27_ ^ 2 ] <= 1641.25
quadratic_ranged_56_ub: [ 1 x_22_ ^ 2 - 2 x_27_ * x_22_ + 1 x_27_ ^ 2 + 1 y_22_ ^ 2 - 2 y_27_ * y_22_ + 1 y_27_ ^ 2 ] <= 6404.41
quadratic_ranged_57_ub: [ 1 x_26_ ^ 2 - 2 x_27_ * x_26_ + 1 x_27_ ^ 2 + 1 y_26_ ^ 2 - 2 y_27_ * y_26_ + 1 y_27_ ^ 2 ] <= 3762.25
quadratic_ranged_58_ub: [ 1 x_2_ ^ 2 - 2 x_28_ * x_2_ + 1 x_28_ ^ 2 + 1 y_2_ ^ 2 - 2 y_28_ * y_2_ + 1 y_28_ ^ 2 ] <= 6134.74
quadratic_ranged_59_ub: [ 1 x_11_ ^ 2 - 2 x_28_ * x_11_ + 1 x_28_ ^ 2 + 1 y_11_ ^ 2 - 2 y_28_ * y_11_ + 1 y_28_ ^ 2 ] <= 3282.5
quadratic_ranged_60_ub: [ 1 x_18_ ^ 2 - 2 x_28_ * x_18_ + 1 x_28_ ^ 2 + 1 y_18_ ^ 2 - 2 y_28_ * y_18_ + 1 y_28_ ^ 2 ] <= 1620.04
quadratic_ranged_61_ub: [ 1 x_23_ ^ 2 - 2 x_28_ * x_23_ + 1 x_28_ ^ 2 + 1 y_23_ ^ 2 - 2 y_28_ * y_23_ + 1 y_28_ ^ 2 ] <= 11734.18
quadratic_ranged_62_ub: [ 1 x_27_ ^ 2 - 2 x_28_ * x_27_ + 1 x_28_ ^ 2 + 1 y_27_ ^ 2 - 2 y_28_ * y_27_ + 1 y_28_ ^ 2 ] <= 336.33
quadratic_ranged_63_ub: [ 1 x_14_ ^ 2 - 2 x_29_ * x_14_ + 1 x_29_ ^ 2 + 1 y_14_ ^ 2 - 2 y_29_ * y_14_ + 1 y_29_ ^ 2 ] <= 18733.48
quadratic_ranged_64_ub: [ 1 x_17_ ^ 2 - 2 x_29_ * x_17_ + 1 x_29_ ^ 2 + 1 y_17_ ^ 2 - 2 y_29_ * y_17_ + 1 y_29_ ^ 2 ] <= 1019.09
quadratic_ranged_65_ub: [ 1 x_19_ ^ 2 - 2 x_29_ * x_19_ + 1 x_29_ ^ 2 + 1 y_19_ ^ 2 - 2 y_29_ * y_19_ + 1 y_29_ ^ 2 ] <= 16500.37
quadratic_ranged_66_ub: [ 1 x_28_ ^ 2 - 2 x_29_ * x_28_ + 1 x_29_ ^ 2 + 1 y_28_ ^ 2 - 2 y_29_ * y_28_ + 1 y_29_ ^ 2 ] <= 1895.77
quadratic_ranged_67_ub: [ 1 x_11_ ^ 2 - 2 x_30_ * x_11_ + 1 x_30_ ^ 2 + 1 y_11_ ^ 2 - 2 y_30_ * y_11_ + 1 y_30_ ^ 2 ] <= 24192.53
quadratic_ranged_68_ub: [ 1 x_29_ ^ 2 - 2 x_30_ * x_29_ + 1 x_30_ ^ 2 + 1 y_29_ ^ 2 - 2 y_30_ * y_29_ + 1 y_30_ ^ 2 ] <= 11364.52
quadratic_ranged_69_ub: [ 1 x_30_ ^ 2 - 2 x_31_ * x_30_ + 1 x_31_ ^ 2 + 1 y_30_ ^ 2 - 2 y_31_ * y_30_ + 1 y_31_ ^ 2 ] <= 5270.18
quadratic_ranged_70_ub: [ 1 x_18_ ^ 2 - 2 x_32_ * x_18_ + 1 x_32_ ^ 2 + 1 y_18_ ^ 2 - 2 y_32_ * y_18_ + 1 y_32_ ^ 2 ] <= 2094.7400000000002
quadratic_ranged_71_ub: [ 1 x_20_ ^ 2 - 2 x_32_ * x_20_ + 1 x_32_ ^ 2 + 1 y_20_ ^ 2 - 2 y_32_ * y_20_ + 1 y_32_ ^ 2 ] <= 25510.58
quadratic_ranged_72_ub: [ 1 x_31_ ^ 2 - 2 x_32_ * x_31_ + 1 x_32_ ^ 2 + 1 y_31_ ^ 2 - 2 y_32_ * y_31_ + 1 y_32_ ^ 2 ] <= 26487.25
quadratic_ranged_73_ub: [ 1 x_20_ ^ 2 - 2 x_33_ * x_20_ + 1 x_33_ ^ 2 + 1 y_20_ ^ 2 - 2 y_33_ * y_20_ + 1 y_33_ ^ 2 ] <= 28402.21
quadratic_ranged_74_ub: [ 1 x_32_ ^ 2 - 2 x_33_ * x_32_ + 1 x_33_ ^ 2 + 1 y_32_ ^ 2 - 2 y_33_ * y_32_ + 1 y_33_ ^ 2 ] <= 28850.65
quadratic_ranged_75_ub: [ 1 x_2_ ^ 2 - 2 x_34_ * x_2_ + 1 x_34_ ^ 2 + 1 y_2_ ^ 2 - 2 y_34_ * y_2_ + 1 y_34_ ^ 2 ] <= 19911.14
quadratic_ranged_76_ub: [ 1 x_25_ ^ 2 - 2 x_34_ * x_25_ + 1 x_34_ ^ 2 + 1 y_25_ ^ 2 - 2 y_34_ * y_25_ + 1 y_34_ ^ 2 ] <= 21530.170000000002
quadratic_ranged_77_ub: [ 1 x_33_ ^ 2 - 2 x_34_ * x_33_ + 1 x_34_ ^ 2 + 1 y_33_ ^ 2 - 2 y_34_ * y_33_ + 1 y_34_ ^ 2 ] <= 126.25
quadratic_ranged_78_ub: [ 1 x_29_ ^ 2 - 2 x_35_ * x_29_ + 1 x_35_ ^ 2 + 1 y_29_ ^ 2 - 2 y_35_ * y_29_ + 1 y_35_ ^ 2 ] <= 2695.69
quadratic_ranged_79_ub: [ 1 x_34_ ^ 2 - 2 x_35_ * x_34_ + 1 x_35_ ^ 2 + 1 y_34_ ^ 2 - 2 y_35_ * y_34_ + 1 y_35_ ^ 2 ] <= 19078.9
quadratic_ranged_80_ub: [ 1 x_4_ ^ 2 - 2 x_36_ * x_4_ + 1 x_36_ ^ 2 + 1 y_4_ ^ 2 - 2 y_36_ * y_4_ + 1 y_36_ ^ 2 ] <= 1313
quadratic_ranged_81_ub: [ 1 x_6_ ^ 2 - 2 x_36_ * x_6_ + 1 x_36_ ^ 2 + 1 y_6_ ^ 2 - 2 y_36_ * y_6_ + 1 y_36_ ^ 2 ] <= 32728.04
quadratic_ranged_82_ub: [ 1 x_12_ ^ 2 - 2 x_36_ * x_12_ + 1 x_36_ ^ 2 + 1 y_12_ ^ 2 - 2 y_36_ * y_12_ + 1 y_36_ ^ 2 ] <= 14985.37
quadratic_ranged_83_ub: [ 1 x_33_ ^ 2 - 2 x_36_ * x_33_ + 1 x_36_ ^ 2 + 1 y_33_ ^ 2 - 2 y_36_ * y_33_ + 1 y_36_ ^ 2 ] <= 12879.52
quadratic_ranged_84_ub: [ 1 x_34_ ^ 2 - 2 x_36_ * x_34_ + 1 x_36_ ^ 2 + 1 y_34_ ^ 2 - 2 y_36_ * y_34_ + 1 y_36_ ^ 2 ] <= 12448.25
quadratic_ranged_85_ub: [ 1 x_35_ ^ 2 - 2 x_36_ * x_35_ + 1 x_36_ ^ 2 + 1 y_35_ ^ 2 - 2 y_36_ * y_35_ + 1 y_36_ ^ 2 ] <= 43014.89
quadratic_ranged_86_ub: [ 1 x_1_ ^ 2 - 2 x_37_ * x_1_ + 1 x_37_ ^ 2 + 1 y_1_ ^ 2 - 2 y_37_ * y_1_ + 1 y_37_ ^ 2 ] <= 13478.45
quadratic_ranged_87_ub: [ 1 x_18_ ^ 2 - 2 x_37_ * x_18_ + 1 x_37_ ^ 2 + 1 y_18_ ^ 2 - 2 y_37_ * y_18_ + 1 y_37_ ^ 2 ] <= 29625.32
quadratic_ranged_88_ub: [ 1 x_36_ ^ 2 - 2 x_37_ * x_36_ + 1 x_37_ ^ 2 + 1 y_36_ ^ 2 - 2 y_37_ * y_36_ + 1 y_37_ ^ 2 ] <= 13175.45
quadratic_ranged_89_ub: [ 1 x_4_ ^ 2 - 2 x_38_ * x_4_ + 1 x_38_ ^ 2 + 1 y_4_ ^ 2 - 2 y_38_ * y_4_ + 1 y_38_ ^ 2 ] <= 2312.9
quadratic_ranged_90_ub: [ 1 x_9_ ^ 2 - 2 x_38_ * x_9_ + 1 x_38_ ^ 2 + 1 y_9_ ^ 2 - 2 y_38_ * y_9_ + 1 y_38_ ^ 2 ] <= 8324.42
quadratic_ranged_91_ub: [ 1 x_13_ ^ 2 - 2 x_38_ * x_13_ + 1 x_38_ ^ 2 + 1 y_13_ ^ 2 - 2 y_38_ * y_13_ + 1 y_38_ ^ 2 ] <= 8348.66
quadratic_ranged_92_ub: [ 1 x_16_ ^ 2 - 2 x_38_ * x_16_ + 1 x_38_ ^ 2 + 1 y_16_ ^ 2 - 2 y_38_ * y_16_ + 1 y_38_ ^ 2 ] <= 17647.73
quadratic_ranged_93_ub: [ 1 x_19_ ^ 2 - 2 x_38_ * x_19_ + 1 x_38_ ^ 2 + 1 y_19_ ^ 2 - 2 y_38_ * y_19_ + 1 y_38_ ^ 2 ] <= 8258.77
quadratic_ranged_94_ub: [ 1 x_24_ ^ 2 - 2 x_38_ * x_24_ + 1 x_38_ ^ 2 + 1 y_24_ ^ 2 - 2 y_38_ * y_24_ + 1 y_38_ ^ 2 ] <= 6181.2
quadratic_ranged_95_ub: [ 1 x_33_ ^ 2 - 2 x_38_ * x_33_ + 1 x_38_ ^ 2 + 1 y_33_ ^ 2 - 2 y_38_ * y_33_ + 1 y_38_ ^ 2 ] <= 5504.5
quadratic_ranged_96_ub: [ 1 x_37_ ^ 2 - 2 x_38_ * x_37_ + 1 x_38_ ^ 2 + 1 y_37_ ^ 2 - 2 y_38_ * y_37_ + 1 y_38_ ^ 2 ] <= 10840.33
quadratic_ranged_97_ub: [ 1 x_5_ ^ 2 - 2 x_39_ * x_5_ + 1 x_39_ ^ 2 + 1 y_5_ ^ 2 - 2 y_39_ * y_5_ + 1 y_39_ ^ 2 ] <= 30955.49
quadratic_ranged_98_ub: [ 1 x_18_ ^ 2 - 2 x_39_ * x_18_ + 1 x_39_ ^ 2 + 1 y_18_ ^ 2 - 2 y_39_ * y_18_ + 1 y_39_ ^ 2 ] <= 10504
quadratic_ranged_99_ub: [ 1 x_35_ ^ 2 - 2 x_39_ * x_35_ + 1 x_39_ ^ 2 + 1 y_35_ ^ 2 - 2 y_39_ * y_35_ + 1 y_39_ ^ 2 ] <= 16170.1
quadratic_ranged_100_ub: [ 1 x_36_ ^ 2 - 2 x_39_ * x_36_ + 1 x_39_ ^ 2 + 1 y_36_ ^ 2 - 2 y_39_ * y_36_ + 1 y_39_ ^ 2 ] <= 8157.77
quadratic_ranged_101_ub: [ 1 x_38_ ^ 2 - 2 x_39_ * x_38_ + 1 x_39_ ^ 2 + 1 y_38_ ^ 2 - 2 y_39_ * y_38_ + 1 y_39_ ^ 2 ] <= 1883.65
quadratic_ranged_102_ub: [ 1 x_6_ ^ 2 - 2 x_40_ * x_6_ + 1 x_40_ ^ 2 + 1 y_6_ ^ 2 - 2 y_40_ * y_6_ + 1 y_40_ ^ 2 ] <= 9900.02
quadratic_ranged_103_ub: [ 1 x_8_ ^ 2 - 2 x_40_ * x_8_ + 1 x_40_ ^ 2 + 1 y_8_ ^ 2 - 2 y_40_ * y_8_ + 1 y_40_ ^ 2 ] <= 9582.88
quadratic_ranged_104_ub: [ 1 x_39_ ^ 2 - 2 x_40_ * x_39_ + 1 x_40_ ^ 2 + 1 y_39_ ^ 2 - 2 y_40_ * y_39_ + 1 y_40_ ^ 2 ] <= 23477.45
quadratic_ranged_105_ub: [ 1 x_5_ ^ 2 - 2 x_41_ * x_5_ + 1 x_41_ ^ 2 + 1 y_5_ ^ 2 - 2 y_41_ * y_5_ + 1 y_41_ ^ 2 ] <= 22188.69
quadratic_ranged_106_ub: [ 1 x_27_ ^ 2 - 2 x_41_ * x_27_ + 1 x_41_ ^ 2 + 1 y_27_ ^ 2 - 2 y_41_ * y_27_ + 1 y_41_ ^ 2 ] <= 1318.05
quadratic_ranged_107_ub: [ 1 x_40_ ^ 2 - 2 x_41_ * x_40_ + 1 x_41_ ^ 2 + 1 y_40_ ^ 2 - 2 y_41_ * y_40_ + 1 y_41_ ^ 2 ] <= 17716.41
quadratic_ranged_108_ub: [ 1 x_7_ ^ 2 - 2 x_42_ * x_7_ + 1 x_42_ ^ 2 + 1 y_7_ ^ 2 - 2 y_42_ * y_7_ + 1 y_42_ ^ 2 ] <= 10863.56
quadratic_ranged_109_ub: [ 1 x_20_ ^ 2 - 2 x_42_ * x_20_ + 1 x_42_ ^ 2 + 1 y_20_ ^ 2 - 2 y_42_ * y_20_ + 1 y_42_ ^ 2 ] <= 26677.13
quadratic_ranged_110_ub: [ 1 x_41_ ^ 2 - 2 x_42_ * x_41_ + 1 x_42_ ^ 2 + 1 y_41_ ^ 2 - 2 y_42_ * y_41_ + 1 y_42_ ^ 2 ] <= 14108.69
quadratic_ranged_111_ub: [ 1 x_3_ ^ 2 - 2 x_43_ * x_3_ + 1 x_43_ ^ 2 + 1 y_3_ ^ 2 - 2 y_43_ * y_3_ + 1 y_43_ ^ 2 ] <= 36567.05
quadratic_ranged_112_ub: [ 1 x_15_ ^ 2 - 2 x_43_ * x_15_ + 1 x_43_ ^ 2 + 1 y_15_ ^ 2 - 2 y_43_ * y_15_ + 1 y_43_ ^ 2 ] <= 3871.33
quadratic_ranged_113_ub: [ 1 x_16_ ^ 2 - 2 x_43_ * x_16_ + 1 x_43_ ^ 2 + 1 y_16_ ^ 2 - 2 y_43_ * y_16_ + 1 y_43_ ^ 2 ] <= 15280.29
quadratic_ranged_114_ub: [ 1 x_18_ ^ 2 - 2 x_43_ * x_18_ + 1 x_43_ ^ 2 + 1 y_18_ ^ 2 - 2 y_43_ * y_18_ + 1 y_43_ ^ 2 ] <= 15926.69
quadratic_ranged_115_ub: [ 1 x_22_ ^ 2 - 2 x_43_ * x_22_ + 1 x_43_ ^ 2 + 1 y_22_ ^ 2 - 2 y_43_ * y_22_ + 1 y_43_ ^ 2 ] <= 16952.85
quadratic_ranged_116_ub: [ 1 x_32_ ^ 2 - 2 x_43_ * x_32_ + 1 x_43_ ^ 2 + 1 y_32_ ^ 2 - 2 y_43_ * y_32_ + 1 y_43_ ^ 2 ] <= 18443.61
quadratic_ranged_117_ub: [ 1 x_42_ ^ 2 - 2 x_43_ * x_42_ + 1 x_43_ ^ 2 + 1 y_42_ ^ 2 - 2 y_43_ * y_42_ + 1 y_43_ ^ 2 ] <= 18781.96
quadratic_ranged_118_ub: [ 1 x_1_ ^ 2 - 2 x_44_ * x_1_ + 1 x_44_ ^ 2 + 1 y_1_ ^ 2 - 2 y_44_ * y_1_ + 1 y_44_ ^ 2 ] <= 10201
quadratic_ranged_119_ub: [ 1 x_6_ ^ 2 - 2 x_44_ * x_6_ + 1 x_44_ ^ 2 + 1 y_6_ ^ 2 - 2 y_44_ * y_6_ + 1 y_44_ ^ 2 ] <= 38367.88
quadratic_ranged_120_ub: [ 1 x_20_ ^ 2 - 2 x_44_ * x_20_ + 1 x_44_ ^ 2 + 1 y_20_ ^ 2 - 2 y_44_ * y_20_ + 1 y_44_ ^ 2 ] <= 34559.17
quadratic_ranged_121_ub: [ 1 x_43_ ^ 2 - 2 x_44_ * x_43_ + 1 x_44_ ^ 2 + 1 y_43_ ^ 2 - 2 y_44_ * y_43_ + 1 y_44_ ^ 2 ] <= 16584.2
quadratic_ranged_122_ub: [ 1 x_8_ ^ 2 - 2 x_45_ * x_8_ + 1 x_45_ ^ 2 + 1 y_8_ ^ 2 - 2 y_45_ * y_8_ + 1 y_45_ ^ 2 ] <= 4858.1
quadratic_ranged_123_ub: [ 1 x_13_ ^ 2 - 2 x_45_ * x_13_ + 1 x_45_ ^ 2 + 1 y_13_ ^ 2 - 2 y_45_ * y_13_ + 1 y_45_ ^ 2 ] <= 7837.6
quadratic_ranged_124_ub: [ 1 x_14_ ^ 2 - 2 x_45_ * x_14_ + 1 x_45_ ^ 2 + 1 y_14_ ^ 2 - 2 y_45_ * y_14_ + 1 y_45_ ^ 2 ] <= 8857.7
quadratic_ranged_125_ub: [ 1 x_15_ ^ 2 - 2 x_45_ * x_15_ + 1 x_45_ ^ 2 + 1 y_15_ ^ 2 - 2 y_45_ * y_15_ + 1 y_45_ ^ 2 ] <= 12343.210000000001
quadratic_ranged_126_ub: [ 1 x_21_ ^ 2 - 2 x_45_ * x_21_ + 1 x_45_ ^ 2 + 1 y_21_ ^ 2 - 2 y_45_ * y_21_ + 1 y_45_ ^ 2 ] <= 6181.2
quadratic_ranged_127_ub: [ 1 x_22_ ^ 2 - 2 x_45_ * x_22_ + 1 x_45_ ^ 2 + 1 y_22_ ^ 2 - 2 y_45_ * y_22_ + 1 y_45_ ^ 2 ] <= 12448.25
quadratic_ranged_128_ub: [ 1 x_34_ ^ 2 - 2 x_45_ * x_34_ + 1 x_45_ ^ 2 + 1 y_34_ ^ 2 - 2 y_45_ * y_34_ + 1 y_45_ ^ 2 ] <= 4776.29
quadratic_ranged_129_ub: [ 1 x_44_ ^ 2 - 2 x_45_ * x_44_ + 1 x_45_ ^ 2 + 1 y_44_ ^ 2 - 2 y_45_ * y_44_ + 1 y_45_ ^ 2 ] <= 7474
quadratic_ranged_130_ub: [ 1 x_3_ ^ 2 - 2 x_46_ * x_3_ + 1 x_46_ ^ 2 + 1 y_3_ ^ 2 - 2 y_46_ * y_3_ + 1 y_46_ ^ 2 ] <= 14002.64
quadratic_ranged_131_ub: [ 1 x_7_ ^ 2 - 2 x_46_ * x_7_ + 1 x_46_ ^ 2 + 1 y_7_ ^ 2 - 2 y_46_ * y_7_ + 1 y_46_ ^ 2 ] <= 14197.57
quadratic_ranged_132_ub: [ 1 x_9_ ^ 2 - 2 x_46_ * x_9_ + 1 x_46_ ^ 2 + 1 y_9_ ^ 2 - 2 y_46_ * y_9_ + 1 y_46_ ^ 2 ] <= 17599.25
quadratic_ranged_133_ub: [ 1 x_29_ ^ 2 - 2 x_46_ * x_29_ + 1 x_46_ ^ 2 + 1 y_29_ ^ 2 - 2 y_46_ * y_29_ + 1 y_46_ ^ 2 ] <= 24224.85
quadratic_ranged_134_ub: [ 1 x_32_ ^ 2 - 2 x_46_ * x_32_ + 1 x_46_ ^ 2 + 1 y_32_ ^ 2 - 2 y_46_ * y_32_ + 1 y_46_ ^ 2 ] <= 19379.88
quadratic_ranged_135_ub: [ 1 x_44_ ^ 2 - 2 x_46_ * x_44_ + 1 x_46_ ^ 2 + 1 y_44_ ^ 2 - 2 y_46_ * y_44_ + 1 y_46_ ^ 2 ] <= 23659.25
quadratic_ranged_136_ub: [ 1 x_45_ ^ 2 - 2 x_46_ * x_45_ + 1 x_46_ ^ 2 + 1 y_45_ ^ 2 - 2 y_46_ * y_45_ + 1 y_46_ ^ 2 ] <= 9903.05
quadratic_ranged_137_ub: [ 1 x_4_ ^ 2 - 2 x_47_ * x_4_ + 1 x_47_ ^ 2 + 1 y_4_ ^ 2 - 2 y_47_ * y_4_ + 1 y_47_ ^ 2 ] <= 16412.5
quadratic_ranged_138_ub: [ 1 x_6_ ^ 2 - 2 x_47_ * x_6_ + 1 x_47_ ^ 2 + 1 y_6_ ^ 2 - 2 y_47_ * y_6_ + 1 y_47_ ^ 2 ] <= 18666.82
quadratic_ranged_139_ub: [ 1 x_15_ ^ 2 - 2 x_47_ * x_15_ + 1 x_47_ ^ 2 + 1 y_15_ ^ 2 - 2 y_47_ * y_15_ + 1 y_47_ ^ 2 ] <= 11357.45
quadratic_ranged_140_ub: [ 1 x_24_ ^ 2 - 2 x_47_ * x_24_ + 1 x_47_ ^ 2 + 1 y_24_ ^ 2 - 2 y_47_ * y_24_ + 1 y_47_ ^ 2 ] <= 19299.08
quadratic_ranged_141_ub: [ 1 x_36_ ^ 2 - 2 x_47_ * x_36_ + 1 x_47_ ^ 2 + 1 y_36_ ^ 2 - 2 y_47_ * y_36_ + 1 y_47_ ^ 2 ] <= 18715.3
quadratic_ranged_142_ub: [ 1 x_46_ ^ 2 - 2 x_47_ * x_46_ + 1 x_47_ ^ 2 + 1 y_46_ ^ 2 - 2 y_47_ * y_46_ + 1 y_47_ ^ 2 ] <= 21865.49
quadratic_ranged_143_ub: [ 1 x_26_ ^ 2 - 2 x_48_ * x_26_ + 1 x_48_ ^ 2 + 1 y_26_ ^ 2 - 2 y_48_ * y_26_ + 1 y_48_ ^ 2 ] <= 462.58
quadratic_ranged_144_ub: [ 1 x_28_ ^ 2 - 2 x_48_ * x_28_ + 1 x_48_ ^ 2 + 1 y_28_ ^ 2 - 2 y_48_ * y_28_ + 1 y_48_ ^ 2 ] <= 6116.56
quadratic_ranged_145_ub: [ 1 x_30_ ^ 2 - 2 x_48_ * x_30_ + 1 x_48_ ^ 2 + 1 y_30_ ^ 2 - 2 y_48_ * y_30_ + 1 y_48_ ^ 2 ] <= 497.93
quadratic_ranged_146_ub: [ 1 x_32_ ^ 2 - 2 x_48_ * x_32_ + 1 x_48_ ^ 2 + 1 y_32_ ^ 2 - 2 y_48_ * y_32_ + 1 y_48_ ^ 2 ] <= 20444.420000000002
quadratic_ranged_147_ub: [ 1 x_33_ ^ 2 - 2 x_48_ * x_33_ + 1 x_48_ ^ 2 + 1 y_33_ ^ 2 - 2 y_48_ * y_33_ + 1 y_48_ ^ 2 ] <= 1083.73
quadratic_ranged_148_ub: [ 1 x_34_ ^ 2 - 2 x_48_ * x_34_ + 1 x_48_ ^ 2 + 1 y_34_ ^ 2 - 2 y_48_ * y_34_ + 1 y_48_ ^ 2 ] <= 1494.8
quadratic_ranged_149_ub: [ 1 x_36_ ^ 2 - 2 x_48_ * x_36_ + 1 x_48_ ^ 2 + 1 y_36_ ^ 2 - 2 y_48_ * y_36_ + 1 y_48_ ^ 2 ] <= 7862.85
quadratic_ranged_150_ub: [ 1 x_37_ ^ 2 - 2 x_48_ * x_37_ + 1 x_48_ ^ 2 + 1 y_37_ ^ 2 - 2 y_48_ * y_37_ + 1 y_48_ ^ 2 ] <= 5179.28
quadratic_ranged_151_ub: [ 1 x_40_ ^ 2 - 2 x_48_ * x_40_ + 1 x_48_ ^ 2 + 1 y_40_ ^ 2 - 2 y_48_ * y_40_ + 1 y_48_ ^ 2 ] <= 22911.85
quadratic_ranged_152_ub: [ 1 x_43_ ^ 2 - 2 x_48_ * x_43_ + 1 x_48_ ^ 2 + 1 y_43_ ^ 2 - 2 y_48_ * y_43_ + 1 y_48_ ^ 2 ] <= 13272.41
quadratic_ranged_153_ub: [ 1 x_46_ ^ 2 - 2 x_48_ * x_46_ + 1 x_48_ ^ 2 + 1 y_46_ ^ 2 - 2 y_48_ * y_46_ + 1 y_48_ ^ 2 ] <= 11039.3
quadratic_ranged_154_ub: [ 1 x_47_ ^ 2 - 2 x_48_ * x_47_ + 1 x_48_ ^ 2 + 1 y_47_ ^ 2 - 2 y_48_ * y_47_ + 1 y_48_ ^ 2 ] <= 2429.05
quadratic_ranged_155_ub: [ 1 x_3_ ^ 2 - 2 x_49_ * x_3_ + 1 x_49_ ^ 2 + 1 y_3_ ^ 2 - 2 y_49_ * y_3_ + 1 y_49_ ^ 2 ] <= 2049.29
quadratic_ranged_156_ub: [ 1 x_11_ ^ 2 - 2 x_49_ * x_11_ + 1 x_49_ ^ 2 + 1 y_11_ ^ 2 - 2 y_49_ * y_11_ + 1 y_49_ ^ 2 ] <= 2016.97
quadratic_ranged_157_ub: [ 1 x_12_ ^ 2 - 2 x_49_ * x_12_ + 1 x_49_ ^ 2 + 1 y_12_ ^ 2 - 2 y_49_ * y_12_ + 1 y_49_ ^ 2 ] <= 1738.21
quadratic_ranged_158_ub: [ 1 x_41_ ^ 2 - 2 x_49_ * x_41_ + 1 x_49_ ^ 2 + 1 y_41_ ^ 2 - 2 y_49_ * y_41_ + 1 y_49_ ^ 2 ] <= 10658.53
quadratic_ranged_159_ub: [ 1 x_48_ ^ 2 - 2 x_49_ * x_48_ + 1 x_49_ ^ 2 + 1 y_48_ ^ 2 - 2 y_49_ * y_48_ + 1 y_49_ ^ 2 ] <= 16326.65
quadratic_ranged_160_ub: [ 1 x_3_ ^ 2 - 2 x_50_ * x_3_ + 1 x_50_ ^ 2 + 1 y_3_ ^ 2 - 2 y_50_ * y_3_ + 1 y_50_ ^ 2 ] <= 38195.17
quadratic_ranged_161_ub: [ 1 x_8_ ^ 2 - 2 x_50_ * x_8_ + 1 x_50_ ^ 2 + 1 y_8_ ^ 2 - 2 y_50_ * y_8_ + 1 y_50_ ^ 2 ] <= 23145.16
quadratic_ranged_162_ub: [ 1 x_16_ ^ 2 - 2 x_50_ * x_16_ + 1 x_50_ ^ 2 + 1 y_16_ ^ 2 - 2 y_50_ * y_16_ + 1 y_50_ ^ 2 ] <= 40231.33
quadratic_ranged_163_ub: [ 1 x_17_ ^ 2 - 2 x_50_ * x_17_ + 1 x_50_ ^ 2 + 1 y_17_ ^ 2 - 2 y_50_ * y_17_ + 1 y_50_ ^ 2 ] <= 13518.85
quadratic_ranged_164_ub: [ 1 x_23_ ^ 2 - 2 x_50_ * x_23_ + 1 x_50_ ^ 2 + 1 y_23_ ^ 2 - 2 y_50_ * y_23_ + 1 y_50_ ^ 2 ] <= 31032.25
quadratic_ranged_165_ub: [ 1 x_28_ ^ 2 - 2 x_50_ * x_28_ + 1 x_50_ ^ 2 + 1 y_28_ ^ 2 - 2 y_50_ * y_28_ + 1 y_50_ ^ 2 ] <= 16771.05
quadratic_ranged_166_ub: [ 1 x_32_ ^ 2 - 2 x_50_ * x_32_ + 1 x_50_ ^ 2 + 1 y_32_ ^ 2 - 2 y_50_ * y_32_ + 1 y_50_ ^ 2 ] <= 34959.13
quadratic_ranged_167_ub: [ 1 x_49_ ^ 2 - 2 x_50_ * x_49_ + 1 x_50_ ^ 2 + 1 y_49_ ^ 2 - 2 y_50_ * y_49_ + 1 y_50_ ^ 2 ] <= 27320.5
quadratic_ranged_168_ub: [ 1 x_26_ ^ 2 - 2 x_51_ * x_26_ + 1 x_51_ ^ 2 + 1 y_26_ ^ 2 - 2 y_51_ * y_26_ + 1 y_51_ ^ 2 ] <= 3713.77
quadratic_ranged_169_ub: [ 1 x_35_ ^ 2 - 2 x_51_ * x_35_ + 1 x_51_ ^ 2 + 1 y_35_ ^ 2 - 2 y_51_ * y_35_ + 1 y_51_ ^ 2 ] <= 16185.25
quadratic_ranged_170_ub: [ 1 x_47_ ^ 2 - 2 x_51_ * x_47_ + 1 x_51_ ^ 2 + 1 y_47_ ^ 2 - 2 y_51_ * y_47_ + 1 y_51_ ^ 2 ] <= 6037.78
quadratic_ranged_171_ub: [ 1 x_50_ ^ 2 - 2 x_51_ * x_50_ + 1 x_51_ ^ 2 + 1 y_50_ ^ 2 - 2 y_51_ * y_50_ + 1 y_51_ ^ 2 ] <= 9180.9
quadratic_ranged_172_ub: [ 1 x_15_ ^ 2 - 2 x_52_ * x_15_ + 1 x_52_ ^ 2 + 1 y_15_ ^ 2 - 2 y_52_ * y_15_ + 1 y_52_ ^ 2 ] <= 24644
quadratic_ranged_173_ub: [ 1 x_21_ ^ 2 - 2 x_52_ * x_21_ + 1 x_52_ ^ 2 + 1 y_21_ ^ 2 - 2 y_52_ * y_21_ + 1 y_52_ ^ 2 ] <= 16936.69
quadratic_ranged_174_ub: [ 1 x_48_ ^ 2 - 2 x_52_ * x_48_ + 1 x_52_ ^ 2 + 1 y_48_ ^ 2 - 2 y_52_ * y_48_ + 1 y_52_ ^ 2 ] <= 11855.38
quadratic_ranged_175_ub: [ 1 x_51_ ^ 2 - 2 x_52_ * x_51_ + 1 x_52_ ^ 2 + 1 y_51_ ^ 2 - 2 y_52_ * y_51_ + 1 y_52_ ^ 2 ] <= 3956.17
quadratic_ranged_176_ub: [ 1 x_27_ ^ 2 - 2 x_53_ * x_27_ + 1 x_53_ ^ 2 + 1 y_27_ ^ 2 - 2 y_53_ * y_27_ + 1 y_53_ ^ 2 ] <= 1313
quadratic_ranged_177_ub: [ 1 x_37_ ^ 2 - 2 x_53_ * x_37_ + 1 x_53_ ^ 2 + 1 y_37_ ^ 2 - 2 y_53_ * y_37_ + 1 y_53_ ^ 2 ] <= 20180.81
quadratic_ranged_178_ub: [ 1 x_48_ ^ 2 - 2 x_53_ * x_48_ + 1 x_53_ ^ 2 + 1 y_48_ ^ 2 - 2 y_53_ * y_48_ + 1 y_53_ ^ 2 ] <= 5568.13
quadratic_ranged_179_ub: [ 1 x_52_ ^ 2 - 2 x_53_ * x_52_ + 1 x_53_ ^ 2 + 1 y_52_ ^ 2 - 2 y_53_ * y_52_ + 1 y_53_ ^ 2 ] <= 1843.25
quadratic_ranged_180_ub: [ 1 x_1_ ^ 2 - 2 x_54_ * x_1_ + 1 x_54_ ^ 2 + 1 y_1_ ^ 2 - 2 y_54_ * y_1_ + 1 y_54_ ^ 2 ] <= 6565
quadratic_ranged_181_ub: [ 1 x_13_ ^ 2 - 2 x_54_ * x_13_ + 1 x_54_ ^ 2 + 1 y_13_ ^ 2 - 2 y_54_ * y_13_ + 1 y_54_ ^ 2 ] <= 32465.44
quadratic_ranged_182_ub: [ 1 x_41_ ^ 2 - 2 x_54_ * x_41_ + 1 x_54_ ^ 2 + 1 y_41_ ^ 2 - 2 y_54_ * y_41_ + 1 y_54_ ^ 2 ] <= 9228.37
quadratic_ranged_183_ub: [ 1 x_53_ ^ 2 - 2 x_54_ * x_53_ + 1 x_54_ ^ 2 + 1 y_53_ ^ 2 - 2 y_54_ * y_53_ + 1 y_54_ ^ 2 ] <= 4583.38
quadratic_ranged_184_ub: [ 1 x_1_ ^ 2 - 2 x_55_ * x_1_ + 1 x_55_ ^ 2 + 1 y_1_ ^ 2 - 2 y_55_ * y_1_ + 1 y_55_ ^ 2 ] <= 8206.25
quadratic_ranged_185_ub: [ 1 x_14_ ^ 2 - 2 x_55_ * x_14_ + 1 x_55_ ^ 2 + 1 y_14_ ^ 2 - 2 y_55_ * y_14_ + 1 y_55_ ^ 2 ] <= 17506.33
quadratic_ranged_186_ub: [ 1 x_16_ ^ 2 - 2 x_55_ * x_16_ + 1 x_55_ ^ 2 + 1 y_16_ ^ 2 - 2 y_55_ * y_16_ + 1 y_55_ ^ 2 ] <= 2215.94
quadratic_ranged_187_ub: [ 1 x_27_ ^ 2 - 2 x_55_ * x_27_ + 1 x_55_ ^ 2 + 1 y_27_ ^ 2 - 2 y_55_ * y_27_ + 1 y_55_ ^ 2 ] <= 4598.53
quadratic_ranged_188_ub: [ 1 x_33_ ^ 2 - 2 x_55_ * x_33_ + 1 x_55_ ^ 2 + 1 y_33_ ^ 2 - 2 y_55_ * y_33_ + 1 y_55_ ^ 2 ] <= 19792.97
quadratic_ranged_189_ub: [ 1 x_36_ ^ 2 - 2 x_55_ * x_36_ + 1 x_55_ ^ 2 + 1 y_36_ ^ 2 - 2 y_55_ * y_36_ + 1 y_55_ ^ 2 ] <= 31056.49
quadratic_ranged_190_ub: [ 1 x_43_ ^ 2 - 2 x_55_ * x_43_ + 1 x_55_ ^ 2 + 1 y_43_ ^ 2 - 2 y_55_ * y_43_ + 1 y_55_ ^ 2 ] <= 5879.21
quadratic_ranged_191_ub: [ 1 x_54_ ^ 2 - 2 x_55_ * x_54_ + 1 x_55_ ^ 2 + 1 y_54_ ^ 2 - 2 y_55_ * y_54_ + 1 y_55_ ^ 2 ] <= 2449.25
quadratic_ranged_192_ub: [ 1 x_14_ ^ 2 - 2 x_56_ * x_14_ + 1 x_56_ ^ 2 + 1 y_14_ ^ 2 - 2 y_56_ * y_14_ + 1 y_56_ ^ 2 ] <= 4882.34
quadratic_ranged_193_ub: [ 1 x_32_ ^ 2 - 2 x_56_ * x_32_ + 1 x_56_ ^ 2 + 1 y_32_ ^ 2 - 2 y_56_ * y_32_ + 1 y_56_ ^ 2 ] <= 20766.61
quadratic_ranged_194_ub: [ 1 x_33_ ^ 2 - 2 x_56_ * x_33_ + 1 x_56_ ^ 2 + 1 y_33_ ^ 2 - 2 y_56_ * y_33_ + 1 y_56_ ^ 2 ] <= 8669.84
quadratic_ranged_195_ub: [ 1 x_47_ ^ 2 - 2 x_56_ * x_47_ + 1 x_56_ ^ 2 + 1 y_47_ ^ 2 - 2 y_56_ * y_47_ + 1 y_56_ ^ 2 ] <= 12534.1
quadratic_ranged_196_ub: [ 1 x_51_ ^ 2 - 2 x_56_ * x_51_ + 1 x_56_ ^ 2 + 1 y_51_ ^ 2 - 2 y_56_ * y_51_ + 1 y_56_ ^ 2 ] <= 3781.44
quadratic_ranged_197_ub: [ 1 x_53_ ^ 2 - 2 x_56_ * x_53_ + 1 x_56_ ^ 2 + 1 y_53_ ^ 2 - 2 y_56_ * y_53_ + 1 y_56_ ^ 2 ] <= 3840.02
quadratic_ranged_198_ub: [ 1 x_55_ ^ 2 - 2 x_56_ * x_55_ + 1 x_56_ ^ 2 + 1 y_55_ ^ 2 - 2 y_56_ * y_55_ + 1 y_56_ ^ 2 ] <= 22972.45
quadratic_ranged_199_ub: [ 1 x_2_ ^ 2 - 2 x_57_ * x_2_ + 1 x_57_ ^ 2 + 1 y_2_ ^ 2 - 2 y_57_ * y_2_ + 1 y_57_ ^ 2 ] <= 5717.61
quadratic_ranged_200_ub: [ 1 x_14_ ^ 2 - 2 x_57_ * x_14_ + 1 x_57_ ^ 2 + 1 y_14_ ^ 2 - 2 y_57_ * y_14_ + 1 y_57_ ^ 2 ] <= 8245.64
quadratic_ranged_201_ub: [ 1 x_38_ ^ 2 - 2 x_57_ * x_38_ + 1 x_57_ ^ 2 + 1 y_38_ ^ 2 - 2 y_57_ * y_38_ + 1 y_57_ ^ 2 ] <= 9340.48
quadratic_ranged_202_ub: [ 1 x_54_ ^ 2 - 2 x_57_ * x_54_ + 1 x_57_ ^ 2 + 1 y_54_ ^ 2 - 2 y_57_ * y_54_ + 1 y_57_ ^ 2 ] <= 34.34
quadratic_ranged_203_ub: [ 1 x_56_ ^ 2 - 2 x_57_ * x_56_ + 1 x_57_ ^ 2 + 1 y_56_ ^ 2 - 2 y_57_ * y_56_ + 1 y_57_ ^ 2 ] <= 15903.460000000001
quadratic_ranged_204_ub: [ 1 x_9_ ^ 2 - 2 x_58_ * x_9_ + 1 x_58_ ^ 2 + 1 y_9_ ^ 2 - 2 y_58_ * y_9_ + 1 y_58_ ^ 2 ] <= 14190.5
quadratic_ranged_205_ub: [ 1 x_15_ ^ 2 - 2 x_58_ * x_15_ + 1 x_58_ ^ 2 + 1 y_15_ ^ 2 - 2 y_58_ * y_15_ + 1 y_58_ ^ 2 ] <= 25315.65
quadratic_ranged_206_ub: [ 1 x_27_ ^ 2 - 2 x_58_ * x_27_ + 1 x_58_ ^ 2 + 1 y_27_ ^ 2 - 2 y_58_ * y_27_ + 1 y_58_ ^ 2 ] <= 4949
quadratic_ranged_207_ub: [ 1 x_30_ ^ 2 - 2 x_58_ * x_30_ + 1 x_58_ ^ 2 + 1 y_30_ ^ 2 - 2 y_58_ * y_30_ + 1 y_58_ ^ 2 ] <= 7118.4800000000005
quadratic_ranged_208_ub: [ 1 x_32_ ^ 2 - 2 x_58_ * x_32_ + 1 x_58_ ^ 2 + 1 y_32_ ^ 2 - 2 y_58_ * y_32_ + 1 y_58_ ^ 2 ] <= 13458.25
quadratic_ranged_209_ub: [ 1 x_37_ ^ 2 - 2 x_58_ * x_37_ + 1 x_58_ ^ 2 + 1 y_37_ ^ 2 - 2 y_58_ * y_37_ + 1 y_58_ ^ 2 ] <= 17732.57
quadratic_ranged_210_ub: [ 1 x_39_ ^ 2 - 2 x_58_ * x_39_ + 1 x_58_ ^ 2 + 1 y_39_ ^ 2 - 2 y_58_ * y_39_ + 1 y_58_ ^ 2 ] <= 6642.77
quadratic_ranged_211_ub: [ 1 x_41_ ^ 2 - 2 x_58_ * x_41_ + 1 x_58_ ^ 2 + 1 y_41_ ^ 2 - 2 y_58_ * y_41_ + 1 y_58_ ^ 2 ] <= 5842.85
quadratic_ranged_212_ub: [ 1 x_57_ ^ 2 - 2 x_58_ * x_57_ + 1 x_58_ ^ 2 + 1 y_57_ ^ 2 - 2 y_58_ * y_57_ + 1 y_58_ ^ 2 ] <= 10201
quadratic_ranged_213_ub: [ 1 x_3_ ^ 2 - 2 x_59_ * x_3_ + 1 x_59_ ^ 2 + 1 y_3_ ^ 2 - 2 y_59_ * y_3_ + 1 y_59_ ^ 2 ] <= 10125.25
quadratic_ranged_214_ub: [ 1 x_15_ ^ 2 - 2 x_59_ * x_15_ + 1 x_59_ ^ 2 + 1 y_15_ ^ 2 - 2 y_59_ * y_15_ + 1 y_59_ ^ 2 ] <= 15058.09
quadratic_ranged_215_ub: [ 1 x_28_ ^ 2 - 2 x_59_ * x_28_ + 1 x_59_ ^ 2 + 1 y_28_ ^ 2 - 2 y_59_ * y_28_ + 1 y_59_ ^ 2 ] <= 2550.25
quadratic_ranged_216_ub: [ 1 x_38_ ^ 2 - 2 x_59_ * x_38_ + 1 x_59_ ^ 2 + 1 y_38_ ^ 2 - 2 y_59_ * y_38_ + 1 y_59_ ^ 2 ] <= 898.9
quadratic_ranged_217_ub: [ 1 x_40_ ^ 2 - 2 x_59_ * x_40_ + 1 x_59_ ^ 2 + 1 y_40_ ^ 2 - 2 y_59_ * y_40_ + 1 y_59_ ^ 2 ] <= 7274.02
quadratic_ranged_218_ub: [ 1 x_44_ ^ 2 - 2 x_59_ * x_44_ + 1 x_59_ ^ 2 + 1 y_44_ ^ 2 - 2 y_59_ * y_44_ + 1 y_59_ ^ 2 ] <= 15194.44
quadratic_ranged_219_ub: [ 1 x_58_ ^ 2 - 2 x_59_ * x_58_ + 1 x_59_ ^ 2 + 1 y_58_ ^ 2 - 2 y_59_ * y_58_ + 1 y_59_ ^ 2 ] <= 1335.22
quadratic_ranged_220_ub: [ 1 x_5_ ^ 2 - 2 x_60_ * x_5_ + 1 x_60_ ^ 2 + 1 y_5_ ^ 2 - 2 y_60_ * y_5_ + 1 y_60_ ^ 2 ] <= 45.45
quadratic_ranged_221_ub: [ 1 x_8_ ^ 2 - 2 x_60_ * x_8_ + 1 x_60_ ^ 2 + 1 y_8_ ^ 2 - 2 y_60_ * y_8_ + 1 y_60_ ^ 2 ] <= 6780.13
quadratic_ranged_222_ub: [ 1 x_9_ ^ 2 - 2 x_60_ * x_9_ + 1 x_60_ ^ 2 + 1 y_9_ ^ 2 - 2 y_60_ * y_9_ + 1 y_60_ ^ 2 ] <= 53563.33
quadratic_ranged_223_ub: [ 1 x_34_ ^ 2 - 2 x_60_ * x_34_ + 1 x_60_ ^ 2 + 1 y_34_ ^ 2 - 2 y_60_ * y_34_ + 1 y_60_ ^ 2 ] <= 43894.6
quadratic_ranged_224_ub: [ 1 x_45_ ^ 2 - 2 x_60_ * x_45_ + 1 x_60_ ^ 2 + 1 y_45_ ^ 2 - 2 y_60_ * y_45_ + 1 y_60_ ^ 2 ] <= 19712.170000000002
quadratic_ranged_225_ub: [ 1 x_49_ ^ 2 - 2 x_60_ * x_49_ + 1 x_60_ ^ 2 + 1 y_49_ ^ 2 - 2 y_60_ * y_49_ + 1 y_60_ ^ 2 ] <= 2065.45
quadratic_ranged_226_ub: [ 1 x_51_ ^ 2 - 2 x_60_ * x_51_ + 1 x_60_ ^ 2 + 1 y_51_ ^ 2 - 2 y_60_ * y_51_ + 1 y_60_ ^ 2 ] <= 13789.53
quadratic_ranged_227_ub: [ 1 x_59_ ^ 2 - 2 x_60_ * x_59_ + 1 x_60_ ^ 2 + 1 y_59_ ^ 2 - 2 y_60_ * y_59_ + 1 y_60_ ^ 2 ] <= 12500.77
quadratic_ranged_228_ub: [ 1 x_1_ ^ 2 - 2 x_61_ * x_1_ + 1 x_61_ ^ 2 + 1 y_1_ ^ 2 - 2 y_61_ * y_1_ + 1 y_61_ ^ 2 ] <= 3743.06
quadratic_ranged_229_ub: [ 1 x_3_ ^ 2 - 2 x_61_ * x_3_ + 1 x_61_ ^ 2 + 1 y_3_ ^ 2 - 2 y_61_ * y_3_ + 1 y_61_ ^ 2 ] <= 15555.01
quadratic_ranged_230_ub: [ 1 x_11_ ^ 2 - 2 x_61_ * x_11_ + 1 x_61_ ^ 2 + 1 y_11_ ^ 2 - 2 y_61_ * y_11_ + 1 y_61_ ^ 2 ] <= 3261.29
quadratic_ranged_231_ub: [ 1 x_15_ ^ 2 - 2 x_61_ * x_15_ + 1 x_61_ ^ 2 + 1 y_15_ ^ 2 - 2 y_61_ * y_15_ + 1 y_61_ ^ 2 ] <= 2570.45
quadratic_ranged_232_ub: [ 1 x_25_ ^ 2 - 2 x_61_ * x_25_ + 1 x_61_ ^ 2 + 1 y_25_ ^ 2 - 2 y_61_ * y_25_ + 1 y_61_ ^ 2 ] <= 4561.16
quadratic_ranged_233_ub: [ 1 x_35_ ^ 2 - 2 x_61_ * x_35_ + 1 x_61_ ^ 2 + 1 y_35_ ^ 2 - 2 y_61_ * y_35_ + 1 y_61_ ^ 2 ] <= 5107.57
quadratic_ranged_234_ub: [ 1 x_45_ ^ 2 - 2 x_61_ * x_45_ + 1 x_61_ ^ 2 + 1 y_45_ ^ 2 - 2 y_61_ * y_45_ + 1 y_61_ ^ 2 ] <= 3759.2200000000003
quadratic_ranged_235_ub: [ 1 x_48_ ^ 2 - 2 x_61_ * x_48_ + 1 x_61_ ^ 2 + 1 y_48_ ^ 2 - 2 y_61_ * y_48_ + 1 y_61_ ^ 2 ] <= 8186.05
quadratic_ranged_236_ub: [ 1 x_50_ ^ 2 - 2 x_61_ * x_50_ + 1 x_61_ ^ 2 + 1 y_50_ ^ 2 - 2 y_61_ * y_50_ + 1 y_61_ ^ 2 ] <= 21088.8
quadratic_ranged_237_ub: [ 1 x_60_ ^ 2 - 2 x_61_ * x_60_ + 1 x_61_ ^ 2 + 1 y_60_ ^ 2 - 2 y_61_ * y_60_ + 1 y_61_ ^ 2 ] <= 12044.25
quadratic_ranged_238_ub: [ 1 x_33_ ^ 2 - 2 x_62_ * x_33_ + 1 x_62_ ^ 2 + 1 y_33_ ^ 2 - 2 y_62_ * y_33_ + 1 y_62_ ^ 2 ] <= 23772.37
quadratic_ranged_239_ub: [ 1 x_38_ ^ 2 - 2 x_62_ * x_38_ + 1 x_62_ ^ 2 + 1 y_38_ ^ 2 - 2 y_62_ * y_38_ + 1 y_62_ ^ 2 ] <= 7644.6900000000005
quadratic_ranged_240_ub: [ 1 x_42_ ^ 2 - 2 x_62_ * x_42_ + 1 x_62_ ^ 2 + 1 y_42_ ^ 2 - 2 y_62_ * y_42_ + 1 y_62_ ^ 2 ] <= 2824.97
quadratic_ranged_241_ub: [ 1 x_46_ ^ 2 - 2 x_62_ * x_46_ + 1 x_62_ ^ 2 + 1 y_46_ ^ 2 - 2 y_62_ * y_46_ + 1 y_62_ ^ 2 ] <= 8372.9
quadratic_ranged_242_ub: [ 1 x_49_ ^ 2 - 2 x_62_ * x_49_ + 1 x_62_ ^ 2 + 1 y_49_ ^ 2 - 2 y_62_ * y_49_ + 1 y_62_ ^ 2 ] <= 328.25
quadratic_ranged_243_ub: [ 1 x_52_ ^ 2 - 2 x_62_ * x_52_ + 1 x_62_ ^ 2 + 1 y_52_ ^ 2 - 2 y_62_ * y_52_ + 1 y_62_ ^ 2 ] <= 2240.18
quadratic_ranged_244_ub: [ 1 x_59_ ^ 2 - 2 x_62_ * x_59_ + 1 x_62_ ^ 2 + 1 y_59_ ^ 2 - 2 y_62_ * y_59_ + 1 y_62_ ^ 2 ] <= 3338.05
quadratic_ranged_245_ub: [ 1 x_61_ ^ 2 - 2 x_62_ * x_61_ + 1 x_62_ ^ 2 + 1 y_61_ ^ 2 - 2 y_62_ * y_61_ + 1 y_62_ ^ 2 ] <= 7879.01
quadratic_ranged_246_ub: [ 1 x_1_ ^ 2 - 2 x_63_ * x_1_ + 1 x_63_ ^ 2 + 1 y_1_ ^ 2 - 2 y_63_ * y_1_ + 1 y_63_ ^ 2 ] <= 11408.960000000001
quadratic_ranged_247_ub: [ 1 x_8_ ^ 2 - 2 x_63_ * x_8_ + 1 x_63_ ^ 2 + 1 y_8_ ^ 2 - 2 y_63_ * y_8_ + 1 y_63_ ^ 2 ] <= 3961.2200000000003
quadratic_ranged_248_ub: [ 1 x_23_ ^ 2 - 2 x_63_ * x_23_ + 1 x_63_ ^ 2 + 1 y_23_ ^ 2 - 2 y_63_ * y_23_ + 1 y_63_ ^ 2 ] <= 25889.33
quadratic_ranged_249_ub: [ 1 x_26_ ^ 2 - 2 x_63_ * x_26_ + 1 x_63_ ^ 2 + 1 y_26_ ^ 2 - 2 y_63_ * y_26_ + 1 y_63_ ^ 2 ] <= 12791.65
quadratic_ranged_250_ub: [ 1 x_62_ ^ 2 - 2 x_63_ * x_62_ + 1 x_63_ ^ 2 + 1 y_62_ ^ 2 - 2 y_63_ * y_62_ + 1 y_63_ ^ 2 ] <= 15615.61
quadratic_ranged_251_ub: [ 1 x_2_ ^ 2 - 2 x_64_ * x_2_ + 1 x_64_ ^ 2 + 1 y_2_ ^ 2 - 2 y_64_ * y_2_ + 1 y_64_ ^ 2 ] <= 2949.2
quadratic_ranged_252_ub: [ 1 x_14_ ^ 2 - 2 x_64_ * x_14_ + 1 x_64_ ^ 2 + 1 y_14_ ^ 2 - 2 y_64_ * y_14_ + 1 y_64_ ^ 2 ] <= 3325.93
quadratic_ranged_253_ub: [ 1 x_15_ ^ 2 - 2 x_64_ * x_15_ + 1 x_64_ ^ 2 + 1 y_15_ ^ 2 - 2 y_64_ * y_15_ + 1 y_64_ ^ 2 ] <= 20705
quadratic_ranged_254_ub: [ 1 x_17_ ^ 2 - 2 x_64_ * x_17_ + 1 x_64_ ^ 2 + 1 y_17_ ^ 2 - 2 y_64_ * y_17_ + 1 y_64_ ^ 2 ] <= 24435.94
quadratic_ranged_255_ub: [ 1 x_24_ ^ 2 - 2 x_64_ * x_24_ + 1 x_64_ ^ 2 + 1 y_24_ ^ 2 - 2 y_64_ * y_24_ + 1 y_64_ ^ 2 ] <= 1217.05
quadratic_ranged_256_ub: [ 1 x_53_ ^ 2 - 2 x_64_ * x_53_ + 1 x_64_ ^ 2 + 1 y_53_ ^ 2 - 2 y_64_ * y_53_ + 1 y_64_ ^ 2 ] <= 5782.25
quadratic_ranged_257_ub: [ 1 x_57_ ^ 2 - 2 x_64_ * x_57_ + 1 x_64_ ^ 2 + 1 y_57_ ^ 2 - 2 y_64_ * y_57_ + 1 y_64_ ^ 2 ] <= 4873.25
quadratic_ranged_258_ub: [ 1 x_63_ ^ 2 - 2 x_64_ * x_63_ + 1 x_64_ ^ 2 + 1 y_63_ ^ 2 - 2 y_64_ * y_63_ + 1 y_64_ ^ 2 ] <= 22043.25
quadratic_ranged_259_ub: [ 1 x_13_ ^ 2 - 2 x_65_ * x_13_ + 1 x_65_ ^ 2 + 1 y_13_ ^ 2 - 2 y_65_ * y_13_ + 1 y_65_ ^ 2 ] <= 32009.93
quadratic_ranged_260_ub: [ 1 x_14_ ^ 2 - 2 x_65_ * x_14_ + 1 x_65_ ^ 2 + 1 y_14_ ^ 2 - 2 y_65_ * y_14_ + 1 y_65_ ^ 2 ] <= 3794.57
quadratic_ranged_261_ub: [ 1 x_19_ ^ 2 - 2 x_65_ * x_19_ + 1 x_65_ ^ 2 + 1 y_19_ ^ 2 - 2 y_65_ * y_19_ + 1 y_65_ ^ 2 ] <= 8898.1
quadratic_ranged_262_ub: [ 1 x_27_ ^ 2 - 2 x_65_ * x_27_ + 1 x_65_ ^ 2 + 1 y_27_ ^ 2 - 2 y_65_ * y_27_ + 1 y_65_ ^ 2 ] <= 18896.09
quadratic_ranged_263_ub: [ 1 x_39_ ^ 2 - 2 x_65_ * x_39_ + 1 x_65_ ^ 2 + 1 y_39_ ^ 2 - 2 y_65_ * y_39_ + 1 y_65_ ^ 2 ] <= 21824.08
quadratic_ranged_264_ub: [ 1 x_44_ ^ 2 - 2 x_65_ * x_44_ + 1 x_65_ ^ 2 + 1 y_44_ ^ 2 - 2 y_65_ * y_44_ + 1 y_65_ ^ 2 ] <= 37459.89
quadratic_ranged_265_ub: [ 1 x_49_ ^ 2 - 2 x_65_ * x_49_ + 1 x_65_ ^ 2 + 1 y_49_ ^ 2 - 2 y_65_ * y_49_ + 1 y_65_ ^ 2 ] <= 16084.25
quadratic_ranged_266_ub: [ 1 x_53_ ^ 2 - 2 x_65_ * x_53_ + 1 x_65_ ^ 2 + 1 y_53_ ^ 2 - 2 y_65_ * y_53_ + 1 y_65_ ^ 2 ] <= 10331.29
quadratic_ranged_267_ub: [ 1 x_64_ ^ 2 - 2 x_65_ * x_64_ + 1 x_65_ ^ 2 + 1 y_64_ ^ 2 - 2 y_65_ * y_64_ + 1 y_65_ ^ 2 ] <= 11612.98
quadratic_ranged_268_ub: [ 1 x_9_ ^ 2 - 2 x_66_ * x_9_ + 1 x_66_ ^ 2 + 1 y_9_ ^ 2 - 2 y_66_ * y_9_ + 1 y_66_ ^ 2 ] <= 28613.3
quadratic_ranged_269_ub: [ 1 x_48_ ^ 2 - 2 x_66_ * x_48_ + 1 x_66_ ^ 2 + 1 y_48_ ^ 2 - 2 y_66_ * y_48_ + 1 y_66_ ^ 2 ] <= 15094.45
quadratic_ranged_270_ub: [ 1 x_58_ ^ 2 - 2 x_66_ * x_58_ + 1 x_66_ ^ 2 + 1 y_58_ ^ 2 - 2 y_66_ * y_58_ + 1 y_66_ ^ 2 ] <= 30138.4
quadratic_ranged_271_ub: [ 1 x_65_ ^ 2 - 2 x_66_ * x_65_ + 1 x_66_ ^ 2 + 1 y_65_ ^ 2 - 2 y_66_ * y_65_ + 1 y_66_ ^ 2 ] <= 58803.21
quadratic_ranged_272_ub: [ 1 x_23_ ^ 2 - 2 x_67_ * x_23_ + 1 x_67_ ^ 2 + 1 y_23_ ^ 2 - 2 y_67_ * y_23_ + 1 y_67_ ^ 2 ] <= 12016.98
quadratic_ranged_273_ub: [ 1 x_25_ ^ 2 - 2 x_67_ * x_25_ + 1 x_67_ ^ 2 + 1 y_25_ ^ 2 - 2 y_67_ * y_25_ + 1 y_67_ ^ 2 ] <= 41467.57
quadratic_ranged_274_ub: [ 1 x_26_ ^ 2 - 2 x_67_ * x_26_ + 1 x_67_ ^ 2 + 1 y_26_ ^ 2 - 2 y_67_ * y_26_ + 1 y_67_ ^ 2 ] <= 12340.18
quadratic_ranged_275_ub: [ 1 x_28_ ^ 2 - 2 x_67_ * x_28_ + 1 x_67_ ^ 2 + 1 y_28_ ^ 2 - 2 y_67_ * y_28_ + 1 y_67_ ^ 2 ] <= 13873.36
quadratic_ranged_276_ub: [ 1 x_32_ ^ 2 - 2 x_67_ * x_32_ + 1 x_67_ ^ 2 + 1 y_32_ ^ 2 - 2 y_67_ * y_32_ + 1 y_67_ ^ 2 ] <= 21850.34
quadratic_ranged_277_ub: [ 1 x_59_ ^ 2 - 2 x_67_ * x_59_ + 1 x_67_ ^ 2 + 1 y_59_ ^ 2 - 2 y_67_ * y_59_ + 1 y_67_ ^ 2 ] <= 4590.45
quadratic_ranged_278_ub: [ 1 x_60_ ^ 2 - 2 x_67_ * x_60_ + 1 x_67_ ^ 2 + 1 y_60_ ^ 2 - 2 y_67_ * y_60_ + 1 y_67_ ^ 2 ] <= 25569.16
quadratic_ranged_279_ub: [ 1 x_63_ ^ 2 - 2 x_67_ * x_63_ + 1 x_67_ ^ 2 + 1 y_63_ ^ 2 - 2 y_67_ * y_63_ + 1 y_67_ ^ 2 ] <= 34967.21
quadratic_ranged_280_ub: [ 1 x_66_ ^ 2 - 2 x_67_ * x_66_ + 1 x_67_ ^ 2 + 1 y_66_ ^ 2 - 2 y_67_ * y_66_ + 1 y_67_ ^ 2 ] <= 39988.93
quadratic_ranged_281_ub: [ 1 x_7_ ^ 2 - 2 x_68_ * x_7_ + 1 x_68_ ^ 2 + 1 y_7_ ^ 2 - 2 y_68_ * y_7_ + 1 y_68_ ^ 2 ] <= 7208.37
quadratic_ranged_282_ub: [ 1 x_11_ ^ 2 - 2 x_68_ * x_11_ + 1 x_68_ ^ 2 + 1 y_11_ ^ 2 - 2 y_68_ * y_11_ + 1 y_68_ ^ 2 ] <= 4997.4800000000005
quadratic_ranged_283_ub: [ 1 x_14_ ^ 2 - 2 x_68_ * x_14_ + 1 x_68_ ^ 2 + 1 y_14_ ^ 2 - 2 y_68_ * y_14_ + 1 y_68_ ^ 2 ] <= 26046.89
quadratic_ranged_284_ub: [ 1 x_15_ ^ 2 - 2 x_68_ * x_15_ + 1 x_68_ ^ 2 + 1 y_15_ ^ 2 - 2 y_68_ * y_15_ + 1 y_68_ ^ 2 ] <= 52.52
quadratic_ranged_285_ub: [ 1 x_16_ ^ 2 - 2 x_68_ * x_16_ + 1 x_68_ ^ 2 + 1 y_16_ ^ 2 - 2 y_68_ * y_16_ + 1 y_68_ ^ 2 ] <= 5383.3
quadratic_ranged_286_ub: [ 1 x_21_ ^ 2 - 2 x_68_ * x_21_ + 1 x_68_ ^ 2 + 1 y_21_ ^ 2 - 2 y_68_ * y_21_ + 1 y_68_ ^ 2 ] <= 914.05
quadratic_ranged_287_ub: [ 1 x_29_ ^ 2 - 2 x_68_ * x_29_ + 1 x_68_ ^ 2 + 1 y_29_ ^ 2 - 2 y_68_ * y_29_ + 1 y_68_ ^ 2 ] <= 2489.65
quadratic_ranged_288_ub: [ 1 x_38_ ^ 2 - 2 x_68_ * x_38_ + 1 x_68_ ^ 2 + 1 y_38_ ^ 2 - 2 y_68_ * y_38_ + 1 y_68_ ^ 2 ] <= 18423.41
quadratic_ranged_289_ub: [ 1 x_41_ ^ 2 - 2 x_68_ * x_41_ + 1 x_68_ ^ 2 + 1 y_41_ ^ 2 - 2 y_68_ * y_41_ + 1 y_68_ ^ 2 ] <= 11217.06
quadratic_ranged_290_ub: [ 1 x_54_ ^ 2 - 2 x_68_ * x_54_ + 1 x_68_ ^ 2 + 1 y_54_ ^ 2 - 2 y_68_ * y_54_ + 1 y_68_ ^ 2 ] <= 6549.85
quadratic_ranged_291_ub: [ 1 x_67_ ^ 2 - 2 x_68_ * x_67_ + 1 x_68_ ^ 2 + 1 y_67_ ^ 2 - 2 y_68_ * y_67_ + 1 y_68_ ^ 2 ] <= 35804.5
quadratic_ranged_292_ub: [ 1 x_17_ ^ 2 - 2 x_69_ * x_17_ + 1 x_69_ ^ 2 + 1 y_17_ ^ 2 - 2 y_69_ * y_17_ + 1 y_69_ ^ 2 ] <= 2056.36
quadratic_ranged_293_ub: [ 1 x_21_ ^ 2 - 2 x_69_ * x_21_ + 1 x_69_ ^ 2 + 1 y_21_ ^ 2 - 2 y_69_ * y_21_ + 1 y_69_ ^ 2 ] <= 607.01
quadratic_ranged_294_ub: [ 1 x_23_ ^ 2 - 2 x_69_ * x_23_ + 1 x_69_ ^ 2 + 1 y_23_ ^ 2 - 2 y_69_ * y_23_ + 1 y_69_ ^ 2 ] <= 25510.58
quadratic_ranged_295_ub: [ 1 x_33_ ^ 2 - 2 x_69_ * x_33_ + 1 x_69_ ^ 2 + 1 y_33_ ^ 2 - 2 y_69_ * y_33_ + 1 y_69_ ^ 2 ] <= 11967.49
quadratic_ranged_296_ub: [ 1 x_37_ ^ 2 - 2 x_69_ * x_37_ + 1 x_69_ ^ 2 + 1 y_37_ ^ 2 - 2 y_69_ * y_37_ + 1 y_69_ ^ 2 ] <= 26122.64
quadratic_ranged_297_ub: [ 1 x_44_ ^ 2 - 2 x_69_ * x_44_ + 1 x_69_ ^ 2 + 1 y_44_ ^ 2 - 2 y_69_ * y_44_ + 1 y_69_ ^ 2 ] <= 16896.29
quadratic_ranged_298_ub: [ 1 x_51_ ^ 2 - 2 x_69_ * x_51_ + 1 x_69_ ^ 2 + 1 y_51_ ^ 2 - 2 y_69_ * y_51_ + 1 y_69_ ^ 2 ] <= 8206.25
quadratic_ranged_299_ub: [ 1 x_68_ ^ 2 - 2 x_69_ * x_68_ + 1 x_69_ ^ 2 + 1 y_68_ ^ 2 - 2 y_69_ * y_68_ + 1 y_69_ ^ 2 ] <= 1270.58
quadratic_ranged_300_ub: [ 1 x_5_ ^ 2 - 2 x_70_ * x_5_ + 1 x_70_ ^ 2 + 1 y_5_ ^ 2 - 2 y_70_ * y_5_ + 1 y_70_ ^ 2 ] <= 27258.89
quadratic_ranged_301_ub: [ 1 x_19_ ^ 2 - 2 x_70_ * x_19_ + 1 x_70_ ^ 2 + 1 y_19_ ^ 2 - 2 y_70_ * y_19_ + 1 y_70_ ^ 2 ] <= 10342.4
quadratic_ranged_302_ub: [ 1 x_29_ ^ 2 - 2 x_70_ * x_29_ + 1 x_70_ ^ 2 + 1 y_29_ ^ 2 - 2 y_70_ * y_29_ + 1 y_70_ ^ 2 ] <= 24838.93
quadratic_ranged_303_ub: [ 1 x_31_ ^ 2 - 2 x_70_ * x_31_ + 1 x_70_ ^ 2 + 1 y_31_ ^ 2 - 2 y_70_ * y_31_ + 1 y_70_ ^ 2 ] <= 481.77
quadratic_ranged_304_ub: [ 1 x_39_ ^ 2 - 2 x_70_ * x_39_ + 1 x_70_ ^ 2 + 1 y_39_ ^ 2 - 2 y_70_ * y_39_ + 1 y_70_ ^ 2 ] <= 9512.18
quadratic_ranged_305_ub: [ 1 x_53_ ^ 2 - 2 x_70_ * x_53_ + 1 x_70_ ^ 2 + 1 y_53_ ^ 2 - 2 y_70_ * y_53_ + 1 y_70_ ^ 2 ] <= 6008.49
quadratic_ranged_306_ub: [ 1 x_64_ ^ 2 - 2 x_70_ * x_64_ + 1 x_70_ ^ 2 + 1 y_64_ ^ 2 - 2 y_70_ * y_64_ + 1 y_70_ ^ 2 ] <= 14996.48
quadratic_ranged_307_ub: [ 1 x_69_ ^ 2 - 2 x_70_ * x_69_ + 1 x_70_ ^ 2 + 1 y_69_ ^ 2 - 2 y_70_ * y_69_ + 1 y_70_ ^ 2 ] <= 30156.58
quadratic_ranged_308_ub: [ 1 x_4_ ^ 2 - 2 x_71_ * x_4_ + 1 x_71_ ^ 2 + 1 y_4_ ^ 2 - 2 y_71_ * y_4_ + 1 y_71_ ^ 2 ] <= 2238.16
quadratic_ranged_309_ub: [ 1 x_7_ ^ 2 - 2 x_71_ * x_7_ + 1 x_71_ ^ 2 + 1 y_7_ ^ 2 - 2 y_71_ * y_7_ + 1 y_71_ ^ 2 ] <= 7530.56
quadratic_ranged_310_ub: [ 1 x_13_ ^ 2 - 2 x_71_ * x_13_ + 1 x_71_ ^ 2 + 1 y_13_ ^ 2 - 2 y_71_ * y_13_ + 1 y_71_ ^ 2 ] <= 22547.24
quadratic_ranged_311_ub: [ 1 x_21_ ^ 2 - 2 x_71_ * x_21_ + 1 x_71_ ^ 2 + 1 y_21_ ^ 2 - 2 y_71_ * y_21_ + 1 y_71_ ^ 2 ] <= 12625
quadratic_ranged_312_ub: [ 1 x_31_ ^ 2 - 2 x_71_ * x_31_ + 1 x_71_ ^ 2 + 1 y_31_ ^ 2 - 2 y_71_ * y_31_ + 1 y_71_ ^ 2 ] <= 7053.84
quadratic_ranged_313_ub: [ 1 x_35_ ^ 2 - 2 x_71_ * x_35_ + 1 x_71_ ^ 2 + 1 y_35_ ^ 2 - 2 y_71_ * y_35_ + 1 y_71_ ^ 2 ] <= 27695.21
quadratic_ranged_314_ub: [ 1 x_48_ ^ 2 - 2 x_71_ * x_48_ + 1 x_71_ ^ 2 + 1 y_48_ ^ 2 - 2 y_71_ * y_48_ + 1 y_71_ ^ 2 ] <= 9773.77
quadratic_ranged_315_ub: [ 1 x_50_ ^ 2 - 2 x_71_ * x_50_ + 1 x_71_ ^ 2 + 1 y_50_ ^ 2 - 2 y_71_ * y_50_ + 1 y_71_ ^ 2 ] <= 14941.94
quadratic_ranged_316_ub: [ 1 x_63_ ^ 2 - 2 x_71_ * x_63_ + 1 x_71_ ^ 2 + 1 y_63_ ^ 2 - 2 y_71_ * y_63_ + 1 y_71_ ^ 2 ] <= 19408.16
quadratic_ranged_317_ub: [ 1 x_70_ ^ 2 - 2 x_71_ * x_70_ + 1 x_71_ ^ 2 + 1 y_70_ ^ 2 - 2 y_71_ * y_70_ + 1 y_71_ ^ 2 ] <= 5317.65
quadratic_ranged_318_ub: [ 1 x_4_ ^ 2 - 2 x_72_ * x_4_ + 1 x_72_ ^ 2 + 1 y_4_ ^ 2 - 2 y_72_ * y_4_ + 1 y_72_ ^ 2 ] <= 276.74
quadratic_ranged_319_ub: [ 1 x_6_ ^ 2 - 2 x_72_ * x_6_ + 1 x_72_ ^ 2 + 1 y_6_ ^ 2 - 2 y_72_ * y_6_ + 1 y_72_ ^ 2 ] <= 26229.7
quadratic_ranged_320_ub: [ 1 x_10_ ^ 2 - 2 x_72_ * x_10_ + 1 x_72_ ^ 2 + 1 y_10_ ^ 2 - 2 y_72_ * y_10_ + 1 y_72_ ^ 2 ] <= 849.41
quadratic_ranged_321_ub: [ 1 x_21_ ^ 2 - 2 x_72_ * x_21_ + 1 x_72_ ^ 2 + 1 y_21_ ^ 2 - 2 y_72_ * y_21_ + 1 y_72_ ^ 2 ] <= 23223.94
quadratic_ranged_322_ub: [ 1 x_62_ ^ 2 - 2 x_72_ * x_62_ + 1 x_72_ ^ 2 + 1 y_62_ ^ 2 - 2 y_72_ * y_62_ + 1 y_72_ ^ 2 ] <= 10044.45
quadratic_ranged_323_ub: [ 1 x_68_ ^ 2 - 2 x_72_ * x_68_ + 1 x_72_ ^ 2 + 1 y_68_ ^ 2 - 2 y_72_ * y_68_ + 1 y_72_ ^ 2 ] <= 33331.01
quadratic_ranged_324_ub: [ 1 x_69_ ^ 2 - 2 x_72_ * x_69_ + 1 x_72_ ^ 2 + 1 y_69_ ^ 2 - 2 y_72_ * y_69_ + 1 y_72_ ^ 2 ] <= 25598.45
quadratic_ranged_325_ub: [ 1 x_71_ ^ 2 - 2 x_72_ * x_71_ + 1 x_72_ ^ 2 + 1 y_71_ ^ 2 - 2 y_72_ * y_71_ + 1 y_72_ ^ 2 ] <= 4050.1
quadratic_ranged_326_ub: [ 1 x_7_ ^ 2 - 2 x_73_ * x_7_ + 1 x_73_ ^ 2 + 1 y_7_ ^ 2 - 2 y_73_ * y_7_ + 1 y_73_ ^ 2 ] <= 6191.3
quadratic_ranged_327_ub: [ 1 x_13_ ^ 2 - 2 x_73_ * x_13_ + 1 x_73_ ^ 2 + 1 y_13_ ^ 2 - 2 y_73_ * y_13_ + 1 y_73_ ^ 2 ] <= 7742.66
quadratic_ranged_328_ub: [ 1 x_31_ ^ 2 - 2 x_73_ * x_31_ + 1 x_73_ ^ 2 + 1 y_31_ ^ 2 - 2 y_73_ * y_31_ + 1 y_73_ ^ 2 ] <= 1141.3
quadratic_ranged_329_ub: [ 1 x_38_ ^ 2 - 2 x_73_ * x_38_ + 1 x_73_ ^ 2 + 1 y_38_ ^ 2 - 2 y_73_ * y_38_ + 1 y_73_ ^ 2 ] <= 618.12
quadratic_ranged_330_ub: [ 1 x_51_ ^ 2 - 2 x_73_ * x_51_ + 1 x_73_ ^ 2 + 1 y_51_ ^ 2 - 2 y_73_ * y_51_ + 1 y_73_ ^ 2 ] <= 2628.02
quadratic_ranged_331_ub: [ 1 x_58_ ^ 2 - 2 x_73_ * x_58_ + 1 x_73_ ^ 2 + 1 y_58_ ^ 2 - 2 y_73_ * y_58_ + 1 y_73_ ^ 2 ] <= 1292.8
quadratic_ranged_332_ub: [ 1 x_70_ ^ 2 - 2 x_73_ * x_70_ + 1 x_73_ ^ 2 + 1 y_70_ ^ 2 - 2 y_73_ * y_70_ + 1 y_73_ ^ 2 ] <= 1992.73
quadratic_ranged_333_ub: [ 1 x_72_ ^ 2 - 2 x_73_ * x_72_ + 1 x_73_ ^ 2 + 1 y_72_ ^ 2 - 2 y_73_ * y_72_ + 1 y_73_ ^ 2 ] <= 1054.44
quadratic_ranged_334_ub: [ 1 x_8_ ^ 2 - 2 x_74_ * x_8_ + 1 x_74_ ^ 2 + 1 y_8_ ^ 2 - 2 y_74_ * y_8_ + 1 y_74_ ^ 2 ] <= 20625.21
quadratic_ranged_335_ub: [ 1 x_16_ ^ 2 - 2 x_74_ * x_16_ + 1 x_74_ ^ 2 + 1 y_16_ ^ 2 - 2 y_74_ * y_16_ + 1 y_74_ ^ 2 ] <= 37468.98
quadratic_ranged_336_ub: [ 1 x_27_ ^ 2 - 2 x_74_ * x_27_ + 1 x_74_ ^ 2 + 1 y_27_ ^ 2 - 2 y_74_ * y_27_ + 1 y_74_ ^ 2 ] <= 11846.29
quadratic_ranged_337_ub: [ 1 x_45_ ^ 2 - 2 x_74_ * x_45_ + 1 x_74_ ^ 2 + 1 y_45_ ^ 2 - 2 y_74_ * y_45_ + 1 y_74_ ^ 2 ] <= 6085.25
quadratic_ranged_338_ub: [ 1 x_47_ ^ 2 - 2 x_74_ * x_47_ + 1 x_74_ ^ 2 + 1 y_47_ ^ 2 - 2 y_74_ * y_47_ + 1 y_74_ ^ 2 ] <= 3661.25
quadratic_ranged_339_ub: [ 1 x_53_ ^ 2 - 2 x_74_ * x_53_ + 1 x_74_ ^ 2 + 1 y_53_ ^ 2 - 2 y_74_ * y_53_ + 1 y_74_ ^ 2 ] <= 15058.09
quadratic_ranged_340_ub: [ 1 x_54_ ^ 2 - 2 x_74_ * x_54_ + 1 x_74_ ^ 2 + 1 y_54_ ^ 2 - 2 y_74_ * y_54_ + 1 y_74_ ^ 2 ] <= 28369.89
quadratic_ranged_341_ub: [ 1 x_58_ ^ 2 - 2 x_74_ * x_58_ + 1 x_74_ ^ 2 + 1 y_58_ ^ 2 - 2 y_74_ * y_58_ + 1 y_74_ ^ 2 ] <= 15324.73
quadratic_ranged_342_ub: [ 1 x_63_ ^ 2 - 2 x_74_ * x_63_ + 1 x_74_ ^ 2 + 1 y_63_ ^ 2 - 2 y_74_ * y_63_ + 1 y_74_ ^ 2 ] <= 24422.81
quadratic_ranged_343_ub: [ 1 x_73_ ^ 2 - 2 x_74_ * x_73_ + 1 x_74_ ^ 2 + 1 y_73_ ^ 2 - 2 y_74_ * y_73_ + 1 y_74_ ^ 2 ] <= 8182.01
quadratic_ranged_344_ub: [ 1 x_13_ ^ 2 - 2 x_75_ * x_13_ + 1 x_75_ ^ 2 + 1 y_13_ ^ 2 - 2 y_75_ * y_13_ + 1 y_75_ ^ 2 ] <= 958.49
quadratic_ranged_345_ub: [ 1 x_35_ ^ 2 - 2 x_75_ * x_35_ + 1 x_75_ ^ 2 + 1 y_35_ ^ 2 - 2 y_75_ * y_35_ + 1 y_75_ ^ 2 ] <= 29550.58
quadratic_ranged_346_ub: [ 1 x_62_ ^ 2 - 2 x_75_ * x_62_ + 1 x_75_ ^ 2 + 1 y_62_ ^ 2 - 2 y_75_ * y_62_ + 1 y_75_ ^ 2 ] <= 25338.88
quadratic_ranged_347_ub: [ 1 x_67_ ^ 2 - 2 x_75_ * x_67_ + 1 x_75_ ^ 2 + 1 y_67_ ^ 2 - 2 y_75_ * y_67_ + 1 y_75_ ^ 2 ] <= 8694.08
quadratic_ranged_348_ub: [ 1 x_70_ ^ 2 - 2 x_75_ * x_70_ + 1 x_75_ ^ 2 + 1 y_70_ ^ 2 - 2 y_75_ * y_70_ + 1 y_75_ ^ 2 ] <= 8760.74
quadratic_ranged_349_ub: [ 1 x_74_ ^ 2 - 2 x_75_ * x_74_ + 1 x_75_ ^ 2 + 1 y_74_ ^ 2 - 2 y_75_ * y_74_ + 1 y_75_ ^ 2 ] <= 1973.54
quadratic_ranged_350_ub: [ 1 x_14_ ^ 2 - 2 x_76_ * x_14_ + 1 x_76_ ^ 2 + 1 y_14_ ^ 2 - 2 y_76_ * y_14_ + 1 y_76_ ^ 2 ] <= 27743.69
quadratic_ranged_351_ub: [ 1 x_16_ ^ 2 - 2 x_76_ * x_16_ + 1 x_76_ ^ 2 + 1 y_16_ ^ 2 - 2 y_76_ * y_16_ + 1 y_76_ ^ 2 ] <= 38810.26
quadratic_ranged_352_ub: [ 1 x_34_ ^ 2 - 2 x_76_ * x_34_ + 1 x_76_ ^ 2 + 1 y_34_ ^ 2 - 2 y_76_ * y_34_ + 1 y_76_ ^ 2 ] <= 292.9
quadratic_ranged_353_ub: [ 1 x_38_ ^ 2 - 2 x_76_ * x_38_ + 1 x_76_ ^ 2 + 1 y_38_ ^ 2 - 2 y_76_ * y_38_ + 1 y_76_ ^ 2 ] <= 9082.93
quadratic_ranged_354_ub: [ 1 x_71_ ^ 2 - 2 x_76_ * x_71_ + 1 x_76_ ^ 2 + 1 y_71_ ^ 2 - 2 y_76_ * y_71_ + 1 y_76_ ^ 2 ] <= 23562.29
quadratic_ranged_355_ub: [ 1 x_73_ ^ 2 - 2 x_76_ * x_73_ + 1 x_76_ ^ 2 + 1 y_73_ ^ 2 - 2 y_76_ * y_73_ + 1 y_76_ ^ 2 ] <= 9701.05
quadratic_ranged_356_ub: [ 1 x_74_ ^ 2 - 2 x_76_ * x_74_ + 1 x_76_ ^ 2 + 1 y_74_ ^ 2 - 2 y_76_ * y_74_ + 1 y_76_ ^ 2 ] <= 68.68
quadratic_ranged_357_ub: [ 1 x_75_ ^ 2 - 2 x_76_ * x_75_ + 1 x_76_ ^ 2 + 1 y_75_ ^ 2 - 2 y_76_ * y_75_ + 1 y_76_ ^ 2 ] <= 2716.9
quadratic_ranged_358_ub: [ 1 x_2_ ^ 2 - 2 x_77_ * x_2_ + 1 x_77_ ^ 2 + 1 y_2_ ^ 2 - 2 y_77_ * y_2_ + 1 y_77_ ^ 2 ] <= 3767.3
quadratic_ranged_359_ub: [ 1 x_3_ ^ 2 - 2 x_77_ * x_3_ + 1 x_77_ ^ 2 + 1 y_3_ ^ 2 - 2 y_77_ * y_3_ + 1 y_77_ ^ 2 ] <= 8655.7
quadratic_ranged_360_ub: [ 1 x_4_ ^ 2 - 2 x_77_ * x_4_ + 1 x_77_ ^ 2 + 1 y_4_ ^ 2 - 2 y_77_ * y_4_ + 1 y_77_ ^ 2 ] <= 7992.13
quadratic_ranged_361_ub: [ 1 x_34_ ^ 2 - 2 x_77_ * x_34_ + 1 x_77_ ^ 2 + 1 y_34_ ^ 2 - 2 y_77_ * y_34_ + 1 y_77_ ^ 2 ] <= 14596.52
quadratic_ranged_362_ub: [ 1 x_71_ ^ 2 - 2 x_77_ * x_71_ + 1 x_77_ ^ 2 + 1 y_71_ ^ 2 - 2 y_77_ * y_71_ + 1 y_77_ ^ 2 ] <= 3164.33
quadratic_ranged_363_ub: [ 1 x_76_ ^ 2 - 2 x_77_ * x_76_ + 1 x_77_ ^ 2 + 1 y_76_ ^ 2 - 2 y_77_ * y_76_ + 1 y_77_ ^ 2 ] <= 18012.34
quadratic_ranged_364_ub: [ 1 x_1_ ^ 2 - 2 x_78_ * x_1_ + 1 x_78_ ^ 2 + 1 y_1_ ^ 2 - 2 y_78_ * y_1_ + 1 y_78_ ^ 2 ] <= 12916.89
quadratic_ranged_365_ub: [ 1 x_2_ ^ 2 - 2 x_78_ * x_2_ + 1 x_78_ ^ 2 + 1 y_2_ ^ 2 - 2 y_78_ * y_2_ + 1 y_78_ ^ 2 ] <= 12097.78
quadratic_ranged_366_ub: [ 1 x_16_ ^ 2 - 2 x_78_ * x_16_ + 1 x_78_ ^ 2 + 1 y_16_ ^ 2 - 2 y_78_ * y_16_ + 1 y_78_ ^ 2 ] <= 8.08
quadratic_ranged_367_ub: [ 1 x_26_ ^ 2 - 2 x_78_ * x_26_ + 1 x_78_ ^ 2 + 1 y_26_ ^ 2 - 2 y_78_ * y_26_ + 1 y_78_ ^ 2 ] <= 21826.1
quadratic_ranged_368_ub: [ 1 x_46_ ^ 2 - 2 x_78_ * x_46_ + 1 x_78_ ^ 2 + 1 y_46_ ^ 2 - 2 y_78_ * y_46_ + 1 y_78_ ^ 2 ] <= 26811.46
quadratic_ranged_369_ub: [ 1 x_47_ ^ 2 - 2 x_78_ * x_47_ + 1 x_78_ ^ 2 + 1 y_47_ ^ 2 - 2 y_78_ * y_47_ + 1 y_78_ ^ 2 ] <= 20871.65
quadratic_ranged_370_ub: [ 1 x_58_ ^ 2 - 2 x_78_ * x_58_ + 1 x_78_ ^ 2 + 1 y_58_ ^ 2 - 2 y_78_ * y_58_ + 1 y_78_ ^ 2 ] <= 19243.53
quadratic_ranged_371_ub: [ 1 x_63_ ^ 2 - 2 x_78_ * x_63_ + 1 x_78_ ^ 2 + 1 y_63_ ^ 2 - 2 y_78_ * y_63_ + 1 y_78_ ^ 2 ] <= 6170.09
quadratic_ranged_372_ub: [ 1 x_77_ ^ 2 - 2 x_78_ * x_77_ + 1 x_78_ ^ 2 + 1 y_77_ ^ 2 - 2 y_78_ * y_77_ + 1 y_78_ ^ 2 ] <= 5252
quadratic_ranged_373_ub: [ 1 x_1_ ^ 2 - 2 x_79_ * x_1_ + 1 x_79_ ^ 2 + 1 y_1_ ^ 2 - 2 y_79_ * y_1_ + 1 y_79_ ^ 2 ] <= 4058.18
quadratic_ranged_374_ub: [ 1 x_3_ ^ 2 - 2 x_79_ * x_3_ + 1 x_79_ ^ 2 + 1 y_3_ ^ 2 - 2 y_79_ * y_3_ + 1 y_79_ ^ 2 ] <= 32110.93
quadratic_ranged_375_ub: [ 1 x_8_ ^ 2 - 2 x_79_ * x_8_ + 1 x_79_ ^ 2 + 1 y_8_ ^ 2 - 2 y_79_ * y_8_ + 1 y_79_ ^ 2 ] <= 8778.92
quadratic_ranged_376_ub: [ 1 x_13_ ^ 2 - 2 x_79_ * x_13_ + 1 x_79_ ^ 2 + 1 y_13_ ^ 2 - 2 y_79_ * y_13_ + 1 y_79_ ^ 2 ] <= 6070.1
quadratic_ranged_377_ub: [ 1 x_22_ ^ 2 - 2 x_79_ * x_22_ + 1 x_79_ ^ 2 + 1 y_22_ ^ 2 - 2 y_79_ * y_22_ + 1 y_79_ ^ 2 ] <= 19296.05
quadratic_ranged_378_ub: [ 1 x_49_ ^ 2 - 2 x_79_ * x_49_ + 1 x_79_ ^ 2 + 1 y_49_ ^ 2 - 2 y_79_ * y_49_ + 1 y_79_ ^ 2 ] <= 18335.54
quadratic_ranged_379_ub: [ 1 x_61_ ^ 2 - 2 x_79_ * x_61_ + 1 x_79_ ^ 2 + 1 y_61_ ^ 2 - 2 y_79_ * y_61_ + 1 y_79_ ^ 2 ] <= 5058.08
quadratic_ranged_380_ub: [ 1 x_69_ ^ 2 - 2 x_79_ * x_69_ + 1 x_79_ ^ 2 + 1 y_69_ ^ 2 - 2 y_79_ * y_69_ + 1 y_79_ ^ 2 ] <= 4428.85
quadratic_ranged_381_ub: [ 1 x_74_ ^ 2 - 2 x_79_ * x_74_ + 1 x_79_ ^ 2 + 1 y_74_ ^ 2 - 2 y_79_ * y_74_ + 1 y_79_ ^ 2 ] <= 3479.45
quadratic_ranged_382_ub: [ 1 x_78_ ^ 2 - 2 x_79_ * x_78_ + 1 x_79_ ^ 2 + 1 y_78_ ^ 2 - 2 y_79_ * y_78_ + 1 y_79_ ^ 2 ] <= 20835.29
quadratic_ranged_383_ub: [ 1 x_3_ ^ 2 - 2 x_80_ * x_3_ + 1 x_80_ ^ 2 + 1 y_3_ ^ 2 - 2 y_80_ * y_3_ + 1 y_80_ ^ 2 ] <= 1345.32
quadratic_ranged_384_ub: [ 1 x_7_ ^ 2 - 2 x_80_ * x_7_ + 1 x_80_ ^ 2 + 1 y_7_ ^ 2 - 2 y_80_ * y_7_ + 1 y_80_ ^ 2 ] <= 21239.29
quadratic_ranged_385_ub: [ 1 x_9_ ^ 2 - 2 x_80_ * x_9_ + 1 x_80_ ^ 2 + 1 y_9_ ^ 2 - 2 y_80_ * y_9_ + 1 y_80_ ^ 2 ] <= 58076.01
quadratic_ranged_386_ub: [ 1 x_25_ ^ 2 - 2 x_80_ * x_25_ + 1 x_80_ ^ 2 + 1 y_25_ ^ 2 - 2 y_80_ * y_25_ + 1 y_80_ ^ 2 ] <= 29961.65
quadratic_ranged_387_ub: [ 1 x_52_ ^ 2 - 2 x_80_ * x_52_ + 1 x_80_ ^ 2 + 1 y_52_ ^ 2 - 2 y_80_ * y_52_ + 1 y_80_ ^ 2 ] <= 11417.04
quadratic_ranged_388_ub: [ 1 x_54_ ^ 2 - 2 x_80_ * x_54_ + 1 x_80_ ^ 2 + 1 y_54_ ^ 2 - 2 y_80_ * y_54_ + 1 y_80_ ^ 2 ] <= 4412.69
quadratic_ranged_389_ub: [ 1 x_68_ ^ 2 - 2 x_80_ * x_68_ + 1 x_80_ ^ 2 + 1 y_68_ ^ 2 - 2 y_80_ * y_68_ + 1 y_80_ ^ 2 ] <= 18878.920000000002
quadratic_ranged_390_ub: [ 1 x_71_ ^ 2 - 2 x_80_ * x_71_ + 1 x_80_ ^ 2 + 1 y_71_ ^ 2 - 2 y_80_ * y_71_ + 1 y_80_ ^ 2 ] <= 10048.49
quadratic_ranged_391_ub: [ 1 x_73_ ^ 2 - 2 x_80_ * x_73_ + 1 x_80_ ^ 2 + 1 y_73_ ^ 2 - 2 y_80_ * y_73_ + 1 y_80_ ^ 2 ] <= 27695.21
quadratic_ranged_392_ub: [ 1 x_79_ ^ 2 - 2 x_80_ * x_79_ + 1 x_80_ ^ 2 + 1 y_79_ ^ 2 - 2 y_80_ * y_79_ + 1 y_80_ ^ 2 ] <= 34789.45
quadratic_ranged_393_ub: [ 1 x_5_ ^ 2 - 2 x_81_ * x_5_ + 1 x_81_ ^ 2 + 1 y_5_ ^ 2 - 2 y_81_ * y_5_ + 1 y_81_ ^ 2 ] <= 22343.22
quadratic_ranged_394_ub: [ 1 x_21_ ^ 2 - 2 x_81_ * x_21_ + 1 x_81_ ^ 2 + 1 y_21_ ^ 2 - 2 y_81_ * y_21_ + 1 y_81_ ^ 2 ] <= 10667.62
quadratic_ranged_395_ub: [ 1 x_29_ ^ 2 - 2 x_81_ * x_29_ + 1 x_81_ ^ 2 + 1 y_29_ ^ 2 - 2 y_81_ * y_29_ + 1 y_81_ ^ 2 ] <= 7922.4400000000005
quadratic_ranged_396_ub: [ 1 x_47_ ^ 2 - 2 x_81_ * x_47_ + 1 x_81_ ^ 2 + 1 y_47_ ^ 2 - 2 y_81_ * y_47_ + 1 y_81_ ^ 2 ] <= 5050
quadratic_ranged_397_ub: [ 1 x_57_ ^ 2 - 2 x_81_ * x_57_ + 1 x_81_ ^ 2 + 1 y_57_ ^ 2 - 2 y_81_ * y_57_ + 1 y_81_ ^ 2 ] <= 10007.08
quadratic_ranged_398_ub: [ 1 x_59_ ^ 2 - 2 x_81_ * x_59_ + 1 x_81_ ^ 2 + 1 y_59_ ^ 2 - 2 y_81_ * y_59_ + 1 y_81_ ^ 2 ] <= 1383.7
quadratic_ranged_399_ub: [ 1 x_64_ ^ 2 - 2 x_81_ * x_64_ + 1 x_81_ ^ 2 + 1 y_64_ ^ 2 - 2 y_81_ * y_64_ + 1 y_81_ ^ 2 ] <= 14775.29
quadratic_ranged_400_ub: [ 1 x_69_ ^ 2 - 2 x_81_ * x_69_ + 1 x_81_ ^ 2 + 1 y_69_ ^ 2 - 2 y_81_ * y_69_ + 1 y_81_ ^ 2 ] <= 11175.65
quadratic_ranged_401_ub: [ 1 x_70_ ^ 2 - 2 x_81_ * x_70_ + 1 x_81_ ^ 2 + 1 y_70_ ^ 2 - 2 y_81_ * y_70_ + 1 y_81_ ^ 2 ] <= 5176.25
quadratic_ranged_402_ub: [ 1 x_71_ ^ 2 - 2 x_81_ * x_71_ + 1 x_81_ ^ 2 + 1 y_71_ ^ 2 - 2 y_81_ * y_71_ + 1 y_81_ ^ 2 ] <= 4639.94
quadratic_ranged_403_ub: [ 1 x_80_ ^ 2 - 2 x_81_ * x_80_ + 1 x_81_ ^ 2 + 1 y_80_ ^ 2 - 2 y_81_ * y_80_ + 1 y_81_ ^ 2 ] <= 24705.61
quadratic_ranged_404_ub: [ 1 x_8_ ^ 2 - 2 x_82_ * x_8_ + 1 x_82_ ^ 2 + 1 y_8_ ^ 2 - 2 y_82_ * y_8_ + 1 y_82_ ^ 2 ] <= 1068.58
quadratic_ranged_405_ub: [ 1 x_25_ ^ 2 - 2 x_82_ * x_25_ + 1 x_82_ ^ 2 + 1 y_25_ ^ 2 - 2 y_82_ * y_25_ + 1 y_82_ ^ 2 ] <= 7274.02
quadratic_ranged_406_ub: [ 1 x_26_ ^ 2 - 2 x_82_ * x_26_ + 1 x_82_ ^ 2 + 1 y_26_ ^ 2 - 2 y_82_ * y_26_ + 1 y_82_ ^ 2 ] <= 3907.69
quadratic_ranged_407_ub: [ 1 x_38_ ^ 2 - 2 x_82_ * x_38_ + 1 x_82_ ^ 2 + 1 y_38_ ^ 2 - 2 y_82_ * y_38_ + 1 y_82_ ^ 2 ] <= 4300.58
quadratic_ranged_408_ub: [ 1 x_73_ ^ 2 - 2 x_82_ * x_73_ + 1 x_82_ ^ 2 + 1 y_73_ ^ 2 - 2 y_82_ * y_73_ + 1 y_82_ ^ 2 ] <= 8178.9800000000005
quadratic_ranged_409_ub: [ 1 x_81_ ^ 2 - 2 x_82_ * x_81_ + 1 x_82_ ^ 2 + 1 y_81_ ^ 2 - 2 y_82_ * y_81_ + 1 y_82_ ^ 2 ] <= 4058.18
quadratic_ranged_410_ub: [ 1 x_13_ ^ 2 - 2 x_83_ * x_13_ + 1 x_83_ ^ 2 + 1 y_13_ ^ 2 - 2 y_83_ * y_13_ + 1 y_83_ ^ 2 ] <= 52686.65
quadratic_ranged_411_ub: [ 1 x_16_ ^ 2 - 2 x_83_ * x_16_ + 1 x_83_ ^ 2 + 1 y_16_ ^ 2 - 2 y_83_ * y_16_ + 1 y_83_ ^ 2 ] <= 2670.44
quadratic_ranged_412_ub: [ 1 x_20_ ^ 2 - 2 x_83_ * x_20_ + 1 x_83_ ^ 2 + 1 y_20_ ^ 2 - 2 y_83_ * y_20_ + 1 y_83_ ^ 2 ] <= 26571.08
quadratic_ranged_413_ub: [ 1 x_38_ ^ 2 - 2 x_83_ * x_38_ + 1 x_83_ ^ 2 + 1 y_38_ ^ 2 - 2 y_83_ * y_38_ + 1 y_83_ ^ 2 ] <= 20548.45
quadratic_ranged_414_ub: [ 1 x_40_ ^ 2 - 2 x_83_ * x_40_ + 1 x_83_ ^ 2 + 1 y_40_ ^ 2 - 2 y_83_ * y_40_ + 1 y_83_ ^ 2 ] <= 4109.69
quadratic_ranged_415_ub: [ 1 x_49_ ^ 2 - 2 x_83_ * x_49_ + 1 x_83_ ^ 2 + 1 y_49_ ^ 2 - 2 y_83_ * y_49_ + 1 y_83_ ^ 2 ] <= 2218.97
quadratic_ranged_416_ub: [ 1 x_51_ ^ 2 - 2 x_83_ * x_51_ + 1 x_83_ ^ 2 + 1 y_51_ ^ 2 - 2 y_83_ * y_51_ + 1 y_83_ ^ 2 ] <= 14145.05
quadratic_ranged_417_ub: [ 1 x_63_ ^ 2 - 2 x_83_ * x_63_ + 1 x_83_ ^ 2 + 1 y_63_ ^ 2 - 2 y_83_ * y_63_ + 1 y_83_ ^ 2 ] <= 16116.57
quadratic_ranged_418_ub: [ 1 x_67_ ^ 2 - 2 x_83_ * x_67_ + 1 x_83_ ^ 2 + 1 y_67_ ^ 2 - 2 y_83_ * y_67_ + 1 y_83_ ^ 2 ] <= 26195.36
quadratic_ranged_419_ub: [ 1 x_68_ ^ 2 - 2 x_83_ * x_68_ + 1 x_83_ ^ 2 + 1 y_68_ ^ 2 - 2 y_83_ * y_68_ + 1 y_83_ ^ 2 ] <= 15450.98
quadratic_ranged_420_ub: [ 1 x_73_ ^ 2 - 2 x_83_ * x_73_ + 1 x_83_ ^ 2 + 1 y_73_ ^ 2 - 2 y_83_ * y_73_ + 1 y_83_ ^ 2 ] <= 25784.29
quadratic_ranged_421_ub: [ 1 x_78_ ^ 2 - 2 x_83_ * x_78_ + 1 x_83_ ^ 2 + 1 y_78_ ^ 2 - 2 y_83_ * y_78_ + 1 y_83_ ^ 2 ] <= 2525
quadratic_ranged_422_ub: [ 1 x_82_ ^ 2 - 2 x_83_ * x_82_ + 1 x_83_ ^ 2 + 1 y_82_ ^ 2 - 2 y_83_ * y_82_ + 1 y_83_ ^ 2 ] <= 12937.09
quadratic_ranged_423_ub: [ 1 x_26_ ^ 2 - 2 x_84_ * x_26_ + 1 x_84_ ^ 2 + 1 y_26_ ^ 2 - 2 y_84_ * y_26_ + 1 y_84_ ^ 2 ] <= 14799.53
quadratic_ranged_424_ub: [ 1 x_39_ ^ 2 - 2 x_84_ * x_39_ + 1 x_84_ ^ 2 + 1 y_39_ ^ 2 - 2 y_84_ * y_39_ + 1 y_84_ ^ 2 ] <= 19865.69
quadratic_ranged_425_ub: [ 1 x_48_ ^ 2 - 2 x_84_ * x_48_ + 1 x_84_ ^ 2 + 1 y_48_ ^ 2 - 2 y_84_ * y_48_ + 1 y_84_ ^ 2 ] <= 20023.25
quadratic_ranged_426_ub: [ 1 x_56_ ^ 2 - 2 x_84_ * x_56_ + 1 x_84_ ^ 2 + 1 y_56_ ^ 2 - 2 y_84_ * y_56_ + 1 y_84_ ^ 2 ] <= 36865
quadratic_ranged_427_ub: [ 1 x_58_ ^ 2 - 2 x_84_ * x_58_ + 1 x_84_ ^ 2 + 1 y_58_ ^ 2 - 2 y_84_ * y_58_ + 1 y_84_ ^ 2 ] <= 33816.82
quadratic_ranged_428_ub: [ 1 x_64_ ^ 2 - 2 x_84_ * x_64_ + 1 x_84_ ^ 2 + 1 y_64_ ^ 2 - 2 y_84_ * y_64_ + 1 y_84_ ^ 2 ] <= 34627.85
quadratic_ranged_429_ub: [ 1 x_72_ ^ 2 - 2 x_84_ * x_72_ + 1 x_84_ ^ 2 + 1 y_72_ ^ 2 - 2 y_84_ * y_72_ + 1 y_84_ ^ 2 ] <= 41993.78
quadratic_ranged_430_ub: [ 1 x_76_ ^ 2 - 2 x_84_ * x_76_ + 1 x_84_ ^ 2 + 1 y_76_ ^ 2 - 2 y_84_ * y_76_ + 1 y_84_ ^ 2 ] <= 24075.37
quadratic_ranged_431_ub: [ 1 x_82_ ^ 2 - 2 x_84_ * x_82_ + 1 x_84_ ^ 2 + 1 y_82_ ^ 2 - 2 y_84_ * y_82_ + 1 y_84_ ^ 2 ] <= 8807.2
quadratic_ranged_432_ub: [ 1 x_83_ ^ 2 - 2 x_84_ * x_83_ + 1 x_84_ ^ 2 + 1 y_83_ ^ 2 - 2 y_84_ * y_83_ + 1 y_84_ ^ 2 ] <= 27392.21
quadratic_ranged_433_ub: [ 1 x_1_ ^ 2 - 2 x_85_ * x_1_ + 1 x_85_ ^ 2 + 1 y_1_ ^ 2 - 2 y_85_ * y_1_ + 1 y_85_ ^ 2 ] <= 4174.33
quadratic_ranged_434_ub: [ 1 x_13_ ^ 2 - 2 x_85_ * x_13_ + 1 x_85_ ^ 2 + 1 y_13_ ^ 2 - 2 y_85_ * y_13_ + 1 y_85_ ^ 2 ] <= 8064.85
quadratic_ranged_435_ub: [ 1 x_22_ ^ 2 - 2 x_85_ * x_22_ + 1 x_85_ ^ 2 + 1 y_22_ ^ 2 - 2 y_85_ * y_22_ + 1 y_85_ ^ 2 ] <= 23759.24
quadratic_ranged_436_ub: [ 1 x_25_ ^ 2 - 2 x_85_ * x_25_ + 1 x_85_ ^ 2 + 1 y_25_ ^ 2 - 2 y_85_ * y_25_ + 1 y_85_ ^ 2 ] <= 33650.17
quadratic_ranged_437_ub: [ 1 x_30_ ^ 2 - 2 x_85_ * x_30_ + 1 x_85_ ^ 2 + 1 y_30_ ^ 2 - 2 y_85_ * y_30_ + 1 y_85_ ^ 2 ] <= 3067.37
quadratic_ranged_438_ub: [ 1 x_40_ ^ 2 - 2 x_85_ * x_40_ + 1 x_85_ ^ 2 + 1 y_40_ ^ 2 - 2 y_85_ * y_40_ + 1 y_85_ ^ 2 ] <= 16185.25
quadratic_ranged_439_ub: [ 1 x_43_ ^ 2 - 2 x_85_ * x_43_ + 1 x_85_ ^ 2 + 1 y_43_ ^ 2 - 2 y_85_ * y_43_ + 1 y_85_ ^ 2 ] <= 28737.53
quadratic_ranged_440_ub: [ 1 x_53_ ^ 2 - 2 x_85_ * x_53_ + 1 x_85_ ^ 2 + 1 y_53_ ^ 2 - 2 y_85_ * y_53_ + 1 y_85_ ^ 2 ] <= 4525.81
quadratic_ranged_441_ub: [ 1 x_59_ ^ 2 - 2 x_85_ * x_59_ + 1 x_85_ ^ 2 + 1 y_59_ ^ 2 - 2 y_85_ * y_59_ + 1 y_85_ ^ 2 ] <= 3717.81
quadratic_ranged_442_ub: [ 1 x_61_ ^ 2 - 2 x_85_ * x_61_ + 1 x_85_ ^ 2 + 1 y_61_ ^ 2 - 2 y_85_ * y_61_ + 1 y_85_ ^ 2 ] <= 15821.65
quadratic_ranged_443_ub: [ 1 x_65_ ^ 2 - 2 x_85_ * x_65_ + 1 x_85_ ^ 2 + 1 y_65_ ^ 2 - 2 y_85_ * y_65_ + 1 y_85_ ^ 2 ] <= 8025.46
quadratic_ranged_444_ub: [ 1 x_84_ ^ 2 - 2 x_85_ * x_84_ + 1 x_85_ ^ 2 + 1 y_84_ ^ 2 - 2 y_85_ * y_84_ + 1 y_85_ ^ 2 ] <= 36870.05
quadratic_ranged_445_ub: [ 1 x_1_ ^ 2 - 2 x_86_ * x_1_ + 1 x_86_ ^ 2 + 1 y_1_ ^ 2 - 2 y_86_ * y_1_ + 1 y_86_ ^ 2 ] <= 15069.2
quadratic_ranged_446_ub: [ 1 x_31_ ^ 2 - 2 x_86_ * x_31_ + 1 x_86_ ^ 2 + 1 y_31_ ^ 2 - 2 y_86_ * y_31_ + 1 y_86_ ^ 2 ] <= 41660.48
quadratic_ranged_447_ub: [ 1 x_34_ ^ 2 - 2 x_86_ * x_34_ + 1 x_86_ ^ 2 + 1 y_34_ ^ 2 - 2 y_86_ * y_34_ + 1 y_86_ ^ 2 ] <= 20180.81
quadratic_ranged_448_ub: [ 1 x_41_ ^ 2 - 2 x_86_ * x_41_ + 1 x_86_ ^ 2 + 1 y_41_ ^ 2 - 2 y_86_ * y_41_ + 1 y_86_ ^ 2 ] <= 12060.41
quadratic_ranged_449_ub: [ 1 x_51_ ^ 2 - 2 x_86_ * x_51_ + 1 x_86_ ^ 2 + 1 y_51_ ^ 2 - 2 y_86_ * y_51_ + 1 y_86_ ^ 2 ] <= 16729.64
quadratic_ranged_450_ub: [ 1 x_55_ ^ 2 - 2 x_86_ * x_55_ + 1 x_86_ ^ 2 + 1 y_55_ ^ 2 - 2 y_86_ * y_55_ + 1 y_86_ ^ 2 ] <= 5398.45
quadratic_ranged_451_ub: [ 1 x_84_ ^ 2 - 2 x_86_ * x_84_ + 1 x_86_ ^ 2 + 1 y_84_ ^ 2 - 2 y_86_ * y_84_ + 1 y_86_ ^ 2 ] <= 161.6
quadratic_ranged_452_ub: [ 1 x_85_ ^ 2 - 2 x_86_ * x_85_ + 1 x_86_ ^ 2 + 1 y_85_ ^ 2 - 2 y_86_ * y_85_ + 1 y_86_ ^ 2 ] <= 33694.61
quadratic_ranged_453_ub: [ 1 x_4_ ^ 2 - 2 x_87_ * x_4_ + 1 x_87_ ^ 2 + 1 y_4_ ^ 2 - 2 y_87_ * y_4_ + 1 y_87_ ^ 2 ] <= 20847.41
quadratic_ranged_454_ub: [ 1 x_7_ ^ 2 - 2 x_87_ * x_7_ + 1 x_87_ ^ 2 + 1 y_7_ ^ 2 - 2 y_87_ * y_7_ + 1 y_87_ ^ 2 ] <= 2307.85
quadratic_ranged_455_ub: [ 1 x_20_ ^ 2 - 2 x_87_ * x_20_ + 1 x_87_ ^ 2 + 1 y_20_ ^ 2 - 2 y_87_ * y_20_ + 1 y_87_ ^ 2 ] <= 39430.4
quadratic_ranged_456_ub: [ 1 x_21_ ^ 2 - 2 x_87_ * x_21_ + 1 x_87_ ^ 2 + 1 y_21_ ^ 2 - 2 y_87_ * y_21_ + 1 y_87_ ^ 2 ] <= 4194.53
quadratic_ranged_457_ub: [ 1 x_26_ ^ 2 - 2 x_87_ * x_26_ + 1 x_87_ ^ 2 + 1 y_26_ ^ 2 - 2 y_87_ * y_26_ + 1 y_87_ ^ 2 ] <= 2579.54
quadratic_ranged_458_ub: [ 1 x_40_ ^ 2 - 2 x_87_ * x_40_ + 1 x_87_ ^ 2 + 1 y_40_ ^ 2 - 2 y_87_ * y_40_ + 1 y_87_ ^ 2 ] <= 30947.41
quadratic_ranged_459_ub: [ 1 x_44_ ^ 2 - 2 x_87_ * x_44_ + 1 x_87_ ^ 2 + 1 y_44_ ^ 2 - 2 y_87_ * y_44_ + 1 y_87_ ^ 2 ] <= 7555.81
quadratic_ranged_460_ub: [ 1 x_48_ ^ 2 - 2 x_87_ * x_48_ + 1 x_87_ ^ 2 + 1 y_48_ ^ 2 - 2 y_87_ * y_48_ + 1 y_87_ ^ 2 ] <= 5191.4
quadratic_ranged_461_ub: [ 1 x_52_ ^ 2 - 2 x_87_ * x_52_ + 1 x_87_ ^ 2 + 1 y_52_ ^ 2 - 2 y_87_ * y_52_ + 1 y_87_ ^ 2 ] <= 22698.74
quadratic_ranged_462_ub: [ 1 x_57_ ^ 2 - 2 x_87_ * x_57_ + 1 x_87_ ^ 2 + 1 y_57_ ^ 2 - 2 y_87_ * y_57_ + 1 y_87_ ^ 2 ] <= 12302.81
quadratic_ranged_463_ub: [ 1 x_58_ ^ 2 - 2 x_87_ * x_58_ + 1 x_87_ ^ 2 + 1 y_58_ ^ 2 - 2 y_87_ * y_58_ + 1 y_87_ ^ 2 ] <= 17756.81
quadratic_ranged_464_ub: [ 1 x_71_ ^ 2 - 2 x_87_ * x_71_ + 1 x_87_ ^ 2 + 1 y_71_ ^ 2 - 2 y_87_ * y_71_ + 1 y_87_ ^ 2 ] <= 18168.89
quadratic_ranged_465_ub: [ 1 x_76_ ^ 2 - 2 x_87_ * x_76_ + 1 x_87_ ^ 2 + 1 y_76_ ^ 2 - 2 y_87_ * y_76_ + 1 y_87_ ^ 2 ] <= 6853.86
quadratic_ranged_466_ub: [ 1 x_83_ ^ 2 - 2 x_87_ * x_83_ + 1 x_87_ ^ 2 + 1 y_83_ ^ 2 - 2 y_87_ * y_83_ + 1 y_87_ ^ 2 ] <= 29253.64
quadratic_ranged_467_ub: [ 1 x_86_ ^ 2 - 2 x_87_ * x_86_ + 1 x_87_ ^ 2 + 1 y_86_ ^ 2 - 2 y_87_ * y_86_ + 1 y_87_ ^ 2 ] <= 3822.85
quadratic_ranged_468_ub: [ 1 x_7_ ^ 2 - 2 x_88_ * x_7_ + 1 x_88_ ^ 2 + 1 y_7_ ^ 2 - 2 y_88_ * y_7_ + 1 y_88_ ^ 2 ] <= 8655.7
quadratic_ranged_469_ub: [ 1 x_13_ ^ 2 - 2 x_88_ * x_13_ + 1 x_88_ ^ 2 + 1 y_13_ ^ 2 - 2 y_88_ * y_13_ + 1 y_88_ ^ 2 ] <= 19757.62
quadratic_ranged_470_ub: [ 1 x_37_ ^ 2 - 2 x_88_ * x_37_ + 1 x_88_ ^ 2 + 1 y_37_ ^ 2 - 2 y_88_ * y_37_ + 1 y_88_ ^ 2 ] <= 22806.81
quadratic_ranged_471_ub: [ 1 x_40_ ^ 2 - 2 x_88_ * x_40_ + 1 x_88_ ^ 2 + 1 y_40_ ^ 2 - 2 y_88_ * y_40_ + 1 y_88_ ^ 2 ] <= 4662.16
quadratic_ranged_472_ub: [ 1 x_58_ ^ 2 - 2 x_88_ * x_58_ + 1 x_88_ ^ 2 + 1 y_58_ ^ 2 - 2 y_88_ * y_58_ + 1 y_88_ ^ 2 ] <= 343.4
quadratic_ranged_473_ub: [ 1 x_62_ ^ 2 - 2 x_88_ * x_62_ + 1 x_88_ ^ 2 + 1 y_62_ ^ 2 - 2 y_88_ * y_62_ + 1 y_88_ ^ 2 ] <= 3289.57
quadratic_ranged_474_ub: [ 1 x_66_ ^ 2 - 2 x_88_ * x_66_ + 1 x_88_ ^ 2 + 1 y_66_ ^ 2 - 2 y_88_ * y_66_ + 1 y_88_ ^ 2 ] <= 31289.8
quadratic_ranged_475_ub: [ 1 x_69_ ^ 2 - 2 x_88_ * x_69_ + 1 x_88_ ^ 2 + 1 y_69_ ^ 2 - 2 y_88_ * y_69_ + 1 y_88_ ^ 2 ] <= 19683.89
quadratic_ranged_476_ub: [ 1 x_81_ ^ 2 - 2 x_88_ * x_81_ + 1 x_88_ ^ 2 + 1 y_81_ ^ 2 - 2 y_88_ * y_81_ + 1 y_88_ ^ 2 ] <= 3898.6
quadratic_ranged_477_ub: [ 1 x_87_ ^ 2 - 2 x_88_ * x_87_ + 1 x_88_ ^ 2 + 1 y_87_ ^ 2 - 2 y_88_ * y_87_ + 1 y_88_ ^ 2 ] <= 19752.57
quadratic_ranged_478_ub: [ 1 x_18_ ^ 2 - 2 x_89_ * x_18_ + 1 x_89_ ^ 2 + 1 y_18_ ^ 2 - 2 y_89_ * y_18_ + 1 y_89_ ^ 2 ] <= 3013.84
quadratic_ranged_479_ub: [ 1 x_22_ ^ 2 - 2 x_89_ * x_22_ + 1 x_89_ ^ 2 + 1 y_22_ ^ 2 - 2 y_89_ * y_22_ + 1 y_89_ ^ 2 ] <= 6789.22
quadratic_ranged_480_ub: [ 1 x_24_ ^ 2 - 2 x_89_ * x_24_ + 1 x_89_ ^ 2 + 1 y_24_ ^ 2 - 2 y_89_ * y_24_ + 1 y_89_ ^ 2 ] <= 291.89
quadratic_ranged_481_ub: [ 1 x_32_ ^ 2 - 2 x_89_ * x_32_ + 1 x_89_ ^ 2 + 1 y_32_ ^ 2 - 2 y_89_ * y_32_ + 1 y_89_ ^ 2 ] <= 5504.5
quadratic_ranged_482_ub: [ 1 x_37_ ^ 2 - 2 x_89_ * x_37_ + 1 x_89_ ^ 2 + 1 y_37_ ^ 2 - 2 y_89_ * y_37_ + 1 y_89_ ^ 2 ] <= 38755.72
quadratic_ranged_483_ub: [ 1 x_38_ ^ 2 - 2 x_89_ * x_38_ + 1 x_89_ ^ 2 + 1 y_38_ ^ 2 - 2 y_89_ * y_38_ + 1 y_89_ ^ 2 ] <= 8739.53
quadratic_ranged_484_ub: [ 1 x_44_ ^ 2 - 2 x_89_ * x_44_ + 1 x_89_ ^ 2 + 1 y_44_ ^ 2 - 2 y_89_ * y_44_ + 1 y_89_ ^ 2 ] <= 36094.37
quadratic_ranged_485_ub: [ 1 x_47_ ^ 2 - 2 x_89_ * x_47_ + 1 x_89_ ^ 2 + 1 y_47_ ^ 2 - 2 y_89_ * y_47_ + 1 y_89_ ^ 2 ] <= 24329.89
quadratic_ranged_486_ub: [ 1 x_81_ ^ 2 - 2 x_89_ * x_81_ + 1 x_89_ ^ 2 + 1 y_81_ ^ 2 - 2 y_89_ * y_81_ + 1 y_89_ ^ 2 ] <= 10517.13
quadratic_ranged_487_ub: [ 1 x_82_ ^ 2 - 2 x_89_ * x_82_ + 1 x_89_ ^ 2 + 1 y_82_ ^ 2 - 2 y_89_ * y_82_ + 1 y_89_ ^ 2 ] <= 10545.41
quadratic_ranged_488_ub: [ 1 x_88_ ^ 2 - 2 x_89_ * x_88_ + 1 x_89_ ^ 2 + 1 y_88_ ^ 2 - 2 y_89_ * y_88_ + 1 y_89_ ^ 2 ] <= 2429.05
quadratic_ranged_489_ub: [ 1 x_28_ ^ 2 - 2 x_90_ * x_28_ + 1 x_90_ ^ 2 + 1 y_28_ ^ 2 - 2 y_90_ * y_28_ + 1 y_90_ ^ 2 ] <= 5782.25
quadratic_ranged_490_ub: [ 1 x_39_ ^ 2 - 2 x_90_ * x_39_ + 1 x_90_ ^ 2 + 1 y_39_ ^ 2 - 2 y_90_ * y_39_ + 1 y_90_ ^ 2 ] <= 12472.49
quadratic_ranged_491_ub: [ 1 x_51_ ^ 2 - 2 x_90_ * x_51_ + 1 x_90_ ^ 2 + 1 y_51_ ^ 2 - 2 y_90_ * y_51_ + 1 y_90_ ^ 2 ] <= 11978.6
quadratic_ranged_492_ub: [ 1 x_53_ ^ 2 - 2 x_90_ * x_53_ + 1 x_90_ ^ 2 + 1 y_53_ ^ 2 - 2 y_90_ * y_53_ + 1 y_90_ ^ 2 ] <= 15580.26
quadratic_ranged_493_ub: [ 1 x_62_ ^ 2 - 2 x_90_ * x_62_ + 1 x_90_ ^ 2 + 1 y_62_ ^ 2 - 2 y_90_ * y_62_ + 1 y_90_ ^ 2 ] <= 20548.45
quadratic_ranged_494_ub: [ 1 x_68_ ^ 2 - 2 x_90_ * x_68_ + 1 x_90_ ^ 2 + 1 y_68_ ^ 2 - 2 y_90_ * y_68_ + 1 y_90_ ^ 2 ] <= 1782.65
quadratic_ranged_495_ub: [ 1 x_89_ ^ 2 - 2 x_90_ * x_89_ + 1 x_90_ ^ 2 + 1 y_89_ ^ 2 - 2 y_90_ * y_89_ + 1 y_90_ ^ 2 ] <= 28337.57
quadratic_ranged_496_ub: [ 1 x_11_ ^ 2 - 2 x_91_ * x_11_ + 1 x_91_ ^ 2 + 1 y_11_ ^ 2 - 2 y_91_ * y_11_ + 1 y_91_ ^ 2 ] <= 23310.8
quadratic_ranged_497_ub: [ 1 x_23_ ^ 2 - 2 x_91_ * x_23_ + 1 x_91_ ^ 2 + 1 y_23_ ^ 2 - 2 y_91_ * y_23_ + 1 y_91_ ^ 2 ] <= 23161.32
quadratic_ranged_498_ub: [ 1 x_58_ ^ 2 - 2 x_91_ * x_58_ + 1 x_91_ ^ 2 + 1 y_58_ ^ 2 - 2 y_91_ * y_58_ + 1 y_91_ ^ 2 ] <= 4671.25
quadratic_ranged_499_ub: [ 1 x_59_ ^ 2 - 2 x_91_ * x_59_ + 1 x_91_ ^ 2 + 1 y_59_ ^ 2 - 2 y_91_ * y_59_ + 1 y_91_ ^ 2 ] <= 4990.41
quadratic_ranged_500_ub: [ 1 x_90_ ^ 2 - 2 x_91_ * x_90_ + 1 x_91_ ^ 2 + 1 y_90_ ^ 2 - 2 y_91_ * y_90_ + 1 y_91_ ^ 2 ] <= 20366.65
quadratic_ranged_501_ub: [ 1 x_4_ ^ 2 - 2 x_92_ * x_4_ + 1 x_92_ ^ 2 + 1 y_4_ ^ 2 - 2 y_92_ * y_4_ + 1 y_92_ ^ 2 ] <= 2449.25
quadratic_ranged_502_ub: [ 1 x_24_ ^ 2 - 2 x_92_ * x_24_ + 1 x_92_ ^ 2 + 1 y_24_ ^ 2 - 2 y_92_ * y_24_ + 1 y_92_ ^ 2 ] <= 10622.17
quadratic_ranged_503_ub: [ 1 x_26_ ^ 2 - 2 x_92_ * x_26_ + 1 x_92_ ^ 2 + 1 y_26_ ^ 2 - 2 y_92_ * y_26_ + 1 y_92_ ^ 2 ] <= 4470.26
quadratic_ranged_504_ub: [ 1 x_40_ ^ 2 - 2 x_92_ * x_40_ + 1 x_92_ ^ 2 + 1 y_40_ ^ 2 - 2 y_92_ * y_40_ + 1 y_92_ ^ 2 ] <= 18185.05
quadratic_ranged_505_ub: [ 1 x_44_ ^ 2 - 2 x_92_ * x_44_ + 1 x_92_ ^ 2 + 1 y_44_ ^ 2 - 2 y_92_ * y_44_ + 1 y_92_ ^ 2 ] <= 7846.6900000000005
quadratic_ranged_506_ub: [ 1 x_47_ ^ 2 - 2 x_92_ * x_47_ + 1 x_92_ ^ 2 + 1 y_47_ ^ 2 - 2 y_92_ * y_47_ + 1 y_92_ ^ 2 ] <= 8933.45
quadratic_ranged_507_ub: [ 1 x_55_ ^ 2 - 2 x_92_ * x_55_ + 1 x_92_ ^ 2 + 1 y_55_ ^ 2 - 2 y_92_ * y_55_ + 1 y_92_ ^ 2 ] <= 21874.58
quadratic_ranged_508_ub: [ 1 x_59_ ^ 2 - 2 x_92_ * x_59_ + 1 x_92_ ^ 2 + 1 y_59_ ^ 2 - 2 y_92_ * y_59_ + 1 y_92_ ^ 2 ] <= 3637.01
quadratic_ranged_509_ub: [ 1 x_66_ ^ 2 - 2 x_92_ * x_66_ + 1 x_92_ ^ 2 + 1 y_66_ ^ 2 - 2 y_92_ * y_66_ + 1 y_92_ ^ 2 ] <= 27093.25
quadratic_ranged_510_ub: [ 1 x_76_ ^ 2 - 2 x_92_ * x_76_ + 1 x_92_ ^ 2 + 1 y_76_ ^ 2 - 2 y_92_ * y_76_ + 1 y_92_ ^ 2 ] <= 7726.5
quadratic_ranged_511_ub: [ 1 x_77_ ^ 2 - 2 x_92_ * x_77_ + 1 x_92_ ^ 2 + 1 y_77_ ^ 2 - 2 y_92_ * y_77_ + 1 y_92_ ^ 2 ] <= 9182.92
quadratic_ranged_512_ub: [ 1 x_87_ ^ 2 - 2 x_92_ * x_87_ + 1 x_92_ ^ 2 + 1 y_87_ ^ 2 - 2 y_92_ * y_87_ + 1 y_92_ ^ 2 ] <= 13416.84
quadratic_ranged_513_ub: [ 1 x_91_ ^ 2 - 2 x_92_ * x_91_ + 1 x_92_ ^ 2 + 1 y_91_ ^ 2 - 2 y_92_ * y_91_ + 1 y_92_ ^ 2 ] <= 446.42
quadratic_ranged_514_ub: [ 1 x_5_ ^ 2 - 2 x_93_ * x_5_ + 1 x_93_ ^ 2 + 1 y_5_ ^ 2 - 2 y_93_ * y_5_ + 1 y_93_ ^ 2 ] <= 26284.24
quadratic_ranged_515_ub: [ 1 x_10_ ^ 2 - 2 x_93_ * x_10_ + 1 x_93_ ^ 2 + 1 y_10_ ^ 2 - 2 y_93_ * y_10_ + 1 y_93_ ^ 2 ] <= 8666.81
quadratic_ranged_516_ub: [ 1 x_26_ ^ 2 - 2 x_93_ * x_26_ + 1 x_93_ ^ 2 + 1 y_26_ ^ 2 - 2 y_93_ * y_26_ + 1 y_93_ ^ 2 ] <= 776.69
quadratic_ranged_517_ub: [ 1 x_53_ ^ 2 - 2 x_93_ * x_53_ + 1 x_93_ ^ 2 + 1 y_53_ ^ 2 - 2 y_93_ * y_53_ + 1 y_93_ ^ 2 ] <= 3791.54
quadratic_ranged_518_ub: [ 1 x_58_ ^ 2 - 2 x_93_ * x_58_ + 1 x_93_ ^ 2 + 1 y_58_ ^ 2 - 2 y_93_ * y_58_ + 1 y_93_ ^ 2 ] <= 4615.7
quadratic_ranged_519_ub: [ 1 x_66_ ^ 2 - 2 x_93_ * x_66_ + 1 x_93_ ^ 2 + 1 y_66_ ^ 2 - 2 y_93_ * y_66_ + 1 y_93_ ^ 2 ] <= 15321.7
quadratic_ranged_520_ub: [ 1 x_78_ ^ 2 - 2 x_93_ * x_78_ + 1 x_93_ ^ 2 + 1 y_78_ ^ 2 - 2 y_93_ * y_78_ + 1 y_93_ ^ 2 ] <= 20944.37
quadratic_ranged_521_ub: [ 1 x_92_ ^ 2 - 2 x_93_ * x_92_ + 1 x_93_ ^ 2 + 1 y_92_ ^ 2 - 2 y_93_ * y_92_ + 1 y_93_ ^ 2 ] <= 1681.65
quadratic_ranged_522_ub: [ 1 x_4_ ^ 2 - 2 x_94_ * x_4_ + 1 x_94_ ^ 2 + 1 y_4_ ^ 2 - 2 y_94_ * y_4_ + 1 y_94_ ^ 2 ] <= 26260
quadratic_ranged_523_ub: [ 1 x_14_ ^ 2 - 2 x_94_ * x_14_ + 1 x_94_ ^ 2 + 1 y_14_ ^ 2 - 2 y_94_ * y_14_ + 1 y_94_ ^ 2 ] <= 26956.9
quadratic_ranged_524_ub: [ 1 x_23_ ^ 2 - 2 x_94_ * x_23_ + 1 x_94_ ^ 2 + 1 y_23_ ^ 2 - 2 y_94_ * y_23_ + 1 y_94_ ^ 2 ] <= 31686.73
quadratic_ranged_525_ub: [ 1 x_32_ ^ 2 - 2 x_94_ * x_32_ + 1 x_94_ ^ 2 + 1 y_32_ ^ 2 - 2 y_94_ * y_32_ + 1 y_94_ ^ 2 ] <= 15045.97
quadratic_ranged_526_ub: [ 1 x_37_ ^ 2 - 2 x_94_ * x_37_ + 1 x_94_ ^ 2 + 1 y_37_ ^ 2 - 2 y_94_ * y_37_ + 1 y_94_ ^ 2 ] <= 23744.09
quadratic_ranged_527_ub: [ 1 x_46_ ^ 2 - 2 x_94_ * x_46_ + 1 x_94_ ^ 2 + 1 y_46_ ^ 2 - 2 y_94_ * y_46_ + 1 y_94_ ^ 2 ] <= 32898.73
quadratic_ranged_528_ub: [ 1 x_70_ ^ 2 - 2 x_94_ * x_70_ + 1 x_94_ ^ 2 + 1 y_70_ ^ 2 - 2 y_94_ * y_70_ + 1 y_94_ ^ 2 ] <= 33060.33
quadratic_ranged_529_ub: [ 1 x_74_ ^ 2 - 2 x_94_ * x_74_ + 1 x_94_ ^ 2 + 1 y_74_ ^ 2 - 2 y_94_ * y_74_ + 1 y_94_ ^ 2 ] <= 13712.77
quadratic_ranged_530_ub: [ 1 x_93_ ^ 2 - 2 x_94_ * x_93_ + 1 x_94_ ^ 2 + 1 y_93_ ^ 2 - 2 y_94_ * y_93_ + 1 y_94_ ^ 2 ] <= 10136.36
quadratic_ranged_531_ub: [ 1 x_11_ ^ 2 - 2 x_95_ * x_11_ + 1 x_95_ ^ 2 + 1 y_11_ ^ 2 - 2 y_95_ * y_11_ + 1 y_95_ ^ 2 ] <= 1289.77
quadratic_ranged_532_ub: [ 1 x_16_ ^ 2 - 2 x_95_ * x_16_ + 1 x_95_ ^ 2 + 1 y_16_ ^ 2 - 2 y_95_ * y_16_ + 1 y_95_ ^ 2 ] <= 2885.57
quadratic_ranged_533_ub: [ 1 x_26_ ^ 2 - 2 x_95_ * x_26_ + 1 x_95_ ^ 2 + 1 y_26_ ^ 2 - 2 y_95_ * y_26_ + 1 y_95_ ^ 2 ] <= 9228.37
quadratic_ranged_534_ub: [ 1 x_27_ ^ 2 - 2 x_95_ * x_27_ + 1 x_95_ ^ 2 + 1 y_27_ ^ 2 - 2 y_95_ * y_27_ + 1 y_95_ ^ 2 ] <= 1294.82
quadratic_ranged_535_ub: [ 1 x_28_ ^ 2 - 2 x_95_ * x_28_ + 1 x_95_ ^ 2 + 1 y_28_ ^ 2 - 2 y_95_ * y_28_ + 1 y_95_ ^ 2 ] <= 703.97
quadratic_ranged_536_ub: [ 1 x_31_ ^ 2 - 2 x_95_ * x_31_ + 1 x_95_ ^ 2 + 1 y_31_ ^ 2 - 2 y_95_ * y_31_ + 1 y_95_ ^ 2 ] <= 17105.36
quadratic_ranged_537_ub: [ 1 x_44_ ^ 2 - 2 x_95_ * x_44_ + 1 x_95_ ^ 2 + 1 y_44_ ^ 2 - 2 y_95_ * y_44_ + 1 y_95_ ^ 2 ] <= 23145.16
quadratic_ranged_538_ub: [ 1 x_47_ ^ 2 - 2 x_95_ * x_47_ + 1 x_95_ ^ 2 + 1 y_47_ ^ 2 - 2 y_95_ * y_47_ + 1 y_95_ ^ 2 ] <= 9867.7
quadratic_ranged_539_ub: [ 1 x_59_ ^ 2 - 2 x_95_ * x_59_ + 1 x_95_ ^ 2 + 1 y_59_ ^ 2 - 2 y_95_ * y_59_ + 1 y_95_ ^ 2 ] <= 2949.2
quadratic_ranged_540_ub: [ 1 x_76_ ^ 2 - 2 x_95_ * x_76_ + 1 x_95_ ^ 2 + 1 y_76_ ^ 2 - 2 y_95_ * y_76_ + 1 y_95_ ^ 2 ] <= 22099.81
quadratic_ranged_541_ub: [ 1 x_94_ ^ 2 - 2 x_95_ * x_94_ + 1 x_95_ ^ 2 + 1 y_94_ ^ 2 - 2 y_95_ * y_94_ + 1 y_95_ ^ 2 ] <= 8378.960000000001
quadratic_ranged_542_ub: [ 1 x_19_ ^ 2 - 2 x_96_ * x_19_ + 1 x_96_ ^ 2 + 1 y_19_ ^ 2 - 2 y_96_ * y_19_ + 1 y_96_ ^ 2 ] <= 15984.26
quadratic_ranged_543_ub: [ 1 x_31_ ^ 2 - 2 x_96_ * x_31_ + 1 x_96_ ^ 2 + 1 y_31_ ^ 2 - 2 y_96_ * y_31_ + 1 y_96_ ^ 2 ] <= 6509.45
quadratic_ranged_544_ub: [ 1 x_39_ ^ 2 - 2 x_96_ * x_39_ + 1 x_96_ ^ 2 + 1 y_39_ ^ 2 - 2 y_96_ * y_39_ + 1 y_96_ ^ 2 ] <= 20.2
quadratic_ranged_545_ub: [ 1 x_85_ ^ 2 - 2 x_96_ * x_85_ + 1 x_96_ ^ 2 + 1 y_85_ ^ 2 - 2 y_96_ * y_85_ + 1 y_96_ ^ 2 ] <= 3662.26
quadratic_ranged_546_ub: [ 1 x_95_ ^ 2 - 2 x_96_ * x_95_ + 1 x_96_ ^ 2 + 1 y_95_ ^ 2 - 2 y_96_ * y_95_ + 1 y_96_ ^ 2 ] <= 9470.77
quadratic_ranged_547_ub: [ 1 x_17_ ^ 2 - 2 x_97_ * x_17_ + 1 x_97_ ^ 2 + 1 y_17_ ^ 2 - 2 y_97_ * y_17_ + 1 y_97_ ^ 2 ] <= 15550.97
quadratic_ranged_548_ub: [ 1 x_54_ ^ 2 - 2 x_97_ * x_54_ + 1 x_97_ ^ 2 + 1 y_54_ ^ 2 - 2 y_97_ * y_54_ + 1 y_97_ ^ 2 ] <= 27126.58
quadratic_ranged_549_ub: [ 1 x_69_ ^ 2 - 2 x_97_ * x_69_ + 1 x_97_ ^ 2 + 1 y_69_ ^ 2 - 2 y_97_ * y_69_ + 1 y_97_ ^ 2 ] <= 26749.85
quadratic_ranged_550_ub: [ 1 x_94_ ^ 2 - 2 x_97_ * x_94_ + 1 x_97_ ^ 2 + 1 y_94_ ^ 2 - 2 y_97_ * y_94_ + 1 y_97_ ^ 2 ] <= 27158.9
quadratic_ranged_551_ub: [ 1 x_96_ ^ 2 - 2 x_97_ * x_96_ + 1 x_97_ ^ 2 + 1 y_96_ ^ 2 - 2 y_97_ * y_96_ + 1 y_97_ ^ 2 ] <= 4267.25
quadratic_ranged_552_ub: [ 1 x_7_ ^ 2 - 2 x_98_ * x_7_ + 1 x_98_ ^ 2 + 1 y_7_ ^ 2 - 2 y_98_ * y_7_ + 1 y_98_ ^ 2 ] <= 2517.93
quadratic_ranged_553_ub: [ 1 x_9_ ^ 2 - 2 x_98_ * x_9_ + 1 x_98_ ^ 2 + 1 y_9_ ^ 2 - 2 y_98_ * y_9_ + 1 y_98_ ^ 2 ] <= 4004.65
quadratic_ranged_554_ub: [ 1 x_10_ ^ 2 - 2 x_98_ * x_10_ + 1 x_98_ ^ 2 + 1 y_10_ ^ 2 - 2 y_98_ * y_10_ + 1 y_98_ ^ 2 ] <= 13594.6
quadratic_ranged_555_ub: [ 1 x_18_ ^ 2 - 2 x_98_ * x_18_ + 1 x_98_ ^ 2 + 1 y_18_ ^ 2 - 2 y_98_ * y_18_ + 1 y_98_ ^ 2 ] <= 12122.02
quadratic_ranged_556_ub: [ 1 x_19_ ^ 2 - 2 x_98_ * x_19_ + 1 x_98_ ^ 2 + 1 y_19_ ^ 2 - 2 y_98_ * y_19_ + 1 y_98_ ^ 2 ] <= 20272.72
quadratic_ranged_557_ub: [ 1 x_24_ ^ 2 - 2 x_98_ * x_24_ + 1 x_98_ ^ 2 + 1 y_24_ ^ 2 - 2 y_98_ * y_24_ + 1 y_98_ ^ 2 ] <= 17065.97
quadratic_ranged_558_ub: [ 1 x_34_ ^ 2 - 2 x_98_ * x_34_ + 1 x_98_ ^ 2 + 1 y_34_ ^ 2 - 2 y_98_ * y_34_ + 1 y_98_ ^ 2 ] <= 923.14
quadratic_ranged_559_ub: [ 1 x_36_ ^ 2 - 2 x_98_ * x_36_ + 1 x_98_ ^ 2 + 1 y_36_ ^ 2 - 2 y_98_ * y_36_ + 1 y_98_ ^ 2 ] <= 11397.85
quadratic_ranged_560_ub: [ 1 x_37_ ^ 2 - 2 x_98_ * x_37_ + 1 x_98_ ^ 2 + 1 y_37_ ^ 2 - 2 y_98_ * y_37_ + 1 y_98_ ^ 2 ] <= 4898.5
quadratic_ranged_561_ub: [ 1 x_56_ ^ 2 - 2 x_98_ * x_56_ + 1 x_98_ ^ 2 + 1 y_56_ ^ 2 - 2 y_98_ * y_56_ + 1 y_98_ ^ 2 ] <= 6990.21
quadratic_ranged_562_ub: [ 1 x_59_ ^ 2 - 2 x_98_ * x_59_ + 1 x_98_ ^ 2 + 1 y_59_ ^ 2 - 2 y_98_ * y_59_ + 1 y_98_ ^ 2 ] <= 6392.29
quadratic_ranged_563_ub: [ 1 x_80_ ^ 2 - 2 x_98_ * x_80_ + 1 x_98_ ^ 2 + 1 y_80_ ^ 2 - 2 y_98_ * y_80_ + 1 y_98_ ^ 2 ] <= 36622.6
quadratic_ranged_564_ub: [ 1 x_95_ ^ 2 - 2 x_98_ * x_95_ + 1 x_98_ ^ 2 + 1 y_95_ ^ 2 - 2 y_98_ * y_95_ + 1 y_98_ ^ 2 ] <= 11212.01
quadratic_ranged_565_ub: [ 1 x_96_ ^ 2 - 2 x_98_ * x_96_ + 1 x_98_ ^ 2 + 1 y_96_ ^ 2 - 2 y_98_ * y_96_ + 1 y_98_ ^ 2 ] <= 389.86
quadratic_ranged_566_ub: [ 1 x_97_ ^ 2 - 2 x_98_ * x_97_ + 1 x_98_ ^ 2 + 1 y_97_ ^ 2 - 2 y_98_ * y_97_ + 1 y_98_ ^ 2 ] <= 6222.61
quadratic_ranged_567_ub: [ 1 x_10_ ^ 2 - 2 x_99_ * x_10_ + 1 x_99_ ^ 2 + 1 y_10_ ^ 2 - 2 y_99_ * y_10_ + 1 y_99_ ^ 2 ] <= 20943.36
quadratic_ranged_568_ub: [ 1 x_31_ ^ 2 - 2 x_99_ * x_31_ + 1 x_99_ ^ 2 + 1 y_31_ ^ 2 - 2 y_99_ * y_31_ + 1 y_99_ ^ 2 ] <= 17768.93
quadratic_ranged_569_ub: [ 1 x_35_ ^ 2 - 2 x_99_ * x_35_ + 1 x_99_ ^ 2 + 1 y_35_ ^ 2 - 2 y_99_ * y_35_ + 1 y_99_ ^ 2 ] <= 16341.8
quadratic_ranged_570_ub: [ 1 x_60_ ^ 2 - 2 x_99_ * x_60_ + 1 x_99_ ^ 2 + 1 y_60_ ^ 2 - 2 y_99_ * y_60_ + 1 y_99_ ^ 2 ] <= 3468.34
quadratic_ranged_571_ub: [ 1 x_78_ ^ 2 - 2 x_99_ * x_78_ + 1 x_99_ ^ 2 + 1 y_78_ ^ 2 - 2 y_99_ * y_78_ + 1 y_99_ ^ 2 ] <= 2628.02
quadratic_ranged_572_ub: [ 1 x_79_ ^ 2 - 2 x_99_ * x_79_ + 1 x_99_ ^ 2 + 1 y_79_ ^ 2 - 2 y_99_ * y_79_ + 1 y_99_ ^ 2 ] <= 13579.45
quadratic_ranged_573_ub: [ 1 x_98_ ^ 2 - 2 x_99_ * x_98_ + 1 x_99_ ^ 2 + 1 y_98_ ^ 2 - 2 y_99_ * y_98_ + 1 y_99_ ^ 2 ] <= 14758.12
quadratic_ranged_574_ub: [ 1 x_1_ ^ 2 - 2 x_100_ * x_1_ + 1 x_100_ ^ 2 + 1 y_1_ ^ 2 - 2 y_100_ * y_1_ + 1 y_100_ ^ 2 ] <= 356.53000000000003
quadratic_ranged_575_ub: [ 1 x_32_ ^ 2 - 2 x_100_ * x_32_ + 1 x_100_ ^ 2 + 1 y_32_ ^ 2 - 2 y_100_ * y_32_ + 1 y_100_ ^ 2 ] <= 6989.2
quadratic_ranged_576_ub: [ 1 x_34_ ^ 2 - 2 x_100_ * x_34_ + 1 x_100_ ^ 2 + 1 y_34_ ^ 2 - 2 y_100_ * y_34_ + 1 y_100_ ^ 2 ] <= 10352.5
quadratic_ranged_577_ub: [ 1 x_40_ ^ 2 - 2 x_100_ * x_40_ + 1 x_100_ ^ 2 + 1 y_40_ ^ 2 - 2 y_100_ * y_40_ + 1 y_100_ ^ 2 ] <= 8266.85
quadratic_ranged_578_ub: [ 1 x_45_ ^ 2 - 2 x_100_ * x_45_ + 1 x_100_ ^ 2 + 1 y_45_ ^ 2 - 2 y_100_ * y_45_ + 1 y_100_ ^ 2 ] <= 1200.89
quadratic_ranged_579_ub: [ 1 x_49_ ^ 2 - 2 x_100_ * x_49_ + 1 x_100_ ^ 2 + 1 y_49_ ^ 2 - 2 y_100_ * y_49_ + 1 y_100_ ^ 2 ] <= 4186.45
quadratic_ranged_580_ub: [ 1 x_67_ ^ 2 - 2 x_100_ * x_67_ + 1 x_100_ ^ 2 + 1 y_67_ ^ 2 - 2 y_100_ * y_67_ + 1 y_100_ ^ 2 ] <= 6482.18
quadratic_ranged_581_ub: [ 1 x_78_ ^ 2 - 2 x_100_ * x_78_ + 1 x_100_ ^ 2 + 1 y_78_ ^ 2 - 2 y_100_ * y_78_ + 1 y_100_ ^ 2 ] <= 10134.34
quadratic_ranged_582_ub: [ 1 x_90_ ^ 2 - 2 x_100_ * x_90_ + 1 x_100_ ^ 2 + 1 y_90_ ^ 2 - 2 y_100_ * y_90_ + 1 y_100_ ^ 2 ] <= 11906.89
quadratic_ranged_583_ub: [ 1 x_91_ ^ 2 - 2 x_100_ * x_91_ + 1 x_100_ ^ 2 + 1 y_91_ ^ 2 - 2 y_100_ * y_91_ + 1 y_100_ ^ 2 ] <= 5445.92
quadratic_ranged_584_ub: [ 1 x_94_ ^ 2 - 2 x_100_ * x_94_ + 1 x_100_ ^ 2 + 1 y_94_ ^ 2 - 2 y_100_ * y_94_ + 1 y_100_ ^ 2 ] <= 10355.53
quadratic_ranged_585_ub: [ 1 x_99_ ^ 2 - 2 x_100_ * x_99_ + 1 x_100_ ^ 2 + 1 y_99_ ^ 2 - 2 y_100_ * y_99_ + 1 y_100_ ^ 2 ] <= 2819.92
c1_2: 1 x_20_ >= 0
c2_2: 1 y_20_ >= 0
quadratic_ranged_1_lb: [ 1 x_1_ ^ 2 - 2 x_2_ * x_1_ + 1 x_2_ ^ 2 + 1 y_1_ ^ 2 - 2 y_2_ * y_1_ + 1 y_2_ ^ 2 ] >= 4186.71
quadratic_ranged_2_lb: [ 1 x_2_ ^ 2 - 2 x_3_ * x_2_ + 1 x_3_ ^ 2 + 1 y_2_ ^ 2 - 2 y_3_ * y_2_ + 1 y_3_ ^ 2 ] >= 5021.28
quadratic_ranged_3_lb: [ 1 x_3_ ^ 2 - 2 x_4_ * x_3_ + 1 x_4_ ^ 2 + 1 y_3_ ^ 2 - 2 y_4_ * y_3_ + 1 y_4_ ^ 2 ] >= 13346.19
quadratic_ranged_4_lb: [ 1 x_4_ ^ 2 - 2 x_5_ * x_4_ + 1 x_5_ ^ 2 + 1 y_4_ ^ 2 - 2 y_5_ * y_4_ + 1 y_5_ ^ 2 ] >= 19344.6
quadratic_ranged_5_lb: [ 1 x_4_ ^ 2 - 2 x_6_ * x_4_ + 1 x_6_ ^ 2 + 1 y_4_ ^ 2 - 2 y_6_ * y_4_ + 1 y_6_ ^ 2 ] >= 21296.88
quadratic_ranged_6_lb: [ 1 x_5_ ^ 2 - 2 x_6_ * x_5_ + 1 x_6_ ^ 2 + 1 y_5_ ^ 2 - 2 y_6_ * y_5_ + 1 y_6_ ^ 2 ] >= 3758.04
quadratic_ranged_7_lb: [ 1 x_6_ ^ 2 - 2 x_7_ * x_6_ + 1 x_7_ ^ 2 + 1 y_6_ ^ 2 - 2 y_7_ * y_6_ + 1 y_7_ ^ 2 ] >= 9900
quadratic_ranged_8_lb: [ 1 x_7_ ^ 2 - 2 x_8_ * x_7_ + 1 x_8_ ^ 2 + 1 y_7_ ^ 2 - 2 y_8_ * y_7_ + 1 y_8_ ^ 2 ] >= 3019.5
quadratic_ranged_9_lb: [ 1 x_7_ ^ 2 - 2 x_9_ * x_7_ + 1 x_9_ ^ 2 + 1 y_7_ ^ 2 - 2 y_9_ * y_7_ + 1 y_9_ ^ 2 ] >= 12137.4
quadratic_ranged_10_lb: [ 1 x_8_ ^ 2 - 2 x_9_ * x_8_ + 1 x_9_ ^ 2 + 1 y_8_ ^ 2 - 2 y_9_ * y_8_ + 1 y_9_ ^ 2 ] >= 26383.5
quadratic_ranged_11_lb: [ 1 x_9_ ^ 2 - 2 x_10_ * x_9_ + 1 x_10_ ^ 2 + 1 y_9_ ^ 2 - 2 y_10_ * y_9_ + 1 y_10_ ^ 2 ] >= 10950.39
quadratic_ranged_12_lb: [ 1 x_4_ ^ 2 - 2 x_11_ * x_4_ + 1 x_11_ ^ 2 + 1 y_4_ ^ 2 - 2 y_11_ * y_4_ + 1 y_11_ ^ 2 ] >= 17472.51
quadratic_ranged_13_lb: [ 1 x_7_ ^ 2 - 2 x_11_ * x_7_ + 1 x_11_ ^ 2 + 1 y_7_ ^ 2 - 2 y_11_ * y_7_ + 1 y_11_ ^ 2 ] >= 7758.63
quadratic_ranged_14_lb: [ 1 x_10_ ^ 2 - 2 x_11_ * x_10_ + 1 x_11_ ^ 2 + 1 y_10_ ^ 2 - 2 y_11_ * y_10_ + 1 y_11_ ^ 2 ] >= 30729.6
quadratic_ranged_15_lb: [ 1 x_4_ ^ 2 - 2 x_12_ * x_4_ + 1 x_12_ ^ 2 + 1 y_4_ ^ 2 - 2 y_12_ * y_4_ + 1 y_12_ ^ 2 ] >= 8162.55
quadratic_ranged_16_lb: [ 1 x_11_ ^ 2 - 2 x_12_ * x_11_ + 1 x_12_ ^ 2 + 1 y_11_ ^ 2 - 2 y_12_ * y_11_ + 1 y_12_ ^ 2 ] >= 2124.54
quadratic_ranged_17_lb: [ 1 x_12_ ^ 2 - 2 x_13_ * x_12_ + 1 x_13_ ^ 2 + 1 y_12_ ^ 2 - 2 y_13_ * y_12_ + 1 y_13_ ^ 2 ] >= 21321.63
quadratic_ranged_18_lb: [ 1 x_7_ ^ 2 - 2 x_14_ * x_7_ + 1 x_14_ ^ 2 + 1 y_7_ ^ 2 - 2 y_14_ * y_7_ + 1 y_14_ ^ 2 ] >= 11177.1
quadratic_ranged_19_lb: [ 1 x_13_ ^ 2 - 2 x_14_ * x_13_ + 1 x_14_ ^ 2 + 1 y_13_ ^ 2 - 2 y_14_ * y_13_ + 1 y_14_ ^ 2 ] >= 25195.5
quadratic_ranged_20_lb: [ 1 x_2_ ^ 2 - 2 x_15_ * x_2_ + 1 x_15_ ^ 2 + 1 y_2_ ^ 2 - 2 y_15_ * y_2_ + 1 y_15_ ^ 2 ] >= 20358.36
quadratic_ranged_21_lb: [ 1 x_4_ ^ 2 - 2 x_15_ * x_4_ + 1 x_15_ ^ 2 + 1 y_4_ ^ 2 - 2 y_15_ * y_4_ + 1 y_15_ ^ 2 ] >= 29348.55
quadratic_ranged_22_lb: [ 1 x_14_ ^ 2 - 2 x_15_ * x_14_ + 1 x_15_ ^ 2 + 1 y_14_ ^ 2 - 2 y_15_ * y_14_ + 1 y_15_ ^ 2 ] >= 25202.43
quadratic_ranged_23_lb: [ 1 x_13_ ^ 2 - 2 x_16_ * x_13_ + 1 x_16_ ^ 2 + 1 y_13_ ^ 2 - 2 y_16_ * y_13_ + 1 y_16_ ^ 2 ] >= 42048.27
quadratic_ranged_24_lb: [ 1 x_15_ ^ 2 - 2 x_16_ * x_15_ + 1 x_16_ ^ 2 + 1 y_15_ ^ 2 - 2 y_16_ * y_15_ + 1 y_16_ ^ 2 ] >= 4468.86
quadratic_ranged_25_lb: [ 1 x_15_ ^ 2 - 2 x_17_ * x_15_ + 1 x_17_ ^ 2 + 1 y_15_ ^ 2 - 2 y_17_ * y_15_ + 1 y_17_ ^ 2 ] >= 7327.98
quadratic_ranged_26_lb: [ 1 x_16_ ^ 2 - 2 x_17_ * x_16_ + 1 x_17_ ^ 2 + 1 y_16_ ^ 2 - 2 y_17_ * y_16_ + 1 y_17_ ^ 2 ] >= 14842.08
quadratic_ranged_27_lb: [ 1 x_10_ ^ 2 - 2 x_18_ * x_10_ + 1 x_18_ ^ 2 + 1 y_10_ ^ 2 - 2 y_18_ * y_10_ + 1 y_18_ ^ 2 ] >= 16483.5
quadratic_ranged_28_lb: [ 1 x_17_ ^ 2 - 2 x_18_ * x_17_ + 1 x_18_ ^ 2 + 1 y_17_ ^ 2 - 2 y_18_ * y_17_ + 1 y_18_ ^ 2 ] >= 9266.4
quadratic_ranged_29_lb: [ 1 x_3_ ^ 2 - 2 x_19_ * x_3_ + 1 x_19_ ^ 2 + 1 y_3_ ^ 2 - 2 y_19_ * y_3_ + 1 y_19_ ^ 2 ] >= 1560.24
quadratic_ranged_30_lb: [ 1 x_9_ ^ 2 - 2 x_19_ * x_9_ + 1 x_19_ ^ 2 + 1 y_9_ ^ 2 - 2 y_19_ * y_9_ + 1 y_19_ ^ 2 ] >= 32362.11
quadratic_ranged_31_lb: [ 1 x_17_ ^ 2 - 2 x_19_ * x_17_ + 1 x_19_ ^ 2 + 1 y_17_ ^ 2 - 2 y_19_ * y_17_ + 1 y_19_ ^ 2 ] >= 19136.7
quadratic_ranged_32_lb: [ 1 x_18_ ^ 2 - 2 x_19_ * x_18_ + 1 x_19_ ^ 2 + 1 y_18_ ^ 2 - 2 y_19_ * y_18_ + 1 y_19_ ^ 2 ] >= 2053.2599999999998
quadratic_ranged_33_lb: [ 1 x_5_ ^ 2 - 2 x_20_ * x_5_ + 1 x_20_ ^ 2 + 1 y_5_ ^ 2 - 2 y_20_ * y_5_ + 1 y_20_ ^ 2 ] >= 24406.47
quadratic_ranged_34_lb: [ 1 x_14_ ^ 2 - 2 x_20_ * x_14_ + 1 x_20_ ^ 2 + 1 y_14_ ^ 2 - 2 y_20_ * y_14_ + 1 y_20_ ^ 2 ] >= 3766.95
quadratic_ranged_35_lb: [ 1 x_19_ ^ 2 - 2 x_20_ * x_19_ + 1 x_20_ ^ 2 + 1 y_19_ ^ 2 - 2 y_20_ * y_19_ + 1 y_20_ ^ 2 ] >= 9157.5
quadratic_ranged_36_lb: [ 1 x_14_ ^ 2 - 2 x_21_ * x_14_ + 1 x_21_ ^ 2 + 1 y_14_ ^ 2 - 2 y_21_ * y_14_ + 1 y_21_ ^ 2 ] >= 17544.78
quadratic_ranged_37_lb: [ 1 x_17_ ^ 2 - 2 x_21_ * x_17_ + 1 x_21_ ^ 2 + 1 y_17_ ^ 2 - 2 y_21_ * y_17_ + 1 y_21_ ^ 2 ] >= 3521.43
quadratic_ranged_38_lb: [ 1 x_20_ ^ 2 - 2 x_21_ * x_20_ + 1 x_21_ ^ 2 + 1 y_20_ ^ 2 - 2 y_21_ * y_20_ + 1 y_21_ ^ 2 ] >= 35648.909999999996
quadratic_ranged_39_lb: [ 1 x_21_ ^ 2 - 2 x_22_ * x_21_ + 1 x_22_ ^ 2 + 1 y_21_ ^ 2 - 2 y_22_ * y_21_ + 1 y_22_ ^ 2 ] >= 5133.15
quadratic_ranged_40_lb: [ 1 x_10_ ^ 2 - 2 x_23_ * x_10_ + 1 x_23_ ^ 2 + 1 y_10_ ^ 2 - 2 y_23_ * y_10_ + 1 y_23_ ^ 2 ] >= 17839.8
quadratic_ranged_41_lb: [ 1 x_18_ ^ 2 - 2 x_23_ * x_18_ + 1 x_23_ ^ 2 + 1 y_18_ ^ 2 - 2 y_23_ * y_18_ + 1 y_23_ ^ 2 ] >= 4563.9
quadratic_ranged_42_lb: [ 1 x_22_ ^ 2 - 2 x_23_ * x_22_ + 1 x_23_ ^ 2 + 1 y_22_ ^ 2 - 2 y_23_ * y_22_ + 1 y_23_ ^ 2 ] >= 6894.36
quadratic_ranged_43_lb: [ 1 x_7_ ^ 2 - 2 x_24_ * x_7_ + 1 x_24_ ^ 2 + 1 y_7_ ^ 2 - 2 y_24_ * y_7_ + 1 y_24_ ^ 2 ] >= 9323.82
quadratic_ranged_44_lb: [ 1 x_23_ ^ 2 - 2 x_24_ * x_23_ + 1 x_24_ ^ 2 + 1 y_23_ ^ 2 - 2 y_24_ * y_23_ + 1 y_24_ ^ 2 ] >= 1264.23
quadratic_ranged_45_lb: [ 1 x_3_ ^ 2 - 2 x_25_ * x_3_ + 1 x_25_ ^ 2 + 1 y_3_ ^ 2 - 2 y_25_ * y_3_ + 1 y_25_ ^ 2 ] >= 33371.909999999996
quadratic_ranged_46_lb: [ 1 x_6_ ^ 2 - 2 x_25_ * x_6_ + 1 x_25_ ^ 2 + 1 y_6_ ^ 2 - 2 y_25_ * y_6_ + 1 y_25_ ^ 2 ] >= 10915.74
quadratic_ranged_47_lb: [ 1 x_7_ ^ 2 - 2 x_25_ * x_7_ + 1 x_25_ ^ 2 + 1 y_7_ ^ 2 - 2 y_25_ * y_7_ + 1 y_25_ ^ 2 ] >= 8183.34
quadratic_ranged_48_lb: [ 1 x_24_ ^ 2 - 2 x_25_ * x_24_ + 1 x_25_ ^ 2 + 1 y_24_ ^ 2 - 2 y_25_ * y_24_ + 1 y_25_ ^ 2 ] >= 26619.12
quadratic_ranged_49_lb: [ 1 x_16_ ^ 2 - 2 x_26_ * x_16_ + 1 x_26_ ^ 2 + 1 y_16_ ^ 2 - 2 y_26_ * y_16_ + 1 y_26_ ^ 2 ] >= 20586.06
quadratic_ranged_50_lb: [ 1 x_22_ ^ 2 - 2 x_26_ * x_22_ + 1 x_26_ ^ 2 + 1 y_22_ ^ 2 - 2 y_26_ * y_22_ + 1 y_26_ ^ 2 ] >= 19023.84
quadratic_ranged_51_lb: [ 1 x_25_ ^ 2 - 2 x_26_ * x_25_ + 1 x_26_ ^ 2 + 1 y_25_ ^ 2 - 2 y_26_ * y_25_ + 1 y_26_ ^ 2 ] >= 12676.95
quadratic_ranged_52_lb: [ 1 x_2_ ^ 2 - 2 x_27_ * x_2_ + 1 x_27_ ^ 2 + 1 y_2_ ^ 2 - 2 y_27_ * y_2_ + 1 y_27_ ^ 2 ] >= 4424.31
quadratic_ranged_53_lb: [ 1 x_4_ ^ 2 - 2 x_27_ * x_4_ + 1 x_27_ ^ 2 + 1 y_4_ ^ 2 - 2 y_27_ * y_4_ + 1 y_27_ ^ 2 ] >= 6900.3
quadratic_ranged_54_lb: [ 1 x_7_ ^ 2 - 2 x_27_ * x_7_ + 1 x_27_ ^ 2 + 1 y_7_ ^ 2 - 2 y_27_ * y_7_ + 1 y_27_ ^ 2 ] >= 730.62
quadratic_ranged_55_lb: [ 1 x_18_ ^ 2 - 2 x_27_ * x_18_ + 1 x_27_ ^ 2 + 1 y_18_ ^ 2 - 2 y_27_ * y_18_ + 1 y_27_ ^ 2 ] >= 1608.75
quadratic_ranged_56_lb: [ 1 x_22_ ^ 2 - 2 x_27_ * x_22_ + 1 x_27_ ^ 2 + 1 y_22_ ^ 2 - 2 y_27_ * y_22_ + 1 y_27_ ^ 2 ] >= 6277.59
quadratic_ranged_57_lb: [ 1 x_26_ ^ 2 - 2 x_27_ * x_26_ + 1 x_27_ ^ 2 + 1 y_26_ ^ 2 - 2 y_27_ * y_26_ + 1 y_27_ ^ 2 ] >= 3687.75
quadratic_ranged_58_lb: [ 1 x_2_ ^ 2 - 2 x_28_ * x_2_ + 1 x_28_ ^ 2 + 1 y_2_ ^ 2 - 2 y_28_ * y_2_ + 1 y_28_ ^ 2 ] >= 6013.26
quadratic_ranged_59_lb: [ 1 x_11_ ^ 2 - 2 x_28_ * x_11_ + 1 x_28_ ^ 2 + 1 y_11_ ^ 2 - 2 y_28_ * y_11_ + 1 y_28_ ^ 2 ] >= 3217.5
quadratic_ranged_60_lb: [ 1 x_18_ ^ 2 - 2 x_28_ * x_18_ + 1 x_28_ ^ 2 + 1 y_18_ ^ 2 - 2 y_28_ * y_18_ + 1 y_28_ ^ 2 ] >= 1587.96
quadratic_ranged_61_lb: [ 1 x_23_ ^ 2 - 2 x_28_ * x_23_ + 1 x_28_ ^ 2 + 1 y_23_ ^ 2 - 2 y_28_ * y_23_ + 1 y_28_ ^ 2 ] >= 11501.82
quadratic_ranged_62_lb: [ 1 x_27_ ^ 2 - 2 x_28_ * x_27_ + 1 x_28_ ^ 2 + 1 y_27_ ^ 2 - 2 y_28_ * y_27_ + 1 y_28_ ^ 2 ] >= 329.67
quadratic_ranged_63_lb: [ 1 x_14_ ^ 2 - 2 x_29_ * x_14_ + 1 x_29_ ^ 2 + 1 y_14_ ^ 2 - 2 y_29_ * y_14_ + 1 y_29_ ^ 2 ] >= 18362.52
quadratic_ranged_64_lb: [ 1 x_17_ ^ 2 - 2 x_29_ * x_17_ + 1 x_29_ ^ 2 + 1 y_17_ ^ 2 - 2 y_29_ * y_17_ + 1 y_29_ ^ 2 ] >= 998.91
quadratic_ranged_65_lb: [ 1 x_19_ ^ 2 - 2 x_29_ * x_19_ + 1 x_29_ ^ 2 + 1 y_19_ ^ 2 - 2 y_29_ * y_19_ + 1 y_29_ ^ 2 ] >= 16173.63
quadratic_ranged_66_lb: [ 1 x_28_ ^ 2 - 2 x_29_ * x_28_ + 1 x_29_ ^ 2 + 1 y_28_ ^ 2 - 2 y_29_ * y_28_ + 1 y_29_ ^ 2 ] >= 1858.23
quadratic_ranged_67_lb: [ 1 x_11_ ^ 2 - 2 x_30_ * x_11_ + 1 x_30_ ^ 2 + 1 y_11_ ^ 2 - 2 y_30_ * y_11_ + 1 y_30_ ^ 2 ] >= 23713.47
quadratic_ranged_68_lb: [ 1 x_29_ ^ 2 - 2 x_30_ * x_29_ + 1 x_30_ ^ 2 + 1 y_29_ ^ 2 - 2 y_30_ * y_29_ + 1 y_30_ ^ 2 ] >= 11139.48
quadratic_ranged_69_lb: [ 1 x_30_ ^ 2 - 2 x_31_ * x_30_ + 1 x_31_ ^ 2 + 1 y_30_ ^ 2 - 2 y_31_ * y_30_ + 1 y_31_ ^ 2 ] >= 5165.82
quadratic_ranged_70_lb: [ 1 x_18_ ^ 2 - 2 x_32_ * x_18_ + 1 x_32_ ^ 2 + 1 y_18_ ^ 2 - 2 y_32_ * y_18_ + 1 y_32_ ^ 2 ] >= 2053.2599999999998
quadratic_ranged_71_lb: [ 1 x_20_ ^ 2 - 2 x_32_ * x_20_ + 1 x_32_ ^ 2 + 1 y_20_ ^ 2 - 2 y_32_ * y_20_ + 1 y_32_ ^ 2 ] >= 25005.42
quadratic_ranged_72_lb: [ 1 x_31_ ^ 2 - 2 x_32_ * x_31_ + 1 x_32_ ^ 2 + 1 y_31_ ^ 2 - 2 y_32_ * y_31_ + 1 y_32_ ^ 2 ] >= 25962.75
quadratic_ranged_73_lb: [ 1 x_20_ ^ 2 - 2 x_33_ * x_20_ + 1 x_33_ ^ 2 + 1 y_20_ ^ 2 - 2 y_33_ * y_20_ + 1 y_33_ ^ 2 ] >= 27839.79
quadratic_ranged_74_lb: [ 1 x_32_ ^ 2 - 2 x_33_ * x_32_ + 1 x_33_ ^ 2 + 1 y_32_ ^ 2 - 2 y_33_ * y_32_ + 1 y_33_ ^ 2 ] >= 28279.35
quadratic_ranged_75_lb: [ 1 x_2_ ^ 2 - 2 x_34_ * x_2_ + 1 x_34_ ^ 2 + 1 y_2_ ^ 2 - 2 y_34_ * y_2_ + 1 y_34_ ^ 2 ] >= 19516.86
quadratic_ranged_76_lb: [ 1 x_25_ ^ 2 - 2 x_34_ * x_25_ + 1 x_34_ ^ 2 + 1 y_25_ ^ 2 - 2 y_34_ * y_25_ + 1 y_34_ ^ 2 ] >= 21103.829999999998
quadratic_ranged_77_lb: [ 1 x_33_ ^ 2 - 2 x_34_ * x_33_ + 1 x_34_ ^ 2 + 1 y_33_ ^ 2 - 2 y_34_ * y_33_ + 1 y_34_ ^ 2 ] >= 123.75
quadratic_ranged_78_lb: [ 1 x_29_ ^ 2 - 2 x_35_ * x_29_ + 1 x_35_ ^ 2 + 1 y_29_ ^ 2 - 2 y_35_ * y_29_ + 1 y_35_ ^ 2 ] >= 2642.31
quadratic_ranged_79_lb: [ 1 x_34_ ^ 2 - 2 x_35_ * x_34_ + 1 x_35_ ^ 2 + 1 y_34_ ^ 2 - 2 y_35_ * y_34_ + 1 y_35_ ^ 2 ] >= 18701.1
quadratic_ranged_80_lb: [ 1 x_4_ ^ 2 - 2 x_36_ * x_4_ + 1 x_36_ ^ 2 + 1 y_4_ ^ 2 - 2 y_36_ * y_4_ + 1 y_36_ ^ 2 ] >= 1287
quadratic_ranged_81_lb: [ 1 x_6_ ^ 2 - 2 x_36_ * x_6_ + 1 x_36_ ^ 2 + 1 y_6_ ^ 2 - 2 y_36_ * y_6_ + 1 y_36_ ^ 2 ] >= 32079.96
quadratic_ranged_82_lb: [ 1 x_12_ ^ 2 - 2 x_36_ * x_12_ + 1 x_36_ ^ 2 + 1 y_12_ ^ 2 - 2 y_36_ * y_12_ + 1 y_36_ ^ 2 ] >= 14688.63
quadratic_ranged_83_lb: [ 1 x_33_ ^ 2 - 2 x_36_ * x_33_ + 1 x_36_ ^ 2 + 1 y_33_ ^ 2 - 2 y_36_ * y_33_ + 1 y_36_ ^ 2 ] >= 12624.48
quadratic_ranged_84_lb: [ 1 x_34_ ^ 2 - 2 x_36_ * x_34_ + 1 x_36_ ^ 2 + 1 y_34_ ^ 2 - 2 y_36_ * y_34_ + 1 y_36_ ^ 2 ] >= 12201.75
quadratic_ranged_85_lb: [ 1 x_35_ ^ 2 - 2 x_36_ * x_35_ + 1 x_36_ ^ 2 + 1 y_35_ ^ 2 - 2 y_36_ * y_35_ + 1 y_36_ ^ 2 ] >= 42163.11
quadratic_ranged_86_lb: [ 1 x_1_ ^ 2 - 2 x_37_ * x_1_ + 1 x_37_ ^ 2 + 1 y_1_ ^ 2 - 2 y_37_ * y_1_ + 1 y_37_ ^ 2 ] >= 13211.55
quadratic_ranged_87_lb: [ 1 x_18_ ^ 2 - 2 x_37_ * x_18_ + 1 x_37_ ^ 2 + 1 y_18_ ^ 2 - 2 y_37_ * y_18_ + 1 y_37_ ^ 2 ] >= 29038.68
quadratic_ranged_88_lb: [ 1 x_36_ ^ 2 - 2 x_37_ * x_36_ + 1 x_37_ ^ 2 + 1 y_36_ ^ 2 - 2 y_37_ * y_36_ + 1 y_37_ ^ 2 ] >= 12914.55
quadratic_ranged_89_lb: [ 1 x_4_ ^ 2 - 2 x_38_ * x_4_ + 1 x_38_ ^ 2 + 1 y_4_ ^ 2 - 2 y_38_ * y_4_ + 1 y_38_ ^ 2 ] >= 2267.1
quadratic_ranged_90_lb: [ 1 x_9_ ^ 2 - 2 x_38_ * x_9_ + 1 x_38_ ^ 2 + 1 y_9_ ^ 2 - 2 y_38_ * y_9_ + 1 y_38_ ^ 2 ] >= 8159.58
quadratic_ranged_91_lb: [ 1 x_13_ ^ 2 - 2 x_38_ * x_13_ + 1 x_38_ ^ 2 + 1 y_13_ ^ 2 - 2 y_38_ * y_13_ + 1 y_38_ ^ 2 ] >= 8183.34
quadratic_ranged_92_lb: [ 1 x_16_ ^ 2 - 2 x_38_ * x_16_ + 1 x_38_ ^ 2 + 1 y_16_ ^ 2 - 2 y_38_ * y_16_ + 1 y_38_ ^ 2 ] >= 17298.27
quadratic_ranged_93_lb: [ 1 x_19_ ^ 2 - 2 x_38_ * x_19_ + 1 x_38_ ^ 2 + 1 y_19_ ^ 2 - 2 y_38_ * y_19_ + 1 y_38_ ^ 2 ] >= 8095.23
quadratic_ranged_94_lb: [ 1 x_24_ ^ 2 - 2 x_38_ * x_24_ + 1 x_38_ ^ 2 + 1 y_24_ ^ 2 - 2 y_38_ * y_24_ + 1 y_38_ ^ 2 ] >= 6058.8
quadratic_ranged_95_lb: [ 1 x_33_ ^ 2 - 2 x_38_ * x_33_ + 1 x_38_ ^ 2 + 1 y_33_ ^ 2 - 2 y_38_ * y_33_ + 1 y_38_ ^ 2 ] >= 5395.5
quadratic_ranged_96_lb: [ 1 x_37_ ^ 2 - 2 x_38_ * x_37_ + 1 x_38_ ^ 2 + 1 y_37_ ^ 2 - 2 y_38_ * y_37_ + 1 y_38_ ^ 2 ] >= 10625.67
quadratic_ranged_97_lb: [ 1 x_5_ ^ 2 - 2 x_39_ * x_5_ + 1 x_39_ ^ 2 + 1 y_5_ ^ 2 - 2 y_39_ * y_5_ + 1 y_39_ ^ 2 ] >= 30342.51
quadratic_ranged_98_lb: [ 1 x_18_ ^ 2 - 2 x_39_ * x_18_ + 1 x_39_ ^ 2 + 1 y_18_ ^ 2 - 2 y_39_ * y_18_ + 1 y_39_ ^ 2 ] >= 10296
quadratic_ranged_99_lb: [ 1 x_35_ ^ 2 - 2 x_39_ * x_35_ + 1 x_39_ ^ 2 + 1 y_35_ ^ 2 - 2 y_39_ * y_35_ + 1 y_39_ ^ 2 ] >= 15849.9
quadratic_ranged_100_lb: [ 1 x_36_ ^ 2 - 2 x_39_ * x_36_ + 1 x_39_ ^ 2 + 1 y_36_ ^ 2 - 2 y_39_ * y_36_ + 1 y_39_ ^ 2 ] >= 7996.23
quadratic_ranged_101_lb: [ 1 x_38_ ^ 2 - 2 x_39_ * x_38_ + 1 x_39_ ^ 2 + 1 y_38_ ^ 2 - 2 y_39_ * y_38_ + 1 y_39_ ^ 2 ] >= 1846.35
quadratic_ranged_102_lb: [ 1 x_6_ ^ 2 - 2 x_40_ * x_6_ + 1 x_40_ ^ 2 + 1 y_6_ ^ 2 - 2 y_40_ * y_6_ + 1 y_40_ ^ 2 ] >= 9703.98
quadratic_ranged_103_lb: [ 1 x_8_ ^ 2 - 2 x_40_ * x_8_ + 1 x_40_ ^ 2 + 1 y_8_ ^ 2 - 2 y_40_ * y_8_ + 1 y_40_ ^ 2 ] >= 9393.12
quadratic_ranged_104_lb: [ 1 x_39_ ^ 2 - 2 x_40_ * x_39_ + 1 x_40_ ^ 2 + 1 y_39_ ^ 2 - 2 y_40_ * y_39_ + 1 y_40_ ^ 2 ] >= 23012.55
quadratic_ranged_105_lb: [ 1 x_5_ ^ 2 - 2 x_41_ * x_5_ + 1 x_41_ ^ 2 + 1 y_5_ ^ 2 - 2 y_41_ * y_5_ + 1 y_41_ ^ 2 ] >= 21749.31
quadratic_ranged_106_lb: [ 1 x_27_ ^ 2 - 2 x_41_ * x_27_ + 1 x_41_ ^ 2 + 1 y_27_ ^ 2 - 2 y_41_ * y_27_ + 1 y_41_ ^ 2 ] >= 1291.95
quadratic_ranged_107_lb: [ 1 x_40_ ^ 2 - 2 x_41_ * x_40_ + 1 x_41_ ^ 2 + 1 y_40_ ^ 2 - 2 y_41_ * y_40_ + 1 y_41_ ^ 2 ] >= 17365.59
quadratic_ranged_108_lb: [ 1 x_7_ ^ 2 - 2 x_42_ * x_7_ + 1 x_42_ ^ 2 + 1 y_7_ ^ 2 - 2 y_42_ * y_7_ + 1 y_42_ ^ 2 ] >= 10648.44
quadratic_ranged_109_lb: [ 1 x_20_ ^ 2 - 2 x_42_ * x_20_ + 1 x_42_ ^ 2 + 1 y_20_ ^ 2 - 2 y_42_ * y_20_ + 1 y_42_ ^ 2 ] >= 26148.87
quadratic_ranged_110_lb: [ 1 x_41_ ^ 2 - 2 x_42_ * x_41_ + 1 x_42_ ^ 2 + 1 y_41_ ^ 2 - 2 y_42_ * y_41_ + 1 y_42_ ^ 2 ] >= 13829.31
quadratic_ranged_111_lb: [ 1 x_3_ ^ 2 - 2 x_43_ * x_3_ + 1 x_43_ ^ 2 + 1 y_3_ ^ 2 - 2 y_43_ * y_3_ + 1 y_43_ ^ 2 ] >= 35842.95
quadratic_ranged_112_lb: [ 1 x_15_ ^ 2 - 2 x_43_ * x_15_ + 1 x_43_ ^ 2 + 1 y_15_ ^ 2 - 2 y_43_ * y_15_ + 1 y_43_ ^ 2 ] >= 3794.67
quadratic_ranged_113_lb: [ 1 x_16_ ^ 2 - 2 x_43_ * x_16_ + 1 x_43_ ^ 2 + 1 y_16_ ^ 2 - 2 y_43_ * y_16_ + 1 y_43_ ^ 2 ] >= 14977.71
quadratic_ranged_114_lb: [ 1 x_18_ ^ 2 - 2 x_43_ * x_18_ + 1 x_43_ ^ 2 + 1 y_18_ ^ 2 - 2 y_43_ * y_18_ + 1 y_43_ ^ 2 ] >= 15611.31
quadratic_ranged_115_lb: [ 1 x_22_ ^ 2 - 2 x_43_ * x_22_ + 1 x_43_ ^ 2 + 1 y_22_ ^ 2 - 2 y_43_ * y_22_ + 1 y_43_ ^ 2 ] >= 16617.15
quadratic_ranged_116_lb: [ 1 x_32_ ^ 2 - 2 x_43_ * x_32_ + 1 x_43_ ^ 2 + 1 y_32_ ^ 2 - 2 y_43_ * y_32_ + 1 y_43_ ^ 2 ] >= 18078.39
quadratic_ranged_117_lb: [ 1 x_42_ ^ 2 - 2 x_43_ * x_42_ + 1 x_43_ ^ 2 + 1 y_42_ ^ 2 - 2 y_43_ * y_42_ + 1 y_43_ ^ 2 ] >= 18410.04
quadratic_ranged_118_lb: [ 1 x_1_ ^ 2 - 2 x_44_ * x_1_ + 1 x_44_ ^ 2 + 1 y_1_ ^ 2 - 2 y_44_ * y_1_ + 1 y_44_ ^ 2 ] >= 9999
quadratic_ranged_119_lb: [ 1 x_6_ ^ 2 - 2 x_44_ * x_6_ + 1 x_44_ ^ 2 + 1 y_6_ ^ 2 - 2 y_44_ * y_6_ + 1 y_44_ ^ 2 ] >= 37608.12
quadratic_ranged_120_lb: [ 1 x_20_ ^ 2 - 2 x_44_ * x_20_ + 1 x_44_ ^ 2 + 1 y_20_ ^ 2 - 2 y_44_ * y_20_ + 1 y_44_ ^ 2 ] >= 33874.83
quadratic_ranged_121_lb: [ 1 x_43_ ^ 2 - 2 x_44_ * x_43_ + 1 x_44_ ^ 2 + 1 y_43_ ^ 2 - 2 y_44_ * y_43_ + 1 y_44_ ^ 2 ] >= 16255.8
quadratic_ranged_122_lb: [ 1 x_8_ ^ 2 - 2 x_45_ * x_8_ + 1 x_45_ ^ 2 + 1 y_8_ ^ 2 - 2 y_45_ * y_8_ + 1 y_45_ ^ 2 ] >= 4761.9
quadratic_ranged_123_lb: [ 1 x_13_ ^ 2 - 2 x_45_ * x_13_ + 1 x_45_ ^ 2 + 1 y_13_ ^ 2 - 2 y_45_ * y_13_ + 1 y_45_ ^ 2 ] >= 7682.4
quadratic_ranged_124_lb: [ 1 x_14_ ^ 2 - 2 x_45_ * x_14_ + 1 x_45_ ^ 2 + 1 y_14_ ^ 2 - 2 y_45_ * y_14_ + 1 y_45_ ^ 2 ] >= 8682.3
quadratic_ranged_125_lb: [ 1 x_15_ ^ 2 - 2 x_45_ * x_15_ + 1 x_45_ ^ 2 + 1 y_15_ ^ 2 - 2 y_45_ * y_15_ + 1 y_45_ ^ 2 ] >= 12098.789999999999
quadratic_ranged_126_lb: [ 1 x_21_ ^ 2 - 2 x_45_ * x_21_ + 1 x_45_ ^ 2 + 1 y_21_ ^ 2 - 2 y_45_ * y_21_ + 1 y_45_ ^ 2 ] >= 6058.8
quadratic_ranged_127_lb: [ 1 x_22_ ^ 2 - 2 x_45_ * x_22_ + 1 x_45_ ^ 2 + 1 y_22_ ^ 2 - 2 y_45_ * y_22_ + 1 y_45_ ^ 2 ] >= 12201.75
quadratic_ranged_128_lb: [ 1 x_34_ ^ 2 - 2 x_45_ * x_34_ + 1 x_45_ ^ 2 + 1 y_34_ ^ 2 - 2 y_45_ * y_34_ + 1 y_45_ ^ 2 ] >= 4681.71
quadratic_ranged_129_lb: [ 1 x_44_ ^ 2 - 2 x_45_ * x_44_ + 1 x_45_ ^ 2 + 1 y_44_ ^ 2 - 2 y_45_ * y_44_ + 1 y_45_ ^ 2 ] >= 7326
quadratic_ranged_130_lb: [ 1 x_3_ ^ 2 - 2 x_46_ * x_3_ + 1 x_46_ ^ 2 + 1 y_3_ ^ 2 - 2 y_46_ * y_3_ + 1 y_46_ ^ 2 ] >= 13725.36
quadratic_ranged_131_lb: [ 1 x_7_ ^ 2 - 2 x_46_ * x_7_ + 1 x_46_ ^ 2 + 1 y_7_ ^ 2 - 2 y_46_ * y_7_ + 1 y_46_ ^ 2 ] >= 13916.43
quadratic_ranged_132_lb: [ 1 x_9_ ^ 2 - 2 x_46_ * x_9_ + 1 x_46_ ^ 2 + 1 y_9_ ^ 2 - 2 y_46_ * y_9_ + 1 y_46_ ^ 2 ] >= 17250.75
quadratic_ranged_133_lb: [ 1 x_29_ ^ 2 - 2 x_46_ * x_29_ + 1 x_46_ ^ 2 + 1 y_29_ ^ 2 - 2 y_46_ * y_29_ + 1 y_46_ ^ 2 ] >= 23745.15
quadratic_ranged_134_lb: [ 1 x_32_ ^ 2 - 2 x_46_ * x_32_ + 1 x_46_ ^ 2 + 1 y_32_ ^ 2 - 2 y_46_ * y_32_ + 1 y_46_ ^ 2 ] >= 18996.12
quadratic_ranged_135_lb: [ 1 x_44_ ^ 2 - 2 x_46_ * x_44_ + 1 x_46_ ^ 2 + 1 y_44_ ^ 2 - 2 y_46_ * y_44_ + 1 y_46_ ^ 2 ] >= 23190.75
quadratic_ranged_136_lb: [ 1 x_45_ ^ 2 - 2 x_46_ * x_45_ + 1 x_46_ ^ 2 + 1 y_45_ ^ 2 - 2 y_46_ * y_45_ + 1 y_46_ ^ 2 ] >= 9706.95
quadratic_ranged_137_lb: [ 1 x_4_ ^ 2 - 2 x_47_ * x_4_ + 1 x_47_ ^ 2 + 1 y_4_ ^ 2 - 2 y_47_ * y_4_ + 1 y_47_ ^ 2 ] >= 16087.5
quadratic_ranged_138_lb: [ 1 x_6_ ^ 2 - 2 x_47_ * x_6_ + 1 x_47_ ^ 2 + 1 y_6_ ^ 2 - 2 y_47_ * y_6_ + 1 y_47_ ^ 2 ] >= 18297.18
quadratic_ranged_139_lb: [ 1 x_15_ ^ 2 - 2 x_47_ * x_15_ + 1 x_47_ ^ 2 + 1 y_15_ ^ 2 - 2 y_47_ * y_15_ + 1 y_47_ ^ 2 ] >= 11132.55
quadratic_ranged_140_lb: [ 1 x_24_ ^ 2 - 2 x_47_ * x_24_ + 1 x_47_ ^ 2 + 1 y_24_ ^ 2 - 2 y_47_ * y_24_ + 1 y_47_ ^ 2 ] >= 18916.92
quadratic_ranged_141_lb: [ 1 x_36_ ^ 2 - 2 x_47_ * x_36_ + 1 x_47_ ^ 2 + 1 y_36_ ^ 2 - 2 y_47_ * y_36_ + 1 y_47_ ^ 2 ] >= 18344.7
quadratic_ranged_142_lb: [ 1 x_46_ ^ 2 - 2 x_47_ * x_46_ + 1 x_47_ ^ 2 + 1 y_46_ ^ 2 - 2 y_47_ * y_46_ + 1 y_47_ ^ 2 ] >= 21432.51
quadratic_ranged_143_lb: [ 1 x_26_ ^ 2 - 2 x_48_ * x_26_ + 1 x_48_ ^ 2 + 1 y_26_ ^ 2 - 2 y_48_ * y_26_ + 1 y_48_ ^ 2 ] >= 453.42
quadratic_ranged_144_lb: [ 1 x_28_ ^ 2 - 2 x_48_ * x_28_ + 1 x_48_ ^ 2 + 1 y_28_ ^ 2 - 2 y_48_ * y_28_ + 1 y_48_ ^ 2 ] >= 5995.44
quadratic_ranged_145_lb: [ 1 x_30_ ^ 2 - 2 x_48_ * x_30_ + 1 x_48_ ^ 2 + 1 y_30_ ^ 2 - 2 y_48_ * y_30_ + 1 y_48_ ^ 2 ] >= 488.07
quadratic_ranged_146_lb: [ 1 x_32_ ^ 2 - 2 x_48_ * x_32_ + 1 x_48_ ^ 2 + 1 y_32_ ^ 2 - 2 y_48_ * y_32_ + 1 y_48_ ^ 2 ] >= 20039.579999999998
quadratic_ranged_147_lb: [ 1 x_33_ ^ 2 - 2 x_48_ * x_33_ + 1 x_48_ ^ 2 + 1 y_33_ ^ 2 - 2 y_48_ * y_33_ + 1 y_48_ ^ 2 ] >= 1062.27
quadratic_ranged_148_lb: [ 1 x_34_ ^ 2 - 2 x_48_ * x_34_ + 1 x_48_ ^ 2 + 1 y_34_ ^ 2 - 2 y_48_ * y_34_ + 1 y_48_ ^ 2 ] >= 1465.2
quadratic_ranged_149_lb: [ 1 x_36_ ^ 2 - 2 x_48_ * x_36_ + 1 x_48_ ^ 2 + 1 y_36_ ^ 2 - 2 y_48_ * y_36_ + 1 y_48_ ^ 2 ] >= 7707.15
quadratic_ranged_150_lb: [ 1 x_37_ ^ 2 - 2 x_48_ * x_37_ + 1 x_48_ ^ 2 + 1 y_37_ ^ 2 - 2 y_48_ * y_37_ + 1 y_48_ ^ 2 ] >= 5076.72
quadratic_ranged_151_lb: [ 1 x_40_ ^ 2 - 2 x_48_ * x_40_ + 1 x_48_ ^ 2 + 1 y_40_ ^ 2 - 2 y_48_ * y_40_ + 1 y_48_ ^ 2 ] >= 22458.15
quadratic_ranged_152_lb: [ 1 x_43_ ^ 2 - 2 x_48_ * x_43_ + 1 x_48_ ^ 2 + 1 y_43_ ^ 2 - 2 y_48_ * y_43_ + 1 y_48_ ^ 2 ] >= 13009.59
quadratic_ranged_153_lb: [ 1 x_46_ ^ 2 - 2 x_48_ * x_46_ + 1 x_48_ ^ 2 + 1 y_46_ ^ 2 - 2 y_48_ * y_46_ + 1 y_48_ ^ 2 ] >= 10820.7
quadratic_ranged_154_lb: [ 1 x_47_ ^ 2 - 2 x_48_ * x_47_ + 1 x_48_ ^ 2 + 1 y_47_ ^ 2 - 2 y_48_ * y_47_ + 1 y_48_ ^ 2 ] >= 2380.95
quadratic_ranged_155_lb: [ 1 x_3_ ^ 2 - 2 x_49_ * x_3_ + 1 x_49_ ^ 2 + 1 y_3_ ^ 2 - 2 y_49_ * y_3_ + 1 y_49_ ^ 2 ] >= 2008.71
quadratic_ranged_156_lb: [ 1 x_11_ ^ 2 - 2 x_49_ * x_11_ + 1 x_49_ ^ 2 + 1 y_11_ ^ 2 - 2 y_49_ * y_11_ + 1 y_49_ ^ 2 ] >= 1977.03
quadratic_ranged_157_lb: [ 1 x_12_ ^ 2 - 2 x_49_ * x_12_ + 1 x_49_ ^ 2 + 1 y_12_ ^ 2 - 2 y_49_ * y_12_ + 1 y_49_ ^ 2 ] >= 1703.79
quadratic_ranged_158_lb: [ 1 x_41_ ^ 2 - 2 x_49_ * x_41_ + 1 x_49_ ^ 2 + 1 y_41_ ^ 2 - 2 y_49_ * y_41_ + 1 y_49_ ^ 2 ] >= 10447.47
quadratic_ranged_159_lb: [ 1 x_48_ ^ 2 - 2 x_49_ * x_48_ + 1 x_49_ ^ 2 + 1 y_48_ ^ 2 - 2 y_49_ * y_48_ + 1 y_49_ ^ 2 ] >= 16003.35
quadratic_ranged_160_lb: [ 1 x_3_ ^ 2 - 2 x_50_ * x_3_ + 1 x_50_ ^ 2 + 1 y_3_ ^ 2 - 2 y_50_ * y_3_ + 1 y_50_ ^ 2 ] >= 37438.83
quadratic_ranged_161_lb: [ 1 x_8_ ^ 2 - 2 x_50_ * x_8_ + 1 x_50_ ^ 2 + 1 y_8_ ^ 2 - 2 y_50_ * y_8_ + 1 y_50_ ^ 2 ] >= 22686.84
quadratic_ranged_162_lb: [ 1 x_16_ ^ 2 - 2 x_50_ * x_16_ + 1 x_50_ ^ 2 + 1 y_16_ ^ 2 - 2 y_50_ * y_16_ + 1 y_50_ ^ 2 ] >= 39434.67
quadratic_ranged_163_lb: [ 1 x_17_ ^ 2 - 2 x_50_ * x_17_ + 1 x_50_ ^ 2 + 1 y_17_ ^ 2 - 2 y_50_ * y_17_ + 1 y_50_ ^ 2 ] >= 13251.15
quadratic_ranged_164_lb: [ 1 x_23_ ^ 2 - 2 x_50_ * x_23_ + 1 x_50_ ^ 2 + 1 y_23_ ^ 2 - 2 y_50_ * y_23_ + 1 y_50_ ^ 2 ] >= 30417.75
quadratic_ranged_165_lb: [ 1 x_28_ ^ 2 - 2 x_50_ * x_28_ + 1 x_50_ ^ 2 + 1 y_28_ ^ 2 - 2 y_50_ * y_28_ + 1 y_50_ ^ 2 ] >= 16438.95
quadratic_ranged_166_lb: [ 1 x_32_ ^ 2 - 2 x_50_ * x_32_ + 1 x_50_ ^ 2 + 1 y_32_ ^ 2 - 2 y_50_ * y_32_ + 1 y_50_ ^ 2 ] >= 34266.87
quadratic_ranged_167_lb: [ 1 x_49_ ^ 2 - 2 x_50_ * x_49_ + 1 x_50_ ^ 2 + 1 y_49_ ^ 2 - 2 y_50_ * y_49_ + 1 y_50_ ^ 2 ] >= 26779.5
quadratic_ranged_168_lb: [ 1 x_26_ ^ 2 - 2 x_51_ * x_26_ + 1 x_51_ ^ 2 + 1 y_26_ ^ 2 - 2 y_51_ * y_26_ + 1 y_51_ ^ 2 ] >= 3640.23
quadratic_ranged_169_lb: [ 1 x_35_ ^ 2 - 2 x_51_ * x_35_ + 1 x_51_ ^ 2 + 1 y_35_ ^ 2 - 2 y_51_ * y_35_ + 1 y_51_ ^ 2 ] >= 15864.75
quadratic_ranged_170_lb: [ 1 x_47_ ^ 2 - 2 x_51_ * x_47_ + 1 x_51_ ^ 2 + 1 y_47_ ^ 2 - 2 y_51_ * y_47_ + 1 y_51_ ^ 2 ] >= 5918.22
quadratic_ranged_171_lb: [ 1 x_50_ ^ 2 - 2 x_51_ * x_50_ + 1 x_51_ ^ 2 + 1 y_50_ ^ 2 - 2 y_51_ * y_50_ + 1 y_51_ ^ 2 ] >= 8999.1
quadratic_ranged_172_lb: [ 1 x_15_ ^ 2 - 2 x_52_ * x_15_ + 1 x_52_ ^ 2 + 1 y_15_ ^ 2 - 2 y_52_ * y_15_ + 1 y_52_ ^ 2 ] >= 24156
quadratic_ranged_173_lb: [ 1 x_21_ ^ 2 - 2 x_52_ * x_21_ + 1 x_52_ ^ 2 + 1 y_21_ ^ 2 - 2 y_52_ * y_21_ + 1 y_52_ ^ 2 ] >= 16601.31
quadratic_ranged_174_lb: [ 1 x_48_ ^ 2 - 2 x_52_ * x_48_ + 1 x_52_ ^ 2 + 1 y_48_ ^ 2 - 2 y_52_ * y_48_ + 1 y_52_ ^ 2 ] >= 11620.62
quadratic_ranged_175_lb: [ 1 x_51_ ^ 2 - 2 x_52_ * x_51_ + 1 x_52_ ^ 2 + 1 y_51_ ^ 2 - 2 y_52_ * y_51_ + 1 y_52_ ^ 2 ] >= 3877.83
quadratic_ranged_176_lb: [ 1 x_27_ ^ 2 - 2 x_53_ * x_27_ + 1 x_53_ ^ 2 + 1 y_27_ ^ 2 - 2 y_53_ * y_27_ + 1 y_53_ ^ 2 ] >= 1287
quadratic_ranged_177_lb: [ 1 x_37_ ^ 2 - 2 x_53_ * x_37_ + 1 x_53_ ^ 2 + 1 y_37_ ^ 2 - 2 y_53_ * y_37_ + 1 y_53_ ^ 2 ] >= 19781.19
quadratic_ranged_178_lb: [ 1 x_48_ ^ 2 - 2 x_53_ * x_48_ + 1 x_53_ ^ 2 + 1 y_48_ ^ 2 - 2 y_53_ * y_48_ + 1 y_53_ ^ 2 ] >= 5457.87
quadratic_ranged_179_lb: [ 1 x_52_ ^ 2 - 2 x_53_ * x_52_ + 1 x_53_ ^ 2 + 1 y_52_ ^ 2 - 2 y_53_ * y_52_ + 1 y_53_ ^ 2 ] >= 1806.75
quadratic_ranged_180_lb: [ 1 x_1_ ^ 2 - 2 x_54_ * x_1_ + 1 x_54_ ^ 2 + 1 y_1_ ^ 2 - 2 y_54_ * y_1_ + 1 y_54_ ^ 2 ] >= 6435
quadratic_ranged_181_lb: [ 1 x_13_ ^ 2 - 2 x_54_ * x_13_ + 1 x_54_ ^ 2 + 1 y_13_ ^ 2 - 2 y_54_ * y_13_ + 1 y_54_ ^ 2 ] >= 31822.56
quadratic_ranged_182_lb: [ 1 x_41_ ^ 2 - 2 x_54_ * x_41_ + 1 x_54_ ^ 2 + 1 y_41_ ^ 2 - 2 y_54_ * y_41_ + 1 y_54_ ^ 2 ] >= 9045.63
quadratic_ranged_183_lb: [ 1 x_53_ ^ 2 - 2 x_54_ * x_53_ + 1 x_54_ ^ 2 + 1 y_53_ ^ 2 - 2 y_54_ * y_53_ + 1 y_54_ ^ 2 ] >= 4492.62
quadratic_ranged_184_lb: [ 1 x_1_ ^ 2 - 2 x_55_ * x_1_ + 1 x_55_ ^ 2 + 1 y_1_ ^ 2 - 2 y_55_ * y_1_ + 1 y_55_ ^ 2 ] >= 8043.75
quadratic_ranged_185_lb: [ 1 x_14_ ^ 2 - 2 x_55_ * x_14_ + 1 x_55_ ^ 2 + 1 y_14_ ^ 2 - 2 y_55_ * y_14_ + 1 y_55_ ^ 2 ] >= 17159.67
quadratic_ranged_186_lb: [ 1 x_16_ ^ 2 - 2 x_55_ * x_16_ + 1 x_55_ ^ 2 + 1 y_16_ ^ 2 - 2 y_55_ * y_16_ + 1 y_55_ ^ 2 ] >= 2172.06
quadratic_ranged_187_lb: [ 1 x_27_ ^ 2 - 2 x_55_ * x_27_ + 1 x_55_ ^ 2 + 1 y_27_ ^ 2 - 2 y_55_ * y_27_ + 1 y_55_ ^ 2 ] >= 4507.47
quadratic_ranged_188_lb: [ 1 x_33_ ^ 2 - 2 x_55_ * x_33_ + 1 x_55_ ^ 2 + 1 y_33_ ^ 2 - 2 y_55_ * y_33_ + 1 y_55_ ^ 2 ] >= 19401.03
quadratic_ranged_189_lb: [ 1 x_36_ ^ 2 - 2 x_55_ * x_36_ + 1 x_55_ ^ 2 + 1 y_36_ ^ 2 - 2 y_55_ * y_36_ + 1 y_55_ ^ 2 ] >= 30441.51
quadratic_ranged_190_lb: [ 1 x_43_ ^ 2 - 2 x_55_ * x_43_ + 1 x_55_ ^ 2 + 1 y_43_ ^ 2 - 2 y_55_ * y_43_ + 1 y_55_ ^ 2 ] >= 5762.79
quadratic_ranged_191_lb: [ 1 x_54_ ^ 2 - 2 x_55_ * x_54_ + 1 x_55_ ^ 2 + 1 y_54_ ^ 2 - 2 y_55_ * y_54_ + 1 y_55_ ^ 2 ] >= 2400.75
quadratic_ranged_192_lb: [ 1 x_14_ ^ 2 - 2 x_56_ * x_14_ + 1 x_56_ ^ 2 + 1 y_14_ ^ 2 - 2 y_56_ * y_14_ + 1 y_56_ ^ 2 ] >= 4785.66
quadratic_ranged_193_lb: [ 1 x_32_ ^ 2 - 2 x_56_ * x_32_ + 1 x_56_ ^ 2 + 1 y_32_ ^ 2 - 2 y_56_ * y_32_ + 1 y_56_ ^ 2 ] >= 20355.39
quadratic_ranged_194_lb: [ 1 x_33_ ^ 2 - 2 x_56_ * x_33_ + 1 x_56_ ^ 2 + 1 y_33_ ^ 2 - 2 y_56_ * y_33_ + 1 y_56_ ^ 2 ] >= 8498.16
quadratic_ranged_195_lb: [ 1 x_47_ ^ 2 - 2 x_56_ * x_47_ + 1 x_56_ ^ 2 + 1 y_47_ ^ 2 - 2 y_56_ * y_47_ + 1 y_56_ ^ 2 ] >= 12285.9
quadratic_ranged_196_lb: [ 1 x_51_ ^ 2 - 2 x_56_ * x_51_ + 1 x_56_ ^ 2 + 1 y_51_ ^ 2 - 2 y_56_ * y_51_ + 1 y_56_ ^ 2 ] >= 3706.56
quadratic_ranged_197_lb: [ 1 x_53_ ^ 2 - 2 x_56_ * x_53_ + 1 x_56_ ^ 2 + 1 y_53_ ^ 2 - 2 y_56_ * y_53_ + 1 y_56_ ^ 2 ] >= 3763.98
quadratic_ranged_198_lb: [ 1 x_55_ ^ 2 - 2 x_56_ * x_55_ + 1 x_56_ ^ 2 + 1 y_55_ ^ 2 - 2 y_56_ * y_55_ + 1 y_56_ ^ 2 ] >= 22517.55
quadratic_ranged_199_lb: [ 1 x_2_ ^ 2 - 2 x_57_ * x_2_ + 1 x_57_ ^ 2 + 1 y_2_ ^ 2 - 2 y_57_ * y_2_ + 1 y_57_ ^ 2 ] >= 5604.39
quadratic_ranged_200_lb: [ 1 x_14_ ^ 2 - 2 x_57_ * x_14_ + 1 x_57_ ^ 2 + 1 y_14_ ^ 2 - 2 y_57_ * y_14_ + 1 y_57_ ^ 2 ] >= 8082.36
quadratic_ranged_201_lb: [ 1 x_38_ ^ 2 - 2 x_57_ * x_38_ + 1 x_57_ ^ 2 + 1 y_38_ ^ 2 - 2 y_57_ * y_38_ + 1 y_57_ ^ 2 ] >= 9155.52
quadratic_ranged_202_lb: [ 1 x_54_ ^ 2 - 2 x_57_ * x_54_ + 1 x_57_ ^ 2 + 1 y_54_ ^ 2 - 2 y_57_ * y_54_ + 1 y_57_ ^ 2 ] >= 33.66
quadratic_ranged_203_lb: [ 1 x_56_ ^ 2 - 2 x_57_ * x_56_ + 1 x_57_ ^ 2 + 1 y_56_ ^ 2 - 2 y_57_ * y_56_ + 1 y_57_ ^ 2 ] >= 15588.539999999999
quadratic_ranged_204_lb: [ 1 x_9_ ^ 2 - 2 x_58_ * x_9_ + 1 x_58_ ^ 2 + 1 y_9_ ^ 2 - 2 y_58_ * y_9_ + 1 y_58_ ^ 2 ] >= 13909.5
quadratic_ranged_205_lb: [ 1 x_15_ ^ 2 - 2 x_58_ * x_15_ + 1 x_58_ ^ 2 + 1 y_15_ ^ 2 - 2 y_58_ * y_15_ + 1 y_58_ ^ 2 ] >= 24814.35
quadratic_ranged_206_lb: [ 1 x_27_ ^ 2 - 2 x_58_ * x_27_ + 1 x_58_ ^ 2 + 1 y_27_ ^ 2 - 2 y_58_ * y_27_ + 1 y_58_ ^ 2 ] >= 4851
quadratic_ranged_207_lb: [ 1 x_30_ ^ 2 - 2 x_58_ * x_30_ + 1 x_58_ ^ 2 + 1 y_30_ ^ 2 - 2 y_58_ * y_30_ + 1 y_58_ ^ 2 ] >= 6977.5199999999995
quadratic_ranged_208_lb: [ 1 x_32_ ^ 2 - 2 x_58_ * x_32_ + 1 x_58_ ^ 2 + 1 y_32_ ^ 2 - 2 y_58_ * y_32_ + 1 y_58_ ^ 2 ] >= 13191.75
quadratic_ranged_209_lb: [ 1 x_37_ ^ 2 - 2 x_58_ * x_37_ + 1 x_58_ ^ 2 + 1 y_37_ ^ 2 - 2 y_58_ * y_37_ + 1 y_58_ ^ 2 ] >= 17381.43
quadratic_ranged_210_lb: [ 1 x_39_ ^ 2 - 2 x_58_ * x_39_ + 1 x_58_ ^ 2 + 1 y_39_ ^ 2 - 2 y_58_ * y_39_ + 1 y_58_ ^ 2 ] >= 6511.23
quadratic_ranged_211_lb: [ 1 x_41_ ^ 2 - 2 x_58_ * x_41_ + 1 x_58_ ^ 2 + 1 y_41_ ^ 2 - 2 y_58_ * y_41_ + 1 y_58_ ^ 2 ] >= 5727.15
quadratic_ranged_212_lb: [ 1 x_57_ ^ 2 - 2 x_58_ * x_57_ + 1 x_58_ ^ 2 + 1 y_57_ ^ 2 - 2 y_58_ * y_57_ + 1 y_58_ ^ 2 ] >= 9999
quadratic_ranged_213_lb: [ 1 x_3_ ^ 2 - 2 x_59_ * x_3_ + 1 x_59_ ^ 2 + 1 y_3_ ^ 2 - 2 y_59_ * y_3_ + 1 y_59_ ^ 2 ] >= 9924.75
quadratic_ranged_214_lb: [ 1 x_15_ ^ 2 - 2 x_59_ * x_15_ + 1 x_59_ ^ 2 + 1 y_15_ ^ 2 - 2 y_59_ * y_15_ + 1 y_59_ ^ 2 ] >= 14759.91
quadratic_ranged_215_lb: [ 1 x_28_ ^ 2 - 2 x_59_ * x_28_ + 1 x_59_ ^ 2 + 1 y_28_ ^ 2 - 2 y_59_ * y_28_ + 1 y_59_ ^ 2 ] >= 2499.75
quadratic_ranged_216_lb: [ 1 x_38_ ^ 2 - 2 x_59_ * x_38_ + 1 x_59_ ^ 2 + 1 y_38_ ^ 2 - 2 y_59_ * y_38_ + 1 y_59_ ^ 2 ] >= 881.1
quadratic_ranged_217_lb: [ 1 x_40_ ^ 2 - 2 x_59_ * x_40_ + 1 x_59_ ^ 2 + 1 y_40_ ^ 2 - 2 y_59_ * y_40_ + 1 y_59_ ^ 2 ] >= 7129.98
quadratic_ranged_218_lb: [ 1 x_44_ ^ 2 - 2 x_59_ * x_44_ + 1 x_59_ ^ 2 + 1 y_44_ ^ 2 - 2 y_59_ * y_44_ + 1 y_59_ ^ 2 ] >= 14893.56
quadratic_ranged_219_lb: [ 1 x_58_ ^ 2 - 2 x_59_ * x_58_ + 1 x_59_ ^ 2 + 1 y_58_ ^ 2 - 2 y_59_ * y_58_ + 1 y_59_ ^ 2 ] >= 1308.78
quadratic_ranged_220_lb: [ 1 x_5_ ^ 2 - 2 x_60_ * x_5_ + 1 x_60_ ^ 2 + 1 y_5_ ^ 2 - 2 y_60_ * y_5_ + 1 y_60_ ^ 2 ] >= 44.55
quadratic_ranged_221_lb: [ 1 x_8_ ^ 2 - 2 x_60_ * x_8_ + 1 x_60_ ^ 2 + 1 y_8_ ^ 2 - 2 y_60_ * y_8_ + 1 y_60_ ^ 2 ] >= 6645.87
quadratic_ranged_222_lb: [ 1 x_9_ ^ 2 - 2 x_60_ * x_9_ + 1 x_60_ ^ 2 + 1 y_9_ ^ 2 - 2 y_60_ * y_9_ + 1 y_60_ ^ 2 ] >= 52502.67
quadratic_ranged_223_lb: [ 1 x_34_ ^ 2 - 2 x_60_ * x_34_ + 1 x_60_ ^ 2 + 1 y_34_ ^ 2 - 2 y_60_ * y_34_ + 1 y_60_ ^ 2 ] >= 43025.4
quadratic_ranged_224_lb: [ 1 x_45_ ^ 2 - 2 x_60_ * x_45_ + 1 x_60_ ^ 2 + 1 y_45_ ^ 2 - 2 y_60_ * y_45_ + 1 y_60_ ^ 2 ] >= 19321.829999999998
quadratic_ranged_225_lb: [ 1 x_49_ ^ 2 - 2 x_60_ * x_49_ + 1 x_60_ ^ 2 + 1 y_49_ ^ 2 - 2 y_60_ * y_49_ + 1 y_60_ ^ 2 ] >= 2024.55
quadratic_ranged_226_lb: [ 1 x_51_ ^ 2 - 2 x_60_ * x_51_ + 1 x_60_ ^ 2 + 1 y_51_ ^ 2 - 2 y_60_ * y_51_ + 1 y_60_ ^ 2 ] >= 13516.47
quadratic_ranged_227_lb: [ 1 x_59_ ^ 2 - 2 x_60_ * x_59_ + 1 x_60_ ^ 2 + 1 y_59_ ^ 2 - 2 y_60_ * y_59_ + 1 y_60_ ^ 2 ] >= 12253.23
quadratic_ranged_228_lb: [ 1 x_1_ ^ 2 - 2 x_61_ * x_1_ + 1 x_61_ ^ 2 + 1 y_1_ ^ 2 - 2 y_61_ * y_1_ + 1 y_61_ ^ 2 ] >= 3668.94
quadratic_ranged_229_lb: [ 1 x_3_ ^ 2 - 2 x_61_ * x_3_ + 1 x_61_ ^ 2 + 1 y_3_ ^ 2 - 2 y_61_ * y_3_ + 1 y_61_ ^ 2 ] >= 15246.99
quadratic_ranged_230_lb: [ 1 x_11_ ^ 2 - 2 x_61_ * x_11_ + 1 x_61_ ^ 2 + 1 y_11_ ^ 2 - 2 y_61_ * y_11_ + 1 y_61_ ^ 2 ] >= 3196.71
quadratic_ranged_231_lb: [ 1 x_15_ ^ 2 - 2 x_61_ * x_15_ + 1 x_61_ ^ 2 + 1 y_15_ ^ 2 - 2 y_61_ * y_15_ + 1 y_61_ ^ 2 ] >= 2519.55
quadratic_ranged_232_lb: [ 1 x_25_ ^ 2 - 2 x_61_ * x_25_ + 1 x_61_ ^ 2 + 1 y_25_ ^ 2 - 2 y_61_ * y_25_ + 1 y_61_ ^ 2 ] >= 4470.84
quadratic_ranged_233_lb: [ 1 x_35_ ^ 2 - 2 x_61_ * x_35_ + 1 x_61_ ^ 2 + 1 y_35_ ^ 2 - 2 y_61_ * y_35_ + 1 y_61_ ^ 2 ] >= 5006.43
quadratic_ranged_234_lb: [ 1 x_45_ ^ 2 - 2 x_61_ * x_45_ + 1 x_61_ ^ 2 + 1 y_45_ ^ 2 - 2 y_61_ * y_45_ + 1 y_61_ ^ 2 ] >= 3684.7799999999997
quadratic_ranged_235_lb: [ 1 x_48_ ^ 2 - 2 x_61_ * x_48_ + 1 x_61_ ^ 2 + 1 y_48_ ^ 2 - 2 y_61_ * y_48_ + 1 y_61_ ^ 2 ] >= 8023.95
quadratic_ranged_236_lb: [ 1 x_50_ ^ 2 - 2 x_61_ * x_50_ + 1 x_61_ ^ 2 + 1 y_50_ ^ 2 - 2 y_61_ * y_50_ + 1 y_61_ ^ 2 ] >= 20671.2
quadratic_ranged_237_lb: [ 1 x_60_ ^ 2 - 2 x_61_ * x_60_ + 1 x_61_ ^ 2 + 1 y_60_ ^ 2 - 2 y_61_ * y_60_ + 1 y_61_ ^ 2 ] >= 11805.75
quadratic_ranged_238_lb: [ 1 x_33_ ^ 2 - 2 x_62_ * x_33_ + 1 x_62_ ^ 2 + 1 y_33_ ^ 2 - 2 y_62_ * y_33_ + 1 y_62_ ^ 2 ] >= 23301.63
quadratic_ranged_239_lb: [ 1 x_38_ ^ 2 - 2 x_62_ * x_38_ + 1 x_62_ ^ 2 + 1 y_38_ ^ 2 - 2 y_62_ * y_38_ + 1 y_62_ ^ 2 ] >= 7493.3099999999995
quadratic_ranged_240_lb: [ 1 x_42_ ^ 2 - 2 x_62_ * x_42_ + 1 x_62_ ^ 2 + 1 y_42_ ^ 2 - 2 y_62_ * y_42_ + 1 y_62_ ^ 2 ] >= 2769.03
quadratic_ranged_241_lb: [ 1 x_46_ ^ 2 - 2 x_62_ * x_46_ + 1 x_62_ ^ 2 + 1 y_46_ ^ 2 - 2 y_62_ * y_46_ + 1 y_62_ ^ 2 ] >= 8207.1
quadratic_ranged_242_lb: [ 1 x_49_ ^ 2 - 2 x_62_ * x_49_ + 1 x_62_ ^ 2 + 1 y_49_ ^ 2 - 2 y_62_ * y_49_ + 1 y_62_ ^ 2 ] >= 321.75
quadratic_ranged_243_lb: [ 1 x_52_ ^ 2 - 2 x_62_ * x_52_ + 1 x_62_ ^ 2 + 1 y_52_ ^ 2 - 2 y_62_ * y_52_ + 1 y_62_ ^ 2 ] >= 2195.82
quadratic_ranged_244_lb: [ 1 x_59_ ^ 2 - 2 x_62_ * x_59_ + 1 x_62_ ^ 2 + 1 y_59_ ^ 2 - 2 y_62_ * y_59_ + 1 y_62_ ^ 2 ] >= 3271.95
quadratic_ranged_245_lb: [ 1 x_61_ ^ 2 - 2 x_62_ * x_61_ + 1 x_62_ ^ 2 + 1 y_61_ ^ 2 - 2 y_62_ * y_61_ + 1 y_62_ ^ 2 ] >= 7722.99
quadratic_ranged_246_lb: [ 1 x_1_ ^ 2 - 2 x_63_ * x_1_ + 1 x_63_ ^ 2 + 1 y_1_ ^ 2 - 2 y_63_ * y_1_ + 1 y_63_ ^ 2 ] >= 11183.039999999999
quadratic_ranged_247_lb: [ 1 x_8_ ^ 2 - 2 x_63_ * x_8_ + 1 x_63_ ^ 2 + 1 y_8_ ^ 2 - 2 y_63_ * y_8_ + 1 y_63_ ^ 2 ] >= 3882.7799999999997
quadratic_ranged_248_lb: [ 1 x_23_ ^ 2 - 2 x_63_ * x_23_ + 1 x_63_ ^ 2 + 1 y_23_ ^ 2 - 2 y_63_ * y_23_ + 1 y_63_ ^ 2 ] >= 25376.67
quadratic_ranged_249_lb: [ 1 x_26_ ^ 2 - 2 x_63_ * x_26_ + 1 x_63_ ^ 2 + 1 y_26_ ^ 2 - 2 y_63_ * y_26_ + 1 y_63_ ^ 2 ] >= 12538.35
quadratic_ranged_250_lb: [ 1 x_62_ ^ 2 - 2 x_63_ * x_62_ + 1 x_63_ ^ 2 + 1 y_62_ ^ 2 - 2 y_63_ * y_62_ + 1 y_63_ ^ 2 ] >= 15306.39
quadratic_ranged_251_lb: [ 1 x_2_ ^ 2 - 2 x_64_ * x_2_ + 1 x_64_ ^ 2 + 1 y_2_ ^ 2 - 2 y_64_ * y_2_ + 1 y_64_ ^ 2 ] >= 2890.8
quadratic_ranged_252_lb: [ 1 x_14_ ^ 2 - 2 x_64_ * x_14_ + 1 x_64_ ^ 2 + 1 y_14_ ^ 2 - 2 y_64_ * y_14_ + 1 y_64_ ^ 2 ] >= 3260.07
quadratic_ranged_253_lb: [ 1 x_15_ ^ 2 - 2 x_64_ * x_15_ + 1 x_64_ ^ 2 + 1 y_15_ ^ 2 - 2 y_64_ * y_15_ + 1 y_64_ ^ 2 ] >= 20295
quadratic_ranged_254_lb: [ 1 x_17_ ^ 2 - 2 x_64_ * x_17_ + 1 x_64_ ^ 2 + 1 y_17_ ^ 2 - 2 y_64_ * y_17_ + 1 y_64_ ^ 2 ] >= 23952.06
quadratic_ranged_255_lb: [ 1 x_24_ ^ 2 - 2 x_64_ * x_24_ + 1 x_64_ ^ 2 + 1 y_24_ ^ 2 - 2 y_64_ * y_24_ + 1 y_64_ ^ 2 ] >= 1192.95
quadratic_ranged_256_lb: [ 1 x_53_ ^ 2 - 2 x_64_ * x_53_ + 1 x_64_ ^ 2 + 1 y_53_ ^ 2 - 2 y_64_ * y_53_ + 1 y_64_ ^ 2 ] >= 5667.75
quadratic_ranged_257_lb: [ 1 x_57_ ^ 2 - 2 x_64_ * x_57_ + 1 x_64_ ^ 2 + 1 y_57_ ^ 2 - 2 y_64_ * y_57_ + 1 y_64_ ^ 2 ] >= 4776.75
quadratic_ranged_258_lb: [ 1 x_63_ ^ 2 - 2 x_64_ * x_63_ + 1 x_64_ ^ 2 + 1 y_63_ ^ 2 - 2 y_64_ * y_63_ + 1 y_64_ ^ 2 ] >= 21606.75
quadratic_ranged_259_lb: [ 1 x_13_ ^ 2 - 2 x_65_ * x_13_ + 1 x_65_ ^ 2 + 1 y_13_ ^ 2 - 2 y_65_ * y_13_ + 1 y_65_ ^ 2 ] >= 31376.07
quadratic_ranged_260_lb: [ 1 x_14_ ^ 2 - 2 x_65_ * x_14_ + 1 x_65_ ^ 2 + 1 y_14_ ^ 2 - 2 y_65_ * y_14_ + 1 y_65_ ^ 2 ] >= 3719.43
quadratic_ranged_261_lb: [ 1 x_19_ ^ 2 - 2 x_65_ * x_19_ + 1 x_65_ ^ 2 + 1 y_19_ ^ 2 - 2 y_65_ * y_19_ + 1 y_65_ ^ 2 ] >= 8721.9
quadratic_ranged_262_lb: [ 1 x_27_ ^ 2 - 2 x_65_ * x_27_ + 1 x_65_ ^ 2 + 1 y_27_ ^ 2 - 2 y_65_ * y_27_ + 1 y_65_ ^ 2 ] >= 18521.91
quadratic_ranged_263_lb: [ 1 x_39_ ^ 2 - 2 x_65_ * x_39_ + 1 x_65_ ^ 2 + 1 y_39_ ^ 2 - 2 y_65_ * y_39_ + 1 y_65_ ^ 2 ] >= 21391.92
quadratic_ranged_264_lb: [ 1 x_44_ ^ 2 - 2 x_65_ * x_44_ + 1 x_65_ ^ 2 + 1 y_44_ ^ 2 - 2 y_65_ * y_44_ + 1 y_65_ ^ 2 ] >= 36718.11
quadratic_ranged_265_lb: [ 1 x_49_ ^ 2 - 2 x_65_ * x_49_ + 1 x_65_ ^ 2 + 1 y_49_ ^ 2 - 2 y_65_ * y_49_ + 1 y_65_ ^ 2 ] >= 15765.75
quadratic_ranged_266_lb: [ 1 x_53_ ^ 2 - 2 x_65_ * x_53_ + 1 x_65_ ^ 2 + 1 y_53_ ^ 2 - 2 y_65_ * y_53_ + 1 y_65_ ^ 2 ] >= 10126.71
quadratic_ranged_267_lb: [ 1 x_64_ ^ 2 - 2 x_65_ * x_64_ + 1 x_65_ ^ 2 + 1 y_64_ ^ 2 - 2 y_65_ * y_64_ + 1 y_65_ ^ 2 ] >= 11383.02
quadratic_ranged_268_lb: [ 1 x_9_ ^ 2 - 2 x_66_ * x_9_ + 1 x_66_ ^ 2 + 1 y_9_ ^ 2 - 2 y_66_ * y_9_ + 1 y_66_ ^ 2 ] >= 28046.7
quadratic_ranged_269_lb: [ 1 x_48_ ^ 2 - 2 x_66_ * x_48_ + 1 x_66_ ^ 2 + 1 y_48_ ^ 2 - 2 y_66_ * y_48_ + 1 y_66_ ^ 2 ] >= 14795.55
quadratic_ranged_270_lb: [ 1 x_58_ ^ 2 - 2 x_66_ * x_58_ + 1 x_66_ ^ 2 + 1 y_58_ ^ 2 - 2 y_66_ * y_58_ + 1 y_66_ ^ 2 ] >= 29541.6
quadratic_ranged_271_lb: [ 1 x_65_ ^ 2 - 2 x_66_ * x_65_ + 1 x_66_ ^ 2 + 1 y_65_ ^ 2 - 2 y_66_ * y_65_ + 1 y_66_ ^ 2 ] >= 57638.79
quadratic_ranged_272_lb: [ 1 x_23_ ^ 2 - 2 x_67_ * x_23_ + 1 x_67_ ^ 2 + 1 y_23_ ^ 2 - 2 y_67_ * y_23_ + 1 y_67_ ^ 2 ] >= 11779.02
quadratic_ranged_273_lb: [ 1 x_25_ ^ 2 - 2 x_67_ * x_25_ + 1 x_67_ ^ 2 + 1 y_25_ ^ 2 - 2 y_67_ * y_25_ + 1 y_67_ ^ 2 ] >= 40646.43
quadratic_ranged_274_lb: [ 1 x_26_ ^ 2 - 2 x_67_ * x_26_ + 1 x_67_ ^ 2 + 1 y_26_ ^ 2 - 2 y_67_ * y_26_ + 1 y_67_ ^ 2 ] >= 12095.82
quadratic_ranged_275_lb: [ 1 x_28_ ^ 2 - 2 x_67_ * x_28_ + 1 x_67_ ^ 2 + 1 y_28_ ^ 2 - 2 y_67_ * y_28_ + 1 y_67_ ^ 2 ] >= 13598.64
quadratic_ranged_276_lb: [ 1 x_32_ ^ 2 - 2 x_67_ * x_32_ + 1 x_67_ ^ 2 + 1 y_32_ ^ 2 - 2 y_67_ * y_32_ + 1 y_67_ ^ 2 ] >= 21417.66
quadratic_ranged_277_lb: [ 1 x_59_ ^ 2 - 2 x_67_ * x_59_ + 1 x_67_ ^ 2 + 1 y_59_ ^ 2 - 2 y_67_ * y_59_ + 1 y_67_ ^ 2 ] >= 4499.55
quadratic_ranged_278_lb: [ 1 x_60_ ^ 2 - 2 x_67_ * x_60_ + 1 x_67_ ^ 2 + 1 y_60_ ^ 2 - 2 y_67_ * y_60_ + 1 y_67_ ^ 2 ] >= 25062.84
quadratic_ranged_279_lb: [ 1 x_63_ ^ 2 - 2 x_67_ * x_63_ + 1 x_67_ ^ 2 + 1 y_63_ ^ 2 - 2 y_67_ * y_63_ + 1 y_67_ ^ 2 ] >= 34274.79
quadratic_ranged_280_lb: [ 1 x_66_ ^ 2 - 2 x_67_ * x_66_ + 1 x_67_ ^ 2 + 1 y_66_ ^ 2 - 2 y_67_ * y_66_ + 1 y_67_ ^ 2 ] >= 39197.07
quadratic_ranged_281_lb: [ 1 x_7_ ^ 2 - 2 x_68_ * x_7_ + 1 x_68_ ^ 2 + 1 y_7_ ^ 2 - 2 y_68_ * y_7_ + 1 y_68_ ^ 2 ] >= 7065.63
quadratic_ranged_282_lb: [ 1 x_11_ ^ 2 - 2 x_68_ * x_11_ + 1 x_68_ ^ 2 + 1 y_11_ ^ 2 - 2 y_68_ * y_11_ + 1 y_68_ ^ 2 ] >= 4898.5199999999995
quadratic_ranged_283_lb: [ 1 x_14_ ^ 2 - 2 x_68_ * x_14_ + 1 x_68_ ^ 2 + 1 y_14_ ^ 2 - 2 y_68_ * y_14_ + 1 y_68_ ^ 2 ] >= 25531.11
quadratic_ranged_284_lb: [ 1 x_15_ ^ 2 - 2 x_68_ * x_15_ + 1 x_68_ ^ 2 + 1 y_15_ ^ 2 - 2 y_68_ * y_15_ + 1 y_68_ ^ 2 ] >= 51.48
quadratic_ranged_285_lb: [ 1 x_16_ ^ 2 - 2 x_68_ * x_16_ + 1 x_68_ ^ 2 + 1 y_16_ ^ 2 - 2 y_68_ * y_16_ + 1 y_68_ ^ 2 ] >= 5276.7
quadratic_ranged_286_lb: [ 1 x_21_ ^ 2 - 2 x_68_ * x_21_ + 1 x_68_ ^ 2 + 1 y_21_ ^ 2 - 2 y_68_ * y_21_ + 1 y_68_ ^ 2 ] >= 895.95
quadratic_ranged_287_lb: [ 1 x_29_ ^ 2 - 2 x_68_ * x_29_ + 1 x_68_ ^ 2 + 1 y_29_ ^ 2 - 2 y_68_ * y_29_ + 1 y_68_ ^ 2 ] >= 2440.35
quadratic_ranged_288_lb: [ 1 x_38_ ^ 2 - 2 x_68_ * x_38_ + 1 x_68_ ^ 2 + 1 y_38_ ^ 2 - 2 y_68_ * y_38_ + 1 y_68_ ^ 2 ] >= 18058.59
quadratic_ranged_289_lb: [ 1 x_41_ ^ 2 - 2 x_68_ * x_41_ + 1 x_68_ ^ 2 + 1 y_41_ ^ 2 - 2 y_68_ * y_41_ + 1 y_68_ ^ 2 ] >= 10994.94
quadratic_ranged_290_lb: [ 1 x_54_ ^ 2 - 2 x_68_ * x_54_ + 1 x_68_ ^ 2 + 1 y_54_ ^ 2 - 2 y_68_ * y_54_ + 1 y_68_ ^ 2 ] >= 6420.15
quadratic_ranged_291_lb: [ 1 x_67_ ^ 2 - 2 x_68_ * x_67_ + 1 x_68_ ^ 2 + 1 y_67_ ^ 2 - 2 y_68_ * y_67_ + 1 y_68_ ^ 2 ] >= 35095.5
quadratic_ranged_292_lb: [ 1 x_17_ ^ 2 - 2 x_69_ * x_17_ + 1 x_69_ ^ 2 + 1 y_17_ ^ 2 - 2 y_69_ * y_17_ + 1 y_69_ ^ 2 ] >= 2015.6399999999999
quadratic_ranged_293_lb: [ 1 x_21_ ^ 2 - 2 x_69_ * x_21_ + 1 x_69_ ^ 2 + 1 y_21_ ^ 2 - 2 y_69_ * y_21_ + 1 y_69_ ^ 2 ] >= 594.99
quadratic_ranged_294_lb: [ 1 x_23_ ^ 2 - 2 x_69_ * x_23_ + 1 x_69_ ^ 2 + 1 y_23_ ^ 2 - 2 y_69_ * y_23_ + 1 y_69_ ^ 2 ] >= 25005.42
quadratic_ranged_295_lb: [ 1 x_33_ ^ 2 - 2 x_69_ * x_33_ + 1 x_69_ ^ 2 + 1 y_33_ ^ 2 - 2 y_69_ * y_33_ + 1 y_69_ ^ 2 ] >= 11730.51
quadratic_ranged_296_lb: [ 1 x_37_ ^ 2 - 2 x_69_ * x_37_ + 1 x_69_ ^ 2 + 1 y_37_ ^ 2 - 2 y_69_ * y_37_ + 1 y_69_ ^ 2 ] >= 25605.36
quadratic_ranged_297_lb: [ 1 x_44_ ^ 2 - 2 x_69_ * x_44_ + 1 x_69_ ^ 2 + 1 y_44_ ^ 2 - 2 y_69_ * y_44_ + 1 y_69_ ^ 2 ] >= 16561.71
quadratic_ranged_298_lb: [ 1 x_51_ ^ 2 - 2 x_69_ * x_51_ + 1 x_69_ ^ 2 + 1 y_51_ ^ 2 - 2 y_69_ * y_51_ + 1 y_69_ ^ 2 ] >= 8043.75
quadratic_ranged_299_lb: [ 1 x_68_ ^ 2 - 2 x_69_ * x_68_ + 1 x_69_ ^ 2 + 1 y_68_ ^ 2 - 2 y_69_ * y_68_ + 1 y_69_ ^ 2 ] >= 1245.42
quadratic_ranged_300_lb: [ 1 x_5_ ^ 2 - 2 x_70_ * x_5_ + 1 x_70_ ^ 2 + 1 y_5_ ^ 2 - 2 y_70_ * y_5_ + 1 y_70_ ^ 2 ] >= 26719.11
quadratic_ranged_301_lb: [ 1 x_19_ ^ 2 - 2 x_70_ * x_19_ + 1 x_70_ ^ 2 + 1 y_19_ ^ 2 - 2 y_70_ * y_19_ + 1 y_70_ ^ 2 ] >= 10137.6
quadratic_ranged_302_lb: [ 1 x_29_ ^ 2 - 2 x_70_ * x_29_ + 1 x_70_ ^ 2 + 1 y_29_ ^ 2 - 2 y_70_ * y_29_ + 1 y_70_ ^ 2 ] >= 24347.07
quadratic_ranged_303_lb: [ 1 x_31_ ^ 2 - 2 x_70_ * x_31_ + 1 x_70_ ^ 2 + 1 y_31_ ^ 2 - 2 y_70_ * y_31_ + 1 y_70_ ^ 2 ] >= 472.23
quadratic_ranged_304_lb: [ 1 x_39_ ^ 2 - 2 x_70_ * x_39_ + 1 x_70_ ^ 2 + 1 y_39_ ^ 2 - 2 y_70_ * y_39_ + 1 y_70_ ^ 2 ] >= 9323.82
quadratic_ranged_305_lb: [ 1 x_53_ ^ 2 - 2 x_70_ * x_53_ + 1 x_70_ ^ 2 + 1 y_53_ ^ 2 - 2 y_70_ * y_53_ + 1 y_70_ ^ 2 ] >= 5889.51
quadratic_ranged_306_lb: [ 1 x_64_ ^ 2 - 2 x_70_ * x_64_ + 1 x_70_ ^ 2 + 1 y_64_ ^ 2 - 2 y_70_ * y_64_ + 1 y_70_ ^ 2 ] >= 14699.52
quadratic_ranged_307_lb: [ 1 x_69_ ^ 2 - 2 x_70_ * x_69_ + 1 x_70_ ^ 2 + 1 y_69_ ^ 2 - 2 y_70_ * y_69_ + 1 y_70_ ^ 2 ] >= 29559.42
quadratic_ranged_308_lb: [ 1 x_4_ ^ 2 - 2 x_71_ * x_4_ + 1 x_71_ ^ 2 + 1 y_4_ ^ 2 - 2 y_71_ * y_4_ + 1 y_71_ ^ 2 ] >= 2193.84
quadratic_ranged_309_lb: [ 1 x_7_ ^ 2 - 2 x_71_ * x_7_ + 1 x_71_ ^ 2 + 1 y_7_ ^ 2 - 2 y_71_ * y_7_ + 1 y_71_ ^ 2 ] >= 7381.44
quadratic_ranged_310_lb: [ 1 x_13_ ^ 2 - 2 x_71_ * x_13_ + 1 x_71_ ^ 2 + 1 y_13_ ^ 2 - 2 y_71_ * y_13_ + 1 y_71_ ^ 2 ] >= 22100.76
quadratic_ranged_311_lb: [ 1 x_21_ ^ 2 - 2 x_71_ * x_21_ + 1 x_71_ ^ 2 + 1 y_21_ ^ 2 - 2 y_71_ * y_21_ + 1 y_71_ ^ 2 ] >= 12375
quadratic_ranged_312_lb: [ 1 x_31_ ^ 2 - 2 x_71_ * x_31_ + 1 x_71_ ^ 2 + 1 y_31_ ^ 2 - 2 y_71_ * y_31_ + 1 y_71_ ^ 2 ] >= 6914.16
quadratic_ranged_313_lb: [ 1 x_35_ ^ 2 - 2 x_71_ * x_35_ + 1 x_71_ ^ 2 + 1 y_35_ ^ 2 - 2 y_71_ * y_35_ + 1 y_71_ ^ 2 ] >= 27146.79
quadratic_ranged_314_lb: [ 1 x_48_ ^ 2 - 2 x_71_ * x_48_ + 1 x_71_ ^ 2 + 1 y_48_ ^ 2 - 2 y_71_ * y_48_ + 1 y_71_ ^ 2 ] >= 9580.23
quadratic_ranged_315_lb: [ 1 x_50_ ^ 2 - 2 x_71_ * x_50_ + 1 x_71_ ^ 2 + 1 y_50_ ^ 2 - 2 y_71_ * y_50_ + 1 y_71_ ^ 2 ] >= 14646.06
quadratic_ranged_316_lb: [ 1 x_63_ ^ 2 - 2 x_71_ * x_63_ + 1 x_71_ ^ 2 + 1 y_63_ ^ 2 - 2 y_71_ * y_63_ + 1 y_71_ ^ 2 ] >= 19023.84
quadratic_ranged_317_lb: [ 1 x_70_ ^ 2 - 2 x_71_ * x_70_ + 1 x_71_ ^ 2 + 1 y_70_ ^ 2 - 2 y_71_ * y_70_ + 1 y_71_ ^ 2 ] >= 5212.35
quadratic_ranged_318_lb: [ 1 x_4_ ^ 2 - 2 x_72_ * x_4_ + 1 x_72_ ^ 2 + 1 y_4_ ^ 2 - 2 y_72_ * y_4_ + 1 y_72_ ^ 2 ] >= 271.26
quadratic_ranged_319_lb: [ 1 x_6_ ^ 2 - 2 x_72_ * x_6_ + 1 x_72_ ^ 2 + 1 y_6_ ^ 2 - 2 y_72_ * y_6_ + 1 y_72_ ^ 2 ] >= 25710.3
quadratic_ranged_320_lb: [ 1 x_10_ ^ 2 - 2 x_72_ * x_10_ + 1 x_72_ ^ 2 + 1 y_10_ ^ 2 - 2 y_72_ * y_10_ + 1 y_72_ ^ 2 ] >= 832.59
quadratic_ranged_321_lb: [ 1 x_21_ ^ 2 - 2 x_72_ * x_21_ + 1 x_72_ ^ 2 + 1 y_21_ ^ 2 - 2 y_72_ * y_21_ + 1 y_72_ ^ 2 ] >= 22764.06
quadratic_ranged_322_lb: [ 1 x_62_ ^ 2 - 2 x_72_ * x_62_ + 1 x_72_ ^ 2 + 1 y_62_ ^ 2 - 2 y_72_ * y_62_ + 1 y_72_ ^ 2 ] >= 9845.55
quadratic_ranged_323_lb: [ 1 x_68_ ^ 2 - 2 x_72_ * x_68_ + 1 x_72_ ^ 2 + 1 y_68_ ^ 2 - 2 y_72_ * y_68_ + 1 y_72_ ^ 2 ] >= 32670.989999999998
quadratic_ranged_324_lb: [ 1 x_69_ ^ 2 - 2 x_72_ * x_69_ + 1 x_72_ ^ 2 + 1 y_69_ ^ 2 - 2 y_72_ * y_69_ + 1 y_72_ ^ 2 ] >= 25091.55
quadratic_ranged_325_lb: [ 1 x_71_ ^ 2 - 2 x_72_ * x_71_ + 1 x_72_ ^ 2 + 1 y_71_ ^ 2 - 2 y_72_ * y_71_ + 1 y_72_ ^ 2 ] >= 3969.9
quadratic_ranged_326_lb: [ 1 x_7_ ^ 2 - 2 x_73_ * x_7_ + 1 x_73_ ^ 2 + 1 y_7_ ^ 2 - 2 y_73_ * y_7_ + 1 y_73_ ^ 2 ] >= 6068.7
quadratic_ranged_327_lb: [ 1 x_13_ ^ 2 - 2 x_73_ * x_13_ + 1 x_73_ ^ 2 + 1 y_13_ ^ 2 - 2 y_73_ * y_13_ + 1 y_73_ ^ 2 ] >= 7589.34
quadratic_ranged_328_lb: [ 1 x_31_ ^ 2 - 2 x_73_ * x_31_ + 1 x_73_ ^ 2 + 1 y_31_ ^ 2 - 2 y_73_ * y_31_ + 1 y_73_ ^ 2 ] >= 1118.7
quadratic_ranged_329_lb: [ 1 x_38_ ^ 2 - 2 x_73_ * x_38_ + 1 x_73_ ^ 2 + 1 y_38_ ^ 2 - 2 y_73_ * y_38_ + 1 y_73_ ^ 2 ] >= 605.88
quadratic_ranged_330_lb: [ 1 x_51_ ^ 2 - 2 x_73_ * x_51_ + 1 x_73_ ^ 2 + 1 y_51_ ^ 2 - 2 y_73_ * y_51_ + 1 y_73_ ^ 2 ] >= 2575.98
quadratic_ranged_331_lb: [ 1 x_58_ ^ 2 - 2 x_73_ * x_58_ + 1 x_73_ ^ 2 + 1 y_58_ ^ 2 - 2 y_73_ * y_58_ + 1 y_73_ ^ 2 ] >= 1267.2
quadratic_ranged_332_lb: [ 1 x_70_ ^ 2 - 2 x_73_ * x_70_ + 1 x_73_ ^ 2 + 1 y_70_ ^ 2 - 2 y_73_ * y_70_ + 1 y_73_ ^ 2 ] >= 1953.27
quadratic_ranged_333_lb: [ 1 x_72_ ^ 2 - 2 x_73_ * x_72_ + 1 x_73_ ^ 2 + 1 y_72_ ^ 2 - 2 y_73_ * y_72_ + 1 y_73_ ^ 2 ] >= 1033.56
quadratic_ranged_334_lb: [ 1 x_8_ ^ 2 - 2 x_74_ * x_8_ + 1 x_74_ ^ 2 + 1 y_8_ ^ 2 - 2 y_74_ * y_8_ + 1 y_74_ ^ 2 ] >= 20216.79
quadratic_ranged_335_lb: [ 1 x_16_ ^ 2 - 2 x_74_ * x_16_ + 1 x_74_ ^ 2 + 1 y_16_ ^ 2 - 2 y_74_ * y_16_ + 1 y_74_ ^ 2 ] >= 36727.02
quadratic_ranged_336_lb: [ 1 x_27_ ^ 2 - 2 x_74_ * x_27_ + 1 x_74_ ^ 2 + 1 y_27_ ^ 2 - 2 y_74_ * y_27_ + 1 y_74_ ^ 2 ] >= 11611.71
quadratic_ranged_337_lb: [ 1 x_45_ ^ 2 - 2 x_74_ * x_45_ + 1 x_74_ ^ 2 + 1 y_45_ ^ 2 - 2 y_74_ * y_45_ + 1 y_74_ ^ 2 ] >= 5964.75
quadratic_ranged_338_lb: [ 1 x_47_ ^ 2 - 2 x_74_ * x_47_ + 1 x_74_ ^ 2 + 1 y_47_ ^ 2 - 2 y_74_ * y_47_ + 1 y_74_ ^ 2 ] >= 3588.75
quadratic_ranged_339_lb: [ 1 x_53_ ^ 2 - 2 x_74_ * x_53_ + 1 x_74_ ^ 2 + 1 y_53_ ^ 2 - 2 y_74_ * y_53_ + 1 y_74_ ^ 2 ] >= 14759.91
quadratic_ranged_340_lb: [ 1 x_54_ ^ 2 - 2 x_74_ * x_54_ + 1 x_74_ ^ 2 + 1 y_54_ ^ 2 - 2 y_74_ * y_54_ + 1 y_74_ ^ 2 ] >= 27808.11
quadratic_ranged_341_lb: [ 1 x_58_ ^ 2 - 2 x_74_ * x_58_ + 1 x_74_ ^ 2 + 1 y_58_ ^ 2 - 2 y_74_ * y_58_ + 1 y_74_ ^ 2 ] >= 15021.27
quadratic_ranged_342_lb: [ 1 x_63_ ^ 2 - 2 x_74_ * x_63_ + 1 x_74_ ^ 2 + 1 y_63_ ^ 2 - 2 y_74_ * y_63_ + 1 y_74_ ^ 2 ] >= 23939.19
quadratic_ranged_343_lb: [ 1 x_73_ ^ 2 - 2 x_74_ * x_73_ + 1 x_74_ ^ 2 + 1 y_73_ ^ 2 - 2 y_74_ * y_73_ + 1 y_74_ ^ 2 ] >= 8019.99
quadratic_ranged_344_lb: [ 1 x_13_ ^ 2 - 2 x_75_ * x_13_ + 1 x_75_ ^ 2 + 1 y_13_ ^ 2 - 2 y_75_ * y_13_ + 1 y_75_ ^ 2 ] >= 939.51
quadratic_ranged_345_lb: [ 1 x_35_ ^ 2 - 2 x_75_ * x_35_ + 1 x_75_ ^ 2 + 1 y_35_ ^ 2 - 2 y_75_ * y_35_ + 1 y_75_ ^ 2 ] >= 28965.42
quadratic_ranged_346_lb: [ 1 x_62_ ^ 2 - 2 x_75_ * x_62_ + 1 x_75_ ^ 2 + 1 y_62_ ^ 2 - 2 y_75_ * y_62_ + 1 y_75_ ^ 2 ] >= 24837.12
quadratic_ranged_347_lb: [ 1 x_67_ ^ 2 - 2 x_75_ * x_67_ + 1 x_75_ ^ 2 + 1 y_67_ ^ 2 - 2 y_75_ * y_67_ + 1 y_75_ ^ 2 ] >= 8521.92
quadratic_ranged_348_lb: [ 1 x_70_ ^ 2 - 2 x_75_ * x_70_ + 1 x_75_ ^ 2 + 1 y_70_ ^ 2 - 2 y_75_ * y_70_ + 1 y_75_ ^ 2 ] >= 8587.26
quadratic_ranged_349_lb: [ 1 x_74_ ^ 2 - 2 x_75_ * x_74_ + 1 x_75_ ^ 2 + 1 y_74_ ^ 2 - 2 y_75_ * y_74_ + 1 y_75_ ^ 2 ] >= 1934.46
quadratic_ranged_350_lb: [ 1 x_14_ ^ 2 - 2 x_76_ * x_14_ + 1 x_76_ ^ 2 + 1 y_14_ ^ 2 - 2 y_76_ * y_14_ + 1 y_76_ ^ 2 ] >= 27194.31
quadratic_ranged_351_lb: [ 1 x_16_ ^ 2 - 2 x_76_ * x_16_ + 1 x_76_ ^ 2 + 1 y_16_ ^ 2 - 2 y_76_ * y_16_ + 1 y_76_ ^ 2 ] >= 38041.74
quadratic_ranged_352_lb: [ 1 x_34_ ^ 2 - 2 x_76_ * x_34_ + 1 x_76_ ^ 2 + 1 y_34_ ^ 2 - 2 y_76_ * y_34_ + 1 y_76_ ^ 2 ] >= 287.1
quadratic_ranged_353_lb: [ 1 x_38_ ^ 2 - 2 x_76_ * x_38_ + 1 x_76_ ^ 2 + 1 y_38_ ^ 2 - 2 y_76_ * y_38_ + 1 y_76_ ^ 2 ] >= 8903.07
quadratic_ranged_354_lb: [ 1 x_71_ ^ 2 - 2 x_76_ * x_71_ + 1 x_76_ ^ 2 + 1 y_71_ ^ 2 - 2 y_76_ * y_71_ + 1 y_76_ ^ 2 ] >= 23095.71
quadratic_ranged_355_lb: [ 1 x_73_ ^ 2 - 2 x_76_ * x_73_ + 1 x_76_ ^ 2 + 1 y_73_ ^ 2 - 2 y_76_ * y_73_ + 1 y_76_ ^ 2 ] >= 9508.95
quadratic_ranged_356_lb: [ 1 x_74_ ^ 2 - 2 x_76_ * x_74_ + 1 x_76_ ^ 2 + 1 y_74_ ^ 2 - 2 y_76_ * y_74_ + 1 y_76_ ^ 2 ] >= 67.32
quadratic_ranged_357_lb: [ 1 x_75_ ^ 2 - 2 x_76_ * x_75_ + 1 x_76_ ^ 2 + 1 y_75_ ^ 2 - 2 y_76_ * y_75_ + 1 y_76_ ^ 2 ] >= 2663.1
quadratic_ranged_358_lb: [ 1 x_2_ ^ 2 - 2 x_77_ * x_2_ + 1 x_77_ ^ 2 + 1 y_2_ ^ 2 - 2 y_77_ * y_2_ + 1 y_77_ ^ 2 ] >= 3692.7
quadratic_ranged_359_lb: [ 1 x_3_ ^ 2 - 2 x_77_ * x_3_ + 1 x_77_ ^ 2 + 1 y_3_ ^ 2 - 2 y_77_ * y_3_ + 1 y_77_ ^ 2 ] >= 8484.3
quadratic_ranged_360_lb: [ 1 x_4_ ^ 2 - 2 x_77_ * x_4_ + 1 x_77_ ^ 2 + 1 y_4_ ^ 2 - 2 y_77_ * y_4_ + 1 y_77_ ^ 2 ] >= 7833.87
quadratic_ranged_361_lb: [ 1 x_34_ ^ 2 - 2 x_77_ * x_34_ + 1 x_77_ ^ 2 + 1 y_34_ ^ 2 - 2 y_77_ * y_34_ + 1 y_77_ ^ 2 ] >= 14307.48
quadratic_ranged_362_lb: [ 1 x_71_ ^ 2 - 2 x_77_ * x_71_ + 1 x_77_ ^ 2 + 1 y_71_ ^ 2 - 2 y_77_ * y_71_ + 1 y_77_ ^ 2 ] >= 3101.67
quadratic_ranged_363_lb: [ 1 x_76_ ^ 2 - 2 x_77_ * x_76_ + 1 x_77_ ^ 2 + 1 y_76_ ^ 2 - 2 y_77_ * y_76_ + 1 y_77_ ^ 2 ] >= 17655.66
quadratic_ranged_364_lb: [ 1 x_1_ ^ 2 - 2 x_78_ * x_1_ + 1 x_78_ ^ 2 + 1 y_1_ ^ 2 - 2 y_78_ * y_1_ + 1 y_78_ ^ 2 ] >= 12661.11
quadratic_ranged_365_lb: [ 1 x_2_ ^ 2 - 2 x_78_ * x_2_ + 1 x_78_ ^ 2 + 1 y_2_ ^ 2 - 2 y_78_ * y_2_ + 1 y_78_ ^ 2 ] >= 11858.22
quadratic_ranged_366_lb: [ 1 x_16_ ^ 2 - 2 x_78_ * x_16_ + 1 x_78_ ^ 2 + 1 y_16_ ^ 2 - 2 y_78_ * y_16_ + 1 y_78_ ^ 2 ] >= 7.92
quadratic_ranged_367_lb: [ 1 x_26_ ^ 2 - 2 x_78_ * x_26_ + 1 x_78_ ^ 2 + 1 y_26_ ^ 2 - 2 y_78_ * y_26_ + 1 y_78_ ^ 2 ] >= 21393.9
quadratic_ranged_368_lb: [ 1 x_46_ ^ 2 - 2 x_78_ * x_46_ + 1 x_78_ ^ 2 + 1 y_46_ ^ 2 - 2 y_78_ * y_46_ + 1 y_78_ ^ 2 ] >= 26280.54
quadratic_ranged_369_lb: [ 1 x_47_ ^ 2 - 2 x_78_ * x_47_ + 1 x_78_ ^ 2 + 1 y_47_ ^ 2 - 2 y_78_ * y_47_ + 1 y_78_ ^ 2 ] >= 20458.35
quadratic_ranged_370_lb: [ 1 x_58_ ^ 2 - 2 x_78_ * x_58_ + 1 x_78_ ^ 2 + 1 y_58_ ^ 2 - 2 y_78_ * y_58_ + 1 y_78_ ^ 2 ] >= 18862.47
quadratic_ranged_371_lb: [ 1 x_63_ ^ 2 - 2 x_78_ * x_63_ + 1 x_78_ ^ 2 + 1 y_63_ ^ 2 - 2 y_78_ * y_63_ + 1 y_78_ ^ 2 ] >= 6047.91
quadratic_ranged_372_lb: [ 1 x_77_ ^ 2 - 2 x_78_ * x_77_ + 1 x_78_ ^ 2 + 1 y_77_ ^ 2 - 2 y_78_ * y_77_ + 1 y_78_ ^ 2 ] >= 5148
quadratic_ranged_373_lb: [ 1 x_1_ ^ 2 - 2 x_79_ * x_1_ + 1 x_79_ ^ 2 + 1 y_1_ ^ 2 - 2 y_79_ * y_1_ + 1 y_79_ ^ 2 ] >= 3977.82
quadratic_ranged_374_lb: [ 1 x_3_ ^ 2 - 2 x_79_ * x_3_ + 1 x_79_ ^ 2 + 1 y_3_ ^ 2 - 2 y_79_ * y_3_ + 1 y_79_ ^ 2 ] >= 31475.07
quadratic_ranged_375_lb: [ 1 x_8_ ^ 2 - 2 x_79_ * x_8_ + 1 x_79_ ^ 2 + 1 y_8_ ^ 2 - 2 y_79_ * y_8_ + 1 y_79_ ^ 2 ] >= 8605.08
quadratic_ranged_376_lb: [ 1 x_13_ ^ 2 - 2 x_79_ * x_13_ + 1 x_79_ ^ 2 + 1 y_13_ ^ 2 - 2 y_79_ * y_13_ + 1 y_79_ ^ 2 ] >= 5949.9
quadratic_ranged_377_lb: [ 1 x_22_ ^ 2 - 2 x_79_ * x_22_ + 1 x_79_ ^ 2 + 1 y_22_ ^ 2 - 2 y_79_ * y_22_ + 1 y_79_ ^ 2 ] >= 18913.95
quadratic_ranged_378_lb: [ 1 x_49_ ^ 2 - 2 x_79_ * x_49_ + 1 x_79_ ^ 2 + 1 y_49_ ^ 2 - 2 y_79_ * y_49_ + 1 y_79_ ^ 2 ] >= 17972.46
quadratic_ranged_379_lb: [ 1 x_61_ ^ 2 - 2 x_79_ * x_61_ + 1 x_79_ ^ 2 + 1 y_61_ ^ 2 - 2 y_79_ * y_61_ + 1 y_79_ ^ 2 ] >= 4957.92
quadratic_ranged_380_lb: [ 1 x_69_ ^ 2 - 2 x_79_ * x_69_ + 1 x_79_ ^ 2 + 1 y_69_ ^ 2 - 2 y_79_ * y_69_ + 1 y_79_ ^ 2 ] >= 4341.15
quadratic_ranged_381_lb: [ 1 x_74_ ^ 2 - 2 x_79_ * x_74_ + 1 x_79_ ^ 2 + 1 y_74_ ^ 2 - 2 y_79_ * y_74_ + 1 y_79_ ^ 2 ] >= 3410.55
quadratic_ranged_382_lb: [ 1 x_78_ ^ 2 - 2 x_79_ * x_78_ + 1 x_79_ ^ 2 + 1 y_78_ ^ 2 - 2 y_79_ * y_78_ + 1 y_79_ ^ 2 ] >= 20422.71
quadratic_ranged_383_lb: [ 1 x_3_ ^ 2 - 2 x_80_ * x_3_ + 1 x_80_ ^ 2 + 1 y_3_ ^ 2 - 2 y_80_ * y_3_ + 1 y_80_ ^ 2 ] >= 1318.68
quadratic_ranged_384_lb: [ 1 x_7_ ^ 2 - 2 x_80_ * x_7_ + 1 x_80_ ^ 2 + 1 y_7_ ^ 2 - 2 y_80_ * y_7_ + 1 y_80_ ^ 2 ] >= 20818.71
quadratic_ranged_385_lb: [ 1 x_9_ ^ 2 - 2 x_80_ * x_9_ + 1 x_80_ ^ 2 + 1 y_9_ ^ 2 - 2 y_80_ * y_9_ + 1 y_80_ ^ 2 ] >= 56925.99
quadratic_ranged_386_lb: [ 1 x_25_ ^ 2 - 2 x_80_ * x_25_ + 1 x_80_ ^ 2 + 1 y_25_ ^ 2 - 2 y_80_ * y_25_ + 1 y_80_ ^ 2 ] >= 29368.35
quadratic_ranged_387_lb: [ 1 x_52_ ^ 2 - 2 x_80_ * x_52_ + 1 x_80_ ^ 2 + 1 y_52_ ^ 2 - 2 y_80_ * y_52_ + 1 y_80_ ^ 2 ] >= 11190.96
quadratic_ranged_388_lb: [ 1 x_54_ ^ 2 - 2 x_80_ * x_54_ + 1 x_80_ ^ 2 + 1 y_54_ ^ 2 - 2 y_80_ * y_54_ + 1 y_80_ ^ 2 ] >= 4325.31
quadratic_ranged_389_lb: [ 1 x_68_ ^ 2 - 2 x_80_ * x_68_ + 1 x_80_ ^ 2 + 1 y_68_ ^ 2 - 2 y_80_ * y_68_ + 1 y_80_ ^ 2 ] >= 18505.079999999998
quadratic_ranged_390_lb: [ 1 x_71_ ^ 2 - 2 x_80_ * x_71_ + 1 x_80_ ^ 2 + 1 y_71_ ^ 2 - 2 y_80_ * y_71_ + 1 y_80_ ^ 2 ] >= 9849.51
quadratic_ranged_391_lb: [ 1 x_73_ ^ 2 - 2 x_80_ * x_73_ + 1 x_80_ ^ 2 + 1 y_73_ ^ 2 - 2 y_80_ * y_73_ + 1 y_80_ ^ 2 ] >= 27146.79
quadratic_ranged_392_lb: [ 1 x_79_ ^ 2 - 2 x_80_ * x_79_ + 1 x_80_ ^ 2 + 1 y_79_ ^ 2 - 2 y_80_ * y_79_ + 1 y_80_ ^ 2 ] >= 34100.55
quadratic_ranged_393_lb: [ 1 x_5_ ^ 2 - 2 x_81_ * x_5_ + 1 x_81_ ^ 2 + 1 y_5_ ^ 2 - 2 y_81_ * y_5_ + 1 y_81_ ^ 2 ] >= 21900.78
quadratic_ranged_394_lb: [ 1 x_21_ ^ 2 - 2 x_81_ * x_21_ + 1 x_81_ ^ 2 + 1 y_21_ ^ 2 - 2 y_81_ * y_21_ + 1 y_81_ ^ 2 ] >= 10456.38
quadratic_ranged_395_lb: [ 1 x_29_ ^ 2 - 2 x_81_ * x_29_ + 1 x_81_ ^ 2 + 1 y_29_ ^ 2 - 2 y_81_ * y_29_ + 1 y_81_ ^ 2 ] >= 7765.5599999999995
quadratic_ranged_396_lb: [ 1 x_47_ ^ 2 - 2 x_81_ * x_47_ + 1 x_81_ ^ 2 + 1 y_47_ ^ 2 - 2 y_81_ * y_47_ + 1 y_81_ ^ 2 ] >= 4950
quadratic_ranged_397_lb: [ 1 x_57_ ^ 2 - 2 x_81_ * x_57_ + 1 x_81_ ^ 2 + 1 y_57_ ^ 2 - 2 y_81_ * y_57_ + 1 y_81_ ^ 2 ] >= 9808.92
quadratic_ranged_398_lb: [ 1 x_59_ ^ 2 - 2 x_81_ * x_59_ + 1 x_81_ ^ 2 + 1 y_59_ ^ 2 - 2 y_81_ * y_59_ + 1 y_81_ ^ 2 ] >= 1356.3
quadratic_ranged_399_lb: [ 1 x_64_ ^ 2 - 2 x_81_ * x_64_ + 1 x_81_ ^ 2 + 1 y_64_ ^ 2 - 2 y_81_ * y_64_ + 1 y_81_ ^ 2 ] >= 14482.71
quadratic_ranged_400_lb: [ 1 x_69_ ^ 2 - 2 x_81_ * x_69_ + 1 x_81_ ^ 2 + 1 y_69_ ^ 2 - 2 y_81_ * y_69_ + 1 y_81_ ^ 2 ] >= 10954.35
quadratic_ranged_401_lb: [ 1 x_70_ ^ 2 - 2 x_81_ * x_70_ + 1 x_81_ ^ 2 + 1 y_70_ ^ 2 - 2 y_81_ * y_70_ + 1 y_81_ ^ 2 ] >= 5073.75
quadratic_ranged_402_lb: [ 1 x_71_ ^ 2 - 2 x_81_ * x_71_ + 1 x_81_ ^ 2 + 1 y_71_ ^ 2 - 2 y_81_ * y_71_ + 1 y_81_ ^ 2 ] >= 4548.06
quadratic_ranged_403_lb: [ 1 x_80_ ^ 2 - 2 x_81_ * x_80_ + 1 x_81_ ^ 2 + 1 y_80_ ^ 2 - 2 y_81_ * y_80_ + 1 y_81_ ^ 2 ] >= 24216.39
quadratic_ranged_404_lb: [ 1 x_8_ ^ 2 - 2 x_82_ * x_8_ + 1 x_82_ ^ 2 + 1 y_8_ ^ 2 - 2 y_82_ * y_8_ + 1 y_82_ ^ 2 ] >= 1047.42
quadratic_ranged_405_lb: [ 1 x_25_ ^ 2 - 2 x_82_ * x_25_ + 1 x_82_ ^ 2 + 1 y_25_ ^ 2 - 2 y_82_ * y_25_ + 1 y_82_ ^ 2 ] >= 7129.98
quadratic_ranged_406_lb: [ 1 x_26_ ^ 2 - 2 x_82_ * x_26_ + 1 x_82_ ^ 2 + 1 y_26_ ^ 2 - 2 y_82_ * y_26_ + 1 y_82_ ^ 2 ] >= 3830.31
quadratic_ranged_407_lb: [ 1 x_38_ ^ 2 - 2 x_82_ * x_38_ + 1 x_82_ ^ 2 + 1 y_38_ ^ 2 - 2 y_82_ * y_38_ + 1 y_82_ ^ 2 ] >= 4215.42
quadratic_ranged_408_lb: [ 1 x_73_ ^ 2 - 2 x_82_ * x_73_ + 1 x_82_ ^ 2 + 1 y_73_ ^ 2 - 2 y_82_ * y_73_ + 1 y_82_ ^ 2 ] >= 8017.0199999999995
quadratic_ranged_409_lb: [ 1 x_81_ ^ 2 - 2 x_82_ * x_81_ + 1 x_82_ ^ 2 + 1 y_81_ ^ 2 - 2 y_82_ * y_81_ + 1 y_82_ ^ 2 ] >= 3977.82
quadratic_ranged_410_lb: [ 1 x_13_ ^ 2 - 2 x_83_ * x_13_ + 1 x_83_ ^ 2 + 1 y_13_ ^ 2 - 2 y_83_ * y_13_ + 1 y_83_ ^ 2 ] >= 51643.35
quadratic_ranged_411_lb: [ 1 x_16_ ^ 2 - 2 x_83_ * x_16_ + 1 x_83_ ^ 2 + 1 y_16_ ^ 2 - 2 y_83_ * y_16_ + 1 y_83_ ^ 2 ] >= 2617.56
quadratic_ranged_412_lb: [ 1 x_20_ ^ 2 - 2 x_83_ * x_20_ + 1 x_83_ ^ 2 + 1 y_20_ ^ 2 - 2 y_83_ * y_20_ + 1 y_83_ ^ 2 ] >= 26044.92
quadratic_ranged_413_lb: [ 1 x_38_ ^ 2 - 2 x_83_ * x_38_ + 1 x_83_ ^ 2 + 1 y_38_ ^ 2 - 2 y_83_ * y_38_ + 1 y_83_ ^ 2 ] >= 20141.55
quadratic_ranged_414_lb: [ 1 x_40_ ^ 2 - 2 x_83_ * x_40_ + 1 x_83_ ^ 2 + 1 y_40_ ^ 2 - 2 y_83_ * y_40_ + 1 y_83_ ^ 2 ] >= 4028.31
quadratic_ranged_415_lb: [ 1 x_49_ ^ 2 - 2 x_83_ * x_49_ + 1 x_83_ ^ 2 + 1 y_49_ ^ 2 - 2 y_83_ * y_49_ + 1 y_83_ ^ 2 ] >= 2175.03
quadratic_ranged_416_lb: [ 1 x_51_ ^ 2 - 2 x_83_ * x_51_ + 1 x_83_ ^ 2 + 1 y_51_ ^ 2 - 2 y_83_ * y_51_ + 1 y_83_ ^ 2 ] >= 13864.95
quadratic_ranged_417_lb: [ 1 x_63_ ^ 2 - 2 x_83_ * x_63_ + 1 x_83_ ^ 2 + 1 y_63_ ^ 2 - 2 y_83_ * y_63_ + 1 y_83_ ^ 2 ] >= 15797.43
quadratic_ranged_418_lb: [ 1 x_67_ ^ 2 - 2 x_83_ * x_67_ + 1 x_83_ ^ 2 + 1 y_67_ ^ 2 - 2 y_83_ * y_67_ + 1 y_83_ ^ 2 ] >= 25676.64
quadratic_ranged_419_lb: [ 1 x_68_ ^ 2 - 2 x_83_ * x_68_ + 1 x_83_ ^ 2 + 1 y_68_ ^ 2 - 2 y_83_ * y_68_ + 1 y_83_ ^ 2 ] >= 15145.02
quadratic_ranged_420_lb: [ 1 x_73_ ^ 2 - 2 x_83_ * x_73_ + 1 x_83_ ^ 2 + 1 y_73_ ^ 2 - 2 y_83_ * y_73_ + 1 y_83_ ^ 2 ] >= 25273.71
quadratic_ranged_421_lb: [ 1 x_78_ ^ 2 - 2 x_83_ * x_78_ + 1 x_83_ ^ 2 + 1 y_78_ ^ 2 - 2 y_83_ * y_78_ + 1 y_83_ ^ 2 ] >= 2475
quadratic_ranged_422_lb: [ 1 x_82_ ^ 2 - 2 x_83_ * x_82_ + 1 x_83_ ^ 2 + 1 y_82_ ^ 2 - 2 y_83_ * y_82_ + 1 y_83_ ^ 2 ] >= 12680.91
quadratic_ranged_423_lb: [ 1 x_26_ ^ 2 - 2 x_84_ * x_26_ + 1 x_84_ ^ 2 + 1 y_26_ ^ 2 - 2 y_84_ * y_26_ + 1 y_84_ ^ 2 ] >= 14506.47
quadratic_ranged_424_lb: [ 1 x_39_ ^ 2 - 2 x_84_ * x_39_ + 1 x_84_ ^ 2 + 1 y_39_ ^ 2 - 2 y_84_ * y_39_ + 1 y_84_ ^ 2 ] >= 19472.31
quadratic_ranged_425_lb: [ 1 x_48_ ^ 2 - 2 x_84_ * x_48_ + 1 x_84_ ^ 2 + 1 y_48_ ^ 2 - 2 y_84_ * y_48_ + 1 y_84_ ^ 2 ] >= 19626.75
quadratic_ranged_426_lb: [ 1 x_56_ ^ 2 - 2 x_84_ * x_56_ + 1 x_84_ ^ 2 + 1 y_56_ ^ 2 - 2 y_84_ * y_56_ + 1 y_84_ ^ 2 ] >= 36135
quadratic_ranged_427_lb: [ 1 x_58_ ^ 2 - 2 x_84_ * x_58_ + 1 x_84_ ^ 2 + 1 y_58_ ^ 2 - 2 y_84_ * y_58_ + 1 y_84_ ^ 2 ] >= 33147.18
quadratic_ranged_428_lb: [ 1 x_64_ ^ 2 - 2 x_84_ * x_64_ + 1 x_84_ ^ 2 + 1 y_64_ ^ 2 - 2 y_84_ * y_64_ + 1 y_84_ ^ 2 ] >= 33942.15
quadratic_ranged_429_lb: [ 1 x_72_ ^ 2 - 2 x_84_ * x_72_ + 1 x_84_ ^ 2 + 1 y_72_ ^ 2 - 2 y_84_ * y_72_ + 1 y_84_ ^ 2 ] >= 41162.22
quadratic_ranged_430_lb: [ 1 x_76_ ^ 2 - 2 x_84_ * x_76_ + 1 x_84_ ^ 2 + 1 y_76_ ^ 2 - 2 y_84_ * y_76_ + 1 y_84_ ^ 2 ] >= 23598.63
quadratic_ranged_431_lb: [ 1 x_82_ ^ 2 - 2 x_84_ * x_82_ + 1 x_84_ ^ 2 + 1 y_82_ ^ 2 - 2 y_84_ * y_82_ + 1 y_84_ ^ 2 ] >= 8632.8
quadratic_ranged_432_lb: [ 1 x_83_ ^ 2 - 2 x_84_ * x_83_ + 1 x_84_ ^ 2 + 1 y_83_ ^ 2 - 2 y_84_ * y_83_ + 1 y_84_ ^ 2 ] >= 26849.79
quadratic_ranged_433_lb: [ 1 x_1_ ^ 2 - 2 x_85_ * x_1_ + 1 x_85_ ^ 2 + 1 y_1_ ^ 2 - 2 y_85_ * y_1_ + 1 y_85_ ^ 2 ] >= 4091.67
quadratic_ranged_434_lb: [ 1 x_13_ ^ 2 - 2 x_85_ * x_13_ + 1 x_85_ ^ 2 + 1 y_13_ ^ 2 - 2 y_85_ * y_13_ + 1 y_85_ ^ 2 ] >= 7905.15
quadratic_ranged_435_lb: [ 1 x_22_ ^ 2 - 2 x_85_ * x_22_ + 1 x_85_ ^ 2 + 1 y_22_ ^ 2 - 2 y_85_ * y_22_ + 1 y_85_ ^ 2 ] >= 23288.76
quadratic_ranged_436_lb: [ 1 x_25_ ^ 2 - 2 x_85_ * x_25_ + 1 x_85_ ^ 2 + 1 y_25_ ^ 2 - 2 y_85_ * y_25_ + 1 y_85_ ^ 2 ] >= 32983.83
quadratic_ranged_437_lb: [ 1 x_30_ ^ 2 - 2 x_85_ * x_30_ + 1 x_85_ ^ 2 + 1 y_30_ ^ 2 - 2 y_85_ * y_30_ + 1 y_85_ ^ 2 ] >= 3006.63
quadratic_ranged_438_lb: [ 1 x_40_ ^ 2 - 2 x_85_ * x_40_ + 1 x_85_ ^ 2 + 1 y_40_ ^ 2 - 2 y_85_ * y_40_ + 1 y_85_ ^ 2 ] >= 15864.75
quadratic_ranged_439_lb: [ 1 x_43_ ^ 2 - 2 x_85_ * x_43_ + 1 x_85_ ^ 2 + 1 y_43_ ^ 2 - 2 y_85_ * y_43_ + 1 y_85_ ^ 2 ] >= 28168.47
quadratic_ranged_440_lb: [ 1 x_53_ ^ 2 - 2 x_85_ * x_53_ + 1 x_85_ ^ 2 + 1 y_53_ ^ 2 - 2 y_85_ * y_53_ + 1 y_85_ ^ 2 ] >= 4436.19
quadratic_ranged_441_lb: [ 1 x_59_ ^ 2 - 2 x_85_ * x_59_ + 1 x_85_ ^ 2 + 1 y_59_ ^ 2 - 2 y_85_ * y_59_ + 1 y_85_ ^ 2 ] >= 3644.19
quadratic_ranged_442_lb: [ 1 x_61_ ^ 2 - 2 x_85_ * x_61_ + 1 x_85_ ^ 2 + 1 y_61_ ^ 2 - 2 y_85_ * y_61_ + 1 y_85_ ^ 2 ] >= 15508.35
quadratic_ranged_443_lb: [ 1 x_65_ ^ 2 - 2 x_85_ * x_65_ + 1 x_85_ ^ 2 + 1 y_65_ ^ 2 - 2 y_85_ * y_65_ + 1 y_85_ ^ 2 ] >= 7866.54
quadratic_ranged_444_lb: [ 1 x_84_ ^ 2 - 2 x_85_ * x_84_ + 1 x_85_ ^ 2 + 1 y_84_ ^ 2 - 2 y_85_ * y_84_ + 1 y_85_ ^ 2 ] >= 36139.95
quadratic_ranged_445_lb: [ 1 x_1_ ^ 2 - 2 x_86_ * x_1_ + 1 x_86_ ^ 2 + 1 y_1_ ^ 2 - 2 y_86_ * y_1_ + 1 y_86_ ^ 2 ] >= 14770.8
quadratic_ranged_446_lb: [ 1 x_31_ ^ 2 - 2 x_86_ * x_31_ + 1 x_86_ ^ 2 + 1 y_31_ ^ 2 - 2 y_86_ * y_31_ + 1 y_86_ ^ 2 ] >= 40835.52
quadratic_ranged_447_lb: [ 1 x_34_ ^ 2 - 2 x_86_ * x_34_ + 1 x_86_ ^ 2 + 1 y_34_ ^ 2 - 2 y_86_ * y_34_ + 1 y_86_ ^ 2 ] >= 19781.19
quadratic_ranged_448_lb: [ 1 x_41_ ^ 2 - 2 x_86_ * x_41_ + 1 x_86_ ^ 2 + 1 y_41_ ^ 2 - 2 y_86_ * y_41_ + 1 y_86_ ^ 2 ] >= 11821.59
quadratic_ranged_449_lb: [ 1 x_51_ ^ 2 - 2 x_86_ * x_51_ + 1 x_86_ ^ 2 + 1 y_51_ ^ 2 - 2 y_86_ * y_51_ + 1 y_86_ ^ 2 ] >= 16398.36
quadratic_ranged_450_lb: [ 1 x_55_ ^ 2 - 2 x_86_ * x_55_ + 1 x_86_ ^ 2 + 1 y_55_ ^ 2 - 2 y_86_ * y_55_ + 1 y_86_ ^ 2 ] >= 5291.55
quadratic_ranged_451_lb: [ 1 x_84_ ^ 2 - 2 x_86_ * x_84_ + 1 x_86_ ^ 2 + 1 y_84_ ^ 2 - 2 y_86_ * y_84_ + 1 y_86_ ^ 2 ] >= 158.4
quadratic_ranged_452_lb: [ 1 x_85_ ^ 2 - 2 x_86_ * x_85_ + 1 x_86_ ^ 2 + 1 y_85_ ^ 2 - 2 y_86_ * y_85_ + 1 y_86_ ^ 2 ] >= 33027.39
quadratic_ranged_453_lb: [ 1 x_4_ ^ 2 - 2 x_87_ * x_4_ + 1 x_87_ ^ 2 + 1 y_4_ ^ 2 - 2 y_87_ * y_4_ + 1 y_87_ ^ 2 ] >= 20434.59
quadratic_ranged_454_lb: [ 1 x_7_ ^ 2 - 2 x_87_ * x_7_ + 1 x_87_ ^ 2 + 1 y_7_ ^ 2 - 2 y_87_ * y_7_ + 1 y_87_ ^ 2 ] >= 2262.15
quadratic_ranged_455_lb: [ 1 x_20_ ^ 2 - 2 x_87_ * x_20_ + 1 x_87_ ^ 2 + 1 y_20_ ^ 2 - 2 y_87_ * y_20_ + 1 y_87_ ^ 2 ] >= 38649.6
quadratic_ranged_456_lb: [ 1 x_21_ ^ 2 - 2 x_87_ * x_21_ + 1 x_87_ ^ 2 + 1 y_21_ ^ 2 - 2 y_87_ * y_21_ + 1 y_87_ ^ 2 ] >= 4111.47
quadratic_ranged_457_lb: [ 1 x_26_ ^ 2 - 2 x_87_ * x_26_ + 1 x_87_ ^ 2 + 1 y_26_ ^ 2 - 2 y_87_ * y_26_ + 1 y_87_ ^ 2 ] >= 2528.46
quadratic_ranged_458_lb: [ 1 x_40_ ^ 2 - 2 x_87_ * x_40_ + 1 x_87_ ^ 2 + 1 y_40_ ^ 2 - 2 y_87_ * y_40_ + 1 y_87_ ^ 2 ] >= 30334.59
quadratic_ranged_459_lb: [ 1 x_44_ ^ 2 - 2 x_87_ * x_44_ + 1 x_87_ ^ 2 + 1 y_44_ ^ 2 - 2 y_87_ * y_44_ + 1 y_87_ ^ 2 ] >= 7406.19
quadratic_ranged_460_lb: [ 1 x_48_ ^ 2 - 2 x_87_ * x_48_ + 1 x_87_ ^ 2 + 1 y_48_ ^ 2 - 2 y_87_ * y_48_ + 1 y_87_ ^ 2 ] >= 5088.6
quadratic_ranged_461_lb: [ 1 x_52_ ^ 2 - 2 x_87_ * x_52_ + 1 x_87_ ^ 2 + 1 y_52_ ^ 2 - 2 y_87_ * y_52_ + 1 y_87_ ^ 2 ] >= 22249.26
quadratic_ranged_462_lb: [ 1 x_57_ ^ 2 - 2 x_87_ * x_57_ + 1 x_87_ ^ 2 + 1 y_57_ ^ 2 - 2 y_87_ * y_57_ + 1 y_87_ ^ 2 ] >= 12059.19
quadratic_ranged_463_lb: [ 1 x_58_ ^ 2 - 2 x_87_ * x_58_ + 1 x_87_ ^ 2 + 1 y_58_ ^ 2 - 2 y_87_ * y_58_ + 1 y_87_ ^ 2 ] >= 17405.19
quadratic_ranged_464_lb: [ 1 x_71_ ^ 2 - 2 x_87_ * x_71_ + 1 x_87_ ^ 2 + 1 y_71_ ^ 2 - 2 y_87_ * y_71_ + 1 y_87_ ^ 2 ] >= 17809.11
quadratic_ranged_465_lb: [ 1 x_76_ ^ 2 - 2 x_87_ * x_76_ + 1 x_87_ ^ 2 + 1 y_76_ ^ 2 - 2 y_87_ * y_76_ + 1 y_87_ ^ 2 ] >= 6718.14
quadratic_ranged_466_lb: [ 1 x_83_ ^ 2 - 2 x_87_ * x_83_ + 1 x_87_ ^ 2 + 1 y_83_ ^ 2 - 2 y_87_ * y_83_ + 1 y_87_ ^ 2 ] >= 28674.36
quadratic_ranged_467_lb: [ 1 x_86_ ^ 2 - 2 x_87_ * x_86_ + 1 x_87_ ^ 2 + 1 y_86_ ^ 2 - 2 y_87_ * y_86_ + 1 y_87_ ^ 2 ] >= 3747.15
quadratic_ranged_468_lb: [ 1 x_7_ ^ 2 - 2 x_88_ * x_7_ + 1 x_88_ ^ 2 + 1 y_7_ ^ 2 - 2 y_88_ * y_7_ + 1 y_88_ ^ 2 ] >= 8484.3
quadratic_ranged_469_lb: [ 1 x_13_ ^ 2 - 2 x_88_ * x_13_ + 1 x_88_ ^ 2 + 1 y_13_ ^ 2 - 2 y_88_ * y_13_ + 1 y_88_ ^ 2 ] >= 19366.38
quadratic_ranged_470_lb: [ 1 x_37_ ^ 2 - 2 x_88_ * x_37_ + 1 x_88_ ^ 2 + 1 y_37_ ^ 2 - 2 y_88_ * y_37_ + 1 y_88_ ^ 2 ] >= 22355.19
quadratic_ranged_471_lb: [ 1 x_40_ ^ 2 - 2 x_88_ * x_40_ + 1 x_88_ ^ 2 + 1 y_40_ ^ 2 - 2 y_88_ * y_40_ + 1 y_88_ ^ 2 ] >= 4569.84
quadratic_ranged_472_lb: [ 1 x_58_ ^ 2 - 2 x_88_ * x_58_ + 1 x_88_ ^ 2 + 1 y_58_ ^ 2 - 2 y_88_ * y_58_ + 1 y_88_ ^ 2 ] >= 336.6
quadratic_ranged_473_lb: [ 1 x_62_ ^ 2 - 2 x_88_ * x_62_ + 1 x_88_ ^ 2 + 1 y_62_ ^ 2 - 2 y_88_ * y_62_ + 1 y_88_ ^ 2 ] >= 3224.43
quadratic_ranged_474_lb: [ 1 x_66_ ^ 2 - 2 x_88_ * x_66_ + 1 x_88_ ^ 2 + 1 y_66_ ^ 2 - 2 y_88_ * y_66_ + 1 y_88_ ^ 2 ] >= 30670.2
quadratic_ranged_475_lb: [ 1 x_69_ ^ 2 - 2 x_88_ * x_69_ + 1 x_88_ ^ 2 + 1 y_69_ ^ 2 - 2 y_88_ * y_69_ + 1 y_88_ ^ 2 ] >= 19294.11
quadratic_ranged_476_lb: [ 1 x_81_ ^ 2 - 2 x_88_ * x_81_ + 1 x_88_ ^ 2 + 1 y_81_ ^ 2 - 2 y_88_ * y_81_ + 1 y_88_ ^ 2 ] >= 3821.4
quadratic_ranged_477_lb: [ 1 x_87_ ^ 2 - 2 x_88_ * x_87_ + 1 x_88_ ^ 2 + 1 y_87_ ^ 2 - 2 y_88_ * y_87_ + 1 y_88_ ^ 2 ] >= 19361.43
quadratic_ranged_478_lb: [ 1 x_18_ ^ 2 - 2 x_89_ * x_18_ + 1 x_89_ ^ 2 + 1 y_18_ ^ 2 - 2 y_89_ * y_18_ + 1 y_89_ ^ 2 ] >= 2954.16
quadratic_ranged_479_lb: [ 1 x_22_ ^ 2 - 2 x_89_ * x_22_ + 1 x_89_ ^ 2 + 1 y_22_ ^ 2 - 2 y_89_ * y_22_ + 1 y_89_ ^ 2 ] >= 6654.78
quadratic_ranged_480_lb: [ 1 x_24_ ^ 2 - 2 x_89_ * x_24_ + 1 x_89_ ^ 2 + 1 y_24_ ^ 2 - 2 y_89_ * y_24_ + 1 y_89_ ^ 2 ] >= 286.11
quadratic_ranged_481_lb: [ 1 x_32_ ^ 2 - 2 x_89_ * x_32_ + 1 x_89_ ^ 2 + 1 y_32_ ^ 2 - 2 y_89_ * y_32_ + 1 y_89_ ^ 2 ] >= 5395.5
quadratic_ranged_482_lb: [ 1 x_37_ ^ 2 - 2 x_89_ * x_37_ + 1 x_89_ ^ 2 + 1 y_37_ ^ 2 - 2 y_89_ * y_37_ + 1 y_89_ ^ 2 ] >= 37988.28
quadratic_ranged_483_lb: [ 1 x_38_ ^ 2 - 2 x_89_ * x_38_ + 1 x_89_ ^ 2 + 1 y_38_ ^ 2 - 2 y_89_ * y_38_ + 1 y_89_ ^ 2 ] >= 8566.47
quadratic_ranged_484_lb: [ 1 x_44_ ^ 2 - 2 x_89_ * x_44_ + 1 x_89_ ^ 2 + 1 y_44_ ^ 2 - 2 y_89_ * y_44_ + 1 y_89_ ^ 2 ] >= 35379.63
quadratic_ranged_485_lb: [ 1 x_47_ ^ 2 - 2 x_89_ * x_47_ + 1 x_89_ ^ 2 + 1 y_47_ ^ 2 - 2 y_89_ * y_47_ + 1 y_89_ ^ 2 ] >= 23848.11
quadratic_ranged_486_lb: [ 1 x_81_ ^ 2 - 2 x_89_ * x_81_ + 1 x_89_ ^ 2 + 1 y_81_ ^ 2 - 2 y_89_ * y_81_ + 1 y_89_ ^ 2 ] >= 10308.87
quadratic_ranged_487_lb: [ 1 x_82_ ^ 2 - 2 x_89_ * x_82_ + 1 x_89_ ^ 2 + 1 y_82_ ^ 2 - 2 y_89_ * y_82_ + 1 y_89_ ^ 2 ] >= 10336.59
quadratic_ranged_488_lb: [ 1 x_88_ ^ 2 - 2 x_89_ * x_88_ + 1 x_89_ ^ 2 + 1 y_88_ ^ 2 - 2 y_89_ * y_88_ + 1 y_89_ ^ 2 ] >= 2380.95
quadratic_ranged_489_lb: [ 1 x_28_ ^ 2 - 2 x_90_ * x_28_ + 1 x_90_ ^ 2 + 1 y_28_ ^ 2 - 2 y_90_ * y_28_ + 1 y_90_ ^ 2 ] >= 5667.75
quadratic_ranged_490_lb: [ 1 x_39_ ^ 2 - 2 x_90_ * x_39_ + 1 x_90_ ^ 2 + 1 y_39_ ^ 2 - 2 y_90_ * y_39_ + 1 y_90_ ^ 2 ] >= 12225.51
quadratic_ranged_491_lb: [ 1 x_51_ ^ 2 - 2 x_90_ * x_51_ + 1 x_90_ ^ 2 + 1 y_51_ ^ 2 - 2 y_90_ * y_51_ + 1 y_90_ ^ 2 ] >= 11741.4
quadratic_ranged_492_lb: [ 1 x_53_ ^ 2 - 2 x_90_ * x_53_ + 1 x_90_ ^ 2 + 1 y_53_ ^ 2 - 2 y_90_ * y_53_ + 1 y_90_ ^ 2 ] >= 15271.74
quadratic_ranged_493_lb: [ 1 x_62_ ^ 2 - 2 x_90_ * x_62_ + 1 x_90_ ^ 2 + 1 y_62_ ^ 2 - 2 y_90_ * y_62_ + 1 y_90_ ^ 2 ] >= 20141.55
quadratic_ranged_494_lb: [ 1 x_68_ ^ 2 - 2 x_90_ * x_68_ + 1 x_90_ ^ 2 + 1 y_68_ ^ 2 - 2 y_90_ * y_68_ + 1 y_90_ ^ 2 ] >= 1747.35
quadratic_ranged_495_lb: [ 1 x_89_ ^ 2 - 2 x_90_ * x_89_ + 1 x_90_ ^ 2 + 1 y_89_ ^ 2 - 2 y_90_ * y_89_ + 1 y_90_ ^ 2 ] >= 27776.43
quadratic_ranged_496_lb: [ 1 x_11_ ^ 2 - 2 x_91_ * x_11_ + 1 x_91_ ^ 2 + 1 y_11_ ^ 2 - 2 y_91_ * y_11_ + 1 y_91_ ^ 2 ] >= 22849.2
quadratic_ranged_497_lb: [ 1 x_23_ ^ 2 - 2 x_91_ * x_23_ + 1 x_91_ ^ 2 + 1 y_23_ ^ 2 - 2 y_91_ * y_23_ + 1 y_91_ ^ 2 ] >= 22702.68
quadratic_ranged_498_lb: [ 1 x_58_ ^ 2 - 2 x_91_ * x_58_ + 1 x_91_ ^ 2 + 1 y_58_ ^ 2 - 2 y_91_ * y_58_ + 1 y_91_ ^ 2 ] >= 4578.75
quadratic_ranged_499_lb: [ 1 x_59_ ^ 2 - 2 x_91_ * x_59_ + 1 x_91_ ^ 2 + 1 y_59_ ^ 2 - 2 y_91_ * y_59_ + 1 y_91_ ^ 2 ] >= 4891.59
quadratic_ranged_500_lb: [ 1 x_90_ ^ 2 - 2 x_91_ * x_90_ + 1 x_91_ ^ 2 + 1 y_90_ ^ 2 - 2 y_91_ * y_90_ + 1 y_91_ ^ 2 ] >= 19963.35
quadratic_ranged_501_lb: [ 1 x_4_ ^ 2 - 2 x_92_ * x_4_ + 1 x_92_ ^ 2 + 1 y_4_ ^ 2 - 2 y_92_ * y_4_ + 1 y_92_ ^ 2 ] >= 2400.75
quadratic_ranged_502_lb: [ 1 x_24_ ^ 2 - 2 x_92_ * x_24_ + 1 x_92_ ^ 2 + 1 y_24_ ^ 2 - 2 y_92_ * y_24_ + 1 y_92_ ^ 2 ] >= 10411.83
quadratic_ranged_503_lb: [ 1 x_26_ ^ 2 - 2 x_92_ * x_26_ + 1 x_92_ ^ 2 + 1 y_26_ ^ 2 - 2 y_92_ * y_26_ + 1 y_92_ ^ 2 ] >= 4381.74
quadratic_ranged_504_lb: [ 1 x_40_ ^ 2 - 2 x_92_ * x_40_ + 1 x_92_ ^ 2 + 1 y_40_ ^ 2 - 2 y_92_ * y_40_ + 1 y_92_ ^ 2 ] >= 17824.95
quadratic_ranged_505_lb: [ 1 x_44_ ^ 2 - 2 x_92_ * x_44_ + 1 x_92_ ^ 2 + 1 y_44_ ^ 2 - 2 y_92_ * y_44_ + 1 y_92_ ^ 2 ] >= 7691.3099999999995
quadratic_ranged_506_lb: [ 1 x_47_ ^ 2 - 2 x_92_ * x_47_ + 1 x_92_ ^ 2 + 1 y_47_ ^ 2 - 2 y_92_ * y_47_ + 1 y_92_ ^ 2 ] >= 8756.55
quadratic_ranged_507_lb: [ 1 x_55_ ^ 2 - 2 x_92_ * x_55_ + 1 x_92_ ^ 2 + 1 y_55_ ^ 2 - 2 y_92_ * y_55_ + 1 y_92_ ^ 2 ] >= 21441.42
quadratic_ranged_508_lb: [ 1 x_59_ ^ 2 - 2 x_92_ * x_59_ + 1 x_92_ ^ 2 + 1 y_59_ ^ 2 - 2 y_92_ * y_59_ + 1 y_92_ ^ 2 ] >= 3564.99
quadratic_ranged_509_lb: [ 1 x_66_ ^ 2 - 2 x_92_ * x_66_ + 1 x_92_ ^ 2 + 1 y_66_ ^ 2 - 2 y_92_ * y_66_ + 1 y_92_ ^ 2 ] >= 26556.75
quadratic_ranged_510_lb: [ 1 x_76_ ^ 2 - 2 x_92_ * x_76_ + 1 x_92_ ^ 2 + 1 y_76_ ^ 2 - 2 y_92_ * y_76_ + 1 y_92_ ^ 2 ] >= 7573.5
quadratic_ranged_511_lb: [ 1 x_77_ ^ 2 - 2 x_92_ * x_77_ + 1 x_92_ ^ 2 + 1 y_77_ ^ 2 - 2 y_92_ * y_77_ + 1 y_92_ ^ 2 ] >= 9001.08
quadratic_ranged_512_lb: [ 1 x_87_ ^ 2 - 2 x_92_ * x_87_ + 1 x_92_ ^ 2 + 1 y_87_ ^ 2 - 2 y_92_ * y_87_ + 1 y_92_ ^ 2 ] >= 13151.16
quadratic_ranged_513_lb: [ 1 x_91_ ^ 2 - 2 x_92_ * x_91_ + 1 x_92_ ^ 2 + 1 y_91_ ^ 2 - 2 y_92_ * y_91_ + 1 y_92_ ^ 2 ] >= 437.58
quadratic_ranged_514_lb: [ 1 x_5_ ^ 2 - 2 x_93_ * x_5_ + 1 x_93_ ^ 2 + 1 y_5_ ^ 2 - 2 y_93_ * y_5_ + 1 y_93_ ^ 2 ] >= 25763.76
quadratic_ranged_515_lb: [ 1 x_10_ ^ 2 - 2 x_93_ * x_10_ + 1 x_93_ ^ 2 + 1 y_10_ ^ 2 - 2 y_93_ * y_10_ + 1 y_93_ ^ 2 ] >= 8495.19
quadratic_ranged_516_lb: [ 1 x_26_ ^ 2 - 2 x_93_ * x_26_ + 1 x_93_ ^ 2 + 1 y_26_ ^ 2 - 2 y_93_ * y_26_ + 1 y_93_ ^ 2 ] >= 761.31
quadratic_ranged_517_lb: [ 1 x_53_ ^ 2 - 2 x_93_ * x_53_ + 1 x_93_ ^ 2 + 1 y_53_ ^ 2 - 2 y_93_ * y_53_ + 1 y_93_ ^ 2 ] >= 3716.46
quadratic_ranged_518_lb: [ 1 x_58_ ^ 2 - 2 x_93_ * x_58_ + 1 x_93_ ^ 2 + 1 y_58_ ^ 2 - 2 y_93_ * y_58_ + 1 y_93_ ^ 2 ] >= 4524.3
quadratic_ranged_519_lb: [ 1 x_66_ ^ 2 - 2 x_93_ * x_66_ + 1 x_93_ ^ 2 + 1 y_66_ ^ 2 - 2 y_93_ * y_66_ + 1 y_93_ ^ 2 ] >= 15018.3
quadratic_ranged_520_lb: [ 1 x_78_ ^ 2 - 2 x_93_ * x_78_ + 1 x_93_ ^ 2 + 1 y_78_ ^ 2 - 2 y_93_ * y_78_ + 1 y_93_ ^ 2 ] >= 20529.63
quadratic_ranged_521_lb: [ 1 x_92_ ^ 2 - 2 x_93_ * x_92_ + 1 x_93_ ^ 2 + 1 y_92_ ^ 2 - 2 y_93_ * y_92_ + 1 y_93_ ^ 2 ] >= 1648.35
quadratic_ranged_522_lb: [ 1 x_4_ ^ 2 - 2 x_94_ * x_4_ + 1 x_94_ ^ 2 + 1 y_4_ ^ 2 - 2 y_94_ * y_4_ + 1 y_94_ ^ 2 ] >= 25740
quadratic_ranged_523_lb: [ 1 x_14_ ^ 2 - 2 x_94_ * x_14_ + 1 x_94_ ^ 2 + 1 y_14_ ^ 2 - 2 y_94_ * y_14_ + 1 y_94_ ^ 2 ] >= 26423.1
quadratic_ranged_524_lb: [ 1 x_23_ ^ 2 - 2 x_94_ * x_23_ + 1 x_94_ ^ 2 + 1 y_23_ ^ 2 - 2 y_94_ * y_23_ + 1 y_94_ ^ 2 ] >= 31059.27
quadratic_ranged_525_lb: [ 1 x_32_ ^ 2 - 2 x_94_ * x_32_ + 1 x_94_ ^ 2 + 1 y_32_ ^ 2 - 2 y_94_ * y_32_ + 1 y_94_ ^ 2 ] >= 14748.03
quadratic_ranged_526_lb: [ 1 x_37_ ^ 2 - 2 x_94_ * x_37_ + 1 x_94_ ^ 2 + 1 y_37_ ^ 2 - 2 y_94_ * y_37_ + 1 y_94_ ^ 2 ] >= 23273.91
quadratic_ranged_527_lb: [ 1 x_46_ ^ 2 - 2 x_94_ * x_46_ + 1 x_94_ ^ 2 + 1 y_46_ ^ 2 - 2 y_94_ * y_46_ + 1 y_94_ ^ 2 ] >= 32247.27
quadratic_ranged_528_lb: [ 1 x_70_ ^ 2 - 2 x_94_ * x_70_ + 1 x_94_ ^ 2 + 1 y_70_ ^ 2 - 2 y_94_ * y_70_ + 1 y_94_ ^ 2 ] >= 32405.67
quadratic_ranged_529_lb: [ 1 x_74_ ^ 2 - 2 x_94_ * x_74_ + 1 x_94_ ^ 2 + 1 y_74_ ^ 2 - 2 y_94_ * y_74_ + 1 y_94_ ^ 2 ] >= 13441.23
quadratic_ranged_530_lb: [ 1 x_93_ ^ 2 - 2 x_94_ * x_93_ + 1 x_94_ ^ 2 + 1 y_93_ ^ 2 - 2 y_94_ * y_93_ + 1 y_94_ ^ 2 ] >= 9935.64
quadratic_ranged_531_lb: [ 1 x_11_ ^ 2 - 2 x_95_ * x_11_ + 1 x_95_ ^ 2 + 1 y_11_ ^ 2 - 2 y_95_ * y_11_ + 1 y_95_ ^ 2 ] >= 1264.23
quadratic_ranged_532_lb: [ 1 x_16_ ^ 2 - 2 x_95_ * x_16_ + 1 x_95_ ^ 2 + 1 y_16_ ^ 2 - 2 y_95_ * y_16_ + 1 y_95_ ^ 2 ] >= 2828.43
quadratic_ranged_533_lb: [ 1 x_26_ ^ 2 - 2 x_95_ * x_26_ + 1 x_95_ ^ 2 + 1 y_26_ ^ 2 - 2 y_95_ * y_26_ + 1 y_95_ ^ 2 ] >= 9045.63
quadratic_ranged_534_lb: [ 1 x_27_ ^ 2 - 2 x_95_ * x_27_ + 1 x_95_ ^ 2 + 1 y_27_ ^ 2 - 2 y_95_ * y_27_ + 1 y_95_ ^ 2 ] >= 1269.18
quadratic_ranged_535_lb: [ 1 x_28_ ^ 2 - 2 x_95_ * x_28_ + 1 x_95_ ^ 2 + 1 y_28_ ^ 2 - 2 y_95_ * y_28_ + 1 y_95_ ^ 2 ] >= 690.03
quadratic_ranged_536_lb: [ 1 x_31_ ^ 2 - 2 x_95_ * x_31_ + 1 x_95_ ^ 2 + 1 y_31_ ^ 2 - 2 y_95_ * y_31_ + 1 y_95_ ^ 2 ] >= 16766.64
quadratic_ranged_537_lb: [ 1 x_44_ ^ 2 - 2 x_95_ * x_44_ + 1 x_95_ ^ 2 + 1 y_44_ ^ 2 - 2 y_95_ * y_44_ + 1 y_95_ ^ 2 ] >= 22686.84
quadratic_ranged_538_lb: [ 1 x_47_ ^ 2 - 2 x_95_ * x_47_ + 1 x_95_ ^ 2 + 1 y_47_ ^ 2 - 2 y_95_ * y_47_ + 1 y_95_ ^ 2 ] >= 9672.3
quadratic_ranged_539_lb: [ 1 x_59_ ^ 2 - 2 x_95_ * x_59_ + 1 x_95_ ^ 2 + 1 y_59_ ^ 2 - 2 y_95_ * y_59_ + 1 y_95_ ^ 2 ] >= 2890.8
quadratic_ranged_540_lb: [ 1 x_76_ ^ 2 - 2 x_95_ * x_76_ + 1 x_95_ ^ 2 + 1 y_76_ ^ 2 - 2 y_95_ * y_76_ + 1 y_95_ ^ 2 ] >= 21662.19
quadratic_ranged_541_lb: [ 1 x_94_ ^ 2 - 2 x_95_ * x_94_ + 1 x_95_ ^ 2 + 1 y_94_ ^ 2 - 2 y_95_ * y_94_ + 1 y_95_ ^ 2 ] >= 8213.039999999999
quadratic_ranged_542_lb: [ 1 x_19_ ^ 2 - 2 x_96_ * x_19_ + 1 x_96_ ^ 2 + 1 y_19_ ^ 2 - 2 y_96_ * y_19_ + 1 y_96_ ^ 2 ] >= 15667.74
quadratic_ranged_543_lb: [ 1 x_31_ ^ 2 - 2 x_96_ * x_31_ + 1 x_96_ ^ 2 + 1 y_31_ ^ 2 - 2 y_96_ * y_31_ + 1 y_96_ ^ 2 ] >= 6380.55
quadratic_ranged_544_lb: [ 1 x_39_ ^ 2 - 2 x_96_ * x_39_ + 1 x_96_ ^ 2 + 1 y_39_ ^ 2 - 2 y_96_ * y_39_ + 1 y_96_ ^ 2 ] >= 19.8
quadratic_ranged_545_lb: [ 1 x_85_ ^ 2 - 2 x_96_ * x_85_ + 1 x_96_ ^ 2 + 1 y_85_ ^ 2 - 2 y_96_ * y_85_ + 1 y_96_ ^ 2 ] >= 3589.74
quadratic_ranged_546_lb: [ 1 x_95_ ^ 2 - 2 x_96_ * x_95_ + 1 x_96_ ^ 2 + 1 y_95_ ^ 2 - 2 y_96_ * y_95_ + 1 y_96_ ^ 2 ] >= 9283.23
quadratic_ranged_547_lb: [ 1 x_17_ ^ 2 - 2 x_97_ * x_17_ + 1 x_97_ ^ 2 + 1 y_17_ ^ 2 - 2 y_97_ * y_17_ + 1 y_97_ ^ 2 ] >= 15243.03
quadratic_ranged_548_lb: [ 1 x_54_ ^ 2 - 2 x_97_ * x_54_ + 1 x_97_ ^ 2 + 1 y_54_ ^ 2 - 2 y_97_ * y_54_ + 1 y_97_ ^ 2 ] >= 26589.42
quadratic_ranged_549_lb: [ 1 x_69_ ^ 2 - 2 x_97_ * x_69_ + 1 x_97_ ^ 2 + 1 y_69_ ^ 2 - 2 y_97_ * y_69_ + 1 y_97_ ^ 2 ] >= 26220.15
quadratic_ranged_550_lb: [ 1 x_94_ ^ 2 - 2 x_97_ * x_94_ + 1 x_97_ ^ 2 + 1 y_94_ ^ 2 - 2 y_97_ * y_94_ + 1 y_97_ ^ 2 ] >= 26621.1
quadratic_ranged_551_lb: [ 1 x_96_ ^ 2 - 2 x_97_ * x_96_ + 1 x_97_ ^ 2 + 1 y_96_ ^ 2 - 2 y_97_ * y_96_ + 1 y_97_ ^ 2 ] >= 4182.75
quadratic_ranged_552_lb: [ 1 x_7_ ^ 2 - 2 x_98_ * x_7_ + 1 x_98_ ^ 2 + 1 y_7_ ^ 2 - 2 y_98_ * y_7_ + 1 y_98_ ^ 2 ] >= 2468.07
quadratic_ranged_553_lb: [ 1 x_9_ ^ 2 - 2 x_98_ * x_9_ + 1 x_98_ ^ 2 + 1 y_9_ ^ 2 - 2 y_98_ * y_9_ + 1 y_98_ ^ 2 ] >= 3925.35
quadratic_ranged_554_lb: [ 1 x_10_ ^ 2 - 2 x_98_ * x_10_ + 1 x_98_ ^ 2 + 1 y_10_ ^ 2 - 2 y_98_ * y_10_ + 1 y_98_ ^ 2 ] >= 13325.4
quadratic_ranged_555_lb: [ 1 x_18_ ^ 2 - 2 x_98_ * x_18_ + 1 x_98_ ^ 2 + 1 y_18_ ^ 2 - 2 y_98_ * y_18_ + 1 y_98_ ^ 2 ] >= 11881.98
quadratic_ranged_556_lb: [ 1 x_19_ ^ 2 - 2 x_98_ * x_19_ + 1 x_98_ ^ 2 + 1 y_19_ ^ 2 - 2 y_98_ * y_19_ + 1 y_98_ ^ 2 ] >= 19871.28
quadratic_ranged_557_lb: [ 1 x_24_ ^ 2 - 2 x_98_ * x_24_ + 1 x_98_ ^ 2 + 1 y_24_ ^ 2 - 2 y_98_ * y_24_ + 1 y_98_ ^ 2 ] >= 16728.03
quadratic_ranged_558_lb: [ 1 x_34_ ^ 2 - 2 x_98_ * x_34_ + 1 x_98_ ^ 2 + 1 y_34_ ^ 2 - 2 y_98_ * y_34_ + 1 y_98_ ^ 2 ] >= 904.86
quadratic_ranged_559_lb: [ 1 x_36_ ^ 2 - 2 x_98_ * x_36_ + 1 x_98_ ^ 2 + 1 y_36_ ^ 2 - 2 y_98_ * y_36_ + 1 y_98_ ^ 2 ] >= 11172.15
quadratic_ranged_560_lb: [ 1 x_37_ ^ 2 - 2 x_98_ * x_37_ + 1 x_98_ ^ 2 + 1 y_37_ ^ 2 - 2 y_98_ * y_37_ + 1 y_98_ ^ 2 ] >= 4801.5
quadratic_ranged_561_lb: [ 1 x_56_ ^ 2 - 2 x_98_ * x_56_ + 1 x_98_ ^ 2 + 1 y_56_ ^ 2 - 2 y_98_ * y_56_ + 1 y_98_ ^ 2 ] >= 6851.79
quadratic_ranged_562_lb: [ 1 x_59_ ^ 2 - 2 x_98_ * x_59_ + 1 x_98_ ^ 2 + 1 y_59_ ^ 2 - 2 y_98_ * y_59_ + 1 y_98_ ^ 2 ] >= 6265.71
quadratic_ranged_563_lb: [ 1 x_80_ ^ 2 - 2 x_98_ * x_80_ + 1 x_98_ ^ 2 + 1 y_80_ ^ 2 - 2 y_98_ * y_80_ + 1 y_98_ ^ 2 ] >= 35897.4
quadratic_ranged_564_lb: [ 1 x_95_ ^ 2 - 2 x_98_ * x_95_ + 1 x_98_ ^ 2 + 1 y_95_ ^ 2 - 2 y_98_ * y_95_ + 1 y_98_ ^ 2 ] >= 10989.99
quadratic_ranged_565_lb: [ 1 x_96_ ^ 2 - 2 x_98_ * x_96_ + 1 x_98_ ^ 2 + 1 y_96_ ^ 2 - 2 y_98_ * y_96_ + 1 y_98_ ^ 2 ] >= 382.14
quadratic_ranged_566_lb: [ 1 x_97_ ^ 2 - 2 x_98_ * x_97_ + 1 x_98_ ^ 2 + 1 y_97_ ^ 2 - 2 y_98_ * y_97_ + 1 y_98_ ^ 2 ] >= 6099.39
quadratic_ranged_567_lb: [ 1 x_10_ ^ 2 - 2 x_99_ * x_10_ + 1 x_99_ ^ 2 + 1 y_10_ ^ 2 - 2 y_99_ * y_10_ + 1 y_99_ ^ 2 ] >= 20528.64
quadratic_ranged_568_lb: [ 1 x_31_ ^ 2 - 2 x_99_ * x_31_ + 1 x_99_ ^ 2 + 1 y_31_ ^ 2 - 2 y_99_ * y_31_ + 1 y_99_ ^ 2 ] >= 17417.07
quadratic_ranged_569_lb: [ 1 x_35_ ^ 2 - 2 x_99_ * x_35_ + 1 x_99_ ^ 2 + 1 y_35_ ^ 2 - 2 y_99_ * y_35_ + 1 y_99_ ^ 2 ] >= 16018.2
quadratic_ranged_570_lb: [ 1 x_60_ ^ 2 - 2 x_99_ * x_60_ + 1 x_99_ ^ 2 + 1 y_60_ ^ 2 - 2 y_99_ * y_60_ + 1 y_99_ ^ 2 ] >= 3399.66
quadratic_ranged_571_lb: [ 1 x_78_ ^ 2 - 2 x_99_ * x_78_ + 1 x_99_ ^ 2 + 1 y_78_ ^ 2 - 2 y_99_ * y_78_ + 1 y_99_ ^ 2 ] >= 2575.98
quadratic_ranged_572_lb: [ 1 x_79_ ^ 2 - 2 x_99_ * x_79_ + 1 x_99_ ^ 2 + 1 y_79_ ^ 2 - 2 y_99_ * y_79_ + 1 y_99_ ^ 2 ] >= 13310.55
quadratic_ranged_573_lb: [ 1 x_98_ ^ 2 - 2 x_99_ * x_98_ + 1 x_99_ ^ 2 + 1 y_98_ ^ 2 - 2 y_99_ * y_98_ + 1 y_99_ ^ 2 ] >= 14465.88
quadratic_ranged_574_lb: [ 1 x_1_ ^ 2 - 2 x_100_ * x_1_ + 1 x_100_ ^ 2 + 1 y_1_ ^ 2 - 2 y_100_ * y_1_ + 1 y_100_ ^ 2 ] >= 349.46999999999997
quadratic_ranged_575_lb: [ 1 x_32_ ^ 2 - 2 x_100_ * x_32_ + 1 x_100_ ^ 2 + 1 y_32_ ^ 2 - 2 y_100_ * y_32_ + 1 y_100_ ^ 2 ] >= 6850.8
quadratic_ranged_576_lb: [ 1 x_34_ ^ 2 - 2 x_100_ * x_34_ + 1 x_100_ ^ 2 + 1 y_34_ ^ 2 - 2 y_100_ * y_34_ + 1 y_100_ ^ 2 ] >= 10147.5
quadratic_ranged_577_lb: [ 1 x_40_ ^ 2 - 2 x_100_ * x_40_ + 1 x_100_ ^ 2 + 1 y_40_ ^ 2 - 2 y_100_ * y_40_ + 1 y_100_ ^ 2 ] >= 8103.15
quadratic_ranged_578_lb: [ 1 x_45_ ^ 2 - 2 x_100_ * x_45_ + 1 x_100_ ^ 2 + 1 y_45_ ^ 2 - 2 y_100_ * y_45_ + 1 y_100_ ^ 2 ] >= 1177.11
quadratic_ranged_579_lb: [ 1 x_49_ ^ 2 - 2 x_100_ * x_49_ + 1 x_100_ ^ 2 + 1 y_49_ ^ 2 - 2 y_100_ * y_49_ + 1 y_100_ ^ 2 ] >= 4103.55
quadratic_ranged_580_lb: [ 1 x_67_ ^ 2 - 2 x_100_ * x_67_ + 1 x_100_ ^ 2 + 1 y_67_ ^ 2 - 2 y_100_ * y_67_ + 1 y_100_ ^ 2 ] >= 6353.82
quadratic_ranged_581_lb: [ 1 x_78_ ^ 2 - 2 x_100_ * x_78_ + 1 x_100_ ^ 2 + 1 y_78_ ^ 2 - 2 y_100_ * y_78_ + 1 y_100_ ^ 2 ] >= 9933.66
quadratic_ranged_582_lb: [ 1 x_90_ ^ 2 - 2 x_100_ * x_90_ + 1 x_100_ ^ 2 + 1 y_90_ ^ 2 - 2 y_100_ * y_90_ + 1 y_100_ ^ 2 ] >= 11671.11
quadratic_ranged_583_lb: [ 1 x_91_ ^ 2 - 2 x_100_ * x_91_ + 1 x_100_ ^ 2 + 1 y_91_ ^ 2 - 2 y_100_ * y_91_ + 1 y_100_ ^ 2 ] >= 5338.08
quadratic_ranged_584_lb: [ 1 x_94_ ^ 2 - 2 x_100_ * x_94_ + 1 x_100_ ^ 2 + 1 y_94_ ^ 2 - 2 y_100_ * y_94_ + 1 y_100_ ^ 2 ] >= 10150.47
quadratic_ranged_585_lb: [ 1 x_99_ ^ 2 - 2 x_100_ * x_99_ + 1 x_100_ ^ 2 + 1 y_99_ ^ 2 - 2 y_100_ * y_99_ + 1 y_100_ ^ 2 ] >= 2764.08
c1_1: 1 x_53_ = 0
c2_1: 1 y_53_ = 0
Bounds
-131 <= x_1_ <= 131
-103 <= x_2_ <= 103
-153 <= x_3_ <= 153
-120 <= x_4_ <= 120
-160 <= x_5_ <= 160
-164 <= x_6_ <= 164
-63 <= x_7_ <= 63
-119 <= x_8_ <= 119
-174 <= x_9_ <= 174
-154 <= x_10_ <= 154
-108 <= x_11_ <= 108
-150 <= x_12_ <= 150
-157 <= x_13_ <= 157
-131 <= x_14_ <= 131
-155 <= x_15_ <= 155
-125 <= x_16_ <= 125
-130 <= x_17_ <= 130
-76 <= x_18_ <= 76
-122 <= x_19_ <= 122
-193 <= x_20_ <= 193
-173 <= x_21_ <= 173
-116 <= x_22_ <= 116
-144 <= x_23_ <= 144
-110 <= x_24_ <= 110
-154 <= x_25_ <= 154
-89 <= x_26_ <= 89
-36 <= x_27_ <= 36
-54 <= x_28_ <= 54
-98 <= x_29_ <= 98
-96 <= x_30_ <= 96
-99 <= x_31_ <= 99
-122 <= x_32_ <= 122
-107 <= x_33_ <= 107
-113 <= x_34_ <= 113
-150 <= x_35_ <= 150
-156 <= x_36_ <= 156
-142 <= x_37_ <= 142
-135 <= x_38_ <= 135
-132 <= x_39_ <= 132
-190 <= x_40_ <= 190
-72 <= x_41_ <= 72
-143 <= x_42_ <= 143
-180 <= x_43_ <= 180
-191 <= x_44_ <= 191
-182 <= x_45_ <= 182
-179 <= x_46_ <= 179
-123 <= x_47_ <= 123
-74 <= x_48_ <= 74
-108 <= x_49_ <= 108
-184 <= x_50_ <= 184
-105 <= x_51_ <= 105
-42 <= x_52_ <= 42
x_53_ = 0
-67 <= x_54_ <= 67
-104 <= x_55_ <= 104
-61 <= x_56_ <= 61
-73 <= x_57_ <= 73
-106 <= x_58_ <= 106
-105 <= x_59_ <= 105
-153 <= x_60_ <= 153
-165 <= x_61_ <= 165
-90 <= x_62_ <= 90
-181 <= x_63_ <= 181
-76 <= x_64_ <= 76
-101 <= x_65_ <= 101
-185 <= x_66_ <= 185
-172 <= x_67_ <= 172
-148 <= x_68_ <= 148
-175 <= x_69_ <= 175
-77 <= x_70_ <= 77
-150 <= x_71_ <= 150
-136 <= x_72_ <= 136
-122 <= x_73_ <= 122
-122 <= x_74_ <= 122
-167 <= x_75_ <= 167
-130 <= x_76_ <= 130
-164 <= x_77_ <= 164
-128 <= x_78_ <= 128
-181 <= x_79_ <= 181
-134 <= x_80_ <= 134
-142 <= x_81_ <= 142
-151 <= x_82_ <= 151
-155 <= x_83_ <= 155
-186 <= x_84_ <= 186
-67 <= x_85_ <= 67
-173 <= x_86_ <= 173
-111 <= x_87_ <= 111
-125 <= x_88_ <= 125
-128 <= x_89_ <= 128
-124 <= x_90_ <= 124
-123 <= x_91_ <= 123
-102 <= x_92_ <= 102
-61 <= x_93_ <= 61
-162 <= x_94_ <= 162
-72 <= x_95_ <= 72
-127 <= x_96_ <= 127
-192 <= x_97_ <= 192
-113 <= x_98_ <= 113
-180 <= x_99_ <= 180
-150 <= x_100_ <= 150
-131 <= y_1_ <= 131
-103 <= y_2_ <= 103
-153 <= y_3_ <= 153
-120 <= y_4_ <= 120
-160 <= y_5_ <= 160
-164 <= y_6_ <= 164
-63 <= y_7_ <= 63
-119 <= y_8_ <= 119
-174 <= y_9_ <= 174
-154 <= y_10_ <= 154
-108 <= y_11_ <= 108
-150 <= y_12_ <= 150
-157 <= y_13_ <= 157
-131 <= y_14_ <= 131
-155 <= y_15_ <= 155
-125 <= y_16_ <= 125
-130 <= y_17_ <= 130
-76 <= y_18_ <= 76
-122 <= y_19_ <= 122
-193 <= y_20_ <= 193
-173 <= y_21_ <= 173
-116 <= y_22_ <= 116
-144 <= y_23_ <= 144
-110 <= y_24_ <= 110
-154 <= y_25_ <= 154
-89 <= y_26_ <= 89
-36 <= y_27_ <= 36
-54 <= y_28_ <= 54
-98 <= y_29_ <= 98
-96 <= y_30_ <= 96
-99 <= y_31_ <= 99
-122 <= y_32_ <= 122
-107 <= y_33_ <= 107
-113 <= y_34_ <= 113
-150 <= y_35_ <= 150
-156 <= y_36_ <= 156
-142 <= y_37_ <= 142
-135 <= y_38_ <= 135
-132 <= y_39_ <= 132
-190 <= y_40_ <= 190
-72 <= y_41_ <= 72
-143 <= y_42_ <= 143
-180 <= y_43_ <= 180
-191 <= y_44_ <= 191
-182 <= y_45_ <= 182
-179 <= y_46_ <= 179
-123 <= y_47_ <= 123
-74 <= y_48_ <= 74
-108 <= y_49_ <= 108
-184 <= y_50_ <= 184
-105 <= y_51_ <= 105
-42 <= y_52_ <= 42
y_53_ = 0
-67 <= y_54_ <= 67
-104 <= y_55_ <= 104
-61 <= y_56_ <= 61
-73 <= y_57_ <= 73
-106 <= y_58_ <= 106
-105 <= y_59_ <= 105
-153 <= y_60_ <= 153
-165 <= y_61_ <= 165
-90 <= y_62_ <= 90
-181 <= y_63_ <= 181
-76 <= y_64_ <= 76
-101 <= y_65_ <= 101
-185 <= y_66_ <= 185
-172 <= y_67_ <= 172
-148 <= y_68_ <= 148
-175 <= y_69_ <= 175
-77 <= y_70_ <= 77
-150 <= y_71_ <= 150
-136 <= y_72_ <= 136
-122 <= y_73_ <= 122
-122 <= y_74_ <= 122
-167 <= y_75_ <= 167
-130 <= y_76_ <= 130
-164 <= y_77_ <= 164
-128 <= y_78_ <= 128
-181 <= y_79_ <= 181
-134 <= y_80_ <= 134
-142 <= y_81_ <= 142
-151 <= y_82_ <= 151
-155 <= y_83_ <= 155
-186 <= y_84_ <= 186
-67 <= y_85_ <= 67
-173 <= y_86_ <= 173
-111 <= y_87_ <= 111
-125 <= y_88_ <= 125
-128 <= y_89_ <= 128
-124 <= y_90_ <= 124
-123 <= y_91_ <= 123
-102 <= y_92_ <= 102
-61 <= y_93_ <= 61
-162 <= y_94_ <= 162
-72 <= y_95_ <= 72
-127 <= y_96_ <= 127
-192 <= y_97_ <= 192
-113 <= y_98_ <= 113
-180 <= y_99_ <= 180
-150 <= y_100_ <= 150
General
x_1_
x_2_
x_3_
x_4_
x_5_
x_6_
x_7_
x_8_
x_9_
x_10_
x_11_
x_12_
x_13_
x_14_
x_15_
x_16_
x_17_
x_18_
x_19_
x_20_
x_21_
x_22_
x_23_
x_24_
x_25_
x_26_
x_27_
x_28_
x_29_
x_30_
x_31_
x_32_
x_33_
x_34_
x_35_
x_36_
x_37_
x_38_
x_39_
x_40_
x_41_
x_42_
x_43_
x_44_
x_45_
x_46_
x_47_
x_48_
x_49_
x_50_
x_51_
x_52_
x_53_
x_54_
x_55_
x_56_
x_57_
x_58_
x_59_
x_60_
x_61_
x_62_
x_63_
x_64_
x_65_
x_66_
x_67_
x_68_
x_69_
x_70_
x_71_
x_72_
x_73_
x_74_
x_75_
x_76_
x_77_
x_78_
x_79_
x_80_
x_81_
x_82_
x_83_
x_84_
x_85_
x_86_
x_87_
x_88_
x_89_
x_90_
x_91_
x_92_
x_93_
x_94_
x_95_
x_96_
x_97_
x_98_
x_99_
x_100_
y_1_
y_2_
y_3_
y_4_
y_5_
y_6_
y_7_
y_8_
y_9_
y_10_
y_11_
y_12_
y_13_
y_14_
y_15_
y_16_
y_17_
y_18_
y_19_
y_20_
y_21_
y_22_
y_23_
y_24_
y_25_
y_26_
y_27_
y_28_
y_29_
y_30_
y_31_
y_32_
y_33_
y_34_
y_35_
y_36_
y_37_
y_38_
y_39_
y_40_
y_41_
y_42_
y_43_
y_44_
y_45_
y_46_
y_47_
y_48_
y_49_
y_50_
y_51_
y_52_
y_53_
y_54_
y_55_
y_56_
y_57_
y_58_
y_59_
y_60_
y_61_
y_62_
y_63_
y_64_
y_65_
y_66_
y_67_
y_68_
y_69_
y_70_
y_71_
y_72_
y_73_
y_74_
y_75_
y_76_
y_77_
y_78_
y_79_
y_80_
y_81_
y_82_
y_83_
y_84_
y_85_
y_86_
y_87_
y_88_
y_89_
y_90_
y_91_
y_92_
y_93_
y_94_
y_95_
y_96_
y_97_
y_98_
y_99_
y_100_
End
