minimize
obj: 
subject to
c1: -18 x_1_ - 172 y_1_ + [ 1 x_1_ ^ 2 + 1 y_1_ ^ 2 ] <= 24923.799999999992
c2: -18 x_2_ - 172 y_2_ + [ 1 x_2_ ^ 2 + 1 y_2_ ^ 2 ] <= 33981.722035446306
c3: -18 x_3_ - 172 y_3_ + [ 1 x_3_ ^ 2 + 1 y_3_ ^ 2 ] <= 21086.00310482296
c4: -18 x_4_ - 172 y_4_ + [ 1 x_4_ ^ 2 + 1 y_4_ ^ 2 ] <= 748.4399999999987
c5: -18 x_5_ - 172 y_5_ + [ 1 x_5_ ^ 2 + 1 y_5_ ^ 2 ] <= 22275.5009861843
c6: -18 x_6_ - 172 y_6_ + [ 1 x_6_ ^ 2 + 1 y_6_ ^ 2 ] <= -684.7500000000018
c7: -18 x_7_ - 172 y_7_ + [ 1 x_7_ ^ 2 + 1 y_7_ ^ 2 ] <= 32934.738171037934
c8: -18 x_8_ - 172 y_8_ + [ 1 x_8_ ^ 2 + 1 y_8_ ^ 2 ] <= 27002.37999999999
c9: -18 x_10_ - 172 y_10_ + [ 1 x_10_ ^ 2 + 1 y_10_ ^ 2 ] <= -4194.5
c10: -18 x_11_ - 172 y_11_ + [ 1 x_11_ ^ 2 + 1 y_11_ ^ 2 ] <= 38083.66961811094
c11: -18 x_12_ - 172 y_12_ + [ 1 x_12_ ^ 2 + 1 y_12_ ^ 2 ] <= 36518.18443269577
c12: -18 x_13_ - 172 y_13_ + [ 1 x_13_ ^ 2 + 1 y_13_ ^ 2 ] <= 27742.28055858895
c13: -18 x_14_ - 172 y_14_ + [ 1 x_14_ ^ 2 + 1 y_14_ ^ 2 ] <= 6947.819999999996
c14: -18 x_15_ - 172 y_15_ + [ 1 x_15_ ^ 2 + 1 y_15_ ^ 2 ] <= -3659.2990291271294
c15: -18 x_16_ - 172 y_16_ + [ 1 x_16_ ^ 2 + 1 y_16_ ^ 2 ] <= 24883.275940782798
c16: -18 x_17_ - 172 y_17_ + [ 1 x_17_ ^ 2 + 1 y_17_ ^ 2 ] <= 11071.64999999999
c17: -18 x_18_ - 172 y_18_ + [ 1 x_18_ ^ 2 + 1 y_18_ ^ 2 ] <= 15795.419999999995
c18: -18 x_19_ - 172 y_19_ + [ 1 x_19_ ^ 2 + 1 y_19_ ^ 2 ] <= 36261.10645898449
c19: -18 x_20_ - 172 y_20_ + [ 1 x_20_ ^ 2 + 1 y_20_ ^ 2 ] <= 55819.13734677839
c20: -84 x_1_ - 62 y_1_ + [ 1 x_1_ ^ 2 + 1 y_1_ ^ 2 ] <= 22365.419999999995
c21: -84 x_2_ - 62 y_2_ + [ 1 x_2_ ^ 2 + 1 y_2_ ^ 2 ] <= 4580.118443152795
c22: -84 x_3_ - 62 y_3_ + [ 1 x_3_ ^ 2 + 1 y_3_ ^ 2 ] <= 12675.800452405552
c23: -84 x_4_ - 62 y_4_ + [ 1 x_4_ ^ 2 + 1 y_4_ ^ 2 ] <= 35271.59501680964
c24: -84 x_5_ - 62 y_5_ + [ 1 x_5_ ^ 2 + 1 y_5_ ^ 2 ] <= 12036.198049604916
c25: -84 x_6_ - 62 y_6_ + [ 1 x_6_ ^ 2 + 1 y_6_ ^ 2 ] <= 42036.73627466652
c26: -84 x_7_ - 62 y_7_ + [ 1 x_7_ ^ 2 + 1 y_7_ ^ 2 ] <= 15783.249999999996
c27: -84 x_8_ - 62 y_8_ + [ 1 x_8_ ^ 2 + 1 y_8_ ^ 2 ] <= 20192.56920578383
c28: -84 x_9_ - 62 y_9_ + [ 1 x_9_ ^ 2 + 1 y_9_ ^ 2 ] <= 60571.13734677841
c29: -84 x_10_ - 62 y_10_ + [ 1 x_10_ ^ 2 + 1 y_10_ ^ 2 ] <= 55197.43736350185
c30: -84 x_11_ - 62 y_11_ + [ 1 x_11_ ^ 2 + 1 y_11_ ^ 2 ] <= 25620.64402594756
c31: -84 x_12_ - 62 y_12_ + [ 1 x_12_ ^ 2 + 1 y_12_ ^ 2 ] <= -974.6700000000003
c32: -84 x_13_ - 62 y_13_ + [ 1 x_13_ ^ 2 + 1 y_13_ ^ 2 ] <= 9771.729999999996
c33: -84 x_14_ - 62 y_14_ + [ 1 x_14_ ^ 2 + 1 y_14_ ^ 2 ] <= 14563.006469874963
c34: -84 x_15_ - 62 y_15_ + [ 1 x_15_ ^ 2 + 1 y_15_ ^ 2 ] <= 53054.275872911116
c35: -84 x_16_ - 62 y_16_ + [ 1 x_16_ ^ 2 + 1 y_16_ ^ 2 ] <= 16997.01683533484
c36: -84 x_17_ - 62 y_17_ + [ 1 x_17_ ^ 2 + 1 y_17_ ^ 2 ] <= 17494.390928555895
c37: -84 x_18_ - 62 y_18_ + [ 1 x_18_ ^ 2 + 1 y_18_ ^ 2 ] <= 10799.224581142762
c38: -84 x_19_ - 62 y_19_ + [ 1 x_19_ ^ 2 + 1 y_19_ ^ 2 ] <= 840.2999999999993
c39: -58 x_1_ + 4 y_1_ + [ 1 x_1_ ^ 2 + 1 y_1_ ^ 2 ] <= 16406.63045258761
c40: -58 x_2_ + 4 y_2_ + [ 1 x_2_ ^ 2 + 1 y_2_ ^ 2 ] <= 13906.448086896604
c41: -58 x_3_ + 4 y_3_ + [ 1 x_3_ ^ 2 + 1 y_3_ ^ 2 ] <= 8104.609999999999
c42: -58 x_5_ + 4 y_5_ + [ 1 x_5_ ^ 2 + 1 y_5_ ^ 2 ] <= 6453.259999999998
c43: -58 x_6_ + 4 y_6_ + [ 1 x_6_ ^ 2 + 1 y_6_ ^ 2 ] <= 29121.836442523054
c44: -58 x_7_ + 4 y_7_ + [ 1 x_7_ ^ 2 + 1 y_7_ ^ 2 ] <= 43943.172528655705
c45: -58 x_8_ + 4 y_8_ + [ 1 x_8_ ^ 2 + 1 y_8_ ^ 2 ] <= 37685.42909886345
c46: -58 x_9_ + 4 y_9_ + [ 1 x_9_ ^ 2 + 1 y_9_ ^ 2 ] <= 7380.439999999999
c47: -58 x_10_ + 4 y_10_ + [ 1 x_10_ ^ 2 + 1 y_10_ ^ 2 ] <= 21055.24615407379
c48: -58 x_11_ + 4 y_11_ + [ 1 x_11_ ^ 2 + 1 y_11_ ^ 2 ] <= 91658.36955750201
c49: -58 x_12_ + 4 y_12_ + [ 1 x_12_ ^ 2 + 1 y_12_ ^ 2 ] <= 34046.52488519042
c50: -58 x_13_ + 4 y_13_ + [ 1 x_13_ ^ 2 + 1 y_13_ ^ 2 ] <= 24744.9216193872
c51: -58 x_14_ + 4 y_14_ + [ 1 x_14_ ^ 2 + 1 y_14_ ^ 2 ] <= 41166.19122569975
c52: -58 x_15_ + 4 y_15_ + [ 1 x_15_ ^ 2 + 1 y_15_ ^ 2 ] <= 22405.686692190546
c53: -58 x_16_ + 4 y_16_ + [ 1 x_16_ ^ 2 + 1 y_16_ ^ 2 ] <= 44123.68797363696
c54: -58 x_17_ + 4 y_17_ + [ 1 x_17_ ^ 2 + 1 y_17_ ^ 2 ] <= 6625.97
c55: -58 x_18_ + 4 y_18_ + [ 1 x_18_ ^ 2 + 1 y_18_ ^ 2 ] <= 5338.219999999999
c56: -58 x_19_ + 4 y_19_ + [ 1 x_19_ ^ 2 + 1 y_19_ ^ 2 ] <= 17438.642486739318
c57: -58 x_20_ + 4 y_20_ + [ 1 x_20_ ^ 2 + 1 y_20_ ^ 2 ] <= 37151.59501680964
quadratic_ranged_1_ub: [ 1 x_1_ ^ 2 - 2 x_2_ * x_1_ + 1 x_2_ ^ 2 + 1 y_1_ ^ 2 - 2 y_2_ * y_1_ + 1 y_2_ ^ 2 ] <= 5572.17
quadratic_ranged_2_ub: [ 1 x_1_ ^ 2 - 2 x_3_ * x_1_ + 1 x_3_ ^ 2 + 1 y_1_ ^ 2 - 2 y_3_ * y_1_ + 1 y_3_ ^ 2 ] <= 4206.65
quadratic_ranged_3_ub: [ 1 x_2_ ^ 2 - 2 x_3_ * x_2_ + 1 x_3_ ^ 2 + 1 y_2_ ^ 2 - 2 y_3_ * y_2_ + 1 y_3_ ^ 2 ] <= 1761.44
quadratic_ranged_4_ub: [ 1 x_3_ ^ 2 - 2 x_4_ * x_3_ + 1 x_4_ ^ 2 + 1 y_3_ ^ 2 - 2 y_4_ * y_3_ + 1 y_4_ ^ 2 ] <= 8949.61
quadratic_ranged_5_ub: [ 1 x_2_ ^ 2 - 2 x_5_ * x_2_ + 1 x_5_ ^ 2 + 1 y_2_ ^ 2 - 2 y_5_ * y_2_ + 1 y_5_ ^ 2 ] <= 1297.85
quadratic_ranged_6_ub: [ 1 x_4_ ^ 2 - 2 x_5_ * x_4_ + 1 x_5_ ^ 2 + 1 y_4_ ^ 2 - 2 y_5_ * y_4_ + 1 y_5_ ^ 2 ] <= 7298.26
quadratic_ranged_7_ub: [ 1 x_5_ ^ 2 - 2 x_6_ * x_5_ + 1 x_6_ ^ 2 + 1 y_5_ ^ 2 - 2 y_6_ * y_5_ + 1 y_6_ ^ 2 ] <= 8113.33
quadratic_ranged_8_ub: [ 1 x_6_ ^ 2 - 2 x_7_ * x_6_ + 1 x_7_ ^ 2 + 1 y_6_ ^ 2 - 2 y_7_ * y_6_ + 1 y_7_ ^ 2 ] <= 30970.64
quadratic_ranged_9_ub: [ 1 x_2_ ^ 2 - 2 x_8_ * x_2_ + 1 x_8_ ^ 2 + 1 y_2_ ^ 2 - 2 y_8_ * y_2_ + 1 y_8_ ^ 2 ] <= 5600.45
quadratic_ranged_10_ub: [ 1 x_6_ ^ 2 - 2 x_8_ * x_6_ + 1 x_8_ ^ 2 + 1 y_6_ ^ 2 - 2 y_8_ * y_6_ + 1 y_8_ ^ 2 ] <= 32850.25
quadratic_ranged_11_ub: [ 1 x_7_ ^ 2 - 2 x_8_ * x_7_ + 1 x_8_ ^ 2 + 1 y_7_ ^ 2 - 2 y_8_ * y_7_ + 1 y_8_ ^ 2 ] <= 235.33
quadratic_ranged_12_ub: [ 1 x_1_ ^ 2 - 2 x_9_ * x_1_ + 1 x_9_ ^ 2 + 1 y_1_ ^ 2 - 2 y_9_ * y_1_ + 1 y_9_ ^ 2 ] <= 32400.8
quadratic_ranged_13_ub: [ 1 x_4_ ^ 2 - 2 x_9_ * x_4_ + 1 x_9_ ^ 2 + 1 y_4_ ^ 2 - 2 y_9_ * y_4_ + 1 y_9_ ^ 2 ] <= 8225.44
quadratic_ranged_14_ub: [ 1 x_6_ ^ 2 - 2 x_9_ * x_6_ + 1 x_9_ ^ 2 + 1 y_6_ ^ 2 - 2 y_9_ * y_6_ + 1 y_9_ ^ 2 ] <= 6792.25
quadratic_ranged_15_ub: [ 1 x_8_ ^ 2 - 2 x_9_ * x_8_ + 1 x_9_ ^ 2 + 1 y_8_ ^ 2 - 2 y_9_ * y_8_ + 1 y_9_ ^ 2 ] <= 34479.38
quadratic_ranged_16_ub: [ 1 x_9_ ^ 2 - 2 x_10_ * x_9_ + 1 x_10_ ^ 2 + 1 y_9_ ^ 2 - 2 y_10_ * y_9_ + 1 y_10_ ^ 2 ] <= 3282.5
quadratic_ranged_17_ub: [ 1 x_6_ ^ 2 - 2 x_11_ * x_6_ + 1 x_11_ ^ 2 + 1 y_6_ ^ 2 - 2 y_11_ * y_6_ + 1 y_11_ ^ 2 ] <= 17170
quadratic_ranged_18_ub: [ 1 x_10_ ^ 2 - 2 x_11_ * x_10_ + 1 x_11_ ^ 2 + 1 y_10_ ^ 2 - 2 y_11_ * y_10_ + 1 y_11_ ^ 2 ] <= 38970.85
quadratic_ranged_19_ub: [ 1 x_8_ ^ 2 - 2 x_12_ * x_8_ + 1 x_12_ ^ 2 + 1 y_8_ ^ 2 - 2 y_12_ * y_8_ + 1 y_12_ ^ 2 ] <= 21841.25
quadratic_ranged_20_ub: [ 1 x_11_ ^ 2 - 2 x_12_ * x_11_ + 1 x_12_ ^ 2 + 1 y_11_ ^ 2 - 2 y_12_ * y_11_ + 1 y_12_ ^ 2 ] <= 16008.5
quadratic_ranged_21_ub: [ 1 x_3_ ^ 2 - 2 x_13_ * x_3_ + 1 x_13_ ^ 2 + 1 y_3_ ^ 2 - 2 y_13_ * y_3_ + 1 y_13_ ^ 2 ] <= 6480.16
quadratic_ranged_22_ub: [ 1 x_5_ ^ 2 - 2 x_13_ * x_5_ + 1 x_13_ ^ 2 + 1 y_5_ ^ 2 - 2 y_13_ * y_5_ + 1 y_13_ ^ 2 ] <= 5556.01
quadratic_ranged_23_ub: [ 1 x_7_ ^ 2 - 2 x_13_ * x_7_ + 1 x_13_ ^ 2 + 1 y_7_ ^ 2 - 2 y_13_ * y_7_ + 1 y_13_ ^ 2 ] <= 25488.36
quadratic_ranged_24_ub: [ 1 x_12_ ^ 2 - 2 x_13_ * x_12_ + 1 x_13_ ^ 2 + 1 y_12_ ^ 2 - 2 y_13_ * y_12_ + 1 y_13_ ^ 2 ] <= 4898.5
quadratic_ranged_25_ub: [ 1 x_2_ ^ 2 - 2 x_14_ * x_2_ + 1 x_14_ ^ 2 + 1 y_2_ ^ 2 - 2 y_14_ * y_2_ + 1 y_14_ ^ 2 ] <= 6974.05
quadratic_ranged_26_ub: [ 1 x_9_ ^ 2 - 2 x_14_ * x_9_ + 1 x_14_ ^ 2 + 1 y_9_ ^ 2 - 2 y_14_ * y_9_ + 1 y_14_ ^ 2 ] <= 14424.82
quadratic_ranged_27_ub: [ 1 x_12_ ^ 2 - 2 x_14_ * x_12_ + 1 x_14_ ^ 2 + 1 y_12_ ^ 2 - 2 y_14_ * y_12_ + 1 y_14_ ^ 2 ] <= 8036.57
quadratic_ranged_28_ub: [ 1 x_13_ ^ 2 - 2 x_14_ * x_13_ + 1 x_14_ ^ 2 + 1 y_13_ ^ 2 - 2 y_14_ * y_13_ + 1 y_14_ ^ 2 ] <= 23610.77
quadratic_ranged_29_ub: [ 1 x_10_ ^ 2 - 2 x_15_ * x_10_ + 1 x_15_ ^ 2 + 1 y_10_ ^ 2 - 2 y_15_ * y_10_ + 1 y_15_ ^ 2 ] <= 20.2
quadratic_ranged_30_ub: [ 1 x_13_ ^ 2 - 2 x_15_ * x_13_ + 1 x_15_ ^ 2 + 1 y_13_ ^ 2 - 2 y_15_ * y_13_ + 1 y_15_ ^ 2 ] <= 15845.89
quadratic_ranged_31_ub: [ 1 x_14_ ^ 2 - 2 x_15_ * x_14_ + 1 x_15_ ^ 2 + 1 y_14_ ^ 2 - 2 y_15_ * y_14_ + 1 y_15_ ^ 2 ] <= 10960.52
quadratic_ranged_32_ub: [ 1 x_8_ ^ 2 - 2 x_16_ * x_8_ + 1 x_16_ ^ 2 + 1 y_8_ ^ 2 - 2 y_16_ * y_8_ + 1 y_16_ ^ 2 ] <= 17357.86
quadratic_ranged_33_ub: [ 1 x_15_ ^ 2 - 2 x_16_ * x_15_ + 1 x_16_ ^ 2 + 1 y_15_ ^ 2 - 2 y_16_ * y_15_ + 1 y_16_ ^ 2 ] <= 13948.1
quadratic_ranged_34_ub: [ 1 x_1_ ^ 2 - 2 x_17_ * x_1_ + 1 x_17_ ^ 2 + 1 y_1_ ^ 2 - 2 y_17_ * y_1_ + 1 y_17_ ^ 2 ] <= 2016.97
quadratic_ranged_35_ub: [ 1 x_3_ ^ 2 - 2 x_17_ * x_3_ + 1 x_17_ ^ 2 + 1 y_3_ ^ 2 - 2 y_17_ * y_3_ + 1 y_17_ ^ 2 ] <= 1076.66
quadratic_ranged_36_ub: [ 1 x_4_ ^ 2 - 2 x_17_ * x_4_ + 1 x_17_ ^ 2 + 1 y_4_ ^ 2 - 2 y_17_ * y_4_ + 1 y_17_ ^ 2 ] <= 7470.97
quadratic_ranged_37_ub: [ 1 x_9_ ^ 2 - 2 x_17_ * x_9_ + 1 x_17_ ^ 2 + 1 y_9_ ^ 2 - 2 y_17_ * y_9_ + 1 y_17_ ^ 2 ] <= 18548.65
quadratic_ranged_38_ub: [ 1 x_12_ ^ 2 - 2 x_17_ * x_12_ + 1 x_17_ ^ 2 + 1 y_12_ ^ 2 - 2 y_17_ * y_12_ + 1 y_17_ ^ 2 ] <= 10071.72
quadratic_ranged_39_ub: [ 1 x_16_ ^ 2 - 2 x_17_ * x_16_ + 1 x_17_ ^ 2 + 1 y_16_ ^ 2 - 2 y_17_ * y_16_ + 1 y_17_ ^ 2 ] <= 15781.25
quadratic_ranged_40_ub: [ 1 x_4_ ^ 2 - 2 x_18_ * x_4_ + 1 x_18_ ^ 2 + 1 y_4_ ^ 2 - 2 y_18_ * y_4_ + 1 y_18_ ^ 2 ] <= 6183.22
quadratic_ranged_41_ub: [ 1 x_6_ ^ 2 - 2 x_18_ * x_6_ + 1 x_18_ ^ 2 + 1 y_6_ ^ 2 - 2 y_18_ * y_6_ + 1 y_18_ ^ 2 ] <= 25562.09
quadratic_ranged_42_ub: [ 1 x_9_ ^ 2 - 2 x_18_ * x_9_ + 1 x_18_ ^ 2 + 1 y_9_ ^ 2 - 2 y_18_ * y_9_ + 1 y_18_ ^ 2 ] <= 23272.420000000002
quadratic_ranged_43_ub: [ 1 x_10_ ^ 2 - 2 x_18_ * x_10_ + 1 x_18_ ^ 2 + 1 y_10_ ^ 2 - 2 y_18_ * y_10_ + 1 y_18_ ^ 2 ] <= 29593
quadratic_ranged_44_ub: [ 1 x_15_ ^ 2 - 2 x_18_ * x_15_ + 1 x_18_ ^ 2 + 1 y_15_ ^ 2 - 2 y_18_ * y_15_ + 1 y_18_ ^ 2 ] <= 28069.920000000002
quadratic_ranged_45_ub: [ 1 x_17_ ^ 2 - 2 x_18_ * x_17_ + 1 x_18_ ^ 2 + 1 y_17_ ^ 2 - 2 y_18_ * y_17_ + 1 y_18_ ^ 2 ] <= 1645.29
quadratic_ranged_46_ub: [ 1 x_2_ ^ 2 - 2 x_19_ * x_2_ + 1 x_19_ ^ 2 + 1 y_2_ ^ 2 - 2 y_19_ * y_2_ + 1 y_19_ ^ 2 ] <= 663.57
quadratic_ranged_47_ub: [ 1 x_3_ ^ 2 - 2 x_19_ * x_3_ + 1 x_19_ ^ 2 + 1 y_3_ ^ 2 - 2 y_19_ * y_3_ + 1 y_19_ ^ 2 ] <= 4146.05
quadratic_ranged_48_ub: [ 1 x_16_ ^ 2 - 2 x_19_ * x_16_ + 1 x_19_ ^ 2 + 1 y_16_ ^ 2 - 2 y_19_ * y_16_ + 1 y_19_ ^ 2 ] <= 6516.52
quadratic_ranged_49_ub: [ 1 x_18_ ^ 2 - 2 x_19_ * x_18_ + 1 x_19_ ^ 2 + 1 y_18_ ^ 2 - 2 y_19_ * y_18_ + 1 y_19_ ^ 2 ] <= 3201.7
quadratic_ranged_50_ub: [ 1 x_1_ ^ 2 - 2 x_20_ * x_1_ + 1 x_20_ ^ 2 + 1 y_1_ ^ 2 - 2 y_20_ * y_1_ + 1 y_20_ ^ 2 ] <= 25090.420000000002
quadratic_ranged_51_ub: [ 1 x_7_ ^ 2 - 2 x_20_ * x_7_ + 1 x_20_ ^ 2 + 1 y_7_ ^ 2 - 2 y_20_ * y_7_ + 1 y_20_ ^ 2 ] <= 18508.25
quadratic_ranged_52_ub: [ 1 x_12_ ^ 2 - 2 x_20_ * x_12_ + 1 x_20_ ^ 2 + 1 y_12_ ^ 2 - 2 y_20_ * y_12_ + 1 y_20_ ^ 2 ] <= 1750.33
quadratic_ranged_53_ub: [ 1 x_13_ ^ 2 - 2 x_20_ * x_13_ + 1 x_20_ ^ 2 + 1 y_13_ ^ 2 - 2 y_20_ * y_13_ + 1 y_20_ ^ 2 ] <= 12496.73
quadratic_ranged_54_ub: [ 1 x_19_ ^ 2 - 2 x_20_ * x_19_ + 1 x_20_ ^ 2 + 1 y_19_ ^ 2 - 2 y_20_ * y_19_ + 1 y_20_ ^ 2 ] <= 3565.3
quadratic_ranged_1_lb: [ 1 x_1_ ^ 2 - 2 x_2_ * x_1_ + 1 x_2_ ^ 2 + 1 y_1_ ^ 2 - 2 y_2_ * y_1_ + 1 y_2_ ^ 2 ] >= 5461.83
quadratic_ranged_2_lb: [ 1 x_1_ ^ 2 - 2 x_3_ * x_1_ + 1 x_3_ ^ 2 + 1 y_1_ ^ 2 - 2 y_3_ * y_1_ + 1 y_3_ ^ 2 ] >= 4123.35
quadratic_ranged_3_lb: [ 1 x_2_ ^ 2 - 2 x_3_ * x_2_ + 1 x_3_ ^ 2 + 1 y_2_ ^ 2 - 2 y_3_ * y_2_ + 1 y_3_ ^ 2 ] >= 1726.56
quadratic_ranged_4_lb: [ 1 x_3_ ^ 2 - 2 x_4_ * x_3_ + 1 x_4_ ^ 2 + 1 y_3_ ^ 2 - 2 y_4_ * y_3_ + 1 y_4_ ^ 2 ] >= 8772.39
quadratic_ranged_5_lb: [ 1 x_2_ ^ 2 - 2 x_5_ * x_2_ + 1 x_5_ ^ 2 + 1 y_2_ ^ 2 - 2 y_5_ * y_2_ + 1 y_5_ ^ 2 ] >= 1272.15
quadratic_ranged_6_lb: [ 1 x_4_ ^ 2 - 2 x_5_ * x_4_ + 1 x_5_ ^ 2 + 1 y_4_ ^ 2 - 2 y_5_ * y_4_ + 1 y_5_ ^ 2 ] >= 7153.74
quadratic_ranged_7_lb: [ 1 x_5_ ^ 2 - 2 x_6_ * x_5_ + 1 x_6_ ^ 2 + 1 y_5_ ^ 2 - 2 y_6_ * y_5_ + 1 y_6_ ^ 2 ] >= 7952.67
quadratic_ranged_8_lb: [ 1 x_6_ ^ 2 - 2 x_7_ * x_6_ + 1 x_7_ ^ 2 + 1 y_6_ ^ 2 - 2 y_7_ * y_6_ + 1 y_7_ ^ 2 ] >= 30357.36
quadratic_ranged_9_lb: [ 1 x_2_ ^ 2 - 2 x_8_ * x_2_ + 1 x_8_ ^ 2 + 1 y_2_ ^ 2 - 2 y_8_ * y_2_ + 1 y_8_ ^ 2 ] >= 5489.55
quadratic_ranged_10_lb: [ 1 x_6_ ^ 2 - 2 x_8_ * x_6_ + 1 x_8_ ^ 2 + 1 y_6_ ^ 2 - 2 y_8_ * y_6_ + 1 y_8_ ^ 2 ] >= 32199.75
quadratic_ranged_11_lb: [ 1 x_7_ ^ 2 - 2 x_8_ * x_7_ + 1 x_8_ ^ 2 + 1 y_7_ ^ 2 - 2 y_8_ * y_7_ + 1 y_8_ ^ 2 ] >= 230.67
quadratic_ranged_12_lb: [ 1 x_1_ ^ 2 - 2 x_9_ * x_1_ + 1 x_9_ ^ 2 + 1 y_1_ ^ 2 - 2 y_9_ * y_1_ + 1 y_9_ ^ 2 ] >= 31759.2
quadratic_ranged_13_lb: [ 1 x_4_ ^ 2 - 2 x_9_ * x_4_ + 1 x_9_ ^ 2 + 1 y_4_ ^ 2 - 2 y_9_ * y_4_ + 1 y_9_ ^ 2 ] >= 8062.5599999999995
quadratic_ranged_14_lb: [ 1 x_6_ ^ 2 - 2 x_9_ * x_6_ + 1 x_9_ ^ 2 + 1 y_6_ ^ 2 - 2 y_9_ * y_6_ + 1 y_9_ ^ 2 ] >= 6657.75
quadratic_ranged_15_lb: [ 1 x_8_ ^ 2 - 2 x_9_ * x_8_ + 1 x_9_ ^ 2 + 1 y_8_ ^ 2 - 2 y_9_ * y_8_ + 1 y_9_ ^ 2 ] >= 33796.62
quadratic_ranged_16_lb: [ 1 x_9_ ^ 2 - 2 x_10_ * x_9_ + 1 x_10_ ^ 2 + 1 y_9_ ^ 2 - 2 y_10_ * y_9_ + 1 y_10_ ^ 2 ] >= 3217.5
quadratic_ranged_17_lb: [ 1 x_6_ ^ 2 - 2 x_11_ * x_6_ + 1 x_11_ ^ 2 + 1 y_6_ ^ 2 - 2 y_11_ * y_6_ + 1 y_11_ ^ 2 ] >= 16830
quadratic_ranged_18_lb: [ 1 x_10_ ^ 2 - 2 x_11_ * x_10_ + 1 x_11_ ^ 2 + 1 y_10_ ^ 2 - 2 y_11_ * y_10_ + 1 y_11_ ^ 2 ] >= 38199.15
quadratic_ranged_19_lb: [ 1 x_8_ ^ 2 - 2 x_12_ * x_8_ + 1 x_12_ ^ 2 + 1 y_8_ ^ 2 - 2 y_12_ * y_8_ + 1 y_12_ ^ 2 ] >= 21408.75
quadratic_ranged_20_lb: [ 1 x_11_ ^ 2 - 2 x_12_ * x_11_ + 1 x_12_ ^ 2 + 1 y_11_ ^ 2 - 2 y_12_ * y_11_ + 1 y_12_ ^ 2 ] >= 15691.5
quadratic_ranged_21_lb: [ 1 x_3_ ^ 2 - 2 x_13_ * x_3_ + 1 x_13_ ^ 2 + 1 y_3_ ^ 2 - 2 y_13_ * y_3_ + 1 y_13_ ^ 2 ] >= 6351.84
quadratic_ranged_22_lb: [ 1 x_5_ ^ 2 - 2 x_13_ * x_5_ + 1 x_13_ ^ 2 + 1 y_5_ ^ 2 - 2 y_13_ * y_5_ + 1 y_13_ ^ 2 ] >= 5445.99
quadratic_ranged_23_lb: [ 1 x_7_ ^ 2 - 2 x_13_ * x_7_ + 1 x_13_ ^ 2 + 1 y_7_ ^ 2 - 2 y_13_ * y_7_ + 1 y_13_ ^ 2 ] >= 24983.64
quadratic_ranged_24_lb: [ 1 x_12_ ^ 2 - 2 x_13_ * x_12_ + 1 x_13_ ^ 2 + 1 y_12_ ^ 2 - 2 y_13_ * y_12_ + 1 y_13_ ^ 2 ] >= 4801.5
quadratic_ranged_25_lb: [ 1 x_2_ ^ 2 - 2 x_14_ * x_2_ + 1 x_14_ ^ 2 + 1 y_2_ ^ 2 - 2 y_14_ * y_2_ + 1 y_14_ ^ 2 ] >= 6835.95
quadratic_ranged_26_lb: [ 1 x_9_ ^ 2 - 2 x_14_ * x_9_ + 1 x_14_ ^ 2 + 1 y_9_ ^ 2 - 2 y_14_ * y_9_ + 1 y_14_ ^ 2 ] >= 14139.18
quadratic_ranged_27_lb: [ 1 x_12_ ^ 2 - 2 x_14_ * x_12_ + 1 x_14_ ^ 2 + 1 y_12_ ^ 2 - 2 y_14_ * y_12_ + 1 y_14_ ^ 2 ] >= 7877.43
quadratic_ranged_28_lb: [ 1 x_13_ ^ 2 - 2 x_14_ * x_13_ + 1 x_14_ ^ 2 + 1 y_13_ ^ 2 - 2 y_14_ * y_13_ + 1 y_14_ ^ 2 ] >= 23143.23
quadratic_ranged_29_lb: [ 1 x_10_ ^ 2 - 2 x_15_ * x_10_ + 1 x_15_ ^ 2 + 1 y_10_ ^ 2 - 2 y_15_ * y_10_ + 1 y_15_ ^ 2 ] >= 19.8
quadratic_ranged_30_lb: [ 1 x_13_ ^ 2 - 2 x_15_ * x_13_ + 1 x_15_ ^ 2 + 1 y_13_ ^ 2 - 2 y_15_ * y_13_ + 1 y_15_ ^ 2 ] >= 15532.11
quadratic_ranged_31_lb: [ 1 x_14_ ^ 2 - 2 x_15_ * x_14_ + 1 x_15_ ^ 2 + 1 y_14_ ^ 2 - 2 y_15_ * y_14_ + 1 y_15_ ^ 2 ] >= 10743.48
quadratic_ranged_32_lb: [ 1 x_8_ ^ 2 - 2 x_16_ * x_8_ + 1 x_16_ ^ 2 + 1 y_8_ ^ 2 - 2 y_16_ * y_8_ + 1 y_16_ ^ 2 ] >= 17014.14
quadratic_ranged_33_lb: [ 1 x_15_ ^ 2 - 2 x_16_ * x_15_ + 1 x_16_ ^ 2 + 1 y_15_ ^ 2 - 2 y_16_ * y_15_ + 1 y_16_ ^ 2 ] >= 13671.9
quadratic_ranged_34_lb: [ 1 x_1_ ^ 2 - 2 x_17_ * x_1_ + 1 x_17_ ^ 2 + 1 y_1_ ^ 2 - 2 y_17_ * y_1_ + 1 y_17_ ^ 2 ] >= 1977.03
quadratic_ranged_35_lb: [ 1 x_3_ ^ 2 - 2 x_17_ * x_3_ + 1 x_17_ ^ 2 + 1 y_3_ ^ 2 - 2 y_17_ * y_3_ + 1 y_17_ ^ 2 ] >= 1055.34
quadratic_ranged_36_lb: [ 1 x_4_ ^ 2 - 2 x_17_ * x_4_ + 1 x_17_ ^ 2 + 1 y_4_ ^ 2 - 2 y_17_ * y_4_ + 1 y_17_ ^ 2 ] >= 7323.03
quadratic_ranged_37_lb: [ 1 x_9_ ^ 2 - 2 x_17_ * x_9_ + 1 x_17_ ^ 2 + 1 y_9_ ^ 2 - 2 y_17_ * y_9_ + 1 y_17_ ^ 2 ] >= 18181.35
quadratic_ranged_38_lb: [ 1 x_12_ ^ 2 - 2 x_17_ * x_12_ + 1 x_17_ ^ 2 + 1 y_12_ ^ 2 - 2 y_17_ * y_12_ + 1 y_17_ ^ 2 ] >= 9872.28
quadratic_ranged_39_lb: [ 1 x_16_ ^ 2 - 2 x_17_ * x_16_ + 1 x_17_ ^ 2 + 1 y_16_ ^ 2 - 2 y_17_ * y_16_ + 1 y_17_ ^ 2 ] >= 15468.75
quadratic_ranged_40_lb: [ 1 x_4_ ^ 2 - 2 x_18_ * x_4_ + 1 x_18_ ^ 2 + 1 y_4_ ^ 2 - 2 y_18_ * y_4_ + 1 y_18_ ^ 2 ] >= 6060.78
quadratic_ranged_41_lb: [ 1 x_6_ ^ 2 - 2 x_18_ * x_6_ + 1 x_18_ ^ 2 + 1 y_6_ ^ 2 - 2 y_18_ * y_6_ + 1 y_18_ ^ 2 ] >= 25055.91
quadratic_ranged_42_lb: [ 1 x_9_ ^ 2 - 2 x_18_ * x_9_ + 1 x_18_ ^ 2 + 1 y_9_ ^ 2 - 2 y_18_ * y_9_ + 1 y_18_ ^ 2 ] >= 22811.579999999998
quadratic_ranged_43_lb: [ 1 x_10_ ^ 2 - 2 x_18_ * x_10_ + 1 x_18_ ^ 2 + 1 y_10_ ^ 2 - 2 y_18_ * y_10_ + 1 y_18_ ^ 2 ] >= 29007
quadratic_ranged_44_lb: [ 1 x_15_ ^ 2 - 2 x_18_ * x_15_ + 1 x_18_ ^ 2 + 1 y_15_ ^ 2 - 2 y_18_ * y_15_ + 1 y_18_ ^ 2 ] >= 27514.079999999998
quadratic_ranged_45_lb: [ 1 x_17_ ^ 2 - 2 x_18_ * x_17_ + 1 x_18_ ^ 2 + 1 y_17_ ^ 2 - 2 y_18_ * y_17_ + 1 y_18_ ^ 2 ] >= 1612.71
quadratic_ranged_46_lb: [ 1 x_2_ ^ 2 - 2 x_19_ * x_2_ + 1 x_19_ ^ 2 + 1 y_2_ ^ 2 - 2 y_19_ * y_2_ + 1 y_19_ ^ 2 ] >= 650.43
quadratic_ranged_47_lb: [ 1 x_3_ ^ 2 - 2 x_19_ * x_3_ + 1 x_19_ ^ 2 + 1 y_3_ ^ 2 - 2 y_19_ * y_3_ + 1 y_19_ ^ 2 ] >= 4063.95
quadratic_ranged_48_lb: [ 1 x_16_ ^ 2 - 2 x_19_ * x_16_ + 1 x_19_ ^ 2 + 1 y_16_ ^ 2 - 2 y_19_ * y_16_ + 1 y_19_ ^ 2 ] >= 6387.48
quadratic_ranged_49_lb: [ 1 x_18_ ^ 2 - 2 x_19_ * x_18_ + 1 x_19_ ^ 2 + 1 y_18_ ^ 2 - 2 y_19_ * y_18_ + 1 y_19_ ^ 2 ] >= 3138.3
quadratic_ranged_50_lb: [ 1 x_1_ ^ 2 - 2 x_20_ * x_1_ + 1 x_20_ ^ 2 + 1 y_1_ ^ 2 - 2 y_20_ * y_1_ + 1 y_20_ ^ 2 ] >= 24593.579999999998
quadratic_ranged_51_lb: [ 1 x_7_ ^ 2 - 2 x_20_ * x_7_ + 1 x_20_ ^ 2 + 1 y_7_ ^ 2 - 2 y_20_ * y_7_ + 1 y_20_ ^ 2 ] >= 18141.75
quadratic_ranged_52_lb: [ 1 x_12_ ^ 2 - 2 x_20_ * x_12_ + 1 x_20_ ^ 2 + 1 y_12_ ^ 2 - 2 y_20_ * y_12_ + 1 y_20_ ^ 2 ] >= 1715.67
quadratic_ranged_53_lb: [ 1 x_13_ ^ 2 - 2 x_20_ * x_13_ + 1 x_20_ ^ 2 + 1 y_13_ ^ 2 - 2 y_20_ * y_13_ + 1 y_20_ ^ 2 ] >= 12249.27
quadratic_ranged_54_lb: [ 1 x_19_ ^ 2 - 2 x_20_ * x_19_ + 1 x_20_ ^ 2 + 1 y_19_ ^ 2 - 2 y_20_ * y_19_ + 1 y_20_ ^ 2 ] >= 3494.7
c1_1: 1 x_9_ = 9
c2_1: 1 y_9_ = 86
c3_1: 1 x_20_ = 42
c4_1: 1 y_20_ = 31
c5_1: 1 x_4_ = 29
c6_1: 1 y_4_ = -2
Bounds
-102 <= x_1_ <= 160
-43 <= x_2_ <= 127
-65 <= x_3_ <= 123
x_4_ = 29
-56 <= x_5_ <= 114
-73 <= x_6_ <= 91
-94 <= x_7_ <= 178
-109 <= x_8_ <= 193
x_9_ = 9
-48 <= x_10_ <= 66
-126 <= x_11_ <= 210
1 <= x_12_ <= 83
-69 <= x_13_ <= 153
-89 <= x_14_ <= 129
-52 <= x_15_ <= 70
-98 <= x_16_ <= 182
-57 <= x_17_ <= 115
-49 <= x_18_ <= 107
-17 <= x_19_ <= 101
x_20_ = 42
-94 <= y_1_ <= 129
-54 <= y_2_ <= 116
-83 <= y_3_ <= 92
y_4_ = -2
-86 <= y_5_ <= 83
4 <= y_6_ <= 168
-105 <= y_7_ <= 167
-99 <= y_8_ <= 182
y_9_ = 86
29 <= y_10_ <= 143
-127 <= y_11_ <= 199
-10 <= y_12_ <= 72
-80 <= y_13_ <= 142
-34 <= y_14_ <= 162
25 <= y_15_ <= 147
-93 <= y_16_ <= 171
-50 <= y_17_ <= 84
-66 <= y_18_ <= 76
-28 <= y_19_ <= 90
y_20_ = 31
General
x_1_
x_2_
x_3_
x_4_
x_5_
x_6_
x_7_
x_8_
x_9_
x_10_
x_11_
x_12_
x_13_
x_14_
x_15_
x_16_
x_17_
x_18_
x_19_
x_20_
y_1_
y_2_
y_3_
y_4_
y_5_
y_6_
y_7_
y_8_
y_9_
y_10_
y_11_
y_12_
y_13_
y_14_
y_15_
y_16_
y_17_
y_18_
y_19_
y_20_
End
