minimize
obj: 
subject to
c1: -150 x_1_ - 42 y_1_ + [ 1 x_1_ ^ 2 + 1 y_1_ ^ 2 ] <= 7226.748217555125
c2: -150 x_2_ - 42 y_2_ + [ 1 x_2_ ^ 2 + 1 y_2_ ^ 2 ] <= 12949.239912652138
c3: -150 x_3_ - 42 y_3_ + [ 1 x_3_ ^ 2 + 1 y_3_ ^ 2 ] <= 44021.606647685454
c4: -150 x_4_ - 42 y_4_ + [ 1 x_4_ ^ 2 + 1 y_4_ ^ 2 ] <= 5716.840670941419
c5: -150 x_5_ - 42 y_5_ + [ 1 x_5_ ^ 2 + 1 y_5_ ^ 2 ] <= 12380.009430029611
c6: -150 x_6_ - 42 y_6_ + [ 1 x_6_ ^ 2 + 1 y_6_ ^ 2 ] <= 25714.520802801384
c7: -150 x_7_ - 42 y_7_ + [ 1 x_7_ ^ 2 + 1 y_7_ ^ 2 ] <= 18520.58017995309
c8: -150 x_8_ - 42 y_8_ + [ 1 x_8_ ^ 2 + 1 y_8_ ^ 2 ] <= 15574.556995312669
c9: -150 x_9_ - 42 y_9_ + [ 1 x_9_ ^ 2 + 1 y_9_ ^ 2 ] <= 24656.460317388777
c10: -150 x_10_ - 42 y_10_ + [ 1 x_10_ ^ 2 + 1 y_10_ ^ 2 ] <= 9415.510989827097
c11: -150 x_11_ - 42 y_11_ + [ 1 x_11_ ^ 2 + 1 y_11_ ^ 2 ] <= 28578.85482471264
c12: -150 x_12_ - 42 y_12_ + [ 1 x_12_ ^ 2 + 1 y_12_ ^ 2 ] <= 34369.891353959516
c13: -150 x_13_ - 42 y_13_ + [ 1 x_13_ ^ 2 + 1 y_13_ ^ 2 ] <= 8461.616933791543
c14: -150 x_14_ - 42 y_14_ + [ 1 x_14_ ^ 2 + 1 y_14_ ^ 2 ] <= 26123.621232382637
c15: -150 x_15_ - 42 y_15_ + [ 1 x_15_ ^ 2 + 1 y_15_ ^ 2 ] <= 30535.686663472297
c16: -150 x_16_ - 42 y_16_ + [ 1 x_16_ ^ 2 + 1 y_16_ ^ 2 ] <= 14378.758010296373
c17: -150 x_17_ - 42 y_17_ + [ 1 x_17_ ^ 2 + 1 y_17_ ^ 2 ] <= 8118.068124570991
c18: -150 x_18_ - 42 y_18_ + [ 1 x_18_ ^ 2 + 1 y_18_ ^ 2 ] <= 9807.159999999998
c19: -150 x_19_ - 42 y_19_ + [ 1 x_19_ ^ 2 + 1 y_19_ ^ 2 ] <= 1286.708054190819
c20: -150 x_20_ - 42 y_20_ + [ 1 x_20_ ^ 2 + 1 y_20_ ^ 2 ] <= 5329.849511484124
c21: -150 x_21_ - 42 y_21_ + [ 1 x_21_ ^ 2 + 1 y_21_ ^ 2 ] <= 26782.52452320799
c22: -150 x_22_ - 42 y_22_ + [ 1 x_22_ ^ 2 + 1 y_22_ ^ 2 ] <= 40784.67978533047
c23: -150 x_23_ - 42 y_23_ + [ 1 x_23_ ^ 2 + 1 y_23_ ^ 2 ] <= 1853.4099999999971
c24: -150 x_24_ - 42 y_24_ + [ 1 x_24_ ^ 2 + 1 y_24_ ^ 2 ] <= 30065.793422573326
c25: -150 x_25_ - 42 y_25_ + [ 1 x_25_ ^ 2 + 1 y_25_ ^ 2 ] <= 11163.27237683678
c26: -150 x_26_ - 42 y_26_ + [ 1 x_26_ ^ 2 + 1 y_26_ ^ 2 ] <= 33308.64774937027
c27: -150 x_27_ - 42 y_27_ + [ 1 x_27_ ^ 2 + 1 y_27_ ^ 2 ] <= 8751.733730660866
c28: -150 x_28_ - 42 y_28_ + [ 1 x_28_ ^ 2 + 1 y_28_ ^ 2 ] <= 11742.976461327475
c29: -150 x_29_ - 42 y_29_ + [ 1 x_29_ ^ 2 + 1 y_29_ ^ 2 ] <= 23538.86329208284
c30: -150 x_30_ - 42 y_30_ + [ 1 x_30_ ^ 2 + 1 y_30_ ^ 2 ] <= -2347.0719246660756
c31: -150 x_31_ - 42 y_31_ + [ 1 x_31_ ^ 2 + 1 y_31_ ^ 2 ] <= 29903.682570126577
c32: -150 x_32_ - 42 y_32_ + [ 1 x_32_ ^ 2 + 1 y_32_ ^ 2 ] <= 32653.40460149762
c33: -150 x_33_ - 42 y_33_ + [ 1 x_33_ ^ 2 + 1 y_33_ ^ 2 ] <= 18481.41170813299
c34: -150 x_34_ - 42 y_34_ + [ 1 x_34_ ^ 2 + 1 y_34_ ^ 2 ] <= 8499.70962295415
c35: -150 x_35_ - 42 y_35_ + [ 1 x_35_ ^ 2 + 1 y_35_ ^ 2 ] <= 10086.929999999995
c36: -150 x_36_ - 42 y_36_ + [ 1 x_36_ ^ 2 + 1 y_36_ ^ 2 ] <= 25576.486119618123
c37: -150 x_37_ - 42 y_37_ + [ 1 x_37_ ^ 2 + 1 y_37_ ^ 2 ] <= 34531.15385239495
c38: -150 x_38_ - 42 y_38_ + [ 1 x_38_ ^ 2 + 1 y_38_ ^ 2 ] <= 7275.754118466382
c39: -150 x_39_ - 42 y_39_ + [ 1 x_39_ ^ 2 + 1 y_39_ ^ 2 ] <= 22456.399999999994
c40: -150 x_40_ - 42 y_40_ + [ 1 x_40_ ^ 2 + 1 y_40_ ^ 2 ] <= 6459.501622740927
c41: -150 x_41_ - 42 y_41_ + [ 1 x_41_ ^ 2 + 1 y_41_ ^ 2 ] <= 28395.9789698127
c42: -150 x_42_ - 42 y_42_ + [ 1 x_42_ ^ 2 + 1 y_42_ ^ 2 ] <= 9526.27096691092
c43: -150 x_43_ - 42 y_43_ + [ 1 x_43_ ^ 2 + 1 y_43_ ^ 2 ] <= -0.9499999999989086
c44: -150 x_44_ - 42 y_44_ + [ 1 x_44_ ^ 2 + 1 y_44_ ^ 2 ] <= -1773.0529776832445
c45: -150 x_45_ - 42 y_45_ + [ 1 x_45_ ^ 2 + 1 y_45_ ^ 2 ] <= 21290.304934567448
c46: -150 x_46_ - 42 y_46_ + [ 1 x_46_ ^ 2 + 1 y_46_ ^ 2 ] <= 9808.425893466729
c47: -150 x_47_ - 42 y_47_ + [ 1 x_47_ ^ 2 + 1 y_47_ ^ 2 ] <= 613.463203161401
c48: -150 x_48_ - 42 y_48_ + [ 1 x_48_ ^ 2 + 1 y_48_ ^ 2 ] <= 3376.0396253802955
c49: -150 x_49_ - 42 y_49_ + [ 1 x_49_ ^ 2 + 1 y_49_ ^ 2 ] <= 29204.075700342357
c50: -150 x_50_ - 42 y_50_ + [ 1 x_50_ ^ 2 + 1 y_50_ ^ 2 ] <= 14982.543700743874
c51: -150 x_51_ - 42 y_51_ + [ 1 x_51_ ^ 2 + 1 y_51_ ^ 2 ] <= 15840.99115530536
c52: -150 x_52_ - 42 y_52_ + [ 1 x_52_ ^ 2 + 1 y_52_ ^ 2 ] <= 15986.097620958899
c53: -150 x_53_ - 42 y_53_ + [ 1 x_53_ ^ 2 + 1 y_53_ ^ 2 ] <= 48467.94210089446
c54: -150 x_54_ - 42 y_54_ + [ 1 x_54_ ^ 2 + 1 y_54_ ^ 2 ] <= 2054.554874288274
c55: -150 x_55_ - 42 y_55_ + [ 1 x_55_ ^ 2 + 1 y_55_ ^ 2 ] <= 32399.23642742991
c56: -150 x_56_ - 42 y_56_ + [ 1 x_56_ ^ 2 + 1 y_56_ ^ 2 ] <= 32285.893023787503
c57: -150 x_57_ - 42 y_57_ + [ 1 x_57_ ^ 2 + 1 y_57_ ^ 2 ] <= 16336.062930129821
c58: -150 x_58_ - 42 y_58_ + [ 1 x_58_ ^ 2 + 1 y_58_ ^ 2 ] <= -5745.83
c59: -150 x_59_ - 42 y_59_ + [ 1 x_59_ ^ 2 + 1 y_59_ ^ 2 ] <= 8692.615334751055
c60: -150 x_60_ - 42 y_60_ + [ 1 x_60_ ^ 2 + 1 y_60_ ^ 2 ] <= 3864.319999999998
c61: -150 x_61_ - 42 y_61_ + [ 1 x_61_ ^ 2 + 1 y_61_ ^ 2 ] <= 12820.107878315801
c62: -150 x_62_ - 42 y_62_ + [ 1 x_62_ ^ 2 + 1 y_62_ ^ 2 ] <= 15944.616366798069
c63: -150 x_63_ - 42 y_63_ + [ 1 x_63_ ^ 2 + 1 y_63_ ^ 2 ] <= 40062.38974041343
c64: -150 x_64_ - 42 y_64_ + [ 1 x_64_ ^ 2 + 1 y_64_ ^ 2 ] <= 37760.593784053366
c65: -150 x_65_ - 42 y_65_ + [ 1 x_65_ ^ 2 + 1 y_65_ ^ 2 ] <= 2609.281965549524
c66: -150 x_66_ - 42 y_66_ + [ 1 x_66_ ^ 2 + 1 y_66_ ^ 2 ] <= -4603.4926842848545
c67: -150 x_67_ - 42 y_67_ + [ 1 x_67_ ^ 2 + 1 y_67_ ^ 2 ] <= 24703.649999999994
c68: -150 x_69_ - 42 y_69_ + [ 1 x_69_ ^ 2 + 1 y_69_ ^ 2 ] <= -4331.830000000001
c69: -150 x_70_ - 42 y_70_ + [ 1 x_70_ ^ 2 + 1 y_70_ ^ 2 ] <= -1716.4955278441894
c70: -150 x_71_ - 42 y_71_ + [ 1 x_71_ ^ 2 + 1 y_71_ ^ 2 ] <= -3470.3000000000006
c71: -150 x_72_ - 42 y_72_ + [ 1 x_72_ ^ 2 + 1 y_72_ ^ 2 ] <= 22827.622015601166
c72: -150 x_73_ - 42 y_73_ + [ 1 x_73_ ^ 2 + 1 y_73_ ^ 2 ] <= 31095.743011579776
c73: -150 x_74_ - 42 y_74_ + [ 1 x_74_ ^ 2 + 1 y_74_ ^ 2 ] <= 35959.493531522574
c74: -150 x_75_ - 42 y_75_ + [ 1 x_75_ ^ 2 + 1 y_75_ ^ 2 ] <= -3104.448984868469
c75: -150 x_76_ - 42 y_76_ + [ 1 x_76_ ^ 2 + 1 y_76_ ^ 2 ] <= 25895.626077726018
c76: -150 x_77_ - 42 y_77_ + [ 1 x_77_ ^ 2 + 1 y_77_ ^ 2 ] <= 32832.52045080116
c77: -150 x_78_ - 42 y_78_ + [ 1 x_78_ ^ 2 + 1 y_78_ ^ 2 ] <= 22315.38900512639
c78: -150 x_79_ - 42 y_79_ + [ 1 x_79_ ^ 2 + 1 y_79_ ^ 2 ] <= 27141.335383148027
c79: -150 x_80_ - 42 y_80_ + [ 1 x_80_ ^ 2 + 1 y_80_ ^ 2 ] <= 37728.03720400111
c80: -150 x_81_ - 42 y_81_ + [ 1 x_81_ ^ 2 + 1 y_81_ ^ 2 ] <= -2206.790000000001
c81: -150 x_82_ - 42 y_82_ + [ 1 x_82_ ^ 2 + 1 y_82_ ^ 2 ] <= 5895.2819389448505
c82: -150 x_83_ - 42 y_83_ + [ 1 x_83_ ^ 2 + 1 y_83_ ^ 2 ] <= 23172.502433012614
c83: -150 x_84_ - 42 y_84_ + [ 1 x_84_ ^ 2 + 1 y_84_ ^ 2 ] <= 14844.943745413624
c84: -150 x_85_ - 42 y_85_ + [ 1 x_85_ ^ 2 + 1 y_85_ ^ 2 ] <= -4995.400000000001
c85: -150 x_86_ - 42 y_86_ + [ 1 x_86_ ^ 2 + 1 y_86_ ^ 2 ] <= 11875.202585802956
c86: -150 x_87_ - 42 y_87_ + [ 1 x_87_ ^ 2 + 1 y_87_ ^ 2 ] <= 36058.3334750908
c87: -150 x_88_ - 42 y_88_ + [ 1 x_88_ ^ 2 + 1 y_88_ ^ 2 ] <= 22627.401903686266
c88: -150 x_89_ - 42 y_89_ + [ 1 x_89_ ^ 2 + 1 y_89_ ^ 2 ] <= 13628.596075579942
c89: -150 x_90_ - 42 y_90_ + [ 1 x_90_ ^ 2 + 1 y_90_ ^ 2 ] <= 8348.096489680484
c90: -150 x_91_ - 42 y_91_ + [ 1 x_91_ ^ 2 + 1 y_91_ ^ 2 ] <= 28038.008328442455
c91: -150 x_92_ - 42 y_92_ + [ 1 x_92_ ^ 2 + 1 y_92_ ^ 2 ] <= 26532.121711536598
c92: -150 x_93_ - 42 y_93_ + [ 1 x_93_ ^ 2 + 1 y_93_ ^ 2 ] <= 7027.526916639346
c93: -150 x_94_ - 42 y_94_ + [ 1 x_94_ ^ 2 + 1 y_94_ ^ 2 ] <= 30720.073746586262
c94: -150 x_95_ - 42 y_95_ + [ 1 x_95_ ^ 2 + 1 y_95_ ^ 2 ] <= 21521.80892385702
c95: -150 x_96_ - 42 y_96_ + [ 1 x_96_ ^ 2 + 1 y_96_ ^ 2 ] <= 18791.62418218088
c96: -150 x_97_ - 42 y_97_ + [ 1 x_97_ ^ 2 + 1 y_97_ ^ 2 ] <= 11705.437682633059
c97: -150 x_98_ - 42 y_98_ + [ 1 x_98_ ^ 2 + 1 y_98_ ^ 2 ] <= 23281.03517363347
c98: -150 x_99_ - 42 y_99_ + [ 1 x_99_ ^ 2 + 1 y_99_ ^ 2 ] <= 29315.200364251235
c99: -150 x_100_ - 42 y_100_ + [ 1 x_100_ ^ 2 + 1 y_100_ ^ 2 ] <= 1183.5951324288762
c100: 56 x_1_ + 188 y_1_ + [ 1 x_1_ ^ 2 + 1 y_1_ ^ 2 ] <= 34974.38165637093
c101: 56 x_2_ + 188 y_2_ + [ 1 x_2_ ^ 2 + 1 y_2_ ^ 2 ] <= 32717.52928542799
c102: 56 x_3_ + 188 y_3_ + [ 1 x_3_ ^ 2 + 1 y_3_ ^ 2 ] <= -2208.913776615075
c103: 56 x_4_ + 188 y_4_ + [ 1 x_4_ ^ 2 + 1 y_4_ ^ 2 ] <= 18320.293405710963
c104: 56 x_5_ + 188 y_5_ + [ 1 x_5_ ^ 2 + 1 y_5_ ^ 2 ] <= 19308.41999999999
c105: 56 x_6_ + 188 y_6_ + [ 1 x_6_ ^ 2 + 1 y_6_ ^ 2 ] <= 1220.7754434286617
c106: 56 x_7_ + 188 y_7_ + [ 1 x_7_ ^ 2 + 1 y_7_ ^ 2 ] <= 4241.42110675904
c107: 56 x_8_ + 188 y_8_ + [ 1 x_8_ ^ 2 + 1 y_8_ ^ 2 ] <= 9448.875697731459
c108: 56 x_9_ + 188 y_9_ + [ 1 x_9_ ^ 2 + 1 y_9_ ^ 2 ] <= 15060.804689453114
c109: 56 x_10_ + 188 y_10_ + [ 1 x_10_ ^ 2 + 1 y_10_ ^ 2 ] <= 12304.550701286997
c110: 56 x_11_ + 188 y_11_ + [ 1 x_11_ ^ 2 + 1 y_11_ ^ 2 ] <= -2161.458468478236
c111: 56 x_12_ + 188 y_12_ + [ 1 x_12_ ^ 2 + 1 y_12_ ^ 2 ] <= 17895.387005838802
c112: 56 x_13_ + 188 y_13_ + [ 1 x_13_ ^ 2 + 1 y_13_ ^ 2 ] <= 30934.530000000006
c113: 56 x_14_ + 188 y_14_ + [ 1 x_14_ ^ 2 + 1 y_14_ ^ 2 ] <= 22881.79999999999
c114: 56 x_16_ + 188 y_16_ + [ 1 x_16_ ^ 2 + 1 y_16_ ^ 2 ] <= 5882.489999999998
c115: 56 x_17_ + 188 y_17_ + [ 1 x_17_ ^ 2 + 1 y_17_ ^ 2 ] <= 12401.751911530282
c116: 56 x_18_ + 188 y_18_ + [ 1 x_18_ ^ 2 + 1 y_18_ ^ 2 ] <= 50580.228707312155
c117: 56 x_19_ + 188 y_19_ + [ 1 x_19_ ^ 2 + 1 y_19_ ^ 2 ] <= 23126.405146060526
c118: 56 x_20_ + 188 y_20_ + [ 1 x_20_ ^ 2 + 1 y_20_ ^ 2 ] <= 34992.67245772316
c119: 56 x_21_ + 188 y_21_ + [ 1 x_21_ ^ 2 + 1 y_21_ ^ 2 ] <= 5233.800040886192
c120: 56 x_22_ + 188 y_22_ + [ 1 x_22_ ^ 2 + 1 y_22_ ^ 2 ] <= 23519.647480009153
c121: 56 x_23_ + 188 y_23_ + [ 1 x_23_ ^ 2 + 1 y_23_ ^ 2 ] <= 20760.61913430402
c122: 56 x_24_ + 188 y_24_ + [ 1 x_24_ ^ 2 + 1 y_24_ ^ 2 ] <= 15930.319705895916
c123: 56 x_25_ + 188 y_25_ + [ 1 x_25_ ^ 2 + 1 y_25_ ^ 2 ] <= 25815.531795792172
c124: 56 x_26_ + 188 y_26_ + [ 1 x_26_ ^ 2 + 1 y_26_ ^ 2 ] <= 10061.793931630567
c125: 56 x_27_ + 188 y_27_ + [ 1 x_27_ ^ 2 + 1 y_27_ ^ 2 ] <= 12700.341881048305
c126: 56 x_28_ + 188 y_28_ + [ 1 x_28_ ^ 2 + 1 y_28_ ^ 2 ] <= -3979.1500000000015
c127: 56 x_29_ + 188 y_29_ + [ 1 x_29_ ^ 2 + 1 y_29_ ^ 2 ] <= 2068.795453265413
c128: 56 x_30_ + 188 y_30_ + [ 1 x_30_ ^ 2 + 1 y_30_ ^ 2 ] <= 19799.89065601058
c129: 56 x_31_ + 188 y_31_ + [ 1 x_31_ ^ 2 + 1 y_31_ ^ 2 ] <= 37048.41575162205
c130: 56 x_32_ + 188 y_32_ + [ 1 x_32_ ^ 2 + 1 y_32_ ^ 2 ] <= 9542.251476602381
c131: 56 x_33_ + 188 y_33_ + [ 1 x_33_ ^ 2 + 1 y_33_ ^ 2 ] <= 15497.492353417525
c132: 56 x_34_ + 188 y_34_ + [ 1 x_34_ ^ 2 + 1 y_34_ ^ 2 ] <= 11618.331627091586
c133: 56 x_35_ + 188 y_35_ + [ 1 x_35_ ^ 2 + 1 y_35_ ^ 2 ] <= -2983.992774313805
c134: 56 x_36_ + 188 y_36_ + [ 1 x_36_ ^ 2 + 1 y_36_ ^ 2 ] <= 3826.2477289535946
c135: 56 x_37_ + 188 y_37_ + [ 1 x_37_ ^ 2 + 1 y_37_ ^ 2 ] <= 24192.925202052713
c136: 56 x_38_ + 188 y_38_ + [ 1 x_38_ ^ 2 + 1 y_38_ ^ 2 ] <= -1864.3975106509297
c137: 56 x_39_ + 188 y_39_ + [ 1 x_39_ ^ 2 + 1 y_39_ ^ 2 ] <= -8648.380000000001
c138: 56 x_40_ + 188 y_40_ + [ 1 x_40_ ^ 2 + 1 y_40_ ^ 2 ] <= 7983.859943206779
c139: 56 x_41_ + 188 y_41_ + [ 1 x_41_ ^ 2 + 1 y_41_ ^ 2 ] <= 26131.449789795573
c140: 56 x_42_ + 188 y_42_ + [ 1 x_42_ ^ 2 + 1 y_42_ ^ 2 ] <= 27667.397848956913
c141: 56 x_43_ + 188 y_43_ + [ 1 x_43_ ^ 2 + 1 y_43_ ^ 2 ] <= 43109.7210949634
c142: 56 x_44_ + 188 y_44_ + [ 1 x_44_ ^ 2 + 1 y_44_ ^ 2 ] <= 31173.326224585006
c143: 56 x_45_ + 188 y_45_ + [ 1 x_45_ ^ 2 + 1 y_45_ ^ 2 ] <= 10591.478667251518
c144: 56 x_46_ + 188 y_46_ + [ 1 x_46_ ^ 2 + 1 y_46_ ^ 2 ] <= -1074.2840489004502
c145: 56 x_47_ + 188 y_47_ + [ 1 x_47_ ^ 2 + 1 y_47_ ^ 2 ] <= 21687.667339119653
c146: 56 x_48_ + 188 y_48_ + [ 1 x_48_ ^ 2 + 1 y_48_ ^ 2 ] <= 11211.09786088837
c147: 56 x_49_ + 188 y_49_ + [ 1 x_49_ ^ 2 + 1 y_49_ ^ 2 ] <= -673.6975571006242
c148: 56 x_50_ + 188 y_50_ + [ 1 x_50_ ^ 2 + 1 y_50_ ^ 2 ] <= 2204.527772384634
c149: 56 x_51_ + 188 y_51_ + [ 1 x_51_ ^ 2 + 1 y_51_ ^ 2 ] <= 7159.039920083105
c150: 56 x_52_ + 188 y_52_ + [ 1 x_52_ ^ 2 + 1 y_52_ ^ 2 ] <= 15381.529498309985
c151: 56 x_53_ + 188 y_53_ + [ 1 x_53_ ^ 2 + 1 y_53_ ^ 2 ] <= 10646.784928562061
c152: 56 x_54_ + 188 y_54_ + [ 1 x_54_ ^ 2 + 1 y_54_ ^ 2 ] <= 38622.456216005114
c153: 56 x_55_ + 188 y_55_ + [ 1 x_55_ ^ 2 + 1 y_55_ ^ 2 ] <= 26061.604398918847
c154: 56 x_56_ + 188 y_56_ + [ 1 x_56_ ^ 2 + 1 y_56_ ^ 2 ] <= 8757.446415266906
c155: 56 x_57_ + 188 y_57_ + [ 1 x_57_ ^ 2 + 1 y_57_ ^ 2 ] <= 27841.098227474875
c156: 56 x_58_ + 188 y_58_ + [ 1 x_58_ ^ 2 + 1 y_58_ ^ 2 ] <= 24856.733702338803
c157: 56 x_59_ + 188 y_59_ + [ 1 x_59_ ^ 2 + 1 y_59_ ^ 2 ] <= 3029.0159285957216
c158: 56 x_60_ + 188 y_60_ + [ 1 x_60_ ^ 2 + 1 y_60_ ^ 2 ] <= 31704.14387301058
c159: 56 x_61_ + 188 y_61_ + [ 1 x_61_ ^ 2 + 1 y_61_ ^ 2 ] <= 29292.64528197809
c160: 56 x_62_ + 188 y_62_ + [ 1 x_62_ ^ 2 + 1 y_62_ ^ 2 ] <= 7994.399999999998
c161: 56 x_63_ + 188 y_63_ + [ 1 x_63_ ^ 2 + 1 y_63_ ^ 2 ] <= 18951.343938292517
c162: 56 x_64_ + 188 y_64_ + [ 1 x_64_ ^ 2 + 1 y_64_ ^ 2 ] <= 30235.182836870546
c163: 56 x_65_ + 188 y_65_ + [ 1 x_65_ ^ 2 + 1 y_65_ ^ 2 ] <= 45648.485793108695
c164: 56 x_66_ + 188 y_66_ + [ 1 x_66_ ^ 2 + 1 y_66_ ^ 2 ] <= 22849.89675415906
c165: 56 x_67_ + 188 y_67_ + [ 1 x_67_ ^ 2 + 1 y_67_ ^ 2 ] <= 5791.35195616581
c166: 56 x_68_ + 188 y_68_ + [ 1 x_68_ ^ 2 + 1 y_68_ ^ 2 ] <= 26981.686663472297
c167: 56 x_69_ + 188 y_69_ + [ 1 x_69_ ^ 2 + 1 y_69_ ^ 2 ] <= 23357.83319350014
c168: 56 x_70_ + 188 y_70_ + [ 1 x_70_ ^ 2 + 1 y_70_ ^ 2 ] <= 21197.52449596202
c169: 56 x_71_ + 188 y_71_ + [ 1 x_71_ ^ 2 + 1 y_71_ ^ 2 ] <= 10083.079999999994
c170: 56 x_72_ + 188 y_72_ + [ 1 x_72_ ^ 2 + 1 y_72_ ^ 2 ] <= 13886.681201035859
c171: 56 x_73_ + 188 y_73_ + [ 1 x_73_ ^ 2 + 1 y_73_ ^ 2 ] <= 22534.597695978784
c172: 56 x_74_ + 188 y_74_ + [ 1 x_74_ ^ 2 + 1 y_74_ ^ 2 ] <= 15792.507592428206
c173: 56 x_75_ + 188 y_75_ + [ 1 x_75_ ^ 2 + 1 y_75_ ^ 2 ] <= 35780.54161146638
c174: 56 x_76_ + 188 y_76_ + [ 1 x_76_ ^ 2 + 1 y_76_ ^ 2 ] <= -5428.954121294073
c175: 56 x_77_ + 188 y_77_ + [ 1 x_77_ ^ 2 + 1 y_77_ ^ 2 ] <= 18985.923598469763
c176: 56 x_78_ + 188 y_78_ + [ 1 x_78_ ^ 2 + 1 y_78_ ^ 2 ] <= -1945.2531244317097
c177: 56 x_79_ + 188 y_79_ + [ 1 x_79_ ^ 2 + 1 y_79_ ^ 2 ] <= -8630.2
c178: 56 x_80_ + 188 y_80_ + [ 1 x_80_ ^ 2 + 1 y_80_ ^ 2 ] <= -6197.4531948417025
c179: 56 x_81_ + 188 y_81_ + [ 1 x_81_ ^ 2 + 1 y_81_ ^ 2 ] <= 34562.45
c180: 56 x_82_ + 188 y_82_ + [ 1 x_82_ ^ 2 + 1 y_82_ ^ 2 ] <= 33205.85014613848
c181: 56 x_83_ + 188 y_83_ + [ 1 x_83_ ^ 2 + 1 y_83_ ^ 2 ] <= -7796.95
c182: 56 x_84_ + 188 y_84_ + [ 1 x_84_ ^ 2 + 1 y_84_ ^ 2 ] <= -4888.1500000000015
c183: 56 x_85_ + 188 y_85_ + [ 1 x_85_ ^ 2 + 1 y_85_ ^ 2 ] <= 25012.0182800459
c184: 56 x_86_ + 188 y_86_ + [ 1 x_86_ ^ 2 + 1 y_86_ ^ 2 ] <= 1584.3397458172185
c185: 56 x_87_ + 188 y_87_ + [ 1 x_87_ ^ 2 + 1 y_87_ ^ 2 ] <= 33590.1052075463
c186: 56 x_88_ + 188 y_88_ + [ 1 x_88_ ^ 2 + 1 y_88_ ^ 2 ] <= 26362.98066415659
c187: 56 x_89_ + 188 y_89_ + [ 1 x_89_ ^ 2 + 1 y_89_ ^ 2 ] <= 24322.00397891261
c188: 56 x_90_ + 188 y_90_ + [ 1 x_90_ ^ 2 + 1 y_90_ ^ 2 ] <= 11860.794507811079
c189: 56 x_91_ + 188 y_91_ + [ 1 x_91_ ^ 2 + 1 y_91_ ^ 2 ] <= 1156.634483067206
c190: 56 x_92_ + 188 y_92_ + [ 1 x_92_ ^ 2 + 1 y_92_ ^ 2 ] <= 16354.616907061278
c191: 56 x_93_ + 188 y_93_ + [ 1 x_93_ ^ 2 + 1 y_93_ ^ 2 ] <= 4272.891154435243
c192: 56 x_94_ + 188 y_94_ + [ 1 x_94_ ^ 2 + 1 y_94_ ^ 2 ] <= 11234.707028700206
c193: 56 x_95_ + 188 y_95_ + [ 1 x_95_ ^ 2 + 1 y_95_ ^ 2 ] <= 23625.665987883585
c194: 56 x_96_ + 188 y_96_ + [ 1 x_96_ ^ 2 + 1 y_96_ ^ 2 ] <= 24842.210536093407
c195: 56 x_97_ + 188 y_97_ + [ 1 x_97_ ^ 2 + 1 y_97_ ^ 2 ] <= 16821.995093770547
c196: 56 x_98_ + 188 y_98_ + [ 1 x_98_ ^ 2 + 1 y_98_ ^ 2 ] <= 6512.177636445231
c197: 56 x_99_ + 188 y_99_ + [ 1 x_99_ ^ 2 + 1 y_99_ ^ 2 ] <= 9442.107085470136
c198: 56 x_100_ + 188 y_100_ + [ 1 x_100_ ^ 2 + 1 y_100_ ^ 2 ] <= 27656.012280949573
c199: 178 x_1_ + 150 y_1_ + [ 1 x_1_ ^ 2 + 1 y_1_ ^ 2 ] <= 41727.97955263195
c200: 178 x_2_ + 150 y_2_ + [ 1 x_2_ ^ 2 + 1 y_2_ ^ 2 ] <= 18032.77387052125
c201: 178 x_3_ + 150 y_3_ + [ 1 x_3_ ^ 2 + 1 y_3_ ^ 2 ] <= 31478.08635079005
c202: 178 x_4_ + 150 y_4_ + [ 1 x_4_ ^ 2 + 1 y_4_ ^ 2 ] <= 47954.14124394582
c203: 178 x_5_ + 150 y_5_ + [ 1 x_5_ ^ 2 + 1 y_5_ ^ 2 ] <= 30415.65568921825
c204: 178 x_6_ + 150 y_6_ + [ 1 x_6_ ^ 2 + 1 y_6_ ^ 2 ] <= 16453.29193269374
c205: 178 x_7_ + 150 y_7_ + [ 1 x_7_ ^ 2 + 1 y_7_ ^ 2 ] <= 8711.133817660047
c206: 178 x_8_ + 150 y_8_ + [ 1 x_8_ ^ 2 + 1 y_8_ ^ 2 ] <= 15199.104502873251
c207: 178 x_9_ + 150 y_9_ + [ 1 x_9_ ^ 2 + 1 y_9_ ^ 2 ] <= 16027.345917128892
c208: 178 x_10_ + 150 y_10_ + [ 1 x_10_ ^ 2 + 1 y_10_ ^ 2 ] <= 28084.584692010772
c209: 178 x_11_ + 150 y_11_ + [ 1 x_11_ ^ 2 + 1 y_11_ ^ 2 ] <= 40300.83233895625
c210: 178 x_12_ + 150 y_12_ + [ 1 x_12_ ^ 2 + 1 y_12_ ^ 2 ] <= 34188.833691085994
c211: 178 x_13_ + 150 y_13_ + [ 1 x_13_ ^ 2 + 1 y_13_ ^ 2 ] <= 37458.58774707883
c212: 178 x_14_ + 150 y_14_ + [ 1 x_14_ ^ 2 + 1 y_14_ ^ 2 ] <= 17432.46038748262
c213: 178 x_15_ + 150 y_15_ + [ 1 x_15_ ^ 2 + 1 y_15_ ^ 2 ] <= 15025.343938292517
c214: 178 x_16_ + 150 y_16_ + [ 1 x_16_ ^ 2 + 1 y_16_ ^ 2 ] <= 31432.72046107334
c215: 178 x_17_ + 150 y_17_ + [ 1 x_17_ ^ 2 + 1 y_17_ ^ 2 ] <= 30365.583378879834
c216: 178 x_18_ + 150 y_18_ + [ 1 x_18_ ^ 2 + 1 y_18_ ^ 2 ] <= 54609.507951944164
c217: 178 x_19_ + 150 y_19_ + [ 1 x_19_ ^ 2 + 1 y_19_ ^ 2 ] <= 25132.470592628204
c218: 178 x_20_ + 150 y_20_ + [ 1 x_20_ ^ 2 + 1 y_20_ ^ 2 ] <= 35088.44263576409
c219: 178 x_21_ + 150 y_21_ + [ 1 x_21_ ^ 2 + 1 y_21_ ^ 2 ] <= 27736.96768637754
c220: 178 x_22_ + 150 y_22_ + [ 1 x_22_ ^ 2 + 1 y_22_ ^ 2 ] <= 25205.607285718783
c221: 178 x_23_ + 150 y_23_ + [ 1 x_23_ ^ 2 + 1 y_23_ ^ 2 ] <= 2275.649999999994
c222: 178 x_24_ + 150 y_24_ + [ 1 x_24_ ^ 2 + 1 y_24_ ^ 2 ] <= 9780.172853146985
c223: 178 x_25_ + 150 y_25_ + [ 1 x_25_ ^ 2 + 1 y_25_ ^ 2 ] <= 7801.359999999993
c224: 178 x_26_ + 150 y_26_ + [ 1 x_26_ ^ 2 + 1 y_26_ ^ 2 ] <= 21793.542803984245
c225: 178 x_27_ + 150 y_27_ + [ 1 x_27_ ^ 2 + 1 y_27_ ^ 2 ] <= 7308.479999999996
c226: 178 x_28_ + 150 y_28_ + [ 1 x_28_ ^ 2 + 1 y_28_ ^ 2 ] <= 21549.916912880246
c227: 178 x_29_ + 150 y_29_ + [ 1 x_29_ ^ 2 + 1 y_29_ ^ 2 ] <= 8574.220664434968
c228: 178 x_30_ + 150 y_30_ + [ 1 x_30_ ^ 2 + 1 y_30_ ^ 2 ] <= 34258.79447036261
c229: 178 x_31_ + 150 y_31_ + [ 1 x_31_ ^ 2 + 1 y_31_ ^ 2 ] <= 36392.1895183349
c230: 178 x_32_ + 150 y_32_ + [ 1 x_32_ ^ 2 + 1 y_32_ ^ 2 ] <= 40832.7232753748
c231: 178 x_33_ + 150 y_33_ + [ 1 x_33_ ^ 2 + 1 y_33_ ^ 2 ] <= 6090.918633259946
c232: 178 x_34_ + 150 y_34_ + [ 1 x_34_ ^ 2 + 1 y_34_ ^ 2 ] <= 36325.98742924471
c233: 178 x_35_ + 150 y_35_ + [ 1 x_35_ ^ 2 + 1 y_35_ ^ 2 ] <= 23971.808078751215
c234: 178 x_36_ + 150 y_36_ + [ 1 x_36_ ^ 2 + 1 y_36_ ^ 2 ] <= 8599.95689342776
c235: 178 x_37_ + 150 y_37_ + [ 1 x_37_ ^ 2 + 1 y_37_ ^ 2 ] <= 17759.07018981814
c236: 178 x_38_ + 150 y_38_ + [ 1 x_38_ ^ 2 + 1 y_38_ ^ 2 ] <= 844.9042671244642
c237: 178 x_39_ + 150 y_39_ + [ 1 x_39_ ^ 2 + 1 y_39_ ^ 2 ] <= 17732.459995176476
c238: 178 x_40_ + 150 y_40_ + [ 1 x_40_ ^ 2 + 1 y_40_ ^ 2 ] <= 57354.10836465492
c239: 178 x_41_ + 150 y_41_ + [ 1 x_41_ ^ 2 + 1 y_41_ ^ 2 ] <= 16038.024165265775
c240: 178 x_42_ + 150 y_42_ + [ 1 x_42_ ^ 2 + 1 y_42_ ^ 2 ] <= 27425.63368336246
c241: 178 x_43_ + 150 y_43_ + [ 1 x_43_ ^ 2 + 1 y_43_ ^ 2 ] <= 54618.45983060484
c242: 178 x_44_ + 150 y_44_ + [ 1 x_44_ ^ 2 + 1 y_44_ ^ 2 ] <= 31104.983075907192
c243: 178 x_45_ + 150 y_45_ + [ 1 x_45_ ^ 2 + 1 y_45_ ^ 2 ] <= 11378.777676307385
c244: 178 x_46_ + 150 y_46_ + [ 1 x_46_ ^ 2 + 1 y_46_ ^ 2 ] <= -1849.1900000000023
c245: 178 x_47_ + 150 y_47_ + [ 1 x_47_ ^ 2 + 1 y_47_ ^ 2 ] <= 23567.436000205285
c246: 178 x_48_ + 150 y_48_ + [ 1 x_48_ ^ 2 + 1 y_48_ ^ 2 ] <= 17353.85159527382
c247: 178 x_49_ + 150 y_49_ + [ 1 x_49_ ^ 2 + 1 y_49_ ^ 2 ] <= 13241.504762111668
c248: 178 x_50_ + 150 y_50_ + [ 1 x_50_ ^ 2 + 1 y_50_ ^ 2 ] <= -5376.1100000000015
c249: 178 x_51_ + 150 y_51_ + [ 1 x_51_ ^ 2 + 1 y_51_ ^ 2 ] <= 29326.57402526689
c250: 178 x_52_ + 150 y_52_ + [ 1 x_52_ ^ 2 + 1 y_52_ ^ 2 ] <= 39210.872793066774
c251: 178 x_53_ + 150 y_53_ + [ 1 x_53_ ^ 2 + 1 y_53_ ^ 2 ] <= 25975.018180161307
c252: 178 x_54_ + 150 y_54_ + [ 1 x_54_ ^ 2 + 1 y_54_ ^ 2 ] <= 24645.130000000005
c253: 178 x_55_ + 150 y_55_ + [ 1 x_55_ ^ 2 + 1 y_55_ ^ 2 ] <= 17616.722166122974
c254: 178 x_56_ + 150 y_56_ + [ 1 x_56_ ^ 2 + 1 y_56_ ^ 2 ] <= 17932.831865625598
c255: 178 x_57_ + 150 y_57_ + [ 1 x_57_ ^ 2 + 1 y_57_ ^ 2 ] <= 9814.289999999997
c256: 178 x_58_ + 150 y_58_ + [ 1 x_58_ ^ 2 + 1 y_58_ ^ 2 ] <= 26034.44174607817
c257: 178 x_59_ + 150 y_59_ + [ 1 x_59_ ^ 2 + 1 y_59_ ^ 2 ] <= 7167.41456338959
c258: 178 x_60_ + 150 y_60_ + [ 1 x_60_ ^ 2 + 1 y_60_ ^ 2 ] <= 25562.08017648434
c259: 178 x_61_ + 150 y_61_ + [ 1 x_61_ ^ 2 + 1 y_61_ ^ 2 ] <= 31810.91668015017
c260: 178 x_62_ + 150 y_62_ + [ 1 x_62_ ^ 2 + 1 y_62_ ^ 2 ] <= 2632.1799999999967
c261: 178 x_64_ + 150 y_64_ + [ 1 x_64_ ^ 2 + 1 y_64_ ^ 2 ] <= 3002.8499999999985
c262: 178 x_65_ + 150 y_65_ + [ 1 x_65_ ^ 2 + 1 y_65_ ^ 2 ] <= 49355.269297511506
c263: 178 x_66_ + 150 y_66_ + [ 1 x_66_ ^ 2 + 1 y_66_ ^ 2 ] <= 24831.908171789808
c264: 178 x_67_ + 150 y_67_ + [ 1 x_67_ ^ 2 + 1 y_67_ ^ 2 ] <= 23790.46427352656
c265: 178 x_68_ + 150 y_68_ + [ 1 x_68_ ^ 2 + 1 y_68_ ^ 2 ] <= 32582.389740413433
c266: 178 x_69_ + 150 y_69_ + [ 1 x_69_ ^ 2 + 1 y_69_ ^ 2 ] <= 32595.15057337218
c267: 178 x_70_ + 150 y_70_ + [ 1 x_70_ ^ 2 + 1 y_70_ ^ 2 ] <= 22743.300000000003
c268: 178 x_71_ + 150 y_71_ + [ 1 x_71_ ^ 2 + 1 y_71_ ^ 2 ] <= 22702.899999999994
c269: 178 x_72_ + 150 y_72_ + [ 1 x_72_ ^ 2 + 1 y_72_ ^ 2 ] <= 13640.281725512486
c270: 178 x_73_ + 150 y_73_ + [ 1 x_73_ ^ 2 + 1 y_73_ ^ 2 ] <= 41473.891935164895
c271: 178 x_74_ + 150 y_74_ + [ 1 x_74_ ^ 2 + 1 y_74_ ^ 2 ] <= 14970.047798646603
c272: 178 x_75_ + 150 y_75_ + [ 1 x_75_ ^ 2 + 1 y_75_ ^ 2 ] <= 26536.97972389622
c273: 178 x_76_ + 150 y_76_ + [ 1 x_76_ ^ 2 + 1 y_76_ ^ 2 ] <= 22137.633231085063
c274: 178 x_77_ + 150 y_77_ + [ 1 x_77_ ^ 2 + 1 y_77_ ^ 2 ] <= 11045.108953056657
c275: 178 x_78_ + 150 y_78_ + [ 1 x_78_ ^ 2 + 1 y_78_ ^ 2 ] <= 5364.510092984099
c276: 178 x_79_ + 150 y_79_ + [ 1 x_79_ ^ 2 + 1 y_79_ ^ 2 ] <= 14566.223315012994
c277: 178 x_80_ + 150 y_80_ + [ 1 x_80_ ^ 2 + 1 y_80_ ^ 2 ] <= 24365.380865778454
c278: 178 x_81_ + 150 y_81_ + [ 1 x_81_ ^ 2 + 1 y_81_ ^ 2 ] <= 43680.23302836477
c279: 178 x_82_ + 150 y_82_ + [ 1 x_82_ ^ 2 + 1 y_82_ ^ 2 ] <= 67375.5171656988
c280: 178 x_83_ + 150 y_83_ + [ 1 x_83_ ^ 2 + 1 y_83_ ^ 2 ] <= 14296.267032638574
c281: 178 x_84_ + 150 y_84_ + [ 1 x_84_ ^ 2 + 1 y_84_ ^ 2 ] <= -3497.510000000004
c282: 178 x_85_ + 150 y_85_ + [ 1 x_85_ ^ 2 + 1 y_85_ ^ 2 ] <= 32201.15454147738
c283: 178 x_86_ + 150 y_86_ + [ 1 x_86_ ^ 2 + 1 y_86_ ^ 2 ] <= 5306.461690299209
c284: 178 x_87_ + 150 y_87_ + [ 1 x_87_ ^ 2 + 1 y_87_ ^ 2 ] <= 43730.0333806564
c285: 178 x_88_ + 150 y_88_ + [ 1 x_88_ ^ 2 + 1 y_88_ ^ 2 ] <= 38968.46597482801
c286: 178 x_89_ + 150 y_89_ + [ 1 x_89_ ^ 2 + 1 y_89_ ^ 2 ] <= 12376.659999999996
c287: 178 x_90_ + 150 y_90_ + [ 1 x_90_ ^ 2 + 1 y_90_ ^ 2 ] <= 12786.211067791923
c288: 178 x_91_ + 150 y_91_ + [ 1 x_91_ ^ 2 + 1 y_91_ ^ 2 ] <= 1170.2502341069467
c289: 178 x_92_ + 150 y_92_ + [ 1 x_92_ ^ 2 + 1 y_92_ ^ 2 ] <= 12783.356570336004
c290: 178 x_93_ + 150 y_93_ + [ 1 x_93_ ^ 2 + 1 y_93_ ^ 2 ] <= 44742.09769060976
c291: 178 x_94_ + 150 y_94_ + [ 1 x_94_ ^ 2 + 1 y_94_ ^ 2 ] <= 10128.399999999998
c292: 178 x_95_ + 150 y_95_ + [ 1 x_95_ ^ 2 + 1 y_95_ ^ 2 ] <= -229.1500000000051
c293: 178 x_96_ + 150 y_96_ + [ 1 x_96_ ^ 2 + 1 y_96_ ^ 2 ] <= 44700.50769224219
c294: 178 x_97_ + 150 y_97_ + [ 1 x_97_ ^ 2 + 1 y_97_ ^ 2 ] <= 24611.027379803272
c295: 178 x_98_ + 150 y_98_ + [ 1 x_98_ ^ 2 + 1 y_98_ ^ 2 ] <= -3920.7000000000007
c296: 178 x_99_ + 150 y_99_ + [ 1 x_99_ ^ 2 + 1 y_99_ ^ 2 ] <= 7993.953254557575
c297: 178 x_100_ + 150 y_100_ + [ 1 x_100_ ^ 2 + 1 y_100_ ^ 2 ] <= 39311.64008209614
quadratic_ranged_1_ub: [ 1 x_1_ ^ 2 - 2 x_2_ * x_1_ + 1 x_2_ ^ 2 + 1 y_1_ ^ 2 - 2 y_2_ * y_1_ + 1 y_2_ ^ 2 ] <= 6246.85
quadratic_ranged_2_ub: [ 1 x_1_ ^ 2 - 2 x_3_ * x_1_ + 1 x_3_ ^ 2 + 1 y_1_ ^ 2 - 2 y_3_ * y_1_ + 1 y_3_ ^ 2 ] <= 26850.85
quadratic_ranged_3_ub: [ 1 x_2_ ^ 2 - 2 x_3_ * x_2_ + 1 x_3_ ^ 2 + 1 y_2_ ^ 2 - 2 y_3_ * y_2_ + 1 y_3_ ^ 2 ] <= 31328.18
quadratic_ranged_4_ub: [ 1 x_3_ ^ 2 - 2 x_4_ * x_3_ + 1 x_4_ ^ 2 + 1 y_3_ ^ 2 - 2 y_4_ * y_3_ + 1 y_4_ ^ 2 ] <= 20532.29
quadratic_ranged_5_ub: [ 1 x_4_ ^ 2 - 2 x_5_ * x_4_ + 1 x_5_ ^ 2 + 1 y_4_ ^ 2 - 2 y_5_ * y_4_ + 1 y_5_ ^ 2 ] <= 24887.41
quadratic_ranged_6_ub: [ 1 x_1_ ^ 2 - 2 x_6_ * x_1_ + 1 x_6_ ^ 2 + 1 y_1_ ^ 2 - 2 y_6_ * y_1_ + 1 y_6_ ^ 2 ] <= 26046.89
quadratic_ranged_7_ub: [ 1 x_5_ ^ 2 - 2 x_6_ * x_5_ + 1 x_6_ ^ 2 + 1 y_5_ ^ 2 - 2 y_6_ * y_5_ + 1 y_6_ ^ 2 ] <= 16978.1
quadratic_ranged_8_ub: [ 1 x_3_ ^ 2 - 2 x_7_ * x_3_ + 1 x_7_ ^ 2 + 1 y_3_ ^ 2 - 2 y_7_ * y_3_ + 1 y_7_ ^ 2 ] <= 12751.25
quadratic_ranged_9_ub: [ 1 x_6_ ^ 2 - 2 x_7_ * x_6_ + 1 x_7_ ^ 2 + 1 y_6_ ^ 2 - 2 y_7_ * y_6_ + 1 y_7_ ^ 2 ] <= 12496.73
quadratic_ranged_10_ub: [ 1 x_7_ ^ 2 - 2 x_8_ * x_7_ + 1 x_8_ ^ 2 + 1 y_7_ ^ 2 - 2 y_8_ * y_7_ + 1 y_8_ ^ 2 ] <= 5216.65
quadratic_ranged_11_ub: [ 1 x_3_ ^ 2 - 2 x_9_ * x_3_ + 1 x_9_ ^ 2 + 1 y_3_ ^ 2 - 2 y_9_ * y_3_ + 1 y_9_ ^ 2 ] <= 5042.93
quadratic_ranged_12_ub: [ 1 x_8_ ^ 2 - 2 x_9_ * x_8_ + 1 x_9_ ^ 2 + 1 y_8_ ^ 2 - 2 y_9_ * y_8_ + 1 y_9_ ^ 2 ] <= 1532.17
quadratic_ranged_13_ub: [ 1 x_3_ ^ 2 - 2 x_10_ * x_3_ + 1 x_10_ ^ 2 + 1 y_3_ ^ 2 - 2 y_10_ * y_3_ + 1 y_10_ ^ 2 ] <= 18139.6
quadratic_ranged_14_ub: [ 1 x_9_ ^ 2 - 2 x_10_ * x_9_ + 1 x_10_ ^ 2 + 1 y_9_ ^ 2 - 2 y_10_ * y_9_ + 1 y_10_ ^ 2 ] <= 6000.41
quadratic_ranged_15_ub: [ 1 x_10_ ^ 2 - 2 x_11_ * x_10_ + 1 x_11_ ^ 2 + 1 y_10_ ^ 2 - 2 y_11_ * y_10_ + 1 y_11_ ^ 2 ] <= 3807.7
quadratic_ranged_16_ub: [ 1 x_8_ ^ 2 - 2 x_12_ * x_8_ + 1 x_12_ ^ 2 + 1 y_8_ ^ 2 - 2 y_12_ * y_8_ + 1 y_12_ ^ 2 ] <= 13382.5
quadratic_ranged_17_ub: [ 1 x_11_ ^ 2 - 2 x_12_ * x_11_ + 1 x_12_ ^ 2 + 1 y_11_ ^ 2 - 2 y_12_ * y_11_ + 1 y_12_ ^ 2 ] <= 6322.6
quadratic_ranged_18_ub: [ 1 x_12_ ^ 2 - 2 x_13_ * x_12_ + 1 x_13_ ^ 2 + 1 y_12_ ^ 2 - 2 y_13_ * y_12_ + 1 y_13_ ^ 2 ] <= 19970.73
quadratic_ranged_19_ub: [ 1 x_13_ ^ 2 - 2 x_14_ * x_13_ + 1 x_14_ ^ 2 + 1 y_13_ ^ 2 - 2 y_14_ * y_13_ + 1 y_14_ ^ 2 ] <= 20241.41
quadratic_ranged_20_ub: [ 1 x_5_ ^ 2 - 2 x_15_ * x_5_ + 1 x_15_ ^ 2 + 1 y_5_ ^ 2 - 2 y_15_ * y_5_ + 1 y_15_ ^ 2 ] <= 28928.420000000002
quadratic_ranged_21_ub: [ 1 x_13_ ^ 2 - 2 x_15_ * x_13_ + 1 x_15_ ^ 2 + 1 y_13_ ^ 2 - 2 y_15_ * y_13_ + 1 y_15_ ^ 2 ] <= 40554.53
quadratic_ranged_22_ub: [ 1 x_14_ ^ 2 - 2 x_15_ * x_14_ + 1 x_15_ ^ 2 + 1 y_14_ ^ 2 - 2 y_15_ * y_14_ + 1 y_15_ ^ 2 ] <= 32501.8
quadratic_ranged_23_ub: [ 1 x_5_ ^ 2 - 2 x_16_ * x_5_ + 1 x_16_ ^ 2 + 1 y_5_ ^ 2 - 2 y_16_ * y_5_ + 1 y_16_ ^ 2 ] <= 22972.45
quadratic_ranged_24_ub: [ 1 x_15_ ^ 2 - 2 x_16_ * x_15_ + 1 x_16_ ^ 2 + 1 y_15_ ^ 2 - 2 y_16_ * y_15_ + 1 y_16_ ^ 2 ] <= 15502.49
quadratic_ranged_25_ub: [ 1 x_2_ ^ 2 - 2 x_17_ * x_2_ + 1 x_17_ ^ 2 + 1 y_2_ ^ 2 - 2 y_17_ * y_2_ + 1 y_17_ ^ 2 ] <= 3290.58
quadratic_ranged_26_ub: [ 1 x_6_ ^ 2 - 2 x_17_ * x_6_ + 1 x_17_ ^ 2 + 1 y_6_ ^ 2 - 2 y_17_ * y_6_ + 1 y_17_ ^ 2 ] <= 31067.6
quadratic_ranged_27_ub: [ 1 x_8_ ^ 2 - 2 x_17_ * x_8_ + 1 x_17_ ^ 2 + 1 y_8_ ^ 2 - 2 y_17_ * y_8_ + 1 y_17_ ^ 2 ] <= 18281
quadratic_ranged_28_ub: [ 1 x_16_ ^ 2 - 2 x_17_ * x_16_ + 1 x_17_ ^ 2 + 1 y_16_ ^ 2 - 2 y_17_ * y_16_ + 1 y_17_ ^ 2 ] <= 570.65
quadratic_ranged_29_ub: [ 1 x_1_ ^ 2 - 2 x_18_ * x_1_ + 1 x_18_ ^ 2 + 1 y_1_ ^ 2 - 2 y_18_ * y_1_ + 1 y_18_ ^ 2 ] <= 16997.29
quadratic_ranged_30_ub: [ 1 x_17_ ^ 2 - 2 x_18_ * x_17_ + 1 x_18_ ^ 2 + 1 y_17_ ^ 2 - 2 y_18_ * y_17_ + 1 y_18_ ^ 2 ] <= 24961.14
quadratic_ranged_31_ub: [ 1 x_5_ ^ 2 - 2 x_19_ * x_5_ + 1 x_19_ ^ 2 + 1 y_5_ ^ 2 - 2 y_19_ * y_5_ + 1 y_19_ ^ 2 ] <= 2506.82
quadratic_ranged_32_ub: [ 1 x_8_ ^ 2 - 2 x_19_ * x_8_ + 1 x_19_ ^ 2 + 1 y_8_ ^ 2 - 2 y_19_ * y_8_ + 1 y_19_ ^ 2 ] <= 16879.12
quadratic_ranged_33_ub: [ 1 x_9_ ^ 2 - 2 x_19_ * x_9_ + 1 x_19_ ^ 2 + 1 y_9_ ^ 2 - 2 y_19_ * y_9_ + 1 y_19_ ^ 2 ] <= 8291.09
quadratic_ranged_34_ub: [ 1 x_18_ ^ 2 - 2 x_19_ * x_18_ + 1 x_19_ ^ 2 + 1 y_18_ ^ 2 - 2 y_19_ * y_18_ + 1 y_19_ ^ 2 ] <= 4147.06
quadratic_ranged_35_ub: [ 1 x_4_ ^ 2 - 2 x_20_ * x_4_ + 1 x_20_ ^ 2 + 1 y_4_ ^ 2 - 2 y_20_ * y_4_ + 1 y_20_ ^ 2 ] <= 14594.5
quadratic_ranged_36_ub: [ 1 x_10_ ^ 2 - 2 x_20_ * x_10_ + 1 x_20_ ^ 2 + 1 y_10_ ^ 2 - 2 y_20_ * y_10_ + 1 y_20_ ^ 2 ] <= 9167.77
quadratic_ranged_37_ub: [ 1 x_13_ ^ 2 - 2 x_20_ * x_13_ + 1 x_20_ ^ 2 + 1 y_13_ ^ 2 - 2 y_20_ * y_13_ + 1 y_20_ ^ 2 ] <= 3734.98
quadratic_ranged_38_ub: [ 1 x_19_ ^ 2 - 2 x_20_ * x_19_ + 1 x_20_ ^ 2 + 1 y_19_ ^ 2 - 2 y_20_ * y_19_ + 1 y_20_ ^ 2 ] <= 3540.05
quadratic_ranged_39_ub: [ 1 x_20_ ^ 2 - 2 x_21_ * x_20_ + 1 x_21_ ^ 2 + 1 y_20_ ^ 2 - 2 y_21_ * y_20_ + 1 y_21_ ^ 2 ] <= 25178.29
quadratic_ranged_40_ub: [ 1 x_6_ ^ 2 - 2 x_22_ * x_6_ + 1 x_22_ ^ 2 + 1 y_6_ ^ 2 - 2 y_22_ * y_6_ + 1 y_22_ ^ 2 ] <= 10740.34
quadratic_ranged_41_ub: [ 1 x_20_ ^ 2 - 2 x_22_ * x_20_ + 1 x_22_ ^ 2 + 1 y_20_ ^ 2 - 2 y_22_ * y_20_ + 1 y_22_ ^ 2 ] <= 28798.13
quadratic_ranged_42_ub: [ 1 x_21_ ^ 2 - 2 x_22_ * x_21_ + 1 x_22_ ^ 2 + 1 y_21_ ^ 2 - 2 y_22_ * y_21_ + 1 y_22_ ^ 2 ] <= 40393.94
quadratic_ranged_43_ub: [ 1 x_2_ ^ 2 - 2 x_23_ * x_2_ + 1 x_23_ ^ 2 + 1 y_2_ ^ 2 - 2 y_23_ * y_2_ + 1 y_23_ ^ 2 ] <= 2695.69
quadratic_ranged_44_ub: [ 1 x_6_ ^ 2 - 2 x_23_ * x_6_ + 1 x_23_ ^ 2 + 1 y_6_ ^ 2 - 2 y_23_ * y_6_ + 1 y_23_ ^ 2 ] <= 15276.25
quadratic_ranged_45_ub: [ 1 x_13_ ^ 2 - 2 x_23_ * x_13_ + 1 x_23_ ^ 2 + 1 y_13_ ^ 2 - 2 y_23_ * y_13_ + 1 y_23_ ^ 2 ] <= 23110.82
quadratic_ranged_46_ub: [ 1 x_19_ ^ 2 - 2 x_23_ * x_19_ + 1 x_23_ ^ 2 + 1 y_19_ ^ 2 - 2 y_23_ * y_19_ + 1 y_23_ ^ 2 ] <= 15555.01
quadratic_ranged_47_ub: [ 1 x_22_ ^ 2 - 2 x_23_ * x_22_ + 1 x_23_ ^ 2 + 1 y_22_ ^ 2 - 2 y_23_ * y_22_ + 1 y_23_ ^ 2 ] <= 29371.81
quadratic_ranged_48_ub: [ 1 x_3_ ^ 2 - 2 x_24_ * x_3_ + 1 x_24_ ^ 2 + 1 y_3_ ^ 2 - 2 y_24_ * y_3_ + 1 y_24_ ^ 2 ] <= 12306.85
quadratic_ranged_49_ub: [ 1 x_7_ ^ 2 - 2 x_24_ * x_7_ + 1 x_24_ ^ 2 + 1 y_7_ ^ 2 - 2 y_24_ * y_7_ + 1 y_24_ ^ 2 ] <= 19553.6
quadratic_ranged_50_ub: [ 1 x_17_ ^ 2 - 2 x_24_ * x_17_ + 1 x_24_ ^ 2 + 1 y_17_ ^ 2 - 2 y_24_ * y_17_ + 1 y_24_ ^ 2 ] <= 18027.49
quadratic_ranged_51_ub: [ 1 x_23_ ^ 2 - 2 x_24_ * x_23_ + 1 x_24_ ^ 2 + 1 y_23_ ^ 2 - 2 y_24_ * y_23_ + 1 y_24_ ^ 2 ] <= 16551.88
quadratic_ranged_52_ub: [ 1 x_2_ ^ 2 - 2 x_25_ * x_2_ + 1 x_25_ ^ 2 + 1 y_2_ ^ 2 - 2 y_25_ * y_2_ + 1 y_25_ ^ 2 ] <= 1490.76
quadratic_ranged_53_ub: [ 1 x_23_ ^ 2 - 2 x_25_ * x_23_ + 1 x_25_ ^ 2 + 1 y_23_ ^ 2 - 2 y_25_ * y_23_ + 1 y_25_ ^ 2 ] <= 1786.69
quadratic_ranged_54_ub: [ 1 x_24_ ^ 2 - 2 x_25_ * x_24_ + 1 x_25_ ^ 2 + 1 y_24_ ^ 2 - 2 y_25_ * y_24_ + 1 y_25_ ^ 2 ] <= 29214.25
quadratic_ranged_55_ub: [ 1 x_2_ ^ 2 - 2 x_26_ * x_2_ + 1 x_26_ ^ 2 + 1 y_2_ ^ 2 - 2 y_26_ * y_2_ + 1 y_26_ ^ 2 ] <= 34304.65
quadratic_ranged_56_ub: [ 1 x_3_ ^ 2 - 2 x_26_ * x_3_ + 1 x_26_ ^ 2 + 1 y_3_ ^ 2 - 2 y_26_ * y_3_ + 1 y_26_ ^ 2 ] <= 2938.09
quadratic_ranged_57_ub: [ 1 x_12_ ^ 2 - 2 x_26_ * x_12_ + 1 x_26_ ^ 2 + 1 y_12_ ^ 2 - 2 y_26_ * y_12_ + 1 y_26_ ^ 2 ] <= 26059.010000000002
quadratic_ranged_58_ub: [ 1 x_25_ ^ 2 - 2 x_26_ * x_25_ + 1 x_26_ ^ 2 + 1 y_25_ ^ 2 - 2 y_26_ * y_25_ + 1 y_26_ ^ 2 ] <= 30086.89
quadratic_ranged_59_ub: [ 1 x_4_ ^ 2 - 2 x_27_ * x_4_ + 1 x_27_ ^ 2 + 1 y_4_ ^ 2 - 2 y_27_ * y_4_ + 1 y_27_ ^ 2 ] <= 15296.45
quadratic_ranged_60_ub: [ 1 x_26_ ^ 2 - 2 x_27_ * x_26_ + 1 x_27_ ^ 2 + 1 y_26_ ^ 2 - 2 y_27_ * y_26_ + 1 y_27_ ^ 2 ] <= 5883.25
quadratic_ranged_61_ub: [ 1 x_6_ ^ 2 - 2 x_28_ * x_6_ + 1 x_28_ ^ 2 + 1 y_6_ ^ 2 - 2 y_28_ * y_6_ + 1 y_28_ ^ 2 ] <= 2008.89
quadratic_ranged_62_ub: [ 1 x_15_ ^ 2 - 2 x_28_ * x_15_ + 1 x_28_ ^ 2 + 1 y_15_ ^ 2 - 2 y_28_ * y_15_ + 1 y_28_ ^ 2 ] <= 5640.85
quadratic_ranged_63_ub: [ 1 x_27_ ^ 2 - 2 x_28_ * x_27_ + 1 x_28_ ^ 2 + 1 y_27_ ^ 2 - 2 y_28_ * y_27_ + 1 y_28_ ^ 2 ] <= 5519.65
quadratic_ranged_64_ub: [ 1 x_1_ ^ 2 - 2 x_29_ * x_1_ + 1 x_29_ ^ 2 + 1 y_1_ ^ 2 - 2 y_29_ * y_1_ + 1 y_29_ ^ 2 ] <= 22238.18
quadratic_ranged_65_ub: [ 1 x_7_ ^ 2 - 2 x_29_ * x_7_ + 1 x_29_ ^ 2 + 1 y_7_ ^ 2 - 2 y_29_ * y_7_ + 1 y_29_ ^ 2 ] <= 8033.54
quadratic_ranged_66_ub: [ 1 x_16_ ^ 2 - 2 x_29_ * x_16_ + 1 x_29_ ^ 2 + 1 y_16_ ^ 2 - 2 y_29_ * y_16_ + 1 y_29_ ^ 2 ] <= 22922.96
quadratic_ranged_67_ub: [ 1 x_28_ ^ 2 - 2 x_29_ * x_28_ + 1 x_29_ ^ 2 + 1 y_28_ ^ 2 - 2 y_29_ * y_28_ + 1 y_29_ ^ 2 ] <= 1490.76
quadratic_ranged_68_ub: [ 1 x_2_ ^ 2 - 2 x_30_ * x_2_ + 1 x_30_ ^ 2 + 1 y_2_ ^ 2 - 2 y_30_ * y_2_ + 1 y_30_ ^ 2 ] <= 5915.57
quadratic_ranged_69_ub: [ 1 x_10_ ^ 2 - 2 x_30_ * x_10_ + 1 x_30_ ^ 2 + 1 y_10_ ^ 2 - 2 y_30_ * y_10_ + 1 y_30_ ^ 2 ] <= 4024.85
quadratic_ranged_70_ub: [ 1 x_20_ ^ 2 - 2 x_30_ * x_20_ + 1 x_30_ ^ 2 + 1 y_20_ ^ 2 - 2 y_30_ * y_20_ + 1 y_30_ ^ 2 ] <= 2094.7400000000002
quadratic_ranged_71_ub: [ 1 x_29_ ^ 2 - 2 x_30_ * x_29_ + 1 x_30_ ^ 2 + 1 y_29_ ^ 2 - 2 y_30_ * y_29_ + 1 y_30_ ^ 2 ] <= 29673.8
quadratic_ranged_72_ub: [ 1 x_1_ ^ 2 - 2 x_31_ * x_1_ + 1 x_31_ ^ 2 + 1 y_1_ ^ 2 - 2 y_31_ * y_1_ + 1 y_31_ ^ 2 ] <= 12557.33
quadratic_ranged_73_ub: [ 1 x_4_ ^ 2 - 2 x_31_ * x_4_ + 1 x_31_ ^ 2 + 1 y_4_ ^ 2 - 2 y_31_ * y_4_ + 1 y_31_ ^ 2 ] <= 28971.85
quadratic_ranged_74_ub: [ 1 x_9_ ^ 2 - 2 x_31_ * x_9_ + 1 x_31_ ^ 2 + 1 y_9_ ^ 2 - 2 y_31_ * y_9_ + 1 y_31_ ^ 2 ] <= 11894.77
quadratic_ranged_75_ub: [ 1 x_14_ ^ 2 - 2 x_31_ * x_14_ + 1 x_31_ ^ 2 + 1 y_14_ ^ 2 - 2 y_31_ * y_14_ + 1 y_31_ ^ 2 ] <= 11190.8
quadratic_ranged_76_ub: [ 1 x_26_ ^ 2 - 2 x_31_ * x_26_ + 1 x_31_ ^ 2 + 1 y_26_ ^ 2 - 2 y_31_ * y_26_ + 1 y_31_ ^ 2 ] <= 14084.45
quadratic_ranged_77_ub: [ 1 x_30_ ^ 2 - 2 x_31_ * x_30_ + 1 x_31_ ^ 2 + 1 y_30_ ^ 2 - 2 y_31_ * y_30_ + 1 y_31_ ^ 2 ] <= 16556.93
quadratic_ranged_78_ub: [ 1 x_10_ ^ 2 - 2 x_32_ * x_10_ + 1 x_32_ ^ 2 + 1 y_10_ ^ 2 - 2 y_32_ * y_10_ + 1 y_32_ ^ 2 ] <= 10327.25
quadratic_ranged_79_ub: [ 1 x_18_ ^ 2 - 2 x_32_ * x_18_ + 1 x_32_ ^ 2 + 1 y_18_ ^ 2 - 2 y_32_ * y_18_ + 1 y_32_ ^ 2 ] <= 31129.21
quadratic_ranged_80_ub: [ 1 x_28_ ^ 2 - 2 x_32_ * x_28_ + 1 x_32_ ^ 2 + 1 y_28_ ^ 2 - 2 y_32_ * y_28_ + 1 y_32_ ^ 2 ] <= 4009.7
quadratic_ranged_81_ub: [ 1 x_31_ ^ 2 - 2 x_32_ * x_31_ + 1 x_32_ ^ 2 + 1 y_31_ ^ 2 - 2 y_32_ * y_31_ + 1 y_32_ ^ 2 ] <= 35880.25
quadratic_ranged_82_ub: [ 1 x_19_ ^ 2 - 2 x_33_ * x_19_ + 1 x_33_ ^ 2 + 1 y_19_ ^ 2 - 2 y_33_ * y_19_ + 1 y_33_ ^ 2 ] <= 5030.81
quadratic_ranged_83_ub: [ 1 x_20_ ^ 2 - 2 x_33_ * x_20_ + 1 x_33_ ^ 2 + 1 y_20_ ^ 2 - 2 y_33_ * y_20_ + 1 y_33_ ^ 2 ] <= 15362.1
quadratic_ranged_84_ub: [ 1 x_32_ ^ 2 - 2 x_33_ * x_32_ + 1 x_33_ ^ 2 + 1 y_32_ ^ 2 - 2 y_33_ * y_32_ + 1 y_33_ ^ 2 ] <= 15830.74
quadratic_ranged_85_ub: [ 1 x_1_ ^ 2 - 2 x_34_ * x_1_ + 1 x_34_ ^ 2 + 1 y_1_ ^ 2 - 2 y_34_ * y_1_ + 1 y_34_ ^ 2 ] <= 4282.4
quadratic_ranged_86_ub: [ 1 x_5_ ^ 2 - 2 x_34_ * x_5_ + 1 x_34_ ^ 2 + 1 y_5_ ^ 2 - 2 y_34_ * y_5_ + 1 y_34_ ^ 2 ] <= 14512.69
quadratic_ranged_87_ub: [ 1 x_33_ ^ 2 - 2 x_34_ * x_33_ + 1 x_34_ ^ 2 + 1 y_33_ ^ 2 - 2 y_34_ * y_33_ + 1 y_34_ ^ 2 ] <= 9584.9
quadratic_ranged_88_ub: [ 1 x_19_ ^ 2 - 2 x_35_ * x_19_ + 1 x_35_ ^ 2 + 1 y_19_ ^ 2 - 2 y_35_ * y_19_ + 1 y_35_ ^ 2 ] <= 13971.33
quadratic_ranged_89_ub: [ 1 x_28_ ^ 2 - 2 x_35_ * x_28_ + 1 x_35_ ^ 2 + 1 y_28_ ^ 2 - 2 y_35_ * y_28_ + 1 y_35_ ^ 2 ] <= 40.4
quadratic_ranged_90_ub: [ 1 x_31_ ^ 2 - 2 x_35_ * x_31_ + 1 x_35_ ^ 2 + 1 y_31_ ^ 2 - 2 y_35_ * y_31_ + 1 y_35_ ^ 2 ] <= 18108.29
quadratic_ranged_91_ub: [ 1 x_34_ ^ 2 - 2 x_35_ * x_34_ + 1 x_35_ ^ 2 + 1 y_34_ ^ 2 - 2 y_35_ * y_34_ + 1 y_35_ ^ 2 ] <= 4130.9
quadratic_ranged_92_ub: [ 1 x_10_ ^ 2 - 2 x_36_ * x_10_ + 1 x_36_ ^ 2 + 1 y_10_ ^ 2 - 2 y_36_ * y_10_ + 1 y_36_ ^ 2 ] <= 18900.13
quadratic_ranged_93_ub: [ 1 x_21_ ^ 2 - 2 x_36_ * x_21_ + 1 x_36_ ^ 2 + 1 y_21_ ^ 2 - 2 y_36_ * y_21_ + 1 y_36_ ^ 2 ] <= 23226.97
quadratic_ranged_94_ub: [ 1 x_22_ ^ 2 - 2 x_36_ * x_22_ + 1 x_36_ ^ 2 + 1 y_22_ ^ 2 - 2 y_36_ * y_22_ + 1 y_36_ ^ 2 ] <= 5127.77
quadratic_ranged_95_ub: [ 1 x_34_ ^ 2 - 2 x_36_ * x_34_ + 1 x_36_ ^ 2 + 1 y_34_ ^ 2 - 2 y_36_ * y_34_ + 1 y_36_ ^ 2 ] <= 12948.2
quadratic_ranged_96_ub: [ 1 x_35_ ^ 2 - 2 x_36_ * x_35_ + 1 x_36_ ^ 2 + 1 y_35_ ^ 2 - 2 y_36_ * y_35_ + 1 y_36_ ^ 2 ] <= 2579.54
quadratic_ranged_97_ub: [ 1 x_24_ ^ 2 - 2 x_37_ * x_24_ + 1 x_37_ ^ 2 + 1 y_24_ ^ 2 - 2 y_37_ * y_24_ + 1 y_37_ ^ 2 ] <= 585.8
quadratic_ranged_98_ub: [ 1 x_36_ ^ 2 - 2 x_37_ * x_36_ + 1 x_37_ ^ 2 + 1 y_36_ ^ 2 - 2 y_37_ * y_36_ + 1 y_37_ ^ 2 ] <= 10762.56
quadratic_ranged_99_ub: [ 1 x_5_ ^ 2 - 2 x_38_ * x_5_ + 1 x_38_ ^ 2 + 1 y_5_ ^ 2 - 2 y_38_ * y_5_ + 1 y_38_ ^ 2 ] <= 12694.69
quadratic_ranged_100_ub: [ 1 x_19_ ^ 2 - 2 x_38_ * x_19_ + 1 x_38_ ^ 2 + 1 y_19_ ^ 2 - 2 y_38_ * y_19_ + 1 y_38_ ^ 2 ] <= 13660.25
quadratic_ranged_101_ub: [ 1 x_21_ ^ 2 - 2 x_38_ * x_21_ + 1 x_38_ ^ 2 + 1 y_21_ ^ 2 - 2 y_38_ * y_21_ + 1 y_38_ ^ 2 ] <= 6925.57
quadratic_ranged_102_ub: [ 1 x_37_ ^ 2 - 2 x_38_ * x_37_ + 1 x_38_ ^ 2 + 1 y_37_ ^ 2 - 2 y_38_ * y_37_ + 1 y_38_ ^ 2 ] <= 9180.9
quadratic_ranged_103_ub: [ 1 x_3_ ^ 2 - 2 x_39_ * x_3_ + 1 x_39_ ^ 2 + 1 y_3_ ^ 2 - 2 y_39_ * y_3_ + 1 y_39_ ^ 2 ] <= 3015.86
quadratic_ranged_104_ub: [ 1 x_11_ ^ 2 - 2 x_39_ * x_11_ + 1 x_39_ ^ 2 + 1 y_11_ ^ 2 - 2 y_39_ * y_11_ + 1 y_39_ ^ 2 ] <= 3046.16
quadratic_ranged_105_ub: [ 1 x_14_ ^ 2 - 2 x_39_ * x_14_ + 1 x_39_ ^ 2 + 1 y_14_ ^ 2 - 2 y_39_ * y_14_ + 1 y_39_ ^ 2 ] <= 25801.46
quadratic_ranged_106_ub: [ 1 x_15_ ^ 2 - 2 x_39_ * x_15_ + 1 x_39_ ^ 2 + 1 y_15_ ^ 2 - 2 y_39_ * y_15_ + 1 y_39_ ^ 2 ] <= 971.62
quadratic_ranged_107_ub: [ 1 x_17_ ^ 2 - 2 x_39_ * x_17_ + 1 x_39_ ^ 2 + 1 y_17_ ^ 2 - 2 y_39_ * y_17_ + 1 y_39_ ^ 2 ] <= 26043.86
quadratic_ranged_108_ub: [ 1 x_21_ ^ 2 - 2 x_39_ * x_21_ + 1 x_39_ ^ 2 + 1 y_21_ ^ 2 - 2 y_39_ * y_21_ + 1 y_39_ ^ 2 ] <= 8227.460000000001
quadratic_ranged_109_ub: [ 1 x_31_ ^ 2 - 2 x_39_ * x_31_ + 1 x_39_ ^ 2 + 1 y_31_ ^ 2 - 2 y_39_ * y_31_ + 1 y_39_ ^ 2 ] <= 37097.3
quadratic_ranged_110_ub: [ 1 x_35_ ^ 2 - 2 x_39_ * x_35_ + 1 x_39_ ^ 2 + 1 y_35_ ^ 2 - 2 y_39_ * y_35_ + 1 y_39_ ^ 2 ] <= 3394.61
quadratic_ranged_111_ub: [ 1 x_38_ ^ 2 - 2 x_39_ * x_38_ + 1 x_39_ ^ 2 + 1 y_38_ ^ 2 - 2 y_39_ * y_38_ + 1 y_39_ ^ 2 ] <= 3237.05
quadratic_ranged_112_ub: [ 1 x_13_ ^ 2 - 2 x_40_ * x_13_ + 1 x_40_ ^ 2 + 1 y_13_ ^ 2 - 2 y_40_ * y_13_ + 1 y_40_ ^ 2 ] <= 30931.25
quadratic_ranged_113_ub: [ 1 x_32_ ^ 2 - 2 x_40_ * x_32_ + 1 x_40_ ^ 2 + 1 y_32_ ^ 2 - 2 y_40_ * y_32_ + 1 y_40_ ^ 2 ] <= 7648.7300000000005
quadratic_ranged_114_ub: [ 1 x_39_ ^ 2 - 2 x_40_ * x_39_ + 1 x_40_ ^ 2 + 1 y_39_ ^ 2 - 2 y_40_ * y_39_ + 1 y_40_ ^ 2 ] <= 10304.02
quadratic_ranged_115_ub: [ 1 x_14_ ^ 2 - 2 x_41_ * x_14_ + 1 x_41_ ^ 2 + 1 y_14_ ^ 2 - 2 y_41_ * y_14_ + 1 y_41_ ^ 2 ] <= 10731.25
quadratic_ranged_116_ub: [ 1 x_40_ ^ 2 - 2 x_41_ * x_40_ + 1 x_41_ ^ 2 + 1 y_40_ ^ 2 - 2 y_41_ * y_40_ + 1 y_41_ ^ 2 ] <= 13615.81
quadratic_ranged_117_ub: [ 1 x_20_ ^ 2 - 2 x_42_ * x_20_ + 1 x_42_ ^ 2 + 1 y_20_ ^ 2 - 2 y_42_ * y_20_ + 1 y_42_ ^ 2 ] <= 328.25
quadratic_ranged_118_ub: [ 1 x_21_ ^ 2 - 2 x_42_ * x_21_ + 1 x_42_ ^ 2 + 1 y_21_ ^ 2 - 2 y_42_ * y_21_ + 1 y_42_ ^ 2 ] <= 20850.44
quadratic_ranged_119_ub: [ 1 x_23_ ^ 2 - 2 x_42_ * x_23_ + 1 x_42_ ^ 2 + 1 y_23_ ^ 2 - 2 y_42_ * y_23_ + 1 y_42_ ^ 2 ] <= 11082.73
quadratic_ranged_120_ub: [ 1 x_41_ ^ 2 - 2 x_42_ * x_41_ + 1 x_42_ ^ 2 + 1 y_41_ ^ 2 - 2 y_42_ * y_41_ + 1 y_42_ ^ 2 ] <= 20556.53
quadratic_ranged_121_ub: [ 1 x_13_ ^ 2 - 2 x_43_ * x_13_ + 1 x_43_ ^ 2 + 1 y_13_ ^ 2 - 2 y_43_ * y_13_ + 1 y_43_ ^ 2 ] <= 2949.2
quadratic_ranged_122_ub: [ 1 x_19_ ^ 2 - 2 x_43_ * x_19_ + 1 x_43_ ^ 2 + 1 y_19_ ^ 2 - 2 y_43_ * y_19_ + 1 y_43_ ^ 2 ] <= 5519.65
quadratic_ranged_123_ub: [ 1 x_33_ ^ 2 - 2 x_43_ * x_33_ + 1 x_43_ ^ 2 + 1 y_33_ ^ 2 - 2 y_43_ * y_33_ + 1 y_43_ ^ 2 ] <= 21080.72
quadratic_ranged_124_ub: [ 1 x_38_ ^ 2 - 2 x_43_ * x_38_ + 1 x_43_ ^ 2 + 1 y_38_ ^ 2 - 2 y_43_ * y_38_ + 1 y_43_ ^ 2 ] <= 32631.08
quadratic_ranged_125_ub: [ 1 x_42_ ^ 2 - 2 x_43_ * x_42_ + 1 x_43_ ^ 2 + 1 y_42_ ^ 2 - 2 y_43_ * y_42_ + 1 y_43_ ^ 2 ] <= 3738.01
quadratic_ranged_126_ub: [ 1 x_10_ ^ 2 - 2 x_44_ * x_10_ + 1 x_44_ ^ 2 + 1 y_10_ ^ 2 - 2 y_44_ * y_10_ + 1 y_44_ ^ 2 ] <= 5536.82
quadratic_ranged_127_ub: [ 1 x_17_ ^ 2 - 2 x_44_ * x_17_ + 1 x_44_ ^ 2 + 1 y_17_ ^ 2 - 2 y_44_ * y_17_ + 1 y_44_ ^ 2 ] <= 2870.42
quadratic_ranged_128_ub: [ 1 x_39_ ^ 2 - 2 x_44_ * x_39_ + 1 x_44_ ^ 2 + 1 y_39_ ^ 2 - 2 y_44_ * y_39_ + 1 y_44_ ^ 2 ] <= 29593
quadratic_ranged_129_ub: [ 1 x_40_ ^ 2 - 2 x_44_ * x_40_ + 1 x_44_ ^ 2 + 1 y_40_ ^ 2 - 2 y_44_ * y_40_ + 1 y_44_ ^ 2 ] <= 14360.18
quadratic_ranged_130_ub: [ 1 x_43_ ^ 2 - 2 x_44_ * x_43_ + 1 x_44_ ^ 2 + 1 y_43_ ^ 2 - 2 y_44_ * y_43_ + 1 y_44_ ^ 2 ] <= 4606.61
quadratic_ranged_131_ub: [ 1 x_5_ ^ 2 - 2 x_45_ * x_5_ + 1 x_45_ ^ 2 + 1 y_5_ ^ 2 - 2 y_45_ * y_5_ + 1 y_45_ ^ 2 ] <= 18334.53
quadratic_ranged_132_ub: [ 1 x_8_ ^ 2 - 2 x_45_ * x_8_ + 1 x_45_ ^ 2 + 1 y_8_ ^ 2 - 2 y_45_ * y_8_ + 1 y_45_ ^ 2 ] <= 3022.93
quadratic_ranged_133_ub: [ 1 x_9_ ^ 2 - 2 x_45_ * x_9_ + 1 x_45_ ^ 2 + 1 y_9_ ^ 2 - 2 y_45_ * y_9_ + 1 y_45_ ^ 2 ] <= 3726.9
quadratic_ranged_134_ub: [ 1 x_24_ ^ 2 - 2 x_45_ * x_24_ + 1 x_45_ ^ 2 + 1 y_24_ ^ 2 - 2 y_45_ * y_24_ + 1 y_45_ ^ 2 ] <= 13681.460000000001
quadratic_ranged_135_ub: [ 1 x_44_ ^ 2 - 2 x_45_ * x_44_ + 1 x_45_ ^ 2 + 1 y_44_ ^ 2 - 2 y_45_ * y_44_ + 1 y_45_ ^ 2 ] <= 12064.45
quadratic_ranged_136_ub: [ 1 x_24_ ^ 2 - 2 x_46_ * x_24_ + 1 x_46_ ^ 2 + 1 y_24_ ^ 2 - 2 y_46_ * y_24_ + 1 y_46_ ^ 2 ] <= 4542.9800000000005
quadratic_ranged_137_ub: [ 1 x_45_ ^ 2 - 2 x_46_ * x_45_ + 1 x_46_ ^ 2 + 1 y_45_ ^ 2 - 2 y_46_ * y_45_ + 1 y_46_ ^ 2 ] <= 2472.48
quadratic_ranged_138_ub: [ 1 x_1_ ^ 2 - 2 x_47_ * x_1_ + 1 x_47_ ^ 2 + 1 y_1_ ^ 2 - 2 y_47_ * y_1_ + 1 y_47_ ^ 2 ] <= 4873.25
quadratic_ranged_139_ub: [ 1 x_9_ ^ 2 - 2 x_47_ * x_9_ + 1 x_47_ ^ 2 + 1 y_9_ ^ 2 - 2 y_47_ * y_9_ + 1 y_47_ ^ 2 ] <= 8751.65
quadratic_ranged_140_ub: [ 1 x_19_ ^ 2 - 2 x_47_ * x_19_ + 1 x_47_ ^ 2 + 1 y_19_ ^ 2 - 2 y_47_ * y_19_ + 1 y_47_ ^ 2 ] <= 16.16
quadratic_ranged_141_ub: [ 1 x_21_ ^ 2 - 2 x_47_ * x_21_ + 1 x_47_ ^ 2 + 1 y_21_ ^ 2 - 2 y_47_ * y_21_ + 1 y_47_ ^ 2 ] <= 27169
quadratic_ranged_142_ub: [ 1 x_43_ ^ 2 - 2 x_47_ * x_43_ + 1 x_47_ ^ 2 + 1 y_43_ ^ 2 - 2 y_47_ * y_43_ + 1 y_47_ ^ 2 ] <= 4986.37
quadratic_ranged_143_ub: [ 1 x_46_ ^ 2 - 2 x_47_ * x_46_ + 1 x_47_ ^ 2 + 1 y_46_ ^ 2 - 2 y_47_ * y_46_ + 1 y_47_ ^ 2 ] <= 7139.6900000000005
quadratic_ranged_144_ub: [ 1 x_7_ ^ 2 - 2 x_48_ * x_7_ + 1 x_48_ ^ 2 + 1 y_7_ ^ 2 - 2 y_48_ * y_7_ + 1 y_48_ ^ 2 ] <= 11814.98
quadratic_ranged_145_ub: [ 1 x_8_ ^ 2 - 2 x_48_ * x_8_ + 1 x_48_ ^ 2 + 1 y_8_ ^ 2 - 2 y_48_ * y_8_ + 1 y_48_ ^ 2 ] <= 13191.61
quadratic_ranged_146_ub: [ 1 x_21_ ^ 2 - 2 x_48_ * x_21_ + 1 x_48_ ^ 2 + 1 y_21_ ^ 2 - 2 y_48_ * y_21_ + 1 y_48_ ^ 2 ] <= 15607.53
quadratic_ranged_147_ub: [ 1 x_27_ ^ 2 - 2 x_48_ * x_27_ + 1 x_48_ ^ 2 + 1 y_27_ ^ 2 - 2 y_48_ * y_27_ + 1 y_48_ ^ 2 ] <= 3608.73
quadratic_ranged_148_ub: [ 1 x_29_ ^ 2 - 2 x_48_ * x_29_ + 1 x_48_ ^ 2 + 1 y_29_ ^ 2 - 2 y_48_ * y_29_ + 1 y_48_ ^ 2 ] <= 19897
quadratic_ranged_149_ub: [ 1 x_41_ ^ 2 - 2 x_48_ * x_41_ + 1 x_48_ ^ 2 + 1 y_41_ ^ 2 - 2 y_48_ * y_41_ + 1 y_48_ ^ 2 ] <= 13675.4
quadratic_ranged_150_ub: [ 1 x_43_ ^ 2 - 2 x_48_ * x_43_ + 1 x_48_ ^ 2 + 1 y_43_ ^ 2 - 2 y_48_ * y_43_ + 1 y_48_ ^ 2 ] <= 7276.04
quadratic_ranged_151_ub: [ 1 x_47_ ^ 2 - 2 x_48_ * x_47_ + 1 x_48_ ^ 2 + 1 y_47_ ^ 2 - 2 y_48_ * y_47_ + 1 y_48_ ^ 2 ] <= 1956.3700000000001
quadratic_ranged_152_ub: [ 1 x_6_ ^ 2 - 2 x_49_ * x_6_ + 1 x_49_ ^ 2 + 1 y_6_ ^ 2 - 2 y_49_ * y_6_ + 1 y_49_ ^ 2 ] <= 90.9
quadratic_ranged_153_ub: [ 1 x_13_ ^ 2 - 2 x_49_ * x_13_ + 1 x_49_ ^ 2 + 1 y_13_ ^ 2 - 2 y_49_ * y_13_ + 1 y_49_ ^ 2 ] <= 37112.45
quadratic_ranged_154_ub: [ 1 x_22_ ^ 2 - 2 x_49_ * x_22_ + 1 x_49_ ^ 2 + 1 y_22_ ^ 2 - 2 y_49_ * y_22_ + 1 y_49_ ^ 2 ] <= 11546.32
quadratic_ranged_155_ub: [ 1 x_27_ ^ 2 - 2 x_49_ * x_27_ + 1 x_49_ ^ 2 + 1 y_27_ ^ 2 - 2 y_49_ * y_27_ + 1 y_49_ ^ 2 ] <= 14612.68
quadratic_ranged_156_ub: [ 1 x_28_ ^ 2 - 2 x_49_ * x_28_ + 1 x_49_ ^ 2 + 1 y_28_ ^ 2 - 2 y_49_ * y_28_ + 1 y_49_ ^ 2 ] <= 2954.25
quadratic_ranged_157_ub: [ 1 x_47_ ^ 2 - 2 x_49_ * x_47_ + 1 x_49_ ^ 2 + 1 y_47_ ^ 2 - 2 y_49_ * y_47_ + 1 y_49_ ^ 2 ] <= 27942.66
quadratic_ranged_158_ub: [ 1 x_48_ ^ 2 - 2 x_49_ * x_48_ + 1 x_49_ ^ 2 + 1 y_48_ ^ 2 - 2 y_49_ * y_48_ + 1 y_49_ ^ 2 ] <= 25372.21
quadratic_ranged_159_ub: [ 1 x_24_ ^ 2 - 2 x_50_ * x_24_ + 1 x_50_ ^ 2 + 1 y_24_ ^ 2 - 2 y_50_ * y_24_ + 1 y_50_ ^ 2 ] <= 3886.48
quadratic_ranged_160_ub: [ 1 x_25_ ^ 2 - 2 x_50_ * x_25_ + 1 x_50_ ^ 2 + 1 y_25_ ^ 2 - 2 y_50_ * y_25_ + 1 y_50_ ^ 2 ] <= 14771.25
quadratic_ranged_161_ub: [ 1 x_27_ ^ 2 - 2 x_50_ * x_27_ + 1 x_50_ ^ 2 + 1 y_27_ ^ 2 - 2 y_50_ * y_27_ + 1 y_50_ ^ 2 ] <= 3115.85
quadratic_ranged_162_ub: [ 1 x_29_ ^ 2 - 2 x_50_ * x_29_ + 1 x_50_ ^ 2 + 1 y_29_ ^ 2 - 2 y_50_ * y_29_ + 1 y_50_ ^ 2 ] <= 3403.7
quadratic_ranged_163_ub: [ 1 x_33_ ^ 2 - 2 x_50_ * x_33_ + 1 x_50_ ^ 2 + 1 y_33_ ^ 2 - 2 y_50_ * y_33_ + 1 y_50_ ^ 2 ] <= 2474.5
quadratic_ranged_164_ub: [ 1 x_36_ ^ 2 - 2 x_50_ * x_36_ + 1 x_50_ ^ 2 + 1 y_36_ ^ 2 - 2 y_50_ * y_36_ + 1 y_50_ ^ 2 ] <= 3413.8
quadratic_ranged_165_ub: [ 1 x_38_ ^ 2 - 2 x_50_ * x_38_ + 1 x_50_ ^ 2 + 1 y_38_ ^ 2 - 2 y_50_ * y_38_ + 1 y_50_ ^ 2 ] <= 874.66
quadratic_ranged_166_ub: [ 1 x_42_ ^ 2 - 2 x_50_ * x_42_ + 1 x_50_ ^ 2 + 1 y_42_ ^ 2 - 2 y_50_ * y_42_ + 1 y_50_ ^ 2 ] <= 12630.05
quadratic_ranged_167_ub: [ 1 x_49_ ^ 2 - 2 x_50_ * x_49_ + 1 x_50_ ^ 2 + 1 y_49_ ^ 2 - 2 y_50_ * y_49_ + 1 y_50_ ^ 2 ] <= 5370.17
quadratic_ranged_168_ub: [ 1 x_7_ ^ 2 - 2 x_51_ * x_7_ + 1 x_51_ ^ 2 + 1 y_7_ ^ 2 - 2 y_51_ * y_7_ + 1 y_51_ ^ 2 ] <= 5576.21
quadratic_ranged_169_ub: [ 1 x_16_ ^ 2 - 2 x_51_ * x_16_ + 1 x_51_ ^ 2 + 1 y_16_ ^ 2 - 2 y_51_ * y_16_ + 1 y_51_ ^ 2 ] <= 25.25
quadratic_ranged_170_ub: [ 1 x_28_ ^ 2 - 2 x_51_ * x_28_ + 1 x_51_ ^ 2 + 1 y_28_ ^ 2 - 2 y_51_ * y_28_ + 1 y_51_ ^ 2 ] <= 16480.170000000002
quadratic_ranged_171_ub: [ 1 x_35_ ^ 2 - 2 x_51_ * x_35_ + 1 x_51_ ^ 2 + 1 y_35_ ^ 2 - 2 y_51_ * y_35_ + 1 y_51_ ^ 2 ] <= 15757.01
quadratic_ranged_172_ub: [ 1 x_50_ ^ 2 - 2 x_51_ * x_50_ + 1 x_51_ ^ 2 + 1 y_50_ ^ 2 - 2 y_51_ * y_50_ + 1 y_51_ ^ 2 ] <= 13611.77
quadratic_ranged_173_ub: [ 1 x_20_ ^ 2 - 2 x_52_ * x_20_ + 1 x_52_ ^ 2 + 1 y_20_ ^ 2 - 2 y_52_ * y_20_ + 1 y_52_ ^ 2 ] <= 10602.98
quadratic_ranged_174_ub: [ 1 x_40_ ^ 2 - 2 x_52_ * x_40_ + 1 x_52_ ^ 2 + 1 y_40_ ^ 2 - 2 y_52_ * y_40_ + 1 y_52_ ^ 2 ] <= 1338.25
quadratic_ranged_175_ub: [ 1 x_49_ ^ 2 - 2 x_52_ * x_49_ + 1 x_52_ ^ 2 + 1 y_49_ ^ 2 - 2 y_52_ * y_49_ + 1 y_52_ ^ 2 ] <= 22487.65
quadratic_ranged_176_ub: [ 1 x_51_ ^ 2 - 2 x_52_ * x_51_ + 1 x_52_ ^ 2 + 1 y_51_ ^ 2 - 2 y_52_ * y_51_ + 1 y_52_ ^ 2 ] <= 817.09
quadratic_ranged_177_ub: [ 1 x_4_ ^ 2 - 2 x_53_ * x_4_ + 1 x_53_ ^ 2 + 1 y_4_ ^ 2 - 2 y_53_ * y_4_ + 1 y_53_ ^ 2 ] <= 17134.65
quadratic_ranged_178_ub: [ 1 x_11_ ^ 2 - 2 x_53_ * x_11_ + 1 x_53_ ^ 2 + 1 y_11_ ^ 2 - 2 y_53_ * y_11_ + 1 y_53_ ^ 2 ] <= 5631.76
quadratic_ranged_179_ub: [ 1 x_14_ ^ 2 - 2 x_53_ * x_14_ + 1 x_53_ ^ 2 + 1 y_14_ ^ 2 - 2 y_53_ * y_14_ + 1 y_53_ ^ 2 ] <= 24629.86
quadratic_ranged_180_ub: [ 1 x_19_ ^ 2 - 2 x_53_ * x_19_ + 1 x_53_ ^ 2 + 1 y_19_ ^ 2 - 2 y_53_ * y_19_ + 1 y_53_ ^ 2 ] <= 33986.5
quadratic_ranged_181_ub: [ 1 x_31_ ^ 2 - 2 x_53_ * x_31_ + 1 x_53_ ^ 2 + 1 y_31_ ^ 2 - 2 y_53_ * y_31_ + 1 y_53_ ^ 2 ] <= 40046.5
quadratic_ranged_182_ub: [ 1 x_33_ ^ 2 - 2 x_53_ * x_33_ + 1 x_53_ ^ 2 + 1 y_33_ ^ 2 - 2 y_53_ * y_33_ + 1 y_53_ ^ 2 ] <= 17227.57
quadratic_ranged_183_ub: [ 1 x_40_ ^ 2 - 2 x_53_ * x_40_ + 1 x_53_ ^ 2 + 1 y_40_ ^ 2 - 2 y_53_ * y_40_ + 1 y_53_ ^ 2 ] <= 14788.42
quadratic_ranged_184_ub: [ 1 x_47_ ^ 2 - 2 x_53_ * x_47_ + 1 x_53_ ^ 2 + 1 y_47_ ^ 2 - 2 y_53_ * y_47_ + 1 y_53_ ^ 2 ] <= 34867.22
quadratic_ranged_185_ub: [ 1 x_49_ ^ 2 - 2 x_53_ * x_49_ + 1 x_53_ ^ 2 + 1 y_49_ ^ 2 - 2 y_53_ * y_49_ + 1 y_53_ ^ 2 ] <= 2282.6
quadratic_ranged_186_ub: [ 1 x_52_ ^ 2 - 2 x_53_ * x_52_ + 1 x_53_ ^ 2 + 1 y_52_ ^ 2 - 2 y_53_ * y_52_ + 1 y_53_ ^ 2 ] <= 18641.57
quadratic_ranged_187_ub: [ 1 x_12_ ^ 2 - 2 x_54_ * x_12_ + 1 x_54_ ^ 2 + 1 y_12_ ^ 2 - 2 y_54_ * y_12_ + 1 y_54_ ^ 2 ] <= 12314.93
quadratic_ranged_188_ub: [ 1 x_13_ ^ 2 - 2 x_54_ * x_13_ + 1 x_54_ ^ 2 + 1 y_13_ ^ 2 - 2 y_54_ * y_13_ + 1 y_54_ ^ 2 ] <= 925.16
quadratic_ranged_189_ub: [ 1 x_16_ ^ 2 - 2 x_54_ * x_16_ + 1 x_54_ ^ 2 + 1 y_16_ ^ 2 - 2 y_54_ * y_16_ + 1 y_54_ ^ 2 ] <= 11267.56
quadratic_ranged_190_ub: [ 1 x_23_ ^ 2 - 2 x_54_ * x_23_ + 1 x_54_ ^ 2 + 1 y_23_ ^ 2 - 2 y_54_ * y_23_ + 1 y_54_ ^ 2 ] <= 14958.1
quadratic_ranged_191_ub: [ 1 x_25_ ^ 2 - 2 x_54_ * x_25_ + 1 x_54_ ^ 2 + 1 y_25_ ^ 2 - 2 y_54_ * y_25_ + 1 y_54_ ^ 2 ] <= 25263.13
quadratic_ranged_192_ub: [ 1 x_29_ ^ 2 - 2 x_54_ * x_29_ + 1 x_54_ ^ 2 + 1 y_29_ ^ 2 - 2 y_54_ * y_29_ + 1 y_54_ ^ 2 ] <= 26716.52
quadratic_ranged_193_ub: [ 1 x_30_ ^ 2 - 2 x_54_ * x_30_ + 1 x_54_ ^ 2 + 1 y_30_ ^ 2 - 2 y_54_ * y_30_ + 1 y_54_ ^ 2 ] <= 5534.8
quadratic_ranged_194_ub: [ 1 x_41_ ^ 2 - 2 x_54_ * x_41_ + 1 x_54_ ^ 2 + 1 y_41_ ^ 2 - 2 y_54_ * y_41_ + 1 y_54_ ^ 2 ] <= 18394.12
quadratic_ranged_195_ub: [ 1 x_53_ ^ 2 - 2 x_54_ * x_53_ + 1 x_54_ ^ 2 + 1 y_53_ ^ 2 - 2 y_54_ * y_53_ + 1 y_54_ ^ 2 ] <= 37310.41
quadratic_ranged_196_ub: [ 1 x_22_ ^ 2 - 2 x_55_ * x_22_ + 1 x_55_ ^ 2 + 1 y_22_ ^ 2 - 2 y_55_ * y_22_ + 1 y_55_ ^ 2 ] <= 413.09000000000003
quadratic_ranged_197_ub: [ 1 x_28_ ^ 2 - 2 x_55_ * x_28_ + 1 x_55_ ^ 2 + 1 y_28_ ^ 2 - 2 y_55_ * y_28_ + 1 y_55_ ^ 2 ] <= 12948.2
quadratic_ranged_198_ub: [ 1 x_30_ ^ 2 - 2 x_55_ * x_30_ + 1 x_55_ ^ 2 + 1 y_30_ ^ 2 - 2 y_55_ * y_30_ + 1 y_55_ ^ 2 ] <= 36671.08
quadratic_ranged_199_ub: [ 1 x_31_ ^ 2 - 2 x_55_ * x_31_ + 1 x_55_ ^ 2 + 1 y_31_ ^ 2 - 2 y_55_ * y_31_ + 1 y_55_ ^ 2 ] <= 7248.77
quadratic_ranged_200_ub: [ 1 x_40_ ^ 2 - 2 x_55_ * x_40_ + 1 x_55_ ^ 2 + 1 y_40_ ^ 2 - 2 y_55_ * y_40_ + 1 y_55_ ^ 2 ] <= 43879.45
quadratic_ranged_201_ub: [ 1 x_46_ ^ 2 - 2 x_55_ * x_46_ + 1 x_55_ ^ 2 + 1 y_46_ ^ 2 - 2 y_55_ * y_46_ + 1 y_55_ ^ 2 ] <= 14838.92
quadratic_ranged_202_ub: [ 1 x_54_ ^ 2 - 2 x_55_ * x_54_ + 1 x_55_ ^ 2 + 1 y_54_ ^ 2 - 2 y_55_ * y_54_ + 1 y_55_ ^ 2 ] <= 16616.52
quadratic_ranged_203_ub: [ 1 x_5_ ^ 2 - 2 x_56_ * x_5_ + 1 x_56_ ^ 2 + 1 y_5_ ^ 2 - 2 y_56_ * y_5_ + 1 y_56_ ^ 2 ] <= 6581.16
quadratic_ranged_204_ub: [ 1 x_10_ ^ 2 - 2 x_56_ * x_10_ + 1 x_56_ ^ 2 + 1 y_10_ ^ 2 - 2 y_56_ * y_10_ + 1 y_56_ ^ 2 ] <= 19062.74
quadratic_ranged_205_ub: [ 1 x_12_ ^ 2 - 2 x_56_ * x_12_ + 1 x_56_ ^ 2 + 1 y_12_ ^ 2 - 2 y_56_ * y_12_ + 1 y_56_ ^ 2 ] <= 27124.56
quadratic_ranged_206_ub: [ 1 x_34_ ^ 2 - 2 x_56_ * x_34_ + 1 x_56_ ^ 2 + 1 y_34_ ^ 2 - 2 y_56_ * y_34_ + 1 y_56_ ^ 2 ] <= 13615.81
quadratic_ranged_207_ub: [ 1 x_38_ ^ 2 - 2 x_56_ * x_38_ + 1 x_56_ ^ 2 + 1 y_38_ ^ 2 - 2 y_56_ * y_38_ + 1 y_56_ ^ 2 ] <= 6452.89
quadratic_ranged_208_ub: [ 1 x_39_ ^ 2 - 2 x_56_ * x_39_ + 1 x_56_ ^ 2 + 1 y_39_ ^ 2 - 2 y_56_ * y_39_ + 1 y_56_ ^ 2 ] <= 11413
quadratic_ranged_209_ub: [ 1 x_45_ ^ 2 - 2 x_56_ * x_45_ + 1 x_56_ ^ 2 + 1 y_45_ ^ 2 - 2 y_56_ * y_45_ + 1 y_56_ ^ 2 ] <= 13789.53
quadratic_ranged_210_ub: [ 1 x_52_ ^ 2 - 2 x_56_ * x_52_ + 1 x_56_ ^ 2 + 1 y_52_ ^ 2 - 2 y_56_ * y_52_ + 1 y_56_ ^ 2 ] <= 22536.13
quadratic_ranged_211_ub: [ 1 x_53_ ^ 2 - 2 x_56_ * x_53_ + 1 x_56_ ^ 2 + 1 y_53_ ^ 2 - 2 y_56_ * y_53_ + 1 y_56_ ^ 2 ] <= 10928.2
quadratic_ranged_212_ub: [ 1 x_55_ ^ 2 - 2 x_56_ * x_55_ + 1 x_56_ ^ 2 + 1 y_55_ ^ 2 - 2 y_56_ * y_55_ + 1 y_56_ ^ 2 ] <= 4400.57
quadratic_ranged_213_ub: [ 1 x_14_ ^ 2 - 2 x_57_ * x_14_ + 1 x_57_ ^ 2 + 1 y_14_ ^ 2 - 2 y_57_ * y_14_ + 1 y_57_ ^ 2 ] <= 1782.65
quadratic_ranged_214_ub: [ 1 x_54_ ^ 2 - 2 x_57_ * x_54_ + 1 x_57_ ^ 2 + 1 y_54_ ^ 2 - 2 y_57_ * y_54_ + 1 y_57_ ^ 2 ] <= 10609.04
quadratic_ranged_215_ub: [ 1 x_56_ ^ 2 - 2 x_57_ * x_56_ + 1 x_57_ ^ 2 + 1 y_56_ ^ 2 - 2 y_57_ * y_56_ + 1 y_57_ ^ 2 ] <= 3362.29
quadratic_ranged_216_ub: [ 1 x_23_ ^ 2 - 2 x_58_ * x_23_ + 1 x_58_ ^ 2 + 1 y_23_ ^ 2 - 2 y_58_ * y_23_ + 1 y_58_ ^ 2 ] <= 5353
quadratic_ranged_217_ub: [ 1 x_38_ ^ 2 - 2 x_58_ * x_38_ + 1 x_58_ ^ 2 + 1 y_38_ ^ 2 - 2 y_58_ * y_38_ + 1 y_58_ ^ 2 ] <= 9528.34
quadratic_ranged_218_ub: [ 1 x_40_ ^ 2 - 2 x_58_ * x_40_ + 1 x_58_ ^ 2 + 1 y_40_ ^ 2 - 2 y_58_ * y_40_ + 1 y_58_ ^ 2 ] <= 8840.53
quadratic_ranged_219_ub: [ 1 x_57_ ^ 2 - 2 x_58_ * x_57_ + 1 x_58_ ^ 2 + 1 y_57_ ^ 2 - 2 y_58_ * y_57_ + 1 y_58_ ^ 2 ] <= 17365.94
quadratic_ranged_220_ub: [ 1 x_8_ ^ 2 - 2 x_59_ * x_8_ + 1 x_59_ ^ 2 + 1 y_8_ ^ 2 - 2 y_59_ * y_8_ + 1 y_59_ ^ 2 ] <= 656.5
quadratic_ranged_221_ub: [ 1 x_37_ ^ 2 - 2 x_59_ * x_37_ + 1 x_59_ ^ 2 + 1 y_37_ ^ 2 - 2 y_59_ * y_37_ + 1 y_59_ ^ 2 ] <= 6400.37
quadratic_ranged_222_ub: [ 1 x_45_ ^ 2 - 2 x_59_ * x_45_ + 1 x_59_ ^ 2 + 1 y_45_ ^ 2 - 2 y_59_ * y_45_ + 1 y_59_ ^ 2 ] <= 4012.73
quadratic_ranged_223_ub: [ 1 x_58_ ^ 2 - 2 x_59_ * x_58_ + 1 x_59_ ^ 2 + 1 y_58_ ^ 2 - 2 y_59_ * y_58_ + 1 y_59_ ^ 2 ] <= 10731.25
quadratic_ranged_224_ub: [ 1 x_4_ ^ 2 - 2 x_60_ * x_4_ + 1 x_60_ ^ 2 + 1 y_4_ ^ 2 - 2 y_60_ * y_4_ + 1 y_60_ ^ 2 ] <= 27723.49
quadratic_ranged_225_ub: [ 1 x_19_ ^ 2 - 2 x_60_ * x_19_ + 1 x_60_ ^ 2 + 1 y_19_ ^ 2 - 2 y_60_ * y_19_ + 1 y_60_ ^ 2 ] <= 1294.82
quadratic_ranged_226_ub: [ 1 x_40_ ^ 2 - 2 x_60_ * x_40_ + 1 x_60_ ^ 2 + 1 y_40_ ^ 2 - 2 y_60_ * y_40_ + 1 y_60_ ^ 2 ] <= 32879.54
quadratic_ranged_227_ub: [ 1 x_43_ ^ 2 - 2 x_60_ * x_43_ + 1 x_60_ ^ 2 + 1 y_43_ ^ 2 - 2 y_60_ * y_43_ + 1 y_60_ ^ 2 ] <= 8000.21
quadratic_ranged_228_ub: [ 1 x_52_ ^ 2 - 2 x_60_ * x_52_ + 1 x_60_ ^ 2 + 1 y_52_ ^ 2 - 2 y_60_ * y_52_ + 1 y_60_ ^ 2 ] <= 22410.89
quadratic_ranged_229_ub: [ 1 x_59_ ^ 2 - 2 x_60_ * x_59_ + 1 x_60_ ^ 2 + 1 y_59_ ^ 2 - 2 y_60_ * y_59_ + 1 y_60_ ^ 2 ] <= 14548.04
quadratic_ranged_230_ub: [ 1 x_1_ ^ 2 - 2 x_61_ * x_1_ + 1 x_61_ ^ 2 + 1 y_1_ ^ 2 - 2 y_61_ * y_1_ + 1 y_61_ ^ 2 ] <= 489.85
quadratic_ranged_231_ub: [ 1 x_2_ ^ 2 - 2 x_61_ * x_2_ + 1 x_61_ ^ 2 + 1 y_2_ ^ 2 - 2 y_61_ * y_2_ + 1 y_61_ ^ 2 ] <= 6181.2
quadratic_ranged_232_ub: [ 1 x_5_ ^ 2 - 2 x_61_ * x_5_ + 1 x_61_ ^ 2 + 1 y_5_ ^ 2 - 2 y_61_ * y_5_ + 1 y_61_ ^ 2 ] <= 16891.24
quadratic_ranged_233_ub: [ 1 x_11_ ^ 2 - 2 x_61_ * x_11_ + 1 x_61_ ^ 2 + 1 y_11_ ^ 2 - 2 y_61_ * y_11_ + 1 y_61_ ^ 2 ] <= 15388.36
quadratic_ranged_234_ub: [ 1 x_21_ ^ 2 - 2 x_61_ * x_21_ + 1 x_61_ ^ 2 + 1 y_21_ ^ 2 - 2 y_61_ * y_21_ + 1 y_61_ ^ 2 ] <= 14651.06
quadratic_ranged_235_ub: [ 1 x_28_ ^ 2 - 2 x_61_ * x_28_ + 1 x_61_ ^ 2 + 1 y_28_ ^ 2 - 2 y_61_ * y_28_ + 1 y_61_ ^ 2 ] <= 19199.09
quadratic_ranged_236_ub: [ 1 x_35_ ^ 2 - 2 x_61_ * x_35_ + 1 x_61_ ^ 2 + 1 y_35_ ^ 2 - 2 y_61_ * y_35_ + 1 y_61_ ^ 2 ] <= 19033.45
quadratic_ranged_237_ub: [ 1 x_60_ ^ 2 - 2 x_61_ * x_60_ + 1 x_61_ ^ 2 + 1 y_60_ ^ 2 - 2 y_61_ * y_60_ + 1 y_61_ ^ 2 ] <= 14612.68
quadratic_ranged_238_ub: [ 1 x_2_ ^ 2 - 2 x_62_ * x_2_ + 1 x_62_ ^ 2 + 1 y_2_ ^ 2 - 2 y_62_ * y_2_ + 1 y_62_ ^ 2 ] <= 25825.7
quadratic_ranged_239_ub: [ 1 x_9_ ^ 2 - 2 x_62_ * x_9_ + 1 x_62_ ^ 2 + 1 y_9_ ^ 2 - 2 y_62_ * y_9_ + 1 y_62_ ^ 2 ] <= 2004.85
quadratic_ranged_240_ub: [ 1 x_15_ ^ 2 - 2 x_62_ * x_15_ + 1 x_62_ ^ 2 + 1 y_15_ ^ 2 - 2 y_62_ * y_15_ + 1 y_62_ ^ 2 ] <= 17614.4
quadratic_ranged_241_ub: [ 1 x_21_ ^ 2 - 2 x_62_ * x_21_ + 1 x_62_ ^ 2 + 1 y_21_ ^ 2 - 2 y_62_ * y_21_ + 1 y_62_ ^ 2 ] <= 22817.920000000002
quadratic_ranged_242_ub: [ 1 x_42_ ^ 2 - 2 x_62_ * x_42_ + 1 x_62_ ^ 2 + 1 y_42_ ^ 2 - 2 y_62_ * y_42_ + 1 y_62_ ^ 2 ] <= 10928.2
quadratic_ranged_243_ub: [ 1 x_46_ ^ 2 - 2 x_62_ * x_46_ + 1 x_62_ ^ 2 + 1 y_46_ ^ 2 - 2 y_62_ * y_46_ + 1 y_62_ ^ 2 ] <= 3022.93
quadratic_ranged_244_ub: [ 1 x_56_ ^ 2 - 2 x_62_ * x_56_ + 1 x_62_ ^ 2 + 1 y_56_ ^ 2 - 2 y_62_ * y_56_ + 1 y_62_ ^ 2 ] <= 2522.98
quadratic_ranged_245_ub: [ 1 x_60_ ^ 2 - 2 x_62_ * x_60_ + 1 x_62_ ^ 2 + 1 y_60_ ^ 2 - 2 y_62_ * y_60_ + 1 y_62_ ^ 2 ] <= 4979.3
quadratic_ranged_246_ub: [ 1 x_61_ ^ 2 - 2 x_62_ * x_61_ + 1 x_62_ ^ 2 + 1 y_61_ ^ 2 - 2 y_62_ * y_61_ + 1 y_62_ ^ 2 ] <= 16250.9
quadratic_ranged_247_ub: [ 1 x_23_ ^ 2 - 2 x_63_ * x_23_ + 1 x_63_ ^ 2 + 1 y_23_ ^ 2 - 2 y_63_ * y_23_ + 1 y_63_ ^ 2 ] <= 15821.65
quadratic_ranged_248_ub: [ 1 x_25_ ^ 2 - 2 x_63_ * x_25_ + 1 x_63_ ^ 2 + 1 y_25_ ^ 2 - 2 y_63_ * y_25_ + 1 y_63_ ^ 2 ] <= 21347.36
quadratic_ranged_249_ub: [ 1 x_27_ ^ 2 - 2 x_63_ * x_27_ + 1 x_63_ ^ 2 + 1 y_27_ ^ 2 - 2 y_63_ * y_27_ + 1 y_63_ ^ 2 ] <= 20854.48
quadratic_ranged_250_ub: [ 1 x_46_ ^ 2 - 2 x_63_ * x_46_ + 1 x_63_ ^ 2 + 1 y_46_ ^ 2 - 2 y_63_ * y_46_ + 1 y_63_ ^ 2 ] <= 11696.81
quadratic_ranged_251_ub: [ 1 x_50_ ^ 2 - 2 x_63_ * x_50_ + 1 x_63_ ^ 2 + 1 y_50_ ^ 2 - 2 y_63_ * y_50_ + 1 y_63_ ^ 2 ] <= 8169.89
quadratic_ranged_252_ub: [ 1 x_54_ ^ 2 - 2 x_63_ * x_54_ + 1 x_63_ ^ 2 + 1 y_54_ ^ 2 - 2 y_63_ * y_54_ + 1 y_63_ ^ 2 ] <= 38191.13
quadratic_ranged_253_ub: [ 1 x_57_ ^ 2 - 2 x_63_ * x_57_ + 1 x_63_ ^ 2 + 1 y_57_ ^ 2 - 2 y_63_ * y_57_ + 1 y_63_ ^ 2 ] <= 23360.29
quadratic_ranged_254_ub: [ 1 x_62_ ^ 2 - 2 x_63_ * x_62_ + 1 x_63_ ^ 2 + 1 y_62_ ^ 2 - 2 y_63_ * y_62_ + 1 y_63_ ^ 2 ] <= 16178.18
quadratic_ranged_255_ub: [ 1 x_2_ ^ 2 - 2 x_64_ * x_2_ + 1 x_64_ ^ 2 + 1 y_2_ ^ 2 - 2 y_64_ * y_2_ + 1 y_64_ ^ 2 ] <= 45758.05
quadratic_ranged_256_ub: [ 1 x_61_ ^ 2 - 2 x_64_ * x_61_ + 1 x_64_ ^ 2 + 1 y_61_ ^ 2 - 2 y_64_ * y_61_ + 1 y_64_ ^ 2 ] <= 34498.57
quadratic_ranged_257_ub: [ 1 x_63_ ^ 2 - 2 x_64_ * x_63_ + 1 x_64_ ^ 2 + 1 y_63_ ^ 2 - 2 y_64_ * y_63_ + 1 y_64_ ^ 2 ] <= 16548.85
quadratic_ranged_258_ub: [ 1 x_30_ ^ 2 - 2 x_65_ * x_30_ + 1 x_65_ ^ 2 + 1 y_30_ ^ 2 - 2 y_65_ * y_30_ + 1 y_65_ ^ 2 ] <= 4435.92
quadratic_ranged_259_ub: [ 1 x_38_ ^ 2 - 2 x_65_ * x_38_ + 1 x_65_ ^ 2 + 1 y_38_ ^ 2 - 2 y_65_ * y_38_ + 1 y_65_ ^ 2 ] <= 27310.4
quadratic_ranged_260_ub: [ 1 x_53_ ^ 2 - 2 x_65_ * x_53_ + 1 x_65_ ^ 2 + 1 y_53_ ^ 2 - 2 y_65_ * y_53_ + 1 y_65_ ^ 2 ] <= 55595.45
quadratic_ranged_261_ub: [ 1 x_64_ ^ 2 - 2 x_65_ * x_64_ + 1 x_65_ ^ 2 + 1 y_64_ ^ 2 - 2 y_65_ * y_64_ + 1 y_65_ ^ 2 ] <= 36024.68
quadratic_ranged_262_ub: [ 1 x_19_ ^ 2 - 2 x_66_ * x_19_ + 1 x_66_ ^ 2 + 1 y_19_ ^ 2 - 2 y_66_ * y_19_ + 1 y_66_ ^ 2 ] <= 4372.29
quadratic_ranged_263_ub: [ 1 x_30_ ^ 2 - 2 x_66_ * x_30_ + 1 x_66_ ^ 2 + 1 y_30_ ^ 2 - 2 y_66_ * y_30_ + 1 y_66_ ^ 2 ] <= 517.12
quadratic_ranged_264_ub: [ 1 x_34_ ^ 2 - 2 x_66_ * x_34_ + 1 x_66_ ^ 2 + 1 y_34_ ^ 2 - 2 y_66_ * y_34_ + 1 y_66_ ^ 2 ] <= 6797.3
quadratic_ranged_265_ub: [ 1 x_43_ ^ 2 - 2 x_66_ * x_43_ + 1 x_66_ ^ 2 + 1 y_43_ ^ 2 - 2 y_66_ * y_43_ + 1 y_66_ ^ 2 ] <= 5934.76
quadratic_ranged_266_ub: [ 1 x_46_ ^ 2 - 2 x_66_ * x_46_ + 1 x_66_ ^ 2 + 1 y_46_ ^ 2 - 2 y_66_ * y_46_ + 1 y_66_ ^ 2 ] <= 7700.24
quadratic_ranged_267_ub: [ 1 x_54_ ^ 2 - 2 x_66_ * x_54_ + 1 x_66_ ^ 2 + 1 y_54_ ^ 2 - 2 y_66_ * y_54_ + 1 y_66_ ^ 2 ] <= 2690.64
quadratic_ranged_268_ub: [ 1 x_58_ ^ 2 - 2 x_66_ * x_58_ + 1 x_66_ ^ 2 + 1 y_58_ ^ 2 - 2 y_66_ * y_58_ + 1 y_66_ ^ 2 ] <= 414.1
quadratic_ranged_269_ub: [ 1 x_65_ ^ 2 - 2 x_66_ * x_65_ + 1 x_66_ ^ 2 + 1 y_65_ ^ 2 - 2 y_66_ * y_65_ + 1 y_66_ ^ 2 ] <= 3013.84
quadratic_ranged_270_ub: [ 1 x_8_ ^ 2 - 2 x_67_ * x_8_ + 1 x_67_ ^ 2 + 1 y_8_ ^ 2 - 2 y_67_ * y_8_ + 1 y_67_ ^ 2 ] <= 1701.85
quadratic_ranged_271_ub: [ 1 x_22_ ^ 2 - 2 x_67_ * x_22_ + 1 x_67_ ^ 2 + 1 y_22_ ^ 2 - 2 y_67_ * y_22_ + 1 y_67_ ^ 2 ] <= 17078.09
quadratic_ranged_272_ub: [ 1 x_26_ ^ 2 - 2 x_67_ * x_26_ + 1 x_67_ ^ 2 + 1 y_26_ ^ 2 - 2 y_67_ * y_26_ + 1 y_67_ ^ 2 ] <= 6144.84
quadratic_ranged_273_ub: [ 1 x_49_ ^ 2 - 2 x_67_ * x_49_ + 1 x_67_ ^ 2 + 1 y_49_ ^ 2 - 2 y_67_ * y_49_ + 1 y_67_ ^ 2 ] <= 873.65
quadratic_ranged_274_ub: [ 1 x_54_ ^ 2 - 2 x_67_ * x_54_ + 1 x_67_ ^ 2 + 1 y_54_ ^ 2 - 2 y_67_ * y_54_ + 1 y_67_ ^ 2 ] <= 32069.52
quadratic_ranged_275_ub: [ 1 x_65_ ^ 2 - 2 x_67_ * x_65_ + 1 x_67_ ^ 2 + 1 y_65_ ^ 2 - 2 y_67_ * y_65_ + 1 y_67_ ^ 2 ] <= 50136.4
quadratic_ranged_276_ub: [ 1 x_66_ ^ 2 - 2 x_67_ * x_66_ + 1 x_67_ ^ 2 + 1 y_66_ ^ 2 - 2 y_67_ * y_66_ + 1 y_67_ ^ 2 ] <= 31705.920000000002
quadratic_ranged_277_ub: [ 1 x_18_ ^ 2 - 2 x_68_ * x_18_ + 1 x_68_ ^ 2 + 1 y_18_ ^ 2 - 2 y_68_ * y_18_ + 1 y_68_ ^ 2 ] <= 15873.16
quadratic_ranged_278_ub: [ 1 x_23_ ^ 2 - 2 x_68_ * x_23_ + 1 x_68_ ^ 2 + 1 y_23_ ^ 2 - 2 y_68_ * y_23_ + 1 y_68_ ^ 2 ] <= 7919.41
quadratic_ranged_279_ub: [ 1 x_35_ ^ 2 - 2 x_68_ * x_35_ + 1 x_68_ ^ 2 + 1 y_35_ ^ 2 - 2 y_68_ * y_35_ + 1 y_68_ ^ 2 ] <= 16152.93
quadratic_ranged_280_ub: [ 1 x_39_ ^ 2 - 2 x_68_ * x_39_ + 1 x_68_ ^ 2 + 1 y_39_ ^ 2 - 2 y_68_ * y_39_ + 1 y_68_ ^ 2 ] <= 28522.4
quadratic_ranged_281_ub: [ 1 x_43_ ^ 2 - 2 x_68_ * x_43_ + 1 x_68_ ^ 2 + 1 y_43_ ^ 2 - 2 y_68_ * y_43_ + 1 y_68_ ^ 2 ] <= 6065.05
quadratic_ranged_282_ub: [ 1 x_58_ ^ 2 - 2 x_68_ * x_58_ + 1 x_68_ ^ 2 + 1 y_58_ ^ 2 - 2 y_68_ * y_58_ + 1 y_68_ ^ 2 ] <= 320.17
quadratic_ranged_283_ub: [ 1 x_60_ ^ 2 - 2 x_68_ * x_60_ + 1 x_68_ ^ 2 + 1 y_60_ ^ 2 - 2 y_68_ * y_60_ + 1 y_68_ ^ 2 ] <= 9930.32
quadratic_ranged_284_ub: [ 1 x_67_ ^ 2 - 2 x_68_ * x_67_ + 1 x_68_ ^ 2 + 1 y_67_ ^ 2 - 2 y_68_ * y_67_ + 1 y_68_ ^ 2 ] <= 30769.65
quadratic_ranged_285_ub: [ 1 x_7_ ^ 2 - 2 x_69_ * x_7_ + 1 x_69_ ^ 2 + 1 y_7_ ^ 2 - 2 y_69_ * y_7_ + 1 y_69_ ^ 2 ] <= 13261.3
quadratic_ranged_286_ub: [ 1 x_14_ ^ 2 - 2 x_69_ * x_14_ + 1 x_69_ ^ 2 + 1 y_14_ ^ 2 - 2 y_69_ * y_14_ + 1 y_69_ ^ 2 ] <= 18980.93
quadratic_ranged_287_ub: [ 1 x_35_ ^ 2 - 2 x_69_ * x_35_ + 1 x_69_ ^ 2 + 1 y_35_ ^ 2 - 2 y_69_ * y_35_ + 1 y_69_ ^ 2 ] <= 10027.28
quadratic_ranged_288_ub: [ 1 x_59_ ^ 2 - 2 x_69_ * x_59_ + 1 x_69_ ^ 2 + 1 y_59_ ^ 2 - 2 y_69_ * y_59_ + 1 y_69_ ^ 2 ] <= 8206.25
quadratic_ranged_289_ub: [ 1 x_68_ ^ 2 - 2 x_69_ * x_68_ + 1 x_69_ ^ 2 + 1 y_68_ ^ 2 - 2 y_69_ * y_68_ + 1 y_69_ ^ 2 ] <= 1734.17
quadratic_ranged_290_ub: [ 1 x_11_ ^ 2 - 2 x_70_ * x_11_ + 1 x_70_ ^ 2 + 1 y_11_ ^ 2 - 2 y_70_ * y_11_ + 1 y_70_ ^ 2 ] <= 19434.420000000002
quadratic_ranged_291_ub: [ 1 x_16_ ^ 2 - 2 x_70_ * x_16_ + 1 x_70_ ^ 2 + 1 y_16_ ^ 2 - 2 y_70_ * y_16_ + 1 y_70_ ^ 2 ] <= 9903.05
quadratic_ranged_292_ub: [ 1 x_17_ ^ 2 - 2 x_70_ * x_17_ + 1 x_70_ ^ 2 + 1 y_17_ ^ 2 - 2 y_70_ * y_17_ + 1 y_70_ ^ 2 ] <= 6565
quadratic_ranged_293_ub: [ 1 x_39_ ^ 2 - 2 x_70_ * x_39_ + 1 x_70_ ^ 2 + 1 y_39_ ^ 2 - 2 y_70_ * y_39_ + 1 y_70_ ^ 2 ] <= 30649.46
quadratic_ranged_294_ub: [ 1 x_48_ ^ 2 - 2 x_70_ * x_48_ + 1 x_70_ ^ 2 + 1 y_48_ ^ 2 - 2 y_70_ * y_48_ + 1 y_70_ ^ 2 ] <= 974.65
quadratic_ranged_295_ub: [ 1 x_55_ ^ 2 - 2 x_70_ * x_55_ + 1 x_70_ ^ 2 + 1 y_55_ ^ 2 - 2 y_70_ * y_55_ + 1 y_70_ ^ 2 ] <= 17005.37
quadratic_ranged_296_ub: [ 1 x_62_ ^ 2 - 2 x_70_ * x_62_ + 1 x_70_ ^ 2 + 1 y_62_ ^ 2 - 2 y_70_ * y_62_ + 1 y_70_ ^ 2 ] <= 6791.24
quadratic_ranged_297_ub: [ 1 x_63_ ^ 2 - 2 x_70_ * x_63_ + 1 x_70_ ^ 2 + 1 y_63_ ^ 2 - 2 y_70_ * y_63_ + 1 y_70_ ^ 2 ] <= 36289.3
quadratic_ranged_298_ub: [ 1 x_69_ ^ 2 - 2 x_70_ * x_69_ + 1 x_70_ ^ 2 + 1 y_69_ ^ 2 - 2 y_70_ * y_69_ + 1 y_70_ ^ 2 ] <= 590.85
quadratic_ranged_299_ub: [ 1 x_4_ ^ 2 - 2 x_71_ * x_4_ + 1 x_71_ ^ 2 + 1 y_4_ ^ 2 - 2 y_71_ * y_4_ + 1 y_71_ ^ 2 ] <= 3317.85
quadratic_ranged_300_ub: [ 1 x_15_ ^ 2 - 2 x_71_ * x_15_ + 1 x_71_ ^ 2 + 1 y_15_ ^ 2 - 2 y_71_ * y_15_ + 1 y_71_ ^ 2 ] <= 19703.08
quadratic_ranged_301_ub: [ 1 x_30_ ^ 2 - 2 x_71_ * x_30_ + 1 x_71_ ^ 2 + 1 y_30_ ^ 2 - 2 y_71_ * y_30_ + 1 y_71_ ^ 2 ] <= 970.61
quadratic_ranged_302_ub: [ 1 x_35_ ^ 2 - 2 x_71_ * x_35_ + 1 x_71_ ^ 2 + 1 y_35_ ^ 2 - 2 y_71_ * y_35_ + 1 y_71_ ^ 2 ] <= 18681.97
quadratic_ranged_303_ub: [ 1 x_56_ ^ 2 - 2 x_71_ * x_56_ + 1 x_71_ ^ 2 + 1 y_56_ ^ 2 - 2 y_71_ * y_56_ + 1 y_71_ ^ 2 ] <= 32459.38
quadratic_ranged_304_ub: [ 1 x_63_ ^ 2 - 2 x_71_ * x_63_ + 1 x_71_ ^ 2 + 1 y_63_ ^ 2 - 2 y_71_ * y_63_ + 1 y_71_ ^ 2 ] <= 36248.9
quadratic_ranged_305_ub: [ 1 x_65_ ^ 2 - 2 x_71_ * x_65_ + 1 x_71_ ^ 2 + 1 y_65_ ^ 2 - 2 y_71_ * y_65_ + 1 y_71_ ^ 2 ] <= 9539.45
quadratic_ranged_306_ub: [ 1 x_68_ ^ 2 - 2 x_71_ * x_68_ + 1 x_71_ ^ 2 + 1 y_68_ ^ 2 - 2 y_71_ * y_68_ + 1 y_71_ ^ 2 ] <= 2595.7
quadratic_ranged_307_ub: [ 1 x_70_ ^ 2 - 2 x_71_ * x_70_ + 1 x_71_ ^ 2 + 1 y_70_ ^ 2 - 2 y_71_ * y_70_ + 1 y_71_ ^ 2 ] <= 8928.4
quadratic_ranged_308_ub: [ 1 x_14_ ^ 2 - 2 x_72_ * x_14_ + 1 x_72_ ^ 2 + 1 y_14_ ^ 2 - 2 y_72_ * y_14_ + 1 y_72_ ^ 2 ] <= 3107.77
quadratic_ranged_309_ub: [ 1 x_16_ ^ 2 - 2 x_72_ * x_16_ + 1 x_72_ ^ 2 + 1 y_16_ ^ 2 - 2 y_72_ * y_16_ + 1 y_72_ ^ 2 ] <= 23743.08
quadratic_ranged_310_ub: [ 1 x_19_ ^ 2 - 2 x_72_ * x_19_ + 1 x_72_ ^ 2 + 1 y_19_ ^ 2 - 2 y_72_ * y_19_ + 1 y_72_ ^ 2 ] <= 7095.25
quadratic_ranged_311_ub: [ 1 x_29_ ^ 2 - 2 x_72_ * x_29_ + 1 x_72_ ^ 2 + 1 y_29_ ^ 2 - 2 y_72_ * y_29_ + 1 y_72_ ^ 2 ] <= 8875.88
quadratic_ranged_312_ub: [ 1 x_31_ ^ 2 - 2 x_72_ * x_31_ + 1 x_72_ ^ 2 + 1 y_31_ ^ 2 - 2 y_72_ * y_31_ + 1 y_72_ ^ 2 ] <= 6448.85
quadratic_ranged_313_ub: [ 1 x_36_ ^ 2 - 2 x_72_ * x_36_ + 1 x_72_ ^ 2 + 1 y_36_ ^ 2 - 2 y_72_ * y_36_ + 1 y_72_ ^ 2 ] <= 3427.94
quadratic_ranged_314_ub: [ 1 x_43_ ^ 2 - 2 x_72_ * x_43_ + 1 x_72_ ^ 2 + 1 y_43_ ^ 2 - 2 y_72_ * y_43_ + 1 y_72_ ^ 2 ] <= 25068.2
quadratic_ranged_315_ub: [ 1 x_48_ ^ 2 - 2 x_72_ * x_48_ + 1 x_72_ ^ 2 + 1 y_48_ ^ 2 - 2 y_72_ * y_48_ + 1 y_72_ ^ 2 ] <= 10358.56
quadratic_ranged_316_ub: [ 1 x_71_ ^ 2 - 2 x_72_ * x_71_ + 1 x_72_ ^ 2 + 1 y_71_ ^ 2 - 2 y_72_ * y_71_ + 1 y_72_ ^ 2 ] <= 25477.25
quadratic_ranged_317_ub: [ 1 x_32_ ^ 2 - 2 x_73_ * x_32_ + 1 x_73_ ^ 2 + 1 y_32_ ^ 2 - 2 y_73_ * y_32_ + 1 y_73_ ^ 2 ] <= 19203.13
quadratic_ranged_318_ub: [ 1 x_33_ ^ 2 - 2 x_73_ * x_33_ + 1 x_73_ ^ 2 + 1 y_33_ ^ 2 - 2 y_73_ * y_33_ + 1 y_73_ ^ 2 ] <= 8917.29
quadratic_ranged_319_ub: [ 1 x_39_ ^ 2 - 2 x_73_ * x_39_ + 1 x_73_ ^ 2 + 1 y_39_ ^ 2 - 2 y_73_ * y_39_ + 1 y_73_ ^ 2 ] <= 21947.3
quadratic_ranged_320_ub: [ 1 x_41_ ^ 2 - 2 x_73_ * x_41_ + 1 x_73_ ^ 2 + 1 y_41_ ^ 2 - 2 y_73_ * y_41_ + 1 y_73_ ^ 2 ] <= 13603.69
quadratic_ranged_321_ub: [ 1 x_59_ ^ 2 - 2 x_73_ * x_59_ + 1 x_73_ ^ 2 + 1 y_59_ ^ 2 - 2 y_73_ * y_59_ + 1 y_73_ ^ 2 ] <= 9584.9
quadratic_ranged_322_ub: [ 1 x_60_ ^ 2 - 2 x_73_ * x_60_ + 1 x_73_ ^ 2 + 1 y_60_ ^ 2 - 2 y_73_ * y_60_ + 1 y_73_ ^ 2 ] <= 8671.86
quadratic_ranged_323_ub: [ 1 x_72_ ^ 2 - 2 x_73_ * x_72_ + 1 x_73_ ^ 2 + 1 y_72_ ^ 2 - 2 y_73_ * y_72_ + 1 y_73_ ^ 2 ] <= 11660.45
quadratic_ranged_324_ub: [ 1 x_22_ ^ 2 - 2 x_74_ * x_22_ + 1 x_74_ ^ 2 + 1 y_22_ ^ 2 - 2 y_74_ * y_22_ + 1 y_74_ ^ 2 ] <= 3095.65
quadratic_ranged_325_ub: [ 1 x_26_ ^ 2 - 2 x_74_ * x_26_ + 1 x_74_ ^ 2 + 1 y_26_ ^ 2 - 2 y_74_ * y_26_ + 1 y_74_ ^ 2 ] <= 365.62
quadratic_ranged_326_ub: [ 1 x_38_ ^ 2 - 2 x_74_ * x_38_ + 1 x_74_ ^ 2 + 1 y_38_ ^ 2 - 2 y_74_ * y_38_ + 1 y_74_ ^ 2 ] <= 8009.3
quadratic_ranged_327_ub: [ 1 x_41_ ^ 2 - 2 x_74_ * x_41_ + 1 x_74_ ^ 2 + 1 y_41_ ^ 2 - 2 y_74_ * y_41_ + 1 y_74_ ^ 2 ] <= 3080.5
quadratic_ranged_328_ub: [ 1 x_48_ ^ 2 - 2 x_74_ * x_48_ + 1 x_74_ ^ 2 + 1 y_48_ ^ 2 - 2 y_74_ * y_48_ + 1 y_74_ ^ 2 ] <= 21947.3
quadratic_ranged_329_ub: [ 1 x_53_ ^ 2 - 2 x_74_ * x_53_ + 1 x_74_ ^ 2 + 1 y_53_ ^ 2 - 2 y_74_ * y_53_ + 1 y_74_ ^ 2 ] <= 9907.09
quadratic_ranged_330_ub: [ 1 x_64_ ^ 2 - 2 x_74_ * x_64_ + 1 x_74_ ^ 2 + 1 y_64_ ^ 2 - 2 y_74_ * y_64_ + 1 y_74_ ^ 2 ] <= 1618.02
quadratic_ranged_331_ub: [ 1 x_66_ ^ 2 - 2 x_74_ * x_66_ + 1 x_74_ ^ 2 + 1 y_66_ ^ 2 - 2 y_74_ * y_66_ + 1 y_74_ ^ 2 ] <= 30980.74
quadratic_ranged_332_ub: [ 1 x_73_ ^ 2 - 2 x_74_ * x_73_ + 1 x_74_ ^ 2 + 1 y_73_ ^ 2 - 2 y_74_ * y_73_ + 1 y_74_ ^ 2 ] <= 23029.01
quadratic_ranged_333_ub: [ 1 x_4_ ^ 2 - 2 x_75_ * x_4_ + 1 x_75_ ^ 2 + 1 y_4_ ^ 2 - 2 y_75_ * y_4_ + 1 y_75_ ^ 2 ] <= 12642.17
quadratic_ranged_334_ub: [ 1 x_34_ ^ 2 - 2 x_75_ * x_34_ + 1 x_75_ ^ 2 + 1 y_34_ ^ 2 - 2 y_75_ * y_34_ + 1 y_75_ ^ 2 ] <= 9171.81
quadratic_ranged_335_ub: [ 1 x_36_ ^ 2 - 2 x_75_ * x_36_ + 1 x_75_ ^ 2 + 1 y_36_ ^ 2 - 2 y_75_ * y_36_ + 1 y_75_ ^ 2 ] <= 26168.09
quadratic_ranged_336_ub: [ 1 x_44_ ^ 2 - 2 x_75_ * x_44_ + 1 x_75_ ^ 2 + 1 y_44_ ^ 2 - 2 y_75_ * y_44_ + 1 y_75_ ^ 2 ] <= 123.22
quadratic_ranged_337_ub: [ 1 x_50_ ^ 2 - 2 x_75_ * x_50_ + 1 x_75_ ^ 2 + 1 y_50_ ^ 2 - 2 y_75_ * y_50_ + 1 y_75_ ^ 2 ] <= 12060.41
quadratic_ranged_338_ub: [ 1 x_58_ ^ 2 - 2 x_75_ * x_58_ + 1 x_75_ ^ 2 + 1 y_58_ ^ 2 - 2 y_75_ * y_58_ + 1 y_75_ ^ 2 ] <= 1334.21
quadratic_ranged_339_ub: [ 1 x_64_ ^ 2 - 2 x_75_ * x_64_ + 1 x_75_ ^ 2 + 1 y_64_ ^ 2 - 2 y_75_ * y_64_ + 1 y_75_ ^ 2 ] <= 24002.65
quadratic_ranged_340_ub: [ 1 x_74_ ^ 2 - 2 x_75_ * x_74_ + 1 x_75_ ^ 2 + 1 y_74_ ^ 2 - 2 y_75_ * y_74_ + 1 y_75_ ^ 2 ] <= 27868.93
quadratic_ranged_341_ub: [ 1 x_5_ ^ 2 - 2 x_76_ * x_5_ + 1 x_76_ ^ 2 + 1 y_5_ ^ 2 - 2 y_76_ * y_5_ + 1 y_76_ ^ 2 ] <= 21462.5
quadratic_ranged_342_ub: [ 1 x_10_ ^ 2 - 2 x_76_ * x_10_ + 1 x_76_ ^ 2 + 1 y_10_ ^ 2 - 2 y_76_ * y_10_ + 1 y_76_ ^ 2 ] <= 15125.76
quadratic_ranged_343_ub: [ 1 x_14_ ^ 2 - 2 x_76_ * x_14_ + 1 x_76_ ^ 2 + 1 y_14_ ^ 2 - 2 y_76_ * y_14_ + 1 y_76_ ^ 2 ] <= 18087.08
quadratic_ranged_344_ub: [ 1 x_20_ ^ 2 - 2 x_76_ * x_20_ + 1 x_76_ ^ 2 + 1 y_20_ ^ 2 - 2 y_76_ * y_20_ + 1 y_76_ ^ 2 ] <= 38401.21
quadratic_ranged_345_ub: [ 1 x_23_ ^ 2 - 2 x_76_ * x_23_ + 1 x_76_ ^ 2 + 1 y_23_ ^ 2 - 2 y_76_ * y_23_ + 1 y_76_ ^ 2 ] <= 12003.85
quadratic_ranged_346_ub: [ 1 x_30_ ^ 2 - 2 x_76_ * x_30_ + 1 x_76_ ^ 2 + 1 y_30_ ^ 2 - 2 y_76_ * y_30_ + 1 y_76_ ^ 2 ] <= 32773.49
quadratic_ranged_347_ub: [ 1 x_34_ ^ 2 - 2 x_76_ * x_34_ + 1 x_76_ ^ 2 + 1 y_34_ ^ 2 - 2 y_76_ * y_34_ + 1 y_76_ ^ 2 ] <= 9604.09
quadratic_ranged_348_ub: [ 1 x_49_ ^ 2 - 2 x_76_ * x_49_ + 1 x_76_ ^ 2 + 1 y_49_ ^ 2 - 2 y_76_ * y_49_ + 1 y_76_ ^ 2 ] <= 890.82
quadratic_ranged_349_ub: [ 1 x_59_ ^ 2 - 2 x_76_ * x_59_ + 1 x_76_ ^ 2 + 1 y_59_ ^ 2 - 2 y_76_ * y_59_ + 1 y_76_ ^ 2 ] <= 3282.5
quadratic_ranged_350_ub: [ 1 x_69_ ^ 2 - 2 x_76_ * x_69_ + 1 x_76_ ^ 2 + 1 y_69_ ^ 2 - 2 y_76_ * y_69_ + 1 y_76_ ^ 2 ] <= 21336.25
quadratic_ranged_351_ub: [ 1 x_72_ ^ 2 - 2 x_76_ * x_72_ + 1 x_76_ ^ 2 + 1 y_72_ ^ 2 - 2 y_76_ * y_72_ + 1 y_76_ ^ 2 ] <= 10884.77
quadratic_ranged_352_ub: [ 1 x_75_ ^ 2 - 2 x_76_ * x_75_ + 1 x_76_ ^ 2 + 1 y_75_ ^ 2 - 2 y_76_ * y_75_ + 1 y_76_ ^ 2 ] <= 31144.36
quadratic_ranged_353_ub: [ 1 x_39_ ^ 2 - 2 x_77_ * x_39_ + 1 x_77_ ^ 2 + 1 y_39_ ^ 2 - 2 y_77_ * y_39_ + 1 y_77_ ^ 2 ] <= 20054.56
quadratic_ranged_354_ub: [ 1 x_50_ ^ 2 - 2 x_77_ * x_50_ + 1 x_77_ ^ 2 + 1 y_50_ ^ 2 - 2 y_77_ * y_50_ + 1 y_77_ ^ 2 ] <= 4412.69
quadratic_ranged_355_ub: [ 1 x_76_ ^ 2 - 2 x_77_ * x_76_ + 1 x_77_ ^ 2 + 1 y_76_ ^ 2 - 2 y_77_ * y_76_ + 1 y_77_ ^ 2 ] <= 14925.78
quadratic_ranged_356_ub: [ 1 x_31_ ^ 2 - 2 x_78_ * x_31_ + 1 x_78_ ^ 2 + 1 y_31_ ^ 2 - 2 y_78_ * y_31_ + 1 y_78_ ^ 2 ] <= 20003.05
quadratic_ranged_357_ub: [ 1 x_56_ ^ 2 - 2 x_78_ * x_56_ + 1 x_78_ ^ 2 + 1 y_56_ ^ 2 - 2 y_78_ * y_56_ + 1 y_78_ ^ 2 ] <= 7891.13
quadratic_ranged_358_ub: [ 1 x_57_ ^ 2 - 2 x_78_ * x_57_ + 1 x_78_ ^ 2 + 1 y_57_ ^ 2 - 2 y_78_ * y_57_ + 1 y_78_ ^ 2 ] <= 14584.4
quadratic_ranged_359_ub: [ 1 x_77_ ^ 2 - 2 x_78_ * x_77_ + 1 x_78_ ^ 2 + 1 y_77_ ^ 2 - 2 y_78_ * y_77_ + 1 y_78_ ^ 2 ] <= 10331.29
quadratic_ranged_360_ub: [ 1 x_15_ ^ 2 - 2 x_79_ * x_15_ + 1 x_79_ ^ 2 + 1 y_15_ ^ 2 - 2 y_79_ * y_15_ + 1 y_79_ ^ 2 ] <= 989.8
quadratic_ranged_361_ub: [ 1 x_19_ ^ 2 - 2 x_79_ * x_19_ + 1 x_79_ ^ 2 + 1 y_19_ ^ 2 - 2 y_79_ * y_19_ + 1 y_79_ ^ 2 ] <= 28999.12
quadratic_ranged_362_ub: [ 1 x_24_ ^ 2 - 2 x_79_ * x_24_ + 1 x_79_ ^ 2 + 1 y_24_ ^ 2 - 2 y_79_ * y_24_ + 1 y_79_ ^ 2 ] <= 18984.97
quadratic_ranged_363_ub: [ 1 x_28_ ^ 2 - 2 x_79_ * x_28_ + 1 x_79_ ^ 2 + 1 y_28_ ^ 2 - 2 y_79_ * y_28_ + 1 y_79_ ^ 2 ] <= 3661.25
quadratic_ranged_364_ub: [ 1 x_47_ ^ 2 - 2 x_79_ * x_47_ + 1 x_79_ ^ 2 + 1 y_47_ ^ 2 - 2 y_79_ * y_47_ + 1 y_79_ ^ 2 ] <= 29710.16
quadratic_ranged_365_ub: [ 1 x_50_ ^ 2 - 2 x_79_ * x_50_ + 1 x_79_ ^ 2 + 1 y_50_ ^ 2 - 2 y_79_ * y_50_ + 1 y_79_ ^ 2 ] <= 5972.13
quadratic_ranged_366_ub: [ 1 x_56_ ^ 2 - 2 x_79_ * x_56_ + 1 x_79_ ^ 2 + 1 y_56_ ^ 2 - 2 y_79_ * y_56_ + 1 y_79_ ^ 2 ] <= 10837.3
quadratic_ranged_367_ub: [ 1 x_66_ ^ 2 - 2 x_79_ * x_66_ + 1 x_79_ ^ 2 + 1 y_66_ ^ 2 - 2 y_79_ * y_66_ + 1 y_79_ ^ 2 ] <= 28438.57
quadratic_ranged_368_ub: [ 1 x_77_ ^ 2 - 2 x_79_ * x_77_ + 1 x_79_ ^ 2 + 1 y_77_ ^ 2 - 2 y_79_ * y_77_ + 1 y_79_ ^ 2 ] <= 19183.94
quadratic_ranged_369_ub: [ 1 x_78_ ^ 2 - 2 x_79_ * x_78_ + 1 x_79_ ^ 2 + 1 y_78_ ^ 2 - 2 y_79_ * y_78_ + 1 y_79_ ^ 2 ] <= 3152.21
quadratic_ranged_370_ub: [ 1 x_14_ ^ 2 - 2 x_80_ * x_14_ + 1 x_80_ ^ 2 + 1 y_14_ ^ 2 - 2 y_80_ * y_14_ + 1 y_80_ ^ 2 ] <= 30368.68
quadratic_ranged_371_ub: [ 1 x_24_ ^ 2 - 2 x_80_ * x_24_ + 1 x_80_ ^ 2 + 1 y_24_ ^ 2 - 2 y_80_ * y_24_ + 1 y_80_ ^ 2 ] <= 26184.25
quadratic_ranged_372_ub: [ 1 x_25_ ^ 2 - 2 x_80_ * x_25_ + 1 x_80_ ^ 2 + 1 y_25_ ^ 2 - 2 y_80_ * y_25_ + 1 y_80_ ^ 2 ] <= 16832.66
quadratic_ranged_373_ub: [ 1 x_29_ ^ 2 - 2 x_80_ * x_29_ + 1 x_80_ ^ 2 + 1 y_29_ ^ 2 - 2 y_80_ * y_29_ + 1 y_80_ ^ 2 ] <= 2461.37
quadratic_ranged_374_ub: [ 1 x_44_ ^ 2 - 2 x_80_ * x_44_ + 1 x_80_ ^ 2 + 1 y_44_ ^ 2 - 2 y_80_ * y_44_ + 1 y_80_ ^ 2 ] <= 38487.06
quadratic_ranged_375_ub: [ 1 x_47_ ^ 2 - 2 x_80_ * x_47_ + 1 x_80_ ^ 2 + 1 y_47_ ^ 2 - 2 y_80_ * y_47_ + 1 y_80_ ^ 2 ] <= 39612.2
quadratic_ranged_376_ub: [ 1 x_57_ ^ 2 - 2 x_80_ * x_57_ + 1 x_80_ ^ 2 + 1 y_57_ ^ 2 - 2 y_80_ * y_57_ + 1 y_80_ ^ 2 ] <= 30632.29
quadratic_ranged_377_ub: [ 1 x_60_ ^ 2 - 2 x_80_ * x_60_ + 1 x_80_ ^ 2 + 1 y_60_ ^ 2 - 2 y_80_ * y_60_ + 1 y_80_ ^ 2 ] <= 45363.14
quadratic_ranged_378_ub: [ 1 x_61_ ^ 2 - 2 x_80_ * x_61_ + 1 x_80_ ^ 2 + 1 y_61_ ^ 2 - 2 y_80_ * y_61_ + 1 y_80_ ^ 2 ] <= 39060.74
quadratic_ranged_379_ub: [ 1 x_70_ ^ 2 - 2 x_80_ * x_70_ + 1 x_80_ ^ 2 + 1 y_70_ ^ 2 - 2 y_80_ * y_70_ + 1 y_80_ ^ 2 ] <= 39612.2
quadratic_ranged_380_ub: [ 1 x_79_ ^ 2 - 2 x_80_ * x_79_ + 1 x_80_ ^ 2 + 1 y_79_ ^ 2 - 2 y_80_ * y_79_ + 1 y_80_ ^ 2 ] <= 731.24
quadratic_ranged_381_ub: [ 1 x_11_ ^ 2 - 2 x_81_ * x_11_ + 1 x_81_ ^ 2 + 1 y_11_ ^ 2 - 2 y_81_ * y_11_ + 1 y_81_ ^ 2 ] <= 32086.69
quadratic_ranged_382_ub: [ 1 x_15_ ^ 2 - 2 x_81_ * x_15_ + 1 x_81_ ^ 2 + 1 y_15_ ^ 2 - 2 y_81_ * y_15_ + 1 y_81_ ^ 2 ] <= 44182.45
quadratic_ranged_383_ub: [ 1 x_30_ ^ 2 - 2 x_81_ * x_30_ + 1 x_81_ ^ 2 + 1 y_30_ ^ 2 - 2 y_81_ * y_30_ + 1 y_81_ ^ 2 ] <= 6070.1
quadratic_ranged_384_ub: [ 1 x_45_ ^ 2 - 2 x_81_ * x_45_ + 1 x_81_ ^ 2 + 1 y_45_ ^ 2 - 2 y_81_ * y_45_ + 1 y_81_ ^ 2 ] <= 25502.5
quadratic_ranged_385_ub: [ 1 x_61_ ^ 2 - 2 x_81_ * x_61_ + 1 x_81_ ^ 2 + 1 y_61_ ^ 2 - 2 y_81_ * y_61_ + 1 y_81_ ^ 2 ] <= 5717.61
quadratic_ranged_386_ub: [ 1 x_64_ ^ 2 - 2 x_81_ * x_64_ + 1 x_81_ ^ 2 + 1 y_64_ ^ 2 - 2 y_81_ * y_64_ + 1 y_81_ ^ 2 ] <= 31077.7
quadratic_ranged_387_ub: [ 1 x_68_ ^ 2 - 2 x_81_ * x_68_ + 1 x_81_ ^ 2 + 1 y_68_ ^ 2 - 2 y_81_ * y_68_ + 1 y_81_ ^ 2 ] <= 3859.21
quadratic_ranged_388_ub: [ 1 x_75_ ^ 2 - 2 x_81_ * x_75_ + 1 x_81_ ^ 2 + 1 y_75_ ^ 2 - 2 y_81_ * y_75_ + 1 y_81_ ^ 2 ] <= 1673.57
quadratic_ranged_389_ub: [ 1 x_78_ ^ 2 - 2 x_81_ * x_78_ + 1 x_81_ ^ 2 + 1 y_78_ ^ 2 - 2 y_81_ * y_78_ + 1 y_81_ ^ 2 ] <= 25583.3
quadratic_ranged_390_ub: [ 1 x_80_ ^ 2 - 2 x_81_ * x_80_ + 1 x_81_ ^ 2 + 1 y_80_ ^ 2 - 2 y_81_ * y_80_ + 1 y_81_ ^ 2 ] <= 58989.05
quadratic_ranged_391_ub: [ 1 x_9_ ^ 2 - 2 x_82_ * x_9_ + 1 x_82_ ^ 2 + 1 y_9_ ^ 2 - 2 y_82_ * y_9_ + 1 y_82_ ^ 2 ] <= 13697.62
quadratic_ranged_392_ub: [ 1 x_41_ ^ 2 - 2 x_82_ * x_41_ + 1 x_82_ ^ 2 + 1 y_41_ ^ 2 - 2 y_82_ * y_41_ + 1 y_82_ ^ 2 ] <= 23193.64
quadratic_ranged_393_ub: [ 1 x_51_ ^ 2 - 2 x_82_ * x_51_ + 1 x_82_ ^ 2 + 1 y_51_ ^ 2 - 2 y_82_ * y_51_ + 1 y_82_ ^ 2 ] <= 5992.33
quadratic_ranged_394_ub: [ 1 x_57_ ^ 2 - 2 x_82_ * x_57_ + 1 x_82_ ^ 2 + 1 y_57_ ^ 2 - 2 y_82_ * y_57_ + 1 y_82_ ^ 2 ] <= 20692.88
quadratic_ranged_395_ub: [ 1 x_81_ ^ 2 - 2 x_82_ * x_81_ + 1 x_82_ ^ 2 + 1 y_81_ ^ 2 - 2 y_82_ * y_81_ + 1 y_82_ ^ 2 ] <= 2232.1
quadratic_ranged_396_ub: [ 1 x_22_ ^ 2 - 2 x_83_ * x_22_ + 1 x_83_ ^ 2 + 1 y_22_ ^ 2 - 2 y_83_ * y_22_ + 1 y_83_ ^ 2 ] <= 19417.25
quadratic_ranged_397_ub: [ 1 x_27_ ^ 2 - 2 x_83_ * x_27_ + 1 x_83_ ^ 2 + 1 y_27_ ^ 2 - 2 y_83_ * y_27_ + 1 y_83_ ^ 2 ] <= 14900.53
quadratic_ranged_398_ub: [ 1 x_35_ ^ 2 - 2 x_83_ * x_35_ + 1 x_83_ ^ 2 + 1 y_35_ ^ 2 - 2 y_83_ * y_35_ + 1 y_83_ ^ 2 ] <= 1927.08
quadratic_ranged_399_ub: [ 1 x_36_ ^ 2 - 2 x_83_ * x_36_ + 1 x_83_ ^ 2 + 1 y_36_ ^ 2 - 2 y_83_ * y_36_ + 1 y_83_ ^ 2 ] <= 5367.14
quadratic_ranged_400_ub: [ 1 x_39_ ^ 2 - 2 x_83_ * x_39_ + 1 x_83_ ^ 2 + 1 y_39_ ^ 2 - 2 y_83_ * y_39_ + 1 y_83_ ^ 2 ] <= 207.05
quadratic_ranged_401_ub: [ 1 x_72_ ^ 2 - 2 x_83_ * x_72_ + 1 x_83_ ^ 2 + 1 y_72_ ^ 2 - 2 y_83_ * y_72_ + 1 y_83_ ^ 2 ] <= 12237.16
quadratic_ranged_402_ub: [ 1 x_76_ ^ 2 - 2 x_83_ * x_76_ + 1 x_83_ ^ 2 + 1 y_76_ ^ 2 - 2 y_83_ * y_76_ + 1 y_83_ ^ 2 ] <= 485.81
quadratic_ranged_403_ub: [ 1 x_79_ ^ 2 - 2 x_83_ * x_79_ + 1 x_83_ ^ 2 + 1 y_79_ ^ 2 - 2 y_83_ * y_79_ + 1 y_83_ ^ 2 ] <= 126.25
quadratic_ranged_404_ub: [ 1 x_82_ ^ 2 - 2 x_83_ * x_82_ + 1 x_83_ ^ 2 + 1 y_82_ ^ 2 - 2 y_83_ * y_82_ + 1 y_83_ ^ 2 ] <= 30158.6
quadratic_ranged_405_ub: [ 1 x_7_ ^ 2 - 2 x_84_ * x_7_ + 1 x_84_ ^ 2 + 1 y_7_ ^ 2 - 2 y_84_ * y_7_ + 1 y_84_ ^ 2 ] <= 2395.72
quadratic_ranged_406_ub: [ 1 x_15_ ^ 2 - 2 x_84_ * x_15_ + 1 x_84_ ^ 2 + 1 y_15_ ^ 2 - 2 y_84_ * y_15_ + 1 y_84_ ^ 2 ] <= 4731.85
quadratic_ranged_407_ub: [ 1 x_29_ ^ 2 - 2 x_84_ * x_29_ + 1 x_84_ ^ 2 + 1 y_29_ ^ 2 - 2 y_84_ * y_29_ + 1 y_84_ ^ 2 ] <= 5173.22
quadratic_ranged_408_ub: [ 1 x_46_ ^ 2 - 2 x_84_ * x_46_ + 1 x_84_ ^ 2 + 1 y_46_ ^ 2 - 2 y_84_ * y_46_ + 1 y_84_ ^ 2 ] <= 559.54
quadratic_ranged_409_ub: [ 1 x_48_ ^ 2 - 2 x_84_ * x_48_ + 1 x_84_ ^ 2 + 1 y_48_ ^ 2 - 2 y_84_ * y_48_ + 1 y_84_ ^ 2 ] <= 5706.5
quadratic_ranged_410_ub: [ 1 x_59_ ^ 2 - 2 x_84_ * x_59_ + 1 x_84_ ^ 2 + 1 y_59_ ^ 2 - 2 y_84_ * y_59_ + 1 y_84_ ^ 2 ] <= 1907.89
quadratic_ranged_411_ub: [ 1 x_63_ ^ 2 - 2 x_84_ * x_63_ + 1 x_84_ ^ 2 + 1 y_63_ ^ 2 - 2 y_84_ * y_63_ + 1 y_84_ ^ 2 ] <= 10048.49
quadratic_ranged_412_ub: [ 1 x_71_ ^ 2 - 2 x_84_ * x_71_ + 1 x_84_ ^ 2 + 1 y_71_ ^ 2 - 2 y_84_ * y_71_ + 1 y_84_ ^ 2 ] <= 8771.85
quadratic_ranged_413_ub: [ 1 x_72_ ^ 2 - 2 x_84_ * x_72_ + 1 x_84_ ^ 2 + 1 y_72_ ^ 2 - 2 y_84_ * y_72_ + 1 y_84_ ^ 2 ] <= 8009.3
quadratic_ranged_414_ub: [ 1 x_83_ ^ 2 - 2 x_84_ * x_83_ + 1 x_84_ ^ 2 + 1 y_83_ ^ 2 - 2 y_84_ * y_83_ + 1 y_84_ ^ 2 ] <= 4437.94
quadratic_ranged_415_ub: [ 1 x_14_ ^ 2 - 2 x_85_ * x_14_ + 1 x_85_ ^ 2 + 1 y_14_ ^ 2 - 2 y_85_ * y_14_ + 1 y_85_ ^ 2 ] <= 32006.9
quadratic_ranged_416_ub: [ 1 x_27_ ^ 2 - 2 x_85_ * x_27_ + 1 x_85_ ^ 2 + 1 y_27_ ^ 2 - 2 y_85_ * y_27_ + 1 y_85_ ^ 2 ] <= 7922.4400000000005
quadratic_ranged_417_ub: [ 1 x_39_ ^ 2 - 2 x_85_ * x_39_ + 1 x_85_ ^ 2 + 1 y_39_ ^ 2 - 2 y_85_ * y_39_ + 1 y_85_ ^ 2 ] <= 37915.4
quadratic_ranged_418_ub: [ 1 x_45_ ^ 2 - 2 x_85_ * x_45_ + 1 x_85_ ^ 2 + 1 y_45_ ^ 2 - 2 y_85_ * y_45_ + 1 y_85_ ^ 2 ] <= 17603.29
quadratic_ranged_419_ub: [ 1 x_46_ ^ 2 - 2 x_85_ * x_46_ + 1 x_85_ ^ 2 + 1 y_46_ ^ 2 - 2 y_85_ * y_46_ + 1 y_85_ ^ 2 ] <= 11179.69
quadratic_ranged_420_ub: [ 1 x_47_ ^ 2 - 2 x_85_ * x_47_ + 1 x_85_ ^ 2 + 1 y_47_ ^ 2 - 2 y_85_ * y_47_ + 1 y_85_ ^ 2 ] <= 2401.78
quadratic_ranged_421_ub: [ 1 x_55_ ^ 2 - 2 x_85_ * x_55_ + 1 x_85_ ^ 2 + 1 y_55_ ^ 2 - 2 y_85_ * y_55_ + 1 y_85_ ^ 2 ] <= 26701.37
quadratic_ranged_422_ub: [ 1 x_59_ ^ 2 - 2 x_85_ * x_59_ + 1 x_85_ ^ 2 + 1 y_59_ ^ 2 - 2 y_85_ * y_59_ + 1 y_85_ ^ 2 ] <= 19214.24
quadratic_ranged_423_ub: [ 1 x_66_ ^ 2 - 2 x_85_ * x_66_ + 1 x_85_ ^ 2 + 1 y_66_ ^ 2 - 2 y_85_ * y_66_ + 1 y_85_ ^ 2 ] <= 1043.33
quadratic_ranged_424_ub: [ 1 x_68_ ^ 2 - 2 x_85_ * x_68_ + 1 x_85_ ^ 2 + 1 y_68_ ^ 2 - 2 y_85_ * y_68_ + 1 y_85_ ^ 2 ] <= 1070.6
quadratic_ranged_425_ub: [ 1 x_78_ ^ 2 - 2 x_85_ * x_78_ + 1 x_85_ ^ 2 + 1 y_78_ ^ 2 - 2 y_85_ * y_78_ + 1 y_85_ ^ 2 ] <= 18427.45
quadratic_ranged_426_ub: [ 1 x_84_ ^ 2 - 2 x_85_ * x_84_ + 1 x_85_ ^ 2 + 1 y_84_ ^ 2 - 2 y_85_ * y_84_ + 1 y_85_ ^ 2 ] <= 13761.25
quadratic_ranged_427_ub: [ 1 x_2_ ^ 2 - 2 x_86_ * x_2_ + 1 x_86_ ^ 2 + 1 y_2_ ^ 2 - 2 y_86_ * y_2_ + 1 y_86_ ^ 2 ] <= 14229.89
quadratic_ranged_428_ub: [ 1 x_3_ ^ 2 - 2 x_86_ * x_3_ + 1 x_86_ ^ 2 + 1 y_3_ ^ 2 - 2 y_86_ * y_3_ + 1 y_86_ ^ 2 ] <= 8408.25
quadratic_ranged_429_ub: [ 1 x_5_ ^ 2 - 2 x_86_ * x_5_ + 1 x_86_ ^ 2 + 1 y_5_ ^ 2 - 2 y_86_ * y_5_ + 1 y_86_ ^ 2 ] <= 5236.85
quadratic_ranged_430_ub: [ 1 x_10_ ^ 2 - 2 x_86_ * x_10_ + 1 x_86_ ^ 2 + 1 y_10_ ^ 2 - 2 y_86_ * y_10_ + 1 y_86_ ^ 2 ] <= 4453.09
quadratic_ranged_431_ub: [ 1 x_30_ ^ 2 - 2 x_86_ * x_30_ + 1 x_86_ ^ 2 + 1 y_30_ ^ 2 - 2 y_86_ * y_30_ + 1 y_86_ ^ 2 ] <= 10304.02
quadratic_ranged_432_ub: [ 1 x_42_ ^ 2 - 2 x_86_ * x_42_ + 1 x_86_ ^ 2 + 1 y_42_ ^ 2 - 2 y_86_ * y_42_ + 1 y_86_ ^ 2 ] <= 7612.37
quadratic_ranged_433_ub: [ 1 x_53_ ^ 2 - 2 x_86_ * x_53_ + 1 x_86_ ^ 2 + 1 y_53_ ^ 2 - 2 y_86_ * y_53_ + 1 y_86_ ^ 2 ] <= 12593.69
quadratic_ranged_434_ub: [ 1 x_59_ ^ 2 - 2 x_86_ * x_59_ + 1 x_86_ ^ 2 + 1 y_59_ ^ 2 - 2 y_86_ * y_59_ + 1 y_86_ ^ 2 ] <= 1398.85
quadratic_ranged_435_ub: [ 1 x_76_ ^ 2 - 2 x_86_ * x_76_ + 1 x_86_ ^ 2 + 1 y_76_ ^ 2 - 2 y_86_ * y_76_ + 1 y_86_ ^ 2 ] <= 8670.85
quadratic_ranged_436_ub: [ 1 x_77_ ^ 2 - 2 x_86_ * x_77_ + 1 x_86_ ^ 2 + 1 y_77_ ^ 2 - 2 y_86_ * y_77_ + 1 y_86_ ^ 2 ] <= 4004.65
quadratic_ranged_437_ub: [ 1 x_79_ ^ 2 - 2 x_86_ * x_79_ + 1 x_86_ ^ 2 + 1 y_79_ ^ 2 - 2 y_86_ * y_79_ + 1 y_86_ ^ 2 ] <= 9551.57
quadratic_ranged_438_ub: [ 1 x_84_ ^ 2 - 2 x_86_ * x_84_ + 1 x_86_ ^ 2 + 1 y_84_ ^ 2 - 2 y_86_ * y_84_ + 1 y_86_ ^ 2 ] <= 1373.6
quadratic_ranged_439_ub: [ 1 x_85_ ^ 2 - 2 x_86_ * x_85_ + 1 x_86_ ^ 2 + 1 y_85_ ^ 2 - 2 y_86_ * y_85_ + 1 y_86_ ^ 2 ] <= 10246.45
quadratic_ranged_440_ub: [ 1 x_3_ ^ 2 - 2 x_87_ * x_3_ + 1 x_87_ ^ 2 + 1 y_3_ ^ 2 - 2 y_87_ * y_3_ + 1 y_87_ ^ 2 ] <= 21561.48
quadratic_ranged_441_ub: [ 1 x_13_ ^ 2 - 2 x_87_ * x_13_ + 1 x_87_ ^ 2 + 1 y_13_ ^ 2 - 2 y_87_ * y_13_ + 1 y_87_ ^ 2 ] <= 7176.05
quadratic_ranged_442_ub: [ 1 x_20_ ^ 2 - 2 x_87_ * x_20_ + 1 x_87_ ^ 2 + 1 y_20_ ^ 2 - 2 y_87_ * y_20_ + 1 y_87_ ^ 2 ] <= 18815.29
quadratic_ranged_443_ub: [ 1 x_53_ ^ 2 - 2 x_87_ * x_53_ + 1 x_87_ ^ 2 + 1 y_53_ ^ 2 - 2 y_87_ * y_53_ + 1 y_87_ ^ 2 ] <= 35206.58
quadratic_ranged_444_ub: [ 1 x_71_ ^ 2 - 2 x_87_ * x_71_ + 1 x_87_ ^ 2 + 1 y_71_ ^ 2 - 2 y_87_ * y_71_ + 1 y_87_ ^ 2 ] <= 34170.32
quadratic_ranged_445_ub: [ 1 x_76_ ^ 2 - 2 x_87_ * x_76_ + 1 x_87_ ^ 2 + 1 y_76_ ^ 2 - 2 y_87_ * y_76_ + 1 y_87_ ^ 2 ] <= 27023.56
quadratic_ranged_446_ub: [ 1 x_78_ ^ 2 - 2 x_87_ * x_78_ + 1 x_87_ ^ 2 + 1 y_78_ ^ 2 - 2 y_87_ * y_78_ + 1 y_87_ ^ 2 ] <= 20661.57
quadratic_ranged_447_ub: [ 1 x_83_ ^ 2 - 2 x_87_ * x_83_ + 1 x_87_ ^ 2 + 1 y_83_ ^ 2 - 2 y_87_ * y_83_ + 1 y_87_ ^ 2 ] <= 29044.57
quadratic_ranged_448_ub: [ 1 x_86_ ^ 2 - 2 x_87_ * x_86_ + 1 x_87_ ^ 2 + 1 y_86_ ^ 2 - 2 y_87_ * y_86_ + 1 y_87_ ^ 2 ] <= 10408.05
quadratic_ranged_449_ub: [ 1 x_28_ ^ 2 - 2 x_88_ * x_28_ + 1 x_88_ ^ 2 + 1 y_28_ ^ 2 - 2 y_88_ * y_28_ + 1 y_88_ ^ 2 ] <= 13130
quadratic_ranged_450_ub: [ 1 x_32_ ^ 2 - 2 x_88_ * x_32_ + 1 x_88_ ^ 2 + 1 y_32_ ^ 2 - 2 y_88_ * y_32_ + 1 y_88_ ^ 2 ] <= 13099.7
quadratic_ranged_451_ub: [ 1 x_35_ ^ 2 - 2 x_88_ * x_35_ + 1 x_88_ ^ 2 + 1 y_35_ ^ 2 - 2 y_88_ * y_35_ + 1 y_88_ ^ 2 ] <= 12362.4
quadratic_ranged_452_ub: [ 1 x_36_ ^ 2 - 2 x_88_ * x_36_ + 1 x_88_ ^ 2 + 1 y_36_ ^ 2 - 2 y_88_ * y_36_ + 1 y_88_ ^ 2 ] <= 25874.18
quadratic_ranged_453_ub: [ 1 x_49_ ^ 2 - 2 x_88_ * x_49_ + 1 x_88_ ^ 2 + 1 y_49_ ^ 2 - 2 y_88_ * y_49_ + 1 y_88_ ^ 2 ] <= 26325.65
quadratic_ranged_454_ub: [ 1 x_53_ ^ 2 - 2 x_88_ * x_53_ + 1 x_88_ ^ 2 + 1 y_53_ ^ 2 - 2 y_88_ * y_53_ + 1 y_88_ ^ 2 ] <= 21687.73
quadratic_ranged_455_ub: [ 1 x_86_ ^ 2 - 2 x_88_ * x_86_ + 1 x_88_ ^ 2 + 1 y_86_ ^ 2 - 2 y_88_ * y_86_ + 1 y_88_ ^ 2 ] <= 8437.54
quadratic_ranged_456_ub: [ 1 x_87_ ^ 2 - 2 x_88_ * x_87_ + 1 x_88_ ^ 2 + 1 y_87_ ^ 2 - 2 y_88_ * y_87_ + 1 y_88_ ^ 2 ] <= 34377.37
quadratic_ranged_457_ub: [ 1 x_2_ ^ 2 - 2 x_89_ * x_2_ + 1 x_89_ ^ 2 + 1 y_2_ ^ 2 - 2 y_89_ * y_2_ + 1 y_89_ ^ 2 ] <= 18634.5
quadratic_ranged_458_ub: [ 1 x_26_ ^ 2 - 2 x_89_ * x_26_ + 1 x_89_ ^ 2 + 1 y_26_ ^ 2 - 2 y_89_ * y_26_ + 1 y_89_ ^ 2 ] <= 9894.97
quadratic_ranged_459_ub: [ 1 x_36_ ^ 2 - 2 x_89_ * x_36_ + 1 x_89_ ^ 2 + 1 y_36_ ^ 2 - 2 y_89_ * y_36_ + 1 y_89_ ^ 2 ] <= 13240.09
quadratic_ranged_460_ub: [ 1 x_51_ ^ 2 - 2 x_89_ * x_51_ + 1 x_89_ ^ 2 + 1 y_51_ ^ 2 - 2 y_89_ * y_51_ + 1 y_89_ ^ 2 ] <= 12221
quadratic_ranged_461_ub: [ 1 x_63_ ^ 2 - 2 x_89_ * x_63_ + 1 x_89_ ^ 2 + 1 y_63_ ^ 2 - 2 y_89_ * y_63_ + 1 y_89_ ^ 2 ] <= 25922.66
quadratic_ranged_462_ub: [ 1 x_71_ ^ 2 - 2 x_89_ * x_71_ + 1 x_89_ ^ 2 + 1 y_71_ ^ 2 - 2 y_89_ * y_71_ + 1 y_89_ ^ 2 ] <= 11380.68
quadratic_ranged_463_ub: [ 1 x_81_ ^ 2 - 2 x_89_ * x_81_ + 1 x_89_ ^ 2 + 1 y_81_ ^ 2 - 2 y_89_ * y_81_ + 1 y_89_ ^ 2 ] <= 6117.57
quadratic_ranged_464_ub: [ 1 x_88_ ^ 2 - 2 x_89_ * x_88_ + 1 x_89_ ^ 2 + 1 y_88_ ^ 2 - 2 y_89_ * y_88_ + 1 y_89_ ^ 2 ] <= 12028.09
quadratic_ranged_465_ub: [ 1 x_7_ ^ 2 - 2 x_90_ * x_7_ + 1 x_90_ ^ 2 + 1 y_7_ ^ 2 - 2 y_90_ * y_7_ + 1 y_90_ ^ 2 ] <= 10134.34
quadratic_ranged_466_ub: [ 1 x_17_ ^ 2 - 2 x_90_ * x_17_ + 1 x_90_ ^ 2 + 1 y_17_ ^ 2 - 2 y_90_ * y_17_ + 1 y_90_ ^ 2 ] <= 3237.05
quadratic_ranged_467_ub: [ 1 x_24_ ^ 2 - 2 x_90_ * x_24_ + 1 x_90_ ^ 2 + 1 y_24_ ^ 2 - 2 y_90_ * y_24_ + 1 y_90_ ^ 2 ] <= 6045.86
quadratic_ranged_468_ub: [ 1 x_25_ ^ 2 - 2 x_90_ * x_25_ + 1 x_90_ ^ 2 + 1 y_25_ ^ 2 - 2 y_90_ * y_25_ + 1 y_90_ ^ 2 ] <= 13296.65
quadratic_ranged_469_ub: [ 1 x_28_ ^ 2 - 2 x_90_ * x_28_ + 1 x_90_ ^ 2 + 1 y_28_ ^ 2 - 2 y_90_ * y_28_ + 1 y_90_ ^ 2 ] <= 9085.960000000001
quadratic_ranged_470_ub: [ 1 x_32_ ^ 2 - 2 x_90_ * x_32_ + 1 x_90_ ^ 2 + 1 y_32_ ^ 2 - 2 y_90_ * y_32_ + 1 y_90_ ^ 2 ] <= 18012.34
quadratic_ranged_471_ub: [ 1 x_34_ ^ 2 - 2 x_90_ * x_34_ + 1 x_90_ ^ 2 + 1 y_34_ ^ 2 - 2 y_90_ * y_34_ + 1 y_90_ ^ 2 ] <= 3726.9
quadratic_ranged_472_ub: [ 1 x_35_ ^ 2 - 2 x_90_ * x_35_ + 1 x_90_ ^ 2 + 1 y_35_ ^ 2 - 2 y_90_ * y_35_ + 1 y_90_ ^ 2 ] <= 9263.72
quadratic_ranged_473_ub: [ 1 x_39_ ^ 2 - 2 x_90_ * x_39_ + 1 x_90_ ^ 2 + 1 y_39_ ^ 2 - 2 y_90_ * y_39_ + 1 y_90_ ^ 2 ] <= 20407.05
quadratic_ranged_474_ub: [ 1 x_45_ ^ 2 - 2 x_90_ * x_45_ + 1 x_90_ ^ 2 + 1 y_45_ ^ 2 - 2 y_90_ * y_45_ + 1 y_90_ ^ 2 ] <= 7001.32
quadratic_ranged_475_ub: [ 1 x_46_ ^ 2 - 2 x_90_ * x_46_ + 1 x_90_ ^ 2 + 1 y_46_ ^ 2 - 2 y_90_ * y_46_ + 1 y_90_ ^ 2 ] <= 2929
quadratic_ranged_476_ub: [ 1 x_49_ ^ 2 - 2 x_90_ * x_49_ + 1 x_90_ ^ 2 + 1 y_49_ ^ 2 - 2 y_90_ * y_49_ + 1 y_90_ ^ 2 ] <= 22354.33
quadratic_ranged_477_ub: [ 1 x_52_ ^ 2 - 2 x_90_ * x_52_ + 1 x_90_ ^ 2 + 1 y_52_ ^ 2 - 2 y_90_ * y_52_ + 1 y_90_ ^ 2 ] <= 4545
quadratic_ranged_478_ub: [ 1 x_61_ ^ 2 - 2 x_90_ * x_61_ + 1 x_90_ ^ 2 + 1 y_61_ ^ 2 - 2 y_90_ * y_61_ + 1 y_90_ ^ 2 ] <= 2570.45
quadratic_ranged_479_ub: [ 1 x_71_ ^ 2 - 2 x_90_ * x_71_ + 1 x_90_ ^ 2 + 1 y_71_ ^ 2 - 2 y_90_ * y_71_ + 1 y_90_ ^ 2 ] <= 4776.29
quadratic_ranged_480_ub: [ 1 x_83_ ^ 2 - 2 x_90_ * x_83_ + 1 x_90_ ^ 2 + 1 y_83_ ^ 2 - 2 y_90_ * y_83_ + 1 y_90_ ^ 2 ] <= 17129.6
quadratic_ranged_481_ub: [ 1 x_89_ ^ 2 - 2 x_90_ * x_89_ + 1 x_90_ ^ 2 + 1 y_89_ ^ 2 - 2 y_90_ * y_89_ + 1 y_90_ ^ 2 ] <= 1419.05
quadratic_ranged_482_ub: [ 1 x_12_ ^ 2 - 2 x_91_ * x_12_ + 1 x_91_ ^ 2 + 1 y_12_ ^ 2 - 2 y_91_ * y_12_ + 1 y_91_ ^ 2 ] <= 9442.49
quadratic_ranged_483_ub: [ 1 x_13_ ^ 2 - 2 x_91_ * x_13_ + 1 x_91_ ^ 2 + 1 y_13_ ^ 2 - 2 y_91_ * y_13_ + 1 y_91_ ^ 2 ] <= 19214.24
quadratic_ranged_484_ub: [ 1 x_14_ ^ 2 - 2 x_91_ * x_14_ + 1 x_91_ ^ 2 + 1 y_14_ ^ 2 - 2 y_91_ * y_14_ + 1 y_91_ ^ 2 ] <= 15134.85
quadratic_ranged_485_ub: [ 1 x_17_ ^ 2 - 2 x_91_ * x_17_ + 1 x_91_ ^ 2 + 1 y_17_ ^ 2 - 2 y_91_ * y_17_ + 1 y_91_ ^ 2 ] <= 12840.130000000001
quadratic_ranged_486_ub: [ 1 x_26_ ^ 2 - 2 x_91_ * x_26_ + 1 x_91_ ^ 2 + 1 y_26_ ^ 2 - 2 y_91_ * y_26_ + 1 y_91_ ^ 2 ] <= 4726.8
quadratic_ranged_487_ub: [ 1 x_36_ ^ 2 - 2 x_91_ * x_36_ + 1 x_91_ ^ 2 + 1 y_36_ ^ 2 - 2 y_91_ * y_36_ + 1 y_91_ ^ 2 ] <= 4542.9800000000005
quadratic_ranged_488_ub: [ 1 x_53_ ^ 2 - 2 x_91_ * x_53_ + 1 x_91_ ^ 2 + 1 y_53_ ^ 2 - 2 y_91_ * y_53_ + 1 y_91_ ^ 2 ] <= 6004.45
quadratic_ranged_489_ub: [ 1 x_54_ ^ 2 - 2 x_91_ * x_54_ + 1 x_91_ ^ 2 + 1 y_54_ ^ 2 - 2 y_91_ * y_54_ + 1 y_91_ ^ 2 ] <= 13416.84
quadratic_ranged_490_ub: [ 1 x_78_ ^ 2 - 2 x_91_ * x_78_ + 1 x_91_ ^ 2 + 1 y_78_ ^ 2 - 2 y_91_ * y_78_ + 1 y_91_ ^ 2 ] <= 262.6
quadratic_ranged_491_ub: [ 1 x_90_ ^ 2 - 2 x_91_ * x_90_ + 1 x_91_ ^ 2 + 1 y_90_ ^ 2 - 2 y_91_ * y_90_ + 1 y_91_ ^ 2 ] <= 6536.72
quadratic_ranged_492_ub: [ 1 x_7_ ^ 2 - 2 x_92_ * x_7_ + 1 x_92_ ^ 2 + 1 y_7_ ^ 2 - 2 y_92_ * y_7_ + 1 y_92_ ^ 2 ] <= 16978.1
quadratic_ranged_493_ub: [ 1 x_9_ ^ 2 - 2 x_92_ * x_9_ + 1 x_92_ ^ 2 + 1 y_9_ ^ 2 - 2 y_92_ * y_9_ + 1 y_92_ ^ 2 ] <= 2628.02
quadratic_ranged_494_ub: [ 1 x_20_ ^ 2 - 2 x_92_ * x_20_ + 1 x_92_ ^ 2 + 1 y_20_ ^ 2 - 2 y_92_ * y_20_ + 1 y_92_ ^ 2 ] <= 12469.460000000001
quadratic_ranged_495_ub: [ 1 x_24_ ^ 2 - 2 x_92_ * x_24_ + 1 x_92_ ^ 2 + 1 y_24_ ^ 2 - 2 y_92_ * y_24_ + 1 y_92_ ^ 2 ] <= 90.9
quadratic_ranged_496_ub: [ 1 x_31_ ^ 2 - 2 x_92_ * x_31_ + 1 x_92_ ^ 2 + 1 y_31_ ^ 2 - 2 y_92_ * y_31_ + 1 y_92_ ^ 2 ] <= 3746.09
quadratic_ranged_497_ub: [ 1 x_37_ ^ 2 - 2 x_92_ * x_37_ + 1 x_92_ ^ 2 + 1 y_37_ ^ 2 - 2 y_92_ * y_37_ + 1 y_92_ ^ 2 ] <= 567.62
quadratic_ranged_498_ub: [ 1 x_43_ ^ 2 - 2 x_92_ * x_43_ + 1 x_92_ ^ 2 + 1 y_43_ ^ 2 - 2 y_92_ * y_43_ + 1 y_92_ ^ 2 ] <= 17557.84
quadratic_ranged_499_ub: [ 1 x_78_ ^ 2 - 2 x_92_ * x_78_ + 1 x_92_ ^ 2 + 1 y_78_ ^ 2 - 2 y_92_ * y_78_ + 1 y_92_ ^ 2 ] <= 7534.6
quadratic_ranged_500_ub: [ 1 x_83_ ^ 2 - 2 x_92_ * x_83_ + 1 x_92_ ^ 2 + 1 y_83_ ^ 2 - 2 y_92_ * y_83_ + 1 y_92_ ^ 2 ] <= 14034.960000000001
quadratic_ranged_501_ub: [ 1 x_89_ ^ 2 - 2 x_92_ * x_89_ + 1 x_92_ ^ 2 + 1 y_89_ ^ 2 - 2 y_92_ * y_89_ + 1 y_92_ ^ 2 ] <= 1617.01
quadratic_ranged_502_ub: [ 1 x_91_ ^ 2 - 2 x_92_ * x_91_ + 1 x_92_ ^ 2 + 1 y_91_ ^ 2 - 2 y_92_ * y_91_ + 1 y_92_ ^ 2 ] <= 5235.84
quadratic_ranged_503_ub: [ 1 x_4_ ^ 2 - 2 x_93_ * x_4_ + 1 x_93_ ^ 2 + 1 y_4_ ^ 2 - 2 y_93_ * y_4_ + 1 y_93_ ^ 2 ] <= 2429.05
quadratic_ranged_504_ub: [ 1 x_21_ ^ 2 - 2 x_93_ * x_21_ + 1 x_93_ ^ 2 + 1 y_21_ ^ 2 - 2 y_93_ * y_21_ + 1 y_93_ ^ 2 ] <= 4464.2
quadratic_ranged_505_ub: [ 1 x_39_ ^ 2 - 2 x_93_ * x_39_ + 1 x_93_ ^ 2 + 1 y_39_ ^ 2 - 2 y_93_ * y_39_ + 1 y_93_ ^ 2 ] <= 7516.42
quadratic_ranged_506_ub: [ 1 x_41_ ^ 2 - 2 x_93_ * x_41_ + 1 x_93_ ^ 2 + 1 y_41_ ^ 2 - 2 y_93_ * y_41_ + 1 y_93_ ^ 2 ] <= 5071.21
quadratic_ranged_507_ub: [ 1 x_47_ ^ 2 - 2 x_93_ * x_47_ + 1 x_93_ ^ 2 + 1 y_47_ ^ 2 - 2 y_93_ * y_47_ + 1 y_93_ ^ 2 ] <= 10504
quadratic_ranged_508_ub: [ 1 x_69_ ^ 2 - 2 x_93_ * x_69_ + 1 x_93_ ^ 2 + 1 y_69_ ^ 2 - 2 y_93_ * y_69_ + 1 y_93_ ^ 2 ] <= 5297.45
quadratic_ranged_509_ub: [ 1 x_70_ ^ 2 - 2 x_93_ * x_70_ + 1 x_93_ ^ 2 + 1 y_70_ ^ 2 - 2 y_93_ * y_70_ + 1 y_93_ ^ 2 ] <= 9348.56
quadratic_ranged_510_ub: [ 1 x_89_ ^ 2 - 2 x_93_ * x_89_ + 1 x_93_ ^ 2 + 1 y_89_ ^ 2 - 2 y_93_ * y_89_ + 1 y_93_ ^ 2 ] <= 6468.04
quadratic_ranged_511_ub: [ 1 x_92_ ^ 2 - 2 x_93_ * x_92_ + 1 x_93_ ^ 2 + 1 y_92_ ^ 2 - 2 y_93_ * y_92_ + 1 y_93_ ^ 2 ] <= 7761.85
quadratic_ranged_512_ub: [ 1 x_3_ ^ 2 - 2 x_94_ * x_3_ + 1 x_94_ ^ 2 + 1 y_3_ ^ 2 - 2 y_94_ * y_3_ + 1 y_94_ ^ 2 ] <= 3401.68
quadratic_ranged_513_ub: [ 1 x_7_ ^ 2 - 2 x_94_ * x_7_ + 1 x_94_ ^ 2 + 1 y_7_ ^ 2 - 2 y_94_ * y_7_ + 1 y_94_ ^ 2 ] <= 20415.13
quadratic_ranged_514_ub: [ 1 x_10_ ^ 2 - 2 x_94_ * x_10_ + 1 x_94_ ^ 2 + 1 y_10_ ^ 2 - 2 y_94_ * y_10_ + 1 y_94_ ^ 2 ] <= 20765.6
quadratic_ranged_515_ub: [ 1 x_19_ ^ 2 - 2 x_94_ * x_19_ + 1 x_94_ ^ 2 + 1 y_19_ ^ 2 - 2 y_94_ * y_19_ + 1 y_94_ ^ 2 ] <= 15727.72
quadratic_ranged_516_ub: [ 1 x_27_ ^ 2 - 2 x_94_ * x_27_ + 1 x_94_ ^ 2 + 1 y_27_ ^ 2 - 2 y_94_ * y_27_ + 1 y_94_ ^ 2 ] <= 6837.7
quadratic_ranged_517_ub: [ 1 x_35_ ^ 2 - 2 x_94_ * x_35_ + 1 x_94_ ^ 2 + 1 y_35_ ^ 2 - 2 y_94_ * y_35_ + 1 y_94_ ^ 2 ] <= 4186.45
quadratic_ranged_518_ub: [ 1 x_46_ ^ 2 - 2 x_94_ * x_46_ + 1 x_94_ ^ 2 + 1 y_46_ ^ 2 - 2 y_94_ * y_46_ + 1 y_94_ ^ 2 ] <= 7640.65
quadratic_ranged_519_ub: [ 1 x_47_ ^ 2 - 2 x_94_ * x_47_ + 1 x_94_ ^ 2 + 1 y_47_ ^ 2 - 2 y_94_ * y_47_ + 1 y_94_ ^ 2 ] <= 16681.16
quadratic_ranged_520_ub: [ 1 x_81_ ^ 2 - 2 x_94_ * x_81_ + 1 x_94_ ^ 2 + 1 y_81_ ^ 2 - 2 y_94_ * y_81_ + 1 y_94_ ^ 2 ] <= 33415.85
quadratic_ranged_521_ub: [ 1 x_82_ ^ 2 - 2 x_94_ * x_82_ + 1 x_94_ ^ 2 + 1 y_82_ ^ 2 - 2 y_94_ * y_82_ + 1 y_94_ ^ 2 ] <= 29416.25
quadratic_ranged_522_ub: [ 1 x_89_ ^ 2 - 2 x_94_ * x_89_ + 1 x_94_ ^ 2 + 1 y_89_ ^ 2 - 2 y_94_ * y_89_ + 1 y_94_ ^ 2 ] <= 11190.8
quadratic_ranged_523_ub: [ 1 x_93_ ^ 2 - 2 x_94_ * x_93_ + 1 x_94_ ^ 2 + 1 y_93_ ^ 2 - 2 y_94_ * y_93_ + 1 y_94_ ^ 2 ] <= 13045.16
quadratic_ranged_524_ub: [ 1 x_6_ ^ 2 - 2 x_95_ * x_6_ + 1 x_95_ ^ 2 + 1 y_6_ ^ 2 - 2 y_95_ * y_6_ + 1 y_95_ ^ 2 ] <= 6117.57
quadratic_ranged_525_ub: [ 1 x_13_ ^ 2 - 2 x_95_ * x_13_ + 1 x_95_ ^ 2 + 1 y_13_ ^ 2 - 2 y_95_ * y_13_ + 1 y_95_ ^ 2 ] <= 12560.36
quadratic_ranged_526_ub: [ 1 x_14_ ^ 2 - 2 x_95_ * x_14_ + 1 x_95_ ^ 2 + 1 y_14_ ^ 2 - 2 y_95_ * y_14_ + 1 y_95_ ^ 2 ] <= 3673.37
quadratic_ranged_527_ub: [ 1 x_17_ ^ 2 - 2 x_95_ * x_17_ + 1 x_95_ ^ 2 + 1 y_17_ ^ 2 - 2 y_95_ * y_17_ + 1 y_95_ ^ 2 ] <= 21465.53
quadratic_ranged_528_ub: [ 1 x_19_ ^ 2 - 2 x_95_ * x_19_ + 1 x_95_ ^ 2 + 1 y_19_ ^ 2 - 2 y_95_ * y_19_ + 1 y_95_ ^ 2 ] <= 7563.89
quadratic_ranged_529_ub: [ 1 x_27_ ^ 2 - 2 x_95_ * x_27_ + 1 x_95_ ^ 2 + 1 y_27_ ^ 2 - 2 y_95_ * y_27_ + 1 y_95_ ^ 2 ] <= 1968.49
quadratic_ranged_530_ub: [ 1 x_32_ ^ 2 - 2 x_95_ * x_32_ + 1 x_95_ ^ 2 + 1 y_32_ ^ 2 - 2 y_95_ * y_32_ + 1 y_95_ ^ 2 ] <= 13875.380000000001
quadratic_ranged_531_ub: [ 1 x_41_ ^ 2 - 2 x_95_ * x_41_ + 1 x_95_ ^ 2 + 1 y_41_ ^ 2 - 2 y_95_ * y_41_ + 1 y_95_ ^ 2 ] <= 3203.7200000000003
quadratic_ranged_532_ub: [ 1 x_47_ ^ 2 - 2 x_95_ * x_47_ + 1 x_95_ ^ 2 + 1 y_47_ ^ 2 - 2 y_95_ * y_47_ + 1 y_95_ ^ 2 ] <= 8226.45
quadratic_ranged_533_ub: [ 1 x_53_ ^ 2 - 2 x_95_ * x_53_ + 1 x_95_ ^ 2 + 1 y_53_ ^ 2 - 2 y_95_ * y_53_ + 1 y_95_ ^ 2 ] <= 14326.85
quadratic_ranged_534_ub: [ 1 x_55_ ^ 2 - 2 x_95_ * x_55_ + 1 x_95_ ^ 2 + 1 y_55_ ^ 2 - 2 y_95_ * y_55_ + 1 y_95_ ^ 2 ] <= 3737
quadratic_ranged_535_ub: [ 1 x_63_ ^ 2 - 2 x_95_ * x_63_ + 1 x_95_ ^ 2 + 1 y_63_ ^ 2 - 2 y_95_ * y_63_ + 1 y_95_ ^ 2 ] <= 13316.85
quadratic_ranged_536_ub: [ 1 x_66_ ^ 2 - 2 x_95_ * x_66_ + 1 x_95_ ^ 2 + 1 y_66_ ^ 2 - 2 y_95_ * y_66_ + 1 y_95_ ^ 2 ] <= 16693.28
quadratic_ranged_537_ub: [ 1 x_81_ ^ 2 - 2 x_95_ * x_81_ + 1 x_95_ ^ 2 + 1 y_81_ ^ 2 - 2 y_95_ * y_81_ + 1 y_95_ ^ 2 ] <= 20832.26
quadratic_ranged_538_ub: [ 1 x_94_ ^ 2 - 2 x_95_ * x_94_ + 1 x_95_ ^ 2 + 1 y_94_ ^ 2 - 2 y_95_ * y_94_ + 1 y_95_ ^ 2 ] <= 1479.65
quadratic_ranged_539_ub: [ 1 x_8_ ^ 2 - 2 x_96_ * x_8_ + 1 x_96_ ^ 2 + 1 y_8_ ^ 2 - 2 y_96_ * y_8_ + 1 y_96_ ^ 2 ] <= 21962.45
quadratic_ranged_540_ub: [ 1 x_16_ ^ 2 - 2 x_96_ * x_16_ + 1 x_96_ ^ 2 + 1 y_16_ ^ 2 - 2 y_96_ * y_16_ + 1 y_96_ ^ 2 ] <= 3737
quadratic_ranged_541_ub: [ 1 x_38_ ^ 2 - 2 x_96_ * x_38_ + 1 x_96_ ^ 2 + 1 y_38_ ^ 2 - 2 y_96_ * y_38_ + 1 y_96_ ^ 2 ] <= 17226.56
quadratic_ranged_542_ub: [ 1 x_43_ ^ 2 - 2 x_96_ * x_43_ + 1 x_96_ ^ 2 + 1 y_43_ ^ 2 - 2 y_96_ * y_43_ + 1 y_96_ ^ 2 ] <= 37269
quadratic_ranged_543_ub: [ 1 x_44_ ^ 2 - 2 x_96_ * x_44_ + 1 x_96_ ^ 2 + 1 y_44_ ^ 2 - 2 y_96_ * y_44_ + 1 y_96_ ^ 2 ] <= 18229.49
quadratic_ranged_544_ub: [ 1 x_49_ ^ 2 - 2 x_96_ * x_49_ + 1 x_96_ ^ 2 + 1 y_49_ ^ 2 - 2 y_96_ * y_49_ + 1 y_96_ ^ 2 ] <= 38716.33
quadratic_ranged_545_ub: [ 1 x_50_ ^ 2 - 2 x_96_ * x_50_ + 1 x_96_ ^ 2 + 1 y_50_ ^ 2 - 2 y_96_ * y_50_ + 1 y_96_ ^ 2 ] <= 22787.62
quadratic_ranged_546_ub: [ 1 x_54_ ^ 2 - 2 x_96_ * x_54_ + 1 x_96_ ^ 2 + 1 y_54_ ^ 2 - 2 y_96_ * y_54_ + 1 y_96_ ^ 2 ] <= 27811.36
quadratic_ranged_547_ub: [ 1 x_66_ ^ 2 - 2 x_96_ * x_66_ + 1 x_96_ ^ 2 + 1 y_66_ ^ 2 - 2 y_96_ * y_66_ + 1 y_96_ ^ 2 ] <= 14261.2
quadratic_ranged_548_ub: [ 1 x_89_ ^ 2 - 2 x_96_ * x_89_ + 1 x_96_ ^ 2 + 1 y_89_ ^ 2 - 2 y_96_ * y_89_ + 1 y_96_ ^ 2 ] <= 26487.25
quadratic_ranged_549_ub: [ 1 x_95_ ^ 2 - 2 x_96_ * x_95_ + 1 x_96_ ^ 2 + 1 y_95_ ^ 2 - 2 y_96_ * y_95_ + 1 y_96_ ^ 2 ] <= 37434.64
quadratic_ranged_550_ub: [ 1 x_17_ ^ 2 - 2 x_97_ * x_17_ + 1 x_97_ ^ 2 + 1 y_17_ ^ 2 - 2 y_97_ * y_17_ + 1 y_97_ ^ 2 ] <= 202
quadratic_ranged_551_ub: [ 1 x_24_ ^ 2 - 2 x_97_ * x_24_ + 1 x_97_ ^ 2 + 1 y_24_ ^ 2 - 2 y_97_ * y_24_ + 1 y_97_ ^ 2 ] <= 15252.01
quadratic_ranged_552_ub: [ 1 x_32_ ^ 2 - 2 x_97_ * x_32_ + 1 x_97_ ^ 2 + 1 y_32_ ^ 2 - 2 y_97_ * y_32_ + 1 y_97_ ^ 2 ] <= 18496.13
quadratic_ranged_553_ub: [ 1 x_33_ ^ 2 - 2 x_97_ * x_33_ + 1 x_97_ ^ 2 + 1 y_33_ ^ 2 - 2 y_97_ * y_33_ + 1 y_97_ ^ 2 ] <= 15502.49
quadratic_ranged_554_ub: [ 1 x_47_ ^ 2 - 2 x_97_ * x_47_ + 1 x_97_ ^ 2 + 1 y_47_ ^ 2 - 2 y_97_ * y_47_ + 1 y_97_ ^ 2 ] <= 8407.24
quadratic_ranged_555_ub: [ 1 x_64_ ^ 2 - 2 x_97_ * x_64_ + 1 x_97_ ^ 2 + 1 y_64_ ^ 2 - 2 y_97_ * y_64_ + 1 y_97_ ^ 2 ] <= 31315.05
quadratic_ranged_556_ub: [ 1 x_65_ ^ 2 - 2 x_97_ * x_65_ + 1 x_97_ ^ 2 + 1 y_65_ ^ 2 - 2 y_97_ * y_65_ + 1 y_97_ ^ 2 ] <= 8327.45
quadratic_ranged_557_ub: [ 1 x_78_ ^ 2 - 2 x_97_ * x_78_ + 1 x_97_ ^ 2 + 1 y_78_ ^ 2 - 2 y_97_ * y_78_ + 1 y_97_ ^ 2 ] <= 8812.25
quadratic_ranged_558_ub: [ 1 x_87_ ^ 2 - 2 x_97_ * x_87_ + 1 x_97_ ^ 2 + 1 y_87_ ^ 2 - 2 y_97_ * y_87_ + 1 y_97_ ^ 2 ] <= 26716.52
quadratic_ranged_559_ub: [ 1 x_88_ ^ 2 - 2 x_97_ * x_88_ + 1 x_97_ ^ 2 + 1 y_88_ ^ 2 - 2 y_97_ * y_88_ + 1 y_97_ ^ 2 ] <= 1301.89
quadratic_ranged_560_ub: [ 1 x_96_ ^ 2 - 2 x_97_ * x_96_ + 1 x_97_ ^ 2 + 1 y_96_ ^ 2 - 2 y_97_ * y_96_ + 1 y_97_ ^ 2 ] <= 6953.85
quadratic_ranged_561_ub: [ 1 x_27_ ^ 2 - 2 x_98_ * x_27_ + 1 x_98_ ^ 2 + 1 y_27_ ^ 2 - 2 y_98_ * y_27_ + 1 y_98_ ^ 2 ] <= 2458.34
quadratic_ranged_562_ub: [ 1 x_42_ ^ 2 - 2 x_98_ * x_42_ + 1 x_98_ ^ 2 + 1 y_42_ ^ 2 - 2 y_98_ * y_42_ + 1 y_98_ ^ 2 ] <= 10879.72
quadratic_ranged_563_ub: [ 1 x_63_ ^ 2 - 2 x_98_ * x_63_ + 1 x_98_ ^ 2 + 1 y_63_ ^ 2 - 2 y_98_ * y_63_ + 1 y_98_ ^ 2 ] <= 9625.3
quadratic_ranged_564_ub: [ 1 x_74_ ^ 2 - 2 x_98_ * x_74_ + 1 x_98_ ^ 2 + 1 y_74_ ^ 2 - 2 y_98_ * y_74_ + 1 y_98_ ^ 2 ] <= 6008.49
quadratic_ranged_565_ub: [ 1 x_77_ ^ 2 - 2 x_98_ * x_77_ + 1 x_98_ ^ 2 + 1 y_77_ ^ 2 - 2 y_98_ * y_77_ + 1 y_98_ ^ 2 ] <= 4122.82
quadratic_ranged_566_ub: [ 1 x_91_ ^ 2 - 2 x_98_ * x_91_ + 1 x_98_ ^ 2 + 1 y_91_ ^ 2 - 2 y_98_ * y_91_ + 1 y_98_ ^ 2 ] <= 538.33
quadratic_ranged_567_ub: [ 1 x_97_ ^ 2 - 2 x_98_ * x_97_ + 1 x_98_ ^ 2 + 1 y_97_ ^ 2 - 2 y_98_ * y_97_ + 1 y_98_ ^ 2 ] <= 9453.6
quadratic_ranged_568_ub: [ 1 x_72_ ^ 2 - 2 x_99_ * x_72_ + 1 x_99_ ^ 2 + 1 y_72_ ^ 2 - 2 y_99_ * y_72_ + 1 y_99_ ^ 2 ] <= 328.25
quadratic_ranged_569_ub: [ 1 x_79_ ^ 2 - 2 x_99_ * x_79_ + 1 x_99_ ^ 2 + 1 y_79_ ^ 2 - 2 y_99_ * y_79_ + 1 y_99_ ^ 2 ] <= 11364.52
quadratic_ranged_570_ub: [ 1 x_82_ ^ 2 - 2 x_99_ * x_82_ + 1 x_99_ ^ 2 + 1 y_82_ ^ 2 - 2 y_99_ * y_82_ + 1 y_99_ ^ 2 ] <= 21025.170000000002
quadratic_ranged_571_ub: [ 1 x_84_ ^ 2 - 2 x_99_ * x_84_ + 1 x_99_ ^ 2 + 1 y_84_ ^ 2 - 2 y_99_ * y_84_ + 1 y_99_ ^ 2 ] <= 7155.85
quadratic_ranged_572_ub: [ 1 x_94_ ^ 2 - 2 x_99_ * x_94_ + 1 x_99_ ^ 2 + 1 y_94_ ^ 2 - 2 y_99_ * y_94_ + 1 y_99_ ^ 2 ] <= 719.12
quadratic_ranged_573_ub: [ 1 x_98_ ^ 2 - 2 x_99_ * x_98_ + 1 x_99_ ^ 2 + 1 y_98_ ^ 2 - 2 y_99_ * y_98_ + 1 y_99_ ^ 2 ] <= 2367.44
quadratic_ranged_574_ub: [ 1 x_1_ ^ 2 - 2 x_100_ * x_1_ + 1 x_100_ ^ 2 + 1 y_1_ ^ 2 - 2 y_100_ * y_1_ + 1 y_100_ ^ 2 ] <= 909
quadratic_ranged_575_ub: [ 1 x_3_ ^ 2 - 2 x_100_ * x_3_ + 1 x_100_ ^ 2 + 1 y_3_ ^ 2 - 2 y_100_ * y_3_ + 1 y_100_ ^ 2 ] <= 31335.25
quadratic_ranged_576_ub: [ 1 x_10_ ^ 2 - 2 x_100_ * x_10_ + 1 x_100_ ^ 2 + 1 y_10_ ^ 2 - 2 y_100_ * y_10_ + 1 y_100_ ^ 2 ] <= 2025.05
quadratic_ranged_577_ub: [ 1 x_25_ ^ 2 - 2 x_100_ * x_25_ + 1 x_100_ ^ 2 + 1 y_25_ ^ 2 - 2 y_100_ * y_25_ + 1 y_100_ ^ 2 ] <= 7022.53
quadratic_ranged_578_ub: [ 1 x_30_ ^ 2 - 2 x_100_ * x_30_ + 1 x_100_ ^ 2 + 1 y_30_ ^ 2 - 2 y_100_ * y_30_ + 1 y_100_ ^ 2 ] <= 583.78
quadratic_ranged_579_ub: [ 1 x_31_ ^ 2 - 2 x_100_ * x_31_ + 1 x_100_ ^ 2 + 1 y_31_ ^ 2 - 2 y_100_ * y_31_ + 1 y_100_ ^ 2 ] <= 20217.170000000002
quadratic_ranged_580_ub: [ 1 x_43_ ^ 2 - 2 x_100_ * x_43_ + 1 x_100_ ^ 2 + 1 y_43_ ^ 2 - 2 y_100_ * y_43_ + 1 y_100_ ^ 2 ] <= 13018.9
quadratic_ranged_581_ub: [ 1 x_47_ ^ 2 - 2 x_100_ * x_47_ + 1 x_100_ ^ 2 + 1 y_47_ ^ 2 - 2 y_100_ * y_47_ + 1 y_100_ ^ 2 ] <= 9963.65
quadratic_ranged_582_ub: [ 1 x_49_ ^ 2 - 2 x_100_ * x_49_ + 1 x_100_ ^ 2 + 1 y_49_ ^ 2 - 2 y_100_ * y_49_ + 1 y_100_ ^ 2 ] <= 33900.65
quadratic_ranged_583_ub: [ 1 x_80_ ^ 2 - 2 x_100_ * x_80_ + 1 x_100_ ^ 2 + 1 y_80_ ^ 2 - 2 y_100_ * y_80_ + 1 y_100_ ^ 2 ] <= 32971.45
quadratic_ranged_584_ub: [ 1 x_96_ ^ 2 - 2 x_100_ * x_96_ + 1 x_100_ ^ 2 + 1 y_96_ ^ 2 - 2 y_100_ * y_96_ + 1 y_100_ ^ 2 ] <= 6328.66
quadratic_ranged_585_ub: [ 1 x_99_ ^ 2 - 2 x_100_ * x_99_ + 1 x_100_ ^ 2 + 1 y_99_ ^ 2 - 2 y_100_ * y_99_ + 1 y_100_ ^ 2 ] <= 23780.45
quadratic_ranged_1_lb: [ 1 x_1_ ^ 2 - 2 x_2_ * x_1_ + 1 x_2_ ^ 2 + 1 y_1_ ^ 2 - 2 y_2_ * y_1_ + 1 y_2_ ^ 2 ] >= 6123.15
quadratic_ranged_2_lb: [ 1 x_1_ ^ 2 - 2 x_3_ * x_1_ + 1 x_3_ ^ 2 + 1 y_1_ ^ 2 - 2 y_3_ * y_1_ + 1 y_3_ ^ 2 ] >= 26319.15
quadratic_ranged_3_lb: [ 1 x_2_ ^ 2 - 2 x_3_ * x_2_ + 1 x_3_ ^ 2 + 1 y_2_ ^ 2 - 2 y_3_ * y_2_ + 1 y_3_ ^ 2 ] >= 30707.82
quadratic_ranged_4_lb: [ 1 x_3_ ^ 2 - 2 x_4_ * x_3_ + 1 x_4_ ^ 2 + 1 y_3_ ^ 2 - 2 y_4_ * y_3_ + 1 y_4_ ^ 2 ] >= 20125.71
quadratic_ranged_5_lb: [ 1 x_4_ ^ 2 - 2 x_5_ * x_4_ + 1 x_5_ ^ 2 + 1 y_4_ ^ 2 - 2 y_5_ * y_4_ + 1 y_5_ ^ 2 ] >= 24394.59
quadratic_ranged_6_lb: [ 1 x_1_ ^ 2 - 2 x_6_ * x_1_ + 1 x_6_ ^ 2 + 1 y_1_ ^ 2 - 2 y_6_ * y_1_ + 1 y_6_ ^ 2 ] >= 25531.11
quadratic_ranged_7_lb: [ 1 x_5_ ^ 2 - 2 x_6_ * x_5_ + 1 x_6_ ^ 2 + 1 y_5_ ^ 2 - 2 y_6_ * y_5_ + 1 y_6_ ^ 2 ] >= 16641.9
quadratic_ranged_8_lb: [ 1 x_3_ ^ 2 - 2 x_7_ * x_3_ + 1 x_7_ ^ 2 + 1 y_3_ ^ 2 - 2 y_7_ * y_3_ + 1 y_7_ ^ 2 ] >= 12498.75
quadratic_ranged_9_lb: [ 1 x_6_ ^ 2 - 2 x_7_ * x_6_ + 1 x_7_ ^ 2 + 1 y_6_ ^ 2 - 2 y_7_ * y_6_ + 1 y_7_ ^ 2 ] >= 12249.27
quadratic_ranged_10_lb: [ 1 x_7_ ^ 2 - 2 x_8_ * x_7_ + 1 x_8_ ^ 2 + 1 y_7_ ^ 2 - 2 y_8_ * y_7_ + 1 y_8_ ^ 2 ] >= 5113.35
quadratic_ranged_11_lb: [ 1 x_3_ ^ 2 - 2 x_9_ * x_3_ + 1 x_9_ ^ 2 + 1 y_3_ ^ 2 - 2 y_9_ * y_3_ + 1 y_9_ ^ 2 ] >= 4943.07
quadratic_ranged_12_lb: [ 1 x_8_ ^ 2 - 2 x_9_ * x_8_ + 1 x_9_ ^ 2 + 1 y_8_ ^ 2 - 2 y_9_ * y_8_ + 1 y_9_ ^ 2 ] >= 1501.83
quadratic_ranged_13_lb: [ 1 x_3_ ^ 2 - 2 x_10_ * x_3_ + 1 x_10_ ^ 2 + 1 y_3_ ^ 2 - 2 y_10_ * y_3_ + 1 y_10_ ^ 2 ] >= 17780.4
quadratic_ranged_14_lb: [ 1 x_9_ ^ 2 - 2 x_10_ * x_9_ + 1 x_10_ ^ 2 + 1 y_9_ ^ 2 - 2 y_10_ * y_9_ + 1 y_10_ ^ 2 ] >= 5881.59
quadratic_ranged_15_lb: [ 1 x_10_ ^ 2 - 2 x_11_ * x_10_ + 1 x_11_ ^ 2 + 1 y_10_ ^ 2 - 2 y_11_ * y_10_ + 1 y_11_ ^ 2 ] >= 3732.3
quadratic_ranged_16_lb: [ 1 x_8_ ^ 2 - 2 x_12_ * x_8_ + 1 x_12_ ^ 2 + 1 y_8_ ^ 2 - 2 y_12_ * y_8_ + 1 y_12_ ^ 2 ] >= 13117.5
quadratic_ranged_17_lb: [ 1 x_11_ ^ 2 - 2 x_12_ * x_11_ + 1 x_12_ ^ 2 + 1 y_11_ ^ 2 - 2 y_12_ * y_11_ + 1 y_12_ ^ 2 ] >= 6197.4
quadratic_ranged_18_lb: [ 1 x_12_ ^ 2 - 2 x_13_ * x_12_ + 1 x_13_ ^ 2 + 1 y_12_ ^ 2 - 2 y_13_ * y_12_ + 1 y_13_ ^ 2 ] >= 19575.27
quadratic_ranged_19_lb: [ 1 x_13_ ^ 2 - 2 x_14_ * x_13_ + 1 x_14_ ^ 2 + 1 y_13_ ^ 2 - 2 y_14_ * y_13_ + 1 y_14_ ^ 2 ] >= 19840.59
quadratic_ranged_20_lb: [ 1 x_5_ ^ 2 - 2 x_15_ * x_5_ + 1 x_15_ ^ 2 + 1 y_5_ ^ 2 - 2 y_15_ * y_5_ + 1 y_15_ ^ 2 ] >= 28355.579999999998
quadratic_ranged_21_lb: [ 1 x_13_ ^ 2 - 2 x_15_ * x_13_ + 1 x_15_ ^ 2 + 1 y_13_ ^ 2 - 2 y_15_ * y_13_ + 1 y_15_ ^ 2 ] >= 39751.47
quadratic_ranged_22_lb: [ 1 x_14_ ^ 2 - 2 x_15_ * x_14_ + 1 x_15_ ^ 2 + 1 y_14_ ^ 2 - 2 y_15_ * y_14_ + 1 y_15_ ^ 2 ] >= 31858.2
quadratic_ranged_23_lb: [ 1 x_5_ ^ 2 - 2 x_16_ * x_5_ + 1 x_16_ ^ 2 + 1 y_5_ ^ 2 - 2 y_16_ * y_5_ + 1 y_16_ ^ 2 ] >= 22517.55
quadratic_ranged_24_lb: [ 1 x_15_ ^ 2 - 2 x_16_ * x_15_ + 1 x_16_ ^ 2 + 1 y_15_ ^ 2 - 2 y_16_ * y_15_ + 1 y_16_ ^ 2 ] >= 15195.51
quadratic_ranged_25_lb: [ 1 x_2_ ^ 2 - 2 x_17_ * x_2_ + 1 x_17_ ^ 2 + 1 y_2_ ^ 2 - 2 y_17_ * y_2_ + 1 y_17_ ^ 2 ] >= 3225.42
quadratic_ranged_26_lb: [ 1 x_6_ ^ 2 - 2 x_17_ * x_6_ + 1 x_17_ ^ 2 + 1 y_6_ ^ 2 - 2 y_17_ * y_6_ + 1 y_17_ ^ 2 ] >= 30452.4
quadratic_ranged_27_lb: [ 1 x_8_ ^ 2 - 2 x_17_ * x_8_ + 1 x_17_ ^ 2 + 1 y_8_ ^ 2 - 2 y_17_ * y_8_ + 1 y_17_ ^ 2 ] >= 17919
quadratic_ranged_28_lb: [ 1 x_16_ ^ 2 - 2 x_17_ * x_16_ + 1 x_17_ ^ 2 + 1 y_16_ ^ 2 - 2 y_17_ * y_16_ + 1 y_17_ ^ 2 ] >= 559.35
quadratic_ranged_29_lb: [ 1 x_1_ ^ 2 - 2 x_18_ * x_1_ + 1 x_18_ ^ 2 + 1 y_1_ ^ 2 - 2 y_18_ * y_1_ + 1 y_18_ ^ 2 ] >= 16660.71
quadratic_ranged_30_lb: [ 1 x_17_ ^ 2 - 2 x_18_ * x_17_ + 1 x_18_ ^ 2 + 1 y_17_ ^ 2 - 2 y_18_ * y_17_ + 1 y_18_ ^ 2 ] >= 24466.86
quadratic_ranged_31_lb: [ 1 x_5_ ^ 2 - 2 x_19_ * x_5_ + 1 x_19_ ^ 2 + 1 y_5_ ^ 2 - 2 y_19_ * y_5_ + 1 y_19_ ^ 2 ] >= 2457.18
quadratic_ranged_32_lb: [ 1 x_8_ ^ 2 - 2 x_19_ * x_8_ + 1 x_19_ ^ 2 + 1 y_8_ ^ 2 - 2 y_19_ * y_8_ + 1 y_19_ ^ 2 ] >= 16544.88
quadratic_ranged_33_lb: [ 1 x_9_ ^ 2 - 2 x_19_ * x_9_ + 1 x_19_ ^ 2 + 1 y_9_ ^ 2 - 2 y_19_ * y_9_ + 1 y_19_ ^ 2 ] >= 8126.91
quadratic_ranged_34_lb: [ 1 x_18_ ^ 2 - 2 x_19_ * x_18_ + 1 x_19_ ^ 2 + 1 y_18_ ^ 2 - 2 y_19_ * y_18_ + 1 y_19_ ^ 2 ] >= 4064.94
quadratic_ranged_35_lb: [ 1 x_4_ ^ 2 - 2 x_20_ * x_4_ + 1 x_20_ ^ 2 + 1 y_4_ ^ 2 - 2 y_20_ * y_4_ + 1 y_20_ ^ 2 ] >= 14305.5
quadratic_ranged_36_lb: [ 1 x_10_ ^ 2 - 2 x_20_ * x_10_ + 1 x_20_ ^ 2 + 1 y_10_ ^ 2 - 2 y_20_ * y_10_ + 1 y_20_ ^ 2 ] >= 8986.23
quadratic_ranged_37_lb: [ 1 x_13_ ^ 2 - 2 x_20_ * x_13_ + 1 x_20_ ^ 2 + 1 y_13_ ^ 2 - 2 y_20_ * y_13_ + 1 y_20_ ^ 2 ] >= 3661.02
quadratic_ranged_38_lb: [ 1 x_19_ ^ 2 - 2 x_20_ * x_19_ + 1 x_20_ ^ 2 + 1 y_19_ ^ 2 - 2 y_20_ * y_19_ + 1 y_20_ ^ 2 ] >= 3469.95
quadratic_ranged_39_lb: [ 1 x_20_ ^ 2 - 2 x_21_ * x_20_ + 1 x_21_ ^ 2 + 1 y_20_ ^ 2 - 2 y_21_ * y_20_ + 1 y_21_ ^ 2 ] >= 24679.71
quadratic_ranged_40_lb: [ 1 x_6_ ^ 2 - 2 x_22_ * x_6_ + 1 x_22_ ^ 2 + 1 y_6_ ^ 2 - 2 y_22_ * y_6_ + 1 y_22_ ^ 2 ] >= 10527.66
quadratic_ranged_41_lb: [ 1 x_20_ ^ 2 - 2 x_22_ * x_20_ + 1 x_22_ ^ 2 + 1 y_20_ ^ 2 - 2 y_22_ * y_20_ + 1 y_22_ ^ 2 ] >= 28227.87
quadratic_ranged_42_lb: [ 1 x_21_ ^ 2 - 2 x_22_ * x_21_ + 1 x_22_ ^ 2 + 1 y_21_ ^ 2 - 2 y_22_ * y_21_ + 1 y_22_ ^ 2 ] >= 39594.06
quadratic_ranged_43_lb: [ 1 x_2_ ^ 2 - 2 x_23_ * x_2_ + 1 x_23_ ^ 2 + 1 y_2_ ^ 2 - 2 y_23_ * y_2_ + 1 y_23_ ^ 2 ] >= 2642.31
quadratic_ranged_44_lb: [ 1 x_6_ ^ 2 - 2 x_23_ * x_6_ + 1 x_23_ ^ 2 + 1 y_6_ ^ 2 - 2 y_23_ * y_6_ + 1 y_23_ ^ 2 ] >= 14973.75
quadratic_ranged_45_lb: [ 1 x_13_ ^ 2 - 2 x_23_ * x_13_ + 1 x_23_ ^ 2 + 1 y_13_ ^ 2 - 2 y_23_ * y_13_ + 1 y_23_ ^ 2 ] >= 22653.18
quadratic_ranged_46_lb: [ 1 x_19_ ^ 2 - 2 x_23_ * x_19_ + 1 x_23_ ^ 2 + 1 y_19_ ^ 2 - 2 y_23_ * y_19_ + 1 y_23_ ^ 2 ] >= 15246.99
quadratic_ranged_47_lb: [ 1 x_22_ ^ 2 - 2 x_23_ * x_22_ + 1 x_23_ ^ 2 + 1 y_22_ ^ 2 - 2 y_23_ * y_22_ + 1 y_23_ ^ 2 ] >= 28790.19
quadratic_ranged_48_lb: [ 1 x_3_ ^ 2 - 2 x_24_ * x_3_ + 1 x_24_ ^ 2 + 1 y_3_ ^ 2 - 2 y_24_ * y_3_ + 1 y_24_ ^ 2 ] >= 12063.15
quadratic_ranged_49_lb: [ 1 x_7_ ^ 2 - 2 x_24_ * x_7_ + 1 x_24_ ^ 2 + 1 y_7_ ^ 2 - 2 y_24_ * y_7_ + 1 y_24_ ^ 2 ] >= 19166.4
quadratic_ranged_50_lb: [ 1 x_17_ ^ 2 - 2 x_24_ * x_17_ + 1 x_24_ ^ 2 + 1 y_17_ ^ 2 - 2 y_24_ * y_17_ + 1 y_24_ ^ 2 ] >= 17670.51
quadratic_ranged_51_lb: [ 1 x_23_ ^ 2 - 2 x_24_ * x_23_ + 1 x_24_ ^ 2 + 1 y_23_ ^ 2 - 2 y_24_ * y_23_ + 1 y_24_ ^ 2 ] >= 16224.119999999999
quadratic_ranged_52_lb: [ 1 x_2_ ^ 2 - 2 x_25_ * x_2_ + 1 x_25_ ^ 2 + 1 y_2_ ^ 2 - 2 y_25_ * y_2_ + 1 y_25_ ^ 2 ] >= 1461.24
quadratic_ranged_53_lb: [ 1 x_23_ ^ 2 - 2 x_25_ * x_23_ + 1 x_25_ ^ 2 + 1 y_23_ ^ 2 - 2 y_25_ * y_23_ + 1 y_25_ ^ 2 ] >= 1751.31
quadratic_ranged_54_lb: [ 1 x_24_ ^ 2 - 2 x_25_ * x_24_ + 1 x_25_ ^ 2 + 1 y_24_ ^ 2 - 2 y_25_ * y_24_ + 1 y_25_ ^ 2 ] >= 28635.75
quadratic_ranged_55_lb: [ 1 x_2_ ^ 2 - 2 x_26_ * x_2_ + 1 x_26_ ^ 2 + 1 y_2_ ^ 2 - 2 y_26_ * y_2_ + 1 y_26_ ^ 2 ] >= 33625.35
quadratic_ranged_56_lb: [ 1 x_3_ ^ 2 - 2 x_26_ * x_3_ + 1 x_26_ ^ 2 + 1 y_3_ ^ 2 - 2 y_26_ * y_3_ + 1 y_26_ ^ 2 ] >= 2879.91
quadratic_ranged_57_lb: [ 1 x_12_ ^ 2 - 2 x_26_ * x_12_ + 1 x_26_ ^ 2 + 1 y_12_ ^ 2 - 2 y_26_ * y_12_ + 1 y_26_ ^ 2 ] >= 25542.989999999998
quadratic_ranged_58_lb: [ 1 x_25_ ^ 2 - 2 x_26_ * x_25_ + 1 x_26_ ^ 2 + 1 y_25_ ^ 2 - 2 y_26_ * y_25_ + 1 y_26_ ^ 2 ] >= 29491.11
quadratic_ranged_59_lb: [ 1 x_4_ ^ 2 - 2 x_27_ * x_4_ + 1 x_27_ ^ 2 + 1 y_4_ ^ 2 - 2 y_27_ * y_4_ + 1 y_27_ ^ 2 ] >= 14993.55
quadratic_ranged_60_lb: [ 1 x_26_ ^ 2 - 2 x_27_ * x_26_ + 1 x_27_ ^ 2 + 1 y_26_ ^ 2 - 2 y_27_ * y_26_ + 1 y_27_ ^ 2 ] >= 5766.75
quadratic_ranged_61_lb: [ 1 x_6_ ^ 2 - 2 x_28_ * x_6_ + 1 x_28_ ^ 2 + 1 y_6_ ^ 2 - 2 y_28_ * y_6_ + 1 y_28_ ^ 2 ] >= 1969.11
quadratic_ranged_62_lb: [ 1 x_15_ ^ 2 - 2 x_28_ * x_15_ + 1 x_28_ ^ 2 + 1 y_15_ ^ 2 - 2 y_28_ * y_15_ + 1 y_28_ ^ 2 ] >= 5529.15
quadratic_ranged_63_lb: [ 1 x_27_ ^ 2 - 2 x_28_ * x_27_ + 1 x_28_ ^ 2 + 1 y_27_ ^ 2 - 2 y_28_ * y_27_ + 1 y_28_ ^ 2 ] >= 5410.35
quadratic_ranged_64_lb: [ 1 x_1_ ^ 2 - 2 x_29_ * x_1_ + 1 x_29_ ^ 2 + 1 y_1_ ^ 2 - 2 y_29_ * y_1_ + 1 y_29_ ^ 2 ] >= 21797.82
quadratic_ranged_65_lb: [ 1 x_7_ ^ 2 - 2 x_29_ * x_7_ + 1 x_29_ ^ 2 + 1 y_7_ ^ 2 - 2 y_29_ * y_7_ + 1 y_29_ ^ 2 ] >= 7874.46
quadratic_ranged_66_lb: [ 1 x_16_ ^ 2 - 2 x_29_ * x_16_ + 1 x_29_ ^ 2 + 1 y_16_ ^ 2 - 2 y_29_ * y_16_ + 1 y_29_ ^ 2 ] >= 22469.04
quadratic_ranged_67_lb: [ 1 x_28_ ^ 2 - 2 x_29_ * x_28_ + 1 x_29_ ^ 2 + 1 y_28_ ^ 2 - 2 y_29_ * y_28_ + 1 y_29_ ^ 2 ] >= 1461.24
quadratic_ranged_68_lb: [ 1 x_2_ ^ 2 - 2 x_30_ * x_2_ + 1 x_30_ ^ 2 + 1 y_2_ ^ 2 - 2 y_30_ * y_2_ + 1 y_30_ ^ 2 ] >= 5798.43
quadratic_ranged_69_lb: [ 1 x_10_ ^ 2 - 2 x_30_ * x_10_ + 1 x_30_ ^ 2 + 1 y_10_ ^ 2 - 2 y_30_ * y_10_ + 1 y_30_ ^ 2 ] >= 3945.15
quadratic_ranged_70_lb: [ 1 x_20_ ^ 2 - 2 x_30_ * x_20_ + 1 x_30_ ^ 2 + 1 y_20_ ^ 2 - 2 y_30_ * y_20_ + 1 y_30_ ^ 2 ] >= 2053.2599999999998
quadratic_ranged_71_lb: [ 1 x_29_ ^ 2 - 2 x_30_ * x_29_ + 1 x_30_ ^ 2 + 1 y_29_ ^ 2 - 2 y_30_ * y_29_ + 1 y_30_ ^ 2 ] >= 29086.2
quadratic_ranged_72_lb: [ 1 x_1_ ^ 2 - 2 x_31_ * x_1_ + 1 x_31_ ^ 2 + 1 y_1_ ^ 2 - 2 y_31_ * y_1_ + 1 y_31_ ^ 2 ] >= 12308.67
quadratic_ranged_73_lb: [ 1 x_4_ ^ 2 - 2 x_31_ * x_4_ + 1 x_31_ ^ 2 + 1 y_4_ ^ 2 - 2 y_31_ * y_4_ + 1 y_31_ ^ 2 ] >= 28398.15
quadratic_ranged_74_lb: [ 1 x_9_ ^ 2 - 2 x_31_ * x_9_ + 1 x_31_ ^ 2 + 1 y_9_ ^ 2 - 2 y_31_ * y_9_ + 1 y_31_ ^ 2 ] >= 11659.23
quadratic_ranged_75_lb: [ 1 x_14_ ^ 2 - 2 x_31_ * x_14_ + 1 x_31_ ^ 2 + 1 y_14_ ^ 2 - 2 y_31_ * y_14_ + 1 y_31_ ^ 2 ] >= 10969.2
quadratic_ranged_76_lb: [ 1 x_26_ ^ 2 - 2 x_31_ * x_26_ + 1 x_31_ ^ 2 + 1 y_26_ ^ 2 - 2 y_31_ * y_26_ + 1 y_31_ ^ 2 ] >= 13805.55
quadratic_ranged_77_lb: [ 1 x_30_ ^ 2 - 2 x_31_ * x_30_ + 1 x_31_ ^ 2 + 1 y_30_ ^ 2 - 2 y_31_ * y_30_ + 1 y_31_ ^ 2 ] >= 16229.07
quadratic_ranged_78_lb: [ 1 x_10_ ^ 2 - 2 x_32_ * x_10_ + 1 x_32_ ^ 2 + 1 y_10_ ^ 2 - 2 y_32_ * y_10_ + 1 y_32_ ^ 2 ] >= 10122.75
quadratic_ranged_79_lb: [ 1 x_18_ ^ 2 - 2 x_32_ * x_18_ + 1 x_32_ ^ 2 + 1 y_18_ ^ 2 - 2 y_32_ * y_18_ + 1 y_32_ ^ 2 ] >= 30512.79
quadratic_ranged_80_lb: [ 1 x_28_ ^ 2 - 2 x_32_ * x_28_ + 1 x_32_ ^ 2 + 1 y_28_ ^ 2 - 2 y_32_ * y_28_ + 1 y_32_ ^ 2 ] >= 3930.3
quadratic_ranged_81_lb: [ 1 x_31_ ^ 2 - 2 x_32_ * x_31_ + 1 x_32_ ^ 2 + 1 y_31_ ^ 2 - 2 y_32_ * y_31_ + 1 y_32_ ^ 2 ] >= 35169.75
quadratic_ranged_82_lb: [ 1 x_19_ ^ 2 - 2 x_33_ * x_19_ + 1 x_33_ ^ 2 + 1 y_19_ ^ 2 - 2 y_33_ * y_19_ + 1 y_33_ ^ 2 ] >= 4931.19
quadratic_ranged_83_lb: [ 1 x_20_ ^ 2 - 2 x_33_ * x_20_ + 1 x_33_ ^ 2 + 1 y_20_ ^ 2 - 2 y_33_ * y_20_ + 1 y_33_ ^ 2 ] >= 15057.9
quadratic_ranged_84_lb: [ 1 x_32_ ^ 2 - 2 x_33_ * x_32_ + 1 x_33_ ^ 2 + 1 y_32_ ^ 2 - 2 y_33_ * y_32_ + 1 y_33_ ^ 2 ] >= 15517.26
quadratic_ranged_85_lb: [ 1 x_1_ ^ 2 - 2 x_34_ * x_1_ + 1 x_34_ ^ 2 + 1 y_1_ ^ 2 - 2 y_34_ * y_1_ + 1 y_34_ ^ 2 ] >= 4197.6
quadratic_ranged_86_lb: [ 1 x_5_ ^ 2 - 2 x_34_ * x_5_ + 1 x_34_ ^ 2 + 1 y_5_ ^ 2 - 2 y_34_ * y_5_ + 1 y_34_ ^ 2 ] >= 14225.31
quadratic_ranged_87_lb: [ 1 x_33_ ^ 2 - 2 x_34_ * x_33_ + 1 x_34_ ^ 2 + 1 y_33_ ^ 2 - 2 y_34_ * y_33_ + 1 y_34_ ^ 2 ] >= 9395.1
quadratic_ranged_88_lb: [ 1 x_19_ ^ 2 - 2 x_35_ * x_19_ + 1 x_35_ ^ 2 + 1 y_19_ ^ 2 - 2 y_35_ * y_19_ + 1 y_35_ ^ 2 ] >= 13694.67
quadratic_ranged_89_lb: [ 1 x_28_ ^ 2 - 2 x_35_ * x_28_ + 1 x_35_ ^ 2 + 1 y_28_ ^ 2 - 2 y_35_ * y_28_ + 1 y_35_ ^ 2 ] >= 39.6
quadratic_ranged_90_lb: [ 1 x_31_ ^ 2 - 2 x_35_ * x_31_ + 1 x_35_ ^ 2 + 1 y_31_ ^ 2 - 2 y_35_ * y_31_ + 1 y_35_ ^ 2 ] >= 17749.71
quadratic_ranged_91_lb: [ 1 x_34_ ^ 2 - 2 x_35_ * x_34_ + 1 x_35_ ^ 2 + 1 y_34_ ^ 2 - 2 y_35_ * y_34_ + 1 y_35_ ^ 2 ] >= 4049.1
quadratic_ranged_92_lb: [ 1 x_10_ ^ 2 - 2 x_36_ * x_10_ + 1 x_36_ ^ 2 + 1 y_10_ ^ 2 - 2 y_36_ * y_10_ + 1 y_36_ ^ 2 ] >= 18525.87
quadratic_ranged_93_lb: [ 1 x_21_ ^ 2 - 2 x_36_ * x_21_ + 1 x_36_ ^ 2 + 1 y_21_ ^ 2 - 2 y_36_ * y_21_ + 1 y_36_ ^ 2 ] >= 22767.03
quadratic_ranged_94_lb: [ 1 x_22_ ^ 2 - 2 x_36_ * x_22_ + 1 x_36_ ^ 2 + 1 y_22_ ^ 2 - 2 y_36_ * y_22_ + 1 y_36_ ^ 2 ] >= 5026.23
quadratic_ranged_95_lb: [ 1 x_34_ ^ 2 - 2 x_36_ * x_34_ + 1 x_36_ ^ 2 + 1 y_34_ ^ 2 - 2 y_36_ * y_34_ + 1 y_36_ ^ 2 ] >= 12691.8
quadratic_ranged_96_lb: [ 1 x_35_ ^ 2 - 2 x_36_ * x_35_ + 1 x_36_ ^ 2 + 1 y_35_ ^ 2 - 2 y_36_ * y_35_ + 1 y_36_ ^ 2 ] >= 2528.46
quadratic_ranged_97_lb: [ 1 x_24_ ^ 2 - 2 x_37_ * x_24_ + 1 x_37_ ^ 2 + 1 y_24_ ^ 2 - 2 y_37_ * y_24_ + 1 y_37_ ^ 2 ] >= 574.2
quadratic_ranged_98_lb: [ 1 x_36_ ^ 2 - 2 x_37_ * x_36_ + 1 x_37_ ^ 2 + 1 y_36_ ^ 2 - 2 y_37_ * y_36_ + 1 y_37_ ^ 2 ] >= 10549.44
quadratic_ranged_99_lb: [ 1 x_5_ ^ 2 - 2 x_38_ * x_5_ + 1 x_38_ ^ 2 + 1 y_5_ ^ 2 - 2 y_38_ * y_5_ + 1 y_38_ ^ 2 ] >= 12443.31
quadratic_ranged_100_lb: [ 1 x_19_ ^ 2 - 2 x_38_ * x_19_ + 1 x_38_ ^ 2 + 1 y_19_ ^ 2 - 2 y_38_ * y_19_ + 1 y_38_ ^ 2 ] >= 13389.75
quadratic_ranged_101_lb: [ 1 x_21_ ^ 2 - 2 x_38_ * x_21_ + 1 x_38_ ^ 2 + 1 y_21_ ^ 2 - 2 y_38_ * y_21_ + 1 y_38_ ^ 2 ] >= 6788.43
quadratic_ranged_102_lb: [ 1 x_37_ ^ 2 - 2 x_38_ * x_37_ + 1 x_38_ ^ 2 + 1 y_37_ ^ 2 - 2 y_38_ * y_37_ + 1 y_38_ ^ 2 ] >= 8999.1
quadratic_ranged_103_lb: [ 1 x_3_ ^ 2 - 2 x_39_ * x_3_ + 1 x_39_ ^ 2 + 1 y_3_ ^ 2 - 2 y_39_ * y_3_ + 1 y_39_ ^ 2 ] >= 2956.14
quadratic_ranged_104_lb: [ 1 x_11_ ^ 2 - 2 x_39_ * x_11_ + 1 x_39_ ^ 2 + 1 y_11_ ^ 2 - 2 y_39_ * y_11_ + 1 y_39_ ^ 2 ] >= 2985.84
quadratic_ranged_105_lb: [ 1 x_14_ ^ 2 - 2 x_39_ * x_14_ + 1 x_39_ ^ 2 + 1 y_14_ ^ 2 - 2 y_39_ * y_14_ + 1 y_39_ ^ 2 ] >= 25290.54
quadratic_ranged_106_lb: [ 1 x_15_ ^ 2 - 2 x_39_ * x_15_ + 1 x_39_ ^ 2 + 1 y_15_ ^ 2 - 2 y_39_ * y_15_ + 1 y_39_ ^ 2 ] >= 952.38
quadratic_ranged_107_lb: [ 1 x_17_ ^ 2 - 2 x_39_ * x_17_ + 1 x_39_ ^ 2 + 1 y_17_ ^ 2 - 2 y_39_ * y_17_ + 1 y_39_ ^ 2 ] >= 25528.14
quadratic_ranged_108_lb: [ 1 x_21_ ^ 2 - 2 x_39_ * x_21_ + 1 x_39_ ^ 2 + 1 y_21_ ^ 2 - 2 y_39_ * y_21_ + 1 y_39_ ^ 2 ] >= 8064.54
quadratic_ranged_109_lb: [ 1 x_31_ ^ 2 - 2 x_39_ * x_31_ + 1 x_39_ ^ 2 + 1 y_31_ ^ 2 - 2 y_39_ * y_31_ + 1 y_39_ ^ 2 ] >= 36362.7
quadratic_ranged_110_lb: [ 1 x_35_ ^ 2 - 2 x_39_ * x_35_ + 1 x_39_ ^ 2 + 1 y_35_ ^ 2 - 2 y_39_ * y_35_ + 1 y_39_ ^ 2 ] >= 3327.39
quadratic_ranged_111_lb: [ 1 x_38_ ^ 2 - 2 x_39_ * x_38_ + 1 x_39_ ^ 2 + 1 y_38_ ^ 2 - 2 y_39_ * y_38_ + 1 y_39_ ^ 2 ] >= 3172.95
quadratic_ranged_112_lb: [ 1 x_13_ ^ 2 - 2 x_40_ * x_13_ + 1 x_40_ ^ 2 + 1 y_13_ ^ 2 - 2 y_40_ * y_13_ + 1 y_40_ ^ 2 ] >= 30318.75
quadratic_ranged_113_lb: [ 1 x_32_ ^ 2 - 2 x_40_ * x_32_ + 1 x_40_ ^ 2 + 1 y_32_ ^ 2 - 2 y_40_ * y_32_ + 1 y_40_ ^ 2 ] >= 7497.2699999999995
quadratic_ranged_114_lb: [ 1 x_39_ ^ 2 - 2 x_40_ * x_39_ + 1 x_40_ ^ 2 + 1 y_39_ ^ 2 - 2 y_40_ * y_39_ + 1 y_40_ ^ 2 ] >= 10099.98
quadratic_ranged_115_lb: [ 1 x_14_ ^ 2 - 2 x_41_ * x_14_ + 1 x_41_ ^ 2 + 1 y_14_ ^ 2 - 2 y_41_ * y_14_ + 1 y_41_ ^ 2 ] >= 10518.75
quadratic_ranged_116_lb: [ 1 x_40_ ^ 2 - 2 x_41_ * x_40_ + 1 x_41_ ^ 2 + 1 y_40_ ^ 2 - 2 y_41_ * y_40_ + 1 y_41_ ^ 2 ] >= 13346.19
quadratic_ranged_117_lb: [ 1 x_20_ ^ 2 - 2 x_42_ * x_20_ + 1 x_42_ ^ 2 + 1 y_20_ ^ 2 - 2 y_42_ * y_20_ + 1 y_42_ ^ 2 ] >= 321.75
quadratic_ranged_118_lb: [ 1 x_21_ ^ 2 - 2 x_42_ * x_21_ + 1 x_42_ ^ 2 + 1 y_21_ ^ 2 - 2 y_42_ * y_21_ + 1 y_42_ ^ 2 ] >= 20437.56
quadratic_ranged_119_lb: [ 1 x_23_ ^ 2 - 2 x_42_ * x_23_ + 1 x_42_ ^ 2 + 1 y_23_ ^ 2 - 2 y_42_ * y_23_ + 1 y_42_ ^ 2 ] >= 10863.27
quadratic_ranged_120_lb: [ 1 x_41_ ^ 2 - 2 x_42_ * x_41_ + 1 x_42_ ^ 2 + 1 y_41_ ^ 2 - 2 y_42_ * y_41_ + 1 y_42_ ^ 2 ] >= 20149.47
quadratic_ranged_121_lb: [ 1 x_13_ ^ 2 - 2 x_43_ * x_13_ + 1 x_43_ ^ 2 + 1 y_13_ ^ 2 - 2 y_43_ * y_13_ + 1 y_43_ ^ 2 ] >= 2890.8
quadratic_ranged_122_lb: [ 1 x_19_ ^ 2 - 2 x_43_ * x_19_ + 1 x_43_ ^ 2 + 1 y_19_ ^ 2 - 2 y_43_ * y_19_ + 1 y_43_ ^ 2 ] >= 5410.35
quadratic_ranged_123_lb: [ 1 x_33_ ^ 2 - 2 x_43_ * x_33_ + 1 x_43_ ^ 2 + 1 y_33_ ^ 2 - 2 y_43_ * y_33_ + 1 y_43_ ^ 2 ] >= 20663.28
quadratic_ranged_124_lb: [ 1 x_38_ ^ 2 - 2 x_43_ * x_38_ + 1 x_43_ ^ 2 + 1 y_38_ ^ 2 - 2 y_43_ * y_38_ + 1 y_43_ ^ 2 ] >= 31984.92
quadratic_ranged_125_lb: [ 1 x_42_ ^ 2 - 2 x_43_ * x_42_ + 1 x_43_ ^ 2 + 1 y_42_ ^ 2 - 2 y_43_ * y_42_ + 1 y_43_ ^ 2 ] >= 3663.99
quadratic_ranged_126_lb: [ 1 x_10_ ^ 2 - 2 x_44_ * x_10_ + 1 x_44_ ^ 2 + 1 y_10_ ^ 2 - 2 y_44_ * y_10_ + 1 y_44_ ^ 2 ] >= 5427.18
quadratic_ranged_127_lb: [ 1 x_17_ ^ 2 - 2 x_44_ * x_17_ + 1 x_44_ ^ 2 + 1 y_17_ ^ 2 - 2 y_44_ * y_17_ + 1 y_44_ ^ 2 ] >= 2813.58
quadratic_ranged_128_lb: [ 1 x_39_ ^ 2 - 2 x_44_ * x_39_ + 1 x_44_ ^ 2 + 1 y_39_ ^ 2 - 2 y_44_ * y_39_ + 1 y_44_ ^ 2 ] >= 29007
quadratic_ranged_129_lb: [ 1 x_40_ ^ 2 - 2 x_44_ * x_40_ + 1 x_44_ ^ 2 + 1 y_40_ ^ 2 - 2 y_44_ * y_40_ + 1 y_44_ ^ 2 ] >= 14075.82
quadratic_ranged_130_lb: [ 1 x_43_ ^ 2 - 2 x_44_ * x_43_ + 1 x_44_ ^ 2 + 1 y_43_ ^ 2 - 2 y_44_ * y_43_ + 1 y_44_ ^ 2 ] >= 4515.39
quadratic_ranged_131_lb: [ 1 x_5_ ^ 2 - 2 x_45_ * x_5_ + 1 x_45_ ^ 2 + 1 y_5_ ^ 2 - 2 y_45_ * y_5_ + 1 y_45_ ^ 2 ] >= 17971.47
quadratic_ranged_132_lb: [ 1 x_8_ ^ 2 - 2 x_45_ * x_8_ + 1 x_45_ ^ 2 + 1 y_8_ ^ 2 - 2 y_45_ * y_8_ + 1 y_45_ ^ 2 ] >= 2963.07
quadratic_ranged_133_lb: [ 1 x_9_ ^ 2 - 2 x_45_ * x_9_ + 1 x_45_ ^ 2 + 1 y_9_ ^ 2 - 2 y_45_ * y_9_ + 1 y_45_ ^ 2 ] >= 3653.1
quadratic_ranged_134_lb: [ 1 x_24_ ^ 2 - 2 x_45_ * x_24_ + 1 x_45_ ^ 2 + 1 y_24_ ^ 2 - 2 y_45_ * y_24_ + 1 y_45_ ^ 2 ] >= 13410.539999999999
quadratic_ranged_135_lb: [ 1 x_44_ ^ 2 - 2 x_45_ * x_44_ + 1 x_45_ ^ 2 + 1 y_44_ ^ 2 - 2 y_45_ * y_44_ + 1 y_45_ ^ 2 ] >= 11825.55
quadratic_ranged_136_lb: [ 1 x_24_ ^ 2 - 2 x_46_ * x_24_ + 1 x_46_ ^ 2 + 1 y_24_ ^ 2 - 2 y_46_ * y_24_ + 1 y_46_ ^ 2 ] >= 4453.0199999999995
quadratic_ranged_137_lb: [ 1 x_45_ ^ 2 - 2 x_46_ * x_45_ + 1 x_46_ ^ 2 + 1 y_45_ ^ 2 - 2 y_46_ * y_45_ + 1 y_46_ ^ 2 ] >= 2423.52
quadratic_ranged_138_lb: [ 1 x_1_ ^ 2 - 2 x_47_ * x_1_ + 1 x_47_ ^ 2 + 1 y_1_ ^ 2 - 2 y_47_ * y_1_ + 1 y_47_ ^ 2 ] >= 4776.75
quadratic_ranged_139_lb: [ 1 x_9_ ^ 2 - 2 x_47_ * x_9_ + 1 x_47_ ^ 2 + 1 y_9_ ^ 2 - 2 y_47_ * y_9_ + 1 y_47_ ^ 2 ] >= 8578.35
quadratic_ranged_140_lb: [ 1 x_19_ ^ 2 - 2 x_47_ * x_19_ + 1 x_47_ ^ 2 + 1 y_19_ ^ 2 - 2 y_47_ * y_19_ + 1 y_47_ ^ 2 ] >= 15.84
quadratic_ranged_141_lb: [ 1 x_21_ ^ 2 - 2 x_47_ * x_21_ + 1 x_47_ ^ 2 + 1 y_21_ ^ 2 - 2 y_47_ * y_21_ + 1 y_47_ ^ 2 ] >= 26631
quadratic_ranged_142_lb: [ 1 x_43_ ^ 2 - 2 x_47_ * x_43_ + 1 x_47_ ^ 2 + 1 y_43_ ^ 2 - 2 y_47_ * y_43_ + 1 y_47_ ^ 2 ] >= 4887.63
quadratic_ranged_143_lb: [ 1 x_46_ ^ 2 - 2 x_47_ * x_46_ + 1 x_47_ ^ 2 + 1 y_46_ ^ 2 - 2 y_47_ * y_46_ + 1 y_47_ ^ 2 ] >= 6998.3099999999995
quadratic_ranged_144_lb: [ 1 x_7_ ^ 2 - 2 x_48_ * x_7_ + 1 x_48_ ^ 2 + 1 y_7_ ^ 2 - 2 y_48_ * y_7_ + 1 y_48_ ^ 2 ] >= 11581.02
quadratic_ranged_145_lb: [ 1 x_8_ ^ 2 - 2 x_48_ * x_8_ + 1 x_48_ ^ 2 + 1 y_8_ ^ 2 - 2 y_48_ * y_8_ + 1 y_48_ ^ 2 ] >= 12930.39
quadratic_ranged_146_lb: [ 1 x_21_ ^ 2 - 2 x_48_ * x_21_ + 1 x_48_ ^ 2 + 1 y_21_ ^ 2 - 2 y_48_ * y_21_ + 1 y_48_ ^ 2 ] >= 15298.47
quadratic_ranged_147_lb: [ 1 x_27_ ^ 2 - 2 x_48_ * x_27_ + 1 x_48_ ^ 2 + 1 y_27_ ^ 2 - 2 y_48_ * y_27_ + 1 y_48_ ^ 2 ] >= 3537.27
quadratic_ranged_148_lb: [ 1 x_29_ ^ 2 - 2 x_48_ * x_29_ + 1 x_48_ ^ 2 + 1 y_29_ ^ 2 - 2 y_48_ * y_29_ + 1 y_48_ ^ 2 ] >= 19503
quadratic_ranged_149_lb: [ 1 x_41_ ^ 2 - 2 x_48_ * x_41_ + 1 x_48_ ^ 2 + 1 y_41_ ^ 2 - 2 y_48_ * y_41_ + 1 y_48_ ^ 2 ] >= 13404.6
quadratic_ranged_150_lb: [ 1 x_43_ ^ 2 - 2 x_48_ * x_43_ + 1 x_48_ ^ 2 + 1 y_43_ ^ 2 - 2 y_48_ * y_43_ + 1 y_48_ ^ 2 ] >= 7131.96
quadratic_ranged_151_lb: [ 1 x_47_ ^ 2 - 2 x_48_ * x_47_ + 1 x_48_ ^ 2 + 1 y_47_ ^ 2 - 2 y_48_ * y_47_ + 1 y_48_ ^ 2 ] >= 1917.6299999999999
quadratic_ranged_152_lb: [ 1 x_6_ ^ 2 - 2 x_49_ * x_6_ + 1 x_49_ ^ 2 + 1 y_6_ ^ 2 - 2 y_49_ * y_6_ + 1 y_49_ ^ 2 ] >= 89.1
quadratic_ranged_153_lb: [ 1 x_13_ ^ 2 - 2 x_49_ * x_13_ + 1 x_49_ ^ 2 + 1 y_13_ ^ 2 - 2 y_49_ * y_13_ + 1 y_49_ ^ 2 ] >= 36377.55
quadratic_ranged_154_lb: [ 1 x_22_ ^ 2 - 2 x_49_ * x_22_ + 1 x_49_ ^ 2 + 1 y_22_ ^ 2 - 2 y_49_ * y_22_ + 1 y_49_ ^ 2 ] >= 11317.68
quadratic_ranged_155_lb: [ 1 x_27_ ^ 2 - 2 x_49_ * x_27_ + 1 x_49_ ^ 2 + 1 y_27_ ^ 2 - 2 y_49_ * y_27_ + 1 y_49_ ^ 2 ] >= 14323.32
quadratic_ranged_156_lb: [ 1 x_28_ ^ 2 - 2 x_49_ * x_28_ + 1 x_49_ ^ 2 + 1 y_28_ ^ 2 - 2 y_49_ * y_28_ + 1 y_49_ ^ 2 ] >= 2895.75
quadratic_ranged_157_lb: [ 1 x_47_ ^ 2 - 2 x_49_ * x_47_ + 1 x_49_ ^ 2 + 1 y_47_ ^ 2 - 2 y_49_ * y_47_ + 1 y_49_ ^ 2 ] >= 27389.34
quadratic_ranged_158_lb: [ 1 x_48_ ^ 2 - 2 x_49_ * x_48_ + 1 x_49_ ^ 2 + 1 y_48_ ^ 2 - 2 y_49_ * y_48_ + 1 y_49_ ^ 2 ] >= 24869.79
quadratic_ranged_159_lb: [ 1 x_24_ ^ 2 - 2 x_50_ * x_24_ + 1 x_50_ ^ 2 + 1 y_24_ ^ 2 - 2 y_50_ * y_24_ + 1 y_50_ ^ 2 ] >= 3809.52
quadratic_ranged_160_lb: [ 1 x_25_ ^ 2 - 2 x_50_ * x_25_ + 1 x_50_ ^ 2 + 1 y_25_ ^ 2 - 2 y_50_ * y_25_ + 1 y_50_ ^ 2 ] >= 14478.75
quadratic_ranged_161_lb: [ 1 x_27_ ^ 2 - 2 x_50_ * x_27_ + 1 x_50_ ^ 2 + 1 y_27_ ^ 2 - 2 y_50_ * y_27_ + 1 y_50_ ^ 2 ] >= 3054.15
quadratic_ranged_162_lb: [ 1 x_29_ ^ 2 - 2 x_50_ * x_29_ + 1 x_50_ ^ 2 + 1 y_29_ ^ 2 - 2 y_50_ * y_29_ + 1 y_50_ ^ 2 ] >= 3336.3
quadratic_ranged_163_lb: [ 1 x_33_ ^ 2 - 2 x_50_ * x_33_ + 1 x_50_ ^ 2 + 1 y_33_ ^ 2 - 2 y_50_ * y_33_ + 1 y_50_ ^ 2 ] >= 2425.5
quadratic_ranged_164_lb: [ 1 x_36_ ^ 2 - 2 x_50_ * x_36_ + 1 x_50_ ^ 2 + 1 y_36_ ^ 2 - 2 y_50_ * y_36_ + 1 y_50_ ^ 2 ] >= 3346.2
quadratic_ranged_165_lb: [ 1 x_38_ ^ 2 - 2 x_50_ * x_38_ + 1 x_50_ ^ 2 + 1 y_38_ ^ 2 - 2 y_50_ * y_38_ + 1 y_50_ ^ 2 ] >= 857.34
quadratic_ranged_166_lb: [ 1 x_42_ ^ 2 - 2 x_50_ * x_42_ + 1 x_50_ ^ 2 + 1 y_42_ ^ 2 - 2 y_50_ * y_42_ + 1 y_50_ ^ 2 ] >= 12379.95
quadratic_ranged_167_lb: [ 1 x_49_ ^ 2 - 2 x_50_ * x_49_ + 1 x_50_ ^ 2 + 1 y_49_ ^ 2 - 2 y_50_ * y_49_ + 1 y_50_ ^ 2 ] >= 5263.83
quadratic_ranged_168_lb: [ 1 x_7_ ^ 2 - 2 x_51_ * x_7_ + 1 x_51_ ^ 2 + 1 y_7_ ^ 2 - 2 y_51_ * y_7_ + 1 y_51_ ^ 2 ] >= 5465.79
quadratic_ranged_169_lb: [ 1 x_16_ ^ 2 - 2 x_51_ * x_16_ + 1 x_51_ ^ 2 + 1 y_16_ ^ 2 - 2 y_51_ * y_16_ + 1 y_51_ ^ 2 ] >= 24.75
quadratic_ranged_170_lb: [ 1 x_28_ ^ 2 - 2 x_51_ * x_28_ + 1 x_51_ ^ 2 + 1 y_28_ ^ 2 - 2 y_51_ * y_28_ + 1 y_51_ ^ 2 ] >= 16153.83
quadratic_ranged_171_lb: [ 1 x_35_ ^ 2 - 2 x_51_ * x_35_ + 1 x_51_ ^ 2 + 1 y_35_ ^ 2 - 2 y_51_ * y_35_ + 1 y_51_ ^ 2 ] >= 15444.99
quadratic_ranged_172_lb: [ 1 x_50_ ^ 2 - 2 x_51_ * x_50_ + 1 x_51_ ^ 2 + 1 y_50_ ^ 2 - 2 y_51_ * y_50_ + 1 y_51_ ^ 2 ] >= 13342.23
quadratic_ranged_173_lb: [ 1 x_20_ ^ 2 - 2 x_52_ * x_20_ + 1 x_52_ ^ 2 + 1 y_20_ ^ 2 - 2 y_52_ * y_20_ + 1 y_52_ ^ 2 ] >= 10393.02
quadratic_ranged_174_lb: [ 1 x_40_ ^ 2 - 2 x_52_ * x_40_ + 1 x_52_ ^ 2 + 1 y_40_ ^ 2 - 2 y_52_ * y_40_ + 1 y_52_ ^ 2 ] >= 1311.75
quadratic_ranged_175_lb: [ 1 x_49_ ^ 2 - 2 x_52_ * x_49_ + 1 x_52_ ^ 2 + 1 y_49_ ^ 2 - 2 y_52_ * y_49_ + 1 y_52_ ^ 2 ] >= 22042.35
quadratic_ranged_176_lb: [ 1 x_51_ ^ 2 - 2 x_52_ * x_51_ + 1 x_52_ ^ 2 + 1 y_51_ ^ 2 - 2 y_52_ * y_51_ + 1 y_52_ ^ 2 ] >= 800.91
quadratic_ranged_177_lb: [ 1 x_4_ ^ 2 - 2 x_53_ * x_4_ + 1 x_53_ ^ 2 + 1 y_4_ ^ 2 - 2 y_53_ * y_4_ + 1 y_53_ ^ 2 ] >= 16795.35
quadratic_ranged_178_lb: [ 1 x_11_ ^ 2 - 2 x_53_ * x_11_ + 1 x_53_ ^ 2 + 1 y_11_ ^ 2 - 2 y_53_ * y_11_ + 1 y_53_ ^ 2 ] >= 5520.24
quadratic_ranged_179_lb: [ 1 x_14_ ^ 2 - 2 x_53_ * x_14_ + 1 x_53_ ^ 2 + 1 y_14_ ^ 2 - 2 y_53_ * y_14_ + 1 y_53_ ^ 2 ] >= 24142.14
quadratic_ranged_180_lb: [ 1 x_19_ ^ 2 - 2 x_53_ * x_19_ + 1 x_53_ ^ 2 + 1 y_19_ ^ 2 - 2 y_53_ * y_19_ + 1 y_53_ ^ 2 ] >= 33313.5
quadratic_ranged_181_lb: [ 1 x_31_ ^ 2 - 2 x_53_ * x_31_ + 1 x_53_ ^ 2 + 1 y_31_ ^ 2 - 2 y_53_ * y_31_ + 1 y_53_ ^ 2 ] >= 39253.5
quadratic_ranged_182_lb: [ 1 x_33_ ^ 2 - 2 x_53_ * x_33_ + 1 x_53_ ^ 2 + 1 y_33_ ^ 2 - 2 y_53_ * y_33_ + 1 y_53_ ^ 2 ] >= 16886.43
quadratic_ranged_183_lb: [ 1 x_40_ ^ 2 - 2 x_53_ * x_40_ + 1 x_53_ ^ 2 + 1 y_40_ ^ 2 - 2 y_53_ * y_40_ + 1 y_53_ ^ 2 ] >= 14495.58
quadratic_ranged_184_lb: [ 1 x_47_ ^ 2 - 2 x_53_ * x_47_ + 1 x_53_ ^ 2 + 1 y_47_ ^ 2 - 2 y_53_ * y_47_ + 1 y_53_ ^ 2 ] >= 34176.78
quadratic_ranged_185_lb: [ 1 x_49_ ^ 2 - 2 x_53_ * x_49_ + 1 x_53_ ^ 2 + 1 y_49_ ^ 2 - 2 y_53_ * y_49_ + 1 y_53_ ^ 2 ] >= 2237.4
quadratic_ranged_186_lb: [ 1 x_52_ ^ 2 - 2 x_53_ * x_52_ + 1 x_53_ ^ 2 + 1 y_52_ ^ 2 - 2 y_53_ * y_52_ + 1 y_53_ ^ 2 ] >= 18272.43
quadratic_ranged_187_lb: [ 1 x_12_ ^ 2 - 2 x_54_ * x_12_ + 1 x_54_ ^ 2 + 1 y_12_ ^ 2 - 2 y_54_ * y_12_ + 1 y_54_ ^ 2 ] >= 12071.07
quadratic_ranged_188_lb: [ 1 x_13_ ^ 2 - 2 x_54_ * x_13_ + 1 x_54_ ^ 2 + 1 y_13_ ^ 2 - 2 y_54_ * y_13_ + 1 y_54_ ^ 2 ] >= 906.84
quadratic_ranged_189_lb: [ 1 x_16_ ^ 2 - 2 x_54_ * x_16_ + 1 x_54_ ^ 2 + 1 y_16_ ^ 2 - 2 y_54_ * y_16_ + 1 y_54_ ^ 2 ] >= 11044.44
quadratic_ranged_190_lb: [ 1 x_23_ ^ 2 - 2 x_54_ * x_23_ + 1 x_54_ ^ 2 + 1 y_23_ ^ 2 - 2 y_54_ * y_23_ + 1 y_54_ ^ 2 ] >= 14661.9
quadratic_ranged_191_lb: [ 1 x_25_ ^ 2 - 2 x_54_ * x_25_ + 1 x_54_ ^ 2 + 1 y_25_ ^ 2 - 2 y_54_ * y_25_ + 1 y_54_ ^ 2 ] >= 24762.87
quadratic_ranged_192_lb: [ 1 x_29_ ^ 2 - 2 x_54_ * x_29_ + 1 x_54_ ^ 2 + 1 y_29_ ^ 2 - 2 y_54_ * y_29_ + 1 y_54_ ^ 2 ] >= 26187.48
quadratic_ranged_193_lb: [ 1 x_30_ ^ 2 - 2 x_54_ * x_30_ + 1 x_54_ ^ 2 + 1 y_30_ ^ 2 - 2 y_54_ * y_30_ + 1 y_54_ ^ 2 ] >= 5425.2
quadratic_ranged_194_lb: [ 1 x_41_ ^ 2 - 2 x_54_ * x_41_ + 1 x_54_ ^ 2 + 1 y_41_ ^ 2 - 2 y_54_ * y_41_ + 1 y_54_ ^ 2 ] >= 18029.88
quadratic_ranged_195_lb: [ 1 x_53_ ^ 2 - 2 x_54_ * x_53_ + 1 x_54_ ^ 2 + 1 y_53_ ^ 2 - 2 y_54_ * y_53_ + 1 y_54_ ^ 2 ] >= 36571.59
quadratic_ranged_196_lb: [ 1 x_22_ ^ 2 - 2 x_55_ * x_22_ + 1 x_55_ ^ 2 + 1 y_22_ ^ 2 - 2 y_55_ * y_22_ + 1 y_55_ ^ 2 ] >= 404.90999999999997
quadratic_ranged_197_lb: [ 1 x_28_ ^ 2 - 2 x_55_ * x_28_ + 1 x_55_ ^ 2 + 1 y_28_ ^ 2 - 2 y_55_ * y_28_ + 1 y_55_ ^ 2 ] >= 12691.8
quadratic_ranged_198_lb: [ 1 x_30_ ^ 2 - 2 x_55_ * x_30_ + 1 x_55_ ^ 2 + 1 y_30_ ^ 2 - 2 y_55_ * y_30_ + 1 y_55_ ^ 2 ] >= 35944.92
quadratic_ranged_199_lb: [ 1 x_31_ ^ 2 - 2 x_55_ * x_31_ + 1 x_55_ ^ 2 + 1 y_31_ ^ 2 - 2 y_55_ * y_31_ + 1 y_55_ ^ 2 ] >= 7105.23
quadratic_ranged_200_lb: [ 1 x_40_ ^ 2 - 2 x_55_ * x_40_ + 1 x_55_ ^ 2 + 1 y_40_ ^ 2 - 2 y_55_ * y_40_ + 1 y_55_ ^ 2 ] >= 43010.55
quadratic_ranged_201_lb: [ 1 x_46_ ^ 2 - 2 x_55_ * x_46_ + 1 x_55_ ^ 2 + 1 y_46_ ^ 2 - 2 y_55_ * y_46_ + 1 y_55_ ^ 2 ] >= 14545.08
quadratic_ranged_202_lb: [ 1 x_54_ ^ 2 - 2 x_55_ * x_54_ + 1 x_55_ ^ 2 + 1 y_54_ ^ 2 - 2 y_55_ * y_54_ + 1 y_55_ ^ 2 ] >= 16287.48
quadratic_ranged_203_lb: [ 1 x_5_ ^ 2 - 2 x_56_ * x_5_ + 1 x_56_ ^ 2 + 1 y_5_ ^ 2 - 2 y_56_ * y_5_ + 1 y_56_ ^ 2 ] >= 6450.84
quadratic_ranged_204_lb: [ 1 x_10_ ^ 2 - 2 x_56_ * x_10_ + 1 x_56_ ^ 2 + 1 y_10_ ^ 2 - 2 y_56_ * y_10_ + 1 y_56_ ^ 2 ] >= 18685.26
quadratic_ranged_205_lb: [ 1 x_12_ ^ 2 - 2 x_56_ * x_12_ + 1 x_56_ ^ 2 + 1 y_12_ ^ 2 - 2 y_56_ * y_12_ + 1 y_56_ ^ 2 ] >= 26587.44
quadratic_ranged_206_lb: [ 1 x_34_ ^ 2 - 2 x_56_ * x_34_ + 1 x_56_ ^ 2 + 1 y_34_ ^ 2 - 2 y_56_ * y_34_ + 1 y_56_ ^ 2 ] >= 13346.19
quadratic_ranged_207_lb: [ 1 x_38_ ^ 2 - 2 x_56_ * x_38_ + 1 x_56_ ^ 2 + 1 y_38_ ^ 2 - 2 y_56_ * y_38_ + 1 y_56_ ^ 2 ] >= 6325.11
quadratic_ranged_208_lb: [ 1 x_39_ ^ 2 - 2 x_56_ * x_39_ + 1 x_56_ ^ 2 + 1 y_39_ ^ 2 - 2 y_56_ * y_39_ + 1 y_56_ ^ 2 ] >= 11187
quadratic_ranged_209_lb: [ 1 x_45_ ^ 2 - 2 x_56_ * x_45_ + 1 x_56_ ^ 2 + 1 y_45_ ^ 2 - 2 y_56_ * y_45_ + 1 y_56_ ^ 2 ] >= 13516.47
quadratic_ranged_210_lb: [ 1 x_52_ ^ 2 - 2 x_56_ * x_52_ + 1 x_56_ ^ 2 + 1 y_52_ ^ 2 - 2 y_56_ * y_52_ + 1 y_56_ ^ 2 ] >= 22089.87
quadratic_ranged_211_lb: [ 1 x_53_ ^ 2 - 2 x_56_ * x_53_ + 1 x_56_ ^ 2 + 1 y_53_ ^ 2 - 2 y_56_ * y_53_ + 1 y_56_ ^ 2 ] >= 10711.8
quadratic_ranged_212_lb: [ 1 x_55_ ^ 2 - 2 x_56_ * x_55_ + 1 x_56_ ^ 2 + 1 y_55_ ^ 2 - 2 y_56_ * y_55_ + 1 y_56_ ^ 2 ] >= 4313.43
quadratic_ranged_213_lb: [ 1 x_14_ ^ 2 - 2 x_57_ * x_14_ + 1 x_57_ ^ 2 + 1 y_14_ ^ 2 - 2 y_57_ * y_14_ + 1 y_57_ ^ 2 ] >= 1747.35
quadratic_ranged_214_lb: [ 1 x_54_ ^ 2 - 2 x_57_ * x_54_ + 1 x_57_ ^ 2 + 1 y_54_ ^ 2 - 2 y_57_ * y_54_ + 1 y_57_ ^ 2 ] >= 10398.96
quadratic_ranged_215_lb: [ 1 x_56_ ^ 2 - 2 x_57_ * x_56_ + 1 x_57_ ^ 2 + 1 y_56_ ^ 2 - 2 y_57_ * y_56_ + 1 y_57_ ^ 2 ] >= 3295.71
quadratic_ranged_216_lb: [ 1 x_23_ ^ 2 - 2 x_58_ * x_23_ + 1 x_58_ ^ 2 + 1 y_23_ ^ 2 - 2 y_58_ * y_23_ + 1 y_58_ ^ 2 ] >= 5247
quadratic_ranged_217_lb: [ 1 x_38_ ^ 2 - 2 x_58_ * x_38_ + 1 x_58_ ^ 2 + 1 y_38_ ^ 2 - 2 y_58_ * y_38_ + 1 y_58_ ^ 2 ] >= 9339.66
quadratic_ranged_218_lb: [ 1 x_40_ ^ 2 - 2 x_58_ * x_40_ + 1 x_58_ ^ 2 + 1 y_40_ ^ 2 - 2 y_58_ * y_40_ + 1 y_58_ ^ 2 ] >= 8665.47
quadratic_ranged_219_lb: [ 1 x_57_ ^ 2 - 2 x_58_ * x_57_ + 1 x_58_ ^ 2 + 1 y_57_ ^ 2 - 2 y_58_ * y_57_ + 1 y_58_ ^ 2 ] >= 17022.06
quadratic_ranged_220_lb: [ 1 x_8_ ^ 2 - 2 x_59_ * x_8_ + 1 x_59_ ^ 2 + 1 y_8_ ^ 2 - 2 y_59_ * y_8_ + 1 y_59_ ^ 2 ] >= 643.5
quadratic_ranged_221_lb: [ 1 x_37_ ^ 2 - 2 x_59_ * x_37_ + 1 x_59_ ^ 2 + 1 y_37_ ^ 2 - 2 y_59_ * y_37_ + 1 y_59_ ^ 2 ] >= 6273.63
quadratic_ranged_222_lb: [ 1 x_45_ ^ 2 - 2 x_59_ * x_45_ + 1 x_59_ ^ 2 + 1 y_45_ ^ 2 - 2 y_59_ * y_45_ + 1 y_59_ ^ 2 ] >= 3933.27
quadratic_ranged_223_lb: [ 1 x_58_ ^ 2 - 2 x_59_ * x_58_ + 1 x_59_ ^ 2 + 1 y_58_ ^ 2 - 2 y_59_ * y_58_ + 1 y_59_ ^ 2 ] >= 10518.75
quadratic_ranged_224_lb: [ 1 x_4_ ^ 2 - 2 x_60_ * x_4_ + 1 x_60_ ^ 2 + 1 y_4_ ^ 2 - 2 y_60_ * y_4_ + 1 y_60_ ^ 2 ] >= 27174.51
quadratic_ranged_225_lb: [ 1 x_19_ ^ 2 - 2 x_60_ * x_19_ + 1 x_60_ ^ 2 + 1 y_19_ ^ 2 - 2 y_60_ * y_19_ + 1 y_60_ ^ 2 ] >= 1269.18
quadratic_ranged_226_lb: [ 1 x_40_ ^ 2 - 2 x_60_ * x_40_ + 1 x_60_ ^ 2 + 1 y_40_ ^ 2 - 2 y_60_ * y_40_ + 1 y_60_ ^ 2 ] >= 32228.46
quadratic_ranged_227_lb: [ 1 x_43_ ^ 2 - 2 x_60_ * x_43_ + 1 x_60_ ^ 2 + 1 y_43_ ^ 2 - 2 y_60_ * y_43_ + 1 y_60_ ^ 2 ] >= 7841.79
quadratic_ranged_228_lb: [ 1 x_52_ ^ 2 - 2 x_60_ * x_52_ + 1 x_60_ ^ 2 + 1 y_52_ ^ 2 - 2 y_60_ * y_52_ + 1 y_60_ ^ 2 ] >= 21967.11
quadratic_ranged_229_lb: [ 1 x_59_ ^ 2 - 2 x_60_ * x_59_ + 1 x_60_ ^ 2 + 1 y_59_ ^ 2 - 2 y_60_ * y_59_ + 1 y_60_ ^ 2 ] >= 14259.96
quadratic_ranged_230_lb: [ 1 x_1_ ^ 2 - 2 x_61_ * x_1_ + 1 x_61_ ^ 2 + 1 y_1_ ^ 2 - 2 y_61_ * y_1_ + 1 y_61_ ^ 2 ] >= 480.15
quadratic_ranged_231_lb: [ 1 x_2_ ^ 2 - 2 x_61_ * x_2_ + 1 x_61_ ^ 2 + 1 y_2_ ^ 2 - 2 y_61_ * y_2_ + 1 y_61_ ^ 2 ] >= 6058.8
quadratic_ranged_232_lb: [ 1 x_5_ ^ 2 - 2 x_61_ * x_5_ + 1 x_61_ ^ 2 + 1 y_5_ ^ 2 - 2 y_61_ * y_5_ + 1 y_61_ ^ 2 ] >= 16556.76
quadratic_ranged_233_lb: [ 1 x_11_ ^ 2 - 2 x_61_ * x_11_ + 1 x_61_ ^ 2 + 1 y_11_ ^ 2 - 2 y_61_ * y_11_ + 1 y_61_ ^ 2 ] >= 15083.64
quadratic_ranged_234_lb: [ 1 x_21_ ^ 2 - 2 x_61_ * x_21_ + 1 x_61_ ^ 2 + 1 y_21_ ^ 2 - 2 y_61_ * y_21_ + 1 y_61_ ^ 2 ] >= 14360.94
quadratic_ranged_235_lb: [ 1 x_28_ ^ 2 - 2 x_61_ * x_28_ + 1 x_61_ ^ 2 + 1 y_28_ ^ 2 - 2 y_61_ * y_28_ + 1 y_61_ ^ 2 ] >= 18818.91
quadratic_ranged_236_lb: [ 1 x_35_ ^ 2 - 2 x_61_ * x_35_ + 1 x_61_ ^ 2 + 1 y_35_ ^ 2 - 2 y_61_ * y_35_ + 1 y_61_ ^ 2 ] >= 18656.55
quadratic_ranged_237_lb: [ 1 x_60_ ^ 2 - 2 x_61_ * x_60_ + 1 x_61_ ^ 2 + 1 y_60_ ^ 2 - 2 y_61_ * y_60_ + 1 y_61_ ^ 2 ] >= 14323.32
quadratic_ranged_238_lb: [ 1 x_2_ ^ 2 - 2 x_62_ * x_2_ + 1 x_62_ ^ 2 + 1 y_2_ ^ 2 - 2 y_62_ * y_2_ + 1 y_62_ ^ 2 ] >= 25314.3
quadratic_ranged_239_lb: [ 1 x_9_ ^ 2 - 2 x_62_ * x_9_ + 1 x_62_ ^ 2 + 1 y_9_ ^ 2 - 2 y_62_ * y_9_ + 1 y_62_ ^ 2 ] >= 1965.15
quadratic_ranged_240_lb: [ 1 x_15_ ^ 2 - 2 x_62_ * x_15_ + 1 x_62_ ^ 2 + 1 y_15_ ^ 2 - 2 y_62_ * y_15_ + 1 y_62_ ^ 2 ] >= 17265.6
quadratic_ranged_241_lb: [ 1 x_21_ ^ 2 - 2 x_62_ * x_21_ + 1 x_62_ ^ 2 + 1 y_21_ ^ 2 - 2 y_62_ * y_21_ + 1 y_62_ ^ 2 ] >= 22366.079999999998
quadratic_ranged_242_lb: [ 1 x_42_ ^ 2 - 2 x_62_ * x_42_ + 1 x_62_ ^ 2 + 1 y_42_ ^ 2 - 2 y_62_ * y_42_ + 1 y_62_ ^ 2 ] >= 10711.8
quadratic_ranged_243_lb: [ 1 x_46_ ^ 2 - 2 x_62_ * x_46_ + 1 x_62_ ^ 2 + 1 y_46_ ^ 2 - 2 y_62_ * y_46_ + 1 y_62_ ^ 2 ] >= 2963.07
quadratic_ranged_244_lb: [ 1 x_56_ ^ 2 - 2 x_62_ * x_56_ + 1 x_62_ ^ 2 + 1 y_56_ ^ 2 - 2 y_62_ * y_56_ + 1 y_62_ ^ 2 ] >= 2473.02
quadratic_ranged_245_lb: [ 1 x_60_ ^ 2 - 2 x_62_ * x_60_ + 1 x_62_ ^ 2 + 1 y_60_ ^ 2 - 2 y_62_ * y_60_ + 1 y_62_ ^ 2 ] >= 4880.7
quadratic_ranged_246_lb: [ 1 x_61_ ^ 2 - 2 x_62_ * x_61_ + 1 x_62_ ^ 2 + 1 y_61_ ^ 2 - 2 y_62_ * y_61_ + 1 y_62_ ^ 2 ] >= 15929.1
quadratic_ranged_247_lb: [ 1 x_23_ ^ 2 - 2 x_63_ * x_23_ + 1 x_63_ ^ 2 + 1 y_23_ ^ 2 - 2 y_63_ * y_23_ + 1 y_63_ ^ 2 ] >= 15508.35
quadratic_ranged_248_lb: [ 1 x_25_ ^ 2 - 2 x_63_ * x_25_ + 1 x_63_ ^ 2 + 1 y_25_ ^ 2 - 2 y_63_ * y_25_ + 1 y_63_ ^ 2 ] >= 20924.64
quadratic_ranged_249_lb: [ 1 x_27_ ^ 2 - 2 x_63_ * x_27_ + 1 x_63_ ^ 2 + 1 y_27_ ^ 2 - 2 y_63_ * y_27_ + 1 y_63_ ^ 2 ] >= 20441.52
quadratic_ranged_250_lb: [ 1 x_46_ ^ 2 - 2 x_63_ * x_46_ + 1 x_63_ ^ 2 + 1 y_46_ ^ 2 - 2 y_63_ * y_46_ + 1 y_63_ ^ 2 ] >= 11465.19
quadratic_ranged_251_lb: [ 1 x_50_ ^ 2 - 2 x_63_ * x_50_ + 1 x_63_ ^ 2 + 1 y_50_ ^ 2 - 2 y_63_ * y_50_ + 1 y_63_ ^ 2 ] >= 8008.11
quadratic_ranged_252_lb: [ 1 x_54_ ^ 2 - 2 x_63_ * x_54_ + 1 x_63_ ^ 2 + 1 y_54_ ^ 2 - 2 y_63_ * y_54_ + 1 y_63_ ^ 2 ] >= 37434.87
quadratic_ranged_253_lb: [ 1 x_57_ ^ 2 - 2 x_63_ * x_57_ + 1 x_63_ ^ 2 + 1 y_57_ ^ 2 - 2 y_63_ * y_57_ + 1 y_63_ ^ 2 ] >= 22897.71
quadratic_ranged_254_lb: [ 1 x_62_ ^ 2 - 2 x_63_ * x_62_ + 1 x_63_ ^ 2 + 1 y_62_ ^ 2 - 2 y_63_ * y_62_ + 1 y_63_ ^ 2 ] >= 15857.82
quadratic_ranged_255_lb: [ 1 x_2_ ^ 2 - 2 x_64_ * x_2_ + 1 x_64_ ^ 2 + 1 y_2_ ^ 2 - 2 y_64_ * y_2_ + 1 y_64_ ^ 2 ] >= 44851.95
quadratic_ranged_256_lb: [ 1 x_61_ ^ 2 - 2 x_64_ * x_61_ + 1 x_64_ ^ 2 + 1 y_61_ ^ 2 - 2 y_64_ * y_61_ + 1 y_64_ ^ 2 ] >= 33815.43
quadratic_ranged_257_lb: [ 1 x_63_ ^ 2 - 2 x_64_ * x_63_ + 1 x_64_ ^ 2 + 1 y_63_ ^ 2 - 2 y_64_ * y_63_ + 1 y_64_ ^ 2 ] >= 16221.15
quadratic_ranged_258_lb: [ 1 x_30_ ^ 2 - 2 x_65_ * x_30_ + 1 x_65_ ^ 2 + 1 y_30_ ^ 2 - 2 y_65_ * y_30_ + 1 y_65_ ^ 2 ] >= 4348.08
quadratic_ranged_259_lb: [ 1 x_38_ ^ 2 - 2 x_65_ * x_38_ + 1 x_65_ ^ 2 + 1 y_38_ ^ 2 - 2 y_65_ * y_38_ + 1 y_65_ ^ 2 ] >= 26769.6
quadratic_ranged_260_lb: [ 1 x_53_ ^ 2 - 2 x_65_ * x_53_ + 1 x_65_ ^ 2 + 1 y_53_ ^ 2 - 2 y_65_ * y_53_ + 1 y_65_ ^ 2 ] >= 54494.55
quadratic_ranged_261_lb: [ 1 x_64_ ^ 2 - 2 x_65_ * x_64_ + 1 x_65_ ^ 2 + 1 y_64_ ^ 2 - 2 y_65_ * y_64_ + 1 y_65_ ^ 2 ] >= 35311.32
quadratic_ranged_262_lb: [ 1 x_19_ ^ 2 - 2 x_66_ * x_19_ + 1 x_66_ ^ 2 + 1 y_19_ ^ 2 - 2 y_66_ * y_19_ + 1 y_66_ ^ 2 ] >= 4285.71
quadratic_ranged_263_lb: [ 1 x_30_ ^ 2 - 2 x_66_ * x_30_ + 1 x_66_ ^ 2 + 1 y_30_ ^ 2 - 2 y_66_ * y_30_ + 1 y_66_ ^ 2 ] >= 506.88
quadratic_ranged_264_lb: [ 1 x_34_ ^ 2 - 2 x_66_ * x_34_ + 1 x_66_ ^ 2 + 1 y_34_ ^ 2 - 2 y_66_ * y_34_ + 1 y_66_ ^ 2 ] >= 6662.7
quadratic_ranged_265_lb: [ 1 x_43_ ^ 2 - 2 x_66_ * x_43_ + 1 x_66_ ^ 2 + 1 y_43_ ^ 2 - 2 y_66_ * y_43_ + 1 y_66_ ^ 2 ] >= 5817.24
quadratic_ranged_266_lb: [ 1 x_46_ ^ 2 - 2 x_66_ * x_46_ + 1 x_66_ ^ 2 + 1 y_46_ ^ 2 - 2 y_66_ * y_46_ + 1 y_66_ ^ 2 ] >= 7547.76
quadratic_ranged_267_lb: [ 1 x_54_ ^ 2 - 2 x_66_ * x_54_ + 1 x_66_ ^ 2 + 1 y_54_ ^ 2 - 2 y_66_ * y_54_ + 1 y_66_ ^ 2 ] >= 2637.36
quadratic_ranged_268_lb: [ 1 x_58_ ^ 2 - 2 x_66_ * x_58_ + 1 x_66_ ^ 2 + 1 y_58_ ^ 2 - 2 y_66_ * y_58_ + 1 y_66_ ^ 2 ] >= 405.9
quadratic_ranged_269_lb: [ 1 x_65_ ^ 2 - 2 x_66_ * x_65_ + 1 x_66_ ^ 2 + 1 y_65_ ^ 2 - 2 y_66_ * y_65_ + 1 y_66_ ^ 2 ] >= 2954.16
quadratic_ranged_270_lb: [ 1 x_8_ ^ 2 - 2 x_67_ * x_8_ + 1 x_67_ ^ 2 + 1 y_8_ ^ 2 - 2 y_67_ * y_8_ + 1 y_67_ ^ 2 ] >= 1668.15
quadratic_ranged_271_lb: [ 1 x_22_ ^ 2 - 2 x_67_ * x_22_ + 1 x_67_ ^ 2 + 1 y_22_ ^ 2 - 2 y_67_ * y_22_ + 1 y_67_ ^ 2 ] >= 16739.91
quadratic_ranged_272_lb: [ 1 x_26_ ^ 2 - 2 x_67_ * x_26_ + 1 x_67_ ^ 2 + 1 y_26_ ^ 2 - 2 y_67_ * y_26_ + 1 y_67_ ^ 2 ] >= 6023.16
quadratic_ranged_273_lb: [ 1 x_49_ ^ 2 - 2 x_67_ * x_49_ + 1 x_67_ ^ 2 + 1 y_49_ ^ 2 - 2 y_67_ * y_49_ + 1 y_67_ ^ 2 ] >= 856.35
quadratic_ranged_274_lb: [ 1 x_54_ ^ 2 - 2 x_67_ * x_54_ + 1 x_67_ ^ 2 + 1 y_54_ ^ 2 - 2 y_67_ * y_54_ + 1 y_67_ ^ 2 ] >= 31434.48
quadratic_ranged_275_lb: [ 1 x_65_ ^ 2 - 2 x_67_ * x_65_ + 1 x_67_ ^ 2 + 1 y_65_ ^ 2 - 2 y_67_ * y_65_ + 1 y_67_ ^ 2 ] >= 49143.6
quadratic_ranged_276_lb: [ 1 x_66_ ^ 2 - 2 x_67_ * x_66_ + 1 x_67_ ^ 2 + 1 y_66_ ^ 2 - 2 y_67_ * y_66_ + 1 y_67_ ^ 2 ] >= 31078.079999999998
quadratic_ranged_277_lb: [ 1 x_18_ ^ 2 - 2 x_68_ * x_18_ + 1 x_68_ ^ 2 + 1 y_18_ ^ 2 - 2 y_68_ * y_18_ + 1 y_68_ ^ 2 ] >= 15558.84
quadratic_ranged_278_lb: [ 1 x_23_ ^ 2 - 2 x_68_ * x_23_ + 1 x_68_ ^ 2 + 1 y_23_ ^ 2 - 2 y_68_ * y_23_ + 1 y_68_ ^ 2 ] >= 7762.59
quadratic_ranged_279_lb: [ 1 x_35_ ^ 2 - 2 x_68_ * x_35_ + 1 x_68_ ^ 2 + 1 y_35_ ^ 2 - 2 y_68_ * y_35_ + 1 y_68_ ^ 2 ] >= 15833.07
quadratic_ranged_280_lb: [ 1 x_39_ ^ 2 - 2 x_68_ * x_39_ + 1 x_68_ ^ 2 + 1 y_39_ ^ 2 - 2 y_68_ * y_39_ + 1 y_68_ ^ 2 ] >= 27957.6
quadratic_ranged_281_lb: [ 1 x_43_ ^ 2 - 2 x_68_ * x_43_ + 1 x_68_ ^ 2 + 1 y_43_ ^ 2 - 2 y_68_ * y_43_ + 1 y_68_ ^ 2 ] >= 5944.95
quadratic_ranged_282_lb: [ 1 x_58_ ^ 2 - 2 x_68_ * x_58_ + 1 x_68_ ^ 2 + 1 y_58_ ^ 2 - 2 y_68_ * y_58_ + 1 y_68_ ^ 2 ] >= 313.83
quadratic_ranged_283_lb: [ 1 x_60_ ^ 2 - 2 x_68_ * x_60_ + 1 x_68_ ^ 2 + 1 y_60_ ^ 2 - 2 y_68_ * y_60_ + 1 y_68_ ^ 2 ] >= 9733.68
quadratic_ranged_284_lb: [ 1 x_67_ ^ 2 - 2 x_68_ * x_67_ + 1 x_68_ ^ 2 + 1 y_67_ ^ 2 - 2 y_68_ * y_67_ + 1 y_68_ ^ 2 ] >= 30160.35
quadratic_ranged_285_lb: [ 1 x_7_ ^ 2 - 2 x_69_ * x_7_ + 1 x_69_ ^ 2 + 1 y_7_ ^ 2 - 2 y_69_ * y_7_ + 1 y_69_ ^ 2 ] >= 12998.7
quadratic_ranged_286_lb: [ 1 x_14_ ^ 2 - 2 x_69_ * x_14_ + 1 x_69_ ^ 2 + 1 y_14_ ^ 2 - 2 y_69_ * y_14_ + 1 y_69_ ^ 2 ] >= 18605.07
quadratic_ranged_287_lb: [ 1 x_35_ ^ 2 - 2 x_69_ * x_35_ + 1 x_69_ ^ 2 + 1 y_35_ ^ 2 - 2 y_69_ * y_35_ + 1 y_69_ ^ 2 ] >= 9828.72
quadratic_ranged_288_lb: [ 1 x_59_ ^ 2 - 2 x_69_ * x_59_ + 1 x_69_ ^ 2 + 1 y_59_ ^ 2 - 2 y_69_ * y_59_ + 1 y_69_ ^ 2 ] >= 8043.75
quadratic_ranged_289_lb: [ 1 x_68_ ^ 2 - 2 x_69_ * x_68_ + 1 x_69_ ^ 2 + 1 y_68_ ^ 2 - 2 y_69_ * y_68_ + 1 y_69_ ^ 2 ] >= 1699.83
quadratic_ranged_290_lb: [ 1 x_11_ ^ 2 - 2 x_70_ * x_11_ + 1 x_70_ ^ 2 + 1 y_11_ ^ 2 - 2 y_70_ * y_11_ + 1 y_70_ ^ 2 ] >= 19049.579999999998
quadratic_ranged_291_lb: [ 1 x_16_ ^ 2 - 2 x_70_ * x_16_ + 1 x_70_ ^ 2 + 1 y_16_ ^ 2 - 2 y_70_ * y_16_ + 1 y_70_ ^ 2 ] >= 9706.95
quadratic_ranged_292_lb: [ 1 x_17_ ^ 2 - 2 x_70_ * x_17_ + 1 x_70_ ^ 2 + 1 y_17_ ^ 2 - 2 y_70_ * y_17_ + 1 y_70_ ^ 2 ] >= 6435
quadratic_ranged_293_lb: [ 1 x_39_ ^ 2 - 2 x_70_ * x_39_ + 1 x_70_ ^ 2 + 1 y_39_ ^ 2 - 2 y_70_ * y_39_ + 1 y_70_ ^ 2 ] >= 30042.54
quadratic_ranged_294_lb: [ 1 x_48_ ^ 2 - 2 x_70_ * x_48_ + 1 x_70_ ^ 2 + 1 y_48_ ^ 2 - 2 y_70_ * y_48_ + 1 y_70_ ^ 2 ] >= 955.35
quadratic_ranged_295_lb: [ 1 x_55_ ^ 2 - 2 x_70_ * x_55_ + 1 x_70_ ^ 2 + 1 y_55_ ^ 2 - 2 y_70_ * y_55_ + 1 y_70_ ^ 2 ] >= 16668.63
quadratic_ranged_296_lb: [ 1 x_62_ ^ 2 - 2 x_70_ * x_62_ + 1 x_70_ ^ 2 + 1 y_62_ ^ 2 - 2 y_70_ * y_62_ + 1 y_70_ ^ 2 ] >= 6656.76
quadratic_ranged_297_lb: [ 1 x_63_ ^ 2 - 2 x_70_ * x_63_ + 1 x_70_ ^ 2 + 1 y_63_ ^ 2 - 2 y_70_ * y_63_ + 1 y_70_ ^ 2 ] >= 35570.7
quadratic_ranged_298_lb: [ 1 x_69_ ^ 2 - 2 x_70_ * x_69_ + 1 x_70_ ^ 2 + 1 y_69_ ^ 2 - 2 y_70_ * y_69_ + 1 y_70_ ^ 2 ] >= 579.15
quadratic_ranged_299_lb: [ 1 x_4_ ^ 2 - 2 x_71_ * x_4_ + 1 x_71_ ^ 2 + 1 y_4_ ^ 2 - 2 y_71_ * y_4_ + 1 y_71_ ^ 2 ] >= 3252.15
quadratic_ranged_300_lb: [ 1 x_15_ ^ 2 - 2 x_71_ * x_15_ + 1 x_71_ ^ 2 + 1 y_15_ ^ 2 - 2 y_71_ * y_15_ + 1 y_71_ ^ 2 ] >= 19312.92
quadratic_ranged_301_lb: [ 1 x_30_ ^ 2 - 2 x_71_ * x_30_ + 1 x_71_ ^ 2 + 1 y_30_ ^ 2 - 2 y_71_ * y_30_ + 1 y_71_ ^ 2 ] >= 951.39
quadratic_ranged_302_lb: [ 1 x_35_ ^ 2 - 2 x_71_ * x_35_ + 1 x_71_ ^ 2 + 1 y_35_ ^ 2 - 2 y_71_ * y_35_ + 1 y_71_ ^ 2 ] >= 18312.03
quadratic_ranged_303_lb: [ 1 x_56_ ^ 2 - 2 x_71_ * x_56_ + 1 x_71_ ^ 2 + 1 y_56_ ^ 2 - 2 y_71_ * y_56_ + 1 y_71_ ^ 2 ] >= 31816.62
quadratic_ranged_304_lb: [ 1 x_63_ ^ 2 - 2 x_71_ * x_63_ + 1 x_71_ ^ 2 + 1 y_63_ ^ 2 - 2 y_71_ * y_63_ + 1 y_71_ ^ 2 ] >= 35531.1
quadratic_ranged_305_lb: [ 1 x_65_ ^ 2 - 2 x_71_ * x_65_ + 1 x_71_ ^ 2 + 1 y_65_ ^ 2 - 2 y_71_ * y_65_ + 1 y_71_ ^ 2 ] >= 9350.55
quadratic_ranged_306_lb: [ 1 x_68_ ^ 2 - 2 x_71_ * x_68_ + 1 x_71_ ^ 2 + 1 y_68_ ^ 2 - 2 y_71_ * y_68_ + 1 y_71_ ^ 2 ] >= 2544.3
quadratic_ranged_307_lb: [ 1 x_70_ ^ 2 - 2 x_71_ * x_70_ + 1 x_71_ ^ 2 + 1 y_70_ ^ 2 - 2 y_71_ * y_70_ + 1 y_71_ ^ 2 ] >= 8751.6
quadratic_ranged_308_lb: [ 1 x_14_ ^ 2 - 2 x_72_ * x_14_ + 1 x_72_ ^ 2 + 1 y_14_ ^ 2 - 2 y_72_ * y_14_ + 1 y_72_ ^ 2 ] >= 3046.23
quadratic_ranged_309_lb: [ 1 x_16_ ^ 2 - 2 x_72_ * x_16_ + 1 x_72_ ^ 2 + 1 y_16_ ^ 2 - 2 y_72_ * y_16_ + 1 y_72_ ^ 2 ] >= 23272.92
quadratic_ranged_310_lb: [ 1 x_19_ ^ 2 - 2 x_72_ * x_19_ + 1 x_72_ ^ 2 + 1 y_19_ ^ 2 - 2 y_72_ * y_19_ + 1 y_72_ ^ 2 ] >= 6954.75
quadratic_ranged_311_lb: [ 1 x_29_ ^ 2 - 2 x_72_ * x_29_ + 1 x_72_ ^ 2 + 1 y_29_ ^ 2 - 2 y_72_ * y_29_ + 1 y_72_ ^ 2 ] >= 8700.12
quadratic_ranged_312_lb: [ 1 x_31_ ^ 2 - 2 x_72_ * x_31_ + 1 x_72_ ^ 2 + 1 y_31_ ^ 2 - 2 y_72_ * y_31_ + 1 y_72_ ^ 2 ] >= 6321.15
quadratic_ranged_313_lb: [ 1 x_36_ ^ 2 - 2 x_72_ * x_36_ + 1 x_72_ ^ 2 + 1 y_36_ ^ 2 - 2 y_72_ * y_36_ + 1 y_72_ ^ 2 ] >= 3360.06
quadratic_ranged_314_lb: [ 1 x_43_ ^ 2 - 2 x_72_ * x_43_ + 1 x_72_ ^ 2 + 1 y_43_ ^ 2 - 2 y_72_ * y_43_ + 1 y_72_ ^ 2 ] >= 24571.8
quadratic_ranged_315_lb: [ 1 x_48_ ^ 2 - 2 x_72_ * x_48_ + 1 x_72_ ^ 2 + 1 y_48_ ^ 2 - 2 y_72_ * y_48_ + 1 y_72_ ^ 2 ] >= 10153.44
quadratic_ranged_316_lb: [ 1 x_71_ ^ 2 - 2 x_72_ * x_71_ + 1 x_72_ ^ 2 + 1 y_71_ ^ 2 - 2 y_72_ * y_71_ + 1 y_72_ ^ 2 ] >= 24972.75
quadratic_ranged_317_lb: [ 1 x_32_ ^ 2 - 2 x_73_ * x_32_ + 1 x_73_ ^ 2 + 1 y_32_ ^ 2 - 2 y_73_ * y_32_ + 1 y_73_ ^ 2 ] >= 18822.87
quadratic_ranged_318_lb: [ 1 x_33_ ^ 2 - 2 x_73_ * x_33_ + 1 x_73_ ^ 2 + 1 y_33_ ^ 2 - 2 y_73_ * y_33_ + 1 y_73_ ^ 2 ] >= 8740.71
quadratic_ranged_319_lb: [ 1 x_39_ ^ 2 - 2 x_73_ * x_39_ + 1 x_73_ ^ 2 + 1 y_39_ ^ 2 - 2 y_73_ * y_39_ + 1 y_73_ ^ 2 ] >= 21512.7
quadratic_ranged_320_lb: [ 1 x_41_ ^ 2 - 2 x_73_ * x_41_ + 1 x_73_ ^ 2 + 1 y_41_ ^ 2 - 2 y_73_ * y_41_ + 1 y_73_ ^ 2 ] >= 13334.31
quadratic_ranged_321_lb: [ 1 x_59_ ^ 2 - 2 x_73_ * x_59_ + 1 x_73_ ^ 2 + 1 y_59_ ^ 2 - 2 y_73_ * y_59_ + 1 y_73_ ^ 2 ] >= 9395.1
quadratic_ranged_322_lb: [ 1 x_60_ ^ 2 - 2 x_73_ * x_60_ + 1 x_73_ ^ 2 + 1 y_60_ ^ 2 - 2 y_73_ * y_60_ + 1 y_73_ ^ 2 ] >= 8500.14
quadratic_ranged_323_lb: [ 1 x_72_ ^ 2 - 2 x_73_ * x_72_ + 1 x_73_ ^ 2 + 1 y_72_ ^ 2 - 2 y_73_ * y_72_ + 1 y_73_ ^ 2 ] >= 11429.55
quadratic_ranged_324_lb: [ 1 x_22_ ^ 2 - 2 x_74_ * x_22_ + 1 x_74_ ^ 2 + 1 y_22_ ^ 2 - 2 y_74_ * y_22_ + 1 y_74_ ^ 2 ] >= 3034.35
quadratic_ranged_325_lb: [ 1 x_26_ ^ 2 - 2 x_74_ * x_26_ + 1 x_74_ ^ 2 + 1 y_26_ ^ 2 - 2 y_74_ * y_26_ + 1 y_74_ ^ 2 ] >= 358.38
quadratic_ranged_326_lb: [ 1 x_38_ ^ 2 - 2 x_74_ * x_38_ + 1 x_74_ ^ 2 + 1 y_38_ ^ 2 - 2 y_74_ * y_38_ + 1 y_74_ ^ 2 ] >= 7850.7
quadratic_ranged_327_lb: [ 1 x_41_ ^ 2 - 2 x_74_ * x_41_ + 1 x_74_ ^ 2 + 1 y_41_ ^ 2 - 2 y_74_ * y_41_ + 1 y_74_ ^ 2 ] >= 3019.5
quadratic_ranged_328_lb: [ 1 x_48_ ^ 2 - 2 x_74_ * x_48_ + 1 x_74_ ^ 2 + 1 y_48_ ^ 2 - 2 y_74_ * y_48_ + 1 y_74_ ^ 2 ] >= 21512.7
quadratic_ranged_329_lb: [ 1 x_53_ ^ 2 - 2 x_74_ * x_53_ + 1 x_74_ ^ 2 + 1 y_53_ ^ 2 - 2 y_74_ * y_53_ + 1 y_74_ ^ 2 ] >= 9710.91
quadratic_ranged_330_lb: [ 1 x_64_ ^ 2 - 2 x_74_ * x_64_ + 1 x_74_ ^ 2 + 1 y_64_ ^ 2 - 2 y_74_ * y_64_ + 1 y_74_ ^ 2 ] >= 1585.98
quadratic_ranged_331_lb: [ 1 x_66_ ^ 2 - 2 x_74_ * x_66_ + 1 x_74_ ^ 2 + 1 y_66_ ^ 2 - 2 y_74_ * y_66_ + 1 y_74_ ^ 2 ] >= 30367.26
quadratic_ranged_332_lb: [ 1 x_73_ ^ 2 - 2 x_74_ * x_73_ + 1 x_74_ ^ 2 + 1 y_73_ ^ 2 - 2 y_74_ * y_73_ + 1 y_74_ ^ 2 ] >= 22572.99
quadratic_ranged_333_lb: [ 1 x_4_ ^ 2 - 2 x_75_ * x_4_ + 1 x_75_ ^ 2 + 1 y_4_ ^ 2 - 2 y_75_ * y_4_ + 1 y_75_ ^ 2 ] >= 12391.83
quadratic_ranged_334_lb: [ 1 x_34_ ^ 2 - 2 x_75_ * x_34_ + 1 x_75_ ^ 2 + 1 y_34_ ^ 2 - 2 y_75_ * y_34_ + 1 y_75_ ^ 2 ] >= 8990.19
quadratic_ranged_335_lb: [ 1 x_36_ ^ 2 - 2 x_75_ * x_36_ + 1 x_75_ ^ 2 + 1 y_36_ ^ 2 - 2 y_75_ * y_36_ + 1 y_75_ ^ 2 ] >= 25649.91
quadratic_ranged_336_lb: [ 1 x_44_ ^ 2 - 2 x_75_ * x_44_ + 1 x_75_ ^ 2 + 1 y_44_ ^ 2 - 2 y_75_ * y_44_ + 1 y_75_ ^ 2 ] >= 120.78
quadratic_ranged_337_lb: [ 1 x_50_ ^ 2 - 2 x_75_ * x_50_ + 1 x_75_ ^ 2 + 1 y_50_ ^ 2 - 2 y_75_ * y_50_ + 1 y_75_ ^ 2 ] >= 11821.59
quadratic_ranged_338_lb: [ 1 x_58_ ^ 2 - 2 x_75_ * x_58_ + 1 x_75_ ^ 2 + 1 y_58_ ^ 2 - 2 y_75_ * y_58_ + 1 y_75_ ^ 2 ] >= 1307.79
quadratic_ranged_339_lb: [ 1 x_64_ ^ 2 - 2 x_75_ * x_64_ + 1 x_75_ ^ 2 + 1 y_64_ ^ 2 - 2 y_75_ * y_64_ + 1 y_75_ ^ 2 ] >= 23527.35
quadratic_ranged_340_lb: [ 1 x_74_ ^ 2 - 2 x_75_ * x_74_ + 1 x_75_ ^ 2 + 1 y_74_ ^ 2 - 2 y_75_ * y_74_ + 1 y_75_ ^ 2 ] >= 27317.07
quadratic_ranged_341_lb: [ 1 x_5_ ^ 2 - 2 x_76_ * x_5_ + 1 x_76_ ^ 2 + 1 y_5_ ^ 2 - 2 y_76_ * y_5_ + 1 y_76_ ^ 2 ] >= 21037.5
quadratic_ranged_342_lb: [ 1 x_10_ ^ 2 - 2 x_76_ * x_10_ + 1 x_76_ ^ 2 + 1 y_10_ ^ 2 - 2 y_76_ * y_10_ + 1 y_76_ ^ 2 ] >= 14826.24
quadratic_ranged_343_lb: [ 1 x_14_ ^ 2 - 2 x_76_ * x_14_ + 1 x_76_ ^ 2 + 1 y_14_ ^ 2 - 2 y_76_ * y_14_ + 1 y_76_ ^ 2 ] >= 17728.92
quadratic_ranged_344_lb: [ 1 x_20_ ^ 2 - 2 x_76_ * x_20_ + 1 x_76_ ^ 2 + 1 y_20_ ^ 2 - 2 y_76_ * y_20_ + 1 y_76_ ^ 2 ] >= 37640.79
quadratic_ranged_345_lb: [ 1 x_23_ ^ 2 - 2 x_76_ * x_23_ + 1 x_76_ ^ 2 + 1 y_23_ ^ 2 - 2 y_76_ * y_23_ + 1 y_76_ ^ 2 ] >= 11766.15
quadratic_ranged_346_lb: [ 1 x_30_ ^ 2 - 2 x_76_ * x_30_ + 1 x_76_ ^ 2 + 1 y_30_ ^ 2 - 2 y_76_ * y_30_ + 1 y_76_ ^ 2 ] >= 32124.51
quadratic_ranged_347_lb: [ 1 x_34_ ^ 2 - 2 x_76_ * x_34_ + 1 x_76_ ^ 2 + 1 y_34_ ^ 2 - 2 y_76_ * y_34_ + 1 y_76_ ^ 2 ] >= 9413.91
quadratic_ranged_348_lb: [ 1 x_49_ ^ 2 - 2 x_76_ * x_49_ + 1 x_76_ ^ 2 + 1 y_49_ ^ 2 - 2 y_76_ * y_49_ + 1 y_76_ ^ 2 ] >= 873.18
quadratic_ranged_349_lb: [ 1 x_59_ ^ 2 - 2 x_76_ * x_59_ + 1 x_76_ ^ 2 + 1 y_59_ ^ 2 - 2 y_76_ * y_59_ + 1 y_76_ ^ 2 ] >= 3217.5
quadratic_ranged_350_lb: [ 1 x_69_ ^ 2 - 2 x_76_ * x_69_ + 1 x_76_ ^ 2 + 1 y_69_ ^ 2 - 2 y_76_ * y_69_ + 1 y_76_ ^ 2 ] >= 20913.75
quadratic_ranged_351_lb: [ 1 x_72_ ^ 2 - 2 x_76_ * x_72_ + 1 x_76_ ^ 2 + 1 y_72_ ^ 2 - 2 y_76_ * y_72_ + 1 y_76_ ^ 2 ] >= 10669.23
quadratic_ranged_352_lb: [ 1 x_75_ ^ 2 - 2 x_76_ * x_75_ + 1 x_76_ ^ 2 + 1 y_75_ ^ 2 - 2 y_76_ * y_75_ + 1 y_76_ ^ 2 ] >= 30527.64
quadratic_ranged_353_lb: [ 1 x_39_ ^ 2 - 2 x_77_ * x_39_ + 1 x_77_ ^ 2 + 1 y_39_ ^ 2 - 2 y_77_ * y_39_ + 1 y_77_ ^ 2 ] >= 19657.44
quadratic_ranged_354_lb: [ 1 x_50_ ^ 2 - 2 x_77_ * x_50_ + 1 x_77_ ^ 2 + 1 y_50_ ^ 2 - 2 y_77_ * y_50_ + 1 y_77_ ^ 2 ] >= 4325.31
quadratic_ranged_355_lb: [ 1 x_76_ ^ 2 - 2 x_77_ * x_76_ + 1 x_77_ ^ 2 + 1 y_76_ ^ 2 - 2 y_77_ * y_76_ + 1 y_77_ ^ 2 ] >= 14630.22
quadratic_ranged_356_lb: [ 1 x_31_ ^ 2 - 2 x_78_ * x_31_ + 1 x_78_ ^ 2 + 1 y_31_ ^ 2 - 2 y_78_ * y_31_ + 1 y_78_ ^ 2 ] >= 19606.95
quadratic_ranged_357_lb: [ 1 x_56_ ^ 2 - 2 x_78_ * x_56_ + 1 x_78_ ^ 2 + 1 y_56_ ^ 2 - 2 y_78_ * y_56_ + 1 y_78_ ^ 2 ] >= 7734.87
quadratic_ranged_358_lb: [ 1 x_57_ ^ 2 - 2 x_78_ * x_57_ + 1 x_78_ ^ 2 + 1 y_57_ ^ 2 - 2 y_78_ * y_57_ + 1 y_78_ ^ 2 ] >= 14295.6
quadratic_ranged_359_lb: [ 1 x_77_ ^ 2 - 2 x_78_ * x_77_ + 1 x_78_ ^ 2 + 1 y_77_ ^ 2 - 2 y_78_ * y_77_ + 1 y_78_ ^ 2 ] >= 10126.71
quadratic_ranged_360_lb: [ 1 x_15_ ^ 2 - 2 x_79_ * x_15_ + 1 x_79_ ^ 2 + 1 y_15_ ^ 2 - 2 y_79_ * y_15_ + 1 y_79_ ^ 2 ] >= 970.2
quadratic_ranged_361_lb: [ 1 x_19_ ^ 2 - 2 x_79_ * x_19_ + 1 x_79_ ^ 2 + 1 y_19_ ^ 2 - 2 y_79_ * y_19_ + 1 y_79_ ^ 2 ] >= 28424.88
quadratic_ranged_362_lb: [ 1 x_24_ ^ 2 - 2 x_79_ * x_24_ + 1 x_79_ ^ 2 + 1 y_24_ ^ 2 - 2 y_79_ * y_24_ + 1 y_79_ ^ 2 ] >= 18609.03
quadratic_ranged_363_lb: [ 1 x_28_ ^ 2 - 2 x_79_ * x_28_ + 1 x_79_ ^ 2 + 1 y_28_ ^ 2 - 2 y_79_ * y_28_ + 1 y_79_ ^ 2 ] >= 3588.75
quadratic_ranged_364_lb: [ 1 x_47_ ^ 2 - 2 x_79_ * x_47_ + 1 x_79_ ^ 2 + 1 y_47_ ^ 2 - 2 y_79_ * y_47_ + 1 y_79_ ^ 2 ] >= 29121.84
quadratic_ranged_365_lb: [ 1 x_50_ ^ 2 - 2 x_79_ * x_50_ + 1 x_79_ ^ 2 + 1 y_50_ ^ 2 - 2 y_79_ * y_50_ + 1 y_79_ ^ 2 ] >= 5853.87
quadratic_ranged_366_lb: [ 1 x_56_ ^ 2 - 2 x_79_ * x_56_ + 1 x_79_ ^ 2 + 1 y_56_ ^ 2 - 2 y_79_ * y_56_ + 1 y_79_ ^ 2 ] >= 10622.7
quadratic_ranged_367_lb: [ 1 x_66_ ^ 2 - 2 x_79_ * x_66_ + 1 x_79_ ^ 2 + 1 y_66_ ^ 2 - 2 y_79_ * y_66_ + 1 y_79_ ^ 2 ] >= 27875.43
quadratic_ranged_368_lb: [ 1 x_77_ ^ 2 - 2 x_79_ * x_77_ + 1 x_79_ ^ 2 + 1 y_77_ ^ 2 - 2 y_79_ * y_77_ + 1 y_79_ ^ 2 ] >= 18804.06
quadratic_ranged_369_lb: [ 1 x_78_ ^ 2 - 2 x_79_ * x_78_ + 1 x_79_ ^ 2 + 1 y_78_ ^ 2 - 2 y_79_ * y_78_ + 1 y_79_ ^ 2 ] >= 3089.79
quadratic_ranged_370_lb: [ 1 x_14_ ^ 2 - 2 x_80_ * x_14_ + 1 x_80_ ^ 2 + 1 y_14_ ^ 2 - 2 y_80_ * y_14_ + 1 y_80_ ^ 2 ] >= 29767.32
quadratic_ranged_371_lb: [ 1 x_24_ ^ 2 - 2 x_80_ * x_24_ + 1 x_80_ ^ 2 + 1 y_24_ ^ 2 - 2 y_80_ * y_24_ + 1 y_80_ ^ 2 ] >= 25665.75
quadratic_ranged_372_lb: [ 1 x_25_ ^ 2 - 2 x_80_ * x_25_ + 1 x_80_ ^ 2 + 1 y_25_ ^ 2 - 2 y_80_ * y_25_ + 1 y_80_ ^ 2 ] >= 16499.34
quadratic_ranged_373_lb: [ 1 x_29_ ^ 2 - 2 x_80_ * x_29_ + 1 x_80_ ^ 2 + 1 y_29_ ^ 2 - 2 y_80_ * y_29_ + 1 y_80_ ^ 2 ] >= 2412.63
quadratic_ranged_374_lb: [ 1 x_44_ ^ 2 - 2 x_80_ * x_44_ + 1 x_80_ ^ 2 + 1 y_44_ ^ 2 - 2 y_80_ * y_44_ + 1 y_80_ ^ 2 ] >= 37724.94
quadratic_ranged_375_lb: [ 1 x_47_ ^ 2 - 2 x_80_ * x_47_ + 1 x_80_ ^ 2 + 1 y_47_ ^ 2 - 2 y_80_ * y_47_ + 1 y_80_ ^ 2 ] >= 38827.8
quadratic_ranged_376_lb: [ 1 x_57_ ^ 2 - 2 x_80_ * x_57_ + 1 x_80_ ^ 2 + 1 y_57_ ^ 2 - 2 y_80_ * y_57_ + 1 y_80_ ^ 2 ] >= 30025.71
quadratic_ranged_377_lb: [ 1 x_60_ ^ 2 - 2 x_80_ * x_60_ + 1 x_80_ ^ 2 + 1 y_60_ ^ 2 - 2 y_80_ * y_60_ + 1 y_80_ ^ 2 ] >= 44464.86
quadratic_ranged_378_lb: [ 1 x_61_ ^ 2 - 2 x_80_ * x_61_ + 1 x_80_ ^ 2 + 1 y_61_ ^ 2 - 2 y_80_ * y_61_ + 1 y_80_ ^ 2 ] >= 38287.26
quadratic_ranged_379_lb: [ 1 x_70_ ^ 2 - 2 x_80_ * x_70_ + 1 x_80_ ^ 2 + 1 y_70_ ^ 2 - 2 y_80_ * y_70_ + 1 y_80_ ^ 2 ] >= 38827.8
quadratic_ranged_380_lb: [ 1 x_79_ ^ 2 - 2 x_80_ * x_79_ + 1 x_80_ ^ 2 + 1 y_79_ ^ 2 - 2 y_80_ * y_79_ + 1 y_80_ ^ 2 ] >= 716.76
quadratic_ranged_381_lb: [ 1 x_11_ ^ 2 - 2 x_81_ * x_11_ + 1 x_81_ ^ 2 + 1 y_11_ ^ 2 - 2 y_81_ * y_11_ + 1 y_81_ ^ 2 ] >= 31451.31
quadratic_ranged_382_lb: [ 1 x_15_ ^ 2 - 2 x_81_ * x_15_ + 1 x_81_ ^ 2 + 1 y_15_ ^ 2 - 2 y_81_ * y_15_ + 1 y_81_ ^ 2 ] >= 43307.55
quadratic_ranged_383_lb: [ 1 x_30_ ^ 2 - 2 x_81_ * x_30_ + 1 x_81_ ^ 2 + 1 y_30_ ^ 2 - 2 y_81_ * y_30_ + 1 y_81_ ^ 2 ] >= 5949.9
quadratic_ranged_384_lb: [ 1 x_45_ ^ 2 - 2 x_81_ * x_45_ + 1 x_81_ ^ 2 + 1 y_45_ ^ 2 - 2 y_81_ * y_45_ + 1 y_81_ ^ 2 ] >= 24997.5
quadratic_ranged_385_lb: [ 1 x_61_ ^ 2 - 2 x_81_ * x_61_ + 1 x_81_ ^ 2 + 1 y_61_ ^ 2 - 2 y_81_ * y_61_ + 1 y_81_ ^ 2 ] >= 5604.39
quadratic_ranged_386_lb: [ 1 x_64_ ^ 2 - 2 x_81_ * x_64_ + 1 x_81_ ^ 2 + 1 y_64_ ^ 2 - 2 y_81_ * y_64_ + 1 y_81_ ^ 2 ] >= 30462.3
quadratic_ranged_387_lb: [ 1 x_68_ ^ 2 - 2 x_81_ * x_68_ + 1 x_81_ ^ 2 + 1 y_68_ ^ 2 - 2 y_81_ * y_68_ + 1 y_81_ ^ 2 ] >= 3782.79
quadratic_ranged_388_lb: [ 1 x_75_ ^ 2 - 2 x_81_ * x_75_ + 1 x_81_ ^ 2 + 1 y_75_ ^ 2 - 2 y_81_ * y_75_ + 1 y_81_ ^ 2 ] >= 1640.43
quadratic_ranged_389_lb: [ 1 x_78_ ^ 2 - 2 x_81_ * x_78_ + 1 x_81_ ^ 2 + 1 y_78_ ^ 2 - 2 y_81_ * y_78_ + 1 y_81_ ^ 2 ] >= 25076.7
quadratic_ranged_390_lb: [ 1 x_80_ ^ 2 - 2 x_81_ * x_80_ + 1 x_81_ ^ 2 + 1 y_80_ ^ 2 - 2 y_81_ * y_80_ + 1 y_81_ ^ 2 ] >= 57820.95
quadratic_ranged_391_lb: [ 1 x_9_ ^ 2 - 2 x_82_ * x_9_ + 1 x_82_ ^ 2 + 1 y_9_ ^ 2 - 2 y_82_ * y_9_ + 1 y_82_ ^ 2 ] >= 13426.38
quadratic_ranged_392_lb: [ 1 x_41_ ^ 2 - 2 x_82_ * x_41_ + 1 x_82_ ^ 2 + 1 y_41_ ^ 2 - 2 y_82_ * y_41_ + 1 y_82_ ^ 2 ] >= 22734.36
quadratic_ranged_393_lb: [ 1 x_51_ ^ 2 - 2 x_82_ * x_51_ + 1 x_82_ ^ 2 + 1 y_51_ ^ 2 - 2 y_82_ * y_51_ + 1 y_82_ ^ 2 ] >= 5873.67
quadratic_ranged_394_lb: [ 1 x_57_ ^ 2 - 2 x_82_ * x_57_ + 1 x_82_ ^ 2 + 1 y_57_ ^ 2 - 2 y_82_ * y_57_ + 1 y_82_ ^ 2 ] >= 20283.12
quadratic_ranged_395_lb: [ 1 x_81_ ^ 2 - 2 x_82_ * x_81_ + 1 x_82_ ^ 2 + 1 y_81_ ^ 2 - 2 y_82_ * y_81_ + 1 y_82_ ^ 2 ] >= 2187.9
quadratic_ranged_396_lb: [ 1 x_22_ ^ 2 - 2 x_83_ * x_22_ + 1 x_83_ ^ 2 + 1 y_22_ ^ 2 - 2 y_83_ * y_22_ + 1 y_83_ ^ 2 ] >= 19032.75
quadratic_ranged_397_lb: [ 1 x_27_ ^ 2 - 2 x_83_ * x_27_ + 1 x_83_ ^ 2 + 1 y_27_ ^ 2 - 2 y_83_ * y_27_ + 1 y_83_ ^ 2 ] >= 14605.47
quadratic_ranged_398_lb: [ 1 x_35_ ^ 2 - 2 x_83_ * x_35_ + 1 x_83_ ^ 2 + 1 y_35_ ^ 2 - 2 y_83_ * y_35_ + 1 y_83_ ^ 2 ] >= 1888.92
quadratic_ranged_399_lb: [ 1 x_36_ ^ 2 - 2 x_83_ * x_36_ + 1 x_83_ ^ 2 + 1 y_36_ ^ 2 - 2 y_83_ * y_36_ + 1 y_83_ ^ 2 ] >= 5260.86
quadratic_ranged_400_lb: [ 1 x_39_ ^ 2 - 2 x_83_ * x_39_ + 1 x_83_ ^ 2 + 1 y_39_ ^ 2 - 2 y_83_ * y_39_ + 1 y_83_ ^ 2 ] >= 202.95
quadratic_ranged_401_lb: [ 1 x_72_ ^ 2 - 2 x_83_ * x_72_ + 1 x_83_ ^ 2 + 1 y_72_ ^ 2 - 2 y_83_ * y_72_ + 1 y_83_ ^ 2 ] >= 11994.84
quadratic_ranged_402_lb: [ 1 x_76_ ^ 2 - 2 x_83_ * x_76_ + 1 x_83_ ^ 2 + 1 y_76_ ^ 2 - 2 y_83_ * y_76_ + 1 y_83_ ^ 2 ] >= 476.19
quadratic_ranged_403_lb: [ 1 x_79_ ^ 2 - 2 x_83_ * x_79_ + 1 x_83_ ^ 2 + 1 y_79_ ^ 2 - 2 y_83_ * y_79_ + 1 y_83_ ^ 2 ] >= 123.75
quadratic_ranged_404_lb: [ 1 x_82_ ^ 2 - 2 x_83_ * x_82_ + 1 x_83_ ^ 2 + 1 y_82_ ^ 2 - 2 y_83_ * y_82_ + 1 y_83_ ^ 2 ] >= 29561.4
quadratic_ranged_405_lb: [ 1 x_7_ ^ 2 - 2 x_84_ * x_7_ + 1 x_84_ ^ 2 + 1 y_7_ ^ 2 - 2 y_84_ * y_7_ + 1 y_84_ ^ 2 ] >= 2348.28
quadratic_ranged_406_lb: [ 1 x_15_ ^ 2 - 2 x_84_ * x_15_ + 1 x_84_ ^ 2 + 1 y_15_ ^ 2 - 2 y_84_ * y_15_ + 1 y_84_ ^ 2 ] >= 4638.15
quadratic_ranged_407_lb: [ 1 x_29_ ^ 2 - 2 x_84_ * x_29_ + 1 x_84_ ^ 2 + 1 y_29_ ^ 2 - 2 y_84_ * y_29_ + 1 y_84_ ^ 2 ] >= 5070.78
quadratic_ranged_408_lb: [ 1 x_46_ ^ 2 - 2 x_84_ * x_46_ + 1 x_84_ ^ 2 + 1 y_46_ ^ 2 - 2 y_84_ * y_46_ + 1 y_84_ ^ 2 ] >= 548.46
quadratic_ranged_409_lb: [ 1 x_48_ ^ 2 - 2 x_84_ * x_48_ + 1 x_84_ ^ 2 + 1 y_48_ ^ 2 - 2 y_84_ * y_48_ + 1 y_84_ ^ 2 ] >= 5593.5
quadratic_ranged_410_lb: [ 1 x_59_ ^ 2 - 2 x_84_ * x_59_ + 1 x_84_ ^ 2 + 1 y_59_ ^ 2 - 2 y_84_ * y_59_ + 1 y_84_ ^ 2 ] >= 1870.11
quadratic_ranged_411_lb: [ 1 x_63_ ^ 2 - 2 x_84_ * x_63_ + 1 x_84_ ^ 2 + 1 y_63_ ^ 2 - 2 y_84_ * y_63_ + 1 y_84_ ^ 2 ] >= 9849.51
quadratic_ranged_412_lb: [ 1 x_71_ ^ 2 - 2 x_84_ * x_71_ + 1 x_84_ ^ 2 + 1 y_71_ ^ 2 - 2 y_84_ * y_71_ + 1 y_84_ ^ 2 ] >= 8598.15
quadratic_ranged_413_lb: [ 1 x_72_ ^ 2 - 2 x_84_ * x_72_ + 1 x_84_ ^ 2 + 1 y_72_ ^ 2 - 2 y_84_ * y_72_ + 1 y_84_ ^ 2 ] >= 7850.7
quadratic_ranged_414_lb: [ 1 x_83_ ^ 2 - 2 x_84_ * x_83_ + 1 x_84_ ^ 2 + 1 y_83_ ^ 2 - 2 y_84_ * y_83_ + 1 y_84_ ^ 2 ] >= 4350.06
quadratic_ranged_415_lb: [ 1 x_14_ ^ 2 - 2 x_85_ * x_14_ + 1 x_85_ ^ 2 + 1 y_14_ ^ 2 - 2 y_85_ * y_14_ + 1 y_85_ ^ 2 ] >= 31373.1
quadratic_ranged_416_lb: [ 1 x_27_ ^ 2 - 2 x_85_ * x_27_ + 1 x_85_ ^ 2 + 1 y_27_ ^ 2 - 2 y_85_ * y_27_ + 1 y_85_ ^ 2 ] >= 7765.5599999999995
quadratic_ranged_417_lb: [ 1 x_39_ ^ 2 - 2 x_85_ * x_39_ + 1 x_85_ ^ 2 + 1 y_39_ ^ 2 - 2 y_85_ * y_39_ + 1 y_85_ ^ 2 ] >= 37164.6
quadratic_ranged_418_lb: [ 1 x_45_ ^ 2 - 2 x_85_ * x_45_ + 1 x_85_ ^ 2 + 1 y_45_ ^ 2 - 2 y_85_ * y_45_ + 1 y_85_ ^ 2 ] >= 17254.71
quadratic_ranged_419_lb: [ 1 x_46_ ^ 2 - 2 x_85_ * x_46_ + 1 x_85_ ^ 2 + 1 y_46_ ^ 2 - 2 y_85_ * y_46_ + 1 y_85_ ^ 2 ] >= 10958.31
quadratic_ranged_420_lb: [ 1 x_47_ ^ 2 - 2 x_85_ * x_47_ + 1 x_85_ ^ 2 + 1 y_47_ ^ 2 - 2 y_85_ * y_47_ + 1 y_85_ ^ 2 ] >= 2354.22
quadratic_ranged_421_lb: [ 1 x_55_ ^ 2 - 2 x_85_ * x_55_ + 1 x_85_ ^ 2 + 1 y_55_ ^ 2 - 2 y_85_ * y_55_ + 1 y_85_ ^ 2 ] >= 26172.63
quadratic_ranged_422_lb: [ 1 x_59_ ^ 2 - 2 x_85_ * x_59_ + 1 x_85_ ^ 2 + 1 y_59_ ^ 2 - 2 y_85_ * y_59_ + 1 y_85_ ^ 2 ] >= 18833.76
quadratic_ranged_423_lb: [ 1 x_66_ ^ 2 - 2 x_85_ * x_66_ + 1 x_85_ ^ 2 + 1 y_66_ ^ 2 - 2 y_85_ * y_66_ + 1 y_85_ ^ 2 ] >= 1022.67
quadratic_ranged_424_lb: [ 1 x_68_ ^ 2 - 2 x_85_ * x_68_ + 1 x_85_ ^ 2 + 1 y_68_ ^ 2 - 2 y_85_ * y_68_ + 1 y_85_ ^ 2 ] >= 1049.4
quadratic_ranged_425_lb: [ 1 x_78_ ^ 2 - 2 x_85_ * x_78_ + 1 x_85_ ^ 2 + 1 y_78_ ^ 2 - 2 y_85_ * y_78_ + 1 y_85_ ^ 2 ] >= 18062.55
quadratic_ranged_426_lb: [ 1 x_84_ ^ 2 - 2 x_85_ * x_84_ + 1 x_85_ ^ 2 + 1 y_84_ ^ 2 - 2 y_85_ * y_84_ + 1 y_85_ ^ 2 ] >= 13488.75
quadratic_ranged_427_lb: [ 1 x_2_ ^ 2 - 2 x_86_ * x_2_ + 1 x_86_ ^ 2 + 1 y_2_ ^ 2 - 2 y_86_ * y_2_ + 1 y_86_ ^ 2 ] >= 13948.11
quadratic_ranged_428_lb: [ 1 x_3_ ^ 2 - 2 x_86_ * x_3_ + 1 x_86_ ^ 2 + 1 y_3_ ^ 2 - 2 y_86_ * y_3_ + 1 y_86_ ^ 2 ] >= 8241.75
quadratic_ranged_429_lb: [ 1 x_5_ ^ 2 - 2 x_86_ * x_5_ + 1 x_86_ ^ 2 + 1 y_5_ ^ 2 - 2 y_86_ * y_5_ + 1 y_86_ ^ 2 ] >= 5133.15
quadratic_ranged_430_lb: [ 1 x_10_ ^ 2 - 2 x_86_ * x_10_ + 1 x_86_ ^ 2 + 1 y_10_ ^ 2 - 2 y_86_ * y_10_ + 1 y_86_ ^ 2 ] >= 4364.91
quadratic_ranged_431_lb: [ 1 x_30_ ^ 2 - 2 x_86_ * x_30_ + 1 x_86_ ^ 2 + 1 y_30_ ^ 2 - 2 y_86_ * y_30_ + 1 y_86_ ^ 2 ] >= 10099.98
quadratic_ranged_432_lb: [ 1 x_42_ ^ 2 - 2 x_86_ * x_42_ + 1 x_86_ ^ 2 + 1 y_42_ ^ 2 - 2 y_86_ * y_42_ + 1 y_86_ ^ 2 ] >= 7461.63
quadratic_ranged_433_lb: [ 1 x_53_ ^ 2 - 2 x_86_ * x_53_ + 1 x_86_ ^ 2 + 1 y_53_ ^ 2 - 2 y_86_ * y_53_ + 1 y_86_ ^ 2 ] >= 12344.31
quadratic_ranged_434_lb: [ 1 x_59_ ^ 2 - 2 x_86_ * x_59_ + 1 x_86_ ^ 2 + 1 y_59_ ^ 2 - 2 y_86_ * y_59_ + 1 y_86_ ^ 2 ] >= 1371.15
quadratic_ranged_435_lb: [ 1 x_76_ ^ 2 - 2 x_86_ * x_76_ + 1 x_86_ ^ 2 + 1 y_76_ ^ 2 - 2 y_86_ * y_76_ + 1 y_86_ ^ 2 ] >= 8499.15
quadratic_ranged_436_lb: [ 1 x_77_ ^ 2 - 2 x_86_ * x_77_ + 1 x_86_ ^ 2 + 1 y_77_ ^ 2 - 2 y_86_ * y_77_ + 1 y_86_ ^ 2 ] >= 3925.35
quadratic_ranged_437_lb: [ 1 x_79_ ^ 2 - 2 x_86_ * x_79_ + 1 x_86_ ^ 2 + 1 y_79_ ^ 2 - 2 y_86_ * y_79_ + 1 y_86_ ^ 2 ] >= 9362.43
quadratic_ranged_438_lb: [ 1 x_84_ ^ 2 - 2 x_86_ * x_84_ + 1 x_86_ ^ 2 + 1 y_84_ ^ 2 - 2 y_86_ * y_84_ + 1 y_86_ ^ 2 ] >= 1346.4
quadratic_ranged_439_lb: [ 1 x_85_ ^ 2 - 2 x_86_ * x_85_ + 1 x_86_ ^ 2 + 1 y_85_ ^ 2 - 2 y_86_ * y_85_ + 1 y_86_ ^ 2 ] >= 10043.55
quadratic_ranged_440_lb: [ 1 x_3_ ^ 2 - 2 x_87_ * x_3_ + 1 x_87_ ^ 2 + 1 y_3_ ^ 2 - 2 y_87_ * y_3_ + 1 y_87_ ^ 2 ] >= 21134.52
quadratic_ranged_441_lb: [ 1 x_13_ ^ 2 - 2 x_87_ * x_13_ + 1 x_87_ ^ 2 + 1 y_13_ ^ 2 - 2 y_87_ * y_13_ + 1 y_87_ ^ 2 ] >= 7033.95
quadratic_ranged_442_lb: [ 1 x_20_ ^ 2 - 2 x_87_ * x_20_ + 1 x_87_ ^ 2 + 1 y_20_ ^ 2 - 2 y_87_ * y_20_ + 1 y_87_ ^ 2 ] >= 18442.71
quadratic_ranged_443_lb: [ 1 x_53_ ^ 2 - 2 x_87_ * x_53_ + 1 x_87_ ^ 2 + 1 y_53_ ^ 2 - 2 y_87_ * y_53_ + 1 y_87_ ^ 2 ] >= 34509.42
quadratic_ranged_444_lb: [ 1 x_71_ ^ 2 - 2 x_87_ * x_71_ + 1 x_87_ ^ 2 + 1 y_71_ ^ 2 - 2 y_87_ * y_71_ + 1 y_87_ ^ 2 ] >= 33493.68
quadratic_ranged_445_lb: [ 1 x_76_ ^ 2 - 2 x_87_ * x_76_ + 1 x_87_ ^ 2 + 1 y_76_ ^ 2 - 2 y_87_ * y_76_ + 1 y_87_ ^ 2 ] >= 26488.44
quadratic_ranged_446_lb: [ 1 x_78_ ^ 2 - 2 x_87_ * x_78_ + 1 x_87_ ^ 2 + 1 y_78_ ^ 2 - 2 y_87_ * y_78_ + 1 y_87_ ^ 2 ] >= 20252.43
quadratic_ranged_447_lb: [ 1 x_83_ ^ 2 - 2 x_87_ * x_83_ + 1 x_87_ ^ 2 + 1 y_83_ ^ 2 - 2 y_87_ * y_83_ + 1 y_87_ ^ 2 ] >= 28469.43
quadratic_ranged_448_lb: [ 1 x_86_ ^ 2 - 2 x_87_ * x_86_ + 1 x_87_ ^ 2 + 1 y_86_ ^ 2 - 2 y_87_ * y_86_ + 1 y_87_ ^ 2 ] >= 10201.95
quadratic_ranged_449_lb: [ 1 x_28_ ^ 2 - 2 x_88_ * x_28_ + 1 x_88_ ^ 2 + 1 y_28_ ^ 2 - 2 y_88_ * y_28_ + 1 y_88_ ^ 2 ] >= 12870
quadratic_ranged_450_lb: [ 1 x_32_ ^ 2 - 2 x_88_ * x_32_ + 1 x_88_ ^ 2 + 1 y_32_ ^ 2 - 2 y_88_ * y_32_ + 1 y_88_ ^ 2 ] >= 12840.3
quadratic_ranged_451_lb: [ 1 x_35_ ^ 2 - 2 x_88_ * x_35_ + 1 x_88_ ^ 2 + 1 y_35_ ^ 2 - 2 y_88_ * y_35_ + 1 y_88_ ^ 2 ] >= 12117.6
quadratic_ranged_452_lb: [ 1 x_36_ ^ 2 - 2 x_88_ * x_36_ + 1 x_88_ ^ 2 + 1 y_36_ ^ 2 - 2 y_88_ * y_36_ + 1 y_88_ ^ 2 ] >= 25361.82
quadratic_ranged_453_lb: [ 1 x_49_ ^ 2 - 2 x_88_ * x_49_ + 1 x_88_ ^ 2 + 1 y_49_ ^ 2 - 2 y_88_ * y_49_ + 1 y_88_ ^ 2 ] >= 25804.35
quadratic_ranged_454_lb: [ 1 x_53_ ^ 2 - 2 x_88_ * x_53_ + 1 x_88_ ^ 2 + 1 y_53_ ^ 2 - 2 y_88_ * y_53_ + 1 y_88_ ^ 2 ] >= 21258.27
quadratic_ranged_455_lb: [ 1 x_86_ ^ 2 - 2 x_88_ * x_86_ + 1 x_88_ ^ 2 + 1 y_86_ ^ 2 - 2 y_88_ * y_86_ + 1 y_88_ ^ 2 ] >= 8270.46
quadratic_ranged_456_lb: [ 1 x_87_ ^ 2 - 2 x_88_ * x_87_ + 1 x_88_ ^ 2 + 1 y_87_ ^ 2 - 2 y_88_ * y_87_ + 1 y_88_ ^ 2 ] >= 33696.63
quadratic_ranged_457_lb: [ 1 x_2_ ^ 2 - 2 x_89_ * x_2_ + 1 x_89_ ^ 2 + 1 y_2_ ^ 2 - 2 y_89_ * y_2_ + 1 y_89_ ^ 2 ] >= 18265.5
quadratic_ranged_458_lb: [ 1 x_26_ ^ 2 - 2 x_89_ * x_26_ + 1 x_89_ ^ 2 + 1 y_26_ ^ 2 - 2 y_89_ * y_26_ + 1 y_89_ ^ 2 ] >= 9699.03
quadratic_ranged_459_lb: [ 1 x_36_ ^ 2 - 2 x_89_ * x_36_ + 1 x_89_ ^ 2 + 1 y_36_ ^ 2 - 2 y_89_ * y_36_ + 1 y_89_ ^ 2 ] >= 12977.91
quadratic_ranged_460_lb: [ 1 x_51_ ^ 2 - 2 x_89_ * x_51_ + 1 x_89_ ^ 2 + 1 y_51_ ^ 2 - 2 y_89_ * y_51_ + 1 y_89_ ^ 2 ] >= 11979
quadratic_ranged_461_lb: [ 1 x_63_ ^ 2 - 2 x_89_ * x_63_ + 1 x_89_ ^ 2 + 1 y_63_ ^ 2 - 2 y_89_ * y_63_ + 1 y_89_ ^ 2 ] >= 25409.34
quadratic_ranged_462_lb: [ 1 x_71_ ^ 2 - 2 x_89_ * x_71_ + 1 x_89_ ^ 2 + 1 y_71_ ^ 2 - 2 y_89_ * y_71_ + 1 y_89_ ^ 2 ] >= 11155.32
quadratic_ranged_463_lb: [ 1 x_81_ ^ 2 - 2 x_89_ * x_81_ + 1 x_89_ ^ 2 + 1 y_81_ ^ 2 - 2 y_89_ * y_81_ + 1 y_89_ ^ 2 ] >= 5996.43
quadratic_ranged_464_lb: [ 1 x_88_ ^ 2 - 2 x_89_ * x_88_ + 1 x_89_ ^ 2 + 1 y_88_ ^ 2 - 2 y_89_ * y_88_ + 1 y_89_ ^ 2 ] >= 11789.91
quadratic_ranged_465_lb: [ 1 x_7_ ^ 2 - 2 x_90_ * x_7_ + 1 x_90_ ^ 2 + 1 y_7_ ^ 2 - 2 y_90_ * y_7_ + 1 y_90_ ^ 2 ] >= 9933.66
quadratic_ranged_466_lb: [ 1 x_17_ ^ 2 - 2 x_90_ * x_17_ + 1 x_90_ ^ 2 + 1 y_17_ ^ 2 - 2 y_90_ * y_17_ + 1 y_90_ ^ 2 ] >= 3172.95
quadratic_ranged_467_lb: [ 1 x_24_ ^ 2 - 2 x_90_ * x_24_ + 1 x_90_ ^ 2 + 1 y_24_ ^ 2 - 2 y_90_ * y_24_ + 1 y_90_ ^ 2 ] >= 5926.14
quadratic_ranged_468_lb: [ 1 x_25_ ^ 2 - 2 x_90_ * x_25_ + 1 x_90_ ^ 2 + 1 y_25_ ^ 2 - 2 y_90_ * y_25_ + 1 y_90_ ^ 2 ] >= 13033.35
quadratic_ranged_469_lb: [ 1 x_28_ ^ 2 - 2 x_90_ * x_28_ + 1 x_90_ ^ 2 + 1 y_28_ ^ 2 - 2 y_90_ * y_28_ + 1 y_90_ ^ 2 ] >= 8906.039999999999
quadratic_ranged_470_lb: [ 1 x_32_ ^ 2 - 2 x_90_ * x_32_ + 1 x_90_ ^ 2 + 1 y_32_ ^ 2 - 2 y_90_ * y_32_ + 1 y_90_ ^ 2 ] >= 17655.66
quadratic_ranged_471_lb: [ 1 x_34_ ^ 2 - 2 x_90_ * x_34_ + 1 x_90_ ^ 2 + 1 y_34_ ^ 2 - 2 y_90_ * y_34_ + 1 y_90_ ^ 2 ] >= 3653.1
quadratic_ranged_472_lb: [ 1 x_35_ ^ 2 - 2 x_90_ * x_35_ + 1 x_90_ ^ 2 + 1 y_35_ ^ 2 - 2 y_90_ * y_35_ + 1 y_90_ ^ 2 ] >= 9080.28
quadratic_ranged_473_lb: [ 1 x_39_ ^ 2 - 2 x_90_ * x_39_ + 1 x_90_ ^ 2 + 1 y_39_ ^ 2 - 2 y_90_ * y_39_ + 1 y_90_ ^ 2 ] >= 20002.95
quadratic_ranged_474_lb: [ 1 x_45_ ^ 2 - 2 x_90_ * x_45_ + 1 x_90_ ^ 2 + 1 y_45_ ^ 2 - 2 y_90_ * y_45_ + 1 y_90_ ^ 2 ] >= 6862.68
quadratic_ranged_475_lb: [ 1 x_46_ ^ 2 - 2 x_90_ * x_46_ + 1 x_90_ ^ 2 + 1 y_46_ ^ 2 - 2 y_90_ * y_46_ + 1 y_90_ ^ 2 ] >= 2871
quadratic_ranged_476_lb: [ 1 x_49_ ^ 2 - 2 x_90_ * x_49_ + 1 x_90_ ^ 2 + 1 y_49_ ^ 2 - 2 y_90_ * y_49_ + 1 y_90_ ^ 2 ] >= 21911.67
quadratic_ranged_477_lb: [ 1 x_52_ ^ 2 - 2 x_90_ * x_52_ + 1 x_90_ ^ 2 + 1 y_52_ ^ 2 - 2 y_90_ * y_52_ + 1 y_90_ ^ 2 ] >= 4455
quadratic_ranged_478_lb: [ 1 x_61_ ^ 2 - 2 x_90_ * x_61_ + 1 x_90_ ^ 2 + 1 y_61_ ^ 2 - 2 y_90_ * y_61_ + 1 y_90_ ^ 2 ] >= 2519.55
quadratic_ranged_479_lb: [ 1 x_71_ ^ 2 - 2 x_90_ * x_71_ + 1 x_90_ ^ 2 + 1 y_71_ ^ 2 - 2 y_90_ * y_71_ + 1 y_90_ ^ 2 ] >= 4681.71
quadratic_ranged_480_lb: [ 1 x_83_ ^ 2 - 2 x_90_ * x_83_ + 1 x_90_ ^ 2 + 1 y_83_ ^ 2 - 2 y_90_ * y_83_ + 1 y_90_ ^ 2 ] >= 16790.4
quadratic_ranged_481_lb: [ 1 x_89_ ^ 2 - 2 x_90_ * x_89_ + 1 x_90_ ^ 2 + 1 y_89_ ^ 2 - 2 y_90_ * y_89_ + 1 y_90_ ^ 2 ] >= 1390.95
quadratic_ranged_482_lb: [ 1 x_12_ ^ 2 - 2 x_91_ * x_12_ + 1 x_91_ ^ 2 + 1 y_12_ ^ 2 - 2 y_91_ * y_12_ + 1 y_91_ ^ 2 ] >= 9255.51
quadratic_ranged_483_lb: [ 1 x_13_ ^ 2 - 2 x_91_ * x_13_ + 1 x_91_ ^ 2 + 1 y_13_ ^ 2 - 2 y_91_ * y_13_ + 1 y_91_ ^ 2 ] >= 18833.76
quadratic_ranged_484_lb: [ 1 x_14_ ^ 2 - 2 x_91_ * x_14_ + 1 x_91_ ^ 2 + 1 y_14_ ^ 2 - 2 y_91_ * y_14_ + 1 y_91_ ^ 2 ] >= 14835.15
quadratic_ranged_485_lb: [ 1 x_17_ ^ 2 - 2 x_91_ * x_17_ + 1 x_91_ ^ 2 + 1 y_17_ ^ 2 - 2 y_91_ * y_17_ + 1 y_91_ ^ 2 ] >= 12585.869999999999
quadratic_ranged_486_lb: [ 1 x_26_ ^ 2 - 2 x_91_ * x_26_ + 1 x_91_ ^ 2 + 1 y_26_ ^ 2 - 2 y_91_ * y_26_ + 1 y_91_ ^ 2 ] >= 4633.2
quadratic_ranged_487_lb: [ 1 x_36_ ^ 2 - 2 x_91_ * x_36_ + 1 x_91_ ^ 2 + 1 y_36_ ^ 2 - 2 y_91_ * y_36_ + 1 y_91_ ^ 2 ] >= 4453.0199999999995
quadratic_ranged_488_lb: [ 1 x_53_ ^ 2 - 2 x_91_ * x_53_ + 1 x_91_ ^ 2 + 1 y_53_ ^ 2 - 2 y_91_ * y_53_ + 1 y_91_ ^ 2 ] >= 5885.55
quadratic_ranged_489_lb: [ 1 x_54_ ^ 2 - 2 x_91_ * x_54_ + 1 x_91_ ^ 2 + 1 y_54_ ^ 2 - 2 y_91_ * y_54_ + 1 y_91_ ^ 2 ] >= 13151.16
quadratic_ranged_490_lb: [ 1 x_78_ ^ 2 - 2 x_91_ * x_78_ + 1 x_91_ ^ 2 + 1 y_78_ ^ 2 - 2 y_91_ * y_78_ + 1 y_91_ ^ 2 ] >= 257.4
quadratic_ranged_491_lb: [ 1 x_90_ ^ 2 - 2 x_91_ * x_90_ + 1 x_91_ ^ 2 + 1 y_90_ ^ 2 - 2 y_91_ * y_90_ + 1 y_91_ ^ 2 ] >= 6407.28
quadratic_ranged_492_lb: [ 1 x_7_ ^ 2 - 2 x_92_ * x_7_ + 1 x_92_ ^ 2 + 1 y_7_ ^ 2 - 2 y_92_ * y_7_ + 1 y_92_ ^ 2 ] >= 16641.9
quadratic_ranged_493_lb: [ 1 x_9_ ^ 2 - 2 x_92_ * x_9_ + 1 x_92_ ^ 2 + 1 y_9_ ^ 2 - 2 y_92_ * y_9_ + 1 y_92_ ^ 2 ] >= 2575.98
quadratic_ranged_494_lb: [ 1 x_20_ ^ 2 - 2 x_92_ * x_20_ + 1 x_92_ ^ 2 + 1 y_20_ ^ 2 - 2 y_92_ * y_20_ + 1 y_92_ ^ 2 ] >= 12222.539999999999
quadratic_ranged_495_lb: [ 1 x_24_ ^ 2 - 2 x_92_ * x_24_ + 1 x_92_ ^ 2 + 1 y_24_ ^ 2 - 2 y_92_ * y_24_ + 1 y_92_ ^ 2 ] >= 89.1
quadratic_ranged_496_lb: [ 1 x_31_ ^ 2 - 2 x_92_ * x_31_ + 1 x_92_ ^ 2 + 1 y_31_ ^ 2 - 2 y_92_ * y_31_ + 1 y_92_ ^ 2 ] >= 3671.91
quadratic_ranged_497_lb: [ 1 x_37_ ^ 2 - 2 x_92_ * x_37_ + 1 x_92_ ^ 2 + 1 y_37_ ^ 2 - 2 y_92_ * y_37_ + 1 y_92_ ^ 2 ] >= 556.38
quadratic_ranged_498_lb: [ 1 x_43_ ^ 2 - 2 x_92_ * x_43_ + 1 x_92_ ^ 2 + 1 y_43_ ^ 2 - 2 y_92_ * y_43_ + 1 y_92_ ^ 2 ] >= 17210.16
quadratic_ranged_499_lb: [ 1 x_78_ ^ 2 - 2 x_92_ * x_78_ + 1 x_92_ ^ 2 + 1 y_78_ ^ 2 - 2 y_92_ * y_78_ + 1 y_92_ ^ 2 ] >= 7385.4
quadratic_ranged_500_lb: [ 1 x_83_ ^ 2 - 2 x_92_ * x_83_ + 1 x_92_ ^ 2 + 1 y_83_ ^ 2 - 2 y_92_ * y_83_ + 1 y_92_ ^ 2 ] >= 13757.039999999999
quadratic_ranged_501_lb: [ 1 x_89_ ^ 2 - 2 x_92_ * x_89_ + 1 x_92_ ^ 2 + 1 y_89_ ^ 2 - 2 y_92_ * y_89_ + 1 y_92_ ^ 2 ] >= 1584.99
quadratic_ranged_502_lb: [ 1 x_91_ ^ 2 - 2 x_92_ * x_91_ + 1 x_92_ ^ 2 + 1 y_91_ ^ 2 - 2 y_92_ * y_91_ + 1 y_92_ ^ 2 ] >= 5132.16
quadratic_ranged_503_lb: [ 1 x_4_ ^ 2 - 2 x_93_ * x_4_ + 1 x_93_ ^ 2 + 1 y_4_ ^ 2 - 2 y_93_ * y_4_ + 1 y_93_ ^ 2 ] >= 2380.95
quadratic_ranged_504_lb: [ 1 x_21_ ^ 2 - 2 x_93_ * x_21_ + 1 x_93_ ^ 2 + 1 y_21_ ^ 2 - 2 y_93_ * y_21_ + 1 y_93_ ^ 2 ] >= 4375.8
quadratic_ranged_505_lb: [ 1 x_39_ ^ 2 - 2 x_93_ * x_39_ + 1 x_93_ ^ 2 + 1 y_39_ ^ 2 - 2 y_93_ * y_39_ + 1 y_93_ ^ 2 ] >= 7367.58
quadratic_ranged_506_lb: [ 1 x_41_ ^ 2 - 2 x_93_ * x_41_ + 1 x_93_ ^ 2 + 1 y_41_ ^ 2 - 2 y_93_ * y_41_ + 1 y_93_ ^ 2 ] >= 4970.79
quadratic_ranged_507_lb: [ 1 x_47_ ^ 2 - 2 x_93_ * x_47_ + 1 x_93_ ^ 2 + 1 y_47_ ^ 2 - 2 y_93_ * y_47_ + 1 y_93_ ^ 2 ] >= 10296
quadratic_ranged_508_lb: [ 1 x_69_ ^ 2 - 2 x_93_ * x_69_ + 1 x_93_ ^ 2 + 1 y_69_ ^ 2 - 2 y_93_ * y_69_ + 1 y_93_ ^ 2 ] >= 5192.55
quadratic_ranged_509_lb: [ 1 x_70_ ^ 2 - 2 x_93_ * x_70_ + 1 x_93_ ^ 2 + 1 y_70_ ^ 2 - 2 y_93_ * y_70_ + 1 y_93_ ^ 2 ] >= 9163.44
quadratic_ranged_510_lb: [ 1 x_89_ ^ 2 - 2 x_93_ * x_89_ + 1 x_93_ ^ 2 + 1 y_89_ ^ 2 - 2 y_93_ * y_89_ + 1 y_93_ ^ 2 ] >= 6339.96
quadratic_ranged_511_lb: [ 1 x_92_ ^ 2 - 2 x_93_ * x_92_ + 1 x_93_ ^ 2 + 1 y_92_ ^ 2 - 2 y_93_ * y_92_ + 1 y_93_ ^ 2 ] >= 7608.15
quadratic_ranged_512_lb: [ 1 x_3_ ^ 2 - 2 x_94_ * x_3_ + 1 x_94_ ^ 2 + 1 y_3_ ^ 2 - 2 y_94_ * y_3_ + 1 y_94_ ^ 2 ] >= 3334.32
quadratic_ranged_513_lb: [ 1 x_7_ ^ 2 - 2 x_94_ * x_7_ + 1 x_94_ ^ 2 + 1 y_7_ ^ 2 - 2 y_94_ * y_7_ + 1 y_94_ ^ 2 ] >= 20010.87
quadratic_ranged_514_lb: [ 1 x_10_ ^ 2 - 2 x_94_ * x_10_ + 1 x_94_ ^ 2 + 1 y_10_ ^ 2 - 2 y_94_ * y_10_ + 1 y_94_ ^ 2 ] >= 20354.4
quadratic_ranged_515_lb: [ 1 x_19_ ^ 2 - 2 x_94_ * x_19_ + 1 x_94_ ^ 2 + 1 y_19_ ^ 2 - 2 y_94_ * y_19_ + 1 y_94_ ^ 2 ] >= 15416.28
quadratic_ranged_516_lb: [ 1 x_27_ ^ 2 - 2 x_94_ * x_27_ + 1 x_94_ ^ 2 + 1 y_27_ ^ 2 - 2 y_94_ * y_27_ + 1 y_94_ ^ 2 ] >= 6702.3
quadratic_ranged_517_lb: [ 1 x_35_ ^ 2 - 2 x_94_ * x_35_ + 1 x_94_ ^ 2 + 1 y_35_ ^ 2 - 2 y_94_ * y_35_ + 1 y_94_ ^ 2 ] >= 4103.55
quadratic_ranged_518_lb: [ 1 x_46_ ^ 2 - 2 x_94_ * x_46_ + 1 x_94_ ^ 2 + 1 y_46_ ^ 2 - 2 y_94_ * y_46_ + 1 y_94_ ^ 2 ] >= 7489.35
quadratic_ranged_519_lb: [ 1 x_47_ ^ 2 - 2 x_94_ * x_47_ + 1 x_94_ ^ 2 + 1 y_47_ ^ 2 - 2 y_94_ * y_47_ + 1 y_94_ ^ 2 ] >= 16350.84
quadratic_ranged_520_lb: [ 1 x_81_ ^ 2 - 2 x_94_ * x_81_ + 1 x_94_ ^ 2 + 1 y_81_ ^ 2 - 2 y_94_ * y_81_ + 1 y_94_ ^ 2 ] >= 32754.15
quadratic_ranged_521_lb: [ 1 x_82_ ^ 2 - 2 x_94_ * x_82_ + 1 x_94_ ^ 2 + 1 y_82_ ^ 2 - 2 y_94_ * y_82_ + 1 y_94_ ^ 2 ] >= 28833.75
quadratic_ranged_522_lb: [ 1 x_89_ ^ 2 - 2 x_94_ * x_89_ + 1 x_94_ ^ 2 + 1 y_89_ ^ 2 - 2 y_94_ * y_89_ + 1 y_94_ ^ 2 ] >= 10969.2
quadratic_ranged_523_lb: [ 1 x_93_ ^ 2 - 2 x_94_ * x_93_ + 1 x_94_ ^ 2 + 1 y_93_ ^ 2 - 2 y_94_ * y_93_ + 1 y_94_ ^ 2 ] >= 12786.84
quadratic_ranged_524_lb: [ 1 x_6_ ^ 2 - 2 x_95_ * x_6_ + 1 x_95_ ^ 2 + 1 y_6_ ^ 2 - 2 y_95_ * y_6_ + 1 y_95_ ^ 2 ] >= 5996.43
quadratic_ranged_525_lb: [ 1 x_13_ ^ 2 - 2 x_95_ * x_13_ + 1 x_95_ ^ 2 + 1 y_13_ ^ 2 - 2 y_95_ * y_13_ + 1 y_95_ ^ 2 ] >= 12311.64
quadratic_ranged_526_lb: [ 1 x_14_ ^ 2 - 2 x_95_ * x_14_ + 1 x_95_ ^ 2 + 1 y_14_ ^ 2 - 2 y_95_ * y_14_ + 1 y_95_ ^ 2 ] >= 3600.63
quadratic_ranged_527_lb: [ 1 x_17_ ^ 2 - 2 x_95_ * x_17_ + 1 x_95_ ^ 2 + 1 y_17_ ^ 2 - 2 y_95_ * y_17_ + 1 y_95_ ^ 2 ] >= 21040.47
quadratic_ranged_528_lb: [ 1 x_19_ ^ 2 - 2 x_95_ * x_19_ + 1 x_95_ ^ 2 + 1 y_19_ ^ 2 - 2 y_95_ * y_19_ + 1 y_95_ ^ 2 ] >= 7414.11
quadratic_ranged_529_lb: [ 1 x_27_ ^ 2 - 2 x_95_ * x_27_ + 1 x_95_ ^ 2 + 1 y_27_ ^ 2 - 2 y_95_ * y_27_ + 1 y_95_ ^ 2 ] >= 1929.51
quadratic_ranged_530_lb: [ 1 x_32_ ^ 2 - 2 x_95_ * x_32_ + 1 x_95_ ^ 2 + 1 y_32_ ^ 2 - 2 y_95_ * y_32_ + 1 y_95_ ^ 2 ] >= 13600.619999999999
quadratic_ranged_531_lb: [ 1 x_41_ ^ 2 - 2 x_95_ * x_41_ + 1 x_95_ ^ 2 + 1 y_41_ ^ 2 - 2 y_95_ * y_41_ + 1 y_95_ ^ 2 ] >= 3140.2799999999997
quadratic_ranged_532_lb: [ 1 x_47_ ^ 2 - 2 x_95_ * x_47_ + 1 x_95_ ^ 2 + 1 y_47_ ^ 2 - 2 y_95_ * y_47_ + 1 y_95_ ^ 2 ] >= 8063.55
quadratic_ranged_533_lb: [ 1 x_53_ ^ 2 - 2 x_95_ * x_53_ + 1 x_95_ ^ 2 + 1 y_53_ ^ 2 - 2 y_95_ * y_53_ + 1 y_95_ ^ 2 ] >= 14043.15
quadratic_ranged_534_lb: [ 1 x_55_ ^ 2 - 2 x_95_ * x_55_ + 1 x_95_ ^ 2 + 1 y_55_ ^ 2 - 2 y_95_ * y_55_ + 1 y_95_ ^ 2 ] >= 3663
quadratic_ranged_535_lb: [ 1 x_63_ ^ 2 - 2 x_95_ * x_63_ + 1 x_95_ ^ 2 + 1 y_63_ ^ 2 - 2 y_95_ * y_63_ + 1 y_95_ ^ 2 ] >= 13053.15
quadratic_ranged_536_lb: [ 1 x_66_ ^ 2 - 2 x_95_ * x_66_ + 1 x_95_ ^ 2 + 1 y_66_ ^ 2 - 2 y_95_ * y_66_ + 1 y_95_ ^ 2 ] >= 16362.72
quadratic_ranged_537_lb: [ 1 x_81_ ^ 2 - 2 x_95_ * x_81_ + 1 x_95_ ^ 2 + 1 y_81_ ^ 2 - 2 y_95_ * y_81_ + 1 y_95_ ^ 2 ] >= 20419.74
quadratic_ranged_538_lb: [ 1 x_94_ ^ 2 - 2 x_95_ * x_94_ + 1 x_95_ ^ 2 + 1 y_94_ ^ 2 - 2 y_95_ * y_94_ + 1 y_95_ ^ 2 ] >= 1450.35
quadratic_ranged_539_lb: [ 1 x_8_ ^ 2 - 2 x_96_ * x_8_ + 1 x_96_ ^ 2 + 1 y_8_ ^ 2 - 2 y_96_ * y_8_ + 1 y_96_ ^ 2 ] >= 21527.55
quadratic_ranged_540_lb: [ 1 x_16_ ^ 2 - 2 x_96_ * x_16_ + 1 x_96_ ^ 2 + 1 y_16_ ^ 2 - 2 y_96_ * y_16_ + 1 y_96_ ^ 2 ] >= 3663
quadratic_ranged_541_lb: [ 1 x_38_ ^ 2 - 2 x_96_ * x_38_ + 1 x_96_ ^ 2 + 1 y_38_ ^ 2 - 2 y_96_ * y_38_ + 1 y_96_ ^ 2 ] >= 16885.44
quadratic_ranged_542_lb: [ 1 x_43_ ^ 2 - 2 x_96_ * x_43_ + 1 x_96_ ^ 2 + 1 y_43_ ^ 2 - 2 y_96_ * y_43_ + 1 y_96_ ^ 2 ] >= 36531
quadratic_ranged_543_lb: [ 1 x_44_ ^ 2 - 2 x_96_ * x_44_ + 1 x_96_ ^ 2 + 1 y_44_ ^ 2 - 2 y_96_ * y_44_ + 1 y_96_ ^ 2 ] >= 17868.51
quadratic_ranged_544_lb: [ 1 x_49_ ^ 2 - 2 x_96_ * x_49_ + 1 x_96_ ^ 2 + 1 y_49_ ^ 2 - 2 y_96_ * y_49_ + 1 y_96_ ^ 2 ] >= 37949.67
quadratic_ranged_545_lb: [ 1 x_50_ ^ 2 - 2 x_96_ * x_50_ + 1 x_96_ ^ 2 + 1 y_50_ ^ 2 - 2 y_96_ * y_50_ + 1 y_96_ ^ 2 ] >= 22336.38
quadratic_ranged_546_lb: [ 1 x_54_ ^ 2 - 2 x_96_ * x_54_ + 1 x_96_ ^ 2 + 1 y_54_ ^ 2 - 2 y_96_ * y_54_ + 1 y_96_ ^ 2 ] >= 27260.64
quadratic_ranged_547_lb: [ 1 x_66_ ^ 2 - 2 x_96_ * x_66_ + 1 x_96_ ^ 2 + 1 y_66_ ^ 2 - 2 y_96_ * y_66_ + 1 y_96_ ^ 2 ] >= 13978.8
quadratic_ranged_548_lb: [ 1 x_89_ ^ 2 - 2 x_96_ * x_89_ + 1 x_96_ ^ 2 + 1 y_89_ ^ 2 - 2 y_96_ * y_89_ + 1 y_96_ ^ 2 ] >= 25962.75
quadratic_ranged_549_lb: [ 1 x_95_ ^ 2 - 2 x_96_ * x_95_ + 1 x_96_ ^ 2 + 1 y_95_ ^ 2 - 2 y_96_ * y_95_ + 1 y_96_ ^ 2 ] >= 36693.36
quadratic_ranged_550_lb: [ 1 x_17_ ^ 2 - 2 x_97_ * x_17_ + 1 x_97_ ^ 2 + 1 y_17_ ^ 2 - 2 y_97_ * y_17_ + 1 y_97_ ^ 2 ] >= 198
quadratic_ranged_551_lb: [ 1 x_24_ ^ 2 - 2 x_97_ * x_24_ + 1 x_97_ ^ 2 + 1 y_24_ ^ 2 - 2 y_97_ * y_24_ + 1 y_97_ ^ 2 ] >= 14949.99
quadratic_ranged_552_lb: [ 1 x_32_ ^ 2 - 2 x_97_ * x_32_ + 1 x_97_ ^ 2 + 1 y_32_ ^ 2 - 2 y_97_ * y_32_ + 1 y_97_ ^ 2 ] >= 18129.87
quadratic_ranged_553_lb: [ 1 x_33_ ^ 2 - 2 x_97_ * x_33_ + 1 x_97_ ^ 2 + 1 y_33_ ^ 2 - 2 y_97_ * y_33_ + 1 y_97_ ^ 2 ] >= 15195.51
quadratic_ranged_554_lb: [ 1 x_47_ ^ 2 - 2 x_97_ * x_47_ + 1 x_97_ ^ 2 + 1 y_47_ ^ 2 - 2 y_97_ * y_47_ + 1 y_97_ ^ 2 ] >= 8240.76
quadratic_ranged_555_lb: [ 1 x_64_ ^ 2 - 2 x_97_ * x_64_ + 1 x_97_ ^ 2 + 1 y_64_ ^ 2 - 2 y_97_ * y_64_ + 1 y_97_ ^ 2 ] >= 30694.95
quadratic_ranged_556_lb: [ 1 x_65_ ^ 2 - 2 x_97_ * x_65_ + 1 x_97_ ^ 2 + 1 y_65_ ^ 2 - 2 y_97_ * y_65_ + 1 y_97_ ^ 2 ] >= 8162.55
quadratic_ranged_557_lb: [ 1 x_78_ ^ 2 - 2 x_97_ * x_78_ + 1 x_97_ ^ 2 + 1 y_78_ ^ 2 - 2 y_97_ * y_78_ + 1 y_97_ ^ 2 ] >= 8637.75
quadratic_ranged_558_lb: [ 1 x_87_ ^ 2 - 2 x_97_ * x_87_ + 1 x_97_ ^ 2 + 1 y_87_ ^ 2 - 2 y_97_ * y_87_ + 1 y_97_ ^ 2 ] >= 26187.48
quadratic_ranged_559_lb: [ 1 x_88_ ^ 2 - 2 x_97_ * x_88_ + 1 x_97_ ^ 2 + 1 y_88_ ^ 2 - 2 y_97_ * y_88_ + 1 y_97_ ^ 2 ] >= 1276.11
quadratic_ranged_560_lb: [ 1 x_96_ ^ 2 - 2 x_97_ * x_96_ + 1 x_97_ ^ 2 + 1 y_96_ ^ 2 - 2 y_97_ * y_96_ + 1 y_97_ ^ 2 ] >= 6816.15
quadratic_ranged_561_lb: [ 1 x_27_ ^ 2 - 2 x_98_ * x_27_ + 1 x_98_ ^ 2 + 1 y_27_ ^ 2 - 2 y_98_ * y_27_ + 1 y_98_ ^ 2 ] >= 2409.66
quadratic_ranged_562_lb: [ 1 x_42_ ^ 2 - 2 x_98_ * x_42_ + 1 x_98_ ^ 2 + 1 y_42_ ^ 2 - 2 y_98_ * y_42_ + 1 y_98_ ^ 2 ] >= 10664.28
quadratic_ranged_563_lb: [ 1 x_63_ ^ 2 - 2 x_98_ * x_63_ + 1 x_98_ ^ 2 + 1 y_63_ ^ 2 - 2 y_98_ * y_63_ + 1 y_98_ ^ 2 ] >= 9434.7
quadratic_ranged_564_lb: [ 1 x_74_ ^ 2 - 2 x_98_ * x_74_ + 1 x_98_ ^ 2 + 1 y_74_ ^ 2 - 2 y_98_ * y_74_ + 1 y_98_ ^ 2 ] >= 5889.51
quadratic_ranged_565_lb: [ 1 x_77_ ^ 2 - 2 x_98_ * x_77_ + 1 x_98_ ^ 2 + 1 y_77_ ^ 2 - 2 y_98_ * y_77_ + 1 y_98_ ^ 2 ] >= 4041.18
quadratic_ranged_566_lb: [ 1 x_91_ ^ 2 - 2 x_98_ * x_91_ + 1 x_98_ ^ 2 + 1 y_91_ ^ 2 - 2 y_98_ * y_91_ + 1 y_98_ ^ 2 ] >= 527.67
quadratic_ranged_567_lb: [ 1 x_97_ ^ 2 - 2 x_98_ * x_97_ + 1 x_98_ ^ 2 + 1 y_97_ ^ 2 - 2 y_98_ * y_97_ + 1 y_98_ ^ 2 ] >= 9266.4
quadratic_ranged_568_lb: [ 1 x_72_ ^ 2 - 2 x_99_ * x_72_ + 1 x_99_ ^ 2 + 1 y_72_ ^ 2 - 2 y_99_ * y_72_ + 1 y_99_ ^ 2 ] >= 321.75
quadratic_ranged_569_lb: [ 1 x_79_ ^ 2 - 2 x_99_ * x_79_ + 1 x_99_ ^ 2 + 1 y_79_ ^ 2 - 2 y_99_ * y_79_ + 1 y_99_ ^ 2 ] >= 11139.48
quadratic_ranged_570_lb: [ 1 x_82_ ^ 2 - 2 x_99_ * x_82_ + 1 x_99_ ^ 2 + 1 y_82_ ^ 2 - 2 y_99_ * y_82_ + 1 y_99_ ^ 2 ] >= 20608.829999999998
quadratic_ranged_571_lb: [ 1 x_84_ ^ 2 - 2 x_99_ * x_84_ + 1 x_99_ ^ 2 + 1 y_84_ ^ 2 - 2 y_99_ * y_84_ + 1 y_99_ ^ 2 ] >= 7014.15
quadratic_ranged_572_lb: [ 1 x_94_ ^ 2 - 2 x_99_ * x_94_ + 1 x_99_ ^ 2 + 1 y_94_ ^ 2 - 2 y_99_ * y_94_ + 1 y_99_ ^ 2 ] >= 704.88
quadratic_ranged_573_lb: [ 1 x_98_ ^ 2 - 2 x_99_ * x_98_ + 1 x_99_ ^ 2 + 1 y_98_ ^ 2 - 2 y_99_ * y_98_ + 1 y_99_ ^ 2 ] >= 2320.56
quadratic_ranged_574_lb: [ 1 x_1_ ^ 2 - 2 x_100_ * x_1_ + 1 x_100_ ^ 2 + 1 y_1_ ^ 2 - 2 y_100_ * y_1_ + 1 y_100_ ^ 2 ] >= 891
quadratic_ranged_575_lb: [ 1 x_3_ ^ 2 - 2 x_100_ * x_3_ + 1 x_100_ ^ 2 + 1 y_3_ ^ 2 - 2 y_100_ * y_3_ + 1 y_100_ ^ 2 ] >= 30714.75
quadratic_ranged_576_lb: [ 1 x_10_ ^ 2 - 2 x_100_ * x_10_ + 1 x_100_ ^ 2 + 1 y_10_ ^ 2 - 2 y_100_ * y_10_ + 1 y_100_ ^ 2 ] >= 1984.95
quadratic_ranged_577_lb: [ 1 x_25_ ^ 2 - 2 x_100_ * x_25_ + 1 x_100_ ^ 2 + 1 y_25_ ^ 2 - 2 y_100_ * y_25_ + 1 y_100_ ^ 2 ] >= 6883.47
quadratic_ranged_578_lb: [ 1 x_30_ ^ 2 - 2 x_100_ * x_30_ + 1 x_100_ ^ 2 + 1 y_30_ ^ 2 - 2 y_100_ * y_30_ + 1 y_100_ ^ 2 ] >= 572.22
quadratic_ranged_579_lb: [ 1 x_31_ ^ 2 - 2 x_100_ * x_31_ + 1 x_100_ ^ 2 + 1 y_31_ ^ 2 - 2 y_100_ * y_31_ + 1 y_100_ ^ 2 ] >= 19816.829999999998
quadratic_ranged_580_lb: [ 1 x_43_ ^ 2 - 2 x_100_ * x_43_ + 1 x_100_ ^ 2 + 1 y_43_ ^ 2 - 2 y_100_ * y_43_ + 1 y_100_ ^ 2 ] >= 12761.1
quadratic_ranged_581_lb: [ 1 x_47_ ^ 2 - 2 x_100_ * x_47_ + 1 x_100_ ^ 2 + 1 y_47_ ^ 2 - 2 y_100_ * y_47_ + 1 y_100_ ^ 2 ] >= 9766.35
quadratic_ranged_582_lb: [ 1 x_49_ ^ 2 - 2 x_100_ * x_49_ + 1 x_100_ ^ 2 + 1 y_49_ ^ 2 - 2 y_100_ * y_49_ + 1 y_100_ ^ 2 ] >= 33229.35
quadratic_ranged_583_lb: [ 1 x_80_ ^ 2 - 2 x_100_ * x_80_ + 1 x_100_ ^ 2 + 1 y_80_ ^ 2 - 2 y_100_ * y_80_ + 1 y_100_ ^ 2 ] >= 32318.55
quadratic_ranged_584_lb: [ 1 x_96_ ^ 2 - 2 x_100_ * x_96_ + 1 x_100_ ^ 2 + 1 y_96_ ^ 2 - 2 y_100_ * y_96_ + 1 y_100_ ^ 2 ] >= 6203.34
quadratic_ranged_585_lb: [ 1 x_99_ ^ 2 - 2 x_100_ * x_99_ + 1 x_100_ ^ 2 + 1 y_99_ ^ 2 - 2 y_100_ * y_99_ + 1 y_100_ ^ 2 ] >= 23309.55
c1_1: 1 x_68_ = 75
c2_1: 1 y_68_ = 21
c3_1: 1 x_15_ = -28
c4_1: 1 y_15_ = -94
c5_1: 1 x_63_ = -89
c6_1: 1 y_63_ = -75
Bounds
-40 <= x_1_ <= 146
-62 <= x_2_ <= 88
-114 <= x_3_ <= 58
-33 <= x_4_ <= 139
-60 <= x_5_ <= 120
-103 <= x_6_ <= 76
-81 <= x_7_ <= 60
-72 <= x_8_ <= 80
-100 <= x_9_ <= 82
-49 <= x_10_ <= 115
-111 <= x_11_ <= 58
-126 <= x_12_ <= 129
-45 <= x_13_ <= 136
-104 <= x_14_ <= 87
x_15_ = -28
-67 <= x_16_ <= 96
-44 <= x_17_ <= 120
-50 <= x_18_ <= 172
-10 <= x_19_ <= 107
-31 <= x_20_ <= 131
-106 <= x_21_ <= 93
-141 <= x_22_ <= 107
-13 <= x_23_ <= 36
-115 <= x_24_ <= 63
-56 <= x_25_ <= 57
-123 <= x_26_ <= 98
-46 <= x_27_ <= 55
-58 <= x_28_ <= 47
-97 <= x_29_ <= 59
15 <= x_30_ <= 129
-114 <= x_31_ <= 134
-121 <= x_32_ <= 110
-81 <= x_33_ <= 51
-45 <= x_34_ <= 117
-52 <= x_35_ <= 53
-102 <= x_36_ <= 59
-126 <= x_37_ <= 87
-40 <= x_38_ <= 30
-59 <= x_39_ <= 3
-36 <= x_40_ <= 104
-110 <= x_41_ <= 83
-49 <= x_42_ <= 113
-2 <= x_43_ <= 152
10 <= x_44_ <= 122
-90 <= x_45_ <= 68
-50 <= x_46_ <= 19
-6 <= x_47_ <= 103
-22 <= x_48_ <= 86
-112 <= x_49_ <= 66
-70 <= x_50_ <= 1
-73 <= x_51_ <= 101
-73 <= x_52_ <= 130
-158 <= x_53_ <= 109
-15 <= x_54_ <= 106
-121 <= x_55_ <= 87
-120 <= x_56_ <= 88
-74 <= x_57_ <= 63
58 <= x_58_ <= 92
-46 <= x_59_ <= 54
-24 <= x_60_ <= 108
-62 <= x_61_ <= 123
-73 <= x_62_ <= 38
x_63_ = -89
-134 <= x_64_ <= 39
-18 <= x_65_ <= 161
37 <= x_66_ <= 106
-100 <= x_67_ <= 96
x_68_ = 75
34 <= x_69_ <= 116
10 <= x_70_ <= 101
25 <= x_71_ <= 101
-94 <= x_72_ <= 75
-117 <= x_73_ <= 145
-130 <= x_74_ <= 79
21 <= x_75_ <= 111
-92 <= x_76_ <= 36
-122 <= x_77_ <= 67
-93 <= x_78_ <= 48
-59 <= x_79_ <= 3
-86 <= x_80_ <= 30
13 <= x_81_ <= 137
-34 <= x_82_ <= 178
-70 <= x_83_ <= 14
-69 <= x_84_ <= 11
43 <= x_85_ <= 107
-58 <= x_86_ <= 48
-130 <= x_87_ <= 150
-94 <= x_88_ <= 140
-65 <= x_89_ <= 72
-45 <= x_90_ <= 73
-109 <= x_91_ <= 32
-105 <= x_92_ <= 73
-39 <= x_93_ <= 89
-116 <= x_94_ <= 64
-91 <= x_95_ <= 26
-82 <= x_96_ <= 152
-58 <= x_97_ <= 106
-96 <= x_98_ <= 9
-113 <= x_99_ <= 57
-10 <= x_100_ <= 140
-94 <= y_1_ <= 117
-116 <= y_2_ <= 102
-180 <= y_3_ <= -8
-87 <= y_4_ <= 73
-114 <= y_5_ <= 76
-157 <= y_6_ <= 10
-135 <= y_7_ <= 23
-126 <= y_8_ <= 44
-154 <= y_9_ <= 63
-103 <= y_10_ <= 54
-165 <= y_11_ <= -8
-180 <= y_12_ <= 71
-99 <= y_13_ <= 107
-158 <= y_14_ <= 86
y_15_ = -94
-121 <= y_16_ <= 30
-98 <= y_17_ <= 54
-104 <= y_18_ <= 146
-64 <= y_19_ <= 86
-85 <= y_20_ <= 117
-160 <= y_21_ <= 27
-195 <= y_22_ <= 88
-67 <= y_23_ <= 50
-169 <= y_24_ <= 65
-110 <= y_25_ <= 71
-177 <= y_26_ <= 46
-100 <= y_27_ <= 55
-112 <= y_28_ <= -19
-151 <= y_29_ <= 14
-39 <= y_30_ <= 77
-168 <= y_31_ <= 122
-175 <= y_32_ <= 44
-135 <= y_33_ <= 64
-99 <= y_34_ <= 51
-106 <= y_35_ <= -13
-156 <= y_36_ <= 21
-180 <= y_37_ <= 89
-94 <= y_38_ <= -6
-125 <= y_39_ <= -63
-90 <= y_40_ <= 38
-164 <= y_41_ <= 95
-103 <= y_42_ <= 99
-56 <= y_43_ <= 98
-44 <= y_44_ <= 86
-144 <= y_45_ <= 48
-104 <= y_46_ <= -2
-60 <= y_47_ <= 82
-76 <= y_48_ <= 50
-166 <= y_49_ <= 0
-124 <= y_50_ <= 14
-127 <= y_51_ <= 35
-127 <= y_52_ <= 64
-212 <= y_53_ <= 48
-69 <= y_54_ <= 111
-175 <= y_55_ <= 94
-174 <= y_56_ <= 41
-128 <= y_57_ <= 77
4 <= y_58_ <= 38
-100 <= y_59_ <= 18
-78 <= y_60_ <= 109
-116 <= y_61_ <= 103
-127 <= y_62_ <= 38
y_63_ = -75
-188 <= y_64_ <= 53
-72 <= y_65_ <= 114
-17 <= y_66_ <= 59
-154 <= y_67_ <= 30
y_68_ = 21
-20 <= y_69_ <= 62
-44 <= y_70_ <= 81
-29 <= y_71_ <= 46
-148 <= y_72_ <= 59
-171 <= y_73_ <= 85
-184 <= y_74_ <= 65
-33 <= y_75_ <= 75
-157 <= y_76_ <= -30
-176 <= y_77_ <= 75
-147 <= y_78_ <= -7
-125 <= y_79_ <= -63
-152 <= y_80_ <= -36
-41 <= y_81_ <= 83
-88 <= y_82_ <= 112
-136 <= y_83_ <= -52
-123 <= y_84_ <= -26
-11 <= y_85_ <= 53
-112 <= y_86_ <= 11
-184 <= y_87_ <= 113
-148 <= y_88_ <= 95
-119 <= y_89_ <= 86
-99 <= y_90_ <= 52
-163 <= y_91_ <= 9
-159 <= y_92_ <= 67
-93 <= y_93_ <= 23
-170 <= y_94_ <= 50
-145 <= y_95_ <= 40
-136 <= y_96_ <= 91
-112 <= y_97_ <= 68
-150 <= y_98_ <= 23
-167 <= y_99_ <= 44
-64 <= y_100_ <= 99
General
x_1_
x_2_
x_3_
x_4_
x_5_
x_6_
x_7_
x_8_
x_9_
x_10_
x_11_
x_12_
x_13_
x_14_
x_15_
x_16_
x_17_
x_18_
x_19_
x_20_
x_21_
x_22_
x_23_
x_24_
x_25_
x_26_
x_27_
x_28_
x_29_
x_30_
x_31_
x_32_
x_33_
x_34_
x_35_
x_36_
x_37_
x_38_
x_39_
x_40_
x_41_
x_42_
x_43_
x_44_
x_45_
x_46_
x_47_
x_48_
x_49_
x_50_
x_51_
x_52_
x_53_
x_54_
x_55_
x_56_
x_57_
x_58_
x_59_
x_60_
x_61_
x_62_
x_63_
x_64_
x_65_
x_66_
x_67_
x_68_
x_69_
x_70_
x_71_
x_72_
x_73_
x_74_
x_75_
x_76_
x_77_
x_78_
x_79_
x_80_
x_81_
x_82_
x_83_
x_84_
x_85_
x_86_
x_87_
x_88_
x_89_
x_90_
x_91_
x_92_
x_93_
x_94_
x_95_
x_96_
x_97_
x_98_
x_99_
x_100_
y_1_
y_2_
y_3_
y_4_
y_5_
y_6_
y_7_
y_8_
y_9_
y_10_
y_11_
y_12_
y_13_
y_14_
y_15_
y_16_
y_17_
y_18_
y_19_
y_20_
y_21_
y_22_
y_23_
y_24_
y_25_
y_26_
y_27_
y_28_
y_29_
y_30_
y_31_
y_32_
y_33_
y_34_
y_35_
y_36_
y_37_
y_38_
y_39_
y_40_
y_41_
y_42_
y_43_
y_44_
y_45_
y_46_
y_47_
y_48_
y_49_
y_50_
y_51_
y_52_
y_53_
y_54_
y_55_
y_56_
y_57_
y_58_
y_59_
y_60_
y_61_
y_62_
y_63_
y_64_
y_65_
y_66_
y_67_
y_68_
y_69_
y_70_
y_71_
y_72_
y_73_
y_74_
y_75_
y_76_
y_77_
y_78_
y_79_
y_80_
y_81_
y_82_
y_83_
y_84_
y_85_
y_86_
y_87_
y_88_
y_89_
y_90_
y_91_
y_92_
y_93_
y_94_
y_95_
y_96_
y_97_
y_98_
y_99_
y_100_
End
