minimize
obj: 
subject to
c1_1: 176 x_1_ + 168 y_1_ + [ 1 x_1_ ^ 2 + 1 y_1_ ^ 2 ] <= 23913
c2_1: 176 x_2_ + 168 y_2_ + [ 1 x_2_ ^ 2 + 1 y_2_ ^ 2 ] <= 15165
c3_1: 176 x_3_ + 168 y_3_ + [ 1 x_3_ ^ 2 + 1 y_3_ ^ 2 ] <= -4094
c4_1: 176 x_4_ + 168 y_4_ + [ 1 x_4_ ^ 2 + 1 y_4_ ^ 2 ] <= 6468
c5_1: 176 x_5_ + 168 y_5_ + [ 1 x_5_ ^ 2 + 1 y_5_ ^ 2 ] <= 11211
c6_1: 176 x_6_ + 168 y_6_ + [ 1 x_6_ ^ 2 + 1 y_6_ ^ 2 ] <= 15288
c7_1: 176 x_7_ + 168 y_7_ + [ 1 x_7_ ^ 2 + 1 y_7_ ^ 2 ] <= 11527
c8_1: 176 x_8_ + 168 y_8_ + [ 1 x_8_ ^ 2 + 1 y_8_ ^ 2 ] <= 22748
c9_1: 176 x_9_ + 168 y_9_ + [ 1 x_9_ ^ 2 + 1 y_9_ ^ 2 ] <= -8702
c10_1: 176 x_10_ + 168 y_10_ + [ 1 x_10_ ^ 2 + 1 y_10_ ^ 2 ] <= -8281
c11_1: 176 x_11_ + 168 y_11_ + [ 1 x_11_ ^ 2 + 1 y_11_ ^ 2 ] <= 11461
c12_1: 176 x_12_ + 168 y_12_ + [ 1 x_12_ ^ 2 + 1 y_12_ ^ 2 ] <= 8079
c13_1: 176 x_13_ + 168 y_13_ + [ 1 x_13_ ^ 2 + 1 y_13_ ^ 2 ] <= -6300
c14_1: 176 x_14_ + 168 y_14_ + [ 1 x_14_ ^ 2 + 1 y_14_ ^ 2 ] <= 33918
c15_1: 176 x_15_ + 168 y_15_ + [ 1 x_15_ ^ 2 + 1 y_15_ ^ 2 ] <= 24082
c16_1: 176 x_16_ + 168 y_16_ + [ 1 x_16_ ^ 2 + 1 y_16_ ^ 2 ] <= 10517
c17_1: 176 x_17_ + 168 y_17_ + [ 1 x_17_ ^ 2 + 1 y_17_ ^ 2 ] <= 12869
c18_1: 176 x_18_ + 168 y_18_ + [ 1 x_18_ ^ 2 + 1 y_18_ ^ 2 ] <= 23054
c19_1: 176 x_19_ + 168 y_19_ + [ 1 x_19_ ^ 2 + 1 y_19_ ^ 2 ] <= 18998
c20_1: 176 x_20_ + 168 y_20_ + [ 1 x_20_ ^ 2 + 1 y_20_ ^ 2 ] <= 10508
c21_1: 176 x_21_ + 168 y_21_ + [ 1 x_21_ ^ 2 + 1 y_21_ ^ 2 ] <= 2540
c22_1: 176 x_22_ + 168 y_22_ + [ 1 x_22_ ^ 2 + 1 y_22_ ^ 2 ] <= 2934
c23_1: 176 x_23_ + 168 y_23_ + [ 1 x_23_ ^ 2 + 1 y_23_ ^ 2 ] <= -13068
c24_1: 176 x_24_ + 168 y_24_ + [ 1 x_24_ ^ 2 + 1 y_24_ ^ 2 ] <= -9505
c25_1: 176 x_25_ + 168 y_25_ + [ 1 x_25_ ^ 2 + 1 y_25_ ^ 2 ] <= 15187
c26_1: 176 x_26_ + 168 y_26_ + [ 1 x_26_ ^ 2 + 1 y_26_ ^ 2 ] <= 29441
c27_1: 176 x_27_ + 168 y_27_ + [ 1 x_27_ ^ 2 + 1 y_27_ ^ 2 ] <= 27085
c28_1: 176 x_28_ + 168 y_28_ + [ 1 x_28_ ^ 2 + 1 y_28_ ^ 2 ] <= -2988
c29_1: 176 x_29_ + 168 y_29_ + [ 1 x_29_ ^ 2 + 1 y_29_ ^ 2 ] <= 3090
c30_1: 176 x_30_ + 168 y_30_ + [ 1 x_30_ ^ 2 + 1 y_30_ ^ 2 ] <= 14592
c31_1: 176 x_31_ + 168 y_31_ + [ 1 x_31_ ^ 2 + 1 y_31_ ^ 2 ] <= -13800
c32_1: 176 x_32_ + 168 y_32_ + [ 1 x_32_ ^ 2 + 1 y_32_ ^ 2 ] <= -2805
c33_1: 176 x_33_ + 168 y_33_ + [ 1 x_33_ ^ 2 + 1 y_33_ ^ 2 ] <= -3782
c34_1: 176 x_34_ + 168 y_34_ + [ 1 x_34_ ^ 2 + 1 y_34_ ^ 2 ] <= 7808
c35_1: 176 x_35_ + 168 y_35_ + [ 1 x_35_ ^ 2 + 1 y_35_ ^ 2 ] <= -1523
c36_1: 176 x_36_ + 168 y_36_ + [ 1 x_36_ ^ 2 + 1 y_36_ ^ 2 ] <= 12866
c37_1: 176 x_38_ + 168 y_38_ + [ 1 x_38_ ^ 2 + 1 y_38_ ^ 2 ] <= -10903
c38_1: 176 x_39_ + 168 y_39_ + [ 1 x_39_ ^ 2 + 1 y_39_ ^ 2 ] <= 4036
c39_1: 176 x_40_ + 168 y_40_ + [ 1 x_40_ ^ 2 + 1 y_40_ ^ 2 ] <= -6233
c40_1: 176 x_41_ + 168 y_41_ + [ 1 x_41_ ^ 2 + 1 y_41_ ^ 2 ] <= 11290
c41_1: 176 x_42_ + 168 y_42_ + [ 1 x_42_ ^ 2 + 1 y_42_ ^ 2 ] <= 18138
c42_1: 176 x_43_ + 168 y_43_ + [ 1 x_43_ ^ 2 + 1 y_43_ ^ 2 ] <= 20809
c43_1: 176 x_44_ + 168 y_44_ + [ 1 x_44_ ^ 2 + 1 y_44_ ^ 2 ] <= 30614
c44_1: 176 x_45_ + 168 y_45_ + [ 1 x_45_ ^ 2 + 1 y_45_ ^ 2 ] <= 20254
c45_1: 176 x_46_ + 168 y_46_ + [ 1 x_46_ ^ 2 + 1 y_46_ ^ 2 ] <= 32158
c46_1: 176 x_47_ + 168 y_47_ + [ 1 x_47_ ^ 2 + 1 y_47_ ^ 2 ] <= 12261
c47_1: 176 x_48_ + 168 y_48_ + [ 1 x_48_ ^ 2 + 1 y_48_ ^ 2 ] <= 19878
c48_1: 176 x_49_ + 168 y_49_ + [ 1 x_49_ ^ 2 + 1 y_49_ ^ 2 ] <= 14680
c49_1: 176 x_50_ + 168 y_50_ + [ 1 x_50_ ^ 2 + 1 y_50_ ^ 2 ] <= 30009
c50_1: 176 x_51_ + 168 y_51_ + [ 1 x_51_ ^ 2 + 1 y_51_ ^ 2 ] <= 18945
c51_1: 176 x_52_ + 168 y_52_ + [ 1 x_52_ ^ 2 + 1 y_52_ ^ 2 ] <= 29253
c52_1: 176 x_53_ + 168 y_53_ + [ 1 x_53_ ^ 2 + 1 y_53_ ^ 2 ] <= 11025
c53_1: 176 x_54_ + 168 y_54_ + [ 1 x_54_ ^ 2 + 1 y_54_ ^ 2 ] <= 12119
c54_1: 176 x_55_ + 168 y_55_ + [ 1 x_55_ ^ 2 + 1 y_55_ ^ 2 ] <= 13055
c55_1: 176 x_56_ + 168 y_56_ + [ 1 x_56_ ^ 2 + 1 y_56_ ^ 2 ] <= 15947
c56_1: 176 x_57_ + 168 y_57_ + [ 1 x_57_ ^ 2 + 1 y_57_ ^ 2 ] <= 31876
c57_1: 176 x_58_ + 168 y_58_ + [ 1 x_58_ ^ 2 + 1 y_58_ ^ 2 ] <= 25177
c58_1: 176 x_59_ + 168 y_59_ + [ 1 x_59_ ^ 2 + 1 y_59_ ^ 2 ] <= 25176
c59_1: 176 x_60_ + 168 y_60_ + [ 1 x_60_ ^ 2 + 1 y_60_ ^ 2 ] <= 26849
c60_1: 176 x_61_ + 168 y_61_ + [ 1 x_61_ ^ 2 + 1 y_61_ ^ 2 ] <= 16035
c61_1: 176 x_62_ + 168 y_62_ + [ 1 x_62_ ^ 2 + 1 y_62_ ^ 2 ] <= 27227
c62_1: 176 x_63_ + 168 y_63_ + [ 1 x_63_ ^ 2 + 1 y_63_ ^ 2 ] <= 27517
c63_1: 176 x_64_ + 168 y_64_ + [ 1 x_64_ ^ 2 + 1 y_64_ ^ 2 ] <= 22264
c64_1: 176 x_65_ + 168 y_65_ + [ 1 x_65_ ^ 2 + 1 y_65_ ^ 2 ] <= 10170
c65_1: 176 x_66_ + 168 y_66_ + [ 1 x_66_ ^ 2 + 1 y_66_ ^ 2 ] <= 26093
c66_1: 176 x_67_ + 168 y_67_ + [ 1 x_67_ ^ 2 + 1 y_67_ ^ 2 ] <= 8388
c67_1: 176 x_68_ + 168 y_68_ + [ 1 x_68_ ^ 2 + 1 y_68_ ^ 2 ] <= 20200
c68_1: 176 x_69_ + 168 y_69_ + [ 1 x_69_ ^ 2 + 1 y_69_ ^ 2 ] <= 13827
c69_1: 176 x_70_ + 168 y_70_ + [ 1 x_70_ ^ 2 + 1 y_70_ ^ 2 ] <= 13940
c70_1: 176 x_71_ + 168 y_71_ + [ 1 x_71_ ^ 2 + 1 y_71_ ^ 2 ] <= 10569
c71_1: 176 x_72_ + 168 y_72_ + [ 1 x_72_ ^ 2 + 1 y_72_ ^ 2 ] <= 31113
c72_1: 176 x_73_ + 168 y_73_ + [ 1 x_73_ ^ 2 + 1 y_73_ ^ 2 ] <= -3870
c73_1: 176 x_74_ + 168 y_74_ + [ 1 x_74_ ^ 2 + 1 y_74_ ^ 2 ] <= 17346
c74_1: 176 x_75_ + 168 y_75_ + [ 1 x_75_ ^ 2 + 1 y_75_ ^ 2 ] <= 38114
c75_1: 176 x_76_ + 168 y_76_ + [ 1 x_76_ ^ 2 + 1 y_76_ ^ 2 ] <= 3540
c76_1: 176 x_77_ + 168 y_77_ + [ 1 x_77_ ^ 2 + 1 y_77_ ^ 2 ] <= 14163
c77_1: 176 x_78_ + 168 y_78_ + [ 1 x_78_ ^ 2 + 1 y_78_ ^ 2 ] <= 12432
c78_1: 176 x_79_ + 168 y_79_ + [ 1 x_79_ ^ 2 + 1 y_79_ ^ 2 ] <= 8040
c79_1: 176 x_80_ + 168 y_80_ + [ 1 x_80_ ^ 2 + 1 y_80_ ^ 2 ] <= 25757
c80_1: 176 x_81_ + 168 y_81_ + [ 1 x_81_ ^ 2 + 1 y_81_ ^ 2 ] <= -10331
c81_1: 176 x_82_ + 168 y_82_ + [ 1 x_82_ ^ 2 + 1 y_82_ ^ 2 ] <= -2289
c82_1: 176 x_83_ + 168 y_83_ + [ 1 x_83_ ^ 2 + 1 y_83_ ^ 2 ] <= -6250
c83_1: 176 x_84_ + 168 y_84_ + [ 1 x_84_ ^ 2 + 1 y_84_ ^ 2 ] <= -4722
c84_1: 176 x_85_ + 168 y_85_ + [ 1 x_85_ ^ 2 + 1 y_85_ ^ 2 ] <= 14197
c85_1: 176 x_86_ + 168 y_86_ + [ 1 x_86_ ^ 2 + 1 y_86_ ^ 2 ] <= 18914
c86_1: 176 x_87_ + 168 y_87_ + [ 1 x_87_ ^ 2 + 1 y_87_ ^ 2 ] <= 21824
c87_1: 176 x_88_ + 168 y_88_ + [ 1 x_88_ ^ 2 + 1 y_88_ ^ 2 ] <= 24870
c88_1: 176 x_89_ + 168 y_89_ + [ 1 x_89_ ^ 2 + 1 y_89_ ^ 2 ] <= 28425
c89_1: 176 x_90_ + 168 y_90_ + [ 1 x_90_ ^ 2 + 1 y_90_ ^ 2 ] <= 22786
c90_1: 176 x_91_ + 168 y_91_ + [ 1 x_91_ ^ 2 + 1 y_91_ ^ 2 ] <= 4452
c91_1: 176 x_92_ + 168 y_92_ + [ 1 x_92_ ^ 2 + 1 y_92_ ^ 2 ] <= 3105
c92_1: 176 x_93_ + 168 y_93_ + [ 1 x_93_ ^ 2 + 1 y_93_ ^ 2 ] <= 12941
c93_1: 176 x_94_ + 168 y_94_ + [ 1 x_94_ ^ 2 + 1 y_94_ ^ 2 ] <= 32441
c94_1: 176 x_95_ + 168 y_95_ + [ 1 x_95_ ^ 2 + 1 y_95_ ^ 2 ] <= 18097
c95_1: 176 x_96_ + 168 y_96_ + [ 1 x_96_ ^ 2 + 1 y_96_ ^ 2 ] <= 6961
c96_1: 176 x_97_ + 168 y_97_ + [ 1 x_97_ ^ 2 + 1 y_97_ ^ 2 ] <= -373
c97_1: 176 x_98_ + 168 y_98_ + [ 1 x_98_ ^ 2 + 1 y_98_ ^ 2 ] <= -1080
c98_1: 176 x_99_ + 168 y_99_ + [ 1 x_99_ ^ 2 + 1 y_99_ ^ 2 ] <= 15016
c99_1: 176 x_100_ + 168 y_100_ + [ 1 x_100_ ^ 2 + 1 y_100_ ^ 2 ] <= 8941
c100_1: 98 x_1_ + [ 1 x_1_ ^ 2 + 1 y_1_ ^ 2 ] <= 5080
c101_1: 98 x_2_ + [ 1 x_2_ ^ 2 + 1 y_2_ ^ 2 ] <= -1410
c102_1: 98 x_3_ + [ 1 x_3_ ^ 2 + 1 y_3_ ^ 2 ] <= 7824
c103_1: 98 x_4_ + [ 1 x_4_ ^ 2 + 1 y_4_ ^ 2 ] <= 10397
c104_1: 98 x_5_ + [ 1 x_5_ ^ 2 + 1 y_5_ ^ 2 ] <= 14171
c105_1: 98 x_6_ + [ 1 x_6_ ^ 2 + 1 y_6_ ^ 2 ] <= -514
c106_1: 98 x_7_ + [ 1 x_7_ ^ 2 + 1 y_7_ ^ 2 ] <= 10012
c107_1: 98 x_8_ + [ 1 x_8_ ^ 2 + 1 y_8_ ^ 2 ] <= 14557
c108_1: 98 x_9_ + [ 1 x_9_ ^ 2 + 1 y_9_ ^ 2 ] <= 16866
c109_1: 98 x_10_ + [ 1 x_10_ ^ 2 + 1 y_10_ ^ 2 ] <= 10582
c110_1: 98 x_11_ + [ 1 x_11_ ^ 2 + 1 y_11_ ^ 2 ] <= 19964
c111_1: 98 x_12_ + [ 1 x_12_ ^ 2 + 1 y_12_ ^ 2 ] <= 22934
c112_1: 98 x_13_ + [ 1 x_13_ ^ 2 + 1 y_13_ ^ 2 ] <= 14109
c113_1: 98 x_14_ + [ 1 x_14_ ^ 2 + 1 y_14_ ^ 2 ] <= 40954
c114_1: 98 x_15_ + [ 1 x_15_ ^ 2 + 1 y_15_ ^ 2 ] <= 31323
c115_1: 98 x_16_ + [ 1 x_16_ ^ 2 + 1 y_16_ ^ 2 ] <= 14053
c116_1: 98 x_17_ + [ 1 x_17_ ^ 2 + 1 y_17_ ^ 2 ] <= 34258
c117_1: 98 x_18_ + [ 1 x_18_ ^ 2 + 1 y_18_ ^ 2 ] <= 29924
c118_1: 98 x_19_ + [ 1 x_19_ ^ 2 + 1 y_19_ ^ 2 ] <= 8603
c119_1: 98 x_20_ + [ 1 x_20_ ^ 2 + 1 y_20_ ^ 2 ] <= 11255
c120_1: 98 x_21_ + [ 1 x_21_ ^ 2 + 1 y_21_ ^ 2 ] <= 24587
c121_1: 98 x_22_ + [ 1 x_22_ ^ 2 + 1 y_22_ ^ 2 ] <= 5212
c122_1: 98 x_23_ + [ 1 x_23_ ^ 2 + 1 y_23_ ^ 2 ] <= 24156
c123_1: 98 x_24_ + [ 1 x_24_ ^ 2 + 1 y_24_ ^ 2 ] <= 22744
c124_1: 98 x_25_ + [ 1 x_25_ ^ 2 + 1 y_25_ ^ 2 ] <= 9840
c125_1: 98 x_26_ + [ 1 x_26_ ^ 2 + 1 y_26_ ^ 2 ] <= 9104
c126_1: 98 x_27_ + [ 1 x_27_ ^ 2 + 1 y_27_ ^ 2 ] <= 21577
c127_1: 98 x_28_ + [ 1 x_28_ ^ 2 + 1 y_28_ ^ 2 ] <= 9309
c128_1: 98 x_29_ + [ 1 x_29_ ^ 2 + 1 y_29_ ^ 2 ] <= 21316
c129_1: 98 x_30_ + [ 1 x_30_ ^ 2 + 1 y_30_ ^ 2 ] <= 4149
c130_1: 98 x_31_ + [ 1 x_31_ ^ 2 + 1 y_31_ ^ 2 ] <= 27515
c131_1: 98 x_32_ + [ 1 x_32_ ^ 2 + 1 y_32_ ^ 2 ] <= 10622
c132_1: 98 x_33_ + [ 1 x_33_ ^ 2 + 1 y_33_ ^ 2 ] <= 16689
c133_1: 98 x_34_ + [ 1 x_34_ ^ 2 + 1 y_34_ ^ 2 ] <= 11185
c134_1: 98 x_35_ + [ 1 x_35_ ^ 2 + 1 y_35_ ^ 2 ] <= 269
c135_1: 98 x_36_ + [ 1 x_36_ ^ 2 + 1 y_36_ ^ 2 ] <= 11176
c136_1: 98 x_37_ + [ 1 x_37_ ^ 2 + 1 y_37_ ^ 2 ] <= 25454
c137_1: 98 x_38_ + [ 1 x_38_ ^ 2 + 1 y_38_ ^ 2 ] <= 17362
c138_1: 98 x_39_ + [ 1 x_39_ ^ 2 + 1 y_39_ ^ 2 ] <= 6628
c139_1: 98 x_40_ + [ 1 x_40_ ^ 2 + 1 y_40_ ^ 2 ] <= 13414
c140_1: 98 x_41_ + [ 1 x_41_ ^ 2 + 1 y_41_ ^ 2 ] <= 22388
c141_1: 98 x_42_ + [ 1 x_42_ ^ 2 + 1 y_42_ ^ 2 ] <= 13048
c142_1: 98 x_43_ + [ 1 x_43_ ^ 2 + 1 y_43_ ^ 2 ] <= 3212
c143_1: 98 x_44_ + [ 1 x_44_ ^ 2 + 1 y_44_ ^ 2 ] <= 29735
c144_1: 98 x_45_ + [ 1 x_45_ ^ 2 + 1 y_45_ ^ 2 ] <= 13409
c145_1: 98 x_46_ + [ 1 x_46_ ^ 2 + 1 y_46_ ^ 2 ] <= 19359
c146_1: 98 x_47_ + [ 1 x_47_ ^ 2 + 1 y_47_ ^ 2 ] <= 8088
c147_1: 98 x_48_ + [ 1 x_48_ ^ 2 + 1 y_48_ ^ 2 ] <= 28120
c148_1: 98 x_49_ + [ 1 x_49_ ^ 2 + 1 y_49_ ^ 2 ] <= 8621
c149_1: 98 x_50_ + [ 1 x_50_ ^ 2 + 1 y_50_ ^ 2 ] <= 21948
c150_1: 98 x_51_ + [ 1 x_51_ ^ 2 + 1 y_51_ ^ 2 ] <= 13959
c151_1: 98 x_52_ + [ 1 x_52_ ^ 2 + 1 y_52_ ^ 2 ] <= 21847
c152_1: 98 x_53_ + [ 1 x_53_ ^ 2 + 1 y_53_ ^ 2 ] <= 893
c153_1: 98 x_54_ + [ 1 x_54_ ^ 2 + 1 y_54_ ^ 2 ] <= -2393
c154_1: 98 x_56_ + [ 1 x_56_ ^ 2 + 1 y_56_ ^ 2 ] <= 2823
c155_1: 98 x_57_ + [ 1 x_57_ ^ 2 + 1 y_57_ ^ 2 ] <= 16397
c156_1: 98 x_58_ + [ 1 x_58_ ^ 2 + 1 y_58_ ^ 2 ] <= 18771
c157_1: 98 x_59_ + [ 1 x_59_ ^ 2 + 1 y_59_ ^ 2 ] <= 9860
c158_1: 98 x_60_ + [ 1 x_60_ ^ 2 + 1 y_60_ ^ 2 ] <= 8419
c159_1: 98 x_61_ + [ 1 x_61_ ^ 2 + 1 y_61_ ^ 2 ] <= 18063
c160_1: 98 x_62_ + [ 1 x_62_ ^ 2 + 1 y_62_ ^ 2 ] <= 6020
c161_1: 98 x_63_ + [ 1 x_63_ ^ 2 + 1 y_63_ ^ 2 ] <= 16621
c162_1: 98 x_64_ + [ 1 x_64_ ^ 2 + 1 y_64_ ^ 2 ] <= 15891
c163_1: 98 x_65_ + [ 1 x_65_ ^ 2 + 1 y_65_ ^ 2 ] <= 14624
c164_1: 98 x_66_ + [ 1 x_66_ ^ 2 + 1 y_66_ ^ 2 ] <= 16530
c165_1: 98 x_67_ + [ 1 x_67_ ^ 2 + 1 y_67_ ^ 2 ] <= 8911
c166_1: 98 x_68_ + [ 1 x_68_ ^ 2 + 1 y_68_ ^ 2 ] <= 26328
c167_1: 98 x_69_ + [ 1 x_69_ ^ 2 + 1 y_69_ ^ 2 ] <= 32680
c168_1: 98 x_70_ + [ 1 x_70_ ^ 2 + 1 y_70_ ^ 2 ] <= 10845
c169_1: 98 x_71_ + [ 1 x_71_ ^ 2 + 1 y_71_ ^ 2 ] <= 10449
c170_1: 98 x_72_ + [ 1 x_72_ ^ 2 + 1 y_72_ ^ 2 ] <= 59812
c171_1: 98 x_73_ + [ 1 x_73_ ^ 2 + 1 y_73_ ^ 2 ] <= 23986
c172_1: 98 x_74_ + [ 1 x_74_ ^ 2 + 1 y_74_ ^ 2 ] <= 16071
c173_1: 98 x_75_ + [ 1 x_75_ ^ 2 + 1 y_75_ ^ 2 ] <= 25610
c174_1: 98 x_76_ + [ 1 x_76_ ^ 2 + 1 y_76_ ^ 2 ] <= 17337
c175_1: 98 x_77_ + [ 1 x_77_ ^ 2 + 1 y_77_ ^ 2 ] <= 123
c176_1: 98 x_78_ + [ 1 x_78_ ^ 2 + 1 y_78_ ^ 2 ] <= 16260
c177_1: 98 x_79_ + [ 1 x_79_ ^ 2 + 1 y_79_ ^ 2 ] <= 7557
c178_1: 98 x_80_ + [ 1 x_80_ ^ 2 + 1 y_80_ ^ 2 ] <= 18013
c179_1: 98 x_81_ + [ 1 x_81_ ^ 2 + 1 y_81_ ^ 2 ] <= 7609
c180_1: 98 x_82_ + [ 1 x_82_ ^ 2 + 1 y_82_ ^ 2 ] <= 18638
c181_1: 98 x_83_ + [ 1 x_83_ ^ 2 + 1 y_83_ ^ 2 ] <= 20206
c182_1: 98 x_84_ + [ 1 x_84_ ^ 2 + 1 y_84_ ^ 2 ] <= 15445
c183_1: 98 x_85_ + [ 1 x_85_ ^ 2 + 1 y_85_ ^ 2 ] <= 42503
c184_1: 98 x_86_ + [ 1 x_86_ ^ 2 + 1 y_86_ ^ 2 ] <= 5813
c185_1: 98 x_87_ + [ 1 x_87_ ^ 2 + 1 y_87_ ^ 2 ] <= 24644
c186_1: 98 x_88_ + [ 1 x_88_ ^ 2 + 1 y_88_ ^ 2 ] <= 4984
c187_1: 98 x_89_ + [ 1 x_89_ ^ 2 + 1 y_89_ ^ 2 ] <= 20820
c188_1: 98 x_90_ + [ 1 x_90_ ^ 2 + 1 y_90_ ^ 2 ] <= 16739
c189_1: 98 x_91_ + [ 1 x_91_ ^ 2 + 1 y_91_ ^ 2 ] <= 5489
c190_1: 98 x_92_ + [ 1 x_92_ ^ 2 + 1 y_92_ ^ 2 ] <= 2385
c191_1: 98 x_93_ + [ 1 x_93_ ^ 2 + 1 y_93_ ^ 2 ] <= 13110
c192_1: 98 x_94_ + [ 1 x_94_ ^ 2 + 1 y_94_ ^ 2 ] <= 13065
c193_1: 98 x_95_ + [ 1 x_95_ ^ 2 + 1 y_95_ ^ 2 ] <= 19378
c194_1: 98 x_96_ + [ 1 x_96_ ^ 2 + 1 y_96_ ^ 2 ] <= 11234
c195_1: 98 x_97_ + [ 1 x_97_ ^ 2 + 1 y_97_ ^ 2 ] <= 16249
c196_1: 98 x_98_ + [ 1 x_98_ ^ 2 + 1 y_98_ ^ 2 ] <= 7791
c197_1: 98 x_99_ + [ 1 x_99_ ^ 2 + 1 y_99_ ^ 2 ] <= 12365
c198_1: 98 x_100_ + [ 1 x_100_ ^ 2 + 1 y_100_ ^ 2 ] <= 39131
c199_1: -38 x_1_ - 62 y_1_ + [ 1 x_1_ ^ 2 + 1 y_1_ ^ 2 ] <= 9662
c200_1: -38 x_2_ - 62 y_2_ + [ 1 x_2_ ^ 2 + 1 y_2_ ^ 2 ] <= 8827
c201_1: -38 x_3_ - 62 y_3_ + [ 1 x_3_ ^ 2 + 1 y_3_ ^ 2 ] <= 17058
c202_1: -38 x_4_ - 62 y_4_ + [ 1 x_4_ ^ 2 + 1 y_4_ ^ 2 ] <= 6402
c203_1: -38 x_5_ - 62 y_5_ + [ 1 x_5_ ^ 2 + 1 y_5_ ^ 2 ] <= 9389
c204_1: -38 x_6_ - 62 y_6_ + [ 1 x_6_ ^ 2 + 1 y_6_ ^ 2 ] <= 11379
c205_1: -38 x_7_ - 62 y_7_ + [ 1 x_7_ ^ 2 + 1 y_7_ ^ 2 ] <= 6738
c206_1: -38 x_8_ - 62 y_8_ + [ 1 x_8_ ^ 2 + 1 y_8_ ^ 2 ] <= 38105
c207_1: -38 x_9_ - 62 y_9_ + [ 1 x_9_ ^ 2 + 1 y_9_ ^ 2 ] <= 29471
c208_1: -38 x_10_ - 62 y_10_ + [ 1 x_10_ ^ 2 + 1 y_10_ ^ 2 ] <= 17956
c209_1: -38 x_11_ - 62 y_11_ + [ 1 x_11_ ^ 2 + 1 y_11_ ^ 2 ] <= 25573
c210_1: -38 x_12_ - 62 y_12_ + [ 1 x_12_ ^ 2 + 1 y_12_ ^ 2 ] <= 26057
c211_1: -38 x_13_ - 62 y_13_ + [ 1 x_13_ ^ 2 + 1 y_13_ ^ 2 ] <= 7992
c212_1: -38 x_14_ - 62 y_14_ + [ 1 x_14_ ^ 2 + 1 y_14_ ^ 2 ] <= 48258
c213_1: -38 x_15_ - 62 y_15_ + [ 1 x_15_ ^ 2 + 1 y_15_ ^ 2 ] <= 42334
c214_1: -38 x_16_ - 62 y_16_ + [ 1 x_16_ ^ 2 + 1 y_16_ ^ 2 ] <= 15430
c215_1: -38 x_17_ - 62 y_17_ + [ 1 x_17_ ^ 2 + 1 y_17_ ^ 2 ] <= 29402
c216_1: -38 x_18_ - 62 y_18_ + [ 1 x_18_ ^ 2 + 1 y_18_ ^ 2 ] <= 19587
c217_1: -38 x_19_ - 62 y_19_ + [ 1 x_19_ ^ 2 + 1 y_19_ ^ 2 ] <= 7174
c218_1: -38 x_20_ - 62 y_20_ + [ 1 x_20_ ^ 2 + 1 y_20_ ^ 2 ] <= 3223
c219_1: -38 x_21_ - 62 y_21_ + [ 1 x_21_ ^ 2 + 1 y_21_ ^ 2 ] <= 18010
c220_1: -38 x_22_ - 62 y_22_ + [ 1 x_22_ ^ 2 + 1 y_22_ ^ 2 ] <= 2524
c221_1: -38 x_23_ - 62 y_23_ + [ 1 x_23_ ^ 2 + 1 y_23_ ^ 2 ] <= 22259
c222_1: -38 x_24_ - 62 y_24_ + [ 1 x_24_ ^ 2 + 1 y_24_ ^ 2 ] <= 21438
c223_1: -38 x_25_ - 62 y_25_ + [ 1 x_25_ ^ 2 + 1 y_25_ ^ 2 ] <= 12624
c224_1: -38 x_26_ - 62 y_26_ + [ 1 x_26_ ^ 2 + 1 y_26_ ^ 2 ] <= 31868
c225_1: -38 x_27_ - 62 y_27_ + [ 1 x_27_ ^ 2 + 1 y_27_ ^ 2 ] <= 20373
c226_1: -38 x_28_ - 62 y_28_ + [ 1 x_28_ ^ 2 + 1 y_28_ ^ 2 ] <= 22572
c227_1: -38 x_29_ - 62 y_29_ + [ 1 x_29_ ^ 2 + 1 y_29_ ^ 2 ] <= 19849
c228_1: -38 x_30_ - 62 y_30_ + [ 1 x_30_ ^ 2 + 1 y_30_ ^ 2 ] <= 14830
c229_1: -38 x_31_ - 62 y_31_ + [ 1 x_31_ ^ 2 + 1 y_31_ ^ 2 ] <= 25430
c230_1: -38 x_32_ - 62 y_32_ + [ 1 x_32_ ^ 2 + 1 y_32_ ^ 2 ] <= 18820
c231_1: -38 x_33_ - 62 y_33_ + [ 1 x_33_ ^ 2 + 1 y_33_ ^ 2 ] <= 20385
c232_1: -38 x_34_ - 62 y_34_ + [ 1 x_34_ ^ 2 + 1 y_34_ ^ 2 ] <= 8260
c233_1: -38 x_35_ - 62 y_35_ + [ 1 x_35_ ^ 2 + 1 y_35_ ^ 2 ] <= 13081
c234_1: -38 x_36_ - 62 y_36_ + [ 1 x_36_ ^ 2 + 1 y_36_ ^ 2 ] <= 18798
c235_1: -38 x_37_ - 62 y_37_ + [ 1 x_37_ ^ 2 + 1 y_37_ ^ 2 ] <= 34287
c236_1: -38 x_38_ - 62 y_38_ + [ 1 x_38_ ^ 2 + 1 y_38_ ^ 2 ] <= 25586
c237_1: -38 x_39_ - 62 y_39_ + [ 1 x_39_ ^ 2 + 1 y_39_ ^ 2 ] <= 3547
c238_1: -38 x_40_ - 62 y_40_ + [ 1 x_40_ ^ 2 + 1 y_40_ ^ 2 ] <= 21377
c239_1: -38 x_41_ - 62 y_41_ + [ 1 x_41_ ^ 2 + 1 y_41_ ^ 2 ] <= 25068
c240_1: -38 x_42_ - 62 y_42_ + [ 1 x_42_ ^ 2 + 1 y_42_ ^ 2 ] <= 7175
c241_1: -38 x_44_ - 62 y_44_ + [ 1 x_44_ ^ 2 + 1 y_44_ ^ 2 ] <= 9566
c242_1: -38 x_45_ - 62 y_45_ + [ 1 x_45_ ^ 2 + 1 y_45_ ^ 2 ] <= 29912
c243_1: -38 x_46_ - 62 y_46_ + [ 1 x_46_ ^ 2 + 1 y_46_ ^ 2 ] <= 4455
c244_1: -38 x_47_ - 62 y_47_ + [ 1 x_47_ ^ 2 + 1 y_47_ ^ 2 ] <= 11229
c245_1: -38 x_48_ - 62 y_48_ + [ 1 x_48_ ^ 2 + 1 y_48_ ^ 2 ] <= 26513
c246_1: -38 x_49_ - 62 y_49_ + [ 1 x_49_ ^ 2 + 1 y_49_ ^ 2 ] <= 5037
c247_1: -38 x_50_ - 62 y_50_ + [ 1 x_50_ ^ 2 + 1 y_50_ ^ 2 ] <= 15787
c248_1: -38 x_51_ - 62 y_51_ + [ 1 x_51_ ^ 2 + 1 y_51_ ^ 2 ] <= 7274
c249_1: -38 x_52_ - 62 y_52_ + [ 1 x_52_ ^ 2 + 1 y_52_ ^ 2 ] <= 12152
c250_1: -38 x_53_ - 62 y_53_ + [ 1 x_53_ ^ 2 + 1 y_53_ ^ 2 ] <= 14719
c251_1: -38 x_54_ - 62 y_54_ + [ 1 x_54_ ^ 2 + 1 y_54_ ^ 2 ] <= 3875
c252_1: -38 x_55_ - 62 y_55_ + [ 1 x_55_ ^ 2 + 1 y_55_ ^ 2 ] <= 4291
c253_1: -38 x_56_ - 62 y_56_ + [ 1 x_56_ ^ 2 + 1 y_56_ ^ 2 ] <= 20345
c254_1: -38 x_57_ - 62 y_57_ + [ 1 x_57_ ^ 2 + 1 y_57_ ^ 2 ] <= 14148
c255_1: -38 x_58_ - 62 y_58_ + [ 1 x_58_ ^ 2 + 1 y_58_ ^ 2 ] <= 14894
c256_1: -38 x_59_ - 62 y_59_ + [ 1 x_59_ ^ 2 + 1 y_59_ ^ 2 ] <= 7338
c257_1: -38 x_60_ - 62 y_60_ + [ 1 x_60_ ^ 2 + 1 y_60_ ^ 2 ] <= 6135
c258_1: -38 x_61_ - 62 y_61_ + [ 1 x_61_ ^ 2 + 1 y_61_ ^ 2 ] <= 12557
c259_1: -38 x_62_ - 62 y_62_ + [ 1 x_62_ ^ 2 + 1 y_62_ ^ 2 ] <= 10125
c260_1: -38 x_63_ - 62 y_63_ + [ 1 x_63_ ^ 2 + 1 y_63_ ^ 2 ] <= 11619
c261_1: -38 x_64_ - 62 y_64_ + [ 1 x_64_ ^ 2 + 1 y_64_ ^ 2 ] <= 4256
c262_1: -38 x_65_ - 62 y_65_ + [ 1 x_65_ ^ 2 + 1 y_65_ ^ 2 ] <= 9753
c263_1: -38 x_66_ - 62 y_66_ + [ 1 x_66_ ^ 2 + 1 y_66_ ^ 2 ] <= 29896
c264_1: -38 x_67_ - 62 y_67_ + [ 1 x_67_ ^ 2 + 1 y_67_ ^ 2 ] <= 5258
c265_1: -38 x_68_ - 62 y_68_ + [ 1 x_68_ ^ 2 + 1 y_68_ ^ 2 ] <= 7623
c266_1: -38 x_69_ - 62 y_69_ + [ 1 x_69_ ^ 2 + 1 y_69_ ^ 2 ] <= 11327
c267_1: -38 x_70_ - 62 y_70_ + [ 1 x_70_ ^ 2 + 1 y_70_ ^ 2 ] <= 14467
c268_1: -38 x_71_ - 62 y_71_ + [ 1 x_71_ ^ 2 + 1 y_71_ ^ 2 ] <= 6443
c269_1: -38 x_72_ - 62 y_72_ + [ 1 x_72_ ^ 2 + 1 y_72_ ^ 2 ] <= 48937
c270_1: -38 x_73_ - 62 y_73_ + [ 1 x_73_ ^ 2 + 1 y_73_ ^ 2 ] <= 32037
c271_1: -38 x_74_ - 62 y_74_ + [ 1 x_74_ ^ 2 + 1 y_74_ ^ 2 ] <= 8670
c272_1: -38 x_75_ - 62 y_75_ + [ 1 x_75_ ^ 2 + 1 y_75_ ^ 2 ] <= 22577
c273_1: -38 x_76_ - 62 y_76_ + [ 1 x_76_ ^ 2 + 1 y_76_ ^ 2 ] <= 11960
c274_1: -38 x_77_ - 62 y_77_ + [ 1 x_77_ ^ 2 + 1 y_77_ ^ 2 ] <= -697
c275_1: -38 x_78_ - 62 y_78_ + [ 1 x_78_ ^ 2 + 1 y_78_ ^ 2 ] <= 17782
c276_1: -38 x_79_ - 62 y_79_ + [ 1 x_79_ ^ 2 + 1 y_79_ ^ 2 ] <= 4062
c277_1: -38 x_80_ - 62 y_80_ + [ 1 x_80_ ^ 2 + 1 y_80_ ^ 2 ] <= 15102
c278_1: -38 x_81_ - 62 y_81_ + [ 1 x_81_ ^ 2 + 1 y_81_ ^ 2 ] <= 14291
c279_1: -38 x_82_ - 62 y_82_ + [ 1 x_82_ ^ 2 + 1 y_82_ ^ 2 ] <= 27562
c280_1: -38 x_83_ - 62 y_83_ + [ 1 x_83_ ^ 2 + 1 y_83_ ^ 2 ] <= 27769
c281_1: -38 x_84_ - 62 y_84_ + [ 1 x_84_ ^ 2 + 1 y_84_ ^ 2 ] <= 23798
c282_1: -38 x_85_ - 62 y_85_ + [ 1 x_85_ ^ 2 + 1 y_85_ ^ 2 ] <= 44074
c283_1: -38 x_86_ - 62 y_86_ + [ 1 x_86_ ^ 2 + 1 y_86_ ^ 2 ] <= 7103
c284_1: -38 x_87_ - 62 y_87_ + [ 1 x_87_ ^ 2 + 1 y_87_ ^ 2 ] <= 26105
c285_1: -38 x_88_ - 62 y_88_ + [ 1 x_88_ ^ 2 + 1 y_88_ ^ 2 ] <= 8911
c286_1: -38 x_89_ - 62 y_89_ + [ 1 x_89_ ^ 2 + 1 y_89_ ^ 2 ] <= 12411
c287_1: -38 x_90_ - 62 y_90_ + [ 1 x_90_ ^ 2 + 1 y_90_ ^ 2 ] <= 9319
c288_1: -38 x_91_ - 62 y_91_ + [ 1 x_91_ ^ 2 + 1 y_91_ ^ 2 ] <= 20471
c289_1: -38 x_92_ - 62 y_92_ + [ 1 x_92_ ^ 2 + 1 y_92_ ^ 2 ] <= 18490
c290_1: -38 x_93_ - 62 y_93_ + [ 1 x_93_ ^ 2 + 1 y_93_ ^ 2 ] <= 12292
c291_1: -38 x_94_ - 62 y_94_ + [ 1 x_94_ ^ 2 + 1 y_94_ ^ 2 ] <= 2048
c292_1: -38 x_95_ - 62 y_95_ + [ 1 x_95_ ^ 2 + 1 y_95_ ^ 2 ] <= 9023
c293_1: -38 x_96_ - 62 y_96_ + [ 1 x_96_ ^ 2 + 1 y_96_ ^ 2 ] <= 7055
c294_1: -38 x_97_ - 62 y_97_ + [ 1 x_97_ ^ 2 + 1 y_97_ ^ 2 ] <= 30439
c295_1: -38 x_98_ - 62 y_98_ + [ 1 x_98_ ^ 2 + 1 y_98_ ^ 2 ] <= 25964
c296_1: -38 x_99_ - 62 y_99_ + [ 1 x_99_ ^ 2 + 1 y_99_ ^ 2 ] <= 13727
c297_1: -38 x_100_ - 62 y_100_ + [ 1 x_100_ ^ 2 + 1 y_100_ ^ 2 ] <= 15287
c1_2: 1 x_37_ = -88
c2_2: 1 y_37_ = -84
c3_2: 1 x_55_ = -49
c4_2: 1 y_55_ = 0
c5_2: 1 x_43_ = 19
c6_2: 1 y_43_ = 31
c1: [ 1 x_1_ ^ 2 - 2 x_2_ * x_1_ + 1 x_2_ ^ 2 + 1 y_1_ ^ 2 - 2 y_2_ * y_1_ + 1 y_2_ ^ 2 ] = 3026
c2: [ 1 x_2_ ^ 2 - 2 x_3_ * x_2_ + 1 x_3_ ^ 2 + 1 y_2_ ^ 2 - 2 y_3_ * y_2_ + 1 y_3_ ^ 2 ] = 4849
c3: [ 1 x_3_ ^ 2 - 2 x_4_ * x_3_ + 1 x_4_ ^ 2 + 1 y_3_ ^ 2 - 2 y_4_ * y_3_ + 1 y_4_ ^ 2 ] = 6109
c4: [ 1 x_2_ ^ 2 - 2 x_5_ * x_2_ + 1 x_5_ ^ 2 + 1 y_2_ ^ 2 - 2 y_5_ * y_2_ + 1 y_5_ ^ 2 ] = 17488
c5: [ 1 x_4_ ^ 2 - 2 x_5_ * x_4_ + 1 x_5_ ^ 2 + 1 y_4_ ^ 2 - 2 y_5_ * y_4_ + 1 y_5_ ^ 2 ] = 12020
c6: [ 1 x_3_ ^ 2 - 2 x_6_ * x_3_ + 1 x_6_ ^ 2 + 1 y_3_ ^ 2 - 2 y_6_ * y_3_ + 1 y_6_ ^ 2 ] = 8541
c7: [ 1 x_5_ ^ 2 - 2 x_6_ * x_5_ + 1 x_6_ ^ 2 + 1 y_5_ ^ 2 - 2 y_6_ * y_5_ + 1 y_6_ ^ 2 ] = 21530
c8: [ 1 x_6_ ^ 2 - 2 x_7_ * x_6_ + 1 x_7_ ^ 2 + 1 y_6_ ^ 2 - 2 y_7_ * y_6_ + 1 y_7_ ^ 2 ] = 4621
c9: [ 1 x_7_ ^ 2 - 2 x_8_ * x_7_ + 1 x_8_ ^ 2 + 1 y_7_ ^ 2 - 2 y_8_ * y_7_ + 1 y_8_ ^ 2 ] = 20114
c10: [ 1 x_7_ ^ 2 - 2 x_9_ * x_7_ + 1 x_9_ ^ 2 + 1 y_7_ ^ 2 - 2 y_9_ * y_7_ + 1 y_9_ ^ 2 ] = 7345
c11: [ 1 x_8_ ^ 2 - 2 x_9_ * x_8_ + 1 x_9_ ^ 2 + 1 y_8_ ^ 2 - 2 y_9_ * y_8_ + 1 y_9_ ^ 2 ] = 22201
c12: [ 1 x_9_ ^ 2 - 2 x_10_ * x_9_ + 1 x_10_ ^ 2 + 1 y_9_ ^ 2 - 2 y_10_ * y_9_ + 1 y_10_ ^ 2 ] = 3364
c13: [ 1 x_2_ ^ 2 - 2 x_11_ * x_2_ + 1 x_11_ ^ 2 + 1 y_2_ ^ 2 - 2 y_11_ * y_2_ + 1 y_11_ ^ 2 ] = 13940
c14: [ 1 x_4_ ^ 2 - 2 x_11_ * x_4_ + 1 x_11_ ^ 2 + 1 y_4_ ^ 2 - 2 y_11_ * y_4_ + 1 y_11_ ^ 2 ] = 6344
c15: [ 1 x_10_ ^ 2 - 2 x_11_ * x_10_ + 1 x_11_ ^ 2 + 1 y_10_ ^ 2 - 2 y_11_ * y_10_ + 1 y_11_ ^ 2 ] = 9178
c16: [ 1 x_1_ ^ 2 - 2 x_12_ * x_1_ + 1 x_12_ ^ 2 + 1 y_1_ ^ 2 - 2 y_12_ * y_1_ + 1 y_12_ ^ 2 ] = 7786
c17: [ 1 x_6_ ^ 2 - 2 x_12_ * x_6_ + 1 x_12_ ^ 2 + 1 y_6_ ^ 2 - 2 y_12_ * y_6_ + 1 y_12_ ^ 2 ] = 13394
c18: [ 1 x_7_ ^ 2 - 2 x_12_ * x_7_ + 1 x_12_ ^ 2 + 1 y_7_ ^ 2 - 2 y_12_ * y_7_ + 1 y_12_ ^ 2 ] = 5729
c19: [ 1 x_11_ ^ 2 - 2 x_12_ * x_11_ + 1 x_12_ ^ 2 + 1 y_11_ ^ 2 - 2 y_12_ * y_11_ + 1 y_12_ ^ 2 ] = 164
c20: [ 1 x_12_ ^ 2 - 2 x_13_ * x_12_ + 1 x_13_ ^ 2 + 1 y_12_ ^ 2 - 2 y_13_ * y_12_ + 1 y_13_ ^ 2 ] = 5380
c21: [ 1 x_1_ ^ 2 - 2 x_14_ * x_1_ + 1 x_14_ ^ 2 + 1 y_1_ ^ 2 - 2 y_14_ * y_1_ + 1 y_14_ ^ 2 ] = 20168
c22: [ 1 x_11_ ^ 2 - 2 x_14_ * x_11_ + 1 x_14_ ^ 2 + 1 y_11_ ^ 2 - 2 y_14_ * y_11_ + 1 y_14_ ^ 2 ] = 3442
c23: [ 1 x_13_ ^ 2 - 2 x_14_ * x_13_ + 1 x_14_ ^ 2 + 1 y_13_ ^ 2 - 2 y_14_ * y_13_ + 1 y_14_ ^ 2 ] = 19258
c24: [ 1 x_14_ ^ 2 - 2 x_15_ * x_14_ + 1 x_15_ ^ 2 + 1 y_14_ ^ 2 - 2 y_15_ * y_14_ + 1 y_15_ ^ 2 ] = 773
c25: [ 1 x_9_ ^ 2 - 2 x_16_ * x_9_ + 1 x_16_ ^ 2 + 1 y_9_ ^ 2 - 2 y_16_ * y_9_ + 1 y_16_ ^ 2 ] = 6565
c26: [ 1 x_10_ ^ 2 - 2 x_16_ * x_10_ + 1 x_16_ ^ 2 + 1 y_10_ ^ 2 - 2 y_16_ * y_10_ + 1 y_16_ ^ 2 ] = 6353
c27: [ 1 x_15_ ^ 2 - 2 x_16_ * x_15_ + 1 x_16_ ^ 2 + 1 y_15_ ^ 2 - 2 y_16_ * y_15_ + 1 y_16_ ^ 2 ] = 6322
c28: [ 1 x_15_ ^ 2 - 2 x_17_ * x_15_ + 1 x_17_ ^ 2 + 1 y_15_ ^ 2 - 2 y_17_ * y_15_ + 1 y_17_ ^ 2 ] = 7956
c29: [ 1 x_16_ ^ 2 - 2 x_17_ * x_16_ + 1 x_17_ ^ 2 + 1 y_16_ ^ 2 - 2 y_17_ * y_16_ + 1 y_17_ ^ 2 ] = 5986
c30: [ 1 x_3_ ^ 2 - 2 x_18_ * x_3_ + 1 x_18_ ^ 2 + 1 y_3_ ^ 2 - 2 y_18_ * y_3_ + 1 y_18_ ^ 2 ] = 9162
c31: [ 1 x_8_ ^ 2 - 2 x_18_ * x_8_ + 1 x_18_ ^ 2 + 1 y_8_ ^ 2 - 2 y_18_ * y_8_ + 1 y_18_ ^ 2 ] = 12868
c32: [ 1 x_11_ ^ 2 - 2 x_18_ * x_11_ + 1 x_18_ ^ 2 + 1 y_11_ ^ 2 - 2 y_18_ * y_11_ + 1 y_18_ ^ 2 ] = 1945
c33: [ 1 x_17_ ^ 2 - 2 x_18_ * x_17_ + 1 x_18_ ^ 2 + 1 y_17_ ^ 2 - 2 y_18_ * y_17_ + 1 y_18_ ^ 2 ] = 11450
c34: [ 1 x_5_ ^ 2 - 2 x_19_ * x_5_ + 1 x_19_ ^ 2 + 1 y_5_ ^ 2 - 2 y_19_ * y_5_ + 1 y_19_ ^ 2 ] = 24272
c35: [ 1 x_6_ ^ 2 - 2 x_19_ * x_6_ + 1 x_19_ ^ 2 + 1 y_6_ ^ 2 - 2 y_19_ * y_6_ + 1 y_19_ ^ 2 ] = 3778
c36: [ 1 x_18_ ^ 2 - 2 x_19_ * x_18_ + 1 x_19_ ^ 2 + 1 y_18_ ^ 2 - 2 y_19_ * y_18_ + 1 y_19_ ^ 2 ] = 11509
c37: [ 1 x_7_ ^ 2 - 2 x_20_ * x_7_ + 1 x_20_ ^ 2 + 1 y_7_ ^ 2 - 2 y_20_ * y_7_ + 1 y_20_ ^ 2 ] = 500
c38: [ 1 x_19_ ^ 2 - 2 x_20_ * x_19_ + 1 x_20_ ^ 2 + 1 y_19_ ^ 2 - 2 y_20_ * y_19_ + 1 y_20_ ^ 2 ] = 613
c39: [ 1 x_20_ ^ 2 - 2 x_21_ * x_20_ + 1 x_21_ ^ 2 + 1 y_20_ ^ 2 - 2 y_21_ * y_20_ + 1 y_21_ ^ 2 ] = 13645
c40: [ 1 x_21_ ^ 2 - 2 x_22_ * x_21_ + 1 x_22_ ^ 2 + 1 y_21_ ^ 2 - 2 y_22_ * y_21_ + 1 y_22_ ^ 2 ] = 5933
c41: [ 1 x_3_ ^ 2 - 2 x_23_ * x_3_ + 1 x_23_ ^ 2 + 1 y_3_ ^ 2 - 2 y_23_ * y_3_ + 1 y_23_ ^ 2 ] = 3825
c42: [ 1 x_5_ ^ 2 - 2 x_23_ * x_5_ + 1 x_23_ ^ 2 + 1 y_5_ ^ 2 - 2 y_23_ * y_5_ + 1 y_23_ ^ 2 ] = 14660
c43: [ 1 x_12_ ^ 2 - 2 x_23_ * x_12_ + 1 x_23_ ^ 2 + 1 y_12_ ^ 2 - 2 y_23_ * y_12_ + 1 y_23_ ^ 2 ] = 12020
c44: [ 1 x_22_ ^ 2 - 2 x_23_ * x_22_ + 1 x_23_ ^ 2 + 1 y_22_ ^ 2 - 2 y_23_ * y_22_ + 1 y_23_ ^ 2 ] = 8381
c45: [ 1 x_7_ ^ 2 - 2 x_24_ * x_7_ + 1 x_24_ ^ 2 + 1 y_7_ ^ 2 - 2 y_24_ * y_7_ + 1 y_24_ ^ 2 ] = 23985
c46: [ 1 x_23_ ^ 2 - 2 x_24_ * x_23_ + 1 x_24_ ^ 2 + 1 y_23_ ^ 2 - 2 y_24_ * y_23_ + 1 y_24_ ^ 2 ] = 970
c47: [ 1 x_6_ ^ 2 - 2 x_25_ * x_6_ + 1 x_25_ ^ 2 + 1 y_6_ ^ 2 - 2 y_25_ * y_6_ + 1 y_25_ ^ 2 ] = 4516
c48: [ 1 x_9_ ^ 2 - 2 x_25_ * x_9_ + 1 x_25_ ^ 2 + 1 y_9_ ^ 2 - 2 y_25_ * y_9_ + 1 y_25_ ^ 2 ] = 9040
c49: [ 1 x_13_ ^ 2 - 2 x_25_ * x_13_ + 1 x_25_ ^ 2 + 1 y_13_ ^ 2 - 2 y_25_ * y_13_ + 1 y_25_ ^ 2 ] = 22706
c50: [ 1 x_22_ ^ 2 - 2 x_25_ * x_22_ + 1 x_25_ ^ 2 + 1 y_22_ ^ 2 - 2 y_25_ * y_22_ + 1 y_25_ ^ 2 ] = 3145
c51: [ 1 x_24_ ^ 2 - 2 x_25_ * x_24_ + 1 x_25_ ^ 2 + 1 y_24_ ^ 2 - 2 y_25_ * y_24_ + 1 y_25_ ^ 2 ] = 29520
c52: [ 1 x_2_ ^ 2 - 2 x_26_ * x_2_ + 1 x_26_ ^ 2 + 1 y_2_ ^ 2 - 2 y_26_ * y_2_ + 1 y_26_ ^ 2 ] = 8273
c53: [ 1 x_14_ ^ 2 - 2 x_26_ * x_14_ + 1 x_26_ ^ 2 + 1 y_14_ ^ 2 - 2 y_26_ * y_14_ + 1 y_26_ ^ 2 ] = 40057
c54: [ 1 x_17_ ^ 2 - 2 x_26_ * x_17_ + 1 x_26_ ^ 2 + 1 y_17_ ^ 2 - 2 y_26_ * y_17_ + 1 y_26_ ^ 2 ] = 7090
c55: [ 1 x_25_ ^ 2 - 2 x_26_ * x_25_ + 1 x_26_ ^ 2 + 1 y_25_ ^ 2 - 2 y_26_ * y_25_ + 1 y_26_ ^ 2 ] = 32861
c56: [ 1 x_3_ ^ 2 - 2 x_27_ * x_3_ + 1 x_27_ ^ 2 + 1 y_3_ ^ 2 - 2 y_27_ * y_3_ + 1 y_27_ ^ 2 ] = 12776
c57: [ 1 x_4_ ^ 2 - 2 x_27_ * x_4_ + 1 x_27_ ^ 2 + 1 y_4_ ^ 2 - 2 y_27_ * y_4_ + 1 y_27_ ^ 2 ] = 3529
c58: [ 1 x_10_ ^ 2 - 2 x_27_ * x_10_ + 1 x_27_ ^ 2 + 1 y_10_ ^ 2 - 2 y_27_ * y_10_ + 1 y_27_ ^ 2 ] = 19925
c59: [ 1 x_21_ ^ 2 - 2 x_27_ * x_21_ + 1 x_27_ ^ 2 + 1 y_21_ ^ 2 - 2 y_27_ * y_21_ + 1 y_27_ ^ 2 ] = 26029
c60: [ 1 x_23_ ^ 2 - 2 x_27_ * x_23_ + 1 x_27_ ^ 2 + 1 y_23_ ^ 2 - 2 y_27_ * y_23_ + 1 y_27_ ^ 2 ] = 27677
c61: [ 1 x_26_ ^ 2 - 2 x_27_ * x_26_ + 1 x_27_ ^ 2 + 1 y_26_ ^ 2 - 2 y_27_ * y_26_ + 1 y_27_ ^ 2 ] = 38530
c62: [ 1 x_6_ ^ 2 - 2 x_28_ * x_6_ + 1 x_28_ ^ 2 + 1 y_6_ ^ 2 - 2 y_28_ * y_6_ + 1 y_28_ ^ 2 ] = 4196
c63: [ 1 x_9_ ^ 2 - 2 x_28_ * x_9_ + 1 x_28_ ^ 2 + 1 y_9_ ^ 2 - 2 y_28_ * y_9_ + 1 y_28_ ^ 2 ] = 936
c64: [ 1 x_24_ ^ 2 - 2 x_28_ * x_24_ + 1 x_28_ ^ 2 + 1 y_24_ ^ 2 - 2 y_28_ * y_24_ + 1 y_28_ ^ 2 ] = 2536
c65: [ 1 x_27_ ^ 2 - 2 x_28_ * x_27_ + 1 x_28_ ^ 2 + 1 y_27_ ^ 2 - 2 y_28_ * y_27_ + 1 y_28_ ^ 2 ] = 22681
c66: [ 1 x_3_ ^ 2 - 2 x_29_ * x_3_ + 1 x_29_ ^ 2 + 1 y_3_ ^ 2 - 2 y_29_ * y_3_ + 1 y_29_ ^ 2 ] = 2797
c67: [ 1 x_6_ ^ 2 - 2 x_29_ * x_6_ + 1 x_29_ ^ 2 + 1 y_6_ ^ 2 - 2 y_29_ * y_6_ + 1 y_29_ ^ 2 ] = 18946
c68: [ 1 x_10_ ^ 2 - 2 x_29_ * x_10_ + 1 x_29_ ^ 2 + 1 y_10_ ^ 2 - 2 y_29_ * y_10_ + 1 y_29_ ^ 2 ] = 2810
c69: [ 1 x_15_ ^ 2 - 2 x_29_ * x_15_ + 1 x_29_ ^ 2 + 1 y_15_ ^ 2 - 2 y_29_ * y_15_ + 1 y_29_ ^ 2 ] = 13649
c70: [ 1 x_28_ ^ 2 - 2 x_29_ * x_28_ + 1 x_29_ ^ 2 + 1 y_28_ ^ 2 - 2 y_29_ * y_28_ + 1 y_29_ ^ 2 ] = 7922
c71: [ 1 x_28_ ^ 2 - 2 x_30_ * x_28_ + 1 x_30_ ^ 2 + 1 y_28_ ^ 2 - 2 y_30_ * y_28_ + 1 y_30_ ^ 2 ] = 14645
c72: [ 1 x_29_ ^ 2 - 2 x_30_ * x_29_ + 1 x_30_ ^ 2 + 1 y_29_ ^ 2 - 2 y_30_ * y_29_ + 1 y_30_ ^ 2 ] = 16909
c73: [ 1 x_7_ ^ 2 - 2 x_31_ * x_7_ + 1 x_31_ ^ 2 + 1 y_7_ ^ 2 - 2 y_31_ * y_7_ + 1 y_31_ ^ 2 ] = 17065
c74: [ 1 x_9_ ^ 2 - 2 x_31_ * x_9_ + 1 x_31_ ^ 2 + 1 y_9_ ^ 2 - 2 y_31_ * y_9_ + 1 y_31_ ^ 2 ] = 3650
c75: [ 1 x_11_ ^ 2 - 2 x_31_ * x_11_ + 1 x_31_ ^ 2 + 1 y_11_ ^ 2 - 2 y_31_ * y_11_ + 1 y_31_ ^ 2 ] = 17012
c76: [ 1 x_23_ ^ 2 - 2 x_31_ * x_23_ + 1 x_31_ ^ 2 + 1 y_23_ ^ 2 - 2 y_31_ * y_23_ + 1 y_31_ ^ 2 ] = 100
c77: [ 1 x_30_ ^ 2 - 2 x_31_ * x_30_ + 1 x_31_ ^ 2 + 1 y_30_ ^ 2 - 2 y_31_ * y_30_ + 1 y_31_ ^ 2 ] = 19549
c78: [ 1 x_3_ ^ 2 - 2 x_32_ * x_3_ + 1 x_32_ ^ 2 + 1 y_3_ ^ 2 - 2 y_32_ * y_3_ + 1 y_32_ ^ 2 ] = 169
c79: [ 1 x_7_ ^ 2 - 2 x_32_ * x_7_ + 1 x_32_ ^ 2 + 1 y_7_ ^ 2 - 2 y_32_ * y_7_ + 1 y_32_ ^ 2 ] = 5237
c80: [ 1 x_15_ ^ 2 - 2 x_32_ * x_15_ + 1 x_32_ ^ 2 + 1 y_15_ ^ 2 - 2 y_32_ * y_15_ + 1 y_32_ ^ 2 ] = 7685
c81: [ 1 x_30_ ^ 2 - 2 x_32_ * x_30_ + 1 x_32_ ^ 2 + 1 y_30_ ^ 2 - 2 y_32_ * y_30_ + 1 y_32_ ^ 2 ] = 4645
c82: [ 1 x_31_ ^ 2 - 2 x_32_ * x_31_ + 1 x_32_ ^ 2 + 1 y_31_ ^ 2 - 2 y_32_ * y_31_ + 1 y_32_ ^ 2 ] = 6068
c83: [ 1 x_1_ ^ 2 - 2 x_33_ * x_1_ + 1 x_33_ ^ 2 + 1 y_1_ ^ 2 - 2 y_33_ * y_1_ + 1 y_33_ ^ 2 ] = 18532
c84: [ 1 x_5_ ^ 2 - 2 x_33_ * x_5_ + 1 x_33_ ^ 2 + 1 y_5_ ^ 2 - 2 y_33_ * y_5_ + 1 y_33_ ^ 2 ] = 12818
c85: [ 1 x_20_ ^ 2 - 2 x_33_ * x_20_ + 1 x_33_ ^ 2 + 1 y_20_ ^ 2 - 2 y_33_ * y_20_ + 1 y_33_ ^ 2 ] = 27121
c86: [ 1 x_32_ ^ 2 - 2 x_33_ * x_32_ + 1 x_33_ ^ 2 + 1 y_32_ ^ 2 - 2 y_33_ * y_32_ + 1 y_33_ ^ 2 ] = 7250
c87: [ 1 x_4_ ^ 2 - 2 x_34_ * x_4_ + 1 x_34_ ^ 2 + 1 y_4_ ^ 2 - 2 y_34_ * y_4_ + 1 y_34_ ^ 2 ] = 100
c88: [ 1 x_12_ ^ 2 - 2 x_34_ * x_12_ + 1 x_34_ ^ 2 + 1 y_12_ ^ 2 - 2 y_34_ * y_12_ + 1 y_34_ ^ 2 ] = 4616
c89: [ 1 x_33_ ^ 2 - 2 x_34_ * x_33_ + 1 x_34_ ^ 2 + 1 y_33_ ^ 2 - 2 y_34_ * y_33_ + 1 y_34_ ^ 2 ] = 21074
c90: [ 1 x_8_ ^ 2 - 2 x_35_ * x_8_ + 1 x_35_ ^ 2 + 1 y_8_ ^ 2 - 2 y_35_ * y_8_ + 1 y_35_ ^ 2 ] = 6170
c91: [ 1 x_22_ ^ 2 - 2 x_35_ * x_22_ + 1 x_35_ ^ 2 + 1 y_22_ ^ 2 - 2 y_35_ * y_22_ + 1 y_35_ ^ 2 ] = 3364
c92: [ 1 x_34_ ^ 2 - 2 x_35_ * x_34_ + 1 x_35_ ^ 2 + 1 y_34_ ^ 2 - 2 y_35_ * y_34_ + 1 y_35_ ^ 2 ] = 4421
c93: [ 1 x_12_ ^ 2 - 2 x_36_ * x_12_ + 1 x_36_ ^ 2 + 1 y_12_ ^ 2 - 2 y_36_ * y_12_ + 1 y_36_ ^ 2 ] = 2138
c94: [ 1 x_13_ ^ 2 - 2 x_36_ * x_13_ + 1 x_36_ ^ 2 + 1 y_13_ ^ 2 - 2 y_36_ * y_13_ + 1 y_36_ ^ 2 ] = 12106
c95: [ 1 x_15_ ^ 2 - 2 x_36_ * x_15_ + 1 x_36_ ^ 2 + 1 y_15_ ^ 2 - 2 y_36_ * y_15_ + 1 y_36_ ^ 2 ] = 4505
c96: [ 1 x_27_ ^ 2 - 2 x_36_ * x_27_ + 1 x_36_ ^ 2 + 1 y_27_ ^ 2 - 2 y_36_ * y_27_ + 1 y_36_ ^ 2 ] = 1469
c97: [ 1 x_31_ ^ 2 - 2 x_36_ * x_31_ + 1 x_36_ ^ 2 + 1 y_31_ ^ 2 - 2 y_36_ * y_31_ + 1 y_36_ ^ 2 ] = 18562
c98: [ 1 x_32_ ^ 2 - 2 x_36_ * x_32_ + 1 x_36_ ^ 2 + 1 y_32_ ^ 2 - 2 y_36_ * y_32_ + 1 y_36_ ^ 2 ] = 3922
c99: [ 1 x_35_ ^ 2 - 2 x_36_ * x_35_ + 1 x_36_ ^ 2 + 1 y_35_ ^ 2 - 2 y_36_ * y_35_ + 1 y_36_ ^ 2 ] = 4205
c100: [ 1 x_4_ ^ 2 - 2 x_37_ * x_4_ + 1 x_37_ ^ 2 + 1 y_4_ ^ 2 - 2 y_37_ * y_4_ + 1 y_37_ ^ 2 ] = 21268
c101: [ 1 x_9_ ^ 2 - 2 x_37_ * x_9_ + 1 x_37_ ^ 2 + 1 y_9_ ^ 2 - 2 y_37_ * y_9_ + 1 y_37_ ^ 2 ] = 6098
c102: [ 1 x_13_ ^ 2 - 2 x_37_ * x_13_ + 1 x_37_ ^ 2 + 1 y_13_ ^ 2 - 2 y_37_ * y_13_ + 1 y_37_ ^ 2 ] = 8500
c103: [ 1 x_31_ ^ 2 - 2 x_37_ * x_31_ + 1 x_37_ ^ 2 + 1 y_31_ ^ 2 - 2 y_37_ * y_31_ + 1 y_37_ ^ 2 ] = 1000
c104: [ 1 x_34_ ^ 2 - 2 x_37_ * x_34_ + 1 x_37_ ^ 2 + 1 y_34_ ^ 2 - 2 y_37_ * y_34_ + 1 y_37_ ^ 2 ] = 22608
c105: [ 1 x_36_ ^ 2 - 2 x_37_ * x_36_ + 1 x_37_ ^ 2 + 1 y_36_ ^ 2 - 2 y_37_ * y_36_ + 1 y_37_ ^ 2 ] = 27666
c106: [ 1 x_18_ ^ 2 - 2 x_38_ * x_18_ + 1 x_38_ ^ 2 + 1 y_18_ ^ 2 - 2 y_38_ * y_18_ + 1 y_38_ ^ 2 ] = 17460
c107: [ 1 x_20_ ^ 2 - 2 x_38_ * x_20_ + 1 x_38_ ^ 2 + 1 y_20_ ^ 2 - 2 y_38_ * y_20_ + 1 y_38_ ^ 2 ] = 13226
c108: [ 1 x_33_ ^ 2 - 2 x_38_ * x_33_ + 1 x_38_ ^ 2 + 1 y_33_ ^ 2 - 2 y_38_ * y_33_ + 1 y_38_ ^ 2 ] = 2597
c109: [ 1 x_37_ ^ 2 - 2 x_38_ * x_37_ + 1 x_38_ ^ 2 + 1 y_37_ ^ 2 - 2 y_38_ * y_37_ + 1 y_38_ ^ 2 ] = 3897
c110: [ 1 x_4_ ^ 2 - 2 x_39_ * x_4_ + 1 x_39_ ^ 2 + 1 y_4_ ^ 2 - 2 y_39_ * y_4_ + 1 y_39_ ^ 2 ] = 328
c111: [ 1 x_20_ ^ 2 - 2 x_39_ * x_20_ + 1 x_39_ ^ 2 + 1 y_20_ ^ 2 - 2 y_39_ * y_20_ + 1 y_39_ ^ 2 ] = 477
c112: [ 1 x_22_ ^ 2 - 2 x_39_ * x_22_ + 1 x_39_ ^ 2 + 1 y_22_ ^ 2 - 2 y_39_ * y_22_ + 1 y_39_ ^ 2 ] = 445
c113: [ 1 x_30_ ^ 2 - 2 x_39_ * x_30_ + 1 x_39_ ^ 2 + 1 y_30_ ^ 2 - 2 y_39_ * y_30_ + 1 y_39_ ^ 2 ] = 3285
c114: [ 1 x_31_ ^ 2 - 2 x_39_ * x_31_ + 1 x_39_ ^ 2 + 1 y_31_ ^ 2 - 2 y_39_ * y_31_ + 1 y_39_ ^ 2 ] = 12868
c115: [ 1 x_37_ ^ 2 - 2 x_39_ * x_37_ + 1 x_39_ ^ 2 + 1 y_37_ ^ 2 - 2 y_39_ * y_37_ + 1 y_39_ ^ 2 ] = 18836
c116: [ 1 x_38_ ^ 2 - 2 x_39_ * x_38_ + 1 x_39_ ^ 2 + 1 y_38_ ^ 2 - 2 y_39_ * y_38_ + 1 y_39_ ^ 2 ] = 8885
c117: [ 1 x_1_ ^ 2 - 2 x_40_ * x_1_ + 1 x_40_ ^ 2 + 1 y_1_ ^ 2 - 2 y_40_ * y_1_ + 1 y_40_ ^ 2 ] = 15370
c118: [ 1 x_6_ ^ 2 - 2 x_40_ * x_6_ + 1 x_40_ ^ 2 + 1 y_6_ ^ 2 - 2 y_40_ * y_6_ + 1 y_40_ ^ 2 ] = 15802
c119: [ 1 x_30_ ^ 2 - 2 x_40_ * x_30_ + 1 x_40_ ^ 2 + 1 y_30_ ^ 2 - 2 y_40_ * y_30_ + 1 y_40_ ^ 2 ] = 19585
c120: [ 1 x_33_ ^ 2 - 2 x_40_ * x_33_ + 1 x_40_ ^ 2 + 1 y_33_ ^ 2 - 2 y_40_ * y_33_ + 1 y_40_ ^ 2 ] = 178
c121: [ 1 x_39_ ^ 2 - 2 x_40_ * x_39_ + 1 x_40_ ^ 2 + 1 y_39_ ^ 2 - 2 y_40_ * y_39_ + 1 y_40_ ^ 2 ] = 17476
c122: [ 1 x_18_ ^ 2 - 2 x_41_ * x_18_ + 1 x_41_ ^ 2 + 1 y_18_ ^ 2 - 2 y_41_ * y_18_ + 1 y_41_ ^ 2 ] = 7393
c123: [ 1 x_21_ ^ 2 - 2 x_41_ * x_21_ + 1 x_41_ ^ 2 + 1 y_21_ ^ 2 - 2 y_41_ * y_21_ + 1 y_41_ ^ 2 ] = 6976
c124: [ 1 x_33_ ^ 2 - 2 x_41_ * x_33_ + 1 x_41_ ^ 2 + 1 y_33_ ^ 2 - 2 y_41_ * y_33_ + 1 y_41_ ^ 2 ] = 6770
c125: [ 1 x_40_ ^ 2 - 2 x_41_ * x_40_ + 1 x_41_ ^ 2 + 1 y_40_ ^ 2 - 2 y_41_ * y_40_ + 1 y_41_ ^ 2 ] = 4756
c126: [ 1 x_1_ ^ 2 - 2 x_42_ * x_1_ + 1 x_42_ ^ 2 + 1 y_1_ ^ 2 - 2 y_42_ * y_1_ + 1 y_42_ ^ 2 ] = 1429
c127: [ 1 x_14_ ^ 2 - 2 x_42_ * x_14_ + 1 x_42_ ^ 2 + 1 y_14_ ^ 2 - 2 y_42_ * y_14_ + 1 y_42_ ^ 2 ] = 28249
c128: [ 1 x_27_ ^ 2 - 2 x_42_ * x_27_ + 1 x_42_ ^ 2 + 1 y_27_ ^ 2 - 2 y_42_ * y_27_ + 1 y_42_ ^ 2 ] = 14240
c129: [ 1 x_29_ ^ 2 - 2 x_42_ * x_29_ + 1 x_42_ ^ 2 + 1 y_29_ ^ 2 - 2 y_42_ * y_29_ + 1 y_42_ ^ 2 ] = 13625
c130: [ 1 x_41_ ^ 2 - 2 x_42_ * x_41_ + 1 x_42_ ^ 2 + 1 y_41_ ^ 2 - 2 y_42_ * y_41_ + 1 y_42_ ^ 2 ] = 5525
c131: [ 1 x_13_ ^ 2 - 2 x_43_ * x_13_ + 1 x_43_ ^ 2 + 1 y_13_ ^ 2 - 2 y_43_ * y_13_ + 1 y_43_ ^ 2 ] = 9314
c132: [ 1 x_20_ ^ 2 - 2 x_43_ * x_20_ + 1 x_43_ ^ 2 + 1 y_20_ ^ 2 - 2 y_43_ * y_20_ + 1 y_43_ ^ 2 ] = 4545
c133: [ 1 x_24_ ^ 2 - 2 x_43_ * x_24_ + 1 x_43_ ^ 2 + 1 y_24_ ^ 2 - 2 y_43_ * y_24_ + 1 y_43_ ^ 2 ] = 22760
c134: [ 1 x_42_ ^ 2 - 2 x_43_ * x_42_ + 1 x_43_ ^ 2 + 1 y_42_ ^ 2 - 2 y_43_ * y_42_ + 1 y_43_ ^ 2 ] = 8497
c135: [ 1 x_8_ ^ 2 - 2 x_44_ * x_8_ + 1 x_44_ ^ 2 + 1 y_8_ ^ 2 - 2 y_44_ * y_8_ + 1 y_44_ ^ 2 ] = 34225
c136: [ 1 x_14_ ^ 2 - 2 x_44_ * x_14_ + 1 x_44_ ^ 2 + 1 y_14_ ^ 2 - 2 y_44_ * y_14_ + 1 y_44_ ^ 2 ] = 31880
c137: [ 1 x_16_ ^ 2 - 2 x_44_ * x_16_ + 1 x_44_ ^ 2 + 1 y_16_ ^ 2 - 2 y_44_ * y_16_ + 1 y_44_ ^ 2 ] = 7453
c138: [ 1 x_32_ ^ 2 - 2 x_44_ * x_32_ + 1 x_44_ ^ 2 + 1 y_32_ ^ 2 - 2 y_44_ * y_32_ + 1 y_44_ ^ 2 ] = 10730
c139: [ 1 x_43_ ^ 2 - 2 x_44_ * x_43_ + 1 x_44_ ^ 2 + 1 y_43_ ^ 2 - 2 y_44_ * y_43_ + 1 y_44_ ^ 2 ] = 10888
c140: [ 1 x_6_ ^ 2 - 2 x_45_ * x_6_ + 1 x_45_ ^ 2 + 1 y_6_ ^ 2 - 2 y_45_ * y_6_ + 1 y_45_ ^ 2 ] = 20324
c141: [ 1 x_12_ ^ 2 - 2 x_45_ * x_12_ + 1 x_45_ ^ 2 + 1 y_12_ ^ 2 - 2 y_45_ * y_12_ + 1 y_45_ ^ 2 ] = 9738
c142: [ 1 x_14_ ^ 2 - 2 x_45_ * x_14_ + 1 x_45_ ^ 2 + 1 y_14_ ^ 2 - 2 y_45_ * y_14_ + 1 y_45_ ^ 2 ] = 25736
c143: [ 1 x_35_ ^ 2 - 2 x_45_ * x_35_ + 1 x_45_ ^ 2 + 1 y_35_ ^ 2 - 2 y_45_ * y_35_ + 1 y_45_ ^ 2 ] = 5485
c144: [ 1 x_44_ ^ 2 - 2 x_45_ * x_44_ + 1 x_45_ ^ 2 + 1 y_44_ ^ 2 - 2 y_45_ * y_44_ + 1 y_45_ ^ 2 ] = 27792
c145: [ 1 x_4_ ^ 2 - 2 x_46_ * x_4_ + 1 x_46_ ^ 2 + 1 y_4_ ^ 2 - 2 y_46_ * y_4_ + 1 y_46_ ^ 2 ] = 14897
c146: [ 1 x_7_ ^ 2 - 2 x_46_ * x_7_ + 1 x_46_ ^ 2 + 1 y_7_ ^ 2 - 2 y_46_ * y_7_ + 1 y_46_ ^ 2 ] = 13394
c147: [ 1 x_31_ ^ 2 - 2 x_46_ * x_31_ + 1 x_46_ ^ 2 + 1 y_31_ ^ 2 - 2 y_46_ * y_31_ + 1 y_46_ ^ 2 ] = 34253
c148: [ 1 x_40_ ^ 2 - 2 x_46_ * x_40_ + 1 x_46_ ^ 2 + 1 y_40_ ^ 2 - 2 y_46_ * y_40_ + 1 y_46_ ^ 2 ] = 26681
c149: [ 1 x_43_ ^ 2 - 2 x_46_ * x_43_ + 1 x_46_ ^ 2 + 1 y_43_ ^ 2 - 2 y_46_ * y_43_ + 1 y_46_ ^ 2 ] = 5777
c150: [ 1 x_45_ ^ 2 - 2 x_46_ * x_45_ + 1 x_46_ ^ 2 + 1 y_45_ ^ 2 - 2 y_46_ * y_45_ + 1 y_46_ ^ 2 ] = 23965
c151: [ 1 x_2_ ^ 2 - 2 x_47_ * x_2_ + 1 x_47_ ^ 2 + 1 y_2_ ^ 2 - 2 y_47_ * y_2_ + 1 y_47_ ^ 2 ] = 5032
c152: [ 1 x_19_ ^ 2 - 2 x_47_ * x_19_ + 1 x_47_ ^ 2 + 1 y_19_ ^ 2 - 2 y_47_ * y_19_ + 1 y_47_ ^ 2 ] = 3944
c153: [ 1 x_25_ ^ 2 - 2 x_47_ * x_25_ + 1 x_47_ ^ 2 + 1 y_25_ ^ 2 - 2 y_47_ * y_25_ + 1 y_47_ ^ 2 ] = 2650
c154: [ 1 x_34_ ^ 2 - 2 x_47_ * x_34_ + 1 x_47_ ^ 2 + 1 y_34_ ^ 2 - 2 y_47_ * y_34_ + 1 y_47_ ^ 2 ] = 200
c155: [ 1 x_41_ ^ 2 - 2 x_47_ * x_41_ + 1 x_47_ ^ 2 + 1 y_41_ ^ 2 - 2 y_47_ * y_41_ + 1 y_47_ ^ 2 ] = 3028
c156: [ 1 x_46_ ^ 2 - 2 x_47_ * x_46_ + 1 x_47_ ^ 2 + 1 y_46_ ^ 2 - 2 y_47_ * y_46_ + 1 y_47_ ^ 2 ] = 12773
c157: [ 1 x_1_ ^ 2 - 2 x_48_ * x_1_ + 1 x_48_ ^ 2 + 1 y_1_ ^ 2 - 2 y_48_ * y_1_ + 1 y_48_ ^ 2 ] = 27490
c158: [ 1 x_3_ ^ 2 - 2 x_48_ * x_3_ + 1 x_48_ ^ 2 + 1 y_3_ ^ 2 - 2 y_48_ * y_3_ + 1 y_48_ ^ 2 ] = 9325
c159: [ 1 x_29_ ^ 2 - 2 x_48_ * x_29_ + 1 x_48_ ^ 2 + 1 y_29_ ^ 2 - 2 y_48_ * y_29_ + 1 y_48_ ^ 2 ] = 6032
c160: [ 1 x_36_ ^ 2 - 2 x_48_ * x_36_ + 1 x_48_ ^ 2 + 1 y_36_ ^ 2 - 2 y_48_ * y_36_ + 1 y_48_ ^ 2 ] = 16210
c161: [ 1 x_38_ ^ 2 - 2 x_48_ * x_38_ + 1 x_48_ ^ 2 + 1 y_38_ ^ 2 - 2 y_48_ * y_38_ + 1 y_48_ ^ 2 ] = 15325
c162: [ 1 x_47_ ^ 2 - 2 x_48_ * x_47_ + 1 x_48_ ^ 2 + 1 y_47_ ^ 2 - 2 y_48_ * y_47_ + 1 y_48_ ^ 2 ] = 20032
c163: [ 1 x_1_ ^ 2 - 2 x_49_ * x_1_ + 1 x_49_ ^ 2 + 1 y_1_ ^ 2 - 2 y_49_ * y_1_ + 1 y_49_ ^ 2 ] = 628
c164: [ 1 x_11_ ^ 2 - 2 x_49_ * x_11_ + 1 x_49_ ^ 2 + 1 y_11_ ^ 2 - 2 y_49_ * y_11_ + 1 y_49_ ^ 2 ] = 10634
c165: [ 1 x_15_ ^ 2 - 2 x_49_ * x_15_ + 1 x_49_ ^ 2 + 1 y_15_ ^ 2 - 2 y_49_ * y_15_ + 1 y_49_ ^ 2 ] = 18773
c166: [ 1 x_24_ ^ 2 - 2 x_49_ * x_24_ + 1 x_49_ ^ 2 + 1 y_24_ ^ 2 - 2 y_49_ * y_24_ + 1 y_49_ ^ 2 ] = 10660
c167: [ 1 x_26_ ^ 2 - 2 x_49_ * x_26_ + 1 x_49_ ^ 2 + 1 y_26_ ^ 2 - 2 y_49_ * y_26_ + 1 y_49_ ^ 2 ] = 13325
c168: [ 1 x_32_ ^ 2 - 2 x_49_ * x_32_ + 1 x_49_ ^ 2 + 1 y_32_ ^ 2 - 2 y_49_ * y_32_ + 1 y_49_ ^ 2 ] = 3866
c169: [ 1 x_48_ ^ 2 - 2 x_49_ * x_48_ + 1 x_49_ ^ 2 + 1 y_48_ ^ 2 - 2 y_49_ * y_48_ + 1 y_49_ ^ 2 ] = 26954
c170: [ 1 x_17_ ^ 2 - 2 x_50_ * x_17_ + 1 x_50_ ^ 2 + 1 y_17_ ^ 2 - 2 y_50_ * y_17_ + 1 y_50_ ^ 2 ] = 30160
c171: [ 1 x_40_ ^ 2 - 2 x_50_ * x_40_ + 1 x_50_ ^ 2 + 1 y_40_ ^ 2 - 2 y_50_ * y_40_ + 1 y_50_ ^ 2 ] = 34141
c172: [ 1 x_48_ ^ 2 - 2 x_50_ * x_48_ + 1 x_50_ ^ 2 + 1 y_48_ ^ 2 - 2 y_50_ * y_48_ + 1 y_50_ ^ 2 ] = 53177
c173: [ 1 x_49_ ^ 2 - 2 x_50_ * x_49_ + 1 x_50_ ^ 2 + 1 y_49_ ^ 2 - 2 y_50_ * y_49_ + 1 y_50_ ^ 2 ] = 6145
c174: [ 1 x_18_ ^ 2 - 2 x_51_ * x_18_ + 1 x_51_ ^ 2 + 1 y_18_ ^ 2 - 2 y_51_ * y_18_ + 1 y_51_ ^ 2 ] = 2692
c175: [ 1 x_22_ ^ 2 - 2 x_51_ * x_22_ + 1 x_51_ ^ 2 + 1 y_22_ ^ 2 - 2 y_51_ * y_22_ + 1 y_51_ ^ 2 ] = 13058
c176: [ 1 x_31_ ^ 2 - 2 x_51_ * x_31_ + 1 x_51_ ^ 2 + 1 y_31_ ^ 2 - 2 y_51_ * y_31_ + 1 y_51_ ^ 2 ] = 23165
c177: [ 1 x_37_ ^ 2 - 2 x_51_ * x_37_ + 1 x_51_ ^ 2 + 1 y_37_ ^ 2 - 2 y_51_ * y_37_ + 1 y_51_ ^ 2 ] = 33745
c178: [ 1 x_50_ ^ 2 - 2 x_51_ * x_50_ + 1 x_51_ ^ 2 + 1 y_50_ ^ 2 - 2 y_51_ * y_50_ + 1 y_51_ ^ 2 ] = 32162
c179: [ 1 x_20_ ^ 2 - 2 x_52_ * x_20_ + 1 x_52_ ^ 2 + 1 y_20_ ^ 2 - 2 y_52_ * y_20_ + 1 y_52_ ^ 2 ] = 2581
c180: [ 1 x_43_ ^ 2 - 2 x_52_ * x_43_ + 1 x_52_ ^ 2 + 1 y_43_ ^ 2 - 2 y_52_ * y_43_ + 1 y_52_ ^ 2 ] = 13474
c181: [ 1 x_47_ ^ 2 - 2 x_52_ * x_47_ + 1 x_52_ ^ 2 + 1 y_47_ ^ 2 - 2 y_52_ * y_47_ + 1 y_52_ ^ 2 ] = 6664
c182: [ 1 x_51_ ^ 2 - 2 x_52_ * x_51_ + 1 x_52_ ^ 2 + 1 y_51_ ^ 2 - 2 y_52_ * y_51_ + 1 y_52_ ^ 2 ] = 29905
c183: [ 1 x_52_ ^ 2 - 2 x_53_ * x_52_ + 1 x_53_ ^ 2 + 1 y_52_ ^ 2 - 2 y_53_ * y_52_ + 1 y_53_ ^ 2 ] = 9668
c184: [ 1 x_2_ ^ 2 - 2 x_54_ * x_2_ + 1 x_54_ ^ 2 + 1 y_2_ ^ 2 - 2 y_54_ * y_2_ + 1 y_54_ ^ 2 ] = 821
c185: [ 1 x_6_ ^ 2 - 2 x_54_ * x_6_ + 1 x_54_ ^ 2 + 1 y_6_ ^ 2 - 2 y_54_ * y_6_ + 1 y_54_ ^ 2 ] = 1649
c186: [ 1 x_30_ ^ 2 - 2 x_54_ * x_30_ + 1 x_54_ ^ 2 + 1 y_30_ ^ 2 - 2 y_54_ * y_30_ + 1 y_54_ ^ 2 ] = 6100
c187: [ 1 x_35_ ^ 2 - 2 x_54_ * x_35_ + 1 x_54_ ^ 2 + 1 y_35_ ^ 2 - 2 y_54_ * y_35_ + 1 y_54_ ^ 2 ] = 2386
c188: [ 1 x_43_ ^ 2 - 2 x_54_ * x_43_ + 1 x_54_ ^ 2 + 1 y_43_ ^ 2 - 2 y_54_ * y_43_ + 1 y_54_ ^ 2 ] = 5197
c189: [ 1 x_53_ ^ 2 - 2 x_54_ * x_53_ + 1 x_54_ ^ 2 + 1 y_53_ ^ 2 - 2 y_54_ * y_53_ + 1 y_54_ ^ 2 ] = 2977
c190: [ 1 x_46_ ^ 2 - 2 x_55_ * x_46_ + 1 x_55_ ^ 2 + 1 y_46_ ^ 2 - 2 y_55_ * y_46_ + 1 y_55_ ^ 2 ] = 21760
c191: [ 1 x_54_ ^ 2 - 2 x_55_ * x_54_ + 1 x_55_ ^ 2 + 1 y_54_ ^ 2 - 2 y_55_ * y_54_ + 1 y_55_ ^ 2 ] = 8
c192: [ 1 x_7_ ^ 2 - 2 x_56_ * x_7_ + 1 x_56_ ^ 2 + 1 y_7_ ^ 2 - 2 y_56_ * y_7_ + 1 y_56_ ^ 2 ] = 16298
c193: [ 1 x_14_ ^ 2 - 2 x_56_ * x_14_ + 1 x_56_ ^ 2 + 1 y_14_ ^ 2 - 2 y_56_ * y_14_ + 1 y_56_ ^ 2 ] = 27757
c194: [ 1 x_26_ ^ 2 - 2 x_56_ * x_26_ + 1 x_56_ ^ 2 + 1 y_26_ ^ 2 - 2 y_56_ * y_26_ + 1 y_56_ ^ 2 ] = 1224
c195: [ 1 x_30_ ^ 2 - 2 x_56_ * x_30_ + 1 x_56_ ^ 2 + 1 y_30_ ^ 2 - 2 y_56_ * y_30_ + 1 y_56_ ^ 2 ] = 16820
c196: [ 1 x_55_ ^ 2 - 2 x_56_ * x_55_ + 1 x_56_ ^ 2 + 1 y_55_ ^ 2 - 2 y_56_ * y_55_ + 1 y_56_ ^ 2 ] = 5224
c197: [ 1 x_11_ ^ 2 - 2 x_57_ * x_11_ + 1 x_57_ ^ 2 + 1 y_11_ ^ 2 - 2 y_57_ * y_11_ + 1 y_57_ ^ 2 ] = 15021
c198: [ 1 x_13_ ^ 2 - 2 x_57_ * x_13_ + 1 x_57_ ^ 2 + 1 y_13_ ^ 2 - 2 y_57_ * y_13_ + 1 y_57_ ^ 2 ] = 19345
c199: [ 1 x_18_ ^ 2 - 2 x_57_ * x_18_ + 1 x_57_ ^ 2 + 1 y_18_ ^ 2 - 2 y_57_ * y_18_ + 1 y_57_ ^ 2 ] = 13690
c200: [ 1 x_19_ ^ 2 - 2 x_57_ * x_19_ + 1 x_57_ ^ 2 + 1 y_19_ ^ 2 - 2 y_57_ * y_19_ + 1 y_57_ ^ 2 ] = 1037
c201: [ 1 x_27_ ^ 2 - 2 x_57_ * x_27_ + 1 x_57_ ^ 2 + 1 y_27_ ^ 2 - 2 y_57_ * y_27_ + 1 y_57_ ^ 2 ] = 9248
c202: [ 1 x_45_ ^ 2 - 2 x_57_ * x_45_ + 1 x_57_ ^ 2 + 1 y_45_ ^ 2 - 2 y_57_ * y_45_ + 1 y_57_ ^ 2 ] = 26357
c203: [ 1 x_56_ ^ 2 - 2 x_57_ * x_56_ + 1 x_57_ ^ 2 + 1 y_56_ ^ 2 - 2 y_57_ * y_56_ + 1 y_57_ ^ 2 ] = 17146
c204: [ 1 x_57_ ^ 2 - 2 x_58_ * x_57_ + 1 x_58_ ^ 2 + 1 y_57_ ^ 2 - 2 y_58_ * y_57_ + 1 y_58_ ^ 2 ] = 4010
c205: [ 1 x_11_ ^ 2 - 2 x_59_ * x_11_ + 1 x_59_ ^ 2 + 1 y_11_ ^ 2 - 2 y_59_ * y_11_ + 1 y_59_ ^ 2 ] = 5032
c206: [ 1 x_23_ ^ 2 - 2 x_59_ * x_23_ + 1 x_59_ ^ 2 + 1 y_23_ ^ 2 - 2 y_59_ * y_23_ + 1 y_59_ ^ 2 ] = 25064
c207: [ 1 x_58_ ^ 2 - 2 x_59_ * x_58_ + 1 x_59_ ^ 2 + 1 y_58_ ^ 2 - 2 y_59_ * y_58_ + 1 y_59_ ^ 2 ] = 2173
c208: [ 1 x_5_ ^ 2 - 2 x_60_ * x_5_ + 1 x_60_ ^ 2 + 1 y_5_ ^ 2 - 2 y_60_ * y_5_ + 1 y_60_ ^ 2 ] = 12429
c209: [ 1 x_23_ ^ 2 - 2 x_60_ * x_23_ + 1 x_60_ ^ 2 + 1 y_23_ ^ 2 - 2 y_60_ * y_23_ + 1 y_60_ ^ 2 ] = 26393
c210: [ 1 x_29_ ^ 2 - 2 x_60_ * x_29_ + 1 x_60_ ^ 2 + 1 y_29_ ^ 2 - 2 y_60_ * y_29_ + 1 y_60_ ^ 2 ] = 25625
c211: [ 1 x_53_ ^ 2 - 2 x_60_ * x_53_ + 1 x_60_ ^ 2 + 1 y_53_ ^ 2 - 2 y_60_ * y_53_ + 1 y_60_ ^ 2 ] = 23137
c212: [ 1 x_55_ ^ 2 - 2 x_60_ * x_55_ + 1 x_60_ ^ 2 + 1 y_55_ ^ 2 - 2 y_60_ * y_55_ + 1 y_60_ ^ 2 ] = 10820
c213: [ 1 x_59_ ^ 2 - 2 x_60_ * x_59_ + 1 x_60_ ^ 2 + 1 y_59_ ^ 2 - 2 y_60_ * y_59_ + 1 y_60_ ^ 2 ] = 45
c214: [ 1 x_5_ ^ 2 - 2 x_61_ * x_5_ + 1 x_61_ ^ 2 + 1 y_5_ ^ 2 - 2 y_61_ * y_5_ + 1 y_61_ ^ 2 ] = 205
c215: [ 1 x_18_ ^ 2 - 2 x_61_ * x_18_ + 1 x_61_ ^ 2 + 1 y_18_ ^ 2 - 2 y_61_ * y_18_ + 1 y_61_ ^ 2 ] = 3856
c216: [ 1 x_19_ ^ 2 - 2 x_61_ * x_19_ + 1 x_61_ ^ 2 + 1 y_19_ ^ 2 - 2 y_61_ * y_19_ + 1 y_61_ ^ 2 ] = 22261
c217: [ 1 x_20_ ^ 2 - 2 x_61_ * x_20_ + 1 x_61_ ^ 2 + 1 y_20_ ^ 2 - 2 y_61_ * y_20_ + 1 y_61_ ^ 2 ] = 15530
c218: [ 1 x_36_ ^ 2 - 2 x_61_ * x_36_ + 1 x_61_ ^ 2 + 1 y_36_ ^ 2 - 2 y_61_ * y_36_ + 1 y_61_ ^ 2 ] = 4717
c219: [ 1 x_47_ ^ 2 - 2 x_61_ * x_47_ + 1 x_61_ ^ 2 + 1 y_47_ ^ 2 - 2 y_61_ * y_47_ + 1 y_61_ ^ 2 ] = 8161
c220: [ 1 x_48_ ^ 2 - 2 x_61_ * x_48_ + 1 x_61_ ^ 2 + 1 y_48_ ^ 2 - 2 y_61_ * y_48_ + 1 y_61_ ^ 2 ] = 3665
c221: [ 1 x_50_ ^ 2 - 2 x_61_ * x_50_ + 1 x_61_ ^ 2 + 1 y_50_ ^ 2 - 2 y_61_ * y_50_ + 1 y_61_ ^ 2 ] = 32058
c222: [ 1 x_59_ ^ 2 - 2 x_61_ * x_59_ + 1 x_61_ ^ 2 + 1 y_59_ ^ 2 - 2 y_61_ * y_59_ + 1 y_61_ ^ 2 ] = 8749
c223: [ 1 x_60_ ^ 2 - 2 x_61_ * x_60_ + 1 x_61_ ^ 2 + 1 y_60_ ^ 2 - 2 y_61_ * y_60_ + 1 y_61_ ^ 2 ] = 10048
c224: [ 1 x_5_ ^ 2 - 2 x_62_ * x_5_ + 1 x_62_ ^ 2 + 1 y_5_ ^ 2 - 2 y_62_ * y_5_ + 1 y_62_ ^ 2 ] = 22985
c225: [ 1 x_15_ ^ 2 - 2 x_62_ * x_15_ + 1 x_62_ ^ 2 + 1 y_15_ ^ 2 - 2 y_62_ * y_15_ + 1 y_62_ ^ 2 ] = 24616
c226: [ 1 x_26_ ^ 2 - 2 x_62_ * x_26_ + 1 x_62_ ^ 2 + 1 y_26_ ^ 2 - 2 y_62_ * y_26_ + 1 y_62_ ^ 2 ] = 22338
c227: [ 1 x_45_ ^ 2 - 2 x_62_ * x_45_ + 1 x_62_ ^ 2 + 1 y_45_ ^ 2 - 2 y_62_ * y_45_ + 1 y_62_ ^ 2 ] = 24973
c228: [ 1 x_53_ ^ 2 - 2 x_62_ * x_53_ + 1 x_62_ ^ 2 + 1 y_53_ ^ 2 - 2 y_62_ * y_53_ + 1 y_62_ ^ 2 ] = 5161
c229: [ 1 x_61_ ^ 2 - 2 x_62_ * x_61_ + 1 x_62_ ^ 2 + 1 y_61_ ^ 2 - 2 y_62_ * y_61_ + 1 y_62_ ^ 2 ] = 22130
c230: [ 1 x_5_ ^ 2 - 2 x_63_ * x_5_ + 1 x_63_ ^ 2 + 1 y_5_ ^ 2 - 2 y_63_ * y_5_ + 1 y_63_ ^ 2 ] = 8521
c231: [ 1 x_11_ ^ 2 - 2 x_63_ * x_11_ + 1 x_63_ ^ 2 + 1 y_11_ ^ 2 - 2 y_63_ * y_11_ + 1 y_63_ ^ 2 ] = 4797
c232: [ 1 x_17_ ^ 2 - 2 x_63_ * x_17_ + 1 x_63_ ^ 2 + 1 y_17_ ^ 2 - 2 y_63_ * y_17_ + 1 y_63_ ^ 2 ] = 6074
c233: [ 1 x_29_ ^ 2 - 2 x_63_ * x_29_ + 1 x_63_ ^ 2 + 1 y_29_ ^ 2 - 2 y_63_ * y_29_ + 1 y_63_ ^ 2 ] = 10061
c234: [ 1 x_49_ ^ 2 - 2 x_63_ * x_49_ + 1 x_63_ ^ 2 + 1 y_49_ ^ 2 - 2 y_63_ * y_49_ + 1 y_63_ ^ 2 ] = 1157
c235: [ 1 x_53_ ^ 2 - 2 x_63_ * x_53_ + 1 x_63_ ^ 2 + 1 y_53_ ^ 2 - 2 y_63_ * y_53_ + 1 y_63_ ^ 2 ] = 6485
c236: [ 1 x_58_ ^ 2 - 2 x_63_ * x_58_ + 1 x_63_ ^ 2 + 1 y_58_ ^ 2 - 2 y_63_ * y_58_ + 1 y_63_ ^ 2 ] = 740
c237: [ 1 x_62_ ^ 2 - 2 x_63_ * x_62_ + 1 x_63_ ^ 2 + 1 y_62_ ^ 2 - 2 y_63_ * y_62_ + 1 y_63_ ^ 2 ] = 3562
c238: [ 1 x_9_ ^ 2 - 2 x_64_ * x_9_ + 1 x_64_ ^ 2 + 1 y_9_ ^ 2 - 2 y_64_ * y_9_ + 1 y_64_ ^ 2 ] = 25946
c239: [ 1 x_20_ ^ 2 - 2 x_64_ * x_20_ + 1 x_64_ ^ 2 + 1 y_20_ ^ 2 - 2 y_64_ * y_20_ + 1 y_64_ ^ 2 ] = 20137
c240: [ 1 x_28_ ^ 2 - 2 x_64_ * x_28_ + 1 x_64_ ^ 2 + 1 y_28_ ^ 2 - 2 y_64_ * y_28_ + 1 y_64_ ^ 2 ] = 25250
c241: [ 1 x_43_ ^ 2 - 2 x_64_ * x_43_ + 1 x_64_ ^ 2 + 1 y_43_ ^ 2 - 2 y_64_ * y_43_ + 1 y_64_ ^ 2 ] = 5578
c242: [ 1 x_45_ ^ 2 - 2 x_64_ * x_45_ + 1 x_64_ ^ 2 + 1 y_45_ ^ 2 - 2 y_64_ * y_45_ + 1 y_64_ ^ 2 ] = 15146
c243: [ 1 x_51_ ^ 2 - 2 x_64_ * x_51_ + 1 x_64_ ^ 2 + 1 y_51_ ^ 2 - 2 y_64_ * y_51_ + 1 y_64_ ^ 2 ] = 325
c244: [ 1 x_63_ ^ 2 - 2 x_64_ * x_63_ + 1 x_64_ ^ 2 + 1 y_63_ ^ 2 - 2 y_64_ * y_63_ + 1 y_64_ ^ 2 ] = 12645
c245: [ 1 x_18_ ^ 2 - 2 x_65_ * x_18_ + 1 x_65_ ^ 2 + 1 y_18_ ^ 2 - 2 y_65_ * y_18_ + 1 y_65_ ^ 2 ] = 19097
c246: [ 1 x_21_ ^ 2 - 2 x_65_ * x_21_ + 1 x_65_ ^ 2 + 1 y_21_ ^ 2 - 2 y_65_ * y_21_ + 1 y_65_ ^ 2 ] = 2720
c247: [ 1 x_28_ ^ 2 - 2 x_65_ * x_28_ + 1 x_65_ ^ 2 + 1 y_28_ ^ 2 - 2 y_65_ * y_28_ + 1 y_65_ ^ 2 ] = 2434
c248: [ 1 x_35_ ^ 2 - 2 x_65_ * x_35_ + 1 x_65_ ^ 2 + 1 y_35_ ^ 2 - 2 y_65_ * y_35_ + 1 y_65_ ^ 2 ] = 7453
c249: [ 1 x_41_ ^ 2 - 2 x_65_ * x_41_ + 1 x_65_ ^ 2 + 1 y_41_ ^ 2 - 2 y_65_ * y_41_ + 1 y_65_ ^ 2 ] = 7840
c250: [ 1 x_49_ ^ 2 - 2 x_65_ * x_49_ + 1 x_65_ ^ 2 + 1 y_49_ ^ 2 - 2 y_65_ * y_49_ + 1 y_65_ ^ 2 ] = 650
c251: [ 1 x_63_ ^ 2 - 2 x_65_ * x_63_ + 1 x_65_ ^ 2 + 1 y_63_ ^ 2 - 2 y_65_ * y_63_ + 1 y_65_ ^ 2 ] = 3517
c252: [ 1 x_64_ ^ 2 - 2 x_65_ * x_64_ + 1 x_65_ ^ 2 + 1 y_64_ ^ 2 - 2 y_65_ * y_64_ + 1 y_65_ ^ 2 ] = 29044
c253: [ 1 x_16_ ^ 2 - 2 x_66_ * x_16_ + 1 x_66_ ^ 2 + 1 y_16_ ^ 2 - 2 y_66_ * y_16_ + 1 y_66_ ^ 2 ] = 2746
c254: [ 1 x_28_ ^ 2 - 2 x_66_ * x_28_ + 1 x_66_ ^ 2 + 1 y_28_ ^ 2 - 2 y_66_ * y_28_ + 1 y_66_ ^ 2 ] = 21053
c255: [ 1 x_65_ ^ 2 - 2 x_66_ * x_65_ + 1 x_66_ ^ 2 + 1 y_65_ ^ 2 - 2 y_66_ * y_65_ + 1 y_66_ ^ 2 ] = 17485
c256: [ 1 x_18_ ^ 2 - 2 x_67_ * x_18_ + 1 x_67_ ^ 2 + 1 y_18_ ^ 2 - 2 y_67_ * y_18_ + 1 y_67_ ^ 2 ] = 10629
c257: [ 1 x_19_ ^ 2 - 2 x_67_ * x_19_ + 1 x_67_ ^ 2 + 1 y_19_ ^ 2 - 2 y_67_ * y_19_ + 1 y_67_ ^ 2 ] = 2026
c258: [ 1 x_22_ ^ 2 - 2 x_67_ * x_22_ + 1 x_67_ ^ 2 + 1 y_22_ ^ 2 - 2 y_67_ * y_22_ + 1 y_67_ ^ 2 ] = 365
c259: [ 1 x_50_ ^ 2 - 2 x_67_ * x_50_ + 1 x_67_ ^ 2 + 1 y_50_ ^ 2 - 2 y_67_ * y_50_ + 1 y_67_ ^ 2 ] = 3529
c260: [ 1 x_56_ ^ 2 - 2 x_67_ * x_56_ + 1 x_67_ ^ 2 + 1 y_56_ ^ 2 - 2 y_67_ * y_56_ + 1 y_67_ ^ 2 ] = 12457
c261: [ 1 x_66_ ^ 2 - 2 x_67_ * x_66_ + 1 x_67_ ^ 2 + 1 y_66_ ^ 2 - 2 y_67_ * y_66_ + 1 y_67_ ^ 2 ] = 9133
c262: [ 1 x_19_ ^ 2 - 2 x_68_ * x_19_ + 1 x_68_ ^ 2 + 1 y_19_ ^ 2 - 2 y_68_ * y_19_ + 1 y_68_ ^ 2 ] = 33553
c263: [ 1 x_43_ ^ 2 - 2 x_68_ * x_43_ + 1 x_68_ ^ 2 + 1 y_43_ ^ 2 - 2 y_68_ * y_43_ + 1 y_68_ ^ 2 ] = 8945
c264: [ 1 x_45_ ^ 2 - 2 x_68_ * x_45_ + 1 x_68_ ^ 2 + 1 y_45_ ^ 2 - 2 y_68_ * y_45_ + 1 y_68_ ^ 2 ] = 6749
c265: [ 1 x_67_ ^ 2 - 2 x_68_ * x_67_ + 1 x_68_ ^ 2 + 1 y_67_ ^ 2 - 2 y_68_ * y_67_ + 1 y_68_ ^ 2 ] = 23445
c266: [ 1 x_3_ ^ 2 - 2 x_69_ * x_3_ + 1 x_69_ ^ 2 + 1 y_3_ ^ 2 - 2 y_69_ * y_3_ + 1 y_69_ ^ 2 ] = 8258
c267: [ 1 x_9_ ^ 2 - 2 x_69_ * x_9_ + 1 x_69_ ^ 2 + 1 y_9_ ^ 2 - 2 y_69_ * y_9_ + 1 y_69_ ^ 2 ] = 26965
c268: [ 1 x_13_ ^ 2 - 2 x_69_ * x_13_ + 1 x_69_ ^ 2 + 1 y_13_ ^ 2 - 2 y_69_ * y_13_ + 1 y_69_ ^ 2 ] = 5929
c269: [ 1 x_17_ ^ 2 - 2 x_69_ * x_17_ + 1 x_69_ ^ 2 + 1 y_17_ ^ 2 - 2 y_69_ * y_17_ + 1 y_69_ ^ 2 ] = 3946
c270: [ 1 x_18_ ^ 2 - 2 x_69_ * x_18_ + 1 x_69_ ^ 2 + 1 y_18_ ^ 2 - 2 y_69_ * y_18_ + 1 y_69_ ^ 2 ] = 14948
c271: [ 1 x_21_ ^ 2 - 2 x_69_ * x_21_ + 1 x_69_ ^ 2 + 1 y_21_ ^ 2 - 2 y_69_ * y_21_ + 1 y_69_ ^ 2 ] = 25765
c272: [ 1 x_22_ ^ 2 - 2 x_69_ * x_22_ + 1 x_69_ ^ 2 + 1 y_22_ ^ 2 - 2 y_69_ * y_22_ + 1 y_69_ ^ 2 ] = 22562
c273: [ 1 x_25_ ^ 2 - 2 x_69_ * x_25_ + 1 x_69_ ^ 2 + 1 y_25_ ^ 2 - 2 y_69_ * y_25_ + 1 y_69_ ^ 2 ] = 34949
c274: [ 1 x_31_ ^ 2 - 2 x_69_ * x_31_ + 1 x_69_ ^ 2 + 1 y_31_ ^ 2 - 2 y_69_ * y_31_ + 1 y_69_ ^ 2 ] = 19885
c275: [ 1 x_65_ ^ 2 - 2 x_69_ * x_65_ + 1 x_69_ ^ 2 + 1 y_65_ ^ 2 - 2 y_69_ * y_65_ + 1 y_69_ ^ 2 ] = 32045
c276: [ 1 x_68_ ^ 2 - 2 x_69_ * x_68_ + 1 x_69_ ^ 2 + 1 y_68_ ^ 2 - 2 y_69_ * y_68_ + 1 y_69_ ^ 2 ] = 320
c277: [ 1 x_1_ ^ 2 - 2 x_70_ * x_1_ + 1 x_70_ ^ 2 + 1 y_1_ ^ 2 - 2 y_70_ * y_1_ + 1 y_70_ ^ 2 ] = 818
c278: [ 1 x_8_ ^ 2 - 2 x_70_ * x_8_ + 1 x_70_ ^ 2 + 1 y_8_ ^ 2 - 2 y_70_ * y_8_ + 1 y_70_ ^ 2 ] = 22949
c279: [ 1 x_14_ ^ 2 - 2 x_70_ * x_14_ + 1 x_70_ ^ 2 + 1 y_14_ ^ 2 - 2 y_70_ * y_14_ + 1 y_70_ ^ 2 ] = 16066
c280: [ 1 x_23_ ^ 2 - 2 x_70_ * x_23_ + 1 x_70_ ^ 2 + 1 y_23_ ^ 2 - 2 y_70_ * y_23_ + 1 y_70_ ^ 2 ] = 16360
c281: [ 1 x_28_ ^ 2 - 2 x_70_ * x_28_ + 1 x_70_ ^ 2 + 1 y_28_ ^ 2 - 2 y_70_ * y_28_ + 1 y_70_ ^ 2 ] = 10930
c282: [ 1 x_30_ ^ 2 - 2 x_70_ * x_30_ + 1 x_70_ ^ 2 + 1 y_30_ ^ 2 - 2 y_70_ * y_30_ + 1 y_70_ ^ 2 ] = 1913
c283: [ 1 x_32_ ^ 2 - 2 x_70_ * x_32_ + 1 x_70_ ^ 2 + 1 y_32_ ^ 2 - 2 y_70_ * y_32_ + 1 y_70_ ^ 2 ] = 6152
c284: [ 1 x_36_ ^ 2 - 2 x_70_ * x_36_ + 1 x_70_ ^ 2 + 1 y_36_ ^ 2 - 2 y_70_ * y_36_ + 1 y_70_ ^ 2 ] = 2434
c285: [ 1 x_51_ ^ 2 - 2 x_70_ * x_51_ + 1 x_70_ ^ 2 + 1 y_51_ ^ 2 - 2 y_70_ * y_51_ + 1 y_70_ ^ 2 ] = 12905
c286: [ 1 x_53_ ^ 2 - 2 x_70_ * x_53_ + 1 x_70_ ^ 2 + 1 y_53_ ^ 2 - 2 y_70_ * y_53_ + 1 y_70_ ^ 2 ] = 11080
c287: [ 1 x_58_ ^ 2 - 2 x_70_ * x_58_ + 1 x_70_ ^ 2 + 1 y_58_ ^ 2 - 2 y_70_ * y_58_ + 1 y_70_ ^ 2 ] = 925
c288: [ 1 x_65_ ^ 2 - 2 x_70_ * x_65_ + 1 x_70_ ^ 2 + 1 y_65_ ^ 2 - 2 y_70_ * y_65_ + 1 y_70_ ^ 2 ] = 5416
c289: [ 1 x_69_ ^ 2 - 2 x_70_ * x_69_ + 1 x_70_ ^ 2 + 1 y_69_ ^ 2 - 2 y_70_ * y_69_ + 1 y_70_ ^ 2 ] = 27257
c290: [ 1 x_3_ ^ 2 - 2 x_71_ * x_3_ + 1 x_71_ ^ 2 + 1 y_3_ ^ 2 - 2 y_71_ * y_3_ + 1 y_71_ ^ 2 ] = 6082
c291: [ 1 x_33_ ^ 2 - 2 x_71_ * x_33_ + 1 x_71_ ^ 2 + 1 y_33_ ^ 2 - 2 y_71_ * y_33_ + 1 y_71_ ^ 2 ] = 17665
c292: [ 1 x_41_ ^ 2 - 2 x_71_ * x_41_ + 1 x_71_ ^ 2 + 1 y_41_ ^ 2 - 2 y_71_ * y_41_ + 1 y_71_ ^ 2 ] = 5525
c293: [ 1 x_60_ ^ 2 - 2 x_71_ * x_60_ + 1 x_71_ ^ 2 + 1 y_60_ ^ 2 - 2 y_71_ * y_60_ + 1 y_71_ ^ 2 ] = 7400
c294: [ 1 x_64_ ^ 2 - 2 x_71_ * x_64_ + 1 x_71_ ^ 2 + 1 y_64_ ^ 2 - 2 y_71_ * y_64_ + 1 y_71_ ^ 2 ] = 21037
c295: [ 1 x_67_ ^ 2 - 2 x_71_ * x_67_ + 1 x_71_ ^ 2 + 1 y_67_ ^ 2 - 2 y_71_ * y_67_ + 1 y_71_ ^ 2 ] = 49
c296: [ 1 x_70_ ^ 2 - 2 x_71_ * x_70_ + 1 x_71_ ^ 2 + 1 y_70_ ^ 2 - 2 y_71_ * y_70_ + 1 y_71_ ^ 2 ] = 1409
c297: [ 1 x_28_ ^ 2 - 2 x_72_ * x_28_ + 1 x_72_ ^ 2 + 1 y_28_ ^ 2 - 2 y_72_ * y_28_ + 1 y_72_ ^ 2 ] = 29597
c298: [ 1 x_37_ ^ 2 - 2 x_72_ * x_37_ + 1 x_72_ ^ 2 + 1 y_37_ ^ 2 - 2 y_72_ * y_37_ + 1 y_72_ ^ 2 ] = 45913
c299: [ 1 x_38_ ^ 2 - 2 x_72_ * x_38_ + 1 x_72_ ^ 2 + 1 y_38_ ^ 2 - 2 y_72_ * y_38_ + 1 y_72_ ^ 2 ] = 23098
c300: [ 1 x_71_ ^ 2 - 2 x_72_ * x_71_ + 1 x_72_ ^ 2 + 1 y_71_ ^ 2 - 2 y_72_ * y_71_ + 1 y_72_ ^ 2 ] = 18514
c301: [ 1 x_11_ ^ 2 - 2 x_73_ * x_11_ + 1 x_73_ ^ 2 + 1 y_11_ ^ 2 - 2 y_73_ * y_11_ + 1 y_73_ ^ 2 ] = 24712
c302: [ 1 x_18_ ^ 2 - 2 x_73_ * x_18_ + 1 x_73_ ^ 2 + 1 y_18_ ^ 2 - 2 y_73_ * y_18_ + 1 y_73_ ^ 2 ] = 35685
c303: [ 1 x_20_ ^ 2 - 2 x_73_ * x_20_ + 1 x_73_ ^ 2 + 1 y_20_ ^ 2 - 2 y_73_ * y_20_ + 1 y_73_ ^ 2 ] = 24737
c304: [ 1 x_57_ ^ 2 - 2 x_73_ * x_57_ + 1 x_73_ ^ 2 + 1 y_57_ ^ 2 - 2 y_73_ * y_57_ + 1 y_73_ ^ 2 ] = 19465
c305: [ 1 x_72_ ^ 2 - 2 x_73_ * x_72_ + 1 x_73_ ^ 2 + 1 y_72_ ^ 2 - 2 y_73_ * y_72_ + 1 y_73_ ^ 2 ] = 43933
c306: [ 1 x_6_ ^ 2 - 2 x_74_ * x_6_ + 1 x_74_ ^ 2 + 1 y_6_ ^ 2 - 2 y_74_ * y_6_ + 1 y_74_ ^ 2 ] = 25524
c307: [ 1 x_19_ ^ 2 - 2 x_74_ * x_19_ + 1 x_74_ ^ 2 + 1 y_19_ ^ 2 - 2 y_74_ * y_19_ + 1 y_74_ ^ 2 ] = 33490
c308: [ 1 x_22_ ^ 2 - 2 x_74_ * x_22_ + 1 x_74_ ^ 2 + 1 y_22_ ^ 2 - 2 y_74_ * y_22_ + 1 y_74_ ^ 2 ] = 16769
c309: [ 1 x_29_ ^ 2 - 2 x_74_ * x_29_ + 1 x_74_ ^ 2 + 1 y_29_ ^ 2 - 2 y_74_ * y_29_ + 1 y_74_ ^ 2 ] = 2074
c310: [ 1 x_42_ ^ 2 - 2 x_74_ * x_42_ + 1 x_74_ ^ 2 + 1 y_42_ ^ 2 - 2 y_74_ * y_42_ + 1 y_74_ ^ 2 ] = 20029
c311: [ 1 x_43_ ^ 2 - 2 x_74_ * x_43_ + 1 x_74_ ^ 2 + 1 y_43_ ^ 2 - 2 y_74_ * y_43_ + 1 y_74_ ^ 2 ] = 9992
c312: [ 1 x_61_ ^ 2 - 2 x_74_ * x_61_ + 1 x_74_ ^ 2 + 1 y_61_ ^ 2 - 2 y_74_ * y_61_ + 1 y_74_ ^ 2 ] = 3349
c313: [ 1 x_63_ ^ 2 - 2 x_74_ * x_63_ + 1 x_74_ ^ 2 + 1 y_63_ ^ 2 - 2 y_74_ * y_63_ + 1 y_74_ ^ 2 ] = 12325
c314: [ 1 x_73_ ^ 2 - 2 x_74_ * x_73_ + 1 x_74_ ^ 2 + 1 y_73_ ^ 2 - 2 y_74_ * y_73_ + 1 y_74_ ^ 2 ] = 18666
c315: [ 1 x_1_ ^ 2 - 2 x_75_ * x_1_ + 1 x_75_ ^ 2 + 1 y_1_ ^ 2 - 2 y_75_ * y_1_ + 1 y_75_ ^ 2 ] = 16241
c316: [ 1 x_16_ ^ 2 - 2 x_75_ * x_16_ + 1 x_75_ ^ 2 + 1 y_16_ ^ 2 - 2 y_75_ * y_16_ + 1 y_75_ ^ 2 ] = 8226
c317: [ 1 x_18_ ^ 2 - 2 x_75_ * x_18_ + 1 x_75_ ^ 2 + 1 y_18_ ^ 2 - 2 y_75_ * y_18_ + 1 y_75_ ^ 2 ] = 1258
c318: [ 1 x_23_ ^ 2 - 2 x_75_ * x_23_ + 1 x_75_ ^ 2 + 1 y_23_ ^ 2 - 2 y_75_ * y_23_ + 1 y_75_ ^ 2 ] = 36325
c319: [ 1 x_29_ ^ 2 - 2 x_75_ * x_29_ + 1 x_75_ ^ 2 + 1 y_29_ ^ 2 - 2 y_75_ * y_29_ + 1 y_75_ ^ 2 ] = 28121
c320: [ 1 x_41_ ^ 2 - 2 x_75_ * x_41_ + 1 x_75_ ^ 2 + 1 y_41_ ^ 2 - 2 y_75_ * y_41_ + 1 y_75_ ^ 2 ] = 14501
c321: [ 1 x_50_ ^ 2 - 2 x_75_ * x_50_ + 1 x_75_ ^ 2 + 1 y_50_ ^ 2 - 2 y_75_ * y_50_ + 1 y_75_ ^ 2 ] = 26996
c322: [ 1 x_53_ ^ 2 - 2 x_75_ * x_53_ + 1 x_75_ ^ 2 + 1 y_53_ ^ 2 - 2 y_75_ * y_53_ + 1 y_75_ ^ 2 ] = 38701
c323: [ 1 x_61_ ^ 2 - 2 x_75_ * x_61_ + 1 x_75_ ^ 2 + 1 y_61_ ^ 2 - 2 y_75_ * y_61_ + 1 y_75_ ^ 2 ] = 7010
c324: [ 1 x_64_ ^ 2 - 2 x_75_ * x_64_ + 1 x_75_ ^ 2 + 1 y_64_ ^ 2 - 2 y_75_ * y_64_ + 1 y_75_ ^ 2 ] = 6385
c325: [ 1 x_74_ ^ 2 - 2 x_75_ * x_74_ + 1 x_75_ ^ 2 + 1 y_74_ ^ 2 - 2 y_75_ * y_74_ + 1 y_75_ ^ 2 ] = 20041
c326: [ 1 x_3_ ^ 2 - 2 x_76_ * x_3_ + 1 x_76_ ^ 2 + 1 y_3_ ^ 2 - 2 y_76_ * y_3_ + 1 y_76_ ^ 2 ] = 8473
c327: [ 1 x_4_ ^ 2 - 2 x_76_ * x_4_ + 1 x_76_ ^ 2 + 1 y_4_ ^ 2 - 2 y_76_ * y_4_ + 1 y_76_ ^ 2 ] = 6660
c328: [ 1 x_7_ ^ 2 - 2 x_76_ * x_7_ + 1 x_76_ ^ 2 + 1 y_7_ ^ 2 - 2 y_76_ * y_7_ + 1 y_76_ ^ 2 ] = 8725
c329: [ 1 x_27_ ^ 2 - 2 x_76_ * x_27_ + 1 x_76_ ^ 2 + 1 y_27_ ^ 2 - 2 y_76_ * y_27_ + 1 y_76_ ^ 2 ] = 19885
c330: [ 1 x_28_ ^ 2 - 2 x_76_ * x_28_ + 1 x_76_ ^ 2 + 1 y_28_ ^ 2 - 2 y_76_ * y_28_ + 1 y_76_ ^ 2 ] = 1898
c331: [ 1 x_34_ ^ 2 - 2 x_76_ * x_34_ + 1 x_76_ ^ 2 + 1 y_34_ ^ 2 - 2 y_76_ * y_34_ + 1 y_76_ ^ 2 ] = 8080
c332: [ 1 x_38_ ^ 2 - 2 x_76_ * x_38_ + 1 x_76_ ^ 2 + 1 y_38_ ^ 2 - 2 y_76_ * y_38_ + 1 y_76_ ^ 2 ] = 5329
c333: [ 1 x_70_ ^ 2 - 2 x_76_ * x_70_ + 1 x_76_ ^ 2 + 1 y_70_ ^ 2 - 2 y_76_ * y_70_ + 1 y_76_ ^ 2 ] = 7444
c334: [ 1 x_72_ ^ 2 - 2 x_76_ * x_72_ + 1 x_76_ ^ 2 + 1 y_72_ ^ 2 - 2 y_76_ * y_72_ + 1 y_76_ ^ 2 ] = 31985
c335: [ 1 x_75_ ^ 2 - 2 x_76_ * x_75_ + 1 x_76_ ^ 2 + 1 y_75_ ^ 2 - 2 y_76_ * y_75_ + 1 y_76_ ^ 2 ] = 33485
c336: [ 1 x_5_ ^ 2 - 2 x_77_ * x_5_ + 1 x_77_ ^ 2 + 1 y_5_ ^ 2 - 2 y_77_ * y_5_ + 1 y_77_ ^ 2 ] = 6161
c337: [ 1 x_22_ ^ 2 - 2 x_77_ * x_22_ + 1 x_77_ ^ 2 + 1 y_22_ ^ 2 - 2 y_77_ * y_22_ + 1 y_77_ ^ 2 ] = 1370
c338: [ 1 x_33_ ^ 2 - 2 x_77_ * x_33_ + 1 x_77_ ^ 2 + 1 y_33_ ^ 2 - 2 y_77_ * y_33_ + 1 y_77_ ^ 2 ] = 14965
c339: [ 1 x_39_ ^ 2 - 2 x_77_ * x_39_ + 1 x_77_ ^ 2 + 1 y_39_ ^ 2 - 2 y_77_ * y_39_ + 1 y_77_ ^ 2 ] = 2005
c340: [ 1 x_43_ ^ 2 - 2 x_77_ * x_43_ + 1 x_77_ ^ 2 + 1 y_43_ ^ 2 - 2 y_77_ * y_43_ + 1 y_77_ ^ 2 ] = 625
c341: [ 1 x_49_ ^ 2 - 2 x_77_ * x_49_ + 1 x_77_ ^ 2 + 1 y_49_ ^ 2 - 2 y_77_ * y_49_ + 1 y_77_ ^ 2 ] = 2997
c342: [ 1 x_50_ ^ 2 - 2 x_77_ * x_50_ + 1 x_77_ ^ 2 + 1 y_50_ ^ 2 - 2 y_77_ * y_50_ + 1 y_77_ ^ 2 ] = 11194
c343: [ 1 x_51_ ^ 2 - 2 x_77_ * x_51_ + 1 x_77_ ^ 2 + 1 y_51_ ^ 2 - 2 y_77_ * y_51_ + 1 y_77_ ^ 2 ] = 6032
c344: [ 1 x_54_ ^ 2 - 2 x_77_ * x_54_ + 1 x_77_ ^ 2 + 1 y_54_ ^ 2 - 2 y_77_ * y_54_ + 1 y_77_ ^ 2 ] = 2248
c345: [ 1 x_60_ ^ 2 - 2 x_77_ * x_60_ + 1 x_77_ ^ 2 + 1 y_60_ ^ 2 - 2 y_77_ * y_60_ + 1 y_77_ ^ 2 ] = 3764
c346: [ 1 x_64_ ^ 2 - 2 x_77_ * x_64_ + 1 x_77_ ^ 2 + 1 y_64_ ^ 2 - 2 y_77_ * y_64_ + 1 y_77_ ^ 2 ] = 8957
c347: [ 1 x_76_ ^ 2 - 2 x_77_ * x_76_ + 1 x_77_ ^ 2 + 1 y_76_ ^ 2 - 2 y_77_ * y_76_ + 1 y_77_ ^ 2 ] = 8145
c348: [ 1 x_5_ ^ 2 - 2 x_78_ * x_5_ + 1 x_78_ ^ 2 + 1 y_5_ ^ 2 - 2 y_78_ * y_5_ + 1 y_78_ ^ 2 ] = 4753
c349: [ 1 x_6_ ^ 2 - 2 x_78_ * x_6_ + 1 x_78_ ^ 2 + 1 y_6_ ^ 2 - 2 y_78_ * y_6_ + 1 y_78_ ^ 2 ] = 24421
c350: [ 1 x_25_ ^ 2 - 2 x_78_ * x_25_ + 1 x_78_ ^ 2 + 1 y_25_ ^ 2 - 2 y_78_ * y_25_ + 1 y_78_ ^ 2 ] = 31937
c351: [ 1 x_26_ ^ 2 - 2 x_78_ * x_26_ + 1 x_78_ ^ 2 + 1 y_26_ ^ 2 - 2 y_78_ * y_26_ + 1 y_78_ ^ 2 ] = 6850
c352: [ 1 x_44_ ^ 2 - 2 x_78_ * x_44_ + 1 x_78_ ^ 2 + 1 y_44_ ^ 2 - 2 y_78_ * y_44_ + 1 y_78_ ^ 2 ] = 31721
c353: [ 1 x_56_ ^ 2 - 2 x_78_ * x_56_ + 1 x_78_ ^ 2 + 1 y_56_ ^ 2 - 2 y_78_ * y_56_ + 1 y_78_ ^ 2 ] = 4138
c354: [ 1 x_59_ ^ 2 - 2 x_78_ * x_59_ + 1 x_78_ ^ 2 + 1 y_59_ ^ 2 - 2 y_78_ * y_59_ + 1 y_78_ ^ 2 ] = 25477
c355: [ 1 x_69_ ^ 2 - 2 x_78_ * x_69_ + 1 x_78_ ^ 2 + 1 y_69_ ^ 2 - 2 y_78_ * y_69_ + 1 y_78_ ^ 2 ] = 2570
c356: [ 1 x_73_ ^ 2 - 2 x_78_ * x_73_ + 1 x_78_ ^ 2 + 1 y_73_ ^ 2 - 2 y_78_ * y_73_ + 1 y_78_ ^ 2 ] = 12997
c357: [ 1 x_77_ ^ 2 - 2 x_78_ * x_77_ + 1 x_78_ ^ 2 + 1 y_77_ ^ 2 - 2 y_78_ * y_77_ + 1 y_78_ ^ 2 ] = 12818
c358: [ 1 x_2_ ^ 2 - 2 x_79_ * x_2_ + 1 x_79_ ^ 2 + 1 y_2_ ^ 2 - 2 y_79_ * y_2_ + 1 y_79_ ^ 2 ] = 4666
c359: [ 1 x_11_ ^ 2 - 2 x_79_ * x_11_ + 1 x_79_ ^ 2 + 1 y_11_ ^ 2 - 2 y_79_ * y_11_ + 1 y_79_ ^ 2 ] = 10874
c360: [ 1 x_31_ ^ 2 - 2 x_79_ * x_31_ + 1 x_79_ ^ 2 + 1 y_31_ ^ 2 - 2 y_79_ * y_31_ + 1 y_79_ ^ 2 ] = 14282
c361: [ 1 x_32_ ^ 2 - 2 x_79_ * x_32_ + 1 x_79_ ^ 2 + 1 y_32_ ^ 2 - 2 y_79_ * y_32_ + 1 y_79_ ^ 2 ] = 6698
c362: [ 1 x_36_ ^ 2 - 2 x_79_ * x_36_ + 1 x_79_ ^ 2 + 1 y_36_ ^ 2 - 2 y_79_ * y_36_ + 1 y_79_ ^ 2 ] = 4688
c363: [ 1 x_40_ ^ 2 - 2 x_79_ * x_40_ + 1 x_79_ ^ 2 + 1 y_40_ ^ 2 - 2 y_79_ * y_40_ + 1 y_79_ ^ 2 ] = 19730
c364: [ 1 x_43_ ^ 2 - 2 x_79_ * x_43_ + 1 x_79_ ^ 2 + 1 y_43_ ^ 2 - 2 y_79_ * y_43_ + 1 y_79_ ^ 2 ] = 5384
c365: [ 1 x_53_ ^ 2 - 2 x_79_ * x_53_ + 1 x_79_ ^ 2 + 1 y_53_ ^ 2 - 2 y_79_ * y_53_ + 1 y_79_ ^ 2 ] = 7650
c366: [ 1 x_76_ ^ 2 - 2 x_79_ * x_76_ + 1 x_79_ ^ 2 + 1 y_76_ ^ 2 - 2 y_79_ * y_76_ + 1 y_79_ ^ 2 ] = 4490
c367: [ 1 x_78_ ^ 2 - 2 x_79_ * x_78_ + 1 x_79_ ^ 2 + 1 y_78_ ^ 2 - 2 y_79_ * y_78_ + 1 y_79_ ^ 2 ] = 25385
c368: [ 1 x_2_ ^ 2 - 2 x_80_ * x_2_ + 1 x_80_ ^ 2 + 1 y_2_ ^ 2 - 2 y_80_ * y_2_ + 1 y_80_ ^ 2 ] = 12409
c369: [ 1 x_41_ ^ 2 - 2 x_80_ * x_41_ + 1 x_80_ ^ 2 + 1 y_41_ ^ 2 - 2 y_80_ * y_41_ + 1 y_80_ ^ 2 ] = 8281
c370: [ 1 x_48_ ^ 2 - 2 x_80_ * x_48_ + 1 x_80_ ^ 2 + 1 y_48_ ^ 2 - 2 y_80_ * y_48_ + 1 y_80_ ^ 2 ] = 25621
c371: [ 1 x_53_ ^ 2 - 2 x_80_ * x_53_ + 1 x_80_ ^ 2 + 1 y_53_ ^ 2 - 2 y_80_ * y_53_ + 1 y_80_ ^ 2 ] = 18241
c372: [ 1 x_64_ ^ 2 - 2 x_80_ * x_64_ + 1 x_80_ ^ 2 + 1 y_64_ ^ 2 - 2 y_80_ * y_64_ + 1 y_80_ ^ 2 ] = 13021
c373: [ 1 x_79_ ^ 2 - 2 x_80_ * x_79_ + 1 x_80_ ^ 2 + 1 y_79_ ^ 2 - 2 y_80_ * y_79_ + 1 y_80_ ^ 2 ] = 3001
c374: [ 1 x_5_ ^ 2 - 2 x_81_ * x_5_ + 1 x_81_ ^ 2 + 1 y_5_ ^ 2 - 2 y_81_ * y_5_ + 1 y_81_ ^ 2 ] = 8917
c375: [ 1 x_10_ ^ 2 - 2 x_81_ * x_10_ + 1 x_81_ ^ 2 + 1 y_10_ ^ 2 - 2 y_81_ * y_10_ + 1 y_81_ ^ 2 ] = 193
c376: [ 1 x_13_ ^ 2 - 2 x_81_ * x_13_ + 1 x_81_ ^ 2 + 1 y_13_ ^ 2 - 2 y_81_ * y_13_ + 1 y_81_ ^ 2 ] = 809
c377: [ 1 x_33_ ^ 2 - 2 x_81_ * x_33_ + 1 x_81_ ^ 2 + 1 y_33_ ^ 2 - 2 y_81_ * y_33_ + 1 y_81_ ^ 2 ] = 1453
c378: [ 1 x_35_ ^ 2 - 2 x_81_ * x_35_ + 1 x_81_ ^ 2 + 1 y_35_ ^ 2 - 2 y_81_ * y_35_ + 1 y_81_ ^ 2 ] = 2340
c379: [ 1 x_37_ ^ 2 - 2 x_81_ * x_37_ + 1 x_81_ ^ 2 + 1 y_37_ ^ 2 - 2 y_81_ * y_37_ + 1 y_81_ ^ 2 ] = 4469
c380: [ 1 x_40_ ^ 2 - 2 x_81_ * x_40_ + 1 x_81_ ^ 2 + 1 y_40_ ^ 2 - 2 y_81_ * y_40_ + 1 y_81_ ^ 2 ] = 661
c381: [ 1 x_64_ ^ 2 - 2 x_81_ * x_64_ + 1 x_81_ ^ 2 + 1 y_64_ ^ 2 - 2 y_81_ * y_64_ + 1 y_81_ ^ 2 ] = 15793
c382: [ 1 x_75_ ^ 2 - 2 x_81_ * x_75_ + 1 x_81_ ^ 2 + 1 y_75_ ^ 2 - 2 y_81_ * y_75_ + 1 y_81_ ^ 2 ] = 28496
c383: [ 1 x_76_ ^ 2 - 2 x_81_ * x_76_ + 1 x_81_ ^ 2 + 1 y_76_ ^ 2 - 2 y_81_ * y_76_ + 1 y_81_ ^ 2 ] = 7837
c384: [ 1 x_80_ ^ 2 - 2 x_81_ * x_80_ + 1 x_81_ ^ 2 + 1 y_80_ ^ 2 - 2 y_81_ * y_80_ + 1 y_81_ ^ 2 ] = 18100
c385: [ 1 x_5_ ^ 2 - 2 x_82_ * x_5_ + 1 x_82_ ^ 2 + 1 y_5_ ^ 2 - 2 y_82_ * y_5_ + 1 y_82_ ^ 2 ] = 9106
c386: [ 1 x_14_ ^ 2 - 2 x_82_ * x_14_ + 1 x_82_ ^ 2 + 1 y_14_ ^ 2 - 2 y_82_ * y_14_ + 1 y_82_ ^ 2 ] = 26792
c387: [ 1 x_21_ ^ 2 - 2 x_82_ * x_21_ + 1 x_82_ ^ 2 + 1 y_21_ ^ 2 - 2 y_82_ * y_21_ + 1 y_82_ ^ 2 ] = 9370
c388: [ 1 x_36_ ^ 2 - 2 x_82_ * x_36_ + 1 x_82_ ^ 2 + 1 y_36_ ^ 2 - 2 y_82_ * y_36_ + 1 y_82_ ^ 2 ] = 19856
c389: [ 1 x_41_ ^ 2 - 2 x_82_ * x_41_ + 1 x_82_ ^ 2 + 1 y_41_ ^ 2 - 2 y_82_ * y_41_ + 1 y_82_ ^ 2 ] = 5930
c390: [ 1 x_42_ ^ 2 - 2 x_82_ * x_42_ + 1 x_82_ ^ 2 + 1 y_42_ ^ 2 - 2 y_82_ * y_42_ + 1 y_82_ ^ 2 ] = 15445
c391: [ 1 x_47_ ^ 2 - 2 x_82_ * x_47_ + 1 x_82_ ^ 2 + 1 y_47_ ^ 2 - 2 y_82_ * y_47_ + 1 y_82_ ^ 2 ] = 17002
c392: [ 1 x_49_ ^ 2 - 2 x_82_ * x_49_ + 1 x_82_ ^ 2 + 1 y_49_ ^ 2 - 2 y_82_ * y_49_ + 1 y_82_ ^ 2 ] = 15700
c393: [ 1 x_66_ ^ 2 - 2 x_82_ * x_66_ + 1 x_82_ ^ 2 + 1 y_66_ ^ 2 - 2 y_82_ * y_66_ + 1 y_82_ ^ 2 ] = 25705
c394: [ 1 x_81_ ^ 2 - 2 x_82_ * x_81_ + 1 x_82_ ^ 2 + 1 y_81_ ^ 2 - 2 y_82_ * y_81_ + 1 y_82_ ^ 2 ] = 2025
c395: [ 1 x_6_ ^ 2 - 2 x_83_ * x_6_ + 1 x_83_ ^ 2 + 1 y_6_ ^ 2 - 2 y_83_ * y_6_ + 1 y_83_ ^ 2 ] = 11432
c396: [ 1 x_20_ ^ 2 - 2 x_83_ * x_20_ + 1 x_83_ ^ 2 + 1 y_20_ ^ 2 - 2 y_83_ * y_20_ + 1 y_83_ ^ 2 ] = 24341
c397: [ 1 x_21_ ^ 2 - 2 x_83_ * x_21_ + 1 x_83_ ^ 2 + 1 y_21_ ^ 2 - 2 y_83_ * y_21_ + 1 y_83_ ^ 2 ] = 1538
c398: [ 1 x_24_ ^ 2 - 2 x_83_ * x_24_ + 1 x_83_ ^ 2 + 1 y_24_ ^ 2 - 2 y_83_ * y_24_ + 1 y_83_ ^ 2 ] = 388
c399: [ 1 x_42_ ^ 2 - 2 x_83_ * x_42_ + 1 x_83_ ^ 2 + 1 y_42_ ^ 2 - 2 y_83_ * y_42_ + 1 y_83_ ^ 2 ] = 7925
c400: [ 1 x_45_ ^ 2 - 2 x_83_ * x_45_ + 1 x_83_ ^ 2 + 1 y_45_ ^ 2 - 2 y_83_ * y_45_ + 1 y_83_ ^ 2 ] = 8980
c401: [ 1 x_49_ ^ 2 - 2 x_83_ * x_49_ + 1 x_83_ ^ 2 + 1 y_49_ ^ 2 - 2 y_83_ * y_49_ + 1 y_83_ ^ 2 ] = 9992
c402: [ 1 x_57_ ^ 2 - 2 x_83_ * x_57_ + 1 x_83_ ^ 2 + 1 y_57_ ^ 2 - 2 y_83_ * y_57_ + 1 y_83_ ^ 2 ] = 18485
c403: [ 1 x_61_ ^ 2 - 2 x_83_ * x_61_ + 1 x_83_ ^ 2 + 1 y_61_ ^ 2 - 2 y_83_ * y_61_ + 1 y_83_ ^ 2 ] = 29665
c404: [ 1 x_64_ ^ 2 - 2 x_83_ * x_64_ + 1 x_83_ ^ 2 + 1 y_64_ ^ 2 - 2 y_83_ * y_64_ + 1 y_83_ ^ 2 ] = 37970
c405: [ 1 x_65_ ^ 2 - 2 x_83_ * x_65_ + 1 x_83_ ^ 2 + 1 y_65_ ^ 2 - 2 y_83_ * y_65_ + 1 y_83_ ^ 2 ] = 8002
c406: [ 1 x_70_ ^ 2 - 2 x_83_ * x_70_ + 1 x_83_ ^ 2 + 1 y_70_ ^ 2 - 2 y_83_ * y_70_ + 1 y_83_ ^ 2 ] = 23290
c407: [ 1 x_73_ ^ 2 - 2 x_83_ * x_73_ + 1 x_83_ ^ 2 + 1 y_73_ ^ 2 - 2 y_83_ * y_73_ + 1 y_83_ ^ 2 ] = 146
c408: [ 1 x_78_ ^ 2 - 2 x_83_ * x_78_ + 1 x_83_ ^ 2 + 1 y_78_ ^ 2 - 2 y_83_ * y_78_ + 1 y_83_ ^ 2 ] = 15641
c409: [ 1 x_82_ ^ 2 - 2 x_83_ * x_82_ + 1 x_83_ ^ 2 + 1 y_82_ ^ 2 - 2 y_83_ * y_82_ + 1 y_83_ ^ 2 ] = 9092
c410: [ 1 x_9_ ^ 2 - 2 x_84_ * x_9_ + 1 x_84_ ^ 2 + 1 y_9_ ^ 2 - 2 y_84_ * y_9_ + 1 y_84_ ^ 2 ] = 9074
c411: [ 1 x_10_ ^ 2 - 2 x_84_ * x_10_ + 1 x_84_ ^ 2 + 1 y_10_ ^ 2 - 2 y_84_ * y_10_ + 1 y_84_ ^ 2 ] = 2026
c412: [ 1 x_17_ ^ 2 - 2 x_84_ * x_17_ + 1 x_84_ ^ 2 + 1 y_17_ ^ 2 - 2 y_84_ * y_17_ + 1 y_84_ ^ 2 ] = 4349
c413: [ 1 x_19_ ^ 2 - 2 x_84_ * x_19_ + 1 x_84_ ^ 2 + 1 y_19_ ^ 2 - 2 y_84_ * y_19_ + 1 y_84_ ^ 2 ] = 31552
c414: [ 1 x_34_ ^ 2 - 2 x_84_ * x_34_ + 1 x_84_ ^ 2 + 1 y_34_ ^ 2 - 2 y_84_ * y_34_ + 1 y_84_ ^ 2 ] = 19856
c415: [ 1 x_42_ ^ 2 - 2 x_84_ * x_42_ + 1 x_84_ ^ 2 + 1 y_42_ ^ 2 - 2 y_84_ * y_42_ + 1 y_84_ ^ 2 ] = 11245
c416: [ 1 x_57_ ^ 2 - 2 x_84_ * x_57_ + 1 x_84_ ^ 2 + 1 y_57_ ^ 2 - 2 y_84_ * y_57_ + 1 y_84_ ^ 2 ] = 23053
c417: [ 1 x_59_ ^ 2 - 2 x_84_ * x_59_ + 1 x_84_ ^ 2 + 1 y_59_ ^ 2 - 2 y_84_ * y_59_ + 1 y_84_ ^ 2 ] = 30724
c418: [ 1 x_61_ ^ 2 - 2 x_84_ * x_61_ + 1 x_84_ ^ 2 + 1 y_61_ ^ 2 - 2 y_84_ * y_61_ + 1 y_84_ ^ 2 ] = 16421
c419: [ 1 x_74_ ^ 2 - 2 x_84_ * x_74_ + 1 x_84_ ^ 2 + 1 y_74_ ^ 2 - 2 y_84_ * y_74_ + 1 y_84_ ^ 2 ] = 8066
c420: [ 1 x_78_ ^ 2 - 2 x_84_ * x_78_ + 1 x_84_ ^ 2 + 1 y_78_ ^ 2 - 2 y_84_ * y_78_ + 1 y_84_ ^ 2 ] = 4177
c421: [ 1 x_80_ ^ 2 - 2 x_84_ * x_80_ + 1 x_84_ ^ 2 + 1 y_80_ ^ 2 - 2 y_84_ * y_80_ + 1 y_84_ ^ 2 ] = 28249
c422: [ 1 x_81_ ^ 2 - 2 x_84_ * x_81_ + 1 x_84_ ^ 2 + 1 y_81_ ^ 2 - 2 y_84_ * y_81_ + 1 y_84_ ^ 2 ] = 1125
c423: [ 1 x_83_ ^ 2 - 2 x_84_ * x_83_ + 1 x_84_ ^ 2 + 1 y_83_ ^ 2 - 2 y_84_ * y_83_ + 1 y_84_ ^ 2 ] = 3890
c424: [ 1 x_5_ ^ 2 - 2 x_85_ * x_5_ + 1 x_85_ ^ 2 + 1 y_5_ ^ 2 - 2 y_85_ * y_5_ + 1 y_85_ ^ 2 ] = 34634
c425: [ 1 x_9_ ^ 2 - 2 x_85_ * x_9_ + 1 x_85_ ^ 2 + 1 y_9_ ^ 2 - 2 y_85_ * y_9_ + 1 y_85_ ^ 2 ] = 8500
c426: [ 1 x_18_ ^ 2 - 2 x_85_ * x_18_ + 1 x_85_ ^ 2 + 1 y_18_ ^ 2 - 2 y_85_ * y_18_ + 1 y_85_ ^ 2 ] = 21005
c427: [ 1 x_31_ ^ 2 - 2 x_85_ * x_31_ + 1 x_85_ ^ 2 + 1 y_31_ ^ 2 - 2 y_85_ * y_31_ + 1 y_85_ ^ 2 ] = 23290
c428: [ 1 x_32_ ^ 2 - 2 x_85_ * x_32_ + 1 x_85_ ^ 2 + 1 y_32_ ^ 2 - 2 y_85_ * y_32_ + 1 y_85_ ^ 2 ] = 17690
c429: [ 1 x_38_ ^ 2 - 2 x_85_ * x_38_ + 1 x_85_ ^ 2 + 1 y_38_ ^ 2 - 2 y_85_ * y_38_ + 1 y_85_ ^ 2 ] = 20525
c430: [ 1 x_40_ ^ 2 - 2 x_85_ * x_40_ + 1 x_85_ ^ 2 + 1 y_40_ ^ 2 - 2 y_85_ * y_40_ + 1 y_85_ ^ 2 ] = 33514
c431: [ 1 x_61_ ^ 2 - 2 x_85_ * x_61_ + 1 x_85_ ^ 2 + 1 y_61_ ^ 2 - 2 y_85_ * y_61_ + 1 y_85_ ^ 2 ] = 32885
c432: [ 1 x_66_ ^ 2 - 2 x_85_ * x_66_ + 1 x_85_ ^ 2 + 1 y_66_ ^ 2 - 2 y_85_ * y_66_ + 1 y_85_ ^ 2 ] = 18173
c433: [ 1 x_74_ ^ 2 - 2 x_85_ * x_74_ + 1 x_85_ ^ 2 + 1 y_74_ ^ 2 - 2 y_85_ * y_74_ + 1 y_85_ ^ 2 ] = 43220
c434: [ 1 x_84_ ^ 2 - 2 x_85_ * x_84_ + 1 x_85_ ^ 2 + 1 y_84_ ^ 2 - 2 y_85_ * y_84_ + 1 y_85_ ^ 2 ] = 34594
c435: [ 1 x_3_ ^ 2 - 2 x_86_ * x_3_ + 1 x_86_ ^ 2 + 1 y_3_ ^ 2 - 2 y_86_ * y_3_ + 1 y_86_ ^ 2 ] = 7453
c436: [ 1 x_4_ ^ 2 - 2 x_86_ * x_4_ + 1 x_86_ ^ 2 + 1 y_4_ ^ 2 - 2 y_86_ * y_4_ + 1 y_86_ ^ 2 ] = 2450
c437: [ 1 x_8_ ^ 2 - 2 x_86_ * x_8_ + 1 x_86_ ^ 2 + 1 y_8_ ^ 2 - 2 y_86_ * y_8_ + 1 y_86_ ^ 2 ] = 14533
c438: [ 1 x_16_ ^ 2 - 2 x_86_ * x_16_ + 1 x_86_ ^ 2 + 1 y_16_ ^ 2 - 2 y_86_ * y_16_ + 1 y_86_ ^ 2 ] = 1417
c439: [ 1 x_29_ ^ 2 - 2 x_86_ * x_29_ + 1 x_86_ ^ 2 + 1 y_29_ ^ 2 - 2 y_86_ * y_29_ + 1 y_86_ ^ 2 ] = 17858
c440: [ 1 x_32_ ^ 2 - 2 x_86_ * x_32_ + 1 x_86_ ^ 2 + 1 y_32_ ^ 2 - 2 y_86_ * y_32_ + 1 y_86_ ^ 2 ] = 5490
c441: [ 1 x_49_ ^ 2 - 2 x_86_ * x_49_ + 1 x_86_ ^ 2 + 1 y_49_ ^ 2 - 2 y_86_ * y_49_ + 1 y_86_ ^ 2 ] = 8324
c442: [ 1 x_54_ ^ 2 - 2 x_86_ * x_54_ + 1 x_86_ ^ 2 + 1 y_54_ ^ 2 - 2 y_86_ * y_54_ + 1 y_86_ ^ 2 ] = 7709
c443: [ 1 x_65_ ^ 2 - 2 x_86_ * x_65_ + 1 x_86_ ^ 2 + 1 y_65_ ^ 2 - 2 y_86_ * y_65_ + 1 y_86_ ^ 2 ] = 13474
c444: [ 1 x_85_ ^ 2 - 2 x_86_ * x_85_ + 1 x_86_ ^ 2 + 1 y_85_ ^ 2 - 2 y_86_ * y_85_ + 1 y_86_ ^ 2 ] = 14708
c445: [ 1 x_33_ ^ 2 - 2 x_87_ * x_33_ + 1 x_87_ ^ 2 + 1 y_33_ ^ 2 - 2 y_87_ * y_33_ + 1 y_87_ ^ 2 ] = 7466
c446: [ 1 x_70_ ^ 2 - 2 x_87_ * x_70_ + 1 x_87_ ^ 2 + 1 y_70_ ^ 2 - 2 y_87_ * y_70_ + 1 y_87_ ^ 2 ] = 7848
c447: [ 1 x_80_ ^ 2 - 2 x_87_ * x_80_ + 1 x_87_ ^ 2 + 1 y_80_ ^ 2 - 2 y_87_ * y_80_ + 1 y_87_ ^ 2 ] = 8425
c448: [ 1 x_86_ ^ 2 - 2 x_87_ * x_86_ + 1 x_87_ ^ 2 + 1 y_86_ ^ 2 - 2 y_87_ * y_86_ + 1 y_87_ ^ 2 ] = 5450
c449: [ 1 x_2_ ^ 2 - 2 x_88_ * x_2_ + 1 x_88_ ^ 2 + 1 y_2_ ^ 2 - 2 y_88_ * y_2_ + 1 y_88_ ^ 2 ] = 2965
c450: [ 1 x_3_ ^ 2 - 2 x_88_ * x_3_ + 1 x_88_ ^ 2 + 1 y_3_ ^ 2 - 2 y_88_ * y_3_ + 1 y_88_ ^ 2 ] = 10386
c451: [ 1 x_4_ ^ 2 - 2 x_88_ * x_4_ + 1 x_88_ ^ 2 + 1 y_4_ ^ 2 - 2 y_88_ * y_4_ + 1 y_88_ ^ 2 ] = 2845
c452: [ 1 x_21_ ^ 2 - 2 x_88_ * x_21_ + 1 x_88_ ^ 2 + 1 y_21_ ^ 2 - 2 y_88_ * y_21_ + 1 y_88_ ^ 2 ] = 7057
c453: [ 1 x_35_ ^ 2 - 2 x_88_ * x_35_ + 1 x_88_ ^ 2 + 1 y_35_ ^ 2 - 2 y_88_ * y_35_ + 1 y_88_ ^ 2 ] = 9410
c454: [ 1 x_48_ ^ 2 - 2 x_88_ * x_48_ + 1 x_88_ ^ 2 + 1 y_48_ ^ 2 - 2 y_88_ * y_48_ + 1 y_88_ ^ 2 ] = 38041
c455: [ 1 x_62_ ^ 2 - 2 x_88_ * x_62_ + 1 x_88_ ^ 2 + 1 y_62_ ^ 2 - 2 y_88_ * y_62_ + 1 y_88_ ^ 2 ] = 34
c456: [ 1 x_66_ ^ 2 - 2 x_88_ * x_66_ + 1 x_88_ ^ 2 + 1 y_66_ ^ 2 - 2 y_88_ * y_66_ + 1 y_88_ ^ 2 ] = 14050
c457: [ 1 x_73_ ^ 2 - 2 x_88_ * x_73_ + 1 x_88_ ^ 2 + 1 y_73_ ^ 2 - 2 y_88_ * y_73_ + 1 y_88_ ^ 2 ] = 15885
c458: [ 1 x_77_ ^ 2 - 2 x_88_ * x_77_ + 1 x_88_ ^ 2 + 1 y_77_ ^ 2 - 2 y_88_ * y_77_ + 1 y_88_ ^ 2 ] = 5800
c459: [ 1 x_80_ ^ 2 - 2 x_88_ * x_80_ + 1 x_88_ ^ 2 + 1 y_80_ ^ 2 - 2 y_88_ * y_80_ + 1 y_88_ ^ 2 ] = 7202
c460: [ 1 x_83_ ^ 2 - 2 x_88_ * x_83_ + 1 x_88_ ^ 2 + 1 y_83_ ^ 2 - 2 y_88_ * y_83_ + 1 y_88_ ^ 2 ] = 14837
c461: [ 1 x_84_ ^ 2 - 2 x_88_ * x_84_ + 1 x_88_ ^ 2 + 1 y_84_ ^ 2 - 2 y_88_ * y_84_ + 1 y_88_ ^ 2 ] = 20165
c462: [ 1 x_87_ ^ 2 - 2 x_88_ * x_87_ + 1 x_88_ ^ 2 + 1 y_87_ ^ 2 - 2 y_88_ * y_87_ + 1 y_88_ ^ 2 ] = 11881
c463: [ 1 x_6_ ^ 2 - 2 x_89_ * x_6_ + 1 x_89_ ^ 2 + 1 y_6_ ^ 2 - 2 y_89_ * y_6_ + 1 y_89_ ^ 2 ] = 25925
c464: [ 1 x_13_ ^ 2 - 2 x_89_ * x_13_ + 1 x_89_ ^ 2 + 1 y_13_ ^ 2 - 2 y_89_ * y_13_ + 1 y_89_ ^ 2 ] = 14321
c465: [ 1 x_49_ ^ 2 - 2 x_89_ * x_49_ + 1 x_89_ ^ 2 + 1 y_49_ ^ 2 - 2 y_89_ * y_49_ + 1 y_89_ ^ 2 ] = 19981
c466: [ 1 x_50_ ^ 2 - 2 x_89_ * x_50_ + 1 x_89_ ^ 2 + 1 y_50_ ^ 2 - 2 y_89_ * y_50_ + 1 y_89_ ^ 2 ] = 33428
c467: [ 1 x_67_ ^ 2 - 2 x_89_ * x_67_ + 1 x_89_ ^ 2 + 1 y_67_ ^ 2 - 2 y_89_ * y_67_ + 1 y_89_ ^ 2 ] = 18965
c468: [ 1 x_88_ ^ 2 - 2 x_89_ * x_88_ + 1 x_89_ ^ 2 + 1 y_88_ ^ 2 - 2 y_89_ * y_88_ + 1 y_89_ ^ 2 ] = 26210
c469: [ 1 x_1_ ^ 2 - 2 x_90_ * x_1_ + 1 x_90_ ^ 2 + 1 y_1_ ^ 2 - 2 y_90_ * y_1_ + 1 y_90_ ^ 2 ] = 17060
c470: [ 1 x_6_ ^ 2 - 2 x_90_ * x_6_ + 1 x_90_ ^ 2 + 1 y_6_ ^ 2 - 2 y_90_ * y_6_ + 1 y_90_ ^ 2 ] = 25856
c471: [ 1 x_37_ ^ 2 - 2 x_90_ * x_37_ + 1 x_90_ ^ 2 + 1 y_37_ ^ 2 - 2 y_90_ * y_37_ + 1 y_90_ ^ 2 ] = 37586
c472: [ 1 x_47_ ^ 2 - 2 x_90_ * x_47_ + 1 x_90_ ^ 2 + 1 y_47_ ^ 2 - 2 y_90_ * y_47_ + 1 y_90_ ^ 2 ] = 10330
c473: [ 1 x_51_ ^ 2 - 2 x_90_ * x_51_ + 1 x_90_ ^ 2 + 1 y_51_ ^ 2 - 2 y_90_ * y_51_ + 1 y_90_ ^ 2 ] = 109
c474: [ 1 x_63_ ^ 2 - 2 x_90_ * x_63_ + 1 x_90_ ^ 2 + 1 y_63_ ^ 2 - 2 y_90_ * y_63_ + 1 y_90_ ^ 2 ] = 11261
c475: [ 1 x_81_ ^ 2 - 2 x_90_ * x_81_ + 1 x_90_ ^ 2 + 1 y_81_ ^ 2 - 2 y_90_ * y_81_ + 1 y_90_ ^ 2 ] = 16349
c476: [ 1 x_82_ ^ 2 - 2 x_90_ * x_82_ + 1 x_90_ ^ 2 + 1 y_82_ ^ 2 - 2 y_90_ * y_82_ + 1 y_90_ ^ 2 ] = 17636
c477: [ 1 x_89_ ^ 2 - 2 x_90_ * x_89_ + 1 x_90_ ^ 2 + 1 y_89_ ^ 2 - 2 y_90_ * y_89_ + 1 y_90_ ^ 2 ] = 197
c478: [ 1 x_10_ ^ 2 - 2 x_91_ * x_10_ + 1 x_91_ ^ 2 + 1 y_10_ ^ 2 - 2 y_91_ * y_10_ + 1 y_91_ ^ 2 ] = 3365
c479: [ 1 x_47_ ^ 2 - 2 x_91_ * x_47_ + 1 x_91_ ^ 2 + 1 y_47_ ^ 2 - 2 y_91_ * y_47_ + 1 y_91_ ^ 2 ] = 1517
c480: [ 1 x_53_ ^ 2 - 2 x_91_ * x_53_ + 1 x_91_ ^ 2 + 1 y_53_ ^ 2 - 2 y_91_ * y_53_ + 1 y_91_ ^ 2 ] = 9893
c481: [ 1 x_79_ ^ 2 - 2 x_91_ * x_79_ + 1 x_91_ ^ 2 + 1 y_79_ ^ 2 - 2 y_91_ * y_79_ + 1 y_91_ ^ 2 ] = 5513
c482: [ 1 x_86_ ^ 2 - 2 x_91_ * x_86_ + 1 x_91_ ^ 2 + 1 y_86_ ^ 2 - 2 y_91_ * y_86_ + 1 y_91_ ^ 2 ] = 3509
c483: [ 1 x_88_ ^ 2 - 2 x_91_ * x_88_ + 1 x_91_ ^ 2 + 1 y_88_ ^ 2 - 2 y_91_ * y_88_ + 1 y_91_ ^ 2 ] = 8164
c484: [ 1 x_90_ ^ 2 - 2 x_91_ * x_90_ + 1 x_91_ ^ 2 + 1 y_90_ ^ 2 - 2 y_91_ * y_90_ + 1 y_91_ ^ 2 ] = 6521
c485: [ 1 x_2_ ^ 2 - 2 x_92_ * x_2_ + 1 x_92_ ^ 2 + 1 y_2_ ^ 2 - 2 y_92_ * y_2_ + 1 y_92_ ^ 2 ] = 8513
c486: [ 1 x_36_ ^ 2 - 2 x_92_ * x_36_ + 1 x_92_ ^ 2 + 1 y_36_ ^ 2 - 2 y_92_ * y_36_ + 1 y_92_ ^ 2 ] = 2509
c487: [ 1 x_37_ ^ 2 - 2 x_92_ * x_37_ + 1 x_92_ ^ 2 + 1 y_37_ ^ 2 - 2 y_92_ * y_37_ + 1 y_92_ ^ 2 ] = 17905
c488: [ 1 x_38_ ^ 2 - 2 x_92_ * x_38_ + 1 x_92_ ^ 2 + 1 y_38_ ^ 2 - 2 y_92_ * y_38_ + 1 y_92_ ^ 2 ] = 5098
c489: [ 1 x_55_ ^ 2 - 2 x_92_ * x_55_ + 1 x_92_ ^ 2 + 1 y_55_ ^ 2 - 2 y_92_ * y_55_ + 1 y_92_ ^ 2 ] = 4786
c490: [ 1 x_57_ ^ 2 - 2 x_92_ * x_57_ + 1 x_92_ ^ 2 + 1 y_57_ ^ 2 - 2 y_92_ * y_57_ + 1 y_92_ ^ 2 ] = 11700
c491: [ 1 x_62_ ^ 2 - 2 x_92_ * x_62_ + 1 x_92_ ^ 2 + 1 y_62_ ^ 2 - 2 y_92_ * y_62_ + 1 y_92_ ^ 2 ] = 11920
c492: [ 1 x_64_ ^ 2 - 2 x_92_ * x_64_ + 1 x_92_ ^ 2 + 1 y_64_ ^ 2 - 2 y_92_ * y_64_ + 1 y_92_ ^ 2 ] = 4365
c493: [ 1 x_66_ ^ 2 - 2 x_92_ * x_66_ + 1 x_92_ ^ 2 + 1 y_66_ ^ 2 - 2 y_92_ * y_66_ + 1 y_92_ ^ 2 ] = 4680
c494: [ 1 x_71_ ^ 2 - 2 x_92_ * x_71_ + 1 x_92_ ^ 2 + 1 y_71_ ^ 2 - 2 y_92_ * y_71_ + 1 y_92_ ^ 2 ] = 6994
c495: [ 1 x_74_ ^ 2 - 2 x_92_ * x_74_ + 1 x_92_ ^ 2 + 1 y_74_ ^ 2 - 2 y_92_ * y_74_ + 1 y_92_ ^ 2 ] = 4453
c496: [ 1 x_75_ ^ 2 - 2 x_92_ * x_75_ + 1 x_92_ ^ 2 + 1 y_75_ ^ 2 - 2 y_92_ * y_75_ + 1 y_92_ ^ 2 ] = 9640
c497: [ 1 x_81_ ^ 2 - 2 x_92_ * x_81_ + 1 x_92_ ^ 2 + 1 y_81_ ^ 2 - 2 y_92_ * y_81_ + 1 y_92_ ^ 2 ] = 5032
c498: [ 1 x_82_ ^ 2 - 2 x_92_ * x_82_ + 1 x_92_ ^ 2 + 1 y_82_ ^ 2 - 2 y_92_ * y_82_ + 1 y_92_ ^ 2 ] = 8461
c499: [ 1 x_84_ ^ 2 - 2 x_92_ * x_84_ + 1 x_92_ ^ 2 + 1 y_84_ ^ 2 - 2 y_92_ * y_84_ + 1 y_92_ ^ 2 ] = 10273
c500: [ 1 x_86_ ^ 2 - 2 x_92_ * x_86_ + 1 x_92_ ^ 2 + 1 y_86_ ^ 2 - 2 y_92_ * y_86_ + 1 y_92_ ^ 2 ] = 3609
c501: [ 1 x_91_ ^ 2 - 2 x_92_ * x_91_ + 1 x_92_ ^ 2 + 1 y_91_ ^ 2 - 2 y_92_ * y_91_ + 1 y_92_ ^ 2 ] = 386
c502: [ 1 x_5_ ^ 2 - 2 x_93_ * x_5_ + 1 x_93_ ^ 2 + 1 y_5_ ^ 2 - 2 y_93_ * y_5_ + 1 y_93_ ^ 2 ] = 2020
c503: [ 1 x_29_ ^ 2 - 2 x_93_ * x_29_ + 1 x_93_ ^ 2 + 1 y_29_ ^ 2 - 2 y_93_ * y_29_ + 1 y_93_ ^ 2 ] = 1076
c504: [ 1 x_42_ ^ 2 - 2 x_93_ * x_42_ + 1 x_93_ ^ 2 + 1 y_42_ ^ 2 - 2 y_93_ * y_42_ + 1 y_93_ ^ 2 ] = 15461
c505: [ 1 x_48_ ^ 2 - 2 x_93_ * x_48_ + 1 x_93_ ^ 2 + 1 y_48_ ^ 2 - 2 y_93_ * y_48_ + 1 y_93_ ^ 2 ] = 2516
c506: [ 1 x_56_ ^ 2 - 2 x_93_ * x_56_ + 1 x_93_ ^ 2 + 1 y_56_ ^ 2 - 2 y_93_ * y_56_ + 1 y_93_ ^ 2 ] = 4633
c507: [ 1 x_60_ ^ 2 - 2 x_93_ * x_60_ + 1 x_93_ ^ 2 + 1 y_60_ ^ 2 - 2 y_93_ * y_60_ + 1 y_93_ ^ 2 ] = 20041
c508: [ 1 x_64_ ^ 2 - 2 x_93_ * x_64_ + 1 x_93_ ^ 2 + 1 y_64_ ^ 2 - 2 y_93_ * y_64_ + 1 y_93_ ^ 2 ] = 5636
c509: [ 1 x_77_ ^ 2 - 2 x_93_ * x_77_ + 1 x_93_ ^ 2 + 1 y_77_ ^ 2 - 2 y_93_ * y_77_ + 1 y_93_ ^ 2 ] = 8405
c510: [ 1 x_86_ ^ 2 - 2 x_93_ * x_86_ + 1 x_93_ ^ 2 + 1 y_86_ ^ 2 - 2 y_93_ * y_86_ + 1 y_93_ ^ 2 ] = 12938
c511: [ 1 x_92_ ^ 2 - 2 x_93_ * x_92_ + 1 x_93_ ^ 2 + 1 y_92_ ^ 2 - 2 y_93_ * y_92_ + 1 y_93_ ^ 2 ] = 3065
c512: [ 1 x_1_ ^ 2 - 2 x_94_ * x_1_ + 1 x_94_ ^ 2 + 1 y_1_ ^ 2 - 2 y_94_ * y_1_ + 1 y_94_ ^ 2 ] = 8530
c513: [ 1 x_19_ ^ 2 - 2 x_94_ * x_19_ + 1 x_94_ ^ 2 + 1 y_19_ ^ 2 - 2 y_94_ * y_19_ + 1 y_94_ ^ 2 ] = 7412
c514: [ 1 x_22_ ^ 2 - 2 x_94_ * x_22_ + 1 x_94_ ^ 2 + 1 y_22_ ^ 2 - 2 y_94_ * y_22_ + 1 y_94_ ^ 2 ] = 9153
c515: [ 1 x_26_ ^ 2 - 2 x_94_ * x_26_ + 1 x_94_ ^ 2 + 1 y_26_ ^ 2 - 2 y_94_ * y_26_ + 1 y_94_ ^ 2 ] = 41585
c516: [ 1 x_39_ ^ 2 - 2 x_94_ * x_39_ + 1 x_94_ ^ 2 + 1 y_39_ ^ 2 - 2 y_94_ * y_39_ + 1 y_94_ ^ 2 ] = 7240
c517: [ 1 x_43_ ^ 2 - 2 x_94_ * x_43_ + 1 x_94_ ^ 2 + 1 y_43_ ^ 2 - 2 y_94_ * y_43_ + 1 y_94_ ^ 2 ] = 3370
c518: [ 1 x_44_ ^ 2 - 2 x_94_ * x_44_ + 1 x_94_ ^ 2 + 1 y_44_ ^ 2 - 2 y_94_ * y_44_ + 1 y_94_ ^ 2 ] = 13994
c519: [ 1 x_45_ ^ 2 - 2 x_94_ * x_45_ + 1 x_94_ ^ 2 + 1 y_45_ ^ 2 - 2 y_94_ * y_45_ + 1 y_94_ ^ 2 ] = 32882
c520: [ 1 x_53_ ^ 2 - 2 x_94_ * x_53_ + 1 x_94_ ^ 2 + 1 y_53_ ^ 2 - 2 y_94_ * y_53_ + 1 y_94_ ^ 2 ] = 27976
c521: [ 1 x_68_ ^ 2 - 2 x_94_ * x_68_ + 1 x_94_ ^ 2 + 1 y_68_ ^ 2 - 2 y_94_ * y_68_ + 1 y_94_ ^ 2 ] = 20177
c522: [ 1 x_71_ ^ 2 - 2 x_94_ * x_71_ + 1 x_94_ ^ 2 + 1 y_71_ ^ 2 - 2 y_94_ * y_71_ + 1 y_94_ ^ 2 ] = 10361
c523: [ 1 x_81_ ^ 2 - 2 x_94_ * x_81_ + 1 x_94_ ^ 2 + 1 y_81_ ^ 2 - 2 y_94_ * y_81_ + 1 y_94_ ^ 2 ] = 24745
c524: [ 1 x_86_ ^ 2 - 2 x_94_ * x_86_ + 1 x_94_ ^ 2 + 1 y_86_ ^ 2 - 2 y_94_ * y_86_ + 1 y_94_ ^ 2 ] = 1138
c525: [ 1 x_93_ ^ 2 - 2 x_94_ * x_93_ + 1 x_94_ ^ 2 + 1 y_93_ ^ 2 - 2 y_94_ * y_93_ + 1 y_94_ ^ 2 ] = 21352
c526: [ 1 x_34_ ^ 2 - 2 x_95_ * x_34_ + 1 x_95_ ^ 2 + 1 y_34_ ^ 2 - 2 y_95_ * y_34_ + 1 y_95_ ^ 2 ] = 962
c527: [ 1 x_58_ ^ 2 - 2 x_95_ * x_58_ + 1 x_95_ ^ 2 + 1 y_58_ ^ 2 - 2 y_95_ * y_58_ + 1 y_95_ ^ 2 ] = 657
c528: [ 1 x_67_ ^ 2 - 2 x_95_ * x_67_ + 1 x_95_ ^ 2 + 1 y_67_ ^ 2 - 2 y_95_ * y_67_ + 1 y_95_ ^ 2 ] = 4964
c529: [ 1 x_83_ ^ 2 - 2 x_95_ * x_83_ + 1 x_95_ ^ 2 + 1 y_83_ ^ 2 - 2 y_95_ * y_83_ + 1 y_95_ ^ 2 ] = 27540
c530: [ 1 x_94_ ^ 2 - 2 x_95_ * x_94_ + 1 x_95_ ^ 2 + 1 y_94_ ^ 2 - 2 y_95_ * y_94_ + 1 y_95_ ^ 2 ] = 1906
c531: [ 1 x_3_ ^ 2 - 2 x_96_ * x_3_ + 1 x_96_ ^ 2 + 1 y_3_ ^ 2 - 2 y_96_ * y_3_ + 1 y_96_ ^ 2 ] = 1940
c532: [ 1 x_6_ ^ 2 - 2 x_96_ * x_6_ + 1 x_96_ ^ 2 + 1 y_6_ ^ 2 - 2 y_96_ * y_6_ + 1 y_96_ ^ 2 ] = 16865
c533: [ 1 x_21_ ^ 2 - 2 x_96_ * x_21_ + 1 x_96_ ^ 2 + 1 y_21_ ^ 2 - 2 y_96_ * y_21_ + 1 y_96_ ^ 2 ] = 14689
c534: [ 1 x_24_ ^ 2 - 2 x_96_ * x_24_ + 1 x_96_ ^ 2 + 1 y_24_ ^ 2 - 2 y_96_ * y_24_ + 1 y_96_ ^ 2 ] = 17069
c535: [ 1 x_28_ ^ 2 - 2 x_96_ * x_28_ + 1 x_96_ ^ 2 + 1 y_28_ ^ 2 - 2 y_96_ * y_28_ + 1 y_96_ ^ 2 ] = 12025
c536: [ 1 x_36_ ^ 2 - 2 x_96_ * x_36_ + 1 x_96_ ^ 2 + 1 y_36_ ^ 2 - 2 y_96_ * y_36_ + 1 y_96_ ^ 2 ] = 5429
c537: [ 1 x_49_ ^ 2 - 2 x_96_ * x_49_ + 1 x_96_ ^ 2 + 1 y_49_ ^ 2 - 2 y_96_ * y_49_ + 1 y_96_ ^ 2 ] = 11401
c538: [ 1 x_77_ ^ 2 - 2 x_96_ * x_77_ + 1 x_96_ ^ 2 + 1 y_77_ ^ 2 - 2 y_96_ * y_77_ + 1 y_96_ ^ 2 ] = 4426
c539: [ 1 x_84_ ^ 2 - 2 x_96_ * x_84_ + 1 x_96_ ^ 2 + 1 y_84_ ^ 2 - 2 y_96_ * y_84_ + 1 y_96_ ^ 2 ] = 9673
c540: [ 1 x_95_ ^ 2 - 2 x_96_ * x_95_ + 1 x_96_ ^ 2 + 1 y_95_ ^ 2 - 2 y_96_ * y_95_ + 1 y_96_ ^ 2 ] = 5809
c541: [ 1 x_7_ ^ 2 - 2 x_97_ * x_7_ + 1 x_97_ ^ 2 + 1 y_7_ ^ 2 - 2 y_97_ * y_7_ + 1 y_97_ ^ 2 ] = 24901
c542: [ 1 x_10_ ^ 2 - 2 x_97_ * x_10_ + 1 x_97_ ^ 2 + 1 y_10_ ^ 2 - 2 y_97_ * y_10_ + 1 y_97_ ^ 2 ] = 3272
c543: [ 1 x_19_ ^ 2 - 2 x_97_ * x_19_ + 1 x_97_ ^ 2 + 1 y_19_ ^ 2 - 2 y_97_ * y_19_ + 1 y_97_ ^ 2 ] = 31450
c544: [ 1 x_27_ ^ 2 - 2 x_97_ * x_27_ + 1 x_97_ ^ 2 + 1 y_27_ ^ 2 - 2 y_97_ * y_27_ + 1 y_97_ ^ 2 ] = 38897
c545: [ 1 x_40_ ^ 2 - 2 x_97_ * x_40_ + 1 x_97_ ^ 2 + 1 y_40_ ^ 2 - 2 y_97_ * y_40_ + 1 y_97_ ^ 2 ] = 2290
c546: [ 1 x_51_ ^ 2 - 2 x_97_ * x_51_ + 1 x_97_ ^ 2 + 1 y_51_ ^ 2 - 2 y_97_ * y_51_ + 1 y_97_ ^ 2 ] = 29245
c547: [ 1 x_64_ ^ 2 - 2 x_97_ * x_64_ + 1 x_97_ ^ 2 + 1 y_64_ ^ 2 - 2 y_97_ * y_64_ + 1 y_97_ ^ 2 ] = 31690
c548: [ 1 x_65_ ^ 2 - 2 x_97_ * x_65_ + 1 x_97_ ^ 2 + 1 y_65_ ^ 2 - 2 y_97_ * y_65_ + 1 y_97_ ^ 2 ] = 10898
c549: [ 1 x_78_ ^ 2 - 2 x_97_ * x_78_ + 1 x_97_ ^ 2 + 1 y_78_ ^ 2 - 2 y_97_ * y_78_ + 1 y_97_ ^ 2 ] = 9901
c550: [ 1 x_81_ ^ 2 - 2 x_97_ * x_81_ + 1 x_97_ ^ 2 + 1 y_81_ ^ 2 - 2 y_97_ * y_81_ + 1 y_97_ ^ 2 ] = 2837
c551: [ 1 x_96_ ^ 2 - 2 x_97_ * x_96_ + 1 x_97_ ^ 2 + 1 y_96_ ^ 2 - 2 y_97_ * y_96_ + 1 y_97_ ^ 2 ] = 16073
c552: [ 1 x_19_ ^ 2 - 2 x_98_ * x_19_ + 1 x_98_ ^ 2 + 1 y_19_ ^ 2 - 2 y_98_ * y_19_ + 1 y_98_ ^ 2 ] = 23290
c553: [ 1 x_38_ ^ 2 - 2 x_98_ * x_38_ + 1 x_98_ ^ 2 + 1 y_38_ ^ 2 - 2 y_98_ * y_38_ + 1 y_98_ ^ 2 ] = 2993
c554: [ 1 x_39_ ^ 2 - 2 x_98_ * x_39_ + 1 x_98_ ^ 2 + 1 y_39_ ^ 2 - 2 y_98_ * y_39_ + 1 y_98_ ^ 2 ] = 14346
c555: [ 1 x_42_ ^ 2 - 2 x_98_ * x_42_ + 1 x_98_ ^ 2 + 1 y_42_ ^ 2 - 2 y_98_ * y_42_ + 1 y_98_ ^ 2 ] = 5545
c556: [ 1 x_44_ ^ 2 - 2 x_98_ * x_44_ + 1 x_98_ ^ 2 + 1 y_44_ ^ 2 - 2 y_98_ * y_44_ + 1 y_98_ ^ 2 ] = 13960
c557: [ 1 x_49_ ^ 2 - 2 x_98_ * x_49_ + 1 x_98_ ^ 2 + 1 y_49_ ^ 2 - 2 y_98_ * y_49_ + 1 y_98_ ^ 2 ] = 7300
c558: [ 1 x_52_ ^ 2 - 2 x_98_ * x_52_ + 1 x_98_ ^ 2 + 1 y_52_ ^ 2 - 2 y_98_ * y_52_ + 1 y_98_ ^ 2 ] = 19882
c559: [ 1 x_53_ ^ 2 - 2 x_98_ * x_53_ + 1 x_98_ ^ 2 + 1 y_53_ ^ 2 - 2 y_98_ * y_53_ + 1 y_98_ ^ 2 ] = 1898
c560: [ 1 x_56_ ^ 2 - 2 x_98_ * x_56_ + 1 x_98_ ^ 2 + 1 y_56_ ^ 2 - 2 y_98_ * y_56_ + 1 y_98_ ^ 2 ] = 3389
c561: [ 1 x_57_ ^ 2 - 2 x_98_ * x_57_ + 1 x_98_ ^ 2 + 1 y_57_ ^ 2 - 2 y_98_ * y_57_ + 1 y_98_ ^ 2 ] = 14761
c562: [ 1 x_79_ ^ 2 - 2 x_98_ * x_79_ + 1 x_98_ ^ 2 + 1 y_79_ ^ 2 - 2 y_98_ * y_79_ + 1 y_98_ ^ 2 ] = 15368
c563: [ 1 x_80_ ^ 2 - 2 x_98_ * x_80_ + 1 x_98_ ^ 2 + 1 y_80_ ^ 2 - 2 y_98_ * y_80_ + 1 y_98_ ^ 2 ] = 26965
c564: [ 1 x_95_ ^ 2 - 2 x_98_ * x_95_ + 1 x_98_ ^ 2 + 1 y_95_ ^ 2 - 2 y_98_ * y_95_ + 1 y_98_ ^ 2 ] = 23360
c565: [ 1 x_97_ ^ 2 - 2 x_98_ * x_97_ + 1 x_98_ ^ 2 + 1 y_97_ ^ 2 - 2 y_98_ * y_97_ + 1 y_98_ ^ 2 ] = 1268
c566: [ 1 x_3_ ^ 2 - 2 x_99_ * x_3_ + 1 x_99_ ^ 2 + 1 y_3_ ^ 2 - 2 y_99_ * y_3_ + 1 y_99_ ^ 2 ] = 4789
c567: [ 1 x_16_ ^ 2 - 2 x_99_ * x_16_ + 1 x_99_ ^ 2 + 1 y_16_ ^ 2 - 2 y_99_ * y_16_ + 1 y_99_ ^ 2 ] = 1525
c568: [ 1 x_40_ ^ 2 - 2 x_99_ * x_40_ + 1 x_99_ ^ 2 + 1 y_40_ ^ 2 - 2 y_99_ * y_40_ + 1 y_99_ ^ 2 ] = 15908
c569: [ 1 x_71_ ^ 2 - 2 x_99_ * x_71_ + 1 x_99_ ^ 2 + 1 y_71_ ^ 2 - 2 y_99_ * y_71_ + 1 y_99_ ^ 2 ] = 8665
c570: [ 1 x_74_ ^ 2 - 2 x_99_ * x_74_ + 1 x_99_ ^ 2 + 1 y_74_ ^ 2 - 2 y_99_ * y_74_ + 1 y_99_ ^ 2 ] = 8506
c571: [ 1 x_76_ ^ 2 - 2 x_99_ * x_76_ + 1 x_99_ ^ 2 + 1 y_76_ ^ 2 - 2 y_99_ * y_76_ + 1 y_99_ ^ 2 ] = 17684
c572: [ 1 x_86_ ^ 2 - 2 x_99_ * x_86_ + 1 x_99_ ^ 2 + 1 y_86_ ^ 2 - 2 y_99_ * y_86_ + 1 y_99_ ^ 2 ] = 954
c573: [ 1 x_87_ ^ 2 - 2 x_99_ * x_87_ + 1 x_99_ ^ 2 + 1 y_87_ ^ 2 - 2 y_99_ * y_87_ + 1 y_99_ ^ 2 ] = 2792
c574: [ 1 x_89_ ^ 2 - 2 x_99_ * x_89_ + 1 x_99_ ^ 2 + 1 y_89_ ^ 2 - 2 y_99_ * y_89_ + 1 y_99_ ^ 2 ] = 1945
c575: [ 1 x_91_ ^ 2 - 2 x_99_ * x_91_ + 1 x_99_ ^ 2 + 1 y_91_ ^ 2 - 2 y_99_ * y_91_ + 1 y_99_ ^ 2 ] = 2153
c576: [ 1 x_98_ ^ 2 - 2 x_99_ * x_98_ + 1 x_99_ ^ 2 + 1 y_98_ ^ 2 - 2 y_99_ * y_98_ + 1 y_99_ ^ 2 ] = 24778
c577: [ 1 x_1_ ^ 2 - 2 x_100_ * x_1_ + 1 x_100_ ^ 2 + 1 y_1_ ^ 2 - 2 y_100_ * y_1_ + 1 y_100_ ^ 2 ] = 28645
c578: [ 1 x_10_ ^ 2 - 2 x_100_ * x_10_ + 1 x_100_ ^ 2 + 1 y_10_ ^ 2 - 2 y_100_ * y_10_ + 1 y_100_ ^ 2 ] = 11565
c579: [ 1 x_11_ ^ 2 - 2 x_100_ * x_11_ + 1 x_100_ ^ 2 + 1 y_11_ ^ 2 - 2 y_100_ * y_11_ + 1 y_100_ ^ 2 ] = 10285
c580: [ 1 x_37_ ^ 2 - 2 x_100_ * x_37_ + 1 x_100_ ^ 2 + 1 y_37_ ^ 2 - 2 y_100_ * y_37_ + 1 y_100_ ^ 2 ] = 23741
c581: [ 1 x_43_ ^ 2 - 2 x_100_ * x_43_ + 1 x_100_ ^ 2 + 1 y_43_ ^ 2 - 2 y_100_ * y_43_ + 1 y_100_ ^ 2 ] = 16609
c582: [ 1 x_52_ ^ 2 - 2 x_100_ * x_52_ + 1 x_100_ ^ 2 + 1 y_52_ ^ 2 - 2 y_100_ * y_52_ + 1 y_100_ ^ 2 ] = 50941
c583: [ 1 x_67_ ^ 2 - 2 x_100_ * x_67_ + 1 x_100_ ^ 2 + 1 y_67_ ^ 2 - 2 y_100_ * y_67_ + 1 y_100_ ^ 2 ] = 31025
c584: [ 1 x_84_ ^ 2 - 2 x_100_ * x_84_ + 1 x_100_ ^ 2 + 1 y_84_ ^ 2 - 2 y_100_ * y_84_ + 1 y_100_ ^ 2 ] = 9613
c585: [ 1 x_99_ ^ 2 - 2 x_100_ * x_99_ + 1 x_100_ ^ 2 + 1 y_99_ ^ 2 - 2 y_100_ * y_99_ + 1 y_100_ ^ 2 ] = 14473
Bounds
-85 <= x_1_ <= 37
-80 <= x_2_ <= -18
-116 <= x_3_ <= 15
-68 <= x_4_ <= 57
-84 <= x_5_ <= 73
-92 <= x_6_ <= -6
-70 <= x_7_ <= 62
-179 <= x_8_ <= 81
-156 <= x_9_ <= -10
-119 <= x_10_ <= -8
-144 <= x_11_ <= 74
-146 <= x_12_ <= 63
-77 <= x_13_ <= 4
-203 <= x_14_ <= 132
-189 <= x_15_ <= 109
-110 <= x_16_ <= 71
-156 <= x_17_ <= 78
-125 <= x_18_ <= 106
-73 <= x_19_ <= 55
-48 <= x_20_ <= 67
-120 <= x_21_ <= 43
-43 <= x_22_ <= 38
-129 <= x_23_ <= -47
-131 <= x_24_ <= -16
-99 <= x_25_ <= 61
-156 <= x_26_ <= 58
-128 <= x_27_ <= 105
-135 <= x_28_ <= 20
-126 <= x_29_ <= 45
-108 <= x_30_ <= 31
-119 <= x_31_ <= -57
-122 <= x_32_ <= 21
-128 <= x_33_ <= 16
-78 <= x_34_ <= 62
-100 <= x_35_ <= 2
-122 <= x_36_ <= 67
x_37_ = -88
-145 <= x_38_ <= -26
-50 <= x_39_ <= 46
-131 <= x_40_ <= 4
-143 <= x_41_ <= 73
-73 <= x_42_ <= 75
x_43_ = 19
-85 <= x_44_ <= 123
-157 <= x_45_ <= 76
-57 <= x_46_ <= 95
-93 <= x_47_ <= 53
-147 <= x_48_ <= 98
-60 <= x_49_ <= 55
-111 <= x_50_ <= 107
-73 <= x_51_ <= 78
-97 <= x_52_ <= 106
-106 <= x_53_ <= 8
-51 <= x_54_ <= -47
x_55_ = -49
-121 <= x_56_ <= 23
-105 <= x_57_ <= 88
-108 <= x_58_ <= 96
-74 <= x_59_ <= 61
-67 <= x_60_ <= 55
-98 <= x_61_ <= 87
-87 <= x_62_ <= 42
-94 <= x_63_ <= 88
-55 <= x_64_ <= 86
-86 <= x_65_ <= 70
-157 <= x_66_ <= 88
-62 <= x_67_ <= 57
-75 <= x_68_ <= 99
-93 <= x_69_ <= 81
-106 <= x_70_ <= 66
-69 <= x_71_ <= 64
-205 <= x_72_ <= 126
-163 <= x_73_ <= 16
-80 <= x_74_ <= 86
-135 <= x_75_ <= 118
-96 <= x_76_ <= 47
-6 <= x_77_ <= 1
-119 <= x_78_ <= 77
-54 <= x_79_ <= 50
-109 <= x_80_ <= 93
-105 <= x_81_ <= -22
-150 <= x_82_ <= 23
-151 <= x_83_ <= 4
-139 <= x_84_ <= 12
-194 <= x_85_ <= 82
-72 <= x_86_ <= 41
-146 <= x_87_ <= 103
-82 <= x_88_ <= 36
-98 <= x_89_ <= 103
-84 <= x_90_ <= 89
-128 <= x_91_ <= 39
-118 <= x_92_ <= 20
-97 <= x_93_ <= 75
-39 <= x_94_ <= 75
-82 <= x_95_ <= 93
-72 <= x_96_ <= 59
-159 <= x_97_ <= 32
-146 <= x_98_ <= 29
-103 <= x_99_ <= 72
-109 <= x_100_ <= 66
-73 <= y_1_ <= 86
-31 <= y_2_ <= 31
-101 <= y_3_ <= 19
-56 <= y_4_ <= 61
-72 <= y_5_ <= 77
-43 <= y_6_ <= 43
-58 <= y_7_ <= 78
-130 <= y_8_ <= 109
-138 <= y_9_ <= -6
-107 <= y_10_ <= -4
-132 <= y_11_ <= 78
-134 <= y_12_ <= 67
-65 <= y_13_ <= 8
-191 <= y_14_ <= 136
-177 <= y_15_ <= 113
-98 <= y_16_ <= 75
-144 <= y_17_ <= 82
-113 <= y_18_ <= 110
-61 <= y_19_ <= 99
-36 <= y_20_ <= 75
-108 <= y_21_ <= 47
-31 <= y_22_ <= 49
-122 <= y_23_ <= -43
-119 <= y_24_ <= -12
-87 <= y_25_ <= 89
-107 <= y_26_ <= 107
-116 <= y_27_ <= 120
-108 <= y_28_ <= 24
-114 <= y_29_ <= 49
-80 <= y_30_ <= 80
-115 <= y_31_ <= -53
-110 <= y_32_ <= 25
-116 <= y_33_ <= 20
-66 <= y_34_ <= 66
-51 <= y_35_ <= 31
-110 <= y_36_ <= 82
y_37_ = -84
-133 <= y_38_ <= -22
-38 <= y_39_ <= 53
-119 <= y_40_ <= 8
-131 <= y_41_ <= 77
-61 <= y_42_ <= 97
y_43_ = 31
-73 <= y_44_ <= 129
-125 <= y_45_ <= 103
-45 <= y_46_ <= 107
-81 <= y_47_ <= 80
-135 <= y_48_ <= 102
-48 <= y_49_ <= 87
-99 <= y_50_ <= 127
-61 <= y_51_ <= 99
-85 <= y_52_ <= 125
-57 <= y_53_ <= 57
-2 <= y_54_ <= 2
y_55_ = 0
-72 <= y_56_ <= 72
-93 <= y_57_ <= 132
-96 <= y_58_ <= 115
-62 <= y_59_ <= 110
-55 <= y_60_ <= 104
-86 <= y_61_ <= 91
-75 <= y_62_ <= 91
-82 <= y_63_ <= 121
-43 <= y_64_ <= 105
-74 <= y_65_ <= 74
-137 <= y_66_ <= 118
-50 <= y_67_ <= 68
-63 <= y_68_ <= 103
-81 <= y_69_ <= 85
-94 <= y_70_ <= 85
-57 <= y_71_ <= 75
-193 <= y_72_ <= 130
-151 <= y_73_ <= 20
-68 <= y_74_ <= 95
-123 <= y_75_ <= 146
-84 <= y_76_ <= 51
6 <= y_77_ <= 50
-107 <= y_78_ <= 81
-42 <= y_79_ <= 67
-97 <= y_80_ <= 117
-93 <= y_81_ <= -18
-138 <= y_82_ <= 27
-139 <= y_83_ <= 8
-127 <= y_84_ <= 16
-182 <= y_85_ <= 86
-60 <= y_86_ <= 90
-134 <= y_87_ <= 107
-70 <= y_88_ <= 85
-86 <= y_89_ <= 123
-72 <= y_90_ <= 109
-88 <= y_91_ <= 54
-69 <= y_92_ <= 49
-85 <= y_93_ <= 82
-27 <= y_94_ <= 89
-70 <= y_95_ <= 97
-60 <= y_96_ <= 63
-136 <= y_97_ <= 36
-100 <= y_98_ <= 33
-91 <= y_99_ <= 88
-97 <= y_100_ <= 70
General
x_1_
x_2_
x_3_
x_4_
x_5_
x_6_
x_7_
x_8_
x_9_
x_10_
x_11_
x_12_
x_13_
x_14_
x_15_
x_16_
x_17_
x_18_
x_19_
x_20_
x_21_
x_22_
x_23_
x_24_
x_25_
x_26_
x_27_
x_28_
x_29_
x_30_
x_31_
x_32_
x_33_
x_34_
x_35_
x_36_
x_37_
x_38_
x_39_
x_40_
x_41_
x_42_
x_43_
x_44_
x_45_
x_46_
x_47_
x_48_
x_49_
x_50_
x_51_
x_52_
x_53_
x_54_
x_55_
x_56_
x_57_
x_58_
x_59_
x_60_
x_61_
x_62_
x_63_
x_64_
x_65_
x_66_
x_67_
x_68_
x_69_
x_70_
x_71_
x_72_
x_73_
x_74_
x_75_
x_76_
x_77_
x_78_
x_79_
x_80_
x_81_
x_82_
x_83_
x_84_
x_85_
x_86_
x_87_
x_88_
x_89_
x_90_
x_91_
x_92_
x_93_
x_94_
x_95_
x_96_
x_97_
x_98_
x_99_
x_100_
y_1_
y_2_
y_3_
y_4_
y_5_
y_6_
y_7_
y_8_
y_9_
y_10_
y_11_
y_12_
y_13_
y_14_
y_15_
y_16_
y_17_
y_18_
y_19_
y_20_
y_21_
y_22_
y_23_
y_24_
y_25_
y_26_
y_27_
y_28_
y_29_
y_30_
y_31_
y_32_
y_33_
y_34_
y_35_
y_36_
y_37_
y_38_
y_39_
y_40_
y_41_
y_42_
y_43_
y_44_
y_45_
y_46_
y_47_
y_48_
y_49_
y_50_
y_51_
y_52_
y_53_
y_54_
y_55_
y_56_
y_57_
y_58_
y_59_
y_60_
y_61_
y_62_
y_63_
y_64_
y_65_
y_66_
y_67_
y_68_
y_69_
y_70_
y_71_
y_72_
y_73_
y_74_
y_75_
y_76_
y_77_
y_78_
y_79_
y_80_
y_81_
y_82_
y_83_
y_84_
y_85_
y_86_
y_87_
y_88_
y_89_
y_90_
y_91_
y_92_
y_93_
y_94_
y_95_
y_96_
y_97_
y_98_
y_99_
y_100_
End
