minimize
obj: 
subject to
c1: -48 x_1_ + 76 y_1_ + [ 1 x_1_ ^ 2 + 1 y_1_ ^ 2 ] <= 30417.76302293541
c2: -48 x_2_ + 76 y_2_ + [ 1 x_2_ ^ 2 + 1 y_2_ ^ 2 ] <= 4158.597573014871
c3: -48 x_3_ + 76 y_3_ + [ 1 x_3_ ^ 2 + 1 y_3_ ^ 2 ] <= 13536.10521537655
c4: -48 x_4_ + 76 y_4_ + [ 1 x_4_ ^ 2 + 1 y_4_ ^ 2 ] <= 15610.4196283417
c5: -48 x_5_ + 76 y_5_ + [ 1 x_5_ ^ 2 + 1 y_5_ ^ 2 ] <= 28064.61984933107
c6: -48 x_6_ + 76 y_6_ + [ 1 x_6_ ^ 2 + 1 y_6_ ^ 2 ] <= 18945.00530390471
c7: -48 x_7_ + 76 y_7_ + [ 1 x_7_ ^ 2 + 1 y_7_ ^ 2 ] <= 14033.700339642295
c8: -48 x_8_ + 76 y_8_ + [ 1 x_8_ ^ 2 + 1 y_8_ ^ 2 ] <= 28372.776758758864
c9: -48 x_9_ + 76 y_9_ + [ 1 x_9_ ^ 2 + 1 y_9_ ^ 2 ] <= 15592.968478869727
c10: -48 x_10_ + 76 y_10_ + [ 1 x_10_ ^ 2 + 1 y_10_ ^ 2 ] <= 22781.953194289985
c11: -48 x_11_ + 76 y_11_ + [ 1 x_11_ ^ 2 + 1 y_11_ ^ 2 ] <= 23397.7916994253
c12: -48 x_12_ + 76 y_12_ + [ 1 x_12_ ^ 2 + 1 y_12_ ^ 2 ] <= 13258.660840310995
c13: -48 x_13_ + 76 y_13_ + [ 1 x_13_ ^ 2 + 1 y_13_ ^ 2 ] <= 30167.39728517506
c14: -48 x_14_ + 76 y_14_ + [ 1 x_14_ ^ 2 + 1 y_14_ ^ 2 ] <= 28932.536102238417
c15: -48 x_15_ + 76 y_15_ + [ 1 x_15_ ^ 2 + 1 y_15_ ^ 2 ] <= 11393.949245023863
c16: -48 x_16_ + 76 y_16_ + [ 1 x_16_ ^ 2 + 1 y_16_ ^ 2 ] <= 28088.22359641541
c17: -48 x_17_ + 76 y_17_ + [ 1 x_17_ ^ 2 + 1 y_17_ ^ 2 ] <= 48693.73667161394
c18: -48 x_18_ + 76 y_18_ + [ 1 x_18_ ^ 2 + 1 y_18_ ^ 2 ] <= 32428.61811314988
c19: -48 x_19_ + 76 y_19_ + [ 1 x_19_ ^ 2 + 1 y_19_ ^ 2 ] <= 27870.648219481005
c20: -48 x_20_ + 76 y_20_ + [ 1 x_20_ ^ 2 + 1 y_20_ ^ 2 ] <= 13794.579999999996
c21: -48 x_21_ + 76 y_21_ + [ 1 x_21_ ^ 2 + 1 y_21_ ^ 2 ] <= 9817.526777566163
c22: -48 x_22_ + 76 y_22_ + [ 1 x_22_ ^ 2 + 1 y_22_ ^ 2 ] <= 34620.891399075954
c23: -48 x_23_ + 76 y_23_ + [ 1 x_23_ ^ 2 + 1 y_23_ ^ 2 ] <= 15259.828064557765
c24: -48 x_24_ + 76 y_24_ + [ 1 x_24_ ^ 2 + 1 y_24_ ^ 2 ] <= 20237.370000000003
c25: -48 x_25_ + 76 y_25_ + [ 1 x_25_ ^ 2 + 1 y_25_ ^ 2 ] <= 7984.598051338664
c26: -48 x_26_ + 76 y_26_ + [ 1 x_26_ ^ 2 + 1 y_26_ ^ 2 ] <= 9464.724190062048
c27: -48 x_27_ + 76 y_27_ + [ 1 x_27_ ^ 2 + 1 y_27_ ^ 2 ] <= 23776.65379452989
c28: -48 x_28_ + 76 y_28_ + [ 1 x_28_ ^ 2 + 1 y_28_ ^ 2 ] <= 19830.54179151907
c29: -48 x_29_ + 76 y_29_ + [ 1 x_29_ ^ 2 + 1 y_29_ ^ 2 ] <= 47164.79971640794
c30: -48 x_30_ + 76 y_30_ + [ 1 x_30_ ^ 2 + 1 y_30_ ^ 2 ] <= 35973.91401823785
c31: -48 x_31_ + 76 y_31_ + [ 1 x_31_ ^ 2 + 1 y_31_ ^ 2 ] <= 8150.294493940573
c32: -48 x_32_ + 76 y_32_ + [ 1 x_32_ ^ 2 + 1 y_32_ ^ 2 ] <= 40563.481069056616
c33: -48 x_33_ + 76 y_33_ + [ 1 x_33_ ^ 2 + 1 y_33_ ^ 2 ] <= 19204.469674404703
c34: -48 x_34_ + 76 y_34_ + [ 1 x_34_ ^ 2 + 1 y_34_ ^ 2 ] <= 7533.267339633065
c35: -48 x_35_ + 76 y_35_ + [ 1 x_35_ ^ 2 + 1 y_35_ ^ 2 ] <= 13445.755830494314
c36: -48 x_36_ + 76 y_36_ + [ 1 x_36_ ^ 2 + 1 y_36_ ^ 2 ] <= 2959.2999999999984
c37: -48 x_37_ + 76 y_37_ + [ 1 x_37_ ^ 2 + 1 y_37_ ^ 2 ] <= 5625.700000000001
c38: -48 x_38_ + 76 y_38_ + [ 1 x_38_ ^ 2 + 1 y_38_ ^ 2 ] <= 35103.48010014999
c39: -48 x_39_ + 76 y_39_ + [ 1 x_39_ ^ 2 + 1 y_39_ ^ 2 ] <= 25065.09569667242
c40: -48 x_40_ + 76 y_40_ + [ 1 x_40_ ^ 2 + 1 y_40_ ^ 2 ] <= 21015.903040765108
c41: -48 x_41_ + 76 y_41_ + [ 1 x_41_ ^ 2 + 1 y_41_ ^ 2 ] <= 12718.660292049488
c42: -48 x_42_ + 76 y_42_ + [ 1 x_42_ ^ 2 + 1 y_42_ ^ 2 ] <= 952.4566181508862
c43: -48 x_43_ + 76 y_43_ + [ 1 x_43_ ^ 2 + 1 y_43_ ^ 2 ] <= 9192.009999999998
c44: -48 x_44_ + 76 y_44_ + [ 1 x_44_ ^ 2 + 1 y_44_ ^ 2 ] <= 18988.203965146444
c45: -48 x_45_ + 76 y_45_ + [ 1 x_45_ ^ 2 + 1 y_45_ ^ 2 ] <= 25714.84426643167
c46: -48 x_46_ + 76 y_46_ + [ 1 x_46_ ^ 2 + 1 y_46_ ^ 2 ] <= 21660.243551179647
c47: -48 x_47_ + 76 y_47_ + [ 1 x_47_ ^ 2 + 1 y_47_ ^ 2 ] <= 40100.952812980635
c48: -48 x_48_ + 76 y_48_ + [ 1 x_48_ ^ 2 + 1 y_48_ ^ 2 ] <= 8962.468984884765
c49: -48 x_49_ + 76 y_49_ + [ 1 x_49_ ^ 2 + 1 y_49_ ^ 2 ] <= 3434.053236301771
c50: -48 x_50_ + 76 y_50_ + [ 1 x_50_ ^ 2 + 1 y_50_ ^ 2 ] <= 23604.244688460367
c51: -48 x_51_ + 76 y_51_ + [ 1 x_51_ ^ 2 + 1 y_51_ ^ 2 ] <= 17414.22649773952
c52: -48 x_52_ + 76 y_52_ + [ 1 x_52_ ^ 2 + 1 y_52_ ^ 2 ] <= 21987.517415310722
c53: -48 x_53_ + 76 y_53_ + [ 1 x_53_ ^ 2 + 1 y_53_ ^ 2 ] <= 19304.354436686448
c54: -48 x_54_ + 76 y_54_ + [ 1 x_54_ ^ 2 + 1 y_54_ ^ 2 ] <= 9631.059478258061
c55: -48 x_55_ + 76 y_55_ + [ 1 x_55_ ^ 2 + 1 y_55_ ^ 2 ] <= 3492.579999999999
c56: -48 x_56_ + 76 y_56_ + [ 1 x_56_ ^ 2 + 1 y_56_ ^ 2 ] <= 22765.529498135267
c57: -48 x_57_ + 76 y_57_ + [ 1 x_57_ ^ 2 + 1 y_57_ ^ 2 ] <= 21465.353189963134
c58: -48 x_58_ + 76 y_58_ + [ 1 x_58_ ^ 2 + 1 y_58_ ^ 2 ] <= 9866.526466272428
c59: -48 x_59_ + 76 y_59_ + [ 1 x_59_ ^ 2 + 1 y_59_ ^ 2 ] <= 6081.209999999998
c60: -48 x_60_ + 76 y_60_ + [ 1 x_60_ ^ 2 + 1 y_60_ ^ 2 ] <= 4655.015158521342
c61: -48 x_61_ + 76 y_61_ + [ 1 x_61_ ^ 2 + 1 y_61_ ^ 2 ] <= 10583.572519379117
c62: -48 x_62_ + 76 y_62_ + [ 1 x_62_ ^ 2 + 1 y_62_ ^ 2 ] <= 4248.68374531812
c63: -48 x_63_ + 76 y_63_ + [ 1 x_63_ ^ 2 + 1 y_63_ ^ 2 ] <= 25666.17878137028
c64: -48 x_64_ + 76 y_64_ + [ 1 x_64_ ^ 2 + 1 y_64_ ^ 2 ] <= 12721.959999999997
c65: -48 x_66_ + 76 y_66_ + [ 1 x_66_ ^ 2 + 1 y_66_ ^ 2 ] <= 896.8799999999997
c66: -48 x_67_ + 76 y_67_ + [ 1 x_67_ ^ 2 + 1 y_67_ ^ 2 ] <= 7654.336498020428
c67: -48 x_68_ + 76 y_68_ + [ 1 x_68_ ^ 2 + 1 y_68_ ^ 2 ] <= -781.74
c68: -48 x_69_ + 76 y_69_ + [ 1 x_69_ ^ 2 + 1 y_69_ ^ 2 ] <= 14375.684973357147
c69: -48 x_70_ + 76 y_70_ + [ 1 x_70_ ^ 2 + 1 y_70_ ^ 2 ] <= 23822.343829432535
c70: -48 x_71_ + 76 y_71_ + [ 1 x_71_ ^ 2 + 1 y_71_ ^ 2 ] <= 5243.732302353761
c71: -48 x_72_ + 76 y_72_ + [ 1 x_72_ ^ 2 + 1 y_72_ ^ 2 ] <= 5581.5218992668915
c72: -48 x_73_ + 76 y_73_ + [ 1 x_73_ ^ 2 + 1 y_73_ ^ 2 ] <= 13298.7174803779
c73: -48 x_74_ + 76 y_74_ + [ 1 x_74_ ^ 2 + 1 y_74_ ^ 2 ] <= 16962.050098991724
c74: -48 x_75_ + 76 y_75_ + [ 1 x_75_ ^ 2 + 1 y_75_ ^ 2 ] <= 14008.611539944115
c75: -48 x_76_ + 76 y_76_ + [ 1 x_76_ ^ 2 + 1 y_76_ ^ 2 ] <= 23218.602845051984
c76: -48 x_77_ + 76 y_77_ + [ 1 x_77_ ^ 2 + 1 y_77_ ^ 2 ] <= 16284.72687351692
c77: -48 x_78_ + 76 y_78_ + [ 1 x_78_ ^ 2 + 1 y_78_ ^ 2 ] <= 17272.132462936053
c78: -48 x_79_ + 76 y_79_ + [ 1 x_79_ ^ 2 + 1 y_79_ ^ 2 ] <= 15418.66
c79: -48 x_80_ + 76 y_80_ + [ 1 x_80_ ^ 2 + 1 y_80_ ^ 2 ] <= 9017.650796296837
c80: -48 x_81_ + 76 y_81_ + [ 1 x_81_ ^ 2 + 1 y_81_ ^ 2 ] <= 7060.02704072602
c81: -48 x_82_ + 76 y_82_ + [ 1 x_82_ ^ 2 + 1 y_82_ ^ 2 ] <= 12590.756700880074
c82: -48 x_83_ + 76 y_83_ + [ 1 x_83_ ^ 2 + 1 y_83_ ^ 2 ] <= 27530.28618593196
c83: -48 x_84_ + 76 y_84_ + [ 1 x_84_ ^ 2 + 1 y_84_ ^ 2 ] <= 2214.0199303825157
c84: -48 x_85_ + 76 y_85_ + [ 1 x_85_ ^ 2 + 1 y_85_ ^ 2 ] <= 10294.929999999997
c85: -48 x_86_ + 76 y_86_ + [ 1 x_86_ ^ 2 + 1 y_86_ ^ 2 ] <= 21166.244768613717
c86: -48 x_87_ + 76 y_87_ + [ 1 x_87_ ^ 2 + 1 y_87_ ^ 2 ] <= 4180.175283171826
c87: -48 x_88_ + 76 y_88_ + [ 1 x_88_ ^ 2 + 1 y_88_ ^ 2 ] <= 9328.113057832426
c88: -48 x_89_ + 76 y_89_ + [ 1 x_89_ ^ 2 + 1 y_89_ ^ 2 ] <= 23115.1975764117
c89: -48 x_90_ + 76 y_90_ + [ 1 x_90_ ^ 2 + 1 y_90_ ^ 2 ] <= 26586.541285837495
c90: -48 x_91_ + 76 y_91_ + [ 1 x_91_ ^ 2 + 1 y_91_ ^ 2 ] <= 3545.4376269367594
c91: -48 x_92_ + 76 y_92_ + [ 1 x_92_ ^ 2 + 1 y_92_ ^ 2 ] <= 20031.056668780027
c92: -48 x_93_ + 76 y_93_ + [ 1 x_93_ ^ 2 + 1 y_93_ ^ 2 ] <= 13858.324582964695
c93: -48 x_94_ + 76 y_94_ + [ 1 x_94_ ^ 2 + 1 y_94_ ^ 2 ] <= 26138.737855208226
c94: -48 x_95_ + 76 y_95_ + [ 1 x_95_ ^ 2 + 1 y_95_ ^ 2 ] <= 39243.37122100099
c95: -48 x_96_ + 76 y_96_ + [ 1 x_96_ ^ 2 + 1 y_96_ ^ 2 ] <= 14111.688926966945
c96: -48 x_97_ + 76 y_97_ + [ 1 x_97_ ^ 2 + 1 y_97_ ^ 2 ] <= 1084.7399999999998
c97: -48 x_98_ + 76 y_98_ + [ 1 x_98_ ^ 2 + 1 y_98_ ^ 2 ] <= 10853.416800200303
c98: -48 x_99_ + 76 y_99_ + [ 1 x_99_ ^ 2 + 1 y_99_ ^ 2 ] <= 14351.401329878227
c99: -48 x_100_ + 76 y_100_ + [ 1 x_100_ ^ 2 + 1 y_100_ ^ 2 ] <= 14119.1617962818
c100: 34 x_1_ - 164 y_1_ + [ 1 x_1_ ^ 2 + 1 y_1_ ^ 2 ] <= 11818.95664868554
c101: 34 x_2_ - 164 y_2_ + [ 1 x_2_ ^ 2 + 1 y_2_ ^ 2 ] <= 15058.530000000002
c102: 34 x_3_ - 164 y_3_ + [ 1 x_3_ ^ 2 + 1 y_3_ ^ 2 ] <= 27285.45866984967
c103: 34 x_4_ - 164 y_4_ + [ 1 x_4_ ^ 2 + 1 y_4_ ^ 2 ] <= 17782.996587398327
c104: 34 x_5_ - 164 y_5_ + [ 1 x_5_ ^ 2 + 1 y_5_ ^ 2 ] <= 8120.944112468336
c105: 34 x_6_ - 164 y_6_ + [ 1 x_6_ ^ 2 + 1 y_6_ ^ 2 ] <= 16535.266583427398
c106: 34 x_7_ - 164 y_7_ + [ 1 x_7_ ^ 2 + 1 y_7_ ^ 2 ] <= 11932.944958032036
c107: 34 x_8_ - 164 y_8_ + [ 1 x_8_ ^ 2 + 1 y_8_ ^ 2 ] <= 8906.733280226314
c108: 34 x_9_ - 164 y_9_ + [ 1 x_9_ ^ 2 + 1 y_9_ ^ 2 ] <= 3021.5339553433514
c109: 34 x_10_ - 164 y_10_ + [ 1 x_10_ ^ 2 + 1 y_10_ ^ 2 ] <= 15152.43589509729
c110: 34 x_11_ - 164 y_11_ + [ 1 x_11_ ^ 2 + 1 y_11_ ^ 2 ] <= 29630.86765567845
c111: 34 x_12_ - 164 y_12_ + [ 1 x_12_ ^ 2 + 1 y_12_ ^ 2 ] <= 18288.717203505523
c112: 34 x_13_ - 164 y_13_ + [ 1 x_13_ ^ 2 + 1 y_13_ ^ 2 ] <= 24605.474489339824
c113: 34 x_14_ - 164 y_14_ + [ 1 x_14_ ^ 2 + 1 y_14_ ^ 2 ] <= 9899.45
c114: 34 x_15_ - 164 y_15_ + [ 1 x_15_ ^ 2 + 1 y_15_ ^ 2 ] <= 2798.9902697293146
c115: 34 x_16_ - 164 y_16_ + [ 1 x_16_ ^ 2 + 1 y_16_ ^ 2 ] <= 12585.61656590606
c116: 34 x_17_ - 164 y_17_ + [ 1 x_17_ ^ 2 + 1 y_17_ ^ 2 ] <= 21858.859999999997
c117: 34 x_18_ - 164 y_18_ + [ 1 x_18_ ^ 2 + 1 y_18_ ^ 2 ] <= 20962.121909428854
c118: 34 x_19_ - 164 y_19_ + [ 1 x_19_ ^ 2 + 1 y_19_ ^ 2 ] <= 15244.886384387133
c119: 34 x_20_ - 164 y_20_ + [ 1 x_20_ ^ 2 + 1 y_20_ ^ 2 ] <= -2866.95
c120: 34 x_21_ - 164 y_21_ + [ 1 x_21_ ^ 2 + 1 y_21_ ^ 2 ] <= 15565.633897297965
c121: 34 x_22_ - 164 y_22_ + [ 1 x_22_ ^ 2 + 1 y_22_ ^ 2 ] <= 18411.71533227881
c122: 34 x_23_ - 164 y_23_ + [ 1 x_23_ ^ 2 + 1 y_23_ ^ 2 ] <= 22209.329999999994
c123: 34 x_24_ - 164 y_24_ + [ 1 x_24_ ^ 2 + 1 y_24_ ^ 2 ] <= 6365.828541911529
c124: 34 x_25_ - 164 y_25_ + [ 1 x_25_ ^ 2 + 1 y_25_ ^ 2 ] <= 10416.091789739545
c125: 34 x_26_ - 164 y_26_ + [ 1 x_26_ ^ 2 + 1 y_26_ ^ 2 ] <= 22877.515010396844
c126: 34 x_27_ - 164 y_27_ + [ 1 x_27_ ^ 2 + 1 y_27_ ^ 2 ] <= 22581.54998574993
c127: 34 x_28_ - 164 y_28_ + [ 1 x_28_ ^ 2 + 1 y_28_ ^ 2 ] <= 12821.315817438055
c128: 34 x_29_ - 164 y_29_ + [ 1 x_29_ ^ 2 + 1 y_29_ ^ 2 ] <= 33116.43676627764
c129: 34 x_30_ - 164 y_30_ + [ 1 x_30_ ^ 2 + 1 y_30_ ^ 2 ] <= 11019.522544604566
c130: 34 x_31_ - 164 y_31_ + [ 1 x_31_ ^ 2 + 1 y_31_ ^ 2 ] <= 10634.575108616347
c131: 34 x_32_ - 164 y_32_ + [ 1 x_32_ ^ 2 + 1 y_32_ ^ 2 ] <= 28559.770480273066
c132: 34 x_33_ - 164 y_33_ + [ 1 x_33_ ^ 2 + 1 y_33_ ^ 2 ] <= 23305.027916632604
c133: 34 x_34_ - 164 y_34_ + [ 1 x_34_ ^ 2 + 1 y_34_ ^ 2 ] <= 8907.217028736091
c134: 34 x_35_ - 164 y_35_ + [ 1 x_35_ ^ 2 + 1 y_35_ ^ 2 ] <= -5538.4
c135: 34 x_36_ - 164 y_36_ + [ 1 x_36_ ^ 2 + 1 y_36_ ^ 2 ] <= 17512.06405307142
c136: 34 x_37_ - 164 y_37_ + [ 1 x_37_ ^ 2 + 1 y_37_ ^ 2 ] <= 39380.05477529368
c137: 34 x_38_ - 164 y_38_ + [ 1 x_38_ ^ 2 + 1 y_38_ ^ 2 ] <= 13870.928401051908
c138: 34 x_39_ - 164 y_39_ + [ 1 x_39_ ^ 2 + 1 y_39_ ^ 2 ] <= 31627.472385065063
c139: 34 x_40_ - 164 y_40_ + [ 1 x_40_ ^ 2 + 1 y_40_ ^ 2 ] <= 3685.4170912038608
c140: 34 x_41_ - 164 y_41_ + [ 1 x_41_ ^ 2 + 1 y_41_ ^ 2 ] <= 22323.878224943976
c141: 34 x_42_ - 164 y_42_ + [ 1 x_42_ ^ 2 + 1 y_42_ ^ 2 ] <= 472.1114346587283
c142: 34 x_43_ - 164 y_43_ + [ 1 x_43_ ^ 2 + 1 y_43_ ^ 2 ] <= -6526.18
c143: 34 x_44_ - 164 y_44_ + [ 1 x_44_ ^ 2 + 1 y_44_ ^ 2 ] <= 34182.74199273423
c144: 34 x_45_ - 164 y_45_ + [ 1 x_45_ ^ 2 + 1 y_45_ ^ 2 ] <= 7836.075595979319
c145: 34 x_46_ - 164 y_46_ + [ 1 x_46_ ^ 2 + 1 y_46_ ^ 2 ] <= 7330.29090649621
c146: 34 x_47_ - 164 y_47_ + [ 1 x_47_ ^ 2 + 1 y_47_ ^ 2 ] <= 35224.581533891556
c147: 34 x_48_ - 164 y_48_ + [ 1 x_48_ ^ 2 + 1 y_48_ ^ 2 ] <= 9753.39924577649
c148: 34 x_49_ - 164 y_49_ + [ 1 x_49_ ^ 2 + 1 y_49_ ^ 2 ] <= 4190.769516986198
c149: 34 x_50_ - 164 y_50_ + [ 1 x_50_ ^ 2 + 1 y_50_ ^ 2 ] <= 29878.670386161633
c150: 34 x_51_ - 164 y_51_ + [ 1 x_51_ ^ 2 + 1 y_51_ ^ 2 ] <= 6022.8234053182605
c151: 34 x_52_ - 164 y_52_ + [ 1 x_52_ ^ 2 + 1 y_52_ ^ 2 ] <= -447.9215850326136
c152: 34 x_53_ - 164 y_53_ + [ 1 x_53_ ^ 2 + 1 y_53_ ^ 2 ] <= 37264.46318622863
c153: 34 x_54_ - 164 y_54_ + [ 1 x_54_ ^ 2 + 1 y_54_ ^ 2 ] <= 15794.545001965587
c154: 34 x_55_ - 164 y_55_ + [ 1 x_55_ ^ 2 + 1 y_55_ ^ 2 ] <= 26690.13839410789
c155: 34 x_56_ - 164 y_56_ + [ 1 x_56_ ^ 2 + 1 y_56_ ^ 2 ] <= 15933.107668334389
c156: 34 x_57_ - 164 y_57_ + [ 1 x_57_ ^ 2 + 1 y_57_ ^ 2 ] <= -2192.956131912041
c157: 34 x_58_ - 164 y_58_ + [ 1 x_58_ ^ 2 + 1 y_58_ ^ 2 ] <= 9213.659999999998
c158: 34 x_59_ - 164 y_59_ + [ 1 x_59_ ^ 2 + 1 y_59_ ^ 2 ] <= 32388.458945884813
c159: 34 x_60_ - 164 y_60_ + [ 1 x_60_ ^ 2 + 1 y_60_ ^ 2 ] <= 5914.022366628104
c160: 34 x_61_ - 164 y_61_ + [ 1 x_61_ ^ 2 + 1 y_61_ ^ 2 ] <= 7009.50857898444
c161: 34 x_62_ - 164 y_62_ + [ 1 x_62_ ^ 2 + 1 y_62_ ^ 2 ] <= 3774.496890273922
c162: 34 x_63_ - 164 y_63_ + [ 1 x_63_ ^ 2 + 1 y_63_ ^ 2 ] <= 16100.17968747774
c163: 34 x_64_ - 164 y_64_ + [ 1 x_64_ ^ 2 + 1 y_64_ ^ 2 ] <= 29302.912125413975
c164: 34 x_65_ - 164 y_65_ + [ 1 x_65_ ^ 2 + 1 y_65_ ^ 2 ] <= 9358.401329878227
c165: 34 x_66_ - 164 y_66_ + [ 1 x_66_ ^ 2 + 1 y_66_ ^ 2 ] <= 17655.290986779666
c166: 34 x_67_ - 164 y_67_ + [ 1 x_67_ ^ 2 + 1 y_67_ ^ 2 ] <= 23823.773102957955
c167: 34 x_68_ - 164 y_68_ + [ 1 x_68_ ^ 2 + 1 y_68_ ^ 2 ] <= 4190.769516986198
c168: 34 x_69_ - 164 y_69_ + [ 1 x_69_ ^ 2 + 1 y_69_ ^ 2 ] <= 28495.509775829443
c169: 34 x_70_ - 164 y_70_ + [ 1 x_70_ ^ 2 + 1 y_70_ ^ 2 ] <= 844.7999999999984
c170: 34 x_71_ - 164 y_71_ + [ 1 x_71_ ^ 2 + 1 y_71_ ^ 2 ] <= 11535.722082104581
c171: 34 x_72_ - 164 y_72_ + [ 1 x_72_ ^ 2 + 1 y_72_ ^ 2 ] <= 16683.764409229447
c172: 34 x_73_ - 164 y_73_ + [ 1 x_73_ ^ 2 + 1 y_73_ ^ 2 ] <= 22918.06697456928
c173: 34 x_74_ - 164 y_74_ + [ 1 x_74_ ^ 2 + 1 y_74_ ^ 2 ] <= 4913.926966201501
c174: 34 x_75_ - 164 y_75_ + [ 1 x_75_ ^ 2 + 1 y_75_ ^ 2 ] <= 18285.812691763753
c175: 34 x_76_ - 164 y_76_ + [ 1 x_76_ ^ 2 + 1 y_76_ ^ 2 ] <= 7452.986985346013
c176: 34 x_77_ - 164 y_77_ + [ 1 x_77_ ^ 2 + 1 y_77_ ^ 2 ] <= 5946.9621773818635
c177: 34 x_78_ - 164 y_78_ + [ 1 x_78_ ^ 2 + 1 y_78_ ^ 2 ] <= 11839.251254156774
c178: 34 x_79_ - 164 y_79_ + [ 1 x_79_ ^ 2 + 1 y_79_ ^ 2 ] <= -2008.0136965900665
c179: 34 x_80_ - 164 y_80_ + [ 1 x_80_ ^ 2 + 1 y_80_ ^ 2 ] <= 7947.866235054926
c180: 34 x_81_ - 164 y_81_ + [ 1 x_81_ ^ 2 + 1 y_81_ ^ 2 ] <= 18485.55662284193
c181: 34 x_82_ - 164 y_82_ + [ 1 x_82_ ^ 2 + 1 y_82_ ^ 2 ] <= 25667.916318594718
c182: 34 x_83_ - 164 y_83_ + [ 1 x_83_ ^ 2 + 1 y_83_ ^ 2 ] <= 13816.381246976518
c183: 34 x_84_ - 164 y_84_ + [ 1 x_84_ ^ 2 + 1 y_84_ ^ 2 ] <= 1043.355454674379
c184: 34 x_85_ - 164 y_85_ + [ 1 x_85_ ^ 2 + 1 y_85_ ^ 2 ] <= 7849.956606148928
c185: 34 x_86_ - 164 y_86_ + [ 1 x_86_ ^ 2 + 1 y_86_ ^ 2 ] <= 4333.004622455166
c186: 34 x_87_ - 164 y_87_ + [ 1 x_87_ ^ 2 + 1 y_87_ ^ 2 ] <= 25403.827057345745
c187: 34 x_88_ - 164 y_88_ + [ 1 x_88_ ^ 2 + 1 y_88_ ^ 2 ] <= 24135.144207256108
c188: 34 x_89_ - 164 y_89_ + [ 1 x_89_ ^ 2 + 1 y_89_ ^ 2 ] <= -1430.211883866622
c189: 34 x_90_ - 164 y_90_ + [ 1 x_90_ ^ 2 + 1 y_90_ ^ 2 ] <= 19233.697299676565
c190: 34 x_91_ - 164 y_91_ + [ 1 x_91_ ^ 2 + 1 y_91_ ^ 2 ] <= 12663.299920698584
c191: 34 x_92_ - 164 y_92_ + [ 1 x_92_ ^ 2 + 1 y_92_ ^ 2 ] <= 17596.458143504122
c192: 34 x_93_ - 164 y_93_ + [ 1 x_93_ ^ 2 + 1 y_93_ ^ 2 ] <= 25515.915853912935
c193: 34 x_94_ - 164 y_94_ + [ 1 x_94_ ^ 2 + 1 y_94_ ^ 2 ] <= 6213.959999999997
c194: 34 x_95_ - 164 y_95_ + [ 1 x_95_ ^ 2 + 1 y_95_ ^ 2 ] <= 37289.12115855143
c195: 34 x_96_ - 164 y_96_ + [ 1 x_96_ ^ 2 + 1 y_96_ ^ 2 ] <= 16858.215268056156
c196: 34 x_97_ - 164 y_97_ + [ 1 x_97_ ^ 2 + 1 y_97_ ^ 2 ] <= 26722.025516928217
c197: 34 x_98_ - 164 y_98_ + [ 1 x_98_ ^ 2 + 1 y_98_ ^ 2 ] <= 15166.599999999999
c198: 34 x_100_ - 164 y_100_ + [ 1 x_100_ ^ 2 + 1 y_100_ ^ 2 ] <= 4931.259999999997
c199: -12 x_1_ + [ 1 x_1_ ^ 2 + 1 y_1_ ^ 2 ] <= 15735.498361376214
c200: -12 x_2_ + [ 1 x_2_ ^ 2 + 1 y_2_ ^ 2 ] <= 9804.234911168165
c201: -12 x_3_ + [ 1 x_3_ ^ 2 + 1 y_3_ ^ 2 ] <= 21081.32662043548
c202: -12 x_4_ + [ 1 x_4_ ^ 2 + 1 y_4_ ^ 2 ] <= 12353.612845390446
c203: -12 x_5_ + [ 1 x_5_ ^ 2 + 1 y_5_ ^ 2 ] <= 15150.68871684559
c204: -12 x_6_ + [ 1 x_6_ ^ 2 + 1 y_6_ ^ 2 ] <= 9134.424883592781
c205: -12 x_7_ + [ 1 x_7_ ^ 2 + 1 y_7_ ^ 2 ] <= 5997.026467303483
c206: -12 x_8_ + [ 1 x_8_ ^ 2 + 1 y_8_ ^ 2 ] <= 14319.634704601573
c207: -12 x_9_ + [ 1 x_9_ ^ 2 + 1 y_9_ ^ 2 ] <= 9303.48798331366
c208: -12 x_10_ + [ 1 x_10_ ^ 2 + 1 y_10_ ^ 2 ] <= 31676.57944810231
c209: -12 x_11_ + [ 1 x_11_ ^ 2 + 1 y_11_ ^ 2 ] <= 10969.97
c210: -12 x_12_ + [ 1 x_12_ ^ 2 + 1 y_12_ ^ 2 ] <= 5503.174562000655
c211: -12 x_13_ + [ 1 x_13_ ^ 2 + 1 y_13_ ^ 2 ] <= 21557.04826417109
c212: -12 x_14_ + [ 1 x_14_ ^ 2 + 1 y_14_ ^ 2 ] <= 25588.239845868105
c213: -12 x_15_ + [ 1 x_15_ ^ 2 + 1 y_15_ ^ 2 ] <= 9956.203108696232
c214: -12 x_16_ + [ 1 x_16_ ^ 2 + 1 y_16_ ^ 2 ] <= 19936.09848352193
c215: -12 x_17_ + [ 1 x_17_ ^ 2 + 1 y_17_ ^ 2 ] <= 30998.624354308628
c216: -12 x_18_ + [ 1 x_18_ ^ 2 + 1 y_18_ ^ 2 ] <= 17898.4657113962
c217: -12 x_19_ + [ 1 x_19_ ^ 2 + 1 y_19_ ^ 2 ] <= 20761.90216712292
c218: -12 x_20_ + [ 1 x_20_ ^ 2 + 1 y_20_ ^ 2 ] <= 11521.537501397435
c219: -12 x_21_ + [ 1 x_21_ ^ 2 + 1 y_21_ ^ 2 ] <= 8602.36440966134
c220: -12 x_22_ + [ 1 x_22_ ^ 2 + 1 y_22_ ^ 2 ] <= 25702.55563886424
c221: -12 x_23_ + [ 1 x_23_ ^ 2 + 1 y_23_ ^ 2 ] <= 13275.89251706234
c222: -12 x_24_ + [ 1 x_24_ ^ 2 + 1 y_24_ ^ 2 ] <= 14224.053512128788
c223: -12 x_25_ + [ 1 x_25_ ^ 2 + 1 y_25_ ^ 2 ] <= 2034.5
c224: -12 x_26_ + [ 1 x_26_ ^ 2 + 1 y_26_ ^ 2 ] <= 24520.712523794224
c225: -12 x_27_ + [ 1 x_27_ ^ 2 + 1 y_27_ ^ 2 ] <= 20918.23307735859
c226: -12 x_28_ + [ 1 x_28_ ^ 2 + 1 y_28_ ^ 2 ] <= 17377.887796795465
c227: -12 x_29_ + [ 1 x_29_ ^ 2 + 1 y_29_ ^ 2 ] <= 28678.393301563552
c228: -12 x_30_ + [ 1 x_30_ ^ 2 + 1 y_30_ ^ 2 ] <= 19676.170000000002
c229: -12 x_31_ + [ 1 x_31_ ^ 2 + 1 y_31_ ^ 2 ] <= 2110.25
c230: -12 x_32_ + [ 1 x_32_ ^ 2 + 1 y_32_ ^ 2 ] <= 23018.599937854
c231: -12 x_33_ + [ 1 x_33_ ^ 2 + 1 y_33_ ^ 2 ] <= 16819.466879652253
c232: -12 x_34_ + [ 1 x_34_ ^ 2 + 1 y_34_ ^ 2 ] <= 6668.861748165525
c233: -12 x_35_ + [ 1 x_35_ ^ 2 + 1 y_35_ ^ 2 ] <= 11737.073543639623
c234: -12 x_36_ + [ 1 x_36_ ^ 2 + 1 y_36_ ^ 2 ] <= 8273.791484311865
c235: -12 x_37_ + [ 1 x_37_ ^ 2 + 1 y_37_ ^ 2 ] <= 20116.622846607774
c236: -12 x_38_ + [ 1 x_38_ ^ 2 + 1 y_38_ ^ 2 ] <= 19050.611730335786
c237: -12 x_39_ + [ 1 x_39_ ^ 2 + 1 y_39_ ^ 2 ] <= 12076.160487747027
c238: -12 x_40_ + [ 1 x_40_ ^ 2 + 1 y_40_ ^ 2 ] <= 9422.649999999996
c239: -12 x_41_ + [ 1 x_41_ ^ 2 + 1 y_41_ ^ 2 ] <= 11057.839999999998
c240: -12 x_43_ + [ 1 x_43_ ^ 2 + 1 y_43_ ^ 2 ] <= 4118.129999999999
c241: -12 x_44_ + [ 1 x_44_ ^ 2 + 1 y_44_ ^ 2 ] <= 16626.80145134375
c242: -12 x_45_ + [ 1 x_45_ ^ 2 + 1 y_45_ ^ 2 ] <= 18668.45765458899
c243: -12 x_46_ + [ 1 x_46_ ^ 2 + 1 y_46_ ^ 2 ] <= 17895.781698659597
c244: -12 x_47_ + [ 1 x_47_ ^ 2 + 1 y_47_ ^ 2 ] <= 24316.42915642452
c245: -12 x_48_ + [ 1 x_48_ ^ 2 + 1 y_48_ ^ 2 ] <= 6907.276110411502
c246: -12 x_49_ + [ 1 x_49_ ^ 2 + 1 y_49_ ^ 2 ] <= 337.69999999999993
c247: -12 x_50_ + [ 1 x_50_ ^ 2 + 1 y_50_ ^ 2 ] <= 11105.96490535538
c248: -12 x_51_ + [ 1 x_51_ ^ 2 + 1 y_51_ ^ 2 ] <= 7169.710098106423
c249: -12 x_52_ + [ 1 x_52_ ^ 2 + 1 y_52_ ^ 2 ] <= 10048.849999999999
c250: -12 x_53_ + [ 1 x_53_ ^ 2 + 1 y_53_ ^ 2 ] <= 16908.49218437927
c251: -12 x_54_ + [ 1 x_54_ ^ 2 + 1 y_54_ ^ 2 ] <= 15804.713247632604
c252: -12 x_55_ + [ 1 x_55_ ^ 2 + 1 y_55_ ^ 2 ] <= 15286.91451299406
c253: -12 x_56_ + [ 1 x_56_ ^ 2 + 1 y_56_ ^ 2 ] <= 17730.17279700173
c254: -12 x_57_ + [ 1 x_57_ ^ 2 + 1 y_57_ ^ 2 ] <= 12466.611806332621
c255: -12 x_58_ + [ 1 x_58_ ^ 2 + 1 y_58_ ^ 2 ] <= 7629.772117761272
c256: -12 x_59_ + [ 1 x_59_ ^ 2 + 1 y_59_ ^ 2 ] <= 12503.849378498597
c257: -12 x_60_ + [ 1 x_60_ ^ 2 + 1 y_60_ ^ 2 ] <= 702.7809673098892
c258: -12 x_61_ + [ 1 x_61_ ^ 2 + 1 y_61_ ^ 2 ] <= 7729.351953162464
c259: -12 x_62_ + [ 1 x_62_ ^ 2 + 1 y_62_ ^ 2 ] <= 3293.7593579923036
c260: -12 x_63_ + [ 1 x_63_ ^ 2 + 1 y_63_ ^ 2 ] <= 24799.092103300674
c261: -12 x_64_ + [ 1 x_64_ ^ 2 + 1 y_64_ ^ 2 ] <= 16263.389987232951
c262: -12 x_65_ + [ 1 x_65_ ^ 2 + 1 y_65_ ^ 2 ] <= 2936.4566181508862
c263: -12 x_66_ + [ 1 x_66_ ^ 2 + 1 y_66_ ^ 2 ] <= 11646.735959747837
c264: -12 x_67_ + [ 1 x_67_ ^ 2 + 1 y_67_ ^ 2 ] <= 7900.58
c265: -12 x_68_ + [ 1 x_68_ ^ 2 + 1 y_68_ ^ 2 ] <= 337.69999999999993
c266: -12 x_69_ + [ 1 x_69_ ^ 2 + 1 y_69_ ^ 2 ] <= 12550.15616553976
c267: -12 x_70_ + [ 1 x_70_ ^ 2 + 1 y_70_ ^ 2 ] <= 24804.958588306414
c268: -12 x_71_ + [ 1 x_71_ ^ 2 + 1 y_71_ ^ 2 ] <= 19370.186920857363
c269: -12 x_72_ + [ 1 x_72_ ^ 2 + 1 y_72_ ^ 2 ] <= 5051.841954639241
c270: -12 x_73_ + [ 1 x_73_ ^ 2 + 1 y_73_ ^ 2 ] <= 7444.422419917518
c271: -12 x_74_ + [ 1 x_74_ ^ 2 + 1 y_74_ ^ 2 ] <= 13490.715408520964
c272: -12 x_75_ + [ 1 x_75_ ^ 2 + 1 y_75_ ^ 2 ] <= 5347.299999999998
c273: -12 x_76_ + [ 1 x_76_ ^ 2 + 1 y_76_ ^ 2 ] <= 10852.166857213933
c274: -12 x_77_ + [ 1 x_77_ ^ 2 + 1 y_77_ ^ 2 ] <= 6848.305939842455
c275: -12 x_78_ + [ 1 x_78_ ^ 2 + 1 y_78_ ^ 2 ] <= 11292.066204687153
c276: -12 x_79_ + [ 1 x_79_ ^ 2 + 1 y_79_ ^ 2 ] <= 10195.300000000001
c277: -12 x_80_ + [ 1 x_80_ ^ 2 + 1 y_80_ ^ 2 ] <= 2518.29
c278: -12 x_81_ + [ 1 x_81_ ^ 2 + 1 y_81_ ^ 2 ] <= 6273.375727900317
c279: -12 x_82_ + [ 1 x_82_ ^ 2 + 1 y_82_ ^ 2 ] <= 10992.647184568576
c280: -12 x_83_ + [ 1 x_83_ ^ 2 + 1 y_83_ ^ 2 ] <= 23348.68944982133
c281: -12 x_84_ + [ 1 x_84_ ^ 2 + 1 y_84_ ^ 2 ] <= 1864.82
c282: -12 x_85_ + [ 1 x_85_ ^ 2 + 1 y_85_ ^ 2 ] <= 8688.139618668047
c283: -12 x_86_ + [ 1 x_86_ ^ 2 + 1 y_86_ ^ 2 ] <= 10124.902263312133
c284: -12 x_87_ + [ 1 x_87_ ^ 2 + 1 y_87_ ^ 2 ] <= 14194.418915514718
c285: -12 x_88_ + [ 1 x_88_ ^ 2 + 1 y_88_ ^ 2 ] <= 16123.856702693369
c286: -12 x_89_ + [ 1 x_89_ ^ 2 + 1 y_89_ ^ 2 ] <= 13677.95584593634
c287: -12 x_90_ + [ 1 x_90_ ^ 2 + 1 y_90_ ^ 2 ] <= 13100.470640351845
c288: -12 x_91_ + [ 1 x_91_ ^ 2 + 1 y_91_ ^ 2 ] <= 3414.888526029434
c289: -12 x_92_ + [ 1 x_92_ ^ 2 + 1 y_92_ ^ 2 ] <= 8795.44
c290: -12 x_93_ + [ 1 x_93_ ^ 2 + 1 y_93_ ^ 2 ] <= 21456.476756804743
c291: -12 x_94_ + [ 1 x_94_ ^ 2 + 1 y_94_ ^ 2 ] <= 12797.5851544902
c292: -12 x_95_ + [ 1 x_95_ ^ 2 + 1 y_95_ ^ 2 ] <= 22050.01241120023
c293: -12 x_96_ + [ 1 x_96_ ^ 2 + 1 y_96_ ^ 2 ] <= 23163.118408497518
c294: -12 x_97_ + [ 1 x_97_ ^ 2 + 1 y_97_ ^ 2 ] <= 12116.953348184696
c295: -12 x_98_ + [ 1 x_98_ ^ 2 + 1 y_98_ ^ 2 ] <= 22554.31655376353
c296: -12 x_99_ + [ 1 x_99_ ^ 2 + 1 y_99_ ^ 2 ] <= 7449.111434658728
c297: -12 x_100_ + [ 1 x_100_ ^ 2 + 1 y_100_ ^ 2 ] <= 5223.1156380004395
quadratic_ranged_1_ub: [ 1 x_1_ ^ 2 - 2 x_2_ * x_1_ + 1 x_2_ ^ 2 + 1 y_1_ ^ 2 - 2 y_2_ * y_1_ + 1 y_2_ ^ 2 ] <= 34886.41
quadratic_ranged_2_ub: [ 1 x_2_ ^ 2 - 2 x_3_ * x_2_ + 1 x_3_ ^ 2 + 1 y_2_ ^ 2 - 2 y_3_ * y_2_ + 1 y_3_ ^ 2 ] <= 2127.06
quadratic_ranged_3_ub: [ 1 x_3_ ^ 2 - 2 x_4_ * x_3_ + 1 x_4_ ^ 2 + 1 y_3_ ^ 2 - 2 y_4_ * y_3_ + 1 y_4_ ^ 2 ] <= 5504.5
quadratic_ranged_4_ub: [ 1 x_4_ ^ 2 - 2 x_5_ * x_4_ + 1 x_5_ ^ 2 + 1 y_4_ ^ 2 - 2 y_5_ * y_4_ + 1 y_5_ ^ 2 ] <= 15478.25
quadratic_ranged_5_ub: [ 1 x_3_ ^ 2 - 2 x_6_ * x_3_ + 1 x_6_ ^ 2 + 1 y_3_ ^ 2 - 2 y_6_ * y_3_ + 1 y_6_ ^ 2 ] <= 12322
quadratic_ranged_6_ub: [ 1 x_5_ ^ 2 - 2 x_6_ * x_5_ + 1 x_6_ ^ 2 + 1 y_5_ ^ 2 - 2 y_6_ * y_5_ + 1 y_6_ ^ 2 ] <= 3338.05
quadratic_ranged_7_ub: [ 1 x_6_ ^ 2 - 2 x_7_ * x_6_ + 1 x_7_ ^ 2 + 1 y_6_ ^ 2 - 2 y_7_ * y_6_ + 1 y_7_ ^ 2 ] <= 327.24
quadratic_ranged_8_ub: [ 1 x_1_ ^ 2 - 2 x_8_ * x_1_ + 1 x_8_ ^ 2 + 1 y_1_ ^ 2 - 2 y_8_ * y_1_ + 1 y_8_ ^ 2 ] <= 874.66
quadratic_ranged_9_ub: [ 1 x_7_ ^ 2 - 2 x_8_ * x_7_ + 1 x_8_ ^ 2 + 1 y_7_ ^ 2 - 2 y_8_ * y_7_ + 1 y_8_ ^ 2 ] <= 4731.85
quadratic_ranged_10_ub: [ 1 x_8_ ^ 2 - 2 x_9_ * x_8_ + 1 x_9_ ^ 2 + 1 y_8_ ^ 2 - 2 y_9_ * y_8_ + 1 y_9_ ^ 2 ] <= 4381.38
quadratic_ranged_11_ub: [ 1 x_9_ ^ 2 - 2 x_10_ * x_9_ + 1 x_10_ ^ 2 + 1 y_9_ ^ 2 - 2 y_10_ * y_9_ + 1 y_10_ ^ 2 ] <= 16039.81
quadratic_ranged_12_ub: [ 1 x_10_ ^ 2 - 2 x_11_ * x_10_ + 1 x_11_ ^ 2 + 1 y_10_ ^ 2 - 2 y_11_ * y_10_ + 1 y_11_ ^ 2 ] <= 15882.25
quadratic_ranged_13_ub: [ 1 x_7_ ^ 2 - 2 x_12_ * x_7_ + 1 x_12_ ^ 2 + 1 y_7_ ^ 2 - 2 y_12_ * y_7_ + 1 y_12_ ^ 2 ] <= 3536.01
quadratic_ranged_14_ub: [ 1 x_9_ ^ 2 - 2 x_12_ * x_9_ + 1 x_12_ ^ 2 + 1 y_9_ ^ 2 - 2 y_12_ * y_9_ + 1 y_12_ ^ 2 ] <= 3468.34
quadratic_ranged_15_ub: [ 1 x_11_ ^ 2 - 2 x_12_ * x_11_ + 1 x_12_ ^ 2 + 1 y_11_ ^ 2 - 2 y_12_ * y_11_ + 1 y_12_ ^ 2 ] <= 18394.12
quadratic_ranged_16_ub: [ 1 x_12_ ^ 2 - 2 x_13_ * x_12_ + 1 x_13_ ^ 2 + 1 y_12_ ^ 2 - 2 y_13_ * y_12_ + 1 y_13_ ^ 2 ] <= 11882.65
quadratic_ranged_17_ub: [ 1 x_13_ ^ 2 - 2 x_14_ * x_13_ + 1 x_14_ ^ 2 + 1 y_13_ ^ 2 - 2 y_14_ * y_13_ + 1 y_14_ ^ 2 ] <= 16729.64
quadratic_ranged_18_ub: [ 1 x_14_ ^ 2 - 2 x_15_ * x_14_ + 1 x_15_ ^ 2 + 1 y_14_ ^ 2 - 2 y_15_ * y_14_ + 1 y_15_ ^ 2 ] <= 3613.78
quadratic_ranged_19_ub: [ 1 x_8_ ^ 2 - 2 x_16_ * x_8_ + 1 x_16_ ^ 2 + 1 y_8_ ^ 2 - 2 y_16_ * y_8_ + 1 y_16_ ^ 2 ] <= 462.58
quadratic_ranged_20_ub: [ 1 x_11_ ^ 2 - 2 x_16_ * x_11_ + 1 x_16_ ^ 2 + 1 y_11_ ^ 2 - 2 y_16_ * y_11_ + 1 y_16_ ^ 2 ] <= 3080.5
quadratic_ranged_21_ub: [ 1 x_15_ ^ 2 - 2 x_16_ * x_15_ + 1 x_16_ ^ 2 + 1 y_15_ ^ 2 - 2 y_16_ * y_15_ + 1 y_16_ ^ 2 ] <= 19186.97
quadratic_ranged_22_ub: [ 1 x_7_ ^ 2 - 2 x_17_ * x_7_ + 1 x_17_ ^ 2 + 1 y_7_ ^ 2 - 2 y_17_ * y_7_ + 1 y_17_ ^ 2 ] <= 9701.05
quadratic_ranged_23_ub: [ 1 x_13_ ^ 2 - 2 x_17_ * x_13_ + 1 x_17_ ^ 2 + 1 y_13_ ^ 2 - 2 y_17_ * y_13_ + 1 y_17_ ^ 2 ] <= 23477.45
quadratic_ranged_24_ub: [ 1 x_16_ ^ 2 - 2 x_17_ * x_16_ + 1 x_17_ ^ 2 + 1 y_16_ ^ 2 - 2 y_17_ * y_16_ + 1 y_17_ ^ 2 ] <= 28902.16
quadratic_ranged_25_ub: [ 1 x_1_ ^ 2 - 2 x_18_ * x_1_ + 1 x_18_ ^ 2 + 1 y_1_ ^ 2 - 2 y_18_ * y_1_ + 1 y_18_ ^ 2 ] <= 9334.42
quadratic_ranged_26_ub: [ 1 x_6_ ^ 2 - 2 x_18_ * x_6_ + 1 x_18_ ^ 2 + 1 y_6_ ^ 2 - 2 y_18_ * y_6_ + 1 y_18_ ^ 2 ] <= 1665.49
quadratic_ranged_27_ub: [ 1 x_17_ ^ 2 - 2 x_18_ * x_17_ + 1 x_18_ ^ 2 + 1 y_17_ ^ 2 - 2 y_18_ * y_17_ + 1 y_18_ ^ 2 ] <= 3072.42
quadratic_ranged_28_ub: [ 1 x_12_ ^ 2 - 2 x_19_ * x_12_ + 1 x_19_ ^ 2 + 1 y_12_ ^ 2 - 2 y_19_ * y_12_ + 1 y_19_ ^ 2 ] <= 7066.97
quadratic_ranged_29_ub: [ 1 x_16_ ^ 2 - 2 x_19_ * x_16_ + 1 x_19_ ^ 2 + 1 y_16_ ^ 2 - 2 y_19_ * y_16_ + 1 y_19_ ^ 2 ] <= 23356.25
quadratic_ranged_30_ub: [ 1 x_17_ ^ 2 - 2 x_19_ * x_17_ + 1 x_19_ ^ 2 + 1 y_17_ ^ 2 - 2 y_19_ * y_17_ + 1 y_19_ ^ 2 ] <= 12355.33
quadratic_ranged_31_ub: [ 1 x_18_ ^ 2 - 2 x_19_ * x_18_ + 1 x_19_ ^ 2 + 1 y_18_ ^ 2 - 2 y_19_ * y_18_ + 1 y_19_ ^ 2 ] <= 18597.13
quadratic_ranged_32_ub: [ 1 x_5_ ^ 2 - 2 x_20_ * x_5_ + 1 x_20_ ^ 2 + 1 y_5_ ^ 2 - 2 y_20_ * y_5_ + 1 y_20_ ^ 2 ] <= 19287.97
quadratic_ranged_33_ub: [ 1 x_18_ ^ 2 - 2 x_20_ * x_18_ + 1 x_20_ ^ 2 + 1 y_18_ ^ 2 - 2 y_20_ * y_18_ + 1 y_20_ ^ 2 ] <= 35250.01
quadratic_ranged_34_ub: [ 1 x_19_ ^ 2 - 2 x_20_ * x_19_ + 1 x_20_ ^ 2 + 1 y_19_ ^ 2 - 2 y_20_ * y_19_ + 1 y_20_ ^ 2 ] <= 7191.2
quadratic_ranged_35_ub: [ 1 x_1_ ^ 2 - 2 x_21_ * x_1_ + 1 x_21_ ^ 2 + 1 y_1_ ^ 2 - 2 y_21_ * y_1_ + 1 y_21_ ^ 2 ] <= 36562
quadratic_ranged_36_ub: [ 1 x_20_ ^ 2 - 2 x_21_ * x_20_ + 1 x_21_ ^ 2 + 1 y_20_ ^ 2 - 2 y_21_ * y_20_ + 1 y_21_ ^ 2 ] <= 7374.01
quadratic_ranged_37_ub: [ 1 x_1_ ^ 2 - 2 x_22_ * x_1_ + 1 x_22_ ^ 2 + 1 y_1_ ^ 2 - 2 y_22_ * y_1_ + 1 y_22_ ^ 2 ] <= 16606.420000000002
quadratic_ranged_38_ub: [ 1 x_2_ ^ 2 - 2 x_22_ * x_2_ + 1 x_22_ ^ 2 + 1 y_2_ ^ 2 - 2 y_22_ * y_2_ + 1 y_22_ ^ 2 ] <= 12727.01
quadratic_ranged_39_ub: [ 1 x_4_ ^ 2 - 2 x_22_ * x_4_ + 1 x_22_ ^ 2 + 1 y_4_ ^ 2 - 2 y_22_ * y_4_ + 1 y_22_ ^ 2 ] <= 23760.25
quadratic_ranged_40_ub: [ 1 x_5_ ^ 2 - 2 x_22_ * x_5_ + 1 x_22_ ^ 2 + 1 y_5_ ^ 2 - 2 y_22_ * y_5_ + 1 y_22_ ^ 2 ] <= 1383.7
quadratic_ranged_41_ub: [ 1 x_21_ ^ 2 - 2 x_22_ * x_21_ + 1 x_22_ ^ 2 + 1 y_21_ ^ 2 - 2 y_22_ * y_21_ + 1 y_22_ ^ 2 ] <= 20808.02
quadratic_ranged_42_ub: [ 1 x_6_ ^ 2 - 2 x_23_ * x_6_ + 1 x_23_ ^ 2 + 1 y_6_ ^ 2 - 2 y_23_ * y_6_ + 1 y_23_ ^ 2 ] <= 2626
quadratic_ranged_43_ub: [ 1 x_8_ ^ 2 - 2 x_23_ * x_8_ + 1 x_23_ ^ 2 + 1 y_8_ ^ 2 - 2 y_23_ * y_8_ + 1 y_23_ ^ 2 ] <= 17433.61
quadratic_ranged_44_ub: [ 1 x_21_ ^ 2 - 2 x_23_ * x_21_ + 1 x_23_ ^ 2 + 1 y_21_ ^ 2 - 2 y_23_ * y_21_ + 1 y_23_ ^ 2 ] <= 39649.57
quadratic_ranged_45_ub: [ 1 x_22_ ^ 2 - 2 x_23_ * x_22_ + 1 x_23_ ^ 2 + 1 y_22_ ^ 2 - 2 y_23_ * y_22_ + 1 y_23_ ^ 2 ] <= 4267.25
quadratic_ranged_46_ub: [ 1 x_16_ ^ 2 - 2 x_24_ * x_16_ + 1 x_24_ ^ 2 + 1 y_16_ ^ 2 - 2 y_24_ * y_16_ + 1 y_24_ ^ 2 ] <= 591.86
quadratic_ranged_47_ub: [ 1 x_23_ ^ 2 - 2 x_24_ * x_23_ + 1 x_24_ ^ 2 + 1 y_23_ ^ 2 - 2 y_24_ * y_23_ + 1 y_24_ ^ 2 ] <= 15821.65
quadratic_ranged_48_ub: [ 1 x_9_ ^ 2 - 2 x_25_ * x_9_ + 1 x_25_ ^ 2 + 1 y_9_ ^ 2 - 2 y_25_ * y_9_ + 1 y_25_ ^ 2 ] <= 3006.77
quadratic_ranged_49_ub: [ 1 x_24_ ^ 2 - 2 x_25_ * x_24_ + 1 x_25_ ^ 2 + 1 y_24_ ^ 2 - 2 y_25_ * y_24_ + 1 y_25_ ^ 2 ] <= 5463.09
quadratic_ranged_50_ub: [ 1 x_2_ ^ 2 - 2 x_26_ * x_2_ + 1 x_26_ ^ 2 + 1 y_2_ ^ 2 - 2 y_26_ * y_2_ + 1 y_26_ ^ 2 ] <= 25562.09
quadratic_ranged_51_ub: [ 1 x_25_ ^ 2 - 2 x_26_ * x_25_ + 1 x_26_ ^ 2 + 1 y_25_ ^ 2 - 2 y_26_ * y_25_ + 1 y_26_ ^ 2 ] <= 14060.210000000001
quadratic_ranged_52_ub: [ 1 x_7_ ^ 2 - 2 x_27_ * x_7_ + 1 x_27_ ^ 2 + 1 y_7_ ^ 2 - 2 y_27_ * y_7_ + 1 y_27_ ^ 2 ] <= 26669.05
quadratic_ranged_53_ub: [ 1 x_12_ ^ 2 - 2 x_27_ * x_12_ + 1 x_27_ ^ 2 + 1 y_12_ ^ 2 - 2 y_27_ * y_12_ + 1 y_27_ ^ 2 ] <= 14952.04
quadratic_ranged_54_ub: [ 1 x_26_ ^ 2 - 2 x_27_ * x_26_ + 1 x_27_ ^ 2 + 1 y_26_ ^ 2 - 2 y_27_ * y_26_ + 1 y_27_ ^ 2 ] <= 33128
quadratic_ranged_55_ub: [ 1 x_17_ ^ 2 - 2 x_28_ * x_17_ + 1 x_28_ ^ 2 + 1 y_17_ ^ 2 - 2 y_28_ * y_17_ + 1 y_28_ ^ 2 ] <= 13502.69
quadratic_ranged_56_ub: [ 1 x_18_ ^ 2 - 2 x_28_ * x_18_ + 1 x_28_ ^ 2 + 1 y_18_ ^ 2 - 2 y_28_ * y_18_ + 1 y_28_ ^ 2 ] <= 5115.65
quadratic_ranged_57_ub: [ 1 x_26_ ^ 2 - 2 x_28_ * x_26_ + 1 x_28_ ^ 2 + 1 y_26_ ^ 2 - 2 y_28_ * y_26_ + 1 y_28_ ^ 2 ] <= 6792.25
quadratic_ranged_58_ub: [ 1 x_27_ ^ 2 - 2 x_28_ * x_27_ + 1 x_28_ ^ 2 + 1 y_27_ ^ 2 - 2 y_28_ * y_27_ + 1 y_28_ ^ 2 ] <= 32171.53
quadratic_ranged_59_ub: [ 1 x_14_ ^ 2 - 2 x_29_ * x_14_ + 1 x_29_ ^ 2 + 1 y_14_ ^ 2 - 2 y_29_ * y_14_ + 1 y_29_ ^ 2 ] <= 7551.77
quadratic_ranged_60_ub: [ 1 x_23_ ^ 2 - 2 x_29_ * x_23_ + 1 x_29_ ^ 2 + 1 y_23_ ^ 2 - 2 y_29_ * y_23_ + 1 y_29_ ^ 2 ] <= 18972.85
quadratic_ranged_61_ub: [ 1 x_27_ ^ 2 - 2 x_29_ * x_27_ + 1 x_29_ ^ 2 + 1 y_27_ ^ 2 - 2 y_29_ * y_27_ + 1 y_29_ ^ 2 ] <= 10382.8
quadratic_ranged_62_ub: [ 1 x_28_ ^ 2 - 2 x_29_ * x_28_ + 1 x_29_ ^ 2 + 1 y_28_ ^ 2 - 2 y_29_ * y_28_ + 1 y_29_ ^ 2 ] <= 8000.21
quadratic_ranged_63_ub: [ 1 x_4_ ^ 2 - 2 x_30_ * x_4_ + 1 x_30_ ^ 2 + 1 y_4_ ^ 2 - 2 y_30_ * y_4_ + 1 y_30_ ^ 2 ] <= 31149.41
quadratic_ranged_64_ub: [ 1 x_29_ ^ 2 - 2 x_30_ * x_29_ + 1 x_30_ ^ 2 + 1 y_29_ ^ 2 - 2 y_30_ * y_29_ + 1 y_30_ ^ 2 ] <= 11362.5
quadratic_ranged_65_ub: [ 1 x_6_ ^ 2 - 2 x_31_ * x_6_ + 1 x_31_ ^ 2 + 1 y_6_ ^ 2 - 2 y_31_ * y_6_ + 1 y_31_ ^ 2 ] <= 9373.81
quadratic_ranged_66_ub: [ 1 x_12_ ^ 2 - 2 x_31_ * x_12_ + 1 x_31_ ^ 2 + 1 y_12_ ^ 2 - 2 y_31_ * y_12_ + 1 y_31_ ^ 2 ] <= 1971.52
quadratic_ranged_67_ub: [ 1 x_28_ ^ 2 - 2 x_31_ * x_28_ + 1 x_31_ ^ 2 + 1 y_28_ ^ 2 - 2 y_31_ * y_28_ + 1 y_31_ ^ 2 ] <= 14536.93
quadratic_ranged_68_ub: [ 1 x_30_ ^ 2 - 2 x_31_ * x_30_ + 1 x_31_ ^ 2 + 1 y_30_ ^ 2 - 2 y_31_ * y_30_ + 1 y_31_ ^ 2 ] <= 33647.14
quadratic_ranged_69_ub: [ 1 x_6_ ^ 2 - 2 x_32_ * x_6_ + 1 x_32_ ^ 2 + 1 y_6_ ^ 2 - 2 y_32_ * y_6_ + 1 y_32_ ^ 2 ] <= 4625.8
quadratic_ranged_70_ub: [ 1 x_12_ ^ 2 - 2 x_32_ * x_12_ + 1 x_32_ ^ 2 + 1 y_12_ ^ 2 - 2 y_32_ * y_12_ + 1 y_32_ ^ 2 ] <= 8113.33
quadratic_ranged_71_ub: [ 1 x_15_ ^ 2 - 2 x_32_ * x_15_ + 1 x_32_ ^ 2 + 1 y_15_ ^ 2 - 2 y_32_ * y_15_ + 1 y_32_ ^ 2 ] <= 25696.420000000002
quadratic_ranged_72_ub: [ 1 x_18_ ^ 2 - 2 x_32_ * x_18_ + 1 x_32_ ^ 2 + 1 y_18_ ^ 2 - 2 y_32_ * y_18_ + 1 y_32_ ^ 2 ] <= 1431.17
quadratic_ranged_73_ub: [ 1 x_24_ ^ 2 - 2 x_32_ * x_24_ + 1 x_32_ ^ 2 + 1 y_24_ ^ 2 - 2 y_32_ * y_24_ + 1 y_32_ ^ 2 ] <= 19259.69
quadratic_ranged_74_ub: [ 1 x_28_ ^ 2 - 2 x_32_ * x_28_ + 1 x_32_ ^ 2 + 1 y_28_ ^ 2 - 2 y_32_ * y_28_ + 1 y_32_ ^ 2 ] <= 8389.06
quadratic_ranged_75_ub: [ 1 x_31_ ^ 2 - 2 x_32_ * x_31_ + 1 x_32_ ^ 2 + 1 y_31_ ^ 2 - 2 y_32_ * y_31_ + 1 y_32_ ^ 2 ] <= 16152.93
quadratic_ranged_76_ub: [ 1 x_3_ ^ 2 - 2 x_33_ * x_3_ + 1 x_33_ ^ 2 + 1 y_3_ ^ 2 - 2 y_33_ * y_3_ + 1 y_33_ ^ 2 ] <= 1010
quadratic_ranged_77_ub: [ 1 x_32_ ^ 2 - 2 x_33_ * x_32_ + 1 x_33_ ^ 2 + 1 y_32_ ^ 2 - 2 y_33_ * y_32_ + 1 y_33_ ^ 2 ] <= 25957
quadratic_ranged_78_ub: [ 1 x_16_ ^ 2 - 2 x_34_ * x_16_ + 1 x_34_ ^ 2 + 1 y_16_ ^ 2 - 2 y_34_ * y_16_ + 1 y_34_ ^ 2 ] <= 24071.33
quadratic_ranged_79_ub: [ 1 x_18_ ^ 2 - 2 x_34_ * x_18_ + 1 x_34_ ^ 2 + 1 y_18_ ^ 2 - 2 y_34_ * y_18_ + 1 y_34_ ^ 2 ] <= 29214.25
quadratic_ranged_80_ub: [ 1 x_33_ ^ 2 - 2 x_34_ * x_33_ + 1 x_34_ ^ 2 + 1 y_33_ ^ 2 - 2 y_34_ * y_33_ + 1 y_34_ ^ 2 ] <= 2298.76
quadratic_ranged_81_ub: [ 1 x_9_ ^ 2 - 2 x_35_ * x_9_ + 1 x_35_ ^ 2 + 1 y_9_ ^ 2 - 2 y_35_ * y_9_ + 1 y_35_ ^ 2 ] <= 3815.78
quadratic_ranged_82_ub: [ 1 x_10_ ^ 2 - 2 x_35_ * x_10_ + 1 x_35_ ^ 2 + 1 y_10_ ^ 2 - 2 y_35_ * y_10_ + 1 y_35_ ^ 2 ] <= 12205.85
quadratic_ranged_83_ub: [ 1 x_17_ ^ 2 - 2 x_35_ * x_17_ + 1 x_35_ ^ 2 + 1 y_17_ ^ 2 - 2 y_35_ * y_17_ + 1 y_35_ ^ 2 ] <= 21050.420000000002
quadratic_ranged_84_ub: [ 1 x_19_ ^ 2 - 2 x_35_ * x_19_ + 1 x_35_ ^ 2 + 1 y_19_ ^ 2 - 2 y_35_ * y_19_ + 1 y_35_ ^ 2 ] <= 12537.130000000001
quadratic_ranged_85_ub: [ 1 x_26_ ^ 2 - 2 x_35_ * x_26_ + 1 x_35_ ^ 2 + 1 y_26_ ^ 2 - 2 y_35_ * y_26_ + 1 y_35_ ^ 2 ] <= 18087.08
quadratic_ranged_86_ub: [ 1 x_27_ ^ 2 - 2 x_35_ * x_27_ + 1 x_35_ ^ 2 + 1 y_27_ ^ 2 - 2 y_35_ * y_27_ + 1 y_35_ ^ 2 ] <= 19751.56
quadratic_ranged_87_ub: [ 1 x_34_ ^ 2 - 2 x_35_ * x_34_ + 1 x_35_ ^ 2 + 1 y_34_ ^ 2 - 2 y_35_ * y_34_ + 1 y_35_ ^ 2 ] <= 13094.65
quadratic_ranged_88_ub: [ 1 x_2_ ^ 2 - 2 x_36_ * x_2_ + 1 x_36_ ^ 2 + 1 y_2_ ^ 2 - 2 y_36_ * y_2_ + 1 y_36_ ^ 2 ] <= 64.64
quadratic_ranged_89_ub: [ 1 x_4_ ^ 2 - 2 x_36_ * x_4_ + 1 x_36_ ^ 2 + 1 y_4_ ^ 2 - 2 y_36_ * y_4_ + 1 y_36_ ^ 2 ] <= 6322.6
quadratic_ranged_90_ub: [ 1 x_8_ ^ 2 - 2 x_36_ * x_8_ + 1 x_36_ ^ 2 + 1 y_8_ ^ 2 - 2 y_36_ * y_8_ + 1 y_36_ ^ 2 ] <= 43536.05
quadratic_ranged_91_ub: [ 1 x_12_ ^ 2 - 2 x_36_ * x_12_ + 1 x_36_ ^ 2 + 1 y_12_ ^ 2 - 2 y_36_ * y_12_ + 1 y_36_ ^ 2 ] <= 12840.130000000001
quadratic_ranged_92_ub: [ 1 x_21_ ^ 2 - 2 x_36_ * x_21_ + 1 x_36_ ^ 2 + 1 y_21_ ^ 2 - 2 y_36_ * y_21_ + 1 y_36_ ^ 2 ] <= 1625.09
quadratic_ranged_93_ub: [ 1 x_35_ ^ 2 - 2 x_36_ * x_35_ + 1 x_36_ ^ 2 + 1 y_35_ ^ 2 - 2 y_36_ * y_35_ + 1 y_36_ ^ 2 ] <= 24984.37
quadratic_ranged_94_ub: [ 1 x_23_ ^ 2 - 2 x_37_ * x_23_ + 1 x_37_ ^ 2 + 1 y_23_ ^ 2 - 2 y_37_ * y_23_ + 1 y_37_ ^ 2 ] <= 30455.54
quadratic_ranged_95_ub: [ 1 x_36_ ^ 2 - 2 x_37_ * x_36_ + 1 x_37_ ^ 2 + 1 y_36_ ^ 2 - 2 y_37_ * y_36_ + 1 y_37_ ^ 2 ] <= 4399.56
quadratic_ranged_96_ub: [ 1 x_1_ ^ 2 - 2 x_38_ * x_1_ + 1 x_38_ ^ 2 + 1 y_1_ ^ 2 - 2 y_38_ * y_1_ + 1 y_38_ ^ 2 ] <= 2235.13
quadratic_ranged_97_ub: [ 1 x_2_ ^ 2 - 2 x_38_ * x_2_ + 1 x_38_ ^ 2 + 1 y_2_ ^ 2 - 2 y_38_ * y_2_ + 1 y_38_ ^ 2 ] <= 42591.7
quadratic_ranged_98_ub: [ 1 x_3_ ^ 2 - 2 x_38_ * x_3_ + 1 x_38_ ^ 2 + 1 y_3_ ^ 2 - 2 y_38_ * y_3_ + 1 y_38_ ^ 2 ] <= 26502.4
quadratic_ranged_99_ub: [ 1 x_8_ ^ 2 - 2 x_38_ * x_8_ + 1 x_38_ ^ 2 + 1 y_8_ ^ 2 - 2 y_38_ * y_8_ + 1 y_38_ ^ 2 ] <= 336.33
quadratic_ranged_100_ub: [ 1 x_10_ ^ 2 - 2 x_38_ * x_10_ + 1 x_38_ ^ 2 + 1 y_10_ ^ 2 - 2 y_38_ * y_10_ + 1 y_38_ ^ 2 ] <= 27781.06
quadratic_ranged_101_ub: [ 1 x_17_ ^ 2 - 2 x_38_ * x_17_ + 1 x_38_ ^ 2 + 1 y_17_ ^ 2 - 2 y_38_ * y_17_ + 1 y_38_ ^ 2 ] <= 32660.37
quadratic_ranged_102_ub: [ 1 x_19_ ^ 2 - 2 x_38_ * x_19_ + 1 x_38_ ^ 2 + 1 y_19_ ^ 2 - 2 y_38_ * y_19_ + 1 y_38_ ^ 2 ] <= 28120.420000000002
quadratic_ranged_103_ub: [ 1 x_22_ ^ 2 - 2 x_38_ * x_22_ + 1 x_38_ ^ 2 + 1 y_22_ ^ 2 - 2 y_38_ * y_22_ + 1 y_38_ ^ 2 ] <= 28749.65
quadratic_ranged_104_ub: [ 1 x_23_ ^ 2 - 2 x_38_ * x_23_ + 1 x_38_ ^ 2 + 1 y_23_ ^ 2 - 2 y_38_ * y_23_ + 1 y_38_ ^ 2 ] <= 22381.6
quadratic_ranged_105_ub: [ 1 x_30_ ^ 2 - 2 x_38_ * x_30_ + 1 x_38_ ^ 2 + 1 y_30_ ^ 2 - 2 y_38_ * y_30_ + 1 y_38_ ^ 2 ] <= 380.77
quadratic_ranged_106_ub: [ 1 x_37_ ^ 2 - 2 x_38_ * x_37_ + 1 x_38_ ^ 2 + 1 y_37_ ^ 2 - 2 y_38_ * y_37_ + 1 y_38_ ^ 2 ] <= 62912.9
quadratic_ranged_107_ub: [ 1 x_4_ ^ 2 - 2 x_39_ * x_4_ + 1 x_39_ ^ 2 + 1 y_4_ ^ 2 - 2 y_39_ * y_4_ + 1 y_39_ ^ 2 ] <= 17614.4
quadratic_ranged_108_ub: [ 1 x_28_ ^ 2 - 2 x_39_ * x_28_ + 1 x_39_ ^ 2 + 1 y_28_ ^ 2 - 2 y_39_ * y_28_ + 1 y_39_ ^ 2 ] <= 33297.68
quadratic_ranged_109_ub: [ 1 x_31_ ^ 2 - 2 x_39_ * x_31_ + 1 x_39_ ^ 2 + 1 y_31_ ^ 2 - 2 y_39_ * y_31_ + 1 y_39_ ^ 2 ] <= 4061.21
quadratic_ranged_110_ub: [ 1 x_38_ ^ 2 - 2 x_39_ * x_38_ + 1 x_39_ ^ 2 + 1 y_38_ ^ 2 - 2 y_39_ * y_38_ + 1 y_39_ ^ 2 ] <= 53176.5
quadratic_ranged_111_ub: [ 1 x_8_ ^ 2 - 2 x_40_ * x_8_ + 1 x_40_ ^ 2 + 1 y_8_ ^ 2 - 2 y_40_ * y_8_ + 1 y_40_ ^ 2 ] <= 517.12
quadratic_ranged_112_ub: [ 1 x_17_ ^ 2 - 2 x_40_ * x_17_ + 1 x_40_ ^ 2 + 1 y_17_ ^ 2 - 2 y_40_ * y_17_ + 1 y_40_ ^ 2 ] <= 20872.66
quadratic_ranged_113_ub: [ 1 x_22_ ^ 2 - 2 x_40_ * x_22_ + 1 x_40_ ^ 2 + 1 y_22_ ^ 2 - 2 y_40_ * y_22_ + 1 y_40_ ^ 2 ] <= 17796.2
quadratic_ranged_114_ub: [ 1 x_28_ ^ 2 - 2 x_40_ * x_28_ + 1 x_40_ ^ 2 + 1 y_28_ ^ 2 - 2 y_40_ * y_28_ + 1 y_40_ ^ 2 ] <= 1398.85
quadratic_ranged_115_ub: [ 1 x_31_ ^ 2 - 2 x_40_ * x_31_ + 1 x_40_ ^ 2 + 1 y_31_ ^ 2 - 2 y_40_ * y_31_ + 1 y_40_ ^ 2 ] <= 18244.64
quadratic_ranged_116_ub: [ 1 x_39_ ^ 2 - 2 x_40_ * x_39_ + 1 x_40_ ^ 2 + 1 y_39_ ^ 2 - 2 y_40_ * y_39_ + 1 y_40_ ^ 2 ] <= 39516.25
quadratic_ranged_117_ub: [ 1 x_1_ ^ 2 - 2 x_41_ * x_1_ + 1 x_41_ ^ 2 + 1 y_1_ ^ 2 - 2 y_41_ * y_1_ + 1 y_41_ ^ 2 ] <= 9604.09
quadratic_ranged_118_ub: [ 1 x_6_ ^ 2 - 2 x_41_ * x_6_ + 1 x_41_ ^ 2 + 1 y_6_ ^ 2 - 2 y_41_ * y_6_ + 1 y_41_ ^ 2 ] <= 1959.4
quadratic_ranged_119_ub: [ 1 x_11_ ^ 2 - 2 x_41_ * x_11_ + 1 x_41_ ^ 2 + 1 y_11_ ^ 2 - 2 y_41_ * y_11_ + 1 y_41_ ^ 2 ] <= 29214.25
quadratic_ranged_120_ub: [ 1 x_20_ ^ 2 - 2 x_41_ * x_20_ + 1 x_41_ ^ 2 + 1 y_20_ ^ 2 - 2 y_41_ * y_20_ + 1 y_41_ ^ 2 ] <= 38567.86
quadratic_ranged_121_ub: [ 1 x_23_ ^ 2 - 2 x_41_ * x_23_ + 1 x_41_ ^ 2 + 1 y_23_ ^ 2 - 2 y_41_ * y_23_ + 1 y_41_ ^ 2 ] <= 101
quadratic_ranged_122_ub: [ 1 x_34_ ^ 2 - 2 x_41_ * x_34_ + 1 x_41_ ^ 2 + 1 y_34_ ^ 2 - 2 y_41_ * y_34_ + 1 y_41_ ^ 2 ] <= 32586.64
quadratic_ranged_123_ub: [ 1 x_40_ ^ 2 - 2 x_41_ * x_40_ + 1 x_41_ ^ 2 + 1 y_40_ ^ 2 - 2 y_41_ * y_40_ + 1 y_41_ ^ 2 ] <= 11902.85
quadratic_ranged_124_ub: [ 1 x_11_ ^ 2 - 2 x_42_ * x_11_ + 1 x_42_ ^ 2 + 1 y_11_ ^ 2 - 2 y_42_ * y_11_ + 1 y_42_ ^ 2 ] <= 11005.97
quadratic_ranged_125_ub: [ 1 x_25_ ^ 2 - 2 x_42_ * x_25_ + 1 x_42_ ^ 2 + 1 y_25_ ^ 2 - 2 y_42_ * y_25_ + 1 y_42_ ^ 2 ] <= 2070.5
quadratic_ranged_126_ub: [ 1 x_30_ ^ 2 - 2 x_42_ * x_30_ + 1 x_42_ ^ 2 + 1 y_30_ ^ 2 - 2 y_42_ * y_30_ + 1 y_42_ ^ 2 ] <= 19712.170000000002
quadratic_ranged_127_ub: [ 1 x_31_ ^ 2 - 2 x_42_ * x_31_ + 1 x_42_ ^ 2 + 1 y_31_ ^ 2 - 2 y_42_ * y_31_ + 1 y_42_ ^ 2 ] <= 2146.25
quadratic_ranged_128_ub: [ 1 x_40_ ^ 2 - 2 x_42_ * x_40_ + 1 x_42_ ^ 2 + 1 y_40_ ^ 2 - 2 y_42_ * y_40_ + 1 y_42_ ^ 2 ] <= 9458.65
quadratic_ranged_129_ub: [ 1 x_41_ ^ 2 - 2 x_42_ * x_41_ + 1 x_42_ ^ 2 + 1 y_41_ ^ 2 - 2 y_42_ * y_41_ + 1 y_42_ ^ 2 ] <= 11093.84
quadratic_ranged_130_ub: [ 1 x_15_ ^ 2 - 2 x_43_ * x_15_ + 1 x_43_ ^ 2 + 1 y_15_ ^ 2 - 2 y_43_ * y_15_ + 1 y_43_ ^ 2 ] <= 5927.69
quadratic_ranged_131_ub: [ 1 x_41_ ^ 2 - 2 x_43_ * x_41_ + 1 x_43_ ^ 2 + 1 y_41_ ^ 2 - 2 y_43_ * y_41_ + 1 y_43_ ^ 2 ] <= 22265.45
quadratic_ranged_132_ub: [ 1 x_42_ ^ 2 - 2 x_43_ * x_42_ + 1 x_43_ ^ 2 + 1 y_42_ ^ 2 - 2 y_43_ * y_42_ + 1 y_43_ ^ 2 ] <= 4154.13
quadratic_ranged_133_ub: [ 1 x_12_ ^ 2 - 2 x_44_ * x_12_ + 1 x_44_ ^ 2 + 1 y_12_ ^ 2 - 2 y_44_ * y_12_ + 1 y_44_ ^ 2 ] <= 15453
quadratic_ranged_134_ub: [ 1 x_16_ ^ 2 - 2 x_44_ * x_16_ + 1 x_44_ ^ 2 + 1 y_16_ ^ 2 - 2 y_44_ * y_16_ + 1 y_44_ ^ 2 ] <= 55285.38
quadratic_ranged_135_ub: [ 1 x_23_ ^ 2 - 2 x_44_ * x_23_ + 1 x_44_ ^ 2 + 1 y_23_ ^ 2 - 2 y_44_ * y_23_ + 1 y_44_ ^ 2 ] <= 31032.25
quadratic_ranged_136_ub: [ 1 x_30_ ^ 2 - 2 x_44_ * x_30_ + 1 x_44_ ^ 2 + 1 y_30_ ^ 2 - 2 y_44_ * y_30_ + 1 y_44_ ^ 2 ] <= 70047.54
quadratic_ranged_137_ub: [ 1 x_31_ ^ 2 - 2 x_44_ * x_31_ + 1 x_44_ ^ 2 + 1 y_31_ ^ 2 - 2 y_44_ * y_31_ + 1 y_44_ ^ 2 ] <= 6904.36
quadratic_ranged_138_ub: [ 1 x_40_ ^ 2 - 2 x_44_ * x_40_ + 1 x_44_ ^ 2 + 1 y_40_ ^ 2 - 2 y_44_ * y_40_ + 1 y_44_ ^ 2 ] <= 47530.6
quadratic_ranged_139_ub: [ 1 x_43_ ^ 2 - 2 x_44_ * x_43_ + 1 x_44_ ^ 2 + 1 y_43_ ^ 2 - 2 y_44_ * y_43_ + 1 y_44_ ^ 2 ] <= 32726.02
quadratic_ranged_140_ub: [ 1 x_8_ ^ 2 - 2 x_45_ * x_8_ + 1 x_45_ ^ 2 + 1 y_8_ ^ 2 - 2 y_45_ * y_8_ + 1 y_45_ ^ 2 ] <= 535.3
quadratic_ranged_141_ub: [ 1 x_20_ ^ 2 - 2 x_45_ * x_20_ + 1 x_45_ ^ 2 + 1 y_20_ ^ 2 - 2 y_45_ * y_20_ + 1 y_45_ ^ 2 ] <= 24770.25
quadratic_ranged_142_ub: [ 1 x_24_ ^ 2 - 2 x_45_ * x_24_ + 1 x_45_ ^ 2 + 1 y_24_ ^ 2 - 2 y_45_ * y_24_ + 1 y_45_ ^ 2 ] <= 300.98
quadratic_ranged_143_ub: [ 1 x_41_ ^ 2 - 2 x_45_ * x_41_ + 1 x_45_ ^ 2 + 1 y_41_ ^ 2 - 2 y_45_ * y_41_ + 1 y_45_ ^ 2 ] <= 11094.85
quadratic_ranged_144_ub: [ 1 x_43_ ^ 2 - 2 x_45_ * x_43_ + 1 x_45_ ^ 2 + 1 y_43_ ^ 2 - 2 y_45_ * y_43_ + 1 y_45_ ^ 2 ] <= 9958.6
quadratic_ranged_145_ub: [ 1 x_44_ ^ 2 - 2 x_45_ * x_44_ + 1 x_45_ ^ 2 + 1 y_44_ ^ 2 - 2 y_45_ * y_44_ + 1 y_45_ ^ 2 ] <= 52231.14
quadratic_ranged_146_ub: [ 1 x_20_ ^ 2 - 2 x_46_ * x_20_ + 1 x_46_ ^ 2 + 1 y_20_ ^ 2 - 2 y_46_ * y_20_ + 1 y_46_ ^ 2 ] <= 19643.49
quadratic_ranged_147_ub: [ 1 x_23_ ^ 2 - 2 x_46_ * x_23_ + 1 x_46_ ^ 2 + 1 y_23_ ^ 2 - 2 y_46_ * y_23_ + 1 y_46_ ^ 2 ] <= 13615.81
quadratic_ranged_148_ub: [ 1 x_24_ ^ 2 - 2 x_46_ * x_24_ + 1 x_46_ ^ 2 + 1 y_24_ ^ 2 - 2 y_46_ * y_24_ + 1 y_46_ ^ 2 ] <= 210.08
quadratic_ranged_149_ub: [ 1 x_45_ ^ 2 - 2 x_46_ * x_45_ + 1 x_46_ ^ 2 + 1 y_45_ ^ 2 - 2 y_46_ * y_45_ + 1 y_46_ ^ 2 ] <= 309.06
quadratic_ranged_150_ub: [ 1 x_12_ ^ 2 - 2 x_47_ * x_12_ + 1 x_47_ ^ 2 + 1 y_12_ ^ 2 - 2 y_47_ * y_12_ + 1 y_47_ ^ 2 ] <= 6662.97
quadratic_ranged_151_ub: [ 1 x_27_ ^ 2 - 2 x_47_ * x_27_ + 1 x_47_ ^ 2 + 1 y_27_ ^ 2 - 2 y_47_ * y_27_ + 1 y_47_ ^ 2 ] <= 40243.45
quadratic_ranged_152_ub: [ 1 x_46_ ^ 2 - 2 x_47_ * x_46_ + 1 x_47_ ^ 2 + 1 y_46_ ^ 2 - 2 y_47_ * y_46_ + 1 y_47_ ^ 2 ] <= 7353.81
quadratic_ranged_153_ub: [ 1 x_2_ ^ 2 - 2 x_48_ * x_2_ + 1 x_48_ ^ 2 + 1 y_2_ ^ 2 - 2 y_48_ * y_2_ + 1 y_48_ ^ 2 ] <= 958.49
quadratic_ranged_154_ub: [ 1 x_4_ ^ 2 - 2 x_48_ * x_4_ + 1 x_48_ ^ 2 + 1 y_4_ ^ 2 - 2 y_48_ * y_4_ + 1 y_48_ ^ 2 ] <= 5067.17
quadratic_ranged_155_ub: [ 1 x_20_ ^ 2 - 2 x_48_ * x_20_ + 1 x_48_ ^ 2 + 1 y_20_ ^ 2 - 2 y_48_ * y_20_ + 1 y_48_ ^ 2 ] <= 10779.73
quadratic_ranged_156_ub: [ 1 x_31_ ^ 2 - 2 x_48_ * x_31_ + 1 x_48_ ^ 2 + 1 y_31_ ^ 2 - 2 y_48_ * y_31_ + 1 y_48_ ^ 2 ] <= 1490.76
quadratic_ranged_157_ub: [ 1 x_47_ ^ 2 - 2 x_48_ * x_47_ + 1 x_48_ ^ 2 + 1 y_47_ ^ 2 - 2 y_48_ * y_47_ + 1 y_48_ ^ 2 ] <= 24948.010000000002
quadratic_ranged_158_ub: [ 1 x_7_ ^ 2 - 2 x_49_ * x_7_ + 1 x_49_ ^ 2 + 1 y_7_ ^ 2 - 2 y_49_ * y_7_ + 1 y_49_ ^ 2 ] <= 3403.7
quadratic_ranged_159_ub: [ 1 x_8_ ^ 2 - 2 x_49_ * x_8_ + 1 x_49_ ^ 2 + 1 y_8_ ^ 2 - 2 y_49_ * y_8_ + 1 y_49_ ^ 2 ] <= 10096.97
quadratic_ranged_160_ub: [ 1 x_42_ ^ 2 - 2 x_49_ * x_42_ + 1 x_49_ ^ 2 + 1 y_42_ ^ 2 - 2 y_49_ * y_42_ + 1 y_49_ ^ 2 ] <= 373.7
quadratic_ranged_161_ub: [ 1 x_44_ ^ 2 - 2 x_49_ * x_44_ + 1 x_49_ ^ 2 + 1 y_44_ ^ 2 - 2 y_49_ * y_44_ + 1 y_49_ ^ 2 ] <= 19780.85
quadratic_ranged_162_ub: [ 1 x_48_ ^ 2 - 2 x_49_ * x_48_ + 1 x_49_ ^ 2 + 1 y_48_ ^ 2 - 2 y_49_ * y_48_ + 1 y_49_ ^ 2 ] <= 5115.65
quadratic_ranged_163_ub: [ 1 x_13_ ^ 2 - 2 x_50_ * x_13_ + 1 x_50_ ^ 2 + 1 y_13_ ^ 2 - 2 y_50_ * y_13_ + 1 y_50_ ^ 2 ] <= 5244.93
quadratic_ranged_164_ub: [ 1 x_38_ ^ 2 - 2 x_50_ * x_38_ + 1 x_50_ ^ 2 + 1 y_38_ ^ 2 - 2 y_50_ * y_38_ + 1 y_50_ ^ 2 ] <= 10109.09
quadratic_ranged_165_ub: [ 1 x_39_ ^ 2 - 2 x_50_ * x_39_ + 1 x_50_ ^ 2 + 1 y_39_ ^ 2 - 2 y_50_ * y_39_ + 1 y_50_ ^ 2 ] <= 31343.33
quadratic_ranged_166_ub: [ 1 x_49_ ^ 2 - 2 x_50_ * x_49_ + 1 x_50_ ^ 2 + 1 y_49_ ^ 2 - 2 y_50_ * y_49_ + 1 y_50_ ^ 2 ] <= 7434.61
quadratic_ranged_167_ub: [ 1 x_5_ ^ 2 - 2 x_51_ * x_5_ + 1 x_51_ ^ 2 + 1 y_5_ ^ 2 - 2 y_51_ * y_5_ + 1 y_51_ ^ 2 ] <= 14432.9
quadratic_ranged_168_ub: [ 1 x_19_ ^ 2 - 2 x_51_ * x_19_ + 1 x_51_ ^ 2 + 1 y_19_ ^ 2 - 2 y_51_ * y_19_ + 1 y_51_ ^ 2 ] <= 3519.85
quadratic_ranged_169_ub: [ 1 x_22_ ^ 2 - 2 x_51_ * x_22_ + 1 x_51_ ^ 2 + 1 y_22_ ^ 2 - 2 y_51_ * y_22_ + 1 y_51_ ^ 2 ] <= 23351.2
quadratic_ranged_170_ub: [ 1 x_46_ ^ 2 - 2 x_51_ * x_46_ + 1 x_51_ ^ 2 + 1 y_46_ ^ 2 - 2 y_51_ * y_46_ + 1 y_51_ ^ 2 ] <= 19638.44
quadratic_ranged_171_ub: [ 1 x_50_ ^ 2 - 2 x_51_ * x_50_ + 1 x_51_ ^ 2 + 1 y_50_ ^ 2 - 2 y_51_ * y_50_ + 1 y_51_ ^ 2 ] <= 29350.6
quadratic_ranged_172_ub: [ 1 x_1_ ^ 2 - 2 x_52_ * x_1_ + 1 x_52_ ^ 2 + 1 y_1_ ^ 2 - 2 y_52_ * y_1_ + 1 y_52_ ^ 2 ] <= 24048.1
quadratic_ranged_173_ub: [ 1 x_22_ ^ 2 - 2 x_52_ * x_22_ + 1 x_52_ ^ 2 + 1 y_22_ ^ 2 - 2 y_52_ * y_22_ + 1 y_52_ ^ 2 ] <= 32142.24
quadratic_ranged_174_ub: [ 1 x_27_ ^ 2 - 2 x_52_ * x_27_ + 1 x_52_ ^ 2 + 1 y_27_ ^ 2 - 2 y_52_ * y_27_ + 1 y_52_ ^ 2 ] <= 8282
quadratic_ranged_175_ub: [ 1 x_40_ ^ 2 - 2 x_52_ * x_40_ + 1 x_52_ ^ 2 + 1 y_40_ ^ 2 - 2 y_52_ * y_40_ + 1 y_52_ ^ 2 ] <= 19493
quadratic_ranged_176_ub: [ 1 x_42_ ^ 2 - 2 x_52_ * x_42_ + 1 x_52_ ^ 2 + 1 y_42_ ^ 2 - 2 y_52_ * y_42_ + 1 y_52_ ^ 2 ] <= 10084.85
quadratic_ranged_177_ub: [ 1 x_43_ ^ 2 - 2 x_52_ * x_43_ + 1 x_52_ ^ 2 + 1 y_43_ ^ 2 - 2 y_52_ * y_43_ + 1 y_52_ ^ 2 ] <= 3476.42
quadratic_ranged_178_ub: [ 1 x_51_ ^ 2 - 2 x_52_ * x_51_ + 1 x_52_ ^ 2 + 1 y_51_ ^ 2 - 2 y_52_ * y_51_ + 1 y_52_ ^ 2 ] <= 1098.88
quadratic_ranged_179_ub: [ 1 x_2_ ^ 2 - 2 x_53_ * x_2_ + 1 x_53_ ^ 2 + 1 y_2_ ^ 2 - 2 y_53_ * y_2_ + 1 y_53_ ^ 2 ] <= 5236.85
quadratic_ranged_180_ub: [ 1 x_4_ ^ 2 - 2 x_53_ * x_4_ + 1 x_53_ ^ 2 + 1 y_4_ ^ 2 - 2 y_53_ * y_4_ + 1 y_53_ ^ 2 ] <= 21829.13
quadratic_ranged_181_ub: [ 1 x_8_ ^ 2 - 2 x_53_ * x_8_ + 1 x_53_ ^ 2 + 1 y_8_ ^ 2 - 2 y_53_ * y_8_ + 1 y_53_ ^ 2 ] <= 52604.840000000004
quadratic_ranged_182_ub: [ 1 x_10_ ^ 2 - 2 x_53_ * x_10_ + 1 x_53_ ^ 2 + 1 y_10_ ^ 2 - 2 y_53_ * y_10_ + 1 y_53_ ^ 2 ] <= 12197.77
quadratic_ranged_183_ub: [ 1 x_13_ ^ 2 - 2 x_53_ * x_13_ + 1 x_53_ ^ 2 + 1 y_13_ ^ 2 - 2 y_53_ * y_13_ + 1 y_53_ ^ 2 ] <= 46630.69
quadratic_ranged_184_ub: [ 1 x_45_ ^ 2 - 2 x_53_ * x_45_ + 1 x_53_ ^ 2 + 1 y_45_ ^ 2 - 2 y_53_ * y_45_ + 1 y_53_ ^ 2 ] <= 46518.58
quadratic_ranged_185_ub: [ 1 x_49_ ^ 2 - 2 x_53_ * x_49_ + 1 x_53_ ^ 2 + 1 y_49_ ^ 2 - 2 y_53_ * y_49_ + 1 y_53_ ^ 2 ] <= 17368.97
quadratic_ranged_186_ub: [ 1 x_52_ ^ 2 - 2 x_53_ * x_52_ + 1 x_53_ ^ 2 + 1 y_52_ ^ 2 - 2 y_53_ * y_52_ + 1 y_53_ ^ 2 ] <= 36489.28
quadratic_ranged_187_ub: [ 1 x_6_ ^ 2 - 2 x_54_ * x_6_ + 1 x_54_ ^ 2 + 1 y_6_ ^ 2 - 2 y_54_ * y_6_ + 1 y_54_ ^ 2 ] <= 2967.38
quadratic_ranged_188_ub: [ 1 x_7_ ^ 2 - 2 x_54_ * x_7_ + 1 x_54_ ^ 2 + 1 y_7_ ^ 2 - 2 y_54_ * y_7_ + 1 y_54_ ^ 2 ] <= 4276.34
quadratic_ranged_189_ub: [ 1 x_15_ ^ 2 - 2 x_54_ * x_15_ + 1 x_54_ ^ 2 + 1 y_15_ ^ 2 - 2 y_54_ * y_15_ + 1 y_54_ ^ 2 ] <= 6827.6
quadratic_ranged_190_ub: [ 1 x_21_ ^ 2 - 2 x_54_ * x_21_ + 1 x_54_ ^ 2 + 1 y_21_ ^ 2 - 2 y_54_ * y_21_ + 1 y_54_ ^ 2 ] <= 18972.85
quadratic_ranged_191_ub: [ 1 x_40_ ^ 2 - 2 x_54_ * x_40_ + 1 x_54_ ^ 2 + 1 y_40_ ^ 2 - 2 y_54_ * y_40_ + 1 y_54_ ^ 2 ] <= 11999.81
quadratic_ranged_192_ub: [ 1 x_41_ ^ 2 - 2 x_54_ * x_41_ + 1 x_54_ ^ 2 + 1 y_41_ ^ 2 - 2 y_54_ * y_41_ + 1 y_54_ ^ 2 ] <= 2716.9
quadratic_ranged_193_ub: [ 1 x_50_ ^ 2 - 2 x_54_ * x_50_ + 1 x_54_ ^ 2 + 1 y_50_ ^ 2 - 2 y_54_ * y_50_ + 1 y_54_ ^ 2 ] <= 5580.25
quadratic_ranged_194_ub: [ 1 x_53_ ^ 2 - 2 x_54_ * x_53_ + 1 x_54_ ^ 2 + 1 y_53_ ^ 2 - 2 y_54_ * y_53_ + 1 y_54_ ^ 2 ] <= 11175.65
quadratic_ranged_195_ub: [ 1 x_26_ ^ 2 - 2 x_55_ * x_26_ + 1 x_55_ ^ 2 + 1 y_26_ ^ 2 - 2 y_55_ * y_26_ + 1 y_55_ ^ 2 ] <= 1083.73
quadratic_ranged_196_ub: [ 1 x_30_ ^ 2 - 2 x_55_ * x_30_ + 1 x_55_ ^ 2 + 1 y_30_ ^ 2 - 2 y_55_ * y_30_ + 1 y_55_ ^ 2 ] <= 35819.65
quadratic_ranged_197_ub: [ 1 x_52_ ^ 2 - 2 x_55_ * x_52_ + 1 x_55_ ^ 2 + 1 y_52_ ^ 2 - 2 y_55_ * y_52_ + 1 y_55_ ^ 2 ] <= 37787.13
quadratic_ranged_198_ub: [ 1 x_54_ ^ 2 - 2 x_55_ * x_54_ + 1 x_55_ ^ 2 + 1 y_54_ ^ 2 - 2 y_55_ * y_54_ + 1 y_55_ ^ 2 ] <= 1135.24
quadratic_ranged_199_ub: [ 1 x_8_ ^ 2 - 2 x_56_ * x_8_ + 1 x_56_ ^ 2 + 1 y_8_ ^ 2 - 2 y_56_ * y_8_ + 1 y_56_ ^ 2 ] <= 19324.33
quadratic_ranged_200_ub: [ 1 x_38_ ^ 2 - 2 x_56_ * x_38_ + 1 x_56_ ^ 2 + 1 y_38_ ^ 2 - 2 y_56_ * y_38_ + 1 y_56_ ^ 2 ] <= 17473
quadratic_ranged_201_ub: [ 1 x_54_ ^ 2 - 2 x_56_ * x_54_ + 1 x_56_ ^ 2 + 1 y_54_ ^ 2 - 2 y_56_ * y_54_ + 1 y_56_ ^ 2 ] <= 24516.74
quadratic_ranged_202_ub: [ 1 x_55_ ^ 2 - 2 x_56_ * x_55_ + 1 x_56_ ^ 2 + 1 y_55_ ^ 2 - 2 y_56_ * y_55_ + 1 y_56_ ^ 2 ] <= 36176.18
quadratic_ranged_203_ub: [ 1 x_24_ ^ 2 - 2 x_57_ * x_24_ + 1 x_57_ ^ 2 + 1 y_24_ ^ 2 - 2 y_57_ * y_24_ + 1 y_57_ ^ 2 ] <= 2138.17
quadratic_ranged_204_ub: [ 1 x_26_ ^ 2 - 2 x_57_ * x_26_ + 1 x_57_ ^ 2 + 1 y_26_ ^ 2 - 2 y_57_ * y_26_ + 1 y_57_ ^ 2 ] <= 16488.25
quadratic_ranged_205_ub: [ 1 x_30_ ^ 2 - 2 x_57_ * x_30_ + 1 x_57_ ^ 2 + 1 y_30_ ^ 2 - 2 y_57_ * y_30_ + 1 y_57_ ^ 2 ] <= 4206.65
quadratic_ranged_206_ub: [ 1 x_40_ ^ 2 - 2 x_57_ * x_40_ + 1 x_57_ ^ 2 + 1 y_40_ ^ 2 - 2 y_57_ * y_40_ + 1 y_57_ ^ 2 ] <= 1156.45
quadratic_ranged_207_ub: [ 1 x_43_ ^ 2 - 2 x_57_ * x_43_ + 1 x_57_ ^ 2 + 1 y_43_ ^ 2 - 2 y_57_ * y_43_ + 1 y_57_ ^ 2 ] <= 2243.21
quadratic_ranged_208_ub: [ 1 x_56_ ^ 2 - 2 x_57_ * x_56_ + 1 x_57_ ^ 2 + 1 y_56_ ^ 2 - 2 y_57_ * y_56_ + 1 y_57_ ^ 2 ] <= 9164.74
quadratic_ranged_209_ub: [ 1 x_12_ ^ 2 - 2 x_58_ * x_12_ + 1 x_58_ ^ 2 + 1 y_12_ ^ 2 - 2 y_58_ * y_12_ + 1 y_58_ ^ 2 ] <= 13988.5
quadratic_ranged_210_ub: [ 1 x_20_ ^ 2 - 2 x_58_ * x_20_ + 1 x_58_ ^ 2 + 1 y_20_ ^ 2 - 2 y_58_ * y_20_ + 1 y_58_ ^ 2 ] <= 7228.57
quadratic_ranged_211_ub: [ 1 x_24_ ^ 2 - 2 x_58_ * x_24_ + 1 x_58_ ^ 2 + 1 y_24_ ^ 2 - 2 y_58_ * y_24_ + 1 y_58_ ^ 2 ] <= 35949.94
quadratic_ranged_212_ub: [ 1 x_34_ ^ 2 - 2 x_58_ * x_34_ + 1 x_58_ ^ 2 + 1 y_34_ ^ 2 - 2 y_58_ * y_34_ + 1 y_58_ ^ 2 ] <= 1176.65
quadratic_ranged_213_ub: [ 1 x_54_ ^ 2 - 2 x_58_ * x_54_ + 1 x_58_ ^ 2 + 1 y_54_ ^ 2 - 2 y_58_ * y_54_ + 1 y_58_ ^ 2 ] <= 16581.170000000002
quadratic_ranged_214_ub: [ 1 x_56_ ^ 2 - 2 x_58_ * x_56_ + 1 x_58_ ^ 2 + 1 y_56_ ^ 2 - 2 y_58_ * y_56_ + 1 y_58_ ^ 2 ] <= 9571.77
quadratic_ranged_215_ub: [ 1 x_57_ ^ 2 - 2 x_58_ * x_57_ + 1 x_58_ ^ 2 + 1 y_57_ ^ 2 - 2 y_58_ * y_57_ + 1 y_58_ ^ 2 ] <= 20972.65
quadratic_ranged_216_ub: [ 1 x_12_ ^ 2 - 2 x_59_ * x_12_ + 1 x_59_ ^ 2 + 1 y_12_ ^ 2 - 2 y_59_ * y_12_ + 1 y_59_ ^ 2 ] <= 2498.7400000000002
quadratic_ranged_217_ub: [ 1 x_20_ ^ 2 - 2 x_59_ * x_20_ + 1 x_59_ ^ 2 + 1 y_20_ ^ 2 - 2 y_59_ * y_20_ + 1 y_59_ ^ 2 ] <= 34122.85
quadratic_ranged_218_ub: [ 1 x_58_ ^ 2 - 2 x_59_ * x_58_ + 1 x_59_ ^ 2 + 1 y_58_ ^ 2 - 2 y_59_ * y_58_ + 1 y_59_ ^ 2 ] <= 28255.760000000002
quadratic_ranged_219_ub: [ 1 x_12_ ^ 2 - 2 x_60_ * x_12_ + 1 x_60_ ^ 2 + 1 y_12_ ^ 2 - 2 y_60_ * y_12_ + 1 y_60_ ^ 2 ] <= 2232.1
quadratic_ranged_220_ub: [ 1 x_49_ ^ 2 - 2 x_60_ * x_49_ + 1 x_60_ ^ 2 + 1 y_49_ ^ 2 - 2 y_60_ * y_49_ + 1 y_60_ ^ 2 ] <= 61.61
quadratic_ranged_221_ub: [ 1 x_59_ ^ 2 - 2 x_60_ * x_59_ + 1 x_60_ ^ 2 + 1 y_59_ ^ 2 - 2 y_60_ * y_59_ + 1 y_60_ ^ 2 ] <= 7191.2
quadratic_ranged_222_ub: [ 1 x_20_ ^ 2 - 2 x_61_ * x_20_ + 1 x_61_ ^ 2 + 1 y_20_ ^ 2 - 2 y_61_ * y_20_ + 1 y_61_ ^ 2 ] <= 2918.9
quadratic_ranged_223_ub: [ 1 x_36_ ^ 2 - 2 x_61_ * x_36_ + 1 x_61_ ^ 2 + 1 y_36_ ^ 2 - 2 y_61_ * y_36_ + 1 y_61_ ^ 2 ] <= 18238.58
quadratic_ranged_224_ub: [ 1 x_46_ ^ 2 - 2 x_61_ * x_46_ + 1 x_61_ ^ 2 + 1 y_46_ ^ 2 - 2 y_61_ * y_46_ + 1 y_61_ ^ 2 ] <= 7418.45
quadratic_ranged_225_ub: [ 1 x_51_ ^ 2 - 2 x_61_ * x_51_ + 1 x_61_ ^ 2 + 1 y_51_ ^ 2 - 2 y_61_ * y_51_ + 1 y_61_ ^ 2 ] <= 3346.13
quadratic_ranged_226_ub: [ 1 x_56_ ^ 2 - 2 x_61_ * x_56_ + 1 x_61_ ^ 2 + 1 y_56_ ^ 2 - 2 y_61_ * y_56_ + 1 y_61_ ^ 2 ] <= 2040.2
quadratic_ranged_227_ub: [ 1 x_60_ ^ 2 - 2 x_61_ * x_60_ + 1 x_61_ ^ 2 + 1 y_60_ ^ 2 - 2 y_61_ * y_60_ + 1 y_61_ ^ 2 ] <= 3713.77
quadratic_ranged_228_ub: [ 1 x_1_ ^ 2 - 2 x_62_ * x_1_ + 1 x_62_ ^ 2 + 1 y_1_ ^ 2 - 2 y_62_ * y_1_ + 1 y_62_ ^ 2 ] <= 19638.44
quadratic_ranged_229_ub: [ 1 x_4_ ^ 2 - 2 x_62_ * x_4_ + 1 x_62_ ^ 2 + 1 y_4_ ^ 2 - 2 y_62_ * y_4_ + 1 y_62_ ^ 2 ] <= 2873.45
quadratic_ranged_230_ub: [ 1 x_18_ ^ 2 - 2 x_62_ * x_18_ + 1 x_62_ ^ 2 + 1 y_18_ ^ 2 - 2 y_62_ * y_18_ + 1 y_62_ ^ 2 ] <= 16654.9
quadratic_ranged_231_ub: [ 1 x_25_ ^ 2 - 2 x_62_ * x_25_ + 1 x_62_ ^ 2 + 1 y_25_ ^ 2 - 2 y_62_ * y_25_ + 1 y_62_ ^ 2 ] <= 5600.45
quadratic_ranged_232_ub: [ 1 x_35_ ^ 2 - 2 x_62_ * x_35_ + 1 x_62_ ^ 2 + 1 y_35_ ^ 2 - 2 y_62_ * y_35_ + 1 y_62_ ^ 2 ] <= 10069.7
quadratic_ranged_233_ub: [ 1 x_48_ ^ 2 - 2 x_62_ * x_48_ + 1 x_62_ ^ 2 + 1 y_48_ ^ 2 - 2 y_62_ * y_48_ + 1 y_62_ ^ 2 ] <= 656.5
quadratic_ranged_234_ub: [ 1 x_60_ ^ 2 - 2 x_62_ * x_60_ + 1 x_62_ ^ 2 + 1 y_60_ ^ 2 - 2 y_62_ * y_60_ + 1 y_62_ ^ 2 ] <= 3898.6
quadratic_ranged_235_ub: [ 1 x_61_ ^ 2 - 2 x_62_ * x_61_ + 1 x_62_ ^ 2 + 1 y_61_ ^ 2 - 2 y_62_ * y_61_ + 1 y_62_ ^ 2 ] <= 6335.7300000000005
quadratic_ranged_236_ub: [ 1 x_2_ ^ 2 - 2 x_63_ * x_2_ + 1 x_63_ ^ 2 + 1 y_2_ ^ 2 - 2 y_63_ * y_2_ + 1 y_63_ ^ 2 ] <= 14399.57
quadratic_ranged_237_ub: [ 1 x_6_ ^ 2 - 2 x_63_ * x_6_ + 1 x_63_ ^ 2 + 1 y_6_ ^ 2 - 2 y_63_ * y_6_ + 1 y_63_ ^ 2 ] <= 3822.85
quadratic_ranged_238_ub: [ 1 x_30_ ^ 2 - 2 x_63_ * x_30_ + 1 x_63_ ^ 2 + 1 y_30_ ^ 2 - 2 y_63_ * y_30_ + 1 y_63_ ^ 2 ] <= 31386.760000000002
quadratic_ranged_239_ub: [ 1 x_36_ ^ 2 - 2 x_63_ * x_36_ + 1 x_63_ ^ 2 + 1 y_36_ ^ 2 - 2 y_63_ * y_36_ + 1 y_63_ ^ 2 ] <= 16257.97
quadratic_ranged_240_ub: [ 1 x_44_ ^ 2 - 2 x_63_ * x_44_ + 1 x_63_ ^ 2 + 1 y_44_ ^ 2 - 2 y_63_ * y_44_ + 1 y_63_ ^ 2 ] <= 15079.3
quadratic_ranged_241_ub: [ 1 x_47_ ^ 2 - 2 x_63_ * x_47_ + 1 x_63_ ^ 2 + 1 y_47_ ^ 2 - 2 y_63_ * y_47_ + 1 y_63_ ^ 2 ] <= 6162.01
quadratic_ranged_242_ub: [ 1 x_52_ ^ 2 - 2 x_63_ * x_52_ + 1 x_63_ ^ 2 + 1 y_52_ ^ 2 - 2 y_63_ * y_52_ + 1 y_63_ ^ 2 ] <= 31271.62
quadratic_ranged_243_ub: [ 1 x_62_ ^ 2 - 2 x_63_ * x_62_ + 1 x_63_ ^ 2 + 1 y_62_ ^ 2 - 2 y_63_ * y_62_ + 1 y_63_ ^ 2 ] <= 10479.76
quadratic_ranged_244_ub: [ 1 x_37_ ^ 2 - 2 x_64_ * x_37_ + 1 x_64_ ^ 2 + 1 y_37_ ^ 2 - 2 y_64_ * y_37_ + 1 y_64_ ^ 2 ] <= 37614.42
quadratic_ranged_245_ub: [ 1 x_55_ ^ 2 - 2 x_64_ * x_55_ + 1 x_64_ ^ 2 + 1 y_55_ ^ 2 - 2 y_64_ * y_55_ + 1 y_64_ ^ 2 ] <= 5108.58
quadratic_ranged_246_ub: [ 1 x_63_ ^ 2 - 2 x_64_ * x_63_ + 1 x_64_ ^ 2 + 1 y_63_ ^ 2 - 2 y_64_ * y_63_ + 1 y_64_ ^ 2 ] <= 5240.89
quadratic_ranged_247_ub: [ 1 x_20_ ^ 2 - 2 x_65_ * x_20_ + 1 x_65_ ^ 2 + 1 y_20_ ^ 2 - 2 y_65_ * y_20_ + 1 y_65_ ^ 2 ] <= 15814.58
quadratic_ranged_248_ub: [ 1 x_24_ ^ 2 - 2 x_65_ * x_24_ + 1 x_65_ ^ 2 + 1 y_24_ ^ 2 - 2 y_65_ * y_24_ + 1 y_65_ ^ 2 ] <= 22257.37
quadratic_ranged_249_ub: [ 1 x_36_ ^ 2 - 2 x_65_ * x_36_ + 1 x_65_ ^ 2 + 1 y_36_ ^ 2 - 2 y_65_ * y_36_ + 1 y_65_ ^ 2 ] <= 4979.3
quadratic_ranged_250_ub: [ 1 x_37_ ^ 2 - 2 x_65_ * x_37_ + 1 x_65_ ^ 2 + 1 y_37_ ^ 2 - 2 y_65_ * y_37_ + 1 y_65_ ^ 2 ] <= 7645.7
quadratic_ranged_251_ub: [ 1 x_43_ ^ 2 - 2 x_65_ * x_43_ + 1 x_65_ ^ 2 + 1 y_43_ ^ 2 - 2 y_65_ * y_43_ + 1 y_65_ ^ 2 ] <= 11212.01
quadratic_ranged_252_ub: [ 1 x_55_ ^ 2 - 2 x_65_ * x_55_ + 1 x_65_ ^ 2 + 1 y_55_ ^ 2 - 2 y_65_ * y_55_ + 1 y_65_ ^ 2 ] <= 5512.58
quadratic_ranged_253_ub: [ 1 x_59_ ^ 2 - 2 x_65_ * x_59_ + 1 x_65_ ^ 2 + 1 y_59_ ^ 2 - 2 y_65_ * y_59_ + 1 y_65_ ^ 2 ] <= 8101.21
quadratic_ranged_254_ub: [ 1 x_64_ ^ 2 - 2 x_65_ * x_64_ + 1 x_65_ ^ 2 + 1 y_64_ ^ 2 - 2 y_65_ * y_64_ + 1 y_65_ ^ 2 ] <= 14741.960000000001
quadratic_ranged_255_ub: [ 1 x_35_ ^ 2 - 2 x_66_ * x_35_ + 1 x_66_ ^ 2 + 1 y_35_ ^ 2 - 2 y_66_ * y_35_ + 1 y_66_ ^ 2 ] <= 14080.41
quadratic_ranged_256_ub: [ 1 x_37_ ^ 2 - 2 x_66_ * x_37_ + 1 x_66_ ^ 2 + 1 y_37_ ^ 2 - 2 y_66_ * y_37_ + 1 y_66_ ^ 2 ] <= 9334.42
quadratic_ranged_257_ub: [ 1 x_57_ ^ 2 - 2 x_66_ * x_57_ + 1 x_66_ ^ 2 + 1 y_57_ ^ 2 - 2 y_66_ * y_57_ + 1 y_66_ ^ 2 ] <= 15321.7
quadratic_ranged_258_ub: [ 1 x_60_ ^ 2 - 2 x_66_ * x_60_ + 1 x_66_ ^ 2 + 1 y_60_ ^ 2 - 2 y_66_ * y_60_ + 1 y_66_ ^ 2 ] <= 6545.81
quadratic_ranged_259_ub: [ 1 x_63_ ^ 2 - 2 x_66_ * x_63_ + 1 x_66_ ^ 2 + 1 y_63_ ^ 2 - 2 y_66_ * y_63_ + 1 y_66_ ^ 2 ] <= 12630.05
quadratic_ranged_260_ub: [ 1 x_65_ ^ 2 - 2 x_66_ * x_65_ + 1 x_66_ ^ 2 + 1 y_65_ ^ 2 - 2 y_66_ * y_65_ + 1 y_66_ ^ 2 ] <= 2916.88
quadratic_ranged_261_ub: [ 1 x_7_ ^ 2 - 2 x_67_ * x_7_ + 1 x_67_ ^ 2 + 1 y_7_ ^ 2 - 2 y_67_ * y_7_ + 1 y_67_ ^ 2 ] <= 9819.22
quadratic_ranged_262_ub: [ 1 x_12_ ^ 2 - 2 x_67_ * x_12_ + 1 x_67_ ^ 2 + 1 y_12_ ^ 2 - 2 y_67_ * y_12_ + 1 y_67_ ^ 2 ] <= 2489.65
quadratic_ranged_263_ub: [ 1 x_24_ ^ 2 - 2 x_67_ * x_24_ + 1 x_67_ ^ 2 + 1 y_24_ ^ 2 - 2 y_67_ * y_24_ + 1 y_67_ ^ 2 ] <= 25877.21
quadratic_ranged_264_ub: [ 1 x_30_ ^ 2 - 2 x_67_ * x_30_ + 1 x_67_ ^ 2 + 1 y_30_ ^ 2 - 2 y_67_ * y_30_ + 1 y_67_ ^ 2 ] <= 40001.05
quadratic_ranged_265_ub: [ 1 x_33_ ^ 2 - 2 x_67_ * x_33_ + 1 x_67_ ^ 2 + 1 y_33_ ^ 2 - 2 y_67_ * y_33_ + 1 y_67_ ^ 2 ] <= 12000.82
quadratic_ranged_266_ub: [ 1 x_34_ ^ 2 - 2 x_67_ * x_34_ + 1 x_67_ ^ 2 + 1 y_34_ ^ 2 - 2 y_67_ * y_34_ + 1 y_67_ ^ 2 ] <= 22916.9
quadratic_ranged_267_ub: [ 1 x_42_ ^ 2 - 2 x_67_ * x_42_ + 1 x_67_ ^ 2 + 1 y_42_ ^ 2 - 2 y_67_ * y_42_ + 1 y_67_ ^ 2 ] <= 7936.58
quadratic_ranged_268_ub: [ 1 x_52_ ^ 2 - 2 x_67_ * x_52_ + 1 x_67_ ^ 2 + 1 y_52_ ^ 2 - 2 y_67_ * y_52_ + 1 y_67_ ^ 2 ] <= 35528.77
quadratic_ranged_269_ub: [ 1 x_56_ ^ 2 - 2 x_67_ * x_56_ + 1 x_67_ ^ 2 + 1 y_56_ ^ 2 - 2 y_67_ * y_56_ + 1 y_67_ ^ 2 ] <= 34406.66
quadratic_ranged_270_ub: [ 1 x_66_ ^ 2 - 2 x_67_ * x_66_ + 1 x_67_ ^ 2 + 1 y_66_ ^ 2 - 2 y_67_ * y_66_ + 1 y_67_ ^ 2 ] <= 13026.98
quadratic_ranged_271_ub: [ 1 x_21_ ^ 2 - 2 x_68_ * x_21_ + 1 x_68_ ^ 2 + 1 y_21_ ^ 2 - 2 y_68_ * y_21_ + 1 y_68_ ^ 2 ] <= 5418.65
quadratic_ranged_272_ub: [ 1 x_28_ ^ 2 - 2 x_68_ * x_28_ + 1 x_68_ ^ 2 + 1 y_28_ ^ 2 - 2 y_68_ * y_28_ + 1 y_68_ ^ 2 ] <= 12685.6
quadratic_ranged_273_ub: [ 1 x_34_ ^ 2 - 2 x_68_ * x_34_ + 1 x_68_ ^ 2 + 1 y_34_ ^ 2 - 2 y_68_ * y_34_ + 1 y_68_ ^ 2 ] <= 3912.7400000000002
quadratic_ranged_274_ub: [ 1 x_35_ ^ 2 - 2 x_68_ * x_35_ + 1 x_68_ ^ 2 + 1 y_35_ ^ 2 - 2 y_68_ * y_35_ + 1 y_68_ ^ 2 ] <= 7951.7300000000005
quadratic_ranged_275_ub: [ 1 x_36_ ^ 2 - 2 x_68_ * x_36_ + 1 x_68_ ^ 2 + 1 y_36_ ^ 2 - 2 y_68_ * y_36_ + 1 y_68_ ^ 2 ] <= 5159.08
quadratic_ranged_276_ub: [ 1 x_42_ ^ 2 - 2 x_68_ * x_42_ + 1 x_68_ ^ 2 + 1 y_42_ ^ 2 - 2 y_68_ * y_42_ + 1 y_68_ ^ 2 ] <= 373.7
quadratic_ranged_277_ub: [ 1 x_46_ ^ 2 - 2 x_68_ * x_46_ + 1 x_68_ ^ 2 + 1 y_46_ ^ 2 - 2 y_68_ * y_46_ + 1 y_68_ ^ 2 ] <= 14088.49
quadratic_ranged_278_ub: [ 1 x_49_ ^ 2 - 2 x_68_ * x_49_ + 1 x_68_ ^ 2 + 1 y_49_ ^ 2 - 2 y_68_ * y_49_ + 1 y_68_ ^ 2 ] <= 1494.8
quadratic_ranged_279_ub: [ 1 x_61_ ^ 2 - 2 x_68_ * x_61_ + 1 x_68_ ^ 2 + 1 y_61_ ^ 2 - 2 y_68_ * y_61_ + 1 y_68_ ^ 2 ] <= 5940.82
quadratic_ranged_280_ub: [ 1 x_65_ ^ 2 - 2 x_68_ * x_65_ + 1 x_68_ ^ 2 + 1 y_65_ ^ 2 - 2 y_68_ * y_65_ + 1 y_68_ ^ 2 ] <= 1238.26
quadratic_ranged_281_ub: [ 1 x_67_ ^ 2 - 2 x_68_ * x_67_ + 1 x_68_ ^ 2 + 1 y_67_ ^ 2 - 2 y_68_ * y_67_ + 1 y_68_ ^ 2 ] <= 8435.52
quadratic_ranged_282_ub: [ 1 x_8_ ^ 2 - 2 x_69_ * x_8_ + 1 x_69_ ^ 2 + 1 y_8_ ^ 2 - 2 y_69_ * y_8_ + 1 y_69_ ^ 2 ] <= 12948.2
quadratic_ranged_283_ub: [ 1 x_18_ ^ 2 - 2 x_69_ * x_18_ + 1 x_69_ ^ 2 + 1 y_18_ ^ 2 - 2 y_69_ * y_18_ + 1 y_69_ ^ 2 ] <= 29189
quadratic_ranged_284_ub: [ 1 x_23_ ^ 2 - 2 x_69_ * x_23_ + 1 x_69_ ^ 2 + 1 y_23_ ^ 2 - 2 y_69_ * y_23_ + 1 y_69_ ^ 2 ] <= 35165.17
quadratic_ranged_285_ub: [ 1 x_33_ ^ 2 - 2 x_69_ * x_33_ + 1 x_69_ ^ 2 + 1 y_33_ ^ 2 - 2 y_69_ * y_33_ + 1 y_69_ ^ 2 ] <= 5976.17
quadratic_ranged_286_ub: [ 1 x_37_ ^ 2 - 2 x_69_ * x_37_ + 1 x_69_ ^ 2 + 1 y_37_ ^ 2 - 2 y_69_ * y_37_ + 1 y_69_ ^ 2 ] <= 39487.97
quadratic_ranged_287_ub: [ 1 x_40_ ^ 2 - 2 x_69_ * x_40_ + 1 x_69_ ^ 2 + 1 y_40_ ^ 2 - 2 y_69_ * y_40_ + 1 y_69_ ^ 2 ] <= 11073.64
quadratic_ranged_288_ub: [ 1 x_62_ ^ 2 - 2 x_69_ * x_62_ + 1 x_69_ ^ 2 + 1 y_62_ ^ 2 - 2 y_69_ * y_62_ + 1 y_69_ ^ 2 ] <= 8195.14
quadratic_ranged_289_ub: [ 1 x_66_ ^ 2 - 2 x_69_ * x_66_ + 1 x_69_ ^ 2 + 1 y_66_ ^ 2 - 2 y_69_ * y_66_ + 1 y_69_ ^ 2 ] <= 10658.53
quadratic_ranged_290_ub: [ 1 x_68_ ^ 2 - 2 x_69_ * x_68_ + 1 x_69_ ^ 2 + 1 y_68_ ^ 2 - 2 y_69_ * y_68_ + 1 y_69_ ^ 2 ] <= 8622.37
quadratic_ranged_291_ub: [ 1 x_5_ ^ 2 - 2 x_70_ * x_5_ + 1 x_70_ ^ 2 + 1 y_5_ ^ 2 - 2 y_70_ * y_5_ + 1 y_70_ ^ 2 ] <= 1181.7
quadratic_ranged_292_ub: [ 1 x_17_ ^ 2 - 2 x_70_ * x_17_ + 1 x_70_ ^ 2 + 1 y_17_ ^ 2 - 2 y_70_ * y_17_ + 1 y_70_ ^ 2 ] <= 6748.82
quadratic_ranged_293_ub: [ 1 x_22_ ^ 2 - 2 x_70_ * x_22_ + 1 x_70_ ^ 2 + 1 y_22_ ^ 2 - 2 y_70_ * y_22_ + 1 y_70_ ^ 2 ] <= 5013.64
quadratic_ranged_294_ub: [ 1 x_32_ ^ 2 - 2 x_70_ * x_32_ + 1 x_70_ ^ 2 + 1 y_32_ ^ 2 - 2 y_70_ * y_32_ + 1 y_70_ ^ 2 ] <= 11935.17
quadratic_ranged_295_ub: [ 1 x_36_ ^ 2 - 2 x_70_ * x_36_ + 1 x_70_ ^ 2 + 1 y_36_ ^ 2 - 2 y_70_ * y_36_ + 1 y_70_ ^ 2 ] <= 13955.17
quadratic_ranged_296_ub: [ 1 x_63_ ^ 2 - 2 x_70_ * x_63_ + 1 x_70_ ^ 2 + 1 y_63_ ^ 2 - 2 y_70_ * y_63_ + 1 y_70_ ^ 2 ] <= 4017.78
quadratic_ranged_297_ub: [ 1 x_69_ ^ 2 - 2 x_70_ * x_69_ + 1 x_70_ ^ 2 + 1 y_69_ ^ 2 - 2 y_70_ * y_69_ + 1 y_70_ ^ 2 ] <= 9958.6
quadratic_ranged_298_ub: [ 1 x_5_ ^ 2 - 2 x_71_ * x_5_ + 1 x_71_ ^ 2 + 1 y_5_ ^ 2 - 2 y_71_ * y_5_ + 1 y_71_ ^ 2 ] <= 7783.06
quadratic_ranged_299_ub: [ 1 x_18_ ^ 2 - 2 x_71_ * x_18_ + 1 x_71_ ^ 2 + 1 y_18_ ^ 2 - 2 y_71_ * y_18_ + 1 y_71_ ^ 2 ] <= 20329.28
quadratic_ranged_300_ub: [ 1 x_22_ ^ 2 - 2 x_71_ * x_22_ + 1 x_71_ ^ 2 + 1 y_22_ ^ 2 - 2 y_71_ * y_22_ + 1 y_71_ ^ 2 ] <= 14144.04
quadratic_ranged_301_ub: [ 1 x_32_ ^ 2 - 2 x_71_ * x_32_ + 1 x_71_ ^ 2 + 1 y_32_ ^ 2 - 2 y_71_ * y_32_ + 1 y_71_ ^ 2 ] <= 32547.25
quadratic_ranged_302_ub: [ 1 x_50_ ^ 2 - 2 x_71_ * x_50_ + 1 x_71_ ^ 2 + 1 y_50_ ^ 2 - 2 y_71_ * y_50_ + 1 y_71_ ^ 2 ] <= 22179.6
quadratic_ranged_303_ub: [ 1 x_66_ ^ 2 - 2 x_71_ * x_66_ + 1 x_71_ ^ 2 + 1 y_66_ ^ 2 - 2 y_71_ * y_66_ + 1 y_71_ ^ 2 ] <= 974.65
quadratic_ranged_304_ub: [ 1 x_70_ ^ 2 - 2 x_71_ * x_70_ + 1 x_71_ ^ 2 + 1 y_70_ ^ 2 - 2 y_71_ * y_70_ + 1 y_71_ ^ 2 ] <= 5704.4800000000005
quadratic_ranged_305_ub: [ 1 x_7_ ^ 2 - 2 x_72_ * x_7_ + 1 x_72_ ^ 2 + 1 y_7_ ^ 2 - 2 y_72_ * y_7_ + 1 y_72_ ^ 2 ] <= 17974.97
quadratic_ranged_306_ub: [ 1 x_34_ ^ 2 - 2 x_72_ * x_34_ + 1 x_72_ ^ 2 + 1 y_34_ ^ 2 - 2 y_72_ * y_34_ + 1 y_72_ ^ 2 ] <= 6913.45
quadratic_ranged_307_ub: [ 1 x_46_ ^ 2 - 2 x_72_ * x_46_ + 1 x_72_ ^ 2 + 1 y_46_ ^ 2 - 2 y_72_ * y_46_ + 1 y_72_ ^ 2 ] <= 27734.6
quadratic_ranged_308_ub: [ 1 x_48_ ^ 2 - 2 x_72_ * x_48_ + 1 x_72_ ^ 2 + 1 y_48_ ^ 2 - 2 y_72_ * y_48_ + 1 y_72_ ^ 2 ] <= 597.92
quadratic_ranged_309_ub: [ 1 x_57_ ^ 2 - 2 x_72_ * x_57_ + 1 x_72_ ^ 2 + 1 y_57_ ^ 2 - 2 y_72_ * y_57_ + 1 y_72_ ^ 2 ] <= 20584.81
quadratic_ranged_310_ub: [ 1 x_68_ ^ 2 - 2 x_72_ * x_68_ + 1 x_72_ ^ 2 + 1 y_68_ ^ 2 - 2 y_72_ * y_68_ + 1 y_72_ ^ 2 ] <= 2703.77
quadratic_ranged_311_ub: [ 1 x_71_ ^ 2 - 2 x_72_ * x_71_ + 1 x_72_ ^ 2 + 1 y_71_ ^ 2 - 2 y_72_ * y_71_ + 1 y_72_ ^ 2 ] <= 4868.2
quadratic_ranged_312_ub: [ 1 x_1_ ^ 2 - 2 x_73_ * x_1_ + 1 x_73_ ^ 2 + 1 y_1_ ^ 2 - 2 y_73_ * y_1_ + 1 y_73_ ^ 2 ] <= 30099.010000000002
quadratic_ranged_313_ub: [ 1 x_8_ ^ 2 - 2 x_73_ * x_8_ + 1 x_73_ ^ 2 + 1 y_8_ ^ 2 - 2 y_73_ * y_8_ + 1 y_73_ ^ 2 ] <= 38304.25
quadratic_ranged_314_ub: [ 1 x_28_ ^ 2 - 2 x_73_ * x_28_ + 1 x_73_ ^ 2 + 1 y_28_ ^ 2 - 2 y_73_ * y_28_ + 1 y_73_ ^ 2 ] <= 23854.18
quadratic_ranged_315_ub: [ 1 x_31_ ^ 2 - 2 x_73_ * x_31_ + 1 x_73_ ^ 2 + 1 y_31_ ^ 2 - 2 y_73_ * y_31_ + 1 y_73_ ^ 2 ] <= 1612.97
quadratic_ranged_316_ub: [ 1 x_46_ ^ 2 - 2 x_73_ * x_46_ + 1 x_73_ ^ 2 + 1 y_46_ ^ 2 - 2 y_73_ * y_46_ + 1 y_73_ ^ 2 ] <= 30923.170000000002
quadratic_ranged_317_ub: [ 1 x_56_ ^ 2 - 2 x_73_ * x_56_ + 1 x_73_ ^ 2 + 1 y_56_ ^ 2 - 2 y_73_ * y_56_ + 1 y_73_ ^ 2 ] <= 28651.68
quadratic_ranged_318_ub: [ 1 x_58_ ^ 2 - 2 x_73_ * x_58_ + 1 x_73_ ^ 2 + 1 y_58_ ^ 2 - 2 y_73_ * y_58_ + 1 y_73_ ^ 2 ] <= 9426.33
quadratic_ranged_319_ub: [ 1 x_72_ ^ 2 - 2 x_73_ * x_72_ + 1 x_73_ ^ 2 + 1 y_72_ ^ 2 - 2 y_73_ * y_72_ + 1 y_73_ ^ 2 ] <= 1338.25
quadratic_ranged_320_ub: [ 1 x_3_ ^ 2 - 2 x_74_ * x_3_ + 1 x_74_ ^ 2 + 1 y_3_ ^ 2 - 2 y_74_ * y_3_ + 1 y_74_ ^ 2 ] <= 5774.17
quadratic_ranged_321_ub: [ 1 x_6_ ^ 2 - 2 x_74_ * x_6_ + 1 x_74_ ^ 2 + 1 y_6_ ^ 2 - 2 y_74_ * y_6_ + 1 y_74_ ^ 2 ] <= 13753.17
quadratic_ranged_322_ub: [ 1 x_10_ ^ 2 - 2 x_74_ * x_10_ + 1 x_74_ ^ 2 + 1 y_10_ ^ 2 - 2 y_74_ * y_10_ + 1 y_74_ ^ 2 ] <= 3826.89
quadratic_ranged_323_ub: [ 1 x_14_ ^ 2 - 2 x_74_ * x_14_ + 1 x_74_ ^ 2 + 1 y_14_ ^ 2 - 2 y_74_ * y_14_ + 1 y_74_ ^ 2 ] <= 10448.45
quadratic_ranged_324_ub: [ 1 x_20_ ^ 2 - 2 x_74_ * x_20_ + 1 x_74_ ^ 2 + 1 y_20_ ^ 2 - 2 y_74_ * y_20_ + 1 y_74_ ^ 2 ] <= 2008.89
quadratic_ranged_325_ub: [ 1 x_23_ ^ 2 - 2 x_74_ * x_23_ + 1 x_74_ ^ 2 + 1 y_23_ ^ 2 - 2 y_74_ * y_23_ + 1 y_74_ ^ 2 ] <= 26256.97
quadratic_ranged_326_ub: [ 1 x_38_ ^ 2 - 2 x_74_ * x_38_ + 1 x_74_ ^ 2 + 1 y_38_ ^ 2 - 2 y_74_ * y_38_ + 1 y_74_ ^ 2 ] <= 12512.89
quadratic_ranged_327_ub: [ 1 x_53_ ^ 2 - 2 x_74_ * x_53_ + 1 x_74_ ^ 2 + 1 y_53_ ^ 2 - 2 y_74_ * y_53_ + 1 y_74_ ^ 2 ] <= 26544.82
quadratic_ranged_328_ub: [ 1 x_56_ ^ 2 - 2 x_74_ * x_56_ + 1 x_74_ ^ 2 + 1 y_56_ ^ 2 - 2 y_74_ * y_56_ + 1 y_74_ ^ 2 ] <= 1786.69
quadratic_ranged_329_ub: [ 1 x_62_ ^ 2 - 2 x_74_ * x_62_ + 1 x_74_ ^ 2 + 1 y_62_ ^ 2 - 2 y_74_ * y_62_ + 1 y_74_ ^ 2 ] <= 3434
quadratic_ranged_330_ub: [ 1 x_73_ ^ 2 - 2 x_74_ * x_73_ + 1 x_74_ ^ 2 + 1 y_73_ ^ 2 - 2 y_74_ * y_73_ + 1 y_74_ ^ 2 ] <= 18366.85
quadratic_ranged_331_ub: [ 1 x_21_ ^ 2 - 2 x_75_ * x_21_ + 1 x_75_ ^ 2 + 1 y_21_ ^ 2 - 2 y_75_ * y_21_ + 1 y_75_ ^ 2 ] <= 10549.45
quadratic_ranged_332_ub: [ 1 x_36_ ^ 2 - 2 x_75_ * x_36_ + 1 x_75_ ^ 2 + 1 y_36_ ^ 2 - 2 y_75_ * y_36_ + 1 y_75_ ^ 2 ] <= 5179.28
quadratic_ranged_333_ub: [ 1 x_42_ ^ 2 - 2 x_75_ * x_42_ + 1 x_75_ ^ 2 + 1 y_42_ ^ 2 - 2 y_75_ * y_42_ + 1 y_75_ ^ 2 ] <= 5383.3
quadratic_ranged_334_ub: [ 1 x_43_ ^ 2 - 2 x_75_ * x_43_ + 1 x_75_ ^ 2 + 1 y_43_ ^ 2 - 2 y_75_ * y_43_ + 1 y_75_ ^ 2 ] <= 18766.81
quadratic_ranged_335_ub: [ 1 x_59_ ^ 2 - 2 x_75_ * x_59_ + 1 x_75_ ^ 2 + 1 y_59_ ^ 2 - 2 y_75_ * y_59_ + 1 y_75_ ^ 2 ] <= 9519.25
quadratic_ranged_336_ub: [ 1 x_66_ ^ 2 - 2 x_75_ * x_66_ + 1 x_75_ ^ 2 + 1 y_66_ ^ 2 - 2 y_75_ * y_66_ + 1 y_75_ ^ 2 ] <= 5270.18
quadratic_ranged_337_ub: [ 1 x_74_ ^ 2 - 2 x_75_ * x_74_ + 1 x_75_ ^ 2 + 1 y_74_ ^ 2 - 2 y_75_ * y_74_ + 1 y_75_ ^ 2 ] <= 15478.25
quadratic_ranged_338_ub: [ 1 x_6_ ^ 2 - 2 x_76_ * x_6_ + 1 x_76_ ^ 2 + 1 y_6_ ^ 2 - 2 y_76_ * y_6_ + 1 y_76_ ^ 2 ] <= 1100.9
quadratic_ranged_339_ub: [ 1 x_17_ ^ 2 - 2 x_76_ * x_17_ + 1 x_76_ ^ 2 + 1 y_17_ ^ 2 - 2 y_76_ * y_17_ + 1 y_76_ ^ 2 ] <= 13761.25
quadratic_ranged_340_ub: [ 1 x_33_ ^ 2 - 2 x_76_ * x_33_ + 1 x_76_ ^ 2 + 1 y_33_ ^ 2 - 2 y_76_ * y_33_ + 1 y_76_ ^ 2 ] <= 16735.7
quadratic_ranged_341_ub: [ 1 x_35_ ^ 2 - 2 x_76_ * x_35_ + 1 x_76_ ^ 2 + 1 y_35_ ^ 2 - 2 y_76_ * y_35_ + 1 y_76_ ^ 2 ] <= 6703.37
quadratic_ranged_342_ub: [ 1 x_40_ ^ 2 - 2 x_76_ * x_40_ + 1 x_76_ ^ 2 + 1 y_40_ ^ 2 - 2 y_76_ * y_40_ + 1 y_76_ ^ 2 ] <= 2243.21
quadratic_ranged_343_ub: [ 1 x_44_ ^ 2 - 2 x_76_ * x_44_ + 1 x_76_ ^ 2 + 1 y_44_ ^ 2 - 2 y_76_ * y_44_ + 1 y_76_ ^ 2 ] <= 43536.05
quadratic_ranged_344_ub: [ 1 x_49_ ^ 2 - 2 x_76_ * x_49_ + 1 x_76_ ^ 2 + 1 y_49_ ^ 2 - 2 y_76_ * y_49_ + 1 y_76_ ^ 2 ] <= 7227.56
quadratic_ranged_345_ub: [ 1 x_70_ ^ 2 - 2 x_76_ * x_70_ + 1 x_76_ ^ 2 + 1 y_70_ ^ 2 - 2 y_76_ * y_70_ + 1 y_76_ ^ 2 ] <= 5531.77
quadratic_ranged_346_ub: [ 1 x_75_ ^ 2 - 2 x_76_ * x_75_ + 1 x_76_ ^ 2 + 1 y_75_ ^ 2 - 2 y_76_ * y_75_ + 1 y_76_ ^ 2 ] <= 21234.24
quadratic_ranged_347_ub: [ 1 x_8_ ^ 2 - 2 x_77_ * x_8_ + 1 x_77_ ^ 2 + 1 y_8_ ^ 2 - 2 y_77_ * y_8_ + 1 y_77_ ^ 2 ] <= 5301.49
quadratic_ranged_348_ub: [ 1 x_9_ ^ 2 - 2 x_77_ * x_9_ + 1 x_77_ ^ 2 + 1 y_9_ ^ 2 - 2 y_77_ * y_9_ + 1 y_77_ ^ 2 ] <= 186.85
quadratic_ranged_349_ub: [ 1 x_18_ ^ 2 - 2 x_77_ * x_18_ + 1 x_77_ ^ 2 + 1 y_18_ ^ 2 - 2 y_77_ * y_18_ + 1 y_77_ ^ 2 ] <= 2853.25
quadratic_ranged_350_ub: [ 1 x_29_ ^ 2 - 2 x_77_ * x_29_ + 1 x_77_ ^ 2 + 1 y_29_ ^ 2 - 2 y_77_ * y_29_ + 1 y_77_ ^ 2 ] <= 7479.05
quadratic_ranged_351_ub: [ 1 x_40_ ^ 2 - 2 x_77_ * x_40_ + 1 x_77_ ^ 2 + 1 y_40_ ^ 2 - 2 y_77_ * y_40_ + 1 y_77_ ^ 2 ] <= 2812.85
quadratic_ranged_352_ub: [ 1 x_49_ ^ 2 - 2 x_77_ * x_49_ + 1 x_77_ ^ 2 + 1 y_49_ ^ 2 - 2 y_77_ * y_49_ + 1 y_77_ ^ 2 ] <= 4050.1
quadratic_ranged_353_ub: [ 1 x_54_ ^ 2 - 2 x_77_ * x_54_ + 1 x_77_ ^ 2 + 1 y_54_ ^ 2 - 2 y_77_ * y_54_ + 1 y_77_ ^ 2 ] <= 4163.22
quadratic_ranged_354_ub: [ 1 x_68_ ^ 2 - 2 x_77_ * x_68_ + 1 x_77_ ^ 2 + 1 y_68_ ^ 2 - 2 y_77_ * y_68_ + 1 y_77_ ^ 2 ] <= 10021.22
quadratic_ranged_355_ub: [ 1 x_76_ ^ 2 - 2 x_77_ * x_76_ + 1 x_77_ ^ 2 + 1 y_76_ ^ 2 - 2 y_77_ * y_76_ + 1 y_77_ ^ 2 ] <= 583.78
quadratic_ranged_356_ub: [ 1 x_13_ ^ 2 - 2 x_78_ * x_13_ + 1 x_78_ ^ 2 + 1 y_13_ ^ 2 - 2 y_78_ * y_13_ + 1 y_78_ ^ 2 ] <= 1641.25
quadratic_ranged_357_ub: [ 1 x_16_ ^ 2 - 2 x_78_ * x_16_ + 1 x_78_ ^ 2 + 1 y_16_ ^ 2 - 2 y_78_ * y_16_ + 1 y_78_ ^ 2 ] <= 3543.08
quadratic_ranged_358_ub: [ 1 x_37_ ^ 2 - 2 x_78_ * x_37_ + 1 x_78_ ^ 2 + 1 y_37_ ^ 2 - 2 y_78_ * y_37_ + 1 y_78_ ^ 2 ] <= 36934.69
quadratic_ranged_359_ub: [ 1 x_44_ ^ 2 - 2 x_78_ * x_44_ + 1 x_78_ ^ 2 + 1 y_44_ ^ 2 - 2 y_78_ * y_44_ + 1 y_78_ ^ 2 ] <= 36612.5
quadratic_ranged_360_ub: [ 1 x_45_ ^ 2 - 2 x_78_ * x_45_ + 1 x_78_ ^ 2 + 1 y_45_ ^ 2 - 2 y_78_ * y_45_ + 1 y_78_ ^ 2 ] <= 1397.84
quadratic_ranged_361_ub: [ 1 x_52_ ^ 2 - 2 x_78_ * x_52_ + 1 x_78_ ^ 2 + 1 y_52_ ^ 2 - 2 y_78_ * y_52_ + 1 y_78_ ^ 2 ] <= 20315.14
quadratic_ranged_362_ub: [ 1 x_58_ ^ 2 - 2 x_78_ * x_58_ + 1 x_78_ ^ 2 + 1 y_58_ ^ 2 - 2 y_78_ * y_58_ + 1 y_78_ ^ 2 ] <= 25217.68
quadratic_ranged_363_ub: [ 1 x_77_ ^ 2 - 2 x_78_ * x_77_ + 1 x_78_ ^ 2 + 1 y_77_ ^ 2 - 2 y_78_ * y_77_ + 1 y_78_ ^ 2 ] <= 550.45
quadratic_ranged_364_ub: [ 1 x_15_ ^ 2 - 2 x_79_ * x_15_ + 1 x_79_ ^ 2 + 1 y_15_ ^ 2 - 2 y_79_ * y_15_ + 1 y_79_ ^ 2 ] <= 8282
quadratic_ranged_365_ub: [ 1 x_16_ ^ 2 - 2 x_79_ * x_16_ + 1 x_79_ ^ 2 + 1 y_16_ ^ 2 - 2 y_79_ * y_16_ + 1 y_79_ ^ 2 ] <= 17914.37
quadratic_ranged_366_ub: [ 1 x_17_ ^ 2 - 2 x_79_ * x_17_ + 1 x_79_ ^ 2 + 1 y_17_ ^ 2 - 2 y_79_ * y_17_ + 1 y_79_ ^ 2 ] <= 35759.05
quadratic_ranged_367_ub: [ 1 x_18_ ^ 2 - 2 x_79_ * x_18_ + 1 x_79_ ^ 2 + 1 y_18_ ^ 2 - 2 y_79_ * y_18_ + 1 y_79_ ^ 2 ] <= 37564.93
quadratic_ranged_368_ub: [ 1 x_20_ ^ 2 - 2 x_79_ * x_20_ + 1 x_79_ ^ 2 + 1 y_20_ ^ 2 - 2 y_79_ * y_20_ + 1 y_79_ ^ 2 ] <= 40.4
quadratic_ranged_369_ub: [ 1 x_34_ ^ 2 - 2 x_79_ * x_34_ + 1 x_79_ ^ 2 + 1 y_34_ ^ 2 - 2 y_79_ * y_34_ + 1 y_79_ ^ 2 ] <= 3072.42
quadratic_ranged_370_ub: [ 1 x_42_ ^ 2 - 2 x_79_ * x_42_ + 1 x_79_ ^ 2 + 1 y_42_ ^ 2 - 2 y_79_ * y_42_ + 1 y_79_ ^ 2 ] <= 10231.3
quadratic_ranged_371_ub: [ 1 x_47_ ^ 2 - 2 x_79_ * x_47_ + 1 x_79_ ^ 2 + 1 y_47_ ^ 2 - 2 y_79_ * y_47_ + 1 y_79_ ^ 2 ] <= 40830.26
quadratic_ranged_372_ub: [ 1 x_64_ ^ 2 - 2 x_79_ * x_64_ + 1 x_79_ ^ 2 + 1 y_64_ ^ 2 - 2 y_79_ * y_64_ + 1 y_79_ ^ 2 ] <= 41888.74
quadratic_ranged_373_ub: [ 1 x_65_ ^ 2 - 2 x_79_ * x_65_ + 1 x_79_ ^ 2 + 1 y_65_ ^ 2 - 2 y_79_ * y_65_ + 1 y_79_ ^ 2 ] <= 17438.66
quadratic_ranged_374_ub: [ 1 x_67_ ^ 2 - 2 x_79_ * x_67_ + 1 x_79_ ^ 2 + 1 y_67_ ^ 2 - 2 y_79_ * y_67_ + 1 y_79_ ^ 2 ] <= 35636.840000000004
quadratic_ranged_375_ub: [ 1 x_71_ ^ 2 - 2 x_79_ * x_71_ + 1 x_79_ ^ 2 + 1 y_71_ ^ 2 - 2 y_79_ * y_71_ + 1 y_79_ ^ 2 ] <= 4283.41
quadratic_ranged_376_ub: [ 1 x_78_ ^ 2 - 2 x_79_ * x_78_ + 1 x_79_ ^ 2 + 1 y_78_ ^ 2 - 2 y_79_ * y_78_ + 1 y_79_ ^ 2 ] <= 21093.85
quadratic_ranged_377_ub: [ 1 x_6_ ^ 2 - 2 x_80_ * x_6_ + 1 x_80_ ^ 2 + 1 y_6_ ^ 2 - 2 y_80_ * y_6_ + 1 y_80_ ^ 2 ] <= 13894.57
quadratic_ranged_378_ub: [ 1 x_18_ ^ 2 - 2 x_80_ * x_18_ + 1 x_80_ ^ 2 + 1 y_18_ ^ 2 - 2 y_80_ * y_18_ + 1 y_80_ ^ 2 ] <= 20252.52
quadratic_ranged_379_ub: [ 1 x_42_ ^ 2 - 2 x_80_ * x_42_ + 1 x_80_ ^ 2 + 1 y_42_ ^ 2 - 2 y_80_ * y_42_ + 1 y_80_ ^ 2 ] <= 2554.29
quadratic_ranged_380_ub: [ 1 x_51_ ^ 2 - 2 x_80_ * x_51_ + 1 x_80_ ^ 2 + 1 y_51_ ^ 2 - 2 y_80_ * y_51_ + 1 y_80_ ^ 2 ] <= 1179.68
quadratic_ranged_381_ub: [ 1 x_52_ ^ 2 - 2 x_80_ * x_52_ + 1 x_80_ ^ 2 + 1 y_52_ ^ 2 - 2 y_80_ * y_52_ + 1 y_80_ ^ 2 ] <= 2537.12
quadratic_ranged_382_ub: [ 1 x_60_ ^ 2 - 2 x_80_ * x_60_ + 1 x_80_ ^ 2 + 1 y_60_ ^ 2 - 2 y_80_ * y_60_ + 1 y_80_ ^ 2 ] <= 3072.42
quadratic_ranged_383_ub: [ 1 x_75_ ^ 2 - 2 x_80_ * x_75_ + 1 x_80_ ^ 2 + 1 y_75_ ^ 2 - 2 y_80_ * y_75_ + 1 y_80_ ^ 2 ] <= 13555.210000000001
quadratic_ranged_384_ub: [ 1 x_79_ ^ 2 - 2 x_80_ * x_79_ + 1 x_80_ ^ 2 + 1 y_79_ ^ 2 - 2 y_80_ * y_79_ + 1 y_80_ ^ 2 ] <= 2659.33
quadratic_ranged_385_ub: [ 1 x_12_ ^ 2 - 2 x_81_ * x_12_ + 1 x_81_ ^ 2 + 1 y_12_ ^ 2 - 2 y_81_ * y_12_ + 1 y_81_ ^ 2 ] <= 7361.89
quadratic_ranged_386_ub: [ 1 x_21_ ^ 2 - 2 x_81_ * x_21_ + 1 x_81_ ^ 2 + 1 y_21_ ^ 2 - 2 y_81_ * y_21_ + 1 y_81_ ^ 2 ] <= 4667.21
quadratic_ranged_387_ub: [ 1 x_27_ ^ 2 - 2 x_81_ * x_27_ + 1 x_81_ ^ 2 + 1 y_27_ ^ 2 - 2 y_81_ * y_27_ + 1 y_81_ ^ 2 ] <= 4267.25
quadratic_ranged_388_ub: [ 1 x_44_ ^ 2 - 2 x_81_ * x_44_ + 1 x_81_ ^ 2 + 1 y_44_ ^ 2 - 2 y_81_ * y_44_ + 1 y_81_ ^ 2 ] <= 2465.41
quadratic_ranged_389_ub: [ 1 x_53_ ^ 2 - 2 x_81_ * x_53_ + 1 x_81_ ^ 2 + 1 y_53_ ^ 2 - 2 y_81_ * y_53_ + 1 y_81_ ^ 2 ] <= 2574.4900000000002
quadratic_ranged_390_ub: [ 1 x_62_ ^ 2 - 2 x_81_ * x_62_ + 1 x_81_ ^ 2 + 1 y_62_ ^ 2 - 2 y_81_ * y_62_ + 1 y_81_ ^ 2 ] <= 3115.85
quadratic_ranged_391_ub: [ 1 x_72_ ^ 2 - 2 x_81_ * x_72_ + 1 x_81_ ^ 2 + 1 y_72_ ^ 2 - 2 y_81_ * y_72_ + 1 y_81_ ^ 2 ] <= 65.65
quadratic_ranged_392_ub: [ 1 x_80_ ^ 2 - 2 x_81_ * x_80_ + 1 x_81_ ^ 2 + 1 y_80_ ^ 2 - 2 y_81_ * y_80_ + 1 y_81_ ^ 2 ] <= 10969.61
quadratic_ranged_393_ub: [ 1 x_11_ ^ 2 - 2 x_82_ * x_11_ + 1 x_82_ ^ 2 + 1 y_11_ ^ 2 - 2 y_82_ * y_11_ + 1 y_82_ ^ 2 ] <= 24665.21
quadratic_ranged_394_ub: [ 1 x_12_ ^ 2 - 2 x_82_ * x_12_ + 1 x_82_ ^ 2 + 1 y_12_ ^ 2 - 2 y_82_ * y_12_ + 1 y_82_ ^ 2 ] <= 9697.01
quadratic_ranged_395_ub: [ 1 x_34_ ^ 2 - 2 x_82_ * x_34_ + 1 x_82_ ^ 2 + 1 y_34_ ^ 2 - 2 y_82_ * y_34_ + 1 y_82_ ^ 2 ] <= 2981.52
quadratic_ranged_396_ub: [ 1 x_47_ ^ 2 - 2 x_82_ * x_47_ + 1 x_82_ ^ 2 + 1 y_47_ ^ 2 - 2 y_82_ * y_47_ + 1 y_82_ ^ 2 ] <= 32194.760000000002
quadratic_ranged_397_ub: [ 1 x_55_ ^ 2 - 2 x_82_ * x_55_ + 1 x_82_ ^ 2 + 1 y_55_ ^ 2 - 2 y_82_ * y_55_ + 1 y_82_ ^ 2 ] <= 17091.22
quadratic_ranged_398_ub: [ 1 x_81_ ^ 2 - 2 x_82_ * x_81_ + 1 x_82_ ^ 2 + 1 y_81_ ^ 2 - 2 y_82_ * y_81_ + 1 y_82_ ^ 2 ] <= 1135.24
quadratic_ranged_399_ub: [ 1 x_4_ ^ 2 - 2 x_83_ * x_4_ + 1 x_83_ ^ 2 + 1 y_4_ ^ 2 - 2 y_83_ * y_4_ + 1 y_83_ ^ 2 ] <= 20180.81
quadratic_ranged_400_ub: [ 1 x_18_ ^ 2 - 2 x_83_ * x_18_ + 1 x_83_ ^ 2 + 1 y_18_ ^ 2 - 2 y_83_ * y_18_ + 1 y_83_ ^ 2 ] <= 5235.84
quadratic_ranged_401_ub: [ 1 x_29_ ^ 2 - 2 x_83_ * x_29_ + 1 x_83_ ^ 2 + 1 y_29_ ^ 2 - 2 y_83_ * y_29_ + 1 y_83_ ^ 2 ] <= 4334.92
quadratic_ranged_402_ub: [ 1 x_32_ ^ 2 - 2 x_83_ * x_32_ + 1 x_83_ ^ 2 + 1 y_32_ ^ 2 - 2 y_83_ * y_32_ + 1 y_83_ ^ 2 ] <= 10157.57
quadratic_ranged_403_ub: [ 1 x_45_ ^ 2 - 2 x_83_ * x_45_ + 1 x_83_ ^ 2 + 1 y_45_ ^ 2 - 2 y_83_ * y_45_ + 1 y_83_ ^ 2 ] <= 2013.94
quadratic_ranged_404_ub: [ 1 x_53_ ^ 2 - 2 x_83_ * x_53_ + 1 x_83_ ^ 2 + 1 y_53_ ^ 2 - 2 y_83_ * y_53_ + 1 y_83_ ^ 2 ] <= 29189
quadratic_ranged_405_ub: [ 1 x_75_ ^ 2 - 2 x_83_ * x_75_ + 1 x_83_ ^ 2 + 1 y_75_ ^ 2 - 2 y_83_ * y_75_ + 1 y_83_ ^ 2 ] <= 15082.33
quadratic_ranged_406_ub: [ 1 x_82_ ^ 2 - 2 x_83_ * x_82_ + 1 x_83_ ^ 2 + 1 y_82_ ^ 2 - 2 y_83_ * y_82_ + 1 y_83_ ^ 2 ] <= 19918.21
quadratic_ranged_407_ub: [ 1 x_9_ ^ 2 - 2 x_84_ * x_9_ + 1 x_84_ ^ 2 + 1 y_9_ ^ 2 - 2 y_84_ * y_9_ + 1 y_84_ ^ 2 ] <= 12933.05
quadratic_ranged_408_ub: [ 1 x_28_ ^ 2 - 2 x_84_ * x_28_ + 1 x_84_ ^ 2 + 1 y_28_ ^ 2 - 2 y_84_ * y_28_ + 1 y_84_ ^ 2 ] <= 17925.48
quadratic_ranged_409_ub: [ 1 x_35_ ^ 2 - 2 x_84_ * x_35_ + 1 x_84_ ^ 2 + 1 y_35_ ^ 2 - 2 y_84_ * y_35_ + 1 y_84_ ^ 2 ] <= 9058.69
quadratic_ranged_410_ub: [ 1 x_42_ ^ 2 - 2 x_84_ * x_42_ + 1 x_84_ ^ 2 + 1 y_42_ ^ 2 - 2 y_84_ * y_42_ + 1 y_84_ ^ 2 ] <= 1900.82
quadratic_ranged_411_ub: [ 1 x_43_ ^ 2 - 2 x_84_ * x_43_ + 1 x_84_ ^ 2 + 1 y_43_ ^ 2 - 2 y_84_ * y_43_ + 1 y_84_ ^ 2 ] <= 4582.37
quadratic_ranged_412_ub: [ 1 x_44_ ^ 2 - 2 x_84_ * x_44_ + 1 x_84_ ^ 2 + 1 y_44_ ^ 2 - 2 y_84_ * y_44_ + 1 y_84_ ^ 2 ] <= 13660.25
quadratic_ranged_413_ub: [ 1 x_47_ ^ 2 - 2 x_84_ * x_47_ + 1 x_84_ ^ 2 + 1 y_47_ ^ 2 - 2 y_84_ * y_47_ + 1 y_84_ ^ 2 ] <= 25243.94
quadratic_ranged_414_ub: [ 1 x_58_ ^ 2 - 2 x_84_ * x_58_ + 1 x_84_ ^ 2 + 1 y_58_ ^ 2 - 2 y_84_ * y_58_ + 1 y_84_ ^ 2 ] <= 1932.13
quadratic_ranged_415_ub: [ 1 x_62_ ^ 2 - 2 x_84_ * x_62_ + 1 x_84_ ^ 2 + 1 y_62_ ^ 2 - 2 y_84_ * y_62_ + 1 y_84_ ^ 2 ] <= 198.97
quadratic_ranged_416_ub: [ 1 x_68_ ^ 2 - 2 x_84_ * x_68_ + 1 x_84_ ^ 2 + 1 y_68_ ^ 2 - 2 y_84_ * y_68_ + 1 y_84_ ^ 2 ] <= 892.84
quadratic_ranged_417_ub: [ 1 x_76_ ^ 2 - 2 x_84_ * x_76_ + 1 x_84_ ^ 2 + 1 y_76_ ^ 2 - 2 y_84_ * y_76_ + 1 y_84_ ^ 2 ] <= 21048.4
quadratic_ranged_418_ub: [ 1 x_83_ ^ 2 - 2 x_84_ * x_83_ + 1 x_84_ ^ 2 + 1 y_83_ ^ 2 - 2 y_84_ * y_83_ + 1 y_84_ ^ 2 ] <= 11951.33
quadratic_ranged_419_ub: [ 1 x_4_ ^ 2 - 2 x_85_ * x_4_ + 1 x_85_ ^ 2 + 1 y_4_ ^ 2 - 2 y_85_ * y_4_ + 1 y_85_ ^ 2 ] <= 28664.81
quadratic_ranged_420_ub: [ 1 x_7_ ^ 2 - 2 x_85_ * x_7_ + 1 x_85_ ^ 2 + 1 y_7_ ^ 2 - 2 y_85_ * y_7_ + 1 y_85_ ^ 2 ] <= 247.45
quadratic_ranged_421_ub: [ 1 x_9_ ^ 2 - 2 x_85_ * x_9_ + 1 x_85_ ^ 2 + 1 y_9_ ^ 2 - 2 y_85_ * y_9_ + 1 y_85_ ^ 2 ] <= 472.68
quadratic_ranged_422_ub: [ 1 x_12_ ^ 2 - 2 x_85_ * x_12_ + 1 x_85_ ^ 2 + 1 y_12_ ^ 2 - 2 y_85_ * y_12_ + 1 y_85_ ^ 2 ] <= 4801.54
quadratic_ranged_423_ub: [ 1 x_26_ ^ 2 - 2 x_85_ * x_26_ + 1 x_85_ ^ 2 + 1 y_26_ ^ 2 - 2 y_85_ * y_26_ + 1 y_85_ ^ 2 ] <= 4373.3
quadratic_ranged_424_ub: [ 1 x_41_ ^ 2 - 2 x_85_ * x_41_ + 1 x_85_ ^ 2 + 1 y_41_ ^ 2 - 2 y_85_ * y_41_ + 1 y_85_ ^ 2 ] <= 3200.69
quadratic_ranged_425_ub: [ 1 x_62_ ^ 2 - 2 x_85_ * x_62_ + 1 x_85_ ^ 2 + 1 y_62_ ^ 2 - 2 y_85_ * y_62_ + 1 y_85_ ^ 2 ] <= 16951.84
quadratic_ranged_426_ub: [ 1 x_65_ ^ 2 - 2 x_85_ * x_65_ + 1 x_85_ ^ 2 + 1 y_65_ ^ 2 - 2 y_85_ * y_65_ + 1 y_85_ ^ 2 ] <= 12314.93
quadratic_ranged_427_ub: [ 1 x_71_ ^ 2 - 2 x_85_ * x_71_ + 1 x_85_ ^ 2 + 1 y_71_ ^ 2 - 2 y_85_ * y_71_ + 1 y_85_ ^ 2 ] <= 18505.22
quadratic_ranged_428_ub: [ 1 x_74_ ^ 2 - 2 x_85_ * x_74_ + 1 x_85_ ^ 2 + 1 y_74_ ^ 2 - 2 y_85_ * y_74_ + 1 y_85_ ^ 2 ] <= 14649.04
quadratic_ranged_429_ub: [ 1 x_78_ ^ 2 - 2 x_85_ * x_78_ + 1 x_85_ ^ 2 + 1 y_78_ ^ 2 - 2 y_85_ * y_78_ + 1 y_85_ ^ 2 ] <= 779.72
quadratic_ranged_430_ub: [ 1 x_84_ ^ 2 - 2 x_85_ * x_84_ + 1 x_85_ ^ 2 + 1 y_84_ ^ 2 - 2 y_85_ * y_84_ + 1 y_85_ ^ 2 ] <= 17974.97
quadratic_ranged_431_ub: [ 1 x_1_ ^ 2 - 2 x_86_ * x_1_ + 1 x_86_ ^ 2 + 1 y_1_ ^ 2 - 2 y_86_ * y_1_ + 1 y_86_ ^ 2 ] <= 7001.32
quadratic_ranged_432_ub: [ 1 x_31_ ^ 2 - 2 x_86_ * x_31_ + 1 x_86_ ^ 2 + 1 y_31_ ^ 2 - 2 y_86_ * y_31_ + 1 y_86_ ^ 2 ] <= 2967.38
quadratic_ranged_433_ub: [ 1 x_35_ ^ 2 - 2 x_86_ * x_35_ + 1 x_86_ ^ 2 + 1 y_35_ ^ 2 - 2 y_86_ * y_35_ + 1 y_86_ ^ 2 ] <= 4639.94
quadratic_ranged_434_ub: [ 1 x_54_ ^ 2 - 2 x_86_ * x_54_ + 1 x_86_ ^ 2 + 1 y_54_ ^ 2 - 2 y_86_ * y_54_ + 1 y_86_ ^ 2 ] <= 1980.6100000000001
quadratic_ranged_435_ub: [ 1 x_63_ ^ 2 - 2 x_86_ * x_63_ + 1 x_86_ ^ 2 + 1 y_63_ ^ 2 - 2 y_86_ * y_63_ + 1 y_86_ ^ 2 ] <= 3700.64
quadratic_ranged_436_ub: [ 1 x_78_ ^ 2 - 2 x_86_ * x_78_ + 1 x_86_ ^ 2 + 1 y_78_ ^ 2 - 2 y_86_ * y_78_ + 1 y_86_ ^ 2 ] <= 3058.28
quadratic_ranged_437_ub: [ 1 x_85_ ^ 2 - 2 x_86_ * x_85_ + 1 x_86_ ^ 2 + 1 y_85_ ^ 2 - 2 y_86_ * y_85_ + 1 y_86_ ^ 2 ] <= 4435.92
quadratic_ranged_438_ub: [ 1 x_9_ ^ 2 - 2 x_87_ * x_9_ + 1 x_87_ ^ 2 + 1 y_9_ ^ 2 - 2 y_87_ * y_9_ + 1 y_87_ ^ 2 ] <= 7382.09
quadratic_ranged_439_ub: [ 1 x_12_ ^ 2 - 2 x_87_ * x_12_ + 1 x_87_ ^ 2 + 1 y_12_ ^ 2 - 2 y_87_ * y_12_ + 1 y_87_ ^ 2 ] <= 2012.93
quadratic_ranged_440_ub: [ 1 x_30_ ^ 2 - 2 x_87_ * x_30_ + 1 x_87_ ^ 2 + 1 y_30_ ^ 2 - 2 y_87_ * y_30_ + 1 y_87_ ^ 2 ] <= 34688.45
quadratic_ranged_441_ub: [ 1 x_33_ ^ 2 - 2 x_87_ * x_33_ + 1 x_87_ ^ 2 + 1 y_33_ ^ 2 - 2 y_87_ * y_33_ + 1 y_87_ ^ 2 ] <= 12873.460000000001
quadratic_ranged_442_ub: [ 1 x_37_ ^ 2 - 2 x_87_ * x_37_ + 1 x_87_ ^ 2 + 1 y_37_ ^ 2 - 2 y_87_ * y_37_ + 1 y_87_ ^ 2 ] <= 15630.76
quadratic_ranged_443_ub: [ 1 x_41_ ^ 2 - 2 x_87_ * x_41_ + 1 x_87_ ^ 2 + 1 y_41_ ^ 2 - 2 y_87_ * y_41_ + 1 y_87_ ^ 2 ] <= 1820.02
quadratic_ranged_444_ub: [ 1 x_48_ ^ 2 - 2 x_87_ * x_48_ + 1 x_87_ ^ 2 + 1 y_48_ ^ 2 - 2 y_87_ * y_48_ + 1 y_87_ ^ 2 ] <= 11478.65
quadratic_ranged_445_ub: [ 1 x_55_ ^ 2 - 2 x_87_ * x_55_ + 1 x_87_ ^ 2 + 1 y_55_ ^ 2 - 2 y_87_ * y_55_ + 1 y_87_ ^ 2 ] <= 20.2
quadratic_ranged_446_ub: [ 1 x_78_ ^ 2 - 2 x_87_ * x_78_ + 1 x_87_ ^ 2 + 1 y_78_ ^ 2 - 2 y_87_ * y_78_ + 1 y_87_ ^ 2 ] <= 9717.210000000001
quadratic_ranged_447_ub: [ 1 x_83_ ^ 2 - 2 x_87_ * x_83_ + 1 x_87_ ^ 2 + 1 y_83_ ^ 2 - 2 y_87_ * y_83_ + 1 y_87_ ^ 2 ] <= 8678.93
quadratic_ranged_448_ub: [ 1 x_86_ ^ 2 - 2 x_87_ * x_86_ + 1 x_87_ ^ 2 + 1 y_86_ ^ 2 - 2 y_87_ * y_86_ + 1 y_87_ ^ 2 ] <= 5406.53
quadratic_ranged_449_ub: [ 1 x_2_ ^ 2 - 2 x_88_ * x_2_ + 1 x_88_ ^ 2 + 1 y_2_ ^ 2 - 2 y_88_ * y_2_ + 1 y_88_ ^ 2 ] <= 779.72
quadratic_ranged_450_ub: [ 1 x_8_ ^ 2 - 2 x_88_ * x_8_ + 1 x_88_ ^ 2 + 1 y_8_ ^ 2 - 2 y_88_ * y_8_ + 1 y_88_ ^ 2 ] <= 42651.29
quadratic_ranged_451_ub: [ 1 x_17_ ^ 2 - 2 x_88_ * x_17_ + 1 x_88_ ^ 2 + 1 y_17_ ^ 2 - 2 y_88_ * y_17_ + 1 y_88_ ^ 2 ] <= 19914.170000000002
quadratic_ranged_452_ub: [ 1 x_24_ ^ 2 - 2 x_88_ * x_24_ + 1 x_88_ ^ 2 + 1 y_24_ ^ 2 - 2 y_88_ * y_24_ + 1 y_88_ ^ 2 ] <= 41225.17
quadratic_ranged_453_ub: [ 1 x_56_ ^ 2 - 2 x_88_ * x_56_ + 1 x_88_ ^ 2 + 1 y_56_ ^ 2 - 2 y_88_ * y_56_ + 1 y_88_ ^ 2 ] <= 13002.74
quadratic_ranged_454_ub: [ 1 x_83_ ^ 2 - 2 x_88_ * x_83_ + 1 x_88_ ^ 2 + 1 y_83_ ^ 2 - 2 y_88_ * y_83_ + 1 y_88_ ^ 2 ] <= 26555.93
quadratic_ranged_455_ub: [ 1 x_87_ ^ 2 - 2 x_88_ * x_87_ + 1 x_88_ ^ 2 + 1 y_87_ ^ 2 - 2 y_88_ * y_87_ + 1 y_88_ ^ 2 ] <= 23533
quadratic_ranged_456_ub: [ 1 x_1_ ^ 2 - 2 x_89_ * x_1_ + 1 x_89_ ^ 2 + 1 y_1_ ^ 2 - 2 y_89_ * y_1_ + 1 y_89_ ^ 2 ] <= 3907.69
quadratic_ranged_457_ub: [ 1 x_3_ ^ 2 - 2 x_89_ * x_3_ + 1 x_89_ ^ 2 + 1 y_3_ ^ 2 - 2 y_89_ * y_3_ + 1 y_89_ ^ 2 ] <= 17866.9
quadratic_ranged_458_ub: [ 1 x_14_ ^ 2 - 2 x_89_ * x_14_ + 1 x_89_ ^ 2 + 1 y_14_ ^ 2 - 2 y_89_ * y_14_ + 1 y_89_ ^ 2 ] <= 18303.22
quadratic_ranged_459_ub: [ 1 x_43_ ^ 2 - 2 x_89_ * x_43_ + 1 x_89_ ^ 2 + 1 y_43_ ^ 2 - 2 y_89_ * y_43_ + 1 y_89_ ^ 2 ] <= 2772.45
quadratic_ranged_460_ub: [ 1 x_46_ ^ 2 - 2 x_89_ * x_46_ + 1 x_89_ ^ 2 + 1 y_46_ ^ 2 - 2 y_89_ * y_46_ + 1 y_89_ ^ 2 ] <= 2029.09
quadratic_ranged_461_ub: [ 1 x_56_ ^ 2 - 2 x_89_ * x_56_ + 1 x_89_ ^ 2 + 1 y_56_ ^ 2 - 2 y_89_ * y_56_ + 1 y_89_ ^ 2 ] <= 8655.7
quadratic_ranged_462_ub: [ 1 x_58_ ^ 2 - 2 x_89_ * x_58_ + 1 x_89_ ^ 2 + 1 y_58_ ^ 2 - 2 y_89_ * y_58_ + 1 y_89_ ^ 2 ] <= 25372.21
quadratic_ranged_463_ub: [ 1 x_71_ ^ 2 - 2 x_89_ * x_71_ + 1 x_89_ ^ 2 + 1 y_71_ ^ 2 - 2 y_89_ * y_71_ + 1 y_89_ ^ 2 ] <= 12933.05
quadratic_ranged_464_ub: [ 1 x_77_ ^ 2 - 2 x_89_ * x_77_ + 1 x_89_ ^ 2 + 1 y_77_ ^ 2 - 2 y_89_ * y_77_ + 1 y_89_ ^ 2 ] <= 8292.1
quadratic_ranged_465_ub: [ 1 x_83_ ^ 2 - 2 x_89_ * x_83_ + 1 x_89_ ^ 2 + 1 y_83_ ^ 2 - 2 y_89_ * y_83_ + 1 y_89_ ^ 2 ] <= 4844.97
quadratic_ranged_466_ub: [ 1 x_88_ ^ 2 - 2 x_89_ * x_88_ + 1 x_89_ ^ 2 + 1 y_88_ ^ 2 - 2 y_89_ * y_88_ + 1 y_89_ ^ 2 ] <= 30413.12
quadratic_ranged_467_ub: [ 1 x_1_ ^ 2 - 2 x_90_ * x_1_ + 1 x_90_ ^ 2 + 1 y_1_ ^ 2 - 2 y_90_ * y_1_ + 1 y_90_ ^ 2 ] <= 6561.97
quadratic_ranged_468_ub: [ 1 x_8_ ^ 2 - 2 x_90_ * x_8_ + 1 x_90_ ^ 2 + 1 y_8_ ^ 2 - 2 y_90_ * y_8_ + 1 y_90_ ^ 2 ] <= 12226.05
quadratic_ranged_469_ub: [ 1 x_18_ ^ 2 - 2 x_90_ * x_18_ + 1 x_90_ ^ 2 + 1 y_18_ ^ 2 - 2 y_90_ * y_18_ + 1 y_90_ ^ 2 ] <= 372.69
quadratic_ranged_470_ub: [ 1 x_21_ ^ 2 - 2 x_90_ * x_21_ + 1 x_90_ ^ 2 + 1 y_21_ ^ 2 - 2 y_90_ * y_21_ + 1 y_90_ ^ 2 ] <= 35387.37
quadratic_ranged_471_ub: [ 1 x_22_ ^ 2 - 2 x_90_ * x_22_ + 1 x_90_ ^ 2 + 1 y_22_ ^ 2 - 2 y_90_ * y_22_ + 1 y_90_ ^ 2 ] <= 4497.53
quadratic_ranged_472_ub: [ 1 x_31_ ^ 2 - 2 x_90_ * x_31_ + 1 x_90_ ^ 2 + 1 y_31_ ^ 2 - 2 y_90_ * y_31_ + 1 y_90_ ^ 2 ] <= 10860.53
quadratic_ranged_473_ub: [ 1 x_45_ ^ 2 - 2 x_90_ * x_45_ + 1 x_90_ ^ 2 + 1 y_45_ ^ 2 - 2 y_90_ * y_45_ + 1 y_90_ ^ 2 ] <= 7786.09
quadratic_ranged_474_ub: [ 1 x_48_ ^ 2 - 2 x_90_ * x_48_ + 1 x_90_ ^ 2 + 1 y_48_ ^ 2 - 2 y_90_ * y_48_ + 1 y_90_ ^ 2 ] <= 19174.85
quadratic_ranged_475_ub: [ 1 x_57_ ^ 2 - 2 x_90_ * x_57_ + 1 x_90_ ^ 2 + 1 y_57_ ^ 2 - 2 y_90_ * y_57_ + 1 y_90_ ^ 2 ] <= 11451.38
quadratic_ranged_476_ub: [ 1 x_60_ ^ 2 - 2 x_90_ * x_60_ + 1 x_90_ ^ 2 + 1 y_60_ ^ 2 - 2 y_90_ * y_60_ + 1 y_90_ ^ 2 ] <= 7644.6900000000005
quadratic_ranged_477_ub: [ 1 x_70_ ^ 2 - 2 x_90_ * x_70_ + 1 x_90_ ^ 2 + 1 y_70_ ^ 2 - 2 y_90_ * y_70_ + 1 y_90_ ^ 2 ] <= 5382.29
quadratic_ranged_478_ub: [ 1 x_71_ ^ 2 - 2 x_90_ * x_71_ + 1 x_90_ ^ 2 + 1 y_71_ ^ 2 - 2 y_90_ * y_71_ + 1 y_90_ ^ 2 ] <= 21744.29
quadratic_ranged_479_ub: [ 1 x_86_ ^ 2 - 2 x_90_ * x_86_ + 1 x_90_ ^ 2 + 1 y_86_ ^ 2 - 2 y_90_ * y_86_ + 1 y_90_ ^ 2 ] <= 5681.25
quadratic_ranged_480_ub: [ 1 x_89_ ^ 2 - 2 x_90_ * x_89_ + 1 x_90_ ^ 2 + 1 y_89_ ^ 2 - 2 y_90_ * y_89_ + 1 y_90_ ^ 2 ] <= 17252.82
quadratic_ranged_481_ub: [ 1 x_8_ ^ 2 - 2 x_91_ * x_8_ + 1 x_91_ ^ 2 + 1 y_8_ ^ 2 - 2 y_91_ * y_8_ + 1 y_91_ ^ 2 ] <= 27881.05
quadratic_ranged_482_ub: [ 1 x_15_ ^ 2 - 2 x_91_ * x_15_ + 1 x_91_ ^ 2 + 1 y_15_ ^ 2 - 2 y_91_ * y_15_ + 1 y_91_ ^ 2 ] <= 1698.82
quadratic_ranged_483_ub: [ 1 x_35_ ^ 2 - 2 x_91_ * x_35_ + 1 x_91_ ^ 2 + 1 y_35_ ^ 2 - 2 y_91_ * y_35_ + 1 y_91_ ^ 2 ] <= 15550.97
quadratic_ranged_484_ub: [ 1 x_46_ ^ 2 - 2 x_91_ * x_46_ + 1 x_91_ ^ 2 + 1 y_46_ ^ 2 - 2 y_91_ * y_46_ + 1 y_91_ ^ 2 ] <= 21744.29
quadratic_ranged_485_ub: [ 1 x_52_ ^ 2 - 2 x_91_ * x_52_ + 1 x_91_ ^ 2 + 1 y_52_ ^ 2 - 2 y_91_ * y_52_ + 1 y_91_ ^ 2 ] <= 17647.73
quadratic_ranged_486_ub: [ 1 x_68_ ^ 2 - 2 x_91_ * x_68_ + 1 x_91_ ^ 2 + 1 y_68_ ^ 2 - 2 y_91_ * y_68_ + 1 y_91_ ^ 2 ] <= 1553.38
quadratic_ranged_487_ub: [ 1 x_82_ ^ 2 - 2 x_91_ * x_82_ + 1 x_91_ ^ 2 + 1 y_82_ ^ 2 - 2 y_91_ * y_82_ + 1 y_91_ ^ 2 ] <= 2141.2
quadratic_ranged_488_ub: [ 1 x_83_ ^ 2 - 2 x_91_ * x_83_ + 1 x_91_ ^ 2 + 1 y_83_ ^ 2 - 2 y_91_ * y_83_ + 1 y_91_ ^ 2 ] <= 12440.17
quadratic_ranged_489_ub: [ 1 x_90_ ^ 2 - 2 x_91_ * x_90_ + 1 x_91_ ^ 2 + 1 y_90_ ^ 2 - 2 y_91_ * y_90_ + 1 y_91_ ^ 2 ] <= 13788.52
quadratic_ranged_490_ub: [ 1 x_13_ ^ 2 - 2 x_92_ * x_13_ + 1 x_92_ ^ 2 + 1 y_13_ ^ 2 - 2 y_92_ * y_13_ + 1 y_92_ ^ 2 ] <= 12031.12
quadratic_ranged_491_ub: [ 1 x_19_ ^ 2 - 2 x_92_ * x_19_ + 1 x_92_ ^ 2 + 1 y_19_ ^ 2 - 2 y_92_ * y_19_ + 1 y_92_ ^ 2 ] <= 18311.3
quadratic_ranged_492_ub: [ 1 x_24_ ^ 2 - 2 x_92_ * x_24_ + 1 x_92_ ^ 2 + 1 y_24_ ^ 2 - 2 y_92_ * y_24_ + 1 y_92_ ^ 2 ] <= 13320.89
quadratic_ranged_493_ub: [ 1 x_29_ ^ 2 - 2 x_92_ * x_29_ + 1 x_92_ ^ 2 + 1 y_29_ ^ 2 - 2 y_92_ * y_29_ + 1 y_92_ ^ 2 ] <= 13789.53
quadratic_ranged_494_ub: [ 1 x_35_ ^ 2 - 2 x_92_ * x_35_ + 1 x_92_ ^ 2 + 1 y_35_ ^ 2 - 2 y_92_ * y_35_ + 1 y_92_ ^ 2 ] <= 14035.97
quadratic_ranged_495_ub: [ 1 x_36_ ^ 2 - 2 x_92_ * x_36_ + 1 x_92_ ^ 2 + 1 y_36_ ^ 2 - 2 y_92_ * y_36_ + 1 y_92_ ^ 2 ] <= 26278.18
quadratic_ranged_496_ub: [ 1 x_42_ ^ 2 - 2 x_92_ * x_42_ + 1 x_92_ ^ 2 + 1 y_42_ ^ 2 - 2 y_92_ * y_42_ + 1 y_92_ ^ 2 ] <= 8831.44
quadratic_ranged_497_ub: [ 1 x_64_ ^ 2 - 2 x_92_ * x_64_ + 1 x_92_ ^ 2 + 1 y_64_ ^ 2 - 2 y_92_ * y_64_ + 1 y_92_ ^ 2 ] <= 1135.24
quadratic_ranged_498_ub: [ 1 x_70_ ^ 2 - 2 x_92_ * x_70_ + 1 x_92_ ^ 2 + 1 y_70_ ^ 2 - 2 y_92_ * y_70_ + 1 y_92_ ^ 2 ] <= 4865.17
quadratic_ranged_499_ub: [ 1 x_85_ ^ 2 - 2 x_92_ * x_85_ + 1 x_92_ ^ 2 + 1 y_85_ ^ 2 - 2 y_92_ * y_85_ + 1 y_92_ ^ 2 ] <= 2635.09
quadratic_ranged_500_ub: [ 1 x_91_ ^ 2 - 2 x_92_ * x_91_ + 1 x_92_ ^ 2 + 1 y_91_ ^ 2 - 2 y_92_ * y_91_ + 1 y_92_ ^ 2 ] <= 10996.88
quadratic_ranged_501_ub: [ 1 x_2_ ^ 2 - 2 x_93_ * x_2_ + 1 x_93_ ^ 2 + 1 y_2_ ^ 2 - 2 y_93_ * y_2_ + 1 y_93_ ^ 2 ] <= 2247.25
quadratic_ranged_502_ub: [ 1 x_8_ ^ 2 - 2 x_93_ * x_8_ + 1 x_93_ ^ 2 + 1 y_8_ ^ 2 - 2 y_93_ * y_8_ + 1 y_93_ ^ 2 ] <= 36731.68
quadratic_ranged_503_ub: [ 1 x_10_ ^ 2 - 2 x_93_ * x_10_ + 1 x_93_ ^ 2 + 1 y_10_ ^ 2 - 2 y_93_ * y_10_ + 1 y_93_ ^ 2 ] <= 990.8100000000001
quadratic_ranged_504_ub: [ 1 x_22_ ^ 2 - 2 x_93_ * x_22_ + 1 x_93_ ^ 2 + 1 y_22_ ^ 2 - 2 y_93_ * y_22_ + 1 y_93_ ^ 2 ] <= 20624.2
quadratic_ranged_505_ub: [ 1 x_24_ ^ 2 - 2 x_93_ * x_24_ + 1 x_93_ ^ 2 + 1 y_24_ ^ 2 - 2 y_93_ * y_24_ + 1 y_93_ ^ 2 ] <= 35624.72
quadratic_ranged_506_ub: [ 1 x_25_ ^ 2 - 2 x_93_ * x_25_ + 1 x_93_ ^ 2 + 1 y_25_ ^ 2 - 2 y_93_ * y_25_ + 1 y_93_ ^ 2 ] <= 13248.17
quadratic_ranged_507_ub: [ 1 x_92_ ^ 2 - 2 x_93_ * x_92_ + 1 x_93_ ^ 2 + 1 y_92_ ^ 2 - 2 y_93_ * y_92_ + 1 y_93_ ^ 2 ] <= 30769.65
quadratic_ranged_508_ub: [ 1 x_5_ ^ 2 - 2 x_94_ * x_5_ + 1 x_94_ ^ 2 + 1 y_5_ ^ 2 - 2 y_94_ * y_5_ + 1 y_94_ ^ 2 ] <= 98.98
quadratic_ranged_509_ub: [ 1 x_19_ ^ 2 - 2 x_94_ * x_19_ + 1 x_94_ ^ 2 + 1 y_19_ ^ 2 - 2 y_94_ * y_19_ + 1 y_94_ ^ 2 ] <= 4982.33
quadratic_ranged_510_ub: [ 1 x_25_ ^ 2 - 2 x_94_ * x_25_ + 1 x_94_ ^ 2 + 1 y_25_ ^ 2 - 2 y_94_ * y_25_ + 1 y_94_ ^ 2 ] <= 4594.49
quadratic_ranged_511_ub: [ 1 x_38_ ^ 2 - 2 x_94_ * x_38_ + 1 x_94_ ^ 2 + 1 y_38_ ^ 2 - 2 y_94_ * y_38_ + 1 y_94_ ^ 2 ] <= 18924.37
quadratic_ranged_512_ub: [ 1 x_48_ ^ 2 - 2 x_94_ * x_48_ + 1 x_94_ ^ 2 + 1 y_48_ ^ 2 - 2 y_94_ * y_48_ + 1 y_94_ ^ 2 ] <= 4080.4
quadratic_ranged_513_ub: [ 1 x_50_ ^ 2 - 2 x_94_ * x_50_ + 1 x_94_ ^ 2 + 1 y_50_ ^ 2 - 2 y_94_ * y_50_ + 1 y_94_ ^ 2 ] <= 7486.12
quadratic_ranged_514_ub: [ 1 x_58_ ^ 2 - 2 x_94_ * x_58_ + 1 x_94_ ^ 2 + 1 y_58_ ^ 2 - 2 y_94_ * y_58_ + 1 y_94_ ^ 2 ] <= 10982.74
quadratic_ranged_515_ub: [ 1 x_64_ ^ 2 - 2 x_94_ * x_64_ + 1 x_94_ ^ 2 + 1 y_64_ ^ 2 - 2 y_94_ * y_64_ + 1 y_94_ ^ 2 ] <= 8404.210000000001
quadratic_ranged_516_ub: [ 1 x_73_ ^ 2 - 2 x_94_ * x_73_ + 1 x_94_ ^ 2 + 1 y_73_ ^ 2 - 2 y_94_ * y_73_ + 1 y_94_ ^ 2 ] <= 4792.45
quadratic_ranged_517_ub: [ 1 x_75_ ^ 2 - 2 x_94_ * x_75_ + 1 x_94_ ^ 2 + 1 y_75_ ^ 2 - 2 y_94_ * y_75_ + 1 y_94_ ^ 2 ] <= 3018.89
quadratic_ranged_518_ub: [ 1 x_85_ ^ 2 - 2 x_94_ * x_85_ + 1 x_94_ ^ 2 + 1 y_85_ ^ 2 - 2 y_94_ * y_85_ + 1 y_94_ ^ 2 ] <= 6280.18
quadratic_ranged_519_ub: [ 1 x_93_ ^ 2 - 2 x_94_ * x_93_ + 1 x_94_ ^ 2 + 1 y_93_ ^ 2 - 2 y_94_ * y_93_ + 1 y_94_ ^ 2 ] <= 12253.32
quadratic_ranged_520_ub: [ 1 x_10_ ^ 2 - 2 x_95_ * x_10_ + 1 x_95_ ^ 2 + 1 y_10_ ^ 2 - 2 y_95_ * y_10_ + 1 y_95_ ^ 2 ] <= 3794.57
quadratic_ranged_521_ub: [ 1 x_12_ ^ 2 - 2 x_95_ * x_12_ + 1 x_95_ ^ 2 + 1 y_12_ ^ 2 - 2 y_95_ * y_12_ + 1 y_95_ ^ 2 ] <= 22698.74
quadratic_ranged_522_ub: [ 1 x_33_ ^ 2 - 2 x_95_ * x_33_ + 1 x_95_ ^ 2 + 1 y_33_ ^ 2 - 2 y_95_ * y_33_ + 1 y_95_ ^ 2 ] <= 6234.7300000000005
quadratic_ranged_523_ub: [ 1 x_60_ ^ 2 - 2 x_95_ * x_60_ + 1 x_95_ ^ 2 + 1 y_60_ ^ 2 - 2 y_95_ * y_60_ + 1 y_95_ ^ 2 ] <= 14746
quadratic_ranged_524_ub: [ 1 x_64_ ^ 2 - 2 x_95_ * x_64_ + 1 x_95_ ^ 2 + 1 y_64_ ^ 2 - 2 y_95_ * y_64_ + 1 y_95_ ^ 2 ] <= 48497.17
quadratic_ranged_525_ub: [ 1 x_67_ ^ 2 - 2 x_95_ * x_67_ + 1 x_95_ ^ 2 + 1 y_67_ ^ 2 - 2 y_95_ * y_67_ + 1 y_95_ ^ 2 ] <= 33852.17
quadratic_ranged_526_ub: [ 1 x_87_ ^ 2 - 2 x_95_ * x_87_ + 1 x_95_ ^ 2 + 1 y_87_ ^ 2 - 2 y_95_ * y_87_ + 1 y_95_ ^ 2 ] <= 36425.65
quadratic_ranged_527_ub: [ 1 x_89_ ^ 2 - 2 x_95_ * x_89_ + 1 x_95_ ^ 2 + 1 y_89_ ^ 2 - 2 y_95_ * y_89_ + 1 y_95_ ^ 2 ] <= 21299.89
quadratic_ranged_528_ub: [ 1 x_94_ ^ 2 - 2 x_95_ * x_94_ + 1 x_95_ ^ 2 + 1 y_94_ ^ 2 - 2 y_95_ * y_94_ + 1 y_95_ ^ 2 ] <= 19014.26
quadratic_ranged_529_ub: [ 1 x_15_ ^ 2 - 2 x_96_ * x_15_ + 1 x_96_ ^ 2 + 1 y_15_ ^ 2 - 2 y_96_ * y_15_ + 1 y_96_ ^ 2 ] <= 3074.44
quadratic_ranged_530_ub: [ 1 x_19_ ^ 2 - 2 x_96_ * x_19_ + 1 x_96_ ^ 2 + 1 y_19_ ^ 2 - 2 y_96_ * y_19_ + 1 y_96_ ^ 2 ] <= 2104.84
quadratic_ranged_531_ub: [ 1 x_32_ ^ 2 - 2 x_96_ * x_32_ + 1 x_96_ ^ 2 + 1 y_32_ ^ 2 - 2 y_96_ * y_32_ + 1 y_96_ ^ 2 ] <= 31473.62
quadratic_ranged_532_ub: [ 1 x_39_ ^ 2 - 2 x_96_ * x_39_ + 1 x_96_ ^ 2 + 1 y_39_ ^ 2 - 2 y_96_ * y_39_ + 1 y_96_ ^ 2 ] <= 1785.68
quadratic_ranged_533_ub: [ 1 x_50_ ^ 2 - 2 x_96_ * x_50_ + 1 x_96_ ^ 2 + 1 y_50_ ^ 2 - 2 y_96_ * y_50_ + 1 y_96_ ^ 2 ] <= 29311.21
quadratic_ranged_534_ub: [ 1 x_69_ ^ 2 - 2 x_96_ * x_69_ + 1 x_96_ ^ 2 + 1 y_69_ ^ 2 - 2 y_96_ * y_69_ + 1 y_96_ ^ 2 ] <= 20960.53
quadratic_ranged_535_ub: [ 1 x_83_ ^ 2 - 2 x_96_ * x_83_ + 1 x_96_ ^ 2 + 1 y_83_ ^ 2 - 2 y_96_ * y_83_ + 1 y_96_ ^ 2 ] <= 21841.25
quadratic_ranged_536_ub: [ 1 x_95_ ^ 2 - 2 x_96_ * x_95_ + 1 x_96_ ^ 2 + 1 y_95_ ^ 2 - 2 y_96_ * y_95_ + 1 y_96_ ^ 2 ] <= 11470.57
quadratic_ranged_537_ub: [ 1 x_6_ ^ 2 - 2 x_97_ * x_6_ + 1 x_97_ ^ 2 + 1 y_6_ ^ 2 - 2 y_97_ * y_6_ + 1 y_97_ ^ 2 ] <= 14836.9
quadratic_ranged_538_ub: [ 1 x_48_ ^ 2 - 2 x_97_ * x_48_ + 1 x_97_ ^ 2 + 1 y_48_ ^ 2 - 2 y_97_ * y_48_ + 1 y_97_ ^ 2 ] <= 6263.01
quadratic_ranged_539_ub: [ 1 x_61_ ^ 2 - 2 x_97_ * x_61_ + 1 x_97_ ^ 2 + 1 y_61_ ^ 2 - 2 y_97_ * y_61_ + 1 y_97_ ^ 2 ] <= 27417.46
quadratic_ranged_540_ub: [ 1 x_65_ ^ 2 - 2 x_97_ * x_65_ + 1 x_97_ ^ 2 + 1 y_65_ ^ 2 - 2 y_97_ * y_65_ + 1 y_97_ ^ 2 ] <= 3104.7400000000002
quadratic_ranged_541_ub: [ 1 x_67_ ^ 2 - 2 x_97_ * x_67_ + 1 x_97_ ^ 2 + 1 y_67_ ^ 2 - 2 y_97_ * y_67_ + 1 y_97_ ^ 2 ] <= 1818
quadratic_ranged_542_ub: [ 1 x_71_ ^ 2 - 2 x_97_ * x_71_ + 1 x_97_ ^ 2 + 1 y_71_ ^ 2 - 2 y_97_ * y_71_ + 1 y_97_ ^ 2 ] <= 14500.57
quadratic_ranged_543_ub: [ 1 x_77_ ^ 2 - 2 x_97_ * x_77_ + 1 x_97_ ^ 2 + 1 y_77_ ^ 2 - 2 y_97_ * y_77_ + 1 y_97_ ^ 2 ] <= 17438.66
quadratic_ranged_544_ub: [ 1 x_79_ ^ 2 - 2 x_97_ * x_79_ + 1 x_97_ ^ 2 + 1 y_79_ ^ 2 - 2 y_97_ * y_79_ + 1 y_97_ ^ 2 ] <= 34521.8
quadratic_ranged_545_ub: [ 1 x_80_ ^ 2 - 2 x_97_ * x_80_ + 1 x_97_ ^ 2 + 1 y_80_ ^ 2 - 2 y_97_ * y_80_ + 1 y_97_ ^ 2 ] <= 20180.81
quadratic_ranged_546_ub: [ 1 x_84_ ^ 2 - 2 x_97_ * x_84_ + 1 x_97_ ^ 2 + 1 y_84_ ^ 2 - 2 y_97_ * y_84_ + 1 y_97_ ^ 2 ] <= 12867.4
quadratic_ranged_547_ub: [ 1 x_95_ ^ 2 - 2 x_97_ * x_95_ + 1 x_97_ ^ 2 + 1 y_95_ ^ 2 - 2 y_97_ * y_95_ + 1 y_97_ ^ 2 ] <= 29137.49
quadratic_ranged_548_ub: [ 1 x_96_ ^ 2 - 2 x_97_ * x_96_ + 1 x_97_ ^ 2 + 1 y_96_ ^ 2 - 2 y_97_ * y_96_ + 1 y_97_ ^ 2 ] <= 5082.32
quadratic_ranged_549_ub: [ 1 x_1_ ^ 2 - 2 x_98_ * x_1_ + 1 x_98_ ^ 2 + 1 y_1_ ^ 2 - 2 y_98_ * y_1_ + 1 y_98_ ^ 2 ] <= 29073.86
quadratic_ranged_550_ub: [ 1 x_10_ ^ 2 - 2 x_98_ * x_10_ + 1 x_98_ ^ 2 + 1 y_10_ ^ 2 - 2 y_98_ * y_10_ + 1 y_98_ ^ 2 ] <= 3285.53
quadratic_ranged_551_ub: [ 1 x_15_ ^ 2 - 2 x_98_ * x_15_ + 1 x_98_ ^ 2 + 1 y_15_ ^ 2 - 2 y_98_ * y_15_ + 1 y_98_ ^ 2 ] <= 2534.09
quadratic_ranged_552_ub: [ 1 x_26_ ^ 2 - 2 x_98_ * x_26_ + 1 x_98_ ^ 2 + 1 y_26_ ^ 2 - 2 y_98_ * y_26_ + 1 y_98_ ^ 2 ] <= 17202.32
quadratic_ranged_553_ub: [ 1 x_30_ ^ 2 - 2 x_98_ * x_30_ + 1 x_98_ ^ 2 + 1 y_30_ ^ 2 - 2 y_98_ * y_30_ + 1 y_98_ ^ 2 ] <= 44587.46
quadratic_ranged_554_ub: [ 1 x_64_ ^ 2 - 2 x_98_ * x_64_ + 1 x_98_ ^ 2 + 1 y_64_ ^ 2 - 2 y_98_ * y_64_ + 1 y_98_ ^ 2 ] <= 24960.13
quadratic_ranged_555_ub: [ 1 x_83_ ^ 2 - 2 x_98_ * x_83_ + 1 x_98_ ^ 2 + 1 y_83_ ^ 2 - 2 y_98_ * y_83_ + 1 y_98_ ^ 2 ] <= 18054.76
quadratic_ranged_556_ub: [ 1 x_97_ ^ 2 - 2 x_98_ * x_97_ + 1 x_98_ ^ 2 + 1 y_97_ ^ 2 - 2 y_98_ * y_97_ + 1 y_98_ ^ 2 ] <= 3334.01
quadratic_ranged_557_ub: [ 1 x_2_ ^ 2 - 2 x_99_ * x_2_ + 1 x_99_ ^ 2 + 1 y_2_ ^ 2 - 2 y_99_ * y_2_ + 1 y_99_ ^ 2 ] <= 22071.53
quadratic_ranged_558_ub: [ 1 x_14_ ^ 2 - 2 x_99_ * x_14_ + 1 x_99_ ^ 2 + 1 y_14_ ^ 2 - 2 y_99_ * y_14_ + 1 y_99_ ^ 2 ] <= 16912.45
quadratic_ranged_559_ub: [ 1 x_17_ ^ 2 - 2 x_99_ * x_17_ + 1 x_99_ ^ 2 + 1 y_17_ ^ 2 - 2 y_99_ * y_17_ + 1 y_99_ ^ 2 ] <= 28871.86
quadratic_ranged_560_ub: [ 1 x_20_ ^ 2 - 2 x_99_ * x_20_ + 1 x_99_ ^ 2 + 1 y_20_ ^ 2 - 2 y_99_ * y_20_ + 1 y_99_ ^ 2 ] <= 4146.05
quadratic_ranged_561_ub: [ 1 x_23_ ^ 2 - 2 x_99_ * x_23_ + 1 x_99_ ^ 2 + 1 y_23_ ^ 2 - 2 y_99_ * y_23_ + 1 y_99_ ^ 2 ] <= 29222.33
quadratic_ranged_562_ub: [ 1 x_35_ ^ 2 - 2 x_99_ * x_35_ + 1 x_99_ ^ 2 + 1 y_35_ ^ 2 - 2 y_99_ * y_35_ + 1 y_99_ ^ 2 ] <= 1474.6
quadratic_ranged_563_ub: [ 1 x_43_ ^ 2 - 2 x_99_ * x_43_ + 1 x_99_ ^ 2 + 1 y_43_ ^ 2 - 2 y_99_ * y_43_ + 1 y_99_ ^ 2 ] <= 486.82
quadratic_ranged_564_ub: [ 1 x_58_ ^ 2 - 2 x_99_ * x_58_ + 1 x_99_ ^ 2 + 1 y_58_ ^ 2 - 2 y_99_ * y_58_ + 1 y_99_ ^ 2 ] <= 16226.66
quadratic_ranged_565_ub: [ 1 x_70_ ^ 2 - 2 x_99_ * x_70_ + 1 x_99_ ^ 2 + 1 y_70_ ^ 2 - 2 y_99_ * y_70_ + 1 y_99_ ^ 2 ] <= 7857.8
quadratic_ranged_566_ub: [ 1 x_94_ ^ 2 - 2 x_99_ * x_94_ + 1 x_99_ ^ 2 + 1 y_94_ ^ 2 - 2 y_99_ * y_94_ + 1 y_99_ ^ 2 ] <= 13226.960000000001
quadratic_ranged_567_ub: [ 1 x_98_ ^ 2 - 2 x_99_ * x_98_ + 1 x_99_ ^ 2 + 1 y_98_ ^ 2 - 2 y_99_ * y_98_ + 1 y_99_ ^ 2 ] <= 22179.6
quadratic_ranged_568_ub: [ 1 x_1_ ^ 2 - 2 x_100_ * x_1_ + 1 x_100_ ^ 2 + 1 y_1_ ^ 2 - 2 y_100_ * y_1_ + 1 y_100_ ^ 2 ] <= 2815.88
quadratic_ranged_569_ub: [ 1 x_5_ ^ 2 - 2 x_100_ * x_5_ + 1 x_100_ ^ 2 + 1 y_5_ ^ 2 - 2 y_100_ * y_5_ + 1 y_100_ ^ 2 ] <= 2815.88
quadratic_ranged_570_ub: [ 1 x_19_ ^ 2 - 2 x_100_ * x_19_ + 1 x_100_ ^ 2 + 1 y_19_ ^ 2 - 2 y_100_ * y_19_ + 1 y_100_ ^ 2 ] <= 14153.130000000001
quadratic_ranged_571_ub: [ 1 x_20_ ^ 2 - 2 x_100_ * x_20_ + 1 x_100_ ^ 2 + 1 y_20_ ^ 2 - 2 y_100_ * y_20_ + 1 y_100_ ^ 2 ] <= 22507.85
quadratic_ranged_572_ub: [ 1 x_21_ ^ 2 - 2 x_100_ * x_21_ + 1 x_100_ ^ 2 + 1 y_21_ ^ 2 - 2 y_100_ * y_21_ + 1 y_100_ ^ 2 ] <= 26247.88
quadratic_ranged_573_ub: [ 1 x_24_ ^ 2 - 2 x_100_ * x_24_ + 1 x_100_ ^ 2 + 1 y_24_ ^ 2 - 2 y_100_ * y_24_ + 1 y_100_ ^ 2 ] <= 5504.5
quadratic_ranged_574_ub: [ 1 x_32_ ^ 2 - 2 x_100_ * x_32_ + 1 x_100_ ^ 2 + 1 y_32_ ^ 2 - 2 y_100_ * y_32_ + 1 y_100_ ^ 2 ] <= 6291.29
quadratic_ranged_575_ub: [ 1 x_49_ ^ 2 - 2 x_100_ * x_49_ + 1 x_100_ ^ 2 + 1 y_49_ ^ 2 - 2 y_100_ * y_49_ + 1 y_100_ ^ 2 ] <= 2829.01
quadratic_ranged_576_ub: [ 1 x_54_ ^ 2 - 2 x_100_ * x_54_ + 1 x_100_ ^ 2 + 1 y_54_ ^ 2 - 2 y_100_ * y_54_ + 1 y_100_ ^ 2 ] <= 2845.17
quadratic_ranged_577_ub: [ 1 x_55_ ^ 2 - 2 x_100_ * x_55_ + 1 x_100_ ^ 2 + 1 y_55_ ^ 2 - 2 y_100_ * y_55_ + 1 y_100_ ^ 2 ] <= 5519.65
quadratic_ranged_578_ub: [ 1 x_66_ ^ 2 - 2 x_100_ * x_66_ + 1 x_100_ ^ 2 + 1 y_66_ ^ 2 - 2 y_100_ * y_66_ + 1 y_100_ ^ 2 ] <= 15821.65
quadratic_ranged_579_ub: [ 1 x_67_ ^ 2 - 2 x_100_ * x_67_ + 1 x_100_ ^ 2 + 1 y_67_ ^ 2 - 2 y_100_ * y_67_ + 1 y_100_ ^ 2 ] <= 7576.01
quadratic_ranged_580_ub: [ 1 x_74_ ^ 2 - 2 x_100_ * x_74_ + 1 x_100_ ^ 2 + 1 y_74_ ^ 2 - 2 y_100_ * y_74_ + 1 y_100_ ^ 2 ] <= 11069.6
quadratic_ranged_581_ub: [ 1 x_82_ ^ 2 - 2 x_100_ * x_82_ + 1 x_100_ ^ 2 + 1 y_82_ ^ 2 - 2 y_100_ * y_82_ + 1 y_100_ ^ 2 ] <= 19243.53
quadratic_ranged_582_ub: [ 1 x_88_ ^ 2 - 2 x_100_ * x_88_ + 1 x_100_ ^ 2 + 1 y_88_ ^ 2 - 2 y_100_ * y_88_ + 1 y_100_ ^ 2 ] <= 26438.77
quadratic_ranged_583_ub: [ 1 x_89_ ^ 2 - 2 x_100_ * x_89_ + 1 x_100_ ^ 2 + 1 y_89_ ^ 2 - 2 y_100_ * y_89_ + 1 y_100_ ^ 2 ] <= 8573.89
quadratic_ranged_584_ub: [ 1 x_94_ ^ 2 - 2 x_100_ * x_94_ + 1 x_100_ ^ 2 + 1 y_94_ ^ 2 - 2 y_100_ * y_94_ + 1 y_100_ ^ 2 ] <= 3282.5
quadratic_ranged_585_ub: [ 1 x_99_ ^ 2 - 2 x_100_ * x_99_ + 1 x_100_ ^ 2 + 1 y_99_ ^ 2 - 2 y_100_ * y_99_ + 1 y_100_ ^ 2 ] <= 11944.26
quadratic_ranged_1_lb: [ 1 x_1_ ^ 2 - 2 x_2_ * x_1_ + 1 x_2_ ^ 2 + 1 y_1_ ^ 2 - 2 y_2_ * y_1_ + 1 y_2_ ^ 2 ] >= 34195.59
quadratic_ranged_2_lb: [ 1 x_2_ ^ 2 - 2 x_3_ * x_2_ + 1 x_3_ ^ 2 + 1 y_2_ ^ 2 - 2 y_3_ * y_2_ + 1 y_3_ ^ 2 ] >= 2084.94
quadratic_ranged_3_lb: [ 1 x_3_ ^ 2 - 2 x_4_ * x_3_ + 1 x_4_ ^ 2 + 1 y_3_ ^ 2 - 2 y_4_ * y_3_ + 1 y_4_ ^ 2 ] >= 5395.5
quadratic_ranged_4_lb: [ 1 x_4_ ^ 2 - 2 x_5_ * x_4_ + 1 x_5_ ^ 2 + 1 y_4_ ^ 2 - 2 y_5_ * y_4_ + 1 y_5_ ^ 2 ] >= 15171.75
quadratic_ranged_5_lb: [ 1 x_3_ ^ 2 - 2 x_6_ * x_3_ + 1 x_6_ ^ 2 + 1 y_3_ ^ 2 - 2 y_6_ * y_3_ + 1 y_6_ ^ 2 ] >= 12078
quadratic_ranged_6_lb: [ 1 x_5_ ^ 2 - 2 x_6_ * x_5_ + 1 x_6_ ^ 2 + 1 y_5_ ^ 2 - 2 y_6_ * y_5_ + 1 y_6_ ^ 2 ] >= 3271.95
quadratic_ranged_7_lb: [ 1 x_6_ ^ 2 - 2 x_7_ * x_6_ + 1 x_7_ ^ 2 + 1 y_6_ ^ 2 - 2 y_7_ * y_6_ + 1 y_7_ ^ 2 ] >= 320.76
quadratic_ranged_8_lb: [ 1 x_1_ ^ 2 - 2 x_8_ * x_1_ + 1 x_8_ ^ 2 + 1 y_1_ ^ 2 - 2 y_8_ * y_1_ + 1 y_8_ ^ 2 ] >= 857.34
quadratic_ranged_9_lb: [ 1 x_7_ ^ 2 - 2 x_8_ * x_7_ + 1 x_8_ ^ 2 + 1 y_7_ ^ 2 - 2 y_8_ * y_7_ + 1 y_8_ ^ 2 ] >= 4638.15
quadratic_ranged_10_lb: [ 1 x_8_ ^ 2 - 2 x_9_ * x_8_ + 1 x_9_ ^ 2 + 1 y_8_ ^ 2 - 2 y_9_ * y_8_ + 1 y_9_ ^ 2 ] >= 4294.62
quadratic_ranged_11_lb: [ 1 x_9_ ^ 2 - 2 x_10_ * x_9_ + 1 x_10_ ^ 2 + 1 y_9_ ^ 2 - 2 y_10_ * y_9_ + 1 y_10_ ^ 2 ] >= 15722.19
quadratic_ranged_12_lb: [ 1 x_10_ ^ 2 - 2 x_11_ * x_10_ + 1 x_11_ ^ 2 + 1 y_10_ ^ 2 - 2 y_11_ * y_10_ + 1 y_11_ ^ 2 ] >= 15567.75
quadratic_ranged_13_lb: [ 1 x_7_ ^ 2 - 2 x_12_ * x_7_ + 1 x_12_ ^ 2 + 1 y_7_ ^ 2 - 2 y_12_ * y_7_ + 1 y_12_ ^ 2 ] >= 3465.99
quadratic_ranged_14_lb: [ 1 x_9_ ^ 2 - 2 x_12_ * x_9_ + 1 x_12_ ^ 2 + 1 y_9_ ^ 2 - 2 y_12_ * y_9_ + 1 y_12_ ^ 2 ] >= 3399.66
quadratic_ranged_15_lb: [ 1 x_11_ ^ 2 - 2 x_12_ * x_11_ + 1 x_12_ ^ 2 + 1 y_11_ ^ 2 - 2 y_12_ * y_11_ + 1 y_12_ ^ 2 ] >= 18029.88
quadratic_ranged_16_lb: [ 1 x_12_ ^ 2 - 2 x_13_ * x_12_ + 1 x_13_ ^ 2 + 1 y_12_ ^ 2 - 2 y_13_ * y_12_ + 1 y_13_ ^ 2 ] >= 11647.35
quadratic_ranged_17_lb: [ 1 x_13_ ^ 2 - 2 x_14_ * x_13_ + 1 x_14_ ^ 2 + 1 y_13_ ^ 2 - 2 y_14_ * y_13_ + 1 y_14_ ^ 2 ] >= 16398.36
quadratic_ranged_18_lb: [ 1 x_14_ ^ 2 - 2 x_15_ * x_14_ + 1 x_15_ ^ 2 + 1 y_14_ ^ 2 - 2 y_15_ * y_14_ + 1 y_15_ ^ 2 ] >= 3542.22
quadratic_ranged_19_lb: [ 1 x_8_ ^ 2 - 2 x_16_ * x_8_ + 1 x_16_ ^ 2 + 1 y_8_ ^ 2 - 2 y_16_ * y_8_ + 1 y_16_ ^ 2 ] >= 453.42
quadratic_ranged_20_lb: [ 1 x_11_ ^ 2 - 2 x_16_ * x_11_ + 1 x_16_ ^ 2 + 1 y_11_ ^ 2 - 2 y_16_ * y_11_ + 1 y_16_ ^ 2 ] >= 3019.5
quadratic_ranged_21_lb: [ 1 x_15_ ^ 2 - 2 x_16_ * x_15_ + 1 x_16_ ^ 2 + 1 y_15_ ^ 2 - 2 y_16_ * y_15_ + 1 y_16_ ^ 2 ] >= 18807.03
quadratic_ranged_22_lb: [ 1 x_7_ ^ 2 - 2 x_17_ * x_7_ + 1 x_17_ ^ 2 + 1 y_7_ ^ 2 - 2 y_17_ * y_7_ + 1 y_17_ ^ 2 ] >= 9508.95
quadratic_ranged_23_lb: [ 1 x_13_ ^ 2 - 2 x_17_ * x_13_ + 1 x_17_ ^ 2 + 1 y_13_ ^ 2 - 2 y_17_ * y_13_ + 1 y_17_ ^ 2 ] >= 23012.55
quadratic_ranged_24_lb: [ 1 x_16_ ^ 2 - 2 x_17_ * x_16_ + 1 x_17_ ^ 2 + 1 y_16_ ^ 2 - 2 y_17_ * y_16_ + 1 y_17_ ^ 2 ] >= 28329.84
quadratic_ranged_25_lb: [ 1 x_1_ ^ 2 - 2 x_18_ * x_1_ + 1 x_18_ ^ 2 + 1 y_1_ ^ 2 - 2 y_18_ * y_1_ + 1 y_18_ ^ 2 ] >= 9149.58
quadratic_ranged_26_lb: [ 1 x_6_ ^ 2 - 2 x_18_ * x_6_ + 1 x_18_ ^ 2 + 1 y_6_ ^ 2 - 2 y_18_ * y_6_ + 1 y_18_ ^ 2 ] >= 1632.51
quadratic_ranged_27_lb: [ 1 x_17_ ^ 2 - 2 x_18_ * x_17_ + 1 x_18_ ^ 2 + 1 y_17_ ^ 2 - 2 y_18_ * y_17_ + 1 y_18_ ^ 2 ] >= 3011.58
quadratic_ranged_28_lb: [ 1 x_12_ ^ 2 - 2 x_19_ * x_12_ + 1 x_19_ ^ 2 + 1 y_12_ ^ 2 - 2 y_19_ * y_12_ + 1 y_19_ ^ 2 ] >= 6927.03
quadratic_ranged_29_lb: [ 1 x_16_ ^ 2 - 2 x_19_ * x_16_ + 1 x_19_ ^ 2 + 1 y_16_ ^ 2 - 2 y_19_ * y_16_ + 1 y_19_ ^ 2 ] >= 22893.75
quadratic_ranged_30_lb: [ 1 x_17_ ^ 2 - 2 x_19_ * x_17_ + 1 x_19_ ^ 2 + 1 y_17_ ^ 2 - 2 y_19_ * y_17_ + 1 y_19_ ^ 2 ] >= 12110.67
quadratic_ranged_31_lb: [ 1 x_18_ ^ 2 - 2 x_19_ * x_18_ + 1 x_19_ ^ 2 + 1 y_18_ ^ 2 - 2 y_19_ * y_18_ + 1 y_19_ ^ 2 ] >= 18228.87
quadratic_ranged_32_lb: [ 1 x_5_ ^ 2 - 2 x_20_ * x_5_ + 1 x_20_ ^ 2 + 1 y_5_ ^ 2 - 2 y_20_ * y_5_ + 1 y_20_ ^ 2 ] >= 18906.03
quadratic_ranged_33_lb: [ 1 x_18_ ^ 2 - 2 x_20_ * x_18_ + 1 x_20_ ^ 2 + 1 y_18_ ^ 2 - 2 y_20_ * y_18_ + 1 y_20_ ^ 2 ] >= 34551.99
quadratic_ranged_34_lb: [ 1 x_19_ ^ 2 - 2 x_20_ * x_19_ + 1 x_20_ ^ 2 + 1 y_19_ ^ 2 - 2 y_20_ * y_19_ + 1 y_20_ ^ 2 ] >= 7048.8
quadratic_ranged_35_lb: [ 1 x_1_ ^ 2 - 2 x_21_ * x_1_ + 1 x_21_ ^ 2 + 1 y_1_ ^ 2 - 2 y_21_ * y_1_ + 1 y_21_ ^ 2 ] >= 35838
quadratic_ranged_36_lb: [ 1 x_20_ ^ 2 - 2 x_21_ * x_20_ + 1 x_21_ ^ 2 + 1 y_20_ ^ 2 - 2 y_21_ * y_20_ + 1 y_21_ ^ 2 ] >= 7227.99
quadratic_ranged_37_lb: [ 1 x_1_ ^ 2 - 2 x_22_ * x_1_ + 1 x_22_ ^ 2 + 1 y_1_ ^ 2 - 2 y_22_ * y_1_ + 1 y_22_ ^ 2 ] >= 16277.58
quadratic_ranged_38_lb: [ 1 x_2_ ^ 2 - 2 x_22_ * x_2_ + 1 x_22_ ^ 2 + 1 y_2_ ^ 2 - 2 y_22_ * y_2_ + 1 y_22_ ^ 2 ] >= 12474.99
quadratic_ranged_39_lb: [ 1 x_4_ ^ 2 - 2 x_22_ * x_4_ + 1 x_22_ ^ 2 + 1 y_4_ ^ 2 - 2 y_22_ * y_4_ + 1 y_22_ ^ 2 ] >= 23289.75
quadratic_ranged_40_lb: [ 1 x_5_ ^ 2 - 2 x_22_ * x_5_ + 1 x_22_ ^ 2 + 1 y_5_ ^ 2 - 2 y_22_ * y_5_ + 1 y_22_ ^ 2 ] >= 1356.3
quadratic_ranged_41_lb: [ 1 x_21_ ^ 2 - 2 x_22_ * x_21_ + 1 x_22_ ^ 2 + 1 y_21_ ^ 2 - 2 y_22_ * y_21_ + 1 y_22_ ^ 2 ] >= 20395.98
quadratic_ranged_42_lb: [ 1 x_6_ ^ 2 - 2 x_23_ * x_6_ + 1 x_23_ ^ 2 + 1 y_6_ ^ 2 - 2 y_23_ * y_6_ + 1 y_23_ ^ 2 ] >= 2574
quadratic_ranged_43_lb: [ 1 x_8_ ^ 2 - 2 x_23_ * x_8_ + 1 x_23_ ^ 2 + 1 y_8_ ^ 2 - 2 y_23_ * y_8_ + 1 y_23_ ^ 2 ] >= 17088.39
quadratic_ranged_44_lb: [ 1 x_21_ ^ 2 - 2 x_23_ * x_21_ + 1 x_23_ ^ 2 + 1 y_21_ ^ 2 - 2 y_23_ * y_21_ + 1 y_23_ ^ 2 ] >= 38864.43
quadratic_ranged_45_lb: [ 1 x_22_ ^ 2 - 2 x_23_ * x_22_ + 1 x_23_ ^ 2 + 1 y_22_ ^ 2 - 2 y_23_ * y_22_ + 1 y_23_ ^ 2 ] >= 4182.75
quadratic_ranged_46_lb: [ 1 x_16_ ^ 2 - 2 x_24_ * x_16_ + 1 x_24_ ^ 2 + 1 y_16_ ^ 2 - 2 y_24_ * y_16_ + 1 y_24_ ^ 2 ] >= 580.14
quadratic_ranged_47_lb: [ 1 x_23_ ^ 2 - 2 x_24_ * x_23_ + 1 x_24_ ^ 2 + 1 y_23_ ^ 2 - 2 y_24_ * y_23_ + 1 y_24_ ^ 2 ] >= 15508.35
quadratic_ranged_48_lb: [ 1 x_9_ ^ 2 - 2 x_25_ * x_9_ + 1 x_25_ ^ 2 + 1 y_9_ ^ 2 - 2 y_25_ * y_9_ + 1 y_25_ ^ 2 ] >= 2947.23
quadratic_ranged_49_lb: [ 1 x_24_ ^ 2 - 2 x_25_ * x_24_ + 1 x_25_ ^ 2 + 1 y_24_ ^ 2 - 2 y_25_ * y_24_ + 1 y_25_ ^ 2 ] >= 5354.91
quadratic_ranged_50_lb: [ 1 x_2_ ^ 2 - 2 x_26_ * x_2_ + 1 x_26_ ^ 2 + 1 y_2_ ^ 2 - 2 y_26_ * y_2_ + 1 y_26_ ^ 2 ] >= 25055.91
quadratic_ranged_51_lb: [ 1 x_25_ ^ 2 - 2 x_26_ * x_25_ + 1 x_26_ ^ 2 + 1 y_25_ ^ 2 - 2 y_26_ * y_25_ + 1 y_26_ ^ 2 ] >= 13781.789999999999
quadratic_ranged_52_lb: [ 1 x_7_ ^ 2 - 2 x_27_ * x_7_ + 1 x_27_ ^ 2 + 1 y_7_ ^ 2 - 2 y_27_ * y_7_ + 1 y_27_ ^ 2 ] >= 26140.95
quadratic_ranged_53_lb: [ 1 x_12_ ^ 2 - 2 x_27_ * x_12_ + 1 x_27_ ^ 2 + 1 y_12_ ^ 2 - 2 y_27_ * y_12_ + 1 y_27_ ^ 2 ] >= 14655.96
quadratic_ranged_54_lb: [ 1 x_26_ ^ 2 - 2 x_27_ * x_26_ + 1 x_27_ ^ 2 + 1 y_26_ ^ 2 - 2 y_27_ * y_26_ + 1 y_27_ ^ 2 ] >= 32472
quadratic_ranged_55_lb: [ 1 x_17_ ^ 2 - 2 x_28_ * x_17_ + 1 x_28_ ^ 2 + 1 y_17_ ^ 2 - 2 y_28_ * y_17_ + 1 y_28_ ^ 2 ] >= 13235.31
quadratic_ranged_56_lb: [ 1 x_18_ ^ 2 - 2 x_28_ * x_18_ + 1 x_28_ ^ 2 + 1 y_18_ ^ 2 - 2 y_28_ * y_18_ + 1 y_28_ ^ 2 ] >= 5014.35
quadratic_ranged_57_lb: [ 1 x_26_ ^ 2 - 2 x_28_ * x_26_ + 1 x_28_ ^ 2 + 1 y_26_ ^ 2 - 2 y_28_ * y_26_ + 1 y_28_ ^ 2 ] >= 6657.75
quadratic_ranged_58_lb: [ 1 x_27_ ^ 2 - 2 x_28_ * x_27_ + 1 x_28_ ^ 2 + 1 y_27_ ^ 2 - 2 y_28_ * y_27_ + 1 y_28_ ^ 2 ] >= 31534.47
quadratic_ranged_59_lb: [ 1 x_14_ ^ 2 - 2 x_29_ * x_14_ + 1 x_29_ ^ 2 + 1 y_14_ ^ 2 - 2 y_29_ * y_14_ + 1 y_29_ ^ 2 ] >= 7402.23
quadratic_ranged_60_lb: [ 1 x_23_ ^ 2 - 2 x_29_ * x_23_ + 1 x_29_ ^ 2 + 1 y_23_ ^ 2 - 2 y_29_ * y_23_ + 1 y_29_ ^ 2 ] >= 18597.15
quadratic_ranged_61_lb: [ 1 x_27_ ^ 2 - 2 x_29_ * x_27_ + 1 x_29_ ^ 2 + 1 y_27_ ^ 2 - 2 y_29_ * y_27_ + 1 y_29_ ^ 2 ] >= 10177.2
quadratic_ranged_62_lb: [ 1 x_28_ ^ 2 - 2 x_29_ * x_28_ + 1 x_29_ ^ 2 + 1 y_28_ ^ 2 - 2 y_29_ * y_28_ + 1 y_29_ ^ 2 ] >= 7841.79
quadratic_ranged_63_lb: [ 1 x_4_ ^ 2 - 2 x_30_ * x_4_ + 1 x_30_ ^ 2 + 1 y_4_ ^ 2 - 2 y_30_ * y_4_ + 1 y_30_ ^ 2 ] >= 30532.59
quadratic_ranged_64_lb: [ 1 x_29_ ^ 2 - 2 x_30_ * x_29_ + 1 x_30_ ^ 2 + 1 y_29_ ^ 2 - 2 y_30_ * y_29_ + 1 y_30_ ^ 2 ] >= 11137.5
quadratic_ranged_65_lb: [ 1 x_6_ ^ 2 - 2 x_31_ * x_6_ + 1 x_31_ ^ 2 + 1 y_6_ ^ 2 - 2 y_31_ * y_6_ + 1 y_31_ ^ 2 ] >= 9188.19
quadratic_ranged_66_lb: [ 1 x_12_ ^ 2 - 2 x_31_ * x_12_ + 1 x_31_ ^ 2 + 1 y_12_ ^ 2 - 2 y_31_ * y_12_ + 1 y_31_ ^ 2 ] >= 1932.48
quadratic_ranged_67_lb: [ 1 x_28_ ^ 2 - 2 x_31_ * x_28_ + 1 x_31_ ^ 2 + 1 y_28_ ^ 2 - 2 y_31_ * y_28_ + 1 y_31_ ^ 2 ] >= 14249.07
quadratic_ranged_68_lb: [ 1 x_30_ ^ 2 - 2 x_31_ * x_30_ + 1 x_31_ ^ 2 + 1 y_30_ ^ 2 - 2 y_31_ * y_30_ + 1 y_31_ ^ 2 ] >= 32980.86
quadratic_ranged_69_lb: [ 1 x_6_ ^ 2 - 2 x_32_ * x_6_ + 1 x_32_ ^ 2 + 1 y_6_ ^ 2 - 2 y_32_ * y_6_ + 1 y_32_ ^ 2 ] >= 4534.2
quadratic_ranged_70_lb: [ 1 x_12_ ^ 2 - 2 x_32_ * x_12_ + 1 x_32_ ^ 2 + 1 y_12_ ^ 2 - 2 y_32_ * y_12_ + 1 y_32_ ^ 2 ] >= 7952.67
quadratic_ranged_71_lb: [ 1 x_15_ ^ 2 - 2 x_32_ * x_15_ + 1 x_32_ ^ 2 + 1 y_15_ ^ 2 - 2 y_32_ * y_15_ + 1 y_32_ ^ 2 ] >= 25187.579999999998
quadratic_ranged_72_lb: [ 1 x_18_ ^ 2 - 2 x_32_ * x_18_ + 1 x_32_ ^ 2 + 1 y_18_ ^ 2 - 2 y_32_ * y_18_ + 1 y_32_ ^ 2 ] >= 1402.83
quadratic_ranged_73_lb: [ 1 x_24_ ^ 2 - 2 x_32_ * x_24_ + 1 x_32_ ^ 2 + 1 y_24_ ^ 2 - 2 y_32_ * y_24_ + 1 y_32_ ^ 2 ] >= 18878.31
quadratic_ranged_74_lb: [ 1 x_28_ ^ 2 - 2 x_32_ * x_28_ + 1 x_32_ ^ 2 + 1 y_28_ ^ 2 - 2 y_32_ * y_28_ + 1 y_32_ ^ 2 ] >= 8222.94
quadratic_ranged_75_lb: [ 1 x_31_ ^ 2 - 2 x_32_ * x_31_ + 1 x_32_ ^ 2 + 1 y_31_ ^ 2 - 2 y_32_ * y_31_ + 1 y_32_ ^ 2 ] >= 15833.07
quadratic_ranged_76_lb: [ 1 x_3_ ^ 2 - 2 x_33_ * x_3_ + 1 x_33_ ^ 2 + 1 y_3_ ^ 2 - 2 y_33_ * y_3_ + 1 y_33_ ^ 2 ] >= 990
quadratic_ranged_77_lb: [ 1 x_32_ ^ 2 - 2 x_33_ * x_32_ + 1 x_33_ ^ 2 + 1 y_32_ ^ 2 - 2 y_33_ * y_32_ + 1 y_33_ ^ 2 ] >= 25443
quadratic_ranged_78_lb: [ 1 x_16_ ^ 2 - 2 x_34_ * x_16_ + 1 x_34_ ^ 2 + 1 y_16_ ^ 2 - 2 y_34_ * y_16_ + 1 y_34_ ^ 2 ] >= 23594.67
quadratic_ranged_79_lb: [ 1 x_18_ ^ 2 - 2 x_34_ * x_18_ + 1 x_34_ ^ 2 + 1 y_18_ ^ 2 - 2 y_34_ * y_18_ + 1 y_34_ ^ 2 ] >= 28635.75
quadratic_ranged_80_lb: [ 1 x_33_ ^ 2 - 2 x_34_ * x_33_ + 1 x_34_ ^ 2 + 1 y_33_ ^ 2 - 2 y_34_ * y_33_ + 1 y_34_ ^ 2 ] >= 2253.24
quadratic_ranged_81_lb: [ 1 x_9_ ^ 2 - 2 x_35_ * x_9_ + 1 x_35_ ^ 2 + 1 y_9_ ^ 2 - 2 y_35_ * y_9_ + 1 y_35_ ^ 2 ] >= 3740.22
quadratic_ranged_82_lb: [ 1 x_10_ ^ 2 - 2 x_35_ * x_10_ + 1 x_35_ ^ 2 + 1 y_10_ ^ 2 - 2 y_35_ * y_10_ + 1 y_35_ ^ 2 ] >= 11964.15
quadratic_ranged_83_lb: [ 1 x_17_ ^ 2 - 2 x_35_ * x_17_ + 1 x_35_ ^ 2 + 1 y_17_ ^ 2 - 2 y_35_ * y_17_ + 1 y_35_ ^ 2 ] >= 20633.579999999998
quadratic_ranged_84_lb: [ 1 x_19_ ^ 2 - 2 x_35_ * x_19_ + 1 x_35_ ^ 2 + 1 y_19_ ^ 2 - 2 y_35_ * y_19_ + 1 y_35_ ^ 2 ] >= 12288.869999999999
quadratic_ranged_85_lb: [ 1 x_26_ ^ 2 - 2 x_35_ * x_26_ + 1 x_35_ ^ 2 + 1 y_26_ ^ 2 - 2 y_35_ * y_26_ + 1 y_35_ ^ 2 ] >= 17728.92
quadratic_ranged_86_lb: [ 1 x_27_ ^ 2 - 2 x_35_ * x_27_ + 1 x_35_ ^ 2 + 1 y_27_ ^ 2 - 2 y_35_ * y_27_ + 1 y_35_ ^ 2 ] >= 19360.44
quadratic_ranged_87_lb: [ 1 x_34_ ^ 2 - 2 x_35_ * x_34_ + 1 x_35_ ^ 2 + 1 y_34_ ^ 2 - 2 y_35_ * y_34_ + 1 y_35_ ^ 2 ] >= 12835.35
quadratic_ranged_88_lb: [ 1 x_2_ ^ 2 - 2 x_36_ * x_2_ + 1 x_36_ ^ 2 + 1 y_2_ ^ 2 - 2 y_36_ * y_2_ + 1 y_36_ ^ 2 ] >= 63.36
quadratic_ranged_89_lb: [ 1 x_4_ ^ 2 - 2 x_36_ * x_4_ + 1 x_36_ ^ 2 + 1 y_4_ ^ 2 - 2 y_36_ * y_4_ + 1 y_36_ ^ 2 ] >= 6197.4
quadratic_ranged_90_lb: [ 1 x_8_ ^ 2 - 2 x_36_ * x_8_ + 1 x_36_ ^ 2 + 1 y_8_ ^ 2 - 2 y_36_ * y_8_ + 1 y_36_ ^ 2 ] >= 42673.95
quadratic_ranged_91_lb: [ 1 x_12_ ^ 2 - 2 x_36_ * x_12_ + 1 x_36_ ^ 2 + 1 y_12_ ^ 2 - 2 y_36_ * y_12_ + 1 y_36_ ^ 2 ] >= 12585.869999999999
quadratic_ranged_92_lb: [ 1 x_21_ ^ 2 - 2 x_36_ * x_21_ + 1 x_36_ ^ 2 + 1 y_21_ ^ 2 - 2 y_36_ * y_21_ + 1 y_36_ ^ 2 ] >= 1592.91
quadratic_ranged_93_lb: [ 1 x_35_ ^ 2 - 2 x_36_ * x_35_ + 1 x_36_ ^ 2 + 1 y_35_ ^ 2 - 2 y_36_ * y_35_ + 1 y_36_ ^ 2 ] >= 24489.63
quadratic_ranged_94_lb: [ 1 x_23_ ^ 2 - 2 x_37_ * x_23_ + 1 x_37_ ^ 2 + 1 y_23_ ^ 2 - 2 y_37_ * y_23_ + 1 y_37_ ^ 2 ] >= 29852.46
quadratic_ranged_95_lb: [ 1 x_36_ ^ 2 - 2 x_37_ * x_36_ + 1 x_37_ ^ 2 + 1 y_36_ ^ 2 - 2 y_37_ * y_36_ + 1 y_37_ ^ 2 ] >= 4312.44
quadratic_ranged_96_lb: [ 1 x_1_ ^ 2 - 2 x_38_ * x_1_ + 1 x_38_ ^ 2 + 1 y_1_ ^ 2 - 2 y_38_ * y_1_ + 1 y_38_ ^ 2 ] >= 2190.87
quadratic_ranged_97_lb: [ 1 x_2_ ^ 2 - 2 x_38_ * x_2_ + 1 x_38_ ^ 2 + 1 y_2_ ^ 2 - 2 y_38_ * y_2_ + 1 y_38_ ^ 2 ] >= 41748.3
quadratic_ranged_98_lb: [ 1 x_3_ ^ 2 - 2 x_38_ * x_3_ + 1 x_38_ ^ 2 + 1 y_3_ ^ 2 - 2 y_38_ * y_3_ + 1 y_38_ ^ 2 ] >= 25977.6
quadratic_ranged_99_lb: [ 1 x_8_ ^ 2 - 2 x_38_ * x_8_ + 1 x_38_ ^ 2 + 1 y_8_ ^ 2 - 2 y_38_ * y_8_ + 1 y_38_ ^ 2 ] >= 329.67
quadratic_ranged_100_lb: [ 1 x_10_ ^ 2 - 2 x_38_ * x_10_ + 1 x_38_ ^ 2 + 1 y_10_ ^ 2 - 2 y_38_ * y_10_ + 1 y_38_ ^ 2 ] >= 27230.94
quadratic_ranged_101_lb: [ 1 x_17_ ^ 2 - 2 x_38_ * x_17_ + 1 x_38_ ^ 2 + 1 y_17_ ^ 2 - 2 y_38_ * y_17_ + 1 y_38_ ^ 2 ] >= 32013.63
quadratic_ranged_102_lb: [ 1 x_19_ ^ 2 - 2 x_38_ * x_19_ + 1 x_38_ ^ 2 + 1 y_19_ ^ 2 - 2 y_38_ * y_19_ + 1 y_38_ ^ 2 ] >= 27563.579999999998
quadratic_ranged_103_lb: [ 1 x_22_ ^ 2 - 2 x_38_ * x_22_ + 1 x_38_ ^ 2 + 1 y_22_ ^ 2 - 2 y_38_ * y_22_ + 1 y_38_ ^ 2 ] >= 28180.35
quadratic_ranged_104_lb: [ 1 x_23_ ^ 2 - 2 x_38_ * x_23_ + 1 x_38_ ^ 2 + 1 y_23_ ^ 2 - 2 y_38_ * y_23_ + 1 y_38_ ^ 2 ] >= 21938.4
quadratic_ranged_105_lb: [ 1 x_30_ ^ 2 - 2 x_38_ * x_30_ + 1 x_38_ ^ 2 + 1 y_30_ ^ 2 - 2 y_38_ * y_30_ + 1 y_38_ ^ 2 ] >= 373.23
quadratic_ranged_106_lb: [ 1 x_37_ ^ 2 - 2 x_38_ * x_37_ + 1 x_38_ ^ 2 + 1 y_37_ ^ 2 - 2 y_38_ * y_37_ + 1 y_38_ ^ 2 ] >= 61667.1
quadratic_ranged_107_lb: [ 1 x_4_ ^ 2 - 2 x_39_ * x_4_ + 1 x_39_ ^ 2 + 1 y_4_ ^ 2 - 2 y_39_ * y_4_ + 1 y_39_ ^ 2 ] >= 17265.6
quadratic_ranged_108_lb: [ 1 x_28_ ^ 2 - 2 x_39_ * x_28_ + 1 x_39_ ^ 2 + 1 y_28_ ^ 2 - 2 y_39_ * y_28_ + 1 y_39_ ^ 2 ] >= 32638.32
quadratic_ranged_109_lb: [ 1 x_31_ ^ 2 - 2 x_39_ * x_31_ + 1 x_39_ ^ 2 + 1 y_31_ ^ 2 - 2 y_39_ * y_31_ + 1 y_39_ ^ 2 ] >= 3980.79
quadratic_ranged_110_lb: [ 1 x_38_ ^ 2 - 2 x_39_ * x_38_ + 1 x_39_ ^ 2 + 1 y_38_ ^ 2 - 2 y_39_ * y_38_ + 1 y_39_ ^ 2 ] >= 52123.5
quadratic_ranged_111_lb: [ 1 x_8_ ^ 2 - 2 x_40_ * x_8_ + 1 x_40_ ^ 2 + 1 y_8_ ^ 2 - 2 y_40_ * y_8_ + 1 y_40_ ^ 2 ] >= 506.88
quadratic_ranged_112_lb: [ 1 x_17_ ^ 2 - 2 x_40_ * x_17_ + 1 x_40_ ^ 2 + 1 y_17_ ^ 2 - 2 y_40_ * y_17_ + 1 y_40_ ^ 2 ] >= 20459.34
quadratic_ranged_113_lb: [ 1 x_22_ ^ 2 - 2 x_40_ * x_22_ + 1 x_40_ ^ 2 + 1 y_22_ ^ 2 - 2 y_40_ * y_22_ + 1 y_40_ ^ 2 ] >= 17443.8
quadratic_ranged_114_lb: [ 1 x_28_ ^ 2 - 2 x_40_ * x_28_ + 1 x_40_ ^ 2 + 1 y_28_ ^ 2 - 2 y_40_ * y_28_ + 1 y_40_ ^ 2 ] >= 1371.15
quadratic_ranged_115_lb: [ 1 x_31_ ^ 2 - 2 x_40_ * x_31_ + 1 x_40_ ^ 2 + 1 y_31_ ^ 2 - 2 y_40_ * y_31_ + 1 y_40_ ^ 2 ] >= 17883.36
quadratic_ranged_116_lb: [ 1 x_39_ ^ 2 - 2 x_40_ * x_39_ + 1 x_40_ ^ 2 + 1 y_39_ ^ 2 - 2 y_40_ * y_39_ + 1 y_40_ ^ 2 ] >= 38733.75
quadratic_ranged_117_lb: [ 1 x_1_ ^ 2 - 2 x_41_ * x_1_ + 1 x_41_ ^ 2 + 1 y_1_ ^ 2 - 2 y_41_ * y_1_ + 1 y_41_ ^ 2 ] >= 9413.91
quadratic_ranged_118_lb: [ 1 x_6_ ^ 2 - 2 x_41_ * x_6_ + 1 x_41_ ^ 2 + 1 y_6_ ^ 2 - 2 y_41_ * y_6_ + 1 y_41_ ^ 2 ] >= 1920.6
quadratic_ranged_119_lb: [ 1 x_11_ ^ 2 - 2 x_41_ * x_11_ + 1 x_41_ ^ 2 + 1 y_11_ ^ 2 - 2 y_41_ * y_11_ + 1 y_41_ ^ 2 ] >= 28635.75
quadratic_ranged_120_lb: [ 1 x_20_ ^ 2 - 2 x_41_ * x_20_ + 1 x_41_ ^ 2 + 1 y_20_ ^ 2 - 2 y_41_ * y_20_ + 1 y_41_ ^ 2 ] >= 37804.14
quadratic_ranged_121_lb: [ 1 x_23_ ^ 2 - 2 x_41_ * x_23_ + 1 x_41_ ^ 2 + 1 y_23_ ^ 2 - 2 y_41_ * y_23_ + 1 y_41_ ^ 2 ] >= 99
quadratic_ranged_122_lb: [ 1 x_34_ ^ 2 - 2 x_41_ * x_34_ + 1 x_41_ ^ 2 + 1 y_34_ ^ 2 - 2 y_41_ * y_34_ + 1 y_41_ ^ 2 ] >= 31941.36
quadratic_ranged_123_lb: [ 1 x_40_ ^ 2 - 2 x_41_ * x_40_ + 1 x_41_ ^ 2 + 1 y_40_ ^ 2 - 2 y_41_ * y_40_ + 1 y_41_ ^ 2 ] >= 11667.15
quadratic_ranged_124_lb: [ 1 x_11_ ^ 2 - 2 x_42_ * x_11_ + 1 x_42_ ^ 2 + 1 y_11_ ^ 2 - 2 y_42_ * y_11_ + 1 y_42_ ^ 2 ] >= 10788.03
quadratic_ranged_125_lb: [ 1 x_25_ ^ 2 - 2 x_42_ * x_25_ + 1 x_42_ ^ 2 + 1 y_25_ ^ 2 - 2 y_42_ * y_25_ + 1 y_42_ ^ 2 ] >= 2029.5
quadratic_ranged_126_lb: [ 1 x_30_ ^ 2 - 2 x_42_ * x_30_ + 1 x_42_ ^ 2 + 1 y_30_ ^ 2 - 2 y_42_ * y_30_ + 1 y_42_ ^ 2 ] >= 19321.829999999998
quadratic_ranged_127_lb: [ 1 x_31_ ^ 2 - 2 x_42_ * x_31_ + 1 x_42_ ^ 2 + 1 y_31_ ^ 2 - 2 y_42_ * y_31_ + 1 y_42_ ^ 2 ] >= 2103.75
quadratic_ranged_128_lb: [ 1 x_40_ ^ 2 - 2 x_42_ * x_40_ + 1 x_42_ ^ 2 + 1 y_40_ ^ 2 - 2 y_42_ * y_40_ + 1 y_42_ ^ 2 ] >= 9271.35
quadratic_ranged_129_lb: [ 1 x_41_ ^ 2 - 2 x_42_ * x_41_ + 1 x_42_ ^ 2 + 1 y_41_ ^ 2 - 2 y_42_ * y_41_ + 1 y_42_ ^ 2 ] >= 10874.16
quadratic_ranged_130_lb: [ 1 x_15_ ^ 2 - 2 x_43_ * x_15_ + 1 x_43_ ^ 2 + 1 y_15_ ^ 2 - 2 y_43_ * y_15_ + 1 y_43_ ^ 2 ] >= 5810.31
quadratic_ranged_131_lb: [ 1 x_41_ ^ 2 - 2 x_43_ * x_41_ + 1 x_43_ ^ 2 + 1 y_41_ ^ 2 - 2 y_43_ * y_41_ + 1 y_43_ ^ 2 ] >= 21824.55
quadratic_ranged_132_lb: [ 1 x_42_ ^ 2 - 2 x_43_ * x_42_ + 1 x_43_ ^ 2 + 1 y_42_ ^ 2 - 2 y_43_ * y_42_ + 1 y_43_ ^ 2 ] >= 4071.87
quadratic_ranged_133_lb: [ 1 x_12_ ^ 2 - 2 x_44_ * x_12_ + 1 x_44_ ^ 2 + 1 y_12_ ^ 2 - 2 y_44_ * y_12_ + 1 y_44_ ^ 2 ] >= 15147
quadratic_ranged_134_lb: [ 1 x_16_ ^ 2 - 2 x_44_ * x_16_ + 1 x_44_ ^ 2 + 1 y_16_ ^ 2 - 2 y_44_ * y_16_ + 1 y_44_ ^ 2 ] >= 54190.62
quadratic_ranged_135_lb: [ 1 x_23_ ^ 2 - 2 x_44_ * x_23_ + 1 x_44_ ^ 2 + 1 y_23_ ^ 2 - 2 y_44_ * y_23_ + 1 y_44_ ^ 2 ] >= 30417.75
quadratic_ranged_136_lb: [ 1 x_30_ ^ 2 - 2 x_44_ * x_30_ + 1 x_44_ ^ 2 + 1 y_30_ ^ 2 - 2 y_44_ * y_30_ + 1 y_44_ ^ 2 ] >= 68660.46
quadratic_ranged_137_lb: [ 1 x_31_ ^ 2 - 2 x_44_ * x_31_ + 1 x_44_ ^ 2 + 1 y_31_ ^ 2 - 2 y_44_ * y_31_ + 1 y_44_ ^ 2 ] >= 6767.64
quadratic_ranged_138_lb: [ 1 x_40_ ^ 2 - 2 x_44_ * x_40_ + 1 x_44_ ^ 2 + 1 y_40_ ^ 2 - 2 y_44_ * y_40_ + 1 y_44_ ^ 2 ] >= 46589.4
quadratic_ranged_139_lb: [ 1 x_43_ ^ 2 - 2 x_44_ * x_43_ + 1 x_44_ ^ 2 + 1 y_43_ ^ 2 - 2 y_44_ * y_43_ + 1 y_44_ ^ 2 ] >= 32077.98
quadratic_ranged_140_lb: [ 1 x_8_ ^ 2 - 2 x_45_ * x_8_ + 1 x_45_ ^ 2 + 1 y_8_ ^ 2 - 2 y_45_ * y_8_ + 1 y_45_ ^ 2 ] >= 524.7
quadratic_ranged_141_lb: [ 1 x_20_ ^ 2 - 2 x_45_ * x_20_ + 1 x_45_ ^ 2 + 1 y_20_ ^ 2 - 2 y_45_ * y_20_ + 1 y_45_ ^ 2 ] >= 24279.75
quadratic_ranged_142_lb: [ 1 x_24_ ^ 2 - 2 x_45_ * x_24_ + 1 x_45_ ^ 2 + 1 y_24_ ^ 2 - 2 y_45_ * y_24_ + 1 y_45_ ^ 2 ] >= 295.02
quadratic_ranged_143_lb: [ 1 x_41_ ^ 2 - 2 x_45_ * x_41_ + 1 x_45_ ^ 2 + 1 y_41_ ^ 2 - 2 y_45_ * y_41_ + 1 y_45_ ^ 2 ] >= 10875.15
quadratic_ranged_144_lb: [ 1 x_43_ ^ 2 - 2 x_45_ * x_43_ + 1 x_45_ ^ 2 + 1 y_43_ ^ 2 - 2 y_45_ * y_43_ + 1 y_45_ ^ 2 ] >= 9761.4
quadratic_ranged_145_lb: [ 1 x_44_ ^ 2 - 2 x_45_ * x_44_ + 1 x_45_ ^ 2 + 1 y_44_ ^ 2 - 2 y_45_ * y_44_ + 1 y_45_ ^ 2 ] >= 51196.86
quadratic_ranged_146_lb: [ 1 x_20_ ^ 2 - 2 x_46_ * x_20_ + 1 x_46_ ^ 2 + 1 y_20_ ^ 2 - 2 y_46_ * y_20_ + 1 y_46_ ^ 2 ] >= 19254.51
quadratic_ranged_147_lb: [ 1 x_23_ ^ 2 - 2 x_46_ * x_23_ + 1 x_46_ ^ 2 + 1 y_23_ ^ 2 - 2 y_46_ * y_23_ + 1 y_46_ ^ 2 ] >= 13346.19
quadratic_ranged_148_lb: [ 1 x_24_ ^ 2 - 2 x_46_ * x_24_ + 1 x_46_ ^ 2 + 1 y_24_ ^ 2 - 2 y_46_ * y_24_ + 1 y_46_ ^ 2 ] >= 205.92
quadratic_ranged_149_lb: [ 1 x_45_ ^ 2 - 2 x_46_ * x_45_ + 1 x_46_ ^ 2 + 1 y_45_ ^ 2 - 2 y_46_ * y_45_ + 1 y_46_ ^ 2 ] >= 302.94
quadratic_ranged_150_lb: [ 1 x_12_ ^ 2 - 2 x_47_ * x_12_ + 1 x_47_ ^ 2 + 1 y_12_ ^ 2 - 2 y_47_ * y_12_ + 1 y_47_ ^ 2 ] >= 6531.03
quadratic_ranged_151_lb: [ 1 x_27_ ^ 2 - 2 x_47_ * x_27_ + 1 x_47_ ^ 2 + 1 y_27_ ^ 2 - 2 y_47_ * y_27_ + 1 y_47_ ^ 2 ] >= 39446.55
quadratic_ranged_152_lb: [ 1 x_46_ ^ 2 - 2 x_47_ * x_46_ + 1 x_47_ ^ 2 + 1 y_46_ ^ 2 - 2 y_47_ * y_46_ + 1 y_47_ ^ 2 ] >= 7208.19
quadratic_ranged_153_lb: [ 1 x_2_ ^ 2 - 2 x_48_ * x_2_ + 1 x_48_ ^ 2 + 1 y_2_ ^ 2 - 2 y_48_ * y_2_ + 1 y_48_ ^ 2 ] >= 939.51
quadratic_ranged_154_lb: [ 1 x_4_ ^ 2 - 2 x_48_ * x_4_ + 1 x_48_ ^ 2 + 1 y_4_ ^ 2 - 2 y_48_ * y_4_ + 1 y_48_ ^ 2 ] >= 4966.83
quadratic_ranged_155_lb: [ 1 x_20_ ^ 2 - 2 x_48_ * x_20_ + 1 x_48_ ^ 2 + 1 y_20_ ^ 2 - 2 y_48_ * y_20_ + 1 y_48_ ^ 2 ] >= 10566.27
quadratic_ranged_156_lb: [ 1 x_31_ ^ 2 - 2 x_48_ * x_31_ + 1 x_48_ ^ 2 + 1 y_31_ ^ 2 - 2 y_48_ * y_31_ + 1 y_48_ ^ 2 ] >= 1461.24
quadratic_ranged_157_lb: [ 1 x_47_ ^ 2 - 2 x_48_ * x_47_ + 1 x_48_ ^ 2 + 1 y_47_ ^ 2 - 2 y_48_ * y_47_ + 1 y_48_ ^ 2 ] >= 24453.989999999998
quadratic_ranged_158_lb: [ 1 x_7_ ^ 2 - 2 x_49_ * x_7_ + 1 x_49_ ^ 2 + 1 y_7_ ^ 2 - 2 y_49_ * y_7_ + 1 y_49_ ^ 2 ] >= 3336.3
quadratic_ranged_159_lb: [ 1 x_8_ ^ 2 - 2 x_49_ * x_8_ + 1 x_49_ ^ 2 + 1 y_8_ ^ 2 - 2 y_49_ * y_8_ + 1 y_49_ ^ 2 ] >= 9897.03
quadratic_ranged_160_lb: [ 1 x_42_ ^ 2 - 2 x_49_ * x_42_ + 1 x_49_ ^ 2 + 1 y_42_ ^ 2 - 2 y_49_ * y_42_ + 1 y_49_ ^ 2 ] >= 366.3
quadratic_ranged_161_lb: [ 1 x_44_ ^ 2 - 2 x_49_ * x_44_ + 1 x_49_ ^ 2 + 1 y_44_ ^ 2 - 2 y_49_ * y_44_ + 1 y_49_ ^ 2 ] >= 19389.15
quadratic_ranged_162_lb: [ 1 x_48_ ^ 2 - 2 x_49_ * x_48_ + 1 x_49_ ^ 2 + 1 y_48_ ^ 2 - 2 y_49_ * y_48_ + 1 y_49_ ^ 2 ] >= 5014.35
quadratic_ranged_163_lb: [ 1 x_13_ ^ 2 - 2 x_50_ * x_13_ + 1 x_50_ ^ 2 + 1 y_13_ ^ 2 - 2 y_50_ * y_13_ + 1 y_50_ ^ 2 ] >= 5141.07
quadratic_ranged_164_lb: [ 1 x_38_ ^ 2 - 2 x_50_ * x_38_ + 1 x_50_ ^ 2 + 1 y_38_ ^ 2 - 2 y_50_ * y_38_ + 1 y_50_ ^ 2 ] >= 9908.91
quadratic_ranged_165_lb: [ 1 x_39_ ^ 2 - 2 x_50_ * x_39_ + 1 x_50_ ^ 2 + 1 y_39_ ^ 2 - 2 y_50_ * y_39_ + 1 y_50_ ^ 2 ] >= 30722.67
quadratic_ranged_166_lb: [ 1 x_49_ ^ 2 - 2 x_50_ * x_49_ + 1 x_50_ ^ 2 + 1 y_49_ ^ 2 - 2 y_50_ * y_49_ + 1 y_50_ ^ 2 ] >= 7287.39
quadratic_ranged_167_lb: [ 1 x_5_ ^ 2 - 2 x_51_ * x_5_ + 1 x_51_ ^ 2 + 1 y_5_ ^ 2 - 2 y_51_ * y_5_ + 1 y_51_ ^ 2 ] >= 14147.1
quadratic_ranged_168_lb: [ 1 x_19_ ^ 2 - 2 x_51_ * x_19_ + 1 x_51_ ^ 2 + 1 y_19_ ^ 2 - 2 y_51_ * y_19_ + 1 y_51_ ^ 2 ] >= 3450.15
quadratic_ranged_169_lb: [ 1 x_22_ ^ 2 - 2 x_51_ * x_22_ + 1 x_51_ ^ 2 + 1 y_22_ ^ 2 - 2 y_51_ * y_22_ + 1 y_51_ ^ 2 ] >= 22888.8
quadratic_ranged_170_lb: [ 1 x_46_ ^ 2 - 2 x_51_ * x_46_ + 1 x_51_ ^ 2 + 1 y_46_ ^ 2 - 2 y_51_ * y_46_ + 1 y_51_ ^ 2 ] >= 19249.56
quadratic_ranged_171_lb: [ 1 x_50_ ^ 2 - 2 x_51_ * x_50_ + 1 x_51_ ^ 2 + 1 y_50_ ^ 2 - 2 y_51_ * y_50_ + 1 y_51_ ^ 2 ] >= 28769.4
quadratic_ranged_172_lb: [ 1 x_1_ ^ 2 - 2 x_52_ * x_1_ + 1 x_52_ ^ 2 + 1 y_1_ ^ 2 - 2 y_52_ * y_1_ + 1 y_52_ ^ 2 ] >= 23571.9
quadratic_ranged_173_lb: [ 1 x_22_ ^ 2 - 2 x_52_ * x_22_ + 1 x_52_ ^ 2 + 1 y_22_ ^ 2 - 2 y_52_ * y_22_ + 1 y_52_ ^ 2 ] >= 31505.76
quadratic_ranged_174_lb: [ 1 x_27_ ^ 2 - 2 x_52_ * x_27_ + 1 x_52_ ^ 2 + 1 y_27_ ^ 2 - 2 y_52_ * y_27_ + 1 y_52_ ^ 2 ] >= 8118
quadratic_ranged_175_lb: [ 1 x_40_ ^ 2 - 2 x_52_ * x_40_ + 1 x_52_ ^ 2 + 1 y_40_ ^ 2 - 2 y_52_ * y_40_ + 1 y_52_ ^ 2 ] >= 19107
quadratic_ranged_176_lb: [ 1 x_42_ ^ 2 - 2 x_52_ * x_42_ + 1 x_52_ ^ 2 + 1 y_42_ ^ 2 - 2 y_52_ * y_42_ + 1 y_52_ ^ 2 ] >= 9885.15
quadratic_ranged_177_lb: [ 1 x_43_ ^ 2 - 2 x_52_ * x_43_ + 1 x_52_ ^ 2 + 1 y_43_ ^ 2 - 2 y_52_ * y_43_ + 1 y_52_ ^ 2 ] >= 3407.58
quadratic_ranged_178_lb: [ 1 x_51_ ^ 2 - 2 x_52_ * x_51_ + 1 x_52_ ^ 2 + 1 y_51_ ^ 2 - 2 y_52_ * y_51_ + 1 y_52_ ^ 2 ] >= 1077.12
quadratic_ranged_179_lb: [ 1 x_2_ ^ 2 - 2 x_53_ * x_2_ + 1 x_53_ ^ 2 + 1 y_2_ ^ 2 - 2 y_53_ * y_2_ + 1 y_53_ ^ 2 ] >= 5133.15
quadratic_ranged_180_lb: [ 1 x_4_ ^ 2 - 2 x_53_ * x_4_ + 1 x_53_ ^ 2 + 1 y_4_ ^ 2 - 2 y_53_ * y_4_ + 1 y_53_ ^ 2 ] >= 21396.87
quadratic_ranged_181_lb: [ 1 x_8_ ^ 2 - 2 x_53_ * x_8_ + 1 x_53_ ^ 2 + 1 y_8_ ^ 2 - 2 y_53_ * y_8_ + 1 y_53_ ^ 2 ] >= 51563.159999999996
quadratic_ranged_182_lb: [ 1 x_10_ ^ 2 - 2 x_53_ * x_10_ + 1 x_53_ ^ 2 + 1 y_10_ ^ 2 - 2 y_53_ * y_10_ + 1 y_53_ ^ 2 ] >= 11956.23
quadratic_ranged_183_lb: [ 1 x_13_ ^ 2 - 2 x_53_ * x_13_ + 1 x_53_ ^ 2 + 1 y_13_ ^ 2 - 2 y_53_ * y_13_ + 1 y_53_ ^ 2 ] >= 45707.31
quadratic_ranged_184_lb: [ 1 x_45_ ^ 2 - 2 x_53_ * x_45_ + 1 x_53_ ^ 2 + 1 y_45_ ^ 2 - 2 y_53_ * y_45_ + 1 y_53_ ^ 2 ] >= 45597.42
quadratic_ranged_185_lb: [ 1 x_49_ ^ 2 - 2 x_53_ * x_49_ + 1 x_53_ ^ 2 + 1 y_49_ ^ 2 - 2 y_53_ * y_49_ + 1 y_53_ ^ 2 ] >= 17025.03
quadratic_ranged_186_lb: [ 1 x_52_ ^ 2 - 2 x_53_ * x_52_ + 1 x_53_ ^ 2 + 1 y_52_ ^ 2 - 2 y_53_ * y_52_ + 1 y_53_ ^ 2 ] >= 35766.72
quadratic_ranged_187_lb: [ 1 x_6_ ^ 2 - 2 x_54_ * x_6_ + 1 x_54_ ^ 2 + 1 y_6_ ^ 2 - 2 y_54_ * y_6_ + 1 y_54_ ^ 2 ] >= 2908.62
quadratic_ranged_188_lb: [ 1 x_7_ ^ 2 - 2 x_54_ * x_7_ + 1 x_54_ ^ 2 + 1 y_7_ ^ 2 - 2 y_54_ * y_7_ + 1 y_54_ ^ 2 ] >= 4191.66
quadratic_ranged_189_lb: [ 1 x_15_ ^ 2 - 2 x_54_ * x_15_ + 1 x_54_ ^ 2 + 1 y_15_ ^ 2 - 2 y_54_ * y_15_ + 1 y_54_ ^ 2 ] >= 6692.4
quadratic_ranged_190_lb: [ 1 x_21_ ^ 2 - 2 x_54_ * x_21_ + 1 x_54_ ^ 2 + 1 y_21_ ^ 2 - 2 y_54_ * y_21_ + 1 y_54_ ^ 2 ] >= 18597.15
quadratic_ranged_191_lb: [ 1 x_40_ ^ 2 - 2 x_54_ * x_40_ + 1 x_54_ ^ 2 + 1 y_40_ ^ 2 - 2 y_54_ * y_40_ + 1 y_54_ ^ 2 ] >= 11762.19
quadratic_ranged_192_lb: [ 1 x_41_ ^ 2 - 2 x_54_ * x_41_ + 1 x_54_ ^ 2 + 1 y_41_ ^ 2 - 2 y_54_ * y_41_ + 1 y_54_ ^ 2 ] >= 2663.1
quadratic_ranged_193_lb: [ 1 x_50_ ^ 2 - 2 x_54_ * x_50_ + 1 x_54_ ^ 2 + 1 y_50_ ^ 2 - 2 y_54_ * y_50_ + 1 y_54_ ^ 2 ] >= 5469.75
quadratic_ranged_194_lb: [ 1 x_53_ ^ 2 - 2 x_54_ * x_53_ + 1 x_54_ ^ 2 + 1 y_53_ ^ 2 - 2 y_54_ * y_53_ + 1 y_54_ ^ 2 ] >= 10954.35
quadratic_ranged_195_lb: [ 1 x_26_ ^ 2 - 2 x_55_ * x_26_ + 1 x_55_ ^ 2 + 1 y_26_ ^ 2 - 2 y_55_ * y_26_ + 1 y_55_ ^ 2 ] >= 1062.27
quadratic_ranged_196_lb: [ 1 x_30_ ^ 2 - 2 x_55_ * x_30_ + 1 x_55_ ^ 2 + 1 y_30_ ^ 2 - 2 y_55_ * y_30_ + 1 y_55_ ^ 2 ] >= 35110.35
quadratic_ranged_197_lb: [ 1 x_52_ ^ 2 - 2 x_55_ * x_52_ + 1 x_55_ ^ 2 + 1 y_52_ ^ 2 - 2 y_55_ * y_52_ + 1 y_55_ ^ 2 ] >= 37038.87
quadratic_ranged_198_lb: [ 1 x_54_ ^ 2 - 2 x_55_ * x_54_ + 1 x_55_ ^ 2 + 1 y_54_ ^ 2 - 2 y_55_ * y_54_ + 1 y_55_ ^ 2 ] >= 1112.76
quadratic_ranged_199_lb: [ 1 x_8_ ^ 2 - 2 x_56_ * x_8_ + 1 x_56_ ^ 2 + 1 y_8_ ^ 2 - 2 y_56_ * y_8_ + 1 y_56_ ^ 2 ] >= 18941.67
quadratic_ranged_200_lb: [ 1 x_38_ ^ 2 - 2 x_56_ * x_38_ + 1 x_56_ ^ 2 + 1 y_38_ ^ 2 - 2 y_56_ * y_38_ + 1 y_56_ ^ 2 ] >= 17127
quadratic_ranged_201_lb: [ 1 x_54_ ^ 2 - 2 x_56_ * x_54_ + 1 x_56_ ^ 2 + 1 y_54_ ^ 2 - 2 y_56_ * y_54_ + 1 y_56_ ^ 2 ] >= 24031.26
quadratic_ranged_202_lb: [ 1 x_55_ ^ 2 - 2 x_56_ * x_55_ + 1 x_56_ ^ 2 + 1 y_55_ ^ 2 - 2 y_56_ * y_55_ + 1 y_56_ ^ 2 ] >= 35459.82
quadratic_ranged_203_lb: [ 1 x_24_ ^ 2 - 2 x_57_ * x_24_ + 1 x_57_ ^ 2 + 1 y_24_ ^ 2 - 2 y_57_ * y_24_ + 1 y_57_ ^ 2 ] >= 2095.83
quadratic_ranged_204_lb: [ 1 x_26_ ^ 2 - 2 x_57_ * x_26_ + 1 x_57_ ^ 2 + 1 y_26_ ^ 2 - 2 y_57_ * y_26_ + 1 y_57_ ^ 2 ] >= 16161.75
quadratic_ranged_205_lb: [ 1 x_30_ ^ 2 - 2 x_57_ * x_30_ + 1 x_57_ ^ 2 + 1 y_30_ ^ 2 - 2 y_57_ * y_30_ + 1 y_57_ ^ 2 ] >= 4123.35
quadratic_ranged_206_lb: [ 1 x_40_ ^ 2 - 2 x_57_ * x_40_ + 1 x_57_ ^ 2 + 1 y_40_ ^ 2 - 2 y_57_ * y_40_ + 1 y_57_ ^ 2 ] >= 1133.55
quadratic_ranged_207_lb: [ 1 x_43_ ^ 2 - 2 x_57_ * x_43_ + 1 x_57_ ^ 2 + 1 y_43_ ^ 2 - 2 y_57_ * y_43_ + 1 y_57_ ^ 2 ] >= 2198.79
quadratic_ranged_208_lb: [ 1 x_56_ ^ 2 - 2 x_57_ * x_56_ + 1 x_57_ ^ 2 + 1 y_56_ ^ 2 - 2 y_57_ * y_56_ + 1 y_57_ ^ 2 ] >= 8983.26
quadratic_ranged_209_lb: [ 1 x_12_ ^ 2 - 2 x_58_ * x_12_ + 1 x_58_ ^ 2 + 1 y_12_ ^ 2 - 2 y_58_ * y_12_ + 1 y_58_ ^ 2 ] >= 13711.5
quadratic_ranged_210_lb: [ 1 x_20_ ^ 2 - 2 x_58_ * x_20_ + 1 x_58_ ^ 2 + 1 y_20_ ^ 2 - 2 y_58_ * y_20_ + 1 y_58_ ^ 2 ] >= 7085.43
quadratic_ranged_211_lb: [ 1 x_24_ ^ 2 - 2 x_58_ * x_24_ + 1 x_58_ ^ 2 + 1 y_24_ ^ 2 - 2 y_58_ * y_24_ + 1 y_58_ ^ 2 ] >= 35238.06
quadratic_ranged_212_lb: [ 1 x_34_ ^ 2 - 2 x_58_ * x_34_ + 1 x_58_ ^ 2 + 1 y_34_ ^ 2 - 2 y_58_ * y_34_ + 1 y_58_ ^ 2 ] >= 1153.35
quadratic_ranged_213_lb: [ 1 x_54_ ^ 2 - 2 x_58_ * x_54_ + 1 x_58_ ^ 2 + 1 y_54_ ^ 2 - 2 y_58_ * y_54_ + 1 y_58_ ^ 2 ] >= 16252.83
quadratic_ranged_214_lb: [ 1 x_56_ ^ 2 - 2 x_58_ * x_56_ + 1 x_58_ ^ 2 + 1 y_56_ ^ 2 - 2 y_58_ * y_56_ + 1 y_58_ ^ 2 ] >= 9382.23
quadratic_ranged_215_lb: [ 1 x_57_ ^ 2 - 2 x_58_ * x_57_ + 1 x_58_ ^ 2 + 1 y_57_ ^ 2 - 2 y_58_ * y_57_ + 1 y_58_ ^ 2 ] >= 20557.35
quadratic_ranged_216_lb: [ 1 x_12_ ^ 2 - 2 x_59_ * x_12_ + 1 x_59_ ^ 2 + 1 y_12_ ^ 2 - 2 y_59_ * y_12_ + 1 y_59_ ^ 2 ] >= 2449.2599999999998
quadratic_ranged_217_lb: [ 1 x_20_ ^ 2 - 2 x_59_ * x_20_ + 1 x_59_ ^ 2 + 1 y_20_ ^ 2 - 2 y_59_ * y_20_ + 1 y_59_ ^ 2 ] >= 33447.15
quadratic_ranged_218_lb: [ 1 x_58_ ^ 2 - 2 x_59_ * x_58_ + 1 x_59_ ^ 2 + 1 y_58_ ^ 2 - 2 y_59_ * y_58_ + 1 y_59_ ^ 2 ] >= 27696.239999999998
quadratic_ranged_219_lb: [ 1 x_12_ ^ 2 - 2 x_60_ * x_12_ + 1 x_60_ ^ 2 + 1 y_12_ ^ 2 - 2 y_60_ * y_12_ + 1 y_60_ ^ 2 ] >= 2187.9
quadratic_ranged_220_lb: [ 1 x_49_ ^ 2 - 2 x_60_ * x_49_ + 1 x_60_ ^ 2 + 1 y_49_ ^ 2 - 2 y_60_ * y_49_ + 1 y_60_ ^ 2 ] >= 60.39
quadratic_ranged_221_lb: [ 1 x_59_ ^ 2 - 2 x_60_ * x_59_ + 1 x_60_ ^ 2 + 1 y_59_ ^ 2 - 2 y_60_ * y_59_ + 1 y_60_ ^ 2 ] >= 7048.8
quadratic_ranged_222_lb: [ 1 x_20_ ^ 2 - 2 x_61_ * x_20_ + 1 x_61_ ^ 2 + 1 y_20_ ^ 2 - 2 y_61_ * y_20_ + 1 y_61_ ^ 2 ] >= 2861.1
quadratic_ranged_223_lb: [ 1 x_36_ ^ 2 - 2 x_61_ * x_36_ + 1 x_61_ ^ 2 + 1 y_36_ ^ 2 - 2 y_61_ * y_36_ + 1 y_61_ ^ 2 ] >= 17877.42
quadratic_ranged_224_lb: [ 1 x_46_ ^ 2 - 2 x_61_ * x_46_ + 1 x_61_ ^ 2 + 1 y_46_ ^ 2 - 2 y_61_ * y_46_ + 1 y_61_ ^ 2 ] >= 7271.55
quadratic_ranged_225_lb: [ 1 x_51_ ^ 2 - 2 x_61_ * x_51_ + 1 x_61_ ^ 2 + 1 y_51_ ^ 2 - 2 y_61_ * y_51_ + 1 y_61_ ^ 2 ] >= 3279.87
quadratic_ranged_226_lb: [ 1 x_56_ ^ 2 - 2 x_61_ * x_56_ + 1 x_61_ ^ 2 + 1 y_56_ ^ 2 - 2 y_61_ * y_56_ + 1 y_61_ ^ 2 ] >= 1999.8
quadratic_ranged_227_lb: [ 1 x_60_ ^ 2 - 2 x_61_ * x_60_ + 1 x_61_ ^ 2 + 1 y_60_ ^ 2 - 2 y_61_ * y_60_ + 1 y_61_ ^ 2 ] >= 3640.23
quadratic_ranged_228_lb: [ 1 x_1_ ^ 2 - 2 x_62_ * x_1_ + 1 x_62_ ^ 2 + 1 y_1_ ^ 2 - 2 y_62_ * y_1_ + 1 y_62_ ^ 2 ] >= 19249.56
quadratic_ranged_229_lb: [ 1 x_4_ ^ 2 - 2 x_62_ * x_4_ + 1 x_62_ ^ 2 + 1 y_4_ ^ 2 - 2 y_62_ * y_4_ + 1 y_62_ ^ 2 ] >= 2816.55
quadratic_ranged_230_lb: [ 1 x_18_ ^ 2 - 2 x_62_ * x_18_ + 1 x_62_ ^ 2 + 1 y_18_ ^ 2 - 2 y_62_ * y_18_ + 1 y_62_ ^ 2 ] >= 16325.1
quadratic_ranged_231_lb: [ 1 x_25_ ^ 2 - 2 x_62_ * x_25_ + 1 x_62_ ^ 2 + 1 y_25_ ^ 2 - 2 y_62_ * y_25_ + 1 y_62_ ^ 2 ] >= 5489.55
quadratic_ranged_232_lb: [ 1 x_35_ ^ 2 - 2 x_62_ * x_35_ + 1 x_62_ ^ 2 + 1 y_35_ ^ 2 - 2 y_62_ * y_35_ + 1 y_62_ ^ 2 ] >= 9870.3
quadratic_ranged_233_lb: [ 1 x_48_ ^ 2 - 2 x_62_ * x_48_ + 1 x_62_ ^ 2 + 1 y_48_ ^ 2 - 2 y_62_ * y_48_ + 1 y_62_ ^ 2 ] >= 643.5
quadratic_ranged_234_lb: [ 1 x_60_ ^ 2 - 2 x_62_ * x_60_ + 1 x_62_ ^ 2 + 1 y_60_ ^ 2 - 2 y_62_ * y_60_ + 1 y_62_ ^ 2 ] >= 3821.4
quadratic_ranged_235_lb: [ 1 x_61_ ^ 2 - 2 x_62_ * x_61_ + 1 x_62_ ^ 2 + 1 y_61_ ^ 2 - 2 y_62_ * y_61_ + 1 y_62_ ^ 2 ] >= 6210.2699999999995
quadratic_ranged_236_lb: [ 1 x_2_ ^ 2 - 2 x_63_ * x_2_ + 1 x_63_ ^ 2 + 1 y_2_ ^ 2 - 2 y_63_ * y_2_ + 1 y_63_ ^ 2 ] >= 14114.43
quadratic_ranged_237_lb: [ 1 x_6_ ^ 2 - 2 x_63_ * x_6_ + 1 x_63_ ^ 2 + 1 y_6_ ^ 2 - 2 y_63_ * y_6_ + 1 y_63_ ^ 2 ] >= 3747.15
quadratic_ranged_238_lb: [ 1 x_30_ ^ 2 - 2 x_63_ * x_30_ + 1 x_63_ ^ 2 + 1 y_30_ ^ 2 - 2 y_63_ * y_30_ + 1 y_63_ ^ 2 ] >= 30765.239999999998
quadratic_ranged_239_lb: [ 1 x_36_ ^ 2 - 2 x_63_ * x_36_ + 1 x_63_ ^ 2 + 1 y_36_ ^ 2 - 2 y_63_ * y_36_ + 1 y_63_ ^ 2 ] >= 15936.03
quadratic_ranged_240_lb: [ 1 x_44_ ^ 2 - 2 x_63_ * x_44_ + 1 x_63_ ^ 2 + 1 y_44_ ^ 2 - 2 y_63_ * y_44_ + 1 y_63_ ^ 2 ] >= 14780.7
quadratic_ranged_241_lb: [ 1 x_47_ ^ 2 - 2 x_63_ * x_47_ + 1 x_63_ ^ 2 + 1 y_47_ ^ 2 - 2 y_63_ * y_47_ + 1 y_63_ ^ 2 ] >= 6039.99
quadratic_ranged_242_lb: [ 1 x_52_ ^ 2 - 2 x_63_ * x_52_ + 1 x_63_ ^ 2 + 1 y_52_ ^ 2 - 2 y_63_ * y_52_ + 1 y_63_ ^ 2 ] >= 30652.38
quadratic_ranged_243_lb: [ 1 x_62_ ^ 2 - 2 x_63_ * x_62_ + 1 x_63_ ^ 2 + 1 y_62_ ^ 2 - 2 y_63_ * y_62_ + 1 y_63_ ^ 2 ] >= 10272.24
quadratic_ranged_244_lb: [ 1 x_37_ ^ 2 - 2 x_64_ * x_37_ + 1 x_64_ ^ 2 + 1 y_37_ ^ 2 - 2 y_64_ * y_37_ + 1 y_64_ ^ 2 ] >= 36869.58
quadratic_ranged_245_lb: [ 1 x_55_ ^ 2 - 2 x_64_ * x_55_ + 1 x_64_ ^ 2 + 1 y_55_ ^ 2 - 2 y_64_ * y_55_ + 1 y_64_ ^ 2 ] >= 5007.42
quadratic_ranged_246_lb: [ 1 x_63_ ^ 2 - 2 x_64_ * x_63_ + 1 x_64_ ^ 2 + 1 y_63_ ^ 2 - 2 y_64_ * y_63_ + 1 y_64_ ^ 2 ] >= 5137.11
quadratic_ranged_247_lb: [ 1 x_20_ ^ 2 - 2 x_65_ * x_20_ + 1 x_65_ ^ 2 + 1 y_20_ ^ 2 - 2 y_65_ * y_20_ + 1 y_65_ ^ 2 ] >= 15501.42
quadratic_ranged_248_lb: [ 1 x_24_ ^ 2 - 2 x_65_ * x_24_ + 1 x_65_ ^ 2 + 1 y_24_ ^ 2 - 2 y_65_ * y_24_ + 1 y_65_ ^ 2 ] >= 21816.63
quadratic_ranged_249_lb: [ 1 x_36_ ^ 2 - 2 x_65_ * x_36_ + 1 x_65_ ^ 2 + 1 y_36_ ^ 2 - 2 y_65_ * y_36_ + 1 y_65_ ^ 2 ] >= 4880.7
quadratic_ranged_250_lb: [ 1 x_37_ ^ 2 - 2 x_65_ * x_37_ + 1 x_65_ ^ 2 + 1 y_37_ ^ 2 - 2 y_65_ * y_37_ + 1 y_65_ ^ 2 ] >= 7494.3
quadratic_ranged_251_lb: [ 1 x_43_ ^ 2 - 2 x_65_ * x_43_ + 1 x_65_ ^ 2 + 1 y_43_ ^ 2 - 2 y_65_ * y_43_ + 1 y_65_ ^ 2 ] >= 10989.99
quadratic_ranged_252_lb: [ 1 x_55_ ^ 2 - 2 x_65_ * x_55_ + 1 x_65_ ^ 2 + 1 y_55_ ^ 2 - 2 y_65_ * y_55_ + 1 y_65_ ^ 2 ] >= 5403.42
quadratic_ranged_253_lb: [ 1 x_59_ ^ 2 - 2 x_65_ * x_59_ + 1 x_65_ ^ 2 + 1 y_59_ ^ 2 - 2 y_65_ * y_59_ + 1 y_65_ ^ 2 ] >= 7940.79
quadratic_ranged_254_lb: [ 1 x_64_ ^ 2 - 2 x_65_ * x_64_ + 1 x_65_ ^ 2 + 1 y_64_ ^ 2 - 2 y_65_ * y_64_ + 1 y_65_ ^ 2 ] >= 14450.039999999999
quadratic_ranged_255_lb: [ 1 x_35_ ^ 2 - 2 x_66_ * x_35_ + 1 x_66_ ^ 2 + 1 y_35_ ^ 2 - 2 y_66_ * y_35_ + 1 y_66_ ^ 2 ] >= 13801.59
quadratic_ranged_256_lb: [ 1 x_37_ ^ 2 - 2 x_66_ * x_37_ + 1 x_66_ ^ 2 + 1 y_37_ ^ 2 - 2 y_66_ * y_37_ + 1 y_66_ ^ 2 ] >= 9149.58
quadratic_ranged_257_lb: [ 1 x_57_ ^ 2 - 2 x_66_ * x_57_ + 1 x_66_ ^ 2 + 1 y_57_ ^ 2 - 2 y_66_ * y_57_ + 1 y_66_ ^ 2 ] >= 15018.3
quadratic_ranged_258_lb: [ 1 x_60_ ^ 2 - 2 x_66_ * x_60_ + 1 x_66_ ^ 2 + 1 y_60_ ^ 2 - 2 y_66_ * y_60_ + 1 y_66_ ^ 2 ] >= 6416.19
quadratic_ranged_259_lb: [ 1 x_63_ ^ 2 - 2 x_66_ * x_63_ + 1 x_66_ ^ 2 + 1 y_63_ ^ 2 - 2 y_66_ * y_63_ + 1 y_66_ ^ 2 ] >= 12379.95
quadratic_ranged_260_lb: [ 1 x_65_ ^ 2 - 2 x_66_ * x_65_ + 1 x_66_ ^ 2 + 1 y_65_ ^ 2 - 2 y_66_ * y_65_ + 1 y_66_ ^ 2 ] >= 2859.12
quadratic_ranged_261_lb: [ 1 x_7_ ^ 2 - 2 x_67_ * x_7_ + 1 x_67_ ^ 2 + 1 y_7_ ^ 2 - 2 y_67_ * y_7_ + 1 y_67_ ^ 2 ] >= 9624.78
quadratic_ranged_262_lb: [ 1 x_12_ ^ 2 - 2 x_67_ * x_12_ + 1 x_67_ ^ 2 + 1 y_12_ ^ 2 - 2 y_67_ * y_12_ + 1 y_67_ ^ 2 ] >= 2440.35
quadratic_ranged_263_lb: [ 1 x_24_ ^ 2 - 2 x_67_ * x_24_ + 1 x_67_ ^ 2 + 1 y_24_ ^ 2 - 2 y_67_ * y_24_ + 1 y_67_ ^ 2 ] >= 25364.79
quadratic_ranged_264_lb: [ 1 x_30_ ^ 2 - 2 x_67_ * x_30_ + 1 x_67_ ^ 2 + 1 y_30_ ^ 2 - 2 y_67_ * y_30_ + 1 y_67_ ^ 2 ] >= 39208.95
quadratic_ranged_265_lb: [ 1 x_33_ ^ 2 - 2 x_67_ * x_33_ + 1 x_67_ ^ 2 + 1 y_33_ ^ 2 - 2 y_67_ * y_33_ + 1 y_67_ ^ 2 ] >= 11763.18
quadratic_ranged_266_lb: [ 1 x_34_ ^ 2 - 2 x_67_ * x_34_ + 1 x_67_ ^ 2 + 1 y_34_ ^ 2 - 2 y_67_ * y_34_ + 1 y_67_ ^ 2 ] >= 22463.1
quadratic_ranged_267_lb: [ 1 x_42_ ^ 2 - 2 x_67_ * x_42_ + 1 x_67_ ^ 2 + 1 y_42_ ^ 2 - 2 y_67_ * y_42_ + 1 y_67_ ^ 2 ] >= 7779.42
quadratic_ranged_268_lb: [ 1 x_52_ ^ 2 - 2 x_67_ * x_52_ + 1 x_67_ ^ 2 + 1 y_52_ ^ 2 - 2 y_67_ * y_52_ + 1 y_67_ ^ 2 ] >= 34825.23
quadratic_ranged_269_lb: [ 1 x_56_ ^ 2 - 2 x_67_ * x_56_ + 1 x_67_ ^ 2 + 1 y_56_ ^ 2 - 2 y_67_ * y_56_ + 1 y_67_ ^ 2 ] >= 33725.34
quadratic_ranged_270_lb: [ 1 x_66_ ^ 2 - 2 x_67_ * x_66_ + 1 x_67_ ^ 2 + 1 y_66_ ^ 2 - 2 y_67_ * y_66_ + 1 y_67_ ^ 2 ] >= 12769.02
quadratic_ranged_271_lb: [ 1 x_21_ ^ 2 - 2 x_68_ * x_21_ + 1 x_68_ ^ 2 + 1 y_21_ ^ 2 - 2 y_68_ * y_21_ + 1 y_68_ ^ 2 ] >= 5311.35
quadratic_ranged_272_lb: [ 1 x_28_ ^ 2 - 2 x_68_ * x_28_ + 1 x_68_ ^ 2 + 1 y_28_ ^ 2 - 2 y_68_ * y_28_ + 1 y_68_ ^ 2 ] >= 12434.4
quadratic_ranged_273_lb: [ 1 x_34_ ^ 2 - 2 x_68_ * x_34_ + 1 x_68_ ^ 2 + 1 y_34_ ^ 2 - 2 y_68_ * y_34_ + 1 y_68_ ^ 2 ] >= 3835.2599999999998
quadratic_ranged_274_lb: [ 1 x_35_ ^ 2 - 2 x_68_ * x_35_ + 1 x_68_ ^ 2 + 1 y_35_ ^ 2 - 2 y_68_ * y_35_ + 1 y_68_ ^ 2 ] >= 7794.2699999999995
quadratic_ranged_275_lb: [ 1 x_36_ ^ 2 - 2 x_68_ * x_36_ + 1 x_68_ ^ 2 + 1 y_36_ ^ 2 - 2 y_68_ * y_36_ + 1 y_68_ ^ 2 ] >= 5056.92
quadratic_ranged_276_lb: [ 1 x_42_ ^ 2 - 2 x_68_ * x_42_ + 1 x_68_ ^ 2 + 1 y_42_ ^ 2 - 2 y_68_ * y_42_ + 1 y_68_ ^ 2 ] >= 366.3
quadratic_ranged_277_lb: [ 1 x_46_ ^ 2 - 2 x_68_ * x_46_ + 1 x_68_ ^ 2 + 1 y_46_ ^ 2 - 2 y_68_ * y_46_ + 1 y_68_ ^ 2 ] >= 13809.51
quadratic_ranged_278_lb: [ 1 x_49_ ^ 2 - 2 x_68_ * x_49_ + 1 x_68_ ^ 2 + 1 y_49_ ^ 2 - 2 y_68_ * y_49_ + 1 y_68_ ^ 2 ] >= 1465.2
quadratic_ranged_279_lb: [ 1 x_61_ ^ 2 - 2 x_68_ * x_61_ + 1 x_68_ ^ 2 + 1 y_61_ ^ 2 - 2 y_68_ * y_61_ + 1 y_68_ ^ 2 ] >= 5823.18
quadratic_ranged_280_lb: [ 1 x_65_ ^ 2 - 2 x_68_ * x_65_ + 1 x_68_ ^ 2 + 1 y_65_ ^ 2 - 2 y_68_ * y_65_ + 1 y_68_ ^ 2 ] >= 1213.74
quadratic_ranged_281_lb: [ 1 x_67_ ^ 2 - 2 x_68_ * x_67_ + 1 x_68_ ^ 2 + 1 y_67_ ^ 2 - 2 y_68_ * y_67_ + 1 y_68_ ^ 2 ] >= 8268.48
quadratic_ranged_282_lb: [ 1 x_8_ ^ 2 - 2 x_69_ * x_8_ + 1 x_69_ ^ 2 + 1 y_8_ ^ 2 - 2 y_69_ * y_8_ + 1 y_69_ ^ 2 ] >= 12691.8
quadratic_ranged_283_lb: [ 1 x_18_ ^ 2 - 2 x_69_ * x_18_ + 1 x_69_ ^ 2 + 1 y_18_ ^ 2 - 2 y_69_ * y_18_ + 1 y_69_ ^ 2 ] >= 28611
quadratic_ranged_284_lb: [ 1 x_23_ ^ 2 - 2 x_69_ * x_23_ + 1 x_69_ ^ 2 + 1 y_23_ ^ 2 - 2 y_69_ * y_23_ + 1 y_69_ ^ 2 ] >= 34468.83
quadratic_ranged_285_lb: [ 1 x_33_ ^ 2 - 2 x_69_ * x_33_ + 1 x_69_ ^ 2 + 1 y_33_ ^ 2 - 2 y_69_ * y_33_ + 1 y_69_ ^ 2 ] >= 5857.83
quadratic_ranged_286_lb: [ 1 x_37_ ^ 2 - 2 x_69_ * x_37_ + 1 x_69_ ^ 2 + 1 y_37_ ^ 2 - 2 y_69_ * y_37_ + 1 y_69_ ^ 2 ] >= 38706.03
quadratic_ranged_287_lb: [ 1 x_40_ ^ 2 - 2 x_69_ * x_40_ + 1 x_69_ ^ 2 + 1 y_40_ ^ 2 - 2 y_69_ * y_40_ + 1 y_69_ ^ 2 ] >= 10854.36
quadratic_ranged_288_lb: [ 1 x_62_ ^ 2 - 2 x_69_ * x_62_ + 1 x_69_ ^ 2 + 1 y_62_ ^ 2 - 2 y_69_ * y_62_ + 1 y_69_ ^ 2 ] >= 8032.86
quadratic_ranged_289_lb: [ 1 x_66_ ^ 2 - 2 x_69_ * x_66_ + 1 x_69_ ^ 2 + 1 y_66_ ^ 2 - 2 y_69_ * y_66_ + 1 y_69_ ^ 2 ] >= 10447.47
quadratic_ranged_290_lb: [ 1 x_68_ ^ 2 - 2 x_69_ * x_68_ + 1 x_69_ ^ 2 + 1 y_68_ ^ 2 - 2 y_69_ * y_68_ + 1 y_69_ ^ 2 ] >= 8451.63
quadratic_ranged_291_lb: [ 1 x_5_ ^ 2 - 2 x_70_ * x_5_ + 1 x_70_ ^ 2 + 1 y_5_ ^ 2 - 2 y_70_ * y_5_ + 1 y_70_ ^ 2 ] >= 1158.3
quadratic_ranged_292_lb: [ 1 x_17_ ^ 2 - 2 x_70_ * x_17_ + 1 x_70_ ^ 2 + 1 y_17_ ^ 2 - 2 y_70_ * y_17_ + 1 y_70_ ^ 2 ] >= 6615.18
quadratic_ranged_293_lb: [ 1 x_22_ ^ 2 - 2 x_70_ * x_22_ + 1 x_70_ ^ 2 + 1 y_22_ ^ 2 - 2 y_70_ * y_22_ + 1 y_70_ ^ 2 ] >= 4914.36
quadratic_ranged_294_lb: [ 1 x_32_ ^ 2 - 2 x_70_ * x_32_ + 1 x_70_ ^ 2 + 1 y_32_ ^ 2 - 2 y_70_ * y_32_ + 1 y_70_ ^ 2 ] >= 11698.83
quadratic_ranged_295_lb: [ 1 x_36_ ^ 2 - 2 x_70_ * x_36_ + 1 x_70_ ^ 2 + 1 y_36_ ^ 2 - 2 y_70_ * y_36_ + 1 y_70_ ^ 2 ] >= 13678.83
quadratic_ranged_296_lb: [ 1 x_63_ ^ 2 - 2 x_70_ * x_63_ + 1 x_70_ ^ 2 + 1 y_63_ ^ 2 - 2 y_70_ * y_63_ + 1 y_70_ ^ 2 ] >= 3938.22
quadratic_ranged_297_lb: [ 1 x_69_ ^ 2 - 2 x_70_ * x_69_ + 1 x_70_ ^ 2 + 1 y_69_ ^ 2 - 2 y_70_ * y_69_ + 1 y_70_ ^ 2 ] >= 9761.4
quadratic_ranged_298_lb: [ 1 x_5_ ^ 2 - 2 x_71_ * x_5_ + 1 x_71_ ^ 2 + 1 y_5_ ^ 2 - 2 y_71_ * y_5_ + 1 y_71_ ^ 2 ] >= 7628.94
quadratic_ranged_299_lb: [ 1 x_18_ ^ 2 - 2 x_71_ * x_18_ + 1 x_71_ ^ 2 + 1 y_18_ ^ 2 - 2 y_71_ * y_18_ + 1 y_71_ ^ 2 ] >= 19926.72
quadratic_ranged_300_lb: [ 1 x_22_ ^ 2 - 2 x_71_ * x_22_ + 1 x_71_ ^ 2 + 1 y_22_ ^ 2 - 2 y_71_ * y_22_ + 1 y_71_ ^ 2 ] >= 13863.96
quadratic_ranged_301_lb: [ 1 x_32_ ^ 2 - 2 x_71_ * x_32_ + 1 x_71_ ^ 2 + 1 y_32_ ^ 2 - 2 y_71_ * y_32_ + 1 y_71_ ^ 2 ] >= 31902.75
quadratic_ranged_302_lb: [ 1 x_50_ ^ 2 - 2 x_71_ * x_50_ + 1 x_71_ ^ 2 + 1 y_50_ ^ 2 - 2 y_71_ * y_50_ + 1 y_71_ ^ 2 ] >= 21740.4
quadratic_ranged_303_lb: [ 1 x_66_ ^ 2 - 2 x_71_ * x_66_ + 1 x_71_ ^ 2 + 1 y_66_ ^ 2 - 2 y_71_ * y_66_ + 1 y_71_ ^ 2 ] >= 955.35
quadratic_ranged_304_lb: [ 1 x_70_ ^ 2 - 2 x_71_ * x_70_ + 1 x_71_ ^ 2 + 1 y_70_ ^ 2 - 2 y_71_ * y_70_ + 1 y_71_ ^ 2 ] >= 5591.5199999999995
quadratic_ranged_305_lb: [ 1 x_7_ ^ 2 - 2 x_72_ * x_7_ + 1 x_72_ ^ 2 + 1 y_7_ ^ 2 - 2 y_72_ * y_7_ + 1 y_72_ ^ 2 ] >= 17619.03
quadratic_ranged_306_lb: [ 1 x_34_ ^ 2 - 2 x_72_ * x_34_ + 1 x_72_ ^ 2 + 1 y_34_ ^ 2 - 2 y_72_ * y_34_ + 1 y_72_ ^ 2 ] >= 6776.55
quadratic_ranged_307_lb: [ 1 x_46_ ^ 2 - 2 x_72_ * x_46_ + 1 x_72_ ^ 2 + 1 y_46_ ^ 2 - 2 y_72_ * y_46_ + 1 y_72_ ^ 2 ] >= 27185.4
quadratic_ranged_308_lb: [ 1 x_48_ ^ 2 - 2 x_72_ * x_48_ + 1 x_72_ ^ 2 + 1 y_48_ ^ 2 - 2 y_72_ * y_48_ + 1 y_72_ ^ 2 ] >= 586.08
quadratic_ranged_309_lb: [ 1 x_57_ ^ 2 - 2 x_72_ * x_57_ + 1 x_72_ ^ 2 + 1 y_57_ ^ 2 - 2 y_72_ * y_57_ + 1 y_72_ ^ 2 ] >= 20177.19
quadratic_ranged_310_lb: [ 1 x_68_ ^ 2 - 2 x_72_ * x_68_ + 1 x_72_ ^ 2 + 1 y_68_ ^ 2 - 2 y_72_ * y_68_ + 1 y_72_ ^ 2 ] >= 2650.23
quadratic_ranged_311_lb: [ 1 x_71_ ^ 2 - 2 x_72_ * x_71_ + 1 x_72_ ^ 2 + 1 y_71_ ^ 2 - 2 y_72_ * y_71_ + 1 y_72_ ^ 2 ] >= 4771.8
quadratic_ranged_312_lb: [ 1 x_1_ ^ 2 - 2 x_73_ * x_1_ + 1 x_73_ ^ 2 + 1 y_1_ ^ 2 - 2 y_73_ * y_1_ + 1 y_73_ ^ 2 ] >= 29502.989999999998
quadratic_ranged_313_lb: [ 1 x_8_ ^ 2 - 2 x_73_ * x_8_ + 1 x_73_ ^ 2 + 1 y_8_ ^ 2 - 2 y_73_ * y_8_ + 1 y_73_ ^ 2 ] >= 37545.75
quadratic_ranged_314_lb: [ 1 x_28_ ^ 2 - 2 x_73_ * x_28_ + 1 x_73_ ^ 2 + 1 y_28_ ^ 2 - 2 y_73_ * y_28_ + 1 y_73_ ^ 2 ] >= 23381.82
quadratic_ranged_315_lb: [ 1 x_31_ ^ 2 - 2 x_73_ * x_31_ + 1 x_73_ ^ 2 + 1 y_31_ ^ 2 - 2 y_73_ * y_31_ + 1 y_73_ ^ 2 ] >= 1581.03
quadratic_ranged_316_lb: [ 1 x_46_ ^ 2 - 2 x_73_ * x_46_ + 1 x_73_ ^ 2 + 1 y_46_ ^ 2 - 2 y_73_ * y_46_ + 1 y_73_ ^ 2 ] >= 30310.829999999998
quadratic_ranged_317_lb: [ 1 x_56_ ^ 2 - 2 x_73_ * x_56_ + 1 x_73_ ^ 2 + 1 y_56_ ^ 2 - 2 y_73_ * y_56_ + 1 y_73_ ^ 2 ] >= 28084.32
quadratic_ranged_318_lb: [ 1 x_58_ ^ 2 - 2 x_73_ * x_58_ + 1 x_73_ ^ 2 + 1 y_58_ ^ 2 - 2 y_73_ * y_58_ + 1 y_73_ ^ 2 ] >= 9239.67
quadratic_ranged_319_lb: [ 1 x_72_ ^ 2 - 2 x_73_ * x_72_ + 1 x_73_ ^ 2 + 1 y_72_ ^ 2 - 2 y_73_ * y_72_ + 1 y_73_ ^ 2 ] >= 1311.75
quadratic_ranged_320_lb: [ 1 x_3_ ^ 2 - 2 x_74_ * x_3_ + 1 x_74_ ^ 2 + 1 y_3_ ^ 2 - 2 y_74_ * y_3_ + 1 y_74_ ^ 2 ] >= 5659.83
quadratic_ranged_321_lb: [ 1 x_6_ ^ 2 - 2 x_74_ * x_6_ + 1 x_74_ ^ 2 + 1 y_6_ ^ 2 - 2 y_74_ * y_6_ + 1 y_74_ ^ 2 ] >= 13480.83
quadratic_ranged_322_lb: [ 1 x_10_ ^ 2 - 2 x_74_ * x_10_ + 1 x_74_ ^ 2 + 1 y_10_ ^ 2 - 2 y_74_ * y_10_ + 1 y_74_ ^ 2 ] >= 3751.11
quadratic_ranged_323_lb: [ 1 x_14_ ^ 2 - 2 x_74_ * x_14_ + 1 x_74_ ^ 2 + 1 y_14_ ^ 2 - 2 y_74_ * y_14_ + 1 y_74_ ^ 2 ] >= 10241.55
quadratic_ranged_324_lb: [ 1 x_20_ ^ 2 - 2 x_74_ * x_20_ + 1 x_74_ ^ 2 + 1 y_20_ ^ 2 - 2 y_74_ * y_20_ + 1 y_74_ ^ 2 ] >= 1969.11
quadratic_ranged_325_lb: [ 1 x_23_ ^ 2 - 2 x_74_ * x_23_ + 1 x_74_ ^ 2 + 1 y_23_ ^ 2 - 2 y_74_ * y_23_ + 1 y_74_ ^ 2 ] >= 25737.03
quadratic_ranged_326_lb: [ 1 x_38_ ^ 2 - 2 x_74_ * x_38_ + 1 x_74_ ^ 2 + 1 y_38_ ^ 2 - 2 y_74_ * y_38_ + 1 y_74_ ^ 2 ] >= 12265.11
quadratic_ranged_327_lb: [ 1 x_53_ ^ 2 - 2 x_74_ * x_53_ + 1 x_74_ ^ 2 + 1 y_53_ ^ 2 - 2 y_74_ * y_53_ + 1 y_74_ ^ 2 ] >= 26019.18
quadratic_ranged_328_lb: [ 1 x_56_ ^ 2 - 2 x_74_ * x_56_ + 1 x_74_ ^ 2 + 1 y_56_ ^ 2 - 2 y_74_ * y_56_ + 1 y_74_ ^ 2 ] >= 1751.31
quadratic_ranged_329_lb: [ 1 x_62_ ^ 2 - 2 x_74_ * x_62_ + 1 x_74_ ^ 2 + 1 y_62_ ^ 2 - 2 y_74_ * y_62_ + 1 y_74_ ^ 2 ] >= 3366
quadratic_ranged_330_lb: [ 1 x_73_ ^ 2 - 2 x_74_ * x_73_ + 1 x_74_ ^ 2 + 1 y_73_ ^ 2 - 2 y_74_ * y_73_ + 1 y_74_ ^ 2 ] >= 18003.15
quadratic_ranged_331_lb: [ 1 x_21_ ^ 2 - 2 x_75_ * x_21_ + 1 x_75_ ^ 2 + 1 y_21_ ^ 2 - 2 y_75_ * y_21_ + 1 y_75_ ^ 2 ] >= 10340.55
quadratic_ranged_332_lb: [ 1 x_36_ ^ 2 - 2 x_75_ * x_36_ + 1 x_75_ ^ 2 + 1 y_36_ ^ 2 - 2 y_75_ * y_36_ + 1 y_75_ ^ 2 ] >= 5076.72
quadratic_ranged_333_lb: [ 1 x_42_ ^ 2 - 2 x_75_ * x_42_ + 1 x_75_ ^ 2 + 1 y_42_ ^ 2 - 2 y_75_ * y_42_ + 1 y_75_ ^ 2 ] >= 5276.7
quadratic_ranged_334_lb: [ 1 x_43_ ^ 2 - 2 x_75_ * x_43_ + 1 x_75_ ^ 2 + 1 y_43_ ^ 2 - 2 y_75_ * y_43_ + 1 y_75_ ^ 2 ] >= 18395.19
quadratic_ranged_335_lb: [ 1 x_59_ ^ 2 - 2 x_75_ * x_59_ + 1 x_75_ ^ 2 + 1 y_59_ ^ 2 - 2 y_75_ * y_59_ + 1 y_75_ ^ 2 ] >= 9330.75
quadratic_ranged_336_lb: [ 1 x_66_ ^ 2 - 2 x_75_ * x_66_ + 1 x_75_ ^ 2 + 1 y_66_ ^ 2 - 2 y_75_ * y_66_ + 1 y_75_ ^ 2 ] >= 5165.82
quadratic_ranged_337_lb: [ 1 x_74_ ^ 2 - 2 x_75_ * x_74_ + 1 x_75_ ^ 2 + 1 y_74_ ^ 2 - 2 y_75_ * y_74_ + 1 y_75_ ^ 2 ] >= 15171.75
quadratic_ranged_338_lb: [ 1 x_6_ ^ 2 - 2 x_76_ * x_6_ + 1 x_76_ ^ 2 + 1 y_6_ ^ 2 - 2 y_76_ * y_6_ + 1 y_76_ ^ 2 ] >= 1079.1
quadratic_ranged_339_lb: [ 1 x_17_ ^ 2 - 2 x_76_ * x_17_ + 1 x_76_ ^ 2 + 1 y_17_ ^ 2 - 2 y_76_ * y_17_ + 1 y_76_ ^ 2 ] >= 13488.75
quadratic_ranged_340_lb: [ 1 x_33_ ^ 2 - 2 x_76_ * x_33_ + 1 x_76_ ^ 2 + 1 y_33_ ^ 2 - 2 y_76_ * y_33_ + 1 y_76_ ^ 2 ] >= 16404.3
quadratic_ranged_341_lb: [ 1 x_35_ ^ 2 - 2 x_76_ * x_35_ + 1 x_76_ ^ 2 + 1 y_35_ ^ 2 - 2 y_76_ * y_35_ + 1 y_76_ ^ 2 ] >= 6570.63
quadratic_ranged_342_lb: [ 1 x_40_ ^ 2 - 2 x_76_ * x_40_ + 1 x_76_ ^ 2 + 1 y_40_ ^ 2 - 2 y_76_ * y_40_ + 1 y_76_ ^ 2 ] >= 2198.79
quadratic_ranged_343_lb: [ 1 x_44_ ^ 2 - 2 x_76_ * x_44_ + 1 x_76_ ^ 2 + 1 y_44_ ^ 2 - 2 y_76_ * y_44_ + 1 y_76_ ^ 2 ] >= 42673.95
quadratic_ranged_344_lb: [ 1 x_49_ ^ 2 - 2 x_76_ * x_49_ + 1 x_76_ ^ 2 + 1 y_49_ ^ 2 - 2 y_76_ * y_49_ + 1 y_76_ ^ 2 ] >= 7084.44
quadratic_ranged_345_lb: [ 1 x_70_ ^ 2 - 2 x_76_ * x_70_ + 1 x_76_ ^ 2 + 1 y_70_ ^ 2 - 2 y_76_ * y_70_ + 1 y_76_ ^ 2 ] >= 5422.23
quadratic_ranged_346_lb: [ 1 x_75_ ^ 2 - 2 x_76_ * x_75_ + 1 x_76_ ^ 2 + 1 y_75_ ^ 2 - 2 y_76_ * y_75_ + 1 y_76_ ^ 2 ] >= 20813.76
quadratic_ranged_347_lb: [ 1 x_8_ ^ 2 - 2 x_77_ * x_8_ + 1 x_77_ ^ 2 + 1 y_8_ ^ 2 - 2 y_77_ * y_8_ + 1 y_77_ ^ 2 ] >= 5196.51
quadratic_ranged_348_lb: [ 1 x_9_ ^ 2 - 2 x_77_ * x_9_ + 1 x_77_ ^ 2 + 1 y_9_ ^ 2 - 2 y_77_ * y_9_ + 1 y_77_ ^ 2 ] >= 183.15
quadratic_ranged_349_lb: [ 1 x_18_ ^ 2 - 2 x_77_ * x_18_ + 1 x_77_ ^ 2 + 1 y_18_ ^ 2 - 2 y_77_ * y_18_ + 1 y_77_ ^ 2 ] >= 2796.75
quadratic_ranged_350_lb: [ 1 x_29_ ^ 2 - 2 x_77_ * x_29_ + 1 x_77_ ^ 2 + 1 y_29_ ^ 2 - 2 y_77_ * y_29_ + 1 y_77_ ^ 2 ] >= 7330.95
quadratic_ranged_351_lb: [ 1 x_40_ ^ 2 - 2 x_77_ * x_40_ + 1 x_77_ ^ 2 + 1 y_40_ ^ 2 - 2 y_77_ * y_40_ + 1 y_77_ ^ 2 ] >= 2757.15
quadratic_ranged_352_lb: [ 1 x_49_ ^ 2 - 2 x_77_ * x_49_ + 1 x_77_ ^ 2 + 1 y_49_ ^ 2 - 2 y_77_ * y_49_ + 1 y_77_ ^ 2 ] >= 3969.9
quadratic_ranged_353_lb: [ 1 x_54_ ^ 2 - 2 x_77_ * x_54_ + 1 x_77_ ^ 2 + 1 y_54_ ^ 2 - 2 y_77_ * y_54_ + 1 y_77_ ^ 2 ] >= 4080.7799999999997
quadratic_ranged_354_lb: [ 1 x_68_ ^ 2 - 2 x_77_ * x_68_ + 1 x_77_ ^ 2 + 1 y_68_ ^ 2 - 2 y_77_ * y_68_ + 1 y_77_ ^ 2 ] >= 9822.78
quadratic_ranged_355_lb: [ 1 x_76_ ^ 2 - 2 x_77_ * x_76_ + 1 x_77_ ^ 2 + 1 y_76_ ^ 2 - 2 y_77_ * y_76_ + 1 y_77_ ^ 2 ] >= 572.22
quadratic_ranged_356_lb: [ 1 x_13_ ^ 2 - 2 x_78_ * x_13_ + 1 x_78_ ^ 2 + 1 y_13_ ^ 2 - 2 y_78_ * y_13_ + 1 y_78_ ^ 2 ] >= 1608.75
quadratic_ranged_357_lb: [ 1 x_16_ ^ 2 - 2 x_78_ * x_16_ + 1 x_78_ ^ 2 + 1 y_16_ ^ 2 - 2 y_78_ * y_16_ + 1 y_78_ ^ 2 ] >= 3472.92
quadratic_ranged_358_lb: [ 1 x_37_ ^ 2 - 2 x_78_ * x_37_ + 1 x_78_ ^ 2 + 1 y_37_ ^ 2 - 2 y_78_ * y_37_ + 1 y_78_ ^ 2 ] >= 36203.31
quadratic_ranged_359_lb: [ 1 x_44_ ^ 2 - 2 x_78_ * x_44_ + 1 x_78_ ^ 2 + 1 y_44_ ^ 2 - 2 y_78_ * y_44_ + 1 y_78_ ^ 2 ] >= 35887.5
quadratic_ranged_360_lb: [ 1 x_45_ ^ 2 - 2 x_78_ * x_45_ + 1 x_78_ ^ 2 + 1 y_45_ ^ 2 - 2 y_78_ * y_45_ + 1 y_78_ ^ 2 ] >= 1370.16
quadratic_ranged_361_lb: [ 1 x_52_ ^ 2 - 2 x_78_ * x_52_ + 1 x_78_ ^ 2 + 1 y_52_ ^ 2 - 2 y_78_ * y_52_ + 1 y_78_ ^ 2 ] >= 19912.86
quadratic_ranged_362_lb: [ 1 x_58_ ^ 2 - 2 x_78_ * x_58_ + 1 x_78_ ^ 2 + 1 y_58_ ^ 2 - 2 y_78_ * y_58_ + 1 y_78_ ^ 2 ] >= 24718.32
quadratic_ranged_363_lb: [ 1 x_77_ ^ 2 - 2 x_78_ * x_77_ + 1 x_78_ ^ 2 + 1 y_77_ ^ 2 - 2 y_78_ * y_77_ + 1 y_78_ ^ 2 ] >= 539.55
quadratic_ranged_364_lb: [ 1 x_15_ ^ 2 - 2 x_79_ * x_15_ + 1 x_79_ ^ 2 + 1 y_15_ ^ 2 - 2 y_79_ * y_15_ + 1 y_79_ ^ 2 ] >= 8118
quadratic_ranged_365_lb: [ 1 x_16_ ^ 2 - 2 x_79_ * x_16_ + 1 x_79_ ^ 2 + 1 y_16_ ^ 2 - 2 y_79_ * y_16_ + 1 y_79_ ^ 2 ] >= 17559.63
quadratic_ranged_366_lb: [ 1 x_17_ ^ 2 - 2 x_79_ * x_17_ + 1 x_79_ ^ 2 + 1 y_17_ ^ 2 - 2 y_79_ * y_17_ + 1 y_79_ ^ 2 ] >= 35050.95
quadratic_ranged_367_lb: [ 1 x_18_ ^ 2 - 2 x_79_ * x_18_ + 1 x_79_ ^ 2 + 1 y_18_ ^ 2 - 2 y_79_ * y_18_ + 1 y_79_ ^ 2 ] >= 36821.07
quadratic_ranged_368_lb: [ 1 x_20_ ^ 2 - 2 x_79_ * x_20_ + 1 x_79_ ^ 2 + 1 y_20_ ^ 2 - 2 y_79_ * y_20_ + 1 y_79_ ^ 2 ] >= 39.6
quadratic_ranged_369_lb: [ 1 x_34_ ^ 2 - 2 x_79_ * x_34_ + 1 x_79_ ^ 2 + 1 y_34_ ^ 2 - 2 y_79_ * y_34_ + 1 y_79_ ^ 2 ] >= 3011.58
quadratic_ranged_370_lb: [ 1 x_42_ ^ 2 - 2 x_79_ * x_42_ + 1 x_79_ ^ 2 + 1 y_42_ ^ 2 - 2 y_79_ * y_42_ + 1 y_79_ ^ 2 ] >= 10028.7
quadratic_ranged_371_lb: [ 1 x_47_ ^ 2 - 2 x_79_ * x_47_ + 1 x_79_ ^ 2 + 1 y_47_ ^ 2 - 2 y_79_ * y_47_ + 1 y_79_ ^ 2 ] >= 40021.74
quadratic_ranged_372_lb: [ 1 x_64_ ^ 2 - 2 x_79_ * x_64_ + 1 x_79_ ^ 2 + 1 y_64_ ^ 2 - 2 y_79_ * y_64_ + 1 y_79_ ^ 2 ] >= 41059.26
quadratic_ranged_373_lb: [ 1 x_65_ ^ 2 - 2 x_79_ * x_65_ + 1 x_79_ ^ 2 + 1 y_65_ ^ 2 - 2 y_79_ * y_65_ + 1 y_79_ ^ 2 ] >= 17093.34
quadratic_ranged_374_lb: [ 1 x_67_ ^ 2 - 2 x_79_ * x_67_ + 1 x_79_ ^ 2 + 1 y_67_ ^ 2 - 2 y_79_ * y_67_ + 1 y_79_ ^ 2 ] >= 34931.159999999996
quadratic_ranged_375_lb: [ 1 x_71_ ^ 2 - 2 x_79_ * x_71_ + 1 x_79_ ^ 2 + 1 y_71_ ^ 2 - 2 y_79_ * y_71_ + 1 y_79_ ^ 2 ] >= 4198.59
quadratic_ranged_376_lb: [ 1 x_78_ ^ 2 - 2 x_79_ * x_78_ + 1 x_79_ ^ 2 + 1 y_78_ ^ 2 - 2 y_79_ * y_78_ + 1 y_79_ ^ 2 ] >= 20676.15
quadratic_ranged_377_lb: [ 1 x_6_ ^ 2 - 2 x_80_ * x_6_ + 1 x_80_ ^ 2 + 1 y_6_ ^ 2 - 2 y_80_ * y_6_ + 1 y_80_ ^ 2 ] >= 13619.43
quadratic_ranged_378_lb: [ 1 x_18_ ^ 2 - 2 x_80_ * x_18_ + 1 x_80_ ^ 2 + 1 y_18_ ^ 2 - 2 y_80_ * y_18_ + 1 y_80_ ^ 2 ] >= 19851.48
quadratic_ranged_379_lb: [ 1 x_42_ ^ 2 - 2 x_80_ * x_42_ + 1 x_80_ ^ 2 + 1 y_42_ ^ 2 - 2 y_80_ * y_42_ + 1 y_80_ ^ 2 ] >= 2503.71
quadratic_ranged_380_lb: [ 1 x_51_ ^ 2 - 2 x_80_ * x_51_ + 1 x_80_ ^ 2 + 1 y_51_ ^ 2 - 2 y_80_ * y_51_ + 1 y_80_ ^ 2 ] >= 1156.32
quadratic_ranged_381_lb: [ 1 x_52_ ^ 2 - 2 x_80_ * x_52_ + 1 x_80_ ^ 2 + 1 y_52_ ^ 2 - 2 y_80_ * y_52_ + 1 y_80_ ^ 2 ] >= 2486.88
quadratic_ranged_382_lb: [ 1 x_60_ ^ 2 - 2 x_80_ * x_60_ + 1 x_80_ ^ 2 + 1 y_60_ ^ 2 - 2 y_80_ * y_60_ + 1 y_80_ ^ 2 ] >= 3011.58
quadratic_ranged_383_lb: [ 1 x_75_ ^ 2 - 2 x_80_ * x_75_ + 1 x_80_ ^ 2 + 1 y_75_ ^ 2 - 2 y_80_ * y_75_ + 1 y_80_ ^ 2 ] >= 13286.789999999999
quadratic_ranged_384_lb: [ 1 x_79_ ^ 2 - 2 x_80_ * x_79_ + 1 x_80_ ^ 2 + 1 y_79_ ^ 2 - 2 y_80_ * y_79_ + 1 y_80_ ^ 2 ] >= 2606.67
quadratic_ranged_385_lb: [ 1 x_12_ ^ 2 - 2 x_81_ * x_12_ + 1 x_81_ ^ 2 + 1 y_12_ ^ 2 - 2 y_81_ * y_12_ + 1 y_81_ ^ 2 ] >= 7216.11
quadratic_ranged_386_lb: [ 1 x_21_ ^ 2 - 2 x_81_ * x_21_ + 1 x_81_ ^ 2 + 1 y_21_ ^ 2 - 2 y_81_ * y_21_ + 1 y_81_ ^ 2 ] >= 4574.79
quadratic_ranged_387_lb: [ 1 x_27_ ^ 2 - 2 x_81_ * x_27_ + 1 x_81_ ^ 2 + 1 y_27_ ^ 2 - 2 y_81_ * y_27_ + 1 y_81_ ^ 2 ] >= 4182.75
quadratic_ranged_388_lb: [ 1 x_44_ ^ 2 - 2 x_81_ * x_44_ + 1 x_81_ ^ 2 + 1 y_44_ ^ 2 - 2 y_81_ * y_44_ + 1 y_81_ ^ 2 ] >= 2416.59
quadratic_ranged_389_lb: [ 1 x_53_ ^ 2 - 2 x_81_ * x_53_ + 1 x_81_ ^ 2 + 1 y_53_ ^ 2 - 2 y_81_ * y_53_ + 1 y_81_ ^ 2 ] >= 2523.5099999999998
quadratic_ranged_390_lb: [ 1 x_62_ ^ 2 - 2 x_81_ * x_62_ + 1 x_81_ ^ 2 + 1 y_62_ ^ 2 - 2 y_81_ * y_62_ + 1 y_81_ ^ 2 ] >= 3054.15
quadratic_ranged_391_lb: [ 1 x_72_ ^ 2 - 2 x_81_ * x_72_ + 1 x_81_ ^ 2 + 1 y_72_ ^ 2 - 2 y_81_ * y_72_ + 1 y_81_ ^ 2 ] >= 64.35
quadratic_ranged_392_lb: [ 1 x_80_ ^ 2 - 2 x_81_ * x_80_ + 1 x_81_ ^ 2 + 1 y_80_ ^ 2 - 2 y_81_ * y_80_ + 1 y_81_ ^ 2 ] >= 10752.39
quadratic_ranged_393_lb: [ 1 x_11_ ^ 2 - 2 x_82_ * x_11_ + 1 x_82_ ^ 2 + 1 y_11_ ^ 2 - 2 y_82_ * y_11_ + 1 y_82_ ^ 2 ] >= 24176.79
quadratic_ranged_394_lb: [ 1 x_12_ ^ 2 - 2 x_82_ * x_12_ + 1 x_82_ ^ 2 + 1 y_12_ ^ 2 - 2 y_82_ * y_12_ + 1 y_82_ ^ 2 ] >= 9504.99
quadratic_ranged_395_lb: [ 1 x_34_ ^ 2 - 2 x_82_ * x_34_ + 1 x_82_ ^ 2 + 1 y_34_ ^ 2 - 2 y_82_ * y_34_ + 1 y_82_ ^ 2 ] >= 2922.48
quadratic_ranged_396_lb: [ 1 x_47_ ^ 2 - 2 x_82_ * x_47_ + 1 x_82_ ^ 2 + 1 y_47_ ^ 2 - 2 y_82_ * y_47_ + 1 y_82_ ^ 2 ] >= 31557.239999999998
quadratic_ranged_397_lb: [ 1 x_55_ ^ 2 - 2 x_82_ * x_55_ + 1 x_82_ ^ 2 + 1 y_55_ ^ 2 - 2 y_82_ * y_55_ + 1 y_82_ ^ 2 ] >= 16752.78
quadratic_ranged_398_lb: [ 1 x_81_ ^ 2 - 2 x_82_ * x_81_ + 1 x_82_ ^ 2 + 1 y_81_ ^ 2 - 2 y_82_ * y_81_ + 1 y_82_ ^ 2 ] >= 1112.76
quadratic_ranged_399_lb: [ 1 x_4_ ^ 2 - 2 x_83_ * x_4_ + 1 x_83_ ^ 2 + 1 y_4_ ^ 2 - 2 y_83_ * y_4_ + 1 y_83_ ^ 2 ] >= 19781.19
quadratic_ranged_400_lb: [ 1 x_18_ ^ 2 - 2 x_83_ * x_18_ + 1 x_83_ ^ 2 + 1 y_18_ ^ 2 - 2 y_83_ * y_18_ + 1 y_83_ ^ 2 ] >= 5132.16
quadratic_ranged_401_lb: [ 1 x_29_ ^ 2 - 2 x_83_ * x_29_ + 1 x_83_ ^ 2 + 1 y_29_ ^ 2 - 2 y_83_ * y_29_ + 1 y_83_ ^ 2 ] >= 4249.08
quadratic_ranged_402_lb: [ 1 x_32_ ^ 2 - 2 x_83_ * x_32_ + 1 x_83_ ^ 2 + 1 y_32_ ^ 2 - 2 y_83_ * y_32_ + 1 y_83_ ^ 2 ] >= 9956.43
quadratic_ranged_403_lb: [ 1 x_45_ ^ 2 - 2 x_83_ * x_45_ + 1 x_83_ ^ 2 + 1 y_45_ ^ 2 - 2 y_83_ * y_45_ + 1 y_83_ ^ 2 ] >= 1974.06
quadratic_ranged_404_lb: [ 1 x_53_ ^ 2 - 2 x_83_ * x_53_ + 1 x_83_ ^ 2 + 1 y_53_ ^ 2 - 2 y_83_ * y_53_ + 1 y_83_ ^ 2 ] >= 28611
quadratic_ranged_405_lb: [ 1 x_75_ ^ 2 - 2 x_83_ * x_75_ + 1 x_83_ ^ 2 + 1 y_75_ ^ 2 - 2 y_83_ * y_75_ + 1 y_83_ ^ 2 ] >= 14783.67
quadratic_ranged_406_lb: [ 1 x_82_ ^ 2 - 2 x_83_ * x_82_ + 1 x_83_ ^ 2 + 1 y_82_ ^ 2 - 2 y_83_ * y_82_ + 1 y_83_ ^ 2 ] >= 19523.79
quadratic_ranged_407_lb: [ 1 x_9_ ^ 2 - 2 x_84_ * x_9_ + 1 x_84_ ^ 2 + 1 y_9_ ^ 2 - 2 y_84_ * y_9_ + 1 y_84_ ^ 2 ] >= 12676.95
quadratic_ranged_408_lb: [ 1 x_28_ ^ 2 - 2 x_84_ * x_28_ + 1 x_84_ ^ 2 + 1 y_28_ ^ 2 - 2 y_84_ * y_28_ + 1 y_84_ ^ 2 ] >= 17570.52
quadratic_ranged_409_lb: [ 1 x_35_ ^ 2 - 2 x_84_ * x_35_ + 1 x_84_ ^ 2 + 1 y_35_ ^ 2 - 2 y_84_ * y_35_ + 1 y_84_ ^ 2 ] >= 8879.31
quadratic_ranged_410_lb: [ 1 x_42_ ^ 2 - 2 x_84_ * x_42_ + 1 x_84_ ^ 2 + 1 y_42_ ^ 2 - 2 y_84_ * y_42_ + 1 y_84_ ^ 2 ] >= 1863.18
quadratic_ranged_411_lb: [ 1 x_43_ ^ 2 - 2 x_84_ * x_43_ + 1 x_84_ ^ 2 + 1 y_43_ ^ 2 - 2 y_84_ * y_43_ + 1 y_84_ ^ 2 ] >= 4491.63
quadratic_ranged_412_lb: [ 1 x_44_ ^ 2 - 2 x_84_ * x_44_ + 1 x_84_ ^ 2 + 1 y_44_ ^ 2 - 2 y_84_ * y_44_ + 1 y_84_ ^ 2 ] >= 13389.75
quadratic_ranged_413_lb: [ 1 x_47_ ^ 2 - 2 x_84_ * x_47_ + 1 x_84_ ^ 2 + 1 y_47_ ^ 2 - 2 y_84_ * y_47_ + 1 y_84_ ^ 2 ] >= 24744.06
quadratic_ranged_414_lb: [ 1 x_58_ ^ 2 - 2 x_84_ * x_58_ + 1 x_84_ ^ 2 + 1 y_58_ ^ 2 - 2 y_84_ * y_58_ + 1 y_84_ ^ 2 ] >= 1893.87
quadratic_ranged_415_lb: [ 1 x_62_ ^ 2 - 2 x_84_ * x_62_ + 1 x_84_ ^ 2 + 1 y_62_ ^ 2 - 2 y_84_ * y_62_ + 1 y_84_ ^ 2 ] >= 195.03
quadratic_ranged_416_lb: [ 1 x_68_ ^ 2 - 2 x_84_ * x_68_ + 1 x_84_ ^ 2 + 1 y_68_ ^ 2 - 2 y_84_ * y_68_ + 1 y_84_ ^ 2 ] >= 875.16
quadratic_ranged_417_lb: [ 1 x_76_ ^ 2 - 2 x_84_ * x_76_ + 1 x_84_ ^ 2 + 1 y_76_ ^ 2 - 2 y_84_ * y_76_ + 1 y_84_ ^ 2 ] >= 20631.6
quadratic_ranged_418_lb: [ 1 x_83_ ^ 2 - 2 x_84_ * x_83_ + 1 x_84_ ^ 2 + 1 y_83_ ^ 2 - 2 y_84_ * y_83_ + 1 y_84_ ^ 2 ] >= 11714.67
quadratic_ranged_419_lb: [ 1 x_4_ ^ 2 - 2 x_85_ * x_4_ + 1 x_85_ ^ 2 + 1 y_4_ ^ 2 - 2 y_85_ * y_4_ + 1 y_85_ ^ 2 ] >= 28097.19
quadratic_ranged_420_lb: [ 1 x_7_ ^ 2 - 2 x_85_ * x_7_ + 1 x_85_ ^ 2 + 1 y_7_ ^ 2 - 2 y_85_ * y_7_ + 1 y_85_ ^ 2 ] >= 242.55
quadratic_ranged_421_lb: [ 1 x_9_ ^ 2 - 2 x_85_ * x_9_ + 1 x_85_ ^ 2 + 1 y_9_ ^ 2 - 2 y_85_ * y_9_ + 1 y_85_ ^ 2 ] >= 463.32
quadratic_ranged_422_lb: [ 1 x_12_ ^ 2 - 2 x_85_ * x_12_ + 1 x_85_ ^ 2 + 1 y_12_ ^ 2 - 2 y_85_ * y_12_ + 1 y_85_ ^ 2 ] >= 4706.46
quadratic_ranged_423_lb: [ 1 x_26_ ^ 2 - 2 x_85_ * x_26_ + 1 x_85_ ^ 2 + 1 y_26_ ^ 2 - 2 y_85_ * y_26_ + 1 y_85_ ^ 2 ] >= 4286.7
quadratic_ranged_424_lb: [ 1 x_41_ ^ 2 - 2 x_85_ * x_41_ + 1 x_85_ ^ 2 + 1 y_41_ ^ 2 - 2 y_85_ * y_41_ + 1 y_85_ ^ 2 ] >= 3137.31
quadratic_ranged_425_lb: [ 1 x_62_ ^ 2 - 2 x_85_ * x_62_ + 1 x_85_ ^ 2 + 1 y_62_ ^ 2 - 2 y_85_ * y_62_ + 1 y_85_ ^ 2 ] >= 16616.16
quadratic_ranged_426_lb: [ 1 x_65_ ^ 2 - 2 x_85_ * x_65_ + 1 x_85_ ^ 2 + 1 y_65_ ^ 2 - 2 y_85_ * y_65_ + 1 y_85_ ^ 2 ] >= 12071.07
quadratic_ranged_427_lb: [ 1 x_71_ ^ 2 - 2 x_85_ * x_71_ + 1 x_85_ ^ 2 + 1 y_71_ ^ 2 - 2 y_85_ * y_71_ + 1 y_85_ ^ 2 ] >= 18138.78
quadratic_ranged_428_lb: [ 1 x_74_ ^ 2 - 2 x_85_ * x_74_ + 1 x_85_ ^ 2 + 1 y_74_ ^ 2 - 2 y_85_ * y_74_ + 1 y_85_ ^ 2 ] >= 14358.96
quadratic_ranged_429_lb: [ 1 x_78_ ^ 2 - 2 x_85_ * x_78_ + 1 x_85_ ^ 2 + 1 y_78_ ^ 2 - 2 y_85_ * y_78_ + 1 y_85_ ^ 2 ] >= 764.28
quadratic_ranged_430_lb: [ 1 x_84_ ^ 2 - 2 x_85_ * x_84_ + 1 x_85_ ^ 2 + 1 y_84_ ^ 2 - 2 y_85_ * y_84_ + 1 y_85_ ^ 2 ] >= 17619.03
quadratic_ranged_431_lb: [ 1 x_1_ ^ 2 - 2 x_86_ * x_1_ + 1 x_86_ ^ 2 + 1 y_1_ ^ 2 - 2 y_86_ * y_1_ + 1 y_86_ ^ 2 ] >= 6862.68
quadratic_ranged_432_lb: [ 1 x_31_ ^ 2 - 2 x_86_ * x_31_ + 1 x_86_ ^ 2 + 1 y_31_ ^ 2 - 2 y_86_ * y_31_ + 1 y_86_ ^ 2 ] >= 2908.62
quadratic_ranged_433_lb: [ 1 x_35_ ^ 2 - 2 x_86_ * x_35_ + 1 x_86_ ^ 2 + 1 y_35_ ^ 2 - 2 y_86_ * y_35_ + 1 y_86_ ^ 2 ] >= 4548.06
quadratic_ranged_434_lb: [ 1 x_54_ ^ 2 - 2 x_86_ * x_54_ + 1 x_86_ ^ 2 + 1 y_54_ ^ 2 - 2 y_86_ * y_54_ + 1 y_86_ ^ 2 ] >= 1941.3899999999999
quadratic_ranged_435_lb: [ 1 x_63_ ^ 2 - 2 x_86_ * x_63_ + 1 x_86_ ^ 2 + 1 y_63_ ^ 2 - 2 y_86_ * y_63_ + 1 y_86_ ^ 2 ] >= 3627.36
quadratic_ranged_436_lb: [ 1 x_78_ ^ 2 - 2 x_86_ * x_78_ + 1 x_86_ ^ 2 + 1 y_78_ ^ 2 - 2 y_86_ * y_78_ + 1 y_86_ ^ 2 ] >= 2997.72
quadratic_ranged_437_lb: [ 1 x_85_ ^ 2 - 2 x_86_ * x_85_ + 1 x_86_ ^ 2 + 1 y_85_ ^ 2 - 2 y_86_ * y_85_ + 1 y_86_ ^ 2 ] >= 4348.08
quadratic_ranged_438_lb: [ 1 x_9_ ^ 2 - 2 x_87_ * x_9_ + 1 x_87_ ^ 2 + 1 y_9_ ^ 2 - 2 y_87_ * y_9_ + 1 y_87_ ^ 2 ] >= 7235.91
quadratic_ranged_439_lb: [ 1 x_12_ ^ 2 - 2 x_87_ * x_12_ + 1 x_87_ ^ 2 + 1 y_12_ ^ 2 - 2 y_87_ * y_12_ + 1 y_87_ ^ 2 ] >= 1973.07
quadratic_ranged_440_lb: [ 1 x_30_ ^ 2 - 2 x_87_ * x_30_ + 1 x_87_ ^ 2 + 1 y_30_ ^ 2 - 2 y_87_ * y_30_ + 1 y_87_ ^ 2 ] >= 34001.55
quadratic_ranged_441_lb: [ 1 x_33_ ^ 2 - 2 x_87_ * x_33_ + 1 x_87_ ^ 2 + 1 y_33_ ^ 2 - 2 y_87_ * y_33_ + 1 y_87_ ^ 2 ] >= 12618.539999999999
quadratic_ranged_442_lb: [ 1 x_37_ ^ 2 - 2 x_87_ * x_37_ + 1 x_87_ ^ 2 + 1 y_37_ ^ 2 - 2 y_87_ * y_37_ + 1 y_87_ ^ 2 ] >= 15321.24
quadratic_ranged_443_lb: [ 1 x_41_ ^ 2 - 2 x_87_ * x_41_ + 1 x_87_ ^ 2 + 1 y_41_ ^ 2 - 2 y_87_ * y_41_ + 1 y_87_ ^ 2 ] >= 1783.98
quadratic_ranged_444_lb: [ 1 x_48_ ^ 2 - 2 x_87_ * x_48_ + 1 x_87_ ^ 2 + 1 y_48_ ^ 2 - 2 y_87_ * y_48_ + 1 y_87_ ^ 2 ] >= 11251.35
quadratic_ranged_445_lb: [ 1 x_55_ ^ 2 - 2 x_87_ * x_55_ + 1 x_87_ ^ 2 + 1 y_55_ ^ 2 - 2 y_87_ * y_55_ + 1 y_87_ ^ 2 ] >= 19.8
quadratic_ranged_446_lb: [ 1 x_78_ ^ 2 - 2 x_87_ * x_78_ + 1 x_87_ ^ 2 + 1 y_78_ ^ 2 - 2 y_87_ * y_78_ + 1 y_87_ ^ 2 ] >= 9524.789999999999
quadratic_ranged_447_lb: [ 1 x_83_ ^ 2 - 2 x_87_ * x_83_ + 1 x_87_ ^ 2 + 1 y_83_ ^ 2 - 2 y_87_ * y_83_ + 1 y_87_ ^ 2 ] >= 8507.07
quadratic_ranged_448_lb: [ 1 x_86_ ^ 2 - 2 x_87_ * x_86_ + 1 x_87_ ^ 2 + 1 y_86_ ^ 2 - 2 y_87_ * y_86_ + 1 y_87_ ^ 2 ] >= 5299.47
quadratic_ranged_449_lb: [ 1 x_2_ ^ 2 - 2 x_88_ * x_2_ + 1 x_88_ ^ 2 + 1 y_2_ ^ 2 - 2 y_88_ * y_2_ + 1 y_88_ ^ 2 ] >= 764.28
quadratic_ranged_450_lb: [ 1 x_8_ ^ 2 - 2 x_88_ * x_8_ + 1 x_88_ ^ 2 + 1 y_8_ ^ 2 - 2 y_88_ * y_8_ + 1 y_88_ ^ 2 ] >= 41806.71
quadratic_ranged_451_lb: [ 1 x_17_ ^ 2 - 2 x_88_ * x_17_ + 1 x_88_ ^ 2 + 1 y_17_ ^ 2 - 2 y_88_ * y_17_ + 1 y_88_ ^ 2 ] >= 19519.829999999998
quadratic_ranged_452_lb: [ 1 x_24_ ^ 2 - 2 x_88_ * x_24_ + 1 x_88_ ^ 2 + 1 y_24_ ^ 2 - 2 y_88_ * y_24_ + 1 y_88_ ^ 2 ] >= 40408.83
quadratic_ranged_453_lb: [ 1 x_56_ ^ 2 - 2 x_88_ * x_56_ + 1 x_88_ ^ 2 + 1 y_56_ ^ 2 - 2 y_88_ * y_56_ + 1 y_88_ ^ 2 ] >= 12745.26
quadratic_ranged_454_lb: [ 1 x_83_ ^ 2 - 2 x_88_ * x_83_ + 1 x_88_ ^ 2 + 1 y_83_ ^ 2 - 2 y_88_ * y_83_ + 1 y_88_ ^ 2 ] >= 26030.07
quadratic_ranged_455_lb: [ 1 x_87_ ^ 2 - 2 x_88_ * x_87_ + 1 x_88_ ^ 2 + 1 y_87_ ^ 2 - 2 y_88_ * y_87_ + 1 y_88_ ^ 2 ] >= 23067
quadratic_ranged_456_lb: [ 1 x_1_ ^ 2 - 2 x_89_ * x_1_ + 1 x_89_ ^ 2 + 1 y_1_ ^ 2 - 2 y_89_ * y_1_ + 1 y_89_ ^ 2 ] >= 3830.31
quadratic_ranged_457_lb: [ 1 x_3_ ^ 2 - 2 x_89_ * x_3_ + 1 x_89_ ^ 2 + 1 y_3_ ^ 2 - 2 y_89_ * y_3_ + 1 y_89_ ^ 2 ] >= 17513.1
quadratic_ranged_458_lb: [ 1 x_14_ ^ 2 - 2 x_89_ * x_14_ + 1 x_89_ ^ 2 + 1 y_14_ ^ 2 - 2 y_89_ * y_14_ + 1 y_89_ ^ 2 ] >= 17940.78
quadratic_ranged_459_lb: [ 1 x_43_ ^ 2 - 2 x_89_ * x_43_ + 1 x_89_ ^ 2 + 1 y_43_ ^ 2 - 2 y_89_ * y_43_ + 1 y_89_ ^ 2 ] >= 2717.55
quadratic_ranged_460_lb: [ 1 x_46_ ^ 2 - 2 x_89_ * x_46_ + 1 x_89_ ^ 2 + 1 y_46_ ^ 2 - 2 y_89_ * y_46_ + 1 y_89_ ^ 2 ] >= 1988.91
quadratic_ranged_461_lb: [ 1 x_56_ ^ 2 - 2 x_89_ * x_56_ + 1 x_89_ ^ 2 + 1 y_56_ ^ 2 - 2 y_89_ * y_56_ + 1 y_89_ ^ 2 ] >= 8484.3
quadratic_ranged_462_lb: [ 1 x_58_ ^ 2 - 2 x_89_ * x_58_ + 1 x_89_ ^ 2 + 1 y_58_ ^ 2 - 2 y_89_ * y_58_ + 1 y_89_ ^ 2 ] >= 24869.79
quadratic_ranged_463_lb: [ 1 x_71_ ^ 2 - 2 x_89_ * x_71_ + 1 x_89_ ^ 2 + 1 y_71_ ^ 2 - 2 y_89_ * y_71_ + 1 y_89_ ^ 2 ] >= 12676.95
quadratic_ranged_464_lb: [ 1 x_77_ ^ 2 - 2 x_89_ * x_77_ + 1 x_89_ ^ 2 + 1 y_77_ ^ 2 - 2 y_89_ * y_77_ + 1 y_89_ ^ 2 ] >= 8127.9
quadratic_ranged_465_lb: [ 1 x_83_ ^ 2 - 2 x_89_ * x_83_ + 1 x_89_ ^ 2 + 1 y_83_ ^ 2 - 2 y_89_ * y_83_ + 1 y_89_ ^ 2 ] >= 4749.03
quadratic_ranged_466_lb: [ 1 x_88_ ^ 2 - 2 x_89_ * x_88_ + 1 x_89_ ^ 2 + 1 y_88_ ^ 2 - 2 y_89_ * y_88_ + 1 y_89_ ^ 2 ] >= 29810.88
quadratic_ranged_467_lb: [ 1 x_1_ ^ 2 - 2 x_90_ * x_1_ + 1 x_90_ ^ 2 + 1 y_1_ ^ 2 - 2 y_90_ * y_1_ + 1 y_90_ ^ 2 ] >= 6432.03
quadratic_ranged_468_lb: [ 1 x_8_ ^ 2 - 2 x_90_ * x_8_ + 1 x_90_ ^ 2 + 1 y_8_ ^ 2 - 2 y_90_ * y_8_ + 1 y_90_ ^ 2 ] >= 11983.95
quadratic_ranged_469_lb: [ 1 x_18_ ^ 2 - 2 x_90_ * x_18_ + 1 x_90_ ^ 2 + 1 y_18_ ^ 2 - 2 y_90_ * y_18_ + 1 y_90_ ^ 2 ] >= 365.31
quadratic_ranged_470_lb: [ 1 x_21_ ^ 2 - 2 x_90_ * x_21_ + 1 x_90_ ^ 2 + 1 y_21_ ^ 2 - 2 y_90_ * y_21_ + 1 y_90_ ^ 2 ] >= 34686.63
quadratic_ranged_471_lb: [ 1 x_22_ ^ 2 - 2 x_90_ * x_22_ + 1 x_90_ ^ 2 + 1 y_22_ ^ 2 - 2 y_90_ * y_22_ + 1 y_90_ ^ 2 ] >= 4408.47
quadratic_ranged_472_lb: [ 1 x_31_ ^ 2 - 2 x_90_ * x_31_ + 1 x_90_ ^ 2 + 1 y_31_ ^ 2 - 2 y_90_ * y_31_ + 1 y_90_ ^ 2 ] >= 10645.47
quadratic_ranged_473_lb: [ 1 x_45_ ^ 2 - 2 x_90_ * x_45_ + 1 x_90_ ^ 2 + 1 y_45_ ^ 2 - 2 y_90_ * y_45_ + 1 y_90_ ^ 2 ] >= 7631.91
quadratic_ranged_474_lb: [ 1 x_48_ ^ 2 - 2 x_90_ * x_48_ + 1 x_90_ ^ 2 + 1 y_48_ ^ 2 - 2 y_90_ * y_48_ + 1 y_90_ ^ 2 ] >= 18795.15
quadratic_ranged_475_lb: [ 1 x_57_ ^ 2 - 2 x_90_ * x_57_ + 1 x_90_ ^ 2 + 1 y_57_ ^ 2 - 2 y_90_ * y_57_ + 1 y_90_ ^ 2 ] >= 11224.62
quadratic_ranged_476_lb: [ 1 x_60_ ^ 2 - 2 x_90_ * x_60_ + 1 x_90_ ^ 2 + 1 y_60_ ^ 2 - 2 y_90_ * y_60_ + 1 y_90_ ^ 2 ] >= 7493.3099999999995
quadratic_ranged_477_lb: [ 1 x_70_ ^ 2 - 2 x_90_ * x_70_ + 1 x_90_ ^ 2 + 1 y_70_ ^ 2 - 2 y_90_ * y_70_ + 1 y_90_ ^ 2 ] >= 5275.71
quadratic_ranged_478_lb: [ 1 x_71_ ^ 2 - 2 x_90_ * x_71_ + 1 x_90_ ^ 2 + 1 y_71_ ^ 2 - 2 y_90_ * y_71_ + 1 y_90_ ^ 2 ] >= 21313.71
quadratic_ranged_479_lb: [ 1 x_86_ ^ 2 - 2 x_90_ * x_86_ + 1 x_90_ ^ 2 + 1 y_86_ ^ 2 - 2 y_90_ * y_86_ + 1 y_90_ ^ 2 ] >= 5568.75
quadratic_ranged_480_lb: [ 1 x_89_ ^ 2 - 2 x_90_ * x_89_ + 1 x_90_ ^ 2 + 1 y_89_ ^ 2 - 2 y_90_ * y_89_ + 1 y_90_ ^ 2 ] >= 16911.18
quadratic_ranged_481_lb: [ 1 x_8_ ^ 2 - 2 x_91_ * x_8_ + 1 x_91_ ^ 2 + 1 y_8_ ^ 2 - 2 y_91_ * y_8_ + 1 y_91_ ^ 2 ] >= 27328.95
quadratic_ranged_482_lb: [ 1 x_15_ ^ 2 - 2 x_91_ * x_15_ + 1 x_91_ ^ 2 + 1 y_15_ ^ 2 - 2 y_91_ * y_15_ + 1 y_91_ ^ 2 ] >= 1665.18
quadratic_ranged_483_lb: [ 1 x_35_ ^ 2 - 2 x_91_ * x_35_ + 1 x_91_ ^ 2 + 1 y_35_ ^ 2 - 2 y_91_ * y_35_ + 1 y_91_ ^ 2 ] >= 15243.03
quadratic_ranged_484_lb: [ 1 x_46_ ^ 2 - 2 x_91_ * x_46_ + 1 x_91_ ^ 2 + 1 y_46_ ^ 2 - 2 y_91_ * y_46_ + 1 y_91_ ^ 2 ] >= 21313.71
quadratic_ranged_485_lb: [ 1 x_52_ ^ 2 - 2 x_91_ * x_52_ + 1 x_91_ ^ 2 + 1 y_52_ ^ 2 - 2 y_91_ * y_52_ + 1 y_91_ ^ 2 ] >= 17298.27
quadratic_ranged_486_lb: [ 1 x_68_ ^ 2 - 2 x_91_ * x_68_ + 1 x_91_ ^ 2 + 1 y_68_ ^ 2 - 2 y_91_ * y_68_ + 1 y_91_ ^ 2 ] >= 1522.62
quadratic_ranged_487_lb: [ 1 x_82_ ^ 2 - 2 x_91_ * x_82_ + 1 x_91_ ^ 2 + 1 y_82_ ^ 2 - 2 y_91_ * y_82_ + 1 y_91_ ^ 2 ] >= 2098.8
quadratic_ranged_488_lb: [ 1 x_83_ ^ 2 - 2 x_91_ * x_83_ + 1 x_91_ ^ 2 + 1 y_83_ ^ 2 - 2 y_91_ * y_83_ + 1 y_91_ ^ 2 ] >= 12193.83
quadratic_ranged_489_lb: [ 1 x_90_ ^ 2 - 2 x_91_ * x_90_ + 1 x_91_ ^ 2 + 1 y_90_ ^ 2 - 2 y_91_ * y_90_ + 1 y_91_ ^ 2 ] >= 13515.48
quadratic_ranged_490_lb: [ 1 x_13_ ^ 2 - 2 x_92_ * x_13_ + 1 x_92_ ^ 2 + 1 y_13_ ^ 2 - 2 y_92_ * y_13_ + 1 y_92_ ^ 2 ] >= 11792.88
quadratic_ranged_491_lb: [ 1 x_19_ ^ 2 - 2 x_92_ * x_19_ + 1 x_92_ ^ 2 + 1 y_19_ ^ 2 - 2 y_92_ * y_19_ + 1 y_92_ ^ 2 ] >= 17948.7
quadratic_ranged_492_lb: [ 1 x_24_ ^ 2 - 2 x_92_ * x_24_ + 1 x_92_ ^ 2 + 1 y_24_ ^ 2 - 2 y_92_ * y_24_ + 1 y_92_ ^ 2 ] >= 13057.11
quadratic_ranged_493_lb: [ 1 x_29_ ^ 2 - 2 x_92_ * x_29_ + 1 x_92_ ^ 2 + 1 y_29_ ^ 2 - 2 y_92_ * y_29_ + 1 y_92_ ^ 2 ] >= 13516.47
quadratic_ranged_494_lb: [ 1 x_35_ ^ 2 - 2 x_92_ * x_35_ + 1 x_92_ ^ 2 + 1 y_35_ ^ 2 - 2 y_92_ * y_35_ + 1 y_92_ ^ 2 ] >= 13758.03
quadratic_ranged_495_lb: [ 1 x_36_ ^ 2 - 2 x_92_ * x_36_ + 1 x_92_ ^ 2 + 1 y_36_ ^ 2 - 2 y_92_ * y_36_ + 1 y_92_ ^ 2 ] >= 25757.82
quadratic_ranged_496_lb: [ 1 x_42_ ^ 2 - 2 x_92_ * x_42_ + 1 x_92_ ^ 2 + 1 y_42_ ^ 2 - 2 y_92_ * y_42_ + 1 y_92_ ^ 2 ] >= 8656.56
quadratic_ranged_497_lb: [ 1 x_64_ ^ 2 - 2 x_92_ * x_64_ + 1 x_92_ ^ 2 + 1 y_64_ ^ 2 - 2 y_92_ * y_64_ + 1 y_92_ ^ 2 ] >= 1112.76
quadratic_ranged_498_lb: [ 1 x_70_ ^ 2 - 2 x_92_ * x_70_ + 1 x_92_ ^ 2 + 1 y_70_ ^ 2 - 2 y_92_ * y_70_ + 1 y_92_ ^ 2 ] >= 4768.83
quadratic_ranged_499_lb: [ 1 x_85_ ^ 2 - 2 x_92_ * x_85_ + 1 x_92_ ^ 2 + 1 y_85_ ^ 2 - 2 y_92_ * y_85_ + 1 y_92_ ^ 2 ] >= 2582.91
quadratic_ranged_500_lb: [ 1 x_91_ ^ 2 - 2 x_92_ * x_91_ + 1 x_92_ ^ 2 + 1 y_91_ ^ 2 - 2 y_92_ * y_91_ + 1 y_92_ ^ 2 ] >= 10779.12
quadratic_ranged_501_lb: [ 1 x_2_ ^ 2 - 2 x_93_ * x_2_ + 1 x_93_ ^ 2 + 1 y_2_ ^ 2 - 2 y_93_ * y_2_ + 1 y_93_ ^ 2 ] >= 2202.75
quadratic_ranged_502_lb: [ 1 x_8_ ^ 2 - 2 x_93_ * x_8_ + 1 x_93_ ^ 2 + 1 y_8_ ^ 2 - 2 y_93_ * y_8_ + 1 y_93_ ^ 2 ] >= 36004.32
quadratic_ranged_503_lb: [ 1 x_10_ ^ 2 - 2 x_93_ * x_10_ + 1 x_93_ ^ 2 + 1 y_10_ ^ 2 - 2 y_93_ * y_10_ + 1 y_93_ ^ 2 ] >= 971.1899999999999
quadratic_ranged_504_lb: [ 1 x_22_ ^ 2 - 2 x_93_ * x_22_ + 1 x_93_ ^ 2 + 1 y_22_ ^ 2 - 2 y_93_ * y_22_ + 1 y_93_ ^ 2 ] >= 20215.8
quadratic_ranged_505_lb: [ 1 x_24_ ^ 2 - 2 x_93_ * x_24_ + 1 x_93_ ^ 2 + 1 y_24_ ^ 2 - 2 y_93_ * y_24_ + 1 y_93_ ^ 2 ] >= 34919.28
quadratic_ranged_506_lb: [ 1 x_25_ ^ 2 - 2 x_93_ * x_25_ + 1 x_93_ ^ 2 + 1 y_25_ ^ 2 - 2 y_93_ * y_25_ + 1 y_93_ ^ 2 ] >= 12985.83
quadratic_ranged_507_lb: [ 1 x_92_ ^ 2 - 2 x_93_ * x_92_ + 1 x_93_ ^ 2 + 1 y_92_ ^ 2 - 2 y_93_ * y_92_ + 1 y_93_ ^ 2 ] >= 30160.35
quadratic_ranged_508_lb: [ 1 x_5_ ^ 2 - 2 x_94_ * x_5_ + 1 x_94_ ^ 2 + 1 y_5_ ^ 2 - 2 y_94_ * y_5_ + 1 y_94_ ^ 2 ] >= 97.02
quadratic_ranged_509_lb: [ 1 x_19_ ^ 2 - 2 x_94_ * x_19_ + 1 x_94_ ^ 2 + 1 y_19_ ^ 2 - 2 y_94_ * y_19_ + 1 y_94_ ^ 2 ] >= 4883.67
quadratic_ranged_510_lb: [ 1 x_25_ ^ 2 - 2 x_94_ * x_25_ + 1 x_94_ ^ 2 + 1 y_25_ ^ 2 - 2 y_94_ * y_25_ + 1 y_94_ ^ 2 ] >= 4503.51
quadratic_ranged_511_lb: [ 1 x_38_ ^ 2 - 2 x_94_ * x_38_ + 1 x_94_ ^ 2 + 1 y_38_ ^ 2 - 2 y_94_ * y_38_ + 1 y_94_ ^ 2 ] >= 18549.63
quadratic_ranged_512_lb: [ 1 x_48_ ^ 2 - 2 x_94_ * x_48_ + 1 x_94_ ^ 2 + 1 y_48_ ^ 2 - 2 y_94_ * y_48_ + 1 y_94_ ^ 2 ] >= 3999.6
quadratic_ranged_513_lb: [ 1 x_50_ ^ 2 - 2 x_94_ * x_50_ + 1 x_94_ ^ 2 + 1 y_50_ ^ 2 - 2 y_94_ * y_50_ + 1 y_94_ ^ 2 ] >= 7337.88
quadratic_ranged_514_lb: [ 1 x_58_ ^ 2 - 2 x_94_ * x_58_ + 1 x_94_ ^ 2 + 1 y_58_ ^ 2 - 2 y_94_ * y_58_ + 1 y_94_ ^ 2 ] >= 10765.26
quadratic_ranged_515_lb: [ 1 x_64_ ^ 2 - 2 x_94_ * x_64_ + 1 x_94_ ^ 2 + 1 y_64_ ^ 2 - 2 y_94_ * y_64_ + 1 y_94_ ^ 2 ] >= 8237.789999999999
quadratic_ranged_516_lb: [ 1 x_73_ ^ 2 - 2 x_94_ * x_73_ + 1 x_94_ ^ 2 + 1 y_73_ ^ 2 - 2 y_94_ * y_73_ + 1 y_94_ ^ 2 ] >= 4697.55
quadratic_ranged_517_lb: [ 1 x_75_ ^ 2 - 2 x_94_ * x_75_ + 1 x_94_ ^ 2 + 1 y_75_ ^ 2 - 2 y_94_ * y_75_ + 1 y_94_ ^ 2 ] >= 2959.11
quadratic_ranged_518_lb: [ 1 x_85_ ^ 2 - 2 x_94_ * x_85_ + 1 x_94_ ^ 2 + 1 y_85_ ^ 2 - 2 y_94_ * y_85_ + 1 y_94_ ^ 2 ] >= 6155.82
quadratic_ranged_519_lb: [ 1 x_93_ ^ 2 - 2 x_94_ * x_93_ + 1 x_94_ ^ 2 + 1 y_93_ ^ 2 - 2 y_94_ * y_93_ + 1 y_94_ ^ 2 ] >= 12010.68
quadratic_ranged_520_lb: [ 1 x_10_ ^ 2 - 2 x_95_ * x_10_ + 1 x_95_ ^ 2 + 1 y_10_ ^ 2 - 2 y_95_ * y_10_ + 1 y_95_ ^ 2 ] >= 3719.43
quadratic_ranged_521_lb: [ 1 x_12_ ^ 2 - 2 x_95_ * x_12_ + 1 x_95_ ^ 2 + 1 y_12_ ^ 2 - 2 y_95_ * y_12_ + 1 y_95_ ^ 2 ] >= 22249.26
quadratic_ranged_522_lb: [ 1 x_33_ ^ 2 - 2 x_95_ * x_33_ + 1 x_95_ ^ 2 + 1 y_33_ ^ 2 - 2 y_95_ * y_33_ + 1 y_95_ ^ 2 ] >= 6111.2699999999995
quadratic_ranged_523_lb: [ 1 x_60_ ^ 2 - 2 x_95_ * x_60_ + 1 x_95_ ^ 2 + 1 y_60_ ^ 2 - 2 y_95_ * y_60_ + 1 y_95_ ^ 2 ] >= 14454
quadratic_ranged_524_lb: [ 1 x_64_ ^ 2 - 2 x_95_ * x_64_ + 1 x_95_ ^ 2 + 1 y_64_ ^ 2 - 2 y_95_ * y_64_ + 1 y_95_ ^ 2 ] >= 47536.83
quadratic_ranged_525_lb: [ 1 x_67_ ^ 2 - 2 x_95_ * x_67_ + 1 x_95_ ^ 2 + 1 y_67_ ^ 2 - 2 y_95_ * y_67_ + 1 y_95_ ^ 2 ] >= 33181.83
quadratic_ranged_526_lb: [ 1 x_87_ ^ 2 - 2 x_95_ * x_87_ + 1 x_95_ ^ 2 + 1 y_87_ ^ 2 - 2 y_95_ * y_87_ + 1 y_95_ ^ 2 ] >= 35704.35
quadratic_ranged_527_lb: [ 1 x_89_ ^ 2 - 2 x_95_ * x_89_ + 1 x_95_ ^ 2 + 1 y_89_ ^ 2 - 2 y_95_ * y_89_ + 1 y_95_ ^ 2 ] >= 20878.11
quadratic_ranged_528_lb: [ 1 x_94_ ^ 2 - 2 x_95_ * x_94_ + 1 x_95_ ^ 2 + 1 y_94_ ^ 2 - 2 y_95_ * y_94_ + 1 y_95_ ^ 2 ] >= 18637.74
quadratic_ranged_529_lb: [ 1 x_15_ ^ 2 - 2 x_96_ * x_15_ + 1 x_96_ ^ 2 + 1 y_15_ ^ 2 - 2 y_96_ * y_15_ + 1 y_96_ ^ 2 ] >= 3013.56
quadratic_ranged_530_lb: [ 1 x_19_ ^ 2 - 2 x_96_ * x_19_ + 1 x_96_ ^ 2 + 1 y_19_ ^ 2 - 2 y_96_ * y_19_ + 1 y_96_ ^ 2 ] >= 2063.16
quadratic_ranged_531_lb: [ 1 x_32_ ^ 2 - 2 x_96_ * x_32_ + 1 x_96_ ^ 2 + 1 y_32_ ^ 2 - 2 y_96_ * y_32_ + 1 y_96_ ^ 2 ] >= 30850.38
quadratic_ranged_532_lb: [ 1 x_39_ ^ 2 - 2 x_96_ * x_39_ + 1 x_96_ ^ 2 + 1 y_39_ ^ 2 - 2 y_96_ * y_39_ + 1 y_96_ ^ 2 ] >= 1750.32
quadratic_ranged_533_lb: [ 1 x_50_ ^ 2 - 2 x_96_ * x_50_ + 1 x_96_ ^ 2 + 1 y_50_ ^ 2 - 2 y_96_ * y_50_ + 1 y_96_ ^ 2 ] >= 28730.79
quadratic_ranged_534_lb: [ 1 x_69_ ^ 2 - 2 x_96_ * x_69_ + 1 x_96_ ^ 2 + 1 y_69_ ^ 2 - 2 y_96_ * y_69_ + 1 y_96_ ^ 2 ] >= 20545.47
quadratic_ranged_535_lb: [ 1 x_83_ ^ 2 - 2 x_96_ * x_83_ + 1 x_96_ ^ 2 + 1 y_83_ ^ 2 - 2 y_96_ * y_83_ + 1 y_96_ ^ 2 ] >= 21408.75
quadratic_ranged_536_lb: [ 1 x_95_ ^ 2 - 2 x_96_ * x_95_ + 1 x_96_ ^ 2 + 1 y_95_ ^ 2 - 2 y_96_ * y_95_ + 1 y_96_ ^ 2 ] >= 11243.43
quadratic_ranged_537_lb: [ 1 x_6_ ^ 2 - 2 x_97_ * x_6_ + 1 x_97_ ^ 2 + 1 y_6_ ^ 2 - 2 y_97_ * y_6_ + 1 y_97_ ^ 2 ] >= 14543.1
quadratic_ranged_538_lb: [ 1 x_48_ ^ 2 - 2 x_97_ * x_48_ + 1 x_97_ ^ 2 + 1 y_48_ ^ 2 - 2 y_97_ * y_48_ + 1 y_97_ ^ 2 ] >= 6138.99
quadratic_ranged_539_lb: [ 1 x_61_ ^ 2 - 2 x_97_ * x_61_ + 1 x_97_ ^ 2 + 1 y_61_ ^ 2 - 2 y_97_ * y_61_ + 1 y_97_ ^ 2 ] >= 26874.54
quadratic_ranged_540_lb: [ 1 x_65_ ^ 2 - 2 x_97_ * x_65_ + 1 x_97_ ^ 2 + 1 y_65_ ^ 2 - 2 y_97_ * y_65_ + 1 y_97_ ^ 2 ] >= 3043.2599999999998
quadratic_ranged_541_lb: [ 1 x_67_ ^ 2 - 2 x_97_ * x_67_ + 1 x_97_ ^ 2 + 1 y_67_ ^ 2 - 2 y_97_ * y_67_ + 1 y_97_ ^ 2 ] >= 1782
quadratic_ranged_542_lb: [ 1 x_71_ ^ 2 - 2 x_97_ * x_71_ + 1 x_97_ ^ 2 + 1 y_71_ ^ 2 - 2 y_97_ * y_71_ + 1 y_97_ ^ 2 ] >= 14213.43
quadratic_ranged_543_lb: [ 1 x_77_ ^ 2 - 2 x_97_ * x_77_ + 1 x_97_ ^ 2 + 1 y_77_ ^ 2 - 2 y_97_ * y_77_ + 1 y_97_ ^ 2 ] >= 17093.34
quadratic_ranged_544_lb: [ 1 x_79_ ^ 2 - 2 x_97_ * x_79_ + 1 x_97_ ^ 2 + 1 y_79_ ^ 2 - 2 y_97_ * y_79_ + 1 y_97_ ^ 2 ] >= 33838.2
quadratic_ranged_545_lb: [ 1 x_80_ ^ 2 - 2 x_97_ * x_80_ + 1 x_97_ ^ 2 + 1 y_80_ ^ 2 - 2 y_97_ * y_80_ + 1 y_97_ ^ 2 ] >= 19781.19
quadratic_ranged_546_lb: [ 1 x_84_ ^ 2 - 2 x_97_ * x_84_ + 1 x_97_ ^ 2 + 1 y_84_ ^ 2 - 2 y_97_ * y_84_ + 1 y_97_ ^ 2 ] >= 12612.6
quadratic_ranged_547_lb: [ 1 x_95_ ^ 2 - 2 x_97_ * x_95_ + 1 x_97_ ^ 2 + 1 y_95_ ^ 2 - 2 y_97_ * y_95_ + 1 y_97_ ^ 2 ] >= 28560.51
quadratic_ranged_548_lb: [ 1 x_96_ ^ 2 - 2 x_97_ * x_96_ + 1 x_97_ ^ 2 + 1 y_96_ ^ 2 - 2 y_97_ * y_96_ + 1 y_97_ ^ 2 ] >= 4981.68
quadratic_ranged_549_lb: [ 1 x_1_ ^ 2 - 2 x_98_ * x_1_ + 1 x_98_ ^ 2 + 1 y_1_ ^ 2 - 2 y_98_ * y_1_ + 1 y_98_ ^ 2 ] >= 28498.14
quadratic_ranged_550_lb: [ 1 x_10_ ^ 2 - 2 x_98_ * x_10_ + 1 x_98_ ^ 2 + 1 y_10_ ^ 2 - 2 y_98_ * y_10_ + 1 y_98_ ^ 2 ] >= 3220.47
quadratic_ranged_551_lb: [ 1 x_15_ ^ 2 - 2 x_98_ * x_15_ + 1 x_98_ ^ 2 + 1 y_15_ ^ 2 - 2 y_98_ * y_15_ + 1 y_98_ ^ 2 ] >= 2483.91
quadratic_ranged_552_lb: [ 1 x_26_ ^ 2 - 2 x_98_ * x_26_ + 1 x_98_ ^ 2 + 1 y_26_ ^ 2 - 2 y_98_ * y_26_ + 1 y_98_ ^ 2 ] >= 16861.68
quadratic_ranged_553_lb: [ 1 x_30_ ^ 2 - 2 x_98_ * x_30_ + 1 x_98_ ^ 2 + 1 y_30_ ^ 2 - 2 y_98_ * y_30_ + 1 y_98_ ^ 2 ] >= 43704.54
quadratic_ranged_554_lb: [ 1 x_64_ ^ 2 - 2 x_98_ * x_64_ + 1 x_98_ ^ 2 + 1 y_64_ ^ 2 - 2 y_98_ * y_64_ + 1 y_98_ ^ 2 ] >= 24465.87
quadratic_ranged_555_lb: [ 1 x_83_ ^ 2 - 2 x_98_ * x_83_ + 1 x_98_ ^ 2 + 1 y_83_ ^ 2 - 2 y_98_ * y_83_ + 1 y_98_ ^ 2 ] >= 17697.24
quadratic_ranged_556_lb: [ 1 x_97_ ^ 2 - 2 x_98_ * x_97_ + 1 x_98_ ^ 2 + 1 y_97_ ^ 2 - 2 y_98_ * y_97_ + 1 y_98_ ^ 2 ] >= 3267.99
quadratic_ranged_557_lb: [ 1 x_2_ ^ 2 - 2 x_99_ * x_2_ + 1 x_99_ ^ 2 + 1 y_2_ ^ 2 - 2 y_99_ * y_2_ + 1 y_99_ ^ 2 ] >= 21634.47
quadratic_ranged_558_lb: [ 1 x_14_ ^ 2 - 2 x_99_ * x_14_ + 1 x_99_ ^ 2 + 1 y_14_ ^ 2 - 2 y_99_ * y_14_ + 1 y_99_ ^ 2 ] >= 16577.55
quadratic_ranged_559_lb: [ 1 x_17_ ^ 2 - 2 x_99_ * x_17_ + 1 x_99_ ^ 2 + 1 y_17_ ^ 2 - 2 y_99_ * y_17_ + 1 y_99_ ^ 2 ] >= 28300.14
quadratic_ranged_560_lb: [ 1 x_20_ ^ 2 - 2 x_99_ * x_20_ + 1 x_99_ ^ 2 + 1 y_20_ ^ 2 - 2 y_99_ * y_20_ + 1 y_99_ ^ 2 ] >= 4063.95
quadratic_ranged_561_lb: [ 1 x_23_ ^ 2 - 2 x_99_ * x_23_ + 1 x_99_ ^ 2 + 1 y_23_ ^ 2 - 2 y_99_ * y_23_ + 1 y_99_ ^ 2 ] >= 28643.67
quadratic_ranged_562_lb: [ 1 x_35_ ^ 2 - 2 x_99_ * x_35_ + 1 x_99_ ^ 2 + 1 y_35_ ^ 2 - 2 y_99_ * y_35_ + 1 y_99_ ^ 2 ] >= 1445.4
quadratic_ranged_563_lb: [ 1 x_43_ ^ 2 - 2 x_99_ * x_43_ + 1 x_99_ ^ 2 + 1 y_43_ ^ 2 - 2 y_99_ * y_43_ + 1 y_99_ ^ 2 ] >= 477.18
quadratic_ranged_564_lb: [ 1 x_58_ ^ 2 - 2 x_99_ * x_58_ + 1 x_99_ ^ 2 + 1 y_58_ ^ 2 - 2 y_99_ * y_58_ + 1 y_99_ ^ 2 ] >= 15905.34
quadratic_ranged_565_lb: [ 1 x_70_ ^ 2 - 2 x_99_ * x_70_ + 1 x_99_ ^ 2 + 1 y_70_ ^ 2 - 2 y_99_ * y_70_ + 1 y_99_ ^ 2 ] >= 7702.2
quadratic_ranged_566_lb: [ 1 x_94_ ^ 2 - 2 x_99_ * x_94_ + 1 x_99_ ^ 2 + 1 y_94_ ^ 2 - 2 y_99_ * y_94_ + 1 y_99_ ^ 2 ] >= 12965.039999999999
quadratic_ranged_567_lb: [ 1 x_98_ ^ 2 - 2 x_99_ * x_98_ + 1 x_99_ ^ 2 + 1 y_98_ ^ 2 - 2 y_99_ * y_98_ + 1 y_99_ ^ 2 ] >= 21740.4
quadratic_ranged_568_lb: [ 1 x_1_ ^ 2 - 2 x_100_ * x_1_ + 1 x_100_ ^ 2 + 1 y_1_ ^ 2 - 2 y_100_ * y_1_ + 1 y_100_ ^ 2 ] >= 2760.12
quadratic_ranged_569_lb: [ 1 x_5_ ^ 2 - 2 x_100_ * x_5_ + 1 x_100_ ^ 2 + 1 y_5_ ^ 2 - 2 y_100_ * y_5_ + 1 y_100_ ^ 2 ] >= 2760.12
quadratic_ranged_570_lb: [ 1 x_19_ ^ 2 - 2 x_100_ * x_19_ + 1 x_100_ ^ 2 + 1 y_19_ ^ 2 - 2 y_100_ * y_19_ + 1 y_100_ ^ 2 ] >= 13872.869999999999
quadratic_ranged_571_lb: [ 1 x_20_ ^ 2 - 2 x_100_ * x_20_ + 1 x_100_ ^ 2 + 1 y_20_ ^ 2 - 2 y_100_ * y_20_ + 1 y_100_ ^ 2 ] >= 22062.15
quadratic_ranged_572_lb: [ 1 x_21_ ^ 2 - 2 x_100_ * x_21_ + 1 x_100_ ^ 2 + 1 y_21_ ^ 2 - 2 y_100_ * y_21_ + 1 y_100_ ^ 2 ] >= 25728.12
quadratic_ranged_573_lb: [ 1 x_24_ ^ 2 - 2 x_100_ * x_24_ + 1 x_100_ ^ 2 + 1 y_24_ ^ 2 - 2 y_100_ * y_24_ + 1 y_100_ ^ 2 ] >= 5395.5
quadratic_ranged_574_lb: [ 1 x_32_ ^ 2 - 2 x_100_ * x_32_ + 1 x_100_ ^ 2 + 1 y_32_ ^ 2 - 2 y_100_ * y_32_ + 1 y_100_ ^ 2 ] >= 6166.71
quadratic_ranged_575_lb: [ 1 x_49_ ^ 2 - 2 x_100_ * x_49_ + 1 x_100_ ^ 2 + 1 y_49_ ^ 2 - 2 y_100_ * y_49_ + 1 y_100_ ^ 2 ] >= 2772.99
quadratic_ranged_576_lb: [ 1 x_54_ ^ 2 - 2 x_100_ * x_54_ + 1 x_100_ ^ 2 + 1 y_54_ ^ 2 - 2 y_100_ * y_54_ + 1 y_100_ ^ 2 ] >= 2788.83
quadratic_ranged_577_lb: [ 1 x_55_ ^ 2 - 2 x_100_ * x_55_ + 1 x_100_ ^ 2 + 1 y_55_ ^ 2 - 2 y_100_ * y_55_ + 1 y_100_ ^ 2 ] >= 5410.35
quadratic_ranged_578_lb: [ 1 x_66_ ^ 2 - 2 x_100_ * x_66_ + 1 x_100_ ^ 2 + 1 y_66_ ^ 2 - 2 y_100_ * y_66_ + 1 y_100_ ^ 2 ] >= 15508.35
quadratic_ranged_579_lb: [ 1 x_67_ ^ 2 - 2 x_100_ * x_67_ + 1 x_100_ ^ 2 + 1 y_67_ ^ 2 - 2 y_100_ * y_67_ + 1 y_100_ ^ 2 ] >= 7425.99
quadratic_ranged_580_lb: [ 1 x_74_ ^ 2 - 2 x_100_ * x_74_ + 1 x_100_ ^ 2 + 1 y_74_ ^ 2 - 2 y_100_ * y_74_ + 1 y_100_ ^ 2 ] >= 10850.4
quadratic_ranged_581_lb: [ 1 x_82_ ^ 2 - 2 x_100_ * x_82_ + 1 x_100_ ^ 2 + 1 y_82_ ^ 2 - 2 y_100_ * y_82_ + 1 y_100_ ^ 2 ] >= 18862.47
quadratic_ranged_582_lb: [ 1 x_88_ ^ 2 - 2 x_100_ * x_88_ + 1 x_100_ ^ 2 + 1 y_88_ ^ 2 - 2 y_100_ * y_88_ + 1 y_100_ ^ 2 ] >= 25915.23
quadratic_ranged_583_lb: [ 1 x_89_ ^ 2 - 2 x_100_ * x_89_ + 1 x_100_ ^ 2 + 1 y_89_ ^ 2 - 2 y_100_ * y_89_ + 1 y_100_ ^ 2 ] >= 8404.11
quadratic_ranged_584_lb: [ 1 x_94_ ^ 2 - 2 x_100_ * x_94_ + 1 x_100_ ^ 2 + 1 y_94_ ^ 2 - 2 y_100_ * y_94_ + 1 y_100_ ^ 2 ] >= 3217.5
quadratic_ranged_585_lb: [ 1 x_99_ ^ 2 - 2 x_100_ * x_99_ + 1 x_100_ ^ 2 + 1 y_99_ ^ 2 - 2 y_100_ * y_99_ + 1 y_100_ ^ 2 ] >= 11707.74
c1_1: 1 x_65_ = 24
c2_1: 1 y_65_ = -38
c3_1: 1 x_99_ = -17
c4_1: 1 y_99_ = 82
c5_1: 1 x_42_ = 6
c6_1: 1 y_42_ = 0
Bounds
-119 <= x_1_ <= 120
-54 <= x_2_ <= 102
-100 <= x_3_ <= 148
-105 <= x_4_ <= 117
-117 <= x_5_ <= 106
-89 <= x_6_ <= 101
-71 <= x_7_ <= 83
-113 <= x_8_ <= 109
-90 <= x_9_ <= 83
-133 <= x_10_ <= 131
-98 <= x_11_ <= 110
-68 <= x_12_ <= 80
-140 <= x_13_ <= 152
-147 <= x_14_ <= 113
-91 <= x_15_ <= 82
-135 <= x_16_ <= 122
-170 <= x_17_ <= 152
-127 <= x_18_ <= 139
-138 <= x_19_ <= 132
-81 <= x_20_ <= 47
-84 <= x_21_ <= 98
-154 <= x_22_ <= 142
-107 <= x_23_ <= 121
-113 <= x_24_ <= 98
-39 <= x_25_ <= 51
-83 <= x_26_ <= 131
-136 <= x_27_ <= 150
-123 <= x_28_ <= 123
-163 <= x_29_ <= 175
-134 <= x_30_ <= 117
-40 <= x_31_ <= 52
-145 <= x_32_ <= 157
-121 <= x_33_ <= 135
-73 <= x_34_ <= 87
-55 <= x_35_ <= 21
-46 <= x_36_ <= 94
-63 <= x_37_ <= 111
-132 <= x_38_ <= 127
-104 <= x_39_ <= 116
-91 <= x_40_ <= 86
-97 <= x_41_ <= 111
x_42_ = 6
-39 <= x_43_ <= 5
-120 <= x_44_ <= 135
-130 <= x_45_ <= 104
-127 <= x_46_ <= 102
-150 <= x_47_ <= 162
-77 <= x_48_ <= 89
-13 <= x_49_ <= 25
-99 <= x_50_ <= 111
-78 <= x_51_ <= 90
-94 <= x_52_ <= 64
-122 <= x_53_ <= 136
-83 <= x_54_ <= 131
-50 <= x_55_ <= 98
-127 <= x_56_ <= 134
-86 <= x_57_ <= 52
-81 <= x_58_ <= 93
-66 <= x_59_ <= 114
-21 <= x_60_ <= 33
-82 <= x_61_ <= 94
-51 <= x_62_ <= 63
-142 <= x_63_ <= 135
-97 <= x_64_ <= 133
x_65_ = 24
-30 <= x_66_ <= 78
-74 <= x_67_ <= 95
-11 <= x_68_ <= 25
-104 <= x_69_ <= 118
-105 <= x_70_ <= 71
-61 <= x_71_ <= 109
-63 <= x_72_ <= 77
-80 <= x_73_ <= 92
-110 <= x_74_ <= 92
-67 <= x_75_ <= 79
-98 <= x_76_ <= 103
-76 <= x_77_ <= 88
-100 <= x_78_ <= 112
-87 <= x_79_ <= 53
-44 <= x_80_ <= 56
-71 <= x_81_ <= 85
-96 <= x_82_ <= 111
-146 <= x_83_ <= 127
-37 <= x_84_ <= 49
-86 <= x_85_ <= 99
-94 <= x_86_ <= 89
-54 <= x_87_ <= 102
-82 <= x_88_ <= 130
-91 <= x_89_ <= 57
-108 <= x_90_ <= 120
-50 <= x_91_ <= 64
-87 <= x_92_ <= 99
-102 <= x_93_ <= 150
-107 <= x_94_ <= 98
-142 <= x_95_ <= 154
-103 <= x_96_ <= 137
-31 <= x_97_ <= 79
-89 <= x_98_ <= 131
x_99_ = -17
-66 <= x_100_ <= 78
-55 <= y_1_ <= 125
-66 <= y_2_ <= 40
-103 <= y_3_ <= 86
-75 <= y_4_ <= 94
-41 <= y_5_ <= 123
-71 <= y_6_ <= 95
-55 <= y_7_ <= 77
-44 <= y_8_ <= 119
-18 <= y_9_ <= 94
-66 <= y_10_ <= 119
-104 <= y_11_ <= 104
-74 <= y_12_ <= 74
-95 <= y_13_ <= 141
-48 <= y_14_ <= 137
-17 <= y_15_ <= 77
-57 <= y_16_ <= 135
-87 <= y_17_ <= 176
-85 <= y_18_ <= 133
-67 <= y_19_ <= 134
18 <= y_20_ <= 87
-68 <= y_21_ <= 70
-77 <= y_22_ <= 153
-88 <= y_23_ <= 93
-33 <= y_24_ <= 111
-45 <= y_25_ <= 45
-90 <= y_26_ <= 69
-90 <= y_27_ <= 122
-58 <= y_28_ <= 109
-118 <= y_29_ <= 169
-52 <= y_30_ <= 140
-46 <= y_31_ <= 46
-106 <= y_32_ <= 151
-92 <= y_33_ <= 107
-44 <= y_34_ <= 59
44 <= y_35_ <= 86
-74 <= y_36_ <= 32
-125 <= y_37_ <= 49
-62 <= y_38_ <= 138
-110 <= y_39_ <= 110
-21 <= y_40_ <= 97
-89 <= y_41_ <= 83
y_42_ = 0
60 <= y_43_ <= 64
-120 <= y_44_ <= 106
-39 <= y_45_ <= 128
-37 <= y_46_ <= 115
-123 <= y_47_ <= 156
-47 <= y_48_ <= 66
-19 <= y_49_ <= 19
-105 <= y_50_ <= 105
-32 <= y_51_ <= 84
1 <= y_52_ <= 100
-128 <= y_53_ <= 108
-69 <= y_54_ <= 69
-101 <= y_55_ <= 36
-69 <= y_56_ <= 119
13 <= y_57_ <= 111
-45 <= y_58_ <= 71
-111 <= y_59_ <= 52
-27 <= y_60_ <= 27
-36 <= y_61_ <= 74
-21 <= y_62_ <= 41
-70 <= y_63_ <= 128
-108 <= y_64_ <= 83
y_65_ = -38
-75 <= y_66_ <= 16
-89 <= y_67_ <= 60
-19 <= y_68_ <= -3
-106 <= y_69_ <= 90
-6 <= y_70_ <= 122
-54 <= y_71_ <= 47
-71 <= y_72_ <= 49
-86 <= y_73_ <= 85
-27 <= y_74_ <= 99
-73 <= y_75_ <= 73
-38 <= y_76_ <= 104
-31 <= y_77_ <= 82
-55 <= y_78_ <= 100
12 <= y_79_ <= 94
-40 <= y_80_ <= 50
-77 <= y_81_ <= 57
-98 <= y_82_ <= 82
-62 <= y_83_ <= 133
-7 <= y_84_ <= 27
-39 <= y_85_ <= 72
-24 <= y_86_ <= 100
-98 <= y_87_ <= 40
-94 <= y_88_ <= 68
8 <= y_89_ <= 117
-80 <= y_90_ <= 114
-58 <= y_91_ <= 36
-74 <= y_92_ <= 93
-98 <= y_93_ <= 88
-33 <= y_94_ <= 113
-128 <= y_95_ <= 148
-72 <= y_96_ <= 89
-93 <= y_97_ <= 17
-66 <= y_98_ <= 75
y_99_ = 82
-27 <= y_100_ <= 72
General
x_1_
x_2_
x_3_
x_4_
x_5_
x_6_
x_7_
x_8_
x_9_
x_10_
x_11_
x_12_
x_13_
x_14_
x_15_
x_16_
x_17_
x_18_
x_19_
x_20_
x_21_
x_22_
x_23_
x_24_
x_25_
x_26_
x_27_
x_28_
x_29_
x_30_
x_31_
x_32_
x_33_
x_34_
x_35_
x_36_
x_37_
x_38_
x_39_
x_40_
x_41_
x_42_
x_43_
x_44_
x_45_
x_46_
x_47_
x_48_
x_49_
x_50_
x_51_
x_52_
x_53_
x_54_
x_55_
x_56_
x_57_
x_58_
x_59_
x_60_
x_61_
x_62_
x_63_
x_64_
x_65_
x_66_
x_67_
x_68_
x_69_
x_70_
x_71_
x_72_
x_73_
x_74_
x_75_
x_76_
x_77_
x_78_
x_79_
x_80_
x_81_
x_82_
x_83_
x_84_
x_85_
x_86_
x_87_
x_88_
x_89_
x_90_
x_91_
x_92_
x_93_
x_94_
x_95_
x_96_
x_97_
x_98_
x_99_
x_100_
y_1_
y_2_
y_3_
y_4_
y_5_
y_6_
y_7_
y_8_
y_9_
y_10_
y_11_
y_12_
y_13_
y_14_
y_15_
y_16_
y_17_
y_18_
y_19_
y_20_
y_21_
y_22_
y_23_
y_24_
y_25_
y_26_
y_27_
y_28_
y_29_
y_30_
y_31_
y_32_
y_33_
y_34_
y_35_
y_36_
y_37_
y_38_
y_39_
y_40_
y_41_
y_42_
y_43_
y_44_
y_45_
y_46_
y_47_
y_48_
y_49_
y_50_
y_51_
y_52_
y_53_
y_54_
y_55_
y_56_
y_57_
y_58_
y_59_
y_60_
y_61_
y_62_
y_63_
y_64_
y_65_
y_66_
y_67_
y_68_
y_69_
y_70_
y_71_
y_72_
y_73_
y_74_
y_75_
y_76_
y_77_
y_78_
y_79_
y_80_
y_81_
y_82_
y_83_
y_84_
y_85_
y_86_
y_87_
y_88_
y_89_
y_90_
y_91_
y_92_
y_93_
y_94_
y_95_
y_96_
y_97_
y_98_
y_99_
y_100_
End
