minimize
obj: 
subject to
c1_1: -12 x_1_ - 116 y_1_ + [ 1 x_1_ ^ 2 + 1 y_1_ ^ 2 ] <= 54332
c2_1: -12 x_2_ - 116 y_2_ + [ 1 x_2_ ^ 2 + 1 y_2_ ^ 2 ] <= 76412
c3_1: -12 x_3_ - 116 y_3_ + [ 1 x_3_ ^ 2 + 1 y_3_ ^ 2 ] <= 25921
c4_1: -12 x_5_ - 116 y_5_ + [ 1 x_5_ ^ 2 + 1 y_5_ ^ 2 ] <= 40910
c5_1: -12 x_6_ - 116 y_6_ + [ 1 x_6_ ^ 2 + 1 y_6_ ^ 2 ] <= -440
c6_1: -12 x_7_ - 116 y_7_ + [ 1 x_7_ ^ 2 + 1 y_7_ ^ 2 ] <= 40446
c7_1: -12 x_8_ - 116 y_8_ + [ 1 x_8_ ^ 2 + 1 y_8_ ^ 2 ] <= 3528
c8_1: -12 x_9_ - 116 y_9_ + [ 1 x_9_ ^ 2 + 1 y_9_ ^ 2 ] <= 8144
c9_1: -12 x_10_ - 116 y_10_ + [ 1 x_10_ ^ 2 + 1 y_10_ ^ 2 ] <= 14667
c10_1: -12 x_11_ - 116 y_11_ + [ 1 x_11_ ^ 2 + 1 y_11_ ^ 2 ] <= 56404
c11_1: -12 x_12_ - 116 y_12_ + [ 1 x_12_ ^ 2 + 1 y_12_ ^ 2 ] <= 28673
c12_1: -12 x_13_ - 116 y_13_ + [ 1 x_13_ ^ 2 + 1 y_13_ ^ 2 ] <= 41281
c13_1: -12 x_14_ - 116 y_14_ + [ 1 x_14_ ^ 2 + 1 y_14_ ^ 2 ] <= 66350
c14_1: -12 x_15_ - 116 y_15_ + [ 1 x_15_ ^ 2 + 1 y_15_ ^ 2 ] <= 8619
c15_1: -12 x_16_ - 116 y_16_ + [ 1 x_16_ ^ 2 + 1 y_16_ ^ 2 ] <= 19015
c16_1: -12 x_17_ - 116 y_17_ + [ 1 x_17_ ^ 2 + 1 y_17_ ^ 2 ] <= 17627
c17_1: -12 x_18_ - 116 y_18_ + [ 1 x_18_ ^ 2 + 1 y_18_ ^ 2 ] <= 44409
c18_1: -12 x_19_ - 116 y_19_ + [ 1 x_19_ ^ 2 + 1 y_19_ ^ 2 ] <= 92920
c19_1: -12 x_20_ - 116 y_20_ + [ 1 x_20_ ^ 2 + 1 y_20_ ^ 2 ] <= 2124
c20_1: 188 x_1_ + 162 y_1_ + [ 1 x_1_ ^ 2 + 1 y_1_ ^ 2 ] <= 143348
c21_1: 188 x_2_ + 162 y_2_ + [ 1 x_2_ ^ 2 + 1 y_2_ ^ 2 ] <= 108130
c22_1: 188 x_4_ + 162 y_4_ + [ 1 x_4_ ^ 2 + 1 y_4_ ^ 2 ] <= 13924
c23_1: 188 x_5_ + 162 y_5_ + [ 1 x_5_ ^ 2 + 1 y_5_ ^ 2 ] <= 54350
c24_1: 188 x_6_ + 162 y_6_ + [ 1 x_6_ ^ 2 + 1 y_6_ ^ 2 ] <= 14002
c25_1: 188 x_7_ + 162 y_7_ + [ 1 x_7_ ^ 2 + 1 y_7_ ^ 2 ] <= 33168
c26_1: 188 x_8_ + 162 y_8_ + [ 1 x_8_ ^ 2 + 1 y_8_ ^ 2 ] <= 3326
c27_1: 188 x_9_ + 162 y_9_ + [ 1 x_9_ ^ 2 + 1 y_9_ ^ 2 ] <= -1373
c28_1: 188 x_10_ + 162 y_10_ + [ 1 x_10_ ^ 2 + 1 y_10_ ^ 2 ] <= 47839
c29_1: 188 x_11_ + 162 y_11_ + [ 1 x_11_ ^ 2 + 1 y_11_ ^ 2 ] <= 65067
c30_1: 188 x_12_ + 162 y_12_ + [ 1 x_12_ ^ 2 + 1 y_12_ ^ 2 ] <= 38746
c31_1: 188 x_13_ + 162 y_13_ + [ 1 x_13_ ^ 2 + 1 y_13_ ^ 2 ] <= 28135
c32_1: 188 x_14_ + 162 y_14_ + [ 1 x_14_ ^ 2 + 1 y_14_ ^ 2 ] <= 60273
c33_1: 188 x_15_ + 162 y_15_ + [ 1 x_15_ ^ 2 + 1 y_15_ ^ 2 ] <= 23115
c34_1: 188 x_16_ + 162 y_16_ + [ 1 x_16_ ^ 2 + 1 y_16_ ^ 2 ] <= -10448
c35_1: 188 x_17_ + 162 y_17_ + [ 1 x_17_ ^ 2 + 1 y_17_ ^ 2 ] <= 24047
c36_1: 188 x_18_ + 162 y_18_ + [ 1 x_18_ ^ 2 + 1 y_18_ ^ 2 ] <= 30568
c37_1: 188 x_19_ + 162 y_19_ + [ 1 x_19_ ^ 2 + 1 y_19_ ^ 2 ] <= 87859
c38_1: 188 x_20_ + 162 y_20_ + [ 1 x_20_ ^ 2 + 1 y_20_ ^ 2 ] <= 44901
c39: 30 x_1_ - 128 y_1_ + [ 1 x_1_ ^ 2 + 1 y_1_ ^ 2 ] <= 42810
c40: 30 x_2_ - 128 y_2_ + [ 1 x_2_ ^ 2 + 1 y_2_ ^ 2 ] <= 46333
c41: 30 x_3_ - 128 y_3_ + [ 1 x_3_ ^ 2 + 1 y_3_ ^ 2 ] <= 39211
c42: 30 x_4_ - 128 y_4_ + [ 1 x_4_ ^ 2 + 1 y_4_ ^ 2 ] <= 40360
c43: 30 x_5_ - 128 y_5_ + [ 1 x_5_ ^ 2 + 1 y_5_ ^ 2 ] <= 2529
c44: 30 x_6_ - 128 y_6_ + [ 1 x_6_ ^ 2 + 1 y_6_ ^ 2 ] <= 20320
c45: 30 x_7_ - 128 y_7_ + [ 1 x_7_ ^ 2 + 1 y_7_ ^ 2 ] <= 58158
c46: 30 x_8_ - 128 y_8_ + [ 1 x_8_ ^ 2 + 1 y_8_ ^ 2 ] <= 37612
c47: 30 x_9_ - 128 y_9_ + [ 1 x_9_ ^ 2 + 1 y_9_ ^ 2 ] <= 39784
c48: 30 x_10_ - 128 y_10_ + [ 1 x_10_ ^ 2 + 1 y_10_ ^ 2 ] <= 1603
c49: 30 x_11_ - 128 y_11_ + [ 1 x_11_ ^ 2 + 1 y_11_ ^ 2 ] <= 30687
c50: 30 x_12_ - 128 y_12_ + [ 1 x_12_ ^ 2 + 1 y_12_ ^ 2 ] <= 86058
c51: 30 x_14_ - 128 y_14_ + [ 1 x_14_ ^ 2 + 1 y_14_ ^ 2 ] <= 33802
c52: 30 x_15_ - 128 y_15_ + [ 1 x_15_ ^ 2 + 1 y_15_ ^ 2 ] <= 40708
c53: 30 x_16_ - 128 y_16_ + [ 1 x_16_ ^ 2 + 1 y_16_ ^ 2 ] <= 14804
c54: 30 x_17_ - 128 y_17_ + [ 1 x_17_ ^ 2 + 1 y_17_ ^ 2 ] <= 17659
c55: 30 x_18_ - 128 y_18_ + [ 1 x_18_ ^ 2 + 1 y_18_ ^ 2 ] <= 111411
c56: 30 x_19_ - 128 y_19_ + [ 1 x_19_ ^ 2 + 1 y_19_ ^ 2 ] <= 118823
c57: 30 x_20_ - 128 y_20_ + [ 1 x_20_ ^ 2 + 1 y_20_ ^ 2 ] <= 55602
c1_2: 1 x_4_ = 6
c2_2: 1 y_4_ = 58
c3_2: 1 x_3_ = -94
c4_2: 1 y_3_ = -81
c5_2: 1 x_13_ = -15
c6_2: 1 y_13_ = 64
c1: [ 1 x_1_ ^ 2 - 2 x_2_ * x_1_ + 1 x_2_ ^ 2 + 1 y_1_ ^ 2 - 2 y_2_ * y_1_ + 1 y_2_ ^ 2 ] = 23432
c2: [ 1 x_3_ ^ 2 - 2 x_4_ * x_3_ + 1 x_4_ ^ 2 + 1 y_3_ ^ 2 - 2 y_4_ * y_3_ + 1 y_4_ ^ 2 ] = 29321
c3: [ 1 x_1_ ^ 2 - 2 x_5_ * x_1_ + 1 x_5_ ^ 2 + 1 y_1_ ^ 2 - 2 y_5_ * y_1_ + 1 y_5_ ^ 2 ] = 18045
c4: [ 1 x_4_ ^ 2 - 2 x_6_ * x_4_ + 1 x_6_ ^ 2 + 1 y_4_ ^ 2 - 2 y_6_ * y_4_ + 1 y_6_ ^ 2 ] = 2960
c5: [ 1 x_4_ ^ 2 - 2 x_8_ * x_4_ + 1 x_8_ ^ 2 + 1 y_4_ ^ 2 - 2 y_8_ * y_4_ + 1 y_8_ ^ 2 ] = 6928
c6: [ 1 x_3_ ^ 2 - 2 x_9_ * x_3_ + 1 x_9_ ^ 2 + 1 y_3_ ^ 2 - 2 y_9_ * y_3_ + 1 y_9_ ^ 2 ] = 14024
c7: [ 1 x_6_ ^ 2 - 2 x_9_ * x_6_ + 1 x_9_ ^ 2 + 1 y_6_ ^ 2 - 2 y_9_ * y_6_ + 1 y_9_ ^ 2 ] = 2813
c8: [ 1 x_7_ ^ 2 - 2 x_9_ * x_7_ + 1 x_9_ ^ 2 + 1 y_7_ ^ 2 - 2 y_9_ * y_7_ + 1 y_9_ ^ 2 ] = 10394
c9: [ 1 x_2_ ^ 2 - 2 x_10_ * x_2_ + 1 x_10_ ^ 2 + 1 y_2_ ^ 2 - 2 y_10_ * y_2_ + 1 y_10_ ^ 2 ] = 21933
c10: [ 1 x_6_ ^ 2 - 2 x_10_ * x_6_ + 1 x_10_ ^ 2 + 1 y_6_ ^ 2 - 2 y_10_ * y_6_ + 1 y_10_ ^ 2 ] = 6401
c11: [ 1 x_2_ ^ 2 - 2 x_11_ * x_2_ + 1 x_11_ ^ 2 + 1 y_2_ ^ 2 - 2 y_11_ * y_2_ + 1 y_11_ ^ 2 ] = 4597
c12: [ 1 x_9_ ^ 2 - 2 x_11_ * x_9_ + 1 x_11_ ^ 2 + 1 y_9_ ^ 2 - 2 y_11_ * y_9_ + 1 y_11_ ^ 2 ] = 27304
c13: [ 1 x_10_ ^ 2 - 2 x_11_ * x_10_ + 1 x_11_ ^ 2 + 1 y_10_ ^ 2 - 2 y_11_ * y_10_ + 1 y_11_ ^ 2 ] = 12130
c14: [ 1 x_2_ ^ 2 - 2 x_12_ * x_2_ + 1 x_12_ ^ 2 + 1 y_2_ ^ 2 - 2 y_12_ * y_2_ + 1 y_12_ ^ 2 ] = 21220
c15: [ 1 x_8_ ^ 2 - 2 x_12_ * x_8_ + 1 x_12_ ^ 2 + 1 y_8_ ^ 2 - 2 y_12_ * y_8_ + 1 y_12_ ^ 2 ] = 9188
c16: [ 1 x_5_ ^ 2 - 2 x_13_ * x_5_ + 1 x_13_ ^ 2 + 1 y_5_ ^ 2 - 2 y_13_ * y_5_ + 1 y_13_ ^ 2 ] = 6850
c17: [ 1 x_10_ ^ 2 - 2 x_13_ * x_10_ + 1 x_13_ ^ 2 + 1 y_10_ ^ 2 - 2 y_13_ * y_10_ + 1 y_13_ ^ 2 ] = 5924
c18: [ 1 x_5_ ^ 2 - 2 x_14_ * x_5_ + 1 x_14_ ^ 2 + 1 y_5_ ^ 2 - 2 y_14_ * y_5_ + 1 y_14_ ^ 2 ] = 12653
c19: [ 1 x_7_ ^ 2 - 2 x_14_ * x_7_ + 1 x_14_ ^ 2 + 1 y_7_ ^ 2 - 2 y_14_ * y_7_ + 1 y_14_ ^ 2 ] = 2993
c20: [ 1 x_11_ ^ 2 - 2 x_14_ * x_11_ + 1 x_14_ ^ 2 + 1 y_11_ ^ 2 - 2 y_14_ * y_11_ + 1 y_14_ ^ 2 ] = 2873
c21: [ 1 x_2_ ^ 2 - 2 x_15_ * x_2_ + 1 x_15_ ^ 2 + 1 y_2_ ^ 2 - 2 y_15_ * y_2_ + 1 y_15_ ^ 2 ] = 36738
c22: [ 1 x_6_ ^ 2 - 2 x_15_ * x_6_ + 1 x_15_ ^ 2 + 1 y_6_ ^ 2 - 2 y_15_ * y_6_ + 1 y_15_ ^ 2 ] = 3050
c23: [ 1 x_8_ ^ 2 - 2 x_15_ * x_8_ + 1 x_15_ ^ 2 + 1 y_8_ ^ 2 - 2 y_15_ * y_8_ + 1 y_15_ ^ 2 ] = 3530
c24: [ 1 x_3_ ^ 2 - 2 x_16_ * x_3_ + 1 x_16_ ^ 2 + 1 y_3_ ^ 2 - 2 y_16_ * y_3_ + 1 y_16_ ^ 2 ] = 4949
c25: [ 1 x_8_ ^ 2 - 2 x_16_ * x_8_ + 1 x_16_ ^ 2 + 1 y_8_ ^ 2 - 2 y_16_ * y_8_ + 1 y_16_ ^ 2 ] = 4420
c26: [ 1 x_13_ ^ 2 - 2 x_16_ * x_13_ + 1 x_16_ ^ 2 + 1 y_13_ ^ 2 - 2 y_16_ * y_13_ + 1 y_16_ ^ 2 ] = 19125
c27: [ 1 x_5_ ^ 2 - 2 x_17_ * x_5_ + 1 x_17_ ^ 2 + 1 y_5_ ^ 2 - 2 y_17_ * y_5_ + 1 y_17_ ^ 2 ] = 4289
c28: [ 1 x_7_ ^ 2 - 2 x_17_ * x_7_ + 1 x_17_ ^ 2 + 1 y_7_ ^ 2 - 2 y_17_ * y_7_ + 1 y_17_ ^ 2 ] = 13049
c29: [ 1 x_8_ ^ 2 - 2 x_17_ * x_8_ + 1 x_17_ ^ 2 + 1 y_8_ ^ 2 - 2 y_17_ * y_8_ + 1 y_17_ ^ 2 ] = 3816
c30: [ 1 x_3_ ^ 2 - 2 x_18_ * x_3_ + 1 x_18_ ^ 2 + 1 y_3_ ^ 2 - 2 y_18_ * y_3_ + 1 y_18_ ^ 2 ] = 45965
c31: [ 1 x_8_ ^ 2 - 2 x_18_ * x_8_ + 1 x_18_ ^ 2 + 1 y_8_ ^ 2 - 2 y_18_ * y_8_ + 1 y_18_ ^ 2 ] = 18338
c32: [ 1 x_12_ ^ 2 - 2 x_18_ * x_12_ + 1 x_18_ ^ 2 + 1 y_12_ ^ 2 - 2 y_18_ * y_12_ + 1 y_18_ ^ 2 ] = 9602
c33: [ 1 x_2_ ^ 2 - 2 x_19_ * x_2_ + 1 x_19_ ^ 2 + 1 y_2_ ^ 2 - 2 y_19_ * y_2_ + 1 y_19_ ^ 2 ] = 19018
c34: [ 1 x_7_ ^ 2 - 2 x_19_ * x_7_ + 1 x_19_ ^ 2 + 1 y_7_ ^ 2 - 2 y_19_ * y_7_ + 1 y_19_ ^ 2 ] = 10193
c35: [ 1 x_12_ ^ 2 - 2 x_19_ * x_12_ + 1 x_19_ ^ 2 + 1 y_12_ ^ 2 - 2 y_19_ * y_12_ + 1 y_19_ ^ 2 ] = 30794
c36: [ 1 x_1_ ^ 2 - 2 x_20_ * x_1_ + 1 x_20_ ^ 2 + 1 y_1_ ^ 2 - 2 y_20_ * y_1_ + 1 y_20_ ^ 2 ] = 27540
c37: [ 1 x_4_ ^ 2 - 2 x_20_ * x_4_ + 1 x_20_ ^ 2 + 1 y_4_ ^ 2 - 2 y_20_ * y_4_ + 1 y_20_ ^ 2 ] = 5524
c38: [ 1 x_5_ ^ 2 - 2 x_20_ * x_5_ + 1 x_20_ ^ 2 + 1 y_5_ ^ 2 - 2 y_20_ * y_5_ + 1 y_20_ ^ 2 ] = 26253
Bounds
-232 <= x_1_ <= 202
-240 <= x_2_ <= 210
x_3_ = -94
x_4_ = 6
-97 <= x_5_ <= 67
-48 <= x_6_ <= 60
-203 <= x_7_ <= 126
-77 <= x_8_ <= 42
-101 <= x_9_ <= 24
-91 <= x_10_ <= 61
-202 <= x_11_ <= 172
-173 <= x_12_ <= 138
x_13_ = -15
-210 <= x_14_ <= 180
-103 <= x_15_ <= 102
-143 <= x_16_ <= -24
-139 <= x_17_ <= 104
-212 <= x_18_ <= 120
-304 <= x_19_ <= 227
-68 <= x_20_ <= 80
-153 <= y_1_ <= 281
-161 <= y_2_ <= 270
y_3_ = -81
y_4_ = 58
-18 <= y_5_ <= 146
4 <= y_6_ <= 90
-151 <= y_7_ <= 139
-25 <= y_8_ <= 55
-49 <= y_9_ <= 37
-12 <= y_10_ <= 140
-123 <= y_11_ <= 202
-121 <= y_12_ <= 151
y_13_ = 64
-131 <= y_14_ <= 194
-51 <= y_15_ <= 115
-74 <= y_16_ <= -11
-84 <= y_17_ <= 117
-160 <= y_18_ <= 133
-252 <= y_19_ <= 240
-16 <= y_20_ <= 132
General
x_1_
x_2_
x_3_
x_4_
x_5_
x_6_
x_7_
x_8_
x_9_
x_10_
x_11_
x_12_
x_13_
x_14_
x_15_
x_16_
x_17_
x_18_
x_19_
x_20_
y_1_
y_2_
y_3_
y_4_
y_5_
y_6_
y_7_
y_8_
y_9_
y_10_
y_11_
y_12_
y_13_
y_14_
y_15_
y_16_
y_17_
y_18_
y_19_
y_20_
End
