minimize
obj: 
subject to
c1_1: -74 x_1_ - 82 y_1_ + [ 1 x_1_ ^ 2 + 1 y_1_ ^ 2 ] <= 816
c2_1: -74 x_3_ - 82 y_3_ + [ 1 x_3_ ^ 2 + 1 y_3_ ^ 2 ] <= 9344
c3_1: -74 x_4_ - 82 y_4_ + [ 1 x_4_ ^ 2 + 1 y_4_ ^ 2 ] <= 3931
c4_1: -74 x_5_ - 82 y_5_ + [ 1 x_5_ ^ 2 + 1 y_5_ ^ 2 ] <= 68715
c5_1: -74 x_6_ - 82 y_6_ + [ 1 x_6_ ^ 2 + 1 y_6_ ^ 2 ] <= 28000
c6_1: -74 x_7_ - 82 y_7_ + [ 1 x_7_ ^ 2 + 1 y_7_ ^ 2 ] <= 55651
c7_1: -74 x_8_ - 82 y_8_ + [ 1 x_8_ ^ 2 + 1 y_8_ ^ 2 ] <= 35008
c8_1: -74 x_9_ - 82 y_9_ + [ 1 x_9_ ^ 2 + 1 y_9_ ^ 2 ] <= 10216
c9_1: -74 x_10_ - 82 y_10_ + [ 1 x_10_ ^ 2 + 1 y_10_ ^ 2 ] <= 55872
c10_1: -74 x_11_ - 82 y_11_ + [ 1 x_11_ ^ 2 + 1 y_11_ ^ 2 ] <= 64418
c11_1: -74 x_12_ - 82 y_12_ + [ 1 x_12_ ^ 2 + 1 y_12_ ^ 2 ] <= 50009
c12_1: -74 x_13_ - 82 y_13_ + [ 1 x_13_ ^ 2 + 1 y_13_ ^ 2 ] <= 26743
c13_1: -74 x_14_ - 82 y_14_ + [ 1 x_14_ ^ 2 + 1 y_14_ ^ 2 ] <= 7778
c14_1: -74 x_15_ - 82 y_15_ + [ 1 x_15_ ^ 2 + 1 y_15_ ^ 2 ] <= 16843
c15_1: -74 x_16_ - 82 y_16_ + [ 1 x_16_ ^ 2 + 1 y_16_ ^ 2 ] <= 19211
c16_1: -74 x_17_ - 82 y_17_ + [ 1 x_17_ ^ 2 + 1 y_17_ ^ 2 ] <= 74498
c17_1: -74 x_18_ - 82 y_18_ + [ 1 x_18_ ^ 2 + 1 y_18_ ^ 2 ] <= 59463
c18_1: -74 x_19_ - 82 y_19_ + [ 1 x_19_ ^ 2 + 1 y_19_ ^ 2 ] <= 9608
c19_1: -74 x_20_ - 82 y_20_ + [ 1 x_20_ ^ 2 + 1 y_20_ ^ 2 ] <= 37174
c20_1: 82 x_1_ - 94 y_1_ + [ 1 x_1_ ^ 2 + 1 y_1_ ^ 2 ] <= -2136
c21_1: 82 x_2_ - 94 y_2_ + [ 1 x_2_ ^ 2 + 1 y_2_ ^ 2 ] <= 6938
c22_1: 82 x_3_ - 94 y_3_ + [ 1 x_3_ ^ 2 + 1 y_3_ ^ 2 ] <= 11656
c23_1: 82 x_4_ - 94 y_4_ + [ 1 x_4_ ^ 2 + 1 y_4_ ^ 2 ] <= 112
c24_1: 82 x_5_ - 94 y_5_ + [ 1 x_5_ ^ 2 + 1 y_5_ ^ 2 ] <= 57413
c25_1: 82 x_6_ - 94 y_6_ + [ 1 x_6_ ^ 2 + 1 y_6_ ^ 2 ] <= 20419
c26_1: 82 x_7_ - 94 y_7_ + [ 1 x_7_ ^ 2 + 1 y_7_ ^ 2 ] <= 15216
c27_1: 82 x_8_ - 94 y_8_ + [ 1 x_8_ ^ 2 + 1 y_8_ ^ 2 ] <= 26661
c28_1: 82 x_9_ - 94 y_9_ + [ 1 x_9_ ^ 2 + 1 y_9_ ^ 2 ] <= 5112
c29_1: 82 x_10_ - 94 y_10_ + [ 1 x_10_ ^ 2 + 1 y_10_ ^ 2 ] <= 32332
c30_1: 82 x_11_ - 94 y_11_ + [ 1 x_11_ ^ 2 + 1 y_11_ ^ 2 ] <= 20349
c31_1: 82 x_12_ - 94 y_12_ + [ 1 x_12_ ^ 2 + 1 y_12_ ^ 2 ] <= 49883
c32_1: 82 x_13_ - 94 y_13_ + [ 1 x_13_ ^ 2 + 1 y_13_ ^ 2 ] <= 19308
c33_1: 82 x_15_ - 94 y_15_ + [ 1 x_15_ ^ 2 + 1 y_15_ ^ 2 ] <= 3752
c34_1: 82 x_16_ - 94 y_16_ + [ 1 x_16_ ^ 2 + 1 y_16_ ^ 2 ] <= 9215
c35_1: 82 x_17_ - 94 y_17_ + [ 1 x_17_ ^ 2 + 1 y_17_ ^ 2 ] <= 49875
c36_1: 82 x_18_ - 94 y_18_ + [ 1 x_18_ ^ 2 + 1 y_18_ ^ 2 ] <= 48886
c37_1: 82 x_19_ - 94 y_19_ + [ 1 x_19_ ^ 2 + 1 y_19_ ^ 2 ] <= 7160
c38_1: 82 x_20_ - 94 y_20_ + [ 1 x_20_ ^ 2 + 1 y_20_ ^ 2 ] <= 28605
c39: -44 x_1_ + 190 y_1_ + [ 1 x_1_ ^ 2 + 1 y_1_ ^ 2 ] <= 29525
c40: -44 x_2_ + 190 y_2_ + [ 1 x_2_ ^ 2 + 1 y_2_ ^ 2 ] <= 57959
c41: -44 x_3_ + 190 y_3_ + [ 1 x_3_ ^ 2 + 1 y_3_ ^ 2 ] <= 28520
c42: -44 x_4_ + 190 y_4_ + [ 1 x_4_ ^ 2 + 1 y_4_ ^ 2 ] <= 38429
c43: -44 x_5_ + 190 y_5_ + [ 1 x_5_ ^ 2 + 1 y_5_ ^ 2 ] <= 14571
c44: -44 x_6_ + 190 y_6_ + [ 1 x_6_ ^ 2 + 1 y_6_ ^ 2 ] <= 48593
c45: -44 x_7_ + 190 y_7_ + [ 1 x_7_ ^ 2 + 1 y_7_ ^ 2 ] <= -9204
c46: -44 x_8_ + 190 y_8_ + [ 1 x_8_ ^ 2 + 1 y_8_ ^ 2 ] <= 59414
c47: -44 x_9_ + 190 y_9_ + [ 1 x_9_ ^ 2 + 1 y_9_ ^ 2 ] <= 28063
c48: -44 x_10_ + 190 y_10_ + [ 1 x_10_ ^ 2 + 1 y_10_ ^ 2 ] <= -5117
c49: -44 x_12_ + 190 y_12_ + [ 1 x_12_ ^ 2 + 1 y_12_ ^ 2 ] <= 89104
c50: -44 x_13_ + 190 y_13_ + [ 1 x_13_ ^ 2 + 1 y_13_ ^ 2 ] <= 50344
c51: -44 x_14_ + 190 y_14_ + [ 1 x_14_ ^ 2 + 1 y_14_ ^ 2 ] <= 14730
c52: -44 x_15_ + 190 y_15_ + [ 1 x_15_ ^ 2 + 1 y_15_ ^ 2 ] <= 19111
c53: -44 x_16_ + 190 y_16_ + [ 1 x_16_ ^ 2 + 1 y_16_ ^ 2 ] <= 63481
c54: -44 x_17_ + 190 y_17_ + [ 1 x_17_ ^ 2 + 1 y_17_ ^ 2 ] <= 2837
c55: -44 x_18_ + 190 y_18_ + [ 1 x_18_ ^ 2 + 1 y_18_ ^ 2 ] <= 18496
c56: -44 x_19_ + 190 y_19_ + [ 1 x_19_ ^ 2 + 1 y_19_ ^ 2 ] <= 58512
c57: -44 x_20_ + 190 y_20_ + [ 1 x_20_ ^ 2 + 1 y_20_ ^ 2 ] <= 62631
c1_2: 1 x_2_ = 37
c2_2: 1 y_2_ = 41
c3_2: 1 x_14_ = -41
c4_2: 1 y_14_ = 47
c5_2: 1 x_11_ = 22
c6_2: 1 y_11_ = -95
c1: [ 1 x_1_ ^ 2 - 2 x_2_ * x_1_ + 1 x_2_ ^ 2 + 1 y_1_ ^ 2 - 2 y_2_ * y_1_ + 1 y_2_ ^ 2 ] = 3866
c2: [ 1 x_1_ ^ 2 - 2 x_3_ * x_1_ + 1 x_3_ ^ 2 + 1 y_1_ ^ 2 - 2 y_3_ * y_1_ + 1 y_3_ ^ 2 ] = 6856
c3: [ 1 x_2_ ^ 2 - 2 x_3_ * x_2_ + 1 x_3_ ^ 2 + 1 y_2_ ^ 2 - 2 y_3_ * y_2_ + 1 y_3_ ^ 2 ] = 12394
c4: [ 1 x_1_ ^ 2 - 2 x_4_ * x_1_ + 1 x_4_ ^ 2 + 1 y_1_ ^ 2 - 2 y_4_ * y_1_ + 1 y_4_ ^ 2 ] = 457
c5: [ 1 x_3_ ^ 2 - 2 x_5_ * x_3_ + 1 x_5_ ^ 2 + 1 y_3_ ^ 2 - 2 y_5_ * y_3_ + 1 y_5_ ^ 2 ] = 26093
c6: [ 1 x_5_ ^ 2 - 2 x_6_ * x_5_ + 1 x_6_ ^ 2 + 1 y_5_ ^ 2 - 2 y_6_ * y_5_ + 1 y_6_ ^ 2 ] = 8405
c7: [ 1 x_5_ ^ 2 - 2 x_7_ * x_5_ + 1 x_7_ ^ 2 + 1 y_5_ ^ 2 - 2 y_7_ * y_5_ + 1 y_7_ ^ 2 ] = 18965
c8: [ 1 x_5_ ^ 2 - 2 x_8_ * x_5_ + 1 x_8_ ^ 2 + 1 y_5_ ^ 2 - 2 y_8_ * y_5_ + 1 y_8_ ^ 2 ] = 11525
c9: [ 1 x_4_ ^ 2 - 2 x_9_ * x_4_ + 1 x_9_ ^ 2 + 1 y_4_ ^ 2 - 2 y_9_ * y_4_ + 1 y_9_ ^ 2 ] = 1000
c10: [ 1 x_8_ ^ 2 - 2 x_9_ * x_8_ + 1 x_9_ ^ 2 + 1 y_8_ ^ 2 - 2 y_9_ * y_8_ + 1 y_9_ ^ 2 ] = 6385
c11: [ 1 x_6_ ^ 2 - 2 x_10_ * x_6_ + 1 x_10_ ^ 2 + 1 y_6_ ^ 2 - 2 y_10_ * y_6_ + 1 y_10_ ^ 2 ] = 30545
c12: [ 1 x_9_ ^ 2 - 2 x_10_ * x_9_ + 1 x_10_ ^ 2 + 1 y_9_ ^ 2 - 2 y_10_ * y_9_ + 1 y_10_ ^ 2 ] = 16272
c13: [ 1 x_3_ ^ 2 - 2 x_11_ * x_3_ + 1 x_11_ ^ 2 + 1 y_3_ ^ 2 - 2 y_11_ * y_3_ + 1 y_11_ ^ 2 ] = 38029
c14: [ 1 x_7_ ^ 2 - 2 x_11_ * x_7_ + 1 x_11_ ^ 2 + 1 y_7_ ^ 2 - 2 y_11_ * y_7_ + 1 y_11_ ^ 2 ] = 305
c15: [ 1 x_10_ ^ 2 - 2 x_11_ * x_10_ + 1 x_11_ ^ 2 + 1 y_10_ ^ 2 - 2 y_11_ * y_10_ + 1 y_11_ ^ 2 ] = 4392
c16: [ 1 x_3_ ^ 2 - 2 x_12_ * x_3_ + 1 x_12_ ^ 2 + 1 y_3_ ^ 2 - 2 y_12_ * y_3_ + 1 y_12_ ^ 2 ] = 14165
c17: [ 1 x_8_ ^ 2 - 2 x_12_ * x_8_ + 1 x_12_ ^ 2 + 1 y_8_ ^ 2 - 2 y_12_ * y_8_ + 1 y_12_ ^ 2 ] = 7717
c18: [ 1 x_6_ ^ 2 - 2 x_13_ * x_6_ + 1 x_13_ ^ 2 + 1 y_6_ ^ 2 - 2 y_13_ * y_6_ + 1 y_13_ ^ 2 ] = 13
c19: [ 1 x_9_ ^ 2 - 2 x_13_ * x_9_ + 1 x_13_ ^ 2 + 1 y_9_ ^ 2 - 2 y_13_ * y_9_ + 1 y_13_ ^ 2 ] = 3298
c20: [ 1 x_1_ ^ 2 - 2 x_14_ * x_1_ + 1 x_14_ ^ 2 + 1 y_1_ ^ 2 - 2 y_14_ * y_1_ + 1 y_14_ ^ 2 ] = 1754
c21: [ 1 x_7_ ^ 2 - 2 x_14_ * x_7_ + 1 x_14_ ^ 2 + 1 y_7_ ^ 2 - 2 y_14_ * y_7_ + 1 y_14_ ^ 2 ] = 19106
c22: [ 1 x_4_ ^ 2 - 2 x_15_ * x_4_ + 1 x_15_ ^ 2 + 1 y_4_ ^ 2 - 2 y_15_ * y_4_ + 1 y_15_ ^ 2 ] = 3305
c23: [ 1 x_10_ ^ 2 - 2 x_15_ * x_10_ + 1 x_15_ ^ 2 + 1 y_10_ ^ 2 - 2 y_15_ * y_10_ + 1 y_15_ ^ 2 ] = 10589
c24: [ 1 x_14_ ^ 2 - 2 x_15_ * x_14_ + 1 x_15_ ^ 2 + 1 y_14_ ^ 2 - 2 y_15_ * y_14_ + 1 y_15_ ^ 2 ] = 7642
c25: [ 1 x_2_ ^ 2 - 2 x_16_ * x_2_ + 1 x_16_ ^ 2 + 1 y_2_ ^ 2 - 2 y_16_ * y_2_ + 1 y_16_ ^ 2 ] = 22261
c26: [ 1 x_12_ ^ 2 - 2 x_16_ * x_12_ + 1 x_16_ ^ 2 + 1 y_12_ ^ 2 - 2 y_16_ * y_12_ + 1 y_16_ ^ 2 ] = 13786
c27: [ 1 x_14_ ^ 2 - 2 x_16_ * x_14_ + 1 x_16_ ^ 2 + 1 y_14_ ^ 2 - 2 y_16_ * y_14_ + 1 y_16_ ^ 2 ] = 13105
c28: [ 1 x_3_ ^ 2 - 2 x_17_ * x_3_ + 1 x_17_ ^ 2 + 1 y_3_ ^ 2 - 2 y_17_ * y_3_ + 1 y_17_ ^ 2 ] = 27938
c29: [ 1 x_7_ ^ 2 - 2 x_17_ * x_7_ + 1 x_17_ ^ 2 + 1 y_7_ ^ 2 - 2 y_17_ * y_7_ + 1 y_17_ ^ 2 ] = 8770
c30: [ 1 x_13_ ^ 2 - 2 x_17_ * x_13_ + 1 x_17_ ^ 2 + 1 y_13_ ^ 2 - 2 y_17_ * y_13_ + 1 y_17_ ^ 2 ] = 28593
c31: [ 1 x_10_ ^ 2 - 2 x_18_ * x_10_ + 1 x_18_ ^ 2 + 1 y_10_ ^ 2 - 2 y_18_ * y_10_ + 1 y_18_ ^ 2 ] = 10216
c32: [ 1 x_13_ ^ 2 - 2 x_18_ * x_13_ + 1 x_18_ ^ 2 + 1 y_13_ ^ 2 - 2 y_18_ * y_13_ + 1 y_18_ ^ 2 ] = 5994
c33: [ 1 x_2_ ^ 2 - 2 x_19_ * x_2_ + 1 x_19_ ^ 2 + 1 y_2_ ^ 2 - 2 y_19_ * y_2_ + 1 y_19_ ^ 2 ] = 12658
c34: [ 1 x_6_ ^ 2 - 2 x_19_ * x_6_ + 1 x_19_ ^ 2 + 1 y_6_ ^ 2 - 2 y_19_ * y_6_ + 1 y_19_ ^ 2 ] = 14324
c35: [ 1 x_14_ ^ 2 - 2 x_19_ * x_14_ + 1 x_19_ ^ 2 + 1 y_14_ ^ 2 - 2 y_19_ * y_14_ + 1 y_19_ ^ 2 ] = 11050
c36: [ 1 x_4_ ^ 2 - 2 x_20_ * x_4_ + 1 x_20_ ^ 2 + 1 y_4_ ^ 2 - 2 y_20_ * y_4_ + 1 y_20_ ^ 2 ] = 13690
c37: [ 1 x_12_ ^ 2 - 2 x_20_ * x_12_ + 1 x_20_ ^ 2 + 1 y_12_ ^ 2 - 2 y_20_ * y_12_ + 1 y_20_ ^ 2 ] = 9442
c38: [ 1 x_18_ ^ 2 - 2 x_20_ * x_18_ + 1 x_20_ ^ 2 + 1 y_18_ ^ 2 - 2 y_20_ * y_18_ + 1 y_20_ ^ 2 ] = 10250
Bounds
-25 <= x_1_ <= 0
x_2_ = 37
-74 <= x_3_ <= 83
-46 <= x_4_ <= 22
-133 <= x_5_ <= 177
-139 <= x_6_ <= 114
5 <= x_7_ <= 39
-158 <= x_8_ <= 133
-78 <= x_9_ <= 53
-44 <= x_10_ <= 88
x_11_ = 22
-193 <= x_12_ <= 190
-135 <= x_13_ <= 111
x_14_ = -41
-104 <= x_15_ <= 46
-112 <= x_16_ <= 73
-89 <= x_17_ <= 133
-145 <= x_18_ <= 188
-75 <= x_19_ <= 64
-163 <= x_20_ <= 139
6 <= y_1_ <= 88
y_2_ = 41
-70 <= y_3_ <= 100
-16 <= y_4_ <= 110
-200 <= y_5_ <= 60
-108 <= y_6_ <= 146
-91 <= y_7_ <= -78
-127 <= y_8_ <= 167
-47 <= y_9_ <= 98
-143 <= y_10_ <= -29
y_11_ = -95
-184 <= y_12_ <= 219
-105 <= y_13_ <= 149
y_14_ = 47
-40 <= y_15_ <= 74
-67 <= y_16_ <= 161
-184 <= y_17_ <= 16
-182 <= y_18_ <= 72
-58 <= y_19_ <= 152
-133 <= y_20_ <= 173
General
x_1_
x_2_
x_3_
x_4_
x_5_
x_6_
x_7_
x_8_
x_9_
x_10_
x_11_
x_12_
x_13_
x_14_
x_15_
x_16_
x_17_
x_18_
x_19_
x_20_
y_1_
y_2_
y_3_
y_4_
y_5_
y_6_
y_7_
y_8_
y_9_
y_10_
y_11_
y_12_
y_13_
y_14_
y_15_
y_16_
y_17_
y_18_
y_19_
y_20_
End
