minimize
obj: 
subject to
c1_1: 114 x_1_ - 198 y_1_ + [ 1 x_1_ ^ 2 + 1 y_1_ ^ 2 ] <= 2815
c2_1: 114 x_2_ - 198 y_2_ + [ 1 x_2_ ^ 2 + 1 y_2_ ^ 2 ] <= 14982
c3_1: 114 x_3_ - 198 y_3_ + [ 1 x_3_ ^ 2 + 1 y_3_ ^ 2 ] <= 69515
c4_1: 114 x_4_ - 198 y_4_ + [ 1 x_4_ ^ 2 + 1 y_4_ ^ 2 ] <= 22139
c5_1: 114 x_5_ - 198 y_5_ + [ 1 x_5_ ^ 2 + 1 y_5_ ^ 2 ] <= 1486
c6_1: 114 x_6_ - 198 y_6_ + [ 1 x_6_ ^ 2 + 1 y_6_ ^ 2 ] <= 118778
c7_1: 114 x_7_ - 198 y_7_ + [ 1 x_7_ ^ 2 + 1 y_7_ ^ 2 ] <= 64567
c8_1: 114 x_8_ - 198 y_8_ + [ 1 x_8_ ^ 2 + 1 y_8_ ^ 2 ] <= 84328
c9_1: 114 x_9_ - 198 y_9_ + [ 1 x_9_ ^ 2 + 1 y_9_ ^ 2 ] <= 12413
c10_1: 114 x_10_ - 198 y_10_ + [ 1 x_10_ ^ 2 + 1 y_10_ ^ 2 ] <= -2213
c11_1: 114 x_11_ - 198 y_11_ + [ 1 x_11_ ^ 2 + 1 y_11_ ^ 2 ] <= 42396
c12_1: 114 x_12_ - 198 y_12_ + [ 1 x_12_ ^ 2 + 1 y_12_ ^ 2 ] <= 11705
c13_1: 114 x_13_ - 198 y_13_ + [ 1 x_13_ ^ 2 + 1 y_13_ ^ 2 ] <= -11152
c14_1: 114 x_14_ - 198 y_14_ + [ 1 x_14_ ^ 2 + 1 y_14_ ^ 2 ] <= 11044
c15_1: 114 x_15_ - 198 y_15_ + [ 1 x_15_ ^ 2 + 1 y_15_ ^ 2 ] <= 1400
c16_1: 114 x_16_ - 198 y_16_ + [ 1 x_16_ ^ 2 + 1 y_16_ ^ 2 ] <= 85272
c17_1: 114 x_18_ - 198 y_18_ + [ 1 x_18_ ^ 2 + 1 y_18_ ^ 2 ] <= 69372
c18_1: 114 x_19_ - 198 y_19_ + [ 1 x_19_ ^ 2 + 1 y_19_ ^ 2 ] <= 82813
c19_1: 114 x_20_ - 198 y_20_ + [ 1 x_20_ ^ 2 + 1 y_20_ ^ 2 ] <= 31230
c20_1: -158 x_1_ + 146 y_1_ + [ 1 x_1_ ^ 2 + 1 y_1_ ^ 2 ] <= 99277
c21_1: -158 x_2_ + 146 y_2_ + [ 1 x_2_ ^ 2 + 1 y_2_ ^ 2 ] <= 9347
c22_1: -158 x_3_ + 146 y_3_ + [ 1 x_3_ ^ 2 + 1 y_3_ ^ 2 ] <= 65559
c23_1: -158 x_4_ + 146 y_4_ + [ 1 x_4_ ^ 2 + 1 y_4_ ^ 2 ] <= 60964
c24_1: -158 x_5_ + 146 y_5_ + [ 1 x_5_ ^ 2 + 1 y_5_ ^ 2 ] <= 25098
c25_1: -158 x_6_ + 146 y_6_ + [ 1 x_6_ ^ 2 + 1 y_6_ ^ 2 ] <= 8752
c26_1: -158 x_7_ + 146 y_7_ + [ 1 x_7_ ^ 2 + 1 y_7_ ^ 2 ] <= 20936
c27_1: -158 x_9_ + 146 y_9_ + [ 1 x_9_ ^ 2 + 1 y_9_ ^ 2 ] <= 73919
c28_1: -158 x_10_ + 146 y_10_ + [ 1 x_10_ ^ 2 + 1 y_10_ ^ 2 ] <= 44559
c29_1: -158 x_11_ + 146 y_11_ + [ 1 x_11_ ^ 2 + 1 y_11_ ^ 2 ] <= 61421
c30_1: -158 x_12_ + 146 y_12_ + [ 1 x_12_ ^ 2 + 1 y_12_ ^ 2 ] <= 32998
c31_1: -158 x_13_ + 146 y_13_ + [ 1 x_13_ ^ 2 + 1 y_13_ ^ 2 ] <= 60516
c32_1: -158 x_14_ + 146 y_14_ + [ 1 x_14_ ^ 2 + 1 y_14_ ^ 2 ] <= 13027
c33_1: -158 x_15_ + 146 y_15_ + [ 1 x_15_ ^ 2 + 1 y_15_ ^ 2 ] <= 32528
c34_1: -158 x_16_ + 146 y_16_ + [ 1 x_16_ ^ 2 + 1 y_16_ ^ 2 ] <= 148873
c35_1: -158 x_17_ + 146 y_17_ + [ 1 x_17_ ^ 2 + 1 y_17_ ^ 2 ] <= 85808
c36_1: -158 x_18_ + 146 y_18_ + [ 1 x_18_ ^ 2 + 1 y_18_ ^ 2 ] <= 60176
c37_1: -158 x_19_ + 146 y_19_ + [ 1 x_19_ ^ 2 + 1 y_19_ ^ 2 ] <= 54307
c38_1: -158 x_20_ + 146 y_20_ + [ 1 x_20_ ^ 2 + 1 y_20_ ^ 2 ] <= 23634
c39: 70 x_1_ + 54 y_1_ + [ 1 x_1_ ^ 2 + 1 y_1_ ^ 2 ] <= 60172
c40: 70 x_2_ + 54 y_2_ + [ 1 x_2_ ^ 2 + 1 y_2_ ^ 2 ] <= -105
c41: 70 x_3_ + 54 y_3_ + [ 1 x_3_ ^ 2 + 1 y_3_ ^ 2 ] <= 29055
c42: 70 x_4_ + 54 y_4_ + [ 1 x_4_ ^ 2 + 1 y_4_ ^ 2 ] <= 7991
c43: 70 x_5_ + 54 y_5_ + [ 1 x_5_ ^ 2 + 1 y_5_ ^ 2 ] <= 6121
c44: 70 x_6_ + 54 y_6_ + [ 1 x_6_ ^ 2 + 1 y_6_ ^ 2 ] <= 58312
c45: 70 x_7_ + 54 y_7_ + [ 1 x_7_ ^ 2 + 1 y_7_ ^ 2 ] <= 109455
c46: 70 x_8_ + 54 y_8_ + [ 1 x_8_ ^ 2 + 1 y_8_ ^ 2 ] <= 33250
c47: 70 x_9_ + 54 y_9_ + [ 1 x_9_ ^ 2 + 1 y_9_ ^ 2 ] <= 34435
c48: 70 x_10_ + 54 y_10_ + [ 1 x_10_ ^ 2 + 1 y_10_ ^ 2 ] <= 16349
c49: 70 x_11_ + 54 y_11_ + [ 1 x_11_ ^ 2 + 1 y_11_ ^ 2 ] <= 40288
c50: 70 x_12_ + 54 y_12_ + [ 1 x_12_ ^ 2 + 1 y_12_ ^ 2 ] <= 10033
c51: 70 x_13_ + 54 y_13_ + [ 1 x_13_ ^ 2 + 1 y_13_ ^ 2 ] <= 25889
c52: 70 x_14_ + 54 y_14_ + [ 1 x_14_ ^ 2 + 1 y_14_ ^ 2 ] <= 1094
c53: 70 x_15_ + 54 y_15_ + [ 1 x_15_ ^ 2 + 1 y_15_ ^ 2 ] <= 9790
c54: 70 x_16_ + 54 y_16_ + [ 1 x_16_ ^ 2 + 1 y_16_ ^ 2 ] <= 87403
c55: 70 x_17_ + 54 y_17_ + [ 1 x_17_ ^ 2 + 1 y_17_ ^ 2 ] <= 42326
c56: 70 x_18_ + 54 y_18_ + [ 1 x_18_ ^ 2 + 1 y_18_ ^ 2 ] <= 25678
c57: 70 x_19_ + 54 y_19_ + [ 1 x_19_ ^ 2 + 1 y_19_ ^ 2 ] <= 15307
c1_2: 1 x_17_ = -57
c2_2: 1 y_17_ = 99
c3_2: 1 x_8_ = 79
c4_2: 1 y_8_ = -73
c5_2: 1 x_20_ = -35
c6_2: 1 y_20_ = -27
c1: [ 1 x_2_ ^ 2 - 2 x_3_ * x_2_ + 1 x_3_ ^ 2 + 1 y_2_ ^ 2 - 2 y_3_ * y_2_ + 1 y_3_ ^ 2 ] = 17714
c2: [ 1 x_4_ ^ 2 - 2 x_5_ * x_4_ + 1 x_5_ ^ 2 + 1 y_4_ ^ 2 - 2 y_5_ * y_4_ + 1 y_5_ ^ 2 ] = 6058
c3: [ 1 x_3_ ^ 2 - 2 x_6_ * x_3_ + 1 x_6_ ^ 2 + 1 y_3_ ^ 2 - 2 y_6_ * y_3_ + 1 y_6_ ^ 2 ] = 32513
c4: [ 1 x_1_ ^ 2 - 2 x_7_ * x_1_ + 1 x_7_ ^ 2 + 1 y_1_ ^ 2 - 2 y_7_ * y_1_ + 1 y_7_ ^ 2 ] = 23300
c5: [ 1 x_3_ ^ 2 - 2 x_7_ * x_3_ + 1 x_7_ ^ 2 + 1 y_3_ ^ 2 - 2 y_7_ * y_3_ + 1 y_7_ ^ 2 ] = 24865
c6: [ 1 x_2_ ^ 2 - 2 x_8_ * x_2_ + 1 x_8_ ^ 2 + 1 y_2_ ^ 2 - 2 y_8_ * y_2_ + 1 y_8_ ^ 2 ] = 20917
c7: [ 1 x_6_ ^ 2 - 2 x_8_ * x_6_ + 1 x_8_ ^ 2 + 1 y_6_ ^ 2 - 2 y_8_ * y_6_ + 1 y_8_ ^ 2 ] = 20322
c8: [ 1 x_7_ ^ 2 - 2 x_8_ * x_7_ + 1 x_8_ ^ 2 + 1 y_7_ ^ 2 - 2 y_8_ * y_7_ + 1 y_8_ ^ 2 ] = 32506
c9: [ 1 x_3_ ^ 2 - 2 x_9_ * x_3_ + 1 x_9_ ^ 2 + 1 y_3_ ^ 2 - 2 y_9_ * y_3_ + 1 y_9_ ^ 2 ] = 16325
c10: [ 1 x_4_ ^ 2 - 2 x_9_ * x_4_ + 1 x_9_ ^ 2 + 1 y_4_ ^ 2 - 2 y_9_ * y_4_ + 1 y_9_ ^ 2 ] = 19193
c11: [ 1 x_4_ ^ 2 - 2 x_10_ * x_4_ + 1 x_10_ ^ 2 + 1 y_4_ ^ 2 - 2 y_10_ * y_4_ + 1 y_10_ ^ 2 ] = 6970
c12: [ 1 x_9_ ^ 2 - 2 x_10_ * x_9_ + 1 x_10_ ^ 2 + 1 y_9_ ^ 2 - 2 y_10_ * y_9_ + 1 y_10_ ^ 2 ] = 3077
c13: [ 1 x_6_ ^ 2 - 2 x_11_ * x_6_ + 1 x_11_ ^ 2 + 1 y_6_ ^ 2 - 2 y_11_ * y_6_ + 1 y_11_ ^ 2 ] = 16285
c14: [ 1 x_9_ ^ 2 - 2 x_11_ * x_9_ + 1 x_11_ ^ 2 + 1 y_9_ ^ 2 - 2 y_11_ * y_9_ + 1 y_11_ ^ 2 ] = 6185
c15: [ 1 x_2_ ^ 2 - 2 x_12_ * x_2_ + 1 x_12_ ^ 2 + 1 y_2_ ^ 2 - 2 y_12_ * y_2_ + 1 y_12_ ^ 2 ] = 4420
c16: [ 1 x_5_ ^ 2 - 2 x_12_ * x_5_ + 1 x_12_ ^ 2 + 1 y_5_ ^ 2 - 2 y_12_ * y_5_ + 1 y_12_ ^ 2 ] = 2258
c17: [ 1 x_10_ ^ 2 - 2 x_12_ * x_10_ + 1 x_12_ ^ 2 + 1 y_10_ ^ 2 - 2 y_12_ * y_10_ + 1 y_12_ ^ 2 ] = 2834
c18: [ 1 x_1_ ^ 2 - 2 x_13_ * x_1_ + 1 x_13_ ^ 2 + 1 y_1_ ^ 2 - 2 y_13_ * y_1_ + 1 y_13_ ^ 2 ] = 6788
c19: [ 1 x_5_ ^ 2 - 2 x_13_ * x_5_ + 1 x_13_ ^ 2 + 1 y_5_ ^ 2 - 2 y_13_ * y_5_ + 1 y_13_ ^ 2 ] = 5929
c20: [ 1 x_2_ ^ 2 - 2 x_14_ * x_2_ + 1 x_14_ ^ 2 + 1 y_2_ ^ 2 - 2 y_14_ * y_2_ + 1 y_14_ ^ 2 ] = 149
c21: [ 1 x_5_ ^ 2 - 2 x_14_ * x_5_ + 1 x_14_ ^ 2 + 1 y_5_ ^ 2 - 2 y_14_ * y_5_ + 1 y_14_ ^ 2 ] = 1201
c22: [ 1 x_10_ ^ 2 - 2 x_14_ * x_10_ + 1 x_14_ ^ 2 + 1 y_10_ ^ 2 - 2 y_14_ * y_10_ + 1 y_14_ ^ 2 ] = 6413
c23: [ 1 x_1_ ^ 2 - 2 x_15_ * x_1_ + 1 x_15_ ^ 2 + 1 y_1_ ^ 2 - 2 y_15_ * y_1_ + 1 y_15_ ^ 2 ] = 30772
c24: [ 1 x_2_ ^ 2 - 2 x_15_ * x_2_ + 1 x_15_ ^ 2 + 1 y_2_ ^ 2 - 2 y_15_ * y_2_ + 1 y_15_ ^ 2 ] = 4273
c25: [ 1 x_11_ ^ 2 - 2 x_15_ * x_11_ + 1 x_15_ ^ 2 + 1 y_11_ ^ 2 - 2 y_15_ * y_11_ + 1 y_15_ ^ 2 ] = 13285
c26: [ 1 x_1_ ^ 2 - 2 x_16_ * x_1_ + 1 x_16_ ^ 2 + 1 y_1_ ^ 2 - 2 y_16_ * y_1_ + 1 y_16_ ^ 2 ] = 35197
c27: [ 1 x_9_ ^ 2 - 2 x_16_ * x_9_ + 1 x_16_ ^ 2 + 1 y_9_ ^ 2 - 2 y_16_ * y_9_ + 1 y_16_ ^ 2 ] = 32449
c28: [ 1 x_10_ ^ 2 - 2 x_17_ * x_10_ + 1 x_17_ ^ 2 + 1 y_10_ ^ 2 - 2 y_17_ * y_10_ + 1 y_17_ ^ 2 ] = 10837
c29: [ 1 x_13_ ^ 2 - 2 x_17_ * x_13_ + 1 x_17_ ^ 2 + 1 y_13_ ^ 2 - 2 y_17_ * y_13_ + 1 y_17_ ^ 2 ] = 1898
c30: [ 1 x_15_ ^ 2 - 2 x_17_ * x_15_ + 1 x_17_ ^ 2 + 1 y_15_ ^ 2 - 2 y_17_ * y_15_ + 1 y_17_ ^ 2 ] = 14450
c31: [ 1 x_2_ ^ 2 - 2 x_18_ * x_2_ + 1 x_18_ ^ 2 + 1 y_2_ ^ 2 - 2 y_18_ * y_2_ + 1 y_18_ ^ 2 ] = 15185
c32: [ 1 x_11_ ^ 2 - 2 x_18_ * x_11_ + 1 x_18_ ^ 2 + 1 y_11_ ^ 2 - 2 y_18_ * y_11_ + 1 y_18_ ^ 2 ] = 2665
c33: [ 1 x_16_ ^ 2 - 2 x_18_ * x_16_ + 1 x_18_ ^ 2 + 1 y_16_ ^ 2 - 2 y_18_ * y_16_ + 1 y_18_ ^ 2 ] = 17609
c34: [ 1 x_6_ ^ 2 - 2 x_19_ * x_6_ + 1 x_19_ ^ 2 + 1 y_6_ ^ 2 - 2 y_19_ * y_6_ + 1 y_19_ ^ 2 ] = 13021
c35: [ 1 x_11_ ^ 2 - 2 x_19_ * x_11_ + 1 x_19_ ^ 2 + 1 y_11_ ^ 2 - 2 y_19_ * y_11_ + 1 y_19_ ^ 2 ] = 5498
c36: [ 1 x_2_ ^ 2 - 2 x_20_ * x_2_ + 1 x_20_ ^ 2 + 1 y_2_ ^ 2 - 2 y_20_ * y_2_ + 1 y_20_ ^ 2 ] = 1849
c37: [ 1 x_4_ ^ 2 - 2 x_20_ * x_4_ + 1 x_20_ ^ 2 + 1 y_4_ ^ 2 - 2 y_20_ * y_4_ + 1 y_20_ ^ 2 ] = 9945
c38: [ 1 x_19_ ^ 2 - 2 x_20_ * x_19_ + 1 x_20_ ^ 2 + 1 y_19_ ^ 2 - 2 y_20_ * y_19_ + 1 y_20_ ^ 2 ] = 17261
Bounds
-182 <= x_1_ <= 68
-65 <= x_2_ <= 8
-198 <= x_3_ <= 141
-134 <= x_4_ <= 64
-112 <= x_5_ <= 54
-63 <= x_6_ <= 210
-101 <= x_7_ <= 221
x_8_ = 79
-213 <= x_9_ <= 102
-157 <= x_10_ <= 47
-191 <= x_11_ <= 170
-132 <= x_12_ <= 74
-100 <= x_13_ <= -14
-77 <= x_14_ <= 20
-130 <= x_15_ <= 63
-321 <= x_16_ <= 256
x_17_ = -57
-188 <= x_18_ <= 131
-166 <= x_19_ <= 96
x_20_ = -35
-26 <= y_1_ <= 222
-68 <= y_2_ <= 16
-188 <= y_3_ <= 149
-88 <= y_4_ <= 72
-21 <= y_5_ <= 62
-215 <= y_6_ <= 69
-179 <= y_7_ <= 107
y_8_ = -73
-60 <= y_9_ <= 163
-5 <= y_10_ <= 108
-136 <= y_11_ <= 178
-58 <= y_12_ <= 82
56 <= y_13_ <= 139
-56 <= y_14_ <= 28
-21 <= y_15_ <= 81
-214 <= y_16_ <= 271
y_17_ = 99
-188 <= y_18_ <= 139
-158 <= y_19_ <= 104
y_20_ = -27
General
x_1_
x_2_
x_3_
x_4_
x_5_
x_6_
x_7_
x_8_
x_9_
x_10_
x_11_
x_12_
x_13_
x_14_
x_15_
x_16_
x_17_
x_18_
x_19_
x_20_
y_1_
y_2_
y_3_
y_4_
y_5_
y_6_
y_7_
y_8_
y_9_
y_10_
y_11_
y_12_
y_13_
y_14_
y_15_
y_16_
y_17_
y_18_
y_19_
y_20_
End
