minimize
obj: 
subject to
c1_1: 174 x_1_ + 106 y_1_ + [ 1 x_1_ ^ 2 + 1 y_1_ ^ 2 ] <= 76040
c2_1: 174 x_2_ + 106 y_2_ + [ 1 x_2_ ^ 2 + 1 y_2_ ^ 2 ] <= 86381
c3_1: 174 x_3_ + 106 y_3_ + [ 1 x_3_ ^ 2 + 1 y_3_ ^ 2 ] <= 58532
c4_1: 174 x_4_ + 106 y_4_ + [ 1 x_4_ ^ 2 + 1 y_4_ ^ 2 ] <= 2326
c5_1: 174 x_5_ + 106 y_5_ + [ 1 x_5_ ^ 2 + 1 y_5_ ^ 2 ] <= 97902
c6_1: 174 x_6_ + 106 y_6_ + [ 1 x_6_ ^ 2 + 1 y_6_ ^ 2 ] <= 44845
c7_1: 174 x_7_ + 106 y_7_ + [ 1 x_7_ ^ 2 + 1 y_7_ ^ 2 ] <= 166774
c8_1: 174 x_8_ + 106 y_8_ + [ 1 x_8_ ^ 2 + 1 y_8_ ^ 2 ] <= 98713
c9_1: 174 x_9_ + 106 y_9_ + [ 1 x_9_ ^ 2 + 1 y_9_ ^ 2 ] <= 29041
c10_1: 174 x_10_ + 106 y_10_ + [ 1 x_10_ ^ 2 + 1 y_10_ ^ 2 ] <= 35189
c11_1: 174 x_11_ + 106 y_11_ + [ 1 x_11_ ^ 2 + 1 y_11_ ^ 2 ] <= 13576
c12_1: 174 x_12_ + 106 y_12_ + [ 1 x_12_ ^ 2 + 1 y_12_ ^ 2 ] <= 20227
c13_1: 174 x_14_ + 106 y_14_ + [ 1 x_14_ ^ 2 + 1 y_14_ ^ 2 ] <= 78373
c14_1: 174 x_15_ + 106 y_15_ + [ 1 x_15_ ^ 2 + 1 y_15_ ^ 2 ] <= 114333
c15_1: 174 x_16_ + 106 y_16_ + [ 1 x_16_ ^ 2 + 1 y_16_ ^ 2 ] <= 61274
c16_1: 174 x_17_ + 106 y_17_ + [ 1 x_17_ ^ 2 + 1 y_17_ ^ 2 ] <= 96024
c17_1: 174 x_18_ + 106 y_18_ + [ 1 x_18_ ^ 2 + 1 y_18_ ^ 2 ] <= 71419
c18_1: 174 x_19_ + 106 y_19_ + [ 1 x_19_ ^ 2 + 1 y_19_ ^ 2 ] <= 13163
c19_1: 174 x_20_ + 106 y_20_ + [ 1 x_20_ ^ 2 + 1 y_20_ ^ 2 ] <= 81801
c20_1: 174 x_21_ + 106 y_21_ + [ 1 x_21_ ^ 2 + 1 y_21_ ^ 2 ] <= 27046
c21_1: 174 x_22_ + 106 y_22_ + [ 1 x_22_ ^ 2 + 1 y_22_ ^ 2 ] <= 115999
c22_1: 174 x_23_ + 106 y_23_ + [ 1 x_23_ ^ 2 + 1 y_23_ ^ 2 ] <= 108899
c23_1: 174 x_24_ + 106 y_24_ + [ 1 x_24_ ^ 2 + 1 y_24_ ^ 2 ] <= 54032
c24_1: 174 x_25_ + 106 y_25_ + [ 1 x_25_ ^ 2 + 1 y_25_ ^ 2 ] <= 52479
c25_1: 174 x_26_ + 106 y_26_ + [ 1 x_26_ ^ 2 + 1 y_26_ ^ 2 ] <= 119534
c26_1: 174 x_27_ + 106 y_27_ + [ 1 x_27_ ^ 2 + 1 y_27_ ^ 2 ] <= 122515
c27_1: 174 x_28_ + 106 y_28_ + [ 1 x_28_ ^ 2 + 1 y_28_ ^ 2 ] <= 86525
c28_1: 174 x_29_ + 106 y_29_ + [ 1 x_29_ ^ 2 + 1 y_29_ ^ 2 ] <= 30818
c29_1: 174 x_30_ + 106 y_30_ + [ 1 x_30_ ^ 2 + 1 y_30_ ^ 2 ] <= 179892
c30_1: 174 x_31_ + 106 y_31_ + [ 1 x_31_ ^ 2 + 1 y_31_ ^ 2 ] <= 89804
c31_1: 174 x_32_ + 106 y_32_ + [ 1 x_32_ ^ 2 + 1 y_32_ ^ 2 ] <= 8203
c32_1: 174 x_33_ + 106 y_33_ + [ 1 x_33_ ^ 2 + 1 y_33_ ^ 2 ] <= 46516
c33_1: 174 x_34_ + 106 y_34_ + [ 1 x_34_ ^ 2 + 1 y_34_ ^ 2 ] <= 109544
c34_1: 174 x_35_ + 106 y_35_ + [ 1 x_35_ ^ 2 + 1 y_35_ ^ 2 ] <= 124197
c35_1: 174 x_36_ + 106 y_36_ + [ 1 x_36_ ^ 2 + 1 y_36_ ^ 2 ] <= 22548
c36_1: 174 x_37_ + 106 y_37_ + [ 1 x_37_ ^ 2 + 1 y_37_ ^ 2 ] <= 71720
c37_1: 174 x_38_ + 106 y_38_ + [ 1 x_38_ ^ 2 + 1 y_38_ ^ 2 ] <= 116880
c38_1: 174 x_39_ + 106 y_39_ + [ 1 x_39_ ^ 2 + 1 y_39_ ^ 2 ] <= 65506
c39_1: 174 x_40_ + 106 y_40_ + [ 1 x_40_ ^ 2 + 1 y_40_ ^ 2 ] <= 46922
c40_1: 174 x_41_ + 106 y_41_ + [ 1 x_41_ ^ 2 + 1 y_41_ ^ 2 ] <= 21529
c41_1: 174 x_42_ + 106 y_42_ + [ 1 x_42_ ^ 2 + 1 y_42_ ^ 2 ] <= 127216
c42_1: 174 x_43_ + 106 y_43_ + [ 1 x_43_ ^ 2 + 1 y_43_ ^ 2 ] <= 47183
c43_1: 174 x_44_ + 106 y_44_ + [ 1 x_44_ ^ 2 + 1 y_44_ ^ 2 ] <= 72874
c44_1: 174 x_45_ + 106 y_45_ + [ 1 x_45_ ^ 2 + 1 y_45_ ^ 2 ] <= 95153
c45_1: 174 x_46_ + 106 y_46_ + [ 1 x_46_ ^ 2 + 1 y_46_ ^ 2 ] <= 83563
c46_1: 174 x_47_ + 106 y_47_ + [ 1 x_47_ ^ 2 + 1 y_47_ ^ 2 ] <= 79906
c47_1: 174 x_48_ + 106 y_48_ + [ 1 x_48_ ^ 2 + 1 y_48_ ^ 2 ] <= 73673
c48_1: 174 x_49_ + 106 y_49_ + [ 1 x_49_ ^ 2 + 1 y_49_ ^ 2 ] <= -1466
c49_1: 174 x_50_ + 106 y_50_ + [ 1 x_50_ ^ 2 + 1 y_50_ ^ 2 ] <= 168195
c50_1: 174 x_51_ + 106 y_51_ + [ 1 x_51_ ^ 2 + 1 y_51_ ^ 2 ] <= 144417
c51_1: 174 x_52_ + 106 y_52_ + [ 1 x_52_ ^ 2 + 1 y_52_ ^ 2 ] <= 68089
c52_1: 174 x_53_ + 106 y_53_ + [ 1 x_53_ ^ 2 + 1 y_53_ ^ 2 ] <= 119605
c53_1: 174 x_54_ + 106 y_54_ + [ 1 x_54_ ^ 2 + 1 y_54_ ^ 2 ] <= 180853
c54_1: 174 x_55_ + 106 y_55_ + [ 1 x_55_ ^ 2 + 1 y_55_ ^ 2 ] <= 15389
c55_1: 174 x_56_ + 106 y_56_ + [ 1 x_56_ ^ 2 + 1 y_56_ ^ 2 ] <= 137304
c56_1: 174 x_57_ + 106 y_57_ + [ 1 x_57_ ^ 2 + 1 y_57_ ^ 2 ] <= 92419
c57_1: 174 x_58_ + 106 y_58_ + [ 1 x_58_ ^ 2 + 1 y_58_ ^ 2 ] <= 81158
c58_1: 174 x_59_ + 106 y_59_ + [ 1 x_59_ ^ 2 + 1 y_59_ ^ 2 ] <= 88219
c59_1: 174 x_60_ + 106 y_60_ + [ 1 x_60_ ^ 2 + 1 y_60_ ^ 2 ] <= 54883
c60_1: 174 x_61_ + 106 y_61_ + [ 1 x_61_ ^ 2 + 1 y_61_ ^ 2 ] <= 183268
c61_1: 174 x_62_ + 106 y_62_ + [ 1 x_62_ ^ 2 + 1 y_62_ ^ 2 ] <= 38044
c62_1: 174 x_63_ + 106 y_63_ + [ 1 x_63_ ^ 2 + 1 y_63_ ^ 2 ] <= 33119
c63_1: 174 x_64_ + 106 y_64_ + [ 1 x_64_ ^ 2 + 1 y_64_ ^ 2 ] <= 5416
c64_1: 174 x_65_ + 106 y_65_ + [ 1 x_65_ ^ 2 + 1 y_65_ ^ 2 ] <= 126391
c65_1: 174 x_66_ + 106 y_66_ + [ 1 x_66_ ^ 2 + 1 y_66_ ^ 2 ] <= 91063
c66_1: 174 x_67_ + 106 y_67_ + [ 1 x_67_ ^ 2 + 1 y_67_ ^ 2 ] <= 120754
c67_1: 174 x_68_ + 106 y_68_ + [ 1 x_68_ ^ 2 + 1 y_68_ ^ 2 ] <= 40369
c68_1: 174 x_69_ + 106 y_69_ + [ 1 x_69_ ^ 2 + 1 y_69_ ^ 2 ] <= 40228
c69_1: 174 x_70_ + 106 y_70_ + [ 1 x_70_ ^ 2 + 1 y_70_ ^ 2 ] <= 113920
c70_1: 174 x_71_ + 106 y_71_ + [ 1 x_71_ ^ 2 + 1 y_71_ ^ 2 ] <= 61702
c71_1: 174 x_72_ + 106 y_72_ + [ 1 x_72_ ^ 2 + 1 y_72_ ^ 2 ] <= 99042
c72_1: 174 x_73_ + 106 y_73_ + [ 1 x_73_ ^ 2 + 1 y_73_ ^ 2 ] <= 78669
c73_1: 174 x_74_ + 106 y_74_ + [ 1 x_74_ ^ 2 + 1 y_74_ ^ 2 ] <= 129440
c74_1: 174 x_75_ + 106 y_75_ + [ 1 x_75_ ^ 2 + 1 y_75_ ^ 2 ] <= 44897
c75_1: 174 x_76_ + 106 y_76_ + [ 1 x_76_ ^ 2 + 1 y_76_ ^ 2 ] <= 104925
c76_1: 174 x_77_ + 106 y_77_ + [ 1 x_77_ ^ 2 + 1 y_77_ ^ 2 ] <= 58149
c77_1: 174 x_78_ + 106 y_78_ + [ 1 x_78_ ^ 2 + 1 y_78_ ^ 2 ] <= 155681
c78_1: 174 x_79_ + 106 y_79_ + [ 1 x_79_ ^ 2 + 1 y_79_ ^ 2 ] <= 22242
c79_1: 174 x_80_ + 106 y_80_ + [ 1 x_80_ ^ 2 + 1 y_80_ ^ 2 ] <= 39114
c80_1: 174 x_81_ + 106 y_81_ + [ 1 x_81_ ^ 2 + 1 y_81_ ^ 2 ] <= 184838
c81_1: 174 x_82_ + 106 y_82_ + [ 1 x_82_ ^ 2 + 1 y_82_ ^ 2 ] <= 119167
c82_1: 174 x_83_ + 106 y_83_ + [ 1 x_83_ ^ 2 + 1 y_83_ ^ 2 ] <= 134342
c83_1: 174 x_84_ + 106 y_84_ + [ 1 x_84_ ^ 2 + 1 y_84_ ^ 2 ] <= 9031
c84_1: 174 x_85_ + 106 y_85_ + [ 1 x_85_ ^ 2 + 1 y_85_ ^ 2 ] <= 66243
c85_1: 174 x_86_ + 106 y_86_ + [ 1 x_86_ ^ 2 + 1 y_86_ ^ 2 ] <= 72038
c86_1: 174 x_87_ + 106 y_87_ + [ 1 x_87_ ^ 2 + 1 y_87_ ^ 2 ] <= 128868
c87_1: 174 x_88_ + 106 y_88_ + [ 1 x_88_ ^ 2 + 1 y_88_ ^ 2 ] <= 101049
c88_1: 174 x_89_ + 106 y_89_ + [ 1 x_89_ ^ 2 + 1 y_89_ ^ 2 ] <= 102531
c89_1: 174 x_90_ + 106 y_90_ + [ 1 x_90_ ^ 2 + 1 y_90_ ^ 2 ] <= 99568
c90_1: 174 x_91_ + 106 y_91_ + [ 1 x_91_ ^ 2 + 1 y_91_ ^ 2 ] <= 63911
c91_1: 174 x_92_ + 106 y_92_ + [ 1 x_92_ ^ 2 + 1 y_92_ ^ 2 ] <= 56301
c92_1: 174 x_93_ + 106 y_93_ + [ 1 x_93_ ^ 2 + 1 y_93_ ^ 2 ] <= 37935
c93_1: 174 x_94_ + 106 y_94_ + [ 1 x_94_ ^ 2 + 1 y_94_ ^ 2 ] <= 48511
c94_1: 174 x_95_ + 106 y_95_ + [ 1 x_95_ ^ 2 + 1 y_95_ ^ 2 ] <= 98689
c95_1: 174 x_96_ + 106 y_96_ + [ 1 x_96_ ^ 2 + 1 y_96_ ^ 2 ] <= 45809
c96_1: 174 x_97_ + 106 y_97_ + [ 1 x_97_ ^ 2 + 1 y_97_ ^ 2 ] <= 93175
c97_1: 174 x_98_ + 106 y_98_ + [ 1 x_98_ ^ 2 + 1 y_98_ ^ 2 ] <= 97844
c98_1: 174 x_99_ + 106 y_99_ + [ 1 x_99_ ^ 2 + 1 y_99_ ^ 2 ] <= 61119
c99_1: 174 x_100_ + 106 y_100_ + [ 1 x_100_ ^ 2 + 1 y_100_ ^ 2 ] <= 137596
c100_1: -142 x_1_ - 88 y_1_ + [ 1 x_1_ ^ 2 + 1 y_1_ ^ 2 ] <= 58933
c101_1: -142 x_2_ - 88 y_2_ + [ 1 x_2_ ^ 2 + 1 y_2_ ^ 2 ] <= 89493
c102_1: -142 x_3_ - 88 y_3_ + [ 1 x_3_ ^ 2 + 1 y_3_ ^ 2 ] <= 39179
c103_1: -142 x_4_ - 88 y_4_ + [ 1 x_4_ ^ 2 + 1 y_4_ ^ 2 ] <= 5622
c104_1: -142 x_5_ - 88 y_5_ + [ 1 x_5_ ^ 2 + 1 y_5_ ^ 2 ] <= 68532
c105_1: -142 x_6_ - 88 y_6_ + [ 1 x_6_ ^ 2 + 1 y_6_ ^ 2 ] <= 28115
c106_1: -142 x_7_ - 88 y_7_ + [ 1 x_7_ ^ 2 + 1 y_7_ ^ 2 ] <= 31414
c107_1: -142 x_8_ - 88 y_8_ + [ 1 x_8_ ^ 2 + 1 y_8_ ^ 2 ] <= 15037
c108_1: -142 x_9_ - 88 y_9_ + [ 1 x_9_ ^ 2 + 1 y_9_ ^ 2 ] <= 71488
c109_1: -142 x_10_ - 88 y_10_ + [ 1 x_10_ ^ 2 + 1 y_10_ ^ 2 ] <= 20511
c110_1: -142 x_11_ - 88 y_11_ + [ 1 x_11_ ^ 2 + 1 y_11_ ^ 2 ] <= 16833
c111_1: -142 x_12_ - 88 y_12_ + [ 1 x_12_ ^ 2 + 1 y_12_ ^ 2 ] <= 11985
c112_1: -142 x_13_ - 88 y_13_ + [ 1 x_13_ ^ 2 + 1 y_13_ ^ 2 ] <= 43629
c113_1: -142 x_14_ - 88 y_14_ + [ 1 x_14_ ^ 2 + 1 y_14_ ^ 2 ] <= -1655
c114_1: -142 x_15_ - 88 y_15_ + [ 1 x_15_ ^ 2 + 1 y_15_ ^ 2 ] <= 117405
c115_1: -142 x_16_ - 88 y_16_ + [ 1 x_16_ ^ 2 + 1 y_16_ ^ 2 ] <= -5152
c116_1: -142 x_17_ - 88 y_17_ + [ 1 x_17_ ^ 2 + 1 y_17_ ^ 2 ] <= 70600
c117_1: -142 x_18_ - 88 y_18_ + [ 1 x_18_ ^ 2 + 1 y_18_ ^ 2 ] <= 74554
c118_1: -142 x_19_ - 88 y_19_ + [ 1 x_19_ ^ 2 + 1 y_19_ ^ 2 ] <= 4209
c119_1: -142 x_20_ - 88 y_20_ + [ 1 x_20_ ^ 2 + 1 y_20_ ^ 2 ] <= 46267
c120_1: -142 x_21_ - 88 y_21_ + [ 1 x_21_ ^ 2 + 1 y_21_ ^ 2 ] <= 47705
c121_1: -142 x_22_ - 88 y_22_ + [ 1 x_22_ ^ 2 + 1 y_22_ ^ 2 ] <= 71264
c122_1: -142 x_23_ - 88 y_23_ + [ 1 x_23_ ^ 2 + 1 y_23_ ^ 2 ] <= 22966
c123_1: -142 x_24_ - 88 y_24_ + [ 1 x_24_ ^ 2 + 1 y_24_ ^ 2 ] <= 39917
c124_1: -142 x_25_ - 88 y_25_ + [ 1 x_25_ ^ 2 + 1 y_25_ ^ 2 ] <= 23624
c125_1: -142 x_26_ - 88 y_26_ + [ 1 x_26_ ^ 2 + 1 y_26_ ^ 2 ] <= 122599
c126_1: -142 x_27_ - 88 y_27_ + [ 1 x_27_ ^ 2 + 1 y_27_ ^ 2 ] <= 100152
c127_1: -142 x_28_ - 88 y_28_ + [ 1 x_28_ ^ 2 + 1 y_28_ ^ 2 ] <= 62521
c128_1: -142 x_29_ - 88 y_29_ + [ 1 x_29_ ^ 2 + 1 y_29_ ^ 2 ] <= 34030
c129_1: -142 x_30_ - 88 y_30_ + [ 1 x_30_ ^ 2 + 1 y_30_ ^ 2 ] <= 66344
c130_1: -142 x_31_ - 88 y_31_ + [ 1 x_31_ ^ 2 + 1 y_31_ ^ 2 ] <= 92910
c131_1: -142 x_32_ - 88 y_32_ + [ 1 x_32_ ^ 2 + 1 y_32_ ^ 2 ] <= 881
c132_1: -142 x_33_ - 88 y_33_ + [ 1 x_33_ ^ 2 + 1 y_33_ ^ 2 ] <= 33539
c133_1: -142 x_34_ - 88 y_34_ + [ 1 x_34_ ^ 2 + 1 y_34_ ^ 2 ] <= 14605
c134_1: -142 x_35_ - 88 y_35_ + [ 1 x_35_ ^ 2 + 1 y_35_ ^ 2 ] <= 94897
c135_1: -142 x_36_ - 88 y_36_ + [ 1 x_36_ ^ 2 + 1 y_36_ ^ 2 ] <= 25780
c136_1: -142 x_37_ - 88 y_37_ + [ 1 x_37_ ^ 2 + 1 y_37_ ^ 2 ] <= 50077
c137_1: -142 x_38_ - 88 y_38_ + [ 1 x_38_ ^ 2 + 1 y_38_ ^ 2 ] <= 10387
c138_1: -142 x_39_ - 88 y_39_ + [ 1 x_39_ ^ 2 + 1 y_39_ ^ 2 ] <= 32900
c139_1: -142 x_40_ - 88 y_40_ + [ 1 x_40_ ^ 2 + 1 y_40_ ^ 2 ] <= 29775
c140_1: -142 x_41_ - 88 y_41_ + [ 1 x_41_ ^ 2 + 1 y_41_ ^ 2 ] <= 24764
c141_1: -142 x_42_ - 88 y_42_ + [ 1 x_42_ ^ 2 + 1 y_42_ ^ 2 ] <= 104377
c142_1: -142 x_43_ - 88 y_43_ + [ 1 x_43_ ^ 2 + 1 y_43_ ^ 2 ] <= 29983
c143_1: -142 x_44_ - 88 y_44_ + [ 1 x_44_ ^ 2 + 1 y_44_ ^ 2 ] <= 54950
c144_1: -142 x_45_ - 88 y_45_ + [ 1 x_45_ ^ 2 + 1 y_45_ ^ 2 ] <= 75746
c145_1: -142 x_46_ - 88 y_46_ + [ 1 x_46_ ^ 2 + 1 y_46_ ^ 2 ] <= 65523
c146_1: -142 x_47_ - 88 y_47_ + [ 1 x_47_ ^ 2 + 1 y_47_ ^ 2 ] <= 83027
c147_1: -142 x_48_ - 88 y_48_ + [ 1 x_48_ ^ 2 + 1 y_48_ ^ 2 ] <= 56868
c148_1: -142 x_49_ - 88 y_49_ + [ 1 x_49_ ^ 2 + 1 y_49_ ^ 2 ] <= 95015
c149_1: -142 x_50_ - 88 y_50_ + [ 1 x_50_ ^ 2 + 1 y_50_ ^ 2 ] <= 141510
c150_1: -142 x_51_ - 88 y_51_ + [ 1 x_51_ ^ 2 + 1 y_51_ ^ 2 ] <= 119901
c151_1: -142 x_52_ - 88 y_52_ + [ 1 x_52_ ^ 2 + 1 y_52_ ^ 2 ] <= 64144
c152_1: -142 x_53_ - 88 y_53_ + [ 1 x_53_ ^ 2 + 1 y_53_ ^ 2 ] <= 15996
c153_1: -142 x_54_ - 88 y_54_ + [ 1 x_54_ ^ 2 + 1 y_54_ ^ 2 ] <= 183847
c154_1: -142 x_55_ - 88 y_55_ + [ 1 x_55_ ^ 2 + 1 y_55_ ^ 2 ] <= 5759
c155_1: -142 x_56_ - 88 y_56_ + [ 1 x_56_ ^ 2 + 1 y_56_ ^ 2 ] <= 130075
c156_1: -142 x_57_ - 88 y_57_ + [ 1 x_57_ ^ 2 + 1 y_57_ ^ 2 ] <= 30049
c157_1: -142 x_58_ - 88 y_58_ + [ 1 x_58_ ^ 2 + 1 y_58_ ^ 2 ] <= 36935
c158_1: -142 x_59_ - 88 y_59_ + [ 1 x_59_ ^ 2 + 1 y_59_ ^ 2 ] <= 24036
c159_1: -142 x_60_ - 88 y_60_ + [ 1 x_60_ ^ 2 + 1 y_60_ ^ 2 ] <= 58046
c160_1: -142 x_61_ - 88 y_61_ + [ 1 x_61_ ^ 2 + 1 y_61_ ^ 2 ] <= 155281
c161_1: -142 x_62_ - 88 y_62_ + [ 1 x_62_ ^ 2 + 1 y_62_ ^ 2 ] <= 22739
c162_1: -142 x_63_ - 88 y_63_ + [ 1 x_63_ ^ 2 + 1 y_63_ ^ 2 ] <= 22373
c163_1: -142 x_64_ - 88 y_64_ + [ 1 x_64_ ^ 2 + 1 y_64_ ^ 2 ] <= 20600
c164_1: -142 x_65_ - 88 y_65_ + [ 1 x_65_ ^ 2 + 1 y_65_ ^ 2 ] <= 79375
c165_1: -142 x_66_ - 88 y_66_ + [ 1 x_66_ ^ 2 + 1 y_66_ ^ 2 ] <= 83605
c166_1: -142 x_67_ - 88 y_67_ + [ 1 x_67_ ^ 2 + 1 y_67_ ^ 2 ] <= 76716
c167_1: -142 x_68_ - 88 y_68_ + [ 1 x_68_ ^ 2 + 1 y_68_ ^ 2 ] <= 657
c168_1: -142 x_70_ - 88 y_70_ + [ 1 x_70_ ^ 2 + 1 y_70_ ^ 2 ] <= 85982
c169_1: -142 x_71_ - 88 y_71_ + [ 1 x_71_ ^ 2 + 1 y_71_ ^ 2 ] <= 41780
c170_1: -142 x_72_ - 88 y_72_ + [ 1 x_72_ ^ 2 + 1 y_72_ ^ 2 ] <= 102135
c171_1: -142 x_73_ - 88 y_73_ + [ 1 x_73_ ^ 2 + 1 y_73_ ^ 2 ] <= 55893
c172_1: -142 x_74_ - 88 y_74_ + [ 1 x_74_ ^ 2 + 1 y_74_ ^ 2 ] <= 132493
c173_1: -142 x_75_ - 88 y_75_ + [ 1 x_75_ ^ 2 + 1 y_75_ ^ 2 ] <= 28156
c174_1: -142 x_76_ - 88 y_76_ + [ 1 x_76_ ^ 2 + 1 y_76_ ^ 2 ] <= 76078
c175_1: -142 x_77_ - 88 y_77_ + [ 1 x_77_ ^ 2 + 1 y_77_ ^ 2 ] <= 43440
c176_1: -142 x_78_ - 88 y_78_ + [ 1 x_78_ ^ 2 + 1 y_78_ ^ 2 ] <= 71035
c177_1: -142 x_79_ - 88 y_79_ + [ 1 x_79_ ^ 2 + 1 y_79_ ^ 2 ] <= 25475
c178_1: -142 x_80_ - 88 y_80_ + [ 1 x_80_ ^ 2 + 1 y_80_ ^ 2 ] <= 42308
c179_1: -142 x_81_ - 88 y_81_ + [ 1 x_81_ ^ 2 + 1 y_81_ ^ 2 ] <= 114709
c180_1: -142 x_82_ - 88 y_82_ + [ 1 x_82_ ^ 2 + 1 y_82_ ^ 2 ] <= 17185
c181_1: -142 x_83_ - 88 y_83_ + [ 1 x_83_ ^ 2 + 1 y_83_ ^ 2 ] <= 110796
c182_1: -142 x_84_ - 88 y_84_ + [ 1 x_84_ ^ 2 + 1 y_84_ ^ 2 ] <= 100534
c183_1: -142 x_85_ - 88 y_85_ + [ 1 x_85_ ^ 2 + 1 y_85_ ^ 2 ] <= 100482
c184_1: -142 x_86_ - 88 y_86_ + [ 1 x_86_ ^ 2 + 1 y_86_ ^ 2 ] <= 50343
c185_1: -142 x_87_ - 88 y_87_ + [ 1 x_87_ ^ 2 + 1 y_87_ ^ 2 ] <= 105863
c186_1: -142 x_88_ - 88 y_88_ + [ 1 x_88_ ^ 2 + 1 y_88_ ^ 2 ] <= 4871
c187_1: -142 x_89_ - 88 y_89_ + [ 1 x_89_ ^ 2 + 1 y_89_ ^ 2 ] <= 36641
c188_1: -142 x_90_ - 88 y_90_ + [ 1 x_90_ ^ 2 + 1 y_90_ ^ 2 ] <= 78227
c189_1: -142 x_91_ - 88 y_91_ + [ 1 x_91_ ^ 2 + 1 y_91_ ^ 2 ] <= 48398
c190_1: -142 x_92_ - 88 y_92_ + [ 1 x_92_ ^ 2 + 1 y_92_ ^ 2 ] <= 41856
c191_1: -142 x_93_ - 88 y_93_ + [ 1 x_93_ ^ 2 + 1 y_93_ ^ 2 ] <= 38733
c192_1: -142 x_94_ - 88 y_94_ + [ 1 x_94_ ^ 2 + 1 y_94_ ^ 2 ] <= 31049
c193_1: -142 x_95_ - 88 y_95_ + [ 1 x_95_ ^ 2 + 1 y_95_ ^ 2 ] <= 57780
c194_1: -142 x_96_ - 88 y_96_ + [ 1 x_96_ ^ 2 + 1 y_96_ ^ 2 ] <= 48989
c195_1: -142 x_97_ - 88 y_97_ + [ 1 x_97_ ^ 2 + 1 y_97_ ^ 2 ] <= 88110
c196_1: -142 x_98_ - 88 y_98_ + [ 1 x_98_ ^ 2 + 1 y_98_ ^ 2 ] <= 103730
c197_1: -142 x_99_ - 88 y_99_ + [ 1 x_99_ ^ 2 + 1 y_99_ ^ 2 ] <= 64271
c198_1: -142 x_100_ - 88 y_100_ + [ 1 x_100_ ^ 2 + 1 y_100_ ^ 2 ] <= 106597
c199: -184 x_2_ - 114 y_2_ + [ 1 x_2_ ^ 2 + 1 y_2_ ^ 2 ] <= 13601
c200: -184 x_3_ - 114 y_3_ + [ 1 x_3_ ^ 2 + 1 y_3_ ^ 2 ] <= 81778
c201: -184 x_4_ - 114 y_4_ + [ 1 x_4_ ^ 2 + 1 y_4_ ^ 2 ] <= 47247
c202: -184 x_5_ - 114 y_5_ + [ 1 x_5_ ^ 2 + 1 y_5_ ^ 2 ] <= -10482
c203: -184 x_6_ - 114 y_6_ + [ 1 x_6_ ^ 2 + 1 y_6_ ^ 2 ] <= 16168
c204: -184 x_7_ - 114 y_7_ + [ 1 x_7_ ^ 2 + 1 y_7_ ^ 2 ] <= 73587
c205: -184 x_8_ - 114 y_8_ + [ 1 x_8_ ^ 2 + 1 y_8_ ^ 2 ] <= 27226
c206: -184 x_9_ - 114 y_9_ + [ 1 x_9_ ^ 2 + 1 y_9_ ^ 2 ] <= 85166
c207: -184 x_10_ - 114 y_10_ + [ 1 x_10_ ^ 2 + 1 y_10_ ^ 2 ] <= 61383
c208: -184 x_11_ - 114 y_11_ + [ 1 x_11_ ^ 2 + 1 y_11_ ^ 2 ] <= 69441
c209: -184 x_12_ - 114 y_12_ + [ 1 x_12_ ^ 2 + 1 y_12_ ^ 2 ] <= 2454
c210: -184 x_13_ - 114 y_13_ + [ 1 x_13_ ^ 2 + 1 y_13_ ^ 2 ] <= 74705
c211: -184 x_14_ - 114 y_14_ + [ 1 x_14_ ^ 2 + 1 y_14_ ^ 2 ] <= 44422
c212: -184 x_15_ - 114 y_15_ + [ 1 x_15_ ^ 2 + 1 y_15_ ^ 2 ] <= 42813
c213: -184 x_16_ - 114 y_16_ + [ 1 x_16_ ^ 2 + 1 y_16_ ^ 2 ] <= 34087
c214: -184 x_17_ - 114 y_17_ + [ 1 x_17_ ^ 2 + 1 y_17_ ^ 2 ] <= 54528
c215: -184 x_18_ - 114 y_18_ + [ 1 x_18_ ^ 2 + 1 y_18_ ^ 2 ] <= 22203
c216: -184 x_19_ - 114 y_19_ + [ 1 x_19_ ^ 2 + 1 y_19_ ^ 2 ] <= 44140
c217: -184 x_20_ - 114 y_20_ + [ 1 x_20_ ^ 2 + 1 y_20_ ^ 2 ] <= 68609
c218: -184 x_21_ - 114 y_21_ + [ 1 x_21_ ^ 2 + 1 y_21_ ^ 2 ] <= 114149
c219: -184 x_22_ - 114 y_22_ + [ 1 x_22_ ^ 2 + 1 y_22_ ^ 2 ] <= 16075
c220: -184 x_23_ - 114 y_23_ + [ 1 x_23_ ^ 2 + 1 y_23_ ^ 2 ] <= 37635
c221: -184 x_24_ - 114 y_24_ + [ 1 x_24_ ^ 2 + 1 y_24_ ^ 2 ] <= -1088
c222: -184 x_25_ - 114 y_25_ + [ 1 x_25_ ^ 2 + 1 y_25_ ^ 2 ] <= 26232
c223: -184 x_26_ - 114 y_26_ + [ 1 x_26_ ^ 2 + 1 y_26_ ^ 2 ] <= 55158
c224: -184 x_27_ - 114 y_27_ + [ 1 x_27_ ^ 2 + 1 y_27_ ^ 2 ] <= -6732
c225: -184 x_28_ - 114 y_28_ + [ 1 x_28_ ^ 2 + 1 y_28_ ^ 2 ] <= 12292
c226: -184 x_29_ - 114 y_29_ + [ 1 x_29_ ^ 2 + 1 y_29_ ^ 2 ] <= 29689
c227: -184 x_30_ - 114 y_30_ + [ 1 x_30_ ^ 2 + 1 y_30_ ^ 2 ] <= 19055
c228: -184 x_31_ - 114 y_31_ + [ 1 x_31_ ^ 2 + 1 y_31_ ^ 2 ] <= 77609
c229: -184 x_32_ - 114 y_32_ + [ 1 x_32_ ^ 2 + 1 y_32_ ^ 2 ] <= 36342
c230: -184 x_33_ - 114 y_33_ + [ 1 x_33_ ^ 2 + 1 y_33_ ^ 2 ] <= -8639
c231: -184 x_34_ - 114 y_34_ + [ 1 x_34_ ^ 2 + 1 y_34_ ^ 2 ] <= 14847
c232: -184 x_35_ - 114 y_35_ + [ 1 x_35_ ^ 2 + 1 y_35_ ^ 2 ] <= 77583
c233: -184 x_36_ - 114 y_36_ + [ 1 x_36_ ^ 2 + 1 y_36_ ^ 2 ] <= 71640
c234: -184 x_37_ - 114 y_37_ + [ 1 x_37_ ^ 2 + 1 y_37_ ^ 2 ] <= 78215
c235: -184 x_38_ - 114 y_38_ + [ 1 x_38_ ^ 2 + 1 y_38_ ^ 2 ] <= 20009
c236: -184 x_39_ - 114 y_39_ + [ 1 x_39_ ^ 2 + 1 y_39_ ^ 2 ] <= 36491
c237: -184 x_40_ - 114 y_40_ + [ 1 x_40_ ^ 2 + 1 y_40_ ^ 2 ] <= 1779
c238: -184 x_41_ - 114 y_41_ + [ 1 x_41_ ^ 2 + 1 y_41_ ^ 2 ] <= 83601
c239: -184 x_42_ - 114 y_42_ + [ 1 x_42_ ^ 2 + 1 y_42_ ^ 2 ] <= 11752
c240: -184 x_43_ - 114 y_43_ + [ 1 x_43_ ^ 2 + 1 y_43_ ^ 2 ] <= 63585
c241: -184 x_44_ - 114 y_44_ + [ 1 x_44_ ^ 2 + 1 y_44_ ^ 2 ] <= -593
c242: -184 x_45_ - 114 y_45_ + [ 1 x_45_ ^ 2 + 1 y_45_ ^ 2 ] <= 28973
c243: -184 x_46_ - 114 y_46_ + [ 1 x_46_ ^ 2 + 1 y_46_ ^ 2 ] <= -11556
c244: -184 x_47_ - 114 y_47_ + [ 1 x_47_ ^ 2 + 1 y_47_ ^ 2 ] <= 90355
c245: -184 x_48_ - 114 y_48_ + [ 1 x_48_ ^ 2 + 1 y_48_ ^ 2 ] <= 7664
c246: -184 x_49_ - 114 y_49_ + [ 1 x_49_ ^ 2 + 1 y_49_ ^ 2 ] <= 57795
c247: -184 x_50_ - 114 y_50_ + [ 1 x_50_ ^ 2 + 1 y_50_ ^ 2 ] <= 4828
c248: -184 x_51_ - 114 y_51_ + [ 1 x_51_ ^ 2 + 1 y_51_ ^ 2 ] <= 2471
c249: -184 x_52_ - 114 y_52_ + [ 1 x_52_ ^ 2 + 1 y_52_ ^ 2 ] <= 61571
c250: -184 x_53_ - 114 y_53_ + [ 1 x_53_ ^ 2 + 1 y_53_ ^ 2 ] <= 47635
c251: -184 x_54_ - 114 y_54_ + [ 1 x_54_ ^ 2 + 1 y_54_ ^ 2 ] <= 183409
c252: -184 x_55_ - 114 y_55_ + [ 1 x_55_ ^ 2 + 1 y_55_ ^ 2 ] <= 26315
c253: -184 x_56_ - 114 y_56_ + [ 1 x_56_ ^ 2 + 1 y_56_ ^ 2 ] <= 106828
c254: -184 x_57_ - 114 y_57_ + [ 1 x_57_ ^ 2 + 1 y_57_ ^ 2 ] <= 69209
c255: -184 x_58_ - 114 y_58_ + [ 1 x_58_ ^ 2 + 1 y_58_ ^ 2 ] <= 79248
c256: -184 x_59_ - 114 y_59_ + [ 1 x_59_ ^ 2 + 1 y_59_ ^ 2 ] <= 54895
c257: -184 x_60_ - 114 y_60_ + [ 1 x_60_ ^ 2 + 1 y_60_ ^ 2 ] <= 119850
c258: -184 x_61_ - 114 y_61_ + [ 1 x_61_ ^ 2 + 1 y_61_ ^ 2 ] <= 55437
c259: -184 x_62_ - 114 y_62_ + [ 1 x_62_ ^ 2 + 1 y_62_ ^ 2 ] <= 48890
c260: -184 x_63_ - 114 y_63_ + [ 1 x_63_ ^ 2 + 1 y_63_ ^ 2 ] <= -4418
c261: -184 x_64_ - 114 y_64_ + [ 1 x_64_ ^ 2 + 1 y_64_ ^ 2 ] <= 71643
c262: -184 x_65_ - 114 y_65_ + [ 1 x_65_ ^ 2 + 1 y_65_ ^ 2 ] <= 137208
c263: -184 x_66_ - 114 y_66_ + [ 1 x_66_ ^ 2 + 1 y_66_ ^ 2 ] <= -2518
c264: -184 x_67_ - 114 y_67_ + [ 1 x_67_ ^ 2 + 1 y_67_ ^ 2 ] <= 52428
c265: -184 x_68_ - 114 y_68_ + [ 1 x_68_ ^ 2 + 1 y_68_ ^ 2 ] <= 16968
c266: -184 x_69_ - 114 y_69_ + [ 1 x_69_ ^ 2 + 1 y_69_ ^ 2 ] <= 54197
c267: -184 x_70_ - 114 y_70_ + [ 1 x_70_ ^ 2 + 1 y_70_ ^ 2 ] <= 114275
c268: -184 x_71_ - 114 y_71_ + [ 1 x_71_ ^ 2 + 1 y_71_ ^ 2 ] <= 34662
c269: -184 x_72_ - 114 y_72_ + [ 1 x_72_ ^ 2 + 1 y_72_ ^ 2 ] <= 82848
c270: -184 x_73_ - 114 y_73_ + [ 1 x_73_ ^ 2 + 1 y_73_ ^ 2 ] <= 37717
c271: -184 x_74_ - 114 y_74_ + [ 1 x_74_ ^ 2 + 1 y_74_ ^ 2 ] <= 112258
c272: -184 x_75_ - 114 y_75_ + [ 1 x_75_ ^ 2 + 1 y_75_ ^ 2 ] <= 89416
c273: -184 x_76_ - 114 y_76_ + [ 1 x_76_ ^ 2 + 1 y_76_ ^ 2 ] <= 125316
c274: -184 x_77_ - 114 y_77_ + [ 1 x_77_ ^ 2 + 1 y_77_ ^ 2 ] <= 30665
c275: -184 x_78_ - 114 y_78_ + [ 1 x_78_ ^ 2 + 1 y_78_ ^ 2 ] <= 83869
c276: -184 x_79_ - 114 y_79_ + [ 1 x_79_ ^ 2 + 1 y_79_ ^ 2 ] <= 84830
c277: -184 x_80_ - 114 y_80_ + [ 1 x_80_ ^ 2 + 1 y_80_ ^ 2 ] <= 97003
c278: -184 x_81_ - 114 y_81_ + [ 1 x_81_ ^ 2 + 1 y_81_ ^ 2 ] <= 31464
c279: -184 x_82_ - 114 y_82_ + [ 1 x_82_ ^ 2 + 1 y_82_ ^ 2 ] <= 95039
c280: -184 x_83_ - 114 y_83_ + [ 1 x_83_ ^ 2 + 1 y_83_ ^ 2 ] <= -4239
c281: -184 x_84_ - 114 y_84_ + [ 1 x_84_ ^ 2 + 1 y_84_ ^ 2 ] <= 176023
c282: -184 x_85_ - 114 y_85_ + [ 1 x_85_ ^ 2 + 1 y_85_ ^ 2 ] <= 128925
c283: -184 x_86_ - 114 y_86_ + [ 1 x_86_ ^ 2 + 1 y_86_ ^ 2 ] <= 36275
c284: -184 x_87_ - 114 y_87_ + [ 1 x_87_ ^ 2 + 1 y_87_ ^ 2 ] <= 37768
c285: -184 x_88_ - 114 y_88_ + [ 1 x_88_ ^ 2 + 1 y_88_ ^ 2 ] <= 70275
c286: -184 x_89_ - 114 y_89_ + [ 1 x_89_ ^ 2 + 1 y_89_ ^ 2 ] <= 66744
c287: -184 x_90_ - 114 y_90_ + [ 1 x_90_ ^ 2 + 1 y_90_ ^ 2 ] <= 10339
c288: -184 x_91_ - 114 y_91_ + [ 1 x_91_ ^ 2 + 1 y_91_ ^ 2 ] <= 35221
c289: -184 x_92_ - 114 y_92_ + [ 1 x_92_ ^ 2 + 1 y_92_ ^ 2 ] <= -6067
c290: -184 x_93_ - 114 y_93_ + [ 1 x_93_ ^ 2 + 1 y_93_ ^ 2 ] <= 7398
c291: -184 x_94_ - 114 y_94_ + [ 1 x_94_ ^ 2 + 1 y_94_ ^ 2 ] <= 46443
c292: -184 x_95_ - 114 y_95_ + [ 1 x_95_ ^ 2 + 1 y_95_ ^ 2 ] <= 63547
c293: -184 x_96_ - 114 y_96_ + [ 1 x_96_ ^ 2 + 1 y_96_ ^ 2 ] <= 86752
c294: -184 x_97_ - 114 y_97_ + [ 1 x_97_ ^ 2 + 1 y_97_ ^ 2 ] <= 75674
c295: -184 x_98_ - 114 y_98_ + [ 1 x_98_ ^ 2 + 1 y_98_ ^ 2 ] <= 36359
c296: -184 x_99_ - 114 y_99_ + [ 1 x_99_ ^ 2 + 1 y_99_ ^ 2 ] <= 90216
c297: -184 x_100_ - 114 y_100_ + [ 1 x_100_ ^ 2 + 1 y_100_ ^ 2 ] <= 6800
c1_2: 1 x_13_ = -87
c2_2: 1 y_13_ = -53
c3_2: 1 x_69_ = 71
c4_2: 1 y_69_ = 44
c5_2: 1 x_1_ = 92
c6_2: 1 y_1_ = 57
c1: [ 1 x_2_ ^ 2 - 2 x_3_ * x_2_ + 1 x_3_ ^ 2 + 1 y_2_ ^ 2 - 2 y_3_ * y_2_ + 1 y_3_ ^ 2 ] = 21509
c2: [ 1 x_5_ ^ 2 - 2 x_8_ * x_5_ + 1 x_8_ ^ 2 + 1 y_5_ ^ 2 - 2 y_8_ * y_5_ + 1 y_8_ ^ 2 ] = 26321
c3: [ 1 x_6_ ^ 2 - 2 x_9_ * x_6_ + 1 x_9_ ^ 2 + 1 y_6_ ^ 2 - 2 y_9_ * y_6_ + 1 y_9_ ^ 2 ] = 20816
c4: [ 1 x_8_ ^ 2 - 2 x_9_ * x_8_ + 1 x_9_ ^ 2 + 1 y_8_ ^ 2 - 2 y_9_ * y_8_ + 1 y_9_ ^ 2 ] = 17357
c5: [ 1 x_4_ ^ 2 - 2 x_11_ * x_4_ + 1 x_11_ ^ 2 + 1 y_4_ ^ 2 - 2 y_11_ * y_4_ + 1 y_11_ ^ 2 ] = 1769
c6: [ 1 x_4_ ^ 2 - 2 x_13_ * x_4_ + 1 x_13_ ^ 2 + 1 y_4_ ^ 2 - 2 y_13_ * y_4_ + 1 y_13_ ^ 2 ] = 12704
c7: [ 1 x_12_ ^ 2 - 2 x_13_ * x_12_ + 1 x_13_ ^ 2 + 1 y_12_ ^ 2 - 2 y_13_ * y_12_ + 1 y_13_ ^ 2 ] = 30605
c8: [ 1 x_7_ ^ 2 - 2 x_14_ * x_7_ + 1 x_14_ ^ 2 + 1 y_7_ ^ 2 - 2 y_14_ * y_7_ + 1 y_14_ ^ 2 ] = 15125
c9: [ 1 x_2_ ^ 2 - 2 x_15_ * x_2_ + 1 x_15_ ^ 2 + 1 y_2_ ^ 2 - 2 y_15_ * y_2_ + 1 y_15_ ^ 2 ] = 5536
c10: [ 1 x_8_ ^ 2 - 2 x_16_ * x_8_ + 1 x_16_ ^ 2 + 1 y_8_ ^ 2 - 2 y_16_ * y_8_ + 1 y_16_ ^ 2 ] = 11162
c11: [ 1 x_14_ ^ 2 - 2 x_16_ * x_14_ + 1 x_16_ ^ 2 + 1 y_14_ ^ 2 - 2 y_16_ * y_14_ + 1 y_16_ ^ 2 ] = 914
c12: [ 1 x_6_ ^ 2 - 2 x_17_ * x_6_ + 1 x_17_ ^ 2 + 1 y_6_ ^ 2 - 2 y_17_ * y_6_ + 1 y_17_ ^ 2 ] = 8317
c13: [ 1 x_2_ ^ 2 - 2 x_18_ * x_2_ + 1 x_18_ ^ 2 + 1 y_2_ ^ 2 - 2 y_18_ * y_2_ + 1 y_18_ ^ 2 ] = 628
c14: [ 1 x_6_ ^ 2 - 2 x_19_ * x_6_ + 1 x_19_ ^ 2 + 1 y_6_ ^ 2 - 2 y_19_ * y_6_ + 1 y_19_ ^ 2 ] = 6653
c15: [ 1 x_10_ ^ 2 - 2 x_19_ * x_10_ + 1 x_19_ ^ 2 + 1 y_10_ ^ 2 - 2 y_19_ * y_10_ + 1 y_19_ ^ 2 ] = 3604
c16: [ 1 x_11_ ^ 2 - 2 x_19_ * x_11_ + 1 x_19_ ^ 2 + 1 y_11_ ^ 2 - 2 y_19_ * y_11_ + 1 y_19_ ^ 2 ] = 6305
c17: [ 1 x_5_ ^ 2 - 2 x_22_ * x_5_ + 1 x_22_ ^ 2 + 1 y_5_ ^ 2 - 2 y_22_ * y_5_ + 1 y_22_ ^ 2 ] = 17320
c18: [ 1 x_1_ ^ 2 - 2 x_24_ * x_1_ + 1 x_24_ ^ 2 + 1 y_1_ ^ 2 - 2 y_24_ * y_1_ + 1 y_24_ ^ 2 ] = 10625
c19: [ 1 x_12_ ^ 2 - 2 x_24_ * x_12_ + 1 x_24_ ^ 2 + 1 y_12_ ^ 2 - 2 y_24_ * y_12_ + 1 y_24_ ^ 2 ] = 6217
c20: [ 1 x_12_ ^ 2 - 2 x_25_ * x_12_ + 1 x_25_ ^ 2 + 1 y_12_ ^ 2 - 2 y_25_ * y_12_ + 1 y_25_ ^ 2 ] = 5741
c21: [ 1 x_14_ ^ 2 - 2 x_25_ * x_14_ + 1 x_25_ ^ 2 + 1 y_14_ ^ 2 - 2 y_25_ * y_14_ + 1 y_25_ ^ 2 ] = 10400
c22: [ 1 x_24_ ^ 2 - 2 x_25_ * x_24_ + 1 x_25_ ^ 2 + 1 y_24_ ^ 2 - 2 y_25_ * y_24_ + 1 y_25_ ^ 2 ] = 19306
c23: [ 1 x_18_ ^ 2 - 2 x_26_ * x_18_ + 1 x_26_ ^ 2 + 1 y_18_ ^ 2 - 2 y_26_ * y_18_ + 1 y_26_ ^ 2 ] = 5540
c24: [ 1 x_1_ ^ 2 - 2 x_27_ * x_1_ + 1 x_27_ ^ 2 + 1 y_1_ ^ 2 - 2 y_27_ * y_1_ + 1 y_27_ ^ 2 ] = 4981
c25: [ 1 x_2_ ^ 2 - 2 x_27_ * x_2_ + 1 x_27_ ^ 2 + 1 y_2_ ^ 2 - 2 y_27_ * y_2_ + 1 y_27_ ^ 2 ] = 7837
c26: [ 1 x_1_ ^ 2 - 2 x_28_ * x_1_ + 1 x_28_ ^ 2 + 1 y_1_ ^ 2 - 2 y_28_ * y_1_ + 1 y_28_ ^ 2 ] = 24005
c27: [ 1 x_18_ ^ 2 - 2 x_28_ * x_18_ + 1 x_28_ ^ 2 + 1 y_18_ ^ 2 - 2 y_28_ * y_18_ + 1 y_28_ ^ 2 ] = 19661
c28: [ 1 x_4_ ^ 2 - 2 x_29_ * x_4_ + 1 x_29_ ^ 2 + 1 y_4_ ^ 2 - 2 y_29_ * y_4_ + 1 y_29_ ^ 2 ] = 8146
c29: [ 1 x_23_ ^ 2 - 2 x_30_ * x_23_ + 1 x_30_ ^ 2 + 1 y_23_ ^ 2 - 2 y_30_ * y_23_ + 1 y_30_ ^ 2 ] = 9553
c30: [ 1 x_28_ ^ 2 - 2 x_30_ * x_28_ + 1 x_30_ ^ 2 + 1 y_28_ ^ 2 - 2 y_30_ * y_28_ + 1 y_30_ ^ 2 ] = 15602
c31: [ 1 x_15_ ^ 2 - 2 x_31_ * x_15_ + 1 x_31_ ^ 2 + 1 y_15_ ^ 2 - 2 y_31_ * y_15_ + 1 y_31_ ^ 2 ] = 32525
c32: [ 1 x_3_ ^ 2 - 2 x_32_ * x_3_ + 1 x_32_ ^ 2 + 1 y_3_ ^ 2 - 2 y_32_ * y_3_ + 1 y_32_ ^ 2 ] = 15925
c33: [ 1 x_4_ ^ 2 - 2 x_32_ * x_4_ + 1 x_32_ ^ 2 + 1 y_4_ ^ 2 - 2 y_32_ * y_4_ + 1 y_32_ ^ 2 ] = 557
c34: [ 1 x_19_ ^ 2 - 2 x_32_ * x_19_ + 1 x_32_ ^ 2 + 1 y_19_ ^ 2 - 2 y_32_ * y_19_ + 1 y_32_ ^ 2 ] = 293
c35: [ 1 x_1_ ^ 2 - 2 x_33_ * x_1_ + 1 x_33_ ^ 2 + 1 y_1_ ^ 2 - 2 y_33_ * y_1_ + 1 y_33_ ^ 2 ] = 3074
c36: [ 1 x_5_ ^ 2 - 2 x_34_ * x_5_ + 1 x_34_ ^ 2 + 1 y_5_ ^ 2 - 2 y_34_ * y_5_ + 1 y_34_ ^ 2 ] = 16354
c37: [ 1 x_10_ ^ 2 - 2 x_34_ * x_10_ + 1 x_34_ ^ 2 + 1 y_10_ ^ 2 - 2 y_34_ * y_10_ + 1 y_34_ ^ 2 ] = 17645
c38: [ 1 x_11_ ^ 2 - 2 x_36_ * x_11_ + 1 x_36_ ^ 2 + 1 y_11_ ^ 2 - 2 y_36_ * y_11_ + 1 y_36_ ^ 2 ] = 712
c39: [ 1 x_18_ ^ 2 - 2 x_36_ * x_18_ + 1 x_36_ ^ 2 + 1 y_18_ ^ 2 - 2 y_36_ * y_18_ + 1 y_36_ ^ 2 ] = 10930
c40: [ 1 x_3_ ^ 2 - 2 x_37_ * x_3_ + 1 x_37_ ^ 2 + 1 y_3_ ^ 2 - 2 y_37_ * y_3_ + 1 y_37_ ^ 2 ] = 577
c41: [ 1 x_12_ ^ 2 - 2 x_37_ * x_12_ + 1 x_37_ ^ 2 + 1 y_12_ ^ 2 - 2 y_37_ * y_12_ + 1 y_37_ ^ 2 ] = 32708
c42: [ 1 x_15_ ^ 2 - 2 x_37_ * x_15_ + 1 x_37_ ^ 2 + 1 y_15_ ^ 2 - 2 y_37_ * y_15_ + 1 y_37_ ^ 2 ] = 55786
c43: [ 1 x_14_ ^ 2 - 2 x_38_ * x_14_ + 1 x_38_ ^ 2 + 1 y_14_ ^ 2 - 2 y_38_ * y_14_ + 1 y_38_ ^ 2 ] = 3460
c44: [ 1 x_20_ ^ 2 - 2 x_38_ * x_20_ + 1 x_38_ ^ 2 + 1 y_20_ ^ 2 - 2 y_38_ * y_20_ + 1 y_38_ ^ 2 ] = 11089
c45: [ 1 x_34_ ^ 2 - 2 x_38_ * x_34_ + 1 x_38_ ^ 2 + 1 y_34_ ^ 2 - 2 y_38_ * y_34_ + 1 y_38_ ^ 2 ] = 229
c46: [ 1 x_20_ ^ 2 - 2 x_39_ * x_20_ + 1 x_39_ ^ 2 + 1 y_20_ ^ 2 - 2 y_39_ * y_20_ + 1 y_39_ ^ 2 ] = 4660
c47: [ 1 x_22_ ^ 2 - 2 x_39_ * x_22_ + 1 x_39_ ^ 2 + 1 y_22_ ^ 2 - 2 y_39_ * y_22_ + 1 y_39_ ^ 2 ] = 6404
c48: [ 1 x_25_ ^ 2 - 2 x_39_ * x_25_ + 1 x_39_ ^ 2 + 1 y_25_ ^ 2 - 2 y_39_ * y_25_ + 1 y_39_ ^ 2 ] = 613
c49: [ 1 x_23_ ^ 2 - 2 x_40_ * x_23_ + 1 x_40_ ^ 2 + 1 y_23_ ^ 2 - 2 y_40_ * y_23_ + 1 y_40_ ^ 2 ] = 11234
c50: [ 1 x_9_ ^ 2 - 2 x_41_ * x_9_ + 1 x_41_ ^ 2 + 1 y_9_ ^ 2 - 2 y_41_ * y_9_ + 1 y_41_ ^ 2 ] = 12137
c51: [ 1 x_11_ ^ 2 - 2 x_41_ * x_11_ + 1 x_41_ ^ 2 + 1 y_11_ ^ 2 - 2 y_41_ * y_11_ + 1 y_41_ ^ 2 ] = 569
c52: [ 1 x_1_ ^ 2 - 2 x_42_ * x_1_ + 1 x_42_ ^ 2 + 1 y_1_ ^ 2 - 2 y_42_ * y_1_ + 1 y_42_ ^ 2 ] = 23465
c53: [ 1 x_26_ ^ 2 - 2 x_42_ * x_26_ + 1 x_42_ ^ 2 + 1 y_26_ ^ 2 - 2 y_42_ * y_26_ + 1 y_42_ ^ 2 ] = 22181
c54: [ 1 x_33_ ^ 2 - 2 x_42_ * x_33_ + 1 x_42_ ^ 2 + 1 y_33_ ^ 2 - 2 y_42_ * y_33_ + 1 y_42_ ^ 2 ] = 17533
c55: [ 1 x_10_ ^ 2 - 2 x_43_ * x_10_ + 1 x_43_ ^ 2 + 1 y_10_ ^ 2 - 2 y_43_ * y_10_ + 1 y_43_ ^ 2 ] = 13753
c56: [ 1 x_6_ ^ 2 - 2 x_44_ * x_6_ + 1 x_44_ ^ 2 + 1 y_6_ ^ 2 - 2 y_44_ * y_6_ + 1 y_44_ ^ 2 ] = 3785
c57: [ 1 x_29_ ^ 2 - 2 x_44_ * x_29_ + 1 x_44_ ^ 2 + 1 y_29_ ^ 2 - 2 y_44_ * y_29_ + 1 y_44_ ^ 2 ] = 9608
c58: [ 1 x_33_ ^ 2 - 2 x_44_ * x_33_ + 1 x_44_ ^ 2 + 1 y_33_ ^ 2 - 2 y_44_ * y_33_ + 1 y_44_ ^ 2 ] = 2501
c59: [ 1 x_9_ ^ 2 - 2 x_45_ * x_9_ + 1 x_45_ ^ 2 + 1 y_9_ ^ 2 - 2 y_45_ * y_9_ + 1 y_45_ ^ 2 ] = 17861
c60: [ 1 x_22_ ^ 2 - 2 x_45_ * x_22_ + 1 x_45_ ^ 2 + 1 y_22_ ^ 2 - 2 y_45_ * y_22_ + 1 y_45_ ^ 2 ] = 7925
c61: [ 1 x_1_ ^ 2 - 2 x_46_ * x_1_ + 1 x_46_ ^ 2 + 1 y_1_ ^ 2 - 2 y_46_ * y_1_ + 1 y_46_ ^ 2 ] = 157
c62: [ 1 x_5_ ^ 2 - 2 x_46_ * x_5_ + 1 x_46_ ^ 2 + 1 y_5_ ^ 2 - 2 y_46_ * y_5_ + 1 y_46_ ^ 2 ] = 509
c63: [ 1 x_2_ ^ 2 - 2 x_47_ * x_2_ + 1 x_47_ ^ 2 + 1 y_2_ ^ 2 - 2 y_47_ * y_2_ + 1 y_47_ ^ 2 ] = 25721
c64: [ 1 x_30_ ^ 2 - 2 x_47_ * x_30_ + 1 x_47_ ^ 2 + 1 y_30_ ^ 2 - 2 y_47_ * y_30_ + 1 y_47_ ^ 2 ] = 27988
c65: [ 1 x_24_ ^ 2 - 2 x_48_ * x_24_ + 1 x_48_ ^ 2 + 1 y_24_ ^ 2 - 2 y_48_ * y_24_ + 1 y_48_ ^ 2 ] = 1305
c66: [ 1 x_28_ ^ 2 - 2 x_48_ * x_28_ + 1 x_48_ ^ 2 + 1 y_28_ ^ 2 - 2 y_48_ * y_28_ + 1 y_48_ ^ 2 ] = 4525
c67: [ 1 x_29_ ^ 2 - 2 x_48_ * x_29_ + 1 x_48_ ^ 2 + 1 y_29_ ^ 2 - 2 y_48_ * y_29_ + 1 y_48_ ^ 2 ] = 11029
c68: [ 1 x_9_ ^ 2 - 2 x_49_ * x_9_ + 1 x_49_ ^ 2 + 1 y_9_ ^ 2 - 2 y_49_ * y_9_ + 1 y_49_ ^ 2 ] = 10845
c69: [ 1 x_13_ ^ 2 - 2 x_49_ * x_13_ + 1 x_49_ ^ 2 + 1 y_13_ ^ 2 - 2 y_49_ * y_13_ + 1 y_49_ ^ 2 ] = 8912
c70: [ 1 x_17_ ^ 2 - 2 x_50_ * x_17_ + 1 x_50_ ^ 2 + 1 y_17_ ^ 2 - 2 y_50_ * y_17_ + 1 y_50_ ^ 2 ] = 16580
c71: [ 1 x_22_ ^ 2 - 2 x_50_ * x_22_ + 1 x_50_ ^ 2 + 1 y_22_ ^ 2 - 2 y_50_ * y_22_ + 1 y_50_ ^ 2 ] = 17705
c72: [ 1 x_27_ ^ 2 - 2 x_50_ * x_27_ + 1 x_50_ ^ 2 + 1 y_27_ ^ 2 - 2 y_50_ * y_27_ + 1 y_50_ ^ 2 ] = 3368
c73: [ 1 x_5_ ^ 2 - 2 x_51_ * x_5_ + 1 x_51_ ^ 2 + 1 y_5_ ^ 2 - 2 y_51_ * y_5_ + 1 y_51_ ^ 2 ] = 7057
c74: [ 1 x_2_ ^ 2 - 2 x_52_ * x_2_ + 1 x_52_ ^ 2 + 1 y_2_ ^ 2 - 2 y_52_ * y_2_ + 1 y_52_ ^ 2 ] = 12456
c75: [ 1 x_20_ ^ 2 - 2 x_53_ * x_20_ + 1 x_53_ ^ 2 + 1 y_20_ ^ 2 - 2 y_53_ * y_20_ + 1 y_53_ ^ 2 ] = 6269
c76: [ 1 x_23_ ^ 2 - 2 x_53_ * x_23_ + 1 x_53_ ^ 2 + 1 y_23_ ^ 2 - 2 y_53_ * y_23_ + 1 y_53_ ^ 2 ] = 461
c77: [ 1 x_35_ ^ 2 - 2 x_54_ * x_35_ + 1 x_54_ ^ 2 + 1 y_35_ ^ 2 - 2 y_54_ * y_35_ + 1 y_54_ ^ 2 ] = 20421
c78: [ 1 x_32_ ^ 2 - 2 x_55_ * x_32_ + 1 x_55_ ^ 2 + 1 y_32_ ^ 2 - 2 y_55_ * y_32_ + 1 y_55_ ^ 2 ] = 586
c79: [ 1 x_40_ ^ 2 - 2 x_55_ * x_40_ + 1 x_55_ ^ 2 + 1 y_40_ ^ 2 - 2 y_55_ * y_40_ + 1 y_55_ ^ 2 ] = 6218
c80: [ 1 x_43_ ^ 2 - 2 x_55_ * x_43_ + 1 x_55_ ^ 2 + 1 y_43_ ^ 2 - 2 y_55_ * y_43_ + 1 y_55_ ^ 2 ] = 6304
c81: [ 1 x_26_ ^ 2 - 2 x_56_ * x_26_ + 1 x_56_ ^ 2 + 1 y_26_ ^ 2 - 2 y_56_ * y_26_ + 1 y_56_ ^ 2 ] = 7345
c82: [ 1 x_31_ ^ 2 - 2 x_56_ * x_31_ + 1 x_56_ ^ 2 + 1 y_31_ ^ 2 - 2 y_56_ * y_31_ + 1 y_56_ ^ 2 ] = 4594
c83: [ 1 x_53_ ^ 2 - 2 x_57_ * x_53_ + 1 x_57_ ^ 2 + 1 y_53_ ^ 2 - 2 y_57_ * y_53_ + 1 y_57_ ^ 2 ] = 1669
c84: [ 1 x_53_ ^ 2 - 2 x_58_ * x_53_ + 1 x_58_ ^ 2 + 1 y_53_ ^ 2 - 2 y_58_ * y_53_ + 1 y_58_ ^ 2 ] = 3362
c85: [ 1 x_21_ ^ 2 - 2 x_59_ * x_21_ + 1 x_59_ ^ 2 + 1 y_21_ ^ 2 - 2 y_59_ * y_21_ + 1 y_59_ ^ 2 ] = 17893
c86: [ 1 x_43_ ^ 2 - 2 x_59_ * x_43_ + 1 x_59_ ^ 2 + 1 y_43_ ^ 2 - 2 y_59_ * y_43_ + 1 y_59_ ^ 2 ] = 8450
c87: [ 1 x_36_ ^ 2 - 2 x_60_ * x_36_ + 1 x_60_ ^ 2 + 1 y_36_ ^ 2 - 2 y_60_ * y_36_ + 1 y_60_ ^ 2 ] = 5477
c88: [ 1 x_47_ ^ 2 - 2 x_60_ * x_47_ + 1 x_60_ ^ 2 + 1 y_47_ ^ 2 - 2 y_60_ * y_47_ + 1 y_60_ ^ 2 ] = 2026
c89: [ 1 x_54_ ^ 2 - 2 x_60_ * x_54_ + 1 x_60_ ^ 2 + 1 y_54_ ^ 2 - 2 y_60_ * y_54_ + 1 y_60_ ^ 2 ] = 33065
c90: [ 1 x_27_ ^ 2 - 2 x_61_ * x_27_ + 1 x_61_ ^ 2 + 1 y_27_ ^ 2 - 2 y_61_ * y_27_ + 1 y_61_ ^ 2 ] = 35554
c91: [ 1 x_48_ ^ 2 - 2 x_61_ * x_48_ + 1 x_61_ ^ 2 + 1 y_48_ ^ 2 - 2 y_61_ * y_48_ + 1 y_61_ ^ 2 ] = 22541
c92: [ 1 x_28_ ^ 2 - 2 x_62_ * x_28_ + 1 x_62_ ^ 2 + 1 y_28_ ^ 2 - 2 y_62_ * y_28_ + 1 y_62_ ^ 2 ] = 8325
c93: [ 1 x_32_ ^ 2 - 2 x_62_ * x_32_ + 1 x_62_ ^ 2 + 1 y_32_ ^ 2 - 2 y_62_ * y_32_ + 1 y_62_ ^ 2 ] = 7012
c94: [ 1 x_57_ ^ 2 - 2 x_62_ * x_57_ + 1 x_62_ ^ 2 + 1 y_57_ ^ 2 - 2 y_62_ * y_57_ + 1 y_62_ ^ 2 ] = 10114
c95: [ 1 x_12_ ^ 2 - 2 x_63_ * x_12_ + 1 x_63_ ^ 2 + 1 y_12_ ^ 2 - 2 y_63_ * y_12_ + 1 y_63_ ^ 2 ] = 1130
c96: [ 1 x_33_ ^ 2 - 2 x_63_ * x_33_ + 1 x_63_ ^ 2 + 1 y_33_ ^ 2 - 2 y_63_ * y_33_ + 1 y_63_ ^ 2 ] = 898
c97: [ 1 x_45_ ^ 2 - 2 x_63_ * x_45_ + 1 x_63_ ^ 2 + 1 y_45_ ^ 2 - 2 y_63_ * y_45_ + 1 y_63_ ^ 2 ] = 13525
c98: [ 1 x_13_ ^ 2 - 2 x_64_ * x_13_ + 1 x_64_ ^ 2 + 1 y_13_ ^ 2 - 2 y_64_ * y_13_ + 1 y_64_ ^ 2 ] = 15794
c99: [ 1 x_19_ ^ 2 - 2 x_64_ * x_19_ + 1 x_64_ ^ 2 + 1 y_19_ ^ 2 - 2 y_64_ * y_19_ + 1 y_64_ ^ 2 ] = 3636
c100: [ 1 x_21_ ^ 2 - 2 x_64_ * x_21_ + 1 x_64_ ^ 2 + 1 y_21_ ^ 2 - 2 y_64_ * y_21_ + 1 y_64_ ^ 2 ] = 4594
c101: [ 1 x_7_ ^ 2 - 2 x_65_ * x_7_ + 1 x_65_ ^ 2 + 1 y_7_ ^ 2 - 2 y_65_ * y_7_ + 1 y_65_ ^ 2 ] = 22565
c102: [ 1 x_57_ ^ 2 - 2 x_65_ * x_57_ + 1 x_65_ ^ 2 + 1 y_57_ ^ 2 - 2 y_65_ * y_57_ + 1 y_65_ ^ 2 ] = 10289
c103: [ 1 x_25_ ^ 2 - 2 x_66_ * x_25_ + 1 x_66_ ^ 2 + 1 y_25_ ^ 2 - 2 y_66_ * y_25_ + 1 y_66_ ^ 2 ] = 15885
c104: [ 1 x_46_ ^ 2 - 2 x_66_ * x_46_ + 1 x_66_ ^ 2 + 1 y_46_ ^ 2 - 2 y_66_ * y_46_ + 1 y_66_ ^ 2 ] = 6949
c105: [ 1 x_64_ ^ 2 - 2 x_66_ * x_64_ + 1 x_66_ ^ 2 + 1 y_64_ ^ 2 - 2 y_66_ * y_64_ + 1 y_66_ ^ 2 ] = 37181
c106: [ 1 x_31_ ^ 2 - 2 x_67_ * x_31_ + 1 x_67_ ^ 2 + 1 y_31_ ^ 2 - 2 y_67_ * y_31_ + 1 y_67_ ^ 2 ] = 2080
c107: [ 1 x_51_ ^ 2 - 2 x_67_ * x_51_ + 1 x_67_ ^ 2 + 1 y_51_ ^ 2 - 2 y_67_ * y_51_ + 1 y_67_ ^ 2 ] = 18000
c108: [ 1 x_57_ ^ 2 - 2 x_67_ * x_57_ + 1 x_67_ ^ 2 + 1 y_57_ ^ 2 - 2 y_67_ * y_57_ + 1 y_67_ ^ 2 ] = 9385
c109: [ 1 x_12_ ^ 2 - 2 x_68_ * x_12_ + 1 x_68_ ^ 2 + 1 y_12_ ^ 2 - 2 y_68_ * y_12_ + 1 y_68_ ^ 2 ] = 2533
c110: [ 1 x_16_ ^ 2 - 2 x_68_ * x_16_ + 1 x_68_ ^ 2 + 1 y_16_ ^ 2 - 2 y_68_ * y_16_ + 1 y_68_ ^ 2 ] = 1994
c111: [ 1 x_59_ ^ 2 - 2 x_68_ * x_59_ + 1 x_68_ ^ 2 + 1 y_59_ ^ 2 - 2 y_68_ * y_59_ + 1 y_68_ ^ 2 ] = 7873
c112: [ 1 x_16_ ^ 2 - 2 x_69_ * x_16_ + 1 x_69_ ^ 2 + 1 y_16_ ^ 2 - 2 y_69_ * y_16_ + 1 y_69_ ^ 2 ] = 1825
c113: [ 1 x_32_ ^ 2 - 2 x_69_ * x_32_ + 1 x_69_ ^ 2 + 1 y_32_ ^ 2 - 2 y_69_ * y_32_ + 1 y_69_ ^ 2 ] = 7858
c114: [ 1 x_31_ ^ 2 - 2 x_70_ * x_31_ + 1 x_70_ ^ 2 + 1 y_31_ ^ 2 - 2 y_70_ * y_31_ + 1 y_70_ ^ 2 ] = 3145
c115: [ 1 x_43_ ^ 2 - 2 x_70_ * x_43_ + 1 x_70_ ^ 2 + 1 y_43_ ^ 2 - 2 y_70_ * y_43_ + 1 y_70_ ^ 2 ] = 12688
c116: [ 1 x_6_ ^ 2 - 2 x_71_ * x_6_ + 1 x_71_ ^ 2 + 1 y_6_ ^ 2 - 2 y_71_ * y_6_ + 1 y_71_ ^ 2 ] = 2340
c117: [ 1 x_61_ ^ 2 - 2 x_71_ * x_61_ + 1 x_71_ ^ 2 + 1 y_61_ ^ 2 - 2 y_71_ * y_61_ + 1 y_71_ ^ 2 ] = 44705
c118: [ 1 x_15_ ^ 2 - 2 x_72_ * x_15_ + 1 x_72_ ^ 2 + 1 y_15_ ^ 2 - 2 y_72_ * y_15_ + 1 y_72_ ^ 2 ] = 5476
c119: [ 1 x_41_ ^ 2 - 2 x_72_ * x_41_ + 1 x_72_ ^ 2 + 1 y_41_ ^ 2 - 2 y_72_ * y_41_ + 1 y_72_ ^ 2 ] = 23153
c120: [ 1 x_43_ ^ 2 - 2 x_72_ * x_43_ + 1 x_72_ ^ 2 + 1 y_43_ ^ 2 - 2 y_72_ * y_43_ + 1 y_72_ ^ 2 ] = 21050
c121: [ 1 x_2_ ^ 2 - 2 x_73_ * x_2_ + 1 x_73_ ^ 2 + 1 y_2_ ^ 2 - 2 y_73_ * y_2_ + 1 y_73_ ^ 2 ] = 5165
c122: [ 1 x_6_ ^ 2 - 2 x_73_ * x_6_ + 1 x_73_ ^ 2 + 1 y_6_ ^ 2 - 2 y_73_ * y_6_ + 1 y_73_ ^ 2 ] = 4021
c123: [ 1 x_18_ ^ 2 - 2 x_74_ * x_18_ + 1 x_74_ ^ 2 + 1 y_18_ ^ 2 - 2 y_74_ * y_18_ + 1 y_74_ ^ 2 ] = 28201
c124: [ 1 x_54_ ^ 2 - 2 x_74_ * x_54_ + 1 x_74_ ^ 2 + 1 y_54_ ^ 2 - 2 y_74_ * y_54_ + 1 y_74_ ^ 2 ] = 33025
c125: [ 1 x_32_ ^ 2 - 2 x_75_ * x_32_ + 1 x_75_ ^ 2 + 1 y_32_ ^ 2 - 2 y_75_ * y_32_ + 1 y_75_ ^ 2 ] = 9760
c126: [ 1 x_52_ ^ 2 - 2 x_75_ * x_52_ + 1 x_75_ ^ 2 + 1 y_52_ ^ 2 - 2 y_75_ * y_52_ + 1 y_75_ ^ 2 ] = 6280
c127: [ 1 x_10_ ^ 2 - 2 x_76_ * x_10_ + 1 x_76_ ^ 2 + 1 y_10_ ^ 2 - 2 y_76_ * y_10_ + 1 y_76_ ^ 2 ] = 15901
c128: [ 1 x_59_ ^ 2 - 2 x_76_ * x_59_ + 1 x_76_ ^ 2 + 1 y_59_ ^ 2 - 2 y_76_ * y_59_ + 1 y_76_ ^ 2 ] = 12564
c129: [ 1 x_75_ ^ 2 - 2 x_76_ * x_75_ + 1 x_76_ ^ 2 + 1 y_75_ ^ 2 - 2 y_76_ * y_75_ + 1 y_76_ ^ 2 ] = 24272
c130: [ 1 x_12_ ^ 2 - 2 x_77_ * x_12_ + 1 x_77_ ^ 2 + 1 y_12_ ^ 2 - 2 y_77_ * y_12_ + 1 y_77_ ^ 2 ] = 7540
c131: [ 1 x_18_ ^ 2 - 2 x_77_ * x_18_ + 1 x_77_ ^ 2 + 1 y_18_ ^ 2 - 2 y_77_ * y_18_ + 1 y_77_ ^ 2 ] = 11170
c132: [ 1 x_20_ ^ 2 - 2 x_77_ * x_20_ + 1 x_77_ ^ 2 + 1 y_20_ ^ 2 - 2 y_77_ * y_20_ + 1 y_77_ ^ 2 ] = 7488
c133: [ 1 x_18_ ^ 2 - 2 x_78_ * x_18_ + 1 x_78_ ^ 2 + 1 y_18_ ^ 2 - 2 y_78_ * y_18_ + 1 y_78_ ^ 2 ] = 15625
c134: [ 1 x_35_ ^ 2 - 2 x_78_ * x_35_ + 1 x_78_ ^ 2 + 1 y_35_ ^ 2 - 2 y_78_ * y_35_ + 1 y_78_ ^ 2 ] = 12340
c135: [ 1 x_57_ ^ 2 - 2 x_78_ * x_57_ + 1 x_78_ ^ 2 + 1 y_57_ ^ 2 - 2 y_78_ * y_57_ + 1 y_78_ ^ 2 ] = 7549
c136: [ 1 x_4_ ^ 2 - 2 x_79_ * x_4_ + 1 x_79_ ^ 2 + 1 y_4_ ^ 2 - 2 y_79_ * y_4_ + 1 y_79_ ^ 2 ] = 4610
c137: [ 1 x_65_ ^ 2 - 2 x_79_ * x_65_ + 1 x_79_ ^ 2 + 1 y_65_ ^ 2 - 2 y_79_ * y_65_ + 1 y_79_ ^ 2 ] = 35802
c138: [ 1 x_74_ ^ 2 - 2 x_79_ * x_74_ + 1 x_79_ ^ 2 + 1 y_74_ ^ 2 - 2 y_79_ * y_74_ + 1 y_79_ ^ 2 ] = 37370
c139: [ 1 x_9_ ^ 2 - 2 x_80_ * x_9_ + 1 x_80_ ^ 2 + 1 y_9_ ^ 2 - 2 y_80_ * y_9_ + 1 y_80_ ^ 2 ] = 21136
c140: [ 1 x_31_ ^ 2 - 2 x_80_ * x_31_ + 1 x_80_ ^ 2 + 1 y_31_ ^ 2 - 2 y_80_ * y_31_ + 1 y_80_ ^ 2 ] = 8845
c141: [ 1 x_36_ ^ 2 - 2 x_80_ * x_36_ + 1 x_80_ ^ 2 + 1 y_36_ ^ 2 - 2 y_80_ * y_36_ + 1 y_80_ ^ 2 ] = 1682
c142: [ 1 x_5_ ^ 2 - 2 x_81_ * x_5_ + 1 x_81_ ^ 2 + 1 y_5_ ^ 2 - 2 y_81_ * y_5_ + 1 y_81_ ^ 2 ] = 29825
c143: [ 1 x_51_ ^ 2 - 2 x_81_ * x_51_ + 1 x_81_ ^ 2 + 1 y_51_ ^ 2 - 2 y_81_ * y_51_ + 1 y_81_ ^ 2 ] = 21634
c144: [ 1 x_58_ ^ 2 - 2 x_81_ * x_58_ + 1 x_81_ ^ 2 + 1 y_58_ ^ 2 - 2 y_81_ * y_58_ + 1 y_81_ ^ 2 ] = 19400
c145: [ 1 x_3_ ^ 2 - 2 x_82_ * x_3_ + 1 x_82_ ^ 2 + 1 y_3_ ^ 2 - 2 y_82_ * y_3_ + 1 y_82_ ^ 2 ] = 9490
c146: [ 1 x_16_ ^ 2 - 2 x_82_ * x_16_ + 1 x_82_ ^ 2 + 1 y_16_ ^ 2 - 2 y_82_ * y_16_ + 1 y_82_ ^ 2 ] = 12706
c147: [ 1 x_1_ ^ 2 - 2 x_83_ * x_1_ + 1 x_83_ ^ 2 + 1 y_1_ ^ 2 - 2 y_83_ * y_1_ + 1 y_83_ ^ 2 ] = 7474
c148: [ 1 x_30_ ^ 2 - 2 x_83_ * x_30_ + 1 x_83_ ^ 2 + 1 y_30_ ^ 2 - 2 y_83_ * y_30_ + 1 y_83_ ^ 2 ] = 7913
c149: [ 1 x_42_ ^ 2 - 2 x_83_ * x_42_ + 1 x_83_ ^ 2 + 1 y_42_ ^ 2 - 2 y_83_ * y_42_ + 1 y_83_ ^ 2 ] = 20717
c150: [ 1 x_13_ ^ 2 - 2 x_84_ * x_13_ + 1 x_84_ ^ 2 + 1 y_13_ ^ 2 - 2 y_84_ * y_13_ + 1 y_84_ ^ 2 ] = 19409
c151: [ 1 x_21_ ^ 2 - 2 x_84_ * x_21_ + 1 x_84_ ^ 2 + 1 y_21_ ^ 2 - 2 y_84_ * y_21_ + 1 y_84_ ^ 2 ] = 8845
c152: [ 1 x_58_ ^ 2 - 2 x_84_ * x_58_ + 1 x_84_ ^ 2 + 1 y_58_ ^ 2 - 2 y_84_ * y_58_ + 1 y_84_ ^ 2 ] = 26645
c153: [ 1 x_3_ ^ 2 - 2 x_85_ * x_3_ + 1 x_85_ ^ 2 + 1 y_3_ ^ 2 - 2 y_85_ * y_3_ + 1 y_85_ ^ 2 ] = 12762
c154: [ 1 x_9_ ^ 2 - 2 x_85_ * x_9_ + 1 x_85_ ^ 2 + 1 y_9_ ^ 2 - 2 y_85_ * y_9_ + 1 y_85_ ^ 2 ] = 6125
c155: [ 1 x_17_ ^ 2 - 2 x_85_ * x_17_ + 1 x_85_ ^ 2 + 1 y_17_ ^ 2 - 2 y_85_ * y_17_ + 1 y_85_ ^ 2 ] = 13840
c156: [ 1 x_2_ ^ 2 - 2 x_86_ * x_2_ + 1 x_86_ ^ 2 + 1 y_2_ ^ 2 - 2 y_86_ * y_2_ + 1 y_86_ ^ 2 ] = 7129
c157: [ 1 x_6_ ^ 2 - 2 x_86_ * x_6_ + 1 x_86_ ^ 2 + 1 y_6_ ^ 2 - 2 y_86_ * y_6_ + 1 y_86_ ^ 2 ] = 2713
c158: [ 1 x_35_ ^ 2 - 2 x_86_ * x_35_ + 1 x_86_ ^ 2 + 1 y_35_ ^ 2 - 2 y_86_ * y_35_ + 1 y_86_ ^ 2 ] = 6362
c159: [ 1 x_2_ ^ 2 - 2 x_87_ * x_2_ + 1 x_87_ ^ 2 + 1 y_2_ ^ 2 - 2 y_87_ * y_2_ + 1 y_87_ ^ 2 ] = 8033
c160: [ 1 x_48_ ^ 2 - 2 x_87_ * x_48_ + 1 x_87_ ^ 2 + 1 y_48_ ^ 2 - 2 y_87_ * y_48_ + 1 y_87_ ^ 2 ] = 6929
c161: [ 1 x_74_ ^ 2 - 2 x_87_ * x_74_ + 1 x_87_ ^ 2 + 1 y_74_ ^ 2 - 2 y_87_ * y_74_ + 1 y_87_ ^ 2 ] = 17450
c162: [ 1 x_53_ ^ 2 - 2 x_88_ * x_53_ + 1 x_88_ ^ 2 + 1 y_53_ ^ 2 - 2 y_88_ * y_53_ + 1 y_88_ ^ 2 ] = 1825
c163: [ 1 x_69_ ^ 2 - 2 x_88_ * x_69_ + 1 x_88_ ^ 2 + 1 y_69_ ^ 2 - 2 y_88_ * y_69_ + 1 y_88_ ^ 2 ] = 11848
c164: [ 1 x_77_ ^ 2 - 2 x_89_ * x_77_ + 1 x_89_ ^ 2 + 1 y_77_ ^ 2 - 2 y_89_ * y_77_ + 1 y_89_ ^ 2 ] = 5512
c165: [ 1 x_82_ ^ 2 - 2 x_89_ * x_82_ + 1 x_89_ ^ 2 + 1 y_82_ ^ 2 - 2 y_89_ * y_82_ + 1 y_89_ ^ 2 ] = 8149
c166: [ 1 x_88_ ^ 2 - 2 x_89_ * x_88_ + 1 x_89_ ^ 2 + 1 y_88_ ^ 2 - 2 y_89_ * y_88_ + 1 y_89_ ^ 2 ] = 10000
c167: [ 1 x_7_ ^ 2 - 2 x_90_ * x_7_ + 1 x_90_ ^ 2 + 1 y_7_ ^ 2 - 2 y_90_ * y_7_ + 1 y_90_ ^ 2 ] = 20610
c168: [ 1 x_18_ ^ 2 - 2 x_90_ * x_18_ + 1 x_90_ ^ 2 + 1 y_18_ ^ 2 - 2 y_90_ * y_18_ + 1 y_90_ ^ 2 ] = 20938
c169: [ 1 x_44_ ^ 2 - 2 x_90_ * x_44_ + 1 x_90_ ^ 2 + 1 y_44_ ^ 2 - 2 y_90_ * y_44_ + 1 y_90_ ^ 2 ] = 1853
c170: [ 1 x_12_ ^ 2 - 2 x_91_ * x_12_ + 1 x_91_ ^ 2 + 1 y_12_ ^ 2 - 2 y_91_ * y_12_ + 1 y_91_ ^ 2 ] = 9529
c171: [ 1 x_35_ ^ 2 - 2 x_91_ * x_35_ + 1 x_91_ ^ 2 + 1 y_35_ ^ 2 - 2 y_91_ * y_35_ + 1 y_91_ ^ 2 ] = 8936
c172: [ 1 x_51_ ^ 2 - 2 x_91_ * x_51_ + 1 x_91_ ^ 2 + 1 y_51_ ^ 2 - 2 y_91_ * y_51_ + 1 y_91_ ^ 2 ] = 14612
c173: [ 1 x_33_ ^ 2 - 2 x_92_ * x_33_ + 1 x_92_ ^ 2 + 1 y_33_ ^ 2 - 2 y_92_ * y_33_ + 1 y_92_ ^ 2 ] = 388
c174: [ 1 x_40_ ^ 2 - 2 x_92_ * x_40_ + 1 x_92_ ^ 2 + 1 y_40_ ^ 2 - 2 y_92_ * y_40_ + 1 y_92_ ^ 2 ] = 1682
c175: [ 1 x_42_ ^ 2 - 2 x_92_ * x_42_ + 1 x_92_ ^ 2 + 1 y_42_ ^ 2 - 2 y_92_ * y_42_ + 1 y_92_ ^ 2 ] = 21141
c176: [ 1 x_40_ ^ 2 - 2 x_93_ * x_40_ + 1 x_93_ ^ 2 + 1 y_40_ ^ 2 - 2 y_93_ * y_40_ + 1 y_93_ ^ 2 ] = 488
c177: [ 1 x_49_ ^ 2 - 2 x_93_ * x_49_ + 1 x_93_ ^ 2 + 1 y_49_ ^ 2 - 2 y_93_ * y_49_ + 1 y_93_ ^ 2 ] = 15725
c178: [ 1 x_64_ ^ 2 - 2 x_93_ * x_64_ + 1 x_93_ ^ 2 + 1 y_64_ ^ 2 - 2 y_93_ * y_64_ + 1 y_93_ ^ 2 ] = 23273
c179: [ 1 x_10_ ^ 2 - 2 x_94_ * x_10_ + 1 x_94_ ^ 2 + 1 y_10_ ^ 2 - 2 y_94_ * y_10_ + 1 y_94_ ^ 2 ] = 853
c180: [ 1 x_71_ ^ 2 - 2 x_94_ * x_71_ + 1 x_94_ ^ 2 + 1 y_71_ ^ 2 - 2 y_94_ * y_71_ + 1 y_94_ ^ 2 ] = 666
c181: [ 1 x_82_ ^ 2 - 2 x_94_ * x_82_ + 1 x_94_ ^ 2 + 1 y_82_ ^ 2 - 2 y_94_ * y_82_ + 1 y_94_ ^ 2 ] = 17901
c182: [ 1 x_39_ ^ 2 - 2 x_95_ * x_39_ + 1 x_95_ ^ 2 + 1 y_39_ ^ 2 - 2 y_95_ * y_39_ + 1 y_95_ ^ 2 ] = 3001
c183: [ 1 x_56_ ^ 2 - 2 x_95_ * x_56_ + 1 x_95_ ^ 2 + 1 y_56_ ^ 2 - 2 y_95_ * y_56_ + 1 y_95_ ^ 2 ] = 13394
c184: [ 1 x_4_ ^ 2 - 2 x_96_ * x_4_ + 1 x_96_ ^ 2 + 1 y_4_ ^ 2 - 2 y_96_ * y_4_ + 1 y_96_ ^ 2 ] = 15457
c185: [ 1 x_52_ ^ 2 - 2 x_96_ * x_52_ + 1 x_96_ ^ 2 + 1 y_52_ ^ 2 - 2 y_96_ * y_52_ + 1 y_96_ ^ 2 ] = 1856
c186: [ 1 x_93_ ^ 2 - 2 x_96_ * x_93_ + 1 x_96_ ^ 2 + 1 y_93_ ^ 2 - 2 y_96_ * y_93_ + 1 y_96_ ^ 2 ] = 37060
c187: [ 1 x_52_ ^ 2 - 2 x_97_ * x_52_ + 1 x_97_ ^ 2 + 1 y_52_ ^ 2 - 2 y_97_ * y_52_ + 1 y_97_ ^ 2 ] = 1737
c188: [ 1 x_86_ ^ 2 - 2 x_97_ * x_86_ + 1 x_97_ ^ 2 + 1 y_86_ ^ 2 - 2 y_97_ * y_86_ + 1 y_97_ ^ 2 ] = 5860
c189: [ 1 x_95_ ^ 2 - 2 x_97_ * x_95_ + 1 x_97_ ^ 2 + 1 y_95_ ^ 2 - 2 y_97_ * y_95_ + 1 y_97_ ^ 2 ] = 6570
c190: [ 1 x_21_ ^ 2 - 2 x_98_ * x_21_ + 1 x_98_ ^ 2 + 1 y_21_ ^ 2 - 2 y_98_ * y_21_ + 1 y_98_ ^ 2 ] = 18365
c191: [ 1 x_48_ ^ 2 - 2 x_98_ * x_48_ + 1 x_98_ ^ 2 + 1 y_48_ ^ 2 - 2 y_98_ * y_48_ + 1 y_98_ ^ 2 ] = 6408
c192: [ 1 x_70_ ^ 2 - 2 x_98_ * x_70_ + 1 x_98_ ^ 2 + 1 y_70_ ^ 2 - 2 y_98_ * y_70_ + 1 y_98_ ^ 2 ] = 21050
c193: [ 1 x_15_ ^ 2 - 2 x_99_ * x_15_ + 1 x_99_ ^ 2 + 1 y_15_ ^ 2 - 2 y_99_ * y_15_ + 1 y_99_ ^ 2 ] = 7354
c194: [ 1 x_20_ ^ 2 - 2 x_99_ * x_20_ + 1 x_99_ ^ 2 + 1 y_20_ ^ 2 - 2 y_99_ * y_20_ + 1 y_99_ ^ 2 ] = 1312
c195: [ 1 x_80_ ^ 2 - 2 x_99_ * x_80_ + 1 x_99_ ^ 2 + 1 y_80_ ^ 2 - 2 y_99_ * y_80_ + 1 y_99_ ^ 2 ] = 2018
c196: [ 1 x_1_ ^ 2 - 2 x_100_ * x_1_ + 1 x_100_ ^ 2 + 1 y_1_ ^ 2 - 2 y_100_ * y_1_ + 1 y_100_ ^ 2 ] = 18513
c197: [ 1 x_27_ ^ 2 - 2 x_100_ * x_27_ + 1 x_100_ ^ 2 + 1 y_27_ ^ 2 - 2 y_100_ * y_27_ + 1 y_100_ ^ 2 ] = 4420
c198: [ 1 x_73_ ^ 2 - 2 x_100_ * x_73_ + 1 x_100_ ^ 2 + 1 y_73_ ^ 2 - 2 y_100_ * y_73_ + 1 y_100_ ^ 2 ] = 7442
Bounds
x_1_ = 92
-67 <= x_2_ <= 224
-143 <= x_3_ <= 175
-41 <= x_4_ <= 25
57 <= x_5_ <= 127
-74 <= x_6_ <= 147
-124 <= x_7_ <= 266
-77 <= x_8_ <= 219
-209 <= x_9_ <= 111
-94 <= x_10_ <= 126
-83 <= x_11_ <= 67
-27 <= x_12_ <= 87
x_13_ = -87
-1 <= x_14_ <= 143
-141 <= x_15_ <= 266
29 <= x_16_ <= 113
-165 <= x_17_ <= 239
-92 <= x_18_ <= 199
-34 <= x_19_ <= 66
-159 <= x_20_ <= 216
-162 <= x_21_ <= 106
-74 <= x_22_ <= 258
-102 <= x_23_ <= 244
-11 <= x_24_ <= 166
-102 <= x_25_ <= 163
-166 <= x_26_ <= 273
22 <= x_27_ <= 162
-62 <= x_28_ <= 224
-111 <= x_29_ <= 115
-83 <= x_30_ <= 267
-206 <= x_31_ <= 229
-17 <= x_32_ <= 49
37 <= x_33_ <= 147
-70 <= x_34_ <= 217
-206 <= x_35_ <= 279
-109 <= x_36_ <= 94
-167 <= x_37_ <= 199
-60 <= x_38_ <= 202
-127 <= x_39_ <= 188
-24 <= x_40_ <= 152
-107 <= x_41_ <= 91
-61 <= x_42_ <= 245
-121 <= x_43_ <= 152
-13 <= x_44_ <= 197
-109 <= x_45_ <= 237
80 <= x_46_ <= 104
-227 <= x_47_ <= 213
-47 <= x_48_ <= 202
-171 <= x_49_ <= 7
-36 <= x_50_ <= 220
-27 <= x_51_ <= 211
-178 <= x_52_ <= 193
-80 <= x_53_ <= 222
-349 <= x_54_ <= 350
-41 <= x_55_ <= 73
-252 <= x_56_ <= 297
-121 <= x_57_ <= 233
-138 <= x_58_ <= 215
-105 <= x_59_ <= 227
-183 <= x_60_ <= 168
-167 <= x_61_ <= 351
-101 <= x_62_ <= 133
7 <= x_63_ <= 121
-95 <= x_64_ <= 38
-222 <= x_65_ <= 282
-3 <= x_66_ <= 187
-161 <= x_67_ <= 275
-16 <= x_68_ <= 138
x_69_ = 71
-233 <= x_70_ <= 265
-123 <= x_71_ <= 181
-215 <= x_72_ <= 243
-130 <= x_73_ <= 211
-260 <= x_74_ <= 286
-116 <= x_75_ <= 148
-217 <= x_76_ <= 252
-113 <= x_77_ <= 174
-208 <= x_78_ <= 320
-109 <= x_79_ <= 93
-151 <= x_80_ <= 135
-115 <= x_81_ <= 299
-84 <= x_82_ <= 226
6 <= x_83_ <= 178
-226 <= x_84_ <= 52
-256 <= x_85_ <= 189
-127 <= x_86_ <= 200
-130 <= x_87_ <= 286
-37 <= x_88_ <= 179
-137 <= x_89_ <= 249
-56 <= x_90_ <= 240
-124 <= x_91_ <= 185
17 <= x_92_ <= 167
-46 <= x_93_ <= 132
-124 <= x_94_ <= 155
-182 <= x_95_ <= 243
-165 <= x_96_ <= 150
-203 <= x_97_ <= 234
-127 <= x_98_ <= 241
-195 <= x_99_ <= 180
-44 <= x_100_ <= 228
y_1_ = 57
-102 <= y_2_ <= 216
-170 <= y_3_ <= 209
-68 <= y_4_ <= 59
22 <= y_5_ <= 92
-109 <= y_6_ <= 181
-151 <= y_7_ <= 239
-104 <= y_8_ <= 192
-236 <= y_9_ <= 145
-121 <= y_10_ <= 160
-110 <= y_11_ <= 101
-62 <= y_12_ <= 121
y_13_ = -53
-28 <= y_14_ <= 116
-176 <= y_15_ <= 290
2 <= y_16_ <= 86
-200 <= y_17_ <= 273
-127 <= y_18_ <= 233
-61 <= y_19_ <= 100
-186 <= y_20_ <= 250
-189 <= y_21_ <= 140
-109 <= y_22_ <= 223
-129 <= y_23_ <= 217
-46 <= y_24_ <= 160
-130 <= y_25_ <= 197
-201 <= y_26_ <= 307
-13 <= y_27_ <= 127
-97 <= y_28_ <= 211
-146 <= y_29_ <= 149
-118 <= y_30_ <= 232
-241 <= y_31_ <= 263
-44 <= y_32_ <= 83
2 <= y_33_ <= 112
-102 <= y_34_ <= 190
-241 <= y_35_ <= 313
-136 <= y_36_ <= 128
-194 <= y_37_ <= 233
-87 <= y_38_ <= 175
-155 <= y_39_ <= 222
-59 <= y_40_ <= 173
-134 <= y_41_ <= 125
-96 <= y_42_ <= 210
-148 <= y_43_ <= 186
-48 <= y_44_ <= 162
-144 <= y_45_ <= 258
45 <= y_46_ <= 69
-256 <= y_47_ <= 247
-82 <= y_48_ <= 196
-147 <= y_49_ <= 41
-71 <= y_50_ <= 185
-62 <= y_51_ <= 176
-213 <= y_52_ <= 227
-107 <= y_53_ <= 195
-384 <= y_54_ <= 384
-68 <= y_55_ <= 107
-287 <= y_56_ <= 331
-148 <= y_57_ <= 236
-165 <= y_58_ <= 249
-132 <= y_59_ <= 220
-210 <= y_60_ <= 202
-202 <= y_61_ <= 316
-128 <= y_62_ <= 167
-28 <= y_63_ <= 142
-122 <= y_64_ <= 72
-249 <= y_65_ <= 316
-38 <= y_66_ <= 152
-196 <= y_67_ <= 309
-43 <= y_68_ <= 131
y_69_ = 44
-260 <= y_70_ <= 299
-158 <= y_71_ <= 215
-250 <= y_72_ <= 277
-165 <= y_73_ <= 245
-295 <= y_74_ <= 320
-143 <= y_75_ <= 182
-244 <= y_76_ <= 286
-148 <= y_77_ <= 208
-235 <= y_78_ <= 323
-136 <= y_79_ <= 127
-178 <= y_80_ <= 169
-150 <= y_81_ <= 264
-111 <= y_82_ <= 199
-29 <= y_83_ <= 143
-192 <= y_84_ <= 86
-283 <= y_85_ <= 223
-162 <= y_86_ <= 234
-165 <= y_87_ <= 279
-64 <= y_88_ <= 152
-164 <= y_89_ <= 252
-91 <= y_90_ <= 205
-159 <= y_91_ <= 219
-18 <= y_92_ <= 132
-81 <= y_93_ <= 166
-151 <= y_94_ <= 189
-210 <= y_95_ <= 277
-192 <= y_96_ <= 184
-238 <= y_97_ <= 268
-162 <= y_98_ <= 275
-222 <= y_99_ <= 214
-79 <= y_100_ <= 193
General
x_1_
x_2_
x_3_
x_4_
x_5_
x_6_
x_7_
x_8_
x_9_
x_10_
x_11_
x_12_
x_13_
x_14_
x_15_
x_16_
x_17_
x_18_
x_19_
x_20_
x_21_
x_22_
x_23_
x_24_
x_25_
x_26_
x_27_
x_28_
x_29_
x_30_
x_31_
x_32_
x_33_
x_34_
x_35_
x_36_
x_37_
x_38_
x_39_
x_40_
x_41_
x_42_
x_43_
x_44_
x_45_
x_46_
x_47_
x_48_
x_49_
x_50_
x_51_
x_52_
x_53_
x_54_
x_55_
x_56_
x_57_
x_58_
x_59_
x_60_
x_61_
x_62_
x_63_
x_64_
x_65_
x_66_
x_67_
x_68_
x_69_
x_70_
x_71_
x_72_
x_73_
x_74_
x_75_
x_76_
x_77_
x_78_
x_79_
x_80_
x_81_
x_82_
x_83_
x_84_
x_85_
x_86_
x_87_
x_88_
x_89_
x_90_
x_91_
x_92_
x_93_
x_94_
x_95_
x_96_
x_97_
x_98_
x_99_
x_100_
y_1_
y_2_
y_3_
y_4_
y_5_
y_6_
y_7_
y_8_
y_9_
y_10_
y_11_
y_12_
y_13_
y_14_
y_15_
y_16_
y_17_
y_18_
y_19_
y_20_
y_21_
y_22_
y_23_
y_24_
y_25_
y_26_
y_27_
y_28_
y_29_
y_30_
y_31_
y_32_
y_33_
y_34_
y_35_
y_36_
y_37_
y_38_
y_39_
y_40_
y_41_
y_42_
y_43_
y_44_
y_45_
y_46_
y_47_
y_48_
y_49_
y_50_
y_51_
y_52_
y_53_
y_54_
y_55_
y_56_
y_57_
y_58_
y_59_
y_60_
y_61_
y_62_
y_63_
y_64_
y_65_
y_66_
y_67_
y_68_
y_69_
y_70_
y_71_
y_72_
y_73_
y_74_
y_75_
y_76_
y_77_
y_78_
y_79_
y_80_
y_81_
y_82_
y_83_
y_84_
y_85_
y_86_
y_87_
y_88_
y_89_
y_90_
y_91_
y_92_
y_93_
y_94_
y_95_
y_96_
y_97_
y_98_
y_99_
y_100_
End
