minimize
obj: 
subject to
c1_1: -16 x_1_ + 20 y_1_ + [ 1 x_1_ ^ 2 + 1 y_1_ ^ 2 ] <= 106529
c2_1: -16 x_2_ + 20 y_2_ + [ 1 x_2_ ^ 2 + 1 y_2_ ^ 2 ] <= 74925
c3_1: -16 x_3_ + 20 y_3_ + [ 1 x_3_ ^ 2 + 1 y_3_ ^ 2 ] <= 99130
c4_1: -16 x_4_ + 20 y_4_ + [ 1 x_4_ ^ 2 + 1 y_4_ ^ 2 ] <= 63055
c5_1: -16 x_5_ + 20 y_5_ + [ 1 x_5_ ^ 2 + 1 y_5_ ^ 2 ] <= 127889
c6_1: -16 x_6_ + 20 y_6_ + [ 1 x_6_ ^ 2 + 1 y_6_ ^ 2 ] <= 33009
c7_1: -16 x_7_ + 20 y_7_ + [ 1 x_7_ ^ 2 + 1 y_7_ ^ 2 ] <= 103083
c8_1: -16 x_8_ + 20 y_8_ + [ 1 x_8_ ^ 2 + 1 y_8_ ^ 2 ] <= 14206
c9_1: -16 x_9_ + 20 y_9_ + [ 1 x_9_ ^ 2 + 1 y_9_ ^ 2 ] <= 119350
c10_1: -16 x_10_ + 20 y_10_ + [ 1 x_10_ ^ 2 + 1 y_10_ ^ 2 ] <= 123012
c11_1: -16 x_11_ + 20 y_11_ + [ 1 x_11_ ^ 2 + 1 y_11_ ^ 2 ] <= 36644
c12_1: -16 x_12_ + 20 y_12_ + [ 1 x_12_ ^ 2 + 1 y_12_ ^ 2 ] <= 87997
c13_1: -16 x_13_ + 20 y_13_ + [ 1 x_13_ ^ 2 + 1 y_13_ ^ 2 ] <= 43268
c14_1: -16 x_14_ + 20 y_14_ + [ 1 x_14_ ^ 2 + 1 y_14_ ^ 2 ] <= 105164
c15_1: -16 x_15_ + 20 y_15_ + [ 1 x_15_ ^ 2 + 1 y_15_ ^ 2 ] <= 57458
c16_1: -16 x_16_ + 20 y_16_ + [ 1 x_16_ ^ 2 + 1 y_16_ ^ 2 ] <= 25153
c17_1: -16 x_17_ + 20 y_17_ + [ 1 x_17_ ^ 2 + 1 y_17_ ^ 2 ] <= 30868
c18_1: -16 x_18_ + 20 y_18_ + [ 1 x_18_ ^ 2 + 1 y_18_ ^ 2 ] <= 124645
c19_1: -16 x_19_ + 20 y_19_ + [ 1 x_19_ ^ 2 + 1 y_19_ ^ 2 ] <= 104092
c20_1: -16 x_20_ + 20 y_20_ + [ 1 x_20_ ^ 2 + 1 y_20_ ^ 2 ] <= 105223
c21_1: -16 x_21_ + 20 y_21_ + [ 1 x_21_ ^ 2 + 1 y_21_ ^ 2 ] <= 40291
c22_1: -16 x_22_ + 20 y_22_ + [ 1 x_22_ ^ 2 + 1 y_22_ ^ 2 ] <= 16298
c23_1: -16 x_23_ + 20 y_23_ + [ 1 x_23_ ^ 2 + 1 y_23_ ^ 2 ] <= 12527
c24_1: -16 x_24_ + 20 y_24_ + [ 1 x_24_ ^ 2 + 1 y_24_ ^ 2 ] <= 590
c25_1: -16 x_25_ + 20 y_25_ + [ 1 x_25_ ^ 2 + 1 y_25_ ^ 2 ] <= 68707
c26_1: -16 x_26_ + 20 y_26_ + [ 1 x_26_ ^ 2 + 1 y_26_ ^ 2 ] <= 143488
c27_1: -16 x_27_ + 20 y_27_ + [ 1 x_27_ ^ 2 + 1 y_27_ ^ 2 ] <= 195644
c28_1: -16 x_28_ + 20 y_28_ + [ 1 x_28_ ^ 2 + 1 y_28_ ^ 2 ] <= 131492
c29_1: -16 x_29_ + 20 y_29_ + [ 1 x_29_ ^ 2 + 1 y_29_ ^ 2 ] <= 88482
c30_1: -16 x_30_ + 20 y_30_ + [ 1 x_30_ ^ 2 + 1 y_30_ ^ 2 ] <= 116925
c31_1: -16 x_31_ + 20 y_31_ + [ 1 x_31_ ^ 2 + 1 y_31_ ^ 2 ] <= 47310
c32_1: -16 x_32_ + 20 y_32_ + [ 1 x_32_ ^ 2 + 1 y_32_ ^ 2 ] <= 116040
c33_1: -16 x_33_ + 20 y_33_ + [ 1 x_33_ ^ 2 + 1 y_33_ ^ 2 ] <= 34677
c34_1: -16 x_34_ + 20 y_34_ + [ 1 x_34_ ^ 2 + 1 y_34_ ^ 2 ] <= 39966
c35_1: -16 x_35_ + 20 y_35_ + [ 1 x_35_ ^ 2 + 1 y_35_ ^ 2 ] <= 114838
c36_1: -16 x_36_ + 20 y_36_ + [ 1 x_36_ ^ 2 + 1 y_36_ ^ 2 ] <= 68984
c37_1: -16 x_37_ + 20 y_37_ + [ 1 x_37_ ^ 2 + 1 y_37_ ^ 2 ] <= 10368
c38_1: -16 x_38_ + 20 y_38_ + [ 1 x_38_ ^ 2 + 1 y_38_ ^ 2 ] <= 11995
c39_1: -16 x_39_ + 20 y_39_ + [ 1 x_39_ ^ 2 + 1 y_39_ ^ 2 ] <= 112594
c40_1: -16 x_40_ + 20 y_40_ + [ 1 x_40_ ^ 2 + 1 y_40_ ^ 2 ] <= 8420
c41_1: -16 x_41_ + 20 y_41_ + [ 1 x_41_ ^ 2 + 1 y_41_ ^ 2 ] <= 77255
c42_1: -16 x_42_ + 20 y_42_ + [ 1 x_42_ ^ 2 + 1 y_42_ ^ 2 ] <= 94279
c43_1: -16 x_43_ + 20 y_43_ + [ 1 x_43_ ^ 2 + 1 y_43_ ^ 2 ] <= 47894
c44_1: -16 x_44_ + 20 y_44_ + [ 1 x_44_ ^ 2 + 1 y_44_ ^ 2 ] <= 103777
c45_1: -16 x_45_ + 20 y_45_ + [ 1 x_45_ ^ 2 + 1 y_45_ ^ 2 ] <= 28074
c46_1: -16 x_46_ + 20 y_46_ + [ 1 x_46_ ^ 2 + 1 y_46_ ^ 2 ] <= 33787
c47_1: -16 x_47_ + 20 y_47_ + [ 1 x_47_ ^ 2 + 1 y_47_ ^ 2 ] <= 147287
c48_1: -16 x_48_ + 20 y_48_ + [ 1 x_48_ ^ 2 + 1 y_48_ ^ 2 ] <= 84122
c49_1: -16 x_49_ + 20 y_49_ + [ 1 x_49_ ^ 2 + 1 y_49_ ^ 2 ] <= 38819
c50_1: -16 x_50_ + 20 y_50_ + [ 1 x_50_ ^ 2 + 1 y_50_ ^ 2 ] <= 133097
c51_1: -16 x_51_ + 20 y_51_ + [ 1 x_51_ ^ 2 + 1 y_51_ ^ 2 ] <= 9270
c52_1: -16 x_52_ + 20 y_52_ + [ 1 x_52_ ^ 2 + 1 y_52_ ^ 2 ] <= 46527
c53_1: -16 x_54_ + 20 y_54_ + [ 1 x_54_ ^ 2 + 1 y_54_ ^ 2 ] <= 93159
c54_1: -16 x_55_ + 20 y_55_ + [ 1 x_55_ ^ 2 + 1 y_55_ ^ 2 ] <= 94393
c55_1: -16 x_56_ + 20 y_56_ + [ 1 x_56_ ^ 2 + 1 y_56_ ^ 2 ] <= 120517
c56_1: -16 x_57_ + 20 y_57_ + [ 1 x_57_ ^ 2 + 1 y_57_ ^ 2 ] <= 93454
c57_1: -16 x_58_ + 20 y_58_ + [ 1 x_58_ ^ 2 + 1 y_58_ ^ 2 ] <= 85324
c58_1: -16 x_59_ + 20 y_59_ + [ 1 x_59_ ^ 2 + 1 y_59_ ^ 2 ] <= 88849
c59_1: -16 x_60_ + 20 y_60_ + [ 1 x_60_ ^ 2 + 1 y_60_ ^ 2 ] <= 12245
c60_1: -16 x_61_ + 20 y_61_ + [ 1 x_61_ ^ 2 + 1 y_61_ ^ 2 ] <= 107237
c61_1: -16 x_62_ + 20 y_62_ + [ 1 x_62_ ^ 2 + 1 y_62_ ^ 2 ] <= 54146
c62_1: -16 x_63_ + 20 y_63_ + [ 1 x_63_ ^ 2 + 1 y_63_ ^ 2 ] <= 156568
c63_1: -16 x_64_ + 20 y_64_ + [ 1 x_64_ ^ 2 + 1 y_64_ ^ 2 ] <= 136581
c64_1: -16 x_65_ + 20 y_65_ + [ 1 x_65_ ^ 2 + 1 y_65_ ^ 2 ] <= 124107
c65_1: -16 x_66_ + 20 y_66_ + [ 1 x_66_ ^ 2 + 1 y_66_ ^ 2 ] <= 82188
c66_1: -16 x_67_ + 20 y_67_ + [ 1 x_67_ ^ 2 + 1 y_67_ ^ 2 ] <= 72610
c67_1: -16 x_68_ + 20 y_68_ + [ 1 x_68_ ^ 2 + 1 y_68_ ^ 2 ] <= 11492
c68_1: -16 x_69_ + 20 y_69_ + [ 1 x_69_ ^ 2 + 1 y_69_ ^ 2 ] <= 25124
c69_1: -16 x_70_ + 20 y_70_ + [ 1 x_70_ ^ 2 + 1 y_70_ ^ 2 ] <= 46814
c70_1: -16 x_71_ + 20 y_71_ + [ 1 x_71_ ^ 2 + 1 y_71_ ^ 2 ] <= 83343
c71_1: -16 x_72_ + 20 y_72_ + [ 1 x_72_ ^ 2 + 1 y_72_ ^ 2 ] <= 124754
c72_1: -16 x_73_ + 20 y_73_ + [ 1 x_73_ ^ 2 + 1 y_73_ ^ 2 ] <= 99866
c73_1: -16 x_74_ + 20 y_74_ + [ 1 x_74_ ^ 2 + 1 y_74_ ^ 2 ] <= 84090
c74_1: -16 x_75_ + 20 y_75_ + [ 1 x_75_ ^ 2 + 1 y_75_ ^ 2 ] <= 84924
c75_1: -16 x_76_ + 20 y_76_ + [ 1 x_76_ ^ 2 + 1 y_76_ ^ 2 ] <= 83781
c76_1: -16 x_77_ + 20 y_77_ + [ 1 x_77_ ^ 2 + 1 y_77_ ^ 2 ] <= 177950
c77_1: -16 x_78_ + 20 y_78_ + [ 1 x_78_ ^ 2 + 1 y_78_ ^ 2 ] <= 83737
c78_1: -16 x_79_ + 20 y_79_ + [ 1 x_79_ ^ 2 + 1 y_79_ ^ 2 ] <= 23200
c79_1: -16 x_80_ + 20 y_80_ + [ 1 x_80_ ^ 2 + 1 y_80_ ^ 2 ] <= 61932
c80_1: -16 x_81_ + 20 y_81_ + [ 1 x_81_ ^ 2 + 1 y_81_ ^ 2 ] <= 136678
c81_1: -16 x_82_ + 20 y_82_ + [ 1 x_82_ ^ 2 + 1 y_82_ ^ 2 ] <= 58687
c82_1: -16 x_83_ + 20 y_83_ + [ 1 x_83_ ^ 2 + 1 y_83_ ^ 2 ] <= 25463
c83_1: -16 x_84_ + 20 y_84_ + [ 1 x_84_ ^ 2 + 1 y_84_ ^ 2 ] <= 83837
c84_1: -16 x_85_ + 20 y_85_ + [ 1 x_85_ ^ 2 + 1 y_85_ ^ 2 ] <= 93185
c85_1: -16 x_86_ + 20 y_86_ + [ 1 x_86_ ^ 2 + 1 y_86_ ^ 2 ] <= 139915
c86_1: -16 x_87_ + 20 y_87_ + [ 1 x_87_ ^ 2 + 1 y_87_ ^ 2 ] <= 54347
c87_1: -16 x_88_ + 20 y_88_ + [ 1 x_88_ ^ 2 + 1 y_88_ ^ 2 ] <= 68799
c88_1: -16 x_89_ + 20 y_89_ + [ 1 x_89_ ^ 2 + 1 y_89_ ^ 2 ] <= 107906
c89_1: -16 x_90_ + 20 y_90_ + [ 1 x_90_ ^ 2 + 1 y_90_ ^ 2 ] <= 36569
c90_1: -16 x_91_ + 20 y_91_ + [ 1 x_91_ ^ 2 + 1 y_91_ ^ 2 ] <= 101008
c91_1: -16 x_92_ + 20 y_92_ + [ 1 x_92_ ^ 2 + 1 y_92_ ^ 2 ] <= 112002
c92_1: -16 x_93_ + 20 y_93_ + [ 1 x_93_ ^ 2 + 1 y_93_ ^ 2 ] <= 43732
c93_1: -16 x_94_ + 20 y_94_ + [ 1 x_94_ ^ 2 + 1 y_94_ ^ 2 ] <= 122162
c94_1: -16 x_95_ + 20 y_95_ + [ 1 x_95_ ^ 2 + 1 y_95_ ^ 2 ] <= 82676
c95_1: -16 x_96_ + 20 y_96_ + [ 1 x_96_ ^ 2 + 1 y_96_ ^ 2 ] <= 119704
c96_1: -16 x_97_ + 20 y_97_ + [ 1 x_97_ ^ 2 + 1 y_97_ ^ 2 ] <= 173331
c97_1: -16 x_98_ + 20 y_98_ + [ 1 x_98_ ^ 2 + 1 y_98_ ^ 2 ] <= 39129
c98_1: -16 x_99_ + 20 y_99_ + [ 1 x_99_ ^ 2 + 1 y_99_ ^ 2 ] <= 97856
c99_1: -16 x_100_ + 20 y_100_ + [ 1 x_100_ ^ 2 + 1 y_100_ ^ 2 ] <= 95718
c100_1: -34 x_1_ + 146 y_1_ + [ 1 x_1_ ^ 2 + 1 y_1_ ^ 2 ] <= 40146
c101_1: -34 x_2_ + 146 y_2_ + [ 1 x_2_ ^ 2 + 1 y_2_ ^ 2 ] <= 28140
c102_1: -34 x_3_ + 146 y_3_ + [ 1 x_3_ ^ 2 + 1 y_3_ ^ 2 ] <= -2821
c103_1: -34 x_4_ + 146 y_4_ + [ 1 x_4_ ^ 2 + 1 y_4_ ^ 2 ] <= 16922
c104_1: -34 x_5_ + 146 y_5_ + [ 1 x_5_ ^ 2 + 1 y_5_ ^ 2 ] <= 26466
c105_1: -34 x_6_ + 146 y_6_ + [ 1 x_6_ ^ 2 + 1 y_6_ ^ 2 ] <= 106163
c106_1: -34 x_7_ + 146 y_7_ + [ 1 x_7_ ^ 2 + 1 y_7_ ^ 2 ] <= 44417
c107_1: -34 x_8_ + 146 y_8_ + [ 1 x_8_ ^ 2 + 1 y_8_ ^ 2 ] <= 55945
c108_1: -34 x_9_ + 146 y_9_ + [ 1 x_9_ ^ 2 + 1 y_9_ ^ 2 ] <= 60542
c109_1: -34 x_10_ + 146 y_10_ + [ 1 x_10_ ^ 2 + 1 y_10_ ^ 2 ] <= 62333
c110_1: -34 x_11_ + 146 y_11_ + [ 1 x_11_ ^ 2 + 1 y_11_ ^ 2 ] <= 164879
c111_1: -34 x_12_ + 146 y_12_ + [ 1 x_12_ ^ 2 + 1 y_12_ ^ 2 ] <= 52004
c112_1: -34 x_13_ + 146 y_13_ + [ 1 x_13_ ^ 2 + 1 y_13_ ^ 2 ] <= 107713
c113_1: -34 x_14_ + 146 y_14_ + [ 1 x_14_ ^ 2 + 1 y_14_ ^ 2 ] <= 44219
c114_1: -34 x_15_ + 146 y_15_ + [ 1 x_15_ ^ 2 + 1 y_15_ ^ 2 ] <= 42851
c115_1: -34 x_16_ + 146 y_16_ + [ 1 x_16_ ^ 2 + 1 y_16_ ^ 2 ] <= 91299
c116_1: -34 x_17_ + 146 y_17_ + [ 1 x_17_ ^ 2 + 1 y_17_ ^ 2 ] <= 40096
c117_1: -34 x_18_ + 146 y_18_ + [ 1 x_18_ ^ 2 + 1 y_18_ ^ 2 ] <= 22403
c118_1: -34 x_19_ + 146 y_19_ + [ 1 x_19_ ^ 2 + 1 y_19_ ^ 2 ] <= 8774
c119_1: -34 x_20_ + 146 y_20_ + [ 1 x_20_ ^ 2 + 1 y_20_ ^ 2 ] <= 44260
c120_1: -34 x_21_ + 146 y_21_ + [ 1 x_21_ ^ 2 + 1 y_21_ ^ 2 ] <= 118582
c121_1: -34 x_22_ + 146 y_22_ + [ 1 x_22_ ^ 2 + 1 y_22_ ^ 2 ] <= 75075
c122_1: -34 x_23_ + 146 y_23_ + [ 1 x_23_ ^ 2 + 1 y_23_ ^ 2 ] <= 71286
c123_1: -34 x_24_ + 146 y_24_ + [ 1 x_24_ ^ 2 + 1 y_24_ ^ 2 ] <= 96738
c124_1: -34 x_25_ + 146 y_25_ + [ 1 x_25_ ^ 2 + 1 y_25_ ^ 2 ] <= 20346
c125_1: -34 x_26_ + 146 y_26_ + [ 1 x_26_ ^ 2 + 1 y_26_ ^ 2 ] <= 81534
c126_1: -34 x_27_ + 146 y_27_ + [ 1 x_27_ ^ 2 + 1 y_27_ ^ 2 ] <= 144295
c127_1: -34 x_28_ + 146 y_28_ + [ 1 x_28_ ^ 2 + 1 y_28_ ^ 2 ] <= 62787
c128_1: -34 x_29_ + 146 y_29_ + [ 1 x_29_ ^ 2 + 1 y_29_ ^ 2 ] <= 71581
c129_1: -34 x_30_ + 146 y_30_ + [ 1 x_30_ ^ 2 + 1 y_30_ ^ 2 ] <= 120531
c130_1: -34 x_31_ + 146 y_31_ + [ 1 x_31_ ^ 2 + 1 y_31_ ^ 2 ] <= 89310
c131_1: -34 x_32_ + 146 y_32_ + [ 1 x_32_ ^ 2 + 1 y_32_ ^ 2 ] <= 13417
c132_1: -34 x_33_ + 146 y_33_ + [ 1 x_33_ ^ 2 + 1 y_33_ ^ 2 ] <= 29007
c133_1: -34 x_34_ + 146 y_34_ + [ 1 x_34_ ^ 2 + 1 y_34_ ^ 2 ] <= 30346
c134_1: -34 x_35_ + 146 y_35_ + [ 1 x_35_ ^ 2 + 1 y_35_ ^ 2 ] <= -4488
c135_1: -34 x_36_ + 146 y_36_ + [ 1 x_36_ ^ 2 + 1 y_36_ ^ 2 ] <= 35471
c136_1: -34 x_37_ + 146 y_37_ + [ 1 x_37_ ^ 2 + 1 y_37_ ^ 2 ] <= 54292
c137_1: -34 x_38_ + 146 y_38_ + [ 1 x_38_ ^ 2 + 1 y_38_ ^ 2 ] <= 63272
c138_1: -34 x_39_ + 146 y_39_ + [ 1 x_39_ ^ 2 + 1 y_39_ ^ 2 ] <= 70304
c139_1: -34 x_40_ + 146 y_40_ + [ 1 x_40_ ^ 2 + 1 y_40_ ^ 2 ] <= 133520
c140_1: -34 x_41_ + 146 y_41_ + [ 1 x_41_ ^ 2 + 1 y_41_ ^ 2 ] <= 74625
c141_1: -34 x_42_ + 146 y_42_ + [ 1 x_42_ ^ 2 + 1 y_42_ ^ 2 ] <= 55746
c142_1: -34 x_43_ + 146 y_43_ + [ 1 x_43_ ^ 2 + 1 y_43_ ^ 2 ] <= 32094
c143_1: -34 x_44_ + 146 y_44_ + [ 1 x_44_ ^ 2 + 1 y_44_ ^ 2 ] <= 124017
c144_1: -34 x_45_ + 146 y_45_ + [ 1 x_45_ ^ 2 + 1 y_45_ ^ 2 ] <= 82168
c145_1: -34 x_46_ + 146 y_46_ + [ 1 x_46_ ^ 2 + 1 y_46_ ^ 2 ] <= 80271
c146_1: -34 x_47_ + 146 y_47_ + [ 1 x_47_ ^ 2 + 1 y_47_ ^ 2 ] <= 9210
c147_1: -34 x_48_ + 146 y_48_ + [ 1 x_48_ ^ 2 + 1 y_48_ ^ 2 ] <= 120145
c148_1: -34 x_49_ + 146 y_49_ + [ 1 x_49_ ^ 2 + 1 y_49_ ^ 2 ] <= 109659
c149_1: -34 x_50_ + 146 y_50_ + [ 1 x_50_ ^ 2 + 1 y_50_ ^ 2 ] <= 51722
c150_1: -34 x_51_ + 146 y_51_ + [ 1 x_51_ ^ 2 + 1 y_51_ ^ 2 ] <= 80137
c151_1: -34 x_52_ + 146 y_52_ + [ 1 x_52_ ^ 2 + 1 y_52_ ^ 2 ] <= 87161
c152_1: -34 x_53_ + 146 y_53_ + [ 1 x_53_ ^ 2 + 1 y_53_ ^ 2 ] <= 115063
c153_1: -34 x_54_ + 146 y_54_ + [ 1 x_54_ ^ 2 + 1 y_54_ ^ 2 ] <= 55919
c154_1: -34 x_55_ + 146 y_55_ + [ 1 x_55_ ^ 2 + 1 y_55_ ^ 2 ] <= 75910
c155_1: -34 x_57_ + 146 y_57_ + [ 1 x_57_ ^ 2 + 1 y_57_ ^ 2 ] <= 53652
c156_1: -34 x_58_ + 146 y_58_ + [ 1 x_58_ ^ 2 + 1 y_58_ ^ 2 ] <= 76210
c157_1: -34 x_59_ + 146 y_59_ + [ 1 x_59_ ^ 2 + 1 y_59_ ^ 2 ] <= -3213
c158_1: -34 x_60_ + 146 y_60_ + [ 1 x_60_ ^ 2 + 1 y_60_ ^ 2 ] <= 69247
c159_1: -34 x_61_ + 146 y_61_ + [ 1 x_61_ ^ 2 + 1 y_61_ ^ 2 ] <= 110048
c160_1: -34 x_62_ + 146 y_62_ + [ 1 x_62_ ^ 2 + 1 y_62_ ^ 2 ] <= 67658
c161_1: -34 x_63_ + 146 y_63_ + [ 1 x_63_ ^ 2 + 1 y_63_ ^ 2 ] <= 21812
c162_1: -34 x_64_ + 146 y_64_ + [ 1 x_64_ ^ 2 + 1 y_64_ ^ 2 ] <= 49133
c163_1: -34 x_65_ + 146 y_65_ + [ 1 x_65_ ^ 2 + 1 y_65_ ^ 2 ] <= 79897
c164_1: -34 x_66_ + 146 y_66_ + [ 1 x_66_ ^ 2 + 1 y_66_ ^ 2 ] <= 152382
c165_1: -34 x_67_ + 146 y_67_ + [ 1 x_67_ ^ 2 + 1 y_67_ ^ 2 ] <= 81454
c166_1: -34 x_68_ + 146 y_68_ + [ 1 x_68_ ^ 2 + 1 y_68_ ^ 2 ] <= 154732
c167_1: -34 x_69_ + 146 y_69_ + [ 1 x_69_ ^ 2 + 1 y_69_ ^ 2 ] <= 85093
c168_1: -34 x_70_ + 146 y_70_ + [ 1 x_70_ ^ 2 + 1 y_70_ ^ 2 ] <= 52469
c169_1: -34 x_71_ + 146 y_71_ + [ 1 x_71_ ^ 2 + 1 y_71_ ^ 2 ] <= 31424
c170_1: -34 x_72_ + 146 y_72_ + [ 1 x_72_ ^ 2 + 1 y_72_ ^ 2 ] <= -3320
c171_1: -34 x_73_ + 146 y_73_ + [ 1 x_73_ ^ 2 + 1 y_73_ ^ 2 ] <= 102121
c172_1: -34 x_74_ + 146 y_74_ + [ 1 x_74_ ^ 2 + 1 y_74_ ^ 2 ] <= 6769
c173_1: -34 x_75_ + 146 y_75_ + [ 1 x_75_ ^ 2 + 1 y_75_ ^ 2 ] <= 85174
c174_1: -34 x_76_ + 146 y_76_ + [ 1 x_76_ ^ 2 + 1 y_76_ ^ 2 ] <= 159404
c175_1: -34 x_77_ + 146 y_77_ + [ 1 x_77_ ^ 2 + 1 y_77_ ^ 2 ] <= 73307
c176_1: -34 x_78_ + 146 y_78_ + [ 1 x_78_ ^ 2 + 1 y_78_ ^ 2 ] <= 64411
c177_1: -34 x_79_ + 146 y_79_ + [ 1 x_79_ ^ 2 + 1 y_79_ ^ 2 ] <= 87348
c178_1: -34 x_80_ + 146 y_80_ + [ 1 x_80_ ^ 2 + 1 y_80_ ^ 2 ] <= 100744
c179_1: -34 x_81_ + 146 y_81_ + [ 1 x_81_ ^ 2 + 1 y_81_ ^ 2 ] <= 83123
c180_1: -34 x_82_ + 146 y_82_ + [ 1 x_82_ ^ 2 + 1 y_82_ ^ 2 ] <= 119631
c181_1: -34 x_83_ + 146 y_83_ + [ 1 x_83_ ^ 2 + 1 y_83_ ^ 2 ] <= 39602
c182_1: -34 x_84_ + 146 y_84_ + [ 1 x_84_ ^ 2 + 1 y_84_ ^ 2 ] <= 25300
c183_1: -34 x_85_ + 146 y_85_ + [ 1 x_85_ ^ 2 + 1 y_85_ ^ 2 ] <= 118706
c184_1: -34 x_86_ + 146 y_86_ + [ 1 x_86_ ^ 2 + 1 y_86_ ^ 2 ] <= 47746
c185_1: -34 x_87_ + 146 y_87_ + [ 1 x_87_ ^ 2 + 1 y_87_ ^ 2 ] <= 125223
c186_1: -34 x_88_ + 146 y_88_ + [ 1 x_88_ ^ 2 + 1 y_88_ ^ 2 ] <= 98990
c187_1: -34 x_89_ + 146 y_89_ + [ 1 x_89_ ^ 2 + 1 y_89_ ^ 2 ] <= 34094
c188_1: -34 x_90_ + 146 y_90_ + [ 1 x_90_ ^ 2 + 1 y_90_ ^ 2 ] <= 57482
c189_1: -34 x_91_ + 146 y_91_ + [ 1 x_91_ ^ 2 + 1 y_91_ ^ 2 ] <= 76860
c190_1: -34 x_92_ + 146 y_92_ + [ 1 x_92_ ^ 2 + 1 y_92_ ^ 2 ] <= 24635
c191_1: -34 x_93_ + 146 y_93_ + [ 1 x_93_ ^ 2 + 1 y_93_ ^ 2 ] <= 13392
c192_1: -34 x_94_ + 146 y_94_ + [ 1 x_94_ ^ 2 + 1 y_94_ ^ 2 ] <= 4470
c193_1: -34 x_95_ + 146 y_95_ + [ 1 x_95_ ^ 2 + 1 y_95_ ^ 2 ] <= 134885
c194_1: -34 x_96_ + 146 y_96_ + [ 1 x_96_ ^ 2 + 1 y_96_ ^ 2 ] <= 90124
c195_1: -34 x_97_ + 146 y_97_ + [ 1 x_97_ ^ 2 + 1 y_97_ ^ 2 ] <= 59687
c196_1: -34 x_98_ + 146 y_98_ + [ 1 x_98_ ^ 2 + 1 y_98_ ^ 2 ] <= 110245
c197_1: -34 x_99_ + 146 y_99_ + [ 1 x_99_ ^ 2 + 1 y_99_ ^ 2 ] <= 155662
c198_1: -34 x_100_ + 146 y_100_ + [ 1 x_100_ ^ 2 + 1 y_100_ ^ 2 ] <= 75392
c199: -68 x_1_ - 36 y_1_ + [ 1 x_1_ ^ 2 + 1 y_1_ ^ 2 ] <= 70603
c200: -68 x_3_ - 36 y_3_ + [ 1 x_3_ ^ 2 + 1 y_3_ ^ 2 ] <= 15641
c201: -68 x_4_ - 36 y_4_ + [ 1 x_4_ ^ 2 + 1 y_4_ ^ 2 ] <= -351
c202: -68 x_5_ - 36 y_5_ + [ 1 x_5_ ^ 2 + 1 y_5_ ^ 2 ] <= 35389
c203: -68 x_6_ - 36 y_6_ + [ 1 x_6_ ^ 2 + 1 y_6_ ^ 2 ] <= 59349
c204: -68 x_7_ - 36 y_7_ + [ 1 x_7_ ^ 2 + 1 y_7_ ^ 2 ] <= 757
c205: -68 x_8_ - 36 y_8_ + [ 1 x_8_ ^ 2 + 1 y_8_ ^ 2 ] <= 104848
c206: -68 x_9_ - 36 y_9_ + [ 1 x_9_ ^ 2 + 1 y_9_ ^ 2 ] <= 89789
c207: -68 x_10_ - 36 y_10_ + [ 1 x_10_ ^ 2 + 1 y_10_ ^ 2 ] <= 4440
c208: -68 x_11_ - 36 y_11_ + [ 1 x_11_ ^ 2 + 1 y_11_ ^ 2 ] <= 57575
c209: -68 x_12_ - 36 y_12_ + [ 1 x_12_ ^ 2 + 1 y_12_ ^ 2 ] <= 62498
c210: -68 x_13_ - 36 y_13_ + [ 1 x_13_ ^ 2 + 1 y_13_ ^ 2 ] <= 108341
c211: -68 x_14_ - 36 y_14_ + [ 1 x_14_ ^ 2 + 1 y_14_ ^ 2 ] <= 9907
c212: -68 x_15_ - 36 y_15_ + [ 1 x_15_ ^ 2 + 1 y_15_ ^ 2 ] <= 91269
c213: -68 x_16_ - 36 y_16_ + [ 1 x_16_ ^ 2 + 1 y_16_ ^ 2 ] <= 48523
c214: -68 x_17_ - 36 y_17_ + [ 1 x_17_ ^ 2 + 1 y_17_ ^ 2 ] <= 49089
c215: -68 x_18_ - 36 y_18_ + [ 1 x_18_ ^ 2 + 1 y_18_ ^ 2 ] <= 47784
c216: -68 x_19_ - 36 y_19_ + [ 1 x_19_ ^ 2 + 1 y_19_ ^ 2 ] <= 71087
c217: -68 x_20_ - 36 y_20_ + [ 1 x_20_ ^ 2 + 1 y_20_ ^ 2 ] <= 9927
c218: -68 x_21_ - 36 y_21_ + [ 1 x_21_ ^ 2 + 1 y_21_ ^ 2 ] <= 77424
c219: -68 x_22_ - 36 y_22_ + [ 1 x_22_ ^ 2 + 1 y_22_ ^ 2 ] <= 29857
c220: -68 x_23_ - 36 y_23_ + [ 1 x_23_ ^ 2 + 1 y_23_ ^ 2 ] <= 24560
c221: -68 x_24_ - 36 y_24_ + [ 1 x_24_ ^ 2 + 1 y_24_ ^ 2 ] <= 64865
c222: -68 x_25_ - 36 y_25_ + [ 1 x_25_ ^ 2 + 1 y_25_ ^ 2 ] <= 509
c223: -68 x_26_ - 36 y_26_ + [ 1 x_26_ ^ 2 + 1 y_26_ ^ 2 ] <= 92898
c224: -68 x_27_ - 36 y_27_ + [ 1 x_27_ ^ 2 + 1 y_27_ ^ 2 ] <= 71774
c225: -68 x_28_ - 36 y_28_ + [ 1 x_28_ ^ 2 + 1 y_28_ ^ 2 ] <= 19548
c226: -68 x_29_ - 36 y_29_ + [ 1 x_29_ ^ 2 + 1 y_29_ ^ 2 ] <= 63722
c227: -68 x_30_ - 36 y_30_ + [ 1 x_30_ ^ 2 + 1 y_30_ ^ 2 ] <= 166401
c228: -68 x_31_ - 36 y_31_ + [ 1 x_31_ ^ 2 + 1 y_31_ ^ 2 ] <= 43038
c229: -68 x_32_ - 36 y_32_ + [ 1 x_32_ ^ 2 + 1 y_32_ ^ 2 ] <= 61713
c230: -68 x_33_ - 36 y_33_ + [ 1 x_33_ ^ 2 + 1 y_33_ ^ 2 ] <= 8198
c231: -68 x_34_ - 36 y_34_ + [ 1 x_34_ ^ 2 + 1 y_34_ ^ 2 ] <= 60542
c232: -68 x_35_ - 36 y_35_ + [ 1 x_35_ ^ 2 + 1 y_35_ ^ 2 ] <= 45760
c233: -68 x_36_ - 36 y_36_ + [ 1 x_36_ ^ 2 + 1 y_36_ ^ 2 ] <= 34206
c234: -68 x_37_ - 36 y_37_ + [ 1 x_37_ ^ 2 + 1 y_37_ ^ 2 ] <= 104961
c235: -68 x_38_ - 36 y_38_ + [ 1 x_38_ ^ 2 + 1 y_38_ ^ 2 ] <= 29064
c236: -68 x_39_ - 36 y_39_ + [ 1 x_39_ ^ 2 + 1 y_39_ ^ 2 ] <= 64767
c237: -68 x_40_ - 36 y_40_ + [ 1 x_40_ ^ 2 + 1 y_40_ ^ 2 ] <= 102698
c238: -68 x_41_ - 36 y_41_ + [ 1 x_41_ ^ 2 + 1 y_41_ ^ 2 ] <= 105422
c239: -68 x_42_ - 36 y_42_ + [ 1 x_42_ ^ 2 + 1 y_42_ ^ 2 ] <= 36349
c240: -68 x_43_ - 36 y_43_ + [ 1 x_43_ ^ 2 + 1 y_43_ ^ 2 ] <= 70311
c241: -68 x_44_ - 36 y_44_ + [ 1 x_44_ ^ 2 + 1 y_44_ ^ 2 ] <= 136247
c242: -68 x_45_ - 36 y_45_ + [ 1 x_45_ ^ 2 + 1 y_45_ ^ 2 ] <= 100719
c243: -68 x_46_ - 36 y_46_ + [ 1 x_46_ ^ 2 + 1 y_46_ ^ 2 ] <= 91018
c244: -68 x_47_ - 36 y_47_ + [ 1 x_47_ ^ 2 + 1 y_47_ ^ 2 ] <= 38412
c245: -68 x_48_ - 36 y_48_ + [ 1 x_48_ ^ 2 + 1 y_48_ ^ 2 ] <= 66412
c246: -68 x_49_ - 36 y_49_ + [ 1 x_49_ ^ 2 + 1 y_49_ ^ 2 ] <= 67133
c247: -68 x_50_ - 36 y_50_ + [ 1 x_50_ ^ 2 + 1 y_50_ ^ 2 ] <= 84966
c248: -68 x_51_ - 36 y_51_ + [ 1 x_51_ ^ 2 + 1 y_51_ ^ 2 ] <= 29812
c249: -68 x_52_ - 36 y_52_ + [ 1 x_52_ ^ 2 + 1 y_52_ ^ 2 ] <= 77247
c250: -68 x_53_ - 36 y_53_ + [ 1 x_53_ ^ 2 + 1 y_53_ ^ 2 ] <= 73609
c251: -68 x_54_ - 36 y_54_ + [ 1 x_54_ ^ 2 + 1 y_54_ ^ 2 ] <= 146941
c252: -68 x_55_ - 36 y_55_ + [ 1 x_55_ ^ 2 + 1 y_55_ ^ 2 ] <= 10432
c253: -68 x_56_ - 36 y_56_ + [ 1 x_56_ ^ 2 + 1 y_56_ ^ 2 ] <= 32278
c254: -68 x_57_ - 36 y_57_ + [ 1 x_57_ ^ 2 + 1 y_57_ ^ 2 ] <= 19805
c255: -68 x_58_ - 36 y_58_ + [ 1 x_58_ ^ 2 + 1 y_58_ ^ 2 ] <= 66485
c256: -68 x_59_ - 36 y_59_ + [ 1 x_59_ ^ 2 + 1 y_59_ ^ 2 ] <= 52703
c257: -68 x_60_ - 36 y_60_ + [ 1 x_60_ ^ 2 + 1 y_60_ ^ 2 ] <= 122124
c258: -68 x_61_ - 36 y_61_ + [ 1 x_61_ ^ 2 + 1 y_61_ ^ 2 ] <= 22970
c259: -68 x_62_ - 36 y_62_ + [ 1 x_62_ ^ 2 + 1 y_62_ ^ 2 ] <= 77910
c260: -68 x_63_ - 36 y_63_ + [ 1 x_63_ ^ 2 + 1 y_63_ ^ 2 ] <= 100613
c261: -68 x_64_ - 36 y_64_ + [ 1 x_64_ ^ 2 + 1 y_64_ ^ 2 ] <= 95832
c262: -68 x_65_ - 36 y_65_ + [ 1 x_65_ ^ 2 + 1 y_65_ ^ 2 ] <= 37867
c263: -68 x_66_ - 36 y_66_ + [ 1 x_66_ ^ 2 + 1 y_66_ ^ 2 ] <= 133015
c264: -68 x_67_ - 36 y_67_ + [ 1 x_67_ ^ 2 + 1 y_67_ ^ 2 ] <= 146701
c265: -68 x_68_ - 36 y_68_ + [ 1 x_68_ ^ 2 + 1 y_68_ ^ 2 ] <= 112817
c266: -68 x_69_ - 36 y_69_ + [ 1 x_69_ ^ 2 + 1 y_69_ ^ 2 ] <= 48482
c267: -68 x_70_ - 36 y_70_ + [ 1 x_70_ ^ 2 + 1 y_70_ ^ 2 ] <= 1801
c268: -68 x_71_ - 36 y_71_ + [ 1 x_71_ ^ 2 + 1 y_71_ ^ 2 ] <= 77484
c269: -68 x_72_ - 36 y_72_ + [ 1 x_72_ ^ 2 + 1 y_72_ ^ 2 ] <= 52189
c270: -68 x_73_ - 36 y_73_ + [ 1 x_73_ ^ 2 + 1 y_73_ ^ 2 ] <= 96962
c271: -68 x_74_ - 36 y_74_ + [ 1 x_74_ ^ 2 + 1 y_74_ ^ 2 ] <= 3767
c272: -68 x_75_ - 36 y_75_ + [ 1 x_75_ ^ 2 + 1 y_75_ ^ 2 ] <= 60072
c273: -68 x_76_ - 36 y_76_ + [ 1 x_76_ ^ 2 + 1 y_76_ ^ 2 ] <= 51347
c274: -68 x_77_ - 36 y_77_ + [ 1 x_77_ ^ 2 + 1 y_77_ ^ 2 ] <= 40219
c275: -68 x_78_ - 36 y_78_ + [ 1 x_78_ ^ 2 + 1 y_78_ ^ 2 ] <= 69815
c276: -68 x_79_ - 36 y_79_ + [ 1 x_79_ ^ 2 + 1 y_79_ ^ 2 ] <= 13202
c277: -68 x_80_ - 36 y_80_ + [ 1 x_80_ ^ 2 + 1 y_80_ ^ 2 ] <= 30807
c278: -68 x_81_ - 36 y_81_ + [ 1 x_81_ ^ 2 + 1 y_81_ ^ 2 ] <= 11553
c279: -68 x_82_ - 36 y_82_ + [ 1 x_82_ ^ 2 + 1 y_82_ ^ 2 ] <= 108350
c280: -68 x_83_ - 36 y_83_ + [ 1 x_83_ ^ 2 + 1 y_83_ ^ 2 ] <= 14132
c281: -68 x_84_ - 36 y_84_ + [ 1 x_84_ ^ 2 + 1 y_84_ ^ 2 ] <= 45080
c282: -68 x_85_ - 36 y_85_ + [ 1 x_85_ ^ 2 + 1 y_85_ ^ 2 ] <= 71687
c283: -68 x_86_ - 36 y_86_ + [ 1 x_86_ ^ 2 + 1 y_86_ ^ 2 ] <= 30493
c284: -68 x_87_ - 36 y_87_ + [ 1 x_87_ ^ 2 + 1 y_87_ ^ 2 ] <= 189303
c285: -68 x_88_ - 36 y_88_ + [ 1 x_88_ ^ 2 + 1 y_88_ ^ 2 ] <= 35809
c286: -68 x_89_ - 36 y_89_ + [ 1 x_89_ ^ 2 + 1 y_89_ ^ 2 ] <= 120106
c287: -68 x_90_ - 36 y_90_ + [ 1 x_90_ ^ 2 + 1 y_90_ ^ 2 ] <= 159009
c288: -68 x_91_ - 36 y_91_ + [ 1 x_91_ ^ 2 + 1 y_91_ ^ 2 ] <= 10797
c289: -68 x_92_ - 36 y_92_ + [ 1 x_92_ ^ 2 + 1 y_92_ ^ 2 ] <= 126445
c290: -68 x_93_ - 36 y_93_ + [ 1 x_93_ ^ 2 + 1 y_93_ ^ 2 ] <= 101953
c291: -68 x_94_ - 36 y_94_ + [ 1 x_94_ ^ 2 + 1 y_94_ ^ 2 ] <= 34235
c292: -68 x_95_ - 36 y_95_ + [ 1 x_95_ ^ 2 + 1 y_95_ ^ 2 ] <= 122650
c293: -68 x_96_ - 36 y_96_ + [ 1 x_96_ ^ 2 + 1 y_96_ ^ 2 ] <= 148584
c294: -68 x_97_ - 36 y_97_ + [ 1 x_97_ ^ 2 + 1 y_97_ ^ 2 ] <= 131423
c295: -68 x_98_ - 36 y_98_ + [ 1 x_98_ ^ 2 + 1 y_98_ ^ 2 ] <= 67545
c296: -68 x_99_ - 36 y_99_ + [ 1 x_99_ ^ 2 + 1 y_99_ ^ 2 ] <= 141089
c297: -68 x_100_ - 36 y_100_ + [ 1 x_100_ ^ 2 + 1 y_100_ ^ 2 ] <= 114329
c1_2: 1 x_53_ = 8
c2_2: 1 y_53_ = -10
c3_2: 1 x_56_ = 17
c4_2: 1 y_56_ = -73
c5_2: 1 x_2_ = 34
c6_2: 1 y_2_ = 18
c1: [ 1 x_2_ ^ 2 - 2 x_4_ * x_2_ + 1 x_4_ ^ 2 + 1 y_2_ ^ 2 - 2 y_4_ * y_2_ + 1 y_4_ ^ 2 ] = 1129
c2: [ 1 x_1_ ^ 2 - 2 x_6_ * x_1_ + 1 x_6_ ^ 2 + 1 y_1_ ^ 2 - 2 y_6_ * y_1_ + 1 y_6_ ^ 2 ] = 39232
c3: [ 1 x_2_ ^ 2 - 2 x_7_ * x_2_ + 1 x_7_ ^ 2 + 1 y_2_ ^ 2 - 2 y_7_ * y_2_ + 1 y_7_ ^ 2 ] = 2237
c4: [ 1 x_4_ ^ 2 - 2 x_7_ * x_4_ + 1 x_7_ ^ 2 + 1 y_4_ ^ 2 - 2 y_7_ * y_4_ + 1 y_7_ ^ 2 ] = 5410
c5: [ 1 x_3_ ^ 2 - 2 x_8_ * x_3_ + 1 x_8_ ^ 2 + 1 y_3_ ^ 2 - 2 y_8_ * y_3_ + 1 y_8_ ^ 2 ] = 38116
c6: [ 1 x_1_ ^ 2 - 2 x_9_ * x_1_ + 1 x_9_ ^ 2 + 1 y_1_ ^ 2 - 2 y_9_ * y_1_ + 1 y_9_ ^ 2 ] = 1874
c7: [ 1 x_5_ ^ 2 - 2 x_9_ * x_5_ + 1 x_9_ ^ 2 + 1 y_5_ ^ 2 - 2 y_9_ * y_5_ + 1 y_9_ ^ 2 ] = 20485
c8: [ 1 x_2_ ^ 2 - 2 x_10_ * x_2_ + 1 x_10_ ^ 2 + 1 y_2_ ^ 2 - 2 y_10_ * y_2_ + 1 y_10_ ^ 2 ] = 5920
c9: [ 1 x_5_ ^ 2 - 2 x_12_ * x_5_ + 1 x_12_ ^ 2 + 1 y_5_ ^ 2 - 2 y_12_ * y_5_ + 1 y_12_ ^ 2 ] = 3712
c10: [ 1 x_4_ ^ 2 - 2 x_14_ * x_4_ + 1 x_14_ ^ 2 + 1 y_4_ ^ 2 - 2 y_14_ * y_4_ + 1 y_14_ ^ 2 ] = 5345
c11: [ 1 x_6_ ^ 2 - 2 x_16_ * x_6_ + 1 x_16_ ^ 2 + 1 y_6_ ^ 2 - 2 y_16_ * y_6_ + 1 y_16_ ^ 2 ] = 530
c12: [ 1 x_11_ ^ 2 - 2 x_16_ * x_11_ + 1 x_16_ ^ 2 + 1 y_11_ ^ 2 - 2 y_16_ * y_11_ + 1 y_16_ ^ 2 ] = 10322
c13: [ 1 x_1_ ^ 2 - 2 x_18_ * x_1_ + 1 x_18_ ^ 2 + 1 y_1_ ^ 2 - 2 y_18_ * y_1_ + 1 y_18_ ^ 2 ] = 2165
c14: [ 1 x_6_ ^ 2 - 2 x_19_ * x_6_ + 1 x_19_ ^ 2 + 1 y_6_ ^ 2 - 2 y_19_ * y_6_ + 1 y_19_ ^ 2 ] = 50929
c15: [ 1 x_5_ ^ 2 - 2 x_20_ * x_5_ + 1 x_20_ ^ 2 + 1 y_5_ ^ 2 - 2 y_20_ * y_5_ + 1 y_20_ ^ 2 ] = 7261
c16: [ 1 x_14_ ^ 2 - 2 x_20_ * x_14_ + 1 x_20_ ^ 2 + 1 y_14_ ^ 2 - 2 y_20_ * y_14_ + 1 y_20_ ^ 2 ] = 389
c17: [ 1 x_17_ ^ 2 - 2 x_22_ * x_17_ + 1 x_22_ ^ 2 + 1 y_17_ ^ 2 - 2 y_22_ * y_17_ + 1 y_22_ ^ 2 ] = 4936
c18: [ 1 x_17_ ^ 2 - 2 x_23_ * x_17_ + 1 x_23_ ^ 2 + 1 y_17_ ^ 2 - 2 y_23_ * y_17_ + 1 y_23_ ^ 2 ] = 4033
c19: [ 1 x_22_ ^ 2 - 2 x_23_ * x_22_ + 1 x_23_ ^ 2 + 1 y_22_ ^ 2 - 2 y_23_ * y_22_ + 1 y_23_ ^ 2 ] = 245
c20: [ 1 x_8_ ^ 2 - 2 x_24_ * x_8_ + 1 x_24_ ^ 2 + 1 y_8_ ^ 2 - 2 y_24_ * y_8_ + 1 y_24_ ^ 2 ] = 8541
c21: [ 1 x_4_ ^ 2 - 2 x_25_ * x_4_ + 1 x_25_ ^ 2 + 1 y_4_ ^ 2 - 2 y_25_ * y_4_ + 1 y_25_ ^ 2 ] = 121
c22: [ 1 x_20_ ^ 2 - 2 x_25_ * x_20_ + 1 x_25_ ^ 2 + 1 y_20_ ^ 2 - 2 y_25_ * y_20_ + 1 y_25_ ^ 2 ] = 3869
c23: [ 1 x_6_ ^ 2 - 2 x_26_ * x_6_ + 1 x_26_ ^ 2 + 1 y_6_ ^ 2 - 2 y_26_ * y_6_ + 1 y_26_ ^ 2 ] = 38762
c24: [ 1 x_9_ ^ 2 - 2 x_26_ * x_9_ + 1 x_26_ ^ 2 + 1 y_9_ ^ 2 - 2 y_26_ * y_9_ + 1 y_26_ ^ 2 ] = 1444
c25: [ 1 x_13_ ^ 2 - 2 x_26_ * x_13_ + 1 x_26_ ^ 2 + 1 y_13_ ^ 2 - 2 y_26_ * y_13_ + 1 y_26_ ^ 2 ] = 30689
c26: [ 1 x_9_ ^ 2 - 2 x_27_ * x_9_ + 1 x_27_ ^ 2 + 1 y_9_ ^ 2 - 2 y_27_ * y_9_ + 1 y_27_ ^ 2 ] = 34450
c27: [ 1 x_20_ ^ 2 - 2 x_28_ * x_20_ + 1 x_28_ ^ 2 + 1 y_20_ ^ 2 - 2 y_28_ * y_20_ + 1 y_28_ ^ 2 ] = 1460
c28: [ 1 x_27_ ^ 2 - 2 x_28_ * x_27_ + 1 x_28_ ^ 2 + 1 y_27_ ^ 2 - 2 y_28_ * y_27_ + 1 y_28_ ^ 2 ] = 15786
c29: [ 1 x_15_ ^ 2 - 2 x_29_ * x_15_ + 1 x_29_ ^ 2 + 1 y_15_ ^ 2 - 2 y_29_ * y_15_ + 1 y_29_ ^ 2 ] = 3328
c30: [ 1 x_18_ ^ 2 - 2 x_30_ * x_18_ + 1 x_30_ ^ 2 + 1 y_18_ ^ 2 - 2 y_30_ * y_18_ + 1 y_30_ ^ 2 ] = 35261
c31: [ 1 x_10_ ^ 2 - 2 x_32_ * x_10_ + 1 x_32_ ^ 2 + 1 y_10_ ^ 2 - 2 y_32_ * y_10_ + 1 y_32_ ^ 2 ] = 47876
c32: [ 1 x_18_ ^ 2 - 2 x_32_ * x_18_ + 1 x_32_ ^ 2 + 1 y_18_ ^ 2 - 2 y_32_ * y_18_ + 1 y_32_ ^ 2 ] = 866
c33: [ 1 x_19_ ^ 2 - 2 x_32_ * x_19_ + 1 x_32_ ^ 2 + 1 y_19_ ^ 2 - 2 y_32_ * y_19_ + 1 y_32_ ^ 2 ] = 324
c34: [ 1 x_4_ ^ 2 - 2 x_33_ * x_4_ + 1 x_33_ ^ 2 + 1 y_4_ ^ 2 - 2 y_33_ * y_4_ + 1 y_33_ ^ 2 ] = 4196
c35: [ 1 x_31_ ^ 2 - 2 x_33_ * x_31_ + 1 x_33_ ^ 2 + 1 y_31_ ^ 2 - 2 y_33_ * y_31_ + 1 y_33_ ^ 2 ] = 14890
c36: [ 1 x_12_ ^ 2 - 2 x_34_ * x_12_ + 1 x_34_ ^ 2 + 1 y_12_ ^ 2 - 2 y_34_ * y_12_ + 1 y_34_ ^ 2 ] = 10000
c37: [ 1 x_17_ ^ 2 - 2 x_34_ * x_17_ + 1 x_34_ ^ 2 + 1 y_17_ ^ 2 - 2 y_34_ * y_17_ + 1 y_34_ ^ 2 ] = 584
c38: [ 1 x_33_ ^ 2 - 2 x_35_ * x_33_ + 1 x_35_ ^ 2 + 1 y_33_ ^ 2 - 2 y_35_ * y_33_ + 1 y_35_ ^ 2 ] = 23245
c39: [ 1 x_28_ ^ 2 - 2 x_36_ * x_28_ + 1 x_36_ ^ 2 + 1 y_28_ ^ 2 - 2 y_36_ * y_28_ + 1 y_36_ ^ 2 ] = 10394
c40: [ 1 x_24_ ^ 2 - 2 x_37_ * x_24_ + 1 x_37_ ^ 2 + 1 y_24_ ^ 2 - 2 y_37_ * y_24_ + 1 y_37_ ^ 2 ] = 5650
c41: [ 1 x_31_ ^ 2 - 2 x_37_ * x_31_ + 1 x_37_ ^ 2 + 1 y_31_ ^ 2 - 2 y_37_ * y_31_ + 1 y_37_ ^ 2 ] = 13285
c42: [ 1 x_16_ ^ 2 - 2 x_38_ * x_16_ + 1 x_38_ ^ 2 + 1 y_16_ ^ 2 - 2 y_38_ * y_16_ + 1 y_38_ ^ 2 ] = 2386
c43: [ 1 x_24_ ^ 2 - 2 x_38_ * x_24_ + 1 x_38_ ^ 2 + 1 y_24_ ^ 2 - 2 y_38_ * y_24_ + 1 y_38_ ^ 2 ] = 6857
c44: [ 1 x_30_ ^ 2 - 2 x_39_ * x_30_ + 1 x_39_ ^ 2 + 1 y_30_ ^ 2 - 2 y_39_ * y_30_ + 1 y_39_ ^ 2 ] = 23545
c45: [ 1 x_36_ ^ 2 - 2 x_39_ * x_36_ + 1 x_39_ ^ 2 + 1 y_36_ ^ 2 - 2 y_39_ * y_36_ + 1 y_39_ ^ 2 ] = 5305
c46: [ 1 x_11_ ^ 2 - 2 x_40_ * x_11_ + 1 x_40_ ^ 2 + 1 y_11_ ^ 2 - 2 y_40_ * y_11_ + 1 y_40_ ^ 2 ] = 9841
c47: [ 1 x_24_ ^ 2 - 2 x_40_ * x_24_ + 1 x_40_ ^ 2 + 1 y_24_ ^ 2 - 2 y_40_ * y_24_ + 1 y_40_ ^ 2 ] = 4250
c48: [ 1 x_36_ ^ 2 - 2 x_40_ * x_36_ + 1 x_40_ ^ 2 + 1 y_36_ ^ 2 - 2 y_40_ * y_36_ + 1 y_40_ ^ 2 ] = 29005
c49: [ 1 x_15_ ^ 2 - 2 x_41_ * x_15_ + 1 x_41_ ^ 2 + 1 y_15_ ^ 2 - 2 y_41_ * y_15_ + 1 y_41_ ^ 2 ] = 10400
c50: [ 1 x_17_ ^ 2 - 2 x_41_ * x_17_ + 1 x_41_ ^ 2 + 1 y_17_ ^ 2 - 2 y_41_ * y_17_ + 1 y_41_ ^ 2 ] = 10421
c51: [ 1 x_27_ ^ 2 - 2 x_41_ * x_27_ + 1 x_41_ ^ 2 + 1 y_27_ ^ 2 - 2 y_41_ * y_27_ + 1 y_41_ ^ 2 ] = 28964
c52: [ 1 x_22_ ^ 2 - 2 x_42_ * x_22_ + 1 x_42_ ^ 2 + 1 y_22_ ^ 2 - 2 y_42_ * y_22_ + 1 y_42_ ^ 2 ] = 32045
c53: [ 1 x_25_ ^ 2 - 2 x_42_ * x_25_ + 1 x_42_ ^ 2 + 1 y_25_ ^ 2 - 2 y_42_ * y_25_ + 1 y_42_ ^ 2 ] = 22469
c54: [ 1 x_26_ ^ 2 - 2 x_42_ * x_26_ + 1 x_42_ ^ 2 + 1 y_26_ ^ 2 - 2 y_42_ * y_26_ + 1 y_42_ ^ 2 ] = 12704
c55: [ 1 x_23_ ^ 2 - 2 x_43_ * x_23_ + 1 x_43_ ^ 2 + 1 y_23_ ^ 2 - 2 y_43_ * y_23_ + 1 y_43_ ^ 2 ] = 11357
c56: [ 1 x_35_ ^ 2 - 2 x_43_ * x_35_ + 1 x_43_ ^ 2 + 1 y_35_ ^ 2 - 2 y_43_ * y_35_ + 1 y_43_ ^ 2 ] = 25786
c57: [ 1 x_17_ ^ 2 - 2 x_44_ * x_17_ + 1 x_44_ ^ 2 + 1 y_17_ ^ 2 - 2 y_44_ * y_17_ + 1 y_44_ ^ 2 ] = 21386
c58: [ 1 x_8_ ^ 2 - 2 x_45_ * x_8_ + 1 x_45_ ^ 2 + 1 y_8_ ^ 2 - 2 y_45_ * y_8_ + 1 y_45_ ^ 2 ] = 2320
c59: [ 1 x_13_ ^ 2 - 2 x_45_ * x_13_ + 1 x_45_ ^ 2 + 1 y_13_ ^ 2 - 2 y_45_ * y_13_ + 1 y_45_ ^ 2 ] = 1629
c60: [ 1 x_17_ ^ 2 - 2 x_45_ * x_17_ + 1 x_45_ ^ 2 + 1 y_17_ ^ 2 - 2 y_45_ * y_17_ + 1 y_45_ ^ 2 ] = 8989
c61: [ 1 x_8_ ^ 2 - 2 x_46_ * x_8_ + 1 x_46_ ^ 2 + 1 y_8_ ^ 2 - 2 y_46_ * y_8_ + 1 y_46_ ^ 2 ] = 4145
c62: [ 1 x_17_ ^ 2 - 2 x_46_ * x_17_ + 1 x_46_ ^ 2 + 1 y_17_ ^ 2 - 2 y_46_ * y_17_ + 1 y_46_ ^ 2 ] = 6282
c63: [ 1 x_3_ ^ 2 - 2 x_47_ * x_3_ + 1 x_47_ ^ 2 + 1 y_3_ ^ 2 - 2 y_47_ * y_3_ + 1 y_47_ ^ 2 ] = 4745
c64: [ 1 x_32_ ^ 2 - 2 x_47_ * x_32_ + 1 x_47_ ^ 2 + 1 y_32_ ^ 2 - 2 y_47_ * y_32_ + 1 y_47_ ^ 2 ] = 18730
c65: [ 1 x_40_ ^ 2 - 2 x_48_ * x_40_ + 1 x_48_ ^ 2 + 1 y_40_ ^ 2 - 2 y_48_ * y_40_ + 1 y_48_ ^ 2 ] = 39073
c66: [ 1 x_46_ ^ 2 - 2 x_48_ * x_46_ + 1 x_48_ ^ 2 + 1 y_46_ ^ 2 - 2 y_48_ * y_46_ + 1 y_48_ ^ 2 ] = 30465
c67: [ 1 x_6_ ^ 2 - 2 x_49_ * x_6_ + 1 x_49_ ^ 2 + 1 y_6_ ^ 2 - 2 y_49_ * y_6_ + 1 y_49_ ^ 2 ] = 261
c68: [ 1 x_12_ ^ 2 - 2 x_49_ * x_12_ + 1 x_49_ ^ 2 + 1 y_12_ ^ 2 - 2 y_49_ * y_12_ + 1 y_49_ ^ 2 ] = 9896
c69: [ 1 x_16_ ^ 2 - 2 x_49_ * x_16_ + 1 x_49_ ^ 2 + 1 y_16_ ^ 2 - 2 y_49_ * y_16_ + 1 y_49_ ^ 2 ] = 1469
c70: [ 1 x_15_ ^ 2 - 2 x_50_ * x_15_ + 1 x_50_ ^ 2 + 1 y_15_ ^ 2 - 2 y_50_ * y_15_ + 1 y_50_ ^ 2 ] = 15626
c71: [ 1 x_18_ ^ 2 - 2 x_50_ * x_18_ + 1 x_50_ ^ 2 + 1 y_18_ ^ 2 - 2 y_50_ * y_18_ + 1 y_50_ ^ 2 ] = 5193
c72: [ 1 x_44_ ^ 2 - 2 x_50_ * x_44_ + 1 x_50_ ^ 2 + 1 y_44_ ^ 2 - 2 y_50_ * y_44_ + 1 y_50_ ^ 2 ] = 21253
c73: [ 1 x_21_ ^ 2 - 2 x_51_ * x_21_ + 1 x_51_ ^ 2 + 1 y_21_ ^ 2 - 2 y_51_ * y_21_ + 1 y_51_ ^ 2 ] = 10817
c74: [ 1 x_23_ ^ 2 - 2 x_51_ * x_23_ + 1 x_51_ ^ 2 + 1 y_23_ ^ 2 - 2 y_51_ * y_23_ + 1 y_51_ ^ 2 ] = 241
c75: [ 1 x_18_ ^ 2 - 2 x_52_ * x_18_ + 1 x_52_ ^ 2 + 1 y_18_ ^ 2 - 2 y_52_ * y_18_ + 1 y_52_ ^ 2 ] = 18824
c76: [ 1 x_38_ ^ 2 - 2 x_52_ * x_38_ + 1 x_52_ ^ 2 + 1 y_38_ ^ 2 - 2 y_52_ * y_38_ + 1 y_52_ ^ 2 ] = 11197
c77: [ 1 x_24_ ^ 2 - 2 x_53_ * x_24_ + 1 x_53_ ^ 2 + 1 y_24_ ^ 2 - 2 y_53_ * y_24_ + 1 y_53_ ^ 2 ] = 754
c78: [ 1 x_51_ ^ 2 - 2 x_53_ * x_51_ + 1 x_53_ ^ 2 + 1 y_51_ ^ 2 - 2 y_53_ * y_51_ + 1 y_53_ ^ 2 ] = 9434
c79: [ 1 x_19_ ^ 2 - 2 x_54_ * x_19_ + 1 x_54_ ^ 2 + 1 y_19_ ^ 2 - 2 y_54_ * y_19_ + 1 y_54_ ^ 2 ] = 16409
c80: [ 1 x_21_ ^ 2 - 2 x_54_ * x_21_ + 1 x_54_ ^ 2 + 1 y_21_ ^ 2 - 2 y_54_ * y_21_ + 1 y_54_ ^ 2 ] = 10890
c81: [ 1 x_29_ ^ 2 - 2 x_54_ * x_29_ + 1 x_54_ ^ 2 + 1 y_29_ ^ 2 - 2 y_54_ * y_29_ + 1 y_54_ ^ 2 ] = 19856
c82: [ 1 x_7_ ^ 2 - 2 x_55_ * x_7_ + 1 x_55_ ^ 2 + 1 y_7_ ^ 2 - 2 y_55_ * y_7_ + 1 y_55_ ^ 2 ] = 3825
c83: [ 1 x_11_ ^ 2 - 2 x_55_ * x_11_ + 1 x_55_ ^ 2 + 1 y_11_ ^ 2 - 2 y_55_ * y_11_ + 1 y_55_ ^ 2 ] = 17921
c84: [ 1 x_32_ ^ 2 - 2 x_55_ * x_32_ + 1 x_55_ ^ 2 + 1 y_32_ ^ 2 - 2 y_55_ * y_32_ + 1 y_55_ ^ 2 ] = 33988
c85: [ 1 x_3_ ^ 2 - 2 x_56_ * x_3_ + 1 x_56_ ^ 2 + 1 y_3_ ^ 2 - 2 y_56_ * y_3_ + 1 y_56_ ^ 2 ] = 2797
c86: [ 1 x_5_ ^ 2 - 2 x_56_ * x_5_ + 1 x_56_ ^ 2 + 1 y_5_ ^ 2 - 2 y_56_ * y_5_ + 1 y_56_ ^ 2 ] = 32084
c87: [ 1 x_35_ ^ 2 - 2 x_56_ * x_35_ + 1 x_56_ ^ 2 + 1 y_35_ ^ 2 - 2 y_56_ * y_35_ + 1 y_56_ ^ 2 ] = 1130
c88: [ 1 x_4_ ^ 2 - 2 x_57_ * x_4_ + 1 x_57_ ^ 2 + 1 y_4_ ^ 2 - 2 y_57_ * y_4_ + 1 y_57_ ^ 2 ] = 12610
c89: [ 1 x_18_ ^ 2 - 2 x_57_ * x_18_ + 1 x_57_ ^ 2 + 1 y_18_ ^ 2 - 2 y_57_ * y_18_ + 1 y_57_ ^ 2 ] = 5785
c90: [ 1 x_36_ ^ 2 - 2 x_57_ * x_36_ + 1 x_57_ ^ 2 + 1 y_36_ ^ 2 - 2 y_57_ * y_36_ + 1 y_57_ ^ 2 ] = 1850
c91: [ 1 x_34_ ^ 2 - 2 x_59_ * x_34_ + 1 x_59_ ^ 2 + 1 y_34_ ^ 2 - 2 y_59_ * y_34_ + 1 y_59_ ^ 2 ] = 19769
c92: [ 1 x_56_ ^ 2 - 2 x_59_ * x_56_ + 1 x_59_ ^ 2 + 1 y_56_ ^ 2 - 2 y_59_ * y_56_ + 1 y_59_ ^ 2 ] = 2405
c93: [ 1 x_8_ ^ 2 - 2 x_60_ * x_8_ + 1 x_60_ ^ 2 + 1 y_8_ ^ 2 - 2 y_60_ * y_8_ + 1 y_60_ ^ 2 ] = 650
c94: [ 1 x_53_ ^ 2 - 2 x_60_ * x_53_ + 1 x_60_ ^ 2 + 1 y_53_ ^ 2 - 2 y_60_ * y_53_ + 1 y_60_ ^ 2 ] = 12409
c95: [ 1 x_31_ ^ 2 - 2 x_61_ * x_31_ + 1 x_61_ ^ 2 + 1 y_31_ ^ 2 - 2 y_61_ * y_31_ + 1 y_61_ ^ 2 ] = 16325
c96: [ 1 x_17_ ^ 2 - 2 x_62_ * x_17_ + 1 x_62_ ^ 2 + 1 y_17_ ^ 2 - 2 y_62_ * y_17_ + 1 y_62_ ^ 2 ] = 3236
c97: [ 1 x_31_ ^ 2 - 2 x_62_ * x_31_ + 1 x_62_ ^ 2 + 1 y_31_ ^ 2 - 2 y_62_ * y_31_ + 1 y_62_ ^ 2 ] = 29101
c98: [ 1 x_35_ ^ 2 - 2 x_63_ * x_35_ + 1 x_63_ ^ 2 + 1 y_35_ ^ 2 - 2 y_63_ * y_35_ + 1 y_63_ ^ 2 ] = 17425
c99: [ 1 x_41_ ^ 2 - 2 x_63_ * x_41_ + 1 x_63_ ^ 2 + 1 y_41_ ^ 2 - 2 y_63_ * y_41_ + 1 y_63_ ^ 2 ] = 13842
c100: [ 1 x_9_ ^ 2 - 2 x_64_ * x_9_ + 1 x_64_ ^ 2 + 1 y_9_ ^ 2 - 2 y_64_ * y_9_ + 1 y_64_ ^ 2 ] = 580
c101: [ 1 x_47_ ^ 2 - 2 x_64_ * x_47_ + 1 x_64_ ^ 2 + 1 y_47_ ^ 2 - 2 y_64_ * y_47_ + 1 y_64_ ^ 2 ] = 12593
c102: [ 1 x_25_ ^ 2 - 2 x_65_ * x_25_ + 1 x_65_ ^ 2 + 1 y_25_ ^ 2 - 2 y_65_ * y_25_ + 1 y_65_ ^ 2 ] = 23642
c103: [ 1 x_48_ ^ 2 - 2 x_65_ * x_48_ + 1 x_65_ ^ 2 + 1 y_48_ ^ 2 - 2 y_65_ * y_48_ + 1 y_65_ ^ 2 ] = 3869
c104: [ 1 x_63_ ^ 2 - 2 x_65_ * x_63_ + 1 x_65_ ^ 2 + 1 y_63_ ^ 2 - 2 y_65_ * y_63_ + 1 y_65_ ^ 2 ] = 16081
c105: [ 1 x_6_ ^ 2 - 2 x_66_ * x_6_ + 1 x_66_ ^ 2 + 1 y_6_ ^ 2 - 2 y_66_ * y_6_ + 1 y_66_ ^ 2 ] = 27693
c106: [ 1 x_44_ ^ 2 - 2 x_66_ * x_44_ + 1 x_66_ ^ 2 + 1 y_44_ ^ 2 - 2 y_66_ * y_44_ + 1 y_66_ ^ 2 ] = 1402
c107: [ 1 x_51_ ^ 2 - 2 x_66_ * x_51_ + 1 x_66_ ^ 2 + 1 y_51_ ^ 2 - 2 y_66_ * y_51_ + 1 y_66_ ^ 2 ] = 36040
c108: [ 1 x_21_ ^ 2 - 2 x_67_ * x_21_ + 1 x_67_ ^ 2 + 1 y_21_ ^ 2 - 2 y_67_ * y_21_ + 1 y_67_ ^ 2 ] = 10825
c109: [ 1 x_24_ ^ 2 - 2 x_68_ * x_24_ + 1 x_68_ ^ 2 + 1 y_24_ ^ 2 - 2 y_68_ * y_24_ + 1 y_68_ ^ 2 ] = 6481
c110: [ 1 x_15_ ^ 2 - 2 x_69_ * x_15_ + 1 x_69_ ^ 2 + 1 y_15_ ^ 2 - 2 y_69_ * y_15_ + 1 y_69_ ^ 2 ] = 6565
c111: [ 1 x_38_ ^ 2 - 2 x_69_ * x_38_ + 1 x_69_ ^ 2 + 1 y_38_ ^ 2 - 2 y_69_ * y_38_ + 1 y_69_ ^ 2 ] = 2377
c112: [ 1 x_2_ ^ 2 - 2 x_70_ * x_2_ + 1 x_70_ ^ 2 + 1 y_2_ ^ 2 - 2 y_70_ * y_2_ + 1 y_70_ ^ 2 ] = 3281
c113: [ 1 x_55_ ^ 2 - 2 x_70_ * x_55_ + 1 x_70_ ^ 2 + 1 y_55_ ^ 2 - 2 y_70_ * y_55_ + 1 y_70_ ^ 2 ] = 8237
c114: [ 1 x_23_ ^ 2 - 2 x_71_ * x_23_ + 1 x_71_ ^ 2 + 1 y_23_ ^ 2 - 2 y_71_ * y_23_ + 1 y_71_ ^ 2 ] = 31090
c115: [ 1 x_58_ ^ 2 - 2 x_71_ * x_58_ + 1 x_71_ ^ 2 + 1 y_58_ ^ 2 - 2 y_71_ * y_58_ + 1 y_71_ ^ 2 ] = 23525
c116: [ 1 x_19_ ^ 2 - 2 x_72_ * x_19_ + 1 x_72_ ^ 2 + 1 y_19_ ^ 2 - 2 y_72_ * y_19_ + 1 y_72_ ^ 2 ] = 5189
c117: [ 1 x_35_ ^ 2 - 2 x_72_ * x_35_ + 1 x_72_ ^ 2 + 1 y_35_ ^ 2 - 2 y_72_ * y_35_ + 1 y_72_ ^ 2 ] = 205
c118: [ 1 x_9_ ^ 2 - 2 x_73_ * x_9_ + 1 x_73_ ^ 2 + 1 y_9_ ^ 2 - 2 y_73_ * y_9_ + 1 y_73_ ^ 2 ] = 5044
c119: [ 1 x_17_ ^ 2 - 2 x_73_ * x_17_ + 1 x_73_ ^ 2 + 1 y_17_ ^ 2 - 2 y_73_ * y_17_ + 1 y_73_ ^ 2 ] = 43009
c120: [ 1 x_68_ ^ 2 - 2 x_73_ * x_68_ + 1 x_73_ ^ 2 + 1 y_68_ ^ 2 - 2 y_73_ * y_68_ + 1 y_73_ ^ 2 ] = 43394
c121: [ 1 x_3_ ^ 2 - 2 x_74_ * x_3_ + 1 x_74_ ^ 2 + 1 y_3_ ^ 2 - 2 y_74_ * y_3_ + 1 y_74_ ^ 2 ] = 3412
c122: [ 1 x_4_ ^ 2 - 2 x_74_ * x_4_ + 1 x_74_ ^ 2 + 1 y_4_ ^ 2 - 2 y_74_ * y_4_ + 1 y_74_ ^ 2 ] = 1508
c123: [ 1 x_42_ ^ 2 - 2 x_74_ * x_42_ + 1 x_74_ ^ 2 + 1 y_42_ ^ 2 - 2 y_74_ * y_42_ + 1 y_74_ ^ 2 ] = 18610
c124: [ 1 x_9_ ^ 2 - 2 x_75_ * x_9_ + 1 x_75_ ^ 2 + 1 y_9_ ^ 2 - 2 y_75_ * y_9_ + 1 y_75_ ^ 2 ] = 2917
c125: [ 1 x_13_ ^ 2 - 2 x_75_ * x_13_ + 1 x_75_ ^ 2 + 1 y_13_ ^ 2 - 2 y_75_ * y_13_ + 1 y_75_ ^ 2 ] = 6938
c126: [ 1 x_42_ ^ 2 - 2 x_75_ * x_42_ + 1 x_75_ ^ 2 + 1 y_42_ ^ 2 - 2 y_75_ * y_42_ + 1 y_75_ ^ 2 ] = 2873
c127: [ 1 x_23_ ^ 2 - 2 x_76_ * x_23_ + 1 x_76_ ^ 2 + 1 y_23_ ^ 2 - 2 y_76_ * y_23_ + 1 y_76_ ^ 2 ] = 31357
c128: [ 1 x_41_ ^ 2 - 2 x_76_ * x_41_ + 1 x_76_ ^ 2 + 1 y_41_ ^ 2 - 2 y_76_ * y_41_ + 1 y_76_ ^ 2 ] = 16425
c129: [ 1 x_14_ ^ 2 - 2 x_77_ * x_14_ + 1 x_77_ ^ 2 + 1 y_14_ ^ 2 - 2 y_77_ * y_14_ + 1 y_77_ ^ 2 ] = 9505
c130: [ 1 x_58_ ^ 2 - 2 x_77_ * x_58_ + 1 x_77_ ^ 2 + 1 y_58_ ^ 2 - 2 y_77_ * y_58_ + 1 y_77_ ^ 2 ] = 19125
c131: [ 1 x_63_ ^ 2 - 2 x_77_ * x_63_ + 1 x_77_ ^ 2 + 1 y_63_ ^ 2 - 2 y_77_ * y_63_ + 1 y_77_ ^ 2 ] = 13298
c132: [ 1 x_26_ ^ 2 - 2 x_78_ * x_26_ + 1 x_78_ ^ 2 + 1 y_26_ ^ 2 - 2 y_78_ * y_26_ + 1 y_78_ ^ 2 ] = 26440
c133: [ 1 x_28_ ^ 2 - 2 x_78_ * x_28_ + 1 x_78_ ^ 2 + 1 y_28_ ^ 2 - 2 y_78_ * y_28_ + 1 y_78_ ^ 2 ] = 14884
c134: [ 1 x_43_ ^ 2 - 2 x_78_ * x_43_ + 1 x_78_ ^ 2 + 1 y_43_ ^ 2 - 2 y_78_ * y_43_ + 1 y_78_ ^ 2 ] = 4961
c135: [ 1 x_23_ ^ 2 - 2 x_79_ * x_23_ + 1 x_79_ ^ 2 + 1 y_23_ ^ 2 - 2 y_79_ * y_23_ + 1 y_79_ ^ 2 ] = 1616
c136: [ 1 x_58_ ^ 2 - 2 x_79_ * x_58_ + 1 x_79_ ^ 2 + 1 y_58_ ^ 2 - 2 y_79_ * y_58_ + 1 y_79_ ^ 2 ] = 19469
c137: [ 1 x_70_ ^ 2 - 2 x_79_ * x_70_ + 1 x_79_ ^ 2 + 1 y_70_ ^ 2 - 2 y_79_ * y_70_ + 1 y_79_ ^ 2 ] = 4082
c138: [ 1 x_31_ ^ 2 - 2 x_80_ * x_31_ + 1 x_80_ ^ 2 + 1 y_31_ ^ 2 - 2 y_80_ * y_31_ + 1 y_80_ ^ 2 ] = 980
c139: [ 1 x_34_ ^ 2 - 2 x_80_ * x_34_ + 1 x_80_ ^ 2 + 1 y_34_ ^ 2 - 2 y_80_ * y_34_ + 1 y_80_ ^ 2 ] = 18629
c140: [ 1 x_2_ ^ 2 - 2 x_81_ * x_2_ + 1 x_81_ ^ 2 + 1 y_2_ ^ 2 - 2 y_81_ * y_2_ + 1 y_81_ ^ 2 ] = 13033
c141: [ 1 x_39_ ^ 2 - 2 x_81_ * x_39_ + 1 x_81_ ^ 2 + 1 y_39_ ^ 2 - 2 y_81_ * y_39_ + 1 y_81_ ^ 2 ] = 20513
c142: [ 1 x_61_ ^ 2 - 2 x_81_ * x_61_ + 1 x_81_ ^ 2 + 1 y_61_ ^ 2 - 2 y_81_ * y_61_ + 1 y_81_ ^ 2 ] = 1781
c143: [ 1 x_21_ ^ 2 - 2 x_82_ * x_21_ + 1 x_82_ ^ 2 + 1 y_21_ ^ 2 - 2 y_82_ * y_21_ + 1 y_82_ ^ 2 ] = 3281
c144: [ 1 x_29_ ^ 2 - 2 x_82_ * x_29_ + 1 x_82_ ^ 2 + 1 y_29_ ^ 2 - 2 y_82_ * y_29_ + 1 y_82_ ^ 2 ] = 5785
c145: [ 1 x_68_ ^ 2 - 2 x_82_ * x_68_ + 1 x_82_ ^ 2 + 1 y_68_ ^ 2 - 2 y_82_ * y_68_ + 1 y_82_ ^ 2 ] = 18125
c146: [ 1 x_33_ ^ 2 - 2 x_83_ * x_33_ + 1 x_83_ ^ 2 + 1 y_33_ ^ 2 - 2 y_83_ * y_33_ + 1 y_83_ ^ 2 ] = 706
c147: [ 1 x_38_ ^ 2 - 2 x_83_ * x_38_ + 1 x_83_ ^ 2 + 1 y_38_ ^ 2 - 2 y_83_ * y_38_ + 1 y_83_ ^ 2 ] = 2482
c148: [ 1 x_73_ ^ 2 - 2 x_83_ * x_73_ + 1 x_83_ ^ 2 + 1 y_73_ ^ 2 - 2 y_83_ * y_73_ + 1 y_83_ ^ 2 ] = 35648
c149: [ 1 x_19_ ^ 2 - 2 x_84_ * x_19_ + 1 x_84_ ^ 2 + 1 y_19_ ^ 2 - 2 y_84_ * y_19_ + 1 y_84_ ^ 2 ] = 3121
c150: [ 1 x_36_ ^ 2 - 2 x_84_ * x_36_ + 1 x_84_ ^ 2 + 1 y_36_ ^ 2 - 2 y_84_ * y_36_ + 1 y_84_ ^ 2 ] = 722
c151: [ 1 x_58_ ^ 2 - 2 x_84_ * x_58_ + 1 x_84_ ^ 2 + 1 y_58_ ^ 2 - 2 y_84_ * y_58_ + 1 y_84_ ^ 2 ] = 12149
c152: [ 1 x_14_ ^ 2 - 2 x_85_ * x_14_ + 1 x_85_ ^ 2 + 1 y_14_ ^ 2 - 2 y_85_ * y_14_ + 1 y_85_ ^ 2 ] = 26825
c153: [ 1 x_15_ ^ 2 - 2 x_85_ * x_15_ + 1 x_85_ ^ 2 + 1 y_15_ ^ 2 - 2 y_85_ * y_15_ + 1 y_85_ ^ 2 ] = 17540
c154: [ 1 x_22_ ^ 2 - 2 x_85_ * x_22_ + 1 x_85_ ^ 2 + 1 y_22_ ^ 2 - 2 y_85_ * y_22_ + 1 y_85_ ^ 2 ] = 31409
c155: [ 1 x_10_ ^ 2 - 2 x_86_ * x_10_ + 1 x_86_ ^ 2 + 1 y_10_ ^ 2 - 2 y_86_ * y_10_ + 1 y_86_ ^ 2 ] = 10377
c156: [ 1 x_29_ ^ 2 - 2 x_86_ * x_29_ + 1 x_86_ ^ 2 + 1 y_29_ ^ 2 - 2 y_86_ * y_29_ + 1 y_86_ ^ 2 ] = 5858
c157: [ 1 x_74_ ^ 2 - 2 x_86_ * x_74_ + 1 x_86_ ^ 2 + 1 y_74_ ^ 2 - 2 y_86_ * y_74_ + 1 y_86_ ^ 2 ] = 14330
c158: [ 1 x_8_ ^ 2 - 2 x_87_ * x_8_ + 1 x_87_ ^ 2 + 1 y_8_ ^ 2 - 2 y_87_ * y_8_ + 1 y_87_ ^ 2 ] = 12905
c159: [ 1 x_13_ ^ 2 - 2 x_87_ * x_13_ + 1 x_87_ ^ 2 + 1 y_13_ ^ 2 - 2 y_87_ * y_13_ + 1 y_87_ ^ 2 ] = 11108
c160: [ 1 x_30_ ^ 2 - 2 x_87_ * x_30_ + 1 x_87_ ^ 2 + 1 y_30_ ^ 2 - 2 y_87_ * y_30_ + 1 y_87_ ^ 2 ] = 11817
c161: [ 1 x_17_ ^ 2 - 2 x_88_ * x_17_ + 1 x_88_ ^ 2 + 1 y_17_ ^ 2 - 2 y_88_ * y_17_ + 1 y_88_ ^ 2 ] = 12017
c162: [ 1 x_80_ ^ 2 - 2 x_88_ * x_80_ + 1 x_88_ ^ 2 + 1 y_80_ ^ 2 - 2 y_88_ * y_80_ + 1 y_88_ ^ 2 ] = 180
c163: [ 1 x_81_ ^ 2 - 2 x_88_ * x_81_ + 1 x_88_ ^ 2 + 1 y_81_ ^ 2 - 2 y_88_ * y_81_ + 1 y_88_ ^ 2 ] = 19010
c164: [ 1 x_6_ ^ 2 - 2 x_89_ * x_6_ + 1 x_89_ ^ 2 + 1 y_6_ ^ 2 - 2 y_89_ * y_6_ + 1 y_89_ ^ 2 ] = 21493
c165: [ 1 x_19_ ^ 2 - 2 x_89_ * x_19_ + 1 x_89_ ^ 2 + 1 y_19_ ^ 2 - 2 y_89_ * y_19_ + 1 y_89_ ^ 2 ] = 6290
c166: [ 1 x_67_ ^ 2 - 2 x_89_ * x_67_ + 1 x_89_ ^ 2 + 1 y_67_ ^ 2 - 2 y_89_ * y_67_ + 1 y_89_ ^ 2 ] = 9178
c167: [ 1 x_19_ ^ 2 - 2 x_90_ * x_19_ + 1 x_90_ ^ 2 + 1 y_19_ ^ 2 - 2 y_90_ * y_19_ + 1 y_90_ ^ 2 ] = 17221
c168: [ 1 x_60_ ^ 2 - 2 x_90_ * x_60_ + 1 x_90_ ^ 2 + 1 y_60_ ^ 2 - 2 y_90_ * y_60_ + 1 y_90_ ^ 2 ] = 6442
c169: [ 1 x_67_ ^ 2 - 2 x_90_ * x_67_ + 1 x_90_ ^ 2 + 1 y_67_ ^ 2 - 2 y_90_ * y_67_ + 1 y_90_ ^ 2 ] = 6101
c170: [ 1 x_7_ ^ 2 - 2 x_91_ * x_7_ + 1 x_91_ ^ 2 + 1 y_7_ ^ 2 - 2 y_91_ * y_7_ + 1 y_91_ ^ 2 ] = 4033
c171: [ 1 x_76_ ^ 2 - 2 x_91_ * x_76_ + 1 x_91_ ^ 2 + 1 y_76_ ^ 2 - 2 y_91_ * y_76_ + 1 y_91_ ^ 2 ] = 14170
c172: [ 1 x_80_ ^ 2 - 2 x_91_ * x_80_ + 1 x_91_ ^ 2 + 1 y_80_ ^ 2 - 2 y_91_ * y_80_ + 1 y_91_ ^ 2 ] = 4745
c173: [ 1 x_62_ ^ 2 - 2 x_92_ * x_62_ + 1 x_92_ ^ 2 + 1 y_62_ ^ 2 - 2 y_92_ * y_62_ + 1 y_92_ ^ 2 ] = 10377
c174: [ 1 x_72_ ^ 2 - 2 x_92_ * x_72_ + 1 x_92_ ^ 2 + 1 y_72_ ^ 2 - 2 y_92_ * y_72_ + 1 y_92_ ^ 2 ] = 15876
c175: [ 1 x_15_ ^ 2 - 2 x_93_ * x_15_ + 1 x_93_ ^ 2 + 1 y_15_ ^ 2 - 2 y_93_ * y_15_ + 1 y_93_ ^ 2 ] = 6770
c176: [ 1 x_37_ ^ 2 - 2 x_93_ * x_37_ + 1 x_93_ ^ 2 + 1 y_37_ ^ 2 - 2 y_93_ * y_37_ + 1 y_93_ ^ 2 ] = 11425
c177: [ 1 x_59_ ^ 2 - 2 x_93_ * x_59_ + 1 x_93_ ^ 2 + 1 y_59_ ^ 2 - 2 y_93_ * y_59_ + 1 y_93_ ^ 2 ] = 7892
c178: [ 1 x_3_ ^ 2 - 2 x_94_ * x_3_ + 1 x_94_ ^ 2 + 1 y_3_ ^ 2 - 2 y_94_ * y_3_ + 1 y_94_ ^ 2 ] = 3380
c179: [ 1 x_59_ ^ 2 - 2 x_94_ * x_59_ + 1 x_94_ ^ 2 + 1 y_59_ ^ 2 - 2 y_94_ * y_59_ + 1 y_94_ ^ 2 ] = 2642
c180: [ 1 x_71_ ^ 2 - 2 x_94_ * x_71_ + 1 x_94_ ^ 2 + 1 y_71_ ^ 2 - 2 y_94_ * y_71_ + 1 y_94_ ^ 2 ] = 8468
c181: [ 1 x_16_ ^ 2 - 2 x_95_ * x_16_ + 1 x_95_ ^ 2 + 1 y_16_ ^ 2 - 2 y_95_ * y_16_ + 1 y_95_ ^ 2 ] = 22769
c182: [ 1 x_38_ ^ 2 - 2 x_95_ * x_38_ + 1 x_95_ ^ 2 + 1 y_38_ ^ 2 - 2 y_95_ * y_38_ + 1 y_95_ ^ 2 ] = 31525
c183: [ 1 x_39_ ^ 2 - 2 x_95_ * x_39_ + 1 x_95_ ^ 2 + 1 y_39_ ^ 2 - 2 y_95_ * y_39_ + 1 y_95_ ^ 2 ] = 9860
c184: [ 1 x_21_ ^ 2 - 2 x_96_ * x_21_ + 1 x_96_ ^ 2 + 1 y_21_ ^ 2 - 2 y_96_ * y_21_ + 1 y_96_ ^ 2 ] = 21050
c185: [ 1 x_64_ ^ 2 - 2 x_96_ * x_64_ + 1 x_96_ ^ 2 + 1 y_64_ ^ 2 - 2 y_96_ * y_64_ + 1 y_96_ ^ 2 ] = 5690
c186: [ 1 x_67_ ^ 2 - 2 x_96_ * x_67_ + 1 x_96_ ^ 2 + 1 y_67_ ^ 2 - 2 y_96_ * y_67_ + 1 y_96_ ^ 2 ] = 21089
c187: [ 1 x_42_ ^ 2 - 2 x_97_ * x_42_ + 1 x_97_ ^ 2 + 1 y_42_ ^ 2 - 2 y_97_ * y_42_ + 1 y_97_ ^ 2 ] = 28921
c188: [ 1 x_50_ ^ 2 - 2 x_97_ * x_50_ + 1 x_97_ ^ 2 + 1 y_50_ ^ 2 - 2 y_97_ * y_50_ + 1 y_97_ ^ 2 ] = 34021
c189: [ 1 x_92_ ^ 2 - 2 x_97_ * x_92_ + 1 x_97_ ^ 2 + 1 y_92_ ^ 2 - 2 y_97_ * y_92_ + 1 y_97_ ^ 2 ] = 6661
c190: [ 1 x_1_ ^ 2 - 2 x_98_ * x_1_ + 1 x_98_ ^ 2 + 1 y_1_ ^ 2 - 2 y_98_ * y_1_ + 1 y_98_ ^ 2 ] = 16490
c191: [ 1 x_61_ ^ 2 - 2 x_98_ * x_61_ + 1 x_98_ ^ 2 + 1 y_61_ ^ 2 - 2 y_98_ * y_61_ + 1 y_98_ ^ 2 ] = 16769
c192: [ 1 x_69_ ^ 2 - 2 x_98_ * x_69_ + 1 x_98_ ^ 2 + 1 y_69_ ^ 2 - 2 y_98_ * y_69_ + 1 y_98_ ^ 2 ] = 1537
c193: [ 1 x_13_ ^ 2 - 2 x_99_ * x_13_ + 1 x_99_ ^ 2 + 1 y_13_ ^ 2 - 2 y_99_ * y_13_ + 1 y_99_ ^ 2 ] = 31201
c194: [ 1 x_49_ ^ 2 - 2 x_99_ * x_49_ + 1 x_99_ ^ 2 + 1 y_49_ ^ 2 - 2 y_99_ * y_49_ + 1 y_99_ ^ 2 ] = 37681
c195: [ 1 x_52_ ^ 2 - 2 x_99_ * x_52_ + 1 x_99_ ^ 2 + 1 y_52_ ^ 2 - 2 y_99_ * y_52_ + 1 y_99_ ^ 2 ] = 9409
c196: [ 1 x_12_ ^ 2 - 2 x_100_ * x_12_ + 1 x_100_ ^ 2 + 1 y_12_ ^ 2 - 2 y_100_ * y_12_ + 1 y_100_ ^ 2 ] = 7633
c197: [ 1 x_27_ ^ 2 - 2 x_100_ * x_27_ + 1 x_100_ ^ 2 + 1 y_27_ ^ 2 - 2 y_100_ * y_27_ + 1 y_100_ ^ 2 ] = 17650
c198: [ 1 x_43_ ^ 2 - 2 x_100_ * x_43_ + 1 x_100_ ^ 2 + 1 y_43_ ^ 2 - 2 y_100_ * y_43_ + 1 y_100_ ^ 2 ] = 8177
Bounds
-196 <= x_1_ <= 230
x_2_ = 34
-35 <= x_3_ <= 69
1 <= x_4_ <= 67
-158 <= x_5_ <= 196
-174 <= x_6_ <= 190
-13 <= x_7_ <= 81
-111 <= x_8_ <= 127
-240 <= x_9_ <= 274
-42 <= x_10_ <= 110
-183 <= x_11_ <= 199
-218 <= x_12_ <= 257
-200 <= x_13_ <= 216
-72 <= x_14_ <= 140
-203 <= x_15_ <= 237
-151 <= x_16_ <= 167
-168 <= x_17_ <= 184
-150 <= x_18_ <= 184
-102 <= x_19_ <= 136
-72 <= x_20_ <= 140
-193 <= x_21_ <= 209
-120 <= x_22_ <= 136
-104 <= x_23_ <= 120
-19 <= x_24_ <= 35
-10 <= x_25_ <= 78
-273 <= x_26_ <= 312
-236 <= x_27_ <= 304
-111 <= x_28_ <= 179
-221 <= x_29_ <= 289
-334 <= x_30_ <= 350
-176 <= x_31_ <= 225
-120 <= x_32_ <= 154
-64 <= x_33_ <= 132
-172 <= x_34_ <= 206
-16 <= x_35_ <= 50
-154 <= x_36_ <= 219
-94 <= x_37_ <= 110
-102 <= x_38_ <= 118
-223 <= x_39_ <= 291
-84 <= x_40_ <= 100
-266 <= x_41_ <= 286
-160 <= x_42_ <= 228
-177 <= x_43_ <= 211
-314 <= x_44_ <= 330
-160 <= x_45_ <= 176
-176 <= x_46_ <= 192
-104 <= x_47_ <= 138
-226 <= x_48_ <= 294
-189 <= x_49_ <= 205
-222 <= x_50_ <= 256
-89 <= x_51_ <= 105
-208 <= x_52_ <= 224
x_53_ = 8
-231 <= x_54_ <= 265
-75 <= x_55_ <= 143
x_56_ = 17
-111 <= x_57_ <= 179
-226 <= x_58_ <= 294
-32 <= x_59_ <= 66
-103 <= x_60_ <= 119
-122 <= x_61_ <= 190
-225 <= x_62_ <= 241
-148 <= x_63_ <= 182
-216 <= x_64_ <= 250
-164 <= x_65_ <= 232
-278 <= x_66_ <= 294
-261 <= x_67_ <= 277
-99 <= x_68_ <= 115
-151 <= x_69_ <= 167
-23 <= x_70_ <= 91
-175 <= x_71_ <= 209
-30 <= x_72_ <= 64
-279 <= x_73_ <= 324
-38 <= x_74_ <= 106
-214 <= x_75_ <= 282
-195 <= x_76_ <= 263
-170 <= x_77_ <= 238
-233 <= x_78_ <= 281
-87 <= x_79_ <= 155
-145 <= x_80_ <= 213
-80 <= x_81_ <= 148
-234 <= x_82_ <= 250
-90 <= x_83_ <= 158
-158 <= x_84_ <= 192
-236 <= x_85_ <= 304
-144 <= x_86_ <= 212
-225 <= x_87_ <= 241
-159 <= x_88_ <= 227
-182 <= x_89_ <= 216
-183 <= x_90_ <= 199
-76 <= x_91_ <= 144
-156 <= x_92_ <= 190
-120 <= x_93_ <= 154
-83 <= x_94_ <= 117
-279 <= x_95_ <= 295
-292 <= x_96_ <= 326
-238 <= x_97_ <= 272
-190 <= x_98_ <= 206
-305 <= x_99_ <= 321
-267 <= x_100_ <= 301
-250 <= y_1_ <= 140
y_2_ = 18
-112 <= y_3_ <= -21
-15 <= y_4_ <= 51
-174 <= y_5_ <= 106
-192 <= y_6_ <= 172
-29 <= y_7_ <= 65
-129 <= y_8_ <= 109
-284 <= y_9_ <= 184
-58 <= y_10_ <= 94
-201 <= y_11_ <= 181
-234 <= y_12_ <= 167
-218 <= y_13_ <= 198
-88 <= y_14_ <= 124
-250 <= y_15_ <= 147
-169 <= y_16_ <= 149
-186 <= y_17_ <= 140
-203 <= y_18_ <= 94
-192 <= y_19_ <= 46
-88 <= y_20_ <= 124
-211 <= y_21_ <= 191
-138 <= y_22_ <= 118
-122 <= y_23_ <= 102
-37 <= y_24_ <= 17
-26 <= y_25_ <= 62
-289 <= y_26_ <= 222
-252 <= y_27_ <= 288
-127 <= y_28_ <= 163
-237 <= y_29_ <= 204
-352 <= y_30_ <= 282
-192 <= y_31_ <= 207
-210 <= y_32_ <= 64
-80 <= y_33_ <= 113
-210 <= y_34_ <= 116
-106 <= y_35_ <= -40
-170 <= y_36_ <= 129
-112 <= y_37_ <= 92
-120 <= y_38_ <= 100
-239 <= y_39_ <= 202
-102 <= y_40_ <= 82
-288 <= y_41_ <= 210
-176 <= y_42_ <= 174
-229 <= y_43_ <= 121
-332 <= y_44_ <= 287
-178 <= y_45_ <= 158
-194 <= y_46_ <= 174
-181 <= y_47_ <= 48
-242 <= y_48_ <= 278
-207 <= y_49_ <= 187
-276 <= y_50_ <= 166
-107 <= y_51_ <= 87
-226 <= y_52_ <= 206
y_53_ = -10
-315 <= y_54_ <= 175
-91 <= y_55_ <= 127
y_56_ = -73
-127 <= y_57_ <= 163
-242 <= y_58_ <= 213
-122 <= y_59_ <= -24
-121 <= y_60_ <= 101
-138 <= y_61_ <= 174
-243 <= y_62_ <= 197
-238 <= y_63_ <= 92
-293 <= y_64_ <= 160
-180 <= y_65_ <= 216
-296 <= y_66_ <= 276
-279 <= y_67_ <= 222
-117 <= y_68_ <= 97
-169 <= y_69_ <= 149
-39 <= y_70_ <= 75
-263 <= y_71_ <= 119
-120 <= y_72_ <= -26
-295 <= y_73_ <= 255
-54 <= y_74_ <= 38
-230 <= y_75_ <= 228
-211 <= y_76_ <= 247
-186 <= y_77_ <= 207
-249 <= y_78_ <= 191
-103 <= y_79_ <= 139
-161 <= y_80_ <= 197
-96 <= y_81_ <= 132
-252 <= y_82_ <= 232
-106 <= y_83_ <= 139
-197 <= y_84_ <= 102
-252 <= y_85_ <= 279
-160 <= y_86_ <= 158
-243 <= y_87_ <= 223
-175 <= y_88_ <= 211
-272 <= y_89_ <= 126
-201 <= y_90_ <= 178
-92 <= y_91_ <= 128
-246 <= y_92_ <= 100
-210 <= y_93_ <= 64
-170 <= y_94_ <= 27
-297 <= y_95_ <= 277
-356 <= y_96_ <= 236
-328 <= y_97_ <= 182
-208 <= y_98_ <= 188
-323 <= y_99_ <= 303
-319 <= y_100_ <= 211
General
x_1_
x_2_
x_3_
x_4_
x_5_
x_6_
x_7_
x_8_
x_9_
x_10_
x_11_
x_12_
x_13_
x_14_
x_15_
x_16_
x_17_
x_18_
x_19_
x_20_
x_21_
x_22_
x_23_
x_24_
x_25_
x_26_
x_27_
x_28_
x_29_
x_30_
x_31_
x_32_
x_33_
x_34_
x_35_
x_36_
x_37_
x_38_
x_39_
x_40_
x_41_
x_42_
x_43_
x_44_
x_45_
x_46_
x_47_
x_48_
x_49_
x_50_
x_51_
x_52_
x_53_
x_54_
x_55_
x_56_
x_57_
x_58_
x_59_
x_60_
x_61_
x_62_
x_63_
x_64_
x_65_
x_66_
x_67_
x_68_
x_69_
x_70_
x_71_
x_72_
x_73_
x_74_
x_75_
x_76_
x_77_
x_78_
x_79_
x_80_
x_81_
x_82_
x_83_
x_84_
x_85_
x_86_
x_87_
x_88_
x_89_
x_90_
x_91_
x_92_
x_93_
x_94_
x_95_
x_96_
x_97_
x_98_
x_99_
x_100_
y_1_
y_2_
y_3_
y_4_
y_5_
y_6_
y_7_
y_8_
y_9_
y_10_
y_11_
y_12_
y_13_
y_14_
y_15_
y_16_
y_17_
y_18_
y_19_
y_20_
y_21_
y_22_
y_23_
y_24_
y_25_
y_26_
y_27_
y_28_
y_29_
y_30_
y_31_
y_32_
y_33_
y_34_
y_35_
y_36_
y_37_
y_38_
y_39_
y_40_
y_41_
y_42_
y_43_
y_44_
y_45_
y_46_
y_47_
y_48_
y_49_
y_50_
y_51_
y_52_
y_53_
y_54_
y_55_
y_56_
y_57_
y_58_
y_59_
y_60_
y_61_
y_62_
y_63_
y_64_
y_65_
y_66_
y_67_
y_68_
y_69_
y_70_
y_71_
y_72_
y_73_
y_74_
y_75_
y_76_
y_77_
y_78_
y_79_
y_80_
y_81_
y_82_
y_83_
y_84_
y_85_
y_86_
y_87_
y_88_
y_89_
y_90_
y_91_
y_92_
y_93_
y_94_
y_95_
y_96_
y_97_
y_98_
y_99_
y_100_
End
