minimize
obj: 
subject to
c1_1: -84 x_1_ - 60 y_1_ + [ 1 x_1_ ^ 2 + 1 y_1_ ^ 2 ] <= 76605
c2_1: -84 x_2_ - 60 y_2_ + [ 1 x_2_ ^ 2 + 1 y_2_ ^ 2 ] <= 117017
c3_1: -84 x_3_ - 60 y_3_ + [ 1 x_3_ ^ 2 + 1 y_3_ ^ 2 ] <= 48237
c4_1: -84 x_4_ - 60 y_4_ + [ 1 x_4_ ^ 2 + 1 y_4_ ^ 2 ] <= 76712
c5_1: -84 x_5_ - 60 y_5_ + [ 1 x_5_ ^ 2 + 1 y_5_ ^ 2 ] <= 88772
c6_1: -84 x_6_ - 60 y_6_ + [ 1 x_6_ ^ 2 + 1 y_6_ ^ 2 ] <= 27198
c7_1: -84 x_7_ - 60 y_7_ + [ 1 x_7_ ^ 2 + 1 y_7_ ^ 2 ] <= 85130
c8_1: -84 x_8_ - 60 y_8_ + [ 1 x_8_ ^ 2 + 1 y_8_ ^ 2 ] <= 2384
c9_1: -84 x_9_ - 60 y_9_ + [ 1 x_9_ ^ 2 + 1 y_9_ ^ 2 ] <= 82021
c10_1: -84 x_10_ - 60 y_10_ + [ 1 x_10_ ^ 2 + 1 y_10_ ^ 2 ] <= 83425
c11_1: -84 x_11_ - 60 y_11_ + [ 1 x_11_ ^ 2 + 1 y_11_ ^ 2 ] <= 21294
c12_1: -84 x_12_ - 60 y_12_ + [ 1 x_12_ ^ 2 + 1 y_12_ ^ 2 ] <= 152827
c13_1: -84 x_13_ - 60 y_13_ + [ 1 x_13_ ^ 2 + 1 y_13_ ^ 2 ] <= 32915
c14_1: -84 x_14_ - 60 y_14_ + [ 1 x_14_ ^ 2 + 1 y_14_ ^ 2 ] <= 77595
c15_1: -84 x_15_ - 60 y_15_ + [ 1 x_15_ ^ 2 + 1 y_15_ ^ 2 ] <= 30675
c16_1: -84 x_16_ - 60 y_16_ + [ 1 x_16_ ^ 2 + 1 y_16_ ^ 2 ] <= 32918
c17_1: -84 x_17_ - 60 y_17_ + [ 1 x_17_ ^ 2 + 1 y_17_ ^ 2 ] <= 53587
c18_1: -84 x_18_ - 60 y_18_ + [ 1 x_18_ ^ 2 + 1 y_18_ ^ 2 ] <= 8585
c19_1: -84 x_19_ - 60 y_19_ + [ 1 x_19_ ^ 2 + 1 y_19_ ^ 2 ] <= 26320
c20_1: -84 x_20_ - 60 y_20_ + [ 1 x_20_ ^ 2 + 1 y_20_ ^ 2 ] <= 94837
c21_1: -84 x_21_ - 60 y_21_ + [ 1 x_21_ ^ 2 + 1 y_21_ ^ 2 ] <= 40152
c22_1: -84 x_22_ - 60 y_22_ + [ 1 x_22_ ^ 2 + 1 y_22_ ^ 2 ] <= 73436
c23_1: -84 x_23_ - 60 y_23_ + [ 1 x_23_ ^ 2 + 1 y_23_ ^ 2 ] <= 116200
c24_1: -84 x_24_ - 60 y_24_ + [ 1 x_24_ ^ 2 + 1 y_24_ ^ 2 ] <= 54685
c25_1: -84 x_25_ - 60 y_25_ + [ 1 x_25_ ^ 2 + 1 y_25_ ^ 2 ] <= 92216
c26_1: -84 x_26_ - 60 y_26_ + [ 1 x_26_ ^ 2 + 1 y_26_ ^ 2 ] <= 11974
c27_1: -84 x_27_ - 60 y_27_ + [ 1 x_27_ ^ 2 + 1 y_27_ ^ 2 ] <= 70156
c28_1: -84 x_28_ - 60 y_28_ + [ 1 x_28_ ^ 2 + 1 y_28_ ^ 2 ] <= 106908
c29_1: -84 x_29_ - 60 y_29_ + [ 1 x_29_ ^ 2 + 1 y_29_ ^ 2 ] <= 20866
c30_1: -84 x_30_ - 60 y_30_ + [ 1 x_30_ ^ 2 + 1 y_30_ ^ 2 ] <= 12286
c31_1: -84 x_31_ - 60 y_31_ + [ 1 x_31_ ^ 2 + 1 y_31_ ^ 2 ] <= 57877
c32_1: -84 x_32_ - 60 y_32_ + [ 1 x_32_ ^ 2 + 1 y_32_ ^ 2 ] <= 45871
c33_1: -84 x_33_ - 60 y_33_ + [ 1 x_33_ ^ 2 + 1 y_33_ ^ 2 ] <= 22621
c34_1: -84 x_34_ - 60 y_34_ + [ 1 x_34_ ^ 2 + 1 y_34_ ^ 2 ] <= 67057
c35_1: -84 x_35_ - 60 y_35_ + [ 1 x_35_ ^ 2 + 1 y_35_ ^ 2 ] <= -341
c36_1: -84 x_36_ - 60 y_36_ + [ 1 x_36_ ^ 2 + 1 y_36_ ^ 2 ] <= 7545
c37_1: -84 x_37_ - 60 y_37_ + [ 1 x_37_ ^ 2 + 1 y_37_ ^ 2 ] <= 24084
c38_1: -84 x_38_ - 60 y_38_ + [ 1 x_38_ ^ 2 + 1 y_38_ ^ 2 ] <= 69447
c39_1: -84 x_39_ - 60 y_39_ + [ 1 x_39_ ^ 2 + 1 y_39_ ^ 2 ] <= 42454
c40_1: -84 x_40_ - 60 y_40_ + [ 1 x_40_ ^ 2 + 1 y_40_ ^ 2 ] <= -71
c41_1: -84 x_41_ - 60 y_41_ + [ 1 x_41_ ^ 2 + 1 y_41_ ^ 2 ] <= 23008
c42_1: -84 x_42_ - 60 y_42_ + [ 1 x_42_ ^ 2 + 1 y_42_ ^ 2 ] <= 50989
c43_1: -84 x_43_ - 60 y_43_ + [ 1 x_43_ ^ 2 + 1 y_43_ ^ 2 ] <= 110515
c44_1: -84 x_44_ - 60 y_44_ + [ 1 x_44_ ^ 2 + 1 y_44_ ^ 2 ] <= 7580
c45_1: -84 x_45_ - 60 y_45_ + [ 1 x_45_ ^ 2 + 1 y_45_ ^ 2 ] <= 66896
c46_1: -84 x_46_ - 60 y_46_ + [ 1 x_46_ ^ 2 + 1 y_46_ ^ 2 ] <= 124704
c47_1: -84 x_47_ - 60 y_47_ + [ 1 x_47_ ^ 2 + 1 y_47_ ^ 2 ] <= 106281
c48_1: -84 x_48_ - 60 y_48_ + [ 1 x_48_ ^ 2 + 1 y_48_ ^ 2 ] <= 113436
c49_1: -84 x_49_ - 60 y_49_ + [ 1 x_49_ ^ 2 + 1 y_49_ ^ 2 ] <= 58670
c50_1: -84 x_51_ - 60 y_51_ + [ 1 x_51_ ^ 2 + 1 y_51_ ^ 2 ] <= 107901
c51_1: -84 x_52_ - 60 y_52_ + [ 1 x_52_ ^ 2 + 1 y_52_ ^ 2 ] <= 94318
c52_1: -84 x_53_ - 60 y_53_ + [ 1 x_53_ ^ 2 + 1 y_53_ ^ 2 ] <= 62764
c53_1: -84 x_54_ - 60 y_54_ + [ 1 x_54_ ^ 2 + 1 y_54_ ^ 2 ] <= -1903
c54_1: -84 x_55_ - 60 y_55_ + [ 1 x_55_ ^ 2 + 1 y_55_ ^ 2 ] <= 26588
c55_1: -84 x_56_ - 60 y_56_ + [ 1 x_56_ ^ 2 + 1 y_56_ ^ 2 ] <= 52388
c56_1: -84 x_57_ - 60 y_57_ + [ 1 x_57_ ^ 2 + 1 y_57_ ^ 2 ] <= 11633
c57_1: -84 x_58_ - 60 y_58_ + [ 1 x_58_ ^ 2 + 1 y_58_ ^ 2 ] <= 54489
c58_1: -84 x_59_ - 60 y_59_ + [ 1 x_59_ ^ 2 + 1 y_59_ ^ 2 ] <= 122475
c59_1: -84 x_60_ - 60 y_60_ + [ 1 x_60_ ^ 2 + 1 y_60_ ^ 2 ] <= 85270
c60_1: -84 x_61_ - 60 y_61_ + [ 1 x_61_ ^ 2 + 1 y_61_ ^ 2 ] <= 20273
c61_1: -84 x_62_ - 60 y_62_ + [ 1 x_62_ ^ 2 + 1 y_62_ ^ 2 ] <= 43120
c62_1: -84 x_63_ - 60 y_63_ + [ 1 x_63_ ^ 2 + 1 y_63_ ^ 2 ] <= 115494
c63_1: -84 x_64_ - 60 y_64_ + [ 1 x_64_ ^ 2 + 1 y_64_ ^ 2 ] <= 89093
c64_1: -84 x_65_ - 60 y_65_ + [ 1 x_65_ ^ 2 + 1 y_65_ ^ 2 ] <= 3540
c65_1: -84 x_66_ - 60 y_66_ + [ 1 x_66_ ^ 2 + 1 y_66_ ^ 2 ] <= 99636
c66_1: -84 x_67_ - 60 y_67_ + [ 1 x_67_ ^ 2 + 1 y_67_ ^ 2 ] <= 43928
c67_1: -84 x_68_ - 60 y_68_ + [ 1 x_68_ ^ 2 + 1 y_68_ ^ 2 ] <= 194039
c68_1: -84 x_69_ - 60 y_69_ + [ 1 x_69_ ^ 2 + 1 y_69_ ^ 2 ] <= 139904
c69_1: -84 x_70_ - 60 y_70_ + [ 1 x_70_ ^ 2 + 1 y_70_ ^ 2 ] <= 57606
c70_1: -84 x_71_ - 60 y_71_ + [ 1 x_71_ ^ 2 + 1 y_71_ ^ 2 ] <= 78096
c71_1: -84 x_72_ - 60 y_72_ + [ 1 x_72_ ^ 2 + 1 y_72_ ^ 2 ] <= 179205
c72_1: -84 x_73_ - 60 y_73_ + [ 1 x_73_ ^ 2 + 1 y_73_ ^ 2 ] <= 106130
c73_1: -84 x_74_ - 60 y_74_ + [ 1 x_74_ ^ 2 + 1 y_74_ ^ 2 ] <= 122292
c74_1: -84 x_75_ - 60 y_75_ + [ 1 x_75_ ^ 2 + 1 y_75_ ^ 2 ] <= 2476
c75_1: -84 x_76_ - 60 y_76_ + [ 1 x_76_ ^ 2 + 1 y_76_ ^ 2 ] <= 137869
c76_1: -84 x_77_ - 60 y_77_ + [ 1 x_77_ ^ 2 + 1 y_77_ ^ 2 ] <= 161512
c77_1: -84 x_78_ - 60 y_78_ + [ 1 x_78_ ^ 2 + 1 y_78_ ^ 2 ] <= 76681
c78_1: -84 x_79_ - 60 y_79_ + [ 1 x_79_ ^ 2 + 1 y_79_ ^ 2 ] <= 26505
c79_1: -84 x_80_ - 60 y_80_ + [ 1 x_80_ ^ 2 + 1 y_80_ ^ 2 ] <= 64595
c80_1: -84 x_81_ - 60 y_81_ + [ 1 x_81_ ^ 2 + 1 y_81_ ^ 2 ] <= 104442
c81_1: -84 x_82_ - 60 y_82_ + [ 1 x_82_ ^ 2 + 1 y_82_ ^ 2 ] <= 46594
c82_1: -84 x_83_ - 60 y_83_ + [ 1 x_83_ ^ 2 + 1 y_83_ ^ 2 ] <= 111586
c83_1: -84 x_84_ - 60 y_84_ + [ 1 x_84_ ^ 2 + 1 y_84_ ^ 2 ] <= 48361
c84_1: -84 x_85_ - 60 y_85_ + [ 1 x_85_ ^ 2 + 1 y_85_ ^ 2 ] <= 131624
c85_1: -84 x_86_ - 60 y_86_ + [ 1 x_86_ ^ 2 + 1 y_86_ ^ 2 ] <= 80300
c86_1: -84 x_87_ - 60 y_87_ + [ 1 x_87_ ^ 2 + 1 y_87_ ^ 2 ] <= 20168
c87_1: -84 x_88_ - 60 y_88_ + [ 1 x_88_ ^ 2 + 1 y_88_ ^ 2 ] <= 44815
c88_1: -84 x_89_ - 60 y_89_ + [ 1 x_89_ ^ 2 + 1 y_89_ ^ 2 ] <= 159004
c89_1: -84 x_90_ - 60 y_90_ + [ 1 x_90_ ^ 2 + 1 y_90_ ^ 2 ] <= 141893
c90_1: -84 x_91_ - 60 y_91_ + [ 1 x_91_ ^ 2 + 1 y_91_ ^ 2 ] <= 126511
c91_1: -84 x_92_ - 60 y_92_ + [ 1 x_92_ ^ 2 + 1 y_92_ ^ 2 ] <= -551
c92_1: -84 x_93_ - 60 y_93_ + [ 1 x_93_ ^ 2 + 1 y_93_ ^ 2 ] <= 62135
c93_1: -84 x_94_ - 60 y_94_ + [ 1 x_94_ ^ 2 + 1 y_94_ ^ 2 ] <= 169621
c94_1: -84 x_95_ - 60 y_95_ + [ 1 x_95_ ^ 2 + 1 y_95_ ^ 2 ] <= 15286
c95_1: -84 x_96_ - 60 y_96_ + [ 1 x_96_ ^ 2 + 1 y_96_ ^ 2 ] <= 110709
c96_1: -84 x_97_ - 60 y_97_ + [ 1 x_97_ ^ 2 + 1 y_97_ ^ 2 ] <= 66547
c97_1: -84 x_98_ - 60 y_98_ + [ 1 x_98_ ^ 2 + 1 y_98_ ^ 2 ] <= 200094
c98_1: -84 x_99_ - 60 y_99_ + [ 1 x_99_ ^ 2 + 1 y_99_ ^ 2 ] <= 139459
c99_1: -84 x_100_ - 60 y_100_ + [ 1 x_100_ ^ 2 + 1 y_100_ ^ 2 ] <= 110630
c100_1: 54 x_1_ + 144 y_1_ + [ 1 x_1_ ^ 2 + 1 y_1_ ^ 2 ] <= 95696
c101_1: 54 x_2_ + 144 y_2_ + [ 1 x_2_ ^ 2 + 1 y_2_ ^ 2 ] <= 154312
c102_1: 54 x_3_ + 144 y_3_ + [ 1 x_3_ ^ 2 + 1 y_3_ ^ 2 ] <= 123391
c103_1: 54 x_4_ + 144 y_4_ + [ 1 x_4_ ^ 2 + 1 y_4_ ^ 2 ] <= 51686
c104_1: 54 x_5_ + 144 y_5_ + [ 1 x_5_ ^ 2 + 1 y_5_ ^ 2 ] <= 129003
c105_1: 54 x_6_ + 144 y_6_ + [ 1 x_6_ ^ 2 + 1 y_6_ ^ 2 ] <= 88202
c106_1: 54 x_7_ + 144 y_7_ + [ 1 x_7_ ^ 2 + 1 y_7_ ^ 2 ] <= 124572
c107_1: 54 x_8_ + 144 y_8_ + [ 1 x_8_ ^ 2 + 1 y_8_ ^ 2 ] <= -1953
c108_1: 54 x_9_ + 144 y_9_ + [ 1 x_9_ ^ 2 + 1 y_9_ ^ 2 ] <= 117366
c109_1: 54 x_10_ + 144 y_10_ + [ 1 x_10_ ^ 2 + 1 y_10_ ^ 2 ] <= 94567
c110_1: 54 x_11_ + 144 y_11_ + [ 1 x_11_ ^ 2 + 1 y_11_ ^ 2 ] <= 15598
c111_1: 54 x_12_ + 144 y_12_ + [ 1 x_12_ ^ 2 + 1 y_12_ ^ 2 ] <= 143243
c112_1: 54 x_13_ + 144 y_13_ + [ 1 x_13_ ^ 2 + 1 y_13_ ^ 2 ] <= 62809
c113_1: 54 x_14_ + 144 y_14_ + [ 1 x_14_ ^ 2 + 1 y_14_ ^ 2 ] <= 112013
c114_1: 54 x_15_ + 144 y_15_ + [ 1 x_15_ ^ 2 + 1 y_15_ ^ 2 ] <= 24528
c115_1: 54 x_16_ + 144 y_16_ + [ 1 x_16_ ^ 2 + 1 y_16_ ^ 2 ] <= 45094
c116_1: 54 x_17_ + 144 y_17_ + [ 1 x_17_ ^ 2 + 1 y_17_ ^ 2 ] <= 60023
c117_1: 54 x_18_ + 144 y_18_ + [ 1 x_18_ ^ 2 + 1 y_18_ ^ 2 ] <= 33020
c118_1: 54 x_19_ + 144 y_19_ + [ 1 x_19_ ^ 2 + 1 y_19_ ^ 2 ] <= 20374
c119_1: 54 x_20_ + 144 y_20_ + [ 1 x_20_ ^ 2 + 1 y_20_ ^ 2 ] <= 136349
c120_1: 54 x_21_ + 144 y_21_ + [ 1 x_21_ ^ 2 + 1 y_21_ ^ 2 ] <= 110297
c121_1: 54 x_22_ + 144 y_22_ + [ 1 x_22_ ^ 2 + 1 y_22_ ^ 2 ] <= 94271
c122_1: 54 x_23_ + 144 y_23_ + [ 1 x_23_ ^ 2 + 1 y_23_ ^ 2 ] <= 160989
c123_1: 54 x_24_ + 144 y_24_ + [ 1 x_24_ ^ 2 + 1 y_24_ ^ 2 ] <= 47614
c124_1: 54 x_25_ + 144 y_25_ + [ 1 x_25_ ^ 2 + 1 y_25_ ^ 2 ] <= 24380
c125_1: 54 x_26_ + 144 y_26_ + [ 1 x_26_ ^ 2 + 1 y_26_ ^ 2 ] <= 367
c126_1: 54 x_27_ + 144 y_27_ + [ 1 x_27_ ^ 2 + 1 y_27_ ^ 2 ] <= 131857
c127_1: 54 x_28_ + 144 y_28_ + [ 1 x_28_ ^ 2 + 1 y_28_ ^ 2 ] <= 62399
c128_1: 54 x_29_ + 144 y_29_ + [ 1 x_29_ ^ 2 + 1 y_29_ ^ 2 ] <= 76669
c129_1: 54 x_30_ + 144 y_30_ + [ 1 x_30_ ^ 2 + 1 y_30_ ^ 2 ] <= -5776
c130_1: 54 x_31_ + 144 y_31_ + [ 1 x_31_ ^ 2 + 1 y_31_ ^ 2 ] <= 90794
c131_1: 54 x_32_ + 144 y_32_ + [ 1 x_32_ ^ 2 + 1 y_32_ ^ 2 ] <= 36381
c132_1: 54 x_33_ + 144 y_33_ + [ 1 x_33_ ^ 2 + 1 y_33_ ^ 2 ] <= 14927
c133_1: 54 x_34_ + 144 y_34_ + [ 1 x_34_ ^ 2 + 1 y_34_ ^ 2 ] <= 152509
c134_1: 54 x_35_ + 144 y_35_ + [ 1 x_35_ ^ 2 + 1 y_35_ ^ 2 ] <= 27276
c135_1: 54 x_36_ + 144 y_36_ + [ 1 x_36_ ^ 2 + 1 y_36_ ^ 2 ] <= 49320
c136_1: 54 x_37_ + 144 y_37_ + [ 1 x_37_ ^ 2 + 1 y_37_ ^ 2 ] <= 59011
c137_1: 54 x_38_ + 144 y_38_ + [ 1 x_38_ ^ 2 + 1 y_38_ ^ 2 ] <= 102090
c138_1: 54 x_39_ + 144 y_39_ + [ 1 x_39_ ^ 2 + 1 y_39_ ^ 2 ] <= 65798
c139_1: 54 x_40_ + 144 y_40_ + [ 1 x_40_ ^ 2 + 1 y_40_ ^ 2 ] <= 985
c140_1: 54 x_41_ + 144 y_41_ + [ 1 x_41_ ^ 2 + 1 y_41_ ^ 2 ] <= -5224
c141_1: 54 x_42_ + 144 y_42_ + [ 1 x_42_ ^ 2 + 1 y_42_ ^ 2 ] <= 44046
c142_1: 54 x_43_ + 144 y_43_ + [ 1 x_43_ ^ 2 + 1 y_43_ ^ 2 ] <= 69149
c143_1: 54 x_44_ + 144 y_44_ + [ 1 x_44_ ^ 2 + 1 y_44_ ^ 2 ] <= 18608
c144_1: 54 x_45_ + 144 y_45_ + [ 1 x_45_ ^ 2 + 1 y_45_ ^ 2 ] <= 102110
c145_1: 54 x_46_ + 144 y_46_ + [ 1 x_46_ ^ 2 + 1 y_46_ ^ 2 ] <= 152128
c146_1: 54 x_47_ + 144 y_47_ + [ 1 x_47_ ^ 2 + 1 y_47_ ^ 2 ] <= 128234
c147_1: 54 x_48_ + 144 y_48_ + [ 1 x_48_ ^ 2 + 1 y_48_ ^ 2 ] <= 219437
c148_1: 54 x_49_ + 144 y_49_ + [ 1 x_49_ ^ 2 + 1 y_49_ ^ 2 ] <= 78226
c149_1: 54 x_50_ + 144 y_50_ + [ 1 x_50_ ^ 2 + 1 y_50_ ^ 2 ] <= 12037
c150_1: 54 x_51_ + 144 y_51_ + [ 1 x_51_ ^ 2 + 1 y_51_ ^ 2 ] <= 66256
c151_1: 54 x_52_ + 144 y_52_ + [ 1 x_52_ ^ 2 + 1 y_52_ ^ 2 ] <= 109574
c152_1: 54 x_53_ + 144 y_53_ + [ 1 x_53_ ^ 2 + 1 y_53_ ^ 2 ] <= 146004
c153_1: 54 x_54_ + 144 y_54_ + [ 1 x_54_ ^ 2 + 1 y_54_ ^ 2 ] <= 20189
c154_1: 54 x_55_ + 144 y_55_ + [ 1 x_55_ ^ 2 + 1 y_55_ ^ 2 ] <= 87116
c155_1: 54 x_56_ + 144 y_56_ + [ 1 x_56_ ^ 2 + 1 y_56_ ^ 2 ] <= 95128
c156_1: 54 x_57_ + 144 y_57_ + [ 1 x_57_ ^ 2 + 1 y_57_ ^ 2 ] <= 58372
c157_1: 54 x_58_ + 144 y_58_ + [ 1 x_58_ ^ 2 + 1 y_58_ ^ 2 ] <= 47425
c158_1: 54 x_59_ + 144 y_59_ + [ 1 x_59_ ^ 2 + 1 y_59_ ^ 2 ] <= 128917
c159_1: 54 x_60_ + 144 y_60_ + [ 1 x_60_ ^ 2 + 1 y_60_ ^ 2 ] <= 77274
c160_1: 54 x_61_ + 144 y_61_ + [ 1 x_61_ ^ 2 + 1 y_61_ ^ 2 ] <= 75555
c161_1: 54 x_62_ + 144 y_62_ + [ 1 x_62_ ^ 2 + 1 y_62_ ^ 2 ] <= 89983
c162_1: 54 x_63_ + 144 y_63_ + [ 1 x_63_ ^ 2 + 1 y_63_ ^ 2 ] <= 106731
c163_1: 54 x_64_ + 144 y_64_ + [ 1 x_64_ ^ 2 + 1 y_64_ ^ 2 ] <= 102432
c164_1: 54 x_65_ + 144 y_65_ + [ 1 x_65_ ^ 2 + 1 y_65_ ^ 2 ] <= 39346
c165_1: 54 x_66_ + 144 y_66_ + [ 1 x_66_ ^ 2 + 1 y_66_ ^ 2 ] <= 121577
c166_1: 54 x_67_ + 144 y_67_ + [ 1 x_67_ ^ 2 + 1 y_67_ ^ 2 ] <= 93199
c167_1: 54 x_68_ + 144 y_68_ + [ 1 x_68_ ^ 2 + 1 y_68_ ^ 2 ] <= 202583
c168_1: 54 x_69_ + 144 y_69_ + [ 1 x_69_ ^ 2 + 1 y_69_ ^ 2 ] <= 155015
c169_1: 54 x_70_ + 144 y_70_ + [ 1 x_70_ ^ 2 + 1 y_70_ ^ 2 ] <= 138089
c170_1: 54 x_71_ + 144 y_71_ + [ 1 x_71_ ^ 2 + 1 y_71_ ^ 2 ] <= 93216
c171_1: 54 x_72_ + 144 y_72_ + [ 1 x_72_ ^ 2 + 1 y_72_ ^ 2 ] <= 169099
c172_1: 54 x_73_ + 144 y_73_ + [ 1 x_73_ ^ 2 + 1 y_73_ ^ 2 ] <= 120883
c173_1: 54 x_74_ + 144 y_74_ + [ 1 x_74_ ^ 2 + 1 y_74_ ^ 2 ] <= 139185
c174_1: 54 x_75_ + 144 y_75_ + [ 1 x_75_ ^ 2 + 1 y_75_ ^ 2 ] <= 36387
c175_1: 54 x_76_ + 144 y_76_ + [ 1 x_76_ ^ 2 + 1 y_76_ ^ 2 ] <= 187513
c176_1: 54 x_77_ + 144 y_77_ + [ 1 x_77_ ^ 2 + 1 y_77_ ^ 2 ] <= 157379
c177_1: 54 x_78_ + 144 y_78_ + [ 1 x_78_ ^ 2 + 1 y_78_ ^ 2 ] <= 120260
c178_1: 54 x_79_ + 144 y_79_ + [ 1 x_79_ ^ 2 + 1 y_79_ ^ 2 ] <= 35264
c179_1: 54 x_80_ + 144 y_80_ + [ 1 x_80_ ^ 2 + 1 y_80_ ^ 2 ] <= 82034
c180_1: 54 x_81_ + 144 y_81_ + [ 1 x_81_ ^ 2 + 1 y_81_ ^ 2 ] <= 95947
c181_1: 54 x_82_ + 144 y_82_ + [ 1 x_82_ ^ 2 + 1 y_82_ ^ 2 ] <= 1825
c182_1: 54 x_83_ + 144 y_83_ + [ 1 x_83_ ^ 2 + 1 y_83_ ^ 2 ] <= 153925
c183_1: 54 x_84_ + 144 y_84_ + [ 1 x_84_ ^ 2 + 1 y_84_ ^ 2 ] <= 41511
c184_1: 54 x_85_ + 144 y_85_ + [ 1 x_85_ ^ 2 + 1 y_85_ ^ 2 ] <= 157034
c185_1: 54 x_86_ + 144 y_86_ + [ 1 x_86_ ^ 2 + 1 y_86_ ^ 2 ] <= 81032
c186_1: 54 x_87_ + 144 y_87_ + [ 1 x_87_ ^ 2 + 1 y_87_ ^ 2 ] <= 14532
c187_1: 54 x_88_ + 144 y_88_ + [ 1 x_88_ ^ 2 + 1 y_88_ ^ 2 ] <= 48318
c188_1: 54 x_89_ + 144 y_89_ + [ 1 x_89_ ^ 2 + 1 y_89_ ^ 2 ] <= 212181
c189_1: 54 x_90_ + 144 y_90_ + [ 1 x_90_ ^ 2 + 1 y_90_ ^ 2 ] <= 192230
c190_1: 54 x_91_ + 144 y_91_ + [ 1 x_91_ ^ 2 + 1 y_91_ ^ 2 ] <= 117493
c191_1: 54 x_92_ + 144 y_92_ + [ 1 x_92_ ^ 2 + 1 y_92_ ^ 2 ] <= 26468
c192_1: 54 x_93_ + 144 y_93_ + [ 1 x_93_ ^ 2 + 1 y_93_ ^ 2 ] <= 82858
c193_1: 54 x_94_ + 144 y_94_ + [ 1 x_94_ ^ 2 + 1 y_94_ ^ 2 ] <= 219879
c194_1: 54 x_96_ + 144 y_96_ + [ 1 x_96_ ^ 2 + 1 y_96_ ^ 2 ] <= 130132
c195_1: 54 x_97_ + 144 y_97_ + [ 1 x_97_ ^ 2 + 1 y_97_ ^ 2 ] <= 59093
c196_1: 54 x_98_ + 144 y_98_ + [ 1 x_98_ ^ 2 + 1 y_98_ ^ 2 ] <= 160999
c197_1: 54 x_99_ + 144 y_99_ + [ 1 x_99_ ^ 2 + 1 y_99_ ^ 2 ] <= 130156
c198_1: 54 x_100_ + 144 y_100_ + [ 1 x_100_ ^ 2 + 1 y_100_ ^ 2 ] <= 120074
c199: 94 x_1_ - 120 y_1_ + [ 1 x_1_ ^ 2 + 1 y_1_ ^ 2 ] <= 102457
c200: 94 x_2_ - 120 y_2_ + [ 1 x_2_ ^ 2 + 1 y_2_ ^ 2 ] <= 62622
c201: 94 x_3_ - 120 y_3_ + [ 1 x_3_ ^ 2 + 1 y_3_ ^ 2 ] <= 91599
c202: 94 x_4_ - 120 y_4_ + [ 1 x_4_ ^ 2 + 1 y_4_ ^ 2 ] <= 65717
c203: 94 x_5_ - 120 y_5_ + [ 1 x_5_ ^ 2 + 1 y_5_ ^ 2 ] <= 67969
c204: 94 x_6_ - 120 y_6_ + [ 1 x_6_ ^ 2 + 1 y_6_ ^ 2 ] <= 77444
c205: 94 x_7_ - 120 y_7_ + [ 1 x_7_ ^ 2 + 1 y_7_ ^ 2 ] <= 64702
c206: 94 x_8_ - 120 y_8_ + [ 1 x_8_ ^ 2 + 1 y_8_ ^ 2 ] <= 55073
c207: 94 x_9_ - 120 y_9_ + [ 1 x_9_ ^ 2 + 1 y_9_ ^ 2 ] <= 64548
c208: 94 x_10_ - 120 y_10_ + [ 1 x_10_ ^ 2 + 1 y_10_ ^ 2 ] <= 36700
c209: 94 x_11_ - 120 y_11_ + [ 1 x_11_ ^ 2 + 1 y_11_ ^ 2 ] <= 20761
c210: 94 x_12_ - 120 y_12_ + [ 1 x_12_ ^ 2 + 1 y_12_ ^ 2 ] <= 75795
c211: 94 x_13_ - 120 y_13_ + [ 1 x_13_ ^ 2 + 1 y_13_ ^ 2 ] <= 5836
c212: 94 x_14_ - 120 y_14_ + [ 1 x_14_ ^ 2 + 1 y_14_ ^ 2 ] <= 46181
c213: 94 x_15_ - 120 y_15_ + [ 1 x_15_ ^ 2 + 1 y_15_ ^ 2 ] <= 56660
c214: 94 x_16_ - 120 y_16_ + [ 1 x_16_ ^ 2 + 1 y_16_ ^ 2 ] <= 55744
c215: 94 x_17_ - 120 y_17_ + [ 1 x_17_ ^ 2 + 1 y_17_ ^ 2 ] <= 18671
c216: 94 x_18_ - 120 y_18_ + [ 1 x_18_ ^ 2 + 1 y_18_ ^ 2 ] <= 20598
c217: 94 x_19_ - 120 y_19_ + [ 1 x_19_ ^ 2 + 1 y_19_ ^ 2 ] <= 100653
c218: 94 x_20_ - 120 y_20_ + [ 1 x_20_ ^ 2 + 1 y_20_ ^ 2 ] <= 73427
c219: 94 x_21_ - 120 y_21_ + [ 1 x_21_ ^ 2 + 1 y_21_ ^ 2 ] <= 160567
c220: 94 x_22_ - 120 y_22_ + [ 1 x_22_ ^ 2 + 1 y_22_ ^ 2 ] <= 171780
c221: 94 x_23_ - 120 y_23_ + [ 1 x_23_ ^ 2 + 1 y_23_ ^ 2 ] <= 143126
c222: 94 x_24_ - 120 y_24_ + [ 1 x_24_ ^ 2 + 1 y_24_ ^ 2 ] <= 44122
c223: 94 x_25_ - 120 y_25_ + [ 1 x_25_ ^ 2 + 1 y_25_ ^ 2 ] <= 114181
c224: 94 x_26_ - 120 y_26_ + [ 1 x_26_ ^ 2 + 1 y_26_ ^ 2 ] <= 106388
c225: 94 x_27_ - 120 y_27_ + [ 1 x_27_ ^ 2 + 1 y_27_ ^ 2 ] <= 23404
c226: 94 x_28_ - 120 y_28_ + [ 1 x_28_ ^ 2 + 1 y_28_ ^ 2 ] <= 153565
c227: 94 x_29_ - 120 y_29_ + [ 1 x_29_ ^ 2 + 1 y_29_ ^ 2 ] <= 14680
c228: 94 x_30_ - 120 y_30_ + [ 1 x_30_ ^ 2 + 1 y_30_ ^ 2 ] <= 82975
c229: 94 x_31_ - 120 y_31_ + [ 1 x_31_ ^ 2 + 1 y_31_ ^ 2 ] <= 40540
c230: 94 x_32_ - 120 y_32_ + [ 1 x_32_ ^ 2 + 1 y_32_ ^ 2 ] <= 70781
c231: 94 x_33_ - 120 y_33_ + [ 1 x_33_ ^ 2 + 1 y_33_ ^ 2 ] <= 40612
c232: 94 x_34_ - 120 y_34_ + [ 1 x_34_ ^ 2 + 1 y_34_ ^ 2 ] <= 138421
c233: 94 x_35_ - 120 y_35_ + [ 1 x_35_ ^ 2 + 1 y_35_ ^ 2 ] <= 62926
c234: 94 x_36_ - 120 y_36_ + [ 1 x_36_ ^ 2 + 1 y_36_ ^ 2 ] <= 57413
c235: 94 x_37_ - 120 y_37_ + [ 1 x_37_ ^ 2 + 1 y_37_ ^ 2 ] <= 42587
c236: 94 x_38_ - 120 y_38_ + [ 1 x_38_ ^ 2 + 1 y_38_ ^ 2 ] <= 53132
c237: 94 x_39_ - 120 y_39_ + [ 1 x_39_ ^ 2 + 1 y_39_ ^ 2 ] <= 76662
c238: 94 x_40_ - 120 y_40_ + [ 1 x_40_ ^ 2 + 1 y_40_ ^ 2 ] <= 64360
c239: 94 x_41_ - 120 y_41_ + [ 1 x_41_ ^ 2 + 1 y_41_ ^ 2 ] <= 107034
c240: 94 x_42_ - 120 y_42_ + [ 1 x_42_ ^ 2 + 1 y_42_ ^ 2 ] <= 34551
c241: 94 x_43_ - 120 y_43_ + [ 1 x_43_ ^ 2 + 1 y_43_ ^ 2 ] <= 56286
c242: 94 x_44_ - 120 y_44_ + [ 1 x_44_ ^ 2 + 1 y_44_ ^ 2 ] <= 93532
c243: 94 x_45_ - 120 y_45_ + [ 1 x_45_ ^ 2 + 1 y_45_ ^ 2 ] <= 48471
c244: 94 x_46_ - 120 y_46_ + [ 1 x_46_ ^ 2 + 1 y_46_ ^ 2 ] <= 110056
c245: 94 x_47_ - 120 y_47_ + [ 1 x_47_ ^ 2 + 1 y_47_ ^ 2 ] <= 130782
c246: 94 x_48_ - 120 y_48_ + [ 1 x_48_ ^ 2 + 1 y_48_ ^ 2 ] <= 191623
c247: 94 x_49_ - 120 y_49_ + [ 1 x_49_ ^ 2 + 1 y_49_ ^ 2 ] <= 22062
c248: 94 x_50_ - 120 y_50_ + [ 1 x_50_ ^ 2 + 1 y_50_ ^ 2 ] <= 39975
c249: 94 x_51_ - 120 y_51_ + [ 1 x_51_ ^ 2 + 1 y_51_ ^ 2 ] <= 57595
c250: 94 x_52_ - 120 y_52_ + [ 1 x_52_ ^ 2 + 1 y_52_ ^ 2 ] <= 27801
c251: 94 x_53_ - 120 y_53_ + [ 1 x_53_ ^ 2 + 1 y_53_ ^ 2 ] <= 10498
c252: 94 x_54_ - 120 y_54_ + [ 1 x_54_ ^ 2 + 1 y_54_ ^ 2 ] <= 52542
c253: 94 x_55_ - 120 y_55_ + [ 1 x_55_ ^ 2 + 1 y_55_ ^ 2 ] <= -3965
c254: 94 x_56_ - 120 y_56_ + [ 1 x_56_ ^ 2 + 1 y_56_ ^ 2 ] <= 5542
c255: 94 x_57_ - 120 y_57_ + [ 1 x_57_ ^ 2 + 1 y_57_ ^ 2 ] <= 105442
c256: 94 x_58_ - 120 y_58_ + [ 1 x_58_ ^ 2 + 1 y_58_ ^ 2 ] <= 60480
c257: 94 x_59_ - 120 y_59_ + [ 1 x_59_ ^ 2 + 1 y_59_ ^ 2 ] <= 99923
c258: 94 x_60_ - 120 y_60_ + [ 1 x_60_ ^ 2 + 1 y_60_ ^ 2 ] <= 157356
c259: 94 x_61_ - 120 y_61_ + [ 1 x_61_ ^ 2 + 1 y_61_ ^ 2 ] <= 123692
c260: 94 x_63_ - 120 y_63_ + [ 1 x_63_ ^ 2 + 1 y_63_ ^ 2 ] <= 118068
c261: 94 x_64_ - 120 y_64_ + [ 1 x_64_ ^ 2 + 1 y_64_ ^ 2 ] <= 125509
c262: 94 x_65_ - 120 y_65_ + [ 1 x_65_ ^ 2 + 1 y_65_ ^ 2 ] <= 12472
c263: 94 x_66_ - 120 y_66_ + [ 1 x_66_ ^ 2 + 1 y_66_ ^ 2 ] <= 119897
c264: 94 x_67_ - 120 y_67_ + [ 1 x_67_ ^ 2 + 1 y_67_ ^ 2 ] <= 104137
c265: 94 x_68_ - 120 y_68_ + [ 1 x_68_ ^ 2 + 1 y_68_ ^ 2 ] <= 120977
c266: 94 x_69_ - 120 y_69_ + [ 1 x_69_ ^ 2 + 1 y_69_ ^ 2 ] <= 78494
c267: 94 x_70_ - 120 y_70_ + [ 1 x_70_ ^ 2 + 1 y_70_ ^ 2 ] <= 13953
c268: 94 x_71_ - 120 y_71_ + [ 1 x_71_ ^ 2 + 1 y_71_ ^ 2 ] <= 143143
c269: 94 x_72_ - 120 y_72_ + [ 1 x_72_ ^ 2 + 1 y_72_ ^ 2 ] <= 134584
c270: 94 x_73_ - 120 y_73_ + [ 1 x_73_ ^ 2 + 1 y_73_ ^ 2 ] <= 145749
c271: 94 x_74_ - 120 y_74_ + [ 1 x_74_ ^ 2 + 1 y_74_ ^ 2 ] <= 94050
c272: 94 x_75_ - 120 y_75_ + [ 1 x_75_ ^ 2 + 1 y_75_ ^ 2 ] <= 14434
c273: 94 x_76_ - 120 y_76_ + [ 1 x_76_ ^ 2 + 1 y_76_ ^ 2 ] <= 112606
c274: 94 x_77_ - 120 y_77_ + [ 1 x_77_ ^ 2 + 1 y_77_ ^ 2 ] <= 97123
c275: 94 x_78_ - 120 y_78_ + [ 1 x_78_ ^ 2 + 1 y_78_ ^ 2 ] <= 34580
c276: 94 x_79_ - 120 y_79_ + [ 1 x_79_ ^ 2 + 1 y_79_ ^ 2 ] <= 129980
c277: 94 x_80_ - 120 y_80_ + [ 1 x_80_ ^ 2 + 1 y_80_ ^ 2 ] <= 95830
c278: 94 x_81_ - 120 y_81_ + [ 1 x_81_ ^ 2 + 1 y_81_ ^ 2 ] <= 77752
c279: 94 x_82_ - 120 y_82_ + [ 1 x_82_ ^ 2 + 1 y_82_ ^ 2 ] <= 152307
c280: 94 x_83_ - 120 y_83_ + [ 1 x_83_ ^ 2 + 1 y_83_ ^ 2 ] <= 38257
c281: 94 x_84_ - 120 y_84_ + [ 1 x_84_ ^ 2 + 1 y_84_ ^ 2 ] <= 155461
c282: 94 x_85_ - 120 y_85_ + [ 1 x_85_ ^ 2 + 1 y_85_ ^ 2 ] <= 98721
c283: 94 x_86_ - 120 y_86_ + [ 1 x_86_ ^ 2 + 1 y_86_ ^ 2 ] <= 19774
c284: 94 x_87_ - 120 y_87_ + [ 1 x_87_ ^ 2 + 1 y_87_ ^ 2 ] <= 45754
c285: 94 x_88_ - 120 y_88_ + [ 1 x_88_ ^ 2 + 1 y_88_ ^ 2 ] <= 13011
c286: 94 x_89_ - 120 y_89_ + [ 1 x_89_ ^ 2 + 1 y_89_ ^ 2 ] <= 114654
c287: 94 x_90_ - 120 y_90_ + [ 1 x_90_ ^ 2 + 1 y_90_ ^ 2 ] <= 116302
c288: 94 x_91_ - 120 y_91_ + [ 1 x_91_ ^ 2 + 1 y_91_ ^ 2 ] <= 88832
c289: 94 x_92_ - 120 y_92_ + [ 1 x_92_ ^ 2 + 1 y_92_ ^ 2 ] <= 56973
c290: 94 x_93_ - 120 y_93_ + [ 1 x_93_ ^ 2 + 1 y_93_ ^ 2 ] <= 10185
c291: 94 x_94_ - 120 y_94_ + [ 1 x_94_ ^ 2 + 1 y_94_ ^ 2 ] <= 140200
c292: 94 x_95_ - 120 y_95_ + [ 1 x_95_ ^ 2 + 1 y_95_ ^ 2 ] <= 90087
c293: 94 x_96_ - 120 y_96_ + [ 1 x_96_ ^ 2 + 1 y_96_ ^ 2 ] <= 125497
c294: 94 x_97_ - 120 y_97_ + [ 1 x_97_ ^ 2 + 1 y_97_ ^ 2 ] <= -2816
c295: 94 x_98_ - 120 y_98_ + [ 1 x_98_ ^ 2 + 1 y_98_ ^ 2 ] <= 154977
c296: 94 x_99_ - 120 y_99_ + [ 1 x_99_ ^ 2 + 1 y_99_ ^ 2 ] <= 114087
c297: 94 x_100_ - 120 y_100_ + [ 1 x_100_ ^ 2 + 1 y_100_ ^ 2 ] <= 37664
c1_2: 1 x_50_ = 42
c2_2: 1 y_50_ = 30
c3_2: 1 x_95_ = -27
c4_2: 1 y_95_ = -72
c5_2: 1 x_62_ = -47
c6_2: 1 y_62_ = 60
c1: [ 1 x_1_ ^ 2 - 2 x_3_ * x_1_ + 1 x_3_ ^ 2 + 1 y_1_ ^ 2 - 2 y_3_ * y_1_ + 1 y_3_ ^ 2 ] = 14801
c2: [ 1 x_2_ ^ 2 - 2 x_3_ * x_2_ + 1 x_3_ ^ 2 + 1 y_2_ ^ 2 - 2 y_3_ * y_2_ + 1 y_3_ ^ 2 ] = 14481
c3: [ 1 x_5_ ^ 2 - 2 x_7_ * x_5_ + 1 x_7_ ^ 2 + 1 y_5_ ^ 2 - 2 y_7_ * y_5_ + 1 y_7_ ^ 2 ] = 37
c4: [ 1 x_1_ ^ 2 - 2 x_9_ * x_1_ + 1 x_9_ ^ 2 + 1 y_1_ ^ 2 - 2 y_9_ * y_1_ + 1 y_9_ ^ 2 ] = 4069
c5: [ 1 x_2_ ^ 2 - 2 x_9_ * x_2_ + 1 x_9_ ^ 2 + 1 y_2_ ^ 2 - 2 y_9_ * y_2_ + 1 y_9_ ^ 2 ] = 17569
c6: [ 1 x_4_ ^ 2 - 2 x_9_ * x_4_ + 1 x_9_ ^ 2 + 1 y_4_ ^ 2 - 2 y_9_ * y_4_ + 1 y_9_ ^ 2 ] = 15602
c7: [ 1 x_2_ ^ 2 - 2 x_10_ * x_2_ + 1 x_10_ ^ 2 + 1 y_2_ ^ 2 - 2 y_10_ * y_2_ + 1 y_10_ ^ 2 ] = 6938
c8: [ 1 x_8_ ^ 2 - 2 x_11_ * x_8_ + 1 x_11_ ^ 2 + 1 y_8_ ^ 2 - 2 y_11_ * y_8_ + 1 y_11_ ^ 2 ] = 7012
c9: [ 1 x_2_ ^ 2 - 2 x_12_ * x_2_ + 1 x_12_ ^ 2 + 1 y_2_ ^ 2 - 2 y_12_ * y_2_ + 1 y_12_ ^ 2 ] = 17786
c10: [ 1 x_3_ ^ 2 - 2 x_14_ * x_3_ + 1 x_14_ ^ 2 + 1 y_3_ ^ 2 - 2 y_14_ * y_3_ + 1 y_14_ ^ 2 ] = 11425
c11: [ 1 x_7_ ^ 2 - 2 x_14_ * x_7_ + 1 x_14_ ^ 2 + 1 y_7_ ^ 2 - 2 y_14_ * y_7_ + 1 y_14_ ^ 2 ] = 1858
c12: [ 1 x_8_ ^ 2 - 2 x_15_ * x_8_ + 1 x_15_ ^ 2 + 1 y_8_ ^ 2 - 2 y_15_ * y_8_ + 1 y_15_ ^ 2 ] = 12442
c13: [ 1 x_11_ ^ 2 - 2 x_16_ * x_11_ + 1 x_16_ ^ 2 + 1 y_11_ ^ 2 - 2 y_16_ * y_11_ + 1 y_16_ ^ 2 ] = 7241
c14: [ 1 x_11_ ^ 2 - 2 x_17_ * x_11_ + 1 x_17_ ^ 2 + 1 y_11_ ^ 2 - 2 y_17_ * y_11_ + 1 y_17_ ^ 2 ] = 12125
c15: [ 1 x_13_ ^ 2 - 2 x_17_ * x_13_ + 1 x_17_ ^ 2 + 1 y_13_ ^ 2 - 2 y_17_ * y_13_ + 1 y_17_ ^ 2 ] = 2357
c16: [ 1 x_11_ ^ 2 - 2 x_18_ * x_11_ + 1 x_18_ ^ 2 + 1 y_11_ ^ 2 - 2 y_18_ * y_11_ + 1 y_18_ ^ 2 ] = 47813
c17: [ 1 x_8_ ^ 2 - 2 x_19_ * x_8_ + 1 x_19_ ^ 2 + 1 y_8_ ^ 2 - 2 y_19_ * y_8_ + 1 y_19_ ^ 2 ] = 9841
c18: [ 1 x_1_ ^ 2 - 2 x_21_ * x_1_ + 1 x_21_ ^ 2 + 1 y_1_ ^ 2 - 2 y_21_ * y_1_ + 1 y_21_ ^ 2 ] = 6218
c19: [ 1 x_3_ ^ 2 - 2 x_22_ * x_3_ + 1 x_22_ ^ 2 + 1 y_3_ ^ 2 - 2 y_22_ * y_3_ + 1 y_22_ ^ 2 ] = 20610
c20: [ 1 x_21_ ^ 2 - 2 x_22_ * x_21_ + 1 x_22_ ^ 2 + 1 y_21_ ^ 2 - 2 y_22_ * y_21_ + 1 y_22_ ^ 2 ] = 4753
c21: [ 1 x_4_ ^ 2 - 2 x_24_ * x_4_ + 1 x_24_ ^ 2 + 1 y_4_ ^ 2 - 2 y_24_ * y_4_ + 1 y_24_ ^ 2 ] = 35425
c22: [ 1 x_15_ ^ 2 - 2 x_24_ * x_15_ + 1 x_24_ ^ 2 + 1 y_15_ ^ 2 - 2 y_24_ * y_15_ + 1 y_24_ ^ 2 ] = 3236
c23: [ 1 x_4_ ^ 2 - 2 x_26_ * x_4_ + 1 x_26_ ^ 2 + 1 y_4_ ^ 2 - 2 y_26_ * y_4_ + 1 y_26_ ^ 2 ] = 25841
c24: [ 1 x_1_ ^ 2 - 2 x_28_ * x_1_ + 1 x_28_ ^ 2 + 1 y_1_ ^ 2 - 2 y_28_ * y_1_ + 1 y_28_ ^ 2 ] = 4925
c25: [ 1 x_22_ ^ 2 - 2 x_28_ * x_22_ + 1 x_28_ ^ 2 + 1 y_22_ ^ 2 - 2 y_28_ * y_22_ + 1 y_28_ ^ 2 ] = 3042
c26: [ 1 x_25_ ^ 2 - 2 x_28_ * x_25_ + 1 x_28_ ^ 2 + 1 y_25_ ^ 2 - 2 y_28_ * y_25_ + 1 y_28_ ^ 2 ] = 7624
c27: [ 1 x_13_ ^ 2 - 2 x_29_ * x_13_ + 1 x_29_ ^ 2 + 1 y_13_ ^ 2 - 2 y_29_ * y_13_ + 1 y_29_ ^ 2 ] = 1241
c28: [ 1 x_27_ ^ 2 - 2 x_29_ * x_27_ + 1 x_29_ ^ 2 + 1 y_27_ ^ 2 - 2 y_29_ * y_27_ + 1 y_29_ ^ 2 ] = 13562
c29: [ 1 x_8_ ^ 2 - 2 x_30_ * x_8_ + 1 x_30_ ^ 2 + 1 y_8_ ^ 2 - 2 y_30_ * y_8_ + 1 y_30_ ^ 2 ] = 2624
c30: [ 1 x_26_ ^ 2 - 2 x_30_ * x_26_ + 1 x_30_ ^ 2 + 1 y_26_ ^ 2 - 2 y_30_ * y_26_ + 1 y_30_ ^ 2 ] = 4562
c31: [ 1 x_6_ ^ 2 - 2 x_31_ * x_6_ + 1 x_31_ ^ 2 + 1 y_6_ ^ 2 - 2 y_31_ * y_6_ + 1 y_31_ ^ 2 ] = 5365
c32: [ 1 x_18_ ^ 2 - 2 x_33_ * x_18_ + 1 x_33_ ^ 2 + 1 y_18_ ^ 2 - 2 y_33_ * y_18_ + 1 y_33_ ^ 2 ] = 2804
c33: [ 1 x_32_ ^ 2 - 2 x_33_ * x_32_ + 1 x_33_ ^ 2 + 1 y_32_ ^ 2 - 2 y_33_ * y_32_ + 1 y_33_ ^ 2 ] = 3757
c34: [ 1 x_6_ ^ 2 - 2 x_34_ * x_6_ + 1 x_34_ ^ 2 + 1 y_6_ ^ 2 - 2 y_34_ * y_6_ + 1 y_34_ ^ 2 ] = 8325
c35: [ 1 x_21_ ^ 2 - 2 x_34_ * x_21_ + 1 x_34_ ^ 2 + 1 y_21_ ^ 2 - 2 y_34_ * y_21_ + 1 y_34_ ^ 2 ] = 9649
c36: [ 1 x_16_ ^ 2 - 2 x_35_ * x_16_ + 1 x_35_ ^ 2 + 1 y_16_ ^ 2 - 2 y_35_ * y_16_ + 1 y_35_ ^ 2 ] = 19721
c37: [ 1 x_29_ ^ 2 - 2 x_36_ * x_29_ + 1 x_36_ ^ 2 + 1 y_29_ ^ 2 - 2 y_36_ * y_29_ + 1 y_36_ ^ 2 ] = 11729
c38: [ 1 x_35_ ^ 2 - 2 x_36_ * x_35_ + 1 x_36_ ^ 2 + 1 y_35_ ^ 2 - 2 y_36_ * y_35_ + 1 y_36_ ^ 2 ] = 2792
c39: [ 1 x_6_ ^ 2 - 2 x_37_ * x_6_ + 1 x_37_ ^ 2 + 1 y_6_ ^ 2 - 2 y_37_ * y_6_ + 1 y_37_ ^ 2 ] = 27472
c40: [ 1 x_18_ ^ 2 - 2 x_37_ * x_18_ + 1 x_37_ ^ 2 + 1 y_18_ ^ 2 - 2 y_37_ * y_18_ + 1 y_37_ ^ 2 ] = 3305
c41: [ 1 x_23_ ^ 2 - 2 x_37_ * x_23_ + 1 x_37_ ^ 2 + 1 y_23_ ^ 2 - 2 y_37_ * y_23_ + 1 y_37_ ^ 2 ] = 32840
c42: [ 1 x_9_ ^ 2 - 2 x_38_ * x_9_ + 1 x_38_ ^ 2 + 1 y_9_ ^ 2 - 2 y_38_ * y_9_ + 1 y_38_ ^ 2 ] = 505
c43: [ 1 x_14_ ^ 2 - 2 x_38_ * x_14_ + 1 x_38_ ^ 2 + 1 y_14_ ^ 2 - 2 y_38_ * y_14_ + 1 y_38_ ^ 2 ] = 218
c44: [ 1 x_10_ ^ 2 - 2 x_39_ * x_10_ + 1 x_39_ ^ 2 + 1 y_10_ ^ 2 - 2 y_39_ * y_10_ + 1 y_39_ ^ 2 ] = 6561
c45: [ 1 x_8_ ^ 2 - 2 x_40_ * x_8_ + 1 x_40_ ^ 2 + 1 y_8_ ^ 2 - 2 y_40_ * y_8_ + 1 y_40_ ^ 2 ] = 405
c46: [ 1 x_26_ ^ 2 - 2 x_40_ * x_26_ + 1 x_40_ ^ 2 + 1 y_26_ ^ 2 - 2 y_40_ * y_26_ + 1 y_40_ ^ 2 ] = 4909
c47: [ 1 x_25_ ^ 2 - 2 x_41_ * x_25_ + 1 x_41_ ^ 2 + 1 y_25_ ^ 2 - 2 y_41_ * y_25_ + 1 y_41_ ^ 2 ] = 21845
c48: [ 1 x_12_ ^ 2 - 2 x_42_ * x_12_ + 1 x_42_ ^ 2 + 1 y_12_ ^ 2 - 2 y_42_ * y_12_ + 1 y_42_ ^ 2 ] = 26469
c49: [ 1 x_15_ ^ 2 - 2 x_42_ * x_15_ + 1 x_42_ ^ 2 + 1 y_15_ ^ 2 - 2 y_42_ * y_15_ + 1 y_42_ ^ 2 ] = 2405
c50: [ 1 x_10_ ^ 2 - 2 x_43_ * x_10_ + 1 x_43_ ^ 2 + 1 y_10_ ^ 2 - 2 y_43_ * y_10_ + 1 y_43_ ^ 2 ] = 1850
c51: [ 1 x_25_ ^ 2 - 2 x_43_ * x_25_ + 1 x_43_ ^ 2 + 1 y_25_ ^ 2 - 2 y_43_ * y_25_ + 1 y_43_ ^ 2 ] = 9985
c52: [ 1 x_31_ ^ 2 - 2 x_43_ * x_31_ + 1 x_43_ ^ 2 + 1 y_31_ ^ 2 - 2 y_43_ * y_31_ + 1 y_43_ ^ 2 ] = 17177
c53: [ 1 x_30_ ^ 2 - 2 x_44_ * x_30_ + 1 x_44_ ^ 2 + 1 y_30_ ^ 2 - 2 y_44_ * y_30_ + 1 y_44_ ^ 2 ] = 20992
c54: [ 1 x_35_ ^ 2 - 2 x_44_ * x_35_ + 1 x_44_ ^ 2 + 1 y_35_ ^ 2 - 2 y_44_ * y_35_ + 1 y_44_ ^ 2 ] = 2810
c55: [ 1 x_39_ ^ 2 - 2 x_44_ * x_39_ + 1 x_44_ ^ 2 + 1 y_39_ ^ 2 - 2 y_44_ * y_39_ + 1 y_44_ ^ 2 ] = 12365
c56: [ 1 x_7_ ^ 2 - 2 x_45_ * x_7_ + 1 x_45_ ^ 2 + 1 y_7_ ^ 2 - 2 y_45_ * y_7_ + 1 y_45_ ^ 2 ] = 1060
c57: [ 1 x_20_ ^ 2 - 2 x_45_ * x_20_ + 1 x_45_ ^ 2 + 1 y_20_ ^ 2 - 2 y_45_ * y_20_ + 1 y_45_ ^ 2 ] = 2353
c58: [ 1 x_31_ ^ 2 - 2 x_45_ * x_31_ + 1 x_45_ ^ 2 + 1 y_31_ ^ 2 - 2 y_45_ * y_31_ + 1 y_45_ ^ 2 ] = 313
c59: [ 1 x_3_ ^ 2 - 2 x_46_ * x_3_ + 1 x_46_ ^ 2 + 1 y_3_ ^ 2 - 2 y_46_ * y_3_ + 1 y_46_ ^ 2 ] = 17485
c60: [ 1 x_5_ ^ 2 - 2 x_46_ * x_5_ + 1 x_46_ ^ 2 + 1 y_5_ ^ 2 - 2 y_46_ * y_5_ + 1 y_46_ ^ 2 ] = 4729
c61: [ 1 x_22_ ^ 2 - 2 x_46_ * x_22_ + 1 x_46_ ^ 2 + 1 y_22_ ^ 2 - 2 y_46_ * y_22_ + 1 y_46_ ^ 2 ] = 6565
c62: [ 1 x_10_ ^ 2 - 2 x_47_ * x_10_ + 1 x_47_ ^ 2 + 1 y_10_ ^ 2 - 2 y_47_ * y_10_ + 1 y_47_ ^ 2 ] = 26701
c63: [ 1 x_24_ ^ 2 - 2 x_47_ * x_24_ + 1 x_47_ ^ 2 + 1 y_24_ ^ 2 - 2 y_47_ * y_24_ + 1 y_47_ ^ 2 ] = 26737
c64: [ 1 x_3_ ^ 2 - 2 x_48_ * x_3_ + 1 x_48_ ^ 2 + 1 y_3_ ^ 2 - 2 y_48_ * y_3_ + 1 y_48_ ^ 2 ] = 17485
c65: [ 1 x_34_ ^ 2 - 2 x_48_ * x_34_ + 1 x_48_ ^ 2 + 1 y_34_ ^ 2 - 2 y_48_ * y_34_ + 1 y_48_ ^ 2 ] = 5881
c66: [ 1 x_13_ ^ 2 - 2 x_49_ * x_13_ + 1 x_49_ ^ 2 + 1 y_13_ ^ 2 - 2 y_49_ * y_13_ + 1 y_49_ ^ 2 ] = 3485
c67: [ 1 x_17_ ^ 2 - 2 x_49_ * x_17_ + 1 x_49_ ^ 2 + 1 y_17_ ^ 2 - 2 y_49_ * y_17_ + 1 y_49_ ^ 2 ] = 1108
c68: [ 1 x_40_ ^ 2 - 2 x_50_ * x_40_ + 1 x_50_ ^ 2 + 1 y_40_ ^ 2 - 2 y_50_ * y_40_ + 1 y_50_ ^ 2 ] = 2593
c69: [ 1 x_17_ ^ 2 - 2 x_51_ * x_17_ + 1 x_51_ ^ 2 + 1 y_17_ ^ 2 - 2 y_51_ * y_17_ + 1 y_51_ ^ 2 ] = 9090
c70: [ 1 x_23_ ^ 2 - 2 x_51_ * x_23_ + 1 x_51_ ^ 2 + 1 y_23_ ^ 2 - 2 y_51_ * y_23_ + 1 y_51_ ^ 2 ] = 30465
c71: [ 1 x_25_ ^ 2 - 2 x_51_ * x_25_ + 1 x_51_ ^ 2 + 1 y_25_ ^ 2 - 2 y_51_ * y_25_ + 1 y_51_ ^ 2 ] = 8948
c72: [ 1 x_10_ ^ 2 - 2 x_52_ * x_10_ + 1 x_52_ ^ 2 + 1 y_10_ ^ 2 - 2 y_52_ * y_10_ + 1 y_52_ ^ 2 ] = 522
c73: [ 1 x_3_ ^ 2 - 2 x_53_ * x_3_ + 1 x_53_ ^ 2 + 1 y_3_ ^ 2 - 2 y_53_ * y_3_ + 1 y_53_ ^ 2 ] = 34004
c74: [ 1 x_35_ ^ 2 - 2 x_54_ * x_35_ + 1 x_54_ ^ 2 + 1 y_35_ ^ 2 - 2 y_54_ * y_35_ + 1 y_54_ ^ 2 ] = 425
c75: [ 1 x_50_ ^ 2 - 2 x_54_ * x_50_ + 1 x_54_ ^ 2 + 1 y_50_ ^ 2 - 2 y_54_ * y_50_ + 1 y_54_ ^ 2 ] = 761
c76: [ 1 x_52_ ^ 2 - 2 x_55_ * x_52_ + 1 x_55_ ^ 2 + 1 y_52_ ^ 2 - 2 y_55_ * y_52_ + 1 y_55_ ^ 2 ] = 19709
c77: [ 1 x_53_ ^ 2 - 2 x_55_ * x_53_ + 1 x_55_ ^ 2 + 1 y_53_ ^ 2 - 2 y_55_ * y_53_ + 1 y_55_ ^ 2 ] = 7184
c78: [ 1 x_4_ ^ 2 - 2 x_56_ * x_4_ + 1 x_56_ ^ 2 + 1 y_4_ ^ 2 - 2 y_56_ * y_4_ + 1 y_56_ ^ 2 ] = 25889
c79: [ 1 x_27_ ^ 2 - 2 x_56_ * x_27_ + 1 x_56_ ^ 2 + 1 y_27_ ^ 2 - 2 y_56_ * y_27_ + 1 y_56_ ^ 2 ] = 18049
c80: [ 1 x_55_ ^ 2 - 2 x_56_ * x_55_ + 1 x_56_ ^ 2 + 1 y_55_ ^ 2 - 2 y_56_ * y_55_ + 1 y_56_ ^ 2 ] = 4045
c81: [ 1 x_3_ ^ 2 - 2 x_57_ * x_3_ + 1 x_57_ ^ 2 + 1 y_3_ ^ 2 - 2 y_57_ * y_3_ + 1 y_57_ ^ 2 ] = 11245
c82: [ 1 x_6_ ^ 2 - 2 x_57_ * x_6_ + 1 x_57_ ^ 2 + 1 y_6_ ^ 2 - 2 y_57_ * y_6_ + 1 y_57_ ^ 2 ] = 2834
c83: [ 1 x_54_ ^ 2 - 2 x_57_ * x_54_ + 1 x_57_ ^ 2 + 1 y_54_ ^ 2 - 2 y_57_ * y_54_ + 1 y_57_ ^ 2 ] = 8461
c84: [ 1 x_19_ ^ 2 - 2 x_58_ * x_19_ + 1 x_58_ ^ 2 + 1 y_19_ ^ 2 - 2 y_58_ * y_19_ + 1 y_58_ ^ 2 ] = 4736
c85: [ 1 x_49_ ^ 2 - 2 x_58_ * x_49_ + 1 x_58_ ^ 2 + 1 y_49_ ^ 2 - 2 y_58_ * y_49_ + 1 y_58_ ^ 2 ] = 8194
c86: [ 1 x_6_ ^ 2 - 2 x_59_ * x_6_ + 1 x_59_ ^ 2 + 1 y_6_ ^ 2 - 2 y_59_ * y_6_ + 1 y_59_ ^ 2 ] = 32741
c87: [ 1 x_23_ ^ 2 - 2 x_59_ * x_23_ + 1 x_59_ ^ 2 + 1 y_23_ ^ 2 - 2 y_59_ * y_23_ + 1 y_59_ ^ 2 ] = 31001
c88: [ 1 x_52_ ^ 2 - 2 x_59_ * x_52_ + 1 x_59_ ^ 2 + 1 y_52_ ^ 2 - 2 y_59_ * y_52_ + 1 y_59_ ^ 2 ] = 20117
c89: [ 1 x_19_ ^ 2 - 2 x_60_ * x_19_ + 1 x_60_ ^ 2 + 1 y_19_ ^ 2 - 2 y_60_ * y_19_ + 1 y_60_ ^ 2 ] = 15949
c90: [ 1 x_39_ ^ 2 - 2 x_60_ * x_39_ + 1 x_60_ ^ 2 + 1 y_39_ ^ 2 - 2 y_60_ * y_39_ + 1 y_60_ ^ 2 ] = 25397
c91: [ 1 x_59_ ^ 2 - 2 x_60_ * x_59_ + 1 x_60_ ^ 2 + 1 y_59_ ^ 2 - 2 y_60_ * y_59_ + 1 y_60_ ^ 2 ] = 6205
c92: [ 1 x_21_ ^ 2 - 2 x_61_ * x_21_ + 1 x_61_ ^ 2 + 1 y_21_ ^ 2 - 2 y_61_ * y_21_ + 1 y_61_ ^ 2 ] = 3077
c93: [ 1 x_38_ ^ 2 - 2 x_61_ * x_38_ + 1 x_61_ ^ 2 + 1 y_38_ ^ 2 - 2 y_61_ * y_38_ + 1 y_61_ ^ 2 ] = 13709
c94: [ 1 x_50_ ^ 2 - 2 x_61_ * x_50_ + 1 x_61_ ^ 2 + 1 y_50_ ^ 2 - 2 y_61_ * y_50_ + 1 y_61_ ^ 2 ] = 22937
c95: [ 1 x_13_ ^ 2 - 2 x_62_ * x_13_ + 1 x_62_ ^ 2 + 1 y_13_ ^ 2 - 2 y_62_ * y_13_ + 1 y_62_ ^ 2 ] = 11645
c96: [ 1 x_55_ ^ 2 - 2 x_62_ * x_55_ + 1 x_62_ ^ 2 + 1 y_55_ ^ 2 - 2 y_62_ * y_55_ + 1 y_62_ ^ 2 ] = 1844
c97: [ 1 x_7_ ^ 2 - 2 x_63_ * x_7_ + 1 x_63_ ^ 2 + 1 y_7_ ^ 2 - 2 y_63_ * y_7_ + 1 y_63_ ^ 2 ] = 23657
c98: [ 1 x_11_ ^ 2 - 2 x_63_ * x_11_ + 1 x_63_ ^ 2 + 1 y_11_ ^ 2 - 2 y_63_ * y_11_ + 1 y_63_ ^ 2 ] = 35705
c99: [ 1 x_48_ ^ 2 - 2 x_63_ * x_48_ + 1 x_63_ ^ 2 + 1 y_48_ ^ 2 - 2 y_63_ * y_48_ + 1 y_63_ ^ 2 ] = 42505
c100: [ 1 x_16_ ^ 2 - 2 x_64_ * x_16_ + 1 x_64_ ^ 2 + 1 y_16_ ^ 2 - 2 y_64_ * y_16_ + 1 y_64_ ^ 2 ] = 13060
c101: [ 1 x_19_ ^ 2 - 2 x_64_ * x_19_ + 1 x_64_ ^ 2 + 1 y_19_ ^ 2 - 2 y_64_ * y_19_ + 1 y_64_ ^ 2 ] = 27898
c102: [ 1 x_28_ ^ 2 - 2 x_64_ * x_28_ + 1 x_64_ ^ 2 + 1 y_28_ ^ 2 - 2 y_64_ * y_28_ + 1 y_64_ ^ 2 ] = 6066
c103: [ 1 x_18_ ^ 2 - 2 x_65_ * x_18_ + 1 x_65_ ^ 2 + 1 y_18_ ^ 2 - 2 y_65_ * y_18_ + 1 y_65_ ^ 2 ] = 745
c104: [ 1 x_55_ ^ 2 - 2 x_65_ * x_55_ + 1 x_65_ ^ 2 + 1 y_55_ ^ 2 - 2 y_65_ * y_55_ + 1 y_65_ ^ 2 ] = 8513
c105: [ 1 x_6_ ^ 2 - 2 x_66_ * x_6_ + 1 x_66_ ^ 2 + 1 y_6_ ^ 2 - 2 y_66_ * y_6_ + 1 y_66_ ^ 2 ] = 28277
c106: [ 1 x_16_ ^ 2 - 2 x_66_ * x_16_ + 1 x_66_ ^ 2 + 1 y_16_ ^ 2 - 2 y_66_ * y_16_ + 1 y_66_ ^ 2 ] = 17216
c107: [ 1 x_20_ ^ 2 - 2 x_66_ * x_20_ + 1 x_66_ ^ 2 + 1 y_20_ ^ 2 - 2 y_66_ * y_20_ + 1 y_66_ ^ 2 ] = 5338
c108: [ 1 x_6_ ^ 2 - 2 x_67_ * x_6_ + 1 x_67_ ^ 2 + 1 y_6_ ^ 2 - 2 y_67_ * y_6_ + 1 y_67_ ^ 2 ] = 1853
c109: [ 1 x_22_ ^ 2 - 2 x_67_ * x_22_ + 1 x_67_ ^ 2 + 1 y_22_ ^ 2 - 2 y_67_ * y_22_ + 1 y_67_ ^ 2 ] = 21866
c110: [ 1 x_32_ ^ 2 - 2 x_67_ * x_32_ + 1 x_67_ ^ 2 + 1 y_32_ ^ 2 - 2 y_67_ * y_32_ + 1 y_67_ ^ 2 ] = 11917
c111: [ 1 x_12_ ^ 2 - 2 x_68_ * x_12_ + 1 x_68_ ^ 2 + 1 y_12_ ^ 2 - 2 y_68_ * y_12_ + 1 y_68_ ^ 2 ] = 4957
c112: [ 1 x_10_ ^ 2 - 2 x_69_ * x_10_ + 1 x_69_ ^ 2 + 1 y_10_ ^ 2 - 2 y_69_ * y_10_ + 1 y_69_ ^ 2 ] = 7085
c113: [ 1 x_46_ ^ 2 - 2 x_69_ * x_46_ + 1 x_69_ ^ 2 + 1 y_46_ ^ 2 - 2 y_69_ * y_46_ + 1 y_69_ ^ 2 ] = 6401
c114: [ 1 x_48_ ^ 2 - 2 x_69_ * x_48_ + 1 x_69_ ^ 2 + 1 y_48_ ^ 2 - 2 y_69_ * y_48_ + 1 y_69_ ^ 2 ] = 31765
c115: [ 1 x_2_ ^ 2 - 2 x_70_ * x_2_ + 1 x_70_ ^ 2 + 1 y_2_ ^ 2 - 2 y_70_ * y_2_ + 1 y_70_ ^ 2 ] = 14645
c116: [ 1 x_62_ ^ 2 - 2 x_70_ * x_62_ + 1 x_70_ ^ 2 + 1 y_62_ ^ 2 - 2 y_70_ * y_62_ + 1 y_70_ ^ 2 ] = 19762
c117: [ 1 x_33_ ^ 2 - 2 x_71_ * x_33_ + 1 x_71_ ^ 2 + 1 y_33_ ^ 2 - 2 y_71_ * y_33_ + 1 y_71_ ^ 2 ] = 29066
c118: [ 1 x_36_ ^ 2 - 2 x_71_ * x_36_ + 1 x_71_ ^ 2 + 1 y_36_ ^ 2 - 2 y_71_ * y_36_ + 1 y_71_ ^ 2 ] = 33541
c119: [ 1 x_68_ ^ 2 - 2 x_72_ * x_68_ + 1 x_72_ ^ 2 + 1 y_68_ ^ 2 - 2 y_72_ * y_68_ + 1 y_72_ ^ 2 ] = 30056
c120: [ 1 x_48_ ^ 2 - 2 x_73_ * x_48_ + 1 x_73_ ^ 2 + 1 y_48_ ^ 2 - 2 y_73_ * y_48_ + 1 y_73_ ^ 2 ] = 17524
c121: [ 1 x_64_ ^ 2 - 2 x_73_ * x_64_ + 1 x_73_ ^ 2 + 1 y_64_ ^ 2 - 2 y_73_ * y_64_ + 1 y_73_ ^ 2 ] = 725
c122: [ 1 x_71_ ^ 2 - 2 x_73_ * x_71_ + 1 x_73_ ^ 2 + 1 y_71_ ^ 2 - 2 y_73_ * y_71_ + 1 y_73_ ^ 2 ] = 33813
c123: [ 1 x_4_ ^ 2 - 2 x_74_ * x_4_ + 1 x_74_ ^ 2 + 1 y_4_ ^ 2 - 2 y_74_ * y_4_ + 1 y_74_ ^ 2 ] = 19858
c124: [ 1 x_5_ ^ 2 - 2 x_74_ * x_5_ + 1 x_74_ ^ 2 + 1 y_5_ ^ 2 - 2 y_74_ * y_5_ + 1 y_74_ ^ 2 ] = 2612
c125: [ 1 x_27_ ^ 2 - 2 x_74_ * x_27_ + 1 x_74_ ^ 2 + 1 y_27_ ^ 2 - 2 y_74_ * y_27_ + 1 y_74_ ^ 2 ] = 21050
c126: [ 1 x_50_ ^ 2 - 2 x_75_ * x_50_ + 1 x_75_ ^ 2 + 1 y_50_ ^ 2 - 2 y_75_ * y_50_ + 1 y_75_ ^ 2 ] = 5140
c127: [ 1 x_65_ ^ 2 - 2 x_75_ * x_65_ + 1 x_75_ ^ 2 + 1 y_65_ ^ 2 - 2 y_75_ * y_65_ + 1 y_75_ ^ 2 ] = 50
c128: [ 1 x_70_ ^ 2 - 2 x_75_ * x_70_ + 1 x_75_ ^ 2 + 1 y_70_ ^ 2 - 2 y_75_ * y_70_ + 1 y_75_ ^ 2 ] = 49669
c129: [ 1 x_20_ ^ 2 - 2 x_76_ * x_20_ + 1 x_76_ ^ 2 + 1 y_20_ ^ 2 - 2 y_76_ * y_20_ + 1 y_76_ ^ 2 ] = 3922
c130: [ 1 x_60_ ^ 2 - 2 x_76_ * x_60_ + 1 x_76_ ^ 2 + 1 y_60_ ^ 2 - 2 y_76_ * y_60_ + 1 y_76_ ^ 2 ] = 32365
c131: [ 1 x_2_ ^ 2 - 2 x_77_ * x_2_ + 1 x_77_ ^ 2 + 1 y_2_ ^ 2 - 2 y_77_ * y_2_ + 1 y_77_ ^ 2 ] = 3509
c132: [ 1 x_63_ ^ 2 - 2 x_77_ * x_63_ + 1 x_77_ ^ 2 + 1 y_63_ ^ 2 - 2 y_77_ * y_63_ + 1 y_77_ ^ 2 ] = 4688
c133: [ 1 x_13_ ^ 2 - 2 x_78_ * x_13_ + 1 x_78_ ^ 2 + 1 y_13_ ^ 2 - 2 y_78_ * y_13_ + 1 y_78_ ^ 2 ] = 8660
c134: [ 1 x_17_ ^ 2 - 2 x_78_ * x_17_ + 1 x_78_ ^ 2 + 1 y_17_ ^ 2 - 2 y_78_ * y_17_ + 1 y_78_ ^ 2 ] = 15453
c135: [ 1 x_31_ ^ 2 - 2 x_78_ * x_31_ + 1 x_78_ ^ 2 + 1 y_31_ ^ 2 - 2 y_78_ * y_31_ + 1 y_78_ ^ 2 ] = 26253
c136: [ 1 x_38_ ^ 2 - 2 x_79_ * x_38_ + 1 x_79_ ^ 2 + 1 y_38_ ^ 2 - 2 y_79_ * y_38_ + 1 y_79_ ^ 2 ] = 15805
c137: [ 1 x_40_ ^ 2 - 2 x_79_ * x_40_ + 1 x_79_ ^ 2 + 1 y_40_ ^ 2 - 2 y_79_ * y_40_ + 1 y_79_ ^ 2 ] = 14368
c138: [ 1 x_1_ ^ 2 - 2 x_80_ * x_1_ + 1 x_80_ ^ 2 + 1 y_1_ ^ 2 - 2 y_80_ * y_1_ + 1 y_80_ ^ 2 ] = 493
c139: [ 1 x_16_ ^ 2 - 2 x_80_ * x_16_ + 1 x_80_ ^ 2 + 1 y_16_ ^ 2 - 2 y_80_ * y_16_ + 1 y_80_ ^ 2 ] = 5000
c140: [ 1 x_47_ ^ 2 - 2 x_80_ * x_47_ + 1 x_80_ ^ 2 + 1 y_47_ ^ 2 - 2 y_80_ * y_47_ + 1 y_80_ ^ 2 ] = 5002
c141: [ 1 x_5_ ^ 2 - 2 x_81_ * x_5_ + 1 x_81_ ^ 2 + 1 y_5_ ^ 2 - 2 y_81_ * y_5_ + 1 y_81_ ^ 2 ] = 40738
c142: [ 1 x_58_ ^ 2 - 2 x_81_ * x_58_ + 1 x_81_ ^ 2 + 1 y_58_ ^ 2 - 2 y_81_ * y_58_ + 1 y_81_ ^ 2 ] = 7780
c143: [ 1 x_70_ ^ 2 - 2 x_81_ * x_70_ + 1 x_81_ ^ 2 + 1 y_70_ ^ 2 - 2 y_81_ * y_70_ + 1 y_81_ ^ 2 ] = 22050
c144: [ 1 x_32_ ^ 2 - 2 x_82_ * x_32_ + 1 x_82_ ^ 2 + 1 y_32_ ^ 2 - 2 y_82_ * y_32_ + 1 y_82_ ^ 2 ] = 61745
c145: [ 1 x_41_ ^ 2 - 2 x_82_ * x_41_ + 1 x_82_ ^ 2 + 1 y_41_ ^ 2 - 2 y_82_ * y_41_ + 1 y_82_ ^ 2 ] = 3809
c146: [ 1 x_44_ ^ 2 - 2 x_82_ * x_44_ + 1 x_82_ ^ 2 + 1 y_44_ ^ 2 - 2 y_82_ * y_44_ + 1 y_82_ ^ 2 ] = 31705
c147: [ 1 x_42_ ^ 2 - 2 x_83_ * x_42_ + 1 x_83_ ^ 2 + 1 y_42_ ^ 2 - 2 y_83_ * y_42_ + 1 y_83_ ^ 2 ] = 31076
c148: [ 1 x_53_ ^ 2 - 2 x_83_ * x_53_ + 1 x_83_ ^ 2 + 1 y_53_ ^ 2 - 2 y_83_ * y_53_ + 1 y_83_ ^ 2 ] = 6760
c149: [ 1 x_8_ ^ 2 - 2 x_84_ * x_8_ + 1 x_84_ ^ 2 + 1 y_8_ ^ 2 - 2 y_84_ * y_8_ + 1 y_84_ ^ 2 ] = 23976
c150: [ 1 x_9_ ^ 2 - 2 x_84_ * x_9_ + 1 x_84_ ^ 2 + 1 y_9_ ^ 2 - 2 y_84_ * y_9_ + 1 y_84_ ^ 2 ] = 29889
c151: [ 1 x_47_ ^ 2 - 2 x_84_ * x_47_ + 1 x_84_ ^ 2 + 1 y_47_ ^ 2 - 2 y_84_ * y_47_ + 1 y_84_ ^ 2 ] = 22049
c152: [ 1 x_1_ ^ 2 - 2 x_85_ * x_1_ + 1 x_85_ ^ 2 + 1 y_1_ ^ 2 - 2 y_85_ * y_1_ + 1 y_85_ ^ 2 ] = 7209
c153: [ 1 x_2_ ^ 2 - 2 x_85_ * x_2_ + 1 x_85_ ^ 2 + 1 y_2_ ^ 2 - 2 y_85_ * y_2_ + 1 y_85_ ^ 2 ] = 3809
c154: [ 1 x_68_ ^ 2 - 2 x_85_ * x_68_ + 1 x_85_ ^ 2 + 1 y_68_ ^ 2 - 2 y_85_ * y_68_ + 1 y_85_ ^ 2 ] = 5938
c155: [ 1 x_14_ ^ 2 - 2 x_86_ * x_14_ + 1 x_86_ ^ 2 + 1 y_14_ ^ 2 - 2 y_86_ * y_14_ + 1 y_86_ ^ 2 ] = 4633
c156: [ 1 x_24_ ^ 2 - 2 x_86_ * x_24_ + 1 x_86_ ^ 2 + 1 y_24_ ^ 2 - 2 y_86_ * y_24_ + 1 y_86_ ^ 2 ] = 4033
c157: [ 1 x_55_ ^ 2 - 2 x_86_ * x_55_ + 1 x_86_ ^ 2 + 1 y_55_ ^ 2 - 2 y_86_ * y_55_ + 1 y_86_ ^ 2 ] = 13690
c158: [ 1 x_8_ ^ 2 - 2 x_87_ * x_8_ + 1 x_87_ ^ 2 + 1 y_8_ ^ 2 - 2 y_87_ * y_8_ + 1 y_87_ ^ 2 ] = 6409
c159: [ 1 x_16_ ^ 2 - 2 x_87_ * x_16_ + 1 x_87_ ^ 2 + 1 y_16_ ^ 2 - 2 y_87_ * y_16_ + 1 y_87_ ^ 2 ] = 6866
c160: [ 1 x_13_ ^ 2 - 2 x_88_ * x_13_ + 1 x_88_ ^ 2 + 1 y_13_ ^ 2 - 2 y_88_ * y_13_ + 1 y_88_ ^ 2 ] = 857
c161: [ 1 x_31_ ^ 2 - 2 x_88_ * x_31_ + 1 x_88_ ^ 2 + 1 y_31_ ^ 2 - 2 y_88_ * y_31_ + 1 y_88_ ^ 2 ] = 6100
c162: [ 1 x_87_ ^ 2 - 2 x_88_ * x_87_ + 1 x_88_ ^ 2 + 1 y_87_ ^ 2 - 2 y_88_ * y_87_ + 1 y_88_ ^ 2 ] = 8080
c163: [ 1 x_52_ ^ 2 - 2 x_89_ * x_52_ + 1 x_89_ ^ 2 + 1 y_52_ ^ 2 - 2 y_89_ * y_52_ + 1 y_89_ ^ 2 ] = 26813
c164: [ 1 x_76_ ^ 2 - 2 x_89_ * x_76_ + 1 x_89_ ^ 2 + 1 y_76_ ^ 2 - 2 y_89_ * y_76_ + 1 y_89_ ^ 2 ] = 740
c165: [ 1 x_77_ ^ 2 - 2 x_89_ * x_77_ + 1 x_89_ ^ 2 + 1 y_77_ ^ 2 - 2 y_89_ * y_77_ + 1 y_89_ ^ 2 ] = 8002
c166: [ 1 x_2_ ^ 2 - 2 x_90_ * x_2_ + 1 x_90_ ^ 2 + 1 y_2_ ^ 2 - 2 y_90_ * y_2_ + 1 y_90_ ^ 2 ] = 13437
c167: [ 1 x_20_ ^ 2 - 2 x_90_ * x_20_ + 1 x_90_ ^ 2 + 1 y_20_ ^ 2 - 2 y_90_ * y_20_ + 1 y_90_ ^ 2 ] = 4618
c168: [ 1 x_23_ ^ 2 - 2 x_90_ * x_23_ + 1 x_90_ ^ 2 + 1 y_23_ ^ 2 - 2 y_90_ * y_23_ + 1 y_90_ ^ 2 ] = 24901
c169: [ 1 x_15_ ^ 2 - 2 x_91_ * x_15_ + 1 x_91_ ^ 2 + 1 y_15_ ^ 2 - 2 y_91_ * y_15_ + 1 y_91_ ^ 2 ] = 31265
c170: [ 1 x_27_ ^ 2 - 2 x_91_ * x_27_ + 1 x_91_ ^ 2 + 1 y_27_ ^ 2 - 2 y_91_ * y_27_ + 1 y_91_ ^ 2 ] = 18692
c171: [ 1 x_72_ ^ 2 - 2 x_91_ * x_72_ + 1 x_91_ ^ 2 + 1 y_72_ ^ 2 - 2 y_91_ * y_72_ + 1 y_91_ ^ 2 ] = 4496
c172: [ 1 x_29_ ^ 2 - 2 x_92_ * x_29_ + 1 x_92_ ^ 2 + 1 y_29_ ^ 2 - 2 y_92_ * y_29_ + 1 y_92_ ^ 2 ] = 11540
c173: [ 1 x_54_ ^ 2 - 2 x_92_ * x_54_ + 1 x_92_ ^ 2 + 1 y_54_ ^ 2 - 2 y_92_ * y_54_ + 1 y_92_ ^ 2 ] = 338
c174: [ 1 x_70_ ^ 2 - 2 x_92_ * x_70_ + 1 x_92_ ^ 2 + 1 y_70_ ^ 2 - 2 y_92_ * y_70_ + 1 y_92_ ^ 2 ] = 39812
c175: [ 1 x_14_ ^ 2 - 2 x_93_ * x_14_ + 1 x_93_ ^ 2 + 1 y_14_ ^ 2 - 2 y_93_ * y_14_ + 1 y_93_ ^ 2 ] = 19013
c176: [ 1 x_42_ ^ 2 - 2 x_93_ * x_42_ + 1 x_93_ ^ 2 + 1 y_42_ ^ 2 - 2 y_93_ * y_42_ + 1 y_93_ ^ 2 ] = 5540
c177: [ 1 x_56_ ^ 2 - 2 x_93_ * x_56_ + 1 x_93_ ^ 2 + 1 y_56_ ^ 2 - 2 y_93_ * y_56_ + 1 y_93_ ^ 2 ] = 397
c178: [ 1 x_9_ ^ 2 - 2 x_94_ * x_9_ + 1 x_94_ ^ 2 + 1 y_9_ ^ 2 - 2 y_94_ * y_9_ + 1 y_94_ ^ 2 ] = 15392
c179: [ 1 x_69_ ^ 2 - 2 x_94_ * x_69_ + 1 x_94_ ^ 2 + 1 y_69_ ^ 2 - 2 y_94_ * y_69_ + 1 y_94_ ^ 2 ] = 9224
c180: [ 1 x_83_ ^ 2 - 2 x_94_ * x_83_ + 1 x_94_ ^ 2 + 1 y_83_ ^ 2 - 2 y_94_ * y_83_ + 1 y_94_ ^ 2 ] = 29650
c181: [ 1 x_30_ ^ 2 - 2 x_95_ * x_30_ + 1 x_95_ ^ 2 + 1 y_30_ ^ 2 - 2 y_95_ * y_30_ + 1 y_95_ ^ 2 ] = 137
c182: [ 1 x_33_ ^ 2 - 2 x_95_ * x_33_ + 1 x_95_ ^ 2 + 1 y_33_ ^ 2 - 2 y_95_ * y_33_ + 1 y_95_ ^ 2 ] = 20840
c183: [ 1 x_41_ ^ 2 - 2 x_95_ * x_41_ + 1 x_95_ ^ 2 + 1 y_41_ ^ 2 - 2 y_95_ * y_41_ + 1 y_95_ ^ 2 ] = 689
c184: [ 1 x_27_ ^ 2 - 2 x_96_ * x_27_ + 1 x_96_ ^ 2 + 1 y_27_ ^ 2 - 2 y_96_ * y_27_ + 1 y_96_ ^ 2 ] = 36650
c185: [ 1 x_37_ ^ 2 - 2 x_96_ * x_37_ + 1 x_96_ ^ 2 + 1 y_37_ ^ 2 - 2 y_96_ * y_37_ + 1 y_96_ ^ 2 ] = 35177
c186: [ 1 x_79_ ^ 2 - 2 x_96_ * x_79_ + 1 x_96_ ^ 2 + 1 y_79_ ^ 2 - 2 y_96_ * y_79_ + 1 y_96_ ^ 2 ] = 27530
c187: [ 1 x_11_ ^ 2 - 2 x_97_ * x_11_ + 1 x_97_ ^ 2 + 1 y_11_ ^ 2 - 2 y_97_ * y_11_ + 1 y_97_ ^ 2 ] = 11728
c188: [ 1 x_27_ ^ 2 - 2 x_97_ * x_27_ + 1 x_97_ ^ 2 + 1 y_27_ ^ 2 - 2 y_97_ * y_27_ + 1 y_97_ ^ 2 ] = 13505
c189: [ 1 x_62_ ^ 2 - 2 x_97_ * x_62_ + 1 x_97_ ^ 2 + 1 y_62_ ^ 2 - 2 y_97_ * y_62_ + 1 y_97_ ^ 2 ] = 2993
c190: [ 1 x_4_ ^ 2 - 2 x_98_ * x_4_ + 1 x_98_ ^ 2 + 1 y_4_ ^ 2 - 2 y_98_ * y_4_ + 1 y_98_ ^ 2 ] = 28409
c191: [ 1 x_12_ ^ 2 - 2 x_98_ * x_12_ + 1 x_98_ ^ 2 + 1 y_12_ ^ 2 - 2 y_98_ * y_12_ + 1 y_98_ ^ 2 ] = 13298
c192: [ 1 x_72_ ^ 2 - 2 x_98_ * x_72_ + 1 x_98_ ^ 2 + 1 y_72_ ^ 2 - 2 y_98_ * y_72_ + 1 y_98_ ^ 2 ] = 769
c193: [ 1 x_23_ ^ 2 - 2 x_99_ * x_23_ + 1 x_99_ ^ 2 + 1 y_23_ ^ 2 - 2 y_99_ * y_23_ + 1 y_99_ ^ 2 ] = 1573
c194: [ 1 x_42_ ^ 2 - 2 x_99_ * x_42_ + 1 x_99_ ^ 2 + 1 y_42_ ^ 2 - 2 y_99_ * y_42_ + 1 y_99_ ^ 2 ] = 21130
c195: [ 1 x_77_ ^ 2 - 2 x_99_ * x_77_ + 1 x_99_ ^ 2 + 1 y_77_ ^ 2 - 2 y_99_ * y_77_ + 1 y_99_ ^ 2 ] = 9074
c196: [ 1 x_4_ ^ 2 - 2 x_100_ * x_4_ + 1 x_100_ ^ 2 + 1 y_4_ ^ 2 - 2 y_100_ * y_4_ + 1 y_100_ ^ 2 ] = 13213
c197: [ 1 x_12_ ^ 2 - 2 x_100_ * x_12_ + 1 x_100_ ^ 2 + 1 y_12_ ^ 2 - 2 y_100_ * y_12_ + 1 y_100_ ^ 2 ] = 5954
c198: [ 1 x_53_ ^ 2 - 2 x_100_ * x_53_ + 1 x_100_ ^ 2 + 1 y_53_ ^ 2 - 2 y_100_ * y_53_ + 1 y_100_ ^ 2 ] = 6529
Bounds
-239 <= x_1_ <= 282
-303 <= x_2_ <= 214
-183 <= x_3_ <= 265
-239 <= x_4_ <= 212
-260 <= x_5_ <= 224
-130 <= x_6_ <= 214
-254 <= x_7_ <= 218
-29 <= x_8_ <= 35
-249 <= x_9_ <= 218
-251 <= x_10_ <= 159
-112 <= x_11_ <= 116
-332 <= x_12_ <= 238
-146 <= x_13_ <= 60
-241 <= x_14_ <= 181
-140 <= x_15_ <= 147
-146 <= x_16_ <= 198
-195 <= x_17_ <= 109
-64 <= x_18_ <= 115
-128 <= x_19_ <= 135
-270 <= x_20_ <= 234
-164 <= x_21_ <= 248
-233 <= x_22_ <= 289
-302 <= x_23_ <= 338
-197 <= x_24_ <= 176
-201 <= x_25_ <= 147
-78 <= x_26_ <= 52
-217 <= x_27_ <= 123
-288 <= x_28_ <= 234
-111 <= x_29_ <= 96
-38 <= x_30_ <= -16
-204 <= x_31_ <= 168
-178 <= x_32_ <= 178
-117 <= x_33_ <= 117
-222 <= x_34_ <= 306
-6 <= x_35_ <= 90
-59 <= x_36_ <= 143
-121 <= x_37_ <= 172
-226 <= x_38_ <= 195
-170 <= x_39_ <= 240
-8 <= x_40_ <= 56
-53 <= x_41_ <= -1
-189 <= x_42_ <= 153
-294 <= x_43_ <= 202
-59 <= x_44_ <= 129
-221 <= x_45_ <= 185
-314 <= x_46_ <= 293
-288 <= x_47_ <= 322
-298 <= x_48_ <= 382
-205 <= x_49_ <= 119
x_50_ = 42
-290 <= x_51_ <= 204
-230 <= x_52_ <= 136
-174 <= x_53_ <= 80
15 <= x_54_ <= 69
-89 <= x_55_ <= -5
-153 <= x_56_ <= 59
-77 <= x_57_ <= 161
-197 <= x_58_ <= 203
-311 <= x_59_ <= 278
-254 <= x_60_ <= 261
-109 <= x_61_ <= 193
x_62_ = -47
-301 <= x_63_ <= 304
-260 <= x_64_ <= 302
-36 <= x_65_ <= 88
-277 <= x_66_ <= 307
-173 <= x_67_ <= 257
-401 <= x_68_ <= 309
-335 <= x_69_ <= 243
-187 <= x_70_ <= 93
-242 <= x_71_ <= 287
-384 <= x_72_ <= 327
-287 <= x_73_ <= 329
-311 <= x_74_ <= 269
-29 <= x_75_ <= 95
-332 <= x_76_ <= 297
-363 <= x_77_ <= 273
-239 <= x_78_ <= 153
-128 <= x_79_ <= 175
-217 <= x_80_ <= 269
-285 <= x_81_ <= 242
-114 <= x_82_ <= 60
-256 <= x_83_ <= 162
-183 <= x_84_ <= 190
-324 <= x_85_ <= 276
-206 <= x_86_ <= 112
-109 <= x_87_ <= 115
-175 <= x_88_ <= 90
-360 <= x_89_ <= 300
-338 <= x_90_ <= 302
-317 <= x_91_ <= 260
-3 <= x_92_ <= 87
-173 <= x_93_ <= 79
-373 <= x_94_ <= 335
x_95_ = -27
-294 <= x_96_ <= 315
-101 <= x_97_ <= 7
-408 <= x_98_ <= 353
-334 <= x_99_ <= 299
-255 <= x_100_ <= 161
-251 <= y_1_ <= 246
-201 <= y_2_ <= 321
-195 <= y_3_ <= 255
-207 <= y_4_ <= 167
-211 <= y_5_ <= 295
-142 <= y_6_ <= 202
-205 <= y_7_ <= 289
-41 <= y_8_ <= -10
-205 <= y_9_ <= 279
-146 <= y_10_ <= 244
-103 <= y_11_ <= 74
-225 <= y_12_ <= 314
-47 <= y_13_ <= 167
-168 <= y_14_ <= 271
-152 <= y_15_ <= 102
-158 <= y_16_ <= 153
-96 <= y_17_ <= 184
-76 <= y_18_ <= 125
-140 <= y_19_ <= 90
-221 <= y_20_ <= 305
-176 <= y_21_ <= 236
-245 <= y_22_ <= 244
-314 <= y_23_ <= 336
-163 <= y_24_ <= 159
-246 <= y_25_ <= 102
-90 <= y_26_ <= 7
-110 <= y_27_ <= 230
-301 <= y_28_ <= 189
-83 <= y_29_ <= 183
-83 <= y_30_ <= -61
-155 <= y_31_ <= 238
-190 <= y_32_ <= 133
-129 <= y_33_ <= 72
-234 <= y_34_ <= 294
-18 <= y_35_ <= 78
-71 <= y_36_ <= 131
-133 <= y_37_ <= 182
-182 <= y_38_ <= 256
-182 <= y_39_ <= 195
-20 <= y_40_ <= 11
-98 <= y_41_ <= -46
-140 <= y_42_ <= 151
-189 <= y_43_ <= 201
-71 <= y_44_ <= 84
-172 <= y_45_ <= 256
-280 <= y_46_ <= 325
-300 <= y_47_ <= 294
-310 <= y_48_ <= 370
-106 <= y_49_ <= 218
y_50_ = 30
-191 <= y_51_ <= 196
-123 <= y_52_ <= 243
-67 <= y_53_ <= 187
3 <= y_54_ <= 57
18 <= y_55_ <= 102
-46 <= y_56_ <= 166
-89 <= y_57_ <= 149
-197 <= y_58_ <= 158
-265 <= y_59_ <= 295
-266 <= y_60_ <= 216
-121 <= y_61_ <= 181
y_62_ = 60
-291 <= y_63_ <= 263
-272 <= y_64_ <= 257
-48 <= y_65_ <= 108
-289 <= y_66_ <= 285
-185 <= y_67_ <= 242
-296 <= y_68_ <= 384
-230 <= y_69_ <= 329
-80 <= y_70_ <= 200
-254 <= y_71_ <= 242
-314 <= y_72_ <= 346
-299 <= y_73_ <= 284
-256 <= y_74_ <= 308
-41 <= y_75_ <= 101
-284 <= y_76_ <= 367
-260 <= y_77_ <= 332
-140 <= y_78_ <= 260
-140 <= y_79_ <= 130
-229 <= y_80_ <= 224
-229 <= y_81_ <= 247
-159 <= y_82_ <= 15
-149 <= y_83_ <= 269
-195 <= y_84_ <= 145
-263 <= y_85_ <= 331
-99 <= y_86_ <= 219
-121 <= y_87_ <= 70
-77 <= y_88_ <= 160
-287 <= y_89_ <= 395
-289 <= y_90_ <= 373
-247 <= y_91_ <= 279
-15 <= y_92_ <= 75
-66 <= y_93_ <= 186
-322 <= y_94_ <= 403
y_95_ = -72
-302 <= y_96_ <= 296
6 <= y_97_ <= 114
-340 <= y_98_ <= 336
-286 <= y_99_ <= 296
-148 <= y_100_ <= 268
General
x_1_
x_2_
x_3_
x_4_
x_5_
x_6_
x_7_
x_8_
x_9_
x_10_
x_11_
x_12_
x_13_
x_14_
x_15_
x_16_
x_17_
x_18_
x_19_
x_20_
x_21_
x_22_
x_23_
x_24_
x_25_
x_26_
x_27_
x_28_
x_29_
x_30_
x_31_
x_32_
x_33_
x_34_
x_35_
x_36_
x_37_
x_38_
x_39_
x_40_
x_41_
x_42_
x_43_
x_44_
x_45_
x_46_
x_47_
x_48_
x_49_
x_50_
x_51_
x_52_
x_53_
x_54_
x_55_
x_56_
x_57_
x_58_
x_59_
x_60_
x_61_
x_62_
x_63_
x_64_
x_65_
x_66_
x_67_
x_68_
x_69_
x_70_
x_71_
x_72_
x_73_
x_74_
x_75_
x_76_
x_77_
x_78_
x_79_
x_80_
x_81_
x_82_
x_83_
x_84_
x_85_
x_86_
x_87_
x_88_
x_89_
x_90_
x_91_
x_92_
x_93_
x_94_
x_95_
x_96_
x_97_
x_98_
x_99_
x_100_
y_1_
y_2_
y_3_
y_4_
y_5_
y_6_
y_7_
y_8_
y_9_
y_10_
y_11_
y_12_
y_13_
y_14_
y_15_
y_16_
y_17_
y_18_
y_19_
y_20_
y_21_
y_22_
y_23_
y_24_
y_25_
y_26_
y_27_
y_28_
y_29_
y_30_
y_31_
y_32_
y_33_
y_34_
y_35_
y_36_
y_37_
y_38_
y_39_
y_40_
y_41_
y_42_
y_43_
y_44_
y_45_
y_46_
y_47_
y_48_
y_49_
y_50_
y_51_
y_52_
y_53_
y_54_
y_55_
y_56_
y_57_
y_58_
y_59_
y_60_
y_61_
y_62_
y_63_
y_64_
y_65_
y_66_
y_67_
y_68_
y_69_
y_70_
y_71_
y_72_
y_73_
y_74_
y_75_
y_76_
y_77_
y_78_
y_79_
y_80_
y_81_
y_82_
y_83_
y_84_
y_85_
y_86_
y_87_
y_88_
y_89_
y_90_
y_91_
y_92_
y_93_
y_94_
y_95_
y_96_
y_97_
y_98_
y_99_
y_100_
End
