minimize
obj: 
subject to
c1_1: 158 x_1_ + 162 y_1_ + [ 1 x_1_ ^ 2 + 1 y_1_ ^ 2 ] <= 40195
c2_1: 158 x_2_ + 162 y_2_ + [ 1 x_2_ ^ 2 + 1 y_2_ ^ 2 ] <= 93064
c3_1: 158 x_3_ + 162 y_3_ + [ 1 x_3_ ^ 2 + 1 y_3_ ^ 2 ] <= 67235
c4_1: 158 x_4_ + 162 y_4_ + [ 1 x_4_ ^ 2 + 1 y_4_ ^ 2 ] <= -12600
c5_1: 158 x_5_ + 162 y_5_ + [ 1 x_5_ ^ 2 + 1 y_5_ ^ 2 ] <= 20232
c6_1: 158 x_6_ + 162 y_6_ + [ 1 x_6_ ^ 2 + 1 y_6_ ^ 2 ] <= 14678
c7_1: 158 x_7_ + 162 y_7_ + [ 1 x_7_ ^ 2 + 1 y_7_ ^ 2 ] <= 76971
c8_1: 158 x_8_ + 162 y_8_ + [ 1 x_8_ ^ 2 + 1 y_8_ ^ 2 ] <= 13994
c9_1: 158 x_9_ + 162 y_9_ + [ 1 x_9_ ^ 2 + 1 y_9_ ^ 2 ] <= 21631
c10_1: 158 x_10_ + 162 y_10_ + [ 1 x_10_ ^ 2 + 1 y_10_ ^ 2 ] <= 94037
c11_1: 158 x_11_ + 162 y_11_ + [ 1 x_11_ ^ 2 + 1 y_11_ ^ 2 ] <= 98584
c12_1: 158 x_12_ + 162 y_12_ + [ 1 x_12_ ^ 2 + 1 y_12_ ^ 2 ] <= 99149
c13_1: 158 x_13_ + 162 y_13_ + [ 1 x_13_ ^ 2 + 1 y_13_ ^ 2 ] <= 33701
c14_1: 158 x_14_ + 162 y_14_ + [ 1 x_14_ ^ 2 + 1 y_14_ ^ 2 ] <= 83031
c15_1: 158 x_15_ + 162 y_15_ + [ 1 x_15_ ^ 2 + 1 y_15_ ^ 2 ] <= 82467
c16_1: 158 x_16_ + 162 y_16_ + [ 1 x_16_ ^ 2 + 1 y_16_ ^ 2 ] <= 4582
c17_1: 158 x_17_ + 162 y_17_ + [ 1 x_17_ ^ 2 + 1 y_17_ ^ 2 ] <= 69477
c18_1: 158 x_18_ + 162 y_18_ + [ 1 x_18_ ^ 2 + 1 y_18_ ^ 2 ] <= -8535
c19_1: 158 x_19_ + 162 y_19_ + [ 1 x_19_ ^ 2 + 1 y_19_ ^ 2 ] <= 46433
c20_1: 158 x_20_ + 162 y_20_ + [ 1 x_20_ ^ 2 + 1 y_20_ ^ 2 ] <= -10091
c21_1: 158 x_21_ + 162 y_21_ + [ 1 x_21_ ^ 2 + 1 y_21_ ^ 2 ] <= 23589
c22_1: 158 x_22_ + 162 y_22_ + [ 1 x_22_ ^ 2 + 1 y_22_ ^ 2 ] <= 34508
c23_1: 158 x_23_ + 162 y_23_ + [ 1 x_23_ ^ 2 + 1 y_23_ ^ 2 ] <= -3639
c24_1: 158 x_24_ + 162 y_24_ + [ 1 x_24_ ^ 2 + 1 y_24_ ^ 2 ] <= 25140
c25_1: 158 x_25_ + 162 y_25_ + [ 1 x_25_ ^ 2 + 1 y_25_ ^ 2 ] <= 41328
c26_1: 158 x_26_ + 162 y_26_ + [ 1 x_26_ ^ 2 + 1 y_26_ ^ 2 ] <= 23237
c27_1: 158 x_27_ + 162 y_27_ + [ 1 x_27_ ^ 2 + 1 y_27_ ^ 2 ] <= 24842
c28_1: 158 x_28_ + 162 y_28_ + [ 1 x_28_ ^ 2 + 1 y_28_ ^ 2 ] <= 105245
c29_1: 158 x_29_ + 162 y_29_ + [ 1 x_29_ ^ 2 + 1 y_29_ ^ 2 ] <= 97428
c30_1: 158 x_30_ + 162 y_30_ + [ 1 x_30_ ^ 2 + 1 y_30_ ^ 2 ] <= 51782
c31_1: 158 x_31_ + 162 y_31_ + [ 1 x_31_ ^ 2 + 1 y_31_ ^ 2 ] <= 22428
c32_1: 158 x_32_ + 162 y_32_ + [ 1 x_32_ ^ 2 + 1 y_32_ ^ 2 ] <= 41282
c33_1: 158 x_33_ + 162 y_33_ + [ 1 x_33_ ^ 2 + 1 y_33_ ^ 2 ] <= 21202
c34_1: 158 x_34_ + 162 y_34_ + [ 1 x_34_ ^ 2 + 1 y_34_ ^ 2 ] <= 42757
c35_1: 158 x_35_ + 162 y_35_ + [ 1 x_35_ ^ 2 + 1 y_35_ ^ 2 ] <= 9467
c36_1: 158 x_36_ + 162 y_36_ + [ 1 x_36_ ^ 2 + 1 y_36_ ^ 2 ] <= 6131
c37_1: 158 x_37_ + 162 y_37_ + [ 1 x_37_ ^ 2 + 1 y_37_ ^ 2 ] <= -5966
c38_1: 158 x_38_ + 162 y_38_ + [ 1 x_38_ ^ 2 + 1 y_38_ ^ 2 ] <= 42995
c39_1: 158 x_39_ + 162 y_39_ + [ 1 x_39_ ^ 2 + 1 y_39_ ^ 2 ] <= 38093
c40_1: 158 x_40_ + 162 y_40_ + [ 1 x_40_ ^ 2 + 1 y_40_ ^ 2 ] <= 108182
c41_1: 158 x_41_ + 162 y_41_ + [ 1 x_41_ ^ 2 + 1 y_41_ ^ 2 ] <= 5145
c42_1: 158 x_42_ + 162 y_42_ + [ 1 x_42_ ^ 2 + 1 y_42_ ^ 2 ] <= 81009
c43_1: 158 x_43_ + 162 y_43_ + [ 1 x_43_ ^ 2 + 1 y_43_ ^ 2 ] <= 125511
c44_1: 158 x_44_ + 162 y_44_ + [ 1 x_44_ ^ 2 + 1 y_44_ ^ 2 ] <= 37214
c45_1: 158 x_45_ + 162 y_45_ + [ 1 x_45_ ^ 2 + 1 y_45_ ^ 2 ] <= 43843
c46_1: 158 x_46_ + 162 y_46_ + [ 1 x_46_ ^ 2 + 1 y_46_ ^ 2 ] <= -5112
c47_1: 158 x_47_ + 162 y_47_ + [ 1 x_47_ ^ 2 + 1 y_47_ ^ 2 ] <= 55219
c48_1: 158 x_48_ + 162 y_48_ + [ 1 x_48_ ^ 2 + 1 y_48_ ^ 2 ] <= 64685
c49_1: 158 x_49_ + 162 y_49_ + [ 1 x_49_ ^ 2 + 1 y_49_ ^ 2 ] <= 4163
c50_1: 158 x_50_ + 162 y_50_ + [ 1 x_50_ ^ 2 + 1 y_50_ ^ 2 ] <= 56532
c51_1: 158 x_51_ + 162 y_51_ + [ 1 x_51_ ^ 2 + 1 y_51_ ^ 2 ] <= 98668
c52_1: 158 x_52_ + 162 y_52_ + [ 1 x_52_ ^ 2 + 1 y_52_ ^ 2 ] <= 61186
c53_1: 158 x_53_ + 162 y_53_ + [ 1 x_53_ ^ 2 + 1 y_53_ ^ 2 ] <= 48803
c54_1: 158 x_55_ + 162 y_55_ + [ 1 x_55_ ^ 2 + 1 y_55_ ^ 2 ] <= 66995
c55_1: 158 x_56_ + 162 y_56_ + [ 1 x_56_ ^ 2 + 1 y_56_ ^ 2 ] <= 28773
c56_1: 158 x_57_ + 162 y_57_ + [ 1 x_57_ ^ 2 + 1 y_57_ ^ 2 ] <= 127200
c57_1: 158 x_58_ + 162 y_58_ + [ 1 x_58_ ^ 2 + 1 y_58_ ^ 2 ] <= -1798
c58_1: 158 x_59_ + 162 y_59_ + [ 1 x_59_ ^ 2 + 1 y_59_ ^ 2 ] <= 39603
c59_1: 158 x_60_ + 162 y_60_ + [ 1 x_60_ ^ 2 + 1 y_60_ ^ 2 ] <= 58770
c60_1: 158 x_61_ + 162 y_61_ + [ 1 x_61_ ^ 2 + 1 y_61_ ^ 2 ] <= 39326
c61_1: 158 x_62_ + 162 y_62_ + [ 1 x_62_ ^ 2 + 1 y_62_ ^ 2 ] <= 68742
c62_1: 158 x_63_ + 162 y_63_ + [ 1 x_63_ ^ 2 + 1 y_63_ ^ 2 ] <= 40006
c63_1: 158 x_64_ + 162 y_64_ + [ 1 x_64_ ^ 2 + 1 y_64_ ^ 2 ] <= 94539
c64_1: 158 x_65_ + 162 y_65_ + [ 1 x_65_ ^ 2 + 1 y_65_ ^ 2 ] <= 121585
c65_1: 158 x_66_ + 162 y_66_ + [ 1 x_66_ ^ 2 + 1 y_66_ ^ 2 ] <= 77612
c66_1: 158 x_67_ + 162 y_67_ + [ 1 x_67_ ^ 2 + 1 y_67_ ^ 2 ] <= 42138
c67_1: 158 x_68_ + 162 y_68_ + [ 1 x_68_ ^ 2 + 1 y_68_ ^ 2 ] <= -1180
c68_1: 158 x_69_ + 162 y_69_ + [ 1 x_69_ ^ 2 + 1 y_69_ ^ 2 ] <= 30244
c69_1: 158 x_70_ + 162 y_70_ + [ 1 x_70_ ^ 2 + 1 y_70_ ^ 2 ] <= 114552
c70_1: 158 x_71_ + 162 y_71_ + [ 1 x_71_ ^ 2 + 1 y_71_ ^ 2 ] <= 1790
c71_1: 158 x_72_ + 162 y_72_ + [ 1 x_72_ ^ 2 + 1 y_72_ ^ 2 ] <= 78957
c72_1: 158 x_73_ + 162 y_73_ + [ 1 x_73_ ^ 2 + 1 y_73_ ^ 2 ] <= 119157
c73_1: 158 x_74_ + 162 y_74_ + [ 1 x_74_ ^ 2 + 1 y_74_ ^ 2 ] <= 60102
c74_1: 158 x_75_ + 162 y_75_ + [ 1 x_75_ ^ 2 + 1 y_75_ ^ 2 ] <= 93927
c75_1: 158 x_76_ + 162 y_76_ + [ 1 x_76_ ^ 2 + 1 y_76_ ^ 2 ] <= 22848
c76_1: 158 x_77_ + 162 y_77_ + [ 1 x_77_ ^ 2 + 1 y_77_ ^ 2 ] <= 104020
c77_1: 158 x_78_ + 162 y_78_ + [ 1 x_78_ ^ 2 + 1 y_78_ ^ 2 ] <= 40524
c78_1: 158 x_79_ + 162 y_79_ + [ 1 x_79_ ^ 2 + 1 y_79_ ^ 2 ] <= 78550
c79_1: 158 x_80_ + 162 y_80_ + [ 1 x_80_ ^ 2 + 1 y_80_ ^ 2 ] <= 45197
c80_1: 158 x_81_ + 162 y_81_ + [ 1 x_81_ ^ 2 + 1 y_81_ ^ 2 ] <= 10554
c81_1: 158 x_82_ + 162 y_82_ + [ 1 x_82_ ^ 2 + 1 y_82_ ^ 2 ] <= 164931
c82_1: 158 x_83_ + 162 y_83_ + [ 1 x_83_ ^ 2 + 1 y_83_ ^ 2 ] <= 73734
c83_1: 158 x_84_ + 162 y_84_ + [ 1 x_84_ ^ 2 + 1 y_84_ ^ 2 ] <= 16579
c84_1: 158 x_85_ + 162 y_85_ + [ 1 x_85_ ^ 2 + 1 y_85_ ^ 2 ] <= 97967
c85_1: 158 x_86_ + 162 y_86_ + [ 1 x_86_ ^ 2 + 1 y_86_ ^ 2 ] <= 46243
c86_1: 158 x_87_ + 162 y_87_ + [ 1 x_87_ ^ 2 + 1 y_87_ ^ 2 ] <= 46591
c87_1: 158 x_88_ + 162 y_88_ + [ 1 x_88_ ^ 2 + 1 y_88_ ^ 2 ] <= 35820
c88_1: 158 x_89_ + 162 y_89_ + [ 1 x_89_ ^ 2 + 1 y_89_ ^ 2 ] <= 177601
c89_1: 158 x_90_ + 162 y_90_ + [ 1 x_90_ ^ 2 + 1 y_90_ ^ 2 ] <= 65422
c90_1: 158 x_91_ + 162 y_91_ + [ 1 x_91_ ^ 2 + 1 y_91_ ^ 2 ] <= 16129
c91_1: 158 x_92_ + 162 y_92_ + [ 1 x_92_ ^ 2 + 1 y_92_ ^ 2 ] <= 55364
c92_1: 158 x_93_ + 162 y_93_ + [ 1 x_93_ ^ 2 + 1 y_93_ ^ 2 ] <= 82130
c93_1: 158 x_94_ + 162 y_94_ + [ 1 x_94_ ^ 2 + 1 y_94_ ^ 2 ] <= 48419
c94_1: 158 x_95_ + 162 y_95_ + [ 1 x_95_ ^ 2 + 1 y_95_ ^ 2 ] <= 105032
c95_1: 158 x_96_ + 162 y_96_ + [ 1 x_96_ ^ 2 + 1 y_96_ ^ 2 ] <= 35677
c96_1: 158 x_97_ + 162 y_97_ + [ 1 x_97_ ^ 2 + 1 y_97_ ^ 2 ] <= 19928
c97_1: 158 x_98_ + 162 y_98_ + [ 1 x_98_ ^ 2 + 1 y_98_ ^ 2 ] <= 44995
c98_1: 158 x_99_ + 162 y_99_ + [ 1 x_99_ ^ 2 + 1 y_99_ ^ 2 ] <= 28357
c99_1: 158 x_100_ + 162 y_100_ + [ 1 x_100_ ^ 2 + 1 y_100_ ^ 2 ] <= 19972
c100_1: 58 x_1_ + 40 y_1_ + [ 1 x_1_ ^ 2 + 1 y_1_ ^ 2 ] <= 90845
c101_1: 58 x_2_ + 40 y_2_ + [ 1 x_2_ ^ 2 + 1 y_2_ ^ 2 ] <= 94713
c102_1: 58 x_3_ + 40 y_3_ + [ 1 x_3_ ^ 2 + 1 y_3_ ^ 2 ] <= 47538
c103_1: 58 x_4_ + 40 y_4_ + [ 1 x_4_ ^ 2 + 1 y_4_ ^ 2 ] <= 69235
c104_1: 58 x_5_ + 40 y_5_ + [ 1 x_5_ ^ 2 + 1 y_5_ ^ 2 ] <= 74952
c105_1: 58 x_6_ + 40 y_6_ + [ 1 x_6_ ^ 2 + 1 y_6_ ^ 2 ] <= 100187
c106_1: 58 x_7_ + 40 y_7_ + [ 1 x_7_ ^ 2 + 1 y_7_ ^ 2 ] <= 98339
c107_1: 58 x_8_ + 40 y_8_ + [ 1 x_8_ ^ 2 + 1 y_8_ ^ 2 ] <= 101347
c108_1: 58 x_9_ + 40 y_9_ + [ 1 x_9_ ^ 2 + 1 y_9_ ^ 2 ] <= 75760
c109_1: 58 x_10_ + 40 y_10_ + [ 1 x_10_ ^ 2 + 1 y_10_ ^ 2 ] <= 160037
c110_1: 58 x_11_ + 40 y_11_ + [ 1 x_11_ ^ 2 + 1 y_11_ ^ 2 ] <= 208550
c111_1: 58 x_12_ + 40 y_12_ + [ 1 x_12_ ^ 2 + 1 y_12_ ^ 2 ] <= 100510
c112_1: 58 x_13_ + 40 y_13_ + [ 1 x_13_ ^ 2 + 1 y_13_ ^ 2 ] <= 12655
c113_1: 58 x_14_ + 40 y_14_ + [ 1 x_14_ ^ 2 + 1 y_14_ ^ 2 ] <= 97828
c114_1: 58 x_15_ + 40 y_15_ + [ 1 x_15_ ^ 2 + 1 y_15_ ^ 2 ] <= 111073
c115_1: 58 x_16_ + 40 y_16_ + [ 1 x_16_ ^ 2 + 1 y_16_ ^ 2 ] <= 101913
c116_1: 58 x_17_ + 40 y_17_ + [ 1 x_17_ ^ 2 + 1 y_17_ ^ 2 ] <= 34510
c117_1: 58 x_18_ + 40 y_18_ + [ 1 x_18_ ^ 2 + 1 y_18_ ^ 2 ] <= 44711
c118_1: 58 x_19_ + 40 y_19_ + [ 1 x_19_ ^ 2 + 1 y_19_ ^ 2 ] <= 152228
c119_1: 58 x_20_ + 40 y_20_ + [ 1 x_20_ ^ 2 + 1 y_20_ ^ 2 ] <= 77979
c120_1: 58 x_21_ + 40 y_21_ + [ 1 x_21_ ^ 2 + 1 y_21_ ^ 2 ] <= 68460
c121_1: 58 x_22_ + 40 y_22_ + [ 1 x_22_ ^ 2 + 1 y_22_ ^ 2 ] <= 54228
c122_1: 58 x_23_ + 40 y_23_ + [ 1 x_23_ ^ 2 + 1 y_23_ ^ 2 ] <= 104460
c123_1: 58 x_24_ + 40 y_24_ + [ 1 x_24_ ^ 2 + 1 y_24_ ^ 2 ] <= 71399
c124_1: 58 x_25_ + 40 y_25_ + [ 1 x_25_ ^ 2 + 1 y_25_ ^ 2 ] <= 72259
c125_1: 58 x_26_ + 40 y_26_ + [ 1 x_26_ ^ 2 + 1 y_26_ ^ 2 ] <= 122883
c126_1: 58 x_27_ + 40 y_27_ + [ 1 x_27_ ^ 2 + 1 y_27_ ^ 2 ] <= 65372
c127_1: 58 x_28_ + 40 y_28_ + [ 1 x_28_ ^ 2 + 1 y_28_ ^ 2 ] <= 135644
c128_1: 58 x_29_ + 40 y_29_ + [ 1 x_29_ ^ 2 + 1 y_29_ ^ 2 ] <= 9255
c129_1: 58 x_30_ + 40 y_30_ + [ 1 x_30_ ^ 2 + 1 y_30_ ^ 2 ] <= 51712
c130_1: 58 x_31_ + 40 y_31_ + [ 1 x_31_ ^ 2 + 1 y_31_ ^ 2 ] <= 114260
c131_1: 58 x_32_ + 40 y_32_ + [ 1 x_32_ ^ 2 + 1 y_32_ ^ 2 ] <= 96289
c132_1: 58 x_33_ + 40 y_33_ + [ 1 x_33_ ^ 2 + 1 y_33_ ^ 2 ] <= 188559
c133_1: 58 x_34_ + 40 y_34_ + [ 1 x_34_ ^ 2 + 1 y_34_ ^ 2 ] <= 146795
c134_1: 58 x_35_ + 40 y_35_ + [ 1 x_35_ ^ 2 + 1 y_35_ ^ 2 ] <= 159149
c135_1: 58 x_36_ + 40 y_36_ + [ 1 x_36_ ^ 2 + 1 y_36_ ^ 2 ] <= 80923
c136_1: 58 x_37_ + 40 y_37_ + [ 1 x_37_ ^ 2 + 1 y_37_ ^ 2 ] <= 96147
c137_1: 58 x_38_ + 40 y_38_ + [ 1 x_38_ ^ 2 + 1 y_38_ ^ 2 ] <= 147182
c138_1: 58 x_39_ + 40 y_39_ + [ 1 x_39_ ^ 2 + 1 y_39_ ^ 2 ] <= 132603
c139_1: 58 x_40_ + 40 y_40_ + [ 1 x_40_ ^ 2 + 1 y_40_ ^ 2 ] <= 61291
c140_1: 58 x_41_ + 40 y_41_ + [ 1 x_41_ ^ 2 + 1 y_41_ ^ 2 ] <= 79724
c141_1: 58 x_42_ + 40 y_42_ + [ 1 x_42_ ^ 2 + 1 y_42_ ^ 2 ] <= 142802
c142_1: 58 x_43_ + 40 y_43_ + [ 1 x_43_ ^ 2 + 1 y_43_ ^ 2 ] <= 148975
c143_1: 58 x_44_ + 40 y_44_ + [ 1 x_44_ ^ 2 + 1 y_44_ ^ 2 ] <= 140397
c144_1: 58 x_45_ + 40 y_45_ + [ 1 x_45_ ^ 2 + 1 y_45_ ^ 2 ] <= 146352
c145_1: 58 x_46_ + 40 y_46_ + [ 1 x_46_ ^ 2 + 1 y_46_ ^ 2 ] <= 133726
c146_1: 58 x_47_ + 40 y_47_ + [ 1 x_47_ ^ 2 + 1 y_47_ ^ 2 ] <= 178451
c147_1: 58 x_48_ + 40 y_48_ + [ 1 x_48_ ^ 2 + 1 y_48_ ^ 2 ] <= 59234
c148_1: 58 x_49_ + 40 y_49_ + [ 1 x_49_ ^ 2 + 1 y_49_ ^ 2 ] <= 110352
c149_1: 58 x_50_ + 40 y_50_ + [ 1 x_50_ ^ 2 + 1 y_50_ ^ 2 ] <= 64384
c150_1: 58 x_51_ + 40 y_51_ + [ 1 x_51_ ^ 2 + 1 y_51_ ^ 2 ] <= 153820
c151_1: 58 x_52_ + 40 y_52_ + [ 1 x_52_ ^ 2 + 1 y_52_ ^ 2 ] <= 132924
c152_1: 58 x_53_ + 40 y_53_ + [ 1 x_53_ ^ 2 + 1 y_53_ ^ 2 ] <= 21391
c153_1: 58 x_54_ + 40 y_54_ + [ 1 x_54_ ^ 2 + 1 y_54_ ^ 2 ] <= 76983
c154_1: 58 x_55_ + 40 y_55_ + [ 1 x_55_ ^ 2 + 1 y_55_ ^ 2 ] <= 94216
c155_1: 58 x_56_ + 40 y_56_ + [ 1 x_56_ ^ 2 + 1 y_56_ ^ 2 ] <= 98355
c156_1: 58 x_57_ + 40 y_57_ + [ 1 x_57_ ^ 2 + 1 y_57_ ^ 2 ] <= 213494
c157_1: 58 x_58_ + 40 y_58_ + [ 1 x_58_ ^ 2 + 1 y_58_ ^ 2 ] <= 107369
c158_1: 58 x_59_ + 40 y_59_ + [ 1 x_59_ ^ 2 + 1 y_59_ ^ 2 ] <= 81667
c159_1: 58 x_60_ + 40 y_60_ + [ 1 x_60_ ^ 2 + 1 y_60_ ^ 2 ] <= 114968
c160_1: 58 x_61_ + 40 y_61_ + [ 1 x_61_ ^ 2 + 1 y_61_ ^ 2 ] <= 67402
c161_1: 58 x_62_ + 40 y_62_ + [ 1 x_62_ ^ 2 + 1 y_62_ ^ 2 ] <= 57319
c162_1: 58 x_63_ + 40 y_63_ + [ 1 x_63_ ^ 2 + 1 y_63_ ^ 2 ] <= 206990
c163_1: 58 x_64_ + 40 y_64_ + [ 1 x_64_ ^ 2 + 1 y_64_ ^ 2 ] <= 69292
c164_1: 58 x_65_ + 40 y_65_ + [ 1 x_65_ ^ 2 + 1 y_65_ ^ 2 ] <= 211156
c165_1: 58 x_66_ + 40 y_66_ + [ 1 x_66_ ^ 2 + 1 y_66_ ^ 2 ] <= 158372
c166_1: 58 x_67_ + 40 y_67_ + [ 1 x_67_ ^ 2 + 1 y_67_ ^ 2 ] <= 93474
c167_1: 58 x_68_ + 40 y_68_ + [ 1 x_68_ ^ 2 + 1 y_68_ ^ 2 ] <= 28302
c168_1: 58 x_69_ + 40 y_69_ + [ 1 x_69_ ^ 2 + 1 y_69_ ^ 2 ] <= 185501
c169_1: 58 x_70_ + 40 y_70_ + [ 1 x_70_ ^ 2 + 1 y_70_ ^ 2 ] <= 139293
c170_1: 58 x_71_ + 40 y_71_ + [ 1 x_71_ ^ 2 + 1 y_71_ ^ 2 ] <= 44012
c171_1: 58 x_72_ + 40 y_72_ + [ 1 x_72_ ^ 2 + 1 y_72_ ^ 2 ] <= 133695
c172_1: 58 x_73_ + 40 y_73_ + [ 1 x_73_ ^ 2 + 1 y_73_ ^ 2 ] <= 59058
c173_1: 58 x_74_ + 40 y_74_ + [ 1 x_74_ ^ 2 + 1 y_74_ ^ 2 ] <= 113740
c174_1: 58 x_75_ + 40 y_75_ + [ 1 x_75_ ^ 2 + 1 y_75_ ^ 2 ] <= 103394
c175_1: 58 x_76_ + 40 y_76_ + [ 1 x_76_ ^ 2 + 1 y_76_ ^ 2 ] <= 7017
c176_1: 58 x_77_ + 40 y_77_ + [ 1 x_77_ ^ 2 + 1 y_77_ ^ 2 ] <= 125167
c177_1: 58 x_78_ + 40 y_78_ + [ 1 x_78_ ^ 2 + 1 y_78_ ^ 2 ] <= 48088
c178_1: 58 x_79_ + 40 y_79_ + [ 1 x_79_ ^ 2 + 1 y_79_ ^ 2 ] <= 130229
c179_1: 58 x_80_ + 40 y_80_ + [ 1 x_80_ ^ 2 + 1 y_80_ ^ 2 ] <= 118433
c180_1: 58 x_81_ + 40 y_81_ + [ 1 x_81_ ^ 2 + 1 y_81_ ^ 2 ] <= 106698
c181_1: 58 x_82_ + 40 y_82_ + [ 1 x_82_ ^ 2 + 1 y_82_ ^ 2 ] <= 98821
c182_1: 58 x_83_ + 40 y_83_ + [ 1 x_83_ ^ 2 + 1 y_83_ ^ 2 ] <= 80182
c183_1: 58 x_84_ + 40 y_84_ + [ 1 x_84_ ^ 2 + 1 y_84_ ^ 2 ] <= 78067
c184_1: 58 x_85_ + 40 y_85_ + [ 1 x_85_ ^ 2 + 1 y_85_ ^ 2 ] <= 164857
c185_1: 58 x_86_ + 40 y_86_ + [ 1 x_86_ ^ 2 + 1 y_86_ ^ 2 ] <= 230024
c186_1: 58 x_87_ + 40 y_87_ + [ 1 x_87_ ^ 2 + 1 y_87_ ^ 2 ] <= 112529
c187_1: 58 x_88_ + 40 y_88_ + [ 1 x_88_ ^ 2 + 1 y_88_ ^ 2 ] <= 151910
c188_1: 58 x_89_ + 40 y_89_ + [ 1 x_89_ ^ 2 + 1 y_89_ ^ 2 ] <= 190128
c189_1: 58 x_91_ + 40 y_91_ + [ 1 x_91_ ^ 2 + 1 y_91_ ^ 2 ] <= 68650
c190_1: 58 x_92_ + 40 y_92_ + [ 1 x_92_ ^ 2 + 1 y_92_ ^ 2 ] <= 169530
c191_1: 58 x_93_ + 40 y_93_ + [ 1 x_93_ ^ 2 + 1 y_93_ ^ 2 ] <= 144191
c192_1: 58 x_94_ + 40 y_94_ + [ 1 x_94_ ^ 2 + 1 y_94_ ^ 2 ] <= 33740
c193_1: 58 x_95_ + 40 y_95_ + [ 1 x_95_ ^ 2 + 1 y_95_ ^ 2 ] <= 179017
c194_1: 58 x_96_ + 40 y_96_ + [ 1 x_96_ ^ 2 + 1 y_96_ ^ 2 ] <= 108895
c195_1: 58 x_97_ + 40 y_97_ + [ 1 x_97_ ^ 2 + 1 y_97_ ^ 2 ] <= 58779
c196_1: 58 x_98_ + 40 y_98_ + [ 1 x_98_ ^ 2 + 1 y_98_ ^ 2 ] <= 82734
c197_1: 58 x_99_ + 40 y_99_ + [ 1 x_99_ ^ 2 + 1 y_99_ ^ 2 ] <= 132240
c198_1: 58 x_100_ + 40 y_100_ + [ 1 x_100_ ^ 2 + 1 y_100_ ^ 2 ] <= 110143
c199: -130 x_1_ - 52 y_1_ + [ 1 x_1_ ^ 2 + 1 y_1_ ^ 2 ] <= 158512
c200: -130 x_2_ - 52 y_2_ + [ 1 x_2_ ^ 2 + 1 y_2_ ^ 2 ] <= 99398
c201: -130 x_3_ - 52 y_3_ + [ 1 x_3_ ^ 2 + 1 y_3_ ^ 2 ] <= 24165
c202: -130 x_4_ - 52 y_4_ + [ 1 x_4_ ^ 2 + 1 y_4_ ^ 2 ] <= 50191
c203: -130 x_5_ - 52 y_5_ + [ 1 x_5_ ^ 2 + 1 y_5_ ^ 2 ] <= 148454
c204: -130 x_6_ - 52 y_6_ + [ 1 x_6_ ^ 2 + 1 y_6_ ^ 2 ] <= 105102
c205: -130 x_7_ - 52 y_7_ + [ 1 x_7_ ^ 2 + 1 y_7_ ^ 2 ] <= 65426
c206: -130 x_8_ - 52 y_8_ + [ 1 x_8_ ^ 2 + 1 y_8_ ^ 2 ] <= 79025
c207: -130 x_9_ - 52 y_9_ + [ 1 x_9_ ^ 2 + 1 y_9_ ^ 2 ] <= 107584
c208: -130 x_10_ - 52 y_10_ + [ 1 x_10_ ^ 2 + 1 y_10_ ^ 2 ] <= 77392
c209: -130 x_11_ - 52 y_11_ + [ 1 x_11_ ^ 2 + 1 y_11_ ^ 2 ] <= 244577
c210: -130 x_12_ - 52 y_12_ + [ 1 x_12_ ^ 2 + 1 y_12_ ^ 2 ] <= 105438
c211: -130 x_13_ - 52 y_13_ + [ 1 x_13_ ^ 2 + 1 y_13_ ^ 2 ] <= 69882
c212: -130 x_14_ - 52 y_14_ + [ 1 x_14_ ^ 2 + 1 y_14_ ^ 2 ] <= 96875
c213: -130 x_15_ - 52 y_15_ + [ 1 x_15_ ^ 2 + 1 y_15_ ^ 2 ] <= 76188
c214: -130 x_16_ - 52 y_16_ + [ 1 x_16_ ^ 2 + 1 y_16_ ^ 2 ] <= 70422
c215: -130 x_17_ - 52 y_17_ + [ 1 x_17_ ^ 2 + 1 y_17_ ^ 2 ] <= 36011
c216: -130 x_18_ - 52 y_18_ + [ 1 x_18_ ^ 2 + 1 y_18_ ^ 2 ] <= 76795
c217: -130 x_19_ - 52 y_19_ + [ 1 x_19_ ^ 2 + 1 y_19_ ^ 2 ] <= 159076
c218: -130 x_20_ - 52 y_20_ + [ 1 x_20_ ^ 2 + 1 y_20_ ^ 2 ] <= 69395
c219: -130 x_21_ - 52 y_21_ + [ 1 x_21_ ^ 2 + 1 y_21_ ^ 2 ] <= 128176
c220: -130 x_22_ - 52 y_22_ + [ 1 x_22_ ^ 2 + 1 y_22_ ^ 2 ] <= 30741
c221: -130 x_23_ - 52 y_23_ + [ 1 x_23_ ^ 2 + 1 y_23_ ^ 2 ] <= 91556
c222: -130 x_24_ - 52 y_24_ + [ 1 x_24_ ^ 2 + 1 y_24_ ^ 2 ] <= 19060
c223: -130 x_25_ - 52 y_25_ + [ 1 x_25_ ^ 2 + 1 y_25_ ^ 2 ] <= 43824
c224: -130 x_26_ - 52 y_26_ + [ 1 x_26_ ^ 2 + 1 y_26_ ^ 2 ] <= 47912
c225: -130 x_27_ - 52 y_27_ + [ 1 x_27_ ^ 2 + 1 y_27_ ^ 2 ] <= 63974
c226: -130 x_28_ - 52 y_28_ + [ 1 x_28_ ^ 2 + 1 y_28_ ^ 2 ] <= 135162
c227: -130 x_29_ - 52 y_29_ + [ 1 x_29_ ^ 2 + 1 y_29_ ^ 2 ] <= 213279
c228: -130 x_30_ - 52 y_30_ + [ 1 x_30_ ^ 2 + 1 y_30_ ^ 2 ] <= 54296
c229: -130 x_31_ - 52 y_31_ + [ 1 x_31_ ^ 2 + 1 y_31_ ^ 2 ] <= 161728
c230: -130 x_32_ - 52 y_32_ + [ 1 x_32_ ^ 2 + 1 y_32_ ^ 2 ] <= 69372
c231: -130 x_33_ - 52 y_33_ + [ 1 x_33_ ^ 2 + 1 y_33_ ^ 2 ] <= 159048
c232: -130 x_34_ - 52 y_34_ + [ 1 x_34_ ^ 2 + 1 y_34_ ^ 2 ] <= 203231
c233: -130 x_35_ - 52 y_35_ + [ 1 x_35_ ^ 2 + 1 y_35_ ^ 2 ] <= 131801
c234: -130 x_36_ - 52 y_36_ + [ 1 x_36_ ^ 2 + 1 y_36_ ^ 2 ] <= 123336
c235: -130 x_37_ - 52 y_37_ + [ 1 x_37_ ^ 2 + 1 y_37_ ^ 2 ] <= 87019
c236: -130 x_38_ - 52 y_38_ + [ 1 x_38_ ^ 2 + 1 y_38_ ^ 2 ] <= 149060
c237: -130 x_39_ - 52 y_39_ + [ 1 x_39_ ^ 2 + 1 y_39_ ^ 2 ] <= 94624
c238: -130 x_40_ - 52 y_40_ + [ 1 x_40_ ^ 2 + 1 y_40_ ^ 2 ] <= 159648
c239: -130 x_41_ - 52 y_41_ + [ 1 x_41_ ^ 2 + 1 y_41_ ^ 2 ] <= 120749
c240: -130 x_42_ - 52 y_42_ + [ 1 x_42_ ^ 2 + 1 y_42_ ^ 2 ] <= 136119
c241: -130 x_43_ - 52 y_43_ + [ 1 x_43_ ^ 2 + 1 y_43_ ^ 2 ] <= 155712
c242: -130 x_44_ - 52 y_44_ + [ 1 x_44_ ^ 2 + 1 y_44_ ^ 2 ] <= 146838
c243: -130 x_45_ - 52 y_45_ + [ 1 x_45_ ^ 2 + 1 y_45_ ^ 2 ] <= 205327
c244: -130 x_46_ - 52 y_46_ + [ 1 x_46_ ^ 2 + 1 y_46_ ^ 2 ] <= 90085
c245: -130 x_47_ - 52 y_47_ + [ 1 x_47_ ^ 2 + 1 y_47_ ^ 2 ] <= 134623
c246: -130 x_48_ - 52 y_48_ + [ 1 x_48_ ^ 2 + 1 y_48_ ^ 2 ] <= 156301
c247: -130 x_49_ - 52 y_49_ + [ 1 x_49_ ^ 2 + 1 y_49_ ^ 2 ] <= 3245
c248: -130 x_50_ - 52 y_50_ + [ 1 x_50_ ^ 2 + 1 y_50_ ^ 2 ] <= 164643
c249: -130 x_51_ - 52 y_51_ + [ 1 x_51_ ^ 2 + 1 y_51_ ^ 2 ] <= 218080
c250: -130 x_52_ - 52 y_52_ + [ 1 x_52_ ^ 2 + 1 y_52_ ^ 2 ] <= 157345
c251: -130 x_53_ - 52 y_53_ + [ 1 x_53_ ^ 2 + 1 y_53_ ^ 2 ] <= 88749
c252: -130 x_54_ - 52 y_54_ + [ 1 x_54_ ^ 2 + 1 y_54_ ^ 2 ] <= 43721
c253: -130 x_55_ - 52 y_55_ + [ 1 x_55_ ^ 2 + 1 y_55_ ^ 2 ] <= 61967
c254: -130 x_56_ - 52 y_56_ + [ 1 x_56_ ^ 2 + 1 y_56_ ^ 2 ] <= 138876
c255: -130 x_57_ - 52 y_57_ + [ 1 x_57_ ^ 2 + 1 y_57_ ^ 2 ] <= 196322
c256: -130 x_58_ - 52 y_58_ + [ 1 x_58_ ^ 2 + 1 y_58_ ^ 2 ] <= 94168
c257: -130 x_59_ - 52 y_59_ + [ 1 x_59_ ^ 2 + 1 y_59_ ^ 2 ] <= 66689
c258: -130 x_60_ - 52 y_60_ + [ 1 x_60_ ^ 2 + 1 y_60_ ^ 2 ] <= 18240
c259: -130 x_61_ - 52 y_61_ + [ 1 x_61_ ^ 2 + 1 y_61_ ^ 2 ] <= 138092
c260: -130 x_62_ - 52 y_62_ + [ 1 x_62_ ^ 2 + 1 y_62_ ^ 2 ] <= 143130
c261: -130 x_63_ - 52 y_63_ + [ 1 x_63_ ^ 2 + 1 y_63_ ^ 2 ] <= 190035
c262: -130 x_64_ - 52 y_64_ + [ 1 x_64_ ^ 2 + 1 y_64_ ^ 2 ] <= 10916
c263: -130 x_65_ - 52 y_65_ + [ 1 x_65_ ^ 2 + 1 y_65_ ^ 2 ] <= 121269
c264: -130 x_66_ - 52 y_66_ + [ 1 x_66_ ^ 2 + 1 y_66_ ^ 2 ] <= 208772
c265: -130 x_67_ - 52 y_67_ + [ 1 x_67_ ^ 2 + 1 y_67_ ^ 2 ] <= 29419
c266: -130 x_68_ - 52 y_68_ + [ 1 x_68_ ^ 2 + 1 y_68_ ^ 2 ] <= 98228
c267: -130 x_69_ - 52 y_69_ + [ 1 x_69_ ^ 2 + 1 y_69_ ^ 2 ] <= 169262
c268: -130 x_70_ - 52 y_70_ + [ 1 x_70_ ^ 2 + 1 y_70_ ^ 2 ] <= 102782
c269: -130 x_71_ - 52 y_71_ + [ 1 x_71_ ^ 2 + 1 y_71_ ^ 2 ] <= 111587
c270: -130 x_72_ - 52 y_72_ + [ 1 x_72_ ^ 2 + 1 y_72_ ^ 2 ] <= 126144
c271: -130 x_73_ - 52 y_73_ + [ 1 x_73_ ^ 2 + 1 y_73_ ^ 2 ] <= 100068
c272: -130 x_74_ - 52 y_74_ + [ 1 x_74_ ^ 2 + 1 y_74_ ^ 2 ] <= 155237
c273: -130 x_75_ - 52 y_75_ + [ 1 x_75_ ^ 2 + 1 y_75_ ^ 2 ] <= 147335
c274: -130 x_76_ - 52 y_76_ + [ 1 x_76_ ^ 2 + 1 y_76_ ^ 2 ] <= 106279
c275: -130 x_77_ - 52 y_77_ + [ 1 x_77_ ^ 2 + 1 y_77_ ^ 2 ] <= 96158
c276: -130 x_78_ - 52 y_78_ + [ 1 x_78_ ^ 2 + 1 y_78_ ^ 2 ] <= 35987
c277: -130 x_79_ - 52 y_79_ + [ 1 x_79_ ^ 2 + 1 y_79_ ^ 2 ] <= 179388
c278: -130 x_80_ - 52 y_80_ + [ 1 x_80_ ^ 2 + 1 y_80_ ^ 2 ] <= 73948
c279: -130 x_81_ - 52 y_81_ + [ 1 x_81_ ^ 2 + 1 y_81_ ^ 2 ] <= 66294
c280: -130 x_82_ - 52 y_82_ + [ 1 x_82_ ^ 2 + 1 y_82_ ^ 2 ] <= 59220
c281: -130 x_83_ - 52 y_83_ + [ 1 x_83_ ^ 2 + 1 y_83_ ^ 2 ] <= 65565
c282: -130 x_84_ - 52 y_84_ + [ 1 x_84_ ^ 2 + 1 y_84_ ^ 2 ] <= 50272
c283: -130 x_85_ - 52 y_85_ + [ 1 x_85_ ^ 2 + 1 y_85_ ^ 2 ] <= 80845
c284: -130 x_86_ - 52 y_86_ + [ 1 x_86_ ^ 2 + 1 y_86_ ^ 2 ] <= 209929
c285: -130 x_87_ - 52 y_87_ + [ 1 x_87_ ^ 2 + 1 y_87_ ^ 2 ] <= 151279
c286: -130 x_89_ - 52 y_89_ + [ 1 x_89_ ^ 2 + 1 y_89_ ^ 2 ] <= 287527
c287: -130 x_90_ - 52 y_90_ + [ 1 x_90_ ^ 2 + 1 y_90_ ^ 2 ] <= 148250
c288: -130 x_91_ - 52 y_91_ + [ 1 x_91_ ^ 2 + 1 y_91_ ^ 2 ] <= 139456
c289: -130 x_92_ - 52 y_92_ + [ 1 x_92_ ^ 2 + 1 y_92_ ^ 2 ] <= 137979
c290: -130 x_93_ - 52 y_93_ + [ 1 x_93_ ^ 2 + 1 y_93_ ^ 2 ] <= 126377
c291: -130 x_94_ - 52 y_94_ + [ 1 x_94_ ^ 2 + 1 y_94_ ^ 2 ] <= 200408
c292: -130 x_95_ - 52 y_95_ + [ 1 x_95_ ^ 2 + 1 y_95_ ^ 2 ] <= 179002
c293: -130 x_96_ - 52 y_96_ + [ 1 x_96_ ^ 2 + 1 y_96_ ^ 2 ] <= 126796
c294: -130 x_97_ - 52 y_97_ + [ 1 x_97_ ^ 2 + 1 y_97_ ^ 2 ] <= 56616
c295: -130 x_98_ - 52 y_98_ + [ 1 x_98_ ^ 2 + 1 y_98_ ^ 2 ] <= 87448
c296: -130 x_99_ - 52 y_99_ + [ 1 x_99_ ^ 2 + 1 y_99_ ^ 2 ] <= 54075
c297: -130 x_100_ - 52 y_100_ + [ 1 x_100_ ^ 2 + 1 y_100_ ^ 2 ] <= 115460
c1_2: 1 x_54_ = -79
c2_2: 1 y_54_ = -81
c3_2: 1 x_90_ = -29
c4_2: 1 y_90_ = -20
c5_2: 1 x_88_ = 65
c6_2: 1 y_88_ = 26
c1: [ 1 x_4_ ^ 2 - 2 x_6_ * x_4_ + 1 x_6_ ^ 2 + 1 y_4_ ^ 2 - 2 y_6_ * y_4_ + 1 y_6_ ^ 2 ] = 22970
c2: [ 1 x_2_ ^ 2 - 2 x_7_ * x_2_ + 1 x_7_ ^ 2 + 1 y_2_ ^ 2 - 2 y_7_ * y_2_ + 1 y_7_ ^ 2 ] = 8653
c3: [ 1 x_3_ ^ 2 - 2 x_7_ * x_3_ + 1 x_7_ ^ 2 + 1 y_3_ ^ 2 - 2 y_7_ * y_3_ + 1 y_7_ ^ 2 ] = 8969
c4: [ 1 x_4_ ^ 2 - 2 x_8_ * x_4_ + 1 x_8_ ^ 2 + 1 y_4_ ^ 2 - 2 y_8_ * y_4_ + 1 y_8_ ^ 2 ] = 22345
c5: [ 1 x_7_ ^ 2 - 2 x_9_ * x_7_ + 1 x_9_ ^ 2 + 1 y_7_ ^ 2 - 2 y_9_ * y_7_ + 1 y_9_ ^ 2 ] = 13010
c6: [ 1 x_1_ ^ 2 - 2 x_11_ * x_1_ + 1 x_11_ ^ 2 + 1 y_1_ ^ 2 - 2 y_11_ * y_1_ + 1 y_11_ ^ 2 ] = 23893
c7: [ 1 x_2_ ^ 2 - 2 x_12_ * x_2_ + 1 x_12_ ^ 2 + 1 y_2_ ^ 2 - 2 y_12_ * y_2_ + 1 y_12_ ^ 2 ] = 85
c8: [ 1 x_1_ ^ 2 - 2 x_15_ * x_1_ + 1 x_15_ ^ 2 + 1 y_1_ ^ 2 - 2 y_15_ * y_1_ + 1 y_15_ ^ 2 ] = 18896
c9: [ 1 x_8_ ^ 2 - 2 x_16_ * x_8_ + 1 x_16_ ^ 2 + 1 y_8_ ^ 2 - 2 y_16_ * y_8_ + 1 y_16_ ^ 2 ] = 2105
c10: [ 1 x_3_ ^ 2 - 2 x_17_ * x_3_ + 1 x_17_ ^ 2 + 1 y_3_ ^ 2 - 2 y_17_ * y_3_ + 1 y_17_ ^ 2 ] = 1010
c11: [ 1 x_13_ ^ 2 - 2 x_17_ * x_13_ + 1 x_17_ ^ 2 + 1 y_13_ ^ 2 - 2 y_17_ * y_13_ + 1 y_17_ ^ 2 ] = 5069
c12: [ 1 x_14_ ^ 2 - 2 x_17_ * x_14_ + 1 x_17_ ^ 2 + 1 y_14_ ^ 2 - 2 y_17_ * y_14_ + 1 y_17_ ^ 2 ] = 15794
c13: [ 1 x_4_ ^ 2 - 2 x_18_ * x_4_ + 1 x_18_ ^ 2 + 1 y_4_ ^ 2 - 2 y_18_ * y_4_ + 1 y_18_ ^ 2 ] = 2612
c14: [ 1 x_8_ ^ 2 - 2 x_18_ * x_8_ + 1 x_18_ ^ 2 + 1 y_8_ ^ 2 - 2 y_18_ * y_8_ + 1 y_18_ ^ 2 ] = 11221
c15: [ 1 x_2_ ^ 2 - 2 x_19_ * x_2_ + 1 x_19_ ^ 2 + 1 y_2_ ^ 2 - 2 y_19_ * y_2_ + 1 y_19_ ^ 2 ] = 6722
c16: [ 1 x_9_ ^ 2 - 2 x_19_ * x_9_ + 1 x_19_ ^ 2 + 1 y_9_ ^ 2 - 2 y_19_ * y_9_ + 1 y_19_ ^ 2 ] = 15845
c17: [ 1 x_4_ ^ 2 - 2 x_20_ * x_4_ + 1 x_20_ ^ 2 + 1 y_4_ ^ 2 - 2 y_20_ * y_4_ + 1 y_20_ ^ 2 ] = 1433
c18: [ 1 x_1_ ^ 2 - 2 x_21_ * x_1_ + 1 x_21_ ^ 2 + 1 y_1_ ^ 2 - 2 y_21_ * y_1_ + 1 y_21_ ^ 2 ] = 1556
c19: [ 1 x_16_ ^ 2 - 2 x_23_ * x_16_ + 1 x_23_ ^ 2 + 1 y_16_ ^ 2 - 2 y_23_ * y_16_ + 1 y_23_ ^ 2 ] = 1305
c20: [ 1 x_20_ ^ 2 - 2 x_23_ * x_20_ + 1 x_23_ ^ 2 + 1 y_20_ ^ 2 - 2 y_23_ * y_20_ + 1 y_23_ ^ 2 ] = 1906
c21: [ 1 x_10_ ^ 2 - 2 x_24_ * x_10_ + 1 x_24_ ^ 2 + 1 y_10_ ^ 2 - 2 y_24_ * y_10_ + 1 y_24_ ^ 2 ] = 17444
c22: [ 1 x_22_ ^ 2 - 2 x_24_ * x_22_ + 1 x_24_ ^ 2 + 1 y_22_ ^ 2 - 2 y_24_ * y_22_ + 1 y_24_ ^ 2 ] = 1156
c23: [ 1 x_3_ ^ 2 - 2 x_25_ * x_3_ + 1 x_25_ ^ 2 + 1 y_3_ ^ 2 - 2 y_25_ * y_3_ + 1 y_25_ ^ 2 ] = 2525
c24: [ 1 x_8_ ^ 2 - 2 x_25_ * x_8_ + 1 x_25_ ^ 2 + 1 y_8_ ^ 2 - 2 y_25_ * y_8_ + 1 y_25_ ^ 2 ] = 4756
c25: [ 1 x_22_ ^ 2 - 2 x_26_ * x_22_ + 1 x_26_ ^ 2 + 1 y_22_ ^ 2 - 2 y_26_ * y_22_ + 1 y_26_ ^ 2 ] = 16081
c26: [ 1 x_6_ ^ 2 - 2 x_27_ * x_6_ + 1 x_27_ ^ 2 + 1 y_6_ ^ 2 - 2 y_27_ * y_6_ + 1 y_27_ ^ 2 ] = 19962
c27: [ 1 x_24_ ^ 2 - 2 x_27_ * x_24_ + 1 x_27_ ^ 2 + 1 y_24_ ^ 2 - 2 y_27_ * y_24_ + 1 y_27_ ^ 2 ] = 11588
c28: [ 1 x_11_ ^ 2 - 2 x_28_ * x_11_ + 1 x_28_ ^ 2 + 1 y_11_ ^ 2 - 2 y_28_ * y_11_ + 1 y_28_ ^ 2 ] = 15682
c29: [ 1 x_14_ ^ 2 - 2 x_28_ * x_14_ + 1 x_28_ ^ 2 + 1 y_14_ ^ 2 - 2 y_28_ * y_14_ + 1 y_28_ ^ 2 ] = 3050
c30: [ 1 x_2_ ^ 2 - 2 x_30_ * x_2_ + 1 x_30_ ^ 2 + 1 y_2_ ^ 2 - 2 y_30_ * y_2_ + 1 y_30_ ^ 2 ] = 6344
c31: [ 1 x_6_ ^ 2 - 2 x_30_ * x_6_ + 1 x_30_ ^ 2 + 1 y_6_ ^ 2 - 2 y_30_ * y_6_ + 1 y_30_ ^ 2 ] = 7808
c32: [ 1 x_17_ ^ 2 - 2 x_30_ * x_17_ + 1 x_30_ ^ 2 + 1 y_17_ ^ 2 - 2 y_30_ * y_17_ + 1 y_30_ ^ 2 ] = 1684
c33: [ 1 x_21_ ^ 2 - 2 x_32_ * x_21_ + 1 x_32_ ^ 2 + 1 y_21_ ^ 2 - 2 y_32_ * y_21_ + 1 y_32_ ^ 2 ] = 8513
c34: [ 1 x_26_ ^ 2 - 2 x_32_ * x_26_ + 1 x_32_ ^ 2 + 1 y_26_ ^ 2 - 2 y_32_ * y_26_ + 1 y_32_ ^ 2 ] = 1825
c35: [ 1 x_27_ ^ 2 - 2 x_32_ * x_27_ + 1 x_32_ ^ 2 + 1 y_27_ ^ 2 - 2 y_32_ * y_27_ + 1 y_32_ ^ 2 ] = 2938
c36: [ 1 x_4_ ^ 2 - 2 x_33_ * x_4_ + 1 x_33_ ^ 2 + 1 y_4_ ^ 2 - 2 y_33_ * y_4_ + 1 y_33_ ^ 2 ] = 28964
c37: [ 1 x_11_ ^ 2 - 2 x_33_ * x_11_ + 1 x_33_ ^ 2 + 1 y_11_ ^ 2 - 2 y_33_ * y_11_ + 1 y_33_ ^ 2 ] = 22304
c38: [ 1 x_11_ ^ 2 - 2 x_34_ * x_11_ + 1 x_34_ ^ 2 + 1 y_11_ ^ 2 - 2 y_34_ * y_11_ + 1 y_34_ ^ 2 ] = 14290
c39: [ 1 x_28_ ^ 2 - 2 x_34_ * x_28_ + 1 x_34_ ^ 2 + 1 y_28_ ^ 2 - 2 y_34_ * y_28_ + 1 y_34_ ^ 2 ] = 11636
c40: [ 1 x_1_ ^ 2 - 2 x_35_ * x_1_ + 1 x_35_ ^ 2 + 1 y_1_ ^ 2 - 2 y_35_ * y_1_ + 1 y_35_ ^ 2 ] = 34130
c41: [ 1 x_4_ ^ 2 - 2 x_35_ * x_4_ + 1 x_35_ ^ 2 + 1 y_4_ ^ 2 - 2 y_35_ * y_4_ + 1 y_35_ ^ 2 ] = 18229
c42: [ 1 x_18_ ^ 2 - 2 x_36_ * x_18_ + 1 x_36_ ^ 2 + 1 y_18_ ^ 2 - 2 y_36_ * y_18_ + 1 y_36_ ^ 2 ] = 5224
c43: [ 1 x_34_ ^ 2 - 2 x_36_ * x_34_ + 1 x_36_ ^ 2 + 1 y_34_ ^ 2 - 2 y_36_ * y_34_ + 1 y_36_ ^ 2 ] = 9626
c44: [ 1 x_19_ ^ 2 - 2 x_37_ * x_19_ + 1 x_37_ ^ 2 + 1 y_19_ ^ 2 - 2 y_37_ * y_19_ + 1 y_37_ ^ 2 ] = 25826
c45: [ 1 x_20_ ^ 2 - 2 x_37_ * x_20_ + 1 x_37_ ^ 2 + 1 y_20_ ^ 2 - 2 y_37_ * y_20_ + 1 y_37_ ^ 2 ] = 937
c46: [ 1 x_2_ ^ 2 - 2 x_38_ * x_2_ + 1 x_38_ ^ 2 + 1 y_2_ ^ 2 - 2 y_38_ * y_2_ + 1 y_38_ ^ 2 ] = 13325
c47: [ 1 x_14_ ^ 2 - 2 x_38_ * x_14_ + 1 x_38_ ^ 2 + 1 y_14_ ^ 2 - 2 y_38_ * y_14_ + 1 y_38_ ^ 2 ] = 5381
c48: [ 1 x_36_ ^ 2 - 2 x_38_ * x_36_ + 1 x_38_ ^ 2 + 1 y_36_ ^ 2 - 2 y_38_ * y_36_ + 1 y_38_ ^ 2 ] = 9725
c49: [ 1 x_31_ ^ 2 - 2 x_39_ * x_31_ + 1 x_39_ ^ 2 + 1 y_31_ ^ 2 - 2 y_39_ * y_31_ + 1 y_39_ ^ 2 ] = 11833
c50: [ 1 x_4_ ^ 2 - 2 x_41_ * x_4_ + 1 x_41_ ^ 2 + 1 y_4_ ^ 2 - 2 y_41_ * y_4_ + 1 y_41_ ^ 2 ] = 14341
c51: [ 1 x_18_ ^ 2 - 2 x_41_ * x_18_ + 1 x_41_ ^ 2 + 1 y_18_ ^ 2 - 2 y_41_ * y_18_ + 1 y_41_ ^ 2 ] = 4925
c52: [ 1 x_23_ ^ 2 - 2 x_41_ * x_23_ + 1 x_41_ ^ 2 + 1 y_23_ ^ 2 - 2 y_41_ * y_23_ + 1 y_41_ ^ 2 ] = 3280
c53: [ 1 x_21_ ^ 2 - 2 x_42_ * x_21_ + 1 x_42_ ^ 2 + 1 y_21_ ^ 2 - 2 y_42_ * y_21_ + 1 y_42_ ^ 2 ] = 13345
c54: [ 1 x_26_ ^ 2 - 2 x_42_ * x_26_ + 1 x_42_ ^ 2 + 1 y_26_ ^ 2 - 2 y_42_ * y_26_ + 1 y_42_ ^ 2 ] = 21233
c55: [ 1 x_1_ ^ 2 - 2 x_43_ * x_1_ + 1 x_43_ ^ 2 + 1 y_1_ ^ 2 - 2 y_43_ * y_1_ + 1 y_43_ ^ 2 ] = 20077
c56: [ 1 x_12_ ^ 2 - 2 x_43_ * x_12_ + 1 x_43_ ^ 2 + 1 y_12_ ^ 2 - 2 y_43_ * y_12_ + 1 y_43_ ^ 2 ] = 4705
c57: [ 1 x_38_ ^ 2 - 2 x_43_ * x_38_ + 1 x_43_ ^ 2 + 1 y_38_ ^ 2 - 2 y_43_ * y_38_ + 1 y_43_ ^ 2 ] = 26901
c58: [ 1 x_6_ ^ 2 - 2 x_44_ * x_6_ + 1 x_44_ ^ 2 + 1 y_6_ ^ 2 - 2 y_44_ * y_6_ + 1 y_44_ ^ 2 ] = 3349
c59: [ 1 x_31_ ^ 2 - 2 x_44_ * x_31_ + 1 x_44_ ^ 2 + 1 y_31_ ^ 2 - 2 y_44_ * y_31_ + 1 y_44_ ^ 2 ] = 3060
c60: [ 1 x_35_ ^ 2 - 2 x_44_ * x_35_ + 1 x_44_ ^ 2 + 1 y_35_ ^ 2 - 2 y_44_ * y_35_ + 1 y_44_ ^ 2 ] = 28730
c61: [ 1 x_33_ ^ 2 - 2 x_45_ * x_33_ + 1 x_45_ ^ 2 + 1 y_33_ ^ 2 - 2 y_45_ * y_33_ + 1 y_45_ ^ 2 ] = 2873
c62: [ 1 x_39_ ^ 2 - 2 x_45_ * x_39_ + 1 x_45_ ^ 2 + 1 y_39_ ^ 2 - 2 y_45_ * y_39_ + 1 y_45_ ^ 2 ] = 33265
c63: [ 1 x_31_ ^ 2 - 2 x_46_ * x_31_ + 1 x_46_ ^ 2 + 1 y_31_ ^ 2 - 2 y_46_ * y_31_ + 1 y_46_ ^ 2 ] = 10001
c64: [ 1 x_39_ ^ 2 - 2 x_46_ * x_39_ + 1 x_46_ ^ 2 + 1 y_39_ ^ 2 - 2 y_46_ * y_39_ + 1 y_46_ ^ 2 ] = 19018
c65: [ 1 x_7_ ^ 2 - 2 x_47_ * x_7_ + 1 x_47_ ^ 2 + 1 y_7_ ^ 2 - 2 y_47_ * y_7_ + 1 y_47_ ^ 2 ] = 11737
c66: [ 1 x_20_ ^ 2 - 2 x_47_ * x_20_ + 1 x_47_ ^ 2 + 1 y_20_ ^ 2 - 2 y_47_ * y_20_ + 1 y_47_ ^ 2 ] = 43573
c67: [ 1 x_13_ ^ 2 - 2 x_48_ * x_13_ + 1 x_48_ ^ 2 + 1 y_13_ ^ 2 - 2 y_48_ * y_13_ + 1 y_48_ ^ 2 ] = 16393
c68: [ 1 x_19_ ^ 2 - 2 x_48_ * x_19_ + 1 x_48_ ^ 2 + 1 y_19_ ^ 2 - 2 y_48_ * y_19_ + 1 y_48_ ^ 2 ] = 45928
c69: [ 1 x_46_ ^ 2 - 2 x_48_ * x_46_ + 1 x_48_ ^ 2 + 1 y_46_ ^ 2 - 2 y_48_ * y_46_ + 1 y_48_ ^ 2 ] = 36356
c70: [ 1 x_24_ ^ 2 - 2 x_49_ * x_24_ + 1 x_49_ ^ 2 + 1 y_24_ ^ 2 - 2 y_49_ * y_24_ + 1 y_49_ ^ 2 ] = 4165
c71: [ 1 x_13_ ^ 2 - 2 x_50_ * x_13_ + 1 x_50_ ^ 2 + 1 y_13_ ^ 2 - 2 y_50_ * y_13_ + 1 y_50_ ^ 2 ] = 19125
c72: [ 1 x_45_ ^ 2 - 2 x_50_ * x_45_ + 1 x_50_ ^ 2 + 1 y_45_ ^ 2 - 2 y_50_ * y_45_ + 1 y_50_ ^ 2 ] = 16385
c73: [ 1 x_5_ ^ 2 - 2 x_51_ * x_5_ + 1 x_51_ ^ 2 + 1 y_5_ ^ 2 - 2 y_51_ * y_5_ + 1 y_51_ ^ 2 ] = 23140
c74: [ 1 x_28_ ^ 2 - 2 x_51_ * x_28_ + 1 x_51_ ^ 2 + 1 y_28_ ^ 2 - 2 y_51_ * y_28_ + 1 y_51_ ^ 2 ] = 15912
c75: [ 1 x_5_ ^ 2 - 2 x_52_ * x_5_ + 1 x_52_ ^ 2 + 1 y_5_ ^ 2 - 2 y_52_ * y_5_ + 1 y_52_ ^ 2 ] = 8146
c76: [ 1 x_28_ ^ 2 - 2 x_52_ * x_28_ + 1 x_52_ ^ 2 + 1 y_28_ ^ 2 - 2 y_52_ * y_28_ + 1 y_52_ ^ 2 ] = 19610
c77: [ 1 x_31_ ^ 2 - 2 x_52_ * x_31_ + 1 x_52_ ^ 2 + 1 y_31_ ^ 2 - 2 y_52_ * y_31_ + 1 y_52_ ^ 2 ] = 16381
c78: [ 1 x_13_ ^ 2 - 2 x_53_ * x_13_ + 1 x_53_ ^ 2 + 1 y_13_ ^ 2 - 2 y_53_ * y_13_ + 1 y_53_ ^ 2 ] = 1060
c79: [ 1 x_40_ ^ 2 - 2 x_53_ * x_40_ + 1 x_53_ ^ 2 + 1 y_40_ ^ 2 - 2 y_53_ * y_40_ + 1 y_53_ ^ 2 ] = 9925
c80: [ 1 x_4_ ^ 2 - 2 x_54_ * x_4_ + 1 x_54_ ^ 2 + 1 y_4_ ^ 2 - 2 y_54_ * y_4_ + 1 y_54_ ^ 2 ] = 202
c81: [ 1 x_46_ ^ 2 - 2 x_54_ * x_46_ + 1 x_54_ ^ 2 + 1 y_46_ ^ 2 - 2 y_54_ * y_46_ + 1 y_54_ ^ 2 ] = 7690
c82: [ 1 x_49_ ^ 2 - 2 x_54_ * x_49_ + 1 x_54_ ^ 2 + 1 y_49_ ^ 2 - 2 y_54_ * y_49_ + 1 y_54_ ^ 2 ] = 16965
c83: [ 1 x_3_ ^ 2 - 2 x_55_ * x_3_ + 1 x_55_ ^ 2 + 1 y_3_ ^ 2 - 2 y_55_ * y_3_ + 1 y_55_ ^ 2 ] = 7762
c84: [ 1 x_15_ ^ 2 - 2 x_55_ * x_15_ + 1 x_55_ ^ 2 + 1 y_15_ ^ 2 - 2 y_55_ * y_15_ + 1 y_55_ ^ 2 ] = 685
c85: [ 1 x_39_ ^ 2 - 2 x_55_ * x_39_ + 1 x_55_ ^ 2 + 1 y_39_ ^ 2 - 2 y_55_ * y_39_ + 1 y_55_ ^ 2 ] = 3236
c86: [ 1 x_20_ ^ 2 - 2 x_56_ * x_20_ + 1 x_56_ ^ 2 + 1 y_20_ ^ 2 - 2 y_56_ * y_20_ + 1 y_56_ ^ 2 ] = 23053
c87: [ 1 x_50_ ^ 2 - 2 x_56_ * x_50_ + 1 x_56_ ^ 2 + 1 y_50_ ^ 2 - 2 y_56_ * y_50_ + 1 y_56_ ^ 2 ] = 3530
c88: [ 1 x_15_ ^ 2 - 2 x_57_ * x_15_ + 1 x_57_ ^ 2 + 1 y_15_ ^ 2 - 2 y_57_ * y_15_ + 1 y_57_ ^ 2 ] = 26836
c89: [ 1 x_4_ ^ 2 - 2 x_58_ * x_4_ + 1 x_58_ ^ 2 + 1 y_4_ ^ 2 - 2 y_58_ * y_4_ + 1 y_58_ ^ 2 ] = 8224
c90: [ 1 x_21_ ^ 2 - 2 x_58_ * x_21_ + 1 x_58_ ^ 2 + 1 y_21_ ^ 2 - 2 y_58_ * y_21_ + 1 y_58_ ^ 2 ] = 7373
c91: [ 1 x_17_ ^ 2 - 2 x_59_ * x_17_ + 1 x_59_ ^ 2 + 1 y_17_ ^ 2 - 2 y_59_ * y_17_ + 1 y_59_ ^ 2 ] = 9773
c92: [ 1 x_18_ ^ 2 - 2 x_59_ * x_18_ + 1 x_59_ ^ 2 + 1 y_18_ ^ 2 - 2 y_59_ * y_18_ + 1 y_59_ ^ 2 ] = 26765
c93: [ 1 x_22_ ^ 2 - 2 x_59_ * x_22_ + 1 x_59_ ^ 2 + 1 y_22_ ^ 2 - 2 y_59_ * y_22_ + 1 y_59_ ^ 2 ] = 6205
c94: [ 1 x_14_ ^ 2 - 2 x_60_ * x_14_ + 1 x_60_ ^ 2 + 1 y_14_ ^ 2 - 2 y_60_ * y_14_ + 1 y_60_ ^ 2 ] = 27856
c95: [ 1 x_22_ ^ 2 - 2 x_60_ * x_22_ + 1 x_60_ ^ 2 + 1 y_22_ ^ 2 - 2 y_60_ * y_22_ + 1 y_60_ ^ 2 ] = 14920
c96: [ 1 x_9_ ^ 2 - 2 x_61_ * x_9_ + 1 x_61_ ^ 2 + 1 y_9_ ^ 2 - 2 y_61_ * y_9_ + 1 y_61_ ^ 2 ] = 1828
c97: [ 1 x_36_ ^ 2 - 2 x_61_ * x_36_ + 1 x_61_ ^ 2 + 1 y_36_ ^ 2 - 2 y_61_ * y_36_ + 1 y_61_ ^ 2 ] = 10685
c98: [ 1 x_31_ ^ 2 - 2 x_62_ * x_31_ + 1 x_62_ ^ 2 + 1 y_31_ ^ 2 - 2 y_62_ * y_31_ + 1 y_62_ ^ 2 ] = 9577
c99: [ 1 x_37_ ^ 2 - 2 x_63_ * x_37_ + 1 x_63_ ^ 2 + 1 y_37_ ^ 2 - 2 y_63_ * y_37_ + 1 y_63_ ^ 2 ] = 21645
c100: [ 1 x_57_ ^ 2 - 2 x_63_ * x_57_ + 1 x_63_ ^ 2 + 1 y_57_ ^ 2 - 2 y_63_ * y_57_ + 1 y_63_ ^ 2 ] = 20842
c101: [ 1 x_3_ ^ 2 - 2 x_64_ * x_3_ + 1 x_64_ ^ 2 + 1 y_3_ ^ 2 - 2 y_64_ * y_3_ + 1 y_64_ ^ 2 ] = 2000
c102: [ 1 x_5_ ^ 2 - 2 x_65_ * x_5_ + 1 x_65_ ^ 2 + 1 y_5_ ^ 2 - 2 y_65_ * y_5_ + 1 y_65_ ^ 2 ] = 34164
c103: [ 1 x_8_ ^ 2 - 2 x_65_ * x_8_ + 1 x_65_ ^ 2 + 1 y_8_ ^ 2 - 2 y_65_ * y_8_ + 1 y_65_ ^ 2 ] = 44785
c104: [ 1 x_64_ ^ 2 - 2 x_65_ * x_64_ + 1 x_65_ ^ 2 + 1 y_64_ ^ 2 - 2 y_65_ * y_64_ + 1 y_65_ ^ 2 ] = 52642
c105: [ 1 x_19_ ^ 2 - 2 x_66_ * x_19_ + 1 x_66_ ^ 2 + 1 y_19_ ^ 2 - 2 y_66_ * y_19_ + 1 y_66_ ^ 2 ] = 3284
c106: [ 1 x_40_ ^ 2 - 2 x_66_ * x_40_ + 1 x_66_ ^ 2 + 1 y_40_ ^ 2 - 2 y_66_ * y_40_ + 1 y_66_ ^ 2 ] = 22336
c107: [ 1 x_26_ ^ 2 - 2 x_67_ * x_26_ + 1 x_67_ ^ 2 + 1 y_26_ ^ 2 - 2 y_67_ * y_26_ + 1 y_67_ ^ 2 ] = 1985
c108: [ 1 x_60_ ^ 2 - 2 x_67_ * x_60_ + 1 x_67_ ^ 2 + 1 y_60_ ^ 2 - 2 y_67_ * y_60_ + 1 y_67_ ^ 2 ] = 1098
c109: [ 1 x_18_ ^ 2 - 2 x_68_ * x_18_ + 1 x_68_ ^ 2 + 1 y_18_ ^ 2 - 2 y_68_ * y_18_ + 1 y_68_ ^ 2 ] = 1805
c110: [ 1 x_21_ ^ 2 - 2 x_68_ * x_21_ + 1 x_68_ ^ 2 + 1 y_21_ ^ 2 - 2 y_68_ * y_21_ + 1 y_68_ ^ 2 ] = 8488
c111: [ 1 x_27_ ^ 2 - 2 x_68_ * x_27_ + 1 x_68_ ^ 2 + 1 y_27_ ^ 2 - 2 y_68_ * y_27_ + 1 y_68_ ^ 2 ] = 7433
c112: [ 1 x_58_ ^ 2 - 2 x_69_ * x_58_ + 1 x_69_ ^ 2 + 1 y_58_ ^ 2 - 2 y_69_ * y_58_ + 1 y_69_ ^ 2 ] = 10522
c113: [ 1 x_63_ ^ 2 - 2 x_69_ * x_63_ + 1 x_69_ ^ 2 + 1 y_63_ ^ 2 - 2 y_69_ * y_63_ + 1 y_69_ ^ 2 ] = 585
c114: [ 1 x_7_ ^ 2 - 2 x_70_ * x_7_ + 1 x_70_ ^ 2 + 1 y_7_ ^ 2 - 2 y_70_ * y_7_ + 1 y_70_ ^ 2 ] = 11048
c115: [ 1 x_22_ ^ 2 - 2 x_70_ * x_22_ + 1 x_70_ ^ 2 + 1 y_22_ ^ 2 - 2 y_70_ * y_22_ + 1 y_70_ ^ 2 ] = 19421
c116: [ 1 x_9_ ^ 2 - 2 x_71_ * x_9_ + 1 x_71_ ^ 2 + 1 y_9_ ^ 2 - 2 y_71_ * y_9_ + 1 y_71_ ^ 2 ] = 4194
c117: [ 1 x_13_ ^ 2 - 2 x_71_ * x_13_ + 1 x_71_ ^ 2 + 1 y_13_ ^ 2 - 2 y_71_ * y_13_ + 1 y_71_ ^ 2 ] = 8996
c118: [ 1 x_20_ ^ 2 - 2 x_71_ * x_20_ + 1 x_71_ ^ 2 + 1 y_20_ ^ 2 - 2 y_71_ * y_20_ + 1 y_71_ ^ 2 ] = 4724
c119: [ 1 x_5_ ^ 2 - 2 x_72_ * x_5_ + 1 x_72_ ^ 2 + 1 y_5_ ^ 2 - 2 y_72_ * y_5_ + 1 y_72_ ^ 2 ] = 14681
c120: [ 1 x_10_ ^ 2 - 2 x_72_ * x_10_ + 1 x_72_ ^ 2 + 1 y_10_ ^ 2 - 2 y_72_ * y_10_ + 1 y_72_ ^ 2 ] = 5645
c121: [ 1 x_40_ ^ 2 - 2 x_72_ * x_40_ + 1 x_72_ ^ 2 + 1 y_40_ ^ 2 - 2 y_72_ * y_40_ + 1 y_72_ ^ 2 ] = 13753
c122: [ 1 x_29_ ^ 2 - 2 x_73_ * x_29_ + 1 x_73_ ^ 2 + 1 y_29_ ^ 2 - 2 y_73_ * y_29_ + 1 y_73_ ^ 2 ] = 20480
c123: [ 1 x_51_ ^ 2 - 2 x_73_ * x_51_ + 1 x_73_ ^ 2 + 1 y_51_ ^ 2 - 2 y_73_ * y_51_ + 1 y_73_ ^ 2 ] = 21969
c124: [ 1 x_55_ ^ 2 - 2 x_73_ * x_55_ + 1 x_73_ ^ 2 + 1 y_55_ ^ 2 - 2 y_73_ * y_55_ + 1 y_73_ ^ 2 ] = 6525
c125: [ 1 x_6_ ^ 2 - 2 x_74_ * x_6_ + 1 x_74_ ^ 2 + 1 y_6_ ^ 2 - 2 y_74_ * y_6_ + 1 y_74_ ^ 2 ] = 10865
c126: [ 1 x_12_ ^ 2 - 2 x_74_ * x_12_ + 1 x_74_ ^ 2 + 1 y_12_ ^ 2 - 2 y_74_ * y_12_ + 1 y_74_ ^ 2 ] = 4624
c127: [ 1 x_48_ ^ 2 - 2 x_74_ * x_48_ + 1 x_74_ ^ 2 + 1 y_48_ ^ 2 - 2 y_74_ * y_48_ + 1 y_74_ ^ 2 ] = 8681
c128: [ 1 x_40_ ^ 2 - 2 x_75_ * x_40_ + 1 x_75_ ^ 2 + 1 y_40_ ^ 2 - 2 y_75_ * y_40_ + 1 y_75_ ^ 2 ] = 5389
c129: [ 1 x_52_ ^ 2 - 2 x_75_ * x_52_ + 1 x_75_ ^ 2 + 1 y_52_ ^ 2 - 2 y_75_ * y_52_ + 1 y_75_ ^ 2 ] = 14257
c130: [ 1 x_62_ ^ 2 - 2 x_76_ * x_62_ + 1 x_76_ ^ 2 + 1 y_62_ ^ 2 - 2 y_76_ * y_62_ + 1 y_76_ ^ 2 ] = 22837
c131: [ 1 x_68_ ^ 2 - 2 x_76_ * x_68_ + 1 x_76_ ^ 2 + 1 y_68_ ^ 2 - 2 y_76_ * y_68_ + 1 y_76_ ^ 2 ] = 6562
c132: [ 1 x_15_ ^ 2 - 2 x_77_ * x_15_ + 1 x_77_ ^ 2 + 1 y_15_ ^ 2 - 2 y_77_ * y_15_ + 1 y_77_ ^ 2 ] = 1098
c133: [ 1 x_40_ ^ 2 - 2 x_77_ * x_40_ + 1 x_77_ ^ 2 + 1 y_40_ ^ 2 - 2 y_77_ * y_40_ + 1 y_77_ ^ 2 ] = 11125
c134: [ 1 x_22_ ^ 2 - 2 x_78_ * x_22_ + 1 x_78_ ^ 2 + 1 y_22_ ^ 2 - 2 y_78_ * y_22_ + 1 y_78_ ^ 2 ] = 180
c135: [ 1 x_76_ ^ 2 - 2 x_78_ * x_76_ + 1 x_78_ ^ 2 + 1 y_76_ ^ 2 - 2 y_78_ * y_76_ + 1 y_78_ ^ 2 ] = 17221
c136: [ 1 x_6_ ^ 2 - 2 x_79_ * x_6_ + 1 x_79_ ^ 2 + 1 y_6_ ^ 2 - 2 y_79_ * y_6_ + 1 y_79_ ^ 2 ] = 18625
c137: [ 1 x_57_ ^ 2 - 2 x_79_ * x_57_ + 1 x_79_ ^ 2 + 1 y_57_ ^ 2 - 2 y_79_ * y_57_ + 1 y_79_ ^ 2 ] = 10162
c138: [ 1 x_75_ ^ 2 - 2 x_79_ * x_75_ + 1 x_79_ ^ 2 + 1 y_75_ ^ 2 - 2 y_79_ * y_75_ + 1 y_79_ ^ 2 ] = 1530
c139: [ 1 x_26_ ^ 2 - 2 x_80_ * x_26_ + 1 x_80_ ^ 2 + 1 y_26_ ^ 2 - 2 y_80_ * y_26_ + 1 y_80_ ^ 2 ] = 2600
c140: [ 1 x_62_ ^ 2 - 2 x_80_ * x_62_ + 1 x_80_ ^ 2 + 1 y_62_ ^ 2 - 2 y_80_ * y_62_ + 1 y_80_ ^ 2 ] = 10805
c141: [ 1 x_22_ ^ 2 - 2 x_81_ * x_22_ + 1 x_81_ ^ 2 + 1 y_22_ ^ 2 - 2 y_81_ * y_22_ + 1 y_81_ ^ 2 ] = 8653
c142: [ 1 x_26_ ^ 2 - 2 x_81_ * x_26_ + 1 x_81_ ^ 2 + 1 y_26_ ^ 2 - 2 y_81_ * y_26_ + 1 y_81_ ^ 2 ] = 1370
c143: [ 1 x_58_ ^ 2 - 2 x_81_ * x_58_ + 1 x_81_ ^ 2 + 1 y_58_ ^ 2 - 2 y_81_ * y_58_ + 1 y_81_ ^ 2 ] = 2297
c144: [ 1 x_52_ ^ 2 - 2 x_82_ * x_52_ + 1 x_82_ ^ 2 + 1 y_52_ ^ 2 - 2 y_82_ * y_52_ + 1 y_82_ ^ 2 ] = 22373
c145: [ 1 x_64_ ^ 2 - 2 x_82_ * x_64_ + 1 x_82_ ^ 2 + 1 y_64_ ^ 2 - 2 y_82_ * y_64_ + 1 y_82_ ^ 2 ] = 16245
c146: [ 1 x_73_ ^ 2 - 2 x_82_ * x_73_ + 1 x_82_ ^ 2 + 1 y_73_ ^ 2 - 2 y_82_ * y_73_ + 1 y_82_ ^ 2 ] = 5008
c147: [ 1 x_7_ ^ 2 - 2 x_83_ * x_7_ + 1 x_83_ ^ 2 + 1 y_7_ ^ 2 - 2 y_83_ * y_7_ + 1 y_83_ ^ 2 ] = 14985
c148: [ 1 x_42_ ^ 2 - 2 x_83_ * x_42_ + 1 x_83_ ^ 2 + 1 y_42_ ^ 2 - 2 y_83_ * y_42_ + 1 y_83_ ^ 2 ] = 16612
c149: [ 1 x_78_ ^ 2 - 2 x_83_ * x_78_ + 1 x_83_ ^ 2 + 1 y_78_ ^ 2 - 2 y_83_ * y_78_ + 1 y_83_ ^ 2 ] = 4000
c150: [ 1 x_9_ ^ 2 - 2 x_84_ * x_9_ + 1 x_84_ ^ 2 + 1 y_9_ ^ 2 - 2 y_84_ * y_9_ + 1 y_84_ ^ 2 ] = 10100
c151: [ 1 x_16_ ^ 2 - 2 x_84_ * x_16_ + 1 x_84_ ^ 2 + 1 y_16_ ^ 2 - 2 y_84_ * y_16_ + 1 y_84_ ^ 2 ] = 1565
c152: [ 1 x_22_ ^ 2 - 2 x_84_ * x_22_ + 1 x_84_ ^ 2 + 1 y_22_ ^ 2 - 2 y_84_ * y_22_ + 1 y_84_ ^ 2 ] = 2125
c153: [ 1 x_12_ ^ 2 - 2 x_85_ * x_12_ + 1 x_85_ ^ 2 + 1 y_12_ ^ 2 - 2 y_85_ * y_12_ + 1 y_85_ ^ 2 ] = 30836
c154: [ 1 x_24_ ^ 2 - 2 x_85_ * x_24_ + 1 x_85_ ^ 2 + 1 y_24_ ^ 2 - 2 y_85_ * y_24_ + 1 y_85_ ^ 2 ] = 19053
c155: [ 1 x_66_ ^ 2 - 2 x_85_ * x_66_ + 1 x_85_ ^ 2 + 1 y_66_ ^ 2 - 2 y_85_ * y_66_ + 1 y_85_ ^ 2 ] = 36725
c156: [ 1 x_14_ ^ 2 - 2 x_86_ * x_14_ + 1 x_86_ ^ 2 + 1 y_14_ ^ 2 - 2 y_86_ * y_14_ + 1 y_86_ ^ 2 ] = 27605
c157: [ 1 x_33_ ^ 2 - 2 x_86_ * x_33_ + 1 x_86_ ^ 2 + 1 y_33_ ^ 2 - 2 y_86_ * y_33_ + 1 y_86_ ^ 2 ] = 3433
c158: [ 1 x_47_ ^ 2 - 2 x_86_ * x_47_ + 1 x_86_ ^ 2 + 1 y_47_ ^ 2 - 2 y_86_ * y_47_ + 1 y_86_ ^ 2 ] = 23985
c159: [ 1 x_1_ ^ 2 - 2 x_87_ * x_1_ + 1 x_87_ ^ 2 + 1 y_1_ ^ 2 - 2 y_87_ * y_1_ + 1 y_87_ ^ 2 ] = 5513
c160: [ 1 x_9_ ^ 2 - 2 x_87_ * x_9_ + 1 x_87_ ^ 2 + 1 y_9_ ^ 2 - 2 y_87_ * y_9_ + 1 y_87_ ^ 2 ] = 3577
c161: [ 1 x_31_ ^ 2 - 2 x_87_ * x_31_ + 1 x_87_ ^ 2 + 1 y_31_ ^ 2 - 2 y_87_ * y_31_ + 1 y_87_ ^ 2 ] = 3137
c162: [ 1 x_49_ ^ 2 - 2 x_88_ * x_49_ + 1 x_88_ ^ 2 + 1 y_49_ ^ 2 - 2 y_88_ * y_49_ + 1 y_88_ ^ 2 ] = 8146
c163: [ 1 x_60_ ^ 2 - 2 x_88_ * x_60_ + 1 x_88_ ^ 2 + 1 y_60_ ^ 2 - 2 y_88_ * y_60_ + 1 y_88_ ^ 2 ] = 23141
c164: [ 1 x_64_ ^ 2 - 2 x_88_ * x_64_ + 1 x_88_ ^ 2 + 1 y_64_ ^ 2 - 2 y_88_ * y_64_ + 1 y_88_ ^ 2 ] = 15817
c165: [ 1 x_43_ ^ 2 - 2 x_89_ * x_43_ + 1 x_89_ ^ 2 + 1 y_43_ ^ 2 - 2 y_89_ * y_43_ + 1 y_89_ ^ 2 ] = 19600
c166: [ 1 x_48_ ^ 2 - 2 x_89_ * x_48_ + 1 x_89_ ^ 2 + 1 y_48_ ^ 2 - 2 y_89_ * y_48_ + 1 y_89_ ^ 2 ] = 36688
c167: [ 1 x_56_ ^ 2 - 2 x_89_ * x_56_ + 1 x_89_ ^ 2 + 1 y_56_ ^ 2 - 2 y_89_ * y_56_ + 1 y_89_ ^ 2 ] = 54034
c168: [ 1 x_13_ ^ 2 - 2 x_90_ * x_13_ + 1 x_90_ ^ 2 + 1 y_13_ ^ 2 - 2 y_90_ * y_13_ + 1 y_90_ ^ 2 ] = 13896
c169: [ 1 x_29_ ^ 2 - 2 x_90_ * x_29_ + 1 x_90_ ^ 2 + 1 y_29_ ^ 2 - 2 y_90_ * y_29_ + 1 y_90_ ^ 2 ] = 10496
c170: [ 1 x_76_ ^ 2 - 2 x_90_ * x_76_ + 1 x_90_ ^ 2 + 1 y_76_ ^ 2 - 2 y_90_ * y_76_ + 1 y_90_ ^ 2 ] = 8258
c171: [ 1 x_5_ ^ 2 - 2 x_91_ * x_5_ + 1 x_91_ ^ 2 + 1 y_5_ ^ 2 - 2 y_91_ * y_5_ + 1 y_91_ ^ 2 ] = 136
c172: [ 1 x_58_ ^ 2 - 2 x_91_ * x_58_ + 1 x_91_ ^ 2 + 1 y_58_ ^ 2 - 2 y_91_ * y_58_ + 1 y_91_ ^ 2 ] = 4250
c173: [ 1 x_25_ ^ 2 - 2 x_92_ * x_25_ + 1 x_92_ ^ 2 + 1 y_25_ ^ 2 - 2 y_92_ * y_25_ + 1 y_92_ ^ 2 ] = 24730
c174: [ 1 x_31_ ^ 2 - 2 x_92_ * x_31_ + 1 x_92_ ^ 2 + 1 y_31_ ^ 2 - 2 y_92_ * y_31_ + 1 y_92_ ^ 2 ] = 5386
c175: [ 1 x_32_ ^ 2 - 2 x_92_ * x_32_ + 1 x_92_ ^ 2 + 1 y_32_ ^ 2 - 2 y_92_ * y_32_ + 1 y_92_ ^ 2 ] = 14841
c176: [ 1 x_21_ ^ 2 - 2 x_93_ * x_21_ + 1 x_93_ ^ 2 + 1 y_21_ ^ 2 - 2 y_93_ * y_21_ + 1 y_93_ ^ 2 ] = 13770
c177: [ 1 x_77_ ^ 2 - 2 x_93_ * x_77_ + 1 x_93_ ^ 2 + 1 y_77_ ^ 2 - 2 y_93_ * y_77_ + 1 y_93_ ^ 2 ] = 9700
c178: [ 1 x_29_ ^ 2 - 2 x_94_ * x_29_ + 1 x_94_ ^ 2 + 1 y_29_ ^ 2 - 2 y_94_ * y_29_ + 1 y_94_ ^ 2 ] = 7154
c179: [ 1 x_61_ ^ 2 - 2 x_94_ * x_61_ + 1 x_94_ ^ 2 + 1 y_61_ ^ 2 - 2 y_94_ * y_61_ + 1 y_94_ ^ 2 ] = 5620
c180: [ 1 x_91_ ^ 2 - 2 x_94_ * x_91_ + 1 x_94_ ^ 2 + 1 y_91_ ^ 2 - 2 y_94_ * y_91_ + 1 y_94_ ^ 2 ] = 5981
c181: [ 1 x_12_ ^ 2 - 2 x_95_ * x_12_ + 1 x_95_ ^ 2 + 1 y_12_ ^ 2 - 2 y_95_ * y_12_ + 1 y_95_ ^ 2 ] = 23353
c182: [ 1 x_28_ ^ 2 - 2 x_95_ * x_28_ + 1 x_95_ ^ 2 + 1 y_28_ ^ 2 - 2 y_95_ * y_28_ + 1 y_95_ ^ 2 ] = 2980
c183: [ 1 x_69_ ^ 2 - 2 x_95_ * x_69_ + 1 x_95_ ^ 2 + 1 y_69_ ^ 2 - 2 y_95_ * y_69_ + 1 y_95_ ^ 2 ] = 18440
c184: [ 1 x_56_ ^ 2 - 2 x_96_ * x_56_ + 1 x_96_ ^ 2 + 1 y_56_ ^ 2 - 2 y_96_ * y_56_ + 1 y_96_ ^ 2 ] = 265
c185: [ 1 x_61_ ^ 2 - 2 x_96_ * x_61_ + 1 x_96_ ^ 2 + 1 y_61_ ^ 2 - 2 y_96_ * y_61_ + 1 y_96_ ^ 2 ] = 37700
c186: [ 1 x_64_ ^ 2 - 2 x_96_ * x_64_ + 1 x_96_ ^ 2 + 1 y_64_ ^ 2 - 2 y_96_ * y_64_ + 1 y_96_ ^ 2 ] = 56233
c187: [ 1 x_67_ ^ 2 - 2 x_97_ * x_67_ + 1 x_97_ ^ 2 + 1 y_67_ ^ 2 - 2 y_97_ * y_67_ + 1 y_97_ ^ 2 ] = 3940
c188: [ 1 x_68_ ^ 2 - 2 x_97_ * x_68_ + 1 x_97_ ^ 2 + 1 y_68_ ^ 2 - 2 y_97_ * y_68_ + 1 y_97_ ^ 2 ] = 5345
c189: [ 1 x_80_ ^ 2 - 2 x_97_ * x_80_ + 1 x_97_ ^ 2 + 1 y_80_ ^ 2 - 2 y_97_ * y_80_ + 1 y_97_ ^ 2 ] = 11113
c190: [ 1 x_53_ ^ 2 - 2 x_98_ * x_53_ + 1 x_98_ ^ 2 + 1 y_53_ ^ 2 - 2 y_98_ * y_53_ + 1 y_98_ ^ 2 ] = 19417
c191: [ 1 x_75_ ^ 2 - 2 x_98_ * x_75_ + 1 x_98_ ^ 2 + 1 y_75_ ^ 2 - 2 y_98_ * y_75_ + 1 y_98_ ^ 2 ] = 7445
c192: [ 1 x_84_ ^ 2 - 2 x_98_ * x_84_ + 1 x_98_ ^ 2 + 1 y_84_ ^ 2 - 2 y_98_ * y_84_ + 1 y_98_ ^ 2 ] = 4761
c193: [ 1 x_26_ ^ 2 - 2 x_99_ * x_26_ + 1 x_99_ ^ 2 + 1 y_26_ ^ 2 - 2 y_99_ * y_26_ + 1 y_99_ ^ 2 ] = 170
c194: [ 1 x_38_ ^ 2 - 2 x_99_ * x_38_ + 1 x_99_ ^ 2 + 1 y_38_ ^ 2 - 2 y_99_ * y_38_ + 1 y_99_ ^ 2 ] = 26506
c195: [ 1 x_93_ ^ 2 - 2 x_99_ * x_93_ + 1 x_99_ ^ 2 + 1 y_93_ ^ 2 - 2 y_99_ * y_93_ + 1 y_99_ ^ 2 ] = 14274
c196: [ 1 x_6_ ^ 2 - 2 x_100_ * x_6_ + 1 x_100_ ^ 2 + 1 y_6_ ^ 2 - 2 y_100_ * y_6_ + 1 y_100_ ^ 2 ] = 233
c197: [ 1 x_10_ ^ 2 - 2 x_100_ * x_10_ + 1 x_100_ ^ 2 + 1 y_10_ ^ 2 - 2 y_100_ * y_10_ + 1 y_100_ ^ 2 ] = 39041
c198: [ 1 x_70_ ^ 2 - 2 x_100_ * x_70_ + 1 x_100_ ^ 2 + 1 y_70_ ^ 2 - 2 y_100_ * y_70_ + 1 y_100_ ^ 2 ] = 31336
Bounds
-309 <= x_1_ <= 151
-257 <= x_2_ <= 246
-105 <= x_3_ <= 191
-93 <= x_4_ <= -65
-260 <= x_5_ <= 102
-244 <= x_6_ <= 86
-200 <= x_7_ <= 220
-224 <= x_8_ <= 84
-264 <= x_9_ <= 106
-221 <= x_10_ <= 247
-412 <= x_11_ <= 254
-267 <= x_12_ <= 255
-146 <= x_13_ <= 88
-254 <= x_14_ <= 230
-219 <= x_15_ <= 229
-209 <= x_16_ <= 52
-137 <= x_17_ <= 160
-144 <= x_18_ <= -14
-322 <= x_19_ <= 164
-131 <= x_20_ <= -27
-269 <= x_21_ <= 111
-123 <= x_22_ <= 138
-174 <= x_23_ <= 16
-89 <= x_24_ <= 115
-155 <= x_25_ <= 153
-164 <= x_26_ <= 110
-197 <= x_27_ <= 115
-309 <= x_28_ <= 264
-131 <= x_29_ <= 73
-178 <= x_30_ <= 175
-266 <= x_31_ <= 108
-207 <= x_32_ <= 153
-263 <= x_33_ <= 105
-314 <= x_34_ <= 156
-228 <= x_35_ <= 70
-216 <= x_36_ <= 58
-161 <= x_37_ <= 3
-315 <= x_38_ <= 157
-250 <= x_39_ <= 146
-279 <= x_40_ <= 221
-212 <= x_41_ <= 54
-310 <= x_42_ <= 227
-335 <= x_43_ <= 292
-302 <= x_44_ <= 144
-317 <= x_45_ <= 159
-166 <= x_46_ <= 8
-308 <= x_47_ <= 181
-274 <= x_48_ <= 199
-25 <= x_49_ <= 51
-285 <= x_50_ <= 184
-407 <= x_51_ <= 254
-337 <= x_52_ <= 193
-179 <= x_53_ <= 121
x_54_ = -79
-193 <= x_55_ <= 203
-282 <= x_56_ <= 124
-383 <= x_57_ <= 295
-183 <= x_58_ <= 25
-202 <= x_59_ <= 149
-87 <= x_60_ <= 188
-290 <= x_61_ <= 149
-270 <= x_62_ <= 206
-308 <= x_63_ <= 150
-60 <= x_64_ <= 190
-290 <= x_65_ <= 287
-379 <= x_66_ <= 221
-120 <= x_67_ <= 155
-186 <= x_68_ <= 28
-286 <= x_69_ <= 128
-263 <= x_70_ <= 277
-199 <= x_71_ <= 41
-297 <= x_72_ <= 223
-258 <= x_73_ <= 216
-335 <= x_74_ <= 191
-325 <= x_75_ <= 247
-119 <= x_76_ <= 61
-252 <= x_77_ <= 262
-137 <= x_78_ <= 151
-364 <= x_79_ <= 223
-215 <= x_80_ <= 161
-201 <= x_81_ <= 73
-188 <= x_82_ <= 287
-200 <= x_83_ <= 215
-169 <= x_84_ <= 92
-227 <= x_85_ <= 253
-321 <= x_86_ <= 163
-322 <= x_87_ <= 164
x_88_ = 65
-466 <= x_89_ <= 357
x_90_ = -29
-249 <= x_91_ <= 91
-312 <= x_92_ <= 182
-297 <= x_93_ <= 229
-216 <= x_94_ <= 158
-363 <= x_95_ <= 264
-297 <= x_96_ <= 141
-183 <= x_97_ <= 101
-238 <= x_98_ <= 161
-177 <= x_99_ <= 123
-260 <= x_100_ <= 102
-311 <= y_1_ <= 149
-296 <= y_2_ <= 244
-144 <= y_3_ <= 196
-95 <= y_4_ <= -67
-262 <= y_5_ <= 100
-246 <= y_6_ <= 84
-239 <= y_7_ <= 218
-244 <= y_8_ <= 82
-266 <= y_9_ <= 104
-260 <= y_10_ <= 245
-414 <= y_11_ <= 252
-306 <= y_12_ <= 253
-137 <= y_13_ <= 97
-293 <= y_14_ <= 228
-258 <= y_15_ <= 227
-212 <= y_16_ <= 50
-176 <= y_17_ <= 169
-146 <= y_18_ <= -16
-324 <= y_19_ <= 162
-133 <= y_20_ <= -29
-271 <= y_21_ <= 109
-162 <= y_22_ <= 136
-176 <= y_23_ <= 14
-128 <= y_24_ <= 113
-194 <= y_25_ <= 151
-203 <= y_26_ <= 108
-236 <= y_27_ <= 113
-348 <= y_28_ <= 262
-122 <= y_29_ <= 82
-217 <= y_30_ <= 173
-268 <= y_31_ <= 106
-246 <= y_32_ <= 151
-265 <= y_33_ <= 103
-316 <= y_34_ <= 154
-230 <= y_35_ <= 68
-218 <= y_36_ <= 56
-163 <= y_37_ <= 1
-317 <= y_38_ <= 155
-289 <= y_39_ <= 144
-270 <= y_40_ <= 230
-214 <= y_41_ <= 52
-349 <= y_42_ <= 225
-374 <= y_43_ <= 290
-304 <= y_44_ <= 142
-319 <= y_45_ <= 157
-168 <= y_46_ <= 6
-341 <= y_47_ <= 179
-265 <= y_48_ <= 197
-64 <= y_49_ <= 49
-276 <= y_50_ <= 182
-413 <= y_51_ <= 252
-353 <= y_52_ <= 191
-170 <= y_53_ <= 130
y_54_ = -81
-232 <= y_55_ <= 201
-284 <= y_56_ <= 122
-422 <= y_57_ <= 293
-185 <= y_58_ <= 23
-241 <= y_59_ <= 147
-126 <= y_60_ <= 178
-281 <= y_61_ <= 147
-261 <= y_62_ <= 204
-310 <= y_63_ <= 148
-99 <= y_64_ <= 151
-329 <= y_65_ <= 285
-381 <= y_66_ <= 219
-159 <= y_67_ <= 153
-188 <= y_68_ <= 26
-288 <= y_69_ <= 126
-302 <= y_70_ <= 275
-201 <= y_71_ <= 39
-336 <= y_72_ <= 221
-265 <= y_73_ <= 225
-351 <= y_74_ <= 189
-343 <= y_75_ <= 245
-110 <= y_76_ <= 70
-291 <= y_77_ <= 260
-176 <= y_78_ <= 149
-382 <= y_79_ <= 221
-254 <= y_80_ <= 159
-233 <= y_81_ <= 71
-227 <= y_82_ <= 279
-239 <= y_83_ <= 213
-208 <= y_84_ <= 90
-266 <= y_85_ <= 251
-323 <= y_86_ <= 161
-324 <= y_87_ <= 162
y_88_ = 26
-457 <= y_89_ <= 355
y_90_ = -20
-251 <= y_91_ <= 89
-342 <= y_92_ <= 180
-336 <= y_93_ <= 227
-207 <= y_94_ <= 166
-402 <= y_95_ <= 262
-301 <= y_96_ <= 139
-222 <= y_97_ <= 99
-277 <= y_98_ <= 159
-216 <= y_99_ <= 121
-262 <= y_100_ <= 100
General
x_1_
x_2_
x_3_
x_4_
x_5_
x_6_
x_7_
x_8_
x_9_
x_10_
x_11_
x_12_
x_13_
x_14_
x_15_
x_16_
x_17_
x_18_
x_19_
x_20_
x_21_
x_22_
x_23_
x_24_
x_25_
x_26_
x_27_
x_28_
x_29_
x_30_
x_31_
x_32_
x_33_
x_34_
x_35_
x_36_
x_37_
x_38_
x_39_
x_40_
x_41_
x_42_
x_43_
x_44_
x_45_
x_46_
x_47_
x_48_
x_49_
x_50_
x_51_
x_52_
x_53_
x_54_
x_55_
x_56_
x_57_
x_58_
x_59_
x_60_
x_61_
x_62_
x_63_
x_64_
x_65_
x_66_
x_67_
x_68_
x_69_
x_70_
x_71_
x_72_
x_73_
x_74_
x_75_
x_76_
x_77_
x_78_
x_79_
x_80_
x_81_
x_82_
x_83_
x_84_
x_85_
x_86_
x_87_
x_88_
x_89_
x_90_
x_91_
x_92_
x_93_
x_94_
x_95_
x_96_
x_97_
x_98_
x_99_
x_100_
y_1_
y_2_
y_3_
y_4_
y_5_
y_6_
y_7_
y_8_
y_9_
y_10_
y_11_
y_12_
y_13_
y_14_
y_15_
y_16_
y_17_
y_18_
y_19_
y_20_
y_21_
y_22_
y_23_
y_24_
y_25_
y_26_
y_27_
y_28_
y_29_
y_30_
y_31_
y_32_
y_33_
y_34_
y_35_
y_36_
y_37_
y_38_
y_39_
y_40_
y_41_
y_42_
y_43_
y_44_
y_45_
y_46_
y_47_
y_48_
y_49_
y_50_
y_51_
y_52_
y_53_
y_54_
y_55_
y_56_
y_57_
y_58_
y_59_
y_60_
y_61_
y_62_
y_63_
y_64_
y_65_
y_66_
y_67_
y_68_
y_69_
y_70_
y_71_
y_72_
y_73_
y_74_
y_75_
y_76_
y_77_
y_78_
y_79_
y_80_
y_81_
y_82_
y_83_
y_84_
y_85_
y_86_
y_87_
y_88_
y_89_
y_90_
y_91_
y_92_
y_93_
y_94_
y_95_
y_96_
y_97_
y_98_
y_99_
y_100_
End
