minimize
obj: 
subject to
c1_3: -1 x_51_ + 1 y_51_ <= 0
c1: [ 1 x_1_ ^ 2 + 1 y_1_ ^ 2 ] <= 71545.19056210917
c2: [ 1 x_2_ ^ 2 + 1 y_2_ ^ 2 ] <= 32056.94013006975
c3: [ 1 x_3_ ^ 2 + 1 y_3_ ^ 2 ] <= 12455.587194685728
c4: [ 1 x_4_ ^ 2 + 1 y_4_ ^ 2 ] <= 39094.678684081824
c5: [ 1 x_5_ ^ 2 + 1 y_5_ ^ 2 ] <= 74677.01603359845
c6: [ 1 x_6_ ^ 2 + 1 y_6_ ^ 2 ] <= 5763.380122464278
c7: [ 1 x_7_ ^ 2 + 1 y_7_ ^ 2 ] <= 1232.1999999999998
c8: [ 1 x_8_ ^ 2 + 1 y_8_ ^ 2 ] <= 56204.101588116806
c9: [ 1 x_10_ ^ 2 + 1 y_10_ ^ 2 ] <= 49370.324438983465
c10: [ 1 x_11_ ^ 2 + 1 y_11_ ^ 2 ] <= 58552.900580249785
c11: [ 1 x_12_ ^ 2 + 1 y_12_ ^ 2 ] <= 24231.243624714207
c12: [ 1 x_13_ ^ 2 + 1 y_13_ ^ 2 ] <= 62154.94071482395
c13: [ 1 x_14_ ^ 2 + 1 y_14_ ^ 2 ] <= 113482.43205046117
c14: [ 1 x_15_ ^ 2 + 1 y_15_ ^ 2 ] <= 62219.04873483613
c15: [ 1 x_16_ ^ 2 + 1 y_16_ ^ 2 ] <= 30351.21688056127
c16: [ 1 x_17_ ^ 2 + 1 y_17_ ^ 2 ] <= 24279.602243681697
c17: [ 1 x_18_ ^ 2 + 1 y_18_ ^ 2 ] <= 52812.152835194676
c18: [ 1 x_19_ ^ 2 + 1 y_19_ ^ 2 ] <= 3964.2499999999995
c19: [ 1 x_20_ ^ 2 + 1 y_20_ ^ 2 ] <= 22215.115439249712
c20: [ 1 x_21_ ^ 2 + 1 y_21_ ^ 2 ] <= 19006.179999999997
c21: [ 1 x_22_ ^ 2 + 1 y_22_ ^ 2 ] <= 62034.69507973928
c22: [ 1 x_23_ ^ 2 + 1 y_23_ ^ 2 ] <= 22487.731367525248
c23: [ 1 x_24_ ^ 2 + 1 y_24_ ^ 2 ] <= 11593.61423863763
c24: [ 1 x_25_ ^ 2 + 1 y_25_ ^ 2 ] <= 4392.180266500923
c25: [ 1 x_26_ ^ 2 + 1 y_26_ ^ 2 ] <= 87030.8611857647
c26: [ 1 x_27_ ^ 2 + 1 y_27_ ^ 2 ] <= 27198.501690962203
c27: [ 1 x_28_ ^ 2 + 1 y_28_ ^ 2 ] <= 72380.35429860484
c28: [ 1 x_29_ ^ 2 + 1 y_29_ ^ 2 ] <= 68348.44139366478
c29: [ 1 x_30_ ^ 2 + 1 y_30_ ^ 2 ] <= 13700.649999999998
c30: [ 1 x_31_ ^ 2 + 1 y_31_ ^ 2 ] <= 40111.00284684257
c31: [ 1 x_32_ ^ 2 + 1 y_32_ ^ 2 ] <= 109375.50117893388
c32: [ 1 x_33_ ^ 2 + 1 y_33_ ^ 2 ] <= 22981.623416483864
c33: [ 1 x_34_ ^ 2 + 1 y_34_ ^ 2 ] <= 123570.05090747908
c34: [ 1 x_35_ ^ 2 + 1 y_35_ ^ 2 ] <= 111146.60792369895
c35: [ 1 x_36_ ^ 2 + 1 y_36_ ^ 2 ] <= 61122.08740858686
c36: [ 1 x_37_ ^ 2 + 1 y_37_ ^ 2 ] <= 123550.04230517878
c37: [ 1 x_38_ ^ 2 + 1 y_38_ ^ 2 ] <= 46362.26264680389
c38: [ 1 x_39_ ^ 2 + 1 y_39_ ^ 2 ] <= 103038.04816733235
c39: [ 1 x_40_ ^ 2 + 1 y_40_ ^ 2 ] <= 56821.61262561687
c40: [ 1 x_41_ ^ 2 + 1 y_41_ ^ 2 ] <= 68282.0736194583
c41: [ 1 x_42_ ^ 2 + 1 y_42_ ^ 2 ] <= 18970.351083948757
c42: [ 1 x_43_ ^ 2 + 1 y_43_ ^ 2 ] <= 76158.83888459469
c43: [ 1 x_44_ ^ 2 + 1 y_44_ ^ 2 ] <= 1391.7799999999997
c44: [ 1 x_45_ ^ 2 + 1 y_45_ ^ 2 ] <= 83940.03214379658
c45: [ 1 x_46_ ^ 2 + 1 y_46_ ^ 2 ] <= 62310.576202440796
c46: [ 1 x_47_ ^ 2 + 1 y_47_ ^ 2 ] <= 144082.2848133436
c47: [ 1 x_48_ ^ 2 + 1 y_48_ ^ 2 ] <= 1416.02
c48: [ 1 x_49_ ^ 2 + 1 y_49_ ^ 2 ] <= 81934.5836889141
c49: [ 1 x_50_ ^ 2 + 1 y_50_ ^ 2 ] <= 60552.39972189701
c50: [ 1 x_51_ ^ 2 + 1 y_51_ ^ 2 ] <= 161474.36495625388
c51: [ 1 x_52_ ^ 2 + 1 y_52_ ^ 2 ] <= 35220.880655282366
c52: [ 1 x_53_ ^ 2 + 1 y_53_ ^ 2 ] <= 5099.841288799761
c53: [ 1 x_54_ ^ 2 + 1 y_54_ ^ 2 ] <= 42555.783540350516
c54: [ 1 x_55_ ^ 2 + 1 y_55_ ^ 2 ] <= 35963.59567697544
c55: [ 1 x_56_ ^ 2 + 1 y_56_ ^ 2 ] <= 110651.35803278009
c56: [ 1 x_57_ ^ 2 + 1 y_57_ ^ 2 ] <= 25891.341230028025
c57: [ 1 x_58_ ^ 2 + 1 y_58_ ^ 2 ] <= 96183.13877910055
c58: [ 1 x_59_ ^ 2 + 1 y_59_ ^ 2 ] <= 38475.143229340116
c59: [ 1 x_60_ ^ 2 + 1 y_60_ ^ 2 ] <= 78514.88364201582
c60: [ 1 x_61_ ^ 2 + 1 y_61_ ^ 2 ] <= 38507.148718246994
c61: [ 1 x_62_ ^ 2 + 1 y_62_ ^ 2 ] <= 66524.33755460959
c62: [ 1 x_63_ ^ 2 + 1 y_63_ ^ 2 ] <= 18372.085133470413
c63: [ 1 x_64_ ^ 2 + 1 y_64_ ^ 2 ] <= 77654.2380525818
c64: [ 1 x_65_ ^ 2 + 1 y_65_ ^ 2 ] <= 4218.413427497565
c65: [ 1 x_66_ ^ 2 + 1 y_66_ ^ 2 ] <= 62693.8465993632
c66: [ 1 x_67_ ^ 2 + 1 y_67_ ^ 2 ] <= 7176.078263736304
c67: [ 1 x_68_ ^ 2 + 1 y_68_ ^ 2 ] <= 103829.46834940558
c68: [ 1 x_69_ ^ 2 + 1 y_69_ ^ 2 ] <= 135132.39256824114
c69: [ 1 x_70_ ^ 2 + 1 y_70_ ^ 2 ] <= 9382.9
c70: [ 1 x_71_ ^ 2 + 1 y_71_ ^ 2 ] <= 91834.12206938668
c71: [ 1 x_72_ ^ 2 + 1 y_72_ ^ 2 ] <= 23786.78022229335
c72: [ 1 x_73_ ^ 2 + 1 y_73_ ^ 2 ] <= 43304.50417684632
c73: [ 1 x_74_ ^ 2 + 1 y_74_ ^ 2 ] <= 160385.51390573106
c74: [ 1 x_75_ ^ 2 + 1 y_75_ ^ 2 ] <= 106605.97298457538
c75: [ 1 x_76_ ^ 2 + 1 y_76_ ^ 2 ] <= 88928.54383557948
c76: [ 1 x_77_ ^ 2 + 1 y_77_ ^ 2 ] <= 39148.97457149789
c77: [ 1 x_78_ ^ 2 + 1 y_78_ ^ 2 ] <= 40183.05586205436
c78: [ 1 x_79_ ^ 2 + 1 y_79_ ^ 2 ] <= 29292.009718823338
c79: [ 1 x_80_ ^ 2 + 1 y_80_ ^ 2 ] <= 130334.60570180048
c80: [ 1 x_81_ ^ 2 + 1 y_81_ ^ 2 ] <= 100243.37554498888
c81: [ 1 x_82_ ^ 2 + 1 y_82_ ^ 2 ] <= 110181.48337544038
c82: [ 1 x_83_ ^ 2 + 1 y_83_ ^ 2 ] <= 3201.6999999999994
c83: [ 1 x_84_ ^ 2 + 1 y_84_ ^ 2 ] <= 66694.12975287446
c84: [ 1 x_85_ ^ 2 + 1 y_85_ ^ 2 ] <= 69255.98974272412
c85: [ 1 x_86_ ^ 2 + 1 y_86_ ^ 2 ] <= 73196.29866096965
c86: [ 1 x_87_ ^ 2 + 1 y_87_ ^ 2 ] <= 97413.42952705816
c87: [ 1 x_88_ ^ 2 + 1 y_88_ ^ 2 ] <= 37709.74466372245
c88: [ 1 x_89_ ^ 2 + 1 y_89_ ^ 2 ] <= 51819.16655402166
c89: [ 1 x_90_ ^ 2 + 1 y_90_ ^ 2 ] <= 114141.77093645568
c90: [ 1 x_91_ ^ 2 + 1 y_91_ ^ 2 ] <= 68734.06419015829
c91: [ 1 x_92_ ^ 2 + 1 y_92_ ^ 2 ] <= 29896.650062790617
c92: [ 1 x_93_ ^ 2 + 1 y_93_ ^ 2 ] <= 17333.10386556684
c93: [ 1 x_94_ ^ 2 + 1 y_94_ ^ 2 ] <= 38041.07236647923
c94: [ 1 x_95_ ^ 2 + 1 y_95_ ^ 2 ] <= 31130.24549761555
c95: [ 1 x_96_ ^ 2 + 1 y_96_ ^ 2 ] <= 38133.9524300979
c96: [ 1 x_97_ ^ 2 + 1 y_97_ ^ 2 ] <= 146109.7468509567
c97: [ 1 x_98_ ^ 2 + 1 y_98_ ^ 2 ] <= 71207.69318433653
c98: [ 1 x_99_ ^ 2 + 1 y_99_ ^ 2 ] <= 113794.28101355428
c99: [ 1 x_100_ ^ 2 + 1 y_100_ ^ 2 ] <= 106832.31846073759
quadratic_ranged_1_ub: [ 1 x_2_ ^ 2 - 2 x_6_ * x_2_ + 1 x_6_ ^ 2 + 1 y_2_ ^ 2 - 2 y_6_ * y_2_ + 1 y_6_ ^ 2 ] <= 10635.3
quadratic_ranged_2_ub: [ 1 x_3_ ^ 2 - 2 x_6_ * x_3_ + 1 x_6_ ^ 2 + 1 y_3_ ^ 2 - 2 y_6_ * y_3_ + 1 y_6_ ^ 2 ] <= 1273.61
quadratic_ranged_3_ub: [ 1 x_4_ ^ 2 - 2 x_6_ * x_4_ + 1 x_6_ ^ 2 + 1 y_4_ ^ 2 - 2 y_6_ * y_4_ + 1 y_6_ ^ 2 ] <= 14836.9
quadratic_ranged_4_ub: [ 1 x_7_ ^ 2 - 2 x_9_ * x_7_ + 1 x_9_ ^ 2 + 1 y_7_ ^ 2 - 2 y_9_ * y_7_ + 1 y_9_ ^ 2 ] <= 1232.2
quadratic_ranged_5_ub: [ 1 x_3_ ^ 2 - 2 x_10_ * x_3_ + 1 x_10_ ^ 2 + 1 y_3_ ^ 2 - 2 y_10_ * y_3_ + 1 y_10_ ^ 2 ] <= 12230.09
quadratic_ranged_6_ub: [ 1 x_8_ ^ 2 - 2 x_10_ * x_8_ + 1 x_10_ ^ 2 + 1 y_8_ ^ 2 - 2 y_10_ * y_8_ + 1 y_10_ ^ 2 ] <= 3559.2400000000002
quadratic_ranged_7_ub: [ 1 x_3_ ^ 2 - 2 x_12_ * x_3_ + 1 x_12_ ^ 2 + 1 y_3_ ^ 2 - 2 y_12_ * y_3_ + 1 y_12_ ^ 2 ] <= 1941.22
quadratic_ranged_8_ub: [ 1 x_4_ ^ 2 - 2 x_13_ * x_4_ + 1 x_13_ ^ 2 + 1 y_4_ ^ 2 - 2 y_13_ * y_4_ + 1 y_13_ ^ 2 ] <= 32588.66
quadratic_ranged_9_ub: [ 1 x_2_ ^ 2 - 2 x_15_ * x_2_ + 1 x_15_ ^ 2 + 1 y_2_ ^ 2 - 2 y_15_ * y_2_ + 1 y_15_ ^ 2 ] <= 33803.69
quadratic_ranged_10_ub: [ 1 x_1_ ^ 2 - 2 x_16_ * x_1_ + 1 x_16_ ^ 2 + 1 y_1_ ^ 2 - 2 y_16_ * y_1_ + 1 y_16_ ^ 2 ] <= 24224.85
quadratic_ranged_11_ub: [ 1 x_6_ ^ 2 - 2 x_16_ * x_6_ + 1 x_16_ ^ 2 + 1 y_6_ ^ 2 - 2 y_16_ * y_6_ + 1 y_16_ ^ 2 ] <= 26996.29
quadratic_ranged_12_ub: [ 1 x_13_ ^ 2 - 2 x_17_ * x_13_ + 1 x_17_ ^ 2 + 1 y_13_ ^ 2 - 2 y_17_ * y_13_ + 1 y_17_ ^ 2 ] <= 24354.13
quadratic_ranged_13_ub: [ 1 x_15_ ^ 2 - 2 x_17_ * x_15_ + 1 x_17_ ^ 2 + 1 y_15_ ^ 2 - 2 y_17_ * y_15_ + 1 y_17_ ^ 2 ] <= 19507.14
quadratic_ranged_14_ub: [ 1 x_15_ ^ 2 - 2 x_18_ * x_15_ + 1 x_18_ ^ 2 + 1 y_15_ ^ 2 - 2 y_18_ * y_15_ + 1 y_18_ ^ 2 ] <= 27372.010000000002
quadratic_ranged_15_ub: [ 1 x_17_ ^ 2 - 2 x_18_ * x_17_ + 1 x_18_ ^ 2 + 1 y_17_ ^ 2 - 2 y_18_ * y_17_ + 1 y_18_ ^ 2 ] <= 17857.81
quadratic_ranged_16_ub: [ 1 x_9_ ^ 2 - 2 x_19_ * x_9_ + 1 x_19_ ^ 2 + 1 y_9_ ^ 2 - 2 y_19_ * y_9_ + 1 y_19_ ^ 2 ] <= 3964.25
quadratic_ranged_17_ub: [ 1 x_11_ ^ 2 - 2 x_19_ * x_11_ + 1 x_19_ ^ 2 + 1 y_11_ ^ 2 - 2 y_19_ * y_11_ + 1 y_19_ ^ 2 ] <= 32046.29
quadratic_ranged_18_ub: [ 1 x_13_ ^ 2 - 2 x_20_ * x_13_ + 1 x_20_ ^ 2 + 1 y_13_ ^ 2 - 2 y_20_ * y_13_ + 1 y_20_ ^ 2 ] <= 29916.2
quadratic_ranged_19_ub: [ 1 x_17_ ^ 2 - 2 x_20_ * x_17_ + 1 x_20_ ^ 2 + 1 y_17_ ^ 2 - 2 y_20_ * y_17_ + 1 y_20_ ^ 2 ] <= 2279.57
quadratic_ranged_20_ub: [ 1 x_9_ ^ 2 - 2 x_21_ * x_9_ + 1 x_21_ ^ 2 + 1 y_9_ ^ 2 - 2 y_21_ * y_9_ + 1 y_21_ ^ 2 ] <= 19006.18
quadratic_ranged_21_ub: [ 1 x_18_ ^ 2 - 2 x_21_ * x_18_ + 1 x_21_ ^ 2 + 1 y_18_ ^ 2 - 2 y_21_ * y_18_ + 1 y_21_ ^ 2 ] <= 19878.82
quadratic_ranged_22_ub: [ 1 x_3_ ^ 2 - 2 x_22_ * x_3_ + 1 x_22_ ^ 2 + 1 y_3_ ^ 2 - 2 y_22_ * y_3_ + 1 y_22_ ^ 2 ] <= 18896.09
quadratic_ranged_23_ub: [ 1 x_5_ ^ 2 - 2 x_22_ * x_5_ + 1 x_22_ ^ 2 + 1 y_5_ ^ 2 - 2 y_22_ * y_5_ + 1 y_22_ ^ 2 ] <= 585.8
quadratic_ranged_24_ub: [ 1 x_15_ ^ 2 - 2 x_22_ * x_15_ + 1 x_22_ ^ 2 + 1 y_15_ ^ 2 - 2 y_22_ * y_15_ + 1 y_22_ ^ 2 ] <= 22726.01
quadratic_ranged_25_ub: [ 1 x_5_ ^ 2 - 2 x_23_ * x_5_ + 1 x_23_ ^ 2 + 1 y_5_ ^ 2 - 2 y_23_ * y_5_ + 1 y_23_ ^ 2 ] <= 33621.89
quadratic_ranged_26_ub: [ 1 x_17_ ^ 2 - 2 x_23_ * x_17_ + 1 x_23_ ^ 2 + 1 y_17_ ^ 2 - 2 y_23_ * y_17_ + 1 y_23_ ^ 2 ] <= 34.34
quadratic_ranged_27_ub: [ 1 x_15_ ^ 2 - 2 x_24_ * x_15_ + 1 x_24_ ^ 2 + 1 y_15_ ^ 2 - 2 y_24_ * y_15_ + 1 y_24_ ^ 2 ] <= 20096.98
quadratic_ranged_28_ub: [ 1 x_7_ ^ 2 - 2 x_25_ * x_7_ + 1 x_25_ ^ 2 + 1 y_7_ ^ 2 - 2 y_25_ * y_7_ + 1 y_25_ ^ 2 ] <= 971.62
quadratic_ranged_29_ub: [ 1 x_24_ ^ 2 - 2 x_25_ * x_24_ + 1 x_25_ ^ 2 + 1 y_24_ ^ 2 - 2 y_25_ * y_24_ + 1 y_25_ ^ 2 ] <= 1713.97
quadratic_ranged_30_ub: [ 1 x_1_ ^ 2 - 2 x_27_ * x_1_ + 1 x_27_ ^ 2 + 1 y_1_ ^ 2 - 2 y_27_ * y_1_ + 1 y_27_ ^ 2 ] <= 16730.65
quadratic_ranged_31_ub: [ 1 x_17_ ^ 2 - 2 x_27_ * x_17_ + 1 x_27_ ^ 2 + 1 y_17_ ^ 2 - 2 y_27_ * y_17_ + 1 y_27_ ^ 2 ] <= 82.82000000000001
quadratic_ranged_32_ub: [ 1 x_24_ ^ 2 - 2 x_28_ * x_24_ + 1 x_28_ ^ 2 + 1 y_24_ ^ 2 - 2 y_28_ * y_24_ + 1 y_28_ ^ 2 ] <= 26037.8
quadratic_ranged_33_ub: [ 1 x_2_ ^ 2 - 2 x_29_ * x_2_ + 1 x_29_ ^ 2 + 1 y_2_ ^ 2 - 2 y_29_ * y_2_ + 1 y_29_ ^ 2 ] <= 17339.68
quadratic_ranged_34_ub: [ 1 x_20_ ^ 2 - 2 x_29_ * x_20_ + 1 x_29_ ^ 2 + 1 y_20_ ^ 2 - 2 y_29_ * y_20_ + 1 y_29_ ^ 2 ] <= 12631.06
quadratic_ranged_35_ub: [ 1 x_1_ ^ 2 - 2 x_30_ * x_1_ + 1 x_30_ ^ 2 + 1 y_1_ ^ 2 - 2 y_30_ * y_1_ + 1 y_30_ ^ 2 ] <= 22629.05
quadratic_ranged_36_ub: [ 1 x_9_ ^ 2 - 2 x_30_ * x_9_ + 1 x_30_ ^ 2 + 1 y_9_ ^ 2 - 2 y_30_ * y_9_ + 1 y_30_ ^ 2 ] <= 13700.65
quadratic_ranged_37_ub: [ 1 x_3_ ^ 2 - 2 x_31_ * x_3_ + 1 x_31_ ^ 2 + 1 y_3_ ^ 2 - 2 y_31_ * y_3_ + 1 y_31_ ^ 2 ] <= 7862.85
quadratic_ranged_38_ub: [ 1 x_22_ ^ 2 - 2 x_32_ * x_22_ + 1 x_32_ ^ 2 + 1 y_22_ ^ 2 - 2 y_32_ * y_22_ + 1 y_32_ ^ 2 ] <= 23916.8
quadratic_ranged_39_ub: [ 1 x_5_ ^ 2 - 2 x_33_ * x_5_ + 1 x_33_ ^ 2 + 1 y_5_ ^ 2 - 2 y_33_ * y_5_ + 1 y_33_ ^ 2 ] <= 18818.32
quadratic_ranged_40_ub: [ 1 x_8_ ^ 2 - 2 x_33_ * x_8_ + 1 x_33_ ^ 2 + 1 y_8_ ^ 2 - 2 y_33_ * y_8_ + 1 y_33_ ^ 2 ] <= 7306.34
quadratic_ranged_41_ub: [ 1 x_25_ ^ 2 - 2 x_33_ * x_25_ + 1 x_33_ ^ 2 + 1 y_25_ ^ 2 - 2 y_33_ * y_25_ + 1 y_33_ ^ 2 ] <= 7280.08
quadratic_ranged_42_ub: [ 1 x_11_ ^ 2 - 2 x_34_ * x_11_ + 1 x_34_ ^ 2 + 1 y_11_ ^ 2 - 2 y_34_ * y_11_ + 1 y_34_ ^ 2 ] <= 12000.82
quadratic_ranged_43_ub: [ 1 x_14_ ^ 2 - 2 x_34_ * x_14_ + 1 x_34_ ^ 2 + 1 y_14_ ^ 2 - 2 y_34_ * y_14_ + 1 y_34_ ^ 2 ] <= 28588.05
quadratic_ranged_44_ub: [ 1 x_28_ ^ 2 - 2 x_35_ * x_28_ + 1 x_35_ ^ 2 + 1 y_28_ ^ 2 - 2 y_35_ * y_28_ + 1 y_35_ ^ 2 ] <= 4141
quadratic_ranged_45_ub: [ 1 x_28_ ^ 2 - 2 x_36_ * x_28_ + 1 x_36_ ^ 2 + 1 y_28_ ^ 2 - 2 y_36_ * y_28_ + 1 y_36_ ^ 2 ] <= 13707.72
quadratic_ranged_46_ub: [ 1 x_20_ ^ 2 - 2 x_37_ * x_20_ + 1 x_37_ ^ 2 + 1 y_20_ ^ 2 - 2 y_37_ * y_20_ + 1 y_37_ ^ 2 ] <= 40985.8
quadratic_ranged_47_ub: [ 1 x_34_ ^ 2 - 2 x_37_ * x_34_ + 1 x_37_ ^ 2 + 1 y_34_ ^ 2 - 2 y_37_ * y_34_ + 1 y_37_ ^ 2 ] <= 19200.1
quadratic_ranged_48_ub: [ 1 x_13_ ^ 2 - 2 x_38_ * x_13_ + 1 x_38_ ^ 2 + 1 y_13_ ^ 2 - 2 y_38_ * y_13_ + 1 y_38_ ^ 2 ] <= 26507.45
quadratic_ranged_49_ub: [ 1 x_15_ ^ 2 - 2 x_38_ * x_15_ + 1 x_38_ ^ 2 + 1 y_15_ ^ 2 - 2 y_38_ * y_15_ + 1 y_38_ ^ 2 ] <= 20624.2
quadratic_ranged_50_ub: [ 1 x_10_ ^ 2 - 2 x_39_ * x_10_ + 1 x_39_ ^ 2 + 1 y_10_ ^ 2 - 2 y_39_ * y_10_ + 1 y_39_ ^ 2 ] <= 9761.65
quadratic_ranged_51_ub: [ 1 x_36_ ^ 2 - 2 x_39_ * x_36_ + 1 x_39_ ^ 2 + 1 y_36_ ^ 2 - 2 y_39_ * y_36_ + 1 y_39_ ^ 2 ] <= 23339.08
quadratic_ranged_52_ub: [ 1 x_2_ ^ 2 - 2 x_40_ * x_2_ + 1 x_40_ ^ 2 + 1 y_2_ ^ 2 - 2 y_40_ * y_2_ + 1 y_40_ ^ 2 ] <= 3519.85
quadratic_ranged_53_ub: [ 1 x_26_ ^ 2 - 2 x_40_ * x_26_ + 1 x_40_ ^ 2 + 1 y_26_ ^ 2 - 2 y_40_ * y_26_ + 1 y_40_ ^ 2 ] <= 3207.76
quadratic_ranged_54_ub: [ 1 x_4_ ^ 2 - 2 x_41_ * x_4_ + 1 x_41_ ^ 2 + 1 y_4_ ^ 2 - 2 y_41_ * y_4_ + 1 y_41_ ^ 2 ] <= 4953.04
quadratic_ranged_55_ub: [ 1 x_11_ ^ 2 - 2 x_41_ * x_11_ + 1 x_41_ ^ 2 + 1 y_11_ ^ 2 - 2 y_41_ * y_11_ + 1 y_41_ ^ 2 ] <= 373.7
quadratic_ranged_56_ub: [ 1 x_40_ ^ 2 - 2 x_41_ * x_40_ + 1 x_41_ ^ 2 + 1 y_40_ ^ 2 - 2 y_41_ * y_40_ + 1 y_41_ ^ 2 ] <= 7281.09
quadratic_ranged_57_ub: [ 1 x_23_ ^ 2 - 2 x_42_ * x_23_ + 1 x_42_ ^ 2 + 1 y_23_ ^ 2 - 2 y_42_ * y_23_ + 1 y_42_ ^ 2 ] <= 149.48
quadratic_ranged_58_ub: [ 1 x_38_ ^ 2 - 2 x_42_ * x_38_ + 1 x_42_ ^ 2 + 1 y_38_ ^ 2 - 2 y_42_ * y_38_ + 1 y_42_ ^ 2 ] <= 6019.6
quadratic_ranged_59_ub: [ 1 x_12_ ^ 2 - 2 x_43_ * x_12_ + 1 x_43_ ^ 2 + 1 y_12_ ^ 2 - 2 y_43_ * y_12_ + 1 y_43_ ^ 2 ] <= 14473.3
quadratic_ranged_60_ub: [ 1 x_30_ ^ 2 - 2 x_43_ * x_30_ + 1 x_43_ ^ 2 + 1 y_30_ ^ 2 - 2 y_43_ * y_30_ + 1 y_43_ ^ 2 ] <= 27989.12
quadratic_ranged_61_ub: [ 1 x_31_ ^ 2 - 2 x_43_ * x_31_ + 1 x_43_ ^ 2 + 1 y_31_ ^ 2 - 2 y_43_ * y_31_ + 1 y_43_ ^ 2 ] <= 8157.77
quadratic_ranged_62_ub: [ 1 x_6_ ^ 2 - 2 x_44_ * x_6_ + 1 x_44_ ^ 2 + 1 y_6_ ^ 2 - 2 y_44_ * y_6_ + 1 y_44_ ^ 2 ] <= 1490.76
quadratic_ranged_63_ub: [ 1 x_9_ ^ 2 - 2 x_44_ * x_9_ + 1 x_44_ ^ 2 + 1 y_9_ ^ 2 - 2 y_44_ * y_9_ + 1 y_44_ ^ 2 ] <= 1391.78
quadratic_ranged_64_ub: [ 1 x_13_ ^ 2 - 2 x_44_ * x_13_ + 1 x_44_ ^ 2 + 1 y_13_ ^ 2 - 2 y_44_ * y_13_ + 1 y_44_ ^ 2 ] <= 44945
quadratic_ranged_65_ub: [ 1 x_17_ ^ 2 - 2 x_45_ * x_17_ + 1 x_45_ ^ 2 + 1 y_17_ ^ 2 - 2 y_45_ * y_17_ + 1 y_45_ ^ 2 ] <= 17930.53
quadratic_ranged_66_ub: [ 1 x_32_ ^ 2 - 2 x_45_ * x_32_ + 1 x_45_ ^ 2 + 1 y_32_ ^ 2 - 2 y_45_ * y_32_ + 1 y_45_ ^ 2 ] <= 1680.64
quadratic_ranged_67_ub: [ 1 x_40_ ^ 2 - 2 x_46_ * x_40_ + 1 x_46_ ^ 2 + 1 y_40_ ^ 2 - 2 y_46_ * y_40_ + 1 y_46_ ^ 2 ] <= 19878.82
quadratic_ranged_68_ub: [ 1 x_2_ ^ 2 - 2 x_47_ * x_2_ + 1 x_47_ ^ 2 + 1 y_2_ ^ 2 - 2 y_47_ * y_2_ + 1 y_47_ ^ 2 ] <= 40215.17
quadratic_ranged_69_ub: [ 1 x_35_ ^ 2 - 2 x_47_ * x_35_ + 1 x_47_ ^ 2 + 1 y_35_ ^ 2 - 2 y_47_ * y_35_ + 1 y_47_ ^ 2 ] <= 25035.88
quadratic_ranged_70_ub: [ 1 x_9_ ^ 2 - 2 x_48_ * x_9_ + 1 x_48_ ^ 2 + 1 y_9_ ^ 2 - 2 y_48_ * y_9_ + 1 y_48_ ^ 2 ] <= 1416.02
quadratic_ranged_71_ub: [ 1 x_20_ ^ 2 - 2 x_48_ * x_20_ + 1 x_48_ ^ 2 + 1 y_20_ ^ 2 - 2 y_48_ * y_20_ + 1 y_48_ ^ 2 ] <= 21593.8
quadratic_ranged_72_ub: [ 1 x_11_ ^ 2 - 2 x_49_ * x_11_ + 1 x_49_ ^ 2 + 1 y_11_ ^ 2 - 2 y_49_ * y_11_ + 1 y_49_ ^ 2 ] <= 1959.4
quadratic_ranged_73_ub: [ 1 x_24_ ^ 2 - 2 x_50_ * x_24_ + 1 x_50_ ^ 2 + 1 y_24_ ^ 2 - 2 y_50_ * y_24_ + 1 y_50_ ^ 2 ] <= 19154.65
quadratic_ranged_74_ub: [ 1 x_1_ ^ 2 - 2 x_51_ * x_1_ + 1 x_51_ ^ 2 + 1 y_1_ ^ 2 - 2 y_51_ * y_1_ + 1 y_51_ ^ 2 ] <= 33819.85
quadratic_ranged_75_ub: [ 1 x_35_ ^ 2 - 2 x_51_ * x_35_ + 1 x_51_ ^ 2 + 1 y_35_ ^ 2 - 2 y_51_ * y_35_ + 1 y_51_ ^ 2 ] <= 17230.6
quadratic_ranged_76_ub: [ 1 x_3_ ^ 2 - 2 x_52_ * x_3_ + 1 x_52_ ^ 2 + 1 y_3_ ^ 2 - 2 y_52_ * y_3_ + 1 y_52_ ^ 2 ] <= 5786.29
quadratic_ranged_77_ub: [ 1 x_34_ ^ 2 - 2 x_52_ * x_34_ + 1 x_52_ ^ 2 + 1 y_34_ ^ 2 - 2 y_52_ * y_34_ + 1 y_52_ ^ 2 ] <= 30932.260000000002
quadratic_ranged_78_ub: [ 1 x_48_ ^ 2 - 2 x_53_ * x_48_ + 1 x_53_ ^ 2 + 1 y_48_ ^ 2 - 2 y_53_ * y_48_ + 1 y_53_ ^ 2 ] <= 1141.3
quadratic_ranged_79_ub: [ 1 x_19_ ^ 2 - 2 x_54_ * x_19_ + 1 x_54_ ^ 2 + 1 y_19_ ^ 2 - 2 y_54_ * y_19_ + 1 y_54_ ^ 2 ] <= 24443.01
quadratic_ranged_80_ub: [ 1 x_24_ ^ 2 - 2 x_54_ * x_24_ + 1 x_54_ ^ 2 + 1 y_24_ ^ 2 - 2 y_54_ * y_24_ + 1 y_54_ ^ 2 ] <= 9725.29
quadratic_ranged_81_ub: [ 1 x_50_ ^ 2 - 2 x_54_ * x_50_ + 1 x_54_ ^ 2 + 1 y_50_ ^ 2 - 2 y_54_ * y_50_ + 1 y_54_ ^ 2 ] <= 1900.82
quadratic_ranged_82_ub: [ 1 x_30_ ^ 2 - 2 x_55_ * x_30_ + 1 x_55_ ^ 2 + 1 y_30_ ^ 2 - 2 y_55_ * y_30_ + 1 y_55_ ^ 2 ] <= 24072.34
quadratic_ranged_83_ub: [ 1 x_33_ ^ 2 - 2 x_55_ * x_33_ + 1 x_55_ ^ 2 + 1 y_33_ ^ 2 - 2 y_55_ * y_33_ + 1 y_55_ ^ 2 ] <= 1447.33
quadratic_ranged_84_ub: [ 1 x_46_ ^ 2 - 2 x_55_ * x_46_ + 1 x_55_ ^ 2 + 1 y_46_ ^ 2 - 2 y_55_ * y_46_ + 1 y_55_ ^ 2 ] <= 3597.62
quadratic_ranged_85_ub: [ 1 x_13_ ^ 2 - 2 x_56_ * x_13_ + 1 x_56_ ^ 2 + 1 y_13_ ^ 2 - 2 y_56_ * y_13_ + 1 y_56_ ^ 2 ] <= 25784.29
quadratic_ranged_86_ub: [ 1 x_14_ ^ 2 - 2 x_56_ * x_14_ + 1 x_56_ ^ 2 + 1 y_14_ ^ 2 - 2 y_56_ * y_14_ + 1 y_56_ ^ 2 ] <= 486.82
quadratic_ranged_87_ub: [ 1 x_26_ ^ 2 - 2 x_56_ * x_26_ + 1 x_56_ ^ 2 + 1 y_26_ ^ 2 - 2 y_56_ * y_26_ + 1 y_56_ ^ 2 ] <= 14190.5
quadratic_ranged_88_ub: [ 1 x_5_ ^ 2 - 2 x_57_ * x_5_ + 1 x_57_ ^ 2 + 1 y_5_ ^ 2 - 2 y_57_ * y_5_ + 1 y_57_ ^ 2 ] <= 26765
quadratic_ranged_89_ub: [ 1 x_24_ ^ 2 - 2 x_57_ * x_24_ + 1 x_57_ ^ 2 + 1 y_24_ ^ 2 - 2 y_57_ * y_24_ + 1 y_57_ ^ 2 ] <= 18617.33
quadratic_ranged_90_ub: [ 1 x_53_ ^ 2 - 2 x_57_ * x_53_ + 1 x_57_ ^ 2 + 1 y_53_ ^ 2 - 2 y_57_ * y_53_ + 1 y_57_ ^ 2 ] <= 8009.3
quadratic_ranged_91_ub: [ 1 x_23_ ^ 2 - 2 x_58_ * x_23_ + 1 x_58_ ^ 2 + 1 y_23_ ^ 2 - 2 y_58_ * y_23_ + 1 y_58_ ^ 2 ] <= 25656.02
quadratic_ranged_92_ub: [ 1 x_47_ ^ 2 - 2 x_58_ * x_47_ + 1 x_58_ ^ 2 + 1 y_47_ ^ 2 - 2 y_58_ * y_47_ + 1 y_58_ ^ 2 ] <= 37232.64
quadratic_ranged_93_ub: [ 1 x_5_ ^ 2 - 2 x_59_ * x_5_ + 1 x_59_ ^ 2 + 1 y_5_ ^ 2 - 2 y_59_ * y_5_ + 1 y_59_ ^ 2 ] <= 34138
quadratic_ranged_94_ub: [ 1 x_15_ ^ 2 - 2 x_60_ * x_15_ + 1 x_60_ ^ 2 + 1 y_15_ ^ 2 - 2 y_60_ * y_15_ + 1 y_60_ ^ 2 ] <= 28531.49
quadratic_ranged_95_ub: [ 1 x_39_ ^ 2 - 2 x_60_ * x_39_ + 1 x_60_ ^ 2 + 1 y_39_ ^ 2 - 2 y_60_ * y_39_ + 1 y_60_ ^ 2 ] <= 10044.45
quadratic_ranged_96_ub: [ 1 x_54_ ^ 2 - 2 x_60_ * x_54_ + 1 x_60_ ^ 2 + 1 y_54_ ^ 2 - 2 y_60_ * y_54_ + 1 y_60_ ^ 2 ] <= 11766.5
quadratic_ranged_97_ub: [ 1 x_10_ ^ 2 - 2 x_61_ * x_10_ + 1 x_61_ ^ 2 + 1 y_10_ ^ 2 - 2 y_61_ * y_10_ + 1 y_61_ ^ 2 ] <= 17262.920000000002
quadratic_ranged_98_ub: [ 1 x_16_ ^ 2 - 2 x_61_ * x_16_ + 1 x_61_ ^ 2 + 1 y_16_ ^ 2 - 2 y_61_ * y_16_ + 1 y_61_ ^ 2 ] <= 5964.05
quadratic_ranged_99_ub: [ 1 x_24_ ^ 2 - 2 x_61_ * x_24_ + 1 x_61_ ^ 2 + 1 y_24_ ^ 2 - 2 y_61_ * y_24_ + 1 y_61_ ^ 2 ] <= 7842.65
quadratic_ranged_100_ub: [ 1 x_27_ ^ 2 - 2 x_62_ * x_27_ + 1 x_62_ ^ 2 + 1 y_27_ ^ 2 - 2 y_62_ * y_27_ + 1 y_62_ ^ 2 ] <= 8649.64
quadratic_ranged_101_ub: [ 1 x_46_ ^ 2 - 2 x_63_ * x_46_ + 1 x_63_ ^ 2 + 1 y_46_ ^ 2 - 2 y_63_ * y_46_ + 1 y_63_ ^ 2 ] <= 16496.33
quadratic_ranged_102_ub: [ 1 x_53_ ^ 2 - 2 x_63_ * x_53_ + 1 x_63_ ^ 2 + 1 y_53_ ^ 2 - 2 y_63_ * y_53_ + 1 y_63_ ^ 2 ] <= 4112.72
quadratic_ranged_103_ub: [ 1 x_2_ ^ 2 - 2 x_64_ * x_2_ + 1 x_64_ ^ 2 + 1 y_2_ ^ 2 - 2 y_64_ * y_2_ + 1 y_64_ ^ 2 ] <= 9924.26
quadratic_ranged_104_ub: [ 1 x_12_ ^ 2 - 2 x_64_ * x_12_ + 1 x_64_ ^ 2 + 1 y_12_ ^ 2 - 2 y_64_ * y_12_ + 1 y_64_ ^ 2 ] <= 23024.97
quadratic_ranged_105_ub: [ 1 x_31_ ^ 2 - 2 x_64_ * x_31_ + 1 x_64_ ^ 2 + 1 y_31_ ^ 2 - 2 y_64_ * y_31_ + 1 y_64_ ^ 2 ] <= 7837.6
quadratic_ranged_106_ub: [ 1 x_7_ ^ 2 - 2 x_65_ * x_7_ + 1 x_65_ ^ 2 + 1 y_7_ ^ 2 - 2 y_65_ * y_7_ + 1 y_65_ ^ 2 ] <= 890.82
quadratic_ranged_107_ub: [ 1 x_16_ ^ 2 - 2 x_65_ * x_16_ + 1 x_65_ ^ 2 + 1 y_16_ ^ 2 - 2 y_65_ * y_16_ + 1 y_65_ ^ 2 ] <= 11939.210000000001
quadratic_ranged_108_ub: [ 1 x_42_ ^ 2 - 2 x_65_ * x_42_ + 1 x_65_ ^ 2 + 1 y_42_ ^ 2 - 2 y_65_ * y_42_ + 1 y_65_ ^ 2 ] <= 5297.45
quadratic_ranged_109_ub: [ 1 x_4_ ^ 2 - 2 x_66_ * x_4_ + 1 x_66_ ^ 2 + 1 y_4_ ^ 2 - 2 y_66_ * y_4_ + 1 y_66_ ^ 2 ] <= 2773.46
quadratic_ranged_110_ub: [ 1 x_3_ ^ 2 - 2 x_67_ * x_3_ + 1 x_67_ ^ 2 + 1 y_3_ ^ 2 - 2 y_67_ * y_3_ + 1 y_67_ ^ 2 ] <= 1262.5
quadratic_ranged_111_ub: [ 1 x_28_ ^ 2 - 2 x_67_ * x_28_ + 1 x_67_ ^ 2 + 1 y_28_ ^ 2 - 2 y_67_ * y_28_ + 1 y_67_ ^ 2 ] <= 62317
quadratic_ranged_112_ub: [ 1 x_44_ ^ 2 - 2 x_67_ * x_44_ + 1 x_67_ ^ 2 + 1 y_44_ ^ 2 - 2 y_67_ * y_44_ + 1 y_67_ ^ 2 ] <= 2247.25
quadratic_ranged_113_ub: [ 1 x_16_ ^ 2 - 2 x_68_ * x_16_ + 1 x_68_ ^ 2 + 1 y_16_ ^ 2 - 2 y_68_ * y_16_ + 1 y_68_ ^ 2 ] <= 21906.9
quadratic_ranged_114_ub: [ 1 x_50_ ^ 2 - 2 x_69_ * x_50_ + 1 x_69_ ^ 2 + 1 y_50_ ^ 2 - 2 y_69_ * y_50_ + 1 y_69_ ^ 2 ] <= 25578.25
quadratic_ranged_115_ub: [ 1 x_59_ ^ 2 - 2 x_69_ * x_59_ + 1 x_69_ ^ 2 + 1 y_59_ ^ 2 - 2 y_69_ * y_59_ + 1 y_69_ ^ 2 ] <= 29396.05
quadratic_ranged_116_ub: [ 1 x_66_ ^ 2 - 2 x_69_ * x_66_ + 1 x_69_ ^ 2 + 1 y_66_ ^ 2 - 2 y_69_ * y_66_ + 1 y_69_ ^ 2 ] <= 27497.25
quadratic_ranged_117_ub: [ 1 x_9_ ^ 2 - 2 x_70_ * x_9_ + 1 x_70_ ^ 2 + 1 y_9_ ^ 2 - 2 y_70_ * y_9_ + 1 y_70_ ^ 2 ] <= 9382.9
quadratic_ranged_118_ub: [ 1 x_20_ ^ 2 - 2 x_70_ * x_20_ + 1 x_70_ ^ 2 + 1 y_20_ ^ 2 - 2 y_70_ * y_20_ + 1 y_70_ ^ 2 ] <= 2722.96
quadratic_ranged_119_ub: [ 1 x_59_ ^ 2 - 2 x_70_ * x_59_ + 1 x_70_ ^ 2 + 1 y_59_ ^ 2 - 2 y_70_ * y_59_ + 1 y_70_ ^ 2 ] <= 9857.6
quadratic_ranged_120_ub: [ 1 x_38_ ^ 2 - 2 x_71_ * x_38_ + 1 x_71_ ^ 2 + 1 y_38_ ^ 2 - 2 y_71_ * y_38_ + 1 y_71_ ^ 2 ] <= 14723.78
quadratic_ranged_121_ub: [ 1 x_51_ ^ 2 - 2 x_71_ * x_51_ + 1 x_71_ ^ 2 + 1 y_51_ ^ 2 - 2 y_71_ * y_51_ + 1 y_71_ ^ 2 ] <= 49449.6
quadratic_ranged_122_ub: [ 1 x_66_ ^ 2 - 2 x_71_ * x_66_ + 1 x_71_ ^ 2 + 1 y_66_ ^ 2 - 2 y_71_ * y_66_ + 1 y_71_ ^ 2 ] <= 2772.45
quadratic_ranged_123_ub: [ 1 x_13_ ^ 2 - 2 x_72_ * x_13_ + 1 x_72_ ^ 2 + 1 y_13_ ^ 2 - 2 y_72_ * y_13_ + 1 y_72_ ^ 2 ] <= 12933.05
quadratic_ranged_124_ub: [ 1 x_24_ ^ 2 - 2 x_72_ * x_24_ + 1 x_72_ ^ 2 + 1 y_24_ ^ 2 - 2 y_72_ * y_24_ + 1 y_72_ ^ 2 ] <= 2167.46
quadratic_ranged_125_ub: [ 1 x_20_ ^ 2 - 2 x_73_ * x_20_ + 1 x_73_ ^ 2 + 1 y_20_ ^ 2 - 2 y_73_ * y_20_ + 1 y_73_ ^ 2 ] <= 11200.9
quadratic_ranged_126_ub: [ 1 x_45_ ^ 2 - 2 x_73_ * x_45_ + 1 x_73_ ^ 2 + 1 y_45_ ^ 2 - 2 y_73_ * y_45_ + 1 y_73_ ^ 2 ] <= 20468.66
quadratic_ranged_127_ub: [ 1 x_72_ ^ 2 - 2 x_73_ * x_72_ + 1 x_73_ ^ 2 + 1 y_72_ ^ 2 - 2 y_73_ * y_72_ + 1 y_73_ ^ 2 ] <= 2901.73
quadratic_ranged_128_ub: [ 1 x_37_ ^ 2 - 2 x_74_ * x_37_ + 1 x_74_ ^ 2 + 1 y_37_ ^ 2 - 2 y_74_ * y_37_ + 1 y_74_ ^ 2 ] <= 17926.49
quadratic_ranged_129_ub: [ 1 x_49_ ^ 2 - 2 x_74_ * x_49_ + 1 x_74_ ^ 2 + 1 y_49_ ^ 2 - 2 y_74_ * y_49_ + 1 y_74_ ^ 2 ] <= 28911.25
quadratic_ranged_130_ub: [ 1 x_16_ ^ 2 - 2 x_75_ * x_16_ + 1 x_75_ ^ 2 + 1 y_16_ ^ 2 - 2 y_75_ * y_16_ + 1 y_75_ ^ 2 ] <= 33464.33
quadratic_ranged_131_ub: [ 1 x_26_ ^ 2 - 2 x_75_ * x_26_ + 1 x_75_ ^ 2 + 1 y_26_ ^ 2 - 2 y_75_ * y_26_ + 1 y_75_ ^ 2 ] <= 27392.21
quadratic_ranged_132_ub: [ 1 x_62_ ^ 2 - 2 x_75_ * x_62_ + 1 x_75_ ^ 2 + 1 y_62_ ^ 2 - 2 y_75_ * y_62_ + 1 y_75_ ^ 2 ] <= 4703.57
quadratic_ranged_133_ub: [ 1 x_14_ ^ 2 - 2 x_76_ * x_14_ + 1 x_76_ ^ 2 + 1 y_14_ ^ 2 - 2 y_76_ * y_14_ + 1 y_76_ ^ 2 ] <= 1494.8
quadratic_ranged_134_ub: [ 1 x_2_ ^ 2 - 2 x_77_ * x_2_ + 1 x_77_ ^ 2 + 1 y_2_ ^ 2 - 2 y_77_ * y_2_ + 1 y_77_ ^ 2 ] <= 19235.45
quadratic_ranged_135_ub: [ 1 x_63_ ^ 2 - 2 x_77_ * x_63_ + 1 x_77_ ^ 2 + 1 y_63_ ^ 2 - 2 y_77_ * y_63_ + 1 y_77_ ^ 2 ] <= 3883.45
quadratic_ranged_136_ub: [ 1 x_76_ ^ 2 - 2 x_77_ * x_76_ + 1 x_77_ ^ 2 + 1 y_76_ ^ 2 - 2 y_77_ * y_76_ + 1 y_77_ ^ 2 ] <= 10069.7
quadratic_ranged_137_ub: [ 1 x_18_ ^ 2 - 2 x_78_ * x_18_ + 1 x_78_ ^ 2 + 1 y_18_ ^ 2 - 2 y_78_ * y_18_ + 1 y_78_ ^ 2 ] <= 861.53
quadratic_ranged_138_ub: [ 1 x_58_ ^ 2 - 2 x_78_ * x_58_ + 1 x_78_ ^ 2 + 1 y_58_ ^ 2 - 2 y_78_ * y_58_ + 1 y_78_ ^ 2 ] <= 36622.6
quadratic_ranged_139_ub: [ 1 x_70_ ^ 2 - 2 x_78_ * x_70_ + 1 x_78_ ^ 2 + 1 y_70_ ^ 2 - 2 y_78_ * y_70_ + 1 y_78_ ^ 2 ] <= 10731.25
quadratic_ranged_140_ub: [ 1 x_8_ ^ 2 - 2 x_79_ * x_8_ + 1 x_79_ ^ 2 + 1 y_8_ ^ 2 - 2 y_79_ * y_8_ + 1 y_79_ ^ 2 ] <= 15078.29
quadratic_ranged_141_ub: [ 1 x_21_ ^ 2 - 2 x_79_ * x_21_ + 1 x_79_ ^ 2 + 1 y_21_ ^ 2 - 2 y_79_ * y_21_ + 1 y_79_ ^ 2 ] <= 1107.97
quadratic_ranged_142_ub: [ 1 x_76_ ^ 2 - 2 x_79_ * x_76_ + 1 x_79_ ^ 2 + 1 y_76_ ^ 2 - 2 y_79_ * y_76_ + 1 y_79_ ^ 2 ] <= 23335.04
quadratic_ranged_143_ub: [ 1 x_49_ ^ 2 - 2 x_80_ * x_49_ + 1 x_80_ ^ 2 + 1 y_49_ ^ 2 - 2 y_80_ * y_49_ + 1 y_80_ ^ 2 ] <= 15478.25
quadratic_ranged_144_ub: [ 1 x_68_ ^ 2 - 2 x_80_ * x_68_ + 1 x_80_ ^ 2 + 1 y_68_ ^ 2 - 2 y_80_ * y_68_ + 1 y_80_ ^ 2 ] <= 1504.9
quadratic_ranged_145_ub: [ 1 x_15_ ^ 2 - 2 x_81_ * x_15_ + 1 x_81_ ^ 2 + 1 y_15_ ^ 2 - 2 y_81_ * y_15_ + 1 y_81_ ^ 2 ] <= 13251.2
quadratic_ranged_146_ub: [ 1 x_49_ ^ 2 - 2 x_81_ * x_49_ + 1 x_81_ ^ 2 + 1 y_49_ ^ 2 - 2 y_81_ * y_49_ + 1 y_81_ ^ 2 ] <= 17663.89
quadratic_ranged_147_ub: [ 1 x_35_ ^ 2 - 2 x_82_ * x_35_ + 1 x_82_ ^ 2 + 1 y_35_ ^ 2 - 2 y_82_ * y_35_ + 1 y_82_ ^ 2 ] <= 14303.62
quadratic_ranged_148_ub: [ 1 x_57_ ^ 2 - 2 x_82_ * x_57_ + 1 x_82_ ^ 2 + 1 y_57_ ^ 2 - 2 y_82_ * y_57_ + 1 y_82_ ^ 2 ] <= 29250.61
quadratic_ranged_149_ub: [ 1 x_62_ ^ 2 - 2 x_82_ * x_62_ + 1 x_82_ ^ 2 + 1 y_62_ ^ 2 - 2 y_82_ * y_62_ + 1 y_82_ ^ 2 ] <= 13736
quadratic_ranged_150_ub: [ 1 x_9_ ^ 2 - 2 x_83_ * x_9_ + 1 x_83_ ^ 2 + 1 y_9_ ^ 2 - 2 y_83_ * y_9_ + 1 y_83_ ^ 2 ] <= 3201.7
quadratic_ranged_151_ub: [ 1 x_15_ ^ 2 - 2 x_83_ * x_15_ + 1 x_83_ ^ 2 + 1 y_15_ ^ 2 - 2 y_83_ * y_15_ + 1 y_83_ ^ 2 ] <= 45232.85
quadratic_ranged_152_ub: [ 1 x_50_ ^ 2 - 2 x_83_ * x_50_ + 1 x_83_ ^ 2 + 1 y_50_ ^ 2 - 2 y_83_ * y_50_ + 1 y_83_ ^ 2 ] <= 38077
quadratic_ranged_153_ub: [ 1 x_38_ ^ 2 - 2 x_84_ * x_38_ + 1 x_84_ ^ 2 + 1 y_38_ ^ 2 - 2 y_84_ * y_38_ + 1 y_84_ ^ 2 ] <= 1843.25
quadratic_ranged_154_ub: [ 1 x_51_ ^ 2 - 2 x_84_ * x_51_ + 1 x_84_ ^ 2 + 1 y_51_ ^ 2 - 2 y_84_ * y_51_ + 1 y_84_ ^ 2 ] <= 20617.13
quadratic_ranged_155_ub: [ 1 x_10_ ^ 2 - 2 x_85_ * x_10_ + 1 x_85_ ^ 2 + 1 y_10_ ^ 2 - 2 y_85_ * y_10_ + 1 y_85_ ^ 2 ] <= 28034.57
quadratic_ranged_156_ub: [ 1 x_76_ ^ 2 - 2 x_85_ * x_76_ + 1 x_85_ ^ 2 + 1 y_76_ ^ 2 - 2 y_85_ * y_76_ + 1 y_85_ ^ 2 ] <= 26771.06
quadratic_ranged_157_ub: [ 1 x_40_ ^ 2 - 2 x_86_ * x_40_ + 1 x_86_ ^ 2 + 1 y_40_ ^ 2 - 2 y_86_ * y_40_ + 1 y_86_ ^ 2 ] <= 1035.25
quadratic_ranged_158_ub: [ 1 x_54_ ^ 2 - 2 x_86_ * x_54_ + 1 x_86_ ^ 2 + 1 y_54_ ^ 2 - 2 y_86_ * y_54_ + 1 y_86_ ^ 2 ] <= 8746.6
quadratic_ranged_159_ub: [ 1 x_84_ ^ 2 - 2 x_86_ * x_84_ + 1 x_86_ ^ 2 + 1 y_84_ ^ 2 - 2 y_86_ * y_84_ + 1 y_86_ ^ 2 ] <= 840.32
quadratic_ranged_160_ub: [ 1 x_10_ ^ 2 - 2 x_87_ * x_10_ + 1 x_87_ ^ 2 + 1 y_10_ ^ 2 - 2 y_87_ * y_10_ + 1 y_87_ ^ 2 ] <= 8085.05
quadratic_ranged_161_ub: [ 1 x_46_ ^ 2 - 2 x_87_ * x_46_ + 1 x_87_ ^ 2 + 1 y_46_ ^ 2 - 2 y_87_ * y_46_ + 1 y_87_ ^ 2 ] <= 7312.4
quadratic_ranged_162_ub: [ 1 x_74_ ^ 2 - 2 x_87_ * x_74_ + 1 x_87_ ^ 2 + 1 y_74_ ^ 2 - 2 y_87_ * y_74_ + 1 y_87_ ^ 2 ] <= 7809.32
quadratic_ranged_163_ub: [ 1 x_23_ ^ 2 - 2 x_88_ * x_23_ + 1 x_88_ ^ 2 + 1 y_23_ ^ 2 - 2 y_88_ * y_23_ + 1 y_88_ ^ 2 ] <= 1956.3700000000001
quadratic_ranged_164_ub: [ 1 x_77_ ^ 2 - 2 x_88_ * x_77_ + 1 x_88_ ^ 2 + 1 y_77_ ^ 2 - 2 y_88_ * y_77_ + 1 y_88_ ^ 2 ] <= 11119.09
quadratic_ranged_165_ub: [ 1 x_38_ ^ 2 - 2 x_89_ * x_38_ + 1 x_89_ ^ 2 + 1 y_38_ ^ 2 - 2 y_89_ * y_38_ + 1 y_89_ ^ 2 ] <= 10464.61
quadratic_ranged_166_ub: [ 1 x_83_ ^ 2 - 2 x_89_ * x_83_ + 1 x_89_ ^ 2 + 1 y_83_ ^ 2 - 2 y_89_ * y_83_ + 1 y_89_ ^ 2 ] <= 29259.7
quadratic_ranged_167_ub: [ 1 x_2_ ^ 2 - 2 x_90_ * x_2_ + 1 x_90_ ^ 2 + 1 y_2_ ^ 2 - 2 y_90_ * y_2_ + 1 y_90_ ^ 2 ] <= 29723.29
quadratic_ranged_168_ub: [ 1 x_5_ ^ 2 - 2 x_90_ * x_5_ + 1 x_90_ ^ 2 + 1 y_5_ ^ 2 - 2 y_90_ * y_5_ + 1 y_90_ ^ 2 ] <= 4170.29
quadratic_ranged_169_ub: [ 1 x_80_ ^ 2 - 2 x_90_ * x_80_ + 1 x_90_ ^ 2 + 1 y_80_ ^ 2 - 2 y_90_ * y_80_ + 1 y_90_ ^ 2 ] <= 19692.98
quadratic_ranged_170_ub: [ 1 x_11_ ^ 2 - 2 x_91_ * x_11_ + 1 x_91_ ^ 2 + 1 y_11_ ^ 2 - 2 y_91_ * y_11_ + 1 y_91_ ^ 2 ] <= 19578.85
quadratic_ranged_171_ub: [ 1 x_31_ ^ 2 - 2 x_91_ * x_31_ + 1 x_91_ ^ 2 + 1 y_31_ ^ 2 - 2 y_91_ * y_31_ + 1 y_91_ ^ 2 ] <= 3830.93
quadratic_ranged_172_ub: [ 1 x_80_ ^ 2 - 2 x_91_ * x_80_ + 1 x_91_ ^ 2 + 1 y_80_ ^ 2 - 2 y_91_ * y_80_ + 1 y_91_ ^ 2 ] <= 11994.76
quadratic_ranged_173_ub: [ 1 x_11_ ^ 2 - 2 x_92_ * x_11_ + 1 x_92_ ^ 2 + 1 y_11_ ^ 2 - 2 y_92_ * y_11_ + 1 y_92_ ^ 2 ] <= 9284.93
quadratic_ranged_174_ub: [ 1 x_70_ ^ 2 - 2 x_92_ * x_70_ + 1 x_92_ ^ 2 + 1 y_70_ ^ 2 - 2 y_92_ * y_70_ + 1 y_92_ ^ 2 ] <= 5782.25
quadratic_ranged_175_ub: [ 1 x_85_ ^ 2 - 2 x_92_ * x_85_ + 1 x_92_ ^ 2 + 1 y_85_ ^ 2 - 2 y_92_ * y_85_ + 1 y_92_ ^ 2 ] <= 8146.66
quadratic_ranged_176_ub: [ 1 x_2_ ^ 2 - 2 x_93_ * x_2_ + 1 x_93_ ^ 2 + 1 y_2_ ^ 2 - 2 y_93_ * y_2_ + 1 y_93_ ^ 2 ] <= 2506.82
quadratic_ranged_177_ub: [ 1 x_6_ ^ 2 - 2 x_93_ * x_6_ + 1 x_93_ ^ 2 + 1 y_6_ ^ 2 - 2 y_93_ * y_6_ + 1 y_93_ ^ 2 ] <= 3106.76
quadratic_ranged_178_ub: [ 1 x_36_ ^ 2 - 2 x_93_ * x_36_ + 1 x_93_ ^ 2 + 1 y_36_ ^ 2 - 2 y_93_ * y_36_ + 1 y_93_ ^ 2 ] <= 13357.25
quadratic_ranged_179_ub: [ 1 x_13_ ^ 2 - 2 x_94_ * x_13_ + 1 x_94_ ^ 2 + 1 y_13_ ^ 2 - 2 y_94_ * y_13_ + 1 y_94_ ^ 2 ] <= 21672.58
quadratic_ranged_180_ub: [ 1 x_52_ ^ 2 - 2 x_94_ * x_52_ + 1 x_94_ ^ 2 + 1 y_52_ ^ 2 - 2 y_94_ * y_52_ + 1 y_94_ ^ 2 ] <= 1537.22
quadratic_ranged_181_ub: [ 1 x_93_ ^ 2 - 2 x_94_ * x_93_ + 1 x_94_ ^ 2 + 1 y_93_ ^ 2 - 2 y_94_ * y_93_ + 1 y_94_ ^ 2 ] <= 4017.78
quadratic_ranged_182_ub: [ 1 x_2_ ^ 2 - 2 x_95_ * x_2_ + 1 x_95_ ^ 2 + 1 y_2_ ^ 2 - 2 y_95_ * y_2_ + 1 y_95_ ^ 2 ] <= 13894.57
quadratic_ranged_183_ub: [ 1 x_16_ ^ 2 - 2 x_95_ * x_16_ + 1 x_95_ ^ 2 + 1 y_16_ ^ 2 - 2 y_95_ * y_16_ + 1 y_95_ ^ 2 ] <= 4300.58
quadratic_ranged_184_ub: [ 1 x_30_ ^ 2 - 2 x_95_ * x_30_ + 1 x_95_ ^ 2 + 1 y_30_ ^ 2 - 2 y_95_ * y_30_ + 1 y_95_ ^ 2 ] <= 3526.92
quadratic_ranged_185_ub: [ 1 x_56_ ^ 2 - 2 x_96_ * x_56_ + 1 x_96_ ^ 2 + 1 y_56_ ^ 2 - 2 y_96_ * y_56_ + 1 y_96_ ^ 2 ] <= 18868.82
quadratic_ranged_186_ub: [ 1 x_60_ ^ 2 - 2 x_96_ * x_60_ + 1 x_96_ ^ 2 + 1 y_60_ ^ 2 - 2 y_96_ * y_60_ + 1 y_96_ ^ 2 ] <= 7212.41
quadratic_ranged_187_ub: [ 1 x_63_ ^ 2 - 2 x_96_ * x_63_ + 1 x_96_ ^ 2 + 1 y_63_ ^ 2 - 2 y_96_ * y_63_ + 1 y_96_ ^ 2 ] <= 3568.33
quadratic_ranged_188_ub: [ 1 x_29_ ^ 2 - 2 x_97_ * x_29_ + 1 x_97_ ^ 2 + 1 y_29_ ^ 2 - 2 y_97_ * y_29_ + 1 y_97_ ^ 2 ] <= 14594.5
quadratic_ranged_189_ub: [ 1 x_32_ ^ 2 - 2 x_97_ * x_32_ + 1 x_97_ ^ 2 + 1 y_32_ ^ 2 - 2 y_97_ * y_32_ + 1 y_97_ ^ 2 ] <= 21141.32
quadratic_ranged_190_ub: [ 1 x_43_ ^ 2 - 2 x_97_ * x_43_ + 1 x_97_ ^ 2 + 1 y_43_ ^ 2 - 2 y_97_ * y_43_ + 1 y_97_ ^ 2 ] <= 44182.45
quadratic_ranged_191_ub: [ 1 x_22_ ^ 2 - 2 x_98_ * x_22_ + 1 x_98_ ^ 2 + 1 y_22_ ^ 2 - 2 y_98_ * y_22_ + 1 y_98_ ^ 2 ] <= 316.13
quadratic_ranged_192_ub: [ 1 x_81_ ^ 2 - 2 x_98_ * x_81_ + 1 x_98_ ^ 2 + 1 y_81_ ^ 2 - 2 y_98_ * y_81_ + 1 y_98_ ^ 2 ] <= 2476.52
quadratic_ranged_193_ub: [ 1 x_89_ ^ 2 - 2 x_98_ * x_89_ + 1 x_98_ ^ 2 + 1 y_89_ ^ 2 - 2 y_98_ * y_89_ + 1 y_98_ ^ 2 ] <= 15211.61
quadratic_ranged_194_ub: [ 1 x_68_ ^ 2 - 2 x_99_ * x_68_ + 1 x_99_ ^ 2 + 1 y_68_ ^ 2 - 2 y_99_ * y_68_ + 1 y_99_ ^ 2 ] <= 228.26
quadratic_ranged_195_ub: [ 1 x_89_ ^ 2 - 2 x_99_ * x_89_ + 1 x_99_ ^ 2 + 1 y_89_ ^ 2 - 2 y_99_ * y_89_ + 1 y_99_ ^ 2 ] <= 29949.53
quadratic_ranged_196_ub: [ 1 x_88_ ^ 2 - 2 x_100_ * x_88_ + 1 x_100_ ^ 2 + 1 y_88_ ^ 2 - 2 y_100_ * y_88_ + 1 y_100_ ^ 2 ] <= 17599.25
quadratic_ranged_197_ub: [ 1 x_97_ ^ 2 - 2 x_100_ * x_97_ + 1 x_100_ ^ 2 + 1 y_97_ ^ 2 - 2 y_100_ * y_97_ + 1 y_100_ ^ 2 ] <= 36195.37
quadratic_ranged_198_ub: [ 1 x_99_ ^ 2 - 2 x_100_ * x_99_ + 1 x_100_ ^ 2 + 1 y_99_ ^ 2 - 2 y_100_ * y_99_ + 1 y_100_ ^ 2 ] <= 28655.72
c1_2: 1 x_51_ >= 0
c2_2: 1 y_51_ >= 0
quadratic_ranged_1_lb: [ 1 x_2_ ^ 2 - 2 x_6_ * x_2_ + 1 x_6_ ^ 2 + 1 y_2_ ^ 2 - 2 y_6_ * y_2_ + 1 y_6_ ^ 2 ] >= 10424.7
quadratic_ranged_2_lb: [ 1 x_3_ ^ 2 - 2 x_6_ * x_3_ + 1 x_6_ ^ 2 + 1 y_3_ ^ 2 - 2 y_6_ * y_3_ + 1 y_6_ ^ 2 ] >= 1248.39
quadratic_ranged_3_lb: [ 1 x_4_ ^ 2 - 2 x_6_ * x_4_ + 1 x_6_ ^ 2 + 1 y_4_ ^ 2 - 2 y_6_ * y_4_ + 1 y_6_ ^ 2 ] >= 14543.1
quadratic_ranged_4_lb: [ 1 x_7_ ^ 2 - 2 x_9_ * x_7_ + 1 x_9_ ^ 2 + 1 y_7_ ^ 2 - 2 y_9_ * y_7_ + 1 y_9_ ^ 2 ] >= 1207.8
quadratic_ranged_5_lb: [ 1 x_3_ ^ 2 - 2 x_10_ * x_3_ + 1 x_10_ ^ 2 + 1 y_3_ ^ 2 - 2 y_10_ * y_3_ + 1 y_10_ ^ 2 ] >= 11987.91
quadratic_ranged_6_lb: [ 1 x_8_ ^ 2 - 2 x_10_ * x_8_ + 1 x_10_ ^ 2 + 1 y_8_ ^ 2 - 2 y_10_ * y_8_ + 1 y_10_ ^ 2 ] >= 3488.7599999999998
quadratic_ranged_7_lb: [ 1 x_3_ ^ 2 - 2 x_12_ * x_3_ + 1 x_12_ ^ 2 + 1 y_3_ ^ 2 - 2 y_12_ * y_3_ + 1 y_12_ ^ 2 ] >= 1902.78
quadratic_ranged_8_lb: [ 1 x_4_ ^ 2 - 2 x_13_ * x_4_ + 1 x_13_ ^ 2 + 1 y_4_ ^ 2 - 2 y_13_ * y_4_ + 1 y_13_ ^ 2 ] >= 31943.34
quadratic_ranged_9_lb: [ 1 x_2_ ^ 2 - 2 x_15_ * x_2_ + 1 x_15_ ^ 2 + 1 y_2_ ^ 2 - 2 y_15_ * y_2_ + 1 y_15_ ^ 2 ] >= 33134.31
quadratic_ranged_10_lb: [ 1 x_1_ ^ 2 - 2 x_16_ * x_1_ + 1 x_16_ ^ 2 + 1 y_1_ ^ 2 - 2 y_16_ * y_1_ + 1 y_16_ ^ 2 ] >= 23745.15
quadratic_ranged_11_lb: [ 1 x_6_ ^ 2 - 2 x_16_ * x_6_ + 1 x_16_ ^ 2 + 1 y_6_ ^ 2 - 2 y_16_ * y_6_ + 1 y_16_ ^ 2 ] >= 26461.71
quadratic_ranged_12_lb: [ 1 x_13_ ^ 2 - 2 x_17_ * x_13_ + 1 x_17_ ^ 2 + 1 y_13_ ^ 2 - 2 y_17_ * y_13_ + 1 y_17_ ^ 2 ] >= 23871.87
quadratic_ranged_13_lb: [ 1 x_15_ ^ 2 - 2 x_17_ * x_15_ + 1 x_17_ ^ 2 + 1 y_15_ ^ 2 - 2 y_17_ * y_15_ + 1 y_17_ ^ 2 ] >= 19120.86
quadratic_ranged_14_lb: [ 1 x_15_ ^ 2 - 2 x_18_ * x_15_ + 1 x_18_ ^ 2 + 1 y_15_ ^ 2 - 2 y_18_ * y_15_ + 1 y_18_ ^ 2 ] >= 26829.989999999998
quadratic_ranged_15_lb: [ 1 x_17_ ^ 2 - 2 x_18_ * x_17_ + 1 x_18_ ^ 2 + 1 y_17_ ^ 2 - 2 y_18_ * y_17_ + 1 y_18_ ^ 2 ] >= 17504.19
quadratic_ranged_16_lb: [ 1 x_9_ ^ 2 - 2 x_19_ * x_9_ + 1 x_19_ ^ 2 + 1 y_9_ ^ 2 - 2 y_19_ * y_9_ + 1 y_19_ ^ 2 ] >= 3885.75
quadratic_ranged_17_lb: [ 1 x_11_ ^ 2 - 2 x_19_ * x_11_ + 1 x_19_ ^ 2 + 1 y_11_ ^ 2 - 2 y_19_ * y_11_ + 1 y_19_ ^ 2 ] >= 31411.71
quadratic_ranged_18_lb: [ 1 x_13_ ^ 2 - 2 x_20_ * x_13_ + 1 x_20_ ^ 2 + 1 y_13_ ^ 2 - 2 y_20_ * y_13_ + 1 y_20_ ^ 2 ] >= 29323.8
quadratic_ranged_19_lb: [ 1 x_17_ ^ 2 - 2 x_20_ * x_17_ + 1 x_20_ ^ 2 + 1 y_17_ ^ 2 - 2 y_20_ * y_17_ + 1 y_20_ ^ 2 ] >= 2234.43
quadratic_ranged_20_lb: [ 1 x_9_ ^ 2 - 2 x_21_ * x_9_ + 1 x_21_ ^ 2 + 1 y_9_ ^ 2 - 2 y_21_ * y_9_ + 1 y_21_ ^ 2 ] >= 18629.82
quadratic_ranged_21_lb: [ 1 x_18_ ^ 2 - 2 x_21_ * x_18_ + 1 x_21_ ^ 2 + 1 y_18_ ^ 2 - 2 y_21_ * y_18_ + 1 y_21_ ^ 2 ] >= 19485.18
quadratic_ranged_22_lb: [ 1 x_3_ ^ 2 - 2 x_22_ * x_3_ + 1 x_22_ ^ 2 + 1 y_3_ ^ 2 - 2 y_22_ * y_3_ + 1 y_22_ ^ 2 ] >= 18521.91
quadratic_ranged_23_lb: [ 1 x_5_ ^ 2 - 2 x_22_ * x_5_ + 1 x_22_ ^ 2 + 1 y_5_ ^ 2 - 2 y_22_ * y_5_ + 1 y_22_ ^ 2 ] >= 574.2
quadratic_ranged_24_lb: [ 1 x_15_ ^ 2 - 2 x_22_ * x_15_ + 1 x_22_ ^ 2 + 1 y_15_ ^ 2 - 2 y_22_ * y_15_ + 1 y_22_ ^ 2 ] >= 22275.99
quadratic_ranged_25_lb: [ 1 x_5_ ^ 2 - 2 x_23_ * x_5_ + 1 x_23_ ^ 2 + 1 y_5_ ^ 2 - 2 y_23_ * y_5_ + 1 y_23_ ^ 2 ] >= 32956.11
quadratic_ranged_26_lb: [ 1 x_17_ ^ 2 - 2 x_23_ * x_17_ + 1 x_23_ ^ 2 + 1 y_17_ ^ 2 - 2 y_23_ * y_17_ + 1 y_23_ ^ 2 ] >= 33.66
quadratic_ranged_27_lb: [ 1 x_15_ ^ 2 - 2 x_24_ * x_15_ + 1 x_24_ ^ 2 + 1 y_15_ ^ 2 - 2 y_24_ * y_15_ + 1 y_24_ ^ 2 ] >= 19699.02
quadratic_ranged_28_lb: [ 1 x_7_ ^ 2 - 2 x_25_ * x_7_ + 1 x_25_ ^ 2 + 1 y_7_ ^ 2 - 2 y_25_ * y_7_ + 1 y_25_ ^ 2 ] >= 952.38
quadratic_ranged_29_lb: [ 1 x_24_ ^ 2 - 2 x_25_ * x_24_ + 1 x_25_ ^ 2 + 1 y_24_ ^ 2 - 2 y_25_ * y_24_ + 1 y_25_ ^ 2 ] >= 1680.03
quadratic_ranged_30_lb: [ 1 x_1_ ^ 2 - 2 x_27_ * x_1_ + 1 x_27_ ^ 2 + 1 y_1_ ^ 2 - 2 y_27_ * y_1_ + 1 y_27_ ^ 2 ] >= 16399.35
quadratic_ranged_31_lb: [ 1 x_17_ ^ 2 - 2 x_27_ * x_17_ + 1 x_27_ ^ 2 + 1 y_17_ ^ 2 - 2 y_27_ * y_17_ + 1 y_27_ ^ 2 ] >= 81.17999999999999
quadratic_ranged_32_lb: [ 1 x_24_ ^ 2 - 2 x_28_ * x_24_ + 1 x_28_ ^ 2 + 1 y_24_ ^ 2 - 2 y_28_ * y_24_ + 1 y_28_ ^ 2 ] >= 25522.2
quadratic_ranged_33_lb: [ 1 x_2_ ^ 2 - 2 x_29_ * x_2_ + 1 x_29_ ^ 2 + 1 y_2_ ^ 2 - 2 y_29_ * y_2_ + 1 y_29_ ^ 2 ] >= 16996.32
quadratic_ranged_34_lb: [ 1 x_20_ ^ 2 - 2 x_29_ * x_20_ + 1 x_29_ ^ 2 + 1 y_20_ ^ 2 - 2 y_29_ * y_20_ + 1 y_29_ ^ 2 ] >= 12380.94
quadratic_ranged_35_lb: [ 1 x_1_ ^ 2 - 2 x_30_ * x_1_ + 1 x_30_ ^ 2 + 1 y_1_ ^ 2 - 2 y_30_ * y_1_ + 1 y_30_ ^ 2 ] >= 22180.95
quadratic_ranged_36_lb: [ 1 x_9_ ^ 2 - 2 x_30_ * x_9_ + 1 x_30_ ^ 2 + 1 y_9_ ^ 2 - 2 y_30_ * y_9_ + 1 y_30_ ^ 2 ] >= 13429.35
quadratic_ranged_37_lb: [ 1 x_3_ ^ 2 - 2 x_31_ * x_3_ + 1 x_31_ ^ 2 + 1 y_3_ ^ 2 - 2 y_31_ * y_3_ + 1 y_31_ ^ 2 ] >= 7707.15
quadratic_ranged_38_lb: [ 1 x_22_ ^ 2 - 2 x_32_ * x_22_ + 1 x_32_ ^ 2 + 1 y_22_ ^ 2 - 2 y_32_ * y_22_ + 1 y_32_ ^ 2 ] >= 23443.2
quadratic_ranged_39_lb: [ 1 x_5_ ^ 2 - 2 x_33_ * x_5_ + 1 x_33_ ^ 2 + 1 y_5_ ^ 2 - 2 y_33_ * y_5_ + 1 y_33_ ^ 2 ] >= 18445.68
quadratic_ranged_40_lb: [ 1 x_8_ ^ 2 - 2 x_33_ * x_8_ + 1 x_33_ ^ 2 + 1 y_8_ ^ 2 - 2 y_33_ * y_8_ + 1 y_33_ ^ 2 ] >= 7161.66
quadratic_ranged_41_lb: [ 1 x_25_ ^ 2 - 2 x_33_ * x_25_ + 1 x_33_ ^ 2 + 1 y_25_ ^ 2 - 2 y_33_ * y_25_ + 1 y_33_ ^ 2 ] >= 7135.92
quadratic_ranged_42_lb: [ 1 x_11_ ^ 2 - 2 x_34_ * x_11_ + 1 x_34_ ^ 2 + 1 y_11_ ^ 2 - 2 y_34_ * y_11_ + 1 y_34_ ^ 2 ] >= 11763.18
quadratic_ranged_43_lb: [ 1 x_14_ ^ 2 - 2 x_34_ * x_14_ + 1 x_34_ ^ 2 + 1 y_14_ ^ 2 - 2 y_34_ * y_14_ + 1 y_34_ ^ 2 ] >= 28021.95
quadratic_ranged_44_lb: [ 1 x_28_ ^ 2 - 2 x_35_ * x_28_ + 1 x_35_ ^ 2 + 1 y_28_ ^ 2 - 2 y_35_ * y_28_ + 1 y_35_ ^ 2 ] >= 4059
quadratic_ranged_45_lb: [ 1 x_28_ ^ 2 - 2 x_36_ * x_28_ + 1 x_36_ ^ 2 + 1 y_28_ ^ 2 - 2 y_36_ * y_28_ + 1 y_36_ ^ 2 ] >= 13436.28
quadratic_ranged_46_lb: [ 1 x_20_ ^ 2 - 2 x_37_ * x_20_ + 1 x_37_ ^ 2 + 1 y_20_ ^ 2 - 2 y_37_ * y_20_ + 1 y_37_ ^ 2 ] >= 40174.2
quadratic_ranged_47_lb: [ 1 x_34_ ^ 2 - 2 x_37_ * x_34_ + 1 x_37_ ^ 2 + 1 y_34_ ^ 2 - 2 y_37_ * y_34_ + 1 y_37_ ^ 2 ] >= 18819.9
quadratic_ranged_48_lb: [ 1 x_13_ ^ 2 - 2 x_38_ * x_13_ + 1 x_38_ ^ 2 + 1 y_13_ ^ 2 - 2 y_38_ * y_13_ + 1 y_38_ ^ 2 ] >= 25982.55
quadratic_ranged_49_lb: [ 1 x_15_ ^ 2 - 2 x_38_ * x_15_ + 1 x_38_ ^ 2 + 1 y_15_ ^ 2 - 2 y_38_ * y_15_ + 1 y_38_ ^ 2 ] >= 20215.8
quadratic_ranged_50_lb: [ 1 x_10_ ^ 2 - 2 x_39_ * x_10_ + 1 x_39_ ^ 2 + 1 y_10_ ^ 2 - 2 y_39_ * y_10_ + 1 y_39_ ^ 2 ] >= 9568.35
quadratic_ranged_51_lb: [ 1 x_36_ ^ 2 - 2 x_39_ * x_36_ + 1 x_39_ ^ 2 + 1 y_36_ ^ 2 - 2 y_39_ * y_36_ + 1 y_39_ ^ 2 ] >= 22876.92
quadratic_ranged_52_lb: [ 1 x_2_ ^ 2 - 2 x_40_ * x_2_ + 1 x_40_ ^ 2 + 1 y_2_ ^ 2 - 2 y_40_ * y_2_ + 1 y_40_ ^ 2 ] >= 3450.15
quadratic_ranged_53_lb: [ 1 x_26_ ^ 2 - 2 x_40_ * x_26_ + 1 x_40_ ^ 2 + 1 y_26_ ^ 2 - 2 y_40_ * y_26_ + 1 y_40_ ^ 2 ] >= 3144.24
quadratic_ranged_54_lb: [ 1 x_4_ ^ 2 - 2 x_41_ * x_4_ + 1 x_41_ ^ 2 + 1 y_4_ ^ 2 - 2 y_41_ * y_4_ + 1 y_41_ ^ 2 ] >= 4854.96
quadratic_ranged_55_lb: [ 1 x_11_ ^ 2 - 2 x_41_ * x_11_ + 1 x_41_ ^ 2 + 1 y_11_ ^ 2 - 2 y_41_ * y_11_ + 1 y_41_ ^ 2 ] >= 366.3
quadratic_ranged_56_lb: [ 1 x_40_ ^ 2 - 2 x_41_ * x_40_ + 1 x_41_ ^ 2 + 1 y_40_ ^ 2 - 2 y_41_ * y_40_ + 1 y_41_ ^ 2 ] >= 7136.91
quadratic_ranged_57_lb: [ 1 x_23_ ^ 2 - 2 x_42_ * x_23_ + 1 x_42_ ^ 2 + 1 y_23_ ^ 2 - 2 y_42_ * y_23_ + 1 y_42_ ^ 2 ] >= 146.52
quadratic_ranged_58_lb: [ 1 x_38_ ^ 2 - 2 x_42_ * x_38_ + 1 x_42_ ^ 2 + 1 y_38_ ^ 2 - 2 y_42_ * y_38_ + 1 y_42_ ^ 2 ] >= 5900.4
quadratic_ranged_59_lb: [ 1 x_12_ ^ 2 - 2 x_43_ * x_12_ + 1 x_43_ ^ 2 + 1 y_12_ ^ 2 - 2 y_43_ * y_12_ + 1 y_43_ ^ 2 ] >= 14186.7
quadratic_ranged_60_lb: [ 1 x_30_ ^ 2 - 2 x_43_ * x_30_ + 1 x_43_ ^ 2 + 1 y_30_ ^ 2 - 2 y_43_ * y_30_ + 1 y_43_ ^ 2 ] >= 27434.88
quadratic_ranged_61_lb: [ 1 x_31_ ^ 2 - 2 x_43_ * x_31_ + 1 x_43_ ^ 2 + 1 y_31_ ^ 2 - 2 y_43_ * y_31_ + 1 y_43_ ^ 2 ] >= 7996.23
quadratic_ranged_62_lb: [ 1 x_6_ ^ 2 - 2 x_44_ * x_6_ + 1 x_44_ ^ 2 + 1 y_6_ ^ 2 - 2 y_44_ * y_6_ + 1 y_44_ ^ 2 ] >= 1461.24
quadratic_ranged_63_lb: [ 1 x_9_ ^ 2 - 2 x_44_ * x_9_ + 1 x_44_ ^ 2 + 1 y_9_ ^ 2 - 2 y_44_ * y_9_ + 1 y_44_ ^ 2 ] >= 1364.22
quadratic_ranged_64_lb: [ 1 x_13_ ^ 2 - 2 x_44_ * x_13_ + 1 x_44_ ^ 2 + 1 y_13_ ^ 2 - 2 y_44_ * y_13_ + 1 y_44_ ^ 2 ] >= 44055
quadratic_ranged_65_lb: [ 1 x_17_ ^ 2 - 2 x_45_ * x_17_ + 1 x_45_ ^ 2 + 1 y_17_ ^ 2 - 2 y_45_ * y_17_ + 1 y_45_ ^ 2 ] >= 17575.47
quadratic_ranged_66_lb: [ 1 x_32_ ^ 2 - 2 x_45_ * x_32_ + 1 x_45_ ^ 2 + 1 y_32_ ^ 2 - 2 y_45_ * y_32_ + 1 y_45_ ^ 2 ] >= 1647.36
quadratic_ranged_67_lb: [ 1 x_40_ ^ 2 - 2 x_46_ * x_40_ + 1 x_46_ ^ 2 + 1 y_40_ ^ 2 - 2 y_46_ * y_40_ + 1 y_46_ ^ 2 ] >= 19485.18
quadratic_ranged_68_lb: [ 1 x_2_ ^ 2 - 2 x_47_ * x_2_ + 1 x_47_ ^ 2 + 1 y_2_ ^ 2 - 2 y_47_ * y_2_ + 1 y_47_ ^ 2 ] >= 39418.83
quadratic_ranged_69_lb: [ 1 x_35_ ^ 2 - 2 x_47_ * x_35_ + 1 x_47_ ^ 2 + 1 y_35_ ^ 2 - 2 y_47_ * y_35_ + 1 y_47_ ^ 2 ] >= 24540.12
quadratic_ranged_70_lb: [ 1 x_9_ ^ 2 - 2 x_48_ * x_9_ + 1 x_48_ ^ 2 + 1 y_9_ ^ 2 - 2 y_48_ * y_9_ + 1 y_48_ ^ 2 ] >= 1387.98
quadratic_ranged_71_lb: [ 1 x_20_ ^ 2 - 2 x_48_ * x_20_ + 1 x_48_ ^ 2 + 1 y_20_ ^ 2 - 2 y_48_ * y_20_ + 1 y_48_ ^ 2 ] >= 21166.2
quadratic_ranged_72_lb: [ 1 x_11_ ^ 2 - 2 x_49_ * x_11_ + 1 x_49_ ^ 2 + 1 y_11_ ^ 2 - 2 y_49_ * y_11_ + 1 y_49_ ^ 2 ] >= 1920.6
quadratic_ranged_73_lb: [ 1 x_24_ ^ 2 - 2 x_50_ * x_24_ + 1 x_50_ ^ 2 + 1 y_24_ ^ 2 - 2 y_50_ * y_24_ + 1 y_50_ ^ 2 ] >= 18775.35
quadratic_ranged_74_lb: [ 1 x_1_ ^ 2 - 2 x_51_ * x_1_ + 1 x_51_ ^ 2 + 1 y_1_ ^ 2 - 2 y_51_ * y_1_ + 1 y_51_ ^ 2 ] >= 33150.15
quadratic_ranged_75_lb: [ 1 x_35_ ^ 2 - 2 x_51_ * x_35_ + 1 x_51_ ^ 2 + 1 y_35_ ^ 2 - 2 y_51_ * y_35_ + 1 y_51_ ^ 2 ] >= 16889.4
quadratic_ranged_76_lb: [ 1 x_3_ ^ 2 - 2 x_52_ * x_3_ + 1 x_52_ ^ 2 + 1 y_3_ ^ 2 - 2 y_52_ * y_3_ + 1 y_52_ ^ 2 ] >= 5671.71
quadratic_ranged_77_lb: [ 1 x_34_ ^ 2 - 2 x_52_ * x_34_ + 1 x_52_ ^ 2 + 1 y_34_ ^ 2 - 2 y_52_ * y_34_ + 1 y_52_ ^ 2 ] >= 30319.739999999998
quadratic_ranged_78_lb: [ 1 x_48_ ^ 2 - 2 x_53_ * x_48_ + 1 x_53_ ^ 2 + 1 y_48_ ^ 2 - 2 y_53_ * y_48_ + 1 y_53_ ^ 2 ] >= 1118.7
quadratic_ranged_79_lb: [ 1 x_19_ ^ 2 - 2 x_54_ * x_19_ + 1 x_54_ ^ 2 + 1 y_19_ ^ 2 - 2 y_54_ * y_19_ + 1 y_54_ ^ 2 ] >= 23958.99
quadratic_ranged_80_lb: [ 1 x_24_ ^ 2 - 2 x_54_ * x_24_ + 1 x_54_ ^ 2 + 1 y_24_ ^ 2 - 2 y_54_ * y_24_ + 1 y_54_ ^ 2 ] >= 9532.71
quadratic_ranged_81_lb: [ 1 x_50_ ^ 2 - 2 x_54_ * x_50_ + 1 x_54_ ^ 2 + 1 y_50_ ^ 2 - 2 y_54_ * y_50_ + 1 y_54_ ^ 2 ] >= 1863.18
quadratic_ranged_82_lb: [ 1 x_30_ ^ 2 - 2 x_55_ * x_30_ + 1 x_55_ ^ 2 + 1 y_30_ ^ 2 - 2 y_55_ * y_30_ + 1 y_55_ ^ 2 ] >= 23595.66
quadratic_ranged_83_lb: [ 1 x_33_ ^ 2 - 2 x_55_ * x_33_ + 1 x_55_ ^ 2 + 1 y_33_ ^ 2 - 2 y_55_ * y_33_ + 1 y_55_ ^ 2 ] >= 1418.67
quadratic_ranged_84_lb: [ 1 x_46_ ^ 2 - 2 x_55_ * x_46_ + 1 x_55_ ^ 2 + 1 y_46_ ^ 2 - 2 y_55_ * y_46_ + 1 y_55_ ^ 2 ] >= 3526.38
quadratic_ranged_85_lb: [ 1 x_13_ ^ 2 - 2 x_56_ * x_13_ + 1 x_56_ ^ 2 + 1 y_13_ ^ 2 - 2 y_56_ * y_13_ + 1 y_56_ ^ 2 ] >= 25273.71
quadratic_ranged_86_lb: [ 1 x_14_ ^ 2 - 2 x_56_ * x_14_ + 1 x_56_ ^ 2 + 1 y_14_ ^ 2 - 2 y_56_ * y_14_ + 1 y_56_ ^ 2 ] >= 477.18
quadratic_ranged_87_lb: [ 1 x_26_ ^ 2 - 2 x_56_ * x_26_ + 1 x_56_ ^ 2 + 1 y_26_ ^ 2 - 2 y_56_ * y_26_ + 1 y_56_ ^ 2 ] >= 13909.5
quadratic_ranged_88_lb: [ 1 x_5_ ^ 2 - 2 x_57_ * x_5_ + 1 x_57_ ^ 2 + 1 y_5_ ^ 2 - 2 y_57_ * y_5_ + 1 y_57_ ^ 2 ] >= 26235
quadratic_ranged_89_lb: [ 1 x_24_ ^ 2 - 2 x_57_ * x_24_ + 1 x_57_ ^ 2 + 1 y_24_ ^ 2 - 2 y_57_ * y_24_ + 1 y_57_ ^ 2 ] >= 18248.67
quadratic_ranged_90_lb: [ 1 x_53_ ^ 2 - 2 x_57_ * x_53_ + 1 x_57_ ^ 2 + 1 y_53_ ^ 2 - 2 y_57_ * y_53_ + 1 y_57_ ^ 2 ] >= 7850.7
quadratic_ranged_91_lb: [ 1 x_23_ ^ 2 - 2 x_58_ * x_23_ + 1 x_58_ ^ 2 + 1 y_23_ ^ 2 - 2 y_58_ * y_23_ + 1 y_58_ ^ 2 ] >= 25147.98
quadratic_ranged_92_lb: [ 1 x_47_ ^ 2 - 2 x_58_ * x_47_ + 1 x_58_ ^ 2 + 1 y_47_ ^ 2 - 2 y_58_ * y_47_ + 1 y_58_ ^ 2 ] >= 36495.36
quadratic_ranged_93_lb: [ 1 x_5_ ^ 2 - 2 x_59_ * x_5_ + 1 x_59_ ^ 2 + 1 y_5_ ^ 2 - 2 y_59_ * y_5_ + 1 y_59_ ^ 2 ] >= 33462
quadratic_ranged_94_lb: [ 1 x_15_ ^ 2 - 2 x_60_ * x_15_ + 1 x_60_ ^ 2 + 1 y_15_ ^ 2 - 2 y_60_ * y_15_ + 1 y_60_ ^ 2 ] >= 27966.51
quadratic_ranged_95_lb: [ 1 x_39_ ^ 2 - 2 x_60_ * x_39_ + 1 x_60_ ^ 2 + 1 y_39_ ^ 2 - 2 y_60_ * y_39_ + 1 y_60_ ^ 2 ] >= 9845.55
quadratic_ranged_96_lb: [ 1 x_54_ ^ 2 - 2 x_60_ * x_54_ + 1 x_60_ ^ 2 + 1 y_54_ ^ 2 - 2 y_60_ * y_54_ + 1 y_60_ ^ 2 ] >= 11533.5
quadratic_ranged_97_lb: [ 1 x_10_ ^ 2 - 2 x_61_ * x_10_ + 1 x_61_ ^ 2 + 1 y_10_ ^ 2 - 2 y_61_ * y_10_ + 1 y_61_ ^ 2 ] >= 16921.079999999998
quadratic_ranged_98_lb: [ 1 x_16_ ^ 2 - 2 x_61_ * x_16_ + 1 x_61_ ^ 2 + 1 y_16_ ^ 2 - 2 y_61_ * y_16_ + 1 y_61_ ^ 2 ] >= 5845.95
quadratic_ranged_99_lb: [ 1 x_24_ ^ 2 - 2 x_61_ * x_24_ + 1 x_61_ ^ 2 + 1 y_24_ ^ 2 - 2 y_61_ * y_24_ + 1 y_61_ ^ 2 ] >= 7687.35
quadratic_ranged_100_lb: [ 1 x_27_ ^ 2 - 2 x_62_ * x_27_ + 1 x_62_ ^ 2 + 1 y_27_ ^ 2 - 2 y_62_ * y_27_ + 1 y_62_ ^ 2 ] >= 8478.36
quadratic_ranged_101_lb: [ 1 x_46_ ^ 2 - 2 x_63_ * x_46_ + 1 x_63_ ^ 2 + 1 y_46_ ^ 2 - 2 y_63_ * y_46_ + 1 y_63_ ^ 2 ] >= 16169.67
quadratic_ranged_102_lb: [ 1 x_53_ ^ 2 - 2 x_63_ * x_53_ + 1 x_63_ ^ 2 + 1 y_53_ ^ 2 - 2 y_63_ * y_53_ + 1 y_63_ ^ 2 ] >= 4031.2799999999997
quadratic_ranged_103_lb: [ 1 x_2_ ^ 2 - 2 x_64_ * x_2_ + 1 x_64_ ^ 2 + 1 y_2_ ^ 2 - 2 y_64_ * y_2_ + 1 y_64_ ^ 2 ] >= 9727.74
quadratic_ranged_104_lb: [ 1 x_12_ ^ 2 - 2 x_64_ * x_12_ + 1 x_64_ ^ 2 + 1 y_12_ ^ 2 - 2 y_64_ * y_12_ + 1 y_64_ ^ 2 ] >= 22569.03
quadratic_ranged_105_lb: [ 1 x_31_ ^ 2 - 2 x_64_ * x_31_ + 1 x_64_ ^ 2 + 1 y_31_ ^ 2 - 2 y_64_ * y_31_ + 1 y_64_ ^ 2 ] >= 7682.4
quadratic_ranged_106_lb: [ 1 x_7_ ^ 2 - 2 x_65_ * x_7_ + 1 x_65_ ^ 2 + 1 y_7_ ^ 2 - 2 y_65_ * y_7_ + 1 y_65_ ^ 2 ] >= 873.18
quadratic_ranged_107_lb: [ 1 x_16_ ^ 2 - 2 x_65_ * x_16_ + 1 x_65_ ^ 2 + 1 y_16_ ^ 2 - 2 y_65_ * y_16_ + 1 y_65_ ^ 2 ] >= 11702.789999999999
quadratic_ranged_108_lb: [ 1 x_42_ ^ 2 - 2 x_65_ * x_42_ + 1 x_65_ ^ 2 + 1 y_42_ ^ 2 - 2 y_65_ * y_42_ + 1 y_65_ ^ 2 ] >= 5192.55
quadratic_ranged_109_lb: [ 1 x_4_ ^ 2 - 2 x_66_ * x_4_ + 1 x_66_ ^ 2 + 1 y_4_ ^ 2 - 2 y_66_ * y_4_ + 1 y_66_ ^ 2 ] >= 2718.54
quadratic_ranged_110_lb: [ 1 x_3_ ^ 2 - 2 x_67_ * x_3_ + 1 x_67_ ^ 2 + 1 y_3_ ^ 2 - 2 y_67_ * y_3_ + 1 y_67_ ^ 2 ] >= 1237.5
quadratic_ranged_111_lb: [ 1 x_28_ ^ 2 - 2 x_67_ * x_28_ + 1 x_67_ ^ 2 + 1 y_28_ ^ 2 - 2 y_67_ * y_28_ + 1 y_67_ ^ 2 ] >= 61083
quadratic_ranged_112_lb: [ 1 x_44_ ^ 2 - 2 x_67_ * x_44_ + 1 x_67_ ^ 2 + 1 y_44_ ^ 2 - 2 y_67_ * y_44_ + 1 y_67_ ^ 2 ] >= 2202.75
quadratic_ranged_113_lb: [ 1 x_16_ ^ 2 - 2 x_68_ * x_16_ + 1 x_68_ ^ 2 + 1 y_16_ ^ 2 - 2 y_68_ * y_16_ + 1 y_68_ ^ 2 ] >= 21473.1
quadratic_ranged_114_lb: [ 1 x_50_ ^ 2 - 2 x_69_ * x_50_ + 1 x_69_ ^ 2 + 1 y_50_ ^ 2 - 2 y_69_ * y_50_ + 1 y_69_ ^ 2 ] >= 25071.75
quadratic_ranged_115_lb: [ 1 x_59_ ^ 2 - 2 x_69_ * x_59_ + 1 x_69_ ^ 2 + 1 y_59_ ^ 2 - 2 y_69_ * y_59_ + 1 y_69_ ^ 2 ] >= 28813.95
quadratic_ranged_116_lb: [ 1 x_66_ ^ 2 - 2 x_69_ * x_66_ + 1 x_69_ ^ 2 + 1 y_66_ ^ 2 - 2 y_69_ * y_66_ + 1 y_69_ ^ 2 ] >= 26952.75
quadratic_ranged_117_lb: [ 1 x_9_ ^ 2 - 2 x_70_ * x_9_ + 1 x_70_ ^ 2 + 1 y_9_ ^ 2 - 2 y_70_ * y_9_ + 1 y_70_ ^ 2 ] >= 9197.1
quadratic_ranged_118_lb: [ 1 x_20_ ^ 2 - 2 x_70_ * x_20_ + 1 x_70_ ^ 2 + 1 y_20_ ^ 2 - 2 y_70_ * y_20_ + 1 y_70_ ^ 2 ] >= 2669.04
quadratic_ranged_119_lb: [ 1 x_59_ ^ 2 - 2 x_70_ * x_59_ + 1 x_70_ ^ 2 + 1 y_59_ ^ 2 - 2 y_70_ * y_59_ + 1 y_70_ ^ 2 ] >= 9662.4
quadratic_ranged_120_lb: [ 1 x_38_ ^ 2 - 2 x_71_ * x_38_ + 1 x_71_ ^ 2 + 1 y_38_ ^ 2 - 2 y_71_ * y_38_ + 1 y_71_ ^ 2 ] >= 14432.22
quadratic_ranged_121_lb: [ 1 x_51_ ^ 2 - 2 x_71_ * x_51_ + 1 x_71_ ^ 2 + 1 y_51_ ^ 2 - 2 y_71_ * y_51_ + 1 y_71_ ^ 2 ] >= 48470.4
quadratic_ranged_122_lb: [ 1 x_66_ ^ 2 - 2 x_71_ * x_66_ + 1 x_71_ ^ 2 + 1 y_66_ ^ 2 - 2 y_71_ * y_66_ + 1 y_71_ ^ 2 ] >= 2717.55
quadratic_ranged_123_lb: [ 1 x_13_ ^ 2 - 2 x_72_ * x_13_ + 1 x_72_ ^ 2 + 1 y_13_ ^ 2 - 2 y_72_ * y_13_ + 1 y_72_ ^ 2 ] >= 12676.95
quadratic_ranged_124_lb: [ 1 x_24_ ^ 2 - 2 x_72_ * x_24_ + 1 x_72_ ^ 2 + 1 y_24_ ^ 2 - 2 y_72_ * y_24_ + 1 y_72_ ^ 2 ] >= 2124.54
quadratic_ranged_125_lb: [ 1 x_20_ ^ 2 - 2 x_73_ * x_20_ + 1 x_73_ ^ 2 + 1 y_20_ ^ 2 - 2 y_73_ * y_20_ + 1 y_73_ ^ 2 ] >= 10979.1
quadratic_ranged_126_lb: [ 1 x_45_ ^ 2 - 2 x_73_ * x_45_ + 1 x_73_ ^ 2 + 1 y_45_ ^ 2 - 2 y_73_ * y_45_ + 1 y_73_ ^ 2 ] >= 20063.34
quadratic_ranged_127_lb: [ 1 x_72_ ^ 2 - 2 x_73_ * x_72_ + 1 x_73_ ^ 2 + 1 y_72_ ^ 2 - 2 y_73_ * y_72_ + 1 y_73_ ^ 2 ] >= 2844.27
quadratic_ranged_128_lb: [ 1 x_37_ ^ 2 - 2 x_74_ * x_37_ + 1 x_74_ ^ 2 + 1 y_37_ ^ 2 - 2 y_74_ * y_37_ + 1 y_74_ ^ 2 ] >= 17571.51
quadratic_ranged_129_lb: [ 1 x_49_ ^ 2 - 2 x_74_ * x_49_ + 1 x_74_ ^ 2 + 1 y_49_ ^ 2 - 2 y_74_ * y_49_ + 1 y_74_ ^ 2 ] >= 28338.75
quadratic_ranged_130_lb: [ 1 x_16_ ^ 2 - 2 x_75_ * x_16_ + 1 x_75_ ^ 2 + 1 y_16_ ^ 2 - 2 y_75_ * y_16_ + 1 y_75_ ^ 2 ] >= 32801.67
quadratic_ranged_131_lb: [ 1 x_26_ ^ 2 - 2 x_75_ * x_26_ + 1 x_75_ ^ 2 + 1 y_26_ ^ 2 - 2 y_75_ * y_26_ + 1 y_75_ ^ 2 ] >= 26849.79
quadratic_ranged_132_lb: [ 1 x_62_ ^ 2 - 2 x_75_ * x_62_ + 1 x_75_ ^ 2 + 1 y_62_ ^ 2 - 2 y_75_ * y_62_ + 1 y_75_ ^ 2 ] >= 4610.43
quadratic_ranged_133_lb: [ 1 x_14_ ^ 2 - 2 x_76_ * x_14_ + 1 x_76_ ^ 2 + 1 y_14_ ^ 2 - 2 y_76_ * y_14_ + 1 y_76_ ^ 2 ] >= 1465.2
quadratic_ranged_134_lb: [ 1 x_2_ ^ 2 - 2 x_77_ * x_2_ + 1 x_77_ ^ 2 + 1 y_2_ ^ 2 - 2 y_77_ * y_2_ + 1 y_77_ ^ 2 ] >= 18854.55
quadratic_ranged_135_lb: [ 1 x_63_ ^ 2 - 2 x_77_ * x_63_ + 1 x_77_ ^ 2 + 1 y_63_ ^ 2 - 2 y_77_ * y_63_ + 1 y_77_ ^ 2 ] >= 3806.55
quadratic_ranged_136_lb: [ 1 x_76_ ^ 2 - 2 x_77_ * x_76_ + 1 x_77_ ^ 2 + 1 y_76_ ^ 2 - 2 y_77_ * y_76_ + 1 y_77_ ^ 2 ] >= 9870.3
quadratic_ranged_137_lb: [ 1 x_18_ ^ 2 - 2 x_78_ * x_18_ + 1 x_78_ ^ 2 + 1 y_18_ ^ 2 - 2 y_78_ * y_18_ + 1 y_78_ ^ 2 ] >= 844.47
quadratic_ranged_138_lb: [ 1 x_58_ ^ 2 - 2 x_78_ * x_58_ + 1 x_78_ ^ 2 + 1 y_58_ ^ 2 - 2 y_78_ * y_58_ + 1 y_78_ ^ 2 ] >= 35897.4
quadratic_ranged_139_lb: [ 1 x_70_ ^ 2 - 2 x_78_ * x_70_ + 1 x_78_ ^ 2 + 1 y_70_ ^ 2 - 2 y_78_ * y_70_ + 1 y_78_ ^ 2 ] >= 10518.75
quadratic_ranged_140_lb: [ 1 x_8_ ^ 2 - 2 x_79_ * x_8_ + 1 x_79_ ^ 2 + 1 y_8_ ^ 2 - 2 y_79_ * y_8_ + 1 y_79_ ^ 2 ] >= 14779.71
quadratic_ranged_141_lb: [ 1 x_21_ ^ 2 - 2 x_79_ * x_21_ + 1 x_79_ ^ 2 + 1 y_21_ ^ 2 - 2 y_79_ * y_21_ + 1 y_79_ ^ 2 ] >= 1086.03
quadratic_ranged_142_lb: [ 1 x_76_ ^ 2 - 2 x_79_ * x_76_ + 1 x_79_ ^ 2 + 1 y_76_ ^ 2 - 2 y_79_ * y_76_ + 1 y_79_ ^ 2 ] >= 22872.96
quadratic_ranged_143_lb: [ 1 x_49_ ^ 2 - 2 x_80_ * x_49_ + 1 x_80_ ^ 2 + 1 y_49_ ^ 2 - 2 y_80_ * y_49_ + 1 y_80_ ^ 2 ] >= 15171.75
quadratic_ranged_144_lb: [ 1 x_68_ ^ 2 - 2 x_80_ * x_68_ + 1 x_80_ ^ 2 + 1 y_68_ ^ 2 - 2 y_80_ * y_68_ + 1 y_80_ ^ 2 ] >= 1475.1
quadratic_ranged_145_lb: [ 1 x_15_ ^ 2 - 2 x_81_ * x_15_ + 1 x_81_ ^ 2 + 1 y_15_ ^ 2 - 2 y_81_ * y_15_ + 1 y_81_ ^ 2 ] >= 12988.8
quadratic_ranged_146_lb: [ 1 x_49_ ^ 2 - 2 x_81_ * x_49_ + 1 x_81_ ^ 2 + 1 y_49_ ^ 2 - 2 y_81_ * y_49_ + 1 y_81_ ^ 2 ] >= 17314.11
quadratic_ranged_147_lb: [ 1 x_35_ ^ 2 - 2 x_82_ * x_35_ + 1 x_82_ ^ 2 + 1 y_35_ ^ 2 - 2 y_82_ * y_35_ + 1 y_82_ ^ 2 ] >= 14020.38
quadratic_ranged_148_lb: [ 1 x_57_ ^ 2 - 2 x_82_ * x_57_ + 1 x_82_ ^ 2 + 1 y_57_ ^ 2 - 2 y_82_ * y_57_ + 1 y_82_ ^ 2 ] >= 28671.39
quadratic_ranged_149_lb: [ 1 x_62_ ^ 2 - 2 x_82_ * x_62_ + 1 x_82_ ^ 2 + 1 y_62_ ^ 2 - 2 y_82_ * y_62_ + 1 y_82_ ^ 2 ] >= 13464
quadratic_ranged_150_lb: [ 1 x_9_ ^ 2 - 2 x_83_ * x_9_ + 1 x_83_ ^ 2 + 1 y_9_ ^ 2 - 2 y_83_ * y_9_ + 1 y_83_ ^ 2 ] >= 3138.3
quadratic_ranged_151_lb: [ 1 x_15_ ^ 2 - 2 x_83_ * x_15_ + 1 x_83_ ^ 2 + 1 y_15_ ^ 2 - 2 y_83_ * y_15_ + 1 y_83_ ^ 2 ] >= 44337.15
quadratic_ranged_152_lb: [ 1 x_50_ ^ 2 - 2 x_83_ * x_50_ + 1 x_83_ ^ 2 + 1 y_50_ ^ 2 - 2 y_83_ * y_50_ + 1 y_83_ ^ 2 ] >= 37323
quadratic_ranged_153_lb: [ 1 x_38_ ^ 2 - 2 x_84_ * x_38_ + 1 x_84_ ^ 2 + 1 y_38_ ^ 2 - 2 y_84_ * y_38_ + 1 y_84_ ^ 2 ] >= 1806.75
quadratic_ranged_154_lb: [ 1 x_51_ ^ 2 - 2 x_84_ * x_51_ + 1 x_84_ ^ 2 + 1 y_51_ ^ 2 - 2 y_84_ * y_51_ + 1 y_84_ ^ 2 ] >= 20208.87
quadratic_ranged_155_lb: [ 1 x_10_ ^ 2 - 2 x_85_ * x_10_ + 1 x_85_ ^ 2 + 1 y_10_ ^ 2 - 2 y_85_ * y_10_ + 1 y_85_ ^ 2 ] >= 27479.43
quadratic_ranged_156_lb: [ 1 x_76_ ^ 2 - 2 x_85_ * x_76_ + 1 x_85_ ^ 2 + 1 y_76_ ^ 2 - 2 y_85_ * y_76_ + 1 y_85_ ^ 2 ] >= 26240.94
quadratic_ranged_157_lb: [ 1 x_40_ ^ 2 - 2 x_86_ * x_40_ + 1 x_86_ ^ 2 + 1 y_40_ ^ 2 - 2 y_86_ * y_40_ + 1 y_86_ ^ 2 ] >= 1014.75
quadratic_ranged_158_lb: [ 1 x_54_ ^ 2 - 2 x_86_ * x_54_ + 1 x_86_ ^ 2 + 1 y_54_ ^ 2 - 2 y_86_ * y_54_ + 1 y_86_ ^ 2 ] >= 8573.4
quadratic_ranged_159_lb: [ 1 x_84_ ^ 2 - 2 x_86_ * x_84_ + 1 x_86_ ^ 2 + 1 y_84_ ^ 2 - 2 y_86_ * y_84_ + 1 y_86_ ^ 2 ] >= 823.68
quadratic_ranged_160_lb: [ 1 x_10_ ^ 2 - 2 x_87_ * x_10_ + 1 x_87_ ^ 2 + 1 y_10_ ^ 2 - 2 y_87_ * y_10_ + 1 y_87_ ^ 2 ] >= 7924.95
quadratic_ranged_161_lb: [ 1 x_46_ ^ 2 - 2 x_87_ * x_46_ + 1 x_87_ ^ 2 + 1 y_46_ ^ 2 - 2 y_87_ * y_46_ + 1 y_87_ ^ 2 ] >= 7167.6
quadratic_ranged_162_lb: [ 1 x_74_ ^ 2 - 2 x_87_ * x_74_ + 1 x_87_ ^ 2 + 1 y_74_ ^ 2 - 2 y_87_ * y_74_ + 1 y_87_ ^ 2 ] >= 7654.68
quadratic_ranged_163_lb: [ 1 x_23_ ^ 2 - 2 x_88_ * x_23_ + 1 x_88_ ^ 2 + 1 y_23_ ^ 2 - 2 y_88_ * y_23_ + 1 y_88_ ^ 2 ] >= 1917.6299999999999
quadratic_ranged_164_lb: [ 1 x_77_ ^ 2 - 2 x_88_ * x_77_ + 1 x_88_ ^ 2 + 1 y_77_ ^ 2 - 2 y_88_ * y_77_ + 1 y_88_ ^ 2 ] >= 10898.91
quadratic_ranged_165_lb: [ 1 x_38_ ^ 2 - 2 x_89_ * x_38_ + 1 x_89_ ^ 2 + 1 y_38_ ^ 2 - 2 y_89_ * y_38_ + 1 y_89_ ^ 2 ] >= 10257.39
quadratic_ranged_166_lb: [ 1 x_83_ ^ 2 - 2 x_89_ * x_83_ + 1 x_89_ ^ 2 + 1 y_83_ ^ 2 - 2 y_89_ * y_83_ + 1 y_89_ ^ 2 ] >= 28680.3
quadratic_ranged_167_lb: [ 1 x_2_ ^ 2 - 2 x_90_ * x_2_ + 1 x_90_ ^ 2 + 1 y_2_ ^ 2 - 2 y_90_ * y_2_ + 1 y_90_ ^ 2 ] >= 29134.71
quadratic_ranged_168_lb: [ 1 x_5_ ^ 2 - 2 x_90_ * x_5_ + 1 x_90_ ^ 2 + 1 y_5_ ^ 2 - 2 y_90_ * y_5_ + 1 y_90_ ^ 2 ] >= 4087.71
quadratic_ranged_169_lb: [ 1 x_80_ ^ 2 - 2 x_90_ * x_80_ + 1 x_90_ ^ 2 + 1 y_80_ ^ 2 - 2 y_90_ * y_80_ + 1 y_90_ ^ 2 ] >= 19303.02
quadratic_ranged_170_lb: [ 1 x_11_ ^ 2 - 2 x_91_ * x_11_ + 1 x_91_ ^ 2 + 1 y_11_ ^ 2 - 2 y_91_ * y_11_ + 1 y_91_ ^ 2 ] >= 19191.15
quadratic_ranged_171_lb: [ 1 x_31_ ^ 2 - 2 x_91_ * x_31_ + 1 x_91_ ^ 2 + 1 y_31_ ^ 2 - 2 y_91_ * y_31_ + 1 y_91_ ^ 2 ] >= 3755.07
quadratic_ranged_172_lb: [ 1 x_80_ ^ 2 - 2 x_91_ * x_80_ + 1 x_91_ ^ 2 + 1 y_80_ ^ 2 - 2 y_91_ * y_80_ + 1 y_91_ ^ 2 ] >= 11757.24
quadratic_ranged_173_lb: [ 1 x_11_ ^ 2 - 2 x_92_ * x_11_ + 1 x_92_ ^ 2 + 1 y_11_ ^ 2 - 2 y_92_ * y_11_ + 1 y_92_ ^ 2 ] >= 9101.07
quadratic_ranged_174_lb: [ 1 x_70_ ^ 2 - 2 x_92_ * x_70_ + 1 x_92_ ^ 2 + 1 y_70_ ^ 2 - 2 y_92_ * y_70_ + 1 y_92_ ^ 2 ] >= 5667.75
quadratic_ranged_175_lb: [ 1 x_85_ ^ 2 - 2 x_92_ * x_85_ + 1 x_92_ ^ 2 + 1 y_85_ ^ 2 - 2 y_92_ * y_85_ + 1 y_92_ ^ 2 ] >= 7985.34
quadratic_ranged_176_lb: [ 1 x_2_ ^ 2 - 2 x_93_ * x_2_ + 1 x_93_ ^ 2 + 1 y_2_ ^ 2 - 2 y_93_ * y_2_ + 1 y_93_ ^ 2 ] >= 2457.18
quadratic_ranged_177_lb: [ 1 x_6_ ^ 2 - 2 x_93_ * x_6_ + 1 x_93_ ^ 2 + 1 y_6_ ^ 2 - 2 y_93_ * y_6_ + 1 y_93_ ^ 2 ] >= 3045.24
quadratic_ranged_178_lb: [ 1 x_36_ ^ 2 - 2 x_93_ * x_36_ + 1 x_93_ ^ 2 + 1 y_36_ ^ 2 - 2 y_93_ * y_36_ + 1 y_93_ ^ 2 ] >= 13092.75
quadratic_ranged_179_lb: [ 1 x_13_ ^ 2 - 2 x_94_ * x_13_ + 1 x_94_ ^ 2 + 1 y_13_ ^ 2 - 2 y_94_ * y_13_ + 1 y_94_ ^ 2 ] >= 21243.42
quadratic_ranged_180_lb: [ 1 x_52_ ^ 2 - 2 x_94_ * x_52_ + 1 x_94_ ^ 2 + 1 y_52_ ^ 2 - 2 y_94_ * y_52_ + 1 y_94_ ^ 2 ] >= 1506.78
quadratic_ranged_181_lb: [ 1 x_93_ ^ 2 - 2 x_94_ * x_93_ + 1 x_94_ ^ 2 + 1 y_93_ ^ 2 - 2 y_94_ * y_93_ + 1 y_94_ ^ 2 ] >= 3938.22
quadratic_ranged_182_lb: [ 1 x_2_ ^ 2 - 2 x_95_ * x_2_ + 1 x_95_ ^ 2 + 1 y_2_ ^ 2 - 2 y_95_ * y_2_ + 1 y_95_ ^ 2 ] >= 13619.43
quadratic_ranged_183_lb: [ 1 x_16_ ^ 2 - 2 x_95_ * x_16_ + 1 x_95_ ^ 2 + 1 y_16_ ^ 2 - 2 y_95_ * y_16_ + 1 y_95_ ^ 2 ] >= 4215.42
quadratic_ranged_184_lb: [ 1 x_30_ ^ 2 - 2 x_95_ * x_30_ + 1 x_95_ ^ 2 + 1 y_30_ ^ 2 - 2 y_95_ * y_30_ + 1 y_95_ ^ 2 ] >= 3457.08
quadratic_ranged_185_lb: [ 1 x_56_ ^ 2 - 2 x_96_ * x_56_ + 1 x_96_ ^ 2 + 1 y_56_ ^ 2 - 2 y_96_ * y_56_ + 1 y_96_ ^ 2 ] >= 18495.18
quadratic_ranged_186_lb: [ 1 x_60_ ^ 2 - 2 x_96_ * x_60_ + 1 x_96_ ^ 2 + 1 y_60_ ^ 2 - 2 y_96_ * y_60_ + 1 y_96_ ^ 2 ] >= 7069.59
quadratic_ranged_187_lb: [ 1 x_63_ ^ 2 - 2 x_96_ * x_63_ + 1 x_96_ ^ 2 + 1 y_63_ ^ 2 - 2 y_96_ * y_63_ + 1 y_96_ ^ 2 ] >= 3497.67
quadratic_ranged_188_lb: [ 1 x_29_ ^ 2 - 2 x_97_ * x_29_ + 1 x_97_ ^ 2 + 1 y_29_ ^ 2 - 2 y_97_ * y_29_ + 1 y_97_ ^ 2 ] >= 14305.5
quadratic_ranged_189_lb: [ 1 x_32_ ^ 2 - 2 x_97_ * x_32_ + 1 x_97_ ^ 2 + 1 y_32_ ^ 2 - 2 y_97_ * y_32_ + 1 y_97_ ^ 2 ] >= 20722.68
quadratic_ranged_190_lb: [ 1 x_43_ ^ 2 - 2 x_97_ * x_43_ + 1 x_97_ ^ 2 + 1 y_43_ ^ 2 - 2 y_97_ * y_43_ + 1 y_97_ ^ 2 ] >= 43307.55
quadratic_ranged_191_lb: [ 1 x_22_ ^ 2 - 2 x_98_ * x_22_ + 1 x_98_ ^ 2 + 1 y_22_ ^ 2 - 2 y_98_ * y_22_ + 1 y_98_ ^ 2 ] >= 309.87
quadratic_ranged_192_lb: [ 1 x_81_ ^ 2 - 2 x_98_ * x_81_ + 1 x_98_ ^ 2 + 1 y_81_ ^ 2 - 2 y_98_ * y_81_ + 1 y_98_ ^ 2 ] >= 2427.48
quadratic_ranged_193_lb: [ 1 x_89_ ^ 2 - 2 x_98_ * x_89_ + 1 x_98_ ^ 2 + 1 y_89_ ^ 2 - 2 y_98_ * y_89_ + 1 y_98_ ^ 2 ] >= 14910.39
quadratic_ranged_194_lb: [ 1 x_68_ ^ 2 - 2 x_99_ * x_68_ + 1 x_99_ ^ 2 + 1 y_68_ ^ 2 - 2 y_99_ * y_68_ + 1 y_99_ ^ 2 ] >= 223.74
quadratic_ranged_195_lb: [ 1 x_89_ ^ 2 - 2 x_99_ * x_89_ + 1 x_99_ ^ 2 + 1 y_89_ ^ 2 - 2 y_99_ * y_89_ + 1 y_99_ ^ 2 ] >= 29356.47
quadratic_ranged_196_lb: [ 1 x_88_ ^ 2 - 2 x_100_ * x_88_ + 1 x_100_ ^ 2 + 1 y_88_ ^ 2 - 2 y_100_ * y_88_ + 1 y_100_ ^ 2 ] >= 17250.75
quadratic_ranged_197_lb: [ 1 x_97_ ^ 2 - 2 x_100_ * x_97_ + 1 x_100_ ^ 2 + 1 y_97_ ^ 2 - 2 y_100_ * y_97_ + 1 y_100_ ^ 2 ] >= 35478.63
quadratic_ranged_198_lb: [ 1 x_99_ ^ 2 - 2 x_100_ * x_99_ + 1 x_100_ ^ 2 + 1 y_99_ ^ 2 - 2 y_100_ * y_99_ + 1 y_100_ ^ 2 ] >= 28088.28
c1_1: 1 x_9_ = 0
c2_1: 1 y_9_ = 0
Bounds
-267 <= x_1_ <= 267
-179 <= x_2_ <= 179
-111 <= x_3_ <= 111
-197 <= x_4_ <= 197
-273 <= x_5_ <= 273
-75 <= x_6_ <= 75
-35 <= x_7_ <= 35
-237 <= x_8_ <= 237
x_9_ = 0
-222 <= x_10_ <= 222
-241 <= x_11_ <= 241
-155 <= x_12_ <= 155
-249 <= x_13_ <= 249
-336 <= x_14_ <= 336
-249 <= x_15_ <= 249
-174 <= x_16_ <= 174
-155 <= x_17_ <= 155
-229 <= x_18_ <= 229
-62 <= x_19_ <= 62
-149 <= x_20_ <= 149
-137 <= x_21_ <= 137
-249 <= x_22_ <= 249
-149 <= x_23_ <= 149
-107 <= x_24_ <= 107
-66 <= x_25_ <= 66
-295 <= x_26_ <= 295
-164 <= x_27_ <= 164
-269 <= x_28_ <= 269
-261 <= x_29_ <= 261
-117 <= x_30_ <= 117
-200 <= x_31_ <= 200
-330 <= x_32_ <= 330
-151 <= x_33_ <= 151
-351 <= x_34_ <= 351
-333 <= x_35_ <= 333
-247 <= x_36_ <= 247
-351 <= x_37_ <= 351
-215 <= x_38_ <= 215
-320 <= x_39_ <= 320
-238 <= x_40_ <= 238
-261 <= x_41_ <= 261
-137 <= x_42_ <= 137
-275 <= x_43_ <= 275
-37 <= x_44_ <= 37
-289 <= x_45_ <= 289
-249 <= x_46_ <= 249
-379 <= x_47_ <= 379
-37 <= x_48_ <= 37
-286 <= x_49_ <= 286
-246 <= x_50_ <= 246
-401 <= x_51_ <= 401
-187 <= x_52_ <= 187
-71 <= x_53_ <= 71
-206 <= x_54_ <= 206
-189 <= x_55_ <= 189
-332 <= x_56_ <= 332
-160 <= x_57_ <= 160
-310 <= x_58_ <= 310
-196 <= x_59_ <= 196
-280 <= x_60_ <= 280
-196 <= x_61_ <= 196
-257 <= x_62_ <= 257
-135 <= x_63_ <= 135
-278 <= x_64_ <= 278
-64 <= x_65_ <= 64
-250 <= x_66_ <= 250
-84 <= x_67_ <= 84
-322 <= x_68_ <= 322
-367 <= x_69_ <= 367
-96 <= x_70_ <= 96
-303 <= x_71_ <= 303
-154 <= x_72_ <= 154
-208 <= x_73_ <= 208
-400 <= x_74_ <= 400
-326 <= x_75_ <= 326
-298 <= x_76_ <= 298
-197 <= x_77_ <= 197
-200 <= x_78_ <= 200
-171 <= x_79_ <= 171
-361 <= x_80_ <= 361
-316 <= x_81_ <= 316
-331 <= x_82_ <= 331
-56 <= x_83_ <= 56
-258 <= x_84_ <= 258
-263 <= x_85_ <= 263
-270 <= x_86_ <= 270
-312 <= x_87_ <= 312
-194 <= x_88_ <= 194
-227 <= x_89_ <= 227
-337 <= x_90_ <= 337
-262 <= x_91_ <= 262
-172 <= x_92_ <= 172
-131 <= x_93_ <= 131
-195 <= x_94_ <= 195
-176 <= x_95_ <= 176
-195 <= x_96_ <= 195
-382 <= x_97_ <= 382
-266 <= x_98_ <= 266
-337 <= x_99_ <= 337
-326 <= x_100_ <= 326
-267 <= y_1_ <= 267
-179 <= y_2_ <= 179
-111 <= y_3_ <= 111
-197 <= y_4_ <= 197
-273 <= y_5_ <= 273
-75 <= y_6_ <= 75
-35 <= y_7_ <= 35
-237 <= y_8_ <= 237
y_9_ = 0
-222 <= y_10_ <= 222
-241 <= y_11_ <= 241
-155 <= y_12_ <= 155
-249 <= y_13_ <= 249
-336 <= y_14_ <= 336
-249 <= y_15_ <= 249
-174 <= y_16_ <= 174
-155 <= y_17_ <= 155
-229 <= y_18_ <= 229
-62 <= y_19_ <= 62
-149 <= y_20_ <= 149
-137 <= y_21_ <= 137
-249 <= y_22_ <= 249
-149 <= y_23_ <= 149
-107 <= y_24_ <= 107
-66 <= y_25_ <= 66
-295 <= y_26_ <= 295
-164 <= y_27_ <= 164
-269 <= y_28_ <= 269
-261 <= y_29_ <= 261
-117 <= y_30_ <= 117
-200 <= y_31_ <= 200
-330 <= y_32_ <= 330
-151 <= y_33_ <= 151
-351 <= y_34_ <= 351
-333 <= y_35_ <= 333
-247 <= y_36_ <= 247
-351 <= y_37_ <= 351
-215 <= y_38_ <= 215
-320 <= y_39_ <= 320
-238 <= y_40_ <= 238
-261 <= y_41_ <= 261
-137 <= y_42_ <= 137
-275 <= y_43_ <= 275
-37 <= y_44_ <= 37
-289 <= y_45_ <= 289
-249 <= y_46_ <= 249
-379 <= y_47_ <= 379
-37 <= y_48_ <= 37
-286 <= y_49_ <= 286
-246 <= y_50_ <= 246
-401 <= y_51_ <= 401
-187 <= y_52_ <= 187
-71 <= y_53_ <= 71
-206 <= y_54_ <= 206
-189 <= y_55_ <= 189
-332 <= y_56_ <= 332
-160 <= y_57_ <= 160
-310 <= y_58_ <= 310
-196 <= y_59_ <= 196
-280 <= y_60_ <= 280
-196 <= y_61_ <= 196
-257 <= y_62_ <= 257
-135 <= y_63_ <= 135
-278 <= y_64_ <= 278
-64 <= y_65_ <= 64
-250 <= y_66_ <= 250
-84 <= y_67_ <= 84
-322 <= y_68_ <= 322
-367 <= y_69_ <= 367
-96 <= y_70_ <= 96
-303 <= y_71_ <= 303
-154 <= y_72_ <= 154
-208 <= y_73_ <= 208
-400 <= y_74_ <= 400
-326 <= y_75_ <= 326
-298 <= y_76_ <= 298
-197 <= y_77_ <= 197
-200 <= y_78_ <= 200
-171 <= y_79_ <= 171
-361 <= y_80_ <= 361
-316 <= y_81_ <= 316
-331 <= y_82_ <= 331
-56 <= y_83_ <= 56
-258 <= y_84_ <= 258
-263 <= y_85_ <= 263
-270 <= y_86_ <= 270
-312 <= y_87_ <= 312
-194 <= y_88_ <= 194
-227 <= y_89_ <= 227
-337 <= y_90_ <= 337
-262 <= y_91_ <= 262
-172 <= y_92_ <= 172
-131 <= y_93_ <= 131
-195 <= y_94_ <= 195
-176 <= y_95_ <= 176
-195 <= y_96_ <= 195
-382 <= y_97_ <= 382
-266 <= y_98_ <= 266
-337 <= y_99_ <= 337
-326 <= y_100_ <= 326
General
x_1_
x_2_
x_3_
x_4_
x_5_
x_6_
x_7_
x_8_
x_9_
x_10_
x_11_
x_12_
x_13_
x_14_
x_15_
x_16_
x_17_
x_18_
x_19_
x_20_
x_21_
x_22_
x_23_
x_24_
x_25_
x_26_
x_27_
x_28_
x_29_
x_30_
x_31_
x_32_
x_33_
x_34_
x_35_
x_36_
x_37_
x_38_
x_39_
x_40_
x_41_
x_42_
x_43_
x_44_
x_45_
x_46_
x_47_
x_48_
x_49_
x_50_
x_51_
x_52_
x_53_
x_54_
x_55_
x_56_
x_57_
x_58_
x_59_
x_60_
x_61_
x_62_
x_63_
x_64_
x_65_
x_66_
x_67_
x_68_
x_69_
x_70_
x_71_
x_72_
x_73_
x_74_
x_75_
x_76_
x_77_
x_78_
x_79_
x_80_
x_81_
x_82_
x_83_
x_84_
x_85_
x_86_
x_87_
x_88_
x_89_
x_90_
x_91_
x_92_
x_93_
x_94_
x_95_
x_96_
x_97_
x_98_
x_99_
x_100_
y_1_
y_2_
y_3_
y_4_
y_5_
y_6_
y_7_
y_8_
y_9_
y_10_
y_11_
y_12_
y_13_
y_14_
y_15_
y_16_
y_17_
y_18_
y_19_
y_20_
y_21_
y_22_
y_23_
y_24_
y_25_
y_26_
y_27_
y_28_
y_29_
y_30_
y_31_
y_32_
y_33_
y_34_
y_35_
y_36_
y_37_
y_38_
y_39_
y_40_
y_41_
y_42_
y_43_
y_44_
y_45_
y_46_
y_47_
y_48_
y_49_
y_50_
y_51_
y_52_
y_53_
y_54_
y_55_
y_56_
y_57_
y_58_
y_59_
y_60_
y_61_
y_62_
y_63_
y_64_
y_65_
y_66_
y_67_
y_68_
y_69_
y_70_
y_71_
y_72_
y_73_
y_74_
y_75_
y_76_
y_77_
y_78_
y_79_
y_80_
y_81_
y_82_
y_83_
y_84_
y_85_
y_86_
y_87_
y_88_
y_89_
y_90_
y_91_
y_92_
y_93_
y_94_
y_95_
y_96_
y_97_
y_98_
y_99_
y_100_
End
