minimize
obj: 
subject to
c1_3: -1 x_37_ + 1 y_37_ <= 0
c1: [ 1 x_1_ ^ 2 + 1 y_1_ ^ 2 ] <= 23541.392148100767
c2: [ 1 x_2_ ^ 2 + 1 y_2_ ^ 2 ] <= 119891.3273501242
c3: [ 1 x_3_ ^ 2 + 1 y_3_ ^ 2 ] <= 87109.79622743672
c4: [ 1 x_4_ ^ 2 + 1 y_4_ ^ 2 ] <= 46463.77879753379
c5: [ 1 x_5_ ^ 2 + 1 y_5_ ^ 2 ] <= 16087.744024748928
c6: [ 1 x_6_ ^ 2 + 1 y_6_ ^ 2 ] <= 34825.5525523514
c7: [ 1 x_7_ ^ 2 + 1 y_7_ ^ 2 ] <= 9737.71845533791
c8: [ 1 x_8_ ^ 2 + 1 y_8_ ^ 2 ] <= 63714.12085839145
c9: [ 1 x_10_ ^ 2 + 1 y_10_ ^ 2 ] <= 120888.19170748095
c10: [ 1 x_11_ ^ 2 + 1 y_11_ ^ 2 ] <= 47005.23337918413
c11: [ 1 x_12_ ^ 2 + 1 y_12_ ^ 2 ] <= 23608.767369177694
c12: [ 1 x_13_ ^ 2 + 1 y_13_ ^ 2 ] <= 25687.940802571848
c13: [ 1 x_14_ ^ 2 + 1 y_14_ ^ 2 ] <= 30165.733607129918
c14: [ 1 x_15_ ^ 2 + 1 y_15_ ^ 2 ] <= 47768.69839851116
c15: [ 1 x_16_ ^ 2 + 1 y_16_ ^ 2 ] <= 23109.62357298428
c16: [ 1 x_17_ ^ 2 + 1 y_17_ ^ 2 ] <= 74502.81567328224
c17: [ 1 x_18_ ^ 2 + 1 y_18_ ^ 2 ] <= 47466.47938117095
c18: [ 1 x_19_ ^ 2 + 1 y_19_ ^ 2 ] <= 87656.66803648492
c19: [ 1 x_20_ ^ 2 + 1 y_20_ ^ 2 ] <= 21224.74263408713
c20: [ 1 x_21_ ^ 2 + 1 y_21_ ^ 2 ] <= 34839.83012260534
c21: [ 1 x_22_ ^ 2 + 1 y_22_ ^ 2 ] <= 78838.10180493633
c22: [ 1 x_23_ ^ 2 + 1 y_23_ ^ 2 ] <= 42919.89105101831
c23: [ 1 x_24_ ^ 2 + 1 y_24_ ^ 2 ] <= 61477.96698684677
c24: [ 1 x_25_ ^ 2 + 1 y_25_ ^ 2 ] <= 24261.209999999995
c25: [ 1 x_26_ ^ 2 + 1 y_26_ ^ 2 ] <= 83933.50448654764
c26: [ 1 x_27_ ^ 2 + 1 y_27_ ^ 2 ] <= 92004.31087512778
c27: [ 1 x_28_ ^ 2 + 1 y_28_ ^ 2 ] <= 85664.9379726686
c28: [ 1 x_29_ ^ 2 + 1 y_29_ ^ 2 ] <= 33200.66931389591
c29: [ 1 x_30_ ^ 2 + 1 y_30_ ^ 2 ] <= 24083.604458475766
c30: [ 1 x_31_ ^ 2 + 1 y_31_ ^ 2 ] <= 70071.74373747321
c31: [ 1 x_32_ ^ 2 + 1 y_32_ ^ 2 ] <= 56418.24571531363
c32: [ 1 x_33_ ^ 2 + 1 y_33_ ^ 2 ] <= 75489.3693795544
c33: [ 1 x_34_ ^ 2 + 1 y_34_ ^ 2 ] <= 84002.45290682584
c34: [ 1 x_35_ ^ 2 + 1 y_35_ ^ 2 ] <= 76506.05369989641
c35: [ 1 x_36_ ^ 2 + 1 y_36_ ^ 2 ] <= 92456.02815652896
c36: [ 1 x_37_ ^ 2 + 1 y_37_ ^ 2 ] <= 142021.94531154804
c37: [ 1 x_38_ ^ 2 + 1 y_38_ ^ 2 ] <= 34815.148182527766
c38: [ 1 x_39_ ^ 2 + 1 y_39_ ^ 2 ] <= 126000.82427112431
c39: [ 1 x_40_ ^ 2 + 1 y_40_ ^ 2 ] <= 84880.95856556088
c40: [ 1 x_41_ ^ 2 + 1 y_41_ ^ 2 ] <= 33521.892671085494
c41: [ 1 x_42_ ^ 2 + 1 y_42_ ^ 2 ] <= 51135.55257954517
c42: [ 1 x_43_ ^ 2 + 1 y_43_ ^ 2 ] <= 108962.77848743406
c43: [ 1 x_44_ ^ 2 + 1 y_44_ ^ 2 ] <= 102109.94291406113
c44: [ 1 x_45_ ^ 2 + 1 y_45_ ^ 2 ] <= 113765.40130067577
c45: [ 1 x_46_ ^ 2 + 1 y_46_ ^ 2 ] <= 22669.064224241047
c46: [ 1 x_47_ ^ 2 + 1 y_47_ ^ 2 ] <= 80332.53881584523
c47: [ 1 x_48_ ^ 2 + 1 y_48_ ^ 2 ] <= 22046.783901790535
c48: [ 1 x_49_ ^ 2 + 1 y_49_ ^ 2 ] <= 63153.67254155625
c49: [ 1 x_50_ ^ 2 + 1 y_50_ ^ 2 ] <= 12078.130867454205
c50: [ 1 x_51_ ^ 2 + 1 y_51_ ^ 2 ] <= 44738.02882021819
c51: [ 1 x_52_ ^ 2 + 1 y_52_ ^ 2 ] <= 23573.76343603896
c52: [ 1 x_53_ ^ 2 + 1 y_53_ ^ 2 ] <= 82091.4627661497
c53: [ 1 x_54_ ^ 2 + 1 y_54_ ^ 2 ] <= 119018.25980456258
c54: [ 1 x_55_ ^ 2 + 1 y_55_ ^ 2 ] <= 86954.93577213137
c55: [ 1 x_56_ ^ 2 + 1 y_56_ ^ 2 ] <= 31392.167707950997
c56: [ 1 x_57_ ^ 2 + 1 y_57_ ^ 2 ] <= 20722.118532263143
c57: [ 1 x_58_ ^ 2 + 1 y_58_ ^ 2 ] <= 57781.30624754879
c58: [ 1 x_59_ ^ 2 + 1 y_59_ ^ 2 ] <= 51017.73727683121
c59: [ 1 x_60_ ^ 2 + 1 y_60_ ^ 2 ] <= 30107.813721653165
c60: [ 1 x_61_ ^ 2 + 1 y_61_ ^ 2 ] <= 39927.65765153657
c61: [ 1 x_62_ ^ 2 + 1 y_62_ ^ 2 ] <= 67287.06961230903
c62: [ 1 x_63_ ^ 2 + 1 y_63_ ^ 2 ] <= 74517.94552761411
c63: [ 1 x_64_ ^ 2 + 1 y_64_ ^ 2 ] <= 130474.38357687919
c64: [ 1 x_65_ ^ 2 + 1 y_65_ ^ 2 ] <= 414.09999999999997
c65: [ 1 x_66_ ^ 2 + 1 y_66_ ^ 2 ] <= 99883.68794874486
c66: [ 1 x_67_ ^ 2 + 1 y_67_ ^ 2 ] <= 44648.19452869878
c67: [ 1 x_68_ ^ 2 + 1 y_68_ ^ 2 ] <= 71719.23038438821
c68: [ 1 x_69_ ^ 2 + 1 y_69_ ^ 2 ] <= 13904.204530198756
c69: [ 1 x_70_ ^ 2 + 1 y_70_ ^ 2 ] <= 71461.66950970107
c70: [ 1 x_71_ ^ 2 + 1 y_71_ ^ 2 ] <= 82074.46615339277
c71: [ 1 x_72_ ^ 2 + 1 y_72_ ^ 2 ] <= 50183.18305861016
c72: [ 1 x_73_ ^ 2 + 1 y_73_ ^ 2 ] <= 95147.92317598785
c73: [ 1 x_74_ ^ 2 + 1 y_74_ ^ 2 ] <= 35840.80057038478
c74: [ 1 x_75_ ^ 2 + 1 y_75_ ^ 2 ] <= 69456.15903797736
c75: [ 1 x_76_ ^ 2 + 1 y_76_ ^ 2 ] <= 125878.77752844158
c76: [ 1 x_77_ ^ 2 + 1 y_77_ ^ 2 ] <= 9284.929999999997
c77: [ 1 x_78_ ^ 2 + 1 y_78_ ^ 2 ] <= 68831.47220127011
c78: [ 1 x_79_ ^ 2 + 1 y_79_ ^ 2 ] <= 64334.203325132876
c79: [ 1 x_80_ ^ 2 + 1 y_80_ ^ 2 ] <= 111031.72950787153
c80: [ 1 x_81_ ^ 2 + 1 y_81_ ^ 2 ] <= 37330.97338353379
c81: [ 1 x_82_ ^ 2 + 1 y_82_ ^ 2 ] <= 4717.351178778776
c82: [ 1 x_83_ ^ 2 + 1 y_83_ ^ 2 ] <= 92230.58326695568
c83: [ 1 x_84_ ^ 2 + 1 y_84_ ^ 2 ] <= 32555.17838073105
c84: [ 1 x_85_ ^ 2 + 1 y_85_ ^ 2 ] <= 58401.144735886875
c85: [ 1 x_86_ ^ 2 + 1 y_86_ ^ 2 ] <= 747.4
c86: [ 1 x_87_ ^ 2 + 1 y_87_ ^ 2 ] <= 73154.4027291106
c87: [ 1 x_88_ ^ 2 + 1 y_88_ ^ 2 ] <= 2167.4599999999996
c88: [ 1 x_89_ ^ 2 + 1 y_89_ ^ 2 ] <= 42454.68322728983
c89: [ 1 x_90_ ^ 2 + 1 y_90_ ^ 2 ] <= 13896.251673466799
c90: [ 1 x_91_ ^ 2 + 1 y_91_ ^ 2 ] <= 82535.48599866276
c91: [ 1 x_92_ ^ 2 + 1 y_92_ ^ 2 ] <= 8331.49
c92: [ 1 x_93_ ^ 2 + 1 y_93_ ^ 2 ] <= 57396.23048975843
c93: [ 1 x_94_ ^ 2 + 1 y_94_ ^ 2 ] <= 87838.38893113087
c94: [ 1 x_95_ ^ 2 + 1 y_95_ ^ 2 ] <= 64811.20922850219
c95: [ 1 x_96_ ^ 2 + 1 y_96_ ^ 2 ] <= 88519.10793040364
c96: [ 1 x_97_ ^ 2 + 1 y_97_ ^ 2 ] <= 105401.44435866237
c97: [ 1 x_98_ ^ 2 + 1 y_98_ ^ 2 ] <= 99161.86195928068
c98: [ 1 x_99_ ^ 2 + 1 y_99_ ^ 2 ] <= 58923.966522258015
c99: [ 1 x_100_ ^ 2 + 1 y_100_ ^ 2 ] <= 17022.81516410462
quadratic_ranged_1_ub: [ 1 x_1_ ^ 2 - 2 x_4_ * x_1_ + 1 x_4_ ^ 2 + 1 y_1_ ^ 2 - 2 y_4_ * y_1_ + 1 y_4_ ^ 2 ] <= 3859.21
quadratic_ranged_2_ub: [ 1 x_1_ ^ 2 - 2 x_6_ * x_1_ + 1 x_6_ ^ 2 + 1 y_1_ ^ 2 - 2 y_6_ * y_1_ + 1 y_6_ ^ 2 ] <= 18908.21
quadratic_ranged_3_ub: [ 1 x_5_ ^ 2 - 2 x_7_ * x_5_ + 1 x_7_ ^ 2 + 1 y_5_ ^ 2 - 2 y_7_ * y_5_ + 1 y_7_ ^ 2 ] <= 792.85
quadratic_ranged_4_ub: [ 1 x_3_ ^ 2 - 2 x_8_ * x_3_ + 1 x_8_ ^ 2 + 1 y_3_ ^ 2 - 2 y_8_ * y_3_ + 1 y_8_ ^ 2 ] <= 36045.89
quadratic_ranged_5_ub: [ 1 x_2_ ^ 2 - 2 x_10_ * x_2_ + 1 x_10_ ^ 2 + 1 y_2_ ^ 2 - 2 y_10_ * y_2_ + 1 y_10_ ^ 2 ] <= 7615.4
quadratic_ranged_6_ub: [ 1 x_12_ ^ 2 - 2 x_14_ * x_12_ + 1 x_14_ ^ 2 + 1 y_12_ ^ 2 - 2 y_14_ * y_12_ + 1 y_14_ ^ 2 ] <= 51704.93
quadratic_ranged_7_ub: [ 1 x_2_ ^ 2 - 2 x_15_ * x_2_ + 1 x_15_ ^ 2 + 1 y_2_ ^ 2 - 2 y_15_ * y_2_ + 1 y_15_ ^ 2 ] <= 16305.44
quadratic_ranged_8_ub: [ 1 x_3_ ^ 2 - 2 x_16_ * x_3_ + 1 x_16_ ^ 2 + 1 y_3_ ^ 2 - 2 y_16_ * y_3_ + 1 y_16_ ^ 2 ] <= 20484.82
quadratic_ranged_9_ub: [ 1 x_15_ ^ 2 - 2 x_16_ * x_15_ + 1 x_16_ ^ 2 + 1 y_15_ ^ 2 - 2 y_16_ * y_15_ + 1 y_16_ ^ 2 ] <= 4427.84
quadratic_ranged_10_ub: [ 1 x_14_ ^ 2 - 2 x_18_ * x_14_ + 1 x_18_ ^ 2 + 1 y_14_ ^ 2 - 2 y_18_ * y_14_ + 1 y_18_ ^ 2 ] <= 1952.33
quadratic_ranged_11_ub: [ 1 x_12_ ^ 2 - 2 x_19_ * x_12_ + 1 x_19_ ^ 2 + 1 y_12_ ^ 2 - 2 y_19_ * y_12_ + 1 y_19_ ^ 2 ] <= 25295.45
quadratic_ranged_12_ub: [ 1 x_15_ ^ 2 - 2 x_19_ * x_15_ + 1 x_19_ ^ 2 + 1 y_15_ ^ 2 - 2 y_19_ * y_15_ + 1 y_19_ ^ 2 ] <= 6464
quadratic_ranged_13_ub: [ 1 x_13_ ^ 2 - 2 x_20_ * x_13_ + 1 x_20_ ^ 2 + 1 y_13_ ^ 2 - 2 y_20_ * y_13_ + 1 y_20_ ^ 2 ] <= 10731.25
quadratic_ranged_14_ub: [ 1 x_14_ ^ 2 - 2 x_20_ * x_14_ + 1 x_20_ ^ 2 + 1 y_14_ ^ 2 - 2 y_20_ * y_14_ + 1 y_20_ ^ 2 ] <= 783.76
quadratic_ranged_15_ub: [ 1 x_6_ ^ 2 - 2 x_21_ * x_6_ + 1 x_21_ ^ 2 + 1 y_6_ ^ 2 - 2 y_21_ * y_6_ + 1 y_21_ ^ 2 ] <= 12488.65
quadratic_ranged_16_ub: [ 1 x_7_ ^ 2 - 2 x_21_ * x_7_ + 1 x_21_ ^ 2 + 1 y_7_ ^ 2 - 2 y_21_ * y_7_ + 1 y_21_ ^ 2 ] <= 8742.56
quadratic_ranged_17_ub: [ 1 x_13_ ^ 2 - 2 x_21_ * x_13_ + 1 x_21_ ^ 2 + 1 y_13_ ^ 2 - 2 y_21_ * y_13_ + 1 y_21_ ^ 2 ] <= 695.89
quadratic_ranged_18_ub: [ 1 x_15_ ^ 2 - 2 x_22_ * x_15_ + 1 x_22_ ^ 2 + 1 y_15_ ^ 2 - 2 y_22_ * y_15_ + 1 y_22_ ^ 2 ] <= 4691.45
quadratic_ranged_19_ub: [ 1 x_8_ ^ 2 - 2 x_23_ * x_8_ + 1 x_23_ ^ 2 + 1 y_8_ ^ 2 - 2 y_23_ * y_8_ + 1 y_23_ ^ 2 ] <= 12833.06
quadratic_ranged_20_ub: [ 1 x_12_ ^ 2 - 2 x_23_ * x_12_ + 1 x_23_ ^ 2 + 1 y_12_ ^ 2 - 2 y_23_ * y_12_ + 1 y_23_ ^ 2 ] <= 2864.36
quadratic_ranged_21_ub: [ 1 x_10_ ^ 2 - 2 x_24_ * x_10_ + 1 x_24_ ^ 2 + 1 y_10_ ^ 2 - 2 y_24_ * y_10_ + 1 y_24_ ^ 2 ] <= 14084.45
quadratic_ranged_22_ub: [ 1 x_9_ ^ 2 - 2 x_25_ * x_9_ + 1 x_25_ ^ 2 + 1 y_9_ ^ 2 - 2 y_25_ * y_9_ + 1 y_25_ ^ 2 ] <= 24261.21
quadratic_ranged_23_ub: [ 1 x_16_ ^ 2 - 2 x_26_ * x_16_ + 1 x_26_ ^ 2 + 1 y_16_ ^ 2 - 2 y_26_ * y_16_ + 1 y_26_ ^ 2 ] <= 18959.72
quadratic_ranged_24_ub: [ 1 x_23_ ^ 2 - 2 x_26_ * x_23_ + 1 x_26_ ^ 2 + 1 y_23_ ^ 2 - 2 y_26_ * y_23_ + 1 y_26_ ^ 2 ] <= 13300.69
quadratic_ranged_25_ub: [ 1 x_10_ ^ 2 - 2 x_27_ * x_10_ + 1 x_27_ ^ 2 + 1 y_10_ ^ 2 - 2 y_27_ * y_10_ + 1 y_27_ ^ 2 ] <= 1968.49
quadratic_ranged_26_ub: [ 1 x_13_ ^ 2 - 2 x_27_ * x_13_ + 1 x_27_ ^ 2 + 1 y_13_ ^ 2 - 2 y_27_ * y_13_ + 1 y_27_ ^ 2 ] <= 20462.6
quadratic_ranged_27_ub: [ 1 x_18_ ^ 2 - 2 x_27_ * x_18_ + 1 x_27_ ^ 2 + 1 y_18_ ^ 2 - 2 y_27_ * y_18_ + 1 y_27_ ^ 2 ] <= 29249.6
quadratic_ranged_28_ub: [ 1 x_21_ ^ 2 - 2 x_28_ * x_21_ + 1 x_28_ ^ 2 + 1 y_21_ ^ 2 - 2 y_28_ * y_21_ + 1 y_28_ ^ 2 ] <= 31473.62
quadratic_ranged_29_ub: [ 1 x_26_ ^ 2 - 2 x_28_ * x_26_ + 1 x_28_ ^ 2 + 1 y_26_ ^ 2 - 2 y_28_ * y_26_ + 1 y_28_ ^ 2 ] <= 38986
quadratic_ranged_30_ub: [ 1 x_1_ ^ 2 - 2 x_29_ * x_1_ + 1 x_29_ ^ 2 + 1 y_1_ ^ 2 - 2 y_29_ * y_1_ + 1 y_29_ ^ 2 ] <= 828.2
quadratic_ranged_31_ub: [ 1 x_5_ ^ 2 - 2 x_29_ * x_5_ + 1 x_29_ ^ 2 + 1 y_5_ ^ 2 - 2 y_29_ * y_5_ + 1 y_29_ ^ 2 ] <= 8670.85
quadratic_ranged_32_ub: [ 1 x_14_ ^ 2 - 2 x_29_ * x_14_ + 1 x_29_ ^ 2 + 1 y_14_ ^ 2 - 2 y_29_ * y_14_ + 1 y_29_ ^ 2 ] <= 12566.42
quadratic_ranged_33_ub: [ 1 x_6_ ^ 2 - 2 x_30_ * x_6_ + 1 x_30_ ^ 2 + 1 y_6_ ^ 2 - 2 y_30_ * y_6_ + 1 y_30_ ^ 2 ] <= 12340.18
quadratic_ranged_34_ub: [ 1 x_8_ ^ 2 - 2 x_31_ * x_8_ + 1 x_31_ ^ 2 + 1 y_8_ ^ 2 - 2 y_31_ * y_8_ + 1 y_31_ ^ 2 ] <= 1956.3700000000001
quadratic_ranged_35_ub: [ 1 x_2_ ^ 2 - 2 x_32_ * x_2_ + 1 x_32_ ^ 2 + 1 y_2_ ^ 2 - 2 y_32_ * y_2_ + 1 y_32_ ^ 2 ] <= 30971.65
quadratic_ranged_36_ub: [ 1 x_11_ ^ 2 - 2 x_32_ * x_11_ + 1 x_32_ ^ 2 + 1 y_11_ ^ 2 - 2 y_32_ * y_11_ + 1 y_32_ ^ 2 ] <= 429.25
quadratic_ranged_37_ub: [ 1 x_14_ ^ 2 - 2 x_32_ * x_14_ + 1 x_32_ ^ 2 + 1 y_14_ ^ 2 - 2 y_32_ * y_14_ + 1 y_32_ ^ 2 ] <= 32850.25
quadratic_ranged_38_ub: [ 1 x_12_ ^ 2 - 2 x_33_ * x_12_ + 1 x_33_ ^ 2 + 1 y_12_ ^ 2 - 2 y_33_ * y_12_ + 1 y_33_ ^ 2 ] <= 39492.01
quadratic_ranged_39_ub: [ 1 x_14_ ^ 2 - 2 x_34_ * x_14_ + 1 x_34_ ^ 2 + 1 y_14_ ^ 2 - 2 y_34_ * y_14_ + 1 y_34_ ^ 2 ] <= 13490.57
quadratic_ranged_40_ub: [ 1 x_27_ ^ 2 - 2 x_34_ * x_27_ + 1 x_34_ ^ 2 + 1 y_27_ ^ 2 - 2 y_34_ * y_27_ + 1 y_34_ ^ 2 ] <= 3104.7400000000002
quadratic_ranged_41_ub: [ 1 x_12_ ^ 2 - 2 x_35_ * x_12_ + 1 x_35_ ^ 2 + 1 y_12_ ^ 2 - 2 y_35_ * y_12_ + 1 y_35_ ^ 2 ] <= 30515.13
quadratic_ranged_42_ub: [ 1 x_13_ ^ 2 - 2 x_35_ * x_13_ + 1 x_35_ ^ 2 + 1 y_13_ ^ 2 - 2 y_35_ * y_13_ + 1 y_35_ ^ 2 ] <= 13530.97
quadratic_ranged_43_ub: [ 1 x_4_ ^ 2 - 2 x_36_ * x_4_ + 1 x_36_ ^ 2 + 1 y_4_ ^ 2 - 2 y_36_ * y_4_ + 1 y_36_ ^ 2 ] <= 30562.6
quadratic_ranged_44_ub: [ 1 x_4_ ^ 2 - 2 x_38_ * x_4_ + 1 x_38_ ^ 2 + 1 y_4_ ^ 2 - 2 y_38_ * y_4_ + 1 y_38_ ^ 2 ] <= 21468.56
quadratic_ranged_45_ub: [ 1 x_2_ ^ 2 - 2 x_39_ * x_2_ + 1 x_39_ ^ 2 + 1 y_2_ ^ 2 - 2 y_39_ * y_2_ + 1 y_39_ ^ 2 ] <= 40097
quadratic_ranged_46_ub: [ 1 x_26_ ^ 2 - 2 x_40_ * x_26_ + 1 x_40_ ^ 2 + 1 y_26_ ^ 2 - 2 y_40_ * y_26_ + 1 y_40_ ^ 2 ] <= 17648.74
quadratic_ranged_47_ub: [ 1 x_38_ ^ 2 - 2 x_40_ * x_38_ + 1 x_40_ ^ 2 + 1 y_38_ ^ 2 - 2 y_40_ * y_38_ + 1 y_40_ ^ 2 ] <= 10973.65
quadratic_ranged_48_ub: [ 1 x_39_ ^ 2 - 2 x_40_ * x_39_ + 1 x_40_ ^ 2 + 1 y_39_ ^ 2 - 2 y_40_ * y_39_ + 1 y_40_ ^ 2 ] <= 5165.14
quadratic_ranged_49_ub: [ 1 x_5_ ^ 2 - 2 x_41_ * x_5_ + 1 x_41_ ^ 2 + 1 y_5_ ^ 2 - 2 y_41_ * y_5_ + 1 y_41_ ^ 2 ] <= 3164.33
quadratic_ranged_50_ub: [ 1 x_31_ ^ 2 - 2 x_41_ * x_31_ + 1 x_41_ ^ 2 + 1 y_31_ ^ 2 - 2 y_41_ * y_31_ + 1 y_41_ ^ 2 ] <= 6661.96
quadratic_ranged_51_ub: [ 1 x_3_ ^ 2 - 2 x_42_ * x_3_ + 1 x_42_ ^ 2 + 1 y_3_ ^ 2 - 2 y_42_ * y_3_ + 1 y_42_ ^ 2 ] <= 31487.760000000002
quadratic_ranged_52_ub: [ 1 x_22_ ^ 2 - 2 x_42_ * x_22_ + 1 x_42_ ^ 2 + 1 y_22_ ^ 2 - 2 y_42_ * y_22_ + 1 y_42_ ^ 2 ] <= 2986.57
quadratic_ranged_53_ub: [ 1 x_17_ ^ 2 - 2 x_43_ * x_17_ + 1 x_43_ ^ 2 + 1 y_17_ ^ 2 - 2 y_43_ * y_17_ + 1 y_43_ ^ 2 ] <= 3265.33
quadratic_ranged_54_ub: [ 1 x_36_ ^ 2 - 2 x_43_ * x_36_ + 1 x_43_ ^ 2 + 1 y_36_ ^ 2 - 2 y_43_ * y_36_ + 1 y_43_ ^ 2 ] <= 13875.380000000001
quadratic_ranged_55_ub: [ 1 x_1_ ^ 2 - 2 x_44_ * x_1_ + 1 x_44_ ^ 2 + 1 y_1_ ^ 2 - 2 y_44_ * y_1_ + 1 y_44_ ^ 2 ] <= 27860.85
quadratic_ranged_56_ub: [ 1 x_14_ ^ 2 - 2 x_44_ * x_14_ + 1 x_44_ ^ 2 + 1 y_14_ ^ 2 - 2 y_44_ * y_14_ + 1 y_44_ ^ 2 ] <= 25190.41
quadratic_ranged_57_ub: [ 1 x_17_ ^ 2 - 2 x_44_ * x_17_ + 1 x_44_ ^ 2 + 1 y_17_ ^ 2 - 2 y_44_ * y_17_ + 1 y_44_ ^ 2 ] <= 5673.17
quadratic_ranged_58_ub: [ 1 x_4_ ^ 2 - 2 x_45_ * x_4_ + 1 x_45_ ^ 2 + 1 y_4_ ^ 2 - 2 y_45_ * y_4_ + 1 y_45_ ^ 2 ] <= 23033.05
quadratic_ranged_59_ub: [ 1 x_10_ ^ 2 - 2 x_45_ * x_10_ + 1 x_45_ ^ 2 + 1 y_10_ ^ 2 - 2 y_45_ * y_10_ + 1 y_45_ ^ 2 ] <= 12671.460000000001
quadratic_ranged_60_ub: [ 1 x_36_ ^ 2 - 2 x_45_ * x_36_ + 1 x_45_ ^ 2 + 1 y_36_ ^ 2 - 2 y_45_ * y_36_ + 1 y_45_ ^ 2 ] <= 1103.93
quadratic_ranged_61_ub: [ 1 x_33_ ^ 2 - 2 x_46_ * x_33_ + 1 x_46_ ^ 2 + 1 y_33_ ^ 2 - 2 y_46_ * y_33_ + 1 y_46_ ^ 2 ] <= 19472.8
quadratic_ranged_62_ub: [ 1 x_38_ ^ 2 - 2 x_46_ * x_38_ + 1 x_46_ ^ 2 + 1 y_38_ ^ 2 - 2 y_46_ * y_38_ + 1 y_46_ ^ 2 ] <= 1297.85
quadratic_ranged_63_ub: [ 1 x_14_ ^ 2 - 2 x_47_ * x_14_ + 1 x_47_ ^ 2 + 1 y_14_ ^ 2 - 2 y_47_ * y_14_ + 1 y_47_ ^ 2 ] <= 15757.01
quadratic_ranged_64_ub: [ 1 x_43_ ^ 2 - 2 x_47_ * x_43_ + 1 x_47_ ^ 2 + 1 y_43_ ^ 2 - 2 y_47_ * y_43_ + 1 y_47_ ^ 2 ] <= 28459.78
quadratic_ranged_65_ub: [ 1 x_1_ ^ 2 - 2 x_48_ * x_1_ + 1 x_48_ ^ 2 + 1 y_1_ ^ 2 - 2 y_48_ * y_1_ + 1 y_48_ ^ 2 ] <= 17634.6
quadratic_ranged_66_ub: [ 1 x_18_ ^ 2 - 2 x_48_ * x_18_ + 1 x_48_ ^ 2 + 1 y_18_ ^ 2 - 2 y_48_ * y_18_ + 1 y_48_ ^ 2 ] <= 34680.37
quadratic_ranged_67_ub: [ 1 x_21_ ^ 2 - 2 x_48_ * x_21_ + 1 x_48_ ^ 2 + 1 y_21_ ^ 2 - 2 y_48_ * y_21_ + 1 y_48_ ^ 2 ] <= 10479.76
quadratic_ranged_68_ub: [ 1 x_16_ ^ 2 - 2 x_49_ * x_16_ + 1 x_49_ ^ 2 + 1 y_16_ ^ 2 - 2 y_49_ * y_16_ + 1 y_49_ ^ 2 ] <= 9857.6
quadratic_ranged_69_ub: [ 1 x_17_ ^ 2 - 2 x_49_ * x_17_ + 1 x_49_ ^ 2 + 1 y_17_ ^ 2 - 2 y_49_ * y_17_ + 1 y_49_ ^ 2 ] <= 468.64
quadratic_ranged_70_ub: [ 1 x_20_ ^ 2 - 2 x_50_ * x_20_ + 1 x_50_ ^ 2 + 1 y_20_ ^ 2 - 2 y_50_ * y_20_ + 1 y_50_ ^ 2 ] <= 1280.68
quadratic_ranged_71_ub: [ 1 x_14_ ^ 2 - 2 x_51_ * x_14_ + 1 x_51_ ^ 2 + 1 y_14_ ^ 2 - 2 y_51_ * y_14_ + 1 y_51_ ^ 2 ] <= 1431.17
quadratic_ranged_72_ub: [ 1 x_25_ ^ 2 - 2 x_51_ * x_25_ + 1 x_51_ ^ 2 + 1 y_25_ ^ 2 - 2 y_51_ * y_25_ + 1 y_51_ ^ 2 ] <= 9924.26
quadratic_ranged_73_ub: [ 1 x_37_ ^ 2 - 2 x_51_ * x_37_ + 1 x_51_ ^ 2 + 1 y_37_ ^ 2 - 2 y_51_ * y_37_ + 1 y_51_ ^ 2 ] <= 30447.46
quadratic_ranged_74_ub: [ 1 x_19_ ^ 2 - 2 x_52_ * x_19_ + 1 x_52_ ^ 2 + 1 y_19_ ^ 2 - 2 y_52_ * y_19_ + 1 y_52_ ^ 2 ] <= 20315.14
quadratic_ranged_75_ub: [ 1 x_24_ ^ 2 - 2 x_52_ * x_24_ + 1 x_52_ ^ 2 + 1 y_24_ ^ 2 - 2 y_52_ * y_24_ + 1 y_52_ ^ 2 ] <= 8913.25
quadratic_ranged_76_ub: [ 1 x_47_ ^ 2 - 2 x_52_ * x_47_ + 1 x_52_ ^ 2 + 1 y_47_ ^ 2 - 2 y_52_ * y_47_ + 1 y_52_ ^ 2 ] <= 16872.05
quadratic_ranged_77_ub: [ 1 x_1_ ^ 2 - 2 x_53_ * x_1_ + 1 x_53_ ^ 2 + 1 y_1_ ^ 2 - 2 y_53_ * y_1_ + 1 y_53_ ^ 2 ] <= 17711.36
quadratic_ranged_78_ub: [ 1 x_8_ ^ 2 - 2 x_53_ * x_8_ + 1 x_53_ ^ 2 + 1 y_8_ ^ 2 - 2 y_53_ * y_8_ + 1 y_53_ ^ 2 ] <= 15781.25
quadratic_ranged_79_ub: [ 1 x_36_ ^ 2 - 2 x_54_ * x_36_ + 1 x_54_ ^ 2 + 1 y_36_ ^ 2 - 2 y_54_ * y_36_ + 1 y_54_ ^ 2 ] <= 4182.41
quadratic_ranged_80_ub: [ 1 x_39_ ^ 2 - 2 x_54_ * x_39_ + 1 x_54_ ^ 2 + 1 y_39_ ^ 2 - 2 y_54_ * y_39_ + 1 y_54_ ^ 2 ] <= 11716
quadratic_ranged_81_ub: [ 1 x_29_ ^ 2 - 2 x_55_ * x_29_ + 1 x_55_ ^ 2 + 1 y_29_ ^ 2 - 2 y_55_ * y_29_ + 1 y_55_ ^ 2 ] <= 12694.69
quadratic_ranged_82_ub: [ 1 x_47_ ^ 2 - 2 x_55_ * x_47_ + 1 x_55_ ^ 2 + 1 y_47_ ^ 2 - 2 y_55_ * y_47_ + 1 y_55_ ^ 2 ] <= 13655.2
quadratic_ranged_83_ub: [ 1 x_7_ ^ 2 - 2 x_56_ * x_7_ + 1 x_56_ ^ 2 + 1 y_7_ ^ 2 - 2 y_56_ * y_7_ + 1 y_56_ ^ 2 ] <= 6162.01
quadratic_ranged_84_ub: [ 1 x_44_ ^ 2 - 2 x_56_ * x_44_ + 1 x_56_ ^ 2 + 1 y_44_ ^ 2 - 2 y_56_ * y_44_ + 1 y_56_ ^ 2 ] <= 20268.68
quadratic_ranged_85_ub: [ 1 x_5_ ^ 2 - 2 x_57_ * x_5_ + 1 x_57_ ^ 2 + 1 y_5_ ^ 2 - 2 y_57_ * y_5_ + 1 y_57_ ^ 2 ] <= 292.9
quadratic_ranged_86_ub: [ 1 x_30_ ^ 2 - 2 x_57_ * x_30_ + 1 x_57_ ^ 2 + 1 y_30_ ^ 2 - 2 y_57_ * y_30_ + 1 y_57_ ^ 2 ] <= 5773.16
quadratic_ranged_87_ub: [ 1 x_46_ ^ 2 - 2 x_57_ * x_46_ + 1 x_57_ ^ 2 + 1 y_46_ ^ 2 - 2 y_57_ * y_46_ + 1 y_57_ ^ 2 ] <= 1338.25
quadratic_ranged_88_ub: [ 1 x_16_ ^ 2 - 2 x_58_ * x_16_ + 1 x_58_ ^ 2 + 1 y_16_ ^ 2 - 2 y_58_ * y_16_ + 1 y_58_ ^ 2 ] <= 7807.3
quadratic_ranged_89_ub: [ 1 x_33_ ^ 2 - 2 x_58_ * x_33_ + 1 x_58_ ^ 2 + 1 y_33_ ^ 2 - 2 y_58_ * y_33_ + 1 y_58_ ^ 2 ] <= 1181.7
quadratic_ranged_90_ub: [ 1 x_28_ ^ 2 - 2 x_59_ * x_28_ + 1 x_59_ ^ 2 + 1 y_28_ ^ 2 - 2 y_59_ * y_28_ + 1 y_59_ ^ 2 ] <= 4464.2
quadratic_ranged_91_ub: [ 1 x_50_ ^ 2 - 2 x_59_ * x_50_ + 1 x_59_ ^ 2 + 1 y_50_ ^ 2 - 2 y_59_ * y_50_ + 1 y_59_ ^ 2 ] <= 13449.16
quadratic_ranged_92_ub: [ 1 x_7_ ^ 2 - 2 x_60_ * x_7_ + 1 x_60_ ^ 2 + 1 y_7_ ^ 2 - 2 y_60_ * y_7_ + 1 y_60_ ^ 2 ] <= 5600.45
quadratic_ranged_93_ub: [ 1 x_42_ ^ 2 - 2 x_60_ * x_42_ + 1 x_60_ ^ 2 + 1 y_42_ ^ 2 - 2 y_60_ * y_42_ + 1 y_60_ ^ 2 ] <= 2768.41
quadratic_ranged_94_ub: [ 1 x_22_ ^ 2 - 2 x_61_ * x_22_ + 1 x_61_ ^ 2 + 1 y_22_ ^ 2 - 2 y_61_ * y_22_ + 1 y_61_ ^ 2 ] <= 40749.46
quadratic_ranged_95_ub: [ 1 x_58_ ^ 2 - 2 x_61_ * x_58_ + 1 x_61_ ^ 2 + 1 y_58_ ^ 2 - 2 y_61_ * y_58_ + 1 y_61_ ^ 2 ] <= 36142.85
quadratic_ranged_96_ub: [ 1 x_11_ ^ 2 - 2 x_62_ * x_11_ + 1 x_62_ ^ 2 + 1 y_11_ ^ 2 - 2 y_62_ * y_11_ + 1 y_62_ ^ 2 ] <= 1813.96
quadratic_ranged_97_ub: [ 1 x_34_ ^ 2 - 2 x_62_ * x_34_ + 1 x_62_ ^ 2 + 1 y_34_ ^ 2 - 2 y_62_ * y_34_ + 1 y_62_ ^ 2 ] <= 10642.37
quadratic_ranged_98_ub: [ 1 x_44_ ^ 2 - 2 x_62_ * x_44_ + 1 x_62_ ^ 2 + 1 y_44_ ^ 2 - 2 y_62_ * y_44_ + 1 y_62_ ^ 2 ] <= 25638.85
quadratic_ranged_99_ub: [ 1 x_4_ ^ 2 - 2 x_63_ * x_4_ + 1 x_63_ ^ 2 + 1 y_4_ ^ 2 - 2 y_63_ * y_4_ + 1 y_63_ ^ 2 ] <= 3297.65
quadratic_ranged_100_ub: [ 1 x_17_ ^ 2 - 2 x_63_ * x_17_ + 1 x_63_ ^ 2 + 1 y_17_ ^ 2 - 2 y_63_ * y_17_ + 1 y_63_ ^ 2 ] <= 8025.46
quadratic_ranged_101_ub: [ 1 x_3_ ^ 2 - 2 x_64_ * x_3_ + 1 x_64_ ^ 2 + 1 y_3_ ^ 2 - 2 y_64_ * y_3_ + 1 y_64_ ^ 2 ] <= 43067.41
quadratic_ranged_102_ub: [ 1 x_55_ ^ 2 - 2 x_64_ * x_55_ + 1 x_64_ ^ 2 + 1 y_55_ ^ 2 - 2 y_64_ * y_55_ + 1 y_64_ ^ 2 ] <= 21525.12
quadratic_ranged_103_ub: [ 1 x_9_ ^ 2 - 2 x_65_ * x_9_ + 1 x_65_ ^ 2 + 1 y_9_ ^ 2 - 2 y_65_ * y_9_ + 1 y_65_ ^ 2 ] <= 414.1
quadratic_ranged_104_ub: [ 1 x_50_ ^ 2 - 2 x_65_ * x_50_ + 1 x_65_ ^ 2 + 1 y_50_ ^ 2 - 2 y_65_ * y_50_ + 1 y_65_ ^ 2 ] <= 8019.4
quadratic_ranged_105_ub: [ 1 x_31_ ^ 2 - 2 x_66_ * x_31_ + 1 x_66_ ^ 2 + 1 y_31_ ^ 2 - 2 y_66_ * y_31_ + 1 y_66_ ^ 2 ] <= 2635.09
quadratic_ranged_106_ub: [ 1 x_32_ ^ 2 - 2 x_66_ * x_32_ + 1 x_66_ ^ 2 + 1 y_32_ ^ 2 - 2 y_66_ * y_32_ + 1 y_66_ ^ 2 ] <= 18236.56
quadratic_ranged_107_ub: [ 1 x_64_ ^ 2 - 2 x_66_ * x_64_ + 1 x_66_ ^ 2 + 1 y_64_ ^ 2 - 2 y_66_ * y_64_ + 1 y_66_ ^ 2 ] <= 2040.2
quadratic_ranged_108_ub: [ 1 x_21_ ^ 2 - 2 x_67_ * x_21_ + 1 x_67_ ^ 2 + 1 y_21_ ^ 2 - 2 y_67_ * y_21_ + 1 y_67_ ^ 2 ] <= 4728.82
quadratic_ranged_109_ub: [ 1 x_25_ ^ 2 - 2 x_67_ * x_25_ + 1 x_67_ ^ 2 + 1 y_25_ ^ 2 - 2 y_67_ * y_25_ + 1 y_67_ ^ 2 ] <= 11284.73
quadratic_ranged_110_ub: [ 1 x_41_ ^ 2 - 2 x_67_ * x_41_ + 1 x_67_ ^ 2 + 1 y_41_ ^ 2 - 2 y_67_ * y_41_ + 1 y_67_ ^ 2 ] <= 795.88
quadratic_ranged_111_ub: [ 1 x_12_ ^ 2 - 2 x_68_ * x_12_ + 1 x_68_ ^ 2 + 1 y_12_ ^ 2 - 2 y_68_ * y_12_ + 1 y_68_ ^ 2 ] <= 15830.74
quadratic_ranged_112_ub: [ 1 x_59_ ^ 2 - 2 x_68_ * x_59_ + 1 x_68_ ^ 2 + 1 y_59_ ^ 2 - 2 y_68_ * y_59_ + 1 y_68_ ^ 2 ] <= 1758.41
quadratic_ranged_113_ub: [ 1 x_7_ ^ 2 - 2 x_69_ * x_7_ + 1 x_69_ ^ 2 + 1 y_7_ ^ 2 - 2 y_69_ * y_7_ + 1 y_69_ ^ 2 ] <= 550.45
quadratic_ranged_114_ub: [ 1 x_48_ ^ 2 - 2 x_69_ * x_48_ + 1 x_69_ ^ 2 + 1 y_48_ ^ 2 - 2 y_69_ * y_48_ + 1 y_69_ ^ 2 ] <= 934.25
quadratic_ranged_115_ub: [ 1 x_65_ ^ 2 - 2 x_69_ * x_65_ + 1 x_69_ ^ 2 + 1 y_65_ ^ 2 - 2 y_69_ * y_65_ + 1 y_69_ ^ 2 ] <= 9519.25
quadratic_ranged_116_ub: [ 1 x_10_ ^ 2 - 2 x_70_ * x_10_ + 1 x_70_ ^ 2 + 1 y_10_ ^ 2 - 2 y_70_ * y_10_ + 1 y_70_ ^ 2 ] <= 8258.77
quadratic_ranged_117_ub: [ 1 x_41_ ^ 2 - 2 x_70_ * x_41_ + 1 x_70_ ^ 2 + 1 y_41_ ^ 2 - 2 y_70_ * y_41_ + 1 y_70_ ^ 2 ] <= 7095.25
quadratic_ranged_118_ub: [ 1 x_59_ ^ 2 - 2 x_70_ * x_59_ + 1 x_70_ ^ 2 + 1 y_59_ ^ 2 - 2 y_70_ * y_59_ + 1 y_70_ ^ 2 ] <= 15175.25
quadratic_ranged_119_ub: [ 1 x_3_ ^ 2 - 2 x_71_ * x_3_ + 1 x_71_ ^ 2 + 1 y_3_ ^ 2 - 2 y_71_ * y_3_ + 1 y_71_ ^ 2 ] <= 914.05
quadratic_ranged_120_ub: [ 1 x_28_ ^ 2 - 2 x_71_ * x_28_ + 1 x_71_ ^ 2 + 1 y_28_ ^ 2 - 2 y_71_ * y_28_ + 1 y_71_ ^ 2 ] <= 27889.13
quadratic_ranged_121_ub: [ 1 x_41_ ^ 2 - 2 x_71_ * x_41_ + 1 x_71_ ^ 2 + 1 y_41_ ^ 2 - 2 y_71_ * y_41_ + 1 y_71_ ^ 2 ] <= 10690.85
quadratic_ranged_122_ub: [ 1 x_8_ ^ 2 - 2 x_72_ * x_8_ + 1 x_72_ ^ 2 + 1 y_8_ ^ 2 - 2 y_72_ * y_8_ + 1 y_72_ ^ 2 ] <= 10937.29
quadratic_ranged_123_ub: [ 1 x_60_ ^ 2 - 2 x_72_ * x_60_ + 1 x_72_ ^ 2 + 1 y_60_ ^ 2 - 2 y_72_ * y_60_ + 1 y_72_ ^ 2 ] <= 2550.25
quadratic_ranged_124_ub: [ 1 x_63_ ^ 2 - 2 x_72_ * x_63_ + 1 x_72_ ^ 2 + 1 y_63_ ^ 2 - 2 y_72_ * y_63_ + 1 y_72_ ^ 2 ] <= 5270.18
quadratic_ranged_125_ub: [ 1 x_15_ ^ 2 - 2 x_73_ * x_15_ + 1 x_73_ ^ 2 + 1 y_15_ ^ 2 - 2 y_73_ * y_15_ + 1 y_73_ ^ 2 ] <= 8082.02
quadratic_ranged_126_ub: [ 1 x_56_ ^ 2 - 2 x_73_ * x_56_ + 1 x_73_ ^ 2 + 1 y_56_ ^ 2 - 2 y_73_ * y_56_ + 1 y_73_ ^ 2 ] <= 19865.69
quadratic_ranged_127_ub: [ 1 x_5_ ^ 2 - 2 x_74_ * x_5_ + 1 x_74_ ^ 2 + 1 y_5_ ^ 2 - 2 y_74_ * y_5_ + 1 y_74_ ^ 2 ] <= 3903.65
quadratic_ranged_128_ub: [ 1 x_36_ ^ 2 - 2 x_74_ * x_36_ + 1 x_74_ ^ 2 + 1 y_36_ ^ 2 - 2 y_74_ * y_36_ + 1 y_74_ ^ 2 ] <= 13167.37
quadratic_ranged_129_ub: [ 1 x_69_ ^ 2 - 2 x_74_ * x_69_ + 1 x_74_ ^ 2 + 1 y_69_ ^ 2 - 2 y_74_ * y_69_ + 1 y_74_ ^ 2 ] <= 8771.85
quadratic_ranged_130_ub: [ 1 x_41_ ^ 2 - 2 x_75_ * x_41_ + 1 x_75_ ^ 2 + 1 y_41_ ^ 2 - 2 y_75_ * y_41_ + 1 y_75_ ^ 2 ] <= 6473.09
quadratic_ranged_131_ub: [ 1 x_17_ ^ 2 - 2 x_76_ * x_17_ + 1 x_76_ ^ 2 + 1 y_17_ ^ 2 - 2 y_76_ * y_17_ + 1 y_76_ ^ 2 ] <= 9648.53
quadratic_ranged_132_ub: [ 1 x_37_ ^ 2 - 2 x_76_ * x_37_ + 1 x_76_ ^ 2 + 1 y_37_ ^ 2 - 2 y_76_ * y_37_ + 1 y_76_ ^ 2 ] <= 486.82
quadratic_ranged_133_ub: [ 1 x_55_ ^ 2 - 2 x_76_ * x_55_ + 1 x_76_ ^ 2 + 1 y_55_ ^ 2 - 2 y_76_ * y_55_ + 1 y_76_ ^ 2 ] <= 3589.54
quadratic_ranged_134_ub: [ 1 x_9_ ^ 2 - 2 x_77_ * x_9_ + 1 x_77_ ^ 2 + 1 y_9_ ^ 2 - 2 y_77_ * y_9_ + 1 y_77_ ^ 2 ] <= 9284.93
quadratic_ranged_135_ub: [ 1 x_12_ ^ 2 - 2 x_77_ * x_12_ + 1 x_77_ ^ 2 + 1 y_12_ ^ 2 - 2 y_77_ * y_12_ + 1 y_77_ ^ 2 ] <= 3282.5
quadratic_ranged_136_ub: [ 1 x_46_ ^ 2 - 2 x_77_ * x_46_ + 1 x_77_ ^ 2 + 1 y_46_ ^ 2 - 2 y_77_ * y_46_ + 1 y_77_ ^ 2 ] <= 2938.09
quadratic_ranged_137_ub: [ 1 x_20_ ^ 2 - 2 x_78_ * x_20_ + 1 x_78_ ^ 2 + 1 y_20_ ^ 2 - 2 y_78_ * y_20_ + 1 y_78_ ^ 2 ] <= 35128.81
quadratic_ranged_138_ub: [ 1 x_49_ ^ 2 - 2 x_78_ * x_49_ + 1 x_78_ ^ 2 + 1 y_49_ ^ 2 - 2 y_78_ * y_49_ + 1 y_78_ ^ 2 ] <= 3479.45
quadratic_ranged_139_ub: [ 1 x_50_ ^ 2 - 2 x_78_ * x_50_ + 1 x_78_ ^ 2 + 1 y_50_ ^ 2 - 2 y_78_ * y_50_ + 1 y_78_ ^ 2 ] <= 23243.13
quadratic_ranged_140_ub: [ 1 x_37_ ^ 2 - 2 x_79_ * x_37_ + 1 x_79_ ^ 2 + 1 y_37_ ^ 2 - 2 y_79_ * y_37_ + 1 y_79_ ^ 2 ] <= 21080.72
quadratic_ranged_141_ub: [ 1 x_50_ ^ 2 - 2 x_79_ * x_50_ + 1 x_79_ ^ 2 + 1 y_50_ ^ 2 - 2 y_79_ * y_50_ + 1 y_79_ ^ 2 ] <= 20661.57
quadratic_ranged_142_ub: [ 1 x_4_ ^ 2 - 2 x_80_ * x_4_ + 1 x_80_ ^ 2 + 1 y_4_ ^ 2 - 2 y_80_ * y_4_ + 1 y_80_ ^ 2 ] <= 17008.4
quadratic_ranged_143_ub: [ 1 x_22_ ^ 2 - 2 x_80_ * x_22_ + 1 x_80_ ^ 2 + 1 y_22_ ^ 2 - 2 y_80_ * y_22_ + 1 y_80_ ^ 2 ] <= 2749.22
quadratic_ranged_144_ub: [ 1 x_54_ ^ 2 - 2 x_80_ * x_54_ + 1 x_80_ ^ 2 + 1 y_54_ ^ 2 - 2 y_80_ * y_54_ + 1 y_80_ ^ 2 ] <= 2412.89
quadratic_ranged_145_ub: [ 1 x_73_ ^ 2 - 2 x_81_ * x_73_ + 1 x_81_ ^ 2 + 1 y_73_ ^ 2 - 2 y_81_ * y_73_ + 1 y_81_ ^ 2 ] <= 23130.01
quadratic_ranged_146_ub: [ 1 x_52_ ^ 2 - 2 x_82_ * x_52_ + 1 x_82_ ^ 2 + 1 y_52_ ^ 2 - 2 y_82_ * y_52_ + 1 y_82_ ^ 2 ] <= 7200.29
quadratic_ranged_147_ub: [ 1 x_65_ ^ 2 - 2 x_82_ * x_65_ + 1 x_82_ ^ 2 + 1 y_65_ ^ 2 - 2 y_82_ * y_65_ + 1 y_82_ ^ 2 ] <= 2336.13
quadratic_ranged_148_ub: [ 1 x_81_ ^ 2 - 2 x_82_ * x_81_ + 1 x_82_ ^ 2 + 1 y_81_ ^ 2 - 2 y_82_ * y_81_ + 1 y_82_ ^ 2 ] <= 15507.54
quadratic_ranged_149_ub: [ 1 x_24_ ^ 2 - 2 x_83_ * x_24_ + 1 x_83_ ^ 2 + 1 y_24_ ^ 2 - 2 y_83_ * y_24_ + 1 y_83_ ^ 2 ] <= 3107.77
quadratic_ranged_150_ub: [ 1 x_43_ ^ 2 - 2 x_83_ * x_43_ + 1 x_83_ ^ 2 + 1 y_43_ ^ 2 - 2 y_83_ * y_43_ + 1 y_83_ ^ 2 ] <= 17825.49
quadratic_ranged_151_ub: [ 1 x_7_ ^ 2 - 2 x_84_ * x_7_ + 1 x_84_ ^ 2 + 1 y_7_ ^ 2 - 2 y_84_ * y_7_ + 1 y_84_ ^ 2 ] <= 6683.17
quadratic_ranged_152_ub: [ 1 x_35_ ^ 2 - 2 x_84_ * x_35_ + 1 x_84_ ^ 2 + 1 y_35_ ^ 2 - 2 y_84_ * y_35_ + 1 y_84_ ^ 2 ] <= 11357.45
quadratic_ranged_153_ub: [ 1 x_39_ ^ 2 - 2 x_84_ * x_39_ + 1 x_84_ ^ 2 + 1 y_39_ ^ 2 - 2 y_84_ * y_39_ + 1 y_84_ ^ 2 ] <= 30462.61
quadratic_ranged_154_ub: [ 1 x_5_ ^ 2 - 2 x_85_ * x_5_ + 1 x_85_ ^ 2 + 1 y_5_ ^ 2 - 2 y_85_ * y_5_ + 1 y_85_ ^ 2 ] <= 19070.82
quadratic_ranged_155_ub: [ 1 x_6_ ^ 2 - 2 x_85_ * x_6_ + 1 x_85_ ^ 2 + 1 y_6_ ^ 2 - 2 y_85_ * y_6_ + 1 y_85_ ^ 2 ] <= 24977.3
quadratic_ranged_156_ub: [ 1 x_51_ ^ 2 - 2 x_85_ * x_51_ + 1 x_85_ ^ 2 + 1 y_51_ ^ 2 - 2 y_85_ * y_51_ + 1 y_85_ ^ 2 ] <= 909
quadratic_ranged_157_ub: [ 1 x_9_ ^ 2 - 2 x_86_ * x_9_ + 1 x_86_ ^ 2 + 1 y_9_ ^ 2 - 2 y_86_ * y_9_ + 1 y_86_ ^ 2 ] <= 747.4
quadratic_ranged_158_ub: [ 1 x_13_ ^ 2 - 2 x_86_ * x_13_ + 1 x_86_ ^ 2 + 1 y_13_ ^ 2 - 2 y_86_ * y_13_ + 1 y_86_ ^ 2 ] <= 17671.97
quadratic_ranged_159_ub: [ 1 x_35_ ^ 2 - 2 x_87_ * x_35_ + 1 x_87_ ^ 2 + 1 y_35_ ^ 2 - 2 y_87_ * y_35_ + 1 y_87_ ^ 2 ] <= 29278.89
quadratic_ranged_160_ub: [ 1 x_70_ ^ 2 - 2 x_87_ * x_70_ + 1 x_87_ ^ 2 + 1 y_70_ ^ 2 - 2 y_87_ * y_70_ + 1 y_87_ ^ 2 ] <= 45769.16
quadratic_ranged_161_ub: [ 1 x_7_ ^ 2 - 2 x_88_ * x_7_ + 1 x_88_ ^ 2 + 1 y_7_ ^ 2 - 2 y_88_ * y_7_ + 1 y_88_ ^ 2 ] <= 2716.9
quadratic_ranged_162_ub: [ 1 x_9_ ^ 2 - 2 x_88_ * x_9_ + 1 x_88_ ^ 2 + 1 y_9_ ^ 2 - 2 y_88_ * y_9_ + 1 y_88_ ^ 2 ] <= 2167.46
quadratic_ranged_163_ub: [ 1 x_61_ ^ 2 - 2 x_88_ * x_61_ + 1 x_88_ ^ 2 + 1 y_61_ ^ 2 - 2 y_88_ * y_61_ + 1 y_88_ ^ 2 ] <= 23489.57
quadratic_ranged_164_ub: [ 1 x_8_ ^ 2 - 2 x_89_ * x_8_ + 1 x_89_ ^ 2 + 1 y_8_ ^ 2 - 2 y_89_ * y_8_ + 1 y_89_ ^ 2 ] <= 2150.29
quadratic_ranged_165_ub: [ 1 x_16_ ^ 2 - 2 x_89_ * x_16_ + 1 x_89_ ^ 2 + 1 y_16_ ^ 2 - 2 y_89_ * y_16_ + 1 y_89_ ^ 2 ] <= 2918.9
quadratic_ranged_166_ub: [ 1 x_79_ ^ 2 - 2 x_89_ * x_79_ + 1 x_89_ ^ 2 + 1 y_79_ ^ 2 - 2 y_89_ * y_79_ + 1 y_89_ ^ 2 ] <= 36150.93
quadratic_ranged_167_ub: [ 1 x_30_ ^ 2 - 2 x_90_ * x_30_ + 1 x_90_ ^ 2 + 1 y_30_ ^ 2 - 2 y_90_ * y_30_ + 1 y_90_ ^ 2 ] <= 1391.78
quadratic_ranged_168_ub: [ 1 x_86_ ^ 2 - 2 x_90_ * x_86_ + 1 x_90_ ^ 2 + 1 y_86_ ^ 2 - 2 y_90_ * y_86_ + 1 y_90_ ^ 2 ] <= 8198.17
quadratic_ranged_169_ub: [ 1 x_88_ ^ 2 - 2 x_90_ * x_88_ + 1 x_90_ ^ 2 + 1 y_88_ ^ 2 - 2 y_90_ * y_88_ + 1 y_90_ ^ 2 ] <= 10751.45
quadratic_ranged_170_ub: [ 1 x_25_ ^ 2 - 2 x_91_ * x_25_ + 1 x_91_ ^ 2 + 1 y_25_ ^ 2 - 2 y_91_ * y_25_ + 1 y_91_ ^ 2 ] <= 18236.56
quadratic_ranged_171_ub: [ 1 x_32_ ^ 2 - 2 x_91_ * x_32_ + 1 x_91_ ^ 2 + 1 y_32_ ^ 2 - 2 y_91_ * y_32_ + 1 y_91_ ^ 2 ] <= 2476.52
quadratic_ranged_172_ub: [ 1 x_53_ ^ 2 - 2 x_91_ * x_53_ + 1 x_91_ ^ 2 + 1 y_53_ ^ 2 - 2 y_91_ * y_53_ + 1 y_91_ ^ 2 ] <= 1314.01
quadratic_ranged_173_ub: [ 1 x_1_ ^ 2 - 2 x_92_ * x_1_ + 1 x_92_ ^ 2 + 1 y_1_ ^ 2 - 2 y_92_ * y_1_ + 1 y_92_ ^ 2 ] <= 3863.25
quadratic_ranged_174_ub: [ 1 x_9_ ^ 2 - 2 x_92_ * x_9_ + 1 x_92_ ^ 2 + 1 y_9_ ^ 2 - 2 y_92_ * y_9_ + 1 y_92_ ^ 2 ] <= 8331.49
quadratic_ranged_175_ub: [ 1 x_16_ ^ 2 - 2 x_92_ * x_16_ + 1 x_92_ ^ 2 + 1 y_16_ ^ 2 - 2 y_92_ * y_16_ + 1 y_92_ ^ 2 ] <= 3689.53
quadratic_ranged_176_ub: [ 1 x_50_ ^ 2 - 2 x_93_ * x_50_ + 1 x_93_ ^ 2 + 1 y_50_ ^ 2 - 2 y_93_ * y_50_ + 1 y_93_ ^ 2 ] <= 16815.49
quadratic_ranged_177_ub: [ 1 x_55_ ^ 2 - 2 x_93_ * x_55_ + 1 x_93_ ^ 2 + 1 y_55_ ^ 2 - 2 y_93_ * y_55_ + 1 y_93_ ^ 2 ] <= 6231.7
quadratic_ranged_178_ub: [ 1 x_75_ ^ 2 - 2 x_93_ * x_75_ + 1 x_93_ ^ 2 + 1 y_75_ ^ 2 - 2 y_93_ * y_75_ + 1 y_93_ ^ 2 ] <= 11435.22
quadratic_ranged_179_ub: [ 1 x_19_ ^ 2 - 2 x_94_ * x_19_ + 1 x_94_ ^ 2 + 1 y_19_ ^ 2 - 2 y_94_ * y_19_ + 1 y_94_ ^ 2 ] <= 8564.8
quadratic_ranged_180_ub: [ 1 x_54_ ^ 2 - 2 x_94_ * x_54_ + 1 x_94_ ^ 2 + 1 y_54_ ^ 2 - 2 y_94_ * y_54_ + 1 y_94_ ^ 2 ] <= 2363.4
quadratic_ranged_181_ub: [ 1 x_32_ ^ 2 - 2 x_95_ * x_32_ + 1 x_95_ ^ 2 + 1 y_32_ ^ 2 - 2 y_95_ * y_32_ + 1 y_95_ ^ 2 ] <= 290.88
quadratic_ranged_182_ub: [ 1 x_60_ ^ 2 - 2 x_95_ * x_60_ + 1 x_95_ ^ 2 + 1 y_60_ ^ 2 - 2 y_95_ * y_60_ + 1 y_95_ ^ 2 ] <= 16551.88
quadratic_ranged_183_ub: [ 1 x_87_ ^ 2 - 2 x_95_ * x_87_ + 1 x_95_ ^ 2 + 1 y_87_ ^ 2 - 2 y_95_ * y_87_ + 1 y_95_ ^ 2 ] <= 252.5
quadratic_ranged_184_ub: [ 1 x_29_ ^ 2 - 2 x_96_ * x_29_ + 1 x_96_ ^ 2 + 1 y_29_ ^ 2 - 2 y_96_ * y_29_ + 1 y_96_ ^ 2 ] <= 13296.65
quadratic_ranged_185_ub: [ 1 x_71_ ^ 2 - 2 x_96_ * x_71_ + 1 x_96_ ^ 2 + 1 y_71_ ^ 2 - 2 y_96_ * y_71_ + 1 y_96_ ^ 2 ] <= 9043.54
quadratic_ranged_186_ub: [ 1 x_81_ ^ 2 - 2 x_96_ * x_81_ + 1 x_96_ ^ 2 + 1 y_81_ ^ 2 - 2 y_96_ * y_81_ + 1 y_96_ ^ 2 ] <= 28080.02
quadratic_ranged_187_ub: [ 1 x_2_ ^ 2 - 2 x_97_ * x_2_ + 1 x_97_ ^ 2 + 1 y_2_ ^ 2 - 2 y_97_ * y_2_ + 1 y_97_ ^ 2 ] <= 42711.89
quadratic_ranged_188_ub: [ 1 x_23_ ^ 2 - 2 x_97_ * x_23_ + 1 x_97_ ^ 2 + 1 y_23_ ^ 2 - 2 y_97_ * y_23_ + 1 y_97_ ^ 2 ] <= 13802.66
quadratic_ranged_189_ub: [ 1 x_83_ ^ 2 - 2 x_97_ * x_83_ + 1 x_97_ ^ 2 + 1 y_83_ ^ 2 - 2 y_97_ * y_83_ + 1 y_97_ ^ 2 ] <= 18229.49
quadratic_ranged_190_ub: [ 1 x_62_ ^ 2 - 2 x_98_ * x_62_ + 1 x_98_ ^ 2 + 1 y_62_ ^ 2 - 2 y_98_ * y_62_ + 1 y_98_ ^ 2 ] <= 3080.5
quadratic_ranged_191_ub: [ 1 x_68_ ^ 2 - 2 x_98_ * x_68_ + 1 x_98_ ^ 2 + 1 y_68_ ^ 2 - 2 y_98_ * y_68_ + 1 y_98_ ^ 2 ] <= 12755.29
quadratic_ranged_192_ub: [ 1 x_75_ ^ 2 - 2 x_98_ * x_75_ + 1 x_98_ ^ 2 + 1 y_75_ ^ 2 - 2 y_98_ * y_75_ + 1 y_98_ ^ 2 ] <= 5248.97
quadratic_ranged_193_ub: [ 1 x_11_ ^ 2 - 2 x_99_ * x_11_ + 1 x_99_ ^ 2 + 1 y_11_ ^ 2 - 2 y_99_ * y_11_ + 1 y_99_ ^ 2 ] <= 672.66
quadratic_ranged_194_ub: [ 1 x_59_ ^ 2 - 2 x_99_ * x_59_ + 1 x_99_ ^ 2 + 1 y_59_ ^ 2 - 2 y_99_ * y_59_ + 1 y_99_ ^ 2 ] <= 6633.68
quadratic_ranged_195_ub: [ 1 x_94_ ^ 2 - 2 x_99_ * x_94_ + 1 x_99_ ^ 2 + 1 y_94_ ^ 2 - 2 y_99_ * y_94_ + 1 y_99_ ^ 2 ] <= 2876.48
quadratic_ranged_196_ub: [ 1 x_6_ ^ 2 - 2 x_100_ * x_6_ + 1 x_100_ ^ 2 + 1 y_6_ ^ 2 - 2 y_100_ * y_6_ + 1 y_100_ ^ 2 ] <= 3152.21
quadratic_ranged_197_ub: [ 1 x_11_ ^ 2 - 2 x_100_ * x_11_ + 1 x_100_ ^ 2 + 1 y_11_ ^ 2 - 2 y_100_ * y_11_ + 1 y_100_ ^ 2 ] <= 7453.8
quadratic_ranged_198_ub: [ 1 x_92_ ^ 2 - 2 x_100_ * x_92_ + 1 x_100_ ^ 2 + 1 y_92_ ^ 2 - 2 y_100_ * y_92_ + 1 y_100_ ^ 2 ] <= 1536.21
c1_2: 1 x_37_ >= 0
c2_2: 1 y_37_ >= 0
quadratic_ranged_1_lb: [ 1 x_1_ ^ 2 - 2 x_4_ * x_1_ + 1 x_4_ ^ 2 + 1 y_1_ ^ 2 - 2 y_4_ * y_1_ + 1 y_4_ ^ 2 ] >= 3782.79
quadratic_ranged_2_lb: [ 1 x_1_ ^ 2 - 2 x_6_ * x_1_ + 1 x_6_ ^ 2 + 1 y_1_ ^ 2 - 2 y_6_ * y_1_ + 1 y_6_ ^ 2 ] >= 18533.79
quadratic_ranged_3_lb: [ 1 x_5_ ^ 2 - 2 x_7_ * x_5_ + 1 x_7_ ^ 2 + 1 y_5_ ^ 2 - 2 y_7_ * y_5_ + 1 y_7_ ^ 2 ] >= 777.15
quadratic_ranged_4_lb: [ 1 x_3_ ^ 2 - 2 x_8_ * x_3_ + 1 x_8_ ^ 2 + 1 y_3_ ^ 2 - 2 y_8_ * y_3_ + 1 y_8_ ^ 2 ] >= 35332.11
quadratic_ranged_5_lb: [ 1 x_2_ ^ 2 - 2 x_10_ * x_2_ + 1 x_10_ ^ 2 + 1 y_2_ ^ 2 - 2 y_10_ * y_2_ + 1 y_10_ ^ 2 ] >= 7464.6
quadratic_ranged_6_lb: [ 1 x_12_ ^ 2 - 2 x_14_ * x_12_ + 1 x_14_ ^ 2 + 1 y_12_ ^ 2 - 2 y_14_ * y_12_ + 1 y_14_ ^ 2 ] >= 50681.07
quadratic_ranged_7_lb: [ 1 x_2_ ^ 2 - 2 x_15_ * x_2_ + 1 x_15_ ^ 2 + 1 y_2_ ^ 2 - 2 y_15_ * y_2_ + 1 y_15_ ^ 2 ] >= 15982.56
quadratic_ranged_8_lb: [ 1 x_3_ ^ 2 - 2 x_16_ * x_3_ + 1 x_16_ ^ 2 + 1 y_3_ ^ 2 - 2 y_16_ * y_3_ + 1 y_16_ ^ 2 ] >= 20079.18
quadratic_ranged_9_lb: [ 1 x_15_ ^ 2 - 2 x_16_ * x_15_ + 1 x_16_ ^ 2 + 1 y_15_ ^ 2 - 2 y_16_ * y_15_ + 1 y_16_ ^ 2 ] >= 4340.16
quadratic_ranged_10_lb: [ 1 x_14_ ^ 2 - 2 x_18_ * x_14_ + 1 x_18_ ^ 2 + 1 y_14_ ^ 2 - 2 y_18_ * y_14_ + 1 y_18_ ^ 2 ] >= 1913.67
quadratic_ranged_11_lb: [ 1 x_12_ ^ 2 - 2 x_19_ * x_12_ + 1 x_19_ ^ 2 + 1 y_12_ ^ 2 - 2 y_19_ * y_12_ + 1 y_19_ ^ 2 ] >= 24794.55
quadratic_ranged_12_lb: [ 1 x_15_ ^ 2 - 2 x_19_ * x_15_ + 1 x_19_ ^ 2 + 1 y_15_ ^ 2 - 2 y_19_ * y_15_ + 1 y_19_ ^ 2 ] >= 6336
quadratic_ranged_13_lb: [ 1 x_13_ ^ 2 - 2 x_20_ * x_13_ + 1 x_20_ ^ 2 + 1 y_13_ ^ 2 - 2 y_20_ * y_13_ + 1 y_20_ ^ 2 ] >= 10518.75
quadratic_ranged_14_lb: [ 1 x_14_ ^ 2 - 2 x_20_ * x_14_ + 1 x_20_ ^ 2 + 1 y_14_ ^ 2 - 2 y_20_ * y_14_ + 1 y_20_ ^ 2 ] >= 768.24
quadratic_ranged_15_lb: [ 1 x_6_ ^ 2 - 2 x_21_ * x_6_ + 1 x_21_ ^ 2 + 1 y_6_ ^ 2 - 2 y_21_ * y_6_ + 1 y_21_ ^ 2 ] >= 12241.35
quadratic_ranged_16_lb: [ 1 x_7_ ^ 2 - 2 x_21_ * x_7_ + 1 x_21_ ^ 2 + 1 y_7_ ^ 2 - 2 y_21_ * y_7_ + 1 y_21_ ^ 2 ] >= 8569.44
quadratic_ranged_17_lb: [ 1 x_13_ ^ 2 - 2 x_21_ * x_13_ + 1 x_21_ ^ 2 + 1 y_13_ ^ 2 - 2 y_21_ * y_13_ + 1 y_21_ ^ 2 ] >= 682.11
quadratic_ranged_18_lb: [ 1 x_15_ ^ 2 - 2 x_22_ * x_15_ + 1 x_22_ ^ 2 + 1 y_15_ ^ 2 - 2 y_22_ * y_15_ + 1 y_22_ ^ 2 ] >= 4598.55
quadratic_ranged_19_lb: [ 1 x_8_ ^ 2 - 2 x_23_ * x_8_ + 1 x_23_ ^ 2 + 1 y_8_ ^ 2 - 2 y_23_ * y_8_ + 1 y_23_ ^ 2 ] >= 12578.94
quadratic_ranged_20_lb: [ 1 x_12_ ^ 2 - 2 x_23_ * x_12_ + 1 x_23_ ^ 2 + 1 y_12_ ^ 2 - 2 y_23_ * y_12_ + 1 y_23_ ^ 2 ] >= 2807.64
quadratic_ranged_21_lb: [ 1 x_10_ ^ 2 - 2 x_24_ * x_10_ + 1 x_24_ ^ 2 + 1 y_10_ ^ 2 - 2 y_24_ * y_10_ + 1 y_24_ ^ 2 ] >= 13805.55
quadratic_ranged_22_lb: [ 1 x_9_ ^ 2 - 2 x_25_ * x_9_ + 1 x_25_ ^ 2 + 1 y_9_ ^ 2 - 2 y_25_ * y_9_ + 1 y_25_ ^ 2 ] >= 23780.79
quadratic_ranged_23_lb: [ 1 x_16_ ^ 2 - 2 x_26_ * x_16_ + 1 x_26_ ^ 2 + 1 y_16_ ^ 2 - 2 y_26_ * y_16_ + 1 y_26_ ^ 2 ] >= 18584.28
quadratic_ranged_24_lb: [ 1 x_23_ ^ 2 - 2 x_26_ * x_23_ + 1 x_26_ ^ 2 + 1 y_23_ ^ 2 - 2 y_26_ * y_23_ + 1 y_26_ ^ 2 ] >= 13037.31
quadratic_ranged_25_lb: [ 1 x_10_ ^ 2 - 2 x_27_ * x_10_ + 1 x_27_ ^ 2 + 1 y_10_ ^ 2 - 2 y_27_ * y_10_ + 1 y_27_ ^ 2 ] >= 1929.51
quadratic_ranged_26_lb: [ 1 x_13_ ^ 2 - 2 x_27_ * x_13_ + 1 x_27_ ^ 2 + 1 y_13_ ^ 2 - 2 y_27_ * y_13_ + 1 y_27_ ^ 2 ] >= 20057.4
quadratic_ranged_27_lb: [ 1 x_18_ ^ 2 - 2 x_27_ * x_18_ + 1 x_27_ ^ 2 + 1 y_18_ ^ 2 - 2 y_27_ * y_18_ + 1 y_27_ ^ 2 ] >= 28670.4
quadratic_ranged_28_lb: [ 1 x_21_ ^ 2 - 2 x_28_ * x_21_ + 1 x_28_ ^ 2 + 1 y_21_ ^ 2 - 2 y_28_ * y_21_ + 1 y_28_ ^ 2 ] >= 30850.38
quadratic_ranged_29_lb: [ 1 x_26_ ^ 2 - 2 x_28_ * x_26_ + 1 x_28_ ^ 2 + 1 y_26_ ^ 2 - 2 y_28_ * y_26_ + 1 y_28_ ^ 2 ] >= 38214
quadratic_ranged_30_lb: [ 1 x_1_ ^ 2 - 2 x_29_ * x_1_ + 1 x_29_ ^ 2 + 1 y_1_ ^ 2 - 2 y_29_ * y_1_ + 1 y_29_ ^ 2 ] >= 811.8
quadratic_ranged_31_lb: [ 1 x_5_ ^ 2 - 2 x_29_ * x_5_ + 1 x_29_ ^ 2 + 1 y_5_ ^ 2 - 2 y_29_ * y_5_ + 1 y_29_ ^ 2 ] >= 8499.15
quadratic_ranged_32_lb: [ 1 x_14_ ^ 2 - 2 x_29_ * x_14_ + 1 x_29_ ^ 2 + 1 y_14_ ^ 2 - 2 y_29_ * y_14_ + 1 y_29_ ^ 2 ] >= 12317.58
quadratic_ranged_33_lb: [ 1 x_6_ ^ 2 - 2 x_30_ * x_6_ + 1 x_30_ ^ 2 + 1 y_6_ ^ 2 - 2 y_30_ * y_6_ + 1 y_30_ ^ 2 ] >= 12095.82
quadratic_ranged_34_lb: [ 1 x_8_ ^ 2 - 2 x_31_ * x_8_ + 1 x_31_ ^ 2 + 1 y_8_ ^ 2 - 2 y_31_ * y_8_ + 1 y_31_ ^ 2 ] >= 1917.6299999999999
quadratic_ranged_35_lb: [ 1 x_2_ ^ 2 - 2 x_32_ * x_2_ + 1 x_32_ ^ 2 + 1 y_2_ ^ 2 - 2 y_32_ * y_2_ + 1 y_32_ ^ 2 ] >= 30358.35
quadratic_ranged_36_lb: [ 1 x_11_ ^ 2 - 2 x_32_ * x_11_ + 1 x_32_ ^ 2 + 1 y_11_ ^ 2 - 2 y_32_ * y_11_ + 1 y_32_ ^ 2 ] >= 420.75
quadratic_ranged_37_lb: [ 1 x_14_ ^ 2 - 2 x_32_ * x_14_ + 1 x_32_ ^ 2 + 1 y_14_ ^ 2 - 2 y_32_ * y_14_ + 1 y_32_ ^ 2 ] >= 32199.75
quadratic_ranged_38_lb: [ 1 x_12_ ^ 2 - 2 x_33_ * x_12_ + 1 x_33_ ^ 2 + 1 y_12_ ^ 2 - 2 y_33_ * y_12_ + 1 y_33_ ^ 2 ] >= 38709.99
quadratic_ranged_39_lb: [ 1 x_14_ ^ 2 - 2 x_34_ * x_14_ + 1 x_34_ ^ 2 + 1 y_14_ ^ 2 - 2 y_34_ * y_14_ + 1 y_34_ ^ 2 ] >= 13223.43
quadratic_ranged_40_lb: [ 1 x_27_ ^ 2 - 2 x_34_ * x_27_ + 1 x_34_ ^ 2 + 1 y_27_ ^ 2 - 2 y_34_ * y_27_ + 1 y_34_ ^ 2 ] >= 3043.2599999999998
quadratic_ranged_41_lb: [ 1 x_12_ ^ 2 - 2 x_35_ * x_12_ + 1 x_35_ ^ 2 + 1 y_12_ ^ 2 - 2 y_35_ * y_12_ + 1 y_35_ ^ 2 ] >= 29910.87
quadratic_ranged_42_lb: [ 1 x_13_ ^ 2 - 2 x_35_ * x_13_ + 1 x_35_ ^ 2 + 1 y_13_ ^ 2 - 2 y_35_ * y_13_ + 1 y_35_ ^ 2 ] >= 13263.03
quadratic_ranged_43_lb: [ 1 x_4_ ^ 2 - 2 x_36_ * x_4_ + 1 x_36_ ^ 2 + 1 y_4_ ^ 2 - 2 y_36_ * y_4_ + 1 y_36_ ^ 2 ] >= 29957.4
quadratic_ranged_44_lb: [ 1 x_4_ ^ 2 - 2 x_38_ * x_4_ + 1 x_38_ ^ 2 + 1 y_4_ ^ 2 - 2 y_38_ * y_4_ + 1 y_38_ ^ 2 ] >= 21043.44
quadratic_ranged_45_lb: [ 1 x_2_ ^ 2 - 2 x_39_ * x_2_ + 1 x_39_ ^ 2 + 1 y_2_ ^ 2 - 2 y_39_ * y_2_ + 1 y_39_ ^ 2 ] >= 39303
quadratic_ranged_46_lb: [ 1 x_26_ ^ 2 - 2 x_40_ * x_26_ + 1 x_40_ ^ 2 + 1 y_26_ ^ 2 - 2 y_40_ * y_26_ + 1 y_40_ ^ 2 ] >= 17299.26
quadratic_ranged_47_lb: [ 1 x_38_ ^ 2 - 2 x_40_ * x_38_ + 1 x_40_ ^ 2 + 1 y_38_ ^ 2 - 2 y_40_ * y_38_ + 1 y_40_ ^ 2 ] >= 10756.35
quadratic_ranged_48_lb: [ 1 x_39_ ^ 2 - 2 x_40_ * x_39_ + 1 x_40_ ^ 2 + 1 y_39_ ^ 2 - 2 y_40_ * y_39_ + 1 y_40_ ^ 2 ] >= 5062.86
quadratic_ranged_49_lb: [ 1 x_5_ ^ 2 - 2 x_41_ * x_5_ + 1 x_41_ ^ 2 + 1 y_5_ ^ 2 - 2 y_41_ * y_5_ + 1 y_41_ ^ 2 ] >= 3101.67
quadratic_ranged_50_lb: [ 1 x_31_ ^ 2 - 2 x_41_ * x_31_ + 1 x_41_ ^ 2 + 1 y_31_ ^ 2 - 2 y_41_ * y_31_ + 1 y_41_ ^ 2 ] >= 6530.04
quadratic_ranged_51_lb: [ 1 x_3_ ^ 2 - 2 x_42_ * x_3_ + 1 x_42_ ^ 2 + 1 y_3_ ^ 2 - 2 y_42_ * y_3_ + 1 y_42_ ^ 2 ] >= 30864.239999999998
quadratic_ranged_52_lb: [ 1 x_22_ ^ 2 - 2 x_42_ * x_22_ + 1 x_42_ ^ 2 + 1 y_22_ ^ 2 - 2 y_42_ * y_22_ + 1 y_42_ ^ 2 ] >= 2927.43
quadratic_ranged_53_lb: [ 1 x_17_ ^ 2 - 2 x_43_ * x_17_ + 1 x_43_ ^ 2 + 1 y_17_ ^ 2 - 2 y_43_ * y_17_ + 1 y_43_ ^ 2 ] >= 3200.67
quadratic_ranged_54_lb: [ 1 x_36_ ^ 2 - 2 x_43_ * x_36_ + 1 x_43_ ^ 2 + 1 y_36_ ^ 2 - 2 y_43_ * y_36_ + 1 y_43_ ^ 2 ] >= 13600.619999999999
quadratic_ranged_55_lb: [ 1 x_1_ ^ 2 - 2 x_44_ * x_1_ + 1 x_44_ ^ 2 + 1 y_1_ ^ 2 - 2 y_44_ * y_1_ + 1 y_44_ ^ 2 ] >= 27309.15
quadratic_ranged_56_lb: [ 1 x_14_ ^ 2 - 2 x_44_ * x_14_ + 1 x_44_ ^ 2 + 1 y_14_ ^ 2 - 2 y_44_ * y_14_ + 1 y_44_ ^ 2 ] >= 24691.59
quadratic_ranged_57_lb: [ 1 x_17_ ^ 2 - 2 x_44_ * x_17_ + 1 x_44_ ^ 2 + 1 y_17_ ^ 2 - 2 y_44_ * y_17_ + 1 y_44_ ^ 2 ] >= 5560.83
quadratic_ranged_58_lb: [ 1 x_4_ ^ 2 - 2 x_45_ * x_4_ + 1 x_45_ ^ 2 + 1 y_4_ ^ 2 - 2 y_45_ * y_4_ + 1 y_45_ ^ 2 ] >= 22576.95
quadratic_ranged_59_lb: [ 1 x_10_ ^ 2 - 2 x_45_ * x_10_ + 1 x_45_ ^ 2 + 1 y_10_ ^ 2 - 2 y_45_ * y_10_ + 1 y_45_ ^ 2 ] >= 12420.539999999999
quadratic_ranged_60_lb: [ 1 x_36_ ^ 2 - 2 x_45_ * x_36_ + 1 x_45_ ^ 2 + 1 y_36_ ^ 2 - 2 y_45_ * y_36_ + 1 y_45_ ^ 2 ] >= 1082.07
quadratic_ranged_61_lb: [ 1 x_33_ ^ 2 - 2 x_46_ * x_33_ + 1 x_46_ ^ 2 + 1 y_33_ ^ 2 - 2 y_46_ * y_33_ + 1 y_46_ ^ 2 ] >= 19087.2
quadratic_ranged_62_lb: [ 1 x_38_ ^ 2 - 2 x_46_ * x_38_ + 1 x_46_ ^ 2 + 1 y_38_ ^ 2 - 2 y_46_ * y_38_ + 1 y_46_ ^ 2 ] >= 1272.15
quadratic_ranged_63_lb: [ 1 x_14_ ^ 2 - 2 x_47_ * x_14_ + 1 x_47_ ^ 2 + 1 y_14_ ^ 2 - 2 y_47_ * y_14_ + 1 y_47_ ^ 2 ] >= 15444.99
quadratic_ranged_64_lb: [ 1 x_43_ ^ 2 - 2 x_47_ * x_43_ + 1 x_47_ ^ 2 + 1 y_43_ ^ 2 - 2 y_47_ * y_43_ + 1 y_47_ ^ 2 ] >= 27896.22
quadratic_ranged_65_lb: [ 1 x_1_ ^ 2 - 2 x_48_ * x_1_ + 1 x_48_ ^ 2 + 1 y_1_ ^ 2 - 2 y_48_ * y_1_ + 1 y_48_ ^ 2 ] >= 17285.4
quadratic_ranged_66_lb: [ 1 x_18_ ^ 2 - 2 x_48_ * x_18_ + 1 x_48_ ^ 2 + 1 y_18_ ^ 2 - 2 y_48_ * y_18_ + 1 y_48_ ^ 2 ] >= 33993.63
quadratic_ranged_67_lb: [ 1 x_21_ ^ 2 - 2 x_48_ * x_21_ + 1 x_48_ ^ 2 + 1 y_21_ ^ 2 - 2 y_48_ * y_21_ + 1 y_48_ ^ 2 ] >= 10272.24
quadratic_ranged_68_lb: [ 1 x_16_ ^ 2 - 2 x_49_ * x_16_ + 1 x_49_ ^ 2 + 1 y_16_ ^ 2 - 2 y_49_ * y_16_ + 1 y_49_ ^ 2 ] >= 9662.4
quadratic_ranged_69_lb: [ 1 x_17_ ^ 2 - 2 x_49_ * x_17_ + 1 x_49_ ^ 2 + 1 y_17_ ^ 2 - 2 y_49_ * y_17_ + 1 y_49_ ^ 2 ] >= 459.36
quadratic_ranged_70_lb: [ 1 x_20_ ^ 2 - 2 x_50_ * x_20_ + 1 x_50_ ^ 2 + 1 y_20_ ^ 2 - 2 y_50_ * y_20_ + 1 y_50_ ^ 2 ] >= 1255.32
quadratic_ranged_71_lb: [ 1 x_14_ ^ 2 - 2 x_51_ * x_14_ + 1 x_51_ ^ 2 + 1 y_14_ ^ 2 - 2 y_51_ * y_14_ + 1 y_51_ ^ 2 ] >= 1402.83
quadratic_ranged_72_lb: [ 1 x_25_ ^ 2 - 2 x_51_ * x_25_ + 1 x_51_ ^ 2 + 1 y_25_ ^ 2 - 2 y_51_ * y_25_ + 1 y_51_ ^ 2 ] >= 9727.74
quadratic_ranged_73_lb: [ 1 x_37_ ^ 2 - 2 x_51_ * x_37_ + 1 x_51_ ^ 2 + 1 y_37_ ^ 2 - 2 y_51_ * y_37_ + 1 y_51_ ^ 2 ] >= 29844.54
quadratic_ranged_74_lb: [ 1 x_19_ ^ 2 - 2 x_52_ * x_19_ + 1 x_52_ ^ 2 + 1 y_19_ ^ 2 - 2 y_52_ * y_19_ + 1 y_52_ ^ 2 ] >= 19912.86
quadratic_ranged_75_lb: [ 1 x_24_ ^ 2 - 2 x_52_ * x_24_ + 1 x_52_ ^ 2 + 1 y_24_ ^ 2 - 2 y_52_ * y_24_ + 1 y_52_ ^ 2 ] >= 8736.75
quadratic_ranged_76_lb: [ 1 x_47_ ^ 2 - 2 x_52_ * x_47_ + 1 x_52_ ^ 2 + 1 y_47_ ^ 2 - 2 y_52_ * y_47_ + 1 y_52_ ^ 2 ] >= 16537.95
quadratic_ranged_77_lb: [ 1 x_1_ ^ 2 - 2 x_53_ * x_1_ + 1 x_53_ ^ 2 + 1 y_1_ ^ 2 - 2 y_53_ * y_1_ + 1 y_53_ ^ 2 ] >= 17360.64
quadratic_ranged_78_lb: [ 1 x_8_ ^ 2 - 2 x_53_ * x_8_ + 1 x_53_ ^ 2 + 1 y_8_ ^ 2 - 2 y_53_ * y_8_ + 1 y_53_ ^ 2 ] >= 15468.75
quadratic_ranged_79_lb: [ 1 x_36_ ^ 2 - 2 x_54_ * x_36_ + 1 x_54_ ^ 2 + 1 y_36_ ^ 2 - 2 y_54_ * y_36_ + 1 y_54_ ^ 2 ] >= 4099.59
quadratic_ranged_80_lb: [ 1 x_39_ ^ 2 - 2 x_54_ * x_39_ + 1 x_54_ ^ 2 + 1 y_39_ ^ 2 - 2 y_54_ * y_39_ + 1 y_54_ ^ 2 ] >= 11484
quadratic_ranged_81_lb: [ 1 x_29_ ^ 2 - 2 x_55_ * x_29_ + 1 x_55_ ^ 2 + 1 y_29_ ^ 2 - 2 y_55_ * y_29_ + 1 y_55_ ^ 2 ] >= 12443.31
quadratic_ranged_82_lb: [ 1 x_47_ ^ 2 - 2 x_55_ * x_47_ + 1 x_55_ ^ 2 + 1 y_47_ ^ 2 - 2 y_55_ * y_47_ + 1 y_55_ ^ 2 ] >= 13384.8
quadratic_ranged_83_lb: [ 1 x_7_ ^ 2 - 2 x_56_ * x_7_ + 1 x_56_ ^ 2 + 1 y_7_ ^ 2 - 2 y_56_ * y_7_ + 1 y_56_ ^ 2 ] >= 6039.99
quadratic_ranged_84_lb: [ 1 x_44_ ^ 2 - 2 x_56_ * x_44_ + 1 x_56_ ^ 2 + 1 y_44_ ^ 2 - 2 y_56_ * y_44_ + 1 y_56_ ^ 2 ] >= 19867.32
quadratic_ranged_85_lb: [ 1 x_5_ ^ 2 - 2 x_57_ * x_5_ + 1 x_57_ ^ 2 + 1 y_5_ ^ 2 - 2 y_57_ * y_5_ + 1 y_57_ ^ 2 ] >= 287.1
quadratic_ranged_86_lb: [ 1 x_30_ ^ 2 - 2 x_57_ * x_30_ + 1 x_57_ ^ 2 + 1 y_30_ ^ 2 - 2 y_57_ * y_30_ + 1 y_57_ ^ 2 ] >= 5658.84
quadratic_ranged_87_lb: [ 1 x_46_ ^ 2 - 2 x_57_ * x_46_ + 1 x_57_ ^ 2 + 1 y_46_ ^ 2 - 2 y_57_ * y_46_ + 1 y_57_ ^ 2 ] >= 1311.75
quadratic_ranged_88_lb: [ 1 x_16_ ^ 2 - 2 x_58_ * x_16_ + 1 x_58_ ^ 2 + 1 y_16_ ^ 2 - 2 y_58_ * y_16_ + 1 y_58_ ^ 2 ] >= 7652.7
quadratic_ranged_89_lb: [ 1 x_33_ ^ 2 - 2 x_58_ * x_33_ + 1 x_58_ ^ 2 + 1 y_33_ ^ 2 - 2 y_58_ * y_33_ + 1 y_58_ ^ 2 ] >= 1158.3
quadratic_ranged_90_lb: [ 1 x_28_ ^ 2 - 2 x_59_ * x_28_ + 1 x_59_ ^ 2 + 1 y_28_ ^ 2 - 2 y_59_ * y_28_ + 1 y_59_ ^ 2 ] >= 4375.8
quadratic_ranged_91_lb: [ 1 x_50_ ^ 2 - 2 x_59_ * x_50_ + 1 x_59_ ^ 2 + 1 y_50_ ^ 2 - 2 y_59_ * y_50_ + 1 y_59_ ^ 2 ] >= 13182.84
quadratic_ranged_92_lb: [ 1 x_7_ ^ 2 - 2 x_60_ * x_7_ + 1 x_60_ ^ 2 + 1 y_7_ ^ 2 - 2 y_60_ * y_7_ + 1 y_60_ ^ 2 ] >= 5489.55
quadratic_ranged_93_lb: [ 1 x_42_ ^ 2 - 2 x_60_ * x_42_ + 1 x_60_ ^ 2 + 1 y_42_ ^ 2 - 2 y_60_ * y_42_ + 1 y_60_ ^ 2 ] >= 2713.59
quadratic_ranged_94_lb: [ 1 x_22_ ^ 2 - 2 x_61_ * x_22_ + 1 x_61_ ^ 2 + 1 y_22_ ^ 2 - 2 y_61_ * y_22_ + 1 y_61_ ^ 2 ] >= 39942.54
quadratic_ranged_95_lb: [ 1 x_58_ ^ 2 - 2 x_61_ * x_58_ + 1 x_61_ ^ 2 + 1 y_58_ ^ 2 - 2 y_61_ * y_58_ + 1 y_61_ ^ 2 ] >= 35427.15
quadratic_ranged_96_lb: [ 1 x_11_ ^ 2 - 2 x_62_ * x_11_ + 1 x_62_ ^ 2 + 1 y_11_ ^ 2 - 2 y_62_ * y_11_ + 1 y_62_ ^ 2 ] >= 1778.04
quadratic_ranged_97_lb: [ 1 x_34_ ^ 2 - 2 x_62_ * x_34_ + 1 x_62_ ^ 2 + 1 y_34_ ^ 2 - 2 y_62_ * y_34_ + 1 y_62_ ^ 2 ] >= 10431.63
quadratic_ranged_98_lb: [ 1 x_44_ ^ 2 - 2 x_62_ * x_44_ + 1 x_62_ ^ 2 + 1 y_44_ ^ 2 - 2 y_62_ * y_44_ + 1 y_62_ ^ 2 ] >= 25131.15
quadratic_ranged_99_lb: [ 1 x_4_ ^ 2 - 2 x_63_ * x_4_ + 1 x_63_ ^ 2 + 1 y_4_ ^ 2 - 2 y_63_ * y_4_ + 1 y_63_ ^ 2 ] >= 3232.35
quadratic_ranged_100_lb: [ 1 x_17_ ^ 2 - 2 x_63_ * x_17_ + 1 x_63_ ^ 2 + 1 y_17_ ^ 2 - 2 y_63_ * y_17_ + 1 y_63_ ^ 2 ] >= 7866.54
quadratic_ranged_101_lb: [ 1 x_3_ ^ 2 - 2 x_64_ * x_3_ + 1 x_64_ ^ 2 + 1 y_3_ ^ 2 - 2 y_64_ * y_3_ + 1 y_64_ ^ 2 ] >= 42214.59
quadratic_ranged_102_lb: [ 1 x_55_ ^ 2 - 2 x_64_ * x_55_ + 1 x_64_ ^ 2 + 1 y_55_ ^ 2 - 2 y_64_ * y_55_ + 1 y_64_ ^ 2 ] >= 21098.88
quadratic_ranged_103_lb: [ 1 x_9_ ^ 2 - 2 x_65_ * x_9_ + 1 x_65_ ^ 2 + 1 y_9_ ^ 2 - 2 y_65_ * y_9_ + 1 y_65_ ^ 2 ] >= 405.9
quadratic_ranged_104_lb: [ 1 x_50_ ^ 2 - 2 x_65_ * x_50_ + 1 x_65_ ^ 2 + 1 y_50_ ^ 2 - 2 y_65_ * y_50_ + 1 y_65_ ^ 2 ] >= 7860.6
quadratic_ranged_105_lb: [ 1 x_31_ ^ 2 - 2 x_66_ * x_31_ + 1 x_66_ ^ 2 + 1 y_31_ ^ 2 - 2 y_66_ * y_31_ + 1 y_66_ ^ 2 ] >= 2582.91
quadratic_ranged_106_lb: [ 1 x_32_ ^ 2 - 2 x_66_ * x_32_ + 1 x_66_ ^ 2 + 1 y_32_ ^ 2 - 2 y_66_ * y_32_ + 1 y_66_ ^ 2 ] >= 17875.44
quadratic_ranged_107_lb: [ 1 x_64_ ^ 2 - 2 x_66_ * x_64_ + 1 x_66_ ^ 2 + 1 y_64_ ^ 2 - 2 y_66_ * y_64_ + 1 y_66_ ^ 2 ] >= 1999.8
quadratic_ranged_108_lb: [ 1 x_21_ ^ 2 - 2 x_67_ * x_21_ + 1 x_67_ ^ 2 + 1 y_21_ ^ 2 - 2 y_67_ * y_21_ + 1 y_67_ ^ 2 ] >= 4635.18
quadratic_ranged_109_lb: [ 1 x_25_ ^ 2 - 2 x_67_ * x_25_ + 1 x_67_ ^ 2 + 1 y_25_ ^ 2 - 2 y_67_ * y_25_ + 1 y_67_ ^ 2 ] >= 11061.27
quadratic_ranged_110_lb: [ 1 x_41_ ^ 2 - 2 x_67_ * x_41_ + 1 x_67_ ^ 2 + 1 y_41_ ^ 2 - 2 y_67_ * y_41_ + 1 y_67_ ^ 2 ] >= 780.12
quadratic_ranged_111_lb: [ 1 x_12_ ^ 2 - 2 x_68_ * x_12_ + 1 x_68_ ^ 2 + 1 y_12_ ^ 2 - 2 y_68_ * y_12_ + 1 y_68_ ^ 2 ] >= 15517.26
quadratic_ranged_112_lb: [ 1 x_59_ ^ 2 - 2 x_68_ * x_59_ + 1 x_68_ ^ 2 + 1 y_59_ ^ 2 - 2 y_68_ * y_59_ + 1 y_68_ ^ 2 ] >= 1723.59
quadratic_ranged_113_lb: [ 1 x_7_ ^ 2 - 2 x_69_ * x_7_ + 1 x_69_ ^ 2 + 1 y_7_ ^ 2 - 2 y_69_ * y_7_ + 1 y_69_ ^ 2 ] >= 539.55
quadratic_ranged_114_lb: [ 1 x_48_ ^ 2 - 2 x_69_ * x_48_ + 1 x_69_ ^ 2 + 1 y_48_ ^ 2 - 2 y_69_ * y_48_ + 1 y_69_ ^ 2 ] >= 915.75
quadratic_ranged_115_lb: [ 1 x_65_ ^ 2 - 2 x_69_ * x_65_ + 1 x_69_ ^ 2 + 1 y_65_ ^ 2 - 2 y_69_ * y_65_ + 1 y_69_ ^ 2 ] >= 9330.75
quadratic_ranged_116_lb: [ 1 x_10_ ^ 2 - 2 x_70_ * x_10_ + 1 x_70_ ^ 2 + 1 y_10_ ^ 2 - 2 y_70_ * y_10_ + 1 y_70_ ^ 2 ] >= 8095.23
quadratic_ranged_117_lb: [ 1 x_41_ ^ 2 - 2 x_70_ * x_41_ + 1 x_70_ ^ 2 + 1 y_41_ ^ 2 - 2 y_70_ * y_41_ + 1 y_70_ ^ 2 ] >= 6954.75
quadratic_ranged_118_lb: [ 1 x_59_ ^ 2 - 2 x_70_ * x_59_ + 1 x_70_ ^ 2 + 1 y_59_ ^ 2 - 2 y_70_ * y_59_ + 1 y_70_ ^ 2 ] >= 14874.75
quadratic_ranged_119_lb: [ 1 x_3_ ^ 2 - 2 x_71_ * x_3_ + 1 x_71_ ^ 2 + 1 y_3_ ^ 2 - 2 y_71_ * y_3_ + 1 y_71_ ^ 2 ] >= 895.95
quadratic_ranged_120_lb: [ 1 x_28_ ^ 2 - 2 x_71_ * x_28_ + 1 x_71_ ^ 2 + 1 y_28_ ^ 2 - 2 y_71_ * y_28_ + 1 y_71_ ^ 2 ] >= 27336.87
quadratic_ranged_121_lb: [ 1 x_41_ ^ 2 - 2 x_71_ * x_41_ + 1 x_71_ ^ 2 + 1 y_41_ ^ 2 - 2 y_71_ * y_41_ + 1 y_71_ ^ 2 ] >= 10479.15
quadratic_ranged_122_lb: [ 1 x_8_ ^ 2 - 2 x_72_ * x_8_ + 1 x_72_ ^ 2 + 1 y_8_ ^ 2 - 2 y_72_ * y_8_ + 1 y_72_ ^ 2 ] >= 10720.71
quadratic_ranged_123_lb: [ 1 x_60_ ^ 2 - 2 x_72_ * x_60_ + 1 x_72_ ^ 2 + 1 y_60_ ^ 2 - 2 y_72_ * y_60_ + 1 y_72_ ^ 2 ] >= 2499.75
quadratic_ranged_124_lb: [ 1 x_63_ ^ 2 - 2 x_72_ * x_63_ + 1 x_72_ ^ 2 + 1 y_63_ ^ 2 - 2 y_72_ * y_63_ + 1 y_72_ ^ 2 ] >= 5165.82
quadratic_ranged_125_lb: [ 1 x_15_ ^ 2 - 2 x_73_ * x_15_ + 1 x_73_ ^ 2 + 1 y_15_ ^ 2 - 2 y_73_ * y_15_ + 1 y_73_ ^ 2 ] >= 7921.98
quadratic_ranged_126_lb: [ 1 x_56_ ^ 2 - 2 x_73_ * x_56_ + 1 x_73_ ^ 2 + 1 y_56_ ^ 2 - 2 y_73_ * y_56_ + 1 y_73_ ^ 2 ] >= 19472.31
quadratic_ranged_127_lb: [ 1 x_5_ ^ 2 - 2 x_74_ * x_5_ + 1 x_74_ ^ 2 + 1 y_5_ ^ 2 - 2 y_74_ * y_5_ + 1 y_74_ ^ 2 ] >= 3826.35
quadratic_ranged_128_lb: [ 1 x_36_ ^ 2 - 2 x_74_ * x_36_ + 1 x_74_ ^ 2 + 1 y_36_ ^ 2 - 2 y_74_ * y_36_ + 1 y_74_ ^ 2 ] >= 12906.63
quadratic_ranged_129_lb: [ 1 x_69_ ^ 2 - 2 x_74_ * x_69_ + 1 x_74_ ^ 2 + 1 y_69_ ^ 2 - 2 y_74_ * y_69_ + 1 y_74_ ^ 2 ] >= 8598.15
quadratic_ranged_130_lb: [ 1 x_41_ ^ 2 - 2 x_75_ * x_41_ + 1 x_75_ ^ 2 + 1 y_41_ ^ 2 - 2 y_75_ * y_41_ + 1 y_75_ ^ 2 ] >= 6344.91
quadratic_ranged_131_lb: [ 1 x_17_ ^ 2 - 2 x_76_ * x_17_ + 1 x_76_ ^ 2 + 1 y_17_ ^ 2 - 2 y_76_ * y_17_ + 1 y_76_ ^ 2 ] >= 9457.47
quadratic_ranged_132_lb: [ 1 x_37_ ^ 2 - 2 x_76_ * x_37_ + 1 x_76_ ^ 2 + 1 y_37_ ^ 2 - 2 y_76_ * y_37_ + 1 y_76_ ^ 2 ] >= 477.18
quadratic_ranged_133_lb: [ 1 x_55_ ^ 2 - 2 x_76_ * x_55_ + 1 x_76_ ^ 2 + 1 y_55_ ^ 2 - 2 y_76_ * y_55_ + 1 y_76_ ^ 2 ] >= 3518.46
quadratic_ranged_134_lb: [ 1 x_9_ ^ 2 - 2 x_77_ * x_9_ + 1 x_77_ ^ 2 + 1 y_9_ ^ 2 - 2 y_77_ * y_9_ + 1 y_77_ ^ 2 ] >= 9101.07
quadratic_ranged_135_lb: [ 1 x_12_ ^ 2 - 2 x_77_ * x_12_ + 1 x_77_ ^ 2 + 1 y_12_ ^ 2 - 2 y_77_ * y_12_ + 1 y_77_ ^ 2 ] >= 3217.5
quadratic_ranged_136_lb: [ 1 x_46_ ^ 2 - 2 x_77_ * x_46_ + 1 x_77_ ^ 2 + 1 y_46_ ^ 2 - 2 y_77_ * y_46_ + 1 y_77_ ^ 2 ] >= 2879.91
quadratic_ranged_137_lb: [ 1 x_20_ ^ 2 - 2 x_78_ * x_20_ + 1 x_78_ ^ 2 + 1 y_20_ ^ 2 - 2 y_78_ * y_20_ + 1 y_78_ ^ 2 ] >= 34433.19
quadratic_ranged_138_lb: [ 1 x_49_ ^ 2 - 2 x_78_ * x_49_ + 1 x_78_ ^ 2 + 1 y_49_ ^ 2 - 2 y_78_ * y_49_ + 1 y_78_ ^ 2 ] >= 3410.55
quadratic_ranged_139_lb: [ 1 x_50_ ^ 2 - 2 x_78_ * x_50_ + 1 x_78_ ^ 2 + 1 y_50_ ^ 2 - 2 y_78_ * y_50_ + 1 y_78_ ^ 2 ] >= 22782.87
quadratic_ranged_140_lb: [ 1 x_37_ ^ 2 - 2 x_79_ * x_37_ + 1 x_79_ ^ 2 + 1 y_37_ ^ 2 - 2 y_79_ * y_37_ + 1 y_79_ ^ 2 ] >= 20663.28
quadratic_ranged_141_lb: [ 1 x_50_ ^ 2 - 2 x_79_ * x_50_ + 1 x_79_ ^ 2 + 1 y_50_ ^ 2 - 2 y_79_ * y_50_ + 1 y_79_ ^ 2 ] >= 20252.43
quadratic_ranged_142_lb: [ 1 x_4_ ^ 2 - 2 x_80_ * x_4_ + 1 x_80_ ^ 2 + 1 y_4_ ^ 2 - 2 y_80_ * y_4_ + 1 y_80_ ^ 2 ] >= 16671.6
quadratic_ranged_143_lb: [ 1 x_22_ ^ 2 - 2 x_80_ * x_22_ + 1 x_80_ ^ 2 + 1 y_22_ ^ 2 - 2 y_80_ * y_22_ + 1 y_80_ ^ 2 ] >= 2694.78
quadratic_ranged_144_lb: [ 1 x_54_ ^ 2 - 2 x_80_ * x_54_ + 1 x_80_ ^ 2 + 1 y_54_ ^ 2 - 2 y_80_ * y_54_ + 1 y_80_ ^ 2 ] >= 2365.11
quadratic_ranged_145_lb: [ 1 x_73_ ^ 2 - 2 x_81_ * x_73_ + 1 x_81_ ^ 2 + 1 y_73_ ^ 2 - 2 y_81_ * y_73_ + 1 y_81_ ^ 2 ] >= 22671.99
quadratic_ranged_146_lb: [ 1 x_52_ ^ 2 - 2 x_82_ * x_52_ + 1 x_82_ ^ 2 + 1 y_52_ ^ 2 - 2 y_82_ * y_52_ + 1 y_82_ ^ 2 ] >= 7057.71
quadratic_ranged_147_lb: [ 1 x_65_ ^ 2 - 2 x_82_ * x_65_ + 1 x_82_ ^ 2 + 1 y_65_ ^ 2 - 2 y_82_ * y_65_ + 1 y_82_ ^ 2 ] >= 2289.87
quadratic_ranged_148_lb: [ 1 x_81_ ^ 2 - 2 x_82_ * x_81_ + 1 x_82_ ^ 2 + 1 y_81_ ^ 2 - 2 y_82_ * y_81_ + 1 y_82_ ^ 2 ] >= 15200.46
quadratic_ranged_149_lb: [ 1 x_24_ ^ 2 - 2 x_83_ * x_24_ + 1 x_83_ ^ 2 + 1 y_24_ ^ 2 - 2 y_83_ * y_24_ + 1 y_83_ ^ 2 ] >= 3046.23
quadratic_ranged_150_lb: [ 1 x_43_ ^ 2 - 2 x_83_ * x_43_ + 1 x_83_ ^ 2 + 1 y_43_ ^ 2 - 2 y_83_ * y_43_ + 1 y_83_ ^ 2 ] >= 17472.51
quadratic_ranged_151_lb: [ 1 x_7_ ^ 2 - 2 x_84_ * x_7_ + 1 x_84_ ^ 2 + 1 y_7_ ^ 2 - 2 y_84_ * y_7_ + 1 y_84_ ^ 2 ] >= 6550.83
quadratic_ranged_152_lb: [ 1 x_35_ ^ 2 - 2 x_84_ * x_35_ + 1 x_84_ ^ 2 + 1 y_35_ ^ 2 - 2 y_84_ * y_35_ + 1 y_84_ ^ 2 ] >= 11132.55
quadratic_ranged_153_lb: [ 1 x_39_ ^ 2 - 2 x_84_ * x_39_ + 1 x_84_ ^ 2 + 1 y_39_ ^ 2 - 2 y_84_ * y_39_ + 1 y_84_ ^ 2 ] >= 29859.39
quadratic_ranged_154_lb: [ 1 x_5_ ^ 2 - 2 x_85_ * x_5_ + 1 x_85_ ^ 2 + 1 y_5_ ^ 2 - 2 y_85_ * y_5_ + 1 y_85_ ^ 2 ] >= 18693.18
quadratic_ranged_155_lb: [ 1 x_6_ ^ 2 - 2 x_85_ * x_6_ + 1 x_85_ ^ 2 + 1 y_6_ ^ 2 - 2 y_85_ * y_6_ + 1 y_85_ ^ 2 ] >= 24482.7
quadratic_ranged_156_lb: [ 1 x_51_ ^ 2 - 2 x_85_ * x_51_ + 1 x_85_ ^ 2 + 1 y_51_ ^ 2 - 2 y_85_ * y_51_ + 1 y_85_ ^ 2 ] >= 891
quadratic_ranged_157_lb: [ 1 x_9_ ^ 2 - 2 x_86_ * x_9_ + 1 x_86_ ^ 2 + 1 y_9_ ^ 2 - 2 y_86_ * y_9_ + 1 y_86_ ^ 2 ] >= 732.6
quadratic_ranged_158_lb: [ 1 x_13_ ^ 2 - 2 x_86_ * x_13_ + 1 x_86_ ^ 2 + 1 y_13_ ^ 2 - 2 y_86_ * y_13_ + 1 y_86_ ^ 2 ] >= 17322.03
quadratic_ranged_159_lb: [ 1 x_35_ ^ 2 - 2 x_87_ * x_35_ + 1 x_87_ ^ 2 + 1 y_35_ ^ 2 - 2 y_87_ * y_35_ + 1 y_87_ ^ 2 ] >= 28699.11
quadratic_ranged_160_lb: [ 1 x_70_ ^ 2 - 2 x_87_ * x_70_ + 1 x_87_ ^ 2 + 1 y_70_ ^ 2 - 2 y_87_ * y_70_ + 1 y_87_ ^ 2 ] >= 44862.84
quadratic_ranged_161_lb: [ 1 x_7_ ^ 2 - 2 x_88_ * x_7_ + 1 x_88_ ^ 2 + 1 y_7_ ^ 2 - 2 y_88_ * y_7_ + 1 y_88_ ^ 2 ] >= 2663.1
quadratic_ranged_162_lb: [ 1 x_9_ ^ 2 - 2 x_88_ * x_9_ + 1 x_88_ ^ 2 + 1 y_9_ ^ 2 - 2 y_88_ * y_9_ + 1 y_88_ ^ 2 ] >= 2124.54
quadratic_ranged_163_lb: [ 1 x_61_ ^ 2 - 2 x_88_ * x_61_ + 1 x_88_ ^ 2 + 1 y_61_ ^ 2 - 2 y_88_ * y_61_ + 1 y_88_ ^ 2 ] >= 23024.43
quadratic_ranged_164_lb: [ 1 x_8_ ^ 2 - 2 x_89_ * x_8_ + 1 x_89_ ^ 2 + 1 y_8_ ^ 2 - 2 y_89_ * y_8_ + 1 y_89_ ^ 2 ] >= 2107.71
quadratic_ranged_165_lb: [ 1 x_16_ ^ 2 - 2 x_89_ * x_16_ + 1 x_89_ ^ 2 + 1 y_16_ ^ 2 - 2 y_89_ * y_16_ + 1 y_89_ ^ 2 ] >= 2861.1
quadratic_ranged_166_lb: [ 1 x_79_ ^ 2 - 2 x_89_ * x_79_ + 1 x_89_ ^ 2 + 1 y_79_ ^ 2 - 2 y_89_ * y_79_ + 1 y_89_ ^ 2 ] >= 35435.07
quadratic_ranged_167_lb: [ 1 x_30_ ^ 2 - 2 x_90_ * x_30_ + 1 x_90_ ^ 2 + 1 y_30_ ^ 2 - 2 y_90_ * y_30_ + 1 y_90_ ^ 2 ] >= 1364.22
quadratic_ranged_168_lb: [ 1 x_86_ ^ 2 - 2 x_90_ * x_86_ + 1 x_90_ ^ 2 + 1 y_86_ ^ 2 - 2 y_90_ * y_86_ + 1 y_90_ ^ 2 ] >= 8035.83
quadratic_ranged_169_lb: [ 1 x_88_ ^ 2 - 2 x_90_ * x_88_ + 1 x_90_ ^ 2 + 1 y_88_ ^ 2 - 2 y_90_ * y_88_ + 1 y_90_ ^ 2 ] >= 10538.55
quadratic_ranged_170_lb: [ 1 x_25_ ^ 2 - 2 x_91_ * x_25_ + 1 x_91_ ^ 2 + 1 y_25_ ^ 2 - 2 y_91_ * y_25_ + 1 y_91_ ^ 2 ] >= 17875.44
quadratic_ranged_171_lb: [ 1 x_32_ ^ 2 - 2 x_91_ * x_32_ + 1 x_91_ ^ 2 + 1 y_32_ ^ 2 - 2 y_91_ * y_32_ + 1 y_91_ ^ 2 ] >= 2427.48
quadratic_ranged_172_lb: [ 1 x_53_ ^ 2 - 2 x_91_ * x_53_ + 1 x_91_ ^ 2 + 1 y_53_ ^ 2 - 2 y_91_ * y_53_ + 1 y_91_ ^ 2 ] >= 1287.99
quadratic_ranged_173_lb: [ 1 x_1_ ^ 2 - 2 x_92_ * x_1_ + 1 x_92_ ^ 2 + 1 y_1_ ^ 2 - 2 y_92_ * y_1_ + 1 y_92_ ^ 2 ] >= 3786.75
quadratic_ranged_174_lb: [ 1 x_9_ ^ 2 - 2 x_92_ * x_9_ + 1 x_92_ ^ 2 + 1 y_9_ ^ 2 - 2 y_92_ * y_9_ + 1 y_92_ ^ 2 ] >= 8166.51
quadratic_ranged_175_lb: [ 1 x_16_ ^ 2 - 2 x_92_ * x_16_ + 1 x_92_ ^ 2 + 1 y_16_ ^ 2 - 2 y_92_ * y_16_ + 1 y_92_ ^ 2 ] >= 3616.47
quadratic_ranged_176_lb: [ 1 x_50_ ^ 2 - 2 x_93_ * x_50_ + 1 x_93_ ^ 2 + 1 y_50_ ^ 2 - 2 y_93_ * y_50_ + 1 y_93_ ^ 2 ] >= 16482.51
quadratic_ranged_177_lb: [ 1 x_55_ ^ 2 - 2 x_93_ * x_55_ + 1 x_93_ ^ 2 + 1 y_55_ ^ 2 - 2 y_93_ * y_55_ + 1 y_93_ ^ 2 ] >= 6108.3
quadratic_ranged_178_lb: [ 1 x_75_ ^ 2 - 2 x_93_ * x_75_ + 1 x_93_ ^ 2 + 1 y_75_ ^ 2 - 2 y_93_ * y_75_ + 1 y_93_ ^ 2 ] >= 11208.78
quadratic_ranged_179_lb: [ 1 x_19_ ^ 2 - 2 x_94_ * x_19_ + 1 x_94_ ^ 2 + 1 y_19_ ^ 2 - 2 y_94_ * y_19_ + 1 y_94_ ^ 2 ] >= 8395.2
quadratic_ranged_180_lb: [ 1 x_54_ ^ 2 - 2 x_94_ * x_54_ + 1 x_94_ ^ 2 + 1 y_54_ ^ 2 - 2 y_94_ * y_54_ + 1 y_94_ ^ 2 ] >= 2316.6
quadratic_ranged_181_lb: [ 1 x_32_ ^ 2 - 2 x_95_ * x_32_ + 1 x_95_ ^ 2 + 1 y_32_ ^ 2 - 2 y_95_ * y_32_ + 1 y_95_ ^ 2 ] >= 285.12
quadratic_ranged_182_lb: [ 1 x_60_ ^ 2 - 2 x_95_ * x_60_ + 1 x_95_ ^ 2 + 1 y_60_ ^ 2 - 2 y_95_ * y_60_ + 1 y_95_ ^ 2 ] >= 16224.119999999999
quadratic_ranged_183_lb: [ 1 x_87_ ^ 2 - 2 x_95_ * x_87_ + 1 x_95_ ^ 2 + 1 y_87_ ^ 2 - 2 y_95_ * y_87_ + 1 y_95_ ^ 2 ] >= 247.5
quadratic_ranged_184_lb: [ 1 x_29_ ^ 2 - 2 x_96_ * x_29_ + 1 x_96_ ^ 2 + 1 y_29_ ^ 2 - 2 y_96_ * y_29_ + 1 y_96_ ^ 2 ] >= 13033.35
quadratic_ranged_185_lb: [ 1 x_71_ ^ 2 - 2 x_96_ * x_71_ + 1 x_96_ ^ 2 + 1 y_71_ ^ 2 - 2 y_96_ * y_71_ + 1 y_96_ ^ 2 ] >= 8864.46
quadratic_ranged_186_lb: [ 1 x_81_ ^ 2 - 2 x_96_ * x_81_ + 1 x_96_ ^ 2 + 1 y_81_ ^ 2 - 2 y_96_ * y_81_ + 1 y_96_ ^ 2 ] >= 27523.98
quadratic_ranged_187_lb: [ 1 x_2_ ^ 2 - 2 x_97_ * x_2_ + 1 x_97_ ^ 2 + 1 y_2_ ^ 2 - 2 y_97_ * y_2_ + 1 y_97_ ^ 2 ] >= 41866.11
quadratic_ranged_188_lb: [ 1 x_23_ ^ 2 - 2 x_97_ * x_23_ + 1 x_97_ ^ 2 + 1 y_23_ ^ 2 - 2 y_97_ * y_23_ + 1 y_97_ ^ 2 ] >= 13529.34
quadratic_ranged_189_lb: [ 1 x_83_ ^ 2 - 2 x_97_ * x_83_ + 1 x_97_ ^ 2 + 1 y_83_ ^ 2 - 2 y_97_ * y_83_ + 1 y_97_ ^ 2 ] >= 17868.51
quadratic_ranged_190_lb: [ 1 x_62_ ^ 2 - 2 x_98_ * x_62_ + 1 x_98_ ^ 2 + 1 y_62_ ^ 2 - 2 y_98_ * y_62_ + 1 y_98_ ^ 2 ] >= 3019.5
quadratic_ranged_191_lb: [ 1 x_68_ ^ 2 - 2 x_98_ * x_68_ + 1 x_98_ ^ 2 + 1 y_68_ ^ 2 - 2 y_98_ * y_68_ + 1 y_98_ ^ 2 ] >= 12502.71
quadratic_ranged_192_lb: [ 1 x_75_ ^ 2 - 2 x_98_ * x_75_ + 1 x_98_ ^ 2 + 1 y_75_ ^ 2 - 2 y_98_ * y_75_ + 1 y_98_ ^ 2 ] >= 5145.03
quadratic_ranged_193_lb: [ 1 x_11_ ^ 2 - 2 x_99_ * x_11_ + 1 x_99_ ^ 2 + 1 y_11_ ^ 2 - 2 y_99_ * y_11_ + 1 y_99_ ^ 2 ] >= 659.34
quadratic_ranged_194_lb: [ 1 x_59_ ^ 2 - 2 x_99_ * x_59_ + 1 x_99_ ^ 2 + 1 y_59_ ^ 2 - 2 y_99_ * y_59_ + 1 y_99_ ^ 2 ] >= 6502.32
quadratic_ranged_195_lb: [ 1 x_94_ ^ 2 - 2 x_99_ * x_94_ + 1 x_99_ ^ 2 + 1 y_94_ ^ 2 - 2 y_99_ * y_94_ + 1 y_99_ ^ 2 ] >= 2819.52
quadratic_ranged_196_lb: [ 1 x_6_ ^ 2 - 2 x_100_ * x_6_ + 1 x_100_ ^ 2 + 1 y_6_ ^ 2 - 2 y_100_ * y_6_ + 1 y_100_ ^ 2 ] >= 3089.79
quadratic_ranged_197_lb: [ 1 x_11_ ^ 2 - 2 x_100_ * x_11_ + 1 x_100_ ^ 2 + 1 y_11_ ^ 2 - 2 y_100_ * y_11_ + 1 y_100_ ^ 2 ] >= 7306.2
quadratic_ranged_198_lb: [ 1 x_92_ ^ 2 - 2 x_100_ * x_92_ + 1 x_100_ ^ 2 + 1 y_92_ ^ 2 - 2 y_100_ * y_92_ + 1 y_100_ ^ 2 ] >= 1505.79
c1_1: 1 x_9_ = 0
c2_1: 1 y_9_ = 0
Bounds
-153 <= x_1_ <= 153
-346 <= x_2_ <= 346
-295 <= x_3_ <= 295
-215 <= x_4_ <= 215
-126 <= x_5_ <= 126
-186 <= x_6_ <= 186
-98 <= x_7_ <= 98
-252 <= x_8_ <= 252
x_9_ = 0
-347 <= x_10_ <= 347
-216 <= x_11_ <= 216
-153 <= x_12_ <= 153
-160 <= x_13_ <= 160
-173 <= x_14_ <= 173
-218 <= x_15_ <= 218
-152 <= x_16_ <= 152
-272 <= x_17_ <= 272
-217 <= x_18_ <= 217
-296 <= x_19_ <= 296
-145 <= x_20_ <= 145
-186 <= x_21_ <= 186
-280 <= x_22_ <= 280
-207 <= x_23_ <= 207
-247 <= x_24_ <= 247
-155 <= x_25_ <= 155
-289 <= x_26_ <= 289
-303 <= x_27_ <= 303
-292 <= x_28_ <= 292
-182 <= x_29_ <= 182
-155 <= x_30_ <= 155
-264 <= x_31_ <= 264
-237 <= x_32_ <= 237
-274 <= x_33_ <= 274
-289 <= x_34_ <= 289
-276 <= x_35_ <= 276
-304 <= x_36_ <= 304
-376 <= x_37_ <= 376
-186 <= x_38_ <= 186
-354 <= x_39_ <= 354
-291 <= x_40_ <= 291
-183 <= x_41_ <= 183
-226 <= x_42_ <= 226
-330 <= x_43_ <= 330
-319 <= x_44_ <= 319
-337 <= x_45_ <= 337
-150 <= x_46_ <= 150
-283 <= x_47_ <= 283
-148 <= x_48_ <= 148
-251 <= x_49_ <= 251
-109 <= x_50_ <= 109
-211 <= x_51_ <= 211
-153 <= x_52_ <= 153
-286 <= x_53_ <= 286
-344 <= x_54_ <= 344
-294 <= x_55_ <= 294
-177 <= x_56_ <= 177
-143 <= x_57_ <= 143
-240 <= x_58_ <= 240
-225 <= x_59_ <= 225
-173 <= x_60_ <= 173
-199 <= x_61_ <= 199
-259 <= x_62_ <= 259
-272 <= x_63_ <= 272
-361 <= x_64_ <= 361
-20 <= x_65_ <= 20
-316 <= x_66_ <= 316
-211 <= x_67_ <= 211
-267 <= x_68_ <= 267
-117 <= x_69_ <= 117
-267 <= x_70_ <= 267
-286 <= x_71_ <= 286
-224 <= x_72_ <= 224
-308 <= x_73_ <= 308
-189 <= x_74_ <= 189
-263 <= x_75_ <= 263
-354 <= x_76_ <= 354
-96 <= x_77_ <= 96
-262 <= x_78_ <= 262
-253 <= x_79_ <= 253
-333 <= x_80_ <= 333
-193 <= x_81_ <= 193
-68 <= x_82_ <= 68
-303 <= x_83_ <= 303
-180 <= x_84_ <= 180
-241 <= x_85_ <= 241
-27 <= x_86_ <= 27
-270 <= x_87_ <= 270
-46 <= x_88_ <= 46
-206 <= x_89_ <= 206
-117 <= x_90_ <= 117
-287 <= x_91_ <= 287
-91 <= x_92_ <= 91
-239 <= x_93_ <= 239
-296 <= x_94_ <= 296
-254 <= x_95_ <= 254
-297 <= x_96_ <= 297
-324 <= x_97_ <= 324
-314 <= x_98_ <= 314
-242 <= x_99_ <= 242
-130 <= x_100_ <= 130
-153 <= y_1_ <= 153
-346 <= y_2_ <= 346
-295 <= y_3_ <= 295
-215 <= y_4_ <= 215
-126 <= y_5_ <= 126
-186 <= y_6_ <= 186
-98 <= y_7_ <= 98
-252 <= y_8_ <= 252
y_9_ = 0
-347 <= y_10_ <= 347
-216 <= y_11_ <= 216
-153 <= y_12_ <= 153
-160 <= y_13_ <= 160
-173 <= y_14_ <= 173
-218 <= y_15_ <= 218
-152 <= y_16_ <= 152
-272 <= y_17_ <= 272
-217 <= y_18_ <= 217
-296 <= y_19_ <= 296
-145 <= y_20_ <= 145
-186 <= y_21_ <= 186
-280 <= y_22_ <= 280
-207 <= y_23_ <= 207
-247 <= y_24_ <= 247
-155 <= y_25_ <= 155
-289 <= y_26_ <= 289
-303 <= y_27_ <= 303
-292 <= y_28_ <= 292
-182 <= y_29_ <= 182
-155 <= y_30_ <= 155
-264 <= y_31_ <= 264
-237 <= y_32_ <= 237
-274 <= y_33_ <= 274
-289 <= y_34_ <= 289
-276 <= y_35_ <= 276
-304 <= y_36_ <= 304
-376 <= y_37_ <= 376
-186 <= y_38_ <= 186
-354 <= y_39_ <= 354
-291 <= y_40_ <= 291
-183 <= y_41_ <= 183
-226 <= y_42_ <= 226
-330 <= y_43_ <= 330
-319 <= y_44_ <= 319
-337 <= y_45_ <= 337
-150 <= y_46_ <= 150
-283 <= y_47_ <= 283
-148 <= y_48_ <= 148
-251 <= y_49_ <= 251
-109 <= y_50_ <= 109
-211 <= y_51_ <= 211
-153 <= y_52_ <= 153
-286 <= y_53_ <= 286
-344 <= y_54_ <= 344
-294 <= y_55_ <= 294
-177 <= y_56_ <= 177
-143 <= y_57_ <= 143
-240 <= y_58_ <= 240
-225 <= y_59_ <= 225
-173 <= y_60_ <= 173
-199 <= y_61_ <= 199
-259 <= y_62_ <= 259
-272 <= y_63_ <= 272
-361 <= y_64_ <= 361
-20 <= y_65_ <= 20
-316 <= y_66_ <= 316
-211 <= y_67_ <= 211
-267 <= y_68_ <= 267
-117 <= y_69_ <= 117
-267 <= y_70_ <= 267
-286 <= y_71_ <= 286
-224 <= y_72_ <= 224
-308 <= y_73_ <= 308
-189 <= y_74_ <= 189
-263 <= y_75_ <= 263
-354 <= y_76_ <= 354
-96 <= y_77_ <= 96
-262 <= y_78_ <= 262
-253 <= y_79_ <= 253
-333 <= y_80_ <= 333
-193 <= y_81_ <= 193
-68 <= y_82_ <= 68
-303 <= y_83_ <= 303
-180 <= y_84_ <= 180
-241 <= y_85_ <= 241
-27 <= y_86_ <= 27
-270 <= y_87_ <= 270
-46 <= y_88_ <= 46
-206 <= y_89_ <= 206
-117 <= y_90_ <= 117
-287 <= y_91_ <= 287
-91 <= y_92_ <= 91
-239 <= y_93_ <= 239
-296 <= y_94_ <= 296
-254 <= y_95_ <= 254
-297 <= y_96_ <= 297
-324 <= y_97_ <= 324
-314 <= y_98_ <= 314
-242 <= y_99_ <= 242
-130 <= y_100_ <= 130
General
x_1_
x_2_
x_3_
x_4_
x_5_
x_6_
x_7_
x_8_
x_9_
x_10_
x_11_
x_12_
x_13_
x_14_
x_15_
x_16_
x_17_
x_18_
x_19_
x_20_
x_21_
x_22_
x_23_
x_24_
x_25_
x_26_
x_27_
x_28_
x_29_
x_30_
x_31_
x_32_
x_33_
x_34_
x_35_
x_36_
x_37_
x_38_
x_39_
x_40_
x_41_
x_42_
x_43_
x_44_
x_45_
x_46_
x_47_
x_48_
x_49_
x_50_
x_51_
x_52_
x_53_
x_54_
x_55_
x_56_
x_57_
x_58_
x_59_
x_60_
x_61_
x_62_
x_63_
x_64_
x_65_
x_66_
x_67_
x_68_
x_69_
x_70_
x_71_
x_72_
x_73_
x_74_
x_75_
x_76_
x_77_
x_78_
x_79_
x_80_
x_81_
x_82_
x_83_
x_84_
x_85_
x_86_
x_87_
x_88_
x_89_
x_90_
x_91_
x_92_
x_93_
x_94_
x_95_
x_96_
x_97_
x_98_
x_99_
x_100_
y_1_
y_2_
y_3_
y_4_
y_5_
y_6_
y_7_
y_8_
y_9_
y_10_
y_11_
y_12_
y_13_
y_14_
y_15_
y_16_
y_17_
y_18_
y_19_
y_20_
y_21_
y_22_
y_23_
y_24_
y_25_
y_26_
y_27_
y_28_
y_29_
y_30_
y_31_
y_32_
y_33_
y_34_
y_35_
y_36_
y_37_
y_38_
y_39_
y_40_
y_41_
y_42_
y_43_
y_44_
y_45_
y_46_
y_47_
y_48_
y_49_
y_50_
y_51_
y_52_
y_53_
y_54_
y_55_
y_56_
y_57_
y_58_
y_59_
y_60_
y_61_
y_62_
y_63_
y_64_
y_65_
y_66_
y_67_
y_68_
y_69_
y_70_
y_71_
y_72_
y_73_
y_74_
y_75_
y_76_
y_77_
y_78_
y_79_
y_80_
y_81_
y_82_
y_83_
y_84_
y_85_
y_86_
y_87_
y_88_
y_89_
y_90_
y_91_
y_92_
y_93_
y_94_
y_95_
y_96_
y_97_
y_98_
y_99_
y_100_
End
