minimize
obj: 
subject to
c1: -62 x_1_ - 126 y_1_ + [ 1 x_1_ ^ 2 + 1 y_1_ ^ 2 ] <= 5949.7199999999975
c2: -62 x_2_ - 126 y_2_ + [ 1 x_2_ ^ 2 + 1 y_2_ ^ 2 ] <= 89776.84837683769
c3: -62 x_3_ - 126 y_3_ + [ 1 x_3_ ^ 2 + 1 y_3_ ^ 2 ] <= 33550.092891760236
c4: -62 x_4_ - 126 y_4_ + [ 1 x_4_ ^ 2 + 1 y_4_ ^ 2 ] <= 42260.17153825688
c5: -62 x_5_ - 126 y_5_ + [ 1 x_5_ ^ 2 + 1 y_5_ ^ 2 ] <= 48017.44100151601
c6: -62 x_6_ - 126 y_6_ + [ 1 x_6_ ^ 2 + 1 y_6_ ^ 2 ] <= 57605.92459991437
c7: -62 x_7_ - 126 y_7_ + [ 1 x_7_ ^ 2 + 1 y_7_ ^ 2 ] <= 123104.91935117025
c8: -62 x_8_ - 126 y_8_ + [ 1 x_8_ ^ 2 + 1 y_8_ ^ 2 ] <= 22521.264476891247
c9: -62 x_9_ - 126 y_9_ + [ 1 x_9_ ^ 2 + 1 y_9_ ^ 2 ] <= 21395.65
c10: -62 x_10_ - 126 y_10_ + [ 1 x_10_ ^ 2 + 1 y_10_ ^ 2 ] <= 22212.739999999994
c11: -62 x_11_ - 126 y_11_ + [ 1 x_11_ ^ 2 + 1 y_11_ ^ 2 ] <= 30379.16529919232
c12: -62 x_12_ - 126 y_12_ + [ 1 x_12_ ^ 2 + 1 y_12_ ^ 2 ] <= 75283.44046276463
c13: -62 x_13_ - 126 y_13_ + [ 1 x_13_ ^ 2 + 1 y_13_ ^ 2 ] <= 63936.56502510233
c14: -62 x_14_ - 126 y_14_ + [ 1 x_14_ ^ 2 + 1 y_14_ ^ 2 ] <= 84267.64062469541
c15: -62 x_15_ - 126 y_15_ + [ 1 x_15_ ^ 2 + 1 y_15_ ^ 2 ] <= 60210.99064181778
c16: -62 x_16_ - 126 y_16_ + [ 1 x_16_ ^ 2 + 1 y_16_ ^ 2 ] <= 90073.29768355419
c17: -62 x_18_ - 126 y_18_ + [ 1 x_18_ ^ 2 + 1 y_18_ ^ 2 ] <= 25948.81212945975
c18: -62 x_19_ - 126 y_19_ + [ 1 x_19_ ^ 2 + 1 y_19_ ^ 2 ] <= 45157.449818919005
c19: -62 x_20_ - 126 y_20_ + [ 1 x_20_ ^ 2 + 1 y_20_ ^ 2 ] <= 36195.681170762815
c20: 22 x_1_ - 74 y_1_ + [ 1 x_1_ ^ 2 + 1 y_1_ ^ 2 ] <= 23511.460800892564
c21: 22 x_2_ - 74 y_2_ + [ 1 x_2_ ^ 2 + 1 y_2_ ^ 2 ] <= 108066.46063061376
c22: 22 x_3_ - 74 y_3_ + [ 1 x_3_ ^ 2 + 1 y_3_ ^ 2 ] <= 18266.57558725443
c23: 22 x_4_ - 74 y_4_ + [ 1 x_4_ ^ 2 + 1 y_4_ ^ 2 ] <= 30416.796860004204
c24: 22 x_5_ - 74 y_5_ + [ 1 x_5_ ^ 2 + 1 y_5_ ^ 2 ] <= 32265.100772852093
c25: 22 x_6_ - 74 y_6_ + [ 1 x_6_ ^ 2 + 1 y_6_ ^ 2 ] <= 90855.75590765335
c26: 22 x_7_ - 74 y_7_ + [ 1 x_7_ ^ 2 + 1 y_7_ ^ 2 ] <= 89843.49907038314
c27: 22 x_8_ - 74 y_8_ + [ 1 x_8_ ^ 2 + 1 y_8_ ^ 2 ] <= 7868.66
c28: 22 x_9_ - 74 y_9_ + [ 1 x_9_ ^ 2 + 1 y_9_ ^ 2 ] <= 53081.72405295915
c29: 22 x_10_ - 74 y_10_ + [ 1 x_10_ ^ 2 + 1 y_10_ ^ 2 ] <= 28084.018515686334
c30: 22 x_11_ - 74 y_11_ + [ 1 x_11_ ^ 2 + 1 y_11_ ^ 2 ] <= 56938.52832681819
c31: 22 x_12_ - 74 y_12_ + [ 1 x_12_ ^ 2 + 1 y_12_ ^ 2 ] <= 6877.8499999999985
c32: 22 x_14_ - 74 y_14_ + [ 1 x_14_ ^ 2 + 1 y_14_ ^ 2 ] <= -177.00000000000023
c33: 22 x_15_ - 74 y_15_ + [ 1 x_15_ ^ 2 + 1 y_15_ ^ 2 ] <= 39618.81333402073
c34: 22 x_16_ - 74 y_16_ + [ 1 x_16_ ^ 2 + 1 y_16_ ^ 2 ] <= 18216.757389085393
c35: 22 x_17_ - 74 y_17_ + [ 1 x_17_ ^ 2 + 1 y_17_ ^ 2 ] <= 67376.56502510233
c36: 22 x_18_ - 74 y_18_ + [ 1 x_18_ ^ 2 + 1 y_18_ ^ 2 ] <= 38099.875119892895
c37: 22 x_19_ - 74 y_19_ + [ 1 x_19_ ^ 2 + 1 y_19_ ^ 2 ] <= 75580.01170108824
c38: 22 x_20_ - 74 y_20_ + [ 1 x_20_ ^ 2 + 1 y_20_ ^ 2 ] <= 64357.29793804028
c39: 16 x_1_ - 128 y_1_ + [ 1 x_1_ ^ 2 + 1 y_1_ ^ 2 ] <= 940.4999999999991
c40: 16 x_2_ - 128 y_2_ + [ 1 x_2_ ^ 2 + 1 y_2_ ^ 2 ] <= 13269.57
c41: 16 x_3_ - 128 y_3_ + [ 1 x_3_ ^ 2 + 1 y_3_ ^ 2 ] <= 22926.102381177796
c42: 16 x_4_ - 128 y_4_ + [ 1 x_4_ ^ 2 + 1 y_4_ ^ 2 ] <= 39017.941271137664
c43: 16 x_5_ - 128 y_5_ + [ 1 x_5_ ^ 2 + 1 y_5_ ^ 2 ] <= 44532.22378757163
c44: 16 x_6_ - 128 y_6_ + [ 1 x_6_ ^ 2 + 1 y_6_ ^ 2 ] <= 43008.77148738223
c45: 16 x_7_ - 128 y_7_ + [ 1 x_7_ ^ 2 + 1 y_7_ ^ 2 ] <= 102269.14480996314
c46: 16 x_8_ - 128 y_8_ + [ 1 x_8_ ^ 2 + 1 y_8_ ^ 2 ] <= 13474.809444502724
c47: 16 x_9_ - 128 y_9_ + [ 1 x_9_ ^ 2 + 1 y_9_ ^ 2 ] <= 53397.46798988475
c48: 16 x_10_ - 128 y_10_ + [ 1 x_10_ ^ 2 + 1 y_10_ ^ 2 ] <= 34252.65056964485
c49: 16 x_11_ - 128 y_11_ + [ 1 x_11_ ^ 2 + 1 y_11_ ^ 2 ] <= 19870.958660627017
c50: 16 x_12_ - 128 y_12_ + [ 1 x_12_ ^ 2 + 1 y_12_ ^ 2 ] <= 7395.41
c51: 16 x_13_ - 128 y_13_ + [ 1 x_13_ ^ 2 + 1 y_13_ ^ 2 ] <= 35429.875119892895
c52: 16 x_14_ - 128 y_14_ + [ 1 x_14_ ^ 2 + 1 y_14_ ^ 2 ] <= 51162.51534181512
c53: 16 x_15_ - 128 y_15_ + [ 1 x_15_ ^ 2 + 1 y_15_ ^ 2 ] <= 43701.723747326105
c54: 16 x_16_ - 128 y_16_ + [ 1 x_16_ ^ 2 + 1 y_16_ ^ 2 ] <= 20301.241033497656
c55: 16 x_17_ - 128 y_17_ + [ 1 x_17_ ^ 2 + 1 y_17_ ^ 2 ] <= 26718.81212945975
c56: 16 x_19_ - 128 y_19_ + [ 1 x_19_ ^ 2 + 1 y_19_ ^ 2 ] <= 32288.21063776302
c57: 16 x_20_ - 128 y_20_ + [ 1 x_20_ ^ 2 + 1 y_20_ ^ 2 ] <= 24708.241165435666
quadratic_ranged_1_ub: [ 1 x_1_ ^ 2 - 2 x_3_ * x_1_ + 1 x_3_ ^ 2 + 1 y_1_ ^ 2 - 2 y_3_ * y_1_ + 1 y_3_ ^ 2 ] <= 8678.93
quadratic_ranged_2_ub: [ 1 x_3_ ^ 2 - 2 x_4_ * x_3_ + 1 x_4_ ^ 2 + 1 y_3_ ^ 2 - 2 y_4_ * y_3_ + 1 y_4_ ^ 2 ] <= 1867.49
quadratic_ranged_3_ub: [ 1 x_4_ ^ 2 - 2 x_5_ * x_4_ + 1 x_5_ ^ 2 + 1 y_4_ ^ 2 - 2 y_5_ * y_4_ + 1 y_5_ ^ 2 ] <= 165.64000000000001
quadratic_ranged_4_ub: [ 1 x_2_ ^ 2 - 2 x_6_ * x_2_ + 1 x_6_ ^ 2 + 1 y_2_ ^ 2 - 2 y_6_ * y_2_ + 1 y_6_ ^ 2 ] <= 12517.94
quadratic_ranged_5_ub: [ 1 x_2_ ^ 2 - 2 x_7_ * x_2_ + 1 x_7_ ^ 2 + 1 y_2_ ^ 2 - 2 y_7_ * y_2_ + 1 y_7_ ^ 2 ] <= 39731.38
quadratic_ranged_6_ub: [ 1 x_3_ ^ 2 - 2 x_7_ * x_3_ + 1 x_7_ ^ 2 + 1 y_3_ ^ 2 - 2 y_7_ * y_3_ + 1 y_7_ ^ 2 ] <= 26132.74
quadratic_ranged_7_ub: [ 1 x_5_ ^ 2 - 2 x_7_ * x_5_ + 1 x_7_ ^ 2 + 1 y_5_ ^ 2 - 2 y_7_ * y_5_ + 1 y_7_ ^ 2 ] <= 32668.45
quadratic_ranged_8_ub: [ 1 x_1_ ^ 2 - 2 x_8_ * x_1_ + 1 x_8_ ^ 2 + 1 y_1_ ^ 2 - 2 y_8_ * y_1_ + 1 y_8_ ^ 2 ] <= 3767.3
quadratic_ranged_9_ub: [ 1 x_3_ ^ 2 - 2 x_8_ * x_3_ + 1 x_8_ ^ 2 + 1 y_3_ ^ 2 - 2 y_8_ * y_3_ + 1 y_8_ ^ 2 ] <= 1920.01
quadratic_ranged_10_ub: [ 1 x_1_ ^ 2 - 2 x_9_ * x_1_ + 1 x_9_ ^ 2 + 1 y_1_ ^ 2 - 2 y_9_ * y_1_ + 1 y_9_ ^ 2 ] <= 28390.09
quadratic_ranged_11_ub: [ 1 x_4_ ^ 2 - 2 x_9_ * x_4_ + 1 x_9_ ^ 2 + 1 y_4_ ^ 2 - 2 y_9_ * y_4_ + 1 y_9_ ^ 2 ] <= 3022.93
quadratic_ranged_12_ub: [ 1 x_6_ ^ 2 - 2 x_9_ * x_6_ + 1 x_9_ ^ 2 + 1 y_6_ ^ 2 - 2 y_9_ * y_6_ + 1 y_9_ ^ 2 ] <= 17988.1
quadratic_ranged_13_ub: [ 1 x_3_ ^ 2 - 2 x_10_ * x_3_ + 1 x_10_ ^ 2 + 1 y_3_ ^ 2 - 2 y_10_ * y_3_ + 1 y_10_ ^ 2 ] <= 986.77
quadratic_ranged_14_ub: [ 1 x_1_ ^ 2 - 2 x_11_ * x_1_ + 1 x_11_ ^ 2 + 1 y_1_ ^ 2 - 2 y_11_ * y_1_ + 1 y_11_ ^ 2 ] <= 6989.2
quadratic_ranged_15_ub: [ 1 x_4_ ^ 2 - 2 x_11_ * x_4_ + 1 x_11_ ^ 2 + 1 y_4_ ^ 2 - 2 y_11_ * y_4_ + 1 y_11_ ^ 2 ] <= 27562.9
quadratic_ranged_16_ub: [ 1 x_8_ ^ 2 - 2 x_13_ * x_8_ + 1 x_13_ ^ 2 + 1 y_8_ ^ 2 - 2 y_13_ * y_8_ + 1 y_13_ ^ 2 ] <= 9358.66
quadratic_ranged_17_ub: [ 1 x_12_ ^ 2 - 2 x_13_ * x_12_ + 1 x_13_ ^ 2 + 1 y_12_ ^ 2 - 2 y_13_ * y_12_ + 1 y_13_ ^ 2 ] <= 8367.85
quadratic_ranged_18_ub: [ 1 x_4_ ^ 2 - 2 x_14_ * x_4_ + 1 x_14_ ^ 2 + 1 y_4_ ^ 2 - 2 y_14_ * y_4_ + 1 y_14_ ^ 2 ] <= 20274.74
quadratic_ranged_19_ub: [ 1 x_5_ ^ 2 - 2 x_14_ * x_5_ + 1 x_14_ ^ 2 + 1 y_5_ ^ 2 - 2 y_14_ * y_5_ + 1 y_14_ ^ 2 ] <= 21753.38
quadratic_ranged_20_ub: [ 1 x_13_ ^ 2 - 2 x_14_ * x_13_ + 1 x_14_ ^ 2 + 1 y_13_ ^ 2 - 2 y_14_ * y_13_ + 1 y_14_ ^ 2 ] <= 1313
quadratic_ranged_21_ub: [ 1 x_3_ ^ 2 - 2 x_15_ * x_3_ + 1 x_15_ ^ 2 + 1 y_3_ ^ 2 - 2 y_15_ * y_3_ + 1 y_15_ ^ 2 ] <= 7272
quadratic_ranged_22_ub: [ 1 x_10_ ^ 2 - 2 x_15_ * x_10_ + 1 x_15_ ^ 2 + 1 y_10_ ^ 2 - 2 y_15_ * y_10_ + 1 y_15_ ^ 2 ] <= 8186.05
quadratic_ranged_23_ub: [ 1 x_12_ ^ 2 - 2 x_15_ * x_12_ + 1 x_15_ ^ 2 + 1 y_12_ ^ 2 - 2 y_15_ * y_12_ + 1 y_15_ ^ 2 ] <= 12382.6
quadratic_ranged_24_ub: [ 1 x_4_ ^ 2 - 2 x_16_ * x_4_ + 1 x_16_ ^ 2 + 1 y_4_ ^ 2 - 2 y_16_ * y_4_ + 1 y_16_ ^ 2 ] <= 11967.49
quadratic_ranged_25_ub: [ 1 x_8_ ^ 2 - 2 x_16_ * x_8_ + 1 x_16_ ^ 2 + 1 y_8_ ^ 2 - 2 y_16_ * y_8_ + 1 y_16_ ^ 2 ] <= 20318.170000000002
quadratic_ranged_26_ub: [ 1 x_12_ ^ 2 - 2 x_16_ * x_12_ + 1 x_16_ ^ 2 + 1 y_12_ ^ 2 - 2 y_16_ * y_12_ + 1 y_16_ ^ 2 ] <= 2391.68
quadratic_ranged_27_ub: [ 1 x_1_ ^ 2 - 2 x_17_ * x_1_ + 1 x_17_ ^ 2 + 1 y_1_ ^ 2 - 2 y_17_ * y_1_ + 1 y_17_ ^ 2 ] <= 10879.72
quadratic_ranged_28_ub: [ 1 x_9_ ^ 2 - 2 x_17_ * x_9_ + 1 x_17_ ^ 2 + 1 y_9_ ^ 2 - 2 y_17_ * y_9_ + 1 y_17_ ^ 2 ] <= 26325.65
quadratic_ranged_29_ub: [ 1 x_10_ ^ 2 - 2 x_17_ * x_10_ + 1 x_17_ ^ 2 + 1 y_10_ ^ 2 - 2 y_17_ * y_10_ + 1 y_17_ ^ 2 ] <= 27142.74
quadratic_ranged_30_ub: [ 1 x_1_ ^ 2 - 2 x_18_ * x_1_ + 1 x_18_ ^ 2 + 1 y_1_ ^ 2 - 2 y_18_ * y_1_ + 1 y_18_ ^ 2 ] <= 5100.5
quadratic_ranged_31_ub: [ 1 x_2_ ^ 2 - 2 x_18_ * x_2_ + 1 x_18_ ^ 2 + 1 y_2_ ^ 2 - 2 y_18_ * y_2_ + 1 y_18_ ^ 2 ] <= 17429.57
quadratic_ranged_32_ub: [ 1 x_12_ ^ 2 - 2 x_18_ * x_12_ + 1 x_18_ ^ 2 + 1 y_12_ ^ 2 - 2 y_18_ * y_12_ + 1 y_18_ ^ 2 ] <= 11555.41
quadratic_ranged_33_ub: [ 1 x_1_ ^ 2 - 2 x_19_ * x_1_ + 1 x_19_ ^ 2 + 1 y_1_ ^ 2 - 2 y_19_ * y_1_ + 1 y_19_ ^ 2 ] <= 14279.380000000001
quadratic_ranged_34_ub: [ 1 x_2_ ^ 2 - 2 x_19_ * x_2_ + 1 x_19_ ^ 2 + 1 y_2_ ^ 2 - 2 y_19_ * y_2_ + 1 y_19_ ^ 2 ] <= 7701.25
quadratic_ranged_35_ub: [ 1 x_11_ ^ 2 - 2 x_19_ * x_11_ + 1 x_19_ ^ 2 + 1 y_11_ ^ 2 - 2 y_19_ * y_11_ + 1 y_19_ ^ 2 ] <= 7063.9400000000005
quadratic_ranged_36_ub: [ 1 x_1_ ^ 2 - 2 x_20_ * x_1_ + 1 x_20_ ^ 2 + 1 y_1_ ^ 2 - 2 y_20_ * y_1_ + 1 y_20_ ^ 2 ] <= 9700.04
quadratic_ranged_37_ub: [ 1 x_5_ ^ 2 - 2 x_20_ * x_5_ + 1 x_20_ ^ 2 + 1 y_5_ ^ 2 - 2 y_20_ * y_5_ + 1 y_20_ ^ 2 ] <= 10215.14
quadratic_ranged_38_ub: [ 1 x_6_ ^ 2 - 2 x_20_ * x_6_ + 1 x_20_ ^ 2 + 1 y_6_ ^ 2 - 2 y_20_ * y_6_ + 1 y_20_ ^ 2 ] <= 2235.13
quadratic_ranged_1_lb: [ 1 x_1_ ^ 2 - 2 x_3_ * x_1_ + 1 x_3_ ^ 2 + 1 y_1_ ^ 2 - 2 y_3_ * y_1_ + 1 y_3_ ^ 2 ] >= 8507.07
quadratic_ranged_2_lb: [ 1 x_3_ ^ 2 - 2 x_4_ * x_3_ + 1 x_4_ ^ 2 + 1 y_3_ ^ 2 - 2 y_4_ * y_3_ + 1 y_4_ ^ 2 ] >= 1830.51
quadratic_ranged_3_lb: [ 1 x_4_ ^ 2 - 2 x_5_ * x_4_ + 1 x_5_ ^ 2 + 1 y_4_ ^ 2 - 2 y_5_ * y_4_ + 1 y_5_ ^ 2 ] >= 162.35999999999999
quadratic_ranged_4_lb: [ 1 x_2_ ^ 2 - 2 x_6_ * x_2_ + 1 x_6_ ^ 2 + 1 y_2_ ^ 2 - 2 y_6_ * y_2_ + 1 y_6_ ^ 2 ] >= 12270.06
quadratic_ranged_5_lb: [ 1 x_2_ ^ 2 - 2 x_7_ * x_2_ + 1 x_7_ ^ 2 + 1 y_2_ ^ 2 - 2 y_7_ * y_2_ + 1 y_7_ ^ 2 ] >= 38944.62
quadratic_ranged_6_lb: [ 1 x_3_ ^ 2 - 2 x_7_ * x_3_ + 1 x_7_ ^ 2 + 1 y_3_ ^ 2 - 2 y_7_ * y_3_ + 1 y_7_ ^ 2 ] >= 25615.26
quadratic_ranged_7_lb: [ 1 x_5_ ^ 2 - 2 x_7_ * x_5_ + 1 x_7_ ^ 2 + 1 y_5_ ^ 2 - 2 y_7_ * y_5_ + 1 y_7_ ^ 2 ] >= 32021.55
quadratic_ranged_8_lb: [ 1 x_1_ ^ 2 - 2 x_8_ * x_1_ + 1 x_8_ ^ 2 + 1 y_1_ ^ 2 - 2 y_8_ * y_1_ + 1 y_8_ ^ 2 ] >= 3692.7
quadratic_ranged_9_lb: [ 1 x_3_ ^ 2 - 2 x_8_ * x_3_ + 1 x_8_ ^ 2 + 1 y_3_ ^ 2 - 2 y_8_ * y_3_ + 1 y_8_ ^ 2 ] >= 1881.99
quadratic_ranged_10_lb: [ 1 x_1_ ^ 2 - 2 x_9_ * x_1_ + 1 x_9_ ^ 2 + 1 y_1_ ^ 2 - 2 y_9_ * y_1_ + 1 y_9_ ^ 2 ] >= 27827.91
quadratic_ranged_11_lb: [ 1 x_4_ ^ 2 - 2 x_9_ * x_4_ + 1 x_9_ ^ 2 + 1 y_4_ ^ 2 - 2 y_9_ * y_4_ + 1 y_9_ ^ 2 ] >= 2963.07
quadratic_ranged_12_lb: [ 1 x_6_ ^ 2 - 2 x_9_ * x_6_ + 1 x_9_ ^ 2 + 1 y_6_ ^ 2 - 2 y_9_ * y_6_ + 1 y_9_ ^ 2 ] >= 17631.9
quadratic_ranged_13_lb: [ 1 x_3_ ^ 2 - 2 x_10_ * x_3_ + 1 x_10_ ^ 2 + 1 y_3_ ^ 2 - 2 y_10_ * y_3_ + 1 y_10_ ^ 2 ] >= 967.23
quadratic_ranged_14_lb: [ 1 x_1_ ^ 2 - 2 x_11_ * x_1_ + 1 x_11_ ^ 2 + 1 y_1_ ^ 2 - 2 y_11_ * y_1_ + 1 y_11_ ^ 2 ] >= 6850.8
quadratic_ranged_15_lb: [ 1 x_4_ ^ 2 - 2 x_11_ * x_4_ + 1 x_11_ ^ 2 + 1 y_4_ ^ 2 - 2 y_11_ * y_4_ + 1 y_11_ ^ 2 ] >= 27017.1
quadratic_ranged_16_lb: [ 1 x_8_ ^ 2 - 2 x_13_ * x_8_ + 1 x_13_ ^ 2 + 1 y_8_ ^ 2 - 2 y_13_ * y_8_ + 1 y_13_ ^ 2 ] >= 9173.34
quadratic_ranged_17_lb: [ 1 x_12_ ^ 2 - 2 x_13_ * x_12_ + 1 x_13_ ^ 2 + 1 y_12_ ^ 2 - 2 y_13_ * y_12_ + 1 y_13_ ^ 2 ] >= 8202.15
quadratic_ranged_18_lb: [ 1 x_4_ ^ 2 - 2 x_14_ * x_4_ + 1 x_14_ ^ 2 + 1 y_4_ ^ 2 - 2 y_14_ * y_4_ + 1 y_14_ ^ 2 ] >= 19873.26
quadratic_ranged_19_lb: [ 1 x_5_ ^ 2 - 2 x_14_ * x_5_ + 1 x_14_ ^ 2 + 1 y_5_ ^ 2 - 2 y_14_ * y_5_ + 1 y_14_ ^ 2 ] >= 21322.62
quadratic_ranged_20_lb: [ 1 x_13_ ^ 2 - 2 x_14_ * x_13_ + 1 x_14_ ^ 2 + 1 y_13_ ^ 2 - 2 y_14_ * y_13_ + 1 y_14_ ^ 2 ] >= 1287
quadratic_ranged_21_lb: [ 1 x_3_ ^ 2 - 2 x_15_ * x_3_ + 1 x_15_ ^ 2 + 1 y_3_ ^ 2 - 2 y_15_ * y_3_ + 1 y_15_ ^ 2 ] >= 7128
quadratic_ranged_22_lb: [ 1 x_10_ ^ 2 - 2 x_15_ * x_10_ + 1 x_15_ ^ 2 + 1 y_10_ ^ 2 - 2 y_15_ * y_10_ + 1 y_15_ ^ 2 ] >= 8023.95
quadratic_ranged_23_lb: [ 1 x_12_ ^ 2 - 2 x_15_ * x_12_ + 1 x_15_ ^ 2 + 1 y_12_ ^ 2 - 2 y_15_ * y_12_ + 1 y_15_ ^ 2 ] >= 12137.4
quadratic_ranged_24_lb: [ 1 x_4_ ^ 2 - 2 x_16_ * x_4_ + 1 x_16_ ^ 2 + 1 y_4_ ^ 2 - 2 y_16_ * y_4_ + 1 y_16_ ^ 2 ] >= 11730.51
quadratic_ranged_25_lb: [ 1 x_8_ ^ 2 - 2 x_16_ * x_8_ + 1 x_16_ ^ 2 + 1 y_8_ ^ 2 - 2 y_16_ * y_8_ + 1 y_16_ ^ 2 ] >= 19915.829999999998
quadratic_ranged_26_lb: [ 1 x_12_ ^ 2 - 2 x_16_ * x_12_ + 1 x_16_ ^ 2 + 1 y_12_ ^ 2 - 2 y_16_ * y_12_ + 1 y_16_ ^ 2 ] >= 2344.32
quadratic_ranged_27_lb: [ 1 x_1_ ^ 2 - 2 x_17_ * x_1_ + 1 x_17_ ^ 2 + 1 y_1_ ^ 2 - 2 y_17_ * y_1_ + 1 y_17_ ^ 2 ] >= 10664.28
quadratic_ranged_28_lb: [ 1 x_9_ ^ 2 - 2 x_17_ * x_9_ + 1 x_17_ ^ 2 + 1 y_9_ ^ 2 - 2 y_17_ * y_9_ + 1 y_17_ ^ 2 ] >= 25804.35
quadratic_ranged_29_lb: [ 1 x_10_ ^ 2 - 2 x_17_ * x_10_ + 1 x_17_ ^ 2 + 1 y_10_ ^ 2 - 2 y_17_ * y_10_ + 1 y_17_ ^ 2 ] >= 26605.26
quadratic_ranged_30_lb: [ 1 x_1_ ^ 2 - 2 x_18_ * x_1_ + 1 x_18_ ^ 2 + 1 y_1_ ^ 2 - 2 y_18_ * y_1_ + 1 y_18_ ^ 2 ] >= 4999.5
quadratic_ranged_31_lb: [ 1 x_2_ ^ 2 - 2 x_18_ * x_2_ + 1 x_18_ ^ 2 + 1 y_2_ ^ 2 - 2 y_18_ * y_2_ + 1 y_18_ ^ 2 ] >= 17084.43
quadratic_ranged_32_lb: [ 1 x_12_ ^ 2 - 2 x_18_ * x_12_ + 1 x_18_ ^ 2 + 1 y_12_ ^ 2 - 2 y_18_ * y_12_ + 1 y_18_ ^ 2 ] >= 11326.59
quadratic_ranged_33_lb: [ 1 x_1_ ^ 2 - 2 x_19_ * x_1_ + 1 x_19_ ^ 2 + 1 y_1_ ^ 2 - 2 y_19_ * y_1_ + 1 y_19_ ^ 2 ] >= 13996.619999999999
quadratic_ranged_34_lb: [ 1 x_2_ ^ 2 - 2 x_19_ * x_2_ + 1 x_19_ ^ 2 + 1 y_2_ ^ 2 - 2 y_19_ * y_2_ + 1 y_19_ ^ 2 ] >= 7548.75
quadratic_ranged_35_lb: [ 1 x_11_ ^ 2 - 2 x_19_ * x_11_ + 1 x_19_ ^ 2 + 1 y_11_ ^ 2 - 2 y_19_ * y_11_ + 1 y_19_ ^ 2 ] >= 6924.0599999999995
quadratic_ranged_36_lb: [ 1 x_1_ ^ 2 - 2 x_20_ * x_1_ + 1 x_20_ ^ 2 + 1 y_1_ ^ 2 - 2 y_20_ * y_1_ + 1 y_20_ ^ 2 ] >= 9507.96
quadratic_ranged_37_lb: [ 1 x_5_ ^ 2 - 2 x_20_ * x_5_ + 1 x_20_ ^ 2 + 1 y_5_ ^ 2 - 2 y_20_ * y_5_ + 1 y_20_ ^ 2 ] >= 10012.86
quadratic_ranged_38_lb: [ 1 x_6_ ^ 2 - 2 x_20_ * x_6_ + 1 x_20_ ^ 2 + 1 y_6_ ^ 2 - 2 y_20_ * y_6_ + 1 y_20_ ^ 2 ] >= 2190.87
c1_1: 1 x_17_ = 31
c2_1: 1 y_17_ = 63
c3_1: 1 x_13_ = -11
c4_1: 1 y_13_ = 37
c5_1: 1 x_18_ = -8
c6_1: 1 y_18_ = 64
Bounds
-73 <= x_1_ <= 63
-140 <= x_2_ <= 124
-151 <= x_3_ <= 129
-186 <= x_4_ <= 167
-194 <= x_5_ <= 172
-219 <= x_6_ <= 209
-313 <= x_7_ <= 291
-107 <= x_8_ <= 85
-131 <= x_9_ <= 193
-133 <= x_10_ <= 160
-156 <= x_11_ <= 147
-102 <= x_12_ <= 80
x_13_ = -11
-47 <= x_14_ <= 25
-213 <= x_15_ <= 191
-151 <= x_16_ <= 129
x_17_ = 31
x_18_ = -8
-192 <= x_19_ <= 182
-171 <= x_20_ <= 161
-7 <= y_1_ <= 135
-68 <= y_2_ <= 196
-100 <= y_3_ <= 177
-141 <= y_4_ <= 215
-146 <= y_5_ <= 220
-153 <= y_6_ <= 281
-262 <= y_7_ <= 339
-59 <= y_8_ <= 133
-99 <= y_9_ <= 225
-101 <= y_10_ <= 208
-91 <= y_11_ <= 219
-43 <= y_12_ <= 128
y_13_ = 37
1 <= y_14_ <= 73
-154 <= y_15_ <= 239
-92 <= y_16_ <= 177
y_17_ = 63
y_18_ = 64
-126 <= y_19_ <= 254
-105 <= y_20_ <= 233
General
x_1_
x_2_
x_3_
x_4_
x_5_
x_6_
x_7_
x_8_
x_9_
x_10_
x_11_
x_12_
x_13_
x_14_
x_15_
x_16_
x_17_
x_18_
x_19_
x_20_
y_1_
y_2_
y_3_
y_4_
y_5_
y_6_
y_7_
y_8_
y_9_
y_10_
y_11_
y_12_
y_13_
y_14_
y_15_
y_16_
y_17_
y_18_
y_19_
y_20_
End
