minimize
obj: 
subject to
c1: 148 x_1_ + 10 y_1_ + [ 1 x_1_ ^ 2 + 1 y_1_ ^ 2 ] <= 24047.524648576786
c2: 148 x_2_ + 10 y_2_ + [ 1 x_2_ ^ 2 + 1 y_2_ ^ 2 ] <= 20899.065220192046
c3: 148 x_3_ + 10 y_3_ + [ 1 x_3_ ^ 2 + 1 y_3_ ^ 2 ] <= 82332.4222588731
c4: 148 x_4_ + 10 y_4_ + [ 1 x_4_ ^ 2 + 1 y_4_ ^ 2 ] <= 30605.907618987985
c5: 148 x_5_ + 10 y_5_ + [ 1 x_5_ ^ 2 + 1 y_5_ ^ 2 ] <= 47151.67740947255
c6: 148 x_6_ + 10 y_6_ + [ 1 x_6_ ^ 2 + 1 y_6_ ^ 2 ] <= 1902.300000000001
c7: 148 x_7_ + 10 y_7_ + [ 1 x_7_ ^ 2 + 1 y_7_ ^ 2 ] <= 107749.06435885593
c8: 148 x_8_ + 10 y_8_ + [ 1 x_8_ ^ 2 + 1 y_8_ ^ 2 ] <= 38637.7577500924
c9: 148 x_9_ + 10 y_9_ + [ 1 x_9_ ^ 2 + 1 y_9_ ^ 2 ] <= 82988.61436743187
c10: 148 x_10_ + 10 y_10_ + [ 1 x_10_ ^ 2 + 1 y_10_ ^ 2 ] <= 8781.682420775314
c11: 148 x_11_ + 10 y_11_ + [ 1 x_11_ ^ 2 + 1 y_11_ ^ 2 ] <= 72862.29649296103
c12: 148 x_12_ + 10 y_12_ + [ 1 x_12_ ^ 2 + 1 y_12_ ^ 2 ] <= 72327.27360521081
c13: 148 x_14_ + 10 y_14_ + [ 1 x_14_ ^ 2 + 1 y_14_ ^ 2 ] <= -5206.08
c14: 148 x_15_ + 10 y_15_ + [ 1 x_15_ ^ 2 + 1 y_15_ ^ 2 ] <= 41071.060399358874
c15: 148 x_16_ + 10 y_16_ + [ 1 x_16_ ^ 2 + 1 y_16_ ^ 2 ] <= 116069.61544861064
c16: 148 x_17_ + 10 y_17_ + [ 1 x_17_ ^ 2 + 1 y_17_ ^ 2 ] <= 30037.535644023854
c17: 148 x_18_ + 10 y_18_ + [ 1 x_18_ ^ 2 + 1 y_18_ ^ 2 ] <= 27200.779999999995
c18: 148 x_19_ + 10 y_19_ + [ 1 x_19_ ^ 2 + 1 y_19_ ^ 2 ] <= 7288.423782632655
c19: 148 x_20_ + 10 y_20_ + [ 1 x_20_ ^ 2 + 1 y_20_ ^ 2 ] <= 25978.885767965618
c20: 94 x_1_ + 114 y_1_ + [ 1 x_1_ ^ 2 + 1 y_1_ ^ 2 ] <= 10311.129999999996
c21: 94 x_2_ + 114 y_2_ + [ 1 x_2_ ^ 2 + 1 y_2_ ^ 2 ] <= 77410.0692787217
c22: 94 x_3_ + 114 y_3_ + [ 1 x_3_ ^ 2 + 1 y_3_ ^ 2 ] <= 30912.1
c23: 94 x_4_ + 114 y_4_ + [ 1 x_4_ ^ 2 + 1 y_4_ ^ 2 ] <= 76416.66307067413
c24: 94 x_5_ + 114 y_5_ + [ 1 x_5_ ^ 2 + 1 y_5_ ^ 2 ] <= 109351.45842312025
c25: 94 x_6_ + 114 y_6_ + [ 1 x_6_ ^ 2 + 1 y_6_ ^ 2 ] <= 39244.47924342034
c26: 94 x_7_ + 114 y_7_ + [ 1 x_7_ ^ 2 + 1 y_7_ ^ 2 ] <= 1072.659999999998
c27: 94 x_8_ + 114 y_8_ + [ 1 x_8_ ^ 2 + 1 y_8_ ^ 2 ] <= 67729.42092538127
c28: 94 x_10_ + 114 y_10_ + [ 1 x_10_ ^ 2 + 1 y_10_ ^ 2 ] <= 54516.71395378317
c29: 94 x_11_ + 114 y_11_ + [ 1 x_11_ ^ 2 + 1 y_11_ ^ 2 ] <= 33964.32318958626
c30: 94 x_12_ + 114 y_12_ + [ 1 x_12_ ^ 2 + 1 y_12_ ^ 2 ] <= 26386.639337650704
c31: 94 x_13_ + 114 y_13_ + [ 1 x_13_ ^ 2 + 1 y_13_ ^ 2 ] <= 83031.61436743187
c32: 94 x_14_ + 114 y_14_ + [ 1 x_14_ ^ 2 + 1 y_14_ ^ 2 ] <= 85089.8826557611
c33: 94 x_15_ + 114 y_15_ + [ 1 x_15_ ^ 2 + 1 y_15_ ^ 2 ] <= 29469.00304221119
c34: 94 x_16_ + 114 y_16_ + [ 1 x_16_ ^ 2 + 1 y_16_ ^ 2 ] <= 3182.7826033019483
c35: 94 x_17_ + 114 y_17_ + [ 1 x_17_ ^ 2 + 1 y_17_ ^ 2 ] <= 46901.64314959214
c36: 94 x_18_ + 114 y_18_ + [ 1 x_18_ ^ 2 + 1 y_18_ ^ 2 ] <= 122037.37975411465
c37: 94 x_19_ + 114 y_19_ + [ 1 x_19_ ^ 2 + 1 y_19_ ^ 2 ] <= 36564.8076151156
c38: 94 x_20_ + 114 y_20_ + [ 1 x_20_ ^ 2 + 1 y_20_ ^ 2 ] <= 83781.58175030844
c39: 116 x_1_ - 16 y_1_ + [ 1 x_1_ ^ 2 + 1 y_1_ ^ 2 ] <= 22352.25
c40: 116 x_2_ - 16 y_2_ + [ 1 x_2_ ^ 2 + 1 y_2_ ^ 2 ] <= 29121.313540461102
c41: 116 x_3_ - 16 y_3_ + [ 1 x_3_ ^ 2 + 1 y_3_ ^ 2 ] <= 95356.71255853705
c42: 116 x_5_ - 16 y_5_ + [ 1 x_5_ ^ 2 + 1 y_5_ ^ 2 ] <= 55952.65169747788
c43: 116 x_6_ - 16 y_6_ + [ 1 x_6_ ^ 2 + 1 y_6_ ^ 2 ] <= 7382.955690195868
c44: 116 x_7_ - 16 y_7_ + [ 1 x_7_ ^ 2 + 1 y_7_ ^ 2 ] <= 45472.5216632891
c45: 116 x_8_ - 16 y_8_ + [ 1 x_8_ ^ 2 + 1 y_8_ ^ 2 ] <= 378.68999999999915
c46: 116 x_9_ - 16 y_9_ + [ 1 x_9_ ^ 2 + 1 y_9_ ^ 2 ] <= 78446.66307067413
c47: 116 x_10_ - 16 y_10_ + [ 1 x_10_ ^ 2 + 1 y_10_ ^ 2 ] <= 1543.3780662266054
c48: 116 x_11_ - 16 y_11_ + [ 1 x_11_ ^ 2 + 1 y_11_ ^ 2 ] <= 7262.85
c49: 116 x_12_ - 16 y_12_ + [ 1 x_12_ ^ 2 + 1 y_12_ ^ 2 ] <= 84727.84869077815
c50: 116 x_13_ - 16 y_13_ + [ 1 x_13_ ^ 2 + 1 y_13_ ^ 2 ] <= 32678.907618987985
c51: 116 x_14_ - 16 y_14_ + [ 1 x_14_ ^ 2 + 1 y_14_ ^ 2 ] <= 35643.18951174776
c52: 116 x_15_ - 16 y_15_ + [ 1 x_15_ ^ 2 + 1 y_15_ ^ 2 ] <= 24395.384544116852
c53: 116 x_16_ - 16 y_16_ + [ 1 x_16_ ^ 2 + 1 y_16_ ^ 2 ] <= 50990.594635555346
c54: 116 x_17_ - 16 y_17_ + [ 1 x_17_ ^ 2 + 1 y_17_ ^ 2 ] <= 39193.59686307661
c55: 116 x_18_ - 16 y_18_ + [ 1 x_18_ ^ 2 + 1 y_18_ ^ 2 ] <= 29942.37404350806
c56: 116 x_19_ - 16 y_19_ + [ 1 x_19_ ^ 2 + 1 y_19_ ^ 2 ] <= 6924.5
c57: 116 x_20_ - 16 y_20_ + [ 1 x_20_ ^ 2 + 1 y_20_ ^ 2 ] <= -3269.43
quadratic_ranged_1_ub: [ 1 x_2_ ^ 2 - 2 x_3_ * x_2_ + 1 x_3_ ^ 2 + 1 y_2_ ^ 2 - 2 y_3_ * y_2_ + 1 y_3_ ^ 2 ] <= 17925.48
quadratic_ranged_2_ub: [ 1 x_1_ ^ 2 - 2 x_4_ * x_1_ + 1 x_4_ ^ 2 + 1 y_1_ ^ 2 - 2 y_4_ * y_1_ + 1 y_4_ ^ 2 ] <= 25780.25
quadratic_ranged_3_ub: [ 1 x_2_ ^ 2 - 2 x_5_ * x_2_ + 1 x_5_ ^ 2 + 1 y_2_ ^ 2 - 2 y_5_ * y_2_ + 1 y_5_ ^ 2 ] <= 4486.42
quadratic_ranged_4_ub: [ 1 x_3_ ^ 2 - 2 x_5_ * x_3_ + 1 x_5_ ^ 2 + 1 y_3_ ^ 2 - 2 y_5_ * y_3_ + 1 y_5_ ^ 2 ] <= 32822.98
quadratic_ranged_5_ub: [ 1 x_1_ ^ 2 - 2 x_6_ * x_1_ + 1 x_6_ ^ 2 + 1 y_1_ ^ 2 - 2 y_6_ * y_1_ + 1 y_6_ ^ 2 ] <= 7370.9800000000005
quadratic_ranged_6_ub: [ 1 x_2_ ^ 2 - 2 x_6_ * x_2_ + 1 x_6_ ^ 2 + 1 y_2_ ^ 2 - 2 y_6_ * y_2_ + 1 y_6_ ^ 2 ] <= 5842.85
quadratic_ranged_7_ub: [ 1 x_2_ ^ 2 - 2 x_8_ * x_2_ + 1 x_8_ ^ 2 + 1 y_2_ ^ 2 - 2 y_8_ * y_2_ + 1 y_8_ ^ 2 ] <= 38894.090000000004
quadratic_ranged_8_ub: [ 1 x_4_ ^ 2 - 2 x_8_ * x_4_ + 1 x_8_ ^ 2 + 1 y_4_ ^ 2 - 2 y_8_ * y_4_ + 1 y_8_ ^ 2 ] <= 3806.69
quadratic_ranged_9_ub: [ 1 x_6_ ^ 2 - 2 x_8_ * x_6_ + 1 x_8_ ^ 2 + 1 y_6_ ^ 2 - 2 y_8_ * y_6_ + 1 y_8_ ^ 2 ] <= 15388.36
quadratic_ranged_10_ub: [ 1 x_1_ ^ 2 - 2 x_9_ * x_1_ + 1 x_9_ ^ 2 + 1 y_1_ ^ 2 - 2 y_9_ * y_1_ + 1 y_9_ ^ 2 ] <= 15769.130000000001
quadratic_ranged_11_ub: [ 1 x_3_ ^ 2 - 2 x_9_ * x_3_ + 1 x_9_ ^ 2 + 1 y_3_ ^ 2 - 2 y_9_ * y_3_ + 1 y_9_ ^ 2 ] <= 36370.1
quadratic_ranged_12_ub: [ 1 x_7_ ^ 2 - 2 x_9_ * x_7_ + 1 x_9_ ^ 2 + 1 y_7_ ^ 2 - 2 y_9_ * y_7_ + 1 y_9_ ^ 2 ] <= 6530.66
quadratic_ranged_13_ub: [ 1 x_6_ ^ 2 - 2 x_10_ * x_6_ + 1 x_10_ ^ 2 + 1 y_6_ ^ 2 - 2 y_10_ * y_6_ + 1 y_10_ ^ 2 ] <= 1120.09
quadratic_ranged_14_ub: [ 1 x_4_ ^ 2 - 2 x_11_ * x_4_ + 1 x_11_ ^ 2 + 1 y_4_ ^ 2 - 2 y_11_ * y_4_ + 1 y_11_ ^ 2 ] <= 10690.85
quadratic_ranged_15_ub: [ 1 x_5_ ^ 2 - 2 x_11_ * x_5_ + 1 x_11_ ^ 2 + 1 y_5_ ^ 2 - 2 y_11_ * y_5_ + 1 y_11_ ^ 2 ] <= 19679.85
quadratic_ranged_16_ub: [ 1 x_7_ ^ 2 - 2 x_11_ * x_7_ + 1 x_11_ ^ 2 + 1 y_7_ ^ 2 - 2 y_11_ * y_7_ + 1 y_11_ ^ 2 ] <= 13862.25
quadratic_ranged_17_ub: [ 1 x_2_ ^ 2 - 2 x_12_ * x_2_ + 1 x_12_ ^ 2 + 1 y_2_ ^ 2 - 2 y_12_ * y_2_ + 1 y_12_ ^ 2 ] <= 13571.37
quadratic_ranged_18_ub: [ 1 x_3_ ^ 2 - 2 x_12_ * x_3_ + 1 x_12_ ^ 2 + 1 y_3_ ^ 2 - 2 y_12_ * y_3_ + 1 y_12_ ^ 2 ] <= 30042.45
quadratic_ranged_19_ub: [ 1 x_6_ ^ 2 - 2 x_13_ * x_6_ + 1 x_13_ ^ 2 + 1 y_6_ ^ 2 - 2 y_13_ * y_6_ + 1 y_13_ ^ 2 ] <= 7403.3
quadratic_ranged_20_ub: [ 1 x_2_ ^ 2 - 2 x_14_ * x_2_ + 1 x_14_ ^ 2 + 1 y_2_ ^ 2 - 2 y_14_ * y_2_ + 1 y_14_ ^ 2 ] <= 22144.25
quadratic_ranged_21_ub: [ 1 x_13_ ^ 2 - 2 x_14_ * x_13_ + 1 x_14_ ^ 2 + 1 y_13_ ^ 2 - 2 y_14_ * y_13_ + 1 y_14_ ^ 2 ] <= 294.92
quadratic_ranged_22_ub: [ 1 x_1_ ^ 2 - 2 x_15_ * x_1_ + 1 x_15_ ^ 2 + 1 y_1_ ^ 2 - 2 y_15_ * y_1_ + 1 y_15_ ^ 2 ] <= 3759.2200000000003
quadratic_ranged_23_ub: [ 1 x_10_ ^ 2 - 2 x_15_ * x_10_ + 1 x_15_ ^ 2 + 1 y_10_ ^ 2 - 2 y_15_ * y_10_ + 1 y_15_ ^ 2 ] <= 9272.81
quadratic_ranged_24_ub: [ 1 x_7_ ^ 2 - 2 x_16_ * x_7_ + 1 x_16_ ^ 2 + 1 y_7_ ^ 2 - 2 y_16_ * y_7_ + 1 y_16_ ^ 2 ] <= 147.46
quadratic_ranged_25_ub: [ 1 x_8_ ^ 2 - 2 x_16_ * x_8_ + 1 x_16_ ^ 2 + 1 y_8_ ^ 2 - 2 y_16_ * y_8_ + 1 y_16_ ^ 2 ] <= 31533.21
quadratic_ranged_26_ub: [ 1 x_12_ ^ 2 - 2 x_16_ * x_12_ + 1 x_16_ ^ 2 + 1 y_12_ ^ 2 - 2 y_16_ * y_12_ + 1 y_16_ ^ 2 ] <= 7309.37
quadratic_ranged_27_ub: [ 1 x_6_ ^ 2 - 2 x_17_ * x_6_ + 1 x_17_ ^ 2 + 1 y_6_ ^ 2 - 2 y_17_ * y_6_ + 1 y_17_ ^ 2 ] <= 10500.97
quadratic_ranged_28_ub: [ 1 x_7_ ^ 2 - 2 x_17_ * x_7_ + 1 x_17_ ^ 2 + 1 y_7_ ^ 2 - 2 y_17_ * y_7_ + 1 y_17_ ^ 2 ] <= 21906.9
quadratic_ranged_29_ub: [ 1 x_15_ ^ 2 - 2 x_17_ * x_15_ + 1 x_17_ ^ 2 + 1 y_15_ ^ 2 - 2 y_17_ * y_15_ + 1 y_17_ ^ 2 ] <= 11466.53
quadratic_ranged_30_ub: [ 1 x_5_ ^ 2 - 2 x_18_ * x_5_ + 1 x_18_ ^ 2 + 1 y_5_ ^ 2 - 2 y_18_ * y_5_ + 1 y_18_ ^ 2 ] <= 6279.17
quadratic_ranged_31_ub: [ 1 x_10_ ^ 2 - 2 x_18_ * x_10_ + 1 x_18_ ^ 2 + 1 y_10_ ^ 2 - 2 y_18_ * y_10_ + 1 y_18_ ^ 2 ] <= 12581.57
quadratic_ranged_32_ub: [ 1 x_13_ ^ 2 - 2 x_18_ * x_13_ + 1 x_18_ ^ 2 + 1 y_13_ ^ 2 - 2 y_18_ * y_13_ + 1 y_18_ ^ 2 ] <= 32701.78
quadratic_ranged_33_ub: [ 1 x_1_ ^ 2 - 2 x_19_ * x_1_ + 1 x_19_ ^ 2 + 1 y_1_ ^ 2 - 2 y_19_ * y_1_ + 1 y_19_ ^ 2 ] <= 6307.45
quadratic_ranged_34_ub: [ 1 x_4_ ^ 2 - 2 x_19_ * x_4_ + 1 x_19_ ^ 2 + 1 y_4_ ^ 2 - 2 y_19_ * y_4_ + 1 y_19_ ^ 2 ] <= 10352.5
quadratic_ranged_35_ub: [ 1 x_14_ ^ 2 - 2 x_19_ * x_14_ + 1 x_19_ ^ 2 + 1 y_14_ ^ 2 - 2 y_19_ * y_14_ + 1 y_19_ ^ 2 ] <= 9200.09
quadratic_ranged_36_ub: [ 1 x_4_ ^ 2 - 2 x_20_ * x_4_ + 1 x_20_ ^ 2 + 1 y_4_ ^ 2 - 2 y_20_ * y_4_ + 1 y_20_ ^ 2 ] <= 158.57
quadratic_ranged_37_ub: [ 1 x_10_ ^ 2 - 2 x_20_ * x_10_ + 1 x_20_ ^ 2 + 1 y_10_ ^ 2 - 2 y_20_ * y_10_ + 1 y_20_ ^ 2 ] <= 3354.21
quadratic_ranged_38_ub: [ 1 x_11_ ^ 2 - 2 x_20_ * x_11_ + 1 x_20_ ^ 2 + 1 y_11_ ^ 2 - 2 y_20_ * y_11_ + 1 y_20_ ^ 2 ] <= 10508.04
quadratic_ranged_1_lb: [ 1 x_2_ ^ 2 - 2 x_3_ * x_2_ + 1 x_3_ ^ 2 + 1 y_2_ ^ 2 - 2 y_3_ * y_2_ + 1 y_3_ ^ 2 ] >= 17570.52
quadratic_ranged_2_lb: [ 1 x_1_ ^ 2 - 2 x_4_ * x_1_ + 1 x_4_ ^ 2 + 1 y_1_ ^ 2 - 2 y_4_ * y_1_ + 1 y_4_ ^ 2 ] >= 25269.75
quadratic_ranged_3_lb: [ 1 x_2_ ^ 2 - 2 x_5_ * x_2_ + 1 x_5_ ^ 2 + 1 y_2_ ^ 2 - 2 y_5_ * y_2_ + 1 y_5_ ^ 2 ] >= 4397.58
quadratic_ranged_4_lb: [ 1 x_3_ ^ 2 - 2 x_5_ * x_3_ + 1 x_5_ ^ 2 + 1 y_3_ ^ 2 - 2 y_5_ * y_3_ + 1 y_5_ ^ 2 ] >= 32173.02
quadratic_ranged_5_lb: [ 1 x_1_ ^ 2 - 2 x_6_ * x_1_ + 1 x_6_ ^ 2 + 1 y_1_ ^ 2 - 2 y_6_ * y_1_ + 1 y_6_ ^ 2 ] >= 7225.0199999999995
quadratic_ranged_6_lb: [ 1 x_2_ ^ 2 - 2 x_6_ * x_2_ + 1 x_6_ ^ 2 + 1 y_2_ ^ 2 - 2 y_6_ * y_2_ + 1 y_6_ ^ 2 ] >= 5727.15
quadratic_ranged_7_lb: [ 1 x_2_ ^ 2 - 2 x_8_ * x_2_ + 1 x_8_ ^ 2 + 1 y_2_ ^ 2 - 2 y_8_ * y_2_ + 1 y_8_ ^ 2 ] >= 38123.909999999996
quadratic_ranged_8_lb: [ 1 x_4_ ^ 2 - 2 x_8_ * x_4_ + 1 x_8_ ^ 2 + 1 y_4_ ^ 2 - 2 y_8_ * y_4_ + 1 y_8_ ^ 2 ] >= 3731.31
quadratic_ranged_9_lb: [ 1 x_6_ ^ 2 - 2 x_8_ * x_6_ + 1 x_8_ ^ 2 + 1 y_6_ ^ 2 - 2 y_8_ * y_6_ + 1 y_8_ ^ 2 ] >= 15083.64
quadratic_ranged_10_lb: [ 1 x_1_ ^ 2 - 2 x_9_ * x_1_ + 1 x_9_ ^ 2 + 1 y_1_ ^ 2 - 2 y_9_ * y_1_ + 1 y_9_ ^ 2 ] >= 15456.869999999999
quadratic_ranged_11_lb: [ 1 x_3_ ^ 2 - 2 x_9_ * x_3_ + 1 x_9_ ^ 2 + 1 y_3_ ^ 2 - 2 y_9_ * y_3_ + 1 y_9_ ^ 2 ] >= 35649.9
quadratic_ranged_12_lb: [ 1 x_7_ ^ 2 - 2 x_9_ * x_7_ + 1 x_9_ ^ 2 + 1 y_7_ ^ 2 - 2 y_9_ * y_7_ + 1 y_9_ ^ 2 ] >= 6401.34
quadratic_ranged_13_lb: [ 1 x_6_ ^ 2 - 2 x_10_ * x_6_ + 1 x_10_ ^ 2 + 1 y_6_ ^ 2 - 2 y_10_ * y_6_ + 1 y_10_ ^ 2 ] >= 1097.91
quadratic_ranged_14_lb: [ 1 x_4_ ^ 2 - 2 x_11_ * x_4_ + 1 x_11_ ^ 2 + 1 y_4_ ^ 2 - 2 y_11_ * y_4_ + 1 y_11_ ^ 2 ] >= 10479.15
quadratic_ranged_15_lb: [ 1 x_5_ ^ 2 - 2 x_11_ * x_5_ + 1 x_11_ ^ 2 + 1 y_5_ ^ 2 - 2 y_11_ * y_5_ + 1 y_11_ ^ 2 ] >= 19290.15
quadratic_ranged_16_lb: [ 1 x_7_ ^ 2 - 2 x_11_ * x_7_ + 1 x_11_ ^ 2 + 1 y_7_ ^ 2 - 2 y_11_ * y_7_ + 1 y_11_ ^ 2 ] >= 13587.75
quadratic_ranged_17_lb: [ 1 x_2_ ^ 2 - 2 x_12_ * x_2_ + 1 x_12_ ^ 2 + 1 y_2_ ^ 2 - 2 y_12_ * y_2_ + 1 y_12_ ^ 2 ] >= 13302.63
quadratic_ranged_18_lb: [ 1 x_3_ ^ 2 - 2 x_12_ * x_3_ + 1 x_12_ ^ 2 + 1 y_3_ ^ 2 - 2 y_12_ * y_3_ + 1 y_12_ ^ 2 ] >= 29447.55
quadratic_ranged_19_lb: [ 1 x_6_ ^ 2 - 2 x_13_ * x_6_ + 1 x_13_ ^ 2 + 1 y_6_ ^ 2 - 2 y_13_ * y_6_ + 1 y_13_ ^ 2 ] >= 7256.7
quadratic_ranged_20_lb: [ 1 x_2_ ^ 2 - 2 x_14_ * x_2_ + 1 x_14_ ^ 2 + 1 y_2_ ^ 2 - 2 y_14_ * y_2_ + 1 y_14_ ^ 2 ] >= 21705.75
quadratic_ranged_21_lb: [ 1 x_13_ ^ 2 - 2 x_14_ * x_13_ + 1 x_14_ ^ 2 + 1 y_13_ ^ 2 - 2 y_14_ * y_13_ + 1 y_14_ ^ 2 ] >= 289.08
quadratic_ranged_22_lb: [ 1 x_1_ ^ 2 - 2 x_15_ * x_1_ + 1 x_15_ ^ 2 + 1 y_1_ ^ 2 - 2 y_15_ * y_1_ + 1 y_15_ ^ 2 ] >= 3684.7799999999997
quadratic_ranged_23_lb: [ 1 x_10_ ^ 2 - 2 x_15_ * x_10_ + 1 x_15_ ^ 2 + 1 y_10_ ^ 2 - 2 y_15_ * y_10_ + 1 y_15_ ^ 2 ] >= 9089.19
quadratic_ranged_24_lb: [ 1 x_7_ ^ 2 - 2 x_16_ * x_7_ + 1 x_16_ ^ 2 + 1 y_7_ ^ 2 - 2 y_16_ * y_7_ + 1 y_16_ ^ 2 ] >= 144.54
quadratic_ranged_25_lb: [ 1 x_8_ ^ 2 - 2 x_16_ * x_8_ + 1 x_16_ ^ 2 + 1 y_8_ ^ 2 - 2 y_16_ * y_8_ + 1 y_16_ ^ 2 ] >= 30908.79
quadratic_ranged_26_lb: [ 1 x_12_ ^ 2 - 2 x_16_ * x_12_ + 1 x_16_ ^ 2 + 1 y_12_ ^ 2 - 2 y_16_ * y_12_ + 1 y_16_ ^ 2 ] >= 7164.63
quadratic_ranged_27_lb: [ 1 x_6_ ^ 2 - 2 x_17_ * x_6_ + 1 x_17_ ^ 2 + 1 y_6_ ^ 2 - 2 y_17_ * y_6_ + 1 y_17_ ^ 2 ] >= 10293.03
quadratic_ranged_28_lb: [ 1 x_7_ ^ 2 - 2 x_17_ * x_7_ + 1 x_17_ ^ 2 + 1 y_7_ ^ 2 - 2 y_17_ * y_7_ + 1 y_17_ ^ 2 ] >= 21473.1
quadratic_ranged_29_lb: [ 1 x_15_ ^ 2 - 2 x_17_ * x_15_ + 1 x_17_ ^ 2 + 1 y_15_ ^ 2 - 2 y_17_ * y_15_ + 1 y_17_ ^ 2 ] >= 11239.47
quadratic_ranged_30_lb: [ 1 x_5_ ^ 2 - 2 x_18_ * x_5_ + 1 x_18_ ^ 2 + 1 y_5_ ^ 2 - 2 y_18_ * y_5_ + 1 y_18_ ^ 2 ] >= 6154.83
quadratic_ranged_31_lb: [ 1 x_10_ ^ 2 - 2 x_18_ * x_10_ + 1 x_18_ ^ 2 + 1 y_10_ ^ 2 - 2 y_18_ * y_10_ + 1 y_18_ ^ 2 ] >= 12332.43
quadratic_ranged_32_lb: [ 1 x_13_ ^ 2 - 2 x_18_ * x_13_ + 1 x_18_ ^ 2 + 1 y_13_ ^ 2 - 2 y_18_ * y_13_ + 1 y_18_ ^ 2 ] >= 32054.22
quadratic_ranged_33_lb: [ 1 x_1_ ^ 2 - 2 x_19_ * x_1_ + 1 x_19_ ^ 2 + 1 y_1_ ^ 2 - 2 y_19_ * y_1_ + 1 y_19_ ^ 2 ] >= 6182.55
quadratic_ranged_34_lb: [ 1 x_4_ ^ 2 - 2 x_19_ * x_4_ + 1 x_19_ ^ 2 + 1 y_4_ ^ 2 - 2 y_19_ * y_4_ + 1 y_19_ ^ 2 ] >= 10147.5
quadratic_ranged_35_lb: [ 1 x_14_ ^ 2 - 2 x_19_ * x_14_ + 1 x_19_ ^ 2 + 1 y_14_ ^ 2 - 2 y_19_ * y_14_ + 1 y_19_ ^ 2 ] >= 9017.91
quadratic_ranged_36_lb: [ 1 x_4_ ^ 2 - 2 x_20_ * x_4_ + 1 x_20_ ^ 2 + 1 y_4_ ^ 2 - 2 y_20_ * y_4_ + 1 y_20_ ^ 2 ] >= 155.43
quadratic_ranged_37_lb: [ 1 x_10_ ^ 2 - 2 x_20_ * x_10_ + 1 x_20_ ^ 2 + 1 y_10_ ^ 2 - 2 y_20_ * y_10_ + 1 y_20_ ^ 2 ] >= 3287.79
quadratic_ranged_38_lb: [ 1 x_11_ ^ 2 - 2 x_20_ * x_11_ + 1 x_20_ ^ 2 + 1 y_11_ ^ 2 - 2 y_20_ * y_11_ + 1 y_20_ ^ 2 ] >= 10299.96
c1_1: 1 x_13_ = -74
c2_1: 1 y_13_ = -5
c3_1: 1 x_9_ = -47
c4_1: 1 y_9_ = -57
c5_1: 1 x_4_ = -58
c6_1: 1 y_4_ = 8
Bounds
-172 <= x_1_ <= 78
-236 <= x_2_ <= 88
-237 <= x_3_ <= 143
x_4_ = -58
-301 <= x_5_ <= 155
-160 <= x_6_ <= 12
-127 <= x_7_ <= 33
-119 <= x_8_ <= 3
x_9_ = -47
-128 <= x_10_ <= 12
-161 <= x_11_ <= 45
-225 <= x_12_ <= 131
x_13_ = -74
-91 <= x_14_ <= -57
-224 <= x_15_ <= 108
-139 <= x_16_ <= 45
-262 <= x_17_ <= 114
-240 <= x_18_ <= 106
-159 <= x_19_ <= 39
-70 <= x_20_ <= -46
-152 <= y_1_ <= 68
-167 <= y_2_ <= 157
-247 <= y_3_ <= 133
y_4_ = 8
-234 <= y_5_ <= 224
-91 <= y_6_ <= 81
-137 <= y_7_ <= 23
-53 <= y_8_ <= 69
y_9_ = -57
-62 <= y_10_ <= 78
-95 <= y_11_ <= 111
-235 <= y_12_ <= 121
y_13_ = -5
-22 <= y_14_ <= 12
-158 <= y_15_ <= 129
-149 <= y_16_ <= 35
-193 <= y_17_ <= 171
-174 <= y_18_ <= 175
-93 <= y_19_ <= 108
-4 <= y_20_ <= 20
General
x_1_
x_2_
x_3_
x_4_
x_5_
x_6_
x_7_
x_8_
x_9_
x_10_
x_11_
x_12_
x_13_
x_14_
x_15_
x_16_
x_17_
x_18_
x_19_
x_20_
y_1_
y_2_
y_3_
y_4_
y_5_
y_6_
y_7_
y_8_
y_9_
y_10_
y_11_
y_12_
y_13_
y_14_
y_15_
y_16_
y_17_
y_18_
y_19_
y_20_
End
