minimize
obj: 
subject to
c1: 182 x_1_ - 36 y_1_ + [ 1 x_1_ ^ 2 + 1 y_1_ ^ 2 ] <= 877.8899999999994
c2: 182 x_2_ - 36 y_2_ + [ 1 x_2_ ^ 2 + 1 y_2_ ^ 2 ] <= -5222.51
c3: 182 x_4_ - 36 y_4_ + [ 1 x_4_ ^ 2 + 1 y_4_ ^ 2 ] <= -7573.79
c4: 182 x_5_ - 36 y_5_ + [ 1 x_5_ ^ 2 + 1 y_5_ ^ 2 ] <= -131.7036097504424
c5: 182 x_6_ - 36 y_6_ + [ 1 x_6_ ^ 2 + 1 y_6_ ^ 2 ] <= 12895.45330387347
c6: 182 x_7_ - 36 y_7_ + [ 1 x_7_ ^ 2 + 1 y_7_ ^ 2 ] <= -825.3021311255088
c7: 182 x_8_ - 36 y_8_ + [ 1 x_8_ ^ 2 + 1 y_8_ ^ 2 ] <= -2416.2755345428905
c8: 182 x_9_ - 36 y_9_ + [ 1 x_9_ ^ 2 + 1 y_9_ ^ 2 ] <= 37578.42209095849
c9: 182 x_10_ - 36 y_10_ + [ 1 x_10_ ^ 2 + 1 y_10_ ^ 2 ] <= 29953.831548779337
c10: 182 x_11_ - 36 y_11_ + [ 1 x_11_ ^ 2 + 1 y_11_ ^ 2 ] <= -6361.790000000001
c11: 182 x_12_ - 36 y_12_ + [ 1 x_12_ ^ 2 + 1 y_12_ ^ 2 ] <= -767.4000000000024
c12: 182 x_13_ - 36 y_13_ + [ 1 x_13_ ^ 2 + 1 y_13_ ^ 2 ] <= 21740.66524427939
c13: 182 x_14_ - 36 y_14_ + [ 1 x_14_ ^ 2 + 1 y_14_ ^ 2 ] <= 9245.80596534075
c14: 182 x_15_ - 36 y_15_ + [ 1 x_15_ ^ 2 + 1 y_15_ ^ 2 ] <= 6721.706255273071
c15: 182 x_16_ - 36 y_16_ + [ 1 x_16_ ^ 2 + 1 y_16_ ^ 2 ] <= 18776.795345118255
c16: 182 x_17_ - 36 y_17_ + [ 1 x_17_ ^ 2 + 1 y_17_ ^ 2 ] <= 34949.06929758409
c17: 182 x_18_ - 36 y_18_ + [ 1 x_18_ ^ 2 + 1 y_18_ ^ 2 ] <= -6835.844693273571
c18: 182 x_19_ - 36 y_19_ + [ 1 x_19_ ^ 2 + 1 y_19_ ^ 2 ] <= 18592.249792737523
c19: 182 x_20_ - 36 y_20_ + [ 1 x_20_ ^ 2 + 1 y_20_ ^ 2 ] <= 22803.505633788707
c20: 108 x_1_ - 28 y_1_ + [ 1 x_1_ ^ 2 + 1 y_1_ ^ 2 ] <= 16331.920590592264
c21: 108 x_2_ - 28 y_2_ + [ 1 x_2_ ^ 2 + 1 y_2_ ^ 2 ] <= 6932.149832406125
c22: 108 x_3_ - 28 y_3_ + [ 1 x_3_ ^ 2 + 1 y_3_ ^ 2 ] <= -1342.8446932735708
c23: 108 x_4_ - 28 y_4_ + [ 1 x_4_ ^ 2 + 1 y_4_ ^ 2 ] <= -3013.02
c24: 108 x_5_ - 28 y_5_ + [ 1 x_5_ ^ 2 + 1 y_5_ ^ 2 ] <= 1772.1816759167505
c25: 108 x_6_ - 28 y_6_ + [ 1 x_6_ ^ 2 + 1 y_6_ ^ 2 ] <= 12379.96920999727
c26: 108 x_7_ - 28 y_7_ + [ 1 x_7_ ^ 2 + 1 y_7_ ^ 2 ] <= 1249.150344026435
c27: 108 x_8_ - 28 y_8_ + [ 1 x_8_ ^ 2 + 1 y_8_ ^ 2 ] <= 80.79887387124427
c28: 108 x_9_ - 28 y_9_ + [ 1 x_9_ ^ 2 + 1 y_9_ ^ 2 ] <= 37373.14979879791
c29: 108 x_10_ - 28 y_10_ + [ 1 x_10_ ^ 2 + 1 y_10_ ^ 2 ] <= 30256.314899743556
c30: 108 x_11_ - 28 y_11_ + [ 1 x_11_ ^ 2 + 1 y_11_ ^ 2 ] <= 4884.627785831834
c31: 108 x_12_ - 28 y_12_ + [ 1 x_12_ ^ 2 + 1 y_12_ ^ 2 ] <= 2488.449999999999
c32: 108 x_13_ - 28 y_13_ + [ 1 x_13_ ^ 2 + 1 y_13_ ^ 2 ] <= 20003.092193036828
c33: 108 x_14_ - 28 y_14_ + [ 1 x_14_ ^ 2 + 1 y_14_ ^ 2 ] <= 20418.853869224844
c34: 108 x_15_ - 28 y_15_ + [ 1 x_15_ ^ 2 + 1 y_15_ ^ 2 ] <= 24398.3368164045
c35: 108 x_16_ - 28 y_16_ + [ 1 x_16_ ^ 2 + 1 y_16_ ^ 2 ] <= 12118.8
c36: 108 x_17_ - 28 y_17_ + [ 1 x_17_ ^ 2 + 1 y_17_ ^ 2 ] <= 59767.29624090978
c37: 108 x_19_ - 28 y_19_ + [ 1 x_19_ ^ 2 + 1 y_19_ ^ 2 ] <= 19756.039013086833
c38: 108 x_20_ - 28 y_20_ + [ 1 x_20_ ^ 2 + 1 y_20_ ^ 2 ] <= 20931.870464223826
c39: -174 y_1_ + [ 1 x_1_ ^ 2 + 1 y_1_ ^ 2 ] <= 36980.29333232984
c40: -174 y_2_ + [ 1 x_2_ ^ 2 + 1 y_2_ ^ 2 ] <= 15092.369999999995
c41: -174 y_3_ + [ 1 x_3_ ^ 2 + 1 y_3_ ^ 2 ] <= 35985.06929758409
c42: -174 y_4_ + [ 1 x_4_ ^ 2 + 1 y_4_ ^ 2 ] <= 50419.770156365856
c43: -174 y_5_ + [ 1 x_5_ ^ 2 + 1 y_5_ ^ 2 ] <= 61484.85324722092
c44: -174 y_6_ + [ 1 x_6_ ^ 2 + 1 y_6_ ^ 2 ] <= 91256.83427399989
c45: -174 y_7_ + [ 1 x_7_ ^ 2 + 1 y_7_ ^ 2 ] <= 57935.27620880167
c46: -174 y_8_ + [ 1 x_8_ ^ 2 + 1 y_8_ ^ 2 ] <= 53535.65000501016
c47: -174 y_9_ + [ 1 x_9_ ^ 2 + 1 y_9_ ^ 2 ] <= -1124.1900000000005
c48: -174 y_10_ + [ 1 x_10_ ^ 2 + 1 y_10_ ^ 2 ] <= 18904.891901686442
c49: -174 y_11_ + [ 1 x_11_ ^ 2 + 1 y_11_ ^ 2 ] <= 57997.034826350544
c50: -174 y_12_ + [ 1 x_12_ ^ 2 + 1 y_12_ ^ 2 ] <= 35136.31303891533
c51: -174 y_13_ + [ 1 x_13_ ^ 2 + 1 y_13_ ^ 2 ] <= 12994.599999999995
c52: -174 y_14_ + [ 1 x_14_ ^ 2 + 1 y_14_ ^ 2 ] <= 43500.07073116227
c53: -174 y_15_ + [ 1 x_15_ ^ 2 + 1 y_15_ ^ 2 ] <= 71662.4076748102
c54: -174 y_16_ + [ 1 x_16_ ^ 2 + 1 y_16_ ^ 2 ] <= 99515.47722186208
c55: -174 y_18_ + [ 1 x_18_ ^ 2 + 1 y_18_ ^ 2 ] <= 55310.29624090978
c56: -174 y_19_ + [ 1 x_19_ ^ 2 + 1 y_19_ ^ 2 ] <= 9400.484098757599
c57: -174 y_20_ + [ 1 x_20_ ^ 2 + 1 y_20_ ^ 2 ] <= 20295.388004826807
quadratic_ranged_1_ub: [ 1 x_1_ ^ 2 - 2 x_3_ * x_1_ + 1 x_3_ ^ 2 + 1 y_1_ ^ 2 - 2 y_3_ * y_1_ + 1 y_3_ ^ 2 ] <= 9482.89
quadratic_ranged_2_ub: [ 1 x_2_ ^ 2 - 2 x_3_ * x_2_ + 1 x_3_ ^ 2 + 1 y_2_ ^ 2 - 2 y_3_ * y_2_ + 1 y_3_ ^ 2 ] <= 3382.4900000000002
quadratic_ranged_3_ub: [ 1 x_3_ ^ 2 - 2 x_4_ * x_3_ + 1 x_4_ ^ 2 + 1 y_3_ ^ 2 - 2 y_4_ * y_3_ + 1 y_4_ ^ 2 ] <= 1031.21
quadratic_ranged_4_ub: [ 1 x_4_ ^ 2 - 2 x_5_ * x_4_ + 1 x_5_ ^ 2 + 1 y_4_ ^ 2 - 2 y_5_ * y_4_ + 1 y_5_ ^ 2 ] <= 3592.57
quadratic_ranged_5_ub: [ 1 x_1_ ^ 2 - 2 x_6_ * x_1_ + 1 x_6_ ^ 2 + 1 y_1_ ^ 2 - 2 y_6_ * y_1_ + 1 y_6_ ^ 2 ] <= 19127.38
quadratic_ranged_6_ub: [ 1 x_6_ ^ 2 - 2 x_7_ * x_6_ + 1 x_7_ ^ 2 + 1 y_6_ ^ 2 - 2 y_7_ * y_6_ + 1 y_7_ ^ 2 ] <= 3413.8
quadratic_ranged_7_ub: [ 1 x_2_ ^ 2 - 2 x_8_ * x_2_ + 1 x_8_ ^ 2 + 1 y_2_ ^ 2 - 2 y_8_ * y_2_ + 1 y_8_ ^ 2 ] <= 9342.5
quadratic_ranged_8_ub: [ 1 x_4_ ^ 2 - 2 x_8_ * x_4_ + 1 x_8_ ^ 2 + 1 y_4_ ^ 2 - 2 y_8_ * y_4_ + 1 y_8_ ^ 2 ] <= 2167.46
quadratic_ranged_9_ub: [ 1 x_7_ ^ 2 - 2 x_8_ * x_7_ + 1 x_8_ ^ 2 + 1 y_7_ ^ 2 - 2 y_8_ * y_7_ + 1 y_8_ ^ 2 ] <= 90.9
quadratic_ranged_10_ub: [ 1 x_1_ ^ 2 - 2 x_9_ * x_1_ + 1 x_9_ ^ 2 + 1 y_1_ ^ 2 - 2 y_9_ * y_1_ + 1 y_9_ ^ 2 ] <= 17105.36
quadratic_ranged_11_ub: [ 1 x_5_ ^ 2 - 2 x_9_ * x_5_ + 1 x_9_ ^ 2 + 1 y_5_ ^ 2 - 2 y_9_ * y_5_ + 1 y_9_ ^ 2 ] <= 33306.77
quadratic_ranged_12_ub: [ 1 x_3_ ^ 2 - 2 x_11_ * x_3_ + 1 x_11_ ^ 2 + 1 y_3_ ^ 2 - 2 y_11_ * y_3_ + 1 y_11_ ^ 2 ] <= 2243.21
quadratic_ranged_13_ub: [ 1 x_10_ ^ 2 - 2 x_11_ * x_10_ + 1 x_11_ ^ 2 + 1 y_10_ ^ 2 - 2 y_11_ * y_10_ + 1 y_11_ ^ 2 ] <= 22244.24
quadratic_ranged_14_ub: [ 1 x_3_ ^ 2 - 2 x_12_ * x_3_ + 1 x_12_ ^ 2 + 1 y_3_ ^ 2 - 2 y_12_ * y_3_ + 1 y_12_ ^ 2 ] <= 7837.6
quadratic_ranged_15_ub: [ 1 x_7_ ^ 2 - 2 x_12_ * x_7_ + 1 x_12_ ^ 2 + 1 y_7_ ^ 2 - 2 y_12_ * y_7_ + 1 y_12_ ^ 2 ] <= 2429.05
quadratic_ranged_16_ub: [ 1 x_10_ ^ 2 - 2 x_12_ * x_10_ + 1 x_12_ ^ 2 + 1 y_10_ ^ 2 - 2 y_12_ * y_10_ + 1 y_12_ ^ 2 ] <= 11628.13
quadratic_ranged_17_ub: [ 1 x_4_ ^ 2 - 2 x_13_ * x_4_ + 1 x_13_ ^ 2 + 1 y_4_ ^ 2 - 2 y_13_ * y_4_ + 1 y_13_ ^ 2 ] <= 20188.89
quadratic_ranged_18_ub: [ 1 x_6_ ^ 2 - 2 x_13_ * x_6_ + 1 x_13_ ^ 2 + 1 y_6_ ^ 2 - 2 y_13_ * y_6_ + 1 y_13_ ^ 2 ] <= 35250.01
quadratic_ranged_19_ub: [ 1 x_2_ ^ 2 - 2 x_14_ * x_2_ + 1 x_14_ ^ 2 + 1 y_2_ ^ 2 - 2 y_14_ * y_2_ + 1 y_14_ ^ 2 ] <= 5692.36
quadratic_ranged_20_ub: [ 1 x_5_ ^ 2 - 2 x_14_ * x_5_ + 1 x_14_ ^ 2 + 1 y_5_ ^ 2 - 2 y_14_ * y_5_ + 1 y_14_ ^ 2 ] <= 6974.05
quadratic_ranged_21_ub: [ 1 x_9_ ^ 2 - 2 x_14_ * x_9_ + 1 x_14_ ^ 2 + 1 y_9_ ^ 2 - 2 y_14_ * y_9_ + 1 y_14_ ^ 2 ] <= 28459.78
quadratic_ranged_22_ub: [ 1 x_1_ ^ 2 - 2 x_15_ * x_1_ + 1 x_15_ ^ 2 + 1 y_1_ ^ 2 - 2 y_15_ * y_1_ + 1 y_15_ ^ 2 ] <= 4958.09
quadratic_ranged_23_ub: [ 1 x_6_ ^ 2 - 2 x_15_ * x_6_ + 1 x_15_ ^ 2 + 1 y_6_ ^ 2 - 2 y_15_ * y_6_ + 1 y_15_ ^ 2 ] <= 17360.89
quadratic_ranged_24_ub: [ 1 x_11_ ^ 2 - 2 x_15_ * x_11_ + 1 x_15_ ^ 2 + 1 y_11_ ^ 2 - 2 y_15_ * y_11_ + 1 y_15_ ^ 2 ] <= 5842.85
quadratic_ranged_25_ub: [ 1 x_1_ ^ 2 - 2 x_16_ * x_1_ + 1 x_16_ ^ 2 + 1 y_1_ ^ 2 - 2 y_16_ * y_1_ + 1 y_16_ ^ 2 ] <= 22381.6
quadratic_ranged_26_ub: [ 1 x_2_ ^ 2 - 2 x_16_ * x_2_ + 1 x_16_ ^ 2 + 1 y_2_ ^ 2 - 2 y_16_ * y_2_ + 1 y_16_ ^ 2 ] <= 31223.14
quadratic_ranged_27_ub: [ 1 x_2_ ^ 2 - 2 x_17_ * x_2_ + 1 x_17_ ^ 2 + 1 y_2_ ^ 2 - 2 y_17_ * y_2_ + 1 y_17_ ^ 2 ] <= 22661.37
quadratic_ranged_28_ub: [ 1 x_9_ ^ 2 - 2 x_17_ * x_9_ + 1 x_17_ ^ 2 + 1 y_9_ ^ 2 - 2 y_17_ * y_9_ + 1 y_17_ ^ 2 ] <= 6444.81
quadratic_ranged_29_ub: [ 1 x_13_ ^ 2 - 2 x_17_ * x_13_ + 1 x_17_ ^ 2 + 1 y_13_ ^ 2 - 2 y_17_ * y_13_ + 1 y_17_ ^ 2 ] <= 20563.6
quadratic_ranged_30_ub: [ 1 x_4_ ^ 2 - 2 x_18_ * x_4_ + 1 x_18_ ^ 2 + 1 y_4_ ^ 2 - 2 y_18_ * y_4_ + 1 y_18_ ^ 2 ] <= 98.98
quadratic_ranged_31_ub: [ 1 x_12_ ^ 2 - 2 x_18_ * x_12_ + 1 x_18_ ^ 2 + 1 y_12_ ^ 2 - 2 y_18_ * y_12_ + 1 y_18_ ^ 2 ] <= 5600.45
quadratic_ranged_32_ub: [ 1 x_16_ ^ 2 - 2 x_18_ * x_16_ + 1 x_18_ ^ 2 + 1 y_16_ ^ 2 - 2 y_18_ * y_16_ + 1 y_18_ ^ 2 ] <= 15230.8
quadratic_ranged_33_ub: [ 1 x_9_ ^ 2 - 2 x_19_ * x_9_ + 1 x_19_ ^ 2 + 1 y_9_ ^ 2 - 2 y_19_ * y_9_ + 1 y_19_ ^ 2 ] <= 2498.7400000000002
quadratic_ranged_34_ub: [ 1 x_10_ ^ 2 - 2 x_19_ * x_10_ + 1 x_19_ ^ 2 + 1 y_10_ ^ 2 - 2 y_19_ * y_10_ + 1 y_19_ ^ 2 ] <= 1052.42
quadratic_ranged_35_ub: [ 1 x_12_ ^ 2 - 2 x_19_ * x_12_ + 1 x_19_ ^ 2 + 1 y_12_ ^ 2 - 2 y_19_ * y_12_ + 1 y_19_ ^ 2 ] <= 5834.77
quadratic_ranged_36_ub: [ 1 x_4_ ^ 2 - 2 x_20_ * x_4_ + 1 x_20_ ^ 2 + 1 y_4_ ^ 2 - 2 y_20_ * y_4_ + 1 y_20_ ^ 2 ] <= 21057.49
quadratic_ranged_37_ub: [ 1 x_6_ ^ 2 - 2 x_20_ * x_6_ + 1 x_20_ ^ 2 + 1 y_6_ ^ 2 - 2 y_20_ * y_6_ + 1 y_20_ ^ 2 ] <= 33355.25
quadratic_ranged_38_ub: [ 1 x_13_ ^ 2 - 2 x_20_ * x_13_ + 1 x_20_ ^ 2 + 1 y_13_ ^ 2 - 2 y_20_ * y_13_ + 1 y_20_ ^ 2 ] <= 553.48
quadratic_ranged_1_lb: [ 1 x_1_ ^ 2 - 2 x_3_ * x_1_ + 1 x_3_ ^ 2 + 1 y_1_ ^ 2 - 2 y_3_ * y_1_ + 1 y_3_ ^ 2 ] >= 9295.11
quadratic_ranged_2_lb: [ 1 x_2_ ^ 2 - 2 x_3_ * x_2_ + 1 x_3_ ^ 2 + 1 y_2_ ^ 2 - 2 y_3_ * y_2_ + 1 y_3_ ^ 2 ] >= 3315.5099999999998
quadratic_ranged_3_lb: [ 1 x_3_ ^ 2 - 2 x_4_ * x_3_ + 1 x_4_ ^ 2 + 1 y_3_ ^ 2 - 2 y_4_ * y_3_ + 1 y_4_ ^ 2 ] >= 1010.79
quadratic_ranged_4_lb: [ 1 x_4_ ^ 2 - 2 x_5_ * x_4_ + 1 x_5_ ^ 2 + 1 y_4_ ^ 2 - 2 y_5_ * y_4_ + 1 y_5_ ^ 2 ] >= 3521.43
quadratic_ranged_5_lb: [ 1 x_1_ ^ 2 - 2 x_6_ * x_1_ + 1 x_6_ ^ 2 + 1 y_1_ ^ 2 - 2 y_6_ * y_1_ + 1 y_6_ ^ 2 ] >= 18748.62
quadratic_ranged_6_lb: [ 1 x_6_ ^ 2 - 2 x_7_ * x_6_ + 1 x_7_ ^ 2 + 1 y_6_ ^ 2 - 2 y_7_ * y_6_ + 1 y_7_ ^ 2 ] >= 3346.2
quadratic_ranged_7_lb: [ 1 x_2_ ^ 2 - 2 x_8_ * x_2_ + 1 x_8_ ^ 2 + 1 y_2_ ^ 2 - 2 y_8_ * y_2_ + 1 y_8_ ^ 2 ] >= 9157.5
quadratic_ranged_8_lb: [ 1 x_4_ ^ 2 - 2 x_8_ * x_4_ + 1 x_8_ ^ 2 + 1 y_4_ ^ 2 - 2 y_8_ * y_4_ + 1 y_8_ ^ 2 ] >= 2124.54
quadratic_ranged_9_lb: [ 1 x_7_ ^ 2 - 2 x_8_ * x_7_ + 1 x_8_ ^ 2 + 1 y_7_ ^ 2 - 2 y_8_ * y_7_ + 1 y_8_ ^ 2 ] >= 89.1
quadratic_ranged_10_lb: [ 1 x_1_ ^ 2 - 2 x_9_ * x_1_ + 1 x_9_ ^ 2 + 1 y_1_ ^ 2 - 2 y_9_ * y_1_ + 1 y_9_ ^ 2 ] >= 16766.64
quadratic_ranged_11_lb: [ 1 x_5_ ^ 2 - 2 x_9_ * x_5_ + 1 x_9_ ^ 2 + 1 y_5_ ^ 2 - 2 y_9_ * y_5_ + 1 y_9_ ^ 2 ] >= 32647.23
quadratic_ranged_12_lb: [ 1 x_3_ ^ 2 - 2 x_11_ * x_3_ + 1 x_11_ ^ 2 + 1 y_3_ ^ 2 - 2 y_11_ * y_3_ + 1 y_11_ ^ 2 ] >= 2198.79
quadratic_ranged_13_lb: [ 1 x_10_ ^ 2 - 2 x_11_ * x_10_ + 1 x_11_ ^ 2 + 1 y_10_ ^ 2 - 2 y_11_ * y_10_ + 1 y_11_ ^ 2 ] >= 21803.76
quadratic_ranged_14_lb: [ 1 x_3_ ^ 2 - 2 x_12_ * x_3_ + 1 x_12_ ^ 2 + 1 y_3_ ^ 2 - 2 y_12_ * y_3_ + 1 y_12_ ^ 2 ] >= 7682.4
quadratic_ranged_15_lb: [ 1 x_7_ ^ 2 - 2 x_12_ * x_7_ + 1 x_12_ ^ 2 + 1 y_7_ ^ 2 - 2 y_12_ * y_7_ + 1 y_12_ ^ 2 ] >= 2380.95
quadratic_ranged_16_lb: [ 1 x_10_ ^ 2 - 2 x_12_ * x_10_ + 1 x_12_ ^ 2 + 1 y_10_ ^ 2 - 2 y_12_ * y_10_ + 1 y_12_ ^ 2 ] >= 11397.87
quadratic_ranged_17_lb: [ 1 x_4_ ^ 2 - 2 x_13_ * x_4_ + 1 x_13_ ^ 2 + 1 y_4_ ^ 2 - 2 y_13_ * y_4_ + 1 y_13_ ^ 2 ] >= 19789.11
quadratic_ranged_18_lb: [ 1 x_6_ ^ 2 - 2 x_13_ * x_6_ + 1 x_13_ ^ 2 + 1 y_6_ ^ 2 - 2 y_13_ * y_6_ + 1 y_13_ ^ 2 ] >= 34551.99
quadratic_ranged_19_lb: [ 1 x_2_ ^ 2 - 2 x_14_ * x_2_ + 1 x_14_ ^ 2 + 1 y_2_ ^ 2 - 2 y_14_ * y_2_ + 1 y_14_ ^ 2 ] >= 5579.64
quadratic_ranged_20_lb: [ 1 x_5_ ^ 2 - 2 x_14_ * x_5_ + 1 x_14_ ^ 2 + 1 y_5_ ^ 2 - 2 y_14_ * y_5_ + 1 y_14_ ^ 2 ] >= 6835.95
quadratic_ranged_21_lb: [ 1 x_9_ ^ 2 - 2 x_14_ * x_9_ + 1 x_14_ ^ 2 + 1 y_9_ ^ 2 - 2 y_14_ * y_9_ + 1 y_14_ ^ 2 ] >= 27896.22
quadratic_ranged_22_lb: [ 1 x_1_ ^ 2 - 2 x_15_ * x_1_ + 1 x_15_ ^ 2 + 1 y_1_ ^ 2 - 2 y_15_ * y_1_ + 1 y_15_ ^ 2 ] >= 4859.91
quadratic_ranged_23_lb: [ 1 x_6_ ^ 2 - 2 x_15_ * x_6_ + 1 x_15_ ^ 2 + 1 y_6_ ^ 2 - 2 y_15_ * y_6_ + 1 y_15_ ^ 2 ] >= 17017.11
quadratic_ranged_24_lb: [ 1 x_11_ ^ 2 - 2 x_15_ * x_11_ + 1 x_15_ ^ 2 + 1 y_11_ ^ 2 - 2 y_15_ * y_11_ + 1 y_15_ ^ 2 ] >= 5727.15
quadratic_ranged_25_lb: [ 1 x_1_ ^ 2 - 2 x_16_ * x_1_ + 1 x_16_ ^ 2 + 1 y_1_ ^ 2 - 2 y_16_ * y_1_ + 1 y_16_ ^ 2 ] >= 21938.4
quadratic_ranged_26_lb: [ 1 x_2_ ^ 2 - 2 x_16_ * x_2_ + 1 x_16_ ^ 2 + 1 y_2_ ^ 2 - 2 y_16_ * y_2_ + 1 y_16_ ^ 2 ] >= 30604.86
quadratic_ranged_27_lb: [ 1 x_2_ ^ 2 - 2 x_17_ * x_2_ + 1 x_17_ ^ 2 + 1 y_2_ ^ 2 - 2 y_17_ * y_2_ + 1 y_17_ ^ 2 ] >= 22212.63
quadratic_ranged_28_lb: [ 1 x_9_ ^ 2 - 2 x_17_ * x_9_ + 1 x_17_ ^ 2 + 1 y_9_ ^ 2 - 2 y_17_ * y_9_ + 1 y_17_ ^ 2 ] >= 6317.19
quadratic_ranged_29_lb: [ 1 x_13_ ^ 2 - 2 x_17_ * x_13_ + 1 x_17_ ^ 2 + 1 y_13_ ^ 2 - 2 y_17_ * y_13_ + 1 y_17_ ^ 2 ] >= 20156.4
quadratic_ranged_30_lb: [ 1 x_4_ ^ 2 - 2 x_18_ * x_4_ + 1 x_18_ ^ 2 + 1 y_4_ ^ 2 - 2 y_18_ * y_4_ + 1 y_18_ ^ 2 ] >= 97.02
quadratic_ranged_31_lb: [ 1 x_12_ ^ 2 - 2 x_18_ * x_12_ + 1 x_18_ ^ 2 + 1 y_12_ ^ 2 - 2 y_18_ * y_12_ + 1 y_18_ ^ 2 ] >= 5489.55
quadratic_ranged_32_lb: [ 1 x_16_ ^ 2 - 2 x_18_ * x_16_ + 1 x_18_ ^ 2 + 1 y_16_ ^ 2 - 2 y_18_ * y_16_ + 1 y_18_ ^ 2 ] >= 14929.2
quadratic_ranged_33_lb: [ 1 x_9_ ^ 2 - 2 x_19_ * x_9_ + 1 x_19_ ^ 2 + 1 y_9_ ^ 2 - 2 y_19_ * y_9_ + 1 y_19_ ^ 2 ] >= 2449.2599999999998
quadratic_ranged_34_lb: [ 1 x_10_ ^ 2 - 2 x_19_ * x_10_ + 1 x_19_ ^ 2 + 1 y_10_ ^ 2 - 2 y_19_ * y_10_ + 1 y_19_ ^ 2 ] >= 1031.58
quadratic_ranged_35_lb: [ 1 x_12_ ^ 2 - 2 x_19_ * x_12_ + 1 x_19_ ^ 2 + 1 y_12_ ^ 2 - 2 y_19_ * y_12_ + 1 y_19_ ^ 2 ] >= 5719.23
quadratic_ranged_36_lb: [ 1 x_4_ ^ 2 - 2 x_20_ * x_4_ + 1 x_20_ ^ 2 + 1 y_4_ ^ 2 - 2 y_20_ * y_4_ + 1 y_20_ ^ 2 ] >= 20640.51
quadratic_ranged_37_lb: [ 1 x_6_ ^ 2 - 2 x_20_ * x_6_ + 1 x_20_ ^ 2 + 1 y_6_ ^ 2 - 2 y_20_ * y_6_ + 1 y_20_ ^ 2 ] >= 32694.75
quadratic_ranged_38_lb: [ 1 x_13_ ^ 2 - 2 x_20_ * x_13_ + 1 x_20_ ^ 2 + 1 y_13_ ^ 2 - 2 y_20_ * y_13_ + 1 y_20_ ^ 2 ] >= 542.52
c1_1: 1 x_3_ = -91
c2_1: 1 y_3_ = 18
c3_1: 1 x_18_ = -54
c4_1: 1 y_18_ = 14
c5_1: 1 x_17_ = 0
c6_1: 1 y_17_ = 87
Bounds
-188 <= x_1_ <= 6
-149 <= x_2_ <= -33
x_3_ = -91
-63 <= x_4_ <= -59
-123 <= x_5_ <= 1
-178 <= x_6_ <= 55
-120 <= x_7_ <= -3
-110 <= x_8_ <= -13
-80 <= x_9_ <= 80
-162 <= x_10_ <= 105
-138 <= x_11_ <= -44
-128 <= x_12_ <= -3
-143 <= x_13_ <= 83
-207 <= x_14_ <= 42
-214 <= x_15_ <= 32
-177 <= x_16_ <= 69
x_17_ = 0
x_18_ = -54
-130 <= x_19_ <= 73
-166 <= x_20_ <= 86
-79 <= y_1_ <= 115
-40 <= y_2_ <= 76
y_3_ = 18
5 <= y_4_ <= 23
-55 <= y_5_ <= 83
-110 <= y_6_ <= 138
-52 <= y_7_ <= 80
-42 <= y_8_ <= 70
7 <= y_9_ <= 167
-75 <= y_10_ <= 196
-29 <= y_11_ <= 65
-60 <= y_12_ <= 88
-56 <= y_13_ <= 166
-115 <= y_14_ <= 151
-105 <= y_15_ <= 141
-109 <= y_16_ <= 137
y_17_ = 87
y_18_ = 14
-43 <= y_19_ <= 165
-79 <= y_20_ <= 169
General
x_1_
x_2_
x_3_
x_4_
x_5_
x_6_
x_7_
x_8_
x_9_
x_10_
x_11_
x_12_
x_13_
x_14_
x_15_
x_16_
x_17_
x_18_
x_19_
x_20_
y_1_
y_2_
y_3_
y_4_
y_5_
y_6_
y_7_
y_8_
y_9_
y_10_
y_11_
y_12_
y_13_
y_14_
y_15_
y_16_
y_17_
y_18_
y_19_
y_20_
End
