minimize
obj: 
subject to
c1_4: -1 x_13_ + 1 y_13_ <= 0
c1_1: [ 1 x_1_ ^ 2 + 1 y_1_ ^ 2 ] <= 5321
c2_1: [ 1 x_2_ ^ 2 + 1 y_2_ ^ 2 ] <= 47285
c3_1: [ 1 x_3_ ^ 2 + 1 y_3_ ^ 2 ] <= 45352
c4_1: [ 1 x_5_ ^ 2 + 1 y_5_ ^ 2 ] <= 21608
c5_1: [ 1 x_6_ ^ 2 + 1 y_6_ ^ 2 ] <= 29299
c6_1: [ 1 x_7_ ^ 2 + 1 y_7_ ^ 2 ] <= 53919
c7_1: [ 1 x_8_ ^ 2 + 1 y_8_ ^ 2 ] <= 9065
c8_1: [ 1 x_9_ ^ 2 + 1 y_9_ ^ 2 ] <= 29928
c9_1: [ 1 x_10_ ^ 2 + 1 y_10_ ^ 2 ] <= 22302
c10_1: [ 1 x_11_ ^ 2 + 1 y_11_ ^ 2 ] <= 2768
c11_1: [ 1 x_12_ ^ 2 + 1 y_12_ ^ 2 ] <= 36076
c12_1: [ 1 x_13_ ^ 2 + 1 y_13_ ^ 2 ] <= 62926
c13_1: [ 1 x_14_ ^ 2 + 1 y_14_ ^ 2 ] <= 9217
c14_1: [ 1 x_15_ ^ 2 + 1 y_15_ ^ 2 ] <= 32304
c15_1: [ 1 x_16_ ^ 2 + 1 y_16_ ^ 2 ] <= 27502
c16_1: [ 1 x_17_ ^ 2 + 1 y_17_ ^ 2 ] <= 18473
c17_1: [ 1 x_18_ ^ 2 + 1 y_18_ ^ 2 ] <= 18181
c18_1: [ 1 x_19_ ^ 2 + 1 y_19_ ^ 2 ] <= 48230
c19_1: [ 1 x_20_ ^ 2 + 1 y_20_ ^ 2 ] <= 34896
c1_3: 1 x_13_ >= 0
c2_3: 1 y_13_ >= 0
c1_2: 1 x_4_ = 0
c2_2: 1 y_4_ = 0
c1: [ 1 x_1_ ^ 2 - 2 x_2_ * x_1_ + 1 x_2_ ^ 2 + 1 y_1_ ^ 2 - 2 y_2_ * y_1_ + 1 y_2_ ^ 2 ] = 20882
c2: [ 1 x_1_ ^ 2 - 2 x_3_ * x_1_ + 1 x_3_ ^ 2 + 1 y_1_ ^ 2 - 2 y_3_ * y_1_ + 1 y_3_ ^ 2 ] = 19604
c3: [ 1 x_2_ ^ 2 - 2 x_3_ * x_2_ + 1 x_3_ ^ 2 + 1 y_2_ ^ 2 - 2 y_3_ * y_2_ + 1 y_3_ ^ 2 ] = 4050
c4: [ 1 x_1_ ^ 2 - 2 x_4_ * x_1_ + 1 x_4_ ^ 2 + 1 y_1_ ^ 2 - 2 y_4_ * y_1_ + 1 y_4_ ^ 2 ] = 5321
c5: [ 1 x_4_ ^ 2 - 2 x_5_ * x_4_ + 1 x_5_ ^ 2 + 1 y_4_ ^ 2 - 2 y_5_ * y_4_ + 1 y_5_ ^ 2 ] = 21608
c6: [ 1 x_3_ ^ 2 - 2 x_7_ * x_3_ + 1 x_7_ ^ 2 + 1 y_3_ ^ 2 - 2 y_7_ * y_3_ + 1 y_7_ ^ 2 ] = 22061
c7: [ 1 x_6_ ^ 2 - 2 x_7_ * x_6_ + 1 x_7_ ^ 2 + 1 y_6_ ^ 2 - 2 y_7_ * y_6_ + 1 y_7_ ^ 2 ] = 3725
c8: [ 1 x_4_ ^ 2 - 2 x_8_ * x_4_ + 1 x_8_ ^ 2 + 1 y_4_ ^ 2 - 2 y_8_ * y_4_ + 1 y_8_ ^ 2 ] = 9065
c9: [ 1 x_6_ ^ 2 - 2 x_8_ * x_6_ + 1 x_8_ ^ 2 + 1 y_6_ ^ 2 - 2 y_8_ * y_6_ + 1 y_8_ ^ 2 ] = 5770
c10: [ 1 x_5_ ^ 2 - 2 x_9_ * x_5_ + 1 x_9_ ^ 2 + 1 y_5_ ^ 2 - 2 y_9_ * y_5_ + 1 y_9_ ^ 2 ] = 676
c11: [ 1 x_6_ ^ 2 - 2 x_10_ * x_6_ + 1 x_10_ ^ 2 + 1 y_6_ ^ 2 - 2 y_10_ * y_6_ + 1 y_10_ ^ 2 ] = 15976
c12: [ 1 x_8_ ^ 2 - 2 x_10_ * x_8_ + 1 x_10_ ^ 2 + 1 y_8_ ^ 2 - 2 y_10_ * y_8_ + 1 y_10_ ^ 2 ] = 2930
c13: [ 1 x_4_ ^ 2 - 2 x_11_ * x_4_ + 1 x_11_ ^ 2 + 1 y_4_ ^ 2 - 2 y_11_ * y_4_ + 1 y_11_ ^ 2 ] = 2768
c14: [ 1 x_5_ ^ 2 - 2 x_11_ * x_5_ + 1 x_11_ ^ 2 + 1 y_5_ ^ 2 - 2 y_11_ * y_5_ + 1 y_11_ ^ 2 ] = 18152
c15: [ 1 x_10_ ^ 2 - 2 x_11_ * x_10_ + 1 x_11_ ^ 2 + 1 y_10_ ^ 2 - 2 y_11_ * y_10_ + 1 y_11_ ^ 2 ] = 14933
c16: [ 1 x_2_ ^ 2 - 2 x_12_ * x_2_ + 1 x_12_ ^ 2 + 1 y_2_ ^ 2 - 2 y_12_ * y_2_ + 1 y_12_ ^ 2 ] = 19865
c17: [ 1 x_8_ ^ 2 - 2 x_12_ * x_8_ + 1 x_12_ ^ 2 + 1 y_8_ ^ 2 - 2 y_12_ * y_8_ + 1 y_12_ ^ 2 ] = 8973
c18: [ 1 x_9_ ^ 2 - 2 x_12_ * x_9_ + 1 x_12_ ^ 2 + 1 y_9_ ^ 2 - 2 y_12_ * y_9_ + 1 y_12_ ^ 2 ] = 10706
c19: [ 1 x_7_ ^ 2 - 2 x_13_ * x_7_ + 1 x_13_ ^ 2 + 1 y_7_ ^ 2 - 2 y_13_ * y_7_ + 1 y_13_ ^ 2 ] = 19616
c20: [ 1 x_4_ ^ 2 - 2 x_14_ * x_4_ + 1 x_14_ ^ 2 + 1 y_4_ ^ 2 - 2 y_14_ * y_4_ + 1 y_14_ ^ 2 ] = 9217
c21: [ 1 x_10_ ^ 2 - 2 x_14_ * x_10_ + 1 x_14_ ^ 2 + 1 y_10_ ^ 2 - 2 y_14_ * y_10_ + 1 y_14_ ^ 2 ] = 19762
c22: [ 1 x_11_ ^ 2 - 2 x_15_ * x_11_ + 1 x_15_ ^ 2 + 1 y_11_ ^ 2 - 2 y_15_ * y_11_ + 1 y_15_ ^ 2 ] = 16160
c23: [ 1 x_12_ ^ 2 - 2 x_15_ * x_12_ + 1 x_15_ ^ 2 + 1 y_12_ ^ 2 - 2 y_15_ * y_12_ + 1 y_15_ ^ 2 ] = 7466
c24: [ 1 x_13_ ^ 2 - 2 x_15_ * x_13_ + 1 x_15_ ^ 2 + 1 y_13_ ^ 2 - 2 y_15_ * y_13_ + 1 y_15_ ^ 2 ] = 20362
c25: [ 1 x_1_ ^ 2 - 2 x_16_ * x_1_ + 1 x_16_ ^ 2 + 1 y_1_ ^ 2 - 2 y_16_ * y_1_ + 1 y_16_ ^ 2 ] = 8629
c26: [ 1 x_3_ ^ 2 - 2 x_16_ * x_3_ + 1 x_16_ ^ 2 + 1 y_3_ ^ 2 - 2 y_16_ * y_3_ + 1 y_16_ ^ 2 ] = 2941
c27: [ 1 x_9_ ^ 2 - 2 x_16_ * x_9_ + 1 x_16_ ^ 2 + 1 y_9_ ^ 2 - 2 y_16_ * y_9_ + 1 y_16_ ^ 2 ] = 1160
c28: [ 1 x_8_ ^ 2 - 2 x_17_ * x_8_ + 1 x_17_ ^ 2 + 1 y_8_ ^ 2 - 2 y_17_ * y_8_ + 1 y_17_ ^ 2 ] = 1657
c29: [ 1 x_13_ ^ 2 - 2 x_17_ * x_13_ + 1 x_17_ ^ 2 + 1 y_13_ ^ 2 - 2 y_17_ * y_13_ + 1 y_17_ ^ 2 ] = 13210
c30: [ 1 x_1_ ^ 2 - 2 x_18_ * x_1_ + 1 x_18_ ^ 2 + 1 y_1_ ^ 2 - 2 y_18_ * y_1_ + 1 y_18_ ^ 2 ] = 21312
c31: [ 1 x_5_ ^ 2 - 2 x_18_ * x_5_ + 1 x_18_ ^ 2 + 1 y_5_ ^ 2 - 2 y_18_ * y_5_ + 1 y_18_ ^ 2 ] = 15381
c32: [ 1 x_14_ ^ 2 - 2 x_18_ * x_14_ + 1 x_18_ ^ 2 + 1 y_14_ ^ 2 - 2 y_18_ * y_14_ + 1 y_18_ ^ 2 ] = 1508
c33: [ 1 x_8_ ^ 2 - 2 x_19_ * x_8_ + 1 x_19_ ^ 2 + 1 y_8_ ^ 2 - 2 y_19_ * y_8_ + 1 y_19_ ^ 2 ] = 15476
c34: [ 1 x_14_ ^ 2 - 2 x_19_ * x_14_ + 1 x_19_ ^ 2 + 1 y_14_ ^ 2 - 2 y_19_ * y_14_ + 1 y_19_ ^ 2 ] = 34640
c35: [ 1 x_17_ ^ 2 - 2 x_19_ * x_17_ + 1 x_19_ ^ 2 + 1 y_17_ ^ 2 - 2 y_19_ * y_17_ + 1 y_19_ ^ 2 ] = 26441
c36: [ 1 x_3_ ^ 2 - 2 x_20_ * x_3_ + 1 x_20_ ^ 2 + 1 y_3_ ^ 2 - 2 y_20_ * y_3_ + 1 y_20_ ^ 2 ] = 35705
c37: [ 1 x_9_ ^ 2 - 2 x_20_ * x_9_ + 1 x_20_ ^ 2 + 1 y_9_ ^ 2 - 2 y_20_ * y_9_ + 1 y_20_ ^ 2 ] = 31802
c38: [ 1 x_15_ ^ 2 - 2 x_20_ * x_15_ + 1 x_20_ ^ 2 + 1 y_15_ ^ 2 - 2 y_20_ * y_15_ + 1 y_20_ ^ 2 ] = 50
Bounds
-72 <= x_1_ <= 72
-217 <= x_2_ <= 217
-212 <= x_3_ <= 212
x_4_ = 0
-146 <= x_5_ <= 146
-171 <= x_6_ <= 171
-232 <= x_7_ <= 232
-95 <= x_8_ <= 95
-172 <= x_9_ <= 172
-149 <= x_10_ <= 149
-52 <= x_11_ <= 52
-189 <= x_12_ <= 189
-250 <= x_13_ <= 250
-96 <= x_14_ <= 96
-179 <= x_15_ <= 179
-165 <= x_16_ <= 165
-135 <= x_17_ <= 135
-134 <= x_18_ <= 134
-219 <= x_19_ <= 219
-186 <= x_20_ <= 186
-72 <= y_1_ <= 72
-217 <= y_2_ <= 217
-212 <= y_3_ <= 212
y_4_ = 0
-146 <= y_5_ <= 146
-171 <= y_6_ <= 171
-232 <= y_7_ <= 232
-95 <= y_8_ <= 95
-172 <= y_9_ <= 172
-149 <= y_10_ <= 149
-52 <= y_11_ <= 52
-189 <= y_12_ <= 189
-250 <= y_13_ <= 250
-96 <= y_14_ <= 96
-179 <= y_15_ <= 179
-165 <= y_16_ <= 165
-135 <= y_17_ <= 135
-134 <= y_18_ <= 134
-219 <= y_19_ <= 219
-186 <= y_20_ <= 186
General
x_1_
x_2_
x_3_
x_4_
x_5_
x_6_
x_7_
x_8_
x_9_
x_10_
x_11_
x_12_
x_13_
x_14_
x_15_
x_16_
x_17_
x_18_
x_19_
x_20_
y_1_
y_2_
y_3_
y_4_
y_5_
y_6_
y_7_
y_8_
y_9_
y_10_
y_11_
y_12_
y_13_
y_14_
y_15_
y_16_
y_17_
y_18_
y_19_
y_20_
End
