minimize
obj: 
subject to
c1: 146 x_1_ - 174 y_1_ + [ 1 x_1_ ^ 2 + 1 y_1_ ^ 2 ] <= 34408.52613252635
c2: 146 x_2_ - 174 y_2_ + [ 1 x_2_ ^ 2 + 1 y_2_ ^ 2 ] <= 2697.4469509492483
c3: 146 x_3_ - 174 y_3_ + [ 1 x_3_ ^ 2 + 1 y_3_ ^ 2 ] <= -3909.000000000002
c4: 146 x_4_ - 174 y_4_ + [ 1 x_4_ ^ 2 + 1 y_4_ ^ 2 ] <= 25866.384845555884
c5: 146 x_6_ - 174 y_6_ + [ 1 x_6_ ^ 2 + 1 y_6_ ^ 2 ] <= 5924.715709950884
c6: 146 x_7_ - 174 y_7_ + [ 1 x_7_ ^ 2 + 1 y_7_ ^ 2 ] <= -5031.11
c7: 146 x_8_ - 174 y_8_ + [ 1 x_8_ ^ 2 + 1 y_8_ ^ 2 ] <= 48662.03408685548
c8: 146 x_9_ - 174 y_9_ + [ 1 x_9_ ^ 2 + 1 y_9_ ^ 2 ] <= 41063.534522436064
c9: 146 x_10_ - 174 y_10_ + [ 1 x_10_ ^ 2 + 1 y_10_ ^ 2 ] <= 48.17999999999665
c10: 146 x_11_ - 174 y_11_ + [ 1 x_11_ ^ 2 + 1 y_11_ ^ 2 ] <= 6499.644576155541
c11: 146 x_12_ - 174 y_12_ + [ 1 x_12_ ^ 2 + 1 y_12_ ^ 2 ] <= 37148.82921146464
c12: 146 x_13_ - 174 y_13_ + [ 1 x_13_ ^ 2 + 1 y_13_ ^ 2 ] <= 27559.979802426737
c13: 146 x_14_ - 174 y_14_ + [ 1 x_14_ ^ 2 + 1 y_14_ ^ 2 ] <= 48022.638143776036
c14: 146 x_15_ - 174 y_15_ + [ 1 x_15_ ^ 2 + 1 y_15_ ^ 2 ] <= -71.28272424433999
c15: 146 x_16_ - 174 y_16_ + [ 1 x_16_ ^ 2 + 1 y_16_ ^ 2 ] <= 17511.023633139812
c16: 146 x_17_ - 174 y_17_ + [ 1 x_17_ ^ 2 + 1 y_17_ ^ 2 ] <= 64737.59172790656
c17: 146 x_18_ - 174 y_18_ + [ 1 x_18_ ^ 2 + 1 y_18_ ^ 2 ] <= -4266.540000000001
c18: 146 x_19_ - 174 y_19_ + [ 1 x_19_ ^ 2 + 1 y_19_ ^ 2 ] <= 11027.889999999996
c19: 146 x_20_ - 174 y_20_ + [ 1 x_20_ ^ 2 + 1 y_20_ ^ 2 ] <= 11111.03462597376
c20: -46 x_1_ - 162 y_1_ + [ 1 x_1_ ^ 2 + 1 y_1_ ^ 2 ] <= 72089.30265965544
c21: -46 x_2_ - 162 y_2_ + [ 1 x_2_ ^ 2 + 1 y_2_ ^ 2 ] <= 9559.274600964734
c22: -46 x_3_ - 162 y_3_ + [ 1 x_3_ ^ 2 + 1 y_3_ ^ 2 ] <= 8552.879999999996
c23: -46 x_4_ - 162 y_4_ + [ 1 x_4_ ^ 2 + 1 y_4_ ^ 2 ] <= -95.75000000000091
c24: -46 x_5_ - 162 y_5_ + [ 1 x_5_ ^ 2 + 1 y_5_ ^ 2 ] <= 5736.71727575566
c25: -46 x_6_ - 162 y_6_ + [ 1 x_6_ ^ 2 + 1 y_6_ ^ 2 ] <= 33344.549308883834
c26: -46 x_7_ - 162 y_7_ + [ 1 x_7_ ^ 2 + 1 y_7_ ^ 2 ] <= 33694.040209813546
c27: -46 x_8_ - 162 y_8_ + [ 1 x_8_ ^ 2 + 1 y_8_ ^ 2 ] <= 18002.787088376095
c28: -46 x_9_ - 162 y_9_ + [ 1 x_9_ ^ 2 + 1 y_9_ ^ 2 ] <= 66575.7604497979
c29: -46 x_10_ - 162 y_10_ + [ 1 x_10_ ^ 2 + 1 y_10_ ^ 2 ] <= 6817.8664461558965
c30: -46 x_11_ - 162 y_11_ + [ 1 x_11_ ^ 2 + 1 y_11_ ^ 2 ] <= 56681.666192785866
c31: -46 x_12_ - 162 y_12_ + [ 1 x_12_ ^ 2 + 1 y_12_ ^ 2 ] <= 16611.231336488036
c32: -46 x_13_ - 162 y_13_ + [ 1 x_13_ ^ 2 + 1 y_13_ ^ 2 ] <= 9545.514990835414
c33: -46 x_14_ - 162 y_14_ + [ 1 x_14_ ^ 2 + 1 y_14_ ^ 2 ] <= 60404.14860315212
c34: -46 x_16_ - 162 y_16_ + [ 1 x_16_ ^ 2 + 1 y_16_ ^ 2 ] <= 17164.510445725355
c35: -46 x_17_ - 162 y_17_ + [ 1 x_17_ ^ 2 + 1 y_17_ ^ 2 ] <= 48596.758978380254
c36: -46 x_18_ - 162 y_18_ + [ 1 x_18_ ^ 2 + 1 y_18_ ^ 2 ] <= -6675.9
c37: -46 x_19_ - 162 y_19_ + [ 1 x_19_ ^ 2 + 1 y_19_ ^ 2 ] <= 64699.19538594865
c38: -46 x_20_ - 162 y_20_ + [ 1 x_20_ ^ 2 + 1 y_20_ ^ 2 ] <= 64843.16486685796
c39: 182 x_1_ - 18 y_1_ + [ 1 x_1_ ^ 2 + 1 y_1_ ^ 2 ] <= -1913.1500000000015
c40: 182 x_2_ - 18 y_2_ + [ 1 x_2_ ^ 2 + 1 y_2_ ^ 2 ] <= -3170.6000000000013
c41: 182 x_3_ - 18 y_3_ + [ 1 x_3_ ^ 2 + 1 y_3_ ^ 2 ] <= 4638.761830182659
c42: 182 x_4_ - 18 y_4_ + [ 1 x_4_ ^ 2 + 1 y_4_ ^ 2 ] <= 29141.58957084969
c43: 182 x_5_ - 18 y_5_ + [ 1 x_5_ ^ 2 + 1 y_5_ ^ 2 ] <= 10460.715709950884
c44: 182 x_7_ - 18 y_7_ + [ 1 x_7_ ^ 2 + 1 y_7_ ^ 2 ] <= -6009.709999999999
c45: 182 x_8_ - 18 y_8_ + [ 1 x_8_ ^ 2 + 1 y_8_ ^ 2 ] <= 30567.03983301024
c46: 182 x_9_ - 18 y_9_ + [ 1 x_9_ ^ 2 + 1 y_9_ ^ 2 ] <= 28540.849359092514
c47: 182 x_10_ - 18 y_10_ + [ 1 x_10_ ^ 2 + 1 y_10_ ^ 2 ] <= -1447.774663674818
c48: 182 x_11_ - 18 y_11_ + [ 1 x_11_ ^ 2 + 1 y_11_ ^ 2 ] <= 1454.915578417591
c49: 182 x_12_ - 18 y_12_ + [ 1 x_12_ ^ 2 + 1 y_12_ ^ 2 ] <= 28918.66881624636
c50: 182 x_13_ - 18 y_13_ + [ 1 x_13_ ^ 2 + 1 y_13_ ^ 2 ] <= 13634.250478698003
c51: 182 x_14_ - 18 y_14_ + [ 1 x_14_ ^ 2 + 1 y_14_ ^ 2 ] <= 32772.192884282354
c52: 182 x_15_ - 18 y_15_ + [ 1 x_15_ ^ 2 + 1 y_15_ ^ 2 ] <= 32072.549308883834
c53: 182 x_16_ - 18 y_16_ + [ 1 x_16_ ^ 2 + 1 y_16_ ^ 2 ] <= 6412.76024154995
c54: 182 x_17_ - 18 y_17_ + [ 1 x_17_ ^ 2 + 1 y_17_ ^ 2 ] <= 11642.068259949207
c55: 182 x_18_ - 18 y_18_ + [ 1 x_18_ ^ 2 + 1 y_18_ ^ 2 ] <= 24302.775686006018
c56: 182 x_19_ - 18 y_19_ + [ 1 x_19_ ^ 2 + 1 y_19_ ^ 2 ] <= 22805.311689928265
c57: 182 x_20_ - 18 y_20_ + [ 1 x_20_ ^ 2 + 1 y_20_ ^ 2 ] <= 4806.345634828751
quadratic_ranged_1_ub: [ 1 x_2_ ^ 2 - 2 x_3_ * x_2_ + 1 x_3_ ^ 2 + 1 y_2_ ^ 2 - 2 y_3_ * y_2_ + 1 y_3_ ^ 2 ] <= 1761.44
quadratic_ranged_2_ub: [ 1 x_3_ ^ 2 - 2 x_5_ * x_3_ + 1 x_5_ ^ 2 + 1 y_3_ ^ 2 - 2 y_5_ * y_3_ + 1 y_5_ ^ 2 ] <= 8989
quadratic_ranged_3_ub: [ 1 x_1_ ^ 2 - 2 x_6_ * x_1_ + 1 x_6_ ^ 2 + 1 y_1_ ^ 2 - 2 y_6_ * y_1_ + 1 y_6_ ^ 2 ] <= 6448.85
quadratic_ranged_4_ub: [ 1 x_2_ ^ 2 - 2 x_6_ * x_2_ + 1 x_6_ ^ 2 + 1 y_2_ ^ 2 - 2 y_6_ * y_2_ + 1 y_6_ ^ 2 ] <= 5191.4
quadratic_ranged_5_ub: [ 1 x_5_ ^ 2 - 2 x_7_ * x_5_ + 1 x_7_ ^ 2 + 1 y_5_ ^ 2 - 2 y_7_ * y_5_ + 1 y_7_ ^ 2 ] <= 7866.89
quadratic_ranged_6_ub: [ 1 x_6_ ^ 2 - 2 x_7_ * x_6_ + 1 x_7_ ^ 2 + 1 y_6_ ^ 2 - 2 y_7_ * y_6_ + 1 y_7_ ^ 2 ] <= 2352.29
quadratic_ranged_7_ub: [ 1 x_2_ ^ 2 - 2 x_8_ * x_2_ + 1 x_8_ ^ 2 + 1 y_2_ ^ 2 - 2 y_8_ * y_2_ + 1 y_8_ ^ 2 ] <= 15688.33
quadratic_ranged_8_ub: [ 1 x_3_ ^ 2 - 2 x_8_ * x_3_ + 1 x_8_ ^ 2 + 1 y_3_ ^ 2 - 2 y_8_ * y_3_ + 1 y_8_ ^ 2 ] <= 23501.69
quadratic_ranged_9_ub: [ 1 x_4_ ^ 2 - 2 x_8_ * x_4_ + 1 x_8_ ^ 2 + 1 y_4_ ^ 2 - 2 y_8_ * y_4_ + 1 y_8_ ^ 2 ] <= 5591.36
quadratic_ranged_10_ub: [ 1 x_2_ ^ 2 - 2 x_9_ * x_2_ + 1 x_9_ ^ 2 + 1 y_2_ ^ 2 - 2 y_9_ * y_2_ + 1 y_9_ ^ 2 ] <= 20272.72
quadratic_ranged_11_ub: [ 1 x_7_ ^ 2 - 2 x_9_ * x_7_ + 1 x_9_ ^ 2 + 1 y_7_ ^ 2 - 2 y_9_ * y_7_ + 1 y_9_ ^ 2 ] <= 20621.170000000002
quadratic_ranged_12_ub: [ 1 x_2_ ^ 2 - 2 x_10_ * x_2_ + 1 x_10_ ^ 2 + 1 y_2_ ^ 2 - 2 y_10_ * y_2_ + 1 y_10_ ^ 2 ] <= 123.22
quadratic_ranged_13_ub: [ 1 x_5_ ^ 2 - 2 x_10_ * x_5_ + 1 x_10_ ^ 2 + 1 y_5_ ^ 2 - 2 y_10_ * y_5_ + 1 y_10_ ^ 2 ] <= 12946.18
quadratic_ranged_14_ub: [ 1 x_1_ ^ 2 - 2 x_11_ * x_1_ + 1 x_11_ ^ 2 + 1 y_1_ ^ 2 - 2 y_11_ * y_1_ + 1 y_11_ ^ 2 ] <= 17478.05
quadratic_ranged_15_ub: [ 1 x_7_ ^ 2 - 2 x_11_ * x_7_ + 1 x_11_ ^ 2 + 1 y_7_ ^ 2 - 2 y_11_ * y_7_ + 1 y_11_ ^ 2 ] <= 2558.33
quadratic_ranged_16_ub: [ 1 x_4_ ^ 2 - 2 x_12_ * x_4_ + 1 x_12_ ^ 2 + 1 y_4_ ^ 2 - 2 y_12_ * y_4_ + 1 y_12_ ^ 2 ] <= 4944.96
quadratic_ranged_17_ub: [ 1 x_9_ ^ 2 - 2 x_12_ * x_9_ + 1 x_12_ ^ 2 + 1 y_9_ ^ 2 - 2 y_12_ * y_9_ + 1 y_12_ ^ 2 ] <= 19215.25
quadratic_ranged_18_ub: [ 1 x_10_ ^ 2 - 2 x_12_ * x_10_ + 1 x_12_ ^ 2 + 1 y_10_ ^ 2 - 2 y_12_ * y_10_ + 1 y_12_ ^ 2 ] <= 12084.65
quadratic_ranged_19_ub: [ 1 x_4_ ^ 2 - 2 x_13_ * x_4_ + 1 x_13_ ^ 2 + 1 y_4_ ^ 2 - 2 y_13_ * y_4_ + 1 y_13_ ^ 2 ] <= 2056.36
quadratic_ranged_20_ub: [ 1 x_1_ ^ 2 - 2 x_14_ * x_1_ + 1 x_14_ ^ 2 + 1 y_1_ ^ 2 - 2 y_14_ * y_1_ + 1 y_14_ ^ 2 ] <= 42190.73
quadratic_ranged_21_ub: [ 1 x_2_ ^ 2 - 2 x_14_ * x_2_ + 1 x_14_ ^ 2 + 1 y_2_ ^ 2 - 2 y_14_ * y_2_ + 1 y_14_ ^ 2 ] <= 17099.3
quadratic_ranged_22_ub: [ 1 x_3_ ^ 2 - 2 x_15_ * x_3_ + 1 x_15_ ^ 2 + 1 y_3_ ^ 2 - 2 y_15_ * y_3_ + 1 y_15_ ^ 2 ] <= 15642.880000000001
quadratic_ranged_23_ub: [ 1 x_4_ ^ 2 - 2 x_15_ * x_4_ + 1 x_15_ ^ 2 + 1 y_4_ ^ 2 - 2 y_15_ * y_4_ + 1 y_15_ ^ 2 ] <= 6994.25
quadratic_ranged_24_ub: [ 1 x_2_ ^ 2 - 2 x_16_ * x_2_ + 1 x_16_ ^ 2 + 1 y_2_ ^ 2 - 2 y_16_ * y_2_ + 1 y_16_ ^ 2 ] <= 2450.26
quadratic_ranged_25_ub: [ 1 x_13_ ^ 2 - 2 x_16_ * x_13_ + 1 x_16_ ^ 2 + 1 y_13_ ^ 2 - 2 y_16_ * y_13_ + 1 y_16_ ^ 2 ] <= 716.09
quadratic_ranged_26_ub: [ 1 x_14_ ^ 2 - 2 x_16_ * x_14_ + 1 x_16_ ^ 2 + 1 y_14_ ^ 2 - 2 y_16_ * y_14_ + 1 y_16_ ^ 2 ] <= 11481.68
quadratic_ranged_27_ub: [ 1 x_1_ ^ 2 - 2 x_17_ * x_1_ + 1 x_17_ ^ 2 + 1 y_1_ ^ 2 - 2 y_17_ * y_1_ + 1 y_17_ ^ 2 ] <= 3737
quadratic_ranged_28_ub: [ 1 x_13_ ^ 2 - 2 x_17_ * x_13_ + 1 x_17_ ^ 2 + 1 y_13_ ^ 2 - 2 y_17_ * y_13_ + 1 y_17_ ^ 2 ] <= 11449.36
quadratic_ranged_29_ub: [ 1 x_16_ ^ 2 - 2 x_17_ * x_16_ + 1 x_17_ ^ 2 + 1 y_16_ ^ 2 - 2 y_17_ * y_16_ + 1 y_17_ ^ 2 ] <= 16573.09
quadratic_ranged_30_ub: [ 1 x_5_ ^ 2 - 2 x_18_ * x_5_ + 1 x_18_ ^ 2 + 1 y_5_ ^ 2 - 2 y_18_ * y_5_ + 1 y_18_ ^ 2 ] <= 8631.460000000001
quadratic_ranged_31_ub: [ 1 x_10_ ^ 2 - 2 x_18_ * x_10_ + 1 x_18_ ^ 2 + 1 y_10_ ^ 2 - 2 y_18_ * y_10_ + 1 y_18_ ^ 2 ] <= 9522.28
quadratic_ranged_32_ub: [ 1 x_15_ ^ 2 - 2 x_18_ * x_15_ + 1 x_18_ ^ 2 + 1 y_15_ ^ 2 - 2 y_18_ * y_15_ + 1 y_18_ ^ 2 ] <= 414.1
quadratic_ranged_33_ub: [ 1 x_1_ ^ 2 - 2 x_19_ * x_1_ + 1 x_19_ ^ 2 + 1 y_1_ ^ 2 - 2 y_19_ * y_1_ + 1 y_19_ ^ 2 ] <= 18561.78
quadratic_ranged_34_ub: [ 1 x_5_ ^ 2 - 2 x_19_ * x_5_ + 1 x_19_ ^ 2 + 1 y_5_ ^ 2 - 2 y_19_ * y_5_ + 1 y_19_ ^ 2 ] <= 23925.89
quadratic_ranged_35_ub: [ 1 x_11_ ^ 2 - 2 x_19_ * x_11_ + 1 x_19_ ^ 2 + 1 y_11_ ^ 2 - 2 y_19_ * y_11_ + 1 y_19_ ^ 2 ] <= 6000.41
quadratic_ranged_36_ub: [ 1 x_7_ ^ 2 - 2 x_20_ * x_7_ + 1 x_20_ ^ 2 + 1 y_7_ ^ 2 - 2 y_20_ * y_7_ + 1 y_20_ ^ 2 ] <= 4389.46
quadratic_ranged_37_ub: [ 1 x_9_ ^ 2 - 2 x_20_ * x_9_ + 1 x_20_ ^ 2 + 1 y_9_ ^ 2 - 2 y_20_ * y_9_ + 1 y_20_ ^ 2 ] <= 10307.05
quadratic_ranged_38_ub: [ 1 x_14_ ^ 2 - 2 x_20_ * x_14_ + 1 x_20_ ^ 2 + 1 y_14_ ^ 2 - 2 y_20_ * y_14_ + 1 y_20_ ^ 2 ] <= 8440.57
quadratic_ranged_1_lb: [ 1 x_2_ ^ 2 - 2 x_3_ * x_2_ + 1 x_3_ ^ 2 + 1 y_2_ ^ 2 - 2 y_3_ * y_2_ + 1 y_3_ ^ 2 ] >= 1726.56
quadratic_ranged_2_lb: [ 1 x_3_ ^ 2 - 2 x_5_ * x_3_ + 1 x_5_ ^ 2 + 1 y_3_ ^ 2 - 2 y_5_ * y_3_ + 1 y_5_ ^ 2 ] >= 8811
quadratic_ranged_3_lb: [ 1 x_1_ ^ 2 - 2 x_6_ * x_1_ + 1 x_6_ ^ 2 + 1 y_1_ ^ 2 - 2 y_6_ * y_1_ + 1 y_6_ ^ 2 ] >= 6321.15
quadratic_ranged_4_lb: [ 1 x_2_ ^ 2 - 2 x_6_ * x_2_ + 1 x_6_ ^ 2 + 1 y_2_ ^ 2 - 2 y_6_ * y_2_ + 1 y_6_ ^ 2 ] >= 5088.6
quadratic_ranged_5_lb: [ 1 x_5_ ^ 2 - 2 x_7_ * x_5_ + 1 x_7_ ^ 2 + 1 y_5_ ^ 2 - 2 y_7_ * y_5_ + 1 y_7_ ^ 2 ] >= 7711.11
quadratic_ranged_6_lb: [ 1 x_6_ ^ 2 - 2 x_7_ * x_6_ + 1 x_7_ ^ 2 + 1 y_6_ ^ 2 - 2 y_7_ * y_6_ + 1 y_7_ ^ 2 ] >= 2305.71
quadratic_ranged_7_lb: [ 1 x_2_ ^ 2 - 2 x_8_ * x_2_ + 1 x_8_ ^ 2 + 1 y_2_ ^ 2 - 2 y_8_ * y_2_ + 1 y_8_ ^ 2 ] >= 15377.67
quadratic_ranged_8_lb: [ 1 x_3_ ^ 2 - 2 x_8_ * x_3_ + 1 x_8_ ^ 2 + 1 y_3_ ^ 2 - 2 y_8_ * y_3_ + 1 y_8_ ^ 2 ] >= 23036.31
quadratic_ranged_9_lb: [ 1 x_4_ ^ 2 - 2 x_8_ * x_4_ + 1 x_8_ ^ 2 + 1 y_4_ ^ 2 - 2 y_8_ * y_4_ + 1 y_8_ ^ 2 ] >= 5480.64
quadratic_ranged_10_lb: [ 1 x_2_ ^ 2 - 2 x_9_ * x_2_ + 1 x_9_ ^ 2 + 1 y_2_ ^ 2 - 2 y_9_ * y_2_ + 1 y_9_ ^ 2 ] >= 19871.28
quadratic_ranged_11_lb: [ 1 x_7_ ^ 2 - 2 x_9_ * x_7_ + 1 x_9_ ^ 2 + 1 y_7_ ^ 2 - 2 y_9_ * y_7_ + 1 y_9_ ^ 2 ] >= 20212.829999999998
quadratic_ranged_12_lb: [ 1 x_2_ ^ 2 - 2 x_10_ * x_2_ + 1 x_10_ ^ 2 + 1 y_2_ ^ 2 - 2 y_10_ * y_2_ + 1 y_10_ ^ 2 ] >= 120.78
quadratic_ranged_13_lb: [ 1 x_5_ ^ 2 - 2 x_10_ * x_5_ + 1 x_10_ ^ 2 + 1 y_5_ ^ 2 - 2 y_10_ * y_5_ + 1 y_10_ ^ 2 ] >= 12689.82
quadratic_ranged_14_lb: [ 1 x_1_ ^ 2 - 2 x_11_ * x_1_ + 1 x_11_ ^ 2 + 1 y_1_ ^ 2 - 2 y_11_ * y_1_ + 1 y_11_ ^ 2 ] >= 17131.95
quadratic_ranged_15_lb: [ 1 x_7_ ^ 2 - 2 x_11_ * x_7_ + 1 x_11_ ^ 2 + 1 y_7_ ^ 2 - 2 y_11_ * y_7_ + 1 y_11_ ^ 2 ] >= 2507.67
quadratic_ranged_16_lb: [ 1 x_4_ ^ 2 - 2 x_12_ * x_4_ + 1 x_12_ ^ 2 + 1 y_4_ ^ 2 - 2 y_12_ * y_4_ + 1 y_12_ ^ 2 ] >= 4847.04
quadratic_ranged_17_lb: [ 1 x_9_ ^ 2 - 2 x_12_ * x_9_ + 1 x_12_ ^ 2 + 1 y_9_ ^ 2 - 2 y_12_ * y_9_ + 1 y_12_ ^ 2 ] >= 18834.75
quadratic_ranged_18_lb: [ 1 x_10_ ^ 2 - 2 x_12_ * x_10_ + 1 x_12_ ^ 2 + 1 y_10_ ^ 2 - 2 y_12_ * y_10_ + 1 y_12_ ^ 2 ] >= 11845.35
quadratic_ranged_19_lb: [ 1 x_4_ ^ 2 - 2 x_13_ * x_4_ + 1 x_13_ ^ 2 + 1 y_4_ ^ 2 - 2 y_13_ * y_4_ + 1 y_13_ ^ 2 ] >= 2015.6399999999999
quadratic_ranged_20_lb: [ 1 x_1_ ^ 2 - 2 x_14_ * x_1_ + 1 x_14_ ^ 2 + 1 y_1_ ^ 2 - 2 y_14_ * y_1_ + 1 y_14_ ^ 2 ] >= 41355.27
quadratic_ranged_21_lb: [ 1 x_2_ ^ 2 - 2 x_14_ * x_2_ + 1 x_14_ ^ 2 + 1 y_2_ ^ 2 - 2 y_14_ * y_2_ + 1 y_14_ ^ 2 ] >= 16760.7
quadratic_ranged_22_lb: [ 1 x_3_ ^ 2 - 2 x_15_ * x_3_ + 1 x_15_ ^ 2 + 1 y_3_ ^ 2 - 2 y_15_ * y_3_ + 1 y_15_ ^ 2 ] >= 15333.119999999999
quadratic_ranged_23_lb: [ 1 x_4_ ^ 2 - 2 x_15_ * x_4_ + 1 x_15_ ^ 2 + 1 y_4_ ^ 2 - 2 y_15_ * y_4_ + 1 y_15_ ^ 2 ] >= 6855.75
quadratic_ranged_24_lb: [ 1 x_2_ ^ 2 - 2 x_16_ * x_2_ + 1 x_16_ ^ 2 + 1 y_2_ ^ 2 - 2 y_16_ * y_2_ + 1 y_16_ ^ 2 ] >= 2401.74
quadratic_ranged_25_lb: [ 1 x_13_ ^ 2 - 2 x_16_ * x_13_ + 1 x_16_ ^ 2 + 1 y_13_ ^ 2 - 2 y_16_ * y_13_ + 1 y_16_ ^ 2 ] >= 701.91
quadratic_ranged_26_lb: [ 1 x_14_ ^ 2 - 2 x_16_ * x_14_ + 1 x_16_ ^ 2 + 1 y_14_ ^ 2 - 2 y_16_ * y_14_ + 1 y_16_ ^ 2 ] >= 11254.32
quadratic_ranged_27_lb: [ 1 x_1_ ^ 2 - 2 x_17_ * x_1_ + 1 x_17_ ^ 2 + 1 y_1_ ^ 2 - 2 y_17_ * y_1_ + 1 y_17_ ^ 2 ] >= 3663
quadratic_ranged_28_lb: [ 1 x_13_ ^ 2 - 2 x_17_ * x_13_ + 1 x_17_ ^ 2 + 1 y_13_ ^ 2 - 2 y_17_ * y_13_ + 1 y_17_ ^ 2 ] >= 11222.64
quadratic_ranged_29_lb: [ 1 x_16_ ^ 2 - 2 x_17_ * x_16_ + 1 x_17_ ^ 2 + 1 y_16_ ^ 2 - 2 y_17_ * y_16_ + 1 y_17_ ^ 2 ] >= 16244.91
quadratic_ranged_30_lb: [ 1 x_5_ ^ 2 - 2 x_18_ * x_5_ + 1 x_18_ ^ 2 + 1 y_5_ ^ 2 - 2 y_18_ * y_5_ + 1 y_18_ ^ 2 ] >= 8460.539999999999
quadratic_ranged_31_lb: [ 1 x_10_ ^ 2 - 2 x_18_ * x_10_ + 1 x_18_ ^ 2 + 1 y_10_ ^ 2 - 2 y_18_ * y_10_ + 1 y_18_ ^ 2 ] >= 9333.72
quadratic_ranged_32_lb: [ 1 x_15_ ^ 2 - 2 x_18_ * x_15_ + 1 x_18_ ^ 2 + 1 y_15_ ^ 2 - 2 y_18_ * y_15_ + 1 y_18_ ^ 2 ] >= 405.9
quadratic_ranged_33_lb: [ 1 x_1_ ^ 2 - 2 x_19_ * x_1_ + 1 x_19_ ^ 2 + 1 y_1_ ^ 2 - 2 y_19_ * y_1_ + 1 y_19_ ^ 2 ] >= 18194.22
quadratic_ranged_34_lb: [ 1 x_5_ ^ 2 - 2 x_19_ * x_5_ + 1 x_19_ ^ 2 + 1 y_5_ ^ 2 - 2 y_19_ * y_5_ + 1 y_19_ ^ 2 ] >= 23452.11
quadratic_ranged_35_lb: [ 1 x_11_ ^ 2 - 2 x_19_ * x_11_ + 1 x_19_ ^ 2 + 1 y_11_ ^ 2 - 2 y_19_ * y_11_ + 1 y_19_ ^ 2 ] >= 5881.59
quadratic_ranged_36_lb: [ 1 x_7_ ^ 2 - 2 x_20_ * x_7_ + 1 x_20_ ^ 2 + 1 y_7_ ^ 2 - 2 y_20_ * y_7_ + 1 y_20_ ^ 2 ] >= 4302.54
quadratic_ranged_37_lb: [ 1 x_9_ ^ 2 - 2 x_20_ * x_9_ + 1 x_20_ ^ 2 + 1 y_9_ ^ 2 - 2 y_20_ * y_9_ + 1 y_20_ ^ 2 ] >= 10102.95
quadratic_ranged_38_lb: [ 1 x_14_ ^ 2 - 2 x_20_ * x_14_ + 1 x_20_ ^ 2 + 1 y_14_ ^ 2 - 2 y_20_ * y_14_ + 1 y_20_ ^ 2 ] >= 8273.43
c1_1: 1 x_5_ = -73
c2_1: 1 y_5_ = 87
c3_1: 1 x_15_ = 23
c4_1: 1 y_15_ = 81
c5_1: 1 x_6_ = -91
c6_1: 1 y_6_ = 9
Bounds
-171 <= x_1_ <= -11
-106 <= x_2_ <= -19
-102 <= x_3_ <= 21
-60 <= x_4_ <= 102
x_5_ = -73
x_6_ = -91
-139 <= x_7_ <= -43
-135 <= x_8_ <= 106
-248 <= x_9_ <= 101
-94 <= x_10_ <= -8
-190 <= x_11_ <= 8
-130 <= x_12_ <= 102
-105 <= x_13_ <= 57
-236 <= x_14_ <= 111
x_15_ = 23
-132 <= x_16_ <= 30
-212 <= x_17_ <= 50
3 <= x_18_ <= 19
-227 <= x_19_ <= 81
-205 <= x_20_ <= 23
-71 <= y_1_ <= 89
-37 <= y_2_ <= 81
-7 <= y_3_ <= 123
-2 <= y_4_ <= 164
y_5_ = 87
y_6_ = 9
-1 <= y_7_ <= 57
-77 <= y_8_ <= 206
-145 <= y_9_ <= 201
-26 <= y_10_ <= 92
-52 <= y_11_ <= 108
-72 <= y_12_ <= 202
-47 <= y_13_ <= 157
-159 <= y_14_ <= 211
y_15_ = 81
-74 <= y_16_ <= 130
-132 <= y_17_ <= 150
61 <= y_18_ <= 101
-67 <= y_19_ <= 185
-67 <= y_20_ <= 123
General
x_1_
x_2_
x_3_
x_4_
x_5_
x_6_
x_7_
x_8_
x_9_
x_10_
x_11_
x_12_
x_13_
x_14_
x_15_
x_16_
x_17_
x_18_
x_19_
x_20_
y_1_
y_2_
y_3_
y_4_
y_5_
y_6_
y_7_
y_8_
y_9_
y_10_
y_11_
y_12_
y_13_
y_14_
y_15_
y_16_
y_17_
y_18_
y_19_
y_20_
End
