minimize
obj: 
subject to
c1: -174 x_1_ - 184 y_1_ + [ 1 x_1_ ^ 2 + 1 y_1_ ^ 2 ] <= 46566.87812672044
c2: -174 x_2_ - 184 y_2_ + [ 1 x_2_ ^ 2 + 1 y_2_ ^ 2 ] <= 115123.58543584612
c3: -174 x_3_ - 184 y_3_ + [ 1 x_3_ ^ 2 + 1 y_3_ ^ 2 ] <= 69108.94626355602
c4: -174 x_4_ - 184 y_4_ + [ 1 x_4_ ^ 2 + 1 y_4_ ^ 2 ] <= 48240.476886155455
c5: -174 x_5_ - 184 y_5_ + [ 1 x_5_ ^ 2 + 1 y_5_ ^ 2 ] <= 82078.86490312379
c6: -174 x_6_ - 184 y_6_ + [ 1 x_6_ ^ 2 + 1 y_6_ ^ 2 ] <= 116017.71587003503
c7: -174 x_7_ - 184 y_7_ + [ 1 x_7_ ^ 2 + 1 y_7_ ^ 2 ] <= 34316.414506979505
c8: -174 x_8_ - 184 y_8_ + [ 1 x_8_ ^ 2 + 1 y_8_ ^ 2 ] <= 69647.44336292555
c9: -174 x_9_ - 184 y_9_ + [ 1 x_9_ ^ 2 + 1 y_9_ ^ 2 ] <= 98503.96005129523
c10: -174 x_10_ - 184 y_10_ + [ 1 x_10_ ^ 2 + 1 y_10_ ^ 2 ] <= 152386.85675780865
c11: -174 x_11_ - 184 y_11_ + [ 1 x_11_ ^ 2 + 1 y_11_ ^ 2 ] <= 23168.129999999997
c12: -174 x_12_ - 184 y_12_ + [ 1 x_12_ ^ 2 + 1 y_12_ ^ 2 ] <= 86727.74916879376
c13: -174 x_13_ - 184 y_13_ + [ 1 x_13_ ^ 2 + 1 y_13_ ^ 2 ] <= 86302.84892913155
c14: -174 x_14_ - 184 y_14_ + [ 1 x_14_ ^ 2 + 1 y_14_ ^ 2 ] <= 99201.22864113266
c15: -174 x_15_ - 184 y_15_ + [ 1 x_15_ ^ 2 + 1 y_15_ ^ 2 ] <= 129345.72524574312
c16: -174 x_16_ - 184 y_16_ + [ 1 x_16_ ^ 2 + 1 y_16_ ^ 2 ] <= 24610.40999999999
c17: -174 x_17_ - 184 y_17_ + [ 1 x_17_ ^ 2 + 1 y_17_ ^ 2 ] <= 64267.60568932787
c18: -174 x_18_ - 184 y_18_ + [ 1 x_18_ ^ 2 + 1 y_18_ ^ 2 ] <= 16791.999999999993
c19: -174 x_19_ - 184 y_19_ + [ 1 x_19_ ^ 2 + 1 y_19_ ^ 2 ] <= 110465.65102557208
c20: 184 x_1_ - 68 y_1_ + [ 1 x_1_ ^ 2 + 1 y_1_ ^ 2 ] <= 49678.45763451534
c21: 184 x_2_ - 68 y_2_ + [ 1 x_2_ ^ 2 + 1 y_2_ ^ 2 ] <= 35283.12662001423
c22: 184 x_3_ - 68 y_3_ + [ 1 x_3_ ^ 2 + 1 y_3_ ^ 2 ] <= 71565.41195878663
c23: 184 x_4_ - 68 y_4_ + [ 1 x_4_ ^ 2 + 1 y_4_ ^ 2 ] <= 94837.80372425936
c24: 184 x_5_ - 68 y_5_ + [ 1 x_5_ ^ 2 + 1 y_5_ ^ 2 ] <= 22851.324361236162
c25: 184 x_6_ - 68 y_6_ + [ 1 x_6_ ^ 2 + 1 y_6_ ^ 2 ] <= 93043.13726679076
c26: 184 x_7_ - 68 y_7_ + [ 1 x_7_ ^ 2 + 1 y_7_ ^ 2 ] <= 89358.62511308081
c27: 184 x_8_ - 68 y_8_ + [ 1 x_8_ ^ 2 + 1 y_8_ ^ 2 ] <= -5656.76
c28: 184 x_9_ - 68 y_9_ + [ 1 x_9_ ^ 2 + 1 y_9_ ^ 2 ] <= 32570.381785262318
c29: 184 x_10_ - 68 y_10_ + [ 1 x_10_ ^ 2 + 1 y_10_ ^ 2 ] <= -6625.35
c30: 184 x_11_ - 68 y_11_ + [ 1 x_11_ ^ 2 + 1 y_11_ ^ 2 ] <= 151883.47135636955
c31: 184 x_12_ - 68 y_12_ + [ 1 x_12_ ^ 2 + 1 y_12_ ^ 2 ] <= 93397.05389974306
c32: 184 x_13_ - 68 y_13_ + [ 1 x_13_ ^ 2 + 1 y_13_ ^ 2 ] <= 88482.26941283802
c33: 184 x_14_ - 68 y_14_ + [ 1 x_14_ ^ 2 + 1 y_14_ ^ 2 ] <= 51275.62091397844
c34: 184 x_15_ - 68 y_15_ + [ 1 x_15_ ^ 2 + 1 y_15_ ^ 2 ] <= 28575.16999999999
c35: 184 x_16_ - 68 y_16_ + [ 1 x_16_ ^ 2 + 1 y_16_ ^ 2 ] <= 75541.27133793413
c36: 184 x_17_ - 68 y_17_ + [ 1 x_17_ ^ 2 + 1 y_17_ ^ 2 ] <= 125614.11215209734
c37: 184 x_18_ - 68 y_18_ + [ 1 x_18_ ^ 2 + 1 y_18_ ^ 2 ] <= 20826.68303028748
c38: 184 x_20_ - 68 y_20_ + [ 1 x_20_ ^ 2 + 1 y_20_ ^ 2 ] <= 116878.65102557208
c39: 70 x_1_ + 128 y_1_ + [ 1 x_1_ ^ 2 + 1 y_1_ ^ 2 ] <= 8084.757854888643
c40: 70 x_2_ + 128 y_2_ + [ 1 x_2_ ^ 2 + 1 y_2_ ^ 2 ] <= 17671.649999999998
c41: 70 x_3_ + 128 y_3_ + [ 1 x_3_ ^ 2 + 1 y_3_ ^ 2 ] <= -3856.5
c42: 70 x_5_ + 128 y_5_ + [ 1 x_5_ ^ 2 + 1 y_5_ ^ 2 ] <= 17938.879221329014
c43: 70 x_6_ + 128 y_6_ + [ 1 x_6_ ^ 2 + 1 y_6_ ^ 2 ] <= 7805.969999999999
c44: 70 x_7_ + 128 y_7_ + [ 1 x_7_ ^ 2 + 1 y_7_ ^ 2 ] <= 259.78900775985403
c45: 70 x_8_ + 128 y_8_ + [ 1 x_8_ ^ 2 + 1 y_8_ ^ 2 ] <= 62698.64722784706
c46: 70 x_9_ + 128 y_9_ + [ 1 x_9_ ^ 2 + 1 y_9_ ^ 2 ] <= 26262.28177787191
c47: 70 x_10_ + 128 y_10_ + [ 1 x_10_ ^ 2 + 1 y_10_ ^ 2 ] <= 71955.50395044913
c48: 70 x_11_ + 128 y_11_ + [ 1 x_11_ ^ 2 + 1 y_11_ ^ 2 ] <= 20913.584708104954
c49: 70 x_12_ + 128 y_12_ + [ 1 x_12_ ^ 2 + 1 y_12_ ^ 2 ] <= -826.5000000000009
c50: 70 x_13_ + 128 y_13_ + [ 1 x_13_ ^ 2 + 1 y_13_ ^ 2 ] <= 6322.191095525321
c51: 70 x_14_ + 128 y_14_ + [ 1 x_14_ ^ 2 + 1 y_14_ ^ 2 ] <= 2064.6031573740665
c52: 70 x_15_ + 128 y_15_ + [ 1 x_15_ ^ 2 + 1 y_15_ ^ 2 ] <= 11002.506519260513
c53: 70 x_16_ + 128 y_16_ + [ 1 x_16_ ^ 2 + 1 y_16_ ^ 2 ] <= -2625.310000000001
c54: 70 x_17_ + 128 y_17_ + [ 1 x_17_ ^ 2 + 1 y_17_ ^ 2 ] <= -602.2800000000007
c55: 70 x_18_ + 128 y_18_ + [ 1 x_18_ ^ 2 + 1 y_18_ ^ 2 ] <= 28832.33292383748
c56: 70 x_19_ + 128 y_19_ + [ 1 x_19_ ^ 2 + 1 y_19_ ^ 2 ] <= 99136.80372425931
c57: 70 x_20_ + 128 y_20_ + [ 1 x_20_ ^ 2 + 1 y_20_ ^ 2 ] <= 58952.476886155455
quadratic_ranged_1_ub: [ 1 x_1_ ^ 2 - 2 x_2_ * x_1_ + 1 x_2_ ^ 2 + 1 y_1_ ^ 2 - 2 y_2_ * y_1_ + 1 y_2_ ^ 2 ] <= 12534.1
quadratic_ranged_2_ub: [ 1 x_1_ ^ 2 - 2 x_3_ * x_1_ + 1 x_3_ ^ 2 + 1 y_1_ ^ 2 - 2 y_3_ * y_1_ + 1 y_3_ ^ 2 ] <= 6008.49
quadratic_ranged_3_ub: [ 1 x_2_ ^ 2 - 2 x_3_ * x_2_ + 1 x_3_ ^ 2 + 1 y_2_ ^ 2 - 2 y_3_ * y_2_ + 1 y_3_ ^ 2 ] <= 15094.45
quadratic_ranged_4_ub: [ 1 x_2_ ^ 2 - 2 x_4_ * x_2_ + 1 x_4_ ^ 2 + 1 y_2_ ^ 2 - 2 y_4_ * y_2_ + 1 y_4_ ^ 2 ] <= 22992.65
quadratic_ranged_5_ub: [ 1 x_3_ ^ 2 - 2 x_4_ * x_3_ + 1 x_4_ ^ 2 + 1 y_3_ ^ 2 - 2 y_4_ * y_3_ + 1 y_4_ ^ 2 ] <= 1464.5
quadratic_ranged_6_ub: [ 1 x_4_ ^ 2 - 2 x_6_ * x_4_ + 1 x_6_ ^ 2 + 1 y_4_ ^ 2 - 2 y_6_ * y_4_ + 1 y_6_ ^ 2 ] <= 13126.97
quadratic_ranged_7_ub: [ 1 x_5_ ^ 2 - 2 x_6_ * x_5_ + 1 x_6_ ^ 2 + 1 y_5_ ^ 2 - 2 y_6_ * y_5_ + 1 y_6_ ^ 2 ] <= 19659.65
quadratic_ranged_8_ub: [ 1 x_6_ ^ 2 - 2 x_7_ * x_6_ + 1 x_7_ ^ 2 + 1 y_6_ ^ 2 - 2 y_7_ * y_6_ + 1 y_7_ ^ 2 ] <= 19321.3
quadratic_ranged_9_ub: [ 1 x_1_ ^ 2 - 2 x_9_ * x_1_ + 1 x_9_ ^ 2 + 1 y_1_ ^ 2 - 2 y_9_ * y_1_ + 1 y_9_ ^ 2 ] <= 15741.86
quadratic_ranged_10_ub: [ 1 x_5_ ^ 2 - 2 x_9_ * x_5_ + 1 x_9_ ^ 2 + 1 y_5_ ^ 2 - 2 y_9_ * y_5_ + 1 y_9_ ^ 2 ] <= 635.29
quadratic_ranged_11_ub: [ 1 x_2_ ^ 2 - 2 x_10_ * x_2_ + 1 x_10_ ^ 2 + 1 y_2_ ^ 2 - 2 y_10_ * y_2_ + 1 y_10_ ^ 2 ] <= 24705.61
quadratic_ranged_12_ub: [ 1 x_5_ ^ 2 - 2 x_10_ * x_5_ + 1 x_10_ ^ 2 + 1 y_5_ ^ 2 - 2 y_10_ * y_5_ + 1 y_10_ ^ 2 ] <= 15743.880000000001
quadratic_ranged_13_ub: [ 1 x_6_ ^ 2 - 2 x_11_ * x_6_ + 1 x_11_ ^ 2 + 1 y_6_ ^ 2 - 2 y_11_ * y_6_ + 1 y_11_ ^ 2 ] <= 41476.66
quadratic_ranged_14_ub: [ 1 x_7_ ^ 2 - 2 x_11_ * x_7_ + 1 x_11_ ^ 2 + 1 y_7_ ^ 2 - 2 y_11_ * y_7_ + 1 y_11_ ^ 2 ] <= 7615.4
quadratic_ranged_15_ub: [ 1 x_4_ ^ 2 - 2 x_12_ * x_4_ + 1 x_12_ ^ 2 + 1 y_4_ ^ 2 - 2 y_12_ * y_4_ + 1 y_12_ ^ 2 ] <= 4494.5
quadratic_ranged_16_ub: [ 1 x_1_ ^ 2 - 2 x_13_ * x_1_ + 1 x_13_ ^ 2 + 1 y_1_ ^ 2 - 2 y_13_ * y_1_ + 1 y_13_ ^ 2 ] <= 4858.1
quadratic_ranged_17_ub: [ 1 x_3_ ^ 2 - 2 x_13_ * x_3_ + 1 x_13_ ^ 2 + 1 y_3_ ^ 2 - 2 y_13_ * y_3_ + 1 y_13_ ^ 2 ] <= 4849.01
quadratic_ranged_18_ub: [ 1 x_12_ ^ 2 - 2 x_13_ * x_12_ + 1 x_13_ ^ 2 + 1 y_12_ ^ 2 - 2 y_13_ * y_12_ + 1 y_13_ ^ 2 ] <= 17344.73
quadratic_ranged_19_ub: [ 1 x_3_ ^ 2 - 2 x_14_ * x_3_ + 1 x_14_ ^ 2 + 1 y_3_ ^ 2 - 2 y_14_ * y_3_ + 1 y_14_ ^ 2 ] <= 2272.5
quadratic_ranged_20_ub: [ 1 x_5_ ^ 2 - 2 x_14_ * x_5_ + 1 x_14_ ^ 2 + 1 y_5_ ^ 2 - 2 y_14_ * y_5_ + 1 y_14_ ^ 2 ] <= 4431.88
quadratic_ranged_21_ub: [ 1 x_12_ ^ 2 - 2 x_14_ * x_12_ + 1 x_14_ ^ 2 + 1 y_12_ ^ 2 - 2 y_14_ * y_12_ + 1 y_14_ ^ 2 ] <= 5504.5
quadratic_ranged_22_ub: [ 1 x_3_ ^ 2 - 2 x_15_ * x_3_ + 1 x_15_ ^ 2 + 1 y_3_ ^ 2 - 2 y_15_ * y_3_ + 1 y_15_ ^ 2 ] <= 8009.3
quadratic_ranged_23_ub: [ 1 x_5_ ^ 2 - 2 x_15_ * x_5_ + 1 x_15_ ^ 2 + 1 y_5_ ^ 2 - 2 y_15_ * y_5_ + 1 y_15_ ^ 2 ] <= 16050.92
quadratic_ranged_24_ub: [ 1 x_8_ ^ 2 - 2 x_15_ * x_8_ + 1 x_15_ ^ 2 + 1 y_8_ ^ 2 - 2 y_15_ * y_8_ + 1 y_15_ ^ 2 ] <= 17700.25
quadratic_ranged_25_ub: [ 1 x_4_ ^ 2 - 2 x_16_ * x_4_ + 1 x_16_ ^ 2 + 1 y_4_ ^ 2 - 2 y_16_ * y_4_ + 1 y_16_ ^ 2 ] <= 2695.69
quadratic_ranged_26_ub: [ 1 x_5_ ^ 2 - 2 x_16_ * x_5_ + 1 x_16_ ^ 2 + 1 y_5_ ^ 2 - 2 y_16_ * y_5_ + 1 y_16_ ^ 2 ] <= 12460.37
quadratic_ranged_27_ub: [ 1 x_7_ ^ 2 - 2 x_16_ * x_7_ + 1 x_16_ ^ 2 + 1 y_7_ ^ 2 - 2 y_16_ * y_7_ + 1 y_16_ ^ 2 ] <= 519.14
quadratic_ranged_28_ub: [ 1 x_4_ ^ 2 - 2 x_17_ * x_4_ + 1 x_17_ ^ 2 + 1 y_4_ ^ 2 - 2 y_17_ * y_4_ + 1 y_17_ ^ 2 ] <= 4718.72
quadratic_ranged_29_ub: [ 1 x_7_ ^ 2 - 2 x_17_ * x_7_ + 1 x_17_ ^ 2 + 1 y_7_ ^ 2 - 2 y_17_ * y_7_ + 1 y_17_ ^ 2 ] <= 3479.45
quadratic_ranged_30_ub: [ 1 x_9_ ^ 2 - 2 x_17_ * x_9_ + 1 x_17_ ^ 2 + 1 y_9_ ^ 2 - 2 y_17_ * y_9_ + 1 y_17_ ^ 2 ] <= 26353.93
quadratic_ranged_31_ub: [ 1 x_1_ ^ 2 - 2 x_18_ * x_1_ + 1 x_18_ ^ 2 + 1 y_1_ ^ 2 - 2 y_18_ * y_1_ + 1 y_18_ ^ 2 ] <= 4764.17
quadratic_ranged_32_ub: [ 1 x_8_ ^ 2 - 2 x_18_ * x_8_ + 1 x_18_ ^ 2 + 1 y_8_ ^ 2 - 2 y_18_ * y_8_ + 1 y_18_ ^ 2 ] <= 12440.17
quadratic_ranged_33_ub: [ 1 x_8_ ^ 2 - 2 x_19_ * x_8_ + 1 x_19_ ^ 2 + 1 y_8_ ^ 2 - 2 y_19_ * y_8_ + 1 y_19_ ^ 2 ] <= 3963.2400000000002
quadratic_ranged_34_ub: [ 1 x_10_ ^ 2 - 2 x_19_ * x_10_ + 1 x_19_ ^ 2 + 1 y_10_ ^ 2 - 2 y_19_ * y_10_ + 1 y_19_ ^ 2 ] <= 2994.65
quadratic_ranged_35_ub: [ 1 x_15_ ^ 2 - 2 x_19_ * x_15_ + 1 x_19_ ^ 2 + 1 y_15_ ^ 2 - 2 y_19_ * y_15_ + 1 y_19_ ^ 2 ] <= 38195.17
quadratic_ranged_36_ub: [ 1 x_11_ ^ 2 - 2 x_20_ * x_11_ + 1 x_20_ ^ 2 + 1 y_11_ ^ 2 - 2 y_20_ * y_11_ + 1 y_20_ ^ 2 ] <= 39201.13
quadratic_ranged_37_ub: [ 1 x_16_ ^ 2 - 2 x_20_ * x_16_ + 1 x_20_ ^ 2 + 1 y_16_ ^ 2 - 2 y_20_ * y_16_ + 1 y_20_ ^ 2 ] <= 40643.41
quadratic_ranged_38_ub: [ 1 x_18_ ^ 2 - 2 x_20_ * x_18_ + 1 x_20_ ^ 2 + 1 y_18_ ^ 2 - 2 y_20_ * y_18_ + 1 y_20_ ^ 2 ] <= 32825
quadratic_ranged_1_lb: [ 1 x_1_ ^ 2 - 2 x_2_ * x_1_ + 1 x_2_ ^ 2 + 1 y_1_ ^ 2 - 2 y_2_ * y_1_ + 1 y_2_ ^ 2 ] >= 12285.9
quadratic_ranged_2_lb: [ 1 x_1_ ^ 2 - 2 x_3_ * x_1_ + 1 x_3_ ^ 2 + 1 y_1_ ^ 2 - 2 y_3_ * y_1_ + 1 y_3_ ^ 2 ] >= 5889.51
quadratic_ranged_3_lb: [ 1 x_2_ ^ 2 - 2 x_3_ * x_2_ + 1 x_3_ ^ 2 + 1 y_2_ ^ 2 - 2 y_3_ * y_2_ + 1 y_3_ ^ 2 ] >= 14795.55
quadratic_ranged_4_lb: [ 1 x_2_ ^ 2 - 2 x_4_ * x_2_ + 1 x_4_ ^ 2 + 1 y_2_ ^ 2 - 2 y_4_ * y_2_ + 1 y_4_ ^ 2 ] >= 22537.35
quadratic_ranged_5_lb: [ 1 x_3_ ^ 2 - 2 x_4_ * x_3_ + 1 x_4_ ^ 2 + 1 y_3_ ^ 2 - 2 y_4_ * y_3_ + 1 y_4_ ^ 2 ] >= 1435.5
quadratic_ranged_6_lb: [ 1 x_4_ ^ 2 - 2 x_6_ * x_4_ + 1 x_6_ ^ 2 + 1 y_4_ ^ 2 - 2 y_6_ * y_4_ + 1 y_6_ ^ 2 ] >= 12867.03
quadratic_ranged_7_lb: [ 1 x_5_ ^ 2 - 2 x_6_ * x_5_ + 1 x_6_ ^ 2 + 1 y_5_ ^ 2 - 2 y_6_ * y_5_ + 1 y_6_ ^ 2 ] >= 19270.35
quadratic_ranged_8_lb: [ 1 x_6_ ^ 2 - 2 x_7_ * x_6_ + 1 x_7_ ^ 2 + 1 y_6_ ^ 2 - 2 y_7_ * y_6_ + 1 y_7_ ^ 2 ] >= 18938.7
quadratic_ranged_9_lb: [ 1 x_1_ ^ 2 - 2 x_9_ * x_1_ + 1 x_9_ ^ 2 + 1 y_1_ ^ 2 - 2 y_9_ * y_1_ + 1 y_9_ ^ 2 ] >= 15430.14
quadratic_ranged_10_lb: [ 1 x_5_ ^ 2 - 2 x_9_ * x_5_ + 1 x_9_ ^ 2 + 1 y_5_ ^ 2 - 2 y_9_ * y_5_ + 1 y_9_ ^ 2 ] >= 622.71
quadratic_ranged_11_lb: [ 1 x_2_ ^ 2 - 2 x_10_ * x_2_ + 1 x_10_ ^ 2 + 1 y_2_ ^ 2 - 2 y_10_ * y_2_ + 1 y_10_ ^ 2 ] >= 24216.39
quadratic_ranged_12_lb: [ 1 x_5_ ^ 2 - 2 x_10_ * x_5_ + 1 x_10_ ^ 2 + 1 y_5_ ^ 2 - 2 y_10_ * y_5_ + 1 y_10_ ^ 2 ] >= 15432.119999999999
quadratic_ranged_13_lb: [ 1 x_6_ ^ 2 - 2 x_11_ * x_6_ + 1 x_11_ ^ 2 + 1 y_6_ ^ 2 - 2 y_11_ * y_6_ + 1 y_11_ ^ 2 ] >= 40655.34
quadratic_ranged_14_lb: [ 1 x_7_ ^ 2 - 2 x_11_ * x_7_ + 1 x_11_ ^ 2 + 1 y_7_ ^ 2 - 2 y_11_ * y_7_ + 1 y_11_ ^ 2 ] >= 7464.6
quadratic_ranged_15_lb: [ 1 x_4_ ^ 2 - 2 x_12_ * x_4_ + 1 x_12_ ^ 2 + 1 y_4_ ^ 2 - 2 y_12_ * y_4_ + 1 y_12_ ^ 2 ] >= 4405.5
quadratic_ranged_16_lb: [ 1 x_1_ ^ 2 - 2 x_13_ * x_1_ + 1 x_13_ ^ 2 + 1 y_1_ ^ 2 - 2 y_13_ * y_1_ + 1 y_13_ ^ 2 ] >= 4761.9
quadratic_ranged_17_lb: [ 1 x_3_ ^ 2 - 2 x_13_ * x_3_ + 1 x_13_ ^ 2 + 1 y_3_ ^ 2 - 2 y_13_ * y_3_ + 1 y_13_ ^ 2 ] >= 4752.99
quadratic_ranged_18_lb: [ 1 x_12_ ^ 2 - 2 x_13_ * x_12_ + 1 x_13_ ^ 2 + 1 y_12_ ^ 2 - 2 y_13_ * y_12_ + 1 y_13_ ^ 2 ] >= 17001.27
quadratic_ranged_19_lb: [ 1 x_3_ ^ 2 - 2 x_14_ * x_3_ + 1 x_14_ ^ 2 + 1 y_3_ ^ 2 - 2 y_14_ * y_3_ + 1 y_14_ ^ 2 ] >= 2227.5
quadratic_ranged_20_lb: [ 1 x_5_ ^ 2 - 2 x_14_ * x_5_ + 1 x_14_ ^ 2 + 1 y_5_ ^ 2 - 2 y_14_ * y_5_ + 1 y_14_ ^ 2 ] >= 4344.12
quadratic_ranged_21_lb: [ 1 x_12_ ^ 2 - 2 x_14_ * x_12_ + 1 x_14_ ^ 2 + 1 y_12_ ^ 2 - 2 y_14_ * y_12_ + 1 y_14_ ^ 2 ] >= 5395.5
quadratic_ranged_22_lb: [ 1 x_3_ ^ 2 - 2 x_15_ * x_3_ + 1 x_15_ ^ 2 + 1 y_3_ ^ 2 - 2 y_15_ * y_3_ + 1 y_15_ ^ 2 ] >= 7850.7
quadratic_ranged_23_lb: [ 1 x_5_ ^ 2 - 2 x_15_ * x_5_ + 1 x_15_ ^ 2 + 1 y_5_ ^ 2 - 2 y_15_ * y_5_ + 1 y_15_ ^ 2 ] >= 15733.08
quadratic_ranged_24_lb: [ 1 x_8_ ^ 2 - 2 x_15_ * x_8_ + 1 x_15_ ^ 2 + 1 y_8_ ^ 2 - 2 y_15_ * y_8_ + 1 y_15_ ^ 2 ] >= 17349.75
quadratic_ranged_25_lb: [ 1 x_4_ ^ 2 - 2 x_16_ * x_4_ + 1 x_16_ ^ 2 + 1 y_4_ ^ 2 - 2 y_16_ * y_4_ + 1 y_16_ ^ 2 ] >= 2642.31
quadratic_ranged_26_lb: [ 1 x_5_ ^ 2 - 2 x_16_ * x_5_ + 1 x_16_ ^ 2 + 1 y_5_ ^ 2 - 2 y_16_ * y_5_ + 1 y_16_ ^ 2 ] >= 12213.63
quadratic_ranged_27_lb: [ 1 x_7_ ^ 2 - 2 x_16_ * x_7_ + 1 x_16_ ^ 2 + 1 y_7_ ^ 2 - 2 y_16_ * y_7_ + 1 y_16_ ^ 2 ] >= 508.86
quadratic_ranged_28_lb: [ 1 x_4_ ^ 2 - 2 x_17_ * x_4_ + 1 x_17_ ^ 2 + 1 y_4_ ^ 2 - 2 y_17_ * y_4_ + 1 y_17_ ^ 2 ] >= 4625.28
quadratic_ranged_29_lb: [ 1 x_7_ ^ 2 - 2 x_17_ * x_7_ + 1 x_17_ ^ 2 + 1 y_7_ ^ 2 - 2 y_17_ * y_7_ + 1 y_17_ ^ 2 ] >= 3410.55
quadratic_ranged_30_lb: [ 1 x_9_ ^ 2 - 2 x_17_ * x_9_ + 1 x_17_ ^ 2 + 1 y_9_ ^ 2 - 2 y_17_ * y_9_ + 1 y_17_ ^ 2 ] >= 25832.07
quadratic_ranged_31_lb: [ 1 x_1_ ^ 2 - 2 x_18_ * x_1_ + 1 x_18_ ^ 2 + 1 y_1_ ^ 2 - 2 y_18_ * y_1_ + 1 y_18_ ^ 2 ] >= 4669.83
quadratic_ranged_32_lb: [ 1 x_8_ ^ 2 - 2 x_18_ * x_8_ + 1 x_18_ ^ 2 + 1 y_8_ ^ 2 - 2 y_18_ * y_8_ + 1 y_18_ ^ 2 ] >= 12193.83
quadratic_ranged_33_lb: [ 1 x_8_ ^ 2 - 2 x_19_ * x_8_ + 1 x_19_ ^ 2 + 1 y_8_ ^ 2 - 2 y_19_ * y_8_ + 1 y_19_ ^ 2 ] >= 3884.7599999999998
quadratic_ranged_34_lb: [ 1 x_10_ ^ 2 - 2 x_19_ * x_10_ + 1 x_19_ ^ 2 + 1 y_10_ ^ 2 - 2 y_19_ * y_10_ + 1 y_19_ ^ 2 ] >= 2935.35
quadratic_ranged_35_lb: [ 1 x_15_ ^ 2 - 2 x_19_ * x_15_ + 1 x_19_ ^ 2 + 1 y_15_ ^ 2 - 2 y_19_ * y_15_ + 1 y_19_ ^ 2 ] >= 37438.83
quadratic_ranged_36_lb: [ 1 x_11_ ^ 2 - 2 x_20_ * x_11_ + 1 x_20_ ^ 2 + 1 y_11_ ^ 2 - 2 y_20_ * y_11_ + 1 y_20_ ^ 2 ] >= 38424.87
quadratic_ranged_37_lb: [ 1 x_16_ ^ 2 - 2 x_20_ * x_16_ + 1 x_20_ ^ 2 + 1 y_16_ ^ 2 - 2 y_20_ * y_16_ + 1 y_20_ ^ 2 ] >= 39838.59
quadratic_ranged_38_lb: [ 1 x_18_ ^ 2 - 2 x_20_ * x_18_ + 1 x_20_ ^ 2 + 1 y_18_ ^ 2 - 2 y_20_ * y_18_ + 1 y_20_ ^ 2 ] >= 32175
c1_1: 1 x_20_ = 87
c2_1: 1 y_20_ = 92
c3_1: 1 x_19_ = -92
c4_1: 1 y_19_ = 34
c5_1: 1 x_4_ = -35
c6_1: 1 y_4_ = -64
Bounds
-150 <= x_1_ <= 80
-186 <= x_2_ <= 116
-73 <= x_3_ <= 3
x_4_ = -35
-187 <= x_5_ <= 88
-149 <= x_6_ <= 79
-109 <= x_7_ <= 39
-154 <= x_8_ <= -30
-212 <= x_9_ <= 113
-146 <= x_10_ <= -38
-110 <= x_11_ <= 126
-102 <= x_12_ <= 32
-142 <= x_13_ <= 72
-120 <= x_14_ <= 50
-162 <= x_15_ <= 92
-86 <= x_16_ <= 16
-103 <= x_17_ <= 33
-94 <= x_18_ <= 82
x_19_ = -92
x_20_ = 87
-158 <= y_1_ <= 51
-177 <= y_2_ <= 87
-102 <= y_3_ <= -26
y_4_ = -64
-146 <= y_5_ <= 88
-178 <= y_6_ <= 50
-132 <= y_7_ <= 10
-28 <= y_8_ <= 96
-171 <= y_9_ <= 113
-20 <= y_10_ <= 88
-105 <= y_11_ <= 97
-131 <= y_12_ <= 3
-171 <= y_13_ <= 43
-149 <= y_14_ <= 21
-161 <= y_15_ <= 63
-109 <= y_16_ <= -13
-132 <= y_17_ <= 4
-89 <= y_18_ <= 120
y_19_ = 34
y_20_ = 92
General
x_1_
x_2_
x_3_
x_4_
x_5_
x_6_
x_7_
x_8_
x_9_
x_10_
x_11_
x_12_
x_13_
x_14_
x_15_
x_16_
x_17_
x_18_
x_19_
x_20_
y_1_
y_2_
y_3_
y_4_
y_5_
y_6_
y_7_
y_8_
y_9_
y_10_
y_11_
y_12_
y_13_
y_14_
y_15_
y_16_
y_17_
y_18_
y_19_
y_20_
End
