minimize
obj: 
subject to
c1: 42 x_1_ - 174 y_1_ + [ 1 x_1_ ^ 2 + 1 y_1_ ^ 2 ] <= 17799.610798360118
c2: 42 x_2_ - 174 y_2_ + [ 1 x_2_ ^ 2 + 1 y_2_ ^ 2 ] <= 40995.006848910685
c3: 42 x_3_ - 174 y_3_ + [ 1 x_3_ ^ 2 + 1 y_3_ ^ 2 ] <= 35396.16561098795
c4: 42 x_4_ - 174 y_4_ + [ 1 x_4_ ^ 2 + 1 y_4_ ^ 2 ] <= -5228.460000000001
c5: 42 x_5_ - 174 y_5_ + [ 1 x_5_ ^ 2 + 1 y_5_ ^ 2 ] <= 6607.729999999998
c6: 42 x_6_ - 174 y_6_ + [ 1 x_6_ ^ 2 + 1 y_6_ ^ 2 ] <= 17887.514772966562
c7: 42 x_7_ - 174 y_7_ + [ 1 x_7_ ^ 2 + 1 y_7_ ^ 2 ] <= 117280.51993600787
c8: 42 x_8_ - 174 y_8_ + [ 1 x_8_ ^ 2 + 1 y_8_ ^ 2 ] <= 61559.762694861696
c9: 42 x_9_ - 174 y_9_ + [ 1 x_9_ ^ 2 + 1 y_9_ ^ 2 ] <= 70729.37002404587
c10: 42 x_10_ - 174 y_10_ + [ 1 x_10_ ^ 2 + 1 y_10_ ^ 2 ] <= 85109.38251704723
c11: 42 x_11_ - 174 y_11_ + [ 1 x_11_ ^ 2 + 1 y_11_ ^ 2 ] <= 47558.37565417564
c12: 42 x_12_ - 174 y_12_ + [ 1 x_12_ ^ 2 + 1 y_12_ ^ 2 ] <= 35494.19891111302
c13: 42 x_13_ - 174 y_13_ + [ 1 x_13_ ^ 2 + 1 y_13_ ^ 2 ] <= 29530.040000856556
c14: 42 x_14_ - 174 y_14_ + [ 1 x_14_ ^ 2 + 1 y_14_ ^ 2 ] <= 39825.11971247809
c15: 42 x_16_ - 174 y_16_ + [ 1 x_16_ ^ 2 + 1 y_16_ ^ 2 ] <= -5373.9
c16: 42 x_17_ - 174 y_17_ + [ 1 x_17_ ^ 2 + 1 y_17_ ^ 2 ] <= -1370.4140945219915
c17: 42 x_18_ - 174 y_18_ + [ 1 x_18_ ^ 2 + 1 y_18_ ^ 2 ] <= 72228.78504479074
c18: 42 x_19_ - 174 y_19_ + [ 1 x_19_ ^ 2 + 1 y_19_ ^ 2 ] <= 39395.63894782921
c19: 42 x_20_ - 174 y_20_ + [ 1 x_20_ ^ 2 + 1 y_20_ ^ 2 ] <= 2725.289999999999
c20: -152 x_1_ - 78 y_1_ + [ 1 x_1_ ^ 2 + 1 y_1_ ^ 2 ] <= 81456.48314711585
c21: -152 x_2_ - 78 y_2_ + [ 1 x_2_ ^ 2 + 1 y_2_ ^ 2 ] <= 34646.77109175403
c22: -152 x_3_ - 78 y_3_ + [ 1 x_3_ ^ 2 + 1 y_3_ ^ 2 ] <= 20273.409490281425
c23: -152 x_4_ - 78 y_4_ + [ 1 x_4_ ^ 2 + 1 y_4_ ^ 2 ] <= 52317.48192805905
c24: -152 x_5_ - 78 y_5_ + [ 1 x_5_ ^ 2 + 1 y_5_ ^ 2 ] <= 19063.999999999993
c25: -152 x_6_ - 78 y_6_ + [ 1 x_6_ ^ 2 + 1 y_6_ ^ 2 ] <= 17951.482070906404
c26: -152 x_7_ - 78 y_7_ + [ 1 x_7_ ^ 2 + 1 y_7_ ^ 2 ] <= 33640.37147715415
c27: -152 x_8_ - 78 y_8_ + [ 1 x_8_ ^ 2 + 1 y_8_ ^ 2 ] <= 121994.35730561939
c28: -152 x_9_ - 78 y_9_ + [ 1 x_9_ ^ 2 + 1 y_9_ ^ 2 ] <= 13892.799999999996
c29: -152 x_10_ - 78 y_10_ + [ 1 x_10_ ^ 2 + 1 y_10_ ^ 2 ] <= 61796.601965055976
c30: -152 x_11_ - 78 y_11_ + [ 1 x_11_ ^ 2 + 1 y_11_ ^ 2 ] <= -224.98000000000047
c31: -152 x_12_ - 78 y_12_ + [ 1 x_12_ ^ 2 + 1 y_12_ ^ 2 ] <= 35364.77205747779
c32: -152 x_13_ - 78 y_13_ + [ 1 x_13_ ^ 2 + 1 y_13_ ^ 2 ] <= 71620.80678842906
c33: -152 x_14_ - 78 y_14_ + [ 1 x_14_ ^ 2 + 1 y_14_ ^ 2 ] <= 83291.15809162994
c34: -152 x_15_ - 78 y_15_ + [ 1 x_15_ ^ 2 + 1 y_15_ ^ 2 ] <= 72941.78504479074
c35: -152 x_16_ - 78 y_16_ + [ 1 x_16_ ^ 2 + 1 y_16_ ^ 2 ] <= 78409.88048764908
c36: -152 x_17_ - 78 y_17_ + [ 1 x_17_ ^ 2 + 1 y_17_ ^ 2 ] <= 67179.65746515205
c37: -152 x_19_ - 78 y_19_ + [ 1 x_19_ ^ 2 + 1 y_19_ ^ 2 ] <= 113900.97687593786
c38: -152 x_20_ - 78 y_20_ + [ 1 x_20_ ^ 2 + 1 y_20_ ^ 2 ] <= 96748.78294372553
c39: 124 x_1_ - 166 y_1_ + [ 1 x_1_ ^ 2 + 1 y_1_ ^ 2 ] <= 139184.1854738263
c40: 124 x_2_ - 166 y_2_ + [ 1 x_2_ ^ 2 + 1 y_2_ ^ 2 ] <= -7224.26
c41: 124 x_3_ - 166 y_3_ + [ 1 x_3_ ^ 2 + 1 y_3_ ^ 2 ] <= 86368.142994597
c42: 124 x_4_ - 166 y_4_ + [ 1 x_4_ ^ 2 + 1 y_4_ ^ 2 ] <= 67263.20997950147
c43: 124 x_5_ - 166 y_5_ + [ 1 x_5_ ^ 2 + 1 y_5_ ^ 2 ] <= 28264.5424910516
c44: 124 x_6_ - 166 y_6_ + [ 1 x_6_ ^ 2 + 1 y_6_ ^ 2 ] <= 45673.818904206004
c45: 124 x_7_ - 166 y_7_ + [ 1 x_7_ ^ 2 + 1 y_7_ ^ 2 ] <= 15548.209999999995
c46: 124 x_8_ - 166 y_8_ + [ 1 x_8_ ^ 2 + 1 y_8_ ^ 2 ] <= 91255.26812998083
c47: 124 x_10_ - 166 y_10_ + [ 1 x_10_ ^ 2 + 1 y_10_ ^ 2 ] <= 55206.33415562833
c48: 124 x_11_ - 166 y_11_ + [ 1 x_11_ ^ 2 + 1 y_11_ ^ 2 ] <= 42011.84999189438
c49: 124 x_12_ - 166 y_12_ + [ 1 x_12_ ^ 2 + 1 y_12_ ^ 2 ] <= 60029.66673536418
c50: 124 x_13_ - 166 y_13_ + [ 1 x_13_ ^ 2 + 1 y_13_ ^ 2 ] <= 25991.61
c51: 124 x_14_ - 166 y_14_ + [ 1 x_14_ ^ 2 + 1 y_14_ ^ 2 ] <= 119186.83016086541
c52: 124 x_15_ - 166 y_15_ + [ 1 x_15_ ^ 2 + 1 y_15_ ^ 2 ] <= 68006.37002404587
c53: 124 x_16_ - 166 y_16_ + [ 1 x_16_ ^ 2 + 1 y_16_ ^ 2 ] <= 99456.6924373186
c54: 124 x_17_ - 166 y_17_ + [ 1 x_17_ ^ 2 + 1 y_17_ ^ 2 ] <= 84144.15983283347
c55: 124 x_18_ - 166 y_18_ + [ 1 x_18_ ^ 2 + 1 y_18_ ^ 2 ] <= 10456.799999999996
c56: 124 x_19_ - 166 y_19_ + [ 1 x_19_ ^ 2 + 1 y_19_ ^ 2 ] <= 30300.72633219791
c57: 124 x_20_ - 166 y_20_ + [ 1 x_20_ ^ 2 + 1 y_20_ ^ 2 ] <= 20593.91813752238
quadratic_ranged_1_ub: [ 1 x_1_ ^ 2 - 2 x_3_ * x_1_ + 1 x_3_ ^ 2 + 1 y_1_ ^ 2 - 2 y_3_ * y_1_ + 1 y_3_ ^ 2 ] <= 17390.18
quadratic_ranged_2_ub: [ 1 x_1_ ^ 2 - 2 x_4_ * x_1_ + 1 x_4_ ^ 2 + 1 y_1_ ^ 2 - 2 y_4_ * y_1_ + 1 y_4_ ^ 2 ] <= 11645.3
quadratic_ranged_3_ub: [ 1 x_3_ ^ 2 - 2 x_4_ * x_3_ + 1 x_4_ ^ 2 + 1 y_3_ ^ 2 - 2 y_4_ * y_3_ + 1 y_4_ ^ 2 ] <= 24211.72
quadratic_ranged_4_ub: [ 1 x_2_ ^ 2 - 2 x_5_ * x_2_ + 1 x_5_ ^ 2 + 1 y_2_ ^ 2 - 2 y_5_ * y_2_ + 1 y_5_ ^ 2 ] <= 19111.22
quadratic_ranged_5_ub: [ 1 x_4_ ^ 2 - 2 x_5_ * x_4_ + 1 x_5_ ^ 2 + 1 y_4_ ^ 2 - 2 y_5_ * y_4_ + 1 y_5_ ^ 2 ] <= 6691.25
quadratic_ranged_6_ub: [ 1 x_4_ ^ 2 - 2 x_6_ * x_4_ + 1 x_6_ ^ 2 + 1 y_4_ ^ 2 - 2 y_6_ * y_4_ + 1 y_6_ ^ 2 ] <= 11882.65
quadratic_ranged_7_ub: [ 1 x_5_ ^ 2 - 2 x_6_ * x_5_ + 1 x_6_ ^ 2 + 1 y_5_ ^ 2 - 2 y_6_ * y_5_ + 1 y_6_ ^ 2 ] <= 1601.8600000000001
quadratic_ranged_8_ub: [ 1 x_7_ ^ 2 - 2 x_8_ * x_7_ + 1 x_8_ ^ 2 + 1 y_7_ ^ 2 - 2 y_8_ * y_7_ + 1 y_8_ ^ 2 ] <= 24724.8
quadratic_ranged_9_ub: [ 1 x_2_ ^ 2 - 2 x_9_ * x_2_ + 1 x_9_ ^ 2 + 1 y_2_ ^ 2 - 2 y_9_ * y_2_ + 1 y_9_ ^ 2 ] <= 3508.7400000000002
quadratic_ranged_10_ub: [ 1 x_7_ ^ 2 - 2 x_9_ * x_7_ + 1 x_9_ ^ 2 + 1 y_7_ ^ 2 - 2 y_9_ * y_7_ + 1 y_9_ ^ 2 ] <= 26281.21
quadratic_ranged_11_ub: [ 1 x_3_ ^ 2 - 2 x_10_ * x_3_ + 1 x_10_ ^ 2 + 1 y_3_ ^ 2 - 2 y_10_ * y_3_ + 1 y_10_ ^ 2 ] <= 9372.8
quadratic_ranged_12_ub: [ 1 x_7_ ^ 2 - 2 x_10_ * x_7_ + 1 x_10_ ^ 2 + 1 y_7_ ^ 2 - 2 y_10_ * y_7_ + 1 y_10_ ^ 2 ] <= 8962.74
quadratic_ranged_13_ub: [ 1 x_8_ ^ 2 - 2 x_10_ * x_8_ + 1 x_10_ ^ 2 + 1 y_8_ ^ 2 - 2 y_10_ * y_8_ + 1 y_10_ ^ 2 ] <= 26706.420000000002
quadratic_ranged_14_ub: [ 1 x_3_ ^ 2 - 2 x_11_ * x_3_ + 1 x_11_ ^ 2 + 1 y_3_ ^ 2 - 2 y_11_ * y_3_ + 1 y_11_ ^ 2 ] <= 6715.49
quadratic_ranged_15_ub: [ 1 x_6_ ^ 2 - 2 x_11_ * x_6_ + 1 x_11_ ^ 2 + 1 y_6_ ^ 2 - 2 y_11_ * y_6_ + 1 y_11_ ^ 2 ] <= 5595.4
quadratic_ranged_16_ub: [ 1 x_7_ ^ 2 - 2 x_11_ * x_7_ + 1 x_11_ ^ 2 + 1 y_7_ ^ 2 - 2 y_11_ * y_7_ + 1 y_11_ ^ 2 ] <= 13979.41
quadratic_ranged_17_ub: [ 1 x_6_ ^ 2 - 2 x_12_ * x_6_ + 1 x_12_ ^ 2 + 1 y_6_ ^ 2 - 2 y_12_ * y_6_ + 1 y_12_ ^ 2 ] <= 2270.48
quadratic_ranged_18_ub: [ 1 x_9_ ^ 2 - 2 x_13_ * x_9_ + 1 x_13_ ^ 2 + 1 y_9_ ^ 2 - 2 y_13_ * y_9_ + 1 y_13_ ^ 2 ] <= 36724.61
quadratic_ranged_19_ub: [ 1 x_12_ ^ 2 - 2 x_13_ * x_12_ + 1 x_13_ ^ 2 + 1 y_12_ ^ 2 - 2 y_13_ * y_12_ + 1 y_13_ ^ 2 ] <= 5531.77
quadratic_ranged_20_ub: [ 1 x_1_ ^ 2 - 2 x_14_ * x_1_ + 1 x_14_ ^ 2 + 1 y_1_ ^ 2 - 2 y_14_ * y_1_ + 1 y_14_ ^ 2 ] <= 24054.16
quadratic_ranged_21_ub: [ 1 x_4_ ^ 2 - 2 x_14_ * x_4_ + 1 x_14_ ^ 2 + 1 y_4_ ^ 2 - 2 y_14_ * y_4_ + 1 y_14_ ^ 2 ] <= 27546.74
quadratic_ranged_22_ub: [ 1 x_12_ ^ 2 - 2 x_14_ * x_12_ + 1 x_14_ ^ 2 + 1 y_12_ ^ 2 - 2 y_14_ * y_12_ + 1 y_14_ ^ 2 ] <= 8917.29
quadratic_ranged_23_ub: [ 1 x_4_ ^ 2 - 2 x_15_ * x_4_ + 1 x_15_ ^ 2 + 1 y_4_ ^ 2 - 2 y_15_ * y_4_ + 1 y_15_ ^ 2 ] <= 2781.54
quadratic_ranged_24_ub: [ 1 x_5_ ^ 2 - 2 x_15_ * x_5_ + 1 x_15_ ^ 2 + 1 y_5_ ^ 2 - 2 y_15_ * y_5_ + 1 y_15_ ^ 2 ] <= 14617.73
quadratic_ranged_25_ub: [ 1 x_6_ ^ 2 - 2 x_16_ * x_6_ + 1 x_16_ ^ 2 + 1 y_6_ ^ 2 - 2 y_16_ * y_6_ + 1 y_16_ ^ 2 ] <= 17918.41
quadratic_ranged_26_ub: [ 1 x_15_ ^ 2 - 2 x_16_ * x_15_ + 1 x_16_ ^ 2 + 1 y_15_ ^ 2 - 2 y_16_ * y_15_ + 1 y_16_ ^ 2 ] <= 2636.1
quadratic_ranged_27_ub: [ 1 x_4_ ^ 2 - 2 x_17_ * x_4_ + 1 x_17_ ^ 2 + 1 y_4_ ^ 2 - 2 y_17_ * y_4_ + 1 y_17_ ^ 2 ] <= 826.1800000000001
quadratic_ranged_28_ub: [ 1 x_8_ ^ 2 - 2 x_17_ * x_8_ + 1 x_17_ ^ 2 + 1 y_8_ ^ 2 - 2 y_17_ * y_8_ + 1 y_17_ ^ 2 ] <= 33224.96
quadratic_ranged_29_ub: [ 1 x_16_ ^ 2 - 2 x_17_ * x_16_ + 1 x_17_ ^ 2 + 1 y_16_ ^ 2 - 2 y_17_ * y_16_ + 1 y_17_ ^ 2 ] <= 2765.38
quadratic_ranged_30_ub: [ 1 x_5_ ^ 2 - 2 x_18_ * x_5_ + 1 x_18_ ^ 2 + 1 y_5_ ^ 2 - 2 y_18_ * y_5_ + 1 y_18_ ^ 2 ] <= 26361
quadratic_ranged_31_ub: [ 1 x_9_ ^ 2 - 2 x_18_ * x_9_ + 1 x_18_ ^ 2 + 1 y_9_ ^ 2 - 2 y_18_ * y_9_ + 1 y_18_ ^ 2 ] <= 21189.8
quadratic_ranged_32_ub: [ 1 x_11_ ^ 2 - 2 x_18_ * x_11_ + 1 x_18_ ^ 2 + 1 y_11_ ^ 2 - 2 y_18_ * y_11_ + 1 y_18_ ^ 2 ] <= 7072.02
quadratic_ranged_33_ub: [ 1 x_2_ ^ 2 - 2 x_19_ * x_2_ + 1 x_19_ ^ 2 + 1 y_2_ ^ 2 - 2 y_19_ * y_2_ + 1 y_19_ ^ 2 ] <= 20544.41
quadratic_ranged_34_ub: [ 1 x_13_ ^ 2 - 2 x_19_ * x_13_ + 1 x_19_ ^ 2 + 1 y_13_ ^ 2 - 2 y_19_ * y_13_ + 1 y_19_ ^ 2 ] <= 5625.7
quadratic_ranged_35_ub: [ 1 x_16_ ^ 2 - 2 x_19_ * x_16_ + 1 x_19_ ^ 2 + 1 y_16_ ^ 2 - 2 y_19_ * y_16_ + 1 y_19_ ^ 2 ] <= 27684.1
quadratic_ranged_36_ub: [ 1 x_2_ ^ 2 - 2 x_20_ * x_2_ + 1 x_20_ ^ 2 + 1 y_2_ ^ 2 - 2 y_20_ * y_2_ + 1 y_20_ ^ 2 ] <= 13867.3
quadratic_ranged_37_ub: [ 1 x_13_ ^ 2 - 2 x_20_ * x_13_ + 1 x_20_ ^ 2 + 1 y_13_ ^ 2 - 2 y_20_ * y_13_ + 1 y_20_ ^ 2 ] <= 8125.45
quadratic_ranged_38_ub: [ 1 x_15_ ^ 2 - 2 x_20_ * x_15_ + 1 x_20_ ^ 2 + 1 y_15_ ^ 2 - 2 y_20_ * y_15_ + 1 y_20_ ^ 2 ] <= 10735.29
quadratic_ranged_1_lb: [ 1 x_1_ ^ 2 - 2 x_3_ * x_1_ + 1 x_3_ ^ 2 + 1 y_1_ ^ 2 - 2 y_3_ * y_1_ + 1 y_3_ ^ 2 ] >= 17045.82
quadratic_ranged_2_lb: [ 1 x_1_ ^ 2 - 2 x_4_ * x_1_ + 1 x_4_ ^ 2 + 1 y_1_ ^ 2 - 2 y_4_ * y_1_ + 1 y_4_ ^ 2 ] >= 11414.7
quadratic_ranged_3_lb: [ 1 x_3_ ^ 2 - 2 x_4_ * x_3_ + 1 x_4_ ^ 2 + 1 y_3_ ^ 2 - 2 y_4_ * y_3_ + 1 y_4_ ^ 2 ] >= 23732.28
quadratic_ranged_4_lb: [ 1 x_2_ ^ 2 - 2 x_5_ * x_2_ + 1 x_5_ ^ 2 + 1 y_2_ ^ 2 - 2 y_5_ * y_2_ + 1 y_5_ ^ 2 ] >= 18732.78
quadratic_ranged_5_lb: [ 1 x_4_ ^ 2 - 2 x_5_ * x_4_ + 1 x_5_ ^ 2 + 1 y_4_ ^ 2 - 2 y_5_ * y_4_ + 1 y_5_ ^ 2 ] >= 6558.75
quadratic_ranged_6_lb: [ 1 x_4_ ^ 2 - 2 x_6_ * x_4_ + 1 x_6_ ^ 2 + 1 y_4_ ^ 2 - 2 y_6_ * y_4_ + 1 y_6_ ^ 2 ] >= 11647.35
quadratic_ranged_7_lb: [ 1 x_5_ ^ 2 - 2 x_6_ * x_5_ + 1 x_6_ ^ 2 + 1 y_5_ ^ 2 - 2 y_6_ * y_5_ + 1 y_6_ ^ 2 ] >= 1570.1399999999999
quadratic_ranged_8_lb: [ 1 x_7_ ^ 2 - 2 x_8_ * x_7_ + 1 x_8_ ^ 2 + 1 y_7_ ^ 2 - 2 y_8_ * y_7_ + 1 y_8_ ^ 2 ] >= 24235.2
quadratic_ranged_9_lb: [ 1 x_2_ ^ 2 - 2 x_9_ * x_2_ + 1 x_9_ ^ 2 + 1 y_2_ ^ 2 - 2 y_9_ * y_2_ + 1 y_9_ ^ 2 ] >= 3439.2599999999998
quadratic_ranged_10_lb: [ 1 x_7_ ^ 2 - 2 x_9_ * x_7_ + 1 x_9_ ^ 2 + 1 y_7_ ^ 2 - 2 y_9_ * y_7_ + 1 y_9_ ^ 2 ] >= 25760.79
quadratic_ranged_11_lb: [ 1 x_3_ ^ 2 - 2 x_10_ * x_3_ + 1 x_10_ ^ 2 + 1 y_3_ ^ 2 - 2 y_10_ * y_3_ + 1 y_10_ ^ 2 ] >= 9187.2
quadratic_ranged_12_lb: [ 1 x_7_ ^ 2 - 2 x_10_ * x_7_ + 1 x_10_ ^ 2 + 1 y_7_ ^ 2 - 2 y_10_ * y_7_ + 1 y_10_ ^ 2 ] >= 8785.26
quadratic_ranged_13_lb: [ 1 x_8_ ^ 2 - 2 x_10_ * x_8_ + 1 x_10_ ^ 2 + 1 y_8_ ^ 2 - 2 y_10_ * y_8_ + 1 y_10_ ^ 2 ] >= 26177.579999999998
quadratic_ranged_14_lb: [ 1 x_3_ ^ 2 - 2 x_11_ * x_3_ + 1 x_11_ ^ 2 + 1 y_3_ ^ 2 - 2 y_11_ * y_3_ + 1 y_11_ ^ 2 ] >= 6582.51
quadratic_ranged_15_lb: [ 1 x_6_ ^ 2 - 2 x_11_ * x_6_ + 1 x_11_ ^ 2 + 1 y_6_ ^ 2 - 2 y_11_ * y_6_ + 1 y_11_ ^ 2 ] >= 5484.6
quadratic_ranged_16_lb: [ 1 x_7_ ^ 2 - 2 x_11_ * x_7_ + 1 x_11_ ^ 2 + 1 y_7_ ^ 2 - 2 y_11_ * y_7_ + 1 y_11_ ^ 2 ] >= 13702.59
quadratic_ranged_17_lb: [ 1 x_6_ ^ 2 - 2 x_12_ * x_6_ + 1 x_12_ ^ 2 + 1 y_6_ ^ 2 - 2 y_12_ * y_6_ + 1 y_12_ ^ 2 ] >= 2225.52
quadratic_ranged_18_lb: [ 1 x_9_ ^ 2 - 2 x_13_ * x_9_ + 1 x_13_ ^ 2 + 1 y_9_ ^ 2 - 2 y_13_ * y_9_ + 1 y_13_ ^ 2 ] >= 35997.39
quadratic_ranged_19_lb: [ 1 x_12_ ^ 2 - 2 x_13_ * x_12_ + 1 x_13_ ^ 2 + 1 y_12_ ^ 2 - 2 y_13_ * y_12_ + 1 y_13_ ^ 2 ] >= 5422.23
quadratic_ranged_20_lb: [ 1 x_1_ ^ 2 - 2 x_14_ * x_1_ + 1 x_14_ ^ 2 + 1 y_1_ ^ 2 - 2 y_14_ * y_1_ + 1 y_14_ ^ 2 ] >= 23577.84
quadratic_ranged_21_lb: [ 1 x_4_ ^ 2 - 2 x_14_ * x_4_ + 1 x_14_ ^ 2 + 1 y_4_ ^ 2 - 2 y_14_ * y_4_ + 1 y_14_ ^ 2 ] >= 27001.26
quadratic_ranged_22_lb: [ 1 x_12_ ^ 2 - 2 x_14_ * x_12_ + 1 x_14_ ^ 2 + 1 y_12_ ^ 2 - 2 y_14_ * y_12_ + 1 y_14_ ^ 2 ] >= 8740.71
quadratic_ranged_23_lb: [ 1 x_4_ ^ 2 - 2 x_15_ * x_4_ + 1 x_15_ ^ 2 + 1 y_4_ ^ 2 - 2 y_15_ * y_4_ + 1 y_15_ ^ 2 ] >= 2726.46
quadratic_ranged_24_lb: [ 1 x_5_ ^ 2 - 2 x_15_ * x_5_ + 1 x_15_ ^ 2 + 1 y_5_ ^ 2 - 2 y_15_ * y_5_ + 1 y_15_ ^ 2 ] >= 14328.27
quadratic_ranged_25_lb: [ 1 x_6_ ^ 2 - 2 x_16_ * x_6_ + 1 x_16_ ^ 2 + 1 y_6_ ^ 2 - 2 y_16_ * y_6_ + 1 y_16_ ^ 2 ] >= 17563.59
quadratic_ranged_26_lb: [ 1 x_15_ ^ 2 - 2 x_16_ * x_15_ + 1 x_16_ ^ 2 + 1 y_15_ ^ 2 - 2 y_16_ * y_15_ + 1 y_16_ ^ 2 ] >= 2583.9
quadratic_ranged_27_lb: [ 1 x_4_ ^ 2 - 2 x_17_ * x_4_ + 1 x_17_ ^ 2 + 1 y_4_ ^ 2 - 2 y_17_ * y_4_ + 1 y_17_ ^ 2 ] >= 809.8199999999999
quadratic_ranged_28_lb: [ 1 x_8_ ^ 2 - 2 x_17_ * x_8_ + 1 x_17_ ^ 2 + 1 y_8_ ^ 2 - 2 y_17_ * y_8_ + 1 y_17_ ^ 2 ] >= 32567.04
quadratic_ranged_29_lb: [ 1 x_16_ ^ 2 - 2 x_17_ * x_16_ + 1 x_17_ ^ 2 + 1 y_16_ ^ 2 - 2 y_17_ * y_16_ + 1 y_17_ ^ 2 ] >= 2710.62
quadratic_ranged_30_lb: [ 1 x_5_ ^ 2 - 2 x_18_ * x_5_ + 1 x_18_ ^ 2 + 1 y_5_ ^ 2 - 2 y_18_ * y_5_ + 1 y_18_ ^ 2 ] >= 25839
quadratic_ranged_31_lb: [ 1 x_9_ ^ 2 - 2 x_18_ * x_9_ + 1 x_18_ ^ 2 + 1 y_9_ ^ 2 - 2 y_18_ * y_9_ + 1 y_18_ ^ 2 ] >= 20770.2
quadratic_ranged_32_lb: [ 1 x_11_ ^ 2 - 2 x_18_ * x_11_ + 1 x_18_ ^ 2 + 1 y_11_ ^ 2 - 2 y_18_ * y_11_ + 1 y_18_ ^ 2 ] >= 6931.98
quadratic_ranged_33_lb: [ 1 x_2_ ^ 2 - 2 x_19_ * x_2_ + 1 x_19_ ^ 2 + 1 y_2_ ^ 2 - 2 y_19_ * y_2_ + 1 y_19_ ^ 2 ] >= 20137.59
quadratic_ranged_34_lb: [ 1 x_13_ ^ 2 - 2 x_19_ * x_13_ + 1 x_19_ ^ 2 + 1 y_13_ ^ 2 - 2 y_19_ * y_13_ + 1 y_19_ ^ 2 ] >= 5514.3
quadratic_ranged_35_lb: [ 1 x_16_ ^ 2 - 2 x_19_ * x_16_ + 1 x_19_ ^ 2 + 1 y_16_ ^ 2 - 2 y_19_ * y_16_ + 1 y_19_ ^ 2 ] >= 27135.9
quadratic_ranged_36_lb: [ 1 x_2_ ^ 2 - 2 x_20_ * x_2_ + 1 x_20_ ^ 2 + 1 y_2_ ^ 2 - 2 y_20_ * y_2_ + 1 y_20_ ^ 2 ] >= 13592.7
quadratic_ranged_37_lb: [ 1 x_13_ ^ 2 - 2 x_20_ * x_13_ + 1 x_20_ ^ 2 + 1 y_13_ ^ 2 - 2 y_20_ * y_13_ + 1 y_20_ ^ 2 ] >= 7964.55
quadratic_ranged_38_lb: [ 1 x_15_ ^ 2 - 2 x_20_ * x_15_ + 1 x_20_ ^ 2 + 1 y_15_ ^ 2 - 2 y_20_ * y_15_ + 1 y_20_ ^ 2 ] >= 10522.71
c1_1: 1 x_15_ = -21
c2_1: 1 y_15_ = 87
c3_1: 1 x_18_ = 76
c4_1: 1 y_18_ = 39
c5_1: 1 x_9_ = -62
c6_1: 1 y_9_ = 83
Bounds
-73 <= x_1_ <= 98
-73 <= x_2_ <= -3
-73 <= x_3_ <= 98
-73 <= x_4_ <= 31
-73 <= x_5_ <= 98
-73 <= x_6_ <= 98
-73 <= x_7_ <= 98
-73 <= x_8_ <= 98
x_9_ = -62
-73 <= x_10_ <= 98
-8 <= x_11_ <= 98
-73 <= x_12_ <= 98
-73 <= x_13_ <= 98
-73 <= x_14_ <= 98
x_15_ = -21
-72 <= x_16_ <= 30
-73 <= x_17_ <= 60
x_18_ = 76
-73 <= x_19_ <= 98
-73 <= x_20_ <= 82
-73 <= y_1_ <= 97
24 <= y_2_ <= 97
-97 <= y_3_ <= 97
35 <= y_4_ <= 97
-33 <= y_5_ <= 97
-73 <= y_6_ <= 97
-79 <= y_7_ <= 97
-97 <= y_8_ <= 97
y_9_ = 83
-97 <= y_10_ <= 97
-45 <= y_11_ <= 97
-97 <= y_12_ <= 97
-97 <= y_13_ <= 97
-97 <= y_14_ <= 97
y_15_ = 87
36 <= y_16_ <= 97
6 <= y_17_ <= 97
y_18_ = 39
-97 <= y_19_ <= 97
-16 <= y_20_ <= 97
General
x_1_
x_2_
x_3_
x_4_
x_5_
x_6_
x_7_
x_8_
x_9_
x_10_
x_11_
x_12_
x_13_
x_14_
x_15_
x_16_
x_17_
x_18_
x_19_
x_20_
y_1_
y_2_
y_3_
y_4_
y_5_
y_6_
y_7_
y_8_
y_9_
y_10_
y_11_
y_12_
y_13_
y_14_
y_15_
y_16_
y_17_
y_18_
y_19_
y_20_
End
