minimize
obj: 
subject to
c1: 104 x_1_ - 48 y_1_ + [ 1 x_1_ ^ 2 + 1 y_1_ ^ 2 ] <= 19191.960669752938
c2: 104 x_2_ - 48 y_2_ + [ 1 x_2_ ^ 2 + 1 y_2_ ^ 2 ] <= 110077.15756478756
c3: 104 x_3_ - 48 y_3_ + [ 1 x_3_ ^ 2 + 1 y_3_ ^ 2 ] <= 6884.639999999999
c4: 104 x_4_ - 48 y_4_ + [ 1 x_4_ ^ 2 + 1 y_4_ ^ 2 ] <= 25896.051111091645
c5: 104 x_5_ - 48 y_5_ + [ 1 x_5_ ^ 2 + 1 y_5_ ^ 2 ] <= 107120.80865917183
c6: 104 x_6_ - 48 y_6_ + [ 1 x_6_ ^ 2 + 1 y_6_ ^ 2 ] <= 76224.90483625821
c7: 104 x_7_ - 48 y_7_ + [ 1 x_7_ ^ 2 + 1 y_7_ ^ 2 ] <= 97317.98444175381
c8: 104 x_8_ - 48 y_8_ + [ 1 x_8_ ^ 2 + 1 y_8_ ^ 2 ] <= 56646.3760754264
c9: 104 x_9_ - 48 y_9_ + [ 1 x_9_ ^ 2 + 1 y_9_ ^ 2 ] <= 28355.52701569061
c10: 104 x_10_ - 48 y_10_ + [ 1 x_10_ ^ 2 + 1 y_10_ ^ 2 ] <= 64378.06733229585
c11: 104 x_11_ - 48 y_11_ + [ 1 x_11_ ^ 2 + 1 y_11_ ^ 2 ] <= 27444.45423032446
c12: 104 x_12_ - 48 y_12_ + [ 1 x_12_ ^ 2 + 1 y_12_ ^ 2 ] <= 18276.00431177257
c13: 104 x_13_ - 48 y_13_ + [ 1 x_13_ ^ 2 + 1 y_13_ ^ 2 ] <= 118137.93916150634
c14: 104 x_14_ - 48 y_14_ + [ 1 x_14_ ^ 2 + 1 y_14_ ^ 2 ] <= 109187.79778261486
c15: 104 x_15_ - 48 y_15_ + [ 1 x_15_ ^ 2 + 1 y_15_ ^ 2 ] <= 129635.7002646387
c16: 104 x_16_ - 48 y_16_ + [ 1 x_16_ ^ 2 + 1 y_16_ ^ 2 ] <= 102820.4245090606
c17: 104 x_17_ - 48 y_17_ + [ 1 x_17_ ^ 2 + 1 y_17_ ^ 2 ] <= 95261.80385754786
c18: 104 x_18_ - 48 y_18_ + [ 1 x_18_ ^ 2 + 1 y_18_ ^ 2 ] <= 129237.18975690939
c19: 104 x_19_ - 48 y_19_ + [ 1 x_19_ ^ 2 + 1 y_19_ ^ 2 ] <= 156510.92813200117
c20: 104 x_20_ - 48 y_20_ + [ 1 x_20_ ^ 2 + 1 y_20_ ^ 2 ] <= 260888.98814741627
c21: 104 x_21_ - 48 y_21_ + [ 1 x_21_ ^ 2 + 1 y_21_ ^ 2 ] <= 127707.82467467904
c22: 104 x_22_ - 48 y_22_ + [ 1 x_22_ ^ 2 + 1 y_22_ ^ 2 ] <= 60520.00763183203
c23: 104 x_23_ - 48 y_23_ + [ 1 x_23_ ^ 2 + 1 y_23_ ^ 2 ] <= 148155.12092401553
c24: 104 x_24_ - 48 y_24_ + [ 1 x_24_ ^ 2 + 1 y_24_ ^ 2 ] <= 82177.69110058801
c25: 104 x_25_ - 48 y_25_ + [ 1 x_25_ ^ 2 + 1 y_25_ ^ 2 ] <= 96573.81300683274
c26: 104 x_26_ - 48 y_26_ + [ 1 x_26_ ^ 2 + 1 y_26_ ^ 2 ] <= 270636.62090361526
c27: 104 x_27_ - 48 y_27_ + [ 1 x_27_ ^ 2 + 1 y_27_ ^ 2 ] <= 90160.83211497265
c28: 104 x_28_ - 48 y_28_ + [ 1 x_28_ ^ 2 + 1 y_28_ ^ 2 ] <= 120419.23778510289
c29: 104 x_29_ - 48 y_29_ + [ 1 x_29_ ^ 2 + 1 y_29_ ^ 2 ] <= 54513.12184747794
c30: 104 x_30_ - 48 y_30_ + [ 1 x_30_ ^ 2 + 1 y_30_ ^ 2 ] <= 14736.934197473842
c31: 104 x_31_ - 48 y_31_ + [ 1 x_31_ ^ 2 + 1 y_31_ ^ 2 ] <= 96148.83647313301
c32: 104 x_33_ - 48 y_33_ + [ 1 x_33_ ^ 2 + 1 y_33_ ^ 2 ] <= 107033.49282784015
c33: 104 x_34_ - 48 y_34_ + [ 1 x_34_ ^ 2 + 1 y_34_ ^ 2 ] <= 43924.283665296614
c34: 104 x_35_ - 48 y_35_ + [ 1 x_35_ ^ 2 + 1 y_35_ ^ 2 ] <= 224813.02136106748
c35: 104 x_36_ - 48 y_36_ + [ 1 x_36_ ^ 2 + 1 y_36_ ^ 2 ] <= 54205.39562085808
c36: 104 x_37_ - 48 y_37_ + [ 1 x_37_ ^ 2 + 1 y_37_ ^ 2 ] <= 83650.29227789737
c37: 104 x_38_ - 48 y_38_ + [ 1 x_38_ ^ 2 + 1 y_38_ ^ 2 ] <= 72192.93127499762
c38: 104 x_39_ - 48 y_39_ + [ 1 x_39_ ^ 2 + 1 y_39_ ^ 2 ] <= 69313.3161649394
c39: 104 x_40_ - 48 y_40_ + [ 1 x_40_ ^ 2 + 1 y_40_ ^ 2 ] <= 85040.50315780306
c40: 104 x_41_ - 48 y_41_ + [ 1 x_41_ ^ 2 + 1 y_41_ ^ 2 ] <= 84445.57103617062
c41: 104 x_42_ - 48 y_42_ + [ 1 x_42_ ^ 2 + 1 y_42_ ^ 2 ] <= 191589.92499932402
c42: 104 x_43_ - 48 y_43_ + [ 1 x_43_ ^ 2 + 1 y_43_ ^ 2 ] <= 190659.46312010125
c43: 104 x_44_ - 48 y_44_ + [ 1 x_44_ ^ 2 + 1 y_44_ ^ 2 ] <= 113016.0660131535
c44: 104 x_45_ - 48 y_45_ + [ 1 x_45_ ^ 2 + 1 y_45_ ^ 2 ] <= 144312.31722552775
c45: 104 x_46_ - 48 y_46_ + [ 1 x_46_ ^ 2 + 1 y_46_ ^ 2 ] <= 72654.5289809583
c46: 104 x_47_ - 48 y_47_ + [ 1 x_47_ ^ 2 + 1 y_47_ ^ 2 ] <= 106513.11920501446
c47: 104 x_48_ - 48 y_48_ + [ 1 x_48_ ^ 2 + 1 y_48_ ^ 2 ] <= 133685.3164089192
c48: 104 x_49_ - 48 y_49_ + [ 1 x_49_ ^ 2 + 1 y_49_ ^ 2 ] <= 94518.38045819492
c49: 104 x_50_ - 48 y_50_ + [ 1 x_50_ ^ 2 + 1 y_50_ ^ 2 ] <= 33444.08836463193
c50: 104 x_51_ - 48 y_51_ + [ 1 x_51_ ^ 2 + 1 y_51_ ^ 2 ] <= 63445.62354683204
c51: 104 x_52_ - 48 y_52_ + [ 1 x_52_ ^ 2 + 1 y_52_ ^ 2 ] <= 85580.99938896578
c52: 104 x_53_ - 48 y_53_ + [ 1 x_53_ ^ 2 + 1 y_53_ ^ 2 ] <= 107905.4679275412
c53: 104 x_54_ - 48 y_54_ + [ 1 x_54_ ^ 2 + 1 y_54_ ^ 2 ] <= 126498.5862563552
c54: 104 x_55_ - 48 y_55_ + [ 1 x_55_ ^ 2 + 1 y_55_ ^ 2 ] <= 156260.18392570867
c55: 104 x_56_ - 48 y_56_ + [ 1 x_56_ ^ 2 + 1 y_56_ ^ 2 ] <= 129062.18371884426
c56: 104 x_57_ - 48 y_57_ + [ 1 x_57_ ^ 2 + 1 y_57_ ^ 2 ] <= 121725.71734690032
c57: 104 x_58_ - 48 y_58_ + [ 1 x_58_ ^ 2 + 1 y_58_ ^ 2 ] <= 21672.279478780725
c58: 104 x_59_ - 48 y_59_ + [ 1 x_59_ ^ 2 + 1 y_59_ ^ 2 ] <= 199696.0662315298
c59: 104 x_60_ - 48 y_60_ + [ 1 x_60_ ^ 2 + 1 y_60_ ^ 2 ] <= 68604.79169814655
c60: 104 x_61_ - 48 y_61_ + [ 1 x_61_ ^ 2 + 1 y_61_ ^ 2 ] <= 45070.9856622656
c61: 104 x_62_ - 48 y_62_ + [ 1 x_62_ ^ 2 + 1 y_62_ ^ 2 ] <= 73003.56977722383
c62: 104 x_63_ - 48 y_63_ + [ 1 x_63_ ^ 2 + 1 y_63_ ^ 2 ] <= 35445.03657250747
c63: 104 x_64_ - 48 y_64_ + [ 1 x_64_ ^ 2 + 1 y_64_ ^ 2 ] <= 53775.26907677118
c64: 104 x_65_ - 48 y_65_ + [ 1 x_65_ ^ 2 + 1 y_65_ ^ 2 ] <= 50316.28928515129
c65: 104 x_66_ - 48 y_66_ + [ 1 x_66_ ^ 2 + 1 y_66_ ^ 2 ] <= 197711.8833933557
c66: 104 x_67_ - 48 y_67_ + [ 1 x_67_ ^ 2 + 1 y_67_ ^ 2 ] <= 60781.08178023547
c67: 104 x_68_ - 48 y_68_ + [ 1 x_68_ ^ 2 + 1 y_68_ ^ 2 ] <= 78512.54998273315
c68: 104 x_69_ - 48 y_69_ + [ 1 x_69_ ^ 2 + 1 y_69_ ^ 2 ] <= 120635.45802811897
c69: 104 x_70_ - 48 y_70_ + [ 1 x_70_ ^ 2 + 1 y_70_ ^ 2 ] <= 56829.87134657016
c70: 104 x_71_ - 48 y_71_ + [ 1 x_71_ ^ 2 + 1 y_71_ ^ 2 ] <= 65267.80136452739
c71: 104 x_72_ - 48 y_72_ + [ 1 x_72_ ^ 2 + 1 y_72_ ^ 2 ] <= 216203.16305593657
c72: 104 x_73_ - 48 y_73_ + [ 1 x_73_ ^ 2 + 1 y_73_ ^ 2 ] <= 85268.6760438343
c73: 104 x_74_ - 48 y_74_ + [ 1 x_74_ ^ 2 + 1 y_74_ ^ 2 ] <= 13132.5
c74: 104 x_75_ - 48 y_75_ + [ 1 x_75_ ^ 2 + 1 y_75_ ^ 2 ] <= 95900.9775039409
c75: 104 x_76_ - 48 y_76_ + [ 1 x_76_ ^ 2 + 1 y_76_ ^ 2 ] <= 98634.62235860983
c76: 104 x_77_ - 48 y_77_ + [ 1 x_77_ ^ 2 + 1 y_77_ ^ 2 ] <= 198818.17087430327
c77: 104 x_78_ - 48 y_78_ + [ 1 x_78_ ^ 2 + 1 y_78_ ^ 2 ] <= 137118.84195602688
c78: 104 x_79_ - 48 y_79_ + [ 1 x_79_ ^ 2 + 1 y_79_ ^ 2 ] <= 27978.697193446314
c79: 104 x_80_ - 48 y_80_ + [ 1 x_80_ ^ 2 + 1 y_80_ ^ 2 ] <= 202785.01180818674
c80: 104 x_81_ - 48 y_81_ + [ 1 x_81_ ^ 2 + 1 y_81_ ^ 2 ] <= 180022.77025978468
c81: 104 x_82_ - 48 y_82_ + [ 1 x_82_ ^ 2 + 1 y_82_ ^ 2 ] <= 10205.562303375023
c82: 104 x_83_ - 48 y_83_ + [ 1 x_83_ ^ 2 + 1 y_83_ ^ 2 ] <= 18804.659999999996
c83: 104 x_84_ - 48 y_84_ + [ 1 x_84_ ^ 2 + 1 y_84_ ^ 2 ] <= 81117.08411055895
c84: 104 x_85_ - 48 y_85_ + [ 1 x_85_ ^ 2 + 1 y_85_ ^ 2 ] <= 2393.17
c85: 104 x_86_ - 48 y_86_ + [ 1 x_86_ ^ 2 + 1 y_86_ ^ 2 ] <= 77960.37174545277
c86: 104 x_87_ - 48 y_87_ + [ 1 x_87_ ^ 2 + 1 y_87_ ^ 2 ] <= 117152.47489049422
c87: 104 x_88_ - 48 y_88_ + [ 1 x_88_ ^ 2 + 1 y_88_ ^ 2 ] <= 113368.23367183904
c88: 104 x_89_ - 48 y_89_ + [ 1 x_89_ ^ 2 + 1 y_89_ ^ 2 ] <= 27707.79258439444
c89: 104 x_90_ - 48 y_90_ + [ 1 x_90_ ^ 2 + 1 y_90_ ^ 2 ] <= 86194.05692500412
c90: 104 x_91_ - 48 y_91_ + [ 1 x_91_ ^ 2 + 1 y_91_ ^ 2 ] <= 73757.96654170868
c91: 104 x_92_ - 48 y_92_ + [ 1 x_92_ ^ 2 + 1 y_92_ ^ 2 ] <= 110392.06736002948
c92: 104 x_93_ - 48 y_93_ + [ 1 x_93_ ^ 2 + 1 y_93_ ^ 2 ] <= 46755.605434766825
c93: 104 x_94_ - 48 y_94_ + [ 1 x_94_ ^ 2 + 1 y_94_ ^ 2 ] <= 189890.56841618952
c94: 104 x_95_ - 48 y_95_ + [ 1 x_95_ ^ 2 + 1 y_95_ ^ 2 ] <= 94753.64090486334
c95: 104 x_96_ - 48 y_96_ + [ 1 x_96_ ^ 2 + 1 y_96_ ^ 2 ] <= 106057.98567541632
c96: 104 x_97_ - 48 y_97_ + [ 1 x_97_ ^ 2 + 1 y_97_ ^ 2 ] <= 182319.92069549093
c97: 104 x_98_ - 48 y_98_ + [ 1 x_98_ ^ 2 + 1 y_98_ ^ 2 ] <= 179604.62716066136
c98: 104 x_99_ - 48 y_99_ + [ 1 x_99_ ^ 2 + 1 y_99_ ^ 2 ] <= 86222.93606835626
c99: 104 x_100_ - 48 y_100_ + [ 1 x_100_ ^ 2 + 1 y_100_ ^ 2 ] <= 79776.13214090254
c100: 36 x_1_ + 18 y_1_ + [ 1 x_1_ ^ 2 + 1 y_1_ ^ 2 ] <= 84587.20806761828
c101: 36 x_2_ + 18 y_2_ + [ 1 x_2_ ^ 2 + 1 y_2_ ^ 2 ] <= 10568.65
c102: 36 x_3_ + 18 y_3_ + [ 1 x_3_ ^ 2 + 1 y_3_ ^ 2 ] <= 116364.03466447802
c103: 36 x_4_ + 18 y_4_ + [ 1 x_4_ ^ 2 + 1 y_4_ ^ 2 ] <= 97385.26343069538
c104: 36 x_5_ + 18 y_5_ + [ 1 x_5_ ^ 2 + 1 y_5_ ^ 2 ] <= 72026.69189655157
c105: 36 x_6_ + 18 y_6_ + [ 1 x_6_ ^ 2 + 1 y_6_ ^ 2 ] <= 246474.93869713167
c106: 36 x_7_ + 18 y_7_ + [ 1 x_7_ ^ 2 + 1 y_7_ ^ 2 ] <= 186152.81487723664
c107: 36 x_8_ + 18 y_8_ + [ 1 x_8_ ^ 2 + 1 y_8_ ^ 2 ] <= 88375.83283370754
c108: 36 x_9_ + 18 y_9_ + [ 1 x_9_ ^ 2 + 1 y_9_ ^ 2 ] <= 174953.9263603289
c109: 36 x_10_ + 18 y_10_ + [ 1 x_10_ ^ 2 + 1 y_10_ ^ 2 ] <= 126419.32167316627
c110: 36 x_11_ + 18 y_11_ + [ 1 x_11_ ^ 2 + 1 y_11_ ^ 2 ] <= 74893.24950258127
c111: 36 x_12_ + 18 y_12_ + [ 1 x_12_ ^ 2 + 1 y_12_ ^ 2 ] <= 131874.9452056934
c112: 36 x_13_ + 18 y_13_ + [ 1 x_13_ ^ 2 + 1 y_13_ ^ 2 ] <= 81235.8449641396
c113: 36 x_14_ + 18 y_14_ + [ 1 x_14_ ^ 2 + 1 y_14_ ^ 2 ] <= 113351.71004219775
c114: 36 x_15_ + 18 y_15_ + [ 1 x_15_ ^ 2 + 1 y_15_ ^ 2 ] <= 133911.57160650988
c115: 36 x_16_ + 18 y_16_ + [ 1 x_16_ ^ 2 + 1 y_16_ ^ 2 ] <= 44120.49308529186
c116: 36 x_17_ + 18 y_17_ + [ 1 x_17_ ^ 2 + 1 y_17_ ^ 2 ] <= 102165.12032971864
c117: 36 x_18_ + 18 y_18_ + [ 1 x_18_ ^ 2 + 1 y_18_ ^ 2 ] <= 6932.649999999998
c118: 36 x_19_ + 18 y_19_ + [ 1 x_19_ ^ 2 + 1 y_19_ ^ 2 ] <= 116852.41285488373
c119: 36 x_20_ + 18 y_20_ + [ 1 x_20_ ^ 2 + 1 y_20_ ^ 2 ] <= 284129.2519225852
c120: 36 x_21_ + 18 y_21_ + [ 1 x_21_ ^ 2 + 1 y_21_ ^ 2 ] <= 6093.339999999998
c121: 36 x_22_ + 18 y_22_ + [ 1 x_22_ ^ 2 + 1 y_22_ ^ 2 ] <= 73595.55588295373
c122: 36 x_23_ + 18 y_23_ + [ 1 x_23_ ^ 2 + 1 y_23_ ^ 2 ] <= 80180.57014516719
c123: 36 x_24_ + 18 y_24_ + [ 1 x_24_ ^ 2 + 1 y_24_ ^ 2 ] <= 118961.074419909
c124: 36 x_25_ + 18 y_25_ + [ 1 x_25_ ^ 2 + 1 y_25_ ^ 2 ] <= 133216.60513792306
c125: 36 x_26_ + 18 y_26_ + [ 1 x_26_ ^ 2 + 1 y_26_ ^ 2 ] <= 128640.9273737514
c126: 36 x_27_ + 18 y_27_ + [ 1 x_27_ ^ 2 + 1 y_27_ ^ 2 ] <= 115695.31667344959
c127: 36 x_28_ + 18 y_28_ + [ 1 x_28_ ^ 2 + 1 y_28_ ^ 2 ] <= 16970.275701962255
c128: 36 x_29_ + 18 y_29_ + [ 1 x_29_ ^ 2 + 1 y_29_ ^ 2 ] <= 72560.20971976544
c129: 36 x_30_ + 18 y_30_ + [ 1 x_30_ ^ 2 + 1 y_30_ ^ 2 ] <= 140311.6488804743
c130: 36 x_31_ + 18 y_31_ + [ 1 x_31_ ^ 2 + 1 y_31_ ^ 2 ] <= 35682.36665431946
c131: 36 x_32_ + 18 y_32_ + [ 1 x_32_ ^ 2 + 1 y_32_ ^ 2 ] <= 194464.92499932402
c132: 36 x_33_ + 18 y_33_ + [ 1 x_33_ ^ 2 + 1 y_33_ ^ 2 ] <= 123374.38974342751
c133: 36 x_34_ + 18 y_34_ + [ 1 x_34_ ^ 2 + 1 y_34_ ^ 2 ] <= 53615.78632255175
c134: 36 x_35_ + 18 y_35_ + [ 1 x_35_ ^ 2 + 1 y_35_ ^ 2 ] <= 76488.59583085828
c135: 36 x_36_ + 18 y_36_ + [ 1 x_36_ ^ 2 + 1 y_36_ ^ 2 ] <= 161492.94612672864
c136: 36 x_37_ + 18 y_37_ + [ 1 x_37_ ^ 2 + 1 y_37_ ^ 2 ] <= 154800.0923945103
c137: 36 x_38_ + 18 y_38_ + [ 1 x_38_ ^ 2 + 1 y_38_ ^ 2 ] <= 52102.3015016774
c138: 36 x_39_ + 18 y_39_ + [ 1 x_39_ ^ 2 + 1 y_39_ ^ 2 ] <= 119955.32299046598
c139: 36 x_40_ + 18 y_40_ + [ 1 x_40_ ^ 2 + 1 y_40_ ^ 2 ] <= 195043.25021855184
c140: 36 x_41_ + 18 y_41_ + [ 1 x_41_ ^ 2 + 1 y_41_ ^ 2 ] <= 99216.5560368595
c141: 36 x_43_ + 18 y_43_ + [ 1 x_43_ ^ 2 + 1 y_43_ ^ 2 ] <= 112807.70521390745
c142: 36 x_44_ + 18 y_44_ + [ 1 x_44_ ^ 2 + 1 y_44_ ^ 2 ] <= 86881.82346959818
c143: 36 x_45_ + 18 y_45_ + [ 1 x_45_ ^ 2 + 1 y_45_ ^ 2 ] <= 57074.09441615274
c144: 36 x_46_ + 18 y_46_ + [ 1 x_46_ ^ 2 + 1 y_46_ ^ 2 ] <= 54801.449233957304
c145: 36 x_47_ + 18 y_47_ + [ 1 x_47_ ^ 2 + 1 y_47_ ^ 2 ] <= 148109.4815427864
c146: 36 x_48_ + 18 y_48_ + [ 1 x_48_ ^ 2 + 1 y_48_ ^ 2 ] <= 90172.4431539548
c147: 36 x_49_ + 18 y_49_ + [ 1 x_49_ ^ 2 + 1 y_49_ ^ 2 ] <= 91712.31464476163
c148: 36 x_50_ + 18 y_50_ + [ 1 x_50_ ^ 2 + 1 y_50_ ^ 2 ] <= 186677.46489562796
c149: 36 x_51_ + 18 y_51_ + [ 1 x_51_ ^ 2 + 1 y_51_ ^ 2 ] <= 60592.688606997064
c150: 36 x_52_ + 18 y_52_ + [ 1 x_52_ ^ 2 + 1 y_52_ ^ 2 ] <= 57572.77449292229
c151: 36 x_53_ + 18 y_53_ + [ 1 x_53_ ^ 2 + 1 y_53_ ^ 2 ] <= 71104.38851635021
c152: 36 x_54_ + 18 y_54_ + [ 1 x_54_ ^ 2 + 1 y_54_ ^ 2 ] <= 164710.05468319097
c153: 36 x_55_ + 18 y_55_ + [ 1 x_55_ ^ 2 + 1 y_55_ ^ 2 ] <= 146077.9642181308
c154: 36 x_56_ + 18 y_56_ + [ 1 x_56_ ^ 2 + 1 y_56_ ^ 2 ] <= 146462.11114308957
c155: 36 x_57_ + 18 y_57_ + [ 1 x_57_ ^ 2 + 1 y_57_ ^ 2 ] <= 83942.65073326683
c156: 36 x_58_ + 18 y_58_ + [ 1 x_58_ ^ 2 + 1 y_58_ ^ 2 ] <= 80576.09683905987
c157: 36 x_59_ + 18 y_59_ + [ 1 x_59_ ^ 2 + 1 y_59_ ^ 2 ] <= 254470.1727827932
c158: 36 x_60_ + 18 y_60_ + [ 1 x_60_ ^ 2 + 1 y_60_ ^ 2 ] <= 30017.786418826996
c159: 36 x_61_ + 18 y_61_ + [ 1 x_61_ ^ 2 + 1 y_61_ ^ 2 ] <= 65703.67765434644
c160: 36 x_62_ + 18 y_62_ + [ 1 x_62_ ^ 2 + 1 y_62_ ^ 2 ] <= 138910.93903535488
c161: 36 x_63_ + 18 y_63_ + [ 1 x_63_ ^ 2 + 1 y_63_ ^ 2 ] <= 68332.33313172555
c162: 36 x_64_ + 18 y_64_ + [ 1 x_64_ ^ 2 + 1 y_64_ ^ 2 ] <= 187758.4638928834
c163: 36 x_65_ + 18 y_65_ + [ 1 x_65_ ^ 2 + 1 y_65_ ^ 2 ] <= 77540.0511592167
c164: 36 x_66_ + 18 y_66_ + [ 1 x_66_ ^ 2 + 1 y_66_ ^ 2 ] <= 152803.99870166075
c165: 36 x_67_ + 18 y_67_ + [ 1 x_67_ ^ 2 + 1 y_67_ ^ 2 ] <= 53798.05090993291
c166: 36 x_68_ + 18 y_68_ + [ 1 x_68_ ^ 2 + 1 y_68_ ^ 2 ] <= 56535.982604158526
c167: 36 x_69_ + 18 y_69_ + [ 1 x_69_ ^ 2 + 1 y_69_ ^ 2 ] <= 41765.636730500926
c168: 36 x_70_ + 18 y_70_ + [ 1 x_70_ ^ 2 + 1 y_70_ ^ 2 ] <= 157167.0135872701
c169: 36 x_71_ + 18 y_71_ + [ 1 x_71_ ^ 2 + 1 y_71_ ^ 2 ] <= 130717.99014807487
c170: 36 x_72_ + 18 y_72_ + [ 1 x_72_ ^ 2 + 1 y_72_ ^ 2 ] <= 81618.52494666376
c171: 36 x_73_ + 18 y_73_ + [ 1 x_73_ ^ 2 + 1 y_73_ ^ 2 ] <= 78539.01941621459
c172: 36 x_74_ + 18 y_74_ + [ 1 x_74_ ^ 2 + 1 y_74_ ^ 2 ] <= 125913.43868360417
c173: 36 x_75_ + 18 y_75_ + [ 1 x_75_ ^ 2 + 1 y_75_ ^ 2 ] <= 134012.7166416086
c174: 36 x_76_ + 18 y_76_ + [ 1 x_76_ ^ 2 + 1 y_76_ ^ 2 ] <= 73865.11511270398
c175: 36 x_77_ + 18 y_77_ + [ 1 x_77_ ^ 2 + 1 y_77_ ^ 2 ] <= 46954.746310670795
c176: 36 x_78_ + 18 y_78_ + [ 1 x_78_ ^ 2 + 1 y_78_ ^ 2 ] <= 88435.37808579551
c177: 36 x_79_ + 18 y_79_ + [ 1 x_79_ ^ 2 + 1 y_79_ ^ 2 ] <= 110964.99904223045
c178: 36 x_80_ + 18 y_80_ + [ 1 x_80_ ^ 2 + 1 y_80_ ^ 2 ] <= 191125.83346088364
c179: 36 x_81_ + 18 y_81_ + [ 1 x_81_ ^ 2 + 1 y_81_ ^ 2 ] <= 62724.5996676408
c180: 36 x_82_ + 18 y_82_ + [ 1 x_82_ ^ 2 + 1 y_82_ ^ 2 ] <= 127059.96452196756
c181: 36 x_83_ + 18 y_83_ + [ 1 x_83_ ^ 2 + 1 y_83_ ^ 2 ] <= 111763.2239187187
c182: 36 x_84_ + 18 y_84_ + [ 1 x_84_ ^ 2 + 1 y_84_ ^ 2 ] <= 49985.95910192037
c183: 36 x_85_ + 18 y_85_ + [ 1 x_85_ ^ 2 + 1 y_85_ ^ 2 ] <= 133639.06606179997
c184: 36 x_86_ + 18 y_86_ + [ 1 x_86_ ^ 2 + 1 y_86_ ^ 2 ] <= 103442.94298978166
c185: 36 x_87_ + 18 y_87_ + [ 1 x_87_ ^ 2 + 1 y_87_ ^ 2 ] <= 133900.84730543953
c186: 36 x_88_ + 18 y_88_ + [ 1 x_88_ ^ 2 + 1 y_88_ ^ 2 ] <= 61171.73962223787
c187: 36 x_89_ + 18 y_89_ + [ 1 x_89_ ^ 2 + 1 y_89_ ^ 2 ] <= 153978.74289563004
c188: 36 x_90_ + 18 y_90_ + [ 1 x_90_ ^ 2 + 1 y_90_ ^ 2 ] <= 33599.167511124084
c189: 36 x_91_ + 18 y_91_ + [ 1 x_91_ ^ 2 + 1 y_91_ ^ 2 ] <= 186763.2494030274
c190: 36 x_92_ + 18 y_92_ + [ 1 x_92_ ^ 2 + 1 y_92_ ^ 2 ] <= 190897.13598405727
c191: 36 x_93_ + 18 y_93_ + [ 1 x_93_ ^ 2 + 1 y_93_ ^ 2 ] <= 193696.808769258
c192: 36 x_94_ + 18 y_94_ + [ 1 x_94_ ^ 2 + 1 y_94_ ^ 2 ] <= 37490.494967924686
c193: 36 x_95_ + 18 y_95_ + [ 1 x_95_ ^ 2 + 1 y_95_ ^ 2 ] <= 110182.53460842841
c194: 36 x_96_ + 18 y_96_ + [ 1 x_96_ ^ 2 + 1 y_96_ ^ 2 ] <= 23699.253381007875
c195: 36 x_97_ + 18 y_97_ + [ 1 x_97_ ^ 2 + 1 y_97_ ^ 2 ] <= 99509.87205410199
c196: 36 x_98_ + 18 y_98_ + [ 1 x_98_ ^ 2 + 1 y_98_ ^ 2 ] <= 149586.10716700891
c197: 36 x_99_ + 18 y_99_ + [ 1 x_99_ ^ 2 + 1 y_99_ ^ 2 ] <= 22250.90211175688
c198: 36 x_100_ + 18 y_100_ + [ 1 x_100_ ^ 2 + 1 y_100_ ^ 2 ] <= 186727.54243538616
c199: -88 x_1_ + 16 y_1_ + [ 1 x_1_ ^ 2 + 1 y_1_ ^ 2 ] <= 104737.98618368122
c200: -88 x_2_ + 16 y_2_ + [ 1 x_2_ ^ 2 + 1 y_2_ ^ 2 ] <= 50425.54294689139
c201: -88 x_3_ + 16 y_3_ + [ 1 x_3_ ^ 2 + 1 y_3_ ^ 2 ] <= 3773.1812981130015
c202: -88 x_4_ + 16 y_4_ + [ 1 x_4_ ^ 2 + 1 y_4_ ^ 2 ] <= 89066.98643913172
c203: -88 x_5_ + 16 y_5_ + [ 1 x_5_ ^ 2 + 1 y_5_ ^ 2 ] <= 105316.3475826263
c204: -88 x_6_ + 16 y_6_ + [ 1 x_6_ ^ 2 + 1 y_6_ ^ 2 ] <= 64114.682711351794
c205: -88 x_7_ + 16 y_7_ + [ 1 x_7_ ^ 2 + 1 y_7_ ^ 2 ] <= 38133.66440828416
c206: -88 x_8_ + 16 y_8_ + [ 1 x_8_ ^ 2 + 1 y_8_ ^ 2 ] <= 21453.57149794907
c207: -88 x_9_ + 16 y_9_ + [ 1 x_9_ ^ 2 + 1 y_9_ ^ 2 ] <= 21416.77370091707
c208: -88 x_10_ + 16 y_10_ + [ 1 x_10_ ^ 2 + 1 y_10_ ^ 2 ] <= 18527.345413990326
c209: -88 x_11_ + 16 y_11_ + [ 1 x_11_ ^ 2 + 1 y_11_ ^ 2 ] <= 20633.860189538333
c210: -88 x_12_ + 16 y_12_ + [ 1 x_12_ ^ 2 + 1 y_12_ ^ 2 ] <= -1101.1000000000001
c211: -88 x_13_ + 16 y_13_ + [ 1 x_13_ ^ 2 + 1 y_13_ ^ 2 ] <= 51644.48876639957
c212: -88 x_14_ + 16 y_14_ + [ 1 x_14_ ^ 2 + 1 y_14_ ^ 2 ] <= 45752.83390385834
c213: -88 x_15_ + 16 y_15_ + [ 1 x_15_ ^ 2 + 1 y_15_ ^ 2 ] <= 46706.91957675354
c214: -88 x_16_ + 16 y_16_ + [ 1 x_16_ ^ 2 + 1 y_16_ ^ 2 ] <= 77018.03532766682
c215: -88 x_17_ + 16 y_17_ + [ 1 x_17_ ^ 2 + 1 y_17_ ^ 2 ] <= 36838.838509806235
c216: -88 x_18_ + 16 y_18_ + [ 1 x_18_ ^ 2 + 1 y_18_ ^ 2 ] <= 113050.34451615324
c217: -88 x_19_ + 16 y_19_ + [ 1 x_19_ ^ 2 + 1 y_19_ ^ 2 ] <= 82000.60283276885
c218: -88 x_20_ + 16 y_20_ + [ 1 x_20_ ^ 2 + 1 y_20_ ^ 2 ] <= 159066.88841166502
c219: -88 x_21_ + 16 y_21_ + [ 1 x_21_ ^ 2 + 1 y_21_ ^ 2 ] <= 109791.63509371909
c220: -88 x_22_ + 16 y_22_ + [ 1 x_22_ ^ 2 + 1 y_22_ ^ 2 ] <= 49869.2645772475
c221: -88 x_23_ + 16 y_23_ + [ 1 x_23_ ^ 2 + 1 y_23_ ^ 2 ] <= 61254.341526560354
c222: -88 x_24_ + 16 y_24_ + [ 1 x_24_ ^ 2 + 1 y_24_ ^ 2 ] <= 38271.82824595576
c223: -88 x_25_ + 16 y_25_ + [ 1 x_25_ ^ 2 + 1 y_25_ ^ 2 ] <= 82773.07056909423
c224: -88 x_26_ + 16 y_26_ + [ 1 x_26_ ^ 2 + 1 y_26_ ^ 2 ] <= 174289.69126874884
c225: -88 x_27_ + 16 y_27_ + [ 1 x_27_ ^ 2 + 1 y_27_ ^ 2 ] <= 16013.650450951482
c226: -88 x_28_ + 16 y_28_ + [ 1 x_28_ ^ 2 + 1 y_28_ ^ 2 ] <= 38766.08542567202
c227: -88 x_29_ + 16 y_29_ + [ 1 x_29_ ^ 2 + 1 y_29_ ^ 2 ] <= 2045.0499999999997
c228: -88 x_30_ + 16 y_30_ + [ 1 x_30_ ^ 2 + 1 y_30_ ^ 2 ] <= -187.44438101364995
c229: -88 x_31_ + 16 y_31_ + [ 1 x_31_ ^ 2 + 1 y_31_ ^ 2 ] <= 93983.43116699181
c230: -88 x_32_ + 16 y_32_ + [ 1 x_32_ ^ 2 + 1 y_32_ ^ 2 ] <= 29258.697193446314
c231: -88 x_33_ + 16 y_33_ + [ 1 x_33_ ^ 2 + 1 y_33_ ^ 2 ] <= 50273.03372290862
c232: -88 x_34_ + 16 y_34_ + [ 1 x_34_ ^ 2 + 1 y_34_ ^ 2 ] <= 35028.182084242115
c233: -88 x_35_ + 16 y_35_ + [ 1 x_35_ ^ 2 + 1 y_35_ ^ 2 ] <= 133189.20862759853
c234: -88 x_36_ + 16 y_36_ + [ 1 x_36_ ^ 2 + 1 y_36_ ^ 2 ] <= 13110.101090065627
c235: -88 x_37_ + 16 y_37_ + [ 1 x_37_ ^ 2 + 1 y_37_ ^ 2 ] <= 46662.2704694862
c236: -88 x_38_ + 16 y_38_ + [ 1 x_38_ ^ 2 + 1 y_38_ ^ 2 ] <= 113936.19092112531
c237: -88 x_39_ + 16 y_39_ + [ 1 x_39_ ^ 2 + 1 y_39_ ^ 2 ] <= 42407.23340880919
c238: -88 x_40_ + 16 y_40_ + [ 1 x_40_ ^ 2 + 1 y_40_ ^ 2 ] <= 30526.009106501853
c239: -88 x_41_ + 16 y_41_ + [ 1 x_41_ ^ 2 + 1 y_41_ ^ 2 ] <= 71629.00050876036
c240: -88 x_42_ + 16 y_42_ + [ 1 x_42_ ^ 2 + 1 y_42_ ^ 2 ] <= 109369.99904223045
c241: -88 x_43_ + 16 y_43_ + [ 1 x_43_ ^ 2 + 1 y_43_ ^ 2 ] <= 170679.47453390455
c242: -88 x_44_ + 16 y_44_ + [ 1 x_44_ ^ 2 + 1 y_44_ ^ 2 ] <= 73183.07435621342
c243: -88 x_45_ + 16 y_45_ + [ 1 x_45_ ^ 2 + 1 y_45_ ^ 2 ] <= 41004.87274050248
c244: -88 x_46_ + 16 y_46_ + [ 1 x_46_ ^ 2 + 1 y_46_ ^ 2 ] <= 7753.717802435718
c245: -88 x_47_ + 16 y_47_ + [ 1 x_47_ ^ 2 + 1 y_47_ ^ 2 ] <= 72337.59596548646
c246: -88 x_48_ + 16 y_48_ + [ 1 x_48_ ^ 2 + 1 y_48_ ^ 2 ] <= 157923.7000743018
c247: -88 x_49_ + 16 y_49_ + [ 1 x_49_ ^ 2 + 1 y_49_ ^ 2 ] <= 36372.63948432063
c248: -88 x_50_ + 16 y_50_ + [ 1 x_50_ ^ 2 + 1 y_50_ ^ 2 ] <= 25821.21076741111
c249: -88 x_51_ + 16 y_51_ + [ 1 x_51_ ^ 2 + 1 y_51_ ^ 2 ] <= 132558.58410741077
c250: -88 x_52_ + 16 y_52_ + [ 1 x_52_ ^ 2 + 1 y_52_ ^ 2 ] <= 72669.51677801882
c251: -88 x_53_ + 16 y_53_ + [ 1 x_53_ ^ 2 + 1 y_53_ ^ 2 ] <= 95564.74839507243
c252: -88 x_54_ + 16 y_54_ + [ 1 x_54_ ^ 2 + 1 y_54_ ^ 2 ] <= 57248.41847958532
c253: -88 x_55_ + 16 y_55_ + [ 1 x_55_ ^ 2 + 1 y_55_ ^ 2 ] <= 61829.442215268515
c254: -88 x_56_ + 16 y_56_ + [ 1 x_56_ ^ 2 + 1 y_56_ ^ 2 ] <= 112887.2834118835
c255: -88 x_57_ + 16 y_57_ + [ 1 x_57_ ^ 2 + 1 y_57_ ^ 2 ] <= 112872.1456332862
c256: -88 x_58_ + 16 y_58_ + [ 1 x_58_ ^ 2 + 1 y_58_ ^ 2 ] <= 15722.137749813315
c257: -88 x_59_ + 16 y_59_ + [ 1 x_59_ ^ 2 + 1 y_59_ ^ 2 ] <= 111106.81131556822
c258: -88 x_60_ + 16 y_60_ + [ 1 x_60_ ^ 2 + 1 y_60_ ^ 2 ] <= 57182.72936492022
c259: -88 x_61_ + 16 y_61_ + [ 1 x_61_ ^ 2 + 1 y_61_ ^ 2 ] <= 143410.3845416016
c260: -88 x_62_ + 16 y_62_ + [ 1 x_62_ ^ 2 + 1 y_62_ ^ 2 ] <= 36568.34570259571
c261: -88 x_63_ + 16 y_63_ + [ 1 x_63_ ^ 2 + 1 y_63_ ^ 2 ] <= 107582.0352701528
c262: -88 x_64_ + 16 y_64_ + [ 1 x_64_ ^ 2 + 1 y_64_ ^ 2 ] <= 12889.973032319127
c263: -88 x_65_ + 16 y_65_ + [ 1 x_65_ ^ 2 + 1 y_65_ ^ 2 ] <= 17559.6082280212
c264: -88 x_66_ + 16 y_66_ + [ 1 x_66_ ^ 2 + 1 y_66_ ^ 2 ] <= 177337.67988499373
c265: -88 x_67_ + 16 y_67_ + [ 1 x_67_ ^ 2 + 1 y_67_ ^ 2 ] <= 50104.69192121451
c266: -88 x_68_ + 16 y_68_ + [ 1 x_68_ ^ 2 + 1 y_68_ ^ 2 ] <= 66202.23840980146
c267: -88 x_69_ + 16 y_69_ + [ 1 x_69_ ^ 2 + 1 y_69_ ^ 2 ] <= 90597.66934276791
c268: -88 x_70_ + 16 y_70_ + [ 1 x_70_ ^ 2 + 1 y_70_ ^ 2 ] <= 14469.91709270973
c269: -88 x_71_ + 16 y_71_ + [ 1 x_71_ ^ 2 + 1 y_71_ ^ 2 ] <= 5227.559999999999
c270: -88 x_72_ + 16 y_72_ + [ 1 x_72_ ^ 2 + 1 y_72_ ^ 2 ] <= 126579.83309592502
c271: -88 x_73_ + 16 y_73_ + [ 1 x_73_ ^ 2 + 1 y_73_ ^ 2 ] <= 50296.2676101849
c272: -88 x_74_ + 16 y_74_ + [ 1 x_74_ ^ 2 + 1 y_74_ ^ 2 ] <= 87451.78867922511
c273: -88 x_75_ + 16 y_75_ + [ 1 x_75_ ^ 2 + 1 y_75_ ^ 2 ] <= 37240.49768470141
c274: -88 x_76_ + 16 y_76_ + [ 1 x_76_ ^ 2 + 1 y_76_ ^ 2 ] <= 18288.983705275037
c275: -88 x_77_ + 16 y_77_ + [ 1 x_77_ ^ 2 + 1 y_77_ ^ 2 ] <= 114850.48558134772
c276: -88 x_78_ + 16 y_78_ + [ 1 x_78_ ^ 2 + 1 y_78_ ^ 2 ] <= 105161.93612326469
c277: -88 x_80_ + 16 y_80_ + [ 1 x_80_ ^ 2 + 1 y_80_ ^ 2 ] <= 111640.36845825703
c278: -88 x_81_ + 16 y_81_ + [ 1 x_81_ ^ 2 + 1 y_81_ ^ 2 ] <= 111222.60820204105
c279: -88 x_82_ + 16 y_82_ + [ 1 x_82_ ^ 2 + 1 y_82_ ^ 2 ] <= 6333.6757041056735
c280: -88 x_83_ + 16 y_83_ + [ 1 x_83_ ^ 2 + 1 y_83_ ^ 2 ] <= 100133.11722573209
c281: -88 x_84_ + 16 y_84_ + [ 1 x_84_ ^ 2 + 1 y_84_ ^ 2 ] <= 119307.7055628099
c282: -88 x_85_ + 16 y_85_ + [ 1 x_85_ ^ 2 + 1 y_85_ ^ 2 ] <= 61565.37264480918
c283: -88 x_86_ + 16 y_86_ + [ 1 x_86_ ^ 2 + 1 y_86_ ^ 2 ] <= 104042.681915943
c284: -88 x_87_ + 16 y_87_ + [ 1 x_87_ ^ 2 + 1 y_87_ ^ 2 ] <= 101809.90037779245
c285: -88 x_88_ + 16 y_88_ + [ 1 x_88_ ^ 2 + 1 y_88_ ^ 2 ] <= 118471.7154823727
c286: -88 x_89_ + 16 y_89_ + [ 1 x_89_ ^ 2 + 1 y_89_ ^ 2 ] <= 1504.1104916197874
c287: -88 x_90_ + 16 y_90_ + [ 1 x_90_ ^ 2 + 1 y_90_ ^ 2 ] <= 62766.692508464876
c288: -88 x_91_ + 16 y_91_ + [ 1 x_91_ ^ 2 + 1 y_91_ ^ 2 ] <= 23830.651669311083
c289: -88 x_92_ + 16 y_92_ + [ 1 x_92_ ^ 2 + 1 y_92_ ^ 2 ] <= 65870.01619585598
c290: -88 x_93_ + 16 y_93_ + [ 1 x_93_ ^ 2 + 1 y_93_ ^ 2 ] <= 9416.586761241075
c291: -88 x_94_ + 16 y_94_ + [ 1 x_94_ ^ 2 + 1 y_94_ ^ 2 ] <= 102118.36043615577
c292: -88 x_95_ + 16 y_95_ + [ 1 x_95_ ^ 2 + 1 y_95_ ^ 2 ] <= 81096.62808807587
c293: -88 x_96_ + 16 y_96_ + [ 1 x_96_ ^ 2 + 1 y_96_ ^ 2 ] <= 29850.110912555072
c294: -88 x_97_ + 16 y_97_ + [ 1 x_97_ ^ 2 + 1 y_97_ ^ 2 ] <= 147138.05052401673
c295: -88 x_98_ + 16 y_98_ + [ 1 x_98_ ^ 2 + 1 y_98_ ^ 2 ] <= 94604.19353671304
c296: -88 x_99_ + 16 y_99_ + [ 1 x_99_ ^ 2 + 1 y_99_ ^ 2 ] <= 73258.06126731746
c297: -88 x_100_ + 16 y_100_ + [ 1 x_100_ ^ 2 + 1 y_100_ ^ 2 ] <= 44357.63498641596
quadratic_ranged_1_ub: [ 1 x_1_ ^ 2 - 2 x_2_ * x_1_ + 1 x_2_ ^ 2 + 1 y_1_ ^ 2 - 2 y_2_ * y_1_ + 1 y_2_ ^ 2 ] <= 34886.41
quadratic_ranged_2_ub: [ 1 x_4_ ^ 2 - 2 x_5_ * x_4_ + 1 x_5_ ^ 2 + 1 y_4_ ^ 2 - 2 y_5_ * y_4_ + 1 y_5_ ^ 2 ] <= 26068.1
quadratic_ranged_3_ub: [ 1 x_3_ ^ 2 - 2 x_9_ * x_3_ + 1 x_9_ ^ 2 + 1 y_3_ ^ 2 - 2 y_9_ * y_3_ + 1 y_9_ ^ 2 ] <= 5935.77
quadratic_ranged_4_ub: [ 1 x_6_ ^ 2 - 2 x_9_ * x_6_ + 1 x_9_ ^ 2 + 1 y_6_ ^ 2 - 2 y_9_ * y_6_ + 1 y_9_ ^ 2 ] <= 10837.3
quadratic_ranged_5_ub: [ 1 x_7_ ^ 2 - 2 x_9_ * x_7_ + 1 x_9_ ^ 2 + 1 y_7_ ^ 2 - 2 y_9_ * y_7_ + 1 y_9_ ^ 2 ] <= 33309.8
quadratic_ranged_6_ub: [ 1 x_4_ ^ 2 - 2 x_10_ * x_4_ + 1 x_10_ ^ 2 + 1 y_4_ ^ 2 - 2 y_10_ * y_4_ + 1 y_10_ ^ 2 ] <= 38339.6
quadratic_ranged_7_ub: [ 1 x_3_ ^ 2 - 2 x_11_ * x_3_ + 1 x_11_ ^ 2 + 1 y_3_ ^ 2 - 2 y_11_ * y_3_ + 1 y_11_ ^ 2 ] <= 5544.9
quadratic_ranged_8_ub: [ 1 x_10_ ^ 2 - 2 x_12_ * x_10_ + 1 x_12_ ^ 2 + 1 y_10_ ^ 2 - 2 y_12_ * y_10_ + 1 y_12_ ^ 2 ] <= 12835.08
quadratic_ranged_9_ub: [ 1 x_14_ ^ 2 - 2 x_15_ * x_14_ + 1 x_15_ ^ 2 + 1 y_14_ ^ 2 - 2 y_15_ * y_14_ + 1 y_15_ ^ 2 ] <= 853.45
quadratic_ranged_10_ub: [ 1 x_10_ ^ 2 - 2 x_17_ * x_10_ + 1 x_17_ ^ 2 + 1 y_10_ ^ 2 - 2 y_17_ * y_10_ + 1 y_17_ ^ 2 ] <= 2894.66
quadratic_ranged_11_ub: [ 1 x_13_ ^ 2 - 2 x_17_ * x_13_ + 1 x_17_ ^ 2 + 1 y_13_ ^ 2 - 2 y_17_ * y_13_ + 1 y_17_ ^ 2 ] <= 1192.81
quadratic_ranged_12_ub: [ 1 x_15_ ^ 2 - 2 x_17_ * x_15_ + 1 x_17_ ^ 2 + 1 y_15_ ^ 2 - 2 y_17_ * y_15_ + 1 y_17_ ^ 2 ] <= 3192.61
quadratic_ranged_13_ub: [ 1 x_6_ ^ 2 - 2 x_19_ * x_6_ + 1 x_19_ ^ 2 + 1 y_6_ ^ 2 - 2 y_19_ * y_6_ + 1 y_19_ ^ 2 ] <= 23852.16
quadratic_ranged_14_ub: [ 1 x_7_ ^ 2 - 2 x_19_ * x_7_ + 1 x_19_ ^ 2 + 1 y_7_ ^ 2 - 2 y_19_ * y_7_ + 1 y_19_ ^ 2 ] <= 8009.3
quadratic_ranged_15_ub: [ 1 x_16_ ^ 2 - 2 x_19_ * x_16_ + 1 x_19_ ^ 2 + 1 y_16_ ^ 2 - 2 y_19_ * y_16_ + 1 y_19_ ^ 2 ] <= 37819.45
quadratic_ranged_16_ub: [ 1 x_7_ ^ 2 - 2 x_20_ * x_7_ + 1 x_20_ ^ 2 + 1 y_7_ ^ 2 - 2 y_20_ * y_7_ + 1 y_20_ ^ 2 ] <= 40400
quadratic_ranged_17_ub: [ 1 x_5_ ^ 2 - 2 x_23_ * x_5_ + 1 x_23_ ^ 2 + 1 y_5_ ^ 2 - 2 y_23_ * y_5_ + 1 y_23_ ^ 2 ] <= 5789.32
quadratic_ranged_18_ub: [ 1 x_22_ ^ 2 - 2 x_23_ * x_22_ + 1 x_23_ ^ 2 + 1 y_22_ ^ 2 - 2 y_23_ * y_22_ + 1 y_23_ ^ 2 ] <= 18648.64
quadratic_ranged_19_ub: [ 1 x_8_ ^ 2 - 2 x_24_ * x_8_ + 1 x_24_ ^ 2 + 1 y_8_ ^ 2 - 2 y_24_ * y_8_ + 1 y_24_ ^ 2 ] <= 2259.37
quadratic_ranged_20_ub: [ 1 x_11_ ^ 2 - 2 x_25_ * x_11_ + 1 x_25_ ^ 2 + 1 y_11_ ^ 2 - 2 y_25_ * y_11_ + 1 y_25_ ^ 2 ] <= 19800.04
quadratic_ranged_21_ub: [ 1 x_22_ ^ 2 - 2 x_25_ * x_22_ + 1 x_25_ ^ 2 + 1 y_22_ ^ 2 - 2 y_25_ * y_22_ + 1 y_25_ ^ 2 ] <= 8744.58
quadratic_ranged_22_ub: [ 1 x_20_ ^ 2 - 2 x_26_ * x_20_ + 1 x_26_ ^ 2 + 1 y_20_ ^ 2 - 2 y_26_ * y_20_ + 1 y_26_ ^ 2 ] <= 62670.5
quadratic_ranged_23_ub: [ 1 x_10_ ^ 2 - 2 x_27_ * x_10_ + 1 x_27_ ^ 2 + 1 y_10_ ^ 2 - 2 y_27_ * y_10_ + 1 y_27_ ^ 2 ] <= 2076.56
quadratic_ranged_24_ub: [ 1 x_15_ ^ 2 - 2 x_27_ * x_15_ + 1 x_27_ ^ 2 + 1 y_15_ ^ 2 - 2 y_27_ * y_15_ + 1 y_27_ ^ 2 ] <= 7479.05
quadratic_ranged_25_ub: [ 1 x_2_ ^ 2 - 2 x_28_ * x_2_ + 1 x_28_ ^ 2 + 1 y_2_ ^ 2 - 2 y_28_ * y_2_ + 1 y_28_ ^ 2 ] <= 732.25
quadratic_ranged_26_ub: [ 1 x_5_ ^ 2 - 2 x_28_ * x_5_ + 1 x_28_ ^ 2 + 1 y_5_ ^ 2 - 2 y_28_ * y_5_ + 1 y_28_ ^ 2 ] <= 27137.69
quadratic_ranged_27_ub: [ 1 x_27_ ^ 2 - 2 x_29_ * x_27_ + 1 x_29_ ^ 2 + 1 y_27_ ^ 2 - 2 y_29_ * y_27_ + 1 y_29_ ^ 2 ] <= 4986.37
quadratic_ranged_28_ub: [ 1 x_3_ ^ 2 - 2 x_30_ * x_3_ + 1 x_30_ ^ 2 + 1 y_3_ ^ 2 - 2 y_30_ * y_3_ + 1 y_30_ ^ 2 ] <= 1116.05
quadratic_ranged_29_ub: [ 1 x_8_ ^ 2 - 2 x_30_ * x_8_ + 1 x_30_ ^ 2 + 1 y_8_ ^ 2 - 2 y_30_ * y_8_ + 1 y_30_ ^ 2 ] <= 12226.05
quadratic_ranged_30_ub: [ 1 x_12_ ^ 2 - 2 x_30_ * x_12_ + 1 x_30_ ^ 2 + 1 y_12_ ^ 2 - 2 y_30_ * y_12_ + 1 y_30_ ^ 2 ] <= 158.57
quadratic_ranged_31_ub: [ 1 x_21_ ^ 2 - 2 x_31_ * x_21_ + 1 x_31_ ^ 2 + 1 y_21_ ^ 2 - 2 y_31_ * y_21_ + 1 y_31_ ^ 2 ] <= 11958.4
quadratic_ranged_32_ub: [ 1 x_3_ ^ 2 - 2 x_32_ * x_3_ + 1 x_32_ ^ 2 + 1 y_3_ ^ 2 - 2 y_32_ * y_3_ + 1 y_32_ ^ 2 ] <= 10164.64
quadratic_ranged_33_ub: [ 1 x_4_ ^ 2 - 2 x_33_ * x_4_ + 1 x_33_ ^ 2 + 1 y_4_ ^ 2 - 2 y_33_ * y_4_ + 1 y_33_ ^ 2 ] <= 26025.68
quadratic_ranged_34_ub: [ 1 x_17_ ^ 2 - 2 x_33_ * x_17_ + 1 x_33_ ^ 2 + 1 y_17_ ^ 2 - 2 y_33_ * y_17_ + 1 y_33_ ^ 2 ] <= 995.86
quadratic_ranged_35_ub: [ 1 x_26_ ^ 2 - 2 x_33_ * x_26_ + 1 x_33_ ^ 2 + 1 y_26_ ^ 2 - 2 y_33_ * y_26_ + 1 y_33_ ^ 2 ] <= 36571.090000000004
quadratic_ranged_36_ub: [ 1 x_11_ ^ 2 - 2 x_34_ * x_11_ + 1 x_34_ ^ 2 + 1 y_11_ ^ 2 - 2 y_34_ * y_11_ + 1 y_34_ ^ 2 ] <= 1762.45
quadratic_ranged_37_ub: [ 1 x_22_ ^ 2 - 2 x_34_ * x_22_ + 1 x_34_ ^ 2 + 1 y_22_ ^ 2 - 2 y_34_ * y_22_ + 1 y_34_ ^ 2 ] <= 7830.53
quadratic_ranged_38_ub: [ 1 x_11_ ^ 2 - 2 x_36_ * x_11_ + 1 x_36_ ^ 2 + 1 y_11_ ^ 2 - 2 y_36_ * y_11_ + 1 y_36_ ^ 2 ] <= 17325.54
quadratic_ranged_39_ub: [ 1 x_11_ ^ 2 - 2 x_37_ * x_11_ + 1 x_37_ ^ 2 + 1 y_11_ ^ 2 - 2 y_37_ * y_11_ + 1 y_37_ ^ 2 ] <= 14293.52
quadratic_ranged_40_ub: [ 1 x_1_ ^ 2 - 2 x_38_ * x_1_ + 1 x_38_ ^ 2 + 1 y_1_ ^ 2 - 2 y_38_ * y_1_ + 1 y_38_ ^ 2 ] <= 15579.25
quadratic_ranged_41_ub: [ 1 x_18_ ^ 2 - 2 x_38_ * x_18_ + 1 x_38_ ^ 2 + 1 y_18_ ^ 2 - 2 y_38_ * y_18_ + 1 y_38_ ^ 2 ] <= 20587.84
quadratic_ranged_42_ub: [ 1 x_11_ ^ 2 - 2 x_39_ * x_11_ + 1 x_39_ ^ 2 + 1 y_11_ ^ 2 - 2 y_39_ * y_11_ + 1 y_39_ ^ 2 ] <= 8863.76
quadratic_ranged_43_ub: [ 1 x_24_ ^ 2 - 2 x_39_ * x_24_ + 1 x_39_ ^ 2 + 1 y_24_ ^ 2 - 2 y_39_ * y_24_ + 1 y_39_ ^ 2 ] <= 19574.81
quadratic_ranged_44_ub: [ 1 x_8_ ^ 2 - 2 x_41_ * x_8_ + 1 x_41_ ^ 2 + 1 y_8_ ^ 2 - 2 y_41_ * y_8_ + 1 y_41_ ^ 2 ] <= 19038.5
quadratic_ranged_45_ub: [ 1 x_22_ ^ 2 - 2 x_41_ * x_22_ + 1 x_41_ ^ 2 + 1 y_22_ ^ 2 - 2 y_41_ * y_22_ + 1 y_41_ ^ 2 ] <= 1900.82
quadratic_ranged_46_ub: [ 1 x_2_ ^ 2 - 2 x_42_ * x_2_ + 1 x_42_ ^ 2 + 1 y_2_ ^ 2 - 2 y_42_ * y_2_ + 1 y_42_ ^ 2 ] <= 10973.65
quadratic_ranged_47_ub: [ 1 x_18_ ^ 2 - 2 x_42_ * x_18_ + 1 x_42_ ^ 2 + 1 y_18_ ^ 2 - 2 y_42_ * y_18_ + 1 y_42_ ^ 2 ] <= 7337.65
quadratic_ranged_48_ub: [ 1 x_21_ ^ 2 - 2 x_42_ * x_21_ + 1 x_42_ ^ 2 + 1 y_21_ ^ 2 - 2 y_42_ * y_21_ + 1 y_42_ ^ 2 ] <= 6498.34
quadratic_ranged_49_ub: [ 1 x_5_ ^ 2 - 2 x_43_ * x_5_ + 1 x_43_ ^ 2 + 1 y_5_ ^ 2 - 2 y_43_ * y_5_ + 1 y_43_ ^ 2 ] <= 29477.86
quadratic_ranged_50_ub: [ 1 x_6_ ^ 2 - 2 x_43_ * x_6_ + 1 x_43_ ^ 2 + 1 y_6_ ^ 2 - 2 y_43_ * y_6_ + 1 y_43_ ^ 2 ] <= 27501.29
quadratic_ranged_51_ub: [ 1 x_25_ ^ 2 - 2 x_44_ * x_25_ + 1 x_44_ ^ 2 + 1 y_25_ ^ 2 - 2 y_44_ * y_25_ + 1 y_44_ ^ 2 ] <= 8162.82
quadratic_ranged_52_ub: [ 1 x_38_ ^ 2 - 2 x_44_ * x_38_ + 1 x_44_ ^ 2 + 1 y_38_ ^ 2 - 2 y_44_ * y_38_ + 1 y_44_ ^ 2 ] <= 4395.52
quadratic_ranged_53_ub: [ 1 x_14_ ^ 2 - 2 x_45_ * x_14_ + 1 x_45_ ^ 2 + 1 y_14_ ^ 2 - 2 y_45_ * y_14_ + 1 y_45_ ^ 2 ] <= 9512.18
quadratic_ranged_54_ub: [ 1 x_18_ ^ 2 - 2 x_45_ * x_18_ + 1 x_45_ ^ 2 + 1 y_18_ ^ 2 - 2 y_45_ * y_18_ + 1 y_45_ ^ 2 ] <= 23743.08
quadratic_ranged_55_ub: [ 1 x_23_ ^ 2 - 2 x_45_ * x_23_ + 1 x_45_ ^ 2 + 1 y_23_ ^ 2 - 2 y_45_ * y_23_ + 1 y_45_ ^ 2 ] <= 1947.28
quadratic_ranged_56_ub: [ 1 x_29_ ^ 2 - 2 x_46_ * x_29_ + 1 x_46_ ^ 2 + 1 y_29_ ^ 2 - 2 y_46_ * y_29_ + 1 y_46_ ^ 2 ] <= 1236.24
quadratic_ranged_57_ub: [ 1 x_39_ ^ 2 - 2 x_46_ * x_39_ + 1 x_46_ ^ 2 + 1 y_39_ ^ 2 - 2 y_46_ * y_39_ + 1 y_46_ ^ 2 ] <= 12537.130000000001
quadratic_ranged_58_ub: [ 1 x_33_ ^ 2 - 2 x_47_ * x_33_ + 1 x_47_ ^ 2 + 1 y_33_ ^ 2 - 2 y_47_ * y_33_ + 1 y_47_ ^ 2 ] <= 10148.48
quadratic_ranged_59_ub: [ 1 x_39_ ^ 2 - 2 x_47_ * x_39_ + 1 x_47_ ^ 2 + 1 y_39_ ^ 2 - 2 y_47_ * y_39_ + 1 y_47_ ^ 2 ] <= 3833.96
quadratic_ranged_60_ub: [ 1 x_40_ ^ 2 - 2 x_47_ * x_40_ + 1 x_47_ ^ 2 + 1 y_40_ ^ 2 - 2 y_47_ * y_40_ + 1 y_47_ ^ 2 ] <= 28637.54
quadratic_ranged_61_ub: [ 1 x_10_ ^ 2 - 2 x_49_ * x_10_ + 1 x_49_ ^ 2 + 1 y_10_ ^ 2 - 2 y_49_ * y_10_ + 1 y_49_ ^ 2 ] <= 2768.41
quadratic_ranged_62_ub: [ 1 x_14_ ^ 2 - 2 x_49_ * x_14_ + 1 x_49_ ^ 2 + 1 y_14_ ^ 2 - 2 y_49_ * y_14_ + 1 y_49_ ^ 2 ] <= 11442.29
quadratic_ranged_63_ub: [ 1 x_13_ ^ 2 - 2 x_50_ * x_13_ + 1 x_50_ ^ 2 + 1 y_13_ ^ 2 - 2 y_50_ * y_13_ + 1 y_50_ ^ 2 ] <= 25957
quadratic_ranged_64_ub: [ 1 x_31_ ^ 2 - 2 x_51_ * x_31_ + 1 x_51_ ^ 2 + 1 y_31_ ^ 2 - 2 y_51_ * y_31_ + 1 y_51_ ^ 2 ] <= 3250.18
quadratic_ranged_65_ub: [ 1 x_48_ ^ 2 - 2 x_51_ * x_48_ + 1 x_51_ ^ 2 + 1 y_48_ ^ 2 - 2 y_51_ * y_48_ + 1 y_51_ ^ 2 ] <= 12493.7
quadratic_ranged_66_ub: [ 1 x_19_ ^ 2 - 2 x_52_ * x_19_ + 1 x_52_ ^ 2 + 1 y_19_ ^ 2 - 2 y_52_ * y_19_ + 1 y_52_ ^ 2 ] <= 10331.29
quadratic_ranged_67_ub: [ 1 x_28_ ^ 2 - 2 x_52_ * x_28_ + 1 x_52_ ^ 2 + 1 y_28_ ^ 2 - 2 y_52_ * y_28_ + 1 y_52_ ^ 2 ] <= 16872.05
quadratic_ranged_68_ub: [ 1 x_31_ ^ 2 - 2 x_52_ * x_31_ + 1 x_52_ ^ 2 + 1 y_31_ ^ 2 - 2 y_52_ * y_31_ + 1 y_52_ ^ 2 ] <= 2582.57
quadratic_ranged_69_ub: [ 1 x_2_ ^ 2 - 2 x_53_ * x_2_ + 1 x_53_ ^ 2 + 1 y_2_ ^ 2 - 2 y_53_ * y_2_ + 1 y_53_ ^ 2 ] <= 32453.32
quadratic_ranged_70_ub: [ 1 x_52_ ^ 2 - 2 x_53_ * x_52_ + 1 x_53_ ^ 2 + 1 y_52_ ^ 2 - 2 y_53_ * y_52_ + 1 y_53_ ^ 2 ] <= 11984.66
quadratic_ranged_71_ub: [ 1 x_10_ ^ 2 - 2 x_54_ * x_10_ + 1 x_54_ ^ 2 + 1 y_10_ ^ 2 - 2 y_54_ * y_10_ + 1 y_54_ ^ 2 ] <= 10027.28
quadratic_ranged_72_ub: [ 1 x_10_ ^ 2 - 2 x_55_ * x_10_ + 1 x_55_ ^ 2 + 1 y_10_ ^ 2 - 2 y_55_ * y_10_ + 1 y_55_ ^ 2 ] <= 19408.16
quadratic_ranged_73_ub: [ 1 x_19_ ^ 2 - 2 x_55_ * x_19_ + 1 x_55_ ^ 2 + 1 y_19_ ^ 2 - 2 y_55_ * y_19_ + 1 y_55_ ^ 2 ] <= 5333.81
quadratic_ranged_74_ub: [ 1 x_20_ ^ 2 - 2 x_55_ * x_20_ + 1 x_55_ ^ 2 + 1 y_20_ ^ 2 - 2 y_55_ * y_20_ + 1 y_55_ ^ 2 ] <= 27731.57
quadratic_ranged_75_ub: [ 1 x_41_ ^ 2 - 2 x_56_ * x_41_ + 1 x_56_ ^ 2 + 1 y_41_ ^ 2 - 2 y_56_ * y_41_ + 1 y_56_ ^ 2 ] <= 4570.25
quadratic_ranged_76_ub: [ 1 x_43_ ^ 2 - 2 x_56_ * x_43_ + 1 x_56_ ^ 2 + 1 y_43_ ^ 2 - 2 y_56_ * y_43_ + 1 y_56_ ^ 2 ] <= 5867.09
quadratic_ranged_77_ub: [ 1 x_5_ ^ 2 - 2 x_57_ * x_5_ + 1 x_57_ ^ 2 + 1 y_5_ ^ 2 - 2 y_57_ * y_5_ + 1 y_57_ ^ 2 ] <= 453.49
quadratic_ranged_78_ub: [ 1 x_14_ ^ 2 - 2 x_57_ * x_14_ + 1 x_57_ ^ 2 + 1 y_14_ ^ 2 - 2 y_57_ * y_14_ + 1 y_57_ ^ 2 ] <= 17417.45
quadratic_ranged_79_ub: [ 1 x_34_ ^ 2 - 2 x_57_ * x_34_ + 1 x_57_ ^ 2 + 1 y_34_ ^ 2 - 2 y_57_ * y_34_ + 1 y_57_ ^ 2 ] <= 21462.5
quadratic_ranged_80_ub: [ 1 x_3_ ^ 2 - 2 x_58_ * x_3_ + 1 x_58_ ^ 2 + 1 y_3_ ^ 2 - 2 y_58_ * y_3_ + 1 y_58_ ^ 2 ] <= 3265.33
quadratic_ranged_81_ub: [ 1 x_22_ ^ 2 - 2 x_58_ * x_22_ + 1 x_58_ ^ 2 + 1 y_22_ ^ 2 - 2 y_58_ * y_22_ + 1 y_58_ ^ 2 ] <= 8953.65
quadratic_ranged_82_ub: [ 1 x_53_ ^ 2 - 2 x_58_ * x_53_ + 1 x_58_ ^ 2 + 1 y_53_ ^ 2 - 2 y_58_ * y_53_ + 1 y_58_ ^ 2 ] <= 32123.05
quadratic_ranged_83_ub: [ 1 x_6_ ^ 2 - 2 x_59_ * x_6_ + 1 x_59_ ^ 2 + 1 y_6_ ^ 2 - 2 y_59_ * y_6_ + 1 y_59_ ^ 2 ] <= 28413.32
quadratic_ranged_84_ub: [ 1 x_33_ ^ 2 - 2 x_59_ * x_33_ + 1 x_59_ ^ 2 + 1 y_33_ ^ 2 - 2 y_59_ * y_33_ + 1 y_59_ ^ 2 ] <= 24224.85
quadratic_ranged_85_ub: [ 1 x_21_ ^ 2 - 2 x_60_ * x_21_ + 1 x_60_ ^ 2 + 1 y_21_ ^ 2 - 2 y_60_ * y_21_ + 1 y_60_ ^ 2 ] <= 8800.13
quadratic_ranged_86_ub: [ 1 x_58_ ^ 2 - 2 x_60_ * x_58_ + 1 x_60_ ^ 2 + 1 y_58_ ^ 2 - 2 y_60_ * y_58_ + 1 y_60_ ^ 2 ] <= 12133.13
quadratic_ranged_87_ub: [ 1 x_1_ ^ 2 - 2 x_61_ * x_1_ + 1 x_61_ ^ 2 + 1 y_1_ ^ 2 - 2 y_61_ * y_1_ + 1 y_61_ ^ 2 ] <= 4897.49
quadratic_ranged_88_ub: [ 1 x_2_ ^ 2 - 2 x_61_ * x_2_ + 1 x_61_ ^ 2 + 1 y_2_ ^ 2 - 2 y_61_ * y_2_ + 1 y_61_ ^ 2 ] <= 23213.84
quadratic_ranged_89_ub: [ 1 x_4_ ^ 2 - 2 x_62_ * x_4_ + 1 x_62_ ^ 2 + 1 y_4_ ^ 2 - 2 y_62_ * y_4_ + 1 y_62_ ^ 2 ] <= 11105.960000000001
quadratic_ranged_90_ub: [ 1 x_44_ ^ 2 - 2 x_62_ * x_44_ + 1 x_62_ ^ 2 + 1 y_44_ ^ 2 - 2 y_62_ * y_44_ + 1 y_62_ ^ 2 ] <= 6053.94
quadratic_ranged_91_ub: [ 1 x_1_ ^ 2 - 2 x_63_ * x_1_ + 1 x_63_ ^ 2 + 1 y_1_ ^ 2 - 2 y_63_ * y_1_ + 1 y_63_ ^ 2 ] <= 2197.76
quadratic_ranged_92_ub: [ 1 x_51_ ^ 2 - 2 x_63_ * x_51_ + 1 x_63_ ^ 2 + 1 y_51_ ^ 2 - 2 y_63_ * y_51_ + 1 y_63_ ^ 2 ] <= 3785.48
quadratic_ranged_93_ub: [ 1 x_60_ ^ 2 - 2 x_63_ * x_60_ + 1 x_63_ ^ 2 + 1 y_60_ ^ 2 - 2 y_63_ * y_60_ + 1 y_63_ ^ 2 ] <= 7701.25
quadratic_ranged_94_ub: [ 1 x_12_ ^ 2 - 2 x_64_ * x_12_ + 1 x_64_ ^ 2 + 1 y_12_ ^ 2 - 2 y_64_ * y_12_ + 1 y_64_ ^ 2 ] <= 8471.88
quadratic_ranged_95_ub: [ 1 x_14_ ^ 2 - 2 x_64_ * x_14_ + 1 x_64_ ^ 2 + 1 y_14_ ^ 2 - 2 y_64_ * y_14_ + 1 y_64_ ^ 2 ] <= 9312.2
quadratic_ranged_96_ub: [ 1 x_37_ ^ 2 - 2 x_64_ * x_37_ + 1 x_64_ ^ 2 + 1 y_37_ ^ 2 - 2 y_64_ * y_37_ + 1 y_64_ ^ 2 ] <= 9716.2
quadratic_ranged_97_ub: [ 1 x_2_ ^ 2 - 2 x_65_ * x_2_ + 1 x_65_ ^ 2 + 1 y_2_ ^ 2 - 2 y_65_ * y_2_ + 1 y_65_ ^ 2 ] <= 30426.25
quadratic_ranged_98_ub: [ 1 x_8_ ^ 2 - 2 x_65_ * x_8_ + 1 x_65_ ^ 2 + 1 y_8_ ^ 2 - 2 y_65_ * y_8_ + 1 y_65_ ^ 2 ] <= 352.49
quadratic_ranged_99_ub: [ 1 x_30_ ^ 2 - 2 x_65_ * x_30_ + 1 x_65_ ^ 2 + 1 y_30_ ^ 2 - 2 y_65_ * y_30_ + 1 y_65_ ^ 2 ] <= 9463.7
quadratic_ranged_100_ub: [ 1 x_6_ ^ 2 - 2 x_66_ * x_6_ + 1 x_66_ ^ 2 + 1 y_6_ ^ 2 - 2 y_66_ * y_6_ + 1 y_66_ ^ 2 ] <= 27674
quadratic_ranged_101_ub: [ 1 x_16_ ^ 2 - 2 x_66_ * x_16_ + 1 x_66_ ^ 2 + 1 y_16_ ^ 2 - 2 y_66_ * y_16_ + 1 y_66_ ^ 2 ] <= 32547.25
quadratic_ranged_102_ub: [ 1 x_44_ ^ 2 - 2 x_67_ * x_44_ + 1 x_67_ ^ 2 + 1 y_44_ ^ 2 - 2 y_67_ * y_44_ + 1 y_67_ ^ 2 ] <= 10181.81
quadratic_ranged_103_ub: [ 1 x_49_ ^ 2 - 2 x_67_ * x_49_ + 1 x_67_ ^ 2 + 1 y_49_ ^ 2 - 2 y_67_ * y_49_ + 1 y_67_ ^ 2 ] <= 4997.4800000000005
quadratic_ranged_104_ub: [ 1 x_58_ ^ 2 - 2 x_67_ * x_58_ + 1 x_67_ ^ 2 + 1 y_58_ ^ 2 - 2 y_67_ * y_58_ + 1 y_67_ ^ 2 ] <= 9051.62
quadratic_ranged_105_ub: [ 1 x_22_ ^ 2 - 2 x_68_ * x_22_ + 1 x_68_ ^ 2 + 1 y_22_ ^ 2 - 2 y_68_ * y_22_ + 1 y_68_ ^ 2 ] <= 1116.05
quadratic_ranged_106_ub: [ 1 x_31_ ^ 2 - 2 x_68_ * x_31_ + 1 x_68_ ^ 2 + 1 y_31_ ^ 2 - 2 y_68_ * y_31_ + 1 y_68_ ^ 2 ] <= 2367.44
quadratic_ranged_107_ub: [ 1 x_52_ ^ 2 - 2 x_68_ * x_52_ + 1 x_68_ ^ 2 + 1 y_52_ ^ 2 - 2 y_68_ * y_52_ + 1 y_68_ ^ 2 ] <= 146.45
quadratic_ranged_108_ub: [ 1 x_18_ ^ 2 - 2 x_69_ * x_18_ + 1 x_69_ ^ 2 + 1 y_18_ ^ 2 - 2 y_69_ * y_18_ + 1 y_69_ ^ 2 ] <= 14326.85
quadratic_ranged_109_ub: [ 1 x_34_ ^ 2 - 2 x_69_ * x_34_ + 1 x_69_ ^ 2 + 1 y_34_ ^ 2 - 2 y_69_ * y_34_ + 1 y_69_ ^ 2 ] <= 18157.78
quadratic_ranged_110_ub: [ 1 x_48_ ^ 2 - 2 x_69_ * x_48_ + 1 x_69_ ^ 2 + 1 y_48_ ^ 2 - 2 y_69_ * y_48_ + 1 y_69_ ^ 2 ] <= 9140.5
quadratic_ranged_111_ub: [ 1 x_34_ ^ 2 - 2 x_70_ * x_34_ + 1 x_70_ ^ 2 + 1 y_34_ ^ 2 - 2 y_70_ * y_34_ + 1 y_70_ ^ 2 ] <= 27070.02
quadratic_ranged_112_ub: [ 1 x_36_ ^ 2 - 2 x_70_ * x_36_ + 1 x_70_ ^ 2 + 1 y_36_ ^ 2 - 2 y_70_ * y_36_ + 1 y_70_ ^ 2 ] <= 29.29
quadratic_ranged_113_ub: [ 1 x_65_ ^ 2 - 2 x_70_ * x_65_ + 1 x_70_ ^ 2 + 1 y_65_ ^ 2 - 2 y_70_ * y_65_ + 1 y_70_ ^ 2 ] <= 29088
quadratic_ranged_114_ub: [ 1 x_10_ ^ 2 - 2 x_71_ * x_10_ + 1 x_71_ ^ 2 + 1 y_10_ ^ 2 - 2 y_71_ * y_10_ + 1 y_71_ ^ 2 ] <= 20929.22
quadratic_ranged_115_ub: [ 1 x_45_ ^ 2 - 2 x_71_ * x_45_ + 1 x_71_ ^ 2 + 1 y_45_ ^ 2 - 2 y_71_ * y_45_ + 1 y_71_ ^ 2 ] <= 14972.24
quadratic_ranged_116_ub: [ 1 x_50_ ^ 2 - 2 x_71_ * x_50_ + 1 x_71_ ^ 2 + 1 y_50_ ^ 2 - 2 y_71_ * y_50_ + 1 y_71_ ^ 2 ] <= 18589.05
quadratic_ranged_117_ub: [ 1 x_19_ ^ 2 - 2 x_72_ * x_19_ + 1 x_72_ ^ 2 + 1 y_19_ ^ 2 - 2 y_72_ * y_19_ + 1 y_72_ ^ 2 ] <= 4726.8
quadratic_ranged_118_ub: [ 1 x_26_ ^ 2 - 2 x_72_ * x_26_ + 1 x_72_ ^ 2 + 1 y_26_ ^ 2 - 2 y_72_ * y_26_ + 1 y_72_ ^ 2 ] <= 5304.52
quadratic_ranged_119_ub: [ 1 x_35_ ^ 2 - 2 x_72_ * x_35_ + 1 x_72_ ^ 2 + 1 y_35_ ^ 2 - 2 y_72_ * y_35_ + 1 y_72_ ^ 2 ] <= 82.82000000000001
quadratic_ranged_120_ub: [ 1 x_1_ ^ 2 - 2 x_73_ * x_1_ + 1 x_73_ ^ 2 + 1 y_1_ ^ 2 - 2 y_73_ * y_1_ + 1 y_73_ ^ 2 ] <= 21804.89
quadratic_ranged_121_ub: [ 1 x_27_ ^ 2 - 2 x_73_ * x_27_ + 1 x_73_ ^ 2 + 1 y_27_ ^ 2 - 2 y_73_ * y_27_ + 1 y_73_ ^ 2 ] <= 8924.36
quadratic_ranged_122_ub: [ 1 x_69_ ^ 2 - 2 x_73_ * x_69_ + 1 x_73_ ^ 2 + 1 y_69_ ^ 2 - 2 y_73_ * y_69_ + 1 y_73_ ^ 2 ] <= 5717.61
quadratic_ranged_123_ub: [ 1 x_32_ ^ 2 - 2 x_74_ * x_32_ + 1 x_74_ ^ 2 + 1 y_32_ ^ 2 - 2 y_74_ * y_32_ + 1 y_74_ ^ 2 ] <= 16412.5
quadratic_ranged_124_ub: [ 1 x_64_ ^ 2 - 2 x_74_ * x_64_ + 1 x_74_ ^ 2 + 1 y_64_ ^ 2 - 2 y_74_ * y_64_ + 1 y_74_ ^ 2 ] <= 31350.4
quadratic_ranged_125_ub: [ 1 x_14_ ^ 2 - 2 x_75_ * x_14_ + 1 x_75_ ^ 2 + 1 y_14_ ^ 2 - 2 y_75_ * y_14_ + 1 y_75_ ^ 2 ] <= 861.53
quadratic_ranged_126_ub: [ 1 x_59_ ^ 2 - 2 x_75_ * x_59_ + 1 x_75_ ^ 2 + 1 y_59_ ^ 2 - 2 y_75_ * y_59_ + 1 y_75_ ^ 2 ] <= 19105.16
quadratic_ranged_127_ub: [ 1 x_64_ ^ 2 - 2 x_75_ * x_64_ + 1 x_75_ ^ 2 + 1 y_64_ ^ 2 - 2 y_75_ * y_64_ + 1 y_75_ ^ 2 ] <= 5786.29
quadratic_ranged_128_ub: [ 1 x_21_ ^ 2 - 2 x_76_ * x_21_ + 1 x_76_ ^ 2 + 1 y_21_ ^ 2 - 2 y_76_ * y_21_ + 1 y_76_ ^ 2 ] <= 36830.66
quadratic_ranged_129_ub: [ 1 x_29_ ^ 2 - 2 x_76_ * x_29_ + 1 x_76_ ^ 2 + 1 y_29_ ^ 2 - 2 y_76_ * y_29_ + 1 y_76_ ^ 2 ] <= 6215.54
quadratic_ranged_130_ub: [ 1 x_55_ ^ 2 - 2 x_76_ * x_55_ + 1 x_76_ ^ 2 + 1 y_55_ ^ 2 - 2 y_76_ * y_55_ + 1 y_76_ ^ 2 ] <= 12145.25
quadratic_ranged_131_ub: [ 1 x_2_ ^ 2 - 2 x_77_ * x_2_ + 1 x_77_ ^ 2 + 1 y_2_ ^ 2 - 2 y_77_ * y_2_ + 1 y_77_ ^ 2 ] <= 12739.130000000001
quadratic_ranged_132_ub: [ 1 x_43_ ^ 2 - 2 x_77_ * x_43_ + 1 x_77_ ^ 2 + 1 y_43_ ^ 2 - 2 y_77_ * y_43_ + 1 y_77_ ^ 2 ] <= 14124.85
quadratic_ranged_133_ub: [ 1 x_48_ ^ 2 - 2 x_77_ * x_48_ + 1 x_77_ ^ 2 + 1 y_48_ ^ 2 - 2 y_77_ * y_48_ + 1 y_77_ ^ 2 ] <= 10544.4
quadratic_ranged_134_ub: [ 1 x_28_ ^ 2 - 2 x_78_ * x_28_ + 1 x_78_ ^ 2 + 1 y_28_ ^ 2 - 2 y_78_ * y_28_ + 1 y_78_ ^ 2 ] <= 27637.64
quadratic_ranged_135_ub: [ 1 x_37_ ^ 2 - 2 x_78_ * x_37_ + 1 x_78_ ^ 2 + 1 y_37_ ^ 2 - 2 y_78_ * y_37_ + 1 y_78_ ^ 2 ] <= 11397.85
quadratic_ranged_136_ub: [ 1 x_53_ ^ 2 - 2 x_78_ * x_53_ + 1 x_78_ ^ 2 + 1 y_53_ ^ 2 - 2 y_78_ * y_53_ + 1 y_78_ ^ 2 ] <= 1701.85
quadratic_ranged_137_ub: [ 1 x_12_ ^ 2 - 2 x_79_ * x_12_ + 1 x_79_ ^ 2 + 1 y_12_ ^ 2 - 2 y_79_ * y_12_ + 1 y_79_ ^ 2 ] <= 898.9
quadratic_ranged_138_ub: [ 1 x_29_ ^ 2 - 2 x_79_ * x_29_ + 1 x_79_ ^ 2 + 1 y_29_ ^ 2 - 2 y_79_ * y_29_ + 1 y_79_ ^ 2 ] <= 4045.05
quadratic_ranged_139_ub: [ 1 x_71_ ^ 2 - 2 x_79_ * x_71_ + 1 x_79_ ^ 2 + 1 y_71_ ^ 2 - 2 y_79_ * y_71_ + 1 y_79_ ^ 2 ] <= 7227.56
quadratic_ranged_140_ub: [ 1 x_17_ ^ 2 - 2 x_80_ * x_17_ + 1 x_80_ ^ 2 + 1 y_17_ ^ 2 - 2 y_80_ * y_17_ + 1 y_80_ ^ 2 ] <= 23102.74
quadratic_ranged_141_ub: [ 1 x_23_ ^ 2 - 2 x_80_ * x_23_ + 1 x_80_ ^ 2 + 1 y_23_ ^ 2 - 2 y_80_ * y_23_ + 1 y_80_ ^ 2 ] <= 23644.1
quadratic_ranged_142_ub: [ 1 x_54_ ^ 2 - 2 x_80_ * x_54_ + 1 x_80_ ^ 2 + 1 y_54_ ^ 2 - 2 y_80_ * y_54_ + 1 y_80_ ^ 2 ] <= 8778.92
quadratic_ranged_143_ub: [ 1 x_2_ ^ 2 - 2 x_81_ * x_2_ + 1 x_81_ ^ 2 + 1 y_2_ ^ 2 - 2 y_81_ * y_2_ + 1 y_81_ ^ 2 ] <= 21462.5
quadratic_ranged_144_ub: [ 1 x_24_ ^ 2 - 2 x_81_ * x_24_ + 1 x_81_ ^ 2 + 1 y_24_ ^ 2 - 2 y_81_ * y_24_ + 1 y_81_ ^ 2 ] <= 18443.61
quadratic_ranged_145_ub: [ 1 x_47_ ^ 2 - 2 x_81_ * x_47_ + 1 x_81_ ^ 2 + 1 y_47_ ^ 2 - 2 y_81_ * y_47_ + 1 y_81_ ^ 2 ] <= 17988.1
quadratic_ranged_146_ub: [ 1 x_3_ ^ 2 - 2 x_82_ * x_3_ + 1 x_82_ ^ 2 + 1 y_3_ ^ 2 - 2 y_82_ * y_3_ + 1 y_82_ ^ 2 ] <= 234.32
quadratic_ranged_147_ub: [ 1 x_50_ ^ 2 - 2 x_82_ * x_50_ + 1 x_82_ ^ 2 + 1 y_50_ ^ 2 - 2 y_82_ * y_50_ + 1 y_82_ ^ 2 ] <= 5701.45
quadratic_ranged_148_ub: [ 1 x_4_ ^ 2 - 2 x_83_ * x_4_ + 1 x_83_ ^ 2 + 1 y_4_ ^ 2 - 2 y_83_ * y_4_ + 1 y_83_ ^ 2 ] <= 492.88
quadratic_ranged_149_ub: [ 1 x_74_ ^ 2 - 2 x_83_ * x_74_ + 1 x_83_ ^ 2 + 1 y_74_ ^ 2 - 2 y_83_ * y_74_ + 1 y_83_ ^ 2 ] <= 420.16
quadratic_ranged_150_ub: [ 1 x_53_ ^ 2 - 2 x_84_ * x_53_ + 1 x_84_ ^ 2 + 1 y_53_ ^ 2 - 2 y_84_ * y_53_ + 1 y_84_ ^ 2 ] <= 1843.25
quadratic_ranged_151_ub: [ 1 x_83_ ^ 2 - 2 x_84_ * x_83_ + 1 x_84_ ^ 2 + 1 y_83_ ^ 2 - 2 y_84_ * y_83_ + 1 y_84_ ^ 2 ] <= 20136.37
quadratic_ranged_152_ub: [ 1 x_1_ ^ 2 - 2 x_85_ * x_1_ + 1 x_85_ ^ 2 + 1 y_1_ ^ 2 - 2 y_85_ * y_1_ + 1 y_85_ ^ 2 ] <= 5563.08
quadratic_ranged_153_ub: [ 1 x_32_ ^ 2 - 2 x_85_ * x_32_ + 1 x_85_ ^ 2 + 1 y_32_ ^ 2 - 2 y_85_ * y_32_ + 1 y_85_ ^ 2 ] <= 5673.17
quadratic_ranged_154_ub: [ 1 x_58_ ^ 2 - 2 x_85_ * x_58_ + 1 x_85_ ^ 2 + 1 y_58_ ^ 2 - 2 y_85_ * y_58_ + 1 y_85_ ^ 2 ] <= 26835.7
quadratic_ranged_155_ub: [ 1 x_57_ ^ 2 - 2 x_86_ * x_57_ + 1 x_86_ ^ 2 + 1 y_57_ ^ 2 - 2 y_86_ * y_57_ + 1 y_86_ ^ 2 ] <= 9835.38
quadratic_ranged_156_ub: [ 1 x_61_ ^ 2 - 2 x_86_ * x_61_ + 1 x_86_ ^ 2 + 1 y_61_ ^ 2 - 2 y_86_ * y_61_ + 1 y_86_ ^ 2 ] <= 4243.01
quadratic_ranged_157_ub: [ 1 x_20_ ^ 2 - 2 x_87_ * x_20_ + 1 x_87_ ^ 2 + 1 y_20_ ^ 2 - 2 y_87_ * y_20_ + 1 y_87_ ^ 2 ] <= 27868.93
quadratic_ranged_158_ub: [ 1 x_41_ ^ 2 - 2 x_87_ * x_41_ + 1 x_87_ ^ 2 + 1 y_41_ ^ 2 - 2 y_87_ * y_41_ + 1 y_87_ ^ 2 ] <= 2585.6
quadratic_ranged_159_ub: [ 1 x_66_ ^ 2 - 2 x_87_ * x_66_ + 1 x_87_ ^ 2 + 1 y_66_ ^ 2 - 2 y_87_ * y_66_ + 1 y_87_ ^ 2 ] <= 11288.77
quadratic_ranged_160_ub: [ 1 x_5_ ^ 2 - 2 x_88_ * x_5_ + 1 x_88_ ^ 2 + 1 y_5_ ^ 2 - 2 y_88_ * y_5_ + 1 y_88_ ^ 2 ] <= 440.36
quadratic_ranged_161_ub: [ 1 x_38_ ^ 2 - 2 x_88_ * x_38_ + 1 x_88_ ^ 2 + 1 y_38_ ^ 2 - 2 y_88_ * y_38_ + 1 y_88_ ^ 2 ] <= 4464.2
quadratic_ranged_162_ub: [ 1 x_69_ ^ 2 - 2 x_88_ * x_69_ + 1 x_88_ ^ 2 + 1 y_69_ ^ 2 - 2 y_88_ * y_69_ + 1 y_88_ ^ 2 ] <= 1831.13
quadratic_ranged_163_ub: [ 1 x_12_ ^ 2 - 2 x_89_ * x_12_ + 1 x_89_ ^ 2 + 1 y_12_ ^ 2 - 2 y_89_ * y_12_ + 1 y_89_ ^ 2 ] <= 853.45
quadratic_ranged_164_ub: [ 1 x_36_ ^ 2 - 2 x_89_ * x_36_ + 1 x_89_ ^ 2 + 1 y_36_ ^ 2 - 2 y_89_ * y_36_ + 1 y_89_ ^ 2 ] <= 4061.21
quadratic_ranged_165_ub: [ 1 x_40_ ^ 2 - 2 x_89_ * x_40_ + 1 x_89_ ^ 2 + 1 y_40_ ^ 2 - 2 y_89_ * y_40_ + 1 y_89_ ^ 2 ] <= 14678.33
quadratic_ranged_166_ub: [ 1 x_4_ ^ 2 - 2 x_90_ * x_4_ + 1 x_90_ ^ 2 + 1 y_4_ ^ 2 - 2 y_90_ * y_4_ + 1 y_90_ ^ 2 ] <= 16464.01
quadratic_ranged_167_ub: [ 1 x_16_ ^ 2 - 2 x_90_ * x_16_ + 1 x_90_ ^ 2 + 1 y_16_ ^ 2 - 2 y_90_ * y_16_ + 1 y_90_ ^ 2 ] <= 708.01
quadratic_ranged_168_ub: [ 1 x_28_ ^ 2 - 2 x_90_ * x_28_ + 1 x_90_ ^ 2 + 1 y_28_ ^ 2 - 2 y_90_ * y_28_ + 1 y_90_ ^ 2 ] <= 2765.38
quadratic_ranged_169_ub: [ 1 x_8_ ^ 2 - 2 x_91_ * x_8_ + 1 x_91_ ^ 2 + 1 y_8_ ^ 2 - 2 y_91_ * y_8_ + 1 y_91_ ^ 2 ] <= 18135.56
quadratic_ranged_170_ub: [ 1 x_62_ ^ 2 - 2 x_91_ * x_62_ + 1 x_91_ ^ 2 + 1 y_62_ ^ 2 - 2 y_91_ * y_62_ + 1 y_91_ ^ 2 ] <= 12307.86
quadratic_ranged_171_ub: [ 1 x_89_ ^ 2 - 2 x_91_ * x_89_ + 1 x_91_ ^ 2 + 1 y_89_ ^ 2 - 2 y_91_ * y_89_ + 1 y_91_ ^ 2 ] <= 10307.05
quadratic_ranged_172_ub: [ 1 x_4_ ^ 2 - 2 x_92_ * x_4_ + 1 x_92_ ^ 2 + 1 y_4_ ^ 2 - 2 y_92_ * y_4_ + 1 y_92_ ^ 2 ] <= 27669.96
quadratic_ranged_173_ub: [ 1 x_6_ ^ 2 - 2 x_92_ * x_6_ + 1 x_92_ ^ 2 + 1 y_6_ ^ 2 - 2 y_92_ * y_6_ + 1 y_92_ ^ 2 ] <= 3927.89
quadratic_ranged_174_ub: [ 1 x_62_ ^ 2 - 2 x_92_ * x_62_ + 1 x_92_ ^ 2 + 1 y_62_ ^ 2 - 2 y_92_ * y_62_ + 1 y_92_ ^ 2 ] <= 4112.72
quadratic_ranged_175_ub: [ 1 x_7_ ^ 2 - 2 x_93_ * x_7_ + 1 x_93_ ^ 2 + 1 y_7_ ^ 2 - 2 y_93_ * y_7_ + 1 y_93_ ^ 2 ] <= 8739.53
quadratic_ranged_176_ub: [ 1 x_12_ ^ 2 - 2 x_93_ * x_12_ + 1 x_93_ ^ 2 + 1 y_12_ ^ 2 - 2 y_93_ * y_12_ + 1 y_93_ ^ 2 ] <= 5908.5
quadratic_ranged_177_ub: [ 1 x_62_ ^ 2 - 2 x_93_ * x_62_ + 1 x_93_ ^ 2 + 1 y_62_ ^ 2 - 2 y_93_ * y_62_ + 1 y_93_ ^ 2 ] <= 8017.38
quadratic_ranged_178_ub: [ 1 x_13_ ^ 2 - 2 x_94_ * x_13_ + 1 x_94_ ^ 2 + 1 y_13_ ^ 2 - 2 y_94_ * y_13_ + 1 y_94_ ^ 2 ] <= 8292.1
quadratic_ranged_179_ub: [ 1 x_18_ ^ 2 - 2 x_94_ * x_18_ + 1 x_94_ ^ 2 + 1 y_18_ ^ 2 - 2 y_94_ * y_18_ + 1 y_94_ ^ 2 ] <= 11882.65
quadratic_ranged_180_ub: [ 1 x_35_ ^ 2 - 2 x_94_ * x_35_ + 1 x_94_ ^ 2 + 1 y_35_ ^ 2 - 2 y_94_ * y_35_ + 1 y_94_ ^ 2 ] <= 6827.6
quadratic_ranged_181_ub: [ 1 x_22_ ^ 2 - 2 x_95_ * x_22_ + 1 x_95_ ^ 2 + 1 y_22_ ^ 2 - 2 y_95_ * y_22_ + 1 y_95_ ^ 2 ] <= 3662.26
quadratic_ranged_182_ub: [ 1 x_40_ ^ 2 - 2 x_95_ * x_40_ + 1 x_95_ ^ 2 + 1 y_40_ ^ 2 - 2 y_95_ * y_40_ + 1 y_95_ ^ 2 ] <= 12000.82
quadratic_ranged_183_ub: [ 1 x_54_ ^ 2 - 2 x_95_ * x_54_ + 1 x_95_ ^ 2 + 1 y_54_ ^ 2 - 2 y_95_ * y_54_ + 1 y_95_ ^ 2 ] <= 5445.92
quadratic_ranged_184_ub: [ 1 x_28_ ^ 2 - 2 x_96_ * x_28_ + 1 x_96_ ^ 2 + 1 y_28_ ^ 2 - 2 y_96_ * y_28_ + 1 y_96_ ^ 2 ] <= 549.44
quadratic_ranged_185_ub: [ 1 x_46_ ^ 2 - 2 x_96_ * x_46_ + 1 x_96_ ^ 2 + 1 y_46_ ^ 2 - 2 y_96_ * y_46_ + 1 y_96_ ^ 2 ] <= 6352.9
quadratic_ranged_186_ub: [ 1 x_67_ ^ 2 - 2 x_96_ * x_67_ + 1 x_96_ ^ 2 + 1 y_67_ ^ 2 - 2 y_96_ * y_67_ + 1 y_96_ ^ 2 ] <= 6015.56
quadratic_ranged_187_ub: [ 1 x_16_ ^ 2 - 2 x_97_ * x_16_ + 1 x_97_ ^ 2 + 1 y_16_ ^ 2 - 2 y_97_ * y_16_ + 1 y_97_ ^ 2 ] <= 11042.33
quadratic_ranged_188_ub: [ 1 x_35_ ^ 2 - 2 x_97_ * x_35_ + 1 x_97_ ^ 2 + 1 y_35_ ^ 2 - 2 y_97_ * y_35_ + 1 y_97_ ^ 2 ] <= 22278.58
quadratic_ranged_189_ub: [ 1 x_95_ ^ 2 - 2 x_97_ * x_95_ + 1 x_97_ ^ 2 + 1 y_95_ ^ 2 - 2 y_97_ * y_95_ + 1 y_97_ ^ 2 ] <= 26495.33
quadratic_ranged_190_ub: [ 1 x_35_ ^ 2 - 2 x_98_ * x_35_ + 1 x_98_ ^ 2 + 1 y_35_ ^ 2 - 2 y_98_ * y_35_ + 1 y_98_ ^ 2 ] <= 12097.78
quadratic_ranged_191_ub: [ 1 x_56_ ^ 2 - 2 x_98_ * x_56_ + 1 x_98_ ^ 2 + 1 y_56_ ^ 2 - 2 y_98_ * y_56_ + 1 y_98_ ^ 2 ] <= 12930.02
quadratic_ranged_192_ub: [ 1 x_75_ ^ 2 - 2 x_98_ * x_75_ + 1 x_98_ ^ 2 + 1 y_75_ ^ 2 - 2 y_98_ * y_75_ + 1 y_98_ ^ 2 ] <= 12705.8
quadratic_ranged_193_ub: [ 1 x_18_ ^ 2 - 2 x_99_ * x_18_ + 1 x_99_ ^ 2 + 1 y_18_ ^ 2 - 2 y_99_ * y_18_ + 1 y_99_ ^ 2 ] <= 4206.65
quadratic_ranged_194_ub: [ 1 x_34_ ^ 2 - 2 x_99_ * x_34_ + 1 x_99_ ^ 2 + 1 y_34_ ^ 2 - 2 y_99_ * y_34_ + 1 y_99_ ^ 2 ] <= 6708.42
quadratic_ranged_195_ub: [ 1 x_84_ ^ 2 - 2 x_99_ * x_84_ + 1 x_99_ ^ 2 + 1 y_84_ ^ 2 - 2 y_99_ * y_84_ + 1 y_99_ ^ 2 ] <= 5470.16
quadratic_ranged_196_ub: [ 1 x_40_ ^ 2 - 2 x_100_ * x_40_ + 1 x_100_ ^ 2 + 1 y_40_ ^ 2 - 2 y_100_ * y_40_ + 1 y_100_ ^ 2 ] <= 1222.1
quadratic_ranged_197_ub: [ 1 x_82_ ^ 2 - 2 x_100_ * x_82_ + 1 x_100_ ^ 2 + 1 y_82_ ^ 2 - 2 y_100_ * y_82_ + 1 y_100_ ^ 2 ] <= 29607.14
quadratic_ranged_198_ub: [ 1 x_86_ ^ 2 - 2 x_100_ * x_86_ + 1 x_100_ ^ 2 + 1 y_86_ ^ 2 - 2 y_100_ * y_86_ + 1 y_100_ ^ 2 ] <= 12173.53
quadratic_ranged_1_lb: [ 1 x_1_ ^ 2 - 2 x_2_ * x_1_ + 1 x_2_ ^ 2 + 1 y_1_ ^ 2 - 2 y_2_ * y_1_ + 1 y_2_ ^ 2 ] >= 34195.59
quadratic_ranged_2_lb: [ 1 x_4_ ^ 2 - 2 x_5_ * x_4_ + 1 x_5_ ^ 2 + 1 y_4_ ^ 2 - 2 y_5_ * y_4_ + 1 y_5_ ^ 2 ] >= 25551.9
quadratic_ranged_3_lb: [ 1 x_3_ ^ 2 - 2 x_9_ * x_3_ + 1 x_9_ ^ 2 + 1 y_3_ ^ 2 - 2 y_9_ * y_3_ + 1 y_9_ ^ 2 ] >= 5818.23
quadratic_ranged_4_lb: [ 1 x_6_ ^ 2 - 2 x_9_ * x_6_ + 1 x_9_ ^ 2 + 1 y_6_ ^ 2 - 2 y_9_ * y_6_ + 1 y_9_ ^ 2 ] >= 10622.7
quadratic_ranged_5_lb: [ 1 x_7_ ^ 2 - 2 x_9_ * x_7_ + 1 x_9_ ^ 2 + 1 y_7_ ^ 2 - 2 y_9_ * y_7_ + 1 y_9_ ^ 2 ] >= 32650.2
quadratic_ranged_6_lb: [ 1 x_4_ ^ 2 - 2 x_10_ * x_4_ + 1 x_10_ ^ 2 + 1 y_4_ ^ 2 - 2 y_10_ * y_4_ + 1 y_10_ ^ 2 ] >= 37580.4
quadratic_ranged_7_lb: [ 1 x_3_ ^ 2 - 2 x_11_ * x_3_ + 1 x_11_ ^ 2 + 1 y_3_ ^ 2 - 2 y_11_ * y_3_ + 1 y_11_ ^ 2 ] >= 5435.1
quadratic_ranged_8_lb: [ 1 x_10_ ^ 2 - 2 x_12_ * x_10_ + 1 x_12_ ^ 2 + 1 y_10_ ^ 2 - 2 y_12_ * y_10_ + 1 y_12_ ^ 2 ] >= 12580.92
quadratic_ranged_9_lb: [ 1 x_14_ ^ 2 - 2 x_15_ * x_14_ + 1 x_15_ ^ 2 + 1 y_14_ ^ 2 - 2 y_15_ * y_14_ + 1 y_15_ ^ 2 ] >= 836.55
quadratic_ranged_10_lb: [ 1 x_10_ ^ 2 - 2 x_17_ * x_10_ + 1 x_17_ ^ 2 + 1 y_10_ ^ 2 - 2 y_17_ * y_10_ + 1 y_17_ ^ 2 ] >= 2837.34
quadratic_ranged_11_lb: [ 1 x_13_ ^ 2 - 2 x_17_ * x_13_ + 1 x_17_ ^ 2 + 1 y_13_ ^ 2 - 2 y_17_ * y_13_ + 1 y_17_ ^ 2 ] >= 1169.19
quadratic_ranged_12_lb: [ 1 x_15_ ^ 2 - 2 x_17_ * x_15_ + 1 x_17_ ^ 2 + 1 y_15_ ^ 2 - 2 y_17_ * y_15_ + 1 y_17_ ^ 2 ] >= 3129.39
quadratic_ranged_13_lb: [ 1 x_6_ ^ 2 - 2 x_19_ * x_6_ + 1 x_19_ ^ 2 + 1 y_6_ ^ 2 - 2 y_19_ * y_6_ + 1 y_19_ ^ 2 ] >= 23379.84
quadratic_ranged_14_lb: [ 1 x_7_ ^ 2 - 2 x_19_ * x_7_ + 1 x_19_ ^ 2 + 1 y_7_ ^ 2 - 2 y_19_ * y_7_ + 1 y_19_ ^ 2 ] >= 7850.7
quadratic_ranged_15_lb: [ 1 x_16_ ^ 2 - 2 x_19_ * x_16_ + 1 x_19_ ^ 2 + 1 y_16_ ^ 2 - 2 y_19_ * y_16_ + 1 y_19_ ^ 2 ] >= 37070.55
quadratic_ranged_16_lb: [ 1 x_7_ ^ 2 - 2 x_20_ * x_7_ + 1 x_20_ ^ 2 + 1 y_7_ ^ 2 - 2 y_20_ * y_7_ + 1 y_20_ ^ 2 ] >= 39600
quadratic_ranged_17_lb: [ 1 x_5_ ^ 2 - 2 x_23_ * x_5_ + 1 x_23_ ^ 2 + 1 y_5_ ^ 2 - 2 y_23_ * y_5_ + 1 y_23_ ^ 2 ] >= 5674.68
quadratic_ranged_18_lb: [ 1 x_22_ ^ 2 - 2 x_23_ * x_22_ + 1 x_23_ ^ 2 + 1 y_22_ ^ 2 - 2 y_23_ * y_22_ + 1 y_23_ ^ 2 ] >= 18279.36
quadratic_ranged_19_lb: [ 1 x_8_ ^ 2 - 2 x_24_ * x_8_ + 1 x_24_ ^ 2 + 1 y_8_ ^ 2 - 2 y_24_ * y_8_ + 1 y_24_ ^ 2 ] >= 2214.63
quadratic_ranged_20_lb: [ 1 x_11_ ^ 2 - 2 x_25_ * x_11_ + 1 x_25_ ^ 2 + 1 y_11_ ^ 2 - 2 y_25_ * y_11_ + 1 y_25_ ^ 2 ] >= 19407.96
quadratic_ranged_21_lb: [ 1 x_22_ ^ 2 - 2 x_25_ * x_22_ + 1 x_25_ ^ 2 + 1 y_22_ ^ 2 - 2 y_25_ * y_22_ + 1 y_25_ ^ 2 ] >= 8571.42
quadratic_ranged_22_lb: [ 1 x_20_ ^ 2 - 2 x_26_ * x_20_ + 1 x_26_ ^ 2 + 1 y_20_ ^ 2 - 2 y_26_ * y_20_ + 1 y_26_ ^ 2 ] >= 61429.5
quadratic_ranged_23_lb: [ 1 x_10_ ^ 2 - 2 x_27_ * x_10_ + 1 x_27_ ^ 2 + 1 y_10_ ^ 2 - 2 y_27_ * y_10_ + 1 y_27_ ^ 2 ] >= 2035.44
quadratic_ranged_24_lb: [ 1 x_15_ ^ 2 - 2 x_27_ * x_15_ + 1 x_27_ ^ 2 + 1 y_15_ ^ 2 - 2 y_27_ * y_15_ + 1 y_27_ ^ 2 ] >= 7330.95
quadratic_ranged_25_lb: [ 1 x_2_ ^ 2 - 2 x_28_ * x_2_ + 1 x_28_ ^ 2 + 1 y_2_ ^ 2 - 2 y_28_ * y_2_ + 1 y_28_ ^ 2 ] >= 717.75
quadratic_ranged_26_lb: [ 1 x_5_ ^ 2 - 2 x_28_ * x_5_ + 1 x_28_ ^ 2 + 1 y_5_ ^ 2 - 2 y_28_ * y_5_ + 1 y_28_ ^ 2 ] >= 26600.31
quadratic_ranged_27_lb: [ 1 x_27_ ^ 2 - 2 x_29_ * x_27_ + 1 x_29_ ^ 2 + 1 y_27_ ^ 2 - 2 y_29_ * y_27_ + 1 y_29_ ^ 2 ] >= 4887.63
quadratic_ranged_28_lb: [ 1 x_3_ ^ 2 - 2 x_30_ * x_3_ + 1 x_30_ ^ 2 + 1 y_3_ ^ 2 - 2 y_30_ * y_3_ + 1 y_30_ ^ 2 ] >= 1093.95
quadratic_ranged_29_lb: [ 1 x_8_ ^ 2 - 2 x_30_ * x_8_ + 1 x_30_ ^ 2 + 1 y_8_ ^ 2 - 2 y_30_ * y_8_ + 1 y_30_ ^ 2 ] >= 11983.95
quadratic_ranged_30_lb: [ 1 x_12_ ^ 2 - 2 x_30_ * x_12_ + 1 x_30_ ^ 2 + 1 y_12_ ^ 2 - 2 y_30_ * y_12_ + 1 y_30_ ^ 2 ] >= 155.43
quadratic_ranged_31_lb: [ 1 x_21_ ^ 2 - 2 x_31_ * x_21_ + 1 x_31_ ^ 2 + 1 y_21_ ^ 2 - 2 y_31_ * y_21_ + 1 y_31_ ^ 2 ] >= 11721.6
quadratic_ranged_32_lb: [ 1 x_3_ ^ 2 - 2 x_32_ * x_3_ + 1 x_32_ ^ 2 + 1 y_3_ ^ 2 - 2 y_32_ * y_3_ + 1 y_32_ ^ 2 ] >= 9963.36
quadratic_ranged_33_lb: [ 1 x_4_ ^ 2 - 2 x_33_ * x_4_ + 1 x_33_ ^ 2 + 1 y_4_ ^ 2 - 2 y_33_ * y_4_ + 1 y_33_ ^ 2 ] >= 25510.32
quadratic_ranged_34_lb: [ 1 x_17_ ^ 2 - 2 x_33_ * x_17_ + 1 x_33_ ^ 2 + 1 y_17_ ^ 2 - 2 y_33_ * y_17_ + 1 y_33_ ^ 2 ] >= 976.14
quadratic_ranged_35_lb: [ 1 x_26_ ^ 2 - 2 x_33_ * x_26_ + 1 x_33_ ^ 2 + 1 y_26_ ^ 2 - 2 y_33_ * y_26_ + 1 y_33_ ^ 2 ] >= 35846.909999999996
quadratic_ranged_36_lb: [ 1 x_11_ ^ 2 - 2 x_34_ * x_11_ + 1 x_34_ ^ 2 + 1 y_11_ ^ 2 - 2 y_34_ * y_11_ + 1 y_34_ ^ 2 ] >= 1727.55
quadratic_ranged_37_lb: [ 1 x_22_ ^ 2 - 2 x_34_ * x_22_ + 1 x_34_ ^ 2 + 1 y_22_ ^ 2 - 2 y_34_ * y_22_ + 1 y_34_ ^ 2 ] >= 7675.47
quadratic_ranged_38_lb: [ 1 x_11_ ^ 2 - 2 x_36_ * x_11_ + 1 x_36_ ^ 2 + 1 y_11_ ^ 2 - 2 y_36_ * y_11_ + 1 y_36_ ^ 2 ] >= 16982.46
quadratic_ranged_39_lb: [ 1 x_11_ ^ 2 - 2 x_37_ * x_11_ + 1 x_37_ ^ 2 + 1 y_11_ ^ 2 - 2 y_37_ * y_11_ + 1 y_37_ ^ 2 ] >= 14010.48
quadratic_ranged_40_lb: [ 1 x_1_ ^ 2 - 2 x_38_ * x_1_ + 1 x_38_ ^ 2 + 1 y_1_ ^ 2 - 2 y_38_ * y_1_ + 1 y_38_ ^ 2 ] >= 15270.75
quadratic_ranged_41_lb: [ 1 x_18_ ^ 2 - 2 x_38_ * x_18_ + 1 x_38_ ^ 2 + 1 y_18_ ^ 2 - 2 y_38_ * y_18_ + 1 y_38_ ^ 2 ] >= 20180.16
quadratic_ranged_42_lb: [ 1 x_11_ ^ 2 - 2 x_39_ * x_11_ + 1 x_39_ ^ 2 + 1 y_11_ ^ 2 - 2 y_39_ * y_11_ + 1 y_39_ ^ 2 ] >= 8688.24
quadratic_ranged_43_lb: [ 1 x_24_ ^ 2 - 2 x_39_ * x_24_ + 1 x_39_ ^ 2 + 1 y_24_ ^ 2 - 2 y_39_ * y_24_ + 1 y_39_ ^ 2 ] >= 19187.19
quadratic_ranged_44_lb: [ 1 x_8_ ^ 2 - 2 x_41_ * x_8_ + 1 x_41_ ^ 2 + 1 y_8_ ^ 2 - 2 y_41_ * y_8_ + 1 y_41_ ^ 2 ] >= 18661.5
quadratic_ranged_45_lb: [ 1 x_22_ ^ 2 - 2 x_41_ * x_22_ + 1 x_41_ ^ 2 + 1 y_22_ ^ 2 - 2 y_41_ * y_22_ + 1 y_41_ ^ 2 ] >= 1863.18
quadratic_ranged_46_lb: [ 1 x_2_ ^ 2 - 2 x_42_ * x_2_ + 1 x_42_ ^ 2 + 1 y_2_ ^ 2 - 2 y_42_ * y_2_ + 1 y_42_ ^ 2 ] >= 10756.35
quadratic_ranged_47_lb: [ 1 x_18_ ^ 2 - 2 x_42_ * x_18_ + 1 x_42_ ^ 2 + 1 y_18_ ^ 2 - 2 y_42_ * y_18_ + 1 y_42_ ^ 2 ] >= 7192.35
quadratic_ranged_48_lb: [ 1 x_21_ ^ 2 - 2 x_42_ * x_21_ + 1 x_42_ ^ 2 + 1 y_21_ ^ 2 - 2 y_42_ * y_21_ + 1 y_42_ ^ 2 ] >= 6369.66
quadratic_ranged_49_lb: [ 1 x_5_ ^ 2 - 2 x_43_ * x_5_ + 1 x_43_ ^ 2 + 1 y_5_ ^ 2 - 2 y_43_ * y_5_ + 1 y_43_ ^ 2 ] >= 28894.14
quadratic_ranged_50_lb: [ 1 x_6_ ^ 2 - 2 x_43_ * x_6_ + 1 x_43_ ^ 2 + 1 y_6_ ^ 2 - 2 y_43_ * y_6_ + 1 y_43_ ^ 2 ] >= 26956.71
quadratic_ranged_51_lb: [ 1 x_25_ ^ 2 - 2 x_44_ * x_25_ + 1 x_44_ ^ 2 + 1 y_25_ ^ 2 - 2 y_44_ * y_25_ + 1 y_44_ ^ 2 ] >= 8001.18
quadratic_ranged_52_lb: [ 1 x_38_ ^ 2 - 2 x_44_ * x_38_ + 1 x_44_ ^ 2 + 1 y_38_ ^ 2 - 2 y_44_ * y_38_ + 1 y_44_ ^ 2 ] >= 4308.48
quadratic_ranged_53_lb: [ 1 x_14_ ^ 2 - 2 x_45_ * x_14_ + 1 x_45_ ^ 2 + 1 y_14_ ^ 2 - 2 y_45_ * y_14_ + 1 y_45_ ^ 2 ] >= 9323.82
quadratic_ranged_54_lb: [ 1 x_18_ ^ 2 - 2 x_45_ * x_18_ + 1 x_45_ ^ 2 + 1 y_18_ ^ 2 - 2 y_45_ * y_18_ + 1 y_45_ ^ 2 ] >= 23272.92
quadratic_ranged_55_lb: [ 1 x_23_ ^ 2 - 2 x_45_ * x_23_ + 1 x_45_ ^ 2 + 1 y_23_ ^ 2 - 2 y_45_ * y_23_ + 1 y_45_ ^ 2 ] >= 1908.72
quadratic_ranged_56_lb: [ 1 x_29_ ^ 2 - 2 x_46_ * x_29_ + 1 x_46_ ^ 2 + 1 y_29_ ^ 2 - 2 y_46_ * y_29_ + 1 y_46_ ^ 2 ] >= 1211.76
quadratic_ranged_57_lb: [ 1 x_39_ ^ 2 - 2 x_46_ * x_39_ + 1 x_46_ ^ 2 + 1 y_39_ ^ 2 - 2 y_46_ * y_39_ + 1 y_46_ ^ 2 ] >= 12288.869999999999
quadratic_ranged_58_lb: [ 1 x_33_ ^ 2 - 2 x_47_ * x_33_ + 1 x_47_ ^ 2 + 1 y_33_ ^ 2 - 2 y_47_ * y_33_ + 1 y_47_ ^ 2 ] >= 9947.52
quadratic_ranged_59_lb: [ 1 x_39_ ^ 2 - 2 x_47_ * x_39_ + 1 x_47_ ^ 2 + 1 y_39_ ^ 2 - 2 y_47_ * y_39_ + 1 y_47_ ^ 2 ] >= 3758.04
quadratic_ranged_60_lb: [ 1 x_40_ ^ 2 - 2 x_47_ * x_40_ + 1 x_47_ ^ 2 + 1 y_40_ ^ 2 - 2 y_47_ * y_40_ + 1 y_47_ ^ 2 ] >= 28070.46
quadratic_ranged_61_lb: [ 1 x_10_ ^ 2 - 2 x_49_ * x_10_ + 1 x_49_ ^ 2 + 1 y_10_ ^ 2 - 2 y_49_ * y_10_ + 1 y_49_ ^ 2 ] >= 2713.59
quadratic_ranged_62_lb: [ 1 x_14_ ^ 2 - 2 x_49_ * x_14_ + 1 x_49_ ^ 2 + 1 y_14_ ^ 2 - 2 y_49_ * y_14_ + 1 y_49_ ^ 2 ] >= 11215.71
quadratic_ranged_63_lb: [ 1 x_13_ ^ 2 - 2 x_50_ * x_13_ + 1 x_50_ ^ 2 + 1 y_13_ ^ 2 - 2 y_50_ * y_13_ + 1 y_50_ ^ 2 ] >= 25443
quadratic_ranged_64_lb: [ 1 x_31_ ^ 2 - 2 x_51_ * x_31_ + 1 x_51_ ^ 2 + 1 y_31_ ^ 2 - 2 y_51_ * y_31_ + 1 y_51_ ^ 2 ] >= 3185.82
quadratic_ranged_65_lb: [ 1 x_48_ ^ 2 - 2 x_51_ * x_48_ + 1 x_51_ ^ 2 + 1 y_48_ ^ 2 - 2 y_51_ * y_48_ + 1 y_51_ ^ 2 ] >= 12246.3
quadratic_ranged_66_lb: [ 1 x_19_ ^ 2 - 2 x_52_ * x_19_ + 1 x_52_ ^ 2 + 1 y_19_ ^ 2 - 2 y_52_ * y_19_ + 1 y_52_ ^ 2 ] >= 10126.71
quadratic_ranged_67_lb: [ 1 x_28_ ^ 2 - 2 x_52_ * x_28_ + 1 x_52_ ^ 2 + 1 y_28_ ^ 2 - 2 y_52_ * y_28_ + 1 y_52_ ^ 2 ] >= 16537.95
quadratic_ranged_68_lb: [ 1 x_31_ ^ 2 - 2 x_52_ * x_31_ + 1 x_52_ ^ 2 + 1 y_31_ ^ 2 - 2 y_52_ * y_31_ + 1 y_52_ ^ 2 ] >= 2531.43
quadratic_ranged_69_lb: [ 1 x_2_ ^ 2 - 2 x_53_ * x_2_ + 1 x_53_ ^ 2 + 1 y_2_ ^ 2 - 2 y_53_ * y_2_ + 1 y_53_ ^ 2 ] >= 31810.68
quadratic_ranged_70_lb: [ 1 x_52_ ^ 2 - 2 x_53_ * x_52_ + 1 x_53_ ^ 2 + 1 y_52_ ^ 2 - 2 y_53_ * y_52_ + 1 y_53_ ^ 2 ] >= 11747.34
quadratic_ranged_71_lb: [ 1 x_10_ ^ 2 - 2 x_54_ * x_10_ + 1 x_54_ ^ 2 + 1 y_10_ ^ 2 - 2 y_54_ * y_10_ + 1 y_54_ ^ 2 ] >= 9828.72
quadratic_ranged_72_lb: [ 1 x_10_ ^ 2 - 2 x_55_ * x_10_ + 1 x_55_ ^ 2 + 1 y_10_ ^ 2 - 2 y_55_ * y_10_ + 1 y_55_ ^ 2 ] >= 19023.84
quadratic_ranged_73_lb: [ 1 x_19_ ^ 2 - 2 x_55_ * x_19_ + 1 x_55_ ^ 2 + 1 y_19_ ^ 2 - 2 y_55_ * y_19_ + 1 y_55_ ^ 2 ] >= 5228.19
quadratic_ranged_74_lb: [ 1 x_20_ ^ 2 - 2 x_55_ * x_20_ + 1 x_55_ ^ 2 + 1 y_20_ ^ 2 - 2 y_55_ * y_20_ + 1 y_55_ ^ 2 ] >= 27182.43
quadratic_ranged_75_lb: [ 1 x_41_ ^ 2 - 2 x_56_ * x_41_ + 1 x_56_ ^ 2 + 1 y_41_ ^ 2 - 2 y_56_ * y_41_ + 1 y_56_ ^ 2 ] >= 4479.75
quadratic_ranged_76_lb: [ 1 x_43_ ^ 2 - 2 x_56_ * x_43_ + 1 x_56_ ^ 2 + 1 y_43_ ^ 2 - 2 y_56_ * y_43_ + 1 y_56_ ^ 2 ] >= 5750.91
quadratic_ranged_77_lb: [ 1 x_5_ ^ 2 - 2 x_57_ * x_5_ + 1 x_57_ ^ 2 + 1 y_5_ ^ 2 - 2 y_57_ * y_5_ + 1 y_57_ ^ 2 ] >= 444.51
quadratic_ranged_78_lb: [ 1 x_14_ ^ 2 - 2 x_57_ * x_14_ + 1 x_57_ ^ 2 + 1 y_14_ ^ 2 - 2 y_57_ * y_14_ + 1 y_57_ ^ 2 ] >= 17072.55
quadratic_ranged_79_lb: [ 1 x_34_ ^ 2 - 2 x_57_ * x_34_ + 1 x_57_ ^ 2 + 1 y_34_ ^ 2 - 2 y_57_ * y_34_ + 1 y_57_ ^ 2 ] >= 21037.5
quadratic_ranged_80_lb: [ 1 x_3_ ^ 2 - 2 x_58_ * x_3_ + 1 x_58_ ^ 2 + 1 y_3_ ^ 2 - 2 y_58_ * y_3_ + 1 y_58_ ^ 2 ] >= 3200.67
quadratic_ranged_81_lb: [ 1 x_22_ ^ 2 - 2 x_58_ * x_22_ + 1 x_58_ ^ 2 + 1 y_22_ ^ 2 - 2 y_58_ * y_22_ + 1 y_58_ ^ 2 ] >= 8776.35
quadratic_ranged_82_lb: [ 1 x_53_ ^ 2 - 2 x_58_ * x_53_ + 1 x_58_ ^ 2 + 1 y_53_ ^ 2 - 2 y_58_ * y_53_ + 1 y_58_ ^ 2 ] >= 31486.95
quadratic_ranged_83_lb: [ 1 x_6_ ^ 2 - 2 x_59_ * x_6_ + 1 x_59_ ^ 2 + 1 y_6_ ^ 2 - 2 y_59_ * y_6_ + 1 y_59_ ^ 2 ] >= 27850.68
quadratic_ranged_84_lb: [ 1 x_33_ ^ 2 - 2 x_59_ * x_33_ + 1 x_59_ ^ 2 + 1 y_33_ ^ 2 - 2 y_59_ * y_33_ + 1 y_59_ ^ 2 ] >= 23745.15
quadratic_ranged_85_lb: [ 1 x_21_ ^ 2 - 2 x_60_ * x_21_ + 1 x_60_ ^ 2 + 1 y_21_ ^ 2 - 2 y_60_ * y_21_ + 1 y_60_ ^ 2 ] >= 8625.87
quadratic_ranged_86_lb: [ 1 x_58_ ^ 2 - 2 x_60_ * x_58_ + 1 x_60_ ^ 2 + 1 y_58_ ^ 2 - 2 y_60_ * y_58_ + 1 y_60_ ^ 2 ] >= 11892.87
quadratic_ranged_87_lb: [ 1 x_1_ ^ 2 - 2 x_61_ * x_1_ + 1 x_61_ ^ 2 + 1 y_1_ ^ 2 - 2 y_61_ * y_1_ + 1 y_61_ ^ 2 ] >= 4800.51
quadratic_ranged_88_lb: [ 1 x_2_ ^ 2 - 2 x_61_ * x_2_ + 1 x_61_ ^ 2 + 1 y_2_ ^ 2 - 2 y_61_ * y_2_ + 1 y_61_ ^ 2 ] >= 22754.16
quadratic_ranged_89_lb: [ 1 x_4_ ^ 2 - 2 x_62_ * x_4_ + 1 x_62_ ^ 2 + 1 y_4_ ^ 2 - 2 y_62_ * y_4_ + 1 y_62_ ^ 2 ] >= 10886.039999999999
quadratic_ranged_90_lb: [ 1 x_44_ ^ 2 - 2 x_62_ * x_44_ + 1 x_62_ ^ 2 + 1 y_44_ ^ 2 - 2 y_62_ * y_44_ + 1 y_62_ ^ 2 ] >= 5934.06
quadratic_ranged_91_lb: [ 1 x_1_ ^ 2 - 2 x_63_ * x_1_ + 1 x_63_ ^ 2 + 1 y_1_ ^ 2 - 2 y_63_ * y_1_ + 1 y_63_ ^ 2 ] >= 2154.24
quadratic_ranged_92_lb: [ 1 x_51_ ^ 2 - 2 x_63_ * x_51_ + 1 x_63_ ^ 2 + 1 y_51_ ^ 2 - 2 y_63_ * y_51_ + 1 y_63_ ^ 2 ] >= 3710.52
quadratic_ranged_93_lb: [ 1 x_60_ ^ 2 - 2 x_63_ * x_60_ + 1 x_63_ ^ 2 + 1 y_60_ ^ 2 - 2 y_63_ * y_60_ + 1 y_63_ ^ 2 ] >= 7548.75
quadratic_ranged_94_lb: [ 1 x_12_ ^ 2 - 2 x_64_ * x_12_ + 1 x_64_ ^ 2 + 1 y_12_ ^ 2 - 2 y_64_ * y_12_ + 1 y_64_ ^ 2 ] >= 8304.12
quadratic_ranged_95_lb: [ 1 x_14_ ^ 2 - 2 x_64_ * x_14_ + 1 x_64_ ^ 2 + 1 y_14_ ^ 2 - 2 y_64_ * y_14_ + 1 y_64_ ^ 2 ] >= 9127.8
quadratic_ranged_96_lb: [ 1 x_37_ ^ 2 - 2 x_64_ * x_37_ + 1 x_64_ ^ 2 + 1 y_37_ ^ 2 - 2 y_64_ * y_37_ + 1 y_64_ ^ 2 ] >= 9523.8
quadratic_ranged_97_lb: [ 1 x_2_ ^ 2 - 2 x_65_ * x_2_ + 1 x_65_ ^ 2 + 1 y_2_ ^ 2 - 2 y_65_ * y_2_ + 1 y_65_ ^ 2 ] >= 29823.75
quadratic_ranged_98_lb: [ 1 x_8_ ^ 2 - 2 x_65_ * x_8_ + 1 x_65_ ^ 2 + 1 y_8_ ^ 2 - 2 y_65_ * y_8_ + 1 y_65_ ^ 2 ] >= 345.51
quadratic_ranged_99_lb: [ 1 x_30_ ^ 2 - 2 x_65_ * x_30_ + 1 x_65_ ^ 2 + 1 y_30_ ^ 2 - 2 y_65_ * y_30_ + 1 y_65_ ^ 2 ] >= 9276.3
quadratic_ranged_100_lb: [ 1 x_6_ ^ 2 - 2 x_66_ * x_6_ + 1 x_66_ ^ 2 + 1 y_6_ ^ 2 - 2 y_66_ * y_6_ + 1 y_66_ ^ 2 ] >= 27126
quadratic_ranged_101_lb: [ 1 x_16_ ^ 2 - 2 x_66_ * x_16_ + 1 x_66_ ^ 2 + 1 y_16_ ^ 2 - 2 y_66_ * y_16_ + 1 y_66_ ^ 2 ] >= 31902.75
quadratic_ranged_102_lb: [ 1 x_44_ ^ 2 - 2 x_67_ * x_44_ + 1 x_67_ ^ 2 + 1 y_44_ ^ 2 - 2 y_67_ * y_44_ + 1 y_67_ ^ 2 ] >= 9980.19
quadratic_ranged_103_lb: [ 1 x_49_ ^ 2 - 2 x_67_ * x_49_ + 1 x_67_ ^ 2 + 1 y_49_ ^ 2 - 2 y_67_ * y_49_ + 1 y_67_ ^ 2 ] >= 4898.5199999999995
quadratic_ranged_104_lb: [ 1 x_58_ ^ 2 - 2 x_67_ * x_58_ + 1 x_67_ ^ 2 + 1 y_58_ ^ 2 - 2 y_67_ * y_58_ + 1 y_67_ ^ 2 ] >= 8872.38
quadratic_ranged_105_lb: [ 1 x_22_ ^ 2 - 2 x_68_ * x_22_ + 1 x_68_ ^ 2 + 1 y_22_ ^ 2 - 2 y_68_ * y_22_ + 1 y_68_ ^ 2 ] >= 1093.95
quadratic_ranged_106_lb: [ 1 x_31_ ^ 2 - 2 x_68_ * x_31_ + 1 x_68_ ^ 2 + 1 y_31_ ^ 2 - 2 y_68_ * y_31_ + 1 y_68_ ^ 2 ] >= 2320.56
quadratic_ranged_107_lb: [ 1 x_52_ ^ 2 - 2 x_68_ * x_52_ + 1 x_68_ ^ 2 + 1 y_52_ ^ 2 - 2 y_68_ * y_52_ + 1 y_68_ ^ 2 ] >= 143.55
quadratic_ranged_108_lb: [ 1 x_18_ ^ 2 - 2 x_69_ * x_18_ + 1 x_69_ ^ 2 + 1 y_18_ ^ 2 - 2 y_69_ * y_18_ + 1 y_69_ ^ 2 ] >= 14043.15
quadratic_ranged_109_lb: [ 1 x_34_ ^ 2 - 2 x_69_ * x_34_ + 1 x_69_ ^ 2 + 1 y_34_ ^ 2 - 2 y_69_ * y_34_ + 1 y_69_ ^ 2 ] >= 17798.22
quadratic_ranged_110_lb: [ 1 x_48_ ^ 2 - 2 x_69_ * x_48_ + 1 x_69_ ^ 2 + 1 y_48_ ^ 2 - 2 y_69_ * y_48_ + 1 y_69_ ^ 2 ] >= 8959.5
quadratic_ranged_111_lb: [ 1 x_34_ ^ 2 - 2 x_70_ * x_34_ + 1 x_70_ ^ 2 + 1 y_34_ ^ 2 - 2 y_70_ * y_34_ + 1 y_70_ ^ 2 ] >= 26533.98
quadratic_ranged_112_lb: [ 1 x_36_ ^ 2 - 2 x_70_ * x_36_ + 1 x_70_ ^ 2 + 1 y_36_ ^ 2 - 2 y_70_ * y_36_ + 1 y_70_ ^ 2 ] >= 28.71
quadratic_ranged_113_lb: [ 1 x_65_ ^ 2 - 2 x_70_ * x_65_ + 1 x_70_ ^ 2 + 1 y_65_ ^ 2 - 2 y_70_ * y_65_ + 1 y_70_ ^ 2 ] >= 28512
quadratic_ranged_114_lb: [ 1 x_10_ ^ 2 - 2 x_71_ * x_10_ + 1 x_71_ ^ 2 + 1 y_10_ ^ 2 - 2 y_71_ * y_10_ + 1 y_71_ ^ 2 ] >= 20514.78
quadratic_ranged_115_lb: [ 1 x_45_ ^ 2 - 2 x_71_ * x_45_ + 1 x_71_ ^ 2 + 1 y_45_ ^ 2 - 2 y_71_ * y_45_ + 1 y_71_ ^ 2 ] >= 14675.76
quadratic_ranged_116_lb: [ 1 x_50_ ^ 2 - 2 x_71_ * x_50_ + 1 x_71_ ^ 2 + 1 y_50_ ^ 2 - 2 y_71_ * y_50_ + 1 y_71_ ^ 2 ] >= 18220.95
quadratic_ranged_117_lb: [ 1 x_19_ ^ 2 - 2 x_72_ * x_19_ + 1 x_72_ ^ 2 + 1 y_19_ ^ 2 - 2 y_72_ * y_19_ + 1 y_72_ ^ 2 ] >= 4633.2
quadratic_ranged_118_lb: [ 1 x_26_ ^ 2 - 2 x_72_ * x_26_ + 1 x_72_ ^ 2 + 1 y_26_ ^ 2 - 2 y_72_ * y_26_ + 1 y_72_ ^ 2 ] >= 5199.48
quadratic_ranged_119_lb: [ 1 x_35_ ^ 2 - 2 x_72_ * x_35_ + 1 x_72_ ^ 2 + 1 y_35_ ^ 2 - 2 y_72_ * y_35_ + 1 y_72_ ^ 2 ] >= 81.17999999999999
quadratic_ranged_120_lb: [ 1 x_1_ ^ 2 - 2 x_73_ * x_1_ + 1 x_73_ ^ 2 + 1 y_1_ ^ 2 - 2 y_73_ * y_1_ + 1 y_73_ ^ 2 ] >= 21373.11
quadratic_ranged_121_lb: [ 1 x_27_ ^ 2 - 2 x_73_ * x_27_ + 1 x_73_ ^ 2 + 1 y_27_ ^ 2 - 2 y_73_ * y_27_ + 1 y_73_ ^ 2 ] >= 8747.64
quadratic_ranged_122_lb: [ 1 x_69_ ^ 2 - 2 x_73_ * x_69_ + 1 x_73_ ^ 2 + 1 y_69_ ^ 2 - 2 y_73_ * y_69_ + 1 y_73_ ^ 2 ] >= 5604.39
quadratic_ranged_123_lb: [ 1 x_32_ ^ 2 - 2 x_74_ * x_32_ + 1 x_74_ ^ 2 + 1 y_32_ ^ 2 - 2 y_74_ * y_32_ + 1 y_74_ ^ 2 ] >= 16087.5
quadratic_ranged_124_lb: [ 1 x_64_ ^ 2 - 2 x_74_ * x_64_ + 1 x_74_ ^ 2 + 1 y_64_ ^ 2 - 2 y_74_ * y_64_ + 1 y_74_ ^ 2 ] >= 30729.6
quadratic_ranged_125_lb: [ 1 x_14_ ^ 2 - 2 x_75_ * x_14_ + 1 x_75_ ^ 2 + 1 y_14_ ^ 2 - 2 y_75_ * y_14_ + 1 y_75_ ^ 2 ] >= 844.47
quadratic_ranged_126_lb: [ 1 x_59_ ^ 2 - 2 x_75_ * x_59_ + 1 x_75_ ^ 2 + 1 y_59_ ^ 2 - 2 y_75_ * y_59_ + 1 y_75_ ^ 2 ] >= 18726.84
quadratic_ranged_127_lb: [ 1 x_64_ ^ 2 - 2 x_75_ * x_64_ + 1 x_75_ ^ 2 + 1 y_64_ ^ 2 - 2 y_75_ * y_64_ + 1 y_75_ ^ 2 ] >= 5671.71
quadratic_ranged_128_lb: [ 1 x_21_ ^ 2 - 2 x_76_ * x_21_ + 1 x_76_ ^ 2 + 1 y_21_ ^ 2 - 2 y_76_ * y_21_ + 1 y_76_ ^ 2 ] >= 36101.34
quadratic_ranged_129_lb: [ 1 x_29_ ^ 2 - 2 x_76_ * x_29_ + 1 x_76_ ^ 2 + 1 y_29_ ^ 2 - 2 y_76_ * y_29_ + 1 y_76_ ^ 2 ] >= 6092.46
quadratic_ranged_130_lb: [ 1 x_55_ ^ 2 - 2 x_76_ * x_55_ + 1 x_76_ ^ 2 + 1 y_55_ ^ 2 - 2 y_76_ * y_55_ + 1 y_76_ ^ 2 ] >= 11904.75
quadratic_ranged_131_lb: [ 1 x_2_ ^ 2 - 2 x_77_ * x_2_ + 1 x_77_ ^ 2 + 1 y_2_ ^ 2 - 2 y_77_ * y_2_ + 1 y_77_ ^ 2 ] >= 12486.869999999999
quadratic_ranged_132_lb: [ 1 x_43_ ^ 2 - 2 x_77_ * x_43_ + 1 x_77_ ^ 2 + 1 y_43_ ^ 2 - 2 y_77_ * y_43_ + 1 y_77_ ^ 2 ] >= 13845.15
quadratic_ranged_133_lb: [ 1 x_48_ ^ 2 - 2 x_77_ * x_48_ + 1 x_77_ ^ 2 + 1 y_48_ ^ 2 - 2 y_77_ * y_48_ + 1 y_77_ ^ 2 ] >= 10335.6
quadratic_ranged_134_lb: [ 1 x_28_ ^ 2 - 2 x_78_ * x_28_ + 1 x_78_ ^ 2 + 1 y_28_ ^ 2 - 2 y_78_ * y_28_ + 1 y_78_ ^ 2 ] >= 27090.36
quadratic_ranged_135_lb: [ 1 x_37_ ^ 2 - 2 x_78_ * x_37_ + 1 x_78_ ^ 2 + 1 y_37_ ^ 2 - 2 y_78_ * y_37_ + 1 y_78_ ^ 2 ] >= 11172.15
quadratic_ranged_136_lb: [ 1 x_53_ ^ 2 - 2 x_78_ * x_53_ + 1 x_78_ ^ 2 + 1 y_53_ ^ 2 - 2 y_78_ * y_53_ + 1 y_78_ ^ 2 ] >= 1668.15
quadratic_ranged_137_lb: [ 1 x_12_ ^ 2 - 2 x_79_ * x_12_ + 1 x_79_ ^ 2 + 1 y_12_ ^ 2 - 2 y_79_ * y_12_ + 1 y_79_ ^ 2 ] >= 881.1
quadratic_ranged_138_lb: [ 1 x_29_ ^ 2 - 2 x_79_ * x_29_ + 1 x_79_ ^ 2 + 1 y_29_ ^ 2 - 2 y_79_ * y_29_ + 1 y_79_ ^ 2 ] >= 3964.95
quadratic_ranged_139_lb: [ 1 x_71_ ^ 2 - 2 x_79_ * x_71_ + 1 x_79_ ^ 2 + 1 y_71_ ^ 2 - 2 y_79_ * y_71_ + 1 y_79_ ^ 2 ] >= 7084.44
quadratic_ranged_140_lb: [ 1 x_17_ ^ 2 - 2 x_80_ * x_17_ + 1 x_80_ ^ 2 + 1 y_17_ ^ 2 - 2 y_80_ * y_17_ + 1 y_80_ ^ 2 ] >= 22645.26
quadratic_ranged_141_lb: [ 1 x_23_ ^ 2 - 2 x_80_ * x_23_ + 1 x_80_ ^ 2 + 1 y_23_ ^ 2 - 2 y_80_ * y_23_ + 1 y_80_ ^ 2 ] >= 23175.9
quadratic_ranged_142_lb: [ 1 x_54_ ^ 2 - 2 x_80_ * x_54_ + 1 x_80_ ^ 2 + 1 y_54_ ^ 2 - 2 y_80_ * y_54_ + 1 y_80_ ^ 2 ] >= 8605.08
quadratic_ranged_143_lb: [ 1 x_2_ ^ 2 - 2 x_81_ * x_2_ + 1 x_81_ ^ 2 + 1 y_2_ ^ 2 - 2 y_81_ * y_2_ + 1 y_81_ ^ 2 ] >= 21037.5
quadratic_ranged_144_lb: [ 1 x_24_ ^ 2 - 2 x_81_ * x_24_ + 1 x_81_ ^ 2 + 1 y_24_ ^ 2 - 2 y_81_ * y_24_ + 1 y_81_ ^ 2 ] >= 18078.39
quadratic_ranged_145_lb: [ 1 x_47_ ^ 2 - 2 x_81_ * x_47_ + 1 x_81_ ^ 2 + 1 y_47_ ^ 2 - 2 y_81_ * y_47_ + 1 y_81_ ^ 2 ] >= 17631.9
quadratic_ranged_146_lb: [ 1 x_3_ ^ 2 - 2 x_82_ * x_3_ + 1 x_82_ ^ 2 + 1 y_3_ ^ 2 - 2 y_82_ * y_3_ + 1 y_82_ ^ 2 ] >= 229.68
quadratic_ranged_147_lb: [ 1 x_50_ ^ 2 - 2 x_82_ * x_50_ + 1 x_82_ ^ 2 + 1 y_50_ ^ 2 - 2 y_82_ * y_50_ + 1 y_82_ ^ 2 ] >= 5588.55
quadratic_ranged_148_lb: [ 1 x_4_ ^ 2 - 2 x_83_ * x_4_ + 1 x_83_ ^ 2 + 1 y_4_ ^ 2 - 2 y_83_ * y_4_ + 1 y_83_ ^ 2 ] >= 483.12
quadratic_ranged_149_lb: [ 1 x_74_ ^ 2 - 2 x_83_ * x_74_ + 1 x_83_ ^ 2 + 1 y_74_ ^ 2 - 2 y_83_ * y_74_ + 1 y_83_ ^ 2 ] >= 411.84
quadratic_ranged_150_lb: [ 1 x_53_ ^ 2 - 2 x_84_ * x_53_ + 1 x_84_ ^ 2 + 1 y_53_ ^ 2 - 2 y_84_ * y_53_ + 1 y_84_ ^ 2 ] >= 1806.75
quadratic_ranged_151_lb: [ 1 x_83_ ^ 2 - 2 x_84_ * x_83_ + 1 x_84_ ^ 2 + 1 y_83_ ^ 2 - 2 y_84_ * y_83_ + 1 y_84_ ^ 2 ] >= 19737.63
quadratic_ranged_152_lb: [ 1 x_1_ ^ 2 - 2 x_85_ * x_1_ + 1 x_85_ ^ 2 + 1 y_1_ ^ 2 - 2 y_85_ * y_1_ + 1 y_85_ ^ 2 ] >= 5452.92
quadratic_ranged_153_lb: [ 1 x_32_ ^ 2 - 2 x_85_ * x_32_ + 1 x_85_ ^ 2 + 1 y_32_ ^ 2 - 2 y_85_ * y_32_ + 1 y_85_ ^ 2 ] >= 5560.83
quadratic_ranged_154_lb: [ 1 x_58_ ^ 2 - 2 x_85_ * x_58_ + 1 x_85_ ^ 2 + 1 y_58_ ^ 2 - 2 y_85_ * y_58_ + 1 y_85_ ^ 2 ] >= 26304.3
quadratic_ranged_155_lb: [ 1 x_57_ ^ 2 - 2 x_86_ * x_57_ + 1 x_86_ ^ 2 + 1 y_57_ ^ 2 - 2 y_86_ * y_57_ + 1 y_86_ ^ 2 ] >= 9640.62
quadratic_ranged_156_lb: [ 1 x_61_ ^ 2 - 2 x_86_ * x_61_ + 1 x_86_ ^ 2 + 1 y_61_ ^ 2 - 2 y_86_ * y_61_ + 1 y_86_ ^ 2 ] >= 4158.99
quadratic_ranged_157_lb: [ 1 x_20_ ^ 2 - 2 x_87_ * x_20_ + 1 x_87_ ^ 2 + 1 y_20_ ^ 2 - 2 y_87_ * y_20_ + 1 y_87_ ^ 2 ] >= 27317.07
quadratic_ranged_158_lb: [ 1 x_41_ ^ 2 - 2 x_87_ * x_41_ + 1 x_87_ ^ 2 + 1 y_41_ ^ 2 - 2 y_87_ * y_41_ + 1 y_87_ ^ 2 ] >= 2534.4
quadratic_ranged_159_lb: [ 1 x_66_ ^ 2 - 2 x_87_ * x_66_ + 1 x_87_ ^ 2 + 1 y_66_ ^ 2 - 2 y_87_ * y_66_ + 1 y_87_ ^ 2 ] >= 11065.23
quadratic_ranged_160_lb: [ 1 x_5_ ^ 2 - 2 x_88_ * x_5_ + 1 x_88_ ^ 2 + 1 y_5_ ^ 2 - 2 y_88_ * y_5_ + 1 y_88_ ^ 2 ] >= 431.64
quadratic_ranged_161_lb: [ 1 x_38_ ^ 2 - 2 x_88_ * x_38_ + 1 x_88_ ^ 2 + 1 y_38_ ^ 2 - 2 y_88_ * y_38_ + 1 y_88_ ^ 2 ] >= 4375.8
quadratic_ranged_162_lb: [ 1 x_69_ ^ 2 - 2 x_88_ * x_69_ + 1 x_88_ ^ 2 + 1 y_69_ ^ 2 - 2 y_88_ * y_69_ + 1 y_88_ ^ 2 ] >= 1794.87
quadratic_ranged_163_lb: [ 1 x_12_ ^ 2 - 2 x_89_ * x_12_ + 1 x_89_ ^ 2 + 1 y_12_ ^ 2 - 2 y_89_ * y_12_ + 1 y_89_ ^ 2 ] >= 836.55
quadratic_ranged_164_lb: [ 1 x_36_ ^ 2 - 2 x_89_ * x_36_ + 1 x_89_ ^ 2 + 1 y_36_ ^ 2 - 2 y_89_ * y_36_ + 1 y_89_ ^ 2 ] >= 3980.79
quadratic_ranged_165_lb: [ 1 x_40_ ^ 2 - 2 x_89_ * x_40_ + 1 x_89_ ^ 2 + 1 y_40_ ^ 2 - 2 y_89_ * y_40_ + 1 y_89_ ^ 2 ] >= 14387.67
quadratic_ranged_166_lb: [ 1 x_4_ ^ 2 - 2 x_90_ * x_4_ + 1 x_90_ ^ 2 + 1 y_4_ ^ 2 - 2 y_90_ * y_4_ + 1 y_90_ ^ 2 ] >= 16137.99
quadratic_ranged_167_lb: [ 1 x_16_ ^ 2 - 2 x_90_ * x_16_ + 1 x_90_ ^ 2 + 1 y_16_ ^ 2 - 2 y_90_ * y_16_ + 1 y_90_ ^ 2 ] >= 693.99
quadratic_ranged_168_lb: [ 1 x_28_ ^ 2 - 2 x_90_ * x_28_ + 1 x_90_ ^ 2 + 1 y_28_ ^ 2 - 2 y_90_ * y_28_ + 1 y_90_ ^ 2 ] >= 2710.62
quadratic_ranged_169_lb: [ 1 x_8_ ^ 2 - 2 x_91_ * x_8_ + 1 x_91_ ^ 2 + 1 y_8_ ^ 2 - 2 y_91_ * y_8_ + 1 y_91_ ^ 2 ] >= 17776.44
quadratic_ranged_170_lb: [ 1 x_62_ ^ 2 - 2 x_91_ * x_62_ + 1 x_91_ ^ 2 + 1 y_62_ ^ 2 - 2 y_91_ * y_62_ + 1 y_91_ ^ 2 ] >= 12064.14
quadratic_ranged_171_lb: [ 1 x_89_ ^ 2 - 2 x_91_ * x_89_ + 1 x_91_ ^ 2 + 1 y_89_ ^ 2 - 2 y_91_ * y_89_ + 1 y_91_ ^ 2 ] >= 10102.95
quadratic_ranged_172_lb: [ 1 x_4_ ^ 2 - 2 x_92_ * x_4_ + 1 x_92_ ^ 2 + 1 y_4_ ^ 2 - 2 y_92_ * y_4_ + 1 y_92_ ^ 2 ] >= 27122.04
quadratic_ranged_173_lb: [ 1 x_6_ ^ 2 - 2 x_92_ * x_6_ + 1 x_92_ ^ 2 + 1 y_6_ ^ 2 - 2 y_92_ * y_6_ + 1 y_92_ ^ 2 ] >= 3850.11
quadratic_ranged_174_lb: [ 1 x_62_ ^ 2 - 2 x_92_ * x_62_ + 1 x_92_ ^ 2 + 1 y_62_ ^ 2 - 2 y_92_ * y_62_ + 1 y_92_ ^ 2 ] >= 4031.2799999999997
quadratic_ranged_175_lb: [ 1 x_7_ ^ 2 - 2 x_93_ * x_7_ + 1 x_93_ ^ 2 + 1 y_7_ ^ 2 - 2 y_93_ * y_7_ + 1 y_93_ ^ 2 ] >= 8566.47
quadratic_ranged_176_lb: [ 1 x_12_ ^ 2 - 2 x_93_ * x_12_ + 1 x_93_ ^ 2 + 1 y_12_ ^ 2 - 2 y_93_ * y_12_ + 1 y_93_ ^ 2 ] >= 5791.5
quadratic_ranged_177_lb: [ 1 x_62_ ^ 2 - 2 x_93_ * x_62_ + 1 x_93_ ^ 2 + 1 y_62_ ^ 2 - 2 y_93_ * y_62_ + 1 y_93_ ^ 2 ] >= 7858.62
quadratic_ranged_178_lb: [ 1 x_13_ ^ 2 - 2 x_94_ * x_13_ + 1 x_94_ ^ 2 + 1 y_13_ ^ 2 - 2 y_94_ * y_13_ + 1 y_94_ ^ 2 ] >= 8127.9
quadratic_ranged_179_lb: [ 1 x_18_ ^ 2 - 2 x_94_ * x_18_ + 1 x_94_ ^ 2 + 1 y_18_ ^ 2 - 2 y_94_ * y_18_ + 1 y_94_ ^ 2 ] >= 11647.35
quadratic_ranged_180_lb: [ 1 x_35_ ^ 2 - 2 x_94_ * x_35_ + 1 x_94_ ^ 2 + 1 y_35_ ^ 2 - 2 y_94_ * y_35_ + 1 y_94_ ^ 2 ] >= 6692.4
quadratic_ranged_181_lb: [ 1 x_22_ ^ 2 - 2 x_95_ * x_22_ + 1 x_95_ ^ 2 + 1 y_22_ ^ 2 - 2 y_95_ * y_22_ + 1 y_95_ ^ 2 ] >= 3589.74
quadratic_ranged_182_lb: [ 1 x_40_ ^ 2 - 2 x_95_ * x_40_ + 1 x_95_ ^ 2 + 1 y_40_ ^ 2 - 2 y_95_ * y_40_ + 1 y_95_ ^ 2 ] >= 11763.18
quadratic_ranged_183_lb: [ 1 x_54_ ^ 2 - 2 x_95_ * x_54_ + 1 x_95_ ^ 2 + 1 y_54_ ^ 2 - 2 y_95_ * y_54_ + 1 y_95_ ^ 2 ] >= 5338.08
quadratic_ranged_184_lb: [ 1 x_28_ ^ 2 - 2 x_96_ * x_28_ + 1 x_96_ ^ 2 + 1 y_28_ ^ 2 - 2 y_96_ * y_28_ + 1 y_96_ ^ 2 ] >= 538.56
quadratic_ranged_185_lb: [ 1 x_46_ ^ 2 - 2 x_96_ * x_46_ + 1 x_96_ ^ 2 + 1 y_46_ ^ 2 - 2 y_96_ * y_46_ + 1 y_96_ ^ 2 ] >= 6227.1
quadratic_ranged_186_lb: [ 1 x_67_ ^ 2 - 2 x_96_ * x_67_ + 1 x_96_ ^ 2 + 1 y_67_ ^ 2 - 2 y_96_ * y_67_ + 1 y_96_ ^ 2 ] >= 5896.44
quadratic_ranged_187_lb: [ 1 x_16_ ^ 2 - 2 x_97_ * x_16_ + 1 x_97_ ^ 2 + 1 y_16_ ^ 2 - 2 y_97_ * y_16_ + 1 y_97_ ^ 2 ] >= 10823.67
quadratic_ranged_188_lb: [ 1 x_35_ ^ 2 - 2 x_97_ * x_35_ + 1 x_97_ ^ 2 + 1 y_35_ ^ 2 - 2 y_97_ * y_35_ + 1 y_97_ ^ 2 ] >= 21837.42
quadratic_ranged_189_lb: [ 1 x_95_ ^ 2 - 2 x_97_ * x_95_ + 1 x_97_ ^ 2 + 1 y_95_ ^ 2 - 2 y_97_ * y_95_ + 1 y_97_ ^ 2 ] >= 25970.67
quadratic_ranged_190_lb: [ 1 x_35_ ^ 2 - 2 x_98_ * x_35_ + 1 x_98_ ^ 2 + 1 y_35_ ^ 2 - 2 y_98_ * y_35_ + 1 y_98_ ^ 2 ] >= 11858.22
quadratic_ranged_191_lb: [ 1 x_56_ ^ 2 - 2 x_98_ * x_56_ + 1 x_98_ ^ 2 + 1 y_56_ ^ 2 - 2 y_98_ * y_56_ + 1 y_98_ ^ 2 ] >= 12673.98
quadratic_ranged_192_lb: [ 1 x_75_ ^ 2 - 2 x_98_ * x_75_ + 1 x_98_ ^ 2 + 1 y_75_ ^ 2 - 2 y_98_ * y_75_ + 1 y_98_ ^ 2 ] >= 12454.2
quadratic_ranged_193_lb: [ 1 x_18_ ^ 2 - 2 x_99_ * x_18_ + 1 x_99_ ^ 2 + 1 y_18_ ^ 2 - 2 y_99_ * y_18_ + 1 y_99_ ^ 2 ] >= 4123.35
quadratic_ranged_194_lb: [ 1 x_34_ ^ 2 - 2 x_99_ * x_34_ + 1 x_99_ ^ 2 + 1 y_34_ ^ 2 - 2 y_99_ * y_34_ + 1 y_99_ ^ 2 ] >= 6575.58
quadratic_ranged_195_lb: [ 1 x_84_ ^ 2 - 2 x_99_ * x_84_ + 1 x_99_ ^ 2 + 1 y_84_ ^ 2 - 2 y_99_ * y_84_ + 1 y_99_ ^ 2 ] >= 5361.84
quadratic_ranged_196_lb: [ 1 x_40_ ^ 2 - 2 x_100_ * x_40_ + 1 x_100_ ^ 2 + 1 y_40_ ^ 2 - 2 y_100_ * y_40_ + 1 y_100_ ^ 2 ] >= 1197.9
quadratic_ranged_197_lb: [ 1 x_82_ ^ 2 - 2 x_100_ * x_82_ + 1 x_100_ ^ 2 + 1 y_82_ ^ 2 - 2 y_100_ * y_82_ + 1 y_100_ ^ 2 ] >= 29020.86
quadratic_ranged_198_lb: [ 1 x_86_ ^ 2 - 2 x_100_ * x_86_ + 1 x_100_ ^ 2 + 1 y_86_ ^ 2 - 2 y_100_ * y_86_ + 1 y_100_ ^ 2 ] >= 11932.47
c1_1: 1 x_32_ = -52
c2_1: 1 y_32_ = 24
c3_1: 1 x_42_ = -18
c4_1: 1 y_42_ = -9
c5_1: 1 x_79_ = 44
c6_1: 1 y_79_ = -8
Bounds
-67 <= x_1_ <= 77
-67 <= x_2_ <= 77
-31 <= x_3_ <= 48
-67 <= x_4_ <= 77
-67 <= x_5_ <= 77
-67 <= x_6_ <= 77
-67 <= x_7_ <= 77
-67 <= x_8_ <= 77
-67 <= x_9_ <= 77
-67 <= x_10_ <= 77
-67 <= x_11_ <= 77
15 <= x_12_ <= 73
-67 <= x_13_ <= 77
-67 <= x_14_ <= 77
-67 <= x_15_ <= 77
-67 <= x_16_ <= 77
-67 <= x_17_ <= 77
-67 <= x_18_ <= 67
-67 <= x_19_ <= 77
-67 <= x_20_ <= 77
-67 <= x_21_ <= 62
-67 <= x_22_ <= 77
-67 <= x_23_ <= 77
-67 <= x_24_ <= 77
-67 <= x_25_ <= 77
-67 <= x_26_ <= 77
-67 <= x_27_ <= 77
-67 <= x_28_ <= 77
-19 <= x_29_ <= 77
2 <= x_30_ <= 77
-67 <= x_31_ <= 77
x_32_ = -52
-67 <= x_33_ <= 77
-67 <= x_34_ <= 77
-67 <= x_35_ <= 77
-67 <= x_36_ <= 77
-67 <= x_37_ <= 77
-67 <= x_38_ <= 77
-67 <= x_39_ <= 77
-67 <= x_40_ <= 77
-67 <= x_41_ <= 77
x_42_ = -18
-67 <= x_43_ <= 77
-67 <= x_44_ <= 77
-67 <= x_45_ <= 77
-54 <= x_46_ <= 77
-67 <= x_47_ <= 77
-67 <= x_48_ <= 77
-67 <= x_49_ <= 77
-67 <= x_50_ <= 77
-67 <= x_51_ <= 77
-67 <= x_52_ <= 77
-67 <= x_53_ <= 77
-67 <= x_54_ <= 77
-67 <= x_55_ <= 77
-67 <= x_56_ <= 77
-67 <= x_57_ <= 77
-67 <= x_58_ <= 77
-67 <= x_59_ <= 77
-67 <= x_60_ <= 77
-67 <= x_61_ <= 77
-67 <= x_62_ <= 77
-67 <= x_63_ <= 77
-67 <= x_64_ <= 77
-67 <= x_65_ <= 77
-67 <= x_66_ <= 77
-67 <= x_67_ <= 77
-67 <= x_68_ <= 77
-67 <= x_69_ <= 77
-67 <= x_70_ <= 77
-41 <= x_71_ <= 77
-67 <= x_72_ <= 77
-67 <= x_73_ <= 77
-67 <= x_74_ <= 76
-67 <= x_75_ <= 77
-67 <= x_76_ <= 77
-67 <= x_77_ <= 77
-67 <= x_78_ <= 77
x_79_ = 44
-67 <= x_80_ <= 77
-67 <= x_81_ <= 77
-47 <= x_82_ <= 64
-67 <= x_83_ <= 77
-67 <= x_84_ <= 77
-67 <= x_85_ <= 23
-67 <= x_86_ <= 77
-67 <= x_87_ <= 77
-67 <= x_88_ <= 77
-15 <= x_89_ <= 77
-67 <= x_90_ <= 77
-67 <= x_91_ <= 77
-67 <= x_92_ <= 77
-62 <= x_93_ <= 77
-67 <= x_94_ <= 77
-67 <= x_95_ <= 77
-67 <= x_96_ <= 77
-67 <= x_97_ <= 77
-67 <= x_98_ <= 77
-67 <= x_99_ <= 77
-67 <= x_100_ <= 77
-90 <= y_1_ <= 56
-90 <= y_2_ <= 56
-76 <= y_3_ <= 56
-90 <= y_4_ <= 56
-90 <= y_5_ <= 56
-90 <= y_6_ <= 56
-90 <= y_7_ <= 56
-90 <= y_8_ <= 56
-90 <= y_9_ <= 56
-90 <= y_10_ <= 56
-90 <= y_11_ <= 56
-37 <= y_12_ <= 21
-90 <= y_13_ <= 56
-90 <= y_14_ <= 56
-90 <= y_15_ <= 56
-90 <= y_16_ <= 56
-90 <= y_17_ <= 56
-90 <= y_18_ <= 56
-90 <= y_19_ <= 56
-90 <= y_20_ <= 56
-89 <= y_21_ <= 56
-90 <= y_22_ <= 56
-90 <= y_23_ <= 56
-90 <= y_24_ <= 56
-90 <= y_25_ <= 56
-90 <= y_26_ <= 56
-90 <= y_27_ <= 56
-90 <= y_28_ <= 56
-71 <= y_29_ <= 55
-50 <= y_30_ <= 34
-90 <= y_31_ <= 56
y_32_ = 24
-90 <= y_33_ <= 56
-90 <= y_34_ <= 56
-90 <= y_35_ <= 56
-90 <= y_36_ <= 56
-90 <= y_37_ <= 56
-90 <= y_38_ <= 56
-90 <= y_39_ <= 56
-90 <= y_40_ <= 56
-90 <= y_41_ <= 56
y_42_ = -9
-90 <= y_43_ <= 56
-90 <= y_44_ <= 56
-90 <= y_45_ <= 56
-90 <= y_46_ <= 56
-90 <= y_47_ <= 56
-90 <= y_48_ <= 56
-90 <= y_49_ <= 56
-90 <= y_50_ <= 56
-90 <= y_51_ <= 56
-90 <= y_52_ <= 56
-90 <= y_53_ <= 56
-90 <= y_54_ <= 56
-90 <= y_55_ <= 56
-90 <= y_56_ <= 56
-90 <= y_57_ <= 56
-90 <= y_58_ <= 56
-90 <= y_59_ <= 56
-90 <= y_60_ <= 56
-90 <= y_61_ <= 56
-90 <= y_62_ <= 56
-90 <= y_63_ <= 56
-90 <= y_64_ <= 56
-90 <= y_65_ <= 56
-90 <= y_66_ <= 56
-90 <= y_67_ <= 56
-90 <= y_68_ <= 56
-90 <= y_69_ <= 56
-90 <= y_70_ <= 56
-90 <= y_71_ <= 56
-90 <= y_72_ <= 56
-90 <= y_73_ <= 56
-90 <= y_74_ <= 56
-90 <= y_75_ <= 56
-90 <= y_76_ <= 56
-90 <= y_77_ <= 56
-90 <= y_78_ <= 56
y_79_ = -8
-90 <= y_80_ <= 56
-90 <= y_81_ <= 56
-90 <= y_82_ <= 56
-90 <= y_83_ <= 56
-90 <= y_84_ <= 56
-51 <= y_85_ <= 56
-90 <= y_86_ <= 56
-90 <= y_87_ <= 56
-90 <= y_88_ <= 56
-67 <= y_89_ <= 51
-90 <= y_90_ <= 56
-90 <= y_91_ <= 56
-90 <= y_92_ <= 56
-90 <= y_93_ <= 56
-90 <= y_94_ <= 56
-90 <= y_95_ <= 56
-90 <= y_96_ <= 56
-90 <= y_97_ <= 56
-90 <= y_98_ <= 56
-90 <= y_99_ <= 56
-90 <= y_100_ <= 56
General
x_1_
x_2_
x_3_
x_4_
x_5_
x_6_
x_7_
x_8_
x_9_
x_10_
x_11_
x_12_
x_13_
x_14_
x_15_
x_16_
x_17_
x_18_
x_19_
x_20_
x_21_
x_22_
x_23_
x_24_
x_25_
x_26_
x_27_
x_28_
x_29_
x_30_
x_31_
x_32_
x_33_
x_34_
x_35_
x_36_
x_37_
x_38_
x_39_
x_40_
x_41_
x_42_
x_43_
x_44_
x_45_
x_46_
x_47_
x_48_
x_49_
x_50_
x_51_
x_52_
x_53_
x_54_
x_55_
x_56_
x_57_
x_58_
x_59_
x_60_
x_61_
x_62_
x_63_
x_64_
x_65_
x_66_
x_67_
x_68_
x_69_
x_70_
x_71_
x_72_
x_73_
x_74_
x_75_
x_76_
x_77_
x_78_
x_79_
x_80_
x_81_
x_82_
x_83_
x_84_
x_85_
x_86_
x_87_
x_88_
x_89_
x_90_
x_91_
x_92_
x_93_
x_94_
x_95_
x_96_
x_97_
x_98_
x_99_
x_100_
y_1_
y_2_
y_3_
y_4_
y_5_
y_6_
y_7_
y_8_
y_9_
y_10_
y_11_
y_12_
y_13_
y_14_
y_15_
y_16_
y_17_
y_18_
y_19_
y_20_
y_21_
y_22_
y_23_
y_24_
y_25_
y_26_
y_27_
y_28_
y_29_
y_30_
y_31_
y_32_
y_33_
y_34_
y_35_
y_36_
y_37_
y_38_
y_39_
y_40_
y_41_
y_42_
y_43_
y_44_
y_45_
y_46_
y_47_
y_48_
y_49_
y_50_
y_51_
y_52_
y_53_
y_54_
y_55_
y_56_
y_57_
y_58_
y_59_
y_60_
y_61_
y_62_
y_63_
y_64_
y_65_
y_66_
y_67_
y_68_
y_69_
y_70_
y_71_
y_72_
y_73_
y_74_
y_75_
y_76_
y_77_
y_78_
y_79_
y_80_
y_81_
y_82_
y_83_
y_84_
y_85_
y_86_
y_87_
y_88_
y_89_
y_90_
y_91_
y_92_
y_93_
y_94_
y_95_
y_96_
y_97_
y_98_
y_99_
y_100_
End
