minimize
obj: 
subject to
c1_4: -1 x_6_ + 1 y_6_ <= 0
c1_1: [ 1 x_1_ ^ 2 + 1 y_1_ ^ 2 ] <= 35851
c2_1: [ 1 x_2_ ^ 2 + 1 y_2_ ^ 2 ] <= 101302
c3_1: [ 1 x_3_ ^ 2 + 1 y_3_ ^ 2 ] <= 48548
c4_1: [ 1 x_4_ ^ 2 + 1 y_4_ ^ 2 ] <= 23924
c5_1: [ 1 x_5_ ^ 2 + 1 y_5_ ^ 2 ] <= 58298
c6_1: [ 1 x_6_ ^ 2 + 1 y_6_ ^ 2 ] <= 106442
c7_1: [ 1 x_7_ ^ 2 + 1 y_7_ ^ 2 ] <= 31734
c8_1: [ 1 x_8_ ^ 2 + 1 y_8_ ^ 2 ] <= 96972
c9_1: [ 1 x_9_ ^ 2 + 1 y_9_ ^ 2 ] <= 11300
c10_1: [ 1 x_10_ ^ 2 + 1 y_10_ ^ 2 ] <= 100118
c11_1: [ 1 x_11_ ^ 2 + 1 y_11_ ^ 2 ] <= 40132
c12_1: [ 1 x_12_ ^ 2 + 1 y_12_ ^ 2 ] <= 102077
c13_1: [ 1 x_13_ ^ 2 + 1 y_13_ ^ 2 ] <= 74759
c14_1: [ 1 x_14_ ^ 2 + 1 y_14_ ^ 2 ] <= 1850
c15_1: [ 1 x_15_ ^ 2 + 1 y_15_ ^ 2 ] <= 49228
c16_1: [ 1 x_16_ ^ 2 + 1 y_16_ ^ 2 ] <= 47385
c17_1: [ 1 x_17_ ^ 2 + 1 y_17_ ^ 2 ] <= 58567
c18_1: [ 1 x_18_ ^ 2 + 1 y_18_ ^ 2 ] <= 30649
c19_1: [ 1 x_20_ ^ 2 + 1 y_20_ ^ 2 ] <= 13985
c1_3: 1 x_6_ >= 0
c2_3: 1 y_6_ >= 0
c1_2: 1 x_19_ = 0
c2_2: 1 y_19_ = 0
c1: [ 1 x_2_ ^ 2 - 2 x_3_ * x_2_ + 1 x_3_ ^ 2 + 1 y_2_ ^ 2 - 2 y_3_ * y_2_ + 1 y_3_ ^ 2 ] = 9593
c2: [ 1 x_1_ ^ 2 - 2 x_4_ * x_1_ + 1 x_4_ ^ 2 + 1 y_1_ ^ 2 - 2 y_4_ * y_1_ + 1 y_4_ ^ 2 ] = 1202
c3: [ 1 x_3_ ^ 2 - 2 x_4_ * x_3_ + 1 x_4_ ^ 2 + 1 y_3_ ^ 2 - 2 y_4_ * y_3_ + 1 y_4_ ^ 2 ] = 11621
c4: [ 1 x_1_ ^ 2 - 2 x_5_ * x_1_ + 1 x_5_ ^ 2 + 1 y_1_ ^ 2 - 2 y_5_ * y_1_ + 1 y_5_ ^ 2 ] = 5245
c5: [ 1 x_2_ ^ 2 - 2 x_5_ * x_2_ + 1 x_5_ ^ 2 + 1 y_2_ ^ 2 - 2 y_5_ * y_2_ + 1 y_5_ ^ 2 ] = 44753
c6: [ 1 x_3_ ^ 2 - 2 x_5_ * x_3_ + 1 x_5_ ^ 2 + 1 y_3_ ^ 2 - 2 y_5_ * y_3_ + 1 y_5_ ^ 2 ] = 13050
c7: [ 1 x_2_ ^ 2 - 2 x_6_ * x_2_ + 1 x_6_ ^ 2 + 1 y_2_ ^ 2 - 2 y_6_ * y_2_ + 1 y_6_ ^ 2 ] = 6084
c8: [ 1 x_5_ ^ 2 - 2 x_7_ * x_5_ + 1 x_7_ ^ 2 + 1 y_5_ ^ 2 - 2 y_7_ * y_5_ + 1 y_7_ ^ 2 ] = 38554
c9: [ 1 x_1_ ^ 2 - 2 x_8_ * x_1_ + 1 x_8_ ^ 2 + 1 y_1_ ^ 2 - 2 y_8_ * y_1_ + 1 y_8_ ^ 2 ] = 25992
c10: [ 1 x_3_ ^ 2 - 2 x_8_ * x_3_ + 1 x_8_ ^ 2 + 1 y_3_ ^ 2 - 2 y_8_ * y_3_ + 1 y_8_ ^ 2 ] = 8293
c11: [ 1 x_6_ ^ 2 - 2 x_8_ * x_6_ + 1 x_8_ ^ 2 + 1 y_6_ ^ 2 - 2 y_8_ * y_6_ + 1 y_8_ ^ 2 ] = 5114
c12: [ 1 x_5_ ^ 2 - 2 x_9_ * x_5_ + 1 x_9_ ^ 2 + 1 y_5_ ^ 2 - 2 y_9_ * y_5_ + 1 y_9_ ^ 2 ] = 18265
c13: [ 1 x_7_ ^ 2 - 2 x_9_ * x_7_ + 1 x_9_ ^ 2 + 1 y_7_ ^ 2 - 2 y_9_ * y_7_ + 1 y_9_ ^ 2 ] = 5161
c14: [ 1 x_2_ ^ 2 - 2 x_10_ * x_2_ + 1 x_10_ ^ 2 + 1 y_2_ ^ 2 - 2 y_10_ * y_2_ + 1 y_10_ ^ 2 ] = 49114
c15: [ 1 x_6_ ^ 2 - 2 x_11_ * x_6_ + 1 x_11_ ^ 2 + 1 y_6_ ^ 2 - 2 y_11_ * y_6_ + 1 y_11_ ^ 2 ] = 15857
c16: [ 1 x_7_ ^ 2 - 2 x_12_ * x_7_ + 1 x_12_ ^ 2 + 1 y_7_ ^ 2 - 2 y_12_ * y_7_ + 1 y_12_ ^ 2 ] = 58682
c17: [ 1 x_10_ ^ 2 - 2 x_12_ * x_10_ + 1 x_12_ ^ 2 + 1 y_10_ ^ 2 - 2 y_12_ * y_10_ + 1 y_12_ ^ 2 ] = 15497
c18: [ 1 x_1_ ^ 2 - 2 x_13_ * x_1_ + 1 x_13_ ^ 2 + 1 y_1_ ^ 2 - 2 y_13_ * y_1_ + 1 y_13_ ^ 2 ] = 7069
c19: [ 1 x_6_ ^ 2 - 2 x_13_ * x_6_ + 1 x_13_ ^ 2 + 1 y_6_ ^ 2 - 2 y_13_ * y_6_ + 1 y_13_ ^ 2 ] = 26977
c20: [ 1 x_11_ ^ 2 - 2 x_14_ * x_11_ + 1 x_14_ ^ 2 + 1 y_11_ ^ 2 - 2 y_14_ * y_11_ + 1 y_14_ ^ 2 ] = 24749
c21: [ 1 x_5_ ^ 2 - 2 x_15_ * x_5_ + 1 x_15_ ^ 2 + 1 y_5_ ^ 2 - 2 y_15_ * y_5_ + 1 y_15_ ^ 2 ] = 19994
c22: [ 1 x_9_ ^ 2 - 2 x_15_ * x_9_ + 1 x_15_ ^ 2 + 1 y_9_ ^ 2 - 2 y_15_ * y_9_ + 1 y_15_ ^ 2 ] = 13357
c23: [ 1 x_12_ ^ 2 - 2 x_15_ * x_12_ + 1 x_15_ ^ 2 + 1 y_12_ ^ 2 - 2 y_15_ * y_12_ + 1 y_15_ ^ 2 ] = 9530
c24: [ 1 x_4_ ^ 2 - 2 x_16_ * x_4_ + 1 x_16_ ^ 2 + 1 y_4_ ^ 2 - 2 y_16_ * y_4_ + 1 y_16_ ^ 2 ] = 3970
c25: [ 1 x_10_ ^ 2 - 2 x_16_ * x_10_ + 1 x_16_ ^ 2 + 1 y_10_ ^ 2 - 2 y_16_ * y_10_ + 1 y_16_ ^ 2 ] = 9748
c26: [ 1 x_13_ ^ 2 - 2 x_16_ * x_13_ + 1 x_16_ ^ 2 + 1 y_13_ ^ 2 - 2 y_16_ * y_13_ + 1 y_16_ ^ 2 ] = 15017
c27: [ 1 x_7_ ^ 2 - 2 x_17_ * x_7_ + 1 x_17_ ^ 2 + 1 y_7_ ^ 2 - 2 y_17_ * y_7_ + 1 y_17_ ^ 2 ] = 14085
c28: [ 1 x_11_ ^ 2 - 2 x_17_ * x_11_ + 1 x_17_ ^ 2 + 1 y_11_ ^ 2 - 2 y_17_ * y_11_ + 1 y_17_ ^ 2 ] = 1737
c29: [ 1 x_12_ ^ 2 - 2 x_17_ * x_12_ + 1 x_17_ ^ 2 + 1 y_12_ ^ 2 - 2 y_17_ * y_12_ + 1 y_17_ ^ 2 ] = 21821
c30: [ 1 x_4_ ^ 2 - 2 x_18_ * x_4_ + 1 x_18_ ^ 2 + 1 y_4_ ^ 2 - 2 y_18_ * y_4_ + 1 y_18_ ^ 2 ] = 416
c31: [ 1 x_8_ ^ 2 - 2 x_18_ * x_8_ + 1 x_18_ ^ 2 + 1 y_8_ ^ 2 - 2 y_18_ * y_8_ + 1 y_18_ ^ 2 ] = 45018
c32: [ 1 x_14_ ^ 2 - 2 x_18_ * x_14_ + 1 x_18_ ^ 2 + 1 y_14_ ^ 2 - 2 y_18_ * y_14_ + 1 y_18_ ^ 2 ] = 23042
c33: [ 1 x_4_ ^ 2 - 2 x_19_ * x_4_ + 1 x_19_ ^ 2 + 1 y_4_ ^ 2 - 2 y_19_ * y_4_ + 1 y_19_ ^ 2 ] = 23924
c34: [ 1 x_9_ ^ 2 - 2 x_19_ * x_9_ + 1 x_19_ ^ 2 + 1 y_9_ ^ 2 - 2 y_19_ * y_9_ + 1 y_19_ ^ 2 ] = 11300
c35: [ 1 x_14_ ^ 2 - 2 x_19_ * x_14_ + 1 x_19_ ^ 2 + 1 y_14_ ^ 2 - 2 y_19_ * y_14_ + 1 y_19_ ^ 2 ] = 1850
c36: [ 1 x_3_ ^ 2 - 2 x_20_ * x_3_ + 1 x_20_ ^ 2 + 1 y_3_ ^ 2 - 2 y_20_ * y_3_ + 1 y_20_ ^ 2 ] = 10420
c37: [ 1 x_14_ ^ 2 - 2 x_20_ * x_14_ + 1 x_20_ ^ 2 + 1 y_14_ ^ 2 - 2 y_20_ * y_14_ + 1 y_20_ ^ 2 ] = 18045
c38: [ 1 x_19_ ^ 2 - 2 x_20_ * x_19_ + 1 x_20_ ^ 2 + 1 y_19_ ^ 2 - 2 y_20_ * y_19_ + 1 y_20_ ^ 2 ] = 13985
Bounds
-36 <= x_1_ <= 109
-36 <= x_2_ <= 109
-36 <= x_3_ <= 109
-36 <= x_4_ <= 109
-36 <= x_5_ <= 109
-36 <= x_6_ <= 109
-36 <= x_7_ <= 109
-36 <= x_8_ <= 109
-36 <= x_9_ <= 106
-36 <= x_10_ <= 109
-36 <= x_11_ <= 109
-36 <= x_12_ <= 109
-36 <= x_13_ <= 109
-36 <= x_14_ <= 43
-36 <= x_15_ <= 109
-36 <= x_16_ <= 109
-36 <= x_17_ <= 109
-36 <= x_18_ <= 109
x_19_ = 0
-36 <= x_20_ <= 109
-15 <= y_1_ <= 121
-15 <= y_2_ <= 121
-15 <= y_3_ <= 121
-15 <= y_4_ <= 121
-15 <= y_5_ <= 121
-15 <= y_6_ <= 121
-15 <= y_7_ <= 121
-15 <= y_8_ <= 121
-15 <= y_9_ <= 106
-15 <= y_10_ <= 121
-15 <= y_11_ <= 121
-15 <= y_12_ <= 121
-15 <= y_13_ <= 121
-15 <= y_14_ <= 43
-15 <= y_15_ <= 121
-15 <= y_16_ <= 121
-15 <= y_17_ <= 121
-15 <= y_18_ <= 121
y_19_ = 0
-15 <= y_20_ <= 118
General
x_1_
x_2_
x_3_
x_4_
x_5_
x_6_
x_7_
x_8_
x_9_
x_10_
x_11_
x_12_
x_13_
x_14_
x_15_
x_16_
x_17_
x_18_
x_19_
x_20_
y_1_
y_2_
y_3_
y_4_
y_5_
y_6_
y_7_
y_8_
y_9_
y_10_
y_11_
y_12_
y_13_
y_14_
y_15_
y_16_
y_17_
y_18_
y_19_
y_20_
End
