minimize
obj: 
subject to
c1_1: 160 x_1_ - 130 y_1_ + [ 1 x_1_ ^ 2 + 1 y_1_ ^ 2 ] <= 24755
c2_1: 160 x_2_ - 130 y_2_ + [ 1 x_2_ ^ 2 + 1 y_2_ ^ 2 ] <= 24221
c3_1: 160 x_3_ - 130 y_3_ + [ 1 x_3_ ^ 2 + 1 y_3_ ^ 2 ] <= -6989
c4_1: 160 x_5_ - 130 y_5_ + [ 1 x_5_ ^ 2 + 1 y_5_ ^ 2 ] <= 35004
c5_1: 160 x_6_ - 130 y_6_ + [ 1 x_6_ ^ 2 + 1 y_6_ ^ 2 ] <= 26437
c6_1: 160 x_7_ - 130 y_7_ + [ 1 x_7_ ^ 2 + 1 y_7_ ^ 2 ] <= 47107
c7_1: 160 x_8_ - 130 y_8_ + [ 1 x_8_ ^ 2 + 1 y_8_ ^ 2 ] <= 48811
c8_1: 160 x_9_ - 130 y_9_ + [ 1 x_9_ ^ 2 + 1 y_9_ ^ 2 ] <= 99677
c9_1: 160 x_10_ - 130 y_10_ + [ 1 x_10_ ^ 2 + 1 y_10_ ^ 2 ] <= -10237
c10_1: 160 x_11_ - 130 y_11_ + [ 1 x_11_ ^ 2 + 1 y_11_ ^ 2 ] <= -2508
c11_1: 160 x_12_ - 130 y_12_ + [ 1 x_12_ ^ 2 + 1 y_12_ ^ 2 ] <= 20827
c12_1: 160 x_13_ - 130 y_13_ + [ 1 x_13_ ^ 2 + 1 y_13_ ^ 2 ] <= 4573
c13_1: 160 x_14_ - 130 y_14_ + [ 1 x_14_ ^ 2 + 1 y_14_ ^ 2 ] <= 30690
c14_1: 160 x_15_ - 130 y_15_ + [ 1 x_15_ ^ 2 + 1 y_15_ ^ 2 ] <= 8509
c15_1: 160 x_16_ - 130 y_16_ + [ 1 x_16_ ^ 2 + 1 y_16_ ^ 2 ] <= -10452
c16_1: 160 x_17_ - 130 y_17_ + [ 1 x_17_ ^ 2 + 1 y_17_ ^ 2 ] <= 1518
c17_1: 160 x_18_ - 130 y_18_ + [ 1 x_18_ ^ 2 + 1 y_18_ ^ 2 ] <= 24491
c18_1: 160 x_19_ - 130 y_19_ + [ 1 x_19_ ^ 2 + 1 y_19_ ^ 2 ] <= 122884
c19_1: 160 x_20_ - 130 y_20_ + [ 1 x_20_ ^ 2 + 1 y_20_ ^ 2 ] <= -852
c20_1: -148 x_2_ + 86 y_2_ + [ 1 x_2_ ^ 2 + 1 y_2_ ^ 2 ] <= 133125
c21_1: -148 x_3_ + 86 y_3_ + [ 1 x_3_ ^ 2 + 1 y_3_ ^ 2 ] <= 14507
c22_1: -148 x_4_ + 86 y_4_ + [ 1 x_4_ ^ 2 + 1 y_4_ ^ 2 ] <= 28055
c23_1: -148 x_5_ + 86 y_5_ + [ 1 x_5_ ^ 2 + 1 y_5_ ^ 2 ] <= 28935
c24_1: -148 x_6_ + 86 y_6_ + [ 1 x_6_ ^ 2 + 1 y_6_ ^ 2 ] <= 37414
c25_1: -148 x_7_ + 86 y_7_ + [ 1 x_7_ ^ 2 + 1 y_7_ ^ 2 ] <= 59899
c26_1: -148 x_8_ + 86 y_8_ + [ 1 x_8_ ^ 2 + 1 y_8_ ^ 2 ] <= 99861
c27_1: -148 x_9_ + 86 y_9_ + [ 1 x_9_ ^ 2 + 1 y_9_ ^ 2 ] <= 131767
c28_1: -148 x_10_ + 86 y_10_ + [ 1 x_10_ ^ 2 + 1 y_10_ ^ 2 ] <= 35853
c29_1: -148 x_11_ + 86 y_11_ + [ 1 x_11_ ^ 2 + 1 y_11_ ^ 2 ] <= 66587
c30_1: -148 x_12_ + 86 y_12_ + [ 1 x_12_ ^ 2 + 1 y_12_ ^ 2 ] <= 71076
c31_1: -148 x_13_ + 86 y_13_ + [ 1 x_13_ ^ 2 + 1 y_13_ ^ 2 ] <= 71643
c32_1: -148 x_14_ + 86 y_14_ + [ 1 x_14_ ^ 2 + 1 y_14_ ^ 2 ] <= 107030
c33_1: -148 x_15_ + 86 y_15_ + [ 1 x_15_ ^ 2 + 1 y_15_ ^ 2 ] <= 43653
c34_1: -148 x_16_ + 86 y_16_ + [ 1 x_16_ ^ 2 + 1 y_16_ ^ 2 ] <= 30671
c35_1: -148 x_17_ + 86 y_17_ + [ 1 x_17_ ^ 2 + 1 y_17_ ^ 2 ] <= 77920
c36_1: -148 x_18_ + 86 y_18_ + [ 1 x_18_ ^ 2 + 1 y_18_ ^ 2 ] <= 68218
c37_1: -148 x_19_ + 86 y_19_ + [ 1 x_19_ ^ 2 + 1 y_19_ ^ 2 ] <= 157126
c38_1: -148 x_20_ + 86 y_20_ + [ 1 x_20_ ^ 2 + 1 y_20_ ^ 2 ] <= 75018
c39: 22 x_1_ - 2 y_1_ + [ 1 x_1_ ^ 2 + 1 y_1_ ^ 2 ] <= 85123
c40: 22 x_2_ - 2 y_2_ + [ 1 x_2_ ^ 2 + 1 y_2_ ^ 2 ] <= 8283
c41: 22 x_3_ - 2 y_3_ + [ 1 x_3_ ^ 2 + 1 y_3_ ^ 2 ] <= 20675
c42: 22 x_4_ - 2 y_4_ + [ 1 x_4_ ^ 2 + 1 y_4_ ^ 2 ] <= 12021
c43: 22 x_5_ - 2 y_5_ + [ 1 x_5_ ^ 2 + 1 y_5_ ^ 2 ] <= 20503
c44: 22 x_6_ - 2 y_6_ + [ 1 x_6_ ^ 2 + 1 y_6_ ^ 2 ] <= 14889
c45: 22 x_7_ - 2 y_7_ + [ 1 x_7_ ^ 2 + 1 y_7_ ^ 2 ] <= 28873
c46: 22 x_8_ - 2 y_8_ + [ 1 x_8_ ^ 2 + 1 y_8_ ^ 2 ] <= 51562
c47: 22 x_9_ - 2 y_9_ + [ 1 x_9_ ^ 2 + 1 y_9_ ^ 2 ] <= 99522
c48: 22 x_10_ - 2 y_10_ + [ 1 x_10_ ^ 2 + 1 y_10_ ^ 2 ] <= 16750
c49: 22 x_11_ - 2 y_11_ + [ 1 x_11_ ^ 2 + 1 y_11_ ^ 2 ] <= 282
c50: 22 x_12_ - 2 y_12_ + [ 1 x_12_ ^ 2 + 1 y_12_ ^ 2 ] <= 76307
c51: 22 x_13_ - 2 y_13_ + [ 1 x_13_ ^ 2 + 1 y_13_ ^ 2 ] <= 7898
c52: 22 x_14_ - 2 y_14_ + [ 1 x_14_ ^ 2 + 1 y_14_ ^ 2 ] <= 26470
c53: 22 x_15_ - 2 y_15_ + [ 1 x_15_ ^ 2 + 1 y_15_ ^ 2 ] <= 13566
c54: 22 x_16_ - 2 y_16_ + [ 1 x_16_ ^ 2 + 1 y_16_ ^ 2 ] <= 9295
c55: 22 x_18_ - 2 y_18_ + [ 1 x_18_ ^ 2 + 1 y_18_ ^ 2 ] <= 71104
c56: 22 x_19_ - 2 y_19_ + [ 1 x_19_ ^ 2 + 1 y_19_ ^ 2 ] <= 100069
c57: 22 x_20_ - 2 y_20_ + [ 1 x_20_ ^ 2 + 1 y_20_ ^ 2 ] <= 3320
c1_2: 1 x_4_ = -80
c2_2: 1 y_4_ = 65
c3_2: 1 x_1_ = 74
c4_2: 1 y_1_ = -43
c5_2: 1 x_17_ = -11
c6_2: 1 y_17_ = 1
c7_2: 1 x_4_ - 1 x_19_ = 0
c8_2: 1 y_4_ - 1 y_19_ = 0
c1: [ 1 x_1_ ^ 2 - 2 x_3_ * x_1_ + 1 x_3_ ^ 2 + 1 y_1_ ^ 2 - 2 y_3_ * y_1_ + 1 y_3_ ^ 2 ] = 21832
c2: [ 1 x_1_ ^ 2 - 2 x_4_ * x_1_ + 1 x_4_ ^ 2 + 1 y_1_ ^ 2 - 2 y_4_ * y_1_ + 1 y_4_ ^ 2 ] = 35380
c3: [ 1 x_3_ ^ 2 - 2 x_4_ * x_3_ + 1 x_4_ ^ 2 + 1 y_3_ ^ 2 - 2 y_4_ * y_3_ + 1 y_4_ ^ 2 ] = 3636
c4: [ 1 x_1_ ^ 2 - 2 x_5_ * x_1_ + 1 x_5_ ^ 2 + 1 y_1_ ^ 2 - 2 y_5_ * y_1_ + 1 y_5_ ^ 2 ] = 36260
c5: [ 1 x_2_ ^ 2 - 2 x_5_ * x_2_ + 1 x_5_ ^ 2 + 1 y_2_ ^ 2 - 2 y_5_ * y_2_ + 1 y_5_ ^ 2 ] = 35476
c6: [ 1 x_5_ ^ 2 - 2 x_6_ * x_5_ + 1 x_6_ ^ 2 + 1 y_5_ ^ 2 - 2 y_6_ * y_5_ + 1 y_6_ ^ 2 ] = 445
c7: [ 1 x_2_ ^ 2 - 2 x_7_ * x_2_ + 1 x_7_ ^ 2 + 1 y_2_ ^ 2 - 2 y_7_ * y_2_ + 1 y_7_ ^ 2 ] = 25288
c8: [ 1 x_6_ ^ 2 - 2 x_7_ * x_6_ + 1 x_7_ ^ 2 + 1 y_6_ ^ 2 - 2 y_7_ * y_6_ + 1 y_7_ ^ 2 ] = 2281
c9: [ 1 x_7_ ^ 2 - 2 x_8_ * x_7_ + 1 x_8_ ^ 2 + 1 y_7_ ^ 2 - 2 y_8_ * y_7_ + 1 y_8_ ^ 2 ] = 4640
c10: [ 1 x_5_ ^ 2 - 2 x_9_ * x_5_ + 1 x_9_ ^ 2 + 1 y_5_ ^ 2 - 2 y_9_ * y_5_ + 1 y_9_ ^ 2 ] = 33317
c11: [ 1 x_8_ ^ 2 - 2 x_9_ * x_8_ + 1 x_9_ ^ 2 + 1 y_8_ ^ 2 - 2 y_9_ * y_8_ + 1 y_9_ ^ 2 ] = 7801
c12: [ 1 x_2_ ^ 2 - 2 x_10_ * x_2_ + 1 x_10_ ^ 2 + 1 y_2_ ^ 2 - 2 y_10_ * y_2_ + 1 y_10_ ^ 2 ] = 27880
c13: [ 1 x_4_ ^ 2 - 2 x_10_ * x_4_ + 1 x_10_ ^ 2 + 1 y_4_ ^ 2 - 2 y_10_ * y_4_ + 1 y_10_ ^ 2 ] = 388
c14: [ 1 x_6_ ^ 2 - 2 x_11_ * x_6_ + 1 x_11_ ^ 2 + 1 y_6_ ^ 2 - 2 y_11_ * y_6_ + 1 y_11_ ^ 2 ] = 10490
c15: [ 1 x_3_ ^ 2 - 2 x_12_ * x_3_ + 1 x_12_ ^ 2 + 1 y_3_ ^ 2 - 2 y_12_ * y_3_ + 1 y_12_ ^ 2 ] = 17489
c16: [ 1 x_10_ ^ 2 - 2 x_12_ * x_10_ + 1 x_12_ ^ 2 + 1 y_10_ ^ 2 - 2 y_12_ * y_10_ + 1 y_12_ ^ 2 ] = 24853
c17: [ 1 x_3_ ^ 2 - 2 x_13_ * x_3_ + 1 x_13_ ^ 2 + 1 y_3_ ^ 2 - 2 y_13_ * y_3_ + 1 y_13_ ^ 2 ] = 17757
c18: [ 1 x_10_ ^ 2 - 2 x_13_ * x_10_ + 1 x_13_ ^ 2 + 1 y_10_ ^ 2 - 2 y_13_ * y_10_ + 1 y_13_ ^ 2 ] = 10729
c19: [ 1 x_6_ ^ 2 - 2 x_14_ * x_6_ + 1 x_14_ ^ 2 + 1 y_6_ ^ 2 - 2 y_14_ * y_6_ + 1 y_14_ ^ 2 ] = 16040
c20: [ 1 x_12_ ^ 2 - 2 x_14_ * x_12_ + 1 x_14_ ^ 2 + 1 y_12_ ^ 2 - 2 y_14_ * y_12_ + 1 y_14_ ^ 2 ] = 14282
c21: [ 1 x_3_ ^ 2 - 2 x_15_ * x_3_ + 1 x_15_ ^ 2 + 1 y_3_ ^ 2 - 2 y_15_ * y_3_ + 1 y_15_ ^ 2 ] = 6088
c22: [ 1 x_8_ ^ 2 - 2 x_15_ * x_8_ + 1 x_15_ ^ 2 + 1 y_8_ ^ 2 - 2 y_15_ * y_8_ + 1 y_15_ ^ 2 ] = 12176
c23: [ 1 x_11_ ^ 2 - 2 x_15_ * x_11_ + 1 x_15_ ^ 2 + 1 y_11_ ^ 2 - 2 y_15_ * y_11_ + 1 y_15_ ^ 2 ] = 9389
c24: [ 1 x_3_ ^ 2 - 2 x_16_ * x_3_ + 1 x_16_ ^ 2 + 1 y_3_ ^ 2 - 2 y_16_ * y_3_ + 1 y_16_ ^ 2 ] = 2225
c25: [ 1 x_4_ ^ 2 - 2 x_16_ * x_4_ + 1 x_16_ ^ 2 + 1 y_4_ ^ 2 - 2 y_16_ * y_4_ + 1 y_16_ ^ 2 ] = 173
c26: [ 1 x_11_ ^ 2 - 2 x_16_ * x_11_ + 1 x_16_ ^ 2 + 1 y_11_ ^ 2 - 2 y_16_ * y_11_ + 1 y_16_ ^ 2 ] = 5920
c27: [ 1 x_2_ ^ 2 - 2 x_17_ * x_2_ + 1 x_17_ ^ 2 + 1 y_2_ ^ 2 - 2 y_17_ * y_2_ + 1 y_17_ ^ 2 ] = 8405
c28: [ 1 x_11_ ^ 2 - 2 x_17_ * x_11_ + 1 x_17_ ^ 2 + 1 y_11_ ^ 2 - 2 y_17_ * y_11_ + 1 y_17_ ^ 2 ] = 404
c29: [ 1 x_13_ ^ 2 - 2 x_17_ * x_13_ + 1 x_17_ ^ 2 + 1 y_13_ ^ 2 - 2 y_17_ * y_13_ + 1 y_17_ ^ 2 ] = 8020
c30: [ 1 x_3_ ^ 2 - 2 x_18_ * x_3_ + 1 x_18_ ^ 2 + 1 y_3_ ^ 2 - 2 y_18_ * y_3_ + 1 y_18_ ^ 2 ] = 16153
c31: [ 1 x_6_ ^ 2 - 2 x_18_ * x_6_ + 1 x_18_ ^ 2 + 1 y_6_ ^ 2 - 2 y_18_ * y_6_ + 1 y_18_ ^ 2 ] = 20840
c32: [ 1 x_8_ ^ 2 - 2 x_18_ * x_8_ + 1 x_18_ ^ 2 + 1 y_8_ ^ 2 - 2 y_18_ * y_8_ + 1 y_18_ ^ 2 ] = 3181
c33: [ 1 x_7_ ^ 2 - 2 x_19_ * x_7_ + 1 x_19_ ^ 2 + 1 y_7_ ^ 2 - 2 y_19_ * y_7_ + 1 y_19_ ^ 2 ] = 21389
c34: [ 1 x_9_ ^ 2 - 2 x_19_ * x_9_ + 1 x_19_ ^ 2 + 1 y_9_ ^ 2 - 2 y_19_ * y_9_ + 1 y_19_ ^ 2 ] = 10634
c35: [ 1 x_12_ ^ 2 - 2 x_19_ * x_12_ + 1 x_19_ ^ 2 + 1 y_12_ ^ 2 - 2 y_19_ * y_12_ + 1 y_19_ ^ 2 ] = 35360
c36: [ 1 x_4_ ^ 2 - 2 x_20_ * x_4_ + 1 x_20_ ^ 2 + 1 y_4_ ^ 2 - 2 y_20_ * y_4_ + 1 y_20_ ^ 2 ] = 9773
c37: [ 1 x_14_ ^ 2 - 2 x_20_ * x_14_ + 1 x_20_ ^ 2 + 1 y_14_ ^ 2 - 2 y_20_ * y_14_ + 1 y_20_ ^ 2 ] = 10900
c38: [ 1 x_17_ ^ 2 - 2 x_20_ * x_17_ + 1 x_20_ ^ 2 + 1 y_17_ ^ 2 - 2 y_20_ * y_17_ + 1 y_20_ ^ 2 ] = 3442
Bounds
x_1_ = 74
-102 <= x_2_ <= 80
-73 <= x_3_ <= -20
x_4_ = -80
-116 <= x_5_ <= 132
-133 <= x_6_ <= 111
-181 <= x_7_ <= 159
-238 <= x_8_ <= 163
-298 <= x_9_ <= 252
-99 <= x_10_ <= -61
-31 <= x_11_ <= 9
-206 <= x_12_ <= 97
-100 <= x_13_ <= 43
-174 <= x_14_ <= 123
-127 <= x_15_ <= 58
-93 <= x_16_ <= -67
x_17_ = -11
-200 <= x_18_ <= 107
-327 <= x_19_ <= 285
-69 <= x_20_ <= 18
y_1_ = -43
-90 <= y_2_ <= 92
5 <= y_3_ <= 104
y_4_ = 65
-142 <= y_5_ <= 144
-121 <= y_6_ <= 123
-169 <= y_7_ <= 171
-178 <= y_8_ <= 228
-267 <= y_9_ <= 316
46 <= y_10_ <= 84
-19 <= y_11_ <= 21
-112 <= y_12_ <= 237
-58 <= y_13_ <= 90
-138 <= y_14_ <= 164
-73 <= y_15_ <= 117
52 <= y_16_ <= 78
y_17_ = 1
-122 <= y_18_ <= 231
-300 <= y_19_ <= 317
-33 <= y_20_ <= 59
General
x_1_
x_2_
x_3_
x_4_
x_5_
x_6_
x_7_
x_8_
x_9_
x_10_
x_11_
x_12_
x_13_
x_14_
x_15_
x_16_
x_17_
x_18_
x_19_
x_20_
y_1_
y_2_
y_3_
y_4_
y_5_
y_6_
y_7_
y_8_
y_9_
y_10_
y_11_
y_12_
y_13_
y_14_
y_15_
y_16_
y_17_
y_18_
y_19_
y_20_
End
