minimize
obj: 
subject to
c1_1: -188 x_1_ - 104 y_1_ + [ 1 x_1_ ^ 2 + 1 y_1_ ^ 2 ] <= -8890
c2_1: -188 x_2_ - 104 y_2_ + [ 1 x_2_ ^ 2 + 1 y_2_ ^ 2 ] <= 44002
c3_1: -188 x_3_ - 104 y_3_ + [ 1 x_3_ ^ 2 + 1 y_3_ ^ 2 ] <= 6582
c4_1: -188 x_5_ - 104 y_5_ + [ 1 x_5_ ^ 2 + 1 y_5_ ^ 2 ] <= 60524
c5_1: -188 x_6_ - 104 y_6_ + [ 1 x_6_ ^ 2 + 1 y_6_ ^ 2 ] <= 28938
c6_1: -188 x_7_ - 104 y_7_ + [ 1 x_7_ ^ 2 + 1 y_7_ ^ 2 ] <= 137194
c7_1: -188 x_8_ - 104 y_8_ + [ 1 x_8_ ^ 2 + 1 y_8_ ^ 2 ] <= 52240
c8_1: -188 x_9_ - 104 y_9_ + [ 1 x_9_ ^ 2 + 1 y_9_ ^ 2 ] <= 49335
c9_1: -188 x_10_ - 104 y_10_ + [ 1 x_10_ ^ 2 + 1 y_10_ ^ 2 ] <= 43966
c10_1: -188 x_11_ - 104 y_11_ + [ 1 x_11_ ^ 2 + 1 y_11_ ^ 2 ] <= 85423
c11_1: -188 x_12_ - 104 y_12_ + [ 1 x_12_ ^ 2 + 1 y_12_ ^ 2 ] <= 25810
c12_1: -188 x_13_ - 104 y_13_ + [ 1 x_13_ ^ 2 + 1 y_13_ ^ 2 ] <= -847
c13_1: -188 x_14_ - 104 y_14_ + [ 1 x_14_ ^ 2 + 1 y_14_ ^ 2 ] <= 76563
c14_1: -188 x_15_ - 104 y_15_ + [ 1 x_15_ ^ 2 + 1 y_15_ ^ 2 ] <= 94717
c15_1: -188 x_16_ - 104 y_16_ + [ 1 x_16_ ^ 2 + 1 y_16_ ^ 2 ] <= 54820
c16_1: -188 x_17_ - 104 y_17_ + [ 1 x_17_ ^ 2 + 1 y_17_ ^ 2 ] <= 49244
c17_1: -188 x_18_ - 104 y_18_ + [ 1 x_18_ ^ 2 + 1 y_18_ ^ 2 ] <= 112563
c18_1: -188 x_19_ - 104 y_19_ + [ 1 x_19_ ^ 2 + 1 y_19_ ^ 2 ] <= 71924
c19_1: -188 x_20_ - 104 y_20_ + [ 1 x_20_ ^ 2 + 1 y_20_ ^ 2 ] <= 23691
c20_1: -188 x_21_ - 104 y_21_ + [ 1 x_21_ ^ 2 + 1 y_21_ ^ 2 ] <= 38082
c21_1: -188 x_22_ - 104 y_22_ + [ 1 x_22_ ^ 2 + 1 y_22_ ^ 2 ] <= 52406
c22_1: -188 x_23_ - 104 y_23_ + [ 1 x_23_ ^ 2 + 1 y_23_ ^ 2 ] <= 64924
c23_1: -188 x_24_ - 104 y_24_ + [ 1 x_24_ ^ 2 + 1 y_24_ ^ 2 ] <= 83730
c24_1: -188 x_25_ - 104 y_25_ + [ 1 x_25_ ^ 2 + 1 y_25_ ^ 2 ] <= 23485
c25_1: -188 x_26_ - 104 y_26_ + [ 1 x_26_ ^ 2 + 1 y_26_ ^ 2 ] <= 17241
c26_1: -188 x_27_ - 104 y_27_ + [ 1 x_27_ ^ 2 + 1 y_27_ ^ 2 ] <= 84486
c27_1: -188 x_28_ - 104 y_28_ + [ 1 x_28_ ^ 2 + 1 y_28_ ^ 2 ] <= 86559
c28_1: -188 x_29_ - 104 y_29_ + [ 1 x_29_ ^ 2 + 1 y_29_ ^ 2 ] <= 12104
c29_1: -188 x_30_ - 104 y_30_ + [ 1 x_30_ ^ 2 + 1 y_30_ ^ 2 ] <= 69252
c30_1: -188 x_31_ - 104 y_31_ + [ 1 x_31_ ^ 2 + 1 y_31_ ^ 2 ] <= 875
c31_1: -188 x_32_ - 104 y_32_ + [ 1 x_32_ ^ 2 + 1 y_32_ ^ 2 ] <= -11499
c32_1: -188 x_33_ - 104 y_33_ + [ 1 x_33_ ^ 2 + 1 y_33_ ^ 2 ] <= 144809
c33_1: -188 x_34_ - 104 y_34_ + [ 1 x_34_ ^ 2 + 1 y_34_ ^ 2 ] <= 73088
c34_1: -188 x_35_ - 104 y_35_ + [ 1 x_35_ ^ 2 + 1 y_35_ ^ 2 ] <= 10102
c35_1: -188 x_36_ - 104 y_36_ + [ 1 x_36_ ^ 2 + 1 y_36_ ^ 2 ] <= 64672
c36_1: -188 x_37_ - 104 y_37_ + [ 1 x_37_ ^ 2 + 1 y_37_ ^ 2 ] <= 134097
c37_1: -188 x_38_ - 104 y_38_ + [ 1 x_38_ ^ 2 + 1 y_38_ ^ 2 ] <= 11520
c38_1: -188 x_39_ - 104 y_39_ + [ 1 x_39_ ^ 2 + 1 y_39_ ^ 2 ] <= 24927
c39_1: -188 x_40_ - 104 y_40_ + [ 1 x_40_ ^ 2 + 1 y_40_ ^ 2 ] <= 8981
c40_1: -188 x_41_ - 104 y_41_ + [ 1 x_41_ ^ 2 + 1 y_41_ ^ 2 ] <= 19108
c41_1: -188 x_42_ - 104 y_42_ + [ 1 x_42_ ^ 2 + 1 y_42_ ^ 2 ] <= 47465
c42_1: -188 x_43_ - 104 y_43_ + [ 1 x_43_ ^ 2 + 1 y_43_ ^ 2 ] <= -6052
c43_1: -188 x_44_ - 104 y_44_ + [ 1 x_44_ ^ 2 + 1 y_44_ ^ 2 ] <= 62548
c44_1: -188 x_45_ - 104 y_45_ + [ 1 x_45_ ^ 2 + 1 y_45_ ^ 2 ] <= 210432
c45_1: -188 x_46_ - 104 y_46_ + [ 1 x_46_ ^ 2 + 1 y_46_ ^ 2 ] <= 58615
c46_1: -188 x_47_ - 104 y_47_ + [ 1 x_47_ ^ 2 + 1 y_47_ ^ 2 ] <= 71136
c47_1: -188 x_48_ - 104 y_48_ + [ 1 x_48_ ^ 2 + 1 y_48_ ^ 2 ] <= 94813
c48_1: -188 x_49_ - 104 y_49_ + [ 1 x_49_ ^ 2 + 1 y_49_ ^ 2 ] <= 76464
c49_1: -188 x_50_ - 104 y_50_ + [ 1 x_50_ ^ 2 + 1 y_50_ ^ 2 ] <= 46907
c50_1: -188 x_51_ - 104 y_51_ + [ 1 x_51_ ^ 2 + 1 y_51_ ^ 2 ] <= 50529
c51_1: -188 x_52_ - 104 y_52_ + [ 1 x_52_ ^ 2 + 1 y_52_ ^ 2 ] <= 92844
c52_1: -188 x_53_ - 104 y_53_ + [ 1 x_53_ ^ 2 + 1 y_53_ ^ 2 ] <= 30432
c53_1: -188 x_54_ - 104 y_54_ + [ 1 x_54_ ^ 2 + 1 y_54_ ^ 2 ] <= 51952
c54_1: -188 x_55_ - 104 y_55_ + [ 1 x_55_ ^ 2 + 1 y_55_ ^ 2 ] <= 66691
c55_1: -188 x_56_ - 104 y_56_ + [ 1 x_56_ ^ 2 + 1 y_56_ ^ 2 ] <= 35179
c56_1: -188 x_57_ - 104 y_57_ + [ 1 x_57_ ^ 2 + 1 y_57_ ^ 2 ] <= 113393
c57_1: -188 x_58_ - 104 y_58_ + [ 1 x_58_ ^ 2 + 1 y_58_ ^ 2 ] <= 74773
c58_1: -188 x_59_ - 104 y_59_ + [ 1 x_59_ ^ 2 + 1 y_59_ ^ 2 ] <= 33322
c59_1: -188 x_60_ - 104 y_60_ + [ 1 x_60_ ^ 2 + 1 y_60_ ^ 2 ] <= 60688
c60_1: -188 x_61_ - 104 y_61_ + [ 1 x_61_ ^ 2 + 1 y_61_ ^ 2 ] <= 33611
c61_1: -188 x_62_ - 104 y_62_ + [ 1 x_62_ ^ 2 + 1 y_62_ ^ 2 ] <= 98922
c62_1: -188 x_63_ - 104 y_63_ + [ 1 x_63_ ^ 2 + 1 y_63_ ^ 2 ] <= -1477
c63_1: -188 x_64_ - 104 y_64_ + [ 1 x_64_ ^ 2 + 1 y_64_ ^ 2 ] <= 8774
c64_1: -188 x_65_ - 104 y_65_ + [ 1 x_65_ ^ 2 + 1 y_65_ ^ 2 ] <= 46477
c65_1: -188 x_66_ - 104 y_66_ + [ 1 x_66_ ^ 2 + 1 y_66_ ^ 2 ] <= 17917
c66_1: -188 x_67_ - 104 y_67_ + [ 1 x_67_ ^ 2 + 1 y_67_ ^ 2 ] <= 75742
c67_1: -188 x_68_ - 104 y_68_ + [ 1 x_68_ ^ 2 + 1 y_68_ ^ 2 ] <= 97377
c68_1: -188 x_69_ - 104 y_69_ + [ 1 x_69_ ^ 2 + 1 y_69_ ^ 2 ] <= 29355
c69_1: -188 x_70_ - 104 y_70_ + [ 1 x_70_ ^ 2 + 1 y_70_ ^ 2 ] <= 56456
c70_1: -188 x_71_ - 104 y_71_ + [ 1 x_71_ ^ 2 + 1 y_71_ ^ 2 ] <= 17442
c71_1: -188 x_72_ - 104 y_72_ + [ 1 x_72_ ^ 2 + 1 y_72_ ^ 2 ] <= 27758
c72_1: -188 x_73_ - 104 y_73_ + [ 1 x_73_ ^ 2 + 1 y_73_ ^ 2 ] <= 138010
c73_1: -188 x_74_ - 104 y_74_ + [ 1 x_74_ ^ 2 + 1 y_74_ ^ 2 ] <= 84564
c74_1: -188 x_75_ - 104 y_75_ + [ 1 x_75_ ^ 2 + 1 y_75_ ^ 2 ] <= 144698
c75_1: -188 x_76_ - 104 y_76_ + [ 1 x_76_ ^ 2 + 1 y_76_ ^ 2 ] <= 33561
c76_1: -188 x_77_ - 104 y_77_ + [ 1 x_77_ ^ 2 + 1 y_77_ ^ 2 ] <= 28110
c77_1: -188 x_78_ - 104 y_78_ + [ 1 x_78_ ^ 2 + 1 y_78_ ^ 2 ] <= 24454
c78_1: -188 x_79_ - 104 y_79_ + [ 1 x_79_ ^ 2 + 1 y_79_ ^ 2 ] <= 52232
c79_1: -188 x_80_ - 104 y_80_ + [ 1 x_80_ ^ 2 + 1 y_80_ ^ 2 ] <= 89146
c80_1: -188 x_81_ - 104 y_81_ + [ 1 x_81_ ^ 2 + 1 y_81_ ^ 2 ] <= 23780
c81_1: -188 x_82_ - 104 y_82_ + [ 1 x_82_ ^ 2 + 1 y_82_ ^ 2 ] <= 115176
c82_1: -188 x_83_ - 104 y_83_ + [ 1 x_83_ ^ 2 + 1 y_83_ ^ 2 ] <= 2850
c83_1: -188 x_84_ - 104 y_84_ + [ 1 x_84_ ^ 2 + 1 y_84_ ^ 2 ] <= 147373
c84_1: -188 x_85_ - 104 y_85_ + [ 1 x_85_ ^ 2 + 1 y_85_ ^ 2 ] <= 88559
c85_1: -188 x_86_ - 104 y_86_ + [ 1 x_86_ ^ 2 + 1 y_86_ ^ 2 ] <= 31483
c86_1: -188 x_87_ - 104 y_87_ + [ 1 x_87_ ^ 2 + 1 y_87_ ^ 2 ] <= 27383
c87_1: -188 x_88_ - 104 y_88_ + [ 1 x_88_ ^ 2 + 1 y_88_ ^ 2 ] <= 59126
c88_1: -188 x_89_ - 104 y_89_ + [ 1 x_89_ ^ 2 + 1 y_89_ ^ 2 ] <= 10543
c89_1: -188 x_90_ - 104 y_90_ + [ 1 x_90_ ^ 2 + 1 y_90_ ^ 2 ] <= 60441
c90_1: -188 x_91_ - 104 y_91_ + [ 1 x_91_ ^ 2 + 1 y_91_ ^ 2 ] <= 40088
c91_1: -188 x_92_ - 104 y_92_ + [ 1 x_92_ ^ 2 + 1 y_92_ ^ 2 ] <= 80481
c92_1: -188 x_93_ - 104 y_93_ + [ 1 x_93_ ^ 2 + 1 y_93_ ^ 2 ] <= -5887
c93_1: -188 x_94_ - 104 y_94_ + [ 1 x_94_ ^ 2 + 1 y_94_ ^ 2 ] <= 91400
c94_1: -188 x_95_ - 104 y_95_ + [ 1 x_95_ ^ 2 + 1 y_95_ ^ 2 ] <= 84482
c95_1: -188 x_96_ - 104 y_96_ + [ 1 x_96_ ^ 2 + 1 y_96_ ^ 2 ] <= 117289
c96_1: -188 x_97_ - 104 y_97_ + [ 1 x_97_ ^ 2 + 1 y_97_ ^ 2 ] <= 68450
c97_1: -188 x_98_ - 104 y_98_ + [ 1 x_98_ ^ 2 + 1 y_98_ ^ 2 ] <= 119531
c98_1: -188 x_99_ - 104 y_99_ + [ 1 x_99_ ^ 2 + 1 y_99_ ^ 2 ] <= 86931
c99_1: -188 x_100_ - 104 y_100_ + [ 1 x_100_ ^ 2 + 1 y_100_ ^ 2 ] <= 23820
c100_1: 34 x_1_ - 164 y_1_ + [ 1 x_1_ ^ 2 + 1 y_1_ ^ 2 ] <= 41702
c101_1: 34 x_2_ - 164 y_2_ + [ 1 x_2_ ^ 2 + 1 y_2_ ^ 2 ] <= 27669
c102_1: 34 x_3_ - 164 y_3_ + [ 1 x_3_ ^ 2 + 1 y_3_ ^ 2 ] <= 75520
c103_1: 34 x_4_ - 164 y_4_ + [ 1 x_4_ ^ 2 + 1 y_4_ ^ 2 ] <= 67075
c104_1: 34 x_5_ - 164 y_5_ + [ 1 x_5_ ^ 2 + 1 y_5_ ^ 2 ] <= 14958
c105_1: 34 x_6_ - 164 y_6_ + [ 1 x_6_ ^ 2 + 1 y_6_ ^ 2 ] <= 41701
c106_1: 34 x_7_ - 164 y_7_ + [ 1 x_7_ ^ 2 + 1 y_7_ ^ 2 ] <= 171892
c107_1: 34 x_8_ - 164 y_8_ + [ 1 x_8_ ^ 2 + 1 y_8_ ^ 2 ] <= 56524
c108_1: 34 x_9_ - 164 y_9_ + [ 1 x_9_ ^ 2 + 1 y_9_ ^ 2 ] <= 10773
c109_1: 34 x_10_ - 164 y_10_ + [ 1 x_10_ ^ 2 + 1 y_10_ ^ 2 ] <= 86192
c110_1: 34 x_11_ - 164 y_11_ + [ 1 x_11_ ^ 2 + 1 y_11_ ^ 2 ] <= 29533
c111_1: 34 x_12_ - 164 y_12_ + [ 1 x_12_ ^ 2 + 1 y_12_ ^ 2 ] <= 44426
c112_1: 34 x_13_ - 164 y_13_ + [ 1 x_13_ ^ 2 + 1 y_13_ ^ 2 ] <= 25895
c113_1: 34 x_14_ - 164 y_14_ + [ 1 x_14_ ^ 2 + 1 y_14_ ^ 2 ] <= 102720
c114_1: 34 x_15_ - 164 y_15_ + [ 1 x_15_ ^ 2 + 1 y_15_ ^ 2 ] <= 29983
c115_1: 34 x_16_ - 164 y_16_ + [ 1 x_16_ ^ 2 + 1 y_16_ ^ 2 ] <= 78275
c116_1: 34 x_17_ - 164 y_17_ + [ 1 x_17_ ^ 2 + 1 y_17_ ^ 2 ] <= 63962
c117_1: 34 x_18_ - 164 y_18_ + [ 1 x_18_ ^ 2 + 1 y_18_ ^ 2 ] <= 146820
c118_1: 34 x_19_ - 164 y_19_ + [ 1 x_19_ ^ 2 + 1 y_19_ ^ 2 ] <= 86685
c119_1: 34 x_20_ - 164 y_20_ + [ 1 x_20_ ^ 2 + 1 y_20_ ^ 2 ] <= 63581
c120_1: 34 x_21_ - 164 y_21_ + [ 1 x_21_ ^ 2 + 1 y_21_ ^ 2 ] <= 102567
c121_1: 34 x_22_ - 164 y_22_ + [ 1 x_22_ ^ 2 + 1 y_22_ ^ 2 ] <= 145484
c122_1: 34 x_23_ - 164 y_23_ + [ 1 x_23_ ^ 2 + 1 y_23_ ^ 2 ] <= 130913
c123_1: 34 x_24_ - 164 y_24_ + [ 1 x_24_ ^ 2 + 1 y_24_ ^ 2 ] <= 46919
c124_1: 34 x_25_ - 164 y_25_ + [ 1 x_25_ ^ 2 + 1 y_25_ ^ 2 ] <= 90209
c125_1: 34 x_26_ - 164 y_26_ + [ 1 x_26_ ^ 2 + 1 y_26_ ^ 2 ] <= 44480
c126_1: 34 x_27_ - 164 y_27_ + [ 1 x_27_ ^ 2 + 1 y_27_ ^ 2 ] <= 23560
c127_1: 34 x_28_ - 164 y_28_ + [ 1 x_28_ ^ 2 + 1 y_28_ ^ 2 ] <= 70736
c128_1: 34 x_29_ - 164 y_29_ + [ 1 x_29_ ^ 2 + 1 y_29_ ^ 2 ] <= 46701
c129_1: 34 x_30_ - 164 y_30_ + [ 1 x_30_ ^ 2 + 1 y_30_ ^ 2 ] <= 85469
c130_1: 34 x_31_ - 164 y_31_ + [ 1 x_31_ ^ 2 + 1 y_31_ ^ 2 ] <= 74298
c131_1: 34 x_32_ - 164 y_32_ + [ 1 x_32_ ^ 2 + 1 y_32_ ^ 2 ] <= 70602
c132_1: 34 x_33_ - 164 y_33_ + [ 1 x_33_ ^ 2 + 1 y_33_ ^ 2 ] <= 140807
c133_1: 34 x_34_ - 164 y_34_ + [ 1 x_34_ ^ 2 + 1 y_34_ ^ 2 ] <= 33324
c134_1: 34 x_35_ - 164 y_35_ + [ 1 x_35_ ^ 2 + 1 y_35_ ^ 2 ] <= 65651
c135_1: 34 x_36_ - 164 y_36_ + [ 1 x_36_ ^ 2 + 1 y_36_ ^ 2 ] <= 5213
c136_1: 34 x_37_ - 164 y_37_ + [ 1 x_37_ ^ 2 + 1 y_37_ ^ 2 ] <= 61319
c137_1: 34 x_38_ - 164 y_38_ + [ 1 x_38_ ^ 2 + 1 y_38_ ^ 2 ] <= 64922
c138_1: 34 x_39_ - 164 y_39_ + [ 1 x_39_ ^ 2 + 1 y_39_ ^ 2 ] <= 65326
c139_1: 34 x_40_ - 164 y_40_ + [ 1 x_40_ ^ 2 + 1 y_40_ ^ 2 ] <= 57159
c140_1: 34 x_41_ - 164 y_41_ + [ 1 x_41_ ^ 2 + 1 y_41_ ^ 2 ] <= 100396
c141_1: 34 x_42_ - 164 y_42_ + [ 1 x_42_ ^ 2 + 1 y_42_ ^ 2 ] <= 69412
c142_1: 34 x_43_ - 164 y_43_ + [ 1 x_43_ ^ 2 + 1 y_43_ ^ 2 ] <= 112890
c143_1: 34 x_45_ - 164 y_45_ + [ 1 x_45_ ^ 2 + 1 y_45_ ^ 2 ] <= 86650
c144_1: 34 x_46_ - 164 y_46_ + [ 1 x_46_ ^ 2 + 1 y_46_ ^ 2 ] <= 165181
c145_1: 34 x_47_ - 164 y_47_ + [ 1 x_47_ ^ 2 + 1 y_47_ ^ 2 ] <= 23322
c146_1: 34 x_48_ - 164 y_48_ + [ 1 x_48_ ^ 2 + 1 y_48_ ^ 2 ] <= 75477
c147_1: 34 x_49_ - 164 y_49_ + [ 1 x_49_ ^ 2 + 1 y_49_ ^ 2 ] <= 127201
c148_1: 34 x_50_ - 164 y_50_ + [ 1 x_50_ ^ 2 + 1 y_50_ ^ 2 ] <= 15697
c149_1: 34 x_51_ - 164 y_51_ + [ 1 x_51_ ^ 2 + 1 y_51_ ^ 2 ] <= 51848
c150_1: 34 x_52_ - 164 y_52_ + [ 1 x_52_ ^ 2 + 1 y_52_ ^ 2 ] <= 17948
c151_1: 34 x_53_ - 164 y_53_ + [ 1 x_53_ ^ 2 + 1 y_53_ ^ 2 ] <= 88698
c152_1: 34 x_54_ - 164 y_54_ + [ 1 x_54_ ^ 2 + 1 y_54_ ^ 2 ] <= 89851
c153_1: 34 x_55_ - 164 y_55_ + [ 1 x_55_ ^ 2 + 1 y_55_ ^ 2 ] <= 122070
c154_1: 34 x_56_ - 164 y_56_ + [ 1 x_56_ ^ 2 + 1 y_56_ ^ 2 ] <= 75937
c155_1: 34 x_57_ - 164 y_57_ + [ 1 x_57_ ^ 2 + 1 y_57_ ^ 2 ] <= 200171
c156_1: 34 x_58_ - 164 y_58_ + [ 1 x_58_ ^ 2 + 1 y_58_ ^ 2 ] <= 60285
c157_1: 34 x_59_ - 164 y_59_ + [ 1 x_59_ ^ 2 + 1 y_59_ ^ 2 ] <= 138180
c158_1: 34 x_60_ - 164 y_60_ + [ 1 x_60_ ^ 2 + 1 y_60_ ^ 2 ] <= 20165
c159_1: 34 x_61_ - 164 y_61_ + [ 1 x_61_ ^ 2 + 1 y_61_ ^ 2 ] <= 59673
c160_1: 34 x_62_ - 164 y_62_ + [ 1 x_62_ ^ 2 + 1 y_62_ ^ 2 ] <= -3393
c161_1: 34 x_63_ - 164 y_63_ + [ 1 x_63_ ^ 2 + 1 y_63_ ^ 2 ] <= 65644
c162_1: 34 x_64_ - 164 y_64_ + [ 1 x_64_ ^ 2 + 1 y_64_ ^ 2 ] <= 124091
c163_1: 34 x_65_ - 164 y_65_ + [ 1 x_65_ ^ 2 + 1 y_65_ ^ 2 ] <= 141319
c164_1: 34 x_66_ - 164 y_66_ + [ 1 x_66_ ^ 2 + 1 y_66_ ^ 2 ] <= 110371
c165_1: 34 x_67_ - 164 y_67_ + [ 1 x_67_ ^ 2 + 1 y_67_ ^ 2 ] <= 107323
c166_1: 34 x_68_ - 164 y_68_ + [ 1 x_68_ ^ 2 + 1 y_68_ ^ 2 ] <= 56779
c167_1: 34 x_69_ - 164 y_69_ + [ 1 x_69_ ^ 2 + 1 y_69_ ^ 2 ] <= 119150
c168_1: 34 x_70_ - 164 y_70_ + [ 1 x_70_ ^ 2 + 1 y_70_ ^ 2 ] <= 107743
c169_1: 34 x_71_ - 164 y_71_ + [ 1 x_71_ ^ 2 + 1 y_71_ ^ 2 ] <= 55398
c170_1: 34 x_72_ - 164 y_72_ + [ 1 x_72_ ^ 2 + 1 y_72_ ^ 2 ] <= 126190
c171_1: 34 x_73_ - 164 y_73_ + [ 1 x_73_ ^ 2 + 1 y_73_ ^ 2 ] <= 35504
c172_1: 34 x_74_ - 164 y_74_ + [ 1 x_74_ ^ 2 + 1 y_74_ ^ 2 ] <= 31655
c173_1: 34 x_75_ - 164 y_75_ + [ 1 x_75_ ^ 2 + 1 y_75_ ^ 2 ] <= 168496
c174_1: 34 x_76_ - 164 y_76_ + [ 1 x_76_ ^ 2 + 1 y_76_ ^ 2 ] <= 65694
c175_1: 34 x_77_ - 164 y_77_ + [ 1 x_77_ ^ 2 + 1 y_77_ ^ 2 ] <= 138956
c176_1: 34 x_78_ - 164 y_78_ + [ 1 x_78_ ^ 2 + 1 y_78_ ^ 2 ] <= 29229
c177_1: 34 x_79_ - 164 y_79_ + [ 1 x_79_ ^ 2 + 1 y_79_ ^ 2 ] <= 64092
c178_1: 34 x_80_ - 164 y_80_ + [ 1 x_80_ ^ 2 + 1 y_80_ ^ 2 ] <= 106677
c179_1: 34 x_81_ - 164 y_81_ + [ 1 x_81_ ^ 2 + 1 y_81_ ^ 2 ] <= 2372
c180_1: 34 x_82_ - 164 y_82_ + [ 1 x_82_ ^ 2 + 1 y_82_ ^ 2 ] <= 152505
c181_1: 34 x_83_ - 164 y_83_ + [ 1 x_83_ ^ 2 + 1 y_83_ ^ 2 ] <= 32174
c182_1: 34 x_84_ - 164 y_84_ + [ 1 x_84_ ^ 2 + 1 y_84_ ^ 2 ] <= 236532
c183_1: 34 x_85_ - 164 y_85_ + [ 1 x_85_ ^ 2 + 1 y_85_ ^ 2 ] <= 51085
c184_1: 34 x_86_ - 164 y_86_ + [ 1 x_86_ ^ 2 + 1 y_86_ ^ 2 ] <= 101801
c185_1: 34 x_87_ - 164 y_87_ + [ 1 x_87_ ^ 2 + 1 y_87_ ^ 2 ] <= 105472
c186_1: 34 x_88_ - 164 y_88_ + [ 1 x_88_ ^ 2 + 1 y_88_ ^ 2 ] <= 97382
c187_1: 34 x_89_ - 164 y_89_ + [ 1 x_89_ ^ 2 + 1 y_89_ ^ 2 ] <= 153821
c188_1: 34 x_90_ - 164 y_90_ + [ 1 x_90_ ^ 2 + 1 y_90_ ^ 2 ] <= 91608
c189_1: 34 x_91_ - 164 y_91_ + [ 1 x_91_ ^ 2 + 1 y_91_ ^ 2 ] <= 30176
c190_1: 34 x_92_ - 164 y_92_ + [ 1 x_92_ ^ 2 + 1 y_92_ ^ 2 ] <= 84716
c191_1: 34 x_93_ - 164 y_93_ + [ 1 x_93_ ^ 2 + 1 y_93_ ^ 2 ] <= 52728
c192_1: 34 x_94_ - 164 y_94_ + [ 1 x_94_ ^ 2 + 1 y_94_ ^ 2 ] <= 87451
c193_1: 34 x_95_ - 164 y_95_ + [ 1 x_95_ ^ 2 + 1 y_95_ ^ 2 ] <= 117808
c194_1: 34 x_96_ - 164 y_96_ + [ 1 x_96_ ^ 2 + 1 y_96_ ^ 2 ] <= 122736
c195_1: 34 x_97_ - 164 y_97_ + [ 1 x_97_ ^ 2 + 1 y_97_ ^ 2 ] <= 123180
c196_1: 34 x_98_ - 164 y_98_ + [ 1 x_98_ ^ 2 + 1 y_98_ ^ 2 ] <= 114471
c197_1: 34 x_99_ - 164 y_99_ + [ 1 x_99_ ^ 2 + 1 y_99_ ^ 2 ] <= -1708
c198_1: 34 x_100_ - 164 y_100_ + [ 1 x_100_ ^ 2 + 1 y_100_ ^ 2 ] <= 68
c199: -174 x_1_ + 20 y_1_ + [ 1 x_1_ ^ 2 + 1 y_1_ ^ 2 ] <= 99147
c200: -174 x_2_ + 20 y_2_ + [ 1 x_2_ ^ 2 + 1 y_2_ ^ 2 ] <= 60908
c201: -174 x_3_ + 20 y_3_ + [ 1 x_3_ ^ 2 + 1 y_3_ ^ 2 ] <= 18193
c202: -174 x_4_ + 20 y_4_ + [ 1 x_4_ ^ 2 + 1 y_4_ ^ 2 ] <= 79613
c203: -174 x_5_ + 20 y_5_ + [ 1 x_5_ ^ 2 + 1 y_5_ ^ 2 ] <= 28396
c204: -174 x_6_ + 20 y_6_ + [ 1 x_6_ ^ 2 + 1 y_6_ ^ 2 ] <= 44038
c205: -174 x_7_ + 20 y_7_ + [ 1 x_7_ ^ 2 + 1 y_7_ ^ 2 ] <= 121786
c206: -174 x_8_ + 20 y_8_ + [ 1 x_8_ ^ 2 + 1 y_8_ ^ 2 ] <= 128594
c207: -174 x_9_ + 20 y_9_ + [ 1 x_9_ ^ 2 + 1 y_9_ ^ 2 ] <= 101428
c208: -174 x_10_ + 20 y_10_ + [ 1 x_10_ ^ 2 + 1 y_10_ ^ 2 ] <= 112723
c209: -174 x_11_ + 20 y_11_ + [ 1 x_11_ ^ 2 + 1 y_11_ ^ 2 ] <= 46550
c210: -174 x_12_ + 20 y_12_ + [ 1 x_12_ ^ 2 + 1 y_12_ ^ 2 ] <= 129228
c211: -174 x_13_ + 20 y_13_ + [ 1 x_13_ ^ 2 + 1 y_13_ ^ 2 ] <= 102409
c212: -174 x_14_ + 20 y_14_ + [ 1 x_14_ ^ 2 + 1 y_14_ ^ 2 ] <= 131415
c213: -174 x_15_ + 20 y_15_ + [ 1 x_15_ ^ 2 + 1 y_15_ ^ 2 ] <= 140408
c214: -174 x_16_ + 20 y_16_ + [ 1 x_16_ ^ 2 + 1 y_16_ ^ 2 ] <= 103701
c215: -174 x_17_ + 20 y_17_ + [ 1 x_17_ ^ 2 + 1 y_17_ ^ 2 ] <= 49265
c216: -174 x_18_ + 20 y_18_ + [ 1 x_18_ ^ 2 + 1 y_18_ ^ 2 ] <= 5056
c217: -174 x_19_ + 20 y_19_ + [ 1 x_19_ ^ 2 + 1 y_19_ ^ 2 ] <= 91619
c218: -174 x_20_ + 20 y_20_ + [ 1 x_20_ ^ 2 + 1 y_20_ ^ 2 ] <= 53582
c219: -174 x_21_ + 20 y_21_ + [ 1 x_21_ ^ 2 + 1 y_21_ ^ 2 ] <= 54312
c220: -174 x_22_ + 20 y_22_ + [ 1 x_22_ ^ 2 + 1 y_22_ ^ 2 ] <= 70214
c221: -174 x_23_ + 20 y_23_ + [ 1 x_23_ ^ 2 + 1 y_23_ ^ 2 ] <= 108631
c222: -174 x_24_ + 20 y_24_ + [ 1 x_24_ ^ 2 + 1 y_24_ ^ 2 ] <= 67360
c223: -174 x_25_ + 20 y_25_ + [ 1 x_25_ ^ 2 + 1 y_25_ ^ 2 ] <= 93763
c224: -174 x_26_ + 20 y_26_ + [ 1 x_26_ ^ 2 + 1 y_26_ ^ 2 ] <= 57504
c225: -174 x_27_ + 20 y_27_ + [ 1 x_27_ ^ 2 + 1 y_27_ ^ 2 ] <= 77504
c226: -174 x_28_ + 20 y_28_ + [ 1 x_28_ ^ 2 + 1 y_28_ ^ 2 ] <= 107922
c227: -174 x_29_ + 20 y_29_ + [ 1 x_29_ ^ 2 + 1 y_29_ ^ 2 ] <= 114735
c228: -174 x_30_ + 20 y_30_ + [ 1 x_30_ ^ 2 + 1 y_30_ ^ 2 ] <= 68675
c229: -174 x_31_ + 20 y_31_ + [ 1 x_31_ ^ 2 + 1 y_31_ ^ 2 ] <= 90625
c230: -174 x_32_ + 20 y_32_ + [ 1 x_32_ ^ 2 + 1 y_32_ ^ 2 ] <= 83438
c231: -174 x_33_ + 20 y_33_ + [ 1 x_33_ ^ 2 + 1 y_33_ ^ 2 ] <= 173938
c232: -174 x_34_ + 20 y_34_ + [ 1 x_34_ ^ 2 + 1 y_34_ ^ 2 ] <= 61843
c233: -174 x_35_ + 20 y_35_ + [ 1 x_35_ ^ 2 + 1 y_35_ ^ 2 ] <= 89203
c234: -174 x_36_ + 20 y_36_ + [ 1 x_36_ ^ 2 + 1 y_36_ ^ 2 ] <= 44116
c235: -174 x_37_ + 20 y_37_ + [ 1 x_37_ ^ 2 + 1 y_37_ ^ 2 ] <= 84191
c236: -174 x_38_ + 20 y_38_ + [ 1 x_38_ ^ 2 + 1 y_38_ ^ 2 ] <= 100302
c237: -174 x_39_ + 20 y_39_ + [ 1 x_39_ ^ 2 + 1 y_39_ ^ 2 ] <= 125334
c238: -174 x_40_ + 20 y_40_ + [ 1 x_40_ ^ 2 + 1 y_40_ ^ 2 ] <= 71681
c239: -174 x_41_ + 20 y_41_ + [ 1 x_41_ ^ 2 + 1 y_41_ ^ 2 ] <= 6820
c240: -174 x_42_ + 20 y_42_ + [ 1 x_42_ ^ 2 + 1 y_42_ ^ 2 ] <= 105883
c241: -174 x_43_ + 20 y_43_ + [ 1 x_43_ ^ 2 + 1 y_43_ ^ 2 ] <= 126549
c242: -174 x_44_ + 20 y_44_ + [ 1 x_44_ ^ 2 + 1 y_44_ ^ 2 ] <= 106667
c243: -174 x_45_ + 20 y_45_ + [ 1 x_45_ ^ 2 + 1 y_45_ ^ 2 ] <= 219599
c244: -174 x_46_ + 20 y_46_ + [ 1 x_46_ ^ 2 + 1 y_46_ ^ 2 ] <= 77051
c245: -174 x_47_ + 20 y_47_ + [ 1 x_47_ ^ 2 + 1 y_47_ ^ 2 ] <= 101794
c246: -174 x_48_ + 20 y_48_ + [ 1 x_48_ ^ 2 + 1 y_48_ ^ 2 ] <= 114847
c247: -174 x_49_ + 20 y_49_ + [ 1 x_49_ ^ 2 + 1 y_49_ ^ 2 ] <= 111586
c248: -174 x_50_ + 20 y_50_ + [ 1 x_50_ ^ 2 + 1 y_50_ ^ 2 ] <= 113161
c249: -174 x_51_ + 20 y_51_ + [ 1 x_51_ ^ 2 + 1 y_51_ ^ 2 ] <= 41561
c250: -174 x_52_ + 20 y_52_ + [ 1 x_52_ ^ 2 + 1 y_52_ ^ 2 ] <= 238472
c251: -174 x_53_ + 20 y_53_ + [ 1 x_53_ ^ 2 + 1 y_53_ ^ 2 ] <= 157954
c252: -174 x_54_ + 20 y_54_ + [ 1 x_54_ ^ 2 + 1 y_54_ ^ 2 ] <= 142002
c253: -174 x_55_ + 20 y_55_ + [ 1 x_55_ ^ 2 + 1 y_55_ ^ 2 ] <= 76044
c254: -174 x_56_ + 20 y_56_ + [ 1 x_56_ ^ 2 + 1 y_56_ ^ 2 ] <= 101026
c255: -174 x_57_ + 20 y_57_ + [ 1 x_57_ ^ 2 + 1 y_57_ ^ 2 ] <= 136471
c256: -174 x_58_ + 20 y_58_ + [ 1 x_58_ ^ 2 + 1 y_58_ ^ 2 ] <= 95096
c257: -174 x_59_ + 20 y_59_ + [ 1 x_59_ ^ 2 + 1 y_59_ ^ 2 ] <= 197786
c258: -174 x_60_ + 20 y_60_ + [ 1 x_60_ ^ 2 + 1 y_60_ ^ 2 ] <= 200581
c259: -174 x_61_ + 20 y_61_ + [ 1 x_61_ ^ 2 + 1 y_61_ ^ 2 ] <= 103807
c260: -174 x_62_ + 20 y_62_ + [ 1 x_62_ ^ 2 + 1 y_62_ ^ 2 ] <= 142826
c261: -174 x_63_ + 20 y_63_ + [ 1 x_63_ ^ 2 + 1 y_63_ ^ 2 ] <= 133454
c262: -174 x_64_ + 20 y_64_ + [ 1 x_64_ ^ 2 + 1 y_64_ ^ 2 ] <= 184143
c263: -174 x_65_ + 20 y_65_ + [ 1 x_65_ ^ 2 + 1 y_65_ ^ 2 ] <= 26991
c264: -174 x_66_ + 20 y_66_ + [ 1 x_66_ ^ 2 + 1 y_66_ ^ 2 ] <= 132003
c265: -174 x_68_ + 20 y_68_ + [ 1 x_68_ ^ 2 + 1 y_68_ ^ 2 ] <= 157284
c266: -174 x_69_ + 20 y_69_ + [ 1 x_69_ ^ 2 + 1 y_69_ ^ 2 ] <= 215291
c267: -174 x_70_ + 20 y_70_ + [ 1 x_70_ ^ 2 + 1 y_70_ ^ 2 ] <= 22756
c268: -174 x_71_ + 20 y_71_ + [ 1 x_71_ ^ 2 + 1 y_71_ ^ 2 ] <= 112723
c269: -174 x_72_ + 20 y_72_ + [ 1 x_72_ ^ 2 + 1 y_72_ ^ 2 ] <= 151700
c270: -174 x_73_ + 20 y_73_ + [ 1 x_73_ ^ 2 + 1 y_73_ ^ 2 ] <= 106722
c271: -174 x_74_ + 20 y_74_ + [ 1 x_74_ ^ 2 + 1 y_74_ ^ 2 ] <= 87429
c272: -174 x_75_ + 20 y_75_ + [ 1 x_75_ ^ 2 + 1 y_75_ ^ 2 ] <= 169968
c273: -174 x_76_ + 20 y_76_ + [ 1 x_76_ ^ 2 + 1 y_76_ ^ 2 ] <= 37517
c274: -174 x_77_ + 20 y_77_ + [ 1 x_77_ ^ 2 + 1 y_77_ ^ 2 ] <= 122886
c275: -174 x_78_ + 20 y_78_ + [ 1 x_78_ ^ 2 + 1 y_78_ ^ 2 ] <= 142338
c276: -174 x_79_ + 20 y_79_ + [ 1 x_79_ ^ 2 + 1 y_79_ ^ 2 ] <= 31470
c277: -174 x_80_ + 20 y_80_ + [ 1 x_80_ ^ 2 + 1 y_80_ ^ 2 ] <= 20502
c278: -174 x_81_ + 20 y_81_ + [ 1 x_81_ ^ 2 + 1 y_81_ ^ 2 ] <= 153477
c279: -174 x_82_ + 20 y_82_ + [ 1 x_82_ ^ 2 + 1 y_82_ ^ 2 ] <= 176151
c280: -174 x_83_ + 20 y_83_ + [ 1 x_83_ ^ 2 + 1 y_83_ ^ 2 ] <= 113667
c281: -174 x_84_ + 20 y_84_ + [ 1 x_84_ ^ 2 + 1 y_84_ ^ 2 ] <= 40252
c282: -174 x_85_ + 20 y_85_ + [ 1 x_85_ ^ 2 + 1 y_85_ ^ 2 ] <= 120516
c283: -174 x_86_ + 20 y_86_ + [ 1 x_86_ ^ 2 + 1 y_86_ ^ 2 ] <= 130380
c284: -174 x_87_ + 20 y_87_ + [ 1 x_87_ ^ 2 + 1 y_87_ ^ 2 ] <= 124650
c285: -174 x_88_ + 20 y_88_ + [ 1 x_88_ ^ 2 + 1 y_88_ ^ 2 ] <= 17647
c286: -174 x_89_ + 20 y_89_ + [ 1 x_89_ ^ 2 + 1 y_89_ ^ 2 ] <= 77498
c287: -174 x_90_ + 20 y_90_ + [ 1 x_90_ ^ 2 + 1 y_90_ ^ 2 ] <= 143847
c288: -174 x_91_ + 20 y_91_ + [ 1 x_91_ ^ 2 + 1 y_91_ ^ 2 ] <= 142211
c289: -174 x_92_ + 20 y_92_ + [ 1 x_92_ ^ 2 + 1 y_92_ ^ 2 ] <= 140878
c290: -174 x_93_ + 20 y_93_ + [ 1 x_93_ ^ 2 + 1 y_93_ ^ 2 ] <= 84213
c291: -174 x_94_ + 20 y_94_ + [ 1 x_94_ ^ 2 + 1 y_94_ ^ 2 ] <= 114153
c292: -174 x_95_ + 20 y_95_ + [ 1 x_95_ ^ 2 + 1 y_95_ ^ 2 ] <= 164101
c293: -174 x_96_ + 20 y_96_ + [ 1 x_96_ ^ 2 + 1 y_96_ ^ 2 ] <= 153844
c294: -174 x_97_ + 20 y_97_ + [ 1 x_97_ ^ 2 + 1 y_97_ ^ 2 ] <= 157558
c295: -174 x_98_ + 20 y_98_ + [ 1 x_98_ ^ 2 + 1 y_98_ ^ 2 ] <= 144607
c296: -174 x_99_ + 20 y_99_ + [ 1 x_99_ ^ 2 + 1 y_99_ ^ 2 ] <= 62715
c297: -174 x_100_ + 20 y_100_ + [ 1 x_100_ ^ 2 + 1 y_100_ ^ 2 ] <= 170655
c1_2: 1 x_4_ = 94
c2_2: 1 y_4_ = 52
c3_2: 1 x_44_ = -17
c4_2: 1 y_44_ = 82
c5_2: 1 x_67_ = 87
c6_2: 1 y_67_ = -10
c7_2: 1 x_19_ - 1 x_94_ = 0
c8_2: 1 y_19_ - 1 y_94_ = 0
c1: [ 1 x_1_ ^ 2 - 2 x_4_ * x_1_ + 1 x_4_ ^ 2 + 1 y_1_ ^ 2 - 2 y_4_ * y_1_ + 1 y_4_ ^ 2 ] = 2650
c2: [ 1 x_3_ ^ 2 - 2 x_4_ * x_3_ + 1 x_4_ ^ 2 + 1 y_3_ ^ 2 - 2 y_4_ * y_3_ + 1 y_4_ ^ 2 ] = 18122
c3: [ 1 x_2_ ^ 2 - 2 x_6_ * x_2_ + 1 x_6_ ^ 2 + 1 y_2_ ^ 2 - 2 y_6_ * y_2_ + 1 y_6_ ^ 2 ] = 1189
c4: [ 1 x_3_ ^ 2 - 2 x_6_ * x_3_ + 1 x_6_ ^ 2 + 1 y_3_ ^ 2 - 2 y_6_ * y_3_ + 1 y_6_ ^ 2 ] = 4432
c5: [ 1 x_2_ ^ 2 - 2 x_9_ * x_2_ + 1 x_9_ ^ 2 + 1 y_2_ ^ 2 - 2 y_9_ * y_2_ + 1 y_9_ ^ 2 ] = 4682
c6: [ 1 x_5_ ^ 2 - 2 x_11_ * x_5_ + 1 x_11_ ^ 2 + 1 y_5_ ^ 2 - 2 y_11_ * y_5_ + 1 y_11_ ^ 2 ] = 1844
c7: [ 1 x_4_ ^ 2 - 2 x_13_ * x_4_ + 1 x_13_ ^ 2 + 1 y_4_ ^ 2 - 2 y_13_ * y_4_ + 1 y_13_ ^ 2 ] = 10693
c8: [ 1 x_11_ ^ 2 - 2 x_16_ * x_11_ + 1 x_16_ ^ 2 + 1 y_11_ ^ 2 - 2 y_16_ * y_11_ + 1 y_16_ ^ 2 ] = 16250
c9: [ 1 x_14_ ^ 2 - 2 x_16_ * x_14_ + 1 x_16_ ^ 2 + 1 y_14_ ^ 2 - 2 y_16_ * y_14_ + 1 y_16_ ^ 2 ] = 1538
c10: [ 1 x_13_ ^ 2 - 2 x_17_ * x_13_ + 1 x_17_ ^ 2 + 1 y_13_ ^ 2 - 2 y_17_ * y_13_ + 1 y_17_ ^ 2 ] = 20488
c11: [ 1 x_6_ ^ 2 - 2 x_19_ * x_6_ + 1 x_19_ ^ 2 + 1 y_6_ ^ 2 - 2 y_19_ * y_6_ + 1 y_19_ ^ 2 ] = 7693
c12: [ 1 x_8_ ^ 2 - 2 x_19_ * x_8_ + 1 x_19_ ^ 2 + 1 y_8_ ^ 2 - 2 y_19_ * y_8_ + 1 y_19_ ^ 2 ] = 2920
c13: [ 1 x_14_ ^ 2 - 2 x_19_ * x_14_ + 1 x_19_ ^ 2 + 1 y_14_ ^ 2 - 2 y_19_ * y_14_ + 1 y_19_ ^ 2 ] = 13997
c14: [ 1 x_13_ ^ 2 - 2 x_20_ * x_13_ + 1 x_20_ ^ 2 + 1 y_13_ ^ 2 - 2 y_20_ * y_13_ + 1 y_20_ ^ 2 ] = 7105
c15: [ 1 x_18_ ^ 2 - 2 x_20_ * x_18_ + 1 x_20_ ^ 2 + 1 y_18_ ^ 2 - 2 y_20_ * y_18_ + 1 y_20_ ^ 2 ] = 27088
c16: [ 1 x_3_ ^ 2 - 2 x_21_ * x_3_ + 1 x_21_ ^ 2 + 1 y_3_ ^ 2 - 2 y_21_ * y_3_ + 1 y_21_ ^ 2 ] = 7769
c17: [ 1 x_3_ ^ 2 - 2 x_22_ * x_3_ + 1 x_22_ ^ 2 + 1 y_3_ ^ 2 - 2 y_22_ * y_3_ + 1 y_22_ ^ 2 ] = 13985
c18: [ 1 x_7_ ^ 2 - 2 x_23_ * x_7_ + 1 x_23_ ^ 2 + 1 y_7_ ^ 2 - 2 y_23_ * y_7_ + 1 y_23_ ^ 2 ] = 14285
c19: [ 1 x_5_ ^ 2 - 2 x_24_ * x_5_ + 1 x_24_ ^ 2 + 1 y_5_ ^ 2 - 2 y_24_ * y_5_ + 1 y_24_ ^ 2 ] = 7057
c20: [ 1 x_10_ ^ 2 - 2 x_24_ * x_10_ + 1 x_24_ ^ 2 + 1 y_10_ ^ 2 - 2 y_24_ * y_10_ + 1 y_24_ ^ 2 ] = 5338
c21: [ 1 x_16_ ^ 2 - 2 x_24_ * x_16_ + 1 x_24_ ^ 2 + 1 y_16_ ^ 2 - 2 y_24_ * y_16_ + 1 y_24_ ^ 2 ] = 3577
c22: [ 1 x_6_ ^ 2 - 2 x_25_ * x_6_ + 1 x_25_ ^ 2 + 1 y_6_ ^ 2 - 2 y_25_ * y_6_ + 1 y_25_ ^ 2 ] = 8298
c23: [ 1 x_13_ ^ 2 - 2 x_25_ * x_13_ + 1 x_25_ ^ 2 + 1 y_13_ ^ 2 - 2 y_25_ * y_13_ + 1 y_25_ ^ 2 ] = 30605
c24: [ 1 x_20_ ^ 2 - 2 x_25_ * x_20_ + 1 x_25_ ^ 2 + 1 y_20_ ^ 2 - 2 y_25_ * y_20_ + 1 y_25_ ^ 2 ] = 44500
c25: [ 1 x_9_ ^ 2 - 2 x_26_ * x_9_ + 1 x_26_ ^ 2 + 1 y_9_ ^ 2 - 2 y_26_ * y_9_ + 1 y_26_ ^ 2 ] = 8753
c26: [ 1 x_15_ ^ 2 - 2 x_26_ * x_15_ + 1 x_26_ ^ 2 + 1 y_15_ ^ 2 - 2 y_26_ * y_15_ + 1 y_26_ ^ 2 ] = 24436
c27: [ 1 x_10_ ^ 2 - 2 x_27_ * x_10_ + 1 x_27_ ^ 2 + 1 y_10_ ^ 2 - 2 y_27_ * y_10_ + 1 y_27_ ^ 2 ] = 22481
c28: [ 1 x_12_ ^ 2 - 2 x_27_ * x_12_ + 1 x_27_ ^ 2 + 1 y_12_ ^ 2 - 2 y_27_ * y_12_ + 1 y_27_ ^ 2 ] = 13600
c29: [ 1 x_13_ ^ 2 - 2 x_29_ * x_13_ + 1 x_29_ ^ 2 + 1 y_13_ ^ 2 - 2 y_29_ * y_13_ + 1 y_29_ ^ 2 ] = 2536
c30: [ 1 x_17_ ^ 2 - 2 x_30_ * x_17_ + 1 x_30_ ^ 2 + 1 y_17_ ^ 2 - 2 y_30_ * y_17_ + 1 y_30_ ^ 2 ] = 1421
c31: [ 1 x_22_ ^ 2 - 2 x_30_ * x_22_ + 1 x_30_ ^ 2 + 1 y_22_ ^ 2 - 2 y_30_ * y_22_ + 1 y_30_ ^ 2 ] = 7465
c32: [ 1 x_4_ ^ 2 - 2 x_32_ * x_4_ + 1 x_32_ ^ 2 + 1 y_4_ ^ 2 - 2 y_32_ * y_4_ + 1 y_32_ ^ 2 ] = 41
c33: [ 1 x_31_ ^ 2 - 2 x_32_ * x_31_ + 1 x_32_ ^ 2 + 1 y_31_ ^ 2 - 2 y_32_ * y_31_ + 1 y_32_ ^ 2 ] = 11029
c34: [ 1 x_8_ ^ 2 - 2 x_33_ * x_8_ + 1 x_33_ ^ 2 + 1 y_8_ ^ 2 - 2 y_33_ * y_8_ + 1 y_33_ ^ 2 ] = 20410
c35: [ 1 x_9_ ^ 2 - 2 x_34_ * x_9_ + 1 x_34_ ^ 2 + 1 y_9_ ^ 2 - 2 y_34_ * y_9_ + 1 y_34_ ^ 2 ] = 4553
c36: [ 1 x_27_ ^ 2 - 2 x_34_ * x_27_ + 1 x_34_ ^ 2 + 1 y_27_ ^ 2 - 2 y_34_ * y_27_ + 1 y_34_ ^ 2 ] = 26506
c37: [ 1 x_1_ ^ 2 - 2 x_35_ * x_1_ + 1 x_35_ ^ 2 + 1 y_1_ ^ 2 - 2 y_35_ * y_1_ + 1 y_35_ ^ 2 ] = 9146
c38: [ 1 x_5_ ^ 2 - 2 x_35_ * x_5_ + 1 x_35_ ^ 2 + 1 y_5_ ^ 2 - 2 y_35_ * y_5_ + 1 y_35_ ^ 2 ] = 14722
c39: [ 1 x_5_ ^ 2 - 2 x_36_ * x_5_ + 1 x_36_ ^ 2 + 1 y_5_ ^ 2 - 2 y_36_ * y_5_ + 1 y_36_ ^ 2 ] = 1418
c40: [ 1 x_27_ ^ 2 - 2 x_36_ * x_27_ + 1 x_36_ ^ 2 + 1 y_27_ ^ 2 - 2 y_36_ * y_27_ + 1 y_36_ ^ 2 ] = 4132
c41: [ 1 x_29_ ^ 2 - 2 x_36_ * x_29_ + 1 x_36_ ^ 2 + 1 y_29_ ^ 2 - 2 y_36_ * y_29_ + 1 y_36_ ^ 2 ] = 14957
c42: [ 1 x_5_ ^ 2 - 2 x_37_ * x_5_ + 1 x_37_ ^ 2 + 1 y_5_ ^ 2 - 2 y_37_ * y_5_ + 1 y_37_ ^ 2 ] = 12809
c43: [ 1 x_33_ ^ 2 - 2 x_37_ * x_33_ + 1 x_37_ ^ 2 + 1 y_33_ ^ 2 - 2 y_37_ * y_33_ + 1 y_37_ ^ 2 ] = 15146
c44: [ 1 x_4_ ^ 2 - 2 x_38_ * x_4_ + 1 x_38_ ^ 2 + 1 y_4_ ^ 2 - 2 y_38_ * y_4_ + 1 y_38_ ^ 2 ] = 23060
c45: [ 1 x_21_ ^ 2 - 2 x_38_ * x_21_ + 1 x_38_ ^ 2 + 1 y_21_ ^ 2 - 2 y_38_ * y_21_ + 1 y_38_ ^ 2 ] = 6341
c46: [ 1 x_13_ ^ 2 - 2 x_39_ * x_13_ + 1 x_39_ ^ 2 + 1 y_13_ ^ 2 - 2 y_39_ * y_13_ + 1 y_39_ ^ 2 ] = 7666
c47: [ 1 x_17_ ^ 2 - 2 x_39_ * x_17_ + 1 x_39_ ^ 2 + 1 y_17_ ^ 2 - 2 y_39_ * y_17_ + 1 y_39_ ^ 2 ] = 15898
c48: [ 1 x_28_ ^ 2 - 2 x_39_ * x_28_ + 1 x_39_ ^ 2 + 1 y_28_ ^ 2 - 2 y_39_ * y_28_ + 1 y_39_ ^ 2 ] = 25373
c49: [ 1 x_10_ ^ 2 - 2 x_40_ * x_10_ + 1 x_40_ ^ 2 + 1 y_10_ ^ 2 - 2 y_40_ * y_10_ + 1 y_40_ ^ 2 ] = 8528
c50: [ 1 x_26_ ^ 2 - 2 x_40_ * x_26_ + 1 x_40_ ^ 2 + 1 y_26_ ^ 2 - 2 y_40_ * y_26_ + 1 y_40_ ^ 2 ] = 697
c51: [ 1 x_31_ ^ 2 - 2 x_40_ * x_31_ + 1 x_40_ ^ 2 + 1 y_31_ ^ 2 - 2 y_40_ * y_31_ + 1 y_40_ ^ 2 ] = 1013
c52: [ 1 x_3_ ^ 2 - 2 x_41_ * x_3_ + 1 x_41_ ^ 2 + 1 y_3_ ^ 2 - 2 y_41_ * y_3_ + 1 y_41_ ^ 2 ] = 1636
c53: [ 1 x_12_ ^ 2 - 2 x_42_ * x_12_ + 1 x_42_ ^ 2 + 1 y_12_ ^ 2 - 2 y_42_ * y_12_ + 1 y_42_ ^ 2 ] = 2465
c54: [ 1 x_39_ ^ 2 - 2 x_42_ * x_39_ + 1 x_42_ ^ 2 + 1 y_39_ ^ 2 - 2 y_42_ * y_39_ + 1 y_42_ ^ 2 ] = 28004
c55: [ 1 x_25_ ^ 2 - 2 x_43_ * x_25_ + 1 x_43_ ^ 2 + 1 y_25_ ^ 2 - 2 y_43_ * y_25_ + 1 y_43_ ^ 2 ] = 12785
c56: [ 1 x_32_ ^ 2 - 2 x_43_ * x_32_ + 1 x_43_ ^ 2 + 1 y_32_ ^ 2 - 2 y_43_ * y_32_ + 1 y_43_ ^ 2 ] = 4580
c57: [ 1 x_9_ ^ 2 - 2 x_44_ * x_9_ + 1 x_44_ ^ 2 + 1 y_9_ ^ 2 - 2 y_44_ * y_9_ + 1 y_44_ ^ 2 ] = 17786
c58: [ 1 x_7_ ^ 2 - 2 x_45_ * x_7_ + 1 x_45_ ^ 2 + 1 y_7_ ^ 2 - 2 y_45_ * y_7_ + 1 y_45_ ^ 2 ] = 13672
c59: [ 1 x_3_ ^ 2 - 2 x_46_ * x_3_ + 1 x_46_ ^ 2 + 1 y_3_ ^ 2 - 2 y_46_ * y_3_ + 1 y_46_ ^ 2 ] = 16965
c60: [ 1 x_33_ ^ 2 - 2 x_46_ * x_33_ + 1 x_46_ ^ 2 + 1 y_33_ ^ 2 - 2 y_46_ * y_33_ + 1 y_46_ ^ 2 ] = 28432
c61: [ 1 x_38_ ^ 2 - 2 x_46_ * x_38_ + 1 x_46_ ^ 2 + 1 y_38_ ^ 2 - 2 y_46_ * y_38_ + 1 y_46_ ^ 2 ] = 21537
c62: [ 1 x_9_ ^ 2 - 2 x_47_ * x_9_ + 1 x_47_ ^ 2 + 1 y_9_ ^ 2 - 2 y_47_ * y_9_ + 1 y_47_ ^ 2 ] = 1665
c63: [ 1 x_29_ ^ 2 - 2 x_47_ * x_29_ + 1 x_47_ ^ 2 + 1 y_29_ ^ 2 - 2 y_47_ * y_29_ + 1 y_47_ ^ 2 ] = 29921
c64: [ 1 x_37_ ^ 2 - 2 x_47_ * x_37_ + 1 x_47_ ^ 2 + 1 y_37_ ^ 2 - 2 y_47_ * y_37_ + 1 y_47_ ^ 2 ] = 26713
c65: [ 1 x_23_ ^ 2 - 2 x_48_ * x_23_ + 1 x_48_ ^ 2 + 1 y_23_ ^ 2 - 2 y_48_ * y_23_ + 1 y_48_ ^ 2 ] = 7085
c66: [ 1 x_34_ ^ 2 - 2 x_48_ * x_34_ + 1 x_48_ ^ 2 + 1 y_34_ ^ 2 - 2 y_48_ * y_34_ + 1 y_48_ ^ 2 ] = 7460
c67: [ 1 x_10_ ^ 2 - 2 x_49_ * x_10_ + 1 x_49_ ^ 2 + 1 y_10_ ^ 2 - 2 y_49_ * y_10_ + 1 y_49_ ^ 2 ] = 3728
c68: [ 1 x_30_ ^ 2 - 2 x_49_ * x_30_ + 1 x_49_ ^ 2 + 1 y_30_ ^ 2 - 2 y_49_ * y_30_ + 1 y_49_ ^ 2 ] = 4765
c69: [ 1 x_46_ ^ 2 - 2 x_49_ * x_46_ + 1 x_49_ ^ 2 + 1 y_46_ ^ 2 - 2 y_49_ * y_46_ + 1 y_49_ ^ 2 ] = 3332
c70: [ 1 x_11_ ^ 2 - 2 x_50_ * x_11_ + 1 x_50_ ^ 2 + 1 y_11_ ^ 2 - 2 y_50_ * y_11_ + 1 y_50_ ^ 2 ] = 13169
c71: [ 1 x_31_ ^ 2 - 2 x_51_ * x_31_ + 1 x_51_ ^ 2 + 1 y_31_ ^ 2 - 2 y_51_ * y_31_ + 1 y_51_ ^ 2 ] = 18965
c72: [ 1 x_34_ ^ 2 - 2 x_51_ * x_34_ + 1 x_51_ ^ 2 + 1 y_34_ ^ 2 - 2 y_51_ * y_34_ + 1 y_51_ ^ 2 ] = 1745
c73: [ 1 x_29_ ^ 2 - 2 x_52_ * x_29_ + 1 x_52_ ^ 2 + 1 y_29_ ^ 2 - 2 y_52_ * y_29_ + 1 y_52_ ^ 2 ] = 28669
c74: [ 1 x_44_ ^ 2 - 2 x_52_ * x_44_ + 1 x_52_ ^ 2 + 1 y_44_ ^ 2 - 2 y_52_ * y_44_ + 1 y_52_ ^ 2 ] = 24961
c75: [ 1 x_45_ ^ 2 - 2 x_52_ * x_45_ + 1 x_52_ ^ 2 + 1 y_45_ ^ 2 - 2 y_52_ * y_45_ + 1 y_52_ ^ 2 ] = 21920
c76: [ 1 x_50_ ^ 2 - 2 x_53_ * x_50_ + 1 x_53_ ^ 2 + 1 y_50_ ^ 2 - 2 y_53_ * y_50_ + 1 y_53_ ^ 2 ] = 25177
c77: [ 1 x_2_ ^ 2 - 2 x_54_ * x_2_ + 1 x_54_ ^ 2 + 1 y_2_ ^ 2 - 2 y_54_ * y_2_ + 1 y_54_ ^ 2 ] = 15625
c78: [ 1 x_8_ ^ 2 - 2 x_56_ * x_8_ + 1 x_56_ ^ 2 + 1 y_8_ ^ 2 - 2 y_56_ * y_8_ + 1 y_56_ ^ 2 ] = 14153
c79: [ 1 x_11_ ^ 2 - 2 x_56_ * x_11_ + 1 x_56_ ^ 2 + 1 y_11_ ^ 2 - 2 y_56_ * y_11_ + 1 y_56_ ^ 2 ] = 9378
c80: [ 1 x_7_ ^ 2 - 2 x_57_ * x_7_ + 1 x_57_ ^ 2 + 1 y_7_ ^ 2 - 2 y_57_ * y_7_ + 1 y_57_ ^ 2 ] = 1037
c81: [ 1 x_21_ ^ 2 - 2 x_57_ * x_21_ + 1 x_57_ ^ 2 + 1 y_21_ ^ 2 - 2 y_57_ * y_21_ + 1 y_57_ ^ 2 ] = 17082
c82: [ 1 x_33_ ^ 2 - 2 x_57_ * x_33_ + 1 x_57_ ^ 2 + 1 y_33_ ^ 2 - 2 y_57_ * y_33_ + 1 y_57_ ^ 2 ] = 16136
c83: [ 1 x_21_ ^ 2 - 2 x_58_ * x_21_ + 1 x_58_ ^ 2 + 1 y_21_ ^ 2 - 2 y_58_ * y_21_ + 1 y_58_ ^ 2 ] = 5128
c84: [ 1 x_28_ ^ 2 - 2 x_58_ * x_28_ + 1 x_58_ ^ 2 + 1 y_28_ ^ 2 - 2 y_58_ * y_28_ + 1 y_58_ ^ 2 ] = 377
c85: [ 1 x_1_ ^ 2 - 2 x_59_ * x_1_ + 1 x_59_ ^ 2 + 1 y_1_ ^ 2 - 2 y_59_ * y_1_ + 1 y_59_ ^ 2 ] = 25705
c86: [ 1 x_8_ ^ 2 - 2 x_59_ * x_8_ + 1 x_59_ ^ 2 + 1 y_8_ ^ 2 - 2 y_59_ * y_8_ + 1 y_59_ ^ 2 ] = 24466
c87: [ 1 x_22_ ^ 2 - 2 x_59_ * x_22_ + 1 x_59_ ^ 2 + 1 y_22_ ^ 2 - 2 y_59_ * y_22_ + 1 y_59_ ^ 2 ] = 30344
c88: [ 1 x_8_ ^ 2 - 2 x_60_ * x_8_ + 1 x_60_ ^ 2 + 1 y_8_ ^ 2 - 2 y_60_ * y_8_ + 1 y_60_ ^ 2 ] = 7605
c89: [ 1 x_15_ ^ 2 - 2 x_60_ * x_15_ + 1 x_60_ ^ 2 + 1 y_15_ ^ 2 - 2 y_60_ * y_15_ + 1 y_60_ ^ 2 ] = 10484
c90: [ 1 x_2_ ^ 2 - 2 x_61_ * x_2_ + 1 x_61_ ^ 2 + 1 y_2_ ^ 2 - 2 y_61_ * y_2_ + 1 y_61_ ^ 2 ] = 5185
c91: [ 1 x_35_ ^ 2 - 2 x_61_ * x_35_ + 1 x_61_ ^ 2 + 1 y_35_ ^ 2 - 2 y_61_ * y_35_ + 1 y_61_ ^ 2 ] = 4274
c92: [ 1 x_39_ ^ 2 - 2 x_61_ * x_39_ + 1 x_61_ ^ 2 + 1 y_39_ ^ 2 - 2 y_61_ * y_39_ + 1 y_61_ ^ 2 ] = 5597
c93: [ 1 x_2_ ^ 2 - 2 x_62_ * x_2_ + 1 x_62_ ^ 2 + 1 y_2_ ^ 2 - 2 y_62_ * y_2_ + 1 y_62_ ^ 2 ] = 15892
c94: [ 1 x_44_ ^ 2 - 2 x_62_ * x_44_ + 1 x_62_ ^ 2 + 1 y_44_ ^ 2 - 2 y_62_ * y_44_ + 1 y_62_ ^ 2 ] = 3620
c95: [ 1 x_1_ ^ 2 - 2 x_63_ * x_1_ + 1 x_63_ ^ 2 + 1 y_1_ ^ 2 - 2 y_63_ * y_1_ + 1 y_63_ ^ 2 ] = 2385
c96: [ 1 x_51_ ^ 2 - 2 x_63_ * x_51_ + 1 x_63_ ^ 2 + 1 y_51_ ^ 2 - 2 y_63_ * y_51_ + 1 y_63_ ^ 2 ] = 27050
c97: [ 1 x_56_ ^ 2 - 2 x_63_ * x_56_ + 1 x_63_ ^ 2 + 1 y_56_ ^ 2 - 2 y_63_ * y_56_ + 1 y_63_ ^ 2 ] = 13417
c98: [ 1 x_8_ ^ 2 - 2 x_64_ * x_8_ + 1 x_64_ ^ 2 + 1 y_8_ ^ 2 - 2 y_64_ * y_8_ + 1 y_64_ ^ 2 ] = 12104
c99: [ 1 x_32_ ^ 2 - 2 x_64_ * x_32_ + 1 x_64_ ^ 2 + 1 y_32_ ^ 2 - 2 y_64_ * y_32_ + 1 y_64_ ^ 2 ] = 18530
c100: [ 1 x_41_ ^ 2 - 2 x_65_ * x_41_ + 1 x_65_ ^ 2 + 1 y_41_ ^ 2 - 2 y_65_ * y_41_ + 1 y_65_ ^ 2 ] = 4330
c101: [ 1 x_42_ ^ 2 - 2 x_65_ * x_42_ + 1 x_65_ ^ 2 + 1 y_42_ ^ 2 - 2 y_65_ * y_42_ + 1 y_65_ ^ 2 ] = 22741
c102: [ 1 x_23_ ^ 2 - 2 x_66_ * x_23_ + 1 x_66_ ^ 2 + 1 y_23_ ^ 2 - 2 y_66_ * y_23_ + 1 y_66_ ^ 2 ] = 11002
c103: [ 1 x_31_ ^ 2 - 2 x_66_ * x_31_ + 1 x_66_ ^ 2 + 1 y_31_ ^ 2 - 2 y_66_ * y_31_ + 1 y_66_ ^ 2 ] = 3625
c104: [ 1 x_53_ ^ 2 - 2 x_66_ * x_53_ + 1 x_66_ ^ 2 + 1 y_53_ ^ 2 - 2 y_66_ * y_53_ + 1 y_66_ ^ 2 ] = 1105
c105: [ 1 x_5_ ^ 2 - 2 x_67_ * x_5_ + 1 x_67_ ^ 2 + 1 y_5_ ^ 2 - 2 y_67_ * y_5_ + 1 y_67_ ^ 2 ] = 36065
c106: [ 1 x_18_ ^ 2 - 2 x_67_ * x_18_ + 1 x_67_ ^ 2 + 1 y_18_ ^ 2 - 2 y_67_ * y_18_ + 1 y_67_ ^ 2 ] = 12725
c107: [ 1 x_41_ ^ 2 - 2 x_67_ * x_41_ + 1 x_67_ ^ 2 + 1 y_41_ ^ 2 - 2 y_67_ * y_41_ + 1 y_67_ ^ 2 ] = 14489
c108: [ 1 x_9_ ^ 2 - 2 x_68_ * x_9_ + 1 x_68_ ^ 2 + 1 y_9_ ^ 2 - 2 y_68_ * y_9_ + 1 y_68_ ^ 2 ] = 14210
c109: [ 1 x_16_ ^ 2 - 2 x_68_ * x_16_ + 1 x_68_ ^ 2 + 1 y_16_ ^ 2 - 2 y_68_ * y_16_ + 1 y_68_ ^ 2 ] = 5245
c110: [ 1 x_42_ ^ 2 - 2 x_68_ * x_42_ + 1 x_68_ ^ 2 + 1 y_42_ ^ 2 - 2 y_68_ * y_42_ + 1 y_68_ ^ 2 ] = 23200
c111: [ 1 x_1_ ^ 2 - 2 x_69_ * x_1_ + 1 x_69_ ^ 2 + 1 y_1_ ^ 2 - 2 y_69_ * y_1_ + 1 y_69_ ^ 2 ] = 22725
c112: [ 1 x_64_ ^ 2 - 2 x_69_ * x_64_ + 1 x_69_ ^ 2 + 1 y_64_ ^ 2 - 2 y_69_ * y_64_ + 1 y_69_ ^ 2 ] = 35674
c113: [ 1 x_20_ ^ 2 - 2 x_70_ * x_20_ + 1 x_70_ ^ 2 + 1 y_20_ ^ 2 - 2 y_70_ * y_20_ + 1 y_70_ ^ 2 ] = 5338
c114: [ 1 x_55_ ^ 2 - 2 x_70_ * x_55_ + 1 x_70_ ^ 2 + 1 y_55_ ^ 2 - 2 y_70_ * y_55_ + 1 y_70_ ^ 2 ] = 38069
c115: [ 1 x_67_ ^ 2 - 2 x_70_ * x_67_ + 1 x_70_ ^ 2 + 1 y_67_ ^ 2 - 2 y_70_ * y_67_ + 1 y_70_ ^ 2 ] = 30425
c116: [ 1 x_12_ ^ 2 - 2 x_71_ * x_12_ + 1 x_71_ ^ 2 + 1 y_12_ ^ 2 - 2 y_71_ * y_12_ + 1 y_71_ ^ 2 ] = 530
c117: [ 1 x_38_ ^ 2 - 2 x_71_ * x_38_ + 1 x_71_ ^ 2 + 1 y_38_ ^ 2 - 2 y_71_ * y_38_ + 1 y_71_ ^ 2 ] = 338
c118: [ 1 x_55_ ^ 2 - 2 x_71_ * x_55_ + 1 x_71_ ^ 2 + 1 y_55_ ^ 2 - 2 y_71_ * y_55_ + 1 y_71_ ^ 2 ] = 11981
c119: [ 1 x_1_ ^ 2 - 2 x_72_ * x_1_ + 1 x_72_ ^ 2 + 1 y_1_ ^ 2 - 2 y_72_ * y_1_ + 1 y_72_ ^ 2 ] = 21538
c120: [ 1 x_17_ ^ 2 - 2 x_72_ * x_17_ + 1 x_72_ ^ 2 + 1 y_17_ ^ 2 - 2 y_72_ * y_17_ + 1 y_72_ ^ 2 ] = 25793
c121: [ 1 x_54_ ^ 2 - 2 x_72_ * x_54_ + 1 x_72_ ^ 2 + 1 y_54_ ^ 2 - 2 y_72_ * y_54_ + 1 y_72_ ^ 2 ] = 2888
c122: [ 1 x_36_ ^ 2 - 2 x_73_ * x_36_ + 1 x_73_ ^ 2 + 1 y_36_ ^ 2 - 2 y_73_ * y_36_ + 1 y_73_ ^ 2 ] = 12244
c123: [ 1 x_62_ ^ 2 - 2 x_73_ * x_62_ + 1 x_73_ ^ 2 + 1 y_62_ ^ 2 - 2 y_73_ * y_62_ + 1 y_73_ ^ 2 ] = 21325
c124: [ 1 x_17_ ^ 2 - 2 x_74_ * x_17_ + 1 x_74_ ^ 2 + 1 y_17_ ^ 2 - 2 y_74_ * y_17_ + 1 y_74_ ^ 2 ] = 4868
c125: [ 1 x_47_ ^ 2 - 2 x_74_ * x_47_ + 1 x_74_ ^ 2 + 1 y_47_ ^ 2 - 2 y_74_ * y_47_ + 1 y_74_ ^ 2 ] = 505
c126: [ 1 x_54_ ^ 2 - 2 x_74_ * x_54_ + 1 x_74_ ^ 2 + 1 y_54_ ^ 2 - 2 y_74_ * y_54_ + 1 y_74_ ^ 2 ] = 28673
c127: [ 1 x_22_ ^ 2 - 2 x_75_ * x_22_ + 1 x_75_ ^ 2 + 1 y_22_ ^ 2 - 2 y_75_ * y_22_ + 1 y_75_ ^ 2 ] = 20276
c128: [ 1 x_45_ ^ 2 - 2 x_75_ * x_45_ + 1 x_75_ ^ 2 + 1 y_45_ ^ 2 - 2 y_75_ * y_45_ + 1 y_75_ ^ 2 ] = 12745
c129: [ 1 x_26_ ^ 2 - 2 x_76_ * x_26_ + 1 x_76_ ^ 2 + 1 y_26_ ^ 2 - 2 y_76_ * y_26_ + 1 y_76_ ^ 2 ] = 1825
c130: [ 1 x_55_ ^ 2 - 2 x_76_ * x_55_ + 1 x_76_ ^ 2 + 1 y_55_ ^ 2 - 2 y_76_ * y_55_ + 1 y_76_ ^ 2 ] = 32392
c131: [ 1 x_4_ ^ 2 - 2 x_77_ * x_4_ + 1 x_77_ ^ 2 + 1 y_4_ ^ 2 - 2 y_77_ * y_4_ + 1 y_77_ ^ 2 ] = 39650
c132: [ 1 x_14_ ^ 2 - 2 x_77_ * x_14_ + 1 x_77_ ^ 2 + 1 y_14_ ^ 2 - 2 y_77_ * y_14_ + 1 y_77_ ^ 2 ] = 15976
c133: [ 1 x_51_ ^ 2 - 2 x_77_ * x_51_ + 1 x_77_ ^ 2 + 1 y_51_ ^ 2 - 2 y_77_ * y_51_ + 1 y_77_ ^ 2 ] = 19445
c134: [ 1 x_9_ ^ 2 - 2 x_78_ * x_9_ + 1 x_78_ ^ 2 + 1 y_9_ ^ 2 - 2 y_78_ * y_9_ + 1 y_78_ ^ 2 ] = 3250
c135: [ 1 x_13_ ^ 2 - 2 x_78_ * x_13_ + 1 x_78_ ^ 2 + 1 y_13_ ^ 2 - 2 y_78_ * y_13_ + 1 y_78_ ^ 2 ] = 7450
c136: [ 1 x_50_ ^ 2 - 2 x_78_ * x_50_ + 1 x_78_ ^ 2 + 1 y_50_ ^ 2 - 2 y_78_ * y_50_ + 1 y_78_ ^ 2 ] = 14548
c137: [ 1 x_26_ ^ 2 - 2 x_79_ * x_26_ + 1 x_79_ ^ 2 + 1 y_26_ ^ 2 - 2 y_79_ * y_26_ + 1 y_79_ ^ 2 ] = 33109
c138: [ 1 x_41_ ^ 2 - 2 x_79_ * x_41_ + 1 x_79_ ^ 2 + 1 y_41_ ^ 2 - 2 y_79_ * y_41_ + 1 y_79_ ^ 2 ] = 6001
c139: [ 1 x_51_ ^ 2 - 2 x_79_ * x_51_ + 1 x_79_ ^ 2 + 1 y_51_ ^ 2 - 2 y_79_ * y_51_ + 1 y_79_ ^ 2 ] = 578
c140: [ 1 x_17_ ^ 2 - 2 x_80_ * x_17_ + 1 x_80_ ^ 2 + 1 y_17_ ^ 2 - 2 y_80_ * y_17_ + 1 y_80_ ^ 2 ] = 5008
c141: [ 1 x_18_ ^ 2 - 2 x_80_ * x_18_ + 1 x_80_ ^ 2 + 1 y_18_ ^ 2 - 2 y_80_ * y_18_ + 1 y_80_ ^ 2 ] = 3029
c142: [ 1 x_55_ ^ 2 - 2 x_80_ * x_55_ + 1 x_80_ ^ 2 + 1 y_55_ ^ 2 - 2 y_80_ * y_55_ + 1 y_80_ ^ 2 ] = 14760
c143: [ 1 x_13_ ^ 2 - 2 x_81_ * x_13_ + 1 x_81_ ^ 2 + 1 y_13_ ^ 2 - 2 y_81_ * y_13_ + 1 y_81_ ^ 2 ] = 7145
c144: [ 1 x_44_ ^ 2 - 2 x_81_ * x_44_ + 1 x_81_ ^ 2 + 1 y_44_ ^ 2 - 2 y_81_ * y_44_ + 1 y_81_ ^ 2 ] = 9385
c145: [ 1 x_50_ ^ 2 - 2 x_81_ * x_50_ + 1 x_81_ ^ 2 + 1 y_50_ ^ 2 - 2 y_81_ * y_50_ + 1 y_81_ ^ 2 ] = 2897
c146: [ 1 x_19_ ^ 2 - 2 x_82_ * x_19_ + 1 x_82_ ^ 2 + 1 y_19_ ^ 2 - 2 y_82_ * y_19_ + 1 y_82_ ^ 2 ] = 23657
c147: [ 1 x_49_ ^ 2 - 2 x_82_ * x_49_ + 1 x_82_ ^ 2 + 1 y_49_ ^ 2 - 2 y_82_ * y_49_ + 1 y_82_ ^ 2 ] = 6957
c148: [ 1 x_13_ ^ 2 - 2 x_83_ * x_13_ + 1 x_83_ ^ 2 + 1 y_13_ ^ 2 - 2 y_83_ * y_13_ + 1 y_83_ ^ 2 ] = 274
c149: [ 1 x_65_ ^ 2 - 2 x_83_ * x_65_ + 1 x_83_ ^ 2 + 1 y_65_ ^ 2 - 2 y_83_ * y_65_ + 1 y_83_ ^ 2 ] = 35037
c150: [ 1 x_7_ ^ 2 - 2 x_84_ * x_7_ + 1 x_84_ ^ 2 + 1 y_7_ ^ 2 - 2 y_84_ * y_7_ + 1 y_84_ ^ 2 ] = 19850
c151: [ 1 x_18_ ^ 2 - 2 x_84_ * x_18_ + 1 x_84_ ^ 2 + 1 y_18_ ^ 2 - 2 y_84_ * y_18_ + 1 y_84_ ^ 2 ] = 11258
c152: [ 1 x_23_ ^ 2 - 2 x_84_ * x_23_ + 1 x_84_ ^ 2 + 1 y_23_ ^ 2 - 2 y_84_ * y_23_ + 1 y_84_ ^ 2 ] = 14913
c153: [ 1 x_36_ ^ 2 - 2 x_85_ * x_36_ + 1 x_85_ ^ 2 + 1 y_36_ ^ 2 - 2 y_85_ * y_36_ + 1 y_85_ ^ 2 ] = 17021
c154: [ 1 x_69_ ^ 2 - 2 x_85_ * x_69_ + 1 x_85_ ^ 2 + 1 y_69_ ^ 2 - 2 y_85_ * y_69_ + 1 y_85_ ^ 2 ] = 13032
c155: [ 1 x_73_ ^ 2 - 2 x_85_ * x_73_ + 1 x_85_ ^ 2 + 1 y_73_ ^ 2 - 2 y_85_ * y_73_ + 1 y_85_ ^ 2 ] = 34805
c156: [ 1 x_35_ ^ 2 - 2 x_86_ * x_35_ + 1 x_86_ ^ 2 + 1 y_35_ ^ 2 - 2 y_86_ * y_35_ + 1 y_86_ ^ 2 ] = 3637
c157: [ 1 x_48_ ^ 2 - 2 x_86_ * x_48_ + 1 x_86_ ^ 2 + 1 y_48_ ^ 2 - 2 y_86_ * y_48_ + 1 y_86_ ^ 2 ] = 14089
c158: [ 1 x_64_ ^ 2 - 2 x_86_ * x_64_ + 1 x_86_ ^ 2 + 1 y_64_ ^ 2 - 2 y_86_ * y_64_ + 1 y_86_ ^ 2 ] = 29000
c159: [ 1 x_26_ ^ 2 - 2 x_87_ * x_26_ + 1 x_87_ ^ 2 + 1 y_26_ ^ 2 - 2 y_87_ * y_26_ + 1 y_87_ ^ 2 ] = 11765
c160: [ 1 x_31_ ^ 2 - 2 x_87_ * x_31_ + 1 x_87_ ^ 2 + 1 y_31_ ^ 2 - 2 y_87_ * y_31_ + 1 y_87_ ^ 2 ] = 7373
c161: [ 1 x_42_ ^ 2 - 2 x_87_ * x_42_ + 1 x_87_ ^ 2 + 1 y_42_ ^ 2 - 2 y_87_ * y_42_ + 1 y_87_ ^ 2 ] = 9320
c162: [ 1 x_67_ ^ 2 - 2 x_88_ * x_67_ + 1 x_88_ ^ 2 + 1 y_67_ ^ 2 - 2 y_88_ * y_67_ + 1 y_88_ ^ 2 ] = 25316
c163: [ 1 x_70_ ^ 2 - 2 x_88_ * x_70_ + 1 x_88_ ^ 2 + 1 y_70_ ^ 2 - 2 y_88_ * y_70_ + 1 y_88_ ^ 2 ] = 5085
c164: [ 1 x_76_ ^ 2 - 2 x_88_ * x_76_ + 1 x_88_ ^ 2 + 1 y_76_ ^ 2 - 2 y_88_ * y_76_ + 1 y_88_ ^ 2 ] = 2858
c165: [ 1 x_3_ ^ 2 - 2 x_89_ * x_3_ + 1 x_89_ ^ 2 + 1 y_3_ ^ 2 - 2 y_89_ * y_3_ + 1 y_89_ ^ 2 ] = 17165
c166: [ 1 x_16_ ^ 2 - 2 x_89_ * x_16_ + 1 x_89_ ^ 2 + 1 y_16_ ^ 2 - 2 y_89_ * y_16_ + 1 y_89_ ^ 2 ] = 11881
c167: [ 1 x_43_ ^ 2 - 2 x_89_ * x_43_ + 1 x_89_ ^ 2 + 1 y_43_ ^ 2 - 2 y_89_ * y_43_ + 1 y_89_ ^ 2 ] = 5554
c168: [ 1 x_58_ ^ 2 - 2 x_90_ * x_58_ + 1 x_90_ ^ 2 + 1 y_58_ ^ 2 - 2 y_90_ * y_58_ + 1 y_90_ ^ 2 ] = 4717
c169: [ 1 x_61_ ^ 2 - 2 x_90_ * x_61_ + 1 x_90_ ^ 2 + 1 y_61_ ^ 2 - 2 y_90_ * y_61_ + 1 y_90_ ^ 2 ] = 3114
c170: [ 1 x_69_ ^ 2 - 2 x_90_ * x_69_ + 1 x_90_ ^ 2 + 1 y_69_ ^ 2 - 2 y_90_ * y_69_ + 1 y_90_ ^ 2 ] = 14661
c171: [ 1 x_9_ ^ 2 - 2 x_91_ * x_9_ + 1 x_91_ ^ 2 + 1 y_9_ ^ 2 - 2 y_91_ * y_9_ + 1 y_91_ ^ 2 ] = 3538
c172: [ 1 x_12_ ^ 2 - 2 x_91_ * x_12_ + 1 x_91_ ^ 2 + 1 y_12_ ^ 2 - 2 y_91_ * y_12_ + 1 y_91_ ^ 2 ] = 1153
c173: [ 1 x_58_ ^ 2 - 2 x_91_ * x_58_ + 1 x_91_ ^ 2 + 1 y_58_ ^ 2 - 2 y_91_ * y_58_ + 1 y_91_ ^ 2 ] = 4432
c174: [ 1 x_8_ ^ 2 - 2 x_92_ * x_8_ + 1 x_92_ ^ 2 + 1 y_8_ ^ 2 - 2 y_92_ * y_8_ + 1 y_92_ ^ 2 ] = 2581
c175: [ 1 x_21_ ^ 2 - 2 x_92_ * x_21_ + 1 x_92_ ^ 2 + 1 y_21_ ^ 2 - 2 y_92_ * y_21_ + 1 y_92_ ^ 2 ] = 18621
c176: [ 1 x_53_ ^ 2 - 2 x_92_ * x_53_ + 1 x_92_ ^ 2 + 1 y_53_ ^ 2 - 2 y_92_ * y_53_ + 1 y_92_ ^ 2 ] = 18082
c177: [ 1 x_1_ ^ 2 - 2 x_93_ * x_1_ + 1 x_93_ ^ 2 + 1 y_1_ ^ 2 - 2 y_93_ * y_1_ + 1 y_93_ ^ 2 ] = 562
c178: [ 1 x_3_ ^ 2 - 2 x_93_ * x_3_ + 1 x_93_ ^ 2 + 1 y_3_ ^ 2 - 2 y_93_ * y_3_ + 1 y_93_ ^ 2 ] = 20250
c179: [ 1 x_69_ ^ 2 - 2 x_93_ * x_69_ + 1 x_93_ ^ 2 + 1 y_69_ ^ 2 - 2 y_93_ * y_69_ + 1 y_93_ ^ 2 ] = 29917
c180: [ 1 x_11_ ^ 2 - 2 x_94_ * x_11_ + 1 x_94_ ^ 2 + 1 y_11_ ^ 2 - 2 y_94_ * y_11_ + 1 y_94_ ^ 2 ] = 13498
c181: [ 1 x_59_ ^ 2 - 2 x_94_ * x_59_ + 1 x_94_ ^ 2 + 1 y_59_ ^ 2 - 2 y_94_ * y_59_ + 1 y_94_ ^ 2 ] = 11889
c182: [ 1 x_28_ ^ 2 - 2 x_95_ * x_28_ + 1 x_95_ ^ 2 + 1 y_28_ ^ 2 - 2 y_95_ * y_28_ + 1 y_95_ ^ 2 ] = 5545
c183: [ 1 x_69_ ^ 2 - 2 x_95_ * x_69_ + 1 x_95_ ^ 2 + 1 y_69_ ^ 2 - 2 y_95_ * y_69_ + 1 y_95_ ^ 2 ] = 11588
c184: [ 1 x_82_ ^ 2 - 2 x_95_ * x_82_ + 1 x_95_ ^ 2 + 1 y_82_ ^ 2 - 2 y_95_ * y_82_ + 1 y_95_ ^ 2 ] = 2125
c185: [ 1 x_42_ ^ 2 - 2 x_96_ * x_42_ + 1 x_96_ ^ 2 + 1 y_42_ ^ 2 - 2 y_96_ * y_42_ + 1 y_96_ ^ 2 ] = 13460
c186: [ 1 x_75_ ^ 2 - 2 x_96_ * x_75_ + 1 x_96_ ^ 2 + 1 y_75_ ^ 2 - 2 y_96_ * y_75_ + 1 y_96_ ^ 2 ] = 9530
c187: [ 1 x_10_ ^ 2 - 2 x_97_ * x_10_ + 1 x_97_ ^ 2 + 1 y_10_ ^ 2 - 2 y_97_ * y_10_ + 1 y_97_ ^ 2 ] = 3541
c188: [ 1 x_27_ ^ 2 - 2 x_97_ * x_27_ + 1 x_97_ ^ 2 + 1 y_27_ ^ 2 - 2 y_97_ * y_27_ + 1 y_97_ ^ 2 ] = 42082
c189: [ 1 x_83_ ^ 2 - 2 x_97_ * x_83_ + 1 x_97_ ^ 2 + 1 y_83_ ^ 2 - 2 y_97_ * y_83_ + 1 y_97_ ^ 2 ] = 26525
c190: [ 1 x_92_ ^ 2 - 2 x_98_ * x_92_ + 1 x_98_ ^ 2 + 1 y_92_ ^ 2 - 2 y_98_ * y_92_ + 1 y_98_ ^ 2 ] = 5905
c191: [ 1 x_94_ ^ 2 - 2 x_98_ * x_94_ + 1 x_98_ ^ 2 + 1 y_94_ ^ 2 - 2 y_98_ * y_94_ + 1 y_98_ ^ 2 ] = 1697
c192: [ 1 x_96_ ^ 2 - 2 x_98_ * x_96_ + 1 x_98_ ^ 2 + 1 y_96_ ^ 2 - 2 y_98_ * y_96_ + 1 y_98_ ^ 2 ] = 136
c193: [ 1 x_15_ ^ 2 - 2 x_99_ * x_15_ + 1 x_99_ ^ 2 + 1 y_15_ ^ 2 - 2 y_99_ * y_15_ + 1 y_99_ ^ 2 ] = 14282
c194: [ 1 x_36_ ^ 2 - 2 x_99_ * x_36_ + 1 x_99_ ^ 2 + 1 y_36_ ^ 2 - 2 y_99_ * y_36_ + 1 y_99_ ^ 2 ] = 1424
c195: [ 1 x_44_ ^ 2 - 2 x_99_ * x_44_ + 1 x_99_ ^ 2 + 1 y_44_ ^ 2 - 2 y_99_ * y_44_ + 1 y_99_ ^ 2 ] = 5305
c196: [ 1 x_1_ ^ 2 - 2 x_100_ * x_1_ + 1 x_100_ ^ 2 + 1 y_1_ ^ 2 - 2 y_100_ * y_1_ + 1 y_100_ ^ 2 ] = 18650
c197: [ 1 x_44_ ^ 2 - 2 x_100_ * x_44_ + 1 x_100_ ^ 2 + 1 y_44_ ^ 2 - 2 y_100_ * y_44_ + 1 y_100_ ^ 2 ] = 7081
c198: [ 1 x_60_ ^ 2 - 2 x_100_ * x_60_ + 1 x_100_ ^ 2 + 1 y_60_ ^ 2 - 2 y_100_ * y_60_ + 1 y_100_ ^ 2 ] = 6514
Bounds
43 <= x_1_ <= 145
-141 <= x_2_ <= 169
-40 <= x_3_ <= 228
x_4_ = 94
-102 <= x_5_ <= 131
-107 <= x_6_ <= 203
-272 <= x_7_ <= 405
-158 <= x_8_ <= 235
-150 <= x_9_ <= 116
-141 <= x_10_ <= 288
-145 <= x_11_ <= 174
-99 <= x_12_ <= 209
-9 <= x_13_ <= 164
-202 <= x_14_ <= 314
-209 <= x_15_ <= 175
-163 <= x_16_ <= 275
-151 <= x_17_ <= 249
-25 <= x_18_ <= 199
-194 <= x_19_ <= 289
-93 <= x_20_ <= 248
-128 <= x_21_ <= 314
-158 <= x_22_ <= 346
-182 <= x_23_ <= 354
-186 <= x_24_ <= 215
-93 <= x_25_ <= 281
-75 <= x_26_ <= 209
-191 <= x_27_ <= 157
-219 <= x_28_ <= 261
-59 <= x_29_ <= 214
-189 <= x_30_ <= 287
-17 <= x_31_ <= 205
88 <= x_32_ <= 100
-301 <= x_33_ <= 367
-176 <= x_34_ <= 183
-53 <= x_35_ <= 241
-127 <= x_36_ <= 93
-216 <= x_37_ <= 244
-57 <= x_38_ <= 245
-96 <= x_39_ <= 251
-49 <= x_40_ <= 236
-33 <= x_41_ <= 207
-148 <= x_42_ <= 259
20 <= x_43_ <= 168
x_44_ = -17
-323 <= x_45_ <= 289
-170 <= x_46_ <= 358
-191 <= x_47_ <= 157
-232 <= x_48_ <= 270
-202 <= x_49_ <= 349
-147 <= x_50_ <= 133
-134 <= x_51_ <= 225
-174 <= x_52_ <= 140
-110 <= x_53_ <= 292
-157 <= x_54_ <= 294
-185 <= x_55_ <= 342
-122 <= x_56_ <= 271
-259 <= x_57_ <= 438
-199 <= x_58_ <= 242
-117 <= x_59_ <= 305
-174 <= x_60_ <= 147
-118 <= x_61_ <= 241
-77 <= x_62_ <= 43
-6 <= x_63_ <= 194
-48 <= x_64_ <= 236
-99 <= x_65_ <= 273
-77 <= x_66_ <= 265
x_67_ = 87
-236 <= x_68_ <= 235
-108 <= x_69_ <= 296
-87 <= x_70_ <= 261
-76 <= x_71_ <= 232
-104 <= x_72_ <= 292
-223 <= x_73_ <= 189
-213 <= x_74_ <= 179
-301 <= x_75_ <= 401
-118 <= x_76_ <= 252
-105 <= x_77_ <= 293
-95 <= x_78_ <= 173
-110 <= x_79_ <= 249
-80 <= x_80_ <= 254
-93 <= x_81_ <= 79
-261 <= x_82_ <= 382
-25 <= x_83_ <= 180
-131 <= x_84_ <= 305
-222 <= x_85_ <= 224
-113 <= x_86_ <= 301
-103 <= x_87_ <= 291
-72 <= x_88_ <= 246
-54 <= x_89_ <= 242
-174 <= x_90_ <= 297
-133 <= x_91_ <= 175
-209 <= x_92_ <= 285
19 <= x_93_ <= 169
-226 <= x_94_ <= 290
-215 <= x_95_ <= 336
-264 <= x_96_ <= 343
-188 <= x_97_ <= 343
-268 <= x_98_ <= 331
-89 <= x_99_ <= 55
-94 <= x_100_ <= 67
1 <= y_1_ <= 103
-104 <= y_2_ <= 251
-82 <= y_3_ <= 150
y_4_ = 52
-66 <= y_5_ <= 179
-138 <= y_6_ <= 217
-333 <= y_7_ <= 349
-170 <= y_8_ <= 304
-51 <= y_9_ <= 215
-183 <= y_10_ <= 287
-109 <= y_11_ <= 222
-141 <= y_12_ <= 245
-51 <= y_13_ <= 155
-244 <= y_14_ <= 348
-110 <= y_15_ <= 274
-205 <= y_16_ <= 309
-184 <= y_17_ <= 228
-122 <= y_18_ <= 102
-224 <= y_19_ <= 305
-135 <= y_20_ <= 237
-170 <= y_21_ <= 238
-200 <= y_22_ <= 269
-224 <= y_23_ <= 328
-150 <= y_24_ <= 263
-135 <= y_25_ <= 239
-117 <= y_26_ <= 221
-92 <= y_27_ <= 256
-196 <= y_28_ <= 329
-101 <= y_29_ <= 205
-222 <= y_30_ <= 266
-59 <= y_31_ <= 163
46 <= y_32_ <= 58
-302 <= y_33_ <= 416
-118 <= y_34_ <= 253
-95 <= y_35_ <= 199
-28 <= y_36_ <= 192
-179 <= y_37_ <= 293
-99 <= y_38_ <= 203
-138 <= y_39_ <= 242
-91 <= y_40_ <= 195
-123 <= y_41_ <= 110
-190 <= y_42_ <= 294
-22 <= y_43_ <= 126
y_44_ = 82
-224 <= y_45_ <= 388
-212 <= y_46_ <= 281
-92 <= y_47_ <= 256
-205 <= y_48_ <= 340
-244 <= y_49_ <= 335
-68 <= y_50_ <= 232
-160 <= y_51_ <= 211
-75 <= y_52_ <= 239
-152 <= y_53_ <= 256
-199 <= y_54_ <= 303
-227 <= y_55_ <= 279
-164 <= y_56_ <= 268
-301 <= y_57_ <= 369
-177 <= y_58_ <= 310
-159 <= y_59_ <= 263
-82 <= y_60_ <= 246
-160 <= y_61_ <= 264
22 <= y_62_ <= 142
-48 <= y_63_ <= 152
-90 <= y_64_ <= 194
-188 <= y_65_ <= 176
-119 <= y_66_ <= 223
y_67_ = -10
-170 <= y_68_ <= 334
-150 <= y_69_ <= 254
-184 <= y_70_ <= 164
-118 <= y_71_ <= 222
-146 <= y_72_ <= 250
-124 <= y_73_ <= 288
-114 <= y_74_ <= 278
-336 <= y_75_ <= 411
-160 <= y_76_ <= 202
-147 <= y_77_ <= 251
-108 <= y_78_ <= 241
-184 <= y_79_ <= 187
-177 <= y_80_ <= 157
-14 <= y_81_ <= 178
-303 <= y_82_ <= 407
-67 <= y_83_ <= 171
-228 <= y_84_ <= 208
-159 <= y_85_ <= 323
-155 <= y_86_ <= 259
-145 <= y_87_ <= 249
-169 <= y_88_ <= 149
-96 <= y_89_ <= 200
-216 <= y_90_ <= 320
-110 <= y_91_ <= 274
-220 <= y_92_ <= 355
-23 <= y_93_ <= 127
-225 <= y_94_ <= 339
-257 <= y_95_ <= 361
-278 <= y_96_ <= 391
-230 <= y_97_ <= 334
-266 <= y_98_ <= 380
10 <= y_99_ <= 154
-2 <= y_100_ <= 166
General
x_1_
x_2_
x_3_
x_4_
x_5_
x_6_
x_7_
x_8_
x_9_
x_10_
x_11_
x_12_
x_13_
x_14_
x_15_
x_16_
x_17_
x_18_
x_19_
x_20_
x_21_
x_22_
x_23_
x_24_
x_25_
x_26_
x_27_
x_28_
x_29_
x_30_
x_31_
x_32_
x_33_
x_34_
x_35_
x_36_
x_37_
x_38_
x_39_
x_40_
x_41_
x_42_
x_43_
x_44_
x_45_
x_46_
x_47_
x_48_
x_49_
x_50_
x_51_
x_52_
x_53_
x_54_
x_55_
x_56_
x_57_
x_58_
x_59_
x_60_
x_61_
x_62_
x_63_
x_64_
x_65_
x_66_
x_67_
x_68_
x_69_
x_70_
x_71_
x_72_
x_73_
x_74_
x_75_
x_76_
x_77_
x_78_
x_79_
x_80_
x_81_
x_82_
x_83_
x_84_
x_85_
x_86_
x_87_
x_88_
x_89_
x_90_
x_91_
x_92_
x_93_
x_94_
x_95_
x_96_
x_97_
x_98_
x_99_
x_100_
y_1_
y_2_
y_3_
y_4_
y_5_
y_6_
y_7_
y_8_
y_9_
y_10_
y_11_
y_12_
y_13_
y_14_
y_15_
y_16_
y_17_
y_18_
y_19_
y_20_
y_21_
y_22_
y_23_
y_24_
y_25_
y_26_
y_27_
y_28_
y_29_
y_30_
y_31_
y_32_
y_33_
y_34_
y_35_
y_36_
y_37_
y_38_
y_39_
y_40_
y_41_
y_42_
y_43_
y_44_
y_45_
y_46_
y_47_
y_48_
y_49_
y_50_
y_51_
y_52_
y_53_
y_54_
y_55_
y_56_
y_57_
y_58_
y_59_
y_60_
y_61_
y_62_
y_63_
y_64_
y_65_
y_66_
y_67_
y_68_
y_69_
y_70_
y_71_
y_72_
y_73_
y_74_
y_75_
y_76_
y_77_
y_78_
y_79_
y_80_
y_81_
y_82_
y_83_
y_84_
y_85_
y_86_
y_87_
y_88_
y_89_
y_90_
y_91_
y_92_
y_93_
y_94_
y_95_
y_96_
y_97_
y_98_
y_99_
y_100_
End
