minimize
obj: 
subject to
c1_3: -1 x_83_ + 1 y_83_ <= 0
c1: [ 1 x_1_ ^ 2 + 1 y_1_ ^ 2 ] <= 22991.17908683987
c2: [ 1 x_2_ ^ 2 + 1 y_2_ ^ 2 ] <= 125219.48858998678
c3: [ 1 x_3_ ^ 2 + 1 y_3_ ^ 2 ] <= 75009.1841240444
c4: [ 1 x_4_ ^ 2 + 1 y_4_ ^ 2 ] <= 8812.250000000002
c5: [ 1 x_5_ ^ 2 + 1 y_5_ ^ 2 ] <= 81929.55453755823
c6: [ 1 x_6_ ^ 2 + 1 y_6_ ^ 2 ] <= 102208.81724850522
c7: [ 1 x_7_ ^ 2 + 1 y_7_ ^ 2 ] <= 75011.3526889506
c8: [ 1 x_8_ ^ 2 + 1 y_8_ ^ 2 ] <= 26835.699999999997
c9: [ 1 x_9_ ^ 2 + 1 y_9_ ^ 2 ] <= 24416.550447703834
c10: [ 1 x_10_ ^ 2 + 1 y_10_ ^ 2 ] <= 53427.18024838933
c11: [ 1 x_12_ ^ 2 + 1 y_12_ ^ 2 ] <= 58798.57051622439
c12: [ 1 x_13_ ^ 2 + 1 y_13_ ^ 2 ] <= 28239.754198080384
c13: [ 1 x_14_ ^ 2 + 1 y_14_ ^ 2 ] <= 41490.506058340856
c14: [ 1 x_15_ ^ 2 + 1 y_15_ ^ 2 ] <= 126173.32735166486
c15: [ 1 x_16_ ^ 2 + 1 y_16_ ^ 2 ] <= 58876.608869946125
c16: [ 1 x_17_ ^ 2 + 1 y_17_ ^ 2 ] <= 46415.55999999999
c17: [ 1 x_18_ ^ 2 + 1 y_18_ ^ 2 ] <= 73332.20027736528
c18: [ 1 x_19_ ^ 2 + 1 y_19_ ^ 2 ] <= 144679.0233870646
c19: [ 1 x_20_ ^ 2 + 1 y_20_ ^ 2 ] <= 3382.49
c20: [ 1 x_21_ ^ 2 + 1 y_21_ ^ 2 ] <= 53215.49635432874
c21: [ 1 x_22_ ^ 2 + 1 y_22_ ^ 2 ] <= 59641.85229817116
c22: [ 1 x_23_ ^ 2 + 1 y_23_ ^ 2 ] <= 33047.23631966195
c23: [ 1 x_24_ ^ 2 + 1 y_24_ ^ 2 ] <= 62493.55451931656
c24: [ 1 x_25_ ^ 2 + 1 y_25_ ^ 2 ] <= 39835.419159952
c25: [ 1 x_26_ ^ 2 + 1 y_26_ ^ 2 ] <= 106728.9276334411
c26: [ 1 x_27_ ^ 2 + 1 y_27_ ^ 2 ] <= 15043.525216948216
c27: [ 1 x_28_ ^ 2 + 1 y_28_ ^ 2 ] <= 7640.649999999999
c28: [ 1 x_29_ ^ 2 + 1 y_29_ ^ 2 ] <= 72216.55900512138
c29: [ 1 x_30_ ^ 2 + 1 y_30_ ^ 2 ] <= 100791.29030102125
c30: [ 1 x_31_ ^ 2 + 1 y_31_ ^ 2 ] <= 109133.7800157807
c31: [ 1 x_32_ ^ 2 + 1 y_32_ ^ 2 ] <= 165469.84023345544
c32: [ 1 x_33_ ^ 2 + 1 y_33_ ^ 2 ] <= 124100.05320512198
c33: [ 1 x_34_ ^ 2 + 1 y_34_ ^ 2 ] <= 81236.80622646834
c34: [ 1 x_35_ ^ 2 + 1 y_35_ ^ 2 ] <= 75419.22739255914
c35: [ 1 x_36_ ^ 2 + 1 y_36_ ^ 2 ] <= 75491.67562400764
c36: [ 1 x_37_ ^ 2 + 1 y_37_ ^ 2 ] <= 86481.01848937398
c37: [ 1 x_38_ ^ 2 + 1 y_38_ ^ 2 ] <= 53432.5524954728
c38: [ 1 x_39_ ^ 2 + 1 y_39_ ^ 2 ] <= 66292.71003236806
c39: [ 1 x_40_ ^ 2 + 1 y_40_ ^ 2 ] <= 122333.1190756611
c40: [ 1 x_41_ ^ 2 + 1 y_41_ ^ 2 ] <= 43357.09125953913
c41: [ 1 x_42_ ^ 2 + 1 y_42_ ^ 2 ] <= 62423.49446563566
c42: [ 1 x_43_ ^ 2 + 1 y_43_ ^ 2 ] <= 136381.95421847716
c43: [ 1 x_44_ ^ 2 + 1 y_44_ ^ 2 ] <= 153124.04555578355
c44: [ 1 x_45_ ^ 2 + 1 y_45_ ^ 2 ] <= 45478.732509059024
c45: [ 1 x_46_ ^ 2 + 1 y_46_ ^ 2 ] <= 92318.42943080024
c46: [ 1 x_47_ ^ 2 + 1 y_47_ ^ 2 ] <= 136306.8087528128
c47: [ 1 x_48_ ^ 2 + 1 y_48_ ^ 2 ] <= 94159.406581814
c48: [ 1 x_49_ ^ 2 + 1 y_49_ ^ 2 ] <= 2767.3999999999996
c49: [ 1 x_50_ ^ 2 + 1 y_50_ ^ 2 ] <= 100707.64671856609
c50: [ 1 x_51_ ^ 2 + 1 y_51_ ^ 2 ] <= 68559.29090377453
c51: [ 1 x_52_ ^ 2 + 1 y_52_ ^ 2 ] <= 96755.29712663991
c52: [ 1 x_53_ ^ 2 + 1 y_53_ ^ 2 ] <= 150580.27237941776
c53: [ 1 x_54_ ^ 2 + 1 y_54_ ^ 2 ] <= 179497.2715862766
c54: [ 1 x_55_ ^ 2 + 1 y_55_ ^ 2 ] <= 25136.56141987654
c55: [ 1 x_56_ ^ 2 + 1 y_56_ ^ 2 ] <= 144908.20830117306
c56: [ 1 x_57_ ^ 2 + 1 y_57_ ^ 2 ] <= 5713.569999999999
c57: [ 1 x_58_ ^ 2 + 1 y_58_ ^ 2 ] <= 54954.2072439009
c58: [ 1 x_59_ ^ 2 + 1 y_59_ ^ 2 ] <= 184342.57922171845
c59: [ 1 x_60_ ^ 2 + 1 y_60_ ^ 2 ] <= 108016.95937889976
c60: [ 1 x_61_ ^ 2 + 1 y_61_ ^ 2 ] <= 77737.79012659007
c61: [ 1 x_62_ ^ 2 + 1 y_62_ ^ 2 ] <= 32469.601799752676
c62: [ 1 x_63_ ^ 2 + 1 y_63_ ^ 2 ] <= 123145.37300218528
c63: [ 1 x_64_ ^ 2 + 1 y_64_ ^ 2 ] <= 80727.59508042739
c64: [ 1 x_65_ ^ 2 + 1 y_65_ ^ 2 ] <= 41829.13117105001
c65: [ 1 x_66_ ^ 2 + 1 y_66_ ^ 2 ] <= 39753.91682688197
c66: [ 1 x_67_ ^ 2 + 1 y_67_ ^ 2 ] <= 89946.86774511362
c67: [ 1 x_68_ ^ 2 + 1 y_68_ ^ 2 ] <= 53895.36125262314
c68: [ 1 x_69_ ^ 2 + 1 y_69_ ^ 2 ] <= 116342.62411841333
c69: [ 1 x_70_ ^ 2 + 1 y_70_ ^ 2 ] <= 45862.297670550826
c70: [ 1 x_71_ ^ 2 + 1 y_71_ ^ 2 ] <= 107870.45163459728
c71: [ 1 x_72_ ^ 2 + 1 y_72_ ^ 2 ] <= 110456.81485818699
c72: [ 1 x_73_ ^ 2 + 1 y_73_ ^ 2 ] <= 55674.89484961384
c73: [ 1 x_74_ ^ 2 + 1 y_74_ ^ 2 ] <= 38078.319368863
c74: [ 1 x_75_ ^ 2 + 1 y_75_ ^ 2 ] <= 40167.97984994416
c75: [ 1 x_76_ ^ 2 + 1 y_76_ ^ 2 ] <= 63428.638071065754
c76: [ 1 x_77_ ^ 2 + 1 y_77_ ^ 2 ] <= 63095.5054168889
c77: [ 1 x_78_ ^ 2 + 1 y_78_ ^ 2 ] <= 54230.60929218845
c78: [ 1 x_79_ ^ 2 + 1 y_79_ ^ 2 ] <= 69984.77733312221
c79: [ 1 x_80_ ^ 2 + 1 y_80_ ^ 2 ] <= 57596.65991026599
c80: [ 1 x_81_ ^ 2 + 1 y_81_ ^ 2 ] <= 56276.39040108976
c81: [ 1 x_82_ ^ 2 + 1 y_82_ ^ 2 ] <= 89946.64000814373
c82: [ 1 x_83_ ^ 2 + 1 y_83_ ^ 2 ] <= 185358.54836039033
c83: [ 1 x_84_ ^ 2 + 1 y_84_ ^ 2 ] <= 104802.92485157853
c84: [ 1 x_85_ ^ 2 + 1 y_85_ ^ 2 ] <= 52584.6765149149
c85: [ 1 x_86_ ^ 2 + 1 y_86_ ^ 2 ] <= 27416.762646237974
c86: [ 1 x_87_ ^ 2 + 1 y_87_ ^ 2 ] <= 73946.31120487361
c87: [ 1 x_88_ ^ 2 + 1 y_88_ ^ 2 ] <= 179896.39072994227
c88: [ 1 x_89_ ^ 2 + 1 y_89_ ^ 2 ] <= 178865.06671126036
c89: [ 1 x_90_ ^ 2 + 1 y_90_ ^ 2 ] <= 72840.8013051427
c90: [ 1 x_91_ ^ 2 + 1 y_91_ ^ 2 ] <= 169657.25177518724
c91: [ 1 x_92_ ^ 2 + 1 y_92_ ^ 2 ] <= 131515.96011866766
c92: [ 1 x_93_ ^ 2 + 1 y_93_ ^ 2 ] <= 147741.6072044659
c93: [ 1 x_94_ ^ 2 + 1 y_94_ ^ 2 ] <= 49850.44161868145
c94: [ 1 x_95_ ^ 2 + 1 y_95_ ^ 2 ] <= 11760.707792699988
c95: [ 1 x_96_ ^ 2 + 1 y_96_ ^ 2 ] <= 176287.95223260485
c96: [ 1 x_97_ ^ 2 + 1 y_97_ ^ 2 ] <= 24049.46380970634
c97: [ 1 x_98_ ^ 2 + 1 y_98_ ^ 2 ] <= 33930.34140065921
c98: [ 1 x_99_ ^ 2 + 1 y_99_ ^ 2 ] <= 146251.17629707832
c99: [ 1 x_100_ ^ 2 + 1 y_100_ ^ 2 ] <= 16433.76412986404
quadratic_ranged_1_ub: [ 1 x_1_ ^ 2 - 2 x_3_ * x_1_ + 1 x_3_ ^ 2 + 1 y_1_ ^ 2 - 2 y_3_ * y_1_ + 1 y_3_ ^ 2 ] <= 14944.97
quadratic_ranged_2_ub: [ 1 x_5_ ^ 2 - 2 x_6_ * x_5_ + 1 x_6_ ^ 2 + 1 y_5_ ^ 2 - 2 y_6_ * y_5_ + 1 y_6_ ^ 2 ] <= 1120.09
quadratic_ranged_3_ub: [ 1 x_2_ ^ 2 - 2 x_7_ * x_2_ + 1 x_7_ ^ 2 + 1 y_2_ ^ 2 - 2 y_7_ * y_2_ + 1 y_7_ ^ 2 ] <= 11063.54
quadratic_ranged_4_ub: [ 1 x_1_ ^ 2 - 2 x_10_ * x_1_ + 1 x_10_ ^ 2 + 1 y_1_ ^ 2 - 2 y_10_ * y_1_ + 1 y_10_ ^ 2 ] <= 6322.6
quadratic_ranged_5_ub: [ 1 x_4_ ^ 2 - 2 x_11_ * x_4_ + 1 x_11_ ^ 2 + 1 y_4_ ^ 2 - 2 y_11_ * y_4_ + 1 y_11_ ^ 2 ] <= 8812.25
quadratic_ranged_6_ub: [ 1 x_8_ ^ 2 - 2 x_11_ * x_8_ + 1 x_11_ ^ 2 + 1 y_8_ ^ 2 - 2 y_11_ * y_8_ + 1 y_11_ ^ 2 ] <= 26835.7
quadratic_ranged_7_ub: [ 1 x_7_ ^ 2 - 2 x_15_ * x_7_ + 1 x_15_ ^ 2 + 1 y_7_ ^ 2 - 2 y_15_ * y_7_ + 1 y_15_ ^ 2 ] <= 19623.29
quadratic_ranged_8_ub: [ 1 x_14_ ^ 2 - 2 x_15_ * x_14_ + 1 x_15_ ^ 2 + 1 y_14_ ^ 2 - 2 y_15_ * y_14_ + 1 y_15_ ^ 2 ] <= 22957.3
quadratic_ranged_9_ub: [ 1 x_2_ ^ 2 - 2 x_16_ * x_2_ + 1 x_16_ ^ 2 + 1 y_2_ ^ 2 - 2 y_16_ * y_2_ + 1 y_16_ ^ 2 ] <= 16533.7
quadratic_ranged_10_ub: [ 1 x_11_ ^ 2 - 2 x_17_ * x_11_ + 1 x_17_ ^ 2 + 1 y_11_ ^ 2 - 2 y_17_ * y_11_ + 1 y_17_ ^ 2 ] <= 46415.56
quadratic_ranged_11_ub: [ 1 x_7_ ^ 2 - 2 x_18_ * x_7_ + 1 x_18_ ^ 2 + 1 y_7_ ^ 2 - 2 y_18_ * y_7_ + 1 y_18_ ^ 2 ] <= 161.6
quadratic_ranged_12_ub: [ 1 x_17_ ^ 2 - 2 x_18_ * x_17_ + 1 x_18_ ^ 2 + 1 y_17_ ^ 2 - 2 y_18_ * y_17_ + 1 y_18_ ^ 2 ] <= 3064.34
quadratic_ranged_13_ub: [ 1 x_1_ ^ 2 - 2 x_20_ * x_1_ + 1 x_20_ ^ 2 + 1 y_1_ ^ 2 - 2 y_20_ * y_1_ + 1 y_20_ ^ 2 ] <= 8736.5
quadratic_ranged_14_ub: [ 1 x_4_ ^ 2 - 2 x_20_ * x_4_ + 1 x_20_ ^ 2 + 1 y_4_ ^ 2 - 2 y_20_ * y_4_ + 1 y_20_ ^ 2 ] <= 1900.82
quadratic_ranged_15_ub: [ 1 x_11_ ^ 2 - 2 x_20_ * x_11_ + 1 x_20_ ^ 2 + 1 y_11_ ^ 2 - 2 y_20_ * y_11_ + 1 y_20_ ^ 2 ] <= 3382.4900000000002
quadratic_ranged_16_ub: [ 1 x_4_ ^ 2 - 2 x_21_ * x_4_ + 1 x_21_ ^ 2 + 1 y_4_ ^ 2 - 2 y_21_ * y_4_ + 1 y_21_ ^ 2 ] <= 18717.32
quadratic_ranged_17_ub: [ 1 x_20_ ^ 2 - 2 x_21_ * x_20_ + 1 x_21_ ^ 2 + 1 y_20_ ^ 2 - 2 y_21_ * y_20_ + 1 y_21_ ^ 2 ] <= 31562.5
quadratic_ranged_18_ub: [ 1 x_14_ ^ 2 - 2 x_22_ * x_14_ + 1 x_22_ ^ 2 + 1 y_14_ ^ 2 - 2 y_22_ * y_14_ + 1 y_22_ ^ 2 ] <= 13502.69
quadratic_ranged_19_ub: [ 1 x_20_ ^ 2 - 2 x_23_ * x_20_ + 1 x_23_ ^ 2 + 1 y_20_ ^ 2 - 2 y_23_ * y_20_ + 1 y_23_ ^ 2 ] <= 15284.33
quadratic_ranged_20_ub: [ 1 x_6_ ^ 2 - 2 x_24_ * x_6_ + 1 x_24_ ^ 2 + 1 y_6_ ^ 2 - 2 y_24_ * y_6_ + 1 y_24_ ^ 2 ] <= 33415.85
quadratic_ranged_21_ub: [ 1 x_14_ ^ 2 - 2 x_24_ * x_14_ + 1 x_24_ ^ 2 + 1 y_14_ ^ 2 - 2 y_24_ * y_14_ + 1 y_24_ ^ 2 ] <= 2143.22
quadratic_ranged_22_ub: [ 1 x_13_ ^ 2 - 2 x_25_ * x_13_ + 1 x_25_ ^ 2 + 1 y_13_ ^ 2 - 2 y_25_ * y_13_ + 1 y_25_ ^ 2 ] <= 994.85
quadratic_ranged_23_ub: [ 1 x_22_ ^ 2 - 2 x_25_ * x_22_ + 1 x_25_ ^ 2 + 1 y_22_ ^ 2 - 2 y_25_ * y_22_ + 1 y_25_ ^ 2 ] <= 1991.72
quadratic_ranged_24_ub: [ 1 x_6_ ^ 2 - 2 x_26_ * x_6_ + 1 x_26_ ^ 2 + 1 y_6_ ^ 2 - 2 y_26_ * y_6_ + 1 y_26_ ^ 2 ] <= 283.81
quadratic_ranged_25_ub: [ 1 x_4_ ^ 2 - 2 x_27_ * x_4_ + 1 x_27_ ^ 2 + 1 y_4_ ^ 2 - 2 y_27_ * y_4_ + 1 y_27_ ^ 2 ] <= 828.2
quadratic_ranged_26_ub: [ 1 x_9_ ^ 2 - 2 x_28_ * x_9_ + 1 x_28_ ^ 2 + 1 y_9_ ^ 2 - 2 y_28_ * y_9_ + 1 y_28_ ^ 2 ] <= 4739.93
quadratic_ranged_27_ub: [ 1 x_11_ ^ 2 - 2 x_28_ * x_11_ + 1 x_28_ ^ 2 + 1 y_11_ ^ 2 - 2 y_28_ * y_11_ + 1 y_28_ ^ 2 ] <= 7640.65
quadratic_ranged_28_ub: [ 1 x_8_ ^ 2 - 2 x_29_ * x_8_ + 1 x_29_ ^ 2 + 1 y_8_ ^ 2 - 2 y_29_ * y_8_ + 1 y_29_ ^ 2 ] <= 25411.6
quadratic_ranged_29_ub: [ 1 x_13_ ^ 2 - 2 x_29_ * x_13_ + 1 x_29_ ^ 2 + 1 y_13_ ^ 2 - 2 y_29_ * y_13_ + 1 y_29_ ^ 2 ] <= 10137.37
quadratic_ranged_30_ub: [ 1 x_19_ ^ 2 - 2 x_29_ * x_19_ + 1 x_29_ ^ 2 + 1 y_19_ ^ 2 - 2 y_29_ * y_19_ + 1 y_29_ ^ 2 ] <= 19945.48
quadratic_ranged_31_ub: [ 1 x_3_ ^ 2 - 2 x_30_ * x_3_ + 1 x_30_ ^ 2 + 1 y_3_ ^ 2 - 2 y_30_ * y_3_ + 1 y_30_ ^ 2 ] <= 1900.82
quadratic_ranged_32_ub: [ 1 x_12_ ^ 2 - 2 x_31_ * x_12_ + 1 x_31_ ^ 2 + 1 y_12_ ^ 2 - 2 y_31_ * y_12_ + 1 y_31_ ^ 2 ] <= 24450.08
quadratic_ranged_33_ub: [ 1 x_23_ ^ 2 - 2 x_31_ * x_23_ + 1 x_31_ ^ 2 + 1 y_23_ ^ 2 - 2 y_31_ * y_23_ + 1 y_31_ ^ 2 ] <= 22674.5
quadratic_ranged_34_ub: [ 1 x_2_ ^ 2 - 2 x_32_ * x_2_ + 1 x_32_ ^ 2 + 1 y_2_ ^ 2 - 2 y_32_ * y_2_ + 1 y_32_ ^ 2 ] <= 29420.29
quadratic_ranged_35_ub: [ 1 x_30_ ^ 2 - 2 x_32_ * x_30_ + 1 x_32_ ^ 2 + 1 y_30_ ^ 2 - 2 y_32_ * y_30_ + 1 y_32_ ^ 2 ] <= 25970.13
quadratic_ranged_36_ub: [ 1 x_19_ ^ 2 - 2 x_33_ * x_19_ + 1 x_33_ ^ 2 + 1 y_19_ ^ 2 - 2 y_33_ * y_19_ + 1 y_33_ ^ 2 ] <= 24920.74
quadratic_ranged_37_ub: [ 1 x_32_ ^ 2 - 2 x_33_ * x_32_ + 1 x_33_ ^ 2 + 1 y_32_ ^ 2 - 2 y_33_ * y_32_ + 1 y_33_ ^ 2 ] <= 2970.41
quadratic_ranged_38_ub: [ 1 x_3_ ^ 2 - 2 x_34_ * x_3_ + 1 x_34_ ^ 2 + 1 y_3_ ^ 2 - 2 y_34_ * y_3_ + 1 y_34_ ^ 2 ] <= 19432.4
quadratic_ranged_39_ub: [ 1 x_10_ ^ 2 - 2 x_35_ * x_10_ + 1 x_35_ ^ 2 + 1 y_10_ ^ 2 - 2 y_35_ * y_10_ + 1 y_35_ ^ 2 ] <= 1890.72
quadratic_ranged_40_ub: [ 1 x_16_ ^ 2 - 2 x_36_ * x_16_ + 1 x_36_ ^ 2 + 1 y_16_ ^ 2 - 2 y_36_ * y_16_ + 1 y_36_ ^ 2 ] <= 1031.21
quadratic_ranged_41_ub: [ 1 x_29_ ^ 2 - 2 x_37_ * x_29_ + 1 x_37_ ^ 2 + 1 y_29_ ^ 2 - 2 y_37_ * y_29_ + 1 y_37_ ^ 2 ] <= 34167.29
quadratic_ranged_42_ub: [ 1 x_9_ ^ 2 - 2 x_38_ * x_9_ + 1 x_38_ ^ 2 + 1 y_9_ ^ 2 - 2 y_38_ * y_9_ + 1 y_38_ ^ 2 ] <= 5609.54
quadratic_ranged_43_ub: [ 1 x_4_ ^ 2 - 2 x_39_ * x_4_ + 1 x_39_ ^ 2 + 1 y_4_ ^ 2 - 2 y_39_ * y_4_ + 1 y_39_ ^ 2 ] <= 26765
quadratic_ranged_44_ub: [ 1 x_26_ ^ 2 - 2 x_39_ * x_26_ + 1 x_39_ ^ 2 + 1 y_26_ ^ 2 - 2 y_39_ * y_26_ + 1 y_39_ ^ 2 ] <= 4791.44
quadratic_ranged_45_ub: [ 1 x_35_ ^ 2 - 2 x_39_ * x_35_ + 1 x_39_ ^ 2 + 1 y_35_ ^ 2 - 2 y_39_ * y_35_ + 1 y_39_ ^ 2 ] <= 4217.76
quadratic_ranged_46_ub: [ 1 x_12_ ^ 2 - 2 x_40_ * x_12_ + 1 x_40_ ^ 2 + 1 y_12_ ^ 2 - 2 y_40_ * y_12_ + 1 y_40_ ^ 2 ] <= 14230.9
quadratic_ranged_47_ub: [ 1 x_14_ ^ 2 - 2 x_40_ * x_14_ + 1 x_40_ ^ 2 + 1 y_14_ ^ 2 - 2 y_40_ * y_14_ + 1 y_40_ ^ 2 ] <= 21336.25
quadratic_ranged_48_ub: [ 1 x_2_ ^ 2 - 2 x_41_ * x_2_ + 1 x_41_ ^ 2 + 1 y_2_ ^ 2 - 2 y_41_ * y_2_ + 1 y_41_ ^ 2 ] <= 21211.01
quadratic_ranged_49_ub: [ 1 x_27_ ^ 2 - 2 x_41_ * x_27_ + 1 x_41_ ^ 2 + 1 y_27_ ^ 2 - 2 y_41_ * y_27_ + 1 y_41_ ^ 2 ] <= 7322.5
quadratic_ranged_50_ub: [ 1 x_10_ ^ 2 - 2 x_42_ * x_10_ + 1 x_42_ ^ 2 + 1 y_10_ ^ 2 - 2 y_42_ * y_10_ + 1 y_42_ ^ 2 ] <= 28293.13
quadratic_ranged_51_ub: [ 1 x_13_ ^ 2 - 2 x_42_ * x_13_ + 1 x_42_ ^ 2 + 1 y_13_ ^ 2 - 2 y_42_ * y_13_ + 1 y_42_ ^ 2 ] <= 6691.25
quadratic_ranged_52_ub: [ 1 x_12_ ^ 2 - 2 x_43_ * x_12_ + 1 x_43_ ^ 2 + 1 y_12_ ^ 2 - 2 y_43_ * y_12_ + 1 y_43_ ^ 2 ] <= 17899.22
quadratic_ranged_53_ub: [ 1 x_3_ ^ 2 - 2 x_44_ * x_3_ + 1 x_44_ ^ 2 + 1 y_3_ ^ 2 - 2 y_44_ * y_3_ + 1 y_44_ ^ 2 ] <= 28768.84
quadratic_ranged_54_ub: [ 1 x_25_ ^ 2 - 2 x_45_ * x_25_ + 1 x_45_ ^ 2 + 1 y_25_ ^ 2 - 2 y_45_ * y_25_ + 1 y_45_ ^ 2 ] <= 186.85
quadratic_ranged_55_ub: [ 1 x_29_ ^ 2 - 2 x_46_ * x_29_ + 1 x_46_ ^ 2 + 1 y_29_ ^ 2 - 2 y_46_ * y_29_ + 1 y_46_ ^ 2 ] <= 17796.2
quadratic_ranged_56_ub: [ 1 x_35_ ^ 2 - 2 x_46_ * x_35_ + 1 x_46_ ^ 2 + 1 y_35_ ^ 2 - 2 y_46_ * y_35_ + 1 y_46_ ^ 2 ] <= 853.45
quadratic_ranged_57_ub: [ 1 x_14_ ^ 2 - 2 x_48_ * x_14_ + 1 x_48_ ^ 2 + 1 y_14_ ^ 2 - 2 y_48_ * y_14_ + 1 y_48_ ^ 2 ] <= 10642.37
quadratic_ranged_58_ub: [ 1 x_26_ ^ 2 - 2 x_48_ * x_26_ + 1 x_48_ ^ 2 + 1 y_26_ ^ 2 - 2 y_48_ * y_26_ + 1 y_48_ ^ 2 ] <= 1758.41
quadratic_ranged_59_ub: [ 1 x_11_ ^ 2 - 2 x_49_ * x_11_ + 1 x_49_ ^ 2 + 1 y_11_ ^ 2 - 2 y_49_ * y_11_ + 1 y_49_ ^ 2 ] <= 2767.4
quadratic_ranged_60_ub: [ 1 x_14_ ^ 2 - 2 x_49_ * x_14_ + 1 x_49_ ^ 2 + 1 y_14_ ^ 2 - 2 y_49_ * y_14_ + 1 y_49_ ^ 2 ] <= 22827.01
quadratic_ranged_61_ub: [ 1 x_14_ ^ 2 - 2 x_50_ * x_14_ + 1 x_50_ ^ 2 + 1 y_14_ ^ 2 - 2 y_50_ * y_14_ + 1 y_50_ ^ 2 ] <= 12916.89
quadratic_ranged_62_ub: [ 1 x_40_ ^ 2 - 2 x_50_ * x_40_ + 1 x_50_ ^ 2 + 1 y_40_ ^ 2 - 2 y_50_ * y_40_ + 1 y_50_ ^ 2 ] <= 6764.9800000000005
quadratic_ranged_63_ub: [ 1 x_46_ ^ 2 - 2 x_50_ * x_46_ + 1 x_50_ ^ 2 + 1 y_46_ ^ 2 - 2 y_50_ * y_46_ + 1 y_50_ ^ 2 ] <= 18190.1
quadratic_ranged_64_ub: [ 1 x_14_ ^ 2 - 2 x_51_ * x_14_ + 1 x_51_ ^ 2 + 1 y_14_ ^ 2 - 2 y_51_ * y_14_ + 1 y_51_ ^ 2 ] <= 15926.69
quadratic_ranged_65_ub: [ 1 x_27_ ^ 2 - 2 x_51_ * x_27_ + 1 x_51_ ^ 2 + 1 y_27_ ^ 2 - 2 y_51_ * y_27_ + 1 y_51_ ^ 2 ] <= 19372.81
quadratic_ranged_66_ub: [ 1 x_34_ ^ 2 - 2 x_51_ * x_34_ + 1 x_51_ ^ 2 + 1 y_34_ ^ 2 - 2 y_51_ * y_34_ + 1 y_51_ ^ 2 ] <= 26005.48
quadratic_ranged_67_ub: [ 1 x_2_ ^ 2 - 2 x_52_ * x_2_ + 1 x_52_ ^ 2 + 1 y_2_ ^ 2 - 2 y_52_ * y_2_ + 1 y_52_ ^ 2 ] <= 6118.58
quadratic_ranged_68_ub: [ 1 x_46_ ^ 2 - 2 x_52_ * x_46_ + 1 x_52_ ^ 2 + 1 y_46_ ^ 2 - 2 y_52_ * y_46_ + 1 y_52_ ^ 2 ] <= 2476.52
quadratic_ranged_69_ub: [ 1 x_17_ ^ 2 - 2 x_53_ * x_17_ + 1 x_53_ ^ 2 + 1 y_17_ ^ 2 - 2 y_53_ * y_17_ + 1 y_53_ ^ 2 ] <= 31658.45
quadratic_ranged_70_ub: [ 1 x_25_ ^ 2 - 2 x_53_ * x_25_ + 1 x_53_ ^ 2 + 1 y_25_ ^ 2 - 2 y_53_ * y_25_ + 1 y_53_ ^ 2 ] <= 35516.65
quadratic_ranged_71_ub: [ 1 x_6_ ^ 2 - 2 x_54_ * x_6_ + 1 x_54_ ^ 2 + 1 y_6_ ^ 2 - 2 y_54_ * y_6_ + 1 y_54_ ^ 2 ] <= 26310.5
quadratic_ranged_72_ub: [ 1 x_15_ ^ 2 - 2 x_54_ * x_15_ + 1 x_54_ ^ 2 + 1 y_15_ ^ 2 - 2 y_54_ * y_15_ + 1 y_54_ ^ 2 ] <= 26774.09
quadratic_ranged_73_ub: [ 1 x_47_ ^ 2 - 2 x_54_ * x_47_ + 1 x_54_ ^ 2 + 1 y_47_ ^ 2 - 2 y_54_ * y_47_ + 1 y_54_ ^ 2 ] <= 2967.38
quadratic_ranged_74_ub: [ 1 x_4_ ^ 2 - 2 x_55_ * x_4_ + 1 x_55_ ^ 2 + 1 y_4_ ^ 2 - 2 y_55_ * y_4_ + 1 y_55_ ^ 2 ] <= 4182.41
quadratic_ranged_75_ub: [ 1 x_12_ ^ 2 - 2 x_55_ * x_12_ + 1 x_55_ ^ 2 + 1 y_12_ ^ 2 - 2 y_55_ * y_12_ + 1 y_55_ ^ 2 ] <= 7045.76
quadratic_ranged_76_ub: [ 1 x_42_ ^ 2 - 2 x_55_ * x_42_ + 1 x_55_ ^ 2 + 1 y_42_ ^ 2 - 2 y_55_ * y_42_ + 1 y_55_ ^ 2 ] <= 8445.62
quadratic_ranged_77_ub: [ 1 x_36_ ^ 2 - 2 x_56_ * x_36_ + 1 x_56_ ^ 2 + 1 y_36_ ^ 2 - 2 y_56_ * y_36_ + 1 y_56_ ^ 2 ] <= 11217.06
quadratic_ranged_78_ub: [ 1 x_43_ ^ 2 - 2 x_56_ * x_43_ + 1 x_56_ ^ 2 + 1 y_43_ ^ 2 - 2 y_56_ * y_43_ + 1 y_56_ ^ 2 ] <= 14864.17
quadratic_ranged_79_ub: [ 1 x_1_ ^ 2 - 2 x_57_ * x_1_ + 1 x_57_ ^ 2 + 1 y_1_ ^ 2 - 2 y_57_ * y_1_ + 1 y_57_ ^ 2 ] <= 12008.9
quadratic_ranged_80_ub: [ 1 x_11_ ^ 2 - 2 x_57_ * x_11_ + 1 x_57_ ^ 2 + 1 y_11_ ^ 2 - 2 y_57_ * y_11_ + 1 y_57_ ^ 2 ] <= 5713.57
quadratic_ranged_81_ub: [ 1 x_8_ ^ 2 - 2 x_58_ * x_8_ + 1 x_58_ ^ 2 + 1 y_8_ ^ 2 - 2 y_58_ * y_8_ + 1 y_58_ ^ 2 ] <= 4985.36
quadratic_ranged_82_ub: [ 1 x_14_ ^ 2 - 2 x_58_ * x_14_ + 1 x_58_ ^ 2 + 1 y_14_ ^ 2 - 2 y_58_ * y_14_ + 1 y_58_ ^ 2 ] <= 20083.85
quadratic_ranged_83_ub: [ 1 x_44_ ^ 2 - 2 x_58_ * x_44_ + 1 x_58_ ^ 2 + 1 y_44_ ^ 2 - 2 y_58_ * y_44_ + 1 y_58_ ^ 2 ] <= 24613.7
quadratic_ranged_84_ub: [ 1 x_18_ ^ 2 - 2 x_59_ * x_18_ + 1 x_59_ ^ 2 + 1 y_18_ ^ 2 - 2 y_59_ * y_18_ + 1 y_59_ ^ 2 ] <= 29479.88
quadratic_ranged_85_ub: [ 1 x_24_ ^ 2 - 2 x_59_ * x_24_ + 1 x_59_ ^ 2 + 1 y_24_ ^ 2 - 2 y_59_ * y_24_ + 1 y_59_ ^ 2 ] <= 32171.53
quadratic_ranged_86_ub: [ 1 x_37_ ^ 2 - 2 x_59_ * x_37_ + 1 x_59_ ^ 2 + 1 y_37_ ^ 2 - 2 y_59_ * y_37_ + 1 y_59_ ^ 2 ] <= 26438.77
quadratic_ranged_87_ub: [ 1 x_2_ ^ 2 - 2 x_60_ * x_2_ + 1 x_60_ ^ 2 + 1 y_2_ ^ 2 - 2 y_60_ * y_2_ + 1 y_60_ ^ 2 ] <= 6448.85
quadratic_ranged_88_ub: [ 1 x_31_ ^ 2 - 2 x_60_ * x_31_ + 1 x_60_ ^ 2 + 1 y_31_ ^ 2 - 2 y_60_ * y_31_ + 1 y_60_ ^ 2 ] <= 18063.85
quadratic_ranged_89_ub: [ 1 x_38_ ^ 2 - 2 x_60_ * x_38_ + 1 x_60_ ^ 2 + 1 y_38_ ^ 2 - 2 y_60_ * y_38_ + 1 y_60_ ^ 2 ] <= 9507.13
quadratic_ranged_90_ub: [ 1 x_36_ ^ 2 - 2 x_61_ * x_36_ + 1 x_61_ ^ 2 + 1 y_36_ ^ 2 - 2 y_61_ * y_36_ + 1 y_61_ ^ 2 ] <= 37430.6
quadratic_ranged_91_ub: [ 1 x_38_ ^ 2 - 2 x_61_ * x_38_ + 1 x_61_ ^ 2 + 1 y_38_ ^ 2 - 2 y_61_ * y_38_ + 1 y_61_ ^ 2 ] <= 2271.4900000000002
quadratic_ranged_92_ub: [ 1 x_53_ ^ 2 - 2 x_61_ * x_53_ + 1 x_61_ ^ 2 + 1 y_53_ ^ 2 - 2 y_61_ * y_53_ + 1 y_61_ ^ 2 ] <= 12614.9
quadratic_ranged_93_ub: [ 1 x_34_ ^ 2 - 2 x_62_ * x_34_ + 1 x_62_ ^ 2 + 1 y_34_ ^ 2 - 2 y_62_ * y_34_ + 1 y_62_ ^ 2 ] <= 10988.8
quadratic_ranged_94_ub: [ 1 x_37_ ^ 2 - 2 x_62_ * x_37_ + 1 x_62_ ^ 2 + 1 y_37_ ^ 2 - 2 y_62_ * y_37_ + 1 y_62_ ^ 2 ] <= 12969.41
quadratic_ranged_95_ub: [ 1 x_55_ ^ 2 - 2 x_62_ * x_55_ + 1 x_62_ ^ 2 + 1 y_55_ ^ 2 - 2 y_62_ * y_55_ + 1 y_62_ ^ 2 ] <= 468.64
quadratic_ranged_96_ub: [ 1 x_12_ ^ 2 - 2 x_63_ * x_12_ + 1 x_63_ ^ 2 + 1 y_12_ ^ 2 - 2 y_63_ * y_12_ + 1 y_63_ ^ 2 ] <= 12314.93
quadratic_ranged_97_ub: [ 1 x_16_ ^ 2 - 2 x_63_ * x_16_ + 1 x_63_ ^ 2 + 1 y_16_ ^ 2 - 2 y_63_ * y_16_ + 1 y_63_ ^ 2 ] <= 14532.89
quadratic_ranged_98_ub: [ 1 x_22_ ^ 2 - 2 x_63_ * x_22_ + 1 x_63_ ^ 2 + 1 y_22_ ^ 2 - 2 y_63_ * y_22_ + 1 y_63_ ^ 2 ] <= 11385.73
quadratic_ranged_99_ub: [ 1 x_3_ ^ 2 - 2 x_64_ * x_3_ + 1 x_64_ ^ 2 + 1 y_3_ ^ 2 - 2 y_64_ * y_3_ + 1 y_64_ ^ 2 ] <= 12479.56
quadratic_ranged_100_ub: [ 1 x_1_ ^ 2 - 2 x_65_ * x_1_ + 1 x_65_ ^ 2 + 1 y_1_ ^ 2 - 2 y_65_ * y_1_ + 1 y_65_ ^ 2 ] <= 2797.7
quadratic_ranged_101_ub: [ 1 x_31_ ^ 2 - 2 x_65_ * x_31_ + 1 x_65_ ^ 2 + 1 y_31_ ^ 2 - 2 y_65_ * y_31_ + 1 y_65_ ^ 2 ] <= 15833.77
quadratic_ranged_102_ub: [ 1 x_52_ ^ 2 - 2 x_65_ * x_52_ + 1 x_65_ ^ 2 + 1 y_52_ ^ 2 - 2 y_65_ * y_52_ + 1 y_65_ ^ 2 ] <= 11349.37
quadratic_ranged_103_ub: [ 1 x_1_ ^ 2 - 2 x_66_ * x_1_ + 1 x_66_ ^ 2 + 1 y_1_ ^ 2 - 2 y_66_ * y_1_ + 1 y_66_ ^ 2 ] <= 2280.58
quadratic_ranged_104_ub: [ 1 x_16_ ^ 2 - 2 x_66_ * x_16_ + 1 x_66_ ^ 2 + 1 y_16_ ^ 2 - 2 y_66_ * y_16_ + 1 y_66_ ^ 2 ] <= 1871.53
quadratic_ranged_105_ub: [ 1 x_9_ ^ 2 - 2 x_67_ * x_9_ + 1 x_67_ ^ 2 + 1 y_9_ ^ 2 - 2 y_67_ * y_9_ + 1 y_67_ ^ 2 ] <= 20636.32
quadratic_ranged_106_ub: [ 1 x_10_ ^ 2 - 2 x_67_ * x_10_ + 1 x_67_ ^ 2 + 1 y_10_ ^ 2 - 2 y_67_ * y_10_ + 1 y_67_ ^ 2 ] <= 10278.77
quadratic_ranged_107_ub: [ 1 x_38_ ^ 2 - 2 x_67_ * x_38_ + 1 x_67_ ^ 2 + 1 y_38_ ^ 2 - 2 y_67_ * y_38_ + 1 y_67_ ^ 2 ] <= 7524.5
quadratic_ranged_108_ub: [ 1 x_13_ ^ 2 - 2 x_68_ * x_13_ + 1 x_68_ ^ 2 + 1 y_13_ ^ 2 - 2 y_68_ * y_13_ + 1 y_68_ ^ 2 ] <= 4109.69
quadratic_ranged_109_ub: [ 1 x_39_ ^ 2 - 2 x_68_ * x_39_ + 1 x_68_ ^ 2 + 1 y_39_ ^ 2 - 2 y_68_ * y_39_ + 1 y_68_ ^ 2 ] <= 7313.41
quadratic_ranged_110_ub: [ 1 x_6_ ^ 2 - 2 x_69_ * x_6_ + 1 x_69_ ^ 2 + 1 y_6_ ^ 2 - 2 y_69_ * y_6_ + 1 y_69_ ^ 2 ] <= 20307.06
quadratic_ranged_111_ub: [ 1 x_52_ ^ 2 - 2 x_69_ * x_52_ + 1 x_69_ ^ 2 + 1 y_52_ ^ 2 - 2 y_69_ * y_52_ + 1 y_69_ ^ 2 ] <= 12285.64
quadratic_ranged_112_ub: [ 1 x_60_ ^ 2 - 2 x_69_ * x_60_ + 1 x_69_ ^ 2 + 1 y_60_ ^ 2 - 2 y_69_ * y_60_ + 1 y_69_ ^ 2 ] <= 154.53
quadratic_ranged_113_ub: [ 1 x_1_ ^ 2 - 2 x_70_ * x_1_ + 1 x_70_ ^ 2 + 1 y_1_ ^ 2 - 2 y_70_ * y_1_ + 1 y_70_ ^ 2 ] <= 9470.77
quadratic_ranged_114_ub: [ 1 x_28_ ^ 2 - 2 x_70_ * x_28_ + 1 x_70_ ^ 2 + 1 y_28_ ^ 2 - 2 y_70_ * y_28_ + 1 y_70_ ^ 2 ] <= 16064.05
quadratic_ranged_115_ub: [ 1 x_30_ ^ 2 - 2 x_70_ * x_30_ + 1 x_70_ ^ 2 + 1 y_30_ ^ 2 - 2 y_70_ * y_30_ + 1 y_70_ ^ 2 ] <= 30786.82
quadratic_ranged_116_ub: [ 1 x_15_ ^ 2 - 2 x_71_ * x_15_ + 1 x_71_ ^ 2 + 1 y_15_ ^ 2 - 2 y_71_ * y_15_ + 1 y_71_ ^ 2 ] <= 8085.05
quadratic_ranged_117_ub: [ 1 x_38_ ^ 2 - 2 x_71_ * x_38_ + 1 x_71_ ^ 2 + 1 y_38_ ^ 2 - 2 y_71_ * y_38_ + 1 y_71_ ^ 2 ] <= 9463.7
quadratic_ranged_118_ub: [ 1 x_52_ ^ 2 - 2 x_72_ * x_52_ + 1 x_72_ ^ 2 + 1 y_52_ ^ 2 - 2 y_72_ * y_52_ + 1 y_72_ ^ 2 ] <= 453.49
quadratic_ranged_119_ub: [ 1 x_69_ ^ 2 - 2 x_72_ * x_69_ + 1 x_72_ ^ 2 + 1 y_69_ ^ 2 - 2 y_72_ * y_69_ + 1 y_72_ ^ 2 ] <= 13971.33
quadratic_ranged_120_ub: [ 1 x_55_ ^ 2 - 2 x_73_ * x_55_ + 1 x_73_ ^ 2 + 1 y_55_ ^ 2 - 2 y_73_ * y_55_ + 1 y_73_ ^ 2 ] <= 5992.33
quadratic_ranged_121_ub: [ 1 x_64_ ^ 2 - 2 x_73_ * x_64_ + 1 x_73_ ^ 2 + 1 y_64_ ^ 2 - 2 y_73_ * y_64_ + 1 y_73_ ^ 2 ] <= 12727.01
quadratic_ranged_122_ub: [ 1 x_72_ ^ 2 - 2 x_73_ * x_72_ + 1 x_73_ ^ 2 + 1 y_72_ ^ 2 - 2 y_73_ * y_72_ + 1 y_73_ ^ 2 ] <= 15675.2
quadratic_ranged_123_ub: [ 1 x_16_ ^ 2 - 2 x_74_ * x_16_ + 1 x_74_ ^ 2 + 1 y_16_ ^ 2 - 2 y_74_ * y_16_ + 1 y_74_ ^ 2 ] <= 14464.210000000001
quadratic_ranged_124_ub: [ 1 x_27_ ^ 2 - 2 x_74_ * x_27_ + 1 x_74_ ^ 2 + 1 y_27_ ^ 2 - 2 y_74_ * y_27_ + 1 y_74_ ^ 2 ] <= 5254.02
quadratic_ranged_125_ub: [ 1 x_1_ ^ 2 - 2 x_75_ * x_1_ + 1 x_75_ ^ 2 + 1 y_1_ ^ 2 - 2 y_75_ * y_1_ + 1 y_75_ ^ 2 ] <= 2380.57
quadratic_ranged_126_ub: [ 1 x_17_ ^ 2 - 2 x_75_ * x_17_ + 1 x_75_ ^ 2 + 1 y_17_ ^ 2 - 2 y_75_ * y_17_ + 1 y_75_ ^ 2 ] <= 4476.32
quadratic_ranged_127_ub: [ 1 x_41_ ^ 2 - 2 x_75_ * x_41_ + 1 x_75_ ^ 2 + 1 y_41_ ^ 2 - 2 y_75_ * y_41_ + 1 y_75_ ^ 2 ] <= 2954.25
quadratic_ranged_128_ub: [ 1 x_1_ ^ 2 - 2 x_76_ * x_1_ + 1 x_76_ ^ 2 + 1 y_1_ ^ 2 - 2 y_76_ * y_1_ + 1 y_76_ ^ 2 ] <= 10044.45
quadratic_ranged_129_ub: [ 1 x_23_ ^ 2 - 2 x_76_ * x_23_ + 1 x_76_ ^ 2 + 1 y_23_ ^ 2 - 2 y_76_ * y_23_ + 1 y_76_ ^ 2 ] <= 19981.84
quadratic_ranged_130_ub: [ 1 x_47_ ^ 2 - 2 x_76_ * x_47_ + 1 x_76_ ^ 2 + 1 y_47_ ^ 2 - 2 y_76_ * y_47_ + 1 y_76_ ^ 2 ] <= 13770.34
quadratic_ranged_131_ub: [ 1 x_3_ ^ 2 - 2 x_77_ * x_3_ + 1 x_77_ ^ 2 + 1 y_3_ ^ 2 - 2 y_77_ * y_3_ + 1 y_77_ ^ 2 ] <= 30967.61
quadratic_ranged_132_ub: [ 1 x_10_ ^ 2 - 2 x_77_ * x_10_ + 1 x_77_ ^ 2 + 1 y_10_ ^ 2 - 2 y_77_ * y_10_ + 1 y_77_ ^ 2 ] <= 2213.92
quadratic_ranged_133_ub: [ 1 x_24_ ^ 2 - 2 x_77_ * x_24_ + 1 x_77_ ^ 2 + 1 y_24_ ^ 2 - 2 y_77_ * y_24_ + 1 y_77_ ^ 2 ] <= 22771.46
quadratic_ranged_134_ub: [ 1 x_4_ ^ 2 - 2 x_78_ * x_4_ + 1 x_78_ ^ 2 + 1 y_4_ ^ 2 - 2 y_78_ * y_4_ + 1 y_78_ ^ 2 ] <= 19321.3
quadratic_ranged_135_ub: [ 1 x_45_ ^ 2 - 2 x_78_ * x_45_ + 1 x_78_ ^ 2 + 1 y_45_ ^ 2 - 2 y_78_ * y_45_ + 1 y_78_ ^ 2 ] <= 24583.4
quadratic_ranged_136_ub: [ 1 x_48_ ^ 2 - 2 x_78_ * x_48_ + 1 x_78_ ^ 2 + 1 y_48_ ^ 2 - 2 y_78_ * y_48_ + 1 y_78_ ^ 2 ] <= 14233.93
quadratic_ranged_137_ub: [ 1 x_17_ ^ 2 - 2 x_79_ * x_17_ + 1 x_79_ ^ 2 + 1 y_17_ ^ 2 - 2 y_79_ * y_17_ + 1 y_79_ ^ 2 ] <= 14625.81
quadratic_ranged_138_ub: [ 1 x_62_ ^ 2 - 2 x_79_ * x_62_ + 1 x_79_ ^ 2 + 1 y_62_ ^ 2 - 2 y_79_ * y_62_ + 1 y_79_ ^ 2 ] <= 7115.45
quadratic_ranged_139_ub: [ 1 x_5_ ^ 2 - 2 x_80_ * x_5_ + 1 x_80_ ^ 2 + 1 y_5_ ^ 2 - 2 y_80_ * y_5_ + 1 y_80_ ^ 2 ] <= 2138.17
quadratic_ranged_140_ub: [ 1 x_13_ ^ 2 - 2 x_80_ * x_13_ + 1 x_80_ ^ 2 + 1 y_13_ ^ 2 - 2 y_80_ * y_13_ + 1 y_80_ ^ 2 ] <= 5176.25
quadratic_ranged_141_ub: [ 1 x_64_ ^ 2 - 2 x_80_ * x_64_ + 1 x_80_ ^ 2 + 1 y_64_ ^ 2 - 2 y_80_ * y_64_ + 1 y_80_ ^ 2 ] <= 2020
quadratic_ranged_142_ub: [ 1 x_7_ ^ 2 - 2 x_81_ * x_7_ + 1 x_81_ ^ 2 + 1 y_7_ ^ 2 - 2 y_81_ * y_7_ + 1 y_81_ ^ 2 ] <= 21218.08
quadratic_ranged_143_ub: [ 1 x_74_ ^ 2 - 2 x_81_ * x_74_ + 1 x_81_ ^ 2 + 1 y_74_ ^ 2 - 2 y_81_ * y_74_ + 1 y_81_ ^ 2 ] <= 17061.93
quadratic_ranged_144_ub: [ 1 x_77_ ^ 2 - 2 x_81_ * x_77_ + 1 x_81_ ^ 2 + 1 y_77_ ^ 2 - 2 y_81_ * y_77_ + 1 y_81_ ^ 2 ] <= 194.93
quadratic_ranged_145_ub: [ 1 x_6_ ^ 2 - 2 x_82_ * x_6_ + 1 x_82_ ^ 2 + 1 y_6_ ^ 2 - 2 y_82_ * y_6_ + 1 y_82_ ^ 2 ] <= 9151.61
quadratic_ranged_146_ub: [ 1 x_13_ ^ 2 - 2 x_82_ * x_13_ + 1 x_82_ ^ 2 + 1 y_13_ ^ 2 - 2 y_82_ * y_13_ + 1 y_82_ ^ 2 ] <= 17388.16
quadratic_ranged_147_ub: [ 1 x_75_ ^ 2 - 2 x_82_ * x_75_ + 1 x_82_ ^ 2 + 1 y_75_ ^ 2 - 2 y_82_ * y_75_ + 1 y_82_ ^ 2 ] <= 11712.97
quadratic_ranged_148_ub: [ 1 x_30_ ^ 2 - 2 x_83_ * x_30_ + 1 x_83_ ^ 2 + 1 y_30_ ^ 2 - 2 y_83_ * y_30_ + 1 y_83_ ^ 2 ] <= 24778.33
quadratic_ranged_149_ub: [ 1 x_48_ ^ 2 - 2 x_83_ * x_48_ + 1 x_83_ ^ 2 + 1 y_48_ ^ 2 - 2 y_83_ * y_48_ + 1 y_83_ ^ 2 ] <= 15296.45
quadratic_ranged_150_ub: [ 1 x_56_ ^ 2 - 2 x_83_ * x_56_ + 1 x_83_ ^ 2 + 1 y_56_ ^ 2 - 2 y_83_ * y_56_ + 1 y_83_ ^ 2 ] <= 6748.82
quadratic_ranged_151_ub: [ 1 x_40_ ^ 2 - 2 x_84_ * x_40_ + 1 x_84_ ^ 2 + 1 y_40_ ^ 2 - 2 y_84_ * y_40_ + 1 y_84_ ^ 2 ] <= 17869.93
quadratic_ranged_152_ub: [ 1 x_51_ ^ 2 - 2 x_84_ * x_51_ + 1 x_84_ ^ 2 + 1 y_51_ ^ 2 - 2 y_84_ * y_51_ + 1 y_84_ ^ 2 ] <= 3830.93
quadratic_ranged_153_ub: [ 1 x_28_ ^ 2 - 2 x_85_ * x_28_ + 1 x_85_ ^ 2 + 1 y_28_ ^ 2 - 2 y_85_ * y_28_ + 1 y_85_ ^ 2 ] <= 20136.37
quadratic_ranged_154_ub: [ 1 x_43_ ^ 2 - 2 x_85_ * x_43_ + 1 x_85_ ^ 2 + 1 y_43_ ^ 2 - 2 y_85_ * y_43_ + 1 y_85_ ^ 2 ] <= 19596.02
quadratic_ranged_155_ub: [ 1 x_20_ ^ 2 - 2 x_86_ * x_20_ + 1 x_86_ ^ 2 + 1 y_20_ ^ 2 - 2 y_86_ * y_20_ + 1 y_86_ ^ 2 ] <= 11539.25
quadratic_ranged_156_ub: [ 1 x_21_ ^ 2 - 2 x_86_ * x_21_ + 1 x_86_ ^ 2 + 1 y_21_ ^ 2 - 2 y_86_ * y_21_ + 1 y_86_ ^ 2 ] <= 4974.25
quadratic_ranged_157_ub: [ 1 x_64_ ^ 2 - 2 x_86_ * x_64_ + 1 x_86_ ^ 2 + 1 y_64_ ^ 2 - 2 y_86_ * y_64_ + 1 y_86_ ^ 2 ] <= 14053.14
quadratic_ranged_158_ub: [ 1 x_13_ ^ 2 - 2 x_87_ * x_13_ + 1 x_87_ ^ 2 + 1 y_13_ ^ 2 - 2 y_87_ * y_13_ + 1 y_87_ ^ 2 ] <= 10791.85
quadratic_ranged_159_ub: [ 1 x_19_ ^ 2 - 2 x_87_ * x_19_ + 1 x_87_ ^ 2 + 1 y_19_ ^ 2 - 2 y_87_ * y_19_ + 1 y_87_ ^ 2 ] <= 11758.42
quadratic_ranged_160_ub: [ 1 x_64_ ^ 2 - 2 x_87_ * x_64_ + 1 x_87_ ^ 2 + 1 y_64_ ^ 2 - 2 y_87_ * y_64_ + 1 y_87_ ^ 2 ] <= 5494.4
quadratic_ranged_161_ub: [ 1 x_47_ ^ 2 - 2 x_88_ * x_47_ + 1 x_88_ ^ 2 + 1 y_47_ ^ 2 - 2 y_88_ * y_47_ + 1 y_88_ ^ 2 ] <= 3018.89
quadratic_ranged_162_ub: [ 1 x_71_ ^ 2 - 2 x_88_ * x_71_ + 1 x_88_ ^ 2 + 1 y_71_ ^ 2 - 2 y_88_ * y_71_ + 1 y_88_ ^ 2 ] <= 16912.45
quadratic_ranged_163_ub: [ 1 x_84_ ^ 2 - 2 x_88_ * x_84_ + 1 x_88_ ^ 2 + 1 y_84_ ^ 2 - 2 y_88_ * y_84_ + 1 y_88_ ^ 2 ] <= 17634.6
quadratic_ranged_164_ub: [ 1 x_2_ ^ 2 - 2 x_89_ * x_2_ + 1 x_89_ ^ 2 + 1 y_2_ ^ 2 - 2 y_89_ * y_2_ + 1 y_89_ ^ 2 ] <= 8033.54
quadratic_ranged_165_ub: [ 1 x_47_ ^ 2 - 2 x_89_ * x_47_ + 1 x_89_ ^ 2 + 1 y_47_ ^ 2 - 2 y_89_ * y_47_ + 1 y_89_ ^ 2 ] <= 2886.58
quadratic_ranged_166_ub: [ 1 x_53_ ^ 2 - 2 x_89_ * x_53_ + 1 x_89_ ^ 2 + 1 y_53_ ^ 2 - 2 y_89_ * y_53_ + 1 y_89_ ^ 2 ] <= 7539.65
quadratic_ranged_167_ub: [ 1 x_5_ ^ 2 - 2 x_90_ * x_5_ + 1 x_90_ ^ 2 + 1 y_5_ ^ 2 - 2 y_90_ * y_5_ + 1 y_90_ ^ 2 ] <= 19692.98
quadratic_ranged_168_ub: [ 1 x_23_ ^ 2 - 2 x_90_ * x_23_ + 1 x_90_ ^ 2 + 1 y_23_ ^ 2 - 2 y_90_ * y_23_ + 1 y_90_ ^ 2 ] <= 7761.85
quadratic_ranged_169_ub: [ 1 x_48_ ^ 2 - 2 x_90_ * x_48_ + 1 x_90_ ^ 2 + 1 y_48_ ^ 2 - 2 y_90_ * y_48_ + 1 y_90_ ^ 2 ] <= 14439.97
quadratic_ranged_170_ub: [ 1 x_15_ ^ 2 - 2 x_91_ * x_15_ + 1 x_91_ ^ 2 + 1 y_15_ ^ 2 - 2 y_91_ * y_15_ + 1 y_91_ ^ 2 ] <= 7298.26
quadratic_ranged_171_ub: [ 1 x_19_ ^ 2 - 2 x_91_ * x_19_ + 1 x_91_ ^ 2 + 1 y_19_ ^ 2 - 2 y_91_ * y_19_ + 1 y_91_ ^ 2 ] <= 5568.13
quadratic_ranged_172_ub: [ 1 x_47_ ^ 2 - 2 x_91_ * x_47_ + 1 x_91_ ^ 2 + 1 y_47_ ^ 2 - 2 y_91_ * y_47_ + 1 y_91_ ^ 2 ] <= 1823.05
quadratic_ranged_173_ub: [ 1 x_44_ ^ 2 - 2 x_92_ * x_44_ + 1 x_92_ ^ 2 + 1 y_44_ ^ 2 - 2 y_92_ * y_44_ + 1 y_92_ ^ 2 ] <= 12448.25
quadratic_ranged_174_ub: [ 1 x_61_ ^ 2 - 2 x_92_ * x_61_ + 1 x_92_ ^ 2 + 1 y_61_ ^ 2 - 2 y_92_ * y_61_ + 1 y_92_ ^ 2 ] <= 22563.4
quadratic_ranged_175_ub: [ 1 x_68_ ^ 2 - 2 x_92_ * x_68_ + 1 x_92_ ^ 2 + 1 y_68_ ^ 2 - 2 y_92_ * y_68_ + 1 y_92_ ^ 2 ] <= 17029.61
quadratic_ranged_176_ub: [ 1 x_54_ ^ 2 - 2 x_93_ * x_54_ + 1 x_93_ ^ 2 + 1 y_54_ ^ 2 - 2 y_93_ * y_54_ + 1 y_93_ ^ 2 ] <= 32482.61
quadratic_ranged_177_ub: [ 1 x_71_ ^ 2 - 2 x_93_ * x_71_ + 1 x_93_ ^ 2 + 1 y_71_ ^ 2 - 2 y_93_ * y_71_ + 1 y_93_ ^ 2 ] <= 8945.57
quadratic_ranged_178_ub: [ 1 x_85_ ^ 2 - 2 x_93_ * x_85_ + 1 x_93_ ^ 2 + 1 y_85_ ^ 2 - 2 y_93_ * y_85_ + 1 y_93_ ^ 2 ] <= 24043.05
quadratic_ranged_179_ub: [ 1 x_7_ ^ 2 - 2 x_94_ * x_7_ + 1 x_94_ ^ 2 + 1 y_7_ ^ 2 - 2 y_94_ * y_7_ + 1 y_94_ ^ 2 ] <= 2561.36
quadratic_ranged_180_ub: [ 1 x_66_ ^ 2 - 2 x_94_ * x_66_ + 1 x_94_ ^ 2 + 1 y_66_ ^ 2 - 2 y_94_ * y_66_ + 1 y_94_ ^ 2 ] <= 570.65
quadratic_ranged_181_ub: [ 1 x_79_ ^ 2 - 2 x_94_ * x_79_ + 1 x_94_ ^ 2 + 1 y_79_ ^ 2 - 2 y_94_ * y_79_ + 1 y_94_ ^ 2 ] <= 8957.69
quadratic_ranged_182_ub: [ 1 x_13_ ^ 2 - 2 x_95_ * x_13_ + 1 x_95_ ^ 2 + 1 y_13_ ^ 2 - 2 y_95_ * y_13_ + 1 y_95_ ^ 2 ] <= 3552.17
quadratic_ranged_183_ub: [ 1 x_57_ ^ 2 - 2 x_95_ * x_57_ + 1 x_95_ ^ 2 + 1 y_57_ ^ 2 - 2 y_95_ * y_57_ + 1 y_95_ ^ 2 ] <= 1079.69
quadratic_ranged_184_ub: [ 1 x_81_ ^ 2 - 2 x_95_ * x_81_ + 1 x_95_ ^ 2 + 1 y_81_ ^ 2 - 2 y_95_ * y_81_ + 1 y_95_ ^ 2 ] <= 16584.2
quadratic_ranged_185_ub: [ 1 x_46_ ^ 2 - 2 x_96_ * x_46_ + 1 x_96_ ^ 2 + 1 y_46_ ^ 2 - 2 y_96_ * y_46_ + 1 y_96_ ^ 2 ] <= 13462.29
quadratic_ranged_186_ub: [ 1 x_47_ ^ 2 - 2 x_96_ * x_47_ + 1 x_96_ ^ 2 + 1 y_47_ ^ 2 - 2 y_96_ * y_47_ + 1 y_96_ ^ 2 ] <= 7398.25
quadratic_ranged_187_ub: [ 1 x_76_ ^ 2 - 2 x_96_ * x_76_ + 1 x_96_ ^ 2 + 1 y_76_ ^ 2 - 2 y_96_ * y_76_ + 1 y_96_ ^ 2 ] <= 31787.73
quadratic_ranged_188_ub: [ 1 x_4_ ^ 2 - 2 x_97_ * x_4_ + 1 x_97_ ^ 2 + 1 y_4_ ^ 2 - 2 y_97_ * y_4_ + 1 y_97_ ^ 2 ] <= 3746.09
quadratic_ranged_189_ub: [ 1 x_14_ ^ 2 - 2 x_97_ * x_14_ + 1 x_97_ ^ 2 + 1 y_14_ ^ 2 - 2 y_97_ * y_14_ + 1 y_97_ ^ 2 ] <= 2837.09
quadratic_ranged_190_ub: [ 1 x_33_ ^ 2 - 2 x_98_ * x_33_ + 1 x_98_ ^ 2 + 1 y_33_ ^ 2 - 2 y_98_ * y_33_ + 1 y_98_ ^ 2 ] <= 28249.7
quadratic_ranged_191_ub: [ 1 x_49_ ^ 2 - 2 x_98_ * x_49_ + 1 x_98_ ^ 2 + 1 y_49_ ^ 2 - 2 y_98_ * y_49_ + 1 y_98_ ^ 2 ] <= 17317.46
quadratic_ranged_192_ub: [ 1 x_61_ ^ 2 - 2 x_98_ * x_61_ + 1 x_98_ ^ 2 + 1 y_61_ ^ 2 - 2 y_98_ * y_61_ + 1 y_98_ ^ 2 ] <= 24180.41
quadratic_ranged_193_ub: [ 1 x_30_ ^ 2 - 2 x_99_ * x_30_ + 1 x_99_ ^ 2 + 1 y_30_ ^ 2 - 2 y_99_ * y_30_ + 1 y_99_ ^ 2 ] <= 22674.5
quadratic_ranged_194_ub: [ 1 x_33_ ^ 2 - 2 x_99_ * x_33_ + 1 x_99_ ^ 2 + 1 y_33_ ^ 2 - 2 y_99_ * y_33_ + 1 y_99_ ^ 2 ] <= 909
quadratic_ranged_195_ub: [ 1 x_45_ ^ 2 - 2 x_99_ * x_45_ + 1 x_99_ ^ 2 + 1 y_45_ ^ 2 - 2 y_99_ * y_45_ + 1 y_99_ ^ 2 ] <= 34405.65
quadratic_ranged_196_ub: [ 1 x_49_ ^ 2 - 2 x_100_ * x_49_ + 1 x_100_ ^ 2 + 1 y_49_ ^ 2 - 2 y_100_ * y_49_ + 1 y_100_ ^ 2 ] <= 5713.57
quadratic_ranged_197_ub: [ 1 x_80_ ^ 2 - 2 x_100_ * x_80_ + 1 x_100_ ^ 2 + 1 y_80_ ^ 2 - 2 y_100_ * y_80_ + 1 y_100_ ^ 2 ] <= 19502.09
quadratic_ranged_198_ub: [ 1 x_97_ ^ 2 - 2 x_100_ * x_97_ + 1 x_100_ ^ 2 + 1 y_97_ ^ 2 - 2 y_100_ * y_97_ + 1 y_100_ ^ 2 ] <= 8444.61
c1_2: 1 x_83_ >= 0
c2_2: 1 y_83_ >= 0
quadratic_ranged_1_lb: [ 1 x_1_ ^ 2 - 2 x_3_ * x_1_ + 1 x_3_ ^ 2 + 1 y_1_ ^ 2 - 2 y_3_ * y_1_ + 1 y_3_ ^ 2 ] >= 14649.03
quadratic_ranged_2_lb: [ 1 x_5_ ^ 2 - 2 x_6_ * x_5_ + 1 x_6_ ^ 2 + 1 y_5_ ^ 2 - 2 y_6_ * y_5_ + 1 y_6_ ^ 2 ] >= 1097.91
quadratic_ranged_3_lb: [ 1 x_2_ ^ 2 - 2 x_7_ * x_2_ + 1 x_7_ ^ 2 + 1 y_2_ ^ 2 - 2 y_7_ * y_2_ + 1 y_7_ ^ 2 ] >= 10844.46
quadratic_ranged_4_lb: [ 1 x_1_ ^ 2 - 2 x_10_ * x_1_ + 1 x_10_ ^ 2 + 1 y_1_ ^ 2 - 2 y_10_ * y_1_ + 1 y_10_ ^ 2 ] >= 6197.4
quadratic_ranged_5_lb: [ 1 x_4_ ^ 2 - 2 x_11_ * x_4_ + 1 x_11_ ^ 2 + 1 y_4_ ^ 2 - 2 y_11_ * y_4_ + 1 y_11_ ^ 2 ] >= 8637.75
quadratic_ranged_6_lb: [ 1 x_8_ ^ 2 - 2 x_11_ * x_8_ + 1 x_11_ ^ 2 + 1 y_8_ ^ 2 - 2 y_11_ * y_8_ + 1 y_11_ ^ 2 ] >= 26304.3
quadratic_ranged_7_lb: [ 1 x_7_ ^ 2 - 2 x_15_ * x_7_ + 1 x_15_ ^ 2 + 1 y_7_ ^ 2 - 2 y_15_ * y_7_ + 1 y_15_ ^ 2 ] >= 19234.71
quadratic_ranged_8_lb: [ 1 x_14_ ^ 2 - 2 x_15_ * x_14_ + 1 x_15_ ^ 2 + 1 y_14_ ^ 2 - 2 y_15_ * y_14_ + 1 y_15_ ^ 2 ] >= 22502.7
quadratic_ranged_9_lb: [ 1 x_2_ ^ 2 - 2 x_16_ * x_2_ + 1 x_16_ ^ 2 + 1 y_2_ ^ 2 - 2 y_16_ * y_2_ + 1 y_16_ ^ 2 ] >= 16206.3
quadratic_ranged_10_lb: [ 1 x_11_ ^ 2 - 2 x_17_ * x_11_ + 1 x_17_ ^ 2 + 1 y_11_ ^ 2 - 2 y_17_ * y_11_ + 1 y_17_ ^ 2 ] >= 45496.44
quadratic_ranged_11_lb: [ 1 x_7_ ^ 2 - 2 x_18_ * x_7_ + 1 x_18_ ^ 2 + 1 y_7_ ^ 2 - 2 y_18_ * y_7_ + 1 y_18_ ^ 2 ] >= 158.4
quadratic_ranged_12_lb: [ 1 x_17_ ^ 2 - 2 x_18_ * x_17_ + 1 x_18_ ^ 2 + 1 y_17_ ^ 2 - 2 y_18_ * y_17_ + 1 y_18_ ^ 2 ] >= 3003.66
quadratic_ranged_13_lb: [ 1 x_1_ ^ 2 - 2 x_20_ * x_1_ + 1 x_20_ ^ 2 + 1 y_1_ ^ 2 - 2 y_20_ * y_1_ + 1 y_20_ ^ 2 ] >= 8563.5
quadratic_ranged_14_lb: [ 1 x_4_ ^ 2 - 2 x_20_ * x_4_ + 1 x_20_ ^ 2 + 1 y_4_ ^ 2 - 2 y_20_ * y_4_ + 1 y_20_ ^ 2 ] >= 1863.18
quadratic_ranged_15_lb: [ 1 x_11_ ^ 2 - 2 x_20_ * x_11_ + 1 x_20_ ^ 2 + 1 y_11_ ^ 2 - 2 y_20_ * y_11_ + 1 y_20_ ^ 2 ] >= 3315.5099999999998
quadratic_ranged_16_lb: [ 1 x_4_ ^ 2 - 2 x_21_ * x_4_ + 1 x_21_ ^ 2 + 1 y_4_ ^ 2 - 2 y_21_ * y_4_ + 1 y_21_ ^ 2 ] >= 18346.68
quadratic_ranged_17_lb: [ 1 x_20_ ^ 2 - 2 x_21_ * x_20_ + 1 x_21_ ^ 2 + 1 y_20_ ^ 2 - 2 y_21_ * y_20_ + 1 y_21_ ^ 2 ] >= 30937.5
quadratic_ranged_18_lb: [ 1 x_14_ ^ 2 - 2 x_22_ * x_14_ + 1 x_22_ ^ 2 + 1 y_14_ ^ 2 - 2 y_22_ * y_14_ + 1 y_22_ ^ 2 ] >= 13235.31
quadratic_ranged_19_lb: [ 1 x_20_ ^ 2 - 2 x_23_ * x_20_ + 1 x_23_ ^ 2 + 1 y_20_ ^ 2 - 2 y_23_ * y_20_ + 1 y_23_ ^ 2 ] >= 14981.67
quadratic_ranged_20_lb: [ 1 x_6_ ^ 2 - 2 x_24_ * x_6_ + 1 x_24_ ^ 2 + 1 y_6_ ^ 2 - 2 y_24_ * y_6_ + 1 y_24_ ^ 2 ] >= 32754.15
quadratic_ranged_21_lb: [ 1 x_14_ ^ 2 - 2 x_24_ * x_14_ + 1 x_24_ ^ 2 + 1 y_14_ ^ 2 - 2 y_24_ * y_14_ + 1 y_24_ ^ 2 ] >= 2100.78
quadratic_ranged_22_lb: [ 1 x_13_ ^ 2 - 2 x_25_ * x_13_ + 1 x_25_ ^ 2 + 1 y_13_ ^ 2 - 2 y_25_ * y_13_ + 1 y_25_ ^ 2 ] >= 975.15
quadratic_ranged_23_lb: [ 1 x_22_ ^ 2 - 2 x_25_ * x_22_ + 1 x_25_ ^ 2 + 1 y_22_ ^ 2 - 2 y_25_ * y_22_ + 1 y_25_ ^ 2 ] >= 1952.28
quadratic_ranged_24_lb: [ 1 x_6_ ^ 2 - 2 x_26_ * x_6_ + 1 x_26_ ^ 2 + 1 y_6_ ^ 2 - 2 y_26_ * y_6_ + 1 y_26_ ^ 2 ] >= 278.19
quadratic_ranged_25_lb: [ 1 x_4_ ^ 2 - 2 x_27_ * x_4_ + 1 x_27_ ^ 2 + 1 y_4_ ^ 2 - 2 y_27_ * y_4_ + 1 y_27_ ^ 2 ] >= 811.8
quadratic_ranged_26_lb: [ 1 x_9_ ^ 2 - 2 x_28_ * x_9_ + 1 x_28_ ^ 2 + 1 y_9_ ^ 2 - 2 y_28_ * y_9_ + 1 y_28_ ^ 2 ] >= 4646.07
quadratic_ranged_27_lb: [ 1 x_11_ ^ 2 - 2 x_28_ * x_11_ + 1 x_28_ ^ 2 + 1 y_11_ ^ 2 - 2 y_28_ * y_11_ + 1 y_28_ ^ 2 ] >= 7489.35
quadratic_ranged_28_lb: [ 1 x_8_ ^ 2 - 2 x_29_ * x_8_ + 1 x_29_ ^ 2 + 1 y_8_ ^ 2 - 2 y_29_ * y_8_ + 1 y_29_ ^ 2 ] >= 24908.4
quadratic_ranged_29_lb: [ 1 x_13_ ^ 2 - 2 x_29_ * x_13_ + 1 x_29_ ^ 2 + 1 y_13_ ^ 2 - 2 y_29_ * y_13_ + 1 y_29_ ^ 2 ] >= 9936.63
quadratic_ranged_30_lb: [ 1 x_19_ ^ 2 - 2 x_29_ * x_19_ + 1 x_29_ ^ 2 + 1 y_19_ ^ 2 - 2 y_29_ * y_19_ + 1 y_29_ ^ 2 ] >= 19550.52
quadratic_ranged_31_lb: [ 1 x_3_ ^ 2 - 2 x_30_ * x_3_ + 1 x_30_ ^ 2 + 1 y_3_ ^ 2 - 2 y_30_ * y_3_ + 1 y_30_ ^ 2 ] >= 1863.18
quadratic_ranged_32_lb: [ 1 x_12_ ^ 2 - 2 x_31_ * x_12_ + 1 x_31_ ^ 2 + 1 y_12_ ^ 2 - 2 y_31_ * y_12_ + 1 y_31_ ^ 2 ] >= 23965.92
quadratic_ranged_33_lb: [ 1 x_23_ ^ 2 - 2 x_31_ * x_23_ + 1 x_31_ ^ 2 + 1 y_23_ ^ 2 - 2 y_31_ * y_23_ + 1 y_31_ ^ 2 ] >= 22225.5
quadratic_ranged_34_lb: [ 1 x_2_ ^ 2 - 2 x_32_ * x_2_ + 1 x_32_ ^ 2 + 1 y_2_ ^ 2 - 2 y_32_ * y_2_ + 1 y_32_ ^ 2 ] >= 28837.71
quadratic_ranged_35_lb: [ 1 x_30_ ^ 2 - 2 x_32_ * x_30_ + 1 x_32_ ^ 2 + 1 y_30_ ^ 2 - 2 y_32_ * y_30_ + 1 y_32_ ^ 2 ] >= 25455.87
quadratic_ranged_36_lb: [ 1 x_19_ ^ 2 - 2 x_33_ * x_19_ + 1 x_33_ ^ 2 + 1 y_19_ ^ 2 - 2 y_33_ * y_19_ + 1 y_33_ ^ 2 ] >= 24427.26
quadratic_ranged_37_lb: [ 1 x_32_ ^ 2 - 2 x_33_ * x_32_ + 1 x_33_ ^ 2 + 1 y_32_ ^ 2 - 2 y_33_ * y_32_ + 1 y_33_ ^ 2 ] >= 2911.59
quadratic_ranged_38_lb: [ 1 x_3_ ^ 2 - 2 x_34_ * x_3_ + 1 x_34_ ^ 2 + 1 y_3_ ^ 2 - 2 y_34_ * y_3_ + 1 y_34_ ^ 2 ] >= 19047.6
quadratic_ranged_39_lb: [ 1 x_10_ ^ 2 - 2 x_35_ * x_10_ + 1 x_35_ ^ 2 + 1 y_10_ ^ 2 - 2 y_35_ * y_10_ + 1 y_35_ ^ 2 ] >= 1853.28
quadratic_ranged_40_lb: [ 1 x_16_ ^ 2 - 2 x_36_ * x_16_ + 1 x_36_ ^ 2 + 1 y_16_ ^ 2 - 2 y_36_ * y_16_ + 1 y_36_ ^ 2 ] >= 1010.79
quadratic_ranged_41_lb: [ 1 x_29_ ^ 2 - 2 x_37_ * x_29_ + 1 x_37_ ^ 2 + 1 y_29_ ^ 2 - 2 y_37_ * y_29_ + 1 y_37_ ^ 2 ] >= 33490.71
quadratic_ranged_42_lb: [ 1 x_9_ ^ 2 - 2 x_38_ * x_9_ + 1 x_38_ ^ 2 + 1 y_9_ ^ 2 - 2 y_38_ * y_9_ + 1 y_38_ ^ 2 ] >= 5498.46
quadratic_ranged_43_lb: [ 1 x_4_ ^ 2 - 2 x_39_ * x_4_ + 1 x_39_ ^ 2 + 1 y_4_ ^ 2 - 2 y_39_ * y_4_ + 1 y_39_ ^ 2 ] >= 26235
quadratic_ranged_44_lb: [ 1 x_26_ ^ 2 - 2 x_39_ * x_26_ + 1 x_39_ ^ 2 + 1 y_26_ ^ 2 - 2 y_39_ * y_26_ + 1 y_39_ ^ 2 ] >= 4696.56
quadratic_ranged_45_lb: [ 1 x_35_ ^ 2 - 2 x_39_ * x_35_ + 1 x_39_ ^ 2 + 1 y_35_ ^ 2 - 2 y_39_ * y_35_ + 1 y_39_ ^ 2 ] >= 4134.24
quadratic_ranged_46_lb: [ 1 x_12_ ^ 2 - 2 x_40_ * x_12_ + 1 x_40_ ^ 2 + 1 y_12_ ^ 2 - 2 y_40_ * y_12_ + 1 y_40_ ^ 2 ] >= 13949.1
quadratic_ranged_47_lb: [ 1 x_14_ ^ 2 - 2 x_40_ * x_14_ + 1 x_40_ ^ 2 + 1 y_14_ ^ 2 - 2 y_40_ * y_14_ + 1 y_40_ ^ 2 ] >= 20913.75
quadratic_ranged_48_lb: [ 1 x_2_ ^ 2 - 2 x_41_ * x_2_ + 1 x_41_ ^ 2 + 1 y_2_ ^ 2 - 2 y_41_ * y_2_ + 1 y_41_ ^ 2 ] >= 20790.99
quadratic_ranged_49_lb: [ 1 x_27_ ^ 2 - 2 x_41_ * x_27_ + 1 x_41_ ^ 2 + 1 y_27_ ^ 2 - 2 y_41_ * y_27_ + 1 y_41_ ^ 2 ] >= 7177.5
quadratic_ranged_50_lb: [ 1 x_10_ ^ 2 - 2 x_42_ * x_10_ + 1 x_42_ ^ 2 + 1 y_10_ ^ 2 - 2 y_42_ * y_10_ + 1 y_42_ ^ 2 ] >= 27732.87
quadratic_ranged_51_lb: [ 1 x_13_ ^ 2 - 2 x_42_ * x_13_ + 1 x_42_ ^ 2 + 1 y_13_ ^ 2 - 2 y_42_ * y_13_ + 1 y_42_ ^ 2 ] >= 6558.75
quadratic_ranged_52_lb: [ 1 x_12_ ^ 2 - 2 x_43_ * x_12_ + 1 x_43_ ^ 2 + 1 y_12_ ^ 2 - 2 y_43_ * y_12_ + 1 y_43_ ^ 2 ] >= 17544.78
quadratic_ranged_53_lb: [ 1 x_3_ ^ 2 - 2 x_44_ * x_3_ + 1 x_44_ ^ 2 + 1 y_3_ ^ 2 - 2 y_44_ * y_3_ + 1 y_44_ ^ 2 ] >= 28199.16
quadratic_ranged_54_lb: [ 1 x_25_ ^ 2 - 2 x_45_ * x_25_ + 1 x_45_ ^ 2 + 1 y_25_ ^ 2 - 2 y_45_ * y_25_ + 1 y_45_ ^ 2 ] >= 183.15
quadratic_ranged_55_lb: [ 1 x_29_ ^ 2 - 2 x_46_ * x_29_ + 1 x_46_ ^ 2 + 1 y_29_ ^ 2 - 2 y_46_ * y_29_ + 1 y_46_ ^ 2 ] >= 17443.8
quadratic_ranged_56_lb: [ 1 x_35_ ^ 2 - 2 x_46_ * x_35_ + 1 x_46_ ^ 2 + 1 y_35_ ^ 2 - 2 y_46_ * y_35_ + 1 y_46_ ^ 2 ] >= 836.55
quadratic_ranged_57_lb: [ 1 x_14_ ^ 2 - 2 x_48_ * x_14_ + 1 x_48_ ^ 2 + 1 y_14_ ^ 2 - 2 y_48_ * y_14_ + 1 y_48_ ^ 2 ] >= 10431.63
quadratic_ranged_58_lb: [ 1 x_26_ ^ 2 - 2 x_48_ * x_26_ + 1 x_48_ ^ 2 + 1 y_26_ ^ 2 - 2 y_48_ * y_26_ + 1 y_48_ ^ 2 ] >= 1723.59
quadratic_ranged_59_lb: [ 1 x_11_ ^ 2 - 2 x_49_ * x_11_ + 1 x_49_ ^ 2 + 1 y_11_ ^ 2 - 2 y_49_ * y_11_ + 1 y_49_ ^ 2 ] >= 2712.6
quadratic_ranged_60_lb: [ 1 x_14_ ^ 2 - 2 x_49_ * x_14_ + 1 x_49_ ^ 2 + 1 y_14_ ^ 2 - 2 y_49_ * y_14_ + 1 y_49_ ^ 2 ] >= 22374.99
quadratic_ranged_61_lb: [ 1 x_14_ ^ 2 - 2 x_50_ * x_14_ + 1 x_50_ ^ 2 + 1 y_14_ ^ 2 - 2 y_50_ * y_14_ + 1 y_50_ ^ 2 ] >= 12661.11
quadratic_ranged_62_lb: [ 1 x_40_ ^ 2 - 2 x_50_ * x_40_ + 1 x_50_ ^ 2 + 1 y_40_ ^ 2 - 2 y_50_ * y_40_ + 1 y_50_ ^ 2 ] >= 6631.0199999999995
quadratic_ranged_63_lb: [ 1 x_46_ ^ 2 - 2 x_50_ * x_46_ + 1 x_50_ ^ 2 + 1 y_46_ ^ 2 - 2 y_50_ * y_46_ + 1 y_50_ ^ 2 ] >= 17829.9
quadratic_ranged_64_lb: [ 1 x_14_ ^ 2 - 2 x_51_ * x_14_ + 1 x_51_ ^ 2 + 1 y_14_ ^ 2 - 2 y_51_ * y_14_ + 1 y_51_ ^ 2 ] >= 15611.31
quadratic_ranged_65_lb: [ 1 x_27_ ^ 2 - 2 x_51_ * x_27_ + 1 x_51_ ^ 2 + 1 y_27_ ^ 2 - 2 y_51_ * y_27_ + 1 y_51_ ^ 2 ] >= 18989.19
quadratic_ranged_66_lb: [ 1 x_34_ ^ 2 - 2 x_51_ * x_34_ + 1 x_51_ ^ 2 + 1 y_34_ ^ 2 - 2 y_51_ * y_34_ + 1 y_51_ ^ 2 ] >= 25490.52
quadratic_ranged_67_lb: [ 1 x_2_ ^ 2 - 2 x_52_ * x_2_ + 1 x_52_ ^ 2 + 1 y_2_ ^ 2 - 2 y_52_ * y_2_ + 1 y_52_ ^ 2 ] >= 5997.42
quadratic_ranged_68_lb: [ 1 x_46_ ^ 2 - 2 x_52_ * x_46_ + 1 x_52_ ^ 2 + 1 y_46_ ^ 2 - 2 y_52_ * y_46_ + 1 y_52_ ^ 2 ] >= 2427.48
quadratic_ranged_69_lb: [ 1 x_17_ ^ 2 - 2 x_53_ * x_17_ + 1 x_53_ ^ 2 + 1 y_17_ ^ 2 - 2 y_53_ * y_17_ + 1 y_53_ ^ 2 ] >= 31031.55
quadratic_ranged_70_lb: [ 1 x_25_ ^ 2 - 2 x_53_ * x_25_ + 1 x_53_ ^ 2 + 1 y_25_ ^ 2 - 2 y_53_ * y_25_ + 1 y_53_ ^ 2 ] >= 34813.35
quadratic_ranged_71_lb: [ 1 x_6_ ^ 2 - 2 x_54_ * x_6_ + 1 x_54_ ^ 2 + 1 y_6_ ^ 2 - 2 y_54_ * y_6_ + 1 y_54_ ^ 2 ] >= 25789.5
quadratic_ranged_72_lb: [ 1 x_15_ ^ 2 - 2 x_54_ * x_15_ + 1 x_54_ ^ 2 + 1 y_15_ ^ 2 - 2 y_54_ * y_15_ + 1 y_54_ ^ 2 ] >= 26243.91
quadratic_ranged_73_lb: [ 1 x_47_ ^ 2 - 2 x_54_ * x_47_ + 1 x_54_ ^ 2 + 1 y_47_ ^ 2 - 2 y_54_ * y_47_ + 1 y_54_ ^ 2 ] >= 2908.62
quadratic_ranged_74_lb: [ 1 x_4_ ^ 2 - 2 x_55_ * x_4_ + 1 x_55_ ^ 2 + 1 y_4_ ^ 2 - 2 y_55_ * y_4_ + 1 y_55_ ^ 2 ] >= 4099.59
quadratic_ranged_75_lb: [ 1 x_12_ ^ 2 - 2 x_55_ * x_12_ + 1 x_55_ ^ 2 + 1 y_12_ ^ 2 - 2 y_55_ * y_12_ + 1 y_55_ ^ 2 ] >= 6906.24
quadratic_ranged_76_lb: [ 1 x_42_ ^ 2 - 2 x_55_ * x_42_ + 1 x_55_ ^ 2 + 1 y_42_ ^ 2 - 2 y_55_ * y_42_ + 1 y_55_ ^ 2 ] >= 8278.38
quadratic_ranged_77_lb: [ 1 x_36_ ^ 2 - 2 x_56_ * x_36_ + 1 x_56_ ^ 2 + 1 y_36_ ^ 2 - 2 y_56_ * y_36_ + 1 y_56_ ^ 2 ] >= 10994.94
quadratic_ranged_78_lb: [ 1 x_43_ ^ 2 - 2 x_56_ * x_43_ + 1 x_56_ ^ 2 + 1 y_43_ ^ 2 - 2 y_56_ * y_43_ + 1 y_56_ ^ 2 ] >= 14569.83
quadratic_ranged_79_lb: [ 1 x_1_ ^ 2 - 2 x_57_ * x_1_ + 1 x_57_ ^ 2 + 1 y_1_ ^ 2 - 2 y_57_ * y_1_ + 1 y_57_ ^ 2 ] >= 11771.1
quadratic_ranged_80_lb: [ 1 x_11_ ^ 2 - 2 x_57_ * x_11_ + 1 x_57_ ^ 2 + 1 y_11_ ^ 2 - 2 y_57_ * y_11_ + 1 y_57_ ^ 2 ] >= 5600.43
quadratic_ranged_81_lb: [ 1 x_8_ ^ 2 - 2 x_58_ * x_8_ + 1 x_58_ ^ 2 + 1 y_8_ ^ 2 - 2 y_58_ * y_8_ + 1 y_58_ ^ 2 ] >= 4886.64
quadratic_ranged_82_lb: [ 1 x_14_ ^ 2 - 2 x_58_ * x_14_ + 1 x_58_ ^ 2 + 1 y_14_ ^ 2 - 2 y_58_ * y_14_ + 1 y_58_ ^ 2 ] >= 19686.15
quadratic_ranged_83_lb: [ 1 x_44_ ^ 2 - 2 x_58_ * x_44_ + 1 x_58_ ^ 2 + 1 y_44_ ^ 2 - 2 y_58_ * y_44_ + 1 y_58_ ^ 2 ] >= 24126.3
quadratic_ranged_84_lb: [ 1 x_18_ ^ 2 - 2 x_59_ * x_18_ + 1 x_59_ ^ 2 + 1 y_18_ ^ 2 - 2 y_59_ * y_18_ + 1 y_59_ ^ 2 ] >= 28896.12
quadratic_ranged_85_lb: [ 1 x_24_ ^ 2 - 2 x_59_ * x_24_ + 1 x_59_ ^ 2 + 1 y_24_ ^ 2 - 2 y_59_ * y_24_ + 1 y_59_ ^ 2 ] >= 31534.47
quadratic_ranged_86_lb: [ 1 x_37_ ^ 2 - 2 x_59_ * x_37_ + 1 x_59_ ^ 2 + 1 y_37_ ^ 2 - 2 y_59_ * y_37_ + 1 y_59_ ^ 2 ] >= 25915.23
quadratic_ranged_87_lb: [ 1 x_2_ ^ 2 - 2 x_60_ * x_2_ + 1 x_60_ ^ 2 + 1 y_2_ ^ 2 - 2 y_60_ * y_2_ + 1 y_60_ ^ 2 ] >= 6321.15
quadratic_ranged_88_lb: [ 1 x_31_ ^ 2 - 2 x_60_ * x_31_ + 1 x_60_ ^ 2 + 1 y_31_ ^ 2 - 2 y_60_ * y_31_ + 1 y_60_ ^ 2 ] >= 17706.15
quadratic_ranged_89_lb: [ 1 x_38_ ^ 2 - 2 x_60_ * x_38_ + 1 x_60_ ^ 2 + 1 y_38_ ^ 2 - 2 y_60_ * y_38_ + 1 y_60_ ^ 2 ] >= 9318.87
quadratic_ranged_90_lb: [ 1 x_36_ ^ 2 - 2 x_61_ * x_36_ + 1 x_61_ ^ 2 + 1 y_36_ ^ 2 - 2 y_61_ * y_36_ + 1 y_61_ ^ 2 ] >= 36689.4
quadratic_ranged_91_lb: [ 1 x_38_ ^ 2 - 2 x_61_ * x_38_ + 1 x_61_ ^ 2 + 1 y_38_ ^ 2 - 2 y_61_ * y_38_ + 1 y_61_ ^ 2 ] >= 2226.5099999999998
quadratic_ranged_92_lb: [ 1 x_53_ ^ 2 - 2 x_61_ * x_53_ + 1 x_61_ ^ 2 + 1 y_53_ ^ 2 - 2 y_61_ * y_53_ + 1 y_61_ ^ 2 ] >= 12365.1
quadratic_ranged_93_lb: [ 1 x_34_ ^ 2 - 2 x_62_ * x_34_ + 1 x_62_ ^ 2 + 1 y_34_ ^ 2 - 2 y_62_ * y_34_ + 1 y_62_ ^ 2 ] >= 10771.2
quadratic_ranged_94_lb: [ 1 x_37_ ^ 2 - 2 x_62_ * x_37_ + 1 x_62_ ^ 2 + 1 y_37_ ^ 2 - 2 y_62_ * y_37_ + 1 y_62_ ^ 2 ] >= 12712.59
quadratic_ranged_95_lb: [ 1 x_55_ ^ 2 - 2 x_62_ * x_55_ + 1 x_62_ ^ 2 + 1 y_55_ ^ 2 - 2 y_62_ * y_55_ + 1 y_62_ ^ 2 ] >= 459.36
quadratic_ranged_96_lb: [ 1 x_12_ ^ 2 - 2 x_63_ * x_12_ + 1 x_63_ ^ 2 + 1 y_12_ ^ 2 - 2 y_63_ * y_12_ + 1 y_63_ ^ 2 ] >= 12071.07
quadratic_ranged_97_lb: [ 1 x_16_ ^ 2 - 2 x_63_ * x_16_ + 1 x_63_ ^ 2 + 1 y_16_ ^ 2 - 2 y_63_ * y_16_ + 1 y_63_ ^ 2 ] >= 14245.11
quadratic_ranged_98_lb: [ 1 x_22_ ^ 2 - 2 x_63_ * x_22_ + 1 x_63_ ^ 2 + 1 y_22_ ^ 2 - 2 y_63_ * y_22_ + 1 y_63_ ^ 2 ] >= 11160.27
quadratic_ranged_99_lb: [ 1 x_3_ ^ 2 - 2 x_64_ * x_3_ + 1 x_64_ ^ 2 + 1 y_3_ ^ 2 - 2 y_64_ * y_3_ + 1 y_64_ ^ 2 ] >= 12232.44
quadratic_ranged_100_lb: [ 1 x_1_ ^ 2 - 2 x_65_ * x_1_ + 1 x_65_ ^ 2 + 1 y_1_ ^ 2 - 2 y_65_ * y_1_ + 1 y_65_ ^ 2 ] >= 2742.3
quadratic_ranged_101_lb: [ 1 x_31_ ^ 2 - 2 x_65_ * x_31_ + 1 x_65_ ^ 2 + 1 y_31_ ^ 2 - 2 y_65_ * y_31_ + 1 y_65_ ^ 2 ] >= 15520.23
quadratic_ranged_102_lb: [ 1 x_52_ ^ 2 - 2 x_65_ * x_52_ + 1 x_65_ ^ 2 + 1 y_52_ ^ 2 - 2 y_65_ * y_52_ + 1 y_65_ ^ 2 ] >= 11124.63
quadratic_ranged_103_lb: [ 1 x_1_ ^ 2 - 2 x_66_ * x_1_ + 1 x_66_ ^ 2 + 1 y_1_ ^ 2 - 2 y_66_ * y_1_ + 1 y_66_ ^ 2 ] >= 2235.42
quadratic_ranged_104_lb: [ 1 x_16_ ^ 2 - 2 x_66_ * x_16_ + 1 x_66_ ^ 2 + 1 y_16_ ^ 2 - 2 y_66_ * y_16_ + 1 y_66_ ^ 2 ] >= 1834.47
quadratic_ranged_105_lb: [ 1 x_9_ ^ 2 - 2 x_67_ * x_9_ + 1 x_67_ ^ 2 + 1 y_9_ ^ 2 - 2 y_67_ * y_9_ + 1 y_67_ ^ 2 ] >= 20227.68
quadratic_ranged_106_lb: [ 1 x_10_ ^ 2 - 2 x_67_ * x_10_ + 1 x_67_ ^ 2 + 1 y_10_ ^ 2 - 2 y_67_ * y_10_ + 1 y_67_ ^ 2 ] >= 10075.23
quadratic_ranged_107_lb: [ 1 x_38_ ^ 2 - 2 x_67_ * x_38_ + 1 x_67_ ^ 2 + 1 y_38_ ^ 2 - 2 y_67_ * y_38_ + 1 y_67_ ^ 2 ] >= 7375.5
quadratic_ranged_108_lb: [ 1 x_13_ ^ 2 - 2 x_68_ * x_13_ + 1 x_68_ ^ 2 + 1 y_13_ ^ 2 - 2 y_68_ * y_13_ + 1 y_68_ ^ 2 ] >= 4028.31
quadratic_ranged_109_lb: [ 1 x_39_ ^ 2 - 2 x_68_ * x_39_ + 1 x_68_ ^ 2 + 1 y_39_ ^ 2 - 2 y_68_ * y_39_ + 1 y_68_ ^ 2 ] >= 7168.59
quadratic_ranged_110_lb: [ 1 x_6_ ^ 2 - 2 x_69_ * x_6_ + 1 x_69_ ^ 2 + 1 y_6_ ^ 2 - 2 y_69_ * y_6_ + 1 y_69_ ^ 2 ] >= 19904.94
quadratic_ranged_111_lb: [ 1 x_52_ ^ 2 - 2 x_69_ * x_52_ + 1 x_69_ ^ 2 + 1 y_52_ ^ 2 - 2 y_69_ * y_52_ + 1 y_69_ ^ 2 ] >= 12042.36
quadratic_ranged_112_lb: [ 1 x_60_ ^ 2 - 2 x_69_ * x_60_ + 1 x_69_ ^ 2 + 1 y_60_ ^ 2 - 2 y_69_ * y_60_ + 1 y_69_ ^ 2 ] >= 151.47
quadratic_ranged_113_lb: [ 1 x_1_ ^ 2 - 2 x_70_ * x_1_ + 1 x_70_ ^ 2 + 1 y_1_ ^ 2 - 2 y_70_ * y_1_ + 1 y_70_ ^ 2 ] >= 9283.23
quadratic_ranged_114_lb: [ 1 x_28_ ^ 2 - 2 x_70_ * x_28_ + 1 x_70_ ^ 2 + 1 y_28_ ^ 2 - 2 y_70_ * y_28_ + 1 y_70_ ^ 2 ] >= 15745.95
quadratic_ranged_115_lb: [ 1 x_30_ ^ 2 - 2 x_70_ * x_30_ + 1 x_70_ ^ 2 + 1 y_30_ ^ 2 - 2 y_70_ * y_30_ + 1 y_70_ ^ 2 ] >= 30177.18
quadratic_ranged_116_lb: [ 1 x_15_ ^ 2 - 2 x_71_ * x_15_ + 1 x_71_ ^ 2 + 1 y_15_ ^ 2 - 2 y_71_ * y_15_ + 1 y_71_ ^ 2 ] >= 7924.95
quadratic_ranged_117_lb: [ 1 x_38_ ^ 2 - 2 x_71_ * x_38_ + 1 x_71_ ^ 2 + 1 y_38_ ^ 2 - 2 y_71_ * y_38_ + 1 y_71_ ^ 2 ] >= 9276.3
quadratic_ranged_118_lb: [ 1 x_52_ ^ 2 - 2 x_72_ * x_52_ + 1 x_72_ ^ 2 + 1 y_52_ ^ 2 - 2 y_72_ * y_52_ + 1 y_72_ ^ 2 ] >= 444.51
quadratic_ranged_119_lb: [ 1 x_69_ ^ 2 - 2 x_72_ * x_69_ + 1 x_72_ ^ 2 + 1 y_69_ ^ 2 - 2 y_72_ * y_69_ + 1 y_72_ ^ 2 ] >= 13694.67
quadratic_ranged_120_lb: [ 1 x_55_ ^ 2 - 2 x_73_ * x_55_ + 1 x_73_ ^ 2 + 1 y_55_ ^ 2 - 2 y_73_ * y_55_ + 1 y_73_ ^ 2 ] >= 5873.67
quadratic_ranged_121_lb: [ 1 x_64_ ^ 2 - 2 x_73_ * x_64_ + 1 x_73_ ^ 2 + 1 y_64_ ^ 2 - 2 y_73_ * y_64_ + 1 y_73_ ^ 2 ] >= 12474.99
quadratic_ranged_122_lb: [ 1 x_72_ ^ 2 - 2 x_73_ * x_72_ + 1 x_73_ ^ 2 + 1 y_72_ ^ 2 - 2 y_73_ * y_72_ + 1 y_73_ ^ 2 ] >= 15364.8
quadratic_ranged_123_lb: [ 1 x_16_ ^ 2 - 2 x_74_ * x_16_ + 1 x_74_ ^ 2 + 1 y_16_ ^ 2 - 2 y_74_ * y_16_ + 1 y_74_ ^ 2 ] >= 14177.789999999999
quadratic_ranged_124_lb: [ 1 x_27_ ^ 2 - 2 x_74_ * x_27_ + 1 x_74_ ^ 2 + 1 y_27_ ^ 2 - 2 y_74_ * y_27_ + 1 y_74_ ^ 2 ] >= 5149.98
quadratic_ranged_125_lb: [ 1 x_1_ ^ 2 - 2 x_75_ * x_1_ + 1 x_75_ ^ 2 + 1 y_1_ ^ 2 - 2 y_75_ * y_1_ + 1 y_75_ ^ 2 ] >= 2333.43
quadratic_ranged_126_lb: [ 1 x_17_ ^ 2 - 2 x_75_ * x_17_ + 1 x_75_ ^ 2 + 1 y_17_ ^ 2 - 2 y_75_ * y_17_ + 1 y_75_ ^ 2 ] >= 4387.68
quadratic_ranged_127_lb: [ 1 x_41_ ^ 2 - 2 x_75_ * x_41_ + 1 x_75_ ^ 2 + 1 y_41_ ^ 2 - 2 y_75_ * y_41_ + 1 y_75_ ^ 2 ] >= 2895.75
quadratic_ranged_128_lb: [ 1 x_1_ ^ 2 - 2 x_76_ * x_1_ + 1 x_76_ ^ 2 + 1 y_1_ ^ 2 - 2 y_76_ * y_1_ + 1 y_76_ ^ 2 ] >= 9845.55
quadratic_ranged_129_lb: [ 1 x_23_ ^ 2 - 2 x_76_ * x_23_ + 1 x_76_ ^ 2 + 1 y_23_ ^ 2 - 2 y_76_ * y_23_ + 1 y_76_ ^ 2 ] >= 19586.16
quadratic_ranged_130_lb: [ 1 x_47_ ^ 2 - 2 x_76_ * x_47_ + 1 x_76_ ^ 2 + 1 y_47_ ^ 2 - 2 y_76_ * y_47_ + 1 y_76_ ^ 2 ] >= 13497.66
quadratic_ranged_131_lb: [ 1 x_3_ ^ 2 - 2 x_77_ * x_3_ + 1 x_77_ ^ 2 + 1 y_3_ ^ 2 - 2 y_77_ * y_3_ + 1 y_77_ ^ 2 ] >= 30354.39
quadratic_ranged_132_lb: [ 1 x_10_ ^ 2 - 2 x_77_ * x_10_ + 1 x_77_ ^ 2 + 1 y_10_ ^ 2 - 2 y_77_ * y_10_ + 1 y_77_ ^ 2 ] >= 2170.08
quadratic_ranged_133_lb: [ 1 x_24_ ^ 2 - 2 x_77_ * x_24_ + 1 x_77_ ^ 2 + 1 y_24_ ^ 2 - 2 y_77_ * y_24_ + 1 y_77_ ^ 2 ] >= 22320.54
quadratic_ranged_134_lb: [ 1 x_4_ ^ 2 - 2 x_78_ * x_4_ + 1 x_78_ ^ 2 + 1 y_4_ ^ 2 - 2 y_78_ * y_4_ + 1 y_78_ ^ 2 ] >= 18938.7
quadratic_ranged_135_lb: [ 1 x_45_ ^ 2 - 2 x_78_ * x_45_ + 1 x_78_ ^ 2 + 1 y_45_ ^ 2 - 2 y_78_ * y_45_ + 1 y_78_ ^ 2 ] >= 24096.6
quadratic_ranged_136_lb: [ 1 x_48_ ^ 2 - 2 x_78_ * x_48_ + 1 x_78_ ^ 2 + 1 y_48_ ^ 2 - 2 y_78_ * y_48_ + 1 y_78_ ^ 2 ] >= 13952.07
quadratic_ranged_137_lb: [ 1 x_17_ ^ 2 - 2 x_79_ * x_17_ + 1 x_79_ ^ 2 + 1 y_17_ ^ 2 - 2 y_79_ * y_17_ + 1 y_79_ ^ 2 ] >= 14336.19
quadratic_ranged_138_lb: [ 1 x_62_ ^ 2 - 2 x_79_ * x_62_ + 1 x_79_ ^ 2 + 1 y_62_ ^ 2 - 2 y_79_ * y_62_ + 1 y_79_ ^ 2 ] >= 6974.55
quadratic_ranged_139_lb: [ 1 x_5_ ^ 2 - 2 x_80_ * x_5_ + 1 x_80_ ^ 2 + 1 y_5_ ^ 2 - 2 y_80_ * y_5_ + 1 y_80_ ^ 2 ] >= 2095.83
quadratic_ranged_140_lb: [ 1 x_13_ ^ 2 - 2 x_80_ * x_13_ + 1 x_80_ ^ 2 + 1 y_13_ ^ 2 - 2 y_80_ * y_13_ + 1 y_80_ ^ 2 ] >= 5073.75
quadratic_ranged_141_lb: [ 1 x_64_ ^ 2 - 2 x_80_ * x_64_ + 1 x_80_ ^ 2 + 1 y_64_ ^ 2 - 2 y_80_ * y_64_ + 1 y_80_ ^ 2 ] >= 1980
quadratic_ranged_142_lb: [ 1 x_7_ ^ 2 - 2 x_81_ * x_7_ + 1 x_81_ ^ 2 + 1 y_7_ ^ 2 - 2 y_81_ * y_7_ + 1 y_81_ ^ 2 ] >= 20797.92
quadratic_ranged_143_lb: [ 1 x_74_ ^ 2 - 2 x_81_ * x_74_ + 1 x_81_ ^ 2 + 1 y_74_ ^ 2 - 2 y_81_ * y_74_ + 1 y_81_ ^ 2 ] >= 16724.07
quadratic_ranged_144_lb: [ 1 x_77_ ^ 2 - 2 x_81_ * x_77_ + 1 x_81_ ^ 2 + 1 y_77_ ^ 2 - 2 y_81_ * y_77_ + 1 y_81_ ^ 2 ] >= 191.07
quadratic_ranged_145_lb: [ 1 x_6_ ^ 2 - 2 x_82_ * x_6_ + 1 x_82_ ^ 2 + 1 y_6_ ^ 2 - 2 y_82_ * y_6_ + 1 y_82_ ^ 2 ] >= 8970.39
quadratic_ranged_146_lb: [ 1 x_13_ ^ 2 - 2 x_82_ * x_13_ + 1 x_82_ ^ 2 + 1 y_13_ ^ 2 - 2 y_82_ * y_13_ + 1 y_82_ ^ 2 ] >= 17043.84
quadratic_ranged_147_lb: [ 1 x_75_ ^ 2 - 2 x_82_ * x_75_ + 1 x_82_ ^ 2 + 1 y_75_ ^ 2 - 2 y_82_ * y_75_ + 1 y_82_ ^ 2 ] >= 11481.03
quadratic_ranged_148_lb: [ 1 x_30_ ^ 2 - 2 x_83_ * x_30_ + 1 x_83_ ^ 2 + 1 y_30_ ^ 2 - 2 y_83_ * y_30_ + 1 y_83_ ^ 2 ] >= 24287.67
quadratic_ranged_149_lb: [ 1 x_48_ ^ 2 - 2 x_83_ * x_48_ + 1 x_83_ ^ 2 + 1 y_48_ ^ 2 - 2 y_83_ * y_48_ + 1 y_83_ ^ 2 ] >= 14993.55
quadratic_ranged_150_lb: [ 1 x_56_ ^ 2 - 2 x_83_ * x_56_ + 1 x_83_ ^ 2 + 1 y_56_ ^ 2 - 2 y_83_ * y_56_ + 1 y_83_ ^ 2 ] >= 6615.18
quadratic_ranged_151_lb: [ 1 x_40_ ^ 2 - 2 x_84_ * x_40_ + 1 x_84_ ^ 2 + 1 y_40_ ^ 2 - 2 y_84_ * y_40_ + 1 y_84_ ^ 2 ] >= 17516.07
quadratic_ranged_152_lb: [ 1 x_51_ ^ 2 - 2 x_84_ * x_51_ + 1 x_84_ ^ 2 + 1 y_51_ ^ 2 - 2 y_84_ * y_51_ + 1 y_84_ ^ 2 ] >= 3755.07
quadratic_ranged_153_lb: [ 1 x_28_ ^ 2 - 2 x_85_ * x_28_ + 1 x_85_ ^ 2 + 1 y_28_ ^ 2 - 2 y_85_ * y_28_ + 1 y_85_ ^ 2 ] >= 19737.63
quadratic_ranged_154_lb: [ 1 x_43_ ^ 2 - 2 x_85_ * x_43_ + 1 x_85_ ^ 2 + 1 y_43_ ^ 2 - 2 y_85_ * y_43_ + 1 y_85_ ^ 2 ] >= 19207.98
quadratic_ranged_155_lb: [ 1 x_20_ ^ 2 - 2 x_86_ * x_20_ + 1 x_86_ ^ 2 + 1 y_20_ ^ 2 - 2 y_86_ * y_20_ + 1 y_86_ ^ 2 ] >= 11310.75
quadratic_ranged_156_lb: [ 1 x_21_ ^ 2 - 2 x_86_ * x_21_ + 1 x_86_ ^ 2 + 1 y_21_ ^ 2 - 2 y_86_ * y_21_ + 1 y_86_ ^ 2 ] >= 4875.75
quadratic_ranged_157_lb: [ 1 x_64_ ^ 2 - 2 x_86_ * x_64_ + 1 x_86_ ^ 2 + 1 y_64_ ^ 2 - 2 y_86_ * y_64_ + 1 y_86_ ^ 2 ] >= 13774.86
quadratic_ranged_158_lb: [ 1 x_13_ ^ 2 - 2 x_87_ * x_13_ + 1 x_87_ ^ 2 + 1 y_13_ ^ 2 - 2 y_87_ * y_13_ + 1 y_87_ ^ 2 ] >= 10578.15
quadratic_ranged_159_lb: [ 1 x_19_ ^ 2 - 2 x_87_ * x_19_ + 1 x_87_ ^ 2 + 1 y_19_ ^ 2 - 2 y_87_ * y_19_ + 1 y_87_ ^ 2 ] >= 11525.58
quadratic_ranged_160_lb: [ 1 x_64_ ^ 2 - 2 x_87_ * x_64_ + 1 x_87_ ^ 2 + 1 y_64_ ^ 2 - 2 y_87_ * y_64_ + 1 y_87_ ^ 2 ] >= 5385.6
quadratic_ranged_161_lb: [ 1 x_47_ ^ 2 - 2 x_88_ * x_47_ + 1 x_88_ ^ 2 + 1 y_47_ ^ 2 - 2 y_88_ * y_47_ + 1 y_88_ ^ 2 ] >= 2959.11
quadratic_ranged_162_lb: [ 1 x_71_ ^ 2 - 2 x_88_ * x_71_ + 1 x_88_ ^ 2 + 1 y_71_ ^ 2 - 2 y_88_ * y_71_ + 1 y_88_ ^ 2 ] >= 16577.55
quadratic_ranged_163_lb: [ 1 x_84_ ^ 2 - 2 x_88_ * x_84_ + 1 x_88_ ^ 2 + 1 y_84_ ^ 2 - 2 y_88_ * y_84_ + 1 y_88_ ^ 2 ] >= 17285.4
quadratic_ranged_164_lb: [ 1 x_2_ ^ 2 - 2 x_89_ * x_2_ + 1 x_89_ ^ 2 + 1 y_2_ ^ 2 - 2 y_89_ * y_2_ + 1 y_89_ ^ 2 ] >= 7874.46
quadratic_ranged_165_lb: [ 1 x_47_ ^ 2 - 2 x_89_ * x_47_ + 1 x_89_ ^ 2 + 1 y_47_ ^ 2 - 2 y_89_ * y_47_ + 1 y_89_ ^ 2 ] >= 2829.42
quadratic_ranged_166_lb: [ 1 x_53_ ^ 2 - 2 x_89_ * x_53_ + 1 x_89_ ^ 2 + 1 y_53_ ^ 2 - 2 y_89_ * y_53_ + 1 y_89_ ^ 2 ] >= 7390.35
quadratic_ranged_167_lb: [ 1 x_5_ ^ 2 - 2 x_90_ * x_5_ + 1 x_90_ ^ 2 + 1 y_5_ ^ 2 - 2 y_90_ * y_5_ + 1 y_90_ ^ 2 ] >= 19303.02
quadratic_ranged_168_lb: [ 1 x_23_ ^ 2 - 2 x_90_ * x_23_ + 1 x_90_ ^ 2 + 1 y_23_ ^ 2 - 2 y_90_ * y_23_ + 1 y_90_ ^ 2 ] >= 7608.15
quadratic_ranged_169_lb: [ 1 x_48_ ^ 2 - 2 x_90_ * x_48_ + 1 x_90_ ^ 2 + 1 y_48_ ^ 2 - 2 y_90_ * y_48_ + 1 y_90_ ^ 2 ] >= 14154.03
quadratic_ranged_170_lb: [ 1 x_15_ ^ 2 - 2 x_91_ * x_15_ + 1 x_91_ ^ 2 + 1 y_15_ ^ 2 - 2 y_91_ * y_15_ + 1 y_91_ ^ 2 ] >= 7153.74
quadratic_ranged_171_lb: [ 1 x_19_ ^ 2 - 2 x_91_ * x_19_ + 1 x_91_ ^ 2 + 1 y_19_ ^ 2 - 2 y_91_ * y_19_ + 1 y_91_ ^ 2 ] >= 5457.87
quadratic_ranged_172_lb: [ 1 x_47_ ^ 2 - 2 x_91_ * x_47_ + 1 x_91_ ^ 2 + 1 y_47_ ^ 2 - 2 y_91_ * y_47_ + 1 y_91_ ^ 2 ] >= 1786.95
quadratic_ranged_173_lb: [ 1 x_44_ ^ 2 - 2 x_92_ * x_44_ + 1 x_92_ ^ 2 + 1 y_44_ ^ 2 - 2 y_92_ * y_44_ + 1 y_92_ ^ 2 ] >= 12201.75
quadratic_ranged_174_lb: [ 1 x_61_ ^ 2 - 2 x_92_ * x_61_ + 1 x_92_ ^ 2 + 1 y_61_ ^ 2 - 2 y_92_ * y_61_ + 1 y_92_ ^ 2 ] >= 22116.6
quadratic_ranged_175_lb: [ 1 x_68_ ^ 2 - 2 x_92_ * x_68_ + 1 x_92_ ^ 2 + 1 y_68_ ^ 2 - 2 y_92_ * y_68_ + 1 y_92_ ^ 2 ] >= 16692.39
quadratic_ranged_176_lb: [ 1 x_54_ ^ 2 - 2 x_93_ * x_54_ + 1 x_93_ ^ 2 + 1 y_54_ ^ 2 - 2 y_93_ * y_54_ + 1 y_93_ ^ 2 ] >= 31839.39
quadratic_ranged_177_lb: [ 1 x_71_ ^ 2 - 2 x_93_ * x_71_ + 1 x_93_ ^ 2 + 1 y_71_ ^ 2 - 2 y_93_ * y_71_ + 1 y_93_ ^ 2 ] >= 8768.43
quadratic_ranged_178_lb: [ 1 x_85_ ^ 2 - 2 x_93_ * x_85_ + 1 x_93_ ^ 2 + 1 y_85_ ^ 2 - 2 y_93_ * y_85_ + 1 y_93_ ^ 2 ] >= 23566.95
quadratic_ranged_179_lb: [ 1 x_7_ ^ 2 - 2 x_94_ * x_7_ + 1 x_94_ ^ 2 + 1 y_7_ ^ 2 - 2 y_94_ * y_7_ + 1 y_94_ ^ 2 ] >= 2510.64
quadratic_ranged_180_lb: [ 1 x_66_ ^ 2 - 2 x_94_ * x_66_ + 1 x_94_ ^ 2 + 1 y_66_ ^ 2 - 2 y_94_ * y_66_ + 1 y_94_ ^ 2 ] >= 559.35
quadratic_ranged_181_lb: [ 1 x_79_ ^ 2 - 2 x_94_ * x_79_ + 1 x_94_ ^ 2 + 1 y_79_ ^ 2 - 2 y_94_ * y_79_ + 1 y_94_ ^ 2 ] >= 8780.31
quadratic_ranged_182_lb: [ 1 x_13_ ^ 2 - 2 x_95_ * x_13_ + 1 x_95_ ^ 2 + 1 y_13_ ^ 2 - 2 y_95_ * y_13_ + 1 y_95_ ^ 2 ] >= 3481.83
quadratic_ranged_183_lb: [ 1 x_57_ ^ 2 - 2 x_95_ * x_57_ + 1 x_95_ ^ 2 + 1 y_57_ ^ 2 - 2 y_95_ * y_57_ + 1 y_95_ ^ 2 ] >= 1058.31
quadratic_ranged_184_lb: [ 1 x_81_ ^ 2 - 2 x_95_ * x_81_ + 1 x_95_ ^ 2 + 1 y_81_ ^ 2 - 2 y_95_ * y_81_ + 1 y_95_ ^ 2 ] >= 16255.8
quadratic_ranged_185_lb: [ 1 x_46_ ^ 2 - 2 x_96_ * x_46_ + 1 x_96_ ^ 2 + 1 y_46_ ^ 2 - 2 y_96_ * y_46_ + 1 y_96_ ^ 2 ] >= 13195.71
quadratic_ranged_186_lb: [ 1 x_47_ ^ 2 - 2 x_96_ * x_47_ + 1 x_96_ ^ 2 + 1 y_47_ ^ 2 - 2 y_96_ * y_47_ + 1 y_96_ ^ 2 ] >= 7251.75
quadratic_ranged_187_lb: [ 1 x_76_ ^ 2 - 2 x_96_ * x_76_ + 1 x_96_ ^ 2 + 1 y_76_ ^ 2 - 2 y_96_ * y_76_ + 1 y_96_ ^ 2 ] >= 31158.27
quadratic_ranged_188_lb: [ 1 x_4_ ^ 2 - 2 x_97_ * x_4_ + 1 x_97_ ^ 2 + 1 y_4_ ^ 2 - 2 y_97_ * y_4_ + 1 y_97_ ^ 2 ] >= 3671.91
quadratic_ranged_189_lb: [ 1 x_14_ ^ 2 - 2 x_97_ * x_14_ + 1 x_97_ ^ 2 + 1 y_14_ ^ 2 - 2 y_97_ * y_14_ + 1 y_97_ ^ 2 ] >= 2780.91
quadratic_ranged_190_lb: [ 1 x_33_ ^ 2 - 2 x_98_ * x_33_ + 1 x_98_ ^ 2 + 1 y_33_ ^ 2 - 2 y_98_ * y_33_ + 1 y_98_ ^ 2 ] >= 27690.3
quadratic_ranged_191_lb: [ 1 x_49_ ^ 2 - 2 x_98_ * x_49_ + 1 x_98_ ^ 2 + 1 y_49_ ^ 2 - 2 y_98_ * y_49_ + 1 y_98_ ^ 2 ] >= 16974.54
quadratic_ranged_192_lb: [ 1 x_61_ ^ 2 - 2 x_98_ * x_61_ + 1 x_98_ ^ 2 + 1 y_61_ ^ 2 - 2 y_98_ * y_61_ + 1 y_98_ ^ 2 ] >= 23701.59
quadratic_ranged_193_lb: [ 1 x_30_ ^ 2 - 2 x_99_ * x_30_ + 1 x_99_ ^ 2 + 1 y_30_ ^ 2 - 2 y_99_ * y_30_ + 1 y_99_ ^ 2 ] >= 22225.5
quadratic_ranged_194_lb: [ 1 x_33_ ^ 2 - 2 x_99_ * x_33_ + 1 x_99_ ^ 2 + 1 y_33_ ^ 2 - 2 y_99_ * y_33_ + 1 y_99_ ^ 2 ] >= 891
quadratic_ranged_195_lb: [ 1 x_45_ ^ 2 - 2 x_99_ * x_45_ + 1 x_99_ ^ 2 + 1 y_45_ ^ 2 - 2 y_99_ * y_45_ + 1 y_99_ ^ 2 ] >= 33724.35
quadratic_ranged_196_lb: [ 1 x_49_ ^ 2 - 2 x_100_ * x_49_ + 1 x_100_ ^ 2 + 1 y_49_ ^ 2 - 2 y_100_ * y_49_ + 1 y_100_ ^ 2 ] >= 5600.43
quadratic_ranged_197_lb: [ 1 x_80_ ^ 2 - 2 x_100_ * x_80_ + 1 x_100_ ^ 2 + 1 y_80_ ^ 2 - 2 y_100_ * y_80_ + 1 y_100_ ^ 2 ] >= 19115.91
quadratic_ranged_198_lb: [ 1 x_97_ ^ 2 - 2 x_100_ * x_97_ + 1 x_100_ ^ 2 + 1 y_97_ ^ 2 - 2 y_100_ * y_97_ + 1 y_100_ ^ 2 ] >= 8277.39
c1_1: 1 x_11_ = 0
c2_1: 1 y_11_ = 0
c3_1: 1 x_3_ - 1 x_59_ = 0
c4_1: 1 y_3_ - 1 y_59_ = 0
Bounds
-151 <= x_1_ <= 151
-353 <= x_2_ <= 353
-273 <= x_3_ <= 273
-93 <= x_4_ <= 93
-286 <= x_5_ <= 286
-319 <= x_6_ <= 319
-273 <= x_7_ <= 273
-163 <= x_8_ <= 163
-156 <= x_9_ <= 156
-231 <= x_10_ <= 231
x_11_ = 0
-242 <= x_12_ <= 242
-168 <= x_13_ <= 168
-203 <= x_14_ <= 203
-355 <= x_15_ <= 355
-242 <= x_16_ <= 242
-215 <= x_17_ <= 215
-270 <= x_18_ <= 270
-380 <= x_19_ <= 380
-58 <= x_20_ <= 58
-230 <= x_21_ <= 230
-244 <= x_22_ <= 244
-181 <= x_23_ <= 181
-249 <= x_24_ <= 249
-199 <= x_25_ <= 199
-326 <= x_26_ <= 326
-122 <= x_27_ <= 122
-87 <= x_28_ <= 87
-268 <= x_29_ <= 268
-317 <= x_30_ <= 317
-330 <= x_31_ <= 330
-406 <= x_32_ <= 406
-352 <= x_33_ <= 352
-285 <= x_34_ <= 285
-274 <= x_35_ <= 274
-274 <= x_36_ <= 274
-294 <= x_37_ <= 294
-231 <= x_38_ <= 231
-257 <= x_39_ <= 257
-349 <= x_40_ <= 349
-208 <= x_41_ <= 208
-249 <= x_42_ <= 249
-369 <= x_43_ <= 369
-391 <= x_44_ <= 391
-213 <= x_45_ <= 213
-303 <= x_46_ <= 303
-369 <= x_47_ <= 369
-306 <= x_48_ <= 306
-52 <= x_49_ <= 52
-317 <= x_50_ <= 317
-261 <= x_51_ <= 261
-311 <= x_52_ <= 311
-388 <= x_53_ <= 388
-423 <= x_54_ <= 423
-158 <= x_55_ <= 158
-380 <= x_56_ <= 380
-75 <= x_57_ <= 75
-234 <= x_58_ <= 234
-429 <= x_59_ <= 429
-328 <= x_60_ <= 328
-278 <= x_61_ <= 278
-180 <= x_62_ <= 180
-350 <= x_63_ <= 350
-284 <= x_64_ <= 284
-204 <= x_65_ <= 204
-199 <= x_66_ <= 199
-299 <= x_67_ <= 299
-232 <= x_68_ <= 232
-341 <= x_69_ <= 341
-214 <= x_70_ <= 214
-328 <= x_71_ <= 328
-332 <= x_72_ <= 332
-235 <= x_73_ <= 235
-195 <= x_74_ <= 195
-200 <= x_75_ <= 200
-251 <= x_76_ <= 251
-251 <= x_77_ <= 251
-232 <= x_78_ <= 232
-264 <= x_79_ <= 264
-239 <= x_80_ <= 239
-237 <= x_81_ <= 237
-299 <= x_82_ <= 299
-430 <= x_83_ <= 430
-323 <= x_84_ <= 323
-229 <= x_85_ <= 229
-165 <= x_86_ <= 165
-271 <= x_87_ <= 271
-424 <= x_88_ <= 424
-422 <= x_89_ <= 422
-269 <= x_90_ <= 269
-411 <= x_91_ <= 411
-362 <= x_92_ <= 362
-384 <= x_93_ <= 384
-223 <= x_94_ <= 223
-108 <= x_95_ <= 108
-419 <= x_96_ <= 419
-155 <= x_97_ <= 155
-184 <= x_98_ <= 184
-382 <= x_99_ <= 382
-128 <= x_100_ <= 128
-151 <= y_1_ <= 151
-353 <= y_2_ <= 353
-273 <= y_3_ <= 273
-93 <= y_4_ <= 93
-286 <= y_5_ <= 286
-319 <= y_6_ <= 319
-273 <= y_7_ <= 273
-163 <= y_8_ <= 163
-156 <= y_9_ <= 156
-231 <= y_10_ <= 231
y_11_ = 0
-242 <= y_12_ <= 242
-168 <= y_13_ <= 168
-203 <= y_14_ <= 203
-355 <= y_15_ <= 355
-242 <= y_16_ <= 242
-215 <= y_17_ <= 215
-270 <= y_18_ <= 270
-380 <= y_19_ <= 380
-58 <= y_20_ <= 58
-230 <= y_21_ <= 230
-244 <= y_22_ <= 244
-181 <= y_23_ <= 181
-249 <= y_24_ <= 249
-199 <= y_25_ <= 199
-326 <= y_26_ <= 326
-122 <= y_27_ <= 122
-87 <= y_28_ <= 87
-268 <= y_29_ <= 268
-317 <= y_30_ <= 317
-330 <= y_31_ <= 330
-406 <= y_32_ <= 406
-352 <= y_33_ <= 352
-285 <= y_34_ <= 285
-274 <= y_35_ <= 274
-274 <= y_36_ <= 274
-294 <= y_37_ <= 294
-231 <= y_38_ <= 231
-257 <= y_39_ <= 257
-349 <= y_40_ <= 349
-208 <= y_41_ <= 208
-249 <= y_42_ <= 249
-369 <= y_43_ <= 369
-391 <= y_44_ <= 391
-213 <= y_45_ <= 213
-303 <= y_46_ <= 303
-369 <= y_47_ <= 369
-306 <= y_48_ <= 306
-52 <= y_49_ <= 52
-317 <= y_50_ <= 317
-261 <= y_51_ <= 261
-311 <= y_52_ <= 311
-388 <= y_53_ <= 388
-423 <= y_54_ <= 423
-158 <= y_55_ <= 158
-380 <= y_56_ <= 380
-75 <= y_57_ <= 75
-234 <= y_58_ <= 234
-429 <= y_59_ <= 429
-328 <= y_60_ <= 328
-278 <= y_61_ <= 278
-180 <= y_62_ <= 180
-350 <= y_63_ <= 350
-284 <= y_64_ <= 284
-204 <= y_65_ <= 204
-199 <= y_66_ <= 199
-299 <= y_67_ <= 299
-232 <= y_68_ <= 232
-341 <= y_69_ <= 341
-214 <= y_70_ <= 214
-328 <= y_71_ <= 328
-332 <= y_72_ <= 332
-235 <= y_73_ <= 235
-195 <= y_74_ <= 195
-200 <= y_75_ <= 200
-251 <= y_76_ <= 251
-251 <= y_77_ <= 251
-232 <= y_78_ <= 232
-264 <= y_79_ <= 264
-239 <= y_80_ <= 239
-237 <= y_81_ <= 237
-299 <= y_82_ <= 299
-430 <= y_83_ <= 430
-323 <= y_84_ <= 323
-229 <= y_85_ <= 229
-165 <= y_86_ <= 165
-271 <= y_87_ <= 271
-424 <= y_88_ <= 424
-422 <= y_89_ <= 422
-269 <= y_90_ <= 269
-411 <= y_91_ <= 411
-362 <= y_92_ <= 362
-384 <= y_93_ <= 384
-223 <= y_94_ <= 223
-108 <= y_95_ <= 108
-419 <= y_96_ <= 419
-155 <= y_97_ <= 155
-184 <= y_98_ <= 184
-382 <= y_99_ <= 382
-128 <= y_100_ <= 128
General
x_1_
x_2_
x_3_
x_4_
x_5_
x_6_
x_7_
x_8_
x_9_
x_10_
x_11_
x_12_
x_13_
x_14_
x_15_
x_16_
x_17_
x_18_
x_19_
x_20_
x_21_
x_22_
x_23_
x_24_
x_25_
x_26_
x_27_
x_28_
x_29_
x_30_
x_31_
x_32_
x_33_
x_34_
x_35_
x_36_
x_37_
x_38_
x_39_
x_40_
x_41_
x_42_
x_43_
x_44_
x_45_
x_46_
x_47_
x_48_
x_49_
x_50_
x_51_
x_52_
x_53_
x_54_
x_55_
x_56_
x_57_
x_58_
x_59_
x_60_
x_61_
x_62_
x_63_
x_64_
x_65_
x_66_
x_67_
x_68_
x_69_
x_70_
x_71_
x_72_
x_73_
x_74_
x_75_
x_76_
x_77_
x_78_
x_79_
x_80_
x_81_
x_82_
x_83_
x_84_
x_85_
x_86_
x_87_
x_88_
x_89_
x_90_
x_91_
x_92_
x_93_
x_94_
x_95_
x_96_
x_97_
x_98_
x_99_
x_100_
y_1_
y_2_
y_3_
y_4_
y_5_
y_6_
y_7_
y_8_
y_9_
y_10_
y_11_
y_12_
y_13_
y_14_
y_15_
y_16_
y_17_
y_18_
y_19_
y_20_
y_21_
y_22_
y_23_
y_24_
y_25_
y_26_
y_27_
y_28_
y_29_
y_30_
y_31_
y_32_
y_33_
y_34_
y_35_
y_36_
y_37_
y_38_
y_39_
y_40_
y_41_
y_42_
y_43_
y_44_
y_45_
y_46_
y_47_
y_48_
y_49_
y_50_
y_51_
y_52_
y_53_
y_54_
y_55_
y_56_
y_57_
y_58_
y_59_
y_60_
y_61_
y_62_
y_63_
y_64_
y_65_
y_66_
y_67_
y_68_
y_69_
y_70_
y_71_
y_72_
y_73_
y_74_
y_75_
y_76_
y_77_
y_78_
y_79_
y_80_
y_81_
y_82_
y_83_
y_84_
y_85_
y_86_
y_87_
y_88_
y_89_
y_90_
y_91_
y_92_
y_93_
y_94_
y_95_
y_96_
y_97_
y_98_
y_99_
y_100_
End
