minimize
obj: 
subject to
c1_1: -20 x_1_ + 72 y_1_ + [ 1 x_1_ ^ 2 + 1 y_1_ ^ 2 ] <= 110603
c2_1: -20 x_2_ + 72 y_2_ + [ 1 x_2_ ^ 2 + 1 y_2_ ^ 2 ] <= 189469
c3_1: -20 x_3_ + 72 y_3_ + [ 1 x_3_ ^ 2 + 1 y_3_ ^ 2 ] <= 69963
c4_1: -20 x_4_ + 72 y_4_ + [ 1 x_4_ ^ 2 + 1 y_4_ ^ 2 ] <= 148176
c5_1: -20 x_5_ + 72 y_5_ + [ 1 x_5_ ^ 2 + 1 y_5_ ^ 2 ] <= 141058
c6_1: -20 x_6_ + 72 y_6_ + [ 1 x_6_ ^ 2 + 1 y_6_ ^ 2 ] <= 114972
c7_1: -20 x_7_ + 72 y_7_ + [ 1 x_7_ ^ 2 + 1 y_7_ ^ 2 ] <= 80852
c8_1: -20 x_8_ + 72 y_8_ + [ 1 x_8_ ^ 2 + 1 y_8_ ^ 2 ] <= 120402
c9_1: -20 x_9_ + 72 y_9_ + [ 1 x_9_ ^ 2 + 1 y_9_ ^ 2 ] <= 63611
c10_1: -20 x_10_ + 72 y_10_ + [ 1 x_10_ ^ 2 + 1 y_10_ ^ 2 ] <= 49320
c11_1: -20 x_11_ + 72 y_11_ + [ 1 x_11_ ^ 2 + 1 y_11_ ^ 2 ] <= 98082
c12_1: -20 x_12_ + 72 y_12_ + [ 1 x_12_ ^ 2 + 1 y_12_ ^ 2 ] <= 138240
c13_1: -20 x_13_ + 72 y_13_ + [ 1 x_13_ ^ 2 + 1 y_13_ ^ 2 ] <= 181460
c14_1: -20 x_14_ + 72 y_14_ + [ 1 x_14_ ^ 2 + 1 y_14_ ^ 2 ] <= 139756
c15_1: -20 x_15_ + 72 y_15_ + [ 1 x_15_ ^ 2 + 1 y_15_ ^ 2 ] <= 133279
c16_1: -20 x_16_ + 72 y_16_ + [ 1 x_16_ ^ 2 + 1 y_16_ ^ 2 ] <= 235769
c17_1: -20 x_17_ + 72 y_17_ + [ 1 x_17_ ^ 2 + 1 y_17_ ^ 2 ] <= 89681
c18_1: -20 x_18_ + 72 y_18_ + [ 1 x_18_ ^ 2 + 1 y_18_ ^ 2 ] <= 132452
c19_1: -20 x_19_ + 72 y_19_ + [ 1 x_19_ ^ 2 + 1 y_19_ ^ 2 ] <= 105012
c20_1: -20 x_20_ + 72 y_20_ + [ 1 x_20_ ^ 2 + 1 y_20_ ^ 2 ] <= 109576
c21_1: -20 x_21_ + 72 y_21_ + [ 1 x_21_ ^ 2 + 1 y_21_ ^ 2 ] <= 183995
c22_1: -20 x_22_ + 72 y_22_ + [ 1 x_22_ ^ 2 + 1 y_22_ ^ 2 ] <= 143256
c23_1: -20 x_23_ + 72 y_23_ + [ 1 x_23_ ^ 2 + 1 y_23_ ^ 2 ] <= 35563
c24_1: -20 x_24_ + 72 y_24_ + [ 1 x_24_ ^ 2 + 1 y_24_ ^ 2 ] <= 171612
c25_1: -20 x_25_ + 72 y_25_ + [ 1 x_25_ ^ 2 + 1 y_25_ ^ 2 ] <= 69988
c26_1: -20 x_26_ + 72 y_26_ + [ 1 x_26_ ^ 2 + 1 y_26_ ^ 2 ] <= 182359
c27_1: -20 x_27_ + 72 y_27_ + [ 1 x_27_ ^ 2 + 1 y_27_ ^ 2 ] <= 124789
c28_1: -20 x_28_ + 72 y_28_ + [ 1 x_28_ ^ 2 + 1 y_28_ ^ 2 ] <= 90034
c29_1: -20 x_29_ + 72 y_29_ + [ 1 x_29_ ^ 2 + 1 y_29_ ^ 2 ] <= 221491
c30_1: -20 x_30_ + 72 y_30_ + [ 1 x_30_ ^ 2 + 1 y_30_ ^ 2 ] <= 67021
c31_1: -20 x_31_ + 72 y_31_ + [ 1 x_31_ ^ 2 + 1 y_31_ ^ 2 ] <= 219406
c32_1: -20 x_32_ + 72 y_32_ + [ 1 x_32_ ^ 2 + 1 y_32_ ^ 2 ] <= 29949
c33_1: -20 x_33_ + 72 y_33_ + [ 1 x_33_ ^ 2 + 1 y_33_ ^ 2 ] <= 113610
c34_1: -20 x_34_ + 72 y_34_ + [ 1 x_34_ ^ 2 + 1 y_34_ ^ 2 ] <= 77375
c35_1: -20 x_35_ + 72 y_35_ + [ 1 x_35_ ^ 2 + 1 y_35_ ^ 2 ] <= 67877
c36_1: -20 x_36_ + 72 y_36_ + [ 1 x_36_ ^ 2 + 1 y_36_ ^ 2 ] <= 126392
c37_1: -20 x_37_ + 72 y_37_ + [ 1 x_37_ ^ 2 + 1 y_37_ ^ 2 ] <= 151703
c38_1: -20 x_38_ + 72 y_38_ + [ 1 x_38_ ^ 2 + 1 y_38_ ^ 2 ] <= 13558
c39_1: -20 x_39_ + 72 y_39_ + [ 1 x_39_ ^ 2 + 1 y_39_ ^ 2 ] <= 10158
c40_1: -20 x_40_ + 72 y_40_ + [ 1 x_40_ ^ 2 + 1 y_40_ ^ 2 ] <= 166840
c41_1: -20 x_41_ + 72 y_41_ + [ 1 x_41_ ^ 2 + 1 y_41_ ^ 2 ] <= 174228
c42_1: -20 x_42_ + 72 y_42_ + [ 1 x_42_ ^ 2 + 1 y_42_ ^ 2 ] <= 104440
c43_1: -20 x_43_ + 72 y_43_ + [ 1 x_43_ ^ 2 + 1 y_43_ ^ 2 ] <= 16323
c44_1: -20 x_44_ + 72 y_44_ + [ 1 x_44_ ^ 2 + 1 y_44_ ^ 2 ] <= 88933
c45_1: -20 x_45_ + 72 y_45_ + [ 1 x_45_ ^ 2 + 1 y_45_ ^ 2 ] <= 193845
c46_1: -20 x_46_ + 72 y_46_ + [ 1 x_46_ ^ 2 + 1 y_46_ ^ 2 ] <= 69492
c47_1: -20 x_47_ + 72 y_47_ + [ 1 x_47_ ^ 2 + 1 y_47_ ^ 2 ] <= 150957
c48_1: -20 x_48_ + 72 y_48_ + [ 1 x_48_ ^ 2 + 1 y_48_ ^ 2 ] <= 172083
c49_1: -20 x_49_ + 72 y_49_ + [ 1 x_49_ ^ 2 + 1 y_49_ ^ 2 ] <= 222361
c50_1: -20 x_50_ + 72 y_50_ + [ 1 x_50_ ^ 2 + 1 y_50_ ^ 2 ] <= 287726
c51_1: -20 x_51_ + 72 y_51_ + [ 1 x_51_ ^ 2 + 1 y_51_ ^ 2 ] <= 137961
c52_1: -20 x_52_ + 72 y_52_ + [ 1 x_52_ ^ 2 + 1 y_52_ ^ 2 ] <= 47607
c53_1: -20 x_53_ + 72 y_53_ + [ 1 x_53_ ^ 2 + 1 y_53_ ^ 2 ] <= 175485
c54_1: -20 x_54_ + 72 y_54_ + [ 1 x_54_ ^ 2 + 1 y_54_ ^ 2 ] <= 5125
c55_1: -20 x_55_ + 72 y_55_ + [ 1 x_55_ ^ 2 + 1 y_55_ ^ 2 ] <= 119093
c56_1: -20 x_56_ + 72 y_56_ + [ 1 x_56_ ^ 2 + 1 y_56_ ^ 2 ] <= 184736
c57_1: -20 x_57_ + 72 y_57_ + [ 1 x_57_ ^ 2 + 1 y_57_ ^ 2 ] <= 206061
c58_1: -20 x_58_ + 72 y_58_ + [ 1 x_58_ ^ 2 + 1 y_58_ ^ 2 ] <= 184904
c59_1: -20 x_59_ + 72 y_59_ + [ 1 x_59_ ^ 2 + 1 y_59_ ^ 2 ] <= 186082
c60_1: -20 x_60_ + 72 y_60_ + [ 1 x_60_ ^ 2 + 1 y_60_ ^ 2 ] <= 14805
c61_1: -20 x_61_ + 72 y_61_ + [ 1 x_61_ ^ 2 + 1 y_61_ ^ 2 ] <= 93002
c62_1: -20 x_62_ + 72 y_62_ + [ 1 x_62_ ^ 2 + 1 y_62_ ^ 2 ] <= 169479
c63_1: -20 x_63_ + 72 y_63_ + [ 1 x_63_ ^ 2 + 1 y_63_ ^ 2 ] <= 115225
c64_1: -20 x_64_ + 72 y_64_ + [ 1 x_64_ ^ 2 + 1 y_64_ ^ 2 ] <= 218148
c65_1: -20 x_65_ + 72 y_65_ + [ 1 x_65_ ^ 2 + 1 y_65_ ^ 2 ] <= 158592
c66_1: -20 x_66_ + 72 y_66_ + [ 1 x_66_ ^ 2 + 1 y_66_ ^ 2 ] <= 159880
c67_1: -20 x_67_ + 72 y_67_ + [ 1 x_67_ ^ 2 + 1 y_67_ ^ 2 ] <= 196907
c68_1: -20 x_68_ + 72 y_68_ + [ 1 x_68_ ^ 2 + 1 y_68_ ^ 2 ] <= 137300
c69_1: -20 x_69_ + 72 y_69_ + [ 1 x_69_ ^ 2 + 1 y_69_ ^ 2 ] <= 207486
c70_1: -20 x_70_ + 72 y_70_ + [ 1 x_70_ ^ 2 + 1 y_70_ ^ 2 ] <= 209212
c71_1: -20 x_71_ + 72 y_71_ + [ 1 x_71_ ^ 2 + 1 y_71_ ^ 2 ] <= 241159
c72_1: -20 x_72_ + 72 y_72_ + [ 1 x_72_ ^ 2 + 1 y_72_ ^ 2 ] <= 90556
c73_1: -20 x_73_ + 72 y_73_ + [ 1 x_73_ ^ 2 + 1 y_73_ ^ 2 ] <= 93153
c74_1: -20 x_74_ + 72 y_74_ + [ 1 x_74_ ^ 2 + 1 y_74_ ^ 2 ] <= 128453
c75_1: -20 x_75_ + 72 y_75_ + [ 1 x_75_ ^ 2 + 1 y_75_ ^ 2 ] <= 151320
c76_1: -20 x_77_ + 72 y_77_ + [ 1 x_77_ ^ 2 + 1 y_77_ ^ 2 ] <= 195188
c77_1: -20 x_78_ + 72 y_78_ + [ 1 x_78_ ^ 2 + 1 y_78_ ^ 2 ] <= 112015
c78_1: -20 x_79_ + 72 y_79_ + [ 1 x_79_ ^ 2 + 1 y_79_ ^ 2 ] <= 43197
c79_1: -20 x_80_ + 72 y_80_ + [ 1 x_80_ ^ 2 + 1 y_80_ ^ 2 ] <= 187928
c80_1: -20 x_81_ + 72 y_81_ + [ 1 x_81_ ^ 2 + 1 y_81_ ^ 2 ] <= 23817
c81_1: -20 x_82_ + 72 y_82_ + [ 1 x_82_ ^ 2 + 1 y_82_ ^ 2 ] <= 245232
c82_1: -20 x_83_ + 72 y_83_ + [ 1 x_83_ ^ 2 + 1 y_83_ ^ 2 ] <= 231156
c83_1: -20 x_84_ + 72 y_84_ + [ 1 x_84_ ^ 2 + 1 y_84_ ^ 2 ] <= 78660
c84_1: -20 x_85_ + 72 y_85_ + [ 1 x_85_ ^ 2 + 1 y_85_ ^ 2 ] <= 117821
c85_1: -20 x_86_ + 72 y_86_ + [ 1 x_86_ ^ 2 + 1 y_86_ ^ 2 ] <= 202511
c86_1: -20 x_87_ + 72 y_87_ + [ 1 x_87_ ^ 2 + 1 y_87_ ^ 2 ] <= 297151
c87_1: -20 x_88_ + 72 y_88_ + [ 1 x_88_ ^ 2 + 1 y_88_ ^ 2 ] <= 318168
c88_1: -20 x_89_ + 72 y_89_ + [ 1 x_89_ ^ 2 + 1 y_89_ ^ 2 ] <= 191950
c89_1: -20 x_90_ + 72 y_90_ + [ 1 x_90_ ^ 2 + 1 y_90_ ^ 2 ] <= 127836
c90_1: -20 x_91_ + 72 y_91_ + [ 1 x_91_ ^ 2 + 1 y_91_ ^ 2 ] <= 161669
c91_1: -20 x_92_ + 72 y_92_ + [ 1 x_92_ ^ 2 + 1 y_92_ ^ 2 ] <= 193643
c92_1: -20 x_93_ + 72 y_93_ + [ 1 x_93_ ^ 2 + 1 y_93_ ^ 2 ] <= 188901
c93_1: -20 x_94_ + 72 y_94_ + [ 1 x_94_ ^ 2 + 1 y_94_ ^ 2 ] <= 206242
c94_1: -20 x_95_ + 72 y_95_ + [ 1 x_95_ ^ 2 + 1 y_95_ ^ 2 ] <= 175649
c95_1: -20 x_96_ + 72 y_96_ + [ 1 x_96_ ^ 2 + 1 y_96_ ^ 2 ] <= 58947
c96_1: -20 x_97_ + 72 y_97_ + [ 1 x_97_ ^ 2 + 1 y_97_ ^ 2 ] <= 249799
c97_1: -20 x_98_ + 72 y_98_ + [ 1 x_98_ ^ 2 + 1 y_98_ ^ 2 ] <= 103891
c98_1: -20 x_99_ + 72 y_99_ + [ 1 x_99_ ^ 2 + 1 y_99_ ^ 2 ] <= 104367
c99_1: -20 x_100_ + 72 y_100_ + [ 1 x_100_ ^ 2 + 1 y_100_ ^ 2 ] <= 100285
c100_1: -110 x_1_ + 132 y_1_ + [ 1 x_1_ ^ 2 + 1 y_1_ ^ 2 ] <= 71417
c101_1: -110 x_2_ + 132 y_2_ + [ 1 x_2_ ^ 2 + 1 y_2_ ^ 2 ] <= 117198
c102_1: -110 x_3_ + 132 y_3_ + [ 1 x_3_ ^ 2 + 1 y_3_ ^ 2 ] <= 66502
c103_1: -110 x_4_ + 132 y_4_ + [ 1 x_4_ ^ 2 + 1 y_4_ ^ 2 ] <= 132411
c104_1: -110 x_5_ + 132 y_5_ + [ 1 x_5_ ^ 2 + 1 y_5_ ^ 2 ] <= 127342
c105_1: -110 x_6_ + 132 y_6_ + [ 1 x_6_ ^ 2 + 1 y_6_ ^ 2 ] <= 100380
c106_1: -110 x_7_ + 132 y_7_ + [ 1 x_7_ ^ 2 + 1 y_7_ ^ 2 ] <= 55088
c107_1: -110 x_8_ + 132 y_8_ + [ 1 x_8_ ^ 2 + 1 y_8_ ^ 2 ] <= 24381
c108_1: -110 x_9_ + 132 y_9_ + [ 1 x_9_ ^ 2 + 1 y_9_ ^ 2 ] <= 69379
c109_1: -110 x_10_ + 132 y_10_ + [ 1 x_10_ ^ 2 + 1 y_10_ ^ 2 ] <= 83831
c110_1: -110 x_11_ + 132 y_11_ + [ 1 x_11_ ^ 2 + 1 y_11_ ^ 2 ] <= 50677
c111_1: -110 x_12_ + 132 y_12_ + [ 1 x_12_ ^ 2 + 1 y_12_ ^ 2 ] <= 30412
c112_1: -110 x_13_ + 132 y_13_ + [ 1 x_13_ ^ 2 + 1 y_13_ ^ 2 ] <= 4524
c113_1: -110 x_14_ + 132 y_14_ + [ 1 x_14_ ^ 2 + 1 y_14_ ^ 2 ] <= -7284
c114_1: -110 x_15_ + 132 y_15_ + [ 1 x_15_ ^ 2 + 1 y_15_ ^ 2 ] <= 82697
c115_1: -110 x_16_ + 132 y_16_ + [ 1 x_16_ ^ 2 + 1 y_16_ ^ 2 ] <= 71789
c116_1: -110 x_17_ + 132 y_17_ + [ 1 x_17_ ^ 2 + 1 y_17_ ^ 2 ] <= 47815
c117_1: -110 x_19_ + 132 y_19_ + [ 1 x_19_ ^ 2 + 1 y_19_ ^ 2 ] <= 36940
c118_1: -110 x_20_ + 132 y_20_ + [ 1 x_20_ ^ 2 + 1 y_20_ ^ 2 ] <= 19837
c119_1: -110 x_21_ + 132 y_21_ + [ 1 x_21_ ^ 2 + 1 y_21_ ^ 2 ] <= 34015
c120_1: -110 x_22_ + 132 y_22_ + [ 1 x_22_ ^ 2 + 1 y_22_ ^ 2 ] <= 97618
c121_1: -110 x_23_ + 132 y_23_ + [ 1 x_23_ ^ 2 + 1 y_23_ ^ 2 ] <= 110352
c122_1: -110 x_24_ + 132 y_24_ + [ 1 x_24_ ^ 2 + 1 y_24_ ^ 2 ] <= -4872
c123_1: -110 x_25_ + 132 y_25_ + [ 1 x_25_ ^ 2 + 1 y_25_ ^ 2 ] <= 110948
c124_1: -110 x_26_ + 132 y_26_ + [ 1 x_26_ ^ 2 + 1 y_26_ ^ 2 ] <= 69985
c125_1: -110 x_27_ + 132 y_27_ + [ 1 x_27_ ^ 2 + 1 y_27_ ^ 2 ] <= 80440
c126_1: -110 x_28_ + 132 y_28_ + [ 1 x_28_ ^ 2 + 1 y_28_ ^ 2 ] <= 184913
c127_1: -110 x_29_ + 132 y_29_ + [ 1 x_29_ ^ 2 + 1 y_29_ ^ 2 ] <= 97487
c128_1: -110 x_30_ + 132 y_30_ + [ 1 x_30_ ^ 2 + 1 y_30_ ^ 2 ] <= 97633
c129_1: -110 x_31_ + 132 y_31_ + [ 1 x_31_ ^ 2 + 1 y_31_ ^ 2 ] <= 67879
c130_1: -110 x_32_ + 132 y_32_ + [ 1 x_32_ ^ 2 + 1 y_32_ ^ 2 ] <= 95697
c131_1: -110 x_33_ + 132 y_33_ + [ 1 x_33_ ^ 2 + 1 y_33_ ^ 2 ] <= 54060
c132_1: -110 x_34_ + 132 y_34_ + [ 1 x_34_ ^ 2 + 1 y_34_ ^ 2 ] <= 32544
c133_1: -110 x_35_ + 132 y_35_ + [ 1 x_35_ ^ 2 + 1 y_35_ ^ 2 ] <= 132208
c134_1: -110 x_36_ + 132 y_36_ + [ 1 x_36_ ^ 2 + 1 y_36_ ^ 2 ] <= 31493
c135_1: -110 x_37_ + 132 y_37_ + [ 1 x_37_ ^ 2 + 1 y_37_ ^ 2 ] <= 30925
c136_1: -110 x_38_ + 132 y_38_ + [ 1 x_38_ ^ 2 + 1 y_38_ ^ 2 ] <= 230899
c137_1: -110 x_39_ + 132 y_39_ + [ 1 x_39_ ^ 2 + 1 y_39_ ^ 2 ] <= 59371
c138_1: -110 x_40_ + 132 y_40_ + [ 1 x_40_ ^ 2 + 1 y_40_ ^ 2 ] <= 151105
c139_1: -110 x_41_ + 132 y_41_ + [ 1 x_41_ ^ 2 + 1 y_41_ ^ 2 ] <= 170089
c140_1: -110 x_42_ + 132 y_42_ + [ 1 x_42_ ^ 2 + 1 y_42_ ^ 2 ] <= 29470
c141_1: -110 x_43_ + 132 y_43_ + [ 1 x_43_ ^ 2 + 1 y_43_ ^ 2 ] <= 121516
c142_1: -110 x_44_ + 132 y_44_ + [ 1 x_44_ ^ 2 + 1 y_44_ ^ 2 ] <= 105137
c143_1: -110 x_45_ + 132 y_45_ + [ 1 x_45_ ^ 2 + 1 y_45_ ^ 2 ] <= 115520
c144_1: -110 x_46_ + 132 y_46_ + [ 1 x_46_ ^ 2 + 1 y_46_ ^ 2 ] <= 55641
c145_1: -110 x_47_ + 132 y_47_ + [ 1 x_47_ ^ 2 + 1 y_47_ ^ 2 ] <= 8739
c146_1: -110 x_48_ + 132 y_48_ + [ 1 x_48_ ^ 2 + 1 y_48_ ^ 2 ] <= 11699
c147_1: -110 x_49_ + 132 y_49_ + [ 1 x_49_ ^ 2 + 1 y_49_ ^ 2 ] <= 99848
c148_1: -110 x_50_ + 132 y_50_ + [ 1 x_50_ ^ 2 + 1 y_50_ ^ 2 ] <= 22151
c149_1: -110 x_51_ + 132 y_51_ + [ 1 x_51_ ^ 2 + 1 y_51_ ^ 2 ] <= 60838
c150_1: -110 x_52_ + 132 y_52_ + [ 1 x_52_ ^ 2 + 1 y_52_ ^ 2 ] <= 257226
c151_1: -110 x_53_ + 132 y_53_ + [ 1 x_53_ ^ 2 + 1 y_53_ ^ 2 ] <= 145189
c152_1: -110 x_54_ + 132 y_54_ + [ 1 x_54_ ^ 2 + 1 y_54_ ^ 2 ] <= 152396
c153_1: -110 x_55_ + 132 y_55_ + [ 1 x_55_ ^ 2 + 1 y_55_ ^ 2 ] <= 74997
c154_1: -110 x_56_ + 132 y_56_ + [ 1 x_56_ ^ 2 + 1 y_56_ ^ 2 ] <= 46885
c155_1: -110 x_57_ + 132 y_57_ + [ 1 x_57_ ^ 2 + 1 y_57_ ^ 2 ] <= 60174
c156_1: -110 x_58_ + 132 y_58_ + [ 1 x_58_ ^ 2 + 1 y_58_ ^ 2 ] <= 75897
c157_1: -110 x_59_ + 132 y_59_ + [ 1 x_59_ ^ 2 + 1 y_59_ ^ 2 ] <= 40841
c158_1: -110 x_60_ + 132 y_60_ + [ 1 x_60_ ^ 2 + 1 y_60_ ^ 2 ] <= 117363
c159_1: -110 x_61_ + 132 y_61_ + [ 1 x_61_ ^ 2 + 1 y_61_ ^ 2 ] <= 101236
c160_1: -110 x_62_ + 132 y_62_ + [ 1 x_62_ ^ 2 + 1 y_62_ ^ 2 ] <= 112695
c161_1: -110 x_63_ + 132 y_63_ + [ 1 x_63_ ^ 2 + 1 y_63_ ^ 2 ] <= 105226
c162_1: -110 x_64_ + 132 y_64_ + [ 1 x_64_ ^ 2 + 1 y_64_ ^ 2 ] <= 132293
c163_1: -110 x_65_ + 132 y_65_ + [ 1 x_65_ ^ 2 + 1 y_65_ ^ 2 ] <= 45156
c164_1: -110 x_66_ + 132 y_66_ + [ 1 x_66_ ^ 2 + 1 y_66_ ^ 2 ] <= 85779
c165_1: -110 x_67_ + 132 y_67_ + [ 1 x_67_ ^ 2 + 1 y_67_ ^ 2 ] <= 28409
c166_1: -110 x_68_ + 132 y_68_ + [ 1 x_68_ ^ 2 + 1 y_68_ ^ 2 ] <= 34346
c167_1: -110 x_69_ + 132 y_69_ + [ 1 x_69_ ^ 2 + 1 y_69_ ^ 2 ] <= 106897
c168_1: -110 x_70_ + 132 y_70_ + [ 1 x_70_ ^ 2 + 1 y_70_ ^ 2 ] <= 112892
c169_1: -110 x_71_ + 132 y_71_ + [ 1 x_71_ ^ 2 + 1 y_71_ ^ 2 ] <= 149537
c170_1: -110 x_72_ + 132 y_72_ + [ 1 x_72_ ^ 2 + 1 y_72_ ^ 2 ] <= 44962
c171_1: -110 x_73_ + 132 y_73_ + [ 1 x_73_ ^ 2 + 1 y_73_ ^ 2 ] <= 87661
c172_1: -110 x_74_ + 132 y_74_ + [ 1 x_74_ ^ 2 + 1 y_74_ ^ 2 ] <= 125866
c173_1: -110 x_75_ + 132 y_75_ + [ 1 x_75_ ^ 2 + 1 y_75_ ^ 2 ] <= 97555
c174_1: -110 x_76_ + 132 y_76_ + [ 1 x_76_ ^ 2 + 1 y_76_ ^ 2 ] <= 126467
c175_1: -110 x_77_ + 132 y_77_ + [ 1 x_77_ ^ 2 + 1 y_77_ ^ 2 ] <= -1371
c176_1: -110 x_78_ + 132 y_78_ + [ 1 x_78_ ^ 2 + 1 y_78_ ^ 2 ] <= 33496
c177_1: -110 x_79_ + 132 y_79_ + [ 1 x_79_ ^ 2 + 1 y_79_ ^ 2 ] <= 110589
c178_1: -110 x_80_ + 132 y_80_ + [ 1 x_80_ ^ 2 + 1 y_80_ ^ 2 ] <= -2584
c179_1: -110 x_81_ + 132 y_81_ + [ 1 x_81_ ^ 2 + 1 y_81_ ^ 2 ] <= 112265
c180_1: -110 x_82_ + 132 y_82_ + [ 1 x_82_ ^ 2 + 1 y_82_ ^ 2 ] <= 137734
c181_1: -110 x_83_ + 132 y_83_ + [ 1 x_83_ ^ 2 + 1 y_83_ ^ 2 ] <= 10452
c182_1: -110 x_84_ + 132 y_84_ + [ 1 x_84_ ^ 2 + 1 y_84_ ^ 2 ] <= 73924
c183_1: -110 x_85_ + 132 y_85_ + [ 1 x_85_ ^ 2 + 1 y_85_ ^ 2 ] <= 145100
c184_1: -110 x_86_ + 132 y_86_ + [ 1 x_86_ ^ 2 + 1 y_86_ ^ 2 ] <= 185080
c185_1: -110 x_87_ + 132 y_87_ + [ 1 x_87_ ^ 2 + 1 y_87_ ^ 2 ] <= 54467
c186_1: -110 x_88_ + 132 y_88_ + [ 1 x_88_ ^ 2 + 1 y_88_ ^ 2 ] <= 72633
c187_1: -110 x_89_ + 132 y_89_ + [ 1 x_89_ ^ 2 + 1 y_89_ ^ 2 ] <= 126035
c188_1: -110 x_90_ + 132 y_90_ + [ 1 x_90_ ^ 2 + 1 y_90_ ^ 2 ] <= 122427
c189_1: -110 x_91_ + 132 y_91_ + [ 1 x_91_ ^ 2 + 1 y_91_ ^ 2 ] <= 46925
c190_1: -110 x_92_ + 132 y_92_ + [ 1 x_92_ ^ 2 + 1 y_92_ ^ 2 ] <= 9487
c191_1: -110 x_93_ + 132 y_93_ + [ 1 x_93_ ^ 2 + 1 y_93_ ^ 2 ] <= 63085
c192_1: -110 x_94_ + 132 y_94_ + [ 1 x_94_ ^ 2 + 1 y_94_ ^ 2 ] <= 85198
c193_1: -110 x_95_ + 132 y_95_ + [ 1 x_95_ ^ 2 + 1 y_95_ ^ 2 ] <= 126093
c194_1: -110 x_96_ + 132 y_96_ + [ 1 x_96_ ^ 2 + 1 y_96_ ^ 2 ] <= 7068
c195_1: -110 x_97_ + 132 y_97_ + [ 1 x_97_ ^ 2 + 1 y_97_ ^ 2 ] <= 10936
c196_1: -110 x_98_ + 132 y_98_ + [ 1 x_98_ ^ 2 + 1 y_98_ ^ 2 ] <= 67699
c197_1: -110 x_99_ + 132 y_99_ + [ 1 x_99_ ^ 2 + 1 y_99_ ^ 2 ] <= 88274
c198_1: -110 x_100_ + 132 y_100_ + [ 1 x_100_ ^ 2 + 1 y_100_ ^ 2 ] <= 48204
c199: -52 x_1_ + 122 y_1_ + [ 1 x_1_ ^ 2 + 1 y_1_ ^ 2 ] <= 26357
c200: -52 x_2_ + 122 y_2_ + [ 1 x_2_ ^ 2 + 1 y_2_ ^ 2 ] <= 42042
c201: -52 x_3_ + 122 y_3_ + [ 1 x_3_ ^ 2 + 1 y_3_ ^ 2 ] <= 79803
c202: -52 x_4_ + 122 y_4_ + [ 1 x_4_ ^ 2 + 1 y_4_ ^ 2 ] <= 74461
c203: -52 x_5_ + 122 y_5_ + [ 1 x_5_ ^ 2 + 1 y_5_ ^ 2 ] <= 43921
c204: -52 x_6_ + 122 y_6_ + [ 1 x_6_ ^ 2 + 1 y_6_ ^ 2 ] <= 64863
c205: -52 x_7_ + 122 y_7_ + [ 1 x_7_ ^ 2 + 1 y_7_ ^ 2 ] <= -1658
c206: -52 x_8_ + 122 y_8_ + [ 1 x_8_ ^ 2 + 1 y_8_ ^ 2 ] <= 90021
c207: -52 x_9_ + 122 y_9_ + [ 1 x_9_ ^ 2 + 1 y_9_ ^ 2 ] <= 87011
c208: -52 x_10_ + 122 y_10_ + [ 1 x_10_ ^ 2 + 1 y_10_ ^ 2 ] <= 60254
c209: -52 x_11_ + 122 y_11_ + [ 1 x_11_ ^ 2 + 1 y_11_ ^ 2 ] <= 75540
c210: -52 x_12_ + 122 y_12_ + [ 1 x_12_ ^ 2 + 1 y_12_ ^ 2 ] <= 84972
c211: -52 x_13_ + 122 y_13_ + [ 1 x_13_ ^ 2 + 1 y_13_ ^ 2 ] <= 14858
c212: -52 x_14_ + 122 y_14_ + [ 1 x_14_ ^ 2 + 1 y_14_ ^ 2 ] <= 62023
c213: -52 x_15_ + 122 y_15_ + [ 1 x_15_ ^ 2 + 1 y_15_ ^ 2 ] <= 6115
c214: -52 x_16_ + 122 y_16_ + [ 1 x_16_ ^ 2 + 1 y_16_ ^ 2 ] <= 92339
c215: -52 x_17_ + 122 y_17_ + [ 1 x_17_ ^ 2 + 1 y_17_ ^ 2 ] <= -3003
c216: -52 x_18_ + 122 y_18_ + [ 1 x_18_ ^ 2 + 1 y_18_ ^ 2 ] <= 57044
c217: -52 x_19_ + 122 y_19_ + [ 1 x_19_ ^ 2 + 1 y_19_ ^ 2 ] <= -584
c218: -52 x_20_ + 122 y_20_ + [ 1 x_20_ ^ 2 + 1 y_20_ ^ 2 ] <= 29215
c219: -52 x_21_ + 122 y_21_ + [ 1 x_21_ ^ 2 + 1 y_21_ ^ 2 ] <= 153928
c220: -52 x_22_ + 122 y_22_ + [ 1 x_22_ ^ 2 + 1 y_22_ ^ 2 ] <= 26862
c221: -52 x_23_ + 122 y_23_ + [ 1 x_23_ ^ 2 + 1 y_23_ ^ 2 ] <= 17176
c222: -52 x_24_ + 122 y_24_ + [ 1 x_24_ ^ 2 + 1 y_24_ ^ 2 ] <= 72290
c223: -52 x_25_ + 122 y_25_ + [ 1 x_25_ ^ 2 + 1 y_25_ ^ 2 ] <= 83362
c224: -52 x_26_ + 122 y_26_ + [ 1 x_26_ ^ 2 + 1 y_26_ ^ 2 ] <= 58522
c225: -52 x_27_ + 122 y_27_ + [ 1 x_27_ ^ 2 + 1 y_27_ ^ 2 ] <= 74660
c226: -52 x_28_ + 122 y_28_ + [ 1 x_28_ ^ 2 + 1 y_28_ ^ 2 ] <= 82598
c227: -52 x_29_ + 122 y_29_ + [ 1 x_29_ ^ 2 + 1 y_29_ ^ 2 ] <= 28100
c228: -52 x_30_ + 122 y_30_ + [ 1 x_30_ ^ 2 + 1 y_30_ ^ 2 ] <= 26327
c229: -52 x_31_ + 122 y_31_ + [ 1 x_31_ ^ 2 + 1 y_31_ ^ 2 ] <= 12704
c230: -52 x_32_ + 122 y_32_ + [ 1 x_32_ ^ 2 + 1 y_32_ ^ 2 ] <= 104729
c231: -52 x_34_ + 122 y_34_ + [ 1 x_34_ ^ 2 + 1 y_34_ ^ 2 ] <= 11783
c232: -52 x_35_ + 122 y_35_ + [ 1 x_35_ ^ 2 + 1 y_35_ ^ 2 ] <= 86206
c233: -52 x_36_ + 122 y_36_ + [ 1 x_36_ ^ 2 + 1 y_36_ ^ 2 ] <= 32096
c234: -52 x_37_ + 122 y_37_ + [ 1 x_37_ ^ 2 + 1 y_37_ ^ 2 ] <= -1677
c235: -52 x_38_ + 122 y_38_ + [ 1 x_38_ ^ 2 + 1 y_38_ ^ 2 ] <= 168558
c236: -52 x_39_ + 122 y_39_ + [ 1 x_39_ ^ 2 + 1 y_39_ ^ 2 ] <= 49258
c237: -52 x_40_ + 122 y_40_ + [ 1 x_40_ ^ 2 + 1 y_40_ ^ 2 ] <= 35804
c238: -52 x_41_ + 122 y_41_ + [ 1 x_41_ ^ 2 + 1 y_41_ ^ 2 ] <= 126780
c239: -52 x_42_ + 122 y_42_ + [ 1 x_42_ ^ 2 + 1 y_42_ ^ 2 ] <= 154824
c240: -52 x_43_ + 122 y_43_ + [ 1 x_43_ ^ 2 + 1 y_43_ ^ 2 ] <= 77634
c241: -52 x_44_ + 122 y_44_ + [ 1 x_44_ ^ 2 + 1 y_44_ ^ 2 ] <= 60719
c242: -52 x_45_ + 122 y_45_ + [ 1 x_45_ ^ 2 + 1 y_45_ ^ 2 ] <= 27076
c243: -52 x_46_ + 122 y_46_ + [ 1 x_46_ ^ 2 + 1 y_46_ ^ 2 ] <= 171621
c244: -52 x_47_ + 122 y_47_ + [ 1 x_47_ ^ 2 + 1 y_47_ ^ 2 ] <= 136107
c245: -52 x_48_ + 122 y_48_ + [ 1 x_48_ ^ 2 + 1 y_48_ ^ 2 ] <= 58136
c246: -52 x_49_ + 122 y_49_ + [ 1 x_49_ ^ 2 + 1 y_49_ ^ 2 ] <= 132412
c247: -52 x_50_ + 122 y_50_ + [ 1 x_50_ ^ 2 + 1 y_50_ ^ 2 ] <= 154550
c248: -52 x_51_ + 122 y_51_ + [ 1 x_51_ ^ 2 + 1 y_51_ ^ 2 ] <= 81277
c249: -52 x_52_ + 122 y_52_ + [ 1 x_52_ ^ 2 + 1 y_52_ ^ 2 ] <= 95964
c250: -52 x_53_ + 122 y_53_ + [ 1 x_53_ ^ 2 + 1 y_53_ ^ 2 ] <= 140121
c251: -52 x_54_ + 122 y_54_ + [ 1 x_54_ ^ 2 + 1 y_54_ ^ 2 ] <= 102603
c252: -52 x_55_ + 122 y_55_ + [ 1 x_55_ ^ 2 + 1 y_55_ ^ 2 ] <= 72094
c253: -52 x_56_ + 122 y_56_ + [ 1 x_56_ ^ 2 + 1 y_56_ ^ 2 ] <= 34403
c254: -52 x_57_ + 122 y_57_ + [ 1 x_57_ ^ 2 + 1 y_57_ ^ 2 ] <= 9140
c255: -52 x_58_ + 122 y_58_ + [ 1 x_58_ ^ 2 + 1 y_58_ ^ 2 ] <= 37534
c256: -52 x_59_ + 122 y_59_ + [ 1 x_59_ ^ 2 + 1 y_59_ ^ 2 ] <= 66837
c257: -52 x_60_ + 122 y_60_ + [ 1 x_60_ ^ 2 + 1 y_60_ ^ 2 ] <= 74328
c258: -52 x_61_ + 122 y_61_ + [ 1 x_61_ ^ 2 + 1 y_61_ ^ 2 ] <= 61630
c259: -52 x_62_ + 122 y_62_ + [ 1 x_62_ ^ 2 + 1 y_62_ ^ 2 ] <= 17780
c260: -52 x_63_ + 122 y_63_ + [ 1 x_63_ ^ 2 + 1 y_63_ ^ 2 ] <= 14638
c261: -52 x_64_ + 122 y_64_ + [ 1 x_64_ ^ 2 + 1 y_64_ ^ 2 ] <= 99744
c262: -52 x_65_ + 122 y_65_ + [ 1 x_65_ ^ 2 + 1 y_65_ ^ 2 ] <= 69385
c263: -52 x_66_ + 122 y_66_ + [ 1 x_66_ ^ 2 + 1 y_66_ ^ 2 ] <= 72837
c264: -52 x_67_ + 122 y_67_ + [ 1 x_67_ ^ 2 + 1 y_67_ ^ 2 ] <= 51527
c265: -52 x_68_ + 122 y_68_ + [ 1 x_68_ ^ 2 + 1 y_68_ ^ 2 ] <= 16351
c266: -52 x_69_ + 122 y_69_ + [ 1 x_69_ ^ 2 + 1 y_69_ ^ 2 ] <= 101954
c267: -52 x_70_ + 122 y_70_ + [ 1 x_70_ ^ 2 + 1 y_70_ ^ 2 ] <= 117847
c268: -52 x_71_ + 122 y_71_ + [ 1 x_71_ ^ 2 + 1 y_71_ ^ 2 ] <= 131628
c269: -52 x_72_ + 122 y_72_ + [ 1 x_72_ ^ 2 + 1 y_72_ ^ 2 ] <= 82567
c270: -52 x_73_ + 122 y_73_ + [ 1 x_73_ ^ 2 + 1 y_73_ ^ 2 ] <= 108871
c271: -52 x_74_ + 122 y_74_ + [ 1 x_74_ ^ 2 + 1 y_74_ ^ 2 ] <= 58264
c272: -52 x_75_ + 122 y_75_ + [ 1 x_75_ ^ 2 + 1 y_75_ ^ 2 ] <= 11564
c273: -52 x_76_ + 122 y_76_ + [ 1 x_76_ ^ 2 + 1 y_76_ ^ 2 ] <= 110609
c274: -52 x_77_ + 122 y_77_ + [ 1 x_77_ ^ 2 + 1 y_77_ ^ 2 ] <= 101486
c275: -52 x_78_ + 122 y_78_ + [ 1 x_78_ ^ 2 + 1 y_78_ ^ 2 ] <= 44240
c276: -52 x_79_ + 122 y_79_ + [ 1 x_79_ ^ 2 + 1 y_79_ ^ 2 ] <= 84920
c277: -52 x_80_ + 122 y_80_ + [ 1 x_80_ ^ 2 + 1 y_80_ ^ 2 ] <= 96176
c278: -52 x_81_ + 122 y_81_ + [ 1 x_81_ ^ 2 + 1 y_81_ ^ 2 ] <= 70288
c279: -52 x_82_ + 122 y_82_ + [ 1 x_82_ ^ 2 + 1 y_82_ ^ 2 ] <= 49503
c280: -52 x_83_ + 122 y_83_ + [ 1 x_83_ ^ 2 + 1 y_83_ ^ 2 ] <= 125473
c281: -52 x_84_ + 122 y_84_ + [ 1 x_84_ ^ 2 + 1 y_84_ ^ 2 ] <= 89229
c282: -52 x_85_ + 122 y_85_ + [ 1 x_85_ ^ 2 + 1 y_85_ ^ 2 ] <= 32808
c283: -52 x_86_ + 122 y_86_ + [ 1 x_86_ ^ 2 + 1 y_86_ ^ 2 ] <= 115065
c284: -52 x_87_ + 122 y_87_ + [ 1 x_87_ ^ 2 + 1 y_87_ ^ 2 ] <= 168221
c285: -52 x_88_ + 122 y_88_ + [ 1 x_88_ ^ 2 + 1 y_88_ ^ 2 ] <= 197788
c286: -52 x_89_ + 122 y_89_ + [ 1 x_89_ ^ 2 + 1 y_89_ ^ 2 ] <= 161286
c287: -52 x_90_ + 122 y_90_ + [ 1 x_90_ ^ 2 + 1 y_90_ ^ 2 ] <= 146576
c288: -52 x_91_ + 122 y_91_ + [ 1 x_91_ ^ 2 + 1 y_91_ ^ 2 ] <= 108108
c289: -52 x_92_ + 122 y_92_ + [ 1 x_92_ ^ 2 + 1 y_92_ ^ 2 ] <= 26995
c290: -52 x_93_ + 122 y_93_ + [ 1 x_93_ ^ 2 + 1 y_93_ ^ 2 ] <= 44021
c291: -52 x_94_ + 122 y_94_ + [ 1 x_94_ ^ 2 + 1 y_94_ ^ 2 ] <= 32168
c292: -52 x_95_ + 122 y_95_ + [ 1 x_95_ ^ 2 + 1 y_95_ ^ 2 ] <= 33756
c293: -52 x_96_ + 122 y_96_ + [ 1 x_96_ ^ 2 + 1 y_96_ ^ 2 ] <= 131083
c294: -52 x_97_ + 122 y_97_ + [ 1 x_97_ ^ 2 + 1 y_97_ ^ 2 ] <= 142455
c295: -52 x_98_ + 122 y_98_ + [ 1 x_98_ ^ 2 + 1 y_98_ ^ 2 ] <= 103120
c296: -52 x_99_ + 122 y_99_ + [ 1 x_99_ ^ 2 + 1 y_99_ ^ 2 ] <= 111744
c297: -52 x_100_ + 122 y_100_ + [ 1 x_100_ ^ 2 + 1 y_100_ ^ 2 ] <= 48334
c1_2: 1 x_76_ = 10
c2_2: 1 y_76_ = -36
c3_2: 1 x_18_ = 55
c4_2: 1 y_18_ = -66
c5_2: 1 x_33_ = 26
c6_2: 1 y_33_ = -61
c7_2: 1 x_62_ - 1 x_76_ = 0
c8_2: 1 y_62_ - 1 y_76_ = 0
c1: [ 1 x_2_ ^ 2 - 2 x_5_ * x_2_ + 1 x_5_ ^ 2 + 1 y_2_ ^ 2 - 2 y_5_ * y_2_ + 1 y_5_ ^ 2 ] = 4916
c2: [ 1 x_4_ ^ 2 - 2 x_5_ * x_4_ + 1 x_5_ ^ 2 + 1 y_4_ ^ 2 - 2 y_5_ * y_4_ + 1 y_5_ ^ 2 ] = 24361
c3: [ 1 x_4_ ^ 2 - 2 x_6_ * x_4_ + 1 x_6_ ^ 2 + 1 y_4_ ^ 2 - 2 y_6_ * y_4_ + 1 y_6_ ^ 2 ] = 2081
c4: [ 1 x_1_ ^ 2 - 2 x_7_ * x_1_ + 1 x_7_ ^ 2 + 1 y_1_ ^ 2 - 2 y_7_ * y_1_ + 1 y_7_ ^ 2 ] = 15137
c5: [ 1 x_3_ ^ 2 - 2 x_9_ * x_3_ + 1 x_9_ ^ 2 + 1 y_3_ ^ 2 - 2 y_9_ * y_3_ + 1 y_9_ ^ 2 ] = 148
c6: [ 1 x_8_ ^ 2 - 2 x_10_ * x_8_ + 1 x_10_ ^ 2 + 1 y_8_ ^ 2 - 2 y_10_ * y_8_ + 1 y_10_ ^ 2 ] = 15325
c7: [ 1 x_9_ ^ 2 - 2 x_10_ * x_9_ + 1 x_10_ ^ 2 + 1 y_9_ ^ 2 - 2 y_10_ * y_9_ + 1 y_10_ ^ 2 ] = 12818
c8: [ 1 x_13_ ^ 2 - 2 x_16_ * x_13_ + 1 x_16_ ^ 2 + 1 y_13_ ^ 2 - 2 y_16_ * y_13_ + 1 y_16_ ^ 2 ] = 29674
c9: [ 1 x_7_ ^ 2 - 2 x_17_ * x_7_ + 1 x_17_ ^ 2 + 1 y_7_ ^ 2 - 2 y_17_ * y_7_ + 1 y_17_ ^ 2 ] = 225
c10: [ 1 x_15_ ^ 2 - 2 x_17_ * x_15_ + 1 x_17_ ^ 2 + 1 y_15_ ^ 2 - 2 y_17_ * y_15_ + 1 y_17_ ^ 2 ] = 4250
c11: [ 1 x_8_ ^ 2 - 2 x_18_ * x_8_ + 1 x_18_ ^ 2 + 1 y_8_ ^ 2 - 2 y_18_ * y_8_ + 1 y_18_ ^ 2 ] = 31762
c12: [ 1 x_13_ ^ 2 - 2 x_18_ * x_13_ + 1 x_18_ ^ 2 + 1 y_13_ ^ 2 - 2 y_18_ * y_13_ + 1 y_18_ ^ 2 ] = 11905
c13: [ 1 x_14_ ^ 2 - 2 x_18_ * x_14_ + 1 x_18_ ^ 2 + 1 y_14_ ^ 2 - 2 y_18_ * y_14_ + 1 y_18_ ^ 2 ] = 97
c14: [ 1 x_13_ ^ 2 - 2 x_19_ * x_13_ + 1 x_19_ ^ 2 + 1 y_13_ ^ 2 - 2 y_19_ * y_13_ + 1 y_19_ ^ 2 ] = 10285
c15: [ 1 x_17_ ^ 2 - 2 x_19_ * x_17_ + 1 x_19_ ^ 2 + 1 y_17_ ^ 2 - 2 y_19_ * y_17_ + 1 y_19_ ^ 2 ] = 596
c16: [ 1 x_4_ ^ 2 - 2 x_20_ * x_4_ + 1 x_20_ ^ 2 + 1 y_4_ ^ 2 - 2 y_20_ * y_4_ + 1 y_20_ ^ 2 ] = 51493
c17: [ 1 x_14_ ^ 2 - 2 x_20_ * x_14_ + 1 x_20_ ^ 2 + 1 y_14_ ^ 2 - 2 y_20_ * y_14_ + 1 y_20_ ^ 2 ] = 24065
c18: [ 1 x_11_ ^ 2 - 2 x_21_ * x_11_ + 1 x_21_ ^ 2 + 1 y_11_ ^ 2 - 2 y_21_ * y_11_ + 1 y_21_ ^ 2 ] = 13264
c19: [ 1 x_5_ ^ 2 - 2 x_22_ * x_5_ + 1 x_22_ ^ 2 + 1 y_5_ ^ 2 - 2 y_22_ * y_5_ + 1 y_22_ ^ 2 ] = 1850
c20: [ 1 x_6_ ^ 2 - 2 x_22_ * x_6_ + 1 x_22_ ^ 2 + 1 y_6_ ^ 2 - 2 y_22_ * y_6_ + 1 y_22_ ^ 2 ] = 7460
c21: [ 1 x_7_ ^ 2 - 2 x_23_ * x_7_ + 1 x_23_ ^ 2 + 1 y_7_ ^ 2 - 2 y_23_ * y_7_ + 1 y_23_ ^ 2 ] = 8938
c22: [ 1 x_18_ ^ 2 - 2 x_24_ * x_18_ + 1 x_24_ ^ 2 + 1 y_18_ ^ 2 - 2 y_24_ * y_18_ + 1 y_24_ ^ 2 ] = 2509
c23: [ 1 x_10_ ^ 2 - 2 x_25_ * x_10_ + 1 x_25_ ^ 2 + 1 y_10_ ^ 2 - 2 y_25_ * y_10_ + 1 y_25_ ^ 2 ] = 1762
c24: [ 1 x_12_ ^ 2 - 2 x_26_ * x_12_ + 1 x_26_ ^ 2 + 1 y_12_ ^ 2 - 2 y_26_ * y_12_ + 1 y_26_ ^ 2 ] = 7013
c25: [ 1 x_8_ ^ 2 - 2 x_27_ * x_8_ + 1 x_27_ ^ 2 + 1 y_8_ ^ 2 - 2 y_27_ * y_8_ + 1 y_27_ ^ 2 ] = 13954
c26: [ 1 x_5_ ^ 2 - 2 x_28_ * x_5_ + 1 x_28_ ^ 2 + 1 y_5_ ^ 2 - 2 y_28_ * y_5_ + 1 y_28_ ^ 2 ] = 31517
c27: [ 1 x_22_ ^ 2 - 2 x_28_ * x_22_ + 1 x_28_ ^ 2 + 1 y_22_ ^ 2 - 2 y_28_ * y_22_ + 1 y_28_ ^ 2 ] = 21289
c28: [ 1 x_2_ ^ 2 - 2 x_29_ * x_2_ + 1 x_29_ ^ 2 + 1 y_2_ ^ 2 - 2 y_29_ * y_2_ + 1 y_29_ ^ 2 ] = 1241
c29: [ 1 x_11_ ^ 2 - 2 x_30_ * x_11_ + 1 x_30_ ^ 2 + 1 y_11_ ^ 2 - 2 y_30_ * y_11_ + 1 y_30_ ^ 2 ] = 11545
c30: [ 1 x_19_ ^ 2 - 2 x_30_ * x_19_ + 1 x_30_ ^ 2 + 1 y_19_ ^ 2 - 2 y_30_ * y_19_ + 1 y_30_ ^ 2 ] = 12890
c31: [ 1 x_23_ ^ 2 - 2 x_30_ * x_23_ + 1 x_30_ ^ 2 + 1 y_23_ ^ 2 - 2 y_30_ * y_23_ + 1 y_30_ ^ 2 ] = 4805
c32: [ 1 x_4_ ^ 2 - 2 x_31_ * x_4_ + 1 x_31_ ^ 2 + 1 y_4_ ^ 2 - 2 y_31_ * y_4_ + 1 y_31_ ^ 2 ] = 22514
c33: [ 1 x_29_ ^ 2 - 2 x_31_ * x_29_ + 1 x_31_ ^ 2 + 1 y_29_ ^ 2 - 2 y_31_ * y_29_ + 1 y_31_ ^ 2 ] = 2450
c34: [ 1 x_20_ ^ 2 - 2 x_32_ * x_20_ + 1 x_32_ ^ 2 + 1 y_20_ ^ 2 - 2 y_32_ * y_20_ + 1 y_32_ ^ 2 ] = 24361
c35: [ 1 x_17_ ^ 2 - 2 x_33_ * x_17_ + 1 x_33_ ^ 2 + 1 y_17_ ^ 2 - 2 y_33_ * y_17_ + 1 y_33_ ^ 2 ] = 1394
c36: [ 1 x_24_ ^ 2 - 2 x_34_ * x_24_ + 1 x_34_ ^ 2 + 1 y_24_ ^ 2 - 2 y_34_ * y_24_ + 1 y_34_ ^ 2 ] = 22417
c37: [ 1 x_27_ ^ 2 - 2 x_34_ * x_27_ + 1 x_34_ ^ 2 + 1 y_27_ ^ 2 - 2 y_34_ * y_27_ + 1 y_34_ ^ 2 ] = 45674
c38: [ 1 x_33_ ^ 2 - 2 x_34_ * x_33_ + 1 x_34_ ^ 2 + 1 y_33_ ^ 2 - 2 y_34_ * y_33_ + 1 y_34_ ^ 2 ] = 16180
c39: [ 1 x_6_ ^ 2 - 2 x_35_ * x_6_ + 1 x_35_ ^ 2 + 1 y_6_ ^ 2 - 2 y_35_ * y_6_ + 1 y_35_ ^ 2 ] = 6073
c40: [ 1 x_27_ ^ 2 - 2 x_35_ * x_27_ + 1 x_35_ ^ 2 + 1 y_27_ ^ 2 - 2 y_35_ * y_27_ + 1 y_35_ ^ 2 ] = 8469
c41: [ 1 x_1_ ^ 2 - 2 x_36_ * x_1_ + 1 x_36_ ^ 2 + 1 y_1_ ^ 2 - 2 y_36_ * y_1_ + 1 y_36_ ^ 2 ] = 6980
c42: [ 1 x_19_ ^ 2 - 2 x_36_ * x_19_ + 1 x_36_ ^ 2 + 1 y_19_ ^ 2 - 2 y_36_ * y_19_ + 1 y_36_ ^ 2 ] = 16714
c43: [ 1 x_13_ ^ 2 - 2 x_37_ * x_13_ + 1 x_37_ ^ 2 + 1 y_13_ ^ 2 - 2 y_37_ * y_13_ + 1 y_37_ ^ 2 ] = 7501
c44: [ 1 x_33_ ^ 2 - 2 x_37_ * x_33_ + 1 x_37_ ^ 2 + 1 y_33_ ^ 2 - 2 y_37_ * y_33_ + 1 y_37_ ^ 2 ] = 2720
c45: [ 1 x_35_ ^ 2 - 2 x_38_ * x_35_ + 1 x_38_ ^ 2 + 1 y_35_ ^ 2 - 2 y_38_ * y_35_ + 1 y_38_ ^ 2 ] = 19856
c46: [ 1 x_10_ ^ 2 - 2 x_39_ * x_10_ + 1 x_39_ ^ 2 + 1 y_10_ ^ 2 - 2 y_39_ * y_10_ + 1 y_39_ ^ 2 ] = 13856
c47: [ 1 x_23_ ^ 2 - 2 x_39_ * x_23_ + 1 x_39_ ^ 2 + 1 y_23_ ^ 2 - 2 y_39_ * y_23_ + 1 y_39_ ^ 2 ] = 7184
c48: [ 1 x_2_ ^ 2 - 2 x_40_ * x_2_ + 1 x_40_ ^ 2 + 1 y_2_ ^ 2 - 2 y_40_ * y_2_ + 1 y_40_ ^ 2 ] = 22544
c49: [ 1 x_7_ ^ 2 - 2 x_40_ * x_7_ + 1 x_40_ ^ 2 + 1 y_7_ ^ 2 - 2 y_40_ * y_7_ + 1 y_40_ ^ 2 ] = 21953
c50: [ 1 x_40_ ^ 2 - 2 x_41_ * x_40_ + 1 x_41_ ^ 2 + 1 y_40_ ^ 2 - 2 y_41_ * y_40_ + 1 y_41_ ^ 2 ] = 26141
c51: [ 1 x_3_ ^ 2 - 2 x_42_ * x_3_ + 1 x_42_ ^ 2 + 1 y_3_ ^ 2 - 2 y_42_ * y_3_ + 1 y_42_ ^ 2 ] = 11849
c52: [ 1 x_9_ ^ 2 - 2 x_43_ * x_9_ + 1 x_43_ ^ 2 + 1 y_9_ ^ 2 - 2 y_43_ * y_9_ + 1 y_43_ ^ 2 ] = 14848
c53: [ 1 x_32_ ^ 2 - 2 x_43_ * x_32_ + 1 x_43_ ^ 2 + 1 y_32_ ^ 2 - 2 y_43_ * y_32_ + 1 y_43_ ^ 2 ] = 1930
c54: [ 1 x_23_ ^ 2 - 2 x_44_ * x_23_ + 1 x_44_ ^ 2 + 1 y_23_ ^ 2 - 2 y_44_ * y_23_ + 1 y_44_ ^ 2 ] = 11729
c55: [ 1 x_34_ ^ 2 - 2 x_44_ * x_34_ + 1 x_44_ ^ 2 + 1 y_34_ ^ 2 - 2 y_44_ * y_34_ + 1 y_44_ ^ 2 ] = 18394
c56: [ 1 x_17_ ^ 2 - 2 x_45_ * x_17_ + 1 x_45_ ^ 2 + 1 y_17_ ^ 2 - 2 y_45_ * y_17_ + 1 y_45_ ^ 2 ] = 19620
c57: [ 1 x_29_ ^ 2 - 2 x_45_ * x_29_ + 1 x_45_ ^ 2 + 1 y_29_ ^ 2 - 2 y_45_ * y_29_ + 1 y_45_ ^ 2 ] = 18365
c58: [ 1 x_11_ ^ 2 - 2 x_46_ * x_11_ + 1 x_46_ ^ 2 + 1 y_11_ ^ 2 - 2 y_46_ * y_11_ + 1 y_46_ ^ 2 ] = 21449
c59: [ 1 x_42_ ^ 2 - 2 x_46_ * x_42_ + 1 x_46_ ^ 2 + 1 y_42_ ^ 2 - 2 y_46_ * y_42_ + 1 y_46_ ^ 2 ] = 3490
c60: [ 1 x_43_ ^ 2 - 2 x_46_ * x_43_ + 1 x_46_ ^ 2 + 1 y_43_ ^ 2 - 2 y_46_ * y_43_ + 1 y_46_ ^ 2 ] = 17725
c61: [ 1 x_42_ ^ 2 - 2 x_47_ * x_42_ + 1 x_47_ ^ 2 + 1 y_42_ ^ 2 - 2 y_47_ * y_42_ + 1 y_47_ ^ 2 ] = 4225
c62: [ 1 x_14_ ^ 2 - 2 x_48_ * x_14_ + 1 x_48_ ^ 2 + 1 y_14_ ^ 2 - 2 y_48_ * y_14_ + 1 y_48_ ^ 2 ] = 16456
c63: [ 1 x_36_ ^ 2 - 2 x_48_ * x_36_ + 1 x_48_ ^ 2 + 1 y_36_ ^ 2 - 2 y_48_ * y_36_ + 1 y_48_ ^ 2 ] = 3485
c64: [ 1 x_30_ ^ 2 - 2 x_49_ * x_30_ + 1 x_49_ ^ 2 + 1 y_30_ ^ 2 - 2 y_49_ * y_30_ + 1 y_49_ ^ 2 ] = 44717
c65: [ 1 x_41_ ^ 2 - 2 x_49_ * x_41_ + 1 x_49_ ^ 2 + 1 y_41_ ^ 2 - 2 y_49_ * y_41_ + 1 y_49_ ^ 2 ] = 32002
c66: [ 1 x_24_ ^ 2 - 2 x_50_ * x_24_ + 1 x_50_ ^ 2 + 1 y_24_ ^ 2 - 2 y_50_ * y_24_ + 1 y_50_ ^ 2 ] = 14825
c67: [ 1 x_47_ ^ 2 - 2 x_50_ * x_47_ + 1 x_50_ ^ 2 + 1 y_47_ ^ 2 - 2 y_50_ * y_47_ + 1 y_50_ ^ 2 ] = 29377
c68: [ 1 x_6_ ^ 2 - 2 x_51_ * x_6_ + 1 x_51_ ^ 2 + 1 y_6_ ^ 2 - 2 y_51_ * y_6_ + 1 y_51_ ^ 2 ] = 4500
c69: [ 1 x_11_ ^ 2 - 2 x_51_ * x_11_ + 1 x_51_ ^ 2 + 1 y_11_ ^ 2 - 2 y_51_ * y_11_ + 1 y_51_ ^ 2 ] = 15497
c70: [ 1 x_29_ ^ 2 - 2 x_51_ * x_29_ + 1 x_51_ ^ 2 + 1 y_29_ ^ 2 - 2 y_51_ * y_29_ + 1 y_51_ ^ 2 ] = 12641
c71: [ 1 x_5_ ^ 2 - 2 x_52_ * x_5_ + 1 x_52_ ^ 2 + 1 y_5_ ^ 2 - 2 y_52_ * y_5_ + 1 y_52_ ^ 2 ] = 24356
c72: [ 1 x_38_ ^ 2 - 2 x_52_ * x_38_ + 1 x_52_ ^ 2 + 1 y_38_ ^ 2 - 2 y_52_ * y_38_ + 1 y_52_ ^ 2 ] = 9817
c73: [ 1 x_16_ ^ 2 - 2 x_53_ * x_16_ + 1 x_53_ ^ 2 + 1 y_16_ ^ 2 - 2 y_53_ * y_16_ + 1 y_53_ ^ 2 ] = 34202
c74: [ 1 x_25_ ^ 2 - 2 x_53_ * x_25_ + 1 x_53_ ^ 2 + 1 y_25_ ^ 2 - 2 y_53_ * y_25_ + 1 y_53_ ^ 2 ] = 23530
c75: [ 1 x_11_ ^ 2 - 2 x_55_ * x_11_ + 1 x_55_ ^ 2 + 1 y_11_ ^ 2 - 2 y_55_ * y_11_ + 1 y_55_ ^ 2 ] = 2122
c76: [ 1 x_53_ ^ 2 - 2 x_55_ * x_53_ + 1 x_55_ ^ 2 + 1 y_53_ ^ 2 - 2 y_55_ * y_53_ + 1 y_55_ ^ 2 ] = 10730
c77: [ 1 x_7_ ^ 2 - 2 x_56_ * x_7_ + 1 x_56_ ^ 2 + 1 y_7_ ^ 2 - 2 y_56_ * y_7_ + 1 y_56_ ^ 2 ] = 20921
c78: [ 1 x_31_ ^ 2 - 2 x_56_ * x_31_ + 1 x_56_ ^ 2 + 1 y_31_ ^ 2 - 2 y_56_ * y_31_ + 1 y_56_ ^ 2 ] = 5329
c79: [ 1 x_28_ ^ 2 - 2 x_57_ * x_28_ + 1 x_57_ ^ 2 + 1 y_28_ ^ 2 - 2 y_57_ * y_28_ + 1 y_57_ ^ 2 ] = 31898
c80: [ 1 x_31_ ^ 2 - 2 x_57_ * x_31_ + 1 x_57_ ^ 2 + 1 y_31_ ^ 2 - 2 y_57_ * y_31_ + 1 y_57_ ^ 2 ] = 208
c81: [ 1 x_37_ ^ 2 - 2 x_57_ * x_37_ + 1 x_57_ ^ 2 + 1 y_37_ ^ 2 - 2 y_57_ * y_37_ + 1 y_57_ ^ 2 ] = 4121
c82: [ 1 x_12_ ^ 2 - 2 x_58_ * x_12_ + 1 x_58_ ^ 2 + 1 y_12_ ^ 2 - 2 y_58_ * y_12_ + 1 y_58_ ^ 2 ] = 8869
c83: [ 1 x_27_ ^ 2 - 2 x_58_ * x_27_ + 1 x_58_ ^ 2 + 1 y_27_ ^ 2 - 2 y_58_ * y_27_ + 1 y_58_ ^ 2 ] = 5837
c84: [ 1 x_44_ ^ 2 - 2 x_59_ * x_44_ + 1 x_59_ ^ 2 + 1 y_44_ ^ 2 - 2 y_59_ * y_44_ + 1 y_59_ ^ 2 ] = 17540
c85: [ 1 x_34_ ^ 2 - 2 x_60_ * x_34_ + 1 x_60_ ^ 2 + 1 y_34_ ^ 2 - 2 y_60_ * y_34_ + 1 y_60_ ^ 2 ] = 23525
c86: [ 1 x_43_ ^ 2 - 2 x_60_ * x_43_ + 1 x_60_ ^ 2 + 1 y_43_ ^ 2 - 2 y_60_ * y_43_ + 1 y_60_ ^ 2 ] = 34
c87: [ 1 x_54_ ^ 2 - 2 x_60_ * x_54_ + 1 x_60_ ^ 2 + 1 y_54_ ^ 2 - 2 y_60_ * y_54_ + 1 y_60_ ^ 2 ] = 2165
c88: [ 1 x_3_ ^ 2 - 2 x_61_ * x_3_ + 1 x_61_ ^ 2 + 1 y_3_ ^ 2 - 2 y_61_ * y_3_ + 1 y_61_ ^ 2 ] = 21562
c89: [ 1 x_34_ ^ 2 - 2 x_61_ * x_34_ + 1 x_61_ ^ 2 + 1 y_34_ ^ 2 - 2 y_61_ * y_34_ + 1 y_61_ ^ 2 ] = 16837
c90: [ 1 x_35_ ^ 2 - 2 x_61_ * x_35_ + 1 x_61_ ^ 2 + 1 y_35_ ^ 2 - 2 y_61_ * y_35_ + 1 y_61_ ^ 2 ] = 1940
c91: [ 1 x_15_ ^ 2 - 2 x_62_ * x_15_ + 1 x_62_ ^ 2 + 1 y_15_ ^ 2 - 2 y_62_ * y_15_ + 1 y_62_ ^ 2 ] = 2152
c92: [ 1 x_16_ ^ 2 - 2 x_62_ * x_16_ + 1 x_62_ ^ 2 + 1 y_16_ ^ 2 - 2 y_62_ * y_16_ + 1 y_62_ ^ 2 ] = 39049
c93: [ 1 x_22_ ^ 2 - 2 x_62_ * x_22_ + 1 x_62_ ^ 2 + 1 y_22_ ^ 2 - 2 y_62_ * y_22_ + 1 y_62_ ^ 2 ] = 6148
c94: [ 1 x_10_ ^ 2 - 2 x_63_ * x_10_ + 1 x_63_ ^ 2 + 1 y_10_ ^ 2 - 2 y_63_ * y_10_ + 1 y_63_ ^ 2 ] = 13525
c95: [ 1 x_15_ ^ 2 - 2 x_63_ * x_15_ + 1 x_63_ ^ 2 + 1 y_15_ ^ 2 - 2 y_63_ * y_15_ + 1 y_63_ ^ 2 ] = 1256
c96: [ 1 x_22_ ^ 2 - 2 x_63_ * x_22_ + 1 x_63_ ^ 2 + 1 y_22_ ^ 2 - 2 y_63_ * y_22_ + 1 y_63_ ^ 2 ] = 1508
c97: [ 1 x_1_ ^ 2 - 2 x_64_ * x_1_ + 1 x_64_ ^ 2 + 1 y_1_ ^ 2 - 2 y_64_ * y_1_ + 1 y_64_ ^ 2 ] = 21709
c98: [ 1 x_11_ ^ 2 - 2 x_64_ * x_11_ + 1 x_64_ ^ 2 + 1 y_11_ ^ 2 - 2 y_64_ * y_11_ + 1 y_64_ ^ 2 ] = 23456
c99: [ 1 x_8_ ^ 2 - 2 x_65_ * x_8_ + 1 x_65_ ^ 2 + 1 y_8_ ^ 2 - 2 y_65_ * y_8_ + 1 y_65_ ^ 2 ] = 2600
c100: [ 1 x_22_ ^ 2 - 2 x_65_ * x_22_ + 1 x_65_ ^ 2 + 1 y_22_ ^ 2 - 2 y_65_ * y_22_ + 1 y_65_ ^ 2 ] = 8992
c101: [ 1 x_49_ ^ 2 - 2 x_65_ * x_49_ + 1 x_65_ ^ 2 + 1 y_49_ ^ 2 - 2 y_65_ * y_49_ + 1 y_65_ ^ 2 ] = 9653
c102: [ 1 x_6_ ^ 2 - 2 x_66_ * x_6_ + 1 x_66_ ^ 2 + 1 y_6_ ^ 2 - 2 y_66_ * y_6_ + 1 y_66_ ^ 2 ] = 3656
c103: [ 1 x_26_ ^ 2 - 2 x_66_ * x_26_ + 1 x_66_ ^ 2 + 1 y_26_ ^ 2 - 2 y_66_ * y_26_ + 1 y_66_ ^ 2 ] = 733
c104: [ 1 x_51_ ^ 2 - 2 x_67_ * x_51_ + 1 x_67_ ^ 2 + 1 y_51_ ^ 2 - 2 y_67_ * y_51_ + 1 y_67_ ^ 2 ] = 5185
c105: [ 1 x_59_ ^ 2 - 2 x_67_ * x_59_ + 1 x_67_ ^ 2 + 1 y_59_ ^ 2 - 2 y_67_ * y_59_ + 1 y_67_ ^ 2 ] = 925
c106: [ 1 x_17_ ^ 2 - 2 x_68_ * x_17_ + 1 x_68_ ^ 2 + 1 y_17_ ^ 2 - 2 y_68_ * y_17_ + 1 y_68_ ^ 2 ] = 11386
c107: [ 1 x_20_ ^ 2 - 2 x_68_ * x_20_ + 1 x_68_ ^ 2 + 1 y_20_ ^ 2 - 2 y_68_ * y_20_ + 1 y_68_ ^ 2 ] = 1544
c108: [ 1 x_26_ ^ 2 - 2 x_68_ * x_26_ + 1 x_68_ ^ 2 + 1 y_26_ ^ 2 - 2 y_68_ * y_26_ + 1 y_68_ ^ 2 ] = 11405
c109: [ 1 x_5_ ^ 2 - 2 x_69_ * x_5_ + 1 x_69_ ^ 2 + 1 y_5_ ^ 2 - 2 y_69_ * y_5_ + 1 y_69_ ^ 2 ] = 11300
c110: [ 1 x_16_ ^ 2 - 2 x_69_ * x_16_ + 1 x_69_ ^ 2 + 1 y_16_ ^ 2 - 2 y_69_ * y_16_ + 1 y_69_ ^ 2 ] = 10973
c111: [ 1 x_66_ ^ 2 - 2 x_69_ * x_66_ + 1 x_69_ ^ 2 + 1 y_66_ ^ 2 - 2 y_69_ * y_66_ + 1 y_69_ ^ 2 ] = 3074
c112: [ 1 x_51_ ^ 2 - 2 x_70_ * x_51_ + 1 x_70_ ^ 2 + 1 y_51_ ^ 2 - 2 y_70_ * y_51_ + 1 y_70_ ^ 2 ] = 7330
c113: [ 1 x_64_ ^ 2 - 2 x_70_ * x_64_ + 1 x_70_ ^ 2 + 1 y_64_ ^ 2 - 2 y_70_ * y_64_ + 1 y_70_ ^ 2 ] = 725
c114: [ 1 x_66_ ^ 2 - 2 x_71_ * x_66_ + 1 x_71_ ^ 2 + 1 y_66_ ^ 2 - 2 y_71_ * y_66_ + 1 y_71_ ^ 2 ] = 8264
c115: [ 1 x_70_ ^ 2 - 2 x_71_ * x_70_ + 1 x_71_ ^ 2 + 1 y_70_ ^ 2 - 2 y_71_ * y_70_ + 1 y_71_ ^ 2 ] = 16466
c116: [ 1 x_8_ ^ 2 - 2 x_72_ * x_8_ + 1 x_72_ ^ 2 + 1 y_8_ ^ 2 - 2 y_72_ * y_8_ + 1 y_72_ ^ 2 ] = 2557
c117: [ 1 x_9_ ^ 2 - 2 x_72_ * x_9_ + 1 x_72_ ^ 2 + 1 y_9_ ^ 2 - 2 y_72_ * y_9_ + 1 y_72_ ^ 2 ] = 2330
c118: [ 1 x_11_ ^ 2 - 2 x_72_ * x_11_ + 1 x_72_ ^ 2 + 1 y_11_ ^ 2 - 2 y_72_ * y_11_ + 1 y_72_ ^ 2 ] = 148
c119: [ 1 x_3_ ^ 2 - 2 x_73_ * x_3_ + 1 x_73_ ^ 2 + 1 y_3_ ^ 2 - 2 y_73_ * y_3_ + 1 y_73_ ^ 2 ] = 15949
c120: [ 1 x_25_ ^ 2 - 2 x_73_ * x_25_ + 1 x_73_ ^ 2 + 1 y_25_ ^ 2 - 2 y_73_ * y_25_ + 1 y_73_ ^ 2 ] = 1625
c121: [ 1 x_3_ ^ 2 - 2 x_74_ * x_3_ + 1 x_74_ ^ 2 + 1 y_3_ ^ 2 - 2 y_74_ * y_3_ + 1 y_74_ ^ 2 ] = 8689
c122: [ 1 x_40_ ^ 2 - 2 x_74_ * x_40_ + 1 x_74_ ^ 2 + 1 y_40_ ^ 2 - 2 y_74_ * y_40_ + 1 y_74_ ^ 2 ] = 2482
c123: [ 1 x_71_ ^ 2 - 2 x_74_ * x_71_ + 1 x_74_ ^ 2 + 1 y_71_ ^ 2 - 2 y_74_ * y_71_ + 1 y_74_ ^ 2 ] = 30340
c124: [ 1 x_17_ ^ 2 - 2 x_75_ * x_17_ + 1 x_75_ ^ 2 + 1 y_17_ ^ 2 - 2 y_75_ * y_17_ + 1 y_75_ ^ 2 ] = 7921
c125: [ 1 x_55_ ^ 2 - 2 x_75_ * x_55_ + 1 x_75_ ^ 2 + 1 y_55_ ^ 2 - 2 y_75_ * y_55_ + 1 y_75_ ^ 2 ] = 22570
c126: [ 1 x_58_ ^ 2 - 2 x_75_ * x_58_ + 1 x_75_ ^ 2 + 1 y_58_ ^ 2 - 2 y_75_ * y_58_ + 1 y_75_ ^ 2 ] = 6152
c127: [ 1 x_38_ ^ 2 - 2 x_76_ * x_38_ + 1 x_76_ ^ 2 + 1 y_38_ ^ 2 - 2 y_76_ * y_38_ + 1 y_76_ ^ 2 ] = 14954
c128: [ 1 x_39_ ^ 2 - 2 x_76_ * x_39_ + 1 x_76_ ^ 2 + 1 y_39_ ^ 2 - 2 y_76_ * y_39_ + 1 y_76_ ^ 2 ] = 11554
c129: [ 1 x_54_ ^ 2 - 2 x_76_ * x_54_ + 1 x_76_ ^ 2 + 1 y_54_ ^ 2 - 2 y_76_ * y_54_ + 1 y_76_ ^ 2 ] = 6521
c130: [ 1 x_14_ ^ 2 - 2 x_77_ * x_14_ + 1 x_77_ ^ 2 + 1 y_14_ ^ 2 - 2 y_77_ * y_14_ + 1 y_77_ ^ 2 ] = 4580
c131: [ 1 x_21_ ^ 2 - 2 x_77_ * x_21_ + 1 x_77_ ^ 2 + 1 y_21_ ^ 2 - 2 y_77_ * y_21_ + 1 y_77_ ^ 2 ] = 15860
c132: [ 1 x_56_ ^ 2 - 2 x_77_ * x_56_ + 1 x_77_ ^ 2 + 1 y_56_ ^ 2 - 2 y_77_ * y_56_ + 1 y_77_ ^ 2 ] = 24157
c133: [ 1 x_3_ ^ 2 - 2 x_78_ * x_3_ + 1 x_78_ ^ 2 + 1 y_3_ ^ 2 - 2 y_78_ * y_3_ + 1 y_78_ ^ 2 ] = 4849
c134: [ 1 x_16_ ^ 2 - 2 x_78_ * x_16_ + 1 x_78_ ^ 2 + 1 y_16_ ^ 2 - 2 y_78_ * y_16_ + 1 y_78_ ^ 2 ] = 51145
c135: [ 1 x_20_ ^ 2 - 2 x_78_ * x_20_ + 1 x_78_ ^ 2 + 1 y_20_ ^ 2 - 2 y_78_ * y_20_ + 1 y_78_ ^ 2 ] = 1384
c136: [ 1 x_1_ ^ 2 - 2 x_79_ * x_1_ + 1 x_79_ ^ 2 + 1 y_1_ ^ 2 - 2 y_79_ * y_1_ + 1 y_79_ ^ 2 ] = 15250
c137: [ 1 x_43_ ^ 2 - 2 x_79_ * x_43_ + 1 x_79_ ^ 2 + 1 y_43_ ^ 2 - 2 y_79_ * y_43_ + 1 y_79_ ^ 2 ] = 6093
c138: [ 1 x_55_ ^ 2 - 2 x_79_ * x_55_ + 1 x_79_ ^ 2 + 1 y_55_ ^ 2 - 2 y_79_ * y_55_ + 1 y_79_ ^ 2 ] = 18481
c139: [ 1 x_12_ ^ 2 - 2 x_80_ * x_12_ + 1 x_80_ ^ 2 + 1 y_12_ ^ 2 - 2 y_80_ * y_12_ + 1 y_80_ ^ 2 ] = 15661
c140: [ 1 x_18_ ^ 2 - 2 x_80_ * x_18_ + 1 x_80_ ^ 2 + 1 y_18_ ^ 2 - 2 y_80_ * y_18_ + 1 y_80_ ^ 2 ] = 4797
c141: [ 1 x_47_ ^ 2 - 2 x_80_ * x_47_ + 1 x_80_ ^ 2 + 1 y_47_ ^ 2 - 2 y_80_ * y_47_ + 1 y_80_ ^ 2 ] = 3330
c142: [ 1 x_28_ ^ 2 - 2 x_81_ * x_28_ + 1 x_81_ ^ 2 + 1 y_28_ ^ 2 - 2 y_81_ * y_28_ + 1 y_81_ ^ 2 ] = 20618
c143: [ 1 x_34_ ^ 2 - 2 x_81_ * x_34_ + 1 x_81_ ^ 2 + 1 y_34_ ^ 2 - 2 y_81_ * y_34_ + 1 y_81_ ^ 2 ] = 21341
c144: [ 1 x_54_ ^ 2 - 2 x_81_ * x_54_ + 1 x_81_ ^ 2 + 1 y_54_ ^ 2 - 2 y_81_ * y_54_ + 1 y_81_ ^ 2 ] = 6089
c145: [ 1 x_19_ ^ 2 - 2 x_82_ * x_19_ + 1 x_82_ ^ 2 + 1 y_19_ ^ 2 - 2 y_82_ * y_19_ + 1 y_82_ ^ 2 ] = 29041
c146: [ 1 x_26_ ^ 2 - 2 x_82_ * x_26_ + 1 x_82_ ^ 2 + 1 y_26_ ^ 2 - 2 y_82_ * y_26_ + 1 y_82_ ^ 2 ] = 13844
c147: [ 1 x_41_ ^ 2 - 2 x_82_ * x_41_ + 1 x_82_ ^ 2 + 1 y_41_ ^ 2 - 2 y_82_ * y_41_ + 1 y_82_ ^ 2 ] = 25610
c148: [ 1 x_24_ ^ 2 - 2 x_83_ * x_24_ + 1 x_83_ ^ 2 + 1 y_24_ ^ 2 - 2 y_83_ * y_24_ + 1 y_83_ ^ 2 ] = 6964
c149: [ 1 x_59_ ^ 2 - 2 x_83_ * x_59_ + 1 x_83_ ^ 2 + 1 y_59_ ^ 2 - 2 y_83_ * y_59_ + 1 y_83_ ^ 2 ] = 40321
c150: [ 1 x_73_ ^ 2 - 2 x_83_ * x_73_ + 1 x_83_ ^ 2 + 1 y_73_ ^ 2 - 2 y_83_ * y_73_ + 1 y_83_ ^ 2 ] = 30537
c151: [ 1 x_3_ ^ 2 - 2 x_84_ * x_3_ + 1 x_84_ ^ 2 + 1 y_3_ ^ 2 - 2 y_84_ * y_3_ + 1 y_84_ ^ 2 ] = 250
c152: [ 1 x_12_ ^ 2 - 2 x_84_ * x_12_ + 1 x_84_ ^ 2 + 1 y_12_ ^ 2 - 2 y_84_ * y_12_ + 1 y_84_ ^ 2 ] = 8233
c153: [ 1 x_41_ ^ 2 - 2 x_84_ * x_41_ + 1 x_84_ ^ 2 + 1 y_41_ ^ 2 - 2 y_84_ * y_41_ + 1 y_84_ ^ 2 ] = 18532
c154: [ 1 x_1_ ^ 2 - 2 x_85_ * x_1_ + 1 x_85_ ^ 2 + 1 y_1_ ^ 2 - 2 y_85_ * y_1_ + 1 y_85_ ^ 2 ] = 13840
c155: [ 1 x_52_ ^ 2 - 2 x_85_ * x_52_ + 1 x_85_ ^ 2 + 1 y_52_ ^ 2 - 2 y_85_ * y_52_ + 1 y_85_ ^ 2 ] = 15354
c156: [ 1 x_63_ ^ 2 - 2 x_85_ * x_63_ + 1 x_85_ ^ 2 + 1 y_63_ ^ 2 - 2 y_85_ * y_63_ + 1 y_85_ ^ 2 ] = 3016
c157: [ 1 x_4_ ^ 2 - 2 x_86_ * x_4_ + 1 x_86_ ^ 2 + 1 y_4_ ^ 2 - 2 y_86_ * y_4_ + 1 y_86_ ^ 2 ] = 4201
c158: [ 1 x_71_ ^ 2 - 2 x_86_ * x_71_ + 1 x_86_ ^ 2 + 1 y_71_ ^ 2 - 2 y_86_ * y_71_ + 1 y_86_ ^ 2 ] = 18362
c159: [ 1 x_50_ ^ 2 - 2 x_87_ * x_50_ + 1 x_87_ ^ 2 + 1 y_50_ ^ 2 - 2 y_87_ * y_50_ + 1 y_87_ ^ 2 ] = 5905
c160: [ 1 x_69_ ^ 2 - 2 x_87_ * x_69_ + 1 x_87_ ^ 2 + 1 y_69_ ^ 2 - 2 y_87_ * y_69_ + 1 y_87_ ^ 2 ] = 7985
c161: [ 1 x_16_ ^ 2 - 2 x_88_ * x_16_ + 1 x_88_ ^ 2 + 1 y_16_ ^ 2 - 2 y_88_ * y_16_ + 1 y_88_ ^ 2 ] = 24314
c162: [ 1 x_21_ ^ 2 - 2 x_88_ * x_21_ + 1 x_88_ ^ 2 + 1 y_21_ ^ 2 - 2 y_88_ * y_21_ + 1 y_88_ ^ 2 ] = 18152
c163: [ 1 x_87_ ^ 2 - 2 x_88_ * x_87_ + 1 x_88_ ^ 2 + 1 y_87_ ^ 2 - 2 y_88_ * y_87_ + 1 y_88_ ^ 2 ] = 1168
c164: [ 1 x_11_ ^ 2 - 2 x_89_ * x_11_ + 1 x_89_ ^ 2 + 1 y_11_ ^ 2 - 2 y_89_ * y_11_ + 1 y_89_ ^ 2 ] = 15453
c165: [ 1 x_55_ ^ 2 - 2 x_89_ * x_55_ + 1 x_89_ ^ 2 + 1 y_55_ ^ 2 - 2 y_89_ * y_55_ + 1 y_89_ ^ 2 ] = 26905
c166: [ 1 x_86_ ^ 2 - 2 x_89_ * x_86_ + 1 x_89_ ^ 2 + 1 y_86_ ^ 2 - 2 y_89_ * y_86_ + 1 y_89_ ^ 2 ] = 15706
c167: [ 1 x_21_ ^ 2 - 2 x_90_ * x_21_ + 1 x_90_ ^ 2 + 1 y_21_ ^ 2 - 2 y_90_ * y_21_ + 1 y_90_ ^ 2 ] = 27425
c168: [ 1 x_73_ ^ 2 - 2 x_90_ * x_73_ + 1 x_90_ ^ 2 + 1 y_73_ ^ 2 - 2 y_90_ * y_73_ + 1 y_90_ ^ 2 ] = 2704
c169: [ 1 x_2_ ^ 2 - 2 x_91_ * x_2_ + 1 x_91_ ^ 2 + 1 y_2_ ^ 2 - 2 y_91_ * y_2_ + 1 y_91_ ^ 2 ] = 14381
c170: [ 1 x_8_ ^ 2 - 2 x_91_ * x_8_ + 1 x_91_ ^ 2 + 1 y_8_ ^ 2 - 2 y_91_ * y_8_ + 1 y_91_ ^ 2 ] = 3005
c171: [ 1 x_51_ ^ 2 - 2 x_91_ * x_51_ + 1 x_91_ ^ 2 + 1 y_51_ ^ 2 - 2 y_91_ * y_51_ + 1 y_91_ ^ 2 ] = 24805
c172: [ 1 x_17_ ^ 2 - 2 x_92_ * x_17_ + 1 x_92_ ^ 2 + 1 y_17_ ^ 2 - 2 y_92_ * y_17_ + 1 y_92_ ^ 2 ] = 19556
c173: [ 1 x_18_ ^ 2 - 2 x_92_ * x_18_ + 1 x_92_ ^ 2 + 1 y_18_ ^ 2 - 2 y_92_ * y_18_ + 1 y_92_ ^ 2 ] = 16868
c174: [ 1 x_67_ ^ 2 - 2 x_92_ * x_67_ + 1 x_92_ ^ 2 + 1 y_67_ ^ 2 - 2 y_92_ * y_67_ + 1 y_92_ ^ 2 ] = 3517
c175: [ 1 x_8_ ^ 2 - 2 x_93_ * x_8_ + 1 x_93_ ^ 2 + 1 y_8_ ^ 2 - 2 y_93_ * y_8_ + 1 y_93_ ^ 2 ] = 7610
c176: [ 1 x_37_ ^ 2 - 2 x_93_ * x_37_ + 1 x_93_ ^ 2 + 1 y_37_ ^ 2 - 2 y_93_ * y_37_ + 1 y_93_ ^ 2 ] = 28186
c177: [ 1 x_42_ ^ 2 - 2 x_93_ * x_42_ + 1 x_93_ ^ 2 + 1 y_42_ ^ 2 - 2 y_93_ * y_42_ + 1 y_93_ ^ 2 ] = 35258
c178: [ 1 x_48_ ^ 2 - 2 x_94_ * x_48_ + 1 x_94_ ^ 2 + 1 y_48_ ^ 2 - 2 y_94_ * y_48_ + 1 y_94_ ^ 2 ] = 27602
c179: [ 1 x_75_ ^ 2 - 2 x_94_ * x_75_ + 1 x_94_ ^ 2 + 1 y_75_ ^ 2 - 2 y_94_ * y_75_ + 1 y_94_ ^ 2 ] = 4210
c180: [ 1 x_90_ ^ 2 - 2 x_94_ * x_90_ + 1 x_94_ ^ 2 + 1 y_90_ ^ 2 - 2 y_94_ * y_90_ + 1 y_94_ ^ 2 ] = 41049
c181: [ 1 x_9_ ^ 2 - 2 x_95_ * x_9_ + 1 x_95_ ^ 2 + 1 y_9_ ^ 2 - 2 y_95_ * y_9_ + 1 y_95_ ^ 2 ] = 27490
c182: [ 1 x_17_ ^ 2 - 2 x_95_ * x_17_ + 1 x_95_ ^ 2 + 1 y_17_ ^ 2 - 2 y_95_ * y_17_ + 1 y_95_ ^ 2 ] = 24961
c183: [ 1 x_20_ ^ 2 - 2 x_95_ * x_20_ + 1 x_95_ ^ 2 + 1 y_20_ ^ 2 - 2 y_95_ * y_20_ + 1 y_95_ ^ 2 ] = 62449
c184: [ 1 x_18_ ^ 2 - 2 x_96_ * x_18_ + 1 x_96_ ^ 2 + 1 y_18_ ^ 2 - 2 y_96_ * y_18_ + 1 y_96_ ^ 2 ] = 14449
c185: [ 1 x_39_ ^ 2 - 2 x_96_ * x_39_ + 1 x_96_ ^ 2 + 1 y_39_ ^ 2 - 2 y_96_ * y_39_ + 1 y_96_ ^ 2 ] = 19088
c186: [ 1 x_56_ ^ 2 - 2 x_96_ * x_56_ + 1 x_96_ ^ 2 + 1 y_56_ ^ 2 - 2 y_96_ * y_56_ + 1 y_96_ ^ 2 ] = 45301
c187: [ 1 x_18_ ^ 2 - 2 x_97_ * x_18_ + 1 x_97_ ^ 2 + 1 y_18_ ^ 2 - 2 y_97_ * y_18_ + 1 y_97_ ^ 2 ] = 18317
c188: [ 1 x_45_ ^ 2 - 2 x_97_ * x_45_ + 1 x_97_ ^ 2 + 1 y_45_ ^ 2 - 2 y_97_ * y_45_ + 1 y_97_ ^ 2 ] = 46325
c189: [ 1 x_95_ ^ 2 - 2 x_97_ * x_95_ + 1 x_97_ ^ 2 + 1 y_95_ ^ 2 - 2 y_97_ * y_95_ + 1 y_97_ ^ 2 ] = 52900
c190: [ 1 x_2_ ^ 2 - 2 x_98_ * x_2_ + 1 x_98_ ^ 2 + 1 y_2_ ^ 2 - 2 y_98_ * y_2_ + 1 y_98_ ^ 2 ] = 12634
c191: [ 1 x_32_ ^ 2 - 2 x_98_ * x_32_ + 1 x_98_ ^ 2 + 1 y_32_ ^ 2 - 2 y_98_ * y_32_ + 1 y_98_ ^ 2 ] = 21737
c192: [ 1 x_72_ ^ 2 - 2 x_98_ * x_72_ + 1 x_98_ ^ 2 + 1 y_72_ ^ 2 - 2 y_98_ * y_72_ + 1 y_98_ ^ 2 ] = 2045
c193: [ 1 x_2_ ^ 2 - 2 x_99_ * x_2_ + 1 x_99_ ^ 2 + 1 y_2_ ^ 2 - 2 y_99_ * y_2_ + 1 y_99_ ^ 2 ] = 18925
c194: [ 1 x_25_ ^ 2 - 2 x_99_ * x_25_ + 1 x_99_ ^ 2 + 1 y_25_ ^ 2 - 2 y_99_ * y_25_ + 1 y_99_ ^ 2 ] = 3368
c195: [ 1 x_51_ ^ 2 - 2 x_99_ * x_51_ + 1 x_99_ ^ 2 + 1 y_51_ ^ 2 - 2 y_99_ * y_51_ + 1 y_99_ ^ 2 ] = 2313
c196: [ 1 x_16_ ^ 2 - 2 x_100_ * x_16_ + 1 x_100_ ^ 2 + 1 y_16_ ^ 2 - 2 y_100_ * y_16_ + 1 y_100_ ^ 2 ] = 28265
c197: [ 1 x_36_ ^ 2 - 2 x_100_ * x_36_ + 1 x_100_ ^ 2 + 1 y_36_ ^ 2 - 2 y_100_ * y_36_ + 1 y_100_ ^ 2 ] = 1490
c198: [ 1 x_79_ ^ 2 - 2 x_100_ * x_79_ + 1 x_100_ ^ 2 + 1 y_79_ ^ 2 - 2 y_100_ * y_79_ + 1 y_100_ ^ 2 ] = 11600
Bounds
-149 <= x_1_ <= 201
-189 <= x_2_ <= 241
-216 <= x_3_ <= 277
-254 <= x_4_ <= 306
-193 <= x_5_ <= 245
-237 <= x_6_ <= 289
-26 <= x_7_ <= 78
-123 <= x_8_ <= 233
-222 <= x_9_ <= 264
-215 <= x_10_ <= 235
-185 <= x_11_ <= 295
-139 <= x_12_ <= 249
-54 <= x_13_ <= 164
46 <= x_14_ <= 64
-76 <= x_15_ <= 128
-226 <= x_16_ <= 336
-11 <= x_17_ <= 63
x_18_ = 55
-35 <= x_19_ <= 87
-109 <= x_20_ <= 209
-148 <= x_21_ <= 258
-150 <= x_22_ <= 202
-120 <= x_23_ <= 172
5 <= x_24_ <= 105
-257 <= x_25_ <= 277
-223 <= x_26_ <= 276
-241 <= x_27_ <= 307
-268 <= x_28_ <= 312
-154 <= x_29_ <= 206
-149 <= x_30_ <= 201
-104 <= x_31_ <= 156
-167 <= x_32_ <= 187
x_33_ = 26
-101 <= x_34_ <= 153
-253 <= x_35_ <= 273
-142 <= x_36_ <= 217
-26 <= x_37_ <= 78
-112 <= x_38_ <= 132
-97 <= x_39_ <= 117
-174 <= x_40_ <= 226
-336 <= x_41_ <= 388
-136 <= x_42_ <= 246
-123 <= x_43_ <= 143
-229 <= x_44_ <= 281
-151 <= x_45_ <= 203
-196 <= x_46_ <= 276
-71 <= x_47_ <= 181
-83 <= x_48_ <= 193
-272 <= x_49_ <= 382
-116 <= x_50_ <= 226
-206 <= x_51_ <= 316
-211 <= x_52_ <= 231
-335 <= x_53_ <= 406
-70 <= x_54_ <= 90
-232 <= x_55_ <= 302
-170 <= x_56_ <= 222
-90 <= x_57_ <= 142
-178 <= x_58_ <= 230
-164 <= x_59_ <= 274
-117 <= x_60_ <= 137
-230 <= x_61_ <= 282
-122 <= x_62_ <= 174
-111 <= x_63_ <= 163
-296 <= x_64_ <= 348
-174 <= x_65_ <= 284
-250 <= x_66_ <= 303
-134 <= x_67_ <= 244
-118 <= x_68_ <= 170
-283 <= x_69_ <= 352
-291 <= x_70_ <= 375
-341 <= x_71_ <= 394
-173 <= x_72_ <= 283
-253 <= x_73_ <= 317
-224 <= x_74_ <= 276
-100 <= x_75_ <= 152
x_76_ = 10
-22 <= x_77_ <= 132
-147 <= x_78_ <= 246
-201 <= x_79_ <= 221
-14 <= x_80_ <= 124
-148 <= x_81_ <= 168
-206 <= x_82_ <= 258
-78 <= x_83_ <= 188
-230 <= x_84_ <= 292
-166 <= x_85_ <= 218
-319 <= x_86_ <= 371
-193 <= x_87_ <= 303
-227 <= x_88_ <= 337
-310 <= x_89_ <= 420
-305 <= x_90_ <= 369
-178 <= x_91_ <= 288
-74 <= x_92_ <= 184
-194 <= x_93_ <= 246
-165 <= x_94_ <= 217
-169 <= x_95_ <= 221
-65 <= x_96_ <= 175
-80 <= x_97_ <= 190
-219 <= x_98_ <= 329
-254 <= x_99_ <= 335
-180 <= x_100_ <= 255
-236 <= y_1_ <= 114
-276 <= y_2_ <= 154
-303 <= y_3_ <= 205
-341 <= y_4_ <= 219
-280 <= y_5_ <= 158
-324 <= y_6_ <= 202
-113 <= y_7_ <= -9
-244 <= y_8_ <= 112
-290 <= y_9_ <= 211
-261 <= y_10_ <= 189
-306 <= y_11_ <= 174
-260 <= y_12_ <= 128
-175 <= y_13_ <= 43
-75 <= y_14_ <= -57
-163 <= y_15_ <= 41
-347 <= y_16_ <= 215
-98 <= y_17_ <= -24
y_18_ = -66
-122 <= y_19_ <= 0
-230 <= y_20_ <= 98
-269 <= y_21_ <= 137
-237 <= y_22_ <= 115
-207 <= y_23_ <= 85
-116 <= y_24_ <= -16
-303 <= y_25_ <= 231
-311 <= y_26_ <= 189
-342 <= y_27_ <= 220
-338 <= y_28_ <= 233
-241 <= y_29_ <= 119
-236 <= y_30_ <= 114
-191 <= y_31_ <= 69
-213 <= y_32_ <= 141
y_33_ = -61
-188 <= y_34_ <= 66
-299 <= y_35_ <= 227
-252 <= y_36_ <= 130
-113 <= y_37_ <= -9
-158 <= y_38_ <= 86
-143 <= y_39_ <= 71
-261 <= y_40_ <= 139
-423 <= y_41_ <= 301
-257 <= y_42_ <= 125
-169 <= y_43_ <= 97
-316 <= y_44_ <= 194
-238 <= y_45_ <= 116
-302 <= y_46_ <= 185
-192 <= y_47_ <= 60
-204 <= y_48_ <= 72
-393 <= y_49_ <= 261
-237 <= y_50_ <= 105
-327 <= y_51_ <= 195
-257 <= y_52_ <= 185
-441 <= y_53_ <= 319
-116 <= y_54_ <= 44
-337 <= y_55_ <= 215
-257 <= y_56_ <= 135
-177 <= y_57_ <= 55
-265 <= y_58_ <= 143
-285 <= y_59_ <= 153
-163 <= y_60_ <= 91
-317 <= y_61_ <= 195
-209 <= y_62_ <= 87
-198 <= y_63_ <= 76
-383 <= y_64_ <= 261
-295 <= y_65_ <= 163
-338 <= y_66_ <= 216
-255 <= y_67_ <= 123
-205 <= y_68_ <= 83
-387 <= y_69_ <= 265
-410 <= y_70_ <= 280
-429 <= y_71_ <= 307
-294 <= y_72_ <= 162
-343 <= y_73_ <= 242
-311 <= y_74_ <= 189
-187 <= y_75_ <= 65
y_76_ = -36
-143 <= y_77_ <= 11
-268 <= y_78_ <= 136
-247 <= y_79_ <= 175
-135 <= y_80_ <= 3
-194 <= y_81_ <= 122
-293 <= y_82_ <= 171
-199 <= y_83_ <= 67
-318 <= y_84_ <= 219
-253 <= y_85_ <= 131
-406 <= y_86_ <= 284
-314 <= y_87_ <= 182
-348 <= y_88_ <= 216
-431 <= y_89_ <= 299
-395 <= y_90_ <= 294
-299 <= y_91_ <= 167
-195 <= y_92_ <= 63
-281 <= y_93_ <= 159
-252 <= y_94_ <= 130
-256 <= y_95_ <= 134
-186 <= y_96_ <= 54
-201 <= y_97_ <= 69
-340 <= y_98_ <= 208
-361 <= y_99_ <= 243
-290 <= y_100_ <= 168
General
x_1_
x_2_
x_3_
x_4_
x_5_
x_6_
x_7_
x_8_
x_9_
x_10_
x_11_
x_12_
x_13_
x_14_
x_15_
x_16_
x_17_
x_18_
x_19_
x_20_
x_21_
x_22_
x_23_
x_24_
x_25_
x_26_
x_27_
x_28_
x_29_
x_30_
x_31_
x_32_
x_33_
x_34_
x_35_
x_36_
x_37_
x_38_
x_39_
x_40_
x_41_
x_42_
x_43_
x_44_
x_45_
x_46_
x_47_
x_48_
x_49_
x_50_
x_51_
x_52_
x_53_
x_54_
x_55_
x_56_
x_57_
x_58_
x_59_
x_60_
x_61_
x_62_
x_63_
x_64_
x_65_
x_66_
x_67_
x_68_
x_69_
x_70_
x_71_
x_72_
x_73_
x_74_
x_75_
x_76_
x_77_
x_78_
x_79_
x_80_
x_81_
x_82_
x_83_
x_84_
x_85_
x_86_
x_87_
x_88_
x_89_
x_90_
x_91_
x_92_
x_93_
x_94_
x_95_
x_96_
x_97_
x_98_
x_99_
x_100_
y_1_
y_2_
y_3_
y_4_
y_5_
y_6_
y_7_
y_8_
y_9_
y_10_
y_11_
y_12_
y_13_
y_14_
y_15_
y_16_
y_17_
y_18_
y_19_
y_20_
y_21_
y_22_
y_23_
y_24_
y_25_
y_26_
y_27_
y_28_
y_29_
y_30_
y_31_
y_32_
y_33_
y_34_
y_35_
y_36_
y_37_
y_38_
y_39_
y_40_
y_41_
y_42_
y_43_
y_44_
y_45_
y_46_
y_47_
y_48_
y_49_
y_50_
y_51_
y_52_
y_53_
y_54_
y_55_
y_56_
y_57_
y_58_
y_59_
y_60_
y_61_
y_62_
y_63_
y_64_
y_65_
y_66_
y_67_
y_68_
y_69_
y_70_
y_71_
y_72_
y_73_
y_74_
y_75_
y_76_
y_77_
y_78_
y_79_
y_80_
y_81_
y_82_
y_83_
y_84_
y_85_
y_86_
y_87_
y_88_
y_89_
y_90_
y_91_
y_92_
y_93_
y_94_
y_95_
y_96_
y_97_
y_98_
y_99_
y_100_
End
