minimize
obj: 
subject to
c1: 92 x_1_ - 42 y_1_ + [ 1 x_1_ ^ 2 + 1 y_1_ ^ 2 ] <= 47573.56873970102
c2: 92 x_2_ - 42 y_2_ + [ 1 x_2_ ^ 2 + 1 y_2_ ^ 2 ] <= 9177.116229514424
c3: 92 x_3_ - 42 y_3_ + [ 1 x_3_ ^ 2 + 1 y_3_ ^ 2 ] <= 106922.31120285863
c4: 92 x_4_ - 42 y_4_ + [ 1 x_4_ ^ 2 + 1 y_4_ ^ 2 ] <= 68817.33281978715
c5: 92 x_5_ - 42 y_5_ + [ 1 x_5_ ^ 2 + 1 y_5_ ^ 2 ] <= 31957.993270381397
c6: 92 x_6_ - 42 y_6_ + [ 1 x_6_ ^ 2 + 1 y_6_ ^ 2 ] <= 126415.13048052155
c7: 92 x_7_ - 42 y_7_ + [ 1 x_7_ ^ 2 + 1 y_7_ ^ 2 ] <= 78732.25775725985
c8: 92 x_8_ - 42 y_8_ + [ 1 x_8_ ^ 2 + 1 y_8_ ^ 2 ] <= 34067.027220205855
c9: 92 x_9_ - 42 y_9_ + [ 1 x_9_ ^ 2 + 1 y_9_ ^ 2 ] <= 9079.21
c10: 92 x_10_ - 42 y_10_ + [ 1 x_10_ ^ 2 + 1 y_10_ ^ 2 ] <= 13136.379999999997
c11: 92 x_12_ - 42 y_12_ + [ 1 x_12_ ^ 2 + 1 y_12_ ^ 2 ] <= 37469.77840924609
c12: 92 x_13_ - 42 y_13_ + [ 1 x_13_ ^ 2 + 1 y_13_ ^ 2 ] <= 53794.10064304495
c13: 92 x_14_ - 42 y_14_ + [ 1 x_14_ ^ 2 + 1 y_14_ ^ 2 ] <= 119096.9901315311
c14: 92 x_15_ - 42 y_15_ + [ 1 x_15_ ^ 2 + 1 y_15_ ^ 2 ] <= 101589.4159766413
c15: 92 x_16_ - 42 y_16_ + [ 1 x_16_ ^ 2 + 1 y_16_ ^ 2 ] <= 104568.26679377319
c16: 92 x_17_ - 42 y_17_ + [ 1 x_17_ ^ 2 + 1 y_17_ ^ 2 ] <= 118142.59646352117
c17: 92 x_18_ - 42 y_18_ + [ 1 x_18_ ^ 2 + 1 y_18_ ^ 2 ] <= 55014.8737728877
c18: 92 x_19_ - 42 y_19_ + [ 1 x_19_ ^ 2 + 1 y_19_ ^ 2 ] <= 67347.1598857452
c19: 92 x_20_ - 42 y_20_ + [ 1 x_20_ ^ 2 + 1 y_20_ ^ 2 ] <= 54341.06544670783
c20: 92 x_21_ - 42 y_21_ + [ 1 x_21_ ^ 2 + 1 y_21_ ^ 2 ] <= 53381.68274431934
c21: 92 x_22_ - 42 y_22_ + [ 1 x_22_ ^ 2 + 1 y_22_ ^ 2 ] <= 73008.55720456065
c22: 92 x_23_ - 42 y_23_ + [ 1 x_23_ ^ 2 + 1 y_23_ ^ 2 ] <= 133351.59777585257
c23: 92 x_24_ - 42 y_24_ + [ 1 x_24_ ^ 2 + 1 y_24_ ^ 2 ] <= 50417.702358010065
c24: 92 x_25_ - 42 y_25_ + [ 1 x_25_ ^ 2 + 1 y_25_ ^ 2 ] <= 15158.451821815517
c25: 92 x_26_ - 42 y_26_ + [ 1 x_26_ ^ 2 + 1 y_26_ ^ 2 ] <= 856.7999999999997
c26: 92 x_27_ - 42 y_27_ + [ 1 x_27_ ^ 2 + 1 y_27_ ^ 2 ] <= 89290.34544218172
c27: 92 x_28_ - 42 y_28_ + [ 1 x_28_ ^ 2 + 1 y_28_ ^ 2 ] <= 54850.597463824495
c28: 92 x_29_ - 42 y_29_ + [ 1 x_29_ ^ 2 + 1 y_29_ ^ 2 ] <= 82835.45888229586
c29: 92 x_30_ - 42 y_30_ + [ 1 x_30_ ^ 2 + 1 y_30_ ^ 2 ] <= 62935.44766739593
c30: 92 x_31_ - 42 y_31_ + [ 1 x_31_ ^ 2 + 1 y_31_ ^ 2 ] <= 74306.82614898503
c31: 92 x_32_ - 42 y_32_ + [ 1 x_32_ ^ 2 + 1 y_32_ ^ 2 ] <= 103740.0587232971
c32: 92 x_33_ - 42 y_33_ + [ 1 x_33_ ^ 2 + 1 y_33_ ^ 2 ] <= 92741.11531804096
c33: 92 x_34_ - 42 y_34_ + [ 1 x_34_ ^ 2 + 1 y_34_ ^ 2 ] <= 82271.96175092274
c34: 92 x_35_ - 42 y_35_ + [ 1 x_35_ ^ 2 + 1 y_35_ ^ 2 ] <= 21917.884562622876
c35: 92 x_36_ - 42 y_36_ + [ 1 x_36_ ^ 2 + 1 y_36_ ^ 2 ] <= 20807.567696008122
c36: 92 x_37_ - 42 y_37_ + [ 1 x_37_ ^ 2 + 1 y_37_ ^ 2 ] <= 98502.61632350279
c37: 92 x_38_ - 42 y_38_ + [ 1 x_38_ ^ 2 + 1 y_38_ ^ 2 ] <= 60995.85602689082
c38: 92 x_39_ - 42 y_39_ + [ 1 x_39_ ^ 2 + 1 y_39_ ^ 2 ] <= 88718.2024538083
c39: 92 x_40_ - 42 y_40_ + [ 1 x_40_ ^ 2 + 1 y_40_ ^ 2 ] <= 35635.703996777345
c40: 92 x_41_ - 42 y_41_ + [ 1 x_41_ ^ 2 + 1 y_41_ ^ 2 ] <= 64974.48702354815
c41: 92 x_42_ - 42 y_42_ + [ 1 x_42_ ^ 2 + 1 y_42_ ^ 2 ] <= 90260.25814790723
c42: 92 x_43_ - 42 y_43_ + [ 1 x_43_ ^ 2 + 1 y_43_ ^ 2 ] <= 26485.849178556855
c43: 92 x_44_ - 42 y_44_ + [ 1 x_44_ ^ 2 + 1 y_44_ ^ 2 ] <= 96520.50145329016
c44: 92 x_45_ - 42 y_45_ + [ 1 x_45_ ^ 2 + 1 y_45_ ^ 2 ] <= 20945.516618680886
c45: 92 x_46_ - 42 y_46_ + [ 1 x_46_ ^ 2 + 1 y_46_ ^ 2 ] <= 130208.01516221097
c46: 92 x_47_ - 42 y_47_ + [ 1 x_47_ ^ 2 + 1 y_47_ ^ 2 ] <= 78781.02603391648
c47: 92 x_48_ - 42 y_48_ + [ 1 x_48_ ^ 2 + 1 y_48_ ^ 2 ] <= 3351.499999999999
c48: 92 x_49_ - 42 y_49_ + [ 1 x_49_ ^ 2 + 1 y_49_ ^ 2 ] <= 163459.21434563876
c49: 92 x_50_ - 42 y_50_ + [ 1 x_50_ ^ 2 + 1 y_50_ ^ 2 ] <= 90747.59850533264
c50: 92 x_51_ - 42 y_51_ + [ 1 x_51_ ^ 2 + 1 y_51_ ^ 2 ] <= 97822.3182425322
c51: 92 x_52_ - 42 y_52_ + [ 1 x_52_ ^ 2 + 1 y_52_ ^ 2 ] <= 65516.20246979251
c52: 92 x_53_ - 42 y_53_ + [ 1 x_53_ ^ 2 + 1 y_53_ ^ 2 ] <= 110099.38853970211
c53: 92 x_54_ - 42 y_54_ + [ 1 x_54_ ^ 2 + 1 y_54_ ^ 2 ] <= 85828.29074124339
c54: 92 x_55_ - 42 y_55_ + [ 1 x_55_ ^ 2 + 1 y_55_ ^ 2 ] <= 131446.8848986959
c55: 92 x_56_ - 42 y_56_ + [ 1 x_56_ ^ 2 + 1 y_56_ ^ 2 ] <= 50284.913744818296
c56: 92 x_57_ - 42 y_57_ + [ 1 x_57_ ^ 2 + 1 y_57_ ^ 2 ] <= 32145.496295859884
c57: 92 x_58_ - 42 y_58_ + [ 1 x_58_ ^ 2 + 1 y_58_ ^ 2 ] <= 45197.88914212529
c58: 92 x_59_ - 42 y_59_ + [ 1 x_59_ ^ 2 + 1 y_59_ ^ 2 ] <= 116532.91808337468
c59: 92 x_60_ - 42 y_60_ + [ 1 x_60_ ^ 2 + 1 y_60_ ^ 2 ] <= 117839.58574819908
c60: 92 x_61_ - 42 y_61_ + [ 1 x_61_ ^ 2 + 1 y_61_ ^ 2 ] <= 83460.69997136567
c61: 92 x_62_ - 42 y_62_ + [ 1 x_62_ ^ 2 + 1 y_62_ ^ 2 ] <= 88126.1300719704
c62: 92 x_63_ - 42 y_63_ + [ 1 x_63_ ^ 2 + 1 y_63_ ^ 2 ] <= 73619.5651530544
c63: 92 x_64_ - 42 y_64_ + [ 1 x_64_ ^ 2 + 1 y_64_ ^ 2 ] <= 85252.94554645017
c64: 92 x_65_ - 42 y_65_ + [ 1 x_65_ ^ 2 + 1 y_65_ ^ 2 ] <= 137174.5834722572
c65: 92 x_66_ - 42 y_66_ + [ 1 x_66_ ^ 2 + 1 y_66_ ^ 2 ] <= 58628.77955030783
c66: 92 x_67_ - 42 y_67_ + [ 1 x_67_ ^ 2 + 1 y_67_ ^ 2 ] <= 36210.435714730425
c67: 92 x_68_ - 42 y_68_ + [ 1 x_68_ ^ 2 + 1 y_68_ ^ 2 ] <= 159053.96045633266
c68: 92 x_69_ - 42 y_69_ + [ 1 x_69_ ^ 2 + 1 y_69_ ^ 2 ] <= -736.9800000000005
c69: 92 x_70_ - 42 y_70_ + [ 1 x_70_ ^ 2 + 1 y_70_ ^ 2 ] <= 145023.33150430635
c70: 92 x_71_ - 42 y_71_ + [ 1 x_71_ ^ 2 + 1 y_71_ ^ 2 ] <= 14320.2222796512
c71: 92 x_72_ - 42 y_72_ + [ 1 x_72_ ^ 2 + 1 y_72_ ^ 2 ] <= 87048.6470275837
c72: 92 x_73_ - 42 y_73_ + [ 1 x_73_ ^ 2 + 1 y_73_ ^ 2 ] <= 84182.85434769021
c73: 92 x_74_ - 42 y_74_ + [ 1 x_74_ ^ 2 + 1 y_74_ ^ 2 ] <= 143461.03867418633
c74: 92 x_75_ - 42 y_75_ + [ 1 x_75_ ^ 2 + 1 y_75_ ^ 2 ] <= 121279.39232852099
c75: 92 x_76_ - 42 y_76_ + [ 1 x_76_ ^ 2 + 1 y_76_ ^ 2 ] <= 58636.91586299855
c76: 92 x_77_ - 42 y_77_ + [ 1 x_77_ ^ 2 + 1 y_77_ ^ 2 ] <= 42946.02499124266
c77: 92 x_78_ - 42 y_78_ + [ 1 x_78_ ^ 2 + 1 y_78_ ^ 2 ] <= 79534.98187302718
c78: 92 x_79_ - 42 y_79_ + [ 1 x_79_ ^ 2 + 1 y_79_ ^ 2 ] <= 43062.688356934406
c79: 92 x_80_ - 42 y_80_ + [ 1 x_80_ ^ 2 + 1 y_80_ ^ 2 ] <= 156838.73438645533
c80: 92 x_81_ - 42 y_81_ + [ 1 x_81_ ^ 2 + 1 y_81_ ^ 2 ] <= 152339.4702773272
c81: 92 x_82_ - 42 y_82_ + [ 1 x_82_ ^ 2 + 1 y_82_ ^ 2 ] <= 181853.93243695862
c82: 92 x_83_ - 42 y_83_ + [ 1 x_83_ ^ 2 + 1 y_83_ ^ 2 ] <= 29945.879360228755
c83: 92 x_84_ - 42 y_84_ + [ 1 x_84_ ^ 2 + 1 y_84_ ^ 2 ] <= 231222.71751121272
c84: 92 x_85_ - 42 y_85_ + [ 1 x_85_ ^ 2 + 1 y_85_ ^ 2 ] <= 33025.86179898728
c85: 92 x_86_ - 42 y_86_ + [ 1 x_86_ ^ 2 + 1 y_86_ ^ 2 ] <= 100978.94342368311
c86: 92 x_87_ - 42 y_87_ + [ 1 x_87_ ^ 2 + 1 y_87_ ^ 2 ] <= 89551.81622855405
c87: 92 x_88_ - 42 y_88_ + [ 1 x_88_ ^ 2 + 1 y_88_ ^ 2 ] <= 84488.04415596598
c88: 92 x_89_ - 42 y_89_ + [ 1 x_89_ ^ 2 + 1 y_89_ ^ 2 ] <= 27217.933969389847
c89: 92 x_90_ - 42 y_90_ + [ 1 x_90_ ^ 2 + 1 y_90_ ^ 2 ] <= 116518.51398895365
c90: 92 x_91_ - 42 y_91_ + [ 1 x_91_ ^ 2 + 1 y_91_ ^ 2 ] <= 72696.51486556219
c91: 92 x_92_ - 42 y_92_ + [ 1 x_92_ ^ 2 + 1 y_92_ ^ 2 ] <= 83974.68265797201
c92: 92 x_93_ - 42 y_93_ + [ 1 x_93_ ^ 2 + 1 y_93_ ^ 2 ] <= 168044.21379229016
c93: 92 x_94_ - 42 y_94_ + [ 1 x_94_ ^ 2 + 1 y_94_ ^ 2 ] <= 82913.21076370851
c94: 92 x_95_ - 42 y_95_ + [ 1 x_95_ ^ 2 + 1 y_95_ ^ 2 ] <= 186063.33662438137
c95: 92 x_96_ - 42 y_96_ + [ 1 x_96_ ^ 2 + 1 y_96_ ^ 2 ] <= 128034.25514908758
c96: 92 x_97_ - 42 y_97_ + [ 1 x_97_ ^ 2 + 1 y_97_ ^ 2 ] <= 39286.49645209966
c97: 92 x_98_ - 42 y_98_ + [ 1 x_98_ ^ 2 + 1 y_98_ ^ 2 ] <= 56657.72275280433
c98: 92 x_99_ - 42 y_99_ + [ 1 x_99_ ^ 2 + 1 y_99_ ^ 2 ] <= 1726.2229442484622
c99: 92 x_100_ - 42 y_100_ + [ 1 x_100_ ^ 2 + 1 y_100_ ^ 2 ] <= 42565.44636195918
c100: 158 x_1_ + 118 y_1_ + [ 1 x_1_ ^ 2 + 1 y_1_ ^ 2 ] <= 49628.11757403308
c101: 158 x_2_ + 118 y_2_ + [ 1 x_2_ ^ 2 + 1 y_2_ ^ 2 ] <= 82720.82560891521
c102: 158 x_3_ + 118 y_3_ + [ 1 x_3_ ^ 2 + 1 y_3_ ^ 2 ] <= 132943.00332065765
c103: 158 x_4_ + 118 y_4_ + [ 1 x_4_ ^ 2 + 1 y_4_ ^ 2 ] <= 72578.12242809498
c104: 158 x_5_ + 118 y_5_ + [ 1 x_5_ ^ 2 + 1 y_5_ ^ 2 ] <= 59446.233464571254
c105: 158 x_6_ + 118 y_6_ + [ 1 x_6_ ^ 2 + 1 y_6_ ^ 2 ] <= 35777.02557096665
c106: 158 x_7_ + 118 y_7_ + [ 1 x_7_ ^ 2 + 1 y_7_ ^ 2 ] <= 121560.40639712874
c107: 158 x_8_ + 118 y_8_ + [ 1 x_8_ ^ 2 + 1 y_8_ ^ 2 ] <= 39116.43339360223
c108: 158 x_9_ + 118 y_9_ + [ 1 x_9_ ^ 2 + 1 y_9_ ^ 2 ] <= 40785.16002883706
c109: 158 x_10_ + 118 y_10_ + [ 1 x_10_ ^ 2 + 1 y_10_ ^ 2 ] <= 42773.27251925549
c110: 158 x_11_ + 118 y_11_ + [ 1 x_11_ ^ 2 + 1 y_11_ ^ 2 ] <= 43252.702358010065
c111: 158 x_12_ + 118 y_12_ + [ 1 x_12_ ^ 2 + 1 y_12_ ^ 2 ] <= -8816.266639013049
c112: 158 x_13_ + 118 y_13_ + [ 1 x_13_ ^ 2 + 1 y_13_ ^ 2 ] <= 57742.825486142974
c113: 158 x_14_ + 118 y_14_ + [ 1 x_14_ ^ 2 + 1 y_14_ ^ 2 ] <= 101260.78012205729
c114: 158 x_15_ + 118 y_15_ + [ 1 x_15_ ^ 2 + 1 y_15_ ^ 2 ] <= 84482.52246214065
c115: 158 x_16_ + 118 y_16_ + [ 1 x_16_ ^ 2 + 1 y_16_ ^ 2 ] <= 53204.57197246758
c116: 158 x_17_ + 118 y_17_ + [ 1 x_17_ ^ 2 + 1 y_17_ ^ 2 ] <= 36624.44398518387
c117: 158 x_18_ + 118 y_18_ + [ 1 x_18_ ^ 2 + 1 y_18_ ^ 2 ] <= 40521.989355307946
c118: 158 x_19_ + 118 y_19_ + [ 1 x_19_ ^ 2 + 1 y_19_ ^ 2 ] <= 89198.35156880072
c119: 158 x_20_ + 118 y_20_ + [ 1 x_20_ ^ 2 + 1 y_20_ ^ 2 ] <= -5021.303815583486
c120: 158 x_21_ + 118 y_21_ + [ 1 x_21_ ^ 2 + 1 y_21_ ^ 2 ] <= 115155.64664501109
c121: 158 x_22_ + 118 y_22_ + [ 1 x_22_ ^ 2 + 1 y_22_ ^ 2 ] <= -3656.873699245569
c122: 158 x_23_ + 118 y_23_ + [ 1 x_23_ ^ 2 + 1 y_23_ ^ 2 ] <= 19739.955476428124
c123: 158 x_25_ + 118 y_25_ + [ 1 x_25_ ^ 2 + 1 y_25_ ^ 2 ] <= 104463.48500165401
c124: 158 x_26_ + 118 y_26_ + [ 1 x_26_ ^ 2 + 1 y_26_ ^ 2 ] <= 73562.22981868863
c125: 158 x_27_ + 118 y_27_ + [ 1 x_27_ ^ 2 + 1 y_27_ ^ 2 ] <= 94467.18615446749
c126: 158 x_28_ + 118 y_28_ + [ 1 x_28_ ^ 2 + 1 y_28_ ^ 2 ] <= 66860.53123515286
c127: 158 x_29_ + 118 y_29_ + [ 1 x_29_ ^ 2 + 1 y_29_ ^ 2 ] <= 89236.01717336505
c128: 158 x_30_ + 118 y_30_ + [ 1 x_30_ ^ 2 + 1 y_30_ ^ 2 ] <= 67712.73494117217
c129: 158 x_31_ + 118 y_31_ + [ 1 x_31_ ^ 2 + 1 y_31_ ^ 2 ] <= 95893.6802676937
c130: 158 x_32_ + 118 y_32_ + [ 1 x_32_ ^ 2 + 1 y_32_ ^ 2 ] <= 96182.83858977715
c131: 158 x_33_ + 118 y_33_ + [ 1 x_33_ ^ 2 + 1 y_33_ ^ 2 ] <= 95625.9022875064
c132: 158 x_34_ + 118 y_34_ + [ 1 x_34_ ^ 2 + 1 y_34_ ^ 2 ] <= 65187.29043476845
c133: 158 x_35_ + 118 y_35_ + [ 1 x_35_ ^ 2 + 1 y_35_ ^ 2 ] <= 21312.014621931794
c134: 158 x_36_ + 118 y_36_ + [ 1 x_36_ ^ 2 + 1 y_36_ ^ 2 ] <= 30153.440392539145
c135: 158 x_37_ + 118 y_37_ + [ 1 x_37_ ^ 2 + 1 y_37_ ^ 2 ] <= 111047.3818729555
c136: 158 x_38_ + 118 y_38_ + [ 1 x_38_ ^ 2 + 1 y_38_ ^ 2 ] <= 116972.82470440587
c137: 158 x_39_ + 118 y_39_ + [ 1 x_39_ ^ 2 + 1 y_39_ ^ 2 ] <= 95561.32027687819
c138: 158 x_40_ + 118 y_40_ + [ 1 x_40_ ^ 2 + 1 y_40_ ^ 2 ] <= 50573.611936676
c139: 158 x_41_ + 118 y_41_ + [ 1 x_41_ ^ 2 + 1 y_41_ ^ 2 ] <= 13534.259999999991
c140: 158 x_42_ + 118 y_42_ + [ 1 x_42_ ^ 2 + 1 y_42_ ^ 2 ] <= 8861.670270484738
c141: 158 x_43_ + 118 y_43_ + [ 1 x_43_ ^ 2 + 1 y_43_ ^ 2 ] <= -891.3843690924114
c142: 158 x_44_ + 118 y_44_ + [ 1 x_44_ ^ 2 + 1 y_44_ ^ 2 ] <= 72913.05402233216
c143: 158 x_45_ + 118 y_45_ + [ 1 x_45_ ^ 2 + 1 y_45_ ^ 2 ] <= -3814.9963422041747
c144: 158 x_46_ + 118 y_46_ + [ 1 x_46_ ^ 2 + 1 y_46_ ^ 2 ] <= 28068.50792545965
c145: 158 x_47_ + 118 y_47_ + [ 1 x_47_ ^ 2 + 1 y_47_ ^ 2 ] <= 213792.61233897245
c146: 158 x_48_ + 118 y_48_ + [ 1 x_48_ ^ 2 + 1 y_48_ ^ 2 ] <= 13777.53217628344
c147: 158 x_49_ + 118 y_49_ + [ 1 x_49_ ^ 2 + 1 y_49_ ^ 2 ] <= 23313.08
c148: 158 x_50_ + 118 y_50_ + [ 1 x_50_ ^ 2 + 1 y_50_ ^ 2 ] <= 66409.02859427944
c149: 158 x_51_ + 118 y_51_ + [ 1 x_51_ ^ 2 + 1 y_51_ ^ 2 ] <= 88687.45507716697
c150: 158 x_52_ + 118 y_52_ + [ 1 x_52_ ^ 2 + 1 y_52_ ^ 2 ] <= 84983.16843828376
c151: 158 x_53_ + 118 y_53_ + [ 1 x_53_ ^ 2 + 1 y_53_ ^ 2 ] <= 17725.117292254145
c152: 158 x_54_ + 118 y_54_ + [ 1 x_54_ ^ 2 + 1 y_54_ ^ 2 ] <= 92455.84149224035
c153: 158 x_55_ + 118 y_55_ + [ 1 x_55_ ^ 2 + 1 y_55_ ^ 2 ] <= 114712.14009501587
c154: 158 x_56_ + 118 y_56_ + [ 1 x_56_ ^ 2 + 1 y_56_ ^ 2 ] <= 53255.240436537606
c155: 158 x_57_ + 118 y_57_ + [ 1 x_57_ ^ 2 + 1 y_57_ ^ 2 ] <= 19755.18625175172
c156: 158 x_58_ + 118 y_58_ + [ 1 x_58_ ^ 2 + 1 y_58_ ^ 2 ] <= 10464.910888871971
c157: 158 x_59_ + 118 y_59_ + [ 1 x_59_ ^ 2 + 1 y_59_ ^ 2 ] <= 125297.59258901462
c158: 158 x_60_ + 118 y_60_ + [ 1 x_60_ ^ 2 + 1 y_60_ ^ 2 ] <= 137825.23341027627
c159: 158 x_61_ + 118 y_61_ + [ 1 x_61_ ^ 2 + 1 y_61_ ^ 2 ] <= 64029.75289429136
c160: 158 x_62_ + 118 y_62_ + [ 1 x_62_ ^ 2 + 1 y_62_ ^ 2 ] <= 72382.91459408193
c161: 158 x_63_ + 118 y_63_ + [ 1 x_63_ ^ 2 + 1 y_63_ ^ 2 ] <= 48038.09120518141
c162: 158 x_64_ + 118 y_64_ + [ 1 x_64_ ^ 2 + 1 y_64_ ^ 2 ] <= 90164.12165934317
c163: 158 x_65_ + 118 y_65_ + [ 1 x_65_ ^ 2 + 1 y_65_ ^ 2 ] <= 58386.342982746864
c164: 158 x_66_ + 118 y_66_ + [ 1 x_66_ ^ 2 + 1 y_66_ ^ 2 ] <= 95626.29759953363
c165: 158 x_67_ + 118 y_67_ + [ 1 x_67_ ^ 2 + 1 y_67_ ^ 2 ] <= 37199.93097111651
c166: 158 x_68_ + 118 y_68_ + [ 1 x_68_ ^ 2 + 1 y_68_ ^ 2 ] <= 47084.21115827364
c167: 158 x_69_ + 118 y_69_ + [ 1 x_69_ ^ 2 + 1 y_69_ ^ 2 ] <= 64710.95219530708
c168: 158 x_70_ + 118 y_70_ + [ 1 x_70_ ^ 2 + 1 y_70_ ^ 2 ] <= 176035.10949007713
c169: 158 x_71_ + 118 y_71_ + [ 1 x_71_ ^ 2 + 1 y_71_ ^ 2 ] <= 51177.913737894734
c170: 158 x_72_ + 118 y_72_ + [ 1 x_72_ ^ 2 + 1 y_72_ ^ 2 ] <= 152837.97501047858
c171: 158 x_73_ + 118 y_73_ + [ 1 x_73_ ^ 2 + 1 y_73_ ^ 2 ] <= 37831.667616178216
c172: 158 x_74_ + 118 y_74_ + [ 1 x_74_ ^ 2 + 1 y_74_ ^ 2 ] <= 148676.07388396733
c173: 158 x_75_ + 118 y_75_ + [ 1 x_75_ ^ 2 + 1 y_75_ ^ 2 ] <= 11366.799999999992
c174: 158 x_76_ + 118 y_76_ + [ 1 x_76_ ^ 2 + 1 y_76_ ^ 2 ] <= 95940.61612876925
c175: 158 x_77_ + 118 y_77_ + [ 1 x_77_ ^ 2 + 1 y_77_ ^ 2 ] <= 137887.25150925064
c176: 158 x_78_ + 118 y_78_ + [ 1 x_78_ ^ 2 + 1 y_78_ ^ 2 ] <= 72025.34299166675
c177: 158 x_79_ + 118 y_79_ + [ 1 x_79_ ^ 2 + 1 y_79_ ^ 2 ] <= -9447.28
c178: 158 x_80_ + 118 y_80_ + [ 1 x_80_ ^ 2 + 1 y_80_ ^ 2 ] <= 42843.84393426729
c179: 158 x_81_ + 118 y_81_ + [ 1 x_81_ ^ 2 + 1 y_81_ ^ 2 ] <= 81582.12706401019
c180: 158 x_82_ + 118 y_82_ + [ 1 x_82_ ^ 2 + 1 y_82_ ^ 2 ] <= 159658.41916552387
c181: 158 x_83_ + 118 y_83_ + [ 1 x_83_ ^ 2 + 1 y_83_ ^ 2 ] <= 41861.122042005285
c182: 158 x_84_ + 118 y_84_ + [ 1 x_84_ ^ 2 + 1 y_84_ ^ 2 ] <= 149689.83789506496
c183: 158 x_85_ + 118 y_85_ + [ 1 x_85_ ^ 2 + 1 y_85_ ^ 2 ] <= 85443.82442135134
c184: 158 x_86_ + 118 y_86_ + [ 1 x_86_ ^ 2 + 1 y_86_ ^ 2 ] <= 82822.64518502298
c185: 158 x_87_ + 118 y_87_ + [ 1 x_87_ ^ 2 + 1 y_87_ ^ 2 ] <= 123938.97287280898
c186: 158 x_88_ + 118 y_88_ + [ 1 x_88_ ^ 2 + 1 y_88_ ^ 2 ] <= 44916.884340331744
c187: 158 x_89_ + 118 y_89_ + [ 1 x_89_ ^ 2 + 1 y_89_ ^ 2 ] <= 27771.786250685138
c188: 158 x_90_ + 118 y_90_ + [ 1 x_90_ ^ 2 + 1 y_90_ ^ 2 ] <= 122720.36767254779
c189: 158 x_91_ + 118 y_91_ + [ 1 x_91_ ^ 2 + 1 y_91_ ^ 2 ] <= 20713.214869210467
c190: 158 x_92_ + 118 y_92_ + [ 1 x_92_ ^ 2 + 1 y_92_ ^ 2 ] <= 161688.95828261605
c191: 158 x_93_ + 118 y_93_ + [ 1 x_93_ ^ 2 + 1 y_93_ ^ 2 ] <= 42438.80730430862
c192: 158 x_94_ + 118 y_94_ + [ 1 x_94_ ^ 2 + 1 y_94_ ^ 2 ] <= 40491.72230348895
c193: 158 x_95_ + 118 y_95_ + [ 1 x_95_ ^ 2 + 1 y_95_ ^ 2 ] <= 168086.03499311503
c194: 158 x_96_ + 118 y_96_ + [ 1 x_96_ ^ 2 + 1 y_96_ ^ 2 ] <= 34823.38880432516
c195: 158 x_97_ + 118 y_97_ + [ 1 x_97_ ^ 2 + 1 y_97_ ^ 2 ] <= 69674.16990793301
c196: 158 x_98_ + 118 y_98_ + [ 1 x_98_ ^ 2 + 1 y_98_ ^ 2 ] <= 119078.71778782063
c197: 158 x_99_ + 118 y_99_ + [ 1 x_99_ ^ 2 + 1 y_99_ ^ 2 ] <= 77662.48903624996
c198: 158 x_100_ + 118 y_100_ + [ 1 x_100_ ^ 2 + 1 y_100_ ^ 2 ] <= 8766.432583781672
c199: -46 x_1_ - 74 y_1_ + [ 1 x_1_ ^ 2 + 1 y_1_ ^ 2 ] <= 2652.050000000001
c200: -46 x_2_ - 74 y_2_ + [ 1 x_2_ ^ 2 + 1 y_2_ ^ 2 ] <= 62176.02442726991
c201: -46 x_3_ - 74 y_3_ + [ 1 x_3_ ^ 2 + 1 y_3_ ^ 2 ] <= 68554.26574104902
c202: -46 x_4_ - 74 y_4_ + [ 1 x_4_ ^ 2 + 1 y_4_ ^ 2 ] <= 10359.864803365921
c203: -46 x_5_ - 74 y_5_ + [ 1 x_5_ ^ 2 + 1 y_5_ ^ 2 ] <= 14100.22506069517
c204: -46 x_6_ - 74 y_6_ + [ 1 x_6_ ^ 2 + 1 y_6_ ^ 2 ] <= 45890.46524195565
c205: -46 x_7_ - 74 y_7_ + [ 1 x_7_ ^ 2 + 1 y_7_ ^ 2 ] <= 49094.273504284014
c206: -46 x_8_ - 74 y_8_ + [ 1 x_8_ ^ 2 + 1 y_8_ ^ 2 ] <= 111117.91588533888
c207: -46 x_9_ - 74 y_9_ + [ 1 x_9_ ^ 2 + 1 y_9_ ^ 2 ] <= 461.3599999999997
c208: -46 x_10_ - 74 y_10_ + [ 1 x_10_ ^ 2 + 1 y_10_ ^ 2 ] <= 77466.87992147109
c209: -46 x_11_ - 74 y_11_ + [ 1 x_11_ ^ 2 + 1 y_11_ ^ 2 ] <= 22576.884562622876
c210: -46 x_12_ - 74 y_12_ + [ 1 x_12_ ^ 2 + 1 y_12_ ^ 2 ] <= 19438.249999999993
c211: -46 x_13_ - 74 y_13_ + [ 1 x_13_ ^ 2 + 1 y_13_ ^ 2 ] <= 26034.515755792934
c212: -46 x_14_ - 74 y_14_ + [ 1 x_14_ ^ 2 + 1 y_14_ ^ 2 ] <= 35098.52632664772
c213: -46 x_15_ - 74 y_15_ + [ 1 x_15_ ^ 2 + 1 y_15_ ^ 2 ] <= 27359.413506734327
c214: -46 x_16_ - 74 y_16_ + [ 1 x_16_ ^ 2 + 1 y_16_ ^ 2 ] <= 113042.98509978033
c215: -46 x_17_ - 74 y_17_ + [ 1 x_17_ ^ 2 + 1 y_17_ ^ 2 ] <= 71667.30704963567
c216: -46 x_18_ - 74 y_18_ + [ 1 x_18_ ^ 2 + 1 y_18_ ^ 2 ] <= 62528.53559114226
c217: -46 x_19_ - 74 y_19_ + [ 1 x_19_ ^ 2 + 1 y_19_ ^ 2 ] <= 40166.338891685235
c218: -46 x_20_ - 74 y_20_ + [ 1 x_20_ ^ 2 + 1 y_20_ ^ 2 ] <= 32155.369877601443
c219: -46 x_21_ - 74 y_21_ + [ 1 x_21_ ^ 2 + 1 y_21_ ^ 2 ] <= 29507.360833049905
c220: -46 x_22_ - 74 y_22_ + [ 1 x_22_ ^ 2 + 1 y_22_ ^ 2 ] <= 46896.2913192441
c221: -46 x_23_ - 74 y_23_ + [ 1 x_23_ ^ 2 + 1 y_23_ ^ 2 ] <= 97113.06094380446
c222: -46 x_24_ - 74 y_24_ + [ 1 x_24_ ^ 2 + 1 y_24_ ^ 2 ] <= 29136.014621931794
c223: -46 x_25_ - 74 y_25_ + [ 1 x_25_ ^ 2 + 1 y_25_ ^ 2 ] <= 81937.67890019357
c224: -46 x_26_ - 74 y_26_ + [ 1 x_26_ ^ 2 + 1 y_26_ ^ 2 ] <= 44272.08067122267
c225: -46 x_27_ - 74 y_27_ + [ 1 x_27_ ^ 2 + 1 y_27_ ^ 2 ] <= 19599.06083372968
c226: -46 x_28_ - 74 y_28_ + [ 1 x_28_ ^ 2 + 1 y_28_ ^ 2 ] <= 16933.124887089496
c227: -46 x_29_ - 74 y_29_ + [ 1 x_29_ ^ 2 + 1 y_29_ ^ 2 ] <= 18671.509135394354
c228: -46 x_30_ - 74 y_30_ + [ 1 x_30_ ^ 2 + 1 y_30_ ^ 2 ] <= 30403.32723650099
c229: -46 x_31_ - 74 y_31_ + [ 1 x_31_ ^ 2 + 1 y_31_ ^ 2 ] <= 73683.26955414296
c230: -46 x_32_ - 74 y_32_ + [ 1 x_32_ ^ 2 + 1 y_32_ ^ 2 ] <= 107484.96809229795
c231: -46 x_33_ - 74 y_33_ + [ 1 x_33_ ^ 2 + 1 y_33_ ^ 2 ] <= 70140.30958567161
c232: -46 x_34_ - 74 y_34_ + [ 1 x_34_ ^ 2 + 1 y_34_ ^ 2 ] <= 51905.630774023084
c233: -46 x_36_ - 74 y_36_ + [ 1 x_36_ ^ 2 + 1 y_36_ ^ 2 ] <= 59477.93476783385
c234: -46 x_37_ - 74 y_37_ + [ 1 x_37_ ^ 2 + 1 y_37_ ^ 2 ] <= 92329.15725392269
c235: -46 x_38_ - 74 y_38_ + [ 1 x_38_ ^ 2 + 1 y_38_ ^ 2 ] <= 33421.98980389256
c236: -46 x_39_ - 74 y_39_ + [ 1 x_39_ ^ 2 + 1 y_39_ ^ 2 ] <= 51863.02118692641
c237: -46 x_40_ - 74 y_40_ + [ 1 x_40_ ^ 2 + 1 y_40_ ^ 2 ] <= 16633.78936558888
c238: -46 x_41_ - 74 y_41_ + [ 1 x_41_ ^ 2 + 1 y_41_ ^ 2 ] <= 106122.53101035586
c239: -46 x_42_ - 74 y_42_ + [ 1 x_42_ ^ 2 + 1 y_42_ ^ 2 ] <= 58304.13173266131
c240: -46 x_43_ - 74 y_43_ + [ 1 x_43_ ^ 2 + 1 y_43_ ^ 2 ] <= 42179.02223617509
c241: -46 x_44_ - 74 y_44_ + [ 1 x_44_ ^ 2 + 1 y_44_ ^ 2 ] <= 95722.6314785824
c242: -46 x_45_ - 74 y_45_ + [ 1 x_45_ ^ 2 + 1 y_45_ ^ 2 ] <= 35285.78006864857
c243: -46 x_46_ - 74 y_46_ + [ 1 x_46_ ^ 2 + 1 y_46_ ^ 2 ] <= 94432.61511211436
c244: -46 x_47_ - 74 y_47_ + [ 1 x_47_ ^ 2 + 1 y_47_ ^ 2 ] <= 142626.39107144036
c245: -46 x_48_ - 74 y_48_ + [ 1 x_48_ ^ 2 + 1 y_48_ ^ 2 ] <= 52536.152154386524
c246: -46 x_49_ - 74 y_49_ + [ 1 x_49_ ^ 2 + 1 y_49_ ^ 2 ] <= 123031.21518115113
c247: -46 x_50_ - 74 y_50_ + [ 1 x_50_ ^ 2 + 1 y_50_ ^ 2 ] <= 100466.8296821558
c248: -46 x_51_ - 74 y_51_ + [ 1 x_51_ ^ 2 + 1 y_51_ ^ 2 ] <= 64423.15027405985
c249: -46 x_52_ - 74 y_52_ + [ 1 x_52_ ^ 2 + 1 y_52_ ^ 2 ] <= 28140.283841765493
c250: -46 x_53_ - 74 y_53_ + [ 1 x_53_ ^ 2 + 1 y_53_ ^ 2 ] <= 77426.26876279707
c251: -46 x_54_ - 74 y_54_ + [ 1 x_54_ ^ 2 + 1 y_54_ ^ 2 ] <= 49650.52649889181
c252: -46 x_55_ - 74 y_55_ + [ 1 x_55_ ^ 2 + 1 y_55_ ^ 2 ] <= 52963.93529470184
c253: -46 x_56_ - 74 y_56_ + [ 1 x_56_ ^ 2 + 1 y_56_ ^ 2 ] <= 86175.07832040841
c254: -46 x_57_ - 74 y_57_ + [ 1 x_57_ ^ 2 + 1 y_57_ ^ 2 ] <= 14227.9618423358
c255: -46 x_58_ - 74 y_58_ + [ 1 x_58_ ^ 2 + 1 y_58_ ^ 2 ] <= 51120.94519671677
c256: -46 x_59_ - 74 y_59_ + [ 1 x_59_ ^ 2 + 1 y_59_ ^ 2 ] <= 36633.70030964128
c257: -46 x_60_ - 74 y_60_ + [ 1 x_60_ ^ 2 + 1 y_60_ ^ 2 ] <= 57935.969584280334
c258: -46 x_61_ - 74 y_61_ + [ 1 x_61_ ^ 2 + 1 y_61_ ^ 2 ] <= 52853.18926026128
c259: -46 x_62_ - 74 y_62_ + [ 1 x_62_ ^ 2 + 1 y_62_ ^ 2 ] <= 56587.799904206026
c260: -46 x_63_ - 74 y_63_ + [ 1 x_63_ ^ 2 + 1 y_63_ ^ 2 ] <= 28248.940600678216
c261: -46 x_64_ - 74 y_64_ + [ 1 x_64_ ^ 2 + 1 y_64_ ^ 2 ] <= 17669.231333013933
c262: -46 x_65_ - 74 y_65_ + [ 1 x_65_ ^ 2 + 1 y_65_ ^ 2 ] <= 45348.40005890807
c263: -46 x_66_ - 74 y_66_ + [ 1 x_66_ ^ 2 + 1 y_66_ ^ 2 ] <= 33468.40272697323
c264: -46 x_67_ - 74 y_67_ + [ 1 x_67_ ^ 2 + 1 y_67_ ^ 2 ] <= -261.79999999999995
c265: -46 x_68_ - 74 y_68_ + [ 1 x_68_ ^ 2 + 1 y_68_ ^ 2 ] <= 143534.3333882063
c266: -46 x_69_ - 74 y_69_ + [ 1 x_69_ ^ 2 + 1 y_69_ ^ 2 ] <= 37745.279654994956
c267: -46 x_70_ - 74 y_70_ + [ 1 x_70_ ^ 2 + 1 y_70_ ^ 2 ] <= 86055.17148751122
c268: -46 x_71_ - 74 y_71_ + [ 1 x_71_ ^ 2 + 1 y_71_ ^ 2 ] <= 3088.3852452287465
c269: -46 x_72_ - 74 y_72_ + [ 1 x_72_ ^ 2 + 1 y_72_ ^ 2 ] <= 53412.214619454426
c270: -46 x_73_ - 74 y_73_ + [ 1 x_73_ ^ 2 + 1 y_73_ ^ 2 ] <= 109686.03298534734
c271: -46 x_74_ - 74 y_74_ + [ 1 x_74_ ^ 2 + 1 y_74_ ^ 2 ] <= 114942.005005724
c272: -46 x_75_ - 74 y_75_ + [ 1 x_75_ ^ 2 + 1 y_75_ ^ 2 ] <= 70324.3712186213
c273: -46 x_76_ - 74 y_76_ + [ 1 x_76_ ^ 2 + 1 y_76_ ^ 2 ] <= 107238.79796661867
c274: -46 x_77_ - 74 y_77_ + [ 1 x_77_ ^ 2 + 1 y_77_ ^ 2 ] <= 134823.6368669489
c275: -46 x_78_ - 74 y_78_ + [ 1 x_78_ ^ 2 + 1 y_78_ ^ 2 ] <= 82908.55294090895
c276: -46 x_79_ - 74 y_79_ + [ 1 x_79_ ^ 2 + 1 y_79_ ^ 2 ] <= 23570.98651197461
c277: -46 x_80_ - 74 y_80_ + [ 1 x_80_ ^ 2 + 1 y_80_ ^ 2 ] <= 117297.04322770934
c278: -46 x_81_ - 74 y_81_ + [ 1 x_81_ ^ 2 + 1 y_81_ ^ 2 ] <= 54329.97127111471
c279: -46 x_82_ - 74 y_82_ + [ 1 x_82_ ^ 2 + 1 y_82_ ^ 2 ] <= 114955.27561279552
c280: -46 x_83_ - 74 y_83_ + [ 1 x_83_ ^ 2 + 1 y_83_ ^ 2 ] <= 46638.869456279135
c281: -46 x_84_ - 74 y_84_ + [ 1 x_84_ ^ 2 + 1 y_84_ ^ 2 ] <= 178055.86964404446
c282: -46 x_85_ - 74 y_85_ + [ 1 x_85_ ^ 2 + 1 y_85_ ^ 2 ] <= 44706.13233661409
c283: -46 x_86_ - 74 y_86_ + [ 1 x_86_ ^ 2 + 1 y_86_ ^ 2 ] <= 66993.54771213485
c284: -46 x_87_ - 74 y_87_ + [ 1 x_87_ ^ 2 + 1 y_87_ ^ 2 ] <= 57733.84308643177
c285: -46 x_88_ - 74 y_88_ + [ 1 x_88_ ^ 2 + 1 y_88_ ^ 2 ] <= 17309.03888264714
c286: -46 x_89_ - 74 y_89_ + [ 1 x_89_ ^ 2 + 1 y_89_ ^ 2 ] <= 93958.52624553208
c287: -46 x_90_ - 74 y_90_ + [ 1 x_90_ ^ 2 + 1 y_90_ ^ 2 ] <= 73627.79557554476
c288: -46 x_91_ - 74 y_91_ + [ 1 x_91_ ^ 2 + 1 y_91_ ^ 2 ] <= 44338.05973511304
c289: -46 x_92_ - 74 y_92_ + [ 1 x_92_ ^ 2 + 1 y_92_ ^ 2 ] <= 101405.34811320709
c290: -46 x_93_ - 74 y_93_ + [ 1 x_93_ ^ 2 + 1 y_93_ ^ 2 ] <= 143572.26978858124
c291: -46 x_94_ - 74 y_94_ + [ 1 x_94_ ^ 2 + 1 y_94_ ^ 2 ] <= 95609.53655626053
c292: -46 x_95_ - 74 y_95_ + [ 1 x_95_ ^ 2 + 1 y_95_ ^ 2 ] <= 146436.52956507064
c293: -46 x_96_ - 74 y_96_ + [ 1 x_96_ ^ 2 + 1 y_96_ ^ 2 ] <= 44913.004683291
c294: -46 x_97_ - 74 y_97_ + [ 1 x_97_ ^ 2 + 1 y_97_ ^ 2 ] <= 19202.121066352902
c295: -46 x_98_ - 74 y_98_ + [ 1 x_98_ ^ 2 + 1 y_98_ ^ 2 ] <= 56191.662498716876
c296: -46 x_99_ - 74 y_99_ + [ 1 x_99_ ^ 2 + 1 y_99_ ^ 2 ] <= 47337.54749496152
c297: -46 x_100_ - 74 y_100_ + [ 1 x_100_ ^ 2 + 1 y_100_ ^ 2 ] <= 61578.83947518736
quadratic_ranged_1_ub: [ 1 x_1_ ^ 2 - 2 x_4_ * x_1_ + 1 x_4_ ^ 2 + 1 y_1_ ^ 2 - 2 y_4_ * y_1_ + 1 y_4_ ^ 2 ] <= 1871.53
quadratic_ranged_2_ub: [ 1 x_2_ ^ 2 - 2 x_5_ * x_2_ + 1 x_5_ ^ 2 + 1 y_2_ ^ 2 - 2 y_5_ * y_2_ + 1 y_5_ ^ 2 ] <= 16038.8
quadratic_ranged_3_ub: [ 1 x_2_ ^ 2 - 2 x_8_ * x_2_ + 1 x_8_ ^ 2 + 1 y_2_ ^ 2 - 2 y_8_ * y_2_ + 1 y_8_ ^ 2 ] <= 6897.29
quadratic_ranged_4_ub: [ 1 x_7_ ^ 2 - 2 x_8_ * x_7_ + 1 x_8_ ^ 2 + 1 y_7_ ^ 2 - 2 y_8_ * y_7_ + 1 y_8_ ^ 2 ] <= 26184.25
quadratic_ranged_5_ub: [ 1 x_5_ ^ 2 - 2 x_9_ * x_5_ + 1 x_9_ ^ 2 + 1 y_5_ ^ 2 - 2 y_9_ * y_5_ + 1 y_9_ ^ 2 ] <= 6070.1
quadratic_ranged_6_ub: [ 1 x_8_ ^ 2 - 2 x_10_ * x_8_ + 1 x_10_ ^ 2 + 1 y_8_ ^ 2 - 2 y_10_ * y_8_ + 1 y_10_ ^ 2 ] <= 31047.4
quadratic_ranged_7_ub: [ 1 x_9_ ^ 2 - 2 x_11_ * x_9_ + 1 x_11_ ^ 2 + 1 y_9_ ^ 2 - 2 y_11_ * y_9_ + 1 y_11_ ^ 2 ] <= 11636.210000000001
quadratic_ranged_8_ub: [ 1 x_10_ ^ 2 - 2 x_11_ * x_10_ + 1 x_11_ ^ 2 + 1 y_10_ ^ 2 - 2 y_11_ * y_10_ + 1 y_11_ ^ 2 ] <= 15693.380000000001
quadratic_ranged_9_ub: [ 1 x_10_ ^ 2 - 2 x_12_ * x_10_ + 1 x_12_ ^ 2 + 1 y_10_ ^ 2 - 2 y_12_ * y_10_ + 1 y_12_ ^ 2 ] <= 39610.18
quadratic_ranged_10_ub: [ 1 x_7_ ^ 2 - 2 x_13_ * x_7_ + 1 x_13_ ^ 2 + 1 y_7_ ^ 2 - 2 y_13_ * y_7_ + 1 y_13_ ^ 2 ] <= 26798.33
quadratic_ranged_11_ub: [ 1 x_4_ ^ 2 - 2 x_14_ * x_4_ + 1 x_14_ ^ 2 + 1 y_4_ ^ 2 - 2 y_14_ * y_4_ + 1 y_14_ ^ 2 ] <= 9489.960000000001
quadratic_ranged_12_ub: [ 1 x_4_ ^ 2 - 2 x_15_ * x_4_ + 1 x_15_ ^ 2 + 1 y_4_ ^ 2 - 2 y_15_ * y_4_ + 1 y_15_ ^ 2 ] <= 3640.04
quadratic_ranged_13_ub: [ 1 x_16_ ^ 2 - 2 x_17_ * x_16_ + 1 x_17_ ^ 2 + 1 y_16_ ^ 2 - 2 y_17_ * y_16_ + 1 y_17_ ^ 2 ] <= 6065.05
quadratic_ranged_14_ub: [ 1 x_12_ ^ 2 - 2 x_18_ * x_12_ + 1 x_18_ ^ 2 + 1 y_12_ ^ 2 - 2 y_18_ * y_12_ + 1 y_18_ ^ 2 ] <= 37657.85
quadratic_ranged_15_ub: [ 1 x_15_ ^ 2 - 2 x_18_ * x_15_ + 1 x_18_ ^ 2 + 1 y_15_ ^ 2 - 2 y_18_ * y_15_ + 1 y_18_ ^ 2 ] <= 6851.84
quadratic_ranged_16_ub: [ 1 x_12_ ^ 2 - 2 x_20_ * x_12_ + 1 x_20_ ^ 2 + 1 y_12_ ^ 2 - 2 y_20_ * y_12_ + 1 y_20_ ^ 2 ] <= 1479.65
quadratic_ranged_17_ub: [ 1 x_9_ ^ 2 - 2 x_21_ * x_9_ + 1 x_21_ ^ 2 + 1 y_9_ ^ 2 - 2 y_21_ * y_9_ + 1 y_21_ ^ 2 ] <= 16548.85
quadratic_ranged_18_ub: [ 1 x_22_ ^ 2 - 2 x_23_ * x_22_ + 1 x_23_ ^ 2 + 1 y_22_ ^ 2 - 2 y_23_ * y_22_ + 1 y_23_ ^ 2 ] <= 8792.05
quadratic_ranged_19_ub: [ 1 x_7_ ^ 2 - 2 x_25_ * x_7_ + 1 x_25_ ^ 2 + 1 y_7_ ^ 2 - 2 y_25_ * y_7_ + 1 y_25_ ^ 2 ] <= 24552.09
quadratic_ranged_20_ub: [ 1 x_19_ ^ 2 - 2 x_25_ * x_19_ + 1 x_25_ ^ 2 + 1 y_19_ ^ 2 - 2 y_25_ * y_19_ + 1 y_25_ ^ 2 ] <= 31311.010000000002
quadratic_ranged_21_ub: [ 1 x_2_ ^ 2 - 2 x_26_ * x_2_ + 1 x_26_ ^ 2 + 1 y_2_ ^ 2 - 2 y_26_ * y_2_ + 1 y_26_ ^ 2 ] <= 2489.65
quadratic_ranged_22_ub: [ 1 x_11_ ^ 2 - 2 x_26_ * x_11_ + 1 x_26_ ^ 2 + 1 y_11_ ^ 2 - 2 y_26_ * y_11_ + 1 y_26_ ^ 2 ] <= 3413.8
quadratic_ranged_23_ub: [ 1 x_18_ ^ 2 - 2 x_26_ * x_18_ + 1 x_26_ ^ 2 + 1 y_18_ ^ 2 - 2 y_26_ * y_18_ + 1 y_26_ ^ 2 ] <= 32947.21
quadratic_ranged_24_ub: [ 1 x_1_ ^ 2 - 2 x_27_ * x_1_ + 1 x_27_ ^ 2 + 1 y_1_ ^ 2 - 2 y_27_ * y_1_ + 1 y_27_ ^ 2 ] <= 6267.05
quadratic_ranged_25_ub: [ 1 x_5_ ^ 2 - 2 x_27_ * x_5_ + 1 x_27_ ^ 2 + 1 y_5_ ^ 2 - 2 y_27_ * y_5_ + 1 y_27_ ^ 2 ] <= 17430.58
quadratic_ranged_26_ub: [ 1 x_8_ ^ 2 - 2 x_27_ * x_8_ + 1 x_27_ ^ 2 + 1 y_8_ ^ 2 - 2 y_27_ * y_8_ + 1 y_27_ ^ 2 ] <= 37354.85
quadratic_ranged_27_ub: [ 1 x_1_ ^ 2 - 2 x_28_ * x_1_ + 1 x_28_ ^ 2 + 1 y_1_ ^ 2 - 2 y_28_ * y_1_ + 1 y_28_ ^ 2 ] <= 4868.2
quadratic_ranged_28_ub: [ 1 x_3_ ^ 2 - 2 x_28_ * x_3_ + 1 x_28_ ^ 2 + 1 y_3_ ^ 2 - 2 y_28_ * y_3_ + 1 y_28_ ^ 2 ] <= 16435.73
quadratic_ranged_29_ub: [ 1 x_13_ ^ 2 - 2 x_30_ * x_13_ + 1 x_30_ ^ 2 + 1 y_13_ ^ 2 - 2 y_30_ * y_13_ + 1 y_30_ ^ 2 ] <= 343.4
quadratic_ranged_30_ub: [ 1 x_17_ ^ 2 - 2 x_30_ * x_17_ + 1 x_30_ ^ 2 + 1 y_17_ ^ 2 - 2 y_30_ * y_17_ + 1 y_30_ ^ 2 ] <= 8372.9
quadratic_ranged_31_ub: [ 1 x_29_ ^ 2 - 2 x_30_ * x_29_ + 1 x_30_ ^ 2 + 1 y_29_ ^ 2 - 2 y_30_ * y_29_ + 1 y_30_ ^ 2 ] <= 1318.05
quadratic_ranged_32_ub: [ 1 x_19_ ^ 2 - 2 x_32_ * x_19_ + 1 x_32_ ^ 2 + 1 y_19_ ^ 2 - 2 y_32_ * y_19_ + 1 y_32_ ^ 2 ] <= 28268.89
quadratic_ranged_33_ub: [ 1 x_29_ ^ 2 - 2 x_33_ * x_29_ + 1 x_33_ ^ 2 + 1 y_29_ ^ 2 - 2 y_33_ * y_29_ + 1 y_33_ ^ 2 ] <= 17934.57
quadratic_ranged_34_ub: [ 1 x_4_ ^ 2 - 2 x_34_ * x_4_ + 1 x_34_ ^ 2 + 1 y_4_ ^ 2 - 2 y_34_ * y_4_ + 1 y_34_ ^ 2 ] <= 16811.45
quadratic_ranged_35_ub: [ 1 x_1_ ^ 2 - 2 x_35_ * x_1_ + 1 x_35_ ^ 2 + 1 y_1_ ^ 2 - 2 y_35_ * y_1_ + 1 y_35_ ^ 2 ] <= 4550.05
quadratic_ranged_36_ub: [ 1 x_9_ ^ 2 - 2 x_35_ * x_9_ + 1 x_35_ ^ 2 + 1 y_9_ ^ 2 - 2 y_35_ * y_9_ + 1 y_35_ ^ 2 ] <= 2359.36
quadratic_ranged_37_ub: [ 1 x_12_ ^ 2 - 2 x_35_ * x_12_ + 1 x_35_ ^ 2 + 1 y_12_ ^ 2 - 2 y_35_ * y_12_ + 1 y_35_ ^ 2 ] <= 21336.25
quadratic_ranged_38_ub: [ 1 x_3_ ^ 2 - 2 x_36_ * x_3_ + 1 x_36_ ^ 2 + 1 y_3_ ^ 2 - 2 y_36_ * y_3_ + 1 y_36_ ^ 2 ] <= 31691.78
quadratic_ranged_39_ub: [ 1 x_12_ ^ 2 - 2 x_36_ * x_12_ + 1 x_36_ ^ 2 + 1 y_12_ ^ 2 - 2 y_36_ * y_12_ + 1 y_36_ ^ 2 ] <= 28761.77
quadratic_ranged_40_ub: [ 1 x_25_ ^ 2 - 2 x_36_ * x_25_ + 1 x_36_ ^ 2 + 1 y_25_ ^ 2 - 2 y_36_ * y_25_ + 1 y_36_ ^ 2 ] <= 19106.170000000002
quadratic_ranged_41_ub: [ 1 x_8_ ^ 2 - 2 x_37_ * x_8_ + 1 x_37_ ^ 2 + 1 y_8_ ^ 2 - 2 y_37_ * y_8_ + 1 y_37_ ^ 2 ] <= 16008.5
quadratic_ranged_42_ub: [ 1 x_13_ ^ 2 - 2 x_37_ * x_13_ + 1 x_37_ ^ 2 + 1 y_13_ ^ 2 - 2 y_37_ * y_13_ + 1 y_37_ ^ 2 ] <= 19553.6
quadratic_ranged_43_ub: [ 1 x_10_ ^ 2 - 2 x_38_ * x_10_ + 1 x_38_ ^ 2 + 1 y_10_ ^ 2 - 2 y_38_ * y_10_ + 1 y_38_ ^ 2 ] <= 16084.25
quadratic_ranged_44_ub: [ 1 x_29_ ^ 2 - 2 x_38_ * x_29_ + 1 x_38_ ^ 2 + 1 y_29_ ^ 2 - 2 y_38_ * y_29_ + 1 y_38_ ^ 2 ] <= 1981.6200000000001
quadratic_ranged_45_ub: [ 1 x_13_ ^ 2 - 2 x_39_ * x_13_ + 1 x_39_ ^ 2 + 1 y_13_ ^ 2 - 2 y_39_ * y_13_ + 1 y_39_ ^ 2 ] <= 4190.49
quadratic_ranged_46_ub: [ 1 x_15_ ^ 2 - 2 x_39_ * x_15_ + 1 x_39_ ^ 2 + 1 y_15_ ^ 2 - 2 y_39_ * y_15_ + 1 y_39_ ^ 2 ] <= 9001.12
quadratic_ranged_47_ub: [ 1 x_32_ ^ 2 - 2 x_39_ * x_32_ + 1 x_39_ ^ 2 + 1 y_32_ ^ 2 - 2 y_39_ * y_32_ + 1 y_39_ ^ 2 ] <= 10690.85
quadratic_ranged_48_ub: [ 1 x_19_ ^ 2 - 2 x_40_ * x_19_ + 1 x_40_ ^ 2 + 1 y_19_ ^ 2 - 2 y_40_ * y_19_ + 1 y_40_ ^ 2 ] <= 4756.09
quadratic_ranged_49_ub: [ 1 x_8_ ^ 2 - 2 x_41_ * x_8_ + 1 x_41_ ^ 2 + 1 y_8_ ^ 2 - 2 y_41_ * y_8_ + 1 y_41_ ^ 2 ] <= 4691.45
quadratic_ranged_50_ub: [ 1 x_14_ ^ 2 - 2 x_41_ * x_14_ + 1 x_41_ ^ 2 + 1 y_14_ ^ 2 - 2 y_41_ * y_14_ + 1 y_41_ ^ 2 ] <= 32631.08
quadratic_ranged_51_ub: [ 1 x_24_ ^ 2 - 2 x_41_ * x_24_ + 1 x_41_ ^ 2 + 1 y_24_ ^ 2 - 2 y_41_ * y_24_ + 1 y_41_ ^ 2 ] <= 23256.26
quadratic_ranged_52_ub: [ 1 x_17_ ^ 2 - 2 x_42_ * x_17_ + 1 x_42_ ^ 2 + 1 y_17_ ^ 2 - 2 y_42_ * y_17_ + 1 y_42_ ^ 2 ] <= 6234.7300000000005
quadratic_ranged_53_ub: [ 1 x_20_ ^ 2 - 2 x_42_ * x_20_ + 1 x_42_ ^ 2 + 1 y_20_ ^ 2 - 2 y_42_ * y_20_ + 1 y_42_ ^ 2 ] <= 4591.46
quadratic_ranged_54_ub: [ 1 x_40_ ^ 2 - 2 x_42_ * x_40_ + 1 x_42_ ^ 2 + 1 y_40_ ^ 2 - 2 y_42_ * y_40_ + 1 y_42_ ^ 2 ] <= 11931.13
quadratic_ranged_55_ub: [ 1 x_34_ ^ 2 - 2 x_43_ * x_34_ + 1 x_43_ ^ 2 + 1 y_34_ ^ 2 - 2 y_43_ * y_34_ + 1 y_43_ ^ 2 ] <= 32300.81
quadratic_ranged_56_ub: [ 1 x_6_ ^ 2 - 2 x_44_ * x_6_ + 1 x_44_ ^ 2 + 1 y_6_ ^ 2 - 2 y_44_ * y_6_ + 1 y_44_ ^ 2 ] <= 10281.8
quadratic_ranged_57_ub: [ 1 x_31_ ^ 2 - 2 x_44_ * x_31_ + 1 x_44_ ^ 2 + 1 y_31_ ^ 2 - 2 y_44_ * y_31_ + 1 y_44_ ^ 2 ] <= 1407.94
quadratic_ranged_58_ub: [ 1 x_12_ ^ 2 - 2 x_45_ * x_12_ + 1 x_45_ ^ 2 + 1 y_12_ ^ 2 - 2 y_45_ * y_12_ + 1 y_45_ ^ 2 ] <= 2186.65
quadratic_ranged_59_ub: [ 1 x_43_ ^ 2 - 2 x_45_ * x_43_ + 1 x_45_ ^ 2 + 1 y_43_ ^ 2 - 2 y_45_ * y_43_ + 1 y_45_ ^ 2 ] <= 292.9
quadratic_ranged_60_ub: [ 1 x_12_ ^ 2 - 2 x_46_ * x_12_ + 1 x_46_ ^ 2 + 1 y_12_ ^ 2 - 2 y_46_ * y_12_ + 1 y_46_ ^ 2 ] <= 26995.28
quadratic_ranged_61_ub: [ 1 x_16_ ^ 2 - 2 x_46_ * x_16_ + 1 x_46_ ^ 2 + 1 y_16_ ^ 2 - 2 y_46_ * y_16_ + 1 y_46_ ^ 2 ] <= 15882.25
quadratic_ranged_62_ub: [ 1 x_25_ ^ 2 - 2 x_47_ * x_25_ + 1 x_47_ ^ 2 + 1 y_25_ ^ 2 - 2 y_47_ * y_25_ + 1 y_47_ ^ 2 ] <= 23134.05
quadratic_ranged_63_ub: [ 1 x_11_ ^ 2 - 2 x_48_ * x_11_ + 1 x_48_ ^ 2 + 1 y_11_ ^ 2 - 2 y_48_ * y_11_ + 1 y_48_ ^ 2 ] <= 5908.5
quadratic_ranged_64_ub: [ 1 x_36_ ^ 2 - 2 x_48_ * x_36_ + 1 x_48_ ^ 2 + 1 y_36_ ^ 2 - 2 y_48_ * y_36_ + 1 y_48_ ^ 2 ] <= 5774.17
quadratic_ranged_65_ub: [ 1 x_45_ ^ 2 - 2 x_48_ * x_45_ + 1 x_48_ ^ 2 + 1 y_45_ ^ 2 - 2 y_48_ * y_45_ + 1 y_48_ ^ 2 ] <= 5842.85
quadratic_ranged_66_ub: [ 1 x_23_ ^ 2 - 2 x_49_ * x_23_ + 1 x_49_ ^ 2 + 1 y_23_ ^ 2 - 2 y_49_ * y_23_ + 1 y_49_ ^ 2 ] <= 1504.9
quadratic_ranged_67_ub: [ 1 x_24_ ^ 2 - 2 x_49_ * x_24_ + 1 x_49_ ^ 2 + 1 y_24_ ^ 2 - 2 y_49_ * y_24_ + 1 y_49_ ^ 2 ] <= 33035.08
quadratic_ranged_68_ub: [ 1 x_2_ ^ 2 - 2 x_50_ * x_2_ + 1 x_50_ ^ 2 + 1 y_2_ ^ 2 - 2 y_50_ * y_2_ + 1 y_50_ ^ 2 ] <= 38861.77
quadratic_ranged_69_ub: [ 1 x_21_ ^ 2 - 2 x_50_ * x_21_ + 1 x_50_ ^ 2 + 1 y_21_ ^ 2 - 2 y_50_ * y_21_ + 1 y_50_ ^ 2 ] <= 20371.7
quadratic_ranged_70_ub: [ 1 x_43_ ^ 2 - 2 x_50_ * x_43_ + 1 x_50_ ^ 2 + 1 y_43_ ^ 2 - 2 y_50_ * y_43_ + 1 y_50_ ^ 2 ] <= 33104.77
quadratic_ranged_71_ub: [ 1 x_18_ ^ 2 - 2 x_51_ * x_18_ + 1 x_51_ ^ 2 + 1 y_18_ ^ 2 - 2 y_51_ * y_18_ + 1 y_51_ ^ 2 ] <= 8019.4
quadratic_ranged_72_ub: [ 1 x_19_ ^ 2 - 2 x_51_ * x_19_ + 1 x_51_ ^ 2 + 1 y_19_ ^ 2 - 2 y_51_ * y_19_ + 1 y_51_ ^ 2 ] <= 2749.22
quadratic_ranged_73_ub: [ 1 x_33_ ^ 2 - 2 x_51_ * x_33_ + 1 x_51_ ^ 2 + 1 y_33_ ^ 2 - 2 y_51_ * y_33_ + 1 y_51_ ^ 2 ] <= 118.17
quadratic_ranged_74_ub: [ 1 x_4_ ^ 2 - 2 x_52_ * x_4_ + 1 x_52_ ^ 2 + 1 y_4_ ^ 2 - 2 y_52_ * y_4_ + 1 y_52_ ^ 2 ] <= 3918.8
quadratic_ranged_75_ub: [ 1 x_36_ ^ 2 - 2 x_52_ * x_36_ + 1 x_52_ ^ 2 + 1 y_36_ ^ 2 - 2 y_52_ * y_36_ + 1 y_52_ ^ 2 ] <= 11675.6
quadratic_ranged_76_ub: [ 1 x_20_ ^ 2 - 2 x_53_ * x_20_ + 1 x_53_ ^ 2 + 1 y_20_ ^ 2 - 2 y_53_ * y_20_ + 1 y_53_ ^ 2 ] <= 9430.37
quadratic_ranged_77_ub: [ 1 x_23_ ^ 2 - 2 x_53_ * x_23_ + 1 x_53_ ^ 2 + 1 y_23_ ^ 2 - 2 y_53_ * y_23_ + 1 y_53_ ^ 2 ] <= 10480.77
quadratic_ranged_78_ub: [ 1 x_5_ ^ 2 - 2 x_54_ * x_5_ + 1 x_54_ ^ 2 + 1 y_5_ ^ 2 - 2 y_54_ * y_5_ + 1 y_54_ ^ 2 ] <= 22750.25
quadratic_ranged_79_ub: [ 1 x_13_ ^ 2 - 2 x_54_ * x_13_ + 1 x_54_ ^ 2 + 1 y_13_ ^ 2 - 2 y_54_ * y_13_ + 1 y_54_ ^ 2 ] <= 3589.54
quadratic_ranged_80_ub: [ 1 x_6_ ^ 2 - 2 x_55_ * x_6_ + 1 x_55_ ^ 2 + 1 y_6_ ^ 2 - 2 y_55_ * y_6_ + 1 y_55_ ^ 2 ] <= 19445.53
quadratic_ranged_81_ub: [ 1 x_29_ ^ 2 - 2 x_55_ * x_29_ + 1 x_55_ ^ 2 + 1 y_29_ ^ 2 - 2 y_55_ * y_29_ + 1 y_55_ ^ 2 ] <= 8245.64
quadratic_ranged_82_ub: [ 1 x_30_ ^ 2 - 2 x_55_ * x_30_ + 1 x_55_ ^ 2 + 1 y_30_ ^ 2 - 2 y_55_ * y_30_ + 1 y_55_ ^ 2 ] <= 12133.13
quadratic_ranged_83_ub: [ 1 x_21_ ^ 2 - 2 x_56_ * x_21_ + 1 x_56_ ^ 2 + 1 y_21_ ^ 2 - 2 y_56_ * y_21_ + 1 y_56_ ^ 2 ] <= 14293.52
quadratic_ranged_84_ub: [ 1 x_9_ ^ 2 - 2 x_57_ * x_9_ + 1 x_57_ ^ 2 + 1 y_9_ ^ 2 - 2 y_57_ * y_9_ + 1 y_57_ ^ 2 ] <= 6148.88
quadratic_ranged_85_ub: [ 1 x_20_ ^ 2 - 2 x_57_ * x_20_ + 1 x_57_ ^ 2 + 1 y_20_ ^ 2 - 2 y_57_ * y_20_ + 1 y_57_ ^ 2 ] <= 10635.3
quadratic_ranged_86_ub: [ 1 x_16_ ^ 2 - 2 x_58_ * x_16_ + 1 x_58_ ^ 2 + 1 y_16_ ^ 2 - 2 y_58_ * y_16_ + 1 y_58_ ^ 2 ] <= 11831.14
quadratic_ranged_87_ub: [ 1 x_45_ ^ 2 - 2 x_58_ * x_45_ + 1 x_58_ ^ 2 + 1 y_45_ ^ 2 - 2 y_58_ * y_45_ + 1 y_58_ ^ 2 ] <= 4254.12
quadratic_ranged_88_ub: [ 1 x_7_ ^ 2 - 2 x_59_ * x_7_ + 1 x_59_ ^ 2 + 1 y_7_ ^ 2 - 2 y_59_ * y_7_ + 1 y_59_ ^ 2 ] <= 30164.66
quadratic_ranged_89_ub: [ 1 x_29_ ^ 2 - 2 x_59_ * x_29_ + 1 x_59_ ^ 2 + 1 y_29_ ^ 2 - 2 y_59_ * y_29_ + 1 y_59_ ^ 2 ] <= 2795.68
quadratic_ranged_90_ub: [ 1 x_3_ ^ 2 - 2 x_60_ * x_3_ + 1 x_60_ ^ 2 + 1 y_3_ ^ 2 - 2 y_60_ * y_3_ + 1 y_60_ ^ 2 ] <= 15806.5
quadratic_ranged_91_ub: [ 1 x_28_ ^ 2 - 2 x_60_ * x_28_ + 1 x_60_ ^ 2 + 1 y_28_ ^ 2 - 2 y_60_ * y_28_ + 1 y_60_ ^ 2 ] <= 11531.17
quadratic_ranged_92_ub: [ 1 x_46_ ^ 2 - 2 x_61_ * x_46_ + 1 x_61_ ^ 2 + 1 y_46_ ^ 2 - 2 y_61_ * y_46_ + 1 y_61_ ^ 2 ] <= 5955.97
quadratic_ranged_93_ub: [ 1 x_57_ ^ 2 - 2 x_61_ * x_57_ + 1 x_61_ ^ 2 + 1 y_57_ ^ 2 - 2 y_61_ * y_57_ + 1 y_61_ ^ 2 ] <= 11449.36
quadratic_ranged_94_ub: [ 1 x_27_ ^ 2 - 2 x_62_ * x_27_ + 1 x_62_ ^ 2 + 1 y_27_ ^ 2 - 2 y_62_ * y_27_ + 1 y_62_ ^ 2 ] <= 31047.4
quadratic_ranged_95_ub: [ 1 x_31_ ^ 2 - 2 x_62_ * x_31_ + 1 x_62_ ^ 2 + 1 y_31_ ^ 2 - 2 y_62_ * y_31_ + 1 y_62_ ^ 2 ] <= 36062.05
quadratic_ranged_96_ub: [ 1 x_57_ ^ 2 - 2 x_62_ * x_57_ + 1 x_62_ ^ 2 + 1 y_57_ ^ 2 - 2 y_62_ * y_57_ + 1 y_62_ ^ 2 ] <= 13190.6
quadratic_ranged_97_ub: [ 1 x_13_ ^ 2 - 2 x_63_ * x_13_ + 1 x_63_ ^ 2 + 1 y_13_ ^ 2 - 2 y_63_ * y_13_ + 1 y_63_ ^ 2 ] <= 7922.4400000000005
quadratic_ranged_98_ub: [ 1 x_28_ ^ 2 - 2 x_63_ * x_28_ + 1 x_63_ ^ 2 + 1 y_28_ ^ 2 - 2 y_63_ * y_28_ + 1 y_63_ ^ 2 ] <= 1325.1200000000001
quadratic_ranged_99_ub: [ 1 x_1_ ^ 2 - 2 x_64_ * x_1_ + 1 x_64_ ^ 2 + 1 y_1_ ^ 2 - 2 y_64_ * y_1_ + 1 y_64_ ^ 2 ] <= 5245.94
quadratic_ranged_100_ub: [ 1 x_14_ ^ 2 - 2 x_64_ * x_14_ + 1 x_64_ ^ 2 + 1 y_14_ ^ 2 - 2 y_64_ * y_14_ + 1 y_64_ ^ 2 ] <= 2752.25
quadratic_ranged_101_ub: [ 1 x_37_ ^ 2 - 2 x_64_ * x_37_ + 1 x_64_ ^ 2 + 1 y_37_ ^ 2 - 2 y_64_ * y_37_ + 1 y_64_ ^ 2 ] <= 30504.02
quadratic_ranged_102_ub: [ 1 x_4_ ^ 2 - 2 x_65_ * x_4_ + 1 x_65_ ^ 2 + 1 y_4_ ^ 2 - 2 y_65_ * y_4_ + 1 y_65_ ^ 2 ] <= 11373.61
quadratic_ranged_103_ub: [ 1 x_6_ ^ 2 - 2 x_65_ * x_6_ + 1 x_65_ ^ 2 + 1 y_6_ ^ 2 - 2 y_65_ * y_6_ + 1 y_65_ ^ 2 ] <= 2272.5
quadratic_ranged_104_ub: [ 1 x_51_ ^ 2 - 2 x_65_ * x_51_ + 1 x_65_ ^ 2 + 1 y_51_ ^ 2 - 2 y_65_ * y_51_ + 1 y_65_ ^ 2 ] <= 21239.29
quadratic_ranged_105_ub: [ 1 x_5_ ^ 2 - 2 x_66_ * x_5_ + 1 x_66_ ^ 2 + 1 y_5_ ^ 2 - 2 y_66_ * y_5_ + 1 y_66_ ^ 2 ] <= 3791.54
quadratic_ranged_106_ub: [ 1 x_52_ ^ 2 - 2 x_66_ * x_52_ + 1 x_66_ ^ 2 + 1 y_52_ ^ 2 - 2 y_66_ * y_52_ + 1 y_66_ ^ 2 ] <= 14836.9
quadratic_ranged_107_ub: [ 1 x_13_ ^ 2 - 2 x_67_ * x_13_ + 1 x_67_ ^ 2 + 1 y_13_ ^ 2 - 2 y_67_ * y_13_ + 1 y_67_ ^ 2 ] <= 16047.89
quadratic_ranged_108_ub: [ 1 x_29_ ^ 2 - 2 x_67_ * x_29_ + 1 x_67_ ^ 2 + 1 y_29_ ^ 2 - 2 y_67_ * y_29_ + 1 y_67_ ^ 2 ] <= 10602.98
quadratic_ranged_109_ub: [ 1 x_35_ ^ 2 - 2 x_67_ * x_35_ + 1 x_67_ ^ 2 + 1 y_35_ ^ 2 - 2 y_67_ * y_35_ + 1 y_67_ ^ 2 ] <= 1636.2
quadratic_ranged_110_ub: [ 1 x_22_ ^ 2 - 2 x_68_ * x_22_ + 1 x_68_ ^ 2 + 1 y_22_ ^ 2 - 2 y_68_ * y_22_ + 1 y_68_ ^ 2 ] <= 25747.93
quadratic_ranged_111_ub: [ 1 x_32_ ^ 2 - 2 x_68_ * x_32_ + 1 x_68_ ^ 2 + 1 y_32_ ^ 2 - 2 y_68_ * y_32_ + 1 y_68_ ^ 2 ] <= 31577.65
quadratic_ranged_112_ub: [ 1 x_41_ ^ 2 - 2 x_68_ * x_41_ + 1 x_68_ ^ 2 + 1 y_41_ ^ 2 - 2 y_68_ * y_41_ + 1 y_68_ ^ 2 ] <= 30582.8
quadratic_ranged_113_ub: [ 1 x_11_ ^ 2 - 2 x_69_ * x_11_ + 1 x_69_ ^ 2 + 1 y_11_ ^ 2 - 2 y_69_ * y_11_ + 1 y_69_ ^ 2 ] <= 1820.02
quadratic_ranged_114_ub: [ 1 x_25_ ^ 2 - 2 x_69_ * x_25_ + 1 x_69_ ^ 2 + 1 y_25_ ^ 2 - 2 y_69_ * y_25_ + 1 y_69_ ^ 2 ] <= 8178.9800000000005
quadratic_ranged_115_ub: [ 1 x_21_ ^ 2 - 2 x_70_ * x_21_ + 1 x_70_ ^ 2 + 1 y_21_ ^ 2 - 2 y_70_ * y_21_ + 1 y_70_ ^ 2 ] <= 21933.16
quadratic_ranged_116_ub: [ 1 x_52_ ^ 2 - 2 x_70_ * x_52_ + 1 x_70_ ^ 2 + 1 y_52_ ^ 2 - 2 y_70_ * y_52_ + 1 y_70_ ^ 2 ] <= 15191.41
quadratic_ranged_117_ub: [ 1 x_59_ ^ 2 - 2 x_70_ * x_59_ + 1 x_70_ ^ 2 + 1 y_59_ ^ 2 - 2 y_70_ * y_59_ + 1 y_70_ ^ 2 ] <= 17005.37
quadratic_ranged_118_ub: [ 1 x_9_ ^ 2 - 2 x_71_ * x_9_ + 1 x_71_ ^ 2 + 1 y_9_ ^ 2 - 2 y_71_ * y_9_ + 1 y_71_ ^ 2 ] <= 485.81
quadratic_ranged_119_ub: [ 1 x_28_ ^ 2 - 2 x_71_ * x_28_ + 1 x_71_ ^ 2 + 1 y_28_ ^ 2 - 2 y_71_ * y_28_ + 1 y_71_ ^ 2 ] <= 12031.12
quadratic_ranged_120_ub: [ 1 x_40_ ^ 2 - 2 x_71_ * x_40_ + 1 x_71_ ^ 2 + 1 y_40_ ^ 2 - 2 y_71_ * y_40_ + 1 y_71_ ^ 2 ] <= 4292.5
quadratic_ranged_121_ub: [ 1 x_19_ ^ 2 - 2 x_72_ * x_19_ + 1 x_72_ ^ 2 + 1 y_19_ ^ 2 - 2 y_72_ * y_19_ + 1 y_72_ ^ 2 ] <= 17115.46
quadratic_ranged_122_ub: [ 1 x_38_ ^ 2 - 2 x_72_ * x_38_ + 1 x_72_ ^ 2 + 1 y_38_ ^ 2 - 2 y_72_ * y_38_ + 1 y_72_ ^ 2 ] <= 2232.1
quadratic_ranged_123_ub: [ 1 x_51_ ^ 2 - 2 x_72_ * x_51_ + 1 x_72_ ^ 2 + 1 y_51_ ^ 2 - 2 y_72_ * y_51_ + 1 y_72_ ^ 2 ] <= 12055.36
quadratic_ranged_124_ub: [ 1 x_8_ ^ 2 - 2 x_73_ * x_8_ + 1 x_73_ ^ 2 + 1 y_8_ ^ 2 - 2 y_73_ * y_8_ + 1 y_73_ ^ 2 ] <= 35333.840000000004
quadratic_ranged_125_ub: [ 1 x_44_ ^ 2 - 2 x_73_ * x_44_ + 1 x_73_ ^ 2 + 1 y_44_ ^ 2 - 2 y_73_ * y_44_ + 1 y_73_ ^ 2 ] <= 4815.68
quadratic_ranged_126_ub: [ 1 x_14_ ^ 2 - 2 x_74_ * x_14_ + 1 x_74_ ^ 2 + 1 y_14_ ^ 2 - 2 y_74_ * y_14_ + 1 y_74_ ^ 2 ] <= 22870.44
quadratic_ranged_127_ub: [ 1 x_33_ ^ 2 - 2 x_74_ * x_33_ + 1 x_74_ ^ 2 + 1 y_33_ ^ 2 - 2 y_74_ * y_33_ + 1 y_74_ ^ 2 ] <= 5390.37
quadratic_ranged_128_ub: [ 1 x_13_ ^ 2 - 2 x_75_ * x_13_ + 1 x_75_ ^ 2 + 1 y_13_ ^ 2 - 2 y_75_ * y_13_ + 1 y_75_ ^ 2 ] <= 13114.85
quadratic_ranged_129_ub: [ 1 x_24_ ^ 2 - 2 x_75_ * x_24_ + 1 x_75_ ^ 2 + 1 y_24_ ^ 2 - 2 y_75_ * y_24_ + 1 y_75_ ^ 2 ] <= 21088.8
quadratic_ranged_130_ub: [ 1 x_63_ ^ 2 - 2 x_75_ * x_63_ + 1 x_75_ ^ 2 + 1 y_63_ ^ 2 - 2 y_75_ * y_63_ + 1 y_75_ ^ 2 ] <= 9046.57
quadratic_ranged_131_ub: [ 1 x_10_ ^ 2 - 2 x_76_ * x_10_ + 1 x_76_ ^ 2 + 1 y_10_ ^ 2 - 2 y_76_ * y_10_ + 1 y_76_ ^ 2 ] <= 14908.61
quadratic_ranged_132_ub: [ 1 x_46_ ^ 2 - 2 x_77_ * x_46_ + 1 x_77_ ^ 2 + 1 y_46_ ^ 2 - 2 y_77_ * y_46_ + 1 y_77_ ^ 2 ] <= 36024.68
quadratic_ranged_133_ub: [ 1 x_68_ ^ 2 - 2 x_77_ * x_68_ + 1 x_77_ ^ 2 + 1 y_68_ ^ 2 - 2 y_77_ * y_68_ + 1 y_77_ ^ 2 ] <= 35605.53
quadratic_ranged_134_ub: [ 1 x_69_ ^ 2 - 2 x_77_ * x_69_ + 1 x_77_ ^ 2 + 1 y_69_ ^ 2 - 2 y_77_ * y_69_ + 1 y_77_ ^ 2 ] <= 29122.34
quadratic_ranged_135_ub: [ 1 x_6_ ^ 2 - 2 x_78_ * x_6_ + 1 x_78_ ^ 2 + 1 y_6_ ^ 2 - 2 y_78_ * y_6_ + 1 y_78_ ^ 2 ] <= 5272.2
quadratic_ranged_136_ub: [ 1 x_32_ ^ 2 - 2 x_78_ * x_32_ + 1 x_78_ ^ 2 + 1 y_32_ ^ 2 - 2 y_78_ * y_32_ + 1 y_78_ ^ 2 ] <= 1561.46
quadratic_ranged_137_ub: [ 1 x_76_ ^ 2 - 2 x_78_ * x_76_ + 1 x_78_ ^ 2 + 1 y_76_ ^ 2 - 2 y_78_ * y_76_ + 1 y_78_ ^ 2 ] <= 1532.17
quadratic_ranged_138_ub: [ 1 x_12_ ^ 2 - 2 x_79_ * x_12_ + 1 x_79_ ^ 2 + 1 y_12_ ^ 2 - 2 y_79_ * y_12_ + 1 y_79_ ^ 2 ] <= 182.81
quadratic_ranged_139_ub: [ 1 x_22_ ^ 2 - 2 x_79_ * x_22_ + 1 x_79_ ^ 2 + 1 y_22_ ^ 2 - 2 y_79_ * y_22_ + 1 y_79_ ^ 2 ] <= 3758.21
quadratic_ranged_140_ub: [ 1 x_24_ ^ 2 - 2 x_79_ * x_24_ + 1 x_79_ ^ 2 + 1 y_24_ ^ 2 - 2 y_79_ * y_24_ + 1 y_79_ ^ 2 ] <= 274.72
quadratic_ranged_141_ub: [ 1 x_19_ ^ 2 - 2 x_80_ * x_19_ + 1 x_80_ ^ 2 + 1 y_19_ ^ 2 - 2 y_80_ * y_19_ + 1 y_80_ ^ 2 ] <= 20824.18
quadratic_ranged_142_ub: [ 1 x_33_ ^ 2 - 2 x_80_ * x_33_ + 1 x_80_ ^ 2 + 1 y_33_ ^ 2 - 2 y_80_ * y_33_ + 1 y_80_ ^ 2 ] <= 18229.49
quadratic_ranged_143_ub: [ 1 x_53_ ^ 2 - 2 x_80_ * x_53_ + 1 x_80_ ^ 2 + 1 y_53_ ^ 2 - 2 y_80_ * y_53_ + 1 y_80_ ^ 2 ] <= 4045.05
quadratic_ranged_144_ub: [ 1 x_15_ ^ 2 - 2 x_81_ * x_15_ + 1 x_81_ ^ 2 + 1 y_15_ ^ 2 - 2 y_81_ * y_15_ + 1 y_81_ ^ 2 ] <= 15926.69
quadratic_ranged_145_ub: [ 1 x_17_ ^ 2 - 2 x_81_ * x_17_ + 1 x_81_ ^ 2 + 1 y_17_ ^ 2 - 2 y_81_ * y_17_ + 1 y_81_ ^ 2 ] <= 7548.74
quadratic_ranged_146_ub: [ 1 x_54_ ^ 2 - 2 x_82_ * x_54_ + 1 x_82_ ^ 2 + 1 y_54_ ^ 2 - 2 y_82_ * y_54_ + 1 y_82_ ^ 2 ] <= 35104.57
quadratic_ranged_147_ub: [ 1 x_61_ ^ 2 - 2 x_82_ * x_61_ + 1 x_82_ ^ 2 + 1 y_61_ ^ 2 - 2 y_82_ * y_61_ + 1 y_82_ ^ 2 ] <= 19596.02
quadratic_ranged_148_ub: [ 1 x_70_ ^ 2 - 2 x_82_ * x_70_ + 1 x_82_ ^ 2 + 1 y_70_ ^ 2 - 2 y_82_ * y_70_ + 1 y_82_ ^ 2 ] <= 2049.29
quadratic_ranged_149_ub: [ 1 x_33_ ^ 2 - 2 x_83_ * x_33_ + 1 x_83_ ^ 2 + 1 y_33_ ^ 2 - 2 y_83_ * y_33_ + 1 y_83_ ^ 2 ] <= 16491.28
quadratic_ranged_150_ub: [ 1 x_36_ ^ 2 - 2 x_83_ * x_36_ + 1 x_83_ ^ 2 + 1 y_36_ ^ 2 - 2 y_83_ * y_36_ + 1 y_83_ ^ 2 ] <= 752.45
quadratic_ranged_151_ub: [ 1 x_40_ ^ 2 - 2 x_83_ * x_40_ + 1 x_83_ ^ 2 + 1 y_40_ ^ 2 - 2 y_83_ * y_40_ + 1 y_83_ ^ 2 ] <= 7086.16
quadratic_ranged_152_ub: [ 1 x_62_ ^ 2 - 2 x_84_ * x_62_ + 1 x_84_ ^ 2 + 1 y_62_ ^ 2 - 2 y_84_ * y_62_ + 1 y_84_ ^ 2 ] <= 33259.3
quadratic_ranged_153_ub: [ 1 x_68_ ^ 2 - 2 x_84_ * x_68_ + 1 x_84_ ^ 2 + 1 y_68_ ^ 2 - 2 y_84_ * y_68_ + 1 y_84_ ^ 2 ] <= 25896.4
quadratic_ranged_154_ub: [ 1 x_74_ ^ 2 - 2 x_84_ * x_74_ + 1 x_84_ ^ 2 + 1 y_74_ ^ 2 - 2 y_84_ * y_74_ + 1 y_84_ ^ 2 ] <= 35713.6
quadratic_ranged_155_ub: [ 1 x_13_ ^ 2 - 2 x_85_ * x_13_ + 1 x_85_ ^ 2 + 1 y_13_ ^ 2 - 2 y_85_ * y_13_ + 1 y_85_ ^ 2 ] <= 2376.53
quadratic_ranged_156_ub: [ 1 x_34_ ^ 2 - 2 x_86_ * x_34_ + 1 x_86_ ^ 2 + 1 y_34_ ^ 2 - 2 y_86_ * y_34_ + 1 y_86_ ^ 2 ] <= 931.22
quadratic_ranged_157_ub: [ 1 x_60_ ^ 2 - 2 x_86_ * x_60_ + 1 x_86_ ^ 2 + 1 y_60_ ^ 2 - 2 y_86_ * y_60_ + 1 y_86_ ^ 2 ] <= 29816.21
quadratic_ranged_158_ub: [ 1 x_21_ ^ 2 - 2 x_87_ * x_21_ + 1 x_87_ ^ 2 + 1 y_21_ ^ 2 - 2 y_87_ * y_21_ + 1 y_87_ ^ 2 ] <= 4486.42
quadratic_ranged_159_ub: [ 1 x_47_ ^ 2 - 2 x_87_ * x_47_ + 1 x_87_ ^ 2 + 1 y_47_ ^ 2 - 2 y_87_ * y_47_ + 1 y_87_ ^ 2 ] <= 53349.21
quadratic_ranged_160_ub: [ 1 x_58_ ^ 2 - 2 x_88_ * x_58_ + 1 x_88_ ^ 2 + 1 y_58_ ^ 2 - 2 y_88_ * y_58_ + 1 y_88_ ^ 2 ] <= 8403.2
quadratic_ranged_161_ub: [ 1 x_67_ ^ 2 - 2 x_88_ * x_67_ + 1 x_88_ ^ 2 + 1 y_67_ ^ 2 - 2 y_88_ * y_67_ + 1 y_88_ ^ 2 ] <= 9631.36
quadratic_ranged_162_ub: [ 1 x_81_ ^ 2 - 2 x_88_ * x_81_ + 1 x_88_ ^ 2 + 1 y_81_ ^ 2 - 2 y_88_ * y_81_ + 1 y_88_ ^ 2 ] <= 9709.13
quadratic_ranged_163_ub: [ 1 x_20_ ^ 2 - 2 x_89_ * x_20_ + 1 x_89_ ^ 2 + 1 y_20_ ^ 2 - 2 y_89_ * y_20_ + 1 y_89_ ^ 2 ] <= 15642.880000000001
quadratic_ranged_164_ub: [ 1 x_56_ ^ 2 - 2 x_89_ * x_56_ + 1 x_89_ ^ 2 + 1 y_56_ ^ 2 - 2 y_89_ * y_56_ + 1 y_89_ ^ 2 ] <= 3285.53
quadratic_ranged_165_ub: [ 1 x_69_ ^ 2 - 2 x_89_ * x_69_ + 1 x_89_ ^ 2 + 1 y_69_ ^ 2 - 2 y_89_ * y_69_ + 1 y_89_ ^ 2 ] <= 16872.05
quadratic_ranged_166_ub: [ 1 x_54_ ^ 2 - 2 x_90_ * x_54_ + 1 x_90_ ^ 2 + 1 y_54_ ^ 2 - 2 y_90_ * y_54_ + 1 y_90_ ^ 2 ] <= 2282.6
quadratic_ranged_167_ub: [ 1 x_73_ ^ 2 - 2 x_90_ * x_73_ + 1 x_90_ ^ 2 + 1 y_73_ ^ 2 - 2 y_90_ * y_73_ + 1 y_90_ ^ 2 ] <= 21274.64
quadratic_ranged_168_ub: [ 1 x_86_ ^ 2 - 2 x_90_ * x_86_ + 1 x_90_ ^ 2 + 1 y_86_ ^ 2 - 2 y_90_ * y_86_ + 1 y_90_ ^ 2 ] <= 23547.14
quadratic_ranged_169_ub: [ 1 x_5_ ^ 2 - 2 x_91_ * x_5_ + 1 x_91_ ^ 2 + 1 y_5_ ^ 2 - 2 y_91_ * y_5_ + 1 y_91_ ^ 2 ] <= 7839.62
quadratic_ranged_170_ub: [ 1 x_12_ ^ 2 - 2 x_91_ * x_12_ + 1 x_91_ ^ 2 + 1 y_12_ ^ 2 - 2 y_91_ * y_12_ + 1 y_91_ ^ 2 ] <= 29113.25
quadratic_ranged_171_ub: [ 1 x_79_ ^ 2 - 2 x_91_ * x_79_ + 1 x_91_ ^ 2 + 1 y_79_ ^ 2 - 2 y_91_ * y_79_ + 1 y_91_ ^ 2 ] <= 24926.8
quadratic_ranged_172_ub: [ 1 x_27_ ^ 2 - 2 x_92_ * x_27_ + 1 x_92_ ^ 2 + 1 y_27_ ^ 2 - 2 y_92_ * y_27_ + 1 y_92_ ^ 2 ] <= 38091.14
quadratic_ranged_173_ub: [ 1 x_47_ ^ 2 - 2 x_92_ * x_47_ + 1 x_92_ ^ 2 + 1 y_47_ ^ 2 - 2 y_92_ * y_47_ + 1 y_92_ ^ 2 ] <= 3452.18
quadratic_ranged_174_ub: [ 1 x_85_ ^ 2 - 2 x_92_ * x_85_ + 1 x_92_ ^ 2 + 1 y_85_ ^ 2 - 2 y_92_ * y_85_ + 1 y_92_ ^ 2 ] <= 11136.26
quadratic_ranged_175_ub: [ 1 x_41_ ^ 2 - 2 x_93_ * x_41_ + 1 x_93_ ^ 2 + 1 y_41_ ^ 2 - 2 y_93_ * y_41_ + 1 y_93_ ^ 2 ] <= 23461.29
quadratic_ranged_176_ub: [ 1 x_49_ ^ 2 - 2 x_93_ * x_49_ + 1 x_93_ ^ 2 + 1 y_49_ ^ 2 - 2 y_93_ * y_49_ + 1 y_93_ ^ 2 ] <= 2174.53
quadratic_ranged_177_ub: [ 1 x_87_ ^ 2 - 2 x_93_ * x_87_ + 1 x_93_ ^ 2 + 1 y_87_ ^ 2 - 2 y_93_ * y_87_ + 1 y_93_ ^ 2 ] <= 18826.4
quadratic_ranged_178_ub: [ 1 x_31_ ^ 2 - 2 x_94_ * x_31_ + 1 x_94_ ^ 2 + 1 y_31_ ^ 2 - 2 y_94_ * y_31_ + 1 y_94_ ^ 2 ] <= 45075.29
quadratic_ranged_179_ub: [ 1 x_56_ ^ 2 - 2 x_94_ * x_56_ + 1 x_94_ ^ 2 + 1 y_56_ ^ 2 - 2 y_94_ * y_56_ + 1 y_94_ ^ 2 ] <= 3903.65
quadratic_ranged_180_ub: [ 1 x_58_ ^ 2 - 2 x_94_ * x_58_ + 1 x_94_ ^ 2 + 1 y_58_ ^ 2 - 2 y_94_ * y_58_ + 1 y_94_ ^ 2 ] <= 6724.58
quadratic_ranged_181_ub: [ 1 x_50_ ^ 2 - 2 x_95_ * x_50_ + 1 x_95_ ^ 2 + 1 y_50_ ^ 2 - 2 y_95_ * y_50_ + 1 y_95_ ^ 2 ] <= 21244.34
quadratic_ranged_182_ub: [ 1 x_66_ ^ 2 - 2 x_95_ * x_66_ + 1 x_95_ ^ 2 + 1 y_66_ ^ 2 - 2 y_95_ * y_66_ + 1 y_95_ ^ 2 ] <= 38841.57
quadratic_ranged_183_ub: [ 1 x_76_ ^ 2 - 2 x_95_ * x_76_ + 1 x_95_ ^ 2 + 1 y_76_ ^ 2 - 2 y_95_ * y_76_ + 1 y_95_ ^ 2 ] <= 34942.97
quadratic_ranged_184_ub: [ 1 x_4_ ^ 2 - 2 x_96_ * x_4_ + 1 x_96_ ^ 2 + 1 y_4_ ^ 2 - 2 y_96_ * y_4_ + 1 y_96_ ^ 2 ] <= 11160.5
quadratic_ranged_185_ub: [ 1 x_6_ ^ 2 - 2 x_96_ * x_6_ + 1 x_96_ ^ 2 + 1 y_6_ ^ 2 - 2 y_96_ * y_6_ + 1 y_96_ ^ 2 ] <= 5.05
quadratic_ranged_186_ub: [ 1 x_22_ ^ 2 - 2 x_96_ * x_22_ + 1 x_96_ ^ 2 + 1 y_22_ ^ 2 - 2 y_96_ * y_22_ + 1 y_96_ ^ 2 ] <= 17736.61
quadratic_ranged_187_ub: [ 1 x_5_ ^ 2 - 2 x_97_ * x_5_ + 1 x_97_ ^ 2 + 1 y_5_ ^ 2 - 2 y_97_ * y_5_ + 1 y_97_ ^ 2 ] <= 352.49
quadratic_ranged_188_ub: [ 1 x_7_ ^ 2 - 2 x_97_ * x_7_ + 1 x_97_ ^ 2 + 1 y_7_ ^ 2 - 2 y_97_ * y_7_ + 1 y_97_ ^ 2 ] <= 6489.25
quadratic_ranged_189_ub: [ 1 x_34_ ^ 2 - 2 x_97_ * x_34_ + 1 x_97_ ^ 2 + 1 y_34_ ^ 2 - 2 y_97_ * y_34_ + 1 y_97_ ^ 2 ] <= 7516.42
quadratic_ranged_190_ub: [ 1 x_2_ ^ 2 - 2 x_98_ * x_2_ + 1 x_98_ ^ 2 + 1 y_2_ ^ 2 - 2 y_98_ * y_2_ + 1 y_98_ ^ 2 ] <= 18229.49
quadratic_ranged_191_ub: [ 1 x_28_ ^ 2 - 2 x_98_ * x_28_ + 1 x_98_ ^ 2 + 1 y_28_ ^ 2 - 2 y_98_ * y_28_ + 1 y_98_ ^ 2 ] <= 10772.66
quadratic_ranged_192_ub: [ 1 x_31_ ^ 2 - 2 x_98_ * x_31_ + 1 x_98_ ^ 2 + 1 y_31_ ^ 2 - 2 y_98_ * y_31_ + 1 y_98_ ^ 2 ] <= 1149.38
quadratic_ranged_193_ub: [ 1 x_69_ ^ 2 - 2 x_99_ * x_69_ + 1 x_99_ ^ 2 + 1 y_69_ ^ 2 - 2 y_99_ * y_69_ + 1 y_99_ ^ 2 ] <= 519.14
quadratic_ranged_194_ub: [ 1 x_77_ ^ 2 - 2 x_99_ * x_77_ + 1 x_99_ ^ 2 + 1 y_77_ ^ 2 - 2 y_99_ * y_77_ + 1 y_99_ ^ 2 ] <= 29088
quadratic_ranged_195_ub: [ 1 x_85_ ^ 2 - 2 x_99_ * x_85_ + 1 x_99_ ^ 2 + 1 y_85_ ^ 2 - 2 y_99_ * y_85_ + 1 y_99_ ^ 2 ] <= 15175.25
quadratic_ranged_196_ub: [ 1 x_20_ ^ 2 - 2 x_100_ * x_20_ + 1 x_100_ ^ 2 + 1 y_20_ ^ 2 - 2 y_100_ * y_20_ + 1 y_100_ ^ 2 ] <= 4898.5
quadratic_ranged_197_ub: [ 1 x_45_ ^ 2 - 2 x_100_ * x_45_ + 1 x_100_ ^ 2 + 1 y_45_ ^ 2 - 2 y_100_ * y_45_ + 1 y_100_ ^ 2 ] <= 3494.6
quadratic_ranged_198_ub: [ 1 x_73_ ^ 2 - 2 x_100_ * x_73_ + 1 x_100_ ^ 2 + 1 y_73_ ^ 2 - 2 y_100_ * y_73_ + 1 y_100_ ^ 2 ] <= 6739.7300000000005
quadratic_ranged_1_lb: [ 1 x_1_ ^ 2 - 2 x_4_ * x_1_ + 1 x_4_ ^ 2 + 1 y_1_ ^ 2 - 2 y_4_ * y_1_ + 1 y_4_ ^ 2 ] >= 1834.47
quadratic_ranged_2_lb: [ 1 x_2_ ^ 2 - 2 x_5_ * x_2_ + 1 x_5_ ^ 2 + 1 y_2_ ^ 2 - 2 y_5_ * y_2_ + 1 y_5_ ^ 2 ] >= 15721.2
quadratic_ranged_3_lb: [ 1 x_2_ ^ 2 - 2 x_8_ * x_2_ + 1 x_8_ ^ 2 + 1 y_2_ ^ 2 - 2 y_8_ * y_2_ + 1 y_8_ ^ 2 ] >= 6760.71
quadratic_ranged_4_lb: [ 1 x_7_ ^ 2 - 2 x_8_ * x_7_ + 1 x_8_ ^ 2 + 1 y_7_ ^ 2 - 2 y_8_ * y_7_ + 1 y_8_ ^ 2 ] >= 25665.75
quadratic_ranged_5_lb: [ 1 x_5_ ^ 2 - 2 x_9_ * x_5_ + 1 x_9_ ^ 2 + 1 y_5_ ^ 2 - 2 y_9_ * y_5_ + 1 y_9_ ^ 2 ] >= 5949.9
quadratic_ranged_6_lb: [ 1 x_8_ ^ 2 - 2 x_10_ * x_8_ + 1 x_10_ ^ 2 + 1 y_8_ ^ 2 - 2 y_10_ * y_8_ + 1 y_10_ ^ 2 ] >= 30432.6
quadratic_ranged_7_lb: [ 1 x_9_ ^ 2 - 2 x_11_ * x_9_ + 1 x_11_ ^ 2 + 1 y_9_ ^ 2 - 2 y_11_ * y_9_ + 1 y_11_ ^ 2 ] >= 11405.789999999999
quadratic_ranged_8_lb: [ 1 x_10_ ^ 2 - 2 x_11_ * x_10_ + 1 x_11_ ^ 2 + 1 y_10_ ^ 2 - 2 y_11_ * y_10_ + 1 y_11_ ^ 2 ] >= 15382.619999999999
quadratic_ranged_9_lb: [ 1 x_10_ ^ 2 - 2 x_12_ * x_10_ + 1 x_12_ ^ 2 + 1 y_10_ ^ 2 - 2 y_12_ * y_10_ + 1 y_12_ ^ 2 ] >= 38825.82
quadratic_ranged_10_lb: [ 1 x_7_ ^ 2 - 2 x_13_ * x_7_ + 1 x_13_ ^ 2 + 1 y_7_ ^ 2 - 2 y_13_ * y_7_ + 1 y_13_ ^ 2 ] >= 26267.67
quadratic_ranged_11_lb: [ 1 x_4_ ^ 2 - 2 x_14_ * x_4_ + 1 x_14_ ^ 2 + 1 y_4_ ^ 2 - 2 y_14_ * y_4_ + 1 y_14_ ^ 2 ] >= 9302.039999999999
quadratic_ranged_12_lb: [ 1 x_4_ ^ 2 - 2 x_15_ * x_4_ + 1 x_15_ ^ 2 + 1 y_4_ ^ 2 - 2 y_15_ * y_4_ + 1 y_15_ ^ 2 ] >= 3567.96
quadratic_ranged_13_lb: [ 1 x_16_ ^ 2 - 2 x_17_ * x_16_ + 1 x_17_ ^ 2 + 1 y_16_ ^ 2 - 2 y_17_ * y_16_ + 1 y_17_ ^ 2 ] >= 5944.95
quadratic_ranged_14_lb: [ 1 x_12_ ^ 2 - 2 x_18_ * x_12_ + 1 x_18_ ^ 2 + 1 y_12_ ^ 2 - 2 y_18_ * y_12_ + 1 y_18_ ^ 2 ] >= 36912.15
quadratic_ranged_15_lb: [ 1 x_15_ ^ 2 - 2 x_18_ * x_15_ + 1 x_18_ ^ 2 + 1 y_15_ ^ 2 - 2 y_18_ * y_15_ + 1 y_18_ ^ 2 ] >= 6716.16
quadratic_ranged_16_lb: [ 1 x_12_ ^ 2 - 2 x_20_ * x_12_ + 1 x_20_ ^ 2 + 1 y_12_ ^ 2 - 2 y_20_ * y_12_ + 1 y_20_ ^ 2 ] >= 1450.35
quadratic_ranged_17_lb: [ 1 x_9_ ^ 2 - 2 x_21_ * x_9_ + 1 x_21_ ^ 2 + 1 y_9_ ^ 2 - 2 y_21_ * y_9_ + 1 y_21_ ^ 2 ] >= 16221.15
quadratic_ranged_18_lb: [ 1 x_22_ ^ 2 - 2 x_23_ * x_22_ + 1 x_23_ ^ 2 + 1 y_22_ ^ 2 - 2 y_23_ * y_22_ + 1 y_23_ ^ 2 ] >= 8617.95
quadratic_ranged_19_lb: [ 1 x_7_ ^ 2 - 2 x_25_ * x_7_ + 1 x_25_ ^ 2 + 1 y_7_ ^ 2 - 2 y_25_ * y_7_ + 1 y_25_ ^ 2 ] >= 24065.91
quadratic_ranged_20_lb: [ 1 x_19_ ^ 2 - 2 x_25_ * x_19_ + 1 x_25_ ^ 2 + 1 y_19_ ^ 2 - 2 y_25_ * y_19_ + 1 y_25_ ^ 2 ] >= 30690.989999999998
quadratic_ranged_21_lb: [ 1 x_2_ ^ 2 - 2 x_26_ * x_2_ + 1 x_26_ ^ 2 + 1 y_2_ ^ 2 - 2 y_26_ * y_2_ + 1 y_26_ ^ 2 ] >= 2440.35
quadratic_ranged_22_lb: [ 1 x_11_ ^ 2 - 2 x_26_ * x_11_ + 1 x_26_ ^ 2 + 1 y_11_ ^ 2 - 2 y_26_ * y_11_ + 1 y_26_ ^ 2 ] >= 3346.2
quadratic_ranged_23_lb: [ 1 x_18_ ^ 2 - 2 x_26_ * x_18_ + 1 x_26_ ^ 2 + 1 y_18_ ^ 2 - 2 y_26_ * y_18_ + 1 y_26_ ^ 2 ] >= 32294.79
quadratic_ranged_24_lb: [ 1 x_1_ ^ 2 - 2 x_27_ * x_1_ + 1 x_27_ ^ 2 + 1 y_1_ ^ 2 - 2 y_27_ * y_1_ + 1 y_27_ ^ 2 ] >= 6142.95
quadratic_ranged_25_lb: [ 1 x_5_ ^ 2 - 2 x_27_ * x_5_ + 1 x_27_ ^ 2 + 1 y_5_ ^ 2 - 2 y_27_ * y_5_ + 1 y_27_ ^ 2 ] >= 17085.42
quadratic_ranged_26_lb: [ 1 x_8_ ^ 2 - 2 x_27_ * x_8_ + 1 x_27_ ^ 2 + 1 y_8_ ^ 2 - 2 y_27_ * y_8_ + 1 y_27_ ^ 2 ] >= 36615.15
quadratic_ranged_27_lb: [ 1 x_1_ ^ 2 - 2 x_28_ * x_1_ + 1 x_28_ ^ 2 + 1 y_1_ ^ 2 - 2 y_28_ * y_1_ + 1 y_28_ ^ 2 ] >= 4771.8
quadratic_ranged_28_lb: [ 1 x_3_ ^ 2 - 2 x_28_ * x_3_ + 1 x_28_ ^ 2 + 1 y_3_ ^ 2 - 2 y_28_ * y_3_ + 1 y_28_ ^ 2 ] >= 16110.27
quadratic_ranged_29_lb: [ 1 x_13_ ^ 2 - 2 x_30_ * x_13_ + 1 x_30_ ^ 2 + 1 y_13_ ^ 2 - 2 y_30_ * y_13_ + 1 y_30_ ^ 2 ] >= 336.6
quadratic_ranged_30_lb: [ 1 x_17_ ^ 2 - 2 x_30_ * x_17_ + 1 x_30_ ^ 2 + 1 y_17_ ^ 2 - 2 y_30_ * y_17_ + 1 y_30_ ^ 2 ] >= 8207.1
quadratic_ranged_31_lb: [ 1 x_29_ ^ 2 - 2 x_30_ * x_29_ + 1 x_30_ ^ 2 + 1 y_29_ ^ 2 - 2 y_30_ * y_29_ + 1 y_30_ ^ 2 ] >= 1291.95
quadratic_ranged_32_lb: [ 1 x_19_ ^ 2 - 2 x_32_ * x_19_ + 1 x_32_ ^ 2 + 1 y_19_ ^ 2 - 2 y_32_ * y_19_ + 1 y_32_ ^ 2 ] >= 27709.11
quadratic_ranged_33_lb: [ 1 x_29_ ^ 2 - 2 x_33_ * x_29_ + 1 x_33_ ^ 2 + 1 y_29_ ^ 2 - 2 y_33_ * y_29_ + 1 y_33_ ^ 2 ] >= 17579.43
quadratic_ranged_34_lb: [ 1 x_4_ ^ 2 - 2 x_34_ * x_4_ + 1 x_34_ ^ 2 + 1 y_4_ ^ 2 - 2 y_34_ * y_4_ + 1 y_34_ ^ 2 ] >= 16478.55
quadratic_ranged_35_lb: [ 1 x_1_ ^ 2 - 2 x_35_ * x_1_ + 1 x_35_ ^ 2 + 1 y_1_ ^ 2 - 2 y_35_ * y_1_ + 1 y_35_ ^ 2 ] >= 4459.95
quadratic_ranged_36_lb: [ 1 x_9_ ^ 2 - 2 x_35_ * x_9_ + 1 x_35_ ^ 2 + 1 y_9_ ^ 2 - 2 y_35_ * y_9_ + 1 y_35_ ^ 2 ] >= 2312.64
quadratic_ranged_37_lb: [ 1 x_12_ ^ 2 - 2 x_35_ * x_12_ + 1 x_35_ ^ 2 + 1 y_12_ ^ 2 - 2 y_35_ * y_12_ + 1 y_35_ ^ 2 ] >= 20913.75
quadratic_ranged_38_lb: [ 1 x_3_ ^ 2 - 2 x_36_ * x_3_ + 1 x_36_ ^ 2 + 1 y_3_ ^ 2 - 2 y_36_ * y_3_ + 1 y_36_ ^ 2 ] >= 31064.22
quadratic_ranged_39_lb: [ 1 x_12_ ^ 2 - 2 x_36_ * x_12_ + 1 x_36_ ^ 2 + 1 y_12_ ^ 2 - 2 y_36_ * y_12_ + 1 y_36_ ^ 2 ] >= 28192.23
quadratic_ranged_40_lb: [ 1 x_25_ ^ 2 - 2 x_36_ * x_25_ + 1 x_36_ ^ 2 + 1 y_25_ ^ 2 - 2 y_36_ * y_25_ + 1 y_36_ ^ 2 ] >= 18727.829999999998
quadratic_ranged_41_lb: [ 1 x_8_ ^ 2 - 2 x_37_ * x_8_ + 1 x_37_ ^ 2 + 1 y_8_ ^ 2 - 2 y_37_ * y_8_ + 1 y_37_ ^ 2 ] >= 15691.5
quadratic_ranged_42_lb: [ 1 x_13_ ^ 2 - 2 x_37_ * x_13_ + 1 x_37_ ^ 2 + 1 y_13_ ^ 2 - 2 y_37_ * y_13_ + 1 y_37_ ^ 2 ] >= 19166.4
quadratic_ranged_43_lb: [ 1 x_10_ ^ 2 - 2 x_38_ * x_10_ + 1 x_38_ ^ 2 + 1 y_10_ ^ 2 - 2 y_38_ * y_10_ + 1 y_38_ ^ 2 ] >= 15765.75
quadratic_ranged_44_lb: [ 1 x_29_ ^ 2 - 2 x_38_ * x_29_ + 1 x_38_ ^ 2 + 1 y_29_ ^ 2 - 2 y_38_ * y_29_ + 1 y_38_ ^ 2 ] >= 1942.3799999999999
quadratic_ranged_45_lb: [ 1 x_13_ ^ 2 - 2 x_39_ * x_13_ + 1 x_39_ ^ 2 + 1 y_13_ ^ 2 - 2 y_39_ * y_13_ + 1 y_39_ ^ 2 ] >= 4107.51
quadratic_ranged_46_lb: [ 1 x_15_ ^ 2 - 2 x_39_ * x_15_ + 1 x_39_ ^ 2 + 1 y_15_ ^ 2 - 2 y_39_ * y_15_ + 1 y_39_ ^ 2 ] >= 8822.88
quadratic_ranged_47_lb: [ 1 x_32_ ^ 2 - 2 x_39_ * x_32_ + 1 x_39_ ^ 2 + 1 y_32_ ^ 2 - 2 y_39_ * y_32_ + 1 y_39_ ^ 2 ] >= 10479.15
quadratic_ranged_48_lb: [ 1 x_19_ ^ 2 - 2 x_40_ * x_19_ + 1 x_40_ ^ 2 + 1 y_19_ ^ 2 - 2 y_40_ * y_19_ + 1 y_40_ ^ 2 ] >= 4661.91
quadratic_ranged_49_lb: [ 1 x_8_ ^ 2 - 2 x_41_ * x_8_ + 1 x_41_ ^ 2 + 1 y_8_ ^ 2 - 2 y_41_ * y_8_ + 1 y_41_ ^ 2 ] >= 4598.55
quadratic_ranged_50_lb: [ 1 x_14_ ^ 2 - 2 x_41_ * x_14_ + 1 x_41_ ^ 2 + 1 y_14_ ^ 2 - 2 y_41_ * y_14_ + 1 y_41_ ^ 2 ] >= 31984.92
quadratic_ranged_51_lb: [ 1 x_24_ ^ 2 - 2 x_41_ * x_24_ + 1 x_41_ ^ 2 + 1 y_24_ ^ 2 - 2 y_41_ * y_24_ + 1 y_41_ ^ 2 ] >= 22795.74
quadratic_ranged_52_lb: [ 1 x_17_ ^ 2 - 2 x_42_ * x_17_ + 1 x_42_ ^ 2 + 1 y_17_ ^ 2 - 2 y_42_ * y_17_ + 1 y_42_ ^ 2 ] >= 6111.2699999999995
quadratic_ranged_53_lb: [ 1 x_20_ ^ 2 - 2 x_42_ * x_20_ + 1 x_42_ ^ 2 + 1 y_20_ ^ 2 - 2 y_42_ * y_20_ + 1 y_42_ ^ 2 ] >= 4500.54
quadratic_ranged_54_lb: [ 1 x_40_ ^ 2 - 2 x_42_ * x_40_ + 1 x_42_ ^ 2 + 1 y_40_ ^ 2 - 2 y_42_ * y_40_ + 1 y_42_ ^ 2 ] >= 11694.87
quadratic_ranged_55_lb: [ 1 x_34_ ^ 2 - 2 x_43_ * x_34_ + 1 x_43_ ^ 2 + 1 y_34_ ^ 2 - 2 y_43_ * y_34_ + 1 y_43_ ^ 2 ] >= 31661.19
quadratic_ranged_56_lb: [ 1 x_6_ ^ 2 - 2 x_44_ * x_6_ + 1 x_44_ ^ 2 + 1 y_6_ ^ 2 - 2 y_44_ * y_6_ + 1 y_44_ ^ 2 ] >= 10078.2
quadratic_ranged_57_lb: [ 1 x_31_ ^ 2 - 2 x_44_ * x_31_ + 1 x_44_ ^ 2 + 1 y_31_ ^ 2 - 2 y_44_ * y_31_ + 1 y_44_ ^ 2 ] >= 1380.06
quadratic_ranged_58_lb: [ 1 x_12_ ^ 2 - 2 x_45_ * x_12_ + 1 x_45_ ^ 2 + 1 y_12_ ^ 2 - 2 y_45_ * y_12_ + 1 y_45_ ^ 2 ] >= 2143.35
quadratic_ranged_59_lb: [ 1 x_43_ ^ 2 - 2 x_45_ * x_43_ + 1 x_45_ ^ 2 + 1 y_43_ ^ 2 - 2 y_45_ * y_43_ + 1 y_45_ ^ 2 ] >= 287.1
quadratic_ranged_60_lb: [ 1 x_12_ ^ 2 - 2 x_46_ * x_12_ + 1 x_46_ ^ 2 + 1 y_12_ ^ 2 - 2 y_46_ * y_12_ + 1 y_46_ ^ 2 ] >= 26460.72
quadratic_ranged_61_lb: [ 1 x_16_ ^ 2 - 2 x_46_ * x_16_ + 1 x_46_ ^ 2 + 1 y_16_ ^ 2 - 2 y_46_ * y_16_ + 1 y_46_ ^ 2 ] >= 15567.75
quadratic_ranged_62_lb: [ 1 x_25_ ^ 2 - 2 x_47_ * x_25_ + 1 x_47_ ^ 2 + 1 y_25_ ^ 2 - 2 y_47_ * y_25_ + 1 y_47_ ^ 2 ] >= 22675.95
quadratic_ranged_63_lb: [ 1 x_11_ ^ 2 - 2 x_48_ * x_11_ + 1 x_48_ ^ 2 + 1 y_11_ ^ 2 - 2 y_48_ * y_11_ + 1 y_48_ ^ 2 ] >= 5791.5
quadratic_ranged_64_lb: [ 1 x_36_ ^ 2 - 2 x_48_ * x_36_ + 1 x_48_ ^ 2 + 1 y_36_ ^ 2 - 2 y_48_ * y_36_ + 1 y_48_ ^ 2 ] >= 5659.83
quadratic_ranged_65_lb: [ 1 x_45_ ^ 2 - 2 x_48_ * x_45_ + 1 x_48_ ^ 2 + 1 y_45_ ^ 2 - 2 y_48_ * y_45_ + 1 y_48_ ^ 2 ] >= 5727.15
quadratic_ranged_66_lb: [ 1 x_23_ ^ 2 - 2 x_49_ * x_23_ + 1 x_49_ ^ 2 + 1 y_23_ ^ 2 - 2 y_49_ * y_23_ + 1 y_49_ ^ 2 ] >= 1475.1
quadratic_ranged_67_lb: [ 1 x_24_ ^ 2 - 2 x_49_ * x_24_ + 1 x_49_ ^ 2 + 1 y_24_ ^ 2 - 2 y_49_ * y_24_ + 1 y_49_ ^ 2 ] >= 32380.92
quadratic_ranged_68_lb: [ 1 x_2_ ^ 2 - 2 x_50_ * x_2_ + 1 x_50_ ^ 2 + 1 y_2_ ^ 2 - 2 y_50_ * y_2_ + 1 y_50_ ^ 2 ] >= 38092.23
quadratic_ranged_69_lb: [ 1 x_21_ ^ 2 - 2 x_50_ * x_21_ + 1 x_50_ ^ 2 + 1 y_21_ ^ 2 - 2 y_50_ * y_21_ + 1 y_50_ ^ 2 ] >= 19968.3
quadratic_ranged_70_lb: [ 1 x_43_ ^ 2 - 2 x_50_ * x_43_ + 1 x_50_ ^ 2 + 1 y_43_ ^ 2 - 2 y_50_ * y_43_ + 1 y_50_ ^ 2 ] >= 32449.23
quadratic_ranged_71_lb: [ 1 x_18_ ^ 2 - 2 x_51_ * x_18_ + 1 x_51_ ^ 2 + 1 y_18_ ^ 2 - 2 y_51_ * y_18_ + 1 y_51_ ^ 2 ] >= 7860.6
quadratic_ranged_72_lb: [ 1 x_19_ ^ 2 - 2 x_51_ * x_19_ + 1 x_51_ ^ 2 + 1 y_19_ ^ 2 - 2 y_51_ * y_19_ + 1 y_51_ ^ 2 ] >= 2694.78
quadratic_ranged_73_lb: [ 1 x_33_ ^ 2 - 2 x_51_ * x_33_ + 1 x_51_ ^ 2 + 1 y_33_ ^ 2 - 2 y_51_ * y_33_ + 1 y_51_ ^ 2 ] >= 115.83
quadratic_ranged_74_lb: [ 1 x_4_ ^ 2 - 2 x_52_ * x_4_ + 1 x_52_ ^ 2 + 1 y_4_ ^ 2 - 2 y_52_ * y_4_ + 1 y_52_ ^ 2 ] >= 3841.2
quadratic_ranged_75_lb: [ 1 x_36_ ^ 2 - 2 x_52_ * x_36_ + 1 x_52_ ^ 2 + 1 y_36_ ^ 2 - 2 y_52_ * y_36_ + 1 y_52_ ^ 2 ] >= 11444.4
quadratic_ranged_76_lb: [ 1 x_20_ ^ 2 - 2 x_53_ * x_20_ + 1 x_53_ ^ 2 + 1 y_20_ ^ 2 - 2 y_53_ * y_20_ + 1 y_53_ ^ 2 ] >= 9243.63
quadratic_ranged_77_lb: [ 1 x_23_ ^ 2 - 2 x_53_ * x_23_ + 1 x_53_ ^ 2 + 1 y_23_ ^ 2 - 2 y_53_ * y_23_ + 1 y_53_ ^ 2 ] >= 10273.23
quadratic_ranged_78_lb: [ 1 x_5_ ^ 2 - 2 x_54_ * x_5_ + 1 x_54_ ^ 2 + 1 y_5_ ^ 2 - 2 y_54_ * y_5_ + 1 y_54_ ^ 2 ] >= 22299.75
quadratic_ranged_79_lb: [ 1 x_13_ ^ 2 - 2 x_54_ * x_13_ + 1 x_54_ ^ 2 + 1 y_13_ ^ 2 - 2 y_54_ * y_13_ + 1 y_54_ ^ 2 ] >= 3518.46
quadratic_ranged_80_lb: [ 1 x_6_ ^ 2 - 2 x_55_ * x_6_ + 1 x_55_ ^ 2 + 1 y_6_ ^ 2 - 2 y_55_ * y_6_ + 1 y_55_ ^ 2 ] >= 19060.47
quadratic_ranged_81_lb: [ 1 x_29_ ^ 2 - 2 x_55_ * x_29_ + 1 x_55_ ^ 2 + 1 y_29_ ^ 2 - 2 y_55_ * y_29_ + 1 y_55_ ^ 2 ] >= 8082.36
quadratic_ranged_82_lb: [ 1 x_30_ ^ 2 - 2 x_55_ * x_30_ + 1 x_55_ ^ 2 + 1 y_30_ ^ 2 - 2 y_55_ * y_30_ + 1 y_55_ ^ 2 ] >= 11892.87
quadratic_ranged_83_lb: [ 1 x_21_ ^ 2 - 2 x_56_ * x_21_ + 1 x_56_ ^ 2 + 1 y_21_ ^ 2 - 2 y_56_ * y_21_ + 1 y_56_ ^ 2 ] >= 14010.48
quadratic_ranged_84_lb: [ 1 x_9_ ^ 2 - 2 x_57_ * x_9_ + 1 x_57_ ^ 2 + 1 y_9_ ^ 2 - 2 y_57_ * y_9_ + 1 y_57_ ^ 2 ] >= 6027.12
quadratic_ranged_85_lb: [ 1 x_20_ ^ 2 - 2 x_57_ * x_20_ + 1 x_57_ ^ 2 + 1 y_20_ ^ 2 - 2 y_57_ * y_20_ + 1 y_57_ ^ 2 ] >= 10424.7
quadratic_ranged_86_lb: [ 1 x_16_ ^ 2 - 2 x_58_ * x_16_ + 1 x_58_ ^ 2 + 1 y_16_ ^ 2 - 2 y_58_ * y_16_ + 1 y_58_ ^ 2 ] >= 11596.86
quadratic_ranged_87_lb: [ 1 x_45_ ^ 2 - 2 x_58_ * x_45_ + 1 x_58_ ^ 2 + 1 y_45_ ^ 2 - 2 y_58_ * y_45_ + 1 y_58_ ^ 2 ] >= 4169.88
quadratic_ranged_88_lb: [ 1 x_7_ ^ 2 - 2 x_59_ * x_7_ + 1 x_59_ ^ 2 + 1 y_7_ ^ 2 - 2 y_59_ * y_7_ + 1 y_59_ ^ 2 ] >= 29567.34
quadratic_ranged_89_lb: [ 1 x_29_ ^ 2 - 2 x_59_ * x_29_ + 1 x_59_ ^ 2 + 1 y_29_ ^ 2 - 2 y_59_ * y_29_ + 1 y_59_ ^ 2 ] >= 2740.32
quadratic_ranged_90_lb: [ 1 x_3_ ^ 2 - 2 x_60_ * x_3_ + 1 x_60_ ^ 2 + 1 y_3_ ^ 2 - 2 y_60_ * y_3_ + 1 y_60_ ^ 2 ] >= 15493.5
quadratic_ranged_91_lb: [ 1 x_28_ ^ 2 - 2 x_60_ * x_28_ + 1 x_60_ ^ 2 + 1 y_28_ ^ 2 - 2 y_60_ * y_28_ + 1 y_60_ ^ 2 ] >= 11302.83
quadratic_ranged_92_lb: [ 1 x_46_ ^ 2 - 2 x_61_ * x_46_ + 1 x_61_ ^ 2 + 1 y_46_ ^ 2 - 2 y_61_ * y_46_ + 1 y_61_ ^ 2 ] >= 5838.03
quadratic_ranged_93_lb: [ 1 x_57_ ^ 2 - 2 x_61_ * x_57_ + 1 x_61_ ^ 2 + 1 y_57_ ^ 2 - 2 y_61_ * y_57_ + 1 y_61_ ^ 2 ] >= 11222.64
quadratic_ranged_94_lb: [ 1 x_27_ ^ 2 - 2 x_62_ * x_27_ + 1 x_62_ ^ 2 + 1 y_27_ ^ 2 - 2 y_62_ * y_27_ + 1 y_62_ ^ 2 ] >= 30432.6
quadratic_ranged_95_lb: [ 1 x_31_ ^ 2 - 2 x_62_ * x_31_ + 1 x_62_ ^ 2 + 1 y_31_ ^ 2 - 2 y_62_ * y_31_ + 1 y_62_ ^ 2 ] >= 35347.95
quadratic_ranged_96_lb: [ 1 x_57_ ^ 2 - 2 x_62_ * x_57_ + 1 x_62_ ^ 2 + 1 y_57_ ^ 2 - 2 y_62_ * y_57_ + 1 y_62_ ^ 2 ] >= 12929.4
quadratic_ranged_97_lb: [ 1 x_13_ ^ 2 - 2 x_63_ * x_13_ + 1 x_63_ ^ 2 + 1 y_13_ ^ 2 - 2 y_63_ * y_13_ + 1 y_63_ ^ 2 ] >= 7765.5599999999995
quadratic_ranged_98_lb: [ 1 x_28_ ^ 2 - 2 x_63_ * x_28_ + 1 x_63_ ^ 2 + 1 y_28_ ^ 2 - 2 y_63_ * y_28_ + 1 y_63_ ^ 2 ] >= 1298.8799999999999
quadratic_ranged_99_lb: [ 1 x_1_ ^ 2 - 2 x_64_ * x_1_ + 1 x_64_ ^ 2 + 1 y_1_ ^ 2 - 2 y_64_ * y_1_ + 1 y_64_ ^ 2 ] >= 5142.06
quadratic_ranged_100_lb: [ 1 x_14_ ^ 2 - 2 x_64_ * x_14_ + 1 x_64_ ^ 2 + 1 y_14_ ^ 2 - 2 y_64_ * y_14_ + 1 y_64_ ^ 2 ] >= 2697.75
quadratic_ranged_101_lb: [ 1 x_37_ ^ 2 - 2 x_64_ * x_37_ + 1 x_64_ ^ 2 + 1 y_37_ ^ 2 - 2 y_64_ * y_37_ + 1 y_64_ ^ 2 ] >= 29899.98
quadratic_ranged_102_lb: [ 1 x_4_ ^ 2 - 2 x_65_ * x_4_ + 1 x_65_ ^ 2 + 1 y_4_ ^ 2 - 2 y_65_ * y_4_ + 1 y_65_ ^ 2 ] >= 11148.39
quadratic_ranged_103_lb: [ 1 x_6_ ^ 2 - 2 x_65_ * x_6_ + 1 x_65_ ^ 2 + 1 y_6_ ^ 2 - 2 y_65_ * y_6_ + 1 y_65_ ^ 2 ] >= 2227.5
quadratic_ranged_104_lb: [ 1 x_51_ ^ 2 - 2 x_65_ * x_51_ + 1 x_65_ ^ 2 + 1 y_51_ ^ 2 - 2 y_65_ * y_51_ + 1 y_65_ ^ 2 ] >= 20818.71
quadratic_ranged_105_lb: [ 1 x_5_ ^ 2 - 2 x_66_ * x_5_ + 1 x_66_ ^ 2 + 1 y_5_ ^ 2 - 2 y_66_ * y_5_ + 1 y_66_ ^ 2 ] >= 3716.46
quadratic_ranged_106_lb: [ 1 x_52_ ^ 2 - 2 x_66_ * x_52_ + 1 x_66_ ^ 2 + 1 y_52_ ^ 2 - 2 y_66_ * y_52_ + 1 y_66_ ^ 2 ] >= 14543.1
quadratic_ranged_107_lb: [ 1 x_13_ ^ 2 - 2 x_67_ * x_13_ + 1 x_67_ ^ 2 + 1 y_13_ ^ 2 - 2 y_67_ * y_13_ + 1 y_67_ ^ 2 ] >= 15730.11
quadratic_ranged_108_lb: [ 1 x_29_ ^ 2 - 2 x_67_ * x_29_ + 1 x_67_ ^ 2 + 1 y_29_ ^ 2 - 2 y_67_ * y_29_ + 1 y_67_ ^ 2 ] >= 10393.02
quadratic_ranged_109_lb: [ 1 x_35_ ^ 2 - 2 x_67_ * x_35_ + 1 x_67_ ^ 2 + 1 y_35_ ^ 2 - 2 y_67_ * y_35_ + 1 y_67_ ^ 2 ] >= 1603.8
quadratic_ranged_110_lb: [ 1 x_22_ ^ 2 - 2 x_68_ * x_22_ + 1 x_68_ ^ 2 + 1 y_22_ ^ 2 - 2 y_68_ * y_22_ + 1 y_68_ ^ 2 ] >= 25238.07
quadratic_ranged_111_lb: [ 1 x_32_ ^ 2 - 2 x_68_ * x_32_ + 1 x_68_ ^ 2 + 1 y_32_ ^ 2 - 2 y_68_ * y_32_ + 1 y_68_ ^ 2 ] >= 30952.35
quadratic_ranged_112_lb: [ 1 x_41_ ^ 2 - 2 x_68_ * x_41_ + 1 x_68_ ^ 2 + 1 y_41_ ^ 2 - 2 y_68_ * y_41_ + 1 y_68_ ^ 2 ] >= 29977.2
quadratic_ranged_113_lb: [ 1 x_11_ ^ 2 - 2 x_69_ * x_11_ + 1 x_69_ ^ 2 + 1 y_11_ ^ 2 - 2 y_69_ * y_11_ + 1 y_69_ ^ 2 ] >= 1783.98
quadratic_ranged_114_lb: [ 1 x_25_ ^ 2 - 2 x_69_ * x_25_ + 1 x_69_ ^ 2 + 1 y_25_ ^ 2 - 2 y_69_ * y_25_ + 1 y_69_ ^ 2 ] >= 8017.0199999999995
quadratic_ranged_115_lb: [ 1 x_21_ ^ 2 - 2 x_70_ * x_21_ + 1 x_70_ ^ 2 + 1 y_21_ ^ 2 - 2 y_70_ * y_21_ + 1 y_70_ ^ 2 ] >= 21498.84
quadratic_ranged_116_lb: [ 1 x_52_ ^ 2 - 2 x_70_ * x_52_ + 1 x_70_ ^ 2 + 1 y_52_ ^ 2 - 2 y_70_ * y_52_ + 1 y_70_ ^ 2 ] >= 14890.59
quadratic_ranged_117_lb: [ 1 x_59_ ^ 2 - 2 x_70_ * x_59_ + 1 x_70_ ^ 2 + 1 y_59_ ^ 2 - 2 y_70_ * y_59_ + 1 y_70_ ^ 2 ] >= 16668.63
quadratic_ranged_118_lb: [ 1 x_9_ ^ 2 - 2 x_71_ * x_9_ + 1 x_71_ ^ 2 + 1 y_9_ ^ 2 - 2 y_71_ * y_9_ + 1 y_71_ ^ 2 ] >= 476.19
quadratic_ranged_119_lb: [ 1 x_28_ ^ 2 - 2 x_71_ * x_28_ + 1 x_71_ ^ 2 + 1 y_28_ ^ 2 - 2 y_71_ * y_28_ + 1 y_71_ ^ 2 ] >= 11792.88
quadratic_ranged_120_lb: [ 1 x_40_ ^ 2 - 2 x_71_ * x_40_ + 1 x_71_ ^ 2 + 1 y_40_ ^ 2 - 2 y_71_ * y_40_ + 1 y_71_ ^ 2 ] >= 4207.5
quadratic_ranged_121_lb: [ 1 x_19_ ^ 2 - 2 x_72_ * x_19_ + 1 x_72_ ^ 2 + 1 y_19_ ^ 2 - 2 y_72_ * y_19_ + 1 y_72_ ^ 2 ] >= 16776.54
quadratic_ranged_122_lb: [ 1 x_38_ ^ 2 - 2 x_72_ * x_38_ + 1 x_72_ ^ 2 + 1 y_38_ ^ 2 - 2 y_72_ * y_38_ + 1 y_72_ ^ 2 ] >= 2187.9
quadratic_ranged_123_lb: [ 1 x_51_ ^ 2 - 2 x_72_ * x_51_ + 1 x_72_ ^ 2 + 1 y_51_ ^ 2 - 2 y_72_ * y_51_ + 1 y_72_ ^ 2 ] >= 11816.64
quadratic_ranged_124_lb: [ 1 x_8_ ^ 2 - 2 x_73_ * x_8_ + 1 x_73_ ^ 2 + 1 y_8_ ^ 2 - 2 y_73_ * y_8_ + 1 y_73_ ^ 2 ] >= 34634.159999999996
quadratic_ranged_125_lb: [ 1 x_44_ ^ 2 - 2 x_73_ * x_44_ + 1 x_73_ ^ 2 + 1 y_44_ ^ 2 - 2 y_73_ * y_44_ + 1 y_73_ ^ 2 ] >= 4720.32
quadratic_ranged_126_lb: [ 1 x_14_ ^ 2 - 2 x_74_ * x_14_ + 1 x_74_ ^ 2 + 1 y_14_ ^ 2 - 2 y_74_ * y_14_ + 1 y_74_ ^ 2 ] >= 22417.56
quadratic_ranged_127_lb: [ 1 x_33_ ^ 2 - 2 x_74_ * x_33_ + 1 x_74_ ^ 2 + 1 y_33_ ^ 2 - 2 y_74_ * y_33_ + 1 y_74_ ^ 2 ] >= 5283.63
quadratic_ranged_128_lb: [ 1 x_13_ ^ 2 - 2 x_75_ * x_13_ + 1 x_75_ ^ 2 + 1 y_13_ ^ 2 - 2 y_75_ * y_13_ + 1 y_75_ ^ 2 ] >= 12855.15
quadratic_ranged_129_lb: [ 1 x_24_ ^ 2 - 2 x_75_ * x_24_ + 1 x_75_ ^ 2 + 1 y_24_ ^ 2 - 2 y_75_ * y_24_ + 1 y_75_ ^ 2 ] >= 20671.2
quadratic_ranged_130_lb: [ 1 x_63_ ^ 2 - 2 x_75_ * x_63_ + 1 x_75_ ^ 2 + 1 y_63_ ^ 2 - 2 y_75_ * y_63_ + 1 y_75_ ^ 2 ] >= 8867.43
quadratic_ranged_131_lb: [ 1 x_10_ ^ 2 - 2 x_76_ * x_10_ + 1 x_76_ ^ 2 + 1 y_10_ ^ 2 - 2 y_76_ * y_10_ + 1 y_76_ ^ 2 ] >= 14613.39
quadratic_ranged_132_lb: [ 1 x_46_ ^ 2 - 2 x_77_ * x_46_ + 1 x_77_ ^ 2 + 1 y_46_ ^ 2 - 2 y_77_ * y_46_ + 1 y_77_ ^ 2 ] >= 35311.32
quadratic_ranged_133_lb: [ 1 x_68_ ^ 2 - 2 x_77_ * x_68_ + 1 x_77_ ^ 2 + 1 y_68_ ^ 2 - 2 y_77_ * y_68_ + 1 y_77_ ^ 2 ] >= 34900.47
quadratic_ranged_134_lb: [ 1 x_69_ ^ 2 - 2 x_77_ * x_69_ + 1 x_77_ ^ 2 + 1 y_69_ ^ 2 - 2 y_77_ * y_69_ + 1 y_77_ ^ 2 ] >= 28545.66
quadratic_ranged_135_lb: [ 1 x_6_ ^ 2 - 2 x_78_ * x_6_ + 1 x_78_ ^ 2 + 1 y_6_ ^ 2 - 2 y_78_ * y_6_ + 1 y_78_ ^ 2 ] >= 5167.8
quadratic_ranged_136_lb: [ 1 x_32_ ^ 2 - 2 x_78_ * x_32_ + 1 x_78_ ^ 2 + 1 y_32_ ^ 2 - 2 y_78_ * y_32_ + 1 y_78_ ^ 2 ] >= 1530.54
quadratic_ranged_137_lb: [ 1 x_76_ ^ 2 - 2 x_78_ * x_76_ + 1 x_78_ ^ 2 + 1 y_76_ ^ 2 - 2 y_78_ * y_76_ + 1 y_78_ ^ 2 ] >= 1501.83
quadratic_ranged_138_lb: [ 1 x_12_ ^ 2 - 2 x_79_ * x_12_ + 1 x_79_ ^ 2 + 1 y_12_ ^ 2 - 2 y_79_ * y_12_ + 1 y_79_ ^ 2 ] >= 179.19
quadratic_ranged_139_lb: [ 1 x_22_ ^ 2 - 2 x_79_ * x_22_ + 1 x_79_ ^ 2 + 1 y_22_ ^ 2 - 2 y_79_ * y_22_ + 1 y_79_ ^ 2 ] >= 3683.79
quadratic_ranged_140_lb: [ 1 x_24_ ^ 2 - 2 x_79_ * x_24_ + 1 x_79_ ^ 2 + 1 y_24_ ^ 2 - 2 y_79_ * y_24_ + 1 y_79_ ^ 2 ] >= 269.28
quadratic_ranged_141_lb: [ 1 x_19_ ^ 2 - 2 x_80_ * x_19_ + 1 x_80_ ^ 2 + 1 y_19_ ^ 2 - 2 y_80_ * y_19_ + 1 y_80_ ^ 2 ] >= 20411.82
quadratic_ranged_142_lb: [ 1 x_33_ ^ 2 - 2 x_80_ * x_33_ + 1 x_80_ ^ 2 + 1 y_33_ ^ 2 - 2 y_80_ * y_33_ + 1 y_80_ ^ 2 ] >= 17868.51
quadratic_ranged_143_lb: [ 1 x_53_ ^ 2 - 2 x_80_ * x_53_ + 1 x_80_ ^ 2 + 1 y_53_ ^ 2 - 2 y_80_ * y_53_ + 1 y_80_ ^ 2 ] >= 3964.95
quadratic_ranged_144_lb: [ 1 x_15_ ^ 2 - 2 x_81_ * x_15_ + 1 x_81_ ^ 2 + 1 y_15_ ^ 2 - 2 y_81_ * y_15_ + 1 y_81_ ^ 2 ] >= 15611.31
quadratic_ranged_145_lb: [ 1 x_17_ ^ 2 - 2 x_81_ * x_17_ + 1 x_81_ ^ 2 + 1 y_17_ ^ 2 - 2 y_81_ * y_17_ + 1 y_81_ ^ 2 ] >= 7399.26
quadratic_ranged_146_lb: [ 1 x_54_ ^ 2 - 2 x_82_ * x_54_ + 1 x_82_ ^ 2 + 1 y_54_ ^ 2 - 2 y_82_ * y_54_ + 1 y_82_ ^ 2 ] >= 34409.43
quadratic_ranged_147_lb: [ 1 x_61_ ^ 2 - 2 x_82_ * x_61_ + 1 x_82_ ^ 2 + 1 y_61_ ^ 2 - 2 y_82_ * y_61_ + 1 y_82_ ^ 2 ] >= 19207.98
quadratic_ranged_148_lb: [ 1 x_70_ ^ 2 - 2 x_82_ * x_70_ + 1 x_82_ ^ 2 + 1 y_70_ ^ 2 - 2 y_82_ * y_70_ + 1 y_82_ ^ 2 ] >= 2008.71
quadratic_ranged_149_lb: [ 1 x_33_ ^ 2 - 2 x_83_ * x_33_ + 1 x_83_ ^ 2 + 1 y_33_ ^ 2 - 2 y_83_ * y_33_ + 1 y_83_ ^ 2 ] >= 16164.72
quadratic_ranged_150_lb: [ 1 x_36_ ^ 2 - 2 x_83_ * x_36_ + 1 x_83_ ^ 2 + 1 y_36_ ^ 2 - 2 y_83_ * y_36_ + 1 y_83_ ^ 2 ] >= 737.55
quadratic_ranged_151_lb: [ 1 x_40_ ^ 2 - 2 x_83_ * x_40_ + 1 x_83_ ^ 2 + 1 y_40_ ^ 2 - 2 y_83_ * y_40_ + 1 y_83_ ^ 2 ] >= 6945.84
quadratic_ranged_152_lb: [ 1 x_62_ ^ 2 - 2 x_84_ * x_62_ + 1 x_84_ ^ 2 + 1 y_62_ ^ 2 - 2 y_84_ * y_62_ + 1 y_84_ ^ 2 ] >= 32600.7
quadratic_ranged_153_lb: [ 1 x_68_ ^ 2 - 2 x_84_ * x_68_ + 1 x_84_ ^ 2 + 1 y_68_ ^ 2 - 2 y_84_ * y_68_ + 1 y_84_ ^ 2 ] >= 25383.6
quadratic_ranged_154_lb: [ 1 x_74_ ^ 2 - 2 x_84_ * x_74_ + 1 x_84_ ^ 2 + 1 y_74_ ^ 2 - 2 y_84_ * y_74_ + 1 y_84_ ^ 2 ] >= 35006.4
quadratic_ranged_155_lb: [ 1 x_13_ ^ 2 - 2 x_85_ * x_13_ + 1 x_85_ ^ 2 + 1 y_13_ ^ 2 - 2 y_85_ * y_13_ + 1 y_85_ ^ 2 ] >= 2329.47
quadratic_ranged_156_lb: [ 1 x_34_ ^ 2 - 2 x_86_ * x_34_ + 1 x_86_ ^ 2 + 1 y_34_ ^ 2 - 2 y_86_ * y_34_ + 1 y_86_ ^ 2 ] >= 912.78
quadratic_ranged_157_lb: [ 1 x_60_ ^ 2 - 2 x_86_ * x_60_ + 1 x_86_ ^ 2 + 1 y_60_ ^ 2 - 2 y_86_ * y_60_ + 1 y_86_ ^ 2 ] >= 29225.79
quadratic_ranged_158_lb: [ 1 x_21_ ^ 2 - 2 x_87_ * x_21_ + 1 x_87_ ^ 2 + 1 y_21_ ^ 2 - 2 y_87_ * y_21_ + 1 y_87_ ^ 2 ] >= 4397.58
quadratic_ranged_159_lb: [ 1 x_47_ ^ 2 - 2 x_87_ * x_47_ + 1 x_87_ ^ 2 + 1 y_47_ ^ 2 - 2 y_87_ * y_47_ + 1 y_87_ ^ 2 ] >= 52292.79
quadratic_ranged_160_lb: [ 1 x_58_ ^ 2 - 2 x_88_ * x_58_ + 1 x_88_ ^ 2 + 1 y_58_ ^ 2 - 2 y_88_ * y_58_ + 1 y_88_ ^ 2 ] >= 8236.8
quadratic_ranged_161_lb: [ 1 x_67_ ^ 2 - 2 x_88_ * x_67_ + 1 x_88_ ^ 2 + 1 y_67_ ^ 2 - 2 y_88_ * y_67_ + 1 y_88_ ^ 2 ] >= 9440.64
quadratic_ranged_162_lb: [ 1 x_81_ ^ 2 - 2 x_88_ * x_81_ + 1 x_88_ ^ 2 + 1 y_81_ ^ 2 - 2 y_88_ * y_81_ + 1 y_88_ ^ 2 ] >= 9516.87
quadratic_ranged_163_lb: [ 1 x_20_ ^ 2 - 2 x_89_ * x_20_ + 1 x_89_ ^ 2 + 1 y_20_ ^ 2 - 2 y_89_ * y_20_ + 1 y_89_ ^ 2 ] >= 15333.119999999999
quadratic_ranged_164_lb: [ 1 x_56_ ^ 2 - 2 x_89_ * x_56_ + 1 x_89_ ^ 2 + 1 y_56_ ^ 2 - 2 y_89_ * y_56_ + 1 y_89_ ^ 2 ] >= 3220.47
quadratic_ranged_165_lb: [ 1 x_69_ ^ 2 - 2 x_89_ * x_69_ + 1 x_89_ ^ 2 + 1 y_69_ ^ 2 - 2 y_89_ * y_69_ + 1 y_89_ ^ 2 ] >= 16537.95
quadratic_ranged_166_lb: [ 1 x_54_ ^ 2 - 2 x_90_ * x_54_ + 1 x_90_ ^ 2 + 1 y_54_ ^ 2 - 2 y_90_ * y_54_ + 1 y_90_ ^ 2 ] >= 2237.4
quadratic_ranged_167_lb: [ 1 x_73_ ^ 2 - 2 x_90_ * x_73_ + 1 x_90_ ^ 2 + 1 y_73_ ^ 2 - 2 y_90_ * y_73_ + 1 y_90_ ^ 2 ] >= 20853.36
quadratic_ranged_168_lb: [ 1 x_86_ ^ 2 - 2 x_90_ * x_86_ + 1 x_90_ ^ 2 + 1 y_86_ ^ 2 - 2 y_90_ * y_86_ + 1 y_90_ ^ 2 ] >= 23080.86
quadratic_ranged_169_lb: [ 1 x_5_ ^ 2 - 2 x_91_ * x_5_ + 1 x_91_ ^ 2 + 1 y_5_ ^ 2 - 2 y_91_ * y_5_ + 1 y_91_ ^ 2 ] >= 7684.38
quadratic_ranged_170_lb: [ 1 x_12_ ^ 2 - 2 x_91_ * x_12_ + 1 x_91_ ^ 2 + 1 y_12_ ^ 2 - 2 y_91_ * y_12_ + 1 y_91_ ^ 2 ] >= 28536.75
quadratic_ranged_171_lb: [ 1 x_79_ ^ 2 - 2 x_91_ * x_79_ + 1 x_91_ ^ 2 + 1 y_79_ ^ 2 - 2 y_91_ * y_79_ + 1 y_91_ ^ 2 ] >= 24433.2
quadratic_ranged_172_lb: [ 1 x_27_ ^ 2 - 2 x_92_ * x_27_ + 1 x_92_ ^ 2 + 1 y_27_ ^ 2 - 2 y_92_ * y_27_ + 1 y_92_ ^ 2 ] >= 37336.86
quadratic_ranged_173_lb: [ 1 x_47_ ^ 2 - 2 x_92_ * x_47_ + 1 x_92_ ^ 2 + 1 y_47_ ^ 2 - 2 y_92_ * y_47_ + 1 y_92_ ^ 2 ] >= 3383.82
quadratic_ranged_174_lb: [ 1 x_85_ ^ 2 - 2 x_92_ * x_85_ + 1 x_92_ ^ 2 + 1 y_85_ ^ 2 - 2 y_92_ * y_85_ + 1 y_92_ ^ 2 ] >= 10915.74
quadratic_ranged_175_lb: [ 1 x_41_ ^ 2 - 2 x_93_ * x_41_ + 1 x_93_ ^ 2 + 1 y_41_ ^ 2 - 2 y_93_ * y_41_ + 1 y_93_ ^ 2 ] >= 22996.71
quadratic_ranged_176_lb: [ 1 x_49_ ^ 2 - 2 x_93_ * x_49_ + 1 x_93_ ^ 2 + 1 y_49_ ^ 2 - 2 y_93_ * y_49_ + 1 y_93_ ^ 2 ] >= 2131.47
quadratic_ranged_177_lb: [ 1 x_87_ ^ 2 - 2 x_93_ * x_87_ + 1 x_93_ ^ 2 + 1 y_87_ ^ 2 - 2 y_93_ * y_87_ + 1 y_93_ ^ 2 ] >= 18453.6
quadratic_ranged_178_lb: [ 1 x_31_ ^ 2 - 2 x_94_ * x_31_ + 1 x_94_ ^ 2 + 1 y_31_ ^ 2 - 2 y_94_ * y_31_ + 1 y_94_ ^ 2 ] >= 44182.71
quadratic_ranged_179_lb: [ 1 x_56_ ^ 2 - 2 x_94_ * x_56_ + 1 x_94_ ^ 2 + 1 y_56_ ^ 2 - 2 y_94_ * y_56_ + 1 y_94_ ^ 2 ] >= 3826.35
quadratic_ranged_180_lb: [ 1 x_58_ ^ 2 - 2 x_94_ * x_58_ + 1 x_94_ ^ 2 + 1 y_58_ ^ 2 - 2 y_94_ * y_58_ + 1 y_94_ ^ 2 ] >= 6591.42
quadratic_ranged_181_lb: [ 1 x_50_ ^ 2 - 2 x_95_ * x_50_ + 1 x_95_ ^ 2 + 1 y_50_ ^ 2 - 2 y_95_ * y_50_ + 1 y_95_ ^ 2 ] >= 20823.66
quadratic_ranged_182_lb: [ 1 x_66_ ^ 2 - 2 x_95_ * x_66_ + 1 x_95_ ^ 2 + 1 y_66_ ^ 2 - 2 y_95_ * y_66_ + 1 y_95_ ^ 2 ] >= 38072.43
quadratic_ranged_183_lb: [ 1 x_76_ ^ 2 - 2 x_95_ * x_76_ + 1 x_95_ ^ 2 + 1 y_76_ ^ 2 - 2 y_95_ * y_76_ + 1 y_95_ ^ 2 ] >= 34251.03
quadratic_ranged_184_lb: [ 1 x_4_ ^ 2 - 2 x_96_ * x_4_ + 1 x_96_ ^ 2 + 1 y_4_ ^ 2 - 2 y_96_ * y_4_ + 1 y_96_ ^ 2 ] >= 10939.5
quadratic_ranged_185_lb: [ 1 x_6_ ^ 2 - 2 x_96_ * x_6_ + 1 x_96_ ^ 2 + 1 y_6_ ^ 2 - 2 y_96_ * y_6_ + 1 y_96_ ^ 2 ] >= 4.95
quadratic_ranged_186_lb: [ 1 x_22_ ^ 2 - 2 x_96_ * x_22_ + 1 x_96_ ^ 2 + 1 y_22_ ^ 2 - 2 y_96_ * y_22_ + 1 y_96_ ^ 2 ] >= 17385.39
quadratic_ranged_187_lb: [ 1 x_5_ ^ 2 - 2 x_97_ * x_5_ + 1 x_97_ ^ 2 + 1 y_5_ ^ 2 - 2 y_97_ * y_5_ + 1 y_97_ ^ 2 ] >= 345.51
quadratic_ranged_188_lb: [ 1 x_7_ ^ 2 - 2 x_97_ * x_7_ + 1 x_97_ ^ 2 + 1 y_7_ ^ 2 - 2 y_97_ * y_7_ + 1 y_97_ ^ 2 ] >= 6360.75
quadratic_ranged_189_lb: [ 1 x_34_ ^ 2 - 2 x_97_ * x_34_ + 1 x_97_ ^ 2 + 1 y_34_ ^ 2 - 2 y_97_ * y_34_ + 1 y_97_ ^ 2 ] >= 7367.58
quadratic_ranged_190_lb: [ 1 x_2_ ^ 2 - 2 x_98_ * x_2_ + 1 x_98_ ^ 2 + 1 y_2_ ^ 2 - 2 y_98_ * y_2_ + 1 y_98_ ^ 2 ] >= 17868.51
quadratic_ranged_191_lb: [ 1 x_28_ ^ 2 - 2 x_98_ * x_28_ + 1 x_98_ ^ 2 + 1 y_28_ ^ 2 - 2 y_98_ * y_28_ + 1 y_98_ ^ 2 ] >= 10559.34
quadratic_ranged_192_lb: [ 1 x_31_ ^ 2 - 2 x_98_ * x_31_ + 1 x_98_ ^ 2 + 1 y_31_ ^ 2 - 2 y_98_ * y_31_ + 1 y_98_ ^ 2 ] >= 1126.62
quadratic_ranged_193_lb: [ 1 x_69_ ^ 2 - 2 x_99_ * x_69_ + 1 x_99_ ^ 2 + 1 y_69_ ^ 2 - 2 y_99_ * y_69_ + 1 y_99_ ^ 2 ] >= 508.86
quadratic_ranged_194_lb: [ 1 x_77_ ^ 2 - 2 x_99_ * x_77_ + 1 x_99_ ^ 2 + 1 y_77_ ^ 2 - 2 y_99_ * y_77_ + 1 y_99_ ^ 2 ] >= 28512
quadratic_ranged_195_lb: [ 1 x_85_ ^ 2 - 2 x_99_ * x_85_ + 1 x_99_ ^ 2 + 1 y_85_ ^ 2 - 2 y_99_ * y_85_ + 1 y_99_ ^ 2 ] >= 14874.75
quadratic_ranged_196_lb: [ 1 x_20_ ^ 2 - 2 x_100_ * x_20_ + 1 x_100_ ^ 2 + 1 y_20_ ^ 2 - 2 y_100_ * y_20_ + 1 y_100_ ^ 2 ] >= 4801.5
quadratic_ranged_197_lb: [ 1 x_45_ ^ 2 - 2 x_100_ * x_45_ + 1 x_100_ ^ 2 + 1 y_45_ ^ 2 - 2 y_100_ * y_45_ + 1 y_100_ ^ 2 ] >= 3425.4
quadratic_ranged_198_lb: [ 1 x_73_ ^ 2 - 2 x_100_ * x_73_ + 1 x_100_ ^ 2 + 1 y_73_ ^ 2 - 2 y_100_ * y_73_ + 1 y_100_ ^ 2 ] >= 6606.2699999999995
c1_1: 1 x_11_ = -46
c2_1: 1 y_11_ = 21
c3_1: 1 x_24_ = -79
c4_1: 1 y_24_ = -59
c5_1: 1 x_35_ = 23
c6_1: 1 y_35_ = 37
Bounds
-44 <= x_1_ <= 80
-68 <= x_2_ <= 62
-68 <= x_3_ <= 80
-68 <= x_4_ <= 80
-68 <= x_5_ <= 80
-68 <= x_6_ <= 80
-68 <= x_7_ <= 80
-68 <= x_8_ <= 80
-25 <= x_9_ <= 61
-68 <= x_10_ <= 79
x_11_ = -46
-68 <= x_12_ <= -49
-68 <= x_13_ <= 80
-68 <= x_14_ <= 80
-68 <= x_15_ <= 80
-68 <= x_16_ <= 80
-68 <= x_17_ <= 80
-68 <= x_18_ <= 80
-68 <= x_19_ <= 80
-68 <= x_20_ <= -11
-68 <= x_21_ <= 80
-68 <= x_22_ <= -2
-68 <= x_23_ <= 80
-68 <= x_24_ <= -79
-68 <= x_25_ <= 80
-68 <= x_26_ <= 12
-68 <= x_27_ <= 80
-68 <= x_28_ <= 80
-68 <= x_29_ <= 80
-68 <= x_30_ <= 80
-68 <= x_31_ <= 80
-68 <= x_32_ <= 80
-68 <= x_33_ <= 80
-68 <= x_34_ <= 80
x_35_ = 23
-68 <= x_36_ <= 80
-68 <= x_37_ <= 80
-68 <= x_38_ <= 80
-68 <= x_39_ <= 80
-68 <= x_40_ <= 80
-68 <= x_41_ <= 73
-68 <= x_42_ <= 57
-68 <= x_43_ <= 14
-68 <= x_44_ <= 80
-68 <= x_45_ <= -3
-68 <= x_46_ <= 80
-68 <= x_47_ <= 80
-68 <= x_48_ <= 30
-68 <= x_49_ <= 80
-68 <= x_50_ <= 80
-68 <= x_51_ <= 80
-68 <= x_52_ <= 80
-68 <= x_53_ <= 80
-68 <= x_54_ <= 80
-68 <= x_55_ <= 80
-68 <= x_56_ <= 80
-68 <= x_57_ <= 80
-68 <= x_58_ <= 63
-68 <= x_59_ <= 80
-68 <= x_60_ <= 80
-68 <= x_61_ <= 80
-68 <= x_62_ <= 80
-68 <= x_63_ <= 80
-68 <= x_64_ <= 80
-68 <= x_65_ <= 80
-68 <= x_66_ <= 80
-17 <= x_67_ <= 63
-68 <= x_68_ <= 80
-68 <= x_69_ <= -4
-68 <= x_70_ <= 80
-47 <= x_71_ <= 80
-68 <= x_72_ <= 80
-68 <= x_73_ <= 80
-68 <= x_74_ <= 80
-68 <= x_75_ <= 66
-68 <= x_76_ <= 80
-68 <= x_77_ <= 80
-68 <= x_78_ <= 80
-68 <= x_79_ <= -63
-68 <= x_80_ <= 80
-68 <= x_81_ <= 80
-68 <= x_82_ <= 80
-68 <= x_83_ <= 80
-68 <= x_84_ <= 80
-68 <= x_85_ <= 80
-68 <= x_86_ <= 80
-68 <= x_87_ <= 80
-68 <= x_88_ <= 80
-68 <= x_89_ <= 80
-68 <= x_90_ <= 80
-68 <= x_91_ <= 80
-68 <= x_92_ <= 80
-68 <= x_93_ <= 80
-68 <= x_94_ <= 80
-68 <= x_95_ <= 80
-68 <= x_96_ <= 80
-68 <= x_97_ <= 80
-68 <= x_98_ <= 80
-68 <= x_99_ <= 19
-68 <= x_100_ <= 56
-30 <= y_1_ <= 84
-65 <= y_2_ <= 84
-65 <= y_3_ <= 84
-65 <= y_4_ <= 84
-65 <= y_5_ <= 84
-65 <= y_6_ <= 84
-65 <= y_7_ <= 84
-65 <= y_8_ <= 84
-11 <= y_9_ <= 84
-65 <= y_10_ <= 84
y_11_ = 21
-65 <= y_12_ <= -29
-65 <= y_13_ <= 84
-65 <= y_14_ <= 84
-65 <= y_15_ <= 84
-65 <= y_16_ <= 84
-65 <= y_17_ <= 84
-65 <= y_18_ <= 84
-65 <= y_19_ <= 84
-65 <= y_20_ <= 9
-65 <= y_21_ <= 84
-65 <= y_22_ <= 18
-65 <= y_23_ <= 84
y_24_ = -59
-65 <= y_25_ <= 84
-37 <= y_26_ <= 79
-65 <= y_27_ <= 84
-65 <= y_28_ <= 84
-65 <= y_29_ <= 84
-65 <= y_30_ <= 84
-65 <= y_31_ <= 84
-65 <= y_32_ <= 84
-65 <= y_33_ <= 84
-65 <= y_34_ <= 84
y_35_ = 37
-65 <= y_36_ <= 84
-65 <= y_37_ <= 84
-65 <= y_38_ <= 84
-65 <= y_39_ <= 84
-65 <= y_40_ <= 84
-65 <= y_41_ <= 84
-65 <= y_42_ <= 77
-65 <= y_43_ <= 34
-65 <= y_44_ <= 84
-65 <= y_45_ <= 17
-65 <= y_46_ <= 84
-65 <= y_47_ <= 84
-55 <= y_48_ <= 84
-65 <= y_49_ <= 84
-65 <= y_50_ <= 84
-65 <= y_51_ <= 84
-65 <= y_52_ <= 84
-65 <= y_53_ <= 84
-65 <= y_54_ <= 84
-65 <= y_55_ <= 84
-65 <= y_56_ <= 84
-65 <= y_57_ <= 84
-65 <= y_58_ <= 83
-65 <= y_59_ <= 84
-65 <= y_60_ <= 84
-65 <= y_61_ <= 84
-65 <= y_62_ <= 84
-65 <= y_63_ <= 84
-65 <= y_64_ <= 84
-65 <= y_65_ <= 84
-65 <= y_66_ <= 84
-3 <= y_67_ <= 77
-65 <= y_68_ <= 84
-21 <= y_69_ <= 63
-65 <= y_70_ <= 84
-33 <= y_71_ <= 84
-65 <= y_72_ <= 84
-65 <= y_73_ <= 84
-65 <= y_74_ <= 84
-65 <= y_75_ <= 84
-65 <= y_76_ <= 84
-65 <= y_77_ <= 84
-65 <= y_78_ <= 84
-65 <= y_79_ <= -43
-65 <= y_80_ <= 84
-65 <= y_81_ <= 84
-65 <= y_82_ <= 84
-65 <= y_83_ <= 84
-65 <= y_84_ <= 84
-65 <= y_85_ <= 84
-65 <= y_86_ <= 84
-65 <= y_87_ <= 84
-65 <= y_88_ <= 84
-65 <= y_89_ <= 84
-65 <= y_90_ <= 84
-65 <= y_91_ <= 84
-65 <= y_92_ <= 84
-65 <= y_93_ <= 84
-65 <= y_94_ <= 84
-65 <= y_95_ <= 84
-65 <= y_96_ <= 84
-65 <= y_97_ <= 84
-65 <= y_98_ <= 84
-44 <= y_99_ <= 84
-65 <= y_100_ <= 76
General
x_1_
x_2_
x_3_
x_4_
x_5_
x_6_
x_7_
x_8_
x_9_
x_10_
x_11_
x_12_
x_13_
x_14_
x_15_
x_16_
x_17_
x_18_
x_19_
x_20_
x_21_
x_22_
x_23_
x_24_
x_25_
x_26_
x_27_
x_28_
x_29_
x_30_
x_31_
x_32_
x_33_
x_34_
x_35_
x_36_
x_37_
x_38_
x_39_
x_40_
x_41_
x_42_
x_43_
x_44_
x_45_
x_46_
x_47_
x_48_
x_49_
x_50_
x_51_
x_52_
x_53_
x_54_
x_55_
x_56_
x_57_
x_58_
x_59_
x_60_
x_61_
x_62_
x_63_
x_64_
x_65_
x_66_
x_67_
x_68_
x_69_
x_70_
x_71_
x_72_
x_73_
x_74_
x_75_
x_76_
x_77_
x_78_
x_79_
x_80_
x_81_
x_82_
x_83_
x_84_
x_85_
x_86_
x_87_
x_88_
x_89_
x_90_
x_91_
x_92_
x_93_
x_94_
x_95_
x_96_
x_97_
x_98_
x_99_
x_100_
y_1_
y_2_
y_3_
y_4_
y_5_
y_6_
y_7_
y_8_
y_9_
y_10_
y_11_
y_12_
y_13_
y_14_
y_15_
y_16_
y_17_
y_18_
y_19_
y_20_
y_21_
y_22_
y_23_
y_24_
y_25_
y_26_
y_27_
y_28_
y_29_
y_30_
y_31_
y_32_
y_33_
y_34_
y_35_
y_36_
y_37_
y_38_
y_39_
y_40_
y_41_
y_42_
y_43_
y_44_
y_45_
y_46_
y_47_
y_48_
y_49_
y_50_
y_51_
y_52_
y_53_
y_54_
y_55_
y_56_
y_57_
y_58_
y_59_
y_60_
y_61_
y_62_
y_63_
y_64_
y_65_
y_66_
y_67_
y_68_
y_69_
y_70_
y_71_
y_72_
y_73_
y_74_
y_75_
y_76_
y_77_
y_78_
y_79_
y_80_
y_81_
y_82_
y_83_
y_84_
y_85_
y_86_
y_87_
y_88_
y_89_
y_90_
y_91_
y_92_
y_93_
y_94_
y_95_
y_96_
y_97_
y_98_
y_99_
y_100_
End
