minimize
obj: 
subject to
c1_3: -1 x_19_ + 1 y_19_ <= 0
c1: [ 1 x_1_ ^ 2 + 1 y_1_ ^ 2 ] <= 8494.099999999999
c2: [ 1 x_2_ ^ 2 + 1 y_2_ ^ 2 ] <= 12826.241966490168
c3: [ 1 x_3_ ^ 2 + 1 y_3_ ^ 2 ] <= 6590.249999999998
c4: [ 1 x_5_ ^ 2 + 1 y_5_ ^ 2 ] <= 24461.011920633544
c5: [ 1 x_6_ ^ 2 + 1 y_6_ ^ 2 ] <= 8894.828984240268
c6: [ 1 x_7_ ^ 2 + 1 y_7_ ^ 2 ] <= 27548.44617245746
c7: [ 1 x_8_ ^ 2 + 1 y_8_ ^ 2 ] <= 13034.049999999997
c8: [ 1 x_9_ ^ 2 + 1 y_9_ ^ 2 ] <= 1222.1
c9: [ 1 x_10_ ^ 2 + 1 y_10_ ^ 2 ] <= 42243.07670300303
c10: [ 1 x_11_ ^ 2 + 1 y_11_ ^ 2 ] <= 15297.459999999995
c11: [ 1 x_12_ ^ 2 + 1 y_12_ ^ 2 ] <= 17105.824306481016
c12: [ 1 x_13_ ^ 2 + 1 y_13_ ^ 2 ] <= 6434.175555821061
c13: [ 1 x_14_ ^ 2 + 1 y_14_ ^ 2 ] <= 1103.93
c14: [ 1 x_15_ ^ 2 + 1 y_15_ ^ 2 ] <= 18346.616657433475
c15: [ 1 x_16_ ^ 2 + 1 y_16_ ^ 2 ] <= 43013.66097467971
c16: [ 1 x_17_ ^ 2 + 1 y_17_ ^ 2 ] <= 48854.246170002734
c17: [ 1 x_18_ ^ 2 + 1 y_18_ ^ 2 ] <= 37269.48492863668
c18: [ 1 x_19_ ^ 2 + 1 y_19_ ^ 2 ] <= 58998.73609914366
c19: [ 1 x_20_ ^ 2 + 1 y_20_ ^ 2 ] <= 28426.62738239594
quadratic_ranged_1_ub: [ 1 x_3_ ^ 2 - 2 x_4_ * x_3_ + 1 x_4_ ^ 2 + 1 y_3_ ^ 2 - 2 y_4_ * y_3_ + 1 y_4_ ^ 2 ] <= 6590.25
quadratic_ranged_2_ub: [ 1 x_2_ ^ 2 - 2 x_5_ * x_2_ + 1 x_5_ ^ 2 + 1 y_2_ ^ 2 - 2 y_5_ * y_2_ + 1 y_5_ ^ 2 ] <= 33916.81
quadratic_ranged_3_ub: [ 1 x_3_ ^ 2 - 2 x_5_ * x_3_ + 1 x_5_ ^ 2 + 1 y_3_ ^ 2 - 2 y_5_ * y_3_ + 1 y_5_ ^ 2 ] <= 5658.02
quadratic_ranged_4_ub: [ 1 x_1_ ^ 2 - 2 x_6_ * x_1_ + 1 x_6_ ^ 2 + 1 y_1_ ^ 2 - 2 y_6_ * y_1_ + 1 y_6_ ^ 2 ] <= 105.04
quadratic_ranged_5_ub: [ 1 x_6_ ^ 2 - 2 x_7_ * x_6_ + 1 x_7_ ^ 2 + 1 y_6_ ^ 2 - 2 y_7_ * y_6_ + 1 y_7_ ^ 2 ] <= 5135.85
quadratic_ranged_6_ub: [ 1 x_4_ ^ 2 - 2 x_8_ * x_4_ + 1 x_8_ ^ 2 + 1 y_4_ ^ 2 - 2 y_8_ * y_4_ + 1 y_8_ ^ 2 ] <= 13034.05
quadratic_ranged_7_ub: [ 1 x_1_ ^ 2 - 2 x_9_ * x_1_ + 1 x_9_ ^ 2 + 1 y_1_ ^ 2 - 2 y_9_ * y_1_ + 1 y_9_ ^ 2 ] <= 3272.4
quadratic_ranged_8_ub: [ 1 x_4_ ^ 2 - 2 x_9_ * x_4_ + 1 x_9_ ^ 2 + 1 y_4_ ^ 2 - 2 y_9_ * y_4_ + 1 y_9_ ^ 2 ] <= 1222.1
quadratic_ranged_9_ub: [ 1 x_6_ ^ 2 - 2 x_9_ * x_6_ + 1 x_9_ ^ 2 + 1 y_6_ ^ 2 - 2 y_9_ * y_6_ + 1 y_9_ ^ 2 ] <= 3522.88
quadratic_ranged_10_ub: [ 1 x_1_ ^ 2 - 2 x_10_ * x_1_ + 1 x_10_ ^ 2 + 1 y_1_ ^ 2 - 2 y_10_ * y_1_ + 1 y_10_ ^ 2 ] <= 12852.25
quadratic_ranged_11_ub: [ 1 x_7_ ^ 2 - 2 x_10_ * x_7_ + 1 x_10_ ^ 2 + 1 y_7_ ^ 2 - 2 y_10_ * y_7_ + 1 y_10_ ^ 2 ] <= 30873.68
quadratic_ranged_12_ub: [ 1 x_4_ ^ 2 - 2 x_11_ * x_4_ + 1 x_11_ ^ 2 + 1 y_4_ ^ 2 - 2 y_11_ * y_4_ + 1 y_11_ ^ 2 ] <= 15297.460000000001
quadratic_ranged_13_ub: [ 1 x_6_ ^ 2 - 2 x_11_ * x_6_ + 1 x_11_ ^ 2 + 1 y_6_ ^ 2 - 2 y_11_ * y_6_ + 1 y_11_ ^ 2 ] <= 6924.56
quadratic_ranged_14_ub: [ 1 x_8_ ^ 2 - 2 x_11_ * x_8_ + 1 x_11_ ^ 2 + 1 y_8_ ^ 2 - 2 y_11_ * y_8_ + 1 y_11_ ^ 2 ] <= 23647.13
quadratic_ranged_15_ub: [ 1 x_1_ ^ 2 - 2 x_12_ * x_1_ + 1 x_12_ ^ 2 + 1 y_1_ ^ 2 - 2 y_12_ * y_1_ + 1 y_12_ ^ 2 ] <= 7104.34
quadratic_ranged_16_ub: [ 1 x_11_ ^ 2 - 2 x_12_ * x_11_ + 1 x_12_ ^ 2 + 1 y_11_ ^ 2 - 2 y_12_ * y_11_ + 1 y_12_ ^ 2 ] <= 50.5
quadratic_ranged_17_ub: [ 1 x_6_ ^ 2 - 2 x_13_ * x_6_ + 1 x_13_ ^ 2 + 1 y_6_ ^ 2 - 2 y_13_ * y_6_ + 1 y_13_ ^ 2 ] <= 4428.85
quadratic_ranged_18_ub: [ 1 x_10_ ^ 2 - 2 x_13_ * x_10_ + 1 x_13_ ^ 2 + 1 y_10_ ^ 2 - 2 y_13_ * y_10_ + 1 y_13_ ^ 2 ] <= 30116.18
quadratic_ranged_19_ub: [ 1 x_2_ ^ 2 - 2 x_14_ * x_2_ + 1 x_14_ ^ 2 + 1 y_2_ ^ 2 - 2 y_14_ * y_2_ + 1 y_14_ ^ 2 ] <= 6404.41
quadratic_ranged_20_ub: [ 1 x_4_ ^ 2 - 2 x_14_ * x_4_ + 1 x_14_ ^ 2 + 1 y_4_ ^ 2 - 2 y_14_ * y_4_ + 1 y_14_ ^ 2 ] <= 1103.93
quadratic_ranged_21_ub: [ 1 x_13_ ^ 2 - 2 x_14_ * x_13_ + 1 x_14_ ^ 2 + 1 y_13_ ^ 2 - 2 y_14_ * y_13_ + 1 y_14_ ^ 2 ] <= 2207.86
quadratic_ranged_22_ub: [ 1 x_3_ ^ 2 - 2 x_15_ * x_3_ + 1 x_15_ ^ 2 + 1 y_3_ ^ 2 - 2 y_15_ * y_3_ + 1 y_15_ ^ 2 ] <= 2945.16
quadratic_ranged_23_ub: [ 1 x_7_ ^ 2 - 2 x_15_ * x_7_ + 1 x_15_ ^ 2 + 1 y_7_ ^ 2 - 2 y_15_ * y_7_ + 1 y_15_ ^ 2 ] <= 4306.64
quadratic_ranged_24_ub: [ 1 x_8_ ^ 2 - 2 x_15_ * x_8_ + 1 x_15_ ^ 2 + 1 y_8_ ^ 2 - 2 y_15_ * y_8_ + 1 y_15_ ^ 2 ] <= 18054.76
quadratic_ranged_25_ub: [ 1 x_3_ ^ 2 - 2 x_16_ * x_3_ + 1 x_16_ ^ 2 + 1 y_3_ ^ 2 - 2 y_16_ * y_3_ + 1 y_16_ ^ 2 ] <= 15930.73
quadratic_ranged_26_ub: [ 1 x_10_ ^ 2 - 2 x_16_ * x_10_ + 1 x_16_ ^ 2 + 1 y_10_ ^ 2 - 2 y_16_ * y_10_ + 1 y_16_ ^ 2 ] <= 27246.77
quadratic_ranged_27_ub: [ 1 x_2_ ^ 2 - 2 x_17_ * x_2_ + 1 x_17_ ^ 2 + 1 y_2_ ^ 2 - 2 y_17_ * y_2_ + 1 y_17_ ^ 2 ] <= 20541.38
quadratic_ranged_28_ub: [ 1 x_13_ ^ 2 - 2 x_17_ * x_13_ + 1 x_17_ ^ 2 + 1 y_13_ ^ 2 - 2 y_17_ * y_13_ + 1 y_17_ ^ 2 ] <= 19829.33
quadratic_ranged_29_ub: [ 1 x_15_ ^ 2 - 2 x_17_ * x_15_ + 1 x_17_ ^ 2 + 1 y_15_ ^ 2 - 2 y_17_ * y_15_ + 1 y_17_ ^ 2 ] <= 12771.45
quadratic_ranged_30_ub: [ 1 x_2_ ^ 2 - 2 x_18_ * x_2_ + 1 x_18_ ^ 2 + 1 y_2_ ^ 2 - 2 y_18_ * y_2_ + 1 y_18_ ^ 2 ] <= 6368.05
quadratic_ranged_31_ub: [ 1 x_8_ ^ 2 - 2 x_18_ * x_8_ + 1 x_18_ ^ 2 + 1 y_8_ ^ 2 - 2 y_18_ * y_8_ + 1 y_18_ ^ 2 ] <= 6764.9800000000005
quadratic_ranged_32_ub: [ 1 x_17_ ^ 2 - 2 x_18_ * x_17_ + 1 x_18_ ^ 2 + 1 y_17_ ^ 2 - 2 y_18_ * y_17_ + 1 y_18_ ^ 2 ] <= 5600.45
quadratic_ranged_33_ub: [ 1 x_7_ ^ 2 - 2 x_19_ * x_7_ + 1 x_19_ ^ 2 + 1 y_7_ ^ 2 - 2 y_19_ * y_7_ + 1 y_19_ ^ 2 ] <= 5916.58
quadratic_ranged_34_ub: [ 1 x_10_ ^ 2 - 2 x_19_ * x_10_ + 1 x_19_ ^ 2 + 1 y_10_ ^ 2 - 2 y_19_ * y_10_ + 1 y_19_ ^ 2 ] <= 9948.5
quadratic_ranged_35_ub: [ 1 x_16_ ^ 2 - 2 x_19_ * x_16_ + 1 x_19_ ^ 2 + 1 y_16_ ^ 2 - 2 y_19_ * y_16_ + 1 y_19_ ^ 2 ] <= 11167.57
quadratic_ranged_36_ub: [ 1 x_1_ ^ 2 - 2 x_20_ * x_1_ + 1 x_20_ ^ 2 + 1 y_1_ ^ 2 - 2 y_20_ * y_1_ + 1 y_20_ ^ 2 ] <= 5842.85
quadratic_ranged_37_ub: [ 1 x_5_ ^ 2 - 2 x_20_ * x_5_ + 1 x_20_ ^ 2 + 1 y_5_ ^ 2 - 2 y_20_ * y_5_ + 1 y_20_ ^ 2 ] <= 35061.14
quadratic_ranged_38_ub: [ 1 x_12_ ^ 2 - 2 x_20_ * x_12_ + 1 x_20_ ^ 2 + 1 y_12_ ^ 2 - 2 y_20_ * y_12_ + 1 y_20_ ^ 2 ] <= 25598.45
c1_2: 1 x_19_ >= 0
c2_2: 1 y_19_ >= 0
quadratic_ranged_1_lb: [ 1 x_3_ ^ 2 - 2 x_4_ * x_3_ + 1 x_4_ ^ 2 + 1 y_3_ ^ 2 - 2 y_4_ * y_3_ + 1 y_4_ ^ 2 ] >= 6459.75
quadratic_ranged_2_lb: [ 1 x_2_ ^ 2 - 2 x_5_ * x_2_ + 1 x_5_ ^ 2 + 1 y_2_ ^ 2 - 2 y_5_ * y_2_ + 1 y_5_ ^ 2 ] >= 33245.19
quadratic_ranged_3_lb: [ 1 x_3_ ^ 2 - 2 x_5_ * x_3_ + 1 x_5_ ^ 2 + 1 y_3_ ^ 2 - 2 y_5_ * y_3_ + 1 y_5_ ^ 2 ] >= 5545.98
quadratic_ranged_4_lb: [ 1 x_1_ ^ 2 - 2 x_6_ * x_1_ + 1 x_6_ ^ 2 + 1 y_1_ ^ 2 - 2 y_6_ * y_1_ + 1 y_6_ ^ 2 ] >= 102.96
quadratic_ranged_5_lb: [ 1 x_6_ ^ 2 - 2 x_7_ * x_6_ + 1 x_7_ ^ 2 + 1 y_6_ ^ 2 - 2 y_7_ * y_6_ + 1 y_7_ ^ 2 ] >= 5034.15
quadratic_ranged_6_lb: [ 1 x_4_ ^ 2 - 2 x_8_ * x_4_ + 1 x_8_ ^ 2 + 1 y_4_ ^ 2 - 2 y_8_ * y_4_ + 1 y_8_ ^ 2 ] >= 12775.95
quadratic_ranged_7_lb: [ 1 x_1_ ^ 2 - 2 x_9_ * x_1_ + 1 x_9_ ^ 2 + 1 y_1_ ^ 2 - 2 y_9_ * y_1_ + 1 y_9_ ^ 2 ] >= 3207.6
quadratic_ranged_8_lb: [ 1 x_4_ ^ 2 - 2 x_9_ * x_4_ + 1 x_9_ ^ 2 + 1 y_4_ ^ 2 - 2 y_9_ * y_4_ + 1 y_9_ ^ 2 ] >= 1197.9
quadratic_ranged_9_lb: [ 1 x_6_ ^ 2 - 2 x_9_ * x_6_ + 1 x_9_ ^ 2 + 1 y_6_ ^ 2 - 2 y_9_ * y_6_ + 1 y_9_ ^ 2 ] >= 3453.12
quadratic_ranged_10_lb: [ 1 x_1_ ^ 2 - 2 x_10_ * x_1_ + 1 x_10_ ^ 2 + 1 y_1_ ^ 2 - 2 y_10_ * y_1_ + 1 y_10_ ^ 2 ] >= 12597.75
quadratic_ranged_11_lb: [ 1 x_7_ ^ 2 - 2 x_10_ * x_7_ + 1 x_10_ ^ 2 + 1 y_7_ ^ 2 - 2 y_10_ * y_7_ + 1 y_10_ ^ 2 ] >= 30262.32
quadratic_ranged_12_lb: [ 1 x_4_ ^ 2 - 2 x_11_ * x_4_ + 1 x_11_ ^ 2 + 1 y_4_ ^ 2 - 2 y_11_ * y_4_ + 1 y_11_ ^ 2 ] >= 14994.539999999999
quadratic_ranged_13_lb: [ 1 x_6_ ^ 2 - 2 x_11_ * x_6_ + 1 x_11_ ^ 2 + 1 y_6_ ^ 2 - 2 y_11_ * y_6_ + 1 y_11_ ^ 2 ] >= 6787.44
quadratic_ranged_14_lb: [ 1 x_8_ ^ 2 - 2 x_11_ * x_8_ + 1 x_11_ ^ 2 + 1 y_8_ ^ 2 - 2 y_11_ * y_8_ + 1 y_11_ ^ 2 ] >= 23178.87
quadratic_ranged_15_lb: [ 1 x_1_ ^ 2 - 2 x_12_ * x_1_ + 1 x_12_ ^ 2 + 1 y_1_ ^ 2 - 2 y_12_ * y_1_ + 1 y_12_ ^ 2 ] >= 6963.66
quadratic_ranged_16_lb: [ 1 x_11_ ^ 2 - 2 x_12_ * x_11_ + 1 x_12_ ^ 2 + 1 y_11_ ^ 2 - 2 y_12_ * y_11_ + 1 y_12_ ^ 2 ] >= 49.5
quadratic_ranged_17_lb: [ 1 x_6_ ^ 2 - 2 x_13_ * x_6_ + 1 x_13_ ^ 2 + 1 y_6_ ^ 2 - 2 y_13_ * y_6_ + 1 y_13_ ^ 2 ] >= 4341.15
quadratic_ranged_18_lb: [ 1 x_10_ ^ 2 - 2 x_13_ * x_10_ + 1 x_13_ ^ 2 + 1 y_10_ ^ 2 - 2 y_13_ * y_10_ + 1 y_13_ ^ 2 ] >= 29519.82
quadratic_ranged_19_lb: [ 1 x_2_ ^ 2 - 2 x_14_ * x_2_ + 1 x_14_ ^ 2 + 1 y_2_ ^ 2 - 2 y_14_ * y_2_ + 1 y_14_ ^ 2 ] >= 6277.59
quadratic_ranged_20_lb: [ 1 x_4_ ^ 2 - 2 x_14_ * x_4_ + 1 x_14_ ^ 2 + 1 y_4_ ^ 2 - 2 y_14_ * y_4_ + 1 y_14_ ^ 2 ] >= 1082.07
quadratic_ranged_21_lb: [ 1 x_13_ ^ 2 - 2 x_14_ * x_13_ + 1 x_14_ ^ 2 + 1 y_13_ ^ 2 - 2 y_14_ * y_13_ + 1 y_14_ ^ 2 ] >= 2164.14
quadratic_ranged_22_lb: [ 1 x_3_ ^ 2 - 2 x_15_ * x_3_ + 1 x_15_ ^ 2 + 1 y_3_ ^ 2 - 2 y_15_ * y_3_ + 1 y_15_ ^ 2 ] >= 2886.84
quadratic_ranged_23_lb: [ 1 x_7_ ^ 2 - 2 x_15_ * x_7_ + 1 x_15_ ^ 2 + 1 y_7_ ^ 2 - 2 y_15_ * y_7_ + 1 y_15_ ^ 2 ] >= 4221.36
quadratic_ranged_24_lb: [ 1 x_8_ ^ 2 - 2 x_15_ * x_8_ + 1 x_15_ ^ 2 + 1 y_8_ ^ 2 - 2 y_15_ * y_8_ + 1 y_15_ ^ 2 ] >= 17697.24
quadratic_ranged_25_lb: [ 1 x_3_ ^ 2 - 2 x_16_ * x_3_ + 1 x_16_ ^ 2 + 1 y_3_ ^ 2 - 2 y_16_ * y_3_ + 1 y_16_ ^ 2 ] >= 15615.27
quadratic_ranged_26_lb: [ 1 x_10_ ^ 2 - 2 x_16_ * x_10_ + 1 x_16_ ^ 2 + 1 y_10_ ^ 2 - 2 y_16_ * y_10_ + 1 y_16_ ^ 2 ] >= 26707.23
quadratic_ranged_27_lb: [ 1 x_2_ ^ 2 - 2 x_17_ * x_2_ + 1 x_17_ ^ 2 + 1 y_2_ ^ 2 - 2 y_17_ * y_2_ + 1 y_17_ ^ 2 ] >= 20134.62
quadratic_ranged_28_lb: [ 1 x_13_ ^ 2 - 2 x_17_ * x_13_ + 1 x_17_ ^ 2 + 1 y_13_ ^ 2 - 2 y_17_ * y_13_ + 1 y_17_ ^ 2 ] >= 19436.67
quadratic_ranged_29_lb: [ 1 x_15_ ^ 2 - 2 x_17_ * x_15_ + 1 x_17_ ^ 2 + 1 y_15_ ^ 2 - 2 y_17_ * y_15_ + 1 y_17_ ^ 2 ] >= 12518.55
quadratic_ranged_30_lb: [ 1 x_2_ ^ 2 - 2 x_18_ * x_2_ + 1 x_18_ ^ 2 + 1 y_2_ ^ 2 - 2 y_18_ * y_2_ + 1 y_18_ ^ 2 ] >= 6241.95
quadratic_ranged_31_lb: [ 1 x_8_ ^ 2 - 2 x_18_ * x_8_ + 1 x_18_ ^ 2 + 1 y_8_ ^ 2 - 2 y_18_ * y_8_ + 1 y_18_ ^ 2 ] >= 6631.0199999999995
quadratic_ranged_32_lb: [ 1 x_17_ ^ 2 - 2 x_18_ * x_17_ + 1 x_18_ ^ 2 + 1 y_17_ ^ 2 - 2 y_18_ * y_17_ + 1 y_18_ ^ 2 ] >= 5489.55
quadratic_ranged_33_lb: [ 1 x_7_ ^ 2 - 2 x_19_ * x_7_ + 1 x_19_ ^ 2 + 1 y_7_ ^ 2 - 2 y_19_ * y_7_ + 1 y_19_ ^ 2 ] >= 5799.42
quadratic_ranged_34_lb: [ 1 x_10_ ^ 2 - 2 x_19_ * x_10_ + 1 x_19_ ^ 2 + 1 y_10_ ^ 2 - 2 y_19_ * y_10_ + 1 y_19_ ^ 2 ] >= 9751.5
quadratic_ranged_35_lb: [ 1 x_16_ ^ 2 - 2 x_19_ * x_16_ + 1 x_19_ ^ 2 + 1 y_16_ ^ 2 - 2 y_19_ * y_16_ + 1 y_19_ ^ 2 ] >= 10946.43
quadratic_ranged_36_lb: [ 1 x_1_ ^ 2 - 2 x_20_ * x_1_ + 1 x_20_ ^ 2 + 1 y_1_ ^ 2 - 2 y_20_ * y_1_ + 1 y_20_ ^ 2 ] >= 5727.15
quadratic_ranged_37_lb: [ 1 x_5_ ^ 2 - 2 x_20_ * x_5_ + 1 x_20_ ^ 2 + 1 y_5_ ^ 2 - 2 y_20_ * y_5_ + 1 y_20_ ^ 2 ] >= 34366.86
quadratic_ranged_38_lb: [ 1 x_12_ ^ 2 - 2 x_20_ * x_12_ + 1 x_20_ ^ 2 + 1 y_12_ ^ 2 - 2 y_20_ * y_12_ + 1 y_20_ ^ 2 ] >= 25091.55
c1_1: 1 x_4_ = 0
c2_1: 1 y_4_ = 0
Bounds
-70 <= x_1_ <= 51
-70 <= x_2_ <= 51
-70 <= x_3_ <= 51
x_4_ = 0
-70 <= x_5_ <= 51
-70 <= x_6_ <= 51
-70 <= x_7_ <= 51
-70 <= x_8_ <= 51
-34 <= x_9_ <= 34
-70 <= x_10_ <= 51
-70 <= x_11_ <= 51
-70 <= x_12_ <= 51
-70 <= x_13_ <= 51
-33 <= x_14_ <= 33
-70 <= x_15_ <= 51
-70 <= x_16_ <= 51
-70 <= x_17_ <= 51
-70 <= x_18_ <= 51
-70 <= x_19_ <= 51
-70 <= x_20_ <= 51
-36 <= y_1_ <= 92
-36 <= y_2_ <= 103
-36 <= y_3_ <= 81
y_4_ = 0
-36 <= y_5_ <= 103
-36 <= y_6_ <= 94
-36 <= y_7_ <= 103
-36 <= y_8_ <= 103
-34 <= y_9_ <= 34
-36 <= y_10_ <= 103
-36 <= y_11_ <= 103
-36 <= y_12_ <= 103
-36 <= y_13_ <= 80
-33 <= y_14_ <= 33
-36 <= y_15_ <= 103
-36 <= y_16_ <= 103
-36 <= y_17_ <= 103
-36 <= y_18_ <= 103
-36 <= y_19_ <= 103
-36 <= y_20_ <= 103
General
x_1_
x_2_
x_3_
x_4_
x_5_
x_6_
x_7_
x_8_
x_9_
x_10_
x_11_
x_12_
x_13_
x_14_
x_15_
x_16_
x_17_
x_18_
x_19_
x_20_
y_1_
y_2_
y_3_
y_4_
y_5_
y_6_
y_7_
y_8_
y_9_
y_10_
y_11_
y_12_
y_13_
y_14_
y_15_
y_16_
y_17_
y_18_
y_19_
y_20_
End
