minimize
obj: 
subject to
c1: -34 x_1_ - 22 y_1_ + [ 1 x_1_ ^ 2 + 1 y_1_ ^ 2 ] <= 31996.124688233824
c2: -34 x_2_ - 22 y_2_ + [ 1 x_2_ ^ 2 + 1 y_2_ ^ 2 ] <= 74049.32594121632
c3: -34 x_3_ - 22 y_3_ + [ 1 x_3_ ^ 2 + 1 y_3_ ^ 2 ] <= 75674.40952536056
c4: -34 x_4_ - 22 y_4_ + [ 1 x_4_ ^ 2 + 1 y_4_ ^ 2 ] <= 86556.41956553477
c5: -34 x_5_ - 22 y_5_ + [ 1 x_5_ ^ 2 + 1 y_5_ ^ 2 ] <= 50599.06754543918
c6: -34 x_6_ - 22 y_6_ + [ 1 x_6_ ^ 2 + 1 y_6_ ^ 2 ] <= 86910.55769781081
c7: -34 x_7_ - 22 y_7_ + [ 1 x_7_ ^ 2 + 1 y_7_ ^ 2 ] <= 113412.47000161439
c8: -34 x_8_ - 22 y_8_ + [ 1 x_8_ ^ 2 + 1 y_8_ ^ 2 ] <= 145788.0481538983
c9: -34 x_9_ - 22 y_9_ + [ 1 x_9_ ^ 2 + 1 y_9_ ^ 2 ] <= 40451.245743776715
c10: -34 x_10_ - 22 y_10_ + [ 1 x_10_ ^ 2 + 1 y_10_ ^ 2 ] <= 19406.47255820446
c11: -34 x_11_ - 22 y_11_ + [ 1 x_11_ ^ 2 + 1 y_11_ ^ 2 ] <= 19862.289636615
c12: -34 x_12_ - 22 y_12_ + [ 1 x_12_ ^ 2 + 1 y_12_ ^ 2 ] <= 149481.69958319116
c13: -34 x_13_ - 22 y_13_ + [ 1 x_13_ ^ 2 + 1 y_13_ ^ 2 ] <= 156904.39395425995
c14: -34 x_14_ - 22 y_14_ + [ 1 x_14_ ^ 2 + 1 y_14_ ^ 2 ] <= 109114.70468357956
c15: -34 x_15_ - 22 y_15_ + [ 1 x_15_ ^ 2 + 1 y_15_ ^ 2 ] <= 91134.82511423893
c16: -34 x_16_ - 22 y_16_ + [ 1 x_16_ ^ 2 + 1 y_16_ ^ 2 ] <= 147871.3307182954
c17: -34 x_17_ - 22 y_17_ + [ 1 x_17_ ^ 2 + 1 y_17_ ^ 2 ] <= 65579.27646349052
c18: -34 x_18_ - 22 y_18_ + [ 1 x_18_ ^ 2 + 1 y_18_ ^ 2 ] <= 116393.77760648514
c19: -34 x_19_ - 22 y_19_ + [ 1 x_19_ ^ 2 + 1 y_19_ ^ 2 ] <= 235566.918075251
c20: -34 x_20_ - 22 y_20_ + [ 1 x_20_ ^ 2 + 1 y_20_ ^ 2 ] <= 43241.910592660286
c21: -34 x_21_ - 22 y_21_ + [ 1 x_21_ ^ 2 + 1 y_21_ ^ 2 ] <= 74452.49044741008
c22: -34 x_22_ - 22 y_22_ + [ 1 x_22_ ^ 2 + 1 y_22_ ^ 2 ] <= 63886.28488408725
c23: -34 x_23_ - 22 y_23_ + [ 1 x_23_ ^ 2 + 1 y_23_ ^ 2 ] <= 167954.64012944518
c24: -34 x_24_ - 22 y_24_ + [ 1 x_24_ ^ 2 + 1 y_24_ ^ 2 ] <= 134784.07170173925
c25: -34 x_25_ - 22 y_25_ + [ 1 x_25_ ^ 2 + 1 y_25_ ^ 2 ] <= 129836.65526949342
c26: -34 x_26_ - 22 y_26_ + [ 1 x_26_ ^ 2 + 1 y_26_ ^ 2 ] <= 142755.32695389778
c27: -34 x_27_ - 22 y_27_ + [ 1 x_27_ ^ 2 + 1 y_27_ ^ 2 ] <= 59532.9730651949
c28: -34 x_28_ - 22 y_28_ + [ 1 x_28_ ^ 2 + 1 y_28_ ^ 2 ] <= 118384.98522303619
c29: -34 x_29_ - 22 y_29_ + [ 1 x_29_ ^ 2 + 1 y_29_ ^ 2 ] <= 97029.57071348665
c30: -34 x_30_ - 22 y_30_ + [ 1 x_30_ ^ 2 + 1 y_30_ ^ 2 ] <= 108965.56661192708
c31: -34 x_31_ - 22 y_31_ + [ 1 x_31_ ^ 2 + 1 y_31_ ^ 2 ] <= 230591.6175775731
c32: -34 x_32_ - 22 y_32_ + [ 1 x_32_ ^ 2 + 1 y_32_ ^ 2 ] <= 198225.52248767836
c33: -34 x_33_ - 22 y_33_ + [ 1 x_33_ ^ 2 + 1 y_33_ ^ 2 ] <= 159481.61763954884
c34: -34 x_34_ - 22 y_34_ + [ 1 x_34_ ^ 2 + 1 y_34_ ^ 2 ] <= 90931.26791959339
c35: -34 x_35_ - 22 y_35_ + [ 1 x_35_ ^ 2 + 1 y_35_ ^ 2 ] <= 97591.47572913379
c36: -34 x_36_ - 22 y_36_ + [ 1 x_36_ ^ 2 + 1 y_36_ ^ 2 ] <= 149456.7843939579
c37: -34 x_37_ - 22 y_37_ + [ 1 x_37_ ^ 2 + 1 y_37_ ^ 2 ] <= 106426.62919715197
c38: -34 x_38_ - 22 y_38_ + [ 1 x_38_ ^ 2 + 1 y_38_ ^ 2 ] <= 132910.53659175817
c39: -34 x_39_ - 22 y_39_ + [ 1 x_39_ ^ 2 + 1 y_39_ ^ 2 ] <= 60143.81874008472
c40: -34 x_40_ - 22 y_40_ + [ 1 x_40_ ^ 2 + 1 y_40_ ^ 2 ] <= 145533.6112398005
c41: -34 x_41_ - 22 y_41_ + [ 1 x_41_ ^ 2 + 1 y_41_ ^ 2 ] <= 94426.73867400497
c42: -34 x_42_ - 22 y_42_ + [ 1 x_42_ ^ 2 + 1 y_42_ ^ 2 ] <= 188435.57688063305
c43: -34 x_43_ - 22 y_43_ + [ 1 x_43_ ^ 2 + 1 y_43_ ^ 2 ] <= 197707.4745951099
c44: -34 x_44_ - 22 y_44_ + [ 1 x_44_ ^ 2 + 1 y_44_ ^ 2 ] <= 6969.0599999999995
c45: -34 x_45_ - 22 y_45_ + [ 1 x_45_ ^ 2 + 1 y_45_ ^ 2 ] <= 155223.6017193671
c46: -34 x_46_ - 22 y_46_ + [ 1 x_46_ ^ 2 + 1 y_46_ ^ 2 ] <= 106917.21265820939
c47: -34 x_47_ - 22 y_47_ + [ 1 x_47_ ^ 2 + 1 y_47_ ^ 2 ] <= 124615.28966397328
c48: -34 x_48_ - 22 y_48_ + [ 1 x_48_ ^ 2 + 1 y_48_ ^ 2 ] <= 73667.13937658268
c49: -34 x_49_ - 22 y_49_ + [ 1 x_49_ ^ 2 + 1 y_49_ ^ 2 ] <= 161004.23531950786
c50: -34 x_50_ - 22 y_50_ + [ 1 x_50_ ^ 2 + 1 y_50_ ^ 2 ] <= 154991.4630536284
c51: -34 x_51_ - 22 y_51_ + [ 1 x_51_ ^ 2 + 1 y_51_ ^ 2 ] <= 126397.58079923523
c52: -34 x_52_ - 22 y_52_ + [ 1 x_52_ ^ 2 + 1 y_52_ ^ 2 ] <= 223076.22137457397
c53: -34 x_53_ - 22 y_53_ + [ 1 x_53_ ^ 2 + 1 y_53_ ^ 2 ] <= 118702.76397346231
c54: -34 x_54_ - 22 y_54_ + [ 1 x_54_ ^ 2 + 1 y_54_ ^ 2 ] <= 87261.20699880023
c55: -34 x_55_ - 22 y_55_ + [ 1 x_55_ ^ 2 + 1 y_55_ ^ 2 ] <= 57187.1235332304
c56: -34 x_56_ - 22 y_56_ + [ 1 x_56_ ^ 2 + 1 y_56_ ^ 2 ] <= 50181.85207511439
c57: -34 x_57_ - 22 y_57_ + [ 1 x_57_ ^ 2 + 1 y_57_ ^ 2 ] <= 93355.10045970899
c58: -34 x_58_ - 22 y_58_ + [ 1 x_58_ ^ 2 + 1 y_58_ ^ 2 ] <= 209669.53820154074
c59: -34 x_59_ - 22 y_59_ + [ 1 x_59_ ^ 2 + 1 y_59_ ^ 2 ] <= 89319.077500865
c60: -34 x_60_ - 22 y_60_ + [ 1 x_60_ ^ 2 + 1 y_60_ ^ 2 ] <= 98609.78619702355
c61: -34 x_61_ - 22 y_61_ + [ 1 x_61_ ^ 2 + 1 y_61_ ^ 2 ] <= 176898.1486810482
c62: -34 x_62_ - 22 y_62_ + [ 1 x_62_ ^ 2 + 1 y_62_ ^ 2 ] <= 154653.43210838945
c63: -34 x_63_ - 22 y_63_ + [ 1 x_63_ ^ 2 + 1 y_63_ ^ 2 ] <= 217601.61905357442
c64: -34 x_64_ - 22 y_64_ + [ 1 x_64_ ^ 2 + 1 y_64_ ^ 2 ] <= 100692.8186595408
c65: -34 x_65_ - 22 y_65_ + [ 1 x_65_ ^ 2 + 1 y_65_ ^ 2 ] <= 161488.1979666762
c66: -34 x_66_ - 22 y_66_ + [ 1 x_66_ ^ 2 + 1 y_66_ ^ 2 ] <= 81089.84219996189
c67: -34 x_67_ - 22 y_67_ + [ 1 x_67_ ^ 2 + 1 y_67_ ^ 2 ] <= 32203.41344145102
c68: -34 x_68_ - 22 y_68_ + [ 1 x_68_ ^ 2 + 1 y_68_ ^ 2 ] <= 220080.88618326318
c69: -34 x_69_ - 22 y_69_ + [ 1 x_69_ ^ 2 + 1 y_69_ ^ 2 ] <= 91897.57272272502
c70: -34 x_70_ - 22 y_70_ + [ 1 x_70_ ^ 2 + 1 y_70_ ^ 2 ] <= 112923.63722505083
c71: -34 x_71_ - 22 y_71_ + [ 1 x_71_ ^ 2 + 1 y_71_ ^ 2 ] <= 169047.34015291603
c72: -34 x_72_ - 22 y_72_ + [ 1 x_72_ ^ 2 + 1 y_72_ ^ 2 ] <= 213058.3940691635
c73: -34 x_73_ - 22 y_73_ + [ 1 x_73_ ^ 2 + 1 y_73_ ^ 2 ] <= 186370.5194622193
c74: -34 x_74_ - 22 y_74_ + [ 1 x_74_ ^ 2 + 1 y_74_ ^ 2 ] <= 121569.065366957
c75: -34 x_75_ - 22 y_75_ + [ 1 x_75_ ^ 2 + 1 y_75_ ^ 2 ] <= 156749.95376538165
c76: -34 x_76_ - 22 y_76_ + [ 1 x_76_ ^ 2 + 1 y_76_ ^ 2 ] <= 108961.51336984239
c77: -34 x_77_ - 22 y_77_ + [ 1 x_77_ ^ 2 + 1 y_77_ ^ 2 ] <= 106762.97396021009
c78: -34 x_78_ - 22 y_78_ + [ 1 x_78_ ^ 2 + 1 y_78_ ^ 2 ] <= 131485.7229564392
c79: -34 x_79_ - 22 y_79_ + [ 1 x_79_ ^ 2 + 1 y_79_ ^ 2 ] <= 114092.90688007264
c80: -34 x_80_ - 22 y_80_ + [ 1 x_80_ ^ 2 + 1 y_80_ ^ 2 ] <= 160392.5017811836
c81: -34 x_81_ - 22 y_81_ + [ 1 x_81_ ^ 2 + 1 y_81_ ^ 2 ] <= 139153.98055642148
c82: -34 x_82_ - 22 y_82_ + [ 1 x_82_ ^ 2 + 1 y_82_ ^ 2 ] <= 149641.40863074458
c83: -34 x_83_ - 22 y_83_ + [ 1 x_83_ ^ 2 + 1 y_83_ ^ 2 ] <= 213351.69648060322
c84: -34 x_84_ - 22 y_84_ + [ 1 x_84_ ^ 2 + 1 y_84_ ^ 2 ] <= 105680.57247081053
c85: -34 x_85_ - 22 y_85_ + [ 1 x_85_ ^ 2 + 1 y_85_ ^ 2 ] <= 168292.79556897192
c86: -34 x_86_ - 22 y_86_ + [ 1 x_86_ ^ 2 + 1 y_86_ ^ 2 ] <= 75475.41339155949
c87: -34 x_87_ - 22 y_87_ + [ 1 x_87_ ^ 2 + 1 y_87_ ^ 2 ] <= 98800.49068035716
c88: -34 x_88_ - 22 y_88_ + [ 1 x_88_ ^ 2 + 1 y_88_ ^ 2 ] <= 208283.23160533825
c89: -34 x_89_ - 22 y_89_ + [ 1 x_89_ ^ 2 + 1 y_89_ ^ 2 ] <= 117022.50867752224
c90: -34 x_90_ - 22 y_90_ + [ 1 x_90_ ^ 2 + 1 y_90_ ^ 2 ] <= 49256.57829721807
c91: -34 x_91_ - 22 y_91_ + [ 1 x_91_ ^ 2 + 1 y_91_ ^ 2 ] <= 48830.59189870256
c92: -34 x_92_ - 22 y_92_ + [ 1 x_92_ ^ 2 + 1 y_92_ ^ 2 ] <= 205995.97299237183
c93: -34 x_93_ - 22 y_93_ + [ 1 x_93_ ^ 2 + 1 y_93_ ^ 2 ] <= 83039.02346535919
c94: -34 x_94_ - 22 y_94_ + [ 1 x_94_ ^ 2 + 1 y_94_ ^ 2 ] <= 17208.439999999995
c95: -34 x_95_ - 22 y_95_ + [ 1 x_95_ ^ 2 + 1 y_95_ ^ 2 ] <= 11735.249999999996
c96: -34 x_96_ - 22 y_96_ + [ 1 x_96_ ^ 2 + 1 y_96_ ^ 2 ] <= 127478.47370767045
c97: -34 x_98_ - 22 y_98_ + [ 1 x_98_ ^ 2 + 1 y_98_ ^ 2 ] <= 136373.53808620424
c98: -34 x_99_ - 22 y_99_ + [ 1 x_99_ ^ 2 + 1 y_99_ ^ 2 ] <= 185186.36277371558
c99: -34 x_100_ - 22 y_100_ + [ 1 x_100_ ^ 2 + 1 y_100_ ^ 2 ] <= 154677.9095239038
c100: 124 x_1_ - 66 y_1_ + [ 1 x_1_ ^ 2 + 1 y_1_ ^ 2 ] <= 10084.703872415465
c101: 124 x_2_ - 66 y_2_ + [ 1 x_2_ ^ 2 + 1 y_2_ ^ 2 ] <= 115322.30028395251
c102: 124 x_3_ - 66 y_3_ + [ 1 x_3_ ^ 2 + 1 y_3_ ^ 2 ] <= 15845.794218326384
c103: 124 x_4_ - 66 y_4_ + [ 1 x_4_ ^ 2 + 1 y_4_ ^ 2 ] <= 19753.623004761765
c104: 124 x_5_ - 66 y_5_ + [ 1 x_5_ ^ 2 + 1 y_5_ ^ 2 ] <= 84562.56174505429
c105: 124 x_6_ - 66 y_6_ + [ 1 x_6_ ^ 2 + 1 y_6_ ^ 2 ] <= 41529.319928818804
c106: 124 x_7_ - 66 y_7_ + [ 1 x_7_ ^ 2 + 1 y_7_ ^ 2 ] <= 123515.85819963331
c107: 124 x_8_ - 66 y_8_ + [ 1 x_8_ ^ 2 + 1 y_8_ ^ 2 ] <= 133932.6891659192
c108: 124 x_9_ - 66 y_9_ + [ 1 x_9_ ^ 2 + 1 y_9_ ^ 2 ] <= 67063.3962758478
c109: 124 x_10_ - 66 y_10_ + [ 1 x_10_ ^ 2 + 1 y_10_ ^ 2 ] <= 21243.89734651654
c110: 124 x_11_ - 66 y_11_ + [ 1 x_11_ ^ 2 + 1 y_11_ ^ 2 ] <= 45482.32181436331
c111: 124 x_12_ - 66 y_12_ + [ 1 x_12_ ^ 2 + 1 y_12_ ^ 2 ] <= 49119.68248863996
c112: 124 x_13_ - 66 y_13_ + [ 1 x_13_ ^ 2 + 1 y_13_ ^ 2 ] <= 104108.75140571226
c113: 124 x_14_ - 66 y_14_ + [ 1 x_14_ ^ 2 + 1 y_14_ ^ 2 ] <= 57230.59151376857
c114: 124 x_16_ - 66 y_16_ + [ 1 x_16_ ^ 2 + 1 y_16_ ^ 2 ] <= 25297.54860467918
c115: 124 x_17_ - 66 y_17_ + [ 1 x_17_ ^ 2 + 1 y_17_ ^ 2 ] <= -2846.3400000000006
c116: 124 x_18_ - 66 y_18_ + [ 1 x_18_ ^ 2 + 1 y_18_ ^ 2 ] <= -2167.6200000000003
c117: 124 x_19_ - 66 y_19_ + [ 1 x_19_ ^ 2 + 1 y_19_ ^ 2 ] <= 121290.3240383248
c118: 124 x_20_ - 66 y_20_ + [ 1 x_20_ ^ 2 + 1 y_20_ ^ 2 ] <= 79796.41218599444
c119: 124 x_21_ - 66 y_21_ + [ 1 x_21_ ^ 2 + 1 y_21_ ^ 2 ] <= -1038.4536847935956
c120: 124 x_22_ - 66 y_22_ + [ 1 x_22_ ^ 2 + 1 y_22_ ^ 2 ] <= 61365.31914707844
c121: 124 x_23_ - 66 y_23_ + [ 1 x_23_ ^ 2 + 1 y_23_ ^ 2 ] <= 6678.9699999999975
c122: 124 x_24_ - 66 y_24_ + [ 1 x_24_ ^ 2 + 1 y_24_ ^ 2 ] <= 102277.59269207309
c123: 124 x_25_ - 66 y_25_ + [ 1 x_25_ ^ 2 + 1 y_25_ ^ 2 ] <= 48151.93405889833
c124: 124 x_26_ - 66 y_26_ + [ 1 x_26_ ^ 2 + 1 y_26_ ^ 2 ] <= 23012.185783546352
c125: 124 x_27_ - 66 y_27_ + [ 1 x_27_ ^ 2 + 1 y_27_ ^ 2 ] <= 37993.83682565074
c126: 124 x_28_ - 66 y_28_ + [ 1 x_28_ ^ 2 + 1 y_28_ ^ 2 ] <= 100154.22334911251
c127: 124 x_29_ - 66 y_29_ + [ 1 x_29_ ^ 2 + 1 y_29_ ^ 2 ] <= 106072.50585862281
c128: 124 x_30_ - 66 y_30_ + [ 1 x_30_ ^ 2 + 1 y_30_ ^ 2 ] <= 24057.598610894114
c129: 124 x_31_ - 66 y_31_ + [ 1 x_31_ ^ 2 + 1 y_31_ ^ 2 ] <= 67655.46737934323
c130: 124 x_32_ - 66 y_32_ + [ 1 x_32_ ^ 2 + 1 y_32_ ^ 2 ] <= 128829.91826331595
c131: 124 x_33_ - 66 y_33_ + [ 1 x_33_ ^ 2 + 1 y_33_ ^ 2 ] <= 7429.598289173278
c132: 124 x_34_ - 66 y_34_ + [ 1 x_34_ ^ 2 + 1 y_34_ ^ 2 ] <= 10383.649999999996
c133: 124 x_35_ - 66 y_35_ + [ 1 x_35_ ^ 2 + 1 y_35_ ^ 2 ] <= 49403.800435754725
c134: 124 x_36_ - 66 y_36_ + [ 1 x_36_ ^ 2 + 1 y_36_ ^ 2 ] <= 46930.446053602165
c135: 124 x_37_ - 66 y_37_ + [ 1 x_37_ ^ 2 + 1 y_37_ ^ 2 ] <= 67637.14188971161
c136: 124 x_38_ - 66 y_38_ + [ 1 x_38_ ^ 2 + 1 y_38_ ^ 2 ] <= 46082.96127351581
c137: 124 x_39_ - 66 y_39_ + [ 1 x_39_ ^ 2 + 1 y_39_ ^ 2 ] <= 72870.676321408
c138: 124 x_40_ - 66 y_40_ + [ 1 x_40_ ^ 2 + 1 y_40_ ^ 2 ] <= 38862.1995279609
c139: 124 x_41_ - 66 y_41_ + [ 1 x_41_ ^ 2 + 1 y_41_ ^ 2 ] <= 76023.26129829446
c140: 124 x_42_ - 66 y_42_ + [ 1 x_42_ ^ 2 + 1 y_42_ ^ 2 ] <= 53574.18129492711
c141: 124 x_43_ - 66 y_43_ + [ 1 x_43_ ^ 2 + 1 y_43_ ^ 2 ] <= 140837.9061829474
c142: 124 x_44_ - 66 y_44_ + [ 1 x_44_ ^ 2 + 1 y_44_ ^ 2 ] <= 43286.45592234194
c143: 124 x_45_ - 66 y_45_ + [ 1 x_45_ ^ 2 + 1 y_45_ ^ 2 ] <= 75616.06628315136
c144: 124 x_46_ - 66 y_46_ + [ 1 x_46_ ^ 2 + 1 y_46_ ^ 2 ] <= 64441.112188478946
c145: 124 x_47_ - 66 y_47_ + [ 1 x_47_ ^ 2 + 1 y_47_ ^ 2 ] <= 44308.2267317871
c146: 124 x_48_ - 66 y_48_ + [ 1 x_48_ ^ 2 + 1 y_48_ ^ 2 ] <= 47423.244858326725
c147: 124 x_49_ - 66 y_49_ + [ 1 x_49_ ^ 2 + 1 y_49_ ^ 2 ] <= 51239.82472213449
c148: 124 x_50_ - 66 y_50_ + [ 1 x_50_ ^ 2 + 1 y_50_ ^ 2 ] <= 118165.27291687933
c149: 124 x_51_ - 66 y_51_ + [ 1 x_51_ ^ 2 + 1 y_51_ ^ 2 ] <= 71326.48539900724
c150: 124 x_52_ - 66 y_52_ + [ 1 x_52_ ^ 2 + 1 y_52_ ^ 2 ] <= 104180.28265525028
c151: 124 x_53_ - 66 y_53_ + [ 1 x_53_ ^ 2 + 1 y_53_ ^ 2 ] <= 40624.342161565815
c152: 124 x_54_ - 66 y_54_ + [ 1 x_54_ ^ 2 + 1 y_54_ ^ 2 ] <= 71021.45155204534
c153: 124 x_55_ - 66 y_55_ + [ 1 x_55_ ^ 2 + 1 y_55_ ^ 2 ] <= 98845.54871768132
c154: 124 x_56_ - 66 y_56_ + [ 1 x_56_ ^ 2 + 1 y_56_ ^ 2 ] <= 55557.464479249786
c155: 124 x_57_ - 66 y_57_ + [ 1 x_57_ ^ 2 + 1 y_57_ ^ 2 ] <= 67194.83670382608
c156: 124 x_58_ - 66 y_58_ + [ 1 x_58_ ^ 2 + 1 y_58_ ^ 2 ] <= 101772.9936349236
c157: 124 x_59_ - 66 y_59_ + [ 1 x_59_ ^ 2 + 1 y_59_ ^ 2 ] <= 94489.70890693548
c158: 124 x_60_ - 66 y_60_ + [ 1 x_60_ ^ 2 + 1 y_60_ ^ 2 ] <= 61220.807375761404
c159: 124 x_61_ - 66 y_61_ + [ 1 x_61_ ^ 2 + 1 y_61_ ^ 2 ] <= 39114.90814875143
c160: 124 x_62_ - 66 y_62_ + [ 1 x_62_ ^ 2 + 1 y_62_ ^ 2 ] <= 128955.322396645
c161: 124 x_63_ - 66 y_63_ + [ 1 x_63_ ^ 2 + 1 y_63_ ^ 2 ] <= 174470.7984866791
c162: 124 x_64_ - 66 y_64_ + [ 1 x_64_ ^ 2 + 1 y_64_ ^ 2 ] <= 31034.601034229832
c163: 124 x_65_ - 66 y_65_ + [ 1 x_65_ ^ 2 + 1 y_65_ ^ 2 ] <= 48955.04606078444
c164: 124 x_66_ - 66 y_66_ + [ 1 x_66_ ^ 2 + 1 y_66_ ^ 2 ] <= 56490.25668035706
c165: 124 x_67_ - 66 y_67_ + [ 1 x_67_ ^ 2 + 1 y_67_ ^ 2 ] <= 35715.04745466119
c166: 124 x_68_ - 66 y_68_ + [ 1 x_68_ ^ 2 + 1 y_68_ ^ 2 ] <= 27787.21295881797
c167: 124 x_69_ - 66 y_69_ + [ 1 x_69_ ^ 2 + 1 y_69_ ^ 2 ] <= 23155.218743572124
c168: 124 x_70_ - 66 y_70_ + [ 1 x_70_ ^ 2 + 1 y_70_ ^ 2 ] <= 113758.44252376835
c169: 124 x_71_ - 66 y_71_ + [ 1 x_71_ ^ 2 + 1 y_71_ ^ 2 ] <= 182273.55837276953
c170: 124 x_72_ - 66 y_72_ + [ 1 x_72_ ^ 2 + 1 y_72_ ^ 2 ] <= 120883.42931241661
c171: 124 x_73_ - 66 y_73_ + [ 1 x_73_ ^ 2 + 1 y_73_ ^ 2 ] <= 99324.1635852735
c172: 124 x_74_ - 66 y_74_ + [ 1 x_74_ ^ 2 + 1 y_74_ ^ 2 ] <= 80205.33692977075
c173: 124 x_75_ - 66 y_75_ + [ 1 x_75_ ^ 2 + 1 y_75_ ^ 2 ] <= 29835.3198342842
c174: 124 x_76_ - 66 y_76_ + [ 1 x_76_ ^ 2 + 1 y_76_ ^ 2 ] <= 118784.79845636191
c175: 124 x_77_ - 66 y_77_ + [ 1 x_77_ ^ 2 + 1 y_77_ ^ 2 ] <= 31012.094122146897
c176: 124 x_78_ - 66 y_78_ + [ 1 x_78_ ^ 2 + 1 y_78_ ^ 2 ] <= 88522.08048545386
c177: 124 x_79_ - 66 y_79_ + [ 1 x_79_ ^ 2 + 1 y_79_ ^ 2 ] <= 134362.67527746322
c178: 124 x_80_ - 66 y_80_ + [ 1 x_80_ ^ 2 + 1 y_80_ ^ 2 ] <= 64352.26900713339
c179: 124 x_81_ - 66 y_81_ + [ 1 x_81_ ^ 2 + 1 y_81_ ^ 2 ] <= 186124.60517750573
c180: 124 x_82_ - 66 y_82_ + [ 1 x_82_ ^ 2 + 1 y_82_ ^ 2 ] <= 2258.2000000000007
c181: 124 x_83_ - 66 y_83_ + [ 1 x_83_ ^ 2 + 1 y_83_ ^ 2 ] <= 48160.77569784771
c182: 124 x_84_ - 66 y_84_ + [ 1 x_84_ ^ 2 + 1 y_84_ ^ 2 ] <= 150684.1170171653
c183: 124 x_85_ - 66 y_85_ + [ 1 x_85_ ^ 2 + 1 y_85_ ^ 2 ] <= 113623.52245064544
c184: 124 x_86_ - 66 y_86_ + [ 1 x_86_ ^ 2 + 1 y_86_ ^ 2 ] <= 82976.18965203571
c185: 124 x_87_ - 66 y_87_ + [ 1 x_87_ ^ 2 + 1 y_87_ ^ 2 ] <= 6093.169999999998
c186: 124 x_88_ - 66 y_88_ + [ 1 x_88_ ^ 2 + 1 y_88_ ^ 2 ] <= 27936.93813608731
c187: 124 x_89_ - 66 y_89_ + [ 1 x_89_ ^ 2 + 1 y_89_ ^ 2 ] <= 12354.112236656172
c188: 124 x_90_ - 66 y_90_ + [ 1 x_90_ ^ 2 + 1 y_90_ ^ 2 ] <= 78611.00102849132
c189: 124 x_91_ - 66 y_91_ + [ 1 x_91_ ^ 2 + 1 y_91_ ^ 2 ] <= 19937.995826036044
c190: 124 x_92_ - 66 y_92_ + [ 1 x_92_ ^ 2 + 1 y_92_ ^ 2 ] <= 111759.3924587956
c191: 124 x_93_ - 66 y_93_ + [ 1 x_93_ ^ 2 + 1 y_93_ ^ 2 ] <= 91103.28290983733
c192: 124 x_94_ - 66 y_94_ + [ 1 x_94_ ^ 2 + 1 y_94_ ^ 2 ] <= 109772.86524155304
c193: 124 x_95_ - 66 y_95_ + [ 1 x_95_ ^ 2 + 1 y_95_ ^ 2 ] <= 32068.70169821656
c194: 124 x_96_ - 66 y_96_ + [ 1 x_96_ ^ 2 + 1 y_96_ ^ 2 ] <= 16865.62745090119
c195: 124 x_97_ - 66 y_97_ + [ 1 x_97_ ^ 2 + 1 y_97_ ^ 2 ] <= 86611.82511423893
c196: 124 x_98_ - 66 y_98_ + [ 1 x_98_ ^ 2 + 1 y_98_ ^ 2 ] <= 20233.26226901547
c197: 124 x_99_ - 66 y_99_ + [ 1 x_99_ ^ 2 + 1 y_99_ ^ 2 ] <= 172359.7621369372
c198: 124 x_100_ - 66 y_100_ + [ 1 x_100_ ^ 2 + 1 y_100_ ^ 2 ] <= 82189.79469760592
c199: -178 x_1_ + 128 y_1_ + [ 1 x_1_ ^ 2 + 1 y_1_ ^ 2 ] <= 59911.4845494078
c200: -178 x_2_ + 128 y_2_ + [ 1 x_2_ ^ 2 + 1 y_2_ ^ 2 ] <= 112378.07794025065
c201: -178 x_3_ + 128 y_3_ + [ 1 x_3_ ^ 2 + 1 y_3_ ^ 2 ] <= 76940.03662196516
c202: -178 x_4_ + 128 y_4_ + [ 1 x_4_ ^ 2 + 1 y_4_ ^ 2 ] <= 30831.80030193855
c203: -178 x_5_ + 128 y_5_ + [ 1 x_5_ ^ 2 + 1 y_5_ ^ 2 ] <= 120271.47206440417
c204: -178 x_6_ + 128 y_6_ + [ 1 x_6_ ^ 2 + 1 y_6_ ^ 2 ] <= 180597.8390940611
c205: -178 x_7_ + 128 y_7_ + [ 1 x_7_ ^ 2 + 1 y_7_ ^ 2 ] <= 242045.1153357107
c206: -178 x_8_ + 128 y_8_ + [ 1 x_8_ ^ 2 + 1 y_8_ ^ 2 ] <= 232438.7504169191
c207: -178 x_9_ + 128 y_9_ + [ 1 x_9_ ^ 2 + 1 y_9_ ^ 2 ] <= 159353.79951147435
c208: -178 x_10_ + 128 y_10_ + [ 1 x_10_ ^ 2 + 1 y_10_ ^ 2 ] <= 82502.89587862909
c209: -178 x_11_ + 128 y_11_ + [ 1 x_11_ ^ 2 + 1 y_11_ ^ 2 ] <= 125017.48097721703
c210: -178 x_12_ + 128 y_12_ + [ 1 x_12_ ^ 2 + 1 y_12_ ^ 2 ] <= 89007.84962426977
c211: -178 x_13_ + 128 y_13_ + [ 1 x_13_ ^ 2 + 1 y_13_ ^ 2 ] <= 169360.26515473207
c212: -178 x_14_ + 128 y_14_ + [ 1 x_14_ ^ 2 + 1 y_14_ ^ 2 ] <= 150742.33373632698
c213: -178 x_15_ + 128 y_15_ + [ 1 x_15_ ^ 2 + 1 y_15_ ^ 2 ] <= 44155.82472213449
c214: -178 x_16_ + 128 y_16_ + [ 1 x_16_ ^ 2 + 1 y_16_ ^ 2 ] <= 90074.41039103048
c215: -178 x_17_ + 128 y_17_ + [ 1 x_17_ ^ 2 + 1 y_17_ ^ 2 ] <= 24589.439999999995
c216: -178 x_18_ + 128 y_18_ + [ 1 x_18_ ^ 2 + 1 y_18_ ^ 2 ] <= 71848.23471209487
c217: -178 x_19_ + 128 y_19_ + [ 1 x_19_ ^ 2 + 1 y_19_ ^ 2 ] <= 168174.7233240338
c218: -178 x_20_ + 128 y_20_ + [ 1 x_20_ ^ 2 + 1 y_20_ ^ 2 ] <= 178717.221412684
c219: -178 x_21_ + 128 y_21_ + [ 1 x_21_ ^ 2 + 1 y_21_ ^ 2 ] <= 31269.642397518146
c220: -178 x_22_ + 128 y_22_ + [ 1 x_22_ ^ 2 + 1 y_22_ ^ 2 ] <= 219163.63200626432
c221: -178 x_23_ + 128 y_23_ + [ 1 x_23_ ^ 2 + 1 y_23_ ^ 2 ] <= 106847.22915473892
c222: -178 x_24_ + 128 y_24_ + [ 1 x_24_ ^ 2 + 1 y_24_ ^ 2 ] <= 120345.89402634292
c223: -178 x_25_ + 128 y_25_ + [ 1 x_25_ ^ 2 + 1 y_25_ ^ 2 ] <= 152133.35388253265
c224: -178 x_26_ + 128 y_26_ + [ 1 x_26_ ^ 2 + 1 y_26_ ^ 2 ] <= 85837.011084429
c225: -178 x_27_ + 128 y_27_ + [ 1 x_27_ ^ 2 + 1 y_27_ ^ 2 ] <= 12610.453033903923
c226: -178 x_28_ + 128 y_28_ + [ 1 x_28_ ^ 2 + 1 y_28_ ^ 2 ] <= 104978.94260672592
c227: -178 x_29_ + 128 y_29_ + [ 1 x_29_ ^ 2 + 1 y_29_ ^ 2 ] <= 217254.47417115714
c228: -178 x_30_ + 128 y_30_ + [ 1 x_30_ ^ 2 + 1 y_30_ ^ 2 ] <= 23380.170963110228
c229: -178 x_31_ + 128 y_31_ + [ 1 x_31_ ^ 2 + 1 y_31_ ^ 2 ] <= 160266.59593433945
c230: -178 x_32_ + 128 y_32_ + [ 1 x_32_ ^ 2 + 1 y_32_ ^ 2 ] <= 134628.89068222814
c231: -178 x_33_ + 128 y_33_ + [ 1 x_33_ ^ 2 + 1 y_33_ ^ 2 ] <= 109222.96045573997
c232: -178 x_34_ + 128 y_34_ + [ 1 x_34_ ^ 2 + 1 y_34_ ^ 2 ] <= 118136.92718801132
c233: -178 x_35_ + 128 y_35_ + [ 1 x_35_ ^ 2 + 1 y_35_ ^ 2 ] <= 165500.0458931291
c234: -178 x_36_ + 128 y_36_ + [ 1 x_36_ ^ 2 + 1 y_36_ ^ 2 ] <= 161489.5746804698
c235: -178 x_37_ + 128 y_37_ + [ 1 x_37_ ^ 2 + 1 y_37_ ^ 2 ] <= 160238.3631729923
c236: -178 x_38_ + 128 y_38_ + [ 1 x_38_ ^ 2 + 1 y_38_ ^ 2 ] <= 126006.58346267726
c237: -178 x_39_ + 128 y_39_ + [ 1 x_39_ ^ 2 + 1 y_39_ ^ 2 ] <= 135392.77539255813
c238: -178 x_40_ + 128 y_40_ + [ 1 x_40_ ^ 2 + 1 y_40_ ^ 2 ] <= 169700.52164426786
c239: -178 x_41_ + 128 y_41_ + [ 1 x_41_ ^ 2 + 1 y_41_ ^ 2 ] <= 173034.6141590738
c240: -178 x_42_ + 128 y_42_ + [ 1 x_42_ ^ 2 + 1 y_42_ ^ 2 ] <= 121390.00253223616
c241: -178 x_43_ + 128 y_43_ + [ 1 x_43_ ^ 2 + 1 y_43_ ^ 2 ] <= 174330.02467425217
c242: -178 x_44_ + 128 y_44_ + [ 1 x_44_ ^ 2 + 1 y_44_ ^ 2 ] <= 87752.08718129688
c243: -178 x_45_ + 128 y_45_ + [ 1 x_45_ ^ 2 + 1 y_45_ ^ 2 ] <= 195492.8166087333
c244: -178 x_46_ + 128 y_46_ + [ 1 x_46_ ^ 2 + 1 y_46_ ^ 2 ] <= 118907.72477319691
c245: -178 x_47_ + 128 y_47_ + [ 1 x_47_ ^ 2 + 1 y_47_ ^ 2 ] <= 129367.86680139045
c246: -178 x_48_ + 128 y_48_ + [ 1 x_48_ ^ 2 + 1 y_48_ ^ 2 ] <= 4777.279999999999
c247: -178 x_50_ + 128 y_50_ + [ 1 x_50_ ^ 2 + 1 y_50_ ^ 2 ] <= 51301.41735024337
c248: -178 x_51_ + 128 y_51_ + [ 1 x_51_ ^ 2 + 1 y_51_ ^ 2 ] <= 211266.32426802712
c249: -178 x_52_ + 128 y_52_ + [ 1 x_52_ ^ 2 + 1 y_52_ ^ 2 ] <= 247164.86806897962
c250: -178 x_53_ + 128 y_53_ + [ 1 x_53_ ^ 2 + 1 y_53_ ^ 2 ] <= 59328.91529965037
c251: -178 x_54_ + 128 y_54_ + [ 1 x_54_ ^ 2 + 1 y_54_ ^ 2 ] <= 74109.6675370391
c252: -178 x_55_ + 128 y_55_ + [ 1 x_55_ ^ 2 + 1 y_55_ ^ 2 ] <= 206815.07104872272
c253: -178 x_56_ + 128 y_56_ + [ 1 x_56_ ^ 2 + 1 y_56_ ^ 2 ] <= 141330.59520672075
c254: -178 x_57_ + 128 y_57_ + [ 1 x_57_ ^ 2 + 1 y_57_ ^ 2 ] <= 35642.12468881406
c255: -178 x_58_ + 128 y_58_ + [ 1 x_58_ ^ 2 + 1 y_58_ ^ 2 ] <= 218633.44158264436
c256: -178 x_59_ + 128 y_59_ + [ 1 x_59_ ^ 2 + 1 y_59_ ^ 2 ] <= 174569.38221958044
c257: -178 x_60_ + 128 y_60_ + [ 1 x_60_ ^ 2 + 1 y_60_ ^ 2 ] <= 150272.69040454648
c258: -178 x_61_ + 128 y_61_ + [ 1 x_61_ ^ 2 + 1 y_61_ ^ 2 ] <= 114380.35480070548
c259: -178 x_62_ + 128 y_62_ + [ 1 x_62_ ^ 2 + 1 y_62_ ^ 2 ] <= 216115.14174486615
c260: -178 x_63_ + 128 y_63_ + [ 1 x_63_ ^ 2 + 1 y_63_ ^ 2 ] <= 93178.61316834553
c261: -178 x_64_ + 128 y_64_ + [ 1 x_64_ ^ 2 + 1 y_64_ ^ 2 ] <= 68044.66225824995
c262: -178 x_65_ + 128 y_65_ + [ 1 x_65_ ^ 2 + 1 y_65_ ^ 2 ] <= 137276.81636910868
c263: -178 x_66_ + 128 y_66_ + [ 1 x_66_ ^ 2 + 1 y_66_ ^ 2 ] <= 27021.09164743191
c264: -178 x_67_ + 128 y_67_ + [ 1 x_67_ ^ 2 + 1 y_67_ ^ 2 ] <= 108573.7096332958
c265: -178 x_68_ + 128 y_68_ + [ 1 x_68_ ^ 2 + 1 y_68_ ^ 2 ] <= 162619.53393359177
c266: -178 x_69_ + 128 y_69_ + [ 1 x_69_ ^ 2 + 1 y_69_ ^ 2 ] <= 151686.9685941194
c267: -178 x_70_ + 128 y_70_ + [ 1 x_70_ ^ 2 + 1 y_70_ ^ 2 ] <= 236609.28438154265
c268: -178 x_71_ + 128 y_71_ + [ 1 x_71_ ^ 2 + 1 y_71_ ^ 2 ] <= 147047.7290183487
c269: -178 x_72_ + 128 y_72_ + [ 1 x_72_ ^ 2 + 1 y_72_ ^ 2 ] <= 246874.95596183397
c270: -178 x_73_ + 128 y_73_ + [ 1 x_73_ ^ 2 + 1 y_73_ ^ 2 ] <= 207509.82704293524
c271: -178 x_74_ + 128 y_74_ + [ 1 x_74_ ^ 2 + 1 y_74_ ^ 2 ] <= 179330.5119114941
c272: -178 x_75_ + 128 y_75_ + [ 1 x_75_ ^ 2 + 1 y_75_ ^ 2 ] <= 103971.46834598253
c273: -178 x_76_ + 128 y_76_ + [ 1 x_76_ ^ 2 + 1 y_76_ ^ 2 ] <= 144063.12185955228
c274: -178 x_77_ + 128 y_77_ + [ 1 x_77_ ^ 2 + 1 y_77_ ^ 2 ] <= 45329.67572453438
c275: -178 x_78_ + 128 y_78_ + [ 1 x_78_ ^ 2 + 1 y_78_ ^ 2 ] <= 191701.95141519216
c276: -178 x_79_ + 128 y_79_ + [ 1 x_79_ ^ 2 + 1 y_79_ ^ 2 ] <= 257210.6126180145
c277: -178 x_80_ + 128 y_80_ + [ 1 x_80_ ^ 2 + 1 y_80_ ^ 2 ] <= 86015.04568806732
c278: -178 x_81_ + 128 y_81_ + [ 1 x_81_ ^ 2 + 1 y_81_ ^ 2 ] <= 327579.9664648372
c279: -178 x_82_ + 128 y_82_ + [ 1 x_82_ ^ 2 + 1 y_82_ ^ 2 ] <= 62843.61183475502
c280: -178 x_83_ + 128 y_83_ + [ 1 x_83_ ^ 2 + 1 y_83_ ^ 2 ] <= 136516.8284129525
c281: -178 x_84_ + 128 y_84_ + [ 1 x_84_ ^ 2 + 1 y_84_ ^ 2 ] <= 202887.9602302461
c282: -178 x_85_ + 128 y_85_ + [ 1 x_85_ ^ 2 + 1 y_85_ ^ 2 ] <= 157544.47182825126
c283: -178 x_86_ + 128 y_86_ + [ 1 x_86_ ^ 2 + 1 y_86_ ^ 2 ] <= 183473.39760993744
c284: -178 x_87_ + 128 y_87_ + [ 1 x_87_ ^ 2 + 1 y_87_ ^ 2 ] <= 55122.919455023526
c285: -178 x_88_ + 128 y_88_ + [ 1 x_88_ ^ 2 + 1 y_88_ ^ 2 ] <= 124961.75807294322
c286: -178 x_89_ + 128 y_89_ + [ 1 x_89_ ^ 2 + 1 y_89_ ^ 2 ] <= 64783.25249274405
c287: -178 x_90_ + 128 y_90_ + [ 1 x_90_ ^ 2 + 1 y_90_ ^ 2 ] <= 176936.58158977245
c288: -178 x_91_ + 128 y_91_ + [ 1 x_91_ ^ 2 + 1 y_91_ ^ 2 ] <= 80006.3640398347
c289: -178 x_92_ + 128 y_92_ + [ 1 x_92_ ^ 2 + 1 y_92_ ^ 2 ] <= 233712.22701438412
c290: -178 x_93_ + 128 y_93_ + [ 1 x_93_ ^ 2 + 1 y_93_ ^ 2 ] <= 195504.55214496152
c291: -178 x_94_ + 128 y_94_ + [ 1 x_94_ ^ 2 + 1 y_94_ ^ 2 ] <= 196678.67856516785
c292: -178 x_95_ + 128 y_95_ + [ 1 x_95_ ^ 2 + 1 y_95_ ^ 2 ] <= 102231.31654132226
c293: -178 x_96_ + 128 y_96_ + [ 1 x_96_ ^ 2 + 1 y_96_ ^ 2 ] <= 79037.1067794678
c294: -178 x_97_ + 128 y_97_ + [ 1 x_97_ ^ 2 + 1 y_97_ ^ 2 ] <= 149397.23531950786
c295: -178 x_98_ + 128 y_98_ + [ 1 x_98_ ^ 2 + 1 y_98_ ^ 2 ] <= 80573.5179043817
c296: -178 x_99_ + 128 y_99_ + [ 1 x_99_ ^ 2 + 1 y_99_ ^ 2 ] <= 25914.559999999998
c297: -178 x_100_ + 128 y_100_ + [ 1 x_100_ ^ 2 + 1 y_100_ ^ 2 ] <= 51101.32757477974
quadratic_ranged_1_ub: [ 1 x_1_ ^ 2 - 2 x_3_ * x_1_ + 1 x_3_ ^ 2 + 1 y_1_ ^ 2 - 2 y_3_ * y_1_ + 1 y_3_ ^ 2 ] <= 9180.9
quadratic_ranged_2_ub: [ 1 x_1_ ^ 2 - 2 x_10_ * x_1_ + 1 x_10_ ^ 2 + 1 y_1_ ^ 2 - 2 y_10_ * y_1_ + 1 y_10_ ^ 2 ] <= 1540.25
quadratic_ranged_3_ub: [ 1 x_9_ ^ 2 - 2 x_10_ * x_9_ + 1 x_10_ ^ 2 + 1 y_9_ ^ 2 - 2 y_10_ * y_9_ + 1 y_10_ ^ 2 ] <= 11348.36
quadratic_ranged_4_ub: [ 1 x_9_ ^ 2 - 2 x_11_ * x_9_ + 1 x_11_ ^ 2 + 1 y_9_ ^ 2 - 2 y_11_ * y_9_ + 1 y_11_ ^ 2 ] <= 3571.36
quadratic_ranged_5_ub: [ 1 x_2_ ^ 2 - 2 x_12_ * x_2_ + 1 x_12_ ^ 2 + 1 y_2_ ^ 2 - 2 y_12_ * y_2_ + 1 y_12_ ^ 2 ] <= 13061.32
quadratic_ranged_6_ub: [ 1 x_7_ ^ 2 - 2 x_13_ * x_7_ + 1 x_13_ ^ 2 + 1 y_7_ ^ 2 - 2 y_13_ * y_7_ + 1 y_13_ ^ 2 ] <= 17945.68
quadratic_ranged_7_ub: [ 1 x_1_ ^ 2 - 2 x_17_ * x_1_ + 1 x_17_ ^ 2 + 1 y_1_ ^ 2 - 2 y_17_ * y_1_ + 1 y_17_ ^ 2 ] <= 5908.5
quadratic_ranged_8_ub: [ 1 x_15_ ^ 2 - 2 x_17_ * x_15_ + 1 x_17_ ^ 2 + 1 y_15_ ^ 2 - 2 y_17_ * y_15_ + 1 y_17_ ^ 2 ] <= 2086.66
quadratic_ranged_9_ub: [ 1 x_15_ ^ 2 - 2 x_18_ * x_15_ + 1 x_18_ ^ 2 + 1 y_15_ ^ 2 - 2 y_18_ * y_15_ + 1 y_18_ ^ 2 ] <= 2765.38
quadratic_ranged_10_ub: [ 1 x_11_ ^ 2 - 2 x_20_ * x_11_ + 1 x_20_ ^ 2 + 1 y_11_ ^ 2 - 2 y_20_ * y_11_ + 1 y_20_ ^ 2 ] <= 4428.85
quadratic_ranged_11_ub: [ 1 x_14_ ^ 2 - 2 x_20_ * x_14_ + 1 x_20_ ^ 2 + 1 y_14_ ^ 2 - 2 y_20_ * y_14_ + 1 y_20_ ^ 2 ] <= 25896.4
quadratic_ranged_12_ub: [ 1 x_16_ ^ 2 - 2 x_21_ * x_16_ + 1 x_21_ ^ 2 + 1 y_16_ ^ 2 - 2 y_21_ * y_16_ + 1 y_21_ ^ 2 ] <= 12424.01
quadratic_ranged_13_ub: [ 1 x_17_ ^ 2 - 2 x_21_ * x_17_ + 1 x_21_ ^ 2 + 1 y_17_ ^ 2 - 2 y_21_ * y_17_ + 1 y_21_ ^ 2 ] <= 279.77
quadratic_ranged_14_ub: [ 1 x_6_ ^ 2 - 2 x_22_ * x_6_ + 1 x_22_ ^ 2 + 1 y_6_ ^ 2 - 2 y_22_ * y_6_ + 1 y_22_ ^ 2 ] <= 1758.41
quadratic_ranged_15_ub: [ 1 x_11_ ^ 2 - 2 x_22_ * x_11_ + 1 x_22_ ^ 2 + 1 y_11_ ^ 2 - 2 y_22_ * y_11_ + 1 y_22_ ^ 2 ] <= 12362.4
quadratic_ranged_16_ub: [ 1 x_13_ ^ 2 - 2 x_22_ * x_13_ + 1 x_22_ ^ 2 + 1 y_13_ ^ 2 - 2 y_22_ * y_13_ + 1 y_22_ ^ 2 ] <= 20466.64
quadratic_ranged_17_ub: [ 1 x_15_ ^ 2 - 2 x_23_ * x_15_ + 1 x_23_ ^ 2 + 1 y_15_ ^ 2 - 2 y_23_ * y_15_ + 1 y_23_ ^ 2 ] <= 11611.97
quadratic_ranged_18_ub: [ 1 x_6_ ^ 2 - 2 x_24_ * x_6_ + 1 x_24_ ^ 2 + 1 y_6_ ^ 2 - 2 y_24_ * y_6_ + 1 y_24_ ^ 2 ] <= 12516.93
quadratic_ranged_19_ub: [ 1 x_19_ ^ 2 - 2 x_24_ * x_19_ + 1 x_24_ ^ 2 + 1 y_19_ ^ 2 - 2 y_24_ * y_19_ + 1 y_24_ ^ 2 ] <= 14871.24
quadratic_ranged_20_ub: [ 1 x_13_ ^ 2 - 2 x_25_ * x_13_ + 1 x_25_ ^ 2 + 1 y_13_ ^ 2 - 2 y_25_ * y_13_ + 1 y_25_ ^ 2 ] <= 9962.64
quadratic_ranged_21_ub: [ 1 x_19_ ^ 2 - 2 x_25_ * x_19_ + 1 x_25_ ^ 2 + 1 y_19_ ^ 2 - 2 y_25_ * y_19_ + 1 y_25_ ^ 2 ] <= 15594.4
quadratic_ranged_22_ub: [ 1 x_12_ ^ 2 - 2 x_26_ * x_12_ + 1 x_26_ ^ 2 + 1 y_12_ ^ 2 - 2 y_26_ * y_12_ + 1 y_26_ ^ 2 ] <= 4267.25
quadratic_ranged_23_ub: [ 1 x_4_ ^ 2 - 2 x_27_ * x_4_ + 1 x_27_ ^ 2 + 1 y_4_ ^ 2 - 2 y_27_ * y_4_ + 1 y_27_ ^ 2 ] <= 2506.82
quadratic_ranged_24_ub: [ 1 x_6_ ^ 2 - 2 x_28_ * x_6_ + 1 x_28_ ^ 2 + 1 y_6_ ^ 2 - 2 y_28_ * y_6_ + 1 y_28_ ^ 2 ] <= 42711.89
quadratic_ranged_25_ub: [ 1 x_8_ ^ 2 - 2 x_29_ * x_8_ + 1 x_29_ ^ 2 + 1 y_8_ ^ 2 - 2 y_29_ * y_8_ + 1 y_29_ ^ 2 ] <= 4928.8
quadratic_ranged_26_ub: [ 1 x_16_ ^ 2 - 2 x_31_ * x_16_ + 1 x_31_ ^ 2 + 1 y_16_ ^ 2 - 2 y_31_ * y_16_ + 1 y_31_ ^ 2 ] <= 9130.4
quadratic_ranged_27_ub: [ 1 x_19_ ^ 2 - 2 x_32_ * x_19_ + 1 x_32_ ^ 2 + 1 y_19_ ^ 2 - 2 y_32_ * y_19_ + 1 y_32_ ^ 2 ] <= 1726.09
quadratic_ranged_28_ub: [ 1 x_6_ ^ 2 - 2 x_33_ * x_6_ + 1 x_33_ ^ 2 + 1 y_6_ ^ 2 - 2 y_33_ * y_6_ + 1 y_33_ ^ 2 ] <= 10891.84
quadratic_ranged_29_ub: [ 1 x_18_ ^ 2 - 2 x_33_ * x_18_ + 1 x_33_ ^ 2 + 1 y_18_ ^ 2 - 2 y_33_ * y_18_ + 1 y_33_ ^ 2 ] <= 3434
quadratic_ranged_30_ub: [ 1 x_10_ ^ 2 - 2 x_34_ * x_10_ + 1 x_34_ ^ 2 + 1 y_10_ ^ 2 - 2 y_34_ * y_10_ + 1 y_34_ ^ 2 ] <= 26068.1
quadratic_ranged_31_ub: [ 1 x_15_ ^ 2 - 2 x_34_ * x_15_ + 1 x_34_ ^ 2 + 1 y_15_ ^ 2 - 2 y_34_ * y_15_ + 1 y_34_ ^ 2 ] <= 15316.65
quadratic_ranged_32_ub: [ 1 x_5_ ^ 2 - 2 x_35_ * x_5_ + 1 x_35_ ^ 2 + 1 y_5_ ^ 2 - 2 y_35_ * y_5_ + 1 y_35_ ^ 2 ] <= 13167.37
quadratic_ranged_33_ub: [ 1 x_6_ ^ 2 - 2 x_35_ * x_6_ + 1 x_35_ ^ 2 + 1 y_6_ ^ 2 - 2 y_35_ * y_6_ + 1 y_35_ ^ 2 ] <= 308.05
quadratic_ranged_34_ub: [ 1 x_14_ ^ 2 - 2 x_35_ * x_14_ + 1 x_35_ ^ 2 + 1 y_14_ ^ 2 - 2 y_35_ * y_14_ + 1 y_35_ ^ 2 ] <= 320.17
quadratic_ranged_35_ub: [ 1 x_7_ ^ 2 - 2 x_36_ * x_7_ + 1 x_36_ ^ 2 + 1 y_7_ ^ 2 - 2 y_36_ * y_7_ + 1 y_36_ ^ 2 ] <= 17344.73
quadratic_ranged_36_ub: [ 1 x_1_ ^ 2 - 2 x_37_ * x_1_ + 1 x_37_ ^ 2 + 1 y_1_ ^ 2 - 2 y_37_ * y_1_ + 1 y_37_ ^ 2 ] <= 21562.49
quadratic_ranged_37_ub: [ 1 x_16_ ^ 2 - 2 x_38_ * x_16_ + 1 x_38_ ^ 2 + 1 y_16_ ^ 2 - 2 y_38_ * y_16_ + 1 y_38_ ^ 2 ] <= 2703.77
quadratic_ranged_38_ub: [ 1 x_5_ ^ 2 - 2 x_39_ * x_5_ + 1 x_39_ ^ 2 + 1 y_5_ ^ 2 - 2 y_39_ * y_5_ + 1 y_39_ ^ 2 ] <= 409.05
quadratic_ranged_39_ub: [ 1 x_10_ ^ 2 - 2 x_39_ * x_10_ + 1 x_39_ ^ 2 + 1 y_10_ ^ 2 - 2 y_39_ * y_10_ + 1 y_39_ ^ 2 ] <= 13721.86
quadratic_ranged_40_ub: [ 1 x_20_ ^ 2 - 2 x_39_ * x_20_ + 1 x_39_ ^ 2 + 1 y_20_ ^ 2 - 2 y_39_ * y_20_ + 1 y_39_ ^ 2 ] <= 15260.09
quadratic_ranged_41_ub: [ 1 x_25_ ^ 2 - 2 x_40_ * x_25_ + 1 x_40_ ^ 2 + 1 y_25_ ^ 2 - 2 y_40_ * y_25_ + 1 y_40_ ^ 2 ] <= 446.42
quadratic_ranged_42_ub: [ 1 x_34_ ^ 2 - 2 x_40_ * x_34_ + 1 x_40_ ^ 2 + 1 y_34_ ^ 2 - 2 y_40_ * y_34_ + 1 y_40_ ^ 2 ] <= 7312.4
quadratic_ranged_43_ub: [ 1 x_10_ ^ 2 - 2 x_41_ * x_10_ + 1 x_41_ ^ 2 + 1 y_10_ ^ 2 - 2 y_41_ * y_10_ + 1 y_41_ ^ 2 ] <= 27950.74
quadratic_ranged_44_ub: [ 1 x_26_ ^ 2 - 2 x_41_ * x_26_ + 1 x_41_ ^ 2 + 1 y_26_ ^ 2 - 2 y_41_ * y_26_ + 1 y_41_ ^ 2 ] <= 13773.37
quadratic_ranged_45_ub: [ 1 x_36_ ^ 2 - 2 x_41_ * x_36_ + 1 x_41_ ^ 2 + 1 y_36_ ^ 2 - 2 y_41_ * y_36_ + 1 y_41_ ^ 2 ] <= 19324.33
quadratic_ranged_46_ub: [ 1 x_8_ ^ 2 - 2 x_42_ * x_8_ + 1 x_42_ ^ 2 + 1 y_8_ ^ 2 - 2 y_42_ * y_8_ + 1 y_42_ ^ 2 ] <= 17099.3
quadratic_ranged_47_ub: [ 1 x_12_ ^ 2 - 2 x_42_ * x_12_ + 1 x_42_ ^ 2 + 1 y_12_ ^ 2 - 2 y_42_ * y_12_ + 1 y_42_ ^ 2 ] <= 2247.25
quadratic_ranged_48_ub: [ 1 x_16_ ^ 2 - 2 x_42_ * x_16_ + 1 x_42_ ^ 2 + 1 y_16_ ^ 2 - 2 y_42_ * y_16_ + 1 y_42_ ^ 2 ] <= 4625.8
quadratic_ranged_49_ub: [ 1 x_8_ ^ 2 - 2 x_43_ * x_8_ + 1 x_43_ ^ 2 + 1 y_8_ ^ 2 - 2 y_43_ * y_8_ + 1 y_43_ ^ 2 ] <= 3936.98
quadratic_ranged_50_ub: [ 1 x_12_ ^ 2 - 2 x_43_ * x_12_ + 1 x_43_ ^ 2 + 1 y_12_ ^ 2 - 2 y_43_ * y_12_ + 1 y_43_ ^ 2 ] <= 29860.65
quadratic_ranged_51_ub: [ 1 x_2_ ^ 2 - 2 x_44_ * x_2_ + 1 x_44_ ^ 2 + 1 y_2_ ^ 2 - 2 y_44_ * y_2_ + 1 y_44_ ^ 2 ] <= 34958.12
quadratic_ranged_52_ub: [ 1 x_17_ ^ 2 - 2 x_44_ * x_17_ + 1 x_44_ ^ 2 + 1 y_17_ ^ 2 - 2 y_44_ * y_17_ + 1 y_44_ ^ 2 ] <= 30244.45
quadratic_ranged_53_ub: [ 1 x_27_ ^ 2 - 2 x_44_ * x_27_ + 1 x_44_ ^ 2 + 1 y_27_ ^ 2 - 2 y_44_ * y_27_ + 1 y_44_ ^ 2 ] <= 25259.09
quadratic_ranged_54_ub: [ 1 x_9_ ^ 2 - 2 x_45_ * x_9_ + 1 x_45_ ^ 2 + 1 y_9_ ^ 2 - 2 y_45_ * y_9_ + 1 y_45_ ^ 2 ] <= 37003.37
quadratic_ranged_55_ub: [ 1 x_38_ ^ 2 - 2 x_45_ * x_38_ + 1 x_45_ ^ 2 + 1 y_38_ ^ 2 - 2 y_45_ * y_38_ + 1 y_45_ ^ 2 ] <= 7058.89
quadratic_ranged_56_ub: [ 1 x_40_ ^ 2 - 2 x_45_ * x_40_ + 1 x_45_ ^ 2 + 1 y_40_ ^ 2 - 2 y_45_ * y_40_ + 1 y_45_ ^ 2 ] <= 5556.01
quadratic_ranged_57_ub: [ 1 x_20_ ^ 2 - 2 x_46_ * x_20_ + 1 x_46_ ^ 2 + 1 y_20_ ^ 2 - 2 y_46_ * y_20_ + 1 y_46_ ^ 2 ] <= 14084.45
quadratic_ranged_58_ub: [ 1 x_25_ ^ 2 - 2 x_46_ * x_25_ + 1 x_46_ ^ 2 + 1 y_25_ ^ 2 - 2 y_46_ * y_25_ + 1 y_46_ ^ 2 ] <= 1876.58
quadratic_ranged_59_ub: [ 1 x_38_ ^ 2 - 2 x_46_ * x_38_ + 1 x_46_ ^ 2 + 1 y_38_ ^ 2 - 2 y_46_ * y_38_ + 1 y_46_ ^ 2 ] <= 1407.94
quadratic_ranged_60_ub: [ 1 x_3_ ^ 2 - 2 x_47_ * x_3_ + 1 x_47_ ^ 2 + 1 y_3_ ^ 2 - 2 y_47_ * y_3_ + 1 y_47_ ^ 2 ] <= 6045.86
quadratic_ranged_61_ub: [ 1 x_27_ ^ 2 - 2 x_48_ * x_27_ + 1 x_48_ ^ 2 + 1 y_27_ ^ 2 - 2 y_48_ * y_27_ + 1 y_48_ ^ 2 ] <= 747.4
quadratic_ranged_62_ub: [ 1 x_30_ ^ 2 - 2 x_48_ * x_30_ + 1 x_48_ ^ 2 + 1 y_30_ ^ 2 - 2 y_48_ * y_30_ + 1 y_48_ ^ 2 ] <= 3427.94
quadratic_ranged_63_ub: [ 1 x_17_ ^ 2 - 2 x_49_ * x_17_ + 1 x_49_ ^ 2 + 1 y_17_ ^ 2 - 2 y_49_ * y_17_ + 1 y_49_ ^ 2 ] <= 36606.44
quadratic_ranged_64_ub: [ 1 x_48_ ^ 2 - 2 x_49_ * x_48_ + 1 x_49_ ^ 2 + 1 y_48_ ^ 2 - 2 y_49_ * y_48_ + 1 y_49_ ^ 2 ] <= 16794.28
quadratic_ranged_65_ub: [ 1 x_24_ ^ 2 - 2 x_50_ * x_24_ + 1 x_50_ ^ 2 + 1 y_24_ ^ 2 - 2 y_50_ * y_24_ + 1 y_50_ ^ 2 ] <= 12585.61
quadratic_ranged_66_ub: [ 1 x_48_ ^ 2 - 2 x_50_ * x_48_ + 1 x_50_ ^ 2 + 1 y_48_ ^ 2 - 2 y_50_ * y_48_ + 1 y_50_ ^ 2 ] <= 14893.460000000001
quadratic_ranged_67_ub: [ 1 x_6_ ^ 2 - 2 x_51_ * x_6_ + 1 x_51_ ^ 2 + 1 y_6_ ^ 2 - 2 y_51_ * y_6_ + 1 y_51_ ^ 2 ] <= 3672.36
quadratic_ranged_68_ub: [ 1 x_32_ ^ 2 - 2 x_51_ * x_32_ + 1 x_51_ ^ 2 + 1 y_32_ ^ 2 - 2 y_51_ * y_32_ + 1 y_51_ ^ 2 ] <= 8025.46
quadratic_ranged_69_ub: [ 1 x_36_ ^ 2 - 2 x_52_ * x_36_ + 1 x_52_ ^ 2 + 1 y_36_ ^ 2 - 2 y_52_ * y_36_ + 1 y_52_ ^ 2 ] <= 10524.2
quadratic_ranged_70_ub: [ 1 x_3_ ^ 2 - 2 x_53_ * x_3_ + 1 x_53_ ^ 2 + 1 y_3_ ^ 2 - 2 y_53_ * y_3_ + 1 y_53_ ^ 2 ] <= 4801.54
quadratic_ranged_71_ub: [ 1 x_37_ ^ 2 - 2 x_53_ * x_37_ + 1 x_53_ ^ 2 + 1 y_37_ ^ 2 - 2 y_53_ * y_37_ + 1 y_53_ ^ 2 ] <= 37770.97
quadratic_ranged_72_ub: [ 1 x_5_ ^ 2 - 2 x_54_ * x_5_ + 1 x_54_ ^ 2 + 1 y_5_ ^ 2 - 2 y_54_ * y_5_ + 1 y_54_ ^ 2 ] <= 4933.85
quadratic_ranged_73_ub: [ 1 x_28_ ^ 2 - 2 x_54_ * x_28_ + 1 x_54_ ^ 2 + 1 y_28_ ^ 2 - 2 y_54_ * y_28_ + 1 y_54_ ^ 2 ] <= 2359.36
quadratic_ranged_74_ub: [ 1 x_30_ ^ 2 - 2 x_54_ * x_30_ + 1 x_54_ ^ 2 + 1 y_30_ ^ 2 - 2 y_54_ * y_30_ + 1 y_54_ ^ 2 ] <= 11094.85
quadratic_ranged_75_ub: [ 1 x_11_ ^ 2 - 2 x_55_ * x_11_ + 1 x_55_ ^ 2 + 1 y_11_ ^ 2 - 2 y_55_ * y_11_ + 1 y_55_ ^ 2 ] <= 9528.34
quadratic_ranged_76_ub: [ 1 x_37_ ^ 2 - 2 x_55_ * x_37_ + 1 x_55_ ^ 2 + 1 y_37_ ^ 2 - 2 y_55_ * y_37_ + 1 y_55_ ^ 2 ] <= 10255.54
quadratic_ranged_77_ub: [ 1 x_5_ ^ 2 - 2 x_56_ * x_5_ + 1 x_56_ ^ 2 + 1 y_5_ ^ 2 - 2 y_56_ * y_5_ + 1 y_56_ ^ 2 ] <= 4618.7300000000005
quadratic_ranged_78_ub: [ 1 x_10_ ^ 2 - 2 x_56_ * x_10_ + 1 x_56_ ^ 2 + 1 y_10_ ^ 2 - 2 y_56_ * y_10_ + 1 y_56_ ^ 2 ] <= 7082.12
quadratic_ranged_79_ub: [ 1 x_12_ ^ 2 - 2 x_57_ * x_12_ + 1 x_57_ ^ 2 + 1 y_12_ ^ 2 - 2 y_57_ * y_12_ + 1 y_57_ ^ 2 ] <= 9907.09
quadratic_ranged_80_ub: [ 1 x_27_ ^ 2 - 2 x_57_ * x_27_ + 1 x_57_ ^ 2 + 1 y_27_ ^ 2 - 2 y_57_ * y_27_ + 1 y_57_ ^ 2 ] <= 3767.3
quadratic_ranged_81_ub: [ 1 x_32_ ^ 2 - 2 x_57_ * x_32_ + 1 x_57_ ^ 2 + 1 y_32_ ^ 2 - 2 y_57_ * y_32_ + 1 y_57_ ^ 2 ] <= 27104.36
quadratic_ranged_82_ub: [ 1 x_28_ ^ 2 - 2 x_58_ * x_28_ + 1 x_58_ ^ 2 + 1 y_28_ ^ 2 - 2 y_58_ * y_28_ + 1 y_58_ ^ 2 ] <= 19103.14
quadratic_ranged_83_ub: [ 1 x_35_ ^ 2 - 2 x_58_ * x_35_ + 1 x_58_ ^ 2 + 1 y_35_ ^ 2 - 2 y_58_ * y_35_ + 1 y_58_ ^ 2 ] <= 25340.9
quadratic_ranged_84_ub: [ 1 x_47_ ^ 2 - 2 x_58_ * x_47_ + 1 x_58_ ^ 2 + 1 y_47_ ^ 2 - 2 y_58_ * y_47_ + 1 y_58_ ^ 2 ] <= 10973.65
quadratic_ranged_85_ub: [ 1 x_11_ ^ 2 - 2 x_59_ * x_11_ + 1 x_59_ ^ 2 + 1 y_11_ ^ 2 - 2 y_59_ * y_11_ + 1 y_59_ ^ 2 ] <= 24701.57
quadratic_ranged_86_ub: [ 1 x_24_ ^ 2 - 2 x_59_ * x_24_ + 1 x_59_ ^ 2 + 1 y_24_ ^ 2 - 2 y_59_ * y_24_ + 1 y_59_ ^ 2 ] <= 4642.97
quadratic_ranged_87_ub: [ 1 x_36_ ^ 2 - 2 x_59_ * x_36_ + 1 x_59_ ^ 2 + 1 y_36_ ^ 2 - 2 y_59_ * y_36_ + 1 y_59_ ^ 2 ] <= 7669.9400000000005
quadratic_ranged_88_ub: [ 1 x_1_ ^ 2 - 2 x_60_ * x_1_ + 1 x_60_ ^ 2 + 1 y_1_ ^ 2 - 2 y_60_ * y_1_ + 1 y_60_ ^ 2 ] <= 18132.53
quadratic_ranged_89_ub: [ 1 x_6_ ^ 2 - 2 x_60_ * x_6_ + 1 x_60_ ^ 2 + 1 y_6_ ^ 2 - 2 y_60_ * y_6_ + 1 y_60_ ^ 2 ] <= 25537.85
quadratic_ranged_90_ub: [ 1 x_52_ ^ 2 - 2 x_60_ * x_52_ + 1 x_60_ ^ 2 + 1 y_52_ ^ 2 - 2 y_60_ * y_52_ + 1 y_60_ ^ 2 ] <= 32013.97
quadratic_ranged_91_ub: [ 1 x_26_ ^ 2 - 2 x_61_ * x_26_ + 1 x_61_ ^ 2 + 1 y_26_ ^ 2 - 2 y_61_ * y_26_ + 1 y_61_ ^ 2 ] <= 7049.8
quadratic_ranged_92_ub: [ 1 x_28_ ^ 2 - 2 x_61_ * x_28_ + 1 x_61_ ^ 2 + 1 y_28_ ^ 2 - 2 y_61_ * y_28_ + 1 y_61_ ^ 2 ] <= 20083.85
quadratic_ranged_93_ub: [ 1 x_31_ ^ 2 - 2 x_61_ * x_31_ + 1 x_61_ ^ 2 + 1 y_31_ ^ 2 - 2 y_61_ * y_31_ + 1 y_61_ ^ 2 ] <= 15453
quadratic_ranged_94_ub: [ 1 x_9_ ^ 2 - 2 x_62_ * x_9_ + 1 x_62_ ^ 2 + 1 y_9_ ^ 2 - 2 y_62_ * y_9_ + 1 y_62_ ^ 2 ] <= 36725.62
quadratic_ranged_95_ub: [ 1 x_19_ ^ 2 - 2 x_62_ * x_19_ + 1 x_62_ ^ 2 + 1 y_19_ ^ 2 - 2 y_62_ * y_19_ + 1 y_62_ ^ 2 ] <= 26407.46
quadratic_ranged_96_ub: [ 1 x_45_ ^ 2 - 2 x_62_ * x_45_ + 1 x_62_ ^ 2 + 1 y_45_ ^ 2 - 2 y_62_ * y_45_ + 1 y_62_ ^ 2 ] <= 6739.7300000000005
quadratic_ranged_97_ub: [ 1 x_50_ ^ 2 - 2 x_63_ * x_50_ + 1 x_63_ ^ 2 + 1 y_50_ ^ 2 - 2 y_63_ * y_50_ + 1 y_63_ ^ 2 ] <= 5286.34
quadratic_ranged_98_ub: [ 1 x_3_ ^ 2 - 2 x_64_ * x_3_ + 1 x_64_ ^ 2 + 1 y_3_ ^ 2 - 2 y_64_ * y_3_ + 1 y_64_ ^ 2 ] <= 2070.5
quadratic_ranged_99_ub: [ 1 x_30_ ^ 2 - 2 x_64_ * x_30_ + 1 x_64_ ^ 2 + 1 y_30_ ^ 2 - 2 y_64_ * y_30_ + 1 y_64_ ^ 2 ] <= 8989
quadratic_ranged_100_ub: [ 1 x_46_ ^ 2 - 2 x_64_ * x_46_ + 1 x_64_ ^ 2 + 1 y_46_ ^ 2 - 2 y_64_ * y_46_ + 1 y_64_ ^ 2 ] <= 6222.61
quadratic_ranged_101_ub: [ 1 x_23_ ^ 2 - 2 x_65_ * x_23_ + 1 x_65_ ^ 2 + 1 y_23_ ^ 2 - 2 y_65_ * y_23_ + 1 y_65_ ^ 2 ] <= 15470.17
quadratic_ranged_102_ub: [ 1 x_41_ ^ 2 - 2 x_65_ * x_41_ + 1 x_65_ ^ 2 + 1 y_41_ ^ 2 - 2 y_65_ * y_41_ + 1 y_65_ ^ 2 ] <= 8913.25
quadratic_ranged_103_ub: [ 1 x_27_ ^ 2 - 2 x_66_ * x_27_ + 1 x_66_ ^ 2 + 1 y_27_ ^ 2 - 2 y_66_ * y_27_ + 1 y_66_ ^ 2 ] <= 1652.3600000000001
quadratic_ranged_104_ub: [ 1 x_53_ ^ 2 - 2 x_66_ * x_53_ + 1 x_66_ ^ 2 + 1 y_53_ ^ 2 - 2 y_66_ * y_53_ + 1 y_66_ ^ 2 ] <= 4833.86
quadratic_ranged_105_ub: [ 1 x_10_ ^ 2 - 2 x_67_ * x_10_ + 1 x_67_ ^ 2 + 1 y_10_ ^ 2 - 2 y_67_ * y_10_ + 1 y_67_ ^ 2 ] <= 1585.7
quadratic_ranged_106_ub: [ 1 x_29_ ^ 2 - 2 x_67_ * x_29_ + 1 x_67_ ^ 2 + 1 y_29_ ^ 2 - 2 y_67_ * y_29_ + 1 y_67_ ^ 2 ] <= 17308.37
quadratic_ranged_107_ub: [ 1 x_64_ ^ 2 - 2 x_67_ * x_64_ + 1 x_67_ ^ 2 + 1 y_64_ ^ 2 - 2 y_67_ * y_64_ + 1 y_67_ ^ 2 ] <= 18871.85
quadratic_ranged_108_ub: [ 1 x_16_ ^ 2 - 2 x_68_ * x_16_ + 1 x_68_ ^ 2 + 1 y_16_ ^ 2 - 2 y_68_ * y_16_ + 1 y_68_ ^ 2 ] <= 13180.5
quadratic_ranged_109_ub: [ 1 x_33_ ^ 2 - 2 x_68_ * x_33_ + 1 x_68_ ^ 2 + 1 y_33_ ^ 2 - 2 y_68_ * y_33_ + 1 y_68_ ^ 2 ] <= 4858.1
quadratic_ranged_110_ub: [ 1 x_60_ ^ 2 - 2 x_68_ * x_60_ + 1 x_68_ ^ 2 + 1 y_60_ ^ 2 - 2 y_68_ * y_60_ + 1 y_68_ ^ 2 ] <= 41499.89
quadratic_ranged_111_ub: [ 1 x_18_ ^ 2 - 2 x_69_ * x_18_ + 1 x_69_ ^ 2 + 1 y_18_ ^ 2 - 2 y_69_ * y_18_ + 1 y_69_ ^ 2 ] <= 13226.960000000001
quadratic_ranged_112_ub: [ 1 x_56_ ^ 2 - 2 x_69_ * x_56_ + 1 x_69_ ^ 2 + 1 y_56_ ^ 2 - 2 y_69_ * y_56_ + 1 y_69_ ^ 2 ] <= 16900.33
quadratic_ranged_113_ub: [ 1 x_29_ ^ 2 - 2 x_70_ * x_29_ + 1 x_70_ ^ 2 + 1 y_29_ ^ 2 - 2 y_70_ * y_29_ + 1 y_70_ ^ 2 ] <= 8367.85
quadratic_ranged_114_ub: [ 1 x_47_ ^ 2 - 2 x_70_ * x_47_ + 1 x_70_ ^ 2 + 1 y_47_ ^ 2 - 2 y_70_ * y_47_ + 1 y_70_ ^ 2 ] <= 15033.85
quadratic_ranged_115_ub: [ 1 x_55_ ^ 2 - 2 x_70_ * x_55_ + 1 x_70_ ^ 2 + 1 y_55_ ^ 2 - 2 y_70_ * y_55_ + 1 y_70_ ^ 2 ] <= 9342.5
quadratic_ranged_116_ub: [ 1 x_6_ ^ 2 - 2 x_71_ * x_6_ + 1 x_71_ ^ 2 + 1 y_6_ ^ 2 - 2 y_71_ * y_6_ + 1 y_71_ ^ 2 ] <= 47938.64
quadratic_ranged_117_ub: [ 1 x_29_ ^ 2 - 2 x_71_ * x_29_ + 1 x_71_ ^ 2 + 1 y_29_ ^ 2 - 2 y_71_ * y_29_ + 1 y_71_ ^ 2 ] <= 9900.02
quadratic_ranged_118_ub: [ 1 x_66_ ^ 2 - 2 x_71_ * x_66_ + 1 x_71_ ^ 2 + 1 y_66_ ^ 2 - 2 y_71_ * y_66_ + 1 y_71_ ^ 2 ] <= 40501
quadratic_ranged_119_ub: [ 1 x_2_ ^ 2 - 2 x_72_ * x_2_ + 1 x_72_ ^ 2 + 1 y_2_ ^ 2 - 2 y_72_ * y_2_ + 1 y_72_ ^ 2 ] <= 35779.25
quadratic_ranged_120_ub: [ 1 x_32_ ^ 2 - 2 x_72_ * x_32_ + 1 x_72_ ^ 2 + 1 y_32_ ^ 2 - 2 y_72_ * y_32_ + 1 y_72_ ^ 2 ] <= 38497.16
quadratic_ranged_121_ub: [ 1 x_2_ ^ 2 - 2 x_73_ * x_2_ + 1 x_73_ ^ 2 + 1 y_2_ ^ 2 - 2 y_73_ * y_2_ + 1 y_73_ ^ 2 ] <= 25379.28
quadratic_ranged_122_ub: [ 1 x_38_ ^ 2 - 2 x_73_ * x_38_ + 1 x_73_ ^ 2 + 1 y_38_ ^ 2 - 2 y_73_ * y_38_ + 1 y_73_ ^ 2 ] <= 9413.2
quadratic_ranged_123_ub: [ 1 x_52_ ^ 2 - 2 x_73_ * x_52_ + 1 x_73_ ^ 2 + 1 y_52_ ^ 2 - 2 y_73_ * y_52_ + 1 y_73_ ^ 2 ] <= 1645.29
quadratic_ranged_124_ub: [ 1 x_51_ ^ 2 - 2 x_74_ * x_51_ + 1 x_74_ ^ 2 + 1 y_51_ ^ 2 - 2 y_74_ * y_51_ + 1 y_74_ ^ 2 ] <= 5236.85
quadratic_ranged_125_ub: [ 1 x_60_ ^ 2 - 2 x_74_ * x_60_ + 1 x_74_ ^ 2 + 1 y_60_ ^ 2 - 2 y_74_ * y_60_ + 1 y_74_ ^ 2 ] <= 1195.84
quadratic_ranged_126_ub: [ 1 x_31_ ^ 2 - 2 x_75_ * x_31_ + 1 x_75_ ^ 2 + 1 y_31_ ^ 2 - 2 y_75_ * y_31_ + 1 y_75_ ^ 2 ] <= 13458.25
quadratic_ranged_127_ub: [ 1 x_72_ ^ 2 - 2 x_75_ * x_72_ + 1 x_75_ ^ 2 + 1 y_72_ ^ 2 - 2 y_75_ * y_72_ + 1 y_75_ ^ 2 ] <= 35488.37
quadratic_ranged_128_ub: [ 1 x_10_ ^ 2 - 2 x_76_ * x_10_ + 1 x_76_ ^ 2 + 1 y_10_ ^ 2 - 2 y_76_ * y_10_ + 1 y_76_ ^ 2 ] <= 36078.21
quadratic_ranged_129_ub: [ 1 x_62_ ^ 2 - 2 x_76_ * x_62_ + 1 x_76_ ^ 2 + 1 y_62_ ^ 2 - 2 y_76_ * y_62_ + 1 y_76_ ^ 2 ] <= 6816.49
quadratic_ranged_130_ub: [ 1 x_74_ ^ 2 - 2 x_76_ * x_74_ + 1 x_76_ ^ 2 + 1 y_74_ ^ 2 - 2 y_76_ * y_74_ + 1 y_76_ ^ 2 ] <= 48129.53
quadratic_ranged_131_ub: [ 1 x_4_ ^ 2 - 2 x_77_ * x_4_ + 1 x_77_ ^ 2 + 1 y_4_ ^ 2 - 2 y_77_ * y_4_ + 1 y_77_ ^ 2 ] <= 1054.44
quadratic_ranged_132_ub: [ 1 x_43_ ^ 2 - 2 x_77_ * x_43_ + 1 x_77_ ^ 2 + 1 y_43_ ^ 2 - 2 y_77_ * y_43_ + 1 y_77_ ^ 2 ] <= 36943.78
quadratic_ranged_133_ub: [ 1 x_65_ ^ 2 - 2 x_77_ * x_65_ + 1 x_77_ ^ 2 + 1 y_65_ ^ 2 - 2 y_77_ * y_65_ + 1 y_77_ ^ 2 ] <= 21583.7
quadratic_ranged_134_ub: [ 1 x_40_ ^ 2 - 2 x_78_ * x_40_ + 1 x_78_ ^ 2 + 1 y_40_ ^ 2 - 2 y_78_ * y_40_ + 1 y_78_ ^ 2 ] <= 10367.65
quadratic_ranged_135_ub: [ 1 x_60_ ^ 2 - 2 x_78_ * x_60_ + 1 x_78_ ^ 2 + 1 y_60_ ^ 2 - 2 y_78_ * y_60_ + 1 y_78_ ^ 2 ] <= 2352.29
quadratic_ranged_136_ub: [ 1 x_63_ ^ 2 - 2 x_78_ * x_63_ + 1 x_78_ ^ 2 + 1 y_63_ ^ 2 - 2 y_78_ * y_63_ + 1 y_78_ ^ 2 ] <= 29017.3
quadratic_ranged_137_ub: [ 1 x_20_ ^ 2 - 2 x_79_ * x_20_ + 1 x_79_ ^ 2 + 1 y_20_ ^ 2 - 2 y_79_ * y_20_ + 1 y_79_ ^ 2 ] <= 16757.920000000002
quadratic_ranged_138_ub: [ 1 x_29_ ^ 2 - 2 x_79_ * x_29_ + 1 x_79_ ^ 2 + 1 y_29_ ^ 2 - 2 y_79_ * y_29_ + 1 y_79_ ^ 2 ] <= 1603.88
quadratic_ranged_139_ub: [ 1 x_4_ ^ 2 - 2 x_80_ * x_4_ + 1 x_80_ ^ 2 + 1 y_4_ ^ 2 - 2 y_80_ * y_4_ + 1 y_80_ ^ 2 ] <= 11257.460000000001
quadratic_ranged_140_ub: [ 1 x_28_ ^ 2 - 2 x_80_ * x_28_ + 1 x_80_ ^ 2 + 1 y_28_ ^ 2 - 2 y_80_ * y_28_ + 1 y_80_ ^ 2 ] <= 27489.170000000002
quadratic_ranged_141_ub: [ 1 x_40_ ^ 2 - 2 x_80_ * x_40_ + 1 x_80_ ^ 2 + 1 y_40_ ^ 2 - 2 y_80_ * y_40_ + 1 y_80_ ^ 2 ] <= 16314.53
quadratic_ranged_142_ub: [ 1 x_7_ ^ 2 - 2 x_81_ * x_7_ + 1 x_81_ ^ 2 + 1 y_7_ ^ 2 - 2 y_81_ * y_7_ + 1 y_81_ ^ 2 ] <= 8262.81
quadratic_ranged_143_ub: [ 1 x_9_ ^ 2 - 2 x_81_ * x_9_ + 1 x_81_ ^ 2 + 1 y_9_ ^ 2 - 2 y_81_ * y_9_ + 1 y_81_ ^ 2 ] <= 29392.010000000002
quadratic_ranged_144_ub: [ 1 x_79_ ^ 2 - 2 x_81_ * x_79_ + 1 x_81_ ^ 2 + 1 y_79_ ^ 2 - 2 y_81_ * y_79_ + 1 y_81_ ^ 2 ] <= 4080.4
quadratic_ranged_145_ub: [ 1 x_15_ ^ 2 - 2 x_82_ * x_15_ + 1 x_82_ ^ 2 + 1 y_15_ ^ 2 - 2 y_82_ * y_15_ + 1 y_82_ ^ 2 ] <= 7191.2
quadratic_ranged_146_ub: [ 1 x_30_ ^ 2 - 2 x_82_ * x_30_ + 1 x_82_ ^ 2 + 1 y_30_ ^ 2 - 2 y_82_ * y_30_ + 1 y_82_ ^ 2 ] <= 7304.32
quadratic_ranged_147_ub: [ 1 x_36_ ^ 2 - 2 x_82_ * x_36_ + 1 x_82_ ^ 2 + 1 y_36_ ^ 2 - 2 y_82_ * y_36_ + 1 y_82_ ^ 2 ] <= 20430.28
quadratic_ranged_148_ub: [ 1 x_23_ ^ 2 - 2 x_83_ * x_23_ + 1 x_83_ ^ 2 + 1 y_23_ ^ 2 - 2 y_83_ * y_23_ + 1 y_83_ ^ 2 ] <= 15045.97
quadratic_ranged_149_ub: [ 1 x_52_ ^ 2 - 2 x_83_ * x_52_ + 1 x_83_ ^ 2 + 1 y_52_ ^ 2 - 2 y_83_ * y_52_ + 1 y_83_ ^ 2 ] <= 24338.98
quadratic_ranged_150_ub: [ 1 x_59_ ^ 2 - 2 x_83_ * x_59_ + 1 x_83_ ^ 2 + 1 y_59_ ^ 2 - 2 y_83_ * y_59_ + 1 y_83_ ^ 2 ] <= 26502.4
quadratic_ranged_151_ub: [ 1 x_5_ ^ 2 - 2 x_84_ * x_5_ + 1 x_84_ ^ 2 + 1 y_5_ ^ 2 - 2 y_84_ * y_5_ + 1 y_84_ ^ 2 ] <= 9972.74
quadratic_ranged_152_ub: [ 1 x_72_ ^ 2 - 2 x_84_ * x_72_ + 1 x_84_ ^ 2 + 1 y_72_ ^ 2 - 2 y_84_ * y_72_ + 1 y_84_ ^ 2 ] <= 31867.52
quadratic_ranged_153_ub: [ 1 x_83_ ^ 2 - 2 x_84_ * x_83_ + 1 x_84_ ^ 2 + 1 y_83_ ^ 2 - 2 y_84_ * y_83_ + 1 y_84_ ^ 2 ] <= 26916.5
quadratic_ranged_154_ub: [ 1 x_7_ ^ 2 - 2 x_85_ * x_7_ + 1 x_85_ ^ 2 + 1 y_7_ ^ 2 - 2 y_85_ * y_7_ + 1 y_85_ ^ 2 ] <= 14932.85
quadratic_ranged_155_ub: [ 1 x_13_ ^ 2 - 2 x_85_ * x_13_ + 1 x_85_ ^ 2 + 1 y_13_ ^ 2 - 2 y_85_ * y_13_ + 1 y_85_ ^ 2 ] <= 198.97
quadratic_ranged_156_ub: [ 1 x_63_ ^ 2 - 2 x_85_ * x_63_ + 1 x_85_ ^ 2 + 1 y_63_ ^ 2 - 2 y_85_ * y_63_ + 1 y_85_ ^ 2 ] <= 7645.7
quadratic_ranged_157_ub: [ 1 x_10_ ^ 2 - 2 x_86_ * x_10_ + 1 x_86_ ^ 2 + 1 y_10_ ^ 2 - 2 y_86_ * y_10_ + 1 y_86_ ^ 2 ] <= 18144.65
quadratic_ranged_158_ub: [ 1 x_25_ ^ 2 - 2 x_86_ * x_25_ + 1 x_86_ ^ 2 + 1 y_25_ ^ 2 - 2 y_86_ * y_25_ + 1 y_86_ ^ 2 ] <= 7297.25
quadratic_ranged_159_ub: [ 1 x_3_ ^ 2 - 2 x_87_ * x_3_ + 1 x_87_ ^ 2 + 1 y_3_ ^ 2 - 2 y_87_ * y_3_ + 1 y_87_ ^ 2 ] <= 1532.17
quadratic_ranged_160_ub: [ 1 x_4_ ^ 2 - 2 x_87_ * x_4_ + 1 x_87_ ^ 2 + 1 y_4_ ^ 2 - 2 y_87_ * y_4_ + 1 y_87_ ^ 2 ] <= 2715.89
quadratic_ranged_161_ub: [ 1 x_15_ ^ 2 - 2 x_87_ * x_15_ + 1 x_87_ ^ 2 + 1 y_15_ ^ 2 - 2 y_87_ * y_15_ + 1 y_87_ ^ 2 ] <= 11026.17
quadratic_ranged_162_ub: [ 1 x_16_ ^ 2 - 2 x_88_ * x_16_ + 1 x_88_ ^ 2 + 1 y_16_ ^ 2 - 2 y_88_ * y_16_ + 1 y_88_ ^ 2 ] <= 5148.9800000000005
quadratic_ranged_163_ub: [ 1 x_40_ ^ 2 - 2 x_88_ * x_40_ + 1 x_88_ ^ 2 + 1 y_40_ ^ 2 - 2 y_88_ * y_40_ + 1 y_88_ ^ 2 ] <= 16088.29
quadratic_ranged_164_ub: [ 1 x_82_ ^ 2 - 2 x_88_ * x_82_ + 1 x_88_ ^ 2 + 1 y_82_ ^ 2 - 2 y_88_ * y_82_ + 1 y_88_ ^ 2 ] <= 9312.2
quadratic_ranged_165_ub: [ 1 x_21_ ^ 2 - 2 x_89_ * x_21_ + 1 x_89_ ^ 2 + 1 y_21_ ^ 2 - 2 y_89_ * y_21_ + 1 y_89_ ^ 2 ] <= 4771.24
quadratic_ranged_166_ub: [ 1 x_26_ ^ 2 - 2 x_89_ * x_26_ + 1 x_89_ ^ 2 + 1 y_26_ ^ 2 - 2 y_89_ * y_26_ + 1 y_89_ ^ 2 ] <= 1273.61
quadratic_ranged_167_ub: [ 1 x_61_ ^ 2 - 2 x_89_ * x_61_ + 1 x_89_ ^ 2 + 1 y_61_ ^ 2 - 2 y_89_ * y_61_ + 1 y_89_ ^ 2 ] <= 6145.85
quadratic_ranged_168_ub: [ 1 x_9_ ^ 2 - 2 x_90_ * x_9_ + 1 x_90_ ^ 2 + 1 y_9_ ^ 2 - 2 y_90_ * y_9_ + 1 y_90_ ^ 2 ] <= 429.25
quadratic_ranged_169_ub: [ 1 x_72_ ^ 2 - 2 x_90_ * x_72_ + 1 x_90_ ^ 2 + 1 y_72_ ^ 2 - 2 y_90_ * y_72_ + 1 y_90_ ^ 2 ] <= 72206.92
quadratic_ranged_170_ub: [ 1 x_86_ ^ 2 - 2 x_90_ * x_86_ + 1 x_90_ ^ 2 + 1 y_86_ ^ 2 - 2 y_90_ * y_86_ + 1 y_90_ ^ 2 ] <= 15453
quadratic_ranged_171_ub: [ 1 x_1_ ^ 2 - 2 x_91_ * x_1_ + 1 x_91_ ^ 2 + 1 y_1_ ^ 2 - 2 y_91_ * y_1_ + 1 y_91_ ^ 2 ] <= 1754.3700000000001
quadratic_ranged_172_ub: [ 1 x_18_ ^ 2 - 2 x_91_ * x_18_ + 1 x_91_ ^ 2 + 1 y_18_ ^ 2 - 2 y_91_ * y_18_ + 1 y_91_ ^ 2 ] <= 14367.25
quadratic_ranged_173_ub: [ 1 x_21_ ^ 2 - 2 x_91_ * x_21_ + 1 x_91_ ^ 2 + 1 y_21_ ^ 2 - 2 y_91_ * y_21_ + 1 y_91_ ^ 2 ] <= 9081.92
quadratic_ranged_174_ub: [ 1 x_2_ ^ 2 - 2 x_92_ * x_2_ + 1 x_92_ ^ 2 + 1 y_2_ ^ 2 - 2 y_92_ * y_2_ + 1 y_92_ ^ 2 ] <= 32922.97
quadratic_ranged_175_ub: [ 1 x_47_ ^ 2 - 2 x_92_ * x_47_ + 1 x_92_ ^ 2 + 1 y_47_ ^ 2 - 2 y_92_ * y_47_ + 1 y_92_ ^ 2 ] <= 14327.86
quadratic_ranged_176_ub: [ 1 x_72_ ^ 2 - 2 x_92_ * x_72_ + 1 x_92_ ^ 2 + 1 y_72_ ^ 2 - 2 y_92_ * y_72_ + 1 y_92_ ^ 2 ] <= 171.7
quadratic_ranged_177_ub: [ 1 x_7_ ^ 2 - 2 x_93_ * x_7_ + 1 x_93_ ^ 2 + 1 y_7_ ^ 2 - 2 y_93_ * y_7_ + 1 y_93_ ^ 2 ] <= 2352.29
quadratic_ranged_178_ub: [ 1 x_56_ ^ 2 - 2 x_93_ * x_56_ + 1 x_93_ ^ 2 + 1 y_56_ ^ 2 - 2 y_93_ * y_56_ + 1 y_93_ ^ 2 ] <= 4089.4900000000002
quadratic_ranged_179_ub: [ 1 x_86_ ^ 2 - 2 x_93_ * x_86_ + 1 x_93_ ^ 2 + 1 y_86_ ^ 2 - 2 y_93_ * y_86_ + 1 y_93_ ^ 2 ] <= 3268.36
quadratic_ranged_180_ub: [ 1 x_5_ ^ 2 - 2 x_94_ * x_5_ + 1 x_94_ ^ 2 + 1 y_5_ ^ 2 - 2 y_94_ * y_5_ + 1 y_94_ ^ 2 ] <= 8670.85
quadratic_ranged_181_ub: [ 1 x_69_ ^ 2 - 2 x_94_ * x_69_ + 1 x_94_ ^ 2 + 1 y_69_ ^ 2 - 2 y_94_ * y_69_ + 1 y_94_ ^ 2 ] <= 29270.81
quadratic_ranged_182_ub: [ 1 x_10_ ^ 2 - 2 x_95_ * x_10_ + 1 x_95_ ^ 2 + 1 y_10_ ^ 2 - 2 y_95_ * y_10_ + 1 y_95_ ^ 2 ] <= 934.25
quadratic_ranged_183_ub: [ 1 x_11_ ^ 2 - 2 x_95_ * x_11_ + 1 x_95_ ^ 2 + 1 y_11_ ^ 2 - 2 y_95_ * y_11_ + 1 y_95_ ^ 2 ] <= 1035.25
quadratic_ranged_184_ub: [ 1 x_14_ ^ 2 - 2 x_96_ * x_14_ + 1 x_96_ ^ 2 + 1 y_14_ ^ 2 - 2 y_96_ * y_14_ + 1 y_96_ ^ 2 ] <= 10339.37
quadratic_ranged_185_ub: [ 1 x_75_ ^ 2 - 2 x_96_ * x_75_ + 1 x_96_ ^ 2 + 1 y_75_ ^ 2 - 2 y_96_ * y_75_ + 1 y_96_ ^ 2 ] <= 1506.92
quadratic_ranged_186_ub: [ 1 x_87_ ^ 2 - 2 x_96_ * x_87_ + 1 x_96_ ^ 2 + 1 y_87_ ^ 2 - 2 y_96_ * y_87_ + 1 y_96_ ^ 2 ] <= 1818
quadratic_ranged_187_ub: [ 1 x_44_ ^ 2 - 2 x_97_ * x_44_ + 1 x_97_ ^ 2 + 1 y_44_ ^ 2 - 2 y_97_ * y_44_ + 1 y_97_ ^ 2 ] <= 7379.06
quadratic_ranged_188_ub: [ 1 x_94_ ^ 2 - 2 x_97_ * x_94_ + 1 x_97_ ^ 2 + 1 y_94_ ^ 2 - 2 y_97_ * y_94_ + 1 y_97_ ^ 2 ] <= 17618.44
quadratic_ranged_189_ub: [ 1 x_95_ ^ 2 - 2 x_97_ * x_95_ + 1 x_97_ ^ 2 + 1 y_95_ ^ 2 - 2 y_97_ * y_95_ + 1 y_97_ ^ 2 ] <= 12145.25
quadratic_ranged_190_ub: [ 1 x_21_ ^ 2 - 2 x_98_ * x_21_ + 1 x_98_ ^ 2 + 1 y_21_ ^ 2 - 2 y_98_ * y_21_ + 1 y_98_ ^ 2 ] <= 9260.69
quadratic_ranged_191_ub: [ 1 x_65_ ^ 2 - 2 x_98_ * x_65_ + 1 x_98_ ^ 2 + 1 y_65_ ^ 2 - 2 y_98_ * y_65_ + 1 y_98_ ^ 2 ] <= 15291.4
quadratic_ranged_192_ub: [ 1 x_83_ ^ 2 - 2 x_98_ * x_83_ + 1 x_98_ ^ 2 + 1 y_83_ ^ 2 - 2 y_98_ * y_83_ + 1 y_98_ ^ 2 ] <= 19105.16
quadratic_ranged_193_ub: [ 1 x_2_ ^ 2 - 2 x_99_ * x_2_ + 1 x_99_ ^ 2 + 1 y_2_ ^ 2 - 2 y_99_ * y_2_ + 1 y_99_ ^ 2 ] <= 24943.97
quadratic_ranged_194_ub: [ 1 x_49_ ^ 2 - 2 x_99_ * x_49_ + 1 x_99_ ^ 2 + 1 y_49_ ^ 2 - 2 y_99_ * y_49_ + 1 y_99_ ^ 2 ] <= 37931.56
quadratic_ranged_195_ub: [ 1 x_83_ ^ 2 - 2 x_99_ * x_83_ + 1 x_99_ ^ 2 + 1 y_83_ ^ 2 - 2 y_99_ * y_83_ + 1 y_99_ ^ 2 ] <= 36343.840000000004
quadratic_ranged_196_ub: [ 1 x_4_ ^ 2 - 2 x_100_ * x_4_ + 1 x_100_ ^ 2 + 1 y_4_ ^ 2 - 2 y_100_ * y_4_ + 1 y_100_ ^ 2 ] <= 19056.68
quadratic_ranged_197_ub: [ 1 x_48_ ^ 2 - 2 x_100_ * x_48_ + 1 x_100_ ^ 2 + 1 y_48_ ^ 2 - 2 y_100_ * y_48_ + 1 y_100_ ^ 2 ] <= 14796.5
quadratic_ranged_198_ub: [ 1 x_76_ ^ 2 - 2 x_100_ * x_76_ + 1 x_100_ ^ 2 + 1 y_76_ ^ 2 - 2 y_100_ * y_76_ + 1 y_100_ ^ 2 ] <= 20688.84
quadratic_ranged_1_lb: [ 1 x_1_ ^ 2 - 2 x_3_ * x_1_ + 1 x_3_ ^ 2 + 1 y_1_ ^ 2 - 2 y_3_ * y_1_ + 1 y_3_ ^ 2 ] >= 8999.1
quadratic_ranged_2_lb: [ 1 x_1_ ^ 2 - 2 x_10_ * x_1_ + 1 x_10_ ^ 2 + 1 y_1_ ^ 2 - 2 y_10_ * y_1_ + 1 y_10_ ^ 2 ] >= 1509.75
quadratic_ranged_3_lb: [ 1 x_9_ ^ 2 - 2 x_10_ * x_9_ + 1 x_10_ ^ 2 + 1 y_9_ ^ 2 - 2 y_10_ * y_9_ + 1 y_10_ ^ 2 ] >= 11123.64
quadratic_ranged_4_lb: [ 1 x_9_ ^ 2 - 2 x_11_ * x_9_ + 1 x_11_ ^ 2 + 1 y_9_ ^ 2 - 2 y_11_ * y_9_ + 1 y_11_ ^ 2 ] >= 3500.64
quadratic_ranged_5_lb: [ 1 x_2_ ^ 2 - 2 x_12_ * x_2_ + 1 x_12_ ^ 2 + 1 y_2_ ^ 2 - 2 y_12_ * y_2_ + 1 y_12_ ^ 2 ] >= 12802.68
quadratic_ranged_6_lb: [ 1 x_7_ ^ 2 - 2 x_13_ * x_7_ + 1 x_13_ ^ 2 + 1 y_7_ ^ 2 - 2 y_13_ * y_7_ + 1 y_13_ ^ 2 ] >= 17590.32
quadratic_ranged_7_lb: [ 1 x_1_ ^ 2 - 2 x_17_ * x_1_ + 1 x_17_ ^ 2 + 1 y_1_ ^ 2 - 2 y_17_ * y_1_ + 1 y_17_ ^ 2 ] >= 5791.5
quadratic_ranged_8_lb: [ 1 x_15_ ^ 2 - 2 x_17_ * x_15_ + 1 x_17_ ^ 2 + 1 y_15_ ^ 2 - 2 y_17_ * y_15_ + 1 y_17_ ^ 2 ] >= 2045.34
quadratic_ranged_9_lb: [ 1 x_15_ ^ 2 - 2 x_18_ * x_15_ + 1 x_18_ ^ 2 + 1 y_15_ ^ 2 - 2 y_18_ * y_15_ + 1 y_18_ ^ 2 ] >= 2710.62
quadratic_ranged_10_lb: [ 1 x_11_ ^ 2 - 2 x_20_ * x_11_ + 1 x_20_ ^ 2 + 1 y_11_ ^ 2 - 2 y_20_ * y_11_ + 1 y_20_ ^ 2 ] >= 4341.15
quadratic_ranged_11_lb: [ 1 x_14_ ^ 2 - 2 x_20_ * x_14_ + 1 x_20_ ^ 2 + 1 y_14_ ^ 2 - 2 y_20_ * y_14_ + 1 y_20_ ^ 2 ] >= 25383.6
quadratic_ranged_12_lb: [ 1 x_16_ ^ 2 - 2 x_21_ * x_16_ + 1 x_21_ ^ 2 + 1 y_16_ ^ 2 - 2 y_21_ * y_16_ + 1 y_21_ ^ 2 ] >= 12177.99
quadratic_ranged_13_lb: [ 1 x_17_ ^ 2 - 2 x_21_ * x_17_ + 1 x_21_ ^ 2 + 1 y_17_ ^ 2 - 2 y_21_ * y_17_ + 1 y_21_ ^ 2 ] >= 274.23
quadratic_ranged_14_lb: [ 1 x_6_ ^ 2 - 2 x_22_ * x_6_ + 1 x_22_ ^ 2 + 1 y_6_ ^ 2 - 2 y_22_ * y_6_ + 1 y_22_ ^ 2 ] >= 1723.59
quadratic_ranged_15_lb: [ 1 x_11_ ^ 2 - 2 x_22_ * x_11_ + 1 x_22_ ^ 2 + 1 y_11_ ^ 2 - 2 y_22_ * y_11_ + 1 y_22_ ^ 2 ] >= 12117.6
quadratic_ranged_16_lb: [ 1 x_13_ ^ 2 - 2 x_22_ * x_13_ + 1 x_22_ ^ 2 + 1 y_13_ ^ 2 - 2 y_22_ * y_13_ + 1 y_22_ ^ 2 ] >= 20061.36
quadratic_ranged_17_lb: [ 1 x_15_ ^ 2 - 2 x_23_ * x_15_ + 1 x_23_ ^ 2 + 1 y_15_ ^ 2 - 2 y_23_ * y_15_ + 1 y_23_ ^ 2 ] >= 11382.03
quadratic_ranged_18_lb: [ 1 x_6_ ^ 2 - 2 x_24_ * x_6_ + 1 x_24_ ^ 2 + 1 y_6_ ^ 2 - 2 y_24_ * y_6_ + 1 y_24_ ^ 2 ] >= 12269.07
quadratic_ranged_19_lb: [ 1 x_19_ ^ 2 - 2 x_24_ * x_19_ + 1 x_24_ ^ 2 + 1 y_19_ ^ 2 - 2 y_24_ * y_19_ + 1 y_24_ ^ 2 ] >= 14576.76
quadratic_ranged_20_lb: [ 1 x_13_ ^ 2 - 2 x_25_ * x_13_ + 1 x_25_ ^ 2 + 1 y_13_ ^ 2 - 2 y_25_ * y_13_ + 1 y_25_ ^ 2 ] >= 9765.36
quadratic_ranged_21_lb: [ 1 x_19_ ^ 2 - 2 x_25_ * x_19_ + 1 x_25_ ^ 2 + 1 y_19_ ^ 2 - 2 y_25_ * y_19_ + 1 y_25_ ^ 2 ] >= 15285.6
quadratic_ranged_22_lb: [ 1 x_12_ ^ 2 - 2 x_26_ * x_12_ + 1 x_26_ ^ 2 + 1 y_12_ ^ 2 - 2 y_26_ * y_12_ + 1 y_26_ ^ 2 ] >= 4182.75
quadratic_ranged_23_lb: [ 1 x_4_ ^ 2 - 2 x_27_ * x_4_ + 1 x_27_ ^ 2 + 1 y_4_ ^ 2 - 2 y_27_ * y_4_ + 1 y_27_ ^ 2 ] >= 2457.18
quadratic_ranged_24_lb: [ 1 x_6_ ^ 2 - 2 x_28_ * x_6_ + 1 x_28_ ^ 2 + 1 y_6_ ^ 2 - 2 y_28_ * y_6_ + 1 y_28_ ^ 2 ] >= 41866.11
quadratic_ranged_25_lb: [ 1 x_8_ ^ 2 - 2 x_29_ * x_8_ + 1 x_29_ ^ 2 + 1 y_8_ ^ 2 - 2 y_29_ * y_8_ + 1 y_29_ ^ 2 ] >= 4831.2
quadratic_ranged_26_lb: [ 1 x_16_ ^ 2 - 2 x_31_ * x_16_ + 1 x_31_ ^ 2 + 1 y_16_ ^ 2 - 2 y_31_ * y_16_ + 1 y_31_ ^ 2 ] >= 8949.6
quadratic_ranged_27_lb: [ 1 x_19_ ^ 2 - 2 x_32_ * x_19_ + 1 x_32_ ^ 2 + 1 y_19_ ^ 2 - 2 y_32_ * y_19_ + 1 y_32_ ^ 2 ] >= 1691.91
quadratic_ranged_28_lb: [ 1 x_6_ ^ 2 - 2 x_33_ * x_6_ + 1 x_33_ ^ 2 + 1 y_6_ ^ 2 - 2 y_33_ * y_6_ + 1 y_33_ ^ 2 ] >= 10676.16
quadratic_ranged_29_lb: [ 1 x_18_ ^ 2 - 2 x_33_ * x_18_ + 1 x_33_ ^ 2 + 1 y_18_ ^ 2 - 2 y_33_ * y_18_ + 1 y_33_ ^ 2 ] >= 3366
quadratic_ranged_30_lb: [ 1 x_10_ ^ 2 - 2 x_34_ * x_10_ + 1 x_34_ ^ 2 + 1 y_10_ ^ 2 - 2 y_34_ * y_10_ + 1 y_34_ ^ 2 ] >= 25551.9
quadratic_ranged_31_lb: [ 1 x_15_ ^ 2 - 2 x_34_ * x_15_ + 1 x_34_ ^ 2 + 1 y_15_ ^ 2 - 2 y_34_ * y_15_ + 1 y_34_ ^ 2 ] >= 15013.35
quadratic_ranged_32_lb: [ 1 x_5_ ^ 2 - 2 x_35_ * x_5_ + 1 x_35_ ^ 2 + 1 y_5_ ^ 2 - 2 y_35_ * y_5_ + 1 y_35_ ^ 2 ] >= 12906.63
quadratic_ranged_33_lb: [ 1 x_6_ ^ 2 - 2 x_35_ * x_6_ + 1 x_35_ ^ 2 + 1 y_6_ ^ 2 - 2 y_35_ * y_6_ + 1 y_35_ ^ 2 ] >= 301.95
quadratic_ranged_34_lb: [ 1 x_14_ ^ 2 - 2 x_35_ * x_14_ + 1 x_35_ ^ 2 + 1 y_14_ ^ 2 - 2 y_35_ * y_14_ + 1 y_35_ ^ 2 ] >= 313.83
quadratic_ranged_35_lb: [ 1 x_7_ ^ 2 - 2 x_36_ * x_7_ + 1 x_36_ ^ 2 + 1 y_7_ ^ 2 - 2 y_36_ * y_7_ + 1 y_36_ ^ 2 ] >= 17001.27
quadratic_ranged_36_lb: [ 1 x_1_ ^ 2 - 2 x_37_ * x_1_ + 1 x_37_ ^ 2 + 1 y_1_ ^ 2 - 2 y_37_ * y_1_ + 1 y_37_ ^ 2 ] >= 21135.51
quadratic_ranged_37_lb: [ 1 x_16_ ^ 2 - 2 x_38_ * x_16_ + 1 x_38_ ^ 2 + 1 y_16_ ^ 2 - 2 y_38_ * y_16_ + 1 y_38_ ^ 2 ] >= 2650.23
quadratic_ranged_38_lb: [ 1 x_5_ ^ 2 - 2 x_39_ * x_5_ + 1 x_39_ ^ 2 + 1 y_5_ ^ 2 - 2 y_39_ * y_5_ + 1 y_39_ ^ 2 ] >= 400.95
quadratic_ranged_39_lb: [ 1 x_10_ ^ 2 - 2 x_39_ * x_10_ + 1 x_39_ ^ 2 + 1 y_10_ ^ 2 - 2 y_39_ * y_10_ + 1 y_39_ ^ 2 ] >= 13450.14
quadratic_ranged_40_lb: [ 1 x_20_ ^ 2 - 2 x_39_ * x_20_ + 1 x_39_ ^ 2 + 1 y_20_ ^ 2 - 2 y_39_ * y_20_ + 1 y_39_ ^ 2 ] >= 14957.91
quadratic_ranged_41_lb: [ 1 x_25_ ^ 2 - 2 x_40_ * x_25_ + 1 x_40_ ^ 2 + 1 y_25_ ^ 2 - 2 y_40_ * y_25_ + 1 y_40_ ^ 2 ] >= 437.58
quadratic_ranged_42_lb: [ 1 x_34_ ^ 2 - 2 x_40_ * x_34_ + 1 x_40_ ^ 2 + 1 y_34_ ^ 2 - 2 y_40_ * y_34_ + 1 y_40_ ^ 2 ] >= 7167.6
quadratic_ranged_43_lb: [ 1 x_10_ ^ 2 - 2 x_41_ * x_10_ + 1 x_41_ ^ 2 + 1 y_10_ ^ 2 - 2 y_41_ * y_10_ + 1 y_41_ ^ 2 ] >= 27397.26
quadratic_ranged_44_lb: [ 1 x_26_ ^ 2 - 2 x_41_ * x_26_ + 1 x_41_ ^ 2 + 1 y_26_ ^ 2 - 2 y_41_ * y_26_ + 1 y_41_ ^ 2 ] >= 13500.63
quadratic_ranged_45_lb: [ 1 x_36_ ^ 2 - 2 x_41_ * x_36_ + 1 x_41_ ^ 2 + 1 y_36_ ^ 2 - 2 y_41_ * y_36_ + 1 y_41_ ^ 2 ] >= 18941.67
quadratic_ranged_46_lb: [ 1 x_8_ ^ 2 - 2 x_42_ * x_8_ + 1 x_42_ ^ 2 + 1 y_8_ ^ 2 - 2 y_42_ * y_8_ + 1 y_42_ ^ 2 ] >= 16760.7
quadratic_ranged_47_lb: [ 1 x_12_ ^ 2 - 2 x_42_ * x_12_ + 1 x_42_ ^ 2 + 1 y_12_ ^ 2 - 2 y_42_ * y_12_ + 1 y_42_ ^ 2 ] >= 2202.75
quadratic_ranged_48_lb: [ 1 x_16_ ^ 2 - 2 x_42_ * x_16_ + 1 x_42_ ^ 2 + 1 y_16_ ^ 2 - 2 y_42_ * y_16_ + 1 y_42_ ^ 2 ] >= 4534.2
quadratic_ranged_49_lb: [ 1 x_8_ ^ 2 - 2 x_43_ * x_8_ + 1 x_43_ ^ 2 + 1 y_8_ ^ 2 - 2 y_43_ * y_8_ + 1 y_43_ ^ 2 ] >= 3859.02
quadratic_ranged_50_lb: [ 1 x_12_ ^ 2 - 2 x_43_ * x_12_ + 1 x_43_ ^ 2 + 1 y_12_ ^ 2 - 2 y_43_ * y_12_ + 1 y_43_ ^ 2 ] >= 29269.35
quadratic_ranged_51_lb: [ 1 x_2_ ^ 2 - 2 x_44_ * x_2_ + 1 x_44_ ^ 2 + 1 y_2_ ^ 2 - 2 y_44_ * y_2_ + 1 y_44_ ^ 2 ] >= 34265.88
quadratic_ranged_52_lb: [ 1 x_17_ ^ 2 - 2 x_44_ * x_17_ + 1 x_44_ ^ 2 + 1 y_17_ ^ 2 - 2 y_44_ * y_17_ + 1 y_44_ ^ 2 ] >= 29645.55
quadratic_ranged_53_lb: [ 1 x_27_ ^ 2 - 2 x_44_ * x_27_ + 1 x_44_ ^ 2 + 1 y_27_ ^ 2 - 2 y_44_ * y_27_ + 1 y_44_ ^ 2 ] >= 24758.91
quadratic_ranged_54_lb: [ 1 x_9_ ^ 2 - 2 x_45_ * x_9_ + 1 x_45_ ^ 2 + 1 y_9_ ^ 2 - 2 y_45_ * y_9_ + 1 y_45_ ^ 2 ] >= 36270.63
quadratic_ranged_55_lb: [ 1 x_38_ ^ 2 - 2 x_45_ * x_38_ + 1 x_45_ ^ 2 + 1 y_38_ ^ 2 - 2 y_45_ * y_38_ + 1 y_45_ ^ 2 ] >= 6919.11
quadratic_ranged_56_lb: [ 1 x_40_ ^ 2 - 2 x_45_ * x_40_ + 1 x_45_ ^ 2 + 1 y_40_ ^ 2 - 2 y_45_ * y_40_ + 1 y_45_ ^ 2 ] >= 5445.99
quadratic_ranged_57_lb: [ 1 x_20_ ^ 2 - 2 x_46_ * x_20_ + 1 x_46_ ^ 2 + 1 y_20_ ^ 2 - 2 y_46_ * y_20_ + 1 y_46_ ^ 2 ] >= 13805.55
quadratic_ranged_58_lb: [ 1 x_25_ ^ 2 - 2 x_46_ * x_25_ + 1 x_46_ ^ 2 + 1 y_25_ ^ 2 - 2 y_46_ * y_25_ + 1 y_46_ ^ 2 ] >= 1839.42
quadratic_ranged_59_lb: [ 1 x_38_ ^ 2 - 2 x_46_ * x_38_ + 1 x_46_ ^ 2 + 1 y_38_ ^ 2 - 2 y_46_ * y_38_ + 1 y_46_ ^ 2 ] >= 1380.06
quadratic_ranged_60_lb: [ 1 x_3_ ^ 2 - 2 x_47_ * x_3_ + 1 x_47_ ^ 2 + 1 y_3_ ^ 2 - 2 y_47_ * y_3_ + 1 y_47_ ^ 2 ] >= 5926.14
quadratic_ranged_61_lb: [ 1 x_27_ ^ 2 - 2 x_48_ * x_27_ + 1 x_48_ ^ 2 + 1 y_27_ ^ 2 - 2 y_48_ * y_27_ + 1 y_48_ ^ 2 ] >= 732.6
quadratic_ranged_62_lb: [ 1 x_30_ ^ 2 - 2 x_48_ * x_30_ + 1 x_48_ ^ 2 + 1 y_30_ ^ 2 - 2 y_48_ * y_30_ + 1 y_48_ ^ 2 ] >= 3360.06
quadratic_ranged_63_lb: [ 1 x_17_ ^ 2 - 2 x_49_ * x_17_ + 1 x_49_ ^ 2 + 1 y_17_ ^ 2 - 2 y_49_ * y_17_ + 1 y_49_ ^ 2 ] >= 35881.56
quadratic_ranged_64_lb: [ 1 x_48_ ^ 2 - 2 x_49_ * x_48_ + 1 x_49_ ^ 2 + 1 y_48_ ^ 2 - 2 y_49_ * y_48_ + 1 y_49_ ^ 2 ] >= 16461.72
quadratic_ranged_65_lb: [ 1 x_24_ ^ 2 - 2 x_50_ * x_24_ + 1 x_50_ ^ 2 + 1 y_24_ ^ 2 - 2 y_50_ * y_24_ + 1 y_50_ ^ 2 ] >= 12336.39
quadratic_ranged_66_lb: [ 1 x_48_ ^ 2 - 2 x_50_ * x_48_ + 1 x_50_ ^ 2 + 1 y_48_ ^ 2 - 2 y_50_ * y_48_ + 1 y_50_ ^ 2 ] >= 14598.539999999999
quadratic_ranged_67_lb: [ 1 x_6_ ^ 2 - 2 x_51_ * x_6_ + 1 x_51_ ^ 2 + 1 y_6_ ^ 2 - 2 y_51_ * y_6_ + 1 y_51_ ^ 2 ] >= 3599.64
quadratic_ranged_68_lb: [ 1 x_32_ ^ 2 - 2 x_51_ * x_32_ + 1 x_51_ ^ 2 + 1 y_32_ ^ 2 - 2 y_51_ * y_32_ + 1 y_51_ ^ 2 ] >= 7866.54
quadratic_ranged_69_lb: [ 1 x_36_ ^ 2 - 2 x_52_ * x_36_ + 1 x_52_ ^ 2 + 1 y_36_ ^ 2 - 2 y_52_ * y_36_ + 1 y_52_ ^ 2 ] >= 10315.8
quadratic_ranged_70_lb: [ 1 x_3_ ^ 2 - 2 x_53_ * x_3_ + 1 x_53_ ^ 2 + 1 y_3_ ^ 2 - 2 y_53_ * y_3_ + 1 y_53_ ^ 2 ] >= 4706.46
quadratic_ranged_71_lb: [ 1 x_37_ ^ 2 - 2 x_53_ * x_37_ + 1 x_53_ ^ 2 + 1 y_37_ ^ 2 - 2 y_53_ * y_37_ + 1 y_53_ ^ 2 ] >= 37023.03
quadratic_ranged_72_lb: [ 1 x_5_ ^ 2 - 2 x_54_ * x_5_ + 1 x_54_ ^ 2 + 1 y_5_ ^ 2 - 2 y_54_ * y_5_ + 1 y_54_ ^ 2 ] >= 4836.15
quadratic_ranged_73_lb: [ 1 x_28_ ^ 2 - 2 x_54_ * x_28_ + 1 x_54_ ^ 2 + 1 y_28_ ^ 2 - 2 y_54_ * y_28_ + 1 y_54_ ^ 2 ] >= 2312.64
quadratic_ranged_74_lb: [ 1 x_30_ ^ 2 - 2 x_54_ * x_30_ + 1 x_54_ ^ 2 + 1 y_30_ ^ 2 - 2 y_54_ * y_30_ + 1 y_54_ ^ 2 ] >= 10875.15
quadratic_ranged_75_lb: [ 1 x_11_ ^ 2 - 2 x_55_ * x_11_ + 1 x_55_ ^ 2 + 1 y_11_ ^ 2 - 2 y_55_ * y_11_ + 1 y_55_ ^ 2 ] >= 9339.66
quadratic_ranged_76_lb: [ 1 x_37_ ^ 2 - 2 x_55_ * x_37_ + 1 x_55_ ^ 2 + 1 y_37_ ^ 2 - 2 y_55_ * y_37_ + 1 y_55_ ^ 2 ] >= 10052.46
quadratic_ranged_77_lb: [ 1 x_5_ ^ 2 - 2 x_56_ * x_5_ + 1 x_56_ ^ 2 + 1 y_5_ ^ 2 - 2 y_56_ * y_5_ + 1 y_56_ ^ 2 ] >= 4527.2699999999995
quadratic_ranged_78_lb: [ 1 x_10_ ^ 2 - 2 x_56_ * x_10_ + 1 x_56_ ^ 2 + 1 y_10_ ^ 2 - 2 y_56_ * y_10_ + 1 y_56_ ^ 2 ] >= 6941.88
quadratic_ranged_79_lb: [ 1 x_12_ ^ 2 - 2 x_57_ * x_12_ + 1 x_57_ ^ 2 + 1 y_12_ ^ 2 - 2 y_57_ * y_12_ + 1 y_57_ ^ 2 ] >= 9710.91
quadratic_ranged_80_lb: [ 1 x_27_ ^ 2 - 2 x_57_ * x_27_ + 1 x_57_ ^ 2 + 1 y_27_ ^ 2 - 2 y_57_ * y_27_ + 1 y_57_ ^ 2 ] >= 3692.7
quadratic_ranged_81_lb: [ 1 x_32_ ^ 2 - 2 x_57_ * x_32_ + 1 x_57_ ^ 2 + 1 y_32_ ^ 2 - 2 y_57_ * y_32_ + 1 y_57_ ^ 2 ] >= 26567.64
quadratic_ranged_82_lb: [ 1 x_28_ ^ 2 - 2 x_58_ * x_28_ + 1 x_58_ ^ 2 + 1 y_28_ ^ 2 - 2 y_58_ * y_28_ + 1 y_58_ ^ 2 ] >= 18724.86
quadratic_ranged_83_lb: [ 1 x_35_ ^ 2 - 2 x_58_ * x_35_ + 1 x_58_ ^ 2 + 1 y_35_ ^ 2 - 2 y_58_ * y_35_ + 1 y_58_ ^ 2 ] >= 24839.1
quadratic_ranged_84_lb: [ 1 x_47_ ^ 2 - 2 x_58_ * x_47_ + 1 x_58_ ^ 2 + 1 y_47_ ^ 2 - 2 y_58_ * y_47_ + 1 y_58_ ^ 2 ] >= 10756.35
quadratic_ranged_85_lb: [ 1 x_11_ ^ 2 - 2 x_59_ * x_11_ + 1 x_59_ ^ 2 + 1 y_11_ ^ 2 - 2 y_59_ * y_11_ + 1 y_59_ ^ 2 ] >= 24212.43
quadratic_ranged_86_lb: [ 1 x_24_ ^ 2 - 2 x_59_ * x_24_ + 1 x_59_ ^ 2 + 1 y_24_ ^ 2 - 2 y_59_ * y_24_ + 1 y_59_ ^ 2 ] >= 4551.03
quadratic_ranged_87_lb: [ 1 x_36_ ^ 2 - 2 x_59_ * x_36_ + 1 x_59_ ^ 2 + 1 y_36_ ^ 2 - 2 y_59_ * y_36_ + 1 y_59_ ^ 2 ] >= 7518.0599999999995
quadratic_ranged_88_lb: [ 1 x_1_ ^ 2 - 2 x_60_ * x_1_ + 1 x_60_ ^ 2 + 1 y_1_ ^ 2 - 2 y_60_ * y_1_ + 1 y_60_ ^ 2 ] >= 17773.47
quadratic_ranged_89_lb: [ 1 x_6_ ^ 2 - 2 x_60_ * x_6_ + 1 x_60_ ^ 2 + 1 y_6_ ^ 2 - 2 y_60_ * y_6_ + 1 y_60_ ^ 2 ] >= 25032.15
quadratic_ranged_90_lb: [ 1 x_52_ ^ 2 - 2 x_60_ * x_52_ + 1 x_60_ ^ 2 + 1 y_52_ ^ 2 - 2 y_60_ * y_52_ + 1 y_60_ ^ 2 ] >= 31380.03
quadratic_ranged_91_lb: [ 1 x_26_ ^ 2 - 2 x_61_ * x_26_ + 1 x_61_ ^ 2 + 1 y_26_ ^ 2 - 2 y_61_ * y_26_ + 1 y_61_ ^ 2 ] >= 6910.2
quadratic_ranged_92_lb: [ 1 x_28_ ^ 2 - 2 x_61_ * x_28_ + 1 x_61_ ^ 2 + 1 y_28_ ^ 2 - 2 y_61_ * y_28_ + 1 y_61_ ^ 2 ] >= 19686.15
quadratic_ranged_93_lb: [ 1 x_31_ ^ 2 - 2 x_61_ * x_31_ + 1 x_61_ ^ 2 + 1 y_31_ ^ 2 - 2 y_61_ * y_31_ + 1 y_61_ ^ 2 ] >= 15147
quadratic_ranged_94_lb: [ 1 x_9_ ^ 2 - 2 x_62_ * x_9_ + 1 x_62_ ^ 2 + 1 y_9_ ^ 2 - 2 y_62_ * y_9_ + 1 y_62_ ^ 2 ] >= 35998.38
quadratic_ranged_95_lb: [ 1 x_19_ ^ 2 - 2 x_62_ * x_19_ + 1 x_62_ ^ 2 + 1 y_19_ ^ 2 - 2 y_62_ * y_19_ + 1 y_62_ ^ 2 ] >= 25884.54
quadratic_ranged_96_lb: [ 1 x_45_ ^ 2 - 2 x_62_ * x_45_ + 1 x_62_ ^ 2 + 1 y_45_ ^ 2 - 2 y_62_ * y_45_ + 1 y_62_ ^ 2 ] >= 6606.2699999999995
quadratic_ranged_97_lb: [ 1 x_50_ ^ 2 - 2 x_63_ * x_50_ + 1 x_63_ ^ 2 + 1 y_50_ ^ 2 - 2 y_63_ * y_50_ + 1 y_63_ ^ 2 ] >= 5181.66
quadratic_ranged_98_lb: [ 1 x_3_ ^ 2 - 2 x_64_ * x_3_ + 1 x_64_ ^ 2 + 1 y_3_ ^ 2 - 2 y_64_ * y_3_ + 1 y_64_ ^ 2 ] >= 2029.5
quadratic_ranged_99_lb: [ 1 x_30_ ^ 2 - 2 x_64_ * x_30_ + 1 x_64_ ^ 2 + 1 y_30_ ^ 2 - 2 y_64_ * y_30_ + 1 y_64_ ^ 2 ] >= 8811
quadratic_ranged_100_lb: [ 1 x_46_ ^ 2 - 2 x_64_ * x_46_ + 1 x_64_ ^ 2 + 1 y_46_ ^ 2 - 2 y_64_ * y_46_ + 1 y_64_ ^ 2 ] >= 6099.39
quadratic_ranged_101_lb: [ 1 x_23_ ^ 2 - 2 x_65_ * x_23_ + 1 x_65_ ^ 2 + 1 y_23_ ^ 2 - 2 y_65_ * y_23_ + 1 y_65_ ^ 2 ] >= 15163.83
quadratic_ranged_102_lb: [ 1 x_41_ ^ 2 - 2 x_65_ * x_41_ + 1 x_65_ ^ 2 + 1 y_41_ ^ 2 - 2 y_65_ * y_41_ + 1 y_65_ ^ 2 ] >= 8736.75
quadratic_ranged_103_lb: [ 1 x_27_ ^ 2 - 2 x_66_ * x_27_ + 1 x_66_ ^ 2 + 1 y_27_ ^ 2 - 2 y_66_ * y_27_ + 1 y_66_ ^ 2 ] >= 1619.6399999999999
quadratic_ranged_104_lb: [ 1 x_53_ ^ 2 - 2 x_66_ * x_53_ + 1 x_66_ ^ 2 + 1 y_53_ ^ 2 - 2 y_66_ * y_53_ + 1 y_66_ ^ 2 ] >= 4738.14
quadratic_ranged_105_lb: [ 1 x_10_ ^ 2 - 2 x_67_ * x_10_ + 1 x_67_ ^ 2 + 1 y_10_ ^ 2 - 2 y_67_ * y_10_ + 1 y_67_ ^ 2 ] >= 1554.3
quadratic_ranged_106_lb: [ 1 x_29_ ^ 2 - 2 x_67_ * x_29_ + 1 x_67_ ^ 2 + 1 y_29_ ^ 2 - 2 y_67_ * y_29_ + 1 y_67_ ^ 2 ] >= 16965.63
quadratic_ranged_107_lb: [ 1 x_64_ ^ 2 - 2 x_67_ * x_64_ + 1 x_67_ ^ 2 + 1 y_64_ ^ 2 - 2 y_67_ * y_64_ + 1 y_67_ ^ 2 ] >= 18498.15
quadratic_ranged_108_lb: [ 1 x_16_ ^ 2 - 2 x_68_ * x_16_ + 1 x_68_ ^ 2 + 1 y_16_ ^ 2 - 2 y_68_ * y_16_ + 1 y_68_ ^ 2 ] >= 12919.5
quadratic_ranged_109_lb: [ 1 x_33_ ^ 2 - 2 x_68_ * x_33_ + 1 x_68_ ^ 2 + 1 y_33_ ^ 2 - 2 y_68_ * y_33_ + 1 y_68_ ^ 2 ] >= 4761.9
quadratic_ranged_110_lb: [ 1 x_60_ ^ 2 - 2 x_68_ * x_60_ + 1 x_68_ ^ 2 + 1 y_60_ ^ 2 - 2 y_68_ * y_60_ + 1 y_68_ ^ 2 ] >= 40678.11
quadratic_ranged_111_lb: [ 1 x_18_ ^ 2 - 2 x_69_ * x_18_ + 1 x_69_ ^ 2 + 1 y_18_ ^ 2 - 2 y_69_ * y_18_ + 1 y_69_ ^ 2 ] >= 12965.039999999999
quadratic_ranged_112_lb: [ 1 x_56_ ^ 2 - 2 x_69_ * x_56_ + 1 x_69_ ^ 2 + 1 y_56_ ^ 2 - 2 y_69_ * y_56_ + 1 y_69_ ^ 2 ] >= 16565.67
quadratic_ranged_113_lb: [ 1 x_29_ ^ 2 - 2 x_70_ * x_29_ + 1 x_70_ ^ 2 + 1 y_29_ ^ 2 - 2 y_70_ * y_29_ + 1 y_70_ ^ 2 ] >= 8202.15
quadratic_ranged_114_lb: [ 1 x_47_ ^ 2 - 2 x_70_ * x_47_ + 1 x_70_ ^ 2 + 1 y_47_ ^ 2 - 2 y_70_ * y_47_ + 1 y_70_ ^ 2 ] >= 14736.15
quadratic_ranged_115_lb: [ 1 x_55_ ^ 2 - 2 x_70_ * x_55_ + 1 x_70_ ^ 2 + 1 y_55_ ^ 2 - 2 y_70_ * y_55_ + 1 y_70_ ^ 2 ] >= 9157.5
quadratic_ranged_116_lb: [ 1 x_6_ ^ 2 - 2 x_71_ * x_6_ + 1 x_71_ ^ 2 + 1 y_6_ ^ 2 - 2 y_71_ * y_6_ + 1 y_71_ ^ 2 ] >= 46989.36
quadratic_ranged_117_lb: [ 1 x_29_ ^ 2 - 2 x_71_ * x_29_ + 1 x_71_ ^ 2 + 1 y_29_ ^ 2 - 2 y_71_ * y_29_ + 1 y_71_ ^ 2 ] >= 9703.98
quadratic_ranged_118_lb: [ 1 x_66_ ^ 2 - 2 x_71_ * x_66_ + 1 x_71_ ^ 2 + 1 y_66_ ^ 2 - 2 y_71_ * y_66_ + 1 y_71_ ^ 2 ] >= 39699
quadratic_ranged_119_lb: [ 1 x_2_ ^ 2 - 2 x_72_ * x_2_ + 1 x_72_ ^ 2 + 1 y_2_ ^ 2 - 2 y_72_ * y_2_ + 1 y_72_ ^ 2 ] >= 35070.75
quadratic_ranged_120_lb: [ 1 x_32_ ^ 2 - 2 x_72_ * x_32_ + 1 x_72_ ^ 2 + 1 y_32_ ^ 2 - 2 y_72_ * y_32_ + 1 y_72_ ^ 2 ] >= 37734.84
quadratic_ranged_121_lb: [ 1 x_2_ ^ 2 - 2 x_73_ * x_2_ + 1 x_73_ ^ 2 + 1 y_2_ ^ 2 - 2 y_73_ * y_2_ + 1 y_73_ ^ 2 ] >= 24876.72
quadratic_ranged_122_lb: [ 1 x_38_ ^ 2 - 2 x_73_ * x_38_ + 1 x_73_ ^ 2 + 1 y_38_ ^ 2 - 2 y_73_ * y_38_ + 1 y_73_ ^ 2 ] >= 9226.8
quadratic_ranged_123_lb: [ 1 x_52_ ^ 2 - 2 x_73_ * x_52_ + 1 x_73_ ^ 2 + 1 y_52_ ^ 2 - 2 y_73_ * y_52_ + 1 y_73_ ^ 2 ] >= 1612.71
quadratic_ranged_124_lb: [ 1 x_51_ ^ 2 - 2 x_74_ * x_51_ + 1 x_74_ ^ 2 + 1 y_51_ ^ 2 - 2 y_74_ * y_51_ + 1 y_74_ ^ 2 ] >= 5133.15
quadratic_ranged_125_lb: [ 1 x_60_ ^ 2 - 2 x_74_ * x_60_ + 1 x_74_ ^ 2 + 1 y_60_ ^ 2 - 2 y_74_ * y_60_ + 1 y_74_ ^ 2 ] >= 1172.16
quadratic_ranged_126_lb: [ 1 x_31_ ^ 2 - 2 x_75_ * x_31_ + 1 x_75_ ^ 2 + 1 y_31_ ^ 2 - 2 y_75_ * y_31_ + 1 y_75_ ^ 2 ] >= 13191.75
quadratic_ranged_127_lb: [ 1 x_72_ ^ 2 - 2 x_75_ * x_72_ + 1 x_75_ ^ 2 + 1 y_72_ ^ 2 - 2 y_75_ * y_72_ + 1 y_75_ ^ 2 ] >= 34785.63
quadratic_ranged_128_lb: [ 1 x_10_ ^ 2 - 2 x_76_ * x_10_ + 1 x_76_ ^ 2 + 1 y_10_ ^ 2 - 2 y_76_ * y_10_ + 1 y_76_ ^ 2 ] >= 35363.79
quadratic_ranged_129_lb: [ 1 x_62_ ^ 2 - 2 x_76_ * x_62_ + 1 x_76_ ^ 2 + 1 y_62_ ^ 2 - 2 y_76_ * y_62_ + 1 y_76_ ^ 2 ] >= 6681.51
quadratic_ranged_130_lb: [ 1 x_74_ ^ 2 - 2 x_76_ * x_74_ + 1 x_76_ ^ 2 + 1 y_74_ ^ 2 - 2 y_76_ * y_74_ + 1 y_76_ ^ 2 ] >= 47176.47
quadratic_ranged_131_lb: [ 1 x_4_ ^ 2 - 2 x_77_ * x_4_ + 1 x_77_ ^ 2 + 1 y_4_ ^ 2 - 2 y_77_ * y_4_ + 1 y_77_ ^ 2 ] >= 1033.56
quadratic_ranged_132_lb: [ 1 x_43_ ^ 2 - 2 x_77_ * x_43_ + 1 x_77_ ^ 2 + 1 y_43_ ^ 2 - 2 y_77_ * y_43_ + 1 y_77_ ^ 2 ] >= 36212.22
quadratic_ranged_133_lb: [ 1 x_65_ ^ 2 - 2 x_77_ * x_65_ + 1 x_77_ ^ 2 + 1 y_65_ ^ 2 - 2 y_77_ * y_65_ + 1 y_77_ ^ 2 ] >= 21156.3
quadratic_ranged_134_lb: [ 1 x_40_ ^ 2 - 2 x_78_ * x_40_ + 1 x_78_ ^ 2 + 1 y_40_ ^ 2 - 2 y_78_ * y_40_ + 1 y_78_ ^ 2 ] >= 10162.35
quadratic_ranged_135_lb: [ 1 x_60_ ^ 2 - 2 x_78_ * x_60_ + 1 x_78_ ^ 2 + 1 y_60_ ^ 2 - 2 y_78_ * y_60_ + 1 y_78_ ^ 2 ] >= 2305.71
quadratic_ranged_136_lb: [ 1 x_63_ ^ 2 - 2 x_78_ * x_63_ + 1 x_78_ ^ 2 + 1 y_63_ ^ 2 - 2 y_78_ * y_63_ + 1 y_78_ ^ 2 ] >= 28442.7
quadratic_ranged_137_lb: [ 1 x_20_ ^ 2 - 2 x_79_ * x_20_ + 1 x_79_ ^ 2 + 1 y_20_ ^ 2 - 2 y_79_ * y_20_ + 1 y_79_ ^ 2 ] >= 16426.079999999998
quadratic_ranged_138_lb: [ 1 x_29_ ^ 2 - 2 x_79_ * x_29_ + 1 x_79_ ^ 2 + 1 y_29_ ^ 2 - 2 y_79_ * y_29_ + 1 y_79_ ^ 2 ] >= 1572.12
quadratic_ranged_139_lb: [ 1 x_4_ ^ 2 - 2 x_80_ * x_4_ + 1 x_80_ ^ 2 + 1 y_4_ ^ 2 - 2 y_80_ * y_4_ + 1 y_80_ ^ 2 ] >= 11034.539999999999
quadratic_ranged_140_lb: [ 1 x_28_ ^ 2 - 2 x_80_ * x_28_ + 1 x_80_ ^ 2 + 1 y_28_ ^ 2 - 2 y_80_ * y_28_ + 1 y_80_ ^ 2 ] >= 26944.829999999998
quadratic_ranged_141_lb: [ 1 x_40_ ^ 2 - 2 x_80_ * x_40_ + 1 x_80_ ^ 2 + 1 y_40_ ^ 2 - 2 y_80_ * y_40_ + 1 y_80_ ^ 2 ] >= 15991.47
quadratic_ranged_142_lb: [ 1 x_7_ ^ 2 - 2 x_81_ * x_7_ + 1 x_81_ ^ 2 + 1 y_7_ ^ 2 - 2 y_81_ * y_7_ + 1 y_81_ ^ 2 ] >= 8099.19
quadratic_ranged_143_lb: [ 1 x_9_ ^ 2 - 2 x_81_ * x_9_ + 1 x_81_ ^ 2 + 1 y_9_ ^ 2 - 2 y_81_ * y_9_ + 1 y_81_ ^ 2 ] >= 28809.989999999998
quadratic_ranged_144_lb: [ 1 x_79_ ^ 2 - 2 x_81_ * x_79_ + 1 x_81_ ^ 2 + 1 y_79_ ^ 2 - 2 y_81_ * y_79_ + 1 y_81_ ^ 2 ] >= 3999.6
quadratic_ranged_145_lb: [ 1 x_15_ ^ 2 - 2 x_82_ * x_15_ + 1 x_82_ ^ 2 + 1 y_15_ ^ 2 - 2 y_82_ * y_15_ + 1 y_82_ ^ 2 ] >= 7048.8
quadratic_ranged_146_lb: [ 1 x_30_ ^ 2 - 2 x_82_ * x_30_ + 1 x_82_ ^ 2 + 1 y_30_ ^ 2 - 2 y_82_ * y_30_ + 1 y_82_ ^ 2 ] >= 7159.68
quadratic_ranged_147_lb: [ 1 x_36_ ^ 2 - 2 x_82_ * x_36_ + 1 x_82_ ^ 2 + 1 y_36_ ^ 2 - 2 y_82_ * y_36_ + 1 y_82_ ^ 2 ] >= 20025.72
quadratic_ranged_148_lb: [ 1 x_23_ ^ 2 - 2 x_83_ * x_23_ + 1 x_83_ ^ 2 + 1 y_23_ ^ 2 - 2 y_83_ * y_23_ + 1 y_83_ ^ 2 ] >= 14748.03
quadratic_ranged_149_lb: [ 1 x_52_ ^ 2 - 2 x_83_ * x_52_ + 1 x_83_ ^ 2 + 1 y_52_ ^ 2 - 2 y_83_ * y_52_ + 1 y_83_ ^ 2 ] >= 23857.02
quadratic_ranged_150_lb: [ 1 x_59_ ^ 2 - 2 x_83_ * x_59_ + 1 x_83_ ^ 2 + 1 y_59_ ^ 2 - 2 y_83_ * y_59_ + 1 y_83_ ^ 2 ] >= 25977.6
quadratic_ranged_151_lb: [ 1 x_5_ ^ 2 - 2 x_84_ * x_5_ + 1 x_84_ ^ 2 + 1 y_5_ ^ 2 - 2 y_84_ * y_5_ + 1 y_84_ ^ 2 ] >= 9775.26
quadratic_ranged_152_lb: [ 1 x_72_ ^ 2 - 2 x_84_ * x_72_ + 1 x_84_ ^ 2 + 1 y_72_ ^ 2 - 2 y_84_ * y_72_ + 1 y_84_ ^ 2 ] >= 31236.48
quadratic_ranged_153_lb: [ 1 x_83_ ^ 2 - 2 x_84_ * x_83_ + 1 x_84_ ^ 2 + 1 y_83_ ^ 2 - 2 y_84_ * y_83_ + 1 y_84_ ^ 2 ] >= 26383.5
quadratic_ranged_154_lb: [ 1 x_7_ ^ 2 - 2 x_85_ * x_7_ + 1 x_85_ ^ 2 + 1 y_7_ ^ 2 - 2 y_85_ * y_7_ + 1 y_85_ ^ 2 ] >= 14637.15
quadratic_ranged_155_lb: [ 1 x_13_ ^ 2 - 2 x_85_ * x_13_ + 1 x_85_ ^ 2 + 1 y_13_ ^ 2 - 2 y_85_ * y_13_ + 1 y_85_ ^ 2 ] >= 195.03
quadratic_ranged_156_lb: [ 1 x_63_ ^ 2 - 2 x_85_ * x_63_ + 1 x_85_ ^ 2 + 1 y_63_ ^ 2 - 2 y_85_ * y_63_ + 1 y_85_ ^ 2 ] >= 7494.3
quadratic_ranged_157_lb: [ 1 x_10_ ^ 2 - 2 x_86_ * x_10_ + 1 x_86_ ^ 2 + 1 y_10_ ^ 2 - 2 y_86_ * y_10_ + 1 y_86_ ^ 2 ] >= 17785.35
quadratic_ranged_158_lb: [ 1 x_25_ ^ 2 - 2 x_86_ * x_25_ + 1 x_86_ ^ 2 + 1 y_25_ ^ 2 - 2 y_86_ * y_25_ + 1 y_86_ ^ 2 ] >= 7152.75
quadratic_ranged_159_lb: [ 1 x_3_ ^ 2 - 2 x_87_ * x_3_ + 1 x_87_ ^ 2 + 1 y_3_ ^ 2 - 2 y_87_ * y_3_ + 1 y_87_ ^ 2 ] >= 1501.83
quadratic_ranged_160_lb: [ 1 x_4_ ^ 2 - 2 x_87_ * x_4_ + 1 x_87_ ^ 2 + 1 y_4_ ^ 2 - 2 y_87_ * y_4_ + 1 y_87_ ^ 2 ] >= 2662.11
quadratic_ranged_161_lb: [ 1 x_15_ ^ 2 - 2 x_87_ * x_15_ + 1 x_87_ ^ 2 + 1 y_15_ ^ 2 - 2 y_87_ * y_15_ + 1 y_87_ ^ 2 ] >= 10807.83
quadratic_ranged_162_lb: [ 1 x_16_ ^ 2 - 2 x_88_ * x_16_ + 1 x_88_ ^ 2 + 1 y_16_ ^ 2 - 2 y_88_ * y_16_ + 1 y_88_ ^ 2 ] >= 5047.0199999999995
quadratic_ranged_163_lb: [ 1 x_40_ ^ 2 - 2 x_88_ * x_40_ + 1 x_88_ ^ 2 + 1 y_40_ ^ 2 - 2 y_88_ * y_40_ + 1 y_88_ ^ 2 ] >= 15769.71
quadratic_ranged_164_lb: [ 1 x_82_ ^ 2 - 2 x_88_ * x_82_ + 1 x_88_ ^ 2 + 1 y_82_ ^ 2 - 2 y_88_ * y_82_ + 1 y_88_ ^ 2 ] >= 9127.8
quadratic_ranged_165_lb: [ 1 x_21_ ^ 2 - 2 x_89_ * x_21_ + 1 x_89_ ^ 2 + 1 y_21_ ^ 2 - 2 y_89_ * y_21_ + 1 y_89_ ^ 2 ] >= 4676.76
quadratic_ranged_166_lb: [ 1 x_26_ ^ 2 - 2 x_89_ * x_26_ + 1 x_89_ ^ 2 + 1 y_26_ ^ 2 - 2 y_89_ * y_26_ + 1 y_89_ ^ 2 ] >= 1248.39
quadratic_ranged_167_lb: [ 1 x_61_ ^ 2 - 2 x_89_ * x_61_ + 1 x_89_ ^ 2 + 1 y_61_ ^ 2 - 2 y_89_ * y_61_ + 1 y_89_ ^ 2 ] >= 6024.15
quadratic_ranged_168_lb: [ 1 x_9_ ^ 2 - 2 x_90_ * x_9_ + 1 x_90_ ^ 2 + 1 y_9_ ^ 2 - 2 y_90_ * y_9_ + 1 y_90_ ^ 2 ] >= 420.75
quadratic_ranged_169_lb: [ 1 x_72_ ^ 2 - 2 x_90_ * x_72_ + 1 x_90_ ^ 2 + 1 y_72_ ^ 2 - 2 y_90_ * y_72_ + 1 y_90_ ^ 2 ] >= 70777.08
quadratic_ranged_170_lb: [ 1 x_86_ ^ 2 - 2 x_90_ * x_86_ + 1 x_90_ ^ 2 + 1 y_86_ ^ 2 - 2 y_90_ * y_86_ + 1 y_90_ ^ 2 ] >= 15147
quadratic_ranged_171_lb: [ 1 x_1_ ^ 2 - 2 x_91_ * x_1_ + 1 x_91_ ^ 2 + 1 y_1_ ^ 2 - 2 y_91_ * y_1_ + 1 y_91_ ^ 2 ] >= 1719.6299999999999
quadratic_ranged_172_lb: [ 1 x_18_ ^ 2 - 2 x_91_ * x_18_ + 1 x_91_ ^ 2 + 1 y_18_ ^ 2 - 2 y_91_ * y_18_ + 1 y_91_ ^ 2 ] >= 14082.75
quadratic_ranged_173_lb: [ 1 x_21_ ^ 2 - 2 x_91_ * x_21_ + 1 x_91_ ^ 2 + 1 y_21_ ^ 2 - 2 y_91_ * y_21_ + 1 y_91_ ^ 2 ] >= 8902.08
quadratic_ranged_174_lb: [ 1 x_2_ ^ 2 - 2 x_92_ * x_2_ + 1 x_92_ ^ 2 + 1 y_2_ ^ 2 - 2 y_92_ * y_2_ + 1 y_92_ ^ 2 ] >= 32271.03
quadratic_ranged_175_lb: [ 1 x_47_ ^ 2 - 2 x_92_ * x_47_ + 1 x_92_ ^ 2 + 1 y_47_ ^ 2 - 2 y_92_ * y_47_ + 1 y_92_ ^ 2 ] >= 14044.14
quadratic_ranged_176_lb: [ 1 x_72_ ^ 2 - 2 x_92_ * x_72_ + 1 x_92_ ^ 2 + 1 y_72_ ^ 2 - 2 y_92_ * y_72_ + 1 y_92_ ^ 2 ] >= 168.3
quadratic_ranged_177_lb: [ 1 x_7_ ^ 2 - 2 x_93_ * x_7_ + 1 x_93_ ^ 2 + 1 y_7_ ^ 2 - 2 y_93_ * y_7_ + 1 y_93_ ^ 2 ] >= 2305.71
quadratic_ranged_178_lb: [ 1 x_56_ ^ 2 - 2 x_93_ * x_56_ + 1 x_93_ ^ 2 + 1 y_56_ ^ 2 - 2 y_93_ * y_56_ + 1 y_93_ ^ 2 ] >= 4008.5099999999998
quadratic_ranged_179_lb: [ 1 x_86_ ^ 2 - 2 x_93_ * x_86_ + 1 x_93_ ^ 2 + 1 y_86_ ^ 2 - 2 y_93_ * y_86_ + 1 y_93_ ^ 2 ] >= 3203.64
quadratic_ranged_180_lb: [ 1 x_5_ ^ 2 - 2 x_94_ * x_5_ + 1 x_94_ ^ 2 + 1 y_5_ ^ 2 - 2 y_94_ * y_5_ + 1 y_94_ ^ 2 ] >= 8499.15
quadratic_ranged_181_lb: [ 1 x_69_ ^ 2 - 2 x_94_ * x_69_ + 1 x_94_ ^ 2 + 1 y_69_ ^ 2 - 2 y_94_ * y_69_ + 1 y_94_ ^ 2 ] >= 28691.19
quadratic_ranged_182_lb: [ 1 x_10_ ^ 2 - 2 x_95_ * x_10_ + 1 x_95_ ^ 2 + 1 y_10_ ^ 2 - 2 y_95_ * y_10_ + 1 y_95_ ^ 2 ] >= 915.75
quadratic_ranged_183_lb: [ 1 x_11_ ^ 2 - 2 x_95_ * x_11_ + 1 x_95_ ^ 2 + 1 y_11_ ^ 2 - 2 y_95_ * y_11_ + 1 y_95_ ^ 2 ] >= 1014.75
quadratic_ranged_184_lb: [ 1 x_14_ ^ 2 - 2 x_96_ * x_14_ + 1 x_96_ ^ 2 + 1 y_14_ ^ 2 - 2 y_96_ * y_14_ + 1 y_96_ ^ 2 ] >= 10134.63
quadratic_ranged_185_lb: [ 1 x_75_ ^ 2 - 2 x_96_ * x_75_ + 1 x_96_ ^ 2 + 1 y_75_ ^ 2 - 2 y_96_ * y_75_ + 1 y_96_ ^ 2 ] >= 1477.08
quadratic_ranged_186_lb: [ 1 x_87_ ^ 2 - 2 x_96_ * x_87_ + 1 x_96_ ^ 2 + 1 y_87_ ^ 2 - 2 y_96_ * y_87_ + 1 y_96_ ^ 2 ] >= 1782
quadratic_ranged_187_lb: [ 1 x_44_ ^ 2 - 2 x_97_ * x_44_ + 1 x_97_ ^ 2 + 1 y_44_ ^ 2 - 2 y_97_ * y_44_ + 1 y_97_ ^ 2 ] >= 7232.94
quadratic_ranged_188_lb: [ 1 x_94_ ^ 2 - 2 x_97_ * x_94_ + 1 x_97_ ^ 2 + 1 y_94_ ^ 2 - 2 y_97_ * y_94_ + 1 y_97_ ^ 2 ] >= 17269.56
quadratic_ranged_189_lb: [ 1 x_95_ ^ 2 - 2 x_97_ * x_95_ + 1 x_97_ ^ 2 + 1 y_95_ ^ 2 - 2 y_97_ * y_95_ + 1 y_97_ ^ 2 ] >= 11904.75
quadratic_ranged_190_lb: [ 1 x_21_ ^ 2 - 2 x_98_ * x_21_ + 1 x_98_ ^ 2 + 1 y_21_ ^ 2 - 2 y_98_ * y_21_ + 1 y_98_ ^ 2 ] >= 9077.31
quadratic_ranged_191_lb: [ 1 x_65_ ^ 2 - 2 x_98_ * x_65_ + 1 x_98_ ^ 2 + 1 y_65_ ^ 2 - 2 y_98_ * y_65_ + 1 y_98_ ^ 2 ] >= 14988.6
quadratic_ranged_192_lb: [ 1 x_83_ ^ 2 - 2 x_98_ * x_83_ + 1 x_98_ ^ 2 + 1 y_83_ ^ 2 - 2 y_98_ * y_83_ + 1 y_98_ ^ 2 ] >= 18726.84
quadratic_ranged_193_lb: [ 1 x_2_ ^ 2 - 2 x_99_ * x_2_ + 1 x_99_ ^ 2 + 1 y_2_ ^ 2 - 2 y_99_ * y_2_ + 1 y_99_ ^ 2 ] >= 24450.03
quadratic_ranged_194_lb: [ 1 x_49_ ^ 2 - 2 x_99_ * x_49_ + 1 x_99_ ^ 2 + 1 y_49_ ^ 2 - 2 y_99_ * y_49_ + 1 y_99_ ^ 2 ] >= 37180.44
quadratic_ranged_195_lb: [ 1 x_83_ ^ 2 - 2 x_99_ * x_83_ + 1 x_99_ ^ 2 + 1 y_83_ ^ 2 - 2 y_99_ * y_83_ + 1 y_99_ ^ 2 ] >= 35624.159999999996
quadratic_ranged_196_lb: [ 1 x_4_ ^ 2 - 2 x_100_ * x_4_ + 1 x_100_ ^ 2 + 1 y_4_ ^ 2 - 2 y_100_ * y_4_ + 1 y_100_ ^ 2 ] >= 18679.32
quadratic_ranged_197_lb: [ 1 x_48_ ^ 2 - 2 x_100_ * x_48_ + 1 x_100_ ^ 2 + 1 y_48_ ^ 2 - 2 y_100_ * y_48_ + 1 y_100_ ^ 2 ] >= 14503.5
quadratic_ranged_198_lb: [ 1 x_76_ ^ 2 - 2 x_100_ * x_76_ + 1 x_100_ ^ 2 + 1 y_76_ ^ 2 - 2 y_100_ * y_76_ + 1 y_100_ ^ 2 ] >= 20279.16
c1_1: 1 x_97_ = 17
c2_1: 1 y_97_ = 11
c3_1: 1 x_15_ = -62
c4_1: 1 y_15_ = 33
c5_1: 1 x_49_ = 89
c6_1: 1 y_49_ = -64
c7_1: 1 x_8_ - 1 x_13_ = 0
c8_1: 1 y_8_ - 1 y_13_ = 0
Bounds
-163 <= x_1_ <= 60
-255 <= x_2_ <= 284
-206 <= x_3_ <= 82
-117 <= x_4_ <= 95
-208 <= x_5_ <= 237
-277 <= x_6_ <= 153
-320 <= x_7_ <= 296
-365 <= x_8_ <= 310
-185 <= x_9_ <= 206
-123 <= x_10_ <= 99
-125 <= x_11_ <= 159
-228 <= x_12_ <= 170
-336 <= x_13_ <= 268
-311 <= x_14_ <= 187
x_15_ = -62
-230 <= x_16_ <= 111
-102 <= x_17_ <= -17
-114 <= x_18_ <= -10
-335 <= x_19_ <= 293
-191 <= x_20_ <= 225
-119 <= x_21_ <= 0
-236 <= x_22_ <= 195
-169 <= x_23_ <= 45
-274 <= x_24_ <= 265
-292 <= x_25_ <= 168
-223 <= x_26_ <= 105
-67 <= x_27_ <= 145
-253 <= x_28_ <= 262
-295 <= x_29_ <= 271
-99 <= x_30_ <= 108
-326 <= x_31_ <= 207
-293 <= x_32_ <= 303
-173 <= x_33_ <= 49
-185 <= x_34_ <= 61
-295 <= x_35_ <= 171
-289 <= x_36_ <= 165
-309 <= x_37_ <= 207
-282 <= x_38_ <= 163
-229 <= x_39_ <= 216
-271 <= x_40_ <= 147
-290 <= x_41_ <= 222
-276 <= x_42_ <= 179
-342 <= x_43_ <= 319
-68 <= x_44_ <= 102
-345 <= x_45_ <= 221
-272 <= x_46_ <= 201
-283 <= x_47_ <= 159
-40 <= x_48_ <= 166
x_49_ = 89
-162 <= x_50_ <= 288
-338 <= x_51_ <= 214
-392 <= x_52_ <= 268
-178 <= x_53_ <= 151
-204 <= x_54_ <= 213
-222 <= x_55_ <= 256
-207 <= x_56_ <= 183
-129 <= x_57_ <= 206
-388 <= x_58_ <= 264
-282 <= x_59_ <= 253
-297 <= x_60_ <= 195
-266 <= x_61_ <= 147
-376 <= x_62_ <= 303
-235 <= x_63_ <= 361
-193 <= x_64_ <= 127
-294 <= x_65_ <= 170
-108 <= x_66_ <= 185
-163 <= x_67_ <= 139
-242 <= x_68_ <= 118
-229 <= x_69_ <= 105
-319 <= x_70_ <= 282
-309 <= x_71_ <= 370
-416 <= x_72_ <= 292
-379 <= x_73_ <= 260
-332 <= x_74_ <= 229
-248 <= x_75_ <= 124
-306 <= x_76_ <= 289
-150 <= x_77_ <= 127
-346 <= x_78_ <= 243
-321 <= x_79_ <= 311
-224 <= x_80_ <= 201
-356 <= x_81_ <= 375
-146 <= x_82_ <= 22
-292 <= x_83_ <= 168
-308 <= x_84_ <= 332
-322 <= x_85_ <= 282
-258 <= x_86_ <= 234
-167 <= x_87_ <= 43
-243 <= x_88_ <= 119
-188 <= x_89_ <= 69
-205 <= x_90_ <= 227
-204 <= x_91_ <= 95
-403 <= x_92_ <= 279
-271 <= x_93_ <= 247
-115 <= x_94_ <= 149
-93 <= x_95_ <= 127
-209 <= x_96_ <= 85
x_97_ = 17
-215 <= x_98_ <= 96
-105 <= x_99_ <= 283
-162 <= x_100_ <= 233
-89 <= y_1_ <= 155
-261 <= y_2_ <= 283
-111 <= y_3_ <= 177
-124 <= y_4_ <= 142
-214 <= y_5_ <= 236
-182 <= y_6_ <= 248
-325 <= y_7_ <= 348
-339 <= y_8_ <= 393
-191 <= y_9_ <= 213
-128 <= y_10_ <= 151
-131 <= y_11_ <= 153
-199 <= y_12_ <= 253
-297 <= y_13_ <= 361
-216 <= y_14_ <= 282
y_15_ = 33
-140 <= y_16_ <= 206
-12 <= y_17_ <= 78
-19 <= y_18_ <= 85
-322 <= y_19_ <= 360
-197 <= y_20_ <= 219
-29 <= y_21_ <= 95
-224 <= y_22_ <= 264
-74 <= y_23_ <= 140
-294 <= y_24_ <= 299
-197 <= y_25_ <= 263
-134 <= y_26_ <= 200
-174 <= y_27_ <= 92
-291 <= y_28_ <= 278
-300 <= y_29_ <= 323
-137 <= y_30_ <= 124
-236 <= y_31_ <= 302
-332 <= y_32_ <= 318
-78 <= y_33_ <= 144
-90 <= y_34_ <= 156
-200 <= y_35_ <= 266
-194 <= y_36_ <= 260
-236 <= y_37_ <= 302
-192 <= y_38_ <= 258
-235 <= y_39_ <= 257
-176 <= y_40_ <= 242
-251 <= y_41_ <= 317
-208 <= y_42_ <= 274
-348 <= y_43_ <= 367
-74 <= y_44_ <= 96
-250 <= y_45_ <= 316
-230 <= y_46_ <= 296
-188 <= y_47_ <= 254
-193 <= y_48_ <= 65
y_49_ = -64
-315 <= y_50_ <= 187
-243 <= y_51_ <= 309
-297 <= y_52_ <= 363
-180 <= y_53_ <= 203
-242 <= y_54_ <= 229
-228 <= y_55_ <= 250
-212 <= y_56_ <= 235
-235 <= y_57_ <= 154
-293 <= y_58_ <= 359
-282 <= y_59_ <= 310
-224 <= y_60_ <= 290
-176 <= y_61_ <= 242
-332 <= y_62_ <= 398
-388 <= y_63_ <= 260
-156 <= y_64_ <= 218
-199 <= y_65_ <= 265
-214 <= y_66_ <= 133
-168 <= y_67_ <= 191
-147 <= y_68_ <= 213
-134 <= y_69_ <= 200
-311 <= y_70_ <= 347
-399 <= y_71_ <= 334
-321 <= y_72_ <= 387
-289 <= y_73_ <= 355
-258 <= y_74_ <= 324
-153 <= y_75_ <= 219
-318 <= y_76_ <= 331
-156 <= y_77_ <= 175
-272 <= y_78_ <= 338
-327 <= y_79_ <= 349
-230 <= y_80_ <= 249
-362 <= y_81_ <= 384
-51 <= y_82_ <= 117
-197 <= y_83_ <= 263
-314 <= y_84_ <= 336
-311 <= y_85_ <= 347
-263 <= y_86_ <= 286
-72 <= y_87_ <= 138
-148 <= y_88_ <= 214
-98 <= y_89_ <= 164
-211 <= y_90_ <= 233
-124 <= y_91_ <= 190
-308 <= y_92_ <= 374
-276 <= y_93_ <= 299
-121 <= y_94_ <= 143
-99 <= y_95_ <= 121
-114 <= y_96_ <= 180
y_97_ = 11
-125 <= y_98_ <= 191
-258 <= y_99_ <= 130
-262 <= y_100_ <= 187
General
x_1_
x_2_
x_3_
x_4_
x_5_
x_6_
x_7_
x_8_
x_9_
x_10_
x_11_
x_12_
x_13_
x_14_
x_15_
x_16_
x_17_
x_18_
x_19_
x_20_
x_21_
x_22_
x_23_
x_24_
x_25_
x_26_
x_27_
x_28_
x_29_
x_30_
x_31_
x_32_
x_33_
x_34_
x_35_
x_36_
x_37_
x_38_
x_39_
x_40_
x_41_
x_42_
x_43_
x_44_
x_45_
x_46_
x_47_
x_48_
x_49_
x_50_
x_51_
x_52_
x_53_
x_54_
x_55_
x_56_
x_57_
x_58_
x_59_
x_60_
x_61_
x_62_
x_63_
x_64_
x_65_
x_66_
x_67_
x_68_
x_69_
x_70_
x_71_
x_72_
x_73_
x_74_
x_75_
x_76_
x_77_
x_78_
x_79_
x_80_
x_81_
x_82_
x_83_
x_84_
x_85_
x_86_
x_87_
x_88_
x_89_
x_90_
x_91_
x_92_
x_93_
x_94_
x_95_
x_96_
x_97_
x_98_
x_99_
x_100_
y_1_
y_2_
y_3_
y_4_
y_5_
y_6_
y_7_
y_8_
y_9_
y_10_
y_11_
y_12_
y_13_
y_14_
y_15_
y_16_
y_17_
y_18_
y_19_
y_20_
y_21_
y_22_
y_23_
y_24_
y_25_
y_26_
y_27_
y_28_
y_29_
y_30_
y_31_
y_32_
y_33_
y_34_
y_35_
y_36_
y_37_
y_38_
y_39_
y_40_
y_41_
y_42_
y_43_
y_44_
y_45_
y_46_
y_47_
y_48_
y_49_
y_50_
y_51_
y_52_
y_53_
y_54_
y_55_
y_56_
y_57_
y_58_
y_59_
y_60_
y_61_
y_62_
y_63_
y_64_
y_65_
y_66_
y_67_
y_68_
y_69_
y_70_
y_71_
y_72_
y_73_
y_74_
y_75_
y_76_
y_77_
y_78_
y_79_
y_80_
y_81_
y_82_
y_83_
y_84_
y_85_
y_86_
y_87_
y_88_
y_89_
y_90_
y_91_
y_92_
y_93_
y_94_
y_95_
y_96_
y_97_
y_98_
y_99_
y_100_
End
