minimize
obj: 
subject to
c1_4: -1 x_10_ + 1 y_10_ <= 0
c1_1: [ 1 x_1_ ^ 2 + 1 y_1_ ^ 2 ] <= 74976
c2_1: [ 1 x_2_ ^ 2 + 1 y_2_ ^ 2 ] <= 27788
c3_1: [ 1 x_3_ ^ 2 + 1 y_3_ ^ 2 ] <= 52765
c4_1: [ 1 x_4_ ^ 2 + 1 y_4_ ^ 2 ] <= 23409
c5_1: [ 1 x_5_ ^ 2 + 1 y_5_ ^ 2 ] <= 64470
c6_1: [ 1 x_6_ ^ 2 + 1 y_6_ ^ 2 ] <= 29855
c7_1: [ 1 x_7_ ^ 2 + 1 y_7_ ^ 2 ] <= 122726
c8_1: [ 1 x_9_ ^ 2 + 1 y_9_ ^ 2 ] <= 58611
c9_1: [ 1 x_10_ ^ 2 + 1 y_10_ ^ 2 ] <= 196231
c10_1: [ 1 x_11_ ^ 2 + 1 y_11_ ^ 2 ] <= 60433
c11_1: [ 1 x_12_ ^ 2 + 1 y_12_ ^ 2 ] <= 48788
c12_1: [ 1 x_13_ ^ 2 + 1 y_13_ ^ 2 ] <= 42230
c13_1: [ 1 x_14_ ^ 2 + 1 y_14_ ^ 2 ] <= 19541
c14_1: [ 1 x_15_ ^ 2 + 1 y_15_ ^ 2 ] <= 90725
c15_1: [ 1 x_16_ ^ 2 + 1 y_16_ ^ 2 ] <= 65702
c16_1: [ 1 x_17_ ^ 2 + 1 y_17_ ^ 2 ] <= 3604
c17_1: [ 1 x_18_ ^ 2 + 1 y_18_ ^ 2 ] <= 61185
c18_1: [ 1 x_19_ ^ 2 + 1 y_19_ ^ 2 ] <= 9972
c19_1: [ 1 x_20_ ^ 2 + 1 y_20_ ^ 2 ] <= 84017
c20_1: [ 1 x_21_ ^ 2 + 1 y_21_ ^ 2 ] <= 68553
c21_1: [ 1 x_22_ ^ 2 + 1 y_22_ ^ 2 ] <= 80423
c22_1: [ 1 x_23_ ^ 2 + 1 y_23_ ^ 2 ] <= 100743
c23_1: [ 1 x_24_ ^ 2 + 1 y_24_ ^ 2 ] <= 122323
c24_1: [ 1 x_25_ ^ 2 + 1 y_25_ ^ 2 ] <= 50491
c25_1: [ 1 x_26_ ^ 2 + 1 y_26_ ^ 2 ] <= 76348
c26_1: [ 1 x_27_ ^ 2 + 1 y_27_ ^ 2 ] <= 51792
c27_1: [ 1 x_28_ ^ 2 + 1 y_28_ ^ 2 ] <= 100199
c28_1: [ 1 x_29_ ^ 2 + 1 y_29_ ^ 2 ] <= 52655
c29_1: [ 1 x_30_ ^ 2 + 1 y_30_ ^ 2 ] <= 77608
c30_1: [ 1 x_31_ ^ 2 + 1 y_31_ ^ 2 ] <= 125856
c31_1: [ 1 x_32_ ^ 2 + 1 y_32_ ^ 2 ] <= 4797
c32_1: [ 1 x_33_ ^ 2 + 1 y_33_ ^ 2 ] <= 97429
c33_1: [ 1 x_34_ ^ 2 + 1 y_34_ ^ 2 ] <= 3536
c34_1: [ 1 x_35_ ^ 2 + 1 y_35_ ^ 2 ] <= 96633
c35_1: [ 1 x_36_ ^ 2 + 1 y_36_ ^ 2 ] <= 191683
c36_1: [ 1 x_37_ ^ 2 + 1 y_37_ ^ 2 ] <= 10730
c37_1: [ 1 x_38_ ^ 2 + 1 y_38_ ^ 2 ] <= 36609
c38_1: [ 1 x_39_ ^ 2 + 1 y_39_ ^ 2 ] <= 25166
c39_1: [ 1 x_40_ ^ 2 + 1 y_40_ ^ 2 ] <= 3625
c40_1: [ 1 x_41_ ^ 2 + 1 y_41_ ^ 2 ] <= 32663
c41_1: [ 1 x_42_ ^ 2 + 1 y_42_ ^ 2 ] <= 64881
c42_1: [ 1 x_43_ ^ 2 + 1 y_43_ ^ 2 ] <= 111459
c43_1: [ 1 x_44_ ^ 2 + 1 y_44_ ^ 2 ] <= 27117
c44_1: [ 1 x_45_ ^ 2 + 1 y_45_ ^ 2 ] <= 149369
c45_1: [ 1 x_46_ ^ 2 + 1 y_46_ ^ 2 ] <= 39655
c46_1: [ 1 x_47_ ^ 2 + 1 y_47_ ^ 2 ] <= 111170
c47_1: [ 1 x_48_ ^ 2 + 1 y_48_ ^ 2 ] <= 117233
c48_1: [ 1 x_49_ ^ 2 + 1 y_49_ ^ 2 ] <= 65997
c49_1: [ 1 x_50_ ^ 2 + 1 y_50_ ^ 2 ] <= 87960
c50_1: [ 1 x_51_ ^ 2 + 1 y_51_ ^ 2 ] <= 31627
c51_1: [ 1 x_52_ ^ 2 + 1 y_52_ ^ 2 ] <= 40672
c52_1: [ 1 x_53_ ^ 2 + 1 y_53_ ^ 2 ] <= 87775
c53_1: [ 1 x_54_ ^ 2 + 1 y_54_ ^ 2 ] <= 52374
c54_1: [ 1 x_55_ ^ 2 + 1 y_55_ ^ 2 ] <= 77837
c55_1: [ 1 x_56_ ^ 2 + 1 y_56_ ^ 2 ] <= 21756
c56_1: [ 1 x_57_ ^ 2 + 1 y_57_ ^ 2 ] <= 42398
c57_1: [ 1 x_58_ ^ 2 + 1 y_58_ ^ 2 ] <= 121379
c58_1: [ 1 x_59_ ^ 2 + 1 y_59_ ^ 2 ] <= 39293
c59_1: [ 1 x_60_ ^ 2 + 1 y_60_ ^ 2 ] <= 139451
c60_1: [ 1 x_61_ ^ 2 + 1 y_61_ ^ 2 ] <= 55175
c61_1: [ 1 x_62_ ^ 2 + 1 y_62_ ^ 2 ] <= 66521
c62_1: [ 1 x_63_ ^ 2 + 1 y_63_ ^ 2 ] <= 21034
c63_1: [ 1 x_64_ ^ 2 + 1 y_64_ ^ 2 ] <= 129800
c64_1: [ 1 x_65_ ^ 2 + 1 y_65_ ^ 2 ] <= 25920
c65_1: [ 1 x_66_ ^ 2 + 1 y_66_ ^ 2 ] <= 50290
c66_1: [ 1 x_67_ ^ 2 + 1 y_67_ ^ 2 ] <= 32543
c67_1: [ 1 x_68_ ^ 2 + 1 y_68_ ^ 2 ] <= 133478
c68_1: [ 1 x_69_ ^ 2 + 1 y_69_ ^ 2 ] <= 89286
c69_1: [ 1 x_70_ ^ 2 + 1 y_70_ ^ 2 ] <= 16697
c70_1: [ 1 x_71_ ^ 2 + 1 y_71_ ^ 2 ] <= 69542
c71_1: [ 1 x_72_ ^ 2 + 1 y_72_ ^ 2 ] <= 105877
c72_1: [ 1 x_73_ ^ 2 + 1 y_73_ ^ 2 ] <= 79936
c73_1: [ 1 x_74_ ^ 2 + 1 y_74_ ^ 2 ] <= 99707
c74_1: [ 1 x_75_ ^ 2 + 1 y_75_ ^ 2 ] <= 119244
c75_1: [ 1 x_76_ ^ 2 + 1 y_76_ ^ 2 ] <= 43329
c76_1: [ 1 x_77_ ^ 2 + 1 y_77_ ^ 2 ] <= 107393
c77_1: [ 1 x_78_ ^ 2 + 1 y_78_ ^ 2 ] <= 60992
c78_1: [ 1 x_79_ ^ 2 + 1 y_79_ ^ 2 ] <= 99659
c79_1: [ 1 x_80_ ^ 2 + 1 y_80_ ^ 2 ] <= 38493
c80_1: [ 1 x_81_ ^ 2 + 1 y_81_ ^ 2 ] <= 113849
c81_1: [ 1 x_82_ ^ 2 + 1 y_82_ ^ 2 ] <= 91008
c82_1: [ 1 x_83_ ^ 2 + 1 y_83_ ^ 2 ] <= 129191
c83_1: [ 1 x_84_ ^ 2 + 1 y_84_ ^ 2 ] <= 69298
c84_1: [ 1 x_85_ ^ 2 + 1 y_85_ ^ 2 ] <= 132935
c85_1: [ 1 x_86_ ^ 2 + 1 y_86_ ^ 2 ] <= 58398
c86_1: [ 1 x_87_ ^ 2 + 1 y_87_ ^ 2 ] <= 68597
c87_1: [ 1 x_88_ ^ 2 + 1 y_88_ ^ 2 ] <= 165308
c88_1: [ 1 x_89_ ^ 2 + 1 y_89_ ^ 2 ] <= 32923
c89_1: [ 1 x_90_ ^ 2 + 1 y_90_ ^ 2 ] <= 105273
c90_1: [ 1 x_91_ ^ 2 + 1 y_91_ ^ 2 ] <= 15813
c91_1: [ 1 x_92_ ^ 2 + 1 y_92_ ^ 2 ] <= 132347
c92_1: [ 1 x_93_ ^ 2 + 1 y_93_ ^ 2 ] <= 28073
c93_1: [ 1 x_94_ ^ 2 + 1 y_94_ ^ 2 ] <= 115295
c94_1: [ 1 x_95_ ^ 2 + 1 y_95_ ^ 2 ] <= 102056
c95_1: [ 1 x_96_ ^ 2 + 1 y_96_ ^ 2 ] <= 140780
c96_1: [ 1 x_97_ ^ 2 + 1 y_97_ ^ 2 ] <= 97552
c97_1: [ 1 x_98_ ^ 2 + 1 y_98_ ^ 2 ] <= 9805
c98_1: [ 1 x_99_ ^ 2 + 1 y_99_ ^ 2 ] <= 30892
c99_1: [ 1 x_100_ ^ 2 + 1 y_100_ ^ 2 ] <= 162204
c1_3: 1 x_10_ >= 0
c2_3: 1 y_10_ >= 0
c1_2: 1 x_8_ = 0
c2_2: 1 y_8_ = 0
c1: [ 1 x_1_ ^ 2 - 2 x_2_ * x_1_ + 1 x_2_ ^ 2 + 1 y_1_ ^ 2 - 2 y_2_ * y_1_ + 1 y_2_ ^ 2 ] = 15725
c2: [ 1 x_2_ ^ 2 - 2 x_4_ * x_2_ + 1 x_4_ ^ 2 + 1 y_2_ ^ 2 - 2 y_4_ * y_2_ + 1 y_4_ ^ 2 ] = 30266
c3: [ 1 x_3_ ^ 2 - 2 x_4_ * x_3_ + 1 x_4_ ^ 2 + 1 y_3_ ^ 2 - 2 y_4_ * y_3_ + 1 y_4_ ^ 2 ] = 6868
c4: [ 1 x_4_ ^ 2 - 2 x_5_ * x_4_ + 1 x_5_ ^ 2 + 1 y_4_ ^ 2 - 2 y_5_ * y_4_ + 1 y_5_ ^ 2 ] = 14661
c5: [ 1 x_5_ ^ 2 - 2 x_6_ * x_5_ + 1 x_6_ ^ 2 + 1 y_5_ ^ 2 - 2 y_6_ * y_5_ + 1 y_6_ ^ 2 ] = 6581
c6: [ 1 x_1_ ^ 2 - 2 x_7_ * x_1_ + 1 x_7_ ^ 2 + 1 y_1_ ^ 2 - 2 y_7_ * y_1_ + 1 y_7_ ^ 2 ] = 19498
c7: [ 1 x_4_ ^ 2 - 2 x_9_ * x_4_ + 1 x_9_ ^ 2 + 1 y_4_ ^ 2 - 2 y_9_ * y_4_ + 1 y_9_ ^ 2 ] = 7938
c8: [ 1 x_7_ ^ 2 - 2 x_9_ * x_7_ + 1 x_9_ ^ 2 + 1 y_7_ ^ 2 - 2 y_9_ * y_7_ + 1 y_9_ ^ 2 ] = 11713
c9: [ 1 x_1_ ^ 2 - 2 x_10_ * x_1_ + 1 x_10_ ^ 2 + 1 y_1_ ^ 2 - 2 y_10_ * y_1_ + 1 y_10_ ^ 2 ] = 28616
c10: [ 1 x_5_ ^ 2 - 2 x_11_ * x_5_ + 1 x_11_ ^ 2 + 1 y_5_ ^ 2 - 2 y_11_ * y_5_ + 1 y_11_ ^ 2 ] = 19444
c11: [ 1 x_1_ ^ 2 - 2 x_12_ * x_1_ + 1 x_12_ ^ 2 + 1 y_1_ ^ 2 - 2 y_12_ * y_1_ + 1 y_12_ ^ 2 ] = 39377
c12: [ 1 x_11_ ^ 2 - 2 x_12_ * x_11_ + 1 x_12_ ^ 2 + 1 y_11_ ^ 2 - 2 y_12_ * y_11_ + 1 y_12_ ^ 2 ] = 14653
c13: [ 1 x_4_ ^ 2 - 2 x_13_ * x_4_ + 1 x_13_ ^ 2 + 1 y_4_ ^ 2 - 2 y_13_ * y_4_ + 1 y_13_ ^ 2 ] = 2756
c14: [ 1 x_5_ ^ 2 - 2 x_13_ * x_5_ + 1 x_13_ ^ 2 + 1 y_5_ ^ 2 - 2 y_13_ * y_5_ + 1 y_13_ ^ 2 ] = 12197
c15: [ 1 x_8_ ^ 2 - 2 x_14_ * x_8_ + 1 x_14_ ^ 2 + 1 y_8_ ^ 2 - 2 y_14_ * y_8_ + 1 y_14_ ^ 2 ] = 19541
c16: [ 1 x_11_ ^ 2 - 2 x_14_ * x_11_ + 1 x_14_ ^ 2 + 1 y_11_ ^ 2 - 2 y_14_ * y_11_ + 1 y_14_ ^ 2 ] = 11245
c17: [ 1 x_13_ ^ 2 - 2 x_15_ * x_13_ + 1 x_15_ ^ 2 + 1 y_13_ ^ 2 - 2 y_15_ * y_13_ + 1 y_15_ ^ 2 ] = 9160
c18: [ 1 x_10_ ^ 2 - 2 x_16_ * x_10_ + 1 x_16_ ^ 2 + 1 y_10_ ^ 2 - 2 y_16_ * y_10_ + 1 y_16_ ^ 2 ] = 48154
c19: [ 1 x_12_ ^ 2 - 2 x_16_ * x_12_ + 1 x_16_ ^ 2 + 1 y_12_ ^ 2 - 2 y_16_ * y_12_ + 1 y_16_ ^ 2 ] = 22501
c20: [ 1 x_6_ ^ 2 - 2 x_17_ * x_6_ + 1 x_17_ ^ 2 + 1 y_6_ ^ 2 - 2 y_17_ * y_6_ + 1 y_17_ ^ 2 ] = 12713
c21: [ 1 x_8_ ^ 2 - 2 x_17_ * x_8_ + 1 x_17_ ^ 2 + 1 y_8_ ^ 2 - 2 y_17_ * y_8_ + 1 y_17_ ^ 2 ] = 3604
c22: [ 1 x_2_ ^ 2 - 2 x_18_ * x_2_ + 1 x_18_ ^ 2 + 1 y_2_ ^ 2 - 2 y_18_ * y_2_ + 1 y_18_ ^ 2 ] = 6506
c23: [ 1 x_3_ ^ 2 - 2 x_18_ * x_3_ + 1 x_18_ ^ 2 + 1 y_3_ ^ 2 - 2 y_18_ * y_3_ + 1 y_18_ ^ 2 ] = 25780
c24: [ 1 x_17_ ^ 2 - 2 x_19_ * x_17_ + 1 x_19_ ^ 2 + 1 y_17_ ^ 2 - 2 y_19_ * y_17_ + 1 y_19_ ^ 2 ] = 1586
c25: [ 1 x_9_ ^ 2 - 2 x_20_ * x_9_ + 1 x_20_ ^ 2 + 1 y_9_ ^ 2 - 2 y_20_ * y_9_ + 1 y_20_ ^ 2 ] = 2281
c26: [ 1 x_1_ ^ 2 - 2 x_21_ * x_1_ + 1 x_21_ ^ 2 + 1 y_1_ ^ 2 - 2 y_21_ * y_1_ + 1 y_21_ ^ 2 ] = 11570
c27: [ 1 x_14_ ^ 2 - 2 x_21_ * x_14_ + 1 x_21_ ^ 2 + 1 y_14_ ^ 2 - 2 y_21_ * y_14_ + 1 y_21_ ^ 2 ] = 14893
c28: [ 1 x_18_ ^ 2 - 2 x_22_ * x_18_ + 1 x_22_ ^ 2 + 1 y_18_ ^ 2 - 2 y_22_ * y_18_ + 1 y_22_ ^ 2 ] = 12114
c29: [ 1 x_7_ ^ 2 - 2 x_23_ * x_7_ + 1 x_23_ ^ 2 + 1 y_7_ ^ 2 - 2 y_23_ * y_7_ + 1 y_23_ ^ 2 ] = 7514
c30: [ 1 x_11_ ^ 2 - 2 x_23_ * x_11_ + 1 x_23_ ^ 2 + 1 y_11_ ^ 2 - 2 y_23_ * y_11_ + 1 y_23_ ^ 2 ] = 5122
c31: [ 1 x_18_ ^ 2 - 2 x_24_ * x_18_ + 1 x_24_ ^ 2 + 1 y_18_ ^ 2 - 2 y_24_ * y_18_ + 1 y_24_ ^ 2 ] = 10484
c32: [ 1 x_16_ ^ 2 - 2 x_25_ * x_16_ + 1 x_25_ ^ 2 + 1 y_16_ ^ 2 - 2 y_25_ * y_16_ + 1 y_25_ ^ 2 ] = 1000
c33: [ 1 x_11_ ^ 2 - 2 x_26_ * x_11_ + 1 x_26_ ^ 2 + 1 y_11_ ^ 2 - 2 y_26_ * y_11_ + 1 y_26_ ^ 2 ] = 929
c34: [ 1 x_24_ ^ 2 - 2 x_26_ * x_24_ + 1 x_26_ ^ 2 + 1 y_24_ ^ 2 - 2 y_26_ * y_24_ + 1 y_26_ ^ 2 ] = 24592
c35: [ 1 x_9_ ^ 2 - 2 x_28_ * x_9_ + 1 x_28_ ^ 2 + 1 y_9_ ^ 2 - 2 y_28_ * y_9_ + 1 y_28_ ^ 2 ] = 18122
c36: [ 1 x_12_ ^ 2 - 2 x_29_ * x_12_ + 1 x_29_ ^ 2 + 1 y_12_ ^ 2 - 2 y_29_ * y_12_ + 1 y_29_ ^ 2 ] = 11194
c37: [ 1 x_13_ ^ 2 - 2 x_29_ * x_13_ + 1 x_29_ ^ 2 + 1 y_13_ ^ 2 - 2 y_29_ * y_13_ + 1 y_29_ ^ 2 ] = 36392
c38: [ 1 x_14_ ^ 2 - 2 x_29_ * x_14_ + 1 x_29_ ^ 2 + 1 y_14_ ^ 2 - 2 y_29_ * y_14_ + 1 y_29_ ^ 2 ] = 8042
c39: [ 1 x_3_ ^ 2 - 2 x_30_ * x_3_ + 1 x_30_ ^ 2 + 1 y_3_ ^ 2 - 2 y_30_ * y_3_ + 1 y_30_ ^ 2 ] = 24730
c40: [ 1 x_9_ ^ 2 - 2 x_31_ * x_9_ + 1 x_31_ ^ 2 + 1 y_9_ ^ 2 - 2 y_31_ * y_9_ + 1 y_31_ ^ 2 ] = 24128
c41: [ 1 x_22_ ^ 2 - 2 x_31_ * x_22_ + 1 x_31_ ^ 2 + 1 y_22_ ^ 2 - 2 y_31_ * y_22_ + 1 y_31_ ^ 2 ] = 8000
c42: [ 1 x_4_ ^ 2 - 2 x_32_ * x_4_ + 1 x_32_ ^ 2 + 1 y_4_ ^ 2 - 2 y_32_ * y_4_ + 1 y_32_ ^ 2 ] = 7012
c43: [ 1 x_27_ ^ 2 - 2 x_32_ * x_27_ + 1 x_32_ ^ 2 + 1 y_27_ ^ 2 - 2 y_32_ * y_27_ + 1 y_32_ ^ 2 ] = 25064
c44: [ 1 x_5_ ^ 2 - 2 x_33_ * x_5_ + 1 x_33_ ^ 2 + 1 y_5_ ^ 2 - 2 y_33_ * y_5_ + 1 y_33_ ^ 2 ] = 27250
c45: [ 1 x_8_ ^ 2 - 2 x_34_ * x_8_ + 1 x_34_ ^ 2 + 1 y_8_ ^ 2 - 2 y_34_ * y_8_ + 1 y_34_ ^ 2 ] = 3536
c46: [ 1 x_9_ ^ 2 - 2 x_35_ * x_9_ + 1 x_35_ ^ 2 + 1 y_9_ ^ 2 - 2 y_35_ * y_9_ + 1 y_35_ ^ 2 ] = 23229
c47: [ 1 x_10_ ^ 2 - 2 x_35_ * x_10_ + 1 x_35_ ^ 2 + 1 y_10_ ^ 2 - 2 y_35_ * y_10_ + 1 y_35_ ^ 2 ] = 36296
c48: [ 1 x_23_ ^ 2 - 2 x_36_ * x_23_ + 1 x_36_ ^ 2 + 1 y_23_ ^ 2 - 2 y_36_ * y_23_ + 1 y_36_ ^ 2 ] = 14500
c49: [ 1 x_8_ ^ 2 - 2 x_37_ * x_8_ + 1 x_37_ ^ 2 + 1 y_8_ ^ 2 - 2 y_37_ * y_8_ + 1 y_37_ ^ 2 ] = 10730
c50: [ 1 x_2_ ^ 2 - 2 x_38_ * x_2_ + 1 x_38_ ^ 2 + 1 y_2_ ^ 2 - 2 y_38_ * y_2_ + 1 y_38_ ^ 2 ] = 9634
c51: [ 1 x_33_ ^ 2 - 2 x_38_ * x_33_ + 1 x_38_ ^ 2 + 1 y_33_ ^ 2 - 2 y_38_ * y_33_ + 1 y_38_ ^ 2 ] = 14593
c52: [ 1 x_12_ ^ 2 - 2 x_39_ * x_12_ + 1 x_39_ ^ 2 + 1 y_12_ ^ 2 - 2 y_39_ * y_12_ + 1 y_39_ ^ 2 ] = 3874
c53: [ 1 x_32_ ^ 2 - 2 x_39_ * x_32_ + 1 x_39_ ^ 2 + 1 y_32_ ^ 2 - 2 y_39_ * y_32_ + 1 y_39_ ^ 2 ] = 7988
c54: [ 1 x_3_ ^ 2 - 2 x_40_ * x_3_ + 1 x_40_ ^ 2 + 1 y_3_ ^ 2 - 2 y_40_ * y_3_ + 1 y_40_ ^ 2 ] = 28730
c55: [ 1 x_8_ ^ 2 - 2 x_40_ * x_8_ + 1 x_40_ ^ 2 + 1 y_8_ ^ 2 - 2 y_40_ * y_8_ + 1 y_40_ ^ 2 ] = 3625
c56: [ 1 x_32_ ^ 2 - 2 x_40_ * x_32_ + 1 x_40_ ^ 2 + 1 y_32_ ^ 2 - 2 y_40_ * y_32_ + 1 y_40_ ^ 2 ] = 82
c57: [ 1 x_1_ ^ 2 - 2 x_41_ * x_1_ + 1 x_41_ ^ 2 + 1 y_1_ ^ 2 - 2 y_41_ * y_1_ + 1 y_41_ ^ 2 ] = 29889
c58: [ 1 x_18_ ^ 2 - 2 x_41_ * x_18_ + 1 x_41_ ^ 2 + 1 y_18_ ^ 2 - 2 y_41_ * y_18_ + 1 y_41_ ^ 2 ] = 4626
c59: [ 1 x_34_ ^ 2 - 2 x_41_ * x_34_ + 1 x_41_ ^ 2 + 1 y_34_ ^ 2 - 2 y_41_ * y_34_ + 1 y_41_ ^ 2 ] = 14705
c60: [ 1 x_11_ ^ 2 - 2 x_42_ * x_11_ + 1 x_42_ ^ 2 + 1 y_11_ ^ 2 - 2 y_42_ * y_11_ + 1 y_42_ ^ 2 ] = 10216
c61: [ 1 x_12_ ^ 2 - 2 x_42_ * x_12_ + 1 x_42_ ^ 2 + 1 y_12_ ^ 2 - 2 y_42_ * y_12_ + 1 y_42_ ^ 2 ] = 1145
c62: [ 1 x_27_ ^ 2 - 2 x_43_ * x_27_ + 1 x_43_ ^ 2 + 1 y_27_ ^ 2 - 2 y_43_ * y_27_ + 1 y_43_ ^ 2 ] = 31469
c63: [ 1 x_29_ ^ 2 - 2 x_43_ * x_29_ + 1 x_43_ ^ 2 + 1 y_29_ ^ 2 - 2 y_43_ * y_29_ + 1 y_43_ ^ 2 ] = 10897
c64: [ 1 x_13_ ^ 2 - 2 x_44_ * x_13_ + 1 x_44_ ^ 2 + 1 y_13_ ^ 2 - 2 y_44_ * y_13_ + 1 y_44_ ^ 2 ] = 2858
c65: [ 1 x_34_ ^ 2 - 2 x_44_ * x_34_ + 1 x_44_ ^ 2 + 1 y_34_ ^ 2 - 2 y_44_ * y_34_ + 1 y_44_ ^ 2 ] = 11069
c66: [ 1 x_5_ ^ 2 - 2 x_45_ * x_5_ + 1 x_45_ ^ 2 + 1 y_5_ ^ 2 - 2 y_45_ * y_5_ + 1 y_45_ ^ 2 ] = 17576
c67: [ 1 x_30_ ^ 2 - 2 x_45_ * x_30_ + 1 x_45_ ^ 2 + 1 y_30_ ^ 2 - 2 y_45_ * y_30_ + 1 y_45_ ^ 2 ] = 18397
c68: [ 1 x_34_ ^ 2 - 2 x_46_ * x_34_ + 1 x_46_ ^ 2 + 1 y_34_ ^ 2 - 2 y_46_ * y_34_ + 1 y_46_ ^ 2 ] = 19508
c69: [ 1 x_22_ ^ 2 - 2 x_47_ * x_22_ + 1 x_47_ ^ 2 + 1 y_22_ ^ 2 - 2 y_47_ * y_22_ + 1 y_47_ ^ 2 ] = 27233
c70: [ 1 x_24_ ^ 2 - 2 x_47_ * x_24_ + 1 x_47_ ^ 2 + 1 y_24_ ^ 2 - 2 y_47_ * y_24_ + 1 y_47_ ^ 2 ] = 23985
c71: [ 1 x_33_ ^ 2 - 2 x_47_ * x_33_ + 1 x_47_ ^ 2 + 1 y_33_ ^ 2 - 2 y_47_ * y_33_ + 1 y_47_ ^ 2 ] = 38792
c72: [ 1 x_13_ ^ 2 - 2 x_48_ * x_13_ + 1 x_48_ ^ 2 + 1 y_13_ ^ 2 - 2 y_48_ * y_13_ + 1 y_48_ ^ 2 ] = 18740
c73: [ 1 x_20_ ^ 2 - 2 x_48_ * x_20_ + 1 x_48_ ^ 2 + 1 y_20_ ^ 2 - 2 y_48_ * y_20_ + 1 y_48_ ^ 2 ] = 6641
c74: [ 1 x_31_ ^ 2 - 2 x_49_ * x_31_ + 1 x_49_ ^ 2 + 1 y_31_ ^ 2 - 2 y_49_ * y_31_ + 1 y_49_ ^ 2 ] = 29138
c75: [ 1 x_13_ ^ 2 - 2 x_50_ * x_13_ + 1 x_50_ ^ 2 + 1 y_13_ ^ 2 - 2 y_50_ * y_13_ + 1 y_50_ ^ 2 ] = 8296
c76: [ 1 x_16_ ^ 2 - 2 x_50_ * x_16_ + 1 x_50_ ^ 2 + 1 y_16_ ^ 2 - 2 y_50_ * y_16_ + 1 y_50_ ^ 2 ] = 16237
c77: [ 1 x_26_ ^ 2 - 2 x_50_ * x_26_ + 1 x_50_ ^ 2 + 1 y_26_ ^ 2 - 2 y_50_ * y_26_ + 1 y_50_ ^ 2 ] = 10400
c78: [ 1 x_4_ ^ 2 - 2 x_51_ * x_4_ + 1 x_51_ ^ 2 + 1 y_4_ ^ 2 - 2 y_51_ * y_4_ + 1 y_51_ ^ 2 ] = 617
c79: [ 1 x_28_ ^ 2 - 2 x_51_ * x_28_ + 1 x_51_ ^ 2 + 1 y_28_ ^ 2 - 2 y_51_ * y_28_ + 1 y_51_ ^ 2 ] = 26821
c80: [ 1 x_31_ ^ 2 - 2 x_51_ * x_31_ + 1 x_51_ ^ 2 + 1 y_31_ ^ 2 - 2 y_51_ * y_31_ + 1 y_51_ ^ 2 ] = 31301
c81: [ 1 x_37_ ^ 2 - 2 x_52_ * x_37_ + 1 x_52_ ^ 2 + 1 y_37_ ^ 2 - 2 y_52_ * y_37_ + 1 y_52_ ^ 2 ] = 9621
c82: [ 1 x_49_ ^ 2 - 2 x_52_ * x_49_ + 1 x_52_ ^ 2 + 1 y_49_ ^ 2 - 2 y_52_ * y_49_ + 1 y_52_ ^ 2 ] = 3050
c83: [ 1 x_16_ ^ 2 - 2 x_53_ * x_16_ + 1 x_53_ ^ 2 + 1 y_16_ ^ 2 - 2 y_53_ * y_16_ + 1 y_53_ ^ 2 ] = 15481
c84: [ 1 x_18_ ^ 2 - 2 x_53_ * x_18_ + 1 x_53_ ^ 2 + 1 y_18_ ^ 2 - 2 y_53_ * y_18_ + 1 y_53_ ^ 2 ] = 6176
c85: [ 1 x_35_ ^ 2 - 2 x_54_ * x_35_ + 1 x_54_ ^ 2 + 1 y_35_ ^ 2 - 2 y_54_ * y_35_ + 1 y_54_ ^ 2 ] = 6725
c86: [ 1 x_39_ ^ 2 - 2 x_54_ * x_39_ + 1 x_54_ ^ 2 + 1 y_39_ ^ 2 - 2 y_54_ * y_39_ + 1 y_54_ ^ 2 ] = 4930
c87: [ 1 x_1_ ^ 2 - 2 x_55_ * x_1_ + 1 x_55_ ^ 2 + 1 y_1_ ^ 2 - 2 y_55_ * y_1_ + 1 y_55_ ^ 2 ] = 13505
c88: [ 1 x_36_ ^ 2 - 2 x_55_ * x_36_ + 1 x_55_ ^ 2 + 1 y_36_ ^ 2 - 2 y_55_ * y_36_ + 1 y_55_ ^ 2 ] = 34281
c89: [ 1 x_38_ ^ 2 - 2 x_55_ * x_38_ + 1 x_55_ ^ 2 + 1 y_38_ ^ 2 - 2 y_55_ * y_38_ + 1 y_55_ ^ 2 ] = 7684
c90: [ 1 x_17_ ^ 2 - 2 x_56_ * x_17_ + 1 x_56_ ^ 2 + 1 y_17_ ^ 2 - 2 y_56_ * y_17_ + 1 y_56_ ^ 2 ] = 7650
c91: [ 1 x_47_ ^ 2 - 2 x_56_ * x_47_ + 1 x_56_ ^ 2 + 1 y_47_ ^ 2 - 2 y_56_ * y_47_ + 1 y_56_ ^ 2 ] = 34568
c92: [ 1 x_38_ ^ 2 - 2 x_57_ * x_38_ + 1 x_57_ ^ 2 + 1 y_38_ ^ 2 - 2 y_57_ * y_38_ + 1 y_57_ ^ 2 ] = 7901
c93: [ 1 x_54_ ^ 2 - 2 x_57_ * x_54_ + 1 x_57_ ^ 2 + 1 y_54_ ^ 2 - 2 y_57_ * y_54_ + 1 y_57_ ^ 2 ] = 21825
c94: [ 1 x_25_ ^ 2 - 2 x_58_ * x_25_ + 1 x_58_ ^ 2 + 1 y_25_ ^ 2 - 2 y_58_ * y_25_ + 1 y_58_ ^ 2 ] = 15300
c95: [ 1 x_27_ ^ 2 - 2 x_58_ * x_27_ + 1 x_58_ ^ 2 + 1 y_27_ ^ 2 - 2 y_58_ * y_27_ + 1 y_58_ ^ 2 ] = 29873
c96: [ 1 x_48_ ^ 2 - 2 x_58_ * x_48_ + 1 x_58_ ^ 2 + 1 y_48_ ^ 2 - 2 y_58_ * y_48_ + 1 y_58_ ^ 2 ] = 2965
c97: [ 1 x_17_ ^ 2 - 2 x_59_ * x_17_ + 1 x_59_ ^ 2 + 1 y_17_ ^ 2 - 2 y_59_ * y_17_ + 1 y_59_ ^ 2 ] = 19097
c98: [ 1 x_25_ ^ 2 - 2 x_59_ * x_25_ + 1 x_59_ ^ 2 + 1 y_25_ ^ 2 - 2 y_59_ * y_25_ + 1 y_59_ ^ 2 ] = 701
c99: [ 1 x_33_ ^ 2 - 2 x_60_ * x_33_ + 1 x_60_ ^ 2 + 1 y_33_ ^ 2 - 2 y_60_ * y_33_ + 1 y_60_ ^ 2 ] = 3757
c100: [ 1 x_55_ ^ 2 - 2 x_60_ * x_55_ + 1 x_60_ ^ 2 + 1 y_55_ ^ 2 - 2 y_60_ * y_55_ + 1 y_60_ ^ 2 ] = 17060
c101: [ 1 x_11_ ^ 2 - 2 x_61_ * x_11_ + 1 x_61_ ^ 2 + 1 y_11_ ^ 2 - 2 y_61_ * y_11_ + 1 y_61_ ^ 2 ] = 19924
c102: [ 1 x_37_ ^ 2 - 2 x_61_ * x_37_ + 1 x_61_ ^ 2 + 1 y_37_ ^ 2 - 2 y_61_ * y_37_ + 1 y_61_ ^ 2 ] = 17242
c103: [ 1 x_2_ ^ 2 - 2 x_62_ * x_2_ + 1 x_62_ ^ 2 + 1 y_2_ ^ 2 - 2 y_62_ * y_2_ + 1 y_62_ ^ 2 ] = 25937
c104: [ 1 x_61_ ^ 2 - 2 x_62_ * x_61_ + 1 x_62_ ^ 2 + 1 y_61_ ^ 2 - 2 y_62_ * y_61_ + 1 y_62_ ^ 2 ] = 530
c105: [ 1 x_8_ ^ 2 - 2 x_63_ * x_8_ + 1 x_63_ ^ 2 + 1 y_8_ ^ 2 - 2 y_63_ * y_8_ + 1 y_63_ ^ 2 ] = 21034
c106: [ 1 x_27_ ^ 2 - 2 x_63_ * x_27_ + 1 x_63_ ^ 2 + 1 y_27_ ^ 2 - 2 y_63_ * y_27_ + 1 y_63_ ^ 2 ] = 31061
c107: [ 1 x_53_ ^ 2 - 2 x_63_ * x_53_ + 1 x_63_ ^ 2 + 1 y_53_ ^ 2 - 2 y_63_ * y_53_ + 1 y_63_ ^ 2 ] = 22873
c108: [ 1 x_9_ ^ 2 - 2 x_64_ * x_9_ + 1 x_64_ ^ 2 + 1 y_9_ ^ 2 - 2 y_64_ * y_9_ + 1 y_64_ ^ 2 ] = 22369
c109: [ 1 x_26_ ^ 2 - 2 x_64_ * x_26_ + 1 x_64_ ^ 2 + 1 y_26_ ^ 2 - 2 y_64_ * y_26_ + 1 y_64_ ^ 2 ] = 24805
c110: [ 1 x_49_ ^ 2 - 2 x_64_ * x_49_ + 1 x_64_ ^ 2 + 1 y_49_ ^ 2 - 2 y_64_ * y_49_ + 1 y_64_ ^ 2 ] = 29077
c111: [ 1 x_34_ ^ 2 - 2 x_65_ * x_34_ + 1 x_65_ ^ 2 + 1 y_34_ ^ 2 - 2 y_65_ * y_34_ + 1 y_65_ ^ 2 ] = 10309
c112: [ 1 x_57_ ^ 2 - 2 x_65_ * x_57_ + 1 x_65_ ^ 2 + 1 y_57_ ^ 2 - 2 y_65_ * y_57_ + 1 y_65_ ^ 2 ] = 2017
c113: [ 1 x_2_ ^ 2 - 2 x_66_ * x_2_ + 1 x_66_ ^ 2 + 1 y_2_ ^ 2 - 2 y_66_ * y_2_ + 1 y_66_ ^ 2 ] = 3313
c114: [ 1 x_18_ ^ 2 - 2 x_66_ * x_18_ + 1 x_66_ ^ 2 + 1 y_18_ ^ 2 - 2 y_66_ * y_18_ + 1 y_66_ ^ 2 ] = 3973
c115: [ 1 x_46_ ^ 2 - 2 x_66_ * x_46_ + 1 x_66_ ^ 2 + 1 y_46_ ^ 2 - 2 y_66_ * y_46_ + 1 y_66_ ^ 2 ] = 31552
c116: [ 1 x_30_ ^ 2 - 2 x_67_ * x_30_ + 1 x_67_ ^ 2 + 1 y_30_ ^ 2 - 2 y_67_ * y_30_ + 1 y_67_ ^ 2 ] = 9640
c117: [ 1 x_34_ ^ 2 - 2 x_67_ * x_34_ + 1 x_67_ ^ 2 + 1 y_34_ ^ 2 - 2 y_67_ * y_34_ + 1 y_67_ ^ 2 ] = 14625
c118: [ 1 x_41_ ^ 2 - 2 x_68_ * x_41_ + 1 x_68_ ^ 2 + 1 y_41_ ^ 2 - 2 y_68_ * y_41_ + 1 y_68_ ^ 2 ] = 34084
c119: [ 1 x_42_ ^ 2 - 2 x_68_ * x_42_ + 1 x_68_ ^ 2 + 1 y_42_ ^ 2 - 2 y_68_ * y_42_ + 1 y_68_ ^ 2 ] = 40309
c120: [ 1 x_43_ ^ 2 - 2 x_69_ * x_43_ + 1 x_69_ ^ 2 + 1 y_43_ ^ 2 - 2 y_69_ * y_43_ + 1 y_69_ ^ 2 ] = 18785
c121: [ 1 x_44_ ^ 2 - 2 x_69_ * x_44_ + 1 x_69_ ^ 2 + 1 y_44_ ^ 2 - 2 y_69_ * y_44_ + 1 y_69_ ^ 2 ] = 17992
c122: [ 1 x_40_ ^ 2 - 2 x_70_ * x_40_ + 1 x_70_ ^ 2 + 1 y_40_ ^ 2 - 2 y_70_ * y_40_ + 1 y_70_ ^ 2 ] = 4762
c123: [ 1 x_52_ ^ 2 - 2 x_70_ * x_52_ + 1 x_70_ ^ 2 + 1 y_52_ ^ 2 - 2 y_70_ * y_52_ + 1 y_70_ ^ 2 ] = 11050
c124: [ 1 x_22_ ^ 2 - 2 x_71_ * x_22_ + 1 x_71_ ^ 2 + 1 y_22_ ^ 2 - 2 y_71_ * y_22_ + 1 y_71_ ^ 2 ] = 9140
c125: [ 1 x_56_ ^ 2 - 2 x_71_ * x_56_ + 1 x_71_ ^ 2 + 1 y_56_ ^ 2 - 2 y_71_ * y_56_ + 1 y_71_ ^ 2 ] = 13505
c126: [ 1 x_9_ ^ 2 - 2 x_72_ * x_9_ + 1 x_72_ ^ 2 + 1 y_9_ ^ 2 - 2 y_72_ * y_9_ + 1 y_72_ ^ 2 ] = 9873
c127: [ 1 x_15_ ^ 2 - 2 x_72_ * x_15_ + 1 x_72_ ^ 2 + 1 y_15_ ^ 2 - 2 y_72_ * y_15_ + 1 y_72_ ^ 2 ] = 22745
c128: [ 1 x_21_ ^ 2 - 2 x_72_ * x_21_ + 1 x_72_ ^ 2 + 1 y_21_ ^ 2 - 2 y_72_ * y_21_ + 1 y_72_ ^ 2 ] = 4040
c129: [ 1 x_29_ ^ 2 - 2 x_73_ * x_29_ + 1 x_73_ ^ 2 + 1 y_29_ ^ 2 - 2 y_73_ * y_29_ + 1 y_73_ ^ 2 ] = 2837
c130: [ 1 x_43_ ^ 2 - 2 x_73_ * x_43_ + 1 x_73_ ^ 2 + 1 y_43_ ^ 2 - 2 y_73_ * y_43_ + 1 y_73_ ^ 2 ] = 10568
c131: [ 1 x_3_ ^ 2 - 2 x_74_ * x_3_ + 1 x_74_ ^ 2 + 1 y_3_ ^ 2 - 2 y_74_ * y_3_ + 1 y_74_ ^ 2 ] = 18245
c132: [ 1 x_62_ ^ 2 - 2 x_74_ * x_62_ + 1 x_74_ ^ 2 + 1 y_62_ ^ 2 - 2 y_74_ * y_62_ + 1 y_74_ ^ 2 ] = 34850
c133: [ 1 x_25_ ^ 2 - 2 x_75_ * x_25_ + 1 x_75_ ^ 2 + 1 y_25_ ^ 2 - 2 y_75_ * y_25_ + 1 y_75_ ^ 2 ] = 14549
c134: [ 1 x_49_ ^ 2 - 2 x_75_ * x_49_ + 1 x_75_ ^ 2 + 1 y_49_ ^ 2 - 2 y_75_ * y_49_ + 1 y_75_ ^ 2 ] = 9140
c135: [ 1 x_59_ ^ 2 - 2 x_75_ * x_59_ + 1 x_75_ ^ 2 + 1 y_59_ ^ 2 - 2 y_75_ * y_59_ + 1 y_75_ ^ 2 ] = 21636
c136: [ 1 x_4_ ^ 2 - 2 x_76_ * x_4_ + 1 x_76_ ^ 2 + 1 y_4_ ^ 2 - 2 y_76_ * y_4_ + 1 y_76_ ^ 2 ] = 3042
c137: [ 1 x_54_ ^ 2 - 2 x_76_ * x_54_ + 1 x_76_ ^ 2 + 1 y_54_ ^ 2 - 2 y_76_ * y_54_ + 1 y_76_ ^ 2 ] = 22100
c138: [ 1 x_59_ ^ 2 - 2 x_76_ * x_59_ + 1 x_76_ ^ 2 + 1 y_59_ ^ 2 - 2 y_76_ * y_59_ + 1 y_76_ ^ 2 ] = 37106
c139: [ 1 x_2_ ^ 2 - 2 x_77_ * x_2_ + 1 x_77_ ^ 2 + 1 y_2_ ^ 2 - 2 y_77_ * y_2_ + 1 y_77_ ^ 2 ] = 25925
c140: [ 1 x_43_ ^ 2 - 2 x_77_ * x_43_ + 1 x_77_ ^ 2 + 1 y_43_ ^ 2 - 2 y_77_ * y_43_ + 1 y_77_ ^ 2 ] = 4618
c141: [ 1 x_44_ ^ 2 - 2 x_78_ * x_44_ + 1 x_78_ ^ 2 + 1 y_44_ ^ 2 - 2 y_78_ * y_44_ + 1 y_78_ ^ 2 ] = 6772
c142: [ 1 x_71_ ^ 2 - 2 x_78_ * x_71_ + 1 x_78_ ^ 2 + 1 y_71_ ^ 2 - 2 y_78_ * y_71_ + 1 y_78_ ^ 2 ] = 10132
c143: [ 1 x_18_ ^ 2 - 2 x_79_ * x_18_ + 1 x_79_ ^ 2 + 1 y_18_ ^ 2 - 2 y_79_ * y_18_ + 1 y_79_ ^ 2 ] = 6925
c144: [ 1 x_56_ ^ 2 - 2 x_79_ * x_56_ + 1 x_79_ ^ 2 + 1 y_56_ ^ 2 - 2 y_79_ * y_56_ + 1 y_79_ ^ 2 ] = 28288
c145: [ 1 x_1_ ^ 2 - 2 x_80_ * x_1_ + 1 x_80_ ^ 2 + 1 y_1_ ^ 2 - 2 y_80_ * y_1_ + 1 y_80_ ^ 2 ] = 6025
c146: [ 1 x_13_ ^ 2 - 2 x_80_ * x_13_ + 1 x_80_ ^ 2 + 1 y_13_ ^ 2 - 2 y_80_ * y_13_ + 1 y_80_ ^ 2 ] = 7730
c147: [ 1 x_19_ ^ 2 - 2 x_80_ * x_19_ + 1 x_80_ ^ 2 + 1 y_19_ ^ 2 - 2 y_80_ * y_19_ + 1 y_80_ ^ 2 ] = 9281
c148: [ 1 x_15_ ^ 2 - 2 x_81_ * x_15_ + 1 x_81_ ^ 2 + 1 y_15_ ^ 2 - 2 y_81_ * y_15_ + 1 y_81_ ^ 2 ] = 11965
c149: [ 1 x_28_ ^ 2 - 2 x_81_ * x_28_ + 1 x_81_ ^ 2 + 1 y_28_ ^ 2 - 2 y_81_ * y_28_ + 1 y_81_ ^ 2 ] = 18945
c150: [ 1 x_78_ ^ 2 - 2 x_81_ * x_78_ + 1 x_81_ ^ 2 + 1 y_78_ ^ 2 - 2 y_81_ * y_78_ + 1 y_81_ ^ 2 ] = 8181
c151: [ 1 x_5_ ^ 2 - 2 x_82_ * x_5_ + 1 x_82_ ^ 2 + 1 y_5_ ^ 2 - 2 y_82_ * y_5_ + 1 y_82_ ^ 2 ] = 28964
c152: [ 1 x_21_ ^ 2 - 2 x_82_ * x_21_ + 1 x_82_ ^ 2 + 1 y_21_ ^ 2 - 2 y_82_ * y_21_ + 1 y_82_ ^ 2 ] = 1588
c153: [ 1 x_35_ ^ 2 - 2 x_82_ * x_35_ + 1 x_82_ ^ 2 + 1 y_35_ ^ 2 - 2 y_82_ * y_35_ + 1 y_82_ ^ 2 ] = 25226
c154: [ 1 x_11_ ^ 2 - 2 x_83_ * x_11_ + 1 x_83_ ^ 2 + 1 y_11_ ^ 2 - 2 y_83_ * y_11_ + 1 y_83_ ^ 2 ] = 12905
c155: [ 1 x_74_ ^ 2 - 2 x_83_ * x_74_ + 1 x_83_ ^ 2 + 1 y_74_ ^ 2 - 2 y_83_ * y_74_ + 1 y_83_ ^ 2 ] = 25577
c156: [ 1 x_73_ ^ 2 - 2 x_84_ * x_73_ + 1 x_84_ ^ 2 + 1 y_73_ ^ 2 - 2 y_84_ * y_73_ + 1 y_84_ ^ 2 ] = 20392
c157: [ 1 x_78_ ^ 2 - 2 x_84_ * x_78_ + 1 x_84_ ^ 2 + 1 y_78_ ^ 2 - 2 y_84_ * y_78_ + 1 y_84_ ^ 2 ] = 265
c158: [ 1 x_31_ ^ 2 - 2 x_85_ * x_31_ + 1 x_85_ ^ 2 + 1 y_31_ ^ 2 - 2 y_85_ * y_31_ + 1 y_85_ ^ 2 ] = 35482
c159: [ 1 x_49_ ^ 2 - 2 x_85_ * x_49_ + 1 x_85_ ^ 2 + 1 y_49_ ^ 2 - 2 y_85_ * y_49_ + 1 y_85_ ^ 2 ] = 11600
c160: [ 1 x_2_ ^ 2 - 2 x_86_ * x_2_ + 1 x_86_ ^ 2 + 1 y_2_ ^ 2 - 2 y_86_ * y_2_ + 1 y_86_ ^ 2 ] = 28505
c161: [ 1 x_46_ ^ 2 - 2 x_86_ * x_46_ + 1 x_86_ ^ 2 + 1 y_46_ ^ 2 - 2 y_86_ * y_46_ + 1 y_86_ ^ 2 ] = 1808
c162: [ 1 x_74_ ^ 2 - 2 x_86_ * x_74_ + 1 x_86_ ^ 2 + 1 y_74_ ^ 2 - 2 y_86_ * y_74_ + 1 y_86_ ^ 2 ] = 5492
c163: [ 1 x_2_ ^ 2 - 2 x_87_ * x_2_ + 1 x_87_ ^ 2 + 1 y_2_ ^ 2 - 2 y_87_ * y_2_ + 1 y_87_ ^ 2 ] = 44945
c164: [ 1 x_3_ ^ 2 - 2 x_87_ * x_3_ + 1 x_87_ ^ 2 + 1 y_3_ ^ 2 - 2 y_87_ * y_3_ + 1 y_87_ ^ 2 ] = 1037
c165: [ 1 x_61_ ^ 2 - 2 x_87_ * x_61_ + 1 x_87_ ^ 2 + 1 y_61_ ^ 2 - 2 y_87_ * y_61_ + 1 y_87_ ^ 2 ] = 21320
c166: [ 1 x_50_ ^ 2 - 2 x_88_ * x_50_ + 1 x_88_ ^ 2 + 1 y_50_ ^ 2 - 2 y_88_ * y_50_ + 1 y_88_ ^ 2 ] = 12100
c167: [ 1 x_77_ ^ 2 - 2 x_88_ * x_77_ + 1 x_88_ ^ 2 + 1 y_77_ ^ 2 - 2 y_88_ * y_77_ + 1 y_88_ ^ 2 ] = 7093
c168: [ 1 x_51_ ^ 2 - 2 x_89_ * x_51_ + 1 x_89_ ^ 2 + 1 y_51_ ^ 2 - 2 y_89_ * y_51_ + 1 y_89_ ^ 2 ] = 13
c169: [ 1 x_70_ ^ 2 - 2 x_89_ * x_70_ + 1 x_89_ ^ 2 + 1 y_70_ ^ 2 - 2 y_89_ * y_70_ + 1 y_89_ ^ 2 ] = 29426
c170: [ 1 x_11_ ^ 2 - 2 x_90_ * x_11_ + 1 x_90_ ^ 2 + 1 y_11_ ^ 2 - 2 y_90_ * y_11_ + 1 y_90_ ^ 2 ] = 8392
c171: [ 1 x_78_ ^ 2 - 2 x_90_ * x_78_ + 1 x_90_ ^ 2 + 1 y_78_ ^ 2 - 2 y_90_ * y_78_ + 1 y_90_ ^ 2 ] = 6005
c172: [ 1 x_28_ ^ 2 - 2 x_91_ * x_28_ + 1 x_91_ ^ 2 + 1 y_28_ ^ 2 - 2 y_91_ * y_28_ + 1 y_91_ ^ 2 ] = 36401
c173: [ 1 x_34_ ^ 2 - 2 x_91_ * x_34_ + 1 x_91_ ^ 2 + 1 y_34_ ^ 2 - 2 y_91_ * y_34_ + 1 y_91_ ^ 2 ] = 4394
c174: [ 1 x_37_ ^ 2 - 2 x_91_ * x_37_ + 1 x_91_ ^ 2 + 1 y_37_ ^ 2 - 2 y_91_ * y_37_ + 1 y_91_ ^ 2 ] = 15784
c175: [ 1 x_6_ ^ 2 - 2 x_92_ * x_6_ + 1 x_92_ ^ 2 + 1 y_6_ ^ 2 - 2 y_92_ * y_6_ + 1 y_92_ ^ 2 ] = 36485
c176: [ 1 x_22_ ^ 2 - 2 x_92_ * x_22_ + 1 x_92_ ^ 2 + 1 y_22_ ^ 2 - 2 y_92_ * y_22_ + 1 y_92_ ^ 2 ] = 10685
c177: [ 1 x_60_ ^ 2 - 2 x_92_ * x_60_ + 1 x_92_ ^ 2 + 1 y_60_ ^ 2 - 2 y_92_ * y_60_ + 1 y_92_ ^ 2 ] = 2525
c178: [ 1 x_17_ ^ 2 - 2 x_93_ * x_17_ + 1 x_93_ ^ 2 + 1 y_17_ ^ 2 - 2 y_93_ * y_17_ + 1 y_93_ ^ 2 ] = 11560
c179: [ 1 x_22_ ^ 2 - 2 x_93_ * x_22_ + 1 x_93_ ^ 2 + 1 y_22_ ^ 2 - 2 y_93_ * y_22_ + 1 y_93_ ^ 2 ] = 13465
c180: [ 1 x_27_ ^ 2 - 2 x_93_ * x_27_ + 1 x_93_ ^ 2 + 1 y_27_ ^ 2 - 2 y_93_ * y_27_ + 1 y_93_ ^ 2 ] = 33661
c181: [ 1 x_18_ ^ 2 - 2 x_94_ * x_18_ + 1 x_94_ ^ 2 + 1 y_18_ ^ 2 - 2 y_94_ * y_18_ + 1 y_94_ ^ 2 ] = 8500
c182: [ 1 x_30_ ^ 2 - 2 x_94_ * x_30_ + 1 x_94_ ^ 2 + 1 y_30_ ^ 2 - 2 y_94_ * y_30_ + 1 y_94_ ^ 2 ] = 25250
c183: [ 1 x_71_ ^ 2 - 2 x_94_ * x_71_ + 1 x_94_ ^ 2 + 1 y_71_ ^ 2 - 2 y_94_ * y_71_ + 1 y_94_ ^ 2 ] = 6002
c184: [ 1 x_35_ ^ 2 - 2 x_95_ * x_35_ + 1 x_95_ ^ 2 + 1 y_35_ ^ 2 - 2 y_95_ * y_35_ + 1 y_95_ ^ 2 ] = 74
c185: [ 1 x_64_ ^ 2 - 2 x_95_ * x_64_ + 1 x_95_ ^ 2 + 1 y_64_ ^ 2 - 2 y_95_ * y_64_ + 1 y_95_ ^ 2 ] = 1666
c186: [ 1 x_30_ ^ 2 - 2 x_96_ * x_30_ + 1 x_96_ ^ 2 + 1 y_30_ ^ 2 - 2 y_96_ * y_30_ + 1 y_96_ ^ 2 ] = 44813
c187: [ 1 x_38_ ^ 2 - 2 x_96_ * x_38_ + 1 x_96_ ^ 2 + 1 y_38_ ^ 2 - 2 y_96_ * y_38_ + 1 y_96_ ^ 2 ] = 33809
c188: [ 1 x_41_ ^ 2 - 2 x_97_ * x_41_ + 1 x_97_ ^ 2 + 1 y_41_ ^ 2 - 2 y_97_ * y_41_ + 1 y_97_ ^ 2 ] = 17320
c189: [ 1 x_50_ ^ 2 - 2 x_97_ * x_50_ + 1 x_97_ ^ 2 + 1 y_50_ ^ 2 - 2 y_97_ * y_50_ + 1 y_97_ ^ 2 ] = 6266
c190: [ 1 x_2_ ^ 2 - 2 x_98_ * x_2_ + 1 x_98_ ^ 2 + 1 y_2_ ^ 2 - 2 y_98_ * y_2_ + 1 y_98_ ^ 2 ] = 4580
c191: [ 1 x_8_ ^ 2 - 2 x_98_ * x_8_ + 1 x_98_ ^ 2 + 1 y_8_ ^ 2 - 2 y_98_ * y_8_ + 1 y_98_ ^ 2 ] = 9805
c192: [ 1 x_38_ ^ 2 - 2 x_98_ * x_38_ + 1 x_98_ ^ 2 + 1 y_38_ ^ 2 - 2 y_98_ * y_38_ + 1 y_98_ ^ 2 ] = 8522
c193: [ 1 x_2_ ^ 2 - 2 x_99_ * x_2_ + 1 x_99_ ^ 2 + 1 y_2_ ^ 2 - 2 y_99_ * y_2_ + 1 y_99_ ^ 2 ] = 24404
c194: [ 1 x_6_ ^ 2 - 2 x_99_ * x_6_ + 1 x_99_ ^ 2 + 1 y_6_ ^ 2 - 2 y_99_ * y_6_ + 1 y_99_ ^ 2 ] = 28170
c195: [ 1 x_91_ ^ 2 - 2 x_99_ * x_91_ + 1 x_99_ ^ 2 + 1 y_91_ ^ 2 - 2 y_99_ * y_91_ + 1 y_99_ ^ 2 ] = 2501
c196: [ 1 x_60_ ^ 2 - 2 x_100_ * x_60_ + 1 x_100_ ^ 2 + 1 y_60_ ^ 2 - 2 y_100_ * y_60_ + 1 y_100_ ^ 2 ] = 8090
c197: [ 1 x_75_ ^ 2 - 2 x_100_ * x_75_ + 1 x_100_ ^ 2 + 1 y_75_ ^ 2 - 2 y_100_ * y_75_ + 1 y_100_ ^ 2 ] = 3298
Bounds
-273 <= x_1_ <= 273
-166 <= x_2_ <= 166
-229 <= x_3_ <= 229
-153 <= x_4_ <= 153
-253 <= x_5_ <= 253
-172 <= x_6_ <= 172
-350 <= x_7_ <= 350
x_8_ = 0
-242 <= x_9_ <= 242
-442 <= x_10_ <= 442
-245 <= x_11_ <= 245
-220 <= x_12_ <= 220
-205 <= x_13_ <= 205
-139 <= x_14_ <= 139
-301 <= x_15_ <= 301
-256 <= x_16_ <= 256
-60 <= x_17_ <= 60
-247 <= x_18_ <= 247
-99 <= x_19_ <= 99
-289 <= x_20_ <= 289
-261 <= x_21_ <= 261
-283 <= x_22_ <= 283
-317 <= x_23_ <= 317
-349 <= x_24_ <= 349
-224 <= x_25_ <= 224
-276 <= x_26_ <= 276
-227 <= x_27_ <= 227
-316 <= x_28_ <= 316
-229 <= x_29_ <= 229
-278 <= x_30_ <= 278
-354 <= x_31_ <= 354
-69 <= x_32_ <= 69
-312 <= x_33_ <= 312
-59 <= x_34_ <= 59
-310 <= x_35_ <= 310
-437 <= x_36_ <= 437
-103 <= x_37_ <= 103
-191 <= x_38_ <= 191
-158 <= x_39_ <= 158
-60 <= x_40_ <= 60
-180 <= x_41_ <= 180
-254 <= x_42_ <= 254
-333 <= x_43_ <= 333
-164 <= x_44_ <= 164
-386 <= x_45_ <= 386
-199 <= x_46_ <= 199
-333 <= x_47_ <= 333
-342 <= x_48_ <= 342
-256 <= x_49_ <= 256
-296 <= x_50_ <= 296
-177 <= x_51_ <= 177
-201 <= x_52_ <= 201
-296 <= x_53_ <= 296
-228 <= x_54_ <= 228
-278 <= x_55_ <= 278
-147 <= x_56_ <= 147
-205 <= x_57_ <= 205
-348 <= x_58_ <= 348
-198 <= x_59_ <= 198
-373 <= x_60_ <= 373
-234 <= x_61_ <= 234
-257 <= x_62_ <= 257
-145 <= x_63_ <= 145
-360 <= x_64_ <= 360
-160 <= x_65_ <= 160
-224 <= x_66_ <= 224
-180 <= x_67_ <= 180
-365 <= x_68_ <= 365
-298 <= x_69_ <= 298
-129 <= x_70_ <= 129
-263 <= x_71_ <= 263
-325 <= x_72_ <= 325
-282 <= x_73_ <= 282
-315 <= x_74_ <= 315
-345 <= x_75_ <= 345
-208 <= x_76_ <= 208
-327 <= x_77_ <= 327
-246 <= x_78_ <= 246
-315 <= x_79_ <= 315
-196 <= x_80_ <= 196
-337 <= x_81_ <= 337
-301 <= x_82_ <= 301
-359 <= x_83_ <= 359
-263 <= x_84_ <= 263
-364 <= x_85_ <= 364
-241 <= x_86_ <= 241
-261 <= x_87_ <= 261
-406 <= x_88_ <= 406
-181 <= x_89_ <= 181
-324 <= x_90_ <= 324
-125 <= x_91_ <= 125
-363 <= x_92_ <= 363
-167 <= x_93_ <= 167
-339 <= x_94_ <= 339
-319 <= x_95_ <= 319
-375 <= x_96_ <= 375
-312 <= x_97_ <= 312
-99 <= x_98_ <= 99
-175 <= x_99_ <= 175
-402 <= x_100_ <= 402
-273 <= y_1_ <= 273
-166 <= y_2_ <= 166
-229 <= y_3_ <= 229
-153 <= y_4_ <= 153
-253 <= y_5_ <= 253
-172 <= y_6_ <= 172
-350 <= y_7_ <= 350
y_8_ = 0
-242 <= y_9_ <= 242
-442 <= y_10_ <= 442
-245 <= y_11_ <= 245
-220 <= y_12_ <= 220
-205 <= y_13_ <= 205
-139 <= y_14_ <= 139
-301 <= y_15_ <= 301
-256 <= y_16_ <= 256
-60 <= y_17_ <= 60
-247 <= y_18_ <= 247
-99 <= y_19_ <= 99
-289 <= y_20_ <= 289
-261 <= y_21_ <= 261
-283 <= y_22_ <= 283
-317 <= y_23_ <= 317
-349 <= y_24_ <= 349
-224 <= y_25_ <= 224
-276 <= y_26_ <= 276
-227 <= y_27_ <= 227
-316 <= y_28_ <= 316
-229 <= y_29_ <= 229
-278 <= y_30_ <= 278
-354 <= y_31_ <= 354
-69 <= y_32_ <= 69
-312 <= y_33_ <= 312
-59 <= y_34_ <= 59
-310 <= y_35_ <= 310
-437 <= y_36_ <= 437
-103 <= y_37_ <= 103
-191 <= y_38_ <= 191
-158 <= y_39_ <= 158
-60 <= y_40_ <= 60
-180 <= y_41_ <= 180
-254 <= y_42_ <= 254
-333 <= y_43_ <= 333
-164 <= y_44_ <= 164
-386 <= y_45_ <= 386
-199 <= y_46_ <= 199
-333 <= y_47_ <= 333
-342 <= y_48_ <= 342
-256 <= y_49_ <= 256
-296 <= y_50_ <= 296
-177 <= y_51_ <= 177
-201 <= y_52_ <= 201
-296 <= y_53_ <= 296
-228 <= y_54_ <= 228
-278 <= y_55_ <= 278
-147 <= y_56_ <= 147
-205 <= y_57_ <= 205
-348 <= y_58_ <= 348
-198 <= y_59_ <= 198
-373 <= y_60_ <= 373
-234 <= y_61_ <= 234
-257 <= y_62_ <= 257
-145 <= y_63_ <= 145
-360 <= y_64_ <= 360
-160 <= y_65_ <= 160
-224 <= y_66_ <= 224
-180 <= y_67_ <= 180
-365 <= y_68_ <= 365
-298 <= y_69_ <= 298
-129 <= y_70_ <= 129
-263 <= y_71_ <= 263
-325 <= y_72_ <= 325
-282 <= y_73_ <= 282
-315 <= y_74_ <= 315
-345 <= y_75_ <= 345
-208 <= y_76_ <= 208
-327 <= y_77_ <= 327
-246 <= y_78_ <= 246
-315 <= y_79_ <= 315
-196 <= y_80_ <= 196
-337 <= y_81_ <= 337
-301 <= y_82_ <= 301
-359 <= y_83_ <= 359
-263 <= y_84_ <= 263
-364 <= y_85_ <= 364
-241 <= y_86_ <= 241
-261 <= y_87_ <= 261
-406 <= y_88_ <= 406
-181 <= y_89_ <= 181
-324 <= y_90_ <= 324
-125 <= y_91_ <= 125
-363 <= y_92_ <= 363
-167 <= y_93_ <= 167
-339 <= y_94_ <= 339
-319 <= y_95_ <= 319
-375 <= y_96_ <= 375
-312 <= y_97_ <= 312
-99 <= y_98_ <= 99
-175 <= y_99_ <= 175
-402 <= y_100_ <= 402
General
x_1_
x_2_
x_3_
x_4_
x_5_
x_6_
x_7_
x_8_
x_9_
x_10_
x_11_
x_12_
x_13_
x_14_
x_15_
x_16_
x_17_
x_18_
x_19_
x_20_
x_21_
x_22_
x_23_
x_24_
x_25_
x_26_
x_27_
x_28_
x_29_
x_30_
x_31_
x_32_
x_33_
x_34_
x_35_
x_36_
x_37_
x_38_
x_39_
x_40_
x_41_
x_42_
x_43_
x_44_
x_45_
x_46_
x_47_
x_48_
x_49_
x_50_
x_51_
x_52_
x_53_
x_54_
x_55_
x_56_
x_57_
x_58_
x_59_
x_60_
x_61_
x_62_
x_63_
x_64_
x_65_
x_66_
x_67_
x_68_
x_69_
x_70_
x_71_
x_72_
x_73_
x_74_
x_75_
x_76_
x_77_
x_78_
x_79_
x_80_
x_81_
x_82_
x_83_
x_84_
x_85_
x_86_
x_87_
x_88_
x_89_
x_90_
x_91_
x_92_
x_93_
x_94_
x_95_
x_96_
x_97_
x_98_
x_99_
x_100_
y_1_
y_2_
y_3_
y_4_
y_5_
y_6_
y_7_
y_8_
y_9_
y_10_
y_11_
y_12_
y_13_
y_14_
y_15_
y_16_
y_17_
y_18_
y_19_
y_20_
y_21_
y_22_
y_23_
y_24_
y_25_
y_26_
y_27_
y_28_
y_29_
y_30_
y_31_
y_32_
y_33_
y_34_
y_35_
y_36_
y_37_
y_38_
y_39_
y_40_
y_41_
y_42_
y_43_
y_44_
y_45_
y_46_
y_47_
y_48_
y_49_
y_50_
y_51_
y_52_
y_53_
y_54_
y_55_
y_56_
y_57_
y_58_
y_59_
y_60_
y_61_
y_62_
y_63_
y_64_
y_65_
y_66_
y_67_
y_68_
y_69_
y_70_
y_71_
y_72_
y_73_
y_74_
y_75_
y_76_
y_77_
y_78_
y_79_
y_80_
y_81_
y_82_
y_83_
y_84_
y_85_
y_86_
y_87_
y_88_
y_89_
y_90_
y_91_
y_92_
y_93_
y_94_
y_95_
y_96_
y_97_
y_98_
y_99_
y_100_
End
