minimize
obj: 
subject to
c1_1: -188 x_1_ + 156 y_1_ + [ 1 x_1_ ^ 2 + 1 y_1_ ^ 2 ] <= 37820
c2_1: -188 x_2_ + 156 y_2_ + [ 1 x_2_ ^ 2 + 1 y_2_ ^ 2 ] <= 31416
c3_1: -188 x_3_ + 156 y_3_ + [ 1 x_3_ ^ 2 + 1 y_3_ ^ 2 ] <= 29004
c4_1: -188 x_4_ + 156 y_4_ + [ 1 x_4_ ^ 2 + 1 y_4_ ^ 2 ] <= -1670
c5_1: -188 x_6_ + 156 y_6_ + [ 1 x_6_ ^ 2 + 1 y_6_ ^ 2 ] <= 27060
c6_1: -188 x_7_ + 156 y_7_ + [ 1 x_7_ ^ 2 + 1 y_7_ ^ 2 ] <= 39919
c7_1: -188 x_8_ + 156 y_8_ + [ 1 x_8_ ^ 2 + 1 y_8_ ^ 2 ] <= 72863
c8_1: -188 x_9_ + 156 y_9_ + [ 1 x_9_ ^ 2 + 1 y_9_ ^ 2 ] <= 26367
c9_1: -188 x_10_ + 156 y_10_ + [ 1 x_10_ ^ 2 + 1 y_10_ ^ 2 ] <= 98822
c10_1: -188 x_11_ + 156 y_11_ + [ 1 x_11_ ^ 2 + 1 y_11_ ^ 2 ] <= 12893
c11_1: -188 x_12_ + 156 y_12_ + [ 1 x_12_ ^ 2 + 1 y_12_ ^ 2 ] <= -14070
c12_1: -188 x_13_ + 156 y_13_ + [ 1 x_13_ ^ 2 + 1 y_13_ ^ 2 ] <= 24780
c13_1: -188 x_14_ + 156 y_14_ + [ 1 x_14_ ^ 2 + 1 y_14_ ^ 2 ] <= 49828
c14_1: -188 x_15_ + 156 y_15_ + [ 1 x_15_ ^ 2 + 1 y_15_ ^ 2 ] <= -4297
c15_1: -188 x_16_ + 156 y_16_ + [ 1 x_16_ ^ 2 + 1 y_16_ ^ 2 ] <= 48985
c16_1: -188 x_17_ + 156 y_17_ + [ 1 x_17_ ^ 2 + 1 y_17_ ^ 2 ] <= -7528
c17_1: -188 x_18_ + 156 y_18_ + [ 1 x_18_ ^ 2 + 1 y_18_ ^ 2 ] <= 12753
c18_1: -188 x_19_ + 156 y_19_ + [ 1 x_19_ ^ 2 + 1 y_19_ ^ 2 ] <= 87995
c19_1: -188 x_20_ + 156 y_20_ + [ 1 x_20_ ^ 2 + 1 y_20_ ^ 2 ] <= 95034
c20_1: -42 x_1_ - 22 y_1_ + [ 1 x_1_ ^ 2 + 1 y_1_ ^ 2 ] <= 12558
c21_1: -42 x_2_ - 22 y_2_ + [ 1 x_2_ ^ 2 + 1 y_2_ ^ 2 ] <= 44007
c22_1: -42 x_3_ - 22 y_3_ + [ 1 x_3_ ^ 2 + 1 y_3_ ^ 2 ] <= 58870
c23_1: -42 x_5_ - 22 y_5_ + [ 1 x_5_ ^ 2 + 1 y_5_ ^ 2 ] <= 12688
c24_1: -42 x_6_ - 22 y_6_ + [ 1 x_6_ ^ 2 + 1 y_6_ ^ 2 ] <= 70348
c25_1: -42 x_7_ - 22 y_7_ + [ 1 x_7_ ^ 2 + 1 y_7_ ^ 2 ] <= 68645
c26_1: -42 x_8_ - 22 y_8_ + [ 1 x_8_ ^ 2 + 1 y_8_ ^ 2 ] <= 84783
c27_1: -42 x_9_ - 22 y_9_ + [ 1 x_9_ ^ 2 + 1 y_9_ ^ 2 ] <= 41431
c28_1: -42 x_10_ - 22 y_10_ + [ 1 x_10_ ^ 2 + 1 y_10_ ^ 2 ] <= 61859
c29_1: -42 x_11_ - 22 y_11_ + [ 1 x_11_ ^ 2 + 1 y_11_ ^ 2 ] <= 2107
c30_1: -42 x_12_ - 22 y_12_ + [ 1 x_12_ ^ 2 + 1 y_12_ ^ 2 ] <= 7638
c31_1: -42 x_13_ - 22 y_13_ + [ 1 x_13_ ^ 2 + 1 y_13_ ^ 2 ] <= 52898
c32_1: -42 x_14_ - 22 y_14_ + [ 1 x_14_ ^ 2 + 1 y_14_ ^ 2 ] <= 23049
c33_1: -42 x_15_ - 22 y_15_ + [ 1 x_15_ ^ 2 + 1 y_15_ ^ 2 ] <= 26487
c34_1: -42 x_16_ - 22 y_16_ + [ 1 x_16_ ^ 2 + 1 y_16_ ^ 2 ] <= 134791
c35_1: -42 x_17_ - 22 y_17_ + [ 1 x_17_ ^ 2 + 1 y_17_ ^ 2 ] <= 21158
c36_1: -42 x_18_ - 22 y_18_ + [ 1 x_18_ ^ 2 + 1 y_18_ ^ 2 ] <= 2064
c37_1: -42 x_19_ - 22 y_19_ + [ 1 x_19_ ^ 2 + 1 y_19_ ^ 2 ] <= 81584
c38: -42 x_20_ - 22 y_20_ + [ 1 x_20_ ^ 2 + 1 y_20_ ^ 2 ] <= 123103
c39: -134 x_1_ + 134 y_1_ + [ 1 x_1_ ^ 2 + 1 y_1_ ^ 2 ] <= 33087
c40: -134 x_2_ + 134 y_2_ + [ 1 x_2_ ^ 2 + 1 y_2_ ^ 2 ] <= 25656
c41: -134 x_3_ + 134 y_3_ + [ 1 x_3_ ^ 2 + 1 y_3_ ^ 2 ] <= 23575
c42: -134 x_4_ + 134 y_4_ + [ 1 x_4_ ^ 2 + 1 y_4_ ^ 2 ] <= -778
c43: -134 x_5_ + 134 y_5_ + [ 1 x_5_ ^ 2 + 1 y_5_ ^ 2 ] <= -8128
c44: -134 x_6_ + 134 y_6_ + [ 1 x_6_ ^ 2 + 1 y_6_ ^ 2 ] <= 21905
c45: -134 x_7_ + 134 y_7_ + [ 1 x_7_ ^ 2 + 1 y_7_ ^ 2 ] <= 33056
c46: -134 x_8_ + 134 y_8_ + [ 1 x_8_ ^ 2 + 1 y_8_ ^ 2 ] <= 62379
c47: -134 x_9_ + 134 y_9_ + [ 1 x_9_ ^ 2 + 1 y_9_ ^ 2 ] <= 21311
c48: -134 x_10_ + 134 y_10_ + [ 1 x_10_ ^ 2 + 1 y_10_ ^ 2 ] <= 85949
c49: -134 x_11_ + 134 y_11_ + [ 1 x_11_ ^ 2 + 1 y_11_ ^ 2 ] <= 11247
c50: -134 x_13_ + 134 y_13_ + [ 1 x_13_ ^ 2 + 1 y_13_ ^ 2 ] <= 33541
c51: -134 x_14_ + 134 y_14_ + [ 1 x_14_ ^ 2 + 1 y_14_ ^ 2 ] <= 41783
c52: -134 x_15_ + 134 y_15_ + [ 1 x_15_ ^ 2 + 1 y_15_ ^ 2 ] <= -3515
c53: -134 x_16_ + 134 y_16_ + [ 1 x_16_ ^ 2 + 1 y_16_ ^ 2 ] <= 70517
c54: -134 x_17_ + 134 y_17_ + [ 1 x_17_ ^ 2 + 1 y_17_ ^ 2 ] <= -5749
c55: -134 x_18_ + 134 y_18_ + [ 1 x_18_ ^ 2 + 1 y_18_ ^ 2 ] <= 11129
c56: -134 x_19_ + 134 y_19_ + [ 1 x_19_ ^ 2 + 1 y_19_ ^ 2 ] <= 76081
c57: -134 x_20_ + 134 y_20_ + [ 1 x_20_ ^ 2 + 1 y_20_ ^ 2 ] <= 82491
c1_2: 1 x_5_ = 94
c2_2: 1 y_5_ = -78
c3_2: 1 x_4_ = 21
c4_2: 1 y_4_ = 11
c5_2: 1 x_12_ = 67
c6_2: 1 y_12_ = -67
c1: [ 1 x_1_ ^ 2 - 2 x_3_ * x_1_ + 1 x_3_ ^ 2 + 1 y_1_ ^ 2 - 2 y_3_ * y_1_ + 1 y_3_ ^ 2 ] = 16704
c2: [ 1 x_1_ ^ 2 - 2 x_4_ * x_1_ + 1 x_4_ ^ 2 + 1 y_1_ ^ 2 - 2 y_4_ * y_1_ + 1 y_4_ ^ 2 ] = 13120
c3: [ 1 x_4_ ^ 2 - 2 x_5_ * x_4_ + 1 x_5_ ^ 2 + 1 y_4_ ^ 2 - 2 y_5_ * y_4_ + 1 y_5_ ^ 2 ] = 13250
c4: [ 1 x_2_ ^ 2 - 2 x_6_ * x_2_ + 1 x_6_ ^ 2 + 1 y_2_ ^ 2 - 2 y_6_ * y_2_ + 1 y_6_ ^ 2 ] = 15725
c5: [ 1 x_1_ ^ 2 - 2 x_7_ * x_1_ + 1 x_7_ ^ 2 + 1 y_1_ ^ 2 - 2 y_7_ * y_1_ + 1 y_7_ ^ 2 ] = 22061
c6: [ 1 x_3_ ^ 2 - 2 x_7_ * x_3_ + 1 x_7_ ^ 2 + 1 y_3_ ^ 2 - 2 y_7_ * y_3_ + 1 y_7_ ^ 2 ] = 605
c7: [ 1 x_2_ ^ 2 - 2 x_8_ * x_2_ + 1 x_8_ ^ 2 + 1 y_2_ ^ 2 - 2 y_8_ * y_2_ + 1 y_8_ ^ 2 ] = 6565
c8: [ 1 x_3_ ^ 2 - 2 x_8_ * x_3_ + 1 x_8_ ^ 2 + 1 y_3_ ^ 2 - 2 y_8_ * y_3_ + 1 y_8_ ^ 2 ] = 17225
c9: [ 1 x_7_ ^ 2 - 2 x_8_ * x_7_ + 1 x_8_ ^ 2 + 1 y_7_ ^ 2 - 2 y_8_ * y_7_ + 1 y_8_ ^ 2 ] = 12836
c10: [ 1 x_2_ ^ 2 - 2 x_9_ * x_2_ + 1 x_9_ ^ 2 + 1 y_2_ ^ 2 - 2 y_9_ * y_2_ + 1 y_9_ ^ 2 ] = 17896
c11: [ 1 x_3_ ^ 2 - 2 x_9_ * x_3_ + 1 x_9_ ^ 2 + 1 y_3_ ^ 2 - 2 y_9_ * y_3_ + 1 y_9_ ^ 2 ] = 2178
c12: [ 1 x_1_ ^ 2 - 2 x_10_ * x_1_ + 1 x_10_ ^ 2 + 1 y_1_ ^ 2 - 2 y_10_ * y_1_ + 1 y_10_ ^ 2 ] = 18306
c13: [ 1 x_2_ ^ 2 - 2 x_10_ * x_2_ + 1 x_10_ ^ 2 + 1 y_2_ ^ 2 - 2 y_10_ * y_2_ + 1 y_10_ ^ 2 ] = 14884
c14: [ 1 x_8_ ^ 2 - 2 x_10_ * x_8_ + 1 x_10_ ^ 2 + 1 y_8_ ^ 2 - 2 y_10_ * y_8_ + 1 y_10_ ^ 2 ] = 29825
c15: [ 1 x_2_ ^ 2 - 2 x_11_ * x_2_ + 1 x_11_ ^ 2 + 1 y_2_ ^ 2 - 2 y_11_ * y_2_ + 1 y_11_ ^ 2 ] = 25425
c16: [ 1 x_4_ ^ 2 - 2 x_11_ * x_4_ + 1 x_11_ ^ 2 + 1 y_4_ ^ 2 - 2 y_11_ * y_4_ + 1 y_11_ ^ 2 ] = 2669
c17: [ 1 x_2_ ^ 2 - 2 x_12_ * x_2_ + 1 x_12_ ^ 2 + 1 y_2_ ^ 2 - 2 y_12_ * y_2_ + 1 y_12_ ^ 2 ] = 34634
c18: [ 1 x_4_ ^ 2 - 2 x_12_ * x_4_ + 1 x_12_ ^ 2 + 1 y_4_ ^ 2 - 2 y_12_ * y_4_ + 1 y_12_ ^ 2 ] = 8200
c19: [ 1 x_5_ ^ 2 - 2 x_12_ * x_5_ + 1 x_12_ ^ 2 + 1 y_5_ ^ 2 - 2 y_12_ * y_5_ + 1 y_12_ ^ 2 ] = 850
c20: [ 1 x_2_ ^ 2 - 2 x_13_ * x_2_ + 1 x_13_ ^ 2 + 1 y_2_ ^ 2 - 2 y_13_ * y_2_ + 1 y_13_ ^ 2 ] = 404
c21: [ 1 x_5_ ^ 2 - 2 x_13_ * x_5_ + 1 x_13_ ^ 2 + 1 y_5_ ^ 2 - 2 y_13_ * y_5_ + 1 y_13_ ^ 2 ] = 39700
c22: [ 1 x_1_ ^ 2 - 2 x_14_ * x_1_ + 1 x_14_ ^ 2 + 1 y_1_ ^ 2 - 2 y_14_ * y_1_ + 1 y_14_ ^ 2 ] = 1530
c23: [ 1 x_9_ ^ 2 - 2 x_14_ * x_9_ + 1 x_14_ ^ 2 + 1 y_9_ ^ 2 - 2 y_14_ * y_9_ + 1 y_14_ ^ 2 ] = 2628
c24: [ 1 x_3_ ^ 2 - 2 x_15_ * x_3_ + 1 x_15_ ^ 2 + 1 y_3_ ^ 2 - 2 y_15_ * y_3_ + 1 y_15_ ^ 2 ] = 11345
c25: [ 1 x_6_ ^ 2 - 2 x_15_ * x_6_ + 1 x_15_ ^ 2 + 1 y_6_ ^ 2 - 2 y_15_ * y_6_ + 1 y_15_ ^ 2 ] = 10368
c26: [ 1 x_9_ ^ 2 - 2 x_15_ * x_9_ + 1 x_15_ ^ 2 + 1 y_9_ ^ 2 - 2 y_15_ * y_9_ + 1 y_15_ ^ 2 ] = 10025
c27: [ 1 x_3_ ^ 2 - 2 x_16_ * x_3_ + 1 x_16_ ^ 2 + 1 y_3_ ^ 2 - 2 y_16_ * y_3_ + 1 y_16_ ^ 2 ] = 20345
c28: [ 1 x_5_ ^ 2 - 2 x_16_ * x_5_ + 1 x_16_ ^ 2 + 1 y_5_ ^ 2 - 2 y_16_ * y_5_ + 1 y_16_ ^ 2 ] = 63905
c29: [ 1 x_12_ ^ 2 - 2 x_17_ * x_12_ + 1 x_17_ ^ 2 + 1 y_12_ ^ 2 - 2 y_17_ * y_12_ + 1 y_17_ ^ 2 ] = 3229
c30: [ 1 x_15_ ^ 2 - 2 x_17_ * x_15_ + 1 x_17_ ^ 2 + 1 y_15_ ^ 2 - 2 y_17_ * y_15_ + 1 y_17_ ^ 2 ] = 292
c31: [ 1 x_2_ ^ 2 - 2 x_18_ * x_2_ + 1 x_18_ ^ 2 + 1 y_2_ ^ 2 - 2 y_18_ * y_2_ + 1 y_18_ ^ 2 ] = 26564
c32: [ 1 x_4_ ^ 2 - 2 x_18_ * x_4_ + 1 x_18_ ^ 2 + 1 y_4_ ^ 2 - 2 y_18_ * y_4_ + 1 y_18_ ^ 2 ] = 2626
c33: [ 1 x_2_ ^ 2 - 2 x_19_ * x_2_ + 1 x_19_ ^ 2 + 1 y_2_ ^ 2 - 2 y_19_ * y_2_ + 1 y_19_ ^ 2 ] = 11140
c34: [ 1 x_10_ ^ 2 - 2 x_19_ * x_10_ + 1 x_19_ ^ 2 + 1 y_10_ ^ 2 - 2 y_19_ * y_10_ + 1 y_19_ ^ 2 ] = 1352
c35: [ 1 x_16_ ^ 2 - 2 x_19_ * x_16_ + 1 x_19_ ^ 2 + 1 y_16_ ^ 2 - 2 y_19_ * y_16_ + 1 y_19_ ^ 2 ] = 25117
c36: [ 1 x_2_ ^ 2 - 2 x_20_ * x_2_ + 1 x_20_ ^ 2 + 1 y_2_ ^ 2 - 2 y_20_ * y_2_ + 1 y_20_ ^ 2 ] = 19753
c37: [ 1 x_7_ ^ 2 - 2 x_20_ * x_7_ + 1 x_20_ ^ 2 + 1 y_7_ ^ 2 - 2 y_20_ * y_7_ + 1 y_20_ ^ 2 ] = 9490
Bounds
-93 <= x_1_ <= 135
-119 <= x_2_ <= 232
-113 <= x_3_ <= 247
x_4_ = 21
x_5_ = 94
-108 <= x_6_ <= 242
-138 <= x_7_ <= 272
-200 <= x_8_ <= 313
-107 <= x_9_ <= 225
-228 <= x_10_ <= 270
-30 <= x_11_ <= 72
x_12_ = 67
-105 <= x_13_ <= 252
-132 <= x_14_ <= 174
-6 <= x_15_ <= 140
-158 <= x_16_ <= 346
11 <= x_17_ <= 123
-30 <= x_18_ <= 72
-224 <= x_19_ <= 307
-235 <= x_20_ <= 369
-103 <= y_1_ <= 125
-200 <= y_2_ <= 119
-232 <= y_3_ <= 113
y_4_ = 11
y_5_ = -78
-242 <= y_6_ <= 108
-252 <= y_7_ <= 138
-281 <= y_8_ <= 200
-193 <= y_9_ <= 107
-238 <= y_10_ <= 241
-40 <= y_11_ <= 62
y_12_ = -67
-220 <= y_13_ <= 121
-142 <= y_14_ <= 158
-140 <= y_15_ <= 6
-330 <= y_16_ <= 174
-123 <= y_17_ <= -11
-40 <= y_18_ <= 62
-275 <= y_19_ <= 224
-340 <= y_20_ <= 235
General
x_1_
x_2_
x_3_
x_4_
x_5_
x_6_
x_7_
x_8_
x_9_
x_10_
x_11_
x_12_
x_13_
x_14_
x_15_
x_16_
x_17_
x_18_
x_19_
x_20_
y_1_
y_2_
y_3_
y_4_
y_5_
y_6_
y_7_
y_8_
y_9_
y_10_
y_11_
y_12_
y_13_
y_14_
y_15_
y_16_
y_17_
y_18_
y_19_
y_20_
End
