minimize
obj: 
subject to
c1_1: 86 x_1_ - 200 y_1_ + [ 1 x_1_ ^ 2 + 1 y_1_ ^ 2 ] <= 101356
c2_1: 86 x_2_ - 200 y_2_ + [ 1 x_2_ ^ 2 + 1 y_2_ ^ 2 ] <= 55127
c3_1: 86 x_4_ - 200 y_4_ + [ 1 x_4_ ^ 2 + 1 y_4_ ^ 2 ] <= 62816
c4_1: 86 x_5_ - 200 y_5_ + [ 1 x_5_ ^ 2 + 1 y_5_ ^ 2 ] <= 117756
c5_1: 86 x_6_ - 200 y_6_ + [ 1 x_6_ ^ 2 + 1 y_6_ ^ 2 ] <= 29556
c6_1: 86 x_7_ - 200 y_7_ + [ 1 x_7_ ^ 2 + 1 y_7_ ^ 2 ] <= 84474
c7_1: 86 x_8_ - 200 y_8_ + [ 1 x_8_ ^ 2 + 1 y_8_ ^ 2 ] <= 19345
c8_1: 86 x_9_ - 200 y_9_ + [ 1 x_9_ ^ 2 + 1 y_9_ ^ 2 ] <= 111086
c9_1: 86 x_10_ - 200 y_10_ + [ 1 x_10_ ^ 2 + 1 y_10_ ^ 2 ] <= 19209
c10_1: 86 x_11_ - 200 y_11_ + [ 1 x_11_ ^ 2 + 1 y_11_ ^ 2 ] <= 94470
c11_1: 86 x_12_ - 200 y_12_ + [ 1 x_12_ ^ 2 + 1 y_12_ ^ 2 ] <= 102811
c12_1: 86 x_13_ - 200 y_13_ + [ 1 x_13_ ^ 2 + 1 y_13_ ^ 2 ] <= 134675
c13_1: 86 x_14_ - 200 y_14_ + [ 1 x_14_ ^ 2 + 1 y_14_ ^ 2 ] <= 85035
c14_1: 86 x_15_ - 200 y_15_ + [ 1 x_15_ ^ 2 + 1 y_15_ ^ 2 ] <= 252688
c15_1: 86 x_16_ - 200 y_16_ + [ 1 x_16_ ^ 2 + 1 y_16_ ^ 2 ] <= 104961
c16_1: 86 x_17_ - 200 y_17_ + [ 1 x_17_ ^ 2 + 1 y_17_ ^ 2 ] <= 96750
c17_1: 86 x_18_ - 200 y_18_ + [ 1 x_18_ ^ 2 + 1 y_18_ ^ 2 ] <= 51984
c18_1: 86 x_19_ - 200 y_19_ + [ 1 x_19_ ^ 2 + 1 y_19_ ^ 2 ] <= 131447
c19_1: 86 x_20_ - 200 y_20_ + [ 1 x_20_ ^ 2 + 1 y_20_ ^ 2 ] <= 95860
c20_1: -128 x_1_ - 170 y_1_ + [ 1 x_1_ ^ 2 + 1 y_1_ ^ 2 ] <= 20690
c21_1: -128 x_2_ - 170 y_2_ + [ 1 x_2_ ^ 2 + 1 y_2_ ^ 2 ] <= -5259
c22_1: -128 x_3_ - 170 y_3_ + [ 1 x_3_ ^ 2 + 1 y_3_ ^ 2 ] <= 97278
c23_1: -128 x_4_ - 170 y_4_ + [ 1 x_4_ ^ 2 + 1 y_4_ ^ 2 ] <= -7941
c24_1: -128 x_5_ - 170 y_5_ + [ 1 x_5_ ^ 2 + 1 y_5_ ^ 2 ] <= 34255
c25_1: -128 x_6_ - 170 y_6_ + [ 1 x_6_ ^ 2 + 1 y_6_ ^ 2 ] <= 14117
c26_1: -128 x_7_ - 170 y_7_ + [ 1 x_7_ ^ 2 + 1 y_7_ ^ 2 ] <= 17378
c27_1: -128 x_8_ - 170 y_8_ + [ 1 x_8_ ^ 2 + 1 y_8_ ^ 2 ] <= 103435
c28_1: -128 x_9_ - 170 y_9_ + [ 1 x_9_ ^ 2 + 1 y_9_ ^ 2 ] <= 32791
c29_1: -128 x_10_ - 170 y_10_ + [ 1 x_10_ ^ 2 + 1 y_10_ ^ 2 ] <= 12183
c30_1: -128 x_11_ - 170 y_11_ + [ 1 x_11_ ^ 2 + 1 y_11_ ^ 2 ] <= 9741
c31_1: -128 x_12_ - 170 y_12_ + [ 1 x_12_ ^ 2 + 1 y_12_ ^ 2 ] <= 70356
c32_1: -128 x_13_ - 170 y_13_ + [ 1 x_13_ ^ 2 + 1 y_13_ ^ 2 ] <= 22008
c33_1: -128 x_14_ - 170 y_14_ + [ 1 x_14_ ^ 2 + 1 y_14_ ^ 2 ] <= -2076
c34_1: -128 x_15_ - 170 y_15_ + [ 1 x_15_ ^ 2 + 1 y_15_ ^ 2 ] <= 128359
c35_1: -128 x_16_ - 170 y_16_ + [ 1 x_16_ ^ 2 + 1 y_16_ ^ 2 ] <= 77356
c36_1: -128 x_18_ - 170 y_18_ + [ 1 x_18_ ^ 2 + 1 y_18_ ^ 2 ] <= 40260
c37_1: -128 x_19_ - 170 y_19_ + [ 1 x_19_ ^ 2 + 1 y_19_ ^ 2 ] <= 27728
c38: -128 x_20_ - 170 y_20_ + [ 1 x_20_ ^ 2 + 1 y_20_ ^ 2 ] <= 73658
c39: 74 x_1_ + 164 y_1_ + [ 1 x_1_ ^ 2 + 1 y_1_ ^ 2 ] <= 22920
c40: 74 x_2_ + 164 y_2_ + [ 1 x_2_ ^ 2 + 1 y_2_ ^ 2 ] <= 37554
c41: 74 x_3_ + 164 y_3_ + [ 1 x_3_ ^ 2 + 1 y_3_ ^ 2 ] <= 99616
c42: 74 x_4_ + 164 y_4_ + [ 1 x_4_ ^ 2 + 1 y_4_ ^ 2 ] <= 46370
c43: 74 x_5_ + 164 y_5_ + [ 1 x_5_ ^ 2 + 1 y_5_ ^ 2 ] <= 25357
c44: 74 x_6_ + 164 y_6_ + [ 1 x_6_ ^ 2 + 1 y_6_ ^ 2 ] <= 79100
c45: 74 x_7_ + 164 y_7_ + [ 1 x_7_ ^ 2 + 1 y_7_ ^ 2 ] <= 9661
c46: 74 x_8_ + 164 y_8_ + [ 1 x_8_ ^ 2 + 1 y_8_ ^ 2 ] <= 104767
c47: 74 x_9_ + 164 y_9_ + [ 1 x_9_ ^ 2 + 1 y_9_ ^ 2 ] <= 28193
c48: 74 x_10_ + 164 y_10_ + [ 1 x_10_ ^ 2 + 1 y_10_ ^ 2 ] <= 14998
c49: 74 x_11_ + 164 y_11_ + [ 1 x_11_ ^ 2 + 1 y_11_ ^ 2 ] <= 13335
c50: 74 x_12_ + 164 y_12_ + [ 1 x_12_ ^ 2 + 1 y_12_ ^ 2 ] <= 74302
c51: 74 x_13_ + 164 y_13_ + [ 1 x_13_ ^ 2 + 1 y_13_ ^ 2 ] <= 33157
c52: 74 x_14_ + 164 y_14_ + [ 1 x_14_ ^ 2 + 1 y_14_ ^ 2 ] <= 58921
c53: 74 x_15_ + 164 y_15_ + [ 1 x_15_ ^ 2 + 1 y_15_ ^ 2 ] <= 117364
c54: 74 x_16_ + 164 y_16_ + [ 1 x_16_ ^ 2 + 1 y_16_ ^ 2 ] <= 179896
c55: 74 x_17_ + 164 y_17_ + [ 1 x_17_ ^ 2 + 1 y_17_ ^ 2 ] <= 76886
c56: 74 x_18_ + 164 y_18_ + [ 1 x_18_ ^ 2 + 1 y_18_ ^ 2 ] <= -2387
c57: 74 x_19_ + 164 y_19_ + [ 1 x_19_ ^ 2 + 1 y_19_ ^ 2 ] <= 725
c1_2: 1 x_3_ = -43
c2_2: 1 y_3_ = 100
c3_2: 1 x_17_ = 64
c4_2: 1 y_17_ = 85
c5_2: 1 x_20_ = -37
c6_2: 1 y_20_ = -82
c1: [ 1 x_2_ ^ 2 - 2 x_4_ * x_2_ + 1 x_4_ ^ 2 + 1 y_2_ ^ 2 - 2 y_4_ * y_2_ + 1 y_4_ ^ 2 ] = 389
c2: [ 1 x_1_ ^ 2 - 2 x_5_ * x_1_ + 1 x_5_ ^ 2 + 1 y_1_ ^ 2 - 2 y_5_ * y_1_ + 1 y_5_ ^ 2 ] = 3026
c3: [ 1 x_2_ ^ 2 - 2 x_5_ * x_2_ + 1 x_5_ ^ 2 + 1 y_2_ ^ 2 - 2 y_5_ * y_2_ + 1 y_5_ ^ 2 ] = 18394
c4: [ 1 x_1_ ^ 2 - 2 x_6_ * x_1_ + 1 x_6_ ^ 2 + 1 y_1_ ^ 2 - 2 y_6_ * y_1_ + 1 y_6_ ^ 2 ] = 31316
c5: [ 1 x_2_ ^ 2 - 2 x_6_ * x_2_ + 1 x_6_ ^ 2 + 1 y_2_ ^ 2 - 2 y_6_ * y_2_ + 1 y_6_ ^ 2 ] = 6664
c6: [ 1 x_3_ ^ 2 - 2 x_6_ * x_3_ + 1 x_6_ ^ 2 + 1 y_3_ ^ 2 - 2 y_6_ * y_3_ + 1 y_6_ ^ 2 ] = 41405
c7: [ 1 x_1_ ^ 2 - 2 x_7_ * x_1_ + 1 x_7_ ^ 2 + 1 y_1_ ^ 2 - 2 y_7_ * y_1_ + 1 y_7_ ^ 2 ] = 2493
c8: [ 1 x_2_ ^ 2 - 2 x_7_ * x_2_ + 1 x_7_ ^ 2 + 1 y_2_ ^ 2 - 2 y_7_ * y_2_ + 1 y_7_ ^ 2 ] = 8381
c9: [ 1 x_5_ ^ 2 - 2 x_7_ * x_5_ + 1 x_7_ ^ 2 + 1 y_5_ ^ 2 - 2 y_7_ * y_5_ + 1 y_7_ ^ 2 ] = 2465
c10: [ 1 x_1_ ^ 2 - 2 x_8_ * x_1_ + 1 x_8_ ^ 2 + 1 y_1_ ^ 2 - 2 y_8_ * y_1_ + 1 y_8_ ^ 2 ] = 25549
c11: [ 1 x_3_ ^ 2 - 2 x_8_ * x_3_ + 1 x_8_ ^ 2 + 1 y_3_ ^ 2 - 2 y_8_ * y_3_ + 1 y_8_ ^ 2 ] = 31194
c12: [ 1 x_7_ ^ 2 - 2 x_9_ * x_7_ + 1 x_9_ ^ 2 + 1 y_7_ ^ 2 - 2 y_9_ * y_7_ + 1 y_9_ ^ 2 ] = 3277
c13: [ 1 x_8_ ^ 2 - 2 x_9_ * x_8_ + 1 x_9_ ^ 2 + 1 y_8_ ^ 2 - 2 y_9_ * y_8_ + 1 y_9_ ^ 2 ] = 30277
c14: [ 1 x_2_ ^ 2 - 2 x_10_ * x_2_ + 1 x_10_ ^ 2 + 1 y_2_ ^ 2 - 2 y_10_ * y_2_ + 1 y_10_ ^ 2 ] = 6817
c15: [ 1 x_3_ ^ 2 - 2 x_10_ * x_3_ + 1 x_10_ ^ 2 + 1 y_3_ ^ 2 - 2 y_10_ * y_3_ + 1 y_10_ ^ 2 ] = 31058
c16: [ 1 x_4_ ^ 2 - 2 x_10_ * x_4_ + 1 x_10_ ^ 2 + 1 y_4_ ^ 2 - 2 y_10_ * y_4_ + 1 y_10_ ^ 2 ] = 9412
c17: [ 1 x_2_ ^ 2 - 2 x_11_ * x_2_ + 1 x_11_ ^ 2 + 1 y_2_ ^ 2 - 2 y_11_ * y_2_ + 1 y_11_ ^ 2 ] = 4525
c18: [ 1 x_6_ ^ 2 - 2 x_12_ * x_6_ + 1 x_12_ ^ 2 + 1 y_6_ ^ 2 - 2 y_12_ * y_6_ + 1 y_12_ ^ 2 ] = 18261
c19: [ 1 x_11_ ^ 2 - 2 x_12_ * x_11_ + 1 x_12_ ^ 2 + 1 y_11_ ^ 2 - 2 y_12_ * y_11_ + 1 y_12_ ^ 2 ] = 19786
c20: [ 1 x_9_ ^ 2 - 2 x_13_ * x_9_ + 1 x_13_ ^ 2 + 1 y_9_ ^ 2 - 2 y_13_ * y_9_ + 1 y_13_ ^ 2 ] = 35890
c21: [ 1 x_11_ ^ 2 - 2 x_13_ * x_11_ + 1 x_13_ ^ 2 + 1 y_11_ ^ 2 - 2 y_13_ * y_11_ + 1 y_13_ ^ 2 ] = 3217
c22: [ 1 x_1_ ^ 2 - 2 x_14_ * x_1_ + 1 x_14_ ^ 2 + 1 y_1_ ^ 2 - 2 y_14_ * y_1_ + 1 y_14_ ^ 2 ] = 6850
c23: [ 1 x_4_ ^ 2 - 2 x_14_ * x_4_ + 1 x_14_ ^ 2 + 1 y_4_ ^ 2 - 2 y_14_ * y_4_ + 1 y_14_ ^ 2 ] = 1445
c24: [ 1 x_9_ ^ 2 - 2 x_14_ * x_9_ + 1 x_14_ ^ 2 + 1 y_9_ ^ 2 - 2 y_14_ * y_9_ + 1 y_14_ ^ 2 ] = 12968
c25: [ 1 x_9_ ^ 2 - 2 x_15_ * x_9_ + 1 x_15_ ^ 2 + 1 y_9_ ^ 2 - 2 y_15_ * y_9_ + 1 y_15_ ^ 2 ] = 26801
c26: [ 1 x_12_ ^ 2 - 2 x_15_ * x_12_ + 1 x_15_ ^ 2 + 1 y_12_ ^ 2 - 2 y_15_ * y_12_ + 1 y_15_ ^ 2 ] = 34450
c27: [ 1 x_6_ ^ 2 - 2 x_16_ * x_6_ + 1 x_16_ ^ 2 + 1 y_6_ ^ 2 - 2 y_16_ * y_6_ + 1 y_16_ ^ 2 ] = 19125
c28: [ 1 x_12_ ^ 2 - 2 x_16_ * x_12_ + 1 x_16_ ^ 2 + 1 y_12_ ^ 2 - 2 y_16_ * y_12_ + 1 y_16_ ^ 2 ] = 43866
c29: [ 1 x_4_ ^ 2 - 2 x_17_ * x_4_ + 1 x_17_ ^ 2 + 1 y_4_ ^ 2 - 2 y_17_ * y_4_ + 1 y_17_ ^ 2 ] = 3380
c30: [ 1 x_10_ ^ 2 - 2 x_17_ * x_10_ + 1 x_17_ ^ 2 + 1 y_10_ ^ 2 - 2 y_17_ * y_10_ + 1 y_17_ ^ 2 ] = 23504
c31: [ 1 x_13_ ^ 2 - 2 x_17_ * x_13_ + 1 x_17_ ^ 2 + 1 y_13_ ^ 2 - 2 y_17_ * y_13_ + 1 y_17_ ^ 2 ] = 33329
c32: [ 1 x_7_ ^ 2 - 2 x_18_ * x_7_ + 1 x_18_ ^ 2 + 1 y_7_ ^ 2 - 2 y_18_ * y_7_ + 1 y_18_ ^ 2 ] = 3330
c33: [ 1 x_10_ ^ 2 - 2 x_18_ * x_10_ + 1 x_18_ ^ 2 + 1 y_10_ ^ 2 - 2 y_18_ * y_10_ + 1 y_18_ ^ 2 ] = 5840
c34: [ 1 x_1_ ^ 2 - 2 x_19_ * x_1_ + 1 x_19_ ^ 2 + 1 y_1_ ^ 2 - 2 y_19_ * y_1_ + 1 y_19_ ^ 2 ] = 6757
c35: [ 1 x_11_ ^ 2 - 2 x_19_ * x_11_ + 1 x_19_ ^ 2 + 1 y_11_ ^ 2 - 2 y_19_ * y_11_ + 1 y_19_ ^ 2 ] = 2754
c36: [ 1 x_18_ ^ 2 - 2 x_20_ * x_18_ + 1 x_20_ ^ 2 + 1 y_18_ ^ 2 - 2 y_20_ * y_18_ + 1 y_20_ ^ 2 ] = 5706
c37: [ 1 x_19_ ^ 2 - 2 x_20_ * x_19_ + 1 x_20_ ^ 2 + 1 y_19_ ^ 2 - 2 y_20_ * y_19_ + 1 y_20_ ^ 2 ] = 8818
Bounds
-114 <= x_1_ <= 139
-13 <= x_2_ <= 141
x_3_ = -43
6 <= x_4_ <= 122
-149 <= x_5_ <= 145
-95 <= x_6_ <= 160
-105 <= x_7_ <= 96
-219 <= x_8_ <= 133
-146 <= x_9_ <= 153
-89 <= x_10_ <= 114
-81 <= x_11_ <= 109
-221 <= x_12_ <= 250
-118 <= x_13_ <= 166
-32 <= x_14_ <= 160
-309 <= x_15_ <= 317
-233 <= x_16_ <= 298
x_17_ = 64
-112 <= x_18_ <= 38
-130 <= x_19_ <= 56
x_20_ = -37
-93 <= y_1_ <= 94
8 <= y_2_ <= 131
y_3_ = 100
27 <= y_4_ <= 143
-128 <= y_5_ <= 100
-74 <= y_6_ <= 213
-84 <= y_7_ <= 51
-76 <= y_8_ <= 253
-125 <= y_9_ <= 108
-68 <= y_10_ <= 69
-60 <= y_11_ <= 64
-200 <= y_12_ <= 205
-97 <= y_13_ <= 121
-11 <= y_14_ <= 176
-288 <= y_15_ <= 272
-212 <= y_16_ <= 351
y_17_ = 85
-142 <= y_18_ <= -7
-112 <= y_19_ <= 11
y_20_ = -82
General
x_1_
x_2_
x_3_
x_4_
x_5_
x_6_
x_7_
x_8_
x_9_
x_10_
x_11_
x_12_
x_13_
x_14_
x_15_
x_16_
x_17_
x_18_
x_19_
x_20_
y_1_
y_2_
y_3_
y_4_
y_5_
y_6_
y_7_
y_8_
y_9_
y_10_
y_11_
y_12_
y_13_
y_14_
y_15_
y_16_
y_17_
y_18_
y_19_
y_20_
End
