minimize
obj: 
subject to
c1: -36 x_1_ + 156 y_1_ + [ 1 x_1_ ^ 2 + 1 y_1_ ^ 2 ] <= 52296.23436440102
c2: -36 x_2_ + 156 y_2_ + [ 1 x_2_ ^ 2 + 1 y_2_ ^ 2 ] <= 38382.15921932978
c3: -36 x_3_ + 156 y_3_ + [ 1 x_3_ ^ 2 + 1 y_3_ ^ 2 ] <= 62342.70137140117
c4: -36 x_4_ + 156 y_4_ + [ 1 x_4_ ^ 2 + 1 y_4_ ^ 2 ] <= 74443.2160510146
c5: -36 x_5_ + 156 y_5_ + [ 1 x_5_ ^ 2 + 1 y_5_ ^ 2 ] <= 15936.811187197713
c6: -36 x_6_ + 156 y_6_ + [ 1 x_6_ ^ 2 + 1 y_6_ ^ 2 ] <= 43641.66487450334
c7: -36 x_7_ + 156 y_7_ + [ 1 x_7_ ^ 2 + 1 y_7_ ^ 2 ] <= 86508.76217875183
c8: -36 x_8_ + 156 y_8_ + [ 1 x_8_ ^ 2 + 1 y_8_ ^ 2 ] <= 91349.543552556
c9: -36 x_9_ + 156 y_9_ + [ 1 x_9_ ^ 2 + 1 y_9_ ^ 2 ] <= 68896.92574668537
c10: -36 x_10_ + 156 y_10_ + [ 1 x_10_ ^ 2 + 1 y_10_ ^ 2 ] <= 49734.01241818542
c11: -36 x_12_ + 156 y_12_ + [ 1 x_12_ ^ 2 + 1 y_12_ ^ 2 ] <= 70316.37150215298
c12: -36 x_13_ + 156 y_13_ + [ 1 x_13_ ^ 2 + 1 y_13_ ^ 2 ] <= 83598.0587768213
c13: -36 x_14_ + 156 y_14_ + [ 1 x_14_ ^ 2 + 1 y_14_ ^ 2 ] <= 76435.69428440859
c14: -36 x_15_ + 156 y_15_ + [ 1 x_15_ ^ 2 + 1 y_15_ ^ 2 ] <= 32166.983191385785
c15: -36 x_16_ + 156 y_16_ + [ 1 x_16_ ^ 2 + 1 y_16_ ^ 2 ] <= 76615.95463038496
c16: -36 x_17_ + 156 y_17_ + [ 1 x_17_ ^ 2 + 1 y_17_ ^ 2 ] <= 90905.48503127649
c17: -36 x_18_ + 156 y_18_ + [ 1 x_18_ ^ 2 + 1 y_18_ ^ 2 ] <= 10815.529999999999
c18: -36 x_19_ + 156 y_19_ + [ 1 x_19_ ^ 2 + 1 y_19_ ^ 2 ] <= 44219.44410096989
c19: -36 x_20_ + 156 y_20_ + [ 1 x_20_ ^ 2 + 1 y_20_ ^ 2 ] <= 83601.83738092726
c20: -36 x_21_ + 156 y_21_ + [ 1 x_21_ ^ 2 + 1 y_21_ ^ 2 ] <= 24386.9196753117
c21: -36 x_22_ + 156 y_22_ + [ 1 x_22_ ^ 2 + 1 y_22_ ^ 2 ] <= 68496.23585940192
c22: -36 x_23_ + 156 y_23_ + [ 1 x_23_ ^ 2 + 1 y_23_ ^ 2 ] <= 77168.27425969737
c23: -36 x_24_ + 156 y_24_ + [ 1 x_24_ ^ 2 + 1 y_24_ ^ 2 ] <= 8282.449999999997
c24: -36 x_25_ + 156 y_25_ + [ 1 x_25_ ^ 2 + 1 y_25_ ^ 2 ] <= 165336.37472158027
c25: -36 x_26_ + 156 y_26_ + [ 1 x_26_ ^ 2 + 1 y_26_ ^ 2 ] <= 233830.0628657893
c26: -36 x_27_ + 156 y_27_ + [ 1 x_27_ ^ 2 + 1 y_27_ ^ 2 ] <= 85548.19238929836
c27: -36 x_28_ + 156 y_28_ + [ 1 x_28_ ^ 2 + 1 y_28_ ^ 2 ] <= 104499.91602432965
c28: -36 x_29_ + 156 y_29_ + [ 1 x_29_ ^ 2 + 1 y_29_ ^ 2 ] <= 103459.21808133574
c29: -36 x_30_ + 156 y_30_ + [ 1 x_30_ ^ 2 + 1 y_30_ ^ 2 ] <= 47443.048299928
c30: -36 x_31_ + 156 y_31_ + [ 1 x_31_ ^ 2 + 1 y_31_ ^ 2 ] <= 48178.31386683248
c31: -36 x_32_ + 156 y_32_ + [ 1 x_32_ ^ 2 + 1 y_32_ ^ 2 ] <= 76146.37090352859
c32: -36 x_33_ + 156 y_33_ + [ 1 x_33_ ^ 2 + 1 y_33_ ^ 2 ] <= 111037.3396933655
c33: -36 x_34_ + 156 y_34_ + [ 1 x_34_ ^ 2 + 1 y_34_ ^ 2 ] <= 92791.96959745031
c34: -36 x_35_ + 156 y_35_ + [ 1 x_35_ ^ 2 + 1 y_35_ ^ 2 ] <= 44663.362052351644
c35: -36 x_36_ + 156 y_36_ + [ 1 x_36_ ^ 2 + 1 y_36_ ^ 2 ] <= 75323.92661417247
c36: -36 x_37_ + 156 y_37_ + [ 1 x_37_ ^ 2 + 1 y_37_ ^ 2 ] <= 15198.127997538446
c37: -36 x_38_ + 156 y_38_ + [ 1 x_38_ ^ 2 + 1 y_38_ ^ 2 ] <= 43435.06457051414
c38: -36 x_39_ + 156 y_39_ + [ 1 x_39_ ^ 2 + 1 y_39_ ^ 2 ] <= 58749.88704730235
c39: -36 x_40_ + 156 y_40_ + [ 1 x_40_ ^ 2 + 1 y_40_ ^ 2 ] <= 19155.659743569613
c40: -36 x_41_ + 156 y_41_ + [ 1 x_41_ ^ 2 + 1 y_41_ ^ 2 ] <= 93915.32146582143
c41: -36 x_42_ + 156 y_42_ + [ 1 x_42_ ^ 2 + 1 y_42_ ^ 2 ] <= 157247.49750405992
c42: -36 x_43_ + 156 y_43_ + [ 1 x_43_ ^ 2 + 1 y_43_ ^ 2 ] <= 126629.78381498632
c43: -36 x_44_ + 156 y_44_ + [ 1 x_44_ ^ 2 + 1 y_44_ ^ 2 ] <= 53006.477644381535
c44: -36 x_45_ + 156 y_45_ + [ 1 x_45_ ^ 2 + 1 y_45_ ^ 2 ] <= 13679.626839279808
c45: -36 x_46_ + 156 y_46_ + [ 1 x_46_ ^ 2 + 1 y_46_ ^ 2 ] <= 168761.37906301348
c46: -36 x_47_ + 156 y_47_ + [ 1 x_47_ ^ 2 + 1 y_47_ ^ 2 ] <= 37183.370439582766
c47: -36 x_48_ + 156 y_48_ + [ 1 x_48_ ^ 2 + 1 y_48_ ^ 2 ] <= 77398.1068217274
c48: -36 x_49_ + 156 y_49_ + [ 1 x_49_ ^ 2 + 1 y_49_ ^ 2 ] <= 24948.55542988129
c49: -36 x_50_ + 156 y_50_ + [ 1 x_50_ ^ 2 + 1 y_50_ ^ 2 ] <= 144771.43281305186
c50: -36 x_51_ + 156 y_51_ + [ 1 x_51_ ^ 2 + 1 y_51_ ^ 2 ] <= 4201.039999999999
c51: -36 x_52_ + 156 y_52_ + [ 1 x_52_ ^ 2 + 1 y_52_ ^ 2 ] <= 114687.80719421165
c52: -36 x_53_ + 156 y_53_ + [ 1 x_53_ ^ 2 + 1 y_53_ ^ 2 ] <= 24127.894331201038
c53: -36 x_54_ + 156 y_54_ + [ 1 x_54_ ^ 2 + 1 y_54_ ^ 2 ] <= 73192.02805656643
c54: -36 x_55_ + 156 y_55_ + [ 1 x_55_ ^ 2 + 1 y_55_ ^ 2 ] <= 109687.4131293716
c55: -36 x_56_ + 156 y_56_ + [ 1 x_56_ ^ 2 + 1 y_56_ ^ 2 ] <= 60544.88244181097
c56: -36 x_57_ + 156 y_57_ + [ 1 x_57_ ^ 2 + 1 y_57_ ^ 2 ] <= 42355.2404393894
c57: -36 x_58_ + 156 y_58_ + [ 1 x_58_ ^ 2 + 1 y_58_ ^ 2 ] <= 78854.47825505357
c58: -36 x_59_ + 156 y_59_ + [ 1 x_59_ ^ 2 + 1 y_59_ ^ 2 ] <= 100586.86183704167
c59: -36 x_60_ + 156 y_60_ + [ 1 x_60_ ^ 2 + 1 y_60_ ^ 2 ] <= 121656.9205265986
c60: -36 x_61_ + 156 y_61_ + [ 1 x_61_ ^ 2 + 1 y_61_ ^ 2 ] <= 96590.881828031
c61: -36 x_62_ + 156 y_62_ + [ 1 x_62_ ^ 2 + 1 y_62_ ^ 2 ] <= 47402.27304443975
c62: -36 x_63_ + 156 y_63_ + [ 1 x_63_ ^ 2 + 1 y_63_ ^ 2 ] <= 40026.21419898016
c63: -36 x_64_ + 156 y_64_ + [ 1 x_64_ ^ 2 + 1 y_64_ ^ 2 ] <= 97328.65812277557
c64: -36 x_65_ + 156 y_65_ + [ 1 x_65_ ^ 2 + 1 y_65_ ^ 2 ] <= 38408.99131354354
c65: -36 x_66_ + 156 y_66_ + [ 1 x_66_ ^ 2 + 1 y_66_ ^ 2 ] <= 62181.663534051
c66: -36 x_67_ + 156 y_67_ + [ 1 x_67_ ^ 2 + 1 y_67_ ^ 2 ] <= 152620.28262525031
c67: -36 x_68_ + 156 y_68_ + [ 1 x_68_ ^ 2 + 1 y_68_ ^ 2 ] <= 118418.13213497776
c68: -36 x_69_ + 156 y_69_ + [ 1 x_69_ ^ 2 + 1 y_69_ ^ 2 ] <= 155812.6416960603
c69: -36 x_70_ + 156 y_70_ + [ 1 x_70_ ^ 2 + 1 y_70_ ^ 2 ] <= 202899.4001630639
c70: -36 x_71_ + 156 y_71_ + [ 1 x_71_ ^ 2 + 1 y_71_ ^ 2 ] <= 108792.58887645922
c71: -36 x_72_ + 156 y_72_ + [ 1 x_72_ ^ 2 + 1 y_72_ ^ 2 ] <= 59776.787882476914
c72: -36 x_73_ + 156 y_73_ + [ 1 x_73_ ^ 2 + 1 y_73_ ^ 2 ] <= 128607.6048986738
c73: -36 x_74_ + 156 y_74_ + [ 1 x_74_ ^ 2 + 1 y_74_ ^ 2 ] <= 78189.4092358892
c74: -36 x_75_ + 156 y_75_ + [ 1 x_75_ ^ 2 + 1 y_75_ ^ 2 ] <= 54308.31603402356
c75: -36 x_76_ + 156 y_76_ + [ 1 x_76_ ^ 2 + 1 y_76_ ^ 2 ] <= 127107.44804589901
c76: -36 x_77_ + 156 y_77_ + [ 1 x_77_ ^ 2 + 1 y_77_ ^ 2 ] <= 78406.4205992674
c77: -36 x_78_ + 156 y_78_ + [ 1 x_78_ ^ 2 + 1 y_78_ ^ 2 ] <= 130103.59489974665
c78: -36 x_79_ + 156 y_79_ + [ 1 x_79_ ^ 2 + 1 y_79_ ^ 2 ] <= 143907.66016959527
c79: -36 x_80_ + 156 y_80_ + [ 1 x_80_ ^ 2 + 1 y_80_ ^ 2 ] <= 46395.66125410785
c80: -36 x_81_ + 156 y_81_ + [ 1 x_81_ ^ 2 + 1 y_81_ ^ 2 ] <= 52695.19907028293
c81: -36 x_82_ + 156 y_82_ + [ 1 x_82_ ^ 2 + 1 y_82_ ^ 2 ] <= 45417.71255444601
c82: -36 x_83_ + 156 y_83_ + [ 1 x_83_ ^ 2 + 1 y_83_ ^ 2 ] <= 45020.52209564686
c83: -36 x_84_ + 156 y_84_ + [ 1 x_84_ ^ 2 + 1 y_84_ ^ 2 ] <= 125016.92474192107
c84: -36 x_85_ + 156 y_85_ + [ 1 x_85_ ^ 2 + 1 y_85_ ^ 2 ] <= 19831.190197836506
c85: -36 x_86_ + 156 y_86_ + [ 1 x_86_ ^ 2 + 1 y_86_ ^ 2 ] <= 65532.92827264842
c86: -36 x_87_ + 156 y_87_ + [ 1 x_87_ ^ 2 + 1 y_87_ ^ 2 ] <= 110851.70225603122
c87: -36 x_88_ + 156 y_88_ + [ 1 x_88_ ^ 2 + 1 y_88_ ^ 2 ] <= 28861.082749496723
c88: -36 x_89_ + 156 y_89_ + [ 1 x_89_ ^ 2 + 1 y_89_ ^ 2 ] <= 181171.71931861027
c89: -36 x_90_ + 156 y_90_ + [ 1 x_90_ ^ 2 + 1 y_90_ ^ 2 ] <= 114025.9788821546
c90: -36 x_91_ + 156 y_91_ + [ 1 x_91_ ^ 2 + 1 y_91_ ^ 2 ] <= 108668.58286213667
c91: -36 x_92_ + 156 y_92_ + [ 1 x_92_ ^ 2 + 1 y_92_ ^ 2 ] <= 103652.31464410783
c92: -36 x_93_ + 156 y_93_ + [ 1 x_93_ ^ 2 + 1 y_93_ ^ 2 ] <= 45127.46634241621
c93: -36 x_94_ + 156 y_94_ + [ 1 x_94_ ^ 2 + 1 y_94_ ^ 2 ] <= 131415.2713352447
c94: -36 x_95_ + 156 y_95_ + [ 1 x_95_ ^ 2 + 1 y_95_ ^ 2 ] <= 3959.6499999999996
c95: -36 x_96_ + 156 y_96_ + [ 1 x_96_ ^ 2 + 1 y_96_ ^ 2 ] <= 94027.14921572886
c96: -36 x_97_ + 156 y_97_ + [ 1 x_97_ ^ 2 + 1 y_97_ ^ 2 ] <= 119049.56346106784
c97: -36 x_98_ + 156 y_98_ + [ 1 x_98_ ^ 2 + 1 y_98_ ^ 2 ] <= 14548.489999999998
c98: -36 x_99_ + 156 y_99_ + [ 1 x_99_ ^ 2 + 1 y_99_ ^ 2 ] <= 141076.39493479603
c99: -36 x_100_ + 156 y_100_ + [ 1 x_100_ ^ 2 + 1 y_100_ ^ 2 ] <= 124500.49667666707
c100: 42 x_1_ - 82 y_1_ + [ 1 x_1_ ^ 2 + 1 y_1_ ^ 2 ] <= 132369.79850423266
c101: 42 x_2_ - 82 y_2_ + [ 1 x_2_ ^ 2 + 1 y_2_ ^ 2 ] <= 45430.91623481496
c102: 42 x_3_ - 82 y_3_ + [ 1 x_3_ ^ 2 + 1 y_3_ ^ 2 ] <= 53893.704188978125
c103: 42 x_4_ - 82 y_4_ + [ 1 x_4_ ^ 2 + 1 y_4_ ^ 2 ] <= 157378.9941004183
c104: 42 x_5_ - 82 y_5_ + [ 1 x_5_ ^ 2 + 1 y_5_ ^ 2 ] <= 74688.13778731877
c105: 42 x_6_ - 82 y_6_ + [ 1 x_6_ ^ 2 + 1 y_6_ ^ 2 ] <= 29756.951750386914
c106: 42 x_7_ - 82 y_7_ + [ 1 x_7_ ^ 2 + 1 y_7_ ^ 2 ] <= 25188.399999999994
c107: 42 x_8_ - 82 y_8_ + [ 1 x_8_ ^ 2 + 1 y_8_ ^ 2 ] <= 158920.64190320458
c108: 42 x_9_ - 82 y_9_ + [ 1 x_9_ ^ 2 + 1 y_9_ ^ 2 ] <= 50431.90412154111
c109: 42 x_10_ - 82 y_10_ + [ 1 x_10_ ^ 2 + 1 y_10_ ^ 2 ] <= 52231.344401309645
c110: 42 x_11_ - 82 y_11_ + [ 1 x_11_ ^ 2 + 1 y_11_ ^ 2 ] <= 28672.9196753117
c111: 42 x_12_ - 82 y_12_ + [ 1 x_12_ ^ 2 + 1 y_12_ ^ 2 ] <= 51618.789864939805
c112: 42 x_13_ - 82 y_13_ + [ 1 x_13_ ^ 2 + 1 y_13_ ^ 2 ] <= 119594.66472851239
c113: 42 x_14_ - 82 y_14_ + [ 1 x_14_ ^ 2 + 1 y_14_ ^ 2 ] <= 66678.5692560536
c114: 42 x_15_ - 82 y_15_ + [ 1 x_15_ ^ 2 + 1 y_15_ ^ 2 ] <= 50880.66548837749
c115: 42 x_16_ - 82 y_16_ + [ 1 x_16_ ^ 2 + 1 y_16_ ^ 2 ] <= 76931.10076119083
c116: 42 x_17_ - 82 y_17_ + [ 1 x_17_ ^ 2 + 1 y_17_ ^ 2 ] <= 109267.53848883946
c117: 42 x_18_ - 82 y_18_ + [ 1 x_18_ ^ 2 + 1 y_18_ ^ 2 ] <= 91957.15843561289
c118: 42 x_19_ - 82 y_19_ + [ 1 x_19_ ^ 2 + 1 y_19_ ^ 2 ] <= 72885.23538833814
c119: 42 x_20_ - 82 y_20_ + [ 1 x_20_ ^ 2 + 1 y_20_ ^ 2 ] <= 109323.35469607795
c120: 42 x_22_ - 82 y_22_ + [ 1 x_22_ ^ 2 + 1 y_22_ ^ 2 ] <= 156383.94405715683
c121: 42 x_23_ - 82 y_23_ + [ 1 x_23_ ^ 2 + 1 y_23_ ^ 2 ] <= 213712.9737303469
c122: 42 x_24_ - 82 y_24_ + [ 1 x_24_ ^ 2 + 1 y_24_ ^ 2 ] <= 76872.96818533771
c123: 42 x_25_ - 82 y_25_ + [ 1 x_25_ ^ 2 + 1 y_25_ ^ 2 ] <= 180593.04483494777
c124: 42 x_26_ - 82 y_26_ + [ 1 x_26_ ^ 2 + 1 y_26_ ^ 2 ] <= 362388.78140636184
c125: 42 x_27_ - 82 y_27_ + [ 1 x_27_ ^ 2 + 1 y_27_ ^ 2 ] <= 94641.54504880382
c126: 42 x_28_ - 82 y_28_ + [ 1 x_28_ ^ 2 + 1 y_28_ ^ 2 ] <= 195161.205491522
c127: 42 x_29_ - 82 y_29_ + [ 1 x_29_ ^ 2 + 1 y_29_ ^ 2 ] <= 146864.4101412278
c128: 42 x_30_ - 82 y_30_ + [ 1 x_30_ ^ 2 + 1 y_30_ ^ 2 ] <= 163969.37808109194
c129: 42 x_31_ - 82 y_31_ + [ 1 x_31_ ^ 2 + 1 y_31_ ^ 2 ] <= 128416.95597813718
c130: 42 x_32_ - 82 y_32_ + [ 1 x_32_ ^ 2 + 1 y_32_ ^ 2 ] <= 110902.94080830253
c131: 42 x_33_ - 82 y_33_ + [ 1 x_33_ ^ 2 + 1 y_33_ ^ 2 ] <= 98478.4951756311
c132: 42 x_34_ - 82 y_34_ + [ 1 x_34_ ^ 2 + 1 y_34_ ^ 2 ] <= 157511.356112955
c133: 42 x_35_ - 82 y_35_ + [ 1 x_35_ ^ 2 + 1 y_35_ ^ 2 ] <= 103123.10384666403
c134: 42 x_36_ - 82 y_36_ + [ 1 x_36_ ^ 2 + 1 y_36_ ^ 2 ] <= 102292.83243747588
c135: 42 x_37_ - 82 y_37_ + [ 1 x_37_ ^ 2 + 1 y_37_ ^ 2 ] <= 101868.15412677896
c136: 42 x_38_ - 82 y_38_ + [ 1 x_38_ ^ 2 + 1 y_38_ ^ 2 ] <= 110895.2283868996
c137: 42 x_39_ - 82 y_39_ + [ 1 x_39_ ^ 2 + 1 y_39_ ^ 2 ] <= 144509.5865410253
c138: 42 x_40_ - 82 y_40_ + [ 1 x_40_ ^ 2 + 1 y_40_ ^ 2 ] <= 14614.809391317765
c139: 42 x_41_ - 82 y_41_ + [ 1 x_41_ ^ 2 + 1 y_41_ ^ 2 ] <= 88777.91051376158
c140: 42 x_42_ - 82 y_42_ + [ 1 x_42_ ^ 2 + 1 y_42_ ^ 2 ] <= 208622.257028684
c141: 42 x_43_ - 82 y_43_ + [ 1 x_43_ ^ 2 + 1 y_43_ ^ 2 ] <= 96688.07238507214
c142: 42 x_44_ - 82 y_44_ + [ 1 x_44_ ^ 2 + 1 y_44_ ^ 2 ] <= 103861.31593367353
c143: 42 x_45_ - 82 y_45_ + [ 1 x_45_ ^ 2 + 1 y_45_ ^ 2 ] <= 98503.76132759923
c144: 42 x_46_ - 82 y_46_ + [ 1 x_46_ ^ 2 + 1 y_46_ ^ 2 ] <= 281049.73812931095
c145: 42 x_47_ - 82 y_47_ + [ 1 x_47_ ^ 2 + 1 y_47_ ^ 2 ] <= 66153.405970719
c146: 42 x_48_ - 82 y_48_ + [ 1 x_48_ ^ 2 + 1 y_48_ ^ 2 ] <= 71812.00148123346
c147: 42 x_49_ - 82 y_49_ + [ 1 x_49_ ^ 2 + 1 y_49_ ^ 2 ] <= 90745.95084065497
c148: 42 x_50_ - 82 y_50_ + [ 1 x_50_ ^ 2 + 1 y_50_ ^ 2 ] <= 156458.8264491454
c149: 42 x_51_ - 82 y_51_ + [ 1 x_51_ ^ 2 + 1 y_51_ ^ 2 ] <= 3132.0199999999986
c150: 42 x_52_ - 82 y_52_ + [ 1 x_52_ ^ 2 + 1 y_52_ ^ 2 ] <= 268268.652152279
c151: 42 x_53_ - 82 y_53_ + [ 1 x_53_ ^ 2 + 1 y_53_ ^ 2 ] <= 72500.12535400417
c152: 42 x_54_ - 82 y_54_ + [ 1 x_54_ ^ 2 + 1 y_54_ ^ 2 ] <= 64577.27409950219
c153: 42 x_55_ - 82 y_55_ + [ 1 x_55_ ^ 2 + 1 y_55_ ^ 2 ] <= 139797.5031033789
c154: 42 x_56_ - 82 y_56_ + [ 1 x_56_ ^ 2 + 1 y_56_ ^ 2 ] <= 154583.27483633274
c155: 42 x_57_ - 82 y_57_ + [ 1 x_57_ ^ 2 + 1 y_57_ ^ 2 ] <= 34095.29784281838
c156: 42 x_58_ - 82 y_58_ + [ 1 x_58_ ^ 2 + 1 y_58_ ^ 2 ] <= 115632.14177476955
c157: 42 x_59_ - 82 y_59_ + [ 1 x_59_ ^ 2 + 1 y_59_ ^ 2 ] <= 215644.26282406822
c158: 42 x_60_ - 82 y_60_ + [ 1 x_60_ ^ 2 + 1 y_60_ ^ 2 ] <= 163307.8226322122
c159: 42 x_61_ - 82 y_61_ + [ 1 x_61_ ^ 2 + 1 y_61_ ^ 2 ] <= 244310.02401313084
c160: 42 x_62_ - 82 y_62_ + [ 1 x_62_ ^ 2 + 1 y_62_ ^ 2 ] <= 100706.05661667157
c161: 42 x_63_ - 82 y_63_ + [ 1 x_63_ ^ 2 + 1 y_63_ ^ 2 ] <= 150736.17317650202
c162: 42 x_64_ - 82 y_64_ + [ 1 x_64_ ^ 2 + 1 y_64_ ^ 2 ] <= 125328.70445432058
c163: 42 x_65_ - 82 y_65_ + [ 1 x_65_ ^ 2 + 1 y_65_ ^ 2 ] <= 125757.45502887582
c164: 42 x_66_ - 82 y_66_ + [ 1 x_66_ ^ 2 + 1 y_66_ ^ 2 ] <= 69876.7019579655
c165: 42 x_67_ - 82 y_67_ + [ 1 x_67_ ^ 2 + 1 y_67_ ^ 2 ] <= 153886.00230504593
c166: 42 x_68_ - 82 y_68_ + [ 1 x_68_ ^ 2 + 1 y_68_ ^ 2 ] <= 141034.70521459813
c167: 42 x_69_ - 82 y_69_ + [ 1 x_69_ ^ 2 + 1 y_69_ ^ 2 ] <= 188483.73232107042
c168: 42 x_70_ - 82 y_70_ + [ 1 x_70_ ^ 2 + 1 y_70_ ^ 2 ] <= 85033.41730728345
c169: 42 x_71_ - 82 y_71_ + [ 1 x_71_ ^ 2 + 1 y_71_ ^ 2 ] <= 102963.97696137436
c170: 42 x_72_ - 82 y_72_ + [ 1 x_72_ ^ 2 + 1 y_72_ ^ 2 ] <= 171867.35438013988
c171: 42 x_73_ - 82 y_73_ + [ 1 x_73_ ^ 2 + 1 y_73_ ^ 2 ] <= 195414.35251550545
c172: 42 x_74_ - 82 y_74_ + [ 1 x_74_ ^ 2 + 1 y_74_ ^ 2 ] <= 162269.35699485434
c173: 42 x_75_ - 82 y_75_ + [ 1 x_75_ ^ 2 + 1 y_75_ ^ 2 ] <= 44487.02531675428
c174: 42 x_76_ - 82 y_76_ + [ 1 x_76_ ^ 2 + 1 y_76_ ^ 2 ] <= 33944.88838620962
c175: 42 x_77_ - 82 y_77_ + [ 1 x_77_ ^ 2 + 1 y_77_ ^ 2 ] <= 146018.10064075183
c176: 42 x_78_ - 82 y_78_ + [ 1 x_78_ ^ 2 + 1 y_78_ ^ 2 ] <= 201526.84801457735
c177: 42 x_79_ - 82 y_79_ + [ 1 x_79_ ^ 2 + 1 y_79_ ^ 2 ] <= 149579.29651197908
c178: 42 x_80_ - 82 y_80_ + [ 1 x_80_ ^ 2 + 1 y_80_ ^ 2 ] <= 162126.0572298301
c179: 42 x_81_ - 82 y_81_ + [ 1 x_81_ ^ 2 + 1 y_81_ ^ 2 ] <= 173100.86938509712
c180: 42 x_82_ - 82 y_82_ + [ 1 x_82_ ^ 2 + 1 y_82_ ^ 2 ] <= 132718.4316170881
c181: 42 x_83_ - 82 y_83_ + [ 1 x_83_ ^ 2 + 1 y_83_ ^ 2 ] <= 509.0499999999997
c182: 42 x_84_ - 82 y_84_ + [ 1 x_84_ ^ 2 + 1 y_84_ ^ 2 ] <= 169010.46349288625
c183: 42 x_85_ - 82 y_85_ + [ 1 x_85_ ^ 2 + 1 y_85_ ^ 2 ] <= 111763.97895368424
c184: 42 x_86_ - 82 y_86_ + [ 1 x_86_ ^ 2 + 1 y_86_ ^ 2 ] <= 154601.08964672495
c185: 42 x_87_ - 82 y_87_ + [ 1 x_87_ ^ 2 + 1 y_87_ ^ 2 ] <= 119582.3426599117
c186: 42 x_88_ - 82 y_88_ + [ 1 x_88_ ^ 2 + 1 y_88_ ^ 2 ] <= 129854.32510555373
c187: 42 x_89_ - 82 y_89_ + [ 1 x_89_ ^ 2 + 1 y_89_ ^ 2 ] <= 124913.44668798057
c188: 42 x_90_ - 82 y_90_ + [ 1 x_90_ ^ 2 + 1 y_90_ ^ 2 ] <= 142927.7067022449
c189: 42 x_91_ - 82 y_91_ + [ 1 x_91_ ^ 2 + 1 y_91_ ^ 2 ] <= 154802.43933353314
c190: 42 x_92_ - 82 y_92_ + [ 1 x_92_ ^ 2 + 1 y_92_ ^ 2 ] <= 105428.13614997639
c191: 42 x_93_ - 82 y_93_ + [ 1 x_93_ ^ 2 + 1 y_93_ ^ 2 ] <= 75256.5945212601
c192: 42 x_94_ - 82 y_94_ + [ 1 x_94_ ^ 2 + 1 y_94_ ^ 2 ] <= 142111.4132582137
c193: 42 x_95_ - 82 y_95_ + [ 1 x_95_ ^ 2 + 1 y_95_ ^ 2 ] <= 74776.87888439179
c194: 42 x_96_ - 82 y_96_ + [ 1 x_96_ ^ 2 + 1 y_96_ ^ 2 ] <= 156851.6412235323
c195: 42 x_97_ - 82 y_97_ + [ 1 x_97_ ^ 2 + 1 y_97_ ^ 2 ] <= 93376.82717724501
c196: 42 x_98_ - 82 y_98_ + [ 1 x_98_ ^ 2 + 1 y_98_ ^ 2 ] <= 89779.23640035081
c197: 42 x_99_ - 82 y_99_ + [ 1 x_99_ ^ 2 + 1 y_99_ ^ 2 ] <= 151990.8906217836
c198: 42 x_100_ - 82 y_100_ + [ 1 x_100_ ^ 2 + 1 y_100_ ^ 2 ] <= 184781.0344696692
c199: 150 x_1_ - 64 y_1_ + [ 1 x_1_ ^ 2 + 1 y_1_ ^ 2 ] <= 93033.4640735074
c200: 150 x_2_ - 64 y_2_ + [ 1 x_2_ ^ 2 + 1 y_2_ ^ 2 ] <= 74781.37501132596
c201: 150 x_3_ - 64 y_3_ + [ 1 x_3_ ^ 2 + 1 y_3_ ^ 2 ] <= 59263.24322317475
c202: 150 x_4_ - 64 y_4_ + [ 1 x_4_ ^ 2 + 1 y_4_ ^ 2 ] <= 116308.21772277662
c203: 150 x_5_ - 64 y_5_ + [ 1 x_5_ ^ 2 + 1 y_5_ ^ 2 ] <= 43171.48608833213
c204: 150 x_6_ - 64 y_6_ + [ 1 x_6_ ^ 2 + 1 y_6_ ^ 2 ] <= 8877.503114011428
c205: 150 x_7_ - 64 y_7_ + [ 1 x_7_ ^ 2 + 1 y_7_ ^ 2 ] <= 55558.24539728641
c206: 150 x_8_ - 64 y_8_ + [ 1 x_8_ ^ 2 + 1 y_8_ ^ 2 ] <= 136970.09842566933
c207: 150 x_9_ - 64 y_9_ + [ 1 x_9_ ^ 2 + 1 y_9_ ^ 2 ] <= 24082.841309703654
c208: 150 x_10_ - 64 y_10_ + [ 1 x_10_ ^ 2 + 1 y_10_ ^ 2 ] <= 77799.54165540964
c209: 150 x_11_ - 64 y_11_ + [ 1 x_11_ ^ 2 + 1 y_11_ ^ 2 ] <= 14307.489999999998
c210: 150 x_12_ - 64 y_12_ + [ 1 x_12_ ^ 2 + 1 y_12_ ^ 2 ] <= 24992.013545732163
c211: 150 x_13_ - 64 y_13_ + [ 1 x_13_ ^ 2 + 1 y_13_ ^ 2 ] <= 119683.91712990437
c212: 150 x_14_ - 64 y_14_ + [ 1 x_14_ ^ 2 + 1 y_14_ ^ 2 ] <= 73075.94140897511
c213: 150 x_15_ - 64 y_15_ + [ 1 x_15_ ^ 2 + 1 y_15_ ^ 2 ] <= 24426.234145942748
c214: 150 x_16_ - 64 y_16_ + [ 1 x_16_ ^ 2 + 1 y_16_ ^ 2 ] <= 41651.7906791714
c215: 150 x_17_ - 64 y_17_ + [ 1 x_17_ ^ 2 + 1 y_17_ ^ 2 ] <= 21302.669557289748
c216: 150 x_18_ - 64 y_18_ + [ 1 x_18_ ^ 2 + 1 y_18_ ^ 2 ] <= 69528.11116286142
c217: 150 x_19_ - 64 y_19_ + [ 1 x_19_ ^ 2 + 1 y_19_ ^ 2 ] <= 79746.97159466225
c218: 150 x_20_ - 64 y_20_ + [ 1 x_20_ ^ 2 + 1 y_20_ ^ 2 ] <= 29599.28527679907
c219: 150 x_21_ - 64 y_21_ + [ 1 x_21_ ^ 2 + 1 y_21_ ^ 2 ] <= 85252.23640035081
c220: 150 x_22_ - 64 y_22_ + [ 1 x_22_ ^ 2 + 1 y_22_ ^ 2 ] <= 113844.76172423462
c221: 150 x_23_ - 64 y_23_ + [ 1 x_23_ ^ 2 + 1 y_23_ ^ 2 ] <= 171001.71348378906
c222: 150 x_24_ - 64 y_24_ + [ 1 x_24_ ^ 2 + 1 y_24_ ^ 2 ] <= 44934.06160703688
c223: 150 x_25_ - 64 y_25_ + [ 1 x_25_ ^ 2 + 1 y_25_ ^ 2 ] <= 228492.66443379188
c224: 150 x_26_ - 64 y_26_ + [ 1 x_26_ ^ 2 + 1 y_26_ ^ 2 ] <= 310969.57447107584
c225: 150 x_27_ - 64 y_27_ + [ 1 x_27_ ^ 2 + 1 y_27_ ^ 2 ] <= 36940.27042525466
c226: 150 x_28_ - 64 y_28_ + [ 1 x_28_ ^ 2 + 1 y_28_ ^ 2 ] <= 134887.31381880265
c227: 150 x_29_ - 64 y_29_ + [ 1 x_29_ ^ 2 + 1 y_29_ ^ 2 ] <= 103605.67216367561
c228: 150 x_30_ - 64 y_30_ + [ 1 x_30_ ^ 2 + 1 y_30_ ^ 2 ] <= 135345.7083604971
c229: 150 x_31_ - 64 y_31_ + [ 1 x_31_ ^ 2 + 1 y_31_ ^ 2 ] <= 87821.39340331244
c230: 150 x_32_ - 64 y_32_ + [ 1 x_32_ ^ 2 + 1 y_32_ ^ 2 ] <= 120264.52788316294
c231: 150 x_33_ - 64 y_33_ + [ 1 x_33_ ^ 2 + 1 y_33_ ^ 2 ] <= 107077.25772744702
c232: 150 x_34_ - 64 y_34_ + [ 1 x_34_ ^ 2 + 1 y_34_ ^ 2 ] <= 144425.8548665985
c233: 150 x_35_ - 64 y_35_ + [ 1 x_35_ ^ 2 + 1 y_35_ ^ 2 ] <= -51.30882583928178
c234: 150 x_36_ - 64 y_36_ + [ 1 x_36_ ^ 2 + 1 y_36_ ^ 2 ] <= 122464.51628176926
c235: 150 x_37_ - 64 y_37_ + [ 1 x_37_ ^ 2 + 1 y_37_ ^ 2 ] <= 78471.27795760367
c236: 150 x_38_ - 64 y_38_ + [ 1 x_38_ ^ 2 + 1 y_38_ ^ 2 ] <= -488.0000000000018
c237: 150 x_39_ - 64 y_39_ + [ 1 x_39_ ^ 2 + 1 y_39_ ^ 2 ] <= 101581.2435921573
c238: 150 x_40_ - 64 y_40_ + [ 1 x_40_ ^ 2 + 1 y_40_ ^ 2 ] <= 46735.07361447837
c239: 150 x_41_ - 64 y_41_ + [ 1 x_41_ ^ 2 + 1 y_41_ ^ 2 ] <= 96747.68451573816
c240: 150 x_42_ - 64 y_42_ + [ 1 x_42_ ^ 2 + 1 y_42_ ^ 2 ] <= 157479.30289822732
c241: 150 x_43_ - 64 y_43_ + [ 1 x_43_ ^ 2 + 1 y_43_ ^ 2 ] <= 160407.7225904192
c242: 150 x_44_ - 64 y_44_ + [ 1 x_44_ ^ 2 + 1 y_44_ ^ 2 ] <= 112796.03950214021
c243: 150 x_45_ - 64 y_45_ + [ 1 x_45_ ^ 2 + 1 y_45_ ^ 2 ] <= 75430.03616324582
c244: 150 x_46_ - 64 y_46_ + [ 1 x_46_ ^ 2 + 1 y_46_ ^ 2 ] <= 235383.65300263788
c245: 150 x_47_ - 64 y_47_ + [ 1 x_47_ ^ 2 + 1 y_47_ ^ 2 ] <= 94957.60185894709
c246: 150 x_48_ - 64 y_48_ + [ 1 x_48_ ^ 2 + 1 y_48_ ^ 2 ] <= 40860.476871080646
c247: 150 x_49_ - 64 y_49_ + [ 1 x_49_ ^ 2 + 1 y_49_ ^ 2 ] <= 56252.164528289446
c248: 150 x_50_ - 64 y_50_ + [ 1 x_50_ ^ 2 + 1 y_50_ ^ 2 ] <= 172682.77365876286
c249: 150 x_51_ - 64 y_51_ + [ 1 x_51_ ^ 2 + 1 y_51_ ^ 2 ] <= 54737.88078560996
c250: 150 x_52_ - 64 y_52_ + [ 1 x_52_ ^ 2 + 1 y_52_ ^ 2 ] <= 215444.3543255413
c251: 150 x_53_ - 64 y_53_ + [ 1 x_53_ ^ 2 + 1 y_53_ ^ 2 ] <= -5750.1
c252: 150 x_54_ - 64 y_54_ + [ 1 x_54_ ^ 2 + 1 y_54_ ^ 2 ] <= 107515.03627756816
c253: 150 x_55_ - 64 y_55_ + [ 1 x_55_ ^ 2 + 1 y_55_ ^ 2 ] <= 97538.35595260945
c254: 150 x_56_ - 64 y_56_ + [ 1 x_56_ ^ 2 + 1 y_56_ ^ 2 ] <= 105221.68048080719
c255: 150 x_57_ - 64 y_57_ + [ 1 x_57_ ^ 2 + 1 y_57_ ^ 2 ] <= 127005.27073290086
c256: 150 x_58_ - 64 y_58_ + [ 1 x_58_ ^ 2 + 1 y_58_ ^ 2 ] <= 15028.800226045423
c257: 150 x_59_ - 64 y_59_ + [ 1 x_59_ ^ 2 + 1 y_59_ ^ 2 ] <= 216006.8765893331
c258: 150 x_60_ - 64 y_60_ + [ 1 x_60_ ^ 2 + 1 y_60_ ^ 2 ] <= 134266.20876839219
c259: 150 x_61_ - 64 y_61_ + [ 1 x_61_ ^ 2 + 1 y_61_ ^ 2 ] <= 210225.5848475204
c260: 150 x_62_ - 64 y_62_ + [ 1 x_62_ ^ 2 + 1 y_62_ ^ 2 ] <= 86799.59956586927
c261: 150 x_63_ - 64 y_63_ + [ 1 x_63_ ^ 2 + 1 y_63_ ^ 2 ] <= 123130.7463624494
c262: 150 x_64_ - 64 y_64_ + [ 1 x_64_ ^ 2 + 1 y_64_ ^ 2 ] <= 150012.58180610198
c263: 150 x_65_ - 64 y_65_ + [ 1 x_65_ ^ 2 + 1 y_65_ ^ 2 ] <= 81093.10938355113
c264: 150 x_66_ - 64 y_66_ + [ 1 x_66_ ^ 2 + 1 y_66_ ^ 2 ] <= 79539.91159562283
c265: 150 x_67_ - 64 y_67_ + [ 1 x_67_ ^ 2 + 1 y_67_ ^ 2 ] <= 198053.64010693796
c266: 150 x_68_ - 64 y_68_ + [ 1 x_68_ ^ 2 + 1 y_68_ ^ 2 ] <= 152087.88475009095
c267: 150 x_69_ - 64 y_69_ + [ 1 x_69_ ^ 2 + 1 y_69_ ^ 2 ] <= 79281.86399285127
c268: 150 x_70_ - 64 y_70_ + [ 1 x_70_ ^ 2 + 1 y_70_ ^ 2 ] <= 155029.41976629966
c269: 150 x_71_ - 64 y_71_ + [ 1 x_71_ ^ 2 + 1 y_71_ ^ 2 ] <= 111843.29728158064
c270: 150 x_72_ - 64 y_72_ + [ 1 x_72_ ^ 2 + 1 y_72_ ^ 2 ] <= 125249.9306476501
c271: 150 x_73_ - 64 y_73_ + [ 1 x_73_ ^ 2 + 1 y_73_ ^ 2 ] <= 255708.3039063739
c272: 150 x_74_ - 64 y_74_ + [ 1 x_74_ ^ 2 + 1 y_74_ ^ 2 ] <= 174409.3078054522
c273: 150 x_75_ - 64 y_75_ + [ 1 x_75_ ^ 2 + 1 y_75_ ^ 2 ] <= 146365.262980286
c274: 150 x_76_ - 64 y_76_ + [ 1 x_76_ ^ 2 + 1 y_76_ ^ 2 ] <= 145823.66836016538
c275: 150 x_77_ - 64 y_77_ + [ 1 x_77_ ^ 2 + 1 y_77_ ^ 2 ] <= 65322.258119114806
c276: 150 x_78_ - 64 y_78_ + [ 1 x_78_ ^ 2 + 1 y_78_ ^ 2 ] <= 212387.2964957084
c277: 150 x_79_ - 64 y_79_ + [ 1 x_79_ ^ 2 + 1 y_79_ ^ 2 ] <= 96736.32734788844
c278: 150 x_80_ - 64 y_80_ + [ 1 x_80_ ^ 2 + 1 y_80_ ^ 2 ] <= 133641.7276542894
c279: 150 x_81_ - 64 y_81_ + [ 1 x_81_ ^ 2 + 1 y_81_ ^ 2 ] <= 143798.062946125
c280: 150 x_82_ - 64 y_82_ + [ 1 x_82_ ^ 2 + 1 y_82_ ^ 2 ] <= 132044.8108458577
c281: 150 x_83_ - 64 y_83_ + [ 1 x_83_ ^ 2 + 1 y_83_ ^ 2 ] <= 56783.65630408485
c282: 150 x_84_ - 64 y_84_ + [ 1 x_84_ ^ 2 + 1 y_84_ ^ 2 ] <= 40771.3720431212
c283: 150 x_85_ - 64 y_85_ + [ 1 x_85_ ^ 2 + 1 y_85_ ^ 2 ] <= 87445.77728889186
c284: 150 x_86_ - 64 y_86_ + [ 1 x_86_ ^ 2 + 1 y_86_ ^ 2 ] <= 110274.8414764158
c285: 150 x_87_ - 64 y_87_ + [ 1 x_87_ ^ 2 + 1 y_87_ ^ 2 ] <= 140539.21226586343
c286: 150 x_88_ - 64 y_88_ + [ 1 x_88_ ^ 2 + 1 y_88_ ^ 2 ] <= 103949.95520632024
c287: 150 x_89_ - 64 y_89_ + [ 1 x_89_ ^ 2 + 1 y_89_ ^ 2 ] <= 176222.68716419538
c288: 150 x_90_ - 64 y_90_ + [ 1 x_90_ ^ 2 + 1 y_90_ ^ 2 ] <= 100222.80220524984
c289: 150 x_91_ - 64 y_91_ + [ 1 x_91_ ^ 2 + 1 y_91_ ^ 2 ] <= 79698.19820761599
c290: 150 x_92_ - 64 y_92_ + [ 1 x_92_ ^ 2 + 1 y_92_ ^ 2 ] <= 31684.71453095387
c291: 150 x_93_ - 64 y_93_ + [ 1 x_93_ ^ 2 + 1 y_93_ ^ 2 ] <= 116.17382417082536
c292: 150 x_94_ - 64 y_94_ + [ 1 x_94_ ^ 2 + 1 y_94_ ^ 2 ] <= 191092.45740083634
c293: 150 x_95_ - 64 y_95_ + [ 1 x_95_ ^ 2 + 1 y_95_ ^ 2 ] <= 54155.27253352163
c294: 150 x_96_ - 64 y_96_ + [ 1 x_96_ ^ 2 + 1 y_96_ ^ 2 ] <= 93310.22145168259
c295: 150 x_97_ - 64 y_97_ + [ 1 x_97_ ^ 2 + 1 y_97_ ^ 2 ] <= 58420.61088198024
c296: 150 x_99_ - 64 y_99_ + [ 1 x_99_ ^ 2 + 1 y_99_ ^ 2 ] <= 202632.27311995527
c297: 150 x_100_ - 64 y_100_ + [ 1 x_100_ ^ 2 + 1 y_100_ ^ 2 ] <= 215310.1691552023
quadratic_ranged_1_ub: [ 1 x_1_ ^ 2 - 2 x_4_ * x_1_ + 1 x_4_ ^ 2 + 1 y_1_ ^ 2 - 2 y_4_ * y_1_ + 1 y_4_ ^ 2 ] <= 11462.49
quadratic_ranged_2_ub: [ 1 x_3_ ^ 2 - 2 x_4_ * x_3_ + 1 x_4_ ^ 2 + 1 y_3_ ^ 2 - 2 y_4_ * y_3_ + 1 y_4_ ^ 2 ] <= 26471.09
quadratic_ranged_3_ub: [ 1 x_1_ ^ 2 - 2 x_5_ * x_1_ + 1 x_5_ ^ 2 + 1 y_1_ ^ 2 - 2 y_5_ * y_1_ + 1 y_5_ ^ 2 ] <= 8613.28
quadratic_ranged_4_ub: [ 1 x_2_ ^ 2 - 2 x_5_ * x_2_ + 1 x_5_ ^ 2 + 1 y_2_ ^ 2 - 2 y_5_ * y_2_ + 1 y_5_ ^ 2 ] <= 3863.25
quadratic_ranged_5_ub: [ 1 x_3_ ^ 2 - 2 x_7_ * x_3_ + 1 x_7_ ^ 2 + 1 y_3_ ^ 2 - 2 y_7_ * y_3_ + 1 y_7_ ^ 2 ] <= 5100.5
quadratic_ranged_6_ub: [ 1 x_3_ ^ 2 - 2 x_8_ * x_3_ + 1 x_8_ ^ 2 + 1 y_3_ ^ 2 - 2 y_8_ * y_3_ + 1 y_8_ ^ 2 ] <= 27101.33
quadratic_ranged_7_ub: [ 1 x_4_ ^ 2 - 2 x_8_ * x_4_ + 1 x_8_ ^ 2 + 1 y_4_ ^ 2 - 2 y_8_ * y_4_ + 1 y_8_ ^ 2 ] <= 801.94
quadratic_ranged_8_ub: [ 1 x_3_ ^ 2 - 2 x_9_ * x_3_ + 1 x_9_ ^ 2 + 1 y_3_ ^ 2 - 2 y_9_ * y_3_ + 1 y_9_ ^ 2 ] <= 6630.65
quadratic_ranged_9_ub: [ 1 x_6_ ^ 2 - 2 x_9_ * x_6_ + 1 x_9_ ^ 2 + 1 y_6_ ^ 2 - 2 y_9_ * y_6_ + 1 y_9_ ^ 2 ] <= 2570.45
quadratic_ranged_10_ub: [ 1 x_7_ ^ 2 - 2 x_10_ * x_7_ + 1 x_10_ ^ 2 + 1 y_7_ ^ 2 - 2 y_10_ * y_7_ + 1 y_10_ ^ 2 ] <= 4607.62
quadratic_ranged_11_ub: [ 1 x_6_ ^ 2 - 2 x_12_ * x_6_ + 1 x_12_ ^ 2 + 1 y_6_ ^ 2 - 2 y_12_ * y_6_ + 1 y_12_ ^ 2 ] <= 2838.1
quadratic_ranged_12_ub: [ 1 x_9_ ^ 2 - 2 x_12_ * x_9_ + 1 x_12_ ^ 2 + 1 y_9_ ^ 2 - 2 y_12_ * y_9_ + 1 y_12_ ^ 2 ] <= 9648.53
quadratic_ranged_13_ub: [ 1 x_2_ ^ 2 - 2 x_13_ * x_2_ + 1 x_13_ ^ 2 + 1 y_2_ ^ 2 - 2 y_13_ * y_2_ + 1 y_13_ ^ 2 ] <= 38809.25
quadratic_ranged_14_ub: [ 1 x_9_ ^ 2 - 2 x_13_ * x_9_ + 1 x_13_ ^ 2 + 1 y_9_ ^ 2 - 2 y_13_ * y_9_ + 1 y_13_ ^ 2 ] <= 32446.25
quadratic_ranged_15_ub: [ 1 x_1_ ^ 2 - 2 x_14_ * x_1_ + 1 x_14_ ^ 2 + 1 y_1_ ^ 2 - 2 y_14_ * y_1_ + 1 y_14_ ^ 2 ] <= 24054.16
quadratic_ranged_16_ub: [ 1 x_3_ ^ 2 - 2 x_14_ * x_3_ + 1 x_14_ ^ 2 + 1 y_3_ ^ 2 - 2 y_14_ * y_3_ + 1 y_14_ ^ 2 ] <= 656.5
quadratic_ranged_17_ub: [ 1 x_4_ ^ 2 - 2 x_14_ * x_4_ + 1 x_14_ ^ 2 + 1 y_4_ ^ 2 - 2 y_14_ * y_4_ + 1 y_14_ ^ 2 ] <= 30220.21
quadratic_ranged_18_ub: [ 1 x_1_ ^ 2 - 2 x_15_ * x_1_ + 1 x_15_ ^ 2 + 1 y_1_ ^ 2 - 2 y_15_ * y_1_ + 1 y_15_ ^ 2 ] <= 19444.52
quadratic_ranged_19_ub: [ 1 x_5_ ^ 2 - 2 x_15_ * x_5_ + 1 x_15_ ^ 2 + 1 y_5_ ^ 2 - 2 y_15_ * y_5_ + 1 y_15_ ^ 2 ] <= 2201.8
quadratic_ranged_20_ub: [ 1 x_6_ ^ 2 - 2 x_15_ * x_6_ + 1 x_15_ ^ 2 + 1 y_6_ ^ 2 - 2 y_15_ * y_6_ + 1 y_15_ ^ 2 ] <= 2670.44
quadratic_ranged_21_ub: [ 1 x_6_ ^ 2 - 2 x_16_ * x_6_ + 1 x_16_ ^ 2 + 1 y_6_ ^ 2 - 2 y_16_ * y_6_ + 1 y_16_ ^ 2 ] <= 10530.26
quadratic_ranged_22_ub: [ 1 x_16_ ^ 2 - 2 x_17_ * x_16_ + 1 x_17_ ^ 2 + 1 y_16_ ^ 2 - 2 y_17_ * y_16_ + 1 y_17_ ^ 2 ] <= 2765.38
quadratic_ranged_23_ub: [ 1 x_11_ ^ 2 - 2 x_18_ * x_11_ + 1 x_18_ ^ 2 + 1 y_11_ ^ 2 - 2 y_18_ * y_11_ + 1 y_18_ ^ 2 ] <= 17223.53
quadratic_ranged_24_ub: [ 1 x_3_ ^ 2 - 2 x_19_ * x_3_ + 1 x_19_ ^ 2 + 1 y_3_ ^ 2 - 2 y_19_ * y_3_ + 1 y_19_ ^ 2 ] <= 1383.7
quadratic_ranged_25_ub: [ 1 x_13_ ^ 2 - 2 x_19_ * x_13_ + 1 x_19_ ^ 2 + 1 y_13_ ^ 2 - 2 y_19_ * y_13_ + 1 y_19_ ^ 2 ] <= 5625.7
quadratic_ranged_26_ub: [ 1 x_3_ ^ 2 - 2 x_20_ * x_3_ + 1 x_20_ ^ 2 + 1 y_3_ ^ 2 - 2 y_20_ * y_3_ + 1 y_20_ ^ 2 ] <= 11349.37
quadratic_ranged_27_ub: [ 1 x_15_ ^ 2 - 2 x_20_ * x_15_ + 1 x_20_ ^ 2 + 1 y_15_ ^ 2 - 2 y_20_ * y_15_ + 1 y_20_ ^ 2 ] <= 10735.29
quadratic_ranged_28_ub: [ 1 x_7_ ^ 2 - 2 x_21_ * x_7_ + 1 x_21_ ^ 2 + 1 y_7_ ^ 2 - 2 y_21_ * y_7_ + 1 y_21_ ^ 2 ] <= 27310.4
quadratic_ranged_29_ub: [ 1 x_1_ ^ 2 - 2 x_22_ * x_1_ + 1 x_22_ ^ 2 + 1 y_1_ ^ 2 - 2 y_22_ * y_1_ + 1 y_22_ ^ 2 ] <= 985.76
quadratic_ranged_30_ub: [ 1 x_6_ ^ 2 - 2 x_24_ * x_6_ + 1 x_24_ ^ 2 + 1 y_6_ ^ 2 - 2 y_24_ * y_6_ + 1 y_24_ ^ 2 ] <= 10509.05
quadratic_ranged_31_ub: [ 1 x_11_ ^ 2 - 2 x_24_ * x_11_ + 1 x_24_ ^ 2 + 1 y_11_ ^ 2 - 2 y_24_ * y_11_ + 1 y_24_ ^ 2 ] <= 14690.45
quadratic_ranged_32_ub: [ 1 x_10_ ^ 2 - 2 x_25_ * x_10_ + 1 x_25_ ^ 2 + 1 y_10_ ^ 2 - 2 y_25_ * y_10_ + 1 y_25_ ^ 2 ] <= 37757.840000000004
quadratic_ranged_33_ub: [ 1 x_22_ ^ 2 - 2 x_25_ * x_22_ + 1 x_25_ ^ 2 + 1 y_22_ ^ 2 - 2 y_25_ * y_22_ + 1 y_25_ ^ 2 ] <= 19806.1
quadratic_ranged_34_ub: [ 1 x_7_ ^ 2 - 2 x_27_ * x_7_ + 1 x_27_ ^ 2 + 1 y_7_ ^ 2 - 2 y_27_ * y_7_ + 1 y_27_ ^ 2 ] <= 21260.5
quadratic_ranged_35_ub: [ 1 x_16_ ^ 2 - 2 x_27_ * x_16_ + 1 x_27_ ^ 2 + 1 y_16_ ^ 2 - 2 y_27_ * y_16_ + 1 y_27_ ^ 2 ] <= 27653.8
quadratic_ranged_36_ub: [ 1 x_22_ ^ 2 - 2 x_29_ * x_22_ + 1 x_29_ ^ 2 + 1 y_22_ ^ 2 - 2 y_29_ * y_22_ + 1 y_29_ ^ 2 ] <= 3338.05
quadratic_ranged_37_ub: [ 1 x_18_ ^ 2 - 2 x_30_ * x_18_ + 1 x_30_ ^ 2 + 1 y_18_ ^ 2 - 2 y_30_ * y_18_ + 1 y_30_ ^ 2 ] <= 10164.64
quadratic_ranged_38_ub: [ 1 x_5_ ^ 2 - 2 x_31_ * x_5_ + 1 x_31_ ^ 2 + 1 y_5_ ^ 2 - 2 y_31_ * y_5_ + 1 y_31_ ^ 2 ] <= 7082.12
quadratic_ranged_39_ub: [ 1 x_28_ ^ 2 - 2 x_31_ * x_28_ + 1 x_31_ ^ 2 + 1 y_28_ ^ 2 - 2 y_31_ * y_28_ + 1 y_31_ ^ 2 ] <= 17743.68
quadratic_ranged_40_ub: [ 1 x_19_ ^ 2 - 2 x_32_ * x_19_ + 1 x_32_ ^ 2 + 1 y_19_ ^ 2 - 2 y_32_ * y_19_ + 1 y_32_ ^ 2 ] <= 3883.45
quadratic_ranged_41_ub: [ 1 x_3_ ^ 2 - 2 x_33_ * x_3_ + 1 x_33_ ^ 2 + 1 y_3_ ^ 2 - 2 y_33_ * y_3_ + 1 y_33_ ^ 2 ] <= 6480.16
quadratic_ranged_42_ub: [ 1 x_8_ ^ 2 - 2 x_33_ * x_8_ + 1 x_33_ ^ 2 + 1 y_8_ ^ 2 - 2 y_33_ * y_8_ + 1 y_33_ ^ 2 ] <= 48190.13
quadratic_ranged_43_ub: [ 1 x_5_ ^ 2 - 2 x_34_ * x_5_ + 1 x_34_ ^ 2 + 1 y_5_ ^ 2 - 2 y_34_ * y_5_ + 1 y_34_ ^ 2 ] <= 27383.12
quadratic_ranged_44_ub: [ 1 x_13_ ^ 2 - 2 x_34_ * x_13_ + 1 x_34_ ^ 2 + 1 y_13_ ^ 2 - 2 y_34_ * y_13_ + 1 y_34_ ^ 2 ] <= 6474.1
quadratic_ranged_45_ub: [ 1 x_30_ ^ 2 - 2 x_34_ * x_30_ + 1 x_34_ ^ 2 + 1 y_30_ ^ 2 - 2 y_34_ * y_30_ + 1 y_34_ ^ 2 ] <= 35900.45
quadratic_ranged_46_ub: [ 1 x_7_ ^ 2 - 2 x_35_ * x_7_ + 1 x_35_ ^ 2 + 1 y_7_ ^ 2 - 2 y_35_ * y_7_ + 1 y_35_ ^ 2 ] <= 46549.89
quadratic_ranged_47_ub: [ 1 x_27_ ^ 2 - 2 x_35_ * x_27_ + 1 x_35_ ^ 2 + 1 y_27_ ^ 2 - 2 y_35_ * y_27_ + 1 y_35_ ^ 2 ] <= 16270.09
quadratic_ranged_48_ub: [ 1 x_1_ ^ 2 - 2 x_36_ * x_1_ + 1 x_36_ ^ 2 + 1 y_1_ ^ 2 - 2 y_36_ * y_1_ + 1 y_36_ ^ 2 ] <= 1900.82
quadratic_ranged_49_ub: [ 1 x_30_ ^ 2 - 2 x_36_ * x_30_ + 1 x_36_ ^ 2 + 1 y_30_ ^ 2 - 2 y_36_ * y_30_ + 1 y_36_ ^ 2 ] <= 27986.09
quadratic_ranged_50_ub: [ 1 x_18_ ^ 2 - 2 x_37_ * x_18_ + 1 x_37_ ^ 2 + 1 y_18_ ^ 2 - 2 y_37_ * y_18_ + 1 y_37_ ^ 2 ] <= 20080.82
quadratic_ranged_51_ub: [ 1 x_23_ ^ 2 - 2 x_37_ * x_23_ + 1 x_37_ ^ 2 + 1 y_23_ ^ 2 - 2 y_37_ * y_23_ + 1 y_37_ ^ 2 ] <= 20193.94
quadratic_ranged_52_ub: [ 1 x_24_ ^ 2 - 2 x_37_ * x_24_ + 1 x_37_ ^ 2 + 1 y_24_ ^ 2 - 2 y_37_ * y_24_ + 1 y_37_ ^ 2 ] <= 25068.2
quadratic_ranged_53_ub: [ 1 x_7_ ^ 2 - 2 x_38_ * x_7_ + 1 x_38_ ^ 2 + 1 y_7_ ^ 2 - 2 y_38_ * y_7_ + 1 y_38_ ^ 2 ] <= 29214.25
quadratic_ranged_54_ub: [ 1 x_12_ ^ 2 - 2 x_38_ * x_12_ + 1 x_38_ ^ 2 + 1 y_12_ ^ 2 - 2 y_38_ * y_12_ + 1 y_38_ ^ 2 ] <= 24584.41
quadratic_ranged_55_ub: [ 1 x_17_ ^ 2 - 2 x_38_ * x_17_ + 1 x_38_ ^ 2 + 1 y_17_ ^ 2 - 2 y_38_ * y_17_ + 1 y_38_ ^ 2 ] <= 7866.89
quadratic_ranged_56_ub: [ 1 x_23_ ^ 2 - 2 x_39_ * x_23_ + 1 x_39_ ^ 2 + 1 y_23_ ^ 2 - 2 y_39_ * y_23_ + 1 y_39_ ^ 2 ] <= 34894.49
quadratic_ranged_57_ub: [ 1 x_2_ ^ 2 - 2 x_40_ * x_2_ + 1 x_40_ ^ 2 + 1 y_2_ ^ 2 - 2 y_40_ * y_2_ + 1 y_40_ ^ 2 ] <= 7866.89
quadratic_ranged_58_ub: [ 1 x_36_ ^ 2 - 2 x_40_ * x_36_ + 1 x_40_ ^ 2 + 1 y_36_ ^ 2 - 2 y_40_ * y_36_ + 1 y_40_ ^ 2 ] <= 37543.72
quadratic_ranged_59_ub: [ 1 x_2_ ^ 2 - 2 x_41_ * x_2_ + 1 x_41_ ^ 2 + 1 y_2_ ^ 2 - 2 y_41_ * y_2_ + 1 y_41_ ^ 2 ] <= 11046.37
quadratic_ranged_60_ub: [ 1 x_3_ ^ 2 - 2 x_41_ * x_3_ + 1 x_41_ ^ 2 + 1 y_3_ ^ 2 - 2 y_41_ * y_3_ + 1 y_41_ ^ 2 ] <= 4201.6
quadratic_ranged_61_ub: [ 1 x_29_ ^ 2 - 2 x_42_ * x_29_ + 1 x_42_ ^ 2 + 1 y_29_ ^ 2 - 2 y_42_ * y_29_ + 1 y_42_ ^ 2 ] <= 5340.88
quadratic_ranged_62_ub: [ 1 x_7_ ^ 2 - 2 x_43_ * x_7_ + 1 x_43_ ^ 2 + 1 y_7_ ^ 2 - 2 y_43_ * y_7_ + 1 y_43_ ^ 2 ] <= 25380.29
quadratic_ranged_63_ub: [ 1 x_2_ ^ 2 - 2 x_44_ * x_2_ + 1 x_44_ ^ 2 + 1 y_2_ ^ 2 - 2 y_44_ * y_2_ + 1 y_44_ ^ 2 ] <= 35734.81
quadratic_ranged_64_ub: [ 1 x_19_ ^ 2 - 2 x_44_ * x_19_ + 1 x_44_ ^ 2 + 1 y_19_ ^ 2 - 2 y_44_ * y_19_ + 1 y_44_ ^ 2 ] <= 2670.44
quadratic_ranged_65_ub: [ 1 x_24_ ^ 2 - 2 x_44_ * x_24_ + 1 x_44_ ^ 2 + 1 y_24_ ^ 2 - 2 y_44_ * y_24_ + 1 y_44_ ^ 2 ] <= 15017.69
quadratic_ranged_66_ub: [ 1 x_4_ ^ 2 - 2 x_45_ * x_4_ + 1 x_45_ ^ 2 + 1 y_4_ ^ 2 - 2 y_45_ * y_4_ + 1 y_45_ ^ 2 ] <= 20338.37
quadratic_ranged_67_ub: [ 1 x_18_ ^ 2 - 2 x_45_ * x_18_ + 1 x_45_ ^ 2 + 1 y_18_ ^ 2 - 2 y_45_ * y_18_ + 1 y_45_ ^ 2 ] <= 110.09
quadratic_ranged_68_ub: [ 1 x_19_ ^ 2 - 2 x_45_ * x_19_ + 1 x_45_ ^ 2 + 1 y_19_ ^ 2 - 2 y_45_ * y_19_ + 1 y_45_ ^ 2 ] <= 6934.66
quadratic_ranged_69_ub: [ 1 x_1_ ^ 2 - 2 x_46_ * x_1_ + 1 x_46_ ^ 2 + 1 y_1_ ^ 2 - 2 y_46_ * y_1_ + 1 y_46_ ^ 2 ] <= 31061.54
quadratic_ranged_70_ub: [ 1 x_8_ ^ 2 - 2 x_46_ * x_8_ + 1 x_46_ ^ 2 + 1 y_8_ ^ 2 - 2 y_46_ * y_8_ + 1 y_46_ ^ 2 ] <= 17118.49
quadratic_ranged_71_ub: [ 1 x_26_ ^ 2 - 2 x_46_ * x_26_ + 1 x_46_ ^ 2 + 1 y_26_ ^ 2 - 2 y_46_ * y_26_ + 1 y_46_ ^ 2 ] <= 5127.77
quadratic_ranged_72_ub: [ 1 x_5_ ^ 2 - 2 x_47_ * x_5_ + 1 x_47_ ^ 2 + 1 y_5_ ^ 2 - 2 y_47_ * y_5_ + 1 y_47_ ^ 2 ] <= 18524.41
quadratic_ranged_73_ub: [ 1 x_10_ ^ 2 - 2 x_47_ * x_10_ + 1 x_47_ ^ 2 + 1 y_10_ ^ 2 - 2 y_47_ * y_10_ + 1 y_47_ ^ 2 ] <= 792.85
quadratic_ranged_74_ub: [ 1 x_18_ ^ 2 - 2 x_47_ * x_18_ + 1 x_47_ ^ 2 + 1 y_18_ ^ 2 - 2 y_47_ * y_18_ + 1 y_47_ ^ 2 ] <= 6013.54
quadratic_ranged_75_ub: [ 1 x_5_ ^ 2 - 2 x_48_ * x_5_ + 1 x_48_ ^ 2 + 1 y_5_ ^ 2 - 2 y_48_ * y_5_ + 1 y_48_ ^ 2 ] <= 19603.09
quadratic_ranged_76_ub: [ 1 x_9_ ^ 2 - 2 x_48_ * x_9_ + 1 x_48_ ^ 2 + 1 y_9_ ^ 2 - 2 y_48_ * y_9_ + 1 y_48_ ^ 2 ] <= 1820.02
quadratic_ranged_77_ub: [ 1 x_5_ ^ 2 - 2 x_49_ * x_5_ + 1 x_49_ ^ 2 + 1 y_5_ ^ 2 - 2 y_49_ * y_5_ + 1 y_49_ ^ 2 ] <= 761.54
quadratic_ranged_78_ub: [ 1 x_27_ ^ 2 - 2 x_49_ * x_27_ + 1 x_49_ ^ 2 + 1 y_27_ ^ 2 - 2 y_49_ * y_27_ + 1 y_49_ ^ 2 ] <= 15917.6
quadratic_ranged_79_ub: [ 1 x_39_ ^ 2 - 2 x_49_ * x_39_ + 1 x_49_ ^ 2 + 1 y_39_ ^ 2 - 2 y_49_ * y_39_ + 1 y_49_ ^ 2 ] <= 6112.52
quadratic_ranged_80_ub: [ 1 x_1_ ^ 2 - 2 x_50_ * x_1_ + 1 x_50_ ^ 2 + 1 y_1_ ^ 2 - 2 y_50_ * y_1_ + 1 y_50_ ^ 2 ] <= 21470.58
quadratic_ranged_81_ub: [ 1 x_42_ ^ 2 - 2 x_50_ * x_42_ + 1 x_50_ ^ 2 + 1 y_42_ ^ 2 - 2 y_50_ * y_42_ + 1 y_50_ ^ 2 ] <= 12771.45
quadratic_ranged_82_ub: [ 1 x_11_ ^ 2 - 2 x_51_ * x_11_ + 1 x_51_ ^ 2 + 1 y_11_ ^ 2 - 2 y_51_ * y_11_ + 1 y_51_ ^ 2 ] <= 10609.04
quadratic_ranged_83_ub: [ 1 x_21_ ^ 2 - 2 x_51_ * x_21_ + 1 x_51_ ^ 2 + 1 y_21_ ^ 2 - 2 y_51_ * y_21_ + 1 y_51_ ^ 2 ] <= 5254.02
quadratic_ranged_84_ub: [ 1 x_40_ ^ 2 - 2 x_51_ * x_40_ + 1 x_51_ ^ 2 + 1 y_40_ ^ 2 - 2 y_51_ * y_40_ + 1 y_51_ ^ 2 ] <= 3236.04
quadratic_ranged_85_ub: [ 1 x_4_ ^ 2 - 2 x_52_ * x_4_ + 1 x_52_ ^ 2 + 1 y_4_ ^ 2 - 2 y_52_ * y_4_ + 1 y_52_ ^ 2 ] <= 14548.04
quadratic_ranged_86_ub: [ 1 x_23_ ^ 2 - 2 x_52_ * x_23_ + 1 x_52_ ^ 2 + 1 y_23_ ^ 2 - 2 y_52_ * y_23_ + 1 y_52_ ^ 2 ] <= 3468.34
quadratic_ranged_87_ub: [ 1 x_26_ ^ 2 - 2 x_52_ * x_26_ + 1 x_52_ ^ 2 + 1 y_26_ ^ 2 - 2 y_52_ * y_26_ + 1 y_52_ ^ 2 ] <= 23129
quadratic_ranged_88_ub: [ 1 x_6_ ^ 2 - 2 x_53_ * x_6_ + 1 x_53_ ^ 2 + 1 y_6_ ^ 2 - 2 y_53_ * y_6_ + 1 y_53_ ^ 2 ] <= 8953.65
quadratic_ranged_89_ub: [ 1 x_35_ ^ 2 - 2 x_53_ * x_35_ + 1 x_53_ ^ 2 + 1 y_35_ ^ 2 - 2 y_53_ * y_35_ + 1 y_53_ ^ 2 ] <= 2626
quadratic_ranged_90_ub: [ 1 x_7_ ^ 2 - 2 x_54_ * x_7_ + 1 x_54_ ^ 2 + 1 y_7_ ^ 2 - 2 y_54_ * y_7_ + 1 y_54_ ^ 2 ] <= 8649.64
quadratic_ranged_91_ub: [ 1 x_15_ ^ 2 - 2 x_54_ * x_15_ + 1 x_54_ ^ 2 + 1 y_15_ ^ 2 - 2 y_54_ * y_15_ + 1 y_54_ ^ 2 ] <= 26114.56
quadratic_ranged_92_ub: [ 1 x_19_ ^ 2 - 2 x_55_ * x_19_ + 1 x_55_ ^ 2 + 1 y_19_ ^ 2 - 2 y_55_ * y_19_ + 1 y_55_ ^ 2 ] <= 17743.68
quadratic_ranged_93_ub: [ 1 x_29_ ^ 2 - 2 x_55_ * x_29_ + 1 x_55_ ^ 2 + 1 y_29_ ^ 2 - 2 y_55_ * y_29_ + 1 y_55_ ^ 2 ] <= 85.85
quadratic_ranged_94_ub: [ 1 x_16_ ^ 2 - 2 x_56_ * x_16_ + 1 x_56_ ^ 2 + 1 y_16_ ^ 2 - 2 y_56_ * y_16_ + 1 y_56_ ^ 2 ] <= 13155.25
quadratic_ranged_95_ub: [ 1 x_34_ ^ 2 - 2 x_57_ * x_34_ + 1 x_57_ ^ 2 + 1 y_34_ ^ 2 - 2 y_57_ * y_34_ + 1 y_57_ ^ 2 ] <= 43778.45
quadratic_ranged_96_ub: [ 1 x_51_ ^ 2 - 2 x_57_ * x_51_ + 1 x_57_ ^ 2 + 1 y_51_ ^ 2 - 2 y_57_ * y_51_ + 1 y_57_ ^ 2 ] <= 13882.45
quadratic_ranged_97_ub: [ 1 x_9_ ^ 2 - 2 x_58_ * x_9_ + 1 x_58_ ^ 2 + 1 y_9_ ^ 2 - 2 y_58_ * y_9_ + 1 y_58_ ^ 2 ] <= 14907.6
quadratic_ranged_98_ub: [ 1 x_20_ ^ 2 - 2 x_58_ * x_20_ + 1 x_58_ ^ 2 + 1 y_20_ ^ 2 - 2 y_58_ * y_20_ + 1 y_58_ ^ 2 ] <= 1862.44
quadratic_ranged_99_ub: [ 1 x_52_ ^ 2 - 2 x_59_ * x_52_ + 1 x_59_ ^ 2 + 1 y_52_ ^ 2 - 2 y_59_ * y_52_ + 1 y_59_ ^ 2 ] <= 25704.5
quadratic_ranged_100_ub: [ 1 x_19_ ^ 2 - 2 x_60_ * x_19_ + 1 x_60_ ^ 2 + 1 y_19_ ^ 2 - 2 y_60_ * y_19_ + 1 y_60_ ^ 2 ] <= 17650.76
quadratic_ranged_101_ub: [ 1 x_55_ ^ 2 - 2 x_60_ * x_55_ + 1 x_60_ ^ 2 + 1 y_55_ ^ 2 - 2 y_60_ * y_55_ + 1 y_60_ ^ 2 ] <= 2767.4
quadratic_ranged_102_ub: [ 1 x_30_ ^ 2 - 2 x_61_ * x_30_ + 1 x_61_ ^ 2 + 1 y_30_ ^ 2 - 2 y_61_ * y_30_ + 1 y_61_ ^ 2 ] <= 25198.49
quadratic_ranged_103_ub: [ 1 x_37_ ^ 2 - 2 x_61_ * x_37_ + 1 x_61_ ^ 2 + 1 y_37_ ^ 2 - 2 y_61_ * y_37_ + 1 y_61_ ^ 2 ] <= 30256.57
quadratic_ranged_104_ub: [ 1 x_5_ ^ 2 - 2 x_62_ * x_5_ + 1 x_62_ ^ 2 + 1 y_5_ ^ 2 - 2 y_62_ * y_5_ + 1 y_62_ ^ 2 ] <= 6804.37
quadratic_ranged_105_ub: [ 1 x_7_ ^ 2 - 2 x_62_ * x_7_ + 1 x_62_ ^ 2 + 1 y_7_ ^ 2 - 2 y_62_ * y_7_ + 1 y_62_ ^ 2 ] <= 24152.13
quadratic_ranged_106_ub: [ 1 x_48_ ^ 2 - 2 x_63_ * x_48_ + 1 x_63_ ^ 2 + 1 y_48_ ^ 2 - 2 y_63_ * y_48_ + 1 y_63_ ^ 2 ] <= 20284.84
quadratic_ranged_107_ub: [ 1 x_31_ ^ 2 - 2 x_64_ * x_31_ + 1 x_64_ ^ 2 + 1 y_31_ ^ 2 - 2 y_64_ * y_31_ + 1 y_64_ ^ 2 ] <= 7822.45
quadratic_ranged_108_ub: [ 1 x_43_ ^ 2 - 2 x_64_ * x_43_ + 1 x_64_ ^ 2 + 1 y_43_ ^ 2 - 2 y_64_ * y_43_ + 1 y_64_ ^ 2 ] <= 1820.02
quadratic_ranged_109_ub: [ 1 x_16_ ^ 2 - 2 x_65_ * x_16_ + 1 x_65_ ^ 2 + 1 y_16_ ^ 2 - 2 y_65_ * y_16_ + 1 y_65_ ^ 2 ] <= 5842.85
quadratic_ranged_110_ub: [ 1 x_18_ ^ 2 - 2 x_65_ * x_18_ + 1 x_65_ ^ 2 + 1 y_18_ ^ 2 - 2 y_65_ * y_18_ + 1 y_65_ ^ 2 ] <= 6474.1
quadratic_ranged_111_ub: [ 1 x_56_ ^ 2 - 2 x_65_ * x_56_ + 1 x_65_ ^ 2 + 1 y_56_ ^ 2 - 2 y_65_ * y_56_ + 1 y_65_ ^ 2 ] <= 2213.92
quadratic_ranged_112_ub: [ 1 x_2_ ^ 2 - 2 x_66_ * x_2_ + 1 x_66_ ^ 2 + 1 y_2_ ^ 2 - 2 y_66_ * y_2_ + 1 y_66_ ^ 2 ] <= 2526.01
quadratic_ranged_113_ub: [ 1 x_50_ ^ 2 - 2 x_66_ * x_50_ + 1 x_66_ ^ 2 + 1 y_50_ ^ 2 - 2 y_66_ * y_50_ + 1 y_66_ ^ 2 ] <= 16873.06
quadratic_ranged_114_ub: [ 1 x_58_ ^ 2 - 2 x_66_ * x_58_ + 1 x_66_ ^ 2 + 1 y_58_ ^ 2 - 2 y_66_ * y_58_ + 1 y_66_ ^ 2 ] <= 21417.05
quadratic_ranged_115_ub: [ 1 x_10_ ^ 2 - 2 x_67_ * x_10_ + 1 x_67_ ^ 2 + 1 y_10_ ^ 2 - 2 y_67_ * y_10_ + 1 y_67_ ^ 2 ] <= 26192.33
quadratic_ranged_116_ub: [ 1 x_25_ ^ 2 - 2 x_67_ * x_25_ + 1 x_67_ ^ 2 + 1 y_25_ ^ 2 - 2 y_67_ * y_25_ + 1 y_67_ ^ 2 ] <= 1681.65
quadratic_ranged_117_ub: [ 1 x_28_ ^ 2 - 2 x_67_ * x_28_ + 1 x_67_ ^ 2 + 1 y_28_ ^ 2 - 2 y_67_ * y_28_ + 1 y_67_ ^ 2 ] <= 18185.05
quadratic_ranged_118_ub: [ 1 x_14_ ^ 2 - 2 x_68_ * x_14_ + 1 x_68_ ^ 2 + 1 y_14_ ^ 2 - 2 y_68_ * y_14_ + 1 y_68_ ^ 2 ] <= 13470.37
quadratic_ranged_119_ub: [ 1 x_60_ ^ 2 - 2 x_68_ * x_60_ + 1 x_68_ ^ 2 + 1 y_60_ ^ 2 - 2 y_68_ * y_60_ + 1 y_68_ ^ 2 ] <= 8549.65
quadratic_ranged_120_ub: [ 1 x_16_ ^ 2 - 2 x_69_ * x_16_ + 1 x_69_ ^ 2 + 1 y_16_ ^ 2 - 2 y_69_ * y_16_ + 1 y_69_ ^ 2 ] <= 30582.8
quadratic_ranged_121_ub: [ 1 x_20_ ^ 2 - 2 x_69_ * x_20_ + 1 x_69_ ^ 2 + 1 y_20_ ^ 2 - 2 y_69_ * y_20_ + 1 y_69_ ^ 2 ] <= 10557.53
quadratic_ranged_122_ub: [ 1 x_42_ ^ 2 - 2 x_69_ * x_42_ + 1 x_69_ ^ 2 + 1 y_42_ ^ 2 - 2 y_69_ * y_42_ + 1 y_69_ ^ 2 ] <= 15781.25
quadratic_ranged_123_ub: [ 1 x_7_ ^ 2 - 2 x_70_ * x_7_ + 1 x_70_ ^ 2 + 1 y_7_ ^ 2 - 2 y_70_ * y_7_ + 1 y_70_ ^ 2 ] <= 23310.8
quadratic_ranged_124_ub: [ 1 x_25_ ^ 2 - 2 x_71_ * x_25_ + 1 x_71_ ^ 2 + 1 y_25_ ^ 2 - 2 y_71_ * y_25_ + 1 y_71_ ^ 2 ] <= 27262.93
quadratic_ranged_125_ub: [ 1 x_41_ ^ 2 - 2 x_71_ * x_41_ + 1 x_71_ ^ 2 + 1 y_41_ ^ 2 - 2 y_71_ * y_41_ + 1 y_71_ ^ 2 ] <= 514.09
quadratic_ranged_126_ub: [ 1 x_24_ ^ 2 - 2 x_72_ * x_24_ + 1 x_72_ ^ 2 + 1 y_24_ ^ 2 - 2 y_72_ * y_24_ + 1 y_72_ ^ 2 ] <= 18512.29
quadratic_ranged_127_ub: [ 1 x_68_ ^ 2 - 2 x_72_ * x_68_ + 1 x_72_ ^ 2 + 1 y_68_ ^ 2 - 2 y_72_ * y_68_ + 1 y_72_ ^ 2 ] <= 9224.33
quadratic_ranged_128_ub: [ 1 x_23_ ^ 2 - 2 x_73_ * x_23_ + 1 x_73_ ^ 2 + 1 y_23_ ^ 2 - 2 y_73_ * y_23_ + 1 y_73_ ^ 2 ] <= 21412
quadratic_ranged_129_ub: [ 1 x_30_ ^ 2 - 2 x_73_ * x_30_ + 1 x_73_ ^ 2 + 1 y_30_ ^ 2 - 2 y_73_ * y_30_ + 1 y_73_ ^ 2 ] <= 18329.48
quadratic_ranged_130_ub: [ 1 x_70_ ^ 2 - 2 x_73_ * x_70_ + 1 x_73_ ^ 2 + 1 y_70_ ^ 2 - 2 y_73_ * y_70_ + 1 y_73_ ^ 2 ] <= 22269.49
quadratic_ranged_131_ub: [ 1 x_14_ ^ 2 - 2 x_74_ * x_14_ + 1 x_74_ ^ 2 + 1 y_14_ ^ 2 - 2 y_74_ * y_14_ + 1 y_74_ ^ 2 ] <= 20492.9
quadratic_ranged_132_ub: [ 1 x_23_ ^ 2 - 2 x_74_ * x_23_ + 1 x_74_ ^ 2 + 1 y_23_ ^ 2 - 2 y_74_ * y_23_ + 1 y_74_ ^ 2 ] <= 23226.97
quadratic_ranged_133_ub: [ 1 x_33_ ^ 2 - 2 x_75_ * x_33_ + 1 x_75_ ^ 2 + 1 y_33_ ^ 2 - 2 y_75_ * y_33_ + 1 y_75_ ^ 2 ] <= 55211.65
quadratic_ranged_134_ub: [ 1 x_57_ ^ 2 - 2 x_75_ * x_57_ + 1 x_75_ ^ 2 + 1 y_57_ ^ 2 - 2 y_75_ * y_57_ + 1 y_75_ ^ 2 ] <= 654.48
quadratic_ranged_135_ub: [ 1 x_43_ ^ 2 - 2 x_76_ * x_43_ + 1 x_76_ ^ 2 + 1 y_43_ ^ 2 - 2 y_76_ * y_43_ + 1 y_76_ ^ 2 ] <= 15482.29
quadratic_ranged_136_ub: [ 1 x_70_ ^ 2 - 2 x_76_ * x_70_ + 1 x_76_ ^ 2 + 1 y_70_ ^ 2 - 2 y_76_ * y_70_ + 1 y_76_ ^ 2 ] <= 11089.8
quadratic_ranged_137_ub: [ 1 x_9_ ^ 2 - 2 x_77_ * x_9_ + 1 x_77_ ^ 2 + 1 y_9_ ^ 2 - 2 y_77_ * y_9_ + 1 y_77_ ^ 2 ] <= 24224.85
quadratic_ranged_138_ub: [ 1 x_31_ ^ 2 - 2 x_77_ * x_31_ + 1 x_77_ ^ 2 + 1 y_31_ ^ 2 - 2 y_77_ * y_31_ + 1 y_77_ ^ 2 ] <= 3316.84
quadratic_ranged_139_ub: [ 1 x_33_ ^ 2 - 2 x_78_ * x_33_ + 1 x_78_ ^ 2 + 1 y_33_ ^ 2 - 2 y_78_ * y_33_ + 1 y_78_ ^ 2 ] <= 25605.52
quadratic_ranged_140_ub: [ 1 x_44_ ^ 2 - 2 x_78_ * x_44_ + 1 x_78_ ^ 2 + 1 y_44_ ^ 2 - 2 y_78_ * y_44_ + 1 y_78_ ^ 2 ] <= 15806.5
quadratic_ranged_141_ub: [ 1 x_56_ ^ 2 - 2 x_78_ * x_56_ + 1 x_78_ ^ 2 + 1 y_56_ ^ 2 - 2 y_78_ * y_56_ + 1 y_78_ ^ 2 ] <= 17833.57
quadratic_ranged_142_ub: [ 1 x_20_ ^ 2 - 2 x_79_ * x_20_ + 1 x_79_ ^ 2 + 1 y_20_ ^ 2 - 2 y_79_ * y_20_ + 1 y_79_ ^ 2 ] <= 17199.29
quadratic_ranged_143_ub: [ 1 x_28_ ^ 2 - 2 x_79_ * x_28_ + 1 x_79_ ^ 2 + 1 y_28_ ^ 2 - 2 y_79_ * y_28_ + 1 y_79_ ^ 2 ] <= 2989.6
quadratic_ranged_144_ub: [ 1 x_41_ ^ 2 - 2 x_79_ * x_41_ + 1 x_79_ ^ 2 + 1 y_41_ ^ 2 - 2 y_79_ * y_41_ + 1 y_79_ ^ 2 ] <= 7742.66
quadratic_ranged_145_ub: [ 1 x_32_ ^ 2 - 2 x_80_ * x_32_ + 1 x_80_ ^ 2 + 1 y_32_ ^ 2 - 2 y_80_ * y_32_ + 1 y_80_ ^ 2 ] <= 12194.74
quadratic_ranged_146_ub: [ 1 x_37_ ^ 2 - 2 x_80_ * x_37_ + 1 x_80_ ^ 2 + 1 y_37_ ^ 2 - 2 y_80_ * y_37_ + 1 y_80_ ^ 2 ] <= 6855.88
quadratic_ranged_147_ub: [ 1 x_28_ ^ 2 - 2 x_81_ * x_28_ + 1 x_81_ ^ 2 + 1 y_28_ ^ 2 - 2 y_81_ * y_28_ + 1 y_81_ ^ 2 ] <= 8085.05
quadratic_ranged_148_ub: [ 1 x_74_ ^ 2 - 2 x_81_ * x_74_ + 1 x_81_ ^ 2 + 1 y_74_ ^ 2 - 2 y_81_ * y_74_ + 1 y_81_ ^ 2 ] <= 2279.57
quadratic_ranged_149_ub: [ 1 x_37_ ^ 2 - 2 x_82_ * x_37_ + 1 x_82_ ^ 2 + 1 y_37_ ^ 2 - 2 y_82_ * y_37_ + 1 y_82_ ^ 2 ] <= 6506.42
quadratic_ranged_150_ub: [ 1 x_47_ ^ 2 - 2 x_82_ * x_47_ + 1 x_82_ ^ 2 + 1 y_47_ ^ 2 - 2 y_82_ * y_47_ + 1 y_82_ ^ 2 ] <= 11217.06
quadratic_ranged_151_ub: [ 1 x_59_ ^ 2 - 2 x_82_ * x_59_ + 1 x_82_ ^ 2 + 1 y_59_ ^ 2 - 2 y_82_ * y_59_ + 1 y_82_ ^ 2 ] <= 9889.92
quadratic_ranged_152_ub: [ 1 x_6_ ^ 2 - 2 x_83_ * x_6_ + 1 x_83_ ^ 2 + 1 y_6_ ^ 2 - 2 y_83_ * y_6_ + 1 y_83_ ^ 2 ] <= 16193.33
quadratic_ranged_153_ub: [ 1 x_21_ ^ 2 - 2 x_83_ * x_21_ + 1 x_83_ ^ 2 + 1 y_21_ ^ 2 - 2 y_83_ * y_21_ + 1 y_83_ ^ 2 ] <= 2631.05
quadratic_ranged_154_ub: [ 1 x_76_ ^ 2 - 2 x_83_ * x_76_ + 1 x_83_ ^ 2 + 1 y_76_ ^ 2 - 2 y_83_ * y_76_ + 1 y_83_ ^ 2 ] <= 19215.25
quadratic_ranged_155_ub: [ 1 x_4_ ^ 2 - 2 x_84_ * x_4_ + 1 x_84_ ^ 2 + 1 y_4_ ^ 2 - 2 y_84_ * y_4_ + 1 y_84_ ^ 2 ] <= 17659.85
quadratic_ranged_156_ub: [ 1 x_58_ ^ 2 - 2 x_84_ * x_58_ + 1 x_84_ ^ 2 + 1 y_58_ ^ 2 - 2 y_84_ * y_58_ + 1 y_84_ ^ 2 ] <= 4974.25
quadratic_ranged_157_ub: [ 1 x_18_ ^ 2 - 2 x_85_ * x_18_ + 1 x_85_ ^ 2 + 1 y_18_ ^ 2 - 2 y_85_ * y_18_ + 1 y_85_ ^ 2 ] <= 945.36
quadratic_ranged_158_ub: [ 1 x_54_ ^ 2 - 2 x_85_ * x_54_ + 1 x_85_ ^ 2 + 1 y_54_ ^ 2 - 2 y_85_ * y_54_ + 1 y_85_ ^ 2 ] <= 14435.93
quadratic_ranged_159_ub: [ 1 x_63_ ^ 2 - 2 x_85_ * x_63_ + 1 x_85_ ^ 2 + 1 y_63_ ^ 2 - 2 y_85_ * y_63_ + 1 y_85_ ^ 2 ] <= 2862.34
quadratic_ranged_160_ub: [ 1 x_31_ ^ 2 - 2 x_86_ * x_31_ + 1 x_86_ ^ 2 + 1 y_31_ ^ 2 - 2 y_86_ * y_31_ + 1 y_86_ ^ 2 ] <= 1195.84
quadratic_ranged_161_ub: [ 1 x_63_ ^ 2 - 2 x_86_ * x_63_ + 1 x_86_ ^ 2 + 1 y_63_ ^ 2 - 2 y_86_ * y_63_ + 1 y_86_ ^ 2 ] <= 26240.81
quadratic_ranged_162_ub: [ 1 x_2_ ^ 2 - 2 x_87_ * x_2_ + 1 x_87_ ^ 2 + 1 y_2_ ^ 2 - 2 y_87_ * y_2_ + 1 y_87_ ^ 2 ] <= 17107.38
quadratic_ranged_163_ub: [ 1 x_27_ ^ 2 - 2 x_87_ * x_27_ + 1 x_87_ ^ 2 + 1 y_27_ ^ 2 - 2 y_87_ * y_27_ + 1 y_87_ ^ 2 ] <= 30579.77
quadratic_ranged_164_ub: [ 1 x_37_ ^ 2 - 2 x_88_ * x_37_ + 1 x_88_ ^ 2 + 1 y_37_ ^ 2 - 2 y_88_ * y_37_ + 1 y_88_ ^ 2 ] <= 1665.49
quadratic_ranged_165_ub: [ 1 x_81_ ^ 2 - 2 x_88_ * x_81_ + 1 x_88_ ^ 2 + 1 y_81_ ^ 2 - 2 y_88_ * y_81_ + 1 y_88_ ^ 2 ] <= 3059.29
quadratic_ranged_166_ub: [ 1 x_7_ ^ 2 - 2 x_89_ * x_7_ + 1 x_89_ ^ 2 + 1 y_7_ ^ 2 - 2 y_89_ * y_7_ + 1 y_89_ ^ 2 ] <= 36542.81
quadratic_ranged_167_ub: [ 1 x_14_ ^ 2 - 2 x_89_ * x_14_ + 1 x_89_ ^ 2 + 1 y_14_ ^ 2 - 2 y_89_ * y_14_ + 1 y_89_ ^ 2 ] <= 21105.97
quadratic_ranged_168_ub: [ 1 x_15_ ^ 2 - 2 x_90_ * x_15_ + 1 x_90_ ^ 2 + 1 y_15_ ^ 2 - 2 y_90_ * y_15_ + 1 y_90_ ^ 2 ] <= 22689.65
quadratic_ranged_169_ub: [ 1 x_63_ ^ 2 - 2 x_90_ * x_63_ + 1 x_90_ ^ 2 + 1 y_63_ ^ 2 - 2 y_90_ * y_63_ + 1 y_90_ ^ 2 ] <= 26205.46
quadratic_ranged_170_ub: [ 1 x_23_ ^ 2 - 2 x_91_ * x_23_ + 1 x_91_ ^ 2 + 1 y_23_ ^ 2 - 2 y_91_ * y_23_ + 1 y_91_ ^ 2 ] <= 16291.3
quadratic_ranged_171_ub: [ 1 x_27_ ^ 2 - 2 x_91_ * x_27_ + 1 x_91_ ^ 2 + 1 y_27_ ^ 2 - 2 y_91_ * y_27_ + 1 y_91_ ^ 2 ] <= 7236.65
quadratic_ranged_172_ub: [ 1 x_10_ ^ 2 - 2 x_92_ * x_10_ + 1 x_92_ ^ 2 + 1 y_10_ ^ 2 - 2 y_92_ * y_10_ + 1 y_92_ ^ 2 ] <= 8989
quadratic_ranged_173_ub: [ 1 x_17_ ^ 2 - 2 x_92_ * x_17_ + 1 x_92_ ^ 2 + 1 y_17_ ^ 2 - 2 y_92_ * y_17_ + 1 y_92_ ^ 2 ] <= 818.1
quadratic_ranged_174_ub: [ 1 x_77_ ^ 2 - 2 x_92_ * x_77_ + 1 x_92_ ^ 2 + 1 y_77_ ^ 2 - 2 y_92_ * y_77_ + 1 y_92_ ^ 2 ] <= 5254.02
quadratic_ranged_175_ub: [ 1 x_40_ ^ 2 - 2 x_93_ * x_40_ + 1 x_93_ ^ 2 + 1 y_40_ ^ 2 - 2 y_93_ * y_40_ + 1 y_93_ ^ 2 ] <= 22141.22
quadratic_ranged_176_ub: [ 1 x_53_ ^ 2 - 2 x_93_ * x_53_ + 1 x_93_ ^ 2 + 1 y_53_ ^ 2 - 2 y_93_ * y_53_ + 1 y_93_ ^ 2 ] <= 2732.05
quadratic_ranged_177_ub: [ 1 x_58_ ^ 2 - 2 x_93_ * x_58_ + 1 x_93_ ^ 2 + 1 y_58_ ^ 2 - 2 y_93_ * y_58_ + 1 y_93_ ^ 2 ] <= 4222.81
quadratic_ranged_178_ub: [ 1 x_1_ ^ 2 - 2 x_94_ * x_1_ + 1 x_94_ ^ 2 + 1 y_1_ ^ 2 - 2 y_94_ * y_1_ + 1 y_94_ ^ 2 ] <= 16629.65
quadratic_ranged_179_ub: [ 1 x_32_ ^ 2 - 2 x_94_ * x_32_ + 1 x_94_ ^ 2 + 1 y_32_ ^ 2 - 2 y_94_ * y_32_ + 1 y_94_ ^ 2 ] <= 26195.36
quadratic_ranged_180_ub: [ 1 x_43_ ^ 2 - 2 x_94_ * x_43_ + 1 x_94_ ^ 2 + 1 y_43_ ^ 2 - 2 y_94_ * y_43_ + 1 y_94_ ^ 2 ] <= 4282.4
quadratic_ranged_181_ub: [ 1 x_5_ ^ 2 - 2 x_95_ * x_5_ + 1 x_95_ ^ 2 + 1 y_5_ ^ 2 - 2 y_95_ * y_5_ + 1 y_95_ ^ 2 ] <= 2271.4900000000002
quadratic_ranged_182_ub: [ 1 x_11_ ^ 2 - 2 x_95_ * x_11_ + 1 x_95_ ^ 2 + 1 y_11_ ^ 2 - 2 y_95_ * y_11_ + 1 y_95_ ^ 2 ] <= 10367.65
quadratic_ranged_183_ub: [ 1 x_37_ ^ 2 - 2 x_95_ * x_37_ + 1 x_95_ ^ 2 + 1 y_37_ ^ 2 - 2 y_95_ * y_37_ + 1 y_95_ ^ 2 ] <= 2040.2
quadratic_ranged_184_ub: [ 1 x_1_ ^ 2 - 2 x_96_ * x_1_ + 1 x_96_ ^ 2 + 1 y_1_ ^ 2 - 2 y_96_ * y_1_ + 1 y_96_ ^ 2 ] <= 12257.36
quadratic_ranged_185_ub: [ 1 x_44_ ^ 2 - 2 x_96_ * x_44_ + 1 x_96_ ^ 2 + 1 y_44_ ^ 2 - 2 y_96_ * y_44_ + 1 y_96_ ^ 2 ] <= 5353
quadratic_ranged_186_ub: [ 1 x_91_ ^ 2 - 2 x_96_ * x_91_ + 1 x_96_ ^ 2 + 1 y_91_ ^ 2 - 2 y_96_ * y_91_ + 1 y_96_ ^ 2 ] <= 497.93
quadratic_ranged_187_ub: [ 1 x_6_ ^ 2 - 2 x_97_ * x_6_ + 1 x_97_ ^ 2 + 1 y_6_ ^ 2 - 2 y_97_ * y_6_ + 1 y_97_ ^ 2 ] <= 17025.57
quadratic_ranged_188_ub: [ 1 x_32_ ^ 2 - 2 x_97_ * x_32_ + 1 x_97_ ^ 2 + 1 y_32_ ^ 2 - 2 y_97_ * y_32_ + 1 y_97_ ^ 2 ] <= 12063.44
quadratic_ranged_189_ub: [ 1 x_55_ ^ 2 - 2 x_97_ * x_55_ + 1 x_97_ ^ 2 + 1 y_55_ ^ 2 - 2 y_97_ * y_55_ + 1 y_97_ ^ 2 ] <= 4582.37
quadratic_ranged_190_ub: [ 1 x_11_ ^ 2 - 2 x_98_ * x_11_ + 1 x_98_ ^ 2 + 1 y_11_ ^ 2 - 2 y_98_ * y_11_ + 1 y_98_ ^ 2 ] <= 20956.49
quadratic_ranged_191_ub: [ 1 x_38_ ^ 2 - 2 x_98_ * x_38_ + 1 x_98_ ^ 2 + 1 y_38_ ^ 2 - 2 y_98_ * y_38_ + 1 y_98_ ^ 2 ] <= 6161
quadratic_ranged_192_ub: [ 1 x_53_ ^ 2 - 2 x_98_ * x_53_ + 1 x_98_ ^ 2 + 1 y_53_ ^ 2 - 2 y_98_ * y_53_ + 1 y_98_ ^ 2 ] <= 898.9
quadratic_ranged_193_ub: [ 1 x_13_ ^ 2 - 2 x_99_ * x_13_ + 1 x_99_ ^ 2 + 1 y_13_ ^ 2 - 2 y_99_ * y_13_ + 1 y_99_ ^ 2 ] <= 32244.25
quadratic_ranged_194_ub: [ 1 x_64_ ^ 2 - 2 x_99_ * x_64_ + 1 x_99_ ^ 2 + 1 y_64_ ^ 2 - 2 y_99_ * y_64_ + 1 y_99_ ^ 2 ] <= 9857.6
quadratic_ranged_195_ub: [ 1 x_94_ ^ 2 - 2 x_99_ * x_94_ + 1 x_99_ ^ 2 + 1 y_94_ ^ 2 - 2 y_99_ * y_94_ + 1 y_99_ ^ 2 ] <= 163.62
quadratic_ranged_196_ub: [ 1 x_59_ ^ 2 - 2 x_100_ * x_59_ + 1 x_100_ ^ 2 + 1 y_59_ ^ 2 - 2 y_100_ * y_59_ + 1 y_100_ ^ 2 ] <= 1204.93
quadratic_ranged_197_ub: [ 1 x_64_ ^ 2 - 2 x_100_ * x_64_ + 1 x_100_ ^ 2 + 1 y_64_ ^ 2 - 2 y_100_ * y_64_ + 1 y_100_ ^ 2 ] <= 5673.17
quadratic_ranged_1_lb: [ 1 x_1_ ^ 2 - 2 x_4_ * x_1_ + 1 x_4_ ^ 2 + 1 y_1_ ^ 2 - 2 y_4_ * y_1_ + 1 y_4_ ^ 2 ] >= 11235.51
quadratic_ranged_2_lb: [ 1 x_3_ ^ 2 - 2 x_4_ * x_3_ + 1 x_4_ ^ 2 + 1 y_3_ ^ 2 - 2 y_4_ * y_3_ + 1 y_4_ ^ 2 ] >= 25946.91
quadratic_ranged_3_lb: [ 1 x_1_ ^ 2 - 2 x_5_ * x_1_ + 1 x_5_ ^ 2 + 1 y_1_ ^ 2 - 2 y_5_ * y_1_ + 1 y_5_ ^ 2 ] >= 8442.72
quadratic_ranged_4_lb: [ 1 x_2_ ^ 2 - 2 x_5_ * x_2_ + 1 x_5_ ^ 2 + 1 y_2_ ^ 2 - 2 y_5_ * y_2_ + 1 y_5_ ^ 2 ] >= 3786.75
quadratic_ranged_5_lb: [ 1 x_3_ ^ 2 - 2 x_7_ * x_3_ + 1 x_7_ ^ 2 + 1 y_3_ ^ 2 - 2 y_7_ * y_3_ + 1 y_7_ ^ 2 ] >= 4999.5
quadratic_ranged_6_lb: [ 1 x_3_ ^ 2 - 2 x_8_ * x_3_ + 1 x_8_ ^ 2 + 1 y_3_ ^ 2 - 2 y_8_ * y_3_ + 1 y_8_ ^ 2 ] >= 26564.67
quadratic_ranged_7_lb: [ 1 x_4_ ^ 2 - 2 x_8_ * x_4_ + 1 x_8_ ^ 2 + 1 y_4_ ^ 2 - 2 y_8_ * y_4_ + 1 y_8_ ^ 2 ] >= 786.06
quadratic_ranged_8_lb: [ 1 x_3_ ^ 2 - 2 x_9_ * x_3_ + 1 x_9_ ^ 2 + 1 y_3_ ^ 2 - 2 y_9_ * y_3_ + 1 y_9_ ^ 2 ] >= 6499.35
quadratic_ranged_9_lb: [ 1 x_6_ ^ 2 - 2 x_9_ * x_6_ + 1 x_9_ ^ 2 + 1 y_6_ ^ 2 - 2 y_9_ * y_6_ + 1 y_9_ ^ 2 ] >= 2519.55
quadratic_ranged_10_lb: [ 1 x_7_ ^ 2 - 2 x_10_ * x_7_ + 1 x_10_ ^ 2 + 1 y_7_ ^ 2 - 2 y_10_ * y_7_ + 1 y_10_ ^ 2 ] >= 4516.38
quadratic_ranged_11_lb: [ 1 x_6_ ^ 2 - 2 x_12_ * x_6_ + 1 x_12_ ^ 2 + 1 y_6_ ^ 2 - 2 y_12_ * y_6_ + 1 y_12_ ^ 2 ] >= 2781.9
quadratic_ranged_12_lb: [ 1 x_9_ ^ 2 - 2 x_12_ * x_9_ + 1 x_12_ ^ 2 + 1 y_9_ ^ 2 - 2 y_12_ * y_9_ + 1 y_12_ ^ 2 ] >= 9457.47
quadratic_ranged_13_lb: [ 1 x_2_ ^ 2 - 2 x_13_ * x_2_ + 1 x_13_ ^ 2 + 1 y_2_ ^ 2 - 2 y_13_ * y_2_ + 1 y_13_ ^ 2 ] >= 38040.75
quadratic_ranged_14_lb: [ 1 x_9_ ^ 2 - 2 x_13_ * x_9_ + 1 x_13_ ^ 2 + 1 y_9_ ^ 2 - 2 y_13_ * y_9_ + 1 y_13_ ^ 2 ] >= 31803.75
quadratic_ranged_15_lb: [ 1 x_1_ ^ 2 - 2 x_14_ * x_1_ + 1 x_14_ ^ 2 + 1 y_1_ ^ 2 - 2 y_14_ * y_1_ + 1 y_14_ ^ 2 ] >= 23577.84
quadratic_ranged_16_lb: [ 1 x_3_ ^ 2 - 2 x_14_ * x_3_ + 1 x_14_ ^ 2 + 1 y_3_ ^ 2 - 2 y_14_ * y_3_ + 1 y_14_ ^ 2 ] >= 643.5
quadratic_ranged_17_lb: [ 1 x_4_ ^ 2 - 2 x_14_ * x_4_ + 1 x_14_ ^ 2 + 1 y_4_ ^ 2 - 2 y_14_ * y_4_ + 1 y_14_ ^ 2 ] >= 29621.79
quadratic_ranged_18_lb: [ 1 x_1_ ^ 2 - 2 x_15_ * x_1_ + 1 x_15_ ^ 2 + 1 y_1_ ^ 2 - 2 y_15_ * y_1_ + 1 y_15_ ^ 2 ] >= 19059.48
quadratic_ranged_19_lb: [ 1 x_5_ ^ 2 - 2 x_15_ * x_5_ + 1 x_15_ ^ 2 + 1 y_5_ ^ 2 - 2 y_15_ * y_5_ + 1 y_15_ ^ 2 ] >= 2158.2
quadratic_ranged_20_lb: [ 1 x_6_ ^ 2 - 2 x_15_ * x_6_ + 1 x_15_ ^ 2 + 1 y_6_ ^ 2 - 2 y_15_ * y_6_ + 1 y_15_ ^ 2 ] >= 2617.56
quadratic_ranged_21_lb: [ 1 x_6_ ^ 2 - 2 x_16_ * x_6_ + 1 x_16_ ^ 2 + 1 y_6_ ^ 2 - 2 y_16_ * y_6_ + 1 y_16_ ^ 2 ] >= 10321.74
quadratic_ranged_22_lb: [ 1 x_16_ ^ 2 - 2 x_17_ * x_16_ + 1 x_17_ ^ 2 + 1 y_16_ ^ 2 - 2 y_17_ * y_16_ + 1 y_17_ ^ 2 ] >= 2710.62
quadratic_ranged_23_lb: [ 1 x_11_ ^ 2 - 2 x_18_ * x_11_ + 1 x_18_ ^ 2 + 1 y_11_ ^ 2 - 2 y_18_ * y_11_ + 1 y_18_ ^ 2 ] >= 16882.47
quadratic_ranged_24_lb: [ 1 x_3_ ^ 2 - 2 x_19_ * x_3_ + 1 x_19_ ^ 2 + 1 y_3_ ^ 2 - 2 y_19_ * y_3_ + 1 y_19_ ^ 2 ] >= 1356.3
quadratic_ranged_25_lb: [ 1 x_13_ ^ 2 - 2 x_19_ * x_13_ + 1 x_19_ ^ 2 + 1 y_13_ ^ 2 - 2 y_19_ * y_13_ + 1 y_19_ ^ 2 ] >= 5514.3
quadratic_ranged_26_lb: [ 1 x_3_ ^ 2 - 2 x_20_ * x_3_ + 1 x_20_ ^ 2 + 1 y_3_ ^ 2 - 2 y_20_ * y_3_ + 1 y_20_ ^ 2 ] >= 11124.63
quadratic_ranged_27_lb: [ 1 x_15_ ^ 2 - 2 x_20_ * x_15_ + 1 x_20_ ^ 2 + 1 y_15_ ^ 2 - 2 y_20_ * y_15_ + 1 y_20_ ^ 2 ] >= 10522.71
quadratic_ranged_28_lb: [ 1 x_7_ ^ 2 - 2 x_21_ * x_7_ + 1 x_21_ ^ 2 + 1 y_7_ ^ 2 - 2 y_21_ * y_7_ + 1 y_21_ ^ 2 ] >= 26769.6
quadratic_ranged_29_lb: [ 1 x_1_ ^ 2 - 2 x_22_ * x_1_ + 1 x_22_ ^ 2 + 1 y_1_ ^ 2 - 2 y_22_ * y_1_ + 1 y_22_ ^ 2 ] >= 966.24
quadratic_ranged_30_lb: [ 1 x_6_ ^ 2 - 2 x_24_ * x_6_ + 1 x_24_ ^ 2 + 1 y_6_ ^ 2 - 2 y_24_ * y_6_ + 1 y_24_ ^ 2 ] >= 10300.95
quadratic_ranged_31_lb: [ 1 x_11_ ^ 2 - 2 x_24_ * x_11_ + 1 x_24_ ^ 2 + 1 y_11_ ^ 2 - 2 y_24_ * y_11_ + 1 y_24_ ^ 2 ] >= 14399.55
quadratic_ranged_32_lb: [ 1 x_10_ ^ 2 - 2 x_25_ * x_10_ + 1 x_25_ ^ 2 + 1 y_10_ ^ 2 - 2 y_25_ * y_10_ + 1 y_25_ ^ 2 ] >= 37010.159999999996
quadratic_ranged_33_lb: [ 1 x_22_ ^ 2 - 2 x_25_ * x_22_ + 1 x_25_ ^ 2 + 1 y_22_ ^ 2 - 2 y_25_ * y_22_ + 1 y_25_ ^ 2 ] >= 19413.9
quadratic_ranged_34_lb: [ 1 x_7_ ^ 2 - 2 x_27_ * x_7_ + 1 x_27_ ^ 2 + 1 y_7_ ^ 2 - 2 y_27_ * y_7_ + 1 y_27_ ^ 2 ] >= 20839.5
quadratic_ranged_35_lb: [ 1 x_16_ ^ 2 - 2 x_27_ * x_16_ + 1 x_27_ ^ 2 + 1 y_16_ ^ 2 - 2 y_27_ * y_16_ + 1 y_27_ ^ 2 ] >= 27106.2
quadratic_ranged_36_lb: [ 1 x_22_ ^ 2 - 2 x_29_ * x_22_ + 1 x_29_ ^ 2 + 1 y_22_ ^ 2 - 2 y_29_ * y_22_ + 1 y_29_ ^ 2 ] >= 3271.95
quadratic_ranged_37_lb: [ 1 x_18_ ^ 2 - 2 x_30_ * x_18_ + 1 x_30_ ^ 2 + 1 y_18_ ^ 2 - 2 y_30_ * y_18_ + 1 y_30_ ^ 2 ] >= 9963.36
quadratic_ranged_38_lb: [ 1 x_5_ ^ 2 - 2 x_31_ * x_5_ + 1 x_31_ ^ 2 + 1 y_5_ ^ 2 - 2 y_31_ * y_5_ + 1 y_31_ ^ 2 ] >= 6941.88
quadratic_ranged_39_lb: [ 1 x_28_ ^ 2 - 2 x_31_ * x_28_ + 1 x_31_ ^ 2 + 1 y_28_ ^ 2 - 2 y_31_ * y_28_ + 1 y_31_ ^ 2 ] >= 17392.32
quadratic_ranged_40_lb: [ 1 x_19_ ^ 2 - 2 x_32_ * x_19_ + 1 x_32_ ^ 2 + 1 y_19_ ^ 2 - 2 y_32_ * y_19_ + 1 y_32_ ^ 2 ] >= 3806.55
quadratic_ranged_41_lb: [ 1 x_3_ ^ 2 - 2 x_33_ * x_3_ + 1 x_33_ ^ 2 + 1 y_3_ ^ 2 - 2 y_33_ * y_3_ + 1 y_33_ ^ 2 ] >= 6351.84
quadratic_ranged_42_lb: [ 1 x_8_ ^ 2 - 2 x_33_ * x_8_ + 1 x_33_ ^ 2 + 1 y_8_ ^ 2 - 2 y_33_ * y_8_ + 1 y_33_ ^ 2 ] >= 47235.87
quadratic_ranged_43_lb: [ 1 x_5_ ^ 2 - 2 x_34_ * x_5_ + 1 x_34_ ^ 2 + 1 y_5_ ^ 2 - 2 y_34_ * y_5_ + 1 y_34_ ^ 2 ] >= 26840.88
quadratic_ranged_44_lb: [ 1 x_13_ ^ 2 - 2 x_34_ * x_13_ + 1 x_34_ ^ 2 + 1 y_13_ ^ 2 - 2 y_34_ * y_13_ + 1 y_34_ ^ 2 ] >= 6345.9
quadratic_ranged_45_lb: [ 1 x_30_ ^ 2 - 2 x_34_ * x_30_ + 1 x_34_ ^ 2 + 1 y_30_ ^ 2 - 2 y_34_ * y_30_ + 1 y_34_ ^ 2 ] >= 35189.55
quadratic_ranged_46_lb: [ 1 x_7_ ^ 2 - 2 x_35_ * x_7_ + 1 x_35_ ^ 2 + 1 y_7_ ^ 2 - 2 y_35_ * y_7_ + 1 y_35_ ^ 2 ] >= 45628.11
quadratic_ranged_47_lb: [ 1 x_27_ ^ 2 - 2 x_35_ * x_27_ + 1 x_35_ ^ 2 + 1 y_27_ ^ 2 - 2 y_35_ * y_27_ + 1 y_35_ ^ 2 ] >= 15947.91
quadratic_ranged_48_lb: [ 1 x_1_ ^ 2 - 2 x_36_ * x_1_ + 1 x_36_ ^ 2 + 1 y_1_ ^ 2 - 2 y_36_ * y_1_ + 1 y_36_ ^ 2 ] >= 1863.18
quadratic_ranged_49_lb: [ 1 x_30_ ^ 2 - 2 x_36_ * x_30_ + 1 x_36_ ^ 2 + 1 y_30_ ^ 2 - 2 y_36_ * y_30_ + 1 y_36_ ^ 2 ] >= 27431.91
quadratic_ranged_50_lb: [ 1 x_18_ ^ 2 - 2 x_37_ * x_18_ + 1 x_37_ ^ 2 + 1 y_18_ ^ 2 - 2 y_37_ * y_18_ + 1 y_37_ ^ 2 ] >= 19683.18
quadratic_ranged_51_lb: [ 1 x_23_ ^ 2 - 2 x_37_ * x_23_ + 1 x_37_ ^ 2 + 1 y_23_ ^ 2 - 2 y_37_ * y_23_ + 1 y_37_ ^ 2 ] >= 19794.06
quadratic_ranged_52_lb: [ 1 x_24_ ^ 2 - 2 x_37_ * x_24_ + 1 x_37_ ^ 2 + 1 y_24_ ^ 2 - 2 y_37_ * y_24_ + 1 y_37_ ^ 2 ] >= 24571.8
quadratic_ranged_53_lb: [ 1 x_7_ ^ 2 - 2 x_38_ * x_7_ + 1 x_38_ ^ 2 + 1 y_7_ ^ 2 - 2 y_38_ * y_7_ + 1 y_38_ ^ 2 ] >= 28635.75
quadratic_ranged_54_lb: [ 1 x_12_ ^ 2 - 2 x_38_ * x_12_ + 1 x_38_ ^ 2 + 1 y_12_ ^ 2 - 2 y_38_ * y_12_ + 1 y_38_ ^ 2 ] >= 24097.59
quadratic_ranged_55_lb: [ 1 x_17_ ^ 2 - 2 x_38_ * x_17_ + 1 x_38_ ^ 2 + 1 y_17_ ^ 2 - 2 y_38_ * y_17_ + 1 y_38_ ^ 2 ] >= 7711.11
quadratic_ranged_56_lb: [ 1 x_23_ ^ 2 - 2 x_39_ * x_23_ + 1 x_39_ ^ 2 + 1 y_23_ ^ 2 - 2 y_39_ * y_23_ + 1 y_39_ ^ 2 ] >= 34203.51
quadratic_ranged_57_lb: [ 1 x_2_ ^ 2 - 2 x_40_ * x_2_ + 1 x_40_ ^ 2 + 1 y_2_ ^ 2 - 2 y_40_ * y_2_ + 1 y_40_ ^ 2 ] >= 7711.11
quadratic_ranged_58_lb: [ 1 x_36_ ^ 2 - 2 x_40_ * x_36_ + 1 x_40_ ^ 2 + 1 y_36_ ^ 2 - 2 y_40_ * y_36_ + 1 y_40_ ^ 2 ] >= 36800.28
quadratic_ranged_59_lb: [ 1 x_2_ ^ 2 - 2 x_41_ * x_2_ + 1 x_41_ ^ 2 + 1 y_2_ ^ 2 - 2 y_41_ * y_2_ + 1 y_41_ ^ 2 ] >= 10827.63
quadratic_ranged_60_lb: [ 1 x_3_ ^ 2 - 2 x_41_ * x_3_ + 1 x_41_ ^ 2 + 1 y_3_ ^ 2 - 2 y_41_ * y_3_ + 1 y_41_ ^ 2 ] >= 4118.4
quadratic_ranged_61_lb: [ 1 x_29_ ^ 2 - 2 x_42_ * x_29_ + 1 x_42_ ^ 2 + 1 y_29_ ^ 2 - 2 y_42_ * y_29_ + 1 y_42_ ^ 2 ] >= 5235.12
quadratic_ranged_62_lb: [ 1 x_7_ ^ 2 - 2 x_43_ * x_7_ + 1 x_43_ ^ 2 + 1 y_7_ ^ 2 - 2 y_43_ * y_7_ + 1 y_43_ ^ 2 ] >= 24877.71
quadratic_ranged_63_lb: [ 1 x_2_ ^ 2 - 2 x_44_ * x_2_ + 1 x_44_ ^ 2 + 1 y_2_ ^ 2 - 2 y_44_ * y_2_ + 1 y_44_ ^ 2 ] >= 35027.19
quadratic_ranged_64_lb: [ 1 x_19_ ^ 2 - 2 x_44_ * x_19_ + 1 x_44_ ^ 2 + 1 y_19_ ^ 2 - 2 y_44_ * y_19_ + 1 y_44_ ^ 2 ] >= 2617.56
quadratic_ranged_65_lb: [ 1 x_24_ ^ 2 - 2 x_44_ * x_24_ + 1 x_44_ ^ 2 + 1 y_24_ ^ 2 - 2 y_44_ * y_24_ + 1 y_44_ ^ 2 ] >= 14720.31
quadratic_ranged_66_lb: [ 1 x_4_ ^ 2 - 2 x_45_ * x_4_ + 1 x_45_ ^ 2 + 1 y_4_ ^ 2 - 2 y_45_ * y_4_ + 1 y_45_ ^ 2 ] >= 19935.63
quadratic_ranged_67_lb: [ 1 x_18_ ^ 2 - 2 x_45_ * x_18_ + 1 x_45_ ^ 2 + 1 y_18_ ^ 2 - 2 y_45_ * y_18_ + 1 y_45_ ^ 2 ] >= 107.91
quadratic_ranged_68_lb: [ 1 x_19_ ^ 2 - 2 x_45_ * x_19_ + 1 x_45_ ^ 2 + 1 y_19_ ^ 2 - 2 y_45_ * y_19_ + 1 y_45_ ^ 2 ] >= 6797.34
quadratic_ranged_69_lb: [ 1 x_1_ ^ 2 - 2 x_46_ * x_1_ + 1 x_46_ ^ 2 + 1 y_1_ ^ 2 - 2 y_46_ * y_1_ + 1 y_46_ ^ 2 ] >= 30446.46
quadratic_ranged_70_lb: [ 1 x_8_ ^ 2 - 2 x_46_ * x_8_ + 1 x_46_ ^ 2 + 1 y_8_ ^ 2 - 2 y_46_ * y_8_ + 1 y_46_ ^ 2 ] >= 16779.51
quadratic_ranged_71_lb: [ 1 x_26_ ^ 2 - 2 x_46_ * x_26_ + 1 x_46_ ^ 2 + 1 y_26_ ^ 2 - 2 y_46_ * y_26_ + 1 y_46_ ^ 2 ] >= 5026.23
quadratic_ranged_72_lb: [ 1 x_5_ ^ 2 - 2 x_47_ * x_5_ + 1 x_47_ ^ 2 + 1 y_5_ ^ 2 - 2 y_47_ * y_5_ + 1 y_47_ ^ 2 ] >= 18157.59
quadratic_ranged_73_lb: [ 1 x_10_ ^ 2 - 2 x_47_ * x_10_ + 1 x_47_ ^ 2 + 1 y_10_ ^ 2 - 2 y_47_ * y_10_ + 1 y_47_ ^ 2 ] >= 777.15
quadratic_ranged_74_lb: [ 1 x_18_ ^ 2 - 2 x_47_ * x_18_ + 1 x_47_ ^ 2 + 1 y_18_ ^ 2 - 2 y_47_ * y_18_ + 1 y_47_ ^ 2 ] >= 5894.46
quadratic_ranged_75_lb: [ 1 x_5_ ^ 2 - 2 x_48_ * x_5_ + 1 x_48_ ^ 2 + 1 y_5_ ^ 2 - 2 y_48_ * y_5_ + 1 y_48_ ^ 2 ] >= 19214.91
quadratic_ranged_76_lb: [ 1 x_9_ ^ 2 - 2 x_48_ * x_9_ + 1 x_48_ ^ 2 + 1 y_9_ ^ 2 - 2 y_48_ * y_9_ + 1 y_48_ ^ 2 ] >= 1783.98
quadratic_ranged_77_lb: [ 1 x_5_ ^ 2 - 2 x_49_ * x_5_ + 1 x_49_ ^ 2 + 1 y_5_ ^ 2 - 2 y_49_ * y_5_ + 1 y_49_ ^ 2 ] >= 746.46
quadratic_ranged_78_lb: [ 1 x_27_ ^ 2 - 2 x_49_ * x_27_ + 1 x_49_ ^ 2 + 1 y_27_ ^ 2 - 2 y_49_ * y_27_ + 1 y_49_ ^ 2 ] >= 15602.4
quadratic_ranged_79_lb: [ 1 x_39_ ^ 2 - 2 x_49_ * x_39_ + 1 x_49_ ^ 2 + 1 y_39_ ^ 2 - 2 y_49_ * y_39_ + 1 y_49_ ^ 2 ] >= 5991.48
quadratic_ranged_80_lb: [ 1 x_1_ ^ 2 - 2 x_50_ * x_1_ + 1 x_50_ ^ 2 + 1 y_1_ ^ 2 - 2 y_50_ * y_1_ + 1 y_50_ ^ 2 ] >= 21045.42
quadratic_ranged_81_lb: [ 1 x_42_ ^ 2 - 2 x_50_ * x_42_ + 1 x_50_ ^ 2 + 1 y_42_ ^ 2 - 2 y_50_ * y_42_ + 1 y_50_ ^ 2 ] >= 12518.55
quadratic_ranged_82_lb: [ 1 x_11_ ^ 2 - 2 x_51_ * x_11_ + 1 x_51_ ^ 2 + 1 y_11_ ^ 2 - 2 y_51_ * y_11_ + 1 y_51_ ^ 2 ] >= 10398.96
quadratic_ranged_83_lb: [ 1 x_21_ ^ 2 - 2 x_51_ * x_21_ + 1 x_51_ ^ 2 + 1 y_21_ ^ 2 - 2 y_51_ * y_21_ + 1 y_51_ ^ 2 ] >= 5149.98
quadratic_ranged_84_lb: [ 1 x_40_ ^ 2 - 2 x_51_ * x_40_ + 1 x_51_ ^ 2 + 1 y_40_ ^ 2 - 2 y_51_ * y_40_ + 1 y_51_ ^ 2 ] >= 3171.96
quadratic_ranged_85_lb: [ 1 x_4_ ^ 2 - 2 x_52_ * x_4_ + 1 x_52_ ^ 2 + 1 y_4_ ^ 2 - 2 y_52_ * y_4_ + 1 y_52_ ^ 2 ] >= 14259.96
quadratic_ranged_86_lb: [ 1 x_23_ ^ 2 - 2 x_52_ * x_23_ + 1 x_52_ ^ 2 + 1 y_23_ ^ 2 - 2 y_52_ * y_23_ + 1 y_52_ ^ 2 ] >= 3399.66
quadratic_ranged_87_lb: [ 1 x_26_ ^ 2 - 2 x_52_ * x_26_ + 1 x_52_ ^ 2 + 1 y_26_ ^ 2 - 2 y_52_ * y_26_ + 1 y_52_ ^ 2 ] >= 22671
quadratic_ranged_88_lb: [ 1 x_6_ ^ 2 - 2 x_53_ * x_6_ + 1 x_53_ ^ 2 + 1 y_6_ ^ 2 - 2 y_53_ * y_6_ + 1 y_53_ ^ 2 ] >= 8776.35
quadratic_ranged_89_lb: [ 1 x_35_ ^ 2 - 2 x_53_ * x_35_ + 1 x_53_ ^ 2 + 1 y_35_ ^ 2 - 2 y_53_ * y_35_ + 1 y_53_ ^ 2 ] >= 2574
quadratic_ranged_90_lb: [ 1 x_7_ ^ 2 - 2 x_54_ * x_7_ + 1 x_54_ ^ 2 + 1 y_7_ ^ 2 - 2 y_54_ * y_7_ + 1 y_54_ ^ 2 ] >= 8478.36
quadratic_ranged_91_lb: [ 1 x_15_ ^ 2 - 2 x_54_ * x_15_ + 1 x_54_ ^ 2 + 1 y_15_ ^ 2 - 2 y_54_ * y_15_ + 1 y_54_ ^ 2 ] >= 25597.44
quadratic_ranged_92_lb: [ 1 x_19_ ^ 2 - 2 x_55_ * x_19_ + 1 x_55_ ^ 2 + 1 y_19_ ^ 2 - 2 y_55_ * y_19_ + 1 y_55_ ^ 2 ] >= 17392.32
quadratic_ranged_93_lb: [ 1 x_29_ ^ 2 - 2 x_55_ * x_29_ + 1 x_55_ ^ 2 + 1 y_29_ ^ 2 - 2 y_55_ * y_29_ + 1 y_55_ ^ 2 ] >= 84.15
quadratic_ranged_94_lb: [ 1 x_16_ ^ 2 - 2 x_56_ * x_16_ + 1 x_56_ ^ 2 + 1 y_16_ ^ 2 - 2 y_56_ * y_16_ + 1 y_56_ ^ 2 ] >= 12894.75
quadratic_ranged_95_lb: [ 1 x_34_ ^ 2 - 2 x_57_ * x_34_ + 1 x_57_ ^ 2 + 1 y_34_ ^ 2 - 2 y_57_ * y_34_ + 1 y_57_ ^ 2 ] >= 42911.55
quadratic_ranged_96_lb: [ 1 x_51_ ^ 2 - 2 x_57_ * x_51_ + 1 x_57_ ^ 2 + 1 y_51_ ^ 2 - 2 y_57_ * y_51_ + 1 y_57_ ^ 2 ] >= 13607.55
quadratic_ranged_97_lb: [ 1 x_9_ ^ 2 - 2 x_58_ * x_9_ + 1 x_58_ ^ 2 + 1 y_9_ ^ 2 - 2 y_58_ * y_9_ + 1 y_58_ ^ 2 ] >= 14612.4
quadratic_ranged_98_lb: [ 1 x_20_ ^ 2 - 2 x_58_ * x_20_ + 1 x_58_ ^ 2 + 1 y_20_ ^ 2 - 2 y_58_ * y_20_ + 1 y_58_ ^ 2 ] >= 1825.56
quadratic_ranged_99_lb: [ 1 x_52_ ^ 2 - 2 x_59_ * x_52_ + 1 x_59_ ^ 2 + 1 y_52_ ^ 2 - 2 y_59_ * y_52_ + 1 y_59_ ^ 2 ] >= 25195.5
quadratic_ranged_100_lb: [ 1 x_19_ ^ 2 - 2 x_60_ * x_19_ + 1 x_60_ ^ 2 + 1 y_19_ ^ 2 - 2 y_60_ * y_19_ + 1 y_60_ ^ 2 ] >= 17301.24
quadratic_ranged_101_lb: [ 1 x_55_ ^ 2 - 2 x_60_ * x_55_ + 1 x_60_ ^ 2 + 1 y_55_ ^ 2 - 2 y_60_ * y_55_ + 1 y_60_ ^ 2 ] >= 2712.6
quadratic_ranged_102_lb: [ 1 x_30_ ^ 2 - 2 x_61_ * x_30_ + 1 x_61_ ^ 2 + 1 y_30_ ^ 2 - 2 y_61_ * y_30_ + 1 y_61_ ^ 2 ] >= 24699.51
quadratic_ranged_103_lb: [ 1 x_37_ ^ 2 - 2 x_61_ * x_37_ + 1 x_61_ ^ 2 + 1 y_37_ ^ 2 - 2 y_61_ * y_37_ + 1 y_61_ ^ 2 ] >= 29657.43
quadratic_ranged_104_lb: [ 1 x_5_ ^ 2 - 2 x_62_ * x_5_ + 1 x_62_ ^ 2 + 1 y_5_ ^ 2 - 2 y_62_ * y_5_ + 1 y_62_ ^ 2 ] >= 6669.63
quadratic_ranged_105_lb: [ 1 x_7_ ^ 2 - 2 x_62_ * x_7_ + 1 x_62_ ^ 2 + 1 y_7_ ^ 2 - 2 y_62_ * y_7_ + 1 y_62_ ^ 2 ] >= 23673.87
quadratic_ranged_106_lb: [ 1 x_48_ ^ 2 - 2 x_63_ * x_48_ + 1 x_63_ ^ 2 + 1 y_48_ ^ 2 - 2 y_63_ * y_48_ + 1 y_63_ ^ 2 ] >= 19883.16
quadratic_ranged_107_lb: [ 1 x_31_ ^ 2 - 2 x_64_ * x_31_ + 1 x_64_ ^ 2 + 1 y_31_ ^ 2 - 2 y_64_ * y_31_ + 1 y_64_ ^ 2 ] >= 7667.55
quadratic_ranged_108_lb: [ 1 x_43_ ^ 2 - 2 x_64_ * x_43_ + 1 x_64_ ^ 2 + 1 y_43_ ^ 2 - 2 y_64_ * y_43_ + 1 y_64_ ^ 2 ] >= 1783.98
quadratic_ranged_109_lb: [ 1 x_16_ ^ 2 - 2 x_65_ * x_16_ + 1 x_65_ ^ 2 + 1 y_16_ ^ 2 - 2 y_65_ * y_16_ + 1 y_65_ ^ 2 ] >= 5727.15
quadratic_ranged_110_lb: [ 1 x_18_ ^ 2 - 2 x_65_ * x_18_ + 1 x_65_ ^ 2 + 1 y_18_ ^ 2 - 2 y_65_ * y_18_ + 1 y_65_ ^ 2 ] >= 6345.9
quadratic_ranged_111_lb: [ 1 x_56_ ^ 2 - 2 x_65_ * x_56_ + 1 x_65_ ^ 2 + 1 y_56_ ^ 2 - 2 y_65_ * y_56_ + 1 y_65_ ^ 2 ] >= 2170.08
quadratic_ranged_112_lb: [ 1 x_2_ ^ 2 - 2 x_66_ * x_2_ + 1 x_66_ ^ 2 + 1 y_2_ ^ 2 - 2 y_66_ * y_2_ + 1 y_66_ ^ 2 ] >= 2475.99
quadratic_ranged_113_lb: [ 1 x_50_ ^ 2 - 2 x_66_ * x_50_ + 1 x_66_ ^ 2 + 1 y_50_ ^ 2 - 2 y_66_ * y_50_ + 1 y_66_ ^ 2 ] >= 16538.94
quadratic_ranged_114_lb: [ 1 x_58_ ^ 2 - 2 x_66_ * x_58_ + 1 x_66_ ^ 2 + 1 y_58_ ^ 2 - 2 y_66_ * y_58_ + 1 y_66_ ^ 2 ] >= 20992.95
quadratic_ranged_115_lb: [ 1 x_10_ ^ 2 - 2 x_67_ * x_10_ + 1 x_67_ ^ 2 + 1 y_10_ ^ 2 - 2 y_67_ * y_10_ + 1 y_67_ ^ 2 ] >= 25673.67
quadratic_ranged_116_lb: [ 1 x_25_ ^ 2 - 2 x_67_ * x_25_ + 1 x_67_ ^ 2 + 1 y_25_ ^ 2 - 2 y_67_ * y_25_ + 1 y_67_ ^ 2 ] >= 1648.35
quadratic_ranged_117_lb: [ 1 x_28_ ^ 2 - 2 x_67_ * x_28_ + 1 x_67_ ^ 2 + 1 y_28_ ^ 2 - 2 y_67_ * y_28_ + 1 y_67_ ^ 2 ] >= 17824.95
quadratic_ranged_118_lb: [ 1 x_14_ ^ 2 - 2 x_68_ * x_14_ + 1 x_68_ ^ 2 + 1 y_14_ ^ 2 - 2 y_68_ * y_14_ + 1 y_68_ ^ 2 ] >= 13203.63
quadratic_ranged_119_lb: [ 1 x_60_ ^ 2 - 2 x_68_ * x_60_ + 1 x_68_ ^ 2 + 1 y_60_ ^ 2 - 2 y_68_ * y_60_ + 1 y_68_ ^ 2 ] >= 8380.35
quadratic_ranged_120_lb: [ 1 x_16_ ^ 2 - 2 x_69_ * x_16_ + 1 x_69_ ^ 2 + 1 y_16_ ^ 2 - 2 y_69_ * y_16_ + 1 y_69_ ^ 2 ] >= 29977.2
quadratic_ranged_121_lb: [ 1 x_20_ ^ 2 - 2 x_69_ * x_20_ + 1 x_69_ ^ 2 + 1 y_20_ ^ 2 - 2 y_69_ * y_20_ + 1 y_69_ ^ 2 ] >= 10348.47
quadratic_ranged_122_lb: [ 1 x_42_ ^ 2 - 2 x_69_ * x_42_ + 1 x_69_ ^ 2 + 1 y_42_ ^ 2 - 2 y_69_ * y_42_ + 1 y_69_ ^ 2 ] >= 15468.75
quadratic_ranged_123_lb: [ 1 x_7_ ^ 2 - 2 x_70_ * x_7_ + 1 x_70_ ^ 2 + 1 y_7_ ^ 2 - 2 y_70_ * y_7_ + 1 y_70_ ^ 2 ] >= 22849.2
quadratic_ranged_124_lb: [ 1 x_25_ ^ 2 - 2 x_71_ * x_25_ + 1 x_71_ ^ 2 + 1 y_25_ ^ 2 - 2 y_71_ * y_25_ + 1 y_71_ ^ 2 ] >= 26723.07
quadratic_ranged_125_lb: [ 1 x_41_ ^ 2 - 2 x_71_ * x_41_ + 1 x_71_ ^ 2 + 1 y_41_ ^ 2 - 2 y_71_ * y_41_ + 1 y_71_ ^ 2 ] >= 503.90999999999997
quadratic_ranged_126_lb: [ 1 x_24_ ^ 2 - 2 x_72_ * x_24_ + 1 x_72_ ^ 2 + 1 y_24_ ^ 2 - 2 y_72_ * y_24_ + 1 y_72_ ^ 2 ] >= 18145.71
quadratic_ranged_127_lb: [ 1 x_68_ ^ 2 - 2 x_72_ * x_68_ + 1 x_72_ ^ 2 + 1 y_68_ ^ 2 - 2 y_72_ * y_68_ + 1 y_72_ ^ 2 ] >= 9041.67
quadratic_ranged_128_lb: [ 1 x_23_ ^ 2 - 2 x_73_ * x_23_ + 1 x_73_ ^ 2 + 1 y_23_ ^ 2 - 2 y_73_ * y_23_ + 1 y_73_ ^ 2 ] >= 20988
quadratic_ranged_129_lb: [ 1 x_30_ ^ 2 - 2 x_73_ * x_30_ + 1 x_73_ ^ 2 + 1 y_30_ ^ 2 - 2 y_73_ * y_30_ + 1 y_73_ ^ 2 ] >= 17966.52
quadratic_ranged_130_lb: [ 1 x_70_ ^ 2 - 2 x_73_ * x_70_ + 1 x_73_ ^ 2 + 1 y_70_ ^ 2 - 2 y_73_ * y_70_ + 1 y_73_ ^ 2 ] >= 21828.51
quadratic_ranged_131_lb: [ 1 x_14_ ^ 2 - 2 x_74_ * x_14_ + 1 x_74_ ^ 2 + 1 y_14_ ^ 2 - 2 y_74_ * y_14_ + 1 y_74_ ^ 2 ] >= 20087.1
quadratic_ranged_132_lb: [ 1 x_23_ ^ 2 - 2 x_74_ * x_23_ + 1 x_74_ ^ 2 + 1 y_23_ ^ 2 - 2 y_74_ * y_23_ + 1 y_74_ ^ 2 ] >= 22767.03
quadratic_ranged_133_lb: [ 1 x_33_ ^ 2 - 2 x_75_ * x_33_ + 1 x_75_ ^ 2 + 1 y_33_ ^ 2 - 2 y_75_ * y_33_ + 1 y_75_ ^ 2 ] >= 54118.35
quadratic_ranged_134_lb: [ 1 x_57_ ^ 2 - 2 x_75_ * x_57_ + 1 x_75_ ^ 2 + 1 y_57_ ^ 2 - 2 y_75_ * y_57_ + 1 y_75_ ^ 2 ] >= 641.52
quadratic_ranged_135_lb: [ 1 x_43_ ^ 2 - 2 x_76_ * x_43_ + 1 x_76_ ^ 2 + 1 y_43_ ^ 2 - 2 y_76_ * y_43_ + 1 y_76_ ^ 2 ] >= 15175.71
quadratic_ranged_136_lb: [ 1 x_70_ ^ 2 - 2 x_76_ * x_70_ + 1 x_76_ ^ 2 + 1 y_70_ ^ 2 - 2 y_76_ * y_70_ + 1 y_76_ ^ 2 ] >= 10870.2
quadratic_ranged_137_lb: [ 1 x_9_ ^ 2 - 2 x_77_ * x_9_ + 1 x_77_ ^ 2 + 1 y_9_ ^ 2 - 2 y_77_ * y_9_ + 1 y_77_ ^ 2 ] >= 23745.15
quadratic_ranged_138_lb: [ 1 x_31_ ^ 2 - 2 x_77_ * x_31_ + 1 x_77_ ^ 2 + 1 y_31_ ^ 2 - 2 y_77_ * y_31_ + 1 y_77_ ^ 2 ] >= 3251.16
quadratic_ranged_139_lb: [ 1 x_33_ ^ 2 - 2 x_78_ * x_33_ + 1 x_78_ ^ 2 + 1 y_33_ ^ 2 - 2 y_78_ * y_33_ + 1 y_78_ ^ 2 ] >= 25098.48
quadratic_ranged_140_lb: [ 1 x_44_ ^ 2 - 2 x_78_ * x_44_ + 1 x_78_ ^ 2 + 1 y_44_ ^ 2 - 2 y_78_ * y_44_ + 1 y_78_ ^ 2 ] >= 15493.5
quadratic_ranged_141_lb: [ 1 x_56_ ^ 2 - 2 x_78_ * x_56_ + 1 x_78_ ^ 2 + 1 y_56_ ^ 2 - 2 y_78_ * y_56_ + 1 y_78_ ^ 2 ] >= 17480.43
quadratic_ranged_142_lb: [ 1 x_20_ ^ 2 - 2 x_79_ * x_20_ + 1 x_79_ ^ 2 + 1 y_20_ ^ 2 - 2 y_79_ * y_20_ + 1 y_79_ ^ 2 ] >= 16858.71
quadratic_ranged_143_lb: [ 1 x_28_ ^ 2 - 2 x_79_ * x_28_ + 1 x_79_ ^ 2 + 1 y_28_ ^ 2 - 2 y_79_ * y_28_ + 1 y_79_ ^ 2 ] >= 2930.4
quadratic_ranged_144_lb: [ 1 x_41_ ^ 2 - 2 x_79_ * x_41_ + 1 x_79_ ^ 2 + 1 y_41_ ^ 2 - 2 y_79_ * y_41_ + 1 y_79_ ^ 2 ] >= 7589.34
quadratic_ranged_145_lb: [ 1 x_32_ ^ 2 - 2 x_80_ * x_32_ + 1 x_80_ ^ 2 + 1 y_32_ ^ 2 - 2 y_80_ * y_32_ + 1 y_80_ ^ 2 ] >= 11953.26
quadratic_ranged_146_lb: [ 1 x_37_ ^ 2 - 2 x_80_ * x_37_ + 1 x_80_ ^ 2 + 1 y_37_ ^ 2 - 2 y_80_ * y_37_ + 1 y_80_ ^ 2 ] >= 6720.12
quadratic_ranged_147_lb: [ 1 x_28_ ^ 2 - 2 x_81_ * x_28_ + 1 x_81_ ^ 2 + 1 y_28_ ^ 2 - 2 y_81_ * y_28_ + 1 y_81_ ^ 2 ] >= 7924.95
quadratic_ranged_148_lb: [ 1 x_74_ ^ 2 - 2 x_81_ * x_74_ + 1 x_81_ ^ 2 + 1 y_74_ ^ 2 - 2 y_81_ * y_74_ + 1 y_81_ ^ 2 ] >= 2234.43
quadratic_ranged_149_lb: [ 1 x_37_ ^ 2 - 2 x_82_ * x_37_ + 1 x_82_ ^ 2 + 1 y_37_ ^ 2 - 2 y_82_ * y_37_ + 1 y_82_ ^ 2 ] >= 6377.58
quadratic_ranged_150_lb: [ 1 x_47_ ^ 2 - 2 x_82_ * x_47_ + 1 x_82_ ^ 2 + 1 y_47_ ^ 2 - 2 y_82_ * y_47_ + 1 y_82_ ^ 2 ] >= 10994.94
quadratic_ranged_151_lb: [ 1 x_59_ ^ 2 - 2 x_82_ * x_59_ + 1 x_82_ ^ 2 + 1 y_59_ ^ 2 - 2 y_82_ * y_59_ + 1 y_82_ ^ 2 ] >= 9694.08
quadratic_ranged_152_lb: [ 1 x_6_ ^ 2 - 2 x_83_ * x_6_ + 1 x_83_ ^ 2 + 1 y_6_ ^ 2 - 2 y_83_ * y_6_ + 1 y_83_ ^ 2 ] >= 15872.67
quadratic_ranged_153_lb: [ 1 x_21_ ^ 2 - 2 x_83_ * x_21_ + 1 x_83_ ^ 2 + 1 y_21_ ^ 2 - 2 y_83_ * y_21_ + 1 y_83_ ^ 2 ] >= 2578.95
quadratic_ranged_154_lb: [ 1 x_76_ ^ 2 - 2 x_83_ * x_76_ + 1 x_83_ ^ 2 + 1 y_76_ ^ 2 - 2 y_83_ * y_76_ + 1 y_83_ ^ 2 ] >= 18834.75
quadratic_ranged_155_lb: [ 1 x_4_ ^ 2 - 2 x_84_ * x_4_ + 1 x_84_ ^ 2 + 1 y_4_ ^ 2 - 2 y_84_ * y_4_ + 1 y_84_ ^ 2 ] >= 17310.15
quadratic_ranged_156_lb: [ 1 x_58_ ^ 2 - 2 x_84_ * x_58_ + 1 x_84_ ^ 2 + 1 y_58_ ^ 2 - 2 y_84_ * y_58_ + 1 y_84_ ^ 2 ] >= 4875.75
quadratic_ranged_157_lb: [ 1 x_18_ ^ 2 - 2 x_85_ * x_18_ + 1 x_85_ ^ 2 + 1 y_18_ ^ 2 - 2 y_85_ * y_18_ + 1 y_85_ ^ 2 ] >= 926.64
quadratic_ranged_158_lb: [ 1 x_54_ ^ 2 - 2 x_85_ * x_54_ + 1 x_85_ ^ 2 + 1 y_54_ ^ 2 - 2 y_85_ * y_54_ + 1 y_85_ ^ 2 ] >= 14150.07
quadratic_ranged_159_lb: [ 1 x_63_ ^ 2 - 2 x_85_ * x_63_ + 1 x_85_ ^ 2 + 1 y_63_ ^ 2 - 2 y_85_ * y_63_ + 1 y_85_ ^ 2 ] >= 2805.66
quadratic_ranged_160_lb: [ 1 x_31_ ^ 2 - 2 x_86_ * x_31_ + 1 x_86_ ^ 2 + 1 y_31_ ^ 2 - 2 y_86_ * y_31_ + 1 y_86_ ^ 2 ] >= 1172.16
quadratic_ranged_161_lb: [ 1 x_63_ ^ 2 - 2 x_86_ * x_63_ + 1 x_86_ ^ 2 + 1 y_63_ ^ 2 - 2 y_86_ * y_63_ + 1 y_86_ ^ 2 ] >= 25721.19
quadratic_ranged_162_lb: [ 1 x_2_ ^ 2 - 2 x_87_ * x_2_ + 1 x_87_ ^ 2 + 1 y_2_ ^ 2 - 2 y_87_ * y_2_ + 1 y_87_ ^ 2 ] >= 16768.62
quadratic_ranged_163_lb: [ 1 x_27_ ^ 2 - 2 x_87_ * x_27_ + 1 x_87_ ^ 2 + 1 y_27_ ^ 2 - 2 y_87_ * y_27_ + 1 y_87_ ^ 2 ] >= 29974.23
quadratic_ranged_164_lb: [ 1 x_37_ ^ 2 - 2 x_88_ * x_37_ + 1 x_88_ ^ 2 + 1 y_37_ ^ 2 - 2 y_88_ * y_37_ + 1 y_88_ ^ 2 ] >= 1632.51
quadratic_ranged_165_lb: [ 1 x_81_ ^ 2 - 2 x_88_ * x_81_ + 1 x_88_ ^ 2 + 1 y_81_ ^ 2 - 2 y_88_ * y_81_ + 1 y_88_ ^ 2 ] >= 2998.71
quadratic_ranged_166_lb: [ 1 x_7_ ^ 2 - 2 x_89_ * x_7_ + 1 x_89_ ^ 2 + 1 y_7_ ^ 2 - 2 y_89_ * y_7_ + 1 y_89_ ^ 2 ] >= 35819.19
quadratic_ranged_167_lb: [ 1 x_14_ ^ 2 - 2 x_89_ * x_14_ + 1 x_89_ ^ 2 + 1 y_14_ ^ 2 - 2 y_89_ * y_14_ + 1 y_89_ ^ 2 ] >= 20688.03
quadratic_ranged_168_lb: [ 1 x_15_ ^ 2 - 2 x_90_ * x_15_ + 1 x_90_ ^ 2 + 1 y_15_ ^ 2 - 2 y_90_ * y_15_ + 1 y_90_ ^ 2 ] >= 22240.35
quadratic_ranged_169_lb: [ 1 x_63_ ^ 2 - 2 x_90_ * x_63_ + 1 x_90_ ^ 2 + 1 y_63_ ^ 2 - 2 y_90_ * y_63_ + 1 y_90_ ^ 2 ] >= 25686.54
quadratic_ranged_170_lb: [ 1 x_23_ ^ 2 - 2 x_91_ * x_23_ + 1 x_91_ ^ 2 + 1 y_23_ ^ 2 - 2 y_91_ * y_23_ + 1 y_91_ ^ 2 ] >= 15968.7
quadratic_ranged_171_lb: [ 1 x_27_ ^ 2 - 2 x_91_ * x_27_ + 1 x_91_ ^ 2 + 1 y_27_ ^ 2 - 2 y_91_ * y_27_ + 1 y_91_ ^ 2 ] >= 7093.35
quadratic_ranged_172_lb: [ 1 x_10_ ^ 2 - 2 x_92_ * x_10_ + 1 x_92_ ^ 2 + 1 y_10_ ^ 2 - 2 y_92_ * y_10_ + 1 y_92_ ^ 2 ] >= 8811
quadratic_ranged_173_lb: [ 1 x_17_ ^ 2 - 2 x_92_ * x_17_ + 1 x_92_ ^ 2 + 1 y_17_ ^ 2 - 2 y_92_ * y_17_ + 1 y_92_ ^ 2 ] >= 801.9
quadratic_ranged_174_lb: [ 1 x_77_ ^ 2 - 2 x_92_ * x_77_ + 1 x_92_ ^ 2 + 1 y_77_ ^ 2 - 2 y_92_ * y_77_ + 1 y_92_ ^ 2 ] >= 5149.98
quadratic_ranged_175_lb: [ 1 x_40_ ^ 2 - 2 x_93_ * x_40_ + 1 x_93_ ^ 2 + 1 y_40_ ^ 2 - 2 y_93_ * y_40_ + 1 y_93_ ^ 2 ] >= 21702.78
quadratic_ranged_176_lb: [ 1 x_53_ ^ 2 - 2 x_93_ * x_53_ + 1 x_93_ ^ 2 + 1 y_53_ ^ 2 - 2 y_93_ * y_53_ + 1 y_93_ ^ 2 ] >= 2677.95
quadratic_ranged_177_lb: [ 1 x_58_ ^ 2 - 2 x_93_ * x_58_ + 1 x_93_ ^ 2 + 1 y_58_ ^ 2 - 2 y_93_ * y_58_ + 1 y_93_ ^ 2 ] >= 4139.19
quadratic_ranged_178_lb: [ 1 x_1_ ^ 2 - 2 x_94_ * x_1_ + 1 x_94_ ^ 2 + 1 y_1_ ^ 2 - 2 y_94_ * y_1_ + 1 y_94_ ^ 2 ] >= 16300.35
quadratic_ranged_179_lb: [ 1 x_32_ ^ 2 - 2 x_94_ * x_32_ + 1 x_94_ ^ 2 + 1 y_32_ ^ 2 - 2 y_94_ * y_32_ + 1 y_94_ ^ 2 ] >= 25676.64
quadratic_ranged_180_lb: [ 1 x_43_ ^ 2 - 2 x_94_ * x_43_ + 1 x_94_ ^ 2 + 1 y_43_ ^ 2 - 2 y_94_ * y_43_ + 1 y_94_ ^ 2 ] >= 4197.6
quadratic_ranged_181_lb: [ 1 x_5_ ^ 2 - 2 x_95_ * x_5_ + 1 x_95_ ^ 2 + 1 y_5_ ^ 2 - 2 y_95_ * y_5_ + 1 y_95_ ^ 2 ] >= 2226.5099999999998
quadratic_ranged_182_lb: [ 1 x_11_ ^ 2 - 2 x_95_ * x_11_ + 1 x_95_ ^ 2 + 1 y_11_ ^ 2 - 2 y_95_ * y_11_ + 1 y_95_ ^ 2 ] >= 10162.35
quadratic_ranged_183_lb: [ 1 x_37_ ^ 2 - 2 x_95_ * x_37_ + 1 x_95_ ^ 2 + 1 y_37_ ^ 2 - 2 y_95_ * y_37_ + 1 y_95_ ^ 2 ] >= 1999.8
quadratic_ranged_184_lb: [ 1 x_1_ ^ 2 - 2 x_96_ * x_1_ + 1 x_96_ ^ 2 + 1 y_1_ ^ 2 - 2 y_96_ * y_1_ + 1 y_96_ ^ 2 ] >= 12014.64
quadratic_ranged_185_lb: [ 1 x_44_ ^ 2 - 2 x_96_ * x_44_ + 1 x_96_ ^ 2 + 1 y_44_ ^ 2 - 2 y_96_ * y_44_ + 1 y_96_ ^ 2 ] >= 5247
quadratic_ranged_186_lb: [ 1 x_91_ ^ 2 - 2 x_96_ * x_91_ + 1 x_96_ ^ 2 + 1 y_91_ ^ 2 - 2 y_96_ * y_91_ + 1 y_96_ ^ 2 ] >= 488.07
quadratic_ranged_187_lb: [ 1 x_6_ ^ 2 - 2 x_97_ * x_6_ + 1 x_97_ ^ 2 + 1 y_6_ ^ 2 - 2 y_97_ * y_6_ + 1 y_97_ ^ 2 ] >= 16688.43
quadratic_ranged_188_lb: [ 1 x_32_ ^ 2 - 2 x_97_ * x_32_ + 1 x_97_ ^ 2 + 1 y_32_ ^ 2 - 2 y_97_ * y_32_ + 1 y_97_ ^ 2 ] >= 11824.56
quadratic_ranged_189_lb: [ 1 x_55_ ^ 2 - 2 x_97_ * x_55_ + 1 x_97_ ^ 2 + 1 y_55_ ^ 2 - 2 y_97_ * y_55_ + 1 y_97_ ^ 2 ] >= 4491.63
quadratic_ranged_190_lb: [ 1 x_11_ ^ 2 - 2 x_98_ * x_11_ + 1 x_98_ ^ 2 + 1 y_11_ ^ 2 - 2 y_98_ * y_11_ + 1 y_98_ ^ 2 ] >= 20541.51
quadratic_ranged_191_lb: [ 1 x_38_ ^ 2 - 2 x_98_ * x_38_ + 1 x_98_ ^ 2 + 1 y_38_ ^ 2 - 2 y_98_ * y_38_ + 1 y_98_ ^ 2 ] >= 6039
quadratic_ranged_192_lb: [ 1 x_53_ ^ 2 - 2 x_98_ * x_53_ + 1 x_98_ ^ 2 + 1 y_53_ ^ 2 - 2 y_98_ * y_53_ + 1 y_98_ ^ 2 ] >= 881.1
quadratic_ranged_193_lb: [ 1 x_13_ ^ 2 - 2 x_99_ * x_13_ + 1 x_99_ ^ 2 + 1 y_13_ ^ 2 - 2 y_99_ * y_13_ + 1 y_99_ ^ 2 ] >= 31605.75
quadratic_ranged_194_lb: [ 1 x_64_ ^ 2 - 2 x_99_ * x_64_ + 1 x_99_ ^ 2 + 1 y_64_ ^ 2 - 2 y_99_ * y_64_ + 1 y_99_ ^ 2 ] >= 9662.4
quadratic_ranged_195_lb: [ 1 x_94_ ^ 2 - 2 x_99_ * x_94_ + 1 x_99_ ^ 2 + 1 y_94_ ^ 2 - 2 y_99_ * y_94_ + 1 y_99_ ^ 2 ] >= 160.38
quadratic_ranged_196_lb: [ 1 x_59_ ^ 2 - 2 x_100_ * x_59_ + 1 x_100_ ^ 2 + 1 y_59_ ^ 2 - 2 y_100_ * y_59_ + 1 y_100_ ^ 2 ] >= 1181.07
quadratic_ranged_197_lb: [ 1 x_64_ ^ 2 - 2 x_100_ * x_64_ + 1 x_100_ ^ 2 + 1 y_64_ ^ 2 - 2 y_100_ * y_64_ + 1 y_100_ ^ 2 ] >= 5560.83
c1_1: 1 x_11_ = 18
c2_1: 1 y_11_ = -78
c3_1: 1 x_21_ = -21
c4_1: 1 y_21_ = 41
c5_1: 1 x_98_ = -75
c6_1: 1 y_98_ = 32
Bounds
-224 <= x_1_ <= 240
-193 <= x_2_ <= 197
-244 <= x_3_ <= 181
-266 <= x_4_ <= 275
-131 <= x_5_ <= 148
-199 <= x_6_ <= 49
-186 <= x_7_ <= 144
-294 <= x_8_ <= 303
-250 <= x_9_ <= 100
-218 <= x_10_ <= 212
x_11_ = 18
-252 <= x_12_ <= 102
-282 <= x_13_ <= 280
-269 <= x_14_ <= 207
-178 <= x_15_ <= 101
-270 <= x_16_ <= 144
-242 <= x_17_ <= 92
-113 <= x_18_ <= 149
-207 <= x_19_ <= 218
-265 <= x_20_ <= 115
x_21_ = -21
-255 <= x_22_ <= 272
-271 <= x_23_ <= 307
-103 <= x_24_ <= 139
-396 <= x_25_ <= 406
-472 <= x_26_ <= 488
-283 <= x_27_ <= 133
-315 <= x_28_ <= 301
-313 <= x_29_ <= 257
-214 <= x_30_ <= 250
-215 <= x_31_ <= 232
-269 <= x_32_ <= 281
-324 <= x_33_ <= 262
-296 <= x_34_ <= 313
-156 <= x_35_ <= 6
-267 <= x_36_ <= 284
-128 <= x_37_ <= 164
-153 <= x_38_ <= 3
-237 <= x_39_ <= 253
-141 <= x_40_ <= 108
-298 <= x_41_ <= 246
-386 <= x_42_ <= 330
-335 <= x_43_ <= 293
-225 <= x_44_ <= 261
-123 <= x_45_ <= 159
-400 <= x_46_ <= 416
-190 <= x_47_ <= 226
-271 <= x_48_ <= 142
-159 <= x_49_ <= 175
-370 <= x_50_ <= 348
-85 <= x_51_ <= 51
-329 <= x_52_ <= 365
-104 <= x_53_ <= -46
-264 <= x_54_ <= 237
-322 <= x_55_ <= 247
-240 <= x_56_ <= 259
-202 <= x_57_ <= 169
-222 <= x_58_ <= 72
-309 <= x_59_ <= 345
-339 <= x_60_ <= 300
-302 <= x_61_ <= 338
-213 <= x_62_ <= 230
-197 <= x_63_ <= 233
-304 <= x_64_ <= 320
-193 <= x_65_ <= 221
-243 <= x_66_ <= 218
-380 <= x_67_ <= 373
-335 <= x_68_ <= 323
-368 <= x_69_ <= 218
-316 <= x_70_ <= 274
-321 <= x_71_ <= 269
-239 <= x_72_ <= 275
-349 <= x_73_ <= 385
-272 <= x_74_ <= 308
-228 <= x_75_ <= 194
-210 <= x_76_ <= 168
-273 <= x_77_ <= 193
-351 <= x_78_ <= 387
-369 <= x_79_ <= 246
-211 <= x_80_ <= 247
-225 <= x_81_ <= 261
-209 <= x_82_ <= 245
-72 <= x_83_ <= 30
-292 <= x_84_ <= 142
-143 <= x_85_ <= 179
-250 <= x_86_ <= 266
-324 <= x_87_ <= 308
-169 <= x_88_ <= 205
-377 <= x_89_ <= 335
-329 <= x_90_ <= 251
-321 <= x_91_ <= 218
-270 <= x_92_ <= 120
-157 <= x_93_ <= 7
-353 <= x_94_ <= 358
-83 <= x_95_ <= 119
-298 <= x_96_ <= 241
-330 <= x_97_ <= 180
x_98_ = -75
-366 <= x_99_ <= 371
-343 <= x_100_ <= 379
-283 <= y_1_ <= 164
-177 <= y_2_ <= 133
-195 <= y_3_ <= 184
-318 <= y_4_ <= 206
-191 <= y_5_ <= 71
-92 <= y_6_ <= 145
-124 <= y_7_ <= 206
-346 <= y_8_ <= 234
-143 <= y_9_ <= 196
-192 <= y_10_ <= 158
y_11_ = -78
-145 <= y_12_ <= 198
-307 <= y_13_ <= 222
-221 <= y_14_ <= 209
-144 <= y_15_ <= 118
-187 <= y_16_ <= 210
-135 <= y_17_ <= 199
-209 <= y_18_ <= 53
-232 <= y_19_ <= 147
-158 <= y_20_ <= 222
y_21_ = 41
-315 <= y_22_ <= 195
-367 <= y_23_ <= 211
-195 <= y_24_ <= 43
-386 <= y_25_ <= 336
-531 <= y_26_ <= 412
-176 <= y_27_ <= 225
-344 <= y_28_ <= 255
-300 <= y_29_ <= 253
-310 <= y_30_ <= 154
-275 <= y_31_ <= 155
-295 <= y_32_ <= 209
-276 <= y_33_ <= 264
-356 <= y_34_ <= 236
-49 <= y_35_ <= 113
-282 <= y_36_ <= 207
-224 <= y_37_ <= 68
-46 <= y_38_ <= 110
-296 <= y_39_ <= 177
-88 <= y_40_ <= 81
-260 <= y_41_ <= 238
-373 <= y_42_ <= 326
-273 <= y_43_ <= 286
-284 <= y_44_ <= 165
-219 <= y_45_ <= 63
-459 <= y_46_ <= 340
-220 <= y_47_ <= 130
-185 <= y_48_ <= 211
-218 <= y_49_ <= 99
-357 <= y_50_ <= 310
-31 <= y_51_ <= 25
-425 <= y_52_ <= 269
3 <= y_53_ <= 61
-217 <= y_54_ <= 204
-290 <= y_55_ <= 262
-302 <= y_56_ <= 180
-149 <= y_57_ <= 142
-115 <= y_58_ <= 179
-405 <= y_59_ <= 249
-343 <= y_60_ <= 279
-398 <= y_61_ <= 242
-273 <= y_62_ <= 153
-293 <= y_63_ <= 137
-316 <= y_64_ <= 244
-264 <= y_65_ <= 133
-227 <= y_66_ <= 183
-353 <= y_67_ <= 320
-337 <= y_68_ <= 275
-261 <= y_69_ <= 324
-254 <= y_70_ <= 336
-283 <= y_71_ <= 261
-331 <= y_72_ <= 179
-403 <= y_73_ <= 289
-364 <= y_74_ <= 212
-174 <= y_75_ <= 168
-148 <= y_76_ <= 230
-236 <= y_77_ <= 213
-410 <= y_78_ <= 291
-289 <= y_79_ <= 309
-307 <= y_80_ <= 151
-321 <= y_81_ <= 165
-305 <= y_82_ <= 149
-10 <= y_83_ <= 92
-185 <= y_84_ <= 249
-239 <= y_85_ <= 83
-309 <= y_86_ <= 190
-307 <= y_87_ <= 264
-265 <= y_88_ <= 109
-315 <= y_89_ <= 355
-294 <= y_90_ <= 269
-261 <= y_91_ <= 261
-163 <= y_92_ <= 227
-50 <= y_93_ <= 114
-338 <= y_94_ <= 293
-179 <= y_95_ <= 23
-284 <= y_96_ <= 238
-223 <= y_97_ <= 276
y_98_ = 32
-351 <= y_99_ <= 306
-391 <= y_100_ <= 283
General
x_1_
x_2_
x_3_
x_4_
x_5_
x_6_
x_7_
x_8_
x_9_
x_10_
x_11_
x_12_
x_13_
x_14_
x_15_
x_16_
x_17_
x_18_
x_19_
x_20_
x_21_
x_22_
x_23_
x_24_
x_25_
x_26_
x_27_
x_28_
x_29_
x_30_
x_31_
x_32_
x_33_
x_34_
x_35_
x_36_
x_37_
x_38_
x_39_
x_40_
x_41_
x_42_
x_43_
x_44_
x_45_
x_46_
x_47_
x_48_
x_49_
x_50_
x_51_
x_52_
x_53_
x_54_
x_55_
x_56_
x_57_
x_58_
x_59_
x_60_
x_61_
x_62_
x_63_
x_64_
x_65_
x_66_
x_67_
x_68_
x_69_
x_70_
x_71_
x_72_
x_73_
x_74_
x_75_
x_76_
x_77_
x_78_
x_79_
x_80_
x_81_
x_82_
x_83_
x_84_
x_85_
x_86_
x_87_
x_88_
x_89_
x_90_
x_91_
x_92_
x_93_
x_94_
x_95_
x_96_
x_97_
x_98_
x_99_
x_100_
y_1_
y_2_
y_3_
y_4_
y_5_
y_6_
y_7_
y_8_
y_9_
y_10_
y_11_
y_12_
y_13_
y_14_
y_15_
y_16_
y_17_
y_18_
y_19_
y_20_
y_21_
y_22_
y_23_
y_24_
y_25_
y_26_
y_27_
y_28_
y_29_
y_30_
y_31_
y_32_
y_33_
y_34_
y_35_
y_36_
y_37_
y_38_
y_39_
y_40_
y_41_
y_42_
y_43_
y_44_
y_45_
y_46_
y_47_
y_48_
y_49_
y_50_
y_51_
y_52_
y_53_
y_54_
y_55_
y_56_
y_57_
y_58_
y_59_
y_60_
y_61_
y_62_
y_63_
y_64_
y_65_
y_66_
y_67_
y_68_
y_69_
y_70_
y_71_
y_72_
y_73_
y_74_
y_75_
y_76_
y_77_
y_78_
y_79_
y_80_
y_81_
y_82_
y_83_
y_84_
y_85_
y_86_
y_87_
y_88_
y_89_
y_90_
y_91_
y_92_
y_93_
y_94_
y_95_
y_96_
y_97_
y_98_
y_99_
y_100_
End
