minimize
obj: 
subject to
c1_4: -1 x_11_ + 1 y_11_ <= 0
c1_1: [ 1 x_1_ ^ 2 + 1 y_1_ ^ 2 ] <= 23941
c2_1: [ 1 x_2_ ^ 2 + 1 y_2_ ^ 2 ] <= 45603
c3_1: [ 1 x_3_ ^ 2 + 1 y_3_ ^ 2 ] <= 857
c4_1: [ 1 x_4_ ^ 2 + 1 y_4_ ^ 2 ] <= 9508
c5_1: [ 1 x_5_ ^ 2 + 1 y_5_ ^ 2 ] <= 8509
c6_1: [ 1 x_7_ ^ 2 + 1 y_7_ ^ 2 ] <= 37164
c7_1: [ 1 x_8_ ^ 2 + 1 y_8_ ^ 2 ] <= 63248
c8_1: [ 1 x_9_ ^ 2 + 1 y_9_ ^ 2 ] <= 58345
c9_1: [ 1 x_10_ ^ 2 + 1 y_10_ ^ 2 ] <= 30519
c10_1: [ 1 x_11_ ^ 2 + 1 y_11_ ^ 2 ] <= 64389
c11_1: [ 1 x_12_ ^ 2 + 1 y_12_ ^ 2 ] <= 2250
c12_1: [ 1 x_13_ ^ 2 + 1 y_13_ ^ 2 ] <= 28208
c13_1: [ 1 x_14_ ^ 2 + 1 y_14_ ^ 2 ] <= 38045
c14_1: [ 1 x_15_ ^ 2 + 1 y_15_ ^ 2 ] <= 11960
c15_1: [ 1 x_16_ ^ 2 + 1 y_16_ ^ 2 ] <= 33914
c16_1: [ 1 x_17_ ^ 2 + 1 y_17_ ^ 2 ] <= 41110
c17_1: [ 1 x_18_ ^ 2 + 1 y_18_ ^ 2 ] <= 4498
c18_1: [ 1 x_19_ ^ 2 + 1 y_19_ ^ 2 ] <= 18264
c19_1: [ 1 x_20_ ^ 2 + 1 y_20_ ^ 2 ] <= 27009
c1_3: 1 x_11_ >= 0
c2_3: 1 y_11_ >= 0
c1_2: 1 x_6_ = 0
c2_2: 1 y_6_ = 0
c1: [ 1 x_1_ ^ 2 - 2 x_2_ * x_1_ + 1 x_2_ ^ 2 + 1 y_1_ ^ 2 - 2 y_2_ * y_1_ + 1 y_2_ ^ 2 ] = 22882
c2: [ 1 x_1_ ^ 2 - 2 x_3_ * x_1_ + 1 x_3_ ^ 2 + 1 y_1_ ^ 2 - 2 y_3_ * y_1_ + 1 y_3_ ^ 2 ] = 26770
c3: [ 1 x_2_ ^ 2 - 2 x_4_ * x_2_ + 1 x_4_ ^ 2 + 1 y_2_ ^ 2 - 2 y_4_ * y_2_ + 1 y_4_ ^ 2 ] = 13465
c4: [ 1 x_3_ ^ 2 - 2 x_5_ * x_3_ + 1 x_5_ ^ 2 + 1 y_3_ ^ 2 - 2 y_5_ * y_3_ + 1 y_5_ ^ 2 ] = 3965
c5: [ 1 x_1_ ^ 2 - 2 x_6_ * x_1_ + 1 x_6_ ^ 2 + 1 y_1_ ^ 2 - 2 y_6_ * y_1_ + 1 y_6_ ^ 2 ] = 23941
c6: [ 1 x_3_ ^ 2 - 2 x_6_ * x_3_ + 1 x_6_ ^ 2 + 1 y_3_ ^ 2 - 2 y_6_ * y_3_ + 1 y_6_ ^ 2 ] = 857
c7: [ 1 x_4_ ^ 2 - 2 x_6_ * x_4_ + 1 x_6_ ^ 2 + 1 y_4_ ^ 2 - 2 y_6_ * y_4_ + 1 y_6_ ^ 2 ] = 9508
c8: [ 1 x_5_ ^ 2 - 2 x_7_ * x_5_ + 1 x_7_ ^ 2 + 1 y_5_ ^ 2 - 2 y_7_ * y_5_ + 1 y_7_ ^ 2 ] = 28757
c9: [ 1 x_5_ ^ 2 - 2 x_8_ * x_5_ + 1 x_8_ ^ 2 + 1 y_5_ ^ 2 - 2 y_8_ * y_5_ + 1 y_8_ ^ 2 ] = 25360
c10: [ 1 x_8_ ^ 2 - 2 x_9_ * x_8_ + 1 x_9_ ^ 2 + 1 y_8_ ^ 2 - 2 y_9_ * y_8_ + 1 y_9_ ^ 2 ] = 18212
c11: [ 1 x_4_ ^ 2 - 2 x_10_ * x_4_ + 1 x_10_ ^ 2 + 1 y_4_ ^ 2 - 2 y_10_ * y_4_ + 1 y_10_ ^ 2 ] = 6122
c12: [ 1 x_5_ ^ 2 - 2 x_10_ * x_5_ + 1 x_10_ ^ 2 + 1 y_5_ ^ 2 - 2 y_10_ * y_5_ + 1 y_10_ ^ 2 ] = 21320
c13: [ 1 x_7_ ^ 2 - 2 x_10_ * x_7_ + 1 x_10_ ^ 2 + 1 y_7_ ^ 2 - 2 y_10_ * y_7_ + 1 y_10_ ^ 2 ] = 17041
c14: [ 1 x_1_ ^ 2 - 2 x_11_ * x_1_ + 1 x_11_ ^ 2 + 1 y_1_ ^ 2 - 2 y_11_ * y_1_ + 1 y_11_ ^ 2 ] = 9805
c15: [ 1 x_8_ ^ 2 - 2 x_11_ * x_8_ + 1 x_11_ ^ 2 + 1 y_8_ ^ 2 - 2 y_11_ * y_8_ + 1 y_11_ ^ 2 ] = 8660
c16: [ 1 x_6_ ^ 2 - 2 x_12_ * x_6_ + 1 x_12_ ^ 2 + 1 y_6_ ^ 2 - 2 y_12_ * y_6_ + 1 y_12_ ^ 2 ] = 2250
c17: [ 1 x_7_ ^ 2 - 2 x_12_ * x_7_ + 1 x_12_ ^ 2 + 1 y_7_ ^ 2 - 2 y_12_ * y_7_ + 1 y_12_ ^ 2 ] = 21125
c18: [ 1 x_10_ ^ 2 - 2 x_12_ * x_10_ + 1 x_12_ ^ 2 + 1 y_10_ ^ 2 - 2 y_12_ * y_10_ + 1 y_12_ ^ 2 ] = 16196
c19: [ 1 x_2_ ^ 2 - 2 x_13_ * x_2_ + 1 x_13_ ^ 2 + 1 y_2_ ^ 2 - 2 y_13_ * y_2_ + 1 y_13_ ^ 2 ] = 18785
c20: [ 1 x_5_ ^ 2 - 2 x_13_ * x_5_ + 1 x_13_ ^ 2 + 1 y_5_ ^ 2 - 2 y_13_ * y_5_ + 1 y_13_ ^ 2 ] = 5732
c21: [ 1 x_9_ ^ 2 - 2 x_13_ * x_9_ + 1 x_13_ ^ 2 + 1 y_9_ ^ 2 - 2 y_13_ * y_9_ + 1 y_13_ ^ 2 ] = 5416
c22: [ 1 x_3_ ^ 2 - 2 x_14_ * x_3_ + 1 x_14_ ^ 2 + 1 y_3_ ^ 2 - 2 y_14_ * y_3_ + 1 y_14_ ^ 2 ] = 45589
c23: [ 1 x_9_ ^ 2 - 2 x_14_ * x_9_ + 1 x_14_ ^ 2 + 1 y_9_ ^ 2 - 2 y_14_ * y_9_ + 1 y_14_ ^ 2 ] = 35810
c24: [ 1 x_11_ ^ 2 - 2 x_14_ * x_11_ + 1 x_14_ ^ 2 + 1 y_11_ ^ 2 - 2 y_14_ * y_11_ + 1 y_14_ ^ 2 ] = 3730
c25: [ 1 x_12_ ^ 2 - 2 x_15_ * x_12_ + 1 x_15_ ^ 2 + 1 y_12_ ^ 2 - 2 y_15_ * y_12_ + 1 y_15_ ^ 2 ] = 6273
c26: [ 1 x_1_ ^ 2 - 2 x_16_ * x_1_ + 1 x_16_ ^ 2 + 1 y_1_ ^ 2 - 2 y_16_ * y_1_ + 1 y_16_ ^ 2 ] = 866
c27: [ 1 x_5_ ^ 2 - 2 x_16_ * x_5_ + 1 x_16_ ^ 2 + 1 y_5_ ^ 2 - 2 y_16_ * y_5_ + 1 y_16_ ^ 2 ] = 25957
c28: [ 1 x_13_ ^ 2 - 2 x_16_ * x_13_ + 1 x_16_ ^ 2 + 1 y_13_ ^ 2 - 2 y_16_ * y_13_ + 1 y_16_ ^ 2 ] = 8989
c29: [ 1 x_10_ ^ 2 - 2 x_17_ * x_10_ + 1 x_17_ ^ 2 + 1 y_10_ ^ 2 - 2 y_17_ * y_10_ + 1 y_17_ ^ 2 ] = 841
c30: [ 1 x_12_ ^ 2 - 2 x_17_ * x_12_ + 1 x_17_ ^ 2 + 1 y_12_ ^ 2 - 2 y_17_ * y_12_ + 1 y_17_ ^ 2 ] = 24125
c31: [ 1 x_6_ ^ 2 - 2 x_18_ * x_6_ + 1 x_18_ ^ 2 + 1 y_6_ ^ 2 - 2 y_18_ * y_6_ + 1 y_18_ ^ 2 ] = 4498
c32: [ 1 x_15_ ^ 2 - 2 x_18_ * x_15_ + 1 x_18_ ^ 2 + 1 y_15_ ^ 2 - 2 y_18_ * y_15_ + 1 y_18_ ^ 2 ] = 1789
c33: [ 1 x_17_ ^ 2 - 2 x_18_ * x_17_ + 1 x_18_ ^ 2 + 1 y_17_ ^ 2 - 2 y_18_ * y_17_ + 1 y_18_ ^ 2 ] = 23629
c34: [ 1 x_12_ ^ 2 - 2 x_19_ * x_12_ + 1 x_19_ ^ 2 + 1 y_12_ ^ 2 - 2 y_19_ * y_12_ + 1 y_19_ ^ 2 ] = 7693
c35: [ 1 x_14_ ^ 2 - 2 x_19_ * x_14_ + 1 x_19_ ^ 2 + 1 y_14_ ^ 2 - 2 y_19_ * y_14_ + 1 y_19_ ^ 2 ] = 3589
c36: [ 1 x_6_ ^ 2 - 2 x_20_ * x_6_ + 1 x_20_ ^ 2 + 1 y_6_ ^ 2 - 2 y_20_ * y_6_ + 1 y_20_ ^ 2 ] = 27009
c37: [ 1 x_10_ ^ 2 - 2 x_20_ * x_10_ + 1 x_20_ ^ 2 + 1 y_10_ ^ 2 - 2 y_20_ * y_10_ + 1 y_20_ ^ 2 ] = 11765
Bounds
-154 <= x_1_ <= 154
-213 <= x_2_ <= 213
-29 <= x_3_ <= 29
-97 <= x_4_ <= 97
-92 <= x_5_ <= 92
x_6_ = 0
-192 <= x_7_ <= 192
-251 <= x_8_ <= 251
-241 <= x_9_ <= 241
-174 <= x_10_ <= 174
-253 <= x_11_ <= 253
-47 <= x_12_ <= 47
-167 <= x_13_ <= 167
-195 <= x_14_ <= 195
-109 <= x_15_ <= 109
-184 <= x_16_ <= 184
-202 <= x_17_ <= 202
-67 <= x_18_ <= 67
-135 <= x_19_ <= 135
-164 <= x_20_ <= 164
-154 <= y_1_ <= 154
-213 <= y_2_ <= 213
-29 <= y_3_ <= 29
-97 <= y_4_ <= 97
-92 <= y_5_ <= 92
y_6_ = 0
-192 <= y_7_ <= 192
-251 <= y_8_ <= 251
-241 <= y_9_ <= 241
-174 <= y_10_ <= 174
-253 <= y_11_ <= 253
-47 <= y_12_ <= 47
-167 <= y_13_ <= 167
-195 <= y_14_ <= 195
-109 <= y_15_ <= 109
-184 <= y_16_ <= 184
-202 <= y_17_ <= 202
-67 <= y_18_ <= 67
-135 <= y_19_ <= 135
-164 <= y_20_ <= 164
General
x_1_
x_2_
x_3_
x_4_
x_5_
x_6_
x_7_
x_8_
x_9_
x_10_
x_11_
x_12_
x_13_
x_14_
x_15_
x_16_
x_17_
x_18_
x_19_
x_20_
y_1_
y_2_
y_3_
y_4_
y_5_
y_6_
y_7_
y_8_
y_9_
y_10_
y_11_
y_12_
y_13_
y_14_
y_15_
y_16_
y_17_
y_18_
y_19_
y_20_
End
