minimize
obj: 
subject to
c1: 14 x_1_ - 122 y_1_ + [ 1 x_1_ ^ 2 + 1 y_1_ ^ 2 ] <= 56380.413537525536
c2: 14 x_2_ - 122 y_2_ + [ 1 x_2_ ^ 2 + 1 y_2_ ^ 2 ] <= 74111.02931354535
c3: 14 x_3_ - 122 y_3_ + [ 1 x_3_ ^ 2 + 1 y_3_ ^ 2 ] <= 63431.962286276044
c4: 14 x_4_ - 122 y_4_ + [ 1 x_4_ ^ 2 + 1 y_4_ ^ 2 ] <= 21000.865450877845
c5: 14 x_5_ - 122 y_5_ + [ 1 x_5_ ^ 2 + 1 y_5_ ^ 2 ] <= 37942.169497890274
c6: 14 x_6_ - 122 y_6_ + [ 1 x_6_ ^ 2 + 1 y_6_ ^ 2 ] <= 166648.9611275565
c7: 14 x_7_ - 122 y_7_ + [ 1 x_7_ ^ 2 + 1 y_7_ ^ 2 ] <= 45369.73424895408
c8: 14 x_8_ - 122 y_8_ + [ 1 x_8_ ^ 2 + 1 y_8_ ^ 2 ] <= 41849.22180255188
c9: 14 x_9_ - 122 y_9_ + [ 1 x_9_ ^ 2 + 1 y_9_ ^ 2 ] <= 9523.619999999997
c10: 14 x_10_ - 122 y_10_ + [ 1 x_10_ ^ 2 + 1 y_10_ ^ 2 ] <= 60176.935590768735
c11: 14 x_11_ - 122 y_11_ + [ 1 x_11_ ^ 2 + 1 y_11_ ^ 2 ] <= 94099.79897825727
c12: 14 x_12_ - 122 y_12_ + [ 1 x_12_ ^ 2 + 1 y_12_ ^ 2 ] <= 23152.559999999998
c13: 14 x_13_ - 122 y_13_ + [ 1 x_13_ ^ 2 + 1 y_13_ ^ 2 ] <= 81868.60696539699
c14: 14 x_14_ - 122 y_14_ + [ 1 x_14_ ^ 2 + 1 y_14_ ^ 2 ] <= 65067.7866838754
c15: 14 x_15_ - 122 y_15_ + [ 1 x_15_ ^ 2 + 1 y_15_ ^ 2 ] <= 134061.85585697473
c16: 14 x_16_ - 122 y_16_ + [ 1 x_16_ ^ 2 + 1 y_16_ ^ 2 ] <= 106524.62147703736
c17: 14 x_17_ - 122 y_17_ + [ 1 x_17_ ^ 2 + 1 y_17_ ^ 2 ] <= 153115.44428551698
c18: 14 x_18_ - 122 y_18_ + [ 1 x_18_ ^ 2 + 1 y_18_ ^ 2 ] <= 74390.6023513377
c19: 14 x_19_ - 122 y_19_ + [ 1 x_19_ ^ 2 + 1 y_19_ ^ 2 ] <= 107688.03677884799
c20: -116 x_1_ + 46 y_1_ + [ 1 x_1_ ^ 2 + 1 y_1_ ^ 2 ] <= 17294.78
c21: -116 x_2_ + 46 y_2_ + [ 1 x_2_ ^ 2 + 1 y_2_ ^ 2 ] <= 44598.20970417729
c22: -116 x_3_ + 46 y_3_ + [ 1 x_3_ ^ 2 + 1 y_3_ ^ 2 ] <= 54779.4935844638
c23: -116 x_4_ + 46 y_4_ + [ 1 x_4_ ^ 2 + 1 y_4_ ^ 2 ] <= 15813.059203945635
c24: -116 x_5_ + 46 y_5_ + [ 1 x_5_ ^ 2 + 1 y_5_ ^ 2 ] <= 30919.270662808776
c25: -116 x_6_ + 46 y_6_ + [ 1 x_6_ ^ 2 + 1 y_6_ ^ 2 ] <= 152260.96124752407
c26: -116 x_7_ + 46 y_7_ + [ 1 x_7_ ^ 2 + 1 y_7_ ^ 2 ] <= 37994.959863497046
c27: -116 x_9_ + 46 y_9_ + [ 1 x_9_ ^ 2 + 1 y_9_ ^ 2 ] <= 5767.649999999996
c28: -116 x_10_ + 46 y_10_ + [ 1 x_10_ ^ 2 + 1 y_10_ ^ 2 ] <= 51740.69320721497
c29: -116 x_11_ + 46 y_11_ + [ 1 x_11_ ^ 2 + 1 y_11_ ^ 2 ] <= 5958.539999999997
c30: -116 x_12_ + 46 y_12_ + [ 1 x_12_ ^ 2 + 1 y_12_ ^ 2 ] <= 21697.369999999995
c31: -116 x_13_ + 46 y_13_ + [ 1 x_13_ ^ 2 + 1 y_13_ ^ 2 ] <= 63349.625913355005
c32: -116 x_14_ + 46 y_14_ + [ 1 x_14_ ^ 2 + 1 y_14_ ^ 2 ] <= 47640.96768870133
c33: -116 x_15_ + 46 y_15_ + [ 1 x_15_ ^ 2 + 1 y_15_ ^ 2 ] <= 23881.407770710182
c34: -116 x_16_ + 46 y_16_ + [ 1 x_16_ ^ 2 + 1 y_16_ ^ 2 ] <= 103391.0471180428
c35: -116 x_17_ + 46 y_17_ + [ 1 x_17_ ^ 2 + 1 y_17_ ^ 2 ] <= 83955.26989663458
c36: -116 x_18_ + 46 y_18_ + [ 1 x_18_ ^ 2 + 1 y_18_ ^ 2 ] <= 55747.261843622
c37: -116 x_19_ + 46 y_19_ + [ 1 x_19_ ^ 2 + 1 y_19_ ^ 2 ] <= 74332.08708094602
c38: -116 x_20_ + 46 y_20_ + [ 1 x_20_ ^ 2 + 1 y_20_ ^ 2 ] <= 41726.22180255188
c39: 166 x_1_ - 176 y_1_ + [ 1 x_1_ ^ 2 + 1 y_1_ ^ 2 ] <= 31440.360263717535
c40: 166 x_2_ - 176 y_2_ + [ 1 x_2_ ^ 2 + 1 y_2_ ^ 2 ] <= 4967.025377029993
c41: 166 x_3_ - 176 y_3_ + [ 1 x_3_ ^ 2 + 1 y_3_ ^ 2 ] <= -5023.005798974433
c42: 166 x_4_ - 176 y_4_ + [ 1 x_4_ ^ 2 + 1 y_4_ ^ 2 ] <= 20397.4241966778
c43: 166 x_5_ - 176 y_5_ + [ 1 x_5_ ^ 2 + 1 y_5_ ^ 2 ] <= 31521.612164097838
c44: 166 x_6_ - 176 y_6_ + [ 1 x_6_ ^ 2 + 1 y_6_ ^ 2 ] <= 83345.73717572252
c45: 166 x_7_ - 176 y_7_ + [ 1 x_7_ ^ 2 + 1 y_7_ ^ 2 ] <= 30894.21172914609
c46: 166 x_8_ - 176 y_8_ + [ 1 x_8_ ^ 2 + 1 y_8_ ^ 2 ] <= 92651.0471180428
c47: 166 x_9_ - 176 y_9_ + [ 1 x_9_ ^ 2 + 1 y_9_ ^ 2 ] <= 37924.31854767639
c48: 166 x_10_ - 176 y_10_ + [ 1 x_10_ ^ 2 + 1 y_10_ ^ 2 ] <= -6228.790000000003
c49: 166 x_11_ - 176 y_11_ + [ 1 x_11_ ^ 2 + 1 y_11_ ^ 2 ] <= 70336.22980628535
c50: 166 x_12_ - 176 y_12_ + [ 1 x_12_ ^ 2 + 1 y_12_ ^ 2 ] <= 13599.529999999992
c51: 166 x_13_ - 176 y_13_ + [ 1 x_13_ ^ 2 + 1 y_13_ ^ 2 ] <= 2642.924819190932
c52: 166 x_14_ - 176 y_14_ + [ 1 x_14_ ^ 2 + 1 y_14_ ^ 2 ] <= 28567.244808264317
c53: 166 x_15_ - 176 y_15_ + [ 1 x_15_ ^ 2 + 1 y_15_ ^ 2 ] <= 35584.75667990336
c54: 166 x_17_ - 176 y_17_ + [ 1 x_17_ ^ 2 + 1 y_17_ ^ 2 ] <= 28806.089999999997
c55: 166 x_18_ - 176 y_18_ + [ 1 x_18_ ^ 2 + 1 y_18_ ^ 2 ] <= 21712.161328732996
c56: 166 x_19_ - 176 y_19_ + [ 1 x_19_ ^ 2 + 1 y_19_ ^ 2 ] <= 15175.18872727513
c57: 166 x_20_ - 176 y_20_ + [ 1 x_20_ ^ 2 + 1 y_20_ ^ 2 ] <= 95661.62147703736
quadratic_ranged_1_ub: [ 1 x_1_ ^ 2 - 2 x_2_ * x_1_ + 1 x_2_ ^ 2 + 1 y_1_ ^ 2 - 2 y_2_ * y_1_ + 1 y_2_ ^ 2 ] <= 5572.17
quadratic_ranged_2_ub: [ 1 x_2_ ^ 2 - 2 x_3_ * x_2_ + 1 x_3_ ^ 2 + 1 y_2_ ^ 2 - 2 y_3_ * y_2_ + 1 y_3_ ^ 2 ] <= 1761.44
quadratic_ranged_3_ub: [ 1 x_1_ ^ 2 - 2 x_5_ * x_1_ + 1 x_5_ ^ 2 + 1 y_1_ ^ 2 - 2 y_5_ * y_1_ + 1 y_5_ ^ 2 ] <= 1682.66
quadratic_ranged_4_ub: [ 1 x_2_ ^ 2 - 2 x_5_ * x_2_ + 1 x_5_ ^ 2 + 1 y_2_ ^ 2 - 2 y_5_ * y_2_ + 1 y_5_ ^ 2 ] <= 5600.45
quadratic_ranged_5_ub: [ 1 x_4_ ^ 2 - 2 x_5_ * x_4_ + 1 x_5_ ^ 2 + 1 y_4_ ^ 2 - 2 y_5_ * y_4_ + 1 y_5_ ^ 2 ] <= 2194.73
quadratic_ranged_6_ub: [ 1 x_5_ ^ 2 - 2 x_6_ * x_5_ + 1 x_6_ ^ 2 + 1 y_5_ ^ 2 - 2 y_6_ * y_5_ + 1 y_6_ ^ 2 ] <= 43506.76
quadratic_ranged_7_ub: [ 1 x_1_ ^ 2 - 2 x_7_ * x_1_ + 1 x_7_ ^ 2 + 1 y_1_ ^ 2 - 2 y_7_ * y_1_ + 1 y_7_ ^ 2 ] <= 21021.13
quadratic_ranged_8_ub: [ 1 x_2_ ^ 2 - 2 x_7_ * x_2_ + 1 x_7_ ^ 2 + 1 y_2_ ^ 2 - 2 y_7_ * y_2_ + 1 y_7_ ^ 2 ] <= 5383.3
quadratic_ranged_9_ub: [ 1 x_1_ ^ 2 - 2 x_8_ * x_1_ + 1 x_8_ ^ 2 + 1 y_1_ ^ 2 - 2 y_8_ * y_1_ + 1 y_8_ ^ 2 ] <= 21187.78
quadratic_ranged_10_ub: [ 1 x_4_ ^ 2 - 2 x_9_ * x_4_ + 1 x_9_ ^ 2 + 1 y_4_ ^ 2 - 2 y_9_ * y_4_ + 1 y_9_ ^ 2 ] <= 1771.54
quadratic_ranged_11_ub: [ 1 x_7_ ^ 2 - 2 x_9_ * x_7_ + 1 x_9_ ^ 2 + 1 y_7_ ^ 2 - 2 y_9_ * y_7_ + 1 y_9_ ^ 2 ] <= 11316.04
quadratic_ranged_12_ub: [ 1 x_8_ ^ 2 - 2 x_9_ * x_8_ + 1 x_9_ ^ 2 + 1 y_8_ ^ 2 - 2 y_9_ * y_8_ + 1 y_9_ ^ 2 ] <= 9660.65
quadratic_ranged_13_ub: [ 1 x_3_ ^ 2 - 2 x_10_ * x_3_ + 1 x_10_ ^ 2 + 1 y_3_ ^ 2 - 2 y_10_ * y_3_ + 1 y_10_ ^ 2 ] <= 40.4
quadratic_ranged_14_ub: [ 1 x_4_ ^ 2 - 2 x_10_ * x_4_ + 1 x_10_ ^ 2 + 1 y_4_ ^ 2 - 2 y_10_ * y_4_ + 1 y_10_ ^ 2 ] <= 9118.28
quadratic_ranged_15_ub: [ 1 x_8_ ^ 2 - 2 x_11_ * x_8_ + 1 x_11_ ^ 2 + 1 y_8_ ^ 2 - 2 y_11_ * y_8_ + 1 y_11_ ^ 2 ] <= 9851.54
quadratic_ranged_16_ub: [ 1 x_7_ ^ 2 - 2 x_12_ * x_7_ + 1 x_12_ ^ 2 + 1 y_7_ ^ 2 - 2 y_12_ * y_7_ + 1 y_12_ ^ 2 ] <= 25405.54
quadratic_ranged_17_ub: [ 1 x_8_ ^ 2 - 2 x_12_ * x_8_ + 1 x_12_ ^ 2 + 1 y_8_ ^ 2 - 2 y_12_ * y_8_ + 1 y_12_ ^ 2 ] <= 25590.37
quadratic_ranged_18_ub: [ 1 x_3_ ^ 2 - 2 x_13_ * x_3_ + 1 x_13_ ^ 2 + 1 y_3_ ^ 2 - 2 y_13_ * y_3_ + 1 y_13_ ^ 2 ] <= 1116.05
quadratic_ranged_19_ub: [ 1 x_6_ ^ 2 - 2 x_13_ * x_6_ + 1 x_13_ ^ 2 + 1 y_6_ ^ 2 - 2 y_13_ * y_6_ + 1 y_13_ ^ 2 ] <= 32970.44
quadratic_ranged_20_ub: [ 1 x_7_ ^ 2 - 2 x_13_ * x_7_ + 1 x_13_ ^ 2 + 1 y_7_ ^ 2 - 2 y_13_ * y_7_ + 1 y_13_ ^ 2 ] <= 11967.49
quadratic_ranged_21_ub: [ 1 x_11_ ^ 2 - 2 x_14_ * x_11_ + 1 x_14_ ^ 2 + 1 y_11_ ^ 2 - 2 y_14_ * y_11_ + 1 y_14_ ^ 2 ] <= 16321.6
quadratic_ranged_22_ub: [ 1 x_12_ ^ 2 - 2 x_14_ * x_12_ + 1 x_14_ ^ 2 + 1 y_12_ ^ 2 - 2 y_14_ * y_12_ + 1 y_14_ ^ 2 ] <= 9660.65
quadratic_ranged_23_ub: [ 1 x_5_ ^ 2 - 2 x_15_ * x_5_ + 1 x_15_ ^ 2 + 1 y_5_ ^ 2 - 2 y_15_ * y_5_ + 1 y_15_ ^ 2 ] <= 27896.2
quadratic_ranged_24_ub: [ 1 x_11_ ^ 2 - 2 x_15_ * x_11_ + 1 x_15_ ^ 2 + 1 y_11_ ^ 2 - 2 y_15_ * y_11_ + 1 y_15_ ^ 2 ] <= 4542.9800000000005
quadratic_ranged_25_ub: [ 1 x_13_ ^ 2 - 2 x_15_ * x_13_ + 1 x_15_ ^ 2 + 1 y_13_ ^ 2 - 2 y_15_ * y_13_ + 1 y_15_ ^ 2 ] <= 8585
quadratic_ranged_26_ub: [ 1 x_10_ ^ 2 - 2 x_16_ * x_10_ + 1 x_16_ ^ 2 + 1 y_10_ ^ 2 - 2 y_16_ * y_10_ + 1 y_16_ ^ 2 ] <= 8404.210000000001
quadratic_ranged_27_ub: [ 1 x_12_ ^ 2 - 2 x_16_ * x_12_ + 1 x_16_ ^ 2 + 1 y_12_ ^ 2 - 2 y_16_ * y_12_ + 1 y_16_ ^ 2 ] <= 28232.53
quadratic_ranged_28_ub: [ 1 x_1_ ^ 2 - 2 x_17_ * x_1_ + 1 x_17_ ^ 2 + 1 y_1_ ^ 2 - 2 y_17_ * y_1_ + 1 y_17_ ^ 2 ] <= 22750.25
quadratic_ranged_29_ub: [ 1 x_3_ ^ 2 - 2 x_17_ * x_3_ + 1 x_17_ ^ 2 + 1 y_3_ ^ 2 - 2 y_17_ * y_3_ + 1 y_17_ ^ 2 ] <= 20452.5
quadratic_ranged_30_ub: [ 1 x_16_ ^ 2 - 2 x_17_ * x_16_ + 1 x_17_ ^ 2 + 1 y_16_ ^ 2 - 2 y_17_ * y_16_ + 1 y_17_ ^ 2 ] <= 43439.090000000004
quadratic_ranged_31_ub: [ 1 x_10_ ^ 2 - 2 x_18_ * x_10_ + 1 x_18_ ^ 2 + 1 y_10_ ^ 2 - 2 y_18_ * y_10_ + 1 y_18_ ^ 2 ] <= 9794.98
quadratic_ranged_32_ub: [ 1 x_14_ ^ 2 - 2 x_18_ * x_14_ + 1 x_18_ ^ 2 + 1 y_14_ ^ 2 - 2 y_18_ * y_14_ + 1 y_18_ ^ 2 ] <= 295.93
quadratic_ranged_33_ub: [ 1 x_1_ ^ 2 - 2 x_19_ * x_1_ + 1 x_19_ ^ 2 + 1 y_1_ ^ 2 - 2 y_19_ * y_1_ + 1 y_19_ ^ 2 ] <= 17990.12
quadratic_ranged_34_ub: [ 1 x_3_ ^ 2 - 2 x_19_ * x_3_ + 1 x_19_ ^ 2 + 1 y_3_ ^ 2 - 2 y_19_ * y_3_ + 1 y_19_ ^ 2 ] <= 5568.13
quadratic_ranged_35_ub: [ 1 x_13_ ^ 2 - 2 x_19_ * x_13_ + 1 x_19_ ^ 2 + 1 y_13_ ^ 2 - 2 y_19_ * y_13_ + 1 y_19_ ^ 2 ] <= 8655.7
quadratic_ranged_36_ub: [ 1 x_9_ ^ 2 - 2 x_20_ * x_9_ + 1 x_20_ ^ 2 + 1 y_9_ ^ 2 - 2 y_20_ * y_9_ + 1 y_20_ ^ 2 ] <= 13293.62
quadratic_ranged_37_ub: [ 1 x_12_ ^ 2 - 2 x_20_ * x_12_ + 1 x_20_ ^ 2 + 1 y_12_ ^ 2 - 2 y_20_ * y_12_ + 1 y_20_ ^ 2 ] <= 26922.56
quadratic_ranged_1_lb: [ 1 x_1_ ^ 2 - 2 x_2_ * x_1_ + 1 x_2_ ^ 2 + 1 y_1_ ^ 2 - 2 y_2_ * y_1_ + 1 y_2_ ^ 2 ] >= 5461.83
quadratic_ranged_2_lb: [ 1 x_2_ ^ 2 - 2 x_3_ * x_2_ + 1 x_3_ ^ 2 + 1 y_2_ ^ 2 - 2 y_3_ * y_2_ + 1 y_3_ ^ 2 ] >= 1726.56
quadratic_ranged_3_lb: [ 1 x_1_ ^ 2 - 2 x_5_ * x_1_ + 1 x_5_ ^ 2 + 1 y_1_ ^ 2 - 2 y_5_ * y_1_ + 1 y_5_ ^ 2 ] >= 1649.34
quadratic_ranged_4_lb: [ 1 x_2_ ^ 2 - 2 x_5_ * x_2_ + 1 x_5_ ^ 2 + 1 y_2_ ^ 2 - 2 y_5_ * y_2_ + 1 y_5_ ^ 2 ] >= 5489.55
quadratic_ranged_5_lb: [ 1 x_4_ ^ 2 - 2 x_5_ * x_4_ + 1 x_5_ ^ 2 + 1 y_4_ ^ 2 - 2 y_5_ * y_4_ + 1 y_5_ ^ 2 ] >= 2151.27
quadratic_ranged_6_lb: [ 1 x_5_ ^ 2 - 2 x_6_ * x_5_ + 1 x_6_ ^ 2 + 1 y_5_ ^ 2 - 2 y_6_ * y_5_ + 1 y_6_ ^ 2 ] >= 42645.24
quadratic_ranged_7_lb: [ 1 x_1_ ^ 2 - 2 x_7_ * x_1_ + 1 x_7_ ^ 2 + 1 y_1_ ^ 2 - 2 y_7_ * y_1_ + 1 y_7_ ^ 2 ] >= 20604.87
quadratic_ranged_8_lb: [ 1 x_2_ ^ 2 - 2 x_7_ * x_2_ + 1 x_7_ ^ 2 + 1 y_2_ ^ 2 - 2 y_7_ * y_2_ + 1 y_7_ ^ 2 ] >= 5276.7
quadratic_ranged_9_lb: [ 1 x_1_ ^ 2 - 2 x_8_ * x_1_ + 1 x_8_ ^ 2 + 1 y_1_ ^ 2 - 2 y_8_ * y_1_ + 1 y_8_ ^ 2 ] >= 20768.22
quadratic_ranged_10_lb: [ 1 x_4_ ^ 2 - 2 x_9_ * x_4_ + 1 x_9_ ^ 2 + 1 y_4_ ^ 2 - 2 y_9_ * y_4_ + 1 y_9_ ^ 2 ] >= 1736.46
quadratic_ranged_11_lb: [ 1 x_7_ ^ 2 - 2 x_9_ * x_7_ + 1 x_9_ ^ 2 + 1 y_7_ ^ 2 - 2 y_9_ * y_7_ + 1 y_9_ ^ 2 ] >= 11091.96
quadratic_ranged_12_lb: [ 1 x_8_ ^ 2 - 2 x_9_ * x_8_ + 1 x_9_ ^ 2 + 1 y_8_ ^ 2 - 2 y_9_ * y_8_ + 1 y_9_ ^ 2 ] >= 9469.35
quadratic_ranged_13_lb: [ 1 x_3_ ^ 2 - 2 x_10_ * x_3_ + 1 x_10_ ^ 2 + 1 y_3_ ^ 2 - 2 y_10_ * y_3_ + 1 y_10_ ^ 2 ] >= 39.6
quadratic_ranged_14_lb: [ 1 x_4_ ^ 2 - 2 x_10_ * x_4_ + 1 x_10_ ^ 2 + 1 y_4_ ^ 2 - 2 y_10_ * y_4_ + 1 y_10_ ^ 2 ] >= 8937.72
quadratic_ranged_15_lb: [ 1 x_8_ ^ 2 - 2 x_11_ * x_8_ + 1 x_11_ ^ 2 + 1 y_8_ ^ 2 - 2 y_11_ * y_8_ + 1 y_11_ ^ 2 ] >= 9656.46
quadratic_ranged_16_lb: [ 1 x_7_ ^ 2 - 2 x_12_ * x_7_ + 1 x_12_ ^ 2 + 1 y_7_ ^ 2 - 2 y_12_ * y_7_ + 1 y_12_ ^ 2 ] >= 24902.46
quadratic_ranged_17_lb: [ 1 x_8_ ^ 2 - 2 x_12_ * x_8_ + 1 x_12_ ^ 2 + 1 y_8_ ^ 2 - 2 y_12_ * y_8_ + 1 y_12_ ^ 2 ] >= 25083.63
quadratic_ranged_18_lb: [ 1 x_3_ ^ 2 - 2 x_13_ * x_3_ + 1 x_13_ ^ 2 + 1 y_3_ ^ 2 - 2 y_13_ * y_3_ + 1 y_13_ ^ 2 ] >= 1093.95
quadratic_ranged_19_lb: [ 1 x_6_ ^ 2 - 2 x_13_ * x_6_ + 1 x_13_ ^ 2 + 1 y_6_ ^ 2 - 2 y_13_ * y_6_ + 1 y_13_ ^ 2 ] >= 32317.56
quadratic_ranged_20_lb: [ 1 x_7_ ^ 2 - 2 x_13_ * x_7_ + 1 x_13_ ^ 2 + 1 y_7_ ^ 2 - 2 y_13_ * y_7_ + 1 y_13_ ^ 2 ] >= 11730.51
quadratic_ranged_21_lb: [ 1 x_11_ ^ 2 - 2 x_14_ * x_11_ + 1 x_14_ ^ 2 + 1 y_11_ ^ 2 - 2 y_14_ * y_11_ + 1 y_14_ ^ 2 ] >= 15998.4
quadratic_ranged_22_lb: [ 1 x_12_ ^ 2 - 2 x_14_ * x_12_ + 1 x_14_ ^ 2 + 1 y_12_ ^ 2 - 2 y_14_ * y_12_ + 1 y_14_ ^ 2 ] >= 9469.35
quadratic_ranged_23_lb: [ 1 x_5_ ^ 2 - 2 x_15_ * x_5_ + 1 x_15_ ^ 2 + 1 y_5_ ^ 2 - 2 y_15_ * y_5_ + 1 y_15_ ^ 2 ] >= 27343.8
quadratic_ranged_24_lb: [ 1 x_11_ ^ 2 - 2 x_15_ * x_11_ + 1 x_15_ ^ 2 + 1 y_11_ ^ 2 - 2 y_15_ * y_11_ + 1 y_15_ ^ 2 ] >= 4453.0199999999995
quadratic_ranged_25_lb: [ 1 x_13_ ^ 2 - 2 x_15_ * x_13_ + 1 x_15_ ^ 2 + 1 y_13_ ^ 2 - 2 y_15_ * y_13_ + 1 y_15_ ^ 2 ] >= 8415
quadratic_ranged_26_lb: [ 1 x_10_ ^ 2 - 2 x_16_ * x_10_ + 1 x_16_ ^ 2 + 1 y_10_ ^ 2 - 2 y_16_ * y_10_ + 1 y_16_ ^ 2 ] >= 8237.789999999999
quadratic_ranged_27_lb: [ 1 x_12_ ^ 2 - 2 x_16_ * x_12_ + 1 x_16_ ^ 2 + 1 y_12_ ^ 2 - 2 y_16_ * y_12_ + 1 y_16_ ^ 2 ] >= 27673.47
quadratic_ranged_28_lb: [ 1 x_1_ ^ 2 - 2 x_17_ * x_1_ + 1 x_17_ ^ 2 + 1 y_1_ ^ 2 - 2 y_17_ * y_1_ + 1 y_17_ ^ 2 ] >= 22299.75
quadratic_ranged_29_lb: [ 1 x_3_ ^ 2 - 2 x_17_ * x_3_ + 1 x_17_ ^ 2 + 1 y_3_ ^ 2 - 2 y_17_ * y_3_ + 1 y_17_ ^ 2 ] >= 20047.5
quadratic_ranged_30_lb: [ 1 x_16_ ^ 2 - 2 x_17_ * x_16_ + 1 x_17_ ^ 2 + 1 y_16_ ^ 2 - 2 y_17_ * y_16_ + 1 y_17_ ^ 2 ] >= 42578.909999999996
quadratic_ranged_31_lb: [ 1 x_10_ ^ 2 - 2 x_18_ * x_10_ + 1 x_18_ ^ 2 + 1 y_10_ ^ 2 - 2 y_18_ * y_10_ + 1 y_18_ ^ 2 ] >= 9601.02
quadratic_ranged_32_lb: [ 1 x_14_ ^ 2 - 2 x_18_ * x_14_ + 1 x_18_ ^ 2 + 1 y_14_ ^ 2 - 2 y_18_ * y_14_ + 1 y_18_ ^ 2 ] >= 290.07
quadratic_ranged_33_lb: [ 1 x_1_ ^ 2 - 2 x_19_ * x_1_ + 1 x_19_ ^ 2 + 1 y_1_ ^ 2 - 2 y_19_ * y_1_ + 1 y_19_ ^ 2 ] >= 17633.88
quadratic_ranged_34_lb: [ 1 x_3_ ^ 2 - 2 x_19_ * x_3_ + 1 x_19_ ^ 2 + 1 y_3_ ^ 2 - 2 y_19_ * y_3_ + 1 y_19_ ^ 2 ] >= 5457.87
quadratic_ranged_35_lb: [ 1 x_13_ ^ 2 - 2 x_19_ * x_13_ + 1 x_19_ ^ 2 + 1 y_13_ ^ 2 - 2 y_19_ * y_13_ + 1 y_19_ ^ 2 ] >= 8484.3
quadratic_ranged_36_lb: [ 1 x_9_ ^ 2 - 2 x_20_ * x_9_ + 1 x_20_ ^ 2 + 1 y_9_ ^ 2 - 2 y_20_ * y_9_ + 1 y_20_ ^ 2 ] >= 13030.38
quadratic_ranged_37_lb: [ 1 x_12_ ^ 2 - 2 x_20_ * x_12_ + 1 x_20_ ^ 2 + 1 y_12_ ^ 2 - 2 y_20_ * y_12_ + 1 y_20_ ^ 2 ] >= 26389.44
c1_1: 1 x_20_ = -7
c2_1: 1 y_20_ = 61
c3_1: 1 x_8_ = 58
c4_1: 1 y_8_ = -23
c5_1: 1 x_16_ = -83
c6_1: 1 y_16_ = 88
Bounds
-87 <= x_1_ <= 131
-162 <= x_2_ <= 57
-181 <= x_3_ <= 15
-82 <= x_4_ <= 104
-128 <= x_5_ <= 131
-337 <= x_6_ <= 230
-146 <= x_7_ <= 130
x_8_ = 58
-40 <= x_9_ <= 108
-174 <= x_10_ <= 8
-41 <= x_11_ <= 157
-101 <= x_12_ <= 85
-201 <= x_13_ <= 48
-169 <= x_14_ <= 124
-108 <= x_15_ <= 141
x_16_ = -83
-238 <= x_17_ <= 125
-186 <= x_18_ <= 107
-221 <= x_19_ <= 89
x_20_ = -7
-126 <= y_1_ <= 122
-52 <= y_2_ <= 197
-10 <= y_3_ <= 186
-96 <= y_4_ <= 117
-126 <= y_5_ <= 163
-225 <= y_6_ <= 372
-125 <= y_7_ <= 181
y_8_ = -23
-54 <= y_9_ <= 75
-3 <= y_10_ <= 179
-122 <= y_11_ <= 76
-80 <= y_12_ <= 136
-43 <= y_13_ <= 219
-119 <= y_14_ <= 204
-136 <= y_15_ <= 143
y_16_ = 88
-120 <= y_17_ <= 273
-102 <= y_18_ <= 221
-84 <= y_19_ <= 256
y_20_ = 61
General
x_1_
x_2_
x_3_
x_4_
x_5_
x_6_
x_7_
x_8_
x_9_
x_10_
x_11_
x_12_
x_13_
x_14_
x_15_
x_16_
x_17_
x_18_
x_19_
x_20_
y_1_
y_2_
y_3_
y_4_
y_5_
y_6_
y_7_
y_8_
y_9_
y_10_
y_11_
y_12_
y_13_
y_14_
y_15_
y_16_
y_17_
y_18_
y_19_
y_20_
End
