minimize
obj: 
subject to
c1: 128 x_1_ + 2 y_1_ + [ 1 x_1_ ^ 2 + 1 y_1_ ^ 2 ] <= 78302.35564353368
c2: 128 x_2_ + 2 y_2_ + [ 1 x_2_ ^ 2 + 1 y_2_ ^ 2 ] <= 114763.56380347598
c3: 128 x_3_ + 2 y_3_ + [ 1 x_3_ ^ 2 + 1 y_3_ ^ 2 ] <= 135361.5192350116
c4: 128 x_4_ + 2 y_4_ + [ 1 x_4_ ^ 2 + 1 y_4_ ^ 2 ] <= 130321.14799435233
c5: 128 x_5_ + 2 y_5_ + [ 1 x_5_ ^ 2 + 1 y_5_ ^ 2 ] <= 107208.59599310851
c6: 128 x_6_ + 2 y_6_ + [ 1 x_6_ ^ 2 + 1 y_6_ ^ 2 ] <= 183383.7145476169
c7: 128 x_7_ + 2 y_7_ + [ 1 x_7_ ^ 2 + 1 y_7_ ^ 2 ] <= 63173.28340972657
c8: 128 x_8_ + 2 y_8_ + [ 1 x_8_ ^ 2 + 1 y_8_ ^ 2 ] <= 104283.75645398484
c9: 128 x_9_ + 2 y_9_ + [ 1 x_9_ ^ 2 + 1 y_9_ ^ 2 ] <= 163446.07808117152
c10: 128 x_10_ + 2 y_10_ + [ 1 x_10_ ^ 2 + 1 y_10_ ^ 2 ] <= 129528.4296252559
c11: 128 x_11_ + 2 y_11_ + [ 1 x_11_ ^ 2 + 1 y_11_ ^ 2 ] <= 163946.42391085258
c12: 128 x_12_ + 2 y_12_ + [ 1 x_12_ ^ 2 + 1 y_12_ ^ 2 ] <= 120760.3835892448
c13: 128 x_13_ + 2 y_13_ + [ 1 x_13_ ^ 2 + 1 y_13_ ^ 2 ] <= 140212.0114923633
c14: 128 x_14_ + 2 y_14_ + [ 1 x_14_ ^ 2 + 1 y_14_ ^ 2 ] <= 95245.81533989836
c15: 128 x_15_ + 2 y_15_ + [ 1 x_15_ ^ 2 + 1 y_15_ ^ 2 ] <= 111810.96711633321
c16: 128 x_16_ + 2 y_16_ + [ 1 x_16_ ^ 2 + 1 y_16_ ^ 2 ] <= 144787.30348542047
c17: 128 x_17_ + 2 y_17_ + [ 1 x_17_ ^ 2 + 1 y_17_ ^ 2 ] <= 105840.51775159981
c18: 128 x_18_ + 2 y_18_ + [ 1 x_18_ ^ 2 + 1 y_18_ ^ 2 ] <= 130814.83499617511
c19: 128 x_19_ + 2 y_19_ + [ 1 x_19_ ^ 2 + 1 y_19_ ^ 2 ] <= 53620.16134830282
c20: 128 x_20_ + 2 y_20_ + [ 1 x_20_ ^ 2 + 1 y_20_ ^ 2 ] <= 66527.61512948171
c21: 128 x_21_ + 2 y_21_ + [ 1 x_21_ ^ 2 + 1 y_21_ ^ 2 ] <= 51964.05502896592
c22: 128 x_22_ + 2 y_22_ + [ 1 x_22_ ^ 2 + 1 y_22_ ^ 2 ] <= 133113.39410669703
c23: 128 x_23_ + 2 y_23_ + [ 1 x_23_ ^ 2 + 1 y_23_ ^ 2 ] <= 73780.07374149412
c24: 128 x_24_ + 2 y_24_ + [ 1 x_24_ ^ 2 + 1 y_24_ ^ 2 ] <= 97819.9373744555
c25: 128 x_25_ + 2 y_25_ + [ 1 x_25_ ^ 2 + 1 y_25_ ^ 2 ] <= 168277.67950882268
c26: 128 x_26_ + 2 y_26_ + [ 1 x_26_ ^ 2 + 1 y_26_ ^ 2 ] <= 115358.19568043375
c27: 128 x_27_ + 2 y_27_ + [ 1 x_27_ ^ 2 + 1 y_27_ ^ 2 ] <= 39669.333376671355
c28: 128 x_28_ + 2 y_28_ + [ 1 x_28_ ^ 2 + 1 y_28_ ^ 2 ] <= 180922.65663090275
c29: 128 x_29_ + 2 y_29_ + [ 1 x_29_ ^ 2 + 1 y_29_ ^ 2 ] <= 37895.22089309957
c30: 128 x_30_ + 2 y_30_ + [ 1 x_30_ ^ 2 + 1 y_30_ ^ 2 ] <= 221396.63957051918
c31: 128 x_31_ + 2 y_31_ + [ 1 x_31_ ^ 2 + 1 y_31_ ^ 2 ] <= 120987.59629406438
c32: 128 x_32_ + 2 y_32_ + [ 1 x_32_ ^ 2 + 1 y_32_ ^ 2 ] <= 28841.1507915173
c33: 128 x_33_ + 2 y_33_ + [ 1 x_33_ ^ 2 + 1 y_33_ ^ 2 ] <= 103356.0408530395
c34: 128 x_34_ + 2 y_34_ + [ 1 x_34_ ^ 2 + 1 y_34_ ^ 2 ] <= 157385.0953852913
c35: 128 x_35_ + 2 y_35_ + [ 1 x_35_ ^ 2 + 1 y_35_ ^ 2 ] <= 118641.80285727615
c36: 128 x_36_ + 2 y_36_ + [ 1 x_36_ ^ 2 + 1 y_36_ ^ 2 ] <= 86455.92393244019
c37: 128 x_38_ + 2 y_38_ + [ 1 x_38_ ^ 2 + 1 y_38_ ^ 2 ] <= 132290.8002226809
c38: 128 x_39_ + 2 y_39_ + [ 1 x_39_ ^ 2 + 1 y_39_ ^ 2 ] <= 209397.80550654355
c39: 128 x_40_ + 2 y_40_ + [ 1 x_40_ ^ 2 + 1 y_40_ ^ 2 ] <= 85890.67790988655
c40: 128 x_41_ + 2 y_41_ + [ 1 x_41_ ^ 2 + 1 y_41_ ^ 2 ] <= 155071.06260479806
c41: 128 x_42_ + 2 y_42_ + [ 1 x_42_ ^ 2 + 1 y_42_ ^ 2 ] <= 123664.67113462013
c42: 128 x_43_ + 2 y_43_ + [ 1 x_43_ ^ 2 + 1 y_43_ ^ 2 ] <= 27016.46860881322
c43: 128 x_44_ + 2 y_44_ + [ 1 x_44_ ^ 2 + 1 y_44_ ^ 2 ] <= 142366.0938985106
c44: 128 x_45_ + 2 y_45_ + [ 1 x_45_ ^ 2 + 1 y_45_ ^ 2 ] <= 107988.01741209989
c45: 128 x_46_ + 2 y_46_ + [ 1 x_46_ ^ 2 + 1 y_46_ ^ 2 ] <= 72752.42101508174
c46: 128 x_47_ + 2 y_47_ + [ 1 x_47_ ^ 2 + 1 y_47_ ^ 2 ] <= 136105.89293578564
c47: 128 x_48_ + 2 y_48_ + [ 1 x_48_ ^ 2 + 1 y_48_ ^ 2 ] <= 123684.50967862028
c48: 128 x_49_ + 2 y_49_ + [ 1 x_49_ ^ 2 + 1 y_49_ ^ 2 ] <= 217412.11965555535
c49: 128 x_50_ + 2 y_50_ + [ 1 x_50_ ^ 2 + 1 y_50_ ^ 2 ] <= 150668.70530371377
c50: 128 x_51_ + 2 y_51_ + [ 1 x_51_ ^ 2 + 1 y_51_ ^ 2 ] <= 140219.21076510605
c51: 128 x_52_ + 2 y_52_ + [ 1 x_52_ ^ 2 + 1 y_52_ ^ 2 ] <= 150010.90715286817
c52: 128 x_53_ + 2 y_53_ + [ 1 x_53_ ^ 2 + 1 y_53_ ^ 2 ] <= 103318.71379944548
c53: 128 x_54_ + 2 y_54_ + [ 1 x_54_ ^ 2 + 1 y_54_ ^ 2 ] <= 189165.01621758504
c54: 128 x_55_ + 2 y_55_ + [ 1 x_55_ ^ 2 + 1 y_55_ ^ 2 ] <= 110515.81357479375
c55: 128 x_56_ + 2 y_56_ + [ 1 x_56_ ^ 2 + 1 y_56_ ^ 2 ] <= 198038.99743661846
c56: 128 x_57_ + 2 y_57_ + [ 1 x_57_ ^ 2 + 1 y_57_ ^ 2 ] <= 186860.26920910188
c57: 128 x_58_ + 2 y_58_ + [ 1 x_58_ ^ 2 + 1 y_58_ ^ 2 ] <= 69677.68011833278
c58: 128 x_59_ + 2 y_59_ + [ 1 x_59_ ^ 2 + 1 y_59_ ^ 2 ] <= 132695.90095576362
c59: 128 x_60_ + 2 y_60_ + [ 1 x_60_ ^ 2 + 1 y_60_ ^ 2 ] <= 152961.4993000141
c60: 128 x_61_ + 2 y_61_ + [ 1 x_61_ ^ 2 + 1 y_61_ ^ 2 ] <= 73727.74583823002
c61: 128 x_62_ + 2 y_62_ + [ 1 x_62_ ^ 2 + 1 y_62_ ^ 2 ] <= 137950.73437634914
c62: 128 x_63_ + 2 y_63_ + [ 1 x_63_ ^ 2 + 1 y_63_ ^ 2 ] <= 239428.9332582635
c63: 128 x_64_ + 2 y_64_ + [ 1 x_64_ ^ 2 + 1 y_64_ ^ 2 ] <= 211743.8796939371
c64: 128 x_65_ + 2 y_65_ + [ 1 x_65_ ^ 2 + 1 y_65_ ^ 2 ] <= 87224.30297245925
c65: 128 x_66_ + 2 y_66_ + [ 1 x_66_ ^ 2 + 1 y_66_ ^ 2 ] <= 241412.48889223713
c66: 128 x_67_ + 2 y_67_ + [ 1 x_67_ ^ 2 + 1 y_67_ ^ 2 ] <= 142794.65815042384
c67: 128 x_68_ + 2 y_68_ + [ 1 x_68_ ^ 2 + 1 y_68_ ^ 2 ] <= 133147.91787044675
c68: 128 x_69_ + 2 y_69_ + [ 1 x_69_ ^ 2 + 1 y_69_ ^ 2 ] <= 129710.38163215015
c69: 128 x_70_ + 2 y_70_ + [ 1 x_70_ ^ 2 + 1 y_70_ ^ 2 ] <= 11921.599999999999
c70: 128 x_71_ + 2 y_71_ + [ 1 x_71_ ^ 2 + 1 y_71_ ^ 2 ] <= 205369.1864068932
c71: 128 x_72_ + 2 y_72_ + [ 1 x_72_ ^ 2 + 1 y_72_ ^ 2 ] <= 222530.13642345188
c72: 128 x_73_ + 2 y_73_ + [ 1 x_73_ ^ 2 + 1 y_73_ ^ 2 ] <= 156688.93466184635
c73: 128 x_74_ + 2 y_74_ + [ 1 x_74_ ^ 2 + 1 y_74_ ^ 2 ] <= 115912.28908082562
c74: 128 x_75_ + 2 y_75_ + [ 1 x_75_ ^ 2 + 1 y_75_ ^ 2 ] <= 150788.03383777075
c75: 128 x_76_ + 2 y_76_ + [ 1 x_76_ ^ 2 + 1 y_76_ ^ 2 ] <= 138669.58987144555
c76: 128 x_77_ + 2 y_77_ + [ 1 x_77_ ^ 2 + 1 y_77_ ^ 2 ] <= 8608.800000000001
c77: 128 x_78_ + 2 y_78_ + [ 1 x_78_ ^ 2 + 1 y_78_ ^ 2 ] <= 36962.83897360155
c78: 128 x_79_ + 2 y_79_ + [ 1 x_79_ ^ 2 + 1 y_79_ ^ 2 ] <= 185487.98070571618
c79: 128 x_80_ + 2 y_80_ + [ 1 x_80_ ^ 2 + 1 y_80_ ^ 2 ] <= 79309.21755386541
c80: 128 x_81_ + 2 y_81_ + [ 1 x_81_ ^ 2 + 1 y_81_ ^ 2 ] <= 161957.57095299117
c81: 128 x_82_ + 2 y_82_ + [ 1 x_82_ ^ 2 + 1 y_82_ ^ 2 ] <= 39703.332437548415
c82: 128 x_83_ + 2 y_83_ + [ 1 x_83_ ^ 2 + 1 y_83_ ^ 2 ] <= 5103.09
c83: 128 x_84_ + 2 y_84_ + [ 1 x_84_ ^ 2 + 1 y_84_ ^ 2 ] <= 96747.59889809997
c84: 128 x_85_ + 2 y_85_ + [ 1 x_85_ ^ 2 + 1 y_85_ ^ 2 ] <= 205751.4923510475
c85: 128 x_86_ + 2 y_86_ + [ 1 x_86_ ^ 2 + 1 y_86_ ^ 2 ] <= 122913.33417644133
c86: 128 x_87_ + 2 y_87_ + [ 1 x_87_ ^ 2 + 1 y_87_ ^ 2 ] <= 140068.6518028927
c87: 128 x_88_ + 2 y_88_ + [ 1 x_88_ ^ 2 + 1 y_88_ ^ 2 ] <= 160777.0256517036
c88: 128 x_89_ + 2 y_89_ + [ 1 x_89_ ^ 2 + 1 y_89_ ^ 2 ] <= 146199.92074087763
c89: 128 x_90_ + 2 y_90_ + [ 1 x_90_ ^ 2 + 1 y_90_ ^ 2 ] <= 172720.6464325566
c90: 128 x_91_ + 2 y_91_ + [ 1 x_91_ ^ 2 + 1 y_91_ ^ 2 ] <= 111694.72240958556
c91: 128 x_92_ + 2 y_92_ + [ 1 x_92_ ^ 2 + 1 y_92_ ^ 2 ] <= 170292.8317423077
c92: 128 x_93_ + 2 y_93_ + [ 1 x_93_ ^ 2 + 1 y_93_ ^ 2 ] <= 183972.3128583877
c93: 128 x_94_ + 2 y_94_ + [ 1 x_94_ ^ 2 + 1 y_94_ ^ 2 ] <= 166250.37662891805
c94: 128 x_95_ + 2 y_95_ + [ 1 x_95_ ^ 2 + 1 y_95_ ^ 2 ] <= 166923.37148083613
c95: 128 x_96_ + 2 y_96_ + [ 1 x_96_ ^ 2 + 1 y_96_ ^ 2 ] <= 180967.98517076598
c96: 128 x_97_ + 2 y_97_ + [ 1 x_97_ ^ 2 + 1 y_97_ ^ 2 ] <= 139539.55308984872
c97: 128 x_98_ + 2 y_98_ + [ 1 x_98_ ^ 2 + 1 y_98_ ^ 2 ] <= 191773.20517393615
c98: 128 x_99_ + 2 y_99_ + [ 1 x_99_ ^ 2 + 1 y_99_ ^ 2 ] <= 104094.92126414433
c99: 128 x_100_ + 2 y_100_ + [ 1 x_100_ ^ 2 + 1 y_100_ ^ 2 ] <= 22814.44999999999
c100: 180 x_1_ - 4 y_1_ + [ 1 x_1_ ^ 2 + 1 y_1_ ^ 2 ] <= 59134.46615634758
c101: 180 x_2_ - 4 y_2_ + [ 1 x_2_ ^ 2 + 1 y_2_ ^ 2 ] <= 24414.64011506842
c102: 180 x_3_ - 4 y_3_ + [ 1 x_3_ ^ 2 + 1 y_3_ ^ 2 ] <= 65782.78273211062
c103: 180 x_4_ - 4 y_4_ + [ 1 x_4_ ^ 2 + 1 y_4_ ^ 2 ] <= 7869.634328705764
c104: 180 x_5_ - 4 y_5_ + [ 1 x_5_ ^ 2 + 1 y_5_ ^ 2 ] <= 45722.18666614329
c105: 180 x_6_ - 4 y_6_ + [ 1 x_6_ ^ 2 + 1 y_6_ ^ 2 ] <= 29047.201793785527
c106: 180 x_7_ - 4 y_7_ + [ 1 x_7_ ^ 2 + 1 y_7_ ^ 2 ] <= -7738.38
c107: 180 x_8_ - 4 y_8_ + [ 1 x_8_ ^ 2 + 1 y_8_ ^ 2 ] <= -188.63000000000193
c108: 180 x_9_ - 4 y_9_ + [ 1 x_9_ ^ 2 + 1 y_9_ ^ 2 ] <= 38168.57332156349
c109: 180 x_10_ - 4 y_10_ + [ 1 x_10_ ^ 2 + 1 y_10_ ^ 2 ] <= 38722.73092028454
c110: 180 x_11_ - 4 y_11_ + [ 1 x_11_ ^ 2 + 1 y_11_ ^ 2 ] <= 52165.58685588153
c111: 180 x_12_ - 4 y_12_ + [ 1 x_12_ ^ 2 + 1 y_12_ ^ 2 ] <= 4689.347460943882
c112: 180 x_13_ - 4 y_13_ + [ 1 x_13_ ^ 2 + 1 y_13_ ^ 2 ] <= 96670.9484598249
c113: 180 x_14_ - 4 y_14_ + [ 1 x_14_ ^ 2 + 1 y_14_ ^ 2 ] <= 28934.350054229522
c114: 180 x_15_ - 4 y_15_ + [ 1 x_15_ ^ 2 + 1 y_15_ ^ 2 ] <= 109575.70609332698
c115: 180 x_16_ - 4 y_16_ + [ 1 x_16_ ^ 2 + 1 y_16_ ^ 2 ] <= 40880.53168175471
c116: 180 x_17_ - 4 y_17_ + [ 1 x_17_ ^ 2 + 1 y_17_ ^ 2 ] <= 84202.10697456064
c117: 180 x_18_ - 4 y_18_ + [ 1 x_18_ ^ 2 + 1 y_18_ ^ 2 ] <= 33712.48500497477
c118: 180 x_20_ - 4 y_20_ + [ 1 x_20_ ^ 2 + 1 y_20_ ^ 2 ] <= 18835.54343576886
c119: 180 x_21_ - 4 y_21_ + [ 1 x_21_ ^ 2 + 1 y_21_ ^ 2 ] <= 4900.826579260809
c120: 180 x_22_ - 4 y_22_ + [ 1 x_22_ ^ 2 + 1 y_22_ ^ 2 ] <= 60665.95289930471
c121: 180 x_23_ - 4 y_23_ + [ 1 x_23_ ^ 2 + 1 y_23_ ^ 2 ] <= 77586.62930178517
c122: 180 x_24_ - 4 y_24_ + [ 1 x_24_ ^ 2 + 1 y_24_ ^ 2 ] <= 4137.497157658241
c123: 180 x_25_ - 4 y_25_ + [ 1 x_25_ ^ 2 + 1 y_25_ ^ 2 ] <= 40724.024320994096
c124: 180 x_26_ - 4 y_26_ + [ 1 x_26_ ^ 2 + 1 y_26_ ^ 2 ] <= 38499.39583594932
c125: 180 x_27_ - 4 y_27_ + [ 1 x_27_ ^ 2 + 1 y_27_ ^ 2 ] <= 62945.52455256028
c126: 180 x_28_ - 4 y_28_ + [ 1 x_28_ ^ 2 + 1 y_28_ ^ 2 ] <= 78802.2376723451
c127: 180 x_29_ - 4 y_29_ + [ 1 x_29_ ^ 2 + 1 y_29_ ^ 2 ] <= 42505.51512414979
c128: 180 x_30_ - 4 y_30_ + [ 1 x_30_ ^ 2 + 1 y_30_ ^ 2 ] <= 52225.50888951099
c129: 180 x_31_ - 4 y_31_ + [ 1 x_31_ ^ 2 + 1 y_31_ ^ 2 ] <= 66021.01522333195
c130: 180 x_32_ - 4 y_32_ + [ 1 x_32_ ^ 2 + 1 y_32_ ^ 2 ] <= -4651.820000000001
c131: 180 x_33_ - 4 y_33_ + [ 1 x_33_ ^ 2 + 1 y_33_ ^ 2 ] <= -437.8865872431634
c132: 180 x_34_ - 4 y_34_ + [ 1 x_34_ ^ 2 + 1 y_34_ ^ 2 ] <= 56882.71604486849
c133: 180 x_35_ - 4 y_35_ + [ 1 x_35_ ^ 2 + 1 y_35_ ^ 2 ] <= 4017.3535254108956
c134: 180 x_36_ - 4 y_36_ + [ 1 x_36_ ^ 2 + 1 y_36_ ^ 2 ] <= 23646.49180557618
c135: 180 x_37_ - 4 y_37_ + [ 1 x_37_ ^ 2 + 1 y_37_ ^ 2 ] <= 49613.16134830282
c136: 180 x_38_ - 4 y_38_ + [ 1 x_38_ ^ 2 + 1 y_38_ ^ 2 ] <= 52694.60803917495
c137: 180 x_39_ - 4 y_39_ + [ 1 x_39_ ^ 2 + 1 y_39_ ^ 2 ] <= 41210.008435484284
c138: 180 x_40_ - 4 y_40_ + [ 1 x_40_ ^ 2 + 1 y_40_ ^ 2 ] <= -4535.670000000001
c139: 180 x_41_ - 4 y_41_ + [ 1 x_41_ ^ 2 + 1 y_41_ ^ 2 ] <= 46852.45377741871
c140: 180 x_42_ - 4 y_42_ + [ 1 x_42_ ^ 2 + 1 y_42_ ^ 2 ] <= 46982.05892510447
c141: 180 x_43_ - 4 y_43_ + [ 1 x_43_ ^ 2 + 1 y_43_ ^ 2 ] <= 128771.2751767011
c142: 180 x_44_ - 4 y_44_ + [ 1 x_44_ ^ 2 + 1 y_44_ ^ 2 ] <= 32295.801524065886
c143: 180 x_45_ - 4 y_45_ + [ 1 x_45_ ^ 2 + 1 y_45_ ^ 2 ] <= 76659.13881140469
c144: 180 x_46_ - 4 y_46_ + [ 1 x_46_ ^ 2 + 1 y_46_ ^ 2 ] <= 31313.310780416985
c145: 180 x_47_ - 4 y_47_ + [ 1 x_47_ ^ 2 + 1 y_47_ ^ 2 ] <= 9903.70903703693
c146: 180 x_48_ - 4 y_48_ + [ 1 x_48_ ^ 2 + 1 y_48_ ^ 2 ] <= 69617.66061121807
c147: 180 x_49_ - 4 y_49_ + [ 1 x_49_ ^ 2 + 1 y_49_ ^ 2 ] <= 85663.75114650492
c148: 180 x_50_ - 4 y_50_ + [ 1 x_50_ ^ 2 + 1 y_50_ ^ 2 ] <= 40668.96886760294
c149: 180 x_51_ - 4 y_51_ + [ 1 x_51_ ^ 2 + 1 y_51_ ^ 2 ] <= 58025.35390163094
c150: 180 x_52_ - 4 y_52_ + [ 1 x_52_ ^ 2 + 1 y_52_ ^ 2 ] <= 70387.10332008472
c151: 180 x_53_ - 4 y_53_ + [ 1 x_53_ ^ 2 + 1 y_53_ ^ 2 ] <= 118902.12818026685
c152: 180 x_54_ - 4 y_54_ + [ 1 x_54_ ^ 2 + 1 y_54_ ^ 2 ] <= 84142.00601236176
c153: 180 x_55_ - 4 y_55_ + [ 1 x_55_ ^ 2 + 1 y_55_ ^ 2 ] <= 5585.0310886387415
c154: 180 x_56_ - 4 y_56_ + [ 1 x_56_ ^ 2 + 1 y_56_ ^ 2 ] <= 82161.45436250092
c155: 180 x_57_ - 4 y_57_ + [ 1 x_57_ ^ 2 + 1 y_57_ ^ 2 ] <= 30603.656828102183
c156: 180 x_58_ - 4 y_58_ + [ 1 x_58_ ^ 2 + 1 y_58_ ^ 2 ] <= 14061.699934836008
c157: 180 x_59_ - 4 y_59_ + [ 1 x_59_ ^ 2 + 1 y_59_ ^ 2 ] <= 52965.17971837885
c158: 180 x_60_ - 4 y_60_ + [ 1 x_60_ ^ 2 + 1 y_60_ ^ 2 ] <= 16251.380791141863
c159: 180 x_61_ - 4 y_61_ + [ 1 x_61_ ^ 2 + 1 y_61_ ^ 2 ] <= 16306.130526398505
c160: 180 x_62_ - 4 y_62_ + [ 1 x_62_ ^ 2 + 1 y_62_ ^ 2 ] <= 10568.742342341066
c161: 180 x_63_ - 4 y_63_ + [ 1 x_63_ ^ 2 + 1 y_63_ ^ 2 ] <= 69795.31865496088
c162: 180 x_64_ - 4 y_64_ + [ 1 x_64_ ^ 2 + 1 y_64_ ^ 2 ] <= 77177.57170116522
c163: 180 x_65_ - 4 y_65_ + [ 1 x_65_ ^ 2 + 1 y_65_ ^ 2 ] <= 116478.38946050366
c164: 180 x_66_ - 4 y_66_ + [ 1 x_66_ ^ 2 + 1 y_66_ ^ 2 ] <= 104438.7834687976
c165: 180 x_67_ - 4 y_67_ + [ 1 x_67_ ^ 2 + 1 y_67_ ^ 2 ] <= 22402.623020420255
c166: 180 x_68_ - 4 y_68_ + [ 1 x_68_ ^ 2 + 1 y_68_ ^ 2 ] <= 8853.730182405576
c167: 180 x_69_ - 4 y_69_ + [ 1 x_69_ ^ 2 + 1 y_69_ ^ 2 ] <= 71373.71867236649
c168: 180 x_70_ - 4 y_70_ + [ 1 x_70_ ^ 2 + 1 y_70_ ^ 2 ] <= 126444.52713884792
c169: 180 x_71_ - 4 y_71_ + [ 1 x_71_ ^ 2 + 1 y_71_ ^ 2 ] <= 88378.24348690093
c170: 180 x_72_ - 4 y_72_ + [ 1 x_72_ ^ 2 + 1 y_72_ ^ 2 ] <= 107922.4512018628
c171: 180 x_73_ - 4 y_73_ + [ 1 x_73_ ^ 2 + 1 y_73_ ^ 2 ] <= 24124.089999999993
c172: 180 x_74_ - 4 y_74_ + [ 1 x_74_ ^ 2 + 1 y_74_ ^ 2 ] <= 126195.61595594866
c173: 180 x_75_ - 4 y_75_ + [ 1 x_75_ ^ 2 + 1 y_75_ ^ 2 ] <= 65239.963920326016
c174: 180 x_76_ - 4 y_76_ + [ 1 x_76_ ^ 2 + 1 y_76_ ^ 2 ] <= 20538.732983291757
c175: 180 x_77_ - 4 y_77_ + [ 1 x_77_ ^ 2 + 1 y_77_ ^ 2 ] <= 116479.56358495694
c176: 180 x_78_ - 4 y_78_ + [ 1 x_78_ ^ 2 + 1 y_78_ ^ 2 ] <= 171078.74446267626
c177: 180 x_79_ - 4 y_79_ + [ 1 x_79_ ^ 2 + 1 y_79_ ^ 2 ] <= 61637.02506443983
c178: 180 x_80_ - 4 y_80_ + [ 1 x_80_ ^ 2 + 1 y_80_ ^ 2 ] <= 107888.24600805194
c179: 180 x_81_ - 4 y_81_ + [ 1 x_81_ ^ 2 + 1 y_81_ ^ 2 ] <= 100017.66607002114
c180: 180 x_82_ - 4 y_82_ + [ 1 x_82_ ^ 2 + 1 y_82_ ^ 2 ] <= -612.7794066998058
c181: 180 x_83_ - 4 y_83_ + [ 1 x_83_ ^ 2 + 1 y_83_ ^ 2 ] <= 12726.243246283124
c182: 180 x_84_ - 4 y_84_ + [ 1 x_84_ ^ 2 + 1 y_84_ ^ 2 ] <= 10935.82965568871
c183: 180 x_85_ - 4 y_85_ + [ 1 x_85_ ^ 2 + 1 y_85_ ^ 2 ] <= 76795.0368171014
c184: 180 x_86_ - 4 y_86_ + [ 1 x_86_ ^ 2 + 1 y_86_ ^ 2 ] <= 5384.762166154696
c185: 180 x_87_ - 4 y_87_ + [ 1 x_87_ ^ 2 + 1 y_87_ ^ 2 ] <= 74135.97582225708
c186: 180 x_88_ - 4 y_88_ + [ 1 x_88_ ^ 2 + 1 y_88_ ^ 2 ] <= 72162.468420276
c187: 180 x_89_ - 4 y_89_ + [ 1 x_89_ ^ 2 + 1 y_89_ ^ 2 ] <= 62093.45126869719
c188: 180 x_90_ - 4 y_90_ + [ 1 x_90_ ^ 2 + 1 y_90_ ^ 2 ] <= 191166.60167850973
c189: 180 x_91_ - 4 y_91_ + [ 1 x_91_ ^ 2 + 1 y_91_ ^ 2 ] <= 145604.55451082994
c190: 180 x_92_ - 4 y_92_ + [ 1 x_92_ ^ 2 + 1 y_92_ ^ 2 ] <= 78842.33179880606
c191: 180 x_93_ - 4 y_93_ + [ 1 x_93_ ^ 2 + 1 y_93_ ^ 2 ] <= 31492.973327569336
c192: 180 x_94_ - 4 y_94_ + [ 1 x_94_ ^ 2 + 1 y_94_ ^ 2 ] <= 166813.59245481985
c193: 180 x_95_ - 4 y_95_ + [ 1 x_95_ ^ 2 + 1 y_95_ ^ 2 ] <= 32395.913253637475
c194: 180 x_96_ - 4 y_96_ + [ 1 x_96_ ^ 2 + 1 y_96_ ^ 2 ] <= 27976.181274203576
c195: 180 x_97_ - 4 y_97_ + [ 1 x_97_ ^ 2 + 1 y_97_ ^ 2 ] <= 11147.610000000004
c196: 180 x_98_ - 4 y_98_ + [ 1 x_98_ ^ 2 + 1 y_98_ ^ 2 ] <= 100144.74255712208
c197: 180 x_99_ - 4 y_99_ + [ 1 x_99_ ^ 2 + 1 y_99_ ^ 2 ] <= 110096.52566679653
c198: 180 x_100_ - 4 y_100_ + [ 1 x_100_ ^ 2 + 1 y_100_ ^ 2 ] <= 62735.60525611484
c199: -100 x_1_ - 200 y_1_ + [ 1 x_1_ ^ 2 + 1 y_1_ ^ 2 ] <= 169471.584905009
c200: -100 x_2_ - 200 y_2_ + [ 1 x_2_ ^ 2 + 1 y_2_ ^ 2 ] <= 57604.02494919354
c201: -100 x_3_ - 200 y_3_ + [ 1 x_3_ ^ 2 + 1 y_3_ ^ 2 ] <= 101568.67664968345
c202: -100 x_4_ - 200 y_4_ + [ 1 x_4_ ^ 2 + 1 y_4_ ^ 2 ] <= 128384.89855372102
c203: -100 x_5_ - 200 y_5_ + [ 1 x_5_ ^ 2 + 1 y_5_ ^ 2 ] <= 76258.7252112447
c204: -100 x_6_ - 200 y_6_ + [ 1 x_6_ ^ 2 + 1 y_6_ ^ 2 ] <= 135765.18630582825
c205: -100 x_7_ - 200 y_7_ + [ 1 x_7_ ^ 2 + 1 y_7_ ^ 2 ] <= 59367.272383244184
c206: -100 x_8_ - 200 y_8_ + [ 1 x_8_ ^ 2 + 1 y_8_ ^ 2 ] <= 111380.33214021804
c207: -100 x_9_ - 200 y_9_ + [ 1 x_9_ ^ 2 + 1 y_9_ ^ 2 ] <= 78714.06742048229
c208: -100 x_10_ - 200 y_10_ + [ 1 x_10_ ^ 2 + 1 y_10_ ^ 2 ] <= 96299.18522242185
c209: -100 x_11_ - 200 y_11_ + [ 1 x_11_ ^ 2 + 1 y_11_ ^ 2 ] <= 96361.09083794516
c210: -100 x_12_ - 200 y_12_ + [ 1 x_12_ ^ 2 + 1 y_12_ ^ 2 ] <= 97719.49860265777
c211: -100 x_13_ - 200 y_13_ + [ 1 x_13_ ^ 2 + 1 y_13_ ^ 2 ] <= 121773.20288976622
c212: -100 x_14_ - 200 y_14_ + [ 1 x_14_ ^ 2 + 1 y_14_ ^ 2 ] <= 42817.626688391174
c213: -100 x_15_ - 200 y_15_ + [ 1 x_15_ ^ 2 + 1 y_15_ ^ 2 ] <= 204863.53001763512
c214: -100 x_16_ - 200 y_16_ + [ 1 x_16_ ^ 2 + 1 y_16_ ^ 2 ] <= 75495.0930871732
c215: -100 x_17_ - 200 y_17_ + [ 1 x_17_ ^ 2 + 1 y_17_ ^ 2 ] <= 133474.34067346758
c216: -100 x_18_ - 200 y_18_ + [ 1 x_18_ ^ 2 + 1 y_18_ ^ 2 ] <= 70982.38625298621
c217: -100 x_19_ - 200 y_19_ + [ 1 x_19_ ^ 2 + 1 y_19_ ^ 2 ] <= 60843.963920326045
c218: -100 x_20_ - 200 y_20_ + [ 1 x_20_ ^ 2 + 1 y_20_ ^ 2 ] <= 40423.929145413036
c219: -100 x_21_ - 200 y_21_ + [ 1 x_21_ ^ 2 + 1 y_21_ ^ 2 ] <= 12080.658540804023
c220: -100 x_22_ - 200 y_22_ + [ 1 x_22_ ^ 2 + 1 y_22_ ^ 2 ] <= 104862.13401850773
c221: -100 x_23_ - 200 y_23_ + [ 1 x_23_ ^ 2 + 1 y_23_ ^ 2 ] <= 129758.72523376736
c222: -100 x_24_ - 200 y_24_ + [ 1 x_24_ ^ 2 + 1 y_24_ ^ 2 ] <= 18673.64999999999
c223: -100 x_25_ - 200 y_25_ + [ 1 x_25_ ^ 2 + 1 y_25_ ^ 2 ] <= 82288.06337846427
c224: -100 x_26_ - 200 y_26_ + [ 1 x_26_ ^ 2 + 1 y_26_ ^ 2 ] <= 66909.83668111847
c225: -100 x_27_ - 200 y_27_ + [ 1 x_27_ ^ 2 + 1 y_27_ ^ 2 ] <= 98036.62018212803
c226: -100 x_28_ - 200 y_28_ + [ 1 x_28_ ^ 2 + 1 y_28_ ^ 2 ] <= 110104.43117351079
c227: -100 x_29_ - 200 y_29_ + [ 1 x_29_ ^ 2 + 1 y_29_ ^ 2 ] <= 72114.02495667749
c228: -100 x_30_ - 200 y_30_ + [ 1 x_30_ ^ 2 + 1 y_30_ ^ 2 ] <= 97842.22113919836
c229: -100 x_31_ - 200 y_31_ + [ 1 x_31_ ^ 2 + 1 y_31_ ^ 2 ] <= 143870.3862716045
c230: -100 x_32_ - 200 y_32_ + [ 1 x_32_ ^ 2 + 1 y_32_ ^ 2 ] <= 32471.8409198535
c231: -100 x_33_ - 200 y_33_ + [ 1 x_33_ ^ 2 + 1 y_33_ ^ 2 ] <= 100742.93189815531
c232: -100 x_34_ - 200 y_34_ + [ 1 x_34_ ^ 2 + 1 y_34_ ^ 2 ] <= 101759.51415299415
c233: -100 x_35_ - 200 y_35_ + [ 1 x_35_ ^ 2 + 1 y_35_ ^ 2 ] <= 126699.90350420761
c234: -100 x_36_ - 200 y_36_ + [ 1 x_36_ ^ 2 + 1 y_36_ ^ 2 ] <= 97390.31016569542
c235: -100 x_37_ - 200 y_37_ + [ 1 x_37_ ^ 2 + 1 y_37_ ^ 2 ] <= 142385.03383777075
c236: -100 x_38_ - 200 y_38_ + [ 1 x_38_ ^ 2 + 1 y_38_ ^ 2 ] <= 71204.46073375315
c237: -100 x_39_ - 200 y_39_ + [ 1 x_39_ ^ 2 + 1 y_39_ ^ 2 ] <= 222788.6269828222
c238: -100 x_40_ - 200 y_40_ + [ 1 x_40_ ^ 2 + 1 y_40_ ^ 2 ] <= 96767.53873632562
c239: -100 x_41_ - 200 y_41_ + [ 1 x_41_ ^ 2 + 1 y_41_ ^ 2 ] <= 83440.79012423662
c240: -100 x_42_ - 200 y_42_ + [ 1 x_42_ ^ 2 + 1 y_42_ ^ 2 ] <= 64477.220127607856
c241: -100 x_43_ - 200 y_43_ + [ 1 x_43_ ^ 2 + 1 y_43_ ^ 2 ] <= 276131.1712859031
c242: -100 x_44_ - 200 y_44_ + [ 1 x_44_ ^ 2 + 1 y_44_ ^ 2 ] <= 107911.81944665671
c243: -100 x_45_ - 200 y_45_ + [ 1 x_45_ ^ 2 + 1 y_45_ ^ 2 ] <= 129293.63346876239
c244: -100 x_46_ - 200 y_46_ + [ 1 x_46_ ^ 2 + 1 y_46_ ^ 2 ] <= 57437.63504660805
c245: -100 x_47_ - 200 y_47_ + [ 1 x_47_ ^ 2 + 1 y_47_ ^ 2 ] <= 145260.5471510222
c246: -100 x_48_ - 200 y_48_ + [ 1 x_48_ ^ 2 + 1 y_48_ ^ 2 ] <= 106321.78617984234
c247: -100 x_49_ - 200 y_49_ + [ 1 x_49_ ^ 2 + 1 y_49_ ^ 2 ] <= 140113.35734123748
c248: -100 x_50_ - 200 y_50_ + [ 1 x_50_ ^ 2 + 1 y_50_ ^ 2 ] <= 90250.84238109064
c249: -100 x_51_ - 200 y_51_ + [ 1 x_51_ ^ 2 + 1 y_51_ ^ 2 ] <= 77439.87654642777
c250: -100 x_52_ - 200 y_52_ + [ 1 x_52_ ^ 2 + 1 y_52_ ^ 2 ] <= 166775.96267087082
c251: -100 x_53_ - 200 y_53_ + [ 1 x_53_ ^ 2 + 1 y_53_ ^ 2 ] <= 323190.21942156565
c252: -100 x_54_ - 200 y_54_ + [ 1 x_54_ ^ 2 + 1 y_54_ ^ 2 ] <= 138170.25682290853
c253: -100 x_55_ - 200 y_55_ + [ 1 x_55_ ^ 2 + 1 y_55_ ^ 2 ] <= 92433.63258095938
c254: -100 x_56_ - 200 y_56_ + [ 1 x_56_ ^ 2 + 1 y_56_ ^ 2 ] <= 158808.62698622863
c255: -100 x_57_ - 200 y_57_ + [ 1 x_57_ ^ 2 + 1 y_57_ ^ 2 ] <= 186150.40041703705
c256: -100 x_58_ - 200 y_58_ + [ 1 x_58_ ^ 2 + 1 y_58_ ^ 2 ] <= 2369.2199999999993
c257: -100 x_59_ - 200 y_59_ + [ 1 x_59_ ^ 2 + 1 y_59_ ^ 2 ] <= 147845.93763717538
c258: -100 x_60_ - 200 y_60_ + [ 1 x_60_ ^ 2 + 1 y_60_ ^ 2 ] <= 139740.40038984746
c259: -100 x_61_ - 200 y_61_ + [ 1 x_61_ ^ 2 + 1 y_61_ ^ 2 ] <= 83319.84944617655
c260: -100 x_62_ - 200 y_62_ + [ 1 x_62_ ^ 2 + 1 y_62_ ^ 2 ] <= 153531.1086624759
c261: -100 x_63_ - 200 y_63_ + [ 1 x_63_ ^ 2 + 1 y_63_ ^ 2 ] <= 181775.24250830524
c262: -100 x_64_ - 200 y_64_ + [ 1 x_64_ ^ 2 + 1 y_64_ ^ 2 ] <= 140953.7872069087
c263: -100 x_65_ - 200 y_65_ + [ 1 x_65_ ^ 2 + 1 y_65_ ^ 2 ] <= 175252.02782575117
c264: -100 x_66_ - 200 y_66_ + [ 1 x_66_ ^ 2 + 1 y_66_ ^ 2 ] <= 163290.70150461822
c265: -100 x_67_ - 200 y_67_ + [ 1 x_67_ ^ 2 + 1 y_67_ ^ 2 ] <= 45379.10492043073
c266: -100 x_68_ - 200 y_68_ + [ 1 x_68_ ^ 2 + 1 y_68_ ^ 2 ] <= 142121.8614258321
c267: -100 x_69_ - 200 y_69_ + [ 1 x_69_ ^ 2 + 1 y_69_ ^ 2 ] <= 108490.74711402055
c268: -100 x_70_ - 200 y_70_ + [ 1 x_70_ ^ 2 + 1 y_70_ ^ 2 ] <= 258023.74030295596
c269: -100 x_71_ - 200 y_71_ + [ 1 x_71_ ^ 2 + 1 y_71_ ^ 2 ] <= 165561.93287129604
c270: -100 x_72_ - 200 y_72_ + [ 1 x_72_ ^ 2 + 1 y_72_ ^ 2 ] <= 144366.4973865435
c271: -100 x_73_ - 200 y_73_ + [ 1 x_73_ ^ 2 + 1 y_73_ ^ 2 ] <= 54217.601237384006
c272: -100 x_74_ - 200 y_74_ + [ 1 x_74_ ^ 2 + 1 y_74_ ^ 2 ] <= 174459.75731025552
c273: -100 x_76_ - 200 y_76_ + [ 1 x_76_ ^ 2 + 1 y_76_ ^ 2 ] <= 42800.67434155046
c274: -100 x_77_ - 200 y_77_ + [ 1 x_77_ ^ 2 + 1 y_77_ ^ 2 ] <= 171501.9804836371
c275: -100 x_78_ - 200 y_78_ + [ 1 x_78_ ^ 2 + 1 y_78_ ^ 2 ] <= 246289.61273251107
c276: -100 x_79_ - 200 y_79_ + [ 1 x_79_ ^ 2 + 1 y_79_ ^ 2 ] <= 200413.34520999726
c277: -100 x_80_ - 200 y_80_ + [ 1 x_80_ ^ 2 + 1 y_80_ ^ 2 ] <= 134434.0984723866
c278: -100 x_81_ - 200 y_81_ + [ 1 x_81_ ^ 2 + 1 y_81_ ^ 2 ] <= 143318.0134385238
c279: -100 x_82_ - 200 y_82_ + [ 1 x_82_ ^ 2 + 1 y_82_ ^ 2 ] <= 45033.891733588665
c280: -100 x_83_ - 200 y_83_ + [ 1 x_83_ ^ 2 + 1 y_83_ ^ 2 ] <= 76087.93843432578
c281: -100 x_84_ - 200 y_84_ + [ 1 x_84_ ^ 2 + 1 y_84_ ^ 2 ] <= 79278.61477181394
c282: -100 x_85_ - 200 y_85_ + [ 1 x_85_ ^ 2 + 1 y_85_ ^ 2 ] <= 140440.50469654525
c283: -100 x_86_ - 200 y_86_ + [ 1 x_86_ ^ 2 + 1 y_86_ ^ 2 ] <= 120798.49036367136
c284: -100 x_87_ - 200 y_87_ + [ 1 x_87_ ^ 2 + 1 y_87_ ^ 2 ] <= 122138.71602418367
c285: -100 x_88_ - 200 y_88_ + [ 1 x_88_ ^ 2 + 1 y_88_ ^ 2 ] <= 53226.23825637654
c286: -100 x_89_ - 200 y_89_ + [ 1 x_89_ ^ 2 + 1 y_89_ ^ 2 ] <= 162440.10043010354
c287: -100 x_90_ - 200 y_90_ + [ 1 x_90_ ^ 2 + 1 y_90_ ^ 2 ] <= 252740.858489167
c288: -100 x_91_ - 200 y_91_ + [ 1 x_91_ ^ 2 + 1 y_91_ ^ 2 ] <= 176551.3183485037
c289: -100 x_92_ - 200 y_92_ + [ 1 x_92_ ^ 2 + 1 y_92_ ^ 2 ] <= 188362.65130976556
c290: -100 x_93_ - 200 y_93_ + [ 1 x_93_ ^ 2 + 1 y_93_ ^ 2 ] <= 152199.57025097575
c291: -100 x_94_ - 200 y_94_ + [ 1 x_94_ ^ 2 + 1 y_94_ ^ 2 ] <= 239535.68184194577
c292: -100 x_95_ - 200 y_95_ + [ 1 x_95_ ^ 2 + 1 y_95_ ^ 2 ] <= 57127.67056792046
c293: -100 x_96_ - 200 y_96_ + [ 1 x_96_ ^ 2 + 1 y_96_ ^ 2 ] <= 180139.67572629236
c294: -100 x_97_ - 200 y_97_ + [ 1 x_97_ ^ 2 + 1 y_97_ ^ 2 ] <= 149621.85338093364
c295: -100 x_98_ - 200 y_98_ + [ 1 x_98_ ^ 2 + 1 y_98_ ^ 2 ] <= 153044.29758873835
c296: -100 x_99_ - 200 y_99_ + [ 1 x_99_ ^ 2 + 1 y_99_ ^ 2 ] <= 166804.73303506736
c297: -100 x_100_ - 200 y_100_ + [ 1 x_100_ ^ 2 + 1 y_100_ ^ 2 ] <= 195858.60232070164
quadratic_ranged_1_ub: [ 1 x_1_ ^ 2 - 2 x_4_ * x_1_ + 1 x_4_ ^ 2 + 1 y_1_ ^ 2 - 2 y_4_ * y_1_ + 1 y_4_ ^ 2 ] <= 17666.920000000002
quadratic_ranged_2_ub: [ 1 x_3_ ^ 2 - 2 x_5_ * x_3_ + 1 x_5_ ^ 2 + 1 y_3_ ^ 2 - 2 y_5_ * y_3_ + 1 y_5_ ^ 2 ] <= 5034.85
quadratic_ranged_3_ub: [ 1 x_4_ ^ 2 - 2 x_5_ * x_4_ + 1 x_5_ ^ 2 + 1 y_4_ ^ 2 - 2 y_5_ * y_4_ + 1 y_5_ ^ 2 ] <= 30717.13
quadratic_ranged_4_ub: [ 1 x_4_ ^ 2 - 2 x_6_ * x_4_ + 1 x_6_ ^ 2 + 1 y_4_ ^ 2 - 2 y_6_ * y_4_ + 1 y_6_ ^ 2 ] <= 4403.6
quadratic_ranged_5_ub: [ 1 x_4_ ^ 2 - 2 x_7_ * x_4_ + 1 x_7_ ^ 2 + 1 y_4_ ^ 2 - 2 y_7_ * y_4_ + 1 y_7_ ^ 2 ] <= 11505.92
quadratic_ranged_6_ub: [ 1 x_5_ ^ 2 - 2 x_10_ * x_5_ + 1 x_10_ ^ 2 + 1 y_5_ ^ 2 - 2 y_10_ * y_5_ + 1 y_10_ ^ 2 ] <= 1019.09
quadratic_ranged_7_ub: [ 1 x_2_ ^ 2 - 2 x_11_ * x_2_ + 1 x_11_ ^ 2 + 1 y_2_ ^ 2 - 2 y_11_ * y_2_ + 1 y_11_ ^ 2 ] <= 4247.05
quadratic_ranged_8_ub: [ 1 x_3_ ^ 2 - 2 x_11_ * x_3_ + 1 x_11_ ^ 2 + 1 y_3_ ^ 2 - 2 y_11_ * y_3_ + 1 y_11_ ^ 2 ] <= 11216.05
quadratic_ranged_9_ub: [ 1 x_2_ ^ 2 - 2 x_12_ * x_2_ + 1 x_12_ ^ 2 + 1 y_2_ ^ 2 - 2 y_12_ * y_2_ + 1 y_12_ ^ 2 ] <= 4518.74
quadratic_ranged_10_ub: [ 1 x_7_ ^ 2 - 2 x_12_ * x_7_ + 1 x_12_ ^ 2 + 1 y_7_ ^ 2 - 2 y_12_ * y_7_ + 1 y_12_ ^ 2 ] <= 8833.460000000001
quadratic_ranged_11_ub: [ 1 x_1_ ^ 2 - 2 x_13_ * x_1_ + 1 x_13_ ^ 2 + 1 y_1_ ^ 2 - 2 y_13_ * y_1_ + 1 y_13_ ^ 2 ] <= 15224.74
quadratic_ranged_12_ub: [ 1 x_2_ ^ 2 - 2 x_14_ * x_2_ + 1 x_14_ ^ 2 + 1 y_2_ ^ 2 - 2 y_14_ * y_2_ + 1 y_14_ ^ 2 ] <= 874.66
quadratic_ranged_13_ub: [ 1 x_5_ ^ 2 - 2 x_16_ * x_5_ + 1 x_16_ ^ 2 + 1 y_5_ ^ 2 - 2 y_16_ * y_5_ + 1 y_16_ ^ 2 ] <= 2728.01
quadratic_ranged_14_ub: [ 1 x_1_ ^ 2 - 2 x_17_ * x_1_ + 1 x_17_ ^ 2 + 1 y_1_ ^ 2 - 2 y_17_ * y_1_ + 1 y_17_ ^ 2 ] <= 1981.6200000000001
quadratic_ranged_15_ub: [ 1 x_2_ ^ 2 - 2 x_18_ * x_2_ + 1 x_18_ ^ 2 + 1 y_2_ ^ 2 - 2 y_18_ * y_2_ + 1 y_18_ ^ 2 ] <= 583.78
quadratic_ranged_16_ub: [ 1 x_3_ ^ 2 - 2 x_18_ * x_3_ + 1 x_18_ ^ 2 + 1 y_3_ ^ 2 - 2 y_18_ * y_3_ + 1 y_18_ ^ 2 ] <= 13342.1
quadratic_ranged_17_ub: [ 1 x_4_ ^ 2 - 2 x_18_ * x_4_ + 1 x_18_ ^ 2 + 1 y_4_ ^ 2 - 2 y_18_ * y_4_ + 1 y_18_ ^ 2 ] <= 9471.78
quadratic_ranged_18_ub: [ 1 x_7_ ^ 2 - 2 x_19_ * x_7_ + 1 x_19_ ^ 2 + 1 y_7_ ^ 2 - 2 y_19_ * y_7_ + 1 y_19_ ^ 2 ] <= 365.62
quadratic_ranged_19_ub: [ 1 x_8_ ^ 2 - 2 x_19_ * x_8_ + 1 x_19_ ^ 2 + 1 y_8_ ^ 2 - 2 y_19_ * y_8_ + 1 y_19_ ^ 2 ] <= 7915.37
quadratic_ranged_20_ub: [ 1 x_3_ ^ 2 - 2 x_20_ * x_3_ + 1 x_20_ ^ 2 + 1 y_3_ ^ 2 - 2 y_20_ * y_3_ + 1 y_20_ ^ 2 ] <= 11596.82
quadratic_ranged_21_ub: [ 1 x_5_ ^ 2 - 2 x_20_ * x_5_ + 1 x_20_ ^ 2 + 1 y_5_ ^ 2 - 2 y_20_ * y_5_ + 1 y_20_ ^ 2 ] <= 4606.61
quadratic_ranged_22_ub: [ 1 x_14_ ^ 2 - 2 x_21_ * x_14_ + 1 x_21_ ^ 2 + 1 y_14_ ^ 2 - 2 y_21_ * y_14_ + 1 y_21_ ^ 2 ] <= 6148.88
quadratic_ranged_23_ub: [ 1 x_2_ ^ 2 - 2 x_22_ * x_2_ + 1 x_22_ ^ 2 + 1 y_2_ ^ 2 - 2 y_22_ * y_2_ + 1 y_22_ ^ 2 ] <= 11042.33
quadratic_ranged_24_ub: [ 1 x_3_ ^ 2 - 2 x_22_ * x_3_ + 1 x_22_ ^ 2 + 1 y_3_ ^ 2 - 2 y_22_ * y_3_ + 1 y_22_ ^ 2 ] <= 5115.65
quadratic_ranged_25_ub: [ 1 x_1_ ^ 2 - 2 x_23_ * x_1_ + 1 x_23_ ^ 2 + 1 y_1_ ^ 2 - 2 y_23_ * y_1_ + 1 y_23_ ^ 2 ] <= 2489.65
quadratic_ranged_26_ub: [ 1 x_5_ ^ 2 - 2 x_23_ * x_5_ + 1 x_23_ ^ 2 + 1 y_5_ ^ 2 - 2 y_23_ * y_5_ + 1 y_23_ ^ 2 ] <= 20123.24
quadratic_ranged_27_ub: [ 1 x_18_ ^ 2 - 2 x_23_ * x_18_ + 1 x_23_ ^ 2 + 1 y_18_ ^ 2 - 2 y_23_ * y_18_ + 1 y_23_ ^ 2 ] <= 7786.09
quadratic_ranged_28_ub: [ 1 x_7_ ^ 2 - 2 x_24_ * x_7_ + 1 x_24_ ^ 2 + 1 y_7_ ^ 2 - 2 y_24_ * y_7_ + 1 y_24_ ^ 2 ] <= 8375.93
quadratic_ranged_29_ub: [ 1 x_20_ ^ 2 - 2 x_24_ * x_20_ + 1 x_24_ ^ 2 + 1 y_20_ ^ 2 - 2 y_24_ * y_20_ + 1 y_24_ ^ 2 ] <= 2861.33
quadratic_ranged_30_ub: [ 1 x_4_ ^ 2 - 2 x_25_ * x_4_ + 1 x_25_ ^ 2 + 1 y_4_ ^ 2 - 2 y_25_ * y_4_ + 1 y_25_ ^ 2 ] <= 32540.18
quadratic_ranged_31_ub: [ 1 x_9_ ^ 2 - 2 x_25_ * x_9_ + 1 x_25_ ^ 2 + 1 y_9_ ^ 2 - 2 y_25_ * y_9_ + 1 y_25_ ^ 2 ] <= 34.34
quadratic_ranged_32_ub: [ 1 x_9_ ^ 2 - 2 x_27_ * x_9_ + 1 x_27_ ^ 2 + 1 y_9_ ^ 2 - 2 y_27_ * y_9_ + 1 y_27_ ^ 2 ] <= 40046.5
quadratic_ranged_33_ub: [ 1 x_17_ ^ 2 - 2 x_27_ * x_17_ + 1 x_27_ ^ 2 + 1 y_17_ ^ 2 - 2 y_27_ * y_17_ + 1 y_27_ ^ 2 ] <= 44036
quadratic_ranged_34_ub: [ 1 x_22_ ^ 2 - 2 x_27_ * x_22_ + 1 x_27_ ^ 2 + 1 y_22_ ^ 2 - 2 y_27_ * y_22_ + 1 y_27_ ^ 2 ] <= 25990.33
quadratic_ranged_35_ub: [ 1 x_6_ ^ 2 - 2 x_28_ * x_6_ + 1 x_28_ ^ 2 + 1 y_6_ ^ 2 - 2 y_28_ * y_6_ + 1 y_28_ ^ 2 ] <= 28850.65
quadratic_ranged_36_ub: [ 1 x_16_ ^ 2 - 2 x_28_ * x_16_ + 1 x_28_ ^ 2 + 1 y_16_ ^ 2 - 2 y_28_ * y_16_ + 1 y_28_ ^ 2 ] <= 5398.45
quadratic_ranged_37_ub: [ 1 x_13_ ^ 2 - 2 x_29_ * x_13_ + 1 x_29_ ^ 2 + 1 y_13_ ^ 2 - 2 y_29_ * y_13_ + 1 y_29_ ^ 2 ] <= 30611.08
quadratic_ranged_38_ub: [ 1 x_20_ ^ 2 - 2 x_29_ * x_20_ + 1 x_29_ ^ 2 + 1 y_20_ ^ 2 - 2 y_29_ * y_20_ + 1 y_29_ ^ 2 ] <= 3700.64
quadratic_ranged_39_ub: [ 1 x_6_ ^ 2 - 2 x_30_ * x_6_ + 1 x_30_ ^ 2 + 1 y_6_ ^ 2 - 2 y_30_ * y_6_ + 1 y_30_ ^ 2 ] <= 2795.68
quadratic_ranged_40_ub: [ 1 x_24_ ^ 2 - 2 x_30_ * x_24_ + 1 x_30_ ^ 2 + 1 y_24_ ^ 2 - 2 y_30_ * y_24_ + 1 y_30_ ^ 2 ] <= 24216.77
quadratic_ranged_41_ub: [ 1 x_11_ ^ 2 - 2 x_31_ * x_11_ + 1 x_31_ ^ 2 + 1 y_11_ ^ 2 - 2 y_31_ * y_11_ + 1 y_31_ ^ 2 ] <= 13151.210000000001
quadratic_ranged_42_ub: [ 1 x_15_ ^ 2 - 2 x_31_ * x_15_ + 1 x_31_ ^ 2 + 1 y_15_ ^ 2 - 2 y_31_ * y_15_ + 1 y_31_ ^ 2 ] <= 5010.61
quadratic_ranged_43_ub: [ 1 x_19_ ^ 2 - 2 x_32_ * x_19_ + 1 x_32_ ^ 2 + 1 y_19_ ^ 2 - 2 y_32_ * y_19_ + 1 y_32_ ^ 2 ] <= 3452.18
quadratic_ranged_44_ub: [ 1 x_21_ ^ 2 - 2 x_32_ * x_21_ + 1 x_32_ ^ 2 + 1 y_21_ ^ 2 - 2 y_32_ * y_21_ + 1 y_32_ ^ 2 ] <= 3056.26
quadratic_ranged_45_ub: [ 1 x_7_ ^ 2 - 2 x_33_ * x_7_ + 1 x_33_ ^ 2 + 1 y_7_ ^ 2 - 2 y_33_ * y_7_ + 1 y_33_ ^ 2 ] <= 4683.37
quadratic_ranged_46_ub: [ 1 x_9_ ^ 2 - 2 x_33_ * x_9_ + 1 x_33_ ^ 2 + 1 y_9_ ^ 2 - 2 y_33_ * y_9_ + 1 y_33_ ^ 2 ] <= 16270.09
quadratic_ranged_47_ub: [ 1 x_11_ ^ 2 - 2 x_34_ * x_11_ + 1 x_34_ ^ 2 + 1 y_11_ ^ 2 - 2 y_34_ * y_11_ + 1 y_34_ ^ 2 ] <= 16412.5
quadratic_ranged_48_ub: [ 1 x_12_ ^ 2 - 2 x_34_ * x_12_ + 1 x_34_ ^ 2 + 1 y_12_ ^ 2 - 2 y_34_ * y_12_ + 1 y_34_ ^ 2 ] <= 20112.13
quadratic_ranged_49_ub: [ 1 x_26_ ^ 2 - 2 x_34_ * x_26_ + 1 x_34_ ^ 2 + 1 y_26_ ^ 2 - 2 y_34_ * y_26_ + 1 y_34_ ^ 2 ] <= 3161.3
quadratic_ranged_50_ub: [ 1 x_8_ ^ 2 - 2 x_35_ * x_8_ + 1 x_35_ ^ 2 + 1 y_8_ ^ 2 - 2 y_35_ * y_8_ + 1 y_35_ ^ 2 ] <= 446.42
quadratic_ranged_51_ub: [ 1 x_31_ ^ 2 - 2 x_36_ * x_31_ + 1 x_36_ ^ 2 + 1 y_31_ ^ 2 - 2 y_36_ * y_31_ + 1 y_36_ ^ 2 ] <= 8849.62
quadratic_ranged_52_ub: [ 1 x_14_ ^ 2 - 2 x_38_ * x_14_ + 1 x_38_ ^ 2 + 1 y_14_ ^ 2 - 2 y_38_ * y_14_ + 1 y_38_ ^ 2 ] <= 2929
quadratic_ranged_53_ub: [ 1 x_22_ ^ 2 - 2 x_38_ * x_22_ + 1 x_38_ ^ 2 + 1 y_22_ ^ 2 - 2 y_38_ * y_22_ + 1 y_38_ ^ 2 ] <= 2837.09
quadratic_ranged_54_ub: [ 1 x_8_ ^ 2 - 2 x_39_ * x_8_ + 1 x_39_ ^ 2 + 1 y_8_ ^ 2 - 2 y_39_ * y_8_ + 1 y_39_ ^ 2 ] <= 17715.4
quadratic_ranged_55_ub: [ 1 x_4_ ^ 2 - 2 x_40_ * x_4_ + 1 x_40_ ^ 2 + 1 y_4_ ^ 2 - 2 y_40_ * y_4_ + 1 y_40_ ^ 2 ] <= 6473.09
quadratic_ranged_56_ub: [ 1 x_19_ ^ 2 - 2 x_40_ * x_19_ + 1 x_40_ ^ 2 + 1 y_19_ ^ 2 - 2 y_40_ * y_19_ + 1 y_40_ ^ 2 ] <= 3568.33
quadratic_ranged_57_ub: [ 1 x_6_ ^ 2 - 2 x_41_ * x_6_ + 1 x_41_ ^ 2 + 1 y_6_ ^ 2 - 2 y_41_ * y_6_ + 1 y_41_ ^ 2 ] <= 30356.56
quadratic_ranged_58_ub: [ 1 x_16_ ^ 2 - 2 x_41_ * x_16_ + 1 x_41_ ^ 2 + 1 y_16_ ^ 2 - 2 y_41_ * y_16_ + 1 y_41_ ^ 2 ] <= 171.7
quadratic_ranged_59_ub: [ 1 x_35_ ^ 2 - 2 x_41_ * x_35_ + 1 x_41_ ^ 2 + 1 y_35_ ^ 2 - 2 y_41_ * y_35_ + 1 y_41_ ^ 2 ] <= 21865.49
quadratic_ranged_60_ub: [ 1 x_13_ ^ 2 - 2 x_42_ * x_13_ + 1 x_42_ ^ 2 + 1 y_13_ ^ 2 - 2 y_42_ * y_13_ + 1 y_42_ ^ 2 ] <= 7918.4
quadratic_ranged_61_ub: [ 1 x_20_ ^ 2 - 2 x_42_ * x_20_ + 1 x_42_ ^ 2 + 1 y_20_ ^ 2 - 2 y_42_ * y_20_ + 1 y_42_ ^ 2 ] <= 12463.4
quadratic_ranged_62_ub: [ 1 x_21_ ^ 2 - 2 x_42_ * x_21_ + 1 x_42_ ^ 2 + 1 y_21_ ^ 2 - 2 y_42_ * y_21_ + 1 y_42_ ^ 2 ] <= 14560.16
quadratic_ranged_63_ub: [ 1 x_1_ ^ 2 - 2 x_43_ * x_1_ + 1 x_43_ ^ 2 + 1 y_1_ ^ 2 - 2 y_43_ * y_1_ + 1 y_43_ ^ 2 ] <= 12246.25
quadratic_ranged_64_ub: [ 1 x_15_ ^ 2 - 2 x_43_ * x_15_ + 1 x_43_ ^ 2 + 1 y_15_ ^ 2 - 2 y_43_ * y_15_ + 1 y_43_ ^ 2 ] <= 26916.5
quadratic_ranged_65_ub: [ 1 x_5_ ^ 2 - 2 x_44_ * x_5_ + 1 x_44_ ^ 2 + 1 y_5_ ^ 2 - 2 y_44_ * y_5_ + 1 y_44_ ^ 2 ] <= 2408.85
quadratic_ranged_66_ub: [ 1 x_35_ ^ 2 - 2 x_44_ * x_35_ + 1 x_44_ ^ 2 + 1 y_35_ ^ 2 - 2 y_44_ * y_35_ + 1 y_44_ ^ 2 ] <= 8262.81
quadratic_ranged_67_ub: [ 1 x_10_ ^ 2 - 2 x_45_ * x_10_ + 1 x_45_ ^ 2 + 1 y_10_ ^ 2 - 2 y_45_ * y_10_ + 1 y_45_ ^ 2 ] <= 9309.17
quadratic_ranged_68_ub: [ 1 x_31_ ^ 2 - 2 x_45_ * x_31_ + 1 x_45_ ^ 2 + 1 y_31_ ^ 2 - 2 y_45_ * y_31_ + 1 y_45_ ^ 2 ] <= 356.53000000000003
quadratic_ranged_69_ub: [ 1 x_42_ ^ 2 - 2 x_45_ * x_42_ + 1 x_45_ ^ 2 + 1 y_42_ ^ 2 - 2 y_45_ * y_42_ + 1 y_45_ ^ 2 ] <= 9822.25
quadratic_ranged_70_ub: [ 1 x_20_ ^ 2 - 2 x_46_ * x_20_ + 1 x_46_ ^ 2 + 1 y_20_ ^ 2 - 2 y_46_ * y_20_ + 1 y_46_ ^ 2 ] <= 1183.72
quadratic_ranged_71_ub: [ 1 x_26_ ^ 2 - 2 x_46_ * x_26_ + 1 x_46_ ^ 2 + 1 y_26_ ^ 2 - 2 y_46_ * y_26_ + 1 y_46_ ^ 2 ] <= 4679.33
quadratic_ranged_72_ub: [ 1 x_27_ ^ 2 - 2 x_46_ * x_27_ + 1 x_46_ ^ 2 + 1 y_27_ ^ 2 - 2 y_46_ * y_27_ + 1 y_46_ ^ 2 ] <= 4625.8
quadratic_ranged_73_ub: [ 1 x_8_ ^ 2 - 2 x_47_ * x_8_ + 1 x_47_ ^ 2 + 1 y_8_ ^ 2 - 2 y_47_ * y_8_ + 1 y_47_ ^ 2 ] <= 2045.25
quadratic_ranged_74_ub: [ 1 x_3_ ^ 2 - 2 x_48_ * x_3_ + 1 x_48_ ^ 2 + 1 y_3_ ^ 2 - 2 y_48_ * y_3_ + 1 y_48_ ^ 2 ] <= 979.7
quadratic_ranged_75_ub: [ 1 x_46_ ^ 2 - 2 x_48_ * x_46_ + 1 x_48_ ^ 2 + 1 y_46_ ^ 2 - 2 y_48_ * y_46_ + 1 y_48_ ^ 2 ] <= 6439.76
quadratic_ranged_76_ub: [ 1 x_11_ ^ 2 - 2 x_49_ * x_11_ + 1 x_49_ ^ 2 + 1 y_11_ ^ 2 - 2 y_49_ * y_11_ + 1 y_49_ ^ 2 ] <= 3686.5
quadratic_ranged_77_ub: [ 1 x_15_ ^ 2 - 2 x_49_ * x_15_ + 1 x_49_ ^ 2 + 1 y_15_ ^ 2 - 2 y_49_ * y_15_ + 1 y_49_ ^ 2 ] <= 28344.64
quadratic_ranged_78_ub: [ 1 x_9_ ^ 2 - 2 x_50_ * x_9_ + 1 x_50_ ^ 2 + 1 y_9_ ^ 2 - 2 y_50_ * y_9_ + 1 y_50_ ^ 2 ] <= 343.4
quadratic_ranged_79_ub: [ 1 x_31_ ^ 2 - 2 x_50_ * x_31_ + 1 x_50_ ^ 2 + 1 y_31_ ^ 2 - 2 y_50_ * y_31_ + 1 y_50_ ^ 2 ] <= 14796.5
quadratic_ranged_80_ub: [ 1 x_4_ ^ 2 - 2 x_51_ * x_4_ + 1 x_51_ ^ 2 + 1 y_4_ ^ 2 - 2 y_51_ * y_4_ + 1 y_51_ ^ 2 ] <= 25978.21
quadratic_ranged_81_ub: [ 1 x_14_ ^ 2 - 2 x_51_ * x_14_ + 1 x_51_ ^ 2 + 1 y_14_ ^ 2 - 2 y_51_ * y_14_ + 1 y_51_ ^ 2 ] <= 4186.45
quadratic_ranged_82_ub: [ 1 x_28_ ^ 2 - 2 x_51_ * x_28_ + 1 x_51_ ^ 2 + 1 y_28_ ^ 2 - 2 y_51_ * y_28_ + 1 y_51_ ^ 2 ] <= 2525
quadratic_ranged_83_ub: [ 1 x_28_ ^ 2 - 2 x_52_ * x_28_ + 1 x_52_ ^ 2 + 1 y_28_ ^ 2 - 2 y_52_ * y_28_ + 1 y_52_ ^ 2 ] <= 5367.14
quadratic_ranged_84_ub: [ 1 x_39_ ^ 2 - 2 x_53_ * x_39_ + 1 x_53_ ^ 2 + 1 y_39_ ^ 2 - 2 y_53_ * y_39_ + 1 y_53_ ^ 2 ] <= 18039.61
quadratic_ranged_85_ub: [ 1 x_43_ ^ 2 - 2 x_53_ * x_43_ + 1 x_53_ ^ 2 + 1 y_43_ ^ 2 - 2 y_53_ * y_43_ + 1 y_53_ ^ 2 ] <= 22907.81
quadratic_ranged_86_ub: [ 1 x_13_ ^ 2 - 2 x_54_ * x_13_ + 1 x_54_ ^ 2 + 1 y_13_ ^ 2 - 2 y_54_ * y_13_ + 1 y_54_ ^ 2 ] <= 3568.33
quadratic_ranged_87_ub: [ 1 x_18_ ^ 2 - 2 x_54_ * x_18_ + 1 x_54_ ^ 2 + 1 y_18_ ^ 2 - 2 y_54_ * y_18_ + 1 y_54_ ^ 2 ] <= 9846.49
quadratic_ranged_88_ub: [ 1 x_53_ ^ 2 - 2 x_54_ * x_53_ + 1 x_54_ ^ 2 + 1 y_53_ ^ 2 - 2 y_54_ * y_53_ + 1 y_54_ ^ 2 ] <= 36567.05
quadratic_ranged_89_ub: [ 1 x_8_ ^ 2 - 2 x_55_ * x_8_ + 1 x_55_ ^ 2 + 1 y_8_ ^ 2 - 2 y_55_ * y_8_ + 1 y_55_ ^ 2 ] <= 785.78
quadratic_ranged_90_ub: [ 1 x_36_ ^ 2 - 2 x_55_ * x_36_ + 1 x_55_ ^ 2 + 1 y_36_ ^ 2 - 2 y_55_ * y_36_ + 1 y_55_ ^ 2 ] <= 15538.85
quadratic_ranged_91_ub: [ 1 x_48_ ^ 2 - 2 x_55_ * x_48_ + 1 x_55_ ^ 2 + 1 y_48_ ^ 2 - 2 y_55_ * y_48_ + 1 y_55_ ^ 2 ] <= 26402.41
quadratic_ranged_92_ub: [ 1 x_10_ ^ 2 - 2 x_56_ * x_10_ + 1 x_56_ ^ 2 + 1 y_10_ ^ 2 - 2 y_56_ * y_10_ + 1 y_56_ ^ 2 ] <= 7063.9400000000005
quadratic_ranged_93_ub: [ 1 x_28_ ^ 2 - 2 x_56_ * x_28_ + 1 x_56_ ^ 2 + 1 y_28_ ^ 2 - 2 y_56_ * y_28_ + 1 y_56_ ^ 2 ] <= 11167.57
quadratic_ranged_94_ub: [ 1 x_49_ ^ 2 - 2 x_56_ * x_49_ + 1 x_56_ ^ 2 + 1 y_49_ ^ 2 - 2 y_56_ * y_49_ + 1 y_56_ ^ 2 ] <= 11846.29
quadratic_ranged_95_ub: [ 1 x_4_ ^ 2 - 2 x_57_ * x_4_ + 1 x_57_ ^ 2 + 1 y_4_ ^ 2 - 2 y_57_ * y_4_ + 1 y_57_ ^ 2 ] <= 28107.29
quadratic_ranged_96_ub: [ 1 x_7_ ^ 2 - 2 x_57_ * x_7_ + 1 x_57_ ^ 2 + 1 y_7_ ^ 2 - 2 y_57_ * y_7_ + 1 y_57_ ^ 2 ] <= 31549.37
quadratic_ranged_97_ub: [ 1 x_52_ ^ 2 - 2 x_57_ * x_52_ + 1 x_57_ ^ 2 + 1 y_52_ ^ 2 - 2 y_57_ * y_52_ + 1 y_57_ ^ 2 ] <= 6958.9
quadratic_ranged_98_ub: [ 1 x_16_ ^ 2 - 2 x_58_ * x_16_ + 1 x_58_ ^ 2 + 1 y_16_ ^ 2 - 2 y_58_ * y_16_ + 1 y_58_ ^ 2 ] <= 30520.18
quadratic_ranged_99_ub: [ 1 x_21_ ^ 2 - 2 x_58_ * x_21_ + 1 x_58_ ^ 2 + 1 y_21_ ^ 2 - 2 y_58_ * y_21_ + 1 y_58_ ^ 2 ] <= 1214.02
quadratic_ranged_100_ub: [ 1 x_4_ ^ 2 - 2 x_59_ * x_4_ + 1 x_59_ ^ 2 + 1 y_4_ ^ 2 - 2 y_59_ * y_4_ + 1 y_59_ ^ 2 ] <= 34316.77
quadratic_ranged_101_ub: [ 1 x_36_ ^ 2 - 2 x_59_ * x_36_ + 1 x_59_ ^ 2 + 1 y_36_ ^ 2 - 2 y_59_ * y_36_ + 1 y_59_ ^ 2 ] <= 4752.05
quadratic_ranged_102_ub: [ 1 x_8_ ^ 2 - 2 x_60_ * x_8_ + 1 x_60_ ^ 2 + 1 y_8_ ^ 2 - 2 y_60_ * y_8_ + 1 y_60_ ^ 2 ] <= 4501.57
quadratic_ranged_103_ub: [ 1 x_10_ ^ 2 - 2 x_60_ * x_10_ + 1 x_60_ ^ 2 + 1 y_10_ ^ 2 - 2 y_60_ * y_10_ + 1 y_60_ ^ 2 ] <= 3640.04
quadratic_ranged_104_ub: [ 1 x_59_ ^ 2 - 2 x_60_ * x_59_ + 1 x_60_ ^ 2 + 1 y_59_ ^ 2 - 2 y_60_ * y_59_ + 1 y_60_ ^ 2 ] <= 10339.37
quadratic_ranged_105_ub: [ 1 x_35_ ^ 2 - 2 x_61_ * x_35_ + 1 x_61_ ^ 2 + 1 y_35_ ^ 2 - 2 y_61_ * y_35_ + 1 y_61_ ^ 2 ] <= 14796.5
quadratic_ranged_106_ub: [ 1 x_36_ ^ 2 - 2 x_61_ * x_36_ + 1 x_61_ ^ 2 + 1 y_36_ ^ 2 - 2 y_61_ * y_36_ + 1 y_61_ ^ 2 ] <= 481.77
quadratic_ranged_107_ub: [ 1 x_50_ ^ 2 - 2 x_61_ * x_50_ + 1 x_61_ ^ 2 + 1 y_50_ ^ 2 - 2 y_61_ * y_50_ + 1 y_61_ ^ 2 ] <= 13094.65
quadratic_ranged_108_ub: [ 1 x_40_ ^ 2 - 2 x_62_ * x_40_ + 1 x_62_ ^ 2 + 1 y_40_ ^ 2 - 2 y_62_ * y_40_ + 1 y_62_ ^ 2 ] <= 5915.57
quadratic_ranged_109_ub: [ 1 x_39_ ^ 2 - 2 x_63_ * x_39_ + 1 x_63_ ^ 2 + 1 y_39_ ^ 2 - 2 y_63_ * y_39_ + 1 y_63_ ^ 2 ] <= 3253.21
quadratic_ranged_110_ub: [ 1 x_54_ ^ 2 - 2 x_63_ * x_54_ + 1 x_63_ ^ 2 + 1 y_54_ ^ 2 - 2 y_63_ * y_54_ + 1 y_63_ ^ 2 ] <= 2901.73
quadratic_ranged_111_ub: [ 1 x_15_ ^ 2 - 2 x_64_ * x_15_ + 1 x_64_ ^ 2 + 1 y_15_ ^ 2 - 2 y_64_ * y_15_ + 1 y_64_ ^ 2 ] <= 19056.68
quadratic_ranged_112_ub: [ 1 x_39_ ^ 2 - 2 x_64_ * x_39_ + 1 x_64_ ^ 2 + 1 y_39_ ^ 2 - 2 y_64_ * y_39_ + 1 y_64_ ^ 2 ] <= 8825.38
quadratic_ranged_113_ub: [ 1 x_50_ ^ 2 - 2 x_64_ * x_50_ + 1 x_64_ ^ 2 + 1 y_50_ ^ 2 - 2 y_64_ * y_50_ + 1 y_64_ ^ 2 ] <= 5067.17
quadratic_ranged_114_ub: [ 1 x_22_ ^ 2 - 2 x_65_ * x_22_ + 1 x_65_ ^ 2 + 1 y_22_ ^ 2 - 2 y_65_ * y_22_ + 1 y_65_ ^ 2 ] <= 8230.49
quadratic_ranged_115_ub: [ 1 x_44_ ^ 2 - 2 x_66_ * x_44_ + 1 x_66_ ^ 2 + 1 y_44_ ^ 2 - 2 y_66_ * y_44_ + 1 y_66_ ^ 2 ] <= 18084.05
quadratic_ranged_116_ub: [ 1 x_59_ ^ 2 - 2 x_66_ * x_59_ + 1 x_66_ ^ 2 + 1 y_59_ ^ 2 - 2 y_66_ * y_59_ + 1 y_66_ ^ 2 ] <= 36400.4
quadratic_ranged_117_ub: [ 1 x_9_ ^ 2 - 2 x_67_ * x_9_ + 1 x_67_ ^ 2 + 1 y_9_ ^ 2 - 2 y_67_ * y_9_ + 1 y_67_ ^ 2 ] <= 3774.37
quadratic_ranged_118_ub: [ 1 x_24_ ^ 2 - 2 x_67_ * x_24_ + 1 x_67_ ^ 2 + 1 y_24_ ^ 2 - 2 y_67_ * y_24_ + 1 y_67_ ^ 2 ] <= 4098.58
quadratic_ranged_119_ub: [ 1 x_26_ ^ 2 - 2 x_67_ * x_26_ + 1 x_67_ ^ 2 + 1 y_26_ ^ 2 - 2 y_67_ * y_26_ + 1 y_67_ ^ 2 ] <= 1698.82
quadratic_ranged_120_ub: [ 1 x_5_ ^ 2 - 2 x_68_ * x_5_ + 1 x_68_ ^ 2 + 1 y_5_ ^ 2 - 2 y_68_ * y_5_ + 1 y_68_ ^ 2 ] <= 12230.09
quadratic_ranged_121_ub: [ 1 x_8_ ^ 2 - 2 x_68_ * x_8_ + 1 x_68_ ^ 2 + 1 y_8_ ^ 2 - 2 y_68_ * y_8_ + 1 y_68_ ^ 2 ] <= 1701.85
quadratic_ranged_122_ub: [ 1 x_39_ ^ 2 - 2 x_68_ * x_39_ + 1 x_68_ ^ 2 + 1 y_39_ ^ 2 - 2 y_68_ * y_39_ + 1 y_68_ ^ 2 ] <= 12205.85
quadratic_ranged_123_ub: [ 1 x_17_ ^ 2 - 2 x_69_ * x_17_ + 1 x_69_ ^ 2 + 1 y_17_ ^ 2 - 2 y_69_ * y_17_ + 1 y_69_ ^ 2 ] <= 1171.6
quadratic_ranged_124_ub: [ 1 x_20_ ^ 2 - 2 x_69_ * x_20_ + 1 x_69_ ^ 2 + 1 y_20_ ^ 2 - 2 y_69_ * y_20_ + 1 y_69_ ^ 2 ] <= 13873.36
quadratic_ranged_125_ub: [ 1 x_23_ ^ 2 - 2 x_70_ * x_23_ + 1 x_70_ ^ 2 + 1 y_23_ ^ 2 - 2 y_70_ * y_23_ + 1 y_70_ ^ 2 ] <= 23256.26
quadratic_ranged_126_ub: [ 1 x_37_ ^ 2 - 2 x_70_ * x_37_ + 1 x_70_ ^ 2 + 1 y_37_ ^ 2 - 2 y_70_ * y_37_ + 1 y_70_ ^ 2 ] <= 16018.6
quadratic_ranged_127_ub: [ 1 x_43_ ^ 2 - 2 x_70_ * x_43_ + 1 x_70_ ^ 2 + 1 y_43_ ^ 2 - 2 y_70_ * y_43_ + 1 y_70_ ^ 2 ] <= 2482.58
quadratic_ranged_128_ub: [ 1 x_3_ ^ 2 - 2 x_71_ * x_3_ + 1 x_71_ ^ 2 + 1 y_3_ ^ 2 - 2 y_71_ * y_3_ + 1 y_71_ ^ 2 ] <= 7095.25
quadratic_ranged_129_ub: [ 1 x_53_ ^ 2 - 2 x_71_ * x_53_ + 1 x_71_ ^ 2 + 1 y_53_ ^ 2 - 2 y_71_ * y_53_ + 1 y_71_ ^ 2 ] <= 29638.45
quadratic_ranged_130_ub: [ 1 x_65_ ^ 2 - 2 x_71_ * x_65_ + 1 x_71_ ^ 2 + 1 y_65_ ^ 2 - 2 y_71_ * y_65_ + 1 y_71_ ^ 2 ] <= 35880.25
quadratic_ranged_131_ub: [ 1 x_6_ ^ 2 - 2 x_72_ * x_6_ + 1 x_72_ ^ 2 + 1 y_6_ ^ 2 - 2 y_72_ * y_6_ + 1 y_72_ ^ 2 ] <= 21868.52
quadratic_ranged_132_ub: [ 1 x_38_ ^ 2 - 2 x_72_ * x_38_ + 1 x_72_ ^ 2 + 1 y_38_ ^ 2 - 2 y_72_ * y_38_ + 1 y_72_ ^ 2 ] <= 11394.82
quadratic_ranged_133_ub: [ 1 x_66_ ^ 2 - 2 x_72_ * x_66_ + 1 x_72_ ^ 2 + 1 y_66_ ^ 2 - 2 y_72_ * y_66_ + 1 y_72_ ^ 2 ] <= 21716.01
quadratic_ranged_134_ub: [ 1 x_19_ ^ 2 - 2 x_73_ * x_19_ + 1 x_73_ ^ 2 + 1 y_19_ ^ 2 - 2 y_73_ * y_19_ + 1 y_73_ ^ 2 ] <= 32228.09
quadratic_ranged_135_ub: [ 1 x_29_ ^ 2 - 2 x_74_ * x_29_ + 1 x_74_ ^ 2 + 1 y_29_ ^ 2 - 2 y_74_ * y_29_ + 1 y_74_ ^ 2 ] <= 20023.25
quadratic_ranged_136_ub: [ 1 x_24_ ^ 2 - 2 x_75_ * x_24_ + 1 x_75_ ^ 2 + 1 y_24_ ^ 2 - 2 y_75_ * y_24_ + 1 y_75_ ^ 2 ] <= 31173.65
quadratic_ranged_137_ub: [ 1 x_58_ ^ 2 - 2 x_75_ * x_58_ + 1 x_75_ ^ 2 + 1 y_58_ ^ 2 - 2 y_75_ * y_58_ + 1 y_75_ ^ 2 ] <= 14869.22
quadratic_ranged_138_ub: [ 1 x_24_ ^ 2 - 2 x_76_ * x_24_ + 1 x_76_ ^ 2 + 1 y_24_ ^ 2 - 2 y_76_ * y_24_ + 1 y_76_ ^ 2 ] <= 3434
quadratic_ranged_139_ub: [ 1 x_66_ ^ 2 - 2 x_76_ * x_66_ + 1 x_76_ ^ 2 + 1 y_66_ ^ 2 - 2 y_76_ * y_66_ + 1 y_76_ ^ 2 ] <= 33897.62
quadratic_ranged_140_ub: [ 1 x_73_ ^ 2 - 2 x_76_ * x_73_ + 1 x_76_ ^ 2 + 1 y_73_ ^ 2 - 2 y_76_ * y_73_ + 1 y_76_ ^ 2 ] <= 535.3
quadratic_ranged_141_ub: [ 1 x_27_ ^ 2 - 2 x_77_ * x_27_ + 1 x_77_ ^ 2 + 1 y_27_ ^ 2 - 2 y_77_ * y_27_ + 1 y_77_ ^ 2 ] <= 9309.17
quadratic_ranged_142_ub: [ 1 x_37_ ^ 2 - 2 x_77_ * x_37_ + 1 x_77_ ^ 2 + 1 y_37_ ^ 2 - 2 y_77_ * y_37_ + 1 y_77_ ^ 2 ] <= 12705.8
quadratic_ranged_143_ub: [ 1 x_65_ ^ 2 - 2 x_77_ * x_65_ + 1 x_77_ ^ 2 + 1 y_65_ ^ 2 - 2 y_77_ * y_65_ + 1 y_77_ ^ 2 ] <= 35900.45
quadratic_ranged_144_ub: [ 1 x_45_ ^ 2 - 2 x_78_ * x_45_ + 1 x_78_ ^ 2 + 1 y_45_ ^ 2 - 2 y_78_ * y_45_ + 1 y_78_ ^ 2 ] <= 17465.93
quadratic_ranged_145_ub: [ 1 x_70_ ^ 2 - 2 x_78_ * x_70_ + 1 x_78_ ^ 2 + 1 y_70_ ^ 2 - 2 y_78_ * y_70_ + 1 y_78_ ^ 2 ] <= 5786.29
quadratic_ranged_146_ub: [ 1 x_5_ ^ 2 - 2 x_79_ * x_5_ + 1 x_79_ ^ 2 + 1 y_5_ ^ 2 - 2 y_79_ * y_5_ + 1 y_79_ ^ 2 ] <= 26732.68
quadratic_ranged_147_ub: [ 1 x_47_ ^ 2 - 2 x_79_ * x_47_ + 1 x_79_ ^ 2 + 1 y_47_ ^ 2 - 2 y_79_ * y_47_ + 1 y_79_ ^ 2 ] <= 16872.05
quadratic_ranged_148_ub: [ 1 x_61_ ^ 2 - 2 x_79_ * x_61_ + 1 x_79_ ^ 2 + 1 y_61_ ^ 2 - 2 y_79_ * y_61_ + 1 y_79_ ^ 2 ] <= 24474.32
quadratic_ranged_149_ub: [ 1 x_27_ ^ 2 - 2 x_80_ * x_27_ + 1 x_80_ ^ 2 + 1 y_27_ ^ 2 - 2 y_80_ * y_27_ + 1 y_80_ ^ 2 ] <= 6335.7300000000005
quadratic_ranged_150_ub: [ 1 x_38_ ^ 2 - 2 x_80_ * x_38_ + 1 x_80_ ^ 2 + 1 y_38_ ^ 2 - 2 y_80_ * y_38_ + 1 y_80_ ^ 2 ] <= 8836.49
quadratic_ranged_151_ub: [ 1 x_3_ ^ 2 - 2 x_81_ * x_3_ + 1 x_81_ ^ 2 + 1 y_3_ ^ 2 - 2 y_81_ * y_3_ + 1 y_81_ ^ 2 ] <= 32922.97
quadratic_ranged_152_ub: [ 1 x_9_ ^ 2 - 2 x_81_ * x_9_ + 1 x_81_ ^ 2 + 1 y_9_ ^ 2 - 2 y_81_ * y_9_ + 1 y_81_ ^ 2 ] <= 29820.25
quadratic_ranged_153_ub: [ 1 x_46_ ^ 2 - 2 x_81_ * x_46_ + 1 x_81_ ^ 2 + 1 y_46_ ^ 2 - 2 y_81_ * y_46_ + 1 y_81_ ^ 2 ] <= 16973.05
quadratic_ranged_154_ub: [ 1 x_32_ ^ 2 - 2 x_82_ * x_32_ + 1 x_82_ ^ 2 + 1 y_32_ ^ 2 - 2 y_82_ * y_32_ + 1 y_82_ ^ 2 ] <= 772.65
quadratic_ranged_155_ub: [ 1 x_61_ ^ 2 - 2 x_82_ * x_61_ + 1 x_82_ ^ 2 + 1 y_61_ ^ 2 - 2 y_82_ * y_61_ + 1 y_82_ ^ 2 ] <= 4856.08
quadratic_ranged_156_ub: [ 1 x_29_ ^ 2 - 2 x_83_ * x_29_ + 1 x_83_ ^ 2 + 1 y_29_ ^ 2 - 2 y_83_ * y_29_ + 1 y_83_ ^ 2 ] <= 11881.64
quadratic_ranged_157_ub: [ 1 x_32_ ^ 2 - 2 x_83_ * x_32_ + 1 x_83_ ^ 2 + 1 y_32_ ^ 2 - 2 y_83_ * y_32_ + 1 y_83_ ^ 2 ] <= 7322.5
quadratic_ranged_158_ub: [ 1 x_37_ ^ 2 - 2 x_83_ * x_37_ + 1 x_83_ ^ 2 + 1 y_37_ ^ 2 - 2 y_83_ * y_37_ + 1 y_83_ ^ 2 ] <= 9200.09
quadratic_ranged_159_ub: [ 1 x_14_ ^ 2 - 2 x_84_ * x_14_ + 1 x_84_ ^ 2 + 1 y_14_ ^ 2 - 2 y_84_ * y_14_ + 1 y_84_ ^ 2 ] <= 4590.45
quadratic_ranged_160_ub: [ 1 x_55_ ^ 2 - 2 x_84_ * x_55_ + 1 x_84_ ^ 2 + 1 y_55_ ^ 2 - 2 y_84_ * y_55_ + 1 y_84_ ^ 2 ] <= 440.36
quadratic_ranged_161_ub: [ 1 x_50_ ^ 2 - 2 x_85_ * x_50_ + 1 x_85_ ^ 2 + 1 y_50_ ^ 2 - 2 y_85_ * y_50_ + 1 y_85_ ^ 2 ] <= 4974.25
quadratic_ranged_162_ub: [ 1 x_54_ ^ 2 - 2 x_85_ * x_54_ + 1 x_85_ ^ 2 + 1 y_54_ ^ 2 - 2 y_85_ * y_54_ + 1 y_85_ ^ 2 ] <= 341.38
quadratic_ranged_163_ub: [ 1 x_16_ ^ 2 - 2 x_86_ * x_16_ + 1 x_86_ ^ 2 + 1 y_16_ ^ 2 - 2 y_86_ * y_16_ + 1 y_86_ ^ 2 ] <= 11063.54
quadratic_ranged_164_ub: [ 1 x_33_ ^ 2 - 2 x_86_ * x_33_ + 1 x_86_ ^ 2 + 1 y_33_ ^ 2 - 2 y_86_ * y_33_ + 1 y_86_ ^ 2 ] <= 817.09
quadratic_ranged_165_ub: [ 1 x_22_ ^ 2 - 2 x_87_ * x_22_ + 1 x_87_ ^ 2 + 1 y_22_ ^ 2 - 2 y_87_ * y_22_ + 1 y_87_ ^ 2 ] <= 601.96
quadratic_ranged_166_ub: [ 1 x_46_ ^ 2 - 2 x_87_ * x_46_ + 1 x_87_ ^ 2 + 1 y_46_ ^ 2 - 2 y_87_ * y_46_ + 1 y_87_ ^ 2 ] <= 10500.97
quadratic_ranged_167_ub: [ 1 x_58_ ^ 2 - 2 x_88_ * x_58_ + 1 x_88_ ^ 2 + 1 y_58_ ^ 2 - 2 y_88_ * y_58_ + 1 y_88_ ^ 2 ] <= 18071.93
quadratic_ranged_168_ub: [ 1 x_63_ ^ 2 - 2 x_88_ * x_63_ + 1 x_88_ ^ 2 + 1 y_63_ ^ 2 - 2 y_88_ * y_63_ + 1 y_88_ ^ 2 ] <= 34001.65
quadratic_ranged_169_ub: [ 1 x_25_ ^ 2 - 2 x_89_ * x_25_ + 1 x_89_ ^ 2 + 1 y_25_ ^ 2 - 2 y_89_ * y_25_ + 1 y_89_ ^ 2 ] <= 38401.21
quadratic_ranged_170_ub: [ 1 x_36_ ^ 2 - 2 x_89_ * x_36_ + 1 x_89_ ^ 2 + 1 y_36_ ^ 2 - 2 y_89_ * y_36_ + 1 y_89_ ^ 2 ] <= 7527.53
quadratic_ranged_171_ub: [ 1 x_15_ ^ 2 - 2 x_90_ * x_15_ + 1 x_90_ ^ 2 + 1 y_15_ ^ 2 - 2 y_90_ * y_15_ + 1 y_90_ ^ 2 ] <= 10681.76
quadratic_ranged_172_ub: [ 1 x_80_ ^ 2 - 2 x_90_ * x_80_ + 1 x_90_ ^ 2 + 1 y_80_ ^ 2 - 2 y_90_ * y_80_ + 1 y_90_ ^ 2 ] <= 17343.72
quadratic_ranged_173_ub: [ 1 x_80_ ^ 2 - 2 x_91_ * x_80_ + 1 x_91_ ^ 2 + 1 y_80_ ^ 2 - 2 y_91_ * y_80_ + 1 y_91_ ^ 2 ] <= 2650.2400000000002
quadratic_ranged_174_ub: [ 1 x_59_ ^ 2 - 2 x_92_ * x_59_ + 1 x_92_ ^ 2 + 1 y_59_ ^ 2 - 2 y_92_ * y_59_ + 1 y_92_ ^ 2 ] <= 2279.57
quadratic_ranged_175_ub: [ 1 x_62_ ^ 2 - 2 x_92_ * x_62_ + 1 x_92_ ^ 2 + 1 y_62_ ^ 2 - 2 y_92_ * y_62_ + 1 y_92_ ^ 2 ] <= 32695.72
quadratic_ranged_176_ub: [ 1 x_74_ ^ 2 - 2 x_92_ * x_74_ + 1 x_92_ ^ 2 + 1 y_74_ ^ 2 - 2 y_92_ * y_74_ + 1 y_92_ ^ 2 ] <= 27695.21
quadratic_ranged_177_ub: [ 1 x_22_ ^ 2 - 2 x_93_ * x_22_ + 1 x_93_ ^ 2 + 1 y_22_ ^ 2 - 2 y_93_ * y_22_ + 1 y_93_ ^ 2 ] <= 4000.61
quadratic_ranged_178_ub: [ 1 x_62_ ^ 2 - 2 x_93_ * x_62_ + 1 x_93_ ^ 2 + 1 y_62_ ^ 2 - 2 y_93_ * y_62_ + 1 y_93_ ^ 2 ] <= 3886.48
quadratic_ranged_179_ub: [ 1 x_71_ ^ 2 - 2 x_93_ * x_71_ + 1 x_93_ ^ 2 + 1 y_71_ ^ 2 - 2 y_93_ * y_71_ + 1 y_93_ ^ 2 ] <= 12460.37
quadratic_ranged_180_ub: [ 1 x_66_ ^ 2 - 2 x_94_ * x_66_ + 1 x_94_ ^ 2 + 1 y_66_ ^ 2 - 2 y_94_ * y_66_ + 1 y_94_ ^ 2 ] <= 6848.81
quadratic_ranged_181_ub: [ 1 x_74_ ^ 2 - 2 x_94_ * x_74_ + 1 x_94_ ^ 2 + 1 y_74_ ^ 2 - 2 y_94_ * y_74_ + 1 y_94_ ^ 2 ] <= 33456.25
quadratic_ranged_182_ub: [ 1 x_91_ ^ 2 - 2 x_94_ * x_91_ + 1 x_94_ ^ 2 + 1 y_91_ ^ 2 - 2 y_94_ * y_91_ + 1 y_94_ ^ 2 ] <= 5248.97
quadratic_ranged_183_ub: [ 1 x_7_ ^ 2 - 2 x_95_ * x_7_ + 1 x_95_ ^ 2 + 1 y_7_ ^ 2 - 2 y_95_ * y_7_ + 1 y_95_ ^ 2 ] <= 33169.41
quadratic_ranged_184_ub: [ 1 x_11_ ^ 2 - 2 x_95_ * x_11_ + 1 x_95_ ^ 2 + 1 y_11_ ^ 2 - 2 y_95_ * y_11_ + 1 y_95_ ^ 2 ] <= 28613.3
quadratic_ranged_185_ub: [ 1 x_58_ ^ 2 - 2 x_95_ * x_58_ + 1 x_95_ ^ 2 + 1 y_58_ ^ 2 - 2 y_95_ * y_58_ + 1 y_95_ ^ 2 ] <= 20144.45
quadratic_ranged_186_ub: [ 1 x_4_ ^ 2 - 2 x_96_ * x_4_ + 1 x_96_ ^ 2 + 1 y_4_ ^ 2 - 2 y_96_ * y_4_ + 1 y_96_ ^ 2 ] <= 4040
quadratic_ranged_187_ub: [ 1 x_54_ ^ 2 - 2 x_96_ * x_54_ + 1 x_96_ ^ 2 + 1 y_54_ ^ 2 - 2 y_96_ * y_54_ + 1 y_96_ ^ 2 ] <= 14690.45
quadratic_ranged_188_ub: [ 1 x_19_ ^ 2 - 2 x_97_ * x_19_ + 1 x_97_ ^ 2 + 1 y_19_ ^ 2 - 2 y_97_ * y_19_ + 1 y_97_ ^ 2 ] <= 19251.61
quadratic_ranged_189_ub: [ 1 x_50_ ^ 2 - 2 x_97_ * x_50_ + 1 x_97_ ^ 2 + 1 y_50_ ^ 2 - 2 y_97_ * y_50_ + 1 y_97_ ^ 2 ] <= 6739.7300000000005
quadratic_ranged_190_ub: [ 1 x_57_ ^ 2 - 2 x_97_ * x_57_ + 1 x_97_ ^ 2 + 1 y_57_ ^ 2 - 2 y_97_ * y_57_ + 1 y_97_ ^ 2 ] <= 6342.8
quadratic_ranged_191_ub: [ 1 x_5_ ^ 2 - 2 x_98_ * x_5_ + 1 x_98_ ^ 2 + 1 y_5_ ^ 2 - 2 y_98_ * y_5_ + 1 y_98_ ^ 2 ] <= 11869.52
quadratic_ranged_192_ub: [ 1 x_10_ ^ 2 - 2 x_98_ * x_10_ + 1 x_98_ ^ 2 + 1 y_10_ ^ 2 - 2 y_98_ * y_10_ + 1 y_98_ ^ 2 ] <= 12682.57
quadratic_ranged_193_ub: [ 1 x_52_ ^ 2 - 2 x_99_ * x_52_ + 1 x_99_ ^ 2 + 1 y_52_ ^ 2 - 2 y_99_ * y_52_ + 1 y_99_ ^ 2 ] <= 4050.1
quadratic_ranged_194_ub: [ 1 x_80_ ^ 2 - 2 x_99_ * x_80_ + 1 x_99_ ^ 2 + 1 y_80_ ^ 2 - 2 y_99_ * y_80_ + 1 y_99_ ^ 2 ] <= 1609.94
quadratic_ranged_195_ub: [ 1 x_8_ ^ 2 - 2 x_100_ * x_8_ + 1 x_100_ ^ 2 + 1 y_8_ ^ 2 - 2 y_100_ * y_8_ + 1 y_100_ ^ 2 ] <= 31395.85
quadratic_ranged_196_ub: [ 1 x_37_ ^ 2 - 2 x_100_ * x_37_ + 1 x_100_ ^ 2 + 1 y_37_ ^ 2 - 2 y_100_ * y_37_ + 1 y_100_ ^ 2 ] <= 26911.45
quadratic_ranged_197_ub: [ 1 x_84_ ^ 2 - 2 x_100_ * x_84_ + 1 x_100_ ^ 2 + 1 y_84_ ^ 2 - 2 y_100_ * y_84_ + 1 y_100_ ^ 2 ] <= 23566.33
quadratic_ranged_1_lb: [ 1 x_1_ ^ 2 - 2 x_4_ * x_1_ + 1 x_4_ ^ 2 + 1 y_1_ ^ 2 - 2 y_4_ * y_1_ + 1 y_4_ ^ 2 ] >= 17317.079999999998
quadratic_ranged_2_lb: [ 1 x_3_ ^ 2 - 2 x_5_ * x_3_ + 1 x_5_ ^ 2 + 1 y_3_ ^ 2 - 2 y_5_ * y_3_ + 1 y_5_ ^ 2 ] >= 4935.15
quadratic_ranged_3_lb: [ 1 x_4_ ^ 2 - 2 x_5_ * x_4_ + 1 x_5_ ^ 2 + 1 y_4_ ^ 2 - 2 y_5_ * y_4_ + 1 y_5_ ^ 2 ] >= 30108.87
quadratic_ranged_4_lb: [ 1 x_4_ ^ 2 - 2 x_6_ * x_4_ + 1 x_6_ ^ 2 + 1 y_4_ ^ 2 - 2 y_6_ * y_4_ + 1 y_6_ ^ 2 ] >= 4316.4
quadratic_ranged_5_lb: [ 1 x_4_ ^ 2 - 2 x_7_ * x_4_ + 1 x_7_ ^ 2 + 1 y_4_ ^ 2 - 2 y_7_ * y_4_ + 1 y_7_ ^ 2 ] >= 11278.08
quadratic_ranged_6_lb: [ 1 x_5_ ^ 2 - 2 x_10_ * x_5_ + 1 x_10_ ^ 2 + 1 y_5_ ^ 2 - 2 y_10_ * y_5_ + 1 y_10_ ^ 2 ] >= 998.91
quadratic_ranged_7_lb: [ 1 x_2_ ^ 2 - 2 x_11_ * x_2_ + 1 x_11_ ^ 2 + 1 y_2_ ^ 2 - 2 y_11_ * y_2_ + 1 y_11_ ^ 2 ] >= 4162.95
quadratic_ranged_8_lb: [ 1 x_3_ ^ 2 - 2 x_11_ * x_3_ + 1 x_11_ ^ 2 + 1 y_3_ ^ 2 - 2 y_11_ * y_3_ + 1 y_11_ ^ 2 ] >= 10993.95
quadratic_ranged_9_lb: [ 1 x_2_ ^ 2 - 2 x_12_ * x_2_ + 1 x_12_ ^ 2 + 1 y_2_ ^ 2 - 2 y_12_ * y_2_ + 1 y_12_ ^ 2 ] >= 4429.26
quadratic_ranged_10_lb: [ 1 x_7_ ^ 2 - 2 x_12_ * x_7_ + 1 x_12_ ^ 2 + 1 y_7_ ^ 2 - 2 y_12_ * y_7_ + 1 y_12_ ^ 2 ] >= 8658.539999999999
quadratic_ranged_11_lb: [ 1 x_1_ ^ 2 - 2 x_13_ * x_1_ + 1 x_13_ ^ 2 + 1 y_1_ ^ 2 - 2 y_13_ * y_1_ + 1 y_13_ ^ 2 ] >= 14923.26
quadratic_ranged_12_lb: [ 1 x_2_ ^ 2 - 2 x_14_ * x_2_ + 1 x_14_ ^ 2 + 1 y_2_ ^ 2 - 2 y_14_ * y_2_ + 1 y_14_ ^ 2 ] >= 857.34
quadratic_ranged_13_lb: [ 1 x_5_ ^ 2 - 2 x_16_ * x_5_ + 1 x_16_ ^ 2 + 1 y_5_ ^ 2 - 2 y_16_ * y_5_ + 1 y_16_ ^ 2 ] >= 2673.99
quadratic_ranged_14_lb: [ 1 x_1_ ^ 2 - 2 x_17_ * x_1_ + 1 x_17_ ^ 2 + 1 y_1_ ^ 2 - 2 y_17_ * y_1_ + 1 y_17_ ^ 2 ] >= 1942.3799999999999
quadratic_ranged_15_lb: [ 1 x_2_ ^ 2 - 2 x_18_ * x_2_ + 1 x_18_ ^ 2 + 1 y_2_ ^ 2 - 2 y_18_ * y_2_ + 1 y_18_ ^ 2 ] >= 572.22
quadratic_ranged_16_lb: [ 1 x_3_ ^ 2 - 2 x_18_ * x_3_ + 1 x_18_ ^ 2 + 1 y_3_ ^ 2 - 2 y_18_ * y_3_ + 1 y_18_ ^ 2 ] >= 13077.9
quadratic_ranged_17_lb: [ 1 x_4_ ^ 2 - 2 x_18_ * x_4_ + 1 x_18_ ^ 2 + 1 y_4_ ^ 2 - 2 y_18_ * y_4_ + 1 y_18_ ^ 2 ] >= 9284.22
quadratic_ranged_18_lb: [ 1 x_7_ ^ 2 - 2 x_19_ * x_7_ + 1 x_19_ ^ 2 + 1 y_7_ ^ 2 - 2 y_19_ * y_7_ + 1 y_19_ ^ 2 ] >= 358.38
quadratic_ranged_19_lb: [ 1 x_8_ ^ 2 - 2 x_19_ * x_8_ + 1 x_19_ ^ 2 + 1 y_8_ ^ 2 - 2 y_19_ * y_8_ + 1 y_19_ ^ 2 ] >= 7758.63
quadratic_ranged_20_lb: [ 1 x_3_ ^ 2 - 2 x_20_ * x_3_ + 1 x_20_ ^ 2 + 1 y_3_ ^ 2 - 2 y_20_ * y_3_ + 1 y_20_ ^ 2 ] >= 11367.18
quadratic_ranged_21_lb: [ 1 x_5_ ^ 2 - 2 x_20_ * x_5_ + 1 x_20_ ^ 2 + 1 y_5_ ^ 2 - 2 y_20_ * y_5_ + 1 y_20_ ^ 2 ] >= 4515.39
quadratic_ranged_22_lb: [ 1 x_14_ ^ 2 - 2 x_21_ * x_14_ + 1 x_21_ ^ 2 + 1 y_14_ ^ 2 - 2 y_21_ * y_14_ + 1 y_21_ ^ 2 ] >= 6027.12
quadratic_ranged_23_lb: [ 1 x_2_ ^ 2 - 2 x_22_ * x_2_ + 1 x_22_ ^ 2 + 1 y_2_ ^ 2 - 2 y_22_ * y_2_ + 1 y_22_ ^ 2 ] >= 10823.67
quadratic_ranged_24_lb: [ 1 x_3_ ^ 2 - 2 x_22_ * x_3_ + 1 x_22_ ^ 2 + 1 y_3_ ^ 2 - 2 y_22_ * y_3_ + 1 y_22_ ^ 2 ] >= 5014.35
quadratic_ranged_25_lb: [ 1 x_1_ ^ 2 - 2 x_23_ * x_1_ + 1 x_23_ ^ 2 + 1 y_1_ ^ 2 - 2 y_23_ * y_1_ + 1 y_23_ ^ 2 ] >= 2440.35
quadratic_ranged_26_lb: [ 1 x_5_ ^ 2 - 2 x_23_ * x_5_ + 1 x_23_ ^ 2 + 1 y_5_ ^ 2 - 2 y_23_ * y_5_ + 1 y_23_ ^ 2 ] >= 19724.76
quadratic_ranged_27_lb: [ 1 x_18_ ^ 2 - 2 x_23_ * x_18_ + 1 x_23_ ^ 2 + 1 y_18_ ^ 2 - 2 y_23_ * y_18_ + 1 y_23_ ^ 2 ] >= 7631.91
quadratic_ranged_28_lb: [ 1 x_7_ ^ 2 - 2 x_24_ * x_7_ + 1 x_24_ ^ 2 + 1 y_7_ ^ 2 - 2 y_24_ * y_7_ + 1 y_24_ ^ 2 ] >= 8210.07
quadratic_ranged_29_lb: [ 1 x_20_ ^ 2 - 2 x_24_ * x_20_ + 1 x_24_ ^ 2 + 1 y_20_ ^ 2 - 2 y_24_ * y_20_ + 1 y_24_ ^ 2 ] >= 2804.67
quadratic_ranged_30_lb: [ 1 x_4_ ^ 2 - 2 x_25_ * x_4_ + 1 x_25_ ^ 2 + 1 y_4_ ^ 2 - 2 y_25_ * y_4_ + 1 y_25_ ^ 2 ] >= 31895.82
quadratic_ranged_31_lb: [ 1 x_9_ ^ 2 - 2 x_25_ * x_9_ + 1 x_25_ ^ 2 + 1 y_9_ ^ 2 - 2 y_25_ * y_9_ + 1 y_25_ ^ 2 ] >= 33.66
quadratic_ranged_32_lb: [ 1 x_9_ ^ 2 - 2 x_27_ * x_9_ + 1 x_27_ ^ 2 + 1 y_9_ ^ 2 - 2 y_27_ * y_9_ + 1 y_27_ ^ 2 ] >= 39253.5
quadratic_ranged_33_lb: [ 1 x_17_ ^ 2 - 2 x_27_ * x_17_ + 1 x_27_ ^ 2 + 1 y_17_ ^ 2 - 2 y_27_ * y_17_ + 1 y_27_ ^ 2 ] >= 43164
quadratic_ranged_34_lb: [ 1 x_22_ ^ 2 - 2 x_27_ * x_22_ + 1 x_27_ ^ 2 + 1 y_22_ ^ 2 - 2 y_27_ * y_22_ + 1 y_27_ ^ 2 ] >= 25475.67
quadratic_ranged_35_lb: [ 1 x_6_ ^ 2 - 2 x_28_ * x_6_ + 1 x_28_ ^ 2 + 1 y_6_ ^ 2 - 2 y_28_ * y_6_ + 1 y_28_ ^ 2 ] >= 28279.35
quadratic_ranged_36_lb: [ 1 x_16_ ^ 2 - 2 x_28_ * x_16_ + 1 x_28_ ^ 2 + 1 y_16_ ^ 2 - 2 y_28_ * y_16_ + 1 y_28_ ^ 2 ] >= 5291.55
quadratic_ranged_37_lb: [ 1 x_13_ ^ 2 - 2 x_29_ * x_13_ + 1 x_29_ ^ 2 + 1 y_13_ ^ 2 - 2 y_29_ * y_13_ + 1 y_29_ ^ 2 ] >= 30004.92
quadratic_ranged_38_lb: [ 1 x_20_ ^ 2 - 2 x_29_ * x_20_ + 1 x_29_ ^ 2 + 1 y_20_ ^ 2 - 2 y_29_ * y_20_ + 1 y_29_ ^ 2 ] >= 3627.36
quadratic_ranged_39_lb: [ 1 x_6_ ^ 2 - 2 x_30_ * x_6_ + 1 x_30_ ^ 2 + 1 y_6_ ^ 2 - 2 y_30_ * y_6_ + 1 y_30_ ^ 2 ] >= 2740.32
quadratic_ranged_40_lb: [ 1 x_24_ ^ 2 - 2 x_30_ * x_24_ + 1 x_30_ ^ 2 + 1 y_24_ ^ 2 - 2 y_30_ * y_24_ + 1 y_30_ ^ 2 ] >= 23737.23
quadratic_ranged_41_lb: [ 1 x_11_ ^ 2 - 2 x_31_ * x_11_ + 1 x_31_ ^ 2 + 1 y_11_ ^ 2 - 2 y_31_ * y_11_ + 1 y_31_ ^ 2 ] >= 12890.789999999999
quadratic_ranged_42_lb: [ 1 x_15_ ^ 2 - 2 x_31_ * x_15_ + 1 x_31_ ^ 2 + 1 y_15_ ^ 2 - 2 y_31_ * y_15_ + 1 y_31_ ^ 2 ] >= 4911.39
quadratic_ranged_43_lb: [ 1 x_19_ ^ 2 - 2 x_32_ * x_19_ + 1 x_32_ ^ 2 + 1 y_19_ ^ 2 - 2 y_32_ * y_19_ + 1 y_32_ ^ 2 ] >= 3383.82
quadratic_ranged_44_lb: [ 1 x_21_ ^ 2 - 2 x_32_ * x_21_ + 1 x_32_ ^ 2 + 1 y_21_ ^ 2 - 2 y_32_ * y_21_ + 1 y_32_ ^ 2 ] >= 2995.74
quadratic_ranged_45_lb: [ 1 x_7_ ^ 2 - 2 x_33_ * x_7_ + 1 x_33_ ^ 2 + 1 y_7_ ^ 2 - 2 y_33_ * y_7_ + 1 y_33_ ^ 2 ] >= 4590.63
quadratic_ranged_46_lb: [ 1 x_9_ ^ 2 - 2 x_33_ * x_9_ + 1 x_33_ ^ 2 + 1 y_9_ ^ 2 - 2 y_33_ * y_9_ + 1 y_33_ ^ 2 ] >= 15947.91
quadratic_ranged_47_lb: [ 1 x_11_ ^ 2 - 2 x_34_ * x_11_ + 1 x_34_ ^ 2 + 1 y_11_ ^ 2 - 2 y_34_ * y_11_ + 1 y_34_ ^ 2 ] >= 16087.5
quadratic_ranged_48_lb: [ 1 x_12_ ^ 2 - 2 x_34_ * x_12_ + 1 x_34_ ^ 2 + 1 y_12_ ^ 2 - 2 y_34_ * y_12_ + 1 y_34_ ^ 2 ] >= 19713.87
quadratic_ranged_49_lb: [ 1 x_26_ ^ 2 - 2 x_34_ * x_26_ + 1 x_34_ ^ 2 + 1 y_26_ ^ 2 - 2 y_34_ * y_26_ + 1 y_34_ ^ 2 ] >= 3098.7
quadratic_ranged_50_lb: [ 1 x_8_ ^ 2 - 2 x_35_ * x_8_ + 1 x_35_ ^ 2 + 1 y_8_ ^ 2 - 2 y_35_ * y_8_ + 1 y_35_ ^ 2 ] >= 437.58
quadratic_ranged_51_lb: [ 1 x_31_ ^ 2 - 2 x_36_ * x_31_ + 1 x_36_ ^ 2 + 1 y_31_ ^ 2 - 2 y_36_ * y_31_ + 1 y_36_ ^ 2 ] >= 8674.38
quadratic_ranged_52_lb: [ 1 x_14_ ^ 2 - 2 x_38_ * x_14_ + 1 x_38_ ^ 2 + 1 y_14_ ^ 2 - 2 y_38_ * y_14_ + 1 y_38_ ^ 2 ] >= 2871
quadratic_ranged_53_lb: [ 1 x_22_ ^ 2 - 2 x_38_ * x_22_ + 1 x_38_ ^ 2 + 1 y_22_ ^ 2 - 2 y_38_ * y_22_ + 1 y_38_ ^ 2 ] >= 2780.91
quadratic_ranged_54_lb: [ 1 x_8_ ^ 2 - 2 x_39_ * x_8_ + 1 x_39_ ^ 2 + 1 y_8_ ^ 2 - 2 y_39_ * y_8_ + 1 y_39_ ^ 2 ] >= 17364.6
quadratic_ranged_55_lb: [ 1 x_4_ ^ 2 - 2 x_40_ * x_4_ + 1 x_40_ ^ 2 + 1 y_4_ ^ 2 - 2 y_40_ * y_4_ + 1 y_40_ ^ 2 ] >= 6344.91
quadratic_ranged_56_lb: [ 1 x_19_ ^ 2 - 2 x_40_ * x_19_ + 1 x_40_ ^ 2 + 1 y_19_ ^ 2 - 2 y_40_ * y_19_ + 1 y_40_ ^ 2 ] >= 3497.67
quadratic_ranged_57_lb: [ 1 x_6_ ^ 2 - 2 x_41_ * x_6_ + 1 x_41_ ^ 2 + 1 y_6_ ^ 2 - 2 y_41_ * y_6_ + 1 y_41_ ^ 2 ] >= 29755.44
quadratic_ranged_58_lb: [ 1 x_16_ ^ 2 - 2 x_41_ * x_16_ + 1 x_41_ ^ 2 + 1 y_16_ ^ 2 - 2 y_41_ * y_16_ + 1 y_41_ ^ 2 ] >= 168.3
quadratic_ranged_59_lb: [ 1 x_35_ ^ 2 - 2 x_41_ * x_35_ + 1 x_41_ ^ 2 + 1 y_35_ ^ 2 - 2 y_41_ * y_35_ + 1 y_41_ ^ 2 ] >= 21432.51
quadratic_ranged_60_lb: [ 1 x_13_ ^ 2 - 2 x_42_ * x_13_ + 1 x_42_ ^ 2 + 1 y_13_ ^ 2 - 2 y_42_ * y_13_ + 1 y_42_ ^ 2 ] >= 7761.6
quadratic_ranged_61_lb: [ 1 x_20_ ^ 2 - 2 x_42_ * x_20_ + 1 x_42_ ^ 2 + 1 y_20_ ^ 2 - 2 y_42_ * y_20_ + 1 y_42_ ^ 2 ] >= 12216.6
quadratic_ranged_62_lb: [ 1 x_21_ ^ 2 - 2 x_42_ * x_21_ + 1 x_42_ ^ 2 + 1 y_21_ ^ 2 - 2 y_42_ * y_21_ + 1 y_42_ ^ 2 ] >= 14271.84
quadratic_ranged_63_lb: [ 1 x_1_ ^ 2 - 2 x_43_ * x_1_ + 1 x_43_ ^ 2 + 1 y_1_ ^ 2 - 2 y_43_ * y_1_ + 1 y_43_ ^ 2 ] >= 12003.75
quadratic_ranged_64_lb: [ 1 x_15_ ^ 2 - 2 x_43_ * x_15_ + 1 x_43_ ^ 2 + 1 y_15_ ^ 2 - 2 y_43_ * y_15_ + 1 y_43_ ^ 2 ] >= 26383.5
quadratic_ranged_65_lb: [ 1 x_5_ ^ 2 - 2 x_44_ * x_5_ + 1 x_44_ ^ 2 + 1 y_5_ ^ 2 - 2 y_44_ * y_5_ + 1 y_44_ ^ 2 ] >= 2361.15
quadratic_ranged_66_lb: [ 1 x_35_ ^ 2 - 2 x_44_ * x_35_ + 1 x_44_ ^ 2 + 1 y_35_ ^ 2 - 2 y_44_ * y_35_ + 1 y_44_ ^ 2 ] >= 8099.19
quadratic_ranged_67_lb: [ 1 x_10_ ^ 2 - 2 x_45_ * x_10_ + 1 x_45_ ^ 2 + 1 y_10_ ^ 2 - 2 y_45_ * y_10_ + 1 y_45_ ^ 2 ] >= 9124.83
quadratic_ranged_68_lb: [ 1 x_31_ ^ 2 - 2 x_45_ * x_31_ + 1 x_45_ ^ 2 + 1 y_31_ ^ 2 - 2 y_45_ * y_31_ + 1 y_45_ ^ 2 ] >= 349.46999999999997
quadratic_ranged_69_lb: [ 1 x_42_ ^ 2 - 2 x_45_ * x_42_ + 1 x_45_ ^ 2 + 1 y_42_ ^ 2 - 2 y_45_ * y_42_ + 1 y_45_ ^ 2 ] >= 9627.75
quadratic_ranged_70_lb: [ 1 x_20_ ^ 2 - 2 x_46_ * x_20_ + 1 x_46_ ^ 2 + 1 y_20_ ^ 2 - 2 y_46_ * y_20_ + 1 y_46_ ^ 2 ] >= 1160.28
quadratic_ranged_71_lb: [ 1 x_26_ ^ 2 - 2 x_46_ * x_26_ + 1 x_46_ ^ 2 + 1 y_26_ ^ 2 - 2 y_46_ * y_26_ + 1 y_46_ ^ 2 ] >= 4586.67
quadratic_ranged_72_lb: [ 1 x_27_ ^ 2 - 2 x_46_ * x_27_ + 1 x_46_ ^ 2 + 1 y_27_ ^ 2 - 2 y_46_ * y_27_ + 1 y_46_ ^ 2 ] >= 4534.2
quadratic_ranged_73_lb: [ 1 x_8_ ^ 2 - 2 x_47_ * x_8_ + 1 x_47_ ^ 2 + 1 y_8_ ^ 2 - 2 y_47_ * y_8_ + 1 y_47_ ^ 2 ] >= 2004.75
quadratic_ranged_74_lb: [ 1 x_3_ ^ 2 - 2 x_48_ * x_3_ + 1 x_48_ ^ 2 + 1 y_3_ ^ 2 - 2 y_48_ * y_3_ + 1 y_48_ ^ 2 ] >= 960.3
quadratic_ranged_75_lb: [ 1 x_46_ ^ 2 - 2 x_48_ * x_46_ + 1 x_48_ ^ 2 + 1 y_46_ ^ 2 - 2 y_48_ * y_46_ + 1 y_48_ ^ 2 ] >= 6312.24
quadratic_ranged_76_lb: [ 1 x_11_ ^ 2 - 2 x_49_ * x_11_ + 1 x_49_ ^ 2 + 1 y_11_ ^ 2 - 2 y_49_ * y_11_ + 1 y_49_ ^ 2 ] >= 3613.5
quadratic_ranged_77_lb: [ 1 x_15_ ^ 2 - 2 x_49_ * x_15_ + 1 x_49_ ^ 2 + 1 y_15_ ^ 2 - 2 y_49_ * y_15_ + 1 y_49_ ^ 2 ] >= 27783.36
quadratic_ranged_78_lb: [ 1 x_9_ ^ 2 - 2 x_50_ * x_9_ + 1 x_50_ ^ 2 + 1 y_9_ ^ 2 - 2 y_50_ * y_9_ + 1 y_50_ ^ 2 ] >= 336.6
quadratic_ranged_79_lb: [ 1 x_31_ ^ 2 - 2 x_50_ * x_31_ + 1 x_50_ ^ 2 + 1 y_31_ ^ 2 - 2 y_50_ * y_31_ + 1 y_50_ ^ 2 ] >= 14503.5
quadratic_ranged_80_lb: [ 1 x_4_ ^ 2 - 2 x_51_ * x_4_ + 1 x_51_ ^ 2 + 1 y_4_ ^ 2 - 2 y_51_ * y_4_ + 1 y_51_ ^ 2 ] >= 25463.79
quadratic_ranged_81_lb: [ 1 x_14_ ^ 2 - 2 x_51_ * x_14_ + 1 x_51_ ^ 2 + 1 y_14_ ^ 2 - 2 y_51_ * y_14_ + 1 y_51_ ^ 2 ] >= 4103.55
quadratic_ranged_82_lb: [ 1 x_28_ ^ 2 - 2 x_51_ * x_28_ + 1 x_51_ ^ 2 + 1 y_28_ ^ 2 - 2 y_51_ * y_28_ + 1 y_51_ ^ 2 ] >= 2475
quadratic_ranged_83_lb: [ 1 x_28_ ^ 2 - 2 x_52_ * x_28_ + 1 x_52_ ^ 2 + 1 y_28_ ^ 2 - 2 y_52_ * y_28_ + 1 y_52_ ^ 2 ] >= 5260.86
quadratic_ranged_84_lb: [ 1 x_39_ ^ 2 - 2 x_53_ * x_39_ + 1 x_53_ ^ 2 + 1 y_39_ ^ 2 - 2 y_53_ * y_39_ + 1 y_53_ ^ 2 ] >= 17682.39
quadratic_ranged_85_lb: [ 1 x_43_ ^ 2 - 2 x_53_ * x_43_ + 1 x_53_ ^ 2 + 1 y_43_ ^ 2 - 2 y_53_ * y_43_ + 1 y_53_ ^ 2 ] >= 22454.19
quadratic_ranged_86_lb: [ 1 x_13_ ^ 2 - 2 x_54_ * x_13_ + 1 x_54_ ^ 2 + 1 y_13_ ^ 2 - 2 y_54_ * y_13_ + 1 y_54_ ^ 2 ] >= 3497.67
quadratic_ranged_87_lb: [ 1 x_18_ ^ 2 - 2 x_54_ * x_18_ + 1 x_54_ ^ 2 + 1 y_18_ ^ 2 - 2 y_54_ * y_18_ + 1 y_54_ ^ 2 ] >= 9651.51
quadratic_ranged_88_lb: [ 1 x_53_ ^ 2 - 2 x_54_ * x_53_ + 1 x_54_ ^ 2 + 1 y_53_ ^ 2 - 2 y_54_ * y_53_ + 1 y_54_ ^ 2 ] >= 35842.95
quadratic_ranged_89_lb: [ 1 x_8_ ^ 2 - 2 x_55_ * x_8_ + 1 x_55_ ^ 2 + 1 y_8_ ^ 2 - 2 y_55_ * y_8_ + 1 y_55_ ^ 2 ] >= 770.22
quadratic_ranged_90_lb: [ 1 x_36_ ^ 2 - 2 x_55_ * x_36_ + 1 x_55_ ^ 2 + 1 y_36_ ^ 2 - 2 y_55_ * y_36_ + 1 y_55_ ^ 2 ] >= 15231.15
quadratic_ranged_91_lb: [ 1 x_48_ ^ 2 - 2 x_55_ * x_48_ + 1 x_55_ ^ 2 + 1 y_48_ ^ 2 - 2 y_55_ * y_48_ + 1 y_55_ ^ 2 ] >= 25879.59
quadratic_ranged_92_lb: [ 1 x_10_ ^ 2 - 2 x_56_ * x_10_ + 1 x_56_ ^ 2 + 1 y_10_ ^ 2 - 2 y_56_ * y_10_ + 1 y_56_ ^ 2 ] >= 6924.0599999999995
quadratic_ranged_93_lb: [ 1 x_28_ ^ 2 - 2 x_56_ * x_28_ + 1 x_56_ ^ 2 + 1 y_28_ ^ 2 - 2 y_56_ * y_28_ + 1 y_56_ ^ 2 ] >= 10946.43
quadratic_ranged_94_lb: [ 1 x_49_ ^ 2 - 2 x_56_ * x_49_ + 1 x_56_ ^ 2 + 1 y_49_ ^ 2 - 2 y_56_ * y_49_ + 1 y_56_ ^ 2 ] >= 11611.71
quadratic_ranged_95_lb: [ 1 x_4_ ^ 2 - 2 x_57_ * x_4_ + 1 x_57_ ^ 2 + 1 y_4_ ^ 2 - 2 y_57_ * y_4_ + 1 y_57_ ^ 2 ] >= 27550.71
quadratic_ranged_96_lb: [ 1 x_7_ ^ 2 - 2 x_57_ * x_7_ + 1 x_57_ ^ 2 + 1 y_7_ ^ 2 - 2 y_57_ * y_7_ + 1 y_57_ ^ 2 ] >= 30924.63
quadratic_ranged_97_lb: [ 1 x_52_ ^ 2 - 2 x_57_ * x_52_ + 1 x_57_ ^ 2 + 1 y_52_ ^ 2 - 2 y_57_ * y_52_ + 1 y_57_ ^ 2 ] >= 6821.1
quadratic_ranged_98_lb: [ 1 x_16_ ^ 2 - 2 x_58_ * x_16_ + 1 x_58_ ^ 2 + 1 y_16_ ^ 2 - 2 y_58_ * y_16_ + 1 y_58_ ^ 2 ] >= 29915.82
quadratic_ranged_99_lb: [ 1 x_21_ ^ 2 - 2 x_58_ * x_21_ + 1 x_58_ ^ 2 + 1 y_21_ ^ 2 - 2 y_58_ * y_21_ + 1 y_58_ ^ 2 ] >= 1189.98
quadratic_ranged_100_lb: [ 1 x_4_ ^ 2 - 2 x_59_ * x_4_ + 1 x_59_ ^ 2 + 1 y_4_ ^ 2 - 2 y_59_ * y_4_ + 1 y_59_ ^ 2 ] >= 33637.23
quadratic_ranged_101_lb: [ 1 x_36_ ^ 2 - 2 x_59_ * x_36_ + 1 x_59_ ^ 2 + 1 y_36_ ^ 2 - 2 y_59_ * y_36_ + 1 y_59_ ^ 2 ] >= 4657.95
quadratic_ranged_102_lb: [ 1 x_8_ ^ 2 - 2 x_60_ * x_8_ + 1 x_60_ ^ 2 + 1 y_8_ ^ 2 - 2 y_60_ * y_8_ + 1 y_60_ ^ 2 ] >= 4412.43
quadratic_ranged_103_lb: [ 1 x_10_ ^ 2 - 2 x_60_ * x_10_ + 1 x_60_ ^ 2 + 1 y_10_ ^ 2 - 2 y_60_ * y_10_ + 1 y_60_ ^ 2 ] >= 3567.96
quadratic_ranged_104_lb: [ 1 x_59_ ^ 2 - 2 x_60_ * x_59_ + 1 x_60_ ^ 2 + 1 y_59_ ^ 2 - 2 y_60_ * y_59_ + 1 y_60_ ^ 2 ] >= 10134.63
quadratic_ranged_105_lb: [ 1 x_35_ ^ 2 - 2 x_61_ * x_35_ + 1 x_61_ ^ 2 + 1 y_35_ ^ 2 - 2 y_61_ * y_35_ + 1 y_61_ ^ 2 ] >= 14503.5
quadratic_ranged_106_lb: [ 1 x_36_ ^ 2 - 2 x_61_ * x_36_ + 1 x_61_ ^ 2 + 1 y_36_ ^ 2 - 2 y_61_ * y_36_ + 1 y_61_ ^ 2 ] >= 472.23
quadratic_ranged_107_lb: [ 1 x_50_ ^ 2 - 2 x_61_ * x_50_ + 1 x_61_ ^ 2 + 1 y_50_ ^ 2 - 2 y_61_ * y_50_ + 1 y_61_ ^ 2 ] >= 12835.35
quadratic_ranged_108_lb: [ 1 x_40_ ^ 2 - 2 x_62_ * x_40_ + 1 x_62_ ^ 2 + 1 y_40_ ^ 2 - 2 y_62_ * y_40_ + 1 y_62_ ^ 2 ] >= 5798.43
quadratic_ranged_109_lb: [ 1 x_39_ ^ 2 - 2 x_63_ * x_39_ + 1 x_63_ ^ 2 + 1 y_39_ ^ 2 - 2 y_63_ * y_39_ + 1 y_63_ ^ 2 ] >= 3188.79
quadratic_ranged_110_lb: [ 1 x_54_ ^ 2 - 2 x_63_ * x_54_ + 1 x_63_ ^ 2 + 1 y_54_ ^ 2 - 2 y_63_ * y_54_ + 1 y_63_ ^ 2 ] >= 2844.27
quadratic_ranged_111_lb: [ 1 x_15_ ^ 2 - 2 x_64_ * x_15_ + 1 x_64_ ^ 2 + 1 y_15_ ^ 2 - 2 y_64_ * y_15_ + 1 y_64_ ^ 2 ] >= 18679.32
quadratic_ranged_112_lb: [ 1 x_39_ ^ 2 - 2 x_64_ * x_39_ + 1 x_64_ ^ 2 + 1 y_39_ ^ 2 - 2 y_64_ * y_39_ + 1 y_64_ ^ 2 ] >= 8650.62
quadratic_ranged_113_lb: [ 1 x_50_ ^ 2 - 2 x_64_ * x_50_ + 1 x_64_ ^ 2 + 1 y_50_ ^ 2 - 2 y_64_ * y_50_ + 1 y_64_ ^ 2 ] >= 4966.83
quadratic_ranged_114_lb: [ 1 x_22_ ^ 2 - 2 x_65_ * x_22_ + 1 x_65_ ^ 2 + 1 y_22_ ^ 2 - 2 y_65_ * y_22_ + 1 y_65_ ^ 2 ] >= 8067.51
quadratic_ranged_115_lb: [ 1 x_44_ ^ 2 - 2 x_66_ * x_44_ + 1 x_66_ ^ 2 + 1 y_44_ ^ 2 - 2 y_66_ * y_44_ + 1 y_66_ ^ 2 ] >= 17725.95
quadratic_ranged_116_lb: [ 1 x_59_ ^ 2 - 2 x_66_ * x_59_ + 1 x_66_ ^ 2 + 1 y_59_ ^ 2 - 2 y_66_ * y_59_ + 1 y_66_ ^ 2 ] >= 35679.6
quadratic_ranged_117_lb: [ 1 x_9_ ^ 2 - 2 x_67_ * x_9_ + 1 x_67_ ^ 2 + 1 y_9_ ^ 2 - 2 y_67_ * y_9_ + 1 y_67_ ^ 2 ] >= 3699.63
quadratic_ranged_118_lb: [ 1 x_24_ ^ 2 - 2 x_67_ * x_24_ + 1 x_67_ ^ 2 + 1 y_24_ ^ 2 - 2 y_67_ * y_24_ + 1 y_67_ ^ 2 ] >= 4017.42
quadratic_ranged_119_lb: [ 1 x_26_ ^ 2 - 2 x_67_ * x_26_ + 1 x_67_ ^ 2 + 1 y_26_ ^ 2 - 2 y_67_ * y_26_ + 1 y_67_ ^ 2 ] >= 1665.18
quadratic_ranged_120_lb: [ 1 x_5_ ^ 2 - 2 x_68_ * x_5_ + 1 x_68_ ^ 2 + 1 y_5_ ^ 2 - 2 y_68_ * y_5_ + 1 y_68_ ^ 2 ] >= 11987.91
quadratic_ranged_121_lb: [ 1 x_8_ ^ 2 - 2 x_68_ * x_8_ + 1 x_68_ ^ 2 + 1 y_8_ ^ 2 - 2 y_68_ * y_8_ + 1 y_68_ ^ 2 ] >= 1668.15
quadratic_ranged_122_lb: [ 1 x_39_ ^ 2 - 2 x_68_ * x_39_ + 1 x_68_ ^ 2 + 1 y_39_ ^ 2 - 2 y_68_ * y_39_ + 1 y_68_ ^ 2 ] >= 11964.15
quadratic_ranged_123_lb: [ 1 x_17_ ^ 2 - 2 x_69_ * x_17_ + 1 x_69_ ^ 2 + 1 y_17_ ^ 2 - 2 y_69_ * y_17_ + 1 y_69_ ^ 2 ] >= 1148.4
quadratic_ranged_124_lb: [ 1 x_20_ ^ 2 - 2 x_69_ * x_20_ + 1 x_69_ ^ 2 + 1 y_20_ ^ 2 - 2 y_69_ * y_20_ + 1 y_69_ ^ 2 ] >= 13598.64
quadratic_ranged_125_lb: [ 1 x_23_ ^ 2 - 2 x_70_ * x_23_ + 1 x_70_ ^ 2 + 1 y_23_ ^ 2 - 2 y_70_ * y_23_ + 1 y_70_ ^ 2 ] >= 22795.74
quadratic_ranged_126_lb: [ 1 x_37_ ^ 2 - 2 x_70_ * x_37_ + 1 x_70_ ^ 2 + 1 y_37_ ^ 2 - 2 y_70_ * y_37_ + 1 y_70_ ^ 2 ] >= 15701.4
quadratic_ranged_127_lb: [ 1 x_43_ ^ 2 - 2 x_70_ * x_43_ + 1 x_70_ ^ 2 + 1 y_43_ ^ 2 - 2 y_70_ * y_43_ + 1 y_70_ ^ 2 ] >= 2433.42
quadratic_ranged_128_lb: [ 1 x_3_ ^ 2 - 2 x_71_ * x_3_ + 1 x_71_ ^ 2 + 1 y_3_ ^ 2 - 2 y_71_ * y_3_ + 1 y_71_ ^ 2 ] >= 6954.75
quadratic_ranged_129_lb: [ 1 x_53_ ^ 2 - 2 x_71_ * x_53_ + 1 x_71_ ^ 2 + 1 y_53_ ^ 2 - 2 y_71_ * y_53_ + 1 y_71_ ^ 2 ] >= 29051.55
quadratic_ranged_130_lb: [ 1 x_65_ ^ 2 - 2 x_71_ * x_65_ + 1 x_71_ ^ 2 + 1 y_65_ ^ 2 - 2 y_71_ * y_65_ + 1 y_71_ ^ 2 ] >= 35169.75
quadratic_ranged_131_lb: [ 1 x_6_ ^ 2 - 2 x_72_ * x_6_ + 1 x_72_ ^ 2 + 1 y_6_ ^ 2 - 2 y_72_ * y_6_ + 1 y_72_ ^ 2 ] >= 21435.48
quadratic_ranged_132_lb: [ 1 x_38_ ^ 2 - 2 x_72_ * x_38_ + 1 x_72_ ^ 2 + 1 y_38_ ^ 2 - 2 y_72_ * y_38_ + 1 y_72_ ^ 2 ] >= 11169.18
quadratic_ranged_133_lb: [ 1 x_66_ ^ 2 - 2 x_72_ * x_66_ + 1 x_72_ ^ 2 + 1 y_66_ ^ 2 - 2 y_72_ * y_66_ + 1 y_72_ ^ 2 ] >= 21285.99
quadratic_ranged_134_lb: [ 1 x_19_ ^ 2 - 2 x_73_ * x_19_ + 1 x_73_ ^ 2 + 1 y_19_ ^ 2 - 2 y_73_ * y_19_ + 1 y_73_ ^ 2 ] >= 31589.91
quadratic_ranged_135_lb: [ 1 x_29_ ^ 2 - 2 x_74_ * x_29_ + 1 x_74_ ^ 2 + 1 y_29_ ^ 2 - 2 y_74_ * y_29_ + 1 y_74_ ^ 2 ] >= 19626.75
quadratic_ranged_136_lb: [ 1 x_24_ ^ 2 - 2 x_75_ * x_24_ + 1 x_75_ ^ 2 + 1 y_24_ ^ 2 - 2 y_75_ * y_24_ + 1 y_75_ ^ 2 ] >= 30556.35
quadratic_ranged_137_lb: [ 1 x_58_ ^ 2 - 2 x_75_ * x_58_ + 1 x_75_ ^ 2 + 1 y_58_ ^ 2 - 2 y_75_ * y_58_ + 1 y_75_ ^ 2 ] >= 14574.78
quadratic_ranged_138_lb: [ 1 x_24_ ^ 2 - 2 x_76_ * x_24_ + 1 x_76_ ^ 2 + 1 y_24_ ^ 2 - 2 y_76_ * y_24_ + 1 y_76_ ^ 2 ] >= 3366
quadratic_ranged_139_lb: [ 1 x_66_ ^ 2 - 2 x_76_ * x_66_ + 1 x_76_ ^ 2 + 1 y_66_ ^ 2 - 2 y_76_ * y_66_ + 1 y_76_ ^ 2 ] >= 33226.38
quadratic_ranged_140_lb: [ 1 x_73_ ^ 2 - 2 x_76_ * x_73_ + 1 x_76_ ^ 2 + 1 y_73_ ^ 2 - 2 y_76_ * y_73_ + 1 y_76_ ^ 2 ] >= 524.7
quadratic_ranged_141_lb: [ 1 x_27_ ^ 2 - 2 x_77_ * x_27_ + 1 x_77_ ^ 2 + 1 y_27_ ^ 2 - 2 y_77_ * y_27_ + 1 y_77_ ^ 2 ] >= 9124.83
quadratic_ranged_142_lb: [ 1 x_37_ ^ 2 - 2 x_77_ * x_37_ + 1 x_77_ ^ 2 + 1 y_37_ ^ 2 - 2 y_77_ * y_37_ + 1 y_77_ ^ 2 ] >= 12454.2
quadratic_ranged_143_lb: [ 1 x_65_ ^ 2 - 2 x_77_ * x_65_ + 1 x_77_ ^ 2 + 1 y_65_ ^ 2 - 2 y_77_ * y_65_ + 1 y_77_ ^ 2 ] >= 35189.55
quadratic_ranged_144_lb: [ 1 x_45_ ^ 2 - 2 x_78_ * x_45_ + 1 x_78_ ^ 2 + 1 y_45_ ^ 2 - 2 y_78_ * y_45_ + 1 y_78_ ^ 2 ] >= 17120.07
quadratic_ranged_145_lb: [ 1 x_70_ ^ 2 - 2 x_78_ * x_70_ + 1 x_78_ ^ 2 + 1 y_70_ ^ 2 - 2 y_78_ * y_70_ + 1 y_78_ ^ 2 ] >= 5671.71
quadratic_ranged_146_lb: [ 1 x_5_ ^ 2 - 2 x_79_ * x_5_ + 1 x_79_ ^ 2 + 1 y_5_ ^ 2 - 2 y_79_ * y_5_ + 1 y_79_ ^ 2 ] >= 26203.32
quadratic_ranged_147_lb: [ 1 x_47_ ^ 2 - 2 x_79_ * x_47_ + 1 x_79_ ^ 2 + 1 y_47_ ^ 2 - 2 y_79_ * y_47_ + 1 y_79_ ^ 2 ] >= 16537.95
quadratic_ranged_148_lb: [ 1 x_61_ ^ 2 - 2 x_79_ * x_61_ + 1 x_79_ ^ 2 + 1 y_61_ ^ 2 - 2 y_79_ * y_61_ + 1 y_79_ ^ 2 ] >= 23989.68
quadratic_ranged_149_lb: [ 1 x_27_ ^ 2 - 2 x_80_ * x_27_ + 1 x_80_ ^ 2 + 1 y_27_ ^ 2 - 2 y_80_ * y_27_ + 1 y_80_ ^ 2 ] >= 6210.2699999999995
quadratic_ranged_150_lb: [ 1 x_38_ ^ 2 - 2 x_80_ * x_38_ + 1 x_80_ ^ 2 + 1 y_38_ ^ 2 - 2 y_80_ * y_38_ + 1 y_80_ ^ 2 ] >= 8661.51
quadratic_ranged_151_lb: [ 1 x_3_ ^ 2 - 2 x_81_ * x_3_ + 1 x_81_ ^ 2 + 1 y_3_ ^ 2 - 2 y_81_ * y_3_ + 1 y_81_ ^ 2 ] >= 32271.03
quadratic_ranged_152_lb: [ 1 x_9_ ^ 2 - 2 x_81_ * x_9_ + 1 x_81_ ^ 2 + 1 y_9_ ^ 2 - 2 y_81_ * y_9_ + 1 y_81_ ^ 2 ] >= 29229.75
quadratic_ranged_153_lb: [ 1 x_46_ ^ 2 - 2 x_81_ * x_46_ + 1 x_81_ ^ 2 + 1 y_46_ ^ 2 - 2 y_81_ * y_46_ + 1 y_81_ ^ 2 ] >= 16636.95
quadratic_ranged_154_lb: [ 1 x_32_ ^ 2 - 2 x_82_ * x_32_ + 1 x_82_ ^ 2 + 1 y_32_ ^ 2 - 2 y_82_ * y_32_ + 1 y_82_ ^ 2 ] >= 757.35
quadratic_ranged_155_lb: [ 1 x_61_ ^ 2 - 2 x_82_ * x_61_ + 1 x_82_ ^ 2 + 1 y_61_ ^ 2 - 2 y_82_ * y_61_ + 1 y_82_ ^ 2 ] >= 4759.92
quadratic_ranged_156_lb: [ 1 x_29_ ^ 2 - 2 x_83_ * x_29_ + 1 x_83_ ^ 2 + 1 y_29_ ^ 2 - 2 y_83_ * y_29_ + 1 y_83_ ^ 2 ] >= 11646.36
quadratic_ranged_157_lb: [ 1 x_32_ ^ 2 - 2 x_83_ * x_32_ + 1 x_83_ ^ 2 + 1 y_32_ ^ 2 - 2 y_83_ * y_32_ + 1 y_83_ ^ 2 ] >= 7177.5
quadratic_ranged_158_lb: [ 1 x_37_ ^ 2 - 2 x_83_ * x_37_ + 1 x_83_ ^ 2 + 1 y_37_ ^ 2 - 2 y_83_ * y_37_ + 1 y_83_ ^ 2 ] >= 9017.91
quadratic_ranged_159_lb: [ 1 x_14_ ^ 2 - 2 x_84_ * x_14_ + 1 x_84_ ^ 2 + 1 y_14_ ^ 2 - 2 y_84_ * y_14_ + 1 y_84_ ^ 2 ] >= 4499.55
quadratic_ranged_160_lb: [ 1 x_55_ ^ 2 - 2 x_84_ * x_55_ + 1 x_84_ ^ 2 + 1 y_55_ ^ 2 - 2 y_84_ * y_55_ + 1 y_84_ ^ 2 ] >= 431.64
quadratic_ranged_161_lb: [ 1 x_50_ ^ 2 - 2 x_85_ * x_50_ + 1 x_85_ ^ 2 + 1 y_50_ ^ 2 - 2 y_85_ * y_50_ + 1 y_85_ ^ 2 ] >= 4875.75
quadratic_ranged_162_lb: [ 1 x_54_ ^ 2 - 2 x_85_ * x_54_ + 1 x_85_ ^ 2 + 1 y_54_ ^ 2 - 2 y_85_ * y_54_ + 1 y_85_ ^ 2 ] >= 334.62
quadratic_ranged_163_lb: [ 1 x_16_ ^ 2 - 2 x_86_ * x_16_ + 1 x_86_ ^ 2 + 1 y_16_ ^ 2 - 2 y_86_ * y_16_ + 1 y_86_ ^ 2 ] >= 10844.46
quadratic_ranged_164_lb: [ 1 x_33_ ^ 2 - 2 x_86_ * x_33_ + 1 x_86_ ^ 2 + 1 y_33_ ^ 2 - 2 y_86_ * y_33_ + 1 y_86_ ^ 2 ] >= 800.91
quadratic_ranged_165_lb: [ 1 x_22_ ^ 2 - 2 x_87_ * x_22_ + 1 x_87_ ^ 2 + 1 y_22_ ^ 2 - 2 y_87_ * y_22_ + 1 y_87_ ^ 2 ] >= 590.04
quadratic_ranged_166_lb: [ 1 x_46_ ^ 2 - 2 x_87_ * x_46_ + 1 x_87_ ^ 2 + 1 y_46_ ^ 2 - 2 y_87_ * y_46_ + 1 y_87_ ^ 2 ] >= 10293.03
quadratic_ranged_167_lb: [ 1 x_58_ ^ 2 - 2 x_88_ * x_58_ + 1 x_88_ ^ 2 + 1 y_58_ ^ 2 - 2 y_88_ * y_58_ + 1 y_88_ ^ 2 ] >= 17714.07
quadratic_ranged_168_lb: [ 1 x_63_ ^ 2 - 2 x_88_ * x_63_ + 1 x_88_ ^ 2 + 1 y_63_ ^ 2 - 2 y_88_ * y_63_ + 1 y_88_ ^ 2 ] >= 33328.35
quadratic_ranged_169_lb: [ 1 x_25_ ^ 2 - 2 x_89_ * x_25_ + 1 x_89_ ^ 2 + 1 y_25_ ^ 2 - 2 y_89_ * y_25_ + 1 y_89_ ^ 2 ] >= 37640.79
quadratic_ranged_170_lb: [ 1 x_36_ ^ 2 - 2 x_89_ * x_36_ + 1 x_89_ ^ 2 + 1 y_36_ ^ 2 - 2 y_89_ * y_36_ + 1 y_89_ ^ 2 ] >= 7378.47
quadratic_ranged_171_lb: [ 1 x_15_ ^ 2 - 2 x_90_ * x_15_ + 1 x_90_ ^ 2 + 1 y_15_ ^ 2 - 2 y_90_ * y_15_ + 1 y_90_ ^ 2 ] >= 10470.24
quadratic_ranged_172_lb: [ 1 x_80_ ^ 2 - 2 x_90_ * x_80_ + 1 x_90_ ^ 2 + 1 y_80_ ^ 2 - 2 y_90_ * y_80_ + 1 y_90_ ^ 2 ] >= 17000.28
quadratic_ranged_173_lb: [ 1 x_80_ ^ 2 - 2 x_91_ * x_80_ + 1 x_91_ ^ 2 + 1 y_80_ ^ 2 - 2 y_91_ * y_80_ + 1 y_91_ ^ 2 ] >= 2597.7599999999998
quadratic_ranged_174_lb: [ 1 x_59_ ^ 2 - 2 x_92_ * x_59_ + 1 x_92_ ^ 2 + 1 y_59_ ^ 2 - 2 y_92_ * y_59_ + 1 y_92_ ^ 2 ] >= 2234.43
quadratic_ranged_175_lb: [ 1 x_62_ ^ 2 - 2 x_92_ * x_62_ + 1 x_92_ ^ 2 + 1 y_62_ ^ 2 - 2 y_92_ * y_62_ + 1 y_92_ ^ 2 ] >= 32048.28
quadratic_ranged_176_lb: [ 1 x_74_ ^ 2 - 2 x_92_ * x_74_ + 1 x_92_ ^ 2 + 1 y_74_ ^ 2 - 2 y_92_ * y_74_ + 1 y_92_ ^ 2 ] >= 27146.79
quadratic_ranged_177_lb: [ 1 x_22_ ^ 2 - 2 x_93_ * x_22_ + 1 x_93_ ^ 2 + 1 y_22_ ^ 2 - 2 y_93_ * y_22_ + 1 y_93_ ^ 2 ] >= 3921.39
quadratic_ranged_178_lb: [ 1 x_62_ ^ 2 - 2 x_93_ * x_62_ + 1 x_93_ ^ 2 + 1 y_62_ ^ 2 - 2 y_93_ * y_62_ + 1 y_93_ ^ 2 ] >= 3809.52
quadratic_ranged_179_lb: [ 1 x_71_ ^ 2 - 2 x_93_ * x_71_ + 1 x_93_ ^ 2 + 1 y_71_ ^ 2 - 2 y_93_ * y_71_ + 1 y_93_ ^ 2 ] >= 12213.63
quadratic_ranged_180_lb: [ 1 x_66_ ^ 2 - 2 x_94_ * x_66_ + 1 x_94_ ^ 2 + 1 y_66_ ^ 2 - 2 y_94_ * y_66_ + 1 y_94_ ^ 2 ] >= 6713.19
quadratic_ranged_181_lb: [ 1 x_74_ ^ 2 - 2 x_94_ * x_74_ + 1 x_94_ ^ 2 + 1 y_74_ ^ 2 - 2 y_94_ * y_74_ + 1 y_94_ ^ 2 ] >= 32793.75
quadratic_ranged_182_lb: [ 1 x_91_ ^ 2 - 2 x_94_ * x_91_ + 1 x_94_ ^ 2 + 1 y_91_ ^ 2 - 2 y_94_ * y_91_ + 1 y_94_ ^ 2 ] >= 5145.03
quadratic_ranged_183_lb: [ 1 x_7_ ^ 2 - 2 x_95_ * x_7_ + 1 x_95_ ^ 2 + 1 y_7_ ^ 2 - 2 y_95_ * y_7_ + 1 y_95_ ^ 2 ] >= 32512.59
quadratic_ranged_184_lb: [ 1 x_11_ ^ 2 - 2 x_95_ * x_11_ + 1 x_95_ ^ 2 + 1 y_11_ ^ 2 - 2 y_95_ * y_11_ + 1 y_95_ ^ 2 ] >= 28046.7
quadratic_ranged_185_lb: [ 1 x_58_ ^ 2 - 2 x_95_ * x_58_ + 1 x_95_ ^ 2 + 1 y_58_ ^ 2 - 2 y_95_ * y_58_ + 1 y_95_ ^ 2 ] >= 19745.55
quadratic_ranged_186_lb: [ 1 x_4_ ^ 2 - 2 x_96_ * x_4_ + 1 x_96_ ^ 2 + 1 y_4_ ^ 2 - 2 y_96_ * y_4_ + 1 y_96_ ^ 2 ] >= 3960
quadratic_ranged_187_lb: [ 1 x_54_ ^ 2 - 2 x_96_ * x_54_ + 1 x_96_ ^ 2 + 1 y_54_ ^ 2 - 2 y_96_ * y_54_ + 1 y_96_ ^ 2 ] >= 14399.55
quadratic_ranged_188_lb: [ 1 x_19_ ^ 2 - 2 x_97_ * x_19_ + 1 x_97_ ^ 2 + 1 y_19_ ^ 2 - 2 y_97_ * y_19_ + 1 y_97_ ^ 2 ] >= 18870.39
quadratic_ranged_189_lb: [ 1 x_50_ ^ 2 - 2 x_97_ * x_50_ + 1 x_97_ ^ 2 + 1 y_50_ ^ 2 - 2 y_97_ * y_50_ + 1 y_97_ ^ 2 ] >= 6606.2699999999995
quadratic_ranged_190_lb: [ 1 x_57_ ^ 2 - 2 x_97_ * x_57_ + 1 x_97_ ^ 2 + 1 y_57_ ^ 2 - 2 y_97_ * y_57_ + 1 y_97_ ^ 2 ] >= 6217.2
quadratic_ranged_191_lb: [ 1 x_5_ ^ 2 - 2 x_98_ * x_5_ + 1 x_98_ ^ 2 + 1 y_5_ ^ 2 - 2 y_98_ * y_5_ + 1 y_98_ ^ 2 ] >= 11634.48
quadratic_ranged_192_lb: [ 1 x_10_ ^ 2 - 2 x_98_ * x_10_ + 1 x_98_ ^ 2 + 1 y_10_ ^ 2 - 2 y_98_ * y_10_ + 1 y_98_ ^ 2 ] >= 12431.43
quadratic_ranged_193_lb: [ 1 x_52_ ^ 2 - 2 x_99_ * x_52_ + 1 x_99_ ^ 2 + 1 y_52_ ^ 2 - 2 y_99_ * y_52_ + 1 y_99_ ^ 2 ] >= 3969.9
quadratic_ranged_194_lb: [ 1 x_80_ ^ 2 - 2 x_99_ * x_80_ + 1 x_99_ ^ 2 + 1 y_80_ ^ 2 - 2 y_99_ * y_80_ + 1 y_99_ ^ 2 ] >= 1578.06
quadratic_ranged_195_lb: [ 1 x_8_ ^ 2 - 2 x_100_ * x_8_ + 1 x_100_ ^ 2 + 1 y_8_ ^ 2 - 2 y_100_ * y_8_ + 1 y_100_ ^ 2 ] >= 30774.15
quadratic_ranged_196_lb: [ 1 x_37_ ^ 2 - 2 x_100_ * x_37_ + 1 x_100_ ^ 2 + 1 y_37_ ^ 2 - 2 y_100_ * y_37_ + 1 y_100_ ^ 2 ] >= 26378.55
quadratic_ranged_197_lb: [ 1 x_84_ ^ 2 - 2 x_100_ * x_84_ + 1 x_100_ ^ 2 + 1 y_84_ ^ 2 - 2 y_100_ * y_84_ + 1 y_100_ ^ 2 ] >= 23099.67
c1_1: 1 x_37_ = -64
c2_1: 1 y_37_ = -1
c3_1: 1 x_19_ = -90
c4_1: 1 y_19_ = 2
c5_1: 1 x_75_ = 50
c6_1: 1 y_75_ = 100
Bounds
-349 <= x_1_ <= 169
-214 <= x_2_ <= 90
-287 <= x_3_ <= 181
-216 <= x_4_ <= 36
-247 <= x_5_ <= 142
-282 <= x_6_ <= 102
-109 <= x_7_ <= -71
-178 <= x_8_ <= -2
-252 <= x_9_ <= 125
-279 <= x_10_ <= 126
-279 <= x_11_ <= 155
-203 <= x_12_ <= 23
-316 <= x_13_ <= 233
-185 <= x_14_ <= 102
-404 <= x_15_ <= 253
-246 <= x_16_ <= 131
-332 <= x_17_ <= 213
-238 <= x_18_ <= 114
x_19_ = -90
-180 <= x_20_ <= 74
-106 <= x_21_ <= 24
-292 <= x_22_ <= 172
-327 <= x_23_ <= 202
-126 <= x_24_ <= 20
-257 <= x_25_ <= 130
-231 <= x_26_ <= 125
-273 <= x_27_ <= 145
-300 <= x_28_ <= 204
-240 <= x_29_ <= 134
-282 <= x_30_ <= 155
-345 <= x_31_ <= 182
-148 <= x_32_ <= -32
-177 <= x_33_ <= -3
-288 <= x_34_ <= 164
-200 <= x_35_ <= 20
-268 <= x_36_ <= 88
x_37_ = -64
-239 <= x_38_ <= 156
-312 <= x_39_ <= 132
-149 <= x_40_ <= -31
-259 <= x_41_ <= 144
-227 <= x_42_ <= 144
-240 <= x_43_ <= 112
-290 <= x_44_ <= 110
-326 <= x_45_ <= 201
-214 <= x_46_ <= 108
-224 <= x_47_ <= 44
-294 <= x_48_ <= 188
-340 <= x_49_ <= 216
-270 <= x_50_ <= 130
-249 <= x_51_ <= 167
-370 <= x_52_ <= 190
-391 <= x_53_ <= 263
-338 <= x_54_ <= 213
-207 <= x_55_ <= 27
-363 <= x_56_ <= 210
-286 <= x_57_ <= 106
-71 <= x_58_ <= 58
-337 <= x_59_ <= 157
-246 <= x_60_ <= 66
-246 <= x_61_ <= 66
-226 <= x_62_ <= 46
-369 <= x_63_ <= 189
-341 <= x_64_ <= 202
-366 <= x_65_ <= 238
-369 <= x_66_ <= 245
-190 <= x_67_ <= 84
-220 <= x_68_ <= 40
-297 <= x_69_ <= 191
-190 <= x_70_ <= 62
-371 <= x_71_ <= 220
-346 <= x_72_ <= 250
-208 <= x_73_ <= 89
-382 <= x_74_ <= 276
x_75_ = 50
-185 <= x_76_ <= 79
-176 <= x_77_ <= 48
-266 <= x_78_ <= 138
-354 <= x_79_ <= 174
-333 <= x_80_ <= 224
-344 <= x_81_ <= 238
-176 <= x_82_ <= -4
-159 <= x_83_ <= 31
-227 <= x_84_ <= 47
-341 <= x_85_ <= 201
-206 <= x_86_ <= 26
-316 <= x_87_ <= 196
-206 <= x_88_ <= 193
-354 <= x_89_ <= 174
-465 <= x_90_ <= 356
-384 <= x_91_ <= 276
-384 <= x_92_ <= 204
-288 <= x_93_ <= 108
-452 <= x_94_ <= 328
-213 <= x_95_ <= 111
-279 <= x_96_ <= 99
-228 <= x_97_ <= 48
-356 <= x_98_ <= 239
-373 <= x_99_ <= 253
-228 <= x_100_ <= 100
-257 <= y_1_ <= 261
-164 <= y_2_ <= 182
-237 <= y_3_ <= 273
-124 <= y_4_ <= 128
-197 <= y_5_ <= 234
-190 <= y_6_ <= 194
-17 <= y_7_ <= 21
-86 <= y_8_ <= 90
-202 <= y_9_ <= 217
-214 <= y_10_ <= 218
-229 <= y_11_ <= 247
-111 <= y_12_ <= 115
-266 <= y_13_ <= 325
-135 <= y_14_ <= 194
-341 <= y_15_ <= 339
-196 <= y_16_ <= 223
-282 <= y_17_ <= 305
-188 <= y_18_ <= 206
y_19_ = 2
-130 <= y_20_ <= 166
-56 <= y_21_ <= 116
-242 <= y_22_ <= 264
-277 <= y_23_ <= 278
-76 <= y_24_ <= 112
-207 <= y_25_ <= 222
-181 <= y_26_ <= 217
-210 <= y_27_ <= 208
-250 <= y_28_ <= 296
-190 <= y_29_ <= 203
-232 <= y_30_ <= 247
-270 <= y_31_ <= 274
-56 <= y_32_ <= 60
-85 <= y_33_ <= 89
-238 <= y_34_ <= 256
-108 <= y_35_ <= 112
-176 <= y_36_ <= 180
y_37_ = -1
-189 <= y_38_ <= 248
-220 <= y_39_ <= 224
-57 <= y_40_ <= 61
-209 <= y_41_ <= 236
-177 <= y_42_ <= 236
-177 <= y_43_ <= 175
-198 <= y_44_ <= 202
-276 <= y_45_ <= 293
-164 <= y_46_ <= 200
-132 <= y_47_ <= 136
-244 <= y_48_ <= 280
-290 <= y_49_ <= 308
-218 <= y_50_ <= 222
-199 <= y_51_ <= 259
-278 <= y_52_ <= 282
-328 <= y_53_ <= 326
-288 <= y_54_ <= 305
-115 <= y_55_ <= 119
-298 <= y_56_ <= 302
-194 <= y_57_ <= 198
-21 <= y_58_ <= 150
-245 <= y_59_ <= 249
-154 <= y_60_ <= 158
-154 <= y_61_ <= 158
-134 <= y_62_ <= 138
-277 <= y_63_ <= 281
-290 <= y_64_ <= 294
-303 <= y_65_ <= 301
-319 <= y_66_ <= 337
-140 <= y_67_ <= 176
-128 <= y_68_ <= 132
-247 <= y_69_ <= 283
-127 <= y_70_ <= 125
-308 <= y_71_ <= 312
-296 <= y_72_ <= 342
-158 <= y_73_ <= 181
-332 <= y_74_ <= 345
y_75_ = 100
-135 <= y_76_ <= 171
-113 <= y_77_ <= 111
-203 <= y_78_ <= 201
-262 <= y_79_ <= 266
-283 <= y_80_ <= 287
-294 <= y_81_ <= 330
-84 <= y_82_ <= 88
-96 <= y_83_ <= 94
-135 <= y_84_ <= 139
-289 <= y_85_ <= 293
-114 <= y_86_ <= 118
-266 <= y_87_ <= 288
-156 <= y_88_ <= 285
-262 <= y_89_ <= 266
-415 <= y_90_ <= 419
-334 <= y_91_ <= 339
-292 <= y_92_ <= 296
-196 <= y_93_ <= 200
-402 <= y_94_ <= 411
-163 <= y_95_ <= 203
-187 <= y_96_ <= 191
-136 <= y_97_ <= 140
-306 <= y_98_ <= 331
-323 <= y_99_ <= 327
-165 <= y_100_ <= 163
General
x_1_
x_2_
x_3_
x_4_
x_5_
x_6_
x_7_
x_8_
x_9_
x_10_
x_11_
x_12_
x_13_
x_14_
x_15_
x_16_
x_17_
x_18_
x_19_
x_20_
x_21_
x_22_
x_23_
x_24_
x_25_
x_26_
x_27_
x_28_
x_29_
x_30_
x_31_
x_32_
x_33_
x_34_
x_35_
x_36_
x_37_
x_38_
x_39_
x_40_
x_41_
x_42_
x_43_
x_44_
x_45_
x_46_
x_47_
x_48_
x_49_
x_50_
x_51_
x_52_
x_53_
x_54_
x_55_
x_56_
x_57_
x_58_
x_59_
x_60_
x_61_
x_62_
x_63_
x_64_
x_65_
x_66_
x_67_
x_68_
x_69_
x_70_
x_71_
x_72_
x_73_
x_74_
x_75_
x_76_
x_77_
x_78_
x_79_
x_80_
x_81_
x_82_
x_83_
x_84_
x_85_
x_86_
x_87_
x_88_
x_89_
x_90_
x_91_
x_92_
x_93_
x_94_
x_95_
x_96_
x_97_
x_98_
x_99_
x_100_
y_1_
y_2_
y_3_
y_4_
y_5_
y_6_
y_7_
y_8_
y_9_
y_10_
y_11_
y_12_
y_13_
y_14_
y_15_
y_16_
y_17_
y_18_
y_19_
y_20_
y_21_
y_22_
y_23_
y_24_
y_25_
y_26_
y_27_
y_28_
y_29_
y_30_
y_31_
y_32_
y_33_
y_34_
y_35_
y_36_
y_37_
y_38_
y_39_
y_40_
y_41_
y_42_
y_43_
y_44_
y_45_
y_46_
y_47_
y_48_
y_49_
y_50_
y_51_
y_52_
y_53_
y_54_
y_55_
y_56_
y_57_
y_58_
y_59_
y_60_
y_61_
y_62_
y_63_
y_64_
y_65_
y_66_
y_67_
y_68_
y_69_
y_70_
y_71_
y_72_
y_73_
y_74_
y_75_
y_76_
y_77_
y_78_
y_79_
y_80_
y_81_
y_82_
y_83_
y_84_
y_85_
y_86_
y_87_
y_88_
y_89_
y_90_
y_91_
y_92_
y_93_
y_94_
y_95_
y_96_
y_97_
y_98_
y_99_
y_100_
End
