minimize
obj: 
subject to
c1_1: 184 x_1_ - 82 y_1_ + [ 1 x_1_ ^ 2 + 1 y_1_ ^ 2 ] <= 38423
c2_1: 184 x_2_ - 82 y_2_ + [ 1 x_2_ ^ 2 + 1 y_2_ ^ 2 ] <= 18139
c3_1: 184 x_3_ - 82 y_3_ + [ 1 x_3_ ^ 2 + 1 y_3_ ^ 2 ] <= 62934
c4_1: 184 x_4_ - 82 y_4_ + [ 1 x_4_ ^ 2 + 1 y_4_ ^ 2 ] <= 76798
c5_1: 184 x_5_ - 82 y_5_ + [ 1 x_5_ ^ 2 + 1 y_5_ ^ 2 ] <= 62045
c6_1: 184 x_6_ - 82 y_6_ + [ 1 x_6_ ^ 2 + 1 y_6_ ^ 2 ] <= 109630
c7_1: 184 x_7_ - 82 y_7_ + [ 1 x_7_ ^ 2 + 1 y_7_ ^ 2 ] <= 109819
c8_1: 184 x_8_ - 82 y_8_ + [ 1 x_8_ ^ 2 + 1 y_8_ ^ 2 ] <= 65443
c9_1: 184 x_9_ - 82 y_9_ + [ 1 x_9_ ^ 2 + 1 y_9_ ^ 2 ] <= 11015
c10_1: 184 x_10_ - 82 y_10_ + [ 1 x_10_ ^ 2 + 1 y_10_ ^ 2 ] <= 41757
c11_1: 184 x_11_ - 82 y_11_ + [ 1 x_11_ ^ 2 + 1 y_11_ ^ 2 ] <= 43956
c12_1: 184 x_13_ - 82 y_13_ + [ 1 x_13_ ^ 2 + 1 y_13_ ^ 2 ] <= 56630
c13_1: 184 x_14_ - 82 y_14_ + [ 1 x_14_ ^ 2 + 1 y_14_ ^ 2 ] <= 72712
c14_1: 184 x_15_ - 82 y_15_ + [ 1 x_15_ ^ 2 + 1 y_15_ ^ 2 ] <= 108678
c15_1: 184 x_16_ - 82 y_16_ + [ 1 x_16_ ^ 2 + 1 y_16_ ^ 2 ] <= 35937
c16_1: 184 x_17_ - 82 y_17_ + [ 1 x_17_ ^ 2 + 1 y_17_ ^ 2 ] <= 69380
c17_1: 184 x_18_ - 82 y_18_ + [ 1 x_18_ ^ 2 + 1 y_18_ ^ 2 ] <= -7831
c18_1: 184 x_19_ - 82 y_19_ + [ 1 x_19_ ^ 2 + 1 y_19_ ^ 2 ] <= 9370
c19_1: 184 x_20_ - 82 y_20_ + [ 1 x_20_ ^ 2 + 1 y_20_ ^ 2 ] <= 77611
c20_1: -170 x_1_ + 84 y_1_ + [ 1 x_1_ ^ 2 + 1 y_1_ ^ 2 ] <= 15811
c21_1: -170 x_2_ + 84 y_2_ + [ 1 x_2_ ^ 2 + 1 y_2_ ^ 2 ] <= 34977
c22_1: -170 x_3_ + 84 y_3_ + [ 1 x_3_ ^ 2 + 1 y_3_ ^ 2 ] <= 970
c23_1: -170 x_4_ + 84 y_4_ + [ 1 x_4_ ^ 2 + 1 y_4_ ^ 2 ] <= -6365
c24_1: -170 x_5_ + 84 y_5_ + [ 1 x_5_ ^ 2 + 1 y_5_ ^ 2 ] <= 2931
c25_1: -170 x_7_ + 84 y_7_ + [ 1 x_7_ ^ 2 + 1 y_7_ ^ 2 ] <= -8424
c26_1: -170 x_8_ + 84 y_8_ + [ 1 x_8_ ^ 2 + 1 y_8_ ^ 2 ] <= 38719
c27_1: -170 x_9_ + 84 y_9_ + [ 1 x_9_ ^ 2 + 1 y_9_ ^ 2 ] <= 36052
c28_1: -170 x_10_ + 84 y_10_ + [ 1 x_10_ ^ 2 + 1 y_10_ ^ 2 ] <= 22826
c29_1: -170 x_11_ + 84 y_11_ + [ 1 x_11_ ^ 2 + 1 y_11_ ^ 2 ] <= 3891
c30_1: -170 x_12_ + 84 y_12_ + [ 1 x_12_ ^ 2 + 1 y_12_ ^ 2 ] <= 110786
c31_1: -170 x_13_ + 84 y_13_ + [ 1 x_13_ ^ 2 + 1 y_13_ ^ 2 ] <= 9439
c32_1: -170 x_14_ + 84 y_14_ + [ 1 x_14_ ^ 2 + 1 y_14_ ^ 2 ] <= 940
c33_1: -170 x_15_ + 84 y_15_ + [ 1 x_15_ ^ 2 + 1 y_15_ ^ 2 ] <= 24007
c34_1: -170 x_16_ + 84 y_16_ + [ 1 x_16_ ^ 2 + 1 y_16_ ^ 2 ] <= 70214
c35_1: -170 x_17_ + 84 y_17_ + [ 1 x_17_ ^ 2 + 1 y_17_ ^ 2 ] <= -2937
c36_1: -170 x_18_ + 84 y_18_ + [ 1 x_18_ ^ 2 + 1 y_18_ ^ 2 ] <= 79804
c37_1: -170 x_19_ + 84 y_19_ + [ 1 x_19_ ^ 2 + 1 y_19_ ^ 2 ] <= 55763
c38: -170 x_20_ + 84 y_20_ + [ 1 x_20_ ^ 2 + 1 y_20_ ^ 2 ] <= 133574
c39: -56 x_1_ + 174 y_1_ + [ 1 x_1_ ^ 2 + 1 y_1_ ^ 2 ] <= 114138
c40: -56 x_2_ + 174 y_2_ + [ 1 x_2_ ^ 2 + 1 y_2_ ^ 2 ] <= 127224
c41: -56 x_3_ + 174 y_3_ + [ 1 x_3_ ^ 2 + 1 y_3_ ^ 2 ] <= 100448
c42: -56 x_4_ + 174 y_4_ + [ 1 x_4_ ^ 2 + 1 y_4_ ^ 2 ] <= 175516
c43: -56 x_5_ + 174 y_5_ + [ 1 x_5_ ^ 2 + 1 y_5_ ^ 2 ] <= 82746
c44: -56 x_6_ + 174 y_6_ + [ 1 x_6_ ^ 2 + 1 y_6_ ^ 2 ] <= 134210
c45: -56 x_7_ + 174 y_7_ + [ 1 x_7_ ^ 2 + 1 y_7_ ^ 2 ] <= 116825
c46: -56 x_8_ + 174 y_8_ + [ 1 x_8_ ^ 2 + 1 y_8_ ^ 2 ] <= 16977
c47: -56 x_9_ + 174 y_9_ + [ 1 x_9_ ^ 2 + 1 y_9_ ^ 2 ] <= 74950
c48: -56 x_10_ + 174 y_10_ + [ 1 x_10_ ^ 2 + 1 y_10_ ^ 2 ] <= 174701
c49: -56 x_11_ + 174 y_11_ + [ 1 x_11_ ^ 2 + 1 y_11_ ^ 2 ] <= 126766
c50: -56 x_12_ + 174 y_12_ + [ 1 x_12_ ^ 2 + 1 y_12_ ^ 2 ] <= 79403
c51: -56 x_13_ + 174 y_13_ + [ 1 x_13_ ^ 2 + 1 y_13_ ^ 2 ] <= 67412
c52: -56 x_14_ + 174 y_14_ + [ 1 x_14_ ^ 2 + 1 y_14_ ^ 2 ] <= 165917
c53: -56 x_15_ + 174 y_15_ + [ 1 x_15_ ^ 2 + 1 y_15_ ^ 2 ] <= 216620
c54: -56 x_16_ + 174 y_16_ + [ 1 x_16_ ^ 2 + 1 y_16_ ^ 2 ] <= 119686
c55: -56 x_17_ + 174 y_17_ + [ 1 x_17_ ^ 2 + 1 y_17_ ^ 2 ] <= 165529
c56: -56 x_18_ + 174 y_18_ + [ 1 x_18_ ^ 2 + 1 y_18_ ^ 2 ] <= 53217
c57: -56 x_19_ + 174 y_19_ + [ 1 x_19_ ^ 2 + 1 y_19_ ^ 2 ] <= 16152
c1_2: 1 x_12_ = -92
c2_2: 1 y_12_ = 41
c3_2: 1 x_6_ = 85
c4_2: 1 y_6_ = -42
c5_2: 1 x_20_ = 28
c6_2: 1 y_20_ = -87
c1: [ 1 x_1_ ^ 2 - 2 x_2_ * x_1_ + 1 x_2_ ^ 2 + 1 y_1_ ^ 2 - 2 y_2_ * y_1_ + 1 y_2_ ^ 2 ] = 2725
c2: [ 1 x_2_ ^ 2 - 2 x_3_ * x_2_ + 1 x_3_ ^ 2 + 1 y_2_ ^ 2 - 2 y_3_ * y_2_ + 1 y_3_ ^ 2 ] = 22585
c3: [ 1 x_1_ ^ 2 - 2 x_5_ * x_1_ + 1 x_5_ ^ 2 + 1 y_1_ ^ 2 - 2 y_5_ * y_1_ + 1 y_5_ ^ 2 ] = 2333
c4: [ 1 x_3_ ^ 2 - 2 x_5_ * x_3_ + 1 x_5_ ^ 2 + 1 y_3_ ^ 2 - 2 y_5_ * y_3_ + 1 y_5_ ^ 2 ] = 19061
c5: [ 1 x_4_ ^ 2 - 2 x_6_ * x_4_ + 1 x_6_ ^ 2 + 1 y_4_ ^ 2 - 2 y_6_ * y_4_ + 1 y_6_ ^ 2 ] = 2624
c6: [ 1 x_5_ ^ 2 - 2 x_6_ * x_5_ + 1 x_6_ ^ 2 + 1 y_5_ ^ 2 - 2 y_6_ * y_5_ + 1 y_6_ ^ 2 ] = 11920
c7: [ 1 x_3_ ^ 2 - 2 x_7_ * x_3_ + 1 x_7_ ^ 2 + 1 y_3_ ^ 2 - 2 y_7_ * y_3_ + 1 y_7_ ^ 2 ] = 5780
c8: [ 1 x_6_ ^ 2 - 2 x_7_ * x_6_ + 1 x_7_ ^ 2 + 1 y_6_ ^ 2 - 2 y_7_ * y_6_ + 1 y_7_ ^ 2 ] = 565
c9: [ 1 x_3_ ^ 2 - 2 x_8_ * x_3_ + 1 x_8_ ^ 2 + 1 y_3_ ^ 2 - 2 y_8_ * y_3_ + 1 y_8_ ^ 2 ] = 29137
c10: [ 1 x_7_ ^ 2 - 2 x_8_ * x_7_ + 1 x_8_ ^ 2 + 1 y_7_ ^ 2 - 2 y_8_ * y_7_ + 1 y_8_ ^ 2 ] = 37889
c11: [ 1 x_4_ ^ 2 - 2 x_9_ * x_4_ + 1 x_9_ ^ 2 + 1 y_4_ ^ 2 - 2 y_9_ * y_4_ + 1 y_9_ ^ 2 ] = 25922
c12: [ 1 x_5_ ^ 2 - 2 x_9_ * x_5_ + 1 x_9_ ^ 2 + 1 y_5_ ^ 2 - 2 y_9_ * y_5_ + 1 y_9_ ^ 2 ] = 25786
c13: [ 1 x_8_ ^ 2 - 2 x_9_ * x_8_ + 1 x_9_ ^ 2 + 1 y_8_ ^ 2 - 2 y_9_ * y_8_ + 1 y_9_ ^ 2 ] = 16762
c14: [ 1 x_2_ ^ 2 - 2 x_10_ * x_2_ + 1 x_10_ ^ 2 + 1 y_2_ ^ 2 - 2 y_10_ * y_2_ + 1 y_10_ ^ 2 ] = 3557
c15: [ 1 x_4_ ^ 2 - 2 x_10_ * x_4_ + 1 x_10_ ^ 2 + 1 y_4_ ^ 2 - 2 y_10_ * y_4_ + 1 y_10_ ^ 2 ] = 16165
c16: [ 1 x_3_ ^ 2 - 2 x_11_ * x_3_ + 1 x_11_ ^ 2 + 1 y_3_ ^ 2 - 2 y_11_ * y_3_ + 1 y_11_ ^ 2 ] = 1424
c17: [ 1 x_4_ ^ 2 - 2 x_11_ * x_4_ + 1 x_11_ ^ 2 + 1 y_4_ ^ 2 - 2 y_11_ * y_4_ + 1 y_11_ ^ 2 ] = 3877
c18: [ 1 x_9_ ^ 2 - 2 x_12_ * x_9_ + 1 x_12_ ^ 2 + 1 y_9_ ^ 2 - 2 y_12_ * y_9_ + 1 y_12_ ^ 2 ] = 21160
c19: [ 1 x_1_ ^ 2 - 2 x_13_ * x_1_ + 1 x_13_ ^ 2 + 1 y_1_ ^ 2 - 2 y_13_ * y_1_ + 1 y_13_ ^ 2 ] = 5585
c20: [ 1 x_5_ ^ 2 - 2 x_13_ * x_5_ + 1 x_13_ ^ 2 + 1 y_5_ ^ 2 - 2 y_13_ * y_5_ + 1 y_13_ ^ 2 ] = 706
c21: [ 1 x_1_ ^ 2 - 2 x_14_ * x_1_ + 1 x_14_ ^ 2 + 1 y_1_ ^ 2 - 2 y_14_ * y_1_ + 1 y_14_ ^ 2 ] = 4552
c22: [ 1 x_3_ ^ 2 - 2 x_14_ * x_3_ + 1 x_14_ ^ 2 + 1 y_3_ ^ 2 - 2 y_14_ * y_3_ + 1 y_14_ ^ 2 ] = 20452
c23: [ 1 x_6_ ^ 2 - 2 x_14_ * x_6_ + 1 x_14_ ^ 2 + 1 y_6_ ^ 2 - 2 y_14_ * y_6_ + 1 y_14_ ^ 2 ] = 9929
c24: [ 1 x_1_ ^ 2 - 2 x_15_ * x_1_ + 1 x_15_ ^ 2 + 1 y_1_ ^ 2 - 2 y_15_ * y_1_ + 1 y_15_ ^ 2 ] = 15457
c25: [ 1 x_6_ ^ 2 - 2 x_15_ * x_6_ + 1 x_15_ ^ 2 + 1 y_6_ ^ 2 - 2 y_15_ * y_6_ + 1 y_15_ ^ 2 ] = 32996
c26: [ 1 x_11_ ^ 2 - 2 x_15_ * x_11_ + 1 x_15_ ^ 2 + 1 y_11_ ^ 2 - 2 y_15_ * y_11_ + 1 y_15_ ^ 2 ] = 26897
c27: [ 1 x_9_ ^ 2 - 2 x_16_ * x_9_ + 1 x_16_ ^ 2 + 1 y_9_ ^ 2 - 2 y_16_ * y_9_ + 1 y_16_ ^ 2 ] = 4789
c28: [ 1 x_15_ ^ 2 - 2 x_16_ * x_15_ + 1 x_16_ ^ 2 + 1 y_15_ ^ 2 - 2 y_16_ * y_15_ + 1 y_16_ ^ 2 ] = 26713
c29: [ 1 x_4_ ^ 2 - 2 x_17_ * x_4_ + 1 x_17_ ^ 2 + 1 y_4_ ^ 2 - 2 y_17_ * y_4_ + 1 y_17_ ^ 2 ] = 706
c30: [ 1 x_11_ ^ 2 - 2 x_17_ * x_11_ + 1 x_17_ ^ 2 + 1 y_11_ ^ 2 - 2 y_17_ * y_11_ + 1 y_17_ ^ 2 ] = 2441
c31: [ 1 x_2_ ^ 2 - 2 x_18_ * x_2_ + 1 x_18_ ^ 2 + 1 y_2_ ^ 2 - 2 y_18_ * y_2_ + 1 y_18_ ^ 2 ] = 14418
c32: [ 1 x_11_ ^ 2 - 2 x_18_ * x_11_ + 1 x_18_ ^ 2 + 1 y_11_ ^ 2 - 2 y_18_ * y_11_ + 1 y_18_ ^ 2 ] = 34037
c33: [ 1 x_12_ ^ 2 - 2 x_18_ * x_12_ + 1 x_18_ ^ 2 + 1 y_12_ ^ 2 - 2 y_18_ * y_12_ + 1 y_18_ ^ 2 ] = 2314
c34: [ 1 x_13_ ^ 2 - 2 x_19_ * x_13_ + 1 x_19_ ^ 2 + 1 y_13_ ^ 2 - 2 y_19_ * y_13_ + 1 y_19_ ^ 2 ] = 14093
c35: [ 1 x_18_ ^ 2 - 2 x_19_ * x_18_ + 1 x_19_ ^ 2 + 1 y_18_ ^ 2 - 2 y_19_ * y_18_ + 1 y_19_ ^ 2 ] = 8389
c36: [ 1 x_8_ ^ 2 - 2 x_20_ * x_8_ + 1 x_20_ ^ 2 + 1 y_8_ ^ 2 - 2 y_20_ * y_8_ + 1 y_20_ ^ 2 ] = 25330
c37: [ 1 x_19_ ^ 2 - 2 x_20_ * x_19_ + 1 x_20_ ^ 2 + 1 y_19_ ^ 2 - 2 y_20_ * y_19_ + 1 y_20_ ^ 2 ] = 24505
Bounds
-72 <= x_1_ <= 128
-124 <= x_2_ <= 76
-14 <= x_3_ <= 178
34 <= x_4_ <= 136
-24 <= x_5_ <= 176
x_6_ = 85
62 <= x_7_ <= 108
-131 <= x_8_ <= 182
-127 <= x_9_ <= 53
-93 <= x_10_ <= 135
-28 <= x_11_ <= 140
x_12_ = -92
-50 <= x_13_ <= 166
-14 <= x_14_ <= 184
-96 <= x_15_ <= 252
-196 <= x_16_ <= 122
8 <= x_17_ <= 162
-140 <= x_18_ <= -44
-128 <= x_19_ <= 47
x_20_ = 28
-179 <= y_1_ <= 115
-127 <= y_2_ <= 167
-141 <= y_3_ <= 57
-93 <= y_4_ <= 9
-151 <= y_5_ <= 67
y_6_ = -42
-65 <= y_7_ <= -19
-233 <= y_8_ <= 72
-104 <= y_9_ <= 170
-186 <= y_10_ <= 136
-155 <= y_11_ <= 71
y_12_ = 41
-177 <= y_13_ <= 93
-141 <= y_14_ <= 57
-223 <= y_15_ <= 139
-173 <= y_16_ <= 239
-119 <= y_17_ <= 35
-7 <= y_18_ <= 89
-98 <= y_19_ <= 69
y_20_ = -87
General
x_1_
x_2_
x_3_
x_4_
x_5_
x_6_
x_7_
x_8_
x_9_
x_10_
x_11_
x_12_
x_13_
x_14_
x_15_
x_16_
x_17_
x_18_
x_19_
x_20_
y_1_
y_2_
y_3_
y_4_
y_5_
y_6_
y_7_
y_8_
y_9_
y_10_
y_11_
y_12_
y_13_
y_14_
y_15_
y_16_
y_17_
y_18_
y_19_
y_20_
End
