minimize
obj: 
subject to
c1_1: 12 x_1_ - 114 y_1_ + [ 1 x_1_ ^ 2 + 1 y_1_ ^ 2 ] <= -2260
c2_1: 12 x_2_ - 114 y_2_ + [ 1 x_2_ ^ 2 + 1 y_2_ ^ 2 ] <= 22792
c3_1: 12 x_3_ - 114 y_3_ + [ 1 x_3_ ^ 2 + 1 y_3_ ^ 2 ] <= 9493
c4_1: 12 x_5_ - 114 y_5_ + [ 1 x_5_ ^ 2 + 1 y_5_ ^ 2 ] <= 19955
c5_1: 12 x_6_ - 114 y_6_ + [ 1 x_6_ ^ 2 + 1 y_6_ ^ 2 ] <= 30014
c6_1: 12 x_7_ - 114 y_7_ + [ 1 x_7_ ^ 2 + 1 y_7_ ^ 2 ] <= 25487
c7_1: 12 x_8_ - 114 y_8_ + [ 1 x_8_ ^ 2 + 1 y_8_ ^ 2 ] <= 36540
c8_1: 12 x_9_ - 114 y_9_ + [ 1 x_9_ ^ 2 + 1 y_9_ ^ 2 ] <= 1127
c9_1: 12 x_10_ - 114 y_10_ + [ 1 x_10_ ^ 2 + 1 y_10_ ^ 2 ] <= 24124
c10_1: 12 x_11_ - 114 y_11_ + [ 1 x_11_ ^ 2 + 1 y_11_ ^ 2 ] <= 15041
c11_1: 12 x_12_ - 114 y_12_ + [ 1 x_12_ ^ 2 + 1 y_12_ ^ 2 ] <= 72815
c12_1: 12 x_13_ - 114 y_13_ + [ 1 x_13_ ^ 2 + 1 y_13_ ^ 2 ] <= 56792
c13_1: 12 x_14_ - 114 y_14_ + [ 1 x_14_ ^ 2 + 1 y_14_ ^ 2 ] <= 85877
c14_1: 12 x_15_ - 114 y_15_ + [ 1 x_15_ ^ 2 + 1 y_15_ ^ 2 ] <= 69414
c15_1: 12 x_16_ - 114 y_16_ + [ 1 x_16_ ^ 2 + 1 y_16_ ^ 2 ] <= -641
c16_1: 12 x_17_ - 114 y_17_ + [ 1 x_17_ ^ 2 + 1 y_17_ ^ 2 ] <= 79293
c17_1: 12 x_18_ - 114 y_18_ + [ 1 x_18_ ^ 2 + 1 y_18_ ^ 2 ] <= 72436
c18_1: 12 x_19_ - 114 y_19_ + [ 1 x_19_ ^ 2 + 1 y_19_ ^ 2 ] <= 77829
c19_1: 12 x_20_ - 114 y_20_ + [ 1 x_20_ ^ 2 + 1 y_20_ ^ 2 ] <= 60762
c20_1: 196 x_1_ + 6 y_1_ + [ 1 x_1_ ^ 2 + 1 y_1_ ^ 2 ] <= 8220
c21_1: 196 x_2_ + 6 y_2_ + [ 1 x_2_ ^ 2 + 1 y_2_ ^ 2 ] <= 55348
c22_1: 196 x_3_ + 6 y_3_ + [ 1 x_3_ ^ 2 + 1 y_3_ ^ 2 ] <= 26133
c23_1: 196 x_4_ + 6 y_4_ + [ 1 x_4_ ^ 2 + 1 y_4_ ^ 2 ] <= 17796
c24_1: 196 x_5_ + 6 y_5_ + [ 1 x_5_ ^ 2 + 1 y_5_ ^ 2 ] <= 48094
c25_1: 196 x_6_ + 6 y_6_ + [ 1 x_6_ ^ 2 + 1 y_6_ ^ 2 ] <= 58951
c26_1: 196 x_7_ + 6 y_7_ + [ 1 x_7_ ^ 2 + 1 y_7_ ^ 2 ] <= 86987
c27_1: 196 x_8_ + 6 y_8_ + [ 1 x_8_ ^ 2 + 1 y_8_ ^ 2 ] <= 37387
c28_1: 196 x_9_ + 6 y_9_ + [ 1 x_9_ ^ 2 + 1 y_9_ ^ 2 ] <= 18594
c29_1: 196 x_11_ + 6 y_11_ + [ 1 x_11_ ^ 2 + 1 y_11_ ^ 2 ] <= 46508
c30_1: 196 x_12_ + 6 y_12_ + [ 1 x_12_ ^ 2 + 1 y_12_ ^ 2 ] <= 28854
c31_1: 196 x_13_ + 6 y_13_ + [ 1 x_13_ ^ 2 + 1 y_13_ ^ 2 ] <= 71560
c32_1: 196 x_14_ + 6 y_14_ + [ 1 x_14_ ^ 2 + 1 y_14_ ^ 2 ] <= 144044
c33_1: 196 x_15_ + 6 y_15_ + [ 1 x_15_ ^ 2 + 1 y_15_ ^ 2 ] <= 11917
c34_1: 196 x_16_ + 6 y_16_ + [ 1 x_16_ ^ 2 + 1 y_16_ ^ 2 ] <= 37465
c35_1: 196 x_17_ + 6 y_17_ + [ 1 x_17_ ^ 2 + 1 y_17_ ^ 2 ] <= 5224
c36_1: 196 x_18_ + 6 y_18_ + [ 1 x_18_ ^ 2 + 1 y_18_ ^ 2 ] <= 32516
c37_1: 196 x_19_ + 6 y_19_ + [ 1 x_19_ ^ 2 + 1 y_19_ ^ 2 ] <= 95757
c38: 196 x_20_ + 6 y_20_ + [ 1 x_20_ ^ 2 + 1 y_20_ ^ 2 ] <= 98695
c39: 94 x_1_ + 178 y_1_ + [ 1 x_1_ ^ 2 + 1 y_1_ ^ 2 ] <= 17942
c40: 94 x_2_ + 178 y_2_ + [ 1 x_2_ ^ 2 + 1 y_2_ ^ 2 ] <= -8680
c41: 94 x_3_ + 178 y_3_ + [ 1 x_3_ ^ 2 + 1 y_3_ ^ 2 ] <= 51658
c42: 94 x_4_ + 178 y_4_ + [ 1 x_4_ ^ 2 + 1 y_4_ ^ 2 ] <= 29695
c43: 94 x_5_ + 178 y_5_ + [ 1 x_5_ ^ 2 + 1 y_5_ ^ 2 ] <= 72802
c44: 94 x_6_ + 178 y_6_ + [ 1 x_6_ ^ 2 + 1 y_6_ ^ 2 ] <= 30998
c45: 94 x_7_ + 178 y_7_ + [ 1 x_7_ ^ 2 + 1 y_7_ ^ 2 ] <= 27543
c46: 94 x_9_ + 178 y_9_ + [ 1 x_9_ ^ 2 + 1 y_9_ ^ 2 ] <= 30656
c47: 94 x_10_ + 178 y_10_ + [ 1 x_10_ ^ 2 + 1 y_10_ ^ 2 ] <= 36870
c48: 94 x_11_ + 178 y_11_ + [ 1 x_11_ ^ 2 + 1 y_11_ ^ 2 ] <= 63260
c49: 94 x_12_ + 178 y_12_ + [ 1 x_12_ ^ 2 + 1 y_12_ ^ 2 ] <= 13814
c50: 94 x_13_ + 178 y_13_ + [ 1 x_13_ ^ 2 + 1 y_13_ ^ 2 ] <= 33235
c51: 94 x_14_ + 178 y_14_ + [ 1 x_14_ ^ 2 + 1 y_14_ ^ 2 ] <= 20563
c52: 94 x_15_ + 178 y_15_ + [ 1 x_15_ ^ 2 + 1 y_15_ ^ 2 ] <= -5221
c53: 94 x_16_ + 178 y_16_ + [ 1 x_16_ ^ 2 + 1 y_16_ ^ 2 ] <= 52862
c54: 94 x_17_ + 178 y_17_ + [ 1 x_17_ ^ 2 + 1 y_17_ ^ 2 ] <= 42339
c55: 94 x_18_ + 178 y_18_ + [ 1 x_18_ ^ 2 + 1 y_18_ ^ 2 ] <= 6405
c56: 94 x_19_ + 178 y_19_ + [ 1 x_19_ ^ 2 + 1 y_19_ ^ 2 ] <= 20480
c57: 94 x_20_ + 178 y_20_ + [ 1 x_20_ ^ 2 + 1 y_20_ ^ 2 ] <= 12491
c1_2: 1 x_4_ = -6
c2_2: 1 y_4_ = 57
c3_2: 1 x_10_ = -98
c4_2: 1 y_10_ = -3
c5_2: 1 x_8_ = -47
c6_2: 1 y_8_ = -89
c1: [ 1 x_1_ ^ 2 - 2 x_2_ * x_1_ + 1 x_2_ ^ 2 + 1 y_1_ ^ 2 - 2 y_2_ * y_1_ + 1 y_2_ ^ 2 ] = 16762
c2: [ 1 x_1_ ^ 2 - 2 x_3_ * x_1_ + 1 x_3_ ^ 2 + 1 y_1_ ^ 2 - 2 y_3_ * y_1_ + 1 y_3_ ^ 2 ] = 6565
c3: [ 1 x_1_ ^ 2 - 2 x_4_ * x_1_ + 1 x_4_ ^ 2 + 1 y_1_ ^ 2 - 2 y_4_ * y_1_ + 1 y_4_ ^ 2 ] = 1025
c4: [ 1 x_1_ ^ 2 - 2 x_5_ * x_1_ + 1 x_5_ ^ 2 + 1 y_1_ ^ 2 - 2 y_5_ * y_1_ + 1 y_5_ ^ 2 ] = 14504
c5: [ 1 x_3_ ^ 2 - 2 x_5_ * x_3_ + 1 x_5_ ^ 2 + 1 y_3_ ^ 2 - 2 y_5_ * y_3_ + 1 y_5_ ^ 2 ] = 2617
c6: [ 1 x_3_ ^ 2 - 2 x_6_ * x_3_ + 1 x_6_ ^ 2 + 1 y_3_ ^ 2 - 2 y_6_ * y_3_ + 1 y_6_ ^ 2 ] = 5297
c7: [ 1 x_2_ ^ 2 - 2 x_7_ * x_2_ + 1 x_7_ ^ 2 + 1 y_2_ ^ 2 - 2 y_7_ * y_2_ + 1 y_7_ ^ 2 ] = 24341
c8: [ 1 x_4_ ^ 2 - 2 x_7_ * x_4_ + 1 x_7_ ^ 2 + 1 y_4_ ^ 2 - 2 y_7_ * y_4_ + 1 y_7_ ^ 2 ] = 28772
c9: [ 1 x_2_ ^ 2 - 2 x_8_ * x_2_ + 1 x_8_ ^ 2 + 1 y_2_ ^ 2 - 2 y_8_ * y_2_ + 1 y_8_ ^ 2 ] = 1450
c10: [ 1 x_6_ ^ 2 - 2 x_8_ * x_6_ + 1 x_8_ ^ 2 + 1 y_6_ ^ 2 - 2 y_8_ * y_6_ + 1 y_8_ ^ 2 ] = 41128
c11: [ 1 x_1_ ^ 2 - 2 x_9_ * x_1_ + 1 x_9_ ^ 2 + 1 y_1_ ^ 2 - 2 y_9_ * y_1_ + 1 y_9_ ^ 2 ] = 1184
c12: [ 1 x_7_ ^ 2 - 2 x_9_ * x_7_ + 1 x_9_ ^ 2 + 1 y_7_ ^ 2 - 2 y_9_ * y_7_ + 1 y_9_ ^ 2 ] = 21437
c13: [ 1 x_1_ ^ 2 - 2 x_10_ * x_1_ + 1 x_10_ ^ 2 + 1 y_1_ ^ 2 - 2 y_10_ * y_1_ + 1 y_10_ ^ 2 ] = 17833
c14: [ 1 x_3_ ^ 2 - 2 x_10_ * x_3_ + 1 x_10_ ^ 2 + 1 y_3_ ^ 2 - 2 y_10_ * y_3_ + 1 y_10_ ^ 2 ] = 35746
c15: [ 1 x_3_ ^ 2 - 2 x_11_ * x_3_ + 1 x_11_ ^ 2 + 1 y_3_ ^ 2 - 2 y_11_ * y_3_ + 1 y_11_ ^ 2 ] = 15133
c16: [ 1 x_9_ ^ 2 - 2 x_11_ * x_9_ + 1 x_11_ ^ 2 + 1 y_9_ ^ 2 - 2 y_11_ * y_9_ + 1 y_11_ ^ 2 ] = 4754
c17: [ 1 x_2_ ^ 2 - 2 x_12_ * x_2_ + 1 x_12_ ^ 2 + 1 y_2_ ^ 2 - 2 y_12_ * y_2_ + 1 y_12_ ^ 2 ] = 22698
c18: [ 1 x_6_ ^ 2 - 2 x_12_ * x_6_ + 1 x_12_ ^ 2 + 1 y_6_ ^ 2 - 2 y_12_ * y_6_ + 1 y_12_ ^ 2 ] = 8720
c19: [ 1 x_8_ ^ 2 - 2 x_12_ * x_8_ + 1 x_12_ ^ 2 + 1 y_8_ ^ 2 - 2 y_12_ * y_8_ + 1 y_12_ ^ 2 ] = 23944
c20: [ 1 x_6_ ^ 2 - 2 x_13_ * x_6_ + 1 x_13_ ^ 2 + 1 y_6_ ^ 2 - 2 y_13_ * y_6_ + 1 y_13_ ^ 2 ] = 3922
c21: [ 1 x_2_ ^ 2 - 2 x_14_ * x_2_ + 1 x_14_ ^ 2 + 1 y_2_ ^ 2 - 2 y_14_ * y_2_ + 1 y_14_ ^ 2 ] = 18801
c22: [ 1 x_6_ ^ 2 - 2 x_14_ * x_6_ + 1 x_14_ ^ 2 + 1 y_6_ ^ 2 - 2 y_14_ * y_6_ + 1 y_14_ ^ 2 ] = 24125
c23: [ 1 x_8_ ^ 2 - 2 x_15_ * x_8_ + 1 x_15_ ^ 2 + 1 y_8_ ^ 2 - 2 y_15_ * y_8_ + 1 y_15_ ^ 2 ] = 4909
c24: [ 1 x_10_ ^ 2 - 2 x_15_ * x_10_ + 1 x_15_ ^ 2 + 1 y_10_ ^ 2 - 2 y_15_ * y_10_ + 1 y_15_ ^ 2 ] = 21530
c25: [ 1 x_13_ ^ 2 - 2 x_15_ * x_13_ + 1 x_15_ ^ 2 + 1 y_13_ ^ 2 - 2 y_15_ * y_13_ + 1 y_15_ ^ 2 ] = 19093
c26: [ 1 x_4_ ^ 2 - 2 x_16_ * x_4_ + 1 x_16_ ^ 2 + 1 y_4_ ^ 2 - 2 y_16_ * y_4_ + 1 y_16_ ^ 2 ] = 2644
c27: [ 1 x_5_ ^ 2 - 2 x_16_ * x_5_ + 1 x_16_ ^ 2 + 1 y_5_ ^ 2 - 2 y_16_ * y_5_ + 1 y_16_ ^ 2 ] = 36725
c28: [ 1 x_6_ ^ 2 - 2 x_16_ * x_6_ + 1 x_16_ ^ 2 + 1 y_6_ ^ 2 - 2 y_16_ * y_6_ + 1 y_16_ ^ 2 ] = 17177
c29: [ 1 x_10_ ^ 2 - 2 x_17_ * x_10_ + 1 x_17_ ^ 2 + 1 y_10_ ^ 2 - 2 y_17_ * y_10_ + 1 y_17_ ^ 2 ] = 14837
c30: [ 1 x_12_ ^ 2 - 2 x_17_ * x_12_ + 1 x_17_ ^ 2 + 1 y_12_ ^ 2 - 2 y_17_ * y_12_ + 1 y_17_ ^ 2 ] = 5524
c31: [ 1 x_7_ ^ 2 - 2 x_18_ * x_7_ + 1 x_18_ ^ 2 + 1 y_7_ ^ 2 - 2 y_18_ * y_7_ + 1 y_18_ ^ 2 ] = 11141
c32: [ 1 x_15_ ^ 2 - 2 x_18_ * x_15_ + 1 x_18_ ^ 2 + 1 y_15_ ^ 2 - 2 y_18_ * y_15_ + 1 y_18_ ^ 2 ] = 3425
c33: [ 1 x_8_ ^ 2 - 2 x_19_ * x_8_ + 1 x_19_ ^ 2 + 1 y_8_ ^ 2 - 2 y_19_ * y_8_ + 1 y_19_ ^ 2 ] = 30610
c34: [ 1 x_13_ ^ 2 - 2 x_19_ * x_13_ + 1 x_19_ ^ 2 + 1 y_13_ ^ 2 - 2 y_19_ * y_13_ + 1 y_19_ ^ 2 ] = 1576
c35: [ 1 x_3_ ^ 2 - 2 x_20_ * x_3_ + 1 x_20_ ^ 2 + 1 y_3_ ^ 2 - 2 y_20_ * y_3_ + 1 y_20_ ^ 2 ] = 19610
c36: [ 1 x_7_ ^ 2 - 2 x_20_ * x_7_ + 1 x_20_ ^ 2 + 1 y_7_ ^ 2 - 2 y_20_ * y_7_ + 1 y_20_ ^ 2 ] = 37000
c37: [ 1 x_8_ ^ 2 - 2 x_20_ * x_8_ + 1 x_20_ ^ 2 + 1 y_8_ ^ 2 - 2 y_20_ * y_8_ + 1 y_20_ ^ 2 ] = 22621
Bounds
-38 <= x_1_ <= 26
-85 <= x_2_ <= -9
-119 <= x_3_ <= 91
x_4_ = -6
-158 <= x_5_ <= 142
-188 <= x_6_ <= 155
-175 <= x_7_ <= 147
x_8_ = -47
-72 <= x_9_ <= 60
x_10_ = -98
-141 <= x_11_ <= 129
-201 <= x_12_ <= 98
-251 <= x_13_ <= 161
-222 <= x_14_ <= 128
-117 <= x_15_ <= 23
-57 <= x_16_ <= 45
-219 <= x_17_ <= 23
-175 <= x_18_ <= 81
-221 <= x_19_ <= 127
-197 <= x_20_ <= 103
25 <= y_1_ <= 78
-104 <= y_2_ <= -51
-56 <= y_3_ <= 159
y_4_ = 57
-95 <= y_5_ <= 198
-125 <= y_6_ <= 113
-112 <= y_7_ <= 105
y_8_ = -89
-9 <= y_9_ <= 112
y_10_ = -3
-78 <= y_11_ <= 181
-199 <= y_12_ <= 65
-188 <= y_13_ <= 119
-241 <= y_14_ <= 86
-149 <= y_15_ <= -19
6 <= y_16_ <= 108
-124 <= y_17_ <= 118
-208 <= y_18_ <= 39
-227 <= y_19_ <= 85
-196 <= y_20_ <= 61
General
x_1_
x_2_
x_3_
x_4_
x_5_
x_6_
x_7_
x_8_
x_9_
x_10_
x_11_
x_12_
x_13_
x_14_
x_15_
x_16_
x_17_
x_18_
x_19_
x_20_
y_1_
y_2_
y_3_
y_4_
y_5_
y_6_
y_7_
y_8_
y_9_
y_10_
y_11_
y_12_
y_13_
y_14_
y_15_
y_16_
y_17_
y_18_
y_19_
y_20_
End
