minimize
obj: 
subject to
c1_4: -1 x_97_ + 1 y_97_ <= 0
c1_1: [ 1 x_1_ ^ 2 + 1 y_1_ ^ 2 ] <= 54049
c2_1: [ 1 x_2_ ^ 2 + 1 y_2_ ^ 2 ] <= 712
c3_1: [ 1 x_3_ ^ 2 + 1 y_3_ ^ 2 ] <= 51533
c4_1: [ 1 x_4_ ^ 2 + 1 y_4_ ^ 2 ] <= 12464
c5_1: [ 1 x_5_ ^ 2 + 1 y_5_ ^ 2 ] <= 11897
c6_1: [ 1 x_6_ ^ 2 + 1 y_6_ ^ 2 ] <= 40189
c7_1: [ 1 x_7_ ^ 2 + 1 y_7_ ^ 2 ] <= 78603
c8_1: [ 1 x_8_ ^ 2 + 1 y_8_ ^ 2 ] <= 29286
c9_1: [ 1 x_9_ ^ 2 + 1 y_9_ ^ 2 ] <= 50791
c10_1: [ 1 x_10_ ^ 2 + 1 y_10_ ^ 2 ] <= 24309
c11_1: [ 1 x_11_ ^ 2 + 1 y_11_ ^ 2 ] <= 71739
c12_1: [ 1 x_12_ ^ 2 + 1 y_12_ ^ 2 ] <= 76415
c13_1: [ 1 x_13_ ^ 2 + 1 y_13_ ^ 2 ] <= 44202
c14_1: [ 1 x_14_ ^ 2 + 1 y_14_ ^ 2 ] <= 68300
c15_1: [ 1 x_15_ ^ 2 + 1 y_15_ ^ 2 ] <= 45896
c16_1: [ 1 x_16_ ^ 2 + 1 y_16_ ^ 2 ] <= 64331
c17_1: [ 1 x_17_ ^ 2 + 1 y_17_ ^ 2 ] <= 42670
c18_1: [ 1 x_18_ ^ 2 + 1 y_18_ ^ 2 ] <= 70383
c19_1: [ 1 x_19_ ^ 2 + 1 y_19_ ^ 2 ] <= 42600
c20_1: [ 1 x_20_ ^ 2 + 1 y_20_ ^ 2 ] <= 135029
c21_1: [ 1 x_21_ ^ 2 + 1 y_21_ ^ 2 ] <= 53000
c22_1: [ 1 x_22_ ^ 2 + 1 y_22_ ^ 2 ] <= 141607
c23_1: [ 1 x_23_ ^ 2 + 1 y_23_ ^ 2 ] <= 27346
c24_1: [ 1 x_24_ ^ 2 + 1 y_24_ ^ 2 ] <= 102350
c25_1: [ 1 x_25_ ^ 2 + 1 y_25_ ^ 2 ] <= 35412
c26_1: [ 1 x_27_ ^ 2 + 1 y_27_ ^ 2 ] <= 69369
c27_1: [ 1 x_28_ ^ 2 + 1 y_28_ ^ 2 ] <= 24674
c28_1: [ 1 x_29_ ^ 2 + 1 y_29_ ^ 2 ] <= 51506
c29_1: [ 1 x_30_ ^ 2 + 1 y_30_ ^ 2 ] <= 55806
c30_1: [ 1 x_31_ ^ 2 + 1 y_31_ ^ 2 ] <= 9613
c31_1: [ 1 x_32_ ^ 2 + 1 y_32_ ^ 2 ] <= 79583
c32_1: [ 1 x_33_ ^ 2 + 1 y_33_ ^ 2 ] <= 35694
c33_1: [ 1 x_34_ ^ 2 + 1 y_34_ ^ 2 ] <= 56216
c34_1: [ 1 x_35_ ^ 2 + 1 y_35_ ^ 2 ] <= 66854
c35_1: [ 1 x_36_ ^ 2 + 1 y_36_ ^ 2 ] <= 34324
c36_1: [ 1 x_37_ ^ 2 + 1 y_37_ ^ 2 ] <= 106315
c37_1: [ 1 x_38_ ^ 2 + 1 y_38_ ^ 2 ] <= 46586
c38_1: [ 1 x_39_ ^ 2 + 1 y_39_ ^ 2 ] <= 64122
c39_1: [ 1 x_40_ ^ 2 + 1 y_40_ ^ 2 ] <= 117306
c40_1: [ 1 x_41_ ^ 2 + 1 y_41_ ^ 2 ] <= 57603
c41_1: [ 1 x_42_ ^ 2 + 1 y_42_ ^ 2 ] <= 58887
c42_1: [ 1 x_43_ ^ 2 + 1 y_43_ ^ 2 ] <= 66934
c43_1: [ 1 x_44_ ^ 2 + 1 y_44_ ^ 2 ] <= 7850
c44_1: [ 1 x_45_ ^ 2 + 1 y_45_ ^ 2 ] <= 27833
c45_1: [ 1 x_46_ ^ 2 + 1 y_46_ ^ 2 ] <= 39696
c46_1: [ 1 x_47_ ^ 2 + 1 y_47_ ^ 2 ] <= 86715
c47_1: [ 1 x_48_ ^ 2 + 1 y_48_ ^ 2 ] <= 53829
c48_1: [ 1 x_49_ ^ 2 + 1 y_49_ ^ 2 ] <= 82750
c49_1: [ 1 x_50_ ^ 2 + 1 y_50_ ^ 2 ] <= 65189
c50_1: [ 1 x_51_ ^ 2 + 1 y_51_ ^ 2 ] <= 141209
c51_1: [ 1 x_52_ ^ 2 + 1 y_52_ ^ 2 ] <= 74308
c52_1: [ 1 x_53_ ^ 2 + 1 y_53_ ^ 2 ] <= 98604
c53_1: [ 1 x_54_ ^ 2 + 1 y_54_ ^ 2 ] <= 84582
c54_1: [ 1 x_55_ ^ 2 + 1 y_55_ ^ 2 ] <= 31045
c55_1: [ 1 x_56_ ^ 2 + 1 y_56_ ^ 2 ] <= 53097
c56_1: [ 1 x_57_ ^ 2 + 1 y_57_ ^ 2 ] <= 62683
c57_1: [ 1 x_58_ ^ 2 + 1 y_58_ ^ 2 ] <= 145475
c58_1: [ 1 x_59_ ^ 2 + 1 y_59_ ^ 2 ] <= 104053
c59_1: [ 1 x_60_ ^ 2 + 1 y_60_ ^ 2 ] <= 150457
c60_1: [ 1 x_61_ ^ 2 + 1 y_61_ ^ 2 ] <= 150200
c61_1: [ 1 x_62_ ^ 2 + 1 y_62_ ^ 2 ] <= 89064
c62_1: [ 1 x_63_ ^ 2 + 1 y_63_ ^ 2 ] <= 19133
c63_1: [ 1 x_64_ ^ 2 + 1 y_64_ ^ 2 ] <= 67625
c64_1: [ 1 x_65_ ^ 2 + 1 y_65_ ^ 2 ] <= 103266
c65_1: [ 1 x_66_ ^ 2 + 1 y_66_ ^ 2 ] <= 156015
c66_1: [ 1 x_67_ ^ 2 + 1 y_67_ ^ 2 ] <= 33130
c67_1: [ 1 x_68_ ^ 2 + 1 y_68_ ^ 2 ] <= 81774
c68_1: [ 1 x_69_ ^ 2 + 1 y_69_ ^ 2 ] <= 92410
c69_1: [ 1 x_70_ ^ 2 + 1 y_70_ ^ 2 ] <= 44433
c70_1: [ 1 x_71_ ^ 2 + 1 y_71_ ^ 2 ] <= 68772
c71_1: [ 1 x_72_ ^ 2 + 1 y_72_ ^ 2 ] <= 87250
c72_1: [ 1 x_73_ ^ 2 + 1 y_73_ ^ 2 ] <= 27270
c73_1: [ 1 x_74_ ^ 2 + 1 y_74_ ^ 2 ] <= 71726
c74_1: [ 1 x_75_ ^ 2 + 1 y_75_ ^ 2 ] <= 47267
c75_1: [ 1 x_76_ ^ 2 + 1 y_76_ ^ 2 ] <= 69525
c76_1: [ 1 x_77_ ^ 2 + 1 y_77_ ^ 2 ] <= 52323
c77_1: [ 1 x_78_ ^ 2 + 1 y_78_ ^ 2 ] <= 77585
c78_1: [ 1 x_79_ ^ 2 + 1 y_79_ ^ 2 ] <= 134535
c79_1: [ 1 x_80_ ^ 2 + 1 y_80_ ^ 2 ] <= 138765
c80_1: [ 1 x_81_ ^ 2 + 1 y_81_ ^ 2 ] <= 103164
c81_1: [ 1 x_82_ ^ 2 + 1 y_82_ ^ 2 ] <= 4701
c82_1: [ 1 x_83_ ^ 2 + 1 y_83_ ^ 2 ] <= 154710
c83_1: [ 1 x_84_ ^ 2 + 1 y_84_ ^ 2 ] <= 43817
c84_1: [ 1 x_85_ ^ 2 + 1 y_85_ ^ 2 ] <= 114889
c85_1: [ 1 x_86_ ^ 2 + 1 y_86_ ^ 2 ] <= 8872
c86_1: [ 1 x_87_ ^ 2 + 1 y_87_ ^ 2 ] <= 77243
c87_1: [ 1 x_88_ ^ 2 + 1 y_88_ ^ 2 ] <= 87245
c88_1: [ 1 x_89_ ^ 2 + 1 y_89_ ^ 2 ] <= 144242
c89_1: [ 1 x_90_ ^ 2 + 1 y_90_ ^ 2 ] <= 140712
c90_1: [ 1 x_91_ ^ 2 + 1 y_91_ ^ 2 ] <= 103294
c91_1: [ 1 x_92_ ^ 2 + 1 y_92_ ^ 2 ] <= 57891
c92_1: [ 1 x_93_ ^ 2 + 1 y_93_ ^ 2 ] <= 97496
c93_1: [ 1 x_94_ ^ 2 + 1 y_94_ ^ 2 ] <= 111781
c94_1: [ 1 x_95_ ^ 2 + 1 y_95_ ^ 2 ] <= 35065
c95_1: [ 1 x_96_ ^ 2 + 1 y_96_ ^ 2 ] <= 8630
c96_1: [ 1 x_97_ ^ 2 + 1 y_97_ ^ 2 ] <= 159156
c97_1: [ 1 x_98_ ^ 2 + 1 y_98_ ^ 2 ] <= 103012
c98_1: [ 1 x_99_ ^ 2 + 1 y_99_ ^ 2 ] <= 28594
c99_1: [ 1 x_100_ ^ 2 + 1 y_100_ ^ 2 ] <= 114835
c1_3: 1 x_97_ >= 0
c2_3: 1 y_97_ >= 0
c1_2: 1 x_26_ = 0
c2_2: 1 y_26_ = 0
c1: [ 1 x_1_ ^ 2 - 2 x_3_ * x_1_ + 1 x_3_ ^ 2 + 1 y_1_ ^ 2 - 2 y_3_ * y_1_ + 1 y_3_ ^ 2 ] = 10930
c2: [ 1 x_2_ ^ 2 - 2 x_4_ * x_2_ + 1 x_4_ ^ 2 + 1 y_2_ ^ 2 - 2 y_4_ * y_2_ + 1 y_4_ ^ 2 ] = 7218
c3: [ 1 x_2_ ^ 2 - 2 x_5_ * x_2_ + 1 x_5_ ^ 2 + 1 y_2_ ^ 2 - 2 y_5_ * y_2_ + 1 y_5_ ^ 2 ] = 6788
c4: [ 1 x_5_ ^ 2 - 2 x_6_ * x_5_ + 1 x_6_ ^ 2 + 1 y_5_ ^ 2 - 2 y_6_ * y_5_ + 1 y_6_ ^ 2 ] = 8354
c5: [ 1 x_1_ ^ 2 - 2 x_8_ * x_1_ + 1 x_8_ ^ 2 + 1 y_1_ ^ 2 - 2 y_8_ * y_1_ + 1 y_8_ ^ 2 ] = 14933
c6: [ 1 x_4_ ^ 2 - 2 x_9_ * x_4_ + 1 x_9_ ^ 2 + 1 y_4_ ^ 2 - 2 y_9_ * y_4_ + 1 y_9_ ^ 2 ] = 17425
c7: [ 1 x_5_ ^ 2 - 2 x_9_ * x_5_ + 1 x_9_ ^ 2 + 1 y_5_ ^ 2 - 2 y_9_ * y_5_ + 1 y_9_ ^ 2 ] = 13525
c8: [ 1 x_3_ ^ 2 - 2 x_10_ * x_3_ + 1 x_10_ ^ 2 + 1 y_3_ ^ 2 - 2 y_10_ * y_3_ + 1 y_10_ ^ 2 ] = 19309
c9: [ 1 x_5_ ^ 2 - 2 x_10_ * x_5_ + 1 x_10_ ^ 2 + 1 y_5_ ^ 2 - 2 y_10_ * y_5_ + 1 y_10_ ^ 2 ] = 2194
c10: [ 1 x_1_ ^ 2 - 2 x_11_ * x_1_ + 1 x_11_ ^ 2 + 1 y_1_ ^ 2 - 2 y_11_ * y_1_ + 1 y_11_ ^ 2 ] = 1250
c11: [ 1 x_6_ ^ 2 - 2 x_11_ * x_6_ + 1 x_11_ ^ 2 + 1 y_6_ ^ 2 - 2 y_11_ * y_6_ + 1 y_11_ ^ 2 ] = 23981
c12: [ 1 x_3_ ^ 2 - 2 x_12_ * x_3_ + 1 x_12_ ^ 2 + 1 y_3_ ^ 2 - 2 y_12_ * y_3_ + 1 y_12_ ^ 2 ] = 10984
c13: [ 1 x_9_ ^ 2 - 2 x_12_ * x_9_ + 1 x_12_ ^ 2 + 1 y_9_ ^ 2 - 2 y_12_ * y_9_ + 1 y_12_ ^ 2 ] = 3924
c14: [ 1 x_1_ ^ 2 - 2 x_13_ * x_1_ + 1 x_13_ ^ 2 + 1 y_1_ ^ 2 - 2 y_13_ * y_1_ + 1 y_13_ ^ 2 ] = 31642
c15: [ 1 x_1_ ^ 2 - 2 x_14_ * x_1_ + 1 x_14_ ^ 2 + 1 y_1_ ^ 2 - 2 y_14_ * y_1_ + 1 y_14_ ^ 2 ] = 14890
c16: [ 1 x_6_ ^ 2 - 2 x_14_ * x_6_ + 1 x_14_ ^ 2 + 1 y_6_ ^ 2 - 2 y_14_ * y_6_ + 1 y_14_ ^ 2 ] = 11089
c17: [ 1 x_4_ ^ 2 - 2 x_15_ * x_4_ + 1 x_15_ ^ 2 + 1 y_4_ ^ 2 - 2 y_15_ * y_4_ + 1 y_15_ ^ 2 ] = 10525
c18: [ 1 x_7_ ^ 2 - 2 x_15_ * x_7_ + 1 x_15_ ^ 2 + 1 y_7_ ^ 2 - 2 y_15_ * y_7_ + 1 y_15_ ^ 2 ] = 4373
c19: [ 1 x_4_ ^ 2 - 2 x_16_ * x_4_ + 1 x_16_ ^ 2 + 1 y_4_ ^ 2 - 2 y_16_ * y_4_ + 1 y_16_ ^ 2 ] = 20162
c20: [ 1 x_3_ ^ 2 - 2 x_17_ * x_3_ + 1 x_17_ ^ 2 + 1 y_3_ ^ 2 - 2 y_17_ * y_3_ + 1 y_17_ ^ 2 ] = 1448
c21: [ 1 x_6_ ^ 2 - 2 x_17_ * x_6_ + 1 x_17_ ^ 2 + 1 y_6_ ^ 2 - 2 y_17_ * y_6_ + 1 y_17_ ^ 2 ] = 32429
c22: [ 1 x_16_ ^ 2 - 2 x_17_ * x_16_ + 1 x_17_ ^ 2 + 1 y_16_ ^ 2 - 2 y_17_ * y_16_ + 1 y_17_ ^ 2 ] = 12017
c23: [ 1 x_3_ ^ 2 - 2 x_18_ * x_3_ + 1 x_18_ ^ 2 + 1 y_3_ ^ 2 - 2 y_18_ * y_3_ + 1 y_18_ ^ 2 ] = 1466
c24: [ 1 x_5_ ^ 2 - 2 x_19_ * x_5_ + 1 x_19_ ^ 2 + 1 y_5_ ^ 2 - 2 y_19_ * y_5_ + 1 y_19_ ^ 2 ] = 9472
c25: [ 1 x_12_ ^ 2 - 2 x_19_ * x_12_ + 1 x_19_ ^ 2 + 1 y_12_ ^ 2 - 2 y_19_ * y_12_ + 1 y_19_ ^ 2 ] = 4905
c26: [ 1 x_1_ ^ 2 - 2 x_20_ * x_1_ + 1 x_20_ ^ 2 + 1 y_1_ ^ 2 - 2 y_20_ * y_1_ + 1 y_20_ ^ 2 ] = 29341
c27: [ 1 x_6_ ^ 2 - 2 x_21_ * x_6_ + 1 x_21_ ^ 2 + 1 y_6_ ^ 2 - 2 y_21_ * y_6_ + 1 y_21_ ^ 2 ] = 17741
c28: [ 1 x_10_ ^ 2 - 2 x_21_ * x_10_ + 1 x_21_ ^ 2 + 1 y_10_ ^ 2 - 2 y_21_ * y_10_ + 1 y_21_ ^ 2 ] = 5521
c29: [ 1 x_7_ ^ 2 - 2 x_22_ * x_7_ + 1 x_22_ ^ 2 + 1 y_7_ ^ 2 - 2 y_22_ * y_7_ + 1 y_22_ ^ 2 ] = 22133
c30: [ 1 x_18_ ^ 2 - 2 x_22_ * x_18_ + 1 x_22_ ^ 2 + 1 y_18_ ^ 2 - 2 y_22_ * y_18_ + 1 y_22_ ^ 2 ] = 25330
c31: [ 1 x_1_ ^ 2 - 2 x_23_ * x_1_ + 1 x_23_ ^ 2 + 1 y_1_ ^ 2 - 2 y_23_ * y_1_ + 1 y_23_ ^ 2 ] = 4505
c32: [ 1 x_4_ ^ 2 - 2 x_23_ * x_4_ + 1 x_23_ ^ 2 + 1 y_4_ ^ 2 - 2 y_23_ * y_4_ + 1 y_23_ ^ 2 ] = 9040
c33: [ 1 x_8_ ^ 2 - 2 x_23_ * x_8_ + 1 x_23_ ^ 2 + 1 y_8_ ^ 2 - 2 y_23_ * y_8_ + 1 y_23_ ^ 2 ] = 4162
c34: [ 1 x_7_ ^ 2 - 2 x_24_ * x_7_ + 1 x_24_ ^ 2 + 1 y_7_ ^ 2 - 2 y_24_ * y_7_ + 1 y_24_ ^ 2 ] = 1885
c35: [ 1 x_15_ ^ 2 - 2 x_24_ * x_15_ + 1 x_24_ ^ 2 + 1 y_15_ ^ 2 - 2 y_24_ * y_15_ + 1 y_24_ ^ 2 ] = 11170
c36: [ 1 x_4_ ^ 2 - 2 x_25_ * x_4_ + 1 x_25_ ^ 2 + 1 y_4_ ^ 2 - 2 y_25_ * y_4_ + 1 y_25_ ^ 2 ] = 5858
c37: [ 1 x_5_ ^ 2 - 2 x_25_ * x_5_ + 1 x_25_ ^ 2 + 1 y_5_ ^ 2 - 2 y_25_ * y_5_ + 1 y_25_ ^ 2 ] = 8788
c38: [ 1 x_2_ ^ 2 - 2 x_26_ * x_2_ + 1 x_26_ ^ 2 + 1 y_2_ ^ 2 - 2 y_26_ * y_2_ + 1 y_26_ ^ 2 ] = 712
c39: [ 1 x_8_ ^ 2 - 2 x_27_ * x_8_ + 1 x_27_ ^ 2 + 1 y_8_ ^ 2 - 2 y_27_ * y_8_ + 1 y_27_ ^ 2 ] = 13769
c40: [ 1 x_10_ ^ 2 - 2 x_27_ * x_10_ + 1 x_27_ ^ 2 + 1 y_10_ ^ 2 - 2 y_27_ * y_10_ + 1 y_27_ ^ 2 ] = 11549
c41: [ 1 x_23_ ^ 2 - 2 x_28_ * x_23_ + 1 x_28_ ^ 2 + 1 y_23_ ^ 2 - 2 y_28_ * y_23_ + 1 y_28_ ^ 2 ] = 7888
c42: [ 1 x_13_ ^ 2 - 2 x_29_ * x_13_ + 1 x_29_ ^ 2 + 1 y_13_ ^ 2 - 2 y_29_ * y_13_ + 1 y_29_ ^ 2 ] = 24641
c43: [ 1 x_20_ ^ 2 - 2 x_29_ * x_20_ + 1 x_29_ ^ 2 + 1 y_20_ ^ 2 - 2 y_29_ * y_20_ + 1 y_29_ ^ 2 ] = 19744
c44: [ 1 x_15_ ^ 2 - 2 x_30_ * x_15_ + 1 x_30_ ^ 2 + 1 y_15_ ^ 2 - 2 y_30_ * y_15_ + 1 y_30_ ^ 2 ] = 484
c45: [ 1 x_26_ ^ 2 - 2 x_31_ * x_26_ + 1 x_31_ ^ 2 + 1 y_26_ ^ 2 - 2 y_31_ * y_26_ + 1 y_31_ ^ 2 ] = 9613
c46: [ 1 x_28_ ^ 2 - 2 x_31_ * x_28_ + 1 x_31_ ^ 2 + 1 y_28_ ^ 2 - 2 y_31_ * y_28_ + 1 y_31_ ^ 2 ] = 3485
c47: [ 1 x_6_ ^ 2 - 2 x_32_ * x_6_ + 1 x_32_ ^ 2 + 1 y_6_ ^ 2 - 2 y_32_ * y_6_ + 1 y_32_ ^ 2 ] = 28370
c48: [ 1 x_24_ ^ 2 - 2 x_32_ * x_24_ + 1 x_32_ ^ 2 + 1 y_24_ ^ 2 - 2 y_32_ * y_24_ + 1 y_32_ ^ 2 ] = 5161
c49: [ 1 x_10_ ^ 2 - 2 x_33_ * x_10_ + 1 x_33_ ^ 2 + 1 y_10_ ^ 2 - 2 y_33_ * y_10_ + 1 y_33_ ^ 2 ] = 1090
c50: [ 1 x_16_ ^ 2 - 2 x_34_ * x_16_ + 1 x_34_ ^ 2 + 1 y_16_ ^ 2 - 2 y_34_ * y_16_ + 1 y_34_ ^ 2 ] = 33745
c51: [ 1 x_15_ ^ 2 - 2 x_35_ * x_15_ + 1 x_35_ ^ 2 + 1 y_15_ ^ 2 - 2 y_35_ * y_15_ + 1 y_35_ ^ 2 ] = 11861
c52: [ 1 x_31_ ^ 2 - 2 x_35_ * x_31_ + 1 x_35_ ^ 2 + 1 y_31_ ^ 2 - 2 y_35_ * y_31_ + 1 y_35_ ^ 2 ] = 25765
c53: [ 1 x_6_ ^ 2 - 2 x_36_ * x_6_ + 1 x_36_ ^ 2 + 1 y_6_ ^ 2 - 2 y_36_ * y_6_ + 1 y_36_ ^ 2 ] = 46546
c54: [ 1 x_26_ ^ 2 - 2 x_36_ * x_26_ + 1 x_36_ ^ 2 + 1 y_26_ ^ 2 - 2 y_36_ * y_26_ + 1 y_36_ ^ 2 ] = 34324
c55: [ 1 x_28_ ^ 2 - 2 x_36_ * x_28_ + 1 x_36_ ^ 2 + 1 y_28_ ^ 2 - 2 y_36_ * y_28_ + 1 y_36_ ^ 2 ] = 25970
c56: [ 1 x_15_ ^ 2 - 2 x_37_ * x_15_ + 1 x_37_ ^ 2 + 1 y_15_ ^ 2 - 2 y_37_ * y_15_ + 1 y_37_ ^ 2 ] = 12505
c57: [ 1 x_25_ ^ 2 - 2 x_37_ * x_25_ + 1 x_37_ ^ 2 + 1 y_25_ ^ 2 - 2 y_37_ * y_25_ + 1 y_37_ ^ 2 ] = 44810
c58: [ 1 x_33_ ^ 2 - 2 x_37_ * x_33_ + 1 x_37_ ^ 2 + 1 y_33_ ^ 2 - 2 y_37_ * y_33_ + 1 y_37_ ^ 2 ] = 33202
c59: [ 1 x_25_ ^ 2 - 2 x_38_ * x_25_ + 1 x_38_ ^ 2 + 1 y_25_ ^ 2 - 2 y_38_ * y_25_ + 1 y_38_ ^ 2 ] = 765
c60: [ 1 x_34_ ^ 2 - 2 x_38_ * x_34_ + 1 x_38_ ^ 2 + 1 y_34_ ^ 2 - 2 y_38_ * y_34_ + 1 y_38_ ^ 2 ] = 452
c61: [ 1 x_9_ ^ 2 - 2 x_39_ * x_9_ + 1 x_39_ ^ 2 + 1 y_9_ ^ 2 - 2 y_39_ * y_9_ + 1 y_39_ ^ 2 ] = 19253
c62: [ 1 x_13_ ^ 2 - 2 x_39_ * x_13_ + 1 x_39_ ^ 2 + 1 y_13_ ^ 2 - 2 y_39_ * y_13_ + 1 y_39_ ^ 2 ] = 5065
c63: [ 1 x_24_ ^ 2 - 2 x_39_ * x_24_ + 1 x_39_ ^ 2 + 1 y_24_ ^ 2 - 2 y_39_ * y_24_ + 1 y_39_ ^ 2 ] = 41033
c64: [ 1 x_14_ ^ 2 - 2 x_40_ * x_14_ + 1 x_40_ ^ 2 + 1 y_14_ ^ 2 - 2 y_40_ * y_14_ + 1 y_40_ ^ 2 ] = 16804
c65: [ 1 x_16_ ^ 2 - 2 x_40_ * x_16_ + 1 x_40_ ^ 2 + 1 y_16_ ^ 2 - 2 y_40_ * y_16_ + 1 y_40_ ^ 2 ] = 7897
c66: [ 1 x_24_ ^ 2 - 2 x_40_ * x_24_ + 1 x_40_ ^ 2 + 1 y_24_ ^ 2 - 2 y_40_ * y_24_ + 1 y_40_ ^ 2 ] = 23504
c67: [ 1 x_9_ ^ 2 - 2 x_41_ * x_9_ + 1 x_41_ ^ 2 + 1 y_9_ ^ 2 - 2 y_41_ * y_9_ + 1 y_41_ ^ 2 ] = 8450
c68: [ 1 x_33_ ^ 2 - 2 x_41_ * x_33_ + 1 x_41_ ^ 2 + 1 y_33_ ^ 2 - 2 y_41_ * y_33_ + 1 y_41_ ^ 2 ] = 2609
c69: [ 1 x_19_ ^ 2 - 2 x_42_ * x_19_ + 1 x_42_ ^ 2 + 1 y_19_ ^ 2 - 2 y_42_ * y_19_ + 1 y_42_ ^ 2 ] = 15725
c70: [ 1 x_28_ ^ 2 - 2 x_42_ * x_28_ + 1 x_42_ ^ 2 + 1 y_28_ ^ 2 - 2 y_42_ * y_28_ + 1 y_42_ ^ 2 ] = 7325
c71: [ 1 x_4_ ^ 2 - 2 x_43_ * x_4_ + 1 x_43_ ^ 2 + 1 y_4_ ^ 2 - 2 y_43_ * y_4_ + 1 y_43_ ^ 2 ] = 28682
c72: [ 1 x_19_ ^ 2 - 2 x_43_ * x_19_ + 1 x_43_ ^ 2 + 1 y_19_ ^ 2 - 2 y_43_ * y_19_ + 1 y_43_ ^ 2 ] = 20500
c73: [ 1 x_28_ ^ 2 - 2 x_43_ * x_28_ + 1 x_43_ ^ 2 + 1 y_28_ ^ 2 - 2 y_43_ * y_28_ + 1 y_43_ ^ 2 ] = 10330
c74: [ 1 x_13_ ^ 2 - 2 x_44_ * x_13_ + 1 x_44_ ^ 2 + 1 y_13_ ^ 2 - 2 y_44_ * y_13_ + 1 y_44_ ^ 2 ] = 14797
c75: [ 1 x_26_ ^ 2 - 2 x_44_ * x_26_ + 1 x_44_ ^ 2 + 1 y_26_ ^ 2 - 2 y_44_ * y_26_ + 1 y_44_ ^ 2 ] = 7850
c76: [ 1 x_26_ ^ 2 - 2 x_45_ * x_26_ + 1 x_45_ ^ 2 + 1 y_26_ ^ 2 - 2 y_45_ * y_26_ + 1 y_45_ ^ 2 ] = 27833
c77: [ 1 x_31_ ^ 2 - 2 x_46_ * x_31_ + 1 x_46_ ^ 2 + 1 y_31_ ^ 2 - 2 y_46_ * y_31_ + 1 y_46_ ^ 2 ] = 10240
c78: [ 1 x_35_ ^ 2 - 2 x_46_ * x_35_ + 1 x_46_ ^ 2 + 1 y_35_ ^ 2 - 2 y_46_ * y_35_ + 1 y_46_ ^ 2 ] = 4069
c79: [ 1 x_11_ ^ 2 - 2 x_47_ * x_11_ + 1 x_47_ ^ 2 + 1 y_11_ ^ 2 - 2 y_47_ * y_11_ + 1 y_47_ ^ 2 ] = 3617
c80: [ 1 x_21_ ^ 2 - 2 x_47_ * x_21_ + 1 x_47_ ^ 2 + 1 y_21_ ^ 2 - 2 y_47_ * y_21_ + 1 y_47_ ^ 2 ] = 4129
c81: [ 1 x_8_ ^ 2 - 2 x_48_ * x_8_ + 1 x_48_ ^ 2 + 1 y_8_ ^ 2 - 2 y_48_ * y_8_ + 1 y_48_ ^ 2 ] = 3706
c82: [ 1 x_39_ ^ 2 - 2 x_48_ * x_39_ + 1 x_48_ ^ 2 + 1 y_39_ ^ 2 - 2 y_48_ * y_39_ + 1 y_48_ ^ 2 ] = 450
c83: [ 1 x_45_ ^ 2 - 2 x_49_ * x_45_ + 1 x_49_ ^ 2 + 1 y_45_ ^ 2 - 2 y_49_ * y_45_ + 1 y_49_ ^ 2 ] = 20689
c84: [ 1 x_17_ ^ 2 - 2 x_50_ * x_17_ + 1 x_50_ ^ 2 + 1 y_17_ ^ 2 - 2 y_50_ * y_17_ + 1 y_50_ ^ 2 ] = 2377
c85: [ 1 x_33_ ^ 2 - 2 x_50_ * x_33_ + 1 x_50_ ^ 2 + 1 y_33_ ^ 2 - 2 y_50_ * y_33_ + 1 y_50_ ^ 2 ] = 13754
c86: [ 1 x_37_ ^ 2 - 2 x_51_ * x_37_ + 1 x_51_ ^ 2 + 1 y_37_ ^ 2 - 2 y_51_ * y_37_ + 1 y_51_ ^ 2 ] = 8405
c87: [ 1 x_41_ ^ 2 - 2 x_51_ * x_41_ + 1 x_51_ ^ 2 + 1 y_41_ ^ 2 - 2 y_51_ * y_41_ + 1 y_51_ ^ 2 ] = 18434
c88: [ 1 x_21_ ^ 2 - 2 x_52_ * x_21_ + 1 x_52_ ^ 2 + 1 y_21_ ^ 2 - 2 y_52_ * y_21_ + 1 y_52_ ^ 2 ] = 1796
c89: [ 1 x_22_ ^ 2 - 2 x_52_ * x_22_ + 1 x_52_ ^ 2 + 1 y_22_ ^ 2 - 2 y_52_ * y_22_ + 1 y_52_ ^ 2 ] = 10756
c90: [ 1 x_50_ ^ 2 - 2 x_52_ * x_50_ + 1 x_52_ ^ 2 + 1 y_50_ ^ 2 - 2 y_52_ * y_50_ + 1 y_52_ ^ 2 ] = 1517
c91: [ 1 x_12_ ^ 2 - 2 x_53_ * x_12_ + 1 x_53_ ^ 2 + 1 y_12_ ^ 2 - 2 y_53_ * y_12_ + 1 y_53_ ^ 2 ] = 6205
c92: [ 1 x_41_ ^ 2 - 2 x_53_ * x_41_ + 1 x_53_ ^ 2 + 1 y_41_ ^ 2 - 2 y_53_ * y_41_ + 1 y_53_ ^ 2 ] = 5477
c93: [ 1 x_3_ ^ 2 - 2 x_54_ * x_3_ + 1 x_54_ ^ 2 + 1 y_3_ ^ 2 - 2 y_54_ * y_3_ + 1 y_54_ ^ 2 ] = 4073
c94: [ 1 x_37_ ^ 2 - 2 x_54_ * x_37_ + 1 x_54_ ^ 2 + 1 y_37_ ^ 2 - 2 y_54_ * y_37_ + 1 y_54_ ^ 2 ] = 10306
c95: [ 1 x_14_ ^ 2 - 2 x_55_ * x_14_ + 1 x_55_ ^ 2 + 1 y_14_ ^ 2 - 2 y_55_ * y_14_ + 1 y_55_ ^ 2 ] = 7250
c96: [ 1 x_44_ ^ 2 - 2 x_55_ * x_44_ + 1 x_55_ ^ 2 + 1 y_44_ ^ 2 - 2 y_55_ * y_44_ + 1 y_55_ ^ 2 ] = 7673
c97: [ 1 x_35_ ^ 2 - 2 x_56_ * x_35_ + 1 x_56_ ^ 2 + 1 y_35_ ^ 2 - 2 y_56_ * y_35_ + 1 y_56_ ^ 2 ] = 15860
c98: [ 1 x_55_ ^ 2 - 2 x_56_ * x_55_ + 1 x_56_ ^ 2 + 1 y_55_ ^ 2 - 2 y_56_ * y_55_ + 1 y_56_ ^ 2 ] = 2941
c99: [ 1 x_23_ ^ 2 - 2 x_57_ * x_23_ + 1 x_57_ ^ 2 + 1 y_23_ ^ 2 - 2 y_57_ * y_23_ + 1 y_57_ ^ 2 ] = 7225
c100: [ 1 x_30_ ^ 2 - 2 x_57_ * x_30_ + 1 x_57_ ^ 2 + 1 y_30_ ^ 2 - 2 y_57_ * y_30_ + 1 y_57_ ^ 2 ] = 15860
c101: [ 1 x_50_ ^ 2 - 2 x_57_ * x_50_ + 1 x_57_ ^ 2 + 1 y_50_ ^ 2 - 2 y_57_ * y_50_ + 1 y_57_ ^ 2 ] = 21473
c102: [ 1 x_48_ ^ 2 - 2 x_58_ * x_48_ + 1 x_58_ ^ 2 + 1 y_48_ ^ 2 - 2 y_58_ * y_48_ + 1 y_58_ ^ 2 ] = 22321
c103: [ 1 x_17_ ^ 2 - 2 x_59_ * x_17_ + 1 x_59_ ^ 2 + 1 y_17_ ^ 2 - 2 y_59_ * y_17_ + 1 y_59_ ^ 2 ] = 13457
c104: [ 1 x_40_ ^ 2 - 2 x_59_ * x_40_ + 1 x_59_ ^ 2 + 1 y_40_ ^ 2 - 2 y_59_ * y_40_ + 1 y_59_ ^ 2 ] = 4505
c105: [ 1 x_18_ ^ 2 - 2 x_60_ * x_18_ + 1 x_60_ ^ 2 + 1 y_18_ ^ 2 - 2 y_60_ * y_18_ + 1 y_60_ ^ 2 ] = 31018
c106: [ 1 x_35_ ^ 2 - 2 x_61_ * x_35_ + 1 x_61_ ^ 2 + 1 y_35_ ^ 2 - 2 y_61_ * y_35_ + 1 y_61_ ^ 2 ] = 16640
c107: [ 1 x_15_ ^ 2 - 2 x_62_ * x_15_ + 1 x_62_ ^ 2 + 1 y_15_ ^ 2 - 2 y_62_ * y_15_ + 1 y_62_ ^ 2 ] = 7090
c108: [ 1 x_36_ ^ 2 - 2 x_62_ * x_36_ + 1 x_62_ ^ 2 + 1 y_36_ ^ 2 - 2 y_62_ * y_36_ + 1 y_62_ ^ 2 ] = 30545
c109: [ 1 x_4_ ^ 2 - 2 x_63_ * x_4_ + 1 x_63_ ^ 2 + 1 y_4_ ^ 2 - 2 y_63_ * y_4_ + 1 y_63_ ^ 2 ] = 12349
c110: [ 1 x_13_ ^ 2 - 2 x_63_ * x_13_ + 1 x_63_ ^ 2 + 1 y_13_ ^ 2 - 2 y_63_ * y_13_ + 1 y_63_ ^ 2 ] = 28432
c111: [ 1 x_26_ ^ 2 - 2 x_63_ * x_26_ + 1 x_63_ ^ 2 + 1 y_26_ ^ 2 - 2 y_63_ * y_26_ + 1 y_63_ ^ 2 ] = 19133
c112: [ 1 x_15_ ^ 2 - 2 x_64_ * x_15_ + 1 x_64_ ^ 2 + 1 y_15_ ^ 2 - 2 y_64_ * y_15_ + 1 y_64_ ^ 2 ] = 8765
c113: [ 1 x_33_ ^ 2 - 2 x_64_ * x_33_ + 1 x_64_ ^ 2 + 1 y_33_ ^ 2 - 2 y_64_ * y_33_ + 1 y_64_ ^ 2 ] = 5058
c114: [ 1 x_58_ ^ 2 - 2 x_64_ * x_58_ + 1 x_64_ ^ 2 + 1 y_58_ ^ 2 - 2 y_64_ * y_58_ + 1 y_64_ ^ 2 ] = 36829
c115: [ 1 x_1_ ^ 2 - 2 x_65_ * x_1_ + 1 x_65_ ^ 2 + 1 y_1_ ^ 2 - 2 y_65_ * y_1_ + 1 y_65_ ^ 2 ] = 7897
c116: [ 1 x_7_ ^ 2 - 2 x_65_ * x_7_ + 1 x_65_ ^ 2 + 1 y_7_ ^ 2 - 2 y_65_ * y_7_ + 1 y_65_ ^ 2 ] = 22226
c117: [ 1 x_54_ ^ 2 - 2 x_65_ * x_54_ + 1 x_65_ ^ 2 + 1 y_54_ ^ 2 - 2 y_65_ * y_54_ + 1 y_65_ ^ 2 ] = 18850
c118: [ 1 x_14_ ^ 2 - 2 x_66_ * x_14_ + 1 x_66_ ^ 2 + 1 y_14_ ^ 2 - 2 y_66_ * y_14_ + 1 y_66_ ^ 2 ] = 17861
c119: [ 1 x_50_ ^ 2 - 2 x_66_ * x_50_ + 1 x_66_ ^ 2 + 1 y_50_ ^ 2 - 2 y_66_ * y_50_ + 1 y_66_ ^ 2 ] = 31824
c120: [ 1 x_61_ ^ 2 - 2 x_66_ * x_61_ + 1 x_66_ ^ 2 + 1 y_61_ ^ 2 - 2 y_66_ * y_61_ + 1 y_66_ ^ 2 ] = 30850
c121: [ 1 x_2_ ^ 2 - 2 x_67_ * x_2_ + 1 x_67_ ^ 2 + 1 y_2_ ^ 2 - 2 y_67_ * y_2_ + 1 y_67_ ^ 2 ] = 24128
c122: [ 1 x_44_ ^ 2 - 2 x_67_ * x_44_ + 1 x_67_ ^ 2 + 1 y_44_ ^ 2 - 2 y_67_ * y_44_ + 1 y_67_ ^ 2 ] = 9242
c123: [ 1 x_39_ ^ 2 - 2 x_68_ * x_39_ + 1 x_68_ ^ 2 + 1 y_39_ ^ 2 - 2 y_68_ * y_39_ + 1 y_68_ ^ 2 ] = 2410
c124: [ 1 x_51_ ^ 2 - 2 x_68_ * x_51_ + 1 x_68_ ^ 2 + 1 y_51_ ^ 2 - 2 y_68_ * y_51_ + 1 y_68_ ^ 2 ] = 15109
c125: [ 1 x_15_ ^ 2 - 2 x_69_ * x_15_ + 1 x_69_ ^ 2 + 1 y_15_ ^ 2 - 2 y_69_ * y_15_ + 1 y_69_ ^ 2 ] = 12500
c126: [ 1 x_68_ ^ 2 - 2 x_69_ * x_68_ + 1 x_69_ ^ 2 + 1 y_68_ ^ 2 - 2 y_69_ * y_68_ + 1 y_69_ ^ 2 ] = 325
c127: [ 1 x_28_ ^ 2 - 2 x_70_ * x_28_ + 1 x_70_ ^ 2 + 1 y_28_ ^ 2 - 2 y_70_ * y_28_ + 1 y_70_ ^ 2 ] = 2885
c128: [ 1 x_30_ ^ 2 - 2 x_70_ * x_30_ + 1 x_70_ ^ 2 + 1 y_30_ ^ 2 - 2 y_70_ * y_30_ + 1 y_70_ ^ 2 ] = 4930
c129: [ 1 x_38_ ^ 2 - 2 x_70_ * x_38_ + 1 x_70_ ^ 2 + 1 y_38_ ^ 2 - 2 y_70_ * y_38_ + 1 y_70_ ^ 2 ] = 13058
c130: [ 1 x_15_ ^ 2 - 2 x_71_ * x_15_ + 1 x_71_ ^ 2 + 1 y_15_ ^ 2 - 2 y_71_ * y_15_ + 1 y_71_ ^ 2 ] = 2305
c131: [ 1 x_25_ ^ 2 - 2 x_71_ * x_25_ + 1 x_71_ ^ 2 + 1 y_25_ ^ 2 - 2 y_71_ * y_25_ + 1 y_71_ ^ 2 ] = 22338
c132: [ 1 x_43_ ^ 2 - 2 x_72_ * x_43_ + 1 x_72_ ^ 2 + 1 y_43_ ^ 2 - 2 y_72_ * y_43_ + 1 y_72_ ^ 2 ] = 28808
c133: [ 1 x_45_ ^ 2 - 2 x_72_ * x_45_ + 1 x_72_ ^ 2 + 1 y_45_ ^ 2 - 2 y_72_ * y_45_ + 1 y_72_ ^ 2 ] = 16525
c134: [ 1 x_70_ ^ 2 - 2 x_72_ * x_70_ + 1 x_72_ ^ 2 + 1 y_70_ ^ 2 - 2 y_72_ * y_70_ + 1 y_72_ ^ 2 ] = 40001
c135: [ 1 x_2_ ^ 2 - 2 x_73_ * x_2_ + 1 x_73_ ^ 2 + 1 y_2_ ^ 2 - 2 y_73_ * y_2_ + 1 y_73_ ^ 2 ] = 19169
c136: [ 1 x_29_ ^ 2 - 2 x_73_ * x_29_ + 1 x_73_ ^ 2 + 1 y_29_ ^ 2 - 2 y_73_ * y_29_ + 1 y_73_ ^ 2 ] = 3821
c137: [ 1 x_49_ ^ 2 - 2 x_73_ * x_49_ + 1 x_73_ ^ 2 + 1 y_49_ ^ 2 - 2 y_73_ * y_49_ + 1 y_73_ ^ 2 ] = 15013
c138: [ 1 x_60_ ^ 2 - 2 x_74_ * x_60_ + 1 x_74_ ^ 2 + 1 y_60_ ^ 2 - 2 y_74_ * y_60_ + 1 y_74_ ^ 2 ] = 14417
c139: [ 1 x_67_ ^ 2 - 2 x_74_ * x_67_ + 1 x_74_ ^ 2 + 1 y_67_ ^ 2 - 2 y_74_ * y_67_ + 1 y_74_ ^ 2 ] = 7362
c140: [ 1 x_5_ ^ 2 - 2 x_75_ * x_5_ + 1 x_75_ ^ 2 + 1 y_5_ ^ 2 - 2 y_75_ * y_5_ + 1 y_75_ ^ 2 ] = 11737
c141: [ 1 x_43_ ^ 2 - 2 x_75_ * x_43_ + 1 x_75_ ^ 2 + 1 y_43_ ^ 2 - 2 y_75_ * y_43_ + 1 y_75_ ^ 2 ] = 6625
c142: [ 1 x_19_ ^ 2 - 2 x_76_ * x_19_ + 1 x_76_ ^ 2 + 1 y_19_ ^ 2 - 2 y_76_ * y_19_ + 1 y_76_ ^ 2 ] = 3281
c143: [ 1 x_35_ ^ 2 - 2 x_76_ * x_35_ + 1 x_76_ ^ 2 + 1 y_35_ ^ 2 - 2 y_76_ * y_35_ + 1 y_76_ ^ 2 ] = 24425
c144: [ 1 x_68_ ^ 2 - 2 x_77_ * x_68_ + 1 x_77_ ^ 2 + 1 y_68_ ^ 2 - 2 y_77_ * y_68_ + 1 y_77_ ^ 2 ] = 3274
c145: [ 1 x_17_ ^ 2 - 2 x_78_ * x_17_ + 1 x_78_ ^ 2 + 1 y_17_ ^ 2 - 2 y_78_ * y_17_ + 1 y_78_ ^ 2 ] = 21410
c146: [ 1 x_39_ ^ 2 - 2 x_78_ * x_39_ + 1 x_78_ ^ 2 + 1 y_39_ ^ 2 - 2 y_78_ * y_39_ + 1 y_78_ ^ 2 ] = 641
c147: [ 1 x_24_ ^ 2 - 2 x_79_ * x_24_ + 1 x_79_ ^ 2 + 1 y_24_ ^ 2 - 2 y_79_ * y_24_ + 1 y_79_ ^ 2 ] = 12458
c148: [ 1 x_34_ ^ 2 - 2 x_79_ * x_34_ + 1 x_79_ ^ 2 + 1 y_34_ ^ 2 - 2 y_79_ * y_34_ + 1 y_79_ ^ 2 ] = 16820
c149: [ 1 x_52_ ^ 2 - 2 x_80_ * x_52_ + 1 x_80_ ^ 2 + 1 y_52_ ^ 2 - 2 y_80_ * y_52_ + 1 y_80_ ^ 2 ] = 22100
c150: [ 1 x_74_ ^ 2 - 2 x_80_ * x_74_ + 1 x_80_ ^ 2 + 1 y_74_ ^ 2 - 2 y_80_ * y_74_ + 1 y_80_ ^ 2 ] = 10961
c151: [ 1 x_17_ ^ 2 - 2 x_81_ * x_17_ + 1 x_81_ ^ 2 + 1 y_17_ ^ 2 - 2 y_81_ * y_17_ + 1 y_81_ ^ 2 ] = 27233
c152: [ 1 x_41_ ^ 2 - 2 x_81_ * x_41_ + 1 x_81_ ^ 2 + 1 y_41_ ^ 2 - 2 y_81_ * y_41_ + 1 y_81_ ^ 2 ] = 32057
c153: [ 1 x_67_ ^ 2 - 2 x_81_ * x_67_ + 1 x_81_ ^ 2 + 1 y_67_ ^ 2 - 2 y_81_ * y_67_ + 1 y_81_ ^ 2 ] = 19370
c154: [ 1 x_2_ ^ 2 - 2 x_82_ * x_2_ + 1 x_82_ ^ 2 + 1 y_2_ ^ 2 - 2 y_82_ * y_2_ + 1 y_82_ ^ 2 ] = 1754
c155: [ 1 x_3_ ^ 2 - 2 x_82_ * x_3_ + 1 x_82_ ^ 2 + 1 y_3_ ^ 2 - 2 y_82_ * y_3_ + 1 y_82_ ^ 2 ] = 25105
c156: [ 1 x_17_ ^ 2 - 2 x_82_ * x_17_ + 1 x_82_ ^ 2 + 1 y_17_ ^ 2 - 2 y_82_ * y_17_ + 1 y_82_ ^ 2 ] = 19045
c157: [ 1 x_18_ ^ 2 - 2 x_83_ * x_18_ + 1 x_83_ ^ 2 + 1 y_18_ ^ 2 - 2 y_83_ * y_18_ + 1 y_83_ ^ 2 ] = 29000
c158: [ 1 x_47_ ^ 2 - 2 x_83_ * x_47_ + 1 x_83_ ^ 2 + 1 y_47_ ^ 2 - 2 y_83_ * y_47_ + 1 y_83_ ^ 2 ] = 9773
c159: [ 1 x_10_ ^ 2 - 2 x_84_ * x_10_ + 1 x_84_ ^ 2 + 1 y_10_ ^ 2 - 2 y_84_ * y_10_ + 1 y_84_ ^ 2 ] = 2853
c160: [ 1 x_33_ ^ 2 - 2 x_84_ * x_33_ + 1 x_84_ ^ 2 + 1 y_33_ ^ 2 - 2 y_84_ * y_33_ + 1 y_84_ ^ 2 ] = 7321
c161: [ 1 x_77_ ^ 2 - 2 x_84_ * x_77_ + 1 x_84_ ^ 2 + 1 y_77_ ^ 2 - 2 y_84_ * y_77_ + 1 y_84_ ^ 2 ] = 377
c162: [ 1 x_46_ ^ 2 - 2 x_85_ * x_46_ + 1 x_85_ ^ 2 + 1 y_46_ ^ 2 - 2 y_85_ * y_46_ + 1 y_85_ ^ 2 ] = 19520
c163: [ 1 x_61_ ^ 2 - 2 x_85_ * x_61_ + 1 x_85_ ^ 2 + 1 y_61_ ^ 2 - 2 y_85_ * y_61_ + 1 y_85_ ^ 2 ] = 18037
c164: [ 1 x_8_ ^ 2 - 2 x_86_ * x_8_ + 1 x_86_ ^ 2 + 1 y_8_ ^ 2 - 2 y_86_ * y_8_ + 1 y_86_ ^ 2 ] = 5920
c165: [ 1 x_19_ ^ 2 - 2 x_86_ * x_19_ + 1 x_86_ ^ 2 + 1 y_19_ ^ 2 - 2 y_86_ * y_19_ + 1 y_86_ ^ 2 ] = 13060
c166: [ 1 x_26_ ^ 2 - 2 x_86_ * x_26_ + 1 x_86_ ^ 2 + 1 y_26_ ^ 2 - 2 y_86_ * y_26_ + 1 y_86_ ^ 2 ] = 8872
c167: [ 1 x_52_ ^ 2 - 2 x_87_ * x_52_ + 1 x_87_ ^ 2 + 1 y_52_ ^ 2 - 2 y_87_ * y_52_ + 1 y_87_ ^ 2 ] = 28948
c168: [ 1 x_57_ ^ 2 - 2 x_87_ * x_57_ + 1 x_87_ ^ 2 + 1 y_57_ ^ 2 - 2 y_87_ * y_57_ + 1 y_87_ ^ 2 ] = 45890
c169: [ 1 x_67_ ^ 2 - 2 x_88_ * x_67_ + 1 x_88_ ^ 2 + 1 y_67_ ^ 2 - 2 y_88_ * y_67_ + 1 y_88_ ^ 2 ] = 12850
c170: [ 1 x_76_ ^ 2 - 2 x_88_ * x_76_ + 1 x_88_ ^ 2 + 1 y_76_ ^ 2 - 2 y_88_ * y_76_ + 1 y_88_ ^ 2 ] = 10413
c171: [ 1 x_30_ ^ 2 - 2 x_89_ * x_30_ + 1 x_89_ ^ 2 + 1 y_30_ ^ 2 - 2 y_89_ * y_30_ + 1 y_89_ ^ 2 ] = 20609
c172: [ 1 x_37_ ^ 2 - 2 x_89_ * x_37_ + 1 x_89_ ^ 2 + 1 y_37_ ^ 2 - 2 y_89_ * y_37_ + 1 y_89_ ^ 2 ] = 22304
c173: [ 1 x_48_ ^ 2 - 2 x_90_ * x_48_ + 1 x_90_ ^ 2 + 1 y_48_ ^ 2 - 2 y_90_ * y_48_ + 1 y_90_ ^ 2 ] = 34625
c174: [ 1 x_74_ ^ 2 - 2 x_90_ * x_74_ + 1 x_90_ ^ 2 + 1 y_74_ ^ 2 - 2 y_90_ * y_74_ + 1 y_90_ ^ 2 ] = 11513
c175: [ 1 x_43_ ^ 2 - 2 x_91_ * x_43_ + 1 x_91_ ^ 2 + 1 y_43_ ^ 2 - 2 y_91_ * y_43_ + 1 y_91_ ^ 2 ] = 23585
c176: [ 1 x_46_ ^ 2 - 2 x_91_ * x_46_ + 1 x_91_ ^ 2 + 1 y_46_ ^ 2 - 2 y_91_ * y_46_ + 1 y_91_ ^ 2 ] = 14922
c177: [ 1 x_80_ ^ 2 - 2 x_91_ * x_80_ + 1 x_91_ ^ 2 + 1 y_80_ ^ 2 - 2 y_91_ * y_80_ + 1 y_91_ ^ 2 ] = 20826
c178: [ 1 x_54_ ^ 2 - 2 x_92_ * x_54_ + 1 x_92_ ^ 2 + 1 y_54_ ^ 2 - 2 y_92_ * y_54_ + 1 y_92_ ^ 2 ] = 3277
c179: [ 1 x_75_ ^ 2 - 2 x_92_ * x_75_ + 1 x_92_ ^ 2 + 1 y_75_ ^ 2 - 2 y_92_ * y_75_ + 1 y_92_ ^ 2 ] = 538
c180: [ 1 x_25_ ^ 2 - 2 x_93_ * x_25_ + 1 x_93_ ^ 2 + 1 y_25_ ^ 2 - 2 y_93_ * y_25_ + 1 y_93_ ^ 2 ] = 15392
c181: [ 1 x_60_ ^ 2 - 2 x_93_ * x_60_ + 1 x_93_ ^ 2 + 1 y_60_ ^ 2 - 2 y_93_ * y_60_ + 1 y_93_ ^ 2 ] = 8641
c182: [ 1 x_13_ ^ 2 - 2 x_94_ * x_13_ + 1 x_94_ ^ 2 + 1 y_13_ ^ 2 - 2 y_94_ * y_13_ + 1 y_94_ ^ 2 ] = 23504
c183: [ 1 x_14_ ^ 2 - 2 x_94_ * x_14_ + 1 x_94_ ^ 2 + 1 y_14_ ^ 2 - 2 y_94_ * y_14_ + 1 y_94_ ^ 2 ] = 5328
c184: [ 1 x_8_ ^ 2 - 2 x_95_ * x_8_ + 1 x_95_ ^ 2 + 1 y_8_ ^ 2 - 2 y_95_ * y_8_ + 1 y_95_ ^ 2 ] = 260
c185: [ 1 x_32_ ^ 2 - 2 x_95_ * x_32_ + 1 x_95_ ^ 2 + 1 y_32_ ^ 2 - 2 y_95_ * y_32_ + 1 y_95_ ^ 2 ] = 8996
c186: [ 1 x_87_ ^ 2 - 2 x_95_ * x_87_ + 1 x_95_ ^ 2 + 1 y_87_ ^ 2 - 2 y_95_ * y_87_ + 1 y_95_ ^ 2 ] = 8221
c187: [ 1 x_23_ ^ 2 - 2 x_96_ * x_23_ + 1 x_96_ ^ 2 + 1 y_23_ ^ 2 - 2 y_96_ * y_23_ + 1 y_96_ ^ 2 ] = 5252
c188: [ 1 x_82_ ^ 2 - 2 x_96_ * x_82_ + 1 x_96_ ^ 2 + 1 y_82_ ^ 2 - 2 y_96_ * y_82_ + 1 y_96_ ^ 2 ] = 592
c189: [ 1 x_22_ ^ 2 - 2 x_97_ * x_22_ + 1 x_97_ ^ 2 + 1 y_22_ ^ 2 - 2 y_97_ * y_22_ + 1 y_97_ ^ 2 ] = 25281
c190: [ 1 x_87_ ^ 2 - 2 x_97_ * x_87_ + 1 x_97_ ^ 2 + 1 y_87_ ^ 2 - 2 y_97_ * y_87_ + 1 y_97_ ^ 2 ] = 14645
c191: [ 1 x_3_ ^ 2 - 2 x_98_ * x_3_ + 1 x_98_ ^ 2 + 1 y_3_ ^ 2 - 2 y_98_ * y_3_ + 1 y_98_ ^ 2 ] = 28610
c192: [ 1 x_16_ ^ 2 - 2 x_98_ * x_16_ + 1 x_98_ ^ 2 + 1 y_16_ ^ 2 - 2 y_98_ * y_16_ + 1 y_98_ ^ 2 ] = 12545
c193: [ 1 x_29_ ^ 2 - 2 x_98_ * x_29_ + 1 x_98_ ^ 2 + 1 y_29_ ^ 2 - 2 y_98_ * y_29_ + 1 y_98_ ^ 2 ] = 8837
c194: [ 1 x_44_ ^ 2 - 2 x_99_ * x_44_ + 1 x_99_ ^ 2 + 1 y_44_ ^ 2 - 2 y_99_ * y_44_ + 1 y_99_ ^ 2 ] = 6480
c195: [ 1 x_82_ ^ 2 - 2 x_99_ * x_82_ + 1 x_99_ ^ 2 + 1 y_82_ ^ 2 - 2 y_99_ * y_82_ + 1 y_99_ ^ 2 ] = 10532
c196: [ 1 x_43_ ^ 2 - 2 x_100_ * x_43_ + 1 x_100_ ^ 2 + 1 y_43_ ^ 2 - 2 y_100_ * y_43_ + 1 y_100_ ^ 2 ] = 6425
c197: [ 1 x_65_ ^ 2 - 2 x_100_ * x_65_ + 1 x_100_ ^ 2 + 1 y_65_ ^ 2 - 2 y_100_ * y_65_ + 1 y_100_ ^ 2 ] = 17101
Bounds
-232 <= x_1_ <= 232
-26 <= x_2_ <= 26
-227 <= x_3_ <= 227
-111 <= x_4_ <= 111
-109 <= x_5_ <= 109
-200 <= x_6_ <= 200
-280 <= x_7_ <= 280
-171 <= x_8_ <= 171
-225 <= x_9_ <= 225
-155 <= x_10_ <= 155
-267 <= x_11_ <= 267
-276 <= x_12_ <= 276
-210 <= x_13_ <= 210
-261 <= x_14_ <= 261
-214 <= x_15_ <= 214
-253 <= x_16_ <= 253
-206 <= x_17_ <= 206
-265 <= x_18_ <= 265
-206 <= x_19_ <= 206
-367 <= x_20_ <= 367
-230 <= x_21_ <= 230
-376 <= x_22_ <= 376
-165 <= x_23_ <= 165
-319 <= x_24_ <= 319
-188 <= x_25_ <= 188
x_26_ = 0
-263 <= x_27_ <= 263
-157 <= x_28_ <= 157
-226 <= x_29_ <= 226
-236 <= x_30_ <= 236
-98 <= x_31_ <= 98
-282 <= x_32_ <= 282
-188 <= x_33_ <= 188
-237 <= x_34_ <= 237
-258 <= x_35_ <= 258
-185 <= x_36_ <= 185
-326 <= x_37_ <= 326
-215 <= x_38_ <= 215
-253 <= x_39_ <= 253
-342 <= x_40_ <= 342
-240 <= x_41_ <= 240
-242 <= x_42_ <= 242
-258 <= x_43_ <= 258
-88 <= x_44_ <= 88
-166 <= x_45_ <= 166
-199 <= x_46_ <= 199
-294 <= x_47_ <= 294
-232 <= x_48_ <= 232
-287 <= x_49_ <= 287
-255 <= x_50_ <= 255
-375 <= x_51_ <= 375
-272 <= x_52_ <= 272
-314 <= x_53_ <= 314
-290 <= x_54_ <= 290
-176 <= x_55_ <= 176
-230 <= x_56_ <= 230
-250 <= x_57_ <= 250
-381 <= x_58_ <= 381
-322 <= x_59_ <= 322
-387 <= x_60_ <= 387
-387 <= x_61_ <= 387
-298 <= x_62_ <= 298
-138 <= x_63_ <= 138
-260 <= x_64_ <= 260
-321 <= x_65_ <= 321
-394 <= x_66_ <= 394
-182 <= x_67_ <= 182
-285 <= x_68_ <= 285
-303 <= x_69_ <= 303
-210 <= x_70_ <= 210
-262 <= x_71_ <= 262
-295 <= x_72_ <= 295
-165 <= x_73_ <= 165
-267 <= x_74_ <= 267
-217 <= x_75_ <= 217
-263 <= x_76_ <= 263
-228 <= x_77_ <= 228
-278 <= x_78_ <= 278
-366 <= x_79_ <= 366
-372 <= x_80_ <= 372
-321 <= x_81_ <= 321
-68 <= x_82_ <= 68
-393 <= x_83_ <= 393
-209 <= x_84_ <= 209
-338 <= x_85_ <= 338
-94 <= x_86_ <= 94
-277 <= x_87_ <= 277
-295 <= x_88_ <= 295
-379 <= x_89_ <= 379
-375 <= x_90_ <= 375
-321 <= x_91_ <= 321
-240 <= x_92_ <= 240
-312 <= x_93_ <= 312
-334 <= x_94_ <= 334
-187 <= x_95_ <= 187
-92 <= x_96_ <= 92
-398 <= x_97_ <= 398
-320 <= x_98_ <= 320
-169 <= x_99_ <= 169
-338 <= x_100_ <= 338
-232 <= y_1_ <= 232
-26 <= y_2_ <= 26
-227 <= y_3_ <= 227
-111 <= y_4_ <= 111
-109 <= y_5_ <= 109
-200 <= y_6_ <= 200
-280 <= y_7_ <= 280
-171 <= y_8_ <= 171
-225 <= y_9_ <= 225
-155 <= y_10_ <= 155
-267 <= y_11_ <= 267
-276 <= y_12_ <= 276
-210 <= y_13_ <= 210
-261 <= y_14_ <= 261
-214 <= y_15_ <= 214
-253 <= y_16_ <= 253
-206 <= y_17_ <= 206
-265 <= y_18_ <= 265
-206 <= y_19_ <= 206
-367 <= y_20_ <= 367
-230 <= y_21_ <= 230
-376 <= y_22_ <= 376
-165 <= y_23_ <= 165
-319 <= y_24_ <= 319
-188 <= y_25_ <= 188
y_26_ = 0
-263 <= y_27_ <= 263
-157 <= y_28_ <= 157
-226 <= y_29_ <= 226
-236 <= y_30_ <= 236
-98 <= y_31_ <= 98
-282 <= y_32_ <= 282
-188 <= y_33_ <= 188
-237 <= y_34_ <= 237
-258 <= y_35_ <= 258
-185 <= y_36_ <= 185
-326 <= y_37_ <= 326
-215 <= y_38_ <= 215
-253 <= y_39_ <= 253
-342 <= y_40_ <= 342
-240 <= y_41_ <= 240
-242 <= y_42_ <= 242
-258 <= y_43_ <= 258
-88 <= y_44_ <= 88
-166 <= y_45_ <= 166
-199 <= y_46_ <= 199
-294 <= y_47_ <= 294
-232 <= y_48_ <= 232
-287 <= y_49_ <= 287
-255 <= y_50_ <= 255
-375 <= y_51_ <= 375
-272 <= y_52_ <= 272
-314 <= y_53_ <= 314
-290 <= y_54_ <= 290
-176 <= y_55_ <= 176
-230 <= y_56_ <= 230
-250 <= y_57_ <= 250
-381 <= y_58_ <= 381
-322 <= y_59_ <= 322
-387 <= y_60_ <= 387
-387 <= y_61_ <= 387
-298 <= y_62_ <= 298
-138 <= y_63_ <= 138
-260 <= y_64_ <= 260
-321 <= y_65_ <= 321
-394 <= y_66_ <= 394
-182 <= y_67_ <= 182
-285 <= y_68_ <= 285
-303 <= y_69_ <= 303
-210 <= y_70_ <= 210
-262 <= y_71_ <= 262
-295 <= y_72_ <= 295
-165 <= y_73_ <= 165
-267 <= y_74_ <= 267
-217 <= y_75_ <= 217
-263 <= y_76_ <= 263
-228 <= y_77_ <= 228
-278 <= y_78_ <= 278
-366 <= y_79_ <= 366
-372 <= y_80_ <= 372
-321 <= y_81_ <= 321
-68 <= y_82_ <= 68
-393 <= y_83_ <= 393
-209 <= y_84_ <= 209
-338 <= y_85_ <= 338
-94 <= y_86_ <= 94
-277 <= y_87_ <= 277
-295 <= y_88_ <= 295
-379 <= y_89_ <= 379
-375 <= y_90_ <= 375
-321 <= y_91_ <= 321
-240 <= y_92_ <= 240
-312 <= y_93_ <= 312
-334 <= y_94_ <= 334
-187 <= y_95_ <= 187
-92 <= y_96_ <= 92
-398 <= y_97_ <= 398
-320 <= y_98_ <= 320
-169 <= y_99_ <= 169
-338 <= y_100_ <= 338
General
x_1_
x_2_
x_3_
x_4_
x_5_
x_6_
x_7_
x_8_
x_9_
x_10_
x_11_
x_12_
x_13_
x_14_
x_15_
x_16_
x_17_
x_18_
x_19_
x_20_
x_21_
x_22_
x_23_
x_24_
x_25_
x_26_
x_27_
x_28_
x_29_
x_30_
x_31_
x_32_
x_33_
x_34_
x_35_
x_36_
x_37_
x_38_
x_39_
x_40_
x_41_
x_42_
x_43_
x_44_
x_45_
x_46_
x_47_
x_48_
x_49_
x_50_
x_51_
x_52_
x_53_
x_54_
x_55_
x_56_
x_57_
x_58_
x_59_
x_60_
x_61_
x_62_
x_63_
x_64_
x_65_
x_66_
x_67_
x_68_
x_69_
x_70_
x_71_
x_72_
x_73_
x_74_
x_75_
x_76_
x_77_
x_78_
x_79_
x_80_
x_81_
x_82_
x_83_
x_84_
x_85_
x_86_
x_87_
x_88_
x_89_
x_90_
x_91_
x_92_
x_93_
x_94_
x_95_
x_96_
x_97_
x_98_
x_99_
x_100_
y_1_
y_2_
y_3_
y_4_
y_5_
y_6_
y_7_
y_8_
y_9_
y_10_
y_11_
y_12_
y_13_
y_14_
y_15_
y_16_
y_17_
y_18_
y_19_
y_20_
y_21_
y_22_
y_23_
y_24_
y_25_
y_26_
y_27_
y_28_
y_29_
y_30_
y_31_
y_32_
y_33_
y_34_
y_35_
y_36_
y_37_
y_38_
y_39_
y_40_
y_41_
y_42_
y_43_
y_44_
y_45_
y_46_
y_47_
y_48_
y_49_
y_50_
y_51_
y_52_
y_53_
y_54_
y_55_
y_56_
y_57_
y_58_
y_59_
y_60_
y_61_
y_62_
y_63_
y_64_
y_65_
y_66_
y_67_
y_68_
y_69_
y_70_
y_71_
y_72_
y_73_
y_74_
y_75_
y_76_
y_77_
y_78_
y_79_
y_80_
y_81_
y_82_
y_83_
y_84_
y_85_
y_86_
y_87_
y_88_
y_89_
y_90_
y_91_
y_92_
y_93_
y_94_
y_95_
y_96_
y_97_
y_98_
y_99_
y_100_
End
