minimize
obj: 
subject to
c1_3: -1 x_47_ + 1 y_47_ <= 0
c1: [ 1 x_1_ ^ 2 + 1 y_1_ ^ 2 ] <= 8607.219999999998
c2: [ 1 x_2_ ^ 2 + 1 y_2_ ^ 2 ] <= 31296.68119617482
c3: [ 1 x_3_ ^ 2 + 1 y_3_ ^ 2 ] <= 65082.190085451126
c4: [ 1 x_4_ ^ 2 + 1 y_4_ ^ 2 ] <= 22472.5
c5: [ 1 x_5_ ^ 2 + 1 y_5_ ^ 2 ] <= 12880.37321347422
c6: [ 1 x_7_ ^ 2 + 1 y_7_ ^ 2 ] <= 6435.3644814448235
c7: [ 1 x_8_ ^ 2 + 1 y_8_ ^ 2 ] <= 29853.566451213355
c8: [ 1 x_9_ ^ 2 + 1 y_9_ ^ 2 ] <= 57436.17653484789
c9: [ 1 x_10_ ^ 2 + 1 y_10_ ^ 2 ] <= 15419.858843992746
c10: [ 1 x_11_ ^ 2 + 1 y_11_ ^ 2 ] <= 65653.8950214464
c11: [ 1 x_12_ ^ 2 + 1 y_12_ ^ 2 ] <= 50746.22418555432
c12: [ 1 x_13_ ^ 2 + 1 y_13_ ^ 2 ] <= 39805.85992116017
c13: [ 1 x_14_ ^ 2 + 1 y_14_ ^ 2 ] <= 8842.63444255759
c14: [ 1 x_15_ ^ 2 + 1 y_15_ ^ 2 ] <= 55053.05699470441
c15: [ 1 x_16_ ^ 2 + 1 y_16_ ^ 2 ] <= 10891.839999999998
c16: [ 1 x_17_ ^ 2 + 1 y_17_ ^ 2 ] <= 38662.065875564105
c17: [ 1 x_18_ ^ 2 + 1 y_18_ ^ 2 ] <= 20371.7
c18: [ 1 x_19_ ^ 2 + 1 y_19_ ^ 2 ] <= 4882.339999999999
c19: [ 1 x_20_ ^ 2 + 1 y_20_ ^ 2 ] <= 47129.44611050658
c20: [ 1 x_21_ ^ 2 + 1 y_21_ ^ 2 ] <= 51020.92041657808
c21: [ 1 x_22_ ^ 2 + 1 y_22_ ^ 2 ] <= 31417.28744618624
c22: [ 1 x_23_ ^ 2 + 1 y_23_ ^ 2 ] <= 17119.23829549044
c23: [ 1 x_24_ ^ 2 + 1 y_24_ ^ 2 ] <= 12624.999999999998
c24: [ 1 x_25_ ^ 2 + 1 y_25_ ^ 2 ] <= 6627.619999999999
c25: [ 1 x_26_ ^ 2 + 1 y_26_ ^ 2 ] <= 73153.94424617599
c26: [ 1 x_27_ ^ 2 + 1 y_27_ ^ 2 ] <= 8008.289999999997
c27: [ 1 x_28_ ^ 2 + 1 y_28_ ^ 2 ] <= 49683.190028981466
c28: [ 1 x_29_ ^ 2 + 1 y_29_ ^ 2 ] <= 57183.09114775735
c29: [ 1 x_30_ ^ 2 + 1 y_30_ ^ 2 ] <= 26931.748494305175
c30: [ 1 x_31_ ^ 2 + 1 y_31_ ^ 2 ] <= 43413.290005961324
c31: [ 1 x_32_ ^ 2 + 1 y_32_ ^ 2 ] <= 73338.7697437378
c32: [ 1 x_33_ ^ 2 + 1 y_33_ ^ 2 ] <= 86086.16573543026
c33: [ 1 x_34_ ^ 2 + 1 y_34_ ^ 2 ] <= 39805.23127897344
c34: [ 1 x_35_ ^ 2 + 1 y_35_ ^ 2 ] <= 55375.07959081672
c35: [ 1 x_36_ ^ 2 + 1 y_36_ ^ 2 ] <= 91006.75547913302
c36: [ 1 x_37_ ^ 2 + 1 y_37_ ^ 2 ] <= 48582.46902527583
c37: [ 1 x_38_ ^ 2 + 1 y_38_ ^ 2 ] <= 54627.22287997112
c38: [ 1 x_39_ ^ 2 + 1 y_39_ ^ 2 ] <= 24061.465465893572
c39: [ 1 x_40_ ^ 2 + 1 y_40_ ^ 2 ] <= 33577.56026148309
c40: [ 1 x_41_ ^ 2 + 1 y_41_ ^ 2 ] <= 35441.636696811474
c41: [ 1 x_42_ ^ 2 + 1 y_42_ ^ 2 ] <= 5095.449999999998
c42: [ 1 x_43_ ^ 2 + 1 y_43_ ^ 2 ] <= 35153.99504126702
c43: [ 1 x_44_ ^ 2 + 1 y_44_ ^ 2 ] <= 25661.585275138867
c44: [ 1 x_45_ ^ 2 + 1 y_45_ ^ 2 ] <= 40994.97694491976
c45: [ 1 x_46_ ^ 2 + 1 y_46_ ^ 2 ] <= 81291.75741494988
c46: [ 1 x_47_ ^ 2 + 1 y_47_ ^ 2 ] <= 192879.0758491887
c47: [ 1 x_48_ ^ 2 + 1 y_48_ ^ 2 ] <= 49179.16444305679
c48: [ 1 x_49_ ^ 2 + 1 y_49_ ^ 2 ] <= 56427.03046205649
c49: [ 1 x_50_ ^ 2 + 1 y_50_ ^ 2 ] <= 19244.372301825595
c50: [ 1 x_51_ ^ 2 + 1 y_51_ ^ 2 ] <= 34787.75256960943
c51: [ 1 x_52_ ^ 2 + 1 y_52_ ^ 2 ] <= 48467.29506957517
c52: [ 1 x_53_ ^ 2 + 1 y_53_ ^ 2 ] <= 45919.9236631757
c53: [ 1 x_54_ ^ 2 + 1 y_54_ ^ 2 ] <= 68813.34807297445
c54: [ 1 x_55_ ^ 2 + 1 y_55_ ^ 2 ] <= 47269.85009028772
c55: [ 1 x_56_ ^ 2 + 1 y_56_ ^ 2 ] <= 55178.85961531401
c56: [ 1 x_57_ ^ 2 + 1 y_57_ ^ 2 ] <= 10856.581025420053
c57: [ 1 x_58_ ^ 2 + 1 y_58_ ^ 2 ] <= 42574.62934457024
c58: [ 1 x_59_ ^ 2 + 1 y_59_ ^ 2 ] <= 81216.86985521717
c59: [ 1 x_60_ ^ 2 + 1 y_60_ ^ 2 ] <= 31540.138132983127
c60: [ 1 x_61_ ^ 2 + 1 y_61_ ^ 2 ] <= 29288.199268356333
c61: [ 1 x_62_ ^ 2 + 1 y_62_ ^ 2 ] <= 71825.10576078168
c62: [ 1 x_63_ ^ 2 + 1 y_63_ ^ 2 ] <= 43555.23915684999
c63: [ 1 x_64_ ^ 2 + 1 y_64_ ^ 2 ] <= 10544.4
c64: [ 1 x_65_ ^ 2 + 1 y_65_ ^ 2 ] <= 119638.79836765029
c65: [ 1 x_66_ ^ 2 + 1 y_66_ ^ 2 ] <= 172120.07411907156
c66: [ 1 x_67_ ^ 2 + 1 y_67_ ^ 2 ] <= 24344.132619840188
c67: [ 1 x_68_ ^ 2 + 1 y_68_ ^ 2 ] <= 15173.29324984698
c68: [ 1 x_69_ ^ 2 + 1 y_69_ ^ 2 ] <= 63405.42098175717
c69: [ 1 x_70_ ^ 2 + 1 y_70_ ^ 2 ] <= 117002.64020802038
c70: [ 1 x_71_ ^ 2 + 1 y_71_ ^ 2 ] <= 24836.138163580763
c71: [ 1 x_72_ ^ 2 + 1 y_72_ ^ 2 ] <= 44027.932061516425
c72: [ 1 x_73_ ^ 2 + 1 y_73_ ^ 2 ] <= 51707.47654335954
c73: [ 1 x_74_ ^ 2 + 1 y_74_ ^ 2 ] <= 52388.45609073063
c74: [ 1 x_75_ ^ 2 + 1 y_75_ ^ 2 ] <= 27276.819029795115
c75: [ 1 x_76_ ^ 2 + 1 y_76_ ^ 2 ] <= 64440.03887112253
c76: [ 1 x_77_ ^ 2 + 1 y_77_ ^ 2 ] <= 44900.61306095513
c77: [ 1 x_78_ ^ 2 + 1 y_78_ ^ 2 ] <= 113222.71602401082
c78: [ 1 x_79_ ^ 2 + 1 y_79_ ^ 2 ] <= 45630.47467696564
c79: [ 1 x_80_ ^ 2 + 1 y_80_ ^ 2 ] <= 6668.0199999999995
c80: [ 1 x_81_ ^ 2 + 1 y_81_ ^ 2 ] <= 112400.47685479933
c81: [ 1 x_82_ ^ 2 + 1 y_82_ ^ 2 ] <= 83316.67509076359
c82: [ 1 x_83_ ^ 2 + 1 y_83_ ^ 2 ] <= 31538.133863135725
c83: [ 1 x_84_ ^ 2 + 1 y_84_ ^ 2 ] <= 56986.5368200203
c84: [ 1 x_85_ ^ 2 + 1 y_85_ ^ 2 ] <= 40416.85362705638
c85: [ 1 x_86_ ^ 2 + 1 y_86_ ^ 2 ] <= 16047.565076733683
c86: [ 1 x_87_ ^ 2 + 1 y_87_ ^ 2 ] <= 95201.00277570484
c87: [ 1 x_88_ ^ 2 + 1 y_88_ ^ 2 ] <= 147205.7066352436
c88: [ 1 x_89_ ^ 2 + 1 y_89_ ^ 2 ] <= 73964.98974991159
c89: [ 1 x_90_ ^ 2 + 1 y_90_ ^ 2 ] <= 54847.85430920678
c90: [ 1 x_91_ ^ 2 + 1 y_91_ ^ 2 ] <= 36172.43580957354
c91: [ 1 x_92_ ^ 2 + 1 y_92_ ^ 2 ] <= 56375.977483740695
c92: [ 1 x_93_ ^ 2 + 1 y_93_ ^ 2 ] <= 140604.98557112768
c93: [ 1 x_94_ ^ 2 + 1 y_94_ ^ 2 ] <= 35932.7658103423
c94: [ 1 x_95_ ^ 2 + 1 y_95_ ^ 2 ] <= 65813.63625639651
c95: [ 1 x_96_ ^ 2 + 1 y_96_ ^ 2 ] <= 75862.90692291383
c96: [ 1 x_97_ ^ 2 + 1 y_97_ ^ 2 ] <= 42282.78088055803
c97: [ 1 x_98_ ^ 2 + 1 y_98_ ^ 2 ] <= 46964.334996700905
c98: [ 1 x_99_ ^ 2 + 1 y_99_ ^ 2 ] <= 49493.958407507154
c99: [ 1 x_100_ ^ 2 + 1 y_100_ ^ 2 ] <= 52231.193370964225
quadratic_ranged_1_ub: [ 1 x_3_ ^ 2 - 2 x_4_ * x_3_ + 1 x_4_ ^ 2 + 1 y_3_ ^ 2 - 2 y_4_ * y_3_ + 1 y_4_ ^ 2 ] <= 34923.78
quadratic_ranged_2_ub: [ 1 x_1_ ^ 2 - 2 x_5_ * x_1_ + 1 x_5_ ^ 2 + 1 y_1_ ^ 2 - 2 y_5_ * y_1_ + 1 y_5_ ^ 2 ] <= 3880.42
quadratic_ranged_3_ub: [ 1 x_4_ ^ 2 - 2 x_5_ * x_4_ + 1 x_5_ ^ 2 + 1 y_4_ ^ 2 - 2 y_5_ * y_4_ + 1 y_5_ ^ 2 ] <= 10594.9
quadratic_ranged_4_ub: [ 1 x_1_ ^ 2 - 2 x_6_ * x_1_ + 1 x_6_ ^ 2 + 1 y_1_ ^ 2 - 2 y_6_ * y_1_ + 1 y_6_ ^ 2 ] <= 8607.22
quadratic_ranged_5_ub: [ 1 x_4_ ^ 2 - 2 x_6_ * x_4_ + 1 x_6_ ^ 2 + 1 y_4_ ^ 2 - 2 y_6_ * y_4_ + 1 y_6_ ^ 2 ] <= 22472.5
quadratic_ranged_6_ub: [ 1 x_5_ ^ 2 - 2 x_7_ * x_5_ + 1 x_7_ ^ 2 + 1 y_5_ ^ 2 - 2 y_7_ * y_5_ + 1 y_7_ ^ 2 ] <= 1106.96
quadratic_ranged_7_ub: [ 1 x_4_ ^ 2 - 2 x_8_ * x_4_ + 1 x_8_ ^ 2 + 1 y_4_ ^ 2 - 2 y_8_ * y_4_ + 1 y_8_ ^ 2 ] <= 16856.9
quadratic_ranged_8_ub: [ 1 x_7_ ^ 2 - 2 x_10_ * x_7_ + 1 x_10_ ^ 2 + 1 y_7_ ^ 2 - 2 y_10_ * y_7_ + 1 y_10_ ^ 2 ] <= 1932.13
quadratic_ranged_9_ub: [ 1 x_2_ ^ 2 - 2 x_11_ * x_2_ + 1 x_11_ ^ 2 + 1 y_2_ ^ 2 - 2 y_11_ * y_2_ + 1 y_11_ ^ 2 ] <= 8389.06
quadratic_ranged_10_ub: [ 1 x_9_ ^ 2 - 2 x_11_ * x_9_ + 1 x_11_ ^ 2 + 1 y_9_ ^ 2 - 2 y_11_ * y_9_ + 1 y_11_ ^ 2 ] <= 32183.65
quadratic_ranged_11_ub: [ 1 x_9_ ^ 2 - 2 x_12_ * x_9_ + 1 x_12_ ^ 2 + 1 y_9_ ^ 2 - 2 y_12_ * y_9_ + 1 y_12_ ^ 2 ] <= 207.05
quadratic_ranged_12_ub: [ 1 x_7_ ^ 2 - 2 x_13_ * x_7_ + 1 x_13_ ^ 2 + 1 y_7_ ^ 2 - 2 y_13_ * y_7_ + 1 y_13_ ^ 2 ] <= 14230.9
quadratic_ranged_13_ub: [ 1 x_2_ ^ 2 - 2 x_14_ * x_2_ + 1 x_14_ ^ 2 + 1 y_2_ ^ 2 - 2 y_14_ * y_2_ + 1 y_14_ ^ 2 ] <= 6868
quadratic_ranged_14_ub: [ 1 x_12_ ^ 2 - 2 x_15_ * x_12_ + 1 x_15_ ^ 2 + 1 y_12_ ^ 2 - 2 y_15_ * y_12_ + 1 y_15_ ^ 2 ] <= 11139.29
quadratic_ranged_15_ub: [ 1 x_3_ ^ 2 - 2 x_16_ * x_3_ + 1 x_16_ ^ 2 + 1 y_3_ ^ 2 - 2 y_16_ * y_3_ + 1 y_16_ ^ 2 ] <= 22725
quadratic_ranged_16_ub: [ 1 x_6_ ^ 2 - 2 x_16_ * x_6_ + 1 x_16_ ^ 2 + 1 y_6_ ^ 2 - 2 y_16_ * y_6_ + 1 y_16_ ^ 2 ] <= 10891.84
quadratic_ranged_17_ub: [ 1 x_8_ ^ 2 - 2 x_16_ * x_8_ + 1 x_16_ ^ 2 + 1 y_8_ ^ 2 - 2 y_16_ * y_8_ + 1 y_16_ ^ 2 ] <= 9797
quadratic_ranged_18_ub: [ 1 x_3_ ^ 2 - 2 x_17_ * x_3_ + 1 x_17_ ^ 2 + 1 y_3_ ^ 2 - 2 y_17_ * y_3_ + 1 y_17_ ^ 2 ] <= 23101.73
quadratic_ranged_19_ub: [ 1 x_4_ ^ 2 - 2 x_17_ * x_4_ + 1 x_17_ ^ 2 + 1 y_4_ ^ 2 - 2 y_17_ * y_4_ + 1 y_17_ ^ 2 ] <= 2182.61
quadratic_ranged_20_ub: [ 1 x_13_ ^ 2 - 2 x_17_ * x_13_ + 1 x_17_ ^ 2 + 1 y_13_ ^ 2 - 2 y_17_ * y_13_ + 1 y_17_ ^ 2 ] <= 10412.09
quadratic_ranged_21_ub: [ 1 x_6_ ^ 2 - 2 x_18_ * x_6_ + 1 x_18_ ^ 2 + 1 y_6_ ^ 2 - 2 y_18_ * y_6_ + 1 y_18_ ^ 2 ] <= 20371.7
quadratic_ranged_22_ub: [ 1 x_11_ ^ 2 - 2 x_18_ * x_11_ + 1 x_18_ ^ 2 + 1 y_11_ ^ 2 - 2 y_18_ * y_11_ + 1 y_18_ ^ 2 ] <= 15032.84
quadratic_ranged_23_ub: [ 1 x_6_ ^ 2 - 2 x_19_ * x_6_ + 1 x_19_ ^ 2 + 1 y_6_ ^ 2 - 2 y_19_ * y_6_ + 1 y_19_ ^ 2 ] <= 4882.34
quadratic_ranged_24_ub: [ 1 x_7_ ^ 2 - 2 x_19_ * x_7_ + 1 x_19_ ^ 2 + 1 y_7_ ^ 2 - 2 y_19_ * y_7_ + 1 y_19_ ^ 2 ] <= 107.06
quadratic_ranged_25_ub: [ 1 x_14_ ^ 2 - 2 x_19_ * x_14_ + 1 x_19_ ^ 2 + 1 y_14_ ^ 2 - 2 y_19_ * y_14_ + 1 y_19_ ^ 2 ] <= 583.78
quadratic_ranged_26_ub: [ 1 x_15_ ^ 2 - 2 x_20_ * x_15_ + 1 x_20_ ^ 2 + 1 y_15_ ^ 2 - 2 y_20_ * y_15_ + 1 y_20_ ^ 2 ] <= 14871.24
quadratic_ranged_27_ub: [ 1 x_17_ ^ 2 - 2 x_20_ * x_17_ + 1 x_20_ ^ 2 + 1 y_17_ ^ 2 - 2 y_20_ * y_17_ + 1 y_20_ ^ 2 ] <= 4316.74
quadratic_ranged_28_ub: [ 1 x_1_ ^ 2 - 2 x_21_ * x_1_ + 1 x_21_ ^ 2 + 1 y_1_ ^ 2 - 2 y_21_ * y_1_ + 1 y_21_ ^ 2 ] <= 17716.41
quadratic_ranged_29_ub: [ 1 x_17_ ^ 2 - 2 x_21_ * x_17_ + 1 x_21_ ^ 2 + 1 y_17_ ^ 2 - 2 y_21_ * y_17_ + 1 y_21_ ^ 2 ] <= 1567.52
quadratic_ranged_30_ub: [ 1 x_11_ ^ 2 - 2 x_22_ * x_11_ + 1 x_22_ ^ 2 + 1 y_11_ ^ 2 - 2 y_22_ * y_11_ + 1 y_22_ ^ 2 ] <= 23474.420000000002
quadratic_ranged_31_ub: [ 1 x_14_ ^ 2 - 2 x_22_ * x_14_ + 1 x_22_ ^ 2 + 1 y_14_ ^ 2 - 2 y_22_ * y_14_ + 1 y_22_ ^ 2 ] <= 6924.56
quadratic_ranged_32_ub: [ 1 x_5_ ^ 2 - 2 x_23_ * x_5_ + 1 x_23_ ^ 2 + 1 y_5_ ^ 2 - 2 y_23_ * y_5_ + 1 y_23_ ^ 2 ] <= 300.98
quadratic_ranged_33_ub: [ 1 x_6_ ^ 2 - 2 x_24_ * x_6_ + 1 x_24_ ^ 2 + 1 y_6_ ^ 2 - 2 y_24_ * y_6_ + 1 y_24_ ^ 2 ] <= 12625
quadratic_ranged_34_ub: [ 1 x_6_ ^ 2 - 2 x_25_ * x_6_ + 1 x_25_ ^ 2 + 1 y_6_ ^ 2 - 2 y_25_ * y_6_ + 1 y_25_ ^ 2 ] <= 6627.62
quadratic_ranged_35_ub: [ 1 x_19_ ^ 2 - 2 x_25_ * x_19_ + 1 x_25_ ^ 2 + 1 y_19_ ^ 2 - 2 y_25_ * y_19_ + 1 y_25_ ^ 2 ] <= 363.6
quadratic_ranged_36_ub: [ 1 x_3_ ^ 2 - 2 x_26_ * x_3_ + 1 x_26_ ^ 2 + 1 y_3_ ^ 2 - 2 y_26_ * y_3_ + 1 y_26_ ^ 2 ] <= 2752.25
quadratic_ranged_37_ub: [ 1 x_6_ ^ 2 - 2 x_27_ * x_6_ + 1 x_27_ ^ 2 + 1 y_6_ ^ 2 - 2 y_27_ * y_6_ + 1 y_27_ ^ 2 ] <= 8008.29
quadratic_ranged_38_ub: [ 1 x_8_ ^ 2 - 2 x_27_ * x_8_ + 1 x_27_ ^ 2 + 1 y_8_ ^ 2 - 2 y_27_ * y_8_ + 1 y_27_ ^ 2 ] <= 6937.6900000000005
quadratic_ranged_39_ub: [ 1 x_12_ ^ 2 - 2 x_27_ * x_12_ + 1 x_27_ ^ 2 + 1 y_12_ ^ 2 - 2 y_27_ * y_12_ + 1 y_27_ ^ 2 ] <= 26390.29
quadratic_ranged_40_ub: [ 1 x_2_ ^ 2 - 2 x_28_ * x_2_ + 1 x_28_ ^ 2 + 1 y_2_ ^ 2 - 2 y_28_ * y_2_ + 1 y_28_ ^ 2 ] <= 15555.01
quadratic_ranged_41_ub: [ 1 x_14_ ^ 2 - 2 x_28_ * x_14_ + 1 x_28_ ^ 2 + 1 y_14_ ^ 2 - 2 y_28_ * y_14_ + 1 y_28_ ^ 2 ] <= 16605.41
quadratic_ranged_42_ub: [ 1 x_20_ ^ 2 - 2 x_28_ * x_20_ + 1 x_28_ ^ 2 + 1 y_20_ ^ 2 - 2 y_28_ * y_20_ + 1 y_28_ ^ 2 ] <= 17163.94
quadratic_ranged_43_ub: [ 1 x_12_ ^ 2 - 2 x_29_ * x_12_ + 1 x_29_ ^ 2 + 1 y_12_ ^ 2 - 2 y_29_ * y_12_ + 1 y_29_ ^ 2 ] <= 13660.25
quadratic_ranged_44_ub: [ 1 x_4_ ^ 2 - 2 x_30_ * x_4_ + 1 x_30_ ^ 2 + 1 y_4_ ^ 2 - 2 y_30_ * y_4_ + 1 y_30_ ^ 2 ] <= 16038.8
quadratic_ranged_45_ub: [ 1 x_27_ ^ 2 - 2 x_30_ * x_27_ + 1 x_30_ ^ 2 + 1 y_27_ ^ 2 - 2 y_30_ * y_27_ + 1 y_30_ ^ 2 ] <= 5568.13
quadratic_ranged_46_ub: [ 1 x_11_ ^ 2 - 2 x_31_ * x_11_ + 1 x_31_ ^ 2 + 1 y_11_ ^ 2 - 2 y_31_ * y_11_ + 1 y_31_ ^ 2 ] <= 2291.69
quadratic_ranged_47_ub: [ 1 x_20_ ^ 2 - 2 x_32_ * x_20_ + 1 x_32_ ^ 2 + 1 y_20_ ^ 2 - 2 y_32_ * y_20_ + 1 y_32_ ^ 2 ] <= 17118.49
quadratic_ranged_48_ub: [ 1 x_29_ ^ 2 - 2 x_32_ * x_29_ + 1 x_32_ ^ 2 + 1 y_29_ ^ 2 - 2 y_32_ * y_29_ + 1 y_32_ ^ 2 ] <= 3519.85
quadratic_ranged_49_ub: [ 1 x_30_ ^ 2 - 2 x_34_ * x_30_ + 1 x_34_ ^ 2 + 1 y_30_ ^ 2 - 2 y_34_ * y_30_ + 1 y_34_ ^ 2 ] <= 1253.41
quadratic_ranged_50_ub: [ 1 x_31_ ^ 2 - 2 x_34_ * x_31_ + 1 x_34_ ^ 2 + 1 y_31_ ^ 2 - 2 y_34_ * y_31_ + 1 y_34_ ^ 2 ] <= 8162.82
quadratic_ranged_51_ub: [ 1 x_12_ ^ 2 - 2 x_35_ * x_12_ + 1 x_35_ ^ 2 + 1 y_12_ ^ 2 - 2 y_35_ * y_12_ + 1 y_35_ ^ 2 ] <= 101
quadratic_ranged_52_ub: [ 1 x_17_ ^ 2 - 2 x_36_ * x_17_ + 1 x_36_ ^ 2 + 1 y_17_ ^ 2 - 2 y_36_ * y_17_ + 1 y_36_ ^ 2 ] <= 27265.96
quadratic_ranged_53_ub: [ 1 x_18_ ^ 2 - 2 x_36_ * x_18_ + 1 x_36_ ^ 2 + 1 y_18_ ^ 2 - 2 y_36_ * y_18_ + 1 y_36_ ^ 2 ] <= 25263.13
quadratic_ranged_54_ub: [ 1 x_21_ ^ 2 - 2 x_36_ * x_21_ + 1 x_36_ ^ 2 + 1 y_21_ ^ 2 - 2 y_36_ * y_21_ + 1 y_36_ ^ 2 ] <= 30562.6
quadratic_ranged_55_ub: [ 1 x_2_ ^ 2 - 2 x_37_ * x_2_ + 1 x_37_ ^ 2 + 1 y_2_ ^ 2 - 2 y_37_ * y_2_ + 1 y_37_ ^ 2 ] <= 1892.74
quadratic_ranged_56_ub: [ 1 x_25_ ^ 2 - 2 x_38_ * x_25_ + 1 x_38_ ^ 2 + 1 y_25_ ^ 2 - 2 y_38_ * y_25_ + 1 y_38_ ^ 2 ] <= 23199.7
quadratic_ranged_57_ub: [ 1 x_26_ ^ 2 - 2 x_38_ * x_26_ + 1 x_38_ ^ 2 + 1 y_26_ ^ 2 - 2 y_38_ * y_26_ + 1 y_38_ ^ 2 ] <= 23820.85
quadratic_ranged_58_ub: [ 1 x_7_ ^ 2 - 2 x_39_ * x_7_ + 1 x_39_ ^ 2 + 1 y_7_ ^ 2 - 2 y_39_ * y_7_ + 1 y_39_ ^ 2 ] <= 5609.54
quadratic_ranged_59_ub: [ 1 x_18_ ^ 2 - 2 x_39_ * x_18_ + 1 x_39_ ^ 2 + 1 y_18_ ^ 2 - 2 y_39_ * y_18_ + 1 y_39_ ^ 2 ] <= 18394.12
quadratic_ranged_60_ub: [ 1 x_24_ ^ 2 - 2 x_39_ * x_24_ + 1 x_39_ ^ 2 + 1 y_24_ ^ 2 - 2 y_39_ * y_24_ + 1 y_39_ ^ 2 ] <= 8380.98
quadratic_ranged_61_ub: [ 1 x_10_ ^ 2 - 2 x_40_ * x_10_ + 1 x_40_ ^ 2 + 1 y_10_ ^ 2 - 2 y_40_ * y_10_ + 1 y_40_ ^ 2 ] <= 11316.04
quadratic_ranged_62_ub: [ 1 x_14_ ^ 2 - 2 x_40_ * x_14_ + 1 x_40_ ^ 2 + 1 y_14_ ^ 2 - 2 y_40_ * y_14_ + 1 y_40_ ^ 2 ] <= 8994.05
quadratic_ranged_63_ub: [ 1 x_18_ ^ 2 - 2 x_40_ * x_18_ + 1 x_40_ ^ 2 + 1 y_18_ ^ 2 - 2 y_40_ * y_18_ + 1 y_40_ ^ 2 ] <= 1641.25
quadratic_ranged_64_ub: [ 1 x_3_ ^ 2 - 2 x_41_ * x_3_ + 1 x_41_ ^ 2 + 1 y_3_ ^ 2 - 2 y_41_ * y_3_ + 1 y_41_ ^ 2 ] <= 22399.78
quadratic_ranged_65_ub: [ 1 x_30_ ^ 2 - 2 x_41_ * x_30_ + 1 x_41_ ^ 2 + 1 y_30_ ^ 2 - 2 y_41_ * y_30_ + 1 y_41_ ^ 2 ] <= 6936.68
quadratic_ranged_66_ub: [ 1 x_33_ ^ 2 - 2 x_41_ * x_33_ + 1 x_41_ ^ 2 + 1 y_33_ ^ 2 - 2 y_41_ * y_33_ + 1 y_41_ ^ 2 ] <= 11055.460000000001
quadratic_ranged_67_ub: [ 1 x_6_ ^ 2 - 2 x_42_ * x_6_ + 1 x_42_ ^ 2 + 1 y_6_ ^ 2 - 2 y_42_ * y_6_ + 1 y_42_ ^ 2 ] <= 5095.45
quadratic_ranged_68_ub: [ 1 x_14_ ^ 2 - 2 x_42_ * x_14_ + 1 x_42_ ^ 2 + 1 y_14_ ^ 2 - 2 y_42_ * y_14_ + 1 y_42_ ^ 2 ] <= 12133.13
quadratic_ranged_69_ub: [ 1 x_41_ ^ 2 - 2 x_42_ * x_41_ + 1 x_42_ ^ 2 + 1 y_41_ ^ 2 - 2 y_42_ * y_41_ + 1 y_42_ ^ 2 ] <= 13660.25
quadratic_ranged_70_ub: [ 1 x_12_ ^ 2 - 2 x_43_ * x_12_ + 1 x_43_ ^ 2 + 1 y_12_ ^ 2 - 2 y_43_ * y_12_ + 1 y_43_ ^ 2 ] <= 5834.77
quadratic_ranged_71_ub: [ 1 x_20_ ^ 2 - 2 x_43_ * x_20_ + 1 x_43_ ^ 2 + 1 y_20_ ^ 2 - 2 y_43_ * y_20_ + 1 y_43_ ^ 2 ] <= 10142.42
quadratic_ranged_72_ub: [ 1 x_23_ ^ 2 - 2 x_44_ * x_23_ + 1 x_44_ ^ 2 + 1 y_23_ ^ 2 - 2 y_44_ * y_23_ + 1 y_44_ ^ 2 ] <= 861.53
quadratic_ranged_73_ub: [ 1 x_43_ ^ 2 - 2 x_44_ * x_43_ + 1 x_44_ ^ 2 + 1 y_43_ ^ 2 - 2 y_44_ * y_43_ + 1 y_44_ ^ 2 ] <= 745.38
quadratic_ranged_74_ub: [ 1 x_32_ ^ 2 - 2 x_45_ * x_32_ + 1 x_45_ ^ 2 + 1 y_32_ ^ 2 - 2 y_45_ * y_32_ + 1 y_45_ ^ 2 ] <= 4670.24
quadratic_ranged_75_ub: [ 1 x_37_ ^ 2 - 2 x_45_ * x_37_ + 1 x_45_ ^ 2 + 1 y_37_ ^ 2 - 2 y_45_ * y_37_ + 1 y_45_ ^ 2 ] <= 2282.6
quadratic_ranged_76_ub: [ 1 x_41_ ^ 2 - 2 x_45_ * x_41_ + 1 x_45_ ^ 2 + 1 y_41_ ^ 2 - 2 y_45_ * y_41_ + 1 y_45_ ^ 2 ] <= 202
quadratic_ranged_77_ub: [ 1 x_37_ ^ 2 - 2 x_46_ * x_37_ + 1 x_46_ ^ 2 + 1 y_37_ ^ 2 - 2 y_46_ * y_37_ + 1 y_46_ ^ 2 ] <= 4186.45
quadratic_ranged_78_ub: [ 1 x_3_ ^ 2 - 2 x_47_ * x_3_ + 1 x_47_ ^ 2 + 1 y_3_ ^ 2 - 2 y_47_ * y_3_ + 1 y_47_ ^ 2 ] <= 40210.12
quadratic_ranged_79_ub: [ 1 x_3_ ^ 2 - 2 x_48_ * x_3_ + 1 x_48_ ^ 2 + 1 y_3_ ^ 2 - 2 y_48_ * y_3_ + 1 y_48_ ^ 2 ] <= 32547.25
quadratic_ranged_80_ub: [ 1 x_11_ ^ 2 - 2 x_48_ * x_11_ + 1 x_48_ ^ 2 + 1 y_11_ ^ 2 - 2 y_48_ * y_11_ + 1 y_48_ ^ 2 ] <= 4739.93
quadratic_ranged_81_ub: [ 1 x_15_ ^ 2 - 2 x_48_ * x_15_ + 1 x_48_ ^ 2 + 1 y_15_ ^ 2 - 2 y_48_ * y_15_ + 1 y_48_ ^ 2 ] <= 165.64000000000001
quadratic_ranged_82_ub: [ 1 x_39_ ^ 2 - 2 x_49_ * x_39_ + 1 x_49_ ^ 2 + 1 y_39_ ^ 2 - 2 y_49_ * y_39_ + 1 y_49_ ^ 2 ] <= 19126.37
quadratic_ranged_83_ub: [ 1 x_44_ ^ 2 - 2 x_49_ * x_44_ + 1 x_49_ ^ 2 + 1 y_44_ ^ 2 - 2 y_49_ * y_44_ + 1 y_49_ ^ 2 ] <= 5983.24
quadratic_ranged_84_ub: [ 1 x_42_ ^ 2 - 2 x_50_ * x_42_ + 1 x_50_ ^ 2 + 1 y_42_ ^ 2 - 2 y_50_ * y_42_ + 1 y_50_ ^ 2 ] <= 4534.9
quadratic_ranged_85_ub: [ 1 x_44_ ^ 2 - 2 x_50_ * x_44_ + 1 x_50_ ^ 2 + 1 y_44_ ^ 2 - 2 y_50_ * y_44_ + 1 y_50_ ^ 2 ] <= 6676.1
quadratic_ranged_86_ub: [ 1 x_22_ ^ 2 - 2 x_51_ * x_22_ + 1 x_51_ ^ 2 + 1 y_22_ ^ 2 - 2 y_51_ * y_22_ + 1 y_51_ ^ 2 ] <= 85.85
quadratic_ranged_87_ub: [ 1 x_38_ ^ 2 - 2 x_51_ * x_38_ + 1 x_51_ ^ 2 + 1 y_38_ ^ 2 - 2 y_51_ * y_38_ + 1 y_51_ ^ 2 ] <= 3325.93
quadratic_ranged_88_ub: [ 1 x_50_ ^ 2 - 2 x_52_ * x_50_ + 1 x_52_ ^ 2 + 1 y_50_ ^ 2 - 2 y_52_ * y_50_ + 1 y_52_ ^ 2 ] <= 6630.65
quadratic_ranged_89_ub: [ 1 x_26_ ^ 2 - 2 x_53_ * x_26_ + 1 x_53_ ^ 2 + 1 y_26_ ^ 2 - 2 y_53_ * y_26_ + 1 y_53_ ^ 2 ] <= 3156.25
quadratic_ranged_90_ub: [ 1 x_18_ ^ 2 - 2 x_54_ * x_18_ + 1 x_54_ ^ 2 + 1 y_18_ ^ 2 - 2 y_54_ * y_18_ + 1 y_54_ ^ 2 ] <= 14302.61
quadratic_ranged_91_ub: [ 1 x_30_ ^ 2 - 2 x_55_ * x_30_ + 1 x_55_ ^ 2 + 1 y_30_ ^ 2 - 2 y_55_ * y_30_ + 1 y_55_ ^ 2 ] <= 20023.25
quadratic_ranged_92_ub: [ 1 x_43_ ^ 2 - 2 x_55_ * x_43_ + 1 x_55_ ^ 2 + 1 y_43_ ^ 2 - 2 y_55_ * y_43_ + 1 y_55_ ^ 2 ] <= 14352.1
quadratic_ranged_93_ub: [ 1 x_52_ ^ 2 - 2 x_55_ * x_52_ + 1 x_55_ ^ 2 + 1 y_52_ ^ 2 - 2 y_55_ * y_52_ + 1 y_55_ ^ 2 ] <= 31460.49
quadratic_ranged_94_ub: [ 1 x_1_ ^ 2 - 2 x_56_ * x_1_ + 1 x_56_ ^ 2 + 1 y_1_ ^ 2 - 2 y_56_ * y_1_ + 1 y_56_ ^ 2 ] <= 20200
quadratic_ranged_95_ub: [ 1 x_28_ ^ 2 - 2 x_56_ * x_28_ + 1 x_56_ ^ 2 + 1 y_28_ ^ 2 - 2 y_56_ * y_28_ + 1 y_56_ ^ 2 ] <= 9478.85
quadratic_ranged_96_ub: [ 1 x_53_ ^ 2 - 2 x_56_ * x_53_ + 1 x_56_ ^ 2 + 1 y_53_ ^ 2 - 2 y_56_ * y_53_ + 1 y_56_ ^ 2 ] <= 9342.5
quadratic_ranged_97_ub: [ 1 x_42_ ^ 2 - 2 x_57_ * x_42_ + 1 x_57_ ^ 2 + 1 y_42_ ^ 2 - 2 y_57_ * y_42_ + 1 y_57_ ^ 2 ] <= 1076.66
quadratic_ranged_98_ub: [ 1 x_17_ ^ 2 - 2 x_58_ * x_17_ + 1 x_58_ ^ 2 + 1 y_17_ ^ 2 - 2 y_58_ * y_17_ + 1 y_58_ ^ 2 ] <= 14706.61
quadratic_ranged_99_ub: [ 1 x_51_ ^ 2 - 2 x_58_ * x_51_ + 1 x_58_ ^ 2 + 1 y_51_ ^ 2 - 2 y_58_ * y_51_ + 1 y_58_ ^ 2 ] <= 392.89
quadratic_ranged_100_ub: [ 1 x_2_ ^ 2 - 2 x_59_ * x_2_ + 1 x_59_ ^ 2 + 1 y_2_ ^ 2 - 2 y_59_ * y_2_ + 1 y_59_ ^ 2 ] <= 11680.65
quadratic_ranged_101_ub: [ 1 x_58_ ^ 2 - 2 x_59_ * x_58_ + 1 x_59_ ^ 2 + 1 y_58_ ^ 2 - 2 y_59_ * y_58_ + 1 y_59_ ^ 2 ] <= 15724.69
quadratic_ranged_102_ub: [ 1 x_25_ ^ 2 - 2 x_60_ * x_25_ + 1 x_60_ ^ 2 + 1 y_25_ ^ 2 - 2 y_60_ * y_25_ + 1 y_60_ ^ 2 ] <= 9251.6
quadratic_ranged_103_ub: [ 1 x_31_ ^ 2 - 2 x_60_ * x_31_ + 1 x_60_ ^ 2 + 1 y_31_ ^ 2 - 2 y_60_ * y_31_ + 1 y_60_ ^ 2 ] <= 946.37
quadratic_ranged_104_ub: [ 1 x_35_ ^ 2 - 2 x_61_ * x_35_ + 1 x_61_ ^ 2 + 1 y_35_ ^ 2 - 2 y_61_ * y_35_ + 1 y_61_ ^ 2 ] <= 8534.5
quadratic_ranged_105_ub: [ 1 x_57_ ^ 2 - 2 x_61_ * x_57_ + 1 x_61_ ^ 2 + 1 y_57_ ^ 2 - 2 y_61_ * y_57_ + 1 y_61_ ^ 2 ] <= 4481.37
quadratic_ranged_106_ub: [ 1 x_17_ ^ 2 - 2 x_62_ * x_17_ + 1 x_62_ ^ 2 + 1 y_17_ ^ 2 - 2 y_62_ * y_17_ + 1 y_62_ ^ 2 ] <= 5094.44
quadratic_ranged_107_ub: [ 1 x_32_ ^ 2 - 2 x_62_ * x_32_ + 1 x_62_ ^ 2 + 1 y_32_ ^ 2 - 2 y_62_ * y_32_ + 1 y_62_ ^ 2 ] <= 18411.29
quadratic_ranged_108_ub: [ 1 x_16_ ^ 2 - 2 x_63_ * x_16_ + 1 x_63_ ^ 2 + 1 y_16_ ^ 2 - 2 y_63_ * y_16_ + 1 y_63_ ^ 2 ] <= 10885.78
quadratic_ranged_109_ub: [ 1 x_48_ ^ 2 - 2 x_63_ * x_48_ + 1 x_63_ ^ 2 + 1 y_48_ ^ 2 - 2 y_63_ * y_48_ + 1 y_63_ ^ 2 ] <= 170.69
quadratic_ranged_110_ub: [ 1 x_52_ ^ 2 - 2 x_63_ * x_52_ + 1 x_63_ ^ 2 + 1 y_52_ ^ 2 - 2 y_63_ * y_52_ + 1 y_63_ ^ 2 ] <= 22941.14
quadratic_ranged_111_ub: [ 1 x_2_ ^ 2 - 2 x_64_ * x_2_ + 1 x_64_ ^ 2 + 1 y_2_ ^ 2 - 2 y_64_ * y_2_ + 1 y_64_ ^ 2 ] <= 15663.08
quadratic_ranged_112_ub: [ 1 x_6_ ^ 2 - 2 x_64_ * x_6_ + 1 x_64_ ^ 2 + 1 y_6_ ^ 2 - 2 y_64_ * y_6_ + 1 y_64_ ^ 2 ] <= 10544.4
quadratic_ranged_113_ub: [ 1 x_36_ ^ 2 - 2 x_65_ * x_36_ + 1 x_65_ ^ 2 + 1 y_36_ ^ 2 - 2 y_65_ * y_36_ + 1 y_65_ ^ 2 ] <= 19789.94
quadratic_ranged_114_ub: [ 1 x_40_ ^ 2 - 2 x_65_ * x_40_ + 1 x_65_ ^ 2 + 1 y_40_ ^ 2 - 2 y_65_ * y_40_ + 1 y_65_ ^ 2 ] <= 26453.920000000002
quadratic_ranged_115_ub: [ 1 x_28_ ^ 2 - 2 x_66_ * x_28_ + 1 x_66_ ^ 2 + 1 y_28_ ^ 2 - 2 y_66_ * y_28_ + 1 y_66_ ^ 2 ] <= 36854.9
quadratic_ranged_116_ub: [ 1 x_55_ ^ 2 - 2 x_66_ * x_55_ + 1 x_66_ ^ 2 + 1 y_55_ ^ 2 - 2 y_66_ * y_55_ + 1 y_66_ ^ 2 ] <= 40755.52
quadratic_ranged_117_ub: [ 1 x_24_ ^ 2 - 2 x_67_ * x_24_ + 1 x_67_ ^ 2 + 1 y_24_ ^ 2 - 2 y_67_ * y_24_ + 1 y_67_ ^ 2 ] <= 14052.130000000001
quadratic_ranged_118_ub: [ 1 x_53_ ^ 2 - 2 x_67_ * x_53_ + 1 x_67_ ^ 2 + 1 y_53_ ^ 2 - 2 y_67_ * y_53_ + 1 y_67_ ^ 2 ] <= 3394.61
quadratic_ranged_119_ub: [ 1 x_64_ ^ 2 - 2 x_67_ * x_64_ + 1 x_67_ ^ 2 + 1 y_64_ ^ 2 - 2 y_67_ * y_64_ + 1 y_67_ ^ 2 ] <= 2845.17
quadratic_ranged_120_ub: [ 1 x_14_ ^ 2 - 2 x_68_ * x_14_ + 1 x_68_ ^ 2 + 1 y_14_ ^ 2 - 2 y_68_ * y_14_ + 1 y_68_ ^ 2 ] <= 849.41
quadratic_ranged_121_ub: [ 1 x_41_ ^ 2 - 2 x_68_ * x_41_ + 1 x_68_ ^ 2 + 1 y_41_ ^ 2 - 2 y_68_ * y_41_ + 1 y_68_ ^ 2 ] <= 6715.49
quadratic_ranged_122_ub: [ 1 x_4_ ^ 2 - 2 x_69_ * x_4_ + 1 x_69_ ^ 2 + 1 y_4_ ^ 2 - 2 y_69_ * y_4_ + 1 y_69_ ^ 2 ] <= 10382.8
quadratic_ranged_123_ub: [ 1 x_56_ ^ 2 - 2 x_69_ * x_56_ + 1 x_69_ ^ 2 + 1 y_56_ ^ 2 - 2 y_69_ * y_56_ + 1 y_69_ ^ 2 ] <= 1454.4
quadratic_ranged_124_ub: [ 1 x_22_ ^ 2 - 2 x_70_ * x_22_ + 1 x_70_ ^ 2 + 1 y_22_ ^ 2 - 2 y_70_ * y_22_ + 1 y_70_ ^ 2 ] <= 28320.4
quadratic_ranged_125_ub: [ 1 x_29_ ^ 2 - 2 x_70_ * x_29_ + 1 x_70_ ^ 2 + 1 y_29_ ^ 2 - 2 y_70_ * y_29_ + 1 y_70_ ^ 2 ] <= 10593.89
quadratic_ranged_126_ub: [ 1 x_1_ ^ 2 - 2 x_71_ * x_1_ + 1 x_71_ ^ 2 + 1 y_1_ ^ 2 - 2 y_71_ * y_1_ + 1 y_71_ ^ 2 ] <= 4201.6
quadratic_ranged_127_ub: [ 1 x_20_ ^ 2 - 2 x_71_ * x_20_ + 1 x_71_ ^ 2 + 1 y_20_ ^ 2 - 2 y_71_ * y_20_ + 1 y_71_ ^ 2 ] <= 3540.05
quadratic_ranged_128_ub: [ 1 x_2_ ^ 2 - 2 x_72_ * x_2_ + 1 x_72_ ^ 2 + 1 y_2_ ^ 2 - 2 y_72_ * y_2_ + 1 y_72_ ^ 2 ] <= 33440.090000000004
quadratic_ranged_129_ub: [ 1 x_7_ ^ 2 - 2 x_72_ * x_7_ + 1 x_72_ ^ 2 + 1 y_7_ ^ 2 - 2 y_72_ * y_7_ + 1 y_72_ ^ 2 ] <= 19821.25
quadratic_ranged_130_ub: [ 1 x_62_ ^ 2 - 2 x_72_ * x_62_ + 1 x_72_ ^ 2 + 1 y_62_ ^ 2 - 2 y_72_ * y_62_ + 1 y_72_ ^ 2 ] <= 25761.06
quadratic_ranged_131_ub: [ 1 x_53_ ^ 2 - 2 x_73_ * x_53_ + 1 x_73_ ^ 2 + 1 y_53_ ^ 2 - 2 y_73_ * y_53_ + 1 y_73_ ^ 2 ] <= 171.7
quadratic_ranged_132_ub: [ 1 x_60_ ^ 2 - 2 x_73_ * x_60_ + 1 x_73_ ^ 2 + 1 y_60_ ^ 2 - 2 y_73_ * y_60_ + 1 y_73_ ^ 2 ] <= 9069.8
quadratic_ranged_133_ub: [ 1 x_32_ ^ 2 - 2 x_74_ * x_32_ + 1 x_74_ ^ 2 + 1 y_32_ ^ 2 - 2 y_74_ * y_32_ + 1 y_74_ ^ 2 ] <= 29593
quadratic_ranged_134_ub: [ 1 x_54_ ^ 2 - 2 x_74_ * x_54_ + 1 x_74_ ^ 2 + 1 y_54_ ^ 2 - 2 y_74_ * y_54_ + 1 y_74_ ^ 2 ] <= 26063.05
quadratic_ranged_135_ub: [ 1 x_71_ ^ 2 - 2 x_74_ * x_71_ + 1 x_74_ ^ 2 + 1 y_71_ ^ 2 - 2 y_74_ * y_71_ + 1 y_74_ ^ 2 ] <= 5082.32
quadratic_ranged_136_ub: [ 1 x_19_ ^ 2 - 2 x_75_ * x_19_ + 1 x_75_ ^ 2 + 1 y_19_ ^ 2 - 2 y_75_ * y_19_ + 1 y_75_ ^ 2 ] <= 9078.89
quadratic_ranged_137_ub: [ 1 x_55_ ^ 2 - 2 x_75_ * x_55_ + 1 x_75_ ^ 2 + 1 y_55_ ^ 2 - 2 y_75_ * y_55_ + 1 y_75_ ^ 2 ] <= 2731.04
quadratic_ranged_138_ub: [ 1 x_14_ ^ 2 - 2 x_76_ * x_14_ + 1 x_76_ ^ 2 + 1 y_14_ ^ 2 - 2 y_76_ * y_14_ + 1 y_76_ ^ 2 ] <= 25540.88
quadratic_ranged_139_ub: [ 1 x_36_ ^ 2 - 2 x_76_ * x_36_ + 1 x_76_ ^ 2 + 1 y_36_ ^ 2 - 2 y_76_ * y_36_ + 1 y_76_ ^ 2 ] <= 27214.45
quadratic_ranged_140_ub: [ 1 x_16_ ^ 2 - 2 x_77_ * x_16_ + 1 x_77_ ^ 2 + 1 y_16_ ^ 2 - 2 y_77_ * y_16_ + 1 y_77_ ^ 2 ] <= 11563.49
quadratic_ranged_141_ub: [ 1 x_23_ ^ 2 - 2 x_77_ * x_23_ + 1 x_77_ ^ 2 + 1 y_23_ ^ 2 - 2 y_77_ * y_23_ + 1 y_77_ ^ 2 ] <= 8735.49
quadratic_ranged_142_ub: [ 1 x_9_ ^ 2 - 2 x_78_ * x_9_ + 1 x_78_ ^ 2 + 1 y_9_ ^ 2 - 2 y_78_ * y_9_ + 1 y_78_ ^ 2 ] <= 22432.1
quadratic_ranged_143_ub: [ 1 x_59_ ^ 2 - 2 x_78_ * x_59_ + 1 x_78_ ^ 2 + 1 y_59_ ^ 2 - 2 y_78_ * y_59_ + 1 y_78_ ^ 2 ] <= 2652.26
quadratic_ranged_144_ub: [ 1 x_5_ ^ 2 - 2 x_79_ * x_5_ + 1 x_79_ ^ 2 + 1 y_5_ ^ 2 - 2 y_79_ * y_5_ + 1 y_79_ ^ 2 ] <= 10024.25
quadratic_ranged_145_ub: [ 1 x_46_ ^ 2 - 2 x_79_ * x_46_ + 1 x_79_ ^ 2 + 1 y_46_ ^ 2 - 2 y_79_ * y_46_ + 1 y_79_ ^ 2 ] <= 30956.5
quadratic_ranged_146_ub: [ 1 x_53_ ^ 2 - 2 x_79_ * x_53_ + 1 x_79_ ^ 2 + 1 y_53_ ^ 2 - 2 y_79_ * y_53_ + 1 y_79_ ^ 2 ] <= 5063.13
quadratic_ranged_147_ub: [ 1 x_6_ ^ 2 - 2 x_80_ * x_6_ + 1 x_80_ ^ 2 + 1 y_6_ ^ 2 - 2 y_80_ * y_6_ + 1 y_80_ ^ 2 ] <= 6668.02
quadratic_ranged_148_ub: [ 1 x_12_ ^ 2 - 2 x_80_ * x_12_ + 1 x_80_ ^ 2 + 1 y_12_ ^ 2 - 2 y_80_ * y_12_ + 1 y_80_ ^ 2 ] <= 20624.2
quadratic_ranged_149_ub: [ 1 x_72_ ^ 2 - 2 x_80_ * x_72_ + 1 x_80_ ^ 2 + 1 y_72_ ^ 2 - 2 y_80_ * y_72_ + 1 y_80_ ^ 2 ] <= 16427.65
quadratic_ranged_150_ub: [ 1 x_13_ ^ 2 - 2 x_81_ * x_13_ + 1 x_81_ ^ 2 + 1 y_13_ ^ 2 - 2 y_81_ * y_13_ + 1 y_81_ ^ 2 ] <= 18427.45
quadratic_ranged_151_ub: [ 1 x_33_ ^ 2 - 2 x_81_ * x_33_ + 1 x_81_ ^ 2 + 1 y_33_ ^ 2 - 2 y_81_ * y_33_ + 1 y_81_ ^ 2 ] <= 5418.65
quadratic_ranged_152_ub: [ 1 x_46_ ^ 2 - 2 x_81_ * x_46_ + 1 x_81_ ^ 2 + 1 y_46_ ^ 2 - 2 y_81_ * y_46_ + 1 y_81_ ^ 2 ] <= 3201.7
quadratic_ranged_153_ub: [ 1 x_8_ ^ 2 - 2 x_83_ * x_8_ + 1 x_83_ ^ 2 + 1 y_8_ ^ 2 - 2 y_83_ * y_8_ + 1 y_83_ ^ 2 ] <= 8445.62
quadratic_ranged_154_ub: [ 1 x_35_ ^ 2 - 2 x_83_ * x_35_ + 1 x_83_ ^ 2 + 1 y_35_ ^ 2 - 2 y_83_ * y_35_ + 1 y_83_ ^ 2 ] <= 21525.12
quadratic_ranged_155_ub: [ 1 x_39_ ^ 2 - 2 x_83_ * x_39_ + 1 x_83_ ^ 2 + 1 y_39_ ^ 2 - 2 y_83_ * y_39_ + 1 y_83_ ^ 2 ] <= 505
quadratic_ranged_156_ub: [ 1 x_3_ ^ 2 - 2 x_84_ * x_3_ + 1 x_84_ ^ 2 + 1 y_3_ ^ 2 - 2 y_84_ * y_3_ + 1 y_84_ ^ 2 ] <= 29671.78
quadratic_ranged_157_ub: [ 1 x_10_ ^ 2 - 2 x_84_ * x_10_ + 1 x_84_ ^ 2 + 1 y_10_ ^ 2 - 2 y_84_ * y_10_ + 1 y_84_ ^ 2 ] <= 21736.21
quadratic_ranged_158_ub: [ 1 x_68_ ^ 2 - 2 x_84_ * x_68_ + 1 x_84_ ^ 2 + 1 y_68_ ^ 2 - 2 y_84_ * y_68_ + 1 y_84_ ^ 2 ] <= 13349.17
quadratic_ranged_159_ub: [ 1 x_24_ ^ 2 - 2 x_85_ * x_24_ + 1 x_85_ ^ 2 + 1 y_24_ ^ 2 - 2 y_85_ * y_24_ + 1 y_85_ ^ 2 ] <= 7863.86
quadratic_ranged_160_ub: [ 1 x_76_ ^ 2 - 2 x_85_ * x_76_ + 1 x_85_ ^ 2 + 1 y_76_ ^ 2 - 2 y_85_ * y_76_ + 1 y_85_ ^ 2 ] <= 51608.98
quadratic_ranged_161_ub: [ 1 x_7_ ^ 2 - 2 x_86_ * x_7_ + 1 x_86_ ^ 2 + 1 y_7_ ^ 2 - 2 y_86_ * y_7_ + 1 y_86_ ^ 2 ] <= 2158.37
quadratic_ranged_162_ub: [ 1 x_27_ ^ 2 - 2 x_86_ * x_27_ + 1 x_86_ ^ 2 + 1 y_27_ ^ 2 - 2 y_86_ * y_27_ + 1 y_86_ ^ 2 ] <= 2870.42
quadratic_ranged_163_ub: [ 1 x_29_ ^ 2 - 2 x_86_ * x_29_ + 1 x_86_ ^ 2 + 1 y_29_ ^ 2 - 2 y_86_ * y_29_ + 1 y_86_ ^ 2 ] <= 12645.2
quadratic_ranged_164_ub: [ 1 x_15_ ^ 2 - 2 x_87_ * x_15_ + 1 x_87_ ^ 2 + 1 y_15_ ^ 2 - 2 y_87_ * y_15_ + 1 y_87_ ^ 2 ] <= 5463.09
quadratic_ranged_165_ub: [ 1 x_54_ ^ 2 - 2 x_87_ * x_54_ + 1 x_87_ ^ 2 + 1 y_54_ ^ 2 - 2 y_87_ * y_54_ + 1 y_87_ ^ 2 ] <= 2804.77
quadratic_ranged_166_ub: [ 1 x_82_ ^ 2 - 2 x_87_ * x_82_ + 1 x_87_ ^ 2 + 1 y_82_ ^ 2 - 2 y_87_ * y_82_ + 1 y_87_ ^ 2 ] <= 6918.5
quadratic_ranged_167_ub: [ 1 x_21_ ^ 2 - 2 x_88_ * x_21_ + 1 x_88_ ^ 2 + 1 y_21_ ^ 2 - 2 y_88_ * y_21_ + 1 y_88_ ^ 2 ] <= 24899.53
quadratic_ranged_168_ub: [ 1 x_35_ ^ 2 - 2 x_88_ * x_35_ + 1 x_88_ ^ 2 + 1 y_35_ ^ 2 - 2 y_88_ * y_35_ + 1 y_88_ ^ 2 ] <= 56731.7
quadratic_ranged_169_ub: [ 1 x_16_ ^ 2 - 2 x_89_ * x_16_ + 1 x_89_ ^ 2 + 1 y_16_ ^ 2 - 2 y_89_ * y_16_ + 1 y_89_ ^ 2 ] <= 28090.12
quadratic_ranged_170_ub: [ 1 x_32_ ^ 2 - 2 x_89_ * x_32_ + 1 x_89_ ^ 2 + 1 y_32_ ^ 2 - 2 y_89_ * y_32_ + 1 y_89_ ^ 2 ] <= 23135.06
quadratic_ranged_171_ub: [ 1 x_47_ ^ 2 - 2 x_89_ * x_47_ + 1 x_89_ ^ 2 + 1 y_47_ ^ 2 - 2 y_89_ * y_47_ + 1 y_89_ ^ 2 ] <= 27960.84
quadratic_ranged_172_ub: [ 1 x_52_ ^ 2 - 2 x_90_ * x_52_ + 1 x_90_ ^ 2 + 1 y_52_ ^ 2 - 2 y_90_ * y_52_ + 1 y_90_ ^ 2 ] <= 24993.46
quadratic_ranged_173_ub: [ 1 x_57_ ^ 2 - 2 x_90_ * x_57_ + 1 x_90_ ^ 2 + 1 y_57_ ^ 2 - 2 y_90_ * y_57_ + 1 y_90_ ^ 2 ] <= 16900.33
quadratic_ranged_174_ub: [ 1 x_58_ ^ 2 - 2 x_90_ * x_58_ + 1 x_90_ ^ 2 + 1 y_58_ ^ 2 - 2 y_90_ * y_58_ + 1 y_90_ ^ 2 ] <= 28290.1
quadratic_ranged_175_ub: [ 1 x_16_ ^ 2 - 2 x_91_ * x_16_ + 1 x_91_ ^ 2 + 1 y_16_ ^ 2 - 2 y_91_ * y_16_ + 1 y_91_ ^ 2 ] <= 24290.5
quadratic_ranged_176_ub: [ 1 x_25_ ^ 2 - 2 x_91_ * x_25_ + 1 x_91_ ^ 2 + 1 y_25_ ^ 2 - 2 y_91_ * y_25_ + 1 y_91_ ^ 2 ] <= 11833.16
quadratic_ranged_177_ub: [ 1 x_67_ ^ 2 - 2 x_92_ * x_67_ + 1 x_92_ ^ 2 + 1 y_67_ ^ 2 - 2 y_92_ * y_67_ + 1 y_92_ ^ 2 ] <= 6627.62
quadratic_ranged_178_ub: [ 1 x_73_ ^ 2 - 2 x_92_ * x_73_ + 1 x_92_ ^ 2 + 1 y_73_ ^ 2 - 2 y_92_ * y_73_ + 1 y_92_ ^ 2 ] <= 3071.41
quadratic_ranged_179_ub: [ 1 x_88_ ^ 2 - 2 x_92_ * x_88_ + 1 x_92_ ^ 2 + 1 y_88_ ^ 2 - 2 y_92_ * y_88_ + 1 y_92_ ^ 2 ] <= 41378.69
quadratic_ranged_180_ub: [ 1 x_40_ ^ 2 - 2 x_93_ * x_40_ + 1 x_93_ ^ 2 + 1 y_40_ ^ 2 - 2 y_93_ * y_40_ + 1 y_93_ ^ 2 ] <= 36760.97
quadratic_ranged_181_ub: [ 1 x_85_ ^ 2 - 2 x_93_ * x_85_ + 1 x_93_ ^ 2 + 1 y_85_ ^ 2 - 2 y_93_ * y_85_ + 1 y_93_ ^ 2 ] <= 32404.84
quadratic_ranged_182_ub: [ 1 x_5_ ^ 2 - 2 x_94_ * x_5_ + 1 x_94_ ^ 2 + 1 y_5_ ^ 2 - 2 y_94_ * y_5_ + 1 y_94_ ^ 2 ] <= 5786.29
quadratic_ranged_183_ub: [ 1 x_73_ ^ 2 - 2 x_94_ * x_73_ + 1 x_94_ ^ 2 + 1 y_73_ ^ 2 - 2 y_94_ * y_73_ + 1 y_94_ ^ 2 ] <= 4133.93
quadratic_ranged_184_ub: [ 1 x_82_ ^ 2 - 2 x_94_ * x_82_ + 1 x_94_ ^ 2 + 1 y_82_ ^ 2 - 2 y_94_ * y_82_ + 1 y_94_ ^ 2 ] <= 9818.210000000001
quadratic_ranged_185_ub: [ 1 x_52_ ^ 2 - 2 x_95_ * x_52_ + 1 x_95_ ^ 2 + 1 y_52_ ^ 2 - 2 y_95_ * y_52_ + 1 y_95_ ^ 2 ] <= 10504
quadratic_ranged_186_ub: [ 1 x_85_ ^ 2 - 2 x_95_ * x_85_ + 1 x_95_ ^ 2 + 1 y_85_ ^ 2 - 2 y_95_ * y_85_ + 1 y_95_ ^ 2 ] <= 3080.5
quadratic_ranged_187_ub: [ 1 x_37_ ^ 2 - 2 x_96_ * x_37_ + 1 x_96_ ^ 2 + 1 y_37_ ^ 2 - 2 y_96_ * y_37_ + 1 y_96_ ^ 2 ] <= 3026.97
quadratic_ranged_188_ub: [ 1 x_94_ ^ 2 - 2 x_96_ * x_94_ + 1 x_96_ ^ 2 + 1 y_94_ ^ 2 - 2 y_96_ * y_94_ + 1 y_96_ ^ 2 ] <= 26769.04
quadratic_ranged_189_ub: [ 1 x_5_ ^ 2 - 2 x_97_ * x_5_ + 1 x_97_ ^ 2 + 1 y_5_ ^ 2 - 2 y_97_ * y_5_ + 1 y_97_ ^ 2 ] <= 8489.05
quadratic_ranged_190_ub: [ 1 x_90_ ^ 2 - 2 x_97_ * x_90_ + 1 x_97_ ^ 2 + 1 y_90_ ^ 2 - 2 y_97_ * y_90_ + 1 y_97_ ^ 2 ] <= 20689.85
quadratic_ranged_191_ub: [ 1 x_23_ ^ 2 - 2 x_98_ * x_23_ + 1 x_98_ ^ 2 + 1 y_23_ ^ 2 - 2 y_98_ * y_23_ + 1 y_98_ ^ 2 ] <= 7374.01
quadratic_ranged_192_ub: [ 1 x_31_ ^ 2 - 2 x_98_ * x_31_ + 1 x_98_ ^ 2 + 1 y_31_ ^ 2 - 2 y_98_ * y_31_ + 1 y_98_ ^ 2 ] <= 19143.54
quadratic_ranged_193_ub: [ 1 x_60_ ^ 2 - 2 x_99_ * x_60_ + 1 x_99_ ^ 2 + 1 y_60_ ^ 2 - 2 y_99_ * y_60_ + 1 y_99_ ^ 2 ] <= 2013.94
quadratic_ranged_194_ub: [ 1 x_79_ ^ 2 - 2 x_99_ * x_79_ + 1 x_99_ ^ 2 + 1 y_79_ ^ 2 - 2 y_99_ * y_79_ + 1 y_99_ ^ 2 ] <= 47681.090000000004
quadratic_ranged_195_ub: [ 1 x_1_ ^ 2 - 2 x_100_ * x_1_ + 1 x_100_ ^ 2 + 1 y_1_ ^ 2 - 2 y_100_ * y_1_ + 1 y_100_ ^ 2 ] <= 18432.5
quadratic_ranged_196_ub: [ 1 x_26_ ^ 2 - 2 x_100_ * x_26_ + 1 x_100_ ^ 2 + 1 y_26_ ^ 2 - 2 y_100_ * y_26_ + 1 y_100_ ^ 2 ] <= 29820.25
quadratic_ranged_197_ub: [ 1 x_67_ ^ 2 - 2 x_100_ * x_67_ + 1 x_100_ ^ 2 + 1 y_67_ ^ 2 - 2 y_100_ * y_67_ + 1 y_100_ ^ 2 ] <= 9604.09
c1_2: 1 x_47_ >= 0
c2_2: 1 y_47_ >= 0
quadratic_ranged_1_lb: [ 1 x_3_ ^ 2 - 2 x_4_ * x_3_ + 1 x_4_ ^ 2 + 1 y_3_ ^ 2 - 2 y_4_ * y_3_ + 1 y_4_ ^ 2 ] >= 34232.22
quadratic_ranged_2_lb: [ 1 x_1_ ^ 2 - 2 x_5_ * x_1_ + 1 x_5_ ^ 2 + 1 y_1_ ^ 2 - 2 y_5_ * y_1_ + 1 y_5_ ^ 2 ] >= 3803.58
quadratic_ranged_3_lb: [ 1 x_4_ ^ 2 - 2 x_5_ * x_4_ + 1 x_5_ ^ 2 + 1 y_4_ ^ 2 - 2 y_5_ * y_4_ + 1 y_5_ ^ 2 ] >= 10385.1
quadratic_ranged_4_lb: [ 1 x_1_ ^ 2 - 2 x_6_ * x_1_ + 1 x_6_ ^ 2 + 1 y_1_ ^ 2 - 2 y_6_ * y_1_ + 1 y_6_ ^ 2 ] >= 8436.78
quadratic_ranged_5_lb: [ 1 x_4_ ^ 2 - 2 x_6_ * x_4_ + 1 x_6_ ^ 2 + 1 y_4_ ^ 2 - 2 y_6_ * y_4_ + 1 y_6_ ^ 2 ] >= 22027.5
quadratic_ranged_6_lb: [ 1 x_5_ ^ 2 - 2 x_7_ * x_5_ + 1 x_7_ ^ 2 + 1 y_5_ ^ 2 - 2 y_7_ * y_5_ + 1 y_7_ ^ 2 ] >= 1085.04
quadratic_ranged_7_lb: [ 1 x_4_ ^ 2 - 2 x_8_ * x_4_ + 1 x_8_ ^ 2 + 1 y_4_ ^ 2 - 2 y_8_ * y_4_ + 1 y_8_ ^ 2 ] >= 16523.1
quadratic_ranged_8_lb: [ 1 x_7_ ^ 2 - 2 x_10_ * x_7_ + 1 x_10_ ^ 2 + 1 y_7_ ^ 2 - 2 y_10_ * y_7_ + 1 y_10_ ^ 2 ] >= 1893.87
quadratic_ranged_9_lb: [ 1 x_2_ ^ 2 - 2 x_11_ * x_2_ + 1 x_11_ ^ 2 + 1 y_2_ ^ 2 - 2 y_11_ * y_2_ + 1 y_11_ ^ 2 ] >= 8222.94
quadratic_ranged_10_lb: [ 1 x_9_ ^ 2 - 2 x_11_ * x_9_ + 1 x_11_ ^ 2 + 1 y_9_ ^ 2 - 2 y_11_ * y_9_ + 1 y_11_ ^ 2 ] >= 31546.35
quadratic_ranged_11_lb: [ 1 x_9_ ^ 2 - 2 x_12_ * x_9_ + 1 x_12_ ^ 2 + 1 y_9_ ^ 2 - 2 y_12_ * y_9_ + 1 y_12_ ^ 2 ] >= 202.95
quadratic_ranged_12_lb: [ 1 x_7_ ^ 2 - 2 x_13_ * x_7_ + 1 x_13_ ^ 2 + 1 y_7_ ^ 2 - 2 y_13_ * y_7_ + 1 y_13_ ^ 2 ] >= 13949.1
quadratic_ranged_13_lb: [ 1 x_2_ ^ 2 - 2 x_14_ * x_2_ + 1 x_14_ ^ 2 + 1 y_2_ ^ 2 - 2 y_14_ * y_2_ + 1 y_14_ ^ 2 ] >= 6732
quadratic_ranged_14_lb: [ 1 x_12_ ^ 2 - 2 x_15_ * x_12_ + 1 x_15_ ^ 2 + 1 y_12_ ^ 2 - 2 y_15_ * y_12_ + 1 y_15_ ^ 2 ] >= 10918.71
quadratic_ranged_15_lb: [ 1 x_3_ ^ 2 - 2 x_16_ * x_3_ + 1 x_16_ ^ 2 + 1 y_3_ ^ 2 - 2 y_16_ * y_3_ + 1 y_16_ ^ 2 ] >= 22275
quadratic_ranged_16_lb: [ 1 x_6_ ^ 2 - 2 x_16_ * x_6_ + 1 x_16_ ^ 2 + 1 y_6_ ^ 2 - 2 y_16_ * y_6_ + 1 y_16_ ^ 2 ] >= 10676.16
quadratic_ranged_17_lb: [ 1 x_8_ ^ 2 - 2 x_16_ * x_8_ + 1 x_16_ ^ 2 + 1 y_8_ ^ 2 - 2 y_16_ * y_8_ + 1 y_16_ ^ 2 ] >= 9603
quadratic_ranged_18_lb: [ 1 x_3_ ^ 2 - 2 x_17_ * x_3_ + 1 x_17_ ^ 2 + 1 y_3_ ^ 2 - 2 y_17_ * y_3_ + 1 y_17_ ^ 2 ] >= 22644.27
quadratic_ranged_19_lb: [ 1 x_4_ ^ 2 - 2 x_17_ * x_4_ + 1 x_17_ ^ 2 + 1 y_4_ ^ 2 - 2 y_17_ * y_4_ + 1 y_17_ ^ 2 ] >= 2139.39
quadratic_ranged_20_lb: [ 1 x_13_ ^ 2 - 2 x_17_ * x_13_ + 1 x_17_ ^ 2 + 1 y_13_ ^ 2 - 2 y_17_ * y_13_ + 1 y_17_ ^ 2 ] >= 10205.91
quadratic_ranged_21_lb: [ 1 x_6_ ^ 2 - 2 x_18_ * x_6_ + 1 x_18_ ^ 2 + 1 y_6_ ^ 2 - 2 y_18_ * y_6_ + 1 y_18_ ^ 2 ] >= 19968.3
quadratic_ranged_22_lb: [ 1 x_11_ ^ 2 - 2 x_18_ * x_11_ + 1 x_18_ ^ 2 + 1 y_11_ ^ 2 - 2 y_18_ * y_11_ + 1 y_18_ ^ 2 ] >= 14735.16
quadratic_ranged_23_lb: [ 1 x_6_ ^ 2 - 2 x_19_ * x_6_ + 1 x_19_ ^ 2 + 1 y_6_ ^ 2 - 2 y_19_ * y_6_ + 1 y_19_ ^ 2 ] >= 4785.66
quadratic_ranged_24_lb: [ 1 x_7_ ^ 2 - 2 x_19_ * x_7_ + 1 x_19_ ^ 2 + 1 y_7_ ^ 2 - 2 y_19_ * y_7_ + 1 y_19_ ^ 2 ] >= 104.94
quadratic_ranged_25_lb: [ 1 x_14_ ^ 2 - 2 x_19_ * x_14_ + 1 x_19_ ^ 2 + 1 y_14_ ^ 2 - 2 y_19_ * y_14_ + 1 y_19_ ^ 2 ] >= 572.22
quadratic_ranged_26_lb: [ 1 x_15_ ^ 2 - 2 x_20_ * x_15_ + 1 x_20_ ^ 2 + 1 y_15_ ^ 2 - 2 y_20_ * y_15_ + 1 y_20_ ^ 2 ] >= 14576.76
quadratic_ranged_27_lb: [ 1 x_17_ ^ 2 - 2 x_20_ * x_17_ + 1 x_20_ ^ 2 + 1 y_17_ ^ 2 - 2 y_20_ * y_17_ + 1 y_20_ ^ 2 ] >= 4231.26
quadratic_ranged_28_lb: [ 1 x_1_ ^ 2 - 2 x_21_ * x_1_ + 1 x_21_ ^ 2 + 1 y_1_ ^ 2 - 2 y_21_ * y_1_ + 1 y_21_ ^ 2 ] >= 17365.59
quadratic_ranged_29_lb: [ 1 x_17_ ^ 2 - 2 x_21_ * x_17_ + 1 x_21_ ^ 2 + 1 y_17_ ^ 2 - 2 y_21_ * y_17_ + 1 y_21_ ^ 2 ] >= 1536.48
quadratic_ranged_30_lb: [ 1 x_11_ ^ 2 - 2 x_22_ * x_11_ + 1 x_22_ ^ 2 + 1 y_11_ ^ 2 - 2 y_22_ * y_11_ + 1 y_22_ ^ 2 ] >= 23009.579999999998
quadratic_ranged_31_lb: [ 1 x_14_ ^ 2 - 2 x_22_ * x_14_ + 1 x_22_ ^ 2 + 1 y_14_ ^ 2 - 2 y_22_ * y_14_ + 1 y_22_ ^ 2 ] >= 6787.44
quadratic_ranged_32_lb: [ 1 x_5_ ^ 2 - 2 x_23_ * x_5_ + 1 x_23_ ^ 2 + 1 y_5_ ^ 2 - 2 y_23_ * y_5_ + 1 y_23_ ^ 2 ] >= 295.02
quadratic_ranged_33_lb: [ 1 x_6_ ^ 2 - 2 x_24_ * x_6_ + 1 x_24_ ^ 2 + 1 y_6_ ^ 2 - 2 y_24_ * y_6_ + 1 y_24_ ^ 2 ] >= 12375
quadratic_ranged_34_lb: [ 1 x_6_ ^ 2 - 2 x_25_ * x_6_ + 1 x_25_ ^ 2 + 1 y_6_ ^ 2 - 2 y_25_ * y_6_ + 1 y_25_ ^ 2 ] >= 6496.38
quadratic_ranged_35_lb: [ 1 x_19_ ^ 2 - 2 x_25_ * x_19_ + 1 x_25_ ^ 2 + 1 y_19_ ^ 2 - 2 y_25_ * y_19_ + 1 y_25_ ^ 2 ] >= 356.4
quadratic_ranged_36_lb: [ 1 x_3_ ^ 2 - 2 x_26_ * x_3_ + 1 x_26_ ^ 2 + 1 y_3_ ^ 2 - 2 y_26_ * y_3_ + 1 y_26_ ^ 2 ] >= 2697.75
quadratic_ranged_37_lb: [ 1 x_6_ ^ 2 - 2 x_27_ * x_6_ + 1 x_27_ ^ 2 + 1 y_6_ ^ 2 - 2 y_27_ * y_6_ + 1 y_27_ ^ 2 ] >= 7849.71
quadratic_ranged_38_lb: [ 1 x_8_ ^ 2 - 2 x_27_ * x_8_ + 1 x_27_ ^ 2 + 1 y_8_ ^ 2 - 2 y_27_ * y_8_ + 1 y_27_ ^ 2 ] >= 6800.3099999999995
quadratic_ranged_39_lb: [ 1 x_12_ ^ 2 - 2 x_27_ * x_12_ + 1 x_27_ ^ 2 + 1 y_12_ ^ 2 - 2 y_27_ * y_12_ + 1 y_27_ ^ 2 ] >= 25867.71
quadratic_ranged_40_lb: [ 1 x_2_ ^ 2 - 2 x_28_ * x_2_ + 1 x_28_ ^ 2 + 1 y_2_ ^ 2 - 2 y_28_ * y_2_ + 1 y_28_ ^ 2 ] >= 15246.99
quadratic_ranged_41_lb: [ 1 x_14_ ^ 2 - 2 x_28_ * x_14_ + 1 x_28_ ^ 2 + 1 y_14_ ^ 2 - 2 y_28_ * y_14_ + 1 y_28_ ^ 2 ] >= 16276.59
quadratic_ranged_42_lb: [ 1 x_20_ ^ 2 - 2 x_28_ * x_20_ + 1 x_28_ ^ 2 + 1 y_20_ ^ 2 - 2 y_28_ * y_20_ + 1 y_28_ ^ 2 ] >= 16824.06
quadratic_ranged_43_lb: [ 1 x_12_ ^ 2 - 2 x_29_ * x_12_ + 1 x_29_ ^ 2 + 1 y_12_ ^ 2 - 2 y_29_ * y_12_ + 1 y_29_ ^ 2 ] >= 13389.75
quadratic_ranged_44_lb: [ 1 x_4_ ^ 2 - 2 x_30_ * x_4_ + 1 x_30_ ^ 2 + 1 y_4_ ^ 2 - 2 y_30_ * y_4_ + 1 y_30_ ^ 2 ] >= 15721.2
quadratic_ranged_45_lb: [ 1 x_27_ ^ 2 - 2 x_30_ * x_27_ + 1 x_30_ ^ 2 + 1 y_27_ ^ 2 - 2 y_30_ * y_27_ + 1 y_30_ ^ 2 ] >= 5457.87
quadratic_ranged_46_lb: [ 1 x_11_ ^ 2 - 2 x_31_ * x_11_ + 1 x_31_ ^ 2 + 1 y_11_ ^ 2 - 2 y_31_ * y_11_ + 1 y_31_ ^ 2 ] >= 2246.31
quadratic_ranged_47_lb: [ 1 x_20_ ^ 2 - 2 x_32_ * x_20_ + 1 x_32_ ^ 2 + 1 y_20_ ^ 2 - 2 y_32_ * y_20_ + 1 y_32_ ^ 2 ] >= 16779.51
quadratic_ranged_48_lb: [ 1 x_29_ ^ 2 - 2 x_32_ * x_29_ + 1 x_32_ ^ 2 + 1 y_29_ ^ 2 - 2 y_32_ * y_29_ + 1 y_32_ ^ 2 ] >= 3450.15
quadratic_ranged_49_lb: [ 1 x_30_ ^ 2 - 2 x_34_ * x_30_ + 1 x_34_ ^ 2 + 1 y_30_ ^ 2 - 2 y_34_ * y_30_ + 1 y_34_ ^ 2 ] >= 1228.59
quadratic_ranged_50_lb: [ 1 x_31_ ^ 2 - 2 x_34_ * x_31_ + 1 x_34_ ^ 2 + 1 y_31_ ^ 2 - 2 y_34_ * y_31_ + 1 y_34_ ^ 2 ] >= 8001.18
quadratic_ranged_51_lb: [ 1 x_12_ ^ 2 - 2 x_35_ * x_12_ + 1 x_35_ ^ 2 + 1 y_12_ ^ 2 - 2 y_35_ * y_12_ + 1 y_35_ ^ 2 ] >= 99
quadratic_ranged_52_lb: [ 1 x_17_ ^ 2 - 2 x_36_ * x_17_ + 1 x_36_ ^ 2 + 1 y_17_ ^ 2 - 2 y_36_ * y_17_ + 1 y_36_ ^ 2 ] >= 26726.04
quadratic_ranged_53_lb: [ 1 x_18_ ^ 2 - 2 x_36_ * x_18_ + 1 x_36_ ^ 2 + 1 y_18_ ^ 2 - 2 y_36_ * y_18_ + 1 y_36_ ^ 2 ] >= 24762.87
quadratic_ranged_54_lb: [ 1 x_21_ ^ 2 - 2 x_36_ * x_21_ + 1 x_36_ ^ 2 + 1 y_21_ ^ 2 - 2 y_36_ * y_21_ + 1 y_36_ ^ 2 ] >= 29957.4
quadratic_ranged_55_lb: [ 1 x_2_ ^ 2 - 2 x_37_ * x_2_ + 1 x_37_ ^ 2 + 1 y_2_ ^ 2 - 2 y_37_ * y_2_ + 1 y_37_ ^ 2 ] >= 1855.26
quadratic_ranged_56_lb: [ 1 x_25_ ^ 2 - 2 x_38_ * x_25_ + 1 x_38_ ^ 2 + 1 y_25_ ^ 2 - 2 y_38_ * y_25_ + 1 y_38_ ^ 2 ] >= 22740.3
quadratic_ranged_57_lb: [ 1 x_26_ ^ 2 - 2 x_38_ * x_26_ + 1 x_38_ ^ 2 + 1 y_26_ ^ 2 - 2 y_38_ * y_26_ + 1 y_38_ ^ 2 ] >= 23349.15
quadratic_ranged_58_lb: [ 1 x_7_ ^ 2 - 2 x_39_ * x_7_ + 1 x_39_ ^ 2 + 1 y_7_ ^ 2 - 2 y_39_ * y_7_ + 1 y_39_ ^ 2 ] >= 5498.46
quadratic_ranged_59_lb: [ 1 x_18_ ^ 2 - 2 x_39_ * x_18_ + 1 x_39_ ^ 2 + 1 y_18_ ^ 2 - 2 y_39_ * y_18_ + 1 y_39_ ^ 2 ] >= 18029.88
quadratic_ranged_60_lb: [ 1 x_24_ ^ 2 - 2 x_39_ * x_24_ + 1 x_39_ ^ 2 + 1 y_24_ ^ 2 - 2 y_39_ * y_24_ + 1 y_39_ ^ 2 ] >= 8215.02
quadratic_ranged_61_lb: [ 1 x_10_ ^ 2 - 2 x_40_ * x_10_ + 1 x_40_ ^ 2 + 1 y_10_ ^ 2 - 2 y_40_ * y_10_ + 1 y_40_ ^ 2 ] >= 11091.96
quadratic_ranged_62_lb: [ 1 x_14_ ^ 2 - 2 x_40_ * x_14_ + 1 x_40_ ^ 2 + 1 y_14_ ^ 2 - 2 y_40_ * y_14_ + 1 y_40_ ^ 2 ] >= 8815.95
quadratic_ranged_63_lb: [ 1 x_18_ ^ 2 - 2 x_40_ * x_18_ + 1 x_40_ ^ 2 + 1 y_18_ ^ 2 - 2 y_40_ * y_18_ + 1 y_40_ ^ 2 ] >= 1608.75
quadratic_ranged_64_lb: [ 1 x_3_ ^ 2 - 2 x_41_ * x_3_ + 1 x_41_ ^ 2 + 1 y_3_ ^ 2 - 2 y_41_ * y_3_ + 1 y_41_ ^ 2 ] >= 21956.22
quadratic_ranged_65_lb: [ 1 x_30_ ^ 2 - 2 x_41_ * x_30_ + 1 x_41_ ^ 2 + 1 y_30_ ^ 2 - 2 y_41_ * y_30_ + 1 y_41_ ^ 2 ] >= 6799.32
quadratic_ranged_66_lb: [ 1 x_33_ ^ 2 - 2 x_41_ * x_33_ + 1 x_41_ ^ 2 + 1 y_33_ ^ 2 - 2 y_41_ * y_33_ + 1 y_41_ ^ 2 ] >= 10836.539999999999
quadratic_ranged_67_lb: [ 1 x_6_ ^ 2 - 2 x_42_ * x_6_ + 1 x_42_ ^ 2 + 1 y_6_ ^ 2 - 2 y_42_ * y_6_ + 1 y_42_ ^ 2 ] >= 4994.55
quadratic_ranged_68_lb: [ 1 x_14_ ^ 2 - 2 x_42_ * x_14_ + 1 x_42_ ^ 2 + 1 y_14_ ^ 2 - 2 y_42_ * y_14_ + 1 y_42_ ^ 2 ] >= 11892.87
quadratic_ranged_69_lb: [ 1 x_41_ ^ 2 - 2 x_42_ * x_41_ + 1 x_42_ ^ 2 + 1 y_41_ ^ 2 - 2 y_42_ * y_41_ + 1 y_42_ ^ 2 ] >= 13389.75
quadratic_ranged_70_lb: [ 1 x_12_ ^ 2 - 2 x_43_ * x_12_ + 1 x_43_ ^ 2 + 1 y_12_ ^ 2 - 2 y_43_ * y_12_ + 1 y_43_ ^ 2 ] >= 5719.23
quadratic_ranged_71_lb: [ 1 x_20_ ^ 2 - 2 x_43_ * x_20_ + 1 x_43_ ^ 2 + 1 y_20_ ^ 2 - 2 y_43_ * y_20_ + 1 y_43_ ^ 2 ] >= 9941.58
quadratic_ranged_72_lb: [ 1 x_23_ ^ 2 - 2 x_44_ * x_23_ + 1 x_44_ ^ 2 + 1 y_23_ ^ 2 - 2 y_44_ * y_23_ + 1 y_44_ ^ 2 ] >= 844.47
quadratic_ranged_73_lb: [ 1 x_43_ ^ 2 - 2 x_44_ * x_43_ + 1 x_44_ ^ 2 + 1 y_43_ ^ 2 - 2 y_44_ * y_43_ + 1 y_44_ ^ 2 ] >= 730.62
quadratic_ranged_74_lb: [ 1 x_32_ ^ 2 - 2 x_45_ * x_32_ + 1 x_45_ ^ 2 + 1 y_32_ ^ 2 - 2 y_45_ * y_32_ + 1 y_45_ ^ 2 ] >= 4577.76
quadratic_ranged_75_lb: [ 1 x_37_ ^ 2 - 2 x_45_ * x_37_ + 1 x_45_ ^ 2 + 1 y_37_ ^ 2 - 2 y_45_ * y_37_ + 1 y_45_ ^ 2 ] >= 2237.4
quadratic_ranged_76_lb: [ 1 x_41_ ^ 2 - 2 x_45_ * x_41_ + 1 x_45_ ^ 2 + 1 y_41_ ^ 2 - 2 y_45_ * y_41_ + 1 y_45_ ^ 2 ] >= 198
quadratic_ranged_77_lb: [ 1 x_37_ ^ 2 - 2 x_46_ * x_37_ + 1 x_46_ ^ 2 + 1 y_37_ ^ 2 - 2 y_46_ * y_37_ + 1 y_46_ ^ 2 ] >= 4103.55
quadratic_ranged_78_lb: [ 1 x_3_ ^ 2 - 2 x_47_ * x_3_ + 1 x_47_ ^ 2 + 1 y_3_ ^ 2 - 2 y_47_ * y_3_ + 1 y_47_ ^ 2 ] >= 39413.88
quadratic_ranged_79_lb: [ 1 x_3_ ^ 2 - 2 x_48_ * x_3_ + 1 x_48_ ^ 2 + 1 y_3_ ^ 2 - 2 y_48_ * y_3_ + 1 y_48_ ^ 2 ] >= 31902.75
quadratic_ranged_80_lb: [ 1 x_11_ ^ 2 - 2 x_48_ * x_11_ + 1 x_48_ ^ 2 + 1 y_11_ ^ 2 - 2 y_48_ * y_11_ + 1 y_48_ ^ 2 ] >= 4646.07
quadratic_ranged_81_lb: [ 1 x_15_ ^ 2 - 2 x_48_ * x_15_ + 1 x_48_ ^ 2 + 1 y_15_ ^ 2 - 2 y_48_ * y_15_ + 1 y_48_ ^ 2 ] >= 162.35999999999999
quadratic_ranged_82_lb: [ 1 x_39_ ^ 2 - 2 x_49_ * x_39_ + 1 x_49_ ^ 2 + 1 y_39_ ^ 2 - 2 y_49_ * y_39_ + 1 y_49_ ^ 2 ] >= 18747.63
quadratic_ranged_83_lb: [ 1 x_44_ ^ 2 - 2 x_49_ * x_44_ + 1 x_49_ ^ 2 + 1 y_44_ ^ 2 - 2 y_49_ * y_44_ + 1 y_49_ ^ 2 ] >= 5864.76
quadratic_ranged_84_lb: [ 1 x_42_ ^ 2 - 2 x_50_ * x_42_ + 1 x_50_ ^ 2 + 1 y_42_ ^ 2 - 2 y_50_ * y_42_ + 1 y_50_ ^ 2 ] >= 4445.1
quadratic_ranged_85_lb: [ 1 x_44_ ^ 2 - 2 x_50_ * x_44_ + 1 x_50_ ^ 2 + 1 y_44_ ^ 2 - 2 y_50_ * y_44_ + 1 y_50_ ^ 2 ] >= 6543.9
quadratic_ranged_86_lb: [ 1 x_22_ ^ 2 - 2 x_51_ * x_22_ + 1 x_51_ ^ 2 + 1 y_22_ ^ 2 - 2 y_51_ * y_22_ + 1 y_51_ ^ 2 ] >= 84.15
quadratic_ranged_87_lb: [ 1 x_38_ ^ 2 - 2 x_51_ * x_38_ + 1 x_51_ ^ 2 + 1 y_38_ ^ 2 - 2 y_51_ * y_38_ + 1 y_51_ ^ 2 ] >= 3260.07
quadratic_ranged_88_lb: [ 1 x_50_ ^ 2 - 2 x_52_ * x_50_ + 1 x_52_ ^ 2 + 1 y_50_ ^ 2 - 2 y_52_ * y_50_ + 1 y_52_ ^ 2 ] >= 6499.35
quadratic_ranged_89_lb: [ 1 x_26_ ^ 2 - 2 x_53_ * x_26_ + 1 x_53_ ^ 2 + 1 y_26_ ^ 2 - 2 y_53_ * y_26_ + 1 y_53_ ^ 2 ] >= 3093.75
quadratic_ranged_90_lb: [ 1 x_18_ ^ 2 - 2 x_54_ * x_18_ + 1 x_54_ ^ 2 + 1 y_18_ ^ 2 - 2 y_54_ * y_18_ + 1 y_54_ ^ 2 ] >= 14019.39
quadratic_ranged_91_lb: [ 1 x_30_ ^ 2 - 2 x_55_ * x_30_ + 1 x_55_ ^ 2 + 1 y_30_ ^ 2 - 2 y_55_ * y_30_ + 1 y_55_ ^ 2 ] >= 19626.75
quadratic_ranged_92_lb: [ 1 x_43_ ^ 2 - 2 x_55_ * x_43_ + 1 x_55_ ^ 2 + 1 y_43_ ^ 2 - 2 y_55_ * y_43_ + 1 y_55_ ^ 2 ] >= 14067.9
quadratic_ranged_93_lb: [ 1 x_52_ ^ 2 - 2 x_55_ * x_52_ + 1 x_55_ ^ 2 + 1 y_52_ ^ 2 - 2 y_55_ * y_52_ + 1 y_55_ ^ 2 ] >= 30837.51
quadratic_ranged_94_lb: [ 1 x_1_ ^ 2 - 2 x_56_ * x_1_ + 1 x_56_ ^ 2 + 1 y_1_ ^ 2 - 2 y_56_ * y_1_ + 1 y_56_ ^ 2 ] >= 19800
quadratic_ranged_95_lb: [ 1 x_28_ ^ 2 - 2 x_56_ * x_28_ + 1 x_56_ ^ 2 + 1 y_28_ ^ 2 - 2 y_56_ * y_28_ + 1 y_56_ ^ 2 ] >= 9291.15
quadratic_ranged_96_lb: [ 1 x_53_ ^ 2 - 2 x_56_ * x_53_ + 1 x_56_ ^ 2 + 1 y_53_ ^ 2 - 2 y_56_ * y_53_ + 1 y_56_ ^ 2 ] >= 9157.5
quadratic_ranged_97_lb: [ 1 x_42_ ^ 2 - 2 x_57_ * x_42_ + 1 x_57_ ^ 2 + 1 y_42_ ^ 2 - 2 y_57_ * y_42_ + 1 y_57_ ^ 2 ] >= 1055.34
quadratic_ranged_98_lb: [ 1 x_17_ ^ 2 - 2 x_58_ * x_17_ + 1 x_58_ ^ 2 + 1 y_17_ ^ 2 - 2 y_58_ * y_17_ + 1 y_58_ ^ 2 ] >= 14415.39
quadratic_ranged_99_lb: [ 1 x_51_ ^ 2 - 2 x_58_ * x_51_ + 1 x_58_ ^ 2 + 1 y_51_ ^ 2 - 2 y_58_ * y_51_ + 1 y_58_ ^ 2 ] >= 385.11
quadratic_ranged_100_lb: [ 1 x_2_ ^ 2 - 2 x_59_ * x_2_ + 1 x_59_ ^ 2 + 1 y_2_ ^ 2 - 2 y_59_ * y_2_ + 1 y_59_ ^ 2 ] >= 11449.35
quadratic_ranged_101_lb: [ 1 x_58_ ^ 2 - 2 x_59_ * x_58_ + 1 x_59_ ^ 2 + 1 y_58_ ^ 2 - 2 y_59_ * y_58_ + 1 y_59_ ^ 2 ] >= 15413.31
quadratic_ranged_102_lb: [ 1 x_25_ ^ 2 - 2 x_60_ * x_25_ + 1 x_60_ ^ 2 + 1 y_25_ ^ 2 - 2 y_60_ * y_25_ + 1 y_60_ ^ 2 ] >= 9068.4
quadratic_ranged_103_lb: [ 1 x_31_ ^ 2 - 2 x_60_ * x_31_ + 1 x_60_ ^ 2 + 1 y_31_ ^ 2 - 2 y_60_ * y_31_ + 1 y_60_ ^ 2 ] >= 927.63
quadratic_ranged_104_lb: [ 1 x_35_ ^ 2 - 2 x_61_ * x_35_ + 1 x_61_ ^ 2 + 1 y_35_ ^ 2 - 2 y_61_ * y_35_ + 1 y_61_ ^ 2 ] >= 8365.5
quadratic_ranged_105_lb: [ 1 x_57_ ^ 2 - 2 x_61_ * x_57_ + 1 x_61_ ^ 2 + 1 y_57_ ^ 2 - 2 y_61_ * y_57_ + 1 y_61_ ^ 2 ] >= 4392.63
quadratic_ranged_106_lb: [ 1 x_17_ ^ 2 - 2 x_62_ * x_17_ + 1 x_62_ ^ 2 + 1 y_17_ ^ 2 - 2 y_62_ * y_17_ + 1 y_62_ ^ 2 ] >= 4993.56
quadratic_ranged_107_lb: [ 1 x_32_ ^ 2 - 2 x_62_ * x_32_ + 1 x_62_ ^ 2 + 1 y_32_ ^ 2 - 2 y_62_ * y_32_ + 1 y_62_ ^ 2 ] >= 18046.71
quadratic_ranged_108_lb: [ 1 x_16_ ^ 2 - 2 x_63_ * x_16_ + 1 x_63_ ^ 2 + 1 y_16_ ^ 2 - 2 y_63_ * y_16_ + 1 y_63_ ^ 2 ] >= 10670.22
quadratic_ranged_109_lb: [ 1 x_48_ ^ 2 - 2 x_63_ * x_48_ + 1 x_63_ ^ 2 + 1 y_48_ ^ 2 - 2 y_63_ * y_48_ + 1 y_63_ ^ 2 ] >= 167.31
quadratic_ranged_110_lb: [ 1 x_52_ ^ 2 - 2 x_63_ * x_52_ + 1 x_63_ ^ 2 + 1 y_52_ ^ 2 - 2 y_63_ * y_52_ + 1 y_63_ ^ 2 ] >= 22486.86
quadratic_ranged_111_lb: [ 1 x_2_ ^ 2 - 2 x_64_ * x_2_ + 1 x_64_ ^ 2 + 1 y_2_ ^ 2 - 2 y_64_ * y_2_ + 1 y_64_ ^ 2 ] >= 15352.92
quadratic_ranged_112_lb: [ 1 x_6_ ^ 2 - 2 x_64_ * x_6_ + 1 x_64_ ^ 2 + 1 y_6_ ^ 2 - 2 y_64_ * y_6_ + 1 y_64_ ^ 2 ] >= 10335.6
quadratic_ranged_113_lb: [ 1 x_36_ ^ 2 - 2 x_65_ * x_36_ + 1 x_65_ ^ 2 + 1 y_36_ ^ 2 - 2 y_65_ * y_36_ + 1 y_65_ ^ 2 ] >= 19398.06
quadratic_ranged_114_lb: [ 1 x_40_ ^ 2 - 2 x_65_ * x_40_ + 1 x_65_ ^ 2 + 1 y_40_ ^ 2 - 2 y_65_ * y_40_ + 1 y_65_ ^ 2 ] >= 25930.079999999998
quadratic_ranged_115_lb: [ 1 x_28_ ^ 2 - 2 x_66_ * x_28_ + 1 x_66_ ^ 2 + 1 y_28_ ^ 2 - 2 y_66_ * y_28_ + 1 y_66_ ^ 2 ] >= 36125.1
quadratic_ranged_116_lb: [ 1 x_55_ ^ 2 - 2 x_66_ * x_55_ + 1 x_66_ ^ 2 + 1 y_55_ ^ 2 - 2 y_66_ * y_55_ + 1 y_66_ ^ 2 ] >= 39948.48
quadratic_ranged_117_lb: [ 1 x_24_ ^ 2 - 2 x_67_ * x_24_ + 1 x_67_ ^ 2 + 1 y_24_ ^ 2 - 2 y_67_ * y_24_ + 1 y_67_ ^ 2 ] >= 13773.869999999999
quadratic_ranged_118_lb: [ 1 x_53_ ^ 2 - 2 x_67_ * x_53_ + 1 x_67_ ^ 2 + 1 y_53_ ^ 2 - 2 y_67_ * y_53_ + 1 y_67_ ^ 2 ] >= 3327.39
quadratic_ranged_119_lb: [ 1 x_64_ ^ 2 - 2 x_67_ * x_64_ + 1 x_67_ ^ 2 + 1 y_64_ ^ 2 - 2 y_67_ * y_64_ + 1 y_67_ ^ 2 ] >= 2788.83
quadratic_ranged_120_lb: [ 1 x_14_ ^ 2 - 2 x_68_ * x_14_ + 1 x_68_ ^ 2 + 1 y_14_ ^ 2 - 2 y_68_ * y_14_ + 1 y_68_ ^ 2 ] >= 832.59
quadratic_ranged_121_lb: [ 1 x_41_ ^ 2 - 2 x_68_ * x_41_ + 1 x_68_ ^ 2 + 1 y_41_ ^ 2 - 2 y_68_ * y_41_ + 1 y_68_ ^ 2 ] >= 6582.51
quadratic_ranged_122_lb: [ 1 x_4_ ^ 2 - 2 x_69_ * x_4_ + 1 x_69_ ^ 2 + 1 y_4_ ^ 2 - 2 y_69_ * y_4_ + 1 y_69_ ^ 2 ] >= 10177.2
quadratic_ranged_123_lb: [ 1 x_56_ ^ 2 - 2 x_69_ * x_56_ + 1 x_69_ ^ 2 + 1 y_56_ ^ 2 - 2 y_69_ * y_56_ + 1 y_69_ ^ 2 ] >= 1425.6
quadratic_ranged_124_lb: [ 1 x_22_ ^ 2 - 2 x_70_ * x_22_ + 1 x_70_ ^ 2 + 1 y_22_ ^ 2 - 2 y_70_ * y_22_ + 1 y_70_ ^ 2 ] >= 27759.6
quadratic_ranged_125_lb: [ 1 x_29_ ^ 2 - 2 x_70_ * x_29_ + 1 x_70_ ^ 2 + 1 y_29_ ^ 2 - 2 y_70_ * y_29_ + 1 y_70_ ^ 2 ] >= 10384.11
quadratic_ranged_126_lb: [ 1 x_1_ ^ 2 - 2 x_71_ * x_1_ + 1 x_71_ ^ 2 + 1 y_1_ ^ 2 - 2 y_71_ * y_1_ + 1 y_71_ ^ 2 ] >= 4118.4
quadratic_ranged_127_lb: [ 1 x_20_ ^ 2 - 2 x_71_ * x_20_ + 1 x_71_ ^ 2 + 1 y_20_ ^ 2 - 2 y_71_ * y_20_ + 1 y_71_ ^ 2 ] >= 3469.95
quadratic_ranged_128_lb: [ 1 x_2_ ^ 2 - 2 x_72_ * x_2_ + 1 x_72_ ^ 2 + 1 y_2_ ^ 2 - 2 y_72_ * y_2_ + 1 y_72_ ^ 2 ] >= 32777.909999999996
quadratic_ranged_129_lb: [ 1 x_7_ ^ 2 - 2 x_72_ * x_7_ + 1 x_72_ ^ 2 + 1 y_7_ ^ 2 - 2 y_72_ * y_7_ + 1 y_72_ ^ 2 ] >= 19428.75
quadratic_ranged_130_lb: [ 1 x_62_ ^ 2 - 2 x_72_ * x_62_ + 1 x_72_ ^ 2 + 1 y_62_ ^ 2 - 2 y_72_ * y_62_ + 1 y_72_ ^ 2 ] >= 25250.94
quadratic_ranged_131_lb: [ 1 x_53_ ^ 2 - 2 x_73_ * x_53_ + 1 x_73_ ^ 2 + 1 y_53_ ^ 2 - 2 y_73_ * y_53_ + 1 y_73_ ^ 2 ] >= 168.3
quadratic_ranged_132_lb: [ 1 x_60_ ^ 2 - 2 x_73_ * x_60_ + 1 x_73_ ^ 2 + 1 y_60_ ^ 2 - 2 y_73_ * y_60_ + 1 y_73_ ^ 2 ] >= 8890.2
quadratic_ranged_133_lb: [ 1 x_32_ ^ 2 - 2 x_74_ * x_32_ + 1 x_74_ ^ 2 + 1 y_32_ ^ 2 - 2 y_74_ * y_32_ + 1 y_74_ ^ 2 ] >= 29007
quadratic_ranged_134_lb: [ 1 x_54_ ^ 2 - 2 x_74_ * x_54_ + 1 x_74_ ^ 2 + 1 y_54_ ^ 2 - 2 y_74_ * y_54_ + 1 y_74_ ^ 2 ] >= 25546.95
quadratic_ranged_135_lb: [ 1 x_71_ ^ 2 - 2 x_74_ * x_71_ + 1 x_74_ ^ 2 + 1 y_71_ ^ 2 - 2 y_74_ * y_71_ + 1 y_74_ ^ 2 ] >= 4981.68
quadratic_ranged_136_lb: [ 1 x_19_ ^ 2 - 2 x_75_ * x_19_ + 1 x_75_ ^ 2 + 1 y_19_ ^ 2 - 2 y_75_ * y_19_ + 1 y_75_ ^ 2 ] >= 8899.11
quadratic_ranged_137_lb: [ 1 x_55_ ^ 2 - 2 x_75_ * x_55_ + 1 x_75_ ^ 2 + 1 y_55_ ^ 2 - 2 y_75_ * y_55_ + 1 y_75_ ^ 2 ] >= 2676.96
quadratic_ranged_138_lb: [ 1 x_14_ ^ 2 - 2 x_76_ * x_14_ + 1 x_76_ ^ 2 + 1 y_14_ ^ 2 - 2 y_76_ * y_14_ + 1 y_76_ ^ 2 ] >= 25035.12
quadratic_ranged_139_lb: [ 1 x_36_ ^ 2 - 2 x_76_ * x_36_ + 1 x_76_ ^ 2 + 1 y_36_ ^ 2 - 2 y_76_ * y_36_ + 1 y_76_ ^ 2 ] >= 26675.55
quadratic_ranged_140_lb: [ 1 x_16_ ^ 2 - 2 x_77_ * x_16_ + 1 x_77_ ^ 2 + 1 y_16_ ^ 2 - 2 y_77_ * y_16_ + 1 y_77_ ^ 2 ] >= 11334.51
quadratic_ranged_141_lb: [ 1 x_23_ ^ 2 - 2 x_77_ * x_23_ + 1 x_77_ ^ 2 + 1 y_23_ ^ 2 - 2 y_77_ * y_23_ + 1 y_77_ ^ 2 ] >= 8562.51
quadratic_ranged_142_lb: [ 1 x_9_ ^ 2 - 2 x_78_ * x_9_ + 1 x_78_ ^ 2 + 1 y_9_ ^ 2 - 2 y_78_ * y_9_ + 1 y_78_ ^ 2 ] >= 21987.9
quadratic_ranged_143_lb: [ 1 x_59_ ^ 2 - 2 x_78_ * x_59_ + 1 x_78_ ^ 2 + 1 y_59_ ^ 2 - 2 y_78_ * y_59_ + 1 y_78_ ^ 2 ] >= 2599.74
quadratic_ranged_144_lb: [ 1 x_5_ ^ 2 - 2 x_79_ * x_5_ + 1 x_79_ ^ 2 + 1 y_5_ ^ 2 - 2 y_79_ * y_5_ + 1 y_79_ ^ 2 ] >= 9825.75
quadratic_ranged_145_lb: [ 1 x_46_ ^ 2 - 2 x_79_ * x_46_ + 1 x_79_ ^ 2 + 1 y_46_ ^ 2 - 2 y_79_ * y_46_ + 1 y_79_ ^ 2 ] >= 30343.5
quadratic_ranged_146_lb: [ 1 x_53_ ^ 2 - 2 x_79_ * x_53_ + 1 x_79_ ^ 2 + 1 y_53_ ^ 2 - 2 y_79_ * y_53_ + 1 y_79_ ^ 2 ] >= 4962.87
quadratic_ranged_147_lb: [ 1 x_6_ ^ 2 - 2 x_80_ * x_6_ + 1 x_80_ ^ 2 + 1 y_6_ ^ 2 - 2 y_80_ * y_6_ + 1 y_80_ ^ 2 ] >= 6535.98
quadratic_ranged_148_lb: [ 1 x_12_ ^ 2 - 2 x_80_ * x_12_ + 1 x_80_ ^ 2 + 1 y_12_ ^ 2 - 2 y_80_ * y_12_ + 1 y_80_ ^ 2 ] >= 20215.8
quadratic_ranged_149_lb: [ 1 x_72_ ^ 2 - 2 x_80_ * x_72_ + 1 x_80_ ^ 2 + 1 y_72_ ^ 2 - 2 y_80_ * y_72_ + 1 y_80_ ^ 2 ] >= 16102.35
quadratic_ranged_150_lb: [ 1 x_13_ ^ 2 - 2 x_81_ * x_13_ + 1 x_81_ ^ 2 + 1 y_13_ ^ 2 - 2 y_81_ * y_13_ + 1 y_81_ ^ 2 ] >= 18062.55
quadratic_ranged_151_lb: [ 1 x_33_ ^ 2 - 2 x_81_ * x_33_ + 1 x_81_ ^ 2 + 1 y_33_ ^ 2 - 2 y_81_ * y_33_ + 1 y_81_ ^ 2 ] >= 5311.35
quadratic_ranged_152_lb: [ 1 x_46_ ^ 2 - 2 x_81_ * x_46_ + 1 x_81_ ^ 2 + 1 y_46_ ^ 2 - 2 y_81_ * y_46_ + 1 y_81_ ^ 2 ] >= 3138.3
quadratic_ranged_153_lb: [ 1 x_8_ ^ 2 - 2 x_83_ * x_8_ + 1 x_83_ ^ 2 + 1 y_8_ ^ 2 - 2 y_83_ * y_8_ + 1 y_83_ ^ 2 ] >= 8278.38
quadratic_ranged_154_lb: [ 1 x_35_ ^ 2 - 2 x_83_ * x_35_ + 1 x_83_ ^ 2 + 1 y_35_ ^ 2 - 2 y_83_ * y_35_ + 1 y_83_ ^ 2 ] >= 21098.88
quadratic_ranged_155_lb: [ 1 x_39_ ^ 2 - 2 x_83_ * x_39_ + 1 x_83_ ^ 2 + 1 y_39_ ^ 2 - 2 y_83_ * y_39_ + 1 y_83_ ^ 2 ] >= 495
quadratic_ranged_156_lb: [ 1 x_3_ ^ 2 - 2 x_84_ * x_3_ + 1 x_84_ ^ 2 + 1 y_3_ ^ 2 - 2 y_84_ * y_3_ + 1 y_84_ ^ 2 ] >= 29084.22
quadratic_ranged_157_lb: [ 1 x_10_ ^ 2 - 2 x_84_ * x_10_ + 1 x_84_ ^ 2 + 1 y_10_ ^ 2 - 2 y_84_ * y_10_ + 1 y_84_ ^ 2 ] >= 21305.79
quadratic_ranged_158_lb: [ 1 x_68_ ^ 2 - 2 x_84_ * x_68_ + 1 x_84_ ^ 2 + 1 y_68_ ^ 2 - 2 y_84_ * y_68_ + 1 y_84_ ^ 2 ] >= 13084.83
quadratic_ranged_159_lb: [ 1 x_24_ ^ 2 - 2 x_85_ * x_24_ + 1 x_85_ ^ 2 + 1 y_24_ ^ 2 - 2 y_85_ * y_24_ + 1 y_85_ ^ 2 ] >= 7708.14
quadratic_ranged_160_lb: [ 1 x_76_ ^ 2 - 2 x_85_ * x_76_ + 1 x_85_ ^ 2 + 1 y_76_ ^ 2 - 2 y_85_ * y_76_ + 1 y_85_ ^ 2 ] >= 50587.02
quadratic_ranged_161_lb: [ 1 x_7_ ^ 2 - 2 x_86_ * x_7_ + 1 x_86_ ^ 2 + 1 y_7_ ^ 2 - 2 y_86_ * y_7_ + 1 y_86_ ^ 2 ] >= 2115.63
quadratic_ranged_162_lb: [ 1 x_27_ ^ 2 - 2 x_86_ * x_27_ + 1 x_86_ ^ 2 + 1 y_27_ ^ 2 - 2 y_86_ * y_27_ + 1 y_86_ ^ 2 ] >= 2813.58
quadratic_ranged_163_lb: [ 1 x_29_ ^ 2 - 2 x_86_ * x_29_ + 1 x_86_ ^ 2 + 1 y_29_ ^ 2 - 2 y_86_ * y_29_ + 1 y_86_ ^ 2 ] >= 12394.8
quadratic_ranged_164_lb: [ 1 x_15_ ^ 2 - 2 x_87_ * x_15_ + 1 x_87_ ^ 2 + 1 y_15_ ^ 2 - 2 y_87_ * y_15_ + 1 y_87_ ^ 2 ] >= 5354.91
quadratic_ranged_165_lb: [ 1 x_54_ ^ 2 - 2 x_87_ * x_54_ + 1 x_87_ ^ 2 + 1 y_54_ ^ 2 - 2 y_87_ * y_54_ + 1 y_87_ ^ 2 ] >= 2749.23
quadratic_ranged_166_lb: [ 1 x_82_ ^ 2 - 2 x_87_ * x_82_ + 1 x_87_ ^ 2 + 1 y_82_ ^ 2 - 2 y_87_ * y_82_ + 1 y_87_ ^ 2 ] >= 6781.5
quadratic_ranged_167_lb: [ 1 x_21_ ^ 2 - 2 x_88_ * x_21_ + 1 x_88_ ^ 2 + 1 y_21_ ^ 2 - 2 y_88_ * y_21_ + 1 y_88_ ^ 2 ] >= 24406.47
quadratic_ranged_168_lb: [ 1 x_35_ ^ 2 - 2 x_88_ * x_35_ + 1 x_88_ ^ 2 + 1 y_35_ ^ 2 - 2 y_88_ * y_35_ + 1 y_88_ ^ 2 ] >= 55608.3
quadratic_ranged_169_lb: [ 1 x_16_ ^ 2 - 2 x_89_ * x_16_ + 1 x_89_ ^ 2 + 1 y_16_ ^ 2 - 2 y_89_ * y_16_ + 1 y_89_ ^ 2 ] >= 27533.88
quadratic_ranged_170_lb: [ 1 x_32_ ^ 2 - 2 x_89_ * x_32_ + 1 x_89_ ^ 2 + 1 y_32_ ^ 2 - 2 y_89_ * y_32_ + 1 y_89_ ^ 2 ] >= 22676.94
quadratic_ranged_171_lb: [ 1 x_47_ ^ 2 - 2 x_89_ * x_47_ + 1 x_89_ ^ 2 + 1 y_47_ ^ 2 - 2 y_89_ * y_47_ + 1 y_89_ ^ 2 ] >= 27407.16
quadratic_ranged_172_lb: [ 1 x_52_ ^ 2 - 2 x_90_ * x_52_ + 1 x_90_ ^ 2 + 1 y_52_ ^ 2 - 2 y_90_ * y_52_ + 1 y_90_ ^ 2 ] >= 24498.54
quadratic_ranged_173_lb: [ 1 x_57_ ^ 2 - 2 x_90_ * x_57_ + 1 x_90_ ^ 2 + 1 y_57_ ^ 2 - 2 y_90_ * y_57_ + 1 y_90_ ^ 2 ] >= 16565.67
quadratic_ranged_174_lb: [ 1 x_58_ ^ 2 - 2 x_90_ * x_58_ + 1 x_90_ ^ 2 + 1 y_58_ ^ 2 - 2 y_90_ * y_58_ + 1 y_90_ ^ 2 ] >= 27729.9
quadratic_ranged_175_lb: [ 1 x_16_ ^ 2 - 2 x_91_ * x_16_ + 1 x_91_ ^ 2 + 1 y_16_ ^ 2 - 2 y_91_ * y_16_ + 1 y_91_ ^ 2 ] >= 23809.5
quadratic_ranged_176_lb: [ 1 x_25_ ^ 2 - 2 x_91_ * x_25_ + 1 x_91_ ^ 2 + 1 y_25_ ^ 2 - 2 y_91_ * y_25_ + 1 y_91_ ^ 2 ] >= 11598.84
quadratic_ranged_177_lb: [ 1 x_67_ ^ 2 - 2 x_92_ * x_67_ + 1 x_92_ ^ 2 + 1 y_67_ ^ 2 - 2 y_92_ * y_67_ + 1 y_92_ ^ 2 ] >= 6496.38
quadratic_ranged_178_lb: [ 1 x_73_ ^ 2 - 2 x_92_ * x_73_ + 1 x_92_ ^ 2 + 1 y_73_ ^ 2 - 2 y_92_ * y_73_ + 1 y_92_ ^ 2 ] >= 3010.59
quadratic_ranged_179_lb: [ 1 x_88_ ^ 2 - 2 x_92_ * x_88_ + 1 x_92_ ^ 2 + 1 y_88_ ^ 2 - 2 y_92_ * y_88_ + 1 y_92_ ^ 2 ] >= 40559.31
quadratic_ranged_180_lb: [ 1 x_40_ ^ 2 - 2 x_93_ * x_40_ + 1 x_93_ ^ 2 + 1 y_40_ ^ 2 - 2 y_93_ * y_40_ + 1 y_93_ ^ 2 ] >= 36033.03
quadratic_ranged_181_lb: [ 1 x_85_ ^ 2 - 2 x_93_ * x_85_ + 1 x_93_ ^ 2 + 1 y_85_ ^ 2 - 2 y_93_ * y_85_ + 1 y_93_ ^ 2 ] >= 31763.16
quadratic_ranged_182_lb: [ 1 x_5_ ^ 2 - 2 x_94_ * x_5_ + 1 x_94_ ^ 2 + 1 y_5_ ^ 2 - 2 y_94_ * y_5_ + 1 y_94_ ^ 2 ] >= 5671.71
quadratic_ranged_183_lb: [ 1 x_73_ ^ 2 - 2 x_94_ * x_73_ + 1 x_94_ ^ 2 + 1 y_73_ ^ 2 - 2 y_94_ * y_73_ + 1 y_94_ ^ 2 ] >= 4052.07
quadratic_ranged_184_lb: [ 1 x_82_ ^ 2 - 2 x_94_ * x_82_ + 1 x_94_ ^ 2 + 1 y_82_ ^ 2 - 2 y_94_ * y_82_ + 1 y_94_ ^ 2 ] >= 9623.789999999999
quadratic_ranged_185_lb: [ 1 x_52_ ^ 2 - 2 x_95_ * x_52_ + 1 x_95_ ^ 2 + 1 y_52_ ^ 2 - 2 y_95_ * y_52_ + 1 y_95_ ^ 2 ] >= 10296
quadratic_ranged_186_lb: [ 1 x_85_ ^ 2 - 2 x_95_ * x_85_ + 1 x_95_ ^ 2 + 1 y_85_ ^ 2 - 2 y_95_ * y_85_ + 1 y_95_ ^ 2 ] >= 3019.5
quadratic_ranged_187_lb: [ 1 x_37_ ^ 2 - 2 x_96_ * x_37_ + 1 x_96_ ^ 2 + 1 y_37_ ^ 2 - 2 y_96_ * y_37_ + 1 y_96_ ^ 2 ] >= 2967.03
quadratic_ranged_188_lb: [ 1 x_94_ ^ 2 - 2 x_96_ * x_94_ + 1 x_96_ ^ 2 + 1 y_94_ ^ 2 - 2 y_96_ * y_94_ + 1 y_96_ ^ 2 ] >= 26238.96
quadratic_ranged_189_lb: [ 1 x_5_ ^ 2 - 2 x_97_ * x_5_ + 1 x_97_ ^ 2 + 1 y_5_ ^ 2 - 2 y_97_ * y_5_ + 1 y_97_ ^ 2 ] >= 8320.95
quadratic_ranged_190_lb: [ 1 x_90_ ^ 2 - 2 x_97_ * x_90_ + 1 x_97_ ^ 2 + 1 y_90_ ^ 2 - 2 y_97_ * y_90_ + 1 y_97_ ^ 2 ] >= 20280.15
quadratic_ranged_191_lb: [ 1 x_23_ ^ 2 - 2 x_98_ * x_23_ + 1 x_98_ ^ 2 + 1 y_23_ ^ 2 - 2 y_98_ * y_23_ + 1 y_98_ ^ 2 ] >= 7227.99
quadratic_ranged_192_lb: [ 1 x_31_ ^ 2 - 2 x_98_ * x_31_ + 1 x_98_ ^ 2 + 1 y_31_ ^ 2 - 2 y_98_ * y_31_ + 1 y_98_ ^ 2 ] >= 18764.46
quadratic_ranged_193_lb: [ 1 x_60_ ^ 2 - 2 x_99_ * x_60_ + 1 x_99_ ^ 2 + 1 y_60_ ^ 2 - 2 y_99_ * y_60_ + 1 y_99_ ^ 2 ] >= 1974.06
quadratic_ranged_194_lb: [ 1 x_79_ ^ 2 - 2 x_99_ * x_79_ + 1 x_99_ ^ 2 + 1 y_79_ ^ 2 - 2 y_99_ * y_79_ + 1 y_99_ ^ 2 ] >= 46736.909999999996
quadratic_ranged_195_lb: [ 1 x_1_ ^ 2 - 2 x_100_ * x_1_ + 1 x_100_ ^ 2 + 1 y_1_ ^ 2 - 2 y_100_ * y_1_ + 1 y_100_ ^ 2 ] >= 18067.5
quadratic_ranged_196_lb: [ 1 x_26_ ^ 2 - 2 x_100_ * x_26_ + 1 x_100_ ^ 2 + 1 y_26_ ^ 2 - 2 y_100_ * y_26_ + 1 y_100_ ^ 2 ] >= 29229.75
quadratic_ranged_197_lb: [ 1 x_67_ ^ 2 - 2 x_100_ * x_67_ + 1 x_100_ ^ 2 + 1 y_67_ ^ 2 - 2 y_100_ * y_67_ + 1 y_100_ ^ 2 ] >= 9413.91
c1_1: 1 x_6_ = 0
c2_1: 1 y_6_ = 0
Bounds
-92 <= x_1_ <= 92
-176 <= x_2_ <= 176
-255 <= x_3_ <= 255
-149 <= x_4_ <= 149
-113 <= x_5_ <= 113
x_6_ = 0
-80 <= x_7_ <= 80
-172 <= x_8_ <= 172
-239 <= x_9_ <= 239
-124 <= x_10_ <= 124
-256 <= x_11_ <= 256
-225 <= x_12_ <= 225
-199 <= x_13_ <= 199
-94 <= x_14_ <= 94
-234 <= x_15_ <= 234
-104 <= x_16_ <= 104
-196 <= x_17_ <= 196
-142 <= x_18_ <= 142
-69 <= x_19_ <= 69
-217 <= x_20_ <= 217
-225 <= x_21_ <= 225
-177 <= x_22_ <= 177
-130 <= x_23_ <= 130
-112 <= x_24_ <= 112
-81 <= x_25_ <= 81
-270 <= x_26_ <= 270
-89 <= x_27_ <= 89
-222 <= x_28_ <= 222
-239 <= x_29_ <= 239
-164 <= x_30_ <= 164
-208 <= x_31_ <= 208
-270 <= x_32_ <= 270
-293 <= x_33_ <= 293
-199 <= x_34_ <= 199
-235 <= x_35_ <= 235
-301 <= x_36_ <= 301
-220 <= x_37_ <= 220
-233 <= x_38_ <= 233
-155 <= x_39_ <= 155
-183 <= x_40_ <= 183
-188 <= x_41_ <= 188
-71 <= x_42_ <= 71
-187 <= x_43_ <= 187
-160 <= x_44_ <= 160
-202 <= x_45_ <= 202
-285 <= x_46_ <= 285
-439 <= x_47_ <= 439
-221 <= x_48_ <= 221
-237 <= x_49_ <= 237
-138 <= x_50_ <= 138
-186 <= x_51_ <= 186
-220 <= x_52_ <= 220
-214 <= x_53_ <= 214
-262 <= x_54_ <= 262
-217 <= x_55_ <= 217
-234 <= x_56_ <= 234
-104 <= x_57_ <= 104
-206 <= x_58_ <= 206
-284 <= x_59_ <= 284
-177 <= x_60_ <= 177
-171 <= x_61_ <= 171
-268 <= x_62_ <= 268
-208 <= x_63_ <= 208
-102 <= x_64_ <= 102
-345 <= x_65_ <= 345
-414 <= x_66_ <= 414
-156 <= x_67_ <= 156
-123 <= x_68_ <= 123
-251 <= x_69_ <= 251
-342 <= x_70_ <= 342
-157 <= x_71_ <= 157
-209 <= x_72_ <= 209
-227 <= x_73_ <= 227
-228 <= x_74_ <= 228
-165 <= x_75_ <= 165
-253 <= x_76_ <= 253
-211 <= x_77_ <= 211
-336 <= x_78_ <= 336
-213 <= x_79_ <= 213
-81 <= x_80_ <= 81
-335 <= x_81_ <= 335
-288 <= x_82_ <= 288
-177 <= x_83_ <= 177
-238 <= x_84_ <= 238
-201 <= x_85_ <= 201
-126 <= x_86_ <= 126
-308 <= x_87_ <= 308
-383 <= x_88_ <= 383
-271 <= x_89_ <= 271
-234 <= x_90_ <= 234
-190 <= x_91_ <= 190
-237 <= x_92_ <= 237
-374 <= x_93_ <= 374
-189 <= x_94_ <= 189
-256 <= x_95_ <= 256
-275 <= x_96_ <= 275
-205 <= x_97_ <= 205
-216 <= x_98_ <= 216
-222 <= x_99_ <= 222
-228 <= x_100_ <= 228
-92 <= y_1_ <= 92
-176 <= y_2_ <= 176
-255 <= y_3_ <= 255
-149 <= y_4_ <= 149
-113 <= y_5_ <= 113
y_6_ = 0
-80 <= y_7_ <= 80
-172 <= y_8_ <= 172
-239 <= y_9_ <= 239
-124 <= y_10_ <= 124
-256 <= y_11_ <= 256
-225 <= y_12_ <= 225
-199 <= y_13_ <= 199
-94 <= y_14_ <= 94
-234 <= y_15_ <= 234
-104 <= y_16_ <= 104
-196 <= y_17_ <= 196
-142 <= y_18_ <= 142
-69 <= y_19_ <= 69
-217 <= y_20_ <= 217
-225 <= y_21_ <= 225
-177 <= y_22_ <= 177
-130 <= y_23_ <= 130
-112 <= y_24_ <= 112
-81 <= y_25_ <= 81
-270 <= y_26_ <= 270
-89 <= y_27_ <= 89
-222 <= y_28_ <= 222
-239 <= y_29_ <= 239
-164 <= y_30_ <= 164
-208 <= y_31_ <= 208
-270 <= y_32_ <= 270
-293 <= y_33_ <= 293
-199 <= y_34_ <= 199
-235 <= y_35_ <= 235
-301 <= y_36_ <= 301
-220 <= y_37_ <= 220
-233 <= y_38_ <= 233
-155 <= y_39_ <= 155
-183 <= y_40_ <= 183
-188 <= y_41_ <= 188
-71 <= y_42_ <= 71
-187 <= y_43_ <= 187
-160 <= y_44_ <= 160
-202 <= y_45_ <= 202
-285 <= y_46_ <= 285
-439 <= y_47_ <= 439
-221 <= y_48_ <= 221
-237 <= y_49_ <= 237
-138 <= y_50_ <= 138
-186 <= y_51_ <= 186
-220 <= y_52_ <= 220
-214 <= y_53_ <= 214
-262 <= y_54_ <= 262
-217 <= y_55_ <= 217
-234 <= y_56_ <= 234
-104 <= y_57_ <= 104
-206 <= y_58_ <= 206
-284 <= y_59_ <= 284
-177 <= y_60_ <= 177
-171 <= y_61_ <= 171
-268 <= y_62_ <= 268
-208 <= y_63_ <= 208
-102 <= y_64_ <= 102
-345 <= y_65_ <= 345
-414 <= y_66_ <= 414
-156 <= y_67_ <= 156
-123 <= y_68_ <= 123
-251 <= y_69_ <= 251
-342 <= y_70_ <= 342
-157 <= y_71_ <= 157
-209 <= y_72_ <= 209
-227 <= y_73_ <= 227
-228 <= y_74_ <= 228
-165 <= y_75_ <= 165
-253 <= y_76_ <= 253
-211 <= y_77_ <= 211
-336 <= y_78_ <= 336
-213 <= y_79_ <= 213
-81 <= y_80_ <= 81
-335 <= y_81_ <= 335
-288 <= y_82_ <= 288
-177 <= y_83_ <= 177
-238 <= y_84_ <= 238
-201 <= y_85_ <= 201
-126 <= y_86_ <= 126
-308 <= y_87_ <= 308
-383 <= y_88_ <= 383
-271 <= y_89_ <= 271
-234 <= y_90_ <= 234
-190 <= y_91_ <= 190
-237 <= y_92_ <= 237
-374 <= y_93_ <= 374
-189 <= y_94_ <= 189
-256 <= y_95_ <= 256
-275 <= y_96_ <= 275
-205 <= y_97_ <= 205
-216 <= y_98_ <= 216
-222 <= y_99_ <= 222
-228 <= y_100_ <= 228
General
x_1_
x_2_
x_3_
x_4_
x_5_
x_6_
x_7_
x_8_
x_9_
x_10_
x_11_
x_12_
x_13_
x_14_
x_15_
x_16_
x_17_
x_18_
x_19_
x_20_
x_21_
x_22_
x_23_
x_24_
x_25_
x_26_
x_27_
x_28_
x_29_
x_30_
x_31_
x_32_
x_33_
x_34_
x_35_
x_36_
x_37_
x_38_
x_39_
x_40_
x_41_
x_42_
x_43_
x_44_
x_45_
x_46_
x_47_
x_48_
x_49_
x_50_
x_51_
x_52_
x_53_
x_54_
x_55_
x_56_
x_57_
x_58_
x_59_
x_60_
x_61_
x_62_
x_63_
x_64_
x_65_
x_66_
x_67_
x_68_
x_69_
x_70_
x_71_
x_72_
x_73_
x_74_
x_75_
x_76_
x_77_
x_78_
x_79_
x_80_
x_81_
x_82_
x_83_
x_84_
x_85_
x_86_
x_87_
x_88_
x_89_
x_90_
x_91_
x_92_
x_93_
x_94_
x_95_
x_96_
x_97_
x_98_
x_99_
x_100_
y_1_
y_2_
y_3_
y_4_
y_5_
y_6_
y_7_
y_8_
y_9_
y_10_
y_11_
y_12_
y_13_
y_14_
y_15_
y_16_
y_17_
y_18_
y_19_
y_20_
y_21_
y_22_
y_23_
y_24_
y_25_
y_26_
y_27_
y_28_
y_29_
y_30_
y_31_
y_32_
y_33_
y_34_
y_35_
y_36_
y_37_
y_38_
y_39_
y_40_
y_41_
y_42_
y_43_
y_44_
y_45_
y_46_
y_47_
y_48_
y_49_
y_50_
y_51_
y_52_
y_53_
y_54_
y_55_
y_56_
y_57_
y_58_
y_59_
y_60_
y_61_
y_62_
y_63_
y_64_
y_65_
y_66_
y_67_
y_68_
y_69_
y_70_
y_71_
y_72_
y_73_
y_74_
y_75_
y_76_
y_77_
y_78_
y_79_
y_80_
y_81_
y_82_
y_83_
y_84_
y_85_
y_86_
y_87_
y_88_
y_89_
y_90_
y_91_
y_92_
y_93_
y_94_
y_95_
y_96_
y_97_
y_98_
y_99_
y_100_
End
