minimize
obj: 
subject to
c1_4: -1 x_6_ + 1 y_6_ <= 0
c1_1: [ 1 x_1_ ^ 2 + 1 y_1_ ^ 2 ] <= 37064
c2_1: [ 1 x_2_ ^ 2 + 1 y_2_ ^ 2 ] <= 46258
c3_1: [ 1 x_3_ ^ 2 + 1 y_3_ ^ 2 ] <= 29808
c4_1: [ 1 x_4_ ^ 2 + 1 y_4_ ^ 2 ] <= 95864
c5_1: [ 1 x_5_ ^ 2 + 1 y_5_ ^ 2 ] <= 89107
c6_1: [ 1 x_6_ ^ 2 + 1 y_6_ ^ 2 ] <= 169757
c7_1: [ 1 x_7_ ^ 2 + 1 y_7_ ^ 2 ] <= 40881
c8_1: [ 1 x_8_ ^ 2 + 1 y_8_ ^ 2 ] <= 34056
c9_1: [ 1 x_9_ ^ 2 + 1 y_9_ ^ 2 ] <= 58254
c10_1: [ 1 x_10_ ^ 2 + 1 y_10_ ^ 2 ] <= 25260
c11_1: [ 1 x_11_ ^ 2 + 1 y_11_ ^ 2 ] <= 20031
c12_1: [ 1 x_12_ ^ 2 + 1 y_12_ ^ 2 ] <= 19349
c13_1: [ 1 x_13_ ^ 2 + 1 y_13_ ^ 2 ] <= 38947
c14_1: [ 1 x_14_ ^ 2 + 1 y_14_ ^ 2 ] <= 65542
c15_1: [ 1 x_15_ ^ 2 + 1 y_15_ ^ 2 ] <= 1525
c16_1: [ 1 x_16_ ^ 2 + 1 y_16_ ^ 2 ] <= 67431
c17_1: [ 1 x_17_ ^ 2 + 1 y_17_ ^ 2 ] <= 13056
c18_1: [ 1 x_18_ ^ 2 + 1 y_18_ ^ 2 ] <= 36462
c19_1: [ 1 x_19_ ^ 2 + 1 y_19_ ^ 2 ] <= 23426
c20_1: [ 1 x_20_ ^ 2 + 1 y_20_ ^ 2 ] <= 54621
c21_1: [ 1 x_21_ ^ 2 + 1 y_21_ ^ 2 ] <= 78654
c22_1: [ 1 x_22_ ^ 2 + 1 y_22_ ^ 2 ] <= 1277
c23_1: [ 1 x_23_ ^ 2 + 1 y_23_ ^ 2 ] <= 66031
c24_1: [ 1 x_24_ ^ 2 + 1 y_24_ ^ 2 ] <= 13943
c25_1: [ 1 x_25_ ^ 2 + 1 y_25_ ^ 2 ] <= 62041
c26_1: [ 1 x_26_ ^ 2 + 1 y_26_ ^ 2 ] <= 162131
c27_1: [ 1 x_27_ ^ 2 + 1 y_27_ ^ 2 ] <= 91202
c28_1: [ 1 x_28_ ^ 2 + 1 y_28_ ^ 2 ] <= 49551
c29_1: [ 1 x_29_ ^ 2 + 1 y_29_ ^ 2 ] <= 30323
c30_1: [ 1 x_30_ ^ 2 + 1 y_30_ ^ 2 ] <= 59805
c31_1: [ 1 x_31_ ^ 2 + 1 y_31_ ^ 2 ] <= 23338
c32_1: [ 1 x_32_ ^ 2 + 1 y_32_ ^ 2 ] <= 10945
c33_1: [ 1 x_33_ ^ 2 + 1 y_33_ ^ 2 ] <= 3940
c34_1: [ 1 x_34_ ^ 2 + 1 y_34_ ^ 2 ] <= 41601
c35_1: [ 1 x_35_ ^ 2 + 1 y_35_ ^ 2 ] <= 91655
c36_1: [ 1 x_36_ ^ 2 + 1 y_36_ ^ 2 ] <= 52820
c37_1: [ 1 x_37_ ^ 2 + 1 y_37_ ^ 2 ] <= 99726
c38_1: [ 1 x_38_ ^ 2 + 1 y_38_ ^ 2 ] <= 100861
c39_1: [ 1 x_39_ ^ 2 + 1 y_39_ ^ 2 ] <= 107257
c40_1: [ 1 x_40_ ^ 2 + 1 y_40_ ^ 2 ] <= 66304
c41_1: [ 1 x_41_ ^ 2 + 1 y_41_ ^ 2 ] <= 124378
c42_1: [ 1 x_42_ ^ 2 + 1 y_42_ ^ 2 ] <= 29049
c43_1: [ 1 x_43_ ^ 2 + 1 y_43_ ^ 2 ] <= 5629
c44_1: [ 1 x_44_ ^ 2 + 1 y_44_ ^ 2 ] <= 118048
c45_1: [ 1 x_45_ ^ 2 + 1 y_45_ ^ 2 ] <= 5166
c46_1: [ 1 x_46_ ^ 2 + 1 y_46_ ^ 2 ] <= 116051
c47_1: [ 1 x_47_ ^ 2 + 1 y_47_ ^ 2 ] <= 81707
c48_1: [ 1 x_48_ ^ 2 + 1 y_48_ ^ 2 ] <= 46486
c49_1: [ 1 x_49_ ^ 2 + 1 y_49_ ^ 2 ] <= 71756
c50_1: [ 1 x_50_ ^ 2 + 1 y_50_ ^ 2 ] <= 92124
c51_1: [ 1 x_51_ ^ 2 + 1 y_51_ ^ 2 ] <= 48760
c52_1: [ 1 x_52_ ^ 2 + 1 y_52_ ^ 2 ] <= 31855
c53_1: [ 1 x_53_ ^ 2 + 1 y_53_ ^ 2 ] <= 110220
c54_1: [ 1 x_54_ ^ 2 + 1 y_54_ ^ 2 ] <= 149216
c55_1: [ 1 x_55_ ^ 2 + 1 y_55_ ^ 2 ] <= 132022
c56_1: [ 1 x_56_ ^ 2 + 1 y_56_ ^ 2 ] <= 9849
c57_1: [ 1 x_57_ ^ 2 + 1 y_57_ ^ 2 ] <= 31887
c58_1: [ 1 x_58_ ^ 2 + 1 y_58_ ^ 2 ] <= 55772
c59_1: [ 1 x_59_ ^ 2 + 1 y_59_ ^ 2 ] <= 26808
c60_1: [ 1 x_60_ ^ 2 + 1 y_60_ ^ 2 ] <= 36552
c61_1: [ 1 x_62_ ^ 2 + 1 y_62_ ^ 2 ] <= 124120
c62_1: [ 1 x_63_ ^ 2 + 1 y_63_ ^ 2 ] <= 22470
c63_1: [ 1 x_64_ ^ 2 + 1 y_64_ ^ 2 ] <= 154047
c64_1: [ 1 x_65_ ^ 2 + 1 y_65_ ^ 2 ] <= 41033
c65_1: [ 1 x_66_ ^ 2 + 1 y_66_ ^ 2 ] <= 64944
c66_1: [ 1 x_67_ ^ 2 + 1 y_67_ ^ 2 ] <= 76037
c67_1: [ 1 x_68_ ^ 2 + 1 y_68_ ^ 2 ] <= 74742
c68_1: [ 1 x_69_ ^ 2 + 1 y_69_ ^ 2 ] <= 71996
c69_1: [ 1 x_70_ ^ 2 + 1 y_70_ ^ 2 ] <= 139967
c70_1: [ 1 x_71_ ^ 2 + 1 y_71_ ^ 2 ] <= 90735
c71_1: [ 1 x_72_ ^ 2 + 1 y_72_ ^ 2 ] <= 107062
c72_1: [ 1 x_73_ ^ 2 + 1 y_73_ ^ 2 ] <= 149140
c73_1: [ 1 x_74_ ^ 2 + 1 y_74_ ^ 2 ] <= 84825
c74_1: [ 1 x_75_ ^ 2 + 1 y_75_ ^ 2 ] <= 90499
c75_1: [ 1 x_76_ ^ 2 + 1 y_76_ ^ 2 ] <= 98482
c76_1: [ 1 x_77_ ^ 2 + 1 y_77_ ^ 2 ] <= 54425
c77_1: [ 1 x_78_ ^ 2 + 1 y_78_ ^ 2 ] <= 77199
c78_1: [ 1 x_79_ ^ 2 + 1 y_79_ ^ 2 ] <= 99861
c79_1: [ 1 x_80_ ^ 2 + 1 y_80_ ^ 2 ] <= 69037
c80_1: [ 1 x_81_ ^ 2 + 1 y_81_ ^ 2 ] <= 32461
c81_1: [ 1 x_82_ ^ 2 + 1 y_82_ ^ 2 ] <= 64471
c82_1: [ 1 x_83_ ^ 2 + 1 y_83_ ^ 2 ] <= 83449
c83_1: [ 1 x_84_ ^ 2 + 1 y_84_ ^ 2 ] <= 62071
c84_1: [ 1 x_85_ ^ 2 + 1 y_85_ ^ 2 ] <= 50201
c85_1: [ 1 x_86_ ^ 2 + 1 y_86_ ^ 2 ] <= 117229
c86_1: [ 1 x_87_ ^ 2 + 1 y_87_ ^ 2 ] <= 29598
c87_1: [ 1 x_88_ ^ 2 + 1 y_88_ ^ 2 ] <= 80155
c88_1: [ 1 x_89_ ^ 2 + 1 y_89_ ^ 2 ] <= 73576
c89_1: [ 1 x_90_ ^ 2 + 1 y_90_ ^ 2 ] <= 57228
c90_1: [ 1 x_91_ ^ 2 + 1 y_91_ ^ 2 ] <= 108120
c91_1: [ 1 x_92_ ^ 2 + 1 y_92_ ^ 2 ] <= 132250
c92_1: [ 1 x_93_ ^ 2 + 1 y_93_ ^ 2 ] <= 20238
c93_1: [ 1 x_94_ ^ 2 + 1 y_94_ ^ 2 ] <= 81811
c94_1: [ 1 x_95_ ^ 2 + 1 y_95_ ^ 2 ] <= 142314
c95_1: [ 1 x_96_ ^ 2 + 1 y_96_ ^ 2 ] <= 120613
c96_1: [ 1 x_97_ ^ 2 + 1 y_97_ ^ 2 ] <= 57014
c97_1: [ 1 x_98_ ^ 2 + 1 y_98_ ^ 2 ] <= 158341
c98_1: [ 1 x_99_ ^ 2 + 1 y_99_ ^ 2 ] <= 86075
c99_1: [ 1 x_100_ ^ 2 + 1 y_100_ ^ 2 ] <= 32355
c1_3: 1 x_6_ >= 0
c2_3: 1 y_6_ >= 0
c1_2: 1 x_61_ = 0
c2_2: 1 y_61_ = 0
c1: [ 1 x_1_ ^ 2 - 2 x_3_ * x_1_ + 1 x_3_ ^ 2 + 1 y_1_ ^ 2 - 2 y_3_ * y_1_ + 1 y_3_ ^ 2 ] = 35906
c2: [ 1 x_2_ ^ 2 - 2 x_3_ * x_2_ + 1 x_3_ ^ 2 + 1 y_2_ ^ 2 - 2 y_3_ * y_2_ + 1 y_3_ ^ 2 ] = 1800
c3: [ 1 x_3_ ^ 2 - 2 x_4_ * x_3_ + 1 x_4_ ^ 2 + 1 y_3_ ^ 2 - 2 y_4_ * y_3_ + 1 y_4_ ^ 2 ] = 31012
c4: [ 1 x_3_ ^ 2 - 2 x_5_ * x_3_ + 1 x_5_ ^ 2 + 1 y_3_ ^ 2 - 2 y_5_ * y_3_ + 1 y_5_ ^ 2 ] = 40157
c5: [ 1 x_5_ ^ 2 - 2 x_6_ * x_5_ + 1 x_6_ ^ 2 + 1 y_5_ ^ 2 - 2 y_6_ * y_5_ + 1 y_6_ ^ 2 ] = 33305
c6: [ 1 x_3_ ^ 2 - 2 x_7_ * x_3_ + 1 x_7_ ^ 2 + 1 y_3_ ^ 2 - 2 y_7_ * y_3_ + 1 y_7_ ^ 2 ] = 22922
c7: [ 1 x_1_ ^ 2 - 2 x_8_ * x_1_ + 1 x_8_ ^ 2 + 1 y_1_ ^ 2 - 2 y_8_ * y_1_ + 1 y_8_ ^ 2 ] = 1602
c8: [ 1 x_4_ ^ 2 - 2 x_9_ * x_4_ + 1 x_9_ ^ 2 + 1 y_4_ ^ 2 - 2 y_9_ * y_4_ + 1 y_9_ ^ 2 ] = 42010
c9: [ 1 x_5_ ^ 2 - 2 x_9_ * x_5_ + 1 x_9_ ^ 2 + 1 y_5_ ^ 2 - 2 y_9_ * y_5_ + 1 y_9_ ^ 2 ] = 5297
c10: [ 1 x_6_ ^ 2 - 2 x_9_ * x_6_ + 1 x_9_ ^ 2 + 1 y_6_ ^ 2 - 2 y_9_ * y_6_ + 1 y_9_ ^ 2 ] = 29124
c11: [ 1 x_1_ ^ 2 - 2 x_11_ * x_1_ + 1 x_11_ ^ 2 + 1 y_1_ ^ 2 - 2 y_11_ * y_1_ + 1 y_11_ ^ 2 ] = 2600
c12: [ 1 x_2_ ^ 2 - 2 x_11_ * x_2_ + 1 x_11_ ^ 2 + 1 y_2_ ^ 2 - 2 y_11_ * y_2_ + 1 y_11_ ^ 2 ] = 24634
c13: [ 1 x_8_ ^ 2 - 2 x_11_ * x_8_ + 1 x_11_ ^ 2 + 1 y_8_ ^ 2 - 2 y_11_ * y_8_ + 1 y_11_ ^ 2 ] = 1850
c14: [ 1 x_2_ ^ 2 - 2 x_12_ * x_2_ + 1 x_12_ ^ 2 + 1 y_2_ ^ 2 - 2 y_12_ * y_2_ + 1 y_12_ ^ 2 ] = 34373
c15: [ 1 x_4_ ^ 2 - 2 x_12_ * x_4_ + 1 x_12_ ^ 2 + 1 y_4_ ^ 2 - 2 y_12_ * y_4_ + 1 y_12_ ^ 2 ] = 29077
c16: [ 1 x_8_ ^ 2 - 2 x_12_ * x_8_ + 1 x_12_ ^ 2 + 1 y_8_ ^ 2 - 2 y_12_ * y_8_ + 1 y_12_ ^ 2 ] = 12181
c17: [ 1 x_3_ ^ 2 - 2 x_13_ * x_3_ + 1 x_13_ ^ 2 + 1 y_3_ ^ 2 - 2 y_13_ * y_3_ + 1 y_13_ ^ 2 ] = 610
c18: [ 1 x_7_ ^ 2 - 2 x_13_ * x_7_ + 1 x_13_ ^ 2 + 1 y_7_ ^ 2 - 2 y_13_ * y_7_ + 1 y_13_ ^ 2 ] = 25540
c19: [ 1 x_12_ ^ 2 - 2 x_15_ * x_12_ + 1 x_15_ ^ 2 + 1 y_12_ ^ 2 - 2 y_15_ * y_12_ + 1 y_15_ ^ 2 ] = 15229
c20: [ 1 x_5_ ^ 2 - 2 x_16_ * x_5_ + 1 x_16_ ^ 2 + 1 y_5_ ^ 2 - 2 y_16_ * y_5_ + 1 y_16_ ^ 2 ] = 1508
c21: [ 1 x_8_ ^ 2 - 2 x_16_ * x_8_ + 1 x_16_ ^ 2 + 1 y_8_ ^ 2 - 2 y_16_ * y_8_ + 1 y_16_ ^ 2 ] = 5645
c22: [ 1 x_9_ ^ 2 - 2 x_17_ * x_9_ + 1 x_17_ ^ 2 + 1 y_9_ ^ 2 - 2 y_17_ * y_9_ + 1 y_17_ ^ 2 ] = 16153
c23: [ 1 x_15_ ^ 2 - 2 x_17_ * x_15_ + 1 x_17_ ^ 2 + 1 y_15_ ^ 2 - 2 y_17_ * y_15_ + 1 y_17_ ^ 2 ] = 5657
c24: [ 1 x_10_ ^ 2 - 2 x_18_ * x_10_ + 1 x_18_ ^ 2 + 1 y_10_ ^ 2 - 2 y_18_ * y_10_ + 1 y_18_ ^ 2 ] = 1025
c25: [ 1 x_10_ ^ 2 - 2 x_19_ * x_10_ + 1 x_19_ ^ 2 + 1 y_10_ ^ 2 - 2 y_19_ * y_10_ + 1 y_19_ ^ 2 ] = 14625
c26: [ 1 x_14_ ^ 2 - 2 x_19_ * x_14_ + 1 x_19_ ^ 2 + 1 y_14_ ^ 2 - 2 y_19_ * y_14_ + 1 y_19_ ^ 2 ] = 10600
c27: [ 1 x_15_ ^ 2 - 2 x_19_ * x_15_ + 1 x_19_ ^ 2 + 1 y_15_ ^ 2 - 2 y_19_ * y_15_ + 1 y_19_ ^ 2 ] = 12997
c28: [ 1 x_19_ ^ 2 - 2 x_20_ * x_19_ + 1 x_20_ ^ 2 + 1 y_19_ ^ 2 - 2 y_20_ * y_19_ + 1 y_20_ ^ 2 ] = 18580
c29: [ 1 x_2_ ^ 2 - 2 x_21_ * x_2_ + 1 x_21_ ^ 2 + 1 y_2_ ^ 2 - 2 y_21_ * y_2_ + 1 y_21_ ^ 2 ] = 4274
c30: [ 1 x_20_ ^ 2 - 2 x_21_ * x_20_ + 1 x_21_ ^ 2 + 1 y_20_ ^ 2 - 2 y_21_ * y_20_ + 1 y_21_ ^ 2 ] = 29097
c31: [ 1 x_11_ ^ 2 - 2 x_23_ * x_11_ + 1 x_23_ ^ 2 + 1 y_11_ ^ 2 - 2 y_23_ * y_11_ + 1 y_23_ ^ 2 ] = 13325
c32: [ 1 x_21_ ^ 2 - 2 x_23_ * x_21_ + 1 x_23_ ^ 2 + 1 y_21_ ^ 2 - 2 y_23_ * y_21_ + 1 y_23_ ^ 2 ] = 3825
c33: [ 1 x_10_ ^ 2 - 2 x_24_ * x_10_ + 1 x_24_ ^ 2 + 1 y_10_ ^ 2 - 2 y_24_ * y_10_ + 1 y_24_ ^ 2 ] = 1669
c34: [ 1 x_22_ ^ 2 - 2 x_24_ * x_22_ + 1 x_24_ ^ 2 + 1 y_22_ ^ 2 - 2 y_24_ * y_22_ + 1 y_24_ ^ 2 ] = 6781
c35: [ 1 x_2_ ^ 2 - 2 x_25_ * x_2_ + 1 x_25_ ^ 2 + 1 y_2_ ^ 2 - 2 y_25_ * y_2_ + 1 y_25_ ^ 2 ] = 10404
c36: [ 1 x_20_ ^ 2 - 2 x_25_ * x_20_ + 1 x_25_ ^ 2 + 1 y_20_ ^ 2 - 2 y_25_ * y_20_ + 1 y_25_ ^ 2 ] = 24641
c37: [ 1 x_1_ ^ 2 - 2 x_27_ * x_1_ + 1 x_27_ ^ 2 + 1 y_1_ ^ 2 - 2 y_27_ * y_1_ + 1 y_27_ ^ 2 ] = 16130
c38: [ 1 x_21_ ^ 2 - 2 x_27_ * x_21_ + 1 x_27_ ^ 2 + 1 y_21_ ^ 2 - 2 y_27_ * y_21_ + 1 y_27_ ^ 2 ] = 7474
c39: [ 1 x_11_ ^ 2 - 2 x_28_ * x_11_ + 1 x_28_ ^ 2 + 1 y_11_ ^ 2 - 2 y_28_ * y_11_ + 1 y_28_ ^ 2 ] = 26056
c40: [ 1 x_3_ ^ 2 - 2 x_29_ * x_3_ + 1 x_29_ ^ 2 + 1 y_3_ ^ 2 - 2 y_29_ * y_3_ + 1 y_29_ ^ 2 ] = 21125
c41: [ 1 x_28_ ^ 2 - 2 x_29_ * x_28_ + 1 x_29_ ^ 2 + 1 y_28_ ^ 2 - 2 y_29_ * y_28_ + 1 y_29_ ^ 2 ] = 2349
c42: [ 1 x_3_ ^ 2 - 2 x_30_ * x_3_ + 1 x_30_ ^ 2 + 1 y_3_ ^ 2 - 2 y_30_ * y_3_ + 1 y_30_ ^ 2 ] = 28925
c43: [ 1 x_8_ ^ 2 - 2 x_30_ * x_8_ + 1 x_30_ ^ 2 + 1 y_8_ ^ 2 - 2 y_30_ * y_8_ + 1 y_30_ ^ 2 ] = 3601
c44: [ 1 x_14_ ^ 2 - 2 x_31_ * x_14_ + 1 x_31_ ^ 2 + 1 y_14_ ^ 2 - 2 y_31_ * y_14_ + 1 y_31_ ^ 2 ] = 28240
c45: [ 1 x_22_ ^ 2 - 2 x_31_ * x_22_ + 1 x_31_ ^ 2 + 1 y_22_ ^ 2 - 2 y_31_ * y_22_ + 1 y_31_ ^ 2 ] = 13697
c46: [ 1 x_22_ ^ 2 - 2 x_32_ * x_22_ + 1 x_32_ ^ 2 + 1 y_22_ ^ 2 - 2 y_32_ * y_22_ + 1 y_32_ ^ 2 ] = 4745
c47: [ 1 x_25_ ^ 2 - 2 x_32_ * x_25_ + 1 x_32_ ^ 2 + 1 y_25_ ^ 2 - 2 y_32_ * y_25_ + 1 y_32_ ^ 2 ] = 20869
c48: [ 1 x_22_ ^ 2 - 2 x_33_ * x_22_ + 1 x_33_ ^ 2 + 1 y_22_ ^ 2 - 2 y_33_ * y_22_ + 1 y_33_ ^ 2 ] = 2249
c49: [ 1 x_29_ ^ 2 - 2 x_33_ * x_29_ + 1 x_33_ ^ 2 + 1 y_29_ ^ 2 - 2 y_33_ * y_29_ + 1 y_33_ ^ 2 ] = 12402
c50: [ 1 x_11_ ^ 2 - 2 x_34_ * x_11_ + 1 x_34_ ^ 2 + 1 y_11_ ^ 2 - 2 y_34_ * y_11_ + 1 y_34_ ^ 2 ] = 3898
c51: [ 1 x_12_ ^ 2 - 2 x_34_ * x_12_ + 1 x_34_ ^ 2 + 1 y_12_ ^ 2 - 2 y_34_ * y_12_ + 1 y_34_ ^ 2 ] = 16249
c52: [ 1 x_2_ ^ 2 - 2 x_35_ * x_2_ + 1 x_35_ ^ 2 + 1 y_2_ ^ 2 - 2 y_35_ * y_2_ + 1 y_35_ ^ 2 ] = 13572
c53: [ 1 x_20_ ^ 2 - 2 x_35_ * x_20_ + 1 x_35_ ^ 2 + 1 y_20_ ^ 2 - 2 y_35_ * y_20_ + 1 y_35_ ^ 2 ] = 12113
c54: [ 1 x_25_ ^ 2 - 2 x_35_ * x_25_ + 1 x_35_ ^ 2 + 1 y_25_ ^ 2 - 2 y_35_ * y_25_ + 1 y_35_ ^ 2 ] = 2880
c55: [ 1 x_32_ ^ 2 - 2 x_36_ * x_32_ + 1 x_36_ ^ 2 + 1 y_32_ ^ 2 - 2 y_36_ * y_32_ + 1 y_36_ ^ 2 ] = 15677
c56: [ 1 x_34_ ^ 2 - 2 x_36_ * x_34_ + 1 x_36_ ^ 2 + 1 y_34_ ^ 2 - 2 y_36_ * y_34_ + 1 y_36_ ^ 2 ] = 9274
c57: [ 1 x_5_ ^ 2 - 2 x_38_ * x_5_ + 1 x_38_ ^ 2 + 1 y_5_ ^ 2 - 2 y_38_ * y_5_ + 1 y_38_ ^ 2 ] = 22376
c58: [ 1 x_25_ ^ 2 - 2 x_38_ * x_25_ + 1 x_38_ ^ 2 + 1 y_25_ ^ 2 - 2 y_38_ * y_25_ + 1 y_38_ ^ 2 ] = 4693
c59: [ 1 x_9_ ^ 2 - 2 x_39_ * x_9_ + 1 x_39_ ^ 2 + 1 y_9_ ^ 2 - 2 y_39_ * y_9_ + 1 y_39_ ^ 2 ] = 26248
c60: [ 1 x_26_ ^ 2 - 2 x_39_ * x_26_ + 1 x_39_ ^ 2 + 1 y_26_ ^ 2 - 2 y_39_ * y_26_ + 1 y_39_ ^ 2 ] = 5648
c61: [ 1 x_11_ ^ 2 - 2 x_40_ * x_11_ + 1 x_40_ ^ 2 + 1 y_11_ ^ 2 - 2 y_40_ * y_11_ + 1 y_40_ ^ 2 ] = 13448
c62: [ 1 x_27_ ^ 2 - 2 x_40_ * x_27_ + 1 x_40_ ^ 2 + 1 y_27_ ^ 2 - 2 y_40_ * y_27_ + 1 y_40_ ^ 2 ] = 2258
c63: [ 1 x_18_ ^ 2 - 2 x_42_ * x_18_ + 1 x_42_ ^ 2 + 1 y_18_ ^ 2 - 2 y_42_ * y_18_ + 1 y_42_ ^ 2 ] = 21865
c64: [ 1 x_12_ ^ 2 - 2 x_43_ * x_12_ + 1 x_43_ ^ 2 + 1 y_12_ ^ 2 - 2 y_43_ * y_12_ + 1 y_43_ ^ 2 ] = 4105
c65: [ 1 x_22_ ^ 2 - 2 x_43_ * x_22_ + 1 x_43_ ^ 2 + 1 y_22_ ^ 2 - 2 y_43_ * y_22_ + 1 y_43_ ^ 2 ] = 1544
c66: [ 1 x_14_ ^ 2 - 2 x_44_ * x_14_ + 1 x_44_ ^ 2 + 1 y_14_ ^ 2 - 2 y_44_ * y_14_ + 1 y_44_ ^ 2 ] = 14888
c67: [ 1 x_28_ ^ 2 - 2 x_44_ * x_28_ + 1 x_44_ ^ 2 + 1 y_28_ ^ 2 - 2 y_44_ * y_28_ + 1 y_44_ ^ 2 ] = 24221
c68: [ 1 x_34_ ^ 2 - 2 x_44_ * x_34_ + 1 x_44_ ^ 2 + 1 y_34_ ^ 2 - 2 y_44_ * y_34_ + 1 y_44_ ^ 2 ] = 19493
c69: [ 1 x_11_ ^ 2 - 2 x_45_ * x_11_ + 1 x_45_ ^ 2 + 1 y_11_ ^ 2 - 2 y_45_ * y_11_ + 1 y_45_ ^ 2 ] = 4852
c70: [ 1 x_22_ ^ 2 - 2 x_45_ * x_22_ + 1 x_45_ ^ 2 + 1 y_22_ ^ 2 - 2 y_45_ * y_22_ + 1 y_45_ ^ 2 ] = 1306
c71: [ 1 x_10_ ^ 2 - 2 x_46_ * x_10_ + 1 x_46_ ^ 2 + 1 y_10_ ^ 2 - 2 y_46_ * y_10_ + 1 y_46_ ^ 2 ] = 33025
c72: [ 1 x_23_ ^ 2 - 2 x_46_ * x_23_ + 1 x_46_ ^ 2 + 1 y_23_ ^ 2 - 2 y_46_ * y_23_ + 1 y_46_ ^ 2 ] = 8612
c73: [ 1 x_26_ ^ 2 - 2 x_46_ * x_26_ + 1 x_46_ ^ 2 + 1 y_26_ ^ 2 - 2 y_46_ * y_26_ + 1 y_46_ ^ 2 ] = 41809
c74: [ 1 x_14_ ^ 2 - 2 x_47_ * x_14_ + 1 x_47_ ^ 2 + 1 y_14_ ^ 2 - 2 y_47_ * y_14_ + 1 y_47_ ^ 2 ] = 890
c75: [ 1 x_23_ ^ 2 - 2 x_47_ * x_23_ + 1 x_47_ ^ 2 + 1 y_23_ ^ 2 - 2 y_47_ * y_23_ + 1 y_47_ ^ 2 ] = 10404
c76: [ 1 x_1_ ^ 2 - 2 x_48_ * x_1_ + 1 x_48_ ^ 2 + 1 y_1_ ^ 2 - 2 y_48_ * y_1_ + 1 y_48_ ^ 2 ] = 533
c77: [ 1 x_28_ ^ 2 - 2 x_48_ * x_28_ + 1 x_48_ ^ 2 + 1 y_28_ ^ 2 - 2 y_48_ * y_28_ + 1 y_48_ ^ 2 ] = 28381
c78: [ 1 x_18_ ^ 2 - 2 x_49_ * x_18_ + 1 x_49_ ^ 2 + 1 y_18_ ^ 2 - 2 y_49_ * y_18_ + 1 y_49_ ^ 2 ] = 5917
c79: [ 1 x_20_ ^ 2 - 2 x_49_ * x_20_ + 1 x_49_ ^ 2 + 1 y_20_ ^ 2 - 2 y_49_ * y_20_ + 1 y_49_ ^ 2 ] = 3989
c80: [ 1 x_31_ ^ 2 - 2 x_49_ * x_31_ + 1 x_49_ ^ 2 + 1 y_31_ ^ 2 - 2 y_49_ * y_31_ + 1 y_49_ ^ 2 ] = 13465
c81: [ 1 x_4_ ^ 2 - 2 x_50_ * x_4_ + 1 x_50_ ^ 2 + 1 y_4_ ^ 2 - 2 y_50_ * y_4_ + 1 y_50_ ^ 2 ] = 31784
c82: [ 1 x_14_ ^ 2 - 2 x_50_ * x_14_ + 1 x_50_ ^ 2 + 1 y_14_ ^ 2 - 2 y_50_ * y_14_ + 1 y_50_ ^ 2 ] = 2257
c83: [ 1 x_3_ ^ 2 - 2 x_51_ * x_3_ + 1 x_51_ ^ 2 + 1 y_3_ ^ 2 - 2 y_51_ * y_3_ + 1 y_51_ ^ 2 ] = 2320
c84: [ 1 x_18_ ^ 2 - 2 x_51_ * x_18_ + 1 x_51_ ^ 2 + 1 y_18_ ^ 2 - 2 y_51_ * y_18_ + 1 y_51_ ^ 2 ] = 15921
c85: [ 1 x_41_ ^ 2 - 2 x_51_ * x_41_ + 1 x_51_ ^ 2 + 1 y_41_ ^ 2 - 2 y_51_ * y_41_ + 1 y_51_ ^ 2 ] = 17386
c86: [ 1 x_20_ ^ 2 - 2 x_52_ * x_20_ + 1 x_52_ ^ 2 + 1 y_20_ ^ 2 - 2 y_52_ * y_20_ + 1 y_52_ ^ 2 ] = 20488
c87: [ 1 x_45_ ^ 2 - 2 x_52_ * x_45_ + 1 x_52_ ^ 2 + 1 y_45_ ^ 2 - 2 y_52_ * y_45_ + 1 y_52_ ^ 2 ] = 11365
c88: [ 1 x_38_ ^ 2 - 2 x_53_ * x_38_ + 1 x_53_ ^ 2 + 1 y_38_ ^ 2 - 2 y_53_ * y_38_ + 1 y_53_ ^ 2 ] = 5297
c89: [ 1 x_6_ ^ 2 - 2 x_54_ * x_6_ + 1 x_54_ ^ 2 + 1 y_6_ ^ 2 - 2 y_54_ * y_6_ + 1 y_54_ ^ 2 ] = 32402
c90: [ 1 x_25_ ^ 2 - 2 x_54_ * x_25_ + 1 x_54_ ^ 2 + 1 y_25_ ^ 2 - 2 y_54_ * y_25_ + 1 y_54_ ^ 2 ] = 20756
c91: [ 1 x_37_ ^ 2 - 2 x_54_ * x_37_ + 1 x_54_ ^ 2 + 1 y_37_ ^ 2 - 2 y_54_ * y_37_ + 1 y_54_ ^ 2 ] = 4969
c92: [ 1 x_6_ ^ 2 - 2 x_55_ * x_6_ + 1 x_55_ ^ 2 + 1 y_6_ ^ 2 - 2 y_55_ * y_6_ + 1 y_55_ ^ 2 ] = 12136
c93: [ 1 x_26_ ^ 2 - 2 x_55_ * x_26_ + 1 x_55_ ^ 2 + 1 y_26_ ^ 2 - 2 y_55_ * y_26_ + 1 y_55_ ^ 2 ] = 12244
c94: [ 1 x_3_ ^ 2 - 2 x_56_ * x_3_ + 1 x_56_ ^ 2 + 1 y_3_ ^ 2 - 2 y_56_ * y_3_ + 1 y_56_ ^ 2 ] = 5389
c95: [ 1 x_22_ ^ 2 - 2 x_56_ * x_22_ + 1 x_56_ ^ 2 + 1 y_22_ ^ 2 - 2 y_56_ * y_22_ + 1 y_56_ ^ 2 ] = 4033
c96: [ 1 x_42_ ^ 2 - 2 x_56_ * x_42_ + 1 x_56_ ^ 2 + 1 y_42_ ^ 2 - 2 y_56_ * y_42_ + 1 y_56_ ^ 2 ] = 5069
c97: [ 1 x_13_ ^ 2 - 2 x_57_ * x_13_ + 1 x_57_ ^ 2 + 1 y_13_ ^ 2 - 2 y_57_ * y_13_ + 1 y_57_ ^ 2 ] = 64037
c98: [ 1 x_15_ ^ 2 - 2 x_57_ * x_15_ + 1 x_57_ ^ 2 + 1 y_15_ ^ 2 - 2 y_57_ * y_15_ + 1 y_57_ ^ 2 ] = 19465
c99: [ 1 x_39_ ^ 2 - 2 x_57_ * x_39_ + 1 x_57_ ^ 2 + 1 y_39_ ^ 2 - 2 y_57_ * y_39_ + 1 y_57_ ^ 2 ] = 22181
c100: [ 1 x_7_ ^ 2 - 2 x_58_ * x_7_ + 1 x_58_ ^ 2 + 1 y_7_ ^ 2 - 2 y_58_ * y_7_ + 1 y_58_ ^ 2 ] = 1154
c101: [ 1 x_23_ ^ 2 - 2 x_58_ * x_23_ + 1 x_58_ ^ 2 + 1 y_23_ ^ 2 - 2 y_58_ * y_23_ + 1 y_58_ ^ 2 ] = 2405
c102: [ 1 x_15_ ^ 2 - 2 x_59_ * x_15_ + 1 x_59_ ^ 2 + 1 y_15_ ^ 2 - 2 y_59_ * y_15_ + 1 y_59_ ^ 2 ] = 15545
c103: [ 1 x_43_ ^ 2 - 2 x_59_ * x_43_ + 1 x_59_ ^ 2 + 1 y_43_ ^ 2 - 2 y_59_ * y_43_ + 1 y_59_ ^ 2 ] = 29529
c104: [ 1 x_44_ ^ 2 - 2 x_59_ * x_44_ + 1 x_59_ ^ 2 + 1 y_44_ ^ 2 - 2 y_59_ * y_44_ + 1 y_59_ ^ 2 ] = 55060
c105: [ 1 x_12_ ^ 2 - 2 x_60_ * x_12_ + 1 x_60_ ^ 2 + 1 y_12_ ^ 2 - 2 y_60_ * y_12_ + 1 y_60_ ^ 2 ] = 2713
c106: [ 1 x_15_ ^ 2 - 2 x_61_ * x_15_ + 1 x_61_ ^ 2 + 1 y_15_ ^ 2 - 2 y_61_ * y_15_ + 1 y_61_ ^ 2 ] = 1525
c107: [ 1 x_22_ ^ 2 - 2 x_61_ * x_22_ + 1 x_61_ ^ 2 + 1 y_22_ ^ 2 - 2 y_61_ * y_22_ + 1 y_61_ ^ 2 ] = 1277
c108: [ 1 x_33_ ^ 2 - 2 x_61_ * x_33_ + 1 x_61_ ^ 2 + 1 y_33_ ^ 2 - 2 y_61_ * y_33_ + 1 y_61_ ^ 2 ] = 3940
c109: [ 1 x_37_ ^ 2 - 2 x_62_ * x_37_ + 1 x_62_ ^ 2 + 1 y_37_ ^ 2 - 2 y_62_ * y_37_ + 1 y_62_ ^ 2 ] = 14884
c110: [ 1 x_11_ ^ 2 - 2 x_63_ * x_11_ + 1 x_63_ ^ 2 + 1 y_11_ ^ 2 - 2 y_63_ * y_11_ + 1 y_63_ ^ 2 ] = 181
c111: [ 1 x_33_ ^ 2 - 2 x_63_ * x_33_ + 1 x_63_ ^ 2 + 1 y_33_ ^ 2 - 2 y_63_ * y_33_ + 1 y_63_ ^ 2 ] = 7592
c112: [ 1 x_37_ ^ 2 - 2 x_64_ * x_37_ + 1 x_64_ ^ 2 + 1 y_37_ ^ 2 - 2 y_64_ * y_37_ + 1 y_64_ ^ 2 ] = 5882
c113: [ 1 x_39_ ^ 2 - 2 x_64_ * x_39_ + 1 x_64_ ^ 2 + 1 y_39_ ^ 2 - 2 y_64_ * y_39_ + 1 y_64_ ^ 2 ] = 27981
c114: [ 1 x_20_ ^ 2 - 2 x_65_ * x_20_ + 1 x_65_ ^ 2 + 1 y_20_ ^ 2 - 2 y_65_ * y_20_ + 1 y_65_ ^ 2 ] = 970
c115: [ 1 x_56_ ^ 2 - 2 x_65_ * x_56_ + 1 x_65_ ^ 2 + 1 y_56_ ^ 2 - 2 y_65_ * y_56_ + 1 y_65_ ^ 2 ] = 10676
c116: [ 1 x_40_ ^ 2 - 2 x_66_ * x_40_ + 1 x_66_ ^ 2 + 1 y_40_ ^ 2 - 2 y_66_ * y_40_ + 1 y_66_ ^ 2 ] = 4580
c117: [ 1 x_48_ ^ 2 - 2 x_66_ * x_48_ + 1 x_66_ ^ 2 + 1 y_48_ ^ 2 - 2 y_66_ * y_48_ + 1 y_66_ ^ 2 ] = 4705
c118: [ 1 x_60_ ^ 2 - 2 x_66_ * x_60_ + 1 x_66_ ^ 2 + 1 y_60_ ^ 2 - 2 y_66_ * y_60_ + 1 y_66_ ^ 2 ] = 4052
c119: [ 1 x_2_ ^ 2 - 2 x_67_ * x_2_ + 1 x_67_ ^ 2 + 1 y_2_ ^ 2 - 2 y_67_ * y_2_ + 1 y_67_ ^ 2 ] = 3681
c120: [ 1 x_13_ ^ 2 - 2 x_68_ * x_13_ + 1 x_68_ ^ 2 + 1 y_13_ ^ 2 - 2 y_68_ * y_13_ + 1 y_68_ ^ 2 ] = 12560
c121: [ 1 x_59_ ^ 2 - 2 x_68_ * x_59_ + 1 x_68_ ^ 2 + 1 y_59_ ^ 2 - 2 y_68_ * y_59_ + 1 y_68_ ^ 2 ] = 12025
c122: [ 1 x_4_ ^ 2 - 2 x_69_ * x_4_ + 1 x_69_ ^ 2 + 1 y_4_ ^ 2 - 2 y_69_ * y_4_ + 1 y_69_ ^ 2 ] = 50257
c123: [ 1 x_5_ ^ 2 - 2 x_69_ * x_5_ + 1 x_69_ ^ 2 + 1 y_5_ ^ 2 - 2 y_69_ * y_5_ + 1 y_69_ ^ 2 ] = 14162
c124: [ 1 x_10_ ^ 2 - 2 x_69_ * x_10_ + 1 x_69_ ^ 2 + 1 y_10_ ^ 2 - 2 y_69_ * y_10_ + 1 y_69_ ^ 2 ] = 11965
c125: [ 1 x_62_ ^ 2 - 2 x_70_ * x_62_ + 1 x_70_ ^ 2 + 1 y_62_ ^ 2 - 2 y_70_ * y_62_ + 1 y_70_ ^ 2 ] = 15284
c126: [ 1 x_69_ ^ 2 - 2 x_70_ * x_69_ + 1 x_70_ ^ 2 + 1 y_69_ ^ 2 - 2 y_70_ * y_69_ + 1 y_70_ ^ 2 ] = 11194
c127: [ 1 x_1_ ^ 2 - 2 x_71_ * x_1_ + 1 x_71_ ^ 2 + 1 y_1_ ^ 2 - 2 y_71_ * y_1_ + 1 y_71_ ^ 2 ] = 38725
c128: [ 1 x_2_ ^ 2 - 2 x_71_ * x_2_ + 1 x_71_ ^ 2 + 1 y_2_ ^ 2 - 2 y_71_ * y_2_ + 1 y_71_ ^ 2 ] = 7421
c129: [ 1 x_34_ ^ 2 - 2 x_72_ * x_34_ + 1 x_72_ ^ 2 + 1 y_34_ ^ 2 - 2 y_72_ * y_34_ + 1 y_72_ ^ 2 ] = 15188
c130: [ 1 x_37_ ^ 2 - 2 x_72_ * x_37_ + 1 x_72_ ^ 2 + 1 y_37_ ^ 2 - 2 y_72_ * y_37_ + 1 y_72_ ^ 2 ] = 2925
c131: [ 1 x_41_ ^ 2 - 2 x_72_ * x_41_ + 1 x_72_ ^ 2 + 1 y_41_ ^ 2 - 2 y_72_ * y_41_ + 1 y_72_ ^ 2 ] = 24986
c132: [ 1 x_38_ ^ 2 - 2 x_73_ * x_38_ + 1 x_73_ ^ 2 + 1 y_38_ ^ 2 - 2 y_73_ * y_38_ + 1 y_73_ ^ 2 ] = 4706
c133: [ 1 x_41_ ^ 2 - 2 x_73_ * x_41_ + 1 x_73_ ^ 2 + 1 y_41_ ^ 2 - 2 y_73_ * y_41_ + 1 y_73_ ^ 2 ] = 21933
c134: [ 1 x_47_ ^ 2 - 2 x_73_ * x_47_ + 1 x_73_ ^ 2 + 1 y_47_ ^ 2 - 2 y_73_ * y_47_ + 1 y_73_ ^ 2 ] = 21608
c135: [ 1 x_19_ ^ 2 - 2 x_74_ * x_19_ + 1 x_74_ ^ 2 + 1 y_19_ ^ 2 - 2 y_74_ * y_19_ + 1 y_74_ ^ 2 ] = 19097
c136: [ 1 x_20_ ^ 2 - 2 x_74_ * x_20_ + 1 x_74_ ^ 2 + 1 y_20_ ^ 2 - 2 y_74_ * y_20_ + 1 y_74_ ^ 2 ] = 25561
c137: [ 1 x_29_ ^ 2 - 2 x_75_ * x_29_ + 1 x_75_ ^ 2 + 1 y_29_ ^ 2 - 2 y_75_ * y_29_ + 1 y_75_ ^ 2 ] = 16052
c138: [ 1 x_71_ ^ 2 - 2 x_75_ * x_71_ + 1 x_75_ ^ 2 + 1 y_71_ ^ 2 - 2 y_75_ * y_71_ + 1 y_75_ ^ 2 ] = 11890
c139: [ 1 x_7_ ^ 2 - 2 x_76_ * x_7_ + 1 x_76_ ^ 2 + 1 y_7_ ^ 2 - 2 y_76_ * y_7_ + 1 y_76_ ^ 2 ] = 12461
c140: [ 1 x_9_ ^ 2 - 2 x_76_ * x_9_ + 1 x_76_ ^ 2 + 1 y_9_ ^ 2 - 2 y_76_ * y_9_ + 1 y_76_ ^ 2 ] = 39785
c141: [ 1 x_11_ ^ 2 - 2 x_77_ * x_11_ + 1 x_77_ ^ 2 + 1 y_11_ ^ 2 - 2 y_77_ * y_11_ + 1 y_77_ ^ 2 ] = 8420
c142: [ 1 x_30_ ^ 2 - 2 x_77_ * x_30_ + 1 x_77_ ^ 2 + 1 y_30_ ^ 2 - 2 y_77_ * y_30_ + 1 y_77_ ^ 2 ] = 12401
c143: [ 1 x_23_ ^ 2 - 2 x_78_ * x_23_ + 1 x_78_ ^ 2 + 1 y_23_ ^ 2 - 2 y_78_ * y_23_ + 1 y_78_ ^ 2 ] = 2601
c144: [ 1 x_36_ ^ 2 - 2 x_78_ * x_36_ + 1 x_78_ ^ 2 + 1 y_36_ ^ 2 - 2 y_78_ * y_36_ + 1 y_78_ ^ 2 ] = 2306
c145: [ 1 x_34_ ^ 2 - 2 x_79_ * x_34_ + 1 x_79_ ^ 2 + 1 y_34_ ^ 2 - 2 y_79_ * y_34_ + 1 y_79_ ^ 2 ] = 12554
c146: [ 1 x_53_ ^ 2 - 2 x_79_ * x_53_ + 1 x_79_ ^ 2 + 1 y_53_ ^ 2 - 2 y_79_ * y_53_ + 1 y_79_ ^ 2 ] = 4840
c147: [ 1 x_70_ ^ 2 - 2 x_79_ * x_70_ + 1 x_79_ ^ 2 + 1 y_70_ ^ 2 - 2 y_79_ * y_70_ + 1 y_79_ ^ 2 ] = 12897
c148: [ 1 x_52_ ^ 2 - 2 x_80_ * x_52_ + 1 x_80_ ^ 2 + 1 y_52_ ^ 2 - 2 y_80_ * y_52_ + 1 y_80_ ^ 2 ] = 14656
c149: [ 1 x_53_ ^ 2 - 2 x_80_ * x_53_ + 1 x_80_ ^ 2 + 1 y_53_ ^ 2 - 2 y_80_ * y_53_ + 1 y_80_ ^ 2 ] = 7589
c150: [ 1 x_11_ ^ 2 - 2 x_81_ * x_11_ + 1 x_81_ ^ 2 + 1 y_11_ ^ 2 - 2 y_81_ * y_11_ + 1 y_81_ ^ 2 ] = 1493
c151: [ 1 x_37_ ^ 2 - 2 x_81_ * x_37_ + 1 x_81_ ^ 2 + 1 y_37_ ^ 2 - 2 y_81_ * y_37_ + 1 y_81_ ^ 2 ] = 18394
c152: [ 1 x_60_ ^ 2 - 2 x_81_ * x_60_ + 1 x_81_ ^ 2 + 1 y_60_ ^ 2 - 2 y_81_ * y_60_ + 1 y_81_ ^ 2 ] = 25225
c153: [ 1 x_16_ ^ 2 - 2 x_82_ * x_16_ + 1 x_82_ ^ 2 + 1 y_16_ ^ 2 - 2 y_82_ * y_16_ + 1 y_82_ ^ 2 ] = 1258
c154: [ 1 x_63_ ^ 2 - 2 x_82_ * x_63_ + 1 x_82_ ^ 2 + 1 y_63_ ^ 2 - 2 y_82_ * y_63_ + 1 y_82_ ^ 2 ] = 10818
c155: [ 1 x_71_ ^ 2 - 2 x_82_ * x_71_ + 1 x_82_ ^ 2 + 1 y_71_ ^ 2 - 2 y_82_ * y_71_ + 1 y_82_ ^ 2 ] = 10130
c156: [ 1 x_46_ ^ 2 - 2 x_83_ * x_46_ + 1 x_83_ ^ 2 + 1 y_46_ ^ 2 - 2 y_83_ * y_46_ + 1 y_83_ ^ 2 ] = 23329
c157: [ 1 x_59_ ^ 2 - 2 x_83_ * x_59_ + 1 x_83_ ^ 2 + 1 y_59_ ^ 2 - 2 y_83_ * y_59_ + 1 y_83_ ^ 2 ] = 15661
c158: [ 1 x_67_ ^ 2 - 2 x_83_ * x_67_ + 1 x_83_ ^ 2 + 1 y_67_ ^ 2 - 2 y_83_ * y_67_ + 1 y_83_ ^ 2 ] = 13465
c159: [ 1 x_9_ ^ 2 - 2 x_84_ * x_9_ + 1 x_84_ ^ 2 + 1 y_9_ ^ 2 - 2 y_84_ * y_9_ + 1 y_84_ ^ 2 ] = 10565
c160: [ 1 x_29_ ^ 2 - 2 x_84_ * x_29_ + 1 x_84_ ^ 2 + 1 y_29_ ^ 2 - 2 y_84_ * y_29_ + 1 y_84_ ^ 2 ] = 5626
c161: [ 1 x_11_ ^ 2 - 2 x_85_ * x_11_ + 1 x_85_ ^ 2 + 1 y_11_ ^ 2 - 2 y_85_ * y_11_ + 1 y_85_ ^ 2 ] = 17386
c162: [ 1 x_19_ ^ 2 - 2 x_85_ * x_19_ + 1 x_85_ ^ 2 + 1 y_19_ ^ 2 - 2 y_85_ * y_19_ + 1 y_85_ ^ 2 ] = 5041
c163: [ 1 x_29_ ^ 2 - 2 x_85_ * x_29_ + 1 x_85_ ^ 2 + 1 y_29_ ^ 2 - 2 y_85_ * y_29_ + 1 y_85_ ^ 2 ] = 22725
c164: [ 1 x_34_ ^ 2 - 2 x_86_ * x_34_ + 1 x_86_ ^ 2 + 1 y_34_ ^ 2 - 2 y_86_ * y_34_ + 1 y_86_ ^ 2 ] = 19161
c165: [ 1 x_71_ ^ 2 - 2 x_86_ * x_71_ + 1 x_86_ ^ 2 + 1 y_71_ ^ 2 - 2 y_86_ * y_71_ + 1 y_86_ ^ 2 ] = 25114
c166: [ 1 x_7_ ^ 2 - 2 x_87_ * x_7_ + 1 x_87_ ^ 2 + 1 y_7_ ^ 2 - 2 y_87_ * y_7_ + 1 y_87_ ^ 2 ] = 909
c167: [ 1 x_17_ ^ 2 - 2 x_87_ * x_17_ + 1 x_87_ ^ 2 + 1 y_17_ ^ 2 - 2 y_87_ * y_17_ + 1 y_87_ ^ 2 ] = 3338
c168: [ 1 x_80_ ^ 2 - 2 x_87_ * x_80_ + 1 x_87_ ^ 2 + 1 y_80_ ^ 2 - 2 y_87_ * y_80_ + 1 y_87_ ^ 2 ] = 8228
c169: [ 1 x_37_ ^ 2 - 2 x_88_ * x_37_ + 1 x_88_ ^ 2 + 1 y_37_ ^ 2 - 2 y_88_ * y_37_ + 1 y_88_ ^ 2 ] = 14346
c170: [ 1 x_55_ ^ 2 - 2 x_88_ * x_55_ + 1 x_88_ ^ 2 + 1 y_55_ ^ 2 - 2 y_88_ * y_55_ + 1 y_88_ ^ 2 ] = 6437
c171: [ 1 x_58_ ^ 2 - 2 x_88_ * x_58_ + 1 x_88_ ^ 2 + 1 y_58_ ^ 2 - 2 y_88_ * y_58_ + 1 y_88_ ^ 2 ] = 2205
c172: [ 1 x_59_ ^ 2 - 2 x_89_ * x_59_ + 1 x_89_ ^ 2 + 1 y_59_ ^ 2 - 2 y_89_ * y_59_ + 1 y_89_ ^ 2 ] = 11560
c173: [ 1 x_70_ ^ 2 - 2 x_89_ * x_70_ + 1 x_89_ ^ 2 + 1 y_70_ ^ 2 - 2 y_89_ * y_70_ + 1 y_89_ ^ 2 ] = 17288
c174: [ 1 x_12_ ^ 2 - 2 x_90_ * x_12_ + 1 x_90_ ^ 2 + 1 y_12_ ^ 2 - 2 y_90_ * y_12_ + 1 y_90_ ^ 2 ] = 10025
c175: [ 1 x_86_ ^ 2 - 2 x_90_ * x_86_ + 1 x_90_ ^ 2 + 1 y_86_ ^ 2 - 2 y_90_ * y_86_ + 1 y_90_ ^ 2 ] = 15017
c176: [ 1 x_34_ ^ 2 - 2 x_91_ * x_34_ + 1 x_91_ ^ 2 + 1 y_34_ ^ 2 - 2 y_91_ * y_34_ + 1 y_91_ ^ 2 ] = 15588
c177: [ 1 x_35_ ^ 2 - 2 x_91_ * x_35_ + 1 x_91_ ^ 2 + 1 y_35_ ^ 2 - 2 y_91_ * y_35_ + 1 y_91_ ^ 2 ] = 6932
c178: [ 1 x_62_ ^ 2 - 2 x_91_ * x_62_ + 1 x_91_ ^ 2 + 1 y_62_ ^ 2 - 2 y_91_ * y_62_ + 1 y_91_ ^ 2 ] = 20485
c179: [ 1 x_48_ ^ 2 - 2 x_92_ * x_48_ + 1 x_92_ ^ 2 + 1 y_48_ ^ 2 - 2 y_92_ * y_48_ + 1 y_92_ ^ 2 ] = 33892
c180: [ 1 x_69_ ^ 2 - 2 x_92_ * x_69_ + 1 x_92_ ^ 2 + 1 y_69_ ^ 2 - 2 y_92_ * y_69_ + 1 y_92_ ^ 2 ] = 9090
c181: [ 1 x_12_ ^ 2 - 2 x_93_ * x_12_ + 1 x_93_ ^ 2 + 1 y_12_ ^ 2 - 2 y_93_ * y_12_ + 1 y_93_ ^ 2 ] = 10
c182: [ 1 x_76_ ^ 2 - 2 x_93_ * x_76_ + 1 x_93_ ^ 2 + 1 y_76_ ^ 2 - 2 y_93_ * y_76_ + 1 y_93_ ^ 2 ] = 30992
c183: [ 1 x_53_ ^ 2 - 2 x_94_ * x_53_ + 1 x_94_ ^ 2 + 1 y_53_ ^ 2 - 2 y_94_ * y_53_ + 1 y_94_ ^ 2 ] = 2113
c184: [ 1 x_63_ ^ 2 - 2 x_94_ * x_63_ + 1 x_94_ ^ 2 + 1 y_63_ ^ 2 - 2 y_94_ * y_63_ + 1 y_94_ ^ 2 ] = 18530
c185: [ 1 x_50_ ^ 2 - 2 x_95_ * x_50_ + 1 x_95_ ^ 2 + 1 y_50_ ^ 2 - 2 y_95_ * y_50_ + 1 y_95_ ^ 2 ] = 10100
c186: [ 1 x_68_ ^ 2 - 2 x_95_ * x_68_ + 1 x_95_ ^ 2 + 1 y_68_ ^ 2 - 2 y_95_ * y_68_ + 1 y_95_ ^ 2 ] = 10786
c187: [ 1 x_3_ ^ 2 - 2 x_96_ * x_3_ + 1 x_96_ ^ 2 + 1 y_3_ ^ 2 - 2 y_96_ * y_3_ + 1 y_96_ ^ 2 ] = 30500
c188: [ 1 x_41_ ^ 2 - 2 x_96_ * x_41_ + 1 x_96_ ^ 2 + 1 y_41_ ^ 2 - 2 y_96_ * y_41_ + 1 y_96_ ^ 2 ] = 23090
c189: [ 1 x_55_ ^ 2 - 2 x_96_ * x_55_ + 1 x_96_ ^ 2 + 1 y_55_ ^ 2 - 2 y_96_ * y_55_ + 1 y_96_ ^ 2 ] = 8210
c190: [ 1 x_57_ ^ 2 - 2 x_97_ * x_57_ + 1 x_97_ ^ 2 + 1 y_57_ ^ 2 - 2 y_97_ * y_57_ + 1 y_97_ ^ 2 ] = 3625
c191: [ 1 x_62_ ^ 2 - 2 x_97_ * x_62_ + 1 x_97_ ^ 2 + 1 y_62_ ^ 2 - 2 y_97_ * y_62_ + 1 y_97_ ^ 2 ] = 12889
c192: [ 1 x_52_ ^ 2 - 2 x_98_ * x_52_ + 1 x_98_ ^ 2 + 1 y_52_ ^ 2 - 2 y_98_ * y_52_ + 1 y_98_ ^ 2 ] = 48154
c193: [ 1 x_54_ ^ 2 - 2 x_98_ * x_54_ + 1 x_98_ ^ 2 + 1 y_54_ ^ 2 - 2 y_98_ * y_54_ + 1 y_98_ ^ 2 ] = 51173
c194: [ 1 x_31_ ^ 2 - 2 x_99_ * x_31_ + 1 x_99_ ^ 2 + 1 y_31_ ^ 2 - 2 y_99_ * y_31_ + 1 y_99_ ^ 2 ] = 19773
c195: [ 1 x_53_ ^ 2 - 2 x_99_ * x_53_ + 1 x_99_ ^ 2 + 1 y_53_ ^ 2 - 2 y_99_ * y_53_ + 1 y_99_ ^ 2 ] = 12410
c196: [ 1 x_27_ ^ 2 - 2 x_100_ * x_27_ + 1 x_100_ ^ 2 + 1 y_27_ ^ 2 - 2 y_100_ * y_27_ + 1 y_100_ ^ 2 ] = 14914
c197: [ 1 x_45_ ^ 2 - 2 x_100_ * x_45_ + 1 x_100_ ^ 2 + 1 y_45_ ^ 2 - 2 y_100_ * y_45_ + 1 y_100_ ^ 2 ] = 11664
Bounds
-192 <= x_1_ <= 192
-215 <= x_2_ <= 215
-172 <= x_3_ <= 172
-309 <= x_4_ <= 309
-298 <= x_5_ <= 298
-412 <= x_6_ <= 412
-202 <= x_7_ <= 202
-184 <= x_8_ <= 184
-241 <= x_9_ <= 241
-158 <= x_10_ <= 158
-141 <= x_11_ <= 141
-139 <= x_12_ <= 139
-197 <= x_13_ <= 197
-256 <= x_14_ <= 256
-39 <= x_15_ <= 39
-259 <= x_16_ <= 259
-114 <= x_17_ <= 114
-190 <= x_18_ <= 190
-153 <= x_19_ <= 153
-233 <= x_20_ <= 233
-280 <= x_21_ <= 280
-35 <= x_22_ <= 35
-256 <= x_23_ <= 256
-118 <= x_24_ <= 118
-249 <= x_25_ <= 249
-402 <= x_26_ <= 402
-301 <= x_27_ <= 301
-222 <= x_28_ <= 222
-174 <= x_29_ <= 174
-244 <= x_30_ <= 244
-152 <= x_31_ <= 152
-104 <= x_32_ <= 104
-62 <= x_33_ <= 62
-203 <= x_34_ <= 203
-302 <= x_35_ <= 302
-229 <= x_36_ <= 229
-315 <= x_37_ <= 315
-317 <= x_38_ <= 317
-327 <= x_39_ <= 327
-257 <= x_40_ <= 257
-352 <= x_41_ <= 352
-170 <= x_42_ <= 170
-75 <= x_43_ <= 75
-343 <= x_44_ <= 343
-71 <= x_45_ <= 71
-340 <= x_46_ <= 340
-285 <= x_47_ <= 285
-215 <= x_48_ <= 215
-267 <= x_49_ <= 267
-303 <= x_50_ <= 303
-220 <= x_51_ <= 220
-178 <= x_52_ <= 178
-331 <= x_53_ <= 331
-386 <= x_54_ <= 386
-363 <= x_55_ <= 363
-99 <= x_56_ <= 99
-178 <= x_57_ <= 178
-236 <= x_58_ <= 236
-163 <= x_59_ <= 163
-191 <= x_60_ <= 191
x_61_ = 0
-352 <= x_62_ <= 352
-149 <= x_63_ <= 149
-392 <= x_64_ <= 392
-202 <= x_65_ <= 202
-254 <= x_66_ <= 254
-275 <= x_67_ <= 275
-273 <= x_68_ <= 273
-268 <= x_69_ <= 268
-374 <= x_70_ <= 374
-301 <= x_71_ <= 301
-327 <= x_72_ <= 327
-386 <= x_73_ <= 386
-291 <= x_74_ <= 291
-300 <= x_75_ <= 300
-313 <= x_76_ <= 313
-233 <= x_77_ <= 233
-277 <= x_78_ <= 277
-316 <= x_79_ <= 316
-262 <= x_80_ <= 262
-180 <= x_81_ <= 180
-253 <= x_82_ <= 253
-288 <= x_83_ <= 288
-249 <= x_84_ <= 249
-224 <= x_85_ <= 224
-342 <= x_86_ <= 342
-172 <= x_87_ <= 172
-283 <= x_88_ <= 283
-271 <= x_89_ <= 271
-239 <= x_90_ <= 239
-328 <= x_91_ <= 328
-363 <= x_92_ <= 363
-142 <= x_93_ <= 142
-286 <= x_94_ <= 286
-377 <= x_95_ <= 377
-347 <= x_96_ <= 347
-238 <= x_97_ <= 238
-397 <= x_98_ <= 397
-293 <= x_99_ <= 293
-179 <= x_100_ <= 179
-192 <= y_1_ <= 192
-215 <= y_2_ <= 215
-172 <= y_3_ <= 172
-309 <= y_4_ <= 309
-298 <= y_5_ <= 298
-412 <= y_6_ <= 412
-202 <= y_7_ <= 202
-184 <= y_8_ <= 184
-241 <= y_9_ <= 241
-158 <= y_10_ <= 158
-141 <= y_11_ <= 141
-139 <= y_12_ <= 139
-197 <= y_13_ <= 197
-256 <= y_14_ <= 256
-39 <= y_15_ <= 39
-259 <= y_16_ <= 259
-114 <= y_17_ <= 114
-190 <= y_18_ <= 190
-153 <= y_19_ <= 153
-233 <= y_20_ <= 233
-280 <= y_21_ <= 280
-35 <= y_22_ <= 35
-256 <= y_23_ <= 256
-118 <= y_24_ <= 118
-249 <= y_25_ <= 249
-402 <= y_26_ <= 402
-301 <= y_27_ <= 301
-222 <= y_28_ <= 222
-174 <= y_29_ <= 174
-244 <= y_30_ <= 244
-152 <= y_31_ <= 152
-104 <= y_32_ <= 104
-62 <= y_33_ <= 62
-203 <= y_34_ <= 203
-302 <= y_35_ <= 302
-229 <= y_36_ <= 229
-315 <= y_37_ <= 315
-317 <= y_38_ <= 317
-327 <= y_39_ <= 327
-257 <= y_40_ <= 257
-352 <= y_41_ <= 352
-170 <= y_42_ <= 170
-75 <= y_43_ <= 75
-343 <= y_44_ <= 343
-71 <= y_45_ <= 71
-340 <= y_46_ <= 340
-285 <= y_47_ <= 285
-215 <= y_48_ <= 215
-267 <= y_49_ <= 267
-303 <= y_50_ <= 303
-220 <= y_51_ <= 220
-178 <= y_52_ <= 178
-331 <= y_53_ <= 331
-386 <= y_54_ <= 386
-363 <= y_55_ <= 363
-99 <= y_56_ <= 99
-178 <= y_57_ <= 178
-236 <= y_58_ <= 236
-163 <= y_59_ <= 163
-191 <= y_60_ <= 191
y_61_ = 0
-352 <= y_62_ <= 352
-149 <= y_63_ <= 149
-392 <= y_64_ <= 392
-202 <= y_65_ <= 202
-254 <= y_66_ <= 254
-275 <= y_67_ <= 275
-273 <= y_68_ <= 273
-268 <= y_69_ <= 268
-374 <= y_70_ <= 374
-301 <= y_71_ <= 301
-327 <= y_72_ <= 327
-386 <= y_73_ <= 386
-291 <= y_74_ <= 291
-300 <= y_75_ <= 300
-313 <= y_76_ <= 313
-233 <= y_77_ <= 233
-277 <= y_78_ <= 277
-316 <= y_79_ <= 316
-262 <= y_80_ <= 262
-180 <= y_81_ <= 180
-253 <= y_82_ <= 253
-288 <= y_83_ <= 288
-249 <= y_84_ <= 249
-224 <= y_85_ <= 224
-342 <= y_86_ <= 342
-172 <= y_87_ <= 172
-283 <= y_88_ <= 283
-271 <= y_89_ <= 271
-239 <= y_90_ <= 239
-328 <= y_91_ <= 328
-363 <= y_92_ <= 363
-142 <= y_93_ <= 142
-286 <= y_94_ <= 286
-377 <= y_95_ <= 377
-347 <= y_96_ <= 347
-238 <= y_97_ <= 238
-397 <= y_98_ <= 397
-293 <= y_99_ <= 293
-179 <= y_100_ <= 179
General
x_1_
x_2_
x_3_
x_4_
x_5_
x_6_
x_7_
x_8_
x_9_
x_10_
x_11_
x_12_
x_13_
x_14_
x_15_
x_16_
x_17_
x_18_
x_19_
x_20_
x_21_
x_22_
x_23_
x_24_
x_25_
x_26_
x_27_
x_28_
x_29_
x_30_
x_31_
x_32_
x_33_
x_34_
x_35_
x_36_
x_37_
x_38_
x_39_
x_40_
x_41_
x_42_
x_43_
x_44_
x_45_
x_46_
x_47_
x_48_
x_49_
x_50_
x_51_
x_52_
x_53_
x_54_
x_55_
x_56_
x_57_
x_58_
x_59_
x_60_
x_61_
x_62_
x_63_
x_64_
x_65_
x_66_
x_67_
x_68_
x_69_
x_70_
x_71_
x_72_
x_73_
x_74_
x_75_
x_76_
x_77_
x_78_
x_79_
x_80_
x_81_
x_82_
x_83_
x_84_
x_85_
x_86_
x_87_
x_88_
x_89_
x_90_
x_91_
x_92_
x_93_
x_94_
x_95_
x_96_
x_97_
x_98_
x_99_
x_100_
y_1_
y_2_
y_3_
y_4_
y_5_
y_6_
y_7_
y_8_
y_9_
y_10_
y_11_
y_12_
y_13_
y_14_
y_15_
y_16_
y_17_
y_18_
y_19_
y_20_
y_21_
y_22_
y_23_
y_24_
y_25_
y_26_
y_27_
y_28_
y_29_
y_30_
y_31_
y_32_
y_33_
y_34_
y_35_
y_36_
y_37_
y_38_
y_39_
y_40_
y_41_
y_42_
y_43_
y_44_
y_45_
y_46_
y_47_
y_48_
y_49_
y_50_
y_51_
y_52_
y_53_
y_54_
y_55_
y_56_
y_57_
y_58_
y_59_
y_60_
y_61_
y_62_
y_63_
y_64_
y_65_
y_66_
y_67_
y_68_
y_69_
y_70_
y_71_
y_72_
y_73_
y_74_
y_75_
y_76_
y_77_
y_78_
y_79_
y_80_
y_81_
y_82_
y_83_
y_84_
y_85_
y_86_
y_87_
y_88_
y_89_
y_90_
y_91_
y_92_
y_93_
y_94_
y_95_
y_96_
y_97_
y_98_
y_99_
y_100_
End
