minimize
obj: 
subject to
c1_4: -1 x_15_ + 1 y_15_ <= 0
c1_1: [ 1 x_1_ ^ 2 + 1 y_1_ ^ 2 ] <= 29335
c2_1: [ 1 x_2_ ^ 2 + 1 y_2_ ^ 2 ] <= 41729
c3_1: [ 1 x_3_ ^ 2 + 1 y_3_ ^ 2 ] <= 5849
c4_1: [ 1 x_4_ ^ 2 + 1 y_4_ ^ 2 ] <= 26588
c5_1: [ 1 x_5_ ^ 2 + 1 y_5_ ^ 2 ] <= 37615
c6_1: [ 1 x_6_ ^ 2 + 1 y_6_ ^ 2 ] <= 23440
c7_1: [ 1 x_8_ ^ 2 + 1 y_8_ ^ 2 ] <= 36700
c8_1: [ 1 x_9_ ^ 2 + 1 y_9_ ^ 2 ] <= 13027
c9_1: [ 1 x_10_ ^ 2 + 1 y_10_ ^ 2 ] <= 24021
c10_1: [ 1 x_11_ ^ 2 + 1 y_11_ ^ 2 ] <= 13032
c11_1: [ 1 x_12_ ^ 2 + 1 y_12_ ^ 2 ] <= 48345
c12_1: [ 1 x_13_ ^ 2 + 1 y_13_ ^ 2 ] <= 55468
c13_1: [ 1 x_14_ ^ 2 + 1 y_14_ ^ 2 ] <= 19675
c14_1: [ 1 x_15_ ^ 2 + 1 y_15_ ^ 2 ] <= 67377
c15_1: [ 1 x_16_ ^ 2 + 1 y_16_ ^ 2 ] <= 51170
c16_1: [ 1 x_17_ ^ 2 + 1 y_17_ ^ 2 ] <= 64804
c17_1: [ 1 x_18_ ^ 2 + 1 y_18_ ^ 2 ] <= 49937
c18_1: [ 1 x_19_ ^ 2 + 1 y_19_ ^ 2 ] <= 56799
c19_1: [ 1 x_20_ ^ 2 + 1 y_20_ ^ 2 ] <= 19874
c1_3: 1 x_15_ >= 0
c2_3: 1 y_15_ >= 0
c1_2: 1 x_7_ = 0
c2_2: 1 y_7_ = 0
c1: [ 1 x_1_ ^ 2 - 2 x_3_ * x_1_ + 1 x_3_ ^ 2 + 1 y_1_ ^ 2 - 2 y_3_ * y_1_ + 1 y_3_ ^ 2 ] = 8986
c2: [ 1 x_1_ ^ 2 - 2 x_4_ * x_1_ + 1 x_4_ ^ 2 + 1 y_1_ ^ 2 - 2 y_4_ * y_1_ + 1 y_4_ ^ 2 ] = 29042
c3: [ 1 x_3_ ^ 2 - 2 x_4_ * x_3_ + 1 x_4_ ^ 2 + 1 y_3_ ^ 2 - 2 y_4_ * y_3_ + 1 y_4_ ^ 2 ] = 7496
c4: [ 1 x_1_ ^ 2 - 2 x_5_ * x_1_ + 1 x_5_ ^ 2 + 1 y_1_ ^ 2 - 2 y_5_ * y_1_ + 1 y_5_ ^ 2 ] = 514
c5: [ 1 x_2_ ^ 2 - 2 x_5_ * x_2_ + 1 x_5_ ^ 2 + 1 y_2_ ^ 2 - 2 y_5_ * y_2_ + 1 y_5_ ^ 2 ] = 20200
c6: [ 1 x_3_ ^ 2 - 2 x_6_ * x_3_ + 1 x_6_ ^ 2 + 1 y_3_ ^ 2 - 2 y_6_ * y_3_ + 1 y_6_ ^ 2 ] = 6065
c7: [ 1 x_4_ ^ 2 - 2 x_6_ * x_4_ + 1 x_6_ ^ 2 + 1 y_4_ ^ 2 - 2 y_6_ * y_4_ + 1 y_6_ ^ 2 ] = 829
c8: [ 1 x_2_ ^ 2 - 2 x_7_ * x_2_ + 1 x_7_ ^ 2 + 1 y_2_ ^ 2 - 2 y_7_ * y_2_ + 1 y_7_ ^ 2 ] = 41729
c9: [ 1 x_3_ ^ 2 - 2 x_7_ * x_3_ + 1 x_7_ ^ 2 + 1 y_3_ ^ 2 - 2 y_7_ * y_3_ + 1 y_7_ ^ 2 ] = 5849
c10: [ 1 x_6_ ^ 2 - 2 x_7_ * x_6_ + 1 x_7_ ^ 2 + 1 y_6_ ^ 2 - 2 y_7_ * y_6_ + 1 y_7_ ^ 2 ] = 23440
c11: [ 1 x_4_ ^ 2 - 2 x_8_ * x_4_ + 1 x_8_ ^ 2 + 1 y_4_ ^ 2 - 2 y_8_ * y_4_ + 1 y_8_ ^ 2 ] = 12762
c12: [ 1 x_3_ ^ 2 - 2 x_9_ * x_3_ + 1 x_9_ ^ 2 + 1 y_3_ ^ 2 - 2 y_9_ * y_3_ + 1 y_9_ ^ 2 ] = 1418
c13: [ 1 x_5_ ^ 2 - 2 x_9_ * x_5_ + 1 x_9_ ^ 2 + 1 y_5_ ^ 2 - 2 y_9_ * y_5_ + 1 y_9_ ^ 2 ] = 16218
c14: [ 1 x_1_ ^ 2 - 2 x_10_ * x_1_ + 1 x_10_ ^ 2 + 1 y_1_ ^ 2 - 2 y_10_ * y_1_ + 1 y_10_ ^ 2 ] = 10504
c15: [ 1 x_7_ ^ 2 - 2 x_10_ * x_7_ + 1 x_10_ ^ 2 + 1 y_7_ ^ 2 - 2 y_10_ * y_7_ + 1 y_10_ ^ 2 ] = 24021
c16: [ 1 x_7_ ^ 2 - 2 x_11_ * x_7_ + 1 x_11_ ^ 2 + 1 y_7_ ^ 2 - 2 y_11_ * y_7_ + 1 y_11_ ^ 2 ] = 13032
c17: [ 1 x_8_ ^ 2 - 2 x_11_ * x_8_ + 1 x_11_ ^ 2 + 1 y_8_ ^ 2 - 2 y_11_ * y_8_ + 1 y_11_ ^ 2 ] = 5993
c18: [ 1 x_4_ ^ 2 - 2 x_12_ * x_4_ + 1 x_12_ ^ 2 + 1 y_4_ ^ 2 - 2 y_12_ * y_4_ + 1 y_12_ ^ 2 ] = 18261
c19: [ 1 x_5_ ^ 2 - 2 x_12_ * x_5_ + 1 x_12_ ^ 2 + 1 y_5_ ^ 2 - 2 y_12_ * y_5_ + 1 y_12_ ^ 2 ] = 8101
c20: [ 1 x_8_ ^ 2 - 2 x_12_ * x_8_ + 1 x_12_ ^ 2 + 1 y_8_ ^ 2 - 2 y_12_ * y_8_ + 1 y_12_ ^ 2 ] = 801
c21: [ 1 x_1_ ^ 2 - 2 x_13_ * x_1_ + 1 x_13_ ^ 2 + 1 y_1_ ^ 2 - 2 y_13_ * y_1_ + 1 y_13_ ^ 2 ] = 32233
c22: [ 1 x_10_ ^ 2 - 2 x_13_ * x_10_ + 1 x_13_ ^ 2 + 1 y_10_ ^ 2 - 2 y_13_ * y_10_ + 1 y_13_ ^ 2 ] = 6485
c23: [ 1 x_3_ ^ 2 - 2 x_14_ * x_3_ + 1 x_14_ ^ 2 + 1 y_3_ ^ 2 - 2 y_14_ * y_3_ + 1 y_14_ ^ 2 ] = 4069
c24: [ 1 x_11_ ^ 2 - 2 x_15_ * x_11_ + 1 x_15_ ^ 2 + 1 y_11_ ^ 2 - 2 y_15_ * y_11_ + 1 y_15_ ^ 2 ] = 21145
c25: [ 1 x_2_ ^ 2 - 2 x_16_ * x_2_ + 1 x_16_ ^ 2 + 1 y_2_ ^ 2 - 2 y_16_ * y_2_ + 1 y_16_ ^ 2 ] = 481
c26: [ 1 x_9_ ^ 2 - 2 x_16_ * x_9_ + 1 x_16_ ^ 2 + 1 y_9_ ^ 2 - 2 y_16_ * y_9_ + 1 y_16_ ^ 2 ] = 14825
c27: [ 1 x_14_ ^ 2 - 2 x_16_ * x_14_ + 1 x_16_ ^ 2 + 1 y_14_ ^ 2 - 2 y_16_ * y_14_ + 1 y_16_ ^ 2 ] = 9800
c28: [ 1 x_1_ ^ 2 - 2 x_17_ * x_1_ + 1 x_17_ ^ 2 + 1 y_1_ ^ 2 - 2 y_17_ * y_1_ + 1 y_17_ ^ 2 ] = 11945
c29: [ 1 x_2_ ^ 2 - 2 x_17_ * x_2_ + 1 x_17_ ^ 2 + 1 y_2_ ^ 2 - 2 y_17_ * y_2_ + 1 y_17_ ^ 2 ] = 2529
c30: [ 1 x_8_ ^ 2 - 2 x_17_ * x_8_ + 1 x_17_ ^ 2 + 1 y_8_ ^ 2 - 2 y_17_ * y_8_ + 1 y_17_ ^ 2 ] = 9117
c31: [ 1 x_9_ ^ 2 - 2 x_18_ * x_9_ + 1 x_18_ ^ 2 + 1 y_9_ ^ 2 - 2 y_18_ * y_9_ + 1 y_18_ ^ 2 ] = 11953
c32: [ 1 x_14_ ^ 2 - 2 x_18_ * x_14_ + 1 x_18_ ^ 2 + 1 y_14_ ^ 2 - 2 y_18_ * y_14_ + 1 y_18_ ^ 2 ] = 19112
c33: [ 1 x_15_ ^ 2 - 2 x_18_ * x_15_ + 1 x_18_ ^ 2 + 1 y_15_ ^ 2 - 2 y_18_ * y_15_ + 1 y_18_ ^ 2 ] = 19925
c34: [ 1 x_1_ ^ 2 - 2 x_19_ * x_1_ + 1 x_19_ ^ 2 + 1 y_1_ ^ 2 - 2 y_19_ * y_1_ + 1 y_19_ ^ 2 ] = 4496
c35: [ 1 x_10_ ^ 2 - 2 x_19_ * x_10_ + 1 x_19_ ^ 2 + 1 y_10_ ^ 2 - 2 y_19_ * y_10_ + 1 y_19_ ^ 2 ] = 9640
c36: [ 1 x_3_ ^ 2 - 2 x_20_ * x_3_ + 1 x_20_ ^ 2 + 1 y_3_ ^ 2 - 2 y_20_ * y_3_ + 1 y_20_ ^ 2 ] = 4160
c37: [ 1 x_11_ ^ 2 - 2 x_20_ * x_11_ + 1 x_20_ ^ 2 + 1 y_11_ ^ 2 - 2 y_20_ * y_11_ + 1 y_20_ ^ 2 ] = 5045
Bounds
-171 <= x_1_ <= 171
-204 <= x_2_ <= 204
-76 <= x_3_ <= 76
-163 <= x_4_ <= 163
-193 <= x_5_ <= 193
-153 <= x_6_ <= 153
x_7_ = 0
-191 <= x_8_ <= 191
-114 <= x_9_ <= 114
-154 <= x_10_ <= 154
-114 <= x_11_ <= 114
-219 <= x_12_ <= 219
-235 <= x_13_ <= 235
-140 <= x_14_ <= 140
-259 <= x_15_ <= 259
-226 <= x_16_ <= 226
-254 <= x_17_ <= 254
-223 <= x_18_ <= 223
-238 <= x_19_ <= 238
-140 <= x_20_ <= 140
-171 <= y_1_ <= 171
-204 <= y_2_ <= 204
-76 <= y_3_ <= 76
-163 <= y_4_ <= 163
-193 <= y_5_ <= 193
-153 <= y_6_ <= 153
y_7_ = 0
-191 <= y_8_ <= 191
-114 <= y_9_ <= 114
-154 <= y_10_ <= 154
-114 <= y_11_ <= 114
-219 <= y_12_ <= 219
-235 <= y_13_ <= 235
-140 <= y_14_ <= 140
-259 <= y_15_ <= 259
-226 <= y_16_ <= 226
-254 <= y_17_ <= 254
-223 <= y_18_ <= 223
-238 <= y_19_ <= 238
-140 <= y_20_ <= 140
General
x_1_
x_2_
x_3_
x_4_
x_5_
x_6_
x_7_
x_8_
x_9_
x_10_
x_11_
x_12_
x_13_
x_14_
x_15_
x_16_
x_17_
x_18_
x_19_
x_20_
y_1_
y_2_
y_3_
y_4_
y_5_
y_6_
y_7_
y_8_
y_9_
y_10_
y_11_
y_12_
y_13_
y_14_
y_15_
y_16_
y_17_
y_18_
y_19_
y_20_
End
