minimize
obj: 
subject to
c1: -162 x_1_ - 198 y_1_ + [ 1 x_1_ ^ 2 + 1 y_1_ ^ 2 ] <= 45697.44999999999
c2: -162 x_2_ - 198 y_2_ + [ 1 x_2_ ^ 2 + 1 y_2_ ^ 2 ] <= 126391.84798365197
c3: -162 x_3_ - 198 y_3_ + [ 1 x_3_ ^ 2 + 1 y_3_ ^ 2 ] <= 88993.17449986658
c4: -162 x_4_ - 198 y_4_ + [ 1 x_4_ ^ 2 + 1 y_4_ ^ 2 ] <= 15182.319999999992
c5: -162 x_5_ - 198 y_5_ + [ 1 x_5_ ^ 2 + 1 y_5_ ^ 2 ] <= 168396.1791490499
c6: -162 x_6_ - 198 y_6_ + [ 1 x_6_ ^ 2 + 1 y_6_ ^ 2 ] <= 61665.42410520285
c7: -162 x_7_ - 198 y_7_ + [ 1 x_7_ ^ 2 + 1 y_7_ ^ 2 ] <= 118477.63139547361
c8: -162 x_8_ - 198 y_8_ + [ 1 x_8_ ^ 2 + 1 y_8_ ^ 2 ] <= 40592.75802613325
c9: -162 x_9_ - 198 y_9_ + [ 1 x_9_ ^ 2 + 1 y_9_ ^ 2 ] <= 63810.74442290986
c10: -162 x_10_ - 198 y_10_ + [ 1 x_10_ ^ 2 + 1 y_10_ ^ 2 ] <= 71734.85173193678
c11: -162 x_11_ - 198 y_11_ + [ 1 x_11_ ^ 2 + 1 y_11_ ^ 2 ] <= 116376.53548909255
c12: -162 x_12_ - 198 y_12_ + [ 1 x_12_ ^ 2 + 1 y_12_ ^ 2 ] <= 33331.957930787015
c13: -162 x_14_ - 198 y_14_ + [ 1 x_14_ ^ 2 + 1 y_14_ ^ 2 ] <= 73155.41446510454
c14: -162 x_15_ - 198 y_15_ + [ 1 x_15_ ^ 2 + 1 y_15_ ^ 2 ] <= 81677.70473980508
c15: -162 x_16_ - 198 y_16_ + [ 1 x_16_ ^ 2 + 1 y_16_ ^ 2 ] <= 159887.98519596743
c16: -162 x_17_ - 198 y_17_ + [ 1 x_17_ ^ 2 + 1 y_17_ ^ 2 ] <= 82949.15844110817
c17: -162 x_18_ - 198 y_18_ + [ 1 x_18_ ^ 2 + 1 y_18_ ^ 2 ] <= 6173.119999999995
c18: -162 x_19_ - 198 y_19_ + [ 1 x_19_ ^ 2 + 1 y_19_ ^ 2 ] <= 110112.60659616627
c19: -162 x_20_ - 198 y_20_ + [ 1 x_20_ ^ 2 + 1 y_20_ ^ 2 ] <= 23981.314879483514
c20: -38 x_1_ - 50 y_1_ + [ 1 x_1_ ^ 2 + 1 y_1_ ^ 2 ] <= 28622.05667262589
c21: -38 x_2_ - 50 y_2_ + [ 1 x_2_ ^ 2 + 1 y_2_ ^ 2 ] <= 57186.22393960215
c22: -38 x_3_ - 50 y_3_ + [ 1 x_3_ ^ 2 + 1 y_3_ ^ 2 ] <= 11975.571377430855
c23: -38 x_4_ - 50 y_4_ + [ 1 x_4_ ^ 2 + 1 y_4_ ^ 2 ] <= 84617.50466727988
c24: -38 x_5_ - 50 y_5_ + [ 1 x_5_ ^ 2 + 1 y_5_ ^ 2 ] <= 62354.330852708736
c25: -38 x_6_ - 50 y_6_ + [ 1 x_6_ ^ 2 + 1 y_6_ ^ 2 ] <= 39933.815836902686
c26: -38 x_7_ - 50 y_7_ + [ 1 x_7_ ^ 2 + 1 y_7_ ^ 2 ] <= 43605.62126754021
c27: -38 x_8_ - 50 y_8_ + [ 1 x_8_ ^ 2 + 1 y_8_ ^ 2 ] <= -738.5500000000001
c28: -38 x_9_ - 50 y_9_ + [ 1 x_9_ ^ 2 + 1 y_9_ ^ 2 ] <= 4257.526479806089
c29: -38 x_10_ - 50 y_10_ + [ 1 x_10_ ^ 2 + 1 y_10_ ^ 2 ] <= 4473.6909672083775
c30: -38 x_11_ - 50 y_11_ + [ 1 x_11_ ^ 2 + 1 y_11_ ^ 2 ] <= 19011.23618316699
c31: -38 x_13_ - 50 y_13_ + [ 1 x_13_ ^ 2 + 1 y_13_ ^ 2 ] <= 48707.957930787015
c32: -38 x_14_ - 50 y_14_ + [ 1 x_14_ ^ 2 + 1 y_14_ ^ 2 ] <= 4831.6
c33: -38 x_15_ - 50 y_15_ + [ 1 x_15_ ^ 2 + 1 y_15_ ^ 2 ] <= 23686.57027125442
c34: -38 x_16_ - 50 y_16_ + [ 1 x_16_ ^ 2 + 1 y_16_ ^ 2 ] <= 53638.49934414613
c35: -38 x_17_ - 50 y_17_ + [ 1 x_17_ ^ 2 + 1 y_17_ ^ 2 ] <= 7517.6640003249795
c36: -38 x_18_ - 50 y_18_ + [ 1 x_18_ ^ 2 + 1 y_18_ ^ 2 ] <= 4314.4800000000005
c37: -38 x_19_ - 50 y_19_ + [ 1 x_19_ ^ 2 + 1 y_19_ ^ 2 ] <= 16626.280772537237
c38: -38 x_20_ - 50 y_20_ + [ 1 x_20_ ^ 2 + 1 y_20_ ^ 2 ] <= 7099.05
c39: -194 x_1_ + 154 y_1_ + [ 1 x_1_ ^ 2 + 1 y_1_ ^ 2 ] <= 15468.009999999995
c40: -194 x_2_ + 154 y_2_ + [ 1 x_2_ ^ 2 + 1 y_2_ ^ 2 ] <= 77215.98823891516
c41: -194 x_3_ + 154 y_3_ + [ 1 x_3_ ^ 2 + 1 y_3_ ^ 2 ] <= 16607.080971063868
c42: -194 x_5_ + 154 y_5_ + [ 1 x_5_ ^ 2 + 1 y_5_ ^ 2 ] <= 48280.89
c43: -194 x_6_ + 154 y_6_ + [ 1 x_6_ ^ 2 + 1 y_6_ ^ 2 ] <= 26988.051342585
c44: -194 x_7_ + 154 y_7_ + [ 1 x_7_ ^ 2 + 1 y_7_ ^ 2 ] <= 20609.384721540257
c45: -194 x_8_ + 154 y_8_ + [ 1 x_8_ ^ 2 + 1 y_8_ ^ 2 ] <= 61308.045709572936
c46: -194 x_9_ + 154 y_9_ + [ 1 x_9_ ^ 2 + 1 y_9_ ^ 2 ] <= 33136.19817655703
c47: -194 x_10_ + 154 y_10_ + [ 1 x_10_ ^ 2 + 1 y_10_ ^ 2 ] <= 96893.29851975261
c48: -194 x_11_ + 154 y_11_ + [ 1 x_11_ ^ 2 + 1 y_11_ ^ 2 ] <= 147881.6137055904
c49: -194 x_12_ + 154 y_12_ + [ 1 x_12_ ^ 2 + 1 y_12_ ^ 2 ] <= 70265.50466727985
c50: -194 x_13_ + 154 y_13_ + [ 1 x_13_ ^ 2 + 1 y_13_ ^ 2 ] <= 16206.319999999992
c51: -194 x_14_ + 154 y_14_ + [ 1 x_14_ ^ 2 + 1 y_14_ ^ 2 ] <= 120715.24325607557
c52: -194 x_15_ + 154 y_15_ + [ 1 x_15_ ^ 2 + 1 y_15_ ^ 2 ] <= 3023.7999999999993
c53: -194 x_16_ + 154 y_16_ + [ 1 x_16_ ^ 2 + 1 y_16_ ^ 2 ] <= 92466.97654083544
c54: -194 x_17_ + 154 y_17_ + [ 1 x_17_ ^ 2 + 1 y_17_ ^ 2 ] <= 109507.61674555409
c55: -194 x_18_ + 154 y_18_ + [ 1 x_18_ ^ 2 + 1 y_18_ ^ 2 ] <= 92065.16967144735
c56: -194 x_19_ + 154 y_19_ + [ 1 x_19_ ^ 2 + 1 y_19_ ^ 2 ] <= 77231.84136461579
c57: -194 x_20_ + 154 y_20_ + [ 1 x_20_ ^ 2 + 1 y_20_ ^ 2 ] <= 127896.74230281747
quadratic_ranged_1_ub: [ 1 x_1_ ^ 2 - 2 x_3_ * x_1_ + 1 x_3_ ^ 2 + 1 y_1_ ^ 2 - 2 y_3_ * y_1_ + 1 y_3_ ^ 2 ] <= 52969.45
quadratic_ranged_2_ub: [ 1 x_1_ ^ 2 - 2 x_4_ * x_1_ + 1 x_4_ ^ 2 + 1 y_1_ ^ 2 - 2 y_4_ * y_1_ + 1 y_4_ ^ 2 ] <= 30806.010000000002
quadratic_ranged_3_ub: [ 1 x_2_ ^ 2 - 2 x_5_ * x_2_ + 1 x_5_ ^ 2 + 1 y_2_ ^ 2 - 2 y_5_ * y_2_ + 1 y_5_ ^ 2 ] <= 34486.45
quadratic_ranged_4_ub: [ 1 x_4_ ^ 2 - 2 x_5_ * x_4_ + 1 x_5_ ^ 2 + 1 y_4_ ^ 2 - 2 y_5_ * y_4_ + 1 y_5_ ^ 2 ] <= 63618.89
quadratic_ranged_5_ub: [ 1 x_1_ ^ 2 - 2 x_6_ * x_1_ + 1 x_6_ ^ 2 + 1 y_1_ ^ 2 - 2 y_6_ * y_1_ + 1 y_6_ ^ 2 ] <= 913.04
quadratic_ranged_6_ub: [ 1 x_2_ ^ 2 - 2 x_6_ * x_2_ + 1 x_6_ ^ 2 + 1 y_2_ ^ 2 - 2 y_6_ * y_2_ + 1 y_6_ ^ 2 ] <= 9701.05
quadratic_ranged_7_ub: [ 1 x_1_ ^ 2 - 2 x_7_ * x_1_ + 1 x_7_ ^ 2 + 1 y_1_ ^ 2 - 2 y_7_ * y_1_ + 1 y_7_ ^ 2 ] <= 36671.08
quadratic_ranged_8_ub: [ 1 x_2_ ^ 2 - 2 x_7_ * x_2_ + 1 x_7_ ^ 2 + 1 y_2_ ^ 2 - 2 y_7_ * y_2_ + 1 y_7_ ^ 2 ] <= 16447.85
quadratic_ranged_9_ub: [ 1 x_1_ ^ 2 - 2 x_8_ * x_1_ + 1 x_8_ ^ 2 + 1 y_1_ ^ 2 - 2 y_8_ * y_1_ + 1 y_8_ ^ 2 ] <= 24442
quadratic_ranged_10_ub: [ 1 x_3_ ^ 2 - 2 x_9_ * x_3_ + 1 x_9_ ^ 2 + 1 y_3_ ^ 2 - 2 y_9_ * y_3_ + 1 y_9_ ^ 2 ] <= 1717
quadratic_ranged_11_ub: [ 1 x_5_ ^ 2 - 2 x_9_ * x_5_ + 1 x_9_ ^ 2 + 1 y_5_ ^ 2 - 2 y_9_ * y_5_ + 1 y_9_ ^ 2 ] <= 32135.170000000002
quadratic_ranged_12_ub: [ 1 x_8_ ^ 2 - 2 x_9_ * x_8_ + 1 x_9_ ^ 2 + 1 y_8_ ^ 2 - 2 y_9_ * y_8_ + 1 y_9_ ^ 2 ] <= 3212.81
quadratic_ranged_13_ub: [ 1 x_5_ ^ 2 - 2 x_10_ * x_5_ + 1 x_10_ ^ 2 + 1 y_5_ ^ 2 - 2 y_10_ * y_5_ + 1 y_10_ ^ 2 ] <= 38534.53
quadratic_ranged_14_ub: [ 1 x_6_ ^ 2 - 2 x_10_ * x_6_ + 1 x_10_ ^ 2 + 1 y_6_ ^ 2 - 2 y_10_ * y_6_ + 1 y_10_ ^ 2 ] <= 33019.93
quadratic_ranged_15_ub: [ 1 x_8_ ^ 2 - 2 x_10_ * x_8_ + 1 x_10_ ^ 2 + 1 y_8_ ^ 2 - 2 y_10_ * y_8_ + 1 y_10_ ^ 2 ] <= 3382.4900000000002
quadratic_ranged_16_ub: [ 1 x_2_ ^ 2 - 2 x_11_ * x_2_ + 1 x_11_ ^ 2 + 1 y_2_ ^ 2 - 2 y_11_ * y_2_ + 1 y_11_ ^ 2 ] <= 9955.57
quadratic_ranged_17_ub: [ 1 x_8_ ^ 2 - 2 x_12_ * x_8_ + 1 x_12_ ^ 2 + 1 y_8_ ^ 2 - 2 y_12_ * y_8_ + 1 y_12_ ^ 2 ] <= 247.45
quadratic_ranged_18_ub: [ 1 x_1_ ^ 2 - 2 x_13_ * x_1_ + 1 x_13_ ^ 2 + 1 y_1_ ^ 2 - 2 y_13_ * y_1_ + 1 y_13_ ^ 2 ] <= 62059.45
quadratic_ranged_19_ub: [ 1 x_4_ ^ 2 - 2 x_13_ * x_4_ + 1 x_13_ ^ 2 + 1 y_4_ ^ 2 - 2 y_13_ * y_4_ + 1 y_13_ ^ 2 ] <= 31544.32
quadratic_ranged_20_ub: [ 1 x_10_ ^ 2 - 2 x_14_ * x_10_ + 1 x_14_ ^ 2 + 1 y_10_ ^ 2 - 2 y_14_ * y_10_ + 1 y_14_ ^ 2 ] <= 7039.7
quadratic_ranged_21_ub: [ 1 x_11_ ^ 2 - 2 x_14_ * x_11_ + 1 x_14_ ^ 2 + 1 y_11_ ^ 2 - 2 y_14_ * y_11_ + 1 y_14_ ^ 2 ] <= 4243.01
quadratic_ranged_22_ub: [ 1 x_12_ ^ 2 - 2 x_14_ * x_12_ + 1 x_14_ ^ 2 + 1 y_12_ ^ 2 - 2 y_14_ * y_12_ + 1 y_14_ ^ 2 ] <= 5817.6
quadratic_ranged_23_ub: [ 1 x_3_ ^ 2 - 2 x_15_ * x_3_ + 1 x_15_ ^ 2 + 1 y_3_ ^ 2 - 2 y_15_ * y_3_ + 1 y_15_ ^ 2 ] <= 1868.5
quadratic_ranged_24_ub: [ 1 x_4_ ^ 2 - 2 x_15_ * x_4_ + 1 x_15_ ^ 2 + 1 y_4_ ^ 2 - 2 y_15_ * y_4_ + 1 y_15_ ^ 2 ] <= 18361.8
quadratic_ranged_25_ub: [ 1 x_7_ ^ 2 - 2 x_15_ * x_7_ + 1 x_15_ ^ 2 + 1 y_7_ ^ 2 - 2 y_15_ * y_7_ + 1 y_15_ ^ 2 ] <= 2925.97
quadratic_ranged_26_ub: [ 1 x_2_ ^ 2 - 2 x_16_ * x_2_ + 1 x_16_ ^ 2 + 1 y_2_ ^ 2 - 2 y_16_ * y_2_ + 1 y_16_ ^ 2 ] <= 1763.46
quadratic_ranged_27_ub: [ 1 x_3_ ^ 2 - 2 x_16_ * x_3_ + 1 x_16_ ^ 2 + 1 y_3_ ^ 2 - 2 y_16_ * y_3_ + 1 y_16_ ^ 2 ] <= 22381.6
quadratic_ranged_28_ub: [ 1 x_8_ ^ 2 - 2 x_17_ * x_8_ + 1 x_17_ ^ 2 + 1 y_8_ ^ 2 - 2 y_17_ * y_8_ + 1 y_17_ ^ 2 ] <= 5849.92
quadratic_ranged_29_ub: [ 1 x_16_ ^ 2 - 2 x_17_ * x_16_ + 1 x_17_ ^ 2 + 1 y_16_ ^ 2 - 2 y_17_ * y_16_ + 1 y_17_ ^ 2 ] <= 20023.25
quadratic_ranged_30_ub: [ 1 x_9_ ^ 2 - 2 x_18_ * x_9_ + 1 x_18_ ^ 2 + 1 y_9_ ^ 2 - 2 y_18_ * y_9_ + 1 y_18_ ^ 2 ] <= 17697.22
quadratic_ranged_31_ub: [ 1 x_12_ ^ 2 - 2 x_18_ * x_12_ + 1 x_18_ ^ 2 + 1 y_12_ ^ 2 - 2 y_18_ * y_12_ + 1 y_18_ ^ 2 ] <= 5300.4800000000005
quadratic_ranged_32_ub: [ 1 x_13_ ^ 2 - 2 x_18_ * x_13_ + 1 x_18_ ^ 2 + 1 y_13_ ^ 2 - 2 y_18_ * y_13_ + 1 y_18_ ^ 2 ] <= 22535.12
quadratic_ranged_33_ub: [ 1 x_1_ ^ 2 - 2 x_19_ * x_1_ + 1 x_19_ ^ 2 + 1 y_1_ ^ 2 - 2 y_19_ * y_1_ + 1 y_19_ ^ 2 ] <= 16573.09
quadratic_ranged_34_ub: [ 1 x_8_ ^ 2 - 2 x_19_ * x_8_ + 1 x_19_ ^ 2 + 1 y_8_ ^ 2 - 2 y_19_ * y_8_ + 1 y_19_ ^ 2 ] <= 13684.49
quadratic_ranged_35_ub: [ 1 x_17_ ^ 2 - 2 x_19_ * x_17_ + 1 x_19_ ^ 2 + 1 y_17_ ^ 2 - 2 y_19_ * y_17_ + 1 y_19_ ^ 2 ] <= 21368.57
quadratic_ranged_36_ub: [ 1 x_12_ ^ 2 - 2 x_20_ * x_12_ + 1 x_20_ ^ 2 + 1 y_12_ ^ 2 - 2 y_20_ * y_12_ + 1 y_20_ ^ 2 ] <= 8085.05
quadratic_ranged_37_ub: [ 1 x_18_ ^ 2 - 2 x_20_ * x_18_ + 1 x_20_ ^ 2 + 1 y_18_ ^ 2 - 2 y_20_ * y_18_ + 1 y_20_ ^ 2 ] <= 2574.4900000000002
quadratic_ranged_1_lb: [ 1 x_1_ ^ 2 - 2 x_3_ * x_1_ + 1 x_3_ ^ 2 + 1 y_1_ ^ 2 - 2 y_3_ * y_1_ + 1 y_3_ ^ 2 ] >= 51920.55
quadratic_ranged_2_lb: [ 1 x_1_ ^ 2 - 2 x_4_ * x_1_ + 1 x_4_ ^ 2 + 1 y_1_ ^ 2 - 2 y_4_ * y_1_ + 1 y_4_ ^ 2 ] >= 30195.989999999998
quadratic_ranged_3_lb: [ 1 x_2_ ^ 2 - 2 x_5_ * x_2_ + 1 x_5_ ^ 2 + 1 y_2_ ^ 2 - 2 y_5_ * y_2_ + 1 y_5_ ^ 2 ] >= 33803.55
quadratic_ranged_4_lb: [ 1 x_4_ ^ 2 - 2 x_5_ * x_4_ + 1 x_5_ ^ 2 + 1 y_4_ ^ 2 - 2 y_5_ * y_4_ + 1 y_5_ ^ 2 ] >= 62359.11
quadratic_ranged_5_lb: [ 1 x_1_ ^ 2 - 2 x_6_ * x_1_ + 1 x_6_ ^ 2 + 1 y_1_ ^ 2 - 2 y_6_ * y_1_ + 1 y_6_ ^ 2 ] >= 894.96
quadratic_ranged_6_lb: [ 1 x_2_ ^ 2 - 2 x_6_ * x_2_ + 1 x_6_ ^ 2 + 1 y_2_ ^ 2 - 2 y_6_ * y_2_ + 1 y_6_ ^ 2 ] >= 9508.95
quadratic_ranged_7_lb: [ 1 x_1_ ^ 2 - 2 x_7_ * x_1_ + 1 x_7_ ^ 2 + 1 y_1_ ^ 2 - 2 y_7_ * y_1_ + 1 y_7_ ^ 2 ] >= 35944.92
quadratic_ranged_8_lb: [ 1 x_2_ ^ 2 - 2 x_7_ * x_2_ + 1 x_7_ ^ 2 + 1 y_2_ ^ 2 - 2 y_7_ * y_2_ + 1 y_7_ ^ 2 ] >= 16122.15
quadratic_ranged_9_lb: [ 1 x_1_ ^ 2 - 2 x_8_ * x_1_ + 1 x_8_ ^ 2 + 1 y_1_ ^ 2 - 2 y_8_ * y_1_ + 1 y_8_ ^ 2 ] >= 23958
quadratic_ranged_10_lb: [ 1 x_3_ ^ 2 - 2 x_9_ * x_3_ + 1 x_9_ ^ 2 + 1 y_3_ ^ 2 - 2 y_9_ * y_3_ + 1 y_9_ ^ 2 ] >= 1683
quadratic_ranged_11_lb: [ 1 x_5_ ^ 2 - 2 x_9_ * x_5_ + 1 x_9_ ^ 2 + 1 y_5_ ^ 2 - 2 y_9_ * y_5_ + 1 y_9_ ^ 2 ] >= 31498.829999999998
quadratic_ranged_12_lb: [ 1 x_8_ ^ 2 - 2 x_9_ * x_8_ + 1 x_9_ ^ 2 + 1 y_8_ ^ 2 - 2 y_9_ * y_8_ + 1 y_9_ ^ 2 ] >= 3149.19
quadratic_ranged_13_lb: [ 1 x_5_ ^ 2 - 2 x_10_ * x_5_ + 1 x_10_ ^ 2 + 1 y_5_ ^ 2 - 2 y_10_ * y_5_ + 1 y_10_ ^ 2 ] >= 37771.47
quadratic_ranged_14_lb: [ 1 x_6_ ^ 2 - 2 x_10_ * x_6_ + 1 x_10_ ^ 2 + 1 y_6_ ^ 2 - 2 y_10_ * y_6_ + 1 y_10_ ^ 2 ] >= 32366.07
quadratic_ranged_15_lb: [ 1 x_8_ ^ 2 - 2 x_10_ * x_8_ + 1 x_10_ ^ 2 + 1 y_8_ ^ 2 - 2 y_10_ * y_8_ + 1 y_10_ ^ 2 ] >= 3315.5099999999998
quadratic_ranged_16_lb: [ 1 x_2_ ^ 2 - 2 x_11_ * x_2_ + 1 x_11_ ^ 2 + 1 y_2_ ^ 2 - 2 y_11_ * y_2_ + 1 y_11_ ^ 2 ] >= 9758.43
quadratic_ranged_17_lb: [ 1 x_8_ ^ 2 - 2 x_12_ * x_8_ + 1 x_12_ ^ 2 + 1 y_8_ ^ 2 - 2 y_12_ * y_8_ + 1 y_12_ ^ 2 ] >= 242.55
quadratic_ranged_18_lb: [ 1 x_1_ ^ 2 - 2 x_13_ * x_1_ + 1 x_13_ ^ 2 + 1 y_1_ ^ 2 - 2 y_13_ * y_1_ + 1 y_13_ ^ 2 ] >= 60830.55
quadratic_ranged_19_lb: [ 1 x_4_ ^ 2 - 2 x_13_ * x_4_ + 1 x_13_ ^ 2 + 1 y_4_ ^ 2 - 2 y_13_ * y_4_ + 1 y_13_ ^ 2 ] >= 30919.68
quadratic_ranged_20_lb: [ 1 x_10_ ^ 2 - 2 x_14_ * x_10_ + 1 x_14_ ^ 2 + 1 y_10_ ^ 2 - 2 y_14_ * y_10_ + 1 y_14_ ^ 2 ] >= 6900.3
quadratic_ranged_21_lb: [ 1 x_11_ ^ 2 - 2 x_14_ * x_11_ + 1 x_14_ ^ 2 + 1 y_11_ ^ 2 - 2 y_14_ * y_11_ + 1 y_14_ ^ 2 ] >= 4158.99
quadratic_ranged_22_lb: [ 1 x_12_ ^ 2 - 2 x_14_ * x_12_ + 1 x_14_ ^ 2 + 1 y_12_ ^ 2 - 2 y_14_ * y_12_ + 1 y_14_ ^ 2 ] >= 5702.4
quadratic_ranged_23_lb: [ 1 x_3_ ^ 2 - 2 x_15_ * x_3_ + 1 x_15_ ^ 2 + 1 y_3_ ^ 2 - 2 y_15_ * y_3_ + 1 y_15_ ^ 2 ] >= 1831.5
quadratic_ranged_24_lb: [ 1 x_4_ ^ 2 - 2 x_15_ * x_4_ + 1 x_15_ ^ 2 + 1 y_4_ ^ 2 - 2 y_15_ * y_4_ + 1 y_15_ ^ 2 ] >= 17998.2
quadratic_ranged_25_lb: [ 1 x_7_ ^ 2 - 2 x_15_ * x_7_ + 1 x_15_ ^ 2 + 1 y_7_ ^ 2 - 2 y_15_ * y_7_ + 1 y_15_ ^ 2 ] >= 2868.03
quadratic_ranged_26_lb: [ 1 x_2_ ^ 2 - 2 x_16_ * x_2_ + 1 x_16_ ^ 2 + 1 y_2_ ^ 2 - 2 y_16_ * y_2_ + 1 y_16_ ^ 2 ] >= 1728.54
quadratic_ranged_27_lb: [ 1 x_3_ ^ 2 - 2 x_16_ * x_3_ + 1 x_16_ ^ 2 + 1 y_3_ ^ 2 - 2 y_16_ * y_3_ + 1 y_16_ ^ 2 ] >= 21938.4
quadratic_ranged_28_lb: [ 1 x_8_ ^ 2 - 2 x_17_ * x_8_ + 1 x_17_ ^ 2 + 1 y_8_ ^ 2 - 2 y_17_ * y_8_ + 1 y_17_ ^ 2 ] >= 5734.08
quadratic_ranged_29_lb: [ 1 x_16_ ^ 2 - 2 x_17_ * x_16_ + 1 x_17_ ^ 2 + 1 y_16_ ^ 2 - 2 y_17_ * y_16_ + 1 y_17_ ^ 2 ] >= 19626.75
quadratic_ranged_30_lb: [ 1 x_9_ ^ 2 - 2 x_18_ * x_9_ + 1 x_18_ ^ 2 + 1 y_9_ ^ 2 - 2 y_18_ * y_9_ + 1 y_18_ ^ 2 ] >= 17346.78
quadratic_ranged_31_lb: [ 1 x_12_ ^ 2 - 2 x_18_ * x_12_ + 1 x_18_ ^ 2 + 1 y_12_ ^ 2 - 2 y_18_ * y_12_ + 1 y_18_ ^ 2 ] >= 5195.5199999999995
quadratic_ranged_32_lb: [ 1 x_13_ ^ 2 - 2 x_18_ * x_13_ + 1 x_18_ ^ 2 + 1 y_13_ ^ 2 - 2 y_18_ * y_13_ + 1 y_18_ ^ 2 ] >= 22088.88
quadratic_ranged_33_lb: [ 1 x_1_ ^ 2 - 2 x_19_ * x_1_ + 1 x_19_ ^ 2 + 1 y_1_ ^ 2 - 2 y_19_ * y_1_ + 1 y_19_ ^ 2 ] >= 16244.91
quadratic_ranged_34_lb: [ 1 x_8_ ^ 2 - 2 x_19_ * x_8_ + 1 x_19_ ^ 2 + 1 y_8_ ^ 2 - 2 y_19_ * y_8_ + 1 y_19_ ^ 2 ] >= 13413.51
quadratic_ranged_35_lb: [ 1 x_17_ ^ 2 - 2 x_19_ * x_17_ + 1 x_19_ ^ 2 + 1 y_17_ ^ 2 - 2 y_19_ * y_17_ + 1 y_19_ ^ 2 ] >= 20945.43
quadratic_ranged_36_lb: [ 1 x_12_ ^ 2 - 2 x_20_ * x_12_ + 1 x_20_ ^ 2 + 1 y_12_ ^ 2 - 2 y_20_ * y_12_ + 1 y_20_ ^ 2 ] >= 7924.95
quadratic_ranged_37_lb: [ 1 x_18_ ^ 2 - 2 x_20_ * x_18_ + 1 x_20_ ^ 2 + 1 y_18_ ^ 2 - 2 y_20_ * y_18_ + 1 y_20_ ^ 2 ] >= 2523.5099999999998
c1_1: 1 x_13_ = 81
c2_1: 1 y_13_ = 99
c3_1: 1 x_12_ = 19
c4_1: 1 y_12_ = 25
c5_1: 1 x_4_ = 97
c6_1: 1 y_4_ = -77
Bounds
-78 <= x_1_ <= 191
-207 <= x_2_ <= 260
-81 <= x_3_ <= 132
x_4_ = 97
-155 <= x_5_ <= 270
-108 <= x_6_ <= 221
-92 <= x_7_ <= 230
4 <= x_8_ <= 34
-53 <= x_9_ <= 91
-54 <= x_10_ <= 92
-122 <= x_11_ <= 160
x_12_ = 19
x_13_ = 81
-57 <= x_14_ <= 95
-38 <= x_15_ <= 176
-214 <= x_16_ <= 252
-73 <= x_17_ <= 111
-53 <= x_18_ <= 91
-113 <= x_19_ <= 151
-70 <= x_20_ <= 108
-147 <= y_1_ <= 98
-216 <= y_2_ <= 227
-88 <= y_3_ <= 101
y_4_ = -77
-226 <= y_5_ <= 175
-177 <= y_6_ <= 128
-186 <= y_7_ <= 112
10 <= y_8_ <= 40
-47 <= y_9_ <= 97
-48 <= y_10_ <= 98
-116 <= y_11_ <= 166
y_12_ = 25
y_13_ = 99
-51 <= y_14_ <= 101
-132 <= y_15_ <= 58
-208 <= y_16_ <= 251
-67 <= y_17_ <= 117
-47 <= y_18_ <= 97
-107 <= y_19_ <= 157
-64 <= y_20_ <= 114
General
x_1_
x_2_
x_3_
x_4_
x_5_
x_6_
x_7_
x_8_
x_9_
x_10_
x_11_
x_12_
x_13_
x_14_
x_15_
x_16_
x_17_
x_18_
x_19_
x_20_
y_1_
y_2_
y_3_
y_4_
y_5_
y_6_
y_7_
y_8_
y_9_
y_10_
y_11_
y_12_
y_13_
y_14_
y_15_
y_16_
y_17_
y_18_
y_19_
y_20_
End
