minimize
obj: 
subject to
c1: 176 x_1_ - 34 y_1_ + [ 1 x_1_ ^ 2 + 1 y_1_ ^ 2 ] <= 87956.60716925625
c2: 176 x_2_ - 34 y_2_ + [ 1 x_2_ ^ 2 + 1 y_2_ ^ 2 ] <= 72049.83370885019
c3: 176 x_3_ - 34 y_3_ + [ 1 x_3_ ^ 2 + 1 y_3_ ^ 2 ] <= 108981.5410139645
c4: 176 x_4_ - 34 y_4_ + [ 1 x_4_ ^ 2 + 1 y_4_ ^ 2 ] <= 125174.85521178634
c5: 176 x_5_ - 34 y_5_ + [ 1 x_5_ ^ 2 + 1 y_5_ ^ 2 ] <= 60413.47725289245
c6: 176 x_6_ - 34 y_6_ + [ 1 x_6_ ^ 2 + 1 y_6_ ^ 2 ] <= 129734.93413512033
c7: 176 x_7_ - 34 y_7_ + [ 1 x_7_ ^ 2 + 1 y_7_ ^ 2 ] <= 453.0199999999986
c8: 176 x_8_ - 34 y_8_ + [ 1 x_8_ ^ 2 + 1 y_8_ ^ 2 ] <= 81702.51323993324
c9: 176 x_9_ - 34 y_9_ + [ 1 x_9_ ^ 2 + 1 y_9_ ^ 2 ] <= 61551.90873890575
c10: 176 x_10_ - 34 y_10_ + [ 1 x_10_ ^ 2 + 1 y_10_ ^ 2 ] <= 81227.47072262084
c11: 176 x_11_ - 34 y_11_ + [ 1 x_11_ ^ 2 + 1 y_11_ ^ 2 ] <= 63643.770375550564
c12: 176 x_12_ - 34 y_12_ + [ 1 x_12_ ^ 2 + 1 y_12_ ^ 2 ] <= 40357.94074200538
c13: 176 x_13_ - 34 y_13_ + [ 1 x_13_ ^ 2 + 1 y_13_ ^ 2 ] <= 118715.69977320464
c14: 176 x_14_ - 34 y_14_ + [ 1 x_14_ ^ 2 + 1 y_14_ ^ 2 ] <= 123581.87324233237
c15: 176 x_15_ - 34 y_15_ + [ 1 x_15_ ^ 2 + 1 y_15_ ^ 2 ] <= 98781.19475058839
c16: 176 x_16_ - 34 y_16_ + [ 1 x_16_ ^ 2 + 1 y_16_ ^ 2 ] <= 97012.82803648413
c17: 176 x_17_ - 34 y_17_ + [ 1 x_17_ ^ 2 + 1 y_17_ ^ 2 ] <= 104565.48509958266
c18: 176 x_18_ - 34 y_18_ + [ 1 x_18_ ^ 2 + 1 y_18_ ^ 2 ] <= 75652.16038609031
c19: 176 x_19_ - 34 y_19_ + [ 1 x_19_ ^ 2 + 1 y_19_ ^ 2 ] <= 24835.850641530953
c20: 176 x_20_ - 34 y_20_ + [ 1 x_20_ ^ 2 + 1 y_20_ ^ 2 ] <= 60357.55310015858
c21: 176 x_21_ - 34 y_21_ + [ 1 x_21_ ^ 2 + 1 y_21_ ^ 2 ] <= 159508.12931427234
c22: 176 x_22_ - 34 y_22_ + [ 1 x_22_ ^ 2 + 1 y_22_ ^ 2 ] <= 80633.45367878003
c23: 176 x_23_ - 34 y_23_ + [ 1 x_23_ ^ 2 + 1 y_23_ ^ 2 ] <= 67539.6394525009
c24: 176 x_24_ - 34 y_24_ + [ 1 x_24_ ^ 2 + 1 y_24_ ^ 2 ] <= 112178.35818916785
c25: 176 x_25_ - 34 y_25_ + [ 1 x_25_ ^ 2 + 1 y_25_ ^ 2 ] <= 15694.882741380632
c26: 176 x_26_ - 34 y_26_ + [ 1 x_26_ ^ 2 + 1 y_26_ ^ 2 ] <= 79109.58009904045
c27: 176 x_27_ - 34 y_27_ + [ 1 x_27_ ^ 2 + 1 y_27_ ^ 2 ] <= 76024.13976705047
c28: 176 x_28_ - 34 y_28_ + [ 1 x_28_ ^ 2 + 1 y_28_ ^ 2 ] <= 135358.07656133646
c29: 176 x_29_ - 34 y_29_ + [ 1 x_29_ ^ 2 + 1 y_29_ ^ 2 ] <= 232634.10226659267
c30: 176 x_30_ - 34 y_30_ + [ 1 x_30_ ^ 2 + 1 y_30_ ^ 2 ] <= 25063.380375567125
c31: 176 x_31_ - 34 y_31_ + [ 1 x_31_ ^ 2 + 1 y_31_ ^ 2 ] <= 115873.17440644866
c32: 176 x_32_ - 34 y_32_ + [ 1 x_32_ ^ 2 + 1 y_32_ ^ 2 ] <= 74120.65290860423
c33: 176 x_33_ - 34 y_33_ + [ 1 x_33_ ^ 2 + 1 y_33_ ^ 2 ] <= 67327.15126504972
c34: 176 x_34_ - 34 y_34_ + [ 1 x_34_ ^ 2 + 1 y_34_ ^ 2 ] <= 231424.22675093796
c35: 176 x_35_ - 34 y_35_ + [ 1 x_35_ ^ 2 + 1 y_35_ ^ 2 ] <= 15689.225838380004
c36: 176 x_36_ - 34 y_36_ + [ 1 x_36_ ^ 2 + 1 y_36_ ^ 2 ] <= 122045.74640015549
c37: 176 x_37_ - 34 y_37_ + [ 1 x_37_ ^ 2 + 1 y_37_ ^ 2 ] <= 135062.52181455426
c38: 176 x_38_ - 34 y_38_ + [ 1 x_38_ ^ 2 + 1 y_38_ ^ 2 ] <= 10960.05
c39: 176 x_39_ - 34 y_39_ + [ 1 x_39_ ^ 2 + 1 y_39_ ^ 2 ] <= 88380.9685300625
c40: 176 x_40_ - 34 y_40_ + [ 1 x_40_ ^ 2 + 1 y_40_ ^ 2 ] <= 220799.54282521657
c41: 176 x_41_ - 34 y_41_ + [ 1 x_41_ ^ 2 + 1 y_41_ ^ 2 ] <= 67376.35616147537
c42: 176 x_42_ - 34 y_42_ + [ 1 x_42_ ^ 2 + 1 y_42_ ^ 2 ] <= 160062.49138803867
c43: 176 x_43_ - 34 y_43_ + [ 1 x_43_ ^ 2 + 1 y_43_ ^ 2 ] <= 68947.89390040401
c44: 176 x_44_ - 34 y_44_ + [ 1 x_44_ ^ 2 + 1 y_44_ ^ 2 ] <= 171040.3454369017
c45: 176 x_45_ - 34 y_45_ + [ 1 x_45_ ^ 2 + 1 y_45_ ^ 2 ] <= 144577.9432504605
c46: 176 x_46_ - 34 y_46_ + [ 1 x_46_ ^ 2 + 1 y_46_ ^ 2 ] <= 106525.46371532511
c47: 176 x_47_ - 34 y_47_ + [ 1 x_47_ ^ 2 + 1 y_47_ ^ 2 ] <= 32538.04179546333
c48: 176 x_48_ - 34 y_48_ + [ 1 x_48_ ^ 2 + 1 y_48_ ^ 2 ] <= 233093.40048730225
c49: 176 x_49_ - 34 y_49_ + [ 1 x_49_ ^ 2 + 1 y_49_ ^ 2 ] <= 243676.9238180302
c50: 176 x_50_ - 34 y_50_ + [ 1 x_50_ ^ 2 + 1 y_50_ ^ 2 ] <= 154557.8999022229
c51: 176 x_51_ - 34 y_51_ + [ 1 x_51_ ^ 2 + 1 y_51_ ^ 2 ] <= 103149.88404705911
c52: 176 x_52_ - 34 y_52_ + [ 1 x_52_ ^ 2 + 1 y_52_ ^ 2 ] <= 28762.71255418472
c53: 176 x_53_ - 34 y_53_ + [ 1 x_53_ ^ 2 + 1 y_53_ ^ 2 ] <= 117056.05941692828
c54: 176 x_54_ - 34 y_54_ + [ 1 x_54_ ^ 2 + 1 y_54_ ^ 2 ] <= 138101.31825802592
c55: 176 x_55_ - 34 y_55_ + [ 1 x_55_ ^ 2 + 1 y_55_ ^ 2 ] <= 184735.5392726217
c56: 176 x_56_ - 34 y_56_ + [ 1 x_56_ ^ 2 + 1 y_56_ ^ 2 ] <= 121280.06509426924
c57: 176 x_57_ - 34 y_57_ + [ 1 x_57_ ^ 2 + 1 y_57_ ^ 2 ] <= 92298.29915886013
c58: 176 x_58_ - 34 y_58_ + [ 1 x_58_ ^ 2 + 1 y_58_ ^ 2 ] <= 58809.091433704
c59: 176 x_59_ - 34 y_59_ + [ 1 x_59_ ^ 2 + 1 y_59_ ^ 2 ] <= 120925.04519812693
c60: 176 x_60_ - 34 y_60_ + [ 1 x_60_ ^ 2 + 1 y_60_ ^ 2 ] <= 53925.06022113097
c61: 176 x_61_ - 34 y_61_ + [ 1 x_61_ ^ 2 + 1 y_61_ ^ 2 ] <= 249827.9394874589
c62: 176 x_62_ - 34 y_62_ + [ 1 x_62_ ^ 2 + 1 y_62_ ^ 2 ] <= 179928.06053458975
c63: 176 x_63_ - 34 y_63_ + [ 1 x_63_ ^ 2 + 1 y_63_ ^ 2 ] <= 161499.04974440185
c64: 176 x_64_ - 34 y_64_ + [ 1 x_64_ ^ 2 + 1 y_64_ ^ 2 ] <= 59642.65966692944
c65: 176 x_65_ - 34 y_65_ + [ 1 x_65_ ^ 2 + 1 y_65_ ^ 2 ] <= 140469.1629108704
c66: 176 x_66_ - 34 y_66_ + [ 1 x_66_ ^ 2 + 1 y_66_ ^ 2 ] <= 246512.5272776542
c67: 176 x_67_ - 34 y_67_ + [ 1 x_67_ ^ 2 + 1 y_67_ ^ 2 ] <= 125009.9436763988
c68: 176 x_68_ - 34 y_68_ + [ 1 x_68_ ^ 2 + 1 y_68_ ^ 2 ] <= 100624.90181600822
c69: 176 x_69_ - 34 y_69_ + [ 1 x_69_ ^ 2 + 1 y_69_ ^ 2 ] <= 42647.56188794668
c70: 176 x_70_ - 34 y_70_ + [ 1 x_70_ ^ 2 + 1 y_70_ ^ 2 ] <= 183085.78551930372
c71: 176 x_71_ - 34 y_71_ + [ 1 x_71_ ^ 2 + 1 y_71_ ^ 2 ] <= 69339.84391691342
c72: 176 x_72_ - 34 y_72_ + [ 1 x_72_ ^ 2 + 1 y_72_ ^ 2 ] <= 212116.05365830442
c73: 176 x_73_ - 34 y_73_ + [ 1 x_73_ ^ 2 + 1 y_73_ ^ 2 ] <= 133759.44250290218
c74: 176 x_74_ - 34 y_74_ + [ 1 x_74_ ^ 2 + 1 y_74_ ^ 2 ] <= 27603.455517628085
c75: 176 x_75_ - 34 y_75_ + [ 1 x_75_ ^ 2 + 1 y_75_ ^ 2 ] <= 36027.049571684955
c76: 176 x_76_ - 34 y_76_ + [ 1 x_76_ ^ 2 + 1 y_76_ ^ 2 ] <= 146790.93401307266
c77: 176 x_77_ - 34 y_77_ + [ 1 x_77_ ^ 2 + 1 y_77_ ^ 2 ] <= 64867.40536138932
c78: 176 x_78_ - 34 y_78_ + [ 1 x_78_ ^ 2 + 1 y_78_ ^ 2 ] <= 163757.19229770155
c79: 176 x_79_ - 34 y_79_ + [ 1 x_79_ ^ 2 + 1 y_79_ ^ 2 ] <= 133586.86822217915
c80: 176 x_80_ - 34 y_80_ + [ 1 x_80_ ^ 2 + 1 y_80_ ^ 2 ] <= 116497.21151311781
c81: 176 x_81_ - 34 y_81_ + [ 1 x_81_ ^ 2 + 1 y_81_ ^ 2 ] <= 131027.18815660905
c82: 176 x_82_ - 34 y_82_ + [ 1 x_82_ ^ 2 + 1 y_82_ ^ 2 ] <= 200176.69079578482
c83: 176 x_83_ - 34 y_83_ + [ 1 x_83_ ^ 2 + 1 y_83_ ^ 2 ] <= 109140.68144067953
c84: 176 x_84_ - 34 y_84_ + [ 1 x_84_ ^ 2 + 1 y_84_ ^ 2 ] <= 127751.87008617405
c85: 176 x_85_ - 34 y_85_ + [ 1 x_85_ ^ 2 + 1 y_85_ ^ 2 ] <= 110265.94865922669
c86: 176 x_86_ - 34 y_86_ + [ 1 x_86_ ^ 2 + 1 y_86_ ^ 2 ] <= 101415.88823261888
c87: 176 x_87_ - 34 y_87_ + [ 1 x_87_ ^ 2 + 1 y_87_ ^ 2 ] <= 123533.25183504558
c88: 176 x_88_ - 34 y_88_ + [ 1 x_88_ ^ 2 + 1 y_88_ ^ 2 ] <= 136180.63333959266
c89: 176 x_89_ - 34 y_89_ + [ 1 x_89_ ^ 2 + 1 y_89_ ^ 2 ] <= 177242.78588605646
c90: 176 x_91_ - 34 y_91_ + [ 1 x_91_ ^ 2 + 1 y_91_ ^ 2 ] <= 140846.3553425818
c91: 176 x_92_ - 34 y_92_ + [ 1 x_92_ ^ 2 + 1 y_92_ ^ 2 ] <= 77954.88841694023
c92: 176 x_93_ - 34 y_93_ + [ 1 x_93_ ^ 2 + 1 y_93_ ^ 2 ] <= 172576.38445155296
c93: 176 x_94_ - 34 y_94_ + [ 1 x_94_ ^ 2 + 1 y_94_ ^ 2 ] <= 106146.10989737141
c94: 176 x_95_ - 34 y_95_ + [ 1 x_95_ ^ 2 + 1 y_95_ ^ 2 ] <= 71729.52945092286
c95: 176 x_96_ - 34 y_96_ + [ 1 x_96_ ^ 2 + 1 y_96_ ^ 2 ] <= 145015.58005364717
c96: 176 x_97_ - 34 y_97_ + [ 1 x_97_ ^ 2 + 1 y_97_ ^ 2 ] <= 42696.742628161264
c97: 176 x_98_ - 34 y_98_ + [ 1 x_98_ ^ 2 + 1 y_98_ ^ 2 ] <= 202956.03058880172
c98: 176 x_99_ - 34 y_99_ + [ 1 x_99_ ^ 2 + 1 y_99_ ^ 2 ] <= 69310.40968590383
c99: 176 x_100_ - 34 y_100_ + [ 1 x_100_ ^ 2 + 1 y_100_ ^ 2 ] <= 46588.44944522216
c100: 44 x_1_ + 130 y_1_ + [ 1 x_1_ ^ 2 + 1 y_1_ ^ 2 ] <= 60156.34545545213
c101: 44 x_2_ + 130 y_2_ + [ 1 x_2_ ^ 2 + 1 y_2_ ^ 2 ] <= 28748.582138135425
c102: 44 x_3_ + 130 y_3_ + [ 1 x_3_ ^ 2 + 1 y_3_ ^ 2 ] <= 67241.04604262116
c103: 44 x_4_ + 130 y_4_ + [ 1 x_4_ ^ 2 + 1 y_4_ ^ 2 ] <= 72787.86719808396
c104: 44 x_5_ + 130 y_5_ + [ 1 x_5_ ^ 2 + 1 y_5_ ^ 2 ] <= 21388.69493336377
c105: 44 x_6_ + 130 y_6_ + [ 1 x_6_ ^ 2 + 1 y_6_ ^ 2 ] <= 68784.07605849768
c106: 44 x_7_ + 130 y_7_ + [ 1 x_7_ ^ 2 + 1 y_7_ ^ 2 ] <= 104885.7583168897
c107: 44 x_8_ + 130 y_8_ + [ 1 x_8_ ^ 2 + 1 y_8_ ^ 2 ] <= 97056.73117014306
c108: 44 x_9_ + 130 y_9_ + [ 1 x_9_ ^ 2 + 1 y_9_ ^ 2 ] <= 38827.65011539388
c109: 44 x_10_ + 130 y_10_ + [ 1 x_10_ ^ 2 + 1 y_10_ ^ 2 ] <= 33188.380868475
c110: 44 x_11_ + 130 y_11_ + [ 1 x_11_ ^ 2 + 1 y_11_ ^ 2 ] <= 112654.63458978939
c111: 44 x_12_ + 130 y_12_ + [ 1 x_12_ ^ 2 + 1 y_12_ ^ 2 ] <= 36577.65435908001
c112: 44 x_13_ + 130 y_13_ + [ 1 x_13_ ^ 2 + 1 y_13_ ^ 2 ] <= 85412.39855756896
c113: 44 x_14_ + 130 y_14_ + [ 1 x_14_ ^ 2 + 1 y_14_ ^ 2 ] <= -1062.900000000001
c114: 44 x_15_ + 130 y_15_ + [ 1 x_15_ ^ 2 + 1 y_15_ ^ 2 ] <= 86607.56380936867
c115: 44 x_16_ + 130 y_16_ + [ 1 x_16_ ^ 2 + 1 y_16_ ^ 2 ] <= 67271.68732103572
c116: 44 x_17_ + 130 y_17_ + [ 1 x_17_ ^ 2 + 1 y_17_ ^ 2 ] <= 58004.4982516251
c117: 44 x_18_ + 130 y_18_ + [ 1 x_18_ ^ 2 + 1 y_18_ ^ 2 ] <= 36969.66386639175
c118: 44 x_19_ + 130 y_19_ + [ 1 x_19_ ^ 2 + 1 y_19_ ^ 2 ] <= 95484.51466340924
c119: 44 x_20_ + 130 y_20_ + [ 1 x_20_ ^ 2 + 1 y_20_ ^ 2 ] <= 86103.9297047294
c120: 44 x_21_ + 130 y_21_ + [ 1 x_21_ ^ 2 + 1 y_21_ ^ 2 ] <= 29732.266497317367
c121: 44 x_22_ + 130 y_22_ + [ 1 x_22_ ^ 2 + 1 y_22_ ^ 2 ] <= 43637.09577355955
c122: 44 x_23_ + 130 y_23_ + [ 1 x_23_ ^ 2 + 1 y_23_ ^ 2 ] <= 121897.76907659533
c123: 44 x_24_ + 130 y_24_ + [ 1 x_24_ ^ 2 + 1 y_24_ ^ 2 ] <= 18127.099937937808
c124: 44 x_25_ + 130 y_25_ + [ 1 x_25_ ^ 2 + 1 y_25_ ^ 2 ] <= 149716.397187092
c125: 44 x_26_ + 130 y_26_ + [ 1 x_26_ ^ 2 + 1 y_26_ ^ 2 ] <= 72803.67829108458
c126: 44 x_27_ + 130 y_27_ + [ 1 x_27_ ^ 2 + 1 y_27_ ^ 2 ] <= 107880.95754301158
c127: 44 x_28_ + 130 y_28_ + [ 1 x_28_ ^ 2 + 1 y_28_ ^ 2 ] <= 90464.84749229247
c128: 44 x_29_ + 130 y_29_ + [ 1 x_29_ ^ 2 + 1 y_29_ ^ 2 ] <= 106040.22622950375
c129: 44 x_30_ + 130 y_30_ + [ 1 x_30_ ^ 2 + 1 y_30_ ^ 2 ] <= 92331.53553845482
c130: 44 x_31_ + 130 y_31_ + [ 1 x_31_ ^ 2 + 1 y_31_ ^ 2 ] <= 59859.46111020179
c131: 44 x_32_ + 130 y_32_ + [ 1 x_32_ ^ 2 + 1 y_32_ ^ 2 ] <= 98158.31511039015
c132: 44 x_33_ + 130 y_33_ + [ 1 x_33_ ^ 2 + 1 y_33_ ^ 2 ] <= 88722.34747914062
c133: 44 x_34_ + 130 y_34_ + [ 1 x_34_ ^ 2 + 1 y_34_ ^ 2 ] <= 210314.87242300133
c134: 44 x_35_ + 130 y_35_ + [ 1 x_35_ ^ 2 + 1 y_35_ ^ 2 ] <= 90394.74017026357
c135: 44 x_36_ + 130 y_36_ + [ 1 x_36_ ^ 2 + 1 y_36_ ^ 2 ] <= 50550.54172660534
c136: 44 x_37_ + 130 y_37_ + [ 1 x_37_ ^ 2 + 1 y_37_ ^ 2 ] <= 8552.299999999997
c137: 44 x_38_ + 130 y_38_ + [ 1 x_38_ ^ 2 + 1 y_38_ ^ 2 ] <= 100652.18727639009
c138: 44 x_39_ + 130 y_39_ + [ 1 x_39_ ^ 2 + 1 y_39_ ^ 2 ] <= 74578.99860474023
c139: 44 x_40_ + 130 y_40_ + [ 1 x_40_ ^ 2 + 1 y_40_ ^ 2 ] <= 35671.39268287796
c140: 44 x_41_ + 130 y_41_ + [ 1 x_41_ ^ 2 + 1 y_41_ ^ 2 ] <= 43160.968505092875
c141: 44 x_42_ + 130 y_42_ + [ 1 x_42_ ^ 2 + 1 y_42_ ^ 2 ] <= 32357.410614709952
c142: 44 x_43_ + 130 y_43_ + [ 1 x_43_ ^ 2 + 1 y_43_ ^ 2 ] <= 132980.88828049143
c143: 44 x_45_ + 130 y_45_ + [ 1 x_45_ ^ 2 + 1 y_45_ ^ 2 ] <= 117676.15516243328
c144: 44 x_46_ + 130 y_46_ + [ 1 x_46_ ^ 2 + 1 y_46_ ^ 2 ] <= 91759.362114018
c145: 44 x_47_ + 130 y_47_ + [ 1 x_47_ ^ 2 + 1 y_47_ ^ 2 ] <= 108629.91325619987
c146: 44 x_48_ + 130 y_48_ + [ 1 x_48_ ^ 2 + 1 y_48_ ^ 2 ] <= 45613.663146223626
c147: 44 x_49_ + 130 y_49_ + [ 1 x_49_ ^ 2 + 1 y_49_ ^ 2 ] <= 206238.94389210173
c148: 44 x_50_ + 130 y_50_ + [ 1 x_50_ ^ 2 + 1 y_50_ ^ 2 ] <= 84771.67538229759
c149: 44 x_51_ + 130 y_51_ + [ 1 x_51_ ^ 2 + 1 y_51_ ^ 2 ] <= 134626.67169550114
c150: 44 x_52_ + 130 y_52_ + [ 1 x_52_ ^ 2 + 1 y_52_ ^ 2 ] <= 98596.21009330498
c151: 44 x_53_ + 130 y_53_ + [ 1 x_53_ ^ 2 + 1 y_53_ ^ 2 ] <= 53479.125336745674
c152: 44 x_54_ + 130 y_54_ + [ 1 x_54_ ^ 2 + 1 y_54_ ^ 2 ] <= 8644.209999999997
c153: 44 x_55_ + 130 y_55_ + [ 1 x_55_ ^ 2 + 1 y_55_ ^ 2 ] <= 53015.40412563192
c154: 44 x_56_ + 130 y_56_ + [ 1 x_56_ ^ 2 + 1 y_56_ ^ 2 ] <= 87990.61948793863
c155: 44 x_57_ + 130 y_57_ + [ 1 x_57_ ^ 2 + 1 y_57_ ^ 2 ] <= 121490.9486436203
c156: 44 x_58_ + 130 y_58_ + [ 1 x_58_ ^ 2 + 1 y_58_ ^ 2 ] <= 78126.2152901839
c157: 44 x_59_ + 130 y_59_ + [ 1 x_59_ ^ 2 + 1 y_59_ ^ 2 ] <= 87690.06971173883
c158: 44 x_60_ + 130 y_60_ + [ 1 x_60_ ^ 2 + 1 y_60_ ^ 2 ] <= 155406.75446093472
c159: 44 x_61_ + 130 y_61_ + [ 1 x_61_ ^ 2 + 1 y_61_ ^ 2 ] <= 132983.26554065166
c160: 44 x_62_ + 130 y_62_ + [ 1 x_62_ ^ 2 + 1 y_62_ ^ 2 ] <= 12488.716489516599
c161: 44 x_63_ + 130 y_63_ + [ 1 x_63_ ^ 2 + 1 y_63_ ^ 2 ] <= 82252.42444393843
c162: 44 x_64_ + 130 y_64_ + [ 1 x_64_ ^ 2 + 1 y_64_ ^ 2 ] <= 107913.21564623063
c163: 44 x_65_ + 130 y_65_ + [ 1 x_65_ ^ 2 + 1 y_65_ ^ 2 ] <= 91789.7523991289
c164: 44 x_66_ + 130 y_66_ + [ 1 x_66_ ^ 2 + 1 y_66_ ^ 2 ] <= 88761.7992953567
c165: 44 x_67_ + 130 y_67_ + [ 1 x_67_ ^ 2 + 1 y_67_ ^ 2 ] <= 114061.74956361348
c166: 44 x_68_ + 130 y_68_ + [ 1 x_68_ ^ 2 + 1 y_68_ ^ 2 ] <= 101507.42554263679
c167: 44 x_69_ + 130 y_69_ + [ 1 x_69_ ^ 2 + 1 y_69_ ^ 2 ] <= 94897.40583694687
c168: 44 x_70_ + 130 y_70_ + [ 1 x_70_ ^ 2 + 1 y_70_ ^ 2 ] <= 136566.53932122435
c169: 44 x_71_ + 130 y_71_ + [ 1 x_71_ ^ 2 + 1 y_71_ ^ 2 ] <= 64233.22618027298
c170: 44 x_72_ + 130 y_72_ + [ 1 x_72_ ^ 2 + 1 y_72_ ^ 2 ] <= 60137.07734182073
c171: 44 x_73_ + 130 y_73_ + [ 1 x_73_ ^ 2 + 1 y_73_ ^ 2 ] <= 74884.5345492002
c172: 44 x_74_ + 130 y_74_ + [ 1 x_74_ ^ 2 + 1 y_74_ ^ 2 ] <= 50231.726236610775
c173: 44 x_75_ + 130 y_75_ + [ 1 x_75_ ^ 2 + 1 y_75_ ^ 2 ] <= 60583.02160312554
c174: 44 x_76_ + 130 y_76_ + [ 1 x_76_ ^ 2 + 1 y_76_ ^ 2 ] <= 34446.62762498961
c175: 44 x_77_ + 130 y_77_ + [ 1 x_77_ ^ 2 + 1 y_77_ ^ 2 ] <= 202866.26032743164
c176: 44 x_78_ + 130 y_78_ + [ 1 x_78_ ^ 2 + 1 y_78_ ^ 2 ] <= 250466.92597420586
c177: 44 x_79_ + 130 y_79_ + [ 1 x_79_ ^ 2 + 1 y_79_ ^ 2 ] <= 80084.83391490288
c178: 44 x_80_ + 130 y_80_ + [ 1 x_80_ ^ 2 + 1 y_80_ ^ 2 ] <= 101844.14558929708
c179: 44 x_81_ + 130 y_81_ + [ 1 x_81_ ^ 2 + 1 y_81_ ^ 2 ] <= 214921.8466345445
c180: 44 x_82_ + 130 y_82_ + [ 1 x_82_ ^ 2 + 1 y_82_ ^ 2 ] <= 119341.18541136858
c181: 44 x_83_ + 130 y_83_ + [ 1 x_83_ ^ 2 + 1 y_83_ ^ 2 ] <= 84725.06953524439
c182: 44 x_84_ + 130 y_84_ + [ 1 x_84_ ^ 2 + 1 y_84_ ^ 2 ] <= 91902.05586313916
c183: 44 x_85_ + 130 y_85_ + [ 1 x_85_ ^ 2 + 1 y_85_ ^ 2 ] <= 96214.20146505281
c184: 44 x_86_ + 130 y_86_ + [ 1 x_86_ ^ 2 + 1 y_86_ ^ 2 ] <= 86438.14982135658
c185: 44 x_87_ + 130 y_87_ + [ 1 x_87_ ^ 2 + 1 y_87_ ^ 2 ] <= 114960.21990896318
c186: 44 x_88_ + 130 y_88_ + [ 1 x_88_ ^ 2 + 1 y_88_ ^ 2 ] <= 127266.80844113143
c187: 44 x_89_ + 130 y_89_ + [ 1 x_89_ ^ 2 + 1 y_89_ ^ 2 ] <= 110741.77985676569
c188: 44 x_90_ + 130 y_90_ + [ 1 x_90_ ^ 2 + 1 y_90_ ^ 2 ] <= 174364.3454369017
c189: 44 x_91_ + 130 y_91_ + [ 1 x_91_ ^ 2 + 1 y_91_ ^ 2 ] <= 112317.14544987348
c190: 44 x_92_ + 130 y_92_ + [ 1 x_92_ ^ 2 + 1 y_92_ ^ 2 ] <= 110113.77347871542
c191: 44 x_93_ + 130 y_93_ + [ 1 x_93_ ^ 2 + 1 y_93_ ^ 2 ] <= 47907.42859437521
c192: 44 x_94_ + 130 y_94_ + [ 1 x_94_ ^ 2 + 1 y_94_ ^ 2 ] <= 131489.9196992154
c193: 44 x_95_ + 130 y_95_ + [ 1 x_95_ ^ 2 + 1 y_95_ ^ 2 ] <= 115414.31676020748
c194: 44 x_96_ + 130 y_96_ + [ 1 x_96_ ^ 2 + 1 y_96_ ^ 2 ] <= 129669.06263791656
c195: 44 x_97_ + 130 y_97_ + [ 1 x_97_ ^ 2 + 1 y_97_ ^ 2 ] <= 121281.07816740594
c196: 44 x_98_ + 130 y_98_ + [ 1 x_98_ ^ 2 + 1 y_98_ ^ 2 ] <= 124359.0753656093
c197: 44 x_99_ + 130 y_99_ + [ 1 x_99_ ^ 2 + 1 y_99_ ^ 2 ] <= 156661.48528925455
c198: 44 x_100_ + 130 y_100_ + [ 1 x_100_ ^ 2 + 1 y_100_ ^ 2 ] <= 218683.08256799506
c199: 82 x_1_ - 38 y_1_ + [ 1 x_1_ ^ 2 + 1 y_1_ ^ 2 ] <= 83309.46707950681
c200: 82 x_2_ - 38 y_2_ + [ 1 x_2_ ^ 2 + 1 y_2_ ^ 2 ] <= 46524.07203486721
c201: 82 x_3_ - 38 y_3_ + [ 1 x_3_ ^ 2 + 1 y_3_ ^ 2 ] <= 20138.21726765809
c202: 82 x_4_ - 38 y_4_ + [ 1 x_4_ ^ 2 + 1 y_4_ ^ 2 ] <= 36980.12573786805
c203: 82 x_5_ - 38 y_5_ + [ 1 x_5_ ^ 2 + 1 y_5_ ^ 2 ] <= 56397.891691426434
c204: 82 x_6_ - 38 y_6_ + [ 1 x_6_ ^ 2 + 1 y_6_ ^ 2 ] <= 42610.10009155184
c205: 82 x_7_ - 38 y_7_ + [ 1 x_7_ ^ 2 + 1 y_7_ ^ 2 ] <= 100662.48539656845
c206: 82 x_8_ - 38 y_8_ + [ 1 x_8_ ^ 2 + 1 y_8_ ^ 2 ] <= 79606.20471094211
c207: 82 x_9_ - 38 y_9_ + [ 1 x_9_ ^ 2 + 1 y_9_ ^ 2 ] <= 58531.75198794336
c208: 82 x_10_ - 38 y_10_ + [ 1 x_10_ ^ 2 + 1 y_10_ ^ 2 ] <= 10915.289999999999
c209: 82 x_11_ - 38 y_11_ + [ 1 x_11_ ^ 2 + 1 y_11_ ^ 2 ] <= 47811.488796096855
c210: 82 x_12_ - 38 y_12_ + [ 1 x_12_ ^ 2 + 1 y_12_ ^ 2 ] <= 78266.08334379595
c211: 82 x_13_ - 38 y_13_ + [ 1 x_13_ ^ 2 + 1 y_13_ ^ 2 ] <= 101321.58041937581
c212: 82 x_14_ - 38 y_14_ + [ 1 x_14_ ^ 2 + 1 y_14_ ^ 2 ] <= 115544.10722998713
c213: 82 x_15_ - 38 y_15_ + [ 1 x_15_ ^ 2 + 1 y_15_ ^ 2 ] <= 8180.209999999999
c214: 82 x_16_ - 38 y_16_ + [ 1 x_16_ ^ 2 + 1 y_16_ ^ 2 ] <= 68632.75725270629
c215: 82 x_17_ - 38 y_17_ + [ 1 x_17_ ^ 2 + 1 y_17_ ^ 2 ] <= 25759.783383371298
c216: 82 x_18_ - 38 y_18_ + [ 1 x_18_ ^ 2 + 1 y_18_ ^ 2 ] <= 13163.633889338382
c217: 82 x_19_ - 38 y_19_ + [ 1 x_19_ ^ 2 + 1 y_19_ ^ 2 ] <= 36913.88678419803
c218: 82 x_20_ - 38 y_20_ + [ 1 x_20_ ^ 2 + 1 y_20_ ^ 2 ] <= 53066.2733407028
c219: 82 x_21_ - 38 y_21_ + [ 1 x_21_ ^ 2 + 1 y_21_ ^ 2 ] <= 122160.81279740988
c220: 82 x_22_ - 38 y_22_ + [ 1 x_22_ ^ 2 + 1 y_22_ ^ 2 ] <= 17288.74582684746
c221: 82 x_23_ - 38 y_23_ + [ 1 x_23_ ^ 2 + 1 y_23_ ^ 2 ] <= 89455.62832142875
c222: 82 x_24_ - 38 y_24_ + [ 1 x_24_ ^ 2 + 1 y_24_ ^ 2 ] <= 129574.48862988278
c223: 82 x_25_ - 38 y_25_ + [ 1 x_25_ ^ 2 + 1 y_25_ ^ 2 ] <= 115078.56110562633
c224: 82 x_26_ - 38 y_26_ + [ 1 x_26_ ^ 2 + 1 y_26_ ^ 2 ] <= 126556.70784883946
c225: 82 x_27_ - 38 y_27_ + [ 1 x_27_ ^ 2 + 1 y_27_ ^ 2 ] <= 69964.12582957899
c226: 82 x_29_ - 38 y_29_ + [ 1 x_29_ ^ 2 + 1 y_29_ ^ 2 ] <= 131943.757348339
c227: 82 x_30_ - 38 y_30_ + [ 1 x_30_ ^ 2 + 1 y_30_ ^ 2 ] <= 51167.061976421624
c228: 82 x_31_ - 38 y_31_ + [ 1 x_31_ ^ 2 + 1 y_31_ ^ 2 ] <= 101188.39057680753
c229: 82 x_32_ - 38 y_32_ + [ 1 x_32_ ^ 2 + 1 y_32_ ^ 2 ] <= 55503.74635038741
c230: 82 x_33_ - 38 y_33_ + [ 1 x_33_ ^ 2 + 1 y_33_ ^ 2 ] <= 140507.7615738517
c231: 82 x_34_ - 38 y_34_ + [ 1 x_34_ ^ 2 + 1 y_34_ ^ 2 ] <= 179118.75952932856
c232: 82 x_35_ - 38 y_35_ + [ 1 x_35_ ^ 2 + 1 y_35_ ^ 2 ] <= 64037.74322374641
c233: 82 x_36_ - 38 y_36_ + [ 1 x_36_ ^ 2 + 1 y_36_ ^ 2 ] <= 120076.69562308601
c234: 82 x_37_ - 38 y_37_ + [ 1 x_37_ ^ 2 + 1 y_37_ ^ 2 ] <= 35340.23921262983
c235: 82 x_38_ - 38 y_38_ + [ 1 x_38_ ^ 2 + 1 y_38_ ^ 2 ] <= 55969.067074066625
c236: 82 x_39_ - 38 y_39_ + [ 1 x_39_ ^ 2 + 1 y_39_ ^ 2 ] <= 37119.751201780295
c237: 82 x_40_ - 38 y_40_ + [ 1 x_40_ ^ 2 + 1 y_40_ ^ 2 ] <= 106071.10135312595
c238: 82 x_41_ - 38 y_41_ + [ 1 x_41_ ^ 2 + 1 y_41_ ^ 2 ] <= 97401.94813570504
c239: 82 x_42_ - 38 y_42_ + [ 1 x_42_ ^ 2 + 1 y_42_ ^ 2 ] <= 144823.34040527177
c240: 82 x_43_ - 38 y_43_ + [ 1 x_43_ ^ 2 + 1 y_43_ ^ 2 ] <= 142733.60938234263
c241: 82 x_44_ - 38 y_44_ + [ 1 x_44_ ^ 2 + 1 y_44_ ^ 2 ] <= 93131.84749229247
c242: 82 x_45_ - 38 y_45_ + [ 1 x_45_ ^ 2 + 1 y_45_ ^ 2 ] <= 98935.14326297627
c243: 82 x_46_ - 38 y_46_ + [ 1 x_46_ ^ 2 + 1 y_46_ ^ 2 ] <= 79935.71459948593
c244: 82 x_47_ - 38 y_47_ + [ 1 x_47_ ^ 2 + 1 y_47_ ^ 2 ] <= 29374.710556152255
c245: 82 x_48_ - 38 y_48_ + [ 1 x_48_ ^ 2 + 1 y_48_ ^ 2 ] <= 218488.95256234755
c246: 82 x_49_ - 38 y_49_ + [ 1 x_49_ ^ 2 + 1 y_49_ ^ 2 ] <= 153180.76023718258
c247: 82 x_50_ - 38 y_50_ + [ 1 x_50_ ^ 2 + 1 y_50_ ^ 2 ] <= 45608.8746741039
c248: 82 x_51_ - 38 y_51_ + [ 1 x_51_ ^ 2 + 1 y_51_ ^ 2 ] <= 92008.54555195625
c249: 82 x_52_ - 38 y_52_ + [ 1 x_52_ ^ 2 + 1 y_52_ ^ 2 ] <= 55831.38360625918
c250: 82 x_53_ - 38 y_53_ + [ 1 x_53_ ^ 2 + 1 y_53_ ^ 2 ] <= 104831.38833149144
c251: 82 x_54_ - 38 y_54_ + [ 1 x_54_ ^ 2 + 1 y_54_ ^ 2 ] <= 156640.68936601002
c252: 82 x_55_ - 38 y_55_ + [ 1 x_55_ ^ 2 + 1 y_55_ ^ 2 ] <= 100829.23609260666
c253: 82 x_56_ - 38 y_56_ + [ 1 x_56_ ^ 2 + 1 y_56_ ^ 2 ] <= 114873.5070968044
c254: 82 x_57_ - 38 y_57_ + [ 1 x_57_ ^ 2 + 1 y_57_ ^ 2 ] <= 1791.9599999999996
c255: 82 x_58_ - 38 y_58_ + [ 1 x_58_ ^ 2 + 1 y_58_ ^ 2 ] <= 235023.946685341
c256: 82 x_59_ - 38 y_59_ + [ 1 x_59_ ^ 2 + 1 y_59_ ^ 2 ] <= 114535.9462084743
c257: 82 x_60_ - 38 y_60_ + [ 1 x_60_ ^ 2 + 1 y_60_ ^ 2 ] <= 139235.21149717586
c258: 82 x_61_ - 38 y_61_ + [ 1 x_61_ ^ 2 + 1 y_61_ ^ 2 ] <= 102199.99022674144
c259: 82 x_62_ - 38 y_62_ + [ 1 x_62_ ^ 2 + 1 y_62_ ^ 2 ] <= 74570.70173383017
c260: 82 x_63_ - 38 y_63_ + [ 1 x_63_ ^ 2 + 1 y_63_ ^ 2 ] <= 153249.5878104153
c261: 82 x_64_ - 38 y_64_ + [ 1 x_64_ ^ 2 + 1 y_64_ ^ 2 ] <= 93372.42085332853
c262: 82 x_65_ - 38 y_65_ + [ 1 x_65_ ^ 2 + 1 y_65_ ^ 2 ] <= 119135.40973104129
c263: 82 x_66_ - 38 y_66_ + [ 1 x_66_ ^ 2 + 1 y_66_ ^ 2 ] <= 147113.36084959263
c264: 82 x_67_ - 38 y_67_ + [ 1 x_67_ ^ 2 + 1 y_67_ ^ 2 ] <= 67542.59450724421
c265: 82 x_68_ - 38 y_68_ + [ 1 x_68_ ^ 2 + 1 y_68_ ^ 2 ] <= 89687.40042339003
c266: 82 x_69_ - 38 y_69_ + [ 1 x_69_ ^ 2 + 1 y_69_ ^ 2 ] <= 72962.90085248447
c267: 82 x_70_ - 38 y_70_ + [ 1 x_70_ ^ 2 + 1 y_70_ ^ 2 ] <= 84997.1494698709
c268: 82 x_71_ - 38 y_71_ + [ 1 x_71_ ^ 2 + 1 y_71_ ^ 2 ] <= 67741.51939782851
c269: 82 x_72_ - 38 y_72_ + [ 1 x_72_ ^ 2 + 1 y_72_ ^ 2 ] <= 193707.68437106043
c270: 82 x_73_ - 38 y_73_ + [ 1 x_73_ ^ 2 + 1 y_73_ ^ 2 ] <= 90512.38630131619
c271: 82 x_74_ - 38 y_74_ + [ 1 x_74_ ^ 2 + 1 y_74_ ^ 2 ] <= 96924.87669533389
c272: 82 x_75_ - 38 y_75_ + [ 1 x_75_ ^ 2 + 1 y_75_ ^ 2 ] <= 110665.02350076073
c273: 82 x_76_ - 38 y_76_ + [ 1 x_76_ ^ 2 + 1 y_76_ ^ 2 ] <= 140479.58034859961
c274: 82 x_77_ - 38 y_77_ + [ 1 x_77_ ^ 2 + 1 y_77_ ^ 2 ] <= 24291.804816109627
c275: 82 x_78_ - 38 y_78_ + [ 1 x_78_ ^ 2 + 1 y_78_ ^ 2 ] <= 265780.185679946
c276: 82 x_79_ - 38 y_79_ + [ 1 x_79_ ^ 2 + 1 y_79_ ^ 2 ] <= 42205.713338771035
c277: 82 x_80_ - 38 y_80_ + [ 1 x_80_ ^ 2 + 1 y_80_ ^ 2 ] <= 107718.92387603178
c278: 82 x_81_ - 38 y_81_ + [ 1 x_81_ ^ 2 + 1 y_81_ ^ 2 ] <= 68280.5196430392
c279: 82 x_82_ - 38 y_82_ + [ 1 x_82_ ^ 2 + 1 y_82_ ^ 2 ] <= 71597.06350353829
c280: 82 x_83_ - 38 y_83_ + [ 1 x_83_ ^ 2 + 1 y_83_ ^ 2 ] <= 53222.542031916026
c281: 82 x_84_ - 38 y_84_ + [ 1 x_84_ ^ 2 + 1 y_84_ ^ 2 ] <= 118300.01378608217
c282: 82 x_85_ - 38 y_85_ + [ 1 x_85_ ^ 2 + 1 y_85_ ^ 2 ] <= 37312.349708223825
c283: 82 x_86_ - 38 y_86_ + [ 1 x_86_ ^ 2 + 1 y_86_ ^ 2 ] <= 45577.05099614629
c284: 82 x_87_ - 38 y_87_ + [ 1 x_87_ ^ 2 + 1 y_87_ ^ 2 ] <= 151578.45728063548
c285: 82 x_88_ - 38 y_88_ + [ 1 x_88_ ^ 2 + 1 y_88_ ^ 2 ] <= 122560.1802345317
c286: 82 x_89_ - 38 y_89_ + [ 1 x_89_ ^ 2 + 1 y_89_ ^ 2 ] <= 227574.85334977374
c287: 82 x_90_ - 38 y_90_ + [ 1 x_90_ ^ 2 + 1 y_90_ ^ 2 ] <= 141349.07656133646
c288: 82 x_91_ - 38 y_91_ + [ 1 x_91_ ^ 2 + 1 y_91_ ^ 2 ] <= 142019.10104621
c289: 82 x_92_ - 38 y_92_ + [ 1 x_92_ ^ 2 + 1 y_92_ ^ 2 ] <= 173561.50926689876
c290: 82 x_93_ - 38 y_93_ + [ 1 x_93_ ^ 2 + 1 y_93_ ^ 2 ] <= 122602.91831977131
c291: 82 x_94_ - 38 y_94_ + [ 1 x_94_ ^ 2 + 1 y_94_ ^ 2 ] <= 192389.24728313374
c292: 82 x_95_ - 38 y_95_ + [ 1 x_95_ ^ 2 + 1 y_95_ ^ 2 ] <= 19130.21349315184
c293: 82 x_96_ - 38 y_96_ + [ 1 x_96_ ^ 2 + 1 y_96_ ^ 2 ] <= 25346.520177200753
c294: 82 x_97_ - 38 y_97_ + [ 1 x_97_ ^ 2 + 1 y_97_ ^ 2 ] <= 105720.65925521647
c295: 82 x_98_ - 38 y_98_ + [ 1 x_98_ ^ 2 + 1 y_98_ ^ 2 ] <= 66197.76622686163
c296: 82 x_99_ - 38 y_99_ + [ 1 x_99_ ^ 2 + 1 y_99_ ^ 2 ] <= 108806.53890282502
c297: 82 x_100_ - 38 y_100_ + [ 1 x_100_ ^ 2 + 1 y_100_ ^ 2 ] <= 153846.4553997059
quadratic_ranged_1_ub: [ 1 x_1_ ^ 2 - 2 x_4_ * x_1_ + 1 x_4_ ^ 2 + 1 y_1_ ^ 2 - 2 y_4_ * y_1_ + 1 y_4_ ^ 2 ] <= 24063.25
quadratic_ranged_2_ub: [ 1 x_2_ ^ 2 - 2 x_5_ * x_2_ + 1 x_5_ ^ 2 + 1 y_2_ ^ 2 - 2 y_5_ * y_2_ + 1 y_5_ ^ 2 ] <= 456.52
quadratic_ranged_3_ub: [ 1 x_3_ ^ 2 - 2 x_5_ * x_3_ + 1 x_5_ ^ 2 + 1 y_3_ ^ 2 - 2 y_5_ * y_3_ + 1 y_5_ ^ 2 ] <= 17624.5
quadratic_ranged_4_ub: [ 1 x_4_ ^ 2 - 2 x_5_ * x_4_ + 1 x_5_ ^ 2 + 1 y_4_ ^ 2 - 2 y_5_ * y_4_ + 1 y_5_ ^ 2 ] <= 17821.45
quadratic_ranged_5_ub: [ 1 x_1_ ^ 2 - 2 x_6_ * x_1_ + 1 x_6_ ^ 2 + 1 y_1_ ^ 2 - 2 y_6_ * y_1_ + 1 y_6_ ^ 2 ] <= 20268.68
quadratic_ranged_6_ub: [ 1 x_5_ ^ 2 - 2 x_6_ * x_5_ + 1 x_6_ ^ 2 + 1 y_5_ ^ 2 - 2 y_6_ * y_5_ + 1 y_6_ ^ 2 ] <= 12000.82
quadratic_ranged_7_ub: [ 1 x_2_ ^ 2 - 2 x_8_ * x_2_ + 1 x_8_ ^ 2 + 1 y_2_ ^ 2 - 2 y_8_ * y_2_ + 1 y_8_ ^ 2 ] <= 18521.38
quadratic_ranged_8_ub: [ 1 x_3_ ^ 2 - 2 x_8_ * x_3_ + 1 x_8_ ^ 2 + 1 y_3_ ^ 2 - 2 y_8_ * y_3_ + 1 y_8_ ^ 2 ] <= 18717.32
quadratic_ranged_9_ub: [ 1 x_7_ ^ 2 - 2 x_8_ * x_7_ + 1 x_8_ ^ 2 + 1 y_7_ ^ 2 - 2 y_8_ * y_7_ + 1 y_8_ ^ 2 ] <= 43031.05
quadratic_ranged_10_ub: [ 1 x_1_ ^ 2 - 2 x_9_ * x_1_ + 1 x_9_ ^ 2 + 1 y_1_ ^ 2 - 2 y_9_ * y_1_ + 1 y_9_ ^ 2 ] <= 2118.98
quadratic_ranged_11_ub: [ 1 x_2_ ^ 2 - 2 x_9_ * x_2_ + 1 x_9_ ^ 2 + 1 y_2_ ^ 2 - 2 y_9_ * y_2_ + 1 y_9_ ^ 2 ] <= 662.5600000000001
quadratic_ranged_12_ub: [ 1 x_4_ ^ 2 - 2 x_10_ * x_4_ + 1 x_10_ ^ 2 + 1 y_4_ ^ 2 - 2 y_10_ * y_4_ + 1 y_10_ ^ 2 ] <= 7007.38
quadratic_ranged_13_ub: [ 1 x_3_ ^ 2 - 2 x_11_ * x_3_ + 1 x_11_ ^ 2 + 1 y_3_ ^ 2 - 2 y_11_ * y_3_ + 1 y_11_ ^ 2 ] <= 5527.7300000000005
quadratic_ranged_14_ub: [ 1 x_7_ ^ 2 - 2 x_11_ * x_7_ + 1 x_11_ ^ 2 + 1 y_7_ ^ 2 - 2 y_11_ * y_7_ + 1 y_11_ ^ 2 ] <= 30837.32
quadratic_ranged_15_ub: [ 1 x_4_ ^ 2 - 2 x_12_ * x_4_ + 1 x_12_ ^ 2 + 1 y_4_ ^ 2 - 2 y_12_ * y_4_ + 1 y_12_ ^ 2 ] <= 21024.16
quadratic_ranged_16_ub: [ 1 x_5_ ^ 2 - 2 x_12_ * x_5_ + 1 x_12_ ^ 2 + 1 y_5_ ^ 2 - 2 y_12_ * y_5_ + 1 y_12_ ^ 2 ] <= 1734.17
quadratic_ranged_17_ub: [ 1 x_5_ ^ 2 - 2 x_14_ * x_5_ + 1 x_14_ ^ 2 + 1 y_5_ ^ 2 - 2 y_14_ * y_5_ + 1 y_14_ ^ 2 ] <= 10234.33
quadratic_ranged_18_ub: [ 1 x_2_ ^ 2 - 2 x_15_ * x_2_ + 1 x_15_ ^ 2 + 1 y_2_ ^ 2 - 2 y_15_ * y_2_ + 1 y_15_ ^ 2 ] <= 14225.85
quadratic_ranged_19_ub: [ 1 x_6_ ^ 2 - 2 x_15_ * x_6_ + 1 x_15_ ^ 2 + 1 y_6_ ^ 2 - 2 y_15_ * y_6_ + 1 y_15_ ^ 2 ] <= 12145.25
quadratic_ranged_20_ub: [ 1 x_3_ ^ 2 - 2 x_17_ * x_3_ + 1 x_17_ ^ 2 + 1 y_3_ ^ 2 - 2 y_17_ * y_3_ + 1 y_17_ ^ 2 ] <= 317.14
quadratic_ranged_21_ub: [ 1 x_6_ ^ 2 - 2 x_17_ * x_6_ + 1 x_17_ ^ 2 + 1 y_6_ ^ 2 - 2 y_17_ * y_6_ + 1 y_17_ ^ 2 ] <= 20290.9
quadratic_ranged_22_ub: [ 1 x_10_ ^ 2 - 2 x_18_ * x_10_ + 1 x_18_ ^ 2 + 1 y_10_ ^ 2 - 2 y_18_ * y_10_ + 1 y_18_ ^ 2 ] <= 89.89
quadratic_ranged_23_ub: [ 1 x_17_ ^ 2 - 2 x_18_ * x_17_ + 1 x_18_ ^ 2 + 1 y_17_ ^ 2 - 2 y_18_ * y_17_ + 1 y_18_ ^ 2 ] <= 2141.2
quadratic_ranged_24_ub: [ 1 x_9_ ^ 2 - 2 x_19_ * x_9_ + 1 x_19_ ^ 2 + 1 y_9_ ^ 2 - 2 y_19_ * y_9_ + 1 y_19_ ^ 2 ] <= 19248.58
quadratic_ranged_25_ub: [ 1 x_11_ ^ 2 - 2 x_20_ * x_11_ + 1 x_20_ ^ 2 + 1 y_11_ ^ 2 - 2 y_20_ * y_11_ + 1 y_20_ ^ 2 ] <= 5842.85
quadratic_ranged_26_ub: [ 1 x_18_ ^ 2 - 2 x_20_ * x_18_ + 1 x_20_ ^ 2 + 1 y_18_ ^ 2 - 2 y_20_ * y_18_ + 1 y_20_ ^ 2 ] <= 12418.960000000001
quadratic_ranged_27_ub: [ 1 x_14_ ^ 2 - 2 x_21_ * x_14_ + 1 x_21_ ^ 2 + 1 y_14_ ^ 2 - 2 y_21_ * y_14_ + 1 y_21_ ^ 2 ] <= 15675.2
quadratic_ranged_28_ub: [ 1 x_5_ ^ 2 - 2 x_22_ * x_5_ + 1 x_22_ ^ 2 + 1 y_5_ ^ 2 - 2 y_22_ * y_5_ + 1 y_22_ ^ 2 ] <= 23129
quadratic_ranged_29_ub: [ 1 x_7_ ^ 2 - 2 x_22_ * x_7_ + 1 x_22_ ^ 2 + 1 y_7_ ^ 2 - 2 y_22_ * y_7_ + 1 y_22_ ^ 2 ] <= 42291.73
quadratic_ranged_30_ub: [ 1 x_10_ ^ 2 - 2 x_22_ * x_10_ + 1 x_22_ ^ 2 + 1 y_10_ ^ 2 - 2 y_22_ * y_10_ + 1 y_22_ ^ 2 ] <= 635.29
quadratic_ranged_31_ub: [ 1 x_16_ ^ 2 - 2 x_23_ * x_16_ + 1 x_23_ ^ 2 + 1 y_16_ ^ 2 - 2 y_23_ * y_16_ + 1 y_23_ ^ 2 ] <= 7660.85
quadratic_ranged_32_ub: [ 1 x_6_ ^ 2 - 2 x_24_ * x_6_ + 1 x_24_ ^ 2 + 1 y_6_ ^ 2 - 2 y_24_ * y_6_ + 1 y_24_ ^ 2 ] <= 29205.16
quadratic_ranged_33_ub: [ 1 x_19_ ^ 2 - 2 x_24_ * x_19_ + 1 x_24_ ^ 2 + 1 y_19_ ^ 2 - 2 y_24_ * y_19_ + 1 y_24_ ^ 2 ] <= 27362.920000000002
quadratic_ranged_34_ub: [ 1 x_7_ ^ 2 - 2 x_25_ * x_7_ + 1 x_25_ ^ 2 + 1 y_7_ ^ 2 - 2 y_25_ * y_7_ + 1 y_25_ ^ 2 ] <= 3833.96
quadratic_ranged_35_ub: [ 1 x_20_ ^ 2 - 2 x_25_ * x_20_ + 1 x_25_ ^ 2 + 1 y_20_ ^ 2 - 2 y_25_ * y_20_ + 1 y_25_ ^ 2 ] <= 11551.37
quadratic_ranged_36_ub: [ 1 x_23_ ^ 2 - 2 x_25_ * x_23_ + 1 x_25_ ^ 2 + 1 y_23_ ^ 2 - 2 y_25_ * y_23_ + 1 y_25_ ^ 2 ] <= 14608.64
quadratic_ranged_37_ub: [ 1 x_12_ ^ 2 - 2 x_26_ * x_12_ + 1 x_26_ ^ 2 + 1 y_12_ ^ 2 - 2 y_26_ * y_12_ + 1 y_26_ ^ 2 ] <= 5658.02
quadratic_ranged_38_ub: [ 1 x_18_ ^ 2 - 2 x_27_ * x_18_ + 1 x_27_ ^ 2 + 1 y_18_ ^ 2 - 2 y_27_ * y_18_ + 1 y_27_ ^ 2 ] <= 21033.25
quadratic_ranged_39_ub: [ 1 x_10_ ^ 2 - 2 x_28_ * x_10_ + 1 x_28_ ^ 2 + 1 y_10_ ^ 2 - 2 y_28_ * y_10_ + 1 y_28_ ^ 2 ] <= 12957.29
quadratic_ranged_40_ub: [ 1 x_15_ ^ 2 - 2 x_28_ * x_15_ + 1 x_28_ ^ 2 + 1 y_15_ ^ 2 - 2 y_28_ * y_15_ + 1 y_28_ ^ 2 ] <= 10222.210000000001
quadratic_ranged_41_ub: [ 1 x_17_ ^ 2 - 2 x_29_ * x_17_ + 1 x_29_ ^ 2 + 1 y_17_ ^ 2 - 2 y_29_ * y_17_ + 1 y_29_ ^ 2 ] <= 39721.28
quadratic_ranged_42_ub: [ 1 x_7_ ^ 2 - 2 x_30_ * x_7_ + 1 x_30_ ^ 2 + 1 y_7_ ^ 2 - 2 y_30_ * y_7_ + 1 y_30_ ^ 2 ] <= 8064.85
quadratic_ranged_43_ub: [ 1 x_18_ ^ 2 - 2 x_30_ * x_18_ + 1 x_30_ ^ 2 + 1 y_18_ ^ 2 - 2 y_30_ * y_18_ + 1 y_30_ ^ 2 ] <= 11526.12
quadratic_ranged_44_ub: [ 1 x_11_ ^ 2 - 2 x_31_ * x_11_ + 1 x_31_ ^ 2 + 1 y_11_ ^ 2 - 2 y_31_ * y_11_ + 1 y_31_ ^ 2 ] <= 9607.12
quadratic_ranged_45_ub: [ 1 x_10_ ^ 2 - 2 x_32_ * x_10_ + 1 x_32_ ^ 2 + 1 y_10_ ^ 2 - 2 y_32_ * y_10_ + 1 y_32_ ^ 2 ] <= 15890.33
quadratic_ranged_46_ub: [ 1 x_25_ ^ 2 - 2 x_32_ * x_25_ + 1 x_32_ ^ 2 + 1 y_25_ ^ 2 - 2 y_32_ * y_25_ + 1 y_32_ ^ 2 ] <= 17579.05
quadratic_ranged_47_ub: [ 1 x_12_ ^ 2 - 2 x_33_ * x_12_ + 1 x_33_ ^ 2 + 1 y_12_ ^ 2 - 2 y_33_ * y_12_ + 1 y_33_ ^ 2 ] <= 10500.97
quadratic_ranged_48_ub: [ 1 x_13_ ^ 2 - 2 x_34_ * x_13_ + 1 x_34_ ^ 2 + 1 y_13_ ^ 2 - 2 y_34_ * y_13_ + 1 y_34_ ^ 2 ] <= 26733.69
quadratic_ranged_49_ub: [ 1 x_9_ ^ 2 - 2 x_35_ * x_9_ + 1 x_35_ ^ 2 + 1 y_9_ ^ 2 - 2 y_35_ * y_9_ + 1 y_35_ ^ 2 ] <= 12049.3
quadratic_ranged_50_ub: [ 1 x_12_ ^ 2 - 2 x_35_ * x_12_ + 1 x_35_ ^ 2 + 1 y_12_ ^ 2 - 2 y_35_ * y_12_ + 1 y_35_ ^ 2 ] <= 11066.57
quadratic_ranged_51_ub: [ 1 x_3_ ^ 2 - 2 x_36_ * x_3_ + 1 x_36_ ^ 2 + 1 y_3_ ^ 2 - 2 y_36_ * y_3_ + 1 y_36_ ^ 2 ] <= 40210.12
quadratic_ranged_52_ub: [ 1 x_21_ ^ 2 - 2 x_36_ * x_21_ + 1 x_36_ ^ 2 + 1 y_21_ ^ 2 - 2 y_36_ * y_21_ + 1 y_36_ ^ 2 ] <= 2449.25
quadratic_ranged_53_ub: [ 1 x_10_ ^ 2 - 2 x_37_ * x_10_ + 1 x_37_ ^ 2 + 1 y_10_ ^ 2 - 2 y_37_ * y_10_ + 1 y_37_ ^ 2 ] <= 6322.6
quadratic_ranged_54_ub: [ 1 x_20_ ^ 2 - 2 x_37_ * x_20_ + 1 x_37_ ^ 2 + 1 y_20_ ^ 2 - 2 y_37_ * y_20_ + 1 y_37_ ^ 2 ] <= 34668.25
quadratic_ranged_55_ub: [ 1 x_7_ ^ 2 - 2 x_38_ * x_7_ + 1 x_38_ ^ 2 + 1 y_7_ ^ 2 - 2 y_38_ * y_7_ + 1 y_38_ ^ 2 ] <= 31626.13
quadratic_ranged_56_ub: [ 1 x_19_ ^ 2 - 2 x_38_ * x_19_ + 1 x_38_ ^ 2 + 1 y_19_ ^ 2 - 2 y_38_ * y_19_ + 1 y_38_ ^ 2 ] <= 1890.72
quadratic_ranged_57_ub: [ 1 x_35_ ^ 2 - 2 x_38_ * x_35_ + 1 x_38_ ^ 2 + 1 y_35_ ^ 2 - 2 y_38_ * y_35_ + 1 y_38_ ^ 2 ] <= 262.6
quadratic_ranged_58_ub: [ 1 x_8_ ^ 2 - 2 x_39_ * x_8_ + 1 x_39_ ^ 2 + 1 y_8_ ^ 2 - 2 y_39_ * y_8_ + 1 y_39_ ^ 2 ] <= 11397.85
quadratic_ranged_59_ub: [ 1 x_17_ ^ 2 - 2 x_39_ * x_17_ + 1 x_39_ ^ 2 + 1 y_17_ ^ 2 - 2 y_39_ * y_17_ + 1 y_39_ ^ 2 ] <= 970.61
quadratic_ranged_60_ub: [ 1 x_29_ ^ 2 - 2 x_39_ * x_29_ + 1 x_39_ ^ 2 + 1 y_29_ ^ 2 - 2 y_39_ * y_29_ + 1 y_39_ ^ 2 ] <= 32426.05
quadratic_ranged_61_ub: [ 1 x_4_ ^ 2 - 2 x_40_ * x_4_ + 1 x_40_ ^ 2 + 1 y_4_ ^ 2 - 2 y_40_ * y_4_ + 1 y_40_ ^ 2 ] <= 17230.6
quadratic_ranged_62_ub: [ 1 x_13_ ^ 2 - 2 x_41_ * x_13_ + 1 x_41_ ^ 2 + 1 y_13_ ^ 2 - 2 y_41_ * y_13_ + 1 y_41_ ^ 2 ] <= 6627.62
quadratic_ranged_63_ub: [ 1 x_14_ ^ 2 - 2 x_41_ * x_14_ + 1 x_41_ ^ 2 + 1 y_14_ ^ 2 - 2 y_41_ * y_14_ + 1 y_41_ ^ 2 ] <= 25093.45
quadratic_ranged_64_ub: [ 1 x_16_ ^ 2 - 2 x_41_ * x_16_ + 1 x_41_ ^ 2 + 1 y_16_ ^ 2 - 2 y_41_ * y_16_ + 1 y_41_ ^ 2 ] <= 2450.26
quadratic_ranged_65_ub: [ 1 x_14_ ^ 2 - 2 x_42_ * x_14_ + 1 x_42_ ^ 2 + 1 y_14_ ^ 2 - 2 y_42_ * y_14_ + 1 y_42_ ^ 2 ] <= 17461.89
quadratic_ranged_66_ub: [ 1 x_1_ ^ 2 - 2 x_43_ * x_1_ + 1 x_43_ ^ 2 + 1 y_1_ ^ 2 - 2 y_43_ * y_1_ + 1 y_43_ ^ 2 ] <= 13544.1
quadratic_ranged_67_ub: [ 1 x_38_ ^ 2 - 2 x_43_ * x_38_ + 1 x_43_ ^ 2 + 1 y_38_ ^ 2 - 2 y_43_ * y_38_ + 1 y_43_ ^ 2 ] <= 19499.06
quadratic_ranged_68_ub: [ 1 x_14_ ^ 2 - 2 x_44_ * x_14_ + 1 x_44_ ^ 2 + 1 y_14_ ^ 2 - 2 y_44_ * y_14_ + 1 y_44_ ^ 2 ] <= 3646.1
quadratic_ranged_69_ub: [ 1 x_37_ ^ 2 - 2 x_44_ * x_37_ + 1 x_44_ ^ 2 + 1 y_37_ ^ 2 - 2 y_44_ * y_37_ + 1 y_44_ ^ 2 ] <= 13261.3
quadratic_ranged_70_ub: [ 1 x_11_ ^ 2 - 2 x_45_ * x_11_ + 1 x_45_ ^ 2 + 1 y_11_ ^ 2 - 2 y_45_ * y_11_ + 1 y_45_ ^ 2 ] <= 15111.62
quadratic_ranged_71_ub: [ 1 x_31_ ^ 2 - 2 x_45_ * x_31_ + 1 x_45_ ^ 2 + 1 y_31_ ^ 2 - 2 y_45_ * y_31_ + 1 y_45_ ^ 2 ] <= 9164.74
quadratic_ranged_72_ub: [ 1 x_33_ ^ 2 - 2 x_45_ * x_33_ + 1 x_45_ ^ 2 + 1 y_33_ ^ 2 - 2 y_45_ * y_33_ + 1 y_45_ ^ 2 ] <= 16294.33
quadratic_ranged_73_ub: [ 1 x_18_ ^ 2 - 2 x_46_ * x_18_ + 1 x_46_ ^ 2 + 1 y_18_ ^ 2 - 2 y_46_ * y_18_ + 1 y_46_ ^ 2 ] <= 26571.08
quadratic_ranged_74_ub: [ 1 x_37_ ^ 2 - 2 x_46_ * x_37_ + 1 x_46_ ^ 2 + 1 y_37_ ^ 2 - 2 y_46_ * y_37_ + 1 y_46_ ^ 2 ] <= 38195.17
quadratic_ranged_75_ub: [ 1 x_19_ ^ 2 - 2 x_47_ * x_19_ + 1 x_47_ ^ 2 + 1 y_19_ ^ 2 - 2 y_47_ * y_19_ + 1 y_47_ ^ 2 ] <= 405.01
quadratic_ranged_76_ub: [ 1 x_31_ ^ 2 - 2 x_47_ * x_31_ + 1 x_47_ ^ 2 + 1 y_31_ ^ 2 - 2 y_47_ * y_31_ + 1 y_47_ ^ 2 ] <= 22674.5
quadratic_ranged_77_ub: [ 1 x_36_ ^ 2 - 2 x_48_ * x_36_ + 1 x_48_ ^ 2 + 1 y_36_ ^ 2 - 2 y_48_ * y_36_ + 1 y_48_ ^ 2 ] <= 29122.34
quadratic_ranged_78_ub: [ 1 x_45_ ^ 2 - 2 x_49_ * x_45_ + 1 x_49_ ^ 2 + 1 y_45_ ^ 2 - 2 y_49_ * y_45_ + 1 y_49_ ^ 2 ] <= 24261.21
quadratic_ranged_79_ub: [ 1 x_10_ ^ 2 - 2 x_50_ * x_10_ + 1 x_50_ ^ 2 + 1 y_10_ ^ 2 - 2 y_50_ * y_10_ + 1 y_50_ ^ 2 ] <= 10912.04
quadratic_ranged_80_ub: [ 1 x_20_ ^ 2 - 2 x_51_ * x_20_ + 1 x_51_ ^ 2 + 1 y_20_ ^ 2 - 2 y_51_ * y_20_ + 1 y_51_ ^ 2 ] <= 5173.22
quadratic_ranged_81_ub: [ 1 x_34_ ^ 2 - 2 x_51_ * x_34_ + 1 x_51_ ^ 2 + 1 y_34_ ^ 2 - 2 y_51_ * y_34_ + 1 y_51_ ^ 2 ] <= 24305.65
quadratic_ranged_82_ub: [ 1 x_30_ ^ 2 - 2 x_52_ * x_30_ + 1 x_52_ ^ 2 + 1 y_30_ ^ 2 - 2 y_52_ * y_30_ + 1 y_52_ ^ 2 ] <= 97.97
quadratic_ranged_83_ub: [ 1 x_20_ ^ 2 - 2 x_53_ * x_20_ + 1 x_53_ ^ 2 + 1 y_20_ ^ 2 - 2 y_53_ * y_20_ + 1 y_53_ ^ 2 ] <= 8494.1
quadratic_ranged_84_ub: [ 1 x_21_ ^ 2 - 2 x_53_ * x_21_ + 1 x_53_ ^ 2 + 1 y_21_ ^ 2 - 2 y_53_ * y_21_ + 1 y_53_ ^ 2 ] <= 3095.65
quadratic_ranged_85_ub: [ 1 x_42_ ^ 2 - 2 x_53_ * x_42_ + 1 x_53_ ^ 2 + 1 y_42_ ^ 2 - 2 y_53_ * y_42_ + 1 y_53_ ^ 2 ] <= 3171.4
quadratic_ranged_86_ub: [ 1 x_24_ ^ 2 - 2 x_54_ * x_24_ + 1 x_54_ ^ 2 + 1 y_24_ ^ 2 - 2 y_54_ * y_24_ + 1 y_54_ ^ 2 ] <= 1264.52
quadratic_ranged_87_ub: [ 1 x_44_ ^ 2 - 2 x_54_ * x_44_ + 1 x_54_ ^ 2 + 1 y_44_ ^ 2 - 2 y_54_ * y_44_ + 1 y_54_ ^ 2 ] <= 13353.210000000001
quadratic_ranged_88_ub: [ 1 x_48_ ^ 2 - 2 x_54_ * x_48_ + 1 x_54_ ^ 2 + 1 y_48_ ^ 2 - 2 y_54_ * y_48_ + 1 y_54_ ^ 2 ] <= 11831.14
quadratic_ranged_89_ub: [ 1 x_40_ ^ 2 - 2 x_55_ * x_40_ + 1 x_55_ ^ 2 + 1 y_40_ ^ 2 - 2 y_55_ * y_40_ + 1 y_55_ ^ 2 ] <= 1545.3
quadratic_ranged_90_ub: [ 1 x_9_ ^ 2 - 2 x_56_ * x_9_ + 1 x_56_ ^ 2 + 1 y_9_ ^ 2 - 2 y_56_ * y_9_ + 1 y_56_ ^ 2 ] <= 9179.89
quadratic_ranged_91_ub: [ 1 x_53_ ^ 2 - 2 x_56_ * x_53_ + 1 x_56_ ^ 2 + 1 y_53_ ^ 2 - 2 y_56_ * y_53_ + 1 y_56_ ^ 2 ] <= 9369.77
quadratic_ranged_92_ub: [ 1 x_3_ ^ 2 - 2 x_57_ * x_3_ + 1 x_57_ ^ 2 + 1 y_3_ ^ 2 - 2 y_57_ * y_3_ + 1 y_57_ ^ 2 ] <= 7570.96
quadratic_ranged_93_ub: [ 1 x_28_ ^ 2 - 2 x_57_ * x_28_ + 1 x_57_ ^ 2 + 1 y_28_ ^ 2 - 2 y_57_ * y_28_ + 1 y_57_ ^ 2 ] <= 3833.96
quadratic_ranged_94_ub: [ 1 x_47_ ^ 2 - 2 x_57_ * x_47_ + 1 x_57_ ^ 2 + 1 y_47_ ^ 2 - 2 y_57_ * y_47_ + 1 y_57_ ^ 2 ] <= 13300.69
quadratic_ranged_95_ub: [ 1 x_7_ ^ 2 - 2 x_58_ * x_7_ + 1 x_58_ ^ 2 + 1 y_7_ ^ 2 - 2 y_58_ * y_7_ + 1 y_58_ ^ 2 ] <= 27695.21
quadratic_ranged_96_ub: [ 1 x_54_ ^ 2 - 2 x_58_ * x_54_ + 1 x_58_ ^ 2 + 1 y_54_ ^ 2 - 2 y_58_ * y_54_ + 1 y_58_ ^ 2 ] <= 29671.78
quadratic_ranged_97_ub: [ 1 x_1_ ^ 2 - 2 x_59_ * x_1_ + 1 x_59_ ^ 2 + 1 y_1_ ^ 2 - 2 y_59_ * y_1_ + 1 y_59_ ^ 2 ] <= 2429.05
quadratic_ranged_98_ub: [ 1 x_49_ ^ 2 - 2 x_59_ * x_49_ + 1 x_59_ ^ 2 + 1 y_49_ ^ 2 - 2 y_59_ * y_49_ + 1 y_59_ ^ 2 ] <= 24123.85
quadratic_ranged_99_ub: [ 1 x_7_ ^ 2 - 2 x_60_ * x_7_ + 1 x_60_ ^ 2 + 1 y_7_ ^ 2 - 2 y_60_ * y_7_ + 1 y_60_ ^ 2 ] <= 24584.41
quadratic_ranged_100_ub: [ 1 x_46_ ^ 2 - 2 x_60_ * x_46_ + 1 x_60_ ^ 2 + 1 y_46_ ^ 2 - 2 y_60_ * y_46_ + 1 y_60_ ^ 2 ] <= 8019.4
quadratic_ranged_101_ub: [ 1 x_13_ ^ 2 - 2 x_61_ * x_13_ + 1 x_61_ ^ 2 + 1 y_13_ ^ 2 - 2 y_61_ * y_13_ + 1 y_61_ ^ 2 ] <= 42228.1
quadratic_ranged_102_ub: [ 1 x_29_ ^ 2 - 2 x_61_ * x_29_ + 1 x_61_ ^ 2 + 1 y_29_ ^ 2 - 2 y_61_ * y_29_ + 1 y_61_ ^ 2 ] <= 12031.12
quadratic_ranged_103_ub: [ 1 x_48_ ^ 2 - 2 x_61_ * x_48_ + 1 x_61_ ^ 2 + 1 y_48_ ^ 2 - 2 y_61_ * y_48_ + 1 y_61_ ^ 2 ] <= 21533.2
quadratic_ranged_104_ub: [ 1 x_10_ ^ 2 - 2 x_62_ * x_10_ + 1 x_62_ ^ 2 + 1 y_10_ ^ 2 - 2 y_62_ * y_10_ + 1 y_62_ ^ 2 ] <= 26555.93
quadratic_ranged_105_ub: [ 1 x_14_ ^ 2 - 2 x_62_ * x_14_ + 1 x_62_ ^ 2 + 1 y_14_ ^ 2 - 2 y_62_ * y_14_ + 1 y_62_ ^ 2 ] <= 5006.57
quadratic_ranged_106_ub: [ 1 x_40_ ^ 2 - 2 x_62_ * x_40_ + 1 x_62_ ^ 2 + 1 y_40_ ^ 2 - 2 y_62_ * y_40_ + 1 y_62_ ^ 2 ] <= 4873.25
quadratic_ranged_107_ub: [ 1 x_1_ ^ 2 - 2 x_63_ * x_1_ + 1 x_63_ ^ 2 + 1 y_1_ ^ 2 - 2 y_63_ * y_1_ + 1 y_63_ ^ 2 ] <= 10387.85
quadratic_ranged_108_ub: [ 1 x_13_ ^ 2 - 2 x_63_ * x_13_ + 1 x_63_ ^ 2 + 1 y_13_ ^ 2 - 2 y_63_ * y_13_ + 1 y_63_ ^ 2 ] <= 24980.33
quadratic_ranged_109_ub: [ 1 x_40_ ^ 2 - 2 x_63_ * x_40_ + 1 x_63_ ^ 2 + 1 y_40_ ^ 2 - 2 y_63_ * y_40_ + 1 y_63_ ^ 2 ] <= 8825.38
quadratic_ranged_110_ub: [ 1 x_20_ ^ 2 - 2 x_64_ * x_20_ + 1 x_64_ ^ 2 + 1 y_20_ ^ 2 - 2 y_64_ * y_20_ + 1 y_64_ ^ 2 ] <= 10013.14
quadratic_ranged_111_ub: [ 1 x_30_ ^ 2 - 2 x_64_ * x_30_ + 1 x_64_ ^ 2 + 1 y_30_ ^ 2 - 2 y_64_ * y_30_ + 1 y_64_ ^ 2 ] <= 6118.58
quadratic_ranged_112_ub: [ 1 x_36_ ^ 2 - 2 x_64_ * x_36_ + 1 x_64_ ^ 2 + 1 y_36_ ^ 2 - 2 y_64_ * y_36_ + 1 y_64_ ^ 2 ] <= 10104.04
quadratic_ranged_113_ub: [ 1 x_2_ ^ 2 - 2 x_65_ * x_2_ + 1 x_65_ ^ 2 + 1 y_2_ ^ 2 - 2 y_65_ * y_2_ + 1 y_65_ ^ 2 ] <= 16314.53
quadratic_ranged_114_ub: [ 1 x_9_ ^ 2 - 2 x_65_ * x_9_ + 1 x_65_ ^ 2 + 1 y_9_ ^ 2 - 2 y_65_ * y_9_ + 1 y_65_ ^ 2 ] <= 14779.33
quadratic_ranged_115_ub: [ 1 x_29_ ^ 2 - 2 x_66_ * x_29_ + 1 x_66_ ^ 2 + 1 y_29_ ^ 2 - 2 y_66_ * y_29_ + 1 y_66_ ^ 2 ] <= 732.25
quadratic_ranged_116_ub: [ 1 x_55_ ^ 2 - 2 x_66_ * x_55_ + 1 x_66_ ^ 2 + 1 y_55_ ^ 2 - 2 y_66_ * y_55_ + 1 y_66_ ^ 2 ] <= 4286.44
quadratic_ranged_117_ub: [ 1 x_10_ ^ 2 - 2 x_67_ * x_10_ + 1 x_67_ ^ 2 + 1 y_10_ ^ 2 - 2 y_67_ * y_10_ + 1 y_67_ ^ 2 ] <= 22487.65
quadratic_ranged_118_ub: [ 1 x_45_ ^ 2 - 2 x_67_ * x_45_ + 1 x_67_ ^ 2 + 1 y_45_ ^ 2 - 2 y_67_ * y_45_ + 1 y_67_ ^ 2 ] <= 2913.85
quadratic_ranged_119_ub: [ 1 x_20_ ^ 2 - 2 x_68_ * x_20_ + 1 x_68_ ^ 2 + 1 y_20_ ^ 2 - 2 y_68_ * y_20_ + 1 y_68_ ^ 2 ] <= 4639.94
quadratic_ranged_120_ub: [ 1 x_24_ ^ 2 - 2 x_69_ * x_24_ + 1 x_69_ ^ 2 + 1 y_24_ ^ 2 - 2 y_69_ * y_24_ + 1 y_69_ ^ 2 ] <= 30107.09
quadratic_ranged_121_ub: [ 1 x_39_ ^ 2 - 2 x_69_ * x_39_ + 1 x_69_ ^ 2 + 1 y_39_ ^ 2 - 2 y_69_ * y_39_ + 1 y_69_ ^ 2 ] <= 7290.18
quadratic_ranged_122_ub: [ 1 x_52_ ^ 2 - 2 x_69_ * x_52_ + 1 x_69_ ^ 2 + 1 y_52_ ^ 2 - 2 y_69_ * y_52_ + 1 y_69_ ^ 2 ] <= 1108.98
quadratic_ranged_123_ub: [ 1 x_4_ ^ 2 - 2 x_70_ * x_4_ + 1 x_70_ ^ 2 + 1 y_4_ ^ 2 - 2 y_70_ * y_4_ + 1 y_70_ ^ 2 ] <= 9503.09
quadratic_ranged_124_ub: [ 1 x_34_ ^ 2 - 2 x_70_ * x_34_ + 1 x_70_ ^ 2 + 1 y_34_ ^ 2 - 2 y_70_ * y_34_ + 1 y_70_ ^ 2 ] <= 17057.89
quadratic_ranged_125_ub: [ 1 x_68_ ^ 2 - 2 x_70_ * x_68_ + 1 x_70_ ^ 2 + 1 y_68_ ^ 2 - 2 y_70_ * y_68_ + 1 y_70_ ^ 2 ] <= 11564.5
quadratic_ranged_126_ub: [ 1 x_2_ ^ 2 - 2 x_71_ * x_2_ + 1 x_71_ ^ 2 + 1 y_2_ ^ 2 - 2 y_71_ * y_2_ + 1 y_71_ ^ 2 ] <= 6344.82
quadratic_ranged_127_ub: [ 1 x_69_ ^ 2 - 2 x_71_ * x_69_ + 1 x_71_ ^ 2 + 1 y_69_ ^ 2 - 2 y_71_ * y_69_ + 1 y_71_ ^ 2 ] <= 2812.85
quadratic_ranged_128_ub: [ 1 x_42_ ^ 2 - 2 x_72_ * x_42_ + 1 x_72_ ^ 2 + 1 y_42_ ^ 2 - 2 y_72_ * y_42_ + 1 y_72_ ^ 2 ] <= 3859.21
quadratic_ranged_129_ub: [ 1 x_53_ ^ 2 - 2 x_72_ * x_53_ + 1 x_72_ ^ 2 + 1 y_53_ ^ 2 - 2 y_72_ * y_53_ + 1 y_72_ ^ 2 ] <= 13345.130000000001
quadratic_ranged_130_ub: [ 1 x_1_ ^ 2 - 2 x_73_ * x_1_ + 1 x_73_ ^ 2 + 1 y_1_ ^ 2 - 2 y_73_ * y_1_ + 1 y_73_ ^ 2 ] <= 4453.09
quadratic_ranged_131_ub: [ 1 x_2_ ^ 2 - 2 x_73_ * x_2_ + 1 x_73_ ^ 2 + 1 y_2_ ^ 2 - 2 y_73_ * y_2_ + 1 y_73_ ^ 2 ] <= 9842.45
quadratic_ranged_132_ub: [ 1 x_50_ ^ 2 - 2 x_73_ * x_50_ + 1 x_73_ ^ 2 + 1 y_50_ ^ 2 - 2 y_73_ * y_50_ + 1 y_73_ ^ 2 ] <= 7385.12
quadratic_ranged_133_ub: [ 1 x_7_ ^ 2 - 2 x_74_ * x_7_ + 1 x_74_ ^ 2 + 1 y_7_ ^ 2 - 2 y_74_ * y_7_ + 1 y_74_ ^ 2 ] <= 9342.5
quadratic_ranged_134_ub: [ 1 x_12_ ^ 2 - 2 x_74_ * x_12_ + 1 x_74_ ^ 2 + 1 y_12_ ^ 2 - 2 y_74_ * y_12_ + 1 y_74_ ^ 2 ] <= 973.64
quadratic_ranged_135_ub: [ 1 x_27_ ^ 2 - 2 x_74_ * x_27_ + 1 x_74_ ^ 2 + 1 y_27_ ^ 2 - 2 y_74_ * y_27_ + 1 y_74_ ^ 2 ] <= 10231.3
quadratic_ranged_136_ub: [ 1 x_41_ ^ 2 - 2 x_75_ * x_41_ + 1 x_75_ ^ 2 + 1 y_41_ ^ 2 - 2 y_75_ * y_41_ + 1 y_75_ ^ 2 ] <= 4186.45
quadratic_ranged_137_ub: [ 1 x_74_ ^ 2 - 2 x_75_ * x_74_ + 1 x_75_ ^ 2 + 1 y_74_ ^ 2 - 2 y_75_ * y_74_ + 1 y_75_ ^ 2 ] <= 446.42
quadratic_ranged_138_ub: [ 1 x_24_ ^ 2 - 2 x_76_ * x_24_ + 1 x_76_ ^ 2 + 1 y_24_ ^ 2 - 2 y_76_ * y_24_ + 1 y_76_ ^ 2 ] <= 2186.65
quadratic_ranged_139_ub: [ 1 x_31_ ^ 2 - 2 x_76_ * x_31_ + 1 x_76_ ^ 2 + 1 y_31_ ^ 2 - 2 y_76_ * y_31_ + 1 y_76_ ^ 2 ] <= 3161.3
quadratic_ranged_140_ub: [ 1 x_38_ ^ 2 - 2 x_77_ * x_38_ + 1 x_77_ ^ 2 + 1 y_38_ ^ 2 - 2 y_77_ * y_38_ + 1 y_77_ ^ 2 ] <= 17473
quadratic_ranged_141_ub: [ 1 x_57_ ^ 2 - 2 x_77_ * x_57_ + 1 x_77_ ^ 2 + 1 y_57_ ^ 2 - 2 y_77_ * y_57_ + 1 y_77_ ^ 2 ] <= 10071.72
quadratic_ranged_142_ub: [ 1 x_43_ ^ 2 - 2 x_78_ * x_43_ + 1 x_78_ ^ 2 + 1 y_43_ ^ 2 - 2 y_78_ * y_43_ + 1 y_78_ ^ 2 ] <= 18774.89
quadratic_ranged_143_ub: [ 1 x_18_ ^ 2 - 2 x_79_ * x_18_ + 1 x_79_ ^ 2 + 1 y_18_ ^ 2 - 2 y_79_ * y_18_ + 1 y_79_ ^ 2 ] <= 7576.01
quadratic_ranged_144_ub: [ 1 x_55_ ^ 2 - 2 x_79_ * x_55_ + 1 x_79_ ^ 2 + 1 y_55_ ^ 2 - 2 y_79_ * y_55_ + 1 y_79_ ^ 2 ] <= 12184.64
quadratic_ranged_145_ub: [ 1 x_27_ ^ 2 - 2 x_80_ * x_27_ + 1 x_80_ ^ 2 + 1 y_27_ ^ 2 - 2 y_80_ * y_27_ + 1 y_80_ ^ 2 ] <= 3964.25
quadratic_ranged_146_ub: [ 1 x_13_ ^ 2 - 2 x_81_ * x_13_ + 1 x_81_ ^ 2 + 1 y_13_ ^ 2 - 2 y_81_ * y_13_ + 1 y_81_ ^ 2 ] <= 28373.93
quadratic_ranged_147_ub: [ 1 x_49_ ^ 2 - 2 x_81_ * x_49_ + 1 x_81_ ^ 2 + 1 y_49_ ^ 2 - 2 y_81_ * y_49_ + 1 y_81_ ^ 2 ] <= 16589.25
quadratic_ranged_148_ub: [ 1 x_77_ ^ 2 - 2 x_81_ * x_77_ + 1 x_81_ ^ 2 + 1 y_77_ ^ 2 - 2 y_81_ * y_77_ + 1 y_81_ ^ 2 ] <= 10589.85
quadratic_ranged_149_ub: [ 1 x_13_ ^ 2 - 2 x_82_ * x_13_ + 1 x_82_ ^ 2 + 1 y_13_ ^ 2 - 2 y_82_ * y_13_ + 1 y_82_ ^ 2 ] <= 28849.64
quadratic_ranged_150_ub: [ 1 x_50_ ^ 2 - 2 x_82_ * x_50_ + 1 x_82_ ^ 2 + 1 y_50_ ^ 2 - 2 y_82_ * y_50_ + 1 y_82_ ^ 2 ] <= 2816.89
quadratic_ranged_151_ub: [ 1 x_61_ ^ 2 - 2 x_82_ * x_61_ + 1 x_82_ ^ 2 + 1 y_61_ ^ 2 - 2 y_82_ * y_61_ + 1 y_82_ ^ 2 ] <= 2652.26
quadratic_ranged_152_ub: [ 1 x_3_ ^ 2 - 2 x_83_ * x_3_ + 1 x_83_ ^ 2 + 1 y_3_ ^ 2 - 2 y_83_ * y_3_ + 1 y_83_ ^ 2 ] <= 7422.49
quadratic_ranged_153_ub: [ 1 x_16_ ^ 2 - 2 x_83_ * x_16_ + 1 x_83_ ^ 2 + 1 y_16_ ^ 2 - 2 y_83_ * y_16_ + 1 y_83_ ^ 2 ] <= 946.37
quadratic_ranged_154_ub: [ 1 x_23_ ^ 2 - 2 x_83_ * x_23_ + 1 x_83_ ^ 2 + 1 y_23_ ^ 2 - 2 y_83_ * y_23_ + 1 y_83_ ^ 2 ] <= 4542.9800000000005
quadratic_ranged_155_ub: [ 1 x_55_ ^ 2 - 2 x_84_ * x_55_ + 1 x_84_ ^ 2 + 1 y_55_ ^ 2 - 2 y_84_ * y_55_ + 1 y_84_ ^ 2 ] <= 4979.3
quadratic_ranged_156_ub: [ 1 x_65_ ^ 2 - 2 x_84_ * x_65_ + 1 x_84_ ^ 2 + 1 y_65_ ^ 2 - 2 y_84_ * y_65_ + 1 y_84_ ^ 2 ] <= 16390.28
quadratic_ranged_157_ub: [ 1 x_80_ ^ 2 - 2 x_84_ * x_80_ + 1 x_84_ ^ 2 + 1 y_80_ ^ 2 - 2 y_84_ * y_80_ + 1 y_84_ ^ 2 ] <= 243.41
quadratic_ranged_158_ub: [ 1 x_3_ ^ 2 - 2 x_85_ * x_3_ + 1 x_85_ ^ 2 + 1 y_3_ ^ 2 - 2 y_85_ * y_3_ + 1 y_85_ ^ 2 ] <= 2445.21
quadratic_ranged_159_ub: [ 1 x_71_ ^ 2 - 2 x_85_ * x_71_ + 1 x_85_ ^ 2 + 1 y_71_ ^ 2 - 2 y_85_ * y_71_ + 1 y_85_ ^ 2 ] <= 4327.85
quadratic_ranged_160_ub: [ 1 x_79_ ^ 2 - 2 x_85_ * x_79_ + 1 x_85_ ^ 2 + 1 y_79_ ^ 2 - 2 y_85_ * y_79_ + 1 y_85_ ^ 2 ] <= 25892.36
quadratic_ranged_161_ub: [ 1 x_13_ ^ 2 - 2 x_86_ * x_13_ + 1 x_86_ ^ 2 + 1 y_13_ ^ 2 - 2 y_86_ * y_13_ + 1 y_86_ ^ 2 ] <= 10667.62
quadratic_ranged_162_ub: [ 1 x_21_ ^ 2 - 2 x_86_ * x_21_ + 1 x_86_ ^ 2 + 1 y_21_ ^ 2 - 2 y_86_ * y_21_ + 1 y_86_ ^ 2 ] <= 18011.33
quadratic_ranged_163_ub: [ 1 x_39_ ^ 2 - 2 x_86_ * x_39_ + 1 x_86_ ^ 2 + 1 y_39_ ^ 2 - 2 y_86_ * y_39_ + 1 y_86_ ^ 2 ] <= 413.09000000000003
quadratic_ranged_164_ub: [ 1 x_13_ ^ 2 - 2 x_87_ * x_13_ + 1 x_87_ ^ 2 + 1 y_13_ ^ 2 - 2 y_87_ * y_13_ + 1 y_87_ ^ 2 ] <= 4962.13
quadratic_ranged_165_ub: [ 1 x_26_ ^ 2 - 2 x_87_ * x_26_ + 1 x_87_ ^ 2 + 1 y_26_ ^ 2 - 2 y_87_ * y_26_ + 1 y_87_ ^ 2 ] <= 4559.14
quadratic_ranged_166_ub: [ 1 x_60_ ^ 2 - 2 x_87_ * x_60_ + 1 x_87_ ^ 2 + 1 y_60_ ^ 2 - 2 y_87_ * y_60_ + 1 y_87_ ^ 2 ] <= 31347.37
quadratic_ranged_167_ub: [ 1 x_13_ ^ 2 - 2 x_88_ * x_13_ + 1 x_88_ ^ 2 + 1 y_13_ ^ 2 - 2 y_88_ * y_13_ + 1 y_88_ ^ 2 ] <= 3979.4
quadratic_ranged_168_ub: [ 1 x_20_ ^ 2 - 2 x_88_ * x_20_ + 1 x_88_ ^ 2 + 1 y_20_ ^ 2 - 2 y_88_ * y_20_ + 1 y_88_ ^ 2 ] <= 13980.42
quadratic_ranged_169_ub: [ 1 x_43_ ^ 2 - 2 x_88_ * x_43_ + 1 x_88_ ^ 2 + 1 y_43_ ^ 2 - 2 y_88_ * y_43_ + 1 y_88_ ^ 2 ] <= 34164.26
quadratic_ranged_170_ub: [ 1 x_64_ ^ 2 - 2 x_89_ * x_64_ + 1 x_89_ ^ 2 + 1 y_64_ ^ 2 - 2 y_89_ * y_64_ + 1 y_89_ ^ 2 ] <= 28999.12
quadratic_ranged_171_ub: [ 1 x_76_ ^ 2 - 2 x_89_ * x_76_ + 1 x_89_ ^ 2 + 1 y_76_ ^ 2 - 2 y_89_ * y_76_ + 1 y_89_ ^ 2 ] <= 20136.37
quadratic_ranged_172_ub: [ 1 x_7_ ^ 2 - 2 x_90_ * x_7_ + 1 x_90_ ^ 2 + 1 y_7_ ^ 2 - 2 y_90_ * y_7_ + 1 y_90_ ^ 2 ] <= 8486.02
quadratic_ranged_173_ub: [ 1 x_38_ ^ 2 - 2 x_90_ * x_38_ + 1 x_90_ ^ 2 + 1 y_38_ ^ 2 - 2 y_90_ * y_38_ + 1 y_90_ ^ 2 ] <= 18993.05
quadratic_ranged_174_ub: [ 1 x_9_ ^ 2 - 2 x_91_ * x_9_ + 1 x_91_ ^ 2 + 1 y_9_ ^ 2 - 2 y_91_ * y_9_ + 1 y_91_ ^ 2 ] <= 17805.29
quadratic_ranged_175_ub: [ 1 x_26_ ^ 2 - 2 x_91_ * x_26_ + 1 x_91_ ^ 2 + 1 y_26_ ^ 2 - 2 y_91_ * y_26_ + 1 y_91_ ^ 2 ] <= 8217.36
quadratic_ranged_176_ub: [ 1 x_51_ ^ 2 - 2 x_92_ * x_51_ + 1 x_92_ ^ 2 + 1 y_51_ ^ 2 - 2 y_92_ * y_51_ + 1 y_92_ ^ 2 ] <= 18568.85
quadratic_ranged_177_ub: [ 1 x_74_ ^ 2 - 2 x_92_ * x_74_ + 1 x_92_ ^ 2 + 1 y_74_ ^ 2 - 2 y_92_ * y_74_ + 1 y_92_ ^ 2 ] <= 10912.04
quadratic_ranged_178_ub: [ 1 x_78_ ^ 2 - 2 x_92_ * x_78_ + 1 x_92_ ^ 2 + 1 y_78_ ^ 2 - 2 y_92_ * y_78_ + 1 y_92_ ^ 2 ] <= 27653.8
quadratic_ranged_179_ub: [ 1 x_24_ ^ 2 - 2 x_93_ * x_24_ + 1 x_93_ ^ 2 + 1 y_24_ ^ 2 - 2 y_93_ * y_24_ + 1 y_93_ ^ 2 ] <= 6125.65
quadratic_ranged_180_ub: [ 1 x_68_ ^ 2 - 2 x_93_ * x_68_ + 1 x_93_ ^ 2 + 1 y_68_ ^ 2 - 2 y_93_ * y_68_ + 1 y_93_ ^ 2 ] <= 9317.25
quadratic_ranged_181_ub: [ 1 x_33_ ^ 2 - 2 x_94_ * x_33_ + 1 x_94_ ^ 2 + 1 y_33_ ^ 2 - 2 y_94_ * y_33_ + 1 y_94_ ^ 2 ] <= 4017.78
quadratic_ranged_182_ub: [ 1 x_92_ ^ 2 - 2 x_94_ * x_92_ + 1 x_94_ ^ 2 + 1 y_92_ ^ 2 - 2 y_94_ * y_92_ + 1 y_94_ ^ 2 ] <= 15567.130000000001
quadratic_ranged_183_ub: [ 1 x_15_ ^ 2 - 2 x_95_ * x_15_ + 1 x_95_ ^ 2 + 1 y_15_ ^ 2 - 2 y_95_ * y_15_ + 1 y_95_ ^ 2 ] <= 1971.52
quadratic_ranged_184_ub: [ 1 x_19_ ^ 2 - 2 x_95_ * x_19_ + 1 x_95_ ^ 2 + 1 y_19_ ^ 2 - 2 y_95_ * y_19_ + 1 y_95_ ^ 2 ] <= 10226.25
quadratic_ranged_185_ub: [ 1 x_47_ ^ 2 - 2 x_95_ * x_47_ + 1 x_95_ ^ 2 + 1 y_47_ ^ 2 - 2 y_95_ * y_47_ + 1 y_95_ ^ 2 ] <= 8995.06
quadratic_ranged_186_ub: [ 1 x_15_ ^ 2 - 2 x_96_ * x_15_ + 1 x_96_ ^ 2 + 1 y_15_ ^ 2 - 2 y_96_ * y_15_ + 1 y_96_ ^ 2 ] <= 4146.05
quadratic_ranged_187_ub: [ 1 x_85_ ^ 2 - 2 x_96_ * x_85_ + 1 x_96_ ^ 2 + 1 y_85_ ^ 2 - 2 y_96_ * y_85_ + 1 y_96_ ^ 2 ] <= 4154.13
quadratic_ranged_188_ub: [ 1 x_93_ ^ 2 - 2 x_96_ * x_93_ + 1 x_96_ ^ 2 + 1 y_93_ ^ 2 - 2 y_96_ * y_93_ + 1 y_96_ ^ 2 ] <= 35177.29
quadratic_ranged_189_ub: [ 1 x_33_ ^ 2 - 2 x_97_ * x_33_ + 1 x_97_ ^ 2 + 1 y_33_ ^ 2 - 2 y_97_ * y_33_ + 1 y_97_ ^ 2 ] <= 2429.05
quadratic_ranged_190_ub: [ 1 x_35_ ^ 2 - 2 x_97_ * x_35_ + 1 x_97_ ^ 2 + 1 y_35_ ^ 2 - 2 y_97_ * y_35_ + 1 y_97_ ^ 2 ] <= 5071.21
quadratic_ranged_191_ub: [ 1 x_6_ ^ 2 - 2 x_98_ * x_6_ + 1 x_98_ ^ 2 + 1 y_6_ ^ 2 - 2 y_98_ * y_6_ + 1 y_98_ ^ 2 ] <= 7772.96
quadratic_ranged_192_ub: [ 1 x_96_ ^ 2 - 2 x_98_ * x_96_ + 1 x_98_ ^ 2 + 1 y_96_ ^ 2 - 2 y_98_ * y_96_ + 1 y_98_ ^ 2 ] <= 9164.74
quadratic_ranged_193_ub: [ 1 x_32_ ^ 2 - 2 x_99_ * x_32_ + 1 x_99_ ^ 2 + 1 y_32_ ^ 2 - 2 y_99_ * y_32_ + 1 y_99_ ^ 2 ] <= 8658.73
quadratic_ranged_194_ub: [ 1 x_59_ ^ 2 - 2 x_99_ * x_59_ + 1 x_99_ ^ 2 + 1 y_59_ ^ 2 - 2 y_99_ * y_59_ + 1 y_99_ ^ 2 ] <= 9552.58
quadratic_ranged_195_ub: [ 1 x_97_ ^ 2 - 2 x_99_ * x_97_ + 1 x_99_ ^ 2 + 1 y_97_ ^ 2 - 2 y_99_ * y_97_ + 1 y_99_ ^ 2 ] <= 2795.68
quadratic_ranged_196_ub: [ 1 x_7_ ^ 2 - 2 x_100_ * x_7_ + 1 x_100_ ^ 2 + 1 y_7_ ^ 2 - 2 y_100_ * y_7_ + 1 y_100_ ^ 2 ] <= 20048.5
quadratic_ranged_197_ub: [ 1 x_67_ ^ 2 - 2 x_100_ * x_67_ + 1 x_100_ ^ 2 + 1 y_67_ ^ 2 - 2 y_100_ * y_67_ + 1 y_100_ ^ 2 ] <= 17171.01
quadratic_ranged_1_lb: [ 1 x_1_ ^ 2 - 2 x_4_ * x_1_ + 1 x_4_ ^ 2 + 1 y_1_ ^ 2 - 2 y_4_ * y_1_ + 1 y_4_ ^ 2 ] >= 23586.75
quadratic_ranged_2_lb: [ 1 x_2_ ^ 2 - 2 x_5_ * x_2_ + 1 x_5_ ^ 2 + 1 y_2_ ^ 2 - 2 y_5_ * y_2_ + 1 y_5_ ^ 2 ] >= 447.48
quadratic_ranged_3_lb: [ 1 x_3_ ^ 2 - 2 x_5_ * x_3_ + 1 x_5_ ^ 2 + 1 y_3_ ^ 2 - 2 y_5_ * y_3_ + 1 y_5_ ^ 2 ] >= 17275.5
quadratic_ranged_4_lb: [ 1 x_4_ ^ 2 - 2 x_5_ * x_4_ + 1 x_5_ ^ 2 + 1 y_4_ ^ 2 - 2 y_5_ * y_4_ + 1 y_5_ ^ 2 ] >= 17468.55
quadratic_ranged_5_lb: [ 1 x_1_ ^ 2 - 2 x_6_ * x_1_ + 1 x_6_ ^ 2 + 1 y_1_ ^ 2 - 2 y_6_ * y_1_ + 1 y_6_ ^ 2 ] >= 19867.32
quadratic_ranged_6_lb: [ 1 x_5_ ^ 2 - 2 x_6_ * x_5_ + 1 x_6_ ^ 2 + 1 y_5_ ^ 2 - 2 y_6_ * y_5_ + 1 y_6_ ^ 2 ] >= 11763.18
quadratic_ranged_7_lb: [ 1 x_2_ ^ 2 - 2 x_8_ * x_2_ + 1 x_8_ ^ 2 + 1 y_2_ ^ 2 - 2 y_8_ * y_2_ + 1 y_8_ ^ 2 ] >= 18154.62
quadratic_ranged_8_lb: [ 1 x_3_ ^ 2 - 2 x_8_ * x_3_ + 1 x_8_ ^ 2 + 1 y_3_ ^ 2 - 2 y_8_ * y_3_ + 1 y_8_ ^ 2 ] >= 18346.68
quadratic_ranged_9_lb: [ 1 x_7_ ^ 2 - 2 x_8_ * x_7_ + 1 x_8_ ^ 2 + 1 y_7_ ^ 2 - 2 y_8_ * y_7_ + 1 y_8_ ^ 2 ] >= 42178.95
quadratic_ranged_10_lb: [ 1 x_1_ ^ 2 - 2 x_9_ * x_1_ + 1 x_9_ ^ 2 + 1 y_1_ ^ 2 - 2 y_9_ * y_1_ + 1 y_9_ ^ 2 ] >= 2077.02
quadratic_ranged_11_lb: [ 1 x_2_ ^ 2 - 2 x_9_ * x_2_ + 1 x_9_ ^ 2 + 1 y_2_ ^ 2 - 2 y_9_ * y_2_ + 1 y_9_ ^ 2 ] >= 649.4399999999999
quadratic_ranged_12_lb: [ 1 x_4_ ^ 2 - 2 x_10_ * x_4_ + 1 x_10_ ^ 2 + 1 y_4_ ^ 2 - 2 y_10_ * y_4_ + 1 y_10_ ^ 2 ] >= 6868.62
quadratic_ranged_13_lb: [ 1 x_3_ ^ 2 - 2 x_11_ * x_3_ + 1 x_11_ ^ 2 + 1 y_3_ ^ 2 - 2 y_11_ * y_3_ + 1 y_11_ ^ 2 ] >= 5418.2699999999995
quadratic_ranged_14_lb: [ 1 x_7_ ^ 2 - 2 x_11_ * x_7_ + 1 x_11_ ^ 2 + 1 y_7_ ^ 2 - 2 y_11_ * y_7_ + 1 y_11_ ^ 2 ] >= 30226.68
quadratic_ranged_15_lb: [ 1 x_4_ ^ 2 - 2 x_12_ * x_4_ + 1 x_12_ ^ 2 + 1 y_4_ ^ 2 - 2 y_12_ * y_4_ + 1 y_12_ ^ 2 ] >= 20607.84
quadratic_ranged_16_lb: [ 1 x_5_ ^ 2 - 2 x_12_ * x_5_ + 1 x_12_ ^ 2 + 1 y_5_ ^ 2 - 2 y_12_ * y_5_ + 1 y_12_ ^ 2 ] >= 1699.83
quadratic_ranged_17_lb: [ 1 x_5_ ^ 2 - 2 x_14_ * x_5_ + 1 x_14_ ^ 2 + 1 y_5_ ^ 2 - 2 y_14_ * y_5_ + 1 y_14_ ^ 2 ] >= 10031.67
quadratic_ranged_18_lb: [ 1 x_2_ ^ 2 - 2 x_15_ * x_2_ + 1 x_15_ ^ 2 + 1 y_2_ ^ 2 - 2 y_15_ * y_2_ + 1 y_15_ ^ 2 ] >= 13944.15
quadratic_ranged_19_lb: [ 1 x_6_ ^ 2 - 2 x_15_ * x_6_ + 1 x_15_ ^ 2 + 1 y_6_ ^ 2 - 2 y_15_ * y_6_ + 1 y_15_ ^ 2 ] >= 11904.75
quadratic_ranged_20_lb: [ 1 x_3_ ^ 2 - 2 x_17_ * x_3_ + 1 x_17_ ^ 2 + 1 y_3_ ^ 2 - 2 y_17_ * y_3_ + 1 y_17_ ^ 2 ] >= 310.86
quadratic_ranged_21_lb: [ 1 x_6_ ^ 2 - 2 x_17_ * x_6_ + 1 x_17_ ^ 2 + 1 y_6_ ^ 2 - 2 y_17_ * y_6_ + 1 y_17_ ^ 2 ] >= 19889.1
quadratic_ranged_22_lb: [ 1 x_10_ ^ 2 - 2 x_18_ * x_10_ + 1 x_18_ ^ 2 + 1 y_10_ ^ 2 - 2 y_18_ * y_10_ + 1 y_18_ ^ 2 ] >= 88.11
quadratic_ranged_23_lb: [ 1 x_17_ ^ 2 - 2 x_18_ * x_17_ + 1 x_18_ ^ 2 + 1 y_17_ ^ 2 - 2 y_18_ * y_17_ + 1 y_18_ ^ 2 ] >= 2098.8
quadratic_ranged_24_lb: [ 1 x_9_ ^ 2 - 2 x_19_ * x_9_ + 1 x_19_ ^ 2 + 1 y_9_ ^ 2 - 2 y_19_ * y_9_ + 1 y_19_ ^ 2 ] >= 18867.42
quadratic_ranged_25_lb: [ 1 x_11_ ^ 2 - 2 x_20_ * x_11_ + 1 x_20_ ^ 2 + 1 y_11_ ^ 2 - 2 y_20_ * y_11_ + 1 y_20_ ^ 2 ] >= 5727.15
quadratic_ranged_26_lb: [ 1 x_18_ ^ 2 - 2 x_20_ * x_18_ + 1 x_20_ ^ 2 + 1 y_18_ ^ 2 - 2 y_20_ * y_18_ + 1 y_20_ ^ 2 ] >= 12173.039999999999
quadratic_ranged_27_lb: [ 1 x_14_ ^ 2 - 2 x_21_ * x_14_ + 1 x_21_ ^ 2 + 1 y_14_ ^ 2 - 2 y_21_ * y_14_ + 1 y_21_ ^ 2 ] >= 15364.8
quadratic_ranged_28_lb: [ 1 x_5_ ^ 2 - 2 x_22_ * x_5_ + 1 x_22_ ^ 2 + 1 y_5_ ^ 2 - 2 y_22_ * y_5_ + 1 y_22_ ^ 2 ] >= 22671
quadratic_ranged_29_lb: [ 1 x_7_ ^ 2 - 2 x_22_ * x_7_ + 1 x_22_ ^ 2 + 1 y_7_ ^ 2 - 2 y_22_ * y_7_ + 1 y_22_ ^ 2 ] >= 41454.27
quadratic_ranged_30_lb: [ 1 x_10_ ^ 2 - 2 x_22_ * x_10_ + 1 x_22_ ^ 2 + 1 y_10_ ^ 2 - 2 y_22_ * y_10_ + 1 y_22_ ^ 2 ] >= 622.71
quadratic_ranged_31_lb: [ 1 x_16_ ^ 2 - 2 x_23_ * x_16_ + 1 x_23_ ^ 2 + 1 y_16_ ^ 2 - 2 y_23_ * y_16_ + 1 y_23_ ^ 2 ] >= 7509.15
quadratic_ranged_32_lb: [ 1 x_6_ ^ 2 - 2 x_24_ * x_6_ + 1 x_24_ ^ 2 + 1 y_6_ ^ 2 - 2 y_24_ * y_6_ + 1 y_24_ ^ 2 ] >= 28626.84
quadratic_ranged_33_lb: [ 1 x_19_ ^ 2 - 2 x_24_ * x_19_ + 1 x_24_ ^ 2 + 1 y_19_ ^ 2 - 2 y_24_ * y_19_ + 1 y_24_ ^ 2 ] >= 26821.079999999998
quadratic_ranged_34_lb: [ 1 x_7_ ^ 2 - 2 x_25_ * x_7_ + 1 x_25_ ^ 2 + 1 y_7_ ^ 2 - 2 y_25_ * y_7_ + 1 y_25_ ^ 2 ] >= 3758.04
quadratic_ranged_35_lb: [ 1 x_20_ ^ 2 - 2 x_25_ * x_20_ + 1 x_25_ ^ 2 + 1 y_20_ ^ 2 - 2 y_25_ * y_20_ + 1 y_25_ ^ 2 ] >= 11322.63
quadratic_ranged_36_lb: [ 1 x_23_ ^ 2 - 2 x_25_ * x_23_ + 1 x_25_ ^ 2 + 1 y_23_ ^ 2 - 2 y_25_ * y_23_ + 1 y_25_ ^ 2 ] >= 14319.36
quadratic_ranged_37_lb: [ 1 x_12_ ^ 2 - 2 x_26_ * x_12_ + 1 x_26_ ^ 2 + 1 y_12_ ^ 2 - 2 y_26_ * y_12_ + 1 y_26_ ^ 2 ] >= 5545.98
quadratic_ranged_38_lb: [ 1 x_18_ ^ 2 - 2 x_27_ * x_18_ + 1 x_27_ ^ 2 + 1 y_18_ ^ 2 - 2 y_27_ * y_18_ + 1 y_27_ ^ 2 ] >= 20616.75
quadratic_ranged_39_lb: [ 1 x_10_ ^ 2 - 2 x_28_ * x_10_ + 1 x_28_ ^ 2 + 1 y_10_ ^ 2 - 2 y_28_ * y_10_ + 1 y_28_ ^ 2 ] >= 12700.71
quadratic_ranged_40_lb: [ 1 x_15_ ^ 2 - 2 x_28_ * x_15_ + 1 x_28_ ^ 2 + 1 y_15_ ^ 2 - 2 y_28_ * y_15_ + 1 y_28_ ^ 2 ] >= 10019.789999999999
quadratic_ranged_41_lb: [ 1 x_17_ ^ 2 - 2 x_29_ * x_17_ + 1 x_29_ ^ 2 + 1 y_17_ ^ 2 - 2 y_29_ * y_17_ + 1 y_29_ ^ 2 ] >= 38934.72
quadratic_ranged_42_lb: [ 1 x_7_ ^ 2 - 2 x_30_ * x_7_ + 1 x_30_ ^ 2 + 1 y_7_ ^ 2 - 2 y_30_ * y_7_ + 1 y_30_ ^ 2 ] >= 7905.15
quadratic_ranged_43_lb: [ 1 x_18_ ^ 2 - 2 x_30_ * x_18_ + 1 x_30_ ^ 2 + 1 y_18_ ^ 2 - 2 y_30_ * y_18_ + 1 y_30_ ^ 2 ] >= 11297.88
quadratic_ranged_44_lb: [ 1 x_11_ ^ 2 - 2 x_31_ * x_11_ + 1 x_31_ ^ 2 + 1 y_11_ ^ 2 - 2 y_31_ * y_11_ + 1 y_31_ ^ 2 ] >= 9416.88
quadratic_ranged_45_lb: [ 1 x_10_ ^ 2 - 2 x_32_ * x_10_ + 1 x_32_ ^ 2 + 1 y_10_ ^ 2 - 2 y_32_ * y_10_ + 1 y_32_ ^ 2 ] >= 15575.67
quadratic_ranged_46_lb: [ 1 x_25_ ^ 2 - 2 x_32_ * x_25_ + 1 x_32_ ^ 2 + 1 y_25_ ^ 2 - 2 y_32_ * y_25_ + 1 y_32_ ^ 2 ] >= 17230.95
quadratic_ranged_47_lb: [ 1 x_12_ ^ 2 - 2 x_33_ * x_12_ + 1 x_33_ ^ 2 + 1 y_12_ ^ 2 - 2 y_33_ * y_12_ + 1 y_33_ ^ 2 ] >= 10293.03
quadratic_ranged_48_lb: [ 1 x_13_ ^ 2 - 2 x_34_ * x_13_ + 1 x_34_ ^ 2 + 1 y_13_ ^ 2 - 2 y_34_ * y_13_ + 1 y_34_ ^ 2 ] >= 26204.31
quadratic_ranged_49_lb: [ 1 x_9_ ^ 2 - 2 x_35_ * x_9_ + 1 x_35_ ^ 2 + 1 y_9_ ^ 2 - 2 y_35_ * y_9_ + 1 y_35_ ^ 2 ] >= 11810.7
quadratic_ranged_50_lb: [ 1 x_12_ ^ 2 - 2 x_35_ * x_12_ + 1 x_35_ ^ 2 + 1 y_12_ ^ 2 - 2 y_35_ * y_12_ + 1 y_35_ ^ 2 ] >= 10847.43
quadratic_ranged_51_lb: [ 1 x_3_ ^ 2 - 2 x_36_ * x_3_ + 1 x_36_ ^ 2 + 1 y_3_ ^ 2 - 2 y_36_ * y_3_ + 1 y_36_ ^ 2 ] >= 39413.88
quadratic_ranged_52_lb: [ 1 x_21_ ^ 2 - 2 x_36_ * x_21_ + 1 x_36_ ^ 2 + 1 y_21_ ^ 2 - 2 y_36_ * y_21_ + 1 y_36_ ^ 2 ] >= 2400.75
quadratic_ranged_53_lb: [ 1 x_10_ ^ 2 - 2 x_37_ * x_10_ + 1 x_37_ ^ 2 + 1 y_10_ ^ 2 - 2 y_37_ * y_10_ + 1 y_37_ ^ 2 ] >= 6197.4
quadratic_ranged_54_lb: [ 1 x_20_ ^ 2 - 2 x_37_ * x_20_ + 1 x_37_ ^ 2 + 1 y_20_ ^ 2 - 2 y_37_ * y_20_ + 1 y_37_ ^ 2 ] >= 33981.75
quadratic_ranged_55_lb: [ 1 x_7_ ^ 2 - 2 x_38_ * x_7_ + 1 x_38_ ^ 2 + 1 y_7_ ^ 2 - 2 y_38_ * y_7_ + 1 y_38_ ^ 2 ] >= 30999.87
quadratic_ranged_56_lb: [ 1 x_19_ ^ 2 - 2 x_38_ * x_19_ + 1 x_38_ ^ 2 + 1 y_19_ ^ 2 - 2 y_38_ * y_19_ + 1 y_38_ ^ 2 ] >= 1853.28
quadratic_ranged_57_lb: [ 1 x_35_ ^ 2 - 2 x_38_ * x_35_ + 1 x_38_ ^ 2 + 1 y_35_ ^ 2 - 2 y_38_ * y_35_ + 1 y_38_ ^ 2 ] >= 257.4
quadratic_ranged_58_lb: [ 1 x_8_ ^ 2 - 2 x_39_ * x_8_ + 1 x_39_ ^ 2 + 1 y_8_ ^ 2 - 2 y_39_ * y_8_ + 1 y_39_ ^ 2 ] >= 11172.15
quadratic_ranged_59_lb: [ 1 x_17_ ^ 2 - 2 x_39_ * x_17_ + 1 x_39_ ^ 2 + 1 y_17_ ^ 2 - 2 y_39_ * y_17_ + 1 y_39_ ^ 2 ] >= 951.39
quadratic_ranged_60_lb: [ 1 x_29_ ^ 2 - 2 x_39_ * x_29_ + 1 x_39_ ^ 2 + 1 y_29_ ^ 2 - 2 y_39_ * y_29_ + 1 y_39_ ^ 2 ] >= 31783.95
quadratic_ranged_61_lb: [ 1 x_4_ ^ 2 - 2 x_40_ * x_4_ + 1 x_40_ ^ 2 + 1 y_4_ ^ 2 - 2 y_40_ * y_4_ + 1 y_40_ ^ 2 ] >= 16889.4
quadratic_ranged_62_lb: [ 1 x_13_ ^ 2 - 2 x_41_ * x_13_ + 1 x_41_ ^ 2 + 1 y_13_ ^ 2 - 2 y_41_ * y_13_ + 1 y_41_ ^ 2 ] >= 6496.38
quadratic_ranged_63_lb: [ 1 x_14_ ^ 2 - 2 x_41_ * x_14_ + 1 x_41_ ^ 2 + 1 y_14_ ^ 2 - 2 y_41_ * y_14_ + 1 y_41_ ^ 2 ] >= 24596.55
quadratic_ranged_64_lb: [ 1 x_16_ ^ 2 - 2 x_41_ * x_16_ + 1 x_41_ ^ 2 + 1 y_16_ ^ 2 - 2 y_41_ * y_16_ + 1 y_41_ ^ 2 ] >= 2401.74
quadratic_ranged_65_lb: [ 1 x_14_ ^ 2 - 2 x_42_ * x_14_ + 1 x_42_ ^ 2 + 1 y_14_ ^ 2 - 2 y_42_ * y_14_ + 1 y_42_ ^ 2 ] >= 17116.11
quadratic_ranged_66_lb: [ 1 x_1_ ^ 2 - 2 x_43_ * x_1_ + 1 x_43_ ^ 2 + 1 y_1_ ^ 2 - 2 y_43_ * y_1_ + 1 y_43_ ^ 2 ] >= 13275.9
quadratic_ranged_67_lb: [ 1 x_38_ ^ 2 - 2 x_43_ * x_38_ + 1 x_43_ ^ 2 + 1 y_38_ ^ 2 - 2 y_43_ * y_38_ + 1 y_43_ ^ 2 ] >= 19112.94
quadratic_ranged_68_lb: [ 1 x_14_ ^ 2 - 2 x_44_ * x_14_ + 1 x_44_ ^ 2 + 1 y_14_ ^ 2 - 2 y_44_ * y_14_ + 1 y_44_ ^ 2 ] >= 3573.9
quadratic_ranged_69_lb: [ 1 x_37_ ^ 2 - 2 x_44_ * x_37_ + 1 x_44_ ^ 2 + 1 y_37_ ^ 2 - 2 y_44_ * y_37_ + 1 y_44_ ^ 2 ] >= 12998.7
quadratic_ranged_70_lb: [ 1 x_11_ ^ 2 - 2 x_45_ * x_11_ + 1 x_45_ ^ 2 + 1 y_11_ ^ 2 - 2 y_45_ * y_11_ + 1 y_45_ ^ 2 ] >= 14812.38
quadratic_ranged_71_lb: [ 1 x_31_ ^ 2 - 2 x_45_ * x_31_ + 1 x_45_ ^ 2 + 1 y_31_ ^ 2 - 2 y_45_ * y_31_ + 1 y_45_ ^ 2 ] >= 8983.26
quadratic_ranged_72_lb: [ 1 x_33_ ^ 2 - 2 x_45_ * x_33_ + 1 x_45_ ^ 2 + 1 y_33_ ^ 2 - 2 y_45_ * y_33_ + 1 y_45_ ^ 2 ] >= 15971.67
quadratic_ranged_73_lb: [ 1 x_18_ ^ 2 - 2 x_46_ * x_18_ + 1 x_46_ ^ 2 + 1 y_18_ ^ 2 - 2 y_46_ * y_18_ + 1 y_46_ ^ 2 ] >= 26044.92
quadratic_ranged_74_lb: [ 1 x_37_ ^ 2 - 2 x_46_ * x_37_ + 1 x_46_ ^ 2 + 1 y_37_ ^ 2 - 2 y_46_ * y_37_ + 1 y_46_ ^ 2 ] >= 37438.83
quadratic_ranged_75_lb: [ 1 x_19_ ^ 2 - 2 x_47_ * x_19_ + 1 x_47_ ^ 2 + 1 y_19_ ^ 2 - 2 y_47_ * y_19_ + 1 y_47_ ^ 2 ] >= 396.99
quadratic_ranged_76_lb: [ 1 x_31_ ^ 2 - 2 x_47_ * x_31_ + 1 x_47_ ^ 2 + 1 y_31_ ^ 2 - 2 y_47_ * y_31_ + 1 y_47_ ^ 2 ] >= 22225.5
quadratic_ranged_77_lb: [ 1 x_36_ ^ 2 - 2 x_48_ * x_36_ + 1 x_48_ ^ 2 + 1 y_36_ ^ 2 - 2 y_48_ * y_36_ + 1 y_48_ ^ 2 ] >= 28545.66
quadratic_ranged_78_lb: [ 1 x_45_ ^ 2 - 2 x_49_ * x_45_ + 1 x_49_ ^ 2 + 1 y_45_ ^ 2 - 2 y_49_ * y_45_ + 1 y_49_ ^ 2 ] >= 23780.79
quadratic_ranged_79_lb: [ 1 x_10_ ^ 2 - 2 x_50_ * x_10_ + 1 x_50_ ^ 2 + 1 y_10_ ^ 2 - 2 y_50_ * y_10_ + 1 y_50_ ^ 2 ] >= 10695.96
quadratic_ranged_80_lb: [ 1 x_20_ ^ 2 - 2 x_51_ * x_20_ + 1 x_51_ ^ 2 + 1 y_20_ ^ 2 - 2 y_51_ * y_20_ + 1 y_51_ ^ 2 ] >= 5070.78
quadratic_ranged_81_lb: [ 1 x_34_ ^ 2 - 2 x_51_ * x_34_ + 1 x_51_ ^ 2 + 1 y_34_ ^ 2 - 2 y_51_ * y_34_ + 1 y_51_ ^ 2 ] >= 23824.35
quadratic_ranged_82_lb: [ 1 x_30_ ^ 2 - 2 x_52_ * x_30_ + 1 x_52_ ^ 2 + 1 y_30_ ^ 2 - 2 y_52_ * y_30_ + 1 y_52_ ^ 2 ] >= 96.03
quadratic_ranged_83_lb: [ 1 x_20_ ^ 2 - 2 x_53_ * x_20_ + 1 x_53_ ^ 2 + 1 y_20_ ^ 2 - 2 y_53_ * y_20_ + 1 y_53_ ^ 2 ] >= 8325.9
quadratic_ranged_84_lb: [ 1 x_21_ ^ 2 - 2 x_53_ * x_21_ + 1 x_53_ ^ 2 + 1 y_21_ ^ 2 - 2 y_53_ * y_21_ + 1 y_53_ ^ 2 ] >= 3034.35
quadratic_ranged_85_lb: [ 1 x_42_ ^ 2 - 2 x_53_ * x_42_ + 1 x_53_ ^ 2 + 1 y_42_ ^ 2 - 2 y_53_ * y_42_ + 1 y_53_ ^ 2 ] >= 3108.6
quadratic_ranged_86_lb: [ 1 x_24_ ^ 2 - 2 x_54_ * x_24_ + 1 x_54_ ^ 2 + 1 y_24_ ^ 2 - 2 y_54_ * y_24_ + 1 y_54_ ^ 2 ] >= 1239.48
quadratic_ranged_87_lb: [ 1 x_44_ ^ 2 - 2 x_54_ * x_44_ + 1 x_54_ ^ 2 + 1 y_44_ ^ 2 - 2 y_54_ * y_44_ + 1 y_54_ ^ 2 ] >= 13088.789999999999
quadratic_ranged_88_lb: [ 1 x_48_ ^ 2 - 2 x_54_ * x_48_ + 1 x_54_ ^ 2 + 1 y_48_ ^ 2 - 2 y_54_ * y_48_ + 1 y_54_ ^ 2 ] >= 11596.86
quadratic_ranged_89_lb: [ 1 x_40_ ^ 2 - 2 x_55_ * x_40_ + 1 x_55_ ^ 2 + 1 y_40_ ^ 2 - 2 y_55_ * y_40_ + 1 y_55_ ^ 2 ] >= 1514.7
quadratic_ranged_90_lb: [ 1 x_9_ ^ 2 - 2 x_56_ * x_9_ + 1 x_56_ ^ 2 + 1 y_9_ ^ 2 - 2 y_56_ * y_9_ + 1 y_56_ ^ 2 ] >= 8998.11
quadratic_ranged_91_lb: [ 1 x_53_ ^ 2 - 2 x_56_ * x_53_ + 1 x_56_ ^ 2 + 1 y_53_ ^ 2 - 2 y_56_ * y_53_ + 1 y_56_ ^ 2 ] >= 9184.23
quadratic_ranged_92_lb: [ 1 x_3_ ^ 2 - 2 x_57_ * x_3_ + 1 x_57_ ^ 2 + 1 y_3_ ^ 2 - 2 y_57_ * y_3_ + 1 y_57_ ^ 2 ] >= 7421.04
quadratic_ranged_93_lb: [ 1 x_28_ ^ 2 - 2 x_57_ * x_28_ + 1 x_57_ ^ 2 + 1 y_28_ ^ 2 - 2 y_57_ * y_28_ + 1 y_57_ ^ 2 ] >= 3758.04
quadratic_ranged_94_lb: [ 1 x_47_ ^ 2 - 2 x_57_ * x_47_ + 1 x_57_ ^ 2 + 1 y_47_ ^ 2 - 2 y_57_ * y_47_ + 1 y_57_ ^ 2 ] >= 13037.31
quadratic_ranged_95_lb: [ 1 x_7_ ^ 2 - 2 x_58_ * x_7_ + 1 x_58_ ^ 2 + 1 y_7_ ^ 2 - 2 y_58_ * y_7_ + 1 y_58_ ^ 2 ] >= 27146.79
quadratic_ranged_96_lb: [ 1 x_54_ ^ 2 - 2 x_58_ * x_54_ + 1 x_58_ ^ 2 + 1 y_54_ ^ 2 - 2 y_58_ * y_54_ + 1 y_58_ ^ 2 ] >= 29084.22
quadratic_ranged_97_lb: [ 1 x_1_ ^ 2 - 2 x_59_ * x_1_ + 1 x_59_ ^ 2 + 1 y_1_ ^ 2 - 2 y_59_ * y_1_ + 1 y_59_ ^ 2 ] >= 2380.95
quadratic_ranged_98_lb: [ 1 x_49_ ^ 2 - 2 x_59_ * x_49_ + 1 x_59_ ^ 2 + 1 y_49_ ^ 2 - 2 y_59_ * y_49_ + 1 y_59_ ^ 2 ] >= 23646.15
quadratic_ranged_99_lb: [ 1 x_7_ ^ 2 - 2 x_60_ * x_7_ + 1 x_60_ ^ 2 + 1 y_7_ ^ 2 - 2 y_60_ * y_7_ + 1 y_60_ ^ 2 ] >= 24097.59
quadratic_ranged_100_lb: [ 1 x_46_ ^ 2 - 2 x_60_ * x_46_ + 1 x_60_ ^ 2 + 1 y_46_ ^ 2 - 2 y_60_ * y_46_ + 1 y_60_ ^ 2 ] >= 7860.6
quadratic_ranged_101_lb: [ 1 x_13_ ^ 2 - 2 x_61_ * x_13_ + 1 x_61_ ^ 2 + 1 y_13_ ^ 2 - 2 y_61_ * y_13_ + 1 y_61_ ^ 2 ] >= 41391.9
quadratic_ranged_102_lb: [ 1 x_29_ ^ 2 - 2 x_61_ * x_29_ + 1 x_61_ ^ 2 + 1 y_29_ ^ 2 - 2 y_61_ * y_29_ + 1 y_61_ ^ 2 ] >= 11792.88
quadratic_ranged_103_lb: [ 1 x_48_ ^ 2 - 2 x_61_ * x_48_ + 1 x_61_ ^ 2 + 1 y_48_ ^ 2 - 2 y_61_ * y_48_ + 1 y_61_ ^ 2 ] >= 21106.8
quadratic_ranged_104_lb: [ 1 x_10_ ^ 2 - 2 x_62_ * x_10_ + 1 x_62_ ^ 2 + 1 y_10_ ^ 2 - 2 y_62_ * y_10_ + 1 y_62_ ^ 2 ] >= 26030.07
quadratic_ranged_105_lb: [ 1 x_14_ ^ 2 - 2 x_62_ * x_14_ + 1 x_62_ ^ 2 + 1 y_14_ ^ 2 - 2 y_62_ * y_14_ + 1 y_62_ ^ 2 ] >= 4907.43
quadratic_ranged_106_lb: [ 1 x_40_ ^ 2 - 2 x_62_ * x_40_ + 1 x_62_ ^ 2 + 1 y_40_ ^ 2 - 2 y_62_ * y_40_ + 1 y_62_ ^ 2 ] >= 4776.75
quadratic_ranged_107_lb: [ 1 x_1_ ^ 2 - 2 x_63_ * x_1_ + 1 x_63_ ^ 2 + 1 y_1_ ^ 2 - 2 y_63_ * y_1_ + 1 y_63_ ^ 2 ] >= 10182.15
quadratic_ranged_108_lb: [ 1 x_13_ ^ 2 - 2 x_63_ * x_13_ + 1 x_63_ ^ 2 + 1 y_13_ ^ 2 - 2 y_63_ * y_13_ + 1 y_63_ ^ 2 ] >= 24485.67
quadratic_ranged_109_lb: [ 1 x_40_ ^ 2 - 2 x_63_ * x_40_ + 1 x_63_ ^ 2 + 1 y_40_ ^ 2 - 2 y_63_ * y_40_ + 1 y_63_ ^ 2 ] >= 8650.62
quadratic_ranged_110_lb: [ 1 x_20_ ^ 2 - 2 x_64_ * x_20_ + 1 x_64_ ^ 2 + 1 y_20_ ^ 2 - 2 y_64_ * y_20_ + 1 y_64_ ^ 2 ] >= 9814.86
quadratic_ranged_111_lb: [ 1 x_30_ ^ 2 - 2 x_64_ * x_30_ + 1 x_64_ ^ 2 + 1 y_30_ ^ 2 - 2 y_64_ * y_30_ + 1 y_64_ ^ 2 ] >= 5997.42
quadratic_ranged_112_lb: [ 1 x_36_ ^ 2 - 2 x_64_ * x_36_ + 1 x_64_ ^ 2 + 1 y_36_ ^ 2 - 2 y_64_ * y_36_ + 1 y_64_ ^ 2 ] >= 9903.96
quadratic_ranged_113_lb: [ 1 x_2_ ^ 2 - 2 x_65_ * x_2_ + 1 x_65_ ^ 2 + 1 y_2_ ^ 2 - 2 y_65_ * y_2_ + 1 y_65_ ^ 2 ] >= 15991.47
quadratic_ranged_114_lb: [ 1 x_9_ ^ 2 - 2 x_65_ * x_9_ + 1 x_65_ ^ 2 + 1 y_9_ ^ 2 - 2 y_65_ * y_9_ + 1 y_65_ ^ 2 ] >= 14486.67
quadratic_ranged_115_lb: [ 1 x_29_ ^ 2 - 2 x_66_ * x_29_ + 1 x_66_ ^ 2 + 1 y_29_ ^ 2 - 2 y_66_ * y_29_ + 1 y_66_ ^ 2 ] >= 717.75
quadratic_ranged_116_lb: [ 1 x_55_ ^ 2 - 2 x_66_ * x_55_ + 1 x_66_ ^ 2 + 1 y_55_ ^ 2 - 2 y_66_ * y_55_ + 1 y_66_ ^ 2 ] >= 4201.56
quadratic_ranged_117_lb: [ 1 x_10_ ^ 2 - 2 x_67_ * x_10_ + 1 x_67_ ^ 2 + 1 y_10_ ^ 2 - 2 y_67_ * y_10_ + 1 y_67_ ^ 2 ] >= 22042.35
quadratic_ranged_118_lb: [ 1 x_45_ ^ 2 - 2 x_67_ * x_45_ + 1 x_67_ ^ 2 + 1 y_45_ ^ 2 - 2 y_67_ * y_45_ + 1 y_67_ ^ 2 ] >= 2856.15
quadratic_ranged_119_lb: [ 1 x_20_ ^ 2 - 2 x_68_ * x_20_ + 1 x_68_ ^ 2 + 1 y_20_ ^ 2 - 2 y_68_ * y_20_ + 1 y_68_ ^ 2 ] >= 4548.06
quadratic_ranged_120_lb: [ 1 x_24_ ^ 2 - 2 x_69_ * x_24_ + 1 x_69_ ^ 2 + 1 y_24_ ^ 2 - 2 y_69_ * y_24_ + 1 y_69_ ^ 2 ] >= 29510.91
quadratic_ranged_121_lb: [ 1 x_39_ ^ 2 - 2 x_69_ * x_39_ + 1 x_69_ ^ 2 + 1 y_39_ ^ 2 - 2 y_69_ * y_39_ + 1 y_69_ ^ 2 ] >= 7145.82
quadratic_ranged_122_lb: [ 1 x_52_ ^ 2 - 2 x_69_ * x_52_ + 1 x_69_ ^ 2 + 1 y_52_ ^ 2 - 2 y_69_ * y_52_ + 1 y_69_ ^ 2 ] >= 1087.02
quadratic_ranged_123_lb: [ 1 x_4_ ^ 2 - 2 x_70_ * x_4_ + 1 x_70_ ^ 2 + 1 y_4_ ^ 2 - 2 y_70_ * y_4_ + 1 y_70_ ^ 2 ] >= 9314.91
quadratic_ranged_124_lb: [ 1 x_34_ ^ 2 - 2 x_70_ * x_34_ + 1 x_70_ ^ 2 + 1 y_34_ ^ 2 - 2 y_70_ * y_34_ + 1 y_70_ ^ 2 ] >= 16720.11
quadratic_ranged_125_lb: [ 1 x_68_ ^ 2 - 2 x_70_ * x_68_ + 1 x_70_ ^ 2 + 1 y_68_ ^ 2 - 2 y_70_ * y_68_ + 1 y_70_ ^ 2 ] >= 11335.5
quadratic_ranged_126_lb: [ 1 x_2_ ^ 2 - 2 x_71_ * x_2_ + 1 x_71_ ^ 2 + 1 y_2_ ^ 2 - 2 y_71_ * y_2_ + 1 y_71_ ^ 2 ] >= 6219.18
quadratic_ranged_127_lb: [ 1 x_69_ ^ 2 - 2 x_71_ * x_69_ + 1 x_71_ ^ 2 + 1 y_69_ ^ 2 - 2 y_71_ * y_69_ + 1 y_71_ ^ 2 ] >= 2757.15
quadratic_ranged_128_lb: [ 1 x_42_ ^ 2 - 2 x_72_ * x_42_ + 1 x_72_ ^ 2 + 1 y_42_ ^ 2 - 2 y_72_ * y_42_ + 1 y_72_ ^ 2 ] >= 3782.79
quadratic_ranged_129_lb: [ 1 x_53_ ^ 2 - 2 x_72_ * x_53_ + 1 x_72_ ^ 2 + 1 y_53_ ^ 2 - 2 y_72_ * y_53_ + 1 y_72_ ^ 2 ] >= 13080.869999999999
quadratic_ranged_130_lb: [ 1 x_1_ ^ 2 - 2 x_73_ * x_1_ + 1 x_73_ ^ 2 + 1 y_1_ ^ 2 - 2 y_73_ * y_1_ + 1 y_73_ ^ 2 ] >= 4364.91
quadratic_ranged_131_lb: [ 1 x_2_ ^ 2 - 2 x_73_ * x_2_ + 1 x_73_ ^ 2 + 1 y_2_ ^ 2 - 2 y_73_ * y_2_ + 1 y_73_ ^ 2 ] >= 9647.55
quadratic_ranged_132_lb: [ 1 x_50_ ^ 2 - 2 x_73_ * x_50_ + 1 x_73_ ^ 2 + 1 y_50_ ^ 2 - 2 y_73_ * y_50_ + 1 y_73_ ^ 2 ] >= 7238.88
quadratic_ranged_133_lb: [ 1 x_7_ ^ 2 - 2 x_74_ * x_7_ + 1 x_74_ ^ 2 + 1 y_7_ ^ 2 - 2 y_74_ * y_7_ + 1 y_74_ ^ 2 ] >= 9157.5
quadratic_ranged_134_lb: [ 1 x_12_ ^ 2 - 2 x_74_ * x_12_ + 1 x_74_ ^ 2 + 1 y_12_ ^ 2 - 2 y_74_ * y_12_ + 1 y_74_ ^ 2 ] >= 954.36
quadratic_ranged_135_lb: [ 1 x_27_ ^ 2 - 2 x_74_ * x_27_ + 1 x_74_ ^ 2 + 1 y_27_ ^ 2 - 2 y_74_ * y_27_ + 1 y_74_ ^ 2 ] >= 10028.7
quadratic_ranged_136_lb: [ 1 x_41_ ^ 2 - 2 x_75_ * x_41_ + 1 x_75_ ^ 2 + 1 y_41_ ^ 2 - 2 y_75_ * y_41_ + 1 y_75_ ^ 2 ] >= 4103.55
quadratic_ranged_137_lb: [ 1 x_74_ ^ 2 - 2 x_75_ * x_74_ + 1 x_75_ ^ 2 + 1 y_74_ ^ 2 - 2 y_75_ * y_74_ + 1 y_75_ ^ 2 ] >= 437.58
quadratic_ranged_138_lb: [ 1 x_24_ ^ 2 - 2 x_76_ * x_24_ + 1 x_76_ ^ 2 + 1 y_24_ ^ 2 - 2 y_76_ * y_24_ + 1 y_76_ ^ 2 ] >= 2143.35
quadratic_ranged_139_lb: [ 1 x_31_ ^ 2 - 2 x_76_ * x_31_ + 1 x_76_ ^ 2 + 1 y_31_ ^ 2 - 2 y_76_ * y_31_ + 1 y_76_ ^ 2 ] >= 3098.7
quadratic_ranged_140_lb: [ 1 x_38_ ^ 2 - 2 x_77_ * x_38_ + 1 x_77_ ^ 2 + 1 y_38_ ^ 2 - 2 y_77_ * y_38_ + 1 y_77_ ^ 2 ] >= 17127
quadratic_ranged_141_lb: [ 1 x_57_ ^ 2 - 2 x_77_ * x_57_ + 1 x_77_ ^ 2 + 1 y_57_ ^ 2 - 2 y_77_ * y_57_ + 1 y_77_ ^ 2 ] >= 9872.28
quadratic_ranged_142_lb: [ 1 x_43_ ^ 2 - 2 x_78_ * x_43_ + 1 x_78_ ^ 2 + 1 y_43_ ^ 2 - 2 y_78_ * y_43_ + 1 y_78_ ^ 2 ] >= 18403.11
quadratic_ranged_143_lb: [ 1 x_18_ ^ 2 - 2 x_79_ * x_18_ + 1 x_79_ ^ 2 + 1 y_18_ ^ 2 - 2 y_79_ * y_18_ + 1 y_79_ ^ 2 ] >= 7425.99
quadratic_ranged_144_lb: [ 1 x_55_ ^ 2 - 2 x_79_ * x_55_ + 1 x_79_ ^ 2 + 1 y_55_ ^ 2 - 2 y_79_ * y_55_ + 1 y_79_ ^ 2 ] >= 11943.36
quadratic_ranged_145_lb: [ 1 x_27_ ^ 2 - 2 x_80_ * x_27_ + 1 x_80_ ^ 2 + 1 y_27_ ^ 2 - 2 y_80_ * y_27_ + 1 y_80_ ^ 2 ] >= 3885.75
quadratic_ranged_146_lb: [ 1 x_13_ ^ 2 - 2 x_81_ * x_13_ + 1 x_81_ ^ 2 + 1 y_13_ ^ 2 - 2 y_81_ * y_13_ + 1 y_81_ ^ 2 ] >= 27812.07
quadratic_ranged_147_lb: [ 1 x_49_ ^ 2 - 2 x_81_ * x_49_ + 1 x_81_ ^ 2 + 1 y_49_ ^ 2 - 2 y_81_ * y_49_ + 1 y_81_ ^ 2 ] >= 16260.75
quadratic_ranged_148_lb: [ 1 x_77_ ^ 2 - 2 x_81_ * x_77_ + 1 x_81_ ^ 2 + 1 y_77_ ^ 2 - 2 y_81_ * y_77_ + 1 y_81_ ^ 2 ] >= 10380.15
quadratic_ranged_149_lb: [ 1 x_13_ ^ 2 - 2 x_82_ * x_13_ + 1 x_82_ ^ 2 + 1 y_13_ ^ 2 - 2 y_82_ * y_13_ + 1 y_82_ ^ 2 ] >= 28278.36
quadratic_ranged_150_lb: [ 1 x_50_ ^ 2 - 2 x_82_ * x_50_ + 1 x_82_ ^ 2 + 1 y_50_ ^ 2 - 2 y_82_ * y_50_ + 1 y_82_ ^ 2 ] >= 2761.11
quadratic_ranged_151_lb: [ 1 x_61_ ^ 2 - 2 x_82_ * x_61_ + 1 x_82_ ^ 2 + 1 y_61_ ^ 2 - 2 y_82_ * y_61_ + 1 y_82_ ^ 2 ] >= 2599.74
quadratic_ranged_152_lb: [ 1 x_3_ ^ 2 - 2 x_83_ * x_3_ + 1 x_83_ ^ 2 + 1 y_3_ ^ 2 - 2 y_83_ * y_3_ + 1 y_83_ ^ 2 ] >= 7275.51
quadratic_ranged_153_lb: [ 1 x_16_ ^ 2 - 2 x_83_ * x_16_ + 1 x_83_ ^ 2 + 1 y_16_ ^ 2 - 2 y_83_ * y_16_ + 1 y_83_ ^ 2 ] >= 927.63
quadratic_ranged_154_lb: [ 1 x_23_ ^ 2 - 2 x_83_ * x_23_ + 1 x_83_ ^ 2 + 1 y_23_ ^ 2 - 2 y_83_ * y_23_ + 1 y_83_ ^ 2 ] >= 4453.0199999999995
quadratic_ranged_155_lb: [ 1 x_55_ ^ 2 - 2 x_84_ * x_55_ + 1 x_84_ ^ 2 + 1 y_55_ ^ 2 - 2 y_84_ * y_55_ + 1 y_84_ ^ 2 ] >= 4880.7
quadratic_ranged_156_lb: [ 1 x_65_ ^ 2 - 2 x_84_ * x_65_ + 1 x_84_ ^ 2 + 1 y_65_ ^ 2 - 2 y_84_ * y_65_ + 1 y_84_ ^ 2 ] >= 16065.72
quadratic_ranged_157_lb: [ 1 x_80_ ^ 2 - 2 x_84_ * x_80_ + 1 x_84_ ^ 2 + 1 y_80_ ^ 2 - 2 y_84_ * y_80_ + 1 y_84_ ^ 2 ] >= 238.59
quadratic_ranged_158_lb: [ 1 x_3_ ^ 2 - 2 x_85_ * x_3_ + 1 x_85_ ^ 2 + 1 y_3_ ^ 2 - 2 y_85_ * y_3_ + 1 y_85_ ^ 2 ] >= 2396.79
quadratic_ranged_159_lb: [ 1 x_71_ ^ 2 - 2 x_85_ * x_71_ + 1 x_85_ ^ 2 + 1 y_71_ ^ 2 - 2 y_85_ * y_71_ + 1 y_85_ ^ 2 ] >= 4242.15
quadratic_ranged_160_lb: [ 1 x_79_ ^ 2 - 2 x_85_ * x_79_ + 1 x_85_ ^ 2 + 1 y_79_ ^ 2 - 2 y_85_ * y_79_ + 1 y_85_ ^ 2 ] >= 25379.64
quadratic_ranged_161_lb: [ 1 x_13_ ^ 2 - 2 x_86_ * x_13_ + 1 x_86_ ^ 2 + 1 y_13_ ^ 2 - 2 y_86_ * y_13_ + 1 y_86_ ^ 2 ] >= 10456.38
quadratic_ranged_162_lb: [ 1 x_21_ ^ 2 - 2 x_86_ * x_21_ + 1 x_86_ ^ 2 + 1 y_21_ ^ 2 - 2 y_86_ * y_21_ + 1 y_86_ ^ 2 ] >= 17654.67
quadratic_ranged_163_lb: [ 1 x_39_ ^ 2 - 2 x_86_ * x_39_ + 1 x_86_ ^ 2 + 1 y_39_ ^ 2 - 2 y_86_ * y_39_ + 1 y_86_ ^ 2 ] >= 404.90999999999997
quadratic_ranged_164_lb: [ 1 x_13_ ^ 2 - 2 x_87_ * x_13_ + 1 x_87_ ^ 2 + 1 y_13_ ^ 2 - 2 y_87_ * y_13_ + 1 y_87_ ^ 2 ] >= 4863.87
quadratic_ranged_165_lb: [ 1 x_26_ ^ 2 - 2 x_87_ * x_26_ + 1 x_87_ ^ 2 + 1 y_26_ ^ 2 - 2 y_87_ * y_26_ + 1 y_87_ ^ 2 ] >= 4468.86
quadratic_ranged_166_lb: [ 1 x_60_ ^ 2 - 2 x_87_ * x_60_ + 1 x_87_ ^ 2 + 1 y_60_ ^ 2 - 2 y_87_ * y_60_ + 1 y_87_ ^ 2 ] >= 30726.63
quadratic_ranged_167_lb: [ 1 x_13_ ^ 2 - 2 x_88_ * x_13_ + 1 x_88_ ^ 2 + 1 y_13_ ^ 2 - 2 y_88_ * y_13_ + 1 y_88_ ^ 2 ] >= 3900.6
quadratic_ranged_168_lb: [ 1 x_20_ ^ 2 - 2 x_88_ * x_20_ + 1 x_88_ ^ 2 + 1 y_20_ ^ 2 - 2 y_88_ * y_20_ + 1 y_88_ ^ 2 ] >= 13703.58
quadratic_ranged_169_lb: [ 1 x_43_ ^ 2 - 2 x_88_ * x_43_ + 1 x_88_ ^ 2 + 1 y_43_ ^ 2 - 2 y_88_ * y_43_ + 1 y_88_ ^ 2 ] >= 33487.74
quadratic_ranged_170_lb: [ 1 x_64_ ^ 2 - 2 x_89_ * x_64_ + 1 x_89_ ^ 2 + 1 y_64_ ^ 2 - 2 y_89_ * y_64_ + 1 y_89_ ^ 2 ] >= 28424.88
quadratic_ranged_171_lb: [ 1 x_76_ ^ 2 - 2 x_89_ * x_76_ + 1 x_89_ ^ 2 + 1 y_76_ ^ 2 - 2 y_89_ * y_76_ + 1 y_89_ ^ 2 ] >= 19737.63
quadratic_ranged_172_lb: [ 1 x_7_ ^ 2 - 2 x_90_ * x_7_ + 1 x_90_ ^ 2 + 1 y_7_ ^ 2 - 2 y_90_ * y_7_ + 1 y_90_ ^ 2 ] >= 8317.98
quadratic_ranged_173_lb: [ 1 x_38_ ^ 2 - 2 x_90_ * x_38_ + 1 x_90_ ^ 2 + 1 y_38_ ^ 2 - 2 y_90_ * y_38_ + 1 y_90_ ^ 2 ] >= 18616.95
quadratic_ranged_174_lb: [ 1 x_9_ ^ 2 - 2 x_91_ * x_9_ + 1 x_91_ ^ 2 + 1 y_9_ ^ 2 - 2 y_91_ * y_9_ + 1 y_91_ ^ 2 ] >= 17452.71
quadratic_ranged_175_lb: [ 1 x_26_ ^ 2 - 2 x_91_ * x_26_ + 1 x_91_ ^ 2 + 1 y_26_ ^ 2 - 2 y_91_ * y_26_ + 1 y_91_ ^ 2 ] >= 8054.64
quadratic_ranged_176_lb: [ 1 x_51_ ^ 2 - 2 x_92_ * x_51_ + 1 x_92_ ^ 2 + 1 y_51_ ^ 2 - 2 y_92_ * y_51_ + 1 y_92_ ^ 2 ] >= 18201.15
quadratic_ranged_177_lb: [ 1 x_74_ ^ 2 - 2 x_92_ * x_74_ + 1 x_92_ ^ 2 + 1 y_74_ ^ 2 - 2 y_92_ * y_74_ + 1 y_92_ ^ 2 ] >= 10695.96
quadratic_ranged_178_lb: [ 1 x_78_ ^ 2 - 2 x_92_ * x_78_ + 1 x_92_ ^ 2 + 1 y_78_ ^ 2 - 2 y_92_ * y_78_ + 1 y_92_ ^ 2 ] >= 27106.2
quadratic_ranged_179_lb: [ 1 x_24_ ^ 2 - 2 x_93_ * x_24_ + 1 x_93_ ^ 2 + 1 y_24_ ^ 2 - 2 y_93_ * y_24_ + 1 y_93_ ^ 2 ] >= 6004.35
quadratic_ranged_180_lb: [ 1 x_68_ ^ 2 - 2 x_93_ * x_68_ + 1 x_93_ ^ 2 + 1 y_68_ ^ 2 - 2 y_93_ * y_68_ + 1 y_93_ ^ 2 ] >= 9132.75
quadratic_ranged_181_lb: [ 1 x_33_ ^ 2 - 2 x_94_ * x_33_ + 1 x_94_ ^ 2 + 1 y_33_ ^ 2 - 2 y_94_ * y_33_ + 1 y_94_ ^ 2 ] >= 3938.22
quadratic_ranged_182_lb: [ 1 x_92_ ^ 2 - 2 x_94_ * x_92_ + 1 x_94_ ^ 2 + 1 y_92_ ^ 2 - 2 y_94_ * y_92_ + 1 y_94_ ^ 2 ] >= 15258.869999999999
quadratic_ranged_183_lb: [ 1 x_15_ ^ 2 - 2 x_95_ * x_15_ + 1 x_95_ ^ 2 + 1 y_15_ ^ 2 - 2 y_95_ * y_15_ + 1 y_95_ ^ 2 ] >= 1932.48
quadratic_ranged_184_lb: [ 1 x_19_ ^ 2 - 2 x_95_ * x_19_ + 1 x_95_ ^ 2 + 1 y_19_ ^ 2 - 2 y_95_ * y_19_ + 1 y_95_ ^ 2 ] >= 10023.75
quadratic_ranged_185_lb: [ 1 x_47_ ^ 2 - 2 x_95_ * x_47_ + 1 x_95_ ^ 2 + 1 y_47_ ^ 2 - 2 y_95_ * y_47_ + 1 y_95_ ^ 2 ] >= 8816.94
quadratic_ranged_186_lb: [ 1 x_15_ ^ 2 - 2 x_96_ * x_15_ + 1 x_96_ ^ 2 + 1 y_15_ ^ 2 - 2 y_96_ * y_15_ + 1 y_96_ ^ 2 ] >= 4063.95
quadratic_ranged_187_lb: [ 1 x_85_ ^ 2 - 2 x_96_ * x_85_ + 1 x_96_ ^ 2 + 1 y_85_ ^ 2 - 2 y_96_ * y_85_ + 1 y_96_ ^ 2 ] >= 4071.87
quadratic_ranged_188_lb: [ 1 x_93_ ^ 2 - 2 x_96_ * x_93_ + 1 x_96_ ^ 2 + 1 y_93_ ^ 2 - 2 y_96_ * y_93_ + 1 y_96_ ^ 2 ] >= 34480.71
quadratic_ranged_189_lb: [ 1 x_33_ ^ 2 - 2 x_97_ * x_33_ + 1 x_97_ ^ 2 + 1 y_33_ ^ 2 - 2 y_97_ * y_33_ + 1 y_97_ ^ 2 ] >= 2380.95
quadratic_ranged_190_lb: [ 1 x_35_ ^ 2 - 2 x_97_ * x_35_ + 1 x_97_ ^ 2 + 1 y_35_ ^ 2 - 2 y_97_ * y_35_ + 1 y_97_ ^ 2 ] >= 4970.79
quadratic_ranged_191_lb: [ 1 x_6_ ^ 2 - 2 x_98_ * x_6_ + 1 x_98_ ^ 2 + 1 y_6_ ^ 2 - 2 y_98_ * y_6_ + 1 y_98_ ^ 2 ] >= 7619.04
quadratic_ranged_192_lb: [ 1 x_96_ ^ 2 - 2 x_98_ * x_96_ + 1 x_98_ ^ 2 + 1 y_96_ ^ 2 - 2 y_98_ * y_96_ + 1 y_98_ ^ 2 ] >= 8983.26
quadratic_ranged_193_lb: [ 1 x_32_ ^ 2 - 2 x_99_ * x_32_ + 1 x_99_ ^ 2 + 1 y_32_ ^ 2 - 2 y_99_ * y_32_ + 1 y_99_ ^ 2 ] >= 8487.27
quadratic_ranged_194_lb: [ 1 x_59_ ^ 2 - 2 x_99_ * x_59_ + 1 x_99_ ^ 2 + 1 y_59_ ^ 2 - 2 y_99_ * y_59_ + 1 y_99_ ^ 2 ] >= 9363.42
quadratic_ranged_195_lb: [ 1 x_97_ ^ 2 - 2 x_99_ * x_97_ + 1 x_99_ ^ 2 + 1 y_97_ ^ 2 - 2 y_99_ * y_97_ + 1 y_99_ ^ 2 ] >= 2740.32
quadratic_ranged_196_lb: [ 1 x_7_ ^ 2 - 2 x_100_ * x_7_ + 1 x_100_ ^ 2 + 1 y_7_ ^ 2 - 2 y_100_ * y_7_ + 1 y_100_ ^ 2 ] >= 19651.5
quadratic_ranged_197_lb: [ 1 x_67_ ^ 2 - 2 x_100_ * x_67_ + 1 x_100_ ^ 2 + 1 y_67_ ^ 2 - 2 y_100_ * y_67_ + 1 y_100_ ^ 2 ] >= 16830.99
c1_1: 1 x_90_ = -88
c2_1: 1 y_90_ = 17
c3_1: 1 x_44_ = -22
c4_1: 1 y_44_ = -65
c5_1: 1 x_28_ = -41
c6_1: 1 y_28_ = 19
Bounds
-276 <= x_1_ <= 221
-204 <= x_2_ <= 160
-189 <= x_3_ <= 107
-238 <= x_4_ <= 156
-183 <= x_5_ <= 139
-252 <= x_6_ <= 170
-180 <= x_7_ <= 4
-326 <= x_8_ <= 211
-230 <= x_9_ <= 175
-154 <= x_10_ <= 72
-264 <= x_11_ <= 179
-225 <= x_12_ <= 131
-322 <= x_13_ <= 268
-82 <= x_14_ <= 38
-142 <= x_15_ <= 60
-290 <= x_16_ <= 224
-207 <= x_17_ <= 125
-164 <= x_18_ <= 82
-238 <= x_19_ <= 93
-275 <= x_20_ <= 173
-207 <= x_21_ <= 163
-180 <= x_22_ <= 98
-343 <= x_23_ <= 186
-173 <= x_24_ <= 129
-242 <= x_25_ <= 66
-300 <= x_26_ <= 207
-309 <= x_27_ <= 201
x_28_ = -41
-354 <= x_29_ <= 310
-269 <= x_30_ <= 93
-276 <= x_31_ <= 232
-280 <= x_32_ <= 198
-327 <= x_33_ <= 186
-466 <= x_34_ <= 384
-242 <= x_35_ <= 66
-257 <= x_36_ <= 213
-137 <= x_37_ <= 93
-225 <= x_38_ <= 49
-238 <= x_39_ <= 156
-222 <= x_40_ <= 178
-240 <= x_41_ <= 186
-214 <= x_42_ <= 170
-365 <= x_43_ <= 189
x_44_ = -22
-358 <= x_45_ <= 276
-327 <= x_46_ <= 245
-218 <= x_47_ <= 113
-246 <= x_48_ <= 202
-434 <= x_49_ <= 352
-259 <= x_50_ <= 177
-347 <= x_51_ <= 245
-279 <= x_52_ <= 103
-263 <= x_53_ <= 219
-137 <= x_54_ <= 93
-262 <= x_55_ <= 218
-326 <= x_56_ <= 271
-102 <= x_57_ <= 20
-309 <= x_58_ <= 170
-325 <= x_59_ <= 271
-336 <= x_60_ <= 160
-363 <= x_61_ <= 281
-153 <= x_62_ <= 109
-316 <= x_63_ <= 272
-348 <= x_64_ <= 172
-332 <= x_65_ <= 288
-327 <= x_66_ <= 283
-304 <= x_67_ <= 222
-343 <= x_68_ <= 241
-313 <= x_69_ <= 137
-336 <= x_70_ <= 254
-284 <= x_71_ <= 190
-276 <= x_72_ <= 232
-304 <= x_73_ <= 260
-256 <= x_74_ <= 100
-277 <= x_75_ <= 121
-219 <= x_76_ <= 175
-203 <= x_77_ <= 121
-502 <= x_78_ <= 326
-251 <= x_79_ <= 169
-348 <= x_80_ <= 264
-306 <= x_81_ <= 224
-312 <= x_82_ <= 230
-276 <= x_83_ <= 194
-332 <= x_84_ <= 280
-239 <= x_85_ <= 157
-259 <= x_86_ <= 177
-367 <= x_87_ <= 274
-385 <= x_88_ <= 291
-361 <= x_89_ <= 317
x_90_ = -88
-364 <= x_91_ <= 297
-360 <= x_92_ <= 205
-251 <= x_93_ <= 207
-391 <= x_94_ <= 249
-186 <= x_95_ <= 104
-206 <= x_96_ <= 124
-313 <= x_97_ <= 137
-302 <= x_98_ <= 220
-366 <= x_99_ <= 190
-321 <= x_100_ <= 145
-273 <= y_1_ <= 189
-201 <= y_2_ <= 117
-129 <= y_3_ <= 167
-178 <= y_4_ <= 213
-222 <= y_5_ <= 96
-192 <= y_6_ <= 206
-75 <= y_7_ <= 109
-266 <= y_8_ <= 254
-227 <= y_9_ <= 143
-94 <= y_10_ <= 129
-204 <= y_11_ <= 242
-202 <= y_12_ <= 138
-302 <= y_13_ <= 235
-125 <= y_14_ <= -5
-82 <= y_15_ <= 120
-246 <= y_16_ <= 203
-147 <= y_17_ <= 185
-104 <= y_18_ <= 139
-164 <= y_19_ <= 198
-215 <= y_20_ <= 236
-250 <= y_21_ <= 120
-120 <= y_22_ <= 154
-257 <= y_23_ <= 290
-216 <= y_24_ <= 86
-137 <= y_25_ <= 171
-278 <= y_26_ <= 213
-249 <= y_27_ <= 270
y_28_ = 19
-347 <= y_29_ <= 267
-164 <= y_30_ <= 198
-302 <= y_31_ <= 189
-220 <= y_32_ <= 255
-257 <= y_33_ <= 240
-406 <= y_34_ <= 398
-137 <= y_35_ <= 171
-300 <= y_36_ <= 170
-174 <= y_37_ <= 50
-120 <= y_38_ <= 154
-178 <= y_39_ <= 216
-265 <= y_40_ <= 135
-257 <= y_41_ <= 153
-257 <= y_42_ <= 127
-260 <= y_43_ <= 294
y_44_ = -65
-298 <= y_45_ <= 284
-267 <= y_46_ <= 245
-158 <= y_47_ <= 196
-289 <= y_48_ <= 159
-374 <= y_49_ <= 394
-199 <= y_50_ <= 234
-287 <= y_51_ <= 308
-174 <= y_52_ <= 208
-306 <= y_53_ <= 176
-180 <= y_54_ <= 50
-301 <= y_55_ <= 175
-322 <= y_56_ <= 239
-42 <= y_57_ <= 80
-241 <= y_58_ <= 222
-322 <= y_59_ <= 238
-231 <= y_60_ <= 265
-303 <= y_61_ <= 306
-196 <= y_62_ <= 66
-359 <= y_63_ <= 229
-243 <= y_64_ <= 270
-329 <= y_65_ <= 245
-367 <= y_66_ <= 240
-244 <= y_67_ <= 279
-283 <= y_68_ <= 260
-208 <= y_69_ <= 242
-276 <= y_70_ <= 310
-245 <= y_71_ <= 197
-319 <= y_72_ <= 189
-285 <= y_73_ <= 217
-171 <= y_74_ <= 169
-192 <= y_75_ <= 190
-262 <= y_76_ <= 132
-143 <= y_77_ <= 181
-397 <= y_78_ <= 431
-191 <= y_79_ <= 226
-312 <= y_80_ <= 261
-246 <= y_81_ <= 284
-252 <= y_82_ <= 287
-216 <= y_83_ <= 234
-327 <= y_84_ <= 245
-179 <= y_85_ <= 217
-199 <= y_86_ <= 236
-345 <= y_87_ <= 280
-333 <= y_88_ <= 298
-404 <= y_89_ <= 274
y_90_ = 17
-360 <= y_91_ <= 277
-276 <= y_92_ <= 273
-294 <= y_93_ <= 164
-320 <= y_94_ <= 304
-126 <= y_95_ <= 164
-146 <= y_96_ <= 184
-208 <= y_97_ <= 242
-242 <= y_98_ <= 280
-261 <= y_99_ <= 295
-216 <= y_100_ <= 250
General
x_1_
x_2_
x_3_
x_4_
x_5_
x_6_
x_7_
x_8_
x_9_
x_10_
x_11_
x_12_
x_13_
x_14_
x_15_
x_16_
x_17_
x_18_
x_19_
x_20_
x_21_
x_22_
x_23_
x_24_
x_25_
x_26_
x_27_
x_28_
x_29_
x_30_
x_31_
x_32_
x_33_
x_34_
x_35_
x_36_
x_37_
x_38_
x_39_
x_40_
x_41_
x_42_
x_43_
x_44_
x_45_
x_46_
x_47_
x_48_
x_49_
x_50_
x_51_
x_52_
x_53_
x_54_
x_55_
x_56_
x_57_
x_58_
x_59_
x_60_
x_61_
x_62_
x_63_
x_64_
x_65_
x_66_
x_67_
x_68_
x_69_
x_70_
x_71_
x_72_
x_73_
x_74_
x_75_
x_76_
x_77_
x_78_
x_79_
x_80_
x_81_
x_82_
x_83_
x_84_
x_85_
x_86_
x_87_
x_88_
x_89_
x_90_
x_91_
x_92_
x_93_
x_94_
x_95_
x_96_
x_97_
x_98_
x_99_
x_100_
y_1_
y_2_
y_3_
y_4_
y_5_
y_6_
y_7_
y_8_
y_9_
y_10_
y_11_
y_12_
y_13_
y_14_
y_15_
y_16_
y_17_
y_18_
y_19_
y_20_
y_21_
y_22_
y_23_
y_24_
y_25_
y_26_
y_27_
y_28_
y_29_
y_30_
y_31_
y_32_
y_33_
y_34_
y_35_
y_36_
y_37_
y_38_
y_39_
y_40_
y_41_
y_42_
y_43_
y_44_
y_45_
y_46_
y_47_
y_48_
y_49_
y_50_
y_51_
y_52_
y_53_
y_54_
y_55_
y_56_
y_57_
y_58_
y_59_
y_60_
y_61_
y_62_
y_63_
y_64_
y_65_
y_66_
y_67_
y_68_
y_69_
y_70_
y_71_
y_72_
y_73_
y_74_
y_75_
y_76_
y_77_
y_78_
y_79_
y_80_
y_81_
y_82_
y_83_
y_84_
y_85_
y_86_
y_87_
y_88_
y_89_
y_90_
y_91_
y_92_
y_93_
y_94_
y_95_
y_96_
y_97_
y_98_
y_99_
y_100_
End
