minimize
obj: 
subject to
c1_4: -1 x_40_ + 1 y_40_ <= 0
c1_1: [ 1 x_1_ ^ 2 + 1 y_1_ ^ 2 ] <= 25904
c2_1: [ 1 x_2_ ^ 2 + 1 y_2_ ^ 2 ] <= 25189
c3_1: [ 1 x_3_ ^ 2 + 1 y_3_ ^ 2 ] <= 333
c4_1: [ 1 x_4_ ^ 2 + 1 y_4_ ^ 2 ] <= 23751
c5_1: [ 1 x_5_ ^ 2 + 1 y_5_ ^ 2 ] <= 13971
c6_1: [ 1 x_6_ ^ 2 + 1 y_6_ ^ 2 ] <= 33634
c7_1: [ 1 x_7_ ^ 2 + 1 y_7_ ^ 2 ] <= 12347
c8_1: [ 1 x_8_ ^ 2 + 1 y_8_ ^ 2 ] <= 26704
c9_1: [ 1 x_9_ ^ 2 + 1 y_9_ ^ 2 ] <= 41019
c10_1: [ 1 x_10_ ^ 2 + 1 y_10_ ^ 2 ] <= 7926
c11_1: [ 1 x_12_ ^ 2 + 1 y_12_ ^ 2 ] <= 39396
c12_1: [ 1 x_13_ ^ 2 + 1 y_13_ ^ 2 ] <= 54487
c13_1: [ 1 x_14_ ^ 2 + 1 y_14_ ^ 2 ] <= 6928
c14_1: [ 1 x_15_ ^ 2 + 1 y_15_ ^ 2 ] <= 28951
c15_1: [ 1 x_16_ ^ 2 + 1 y_16_ ^ 2 ] <= 76138
c16_1: [ 1 x_17_ ^ 2 + 1 y_17_ ^ 2 ] <= 16784
c17_1: [ 1 x_18_ ^ 2 + 1 y_18_ ^ 2 ] <= 33301
c18_1: [ 1 x_19_ ^ 2 + 1 y_19_ ^ 2 ] <= 11331
c19_1: [ 1 x_20_ ^ 2 + 1 y_20_ ^ 2 ] <= 122501
c20_1: [ 1 x_21_ ^ 2 + 1 y_21_ ^ 2 ] <= 34182
c21_1: [ 1 x_22_ ^ 2 + 1 y_22_ ^ 2 ] <= 21426
c22_1: [ 1 x_23_ ^ 2 + 1 y_23_ ^ 2 ] <= 26742
c23_1: [ 1 x_24_ ^ 2 + 1 y_24_ ^ 2 ] <= 2005
c24_1: [ 1 x_25_ ^ 2 + 1 y_25_ ^ 2 ] <= 26091
c25_1: [ 1 x_26_ ^ 2 + 1 y_26_ ^ 2 ] <= 32426
c26_1: [ 1 x_27_ ^ 2 + 1 y_27_ ^ 2 ] <= 68315
c27_1: [ 1 x_28_ ^ 2 + 1 y_28_ ^ 2 ] <= 32909
c28_1: [ 1 x_29_ ^ 2 + 1 y_29_ ^ 2 ] <= 20334
c29_1: [ 1 x_30_ ^ 2 + 1 y_30_ ^ 2 ] <= 38453
c30_1: [ 1 x_31_ ^ 2 + 1 y_31_ ^ 2 ] <= 23355
c31_1: [ 1 x_32_ ^ 2 + 1 y_32_ ^ 2 ] <= 79803
c32_1: [ 1 x_33_ ^ 2 + 1 y_33_ ^ 2 ] <= 56413
c33_1: [ 1 x_34_ ^ 2 + 1 y_34_ ^ 2 ] <= 54214
c34_1: [ 1 x_35_ ^ 2 + 1 y_35_ ^ 2 ] <= 9181
c35_1: [ 1 x_36_ ^ 2 + 1 y_36_ ^ 2 ] <= 10375
c36_1: [ 1 x_37_ ^ 2 + 1 y_37_ ^ 2 ] <= 70121
c37_1: [ 1 x_38_ ^ 2 + 1 y_38_ ^ 2 ] <= 58285
c38_1: [ 1 x_39_ ^ 2 + 1 y_39_ ^ 2 ] <= 54868
c39_1: [ 1 x_40_ ^ 2 + 1 y_40_ ^ 2 ] <= 129269
c40_1: [ 1 x_41_ ^ 2 + 1 y_41_ ^ 2 ] <= 67561
c41_1: [ 1 x_42_ ^ 2 + 1 y_42_ ^ 2 ] <= 1530
c42_1: [ 1 x_43_ ^ 2 + 1 y_43_ ^ 2 ] <= 48090
c43_1: [ 1 x_44_ ^ 2 + 1 y_44_ ^ 2 ] <= 107187
c44_1: [ 1 x_45_ ^ 2 + 1 y_45_ ^ 2 ] <= 117635
c45_1: [ 1 x_46_ ^ 2 + 1 y_46_ ^ 2 ] <= 38171
c46_1: [ 1 x_47_ ^ 2 + 1 y_47_ ^ 2 ] <= 93740
c47_1: [ 1 x_48_ ^ 2 + 1 y_48_ ^ 2 ] <= 9270
c48_1: [ 1 x_49_ ^ 2 + 1 y_49_ ^ 2 ] <= 68230
c49_1: [ 1 x_50_ ^ 2 + 1 y_50_ ^ 2 ] <= 8802
c50_1: [ 1 x_51_ ^ 2 + 1 y_51_ ^ 2 ] <= 41813
c51_1: [ 1 x_52_ ^ 2 + 1 y_52_ ^ 2 ] <= 10289
c52_1: [ 1 x_53_ ^ 2 + 1 y_53_ ^ 2 ] <= 114798
c53_1: [ 1 x_54_ ^ 2 + 1 y_54_ ^ 2 ] <= 38152
c54_1: [ 1 x_55_ ^ 2 + 1 y_55_ ^ 2 ] <= 49075
c55_1: [ 1 x_56_ ^ 2 + 1 y_56_ ^ 2 ] <= 18856
c56_1: [ 1 x_57_ ^ 2 + 1 y_57_ ^ 2 ] <= 54297
c57_1: [ 1 x_58_ ^ 2 + 1 y_58_ ^ 2 ] <= 71485
c58_1: [ 1 x_59_ ^ 2 + 1 y_59_ ^ 2 ] <= 75225
c59_1: [ 1 x_60_ ^ 2 + 1 y_60_ ^ 2 ] <= 52575
c60_1: [ 1 x_61_ ^ 2 + 1 y_61_ ^ 2 ] <= 27610
c61_1: [ 1 x_62_ ^ 2 + 1 y_62_ ^ 2 ] <= 12886
c62_1: [ 1 x_63_ ^ 2 + 1 y_63_ ^ 2 ] <= 84339
c63_1: [ 1 x_64_ ^ 2 + 1 y_64_ ^ 2 ] <= 46915
c64_1: [ 1 x_65_ ^ 2 + 1 y_65_ ^ 2 ] <= 55201
c65_1: [ 1 x_66_ ^ 2 + 1 y_66_ ^ 2 ] <= 9577
c66_1: [ 1 x_67_ ^ 2 + 1 y_67_ ^ 2 ] <= 87892
c67_1: [ 1 x_68_ ^ 2 + 1 y_68_ ^ 2 ] <= 22461
c68_1: [ 1 x_69_ ^ 2 + 1 y_69_ ^ 2 ] <= 29684
c69_1: [ 1 x_70_ ^ 2 + 1 y_70_ ^ 2 ] <= 81488
c70_1: [ 1 x_71_ ^ 2 + 1 y_71_ ^ 2 ] <= 47579
c71_1: [ 1 x_72_ ^ 2 + 1 y_72_ ^ 2 ] <= 16019
c72_1: [ 1 x_73_ ^ 2 + 1 y_73_ ^ 2 ] <= 25512
c73_1: [ 1 x_74_ ^ 2 + 1 y_74_ ^ 2 ] <= 27914
c74_1: [ 1 x_75_ ^ 2 + 1 y_75_ ^ 2 ] <= 76313
c75_1: [ 1 x_76_ ^ 2 + 1 y_76_ ^ 2 ] <= 43693
c76_1: [ 1 x_77_ ^ 2 + 1 y_77_ ^ 2 ] <= 57515
c77_1: [ 1 x_78_ ^ 2 + 1 y_78_ ^ 2 ] <= 13770
c78_1: [ 1 x_79_ ^ 2 + 1 y_79_ ^ 2 ] <= 31131
c79_1: [ 1 x_80_ ^ 2 + 1 y_80_ ^ 2 ] <= 70769
c80_1: [ 1 x_81_ ^ 2 + 1 y_81_ ^ 2 ] <= 110917
c81_1: [ 1 x_82_ ^ 2 + 1 y_82_ ^ 2 ] <= 59409
c82_1: [ 1 x_83_ ^ 2 + 1 y_83_ ^ 2 ] <= 15804
c83_1: [ 1 x_84_ ^ 2 + 1 y_84_ ^ 2 ] <= 5629
c84_1: [ 1 x_85_ ^ 2 + 1 y_85_ ^ 2 ] <= 30360
c85_1: [ 1 x_86_ ^ 2 + 1 y_86_ ^ 2 ] <= 52940
c86_1: [ 1 x_87_ ^ 2 + 1 y_87_ ^ 2 ] <= 99671
c87_1: [ 1 x_88_ ^ 2 + 1 y_88_ ^ 2 ] <= 61062
c88_1: [ 1 x_89_ ^ 2 + 1 y_89_ ^ 2 ] <= 107730
c89_1: [ 1 x_90_ ^ 2 + 1 y_90_ ^ 2 ] <= 88975
c90_1: [ 1 x_91_ ^ 2 + 1 y_91_ ^ 2 ] <= 120043
c91_1: [ 1 x_92_ ^ 2 + 1 y_92_ ^ 2 ] <= 127873
c92_1: [ 1 x_93_ ^ 2 + 1 y_93_ ^ 2 ] <= 124058
c93_1: [ 1 x_94_ ^ 2 + 1 y_94_ ^ 2 ] <= 4349
c94_1: [ 1 x_95_ ^ 2 + 1 y_95_ ^ 2 ] <= 29995
c95_1: [ 1 x_96_ ^ 2 + 1 y_96_ ^ 2 ] <= 39617
c96_1: [ 1 x_97_ ^ 2 + 1 y_97_ ^ 2 ] <= 126166
c97_1: [ 1 x_98_ ^ 2 + 1 y_98_ ^ 2 ] <= 67982
c98_1: [ 1 x_99_ ^ 2 + 1 y_99_ ^ 2 ] <= 27212
c99_1: [ 1 x_100_ ^ 2 + 1 y_100_ ^ 2 ] <= 33695
c1_3: 1 x_40_ >= 0
c2_3: 1 y_40_ >= 0
c1_2: 1 x_11_ = 0
c2_2: 1 y_11_ = 0
c1: [ 1 x_1_ ^ 2 - 2 x_2_ * x_1_ + 1 x_2_ ^ 2 + 1 y_1_ ^ 2 - 2 y_2_ * y_1_ + 1 y_2_ ^ 2 ] = 5
c2: [ 1 x_2_ ^ 2 - 2 x_3_ * x_2_ + 1 x_3_ ^ 2 + 1 y_2_ ^ 2 - 2 y_3_ * y_2_ + 1 y_3_ ^ 2 ] = 19730
c3: [ 1 x_1_ ^ 2 - 2 x_4_ * x_1_ + 1 x_4_ ^ 2 + 1 y_1_ ^ 2 - 2 y_4_ * y_1_ + 1 y_4_ ^ 2 ] = 17890
c4: [ 1 x_3_ ^ 2 - 2 x_5_ * x_3_ + 1 x_5_ ^ 2 + 1 y_3_ ^ 2 - 2 y_5_ * y_3_ + 1 y_5_ ^ 2 ] = 12785
c5: [ 1 x_1_ ^ 2 - 2 x_8_ * x_1_ + 1 x_8_ ^ 2 + 1 y_1_ ^ 2 - 2 y_8_ * y_1_ + 1 y_8_ ^ 2 ] = 26272
c6: [ 1 x_3_ ^ 2 - 2 x_8_ * x_3_ + 1 x_8_ ^ 2 + 1 y_3_ ^ 2 - 2 y_8_ * y_3_ + 1 y_8_ ^ 2 ] = 21073
c7: [ 1 x_1_ ^ 2 - 2 x_9_ * x_1_ + 1 x_9_ ^ 2 + 1 y_1_ ^ 2 - 2 y_9_ * y_1_ + 1 y_9_ ^ 2 ] = 15570
c8: [ 1 x_5_ ^ 2 - 2 x_10_ * x_5_ + 1 x_10_ ^ 2 + 1 y_5_ ^ 2 - 2 y_10_ * y_5_ + 1 y_10_ ^ 2 ] = 2837
c9: [ 1 x_7_ ^ 2 - 2 x_10_ * x_7_ + 1 x_10_ ^ 2 + 1 y_7_ ^ 2 - 2 y_10_ * y_7_ + 1 y_10_ ^ 2 ] = 488
c10: [ 1 x_3_ ^ 2 - 2 x_11_ * x_3_ + 1 x_11_ ^ 2 + 1 y_3_ ^ 2 - 2 y_11_ * y_3_ + 1 y_11_ ^ 2 ] = 333
c11: [ 1 x_2_ ^ 2 - 2 x_13_ * x_2_ + 1 x_13_ ^ 2 + 1 y_2_ ^ 2 - 2 y_13_ * y_2_ + 1 y_13_ ^ 2 ] = 33380
c12: [ 1 x_12_ ^ 2 - 2 x_13_ * x_12_ + 1 x_13_ ^ 2 + 1 y_12_ ^ 2 - 2 y_13_ * y_12_ + 1 y_13_ ^ 2 ] = 4072
c13: [ 1 x_4_ ^ 2 - 2 x_14_ * x_4_ + 1 x_14_ ^ 2 + 1 y_4_ ^ 2 - 2 y_14_ * y_4_ + 1 y_14_ ^ 2 ] = 5024
c14: [ 1 x_11_ ^ 2 - 2 x_14_ * x_11_ + 1 x_14_ ^ 2 + 1 y_11_ ^ 2 - 2 y_14_ * y_11_ + 1 y_14_ ^ 2 ] = 6928
c15: [ 1 x_1_ ^ 2 - 2 x_15_ * x_1_ + 1 x_15_ ^ 2 + 1 y_1_ ^ 2 - 2 y_15_ * y_1_ + 1 y_15_ ^ 2 ] = 11762
c16: [ 1 x_7_ ^ 2 - 2 x_15_ * x_7_ + 1 x_15_ ^ 2 + 1 y_7_ ^ 2 - 2 y_15_ * y_7_ + 1 y_15_ ^ 2 ] = 3485
c17: [ 1 x_1_ ^ 2 - 2 x_16_ * x_1_ + 1 x_16_ ^ 2 + 1 y_1_ ^ 2 - 2 y_16_ * y_1_ + 1 y_16_ ^ 2 ] = 25090
c18: [ 1 x_2_ ^ 2 - 2 x_16_ * x_2_ + 1 x_16_ ^ 2 + 1 y_2_ ^ 2 - 2 y_16_ * y_2_ + 1 y_16_ ^ 2 ] = 24865
c19: [ 1 x_1_ ^ 2 - 2 x_17_ * x_1_ + 1 x_17_ ^ 2 + 1 y_1_ ^ 2 - 2 y_17_ * y_1_ + 1 y_17_ ^ 2 ] = 15914
c20: [ 1 x_3_ ^ 2 - 2 x_17_ * x_3_ + 1 x_17_ ^ 2 + 1 y_3_ ^ 2 - 2 y_17_ * y_3_ + 1 y_17_ ^ 2 ] = 12389
c21: [ 1 x_7_ ^ 2 - 2 x_17_ * x_7_ + 1 x_17_ ^ 2 + 1 y_7_ ^ 2 - 2 y_17_ * y_7_ + 1 y_17_ ^ 2 ] = 17973
c22: [ 1 x_5_ ^ 2 - 2 x_18_ * x_5_ + 1 x_18_ ^ 2 + 1 y_5_ ^ 2 - 2 y_18_ * y_5_ + 1 y_18_ ^ 2 ] = 4133
c23: [ 1 x_8_ ^ 2 - 2 x_18_ * x_8_ + 1 x_18_ ^ 2 + 1 y_8_ ^ 2 - 2 y_18_ * y_8_ + 1 y_18_ ^ 2 ] = 34765
c24: [ 1 x_17_ ^ 2 - 2 x_18_ * x_17_ + 1 x_18_ ^ 2 + 1 y_17_ ^ 2 - 2 y_18_ * y_17_ + 1 y_18_ ^ 2 ] = 21785
c25: [ 1 x_12_ ^ 2 - 2 x_19_ * x_12_ + 1 x_19_ ^ 2 + 1 y_12_ ^ 2 - 2 y_19_ * y_12_ + 1 y_19_ ^ 2 ] = 10397
c26: [ 1 x_6_ ^ 2 - 2 x_20_ * x_6_ + 1 x_20_ ^ 2 + 1 y_6_ ^ 2 - 2 y_20_ * y_6_ + 1 y_20_ ^ 2 ] = 30160
c27: [ 1 x_12_ ^ 2 - 2 x_21_ * x_12_ + 1 x_21_ ^ 2 + 1 y_12_ ^ 2 - 2 y_21_ * y_12_ + 1 y_21_ ^ 2 ] = 185
c28: [ 1 x_1_ ^ 2 - 2 x_22_ * x_1_ + 1 x_22_ ^ 2 + 1 y_1_ ^ 2 - 2 y_22_ * y_1_ + 1 y_22_ ^ 2 ] = 14948
c29: [ 1 x_5_ ^ 2 - 2 x_22_ * x_5_ + 1 x_22_ ^ 2 + 1 y_5_ ^ 2 - 2 y_22_ * y_5_ + 1 y_22_ ^ 2 ] = 794
c30: [ 1 x_7_ ^ 2 - 2 x_23_ * x_7_ + 1 x_23_ ^ 2 + 1 y_7_ ^ 2 - 2 y_23_ * y_7_ + 1 y_23_ ^ 2 ] = 20813
c31: [ 1 x_11_ ^ 2 - 2 x_24_ * x_11_ + 1 x_24_ ^ 2 + 1 y_11_ ^ 2 - 2 y_24_ * y_11_ + 1 y_24_ ^ 2 ] = 2005
c32: [ 1 x_2_ ^ 2 - 2 x_25_ * x_2_ + 1 x_25_ ^ 2 + 1 y_2_ ^ 2 - 2 y_25_ * y_2_ + 1 y_25_ ^ 2 ] = 24685
c33: [ 1 x_4_ ^ 2 - 2 x_25_ * x_4_ + 1 x_25_ ^ 2 + 1 y_4_ ^ 2 - 2 y_25_ * y_4_ + 1 y_25_ ^ 2 ] = 1090
c34: [ 1 x_23_ ^ 2 - 2 x_25_ * x_23_ + 1 x_25_ ^ 2 + 1 y_23_ ^ 2 - 2 y_25_ * y_23_ + 1 y_25_ ^ 2 ] = 4
c35: [ 1 x_1_ ^ 2 - 2 x_26_ * x_1_ + 1 x_26_ ^ 2 + 1 y_1_ ^ 2 - 2 y_26_ * y_1_ + 1 y_26_ ^ 2 ] = 22340
c36: [ 1 x_15_ ^ 2 - 2 x_27_ * x_15_ + 1 x_27_ ^ 2 + 1 y_15_ ^ 2 - 2 y_27_ * y_15_ + 1 y_27_ ^ 2 ] = 8321
c37: [ 1 x_22_ ^ 2 - 2 x_27_ * x_22_ + 1 x_27_ ^ 2 + 1 y_22_ ^ 2 - 2 y_27_ * y_22_ + 1 y_27_ ^ 2 ] = 21905
c38: [ 1 x_4_ ^ 2 - 2 x_28_ * x_4_ + 1 x_28_ ^ 2 + 1 y_4_ ^ 2 - 2 y_28_ * y_4_ + 1 y_28_ ^ 2 ] = 745
c39: [ 1 x_27_ ^ 2 - 2 x_28_ * x_27_ + 1 x_28_ ^ 2 + 1 y_27_ ^ 2 - 2 y_28_ * y_27_ + 1 y_28_ ^ 2 ] = 15570
c40: [ 1 x_9_ ^ 2 - 2 x_29_ * x_9_ + 1 x_29_ ^ 2 + 1 y_9_ ^ 2 - 2 y_29_ * y_9_ + 1 y_29_ ^ 2 ] = 3592
c41: [ 1 x_14_ ^ 2 - 2 x_29_ * x_14_ + 1 x_29_ ^ 2 + 1 y_14_ ^ 2 - 2 y_29_ * y_14_ + 1 y_29_ ^ 2 ] = 3524
c42: [ 1 x_15_ ^ 2 - 2 x_30_ * x_15_ + 1 x_30_ ^ 2 + 1 y_15_ ^ 2 - 2 y_30_ * y_15_ + 1 y_30_ ^ 2 ] = 673
c43: [ 1 x_9_ ^ 2 - 2 x_31_ * x_9_ + 1 x_31_ ^ 2 + 1 y_9_ ^ 2 - 2 y_31_ * y_9_ + 1 y_31_ ^ 2 ] = 4745
c44: [ 1 x_24_ ^ 2 - 2 x_31_ * x_24_ + 1 x_31_ ^ 2 + 1 y_24_ ^ 2 - 2 y_31_ * y_24_ + 1 y_31_ ^ 2 ] = 11674
c45: [ 1 x_8_ ^ 2 - 2 x_32_ * x_8_ + 1 x_32_ ^ 2 + 1 y_8_ ^ 2 - 2 y_32_ * y_8_ + 1 y_32_ ^ 2 ] = 14180
c46: [ 1 x_27_ ^ 2 - 2 x_32_ * x_27_ + 1 x_32_ ^ 2 + 1 y_27_ ^ 2 - 2 y_32_ * y_27_ + 1 y_32_ ^ 2 ] = 2657
c47: [ 1 x_6_ ^ 2 - 2 x_33_ * x_6_ + 1 x_33_ ^ 2 + 1 y_6_ ^ 2 - 2 y_33_ * y_6_ + 1 y_33_ ^ 2 ] = 23245
c48: [ 1 x_18_ ^ 2 - 2 x_33_ * x_18_ + 1 x_33_ ^ 2 + 1 y_18_ ^ 2 - 2 y_33_ * y_18_ + 1 y_33_ ^ 2 ] = 16501
c49: [ 1 x_21_ ^ 2 - 2 x_33_ * x_21_ + 1 x_33_ ^ 2 + 1 y_21_ ^ 2 - 2 y_33_ * y_21_ + 1 y_33_ ^ 2 ] = 2770
c50: [ 1 x_28_ ^ 2 - 2 x_34_ * x_28_ + 1 x_34_ ^ 2 + 1 y_28_ ^ 2 - 2 y_34_ * y_28_ + 1 y_34_ ^ 2 ] = 2645
c51: [ 1 x_11_ ^ 2 - 2 x_35_ * x_11_ + 1 x_35_ ^ 2 + 1 y_11_ ^ 2 - 2 y_35_ * y_11_ + 1 y_35_ ^ 2 ] = 9181
c52: [ 1 x_19_ ^ 2 - 2 x_35_ * x_19_ + 1 x_35_ ^ 2 + 1 y_19_ ^ 2 - 2 y_35_ * y_19_ + 1 y_35_ ^ 2 ] = 113
c53: [ 1 x_24_ ^ 2 - 2 x_36_ * x_24_ + 1 x_36_ ^ 2 + 1 y_24_ ^ 2 - 2 y_36_ * y_24_ + 1 y_36_ ^ 2 ] = 3258
c54: [ 1 x_12_ ^ 2 - 2 x_37_ * x_12_ + 1 x_37_ ^ 2 + 1 y_12_ ^ 2 - 2 y_37_ * y_12_ + 1 y_37_ ^ 2 ] = 14285
c55: [ 1 x_23_ ^ 2 - 2 x_37_ * x_23_ + 1 x_37_ ^ 2 + 1 y_23_ ^ 2 - 2 y_37_ * y_23_ + 1 y_37_ ^ 2 ] = 29818
c56: [ 1 x_30_ ^ 2 - 2 x_37_ * x_30_ + 1 x_37_ ^ 2 + 1 y_30_ ^ 2 - 2 y_37_ * y_30_ + 1 y_37_ ^ 2 ] = 4721
c57: [ 1 x_22_ ^ 2 - 2 x_38_ * x_22_ + 1 x_38_ ^ 2 + 1 y_22_ ^ 2 - 2 y_38_ * y_22_ + 1 y_38_ ^ 2 ] = 9034
c58: [ 1 x_26_ ^ 2 - 2 x_38_ * x_26_ + 1 x_38_ ^ 2 + 1 y_26_ ^ 2 - 2 y_38_ * y_26_ + 1 y_38_ ^ 2 ] = 5058
c59: [ 1 x_8_ ^ 2 - 2 x_39_ * x_8_ + 1 x_39_ ^ 2 + 1 y_8_ ^ 2 - 2 y_39_ * y_8_ + 1 y_39_ ^ 2 ] = 23434
c60: [ 1 x_15_ ^ 2 - 2 x_39_ * x_15_ + 1 x_39_ ^ 2 + 1 y_15_ ^ 2 - 2 y_39_ * y_15_ + 1 y_39_ ^ 2 ] = 7400
c61: [ 1 x_36_ ^ 2 - 2 x_39_ * x_36_ + 1 x_39_ ^ 2 + 1 y_36_ ^ 2 - 2 y_39_ * y_36_ + 1 y_39_ ^ 2 ] = 17525
c62: [ 1 x_27_ ^ 2 - 2 x_40_ * x_27_ + 1 x_40_ ^ 2 + 1 y_27_ ^ 2 - 2 y_40_ * y_27_ + 1 y_40_ ^ 2 ] = 33065
c63: [ 1 x_9_ ^ 2 - 2 x_41_ * x_9_ + 1 x_41_ ^ 2 + 1 y_9_ ^ 2 - 2 y_41_ * y_9_ + 1 y_41_ ^ 2 ] = 29002
c64: [ 1 x_27_ ^ 2 - 2 x_41_ * x_27_ + 1 x_41_ ^ 2 + 1 y_27_ ^ 2 - 2 y_41_ * y_27_ + 1 y_41_ ^ 2 ] = 30685
c65: [ 1 x_1_ ^ 2 - 2 x_42_ * x_1_ + 1 x_42_ ^ 2 + 1 y_1_ ^ 2 - 2 y_42_ * y_1_ + 1 y_42_ ^ 2 ] = 29952
c66: [ 1 x_6_ ^ 2 - 2 x_42_ * x_6_ + 1 x_42_ ^ 2 + 1 y_6_ ^ 2 - 2 y_42_ * y_6_ + 1 y_42_ ^ 2 ] = 20817
c67: [ 1 x_11_ ^ 2 - 2 x_42_ * x_11_ + 1 x_42_ ^ 2 + 1 y_11_ ^ 2 - 2 y_42_ * y_11_ + 1 y_42_ ^ 2 ] = 1530
c68: [ 1 x_9_ ^ 2 - 2 x_43_ * x_9_ + 1 x_43_ ^ 2 + 1 y_9_ ^ 2 - 2 y_43_ * y_9_ + 1 y_43_ ^ 2 ] = 281
c69: [ 1 x_40_ ^ 2 - 2 x_43_ * x_40_ + 1 x_43_ ^ 2 + 1 y_40_ ^ 2 - 2 y_43_ * y_40_ + 1 y_43_ ^ 2 ] = 19669
c70: [ 1 x_23_ ^ 2 - 2 x_44_ * x_23_ + 1 x_44_ ^ 2 + 1 y_23_ ^ 2 - 2 y_44_ * y_23_ + 1 y_44_ ^ 2 ] = 26852
c71: [ 1 x_26_ ^ 2 - 2 x_44_ * x_26_ + 1 x_44_ ^ 2 + 1 y_26_ ^ 2 - 2 y_44_ * y_26_ + 1 y_44_ ^ 2 ] = 29000
c72: [ 1 x_27_ ^ 2 - 2 x_44_ * x_27_ + 1 x_44_ ^ 2 + 1 y_27_ ^ 2 - 2 y_44_ * y_27_ + 1 y_44_ ^ 2 ] = 51741
c73: [ 1 x_6_ ^ 2 - 2 x_45_ * x_6_ + 1 x_45_ ^ 2 + 1 y_6_ ^ 2 - 2 y_45_ * y_6_ + 1 y_45_ ^ 2 ] = 34954
c74: [ 1 x_43_ ^ 2 - 2 x_45_ * x_43_ + 1 x_45_ ^ 2 + 1 y_43_ ^ 2 - 2 y_45_ * y_43_ + 1 y_45_ ^ 2 ] = 15298
c75: [ 1 x_13_ ^ 2 - 2 x_46_ * x_13_ + 1 x_46_ ^ 2 + 1 y_13_ ^ 2 - 2 y_46_ * y_13_ + 1 y_46_ ^ 2 ] = 12465
c76: [ 1 x_26_ ^ 2 - 2 x_46_ * x_26_ + 1 x_46_ ^ 2 + 1 y_26_ ^ 2 - 2 y_46_ * y_26_ + 1 y_46_ ^ 2 ] = 2570
c77: [ 1 x_17_ ^ 2 - 2 x_47_ * x_17_ + 1 x_47_ ^ 2 + 1 y_17_ ^ 2 - 2 y_47_ * y_17_ + 1 y_47_ ^ 2 ] = 31193
c78: [ 1 x_3_ ^ 2 - 2 x_48_ * x_3_ + 1 x_48_ ^ 2 + 1 y_3_ ^ 2 - 2 y_48_ * y_3_ + 1 y_48_ ^ 2 ] = 6089
c79: [ 1 x_20_ ^ 2 - 2 x_49_ * x_20_ + 1 x_49_ ^ 2 + 1 y_20_ ^ 2 - 2 y_49_ * y_20_ + 1 y_49_ ^ 2 ] = 8912
c80: [ 1 x_30_ ^ 2 - 2 x_49_ * x_30_ + 1 x_49_ ^ 2 + 1 y_30_ ^ 2 - 2 y_49_ * y_30_ + 1 y_49_ ^ 2 ] = 4240
c81: [ 1 x_14_ ^ 2 - 2 x_50_ * x_14_ + 1 x_50_ ^ 2 + 1 y_14_ ^ 2 - 2 y_50_ * y_14_ + 1 y_50_ ^ 2 ] = 8912
c82: [ 1 x_24_ ^ 2 - 2 x_50_ * x_24_ + 1 x_50_ ^ 2 + 1 y_24_ ^ 2 - 2 y_50_ * y_24_ + 1 y_50_ ^ 2 ] = 2405
c83: [ 1 x_16_ ^ 2 - 2 x_51_ * x_16_ + 1 x_51_ ^ 2 + 1 y_16_ ^ 2 - 2 y_51_ * y_16_ + 1 y_51_ ^ 2 ] = 5105
c84: [ 1 x_25_ ^ 2 - 2 x_51_ * x_25_ + 1 x_51_ ^ 2 + 1 y_25_ ^ 2 - 2 y_51_ * y_25_ + 1 y_51_ ^ 2 ] = 1845
c85: [ 1 x_5_ ^ 2 - 2 x_52_ * x_5_ + 1 x_52_ ^ 2 + 1 y_5_ ^ 2 - 2 y_52_ * y_5_ + 1 y_52_ ^ 2 ] = 281
c86: [ 1 x_11_ ^ 2 - 2 x_52_ * x_11_ + 1 x_52_ ^ 2 + 1 y_11_ ^ 2 - 2 y_52_ * y_11_ + 1 y_52_ ^ 2 ] = 10289
c87: [ 1 x_16_ ^ 2 - 2 x_52_ * x_16_ + 1 x_52_ ^ 2 + 1 y_16_ ^ 2 - 2 y_52_ * y_16_ + 1 y_52_ ^ 2 ] = 34085
c88: [ 1 x_27_ ^ 2 - 2 x_53_ * x_27_ + 1 x_53_ ^ 2 + 1 y_27_ ^ 2 - 2 y_53_ * y_27_ + 1 y_53_ ^ 2 ] = 7092
c89: [ 1 x_32_ ^ 2 - 2 x_53_ * x_32_ + 1 x_53_ ^ 2 + 1 y_32_ ^ 2 - 2 y_53_ * y_32_ + 1 y_53_ ^ 2 ] = 11849
c90: [ 1 x_47_ ^ 2 - 2 x_53_ * x_47_ + 1 x_53_ ^ 2 + 1 y_47_ ^ 2 - 2 y_53_ * y_47_ + 1 y_53_ ^ 2 ] = 1066
c91: [ 1 x_20_ ^ 2 - 2 x_55_ * x_20_ + 1 x_55_ ^ 2 + 1 y_20_ ^ 2 - 2 y_55_ * y_20_ + 1 y_55_ ^ 2 ] = 16505
c92: [ 1 x_22_ ^ 2 - 2 x_55_ * x_22_ + 1 x_55_ ^ 2 + 1 y_22_ ^ 2 - 2 y_55_ * y_22_ + 1 y_55_ ^ 2 ] = 5648
c93: [ 1 x_26_ ^ 2 - 2 x_56_ * x_26_ + 1 x_56_ ^ 2 + 1 y_26_ ^ 2 - 2 y_56_ * y_26_ + 1 y_56_ ^ 2 ] = 1828
c94: [ 1 x_46_ ^ 2 - 2 x_56_ * x_46_ + 1 x_56_ ^ 2 + 1 y_46_ ^ 2 - 2 y_56_ * y_46_ + 1 y_56_ ^ 2 ] = 8722
c95: [ 1 x_48_ ^ 2 - 2 x_56_ * x_48_ + 1 x_56_ ^ 2 + 1 y_48_ ^ 2 - 2 y_56_ * y_48_ + 1 y_56_ ^ 2 ] = 1684
c96: [ 1 x_19_ ^ 2 - 2 x_57_ * x_19_ + 1 x_57_ ^ 2 + 1 y_19_ ^ 2 - 2 y_57_ * y_19_ + 1 y_57_ ^ 2 ] = 16020
c97: [ 1 x_41_ ^ 2 - 2 x_57_ * x_41_ + 1 x_57_ ^ 2 + 1 y_41_ ^ 2 - 2 y_57_ * y_41_ + 1 y_57_ ^ 2 ] = 724
c98: [ 1 x_9_ ^ 2 - 2 x_58_ * x_9_ + 1 x_58_ ^ 2 + 1 y_9_ ^ 2 - 2 y_58_ * y_9_ + 1 y_58_ ^ 2 ] = 13625
c99: [ 1 x_31_ ^ 2 - 2 x_58_ * x_31_ + 1 x_58_ ^ 2 + 1 y_31_ ^ 2 - 2 y_58_ * y_31_ + 1 y_58_ ^ 2 ] = 13120
c100: [ 1 x_8_ ^ 2 - 2 x_59_ * x_8_ + 1 x_59_ ^ 2 + 1 y_8_ ^ 2 - 2 y_59_ * y_8_ + 1 y_59_ ^ 2 ] = 19906
c101: [ 1 x_23_ ^ 2 - 2 x_60_ * x_23_ + 1 x_60_ ^ 2 + 1 y_23_ ^ 2 - 2 y_60_ * y_23_ + 1 y_60_ ^ 2 ] = 4325
c102: [ 1 x_39_ ^ 2 - 2 x_60_ * x_39_ + 1 x_60_ ^ 2 + 1 y_39_ ^ 2 - 2 y_60_ * y_39_ + 1 y_60_ ^ 2 ] = 5329
c103: [ 1 x_14_ ^ 2 - 2 x_61_ * x_14_ + 1 x_61_ ^ 2 + 1 y_14_ ^ 2 - 2 y_61_ * y_14_ + 1 y_61_ ^ 2 ] = 6877
c104: [ 1 x_19_ ^ 2 - 2 x_61_ * x_19_ + 1 x_61_ ^ 2 + 1 y_19_ ^ 2 - 2 y_61_ * y_19_ + 1 y_61_ ^ 2 ] = 16745
c105: [ 1 x_9_ ^ 2 - 2 x_62_ * x_9_ + 1 x_62_ ^ 2 + 1 y_9_ ^ 2 - 2 y_62_ * y_9_ + 1 y_62_ ^ 2 ] = 25493
c106: [ 1 x_25_ ^ 2 - 2 x_62_ * x_25_ + 1 x_62_ ^ 2 + 1 y_25_ ^ 2 - 2 y_62_ * y_25_ + 1 y_62_ ^ 2 ] = 2305
c107: [ 1 x_36_ ^ 2 - 2 x_62_ * x_36_ + 1 x_62_ ^ 2 + 1 y_36_ ^ 2 - 2 y_62_ * y_36_ + 1 y_62_ ^ 2 ] = 136
c108: [ 1 x_2_ ^ 2 - 2 x_63_ * x_2_ + 1 x_63_ ^ 2 + 1 y_2_ ^ 2 - 2 y_63_ * y_2_ + 1 y_63_ ^ 2 ] = 17345
c109: [ 1 x_58_ ^ 2 - 2 x_63_ * x_58_ + 1 x_63_ ^ 2 + 1 y_58_ ^ 2 - 2 y_63_ * y_58_ + 1 y_63_ ^ 2 ] = 929
c110: [ 1 x_9_ ^ 2 - 2 x_64_ * x_9_ + 1 x_64_ ^ 2 + 1 y_9_ ^ 2 - 2 y_64_ * y_9_ + 1 y_64_ ^ 2 ] = 1090
c111: [ 1 x_14_ ^ 2 - 2 x_64_ * x_14_ + 1 x_64_ ^ 2 + 1 y_14_ ^ 2 - 2 y_64_ * y_14_ + 1 y_64_ ^ 2 ] = 17786
c112: [ 1 x_45_ ^ 2 - 2 x_64_ * x_45_ + 1 x_64_ ^ 2 + 1 y_45_ ^ 2 - 2 y_64_ * y_45_ + 1 y_64_ ^ 2 ] = 22185
c113: [ 1 x_26_ ^ 2 - 2 x_65_ * x_26_ + 1 x_65_ ^ 2 + 1 y_26_ ^ 2 - 2 y_65_ * y_26_ + 1 y_65_ ^ 2 ] = 18397
c114: [ 1 x_36_ ^ 2 - 2 x_65_ * x_36_ + 1 x_65_ ^ 2 + 1 y_36_ ^ 2 - 2 y_65_ * y_36_ + 1 y_65_ ^ 2 ] = 28772
c115: [ 1 x_54_ ^ 2 - 2 x_65_ * x_54_ + 1 x_65_ ^ 2 + 1 y_54_ ^ 2 - 2 y_65_ * y_54_ + 1 y_65_ ^ 2 ] = 1570
c116: [ 1 x_3_ ^ 2 - 2 x_66_ * x_3_ + 1 x_66_ ^ 2 + 1 y_3_ ^ 2 - 2 y_66_ * y_3_ + 1 y_66_ ^ 2 ] = 6338
c117: [ 1 x_23_ ^ 2 - 2 x_66_ * x_23_ + 1 x_66_ ^ 2 + 1 y_23_ ^ 2 - 2 y_66_ * y_23_ + 1 y_66_ ^ 2 ] = 9349
c118: [ 1 x_35_ ^ 2 - 2 x_66_ * x_35_ + 1 x_66_ ^ 2 + 1 y_35_ ^ 2 - 2 y_66_ * y_35_ + 1 y_66_ ^ 2 ] = 2386
c119: [ 1 x_1_ ^ 2 - 2 x_67_ * x_1_ + 1 x_67_ ^ 2 + 1 y_1_ ^ 2 - 2 y_67_ * y_1_ + 1 y_67_ ^ 2 ] = 18365
c120: [ 1 x_45_ ^ 2 - 2 x_67_ * x_45_ + 1 x_67_ ^ 2 + 1 y_45_ ^ 2 - 2 y_67_ * y_45_ + 1 y_67_ ^ 2 ] = 6994
c121: [ 1 x_21_ ^ 2 - 2 x_68_ * x_21_ + 1 x_68_ ^ 2 + 1 y_21_ ^ 2 - 2 y_68_ * y_21_ + 1 y_68_ ^ 2 ] = 1226
c122: [ 1 x_66_ ^ 2 - 2 x_68_ * x_66_ + 1 x_68_ ^ 2 + 1 y_66_ ^ 2 - 2 y_68_ * y_66_ + 1 y_68_ ^ 2 ] = 2705
c123: [ 1 x_36_ ^ 2 - 2 x_69_ * x_36_ + 1 x_69_ ^ 2 + 1 y_36_ ^ 2 - 2 y_69_ * y_36_ + 1 y_69_ ^ 2 ] = 4961
c124: [ 1 x_59_ ^ 2 - 2 x_69_ * x_59_ + 1 x_69_ ^ 2 + 1 y_59_ ^ 2 - 2 y_69_ * y_59_ + 1 y_69_ ^ 2 ] = 10400
c125: [ 1 x_6_ ^ 2 - 2 x_70_ * x_6_ + 1 x_70_ ^ 2 + 1 y_6_ ^ 2 - 2 y_70_ * y_6_ + 1 y_70_ ^ 2 ] = 29633
c126: [ 1 x_9_ ^ 2 - 2 x_70_ * x_9_ + 1 x_70_ ^ 2 + 1 y_9_ ^ 2 - 2 y_70_ * y_9_ + 1 y_70_ ^ 2 ] = 14186
c127: [ 1 x_29_ ^ 2 - 2 x_70_ * x_29_ + 1 x_70_ ^ 2 + 1 y_29_ ^ 2 - 2 y_70_ * y_29_ + 1 y_70_ ^ 2 ] = 20410
c128: [ 1 x_42_ ^ 2 - 2 x_71_ * x_42_ + 1 x_71_ ^ 2 + 1 y_42_ ^ 2 - 2 y_71_ * y_42_ + 1 y_71_ ^ 2 ] = 32045
c129: [ 1 x_53_ ^ 2 - 2 x_71_ * x_53_ + 1 x_71_ ^ 2 + 1 y_53_ ^ 2 - 2 y_71_ * y_53_ + 1 y_71_ ^ 2 ] = 23930
c130: [ 1 x_19_ ^ 2 - 2 x_72_ * x_19_ + 1 x_72_ ^ 2 + 1 y_19_ ^ 2 - 2 y_72_ * y_19_ + 1 y_72_ ^ 2 ] = 2336
c131: [ 1 x_57_ ^ 2 - 2 x_72_ * x_57_ + 1 x_72_ ^ 2 + 1 y_57_ ^ 2 - 2 y_72_ * y_57_ + 1 y_72_ ^ 2 ] = 28484
c132: [ 1 x_35_ ^ 2 - 2 x_73_ * x_35_ + 1 x_73_ ^ 2 + 1 y_35_ ^ 2 - 2 y_73_ * y_35_ + 1 y_73_ ^ 2 ] = 4084
c133: [ 1 x_43_ ^ 2 - 2 x_73_ * x_43_ + 1 x_73_ ^ 2 + 1 y_43_ ^ 2 - 2 y_73_ * y_43_ + 1 y_73_ ^ 2 ] = 24260
c134: [ 1 x_54_ ^ 2 - 2 x_74_ * x_54_ + 1 x_74_ ^ 2 + 1 y_54_ ^ 2 - 2 y_74_ * y_54_ + 1 y_74_ ^ 2 ] = 13637
c135: [ 1 x_68_ ^ 2 - 2 x_74_ * x_68_ + 1 x_74_ ^ 2 + 1 y_68_ ^ 2 - 2 y_74_ * y_68_ + 1 y_74_ ^ 2 ] = 296
c136: [ 1 x_5_ ^ 2 - 2 x_75_ * x_5_ + 1 x_75_ ^ 2 + 1 y_5_ ^ 2 - 2 y_75_ * y_5_ + 1 y_75_ ^ 2 ] = 24980
c137: [ 1 x_45_ ^ 2 - 2 x_75_ * x_45_ + 1 x_75_ ^ 2 + 1 y_45_ ^ 2 - 2 y_75_ * y_45_ + 1 y_75_ ^ 2 ] = 28345
c138: [ 1 x_59_ ^ 2 - 2 x_75_ * x_59_ + 1 x_75_ ^ 2 + 1 y_59_ ^ 2 - 2 y_75_ * y_59_ + 1 y_75_ ^ 2 ] = 14408
c139: [ 1 x_25_ ^ 2 - 2 x_76_ * x_25_ + 1 x_76_ ^ 2 + 1 y_25_ ^ 2 - 2 y_76_ * y_25_ + 1 y_76_ ^ 2 ] = 9704
c140: [ 1 x_72_ ^ 2 - 2 x_76_ * x_72_ + 1 x_76_ ^ 2 + 1 y_72_ ^ 2 - 2 y_76_ * y_72_ + 1 y_76_ ^ 2 ] = 6800
c141: [ 1 x_28_ ^ 2 - 2 x_77_ * x_28_ + 1 x_77_ ^ 2 + 1 y_28_ ^ 2 - 2 y_77_ * y_28_ + 1 y_77_ ^ 2 ] = 8249
c142: [ 1 x_31_ ^ 2 - 2 x_77_ * x_31_ + 1 x_77_ ^ 2 + 1 y_31_ ^ 2 - 2 y_77_ * y_31_ + 1 y_77_ ^ 2 ] = 7569
c143: [ 1 x_10_ ^ 2 - 2 x_78_ * x_10_ + 1 x_78_ ^ 2 + 1 y_10_ ^ 2 - 2 y_78_ * y_10_ + 1 y_78_ ^ 2 ] = 802
c144: [ 1 x_72_ ^ 2 - 2 x_78_ * x_72_ + 1 x_78_ ^ 2 + 1 y_72_ ^ 2 - 2 y_78_ * y_72_ + 1 y_78_ ^ 2 ] = 85
c145: [ 1 x_77_ ^ 2 - 2 x_78_ * x_77_ + 1 x_78_ ^ 2 + 1 y_77_ ^ 2 - 2 y_78_ * y_77_ + 1 y_78_ ^ 2 ] = 25937
c146: [ 1 x_35_ ^ 2 - 2 x_79_ * x_35_ + 1 x_79_ ^ 2 + 1 y_35_ ^ 2 - 2 y_79_ * y_35_ + 1 y_79_ ^ 2 ] = 6500
c147: [ 1 x_65_ ^ 2 - 2 x_79_ * x_65_ + 1 x_79_ ^ 2 + 1 y_65_ ^ 2 - 2 y_79_ * y_65_ + 1 y_79_ ^ 2 ] = 14612
c148: [ 1 x_23_ ^ 2 - 2 x_80_ * x_23_ + 1 x_80_ ^ 2 + 1 y_23_ ^ 2 - 2 y_80_ * y_23_ + 1 y_80_ ^ 2 ] = 26577
c149: [ 1 x_54_ ^ 2 - 2 x_80_ * x_54_ + 1 x_80_ ^ 2 + 1 y_54_ ^ 2 - 2 y_80_ * y_54_ + 1 y_80_ ^ 2 ] = 15524
c150: [ 1 x_6_ ^ 2 - 2 x_81_ * x_6_ + 1 x_81_ ^ 2 + 1 y_6_ ^ 2 - 2 y_81_ * y_6_ + 1 y_81_ ^ 2 ] = 22394
c151: [ 1 x_73_ ^ 2 - 2 x_81_ * x_73_ + 1 x_81_ ^ 2 + 1 y_73_ ^ 2 - 2 y_81_ * y_73_ + 1 y_81_ ^ 2 ] = 40930
c152: [ 1 x_46_ ^ 2 - 2 x_82_ * x_46_ + 1 x_82_ ^ 2 + 1 y_46_ ^ 2 - 2 y_82_ * y_46_ + 1 y_82_ ^ 2 ] = 16605
c153: [ 1 x_71_ ^ 2 - 2 x_82_ * x_71_ + 1 x_82_ ^ 2 + 1 y_71_ ^ 2 - 2 y_82_ * y_71_ + 1 y_82_ ^ 2 ] = 656
c154: [ 1 x_10_ ^ 2 - 2 x_83_ * x_10_ + 1 x_83_ ^ 2 + 1 y_10_ ^ 2 - 2 y_83_ * y_10_ + 1 y_83_ ^ 2 ] = 1346
c155: [ 1 x_48_ ^ 2 - 2 x_83_ * x_48_ + 1 x_83_ ^ 2 + 1 y_48_ ^ 2 - 2 y_83_ * y_48_ + 1 y_83_ ^ 2 ] = 20313
c156: [ 1 x_68_ ^ 2 - 2 x_83_ * x_68_ + 1 x_83_ ^ 2 + 1 y_68_ ^ 2 - 2 y_83_ * y_68_ + 1 y_83_ ^ 2 ] = 13793
c157: [ 1 x_10_ ^ 2 - 2 x_84_ * x_10_ + 1 x_84_ ^ 2 + 1 y_10_ ^ 2 - 2 y_84_ * y_10_ + 1 y_84_ ^ 2 ] = 196
c158: [ 1 x_11_ ^ 2 - 2 x_84_ * x_11_ + 1 x_84_ ^ 2 + 1 y_11_ ^ 2 - 2 y_84_ * y_11_ + 1 y_84_ ^ 2 ] = 5629
c159: [ 1 x_13_ ^ 2 - 2 x_84_ * x_13_ + 1 x_84_ ^ 2 + 1 y_13_ ^ 2 - 2 y_84_ * y_13_ + 1 y_84_ ^ 2 ] = 25090
c160: [ 1 x_17_ ^ 2 - 2 x_85_ * x_17_ + 1 x_85_ ^ 2 + 1 y_17_ ^ 2 - 2 y_85_ * y_17_ + 1 y_85_ ^ 2 ] = 1997
c161: [ 1 x_71_ ^ 2 - 2 x_85_ * x_71_ + 1 x_85_ ^ 2 + 1 y_71_ ^ 2 - 2 y_85_ * y_71_ + 1 y_85_ ^ 2 ] = 6484
c162: [ 1 x_80_ ^ 2 - 2 x_85_ * x_80_ + 1 x_85_ ^ 2 + 1 y_80_ ^ 2 - 2 y_85_ * y_80_ + 1 y_85_ ^ 2 ] = 8424
c163: [ 1 x_6_ ^ 2 - 2 x_86_ * x_6_ + 1 x_86_ ^ 2 + 1 y_6_ ^ 2 - 2 y_86_ * y_6_ + 1 y_86_ ^ 2 ] = 2180
c164: [ 1 x_34_ ^ 2 - 2 x_86_ * x_34_ + 1 x_86_ ^ 2 + 1 y_34_ ^ 2 - 2 y_86_ * y_34_ + 1 y_86_ ^ 2 ] = 54541
c165: [ 1 x_61_ ^ 2 - 2 x_86_ * x_61_ + 1 x_86_ ^ 2 + 1 y_61_ ^ 2 - 2 y_86_ * y_61_ + 1 y_86_ ^ 2 ] = 44960
c166: [ 1 x_18_ ^ 2 - 2 x_87_ * x_18_ + 1 x_87_ ^ 2 + 1 y_18_ ^ 2 - 2 y_87_ * y_18_ + 1 y_87_ ^ 2 ] = 17748
c167: [ 1 x_20_ ^ 2 - 2 x_87_ * x_20_ + 1 x_87_ ^ 2 + 1 y_20_ ^ 2 - 2 y_87_ * y_20_ + 1 y_87_ ^ 2 ] = 3250
c168: [ 1 x_82_ ^ 2 - 2 x_87_ * x_82_ + 1 x_87_ ^ 2 + 1 y_82_ ^ 2 - 2 y_87_ * y_82_ + 1 y_87_ ^ 2 ] = 43380
c169: [ 1 x_4_ ^ 2 - 2 x_88_ * x_4_ + 1 x_88_ ^ 2 + 1 y_4_ ^ 2 - 2 y_88_ * y_4_ + 1 y_88_ ^ 2 ] = 8676
c170: [ 1 x_61_ ^ 2 - 2 x_88_ * x_61_ + 1 x_88_ ^ 2 + 1 y_61_ ^ 2 - 2 y_88_ * y_61_ + 1 y_88_ ^ 2 ] = 16381
c171: [ 1 x_76_ ^ 2 - 2 x_88_ * x_76_ + 1 x_88_ ^ 2 + 1 y_76_ ^ 2 - 2 y_88_ * y_76_ + 1 y_88_ ^ 2 ] = 1450
c172: [ 1 x_28_ ^ 2 - 2 x_89_ * x_28_ + 1 x_89_ ^ 2 + 1 y_28_ ^ 2 - 2 y_89_ * y_28_ + 1 y_89_ ^ 2 ] = 21554
c173: [ 1 x_57_ ^ 2 - 2 x_89_ * x_57_ + 1 x_89_ ^ 2 + 1 y_57_ ^ 2 - 2 y_89_ * y_57_ + 1 y_89_ ^ 2 ] = 26901
c174: [ 1 x_38_ ^ 2 - 2 x_90_ * x_38_ + 1 x_90_ ^ 2 + 1 y_38_ ^ 2 - 2 y_90_ * y_38_ + 1 y_90_ ^ 2 ] = 7281
c175: [ 1 x_59_ ^ 2 - 2 x_91_ * x_59_ + 1 x_91_ ^ 2 + 1 y_59_ ^ 2 - 2 y_91_ * y_59_ + 1 y_91_ ^ 2 ] = 5213
c176: [ 1 x_89_ ^ 2 - 2 x_91_ * x_89_ + 1 x_91_ ^ 2 + 1 y_89_ ^ 2 - 2 y_91_ * y_89_ + 1 y_91_ ^ 2 ] = 28418
c177: [ 1 x_70_ ^ 2 - 2 x_92_ * x_70_ + 1 x_92_ ^ 2 + 1 y_70_ ^ 2 - 2 y_92_ * y_70_ + 1 y_92_ ^ 2 ] = 21645
c178: [ 1 x_75_ ^ 2 - 2 x_92_ * x_75_ + 1 x_92_ ^ 2 + 1 y_75_ ^ 2 - 2 y_92_ * y_75_ + 1 y_92_ ^ 2 ] = 6617
c179: [ 1 x_44_ ^ 2 - 2 x_93_ * x_44_ + 1 x_93_ ^ 2 + 1 y_44_ ^ 2 - 2 y_93_ * y_44_ + 1 y_93_ ^ 2 ] = 20029
c180: [ 1 x_57_ ^ 2 - 2 x_93_ * x_57_ + 1 x_93_ ^ 2 + 1 y_57_ ^ 2 - 2 y_93_ * y_57_ + 1 y_93_ ^ 2 ] = 14209
c181: [ 1 x_11_ ^ 2 - 2 x_94_ * x_11_ + 1 x_94_ ^ 2 + 1 y_11_ ^ 2 - 2 y_94_ * y_11_ + 1 y_94_ ^ 2 ] = 4349
c182: [ 1 x_42_ ^ 2 - 2 x_94_ * x_42_ + 1 x_94_ ^ 2 + 1 y_42_ ^ 2 - 2 y_94_ * y_42_ + 1 y_94_ ^ 2 ] = 10985
c183: [ 1 x_24_ ^ 2 - 2 x_95_ * x_24_ + 1 x_95_ ^ 2 + 1 y_24_ ^ 2 - 2 y_95_ * y_24_ + 1 y_95_ ^ 2 ] = 16490
c184: [ 1 x_41_ ^ 2 - 2 x_95_ * x_41_ + 1 x_95_ ^ 2 + 1 y_41_ ^ 2 - 2 y_95_ * y_41_ + 1 y_95_ ^ 2 ] = 30629
c185: [ 1 x_54_ ^ 2 - 2 x_95_ * x_54_ + 1 x_95_ ^ 2 + 1 y_54_ ^ 2 - 2 y_95_ * y_54_ + 1 y_95_ ^ 2 ] = 490
c186: [ 1 x_19_ ^ 2 - 2 x_96_ * x_19_ + 1 x_96_ ^ 2 + 1 y_19_ ^ 2 - 2 y_96_ * y_19_ + 1 y_96_ ^ 2 ] = 19069
c187: [ 1 x_23_ ^ 2 - 2 x_96_ * x_23_ + 1 x_96_ ^ 2 + 1 y_23_ ^ 2 - 2 y_96_ * y_23_ + 1 y_96_ ^ 2 ] = 1261
c188: [ 1 x_90_ ^ 2 - 2 x_96_ * x_90_ + 1 x_96_ ^ 2 + 1 y_90_ ^ 2 - 2 y_96_ * y_90_ + 1 y_96_ ^ 2 ] = 9850
c189: [ 1 x_41_ ^ 2 - 2 x_97_ * x_41_ + 1 x_97_ ^ 2 + 1 y_41_ ^ 2 - 2 y_97_ * y_41_ + 1 y_97_ ^ 2 ] = 9077
c190: [ 1 x_47_ ^ 2 - 2 x_97_ * x_47_ + 1 x_97_ ^ 2 + 1 y_47_ ^ 2 - 2 y_97_ * y_47_ + 1 y_97_ ^ 2 ] = 24034
c191: [ 1 x_81_ ^ 2 - 2 x_97_ * x_81_ + 1 x_97_ ^ 2 + 1 y_81_ ^ 2 - 2 y_97_ * y_81_ + 1 y_97_ ^ 2 ] = 29930
c192: [ 1 x_78_ ^ 2 - 2 x_98_ * x_78_ + 1 x_98_ ^ 2 + 1 y_78_ ^ 2 - 2 y_98_ * y_78_ + 1 y_98_ ^ 2 ] = 20560
c193: [ 1 x_87_ ^ 2 - 2 x_98_ * x_87_ + 1 x_98_ ^ 2 + 1 y_87_ ^ 2 - 2 y_98_ * y_87_ + 1 y_98_ ^ 2 ] = 28496
c194: [ 1 x_46_ ^ 2 - 2 x_99_ * x_46_ + 1 x_99_ ^ 2 + 1 y_46_ ^ 2 - 2 y_99_ * y_46_ + 1 y_99_ ^ 2 ] = 925
c195: [ 1 x_48_ ^ 2 - 2 x_99_ * x_48_ + 1 x_99_ ^ 2 + 1 y_48_ ^ 2 - 2 y_99_ * y_48_ + 1 y_99_ ^ 2 ] = 4717
c196: [ 1 x_12_ ^ 2 - 2 x_100_ * x_12_ + 1 x_100_ ^ 2 + 1 y_12_ ^ 2 - 2 y_100_ * y_12_ + 1 y_100_ ^ 2 ] = 538
c197: [ 1 x_36_ ^ 2 - 2 x_100_ * x_36_ + 1 x_100_ ^ 2 + 1 y_36_ ^ 2 - 2 y_100_ * y_36_ + 1 y_100_ ^ 2 ] = 6676
Bounds
-160 <= x_1_ <= 160
-158 <= x_2_ <= 158
-18 <= x_3_ <= 18
-154 <= x_4_ <= 154
-118 <= x_5_ <= 118
-183 <= x_6_ <= 183
-111 <= x_7_ <= 111
-163 <= x_8_ <= 163
-202 <= x_9_ <= 202
-89 <= x_10_ <= 89
x_11_ = 0
-198 <= x_12_ <= 198
-233 <= x_13_ <= 233
-83 <= x_14_ <= 83
-170 <= x_15_ <= 170
-275 <= x_16_ <= 275
-129 <= x_17_ <= 129
-182 <= x_18_ <= 182
-106 <= x_19_ <= 106
-350 <= x_20_ <= 350
-184 <= x_21_ <= 184
-146 <= x_22_ <= 146
-163 <= x_23_ <= 163
-44 <= x_24_ <= 44
-161 <= x_25_ <= 161
-180 <= x_26_ <= 180
-261 <= x_27_ <= 261
-181 <= x_28_ <= 181
-142 <= x_29_ <= 142
-196 <= x_30_ <= 196
-152 <= x_31_ <= 152
-282 <= x_32_ <= 282
-237 <= x_33_ <= 237
-232 <= x_34_ <= 232
-95 <= x_35_ <= 95
-101 <= x_36_ <= 101
-264 <= x_37_ <= 264
-241 <= x_38_ <= 241
-234 <= x_39_ <= 234
-359 <= x_40_ <= 359
-259 <= x_41_ <= 259
-39 <= x_42_ <= 39
-219 <= x_43_ <= 219
-327 <= x_44_ <= 327
-342 <= x_45_ <= 342
-195 <= x_46_ <= 195
-306 <= x_47_ <= 306
-96 <= x_48_ <= 96
-261 <= x_49_ <= 261
-93 <= x_50_ <= 93
-204 <= x_51_ <= 204
-101 <= x_52_ <= 101
-338 <= x_53_ <= 338
-195 <= x_54_ <= 195
-221 <= x_55_ <= 221
-137 <= x_56_ <= 137
-233 <= x_57_ <= 233
-267 <= x_58_ <= 267
-274 <= x_59_ <= 274
-229 <= x_60_ <= 229
-166 <= x_61_ <= 166
-113 <= x_62_ <= 113
-290 <= x_63_ <= 290
-216 <= x_64_ <= 216
-234 <= x_65_ <= 234
-97 <= x_66_ <= 97
-296 <= x_67_ <= 296
-149 <= x_68_ <= 149
-172 <= x_69_ <= 172
-285 <= x_70_ <= 285
-218 <= x_71_ <= 218
-126 <= x_72_ <= 126
-159 <= x_73_ <= 159
-167 <= x_74_ <= 167
-276 <= x_75_ <= 276
-209 <= x_76_ <= 209
-239 <= x_77_ <= 239
-117 <= x_78_ <= 117
-176 <= x_79_ <= 176
-266 <= x_80_ <= 266
-333 <= x_81_ <= 333
-243 <= x_82_ <= 243
-125 <= x_83_ <= 125
-75 <= x_84_ <= 75
-174 <= x_85_ <= 174
-230 <= x_86_ <= 230
-315 <= x_87_ <= 315
-247 <= x_88_ <= 247
-328 <= x_89_ <= 328
-298 <= x_90_ <= 298
-346 <= x_91_ <= 346
-357 <= x_92_ <= 357
-352 <= x_93_ <= 352
-65 <= x_94_ <= 65
-173 <= x_95_ <= 173
-199 <= x_96_ <= 199
-355 <= x_97_ <= 355
-260 <= x_98_ <= 260
-164 <= x_99_ <= 164
-183 <= x_100_ <= 183
-160 <= y_1_ <= 160
-158 <= y_2_ <= 158
-18 <= y_3_ <= 18
-154 <= y_4_ <= 154
-118 <= y_5_ <= 118
-183 <= y_6_ <= 183
-111 <= y_7_ <= 111
-163 <= y_8_ <= 163
-202 <= y_9_ <= 202
-89 <= y_10_ <= 89
y_11_ = 0
-198 <= y_12_ <= 198
-233 <= y_13_ <= 233
-83 <= y_14_ <= 83
-170 <= y_15_ <= 170
-275 <= y_16_ <= 275
-129 <= y_17_ <= 129
-182 <= y_18_ <= 182
-106 <= y_19_ <= 106
-350 <= y_20_ <= 350
-184 <= y_21_ <= 184
-146 <= y_22_ <= 146
-163 <= y_23_ <= 163
-44 <= y_24_ <= 44
-161 <= y_25_ <= 161
-180 <= y_26_ <= 180
-261 <= y_27_ <= 261
-181 <= y_28_ <= 181
-142 <= y_29_ <= 142
-196 <= y_30_ <= 196
-152 <= y_31_ <= 152
-282 <= y_32_ <= 282
-237 <= y_33_ <= 237
-232 <= y_34_ <= 232
-95 <= y_35_ <= 95
-101 <= y_36_ <= 101
-264 <= y_37_ <= 264
-241 <= y_38_ <= 241
-234 <= y_39_ <= 234
-359 <= y_40_ <= 359
-259 <= y_41_ <= 259
-39 <= y_42_ <= 39
-219 <= y_43_ <= 219
-327 <= y_44_ <= 327
-342 <= y_45_ <= 342
-195 <= y_46_ <= 195
-306 <= y_47_ <= 306
-96 <= y_48_ <= 96
-261 <= y_49_ <= 261
-93 <= y_50_ <= 93
-204 <= y_51_ <= 204
-101 <= y_52_ <= 101
-338 <= y_53_ <= 338
-195 <= y_54_ <= 195
-221 <= y_55_ <= 221
-137 <= y_56_ <= 137
-233 <= y_57_ <= 233
-267 <= y_58_ <= 267
-274 <= y_59_ <= 274
-229 <= y_60_ <= 229
-166 <= y_61_ <= 166
-113 <= y_62_ <= 113
-290 <= y_63_ <= 290
-216 <= y_64_ <= 216
-234 <= y_65_ <= 234
-97 <= y_66_ <= 97
-296 <= y_67_ <= 296
-149 <= y_68_ <= 149
-172 <= y_69_ <= 172
-285 <= y_70_ <= 285
-218 <= y_71_ <= 218
-126 <= y_72_ <= 126
-159 <= y_73_ <= 159
-167 <= y_74_ <= 167
-276 <= y_75_ <= 276
-209 <= y_76_ <= 209
-239 <= y_77_ <= 239
-117 <= y_78_ <= 117
-176 <= y_79_ <= 176
-266 <= y_80_ <= 266
-333 <= y_81_ <= 333
-243 <= y_82_ <= 243
-125 <= y_83_ <= 125
-75 <= y_84_ <= 75
-174 <= y_85_ <= 174
-230 <= y_86_ <= 230
-315 <= y_87_ <= 315
-247 <= y_88_ <= 247
-328 <= y_89_ <= 328
-298 <= y_90_ <= 298
-346 <= y_91_ <= 346
-357 <= y_92_ <= 357
-352 <= y_93_ <= 352
-65 <= y_94_ <= 65
-173 <= y_95_ <= 173
-199 <= y_96_ <= 199
-355 <= y_97_ <= 355
-260 <= y_98_ <= 260
-164 <= y_99_ <= 164
-183 <= y_100_ <= 183
General
x_1_
x_2_
x_3_
x_4_
x_5_
x_6_
x_7_
x_8_
x_9_
x_10_
x_11_
x_12_
x_13_
x_14_
x_15_
x_16_
x_17_
x_18_
x_19_
x_20_
x_21_
x_22_
x_23_
x_24_
x_25_
x_26_
x_27_
x_28_
x_29_
x_30_
x_31_
x_32_
x_33_
x_34_
x_35_
x_36_
x_37_
x_38_
x_39_
x_40_
x_41_
x_42_
x_43_
x_44_
x_45_
x_46_
x_47_
x_48_
x_49_
x_50_
x_51_
x_52_
x_53_
x_54_
x_55_
x_56_
x_57_
x_58_
x_59_
x_60_
x_61_
x_62_
x_63_
x_64_
x_65_
x_66_
x_67_
x_68_
x_69_
x_70_
x_71_
x_72_
x_73_
x_74_
x_75_
x_76_
x_77_
x_78_
x_79_
x_80_
x_81_
x_82_
x_83_
x_84_
x_85_
x_86_
x_87_
x_88_
x_89_
x_90_
x_91_
x_92_
x_93_
x_94_
x_95_
x_96_
x_97_
x_98_
x_99_
x_100_
y_1_
y_2_
y_3_
y_4_
y_5_
y_6_
y_7_
y_8_
y_9_
y_10_
y_11_
y_12_
y_13_
y_14_
y_15_
y_16_
y_17_
y_18_
y_19_
y_20_
y_21_
y_22_
y_23_
y_24_
y_25_
y_26_
y_27_
y_28_
y_29_
y_30_
y_31_
y_32_
y_33_
y_34_
y_35_
y_36_
y_37_
y_38_
y_39_
y_40_
y_41_
y_42_
y_43_
y_44_
y_45_
y_46_
y_47_
y_48_
y_49_
y_50_
y_51_
y_52_
y_53_
y_54_
y_55_
y_56_
y_57_
y_58_
y_59_
y_60_
y_61_
y_62_
y_63_
y_64_
y_65_
y_66_
y_67_
y_68_
y_69_
y_70_
y_71_
y_72_
y_73_
y_74_
y_75_
y_76_
y_77_
y_78_
y_79_
y_80_
y_81_
y_82_
y_83_
y_84_
y_85_
y_86_
y_87_
y_88_
y_89_
y_90_
y_91_
y_92_
y_93_
y_94_
y_95_
y_96_
y_97_
y_98_
y_99_
y_100_
End
