minimize
obj: 
subject to
c1_4: -1 x_28_ + 1 y_28_ <= 0
c1_1: [ 1 x_1_ ^ 2 + 1 y_1_ ^ 2 ] <= 21101
c2_1: [ 1 x_2_ ^ 2 + 1 y_2_ ^ 2 ] <= 12020
c3_1: [ 1 x_3_ ^ 2 + 1 y_3_ ^ 2 ] <= 53997
c4_1: [ 1 x_4_ ^ 2 + 1 y_4_ ^ 2 ] <= 57080
c5_1: [ 1 x_5_ ^ 2 + 1 y_5_ ^ 2 ] <= 28695
c6_1: [ 1 x_6_ ^ 2 + 1 y_6_ ^ 2 ] <= 9061
c7_1: [ 1 x_8_ ^ 2 + 1 y_8_ ^ 2 ] <= 75228
c8_1: [ 1 x_9_ ^ 2 + 1 y_9_ ^ 2 ] <= 31753
c9_1: [ 1 x_10_ ^ 2 + 1 y_10_ ^ 2 ] <= 26998
c10_1: [ 1 x_11_ ^ 2 + 1 y_11_ ^ 2 ] <= 111262
c11_1: [ 1 x_12_ ^ 2 + 1 y_12_ ^ 2 ] <= 83904
c12_1: [ 1 x_13_ ^ 2 + 1 y_13_ ^ 2 ] <= 81234
c13_1: [ 1 x_14_ ^ 2 + 1 y_14_ ^ 2 ] <= 9650
c14_1: [ 1 x_15_ ^ 2 + 1 y_15_ ^ 2 ] <= 2482
c15_1: [ 1 x_16_ ^ 2 + 1 y_16_ ^ 2 ] <= 25629
c16_1: [ 1 x_17_ ^ 2 + 1 y_17_ ^ 2 ] <= 3399
c17_1: [ 1 x_18_ ^ 2 + 1 y_18_ ^ 2 ] <= 73423
c18_1: [ 1 x_19_ ^ 2 + 1 y_19_ ^ 2 ] <= 34339
c19_1: [ 1 x_20_ ^ 2 + 1 y_20_ ^ 2 ] <= 70609
c20_1: [ 1 x_21_ ^ 2 + 1 y_21_ ^ 2 ] <= 52800
c21_1: [ 1 x_22_ ^ 2 + 1 y_22_ ^ 2 ] <= 13309
c22_1: [ 1 x_23_ ^ 2 + 1 y_23_ ^ 2 ] <= 6566
c23_1: [ 1 x_24_ ^ 2 + 1 y_24_ ^ 2 ] <= 23452
c24_1: [ 1 x_25_ ^ 2 + 1 y_25_ ^ 2 ] <= 22633
c25_1: [ 1 x_26_ ^ 2 + 1 y_26_ ^ 2 ] <= 18525
c26_1: [ 1 x_27_ ^ 2 + 1 y_27_ ^ 2 ] <= 83899
c27_1: [ 1 x_28_ ^ 2 + 1 y_28_ ^ 2 ] <= 167245
c28_1: [ 1 x_29_ ^ 2 + 1 y_29_ ^ 2 ] <= 36267
c29_1: [ 1 x_30_ ^ 2 + 1 y_30_ ^ 2 ] <= 45565
c30_1: [ 1 x_31_ ^ 2 + 1 y_31_ ^ 2 ] <= 59377
c31_1: [ 1 x_32_ ^ 2 + 1 y_32_ ^ 2 ] <= 31965
c32_1: [ 1 x_33_ ^ 2 + 1 y_33_ ^ 2 ] <= 37385
c33_1: [ 1 x_34_ ^ 2 + 1 y_34_ ^ 2 ] <= 9549
c34_1: [ 1 x_35_ ^ 2 + 1 y_35_ ^ 2 ] <= 37516
c35_1: [ 1 x_36_ ^ 2 + 1 y_36_ ^ 2 ] <= 70029
c36_1: [ 1 x_37_ ^ 2 + 1 y_37_ ^ 2 ] <= 35533
c37_1: [ 1 x_38_ ^ 2 + 1 y_38_ ^ 2 ] <= 31446
c38_1: [ 1 x_39_ ^ 2 + 1 y_39_ ^ 2 ] <= 11947
c39_1: [ 1 x_40_ ^ 2 + 1 y_40_ ^ 2 ] <= 17947
c40_1: [ 1 x_41_ ^ 2 + 1 y_41_ ^ 2 ] <= 103499
c41_1: [ 1 x_42_ ^ 2 + 1 y_42_ ^ 2 ] <= 52797
c42_1: [ 1 x_43_ ^ 2 + 1 y_43_ ^ 2 ] <= 94253
c43_1: [ 1 x_44_ ^ 2 + 1 y_44_ ^ 2 ] <= 89370
c44_1: [ 1 x_45_ ^ 2 + 1 y_45_ ^ 2 ] <= 52000
c45_1: [ 1 x_46_ ^ 2 + 1 y_46_ ^ 2 ] <= 80406
c46_1: [ 1 x_47_ ^ 2 + 1 y_47_ ^ 2 ] <= 16988
c47_1: [ 1 x_48_ ^ 2 + 1 y_48_ ^ 2 ] <= 25675
c48_1: [ 1 x_49_ ^ 2 + 1 y_49_ ^ 2 ] <= 9865
c49_1: [ 1 x_50_ ^ 2 + 1 y_50_ ^ 2 ] <= 25040
c50_1: [ 1 x_51_ ^ 2 + 1 y_51_ ^ 2 ] <= 26766
c51_1: [ 1 x_52_ ^ 2 + 1 y_52_ ^ 2 ] <= 70991
c52_1: [ 1 x_53_ ^ 2 + 1 y_53_ ^ 2 ] <= 3725
c53_1: [ 1 x_54_ ^ 2 + 1 y_54_ ^ 2 ] <= 105977
c54_1: [ 1 x_55_ ^ 2 + 1 y_55_ ^ 2 ] <= 28272
c55_1: [ 1 x_56_ ^ 2 + 1 y_56_ ^ 2 ] <= 104670
c56_1: [ 1 x_57_ ^ 2 + 1 y_57_ ^ 2 ] <= 12755
c57_1: [ 1 x_58_ ^ 2 + 1 y_58_ ^ 2 ] <= 58480
c58_1: [ 1 x_59_ ^ 2 + 1 y_59_ ^ 2 ] <= 100706
c59_1: [ 1 x_60_ ^ 2 + 1 y_60_ ^ 2 ] <= 124300
c60_1: [ 1 x_61_ ^ 2 + 1 y_61_ ^ 2 ] <= 79385
c61_1: [ 1 x_62_ ^ 2 + 1 y_62_ ^ 2 ] <= 18837
c62_1: [ 1 x_63_ ^ 2 + 1 y_63_ ^ 2 ] <= 72497
c63_1: [ 1 x_64_ ^ 2 + 1 y_64_ ^ 2 ] <= 8281
c64_1: [ 1 x_65_ ^ 2 + 1 y_65_ ^ 2 ] <= 48353
c65_1: [ 1 x_66_ ^ 2 + 1 y_66_ ^ 2 ] <= 8194
c66_1: [ 1 x_67_ ^ 2 + 1 y_67_ ^ 2 ] <= 3865
c67_1: [ 1 x_68_ ^ 2 + 1 y_68_ ^ 2 ] <= 92440
c68_1: [ 1 x_69_ ^ 2 + 1 y_69_ ^ 2 ] <= 46611
c69_1: [ 1 x_70_ ^ 2 + 1 y_70_ ^ 2 ] <= 72248
c70_1: [ 1 x_71_ ^ 2 + 1 y_71_ ^ 2 ] <= 82374
c71_1: [ 1 x_72_ ^ 2 + 1 y_72_ ^ 2 ] <= 113898
c72_1: [ 1 x_73_ ^ 2 + 1 y_73_ ^ 2 ] <= 69538
c73_1: [ 1 x_74_ ^ 2 + 1 y_74_ ^ 2 ] <= 156780
c74_1: [ 1 x_75_ ^ 2 + 1 y_75_ ^ 2 ] <= 63099
c75_1: [ 1 x_76_ ^ 2 + 1 y_76_ ^ 2 ] <= 16377
c76_1: [ 1 x_77_ ^ 2 + 1 y_77_ ^ 2 ] <= 38162
c77_1: [ 1 x_78_ ^ 2 + 1 y_78_ ^ 2 ] <= 45126
c78_1: [ 1 x_79_ ^ 2 + 1 y_79_ ^ 2 ] <= 15940
c79_1: [ 1 x_80_ ^ 2 + 1 y_80_ ^ 2 ] <= 100466
c80_1: [ 1 x_81_ ^ 2 + 1 y_81_ ^ 2 ] <= 43958
c81_1: [ 1 x_82_ ^ 2 + 1 y_82_ ^ 2 ] <= 121478
c82_1: [ 1 x_83_ ^ 2 + 1 y_83_ ^ 2 ] <= 13983
c83_1: [ 1 x_84_ ^ 2 + 1 y_84_ ^ 2 ] <= 48532
c84_1: [ 1 x_85_ ^ 2 + 1 y_85_ ^ 2 ] <= 71320
c85_1: [ 1 x_86_ ^ 2 + 1 y_86_ ^ 2 ] <= 70481
c86_1: [ 1 x_87_ ^ 2 + 1 y_87_ ^ 2 ] <= 77175
c87_1: [ 1 x_88_ ^ 2 + 1 y_88_ ^ 2 ] <= 57931
c88_1: [ 1 x_89_ ^ 2 + 1 y_89_ ^ 2 ] <= 28856
c89_1: [ 1 x_90_ ^ 2 + 1 y_90_ ^ 2 ] <= 55669
c90_1: [ 1 x_91_ ^ 2 + 1 y_91_ ^ 2 ] <= 63369
c91_1: [ 1 x_92_ ^ 2 + 1 y_92_ ^ 2 ] <= 54838
c92_1: [ 1 x_93_ ^ 2 + 1 y_93_ ^ 2 ] <= 133397
c93_1: [ 1 x_94_ ^ 2 + 1 y_94_ ^ 2 ] <= 51604
c94_1: [ 1 x_95_ ^ 2 + 1 y_95_ ^ 2 ] <= 63455
c95_1: [ 1 x_96_ ^ 2 + 1 y_96_ ^ 2 ] <= 8002
c96_1: [ 1 x_97_ ^ 2 + 1 y_97_ ^ 2 ] <= 36558
c97_1: [ 1 x_98_ ^ 2 + 1 y_98_ ^ 2 ] <= 118043
c98_1: [ 1 x_99_ ^ 2 + 1 y_99_ ^ 2 ] <= 18387
c99_1: [ 1 x_100_ ^ 2 + 1 y_100_ ^ 2 ] <= 65794
c1_3: 1 x_28_ >= 0
c2_3: 1 y_28_ >= 0
c1_2: 1 x_7_ = 0
c2_2: 1 y_7_ = 0
c1: [ 1 x_1_ ^ 2 - 2 x_4_ * x_1_ + 1 x_4_ ^ 2 + 1 y_1_ ^ 2 - 2 y_4_ * y_1_ + 1 y_4_ ^ 2 ] = 12394
c2: [ 1 x_3_ ^ 2 - 2 x_5_ * x_3_ + 1 x_5_ ^ 2 + 1 y_3_ ^ 2 - 2 y_5_ * y_3_ + 1 y_5_ ^ 2 ] = 7225
c3: [ 1 x_3_ ^ 2 - 2 x_6_ * x_3_ + 1 x_6_ ^ 2 + 1 y_3_ ^ 2 - 2 y_6_ * y_3_ + 1 y_6_ ^ 2 ] = 20345
c4: [ 1 x_6_ ^ 2 - 2 x_7_ * x_6_ + 1 x_7_ ^ 2 + 1 y_6_ ^ 2 - 2 y_7_ * y_6_ + 1 y_7_ ^ 2 ] = 9061
c5: [ 1 x_8_ ^ 2 - 2 x_9_ * x_8_ + 1 x_9_ ^ 2 + 1 y_8_ ^ 2 - 2 y_9_ * y_8_ + 1 y_9_ ^ 2 ] = 9232
c6: [ 1 x_6_ ^ 2 - 2 x_10_ * x_6_ + 1 x_10_ ^ 2 + 1 y_6_ ^ 2 - 2 y_10_ * y_6_ + 1 y_10_ ^ 2 ] = 11986
c7: [ 1 x_2_ ^ 2 - 2 x_12_ * x_2_ + 1 x_12_ ^ 2 + 1 y_2_ ^ 2 - 2 y_12_ * y_2_ + 1 y_12_ ^ 2 ] = 32409
c8: [ 1 x_4_ ^ 2 - 2 x_12_ * x_4_ + 1 x_12_ ^ 2 + 1 y_4_ ^ 2 - 2 y_12_ * y_4_ + 1 y_12_ ^ 2 ] = 3250
c9: [ 1 x_2_ ^ 2 - 2 x_13_ * x_2_ + 1 x_13_ ^ 2 + 1 y_2_ ^ 2 - 2 y_13_ * y_2_ + 1 y_13_ ^ 2 ] = 33962
c10: [ 1 x_4_ ^ 2 - 2 x_13_ * x_4_ + 1 x_13_ ^ 2 + 1 y_4_ ^ 2 - 2 y_13_ * y_4_ + 1 y_13_ ^ 2 ] = 17225
c11: [ 1 x_2_ ^ 2 - 2 x_14_ * x_2_ + 1 x_14_ ^ 2 + 1 y_2_ ^ 2 - 2 y_14_ * y_2_ + 1 y_14_ ^ 2 ] = 130
c12: [ 1 x_7_ ^ 2 - 2 x_14_ * x_7_ + 1 x_14_ ^ 2 + 1 y_7_ ^ 2 - 2 y_14_ * y_7_ + 1 y_14_ ^ 2 ] = 9650
c13: [ 1 x_1_ ^ 2 - 2 x_15_ * x_1_ + 1 x_15_ ^ 2 + 1 y_1_ ^ 2 - 2 y_15_ * y_1_ + 1 y_15_ ^ 2 ] = 9109
c14: [ 1 x_7_ ^ 2 - 2 x_15_ * x_7_ + 1 x_15_ ^ 2 + 1 y_7_ ^ 2 - 2 y_15_ * y_7_ + 1 y_15_ ^ 2 ] = 2482
c15: [ 1 x_6_ ^ 2 - 2 x_16_ * x_6_ + 1 x_16_ ^ 2 + 1 y_6_ ^ 2 - 2 y_16_ * y_6_ + 1 y_16_ ^ 2 ] = 4212
c16: [ 1 x_8_ ^ 2 - 2 x_16_ * x_8_ + 1 x_16_ ^ 2 + 1 y_8_ ^ 2 - 2 y_16_ * y_8_ + 1 y_16_ ^ 2 ] = 59330
c17: [ 1 x_10_ ^ 2 - 2 x_17_ * x_10_ + 1 x_17_ ^ 2 + 1 y_10_ ^ 2 - 2 y_17_ * y_10_ + 1 y_17_ ^ 2 ] = 11237
c18: [ 1 x_15_ ^ 2 - 2 x_17_ * x_15_ + 1 x_17_ ^ 2 + 1 y_15_ ^ 2 - 2 y_17_ * y_15_ + 1 y_17_ ^ 2 ] = 72
c19: [ 1 x_1_ ^ 2 - 2 x_19_ * x_1_ + 1 x_19_ ^ 2 + 1 y_1_ ^ 2 - 2 y_19_ * y_1_ + 1 y_19_ ^ 2 ] = 2704
c20: [ 1 x_3_ ^ 2 - 2 x_19_ * x_3_ + 1 x_19_ ^ 2 + 1 y_3_ ^ 2 - 2 y_19_ * y_3_ + 1 y_19_ ^ 2 ] = 13141
c21: [ 1 x_18_ ^ 2 - 2 x_20_ * x_18_ + 1 x_20_ ^ 2 + 1 y_18_ ^ 2 - 2 y_20_ * y_18_ + 1 y_20_ ^ 2 ] = 9529
c22: [ 1 x_8_ ^ 2 - 2 x_21_ * x_8_ + 1 x_21_ ^ 2 + 1 y_8_ ^ 2 - 2 y_21_ * y_8_ + 1 y_21_ ^ 2 ] = 32050
c23: [ 1 x_11_ ^ 2 - 2 x_21_ * x_11_ + 1 x_21_ ^ 2 + 1 y_11_ ^ 2 - 2 y_21_ * y_11_ + 1 y_21_ ^ 2 ] = 14645
c24: [ 1 x_14_ ^ 2 - 2 x_21_ * x_14_ + 1 x_21_ ^ 2 + 1 y_14_ ^ 2 - 2 y_21_ * y_14_ + 1 y_21_ ^ 2 ] = 17305
c25: [ 1 x_7_ ^ 2 - 2 x_22_ * x_7_ + 1 x_22_ ^ 2 + 1 y_7_ ^ 2 - 2 y_22_ * y_7_ + 1 y_22_ ^ 2 ] = 13309
c26: [ 1 x_10_ ^ 2 - 2 x_22_ * x_10_ + 1 x_22_ ^ 2 + 1 y_10_ ^ 2 - 2 y_22_ * y_10_ + 1 y_22_ ^ 2 ] = 6632
c27: [ 1 x_5_ ^ 2 - 2 x_23_ * x_5_ + 1 x_23_ ^ 2 + 1 y_5_ ^ 2 - 2 y_23_ * y_5_ + 1 y_23_ ^ 2 ] = 7808
c28: [ 1 x_10_ ^ 2 - 2 x_23_ * x_10_ + 1 x_23_ ^ 2 + 1 y_10_ ^ 2 - 2 y_23_ * y_10_ + 1 y_23_ ^ 2 ] = 12932
c29: [ 1 x_8_ ^ 2 - 2 x_24_ * x_8_ + 1 x_24_ ^ 2 + 1 y_8_ ^ 2 - 2 y_24_ * y_8_ + 1 y_24_ ^ 2 ] = 20610
c30: [ 1 x_17_ ^ 2 - 2 x_24_ * x_17_ + 1 x_24_ ^ 2 + 1 y_17_ ^ 2 - 2 y_24_ * y_17_ + 1 y_24_ ^ 2 ] = 12473
c31: [ 1 x_9_ ^ 2 - 2 x_25_ * x_9_ + 1 x_25_ ^ 2 + 1 y_9_ ^ 2 - 2 y_25_ * y_9_ + 1 y_25_ ^ 2 ] = 13649
c32: [ 1 x_6_ ^ 2 - 2 x_26_ * x_6_ + 1 x_26_ ^ 2 + 1 y_6_ ^ 2 - 2 y_26_ * y_6_ + 1 y_26_ ^ 2 ] = 17705
c33: [ 1 x_9_ ^ 2 - 2 x_26_ * x_9_ + 1 x_26_ ^ 2 + 1 y_9_ ^ 2 - 2 y_26_ * y_9_ + 1 y_26_ ^ 2 ] = 11241
c34: [ 1 x_23_ ^ 2 - 2 x_26_ * x_23_ + 1 x_26_ ^ 2 + 1 y_23_ ^ 2 - 2 y_26_ * y_23_ + 1 y_26_ ^ 2 ] = 3033
c35: [ 1 x_3_ ^ 2 - 2 x_27_ * x_3_ + 1 x_27_ ^ 2 + 1 y_3_ ^ 2 - 2 y_27_ * y_3_ + 1 y_27_ ^ 2 ] = 25364
c36: [ 1 x_13_ ^ 2 - 2 x_28_ * x_13_ + 1 x_28_ ^ 2 + 1 y_13_ ^ 2 - 2 y_28_ * y_13_ + 1 y_28_ ^ 2 ] = 15361
c37: [ 1 x_1_ ^ 2 - 2 x_29_ * x_1_ + 1 x_29_ ^ 2 + 1 y_1_ ^ 2 - 2 y_29_ * y_1_ + 1 y_29_ ^ 2 ] = 2041
c38: [ 1 x_2_ ^ 2 - 2 x_29_ * x_2_ + 1 x_29_ ^ 2 + 1 y_2_ ^ 2 - 2 y_29_ * y_2_ + 1 y_29_ ^ 2 ] = 47504
c39: [ 1 x_20_ ^ 2 - 2 x_29_ * x_20_ + 1 x_29_ ^ 2 + 1 y_20_ ^ 2 - 2 y_29_ * y_20_ + 1 y_29_ ^ 2 ] = 5668
c40: [ 1 x_6_ ^ 2 - 2 x_30_ * x_6_ + 1 x_30_ ^ 2 + 1 y_6_ ^ 2 - 2 y_30_ * y_6_ + 1 y_30_ ^ 2 ] = 13988
c41: [ 1 x_26_ ^ 2 - 2 x_30_ * x_26_ + 1 x_30_ ^ 2 + 1 y_26_ ^ 2 - 2 y_30_ * y_26_ + 1 y_30_ ^ 2 ] = 8477
c42: [ 1 x_3_ ^ 2 - 2 x_31_ * x_3_ + 1 x_31_ ^ 2 + 1 y_3_ ^ 2 - 2 y_31_ * y_3_ + 1 y_31_ ^ 2 ] = 2017
c43: [ 1 x_6_ ^ 2 - 2 x_31_ * x_6_ + 1 x_31_ ^ 2 + 1 y_6_ ^ 2 - 2 y_31_ * y_6_ + 1 y_31_ ^ 2 ] = 22048
c44: [ 1 x_12_ ^ 2 - 2 x_31_ * x_12_ + 1 x_31_ ^ 2 + 1 y_12_ ^ 2 - 2 y_31_ * y_12_ + 1 y_31_ ^ 2 ] = 17026
c45: [ 1 x_1_ ^ 2 - 2 x_32_ * x_1_ + 1 x_32_ ^ 2 + 1 y_1_ ^ 2 - 2 y_32_ * y_1_ + 1 y_32_ ^ 2 ] = 1124
c46: [ 1 x_22_ ^ 2 - 2 x_33_ * x_22_ + 1 x_33_ ^ 2 + 1 y_22_ ^ 2 - 2 y_33_ * y_22_ + 1 y_33_ ^ 2 ] = 6082
c47: [ 1 x_32_ ^ 2 - 2 x_33_ * x_32_ + 1 x_33_ ^ 2 + 1 y_32_ ^ 2 - 2 y_33_ * y_32_ + 1 y_33_ ^ 2 ] = 2474
c48: [ 1 x_2_ ^ 2 - 2 x_34_ * x_2_ + 1 x_34_ ^ 2 + 1 y_2_ ^ 2 - 2 y_34_ * y_2_ + 1 y_34_ ^ 2 ] = 17797
c49: [ 1 x_7_ ^ 2 - 2 x_34_ * x_7_ + 1 x_34_ ^ 2 + 1 y_7_ ^ 2 - 2 y_34_ * y_7_ + 1 y_34_ ^ 2 ] = 9549
c50: [ 1 x_23_ ^ 2 - 2 x_34_ * x_23_ + 1 x_34_ ^ 2 + 1 y_23_ ^ 2 - 2 y_34_ * y_23_ + 1 y_34_ ^ 2 ] = 12484
c51: [ 1 x_2_ ^ 2 - 2 x_35_ * x_2_ + 1 x_35_ ^ 2 + 1 y_2_ ^ 2 - 2 y_35_ * y_2_ + 1 y_35_ ^ 2 ] = 7065
c52: [ 1 x_9_ ^ 2 - 2 x_35_ * x_9_ + 1 x_35_ ^ 2 + 1 y_9_ ^ 2 - 2 y_35_ * y_9_ + 1 y_35_ ^ 2 ] = 13828
c53: [ 1 x_27_ ^ 2 - 2 x_35_ * x_27_ + 1 x_35_ ^ 2 + 1 y_27_ ^ 2 - 2 y_35_ * y_27_ + 1 y_35_ ^ 2 ] = 9209
c54: [ 1 x_11_ ^ 2 - 2 x_36_ * x_11_ + 1 x_36_ ^ 2 + 1 y_11_ ^ 2 - 2 y_36_ * y_11_ + 1 y_36_ ^ 2 ] = 20225
c55: [ 1 x_12_ ^ 2 - 2 x_36_ * x_12_ + 1 x_36_ ^ 2 + 1 y_12_ ^ 2 - 2 y_36_ * y_12_ + 1 y_36_ ^ 2 ] = 11492
c56: [ 1 x_29_ ^ 2 - 2 x_37_ * x_29_ + 1 x_37_ ^ 2 + 1 y_29_ ^ 2 - 2 y_37_ * y_29_ + 1 y_37_ ^ 2 ] = 1360
c57: [ 1 x_18_ ^ 2 - 2 x_38_ * x_18_ + 1 x_38_ ^ 2 + 1 y_18_ ^ 2 - 2 y_38_ * y_18_ + 1 y_38_ ^ 2 ] = 21960
c58: [ 1 x_34_ ^ 2 - 2 x_38_ * x_34_ + 1 x_38_ ^ 2 + 1 y_34_ ^ 2 - 2 y_38_ * y_34_ + 1 y_38_ ^ 2 ] = 6338
c59: [ 1 x_14_ ^ 2 - 2 x_39_ * x_14_ + 1 x_39_ ^ 2 + 1 y_14_ ^ 2 - 2 y_39_ * y_14_ + 1 y_39_ ^ 2 ] = 5330
c60: [ 1 x_15_ ^ 2 - 2 x_39_ * x_15_ + 1 x_39_ ^ 2 + 1 y_15_ ^ 2 - 2 y_39_ * y_15_ + 1 y_39_ ^ 2 ] = 3538
c61: [ 1 x_19_ ^ 2 - 2 x_39_ * x_19_ + 1 x_39_ ^ 2 + 1 y_19_ ^ 2 - 2 y_39_ * y_19_ + 1 y_39_ ^ 2 ] = 5777
c62: [ 1 x_17_ ^ 2 - 2 x_40_ * x_17_ + 1 x_40_ ^ 2 + 1 y_17_ ^ 2 - 2 y_40_ * y_17_ + 1 y_40_ ^ 2 ] = 7213
c63: [ 1 x_34_ ^ 2 - 2 x_40_ * x_34_ + 1 x_40_ ^ 2 + 1 y_34_ ^ 2 - 2 y_40_ * y_34_ + 1 y_40_ ^ 2 ] = 1314
c64: [ 1 x_8_ ^ 2 - 2 x_41_ * x_8_ + 1 x_41_ ^ 2 + 1 y_8_ ^ 2 - 2 y_41_ * y_8_ + 1 y_41_ ^ 2 ] = 40834
c65: [ 1 x_25_ ^ 2 - 2 x_41_ * x_25_ + 1 x_41_ ^ 2 + 1 y_25_ ^ 2 - 2 y_41_ * y_25_ + 1 y_41_ ^ 2 ] = 29333
c66: [ 1 x_4_ ^ 2 - 2 x_42_ * x_4_ + 1 x_42_ ^ 2 + 1 y_4_ ^ 2 - 2 y_42_ * y_4_ + 1 y_42_ ^ 2 ] = 16893
c67: [ 1 x_3_ ^ 2 - 2 x_43_ * x_3_ + 1 x_43_ ^ 2 + 1 y_3_ ^ 2 - 2 y_43_ * y_3_ + 1 y_43_ ^ 2 ] = 5570
c68: [ 1 x_18_ ^ 2 - 2 x_43_ * x_18_ + 1 x_43_ ^ 2 + 1 y_18_ ^ 2 - 2 y_43_ * y_18_ + 1 y_43_ ^ 2 ] = 2129
c69: [ 1 x_4_ ^ 2 - 2 x_44_ * x_4_ + 1 x_44_ ^ 2 + 1 y_4_ ^ 2 - 2 y_44_ * y_4_ + 1 y_44_ ^ 2 ] = 3604
c70: [ 1 x_41_ ^ 2 - 2 x_44_ * x_41_ + 1 x_44_ ^ 2 + 1 y_41_ ^ 2 - 2 y_44_ * y_41_ + 1 y_44_ ^ 2 ] = 21800
c71: [ 1 x_8_ ^ 2 - 2 x_45_ * x_8_ + 1 x_45_ ^ 2 + 1 y_8_ ^ 2 - 2 y_45_ * y_8_ + 1 y_45_ ^ 2 ] = 31781
c72: [ 1 x_11_ ^ 2 - 2 x_46_ * x_11_ + 1 x_46_ ^ 2 + 1 y_11_ ^ 2 - 2 y_46_ * y_11_ + 1 y_46_ ^ 2 ] = 2500
c73: [ 1 x_16_ ^ 2 - 2 x_46_ * x_16_ + 1 x_46_ ^ 2 + 1 y_16_ ^ 2 - 2 y_46_ * y_16_ + 1 y_46_ ^ 2 ] = 15245
c74: [ 1 x_9_ ^ 2 - 2 x_47_ * x_9_ + 1 x_47_ ^ 2 + 1 y_9_ ^ 2 - 2 y_47_ * y_9_ + 1 y_47_ ^ 2 ] = 2290
c75: [ 1 x_17_ ^ 2 - 2 x_47_ * x_17_ + 1 x_47_ ^ 2 + 1 y_17_ ^ 2 - 2 y_47_ * y_17_ + 1 y_47_ ^ 2 ] = 5189
c76: [ 1 x_4_ ^ 2 - 2 x_48_ * x_4_ + 1 x_48_ ^ 2 + 1 y_4_ ^ 2 - 2 y_48_ * y_4_ + 1 y_48_ ^ 2 ] = 37817
c77: [ 1 x_23_ ^ 2 - 2 x_48_ * x_23_ + 1 x_48_ ^ 2 + 1 y_23_ ^ 2 - 2 y_48_ * y_23_ + 1 y_48_ ^ 2 ] = 6273
c78: [ 1 x_7_ ^ 2 - 2 x_49_ * x_7_ + 1 x_49_ ^ 2 + 1 y_7_ ^ 2 - 2 y_49_ * y_7_ + 1 y_49_ ^ 2 ] = 9865
c79: [ 1 x_7_ ^ 2 - 2 x_50_ * x_7_ + 1 x_50_ ^ 2 + 1 y_7_ ^ 2 - 2 y_50_ * y_7_ + 1 y_50_ ^ 2 ] = 25040
c80: [ 1 x_26_ ^ 2 - 2 x_50_ * x_26_ + 1 x_50_ ^ 2 + 1 y_26_ ^ 2 - 2 y_50_ * y_26_ + 1 y_50_ ^ 2 ] = 33850
c81: [ 1 x_40_ ^ 2 - 2 x_51_ * x_40_ + 1 x_51_ ^ 2 + 1 y_40_ ^ 2 - 2 y_51_ * y_40_ + 1 y_51_ ^ 2 ] = 3240
c82: [ 1 x_49_ ^ 2 - 2 x_51_ * x_49_ + 1 x_51_ ^ 2 + 1 y_49_ ^ 2 - 2 y_51_ * y_49_ + 1 y_51_ ^ 2 ] = 4132
c83: [ 1 x_4_ ^ 2 - 2 x_53_ * x_4_ + 1 x_53_ ^ 2 + 1 y_4_ ^ 2 - 2 y_53_ * y_4_ + 1 y_53_ ^ 2 ] = 31642
c84: [ 1 x_7_ ^ 2 - 2 x_53_ * x_7_ + 1 x_53_ ^ 2 + 1 y_7_ ^ 2 - 2 y_53_ * y_7_ + 1 y_53_ ^ 2 ] = 3725
c85: [ 1 x_23_ ^ 2 - 2 x_53_ * x_23_ + 1 x_53_ ^ 2 + 1 y_23_ ^ 2 - 2 y_53_ * y_23_ + 1 y_53_ ^ 2 ] = 400
c86: [ 1 x_18_ ^ 2 - 2 x_55_ * x_18_ + 1 x_55_ ^ 2 + 1 y_18_ ^ 2 - 2 y_55_ * y_18_ + 1 y_55_ ^ 2 ] = 16109
c87: [ 1 x_24_ ^ 2 - 2 x_55_ * x_24_ + 1 x_55_ ^ 2 + 1 y_24_ ^ 2 - 2 y_55_ * y_24_ + 1 y_55_ ^ 2 ] = 225
c88: [ 1 x_42_ ^ 2 - 2 x_55_ * x_42_ + 1 x_55_ ^ 2 + 1 y_42_ ^ 2 - 2 y_55_ * y_42_ + 1 y_55_ ^ 2 ] = 10162
c89: [ 1 x_28_ ^ 2 - 2 x_56_ * x_28_ + 1 x_56_ ^ 2 + 1 y_28_ ^ 2 - 2 y_56_ * y_28_ + 1 y_56_ ^ 2 ] = 16650
c90: [ 1 x_35_ ^ 2 - 2 x_56_ * x_35_ + 1 x_56_ ^ 2 + 1 y_35_ ^ 2 - 2 y_56_ * y_35_ + 1 y_56_ ^ 2 ] = 16858
c91: [ 1 x_43_ ^ 2 - 2 x_56_ * x_43_ + 1 x_56_ ^ 2 + 1 y_43_ ^ 2 - 2 y_56_ * y_43_ + 1 y_56_ ^ 2 ] = 18869
c92: [ 1 x_4_ ^ 2 - 2 x_57_ * x_4_ + 1 x_57_ ^ 2 + 1 y_4_ ^ 2 - 2 y_57_ * y_4_ + 1 y_57_ ^ 2 ] = 25540
c93: [ 1 x_23_ ^ 2 - 2 x_57_ * x_23_ + 1 x_57_ ^ 2 + 1 y_23_ ^ 2 - 2 y_57_ * y_23_ + 1 y_57_ ^ 2 ] = 1018
c94: [ 1 x_32_ ^ 2 - 2 x_57_ * x_32_ + 1 x_57_ ^ 2 + 1 y_32_ ^ 2 - 2 y_57_ * y_32_ + 1 y_57_ ^ 2 ] = 9090
c95: [ 1 x_9_ ^ 2 - 2 x_58_ * x_9_ + 1 x_58_ ^ 2 + 1 y_9_ ^ 2 - 2 y_58_ * y_9_ + 1 y_58_ ^ 2 ] = 4049
c96: [ 1 x_16_ ^ 2 - 2 x_58_ * x_16_ + 1 x_58_ ^ 2 + 1 y_16_ ^ 2 - 2 y_58_ * y_16_ + 1 y_58_ ^ 2 ] = 38293
c97: [ 1 x_45_ ^ 2 - 2 x_59_ * x_45_ + 1 x_59_ ^ 2 + 1 y_45_ ^ 2 - 2 y_59_ * y_45_ + 1 y_59_ ^ 2 ] = 7976
c98: [ 1 x_38_ ^ 2 - 2 x_60_ * x_38_ + 1 x_60_ ^ 2 + 1 y_38_ ^ 2 - 2 y_60_ * y_38_ + 1 y_60_ ^ 2 ] = 30706
c99: [ 1 x_51_ ^ 2 - 2 x_60_ * x_51_ + 1 x_60_ ^ 2 + 1 y_51_ ^ 2 - 2 y_60_ * y_51_ + 1 y_60_ ^ 2 ] = 39394
c100: [ 1 x_56_ ^ 2 - 2 x_60_ * x_56_ + 1 x_60_ ^ 2 + 1 y_56_ ^ 2 - 2 y_60_ * y_56_ + 1 y_60_ ^ 2 ] = 5266
c101: [ 1 x_6_ ^ 2 - 2 x_62_ * x_6_ + 1 x_62_ ^ 2 + 1 y_6_ ^ 2 - 2 y_62_ * y_6_ + 1 y_62_ ^ 2 ] = 1769
c102: [ 1 x_45_ ^ 2 - 2 x_62_ * x_45_ + 1 x_62_ ^ 2 + 1 y_45_ ^ 2 - 2 y_62_ * y_45_ + 1 y_62_ ^ 2 ] = 8242
c103: [ 1 x_13_ ^ 2 - 2 x_63_ * x_13_ + 1 x_63_ ^ 2 + 1 y_13_ ^ 2 - 2 y_63_ * y_13_ + 1 y_63_ ^ 2 ] = 29401
c104: [ 1 x_58_ ^ 2 - 2 x_63_ * x_58_ + 1 x_63_ ^ 2 + 1 y_58_ ^ 2 - 2 y_63_ * y_58_ + 1 y_63_ ^ 2 ] = 32877
c105: [ 1 x_15_ ^ 2 - 2 x_64_ * x_15_ + 1 x_64_ ^ 2 + 1 y_15_ ^ 2 - 2 y_64_ * y_15_ + 1 y_64_ ^ 2 ] = 1696
c106: [ 1 x_29_ ^ 2 - 2 x_64_ * x_29_ + 1 x_64_ ^ 2 + 1 y_29_ ^ 2 - 2 y_64_ * y_29_ + 1 y_64_ ^ 2 ] = 17642
c107: [ 1 x_37_ ^ 2 - 2 x_64_ * x_37_ + 1 x_64_ ^ 2 + 1 y_37_ ^ 2 - 2 y_64_ * y_37_ + 1 y_64_ ^ 2 ] = 9506
c108: [ 1 x_1_ ^ 2 - 2 x_65_ * x_1_ + 1 x_65_ ^ 2 + 1 y_1_ ^ 2 - 2 y_65_ * y_1_ + 1 y_65_ ^ 2 ] = 5570
c109: [ 1 x_13_ ^ 2 - 2 x_65_ * x_13_ + 1 x_65_ ^ 2 + 1 y_13_ ^ 2 - 2 y_65_ * y_13_ + 1 y_65_ ^ 2 ] = 4241
c110: [ 1 x_18_ ^ 2 - 2 x_65_ * x_18_ + 1 x_65_ ^ 2 + 1 y_18_ ^ 2 - 2 y_65_ * y_18_ + 1 y_65_ ^ 2 ] = 8324
c111: [ 1 x_2_ ^ 2 - 2 x_66_ * x_2_ + 1 x_66_ ^ 2 + 1 y_2_ ^ 2 - 2 y_66_ * y_2_ + 1 y_66_ ^ 2 ] = 34778
c112: [ 1 x_7_ ^ 2 - 2 x_66_ * x_7_ + 1 x_66_ ^ 2 + 1 y_7_ ^ 2 - 2 y_66_ * y_7_ + 1 y_66_ ^ 2 ] = 8194
c113: [ 1 x_63_ ^ 2 - 2 x_66_ * x_63_ + 1 x_66_ ^ 2 + 1 y_63_ ^ 2 - 2 y_66_ * y_63_ + 1 y_66_ ^ 2 ] = 31945
c114: [ 1 x_7_ ^ 2 - 2 x_67_ * x_7_ + 1 x_67_ ^ 2 + 1 y_7_ ^ 2 - 2 y_67_ * y_7_ + 1 y_67_ ^ 2 ] = 3865
c115: [ 1 x_24_ ^ 2 - 2 x_67_ * x_24_ + 1 x_67_ ^ 2 + 1 y_24_ ^ 2 - 2 y_67_ * y_24_ + 1 y_67_ ^ 2 ] = 8276
c116: [ 1 x_8_ ^ 2 - 2 x_68_ * x_8_ + 1 x_68_ ^ 2 + 1 y_8_ ^ 2 - 2 y_68_ * y_8_ + 1 y_68_ ^ 2 ] = 13189
c117: [ 1 x_30_ ^ 2 - 2 x_68_ * x_30_ + 1 x_68_ ^ 2 + 1 y_30_ ^ 2 - 2 y_68_ * y_30_ + 1 y_68_ ^ 2 ] = 11513
c118: [ 1 x_44_ ^ 2 - 2 x_68_ * x_44_ + 1 x_68_ ^ 2 + 1 y_44_ ^ 2 - 2 y_68_ * y_44_ + 1 y_68_ ^ 2 ] = 1193
c119: [ 1 x_9_ ^ 2 - 2 x_69_ * x_9_ + 1 x_69_ ^ 2 + 1 y_9_ ^ 2 - 2 y_69_ * y_9_ + 1 y_69_ ^ 2 ] = 6529
c120: [ 1 x_11_ ^ 2 - 2 x_69_ * x_11_ + 1 x_69_ ^ 2 + 1 y_11_ ^ 2 - 2 y_69_ * y_11_ + 1 y_69_ ^ 2 ] = 14346
c121: [ 1 x_32_ ^ 2 - 2 x_69_ * x_32_ + 1 x_69_ ^ 2 + 1 y_32_ ^ 2 - 2 y_69_ * y_32_ + 1 y_69_ ^ 2 ] = 1377
c122: [ 1 x_2_ ^ 2 - 2 x_70_ * x_2_ + 1 x_70_ ^ 2 + 1 y_2_ ^ 2 - 2 y_70_ * y_2_ + 1 y_70_ ^ 2 ] = 25330
c123: [ 1 x_45_ ^ 2 - 2 x_70_ * x_45_ + 1 x_70_ ^ 2 + 1 y_45_ ^ 2 - 2 y_70_ * y_45_ + 1 y_70_ ^ 2 ] = 23626
c124: [ 1 x_51_ ^ 2 - 2 x_70_ * x_51_ + 1 x_70_ ^ 2 + 1 y_51_ ^ 2 - 2 y_70_ * y_51_ + 1 y_70_ ^ 2 ] = 27809
c125: [ 1 x_5_ ^ 2 - 2 x_71_ * x_5_ + 1 x_71_ ^ 2 + 1 y_5_ ^ 2 - 2 y_71_ * y_5_ + 1 y_71_ ^ 2 ] = 13833
c126: [ 1 x_16_ ^ 2 - 2 x_71_ * x_16_ + 1 x_71_ ^ 2 + 1 y_16_ ^ 2 - 2 y_71_ * y_16_ + 1 y_71_ ^ 2 ] = 17525
c127: [ 1 x_68_ ^ 2 - 2 x_71_ * x_68_ + 1 x_71_ ^ 2 + 1 y_68_ ^ 2 - 2 y_71_ * y_68_ + 1 y_71_ ^ 2 ] = 290
c128: [ 1 x_54_ ^ 2 - 2 x_72_ * x_54_ + 1 x_72_ ^ 2 + 1 y_54_ ^ 2 - 2 y_72_ * y_54_ + 1 y_72_ ^ 2 ] = 19729
c129: [ 1 x_69_ ^ 2 - 2 x_72_ * x_69_ + 1 x_72_ ^ 2 + 1 y_69_ ^ 2 - 2 y_72_ * y_69_ + 1 y_72_ ^ 2 ] = 14785
c130: [ 1 x_11_ ^ 2 - 2 x_73_ * x_11_ + 1 x_73_ ^ 2 + 1 y_11_ ^ 2 - 2 y_73_ * y_11_ + 1 y_73_ ^ 2 ] = 6760
c131: [ 1 x_47_ ^ 2 - 2 x_73_ * x_47_ + 1 x_73_ ^ 2 + 1 y_47_ ^ 2 - 2 y_73_ * y_47_ + 1 y_73_ ^ 2 ] = 17785
c132: [ 1 x_27_ ^ 2 - 2 x_74_ * x_27_ + 1 x_74_ ^ 2 + 1 y_27_ ^ 2 - 2 y_74_ * y_27_ + 1 y_74_ ^ 2 ] = 11300
c133: [ 1 x_20_ ^ 2 - 2 x_75_ * x_20_ + 1 x_75_ ^ 2 + 1 y_20_ ^ 2 - 2 y_75_ * y_20_ + 1 y_75_ ^ 2 ] = 7093
c134: [ 1 x_22_ ^ 2 - 2 x_75_ * x_22_ + 1 x_75_ ^ 2 + 1 y_22_ ^ 2 - 2 y_75_ * y_22_ + 1 y_75_ ^ 2 ] = 18450
c135: [ 1 x_25_ ^ 2 - 2 x_76_ * x_25_ + 1 x_76_ ^ 2 + 1 y_25_ ^ 2 - 2 y_76_ * y_25_ + 1 y_76_ ^ 2 ] = 505
c136: [ 1 x_67_ ^ 2 - 2 x_76_ * x_67_ + 1 x_76_ ^ 2 + 1 y_67_ ^ 2 - 2 y_76_ * y_67_ + 1 y_76_ ^ 2 ] = 4330
c137: [ 1 x_13_ ^ 2 - 2 x_77_ * x_13_ + 1 x_77_ ^ 2 + 1 y_13_ ^ 2 - 2 y_77_ * y_13_ + 1 y_77_ ^ 2 ] = 10861
c138: [ 1 x_54_ ^ 2 - 2 x_77_ * x_54_ + 1 x_77_ ^ 2 + 1 y_54_ ^ 2 - 2 y_77_ * y_54_ + 1 y_77_ ^ 2 ] = 16949
c139: [ 1 x_6_ ^ 2 - 2 x_78_ * x_6_ + 1 x_78_ ^ 2 + 1 y_6_ ^ 2 - 2 y_78_ * y_6_ + 1 y_78_ ^ 2 ] = 13745
c140: [ 1 x_36_ ^ 2 - 2 x_78_ * x_36_ + 1 x_78_ ^ 2 + 1 y_36_ ^ 2 - 2 y_78_ * y_36_ + 1 y_78_ ^ 2 ] = 2725
c141: [ 1 x_70_ ^ 2 - 2 x_78_ * x_70_ + 1 x_78_ ^ 2 + 1 y_70_ ^ 2 - 2 y_78_ * y_70_ + 1 y_78_ ^ 2 ] = 4410
c142: [ 1 x_23_ ^ 2 - 2 x_79_ * x_23_ + 1 x_79_ ^ 2 + 1 y_23_ ^ 2 - 2 y_79_ * y_23_ + 1 y_79_ ^ 2 ] = 2045
c143: [ 1 x_66_ ^ 2 - 2 x_79_ * x_66_ + 1 x_79_ ^ 2 + 1 y_66_ ^ 2 - 2 y_79_ * y_66_ + 1 y_79_ ^ 2 ] = 7232
c144: [ 1 x_3_ ^ 2 - 2 x_80_ * x_3_ + 1 x_80_ ^ 2 + 1 y_3_ ^ 2 - 2 y_80_ * y_3_ + 1 y_80_ ^ 2 ] = 14162
c145: [ 1 x_61_ ^ 2 - 2 x_80_ * x_61_ + 1 x_80_ ^ 2 + 1 y_61_ ^ 2 - 2 y_80_ * y_61_ + 1 y_80_ ^ 2 ] = 12049
c146: [ 1 x_12_ ^ 2 - 2 x_81_ * x_12_ + 1 x_81_ ^ 2 + 1 y_12_ ^ 2 - 2 y_81_ * y_12_ + 1 y_81_ ^ 2 ] = 11722
c147: [ 1 x_47_ ^ 2 - 2 x_81_ * x_47_ + 1 x_81_ ^ 2 + 1 y_47_ ^ 2 - 2 y_81_ * y_47_ + 1 y_81_ ^ 2 ] = 6292
c148: [ 1 x_54_ ^ 2 - 2 x_81_ * x_54_ + 1 x_81_ ^ 2 + 1 y_54_ ^ 2 - 2 y_81_ * y_54_ + 1 y_81_ ^ 2 ] = 18317
c149: [ 1 x_4_ ^ 2 - 2 x_82_ * x_4_ + 1 x_82_ ^ 2 + 1 y_4_ ^ 2 - 2 y_82_ * y_4_ + 1 y_82_ ^ 2 ] = 12017
c150: [ 1 x_43_ ^ 2 - 2 x_82_ * x_43_ + 1 x_82_ ^ 2 + 1 y_43_ ^ 2 - 2 y_82_ * y_43_ + 1 y_82_ ^ 2 ] = 11458
c151: [ 1 x_74_ ^ 2 - 2 x_82_ * x_74_ + 1 x_82_ ^ 2 + 1 y_74_ ^ 2 - 2 y_82_ * y_74_ + 1 y_82_ ^ 2 ] = 9684
c152: [ 1 x_23_ ^ 2 - 2 x_83_ * x_23_ + 1 x_83_ ^ 2 + 1 y_23_ ^ 2 - 2 y_83_ * y_23_ + 1 y_83_ ^ 2 ] = 1385
c153: [ 1 x_76_ ^ 2 - 2 x_83_ * x_76_ + 1 x_83_ ^ 2 + 1 y_76_ ^ 2 - 2 y_83_ * y_76_ + 1 y_83_ ^ 2 ] = 14489
c154: [ 1 x_77_ ^ 2 - 2 x_83_ * x_77_ + 1 x_83_ ^ 2 + 1 y_77_ ^ 2 - 2 y_83_ * y_77_ + 1 y_83_ ^ 2 ] = 5945
c155: [ 1 x_14_ ^ 2 - 2 x_84_ * x_14_ + 1 x_84_ ^ 2 + 1 y_14_ ^ 2 - 2 y_84_ * y_14_ + 1 y_84_ ^ 2 ] = 14900
c156: [ 1 x_36_ ^ 2 - 2 x_84_ * x_36_ + 1 x_84_ ^ 2 + 1 y_36_ ^ 2 - 2 y_84_ * y_36_ + 1 y_84_ ^ 2 ] = 22189
c157: [ 1 x_80_ ^ 2 - 2 x_84_ * x_80_ + 1 x_84_ ^ 2 + 1 y_80_ ^ 2 - 2 y_84_ * y_80_ + 1 y_84_ ^ 2 ] = 9344
c158: [ 1 x_13_ ^ 2 - 2 x_85_ * x_13_ + 1 x_85_ ^ 2 + 1 y_13_ ^ 2 - 2 y_85_ * y_13_ + 1 y_85_ ^ 2 ] = 13610
c159: [ 1 x_32_ ^ 2 - 2 x_85_ * x_32_ + 1 x_85_ ^ 2 + 1 y_32_ ^ 2 - 2 y_85_ * y_32_ + 1 y_85_ ^ 2 ] = 17125
c160: [ 1 x_76_ ^ 2 - 2 x_85_ * x_76_ + 1 x_85_ ^ 2 + 1 y_76_ ^ 2 - 2 y_85_ * y_76_ + 1 y_85_ ^ 2 ] = 19345
c161: [ 1 x_21_ ^ 2 - 2 x_86_ * x_21_ + 1 x_86_ ^ 2 + 1 y_21_ ^ 2 - 2 y_86_ * y_21_ + 1 y_86_ ^ 2 ] = 7489
c162: [ 1 x_25_ ^ 2 - 2 x_86_ * x_25_ + 1 x_86_ ^ 2 + 1 y_25_ ^ 2 - 2 y_86_ * y_25_ + 1 y_86_ ^ 2 ] = 13234
c163: [ 1 x_21_ ^ 2 - 2 x_87_ * x_21_ + 1 x_87_ ^ 2 + 1 y_21_ ^ 2 - 2 y_87_ * y_21_ + 1 y_87_ ^ 2 ] = 2306
c164: [ 1 x_60_ ^ 2 - 2 x_87_ * x_60_ + 1 x_87_ ^ 2 + 1 y_60_ ^ 2 - 2 y_87_ * y_60_ + 1 y_87_ ^ 2 ] = 26000
c165: [ 1 x_86_ ^ 2 - 2 x_87_ * x_86_ + 1 x_87_ ^ 2 + 1 y_86_ ^ 2 - 2 y_87_ * y_86_ + 1 y_87_ ^ 2 ] = 14705
c166: [ 1 x_6_ ^ 2 - 2 x_88_ * x_6_ + 1 x_88_ ^ 2 + 1 y_6_ ^ 2 - 2 y_88_ * y_6_ + 1 y_88_ ^ 2 ] = 21170
c167: [ 1 x_77_ ^ 2 - 2 x_88_ * x_77_ + 1 x_88_ ^ 2 + 1 y_77_ ^ 2 - 2 y_88_ * y_77_ + 1 y_88_ ^ 2 ] = 4628
c168: [ 1 x_24_ ^ 2 - 2 x_89_ * x_24_ + 1 x_89_ ^ 2 + 1 y_24_ ^ 2 - 2 y_89_ * y_24_ + 1 y_89_ ^ 2 ] = 15970
c169: [ 1 x_52_ ^ 2 - 2 x_89_ * x_52_ + 1 x_89_ ^ 2 + 1 y_52_ ^ 2 - 2 y_89_ * y_52_ + 1 y_89_ ^ 2 ] = 33032
c170: [ 1 x_83_ ^ 2 - 2 x_89_ * x_83_ + 1 x_89_ ^ 2 + 1 y_83_ ^ 2 - 2 y_89_ * y_83_ + 1 y_89_ ^ 2 ] = 2665
c171: [ 1 x_47_ ^ 2 - 2 x_90_ * x_47_ + 1 x_90_ ^ 2 + 1 y_47_ ^ 2 - 2 y_90_ * y_47_ + 1 y_90_ ^ 2 ] = 11152
c172: [ 1 x_52_ ^ 2 - 2 x_90_ * x_52_ + 1 x_90_ ^ 2 + 1 y_52_ ^ 2 - 2 y_90_ * y_52_ + 1 y_90_ ^ 2 ] = 5650
c173: [ 1 x_87_ ^ 2 - 2 x_90_ * x_87_ + 1 x_90_ ^ 2 + 1 y_87_ ^ 2 - 2 y_90_ * y_87_ + 1 y_90_ ^ 2 ] = 3842
c174: [ 1 x_1_ ^ 2 - 2 x_91_ * x_1_ + 1 x_91_ ^ 2 + 1 y_1_ ^ 2 - 2 y_91_ * y_1_ + 1 y_91_ ^ 2 ] = 11336
c175: [ 1 x_18_ ^ 2 - 2 x_91_ * x_18_ + 1 x_91_ ^ 2 + 1 y_18_ ^ 2 - 2 y_91_ * y_18_ + 1 y_91_ ^ 2 ] = 370
c176: [ 1 x_22_ ^ 2 - 2 x_92_ * x_22_ + 1 x_92_ ^ 2 + 1 y_22_ ^ 2 - 2 y_92_ * y_22_ + 1 y_92_ ^ 2 ] = 14116
c177: [ 1 x_81_ ^ 2 - 2 x_92_ * x_81_ + 1 x_92_ ^ 2 + 1 y_81_ ^ 2 - 2 y_92_ * y_81_ + 1 y_92_ ^ 2 ] = 17882
c178: [ 1 x_27_ ^ 2 - 2 x_93_ * x_27_ + 1 x_93_ ^ 2 + 1 y_27_ ^ 2 - 2 y_93_ * y_27_ + 1 y_93_ ^ 2 ] = 25652
c179: [ 1 x_75_ ^ 2 - 2 x_93_ * x_75_ + 1 x_93_ ^ 2 + 1 y_75_ ^ 2 - 2 y_93_ * y_75_ + 1 y_93_ ^ 2 ] = 13005
c180: [ 1 x_80_ ^ 2 - 2 x_93_ * x_80_ + 1 x_93_ ^ 2 + 1 y_80_ ^ 2 - 2 y_93_ * y_80_ + 1 y_93_ ^ 2 ] = 17194
c181: [ 1 x_41_ ^ 2 - 2 x_94_ * x_41_ + 1 x_94_ ^ 2 + 1 y_41_ ^ 2 - 2 y_94_ * y_41_ + 1 y_94_ ^ 2 ] = 16900
c182: [ 1 x_51_ ^ 2 - 2 x_94_ * x_51_ + 1 x_94_ ^ 2 + 1 y_51_ ^ 2 - 2 y_94_ * y_51_ + 1 y_94_ ^ 2 ] = 4040
c183: [ 1 x_61_ ^ 2 - 2 x_94_ * x_61_ + 1 x_94_ ^ 2 + 1 y_61_ ^ 2 - 2 y_94_ * y_61_ + 1 y_94_ ^ 2 ] = 2980
c184: [ 1 x_20_ ^ 2 - 2 x_95_ * x_20_ + 1 x_95_ ^ 2 + 1 y_20_ ^ 2 - 2 y_95_ * y_20_ + 1 y_95_ ^ 2 ] = 10250
c185: [ 1 x_29_ ^ 2 - 2 x_95_ * x_29_ + 1 x_95_ ^ 2 + 1 y_29_ ^ 2 - 2 y_95_ * y_29_ + 1 y_95_ ^ 2 ] = 3778
c186: [ 1 x_7_ ^ 2 - 2 x_96_ * x_7_ + 1 x_96_ ^ 2 + 1 y_7_ ^ 2 - 2 y_96_ * y_7_ + 1 y_96_ ^ 2 ] = 8002
c187: [ 1 x_67_ ^ 2 - 2 x_96_ * x_67_ + 1 x_96_ ^ 2 + 1 y_67_ ^ 2 - 2 y_96_ * y_67_ + 1 y_96_ ^ 2 ] = 2385
c188: [ 1 x_23_ ^ 2 - 2 x_97_ * x_23_ + 1 x_97_ ^ 2 + 1 y_23_ ^ 2 - 2 y_97_ * y_23_ + 1 y_97_ ^ 2 ] = 12137
c189: [ 1 x_52_ ^ 2 - 2 x_97_ * x_52_ + 1 x_97_ ^ 2 + 1 y_52_ ^ 2 - 2 y_97_ * y_52_ + 1 y_97_ ^ 2 ] = 5661
c190: [ 1 x_38_ ^ 2 - 2 x_98_ * x_38_ + 1 x_98_ ^ 2 + 1 y_38_ ^ 2 - 2 y_98_ * y_38_ + 1 y_98_ ^ 2 ] = 27637
c191: [ 1 x_88_ ^ 2 - 2 x_98_ * x_88_ + 1 x_98_ ^ 2 + 1 y_88_ ^ 2 - 2 y_98_ * y_88_ + 1 y_98_ ^ 2 ] = 14521
c192: [ 1 x_3_ ^ 2 - 2 x_99_ * x_3_ + 1 x_99_ ^ 2 + 1 y_3_ ^ 2 - 2 y_99_ * y_3_ + 1 y_99_ ^ 2 ] = 9365
c193: [ 1 x_42_ ^ 2 - 2 x_99_ * x_42_ + 1 x_99_ ^ 2 + 1 y_42_ ^ 2 - 2 y_99_ * y_42_ + 1 y_99_ ^ 2 ] = 8869
c194: [ 1 x_64_ ^ 2 - 2 x_99_ * x_64_ + 1 x_99_ ^ 2 + 1 y_64_ ^ 2 - 2 y_99_ * y_64_ + 1 y_99_ ^ 2 ] = 1989
c195: [ 1 x_14_ ^ 2 - 2 x_100_ * x_14_ + 1 x_100_ ^ 2 + 1 y_14_ ^ 2 - 2 y_100_ * y_14_ + 1 y_100_ ^ 2 ] = 25049
c196: [ 1 x_41_ ^ 2 - 2 x_100_ * x_41_ + 1 x_100_ ^ 2 + 1 y_41_ ^ 2 - 2 y_100_ * y_41_ + 1 y_100_ ^ 2 ] = 44100
c197: [ 1 x_59_ ^ 2 - 2 x_100_ * x_59_ + 1 x_100_ ^ 2 + 1 y_59_ ^ 2 - 2 y_100_ * y_59_ + 1 y_100_ ^ 2 ] = 7713
Bounds
-145 <= x_1_ <= 145
-109 <= x_2_ <= 109
-232 <= x_3_ <= 232
-238 <= x_4_ <= 238
-169 <= x_5_ <= 169
-95 <= x_6_ <= 95
x_7_ = 0
-274 <= x_8_ <= 274
-178 <= x_9_ <= 178
-164 <= x_10_ <= 164
-333 <= x_11_ <= 333
-289 <= x_12_ <= 289
-285 <= x_13_ <= 285
-98 <= x_14_ <= 98
-49 <= x_15_ <= 49
-160 <= x_16_ <= 160
-58 <= x_17_ <= 58
-270 <= x_18_ <= 270
-185 <= x_19_ <= 185
-265 <= x_20_ <= 265
-229 <= x_21_ <= 229
-115 <= x_22_ <= 115
-81 <= x_23_ <= 81
-153 <= x_24_ <= 153
-150 <= x_25_ <= 150
-136 <= x_26_ <= 136
-289 <= x_27_ <= 289
-408 <= x_28_ <= 408
-190 <= x_29_ <= 190
-213 <= x_30_ <= 213
-243 <= x_31_ <= 243
-178 <= x_32_ <= 178
-193 <= x_33_ <= 193
-97 <= x_34_ <= 97
-193 <= x_35_ <= 193
-264 <= x_36_ <= 264
-188 <= x_37_ <= 188
-177 <= x_38_ <= 177
-109 <= x_39_ <= 109
-133 <= x_40_ <= 133
-321 <= x_41_ <= 321
-229 <= x_42_ <= 229
-307 <= x_43_ <= 307
-298 <= x_44_ <= 298
-228 <= x_45_ <= 228
-283 <= x_46_ <= 283
-130 <= x_47_ <= 130
-160 <= x_48_ <= 160
-99 <= x_49_ <= 99
-158 <= x_50_ <= 158
-163 <= x_51_ <= 163
-266 <= x_52_ <= 266
-61 <= x_53_ <= 61
-325 <= x_54_ <= 325
-168 <= x_55_ <= 168
-323 <= x_56_ <= 323
-112 <= x_57_ <= 112
-241 <= x_58_ <= 241
-317 <= x_59_ <= 317
-352 <= x_60_ <= 352
-281 <= x_61_ <= 281
-137 <= x_62_ <= 137
-269 <= x_63_ <= 269
-91 <= x_64_ <= 91
-219 <= x_65_ <= 219
-90 <= x_66_ <= 90
-62 <= x_67_ <= 62
-304 <= x_68_ <= 304
-215 <= x_69_ <= 215
-268 <= x_70_ <= 268
-287 <= x_71_ <= 287
-337 <= x_72_ <= 337
-263 <= x_73_ <= 263
-395 <= x_74_ <= 395
-251 <= x_75_ <= 251
-127 <= x_76_ <= 127
-195 <= x_77_ <= 195
-212 <= x_78_ <= 212
-126 <= x_79_ <= 126
-316 <= x_80_ <= 316
-209 <= x_81_ <= 209
-348 <= x_82_ <= 348
-118 <= x_83_ <= 118
-220 <= x_84_ <= 220
-267 <= x_85_ <= 267
-265 <= x_86_ <= 265
-277 <= x_87_ <= 277
-240 <= x_88_ <= 240
-169 <= x_89_ <= 169
-235 <= x_90_ <= 235
-251 <= x_91_ <= 251
-234 <= x_92_ <= 234
-365 <= x_93_ <= 365
-227 <= x_94_ <= 227
-251 <= x_95_ <= 251
-89 <= x_96_ <= 89
-191 <= x_97_ <= 191
-343 <= x_98_ <= 343
-135 <= x_99_ <= 135
-256 <= x_100_ <= 256
-145 <= y_1_ <= 145
-109 <= y_2_ <= 109
-232 <= y_3_ <= 232
-238 <= y_4_ <= 238
-169 <= y_5_ <= 169
-95 <= y_6_ <= 95
y_7_ = 0
-274 <= y_8_ <= 274
-178 <= y_9_ <= 178
-164 <= y_10_ <= 164
-333 <= y_11_ <= 333
-289 <= y_12_ <= 289
-285 <= y_13_ <= 285
-98 <= y_14_ <= 98
-49 <= y_15_ <= 49
-160 <= y_16_ <= 160
-58 <= y_17_ <= 58
-270 <= y_18_ <= 270
-185 <= y_19_ <= 185
-265 <= y_20_ <= 265
-229 <= y_21_ <= 229
-115 <= y_22_ <= 115
-81 <= y_23_ <= 81
-153 <= y_24_ <= 153
-150 <= y_25_ <= 150
-136 <= y_26_ <= 136
-289 <= y_27_ <= 289
-408 <= y_28_ <= 408
-190 <= y_29_ <= 190
-213 <= y_30_ <= 213
-243 <= y_31_ <= 243
-178 <= y_32_ <= 178
-193 <= y_33_ <= 193
-97 <= y_34_ <= 97
-193 <= y_35_ <= 193
-264 <= y_36_ <= 264
-188 <= y_37_ <= 188
-177 <= y_38_ <= 177
-109 <= y_39_ <= 109
-133 <= y_40_ <= 133
-321 <= y_41_ <= 321
-229 <= y_42_ <= 229
-307 <= y_43_ <= 307
-298 <= y_44_ <= 298
-228 <= y_45_ <= 228
-283 <= y_46_ <= 283
-130 <= y_47_ <= 130
-160 <= y_48_ <= 160
-99 <= y_49_ <= 99
-158 <= y_50_ <= 158
-163 <= y_51_ <= 163
-266 <= y_52_ <= 266
-61 <= y_53_ <= 61
-325 <= y_54_ <= 325
-168 <= y_55_ <= 168
-323 <= y_56_ <= 323
-112 <= y_57_ <= 112
-241 <= y_58_ <= 241
-317 <= y_59_ <= 317
-352 <= y_60_ <= 352
-281 <= y_61_ <= 281
-137 <= y_62_ <= 137
-269 <= y_63_ <= 269
-91 <= y_64_ <= 91
-219 <= y_65_ <= 219
-90 <= y_66_ <= 90
-62 <= y_67_ <= 62
-304 <= y_68_ <= 304
-215 <= y_69_ <= 215
-268 <= y_70_ <= 268
-287 <= y_71_ <= 287
-337 <= y_72_ <= 337
-263 <= y_73_ <= 263
-395 <= y_74_ <= 395
-251 <= y_75_ <= 251
-127 <= y_76_ <= 127
-195 <= y_77_ <= 195
-212 <= y_78_ <= 212
-126 <= y_79_ <= 126
-316 <= y_80_ <= 316
-209 <= y_81_ <= 209
-348 <= y_82_ <= 348
-118 <= y_83_ <= 118
-220 <= y_84_ <= 220
-267 <= y_85_ <= 267
-265 <= y_86_ <= 265
-277 <= y_87_ <= 277
-240 <= y_88_ <= 240
-169 <= y_89_ <= 169
-235 <= y_90_ <= 235
-251 <= y_91_ <= 251
-234 <= y_92_ <= 234
-365 <= y_93_ <= 365
-227 <= y_94_ <= 227
-251 <= y_95_ <= 251
-89 <= y_96_ <= 89
-191 <= y_97_ <= 191
-343 <= y_98_ <= 343
-135 <= y_99_ <= 135
-256 <= y_100_ <= 256
General
x_1_
x_2_
x_3_
x_4_
x_5_
x_6_
x_7_
x_8_
x_9_
x_10_
x_11_
x_12_
x_13_
x_14_
x_15_
x_16_
x_17_
x_18_
x_19_
x_20_
x_21_
x_22_
x_23_
x_24_
x_25_
x_26_
x_27_
x_28_
x_29_
x_30_
x_31_
x_32_
x_33_
x_34_
x_35_
x_36_
x_37_
x_38_
x_39_
x_40_
x_41_
x_42_
x_43_
x_44_
x_45_
x_46_
x_47_
x_48_
x_49_
x_50_
x_51_
x_52_
x_53_
x_54_
x_55_
x_56_
x_57_
x_58_
x_59_
x_60_
x_61_
x_62_
x_63_
x_64_
x_65_
x_66_
x_67_
x_68_
x_69_
x_70_
x_71_
x_72_
x_73_
x_74_
x_75_
x_76_
x_77_
x_78_
x_79_
x_80_
x_81_
x_82_
x_83_
x_84_
x_85_
x_86_
x_87_
x_88_
x_89_
x_90_
x_91_
x_92_
x_93_
x_94_
x_95_
x_96_
x_97_
x_98_
x_99_
x_100_
y_1_
y_2_
y_3_
y_4_
y_5_
y_6_
y_7_
y_8_
y_9_
y_10_
y_11_
y_12_
y_13_
y_14_
y_15_
y_16_
y_17_
y_18_
y_19_
y_20_
y_21_
y_22_
y_23_
y_24_
y_25_
y_26_
y_27_
y_28_
y_29_
y_30_
y_31_
y_32_
y_33_
y_34_
y_35_
y_36_
y_37_
y_38_
y_39_
y_40_
y_41_
y_42_
y_43_
y_44_
y_45_
y_46_
y_47_
y_48_
y_49_
y_50_
y_51_
y_52_
y_53_
y_54_
y_55_
y_56_
y_57_
y_58_
y_59_
y_60_
y_61_
y_62_
y_63_
y_64_
y_65_
y_66_
y_67_
y_68_
y_69_
y_70_
y_71_
y_72_
y_73_
y_74_
y_75_
y_76_
y_77_
y_78_
y_79_
y_80_
y_81_
y_82_
y_83_
y_84_
y_85_
y_86_
y_87_
y_88_
y_89_
y_90_
y_91_
y_92_
y_93_
y_94_
y_95_
y_96_
y_97_
y_98_
y_99_
y_100_
End
