minimize
obj: 
subject to
c1: 80 x_1_ - 160 y_1_ + [ 1 x_1_ ^ 2 + 1 y_1_ ^ 2 ] <= 85988.59414589772
c2: 80 x_2_ - 160 y_2_ + [ 1 x_2_ ^ 2 + 1 y_2_ ^ 2 ] <= 21016.8454792198
c3: 80 x_3_ - 160 y_3_ + [ 1 x_3_ ^ 2 + 1 y_3_ ^ 2 ] <= 13453.321566669452
c4: 80 x_4_ - 160 y_4_ + [ 1 x_4_ ^ 2 + 1 y_4_ ^ 2 ] <= 55909.97862453254
c5: 80 x_5_ - 160 y_5_ + [ 1 x_5_ ^ 2 + 1 y_5_ ^ 2 ] <= 170798.49527966065
c6: 80 x_6_ - 160 y_6_ + [ 1 x_6_ ^ 2 + 1 y_6_ ^ 2 ] <= 70480.01484545301
c7: 80 x_7_ - 160 y_7_ + [ 1 x_7_ ^ 2 + 1 y_7_ ^ 2 ] <= 48994.20913033771
c8: 80 x_8_ - 160 y_8_ + [ 1 x_8_ ^ 2 + 1 y_8_ ^ 2 ] <= 56130.44244664972
c9: 80 x_9_ - 160 y_9_ + [ 1 x_9_ ^ 2 + 1 y_9_ ^ 2 ] <= 88372.54731427495
c10: 80 x_10_ - 160 y_10_ + [ 1 x_10_ ^ 2 + 1 y_10_ ^ 2 ] <= 65163.07767746343
c11: 80 x_11_ - 160 y_11_ + [ 1 x_11_ ^ 2 + 1 y_11_ ^ 2 ] <= 89319.02194996996
c12: 80 x_12_ - 160 y_12_ + [ 1 x_12_ ^ 2 + 1 y_12_ ^ 2 ] <= 51265.61043165824
c13: 80 x_13_ - 160 y_13_ + [ 1 x_13_ ^ 2 + 1 y_13_ ^ 2 ] <= 91718.70865358601
c14: 80 x_14_ - 160 y_14_ + [ 1 x_14_ ^ 2 + 1 y_14_ ^ 2 ] <= 34767.757745009185
c15: 80 x_15_ - 160 y_15_ + [ 1 x_15_ ^ 2 + 1 y_15_ ^ 2 ] <= 103442.65647839953
c16: 80 x_16_ - 160 y_16_ + [ 1 x_16_ ^ 2 + 1 y_16_ ^ 2 ] <= 103839.911363162
c17: 80 x_17_ - 160 y_17_ + [ 1 x_17_ ^ 2 + 1 y_17_ ^ 2 ] <= 71499.67758254762
c18: 80 x_18_ - 160 y_18_ + [ 1 x_18_ ^ 2 + 1 y_18_ ^ 2 ] <= 86826.69238752949
c19: 80 x_19_ - 160 y_19_ + [ 1 x_19_ ^ 2 + 1 y_19_ ^ 2 ] <= 49703.3568276882
c20: 80 x_20_ - 160 y_20_ + [ 1 x_20_ ^ 2 + 1 y_20_ ^ 2 ] <= 116777.07806814728
c21: 80 x_21_ - 160 y_21_ + [ 1 x_21_ ^ 2 + 1 y_21_ ^ 2 ] <= 109071.392495161
c22: 80 x_22_ - 160 y_22_ + [ 1 x_22_ ^ 2 + 1 y_22_ ^ 2 ] <= 48487.23913330781
c23: 80 x_23_ - 160 y_23_ + [ 1 x_23_ ^ 2 + 1 y_23_ ^ 2 ] <= 78855.7608568823
c24: 80 x_24_ - 160 y_24_ + [ 1 x_24_ ^ 2 + 1 y_24_ ^ 2 ] <= 68691.47008439786
c25: 80 x_25_ - 160 y_25_ + [ 1 x_25_ ^ 2 + 1 y_25_ ^ 2 ] <= 57058.73452876224
c26: 80 x_26_ - 160 y_26_ + [ 1 x_26_ ^ 2 + 1 y_26_ ^ 2 ] <= 20674.61068617509
c27: 80 x_27_ - 160 y_27_ + [ 1 x_27_ ^ 2 + 1 y_27_ ^ 2 ] <= 9763.880000000001
c28: 80 x_28_ - 160 y_28_ + [ 1 x_28_ ^ 2 + 1 y_28_ ^ 2 ] <= 60583.242305864434
c29: 80 x_29_ - 160 y_29_ + [ 1 x_29_ ^ 2 + 1 y_29_ ^ 2 ] <= 6340.253054123179
c30: 80 x_30_ - 160 y_30_ + [ 1 x_30_ ^ 2 + 1 y_30_ ^ 2 ] <= 136798.2776275154
c31: 80 x_31_ - 160 y_31_ + [ 1 x_31_ ^ 2 + 1 y_31_ ^ 2 ] <= 52151.445927109584
c32: 80 x_32_ - 160 y_32_ + [ 1 x_32_ ^ 2 + 1 y_32_ ^ 2 ] <= 125013.90244296449
c33: 80 x_33_ - 160 y_33_ + [ 1 x_33_ ^ 2 + 1 y_33_ ^ 2 ] <= 238845.51697895504
c34: 80 x_34_ - 160 y_34_ + [ 1 x_34_ ^ 2 + 1 y_34_ ^ 2 ] <= 96294.41906271799
c35: 80 x_35_ - 160 y_35_ + [ 1 x_35_ ^ 2 + 1 y_35_ ^ 2 ] <= 51252.932534543295
c36: 80 x_36_ - 160 y_36_ + [ 1 x_36_ ^ 2 + 1 y_36_ ^ 2 ] <= 45443.20106406121
c37: 80 x_37_ - 160 y_37_ + [ 1 x_37_ ^ 2 + 1 y_37_ ^ 2 ] <= 103090.09617154142
c38: 80 x_38_ - 160 y_38_ + [ 1 x_38_ ^ 2 + 1 y_38_ ^ 2 ] <= 180226.37886824275
c39: 80 x_39_ - 160 y_39_ + [ 1 x_39_ ^ 2 + 1 y_39_ ^ 2 ] <= 52717.070516998945
c40: 80 x_40_ - 160 y_40_ + [ 1 x_40_ ^ 2 + 1 y_40_ ^ 2 ] <= 42330.84400447045
c41: 80 x_41_ - 160 y_41_ + [ 1 x_41_ ^ 2 + 1 y_41_ ^ 2 ] <= 38820.857193541815
c42: 80 x_42_ - 160 y_42_ + [ 1 x_42_ ^ 2 + 1 y_42_ ^ 2 ] <= 204241.0166716265
c43: 80 x_43_ - 160 y_43_ + [ 1 x_43_ ^ 2 + 1 y_43_ ^ 2 ] <= 176100.84269737476
c44: 80 x_44_ - 160 y_44_ + [ 1 x_44_ ^ 2 + 1 y_44_ ^ 2 ] <= 133977.82995647955
c45: 80 x_45_ - 160 y_45_ + [ 1 x_45_ ^ 2 + 1 y_45_ ^ 2 ] <= 118483.62756016245
c46: 80 x_46_ - 160 y_46_ + [ 1 x_46_ ^ 2 + 1 y_46_ ^ 2 ] <= 78459.1719108431
c47: 80 x_47_ - 160 y_47_ + [ 1 x_47_ ^ 2 + 1 y_47_ ^ 2 ] <= 62871.385763843646
c48: 80 x_48_ - 160 y_48_ + [ 1 x_48_ ^ 2 + 1 y_48_ ^ 2 ] <= 128229.46566303587
c49: 80 x_49_ - 160 y_49_ + [ 1 x_49_ ^ 2 + 1 y_49_ ^ 2 ] <= 69113.82195594623
c50: 80 x_50_ - 160 y_50_ + [ 1 x_50_ ^ 2 + 1 y_50_ ^ 2 ] <= 135432.27568370767
c51: 80 x_51_ - 160 y_51_ + [ 1 x_51_ ^ 2 + 1 y_51_ ^ 2 ] <= 16383.757337252642
c52: 80 x_52_ - 160 y_52_ + [ 1 x_52_ ^ 2 + 1 y_52_ ^ 2 ] <= 113468.35160885252
c53: 80 x_53_ - 160 y_53_ + [ 1 x_53_ ^ 2 + 1 y_53_ ^ 2 ] <= 106649.11827169529
c54: 80 x_54_ - 160 y_54_ + [ 1 x_54_ ^ 2 + 1 y_54_ ^ 2 ] <= 150971.1036787681
c55: 80 x_55_ - 160 y_55_ + [ 1 x_55_ ^ 2 + 1 y_55_ ^ 2 ] <= 4680.636226005374
c56: 80 x_56_ - 160 y_56_ + [ 1 x_56_ ^ 2 + 1 y_56_ ^ 2 ] <= 57962.28915887985
c57: 80 x_57_ - 160 y_57_ + [ 1 x_57_ ^ 2 + 1 y_57_ ^ 2 ] <= 86146.04895110952
c58: 80 x_58_ - 160 y_58_ + [ 1 x_58_ ^ 2 + 1 y_58_ ^ 2 ] <= 146695.24031138647
c59: 80 x_59_ - 160 y_59_ + [ 1 x_59_ ^ 2 + 1 y_59_ ^ 2 ] <= 126159.0741964971
c60: 80 x_60_ - 160 y_60_ + [ 1 x_60_ ^ 2 + 1 y_60_ ^ 2 ] <= 129837.55058049384
c61: 80 x_61_ - 160 y_61_ + [ 1 x_61_ ^ 2 + 1 y_61_ ^ 2 ] <= 136735.81619212797
c62: 80 x_62_ - 160 y_62_ + [ 1 x_62_ ^ 2 + 1 y_62_ ^ 2 ] <= 107651.59141747683
c63: 80 x_63_ - 160 y_63_ + [ 1 x_63_ ^ 2 + 1 y_63_ ^ 2 ] <= -4477.120000000001
c64: 80 x_64_ - 160 y_64_ + [ 1 x_64_ ^ 2 + 1 y_64_ ^ 2 ] <= 57464.81637154157
c65: 80 x_65_ - 160 y_65_ + [ 1 x_65_ ^ 2 + 1 y_65_ ^ 2 ] <= 59528.91041903407
c66: 80 x_66_ - 160 y_66_ + [ 1 x_66_ ^ 2 + 1 y_66_ ^ 2 ] <= 108805.0774125035
c67: 80 x_67_ - 160 y_67_ + [ 1 x_67_ ^ 2 + 1 y_67_ ^ 2 ] <= -363.39000000000306
c68: 80 x_68_ - 160 y_68_ + [ 1 x_68_ ^ 2 + 1 y_68_ ^ 2 ] <= 101839.36481549466
c69: 80 x_69_ - 160 y_69_ + [ 1 x_69_ ^ 2 + 1 y_69_ ^ 2 ] <= 98573.82673479228
c70: 80 x_71_ - 160 y_71_ + [ 1 x_71_ ^ 2 + 1 y_71_ ^ 2 ] <= 39201.56535632849
c71: 80 x_72_ - 160 y_72_ + [ 1 x_72_ ^ 2 + 1 y_72_ ^ 2 ] <= 9299.279999999995
c72: 80 x_73_ - 160 y_73_ + [ 1 x_73_ ^ 2 + 1 y_73_ ^ 2 ] <= 126303.36851881459
c73: 80 x_74_ - 160 y_74_ + [ 1 x_74_ ^ 2 + 1 y_74_ ^ 2 ] <= 244630.79304117608
c74: 80 x_75_ - 160 y_75_ + [ 1 x_75_ ^ 2 + 1 y_75_ ^ 2 ] <= 87940.88010149245
c75: 80 x_76_ - 160 y_76_ + [ 1 x_76_ ^ 2 + 1 y_76_ ^ 2 ] <= 161661.39957450284
c76: 80 x_77_ - 160 y_77_ + [ 1 x_77_ ^ 2 + 1 y_77_ ^ 2 ] <= 23504.93
c77: 80 x_78_ - 160 y_78_ + [ 1 x_78_ ^ 2 + 1 y_78_ ^ 2 ] <= 153746.1980743614
c78: 80 x_79_ - 160 y_79_ + [ 1 x_79_ ^ 2 + 1 y_79_ ^ 2 ] <= 20650.57720972282
c79: 80 x_80_ - 160 y_80_ + [ 1 x_80_ ^ 2 + 1 y_80_ ^ 2 ] <= 131759.7612563967
c80: 80 x_81_ - 160 y_81_ + [ 1 x_81_ ^ 2 + 1 y_81_ ^ 2 ] <= 35166.109976448344
c81: 80 x_82_ - 160 y_82_ + [ 1 x_82_ ^ 2 + 1 y_82_ ^ 2 ] <= -5135.64
c82: 80 x_83_ - 160 y_83_ + [ 1 x_83_ ^ 2 + 1 y_83_ ^ 2 ] <= -7709.12
c83: 80 x_84_ - 160 y_84_ + [ 1 x_84_ ^ 2 + 1 y_84_ ^ 2 ] <= 65275.76290538552
c84: 80 x_85_ - 160 y_85_ + [ 1 x_85_ ^ 2 + 1 y_85_ ^ 2 ] <= 188584.52543776584
c85: 80 x_86_ - 160 y_86_ + [ 1 x_86_ ^ 2 + 1 y_86_ ^ 2 ] <= 219476.33351116057
c86: 80 x_87_ - 160 y_87_ + [ 1 x_87_ ^ 2 + 1 y_87_ ^ 2 ] <= 95629.22738904295
c87: 80 x_88_ - 160 y_88_ + [ 1 x_88_ ^ 2 + 1 y_88_ ^ 2 ] <= -596.6999999999989
c88: 80 x_89_ - 160 y_89_ + [ 1 x_89_ ^ 2 + 1 y_89_ ^ 2 ] <= 18784.887752612583
c89: 80 x_90_ - 160 y_90_ + [ 1 x_90_ ^ 2 + 1 y_90_ ^ 2 ] <= 186319.60356930588
c90: 80 x_91_ - 160 y_91_ + [ 1 x_91_ ^ 2 + 1 y_91_ ^ 2 ] <= 130403.16446356243
c91: 80 x_92_ - 160 y_92_ + [ 1 x_92_ ^ 2 + 1 y_92_ ^ 2 ] <= 13878.134783211433
c92: 80 x_93_ - 160 y_93_ + [ 1 x_93_ ^ 2 + 1 y_93_ ^ 2 ] <= 6485.0233334104705
c93: 80 x_94_ - 160 y_94_ + [ 1 x_94_ ^ 2 + 1 y_94_ ^ 2 ] <= 152603.332253083
c94: 80 x_95_ - 160 y_95_ + [ 1 x_95_ ^ 2 + 1 y_95_ ^ 2 ] <= 39569.637686381466
c95: 80 x_96_ - 160 y_96_ + [ 1 x_96_ ^ 2 + 1 y_96_ ^ 2 ] <= 157524.73549939314
c96: 80 x_97_ - 160 y_97_ + [ 1 x_97_ ^ 2 + 1 y_97_ ^ 2 ] <= 131408.99798560748
c97: 80 x_98_ - 160 y_98_ + [ 1 x_98_ ^ 2 + 1 y_98_ ^ 2 ] <= 120747.17620697981
c98: 80 x_99_ - 160 y_99_ + [ 1 x_99_ ^ 2 + 1 y_99_ ^ 2 ] <= 88659.41255176
c99: 80 x_100_ - 160 y_100_ + [ 1 x_100_ ^ 2 + 1 y_100_ ^ 2 ] <= 146615.12754116798
c100: 98 x_1_ + 100 y_1_ + [ 1 x_1_ ^ 2 + 1 y_1_ ^ 2 ] <= 123689.758020668
c101: 98 x_2_ + 100 y_2_ + [ 1 x_2_ ^ 2 + 1 y_2_ ^ 2 ] <= 34231.874623337884
c102: 98 x_3_ + 100 y_3_ + [ 1 x_3_ ^ 2 + 1 y_3_ ^ 2 ] <= 37569.21382258844
c103: 98 x_4_ + 100 y_4_ + [ 1 x_4_ ^ 2 + 1 y_4_ ^ 2 ] <= 94381.79169035774
c104: 98 x_5_ + 100 y_5_ + [ 1 x_5_ ^ 2 + 1 y_5_ ^ 2 ] <= 67627.23018915062
c105: 98 x_6_ + 100 y_6_ + [ 1 x_6_ ^ 2 + 1 y_6_ ^ 2 ] <= 77900.8477758228
c106: 98 x_7_ + 100 y_7_ + [ 1 x_7_ ^ 2 + 1 y_7_ ^ 2 ] <= 162549.7225078882
c107: 98 x_8_ + 100 y_8_ + [ 1 x_8_ ^ 2 + 1 y_8_ ^ 2 ] <= 30356.33652076929
c108: 98 x_9_ + 100 y_9_ + [ 1 x_9_ ^ 2 + 1 y_9_ ^ 2 ] <= 66131.6384271675
c109: 98 x_10_ + 100 y_10_ + [ 1 x_10_ ^ 2 + 1 y_10_ ^ 2 ] <= 122644.66613360406
c110: 98 x_11_ + 100 y_11_ + [ 1 x_11_ ^ 2 + 1 y_11_ ^ 2 ] <= 21372.027481479414
c111: 98 x_12_ + 100 y_12_ + [ 1 x_12_ ^ 2 + 1 y_12_ ^ 2 ] <= 104060.99035293997
c112: 98 x_13_ + 100 y_13_ + [ 1 x_13_ ^ 2 + 1 y_13_ ^ 2 ] <= 101628.42221333564
c113: 98 x_14_ + 100 y_14_ + [ 1 x_14_ ^ 2 + 1 y_14_ ^ 2 ] <= 132113.79909972847
c114: 98 x_15_ + 100 y_15_ + [ 1 x_15_ ^ 2 + 1 y_15_ ^ 2 ] <= 57680.02542677187
c115: 98 x_16_ + 100 y_16_ + [ 1 x_16_ ^ 2 + 1 y_16_ ^ 2 ] <= 115347.7876594076
c116: 98 x_17_ + 100 y_17_ + [ 1 x_17_ ^ 2 + 1 y_17_ ^ 2 ] <= 11470.089999999997
c117: 98 x_18_ + 100 y_18_ + [ 1 x_18_ ^ 2 + 1 y_18_ ^ 2 ] <= 94670.60347454081
c118: 98 x_19_ + 100 y_19_ + [ 1 x_19_ ^ 2 + 1 y_19_ ^ 2 ] <= 160153.19857716796
c119: 98 x_20_ + 100 y_20_ + [ 1 x_20_ ^ 2 + 1 y_20_ ^ 2 ] <= 41177.039205674664
c120: 98 x_21_ + 100 y_21_ + [ 1 x_21_ ^ 2 + 1 y_21_ ^ 2 ] <= 90338.6111423406
c121: 98 x_22_ + 100 y_22_ + [ 1 x_22_ ^ 2 + 1 y_22_ ^ 2 ] <= -1723.5400000000004
c122: 98 x_23_ + 100 y_23_ + [ 1 x_23_ ^ 2 + 1 y_23_ ^ 2 ] <= 159392.59914665864
c123: 98 x_24_ + 100 y_24_ + [ 1 x_24_ ^ 2 + 1 y_24_ ^ 2 ] <= 190000.06570586705
c124: 98 x_25_ + 100 y_25_ + [ 1 x_25_ ^ 2 + 1 y_25_ ^ 2 ] <= 129237.79120454821
c125: 98 x_26_ + 100 y_26_ + [ 1 x_26_ ^ 2 + 1 y_26_ ^ 2 ] <= 153949.19845862224
c126: 98 x_27_ + 100 y_27_ + [ 1 x_27_ ^ 2 + 1 y_27_ ^ 2 ] <= 20942.198511552106
c127: 98 x_28_ + 100 y_28_ + [ 1 x_28_ ^ 2 + 1 y_28_ ^ 2 ] <= 93303.76757676959
c128: 98 x_29_ + 100 y_29_ + [ 1 x_29_ ^ 2 + 1 y_29_ ^ 2 ] <= 121040.11264436392
c129: 98 x_30_ + 100 y_30_ + [ 1 x_30_ ^ 2 + 1 y_30_ ^ 2 ] <= 34788.48874484781
c130: 98 x_31_ + 100 y_31_ + [ 1 x_31_ ^ 2 + 1 y_31_ ^ 2 ] <= 119242.65841479345
c131: 98 x_32_ + 100 y_32_ + [ 1 x_32_ ^ 2 + 1 y_32_ ^ 2 ] <= 59631.016325369645
c132: 98 x_33_ + 100 y_33_ + [ 1 x_33_ ^ 2 + 1 y_33_ ^ 2 ] <= 303476.2510196138
c133: 98 x_34_ + 100 y_34_ + [ 1 x_34_ ^ 2 + 1 y_34_ ^ 2 ] <= 15162.301920897182
c134: 98 x_35_ + 100 y_35_ + [ 1 x_35_ ^ 2 + 1 y_35_ ^ 2 ] <= 186745.56886807882
c135: 98 x_36_ + 100 y_36_ + [ 1 x_36_ ^ 2 + 1 y_36_ ^ 2 ] <= 112310.29259380937
c136: 98 x_37_ + 100 y_37_ + [ 1 x_37_ ^ 2 + 1 y_37_ ^ 2 ] <= 143165.56411855057
c137: 98 x_38_ + 100 y_38_ + [ 1 x_38_ ^ 2 + 1 y_38_ ^ 2 ] <= 99538.79050228946
c138: 98 x_39_ + 100 y_39_ + [ 1 x_39_ ^ 2 + 1 y_39_ ^ 2 ] <= 163002.0714472933
c139: 98 x_40_ + 100 y_40_ + [ 1 x_40_ ^ 2 + 1 y_40_ ^ 2 ] <= 174533.13393156376
c140: 98 x_41_ + 100 y_41_ + [ 1 x_41_ ^ 2 + 1 y_41_ ^ 2 ] <= 67138.21484727533
c141: 98 x_42_ + 100 y_42_ + [ 1 x_42_ ^ 2 + 1 y_42_ ^ 2 ] <= 117610.9324795781
c142: 98 x_43_ + 100 y_43_ + [ 1 x_43_ ^ 2 + 1 y_43_ ^ 2 ] <= 140256.02664401586
c143: 98 x_44_ + 100 y_44_ + [ 1 x_44_ ^ 2 + 1 y_44_ ^ 2 ] <= 142869.82574614277
c144: 98 x_45_ + 100 y_45_ + [ 1 x_45_ ^ 2 + 1 y_45_ ^ 2 ] <= 202064.84611335964
c145: 98 x_47_ + 100 y_47_ + [ 1 x_47_ ^ 2 + 1 y_47_ ^ 2 ] <= 119373.18209923012
c146: 98 x_48_ + 100 y_48_ + [ 1 x_48_ ^ 2 + 1 y_48_ ^ 2 ] <= 75468.86945869667
c147: 98 x_49_ + 100 y_49_ + [ 1 x_49_ ^ 2 + 1 y_49_ ^ 2 ] <= 37984.74688423141
c148: 98 x_50_ + 100 y_50_ + [ 1 x_50_ ^ 2 + 1 y_50_ ^ 2 ] <= 193754.64390035096
c149: 98 x_51_ + 100 y_51_ + [ 1 x_51_ ^ 2 + 1 y_51_ ^ 2 ] <= 148202.18967783052
c150: 98 x_52_ + 100 y_52_ + [ 1 x_52_ ^ 2 + 1 y_52_ ^ 2 ] <= 3652.6899999999987
c151: 98 x_53_ + 100 y_53_ + [ 1 x_53_ ^ 2 + 1 y_53_ ^ 2 ] <= 78498.10418576343
c152: 98 x_54_ + 100 y_54_ + [ 1 x_54_ ^ 2 + 1 y_54_ ^ 2 ] <= 211413.43456588787
c153: 98 x_55_ + 100 y_55_ + [ 1 x_55_ ^ 2 + 1 y_55_ ^ 2 ] <= 90952.16551540681
c154: 98 x_56_ + 100 y_56_ + [ 1 x_56_ ^ 2 + 1 y_56_ ^ 2 ] <= 90488.05694924544
c155: 98 x_57_ + 100 y_57_ + [ 1 x_57_ ^ 2 + 1 y_57_ ^ 2 ] <= 10856.982321152485
c156: 98 x_58_ + 100 y_58_ + [ 1 x_58_ ^ 2 + 1 y_58_ ^ 2 ] <= 45917.269566504496
c157: 98 x_59_ + 100 y_59_ + [ 1 x_59_ ^ 2 + 1 y_59_ ^ 2 ] <= 122534.47926694542
c158: 98 x_60_ + 100 y_60_ + [ 1 x_60_ ^ 2 + 1 y_60_ ^ 2 ] <= 107001.8180046393
c159: 98 x_61_ + 100 y_61_ + [ 1 x_61_ ^ 2 + 1 y_61_ ^ 2 ] <= 191108.0528519105
c160: 98 x_62_ + 100 y_62_ + [ 1 x_62_ ^ 2 + 1 y_62_ ^ 2 ] <= 211506.45760409103
c161: 98 x_63_ + 100 y_63_ + [ 1 x_63_ ^ 2 + 1 y_63_ ^ 2 ] <= 81064.47578136082
c162: 98 x_64_ + 100 y_64_ + [ 1 x_64_ ^ 2 + 1 y_64_ ^ 2 ] <= 94623.11842429874
c163: 98 x_65_ + 100 y_65_ + [ 1 x_65_ ^ 2 + 1 y_65_ ^ 2 ] <= 180288.14661868708
c164: 98 x_66_ + 100 y_66_ + [ 1 x_66_ ^ 2 + 1 y_66_ ^ 2 ] <= 136957.20047498163
c165: 98 x_67_ + 100 y_67_ + [ 1 x_67_ ^ 2 + 1 y_67_ ^ 2 ] <= 99117.33304534502
c166: 98 x_68_ + 100 y_68_ + [ 1 x_68_ ^ 2 + 1 y_68_ ^ 2 ] <= 93515.27014132042
c167: 98 x_69_ + 100 y_69_ + [ 1 x_69_ ^ 2 + 1 y_69_ ^ 2 ] <= 152550.75713469868
c168: 98 x_70_ + 100 y_70_ + [ 1 x_70_ ^ 2 + 1 y_70_ ^ 2 ] <= 81558.1719108431
c169: 98 x_71_ + 100 y_71_ + [ 1 x_71_ ^ 2 + 1 y_71_ ^ 2 ] <= 183027.2446127701
c170: 98 x_72_ + 100 y_72_ + [ 1 x_72_ ^ 2 + 1 y_72_ ^ 2 ] <= 176205.53329503286
c171: 98 x_73_ + 100 y_73_ + [ 1 x_73_ ^ 2 + 1 y_73_ ^ 2 ] <= 138602.50338268653
c172: 98 x_74_ + 100 y_74_ + [ 1 x_74_ ^ 2 + 1 y_74_ ^ 2 ] <= 258503.6930914736
c173: 98 x_75_ + 100 y_75_ + [ 1 x_75_ ^ 2 + 1 y_75_ ^ 2 ] <= 52286.095220697425
c174: 98 x_76_ + 100 y_76_ + [ 1 x_76_ ^ 2 + 1 y_76_ ^ 2 ] <= 171087.6396519252
c175: 98 x_77_ + 100 y_77_ + [ 1 x_77_ ^ 2 + 1 y_77_ ^ 2 ] <= 213783.94146054584
c176: 98 x_78_ + 100 y_78_ + [ 1 x_78_ ^ 2 + 1 y_78_ ^ 2 ] <= 94928.87536292008
c177: 98 x_79_ + 100 y_79_ + [ 1 x_79_ ^ 2 + 1 y_79_ ^ 2 ] <= 10667.698687685557
c178: 98 x_80_ + 100 y_80_ + [ 1 x_80_ ^ 2 + 1 y_80_ ^ 2 ] <= 281947.3719303184
c179: 98 x_81_ + 100 y_81_ + [ 1 x_81_ ^ 2 + 1 y_81_ ^ 2 ] <= 35960.338855918206
c180: 98 x_82_ + 100 y_82_ + [ 1 x_82_ ^ 2 + 1 y_82_ ^ 2 ] <= 115896.34284339733
c181: 98 x_83_ + 100 y_83_ + [ 1 x_83_ ^ 2 + 1 y_83_ ^ 2 ] <= 91878.85628090461
c182: 98 x_84_ + 100 y_84_ + [ 1 x_84_ ^ 2 + 1 y_84_ ^ 2 ] <= 158908.47073529722
c183: 98 x_85_ + 100 y_85_ + [ 1 x_85_ ^ 2 + 1 y_85_ ^ 2 ] <= 124490.46580721646
c184: 98 x_86_ + 100 y_86_ + [ 1 x_86_ ^ 2 + 1 y_86_ ^ 2 ] <= 90617.52343408632
c185: 98 x_87_ + 100 y_87_ + [ 1 x_87_ ^ 2 + 1 y_87_ ^ 2 ] <= 62181.59050283348
c186: 98 x_88_ + 100 y_88_ + [ 1 x_88_ ^ 2 + 1 y_88_ ^ 2 ] <= 106843.3289569156
c187: 98 x_89_ + 100 y_89_ + [ 1 x_89_ ^ 2 + 1 y_89_ ^ 2 ] <= 154134.00028547054
c188: 98 x_90_ + 100 y_90_ + [ 1 x_90_ ^ 2 + 1 y_90_ ^ 2 ] <= 173953.18657454939
c189: 98 x_91_ + 100 y_91_ + [ 1 x_91_ ^ 2 + 1 y_91_ ^ 2 ] <= 190791.27824493274
c190: 98 x_92_ + 100 y_92_ + [ 1 x_92_ ^ 2 + 1 y_92_ ^ 2 ] <= 81004.65794513239
c191: 98 x_93_ + 100 y_93_ + [ 1 x_93_ ^ 2 + 1 y_93_ ^ 2 ] <= 78939.76012654792
c192: 98 x_94_ + 100 y_94_ + [ 1 x_94_ ^ 2 + 1 y_94_ ^ 2 ] <= 16041.870085843635
c193: 98 x_95_ + 100 y_95_ + [ 1 x_95_ ^ 2 + 1 y_95_ ^ 2 ] <= 139114.33787682222
c194: 98 x_96_ + 100 y_96_ + [ 1 x_96_ ^ 2 + 1 y_96_ ^ 2 ] <= 205658.15753723087
c195: 98 x_97_ + 100 y_97_ + [ 1 x_97_ ^ 2 + 1 y_97_ ^ 2 ] <= 117289.77381312891
c196: 98 x_98_ + 100 y_98_ + [ 1 x_98_ ^ 2 + 1 y_98_ ^ 2 ] <= 93898.16529856312
c197: 98 x_99_ + 100 y_99_ + [ 1 x_99_ ^ 2 + 1 y_99_ ^ 2 ] <= 132379.97337492087
c198: 98 x_100_ + 100 y_100_ + [ 1 x_100_ ^ 2 + 1 y_100_ ^ 2 ] <= 113023.64166489673
c199: 76 x_1_ + 20 y_1_ + [ 1 x_1_ ^ 2 + 1 y_1_ ^ 2 ] <= 181041.91038260973
c200: 76 x_2_ + 20 y_2_ + [ 1 x_2_ ^ 2 + 1 y_2_ ^ 2 ] <= 164235.06489408293
c201: 76 x_3_ + 20 y_3_ + [ 1 x_3_ ^ 2 + 1 y_3_ ^ 2 ] <= 238111.96285944
c202: 76 x_4_ + 20 y_4_ + [ 1 x_4_ ^ 2 + 1 y_4_ ^ 2 ] <= 167452.26248227578
c203: 76 x_5_ + 20 y_5_ + [ 1 x_5_ ^ 2 + 1 y_5_ ^ 2 ] <= 147045.78770878928
c204: 76 x_6_ + 20 y_6_ + [ 1 x_6_ ^ 2 + 1 y_6_ ^ 2 ] <= 145722.31329877526
c205: 76 x_7_ + 20 y_7_ + [ 1 x_7_ ^ 2 + 1 y_7_ ^ 2 ] <= 199860.74685354656
c206: 76 x_8_ + 20 y_8_ + [ 1 x_8_ ^ 2 + 1 y_8_ ^ 2 ] <= 179737.43692112074
c207: 76 x_9_ + 20 y_9_ + [ 1 x_9_ ^ 2 + 1 y_9_ ^ 2 ] <= 256775.59352758294
c208: 76 x_10_ + 20 y_10_ + [ 1 x_10_ ^ 2 + 1 y_10_ ^ 2 ] <= 162343.1015462903
c209: 76 x_11_ + 20 y_11_ + [ 1 x_11_ ^ 2 + 1 y_11_ ^ 2 ] <= 197450.87147313537
c210: 76 x_12_ + 20 y_12_ + [ 1 x_12_ ^ 2 + 1 y_12_ ^ 2 ] <= 141179.97659686016
c211: 76 x_13_ + 20 y_13_ + [ 1 x_13_ ^ 2 + 1 y_13_ ^ 2 ] <= 80912.55593511133
c212: 76 x_14_ + 20 y_14_ + [ 1 x_14_ ^ 2 + 1 y_14_ ^ 2 ] <= 172147.04784287573
c213: 76 x_15_ + 20 y_15_ + [ 1 x_15_ ^ 2 + 1 y_15_ ^ 2 ] <= 82402.93133858127
c214: 76 x_16_ + 20 y_16_ + [ 1 x_16_ ^ 2 + 1 y_16_ ^ 2 ] <= 103910.09650127201
c215: 76 x_17_ + 20 y_17_ + [ 1 x_17_ ^ 2 + 1 y_17_ ^ 2 ] <= 168157.48946353048
c216: 76 x_18_ + 20 y_18_ + [ 1 x_18_ ^ 2 + 1 y_18_ ^ 2 ] <= 125160.9231778513
c217: 76 x_19_ + 20 y_19_ + [ 1 x_19_ ^ 2 + 1 y_19_ ^ 2 ] <= 16312.8
c218: 76 x_20_ + 20 y_20_ + [ 1 x_20_ ^ 2 + 1 y_20_ ^ 2 ] <= 207166.16463915902
c219: 76 x_21_ + 20 y_21_ + [ 1 x_21_ ^ 2 + 1 y_21_ ^ 2 ] <= 215762.86105659875
c220: 76 x_22_ + 20 y_22_ + [ 1 x_22_ ^ 2 + 1 y_22_ ^ 2 ] <= 228101.39709009198
c221: 76 x_23_ + 20 y_23_ + [ 1 x_23_ ^ 2 + 1 y_23_ ^ 2 ] <= 182545.04380033293
c222: 76 x_24_ + 20 y_24_ + [ 1 x_24_ ^ 2 + 1 y_24_ ^ 2 ] <= 241062.9011775407
c223: 76 x_25_ + 20 y_25_ + [ 1 x_25_ ^ 2 + 1 y_25_ ^ 2 ] <= 119468.87632207565
c224: 76 x_26_ + 20 y_26_ + [ 1 x_26_ ^ 2 + 1 y_26_ ^ 2 ] <= 134178.21622972668
c225: 76 x_27_ + 20 y_27_ + [ 1 x_27_ ^ 2 + 1 y_27_ ^ 2 ] <= 195789.06406563215
c226: 76 x_28_ + 20 y_28_ + [ 1 x_28_ ^ 2 + 1 y_28_ ^ 2 ] <= 83488.69642245925
c227: 76 x_29_ + 20 y_29_ + [ 1 x_29_ ^ 2 + 1 y_29_ ^ 2 ] <= 63019.64531555629
c228: 76 x_30_ + 20 y_30_ + [ 1 x_30_ ^ 2 + 1 y_30_ ^ 2 ] <= 111594.09282893554
c229: 76 x_31_ + 20 y_31_ + [ 1 x_31_ ^ 2 + 1 y_31_ ^ 2 ] <= 158483.69523682244
c230: 76 x_32_ + 20 y_32_ + [ 1 x_32_ ^ 2 + 1 y_32_ ^ 2 ] <= 77726.82340863599
c231: 76 x_33_ + 20 y_33_ + [ 1 x_33_ ^ 2 + 1 y_33_ ^ 2 ] <= 13582.769999999999
c232: 76 x_34_ + 20 y_34_ + [ 1 x_34_ ^ 2 + 1 y_34_ ^ 2 ] <= 199404.41504183013
c233: 76 x_35_ + 20 y_35_ + [ 1 x_35_ ^ 2 + 1 y_35_ ^ 2 ] <= 141160.30214820584
c234: 76 x_36_ + 20 y_36_ + [ 1 x_36_ ^ 2 + 1 y_36_ ^ 2 ] <= 132061.4793300523
c235: 76 x_37_ + 20 y_37_ + [ 1 x_37_ ^ 2 + 1 y_37_ ^ 2 ] <= 130240.57181884933
c236: 76 x_38_ + 20 y_38_ + [ 1 x_38_ ^ 2 + 1 y_38_ ^ 2 ] <= 121439.95167770496
c237: 76 x_39_ + 20 y_39_ + [ 1 x_39_ ^ 2 + 1 y_39_ ^ 2 ] <= 206727.06791969508
c238: 76 x_40_ + 20 y_40_ + [ 1 x_40_ ^ 2 + 1 y_40_ ^ 2 ] <= 212983.03635361424
c239: 76 x_41_ + 20 y_41_ + [ 1 x_41_ ^ 2 + 1 y_41_ ^ 2 ] <= 112096.73194802768
c240: 76 x_42_ + 20 y_42_ + [ 1 x_42_ ^ 2 + 1 y_42_ ^ 2 ] <= 32890.45374710708
c241: 76 x_43_ + 20 y_43_ + [ 1 x_43_ ^ 2 + 1 y_43_ ^ 2 ] <= 315889.8909347357
c242: 76 x_44_ + 20 y_44_ + [ 1 x_44_ ^ 2 + 1 y_44_ ^ 2 ] <= 128709.1687963662
c243: 76 x_45_ + 20 y_45_ + [ 1 x_45_ ^ 2 + 1 y_45_ ^ 2 ] <= 229185.5585445594
c244: 76 x_46_ + 20 y_46_ + [ 1 x_46_ ^ 2 + 1 y_46_ ^ 2 ] <= 285304.3719303184
c245: 76 x_47_ + 20 y_47_ + [ 1 x_47_ ^ 2 + 1 y_47_ ^ 2 ] <= 142889.9404969928
c246: 76 x_48_ + 20 y_48_ + [ 1 x_48_ ^ 2 + 1 y_48_ ^ 2 ] <= 312237.96425077313
c247: 76 x_49_ + 20 y_49_ + [ 1 x_49_ ^ 2 + 1 y_49_ ^ 2 ] <= 157193.61092159146
c248: 76 x_50_ + 20 y_50_ + [ 1 x_50_ ^ 2 + 1 y_50_ ^ 2 ] <= 220794.13702799508
c249: 76 x_51_ + 20 y_51_ + [ 1 x_51_ ^ 2 + 1 y_51_ ^ 2 ] <= 82843.9088287625
c250: 76 x_52_ + 20 y_52_ + [ 1 x_52_ ^ 2 + 1 y_52_ ^ 2 ] <= 269954.0918607293
c251: 76 x_53_ + 20 y_53_ + [ 1 x_53_ ^ 2 + 1 y_53_ ^ 2 ] <= 205253.90038746325
c252: 76 x_54_ + 20 y_54_ + [ 1 x_54_ ^ 2 + 1 y_54_ ^ 2 ] <= 282603.4009783038
c253: 76 x_55_ + 20 y_55_ + [ 1 x_55_ ^ 2 + 1 y_55_ ^ 2 ] <= 235092.42331559033
c254: 76 x_56_ + 20 y_56_ + [ 1 x_56_ ^ 2 + 1 y_56_ ^ 2 ] <= 141004.81971645055
c255: 76 x_57_ + 20 y_57_ + [ 1 x_57_ ^ 2 + 1 y_57_ ^ 2 ] <= 296544.9544581796
c256: 76 x_58_ + 20 y_58_ + [ 1 x_58_ ^ 2 + 1 y_58_ ^ 2 ] <= 94651.0043261783
c257: 76 x_59_ + 20 y_59_ + [ 1 x_59_ ^ 2 + 1 y_59_ ^ 2 ] <= 222321.1166527127
c258: 76 x_60_ + 20 y_60_ + [ 1 x_60_ ^ 2 + 1 y_60_ ^ 2 ] <= 201569.893291083
c259: 76 x_61_ + 20 y_61_ + [ 1 x_61_ ^ 2 + 1 y_61_ ^ 2 ] <= 288684.85675631266
c260: 76 x_62_ + 20 y_62_ + [ 1 x_62_ ^ 2 + 1 y_62_ ^ 2 ] <= 223529.23415250442
c261: 76 x_63_ + 20 y_63_ + [ 1 x_63_ ^ 2 + 1 y_63_ ^ 2 ] <= 186116.87320562763
c262: 76 x_64_ + 20 y_64_ + [ 1 x_64_ ^ 2 + 1 y_64_ ^ 2 ] <= 257599.28851361547
c263: 76 x_65_ + 20 y_65_ + [ 1 x_65_ ^ 2 + 1 y_65_ ^ 2 ] <= 219271.46036428516
c264: 76 x_66_ + 20 y_66_ + [ 1 x_66_ ^ 2 + 1 y_66_ ^ 2 ] <= 309135.98874782596
c265: 76 x_67_ + 20 y_67_ + [ 1 x_67_ ^ 2 + 1 y_67_ ^ 2 ] <= 80513.5377679356
c266: 76 x_68_ + 20 y_68_ + [ 1 x_68_ ^ 2 + 1 y_68_ ^ 2 ] <= 157208.67373477962
c267: 76 x_69_ + 20 y_69_ + [ 1 x_69_ ^ 2 + 1 y_69_ ^ 2 ] <= 261588.7972522623
c268: 76 x_70_ + 20 y_70_ + [ 1 x_70_ ^ 2 + 1 y_70_ ^ 2 ] <= 138215.7612563967
c269: 76 x_71_ + 20 y_71_ + [ 1 x_71_ ^ 2 + 1 y_71_ ^ 2 ] <= 122080.09960038941
c270: 76 x_72_ + 20 y_72_ + [ 1 x_72_ ^ 2 + 1 y_72_ ^ 2 ] <= 253856.14645066543
c271: 76 x_73_ + 20 y_73_ + [ 1 x_73_ ^ 2 + 1 y_73_ ^ 2 ] <= 84121.95633752843
c272: 76 x_74_ + 20 y_74_ + [ 1 x_74_ ^ 2 + 1 y_74_ ^ 2 ] <= 223126.0389852948
c273: 76 x_75_ + 20 y_75_ + [ 1 x_75_ ^ 2 + 1 y_75_ ^ 2 ] <= 170112.25966199304
c274: 76 x_76_ + 20 y_76_ + [ 1 x_76_ ^ 2 + 1 y_76_ ^ 2 ] <= 65432.50198024188
c275: 76 x_77_ + 20 y_77_ + [ 1 x_77_ ^ 2 + 1 y_77_ ^ 2 ] <= 302432.73283815355
c276: 76 x_78_ + 20 y_78_ + [ 1 x_78_ ^ 2 + 1 y_78_ ^ 2 ] <= 116433.05548200618
c277: 76 x_79_ + 20 y_79_ + [ 1 x_79_ ^ 2 + 1 y_79_ ^ 2 ] <= 229053.29432065325
c278: 76 x_81_ + 20 y_81_ + [ 1 x_81_ ^ 2 + 1 y_81_ ^ 2 ] <= 163969.67879848141
c279: 76 x_82_ + 20 y_82_ + [ 1 x_82_ ^ 2 + 1 y_82_ ^ 2 ] <= 181096.23149976606
c280: 76 x_83_ + 20 y_83_ + [ 1 x_83_ ^ 2 + 1 y_83_ ^ 2 ] <= 151258.63237218105
c281: 76 x_84_ + 20 y_84_ + [ 1 x_84_ ^ 2 + 1 y_84_ ^ 2 ] <= 229484.14560974145
c282: 76 x_85_ + 20 y_85_ + [ 1 x_85_ ^ 2 + 1 y_85_ ^ 2 ] <= 157883.89036006335
c283: 76 x_86_ + 20 y_86_ + [ 1 x_86_ ^ 2 + 1 y_86_ ^ 2 ] <= 153522.49052890495
c284: 76 x_87_ + 20 y_87_ + [ 1 x_87_ ^ 2 + 1 y_87_ ^ 2 ] <= 229050.20886543553
c285: 76 x_88_ + 20 y_88_ + [ 1 x_88_ ^ 2 + 1 y_88_ ^ 2 ] <= 87391.13665585723
c286: 76 x_89_ + 20 y_89_ + [ 1 x_89_ ^ 2 + 1 y_89_ ^ 2 ] <= 130029.09798205734
c287: 76 x_90_ + 20 y_90_ + [ 1 x_90_ ^ 2 + 1 y_90_ ^ 2 ] <= 11150.689999999997
c288: 76 x_91_ + 20 y_91_ + [ 1 x_91_ ^ 2 + 1 y_91_ ^ 2 ] <= 310416.23067563935
c289: 76 x_92_ + 20 y_92_ + [ 1 x_92_ ^ 2 + 1 y_92_ ^ 2 ] <= 270686.5340230997
c290: 76 x_93_ + 20 y_93_ + [ 1 x_93_ ^ 2 + 1 y_93_ ^ 2 ] <= 100486.99676428559
c291: 76 x_94_ + 20 y_94_ + [ 1 x_94_ ^ 2 + 1 y_94_ ^ 2 ] <= 258624.95683897324
c292: 76 x_95_ + 20 y_95_ + [ 1 x_95_ ^ 2 + 1 y_95_ ^ 2 ] <= 180945.49013986762
c293: 76 x_96_ + 20 y_96_ + [ 1 x_96_ ^ 2 + 1 y_96_ ^ 2 ] <= 276788.68506785104
c294: 76 x_97_ + 20 y_97_ + [ 1 x_97_ ^ 2 + 1 y_97_ ^ 2 ] <= 242591.08356288055
c295: 76 x_98_ + 20 y_98_ + [ 1 x_98_ ^ 2 + 1 y_98_ ^ 2 ] <= 382489.15019973123
c296: 76 x_99_ + 20 y_99_ + [ 1 x_99_ ^ 2 + 1 y_99_ ^ 2 ] <= 269780.7809044409
c297: 76 x_100_ + 20 y_100_ + [ 1 x_100_ ^ 2 + 1 y_100_ ^ 2 ] <= 158566.2807262182
quadratic_ranged_1_ub: [ 1 x_2_ ^ 2 - 2 x_4_ * x_2_ + 1 x_4_ ^ 2 + 1 y_2_ ^ 2 - 2 y_4_ * y_2_ + 1 y_4_ ^ 2 ] <= 18685
quadratic_ranged_2_ub: [ 1 x_1_ ^ 2 - 2 x_6_ * x_1_ + 1 x_6_ ^ 2 + 1 y_1_ ^ 2 - 2 y_6_ * y_1_ + 1 y_6_ ^ 2 ] <= 5374.21
quadratic_ranged_3_ub: [ 1 x_4_ ^ 2 - 2 x_6_ * x_4_ + 1 x_6_ ^ 2 + 1 y_4_ ^ 2 - 2 y_6_ * y_4_ + 1 y_6_ ^ 2 ] <= 747.4
quadratic_ranged_4_ub: [ 1 x_6_ ^ 2 - 2 x_9_ * x_6_ + 1 x_9_ ^ 2 + 1 y_6_ ^ 2 - 2 y_9_ * y_6_ + 1 y_9_ ^ 2 ] <= 26472.1
quadratic_ranged_5_ub: [ 1 x_8_ ^ 2 - 2 x_9_ * x_8_ + 1 x_9_ ^ 2 + 1 y_8_ ^ 2 - 2 y_9_ * y_8_ + 1 y_9_ ^ 2 ] <= 25937.81
quadratic_ranged_6_ub: [ 1 x_3_ ^ 2 - 2 x_11_ * x_3_ + 1 x_11_ ^ 2 + 1 y_3_ ^ 2 - 2 y_11_ * y_3_ + 1 y_11_ ^ 2 ] <= 31301.920000000002
quadratic_ranged_7_ub: [ 1 x_5_ ^ 2 - 2 x_11_ * x_5_ + 1 x_11_ ^ 2 + 1 y_5_ ^ 2 - 2 y_11_ * y_5_ + 1 y_11_ ^ 2 ] <= 15470.17
quadratic_ranged_8_ub: [ 1 x_8_ ^ 2 - 2 x_11_ * x_8_ + 1 x_11_ ^ 2 + 1 y_8_ ^ 2 - 2 y_11_ * y_8_ + 1 y_11_ ^ 2 ] <= 11696.81
quadratic_ranged_9_ub: [ 1 x_10_ ^ 2 - 2 x_12_ * x_10_ + 1 x_12_ ^ 2 + 1 y_10_ ^ 2 - 2 y_12_ * y_10_ + 1 y_12_ ^ 2 ] <= 731.24
quadratic_ranged_10_ub: [ 1 x_11_ ^ 2 - 2 x_12_ * x_11_ + 1 x_12_ ^ 2 + 1 y_11_ ^ 2 - 2 y_12_ * y_11_ + 1 y_12_ ^ 2 ] <= 28225.46
quadratic_ranged_11_ub: [ 1 x_5_ ^ 2 - 2 x_13_ * x_5_ + 1 x_13_ ^ 2 + 1 y_5_ ^ 2 - 2 y_13_ * y_5_ + 1 y_13_ ^ 2 ] <= 11462.49
quadratic_ranged_12_ub: [ 1 x_8_ ^ 2 - 2 x_13_ * x_8_ + 1 x_13_ ^ 2 + 1 y_8_ ^ 2 - 2 y_13_ * y_8_ + 1 y_13_ ^ 2 ] <= 19215.25
quadratic_ranged_13_ub: [ 1 x_1_ ^ 2 - 2 x_14_ * x_1_ + 1 x_14_ ^ 2 + 1 y_1_ ^ 2 - 2 y_14_ * y_1_ + 1 y_14_ ^ 2 ] <= 18811.25
quadratic_ranged_14_ub: [ 1 x_9_ ^ 2 - 2 x_14_ * x_9_ + 1 x_14_ ^ 2 + 1 y_9_ ^ 2 - 2 y_14_ * y_9_ + 1 y_14_ ^ 2 ] <= 10740.34
quadratic_ranged_15_ub: [ 1 x_7_ ^ 2 - 2 x_15_ * x_7_ + 1 x_15_ ^ 2 + 1 y_7_ ^ 2 - 2 y_15_ * y_7_ + 1 y_15_ ^ 2 ] <= 25295.45
quadratic_ranged_16_ub: [ 1 x_14_ ^ 2 - 2 x_15_ * x_14_ + 1 x_15_ ^ 2 + 1 y_14_ ^ 2 - 2 y_15_ * y_14_ + 1 y_15_ ^ 2 ] <= 16135.76
quadratic_ranged_17_ub: [ 1 x_3_ ^ 2 - 2 x_17_ * x_3_ + 1 x_17_ ^ 2 + 1 y_3_ ^ 2 - 2 y_17_ * y_3_ + 1 y_17_ ^ 2 ] <= 23393.62
quadratic_ranged_18_ub: [ 1 x_11_ ^ 2 - 2 x_17_ * x_11_ + 1 x_17_ ^ 2 + 1 y_11_ ^ 2 - 2 y_17_ * y_11_ + 1 y_17_ ^ 2 ] <= 1165.54
quadratic_ranged_19_ub: [ 1 x_15_ ^ 2 - 2 x_17_ * x_15_ + 1 x_17_ ^ 2 + 1 y_15_ ^ 2 - 2 y_17_ * y_15_ + 1 y_17_ ^ 2 ] <= 14935.880000000001
quadratic_ranged_20_ub: [ 1 x_6_ ^ 2 - 2 x_18_ * x_6_ + 1 x_18_ ^ 2 + 1 y_6_ ^ 2 - 2 y_18_ * y_6_ + 1 y_18_ ^ 2 ] <= 772.65
quadratic_ranged_21_ub: [ 1 x_16_ ^ 2 - 2 x_18_ * x_16_ + 1 x_18_ ^ 2 + 1 y_16_ ^ 2 - 2 y_18_ * y_16_ + 1 y_18_ ^ 2 ] <= 974.65
quadratic_ranged_22_ub: [ 1 x_13_ ^ 2 - 2 x_19_ * x_13_ + 1 x_19_ ^ 2 + 1 y_13_ ^ 2 - 2 y_19_ * y_13_ + 1 y_19_ ^ 2 ] <= 23569.36
quadratic_ranged_23_ub: [ 1 x_15_ ^ 2 - 2 x_19_ * x_15_ + 1 x_19_ ^ 2 + 1 y_15_ ^ 2 - 2 y_19_ * y_15_ + 1 y_19_ ^ 2 ] <= 24369.28
quadratic_ranged_24_ub: [ 1 x_6_ ^ 2 - 2 x_20_ * x_6_ + 1 x_20_ ^ 2 + 1 y_6_ ^ 2 - 2 y_20_ * y_6_ + 1 y_20_ ^ 2 ] <= 5342.9
quadratic_ranged_25_ub: [ 1 x_10_ ^ 2 - 2 x_20_ * x_10_ + 1 x_20_ ^ 2 + 1 y_10_ ^ 2 - 2 y_20_ * y_10_ + 1 y_20_ ^ 2 ] <= 53871.38
quadratic_ranged_26_ub: [ 1 x_9_ ^ 2 - 2 x_21_ * x_9_ + 1 x_21_ ^ 2 + 1 y_9_ ^ 2 - 2 y_21_ * y_9_ + 1 y_21_ ^ 2 ] <= 1771.54
quadratic_ranged_27_ub: [ 1 x_18_ ^ 2 - 2 x_21_ * x_18_ + 1 x_21_ ^ 2 + 1 y_18_ ^ 2 - 2 y_21_ * y_18_ + 1 y_21_ ^ 2 ] <= 12145.25
quadratic_ranged_28_ub: [ 1 x_7_ ^ 2 - 2 x_23_ * x_7_ + 1 x_23_ ^ 2 + 1 y_7_ ^ 2 - 2 y_23_ * y_7_ + 1 y_23_ ^ 2 ] <= 18200.2
quadratic_ranged_29_ub: [ 1 x_14_ ^ 2 - 2 x_24_ * x_14_ + 1 x_24_ ^ 2 + 1 y_14_ ^ 2 - 2 y_24_ * y_14_ + 1 y_24_ ^ 2 ] <= 10148.48
quadratic_ranged_30_ub: [ 1 x_23_ ^ 2 - 2 x_24_ * x_23_ + 1 x_24_ ^ 2 + 1 y_23_ ^ 2 - 2 y_24_ * y_23_ + 1 y_24_ ^ 2 ] <= 8792.05
quadratic_ranged_31_ub: [ 1 x_13_ ^ 2 - 2 x_25_ * x_13_ + 1 x_25_ ^ 2 + 1 y_13_ ^ 2 - 2 y_25_ * y_13_ + 1 y_25_ ^ 2 ] <= 3686.5
quadratic_ranged_32_ub: [ 1 x_4_ ^ 2 - 2 x_26_ * x_4_ + 1 x_26_ ^ 2 + 1 y_4_ ^ 2 - 2 y_26_ * y_4_ + 1 y_26_ ^ 2 ] <= 6966.9800000000005
quadratic_ranged_33_ub: [ 1 x_9_ ^ 2 - 2 x_26_ * x_9_ + 1 x_26_ ^ 2 + 1 y_9_ ^ 2 - 2 y_26_ * y_9_ + 1 y_26_ ^ 2 ] <= 20995.88
quadratic_ranged_34_ub: [ 1 x_2_ ^ 2 - 2 x_27_ * x_2_ + 1 x_27_ ^ 2 + 1 y_2_ ^ 2 - 2 y_27_ * y_2_ + 1 y_27_ ^ 2 ] <= 1373.6
quadratic_ranged_35_ub: [ 1 x_3_ ^ 2 - 2 x_27_ * x_3_ + 1 x_27_ ^ 2 + 1 y_3_ ^ 2 - 2 y_27_ * y_3_ + 1 y_27_ ^ 2 ] <= 2054.34
quadratic_ranged_36_ub: [ 1 x_11_ ^ 2 - 2 x_27_ * x_11_ + 1 x_27_ ^ 2 + 1 y_11_ ^ 2 - 2 y_27_ * y_11_ + 1 y_27_ ^ 2 ] <= 31926.1
quadratic_ranged_37_ub: [ 1 x_2_ ^ 2 - 2 x_28_ * x_2_ + 1 x_28_ ^ 2 + 1 y_2_ ^ 2 - 2 y_28_ * y_2_ + 1 y_28_ ^ 2 ] <= 13353.210000000001
quadratic_ranged_38_ub: [ 1 x_19_ ^ 2 - 2 x_29_ * x_19_ + 1 x_29_ ^ 2 + 1 y_19_ ^ 2 - 2 y_29_ * y_19_ + 1 y_29_ ^ 2 ] <= 14511.68
quadratic_ranged_39_ub: [ 1 x_5_ ^ 2 - 2 x_30_ * x_5_ + 1 x_30_ ^ 2 + 1 y_5_ ^ 2 - 2 y_30_ * y_5_ + 1 y_30_ ^ 2 ] <= 16439.77
quadratic_ranged_40_ub: [ 1 x_12_ ^ 2 - 2 x_30_ * x_12_ + 1 x_30_ ^ 2 + 1 y_12_ ^ 2 - 2 y_30_ * y_12_ + 1 y_30_ ^ 2 ] <= 27280.1
quadratic_ranged_41_ub: [ 1 x_22_ ^ 2 - 2 x_30_ * x_22_ + 1 x_30_ ^ 2 + 1 y_22_ ^ 2 - 2 y_30_ * y_22_ + 1 y_30_ ^ 2 ] <= 20407.05
quadratic_ranged_42_ub: [ 1 x_12_ ^ 2 - 2 x_31_ * x_12_ + 1 x_31_ ^ 2 + 1 y_12_ ^ 2 - 2 y_31_ * y_12_ + 1 y_31_ ^ 2 ] <= 494.9
quadratic_ranged_43_ub: [ 1 x_5_ ^ 2 - 2 x_32_ * x_5_ + 1 x_32_ ^ 2 + 1 y_5_ ^ 2 - 2 y_32_ * y_5_ + 1 y_32_ ^ 2 ] <= 10799.93
quadratic_ranged_44_ub: [ 1 x_28_ ^ 2 - 2 x_32_ * x_28_ + 1 x_32_ ^ 2 + 1 y_28_ ^ 2 - 2 y_32_ * y_28_ + 1 y_32_ ^ 2 ] <= 27137.69
quadratic_ranged_45_ub: [ 1 x_22_ ^ 2 - 2 x_34_ * x_22_ + 1 x_34_ ^ 2 + 1 y_22_ ^ 2 - 2 y_34_ * y_22_ + 1 y_34_ ^ 2 ] <= 7272
quadratic_ranged_46_ub: [ 1 x_32_ ^ 2 - 2 x_34_ * x_32_ + 1 x_34_ ^ 2 + 1 y_32_ ^ 2 - 2 y_34_ * y_32_ + 1 y_34_ ^ 2 ] <= 27796.21
quadratic_ranged_47_ub: [ 1 x_16_ ^ 2 - 2 x_35_ * x_16_ + 1 x_35_ ^ 2 + 1 y_16_ ^ 2 - 2 y_35_ * y_16_ + 1 y_35_ ^ 2 ] <= 8282
quadratic_ranged_48_ub: [ 1 x_23_ ^ 2 - 2 x_35_ * x_23_ + 1 x_35_ ^ 2 + 1 y_23_ ^ 2 - 2 y_35_ * y_23_ + 1 y_35_ ^ 2 ] <= 2631.05
quadratic_ranged_49_ub: [ 1 x_12_ ^ 2 - 2 x_36_ * x_12_ + 1 x_36_ ^ 2 + 1 y_12_ ^ 2 - 2 y_36_ * y_12_ + 1 y_36_ ^ 2 ] <= 150.49
quadratic_ranged_50_ub: [ 1 x_24_ ^ 2 - 2 x_36_ * x_24_ + 1 x_36_ ^ 2 + 1 y_24_ ^ 2 - 2 y_36_ * y_24_ + 1 y_36_ ^ 2 ] <= 16136.77
quadratic_ranged_51_ub: [ 1 x_25_ ^ 2 - 2 x_36_ * x_25_ + 1 x_36_ ^ 2 + 1 y_25_ ^ 2 - 2 y_36_ * y_25_ + 1 y_36_ ^ 2 ] <= 570.65
quadratic_ranged_52_ub: [ 1 x_18_ ^ 2 - 2 x_37_ * x_18_ + 1 x_37_ ^ 2 + 1 y_18_ ^ 2 - 2 y_37_ * y_18_ + 1 y_37_ ^ 2 ] <= 12289.68
quadratic_ranged_53_ub: [ 1 x_24_ ^ 2 - 2 x_37_ * x_24_ + 1 x_37_ ^ 2 + 1 y_24_ ^ 2 - 2 y_37_ * y_24_ + 1 y_37_ ^ 2 ] <= 20730.25
quadratic_ranged_54_ub: [ 1 x_28_ ^ 2 - 2 x_37_ * x_28_ + 1 x_37_ ^ 2 + 1 y_28_ ^ 2 - 2 y_37_ * y_28_ + 1 y_37_ ^ 2 ] <= 5100.5
quadratic_ranged_55_ub: [ 1 x_21_ ^ 2 - 2 x_38_ * x_21_ + 1 x_38_ ^ 2 + 1 y_21_ ^ 2 - 2 y_38_ * y_21_ + 1 y_38_ ^ 2 ] <= 14678.33
quadratic_ranged_56_ub: [ 1 x_32_ ^ 2 - 2 x_38_ * x_32_ + 1 x_38_ ^ 2 + 1 y_32_ ^ 2 - 2 y_38_ * y_32_ + 1 y_38_ ^ 2 ] <= 4780.33
quadratic_ranged_57_ub: [ 1 x_10_ ^ 2 - 2 x_39_ * x_10_ + 1 x_39_ ^ 2 + 1 y_10_ ^ 2 - 2 y_39_ * y_10_ + 1 y_39_ ^ 2 ] <= 24071.33
quadratic_ranged_58_ub: [ 1 x_12_ ^ 2 - 2 x_39_ * x_12_ + 1 x_39_ ^ 2 + 1 y_12_ ^ 2 - 2 y_39_ * y_12_ + 1 y_39_ ^ 2 ] <= 17680.05
quadratic_ranged_59_ub: [ 1 x_14_ ^ 2 - 2 x_39_ * x_14_ + 1 x_39_ ^ 2 + 1 y_14_ ^ 2 - 2 y_39_ * y_14_ + 1 y_39_ ^ 2 ] <= 1568.53
quadratic_ranged_60_ub: [ 1 x_7_ ^ 2 - 2 x_40_ * x_7_ + 1 x_40_ ^ 2 + 1 y_7_ ^ 2 - 2 y_40_ * y_7_ + 1 y_40_ ^ 2 ] <= 207.05
quadratic_ranged_61_ub: [ 1 x_24_ ^ 2 - 2 x_40_ * x_24_ + 1 x_40_ ^ 2 + 1 y_24_ ^ 2 - 2 y_40_ * y_24_ + 1 y_40_ ^ 2 ] <= 2765.38
quadratic_ranged_62_ub: [ 1 x_26_ ^ 2 - 2 x_40_ * x_26_ + 1 x_40_ ^ 2 + 1 y_26_ ^ 2 - 2 y_40_ * y_26_ + 1 y_40_ ^ 2 ] <= 21735.2
quadratic_ranged_63_ub: [ 1 x_13_ ^ 2 - 2 x_41_ * x_13_ + 1 x_41_ ^ 2 + 1 y_13_ ^ 2 - 2 y_41_ * y_13_ + 1 y_41_ ^ 2 ] <= 22988.61
quadratic_ranged_64_ub: [ 1 x_28_ ^ 2 - 2 x_41_ * x_28_ + 1 x_41_ ^ 2 + 1 y_28_ ^ 2 - 2 y_41_ * y_28_ + 1 y_41_ ^ 2 ] <= 2070.5
quadratic_ranged_65_ub: [ 1 x_29_ ^ 2 - 2 x_41_ * x_29_ + 1 x_41_ ^ 2 + 1 y_29_ ^ 2 - 2 y_41_ * y_29_ + 1 y_41_ ^ 2 ] <= 9337.45
quadratic_ranged_66_ub: [ 1 x_32_ ^ 2 - 2 x_42_ * x_32_ + 1 x_42_ ^ 2 + 1 y_32_ ^ 2 - 2 y_42_ * y_32_ + 1 y_42_ ^ 2 ] <= 9213.22
quadratic_ranged_67_ub: [ 1 x_20_ ^ 2 - 2 x_43_ * x_20_ + 1 x_43_ ^ 2 + 1 y_20_ ^ 2 - 2 y_43_ * y_20_ + 1 y_43_ ^ 2 ] <= 27667.94
quadratic_ranged_68_ub: [ 1 x_23_ ^ 2 - 2 x_43_ * x_23_ + 1 x_43_ ^ 2 + 1 y_23_ ^ 2 - 2 y_43_ * y_23_ + 1 y_43_ ^ 2 ] <= 18051.73
quadratic_ranged_69_ub: [ 1 x_6_ ^ 2 - 2 x_44_ * x_6_ + 1 x_44_ ^ 2 + 1 y_6_ ^ 2 - 2 y_44_ * y_6_ + 1 y_44_ ^ 2 ] <= 9342.5
quadratic_ranged_70_ub: [ 1 x_42_ ^ 2 - 2 x_44_ * x_42_ + 1 x_44_ ^ 2 + 1 y_42_ ^ 2 - 2 y_44_ * y_42_ + 1 y_44_ ^ 2 ] <= 30744.4
quadratic_ranged_71_ub: [ 1 x_25_ ^ 2 - 2 x_45_ * x_25_ + 1 x_45_ ^ 2 + 1 y_25_ ^ 2 - 2 y_45_ * y_25_ + 1 y_45_ ^ 2 ] <= 19550.57
quadratic_ranged_72_ub: [ 1 x_40_ ^ 2 - 2 x_45_ * x_40_ + 1 x_45_ ^ 2 + 1 y_40_ ^ 2 - 2 y_45_ * y_40_ + 1 y_45_ ^ 2 ] <= 17239.69
quadratic_ranged_73_ub: [ 1 x_17_ ^ 2 - 2 x_46_ * x_17_ + 1 x_46_ ^ 2 + 1 y_17_ ^ 2 - 2 y_46_ * y_17_ + 1 y_46_ ^ 2 ] <= 16371.09
quadratic_ranged_74_ub: [ 1 x_22_ ^ 2 - 2 x_46_ * x_22_ + 1 x_46_ ^ 2 + 1 y_22_ ^ 2 - 2 y_46_ * y_22_ + 1 y_46_ ^ 2 ] <= 3177.46
quadratic_ranged_75_ub: [ 1 x_26_ ^ 2 - 2 x_47_ * x_26_ + 1 x_47_ ^ 2 + 1 y_26_ ^ 2 - 2 y_47_ * y_26_ + 1 y_47_ ^ 2 ] <= 9385.93
quadratic_ranged_76_ub: [ 1 x_31_ ^ 2 - 2 x_47_ * x_31_ + 1 x_47_ ^ 2 + 1 y_31_ ^ 2 - 2 y_47_ * y_31_ + 1 y_47_ ^ 2 ] <= 32809.85
quadratic_ranged_77_ub: [ 1 x_32_ ^ 2 - 2 x_47_ * x_32_ + 1 x_47_ ^ 2 + 1 y_32_ ^ 2 - 2 y_47_ * y_32_ + 1 y_47_ ^ 2 ] <= 9701.05
quadratic_ranged_78_ub: [ 1 x_7_ ^ 2 - 2 x_48_ * x_7_ + 1 x_48_ ^ 2 + 1 y_7_ ^ 2 - 2 y_48_ * y_7_ + 1 y_48_ ^ 2 ] <= 16993.25
quadratic_ranged_79_ub: [ 1 x_17_ ^ 2 - 2 x_49_ * x_17_ + 1 x_49_ ^ 2 + 1 y_17_ ^ 2 - 2 y_49_ * y_17_ + 1 y_49_ ^ 2 ] <= 6263.01
quadratic_ranged_80_ub: [ 1 x_41_ ^ 2 - 2 x_49_ * x_41_ + 1 x_49_ ^ 2 + 1 y_41_ ^ 2 - 2 y_49_ * y_41_ + 1 y_49_ ^ 2 ] <= 3759.2200000000003
quadratic_ranged_81_ub: [ 1 x_21_ ^ 2 - 2 x_50_ * x_21_ + 1 x_50_ ^ 2 + 1 y_21_ ^ 2 - 2 y_50_ * y_21_ + 1 y_50_ ^ 2 ] <= 18796.1
quadratic_ranged_82_ub: [ 1 x_25_ ^ 2 - 2 x_50_ * x_25_ + 1 x_50_ ^ 2 + 1 y_25_ ^ 2 - 2 y_50_ * y_25_ + 1 y_50_ ^ 2 ] <= 15291.4
quadratic_ranged_83_ub: [ 1 x_29_ ^ 2 - 2 x_51_ * x_29_ + 1 x_51_ ^ 2 + 1 y_29_ ^ 2 - 2 y_51_ * y_29_ + 1 y_51_ ^ 2 ] <= 1325.1200000000001
quadratic_ranged_84_ub: [ 1 x_35_ ^ 2 - 2 x_51_ * x_35_ + 1 x_51_ ^ 2 + 1 y_35_ ^ 2 - 2 y_51_ * y_35_ + 1 y_51_ ^ 2 ] <= 7615.4
quadratic_ranged_85_ub: [ 1 x_36_ ^ 2 - 2 x_51_ * x_36_ + 1 x_51_ ^ 2 + 1 y_36_ ^ 2 - 2 y_51_ * y_36_ + 1 y_51_ ^ 2 ] <= 5628.7300000000005
quadratic_ranged_86_ub: [ 1 x_8_ ^ 2 - 2 x_52_ * x_8_ + 1 x_52_ ^ 2 + 1 y_8_ ^ 2 - 2 y_52_ * y_8_ + 1 y_52_ ^ 2 ] <= 9078.89
quadratic_ranged_87_ub: [ 1 x_46_ ^ 2 - 2 x_52_ * x_46_ + 1 x_52_ ^ 2 + 1 y_46_ ^ 2 - 2 y_52_ * y_46_ + 1 y_52_ ^ 2 ] <= 8553.69
quadratic_ranged_88_ub: [ 1 x_34_ ^ 2 - 2 x_53_ * x_34_ + 1 x_53_ ^ 2 + 1 y_34_ ^ 2 - 2 y_53_ * y_34_ + 1 y_53_ ^ 2 ] <= 21651.37
quadratic_ranged_89_ub: [ 1 x_36_ ^ 2 - 2 x_53_ * x_36_ + 1 x_53_ ^ 2 + 1 y_36_ ^ 2 - 2 y_53_ * y_36_ + 1 y_53_ ^ 2 ] <= 11539.25
quadratic_ranged_90_ub: [ 1 x_10_ ^ 2 - 2 x_54_ * x_10_ + 1 x_54_ ^ 2 + 1 y_10_ ^ 2 - 2 y_54_ * y_10_ + 1 y_54_ ^ 2 ] <= 29553.61
quadratic_ranged_91_ub: [ 1 x_12_ ^ 2 - 2 x_54_ * x_12_ + 1 x_54_ ^ 2 + 1 y_12_ ^ 2 - 2 y_54_ * y_12_ + 1 y_54_ ^ 2 ] <= 24107.69
quadratic_ranged_92_ub: [ 1 x_3_ ^ 2 - 2 x_55_ * x_3_ + 1 x_55_ ^ 2 + 1 y_3_ ^ 2 - 2 y_55_ * y_3_ + 1 y_55_ ^ 2 ] <= 10716.1
quadratic_ranged_93_ub: [ 1 x_1_ ^ 2 - 2 x_56_ * x_1_ + 1 x_56_ ^ 2 + 1 y_1_ ^ 2 - 2 y_56_ * y_1_ + 1 y_56_ ^ 2 ] <= 2474.5
quadratic_ranged_94_ub: [ 1 x_2_ ^ 2 - 2 x_56_ * x_2_ + 1 x_56_ ^ 2 + 1 y_2_ ^ 2 - 2 y_56_ * y_2_ + 1 y_56_ ^ 2 ] <= 17065.97
quadratic_ranged_95_ub: [ 1 x_41_ ^ 2 - 2 x_56_ * x_41_ + 1 x_56_ ^ 2 + 1 y_41_ ^ 2 - 2 y_56_ * y_41_ + 1 y_56_ ^ 2 ] <= 1636.2
quadratic_ranged_96_ub: [ 1 x_9_ ^ 2 - 2 x_57_ * x_9_ + 1 x_57_ ^ 2 + 1 y_9_ ^ 2 - 2 y_57_ * y_9_ + 1 y_57_ ^ 2 ] <= 19877.81
quadratic_ranged_97_ub: [ 1 x_20_ ^ 2 - 2 x_57_ * x_20_ + 1 x_57_ ^ 2 + 1 y_20_ ^ 2 - 2 y_57_ * y_20_ + 1 y_57_ ^ 2 ] <= 7943.65
quadratic_ranged_98_ub: [ 1 x_22_ ^ 2 - 2 x_57_ * x_22_ + 1 x_57_ ^ 2 + 1 y_22_ ^ 2 - 2 y_57_ * y_22_ + 1 y_57_ ^ 2 ] <= 4783.36
quadratic_ranged_99_ub: [ 1 x_30_ ^ 2 - 2 x_58_ * x_30_ + 1 x_58_ ^ 2 + 1 y_30_ ^ 2 - 2 y_58_ * y_30_ + 1 y_58_ ^ 2 ] <= 686.8
quadratic_ranged_100_ub: [ 1 x_32_ ^ 2 - 2 x_58_ * x_32_ + 1 x_58_ ^ 2 + 1 y_32_ ^ 2 - 2 y_58_ * y_32_ + 1 y_58_ ^ 2 ] <= 818.1
quadratic_ranged_101_ub: [ 1 x_5_ ^ 2 - 2 x_59_ * x_5_ + 1 x_59_ ^ 2 + 1 y_5_ ^ 2 - 2 y_59_ * y_5_ + 1 y_59_ ^ 2 ] <= 7686.1
quadratic_ranged_102_ub: [ 1 x_5_ ^ 2 - 2 x_60_ * x_5_ + 1 x_60_ ^ 2 + 1 y_5_ ^ 2 - 2 y_60_ * y_5_ + 1 y_60_ ^ 2 ] <= 4252.1
quadratic_ranged_103_ub: [ 1 x_6_ ^ 2 - 2 x_60_ * x_6_ + 1 x_60_ ^ 2 + 1 y_6_ ^ 2 - 2 y_60_ * y_6_ + 1 y_60_ ^ 2 ] <= 8303.210000000001
quadratic_ranged_104_ub: [ 1 x_9_ ^ 2 - 2 x_60_ * x_9_ + 1 x_60_ ^ 2 + 1 y_9_ ^ 2 - 2 y_60_ * y_9_ + 1 y_60_ ^ 2 ] <= 5127.77
quadratic_ranged_105_ub: [ 1 x_1_ ^ 2 - 2 x_61_ * x_1_ + 1 x_61_ ^ 2 + 1 y_1_ ^ 2 - 2 y_61_ * y_1_ + 1 y_61_ ^ 2 ] <= 20180.81
quadratic_ranged_106_ub: [ 1 x_4_ ^ 2 - 2 x_61_ * x_4_ + 1 x_61_ ^ 2 + 1 y_4_ ^ 2 - 2 y_61_ * y_4_ + 1 y_61_ ^ 2 ] <= 16291.3
quadratic_ranged_107_ub: [ 1 x_35_ ^ 2 - 2 x_62_ * x_35_ + 1 x_62_ ^ 2 + 1 y_35_ ^ 2 - 2 y_62_ * y_35_ + 1 y_62_ ^ 2 ] <= 9342.5
quadratic_ranged_108_ub: [ 1 x_47_ ^ 2 - 2 x_62_ * x_47_ + 1 x_62_ ^ 2 + 1 y_47_ ^ 2 - 2 y_62_ * y_47_ + 1 y_62_ ^ 2 ] <= 12694.69
quadratic_ranged_109_ub: [ 1 x_3_ ^ 2 - 2 x_63_ * x_3_ + 1 x_63_ ^ 2 + 1 y_3_ ^ 2 - 2 y_63_ * y_3_ + 1 y_63_ ^ 2 ] <= 7589.14
quadratic_ranged_110_ub: [ 1 x_3_ ^ 2 - 2 x_64_ * x_3_ + 1 x_64_ ^ 2 + 1 y_3_ ^ 2 - 2 y_64_ * y_3_ + 1 y_64_ ^ 2 ] <= 11966.48
quadratic_ranged_111_ub: [ 1 x_18_ ^ 2 - 2 x_64_ * x_18_ + 1 x_64_ ^ 2 + 1 y_18_ ^ 2 - 2 y_64_ * y_18_ + 1 y_64_ ^ 2 ] <= 23441.09
quadratic_ranged_112_ub: [ 1 x_7_ ^ 2 - 2 x_65_ * x_7_ + 1 x_65_ ^ 2 + 1 y_7_ ^ 2 - 2 y_65_ * y_7_ + 1 y_65_ ^ 2 ] <= 446.42
quadratic_ranged_113_ub: [ 1 x_45_ ^ 2 - 2 x_65_ * x_45_ + 1 x_65_ ^ 2 + 1 y_45_ ^ 2 - 2 y_65_ * y_45_ + 1 y_65_ ^ 2 ] <= 24896.5
quadratic_ranged_114_ub: [ 1 x_24_ ^ 2 - 2 x_66_ * x_24_ + 1 x_66_ ^ 2 + 1 y_24_ ^ 2 - 2 y_66_ * y_24_ + 1 y_66_ ^ 2 ] <= 4203.62
quadratic_ranged_115_ub: [ 1 x_26_ ^ 2 - 2 x_67_ * x_26_ + 1 x_67_ ^ 2 + 1 y_26_ ^ 2 - 2 y_67_ * y_26_ + 1 y_67_ ^ 2 ] <= 6715.49
quadratic_ranged_116_ub: [ 1 x_29_ ^ 2 - 2 x_67_ * x_29_ + 1 x_67_ ^ 2 + 1 y_29_ ^ 2 - 2 y_67_ * y_29_ + 1 y_67_ ^ 2 ] <= 1047.3700000000001
quadratic_ranged_117_ub: [ 1 x_45_ ^ 2 - 2 x_68_ * x_45_ + 1 x_68_ ^ 2 + 1 y_45_ ^ 2 - 2 y_68_ * y_45_ + 1 y_68_ ^ 2 ] <= 19943.46
quadratic_ranged_118_ub: [ 1 x_58_ ^ 2 - 2 x_68_ * x_58_ + 1 x_68_ ^ 2 + 1 y_58_ ^ 2 - 2 y_68_ * y_58_ + 1 y_68_ ^ 2 ] <= 7794.17
quadratic_ranged_119_ub: [ 1 x_24_ ^ 2 - 2 x_69_ * x_24_ + 1 x_69_ ^ 2 + 1 y_24_ ^ 2 - 2 y_69_ * y_24_ + 1 y_69_ ^ 2 ] <= 14852.05
quadratic_ranged_120_ub: [ 1 x_59_ ^ 2 - 2 x_69_ * x_59_ + 1 x_69_ ^ 2 + 1 y_59_ ^ 2 - 2 y_69_ * y_59_ + 1 y_69_ ^ 2 ] <= 1585.7
quadratic_ranged_121_ub: [ 1 x_27_ ^ 2 - 2 x_70_ * x_27_ + 1 x_70_ ^ 2 + 1 y_27_ ^ 2 - 2 y_70_ * y_27_ + 1 y_70_ ^ 2 ] <= 17763.88
quadratic_ranged_122_ub: [ 1 x_63_ ^ 2 - 2 x_70_ * x_63_ + 1 x_70_ ^ 2 + 1 y_63_ ^ 2 - 2 y_70_ * y_63_ + 1 y_70_ ^ 2 ] <= 3522.88
quadratic_ranged_123_ub: [ 1 x_67_ ^ 2 - 2 x_70_ * x_67_ + 1 x_70_ ^ 2 + 1 y_67_ ^ 2 - 2 y_70_ * y_67_ + 1 y_70_ ^ 2 ] <= 7636.61
quadratic_ranged_124_ub: [ 1 x_21_ ^ 2 - 2 x_71_ * x_21_ + 1 x_71_ ^ 2 + 1 y_21_ ^ 2 - 2 y_71_ * y_21_ + 1 y_71_ ^ 2 ] <= 15599.45
quadratic_ranged_125_ub: [ 1 x_51_ ^ 2 - 2 x_71_ * x_51_ + 1 x_71_ ^ 2 + 1 y_51_ ^ 2 - 2 y_71_ * y_51_ + 1 y_71_ ^ 2 ] <= 3733.9700000000003
quadratic_ranged_126_ub: [ 1 x_40_ ^ 2 - 2 x_72_ * x_40_ + 1 x_72_ ^ 2 + 1 y_40_ ^ 2 - 2 y_72_ * y_40_ + 1 y_72_ ^ 2 ] <= 8615.3
quadratic_ranged_127_ub: [ 1 x_70_ ^ 2 - 2 x_72_ * x_70_ + 1 x_72_ ^ 2 + 1 y_70_ ^ 2 - 2 y_72_ * y_70_ + 1 y_72_ ^ 2 ] <= 17299.28
quadratic_ranged_128_ub: [ 1 x_16_ ^ 2 - 2 x_73_ * x_16_ + 1 x_73_ ^ 2 + 1 y_16_ ^ 2 - 2 y_73_ * y_16_ + 1 y_73_ ^ 2 ] <= 1027.17
quadratic_ranged_129_ub: [ 1 x_19_ ^ 2 - 2 x_73_ * x_19_ + 1 x_73_ ^ 2 + 1 y_19_ ^ 2 - 2 y_73_ * y_19_ + 1 y_73_ ^ 2 ] <= 25299.49
quadratic_ranged_130_ub: [ 1 x_45_ ^ 2 - 2 x_73_ * x_45_ + 1 x_73_ ^ 2 + 1 y_45_ ^ 2 - 2 y_73_ * y_45_ + 1 y_73_ ^ 2 ] <= 35214.66
quadratic_ranged_131_ub: [ 1 x_13_ ^ 2 - 2 x_74_ * x_13_ + 1 x_74_ ^ 2 + 1 y_13_ ^ 2 - 2 y_74_ * y_13_ + 1 y_74_ ^ 2 ] <= 34909.64
quadratic_ranged_132_ub: [ 1 x_44_ ^ 2 - 2 x_74_ * x_44_ + 1 x_74_ ^ 2 + 1 y_44_ ^ 2 - 2 y_74_ * y_44_ + 1 y_74_ ^ 2 ] <= 32588.66
quadratic_ranged_133_ub: [ 1 x_13_ ^ 2 - 2 x_75_ * x_13_ + 1 x_75_ ^ 2 + 1 y_13_ ^ 2 - 2 y_75_ * y_13_ + 1 y_75_ ^ 2 ] <= 16170.1
quadratic_ranged_134_ub: [ 1 x_49_ ^ 2 - 2 x_75_ * x_49_ + 1 x_75_ ^ 2 + 1 y_49_ ^ 2 - 2 y_75_ * y_49_ + 1 y_75_ ^ 2 ] <= 1027.17
quadratic_ranged_135_ub: [ 1 x_6_ ^ 2 - 2 x_76_ * x_6_ + 1 x_76_ ^ 2 + 1 y_6_ ^ 2 - 2 y_76_ * y_6_ + 1 y_76_ ^ 2 ] <= 17359.88
quadratic_ranged_136_ub: [ 1 x_10_ ^ 2 - 2 x_76_ * x_10_ + 1 x_76_ ^ 2 + 1 y_10_ ^ 2 - 2 y_76_ * y_10_ + 1 y_76_ ^ 2 ] <= 23399.68
quadratic_ranged_137_ub: [ 1 x_33_ ^ 2 - 2 x_76_ * x_33_ + 1 x_76_ ^ 2 + 1 y_33_ ^ 2 - 2 y_76_ * y_33_ + 1 y_76_ ^ 2 ] <= 18443.61
quadratic_ranged_138_ub: [ 1 x_68_ ^ 2 - 2 x_77_ * x_68_ + 1 x_77_ ^ 2 + 1 y_68_ ^ 2 - 2 y_77_ * y_68_ + 1 y_77_ ^ 2 ] <= 23692.58
quadratic_ranged_139_ub: [ 1 x_70_ ^ 2 - 2 x_77_ * x_70_ + 1 x_77_ ^ 2 + 1 y_70_ ^ 2 - 2 y_77_ * y_70_ + 1 y_77_ ^ 2 ] <= 31504.93
quadratic_ranged_140_ub: [ 1 x_15_ ^ 2 - 2 x_78_ * x_15_ + 1 x_78_ ^ 2 + 1 y_15_ ^ 2 - 2 y_78_ * y_15_ + 1 y_78_ ^ 2 ] <= 4671.25
quadratic_ranged_141_ub: [ 1 x_32_ ^ 2 - 2 x_78_ * x_32_ + 1 x_78_ ^ 2 + 1 y_32_ ^ 2 - 2 y_78_ * y_32_ + 1 y_78_ ^ 2 ] <= 3834.9700000000003
quadratic_ranged_142_ub: [ 1 x_22_ ^ 2 - 2 x_79_ * x_22_ + 1 x_79_ ^ 2 + 1 y_22_ ^ 2 - 2 y_79_ * y_22_ + 1 y_79_ ^ 2 ] <= 4679.33
quadratic_ranged_143_ub: [ 1 x_27_ ^ 2 - 2 x_79_ * x_27_ + 1 x_79_ ^ 2 + 1 y_27_ ^ 2 - 2 y_79_ * y_27_ + 1 y_79_ ^ 2 ] <= 1294.82
quadratic_ranged_144_ub: [ 1 x_19_ ^ 2 - 2 x_80_ * x_19_ + 1 x_80_ ^ 2 + 1 y_19_ ^ 2 - 2 y_80_ * y_19_ + 1 y_80_ ^ 2 ] <= 17856.8
quadratic_ranged_145_ub: [ 1 x_33_ ^ 2 - 2 x_80_ * x_33_ + 1 x_80_ ^ 2 + 1 y_33_ ^ 2 - 2 y_80_ * y_33_ + 1 y_80_ ^ 2 ] <= 15126.77
quadratic_ranged_146_ub: [ 1 x_17_ ^ 2 - 2 x_81_ * x_17_ + 1 x_81_ ^ 2 + 1 y_17_ ^ 2 - 2 y_81_ * y_17_ + 1 y_81_ ^ 2 ] <= 5504.5
quadratic_ranged_147_ub: [ 1 x_64_ ^ 2 - 2 x_81_ * x_64_ + 1 x_81_ ^ 2 + 1 y_64_ ^ 2 - 2 y_81_ * y_64_ + 1 y_81_ ^ 2 ] <= 57065
quadratic_ranged_148_ub: [ 1 x_70_ ^ 2 - 2 x_82_ * x_70_ + 1 x_82_ ^ 2 + 1 y_70_ ^ 2 - 2 y_82_ * y_70_ + 1 y_82_ ^ 2 ] <= 2864.36
quadratic_ranged_149_ub: [ 1 x_72_ ^ 2 - 2 x_82_ * x_72_ + 1 x_82_ ^ 2 + 1 y_72_ ^ 2 - 2 y_82_ * y_72_ + 1 y_82_ ^ 2 ] <= 6694.28
quadratic_ranged_150_ub: [ 1 x_14_ ^ 2 - 2 x_83_ * x_14_ + 1 x_83_ ^ 2 + 1 y_14_ ^ 2 - 2 y_83_ * y_14_ + 1 y_83_ ^ 2 ] <= 36004.48
quadratic_ranged_151_ub: [ 1 x_55_ ^ 2 - 2 x_83_ * x_55_ + 1 x_83_ ^ 2 + 1 y_55_ ^ 2 - 2 y_83_ * y_55_ + 1 y_83_ ^ 2 ] <= 9130.4
quadratic_ranged_152_ub: [ 1 x_70_ ^ 2 - 2 x_83_ * x_70_ + 1 x_83_ ^ 2 + 1 y_70_ ^ 2 - 2 y_83_ * y_70_ + 1 y_83_ ^ 2 ] <= 290.88
quadratic_ranged_153_ub: [ 1 x_6_ ^ 2 - 2 x_84_ * x_6_ + 1 x_84_ ^ 2 + 1 y_6_ ^ 2 - 2 y_84_ * y_6_ + 1 y_84_ ^ 2 ] <= 13684.49
quadratic_ranged_154_ub: [ 1 x_39_ ^ 2 - 2 x_84_ * x_39_ + 1 x_84_ ^ 2 + 1 y_39_ ^ 2 - 2 y_84_ * y_39_ + 1 y_84_ ^ 2 ] <= 589.84
quadratic_ranged_155_ub: [ 1 x_50_ ^ 2 - 2 x_84_ * x_50_ + 1 x_84_ ^ 2 + 1 y_50_ ^ 2 - 2 y_84_ * y_50_ + 1 y_84_ ^ 2 ] <= 37027.61
quadratic_ranged_156_ub: [ 1 x_15_ ^ 2 - 2 x_85_ * x_15_ + 1 x_85_ ^ 2 + 1 y_15_ ^ 2 - 2 y_85_ * y_15_ + 1 y_85_ ^ 2 ] <= 12000.82
quadratic_ranged_157_ub: [ 1 x_54_ ^ 2 - 2 x_85_ * x_54_ + 1 x_85_ ^ 2 + 1 y_54_ ^ 2 - 2 y_85_ * y_54_ + 1 y_85_ ^ 2 ] <= 41778.65
quadratic_ranged_158_ub: [ 1 x_59_ ^ 2 - 2 x_85_ * x_59_ + 1 x_85_ ^ 2 + 1 y_59_ ^ 2 - 2 y_85_ * y_59_ + 1 y_85_ ^ 2 ] <= 16294.33
quadratic_ranged_159_ub: [ 1 x_54_ ^ 2 - 2 x_86_ * x_54_ + 1 x_86_ ^ 2 + 1 y_54_ ^ 2 - 2 y_86_ * y_54_ + 1 y_86_ ^ 2 ] <= 24347.06
quadratic_ranged_160_ub: [ 1 x_58_ ^ 2 - 2 x_86_ * x_58_ + 1 x_86_ ^ 2 + 1 y_58_ ^ 2 - 2 y_86_ * y_58_ + 1 y_86_ ^ 2 ] <= 6994.25
quadratic_ranged_161_ub: [ 1 x_4_ ^ 2 - 2 x_87_ * x_4_ + 1 x_87_ ^ 2 + 1 y_4_ ^ 2 - 2 y_87_ * y_4_ + 1 y_87_ ^ 2 ] <= 4776.29
quadratic_ranged_162_ub: [ 1 x_8_ ^ 2 - 2 x_87_ * x_8_ + 1 x_87_ ^ 2 + 1 y_8_ ^ 2 - 2 y_87_ * y_8_ + 1 y_87_ ^ 2 ] <= 5074.24
quadratic_ranged_163_ub: [ 1 x_23_ ^ 2 - 2 x_87_ * x_23_ + 1 x_87_ ^ 2 + 1 y_23_ ^ 2 - 2 y_87_ * y_23_ + 1 y_87_ ^ 2 ] <= 21412
quadratic_ranged_164_ub: [ 1 x_67_ ^ 2 - 2 x_88_ * x_67_ + 1 x_88_ ^ 2 + 1 y_67_ ^ 2 - 2 y_88_ * y_67_ + 1 y_88_ ^ 2 ] <= 138.37
quadratic_ranged_165_ub: [ 1 x_70_ ^ 2 - 2 x_88_ * x_70_ + 1 x_88_ ^ 2 + 1 y_70_ ^ 2 - 2 y_88_ * y_70_ + 1 y_88_ ^ 2 ] <= 7403.3
quadratic_ranged_166_ub: [ 1 x_67_ ^ 2 - 2 x_89_ * x_67_ + 1 x_89_ ^ 2 + 1 y_67_ ^ 2 - 2 y_89_ * y_67_ + 1 y_89_ ^ 2 ] <= 5817.6
quadratic_ranged_167_ub: [ 1 x_69_ ^ 2 - 2 x_89_ * x_69_ + 1 x_89_ ^ 2 + 1 y_69_ ^ 2 - 2 y_89_ * y_69_ + 1 y_89_ ^ 2 ] <= 26502.4
quadratic_ranged_168_ub: [ 1 x_28_ ^ 2 - 2 x_90_ * x_28_ + 1 x_90_ ^ 2 + 1 y_28_ ^ 2 - 2 y_90_ * y_28_ + 1 y_90_ ^ 2 ] <= 32017
quadratic_ranged_169_ub: [ 1 x_42_ ^ 2 - 2 x_90_ * x_42_ + 1 x_90_ ^ 2 + 1 y_42_ ^ 2 - 2 y_90_ * y_42_ + 1 y_90_ ^ 2 ] <= 5313.61
quadratic_ranged_170_ub: [ 1 x_80_ ^ 2 - 2 x_90_ * x_80_ + 1 x_90_ ^ 2 + 1 y_80_ ^ 2 - 2 y_90_ * y_80_ + 1 y_90_ ^ 2 ] <= 12694.69
quadratic_ranged_171_ub: [ 1 x_61_ ^ 2 - 2 x_91_ * x_61_ + 1 x_91_ ^ 2 + 1 y_61_ ^ 2 - 2 y_91_ * y_61_ + 1 y_91_ ^ 2 ] <= 8048.6900000000005
quadratic_ranged_172_ub: [ 1 x_69_ ^ 2 - 2 x_91_ * x_69_ + 1 x_91_ ^ 2 + 1 y_69_ ^ 2 - 2 y_91_ * y_69_ + 1 y_91_ ^ 2 ] <= 2076.56
quadratic_ranged_173_ub: [ 1 x_74_ ^ 2 - 2 x_91_ * x_74_ + 1 x_91_ ^ 2 + 1 y_74_ ^ 2 - 2 y_91_ * y_74_ + 1 y_91_ ^ 2 ] <= 22144.25
quadratic_ranged_174_ub: [ 1 x_8_ ^ 2 - 2 x_92_ * x_8_ + 1 x_92_ ^ 2 + 1 y_8_ ^ 2 - 2 y_92_ * y_8_ + 1 y_92_ ^ 2 ] <= 11093.84
quadratic_ranged_175_ub: [ 1 x_63_ ^ 2 - 2 x_92_ * x_63_ + 1 x_92_ ^ 2 + 1 y_63_ ^ 2 - 2 y_92_ * y_63_ + 1 y_92_ ^ 2 ] <= 7842.65
quadratic_ranged_176_ub: [ 1 x_67_ ^ 2 - 2 x_93_ * x_67_ + 1 x_93_ ^ 2 + 1 y_67_ ^ 2 - 2 y_93_ * y_67_ + 1 y_93_ ^ 2 ] <= 1086.76
quadratic_ranged_177_ub: [ 1 x_81_ ^ 2 - 2 x_93_ * x_81_ + 1 x_93_ ^ 2 + 1 y_81_ ^ 2 - 2 y_93_ * y_81_ + 1 y_93_ ^ 2 ] <= 7640.65
quadratic_ranged_178_ub: [ 1 x_5_ ^ 2 - 2 x_94_ * x_5_ + 1 x_94_ ^ 2 + 1 y_5_ ^ 2 - 2 y_94_ * y_5_ + 1 y_94_ ^ 2 ] <= 15523.7
quadratic_ranged_179_ub: [ 1 x_48_ ^ 2 - 2 x_94_ * x_48_ + 1 x_94_ ^ 2 + 1 y_48_ ^ 2 - 2 y_94_ * y_48_ + 1 y_94_ ^ 2 ] <= 19259.69
quadratic_ranged_180_ub: [ 1 x_52_ ^ 2 - 2 x_94_ * x_52_ + 1 x_94_ ^ 2 + 1 y_52_ ^ 2 - 2 y_94_ * y_52_ + 1 y_94_ ^ 2 ] <= 2728.01
quadratic_ranged_181_ub: [ 1 x_4_ ^ 2 - 2 x_95_ * x_4_ + 1 x_95_ ^ 2 + 1 y_4_ ^ 2 - 2 y_95_ * y_4_ + 1 y_95_ ^ 2 ] <= 25605.52
quadratic_ranged_182_ub: [ 1 x_31_ ^ 2 - 2 x_95_ * x_31_ + 1 x_95_ ^ 2 + 1 y_31_ ^ 2 - 2 y_95_ * y_31_ + 1 y_95_ ^ 2 ] <= 737.3
quadratic_ranged_183_ub: [ 1 x_82_ ^ 2 - 2 x_95_ * x_82_ + 1 x_95_ ^ 2 + 1 y_82_ ^ 2 - 2 y_95_ * y_82_ + 1 y_95_ ^ 2 ] <= 27088.2
quadratic_ranged_184_ub: [ 1 x_56_ ^ 2 - 2 x_96_ * x_56_ + 1 x_96_ ^ 2 + 1 y_56_ ^ 2 - 2 y_96_ * y_56_ + 1 y_96_ ^ 2 ] <= 22504.82
quadratic_ranged_185_ub: [ 1 x_62_ ^ 2 - 2 x_96_ * x_62_ + 1 x_96_ ^ 2 + 1 y_62_ ^ 2 - 2 y_96_ * y_62_ + 1 y_96_ ^ 2 ] <= 11252.41
quadratic_ranged_186_ub: [ 1 x_74_ ^ 2 - 2 x_96_ * x_74_ + 1 x_96_ ^ 2 + 1 y_74_ ^ 2 - 2 y_96_ * y_74_ + 1 y_96_ ^ 2 ] <= 56896.33
quadratic_ranged_187_ub: [ 1 x_48_ ^ 2 - 2 x_97_ * x_48_ + 1 x_97_ ^ 2 + 1 y_48_ ^ 2 - 2 y_97_ * y_48_ + 1 y_97_ ^ 2 ] <= 4364.21
quadratic_ranged_188_ub: [ 1 x_56_ ^ 2 - 2 x_97_ * x_56_ + 1 x_97_ ^ 2 + 1 y_56_ ^ 2 - 2 y_97_ * y_56_ + 1 y_97_ ^ 2 ] <= 13582.48
quadratic_ranged_189_ub: [ 1 x_10_ ^ 2 - 2 x_98_ * x_10_ + 1 x_98_ ^ 2 + 1 y_10_ ^ 2 - 2 y_98_ * y_10_ + 1 y_98_ ^ 2 ] <= 49329.41
quadratic_ranged_190_ub: [ 1 x_66_ ^ 2 - 2 x_98_ * x_66_ + 1 x_98_ ^ 2 + 1 y_66_ ^ 2 - 2 y_98_ * y_66_ + 1 y_98_ ^ 2 ] <= 3883.45
quadratic_ranged_191_ub: [ 1 x_79_ ^ 2 - 2 x_98_ * x_79_ + 1 x_98_ ^ 2 + 1 y_79_ ^ 2 - 2 y_98_ * y_79_ + 1 y_98_ ^ 2 ] <= 35928.73
quadratic_ranged_192_ub: [ 1 x_3_ ^ 2 - 2 x_99_ * x_3_ + 1 x_99_ ^ 2 + 1 y_3_ ^ 2 - 2 y_99_ * y_3_ + 1 y_99_ ^ 2 ] <= 27037.7
quadratic_ranged_193_ub: [ 1 x_4_ ^ 2 - 2 x_99_ * x_4_ + 1 x_99_ ^ 2 + 1 y_4_ ^ 2 - 2 y_99_ * y_4_ + 1 y_99_ ^ 2 ] <= 12055.36
quadratic_ranged_194_ub: [ 1 x_68_ ^ 2 - 2 x_99_ * x_68_ + 1 x_99_ ^ 2 + 1 y_68_ ^ 2 - 2 y_99_ * y_68_ + 1 y_99_ ^ 2 ] <= 18306.25
quadratic_ranged_195_ub: [ 1 x_16_ ^ 2 - 2 x_100_ * x_16_ + 1 x_100_ ^ 2 + 1 y_16_ ^ 2 - 2 y_100_ * y_16_ + 1 y_100_ ^ 2 ] <= 5685.29
quadratic_ranged_196_ub: [ 1 x_53_ ^ 2 - 2 x_100_ * x_53_ + 1 x_100_ ^ 2 + 1 y_53_ ^ 2 - 2 y_100_ * y_53_ + 1 y_100_ ^ 2 ] <= 2982.53
quadratic_ranged_197_ub: [ 1 x_59_ ^ 2 - 2 x_100_ * x_59_ + 1 x_100_ ^ 2 + 1 y_59_ ^ 2 - 2 y_100_ * y_59_ + 1 y_100_ ^ 2 ] <= 9716.2
quadratic_ranged_1_lb: [ 1 x_2_ ^ 2 - 2 x_4_ * x_2_ + 1 x_4_ ^ 2 + 1 y_2_ ^ 2 - 2 y_4_ * y_2_ + 1 y_4_ ^ 2 ] >= 18315
quadratic_ranged_2_lb: [ 1 x_1_ ^ 2 - 2 x_6_ * x_1_ + 1 x_6_ ^ 2 + 1 y_1_ ^ 2 - 2 y_6_ * y_1_ + 1 y_6_ ^ 2 ] >= 5267.79
quadratic_ranged_3_lb: [ 1 x_4_ ^ 2 - 2 x_6_ * x_4_ + 1 x_6_ ^ 2 + 1 y_4_ ^ 2 - 2 y_6_ * y_4_ + 1 y_6_ ^ 2 ] >= 732.6
quadratic_ranged_4_lb: [ 1 x_6_ ^ 2 - 2 x_9_ * x_6_ + 1 x_9_ ^ 2 + 1 y_6_ ^ 2 - 2 y_9_ * y_6_ + 1 y_9_ ^ 2 ] >= 25947.9
quadratic_ranged_5_lb: [ 1 x_8_ ^ 2 - 2 x_9_ * x_8_ + 1 x_9_ ^ 2 + 1 y_8_ ^ 2 - 2 y_9_ * y_8_ + 1 y_9_ ^ 2 ] >= 25424.19
quadratic_ranged_6_lb: [ 1 x_3_ ^ 2 - 2 x_11_ * x_3_ + 1 x_11_ ^ 2 + 1 y_3_ ^ 2 - 2 y_11_ * y_3_ + 1 y_11_ ^ 2 ] >= 30682.079999999998
quadratic_ranged_7_lb: [ 1 x_5_ ^ 2 - 2 x_11_ * x_5_ + 1 x_11_ ^ 2 + 1 y_5_ ^ 2 - 2 y_11_ * y_5_ + 1 y_11_ ^ 2 ] >= 15163.83
quadratic_ranged_8_lb: [ 1 x_8_ ^ 2 - 2 x_11_ * x_8_ + 1 x_11_ ^ 2 + 1 y_8_ ^ 2 - 2 y_11_ * y_8_ + 1 y_11_ ^ 2 ] >= 11465.19
quadratic_ranged_9_lb: [ 1 x_10_ ^ 2 - 2 x_12_ * x_10_ + 1 x_12_ ^ 2 + 1 y_10_ ^ 2 - 2 y_12_ * y_10_ + 1 y_12_ ^ 2 ] >= 716.76
quadratic_ranged_10_lb: [ 1 x_11_ ^ 2 - 2 x_12_ * x_11_ + 1 x_12_ ^ 2 + 1 y_11_ ^ 2 - 2 y_12_ * y_11_ + 1 y_12_ ^ 2 ] >= 27666.54
quadratic_ranged_11_lb: [ 1 x_5_ ^ 2 - 2 x_13_ * x_5_ + 1 x_13_ ^ 2 + 1 y_5_ ^ 2 - 2 y_13_ * y_5_ + 1 y_13_ ^ 2 ] >= 11235.51
quadratic_ranged_12_lb: [ 1 x_8_ ^ 2 - 2 x_13_ * x_8_ + 1 x_13_ ^ 2 + 1 y_8_ ^ 2 - 2 y_13_ * y_8_ + 1 y_13_ ^ 2 ] >= 18834.75
quadratic_ranged_13_lb: [ 1 x_1_ ^ 2 - 2 x_14_ * x_1_ + 1 x_14_ ^ 2 + 1 y_1_ ^ 2 - 2 y_14_ * y_1_ + 1 y_14_ ^ 2 ] >= 18438.75
quadratic_ranged_14_lb: [ 1 x_9_ ^ 2 - 2 x_14_ * x_9_ + 1 x_14_ ^ 2 + 1 y_9_ ^ 2 - 2 y_14_ * y_9_ + 1 y_14_ ^ 2 ] >= 10527.66
quadratic_ranged_15_lb: [ 1 x_7_ ^ 2 - 2 x_15_ * x_7_ + 1 x_15_ ^ 2 + 1 y_7_ ^ 2 - 2 y_15_ * y_7_ + 1 y_15_ ^ 2 ] >= 24794.55
quadratic_ranged_16_lb: [ 1 x_14_ ^ 2 - 2 x_15_ * x_14_ + 1 x_15_ ^ 2 + 1 y_14_ ^ 2 - 2 y_15_ * y_14_ + 1 y_15_ ^ 2 ] >= 15816.24
quadratic_ranged_17_lb: [ 1 x_3_ ^ 2 - 2 x_17_ * x_3_ + 1 x_17_ ^ 2 + 1 y_3_ ^ 2 - 2 y_17_ * y_3_ + 1 y_17_ ^ 2 ] >= 22930.38
quadratic_ranged_18_lb: [ 1 x_11_ ^ 2 - 2 x_17_ * x_11_ + 1 x_17_ ^ 2 + 1 y_11_ ^ 2 - 2 y_17_ * y_11_ + 1 y_17_ ^ 2 ] >= 1142.46
quadratic_ranged_19_lb: [ 1 x_15_ ^ 2 - 2 x_17_ * x_15_ + 1 x_17_ ^ 2 + 1 y_15_ ^ 2 - 2 y_17_ * y_15_ + 1 y_17_ ^ 2 ] >= 14640.119999999999
quadratic_ranged_20_lb: [ 1 x_6_ ^ 2 - 2 x_18_ * x_6_ + 1 x_18_ ^ 2 + 1 y_6_ ^ 2 - 2 y_18_ * y_6_ + 1 y_18_ ^ 2 ] >= 757.35
quadratic_ranged_21_lb: [ 1 x_16_ ^ 2 - 2 x_18_ * x_16_ + 1 x_18_ ^ 2 + 1 y_16_ ^ 2 - 2 y_18_ * y_16_ + 1 y_18_ ^ 2 ] >= 955.35
quadratic_ranged_22_lb: [ 1 x_13_ ^ 2 - 2 x_19_ * x_13_ + 1 x_19_ ^ 2 + 1 y_13_ ^ 2 - 2 y_19_ * y_13_ + 1 y_19_ ^ 2 ] >= 23102.64
quadratic_ranged_23_lb: [ 1 x_15_ ^ 2 - 2 x_19_ * x_15_ + 1 x_19_ ^ 2 + 1 y_15_ ^ 2 - 2 y_19_ * y_15_ + 1 y_19_ ^ 2 ] >= 23886.72
quadratic_ranged_24_lb: [ 1 x_6_ ^ 2 - 2 x_20_ * x_6_ + 1 x_20_ ^ 2 + 1 y_6_ ^ 2 - 2 y_20_ * y_6_ + 1 y_20_ ^ 2 ] >= 5237.1
quadratic_ranged_25_lb: [ 1 x_10_ ^ 2 - 2 x_20_ * x_10_ + 1 x_20_ ^ 2 + 1 y_10_ ^ 2 - 2 y_20_ * y_10_ + 1 y_20_ ^ 2 ] >= 52804.62
quadratic_ranged_26_lb: [ 1 x_9_ ^ 2 - 2 x_21_ * x_9_ + 1 x_21_ ^ 2 + 1 y_9_ ^ 2 - 2 y_21_ * y_9_ + 1 y_21_ ^ 2 ] >= 1736.46
quadratic_ranged_27_lb: [ 1 x_18_ ^ 2 - 2 x_21_ * x_18_ + 1 x_21_ ^ 2 + 1 y_18_ ^ 2 - 2 y_21_ * y_18_ + 1 y_21_ ^ 2 ] >= 11904.75
quadratic_ranged_28_lb: [ 1 x_7_ ^ 2 - 2 x_23_ * x_7_ + 1 x_23_ ^ 2 + 1 y_7_ ^ 2 - 2 y_23_ * y_7_ + 1 y_23_ ^ 2 ] >= 17839.8
quadratic_ranged_29_lb: [ 1 x_14_ ^ 2 - 2 x_24_ * x_14_ + 1 x_24_ ^ 2 + 1 y_14_ ^ 2 - 2 y_24_ * y_14_ + 1 y_24_ ^ 2 ] >= 9947.52
quadratic_ranged_30_lb: [ 1 x_23_ ^ 2 - 2 x_24_ * x_23_ + 1 x_24_ ^ 2 + 1 y_23_ ^ 2 - 2 y_24_ * y_23_ + 1 y_24_ ^ 2 ] >= 8617.95
quadratic_ranged_31_lb: [ 1 x_13_ ^ 2 - 2 x_25_ * x_13_ + 1 x_25_ ^ 2 + 1 y_13_ ^ 2 - 2 y_25_ * y_13_ + 1 y_25_ ^ 2 ] >= 3613.5
quadratic_ranged_32_lb: [ 1 x_4_ ^ 2 - 2 x_26_ * x_4_ + 1 x_26_ ^ 2 + 1 y_4_ ^ 2 - 2 y_26_ * y_4_ + 1 y_26_ ^ 2 ] >= 6829.0199999999995
quadratic_ranged_33_lb: [ 1 x_9_ ^ 2 - 2 x_26_ * x_9_ + 1 x_26_ ^ 2 + 1 y_9_ ^ 2 - 2 y_26_ * y_9_ + 1 y_26_ ^ 2 ] >= 20580.12
quadratic_ranged_34_lb: [ 1 x_2_ ^ 2 - 2 x_27_ * x_2_ + 1 x_27_ ^ 2 + 1 y_2_ ^ 2 - 2 y_27_ * y_2_ + 1 y_27_ ^ 2 ] >= 1346.4
quadratic_ranged_35_lb: [ 1 x_3_ ^ 2 - 2 x_27_ * x_3_ + 1 x_27_ ^ 2 + 1 y_3_ ^ 2 - 2 y_27_ * y_3_ + 1 y_27_ ^ 2 ] >= 2013.66
quadratic_ranged_36_lb: [ 1 x_11_ ^ 2 - 2 x_27_ * x_11_ + 1 x_27_ ^ 2 + 1 y_11_ ^ 2 - 2 y_27_ * y_11_ + 1 y_27_ ^ 2 ] >= 31293.9
quadratic_ranged_37_lb: [ 1 x_2_ ^ 2 - 2 x_28_ * x_2_ + 1 x_28_ ^ 2 + 1 y_2_ ^ 2 - 2 y_28_ * y_2_ + 1 y_28_ ^ 2 ] >= 13088.789999999999
quadratic_ranged_38_lb: [ 1 x_19_ ^ 2 - 2 x_29_ * x_19_ + 1 x_29_ ^ 2 + 1 y_19_ ^ 2 - 2 y_29_ * y_19_ + 1 y_29_ ^ 2 ] >= 14224.32
quadratic_ranged_39_lb: [ 1 x_5_ ^ 2 - 2 x_30_ * x_5_ + 1 x_30_ ^ 2 + 1 y_5_ ^ 2 - 2 y_30_ * y_5_ + 1 y_30_ ^ 2 ] >= 16114.23
quadratic_ranged_40_lb: [ 1 x_12_ ^ 2 - 2 x_30_ * x_12_ + 1 x_30_ ^ 2 + 1 y_12_ ^ 2 - 2 y_30_ * y_12_ + 1 y_30_ ^ 2 ] >= 26739.9
quadratic_ranged_41_lb: [ 1 x_22_ ^ 2 - 2 x_30_ * x_22_ + 1 x_30_ ^ 2 + 1 y_22_ ^ 2 - 2 y_30_ * y_22_ + 1 y_30_ ^ 2 ] >= 20002.95
quadratic_ranged_42_lb: [ 1 x_12_ ^ 2 - 2 x_31_ * x_12_ + 1 x_31_ ^ 2 + 1 y_12_ ^ 2 - 2 y_31_ * y_12_ + 1 y_31_ ^ 2 ] >= 485.1
quadratic_ranged_43_lb: [ 1 x_5_ ^ 2 - 2 x_32_ * x_5_ + 1 x_32_ ^ 2 + 1 y_5_ ^ 2 - 2 y_32_ * y_5_ + 1 y_32_ ^ 2 ] >= 10586.07
quadratic_ranged_44_lb: [ 1 x_28_ ^ 2 - 2 x_32_ * x_28_ + 1 x_32_ ^ 2 + 1 y_28_ ^ 2 - 2 y_32_ * y_28_ + 1 y_32_ ^ 2 ] >= 26600.31
quadratic_ranged_45_lb: [ 1 x_22_ ^ 2 - 2 x_34_ * x_22_ + 1 x_34_ ^ 2 + 1 y_22_ ^ 2 - 2 y_34_ * y_22_ + 1 y_34_ ^ 2 ] >= 7128
quadratic_ranged_46_lb: [ 1 x_32_ ^ 2 - 2 x_34_ * x_32_ + 1 x_34_ ^ 2 + 1 y_32_ ^ 2 - 2 y_34_ * y_32_ + 1 y_34_ ^ 2 ] >= 27245.79
quadratic_ranged_47_lb: [ 1 x_16_ ^ 2 - 2 x_35_ * x_16_ + 1 x_35_ ^ 2 + 1 y_16_ ^ 2 - 2 y_35_ * y_16_ + 1 y_35_ ^ 2 ] >= 8118
quadratic_ranged_48_lb: [ 1 x_23_ ^ 2 - 2 x_35_ * x_23_ + 1 x_35_ ^ 2 + 1 y_23_ ^ 2 - 2 y_35_ * y_23_ + 1 y_35_ ^ 2 ] >= 2578.95
quadratic_ranged_49_lb: [ 1 x_12_ ^ 2 - 2 x_36_ * x_12_ + 1 x_36_ ^ 2 + 1 y_12_ ^ 2 - 2 y_36_ * y_12_ + 1 y_36_ ^ 2 ] >= 147.51
quadratic_ranged_50_lb: [ 1 x_24_ ^ 2 - 2 x_36_ * x_24_ + 1 x_36_ ^ 2 + 1 y_24_ ^ 2 - 2 y_36_ * y_24_ + 1 y_36_ ^ 2 ] >= 15817.23
quadratic_ranged_51_lb: [ 1 x_25_ ^ 2 - 2 x_36_ * x_25_ + 1 x_36_ ^ 2 + 1 y_25_ ^ 2 - 2 y_36_ * y_25_ + 1 y_36_ ^ 2 ] >= 559.35
quadratic_ranged_52_lb: [ 1 x_18_ ^ 2 - 2 x_37_ * x_18_ + 1 x_37_ ^ 2 + 1 y_18_ ^ 2 - 2 y_37_ * y_18_ + 1 y_37_ ^ 2 ] >= 12046.32
quadratic_ranged_53_lb: [ 1 x_24_ ^ 2 - 2 x_37_ * x_24_ + 1 x_37_ ^ 2 + 1 y_24_ ^ 2 - 2 y_37_ * y_24_ + 1 y_37_ ^ 2 ] >= 20319.75
quadratic_ranged_54_lb: [ 1 x_28_ ^ 2 - 2 x_37_ * x_28_ + 1 x_37_ ^ 2 + 1 y_28_ ^ 2 - 2 y_37_ * y_28_ + 1 y_37_ ^ 2 ] >= 4999.5
quadratic_ranged_55_lb: [ 1 x_21_ ^ 2 - 2 x_38_ * x_21_ + 1 x_38_ ^ 2 + 1 y_21_ ^ 2 - 2 y_38_ * y_21_ + 1 y_38_ ^ 2 ] >= 14387.67
quadratic_ranged_56_lb: [ 1 x_32_ ^ 2 - 2 x_38_ * x_32_ + 1 x_38_ ^ 2 + 1 y_32_ ^ 2 - 2 y_38_ * y_32_ + 1 y_38_ ^ 2 ] >= 4685.67
quadratic_ranged_57_lb: [ 1 x_10_ ^ 2 - 2 x_39_ * x_10_ + 1 x_39_ ^ 2 + 1 y_10_ ^ 2 - 2 y_39_ * y_10_ + 1 y_39_ ^ 2 ] >= 23594.67
quadratic_ranged_58_lb: [ 1 x_12_ ^ 2 - 2 x_39_ * x_12_ + 1 x_39_ ^ 2 + 1 y_12_ ^ 2 - 2 y_39_ * y_12_ + 1 y_39_ ^ 2 ] >= 17329.95
quadratic_ranged_59_lb: [ 1 x_14_ ^ 2 - 2 x_39_ * x_14_ + 1 x_39_ ^ 2 + 1 y_14_ ^ 2 - 2 y_39_ * y_14_ + 1 y_39_ ^ 2 ] >= 1537.47
quadratic_ranged_60_lb: [ 1 x_7_ ^ 2 - 2 x_40_ * x_7_ + 1 x_40_ ^ 2 + 1 y_7_ ^ 2 - 2 y_40_ * y_7_ + 1 y_40_ ^ 2 ] >= 202.95
quadratic_ranged_61_lb: [ 1 x_24_ ^ 2 - 2 x_40_ * x_24_ + 1 x_40_ ^ 2 + 1 y_24_ ^ 2 - 2 y_40_ * y_24_ + 1 y_40_ ^ 2 ] >= 2710.62
quadratic_ranged_62_lb: [ 1 x_26_ ^ 2 - 2 x_40_ * x_26_ + 1 x_40_ ^ 2 + 1 y_26_ ^ 2 - 2 y_40_ * y_26_ + 1 y_40_ ^ 2 ] >= 21304.8
quadratic_ranged_63_lb: [ 1 x_13_ ^ 2 - 2 x_41_ * x_13_ + 1 x_41_ ^ 2 + 1 y_13_ ^ 2 - 2 y_41_ * y_13_ + 1 y_41_ ^ 2 ] >= 22533.39
quadratic_ranged_64_lb: [ 1 x_28_ ^ 2 - 2 x_41_ * x_28_ + 1 x_41_ ^ 2 + 1 y_28_ ^ 2 - 2 y_41_ * y_28_ + 1 y_41_ ^ 2 ] >= 2029.5
quadratic_ranged_65_lb: [ 1 x_29_ ^ 2 - 2 x_41_ * x_29_ + 1 x_41_ ^ 2 + 1 y_29_ ^ 2 - 2 y_41_ * y_29_ + 1 y_41_ ^ 2 ] >= 9152.55
quadratic_ranged_66_lb: [ 1 x_32_ ^ 2 - 2 x_42_ * x_32_ + 1 x_42_ ^ 2 + 1 y_32_ ^ 2 - 2 y_42_ * y_32_ + 1 y_42_ ^ 2 ] >= 9030.78
quadratic_ranged_67_lb: [ 1 x_20_ ^ 2 - 2 x_43_ * x_20_ + 1 x_43_ ^ 2 + 1 y_20_ ^ 2 - 2 y_43_ * y_20_ + 1 y_43_ ^ 2 ] >= 27120.06
quadratic_ranged_68_lb: [ 1 x_23_ ^ 2 - 2 x_43_ * x_23_ + 1 x_43_ ^ 2 + 1 y_23_ ^ 2 - 2 y_43_ * y_23_ + 1 y_43_ ^ 2 ] >= 17694.27
quadratic_ranged_69_lb: [ 1 x_6_ ^ 2 - 2 x_44_ * x_6_ + 1 x_44_ ^ 2 + 1 y_6_ ^ 2 - 2 y_44_ * y_6_ + 1 y_44_ ^ 2 ] >= 9157.5
quadratic_ranged_70_lb: [ 1 x_42_ ^ 2 - 2 x_44_ * x_42_ + 1 x_44_ ^ 2 + 1 y_42_ ^ 2 - 2 y_44_ * y_42_ + 1 y_44_ ^ 2 ] >= 30135.6
quadratic_ranged_71_lb: [ 1 x_25_ ^ 2 - 2 x_45_ * x_25_ + 1 x_45_ ^ 2 + 1 y_25_ ^ 2 - 2 y_45_ * y_25_ + 1 y_45_ ^ 2 ] >= 19163.43
quadratic_ranged_72_lb: [ 1 x_40_ ^ 2 - 2 x_45_ * x_40_ + 1 x_45_ ^ 2 + 1 y_40_ ^ 2 - 2 y_45_ * y_40_ + 1 y_45_ ^ 2 ] >= 16898.31
quadratic_ranged_73_lb: [ 1 x_17_ ^ 2 - 2 x_46_ * x_17_ + 1 x_46_ ^ 2 + 1 y_17_ ^ 2 - 2 y_46_ * y_17_ + 1 y_46_ ^ 2 ] >= 16046.91
quadratic_ranged_74_lb: [ 1 x_22_ ^ 2 - 2 x_46_ * x_22_ + 1 x_46_ ^ 2 + 1 y_22_ ^ 2 - 2 y_46_ * y_22_ + 1 y_46_ ^ 2 ] >= 3114.54
quadratic_ranged_75_lb: [ 1 x_26_ ^ 2 - 2 x_47_ * x_26_ + 1 x_47_ ^ 2 + 1 y_26_ ^ 2 - 2 y_47_ * y_26_ + 1 y_47_ ^ 2 ] >= 9200.07
quadratic_ranged_76_lb: [ 1 x_31_ ^ 2 - 2 x_47_ * x_31_ + 1 x_47_ ^ 2 + 1 y_31_ ^ 2 - 2 y_47_ * y_31_ + 1 y_47_ ^ 2 ] >= 32160.15
quadratic_ranged_77_lb: [ 1 x_32_ ^ 2 - 2 x_47_ * x_32_ + 1 x_47_ ^ 2 + 1 y_32_ ^ 2 - 2 y_47_ * y_32_ + 1 y_47_ ^ 2 ] >= 9508.95
quadratic_ranged_78_lb: [ 1 x_7_ ^ 2 - 2 x_48_ * x_7_ + 1 x_48_ ^ 2 + 1 y_7_ ^ 2 - 2 y_48_ * y_7_ + 1 y_48_ ^ 2 ] >= 16656.75
quadratic_ranged_79_lb: [ 1 x_17_ ^ 2 - 2 x_49_ * x_17_ + 1 x_49_ ^ 2 + 1 y_17_ ^ 2 - 2 y_49_ * y_17_ + 1 y_49_ ^ 2 ] >= 6138.99
quadratic_ranged_80_lb: [ 1 x_41_ ^ 2 - 2 x_49_ * x_41_ + 1 x_49_ ^ 2 + 1 y_41_ ^ 2 - 2 y_49_ * y_41_ + 1 y_49_ ^ 2 ] >= 3684.7799999999997
quadratic_ranged_81_lb: [ 1 x_21_ ^ 2 - 2 x_50_ * x_21_ + 1 x_50_ ^ 2 + 1 y_21_ ^ 2 - 2 y_50_ * y_21_ + 1 y_50_ ^ 2 ] >= 18423.9
quadratic_ranged_82_lb: [ 1 x_25_ ^ 2 - 2 x_50_ * x_25_ + 1 x_50_ ^ 2 + 1 y_25_ ^ 2 - 2 y_50_ * y_25_ + 1 y_50_ ^ 2 ] >= 14988.6
quadratic_ranged_83_lb: [ 1 x_29_ ^ 2 - 2 x_51_ * x_29_ + 1 x_51_ ^ 2 + 1 y_29_ ^ 2 - 2 y_51_ * y_29_ + 1 y_51_ ^ 2 ] >= 1298.8799999999999
quadratic_ranged_84_lb: [ 1 x_35_ ^ 2 - 2 x_51_ * x_35_ + 1 x_51_ ^ 2 + 1 y_35_ ^ 2 - 2 y_51_ * y_35_ + 1 y_51_ ^ 2 ] >= 7464.6
quadratic_ranged_85_lb: [ 1 x_36_ ^ 2 - 2 x_51_ * x_36_ + 1 x_51_ ^ 2 + 1 y_36_ ^ 2 - 2 y_51_ * y_36_ + 1 y_51_ ^ 2 ] >= 5517.2699999999995
quadratic_ranged_86_lb: [ 1 x_8_ ^ 2 - 2 x_52_ * x_8_ + 1 x_52_ ^ 2 + 1 y_8_ ^ 2 - 2 y_52_ * y_8_ + 1 y_52_ ^ 2 ] >= 8899.11
quadratic_ranged_87_lb: [ 1 x_46_ ^ 2 - 2 x_52_ * x_46_ + 1 x_52_ ^ 2 + 1 y_46_ ^ 2 - 2 y_52_ * y_46_ + 1 y_52_ ^ 2 ] >= 8384.31
quadratic_ranged_88_lb: [ 1 x_34_ ^ 2 - 2 x_53_ * x_34_ + 1 x_53_ ^ 2 + 1 y_34_ ^ 2 - 2 y_53_ * y_34_ + 1 y_53_ ^ 2 ] >= 21222.63
quadratic_ranged_89_lb: [ 1 x_36_ ^ 2 - 2 x_53_ * x_36_ + 1 x_53_ ^ 2 + 1 y_36_ ^ 2 - 2 y_53_ * y_36_ + 1 y_53_ ^ 2 ] >= 11310.75
quadratic_ranged_90_lb: [ 1 x_10_ ^ 2 - 2 x_54_ * x_10_ + 1 x_54_ ^ 2 + 1 y_10_ ^ 2 - 2 y_54_ * y_10_ + 1 y_54_ ^ 2 ] >= 28968.39
quadratic_ranged_91_lb: [ 1 x_12_ ^ 2 - 2 x_54_ * x_12_ + 1 x_54_ ^ 2 + 1 y_12_ ^ 2 - 2 y_54_ * y_12_ + 1 y_54_ ^ 2 ] >= 23630.31
quadratic_ranged_92_lb: [ 1 x_3_ ^ 2 - 2 x_55_ * x_3_ + 1 x_55_ ^ 2 + 1 y_3_ ^ 2 - 2 y_55_ * y_3_ + 1 y_55_ ^ 2 ] >= 10503.9
quadratic_ranged_93_lb: [ 1 x_1_ ^ 2 - 2 x_56_ * x_1_ + 1 x_56_ ^ 2 + 1 y_1_ ^ 2 - 2 y_56_ * y_1_ + 1 y_56_ ^ 2 ] >= 2425.5
quadratic_ranged_94_lb: [ 1 x_2_ ^ 2 - 2 x_56_ * x_2_ + 1 x_56_ ^ 2 + 1 y_2_ ^ 2 - 2 y_56_ * y_2_ + 1 y_56_ ^ 2 ] >= 16728.03
quadratic_ranged_95_lb: [ 1 x_41_ ^ 2 - 2 x_56_ * x_41_ + 1 x_56_ ^ 2 + 1 y_41_ ^ 2 - 2 y_56_ * y_41_ + 1 y_56_ ^ 2 ] >= 1603.8
quadratic_ranged_96_lb: [ 1 x_9_ ^ 2 - 2 x_57_ * x_9_ + 1 x_57_ ^ 2 + 1 y_9_ ^ 2 - 2 y_57_ * y_9_ + 1 y_57_ ^ 2 ] >= 19484.19
quadratic_ranged_97_lb: [ 1 x_20_ ^ 2 - 2 x_57_ * x_20_ + 1 x_57_ ^ 2 + 1 y_20_ ^ 2 - 2 y_57_ * y_20_ + 1 y_57_ ^ 2 ] >= 7786.35
quadratic_ranged_98_lb: [ 1 x_22_ ^ 2 - 2 x_57_ * x_22_ + 1 x_57_ ^ 2 + 1 y_22_ ^ 2 - 2 y_57_ * y_22_ + 1 y_57_ ^ 2 ] >= 4688.64
quadratic_ranged_99_lb: [ 1 x_30_ ^ 2 - 2 x_58_ * x_30_ + 1 x_58_ ^ 2 + 1 y_30_ ^ 2 - 2 y_58_ * y_30_ + 1 y_58_ ^ 2 ] >= 673.2
quadratic_ranged_100_lb: [ 1 x_32_ ^ 2 - 2 x_58_ * x_32_ + 1 x_58_ ^ 2 + 1 y_32_ ^ 2 - 2 y_58_ * y_32_ + 1 y_58_ ^ 2 ] >= 801.9
quadratic_ranged_101_lb: [ 1 x_5_ ^ 2 - 2 x_59_ * x_5_ + 1 x_59_ ^ 2 + 1 y_5_ ^ 2 - 2 y_59_ * y_5_ + 1 y_59_ ^ 2 ] >= 7533.9
quadratic_ranged_102_lb: [ 1 x_5_ ^ 2 - 2 x_60_ * x_5_ + 1 x_60_ ^ 2 + 1 y_5_ ^ 2 - 2 y_60_ * y_5_ + 1 y_60_ ^ 2 ] >= 4167.9
quadratic_ranged_103_lb: [ 1 x_6_ ^ 2 - 2 x_60_ * x_6_ + 1 x_60_ ^ 2 + 1 y_6_ ^ 2 - 2 y_60_ * y_6_ + 1 y_60_ ^ 2 ] >= 8138.79
quadratic_ranged_104_lb: [ 1 x_9_ ^ 2 - 2 x_60_ * x_9_ + 1 x_60_ ^ 2 + 1 y_9_ ^ 2 - 2 y_60_ * y_9_ + 1 y_60_ ^ 2 ] >= 5026.23
quadratic_ranged_105_lb: [ 1 x_1_ ^ 2 - 2 x_61_ * x_1_ + 1 x_61_ ^ 2 + 1 y_1_ ^ 2 - 2 y_61_ * y_1_ + 1 y_61_ ^ 2 ] >= 19781.19
quadratic_ranged_106_lb: [ 1 x_4_ ^ 2 - 2 x_61_ * x_4_ + 1 x_61_ ^ 2 + 1 y_4_ ^ 2 - 2 y_61_ * y_4_ + 1 y_61_ ^ 2 ] >= 15968.7
quadratic_ranged_107_lb: [ 1 x_35_ ^ 2 - 2 x_62_ * x_35_ + 1 x_62_ ^ 2 + 1 y_35_ ^ 2 - 2 y_62_ * y_35_ + 1 y_62_ ^ 2 ] >= 9157.5
quadratic_ranged_108_lb: [ 1 x_47_ ^ 2 - 2 x_62_ * x_47_ + 1 x_62_ ^ 2 + 1 y_47_ ^ 2 - 2 y_62_ * y_47_ + 1 y_62_ ^ 2 ] >= 12443.31
quadratic_ranged_109_lb: [ 1 x_3_ ^ 2 - 2 x_63_ * x_3_ + 1 x_63_ ^ 2 + 1 y_3_ ^ 2 - 2 y_63_ * y_3_ + 1 y_63_ ^ 2 ] >= 7438.86
quadratic_ranged_110_lb: [ 1 x_3_ ^ 2 - 2 x_64_ * x_3_ + 1 x_64_ ^ 2 + 1 y_3_ ^ 2 - 2 y_64_ * y_3_ + 1 y_64_ ^ 2 ] >= 11729.52
quadratic_ranged_111_lb: [ 1 x_18_ ^ 2 - 2 x_64_ * x_18_ + 1 x_64_ ^ 2 + 1 y_18_ ^ 2 - 2 y_64_ * y_18_ + 1 y_64_ ^ 2 ] >= 22976.91
quadratic_ranged_112_lb: [ 1 x_7_ ^ 2 - 2 x_65_ * x_7_ + 1 x_65_ ^ 2 + 1 y_7_ ^ 2 - 2 y_65_ * y_7_ + 1 y_65_ ^ 2 ] >= 437.58
quadratic_ranged_113_lb: [ 1 x_45_ ^ 2 - 2 x_65_ * x_45_ + 1 x_65_ ^ 2 + 1 y_45_ ^ 2 - 2 y_65_ * y_45_ + 1 y_65_ ^ 2 ] >= 24403.5
quadratic_ranged_114_lb: [ 1 x_24_ ^ 2 - 2 x_66_ * x_24_ + 1 x_66_ ^ 2 + 1 y_24_ ^ 2 - 2 y_66_ * y_24_ + 1 y_66_ ^ 2 ] >= 4120.38
quadratic_ranged_115_lb: [ 1 x_26_ ^ 2 - 2 x_67_ * x_26_ + 1 x_67_ ^ 2 + 1 y_26_ ^ 2 - 2 y_67_ * y_26_ + 1 y_67_ ^ 2 ] >= 6582.51
quadratic_ranged_116_lb: [ 1 x_29_ ^ 2 - 2 x_67_ * x_29_ + 1 x_67_ ^ 2 + 1 y_29_ ^ 2 - 2 y_67_ * y_29_ + 1 y_67_ ^ 2 ] >= 1026.6299999999999
quadratic_ranged_117_lb: [ 1 x_45_ ^ 2 - 2 x_68_ * x_45_ + 1 x_68_ ^ 2 + 1 y_45_ ^ 2 - 2 y_68_ * y_45_ + 1 y_68_ ^ 2 ] >= 19548.54
quadratic_ranged_118_lb: [ 1 x_58_ ^ 2 - 2 x_68_ * x_58_ + 1 x_68_ ^ 2 + 1 y_58_ ^ 2 - 2 y_68_ * y_58_ + 1 y_68_ ^ 2 ] >= 7639.83
quadratic_ranged_119_lb: [ 1 x_24_ ^ 2 - 2 x_69_ * x_24_ + 1 x_69_ ^ 2 + 1 y_24_ ^ 2 - 2 y_69_ * y_24_ + 1 y_69_ ^ 2 ] >= 14557.95
quadratic_ranged_120_lb: [ 1 x_59_ ^ 2 - 2 x_69_ * x_59_ + 1 x_69_ ^ 2 + 1 y_59_ ^ 2 - 2 y_69_ * y_59_ + 1 y_69_ ^ 2 ] >= 1554.3
quadratic_ranged_121_lb: [ 1 x_27_ ^ 2 - 2 x_70_ * x_27_ + 1 x_70_ ^ 2 + 1 y_27_ ^ 2 - 2 y_70_ * y_27_ + 1 y_70_ ^ 2 ] >= 17412.12
quadratic_ranged_122_lb: [ 1 x_63_ ^ 2 - 2 x_70_ * x_63_ + 1 x_70_ ^ 2 + 1 y_63_ ^ 2 - 2 y_70_ * y_63_ + 1 y_70_ ^ 2 ] >= 3453.12
quadratic_ranged_123_lb: [ 1 x_67_ ^ 2 - 2 x_70_ * x_67_ + 1 x_70_ ^ 2 + 1 y_67_ ^ 2 - 2 y_70_ * y_67_ + 1 y_70_ ^ 2 ] >= 7485.39
quadratic_ranged_124_lb: [ 1 x_21_ ^ 2 - 2 x_71_ * x_21_ + 1 x_71_ ^ 2 + 1 y_21_ ^ 2 - 2 y_71_ * y_21_ + 1 y_71_ ^ 2 ] >= 15290.55
quadratic_ranged_125_lb: [ 1 x_51_ ^ 2 - 2 x_71_ * x_51_ + 1 x_71_ ^ 2 + 1 y_51_ ^ 2 - 2 y_71_ * y_51_ + 1 y_71_ ^ 2 ] >= 3660.0299999999997
quadratic_ranged_126_lb: [ 1 x_40_ ^ 2 - 2 x_72_ * x_40_ + 1 x_72_ ^ 2 + 1 y_40_ ^ 2 - 2 y_72_ * y_40_ + 1 y_72_ ^ 2 ] >= 8444.7
quadratic_ranged_127_lb: [ 1 x_70_ ^ 2 - 2 x_72_ * x_70_ + 1 x_72_ ^ 2 + 1 y_70_ ^ 2 - 2 y_72_ * y_70_ + 1 y_72_ ^ 2 ] >= 16956.72
quadratic_ranged_128_lb: [ 1 x_16_ ^ 2 - 2 x_73_ * x_16_ + 1 x_73_ ^ 2 + 1 y_16_ ^ 2 - 2 y_73_ * y_16_ + 1 y_73_ ^ 2 ] >= 1006.83
quadratic_ranged_129_lb: [ 1 x_19_ ^ 2 - 2 x_73_ * x_19_ + 1 x_73_ ^ 2 + 1 y_19_ ^ 2 - 2 y_73_ * y_19_ + 1 y_73_ ^ 2 ] >= 24798.51
quadratic_ranged_130_lb: [ 1 x_45_ ^ 2 - 2 x_73_ * x_45_ + 1 x_73_ ^ 2 + 1 y_45_ ^ 2 - 2 y_73_ * y_45_ + 1 y_73_ ^ 2 ] >= 34517.34
quadratic_ranged_131_lb: [ 1 x_13_ ^ 2 - 2 x_74_ * x_13_ + 1 x_74_ ^ 2 + 1 y_13_ ^ 2 - 2 y_74_ * y_13_ + 1 y_74_ ^ 2 ] >= 34218.36
quadratic_ranged_132_lb: [ 1 x_44_ ^ 2 - 2 x_74_ * x_44_ + 1 x_74_ ^ 2 + 1 y_44_ ^ 2 - 2 y_74_ * y_44_ + 1 y_74_ ^ 2 ] >= 31943.34
quadratic_ranged_133_lb: [ 1 x_13_ ^ 2 - 2 x_75_ * x_13_ + 1 x_75_ ^ 2 + 1 y_13_ ^ 2 - 2 y_75_ * y_13_ + 1 y_75_ ^ 2 ] >= 15849.9
quadratic_ranged_134_lb: [ 1 x_49_ ^ 2 - 2 x_75_ * x_49_ + 1 x_75_ ^ 2 + 1 y_49_ ^ 2 - 2 y_75_ * y_49_ + 1 y_75_ ^ 2 ] >= 1006.83
quadratic_ranged_135_lb: [ 1 x_6_ ^ 2 - 2 x_76_ * x_6_ + 1 x_76_ ^ 2 + 1 y_6_ ^ 2 - 2 y_76_ * y_6_ + 1 y_76_ ^ 2 ] >= 17016.12
quadratic_ranged_136_lb: [ 1 x_10_ ^ 2 - 2 x_76_ * x_10_ + 1 x_76_ ^ 2 + 1 y_10_ ^ 2 - 2 y_76_ * y_10_ + 1 y_76_ ^ 2 ] >= 22936.32
quadratic_ranged_137_lb: [ 1 x_33_ ^ 2 - 2 x_76_ * x_33_ + 1 x_76_ ^ 2 + 1 y_33_ ^ 2 - 2 y_76_ * y_33_ + 1 y_76_ ^ 2 ] >= 18078.39
quadratic_ranged_138_lb: [ 1 x_68_ ^ 2 - 2 x_77_ * x_68_ + 1 x_77_ ^ 2 + 1 y_68_ ^ 2 - 2 y_77_ * y_68_ + 1 y_77_ ^ 2 ] >= 23223.42
quadratic_ranged_139_lb: [ 1 x_70_ ^ 2 - 2 x_77_ * x_70_ + 1 x_77_ ^ 2 + 1 y_70_ ^ 2 - 2 y_77_ * y_70_ + 1 y_77_ ^ 2 ] >= 30881.07
quadratic_ranged_140_lb: [ 1 x_15_ ^ 2 - 2 x_78_ * x_15_ + 1 x_78_ ^ 2 + 1 y_15_ ^ 2 - 2 y_78_ * y_15_ + 1 y_78_ ^ 2 ] >= 4578.75
quadratic_ranged_141_lb: [ 1 x_32_ ^ 2 - 2 x_78_ * x_32_ + 1 x_78_ ^ 2 + 1 y_32_ ^ 2 - 2 y_78_ * y_32_ + 1 y_78_ ^ 2 ] >= 3759.0299999999997
quadratic_ranged_142_lb: [ 1 x_22_ ^ 2 - 2 x_79_ * x_22_ + 1 x_79_ ^ 2 + 1 y_22_ ^ 2 - 2 y_79_ * y_22_ + 1 y_79_ ^ 2 ] >= 4586.67
quadratic_ranged_143_lb: [ 1 x_27_ ^ 2 - 2 x_79_ * x_27_ + 1 x_79_ ^ 2 + 1 y_27_ ^ 2 - 2 y_79_ * y_27_ + 1 y_79_ ^ 2 ] >= 1269.18
quadratic_ranged_144_lb: [ 1 x_19_ ^ 2 - 2 x_80_ * x_19_ + 1 x_80_ ^ 2 + 1 y_19_ ^ 2 - 2 y_80_ * y_19_ + 1 y_80_ ^ 2 ] >= 17503.2
quadratic_ranged_145_lb: [ 1 x_33_ ^ 2 - 2 x_80_ * x_33_ + 1 x_80_ ^ 2 + 1 y_33_ ^ 2 - 2 y_80_ * y_33_ + 1 y_80_ ^ 2 ] >= 14827.23
quadratic_ranged_146_lb: [ 1 x_17_ ^ 2 - 2 x_81_ * x_17_ + 1 x_81_ ^ 2 + 1 y_17_ ^ 2 - 2 y_81_ * y_17_ + 1 y_81_ ^ 2 ] >= 5395.5
quadratic_ranged_147_lb: [ 1 x_64_ ^ 2 - 2 x_81_ * x_64_ + 1 x_81_ ^ 2 + 1 y_64_ ^ 2 - 2 y_81_ * y_64_ + 1 y_81_ ^ 2 ] >= 55935
quadratic_ranged_148_lb: [ 1 x_70_ ^ 2 - 2 x_82_ * x_70_ + 1 x_82_ ^ 2 + 1 y_70_ ^ 2 - 2 y_82_ * y_70_ + 1 y_82_ ^ 2 ] >= 2807.64
quadratic_ranged_149_lb: [ 1 x_72_ ^ 2 - 2 x_82_ * x_72_ + 1 x_82_ ^ 2 + 1 y_72_ ^ 2 - 2 y_82_ * y_72_ + 1 y_82_ ^ 2 ] >= 6561.72
quadratic_ranged_150_lb: [ 1 x_14_ ^ 2 - 2 x_83_ * x_14_ + 1 x_83_ ^ 2 + 1 y_14_ ^ 2 - 2 y_83_ * y_14_ + 1 y_83_ ^ 2 ] >= 35291.52
quadratic_ranged_151_lb: [ 1 x_55_ ^ 2 - 2 x_83_ * x_55_ + 1 x_83_ ^ 2 + 1 y_55_ ^ 2 - 2 y_83_ * y_55_ + 1 y_83_ ^ 2 ] >= 8949.6
quadratic_ranged_152_lb: [ 1 x_70_ ^ 2 - 2 x_83_ * x_70_ + 1 x_83_ ^ 2 + 1 y_70_ ^ 2 - 2 y_83_ * y_70_ + 1 y_83_ ^ 2 ] >= 285.12
quadratic_ranged_153_lb: [ 1 x_6_ ^ 2 - 2 x_84_ * x_6_ + 1 x_84_ ^ 2 + 1 y_6_ ^ 2 - 2 y_84_ * y_6_ + 1 y_84_ ^ 2 ] >= 13413.51
quadratic_ranged_154_lb: [ 1 x_39_ ^ 2 - 2 x_84_ * x_39_ + 1 x_84_ ^ 2 + 1 y_39_ ^ 2 - 2 y_84_ * y_39_ + 1 y_84_ ^ 2 ] >= 578.16
quadratic_ranged_155_lb: [ 1 x_50_ ^ 2 - 2 x_84_ * x_50_ + 1 x_84_ ^ 2 + 1 y_50_ ^ 2 - 2 y_84_ * y_50_ + 1 y_84_ ^ 2 ] >= 36294.39
quadratic_ranged_156_lb: [ 1 x_15_ ^ 2 - 2 x_85_ * x_15_ + 1 x_85_ ^ 2 + 1 y_15_ ^ 2 - 2 y_85_ * y_15_ + 1 y_85_ ^ 2 ] >= 11763.18
quadratic_ranged_157_lb: [ 1 x_54_ ^ 2 - 2 x_85_ * x_54_ + 1 x_85_ ^ 2 + 1 y_54_ ^ 2 - 2 y_85_ * y_54_ + 1 y_85_ ^ 2 ] >= 40951.35
quadratic_ranged_158_lb: [ 1 x_59_ ^ 2 - 2 x_85_ * x_59_ + 1 x_85_ ^ 2 + 1 y_59_ ^ 2 - 2 y_85_ * y_59_ + 1 y_85_ ^ 2 ] >= 15971.67
quadratic_ranged_159_lb: [ 1 x_54_ ^ 2 - 2 x_86_ * x_54_ + 1 x_86_ ^ 2 + 1 y_54_ ^ 2 - 2 y_86_ * y_54_ + 1 y_86_ ^ 2 ] >= 23864.94
quadratic_ranged_160_lb: [ 1 x_58_ ^ 2 - 2 x_86_ * x_58_ + 1 x_86_ ^ 2 + 1 y_58_ ^ 2 - 2 y_86_ * y_58_ + 1 y_86_ ^ 2 ] >= 6855.75
quadratic_ranged_161_lb: [ 1 x_4_ ^ 2 - 2 x_87_ * x_4_ + 1 x_87_ ^ 2 + 1 y_4_ ^ 2 - 2 y_87_ * y_4_ + 1 y_87_ ^ 2 ] >= 4681.71
quadratic_ranged_162_lb: [ 1 x_8_ ^ 2 - 2 x_87_ * x_8_ + 1 x_87_ ^ 2 + 1 y_8_ ^ 2 - 2 y_87_ * y_8_ + 1 y_87_ ^ 2 ] >= 4973.76
quadratic_ranged_163_lb: [ 1 x_23_ ^ 2 - 2 x_87_ * x_23_ + 1 x_87_ ^ 2 + 1 y_23_ ^ 2 - 2 y_87_ * y_23_ + 1 y_87_ ^ 2 ] >= 20988
quadratic_ranged_164_lb: [ 1 x_67_ ^ 2 - 2 x_88_ * x_67_ + 1 x_88_ ^ 2 + 1 y_67_ ^ 2 - 2 y_88_ * y_67_ + 1 y_88_ ^ 2 ] >= 135.63
quadratic_ranged_165_lb: [ 1 x_70_ ^ 2 - 2 x_88_ * x_70_ + 1 x_88_ ^ 2 + 1 y_70_ ^ 2 - 2 y_88_ * y_70_ + 1 y_88_ ^ 2 ] >= 7256.7
quadratic_ranged_166_lb: [ 1 x_67_ ^ 2 - 2 x_89_ * x_67_ + 1 x_89_ ^ 2 + 1 y_67_ ^ 2 - 2 y_89_ * y_67_ + 1 y_89_ ^ 2 ] >= 5702.4
quadratic_ranged_167_lb: [ 1 x_69_ ^ 2 - 2 x_89_ * x_69_ + 1 x_89_ ^ 2 + 1 y_69_ ^ 2 - 2 y_89_ * y_69_ + 1 y_89_ ^ 2 ] >= 25977.6
quadratic_ranged_168_lb: [ 1 x_28_ ^ 2 - 2 x_90_ * x_28_ + 1 x_90_ ^ 2 + 1 y_28_ ^ 2 - 2 y_90_ * y_28_ + 1 y_90_ ^ 2 ] >= 31383
quadratic_ranged_169_lb: [ 1 x_42_ ^ 2 - 2 x_90_ * x_42_ + 1 x_90_ ^ 2 + 1 y_42_ ^ 2 - 2 y_90_ * y_42_ + 1 y_90_ ^ 2 ] >= 5208.39
quadratic_ranged_170_lb: [ 1 x_80_ ^ 2 - 2 x_90_ * x_80_ + 1 x_90_ ^ 2 + 1 y_80_ ^ 2 - 2 y_90_ * y_80_ + 1 y_90_ ^ 2 ] >= 12443.31
quadratic_ranged_171_lb: [ 1 x_61_ ^ 2 - 2 x_91_ * x_61_ + 1 x_91_ ^ 2 + 1 y_61_ ^ 2 - 2 y_91_ * y_61_ + 1 y_91_ ^ 2 ] >= 7889.3099999999995
quadratic_ranged_172_lb: [ 1 x_69_ ^ 2 - 2 x_91_ * x_69_ + 1 x_91_ ^ 2 + 1 y_69_ ^ 2 - 2 y_91_ * y_69_ + 1 y_91_ ^ 2 ] >= 2035.44
quadratic_ranged_173_lb: [ 1 x_74_ ^ 2 - 2 x_91_ * x_74_ + 1 x_91_ ^ 2 + 1 y_74_ ^ 2 - 2 y_91_ * y_74_ + 1 y_91_ ^ 2 ] >= 21705.75
quadratic_ranged_174_lb: [ 1 x_8_ ^ 2 - 2 x_92_ * x_8_ + 1 x_92_ ^ 2 + 1 y_8_ ^ 2 - 2 y_92_ * y_8_ + 1 y_92_ ^ 2 ] >= 10874.16
quadratic_ranged_175_lb: [ 1 x_63_ ^ 2 - 2 x_92_ * x_63_ + 1 x_92_ ^ 2 + 1 y_63_ ^ 2 - 2 y_92_ * y_63_ + 1 y_92_ ^ 2 ] >= 7687.35
quadratic_ranged_176_lb: [ 1 x_67_ ^ 2 - 2 x_93_ * x_67_ + 1 x_93_ ^ 2 + 1 y_67_ ^ 2 - 2 y_93_ * y_67_ + 1 y_93_ ^ 2 ] >= 1065.24
quadratic_ranged_177_lb: [ 1 x_81_ ^ 2 - 2 x_93_ * x_81_ + 1 x_93_ ^ 2 + 1 y_81_ ^ 2 - 2 y_93_ * y_81_ + 1 y_93_ ^ 2 ] >= 7489.35
quadratic_ranged_178_lb: [ 1 x_5_ ^ 2 - 2 x_94_ * x_5_ + 1 x_94_ ^ 2 + 1 y_5_ ^ 2 - 2 y_94_ * y_5_ + 1 y_94_ ^ 2 ] >= 15216.3
quadratic_ranged_179_lb: [ 1 x_48_ ^ 2 - 2 x_94_ * x_48_ + 1 x_94_ ^ 2 + 1 y_48_ ^ 2 - 2 y_94_ * y_48_ + 1 y_94_ ^ 2 ] >= 18878.31
quadratic_ranged_180_lb: [ 1 x_52_ ^ 2 - 2 x_94_ * x_52_ + 1 x_94_ ^ 2 + 1 y_52_ ^ 2 - 2 y_94_ * y_52_ + 1 y_94_ ^ 2 ] >= 2673.99
quadratic_ranged_181_lb: [ 1 x_4_ ^ 2 - 2 x_95_ * x_4_ + 1 x_95_ ^ 2 + 1 y_4_ ^ 2 - 2 y_95_ * y_4_ + 1 y_95_ ^ 2 ] >= 25098.48
quadratic_ranged_182_lb: [ 1 x_31_ ^ 2 - 2 x_95_ * x_31_ + 1 x_95_ ^ 2 + 1 y_31_ ^ 2 - 2 y_95_ * y_31_ + 1 y_95_ ^ 2 ] >= 722.7
quadratic_ranged_183_lb: [ 1 x_82_ ^ 2 - 2 x_95_ * x_82_ + 1 x_95_ ^ 2 + 1 y_82_ ^ 2 - 2 y_95_ * y_82_ + 1 y_95_ ^ 2 ] >= 26551.8
quadratic_ranged_184_lb: [ 1 x_56_ ^ 2 - 2 x_96_ * x_56_ + 1 x_96_ ^ 2 + 1 y_56_ ^ 2 - 2 y_96_ * y_56_ + 1 y_96_ ^ 2 ] >= 22059.18
quadratic_ranged_185_lb: [ 1 x_62_ ^ 2 - 2 x_96_ * x_62_ + 1 x_96_ ^ 2 + 1 y_62_ ^ 2 - 2 y_96_ * y_62_ + 1 y_96_ ^ 2 ] >= 11029.59
quadratic_ranged_186_lb: [ 1 x_74_ ^ 2 - 2 x_96_ * x_74_ + 1 x_96_ ^ 2 + 1 y_74_ ^ 2 - 2 y_96_ * y_74_ + 1 y_96_ ^ 2 ] >= 55769.67
quadratic_ranged_187_lb: [ 1 x_48_ ^ 2 - 2 x_97_ * x_48_ + 1 x_97_ ^ 2 + 1 y_48_ ^ 2 - 2 y_97_ * y_48_ + 1 y_97_ ^ 2 ] >= 4277.79
quadratic_ranged_188_lb: [ 1 x_56_ ^ 2 - 2 x_97_ * x_56_ + 1 x_97_ ^ 2 + 1 y_56_ ^ 2 - 2 y_97_ * y_56_ + 1 y_97_ ^ 2 ] >= 13313.52
quadratic_ranged_189_lb: [ 1 x_10_ ^ 2 - 2 x_98_ * x_10_ + 1 x_98_ ^ 2 + 1 y_10_ ^ 2 - 2 y_98_ * y_10_ + 1 y_98_ ^ 2 ] >= 48352.59
quadratic_ranged_190_lb: [ 1 x_66_ ^ 2 - 2 x_98_ * x_66_ + 1 x_98_ ^ 2 + 1 y_66_ ^ 2 - 2 y_98_ * y_66_ + 1 y_98_ ^ 2 ] >= 3806.55
quadratic_ranged_191_lb: [ 1 x_79_ ^ 2 - 2 x_98_ * x_79_ + 1 x_98_ ^ 2 + 1 y_79_ ^ 2 - 2 y_98_ * y_79_ + 1 y_98_ ^ 2 ] >= 35217.27
quadratic_ranged_192_lb: [ 1 x_3_ ^ 2 - 2 x_99_ * x_3_ + 1 x_99_ ^ 2 + 1 y_3_ ^ 2 - 2 y_99_ * y_3_ + 1 y_99_ ^ 2 ] >= 26502.3
quadratic_ranged_193_lb: [ 1 x_4_ ^ 2 - 2 x_99_ * x_4_ + 1 x_99_ ^ 2 + 1 y_4_ ^ 2 - 2 y_99_ * y_4_ + 1 y_99_ ^ 2 ] >= 11816.64
quadratic_ranged_194_lb: [ 1 x_68_ ^ 2 - 2 x_99_ * x_68_ + 1 x_99_ ^ 2 + 1 y_68_ ^ 2 - 2 y_99_ * y_68_ + 1 y_99_ ^ 2 ] >= 17943.75
quadratic_ranged_195_lb: [ 1 x_16_ ^ 2 - 2 x_100_ * x_16_ + 1 x_100_ ^ 2 + 1 y_16_ ^ 2 - 2 y_100_ * y_16_ + 1 y_100_ ^ 2 ] >= 5572.71
quadratic_ranged_196_lb: [ 1 x_53_ ^ 2 - 2 x_100_ * x_53_ + 1 x_100_ ^ 2 + 1 y_53_ ^ 2 - 2 y_100_ * y_53_ + 1 y_100_ ^ 2 ] >= 2923.47
quadratic_ranged_197_lb: [ 1 x_59_ ^ 2 - 2 x_100_ * x_59_ + 1 x_100_ ^ 2 + 1 y_59_ ^ 2 - 2 y_100_ * y_59_ + 1 y_100_ ^ 2 ] >= 9523.8
c1_1: 1 x_70_ = -40
c2_1: 1 y_70_ = 80
c3_1: 1 x_46_ = -49
c4_1: 1 y_46_ = -50
c5_1: 1 x_80_ = -38
c6_1: 1 y_80_ = -10
Bounds
-346 <= x_1_ <= 266
-210 <= x_2_ <= 130
-186 <= x_3_ <= 106
-292 <= x_4_ <= 212
-318 <= x_5_ <= 220
-320 <= x_6_ <= 238
-278 <= x_7_ <= 198
-236 <= x_8_ <= 138
-315 <= x_9_ <= 217
-310 <= x_10_ <= 230
-211 <= x_11_ <= 113
-283 <= x_12_ <= 203
-325 <= x_13_ <= 249
-246 <= x_14_ <= 166
-299 <= x_15_ <= 201
-362 <= x_16_ <= 286
-176 <= x_17_ <= 78
-347 <= x_18_ <= 266
-171 <= x_19_ <= 95
-263 <= x_20_ <= 165
-357 <= x_21_ <= 259
-105 <= x_22_ <= 7
-334 <= x_23_ <= 254
-316 <= x_24_ <= 236
-295 <= x_25_ <= 215
-209 <= x_26_ <= 129
-173 <= x_27_ <= 93
-301 <= x_28_ <= 221
-159 <= x_29_ <= 79
-248 <= x_30_ <= 150
-285 <= x_31_ <= 205
-303 <= x_32_ <= 205
-160 <= x_33_ <= 84
-190 <= x_34_ <= 92
-283 <= x_35_ <= 203
-271 <= x_36_ <= 191
-373 <= x_37_ <= 293
-372 <= x_38_ <= 274
-286 <= x_39_ <= 206
-264 <= x_40_ <= 184
-256 <= x_41_ <= 176
-223 <= x_42_ <= 147
-429 <= x_43_ <= 331
-398 <= x_44_ <= 322
-395 <= x_45_ <= 315
x_46_ = -49
-306 <= x_47_ <= 226
-332 <= x_48_ <= 234
-256 <= x_49_ <= 158
-418 <= x_50_ <= 338
-196 <= x_51_ <= 116
-141 <= x_52_ <= 43
-337 <= x_53_ <= 239
-438 <= x_54_ <= 358
-152 <= x_55_ <= 72
-296 <= x_56_ <= 216
-174 <= x_57_ <= 76
-274 <= x_58_ <= 176
-405 <= x_59_ <= 307
-383 <= x_60_ <= 285
-420 <= x_61_ <= 340
-380 <= x_62_ <= 300
-99 <= x_63_ <= 19
-295 <= x_64_ <= 215
-299 <= x_65_ <= 219
-381 <= x_66_ <= 301
-127 <= x_67_ <= 47
-362 <= x_68_ <= 264
-366 <= x_69_ <= 286
x_70_ = -40
-257 <= x_71_ <= 177
-171 <= x_72_ <= 91
-330 <= x_73_ <= 254
-511 <= x_74_ <= 435
-288 <= x_75_ <= 190
-296 <= x_76_ <= 220
-217 <= x_77_ <= 137
-364 <= x_78_ <= 266
-173 <= x_79_ <= 75
x_80_ = -38
-247 <= x_81_ <= 153
-93 <= x_82_ <= 13
-57 <= x_83_ <= -23
-310 <= x_84_ <= 230
-408 <= x_85_ <= 310
-358 <= x_86_ <= 260
-308 <= x_87_ <= 210
-126 <= x_88_ <= 46
-203 <= x_89_ <= 123
-150 <= x_90_ <= 74
-412 <= x_91_ <= 332
-187 <= x_92_ <= 107
-160 <= x_93_ <= 80
-193 <= x_94_ <= 95
-258 <= x_95_ <= 178
-446 <= x_96_ <= 366
-398 <= x_97_ <= 300
-363 <= x_98_ <= 265
-350 <= x_99_ <= 270
-392 <= x_100_ <= 294
-226 <= y_1_ <= 308
-90 <= y_2_ <= 147
-66 <= y_3_ <= 156
-172 <= y_4_ <= 265
-319 <= y_5_ <= 219
-200 <= y_6_ <= 237
-158 <= y_7_ <= 318
-173 <= y_8_ <= 137
-230 <= y_9_ <= 216
-190 <= y_10_ <= 307
-212 <= y_11_ <= 112
-163 <= y_12_ <= 280
-235 <= y_13_ <= 276
-126 <= y_14_ <= 286
-253 <= y_15_ <= 200
-254 <= y_16_ <= 296
-177 <= y_17_ <= 77
-227 <= y_18_ <= 265
-143 <= y_19_ <= 123
-264 <= y_20_ <= 164
-262 <= y_21_ <= 258
-106 <= y_22_ <= 6
-214 <= y_23_ <= 355
-196 <= y_24_ <= 356
-175 <= y_25_ <= 316
-89 <= y_26_ <= 249
-53 <= y_27_ <= 110
-181 <= y_28_ <= 263
-39 <= y_29_ <= 199
-249 <= y_30_ <= 149
-165 <= y_31_ <= 302
-284 <= y_32_ <= 204
-132 <= y_33_ <= 112
-191 <= y_34_ <= 91
-163 <= y_35_ <= 323
-151 <= y_36_ <= 292
-253 <= y_37_ <= 334
-353 <= y_38_ <= 273
-166 <= y_39_ <= 326
-144 <= y_40_ <= 304
-136 <= y_41_ <= 218
-195 <= y_42_ <= 175
-349 <= y_43_ <= 330
-296 <= y_44_ <= 334
-275 <= y_45_ <= 404
y_46_ = -50
-186 <= y_47_ <= 302
-289 <= y_48_ <= 233
-197 <= y_49_ <= 157
-298 <= y_50_ <= 395
-76 <= y_51_ <= 236
-142 <= y_52_ <= 42
-258 <= y_53_ <= 238
-318 <= y_54_ <= 415
-32 <= y_55_ <= 192
-176 <= y_56_ <= 258
-175 <= y_57_ <= 75
-275 <= y_58_ <= 175
-286 <= y_59_ <= 306
-291 <= y_60_ <= 284
-300 <= y_61_ <= 392
-260 <= y_62_ <= 415
21 <= y_63_ <= 139
-175 <= y_64_ <= 265
-179 <= y_65_ <= 339
-261 <= y_66_ <= 326
-7 <= y_67_ <= 167
-251 <= y_68_ <= 263
-246 <= y_69_ <= 346
y_70_ = 80
-137 <= y_71_ <= 297
-51 <= y_72_ <= 211
-286 <= y_73_ <= 282
-422 <= y_74_ <= 463
-229 <= y_75_ <= 189
-268 <= y_76_ <= 248
-97 <= y_77_ <= 257
-322 <= y_78_ <= 265
-89 <= y_79_ <= 74
y_80_ = -10
-127 <= y_81_ <= 152
27 <= y_82_ <= 133
63 <= y_83_ <= 97
-190 <= y_84_ <= 350
-363 <= y_85_ <= 309
-359 <= y_86_ <= 259
-241 <= y_87_ <= 209
-6 <= y_88_ <= 166
-83 <= y_89_ <= 243
-122 <= y_90_ <= 102
-292 <= y_91_ <= 392
-67 <= y_92_ <= 227
-40 <= y_93_ <= 200
-194 <= y_94_ <= 94
-138 <= y_95_ <= 298
-326 <= y_96_ <= 408
-293 <= y_97_ <= 299
-278 <= y_98_ <= 264
-230 <= y_99_ <= 320
-313 <= y_100_ <= 293
General
x_1_
x_2_
x_3_
x_4_
x_5_
x_6_
x_7_
x_8_
x_9_
x_10_
x_11_
x_12_
x_13_
x_14_
x_15_
x_16_
x_17_
x_18_
x_19_
x_20_
x_21_
x_22_
x_23_
x_24_
x_25_
x_26_
x_27_
x_28_
x_29_
x_30_
x_31_
x_32_
x_33_
x_34_
x_35_
x_36_
x_37_
x_38_
x_39_
x_40_
x_41_
x_42_
x_43_
x_44_
x_45_
x_46_
x_47_
x_48_
x_49_
x_50_
x_51_
x_52_
x_53_
x_54_
x_55_
x_56_
x_57_
x_58_
x_59_
x_60_
x_61_
x_62_
x_63_
x_64_
x_65_
x_66_
x_67_
x_68_
x_69_
x_70_
x_71_
x_72_
x_73_
x_74_
x_75_
x_76_
x_77_
x_78_
x_79_
x_80_
x_81_
x_82_
x_83_
x_84_
x_85_
x_86_
x_87_
x_88_
x_89_
x_90_
x_91_
x_92_
x_93_
x_94_
x_95_
x_96_
x_97_
x_98_
x_99_
x_100_
y_1_
y_2_
y_3_
y_4_
y_5_
y_6_
y_7_
y_8_
y_9_
y_10_
y_11_
y_12_
y_13_
y_14_
y_15_
y_16_
y_17_
y_18_
y_19_
y_20_
y_21_
y_22_
y_23_
y_24_
y_25_
y_26_
y_27_
y_28_
y_29_
y_30_
y_31_
y_32_
y_33_
y_34_
y_35_
y_36_
y_37_
y_38_
y_39_
y_40_
y_41_
y_42_
y_43_
y_44_
y_45_
y_46_
y_47_
y_48_
y_49_
y_50_
y_51_
y_52_
y_53_
y_54_
y_55_
y_56_
y_57_
y_58_
y_59_
y_60_
y_61_
y_62_
y_63_
y_64_
y_65_
y_66_
y_67_
y_68_
y_69_
y_70_
y_71_
y_72_
y_73_
y_74_
y_75_
y_76_
y_77_
y_78_
y_79_
y_80_
y_81_
y_82_
y_83_
y_84_
y_85_
y_86_
y_87_
y_88_
y_89_
y_90_
y_91_
y_92_
y_93_
y_94_
y_95_
y_96_
y_97_
y_98_
y_99_
y_100_
End
