minimize
obj: 
subject to
c1_3: -1 x_69_ + 1 y_69_ <= 0
c1: [ 1 x_1_ ^ 2 + 1 y_1_ ^ 2 ] <= 8966.952932145592
c2: [ 1 x_2_ ^ 2 + 1 y_2_ ^ 2 ] <= 24802.3525112312
c3: [ 1 x_3_ ^ 2 + 1 y_3_ ^ 2 ] <= 23962.249999999996
c4: [ 1 x_4_ ^ 2 + 1 y_4_ ^ 2 ] <= 74133.49487687084
c5: [ 1 x_5_ ^ 2 + 1 y_5_ ^ 2 ] <= 55247.40613451058
c6: [ 1 x_6_ ^ 2 + 1 y_6_ ^ 2 ] <= 36519.16143169121
c7: [ 1 x_7_ ^ 2 + 1 y_7_ ^ 2 ] <= 36154.390196446664
c8: [ 1 x_8_ ^ 2 + 1 y_8_ ^ 2 ] <= 100544.77934235355
c9: [ 1 x_9_ ^ 2 + 1 y_9_ ^ 2 ] <= 42441.10381421861
c10: [ 1 x_11_ ^ 2 + 1 y_11_ ^ 2 ] <= 103236.60973894698
c11: [ 1 x_12_ ^ 2 + 1 y_12_ ^ 2 ] <= 80605.48309679772
c12: [ 1 x_13_ ^ 2 + 1 y_13_ ^ 2 ] <= 106495.51570080231
c13: [ 1 x_14_ ^ 2 + 1 y_14_ ^ 2 ] <= 21295.849999999995
c14: [ 1 x_15_ ^ 2 + 1 y_15_ ^ 2 ] <= 56775.86022881946
c15: [ 1 x_16_ ^ 2 + 1 y_16_ ^ 2 ] <= 69237.86747450932
c16: [ 1 x_17_ ^ 2 + 1 y_17_ ^ 2 ] <= 175938.30997893593
c17: [ 1 x_18_ ^ 2 + 1 y_18_ ^ 2 ] <= 28540.976015227378
c18: [ 1 x_19_ ^ 2 + 1 y_19_ ^ 2 ] <= 90793.12924670517
c19: [ 1 x_20_ ^ 2 + 1 y_20_ ^ 2 ] <= 45205.1024042036
c20: [ 1 x_21_ ^ 2 + 1 y_21_ ^ 2 ] <= 32921.95999999999
c21: [ 1 x_22_ ^ 2 + 1 y_22_ ^ 2 ] <= 50274.20631353305
c22: [ 1 x_23_ ^ 2 + 1 y_23_ ^ 2 ] <= 77953.87735213128
c23: [ 1 x_24_ ^ 2 + 1 y_24_ ^ 2 ] <= 80696.76998295971
c24: [ 1 x_25_ ^ 2 + 1 y_25_ ^ 2 ] <= 113561.80001995283
c25: [ 1 x_26_ ^ 2 + 1 y_26_ ^ 2 ] <= 50089.36917564141
c26: [ 1 x_27_ ^ 2 + 1 y_27_ ^ 2 ] <= 66823.02806246883
c27: [ 1 x_28_ ^ 2 + 1 y_28_ ^ 2 ] <= 42178.61
c28: [ 1 x_29_ ^ 2 + 1 y_29_ ^ 2 ] <= 95284.10600039919
c29: [ 1 x_30_ ^ 2 + 1 y_30_ ^ 2 ] <= 55039.74285602758
c30: [ 1 x_31_ ^ 2 + 1 y_31_ ^ 2 ] <= 65532.11259574694
c31: [ 1 x_32_ ^ 2 + 1 y_32_ ^ 2 ] <= 62573.01174824659
c32: [ 1 x_33_ ^ 2 + 1 y_33_ ^ 2 ] <= 6564.999999999999
c33: [ 1 x_34_ ^ 2 + 1 y_34_ ^ 2 ] <= 64688.89414030472
c34: [ 1 x_35_ ^ 2 + 1 y_35_ ^ 2 ] <= 73215.53901570641
c35: [ 1 x_36_ ^ 2 + 1 y_36_ ^ 2 ] <= 42325.12828990275
c36: [ 1 x_37_ ^ 2 + 1 y_37_ ^ 2 ] <= 9077.70377105496
c37: [ 1 x_38_ ^ 2 + 1 y_38_ ^ 2 ] <= 16745.8
c38: [ 1 x_39_ ^ 2 + 1 y_39_ ^ 2 ] <= 140150.31968720868
c39: [ 1 x_40_ ^ 2 + 1 y_40_ ^ 2 ] <= 6867.999999999999
c40: [ 1 x_41_ ^ 2 + 1 y_41_ ^ 2 ] <= 82862.5528711935
c41: [ 1 x_42_ ^ 2 + 1 y_42_ ^ 2 ] <= 69423.0819228429
c42: [ 1 x_43_ ^ 2 + 1 y_43_ ^ 2 ] <= 119011.7471639982
c43: [ 1 x_44_ ^ 2 + 1 y_44_ ^ 2 ] <= 59157.79927694575
c44: [ 1 x_45_ ^ 2 + 1 y_45_ ^ 2 ] <= 43607.88901020886
c45: [ 1 x_46_ ^ 2 + 1 y_46_ ^ 2 ] <= 78030.10740657574
c46: [ 1 x_47_ ^ 2 + 1 y_47_ ^ 2 ] <= 123267.40749894535
c47: [ 1 x_48_ ^ 2 + 1 y_48_ ^ 2 ] <= 111101.94544970921
c48: [ 1 x_49_ ^ 2 + 1 y_49_ ^ 2 ] <= 82890.87602440367
c49: [ 1 x_50_ ^ 2 + 1 y_50_ ^ 2 ] <= 112417.02540365294
c50: [ 1 x_51_ ^ 2 + 1 y_51_ ^ 2 ] <= 145122.4847614898
c51: [ 1 x_52_ ^ 2 + 1 y_52_ ^ 2 ] <= 66039.43747011805
c52: [ 1 x_53_ ^ 2 + 1 y_53_ ^ 2 ] <= 82670.92399455841
c53: [ 1 x_54_ ^ 2 + 1 y_54_ ^ 2 ] <= 120445.83301297772
c54: [ 1 x_55_ ^ 2 + 1 y_55_ ^ 2 ] <= 100413.14163053654
c55: [ 1 x_56_ ^ 2 + 1 y_56_ ^ 2 ] <= 139364.6447023257
c56: [ 1 x_57_ ^ 2 + 1 y_57_ ^ 2 ] <= 109206.20536895243
c57: [ 1 x_58_ ^ 2 + 1 y_58_ ^ 2 ] <= 99719.73380677887
c58: [ 1 x_59_ ^ 2 + 1 y_59_ ^ 2 ] <= 130522.6639066368
c59: [ 1 x_60_ ^ 2 + 1 y_60_ ^ 2 ] <= 1171.6
c60: [ 1 x_61_ ^ 2 + 1 y_61_ ^ 2 ] <= 80559.29099466446
c61: [ 1 x_62_ ^ 2 + 1 y_62_ ^ 2 ] <= 46694.00984075903
c62: [ 1 x_63_ ^ 2 + 1 y_63_ ^ 2 ] <= 158725.98798449175
c63: [ 1 x_64_ ^ 2 + 1 y_64_ ^ 2 ] <= 82748.25770531179
c64: [ 1 x_65_ ^ 2 + 1 y_65_ ^ 2 ] <= 52915.04711970626
c65: [ 1 x_66_ ^ 2 + 1 y_66_ ^ 2 ] <= 144777.77224717336
c66: [ 1 x_67_ ^ 2 + 1 y_67_ ^ 2 ] <= 4381.379999999998
c67: [ 1 x_68_ ^ 2 + 1 y_68_ ^ 2 ] <= 167085.25075489032
c68: [ 1 x_69_ ^ 2 + 1 y_69_ ^ 2 ] <= 197739.4418322149
c69: [ 1 x_70_ ^ 2 + 1 y_70_ ^ 2 ] <= 6610.082663177633
c70: [ 1 x_71_ ^ 2 + 1 y_71_ ^ 2 ] <= 146627.3259661968
c71: [ 1 x_72_ ^ 2 + 1 y_72_ ^ 2 ] <= 98630.62973662725
c72: [ 1 x_73_ ^ 2 + 1 y_73_ ^ 2 ] <= 63200.93069141871
c73: [ 1 x_74_ ^ 2 + 1 y_74_ ^ 2 ] <= 60011.73299951835
c74: [ 1 x_75_ ^ 2 + 1 y_75_ ^ 2 ] <= 122317.83256851908
c75: [ 1 x_76_ ^ 2 + 1 y_76_ ^ 2 ] <= 84362.0276538548
c76: [ 1 x_77_ ^ 2 + 1 y_77_ ^ 2 ] <= 151525.9780619256
c77: [ 1 x_78_ ^ 2 + 1 y_78_ ^ 2 ] <= 78869.5833006636
c78: [ 1 x_79_ ^ 2 + 1 y_79_ ^ 2 ] <= 161671.8168047361
c79: [ 1 x_80_ ^ 2 + 1 y_80_ ^ 2 ] <= 128047.99057355794
c80: [ 1 x_81_ ^ 2 + 1 y_81_ ^ 2 ] <= 29286.344085278386
c81: [ 1 x_82_ ^ 2 + 1 y_82_ ^ 2 ] <= 36940.53027910635
c82: [ 1 x_83_ ^ 2 + 1 y_83_ ^ 2 ] <= 25250.201068826398
c83: [ 1 x_84_ ^ 2 + 1 y_84_ ^ 2 ] <= 71565.16171371596
c84: [ 1 x_85_ ^ 2 + 1 y_85_ ^ 2 ] <= 81076.77691860289
c85: [ 1 x_86_ ^ 2 + 1 y_86_ ^ 2 ] <= 89106.79623007427
c86: [ 1 x_87_ ^ 2 + 1 y_87_ ^ 2 ] <= 182623.10586525282
c87: [ 1 x_88_ ^ 2 + 1 y_88_ ^ 2 ] <= 66391.09813044638
c88: [ 1 x_89_ ^ 2 + 1 y_89_ ^ 2 ] <= 55637.79702429356
c89: [ 1 x_90_ ^ 2 + 1 y_90_ ^ 2 ] <= 136214.39870502273
c90: [ 1 x_91_ ^ 2 + 1 y_91_ ^ 2 ] <= 110068.72306984653
c91: [ 1 x_92_ ^ 2 + 1 y_92_ ^ 2 ] <= 55640.35908851588
c92: [ 1 x_93_ ^ 2 + 1 y_93_ ^ 2 ] <= 71880.556938186
c93: [ 1 x_94_ ^ 2 + 1 y_94_ ^ 2 ] <= 170309.31685175363
c94: [ 1 x_95_ ^ 2 + 1 y_95_ ^ 2 ] <= 132151.4108964634
c95: [ 1 x_96_ ^ 2 + 1 y_96_ ^ 2 ] <= 156242.95711196857
c96: [ 1 x_97_ ^ 2 + 1 y_97_ ^ 2 ] <= 147847.64120663094
c97: [ 1 x_98_ ^ 2 + 1 y_98_ ^ 2 ] <= 50484.75292017866
c98: [ 1 x_99_ ^ 2 + 1 y_99_ ^ 2 ] <= 128906.35725894867
c99: [ 1 x_100_ ^ 2 + 1 y_100_ ^ 2 ] <= 132754.2696676241
quadratic_ranged_1_ub: [ 1 x_1_ ^ 2 - 2 x_2_ * x_1_ + 1 x_2_ ^ 2 + 1 y_1_ ^ 2 - 2 y_2_ * y_1_ + 1 y_2_ ^ 2 ] <= 3943.04
quadratic_ranged_2_ub: [ 1 x_1_ ^ 2 - 2 x_3_ * x_1_ + 1 x_3_ ^ 2 + 1 y_1_ ^ 2 - 2 y_3_ * y_1_ + 1 y_3_ ^ 2 ] <= 15857
quadratic_ranged_3_ub: [ 1 x_2_ ^ 2 - 2 x_3_ * x_2_ + 1 x_3_ ^ 2 + 1 y_2_ ^ 2 - 2 y_3_ * y_2_ + 1 y_3_ ^ 2 ] <= 5094.44
quadratic_ranged_4_ub: [ 1 x_3_ ^ 2 - 2 x_4_ * x_3_ + 1 x_4_ ^ 2 + 1 y_3_ ^ 2 - 2 y_4_ * y_3_ + 1 y_4_ ^ 2 ] <= 16742.77
quadratic_ranged_5_ub: [ 1 x_2_ ^ 2 - 2 x_5_ * x_2_ + 1 x_5_ ^ 2 + 1 y_2_ ^ 2 - 2 y_5_ * y_2_ + 1 y_5_ ^ 2 ] <= 6015.56
quadratic_ranged_6_ub: [ 1 x_2_ ^ 2 - 2 x_6_ * x_2_ + 1 x_6_ ^ 2 + 1 y_2_ ^ 2 - 2 y_6_ * y_2_ + 1 y_6_ ^ 2 ] <= 3282.5
quadratic_ranged_7_ub: [ 1 x_3_ ^ 2 - 2 x_7_ * x_3_ + 1 x_7_ ^ 2 + 1 y_3_ ^ 2 - 2 y_7_ * y_3_ + 1 y_7_ ^ 2 ] <= 12427.04
quadratic_ranged_8_ub: [ 1 x_3_ ^ 2 - 2 x_9_ * x_3_ + 1 x_9_ ^ 2 + 1 y_3_ ^ 2 - 2 y_9_ * y_3_ + 1 y_9_ ^ 2 ] <= 2622.97
quadratic_ranged_9_ub: [ 1 x_3_ ^ 2 - 2 x_10_ * x_3_ + 1 x_10_ ^ 2 + 1 y_3_ ^ 2 - 2 y_10_ * y_3_ + 1 y_10_ ^ 2 ] <= 23962.25
quadratic_ranged_10_ub: [ 1 x_6_ ^ 2 - 2 x_11_ * x_6_ + 1 x_11_ ^ 2 + 1 y_6_ ^ 2 - 2 y_11_ * y_6_ + 1 y_11_ ^ 2 ] <= 35524.73
quadratic_ranged_11_ub: [ 1 x_7_ ^ 2 - 2 x_11_ * x_7_ + 1 x_11_ ^ 2 + 1 y_7_ ^ 2 - 2 y_11_ * y_7_ + 1 y_11_ ^ 2 ] <= 17203.33
quadratic_ranged_12_ub: [ 1 x_8_ ^ 2 - 2 x_11_ * x_8_ + 1 x_11_ ^ 2 + 1 y_8_ ^ 2 - 2 y_11_ * y_8_ + 1 y_11_ ^ 2 ] <= 23505.73
quadratic_ranged_13_ub: [ 1 x_5_ ^ 2 - 2 x_12_ * x_5_ + 1 x_12_ ^ 2 + 1 y_5_ ^ 2 - 2 y_12_ * y_5_ + 1 y_12_ ^ 2 ] <= 53671.4
quadratic_ranged_14_ub: [ 1 x_4_ ^ 2 - 2 x_13_ * x_4_ + 1 x_13_ ^ 2 + 1 y_4_ ^ 2 - 2 y_13_ * y_4_ + 1 y_13_ ^ 2 ] <= 4597.52
quadratic_ranged_15_ub: [ 1 x_7_ ^ 2 - 2 x_13_ * x_7_ + 1 x_13_ ^ 2 + 1 y_7_ ^ 2 - 2 y_13_ * y_7_ + 1 y_13_ ^ 2 ] <= 18548.65
quadratic_ranged_16_ub: [ 1 x_10_ ^ 2 - 2 x_14_ * x_10_ + 1 x_14_ ^ 2 + 1 y_10_ ^ 2 - 2 y_14_ * y_10_ + 1 y_14_ ^ 2 ] <= 21295.85
quadratic_ranged_17_ub: [ 1 x_12_ ^ 2 - 2 x_14_ * x_12_ + 1 x_14_ ^ 2 + 1 y_12_ ^ 2 - 2 y_14_ * y_12_ + 1 y_14_ ^ 2 ] <= 19038.5
quadratic_ranged_18_ub: [ 1 x_2_ ^ 2 - 2 x_16_ * x_2_ + 1 x_16_ ^ 2 + 1 y_2_ ^ 2 - 2 y_16_ * y_2_ + 1 y_16_ ^ 2 ] <= 11160.5
quadratic_ranged_19_ub: [ 1 x_9_ ^ 2 - 2 x_16_ * x_9_ + 1 x_16_ ^ 2 + 1 y_9_ ^ 2 - 2 y_16_ * y_9_ + 1 y_16_ ^ 2 ] <= 17179.09
quadratic_ranged_20_ub: [ 1 x_12_ ^ 2 - 2 x_17_ * x_12_ + 1 x_17_ ^ 2 + 1 y_12_ ^ 2 - 2 y_17_ * y_12_ + 1 y_17_ ^ 2 ] <= 35503.52
quadratic_ranged_21_ub: [ 1 x_1_ ^ 2 - 2 x_18_ * x_1_ + 1 x_18_ ^ 2 + 1 y_1_ ^ 2 - 2 y_18_ * y_1_ + 1 y_18_ ^ 2 ] <= 5512.58
quadratic_ranged_22_ub: [ 1 x_3_ ^ 2 - 2 x_18_ * x_3_ + 1 x_18_ ^ 2 + 1 y_3_ ^ 2 - 2 y_18_ * y_3_ + 1 y_18_ ^ 2 ] <= 3007.78
quadratic_ranged_23_ub: [ 1 x_12_ ^ 2 - 2 x_18_ * x_12_ + 1 x_18_ ^ 2 + 1 y_12_ ^ 2 - 2 y_18_ * y_12_ + 1 y_18_ ^ 2 ] <= 28176.98
quadratic_ranged_24_ub: [ 1 x_3_ ^ 2 - 2 x_19_ * x_3_ + 1 x_19_ ^ 2 + 1 y_3_ ^ 2 - 2 y_19_ * y_3_ + 1 y_19_ ^ 2 ] <= 21468.56
quadratic_ranged_25_ub: [ 1 x_10_ ^ 2 - 2 x_21_ * x_10_ + 1 x_21_ ^ 2 + 1 y_10_ ^ 2 - 2 y_21_ * y_10_ + 1 y_21_ ^ 2 ] <= 32921.96
quadratic_ranged_26_ub: [ 1 x_20_ ^ 2 - 2 x_21_ * x_20_ + 1 x_21_ ^ 2 + 1 y_20_ ^ 2 - 2 y_21_ * y_20_ + 1 y_21_ ^ 2 ] <= 971.62
quadratic_ranged_27_ub: [ 1 x_2_ ^ 2 - 2 x_22_ * x_2_ + 1 x_22_ ^ 2 + 1 y_2_ ^ 2 - 2 y_22_ * y_2_ + 1 y_22_ ^ 2 ] <= 4453.09
quadratic_ranged_28_ub: [ 1 x_7_ ^ 2 - 2 x_22_ * x_7_ + 1 x_22_ ^ 2 + 1 y_7_ ^ 2 - 2 y_22_ * y_7_ + 1 y_22_ ^ 2 ] <= 6368.05
quadratic_ranged_29_ub: [ 1 x_7_ ^ 2 - 2 x_23_ * x_7_ + 1 x_23_ ^ 2 + 1 y_7_ ^ 2 - 2 y_23_ * y_7_ + 1 y_23_ ^ 2 ] <= 7931.53
quadratic_ranged_30_ub: [ 1 x_23_ ^ 2 - 2 x_24_ * x_23_ + 1 x_24_ ^ 2 + 1 y_23_ ^ 2 - 2 y_24_ * y_23_ + 1 y_24_ ^ 2 ] <= 8375.93
quadratic_ranged_31_ub: [ 1 x_6_ ^ 2 - 2 x_25_ * x_6_ + 1 x_25_ ^ 2 + 1 y_6_ ^ 2 - 2 y_25_ * y_6_ + 1 y_25_ ^ 2 ] <= 21283.73
quadratic_ranged_32_ub: [ 1 x_17_ ^ 2 - 2 x_25_ * x_17_ + 1 x_25_ ^ 2 + 1 y_17_ ^ 2 - 2 y_25_ * y_17_ + 1 y_25_ ^ 2 ] <= 30434.33
quadratic_ranged_33_ub: [ 1 x_1_ ^ 2 - 2 x_26_ * x_1_ + 1 x_26_ ^ 2 + 1 y_1_ ^ 2 - 2 y_26_ * y_1_ + 1 y_26_ ^ 2 ] <= 16670.05
quadratic_ranged_34_ub: [ 1 x_6_ ^ 2 - 2 x_26_ * x_6_ + 1 x_26_ ^ 2 + 1 y_6_ ^ 2 - 2 y_26_ * y_6_ + 1 y_26_ ^ 2 ] <= 6065.05
quadratic_ranged_35_ub: [ 1 x_19_ ^ 2 - 2 x_26_ * x_19_ + 1 x_26_ ^ 2 + 1 y_19_ ^ 2 - 2 y_26_ * y_19_ + 1 y_26_ ^ 2 ] <= 32943.17
quadratic_ranged_36_ub: [ 1 x_6_ ^ 2 - 2 x_27_ * x_6_ + 1 x_27_ ^ 2 + 1 y_6_ ^ 2 - 2 y_27_ * y_6_ + 1 y_27_ ^ 2 ] <= 4542.9800000000005
quadratic_ranged_37_ub: [ 1 x_12_ ^ 2 - 2 x_27_ * x_12_ + 1 x_27_ ^ 2 + 1 y_12_ ^ 2 - 2 y_27_ * y_12_ + 1 y_27_ ^ 2 ] <= 14838.92
quadratic_ranged_38_ub: [ 1 x_7_ ^ 2 - 2 x_28_ * x_7_ + 1 x_28_ ^ 2 + 1 y_7_ ^ 2 - 2 y_28_ * y_7_ + 1 y_28_ ^ 2 ] <= 18262.82
quadratic_ranged_39_ub: [ 1 x_10_ ^ 2 - 2 x_28_ * x_10_ + 1 x_28_ ^ 2 + 1 y_10_ ^ 2 - 2 y_28_ * y_10_ + 1 y_28_ ^ 2 ] <= 42178.61
quadratic_ranged_40_ub: [ 1 x_21_ ^ 2 - 2 x_29_ * x_21_ + 1 x_29_ ^ 2 + 1 y_21_ ^ 2 - 2 y_29_ * y_21_ + 1 y_29_ ^ 2 ] <= 16189.29
quadratic_ranged_41_ub: [ 1 x_26_ ^ 2 - 2 x_29_ * x_26_ + 1 x_29_ ^ 2 + 1 y_26_ ^ 2 - 2 y_29_ * y_26_ + 1 y_29_ ^ 2 ] <= 41293.85
quadratic_ranged_42_ub: [ 1 x_6_ ^ 2 - 2 x_30_ * x_6_ + 1 x_30_ ^ 2 + 1 y_6_ ^ 2 - 2 y_30_ * y_6_ + 1 y_30_ ^ 2 ] <= 1892.74
quadratic_ranged_43_ub: [ 1 x_13_ ^ 2 - 2 x_30_ * x_13_ + 1 x_30_ ^ 2 + 1 y_13_ ^ 2 - 2 y_30_ * y_13_ + 1 y_30_ ^ 2 ] <= 25242.93
quadratic_ranged_44_ub: [ 1 x_12_ ^ 2 - 2 x_31_ * x_12_ + 1 x_31_ ^ 2 + 1 y_12_ ^ 2 - 2 y_31_ * y_12_ + 1 y_31_ ^ 2 ] <= 44897.53
quadratic_ranged_45_ub: [ 1 x_15_ ^ 2 - 2 x_31_ * x_15_ + 1 x_31_ ^ 2 + 1 y_15_ ^ 2 - 2 y_31_ * y_15_ + 1 y_31_ ^ 2 ] <= 39470.8
quadratic_ranged_46_ub: [ 1 x_15_ ^ 2 - 2 x_32_ * x_15_ + 1 x_32_ ^ 2 + 1 y_15_ ^ 2 - 2 y_32_ * y_15_ + 1 y_32_ ^ 2 ] <= 4856.08
quadratic_ranged_47_ub: [ 1 x_18_ ^ 2 - 2 x_32_ * x_18_ + 1 x_32_ ^ 2 + 1 y_18_ ^ 2 - 2 y_32_ * y_18_ + 1 y_32_ ^ 2 ] <= 6594.29
quadratic_ranged_48_ub: [ 1 x_1_ ^ 2 - 2 x_33_ * x_1_ + 1 x_33_ ^ 2 + 1 y_1_ ^ 2 - 2 y_33_ * y_1_ + 1 y_33_ ^ 2 ] <= 186.85
quadratic_ranged_49_ub: [ 1 x_10_ ^ 2 - 2 x_33_ * x_10_ + 1 x_33_ ^ 2 + 1 y_10_ ^ 2 - 2 y_33_ * y_10_ + 1 y_33_ ^ 2 ] <= 6565
quadratic_ranged_50_ub: [ 1 x_18_ ^ 2 - 2 x_35_ * x_18_ + 1 x_35_ ^ 2 + 1 y_18_ ^ 2 - 2 y_35_ * y_18_ + 1 y_35_ ^ 2 ] <= 10331.29
quadratic_ranged_51_ub: [ 1 x_26_ ^ 2 - 2 x_35_ * x_26_ + 1 x_35_ ^ 2 + 1 y_26_ ^ 2 - 2 y_35_ * y_26_ + 1 y_35_ ^ 2 ] <= 13382.5
quadratic_ranged_52_ub: [ 1 x_15_ ^ 2 - 2 x_36_ * x_15_ + 1 x_36_ ^ 2 + 1 y_15_ ^ 2 - 2 y_36_ * y_15_ + 1 y_36_ ^ 2 ] <= 8227.460000000001
quadratic_ranged_53_ub: [ 1 x_20_ ^ 2 - 2 x_36_ * x_20_ + 1 x_36_ ^ 2 + 1 y_20_ ^ 2 - 2 y_36_ * y_20_ + 1 y_36_ ^ 2 ] <= 494.9
quadratic_ranged_54_ub: [ 1 x_21_ ^ 2 - 2 x_36_ * x_21_ + 1 x_36_ ^ 2 + 1 y_21_ ^ 2 - 2 y_36_ * y_21_ + 1 y_36_ ^ 2 ] <= 589.84
quadratic_ranged_55_ub: [ 1 x_2_ ^ 2 - 2 x_37_ * x_2_ + 1 x_37_ ^ 2 + 1 y_2_ ^ 2 - 2 y_37_ * y_2_ + 1 y_37_ ^ 2 ] <= 4186.45
quadratic_ranged_56_ub: [ 1 x_4_ ^ 2 - 2 x_37_ * x_4_ + 1 x_37_ ^ 2 + 1 y_4_ ^ 2 - 2 y_37_ * y_4_ + 1 y_37_ ^ 2 ] <= 31328.18
quadratic_ranged_57_ub: [ 1 x_10_ ^ 2 - 2 x_38_ * x_10_ + 1 x_38_ ^ 2 + 1 y_10_ ^ 2 - 2 y_38_ * y_10_ + 1 y_38_ ^ 2 ] <= 16745.8
quadratic_ranged_58_ub: [ 1 x_21_ ^ 2 - 2 x_38_ * x_21_ + 1 x_38_ ^ 2 + 1 y_21_ ^ 2 - 2 y_38_ * y_21_ + 1 y_38_ ^ 2 ] <= 24151.12
quadratic_ranged_59_ub: [ 1 x_1_ ^ 2 - 2 x_40_ * x_1_ + 1 x_40_ ^ 2 + 1 y_1_ ^ 2 - 2 y_40_ * y_1_ + 1 y_40_ ^ 2 ] <= 1116.05
quadratic_ranged_60_ub: [ 1 x_6_ ^ 2 - 2 x_40_ * x_6_ + 1 x_40_ ^ 2 + 1 y_6_ ^ 2 - 2 y_40_ * y_6_ + 1 y_40_ ^ 2 ] <= 11712.97
quadratic_ranged_61_ub: [ 1 x_10_ ^ 2 - 2 x_40_ * x_10_ + 1 x_40_ ^ 2 + 1 y_10_ ^ 2 - 2 y_40_ * y_10_ + 1 y_40_ ^ 2 ] <= 6868
quadratic_ranged_62_ub: [ 1 x_14_ ^ 2 - 2 x_41_ * x_14_ + 1 x_41_ ^ 2 + 1 y_14_ ^ 2 - 2 y_41_ * y_14_ + 1 y_41_ ^ 2 ] <= 20143.44
quadratic_ranged_63_ub: [ 1 x_30_ ^ 2 - 2 x_41_ * x_30_ + 1 x_41_ ^ 2 + 1 y_30_ ^ 2 - 2 y_41_ * y_30_ + 1 y_41_ ^ 2 ] <= 6676.1
quadratic_ranged_64_ub: [ 1 x_13_ ^ 2 - 2 x_42_ * x_13_ + 1 x_42_ ^ 2 + 1 y_13_ ^ 2 - 2 y_42_ * y_13_ + 1 y_42_ ^ 2 ] <= 24899.53
quadratic_ranged_65_ub: [ 1 x_20_ ^ 2 - 2 x_42_ * x_20_ + 1 x_42_ ^ 2 + 1 y_20_ ^ 2 - 2 y_42_ * y_20_ + 1 y_42_ ^ 2 ] <= 11430.17
quadratic_ranged_66_ub: [ 1 x_37_ ^ 2 - 2 x_42_ * x_37_ + 1 x_42_ ^ 2 + 1 y_37_ ^ 2 - 2 y_42_ * y_37_ + 1 y_42_ ^ 2 ] <= 28293.13
quadratic_ranged_67_ub: [ 1 x_12_ ^ 2 - 2 x_43_ * x_12_ + 1 x_43_ ^ 2 + 1 y_12_ ^ 2 - 2 y_43_ * y_12_ + 1 y_43_ ^ 2 ] <= 15012.64
quadratic_ranged_68_ub: [ 1 x_15_ ^ 2 - 2 x_43_ * x_15_ + 1 x_43_ ^ 2 + 1 y_15_ ^ 2 - 2 y_43_ * y_15_ + 1 y_43_ ^ 2 ] <= 11385.73
quadratic_ranged_69_ub: [ 1 x_6_ ^ 2 - 2 x_44_ * x_6_ + 1 x_44_ ^ 2 + 1 y_6_ ^ 2 - 2 y_44_ * y_6_ + 1 y_44_ ^ 2 ] <= 2716.9
quadratic_ranged_70_ub: [ 1 x_29_ ^ 2 - 2 x_44_ * x_29_ + 1 x_44_ ^ 2 + 1 y_29_ ^ 2 - 2 y_44_ * y_29_ + 1 y_44_ ^ 2 ] <= 8615.3
quadratic_ranged_71_ub: [ 1 x_38_ ^ 2 - 2 x_45_ * x_38_ + 1 x_45_ ^ 2 + 1 y_38_ ^ 2 - 2 y_45_ * y_38_ + 1 y_45_ ^ 2 ] <= 6307.45
quadratic_ranged_72_ub: [ 1 x_4_ ^ 2 - 2 x_46_ * x_4_ + 1 x_46_ ^ 2 + 1 y_4_ ^ 2 - 2 y_46_ * y_4_ + 1 y_46_ ^ 2 ] <= 15230.8
quadratic_ranged_73_ub: [ 1 x_6_ ^ 2 - 2 x_46_ * x_6_ + 1 x_46_ ^ 2 + 1 y_6_ ^ 2 - 2 y_46_ * y_6_ + 1 y_46_ ^ 2 ] <= 7786.09
quadratic_ranged_74_ub: [ 1 x_44_ ^ 2 - 2 x_46_ * x_44_ + 1 x_46_ ^ 2 + 1 y_44_ ^ 2 - 2 y_46_ * y_44_ + 1 y_46_ ^ 2 ] <= 11244.33
quadratic_ranged_75_ub: [ 1 x_8_ ^ 2 - 2 x_47_ * x_8_ + 1 x_47_ ^ 2 + 1 y_8_ ^ 2 - 2 y_47_ * y_8_ + 1 y_47_ ^ 2 ] <= 1156.45
quadratic_ranged_76_ub: [ 1 x_11_ ^ 2 - 2 x_47_ * x_11_ + 1 x_47_ ^ 2 + 1 y_11_ ^ 2 - 2 y_47_ * y_11_ + 1 y_47_ ^ 2 ] <= 31091.84
quadratic_ranged_77_ub: [ 1 x_13_ ^ 2 - 2 x_48_ * x_13_ + 1 x_48_ ^ 2 + 1 y_13_ ^ 2 - 2 y_48_ * y_13_ + 1 y_48_ ^ 2 ] <= 23611.78
quadratic_ranged_78_ub: [ 1 x_17_ ^ 2 - 2 x_48_ * x_17_ + 1 x_48_ ^ 2 + 1 y_17_ ^ 2 - 2 y_48_ * y_17_ + 1 y_48_ ^ 2 ] <= 7418.45
quadratic_ranged_79_ub: [ 1 x_29_ ^ 2 - 2 x_49_ * x_29_ + 1 x_49_ ^ 2 + 1 y_29_ ^ 2 - 2 y_49_ * y_29_ + 1 y_49_ ^ 2 ] <= 25513.61
quadratic_ranged_80_ub: [ 1 x_30_ ^ 2 - 2 x_49_ * x_30_ + 1 x_49_ ^ 2 + 1 y_30_ ^ 2 - 2 y_49_ * y_30_ + 1 y_49_ ^ 2 ] <= 2841.13
quadratic_ranged_81_ub: [ 1 x_35_ ^ 2 - 2 x_50_ * x_35_ + 1 x_50_ ^ 2 + 1 y_35_ ^ 2 - 2 y_50_ * y_35_ + 1 y_50_ ^ 2 ] <= 4186.45
quadratic_ranged_82_ub: [ 1 x_19_ ^ 2 - 2 x_51_ * x_19_ + 1 x_51_ ^ 2 + 1 y_19_ ^ 2 - 2 y_51_ * y_19_ + 1 y_51_ ^ 2 ] <= 14136.97
quadratic_ranged_83_ub: [ 1 x_23_ ^ 2 - 2 x_51_ * x_23_ + 1 x_51_ ^ 2 + 1 y_23_ ^ 2 - 2 y_51_ * y_23_ + 1 y_51_ ^ 2 ] <= 10352.5
quadratic_ranged_84_ub: [ 1 x_2_ ^ 2 - 2 x_52_ * x_2_ + 1 x_52_ ^ 2 + 1 y_2_ ^ 2 - 2 y_52_ * y_2_ + 1 y_52_ ^ 2 ] <= 9899.01
quadratic_ranged_85_ub: [ 1 x_35_ ^ 2 - 2 x_52_ * x_35_ + 1 x_52_ ^ 2 + 1 y_35_ ^ 2 - 2 y_52_ * y_35_ + 1 y_52_ ^ 2 ] <= 21906.9
quadratic_ranged_86_ub: [ 1 x_22_ ^ 2 - 2 x_53_ * x_22_ + 1 x_53_ ^ 2 + 1 y_22_ ^ 2 - 2 y_53_ * y_22_ + 1 y_53_ ^ 2 ] <= 24705.61
quadratic_ranged_87_ub: [ 1 x_28_ ^ 2 - 2 x_53_ * x_28_ + 1 x_53_ ^ 2 + 1 y_28_ ^ 2 - 2 y_53_ * y_28_ + 1 y_53_ ^ 2 ] <= 6748.82
quadratic_ranged_88_ub: [ 1 x_5_ ^ 2 - 2 x_54_ * x_5_ + 1 x_54_ ^ 2 + 1 y_5_ ^ 2 - 2 y_54_ * y_5_ + 1 y_54_ ^ 2 ] <= 12545.210000000001
quadratic_ranged_89_ub: [ 1 x_47_ ^ 2 - 2 x_54_ * x_47_ + 1 x_54_ ^ 2 + 1 y_47_ ^ 2 - 2 y_54_ * y_47_ + 1 y_54_ ^ 2 ] <= 25569.16
quadratic_ranged_90_ub: [ 1 x_9_ ^ 2 - 2 x_55_ * x_9_ + 1 x_55_ ^ 2 + 1 y_9_ ^ 2 - 2 y_55_ * y_9_ + 1 y_55_ ^ 2 ] <= 12291.7
quadratic_ranged_91_ub: [ 1 x_15_ ^ 2 - 2 x_55_ * x_15_ + 1 x_55_ ^ 2 + 1 y_15_ ^ 2 - 2 y_55_ * y_15_ + 1 y_55_ ^ 2 ] <= 28764.8
quadratic_ranged_92_ub: [ 1 x_34_ ^ 2 - 2 x_55_ * x_34_ + 1 x_55_ ^ 2 + 1 y_34_ ^ 2 - 2 y_55_ * y_34_ + 1 y_55_ ^ 2 ] <= 31626.13
quadratic_ranged_93_ub: [ 1 x_41_ ^ 2 - 2 x_56_ * x_41_ + 1 x_56_ ^ 2 + 1 y_41_ ^ 2 - 2 y_56_ * y_41_ + 1 y_56_ ^ 2 ] <= 8670.85
quadratic_ranged_94_ub: [ 1 x_19_ ^ 2 - 2 x_57_ * x_19_ + 1 x_57_ ^ 2 + 1 y_19_ ^ 2 - 2 y_57_ * y_19_ + 1 y_57_ ^ 2 ] <= 849.41
quadratic_ranged_95_ub: [ 1 x_23_ ^ 2 - 2 x_57_ * x_23_ + 1 x_57_ ^ 2 + 1 y_23_ ^ 2 - 2 y_57_ * y_23_ + 1 y_57_ ^ 2 ] <= 14796.5
quadratic_ranged_96_ub: [ 1 x_27_ ^ 2 - 2 x_57_ * x_27_ + 1 x_57_ ^ 2 + 1 y_27_ ^ 2 - 2 y_57_ * y_27_ + 1 y_57_ ^ 2 ] <= 6945.77
quadratic_ranged_97_ub: [ 1 x_20_ ^ 2 - 2 x_58_ * x_20_ + 1 x_58_ ^ 2 + 1 y_20_ ^ 2 - 2 y_58_ * y_20_ + 1 y_58_ ^ 2 ] <= 12197.77
quadratic_ranged_98_ub: [ 1 x_23_ ^ 2 - 2 x_58_ * x_23_ + 1 x_58_ ^ 2 + 1 y_23_ ^ 2 - 2 y_58_ * y_23_ + 1 y_58_ ^ 2 ] <= 1338.25
quadratic_ranged_99_ub: [ 1 x_43_ ^ 2 - 2 x_59_ * x_43_ + 1 x_59_ ^ 2 + 1 y_43_ ^ 2 - 2 y_59_ * y_43_ + 1 y_59_ ^ 2 ] <= 12324.02
quadratic_ranged_100_ub: [ 1 x_49_ ^ 2 - 2 x_59_ * x_49_ + 1 x_59_ ^ 2 + 1 y_49_ ^ 2 - 2 y_59_ * y_49_ + 1 y_59_ ^ 2 ] <= 19914.170000000002
quadratic_ranged_101_ub: [ 1 x_10_ ^ 2 - 2 x_60_ * x_10_ + 1 x_60_ ^ 2 + 1 y_10_ ^ 2 - 2 y_60_ * y_10_ + 1 y_60_ ^ 2 ] <= 1171.6
quadratic_ranged_102_ub: [ 1 x_37_ ^ 2 - 2 x_60_ * x_37_ + 1 x_60_ ^ 2 + 1 y_37_ ^ 2 - 2 y_60_ * y_37_ + 1 y_60_ ^ 2 ] <= 3726.9
quadratic_ranged_103_ub: [ 1 x_45_ ^ 2 - 2 x_61_ * x_45_ + 1 x_61_ ^ 2 + 1 y_45_ ^ 2 - 2 y_61_ * y_45_ + 1 y_61_ ^ 2 ] <= 5625.7
quadratic_ranged_104_ub: [ 1 x_48_ ^ 2 - 2 x_61_ * x_48_ + 1 x_61_ ^ 2 + 1 y_48_ ^ 2 - 2 y_61_ * y_48_ + 1 y_61_ ^ 2 ] <= 2449.25
quadratic_ranged_105_ub: [ 1 x_2_ ^ 2 - 2 x_62_ * x_2_ + 1 x_62_ ^ 2 + 1 y_2_ ^ 2 - 2 y_62_ * y_2_ + 1 y_62_ ^ 2 ] <= 3434
quadratic_ranged_106_ub: [ 1 x_8_ ^ 2 - 2 x_62_ * x_8_ + 1 x_62_ ^ 2 + 1 y_8_ ^ 2 - 2 y_62_ * y_8_ + 1 y_62_ ^ 2 ] <= 10201
quadratic_ranged_107_ub: [ 1 x_58_ ^ 2 - 2 x_62_ * x_58_ + 1 x_62_ ^ 2 + 1 y_58_ ^ 2 - 2 y_62_ * y_58_ + 1 y_62_ ^ 2 ] <= 37370
quadratic_ranged_108_ub: [ 1 x_15_ ^ 2 - 2 x_63_ * x_15_ + 1 x_63_ ^ 2 + 1 y_15_ ^ 2 - 2 y_63_ * y_15_ + 1 y_63_ ^ 2 ] <= 44642
quadratic_ranged_109_ub: [ 1 x_34_ ^ 2 - 2 x_63_ * x_34_ + 1 x_63_ ^ 2 + 1 y_34_ ^ 2 - 2 y_63_ * y_34_ + 1 y_63_ ^ 2 ] <= 20754.49
quadratic_ranged_110_ub: [ 1 x_20_ ^ 2 - 2 x_64_ * x_20_ + 1 x_64_ ^ 2 + 1 y_20_ ^ 2 - 2 y_64_ * y_20_ + 1 y_64_ ^ 2 ] <= 5631.76
quadratic_ranged_111_ub: [ 1 x_30_ ^ 2 - 2 x_64_ * x_30_ + 1 x_64_ ^ 2 + 1 y_30_ ^ 2 - 2 y_64_ * y_30_ + 1 y_64_ ^ 2 ] <= 8767.81
quadratic_ranged_112_ub: [ 1 x_25_ ^ 2 - 2 x_65_ * x_25_ + 1 x_65_ ^ 2 + 1 y_25_ ^ 2 - 2 y_65_ * y_25_ + 1 y_65_ ^ 2 ] <= 30673.7
quadratic_ranged_113_ub: [ 1 x_34_ ^ 2 - 2 x_65_ * x_34_ + 1 x_65_ ^ 2 + 1 y_34_ ^ 2 - 2 y_65_ * y_34_ + 1 y_65_ ^ 2 ] <= 590.85
quadratic_ranged_114_ub: [ 1 x_39_ ^ 2 - 2 x_65_ * x_39_ + 1 x_65_ ^ 2 + 1 y_39_ ^ 2 - 2 y_65_ * y_39_ + 1 y_65_ ^ 2 ] <= 20832.26
quadratic_ranged_115_ub: [ 1 x_48_ ^ 2 - 2 x_66_ * x_48_ + 1 x_66_ ^ 2 + 1 y_48_ ^ 2 - 2 y_66_ * y_48_ + 1 y_66_ ^ 2 ] <= 15926.69
quadratic_ranged_116_ub: [ 1 x_61_ ^ 2 - 2 x_66_ * x_61_ + 1 x_66_ ^ 2 + 1 y_61_ ^ 2 - 2 y_66_ * y_61_ + 1 y_66_ ^ 2 ] <= 9344.52
quadratic_ranged_117_ub: [ 1 x_10_ ^ 2 - 2 x_67_ * x_10_ + 1 x_67_ ^ 2 + 1 y_10_ ^ 2 - 2 y_67_ * y_10_ + 1 y_67_ ^ 2 ] <= 4381.38
quadratic_ranged_118_ub: [ 1 x_15_ ^ 2 - 2 x_67_ * x_15_ + 1 x_67_ ^ 2 + 1 y_15_ ^ 2 - 2 y_67_ * y_15_ + 1 y_67_ ^ 2 ] <= 29613.2
quadratic_ranged_119_ub: [ 1 x_65_ ^ 2 - 2 x_67_ * x_65_ + 1 x_67_ ^ 2 + 1 y_65_ ^ 2 - 2 y_67_ * y_65_ + 1 y_67_ ^ 2 ] <= 26843.78
quadratic_ranged_120_ub: [ 1 x_4_ ^ 2 - 2 x_68_ * x_4_ + 1 x_68_ ^ 2 + 1 y_4_ ^ 2 - 2 y_68_ * y_4_ + 1 y_68_ ^ 2 ] <= 34533.92
quadratic_ranged_121_ub: [ 1 x_50_ ^ 2 - 2 x_68_ * x_50_ + 1 x_68_ ^ 2 + 1 y_50_ ^ 2 - 2 y_68_ * y_50_ + 1 y_68_ ^ 2 ] <= 5398.45
quadratic_ranged_122_ub: [ 1 x_59_ ^ 2 - 2 x_68_ * x_59_ + 1 x_68_ ^ 2 + 1 y_59_ ^ 2 - 2 y_68_ * y_59_ + 1 y_68_ ^ 2 ] <= 43818.85
quadratic_ranged_123_ub: [ 1 x_57_ ^ 2 - 2 x_69_ * x_57_ + 1 x_69_ ^ 2 + 1 y_57_ ^ 2 - 2 y_69_ * y_57_ + 1 y_69_ ^ 2 ] <= 13045.16
quadratic_ranged_124_ub: [ 1 x_68_ ^ 2 - 2 x_69_ * x_68_ + 1 x_69_ ^ 2 + 1 y_68_ ^ 2 - 2 y_69_ * y_68_ + 1 y_69_ ^ 2 ] <= 4670.24
quadratic_ranged_125_ub: [ 1 x_7_ ^ 2 - 2 x_70_ * x_7_ + 1 x_70_ ^ 2 + 1 y_7_ ^ 2 - 2 y_70_ * y_7_ + 1 y_70_ ^ 2 ] <= 11846.29
quadratic_ranged_126_ub: [ 1 x_60_ ^ 2 - 2 x_70_ * x_60_ + 1 x_70_ ^ 2 + 1 y_60_ ^ 2 - 2 y_70_ * y_60_ + 1 y_70_ ^ 2 ] <= 2215.94
quadratic_ranged_127_ub: [ 1 x_63_ ^ 2 - 2 x_71_ * x_63_ + 1 x_71_ ^ 2 + 1 y_63_ ^ 2 - 2 y_71_ * y_63_ + 1 y_71_ ^ 2 ] <= 24063.25
quadratic_ranged_128_ub: [ 1 x_36_ ^ 2 - 2 x_72_ * x_36_ + 1 x_72_ ^ 2 + 1 y_36_ ^ 2 - 2 y_72_ * y_36_ + 1 y_72_ ^ 2 ] <= 11734.18
quadratic_ranged_129_ub: [ 1 x_1_ ^ 2 - 2 x_73_ * x_1_ + 1 x_73_ ^ 2 + 1 y_1_ ^ 2 - 2 y_73_ * y_1_ + 1 y_73_ ^ 2 ] <= 24556.13
quadratic_ranged_130_ub: [ 1 x_29_ ^ 2 - 2 x_73_ * x_29_ + 1 x_73_ ^ 2 + 1 y_29_ ^ 2 - 2 y_73_ * y_29_ + 1 y_73_ ^ 2 ] <= 53248.21
quadratic_ranged_131_ub: [ 1 x_20_ ^ 2 - 2 x_74_ * x_20_ + 1 x_74_ ^ 2 + 1 y_20_ ^ 2 - 2 y_74_ * y_20_ + 1 y_74_ ^ 2 ] <= 3095.65
quadratic_ranged_132_ub: [ 1 x_27_ ^ 2 - 2 x_74_ * x_27_ + 1 x_74_ ^ 2 + 1 y_27_ ^ 2 - 2 y_74_ * y_27_ + 1 y_74_ ^ 2 ] <= 16988.2
quadratic_ranged_133_ub: [ 1 x_65_ ^ 2 - 2 x_74_ * x_65_ + 1 x_74_ ^ 2 + 1 y_65_ ^ 2 - 2 y_74_ * y_65_ + 1 y_74_ ^ 2 ] <= 223.21
quadratic_ranged_134_ub: [ 1 x_9_ ^ 2 - 2 x_75_ * x_9_ + 1 x_75_ ^ 2 + 1 y_9_ ^ 2 - 2 y_75_ * y_9_ + 1 y_75_ ^ 2 ] <= 20657.53
quadratic_ranged_135_ub: [ 1 x_71_ ^ 2 - 2 x_75_ * x_71_ + 1 x_75_ ^ 2 + 1 y_71_ ^ 2 - 2 y_75_ * y_71_ + 1 y_75_ ^ 2 ] <= 1100.9
quadratic_ranged_136_ub: [ 1 x_6_ ^ 2 - 2 x_76_ * x_6_ + 1 x_76_ ^ 2 + 1 y_6_ ^ 2 - 2 y_76_ * y_6_ + 1 y_76_ ^ 2 ] <= 9870.73
quadratic_ranged_137_ub: [ 1 x_13_ ^ 2 - 2 x_76_ * x_13_ + 1 x_76_ ^ 2 + 1 y_13_ ^ 2 - 2 y_76_ * y_13_ + 1 y_76_ ^ 2 ] <= 16564
quadratic_ranged_138_ub: [ 1 x_65_ ^ 2 - 2 x_76_ * x_65_ + 1 x_76_ ^ 2 + 1 y_65_ ^ 2 - 2 y_76_ * y_65_ + 1 y_76_ ^ 2 ] <= 12996.68
quadratic_ranged_139_ub: [ 1 x_58_ ^ 2 - 2 x_77_ * x_58_ + 1 x_77_ ^ 2 + 1 y_58_ ^ 2 - 2 y_77_ * y_58_ + 1 y_77_ ^ 2 ] <= 25970.13
quadratic_ranged_140_ub: [ 1 x_7_ ^ 2 - 2 x_78_ * x_7_ + 1 x_78_ ^ 2 + 1 y_7_ ^ 2 - 2 y_78_ * y_7_ + 1 y_78_ ^ 2 ] <= 8225.44
quadratic_ranged_141_ub: [ 1 x_34_ ^ 2 - 2 x_78_ * x_34_ + 1 x_78_ ^ 2 + 1 y_34_ ^ 2 - 2 y_78_ * y_34_ + 1 y_78_ ^ 2 ] <= 12970.42
quadratic_ranged_142_ub: [ 1 x_65_ ^ 2 - 2 x_78_ * x_65_ + 1 x_78_ ^ 2 + 1 y_65_ ^ 2 - 2 y_78_ * y_65_ + 1 y_78_ ^ 2 ] <= 18936.49
quadratic_ranged_143_ub: [ 1 x_5_ ^ 2 - 2 x_79_ * x_5_ + 1 x_79_ ^ 2 + 1 y_5_ ^ 2 - 2 y_79_ * y_5_ + 1 y_79_ ^ 2 ] <= 27901.25
quadratic_ranged_144_ub: [ 1 x_47_ ^ 2 - 2 x_79_ * x_47_ + 1 x_79_ ^ 2 + 1 y_47_ ^ 2 - 2 y_79_ * y_47_ + 1 y_79_ ^ 2 ] <= 17899.22
quadratic_ranged_145_ub: [ 1 x_12_ ^ 2 - 2 x_80_ * x_12_ + 1 x_80_ ^ 2 + 1 y_12_ ^ 2 - 2 y_80_ * y_12_ + 1 y_80_ ^ 2 ] <= 7531.57
quadratic_ranged_146_ub: [ 1 x_17_ ^ 2 - 2 x_80_ * x_17_ + 1 x_80_ ^ 2 + 1 y_17_ ^ 2 - 2 y_80_ * y_17_ + 1 y_80_ ^ 2 ] <= 14149.09
quadratic_ranged_147_ub: [ 1 x_45_ ^ 2 - 2 x_80_ * x_45_ + 1 x_80_ ^ 2 + 1 y_45_ ^ 2 - 2 y_80_ * y_45_ + 1 y_80_ ^ 2 ] <= 22204.85
quadratic_ranged_148_ub: [ 1 x_1_ ^ 2 - 2 x_81_ * x_1_ + 1 x_81_ ^ 2 + 1 y_1_ ^ 2 - 2 y_81_ * y_1_ + 1 y_81_ ^ 2 ] <= 5842.85
quadratic_ranged_149_ub: [ 1 x_34_ ^ 2 - 2 x_81_ * x_34_ + 1 x_81_ ^ 2 + 1 y_34_ ^ 2 - 2 y_81_ * y_34_ + 1 y_81_ ^ 2 ] <= 22023.05
quadratic_ranged_150_ub: [ 1 x_24_ ^ 2 - 2 x_82_ * x_24_ + 1 x_82_ ^ 2 + 1 y_24_ ^ 2 - 2 y_82_ * y_24_ + 1 y_82_ ^ 2 ] <= 8440.57
quadratic_ranged_151_ub: [ 1 x_38_ ^ 2 - 2 x_82_ * x_38_ + 1 x_82_ ^ 2 + 1 y_38_ ^ 2 - 2 y_82_ * y_38_ + 1 y_82_ ^ 2 ] <= 3943.04
quadratic_ranged_152_ub: [ 1 x_59_ ^ 2 - 2 x_82_ * x_59_ + 1 x_82_ ^ 2 + 1 y_59_ ^ 2 - 2 y_82_ * y_59_ + 1 y_82_ ^ 2 ] <= 28588.05
quadratic_ranged_153_ub: [ 1 x_14_ ^ 2 - 2 x_83_ * x_14_ + 1 x_83_ ^ 2 + 1 y_14_ ^ 2 - 2 y_83_ * y_14_ + 1 y_83_ ^ 2 ] <= 18715.3
quadratic_ranged_154_ub: [ 1 x_31_ ^ 2 - 2 x_83_ * x_31_ + 1 x_83_ ^ 2 + 1 y_31_ ^ 2 - 2 y_83_ * y_31_ + 1 y_83_ ^ 2 ] <= 9426.33
quadratic_ranged_155_ub: [ 1 x_33_ ^ 2 - 2 x_83_ * x_33_ + 1 x_83_ ^ 2 + 1 y_33_ ^ 2 - 2 y_83_ * y_33_ + 1 y_83_ ^ 2 ] <= 6065.05
quadratic_ranged_156_ub: [ 1 x_6_ ^ 2 - 2 x_84_ * x_6_ + 1 x_84_ ^ 2 + 1 y_6_ ^ 2 - 2 y_84_ * y_6_ + 1 y_84_ ^ 2 ] <= 26337.77
quadratic_ranged_157_ub: [ 1 x_18_ ^ 2 - 2 x_84_ * x_18_ + 1 x_84_ ^ 2 + 1 y_18_ ^ 2 - 2 y_84_ * y_18_ + 1 y_84_ ^ 2 ] <= 9717.210000000001
quadratic_ranged_158_ub: [ 1 x_72_ ^ 2 - 2 x_84_ * x_72_ + 1 x_84_ ^ 2 + 1 y_72_ ^ 2 - 2 y_84_ * y_72_ + 1 y_84_ ^ 2 ] <= 8534.5
quadratic_ranged_159_ub: [ 1 x_39_ ^ 2 - 2 x_85_ * x_39_ + 1 x_85_ ^ 2 + 1 y_39_ ^ 2 - 2 y_85_ * y_39_ + 1 y_85_ ^ 2 ] <= 47345.77
quadratic_ranged_160_ub: [ 1 x_45_ ^ 2 - 2 x_85_ * x_45_ + 1 x_85_ ^ 2 + 1 y_45_ ^ 2 - 2 y_85_ * y_45_ + 1 y_85_ ^ 2 ] <= 5763.06
quadratic_ranged_161_ub: [ 1 x_77_ ^ 2 - 2 x_85_ * x_77_ + 1 x_85_ ^ 2 + 1 y_77_ ^ 2 - 2 y_85_ * y_77_ + 1 y_85_ ^ 2 ] <= 10925.17
quadratic_ranged_162_ub: [ 1 x_26_ ^ 2 - 2 x_86_ * x_26_ + 1 x_86_ ^ 2 + 1 y_26_ ^ 2 - 2 y_86_ * y_26_ + 1 y_86_ ^ 2 ] <= 5580.25
quadratic_ranged_163_ub: [ 1 x_81_ ^ 2 - 2 x_86_ * x_81_ + 1 x_86_ ^ 2 + 1 y_81_ ^ 2 - 2 y_86_ * y_81_ + 1 y_86_ ^ 2 ] <= 29779.85
quadratic_ranged_164_ub: [ 1 x_16_ ^ 2 - 2 x_87_ * x_16_ + 1 x_87_ ^ 2 + 1 y_16_ ^ 2 - 2 y_87_ * y_16_ + 1 y_87_ ^ 2 ] <= 29540.48
quadratic_ranged_165_ub: [ 1 x_56_ ^ 2 - 2 x_87_ * x_56_ + 1 x_87_ ^ 2 + 1 y_56_ ^ 2 - 2 y_87_ * y_56_ + 1 y_87_ ^ 2 ] <= 22427.05
quadratic_ranged_166_ub: [ 1 x_74_ ^ 2 - 2 x_87_ * x_74_ + 1 x_87_ ^ 2 + 1 y_74_ ^ 2 - 2 y_87_ * y_74_ + 1 y_87_ ^ 2 ] <= 33259.3
quadratic_ranged_167_ub: [ 1 x_18_ ^ 2 - 2 x_88_ * x_18_ + 1 x_88_ ^ 2 + 1 y_18_ ^ 2 - 2 y_88_ * y_18_ + 1 y_88_ ^ 2 ] <= 7871.9400000000005
quadratic_ranged_168_ub: [ 1 x_78_ ^ 2 - 2 x_88_ * x_78_ + 1 x_88_ ^ 2 + 1 y_78_ ^ 2 - 2 y_88_ * y_78_ + 1 y_88_ ^ 2 ] <= 8100.2
quadratic_ranged_169_ub: [ 1 x_2_ ^ 2 - 2 x_89_ * x_2_ + 1 x_89_ ^ 2 + 1 y_2_ ^ 2 - 2 y_89_ * y_2_ + 1 y_89_ ^ 2 ] <= 6144.84
quadratic_ranged_170_ub: [ 1 x_9_ ^ 2 - 2 x_89_ * x_9_ + 1 x_89_ ^ 2 + 1 y_9_ ^ 2 - 2 y_89_ * y_9_ + 1 y_89_ ^ 2 ] <= 4247.05
quadratic_ranged_171_ub: [ 1 x_4_ ^ 2 - 2 x_90_ * x_4_ + 1 x_90_ ^ 2 + 1 y_4_ ^ 2 - 2 y_90_ * y_4_ + 1 y_90_ ^ 2 ] <= 19493
quadratic_ranged_172_ub: [ 1 x_47_ ^ 2 - 2 x_90_ * x_47_ + 1 x_90_ ^ 2 + 1 y_47_ ^ 2 - 2 y_90_ * y_47_ + 1 y_90_ ^ 2 ] <= 323.2
quadratic_ranged_173_ub: [ 1 x_89_ ^ 2 - 2 x_90_ * x_89_ + 1 x_90_ ^ 2 + 1 y_89_ ^ 2 - 2 y_90_ * y_89_ + 1 y_90_ ^ 2 ] <= 31416.05
quadratic_ranged_174_ub: [ 1 x_71_ ^ 2 - 2 x_91_ * x_71_ + 1 x_91_ ^ 2 + 1 y_71_ ^ 2 - 2 y_91_ * y_71_ + 1 y_91_ ^ 2 ] <= 12278.57
quadratic_ranged_175_ub: [ 1 x_76_ ^ 2 - 2 x_91_ * x_76_ + 1 x_91_ ^ 2 + 1 y_76_ ^ 2 - 2 y_91_ * y_76_ + 1 y_91_ ^ 2 ] <= 1706.9
quadratic_ranged_176_ub: [ 1 x_38_ ^ 2 - 2 x_92_ * x_38_ + 1 x_92_ ^ 2 + 1 y_38_ ^ 2 - 2 y_92_ * y_38_ + 1 y_92_ ^ 2 ] <= 11337.25
quadratic_ranged_177_ub: [ 1 x_56_ ^ 2 - 2 x_92_ * x_56_ + 1 x_92_ ^ 2 + 1 y_56_ ^ 2 - 2 y_92_ * y_56_ + 1 y_92_ ^ 2 ] <= 18888.01
quadratic_ranged_178_ub: [ 1 x_5_ ^ 2 - 2 x_93_ * x_5_ + 1 x_93_ ^ 2 + 1 y_5_ ^ 2 - 2 y_93_ * y_5_ + 1 y_93_ ^ 2 ] <= 1092.82
quadratic_ranged_179_ub: [ 1 x_39_ ^ 2 - 2 x_93_ * x_39_ + 1 x_93_ ^ 2 + 1 y_39_ ^ 2 - 2 y_93_ * y_39_ + 1 y_93_ ^ 2 ] <= 41269.61
quadratic_ranged_180_ub: [ 1 x_71_ ^ 2 - 2 x_93_ * x_71_ + 1 x_93_ ^ 2 + 1 y_71_ ^ 2 - 2 y_93_ * y_71_ + 1 y_93_ ^ 2 ] <= 25472.2
quadratic_ranged_181_ub: [ 1 x_4_ ^ 2 - 2 x_94_ * x_4_ + 1 x_94_ ^ 2 + 1 y_4_ ^ 2 - 2 y_94_ * y_4_ + 1 y_94_ ^ 2 ] <= 19715.2
quadratic_ranged_182_ub: [ 1 x_77_ ^ 2 - 2 x_94_ * x_77_ + 1 x_94_ ^ 2 + 1 y_77_ ^ 2 - 2 y_94_ * y_77_ + 1 y_94_ ^ 2 ] <= 14972.24
quadratic_ranged_183_ub: [ 1 x_84_ ^ 2 - 2 x_94_ * x_84_ + 1 x_94_ ^ 2 + 1 y_84_ ^ 2 - 2 y_94_ * y_84_ + 1 y_94_ ^ 2 ] <= 26672.08
quadratic_ranged_184_ub: [ 1 x_9_ ^ 2 - 2 x_95_ * x_9_ + 1 x_95_ ^ 2 + 1 y_9_ ^ 2 - 2 y_95_ * y_9_ + 1 y_95_ ^ 2 ] <= 24810.65
quadratic_ranged_185_ub: [ 1 x_15_ ^ 2 - 2 x_95_ * x_15_ + 1 x_95_ ^ 2 + 1 y_15_ ^ 2 - 2 y_95_ * y_15_ + 1 y_95_ ^ 2 ] <= 23820.85
quadratic_ranged_186_ub: [ 1 x_45_ ^ 2 - 2 x_95_ * x_45_ + 1 x_95_ ^ 2 + 1 y_45_ ^ 2 - 2 y_95_ * y_45_ + 1 y_95_ ^ 2 ] <= 40860.56
quadratic_ranged_187_ub: [ 1 x_55_ ^ 2 - 2 x_96_ * x_55_ + 1 x_96_ ^ 2 + 1 y_55_ ^ 2 - 2 y_96_ * y_55_ + 1 y_96_ ^ 2 ] <= 6145.85
quadratic_ranged_188_ub: [ 1 x_80_ ^ 2 - 2 x_96_ * x_80_ + 1 x_96_ ^ 2 + 1 y_80_ ^ 2 - 2 y_96_ * y_80_ + 1 y_96_ ^ 2 ] <= 3176.45
quadratic_ranged_189_ub: [ 1 x_62_ ^ 2 - 2 x_97_ * x_62_ + 1 x_97_ ^ 2 + 1 y_62_ ^ 2 - 2 y_97_ * y_62_ + 1 y_97_ ^ 2 ] <= 28365.85
quadratic_ranged_190_ub: [ 1 x_93_ ^ 2 - 2 x_97_ * x_93_ + 1 x_97_ ^ 2 + 1 y_93_ ^ 2 - 2 y_97_ * y_93_ + 1 y_97_ ^ 2 ] <= 30022.25
quadratic_ranged_191_ub: [ 1 x_15_ ^ 2 - 2 x_98_ * x_15_ + 1 x_98_ ^ 2 + 1 y_15_ ^ 2 - 2 y_98_ * y_15_ + 1 y_98_ ^ 2 ] <= 10164.64
quadratic_ranged_192_ub: [ 1 x_18_ ^ 2 - 2 x_98_ * x_18_ + 1 x_98_ ^ 2 + 1 y_18_ ^ 2 - 2 y_98_ * y_18_ + 1 y_98_ ^ 2 ] <= 3107.77
quadratic_ranged_193_ub: [ 1 x_17_ ^ 2 - 2 x_99_ * x_17_ + 1 x_99_ ^ 2 + 1 y_17_ ^ 2 - 2 y_99_ * y_17_ + 1 y_99_ ^ 2 ] <= 5519.65
quadratic_ranged_194_ub: [ 1 x_64_ ^ 2 - 2 x_99_ * x_64_ + 1 x_99_ ^ 2 + 1 y_64_ ^ 2 - 2 y_99_ * y_64_ + 1 y_99_ ^ 2 ] <= 5094.44
quadratic_ranged_195_ub: [ 1 x_79_ ^ 2 - 2 x_99_ * x_79_ + 1 x_99_ ^ 2 + 1 y_79_ ^ 2 - 2 y_99_ * y_79_ + 1 y_99_ ^ 2 ] <= 5704.4800000000005
quadratic_ranged_196_ub: [ 1 x_21_ ^ 2 - 2 x_100_ * x_21_ + 1 x_100_ ^ 2 + 1 y_21_ ^ 2 - 2 y_100_ * y_21_ + 1 y_100_ ^ 2 ] <= 33456.25
quadratic_ranged_197_ub: [ 1 x_87_ ^ 2 - 2 x_100_ * x_87_ + 1 x_100_ ^ 2 + 1 y_87_ ^ 2 - 2 y_100_ * y_87_ + 1 y_100_ ^ 2 ] <= 15436.84
c1_2: 1 x_69_ >= 0
c2_2: 1 y_69_ >= 0
quadratic_ranged_1_lb: [ 1 x_1_ ^ 2 - 2 x_2_ * x_1_ + 1 x_2_ ^ 2 + 1 y_1_ ^ 2 - 2 y_2_ * y_1_ + 1 y_2_ ^ 2 ] >= 3864.96
quadratic_ranged_2_lb: [ 1 x_1_ ^ 2 - 2 x_3_ * x_1_ + 1 x_3_ ^ 2 + 1 y_1_ ^ 2 - 2 y_3_ * y_1_ + 1 y_3_ ^ 2 ] >= 15543
quadratic_ranged_3_lb: [ 1 x_2_ ^ 2 - 2 x_3_ * x_2_ + 1 x_3_ ^ 2 + 1 y_2_ ^ 2 - 2 y_3_ * y_2_ + 1 y_3_ ^ 2 ] >= 4993.56
quadratic_ranged_4_lb: [ 1 x_3_ ^ 2 - 2 x_4_ * x_3_ + 1 x_4_ ^ 2 + 1 y_3_ ^ 2 - 2 y_4_ * y_3_ + 1 y_4_ ^ 2 ] >= 16411.23
quadratic_ranged_5_lb: [ 1 x_2_ ^ 2 - 2 x_5_ * x_2_ + 1 x_5_ ^ 2 + 1 y_2_ ^ 2 - 2 y_5_ * y_2_ + 1 y_5_ ^ 2 ] >= 5896.44
quadratic_ranged_6_lb: [ 1 x_2_ ^ 2 - 2 x_6_ * x_2_ + 1 x_6_ ^ 2 + 1 y_2_ ^ 2 - 2 y_6_ * y_2_ + 1 y_6_ ^ 2 ] >= 3217.5
quadratic_ranged_7_lb: [ 1 x_3_ ^ 2 - 2 x_7_ * x_3_ + 1 x_7_ ^ 2 + 1 y_3_ ^ 2 - 2 y_7_ * y_3_ + 1 y_7_ ^ 2 ] >= 12180.96
quadratic_ranged_8_lb: [ 1 x_3_ ^ 2 - 2 x_9_ * x_3_ + 1 x_9_ ^ 2 + 1 y_3_ ^ 2 - 2 y_9_ * y_3_ + 1 y_9_ ^ 2 ] >= 2571.03
quadratic_ranged_9_lb: [ 1 x_3_ ^ 2 - 2 x_10_ * x_3_ + 1 x_10_ ^ 2 + 1 y_3_ ^ 2 - 2 y_10_ * y_3_ + 1 y_10_ ^ 2 ] >= 23487.75
quadratic_ranged_10_lb: [ 1 x_6_ ^ 2 - 2 x_11_ * x_6_ + 1 x_11_ ^ 2 + 1 y_6_ ^ 2 - 2 y_11_ * y_6_ + 1 y_11_ ^ 2 ] >= 34821.27
quadratic_ranged_11_lb: [ 1 x_7_ ^ 2 - 2 x_11_ * x_7_ + 1 x_11_ ^ 2 + 1 y_7_ ^ 2 - 2 y_11_ * y_7_ + 1 y_11_ ^ 2 ] >= 16862.67
quadratic_ranged_12_lb: [ 1 x_8_ ^ 2 - 2 x_11_ * x_8_ + 1 x_11_ ^ 2 + 1 y_8_ ^ 2 - 2 y_11_ * y_8_ + 1 y_11_ ^ 2 ] >= 23040.27
quadratic_ranged_13_lb: [ 1 x_5_ ^ 2 - 2 x_12_ * x_5_ + 1 x_12_ ^ 2 + 1 y_5_ ^ 2 - 2 y_12_ * y_5_ + 1 y_12_ ^ 2 ] >= 52608.6
quadratic_ranged_14_lb: [ 1 x_4_ ^ 2 - 2 x_13_ * x_4_ + 1 x_13_ ^ 2 + 1 y_4_ ^ 2 - 2 y_13_ * y_4_ + 1 y_13_ ^ 2 ] >= 4506.48
quadratic_ranged_15_lb: [ 1 x_7_ ^ 2 - 2 x_13_ * x_7_ + 1 x_13_ ^ 2 + 1 y_7_ ^ 2 - 2 y_13_ * y_7_ + 1 y_13_ ^ 2 ] >= 18181.35
quadratic_ranged_16_lb: [ 1 x_10_ ^ 2 - 2 x_14_ * x_10_ + 1 x_14_ ^ 2 + 1 y_10_ ^ 2 - 2 y_14_ * y_10_ + 1 y_14_ ^ 2 ] >= 20874.15
quadratic_ranged_17_lb: [ 1 x_12_ ^ 2 - 2 x_14_ * x_12_ + 1 x_14_ ^ 2 + 1 y_12_ ^ 2 - 2 y_14_ * y_12_ + 1 y_14_ ^ 2 ] >= 18661.5
quadratic_ranged_18_lb: [ 1 x_2_ ^ 2 - 2 x_16_ * x_2_ + 1 x_16_ ^ 2 + 1 y_2_ ^ 2 - 2 y_16_ * y_2_ + 1 y_16_ ^ 2 ] >= 10939.5
quadratic_ranged_19_lb: [ 1 x_9_ ^ 2 - 2 x_16_ * x_9_ + 1 x_16_ ^ 2 + 1 y_9_ ^ 2 - 2 y_16_ * y_9_ + 1 y_16_ ^ 2 ] >= 16838.91
quadratic_ranged_20_lb: [ 1 x_12_ ^ 2 - 2 x_17_ * x_12_ + 1 x_17_ ^ 2 + 1 y_12_ ^ 2 - 2 y_17_ * y_12_ + 1 y_17_ ^ 2 ] >= 34800.48
quadratic_ranged_21_lb: [ 1 x_1_ ^ 2 - 2 x_18_ * x_1_ + 1 x_18_ ^ 2 + 1 y_1_ ^ 2 - 2 y_18_ * y_1_ + 1 y_18_ ^ 2 ] >= 5403.42
quadratic_ranged_22_lb: [ 1 x_3_ ^ 2 - 2 x_18_ * x_3_ + 1 x_18_ ^ 2 + 1 y_3_ ^ 2 - 2 y_18_ * y_3_ + 1 y_18_ ^ 2 ] >= 2948.22
quadratic_ranged_23_lb: [ 1 x_12_ ^ 2 - 2 x_18_ * x_12_ + 1 x_18_ ^ 2 + 1 y_12_ ^ 2 - 2 y_18_ * y_12_ + 1 y_18_ ^ 2 ] >= 27619.02
quadratic_ranged_24_lb: [ 1 x_3_ ^ 2 - 2 x_19_ * x_3_ + 1 x_19_ ^ 2 + 1 y_3_ ^ 2 - 2 y_19_ * y_3_ + 1 y_19_ ^ 2 ] >= 21043.44
quadratic_ranged_25_lb: [ 1 x_10_ ^ 2 - 2 x_21_ * x_10_ + 1 x_21_ ^ 2 + 1 y_10_ ^ 2 - 2 y_21_ * y_10_ + 1 y_21_ ^ 2 ] >= 32270.04
quadratic_ranged_26_lb: [ 1 x_20_ ^ 2 - 2 x_21_ * x_20_ + 1 x_21_ ^ 2 + 1 y_20_ ^ 2 - 2 y_21_ * y_20_ + 1 y_21_ ^ 2 ] >= 952.38
quadratic_ranged_27_lb: [ 1 x_2_ ^ 2 - 2 x_22_ * x_2_ + 1 x_22_ ^ 2 + 1 y_2_ ^ 2 - 2 y_22_ * y_2_ + 1 y_22_ ^ 2 ] >= 4364.91
quadratic_ranged_28_lb: [ 1 x_7_ ^ 2 - 2 x_22_ * x_7_ + 1 x_22_ ^ 2 + 1 y_7_ ^ 2 - 2 y_22_ * y_7_ + 1 y_22_ ^ 2 ] >= 6241.95
quadratic_ranged_29_lb: [ 1 x_7_ ^ 2 - 2 x_23_ * x_7_ + 1 x_23_ ^ 2 + 1 y_7_ ^ 2 - 2 y_23_ * y_7_ + 1 y_23_ ^ 2 ] >= 7774.47
quadratic_ranged_30_lb: [ 1 x_23_ ^ 2 - 2 x_24_ * x_23_ + 1 x_24_ ^ 2 + 1 y_23_ ^ 2 - 2 y_24_ * y_23_ + 1 y_24_ ^ 2 ] >= 8210.07
quadratic_ranged_31_lb: [ 1 x_6_ ^ 2 - 2 x_25_ * x_6_ + 1 x_25_ ^ 2 + 1 y_6_ ^ 2 - 2 y_25_ * y_6_ + 1 y_25_ ^ 2 ] >= 20862.27
quadratic_ranged_32_lb: [ 1 x_17_ ^ 2 - 2 x_25_ * x_17_ + 1 x_25_ ^ 2 + 1 y_17_ ^ 2 - 2 y_25_ * y_17_ + 1 y_25_ ^ 2 ] >= 29831.67
quadratic_ranged_33_lb: [ 1 x_1_ ^ 2 - 2 x_26_ * x_1_ + 1 x_26_ ^ 2 + 1 y_1_ ^ 2 - 2 y_26_ * y_1_ + 1 y_26_ ^ 2 ] >= 16339.95
quadratic_ranged_34_lb: [ 1 x_6_ ^ 2 - 2 x_26_ * x_6_ + 1 x_26_ ^ 2 + 1 y_6_ ^ 2 - 2 y_26_ * y_6_ + 1 y_26_ ^ 2 ] >= 5944.95
quadratic_ranged_35_lb: [ 1 x_19_ ^ 2 - 2 x_26_ * x_19_ + 1 x_26_ ^ 2 + 1 y_19_ ^ 2 - 2 y_26_ * y_19_ + 1 y_26_ ^ 2 ] >= 32290.829999999998
quadratic_ranged_36_lb: [ 1 x_6_ ^ 2 - 2 x_27_ * x_6_ + 1 x_27_ ^ 2 + 1 y_6_ ^ 2 - 2 y_27_ * y_6_ + 1 y_27_ ^ 2 ] >= 4453.0199999999995
quadratic_ranged_37_lb: [ 1 x_12_ ^ 2 - 2 x_27_ * x_12_ + 1 x_27_ ^ 2 + 1 y_12_ ^ 2 - 2 y_27_ * y_12_ + 1 y_27_ ^ 2 ] >= 14545.08
quadratic_ranged_38_lb: [ 1 x_7_ ^ 2 - 2 x_28_ * x_7_ + 1 x_28_ ^ 2 + 1 y_7_ ^ 2 - 2 y_28_ * y_7_ + 1 y_28_ ^ 2 ] >= 17901.18
quadratic_ranged_39_lb: [ 1 x_10_ ^ 2 - 2 x_28_ * x_10_ + 1 x_28_ ^ 2 + 1 y_10_ ^ 2 - 2 y_28_ * y_10_ + 1 y_28_ ^ 2 ] >= 41343.39
quadratic_ranged_40_lb: [ 1 x_21_ ^ 2 - 2 x_29_ * x_21_ + 1 x_29_ ^ 2 + 1 y_21_ ^ 2 - 2 y_29_ * y_21_ + 1 y_29_ ^ 2 ] >= 15868.71
quadratic_ranged_41_lb: [ 1 x_26_ ^ 2 - 2 x_29_ * x_26_ + 1 x_29_ ^ 2 + 1 y_26_ ^ 2 - 2 y_29_ * y_26_ + 1 y_29_ ^ 2 ] >= 40476.15
quadratic_ranged_42_lb: [ 1 x_6_ ^ 2 - 2 x_30_ * x_6_ + 1 x_30_ ^ 2 + 1 y_6_ ^ 2 - 2 y_30_ * y_6_ + 1 y_30_ ^ 2 ] >= 1855.26
quadratic_ranged_43_lb: [ 1 x_13_ ^ 2 - 2 x_30_ * x_13_ + 1 x_30_ ^ 2 + 1 y_13_ ^ 2 - 2 y_30_ * y_13_ + 1 y_30_ ^ 2 ] >= 24743.07
quadratic_ranged_44_lb: [ 1 x_12_ ^ 2 - 2 x_31_ * x_12_ + 1 x_31_ ^ 2 + 1 y_12_ ^ 2 - 2 y_31_ * y_12_ + 1 y_31_ ^ 2 ] >= 44008.47
quadratic_ranged_45_lb: [ 1 x_15_ ^ 2 - 2 x_31_ * x_15_ + 1 x_31_ ^ 2 + 1 y_15_ ^ 2 - 2 y_31_ * y_15_ + 1 y_31_ ^ 2 ] >= 38689.2
quadratic_ranged_46_lb: [ 1 x_15_ ^ 2 - 2 x_32_ * x_15_ + 1 x_32_ ^ 2 + 1 y_15_ ^ 2 - 2 y_32_ * y_15_ + 1 y_32_ ^ 2 ] >= 4759.92
quadratic_ranged_47_lb: [ 1 x_18_ ^ 2 - 2 x_32_ * x_18_ + 1 x_32_ ^ 2 + 1 y_18_ ^ 2 - 2 y_32_ * y_18_ + 1 y_32_ ^ 2 ] >= 6463.71
quadratic_ranged_48_lb: [ 1 x_1_ ^ 2 - 2 x_33_ * x_1_ + 1 x_33_ ^ 2 + 1 y_1_ ^ 2 - 2 y_33_ * y_1_ + 1 y_33_ ^ 2 ] >= 183.15
quadratic_ranged_49_lb: [ 1 x_10_ ^ 2 - 2 x_33_ * x_10_ + 1 x_33_ ^ 2 + 1 y_10_ ^ 2 - 2 y_33_ * y_10_ + 1 y_33_ ^ 2 ] >= 6435
quadratic_ranged_50_lb: [ 1 x_18_ ^ 2 - 2 x_35_ * x_18_ + 1 x_35_ ^ 2 + 1 y_18_ ^ 2 - 2 y_35_ * y_18_ + 1 y_35_ ^ 2 ] >= 10126.71
quadratic_ranged_51_lb: [ 1 x_26_ ^ 2 - 2 x_35_ * x_26_ + 1 x_35_ ^ 2 + 1 y_26_ ^ 2 - 2 y_35_ * y_26_ + 1 y_35_ ^ 2 ] >= 13117.5
quadratic_ranged_52_lb: [ 1 x_15_ ^ 2 - 2 x_36_ * x_15_ + 1 x_36_ ^ 2 + 1 y_15_ ^ 2 - 2 y_36_ * y_15_ + 1 y_36_ ^ 2 ] >= 8064.54
quadratic_ranged_53_lb: [ 1 x_20_ ^ 2 - 2 x_36_ * x_20_ + 1 x_36_ ^ 2 + 1 y_20_ ^ 2 - 2 y_36_ * y_20_ + 1 y_36_ ^ 2 ] >= 485.1
quadratic_ranged_54_lb: [ 1 x_21_ ^ 2 - 2 x_36_ * x_21_ + 1 x_36_ ^ 2 + 1 y_21_ ^ 2 - 2 y_36_ * y_21_ + 1 y_36_ ^ 2 ] >= 578.16
quadratic_ranged_55_lb: [ 1 x_2_ ^ 2 - 2 x_37_ * x_2_ + 1 x_37_ ^ 2 + 1 y_2_ ^ 2 - 2 y_37_ * y_2_ + 1 y_37_ ^ 2 ] >= 4103.55
quadratic_ranged_56_lb: [ 1 x_4_ ^ 2 - 2 x_37_ * x_4_ + 1 x_37_ ^ 2 + 1 y_4_ ^ 2 - 2 y_37_ * y_4_ + 1 y_37_ ^ 2 ] >= 30707.82
quadratic_ranged_57_lb: [ 1 x_10_ ^ 2 - 2 x_38_ * x_10_ + 1 x_38_ ^ 2 + 1 y_10_ ^ 2 - 2 y_38_ * y_10_ + 1 y_38_ ^ 2 ] >= 16414.2
quadratic_ranged_58_lb: [ 1 x_21_ ^ 2 - 2 x_38_ * x_21_ + 1 x_38_ ^ 2 + 1 y_21_ ^ 2 - 2 y_38_ * y_21_ + 1 y_38_ ^ 2 ] >= 23672.88
quadratic_ranged_59_lb: [ 1 x_1_ ^ 2 - 2 x_40_ * x_1_ + 1 x_40_ ^ 2 + 1 y_1_ ^ 2 - 2 y_40_ * y_1_ + 1 y_40_ ^ 2 ] >= 1093.95
quadratic_ranged_60_lb: [ 1 x_6_ ^ 2 - 2 x_40_ * x_6_ + 1 x_40_ ^ 2 + 1 y_6_ ^ 2 - 2 y_40_ * y_6_ + 1 y_40_ ^ 2 ] >= 11481.03
quadratic_ranged_61_lb: [ 1 x_10_ ^ 2 - 2 x_40_ * x_10_ + 1 x_40_ ^ 2 + 1 y_10_ ^ 2 - 2 y_40_ * y_10_ + 1 y_40_ ^ 2 ] >= 6732
quadratic_ranged_62_lb: [ 1 x_14_ ^ 2 - 2 x_41_ * x_14_ + 1 x_41_ ^ 2 + 1 y_14_ ^ 2 - 2 y_41_ * y_14_ + 1 y_41_ ^ 2 ] >= 19744.56
quadratic_ranged_63_lb: [ 1 x_30_ ^ 2 - 2 x_41_ * x_30_ + 1 x_41_ ^ 2 + 1 y_30_ ^ 2 - 2 y_41_ * y_30_ + 1 y_41_ ^ 2 ] >= 6543.9
quadratic_ranged_64_lb: [ 1 x_13_ ^ 2 - 2 x_42_ * x_13_ + 1 x_42_ ^ 2 + 1 y_13_ ^ 2 - 2 y_42_ * y_13_ + 1 y_42_ ^ 2 ] >= 24406.47
quadratic_ranged_65_lb: [ 1 x_20_ ^ 2 - 2 x_42_ * x_20_ + 1 x_42_ ^ 2 + 1 y_20_ ^ 2 - 2 y_42_ * y_20_ + 1 y_42_ ^ 2 ] >= 11203.83
quadratic_ranged_66_lb: [ 1 x_37_ ^ 2 - 2 x_42_ * x_37_ + 1 x_42_ ^ 2 + 1 y_37_ ^ 2 - 2 y_42_ * y_37_ + 1 y_42_ ^ 2 ] >= 27732.87
quadratic_ranged_67_lb: [ 1 x_12_ ^ 2 - 2 x_43_ * x_12_ + 1 x_43_ ^ 2 + 1 y_12_ ^ 2 - 2 y_43_ * y_12_ + 1 y_43_ ^ 2 ] >= 14715.36
quadratic_ranged_68_lb: [ 1 x_15_ ^ 2 - 2 x_43_ * x_15_ + 1 x_43_ ^ 2 + 1 y_15_ ^ 2 - 2 y_43_ * y_15_ + 1 y_43_ ^ 2 ] >= 11160.27
quadratic_ranged_69_lb: [ 1 x_6_ ^ 2 - 2 x_44_ * x_6_ + 1 x_44_ ^ 2 + 1 y_6_ ^ 2 - 2 y_44_ * y_6_ + 1 y_44_ ^ 2 ] >= 2663.1
quadratic_ranged_70_lb: [ 1 x_29_ ^ 2 - 2 x_44_ * x_29_ + 1 x_44_ ^ 2 + 1 y_29_ ^ 2 - 2 y_44_ * y_29_ + 1 y_44_ ^ 2 ] >= 8444.7
quadratic_ranged_71_lb: [ 1 x_38_ ^ 2 - 2 x_45_ * x_38_ + 1 x_45_ ^ 2 + 1 y_38_ ^ 2 - 2 y_45_ * y_38_ + 1 y_45_ ^ 2 ] >= 6182.55
quadratic_ranged_72_lb: [ 1 x_4_ ^ 2 - 2 x_46_ * x_4_ + 1 x_46_ ^ 2 + 1 y_4_ ^ 2 - 2 y_46_ * y_4_ + 1 y_46_ ^ 2 ] >= 14929.2
quadratic_ranged_73_lb: [ 1 x_6_ ^ 2 - 2 x_46_ * x_6_ + 1 x_46_ ^ 2 + 1 y_6_ ^ 2 - 2 y_46_ * y_6_ + 1 y_46_ ^ 2 ] >= 7631.91
quadratic_ranged_74_lb: [ 1 x_44_ ^ 2 - 2 x_46_ * x_44_ + 1 x_46_ ^ 2 + 1 y_44_ ^ 2 - 2 y_46_ * y_44_ + 1 y_46_ ^ 2 ] >= 11021.67
quadratic_ranged_75_lb: [ 1 x_8_ ^ 2 - 2 x_47_ * x_8_ + 1 x_47_ ^ 2 + 1 y_8_ ^ 2 - 2 y_47_ * y_8_ + 1 y_47_ ^ 2 ] >= 1133.55
quadratic_ranged_76_lb: [ 1 x_11_ ^ 2 - 2 x_47_ * x_11_ + 1 x_47_ ^ 2 + 1 y_11_ ^ 2 - 2 y_47_ * y_11_ + 1 y_47_ ^ 2 ] >= 30476.16
quadratic_ranged_77_lb: [ 1 x_13_ ^ 2 - 2 x_48_ * x_13_ + 1 x_48_ ^ 2 + 1 y_13_ ^ 2 - 2 y_48_ * y_13_ + 1 y_48_ ^ 2 ] >= 23144.22
quadratic_ranged_78_lb: [ 1 x_17_ ^ 2 - 2 x_48_ * x_17_ + 1 x_48_ ^ 2 + 1 y_17_ ^ 2 - 2 y_48_ * y_17_ + 1 y_48_ ^ 2 ] >= 7271.55
quadratic_ranged_79_lb: [ 1 x_29_ ^ 2 - 2 x_49_ * x_29_ + 1 x_49_ ^ 2 + 1 y_29_ ^ 2 - 2 y_49_ * y_29_ + 1 y_49_ ^ 2 ] >= 25008.39
quadratic_ranged_80_lb: [ 1 x_30_ ^ 2 - 2 x_49_ * x_30_ + 1 x_49_ ^ 2 + 1 y_30_ ^ 2 - 2 y_49_ * y_30_ + 1 y_49_ ^ 2 ] >= 2784.87
quadratic_ranged_81_lb: [ 1 x_35_ ^ 2 - 2 x_50_ * x_35_ + 1 x_50_ ^ 2 + 1 y_35_ ^ 2 - 2 y_50_ * y_35_ + 1 y_50_ ^ 2 ] >= 4103.55
quadratic_ranged_82_lb: [ 1 x_19_ ^ 2 - 2 x_51_ * x_19_ + 1 x_51_ ^ 2 + 1 y_19_ ^ 2 - 2 y_51_ * y_19_ + 1 y_51_ ^ 2 ] >= 13857.03
quadratic_ranged_83_lb: [ 1 x_23_ ^ 2 - 2 x_51_ * x_23_ + 1 x_51_ ^ 2 + 1 y_23_ ^ 2 - 2 y_51_ * y_23_ + 1 y_51_ ^ 2 ] >= 10147.5
quadratic_ranged_84_lb: [ 1 x_2_ ^ 2 - 2 x_52_ * x_2_ + 1 x_52_ ^ 2 + 1 y_2_ ^ 2 - 2 y_52_ * y_2_ + 1 y_52_ ^ 2 ] >= 9702.99
quadratic_ranged_85_lb: [ 1 x_35_ ^ 2 - 2 x_52_ * x_35_ + 1 x_52_ ^ 2 + 1 y_35_ ^ 2 - 2 y_52_ * y_35_ + 1 y_52_ ^ 2 ] >= 21473.1
quadratic_ranged_86_lb: [ 1 x_22_ ^ 2 - 2 x_53_ * x_22_ + 1 x_53_ ^ 2 + 1 y_22_ ^ 2 - 2 y_53_ * y_22_ + 1 y_53_ ^ 2 ] >= 24216.39
quadratic_ranged_87_lb: [ 1 x_28_ ^ 2 - 2 x_53_ * x_28_ + 1 x_53_ ^ 2 + 1 y_28_ ^ 2 - 2 y_53_ * y_28_ + 1 y_53_ ^ 2 ] >= 6615.18
quadratic_ranged_88_lb: [ 1 x_5_ ^ 2 - 2 x_54_ * x_5_ + 1 x_54_ ^ 2 + 1 y_5_ ^ 2 - 2 y_54_ * y_5_ + 1 y_54_ ^ 2 ] >= 12296.789999999999
quadratic_ranged_89_lb: [ 1 x_47_ ^ 2 - 2 x_54_ * x_47_ + 1 x_54_ ^ 2 + 1 y_47_ ^ 2 - 2 y_54_ * y_47_ + 1 y_54_ ^ 2 ] >= 25062.84
quadratic_ranged_90_lb: [ 1 x_9_ ^ 2 - 2 x_55_ * x_9_ + 1 x_55_ ^ 2 + 1 y_9_ ^ 2 - 2 y_55_ * y_9_ + 1 y_55_ ^ 2 ] >= 12048.3
quadratic_ranged_91_lb: [ 1 x_15_ ^ 2 - 2 x_55_ * x_15_ + 1 x_55_ ^ 2 + 1 y_15_ ^ 2 - 2 y_55_ * y_15_ + 1 y_55_ ^ 2 ] >= 28195.2
quadratic_ranged_92_lb: [ 1 x_34_ ^ 2 - 2 x_55_ * x_34_ + 1 x_55_ ^ 2 + 1 y_34_ ^ 2 - 2 y_55_ * y_34_ + 1 y_55_ ^ 2 ] >= 30999.87
quadratic_ranged_93_lb: [ 1 x_41_ ^ 2 - 2 x_56_ * x_41_ + 1 x_56_ ^ 2 + 1 y_41_ ^ 2 - 2 y_56_ * y_41_ + 1 y_56_ ^ 2 ] >= 8499.15
quadratic_ranged_94_lb: [ 1 x_19_ ^ 2 - 2 x_57_ * x_19_ + 1 x_57_ ^ 2 + 1 y_19_ ^ 2 - 2 y_57_ * y_19_ + 1 y_57_ ^ 2 ] >= 832.59
quadratic_ranged_95_lb: [ 1 x_23_ ^ 2 - 2 x_57_ * x_23_ + 1 x_57_ ^ 2 + 1 y_23_ ^ 2 - 2 y_57_ * y_23_ + 1 y_57_ ^ 2 ] >= 14503.5
quadratic_ranged_96_lb: [ 1 x_27_ ^ 2 - 2 x_57_ * x_27_ + 1 x_57_ ^ 2 + 1 y_27_ ^ 2 - 2 y_57_ * y_27_ + 1 y_57_ ^ 2 ] >= 6808.23
quadratic_ranged_97_lb: [ 1 x_20_ ^ 2 - 2 x_58_ * x_20_ + 1 x_58_ ^ 2 + 1 y_20_ ^ 2 - 2 y_58_ * y_20_ + 1 y_58_ ^ 2 ] >= 11956.23
quadratic_ranged_98_lb: [ 1 x_23_ ^ 2 - 2 x_58_ * x_23_ + 1 x_58_ ^ 2 + 1 y_23_ ^ 2 - 2 y_58_ * y_23_ + 1 y_58_ ^ 2 ] >= 1311.75
quadratic_ranged_99_lb: [ 1 x_43_ ^ 2 - 2 x_59_ * x_43_ + 1 x_59_ ^ 2 + 1 y_43_ ^ 2 - 2 y_59_ * y_43_ + 1 y_59_ ^ 2 ] >= 12079.98
quadratic_ranged_100_lb: [ 1 x_49_ ^ 2 - 2 x_59_ * x_49_ + 1 x_59_ ^ 2 + 1 y_49_ ^ 2 - 2 y_59_ * y_49_ + 1 y_59_ ^ 2 ] >= 19519.829999999998
quadratic_ranged_101_lb: [ 1 x_10_ ^ 2 - 2 x_60_ * x_10_ + 1 x_60_ ^ 2 + 1 y_10_ ^ 2 - 2 y_60_ * y_10_ + 1 y_60_ ^ 2 ] >= 1148.4
quadratic_ranged_102_lb: [ 1 x_37_ ^ 2 - 2 x_60_ * x_37_ + 1 x_60_ ^ 2 + 1 y_37_ ^ 2 - 2 y_60_ * y_37_ + 1 y_60_ ^ 2 ] >= 3653.1
quadratic_ranged_103_lb: [ 1 x_45_ ^ 2 - 2 x_61_ * x_45_ + 1 x_61_ ^ 2 + 1 y_45_ ^ 2 - 2 y_61_ * y_45_ + 1 y_61_ ^ 2 ] >= 5514.3
quadratic_ranged_104_lb: [ 1 x_48_ ^ 2 - 2 x_61_ * x_48_ + 1 x_61_ ^ 2 + 1 y_48_ ^ 2 - 2 y_61_ * y_48_ + 1 y_61_ ^ 2 ] >= 2400.75
quadratic_ranged_105_lb: [ 1 x_2_ ^ 2 - 2 x_62_ * x_2_ + 1 x_62_ ^ 2 + 1 y_2_ ^ 2 - 2 y_62_ * y_2_ + 1 y_62_ ^ 2 ] >= 3366
quadratic_ranged_106_lb: [ 1 x_8_ ^ 2 - 2 x_62_ * x_8_ + 1 x_62_ ^ 2 + 1 y_8_ ^ 2 - 2 y_62_ * y_8_ + 1 y_62_ ^ 2 ] >= 9999
quadratic_ranged_107_lb: [ 1 x_58_ ^ 2 - 2 x_62_ * x_58_ + 1 x_62_ ^ 2 + 1 y_58_ ^ 2 - 2 y_62_ * y_58_ + 1 y_62_ ^ 2 ] >= 36630
quadratic_ranged_108_lb: [ 1 x_15_ ^ 2 - 2 x_63_ * x_15_ + 1 x_63_ ^ 2 + 1 y_15_ ^ 2 - 2 y_63_ * y_15_ + 1 y_63_ ^ 2 ] >= 43758
quadratic_ranged_109_lb: [ 1 x_34_ ^ 2 - 2 x_63_ * x_34_ + 1 x_63_ ^ 2 + 1 y_34_ ^ 2 - 2 y_63_ * y_34_ + 1 y_63_ ^ 2 ] >= 20343.51
quadratic_ranged_110_lb: [ 1 x_20_ ^ 2 - 2 x_64_ * x_20_ + 1 x_64_ ^ 2 + 1 y_20_ ^ 2 - 2 y_64_ * y_20_ + 1 y_64_ ^ 2 ] >= 5520.24
quadratic_ranged_111_lb: [ 1 x_30_ ^ 2 - 2 x_64_ * x_30_ + 1 x_64_ ^ 2 + 1 y_30_ ^ 2 - 2 y_64_ * y_30_ + 1 y_64_ ^ 2 ] >= 8594.19
quadratic_ranged_112_lb: [ 1 x_25_ ^ 2 - 2 x_65_ * x_25_ + 1 x_65_ ^ 2 + 1 y_25_ ^ 2 - 2 y_65_ * y_25_ + 1 y_65_ ^ 2 ] >= 30066.3
quadratic_ranged_113_lb: [ 1 x_34_ ^ 2 - 2 x_65_ * x_34_ + 1 x_65_ ^ 2 + 1 y_34_ ^ 2 - 2 y_65_ * y_34_ + 1 y_65_ ^ 2 ] >= 579.15
quadratic_ranged_114_lb: [ 1 x_39_ ^ 2 - 2 x_65_ * x_39_ + 1 x_65_ ^ 2 + 1 y_39_ ^ 2 - 2 y_65_ * y_39_ + 1 y_65_ ^ 2 ] >= 20419.74
quadratic_ranged_115_lb: [ 1 x_48_ ^ 2 - 2 x_66_ * x_48_ + 1 x_66_ ^ 2 + 1 y_48_ ^ 2 - 2 y_66_ * y_48_ + 1 y_66_ ^ 2 ] >= 15611.31
quadratic_ranged_116_lb: [ 1 x_61_ ^ 2 - 2 x_66_ * x_61_ + 1 x_66_ ^ 2 + 1 y_61_ ^ 2 - 2 y_66_ * y_61_ + 1 y_66_ ^ 2 ] >= 9159.48
quadratic_ranged_117_lb: [ 1 x_10_ ^ 2 - 2 x_67_ * x_10_ + 1 x_67_ ^ 2 + 1 y_10_ ^ 2 - 2 y_67_ * y_10_ + 1 y_67_ ^ 2 ] >= 4294.62
quadratic_ranged_118_lb: [ 1 x_15_ ^ 2 - 2 x_67_ * x_15_ + 1 x_67_ ^ 2 + 1 y_15_ ^ 2 - 2 y_67_ * y_15_ + 1 y_67_ ^ 2 ] >= 29026.8
quadratic_ranged_119_lb: [ 1 x_65_ ^ 2 - 2 x_67_ * x_65_ + 1 x_67_ ^ 2 + 1 y_65_ ^ 2 - 2 y_67_ * y_65_ + 1 y_67_ ^ 2 ] >= 26312.22
quadratic_ranged_120_lb: [ 1 x_4_ ^ 2 - 2 x_68_ * x_4_ + 1 x_68_ ^ 2 + 1 y_4_ ^ 2 - 2 y_68_ * y_4_ + 1 y_68_ ^ 2 ] >= 33850.08
quadratic_ranged_121_lb: [ 1 x_50_ ^ 2 - 2 x_68_ * x_50_ + 1 x_68_ ^ 2 + 1 y_50_ ^ 2 - 2 y_68_ * y_50_ + 1 y_68_ ^ 2 ] >= 5291.55
quadratic_ranged_122_lb: [ 1 x_59_ ^ 2 - 2 x_68_ * x_59_ + 1 x_68_ ^ 2 + 1 y_59_ ^ 2 - 2 y_68_ * y_59_ + 1 y_68_ ^ 2 ] >= 42951.15
quadratic_ranged_123_lb: [ 1 x_57_ ^ 2 - 2 x_69_ * x_57_ + 1 x_69_ ^ 2 + 1 y_57_ ^ 2 - 2 y_69_ * y_57_ + 1 y_69_ ^ 2 ] >= 12786.84
quadratic_ranged_124_lb: [ 1 x_68_ ^ 2 - 2 x_69_ * x_68_ + 1 x_69_ ^ 2 + 1 y_68_ ^ 2 - 2 y_69_ * y_68_ + 1 y_69_ ^ 2 ] >= 4577.76
quadratic_ranged_125_lb: [ 1 x_7_ ^ 2 - 2 x_70_ * x_7_ + 1 x_70_ ^ 2 + 1 y_7_ ^ 2 - 2 y_70_ * y_7_ + 1 y_70_ ^ 2 ] >= 11611.71
quadratic_ranged_126_lb: [ 1 x_60_ ^ 2 - 2 x_70_ * x_60_ + 1 x_70_ ^ 2 + 1 y_60_ ^ 2 - 2 y_70_ * y_60_ + 1 y_70_ ^ 2 ] >= 2172.06
quadratic_ranged_127_lb: [ 1 x_63_ ^ 2 - 2 x_71_ * x_63_ + 1 x_71_ ^ 2 + 1 y_63_ ^ 2 - 2 y_71_ * y_63_ + 1 y_71_ ^ 2 ] >= 23586.75
quadratic_ranged_128_lb: [ 1 x_36_ ^ 2 - 2 x_72_ * x_36_ + 1 x_72_ ^ 2 + 1 y_36_ ^ 2 - 2 y_72_ * y_36_ + 1 y_72_ ^ 2 ] >= 11501.82
quadratic_ranged_129_lb: [ 1 x_1_ ^ 2 - 2 x_73_ * x_1_ + 1 x_73_ ^ 2 + 1 y_1_ ^ 2 - 2 y_73_ * y_1_ + 1 y_73_ ^ 2 ] >= 24069.87
quadratic_ranged_130_lb: [ 1 x_29_ ^ 2 - 2 x_73_ * x_29_ + 1 x_73_ ^ 2 + 1 y_29_ ^ 2 - 2 y_73_ * y_29_ + 1 y_73_ ^ 2 ] >= 52193.79
quadratic_ranged_131_lb: [ 1 x_20_ ^ 2 - 2 x_74_ * x_20_ + 1 x_74_ ^ 2 + 1 y_20_ ^ 2 - 2 y_74_ * y_20_ + 1 y_74_ ^ 2 ] >= 3034.35
quadratic_ranged_132_lb: [ 1 x_27_ ^ 2 - 2 x_74_ * x_27_ + 1 x_74_ ^ 2 + 1 y_27_ ^ 2 - 2 y_74_ * y_27_ + 1 y_74_ ^ 2 ] >= 16651.8
quadratic_ranged_133_lb: [ 1 x_65_ ^ 2 - 2 x_74_ * x_65_ + 1 x_74_ ^ 2 + 1 y_65_ ^ 2 - 2 y_74_ * y_65_ + 1 y_74_ ^ 2 ] >= 218.79
quadratic_ranged_134_lb: [ 1 x_9_ ^ 2 - 2 x_75_ * x_9_ + 1 x_75_ ^ 2 + 1 y_9_ ^ 2 - 2 y_75_ * y_9_ + 1 y_75_ ^ 2 ] >= 20248.47
quadratic_ranged_135_lb: [ 1 x_71_ ^ 2 - 2 x_75_ * x_71_ + 1 x_75_ ^ 2 + 1 y_71_ ^ 2 - 2 y_75_ * y_71_ + 1 y_75_ ^ 2 ] >= 1079.1
quadratic_ranged_136_lb: [ 1 x_6_ ^ 2 - 2 x_76_ * x_6_ + 1 x_76_ ^ 2 + 1 y_6_ ^ 2 - 2 y_76_ * y_6_ + 1 y_76_ ^ 2 ] >= 9675.27
quadratic_ranged_137_lb: [ 1 x_13_ ^ 2 - 2 x_76_ * x_13_ + 1 x_76_ ^ 2 + 1 y_13_ ^ 2 - 2 y_76_ * y_13_ + 1 y_76_ ^ 2 ] >= 16236
quadratic_ranged_138_lb: [ 1 x_65_ ^ 2 - 2 x_76_ * x_65_ + 1 x_76_ ^ 2 + 1 y_65_ ^ 2 - 2 y_76_ * y_65_ + 1 y_76_ ^ 2 ] >= 12739.32
quadratic_ranged_139_lb: [ 1 x_58_ ^ 2 - 2 x_77_ * x_58_ + 1 x_77_ ^ 2 + 1 y_58_ ^ 2 - 2 y_77_ * y_58_ + 1 y_77_ ^ 2 ] >= 25455.87
quadratic_ranged_140_lb: [ 1 x_7_ ^ 2 - 2 x_78_ * x_7_ + 1 x_78_ ^ 2 + 1 y_7_ ^ 2 - 2 y_78_ * y_7_ + 1 y_78_ ^ 2 ] >= 8062.5599999999995
quadratic_ranged_141_lb: [ 1 x_34_ ^ 2 - 2 x_78_ * x_34_ + 1 x_78_ ^ 2 + 1 y_34_ ^ 2 - 2 y_78_ * y_34_ + 1 y_78_ ^ 2 ] >= 12713.58
quadratic_ranged_142_lb: [ 1 x_65_ ^ 2 - 2 x_78_ * x_65_ + 1 x_78_ ^ 2 + 1 y_65_ ^ 2 - 2 y_78_ * y_65_ + 1 y_78_ ^ 2 ] >= 18561.51
quadratic_ranged_143_lb: [ 1 x_5_ ^ 2 - 2 x_79_ * x_5_ + 1 x_79_ ^ 2 + 1 y_5_ ^ 2 - 2 y_79_ * y_5_ + 1 y_79_ ^ 2 ] >= 27348.75
quadratic_ranged_144_lb: [ 1 x_47_ ^ 2 - 2 x_79_ * x_47_ + 1 x_79_ ^ 2 + 1 y_47_ ^ 2 - 2 y_79_ * y_47_ + 1 y_79_ ^ 2 ] >= 17544.78
quadratic_ranged_145_lb: [ 1 x_12_ ^ 2 - 2 x_80_ * x_12_ + 1 x_80_ ^ 2 + 1 y_12_ ^ 2 - 2 y_80_ * y_12_ + 1 y_80_ ^ 2 ] >= 7382.43
quadratic_ranged_146_lb: [ 1 x_17_ ^ 2 - 2 x_80_ * x_17_ + 1 x_80_ ^ 2 + 1 y_17_ ^ 2 - 2 y_80_ * y_17_ + 1 y_80_ ^ 2 ] >= 13868.91
quadratic_ranged_147_lb: [ 1 x_45_ ^ 2 - 2 x_80_ * x_45_ + 1 x_80_ ^ 2 + 1 y_45_ ^ 2 - 2 y_80_ * y_45_ + 1 y_80_ ^ 2 ] >= 21765.15
quadratic_ranged_148_lb: [ 1 x_1_ ^ 2 - 2 x_81_ * x_1_ + 1 x_81_ ^ 2 + 1 y_1_ ^ 2 - 2 y_81_ * y_1_ + 1 y_81_ ^ 2 ] >= 5727.15
quadratic_ranged_149_lb: [ 1 x_34_ ^ 2 - 2 x_81_ * x_34_ + 1 x_81_ ^ 2 + 1 y_34_ ^ 2 - 2 y_81_ * y_34_ + 1 y_81_ ^ 2 ] >= 21586.95
quadratic_ranged_150_lb: [ 1 x_24_ ^ 2 - 2 x_82_ * x_24_ + 1 x_82_ ^ 2 + 1 y_24_ ^ 2 - 2 y_82_ * y_24_ + 1 y_82_ ^ 2 ] >= 8273.43
quadratic_ranged_151_lb: [ 1 x_38_ ^ 2 - 2 x_82_ * x_38_ + 1 x_82_ ^ 2 + 1 y_38_ ^ 2 - 2 y_82_ * y_38_ + 1 y_82_ ^ 2 ] >= 3864.96
quadratic_ranged_152_lb: [ 1 x_59_ ^ 2 - 2 x_82_ * x_59_ + 1 x_82_ ^ 2 + 1 y_59_ ^ 2 - 2 y_82_ * y_59_ + 1 y_82_ ^ 2 ] >= 28021.95
quadratic_ranged_153_lb: [ 1 x_14_ ^ 2 - 2 x_83_ * x_14_ + 1 x_83_ ^ 2 + 1 y_14_ ^ 2 - 2 y_83_ * y_14_ + 1 y_83_ ^ 2 ] >= 18344.7
quadratic_ranged_154_lb: [ 1 x_31_ ^ 2 - 2 x_83_ * x_31_ + 1 x_83_ ^ 2 + 1 y_31_ ^ 2 - 2 y_83_ * y_31_ + 1 y_83_ ^ 2 ] >= 9239.67
quadratic_ranged_155_lb: [ 1 x_33_ ^ 2 - 2 x_83_ * x_33_ + 1 x_83_ ^ 2 + 1 y_33_ ^ 2 - 2 y_83_ * y_33_ + 1 y_83_ ^ 2 ] >= 5944.95
quadratic_ranged_156_lb: [ 1 x_6_ ^ 2 - 2 x_84_ * x_6_ + 1 x_84_ ^ 2 + 1 y_6_ ^ 2 - 2 y_84_ * y_6_ + 1 y_84_ ^ 2 ] >= 25816.23
quadratic_ranged_157_lb: [ 1 x_18_ ^ 2 - 2 x_84_ * x_18_ + 1 x_84_ ^ 2 + 1 y_18_ ^ 2 - 2 y_84_ * y_18_ + 1 y_84_ ^ 2 ] >= 9524.789999999999
quadratic_ranged_158_lb: [ 1 x_72_ ^ 2 - 2 x_84_ * x_72_ + 1 x_84_ ^ 2 + 1 y_72_ ^ 2 - 2 y_84_ * y_72_ + 1 y_84_ ^ 2 ] >= 8365.5
quadratic_ranged_159_lb: [ 1 x_39_ ^ 2 - 2 x_85_ * x_39_ + 1 x_85_ ^ 2 + 1 y_39_ ^ 2 - 2 y_85_ * y_39_ + 1 y_85_ ^ 2 ] >= 46408.23
quadratic_ranged_160_lb: [ 1 x_45_ ^ 2 - 2 x_85_ * x_45_ + 1 x_85_ ^ 2 + 1 y_45_ ^ 2 - 2 y_85_ * y_45_ + 1 y_85_ ^ 2 ] >= 5648.94
quadratic_ranged_161_lb: [ 1 x_77_ ^ 2 - 2 x_85_ * x_77_ + 1 x_85_ ^ 2 + 1 y_77_ ^ 2 - 2 y_85_ * y_77_ + 1 y_85_ ^ 2 ] >= 10708.83
quadratic_ranged_162_lb: [ 1 x_26_ ^ 2 - 2 x_86_ * x_26_ + 1 x_86_ ^ 2 + 1 y_26_ ^ 2 - 2 y_86_ * y_26_ + 1 y_86_ ^ 2 ] >= 5469.75
quadratic_ranged_163_lb: [ 1 x_81_ ^ 2 - 2 x_86_ * x_81_ + 1 x_86_ ^ 2 + 1 y_81_ ^ 2 - 2 y_86_ * y_81_ + 1 y_86_ ^ 2 ] >= 29190.15
quadratic_ranged_164_lb: [ 1 x_16_ ^ 2 - 2 x_87_ * x_16_ + 1 x_87_ ^ 2 + 1 y_16_ ^ 2 - 2 y_87_ * y_16_ + 1 y_87_ ^ 2 ] >= 28955.52
quadratic_ranged_165_lb: [ 1 x_56_ ^ 2 - 2 x_87_ * x_56_ + 1 x_87_ ^ 2 + 1 y_56_ ^ 2 - 2 y_87_ * y_56_ + 1 y_87_ ^ 2 ] >= 21982.95
quadratic_ranged_166_lb: [ 1 x_74_ ^ 2 - 2 x_87_ * x_74_ + 1 x_87_ ^ 2 + 1 y_74_ ^ 2 - 2 y_87_ * y_74_ + 1 y_87_ ^ 2 ] >= 32600.7
quadratic_ranged_167_lb: [ 1 x_18_ ^ 2 - 2 x_88_ * x_18_ + 1 x_88_ ^ 2 + 1 y_18_ ^ 2 - 2 y_88_ * y_18_ + 1 y_88_ ^ 2 ] >= 7716.0599999999995
quadratic_ranged_168_lb: [ 1 x_78_ ^ 2 - 2 x_88_ * x_78_ + 1 x_88_ ^ 2 + 1 y_78_ ^ 2 - 2 y_88_ * y_78_ + 1 y_88_ ^ 2 ] >= 7939.8
quadratic_ranged_169_lb: [ 1 x_2_ ^ 2 - 2 x_89_ * x_2_ + 1 x_89_ ^ 2 + 1 y_2_ ^ 2 - 2 y_89_ * y_2_ + 1 y_89_ ^ 2 ] >= 6023.16
quadratic_ranged_170_lb: [ 1 x_9_ ^ 2 - 2 x_89_ * x_9_ + 1 x_89_ ^ 2 + 1 y_9_ ^ 2 - 2 y_89_ * y_9_ + 1 y_89_ ^ 2 ] >= 4162.95
quadratic_ranged_171_lb: [ 1 x_4_ ^ 2 - 2 x_90_ * x_4_ + 1 x_90_ ^ 2 + 1 y_4_ ^ 2 - 2 y_90_ * y_4_ + 1 y_90_ ^ 2 ] >= 19107
quadratic_ranged_172_lb: [ 1 x_47_ ^ 2 - 2 x_90_ * x_47_ + 1 x_90_ ^ 2 + 1 y_47_ ^ 2 - 2 y_90_ * y_47_ + 1 y_90_ ^ 2 ] >= 316.8
quadratic_ranged_173_lb: [ 1 x_89_ ^ 2 - 2 x_90_ * x_89_ + 1 x_90_ ^ 2 + 1 y_89_ ^ 2 - 2 y_90_ * y_89_ + 1 y_90_ ^ 2 ] >= 30793.95
quadratic_ranged_174_lb: [ 1 x_71_ ^ 2 - 2 x_91_ * x_71_ + 1 x_91_ ^ 2 + 1 y_71_ ^ 2 - 2 y_91_ * y_71_ + 1 y_91_ ^ 2 ] >= 12035.43
quadratic_ranged_175_lb: [ 1 x_76_ ^ 2 - 2 x_91_ * x_76_ + 1 x_91_ ^ 2 + 1 y_76_ ^ 2 - 2 y_91_ * y_76_ + 1 y_91_ ^ 2 ] >= 1673.1
quadratic_ranged_176_lb: [ 1 x_38_ ^ 2 - 2 x_92_ * x_38_ + 1 x_92_ ^ 2 + 1 y_38_ ^ 2 - 2 y_92_ * y_38_ + 1 y_92_ ^ 2 ] >= 11112.75
quadratic_ranged_177_lb: [ 1 x_56_ ^ 2 - 2 x_92_ * x_56_ + 1 x_92_ ^ 2 + 1 y_56_ ^ 2 - 2 y_92_ * y_56_ + 1 y_92_ ^ 2 ] >= 18513.99
quadratic_ranged_178_lb: [ 1 x_5_ ^ 2 - 2 x_93_ * x_5_ + 1 x_93_ ^ 2 + 1 y_5_ ^ 2 - 2 y_93_ * y_5_ + 1 y_93_ ^ 2 ] >= 1071.18
quadratic_ranged_179_lb: [ 1 x_39_ ^ 2 - 2 x_93_ * x_39_ + 1 x_93_ ^ 2 + 1 y_39_ ^ 2 - 2 y_93_ * y_39_ + 1 y_93_ ^ 2 ] >= 40452.39
quadratic_ranged_180_lb: [ 1 x_71_ ^ 2 - 2 x_93_ * x_71_ + 1 x_93_ ^ 2 + 1 y_71_ ^ 2 - 2 y_93_ * y_71_ + 1 y_93_ ^ 2 ] >= 24967.8
quadratic_ranged_181_lb: [ 1 x_4_ ^ 2 - 2 x_94_ * x_4_ + 1 x_94_ ^ 2 + 1 y_4_ ^ 2 - 2 y_94_ * y_4_ + 1 y_94_ ^ 2 ] >= 19324.8
quadratic_ranged_182_lb: [ 1 x_77_ ^ 2 - 2 x_94_ * x_77_ + 1 x_94_ ^ 2 + 1 y_77_ ^ 2 - 2 y_94_ * y_77_ + 1 y_94_ ^ 2 ] >= 14675.76
quadratic_ranged_183_lb: [ 1 x_84_ ^ 2 - 2 x_94_ * x_84_ + 1 x_94_ ^ 2 + 1 y_84_ ^ 2 - 2 y_94_ * y_84_ + 1 y_94_ ^ 2 ] >= 26143.92
quadratic_ranged_184_lb: [ 1 x_9_ ^ 2 - 2 x_95_ * x_9_ + 1 x_95_ ^ 2 + 1 y_9_ ^ 2 - 2 y_95_ * y_9_ + 1 y_95_ ^ 2 ] >= 24319.35
quadratic_ranged_185_lb: [ 1 x_15_ ^ 2 - 2 x_95_ * x_15_ + 1 x_95_ ^ 2 + 1 y_15_ ^ 2 - 2 y_95_ * y_15_ + 1 y_95_ ^ 2 ] >= 23349.15
quadratic_ranged_186_lb: [ 1 x_45_ ^ 2 - 2 x_95_ * x_45_ + 1 x_95_ ^ 2 + 1 y_45_ ^ 2 - 2 y_95_ * y_45_ + 1 y_95_ ^ 2 ] >= 40051.44
quadratic_ranged_187_lb: [ 1 x_55_ ^ 2 - 2 x_96_ * x_55_ + 1 x_96_ ^ 2 + 1 y_55_ ^ 2 - 2 y_96_ * y_55_ + 1 y_96_ ^ 2 ] >= 6024.15
quadratic_ranged_188_lb: [ 1 x_80_ ^ 2 - 2 x_96_ * x_80_ + 1 x_96_ ^ 2 + 1 y_80_ ^ 2 - 2 y_96_ * y_80_ + 1 y_96_ ^ 2 ] >= 3113.55
quadratic_ranged_189_lb: [ 1 x_62_ ^ 2 - 2 x_97_ * x_62_ + 1 x_97_ ^ 2 + 1 y_62_ ^ 2 - 2 y_97_ * y_62_ + 1 y_97_ ^ 2 ] >= 27804.15
quadratic_ranged_190_lb: [ 1 x_93_ ^ 2 - 2 x_97_ * x_93_ + 1 x_97_ ^ 2 + 1 y_93_ ^ 2 - 2 y_97_ * y_93_ + 1 y_97_ ^ 2 ] >= 29427.75
quadratic_ranged_191_lb: [ 1 x_15_ ^ 2 - 2 x_98_ * x_15_ + 1 x_98_ ^ 2 + 1 y_15_ ^ 2 - 2 y_98_ * y_15_ + 1 y_98_ ^ 2 ] >= 9963.36
quadratic_ranged_192_lb: [ 1 x_18_ ^ 2 - 2 x_98_ * x_18_ + 1 x_98_ ^ 2 + 1 y_18_ ^ 2 - 2 y_98_ * y_18_ + 1 y_98_ ^ 2 ] >= 3046.23
quadratic_ranged_193_lb: [ 1 x_17_ ^ 2 - 2 x_99_ * x_17_ + 1 x_99_ ^ 2 + 1 y_17_ ^ 2 - 2 y_99_ * y_17_ + 1 y_99_ ^ 2 ] >= 5410.35
quadratic_ranged_194_lb: [ 1 x_64_ ^ 2 - 2 x_99_ * x_64_ + 1 x_99_ ^ 2 + 1 y_64_ ^ 2 - 2 y_99_ * y_64_ + 1 y_99_ ^ 2 ] >= 4993.56
quadratic_ranged_195_lb: [ 1 x_79_ ^ 2 - 2 x_99_ * x_79_ + 1 x_99_ ^ 2 + 1 y_79_ ^ 2 - 2 y_99_ * y_79_ + 1 y_99_ ^ 2 ] >= 5591.5199999999995
quadratic_ranged_196_lb: [ 1 x_21_ ^ 2 - 2 x_100_ * x_21_ + 1 x_100_ ^ 2 + 1 y_21_ ^ 2 - 2 y_100_ * y_21_ + 1 y_100_ ^ 2 ] >= 32793.75
quadratic_ranged_197_lb: [ 1 x_87_ ^ 2 - 2 x_100_ * x_87_ + 1 x_100_ ^ 2 + 1 y_87_ ^ 2 - 2 y_100_ * y_87_ + 1 y_100_ ^ 2 ] >= 15131.16
c1_1: 1 x_10_ = 0
c2_1: 1 y_10_ = 0
Bounds
-94 <= x_1_ <= 94
-157 <= x_2_ <= 157
-154 <= x_3_ <= 154
-272 <= x_4_ <= 272
-235 <= x_5_ <= 235
-191 <= x_6_ <= 191
-190 <= x_7_ <= 190
-317 <= x_8_ <= 317
-206 <= x_9_ <= 206
x_10_ = 0
-321 <= x_11_ <= 321
-283 <= x_12_ <= 283
-326 <= x_13_ <= 326
-145 <= x_14_ <= 145
-238 <= x_15_ <= 238
-263 <= x_16_ <= 263
-419 <= x_17_ <= 419
-168 <= x_18_ <= 168
-301 <= x_19_ <= 301
-212 <= x_20_ <= 212
-181 <= x_21_ <= 181
-224 <= x_22_ <= 224
-279 <= x_23_ <= 279
-284 <= x_24_ <= 284
-336 <= x_25_ <= 336
-223 <= x_26_ <= 223
-258 <= x_27_ <= 258
-205 <= x_28_ <= 205
-308 <= x_29_ <= 308
-234 <= x_30_ <= 234
-255 <= x_31_ <= 255
-250 <= x_32_ <= 250
-81 <= x_33_ <= 81
-254 <= x_34_ <= 254
-270 <= x_35_ <= 270
-205 <= x_36_ <= 205
-95 <= x_37_ <= 95
-129 <= x_38_ <= 129
-374 <= x_39_ <= 374
-82 <= x_40_ <= 82
-287 <= x_41_ <= 287
-263 <= x_42_ <= 263
-344 <= x_43_ <= 344
-243 <= x_44_ <= 243
-208 <= x_45_ <= 208
-279 <= x_46_ <= 279
-351 <= x_47_ <= 351
-333 <= x_48_ <= 333
-287 <= x_49_ <= 287
-335 <= x_50_ <= 335
-380 <= x_51_ <= 380
-256 <= x_52_ <= 256
-287 <= x_53_ <= 287
-347 <= x_54_ <= 347
-316 <= x_55_ <= 316
-373 <= x_56_ <= 373
-330 <= x_57_ <= 330
-315 <= x_58_ <= 315
-361 <= x_59_ <= 361
-34 <= x_60_ <= 34
-283 <= x_61_ <= 283
-216 <= x_62_ <= 216
-398 <= x_63_ <= 398
-287 <= x_64_ <= 287
-230 <= x_65_ <= 230
-380 <= x_66_ <= 380
-66 <= x_67_ <= 66
-408 <= x_68_ <= 408
-444 <= x_69_ <= 444
-81 <= x_70_ <= 81
-382 <= x_71_ <= 382
-314 <= x_72_ <= 314
-251 <= x_73_ <= 251
-244 <= x_74_ <= 244
-349 <= x_75_ <= 349
-290 <= x_76_ <= 290
-389 <= x_77_ <= 389
-280 <= x_78_ <= 280
-402 <= x_79_ <= 402
-357 <= x_80_ <= 357
-171 <= x_81_ <= 171
-192 <= x_82_ <= 192
-158 <= x_83_ <= 158
-267 <= x_84_ <= 267
-284 <= x_85_ <= 284
-298 <= x_86_ <= 298
-427 <= x_87_ <= 427
-257 <= x_88_ <= 257
-235 <= x_89_ <= 235
-369 <= x_90_ <= 369
-331 <= x_91_ <= 331
-235 <= x_92_ <= 235
-268 <= x_93_ <= 268
-412 <= x_94_ <= 412
-363 <= x_95_ <= 363
-395 <= x_96_ <= 395
-384 <= x_97_ <= 384
-224 <= x_98_ <= 224
-359 <= x_99_ <= 359
-364 <= x_100_ <= 364
-94 <= y_1_ <= 94
-157 <= y_2_ <= 157
-154 <= y_3_ <= 154
-272 <= y_4_ <= 272
-235 <= y_5_ <= 235
-191 <= y_6_ <= 191
-190 <= y_7_ <= 190
-317 <= y_8_ <= 317
-206 <= y_9_ <= 206
y_10_ = 0
-321 <= y_11_ <= 321
-283 <= y_12_ <= 283
-326 <= y_13_ <= 326
-145 <= y_14_ <= 145
-238 <= y_15_ <= 238
-263 <= y_16_ <= 263
-419 <= y_17_ <= 419
-168 <= y_18_ <= 168
-301 <= y_19_ <= 301
-212 <= y_20_ <= 212
-181 <= y_21_ <= 181
-224 <= y_22_ <= 224
-279 <= y_23_ <= 279
-284 <= y_24_ <= 284
-336 <= y_25_ <= 336
-223 <= y_26_ <= 223
-258 <= y_27_ <= 258
-205 <= y_28_ <= 205
-308 <= y_29_ <= 308
-234 <= y_30_ <= 234
-255 <= y_31_ <= 255
-250 <= y_32_ <= 250
-81 <= y_33_ <= 81
-254 <= y_34_ <= 254
-270 <= y_35_ <= 270
-205 <= y_36_ <= 205
-95 <= y_37_ <= 95
-129 <= y_38_ <= 129
-374 <= y_39_ <= 374
-82 <= y_40_ <= 82
-287 <= y_41_ <= 287
-263 <= y_42_ <= 263
-344 <= y_43_ <= 344
-243 <= y_44_ <= 243
-208 <= y_45_ <= 208
-279 <= y_46_ <= 279
-351 <= y_47_ <= 351
-333 <= y_48_ <= 333
-287 <= y_49_ <= 287
-335 <= y_50_ <= 335
-380 <= y_51_ <= 380
-256 <= y_52_ <= 256
-287 <= y_53_ <= 287
-347 <= y_54_ <= 347
-316 <= y_55_ <= 316
-373 <= y_56_ <= 373
-330 <= y_57_ <= 330
-315 <= y_58_ <= 315
-361 <= y_59_ <= 361
-34 <= y_60_ <= 34
-283 <= y_61_ <= 283
-216 <= y_62_ <= 216
-398 <= y_63_ <= 398
-287 <= y_64_ <= 287
-230 <= y_65_ <= 230
-380 <= y_66_ <= 380
-66 <= y_67_ <= 66
-408 <= y_68_ <= 408
-444 <= y_69_ <= 444
-81 <= y_70_ <= 81
-382 <= y_71_ <= 382
-314 <= y_72_ <= 314
-251 <= y_73_ <= 251
-244 <= y_74_ <= 244
-349 <= y_75_ <= 349
-290 <= y_76_ <= 290
-389 <= y_77_ <= 389
-280 <= y_78_ <= 280
-402 <= y_79_ <= 402
-357 <= y_80_ <= 357
-171 <= y_81_ <= 171
-192 <= y_82_ <= 192
-158 <= y_83_ <= 158
-267 <= y_84_ <= 267
-284 <= y_85_ <= 284
-298 <= y_86_ <= 298
-427 <= y_87_ <= 427
-257 <= y_88_ <= 257
-235 <= y_89_ <= 235
-369 <= y_90_ <= 369
-331 <= y_91_ <= 331
-235 <= y_92_ <= 235
-268 <= y_93_ <= 268
-412 <= y_94_ <= 412
-363 <= y_95_ <= 363
-395 <= y_96_ <= 395
-384 <= y_97_ <= 384
-224 <= y_98_ <= 224
-359 <= y_99_ <= 359
-364 <= y_100_ <= 364
General
x_1_
x_2_
x_3_
x_4_
x_5_
x_6_
x_7_
x_8_
x_9_
x_10_
x_11_
x_12_
x_13_
x_14_
x_15_
x_16_
x_17_
x_18_
x_19_
x_20_
x_21_
x_22_
x_23_
x_24_
x_25_
x_26_
x_27_
x_28_
x_29_
x_30_
x_31_
x_32_
x_33_
x_34_
x_35_
x_36_
x_37_
x_38_
x_39_
x_40_
x_41_
x_42_
x_43_
x_44_
x_45_
x_46_
x_47_
x_48_
x_49_
x_50_
x_51_
x_52_
x_53_
x_54_
x_55_
x_56_
x_57_
x_58_
x_59_
x_60_
x_61_
x_62_
x_63_
x_64_
x_65_
x_66_
x_67_
x_68_
x_69_
x_70_
x_71_
x_72_
x_73_
x_74_
x_75_
x_76_
x_77_
x_78_
x_79_
x_80_
x_81_
x_82_
x_83_
x_84_
x_85_
x_86_
x_87_
x_88_
x_89_
x_90_
x_91_
x_92_
x_93_
x_94_
x_95_
x_96_
x_97_
x_98_
x_99_
x_100_
y_1_
y_2_
y_3_
y_4_
y_5_
y_6_
y_7_
y_8_
y_9_
y_10_
y_11_
y_12_
y_13_
y_14_
y_15_
y_16_
y_17_
y_18_
y_19_
y_20_
y_21_
y_22_
y_23_
y_24_
y_25_
y_26_
y_27_
y_28_
y_29_
y_30_
y_31_
y_32_
y_33_
y_34_
y_35_
y_36_
y_37_
y_38_
y_39_
y_40_
y_41_
y_42_
y_43_
y_44_
y_45_
y_46_
y_47_
y_48_
y_49_
y_50_
y_51_
y_52_
y_53_
y_54_
y_55_
y_56_
y_57_
y_58_
y_59_
y_60_
y_61_
y_62_
y_63_
y_64_
y_65_
y_66_
y_67_
y_68_
y_69_
y_70_
y_71_
y_72_
y_73_
y_74_
y_75_
y_76_
y_77_
y_78_
y_79_
y_80_
y_81_
y_82_
y_83_
y_84_
y_85_
y_86_
y_87_
y_88_
y_89_
y_90_
y_91_
y_92_
y_93_
y_94_
y_95_
y_96_
y_97_
y_98_
y_99_
y_100_
End
