minimize
obj: 
subject to
c1: 34 x_1_ - 190 y_1_ + [ 1 x_1_ ^ 2 + 1 y_1_ ^ 2 ] <= 58524.31014193792
c2: 34 x_2_ - 190 y_2_ + [ 1 x_2_ ^ 2 + 1 y_2_ ^ 2 ] <= 79121.59339250338
c3: 34 x_3_ - 190 y_3_ + [ 1 x_3_ ^ 2 + 1 y_3_ ^ 2 ] <= 19689.48924573082
c4: 34 x_4_ - 190 y_4_ + [ 1 x_4_ ^ 2 + 1 y_4_ ^ 2 ] <= 33165.21857038759
c5: 34 x_5_ - 190 y_5_ + [ 1 x_5_ ^ 2 + 1 y_5_ ^ 2 ] <= 3740.950329423089
c6: 34 x_6_ - 190 y_6_ + [ 1 x_6_ ^ 2 + 1 y_6_ ^ 2 ] <= 56871.754109424364
c7: 34 x_7_ - 190 y_7_ + [ 1 x_7_ ^ 2 + 1 y_7_ ^ 2 ] <= 123790.78454560181
c8: 34 x_8_ - 190 y_8_ + [ 1 x_8_ ^ 2 + 1 y_8_ ^ 2 ] <= 7128.020388035675
c9: 34 x_9_ - 190 y_9_ + [ 1 x_9_ ^ 2 + 1 y_9_ ^ 2 ] <= 78587.80620144836
c10: 34 x_10_ - 190 y_10_ + [ 1 x_10_ ^ 2 + 1 y_10_ ^ 2 ] <= 21474.267982774723
c11: 34 x_11_ - 190 y_11_ + [ 1 x_11_ ^ 2 + 1 y_11_ ^ 2 ] <= 36706.358165030004
c12: 34 x_12_ - 190 y_12_ + [ 1 x_12_ ^ 2 + 1 y_12_ ^ 2 ] <= 67757.10358707912
c13: 34 x_13_ - 190 y_13_ + [ 1 x_13_ ^ 2 + 1 y_13_ ^ 2 ] <= 24692.967235201984
c14: 34 x_14_ - 190 y_14_ + [ 1 x_14_ ^ 2 + 1 y_14_ ^ 2 ] <= 65536.38729916634
c15: 34 x_15_ - 190 y_15_ + [ 1 x_15_ ^ 2 + 1 y_15_ ^ 2 ] <= 84444.31500873134
c16: 34 x_16_ - 190 y_16_ + [ 1 x_16_ ^ 2 + 1 y_16_ ^ 2 ] <= 55606.38672150133
c17: 34 x_17_ - 190 y_17_ + [ 1 x_17_ ^ 2 + 1 y_17_ ^ 2 ] <= 113802.80400705457
c18: 34 x_18_ - 190 y_18_ + [ 1 x_18_ ^ 2 + 1 y_18_ ^ 2 ] <= 124542.6767254764
c19: 34 x_19_ - 190 y_19_ + [ 1 x_19_ ^ 2 + 1 y_19_ ^ 2 ] <= 73151.86270890338
c20: 34 x_20_ - 190 y_20_ + [ 1 x_20_ ^ 2 + 1 y_20_ ^ 2 ] <= 41907.015617160854
c21: 34 x_21_ - 190 y_21_ + [ 1 x_21_ ^ 2 + 1 y_21_ ^ 2 ] <= 57680.60121914829
c22: 34 x_22_ - 190 y_22_ + [ 1 x_22_ ^ 2 + 1 y_22_ ^ 2 ] <= 74762.60070941313
c23: 34 x_23_ - 190 y_23_ + [ 1 x_23_ ^ 2 + 1 y_23_ ^ 2 ] <= 55799.523998050245
c24: 34 x_24_ - 190 y_24_ + [ 1 x_24_ ^ 2 + 1 y_24_ ^ 2 ] <= 78800.32402179565
c25: 34 x_25_ - 190 y_25_ + [ 1 x_25_ ^ 2 + 1 y_25_ ^ 2 ] <= 64497.01494410288
c26: 34 x_26_ - 190 y_26_ + [ 1 x_26_ ^ 2 + 1 y_26_ ^ 2 ] <= 153309.05582383912
c27: 34 x_27_ - 190 y_27_ + [ 1 x_27_ ^ 2 + 1 y_27_ ^ 2 ] <= 55071.149144836534
c28: 34 x_28_ - 190 y_28_ + [ 1 x_28_ ^ 2 + 1 y_28_ ^ 2 ] <= 194337.40652270292
c29: 34 x_29_ - 190 y_29_ + [ 1 x_29_ ^ 2 + 1 y_29_ ^ 2 ] <= 121514.94789621432
c30: 34 x_30_ - 190 y_30_ + [ 1 x_30_ ^ 2 + 1 y_30_ ^ 2 ] <= 166093.4390238563
c31: 34 x_31_ - 190 y_31_ + [ 1 x_31_ ^ 2 + 1 y_31_ ^ 2 ] <= 110464.74337519772
c32: 34 x_32_ - 190 y_32_ + [ 1 x_32_ ^ 2 + 1 y_32_ ^ 2 ] <= 77875.49032310753
c33: 34 x_33_ - 190 y_33_ + [ 1 x_33_ ^ 2 + 1 y_33_ ^ 2 ] <= 122464.26071910947
c34: 34 x_34_ - 190 y_34_ + [ 1 x_34_ ^ 2 + 1 y_34_ ^ 2 ] <= 87538.60553861204
c35: 34 x_35_ - 190 y_35_ + [ 1 x_35_ ^ 2 + 1 y_35_ ^ 2 ] <= 66323.55239069524
c36: 34 x_36_ - 190 y_36_ + [ 1 x_36_ ^ 2 + 1 y_36_ ^ 2 ] <= 35951.319442484615
c37: 34 x_37_ - 190 y_37_ + [ 1 x_37_ ^ 2 + 1 y_37_ ^ 2 ] <= 12682.624707951476
c38: 34 x_38_ - 190 y_38_ + [ 1 x_38_ ^ 2 + 1 y_38_ ^ 2 ] <= 202489.4388924151
c39: 34 x_39_ - 190 y_39_ + [ 1 x_39_ ^ 2 + 1 y_39_ ^ 2 ] <= 7275.249999999996
c40: 34 x_40_ - 190 y_40_ + [ 1 x_40_ ^ 2 + 1 y_40_ ^ 2 ] <= 94270.4963736835
c41: 34 x_41_ - 190 y_41_ + [ 1 x_41_ ^ 2 + 1 y_41_ ^ 2 ] <= 30212.446418978892
c42: 34 x_42_ - 190 y_42_ + [ 1 x_42_ ^ 2 + 1 y_42_ ^ 2 ] <= 12097.999999999996
c43: 34 x_43_ - 190 y_43_ + [ 1 x_43_ ^ 2 + 1 y_43_ ^ 2 ] <= 35476.001401038186
c44: 34 x_44_ - 190 y_44_ + [ 1 x_44_ ^ 2 + 1 y_44_ ^ 2 ] <= 170241.17805639294
c45: 34 x_45_ - 190 y_45_ + [ 1 x_45_ ^ 2 + 1 y_45_ ^ 2 ] <= 82697.8175936674
c46: 34 x_46_ - 190 y_46_ + [ 1 x_46_ ^ 2 + 1 y_46_ ^ 2 ] <= 162502.16660212338
c47: 34 x_47_ - 190 y_47_ + [ 1 x_47_ ^ 2 + 1 y_47_ ^ 2 ] <= 120516.1055938715
c48: 34 x_48_ - 190 y_48_ + [ 1 x_48_ ^ 2 + 1 y_48_ ^ 2 ] <= 95217.4028702557
c49: 34 x_49_ - 190 y_49_ + [ 1 x_49_ ^ 2 + 1 y_49_ ^ 2 ] <= 57820.93002790715
c50: 34 x_50_ - 190 y_50_ + [ 1 x_50_ ^ 2 + 1 y_50_ ^ 2 ] <= 59309.396363525215
c51: 34 x_51_ - 190 y_51_ + [ 1 x_51_ ^ 2 + 1 y_51_ ^ 2 ] <= -7559.63
c52: 34 x_52_ - 190 y_52_ + [ 1 x_52_ ^ 2 + 1 y_52_ ^ 2 ] <= 55673.3721683746
c53: 34 x_53_ - 190 y_53_ + [ 1 x_53_ ^ 2 + 1 y_53_ ^ 2 ] <= 53829.63698475319
c54: 34 x_54_ - 190 y_54_ + [ 1 x_54_ ^ 2 + 1 y_54_ ^ 2 ] <= 56303.18725623707
c55: 34 x_55_ - 190 y_55_ + [ 1 x_55_ ^ 2 + 1 y_55_ ^ 2 ] <= 11491.15527114577
c56: 34 x_56_ - 190 y_56_ + [ 1 x_56_ ^ 2 + 1 y_56_ ^ 2 ] <= 127320.32313984915
c57: 34 x_57_ - 190 y_57_ + [ 1 x_57_ ^ 2 + 1 y_57_ ^ 2 ] <= 107953.21968543687
c58: 34 x_58_ - 190 y_58_ + [ 1 x_58_ ^ 2 + 1 y_58_ ^ 2 ] <= 32848.20987059543
c59: 34 x_59_ - 190 y_59_ + [ 1 x_59_ ^ 2 + 1 y_59_ ^ 2 ] <= 38708.22096925296
c60: 34 x_60_ - 190 y_60_ + [ 1 x_60_ ^ 2 + 1 y_60_ ^ 2 ] <= 82891.62771069875
c61: 34 x_61_ - 190 y_61_ + [ 1 x_61_ ^ 2 + 1 y_61_ ^ 2 ] <= 66527.42484902182
c62: 34 x_62_ - 190 y_62_ + [ 1 x_62_ ^ 2 + 1 y_62_ ^ 2 ] <= 48171.12275994046
c63: 34 x_64_ - 190 y_64_ + [ 1 x_64_ ^ 2 + 1 y_64_ ^ 2 ] <= 81239.3706679451
c64: 34 x_65_ - 190 y_65_ + [ 1 x_65_ ^ 2 + 1 y_65_ ^ 2 ] <= 67944.61828084366
c65: 34 x_66_ - 190 y_66_ + [ 1 x_66_ ^ 2 + 1 y_66_ ^ 2 ] <= 74211.53268096018
c66: 34 x_67_ - 190 y_67_ + [ 1 x_67_ ^ 2 + 1 y_67_ ^ 2 ] <= 46493.53954458955
c67: 34 x_68_ - 190 y_68_ + [ 1 x_68_ ^ 2 + 1 y_68_ ^ 2 ] <= 162937.7501171117
c68: 34 x_69_ - 190 y_69_ + [ 1 x_69_ ^ 2 + 1 y_69_ ^ 2 ] <= 60377.23835259833
c69: 34 x_70_ - 190 y_70_ + [ 1 x_70_ ^ 2 + 1 y_70_ ^ 2 ] <= 90421.59498604236
c70: 34 x_71_ - 190 y_71_ + [ 1 x_71_ ^ 2 + 1 y_71_ ^ 2 ] <= 174966.57021226318
c71: 34 x_72_ - 190 y_72_ + [ 1 x_72_ ^ 2 + 1 y_72_ ^ 2 ] <= 157445.36745856656
c72: 34 x_73_ - 190 y_73_ + [ 1 x_73_ ^ 2 + 1 y_73_ ^ 2 ] <= -1246.119999999999
c73: 34 x_74_ - 190 y_74_ + [ 1 x_74_ ^ 2 + 1 y_74_ ^ 2 ] <= 59555.86198986009
c74: 34 x_75_ - 190 y_75_ + [ 1 x_75_ ^ 2 + 1 y_75_ ^ 2 ] <= 46904.40988715631
c75: 34 x_76_ - 190 y_76_ + [ 1 x_76_ ^ 2 + 1 y_76_ ^ 2 ] <= 94548.11799318473
c76: 34 x_77_ - 190 y_77_ + [ 1 x_77_ ^ 2 + 1 y_77_ ^ 2 ] <= 125732.7973476788
c77: 34 x_78_ - 190 y_78_ + [ 1 x_78_ ^ 2 + 1 y_78_ ^ 2 ] <= 69209.83724437887
c78: 34 x_79_ - 190 y_79_ + [ 1 x_79_ ^ 2 + 1 y_79_ ^ 2 ] <= 73919.87567919464
c79: 34 x_80_ - 190 y_80_ + [ 1 x_80_ ^ 2 + 1 y_80_ ^ 2 ] <= 113440.92459193603
c80: 34 x_81_ - 190 y_81_ + [ 1 x_81_ ^ 2 + 1 y_81_ ^ 2 ] <= 96632.86050208817
c81: 34 x_82_ - 190 y_82_ + [ 1 x_82_ ^ 2 + 1 y_82_ ^ 2 ] <= 45381.041019432974
c82: 34 x_83_ - 190 y_83_ + [ 1 x_83_ ^ 2 + 1 y_83_ ^ 2 ] <= 137271.2599788329
c83: 34 x_84_ - 190 y_84_ + [ 1 x_84_ ^ 2 + 1 y_84_ ^ 2 ] <= 70770.68303586781
c84: 34 x_85_ - 190 y_85_ + [ 1 x_85_ ^ 2 + 1 y_85_ ^ 2 ] <= 18846.819999999992
c85: 34 x_86_ - 190 y_86_ + [ 1 x_86_ ^ 2 + 1 y_86_ ^ 2 ] <= 99574.71220416269
c86: 34 x_87_ - 190 y_87_ + [ 1 x_87_ ^ 2 + 1 y_87_ ^ 2 ] <= 191800.25650079804
c87: 34 x_88_ - 190 y_88_ + [ 1 x_88_ ^ 2 + 1 y_88_ ^ 2 ] <= 106972.82985557528
c88: 34 x_89_ - 190 y_89_ + [ 1 x_89_ ^ 2 + 1 y_89_ ^ 2 ] <= 69869.98022421748
c89: 34 x_90_ - 190 y_90_ + [ 1 x_90_ ^ 2 + 1 y_90_ ^ 2 ] <= 132347.2663092463
c90: 34 x_91_ - 190 y_91_ + [ 1 x_91_ ^ 2 + 1 y_91_ ^ 2 ] <= 63887.313960293075
c91: 34 x_92_ - 190 y_92_ + [ 1 x_92_ ^ 2 + 1 y_92_ ^ 2 ] <= 33001.63275393829
c92: 34 x_93_ - 190 y_93_ + [ 1 x_93_ ^ 2 + 1 y_93_ ^ 2 ] <= 44126.74121262944
c93: 34 x_94_ - 190 y_94_ + [ 1 x_94_ ^ 2 + 1 y_94_ ^ 2 ] <= 122809.5580138877
c94: 34 x_95_ - 190 y_95_ + [ 1 x_95_ ^ 2 + 1 y_95_ ^ 2 ] <= 43111.750163628145
c95: 34 x_96_ - 190 y_96_ + [ 1 x_96_ ^ 2 + 1 y_96_ ^ 2 ] <= 53189.0028024846
c96: 34 x_97_ - 190 y_97_ + [ 1 x_97_ ^ 2 + 1 y_97_ ^ 2 ] <= 118627.44142911168
c97: 34 x_98_ - 190 y_98_ + [ 1 x_98_ ^ 2 + 1 y_98_ ^ 2 ] <= 53105.64219085205
c98: 34 x_99_ - 190 y_99_ + [ 1 x_99_ ^ 2 + 1 y_99_ ^ 2 ] <= 101683.50865744782
c99: 34 x_100_ - 190 y_100_ + [ 1 x_100_ ^ 2 + 1 y_100_ ^ 2 ] <= 238853.3382150729
c100: -82 x_1_ - 54 y_1_ + [ 1 x_1_ ^ 2 + 1 y_1_ ^ 2 ] <= 120285.5626800662
c101: -82 x_2_ - 54 y_2_ + [ 1 x_2_ ^ 2 + 1 y_2_ ^ 2 ] <= 147515.85653738034
c102: -82 x_3_ - 54 y_3_ + [ 1 x_3_ ^ 2 + 1 y_3_ ^ 2 ] <= 65255.268690937024
c103: -82 x_4_ - 54 y_4_ + [ 1 x_4_ ^ 2 + 1 y_4_ ^ 2 ] <= 85162.34606015644
c104: -82 x_5_ - 54 y_5_ + [ 1 x_5_ ^ 2 + 1 y_5_ ^ 2 ] <= 39238.49939659319
c105: -82 x_6_ - 54 y_6_ + [ 1 x_6_ ^ 2 + 1 y_6_ ^ 2 ] <= 71443.74898328604
c106: -82 x_7_ - 54 y_7_ + [ 1 x_7_ ^ 2 + 1 y_7_ ^ 2 ] <= 100057.34584013556
c107: -82 x_8_ - 54 y_8_ + [ 1 x_8_ ^ 2 + 1 y_8_ ^ 2 ] <= 45134.851870357066
c108: -82 x_9_ - 54 y_9_ + [ 1 x_9_ ^ 2 + 1 y_9_ ^ 2 ] <= 113565.61528328246
c109: -82 x_10_ - 54 y_10_ + [ 1 x_10_ ^ 2 + 1 y_10_ ^ 2 ] <= 45785.7916966063
c110: -82 x_11_ - 54 y_11_ + [ 1 x_11_ ^ 2 + 1 y_11_ ^ 2 ] <= 90215.84199466543
c111: -82 x_12_ - 54 y_12_ + [ 1 x_12_ ^ 2 + 1 y_12_ ^ 2 ] <= 132059.5673668267
c112: -82 x_13_ - 54 y_13_ + [ 1 x_13_ ^ 2 + 1 y_13_ ^ 2 ] <= 72792.72859320865
c113: -82 x_14_ - 54 y_14_ + [ 1 x_14_ ^ 2 + 1 y_14_ ^ 2 ] <= 129656.36767682887
c114: -82 x_15_ - 54 y_15_ + [ 1 x_15_ ^ 2 + 1 y_15_ ^ 2 ] <= 154422.77041540953
c115: -82 x_16_ - 54 y_16_ + [ 1 x_16_ ^ 2 + 1 y_16_ ^ 2 ] <= 116350.30576817987
c116: -82 x_17_ - 54 y_17_ + [ 1 x_17_ ^ 2 + 1 y_17_ ^ 2 ] <= 135555.4582917274
c117: -82 x_18_ - 54 y_18_ + [ 1 x_18_ ^ 2 + 1 y_18_ ^ 2 ] <= 181305.69723938216
c118: -82 x_19_ - 54 y_19_ + [ 1 x_19_ ^ 2 + 1 y_19_ ^ 2 ] <= 69116.00245165564
c119: -82 x_20_ - 54 y_20_ + [ 1 x_20_ ^ 2 + 1 y_20_ ^ 2 ] <= 97535.75272527385
c120: -82 x_21_ - 54 y_21_ + [ 1 x_21_ ^ 2 + 1 y_21_ ^ 2 ] <= 40721.5143708285
c121: -82 x_22_ - 54 y_22_ + [ 1 x_22_ ^ 2 + 1 y_22_ ^ 2 ] <= 141823.63218384056
c122: -82 x_23_ - 54 y_23_ + [ 1 x_23_ ^ 2 + 1 y_23_ ^ 2 ] <= 116611.47808147158
c123: -82 x_24_ - 54 y_24_ + [ 1 x_24_ ^ 2 + 1 y_24_ ^ 2 ] <= 147097.46229548682
c124: -82 x_25_ - 54 y_25_ + [ 1 x_25_ ^ 2 + 1 y_25_ ^ 2 ] <= 98055.09881852781
c125: -82 x_26_ - 54 y_26_ + [ 1 x_26_ ^ 2 + 1 y_26_ ^ 2 ] <= 186543.1300043507
c126: -82 x_27_ - 54 y_27_ + [ 1 x_27_ ^ 2 + 1 y_27_ ^ 2 ] <= 115625.99337853439
c127: -82 x_28_ - 54 y_28_ + [ 1 x_28_ ^ 2 + 1 y_28_ ^ 2 ] <= 136744.71716557612
c128: -82 x_29_ - 54 y_29_ + [ 1 x_29_ ^ 2 + 1 y_29_ ^ 2 ] <= 153823.94150162087
c129: -82 x_30_ - 54 y_30_ + [ 1 x_30_ ^ 2 + 1 y_30_ ^ 2 ] <= 112207.27809361834
c130: -82 x_31_ - 54 y_31_ + [ 1 x_31_ ^ 2 + 1 y_31_ ^ 2 ] <= 187609.303166305
c131: -82 x_32_ - 54 y_32_ + [ 1 x_32_ ^ 2 + 1 y_32_ ^ 2 ] <= 145892.04376683768
c132: -82 x_33_ - 54 y_33_ + [ 1 x_33_ ^ 2 + 1 y_33_ ^ 2 ] <= 202648.75281494533
c133: -82 x_34_ - 54 y_34_ + [ 1 x_34_ ^ 2 + 1 y_34_ ^ 2 ] <= 158417.37953829186
c134: -82 x_35_ - 54 y_35_ + [ 1 x_35_ ^ 2 + 1 y_35_ ^ 2 ] <= 130701.29018840348
c135: -82 x_36_ - 54 y_36_ + [ 1 x_36_ ^ 2 + 1 y_36_ ^ 2 ] <= 89143.35985154795
c136: -82 x_37_ - 54 y_37_ + [ 1 x_37_ ^ 2 + 1 y_37_ ^ 2 ] <= 54297.78742977745
c137: -82 x_38_ - 54 y_38_ + [ 1 x_38_ ^ 2 + 1 y_38_ ^ 2 ] <= 240299.92978067385
c138: -82 x_39_ - 54 y_39_ + [ 1 x_39_ ^ 2 + 1 y_39_ ^ 2 ] <= 45384.98454963358
c139: -82 x_40_ - 54 y_40_ + [ 1 x_40_ ^ 2 + 1 y_40_ ^ 2 ] <= 100639.6050886257
c140: -82 x_41_ - 54 y_41_ + [ 1 x_41_ ^ 2 + 1 y_41_ ^ 2 ] <= 80899.56834926696
c141: -82 x_42_ - 54 y_42_ + [ 1 x_42_ ^ 2 + 1 y_42_ ^ 2 ] <= 53356.71674845644
c142: -82 x_43_ - 54 y_43_ + [ 1 x_43_ ^ 2 + 1 y_43_ ^ 2 ] <= 12428.919999999996
c143: -82 x_44_ - 54 y_44_ + [ 1 x_44_ ^ 2 + 1 y_44_ ^ 2 ] <= 147091.94684274477
c144: -82 x_45_ - 54 y_45_ + [ 1 x_45_ ^ 2 + 1 y_45_ ^ 2 ] <= 152161.5429625883
c145: -82 x_46_ - 54 y_46_ + [ 1 x_46_ ^ 2 + 1 y_46_ ^ 2 ] <= 181632.44013883662
c146: -82 x_47_ - 54 y_47_ + [ 1 x_47_ ^ 2 + 1 y_47_ ^ 2 ] <= 200216.76473634204
c147: -82 x_48_ - 54 y_48_ + [ 1 x_48_ ^ 2 + 1 y_48_ ^ 2 ] <= 168270.15113473256
c148: -82 x_49_ - 54 y_49_ + [ 1 x_49_ ^ 2 + 1 y_49_ ^ 2 ] <= 82329.9682124097
c149: -82 x_50_ - 54 y_50_ + [ 1 x_50_ ^ 2 + 1 y_50_ ^ 2 ] <= 121340.61452518486
c150: -82 x_51_ - 54 y_51_ + [ 1 x_51_ ^ 2 + 1 y_51_ ^ 2 ] <= 14936.622833824757
c151: -82 x_52_ - 54 y_52_ + [ 1 x_52_ ^ 2 + 1 y_52_ ^ 2 ] <= 116440.89913049473
c152: -82 x_53_ - 54 y_53_ + [ 1 x_53_ ^ 2 + 1 y_53_ ^ 2 ] <= 113942.86326315081
c153: -82 x_54_ - 54 y_54_ + [ 1 x_54_ ^ 2 + 1 y_54_ ^ 2 ] <= 117292.08987703909
c154: -82 x_55_ - 54 y_55_ + [ 1 x_55_ ^ 2 + 1 y_55_ ^ 2 ] <= 52374.692578926864
c155: -82 x_56_ - 54 y_56_ + [ 1 x_56_ ^ 2 + 1 y_56_ ^ 2 ] <= 208695.49591885298
c156: -82 x_57_ - 54 y_57_ + [ 1 x_57_ ^ 2 + 1 y_57_ ^ 2 ] <= 101736.7606658177
c157: -82 x_58_ - 54 y_58_ + [ 1 x_58_ ^ 2 + 1 y_58_ ^ 2 ] <= 84706.92490808704
c158: -82 x_59_ - 54 y_59_ + [ 1 x_59_ ^ 2 + 1 y_59_ ^ 2 ] <= 93046.96602673073
c159: -82 x_60_ - 54 y_60_ + [ 1 x_60_ ^ 2 + 1 y_60_ ^ 2 ] <= 61347.221274307325
c160: -82 x_61_ - 54 y_61_ + [ 1 x_61_ ^ 2 + 1 y_61_ ^ 2 ] <= 130971.7017875542
c161: -82 x_62_ - 54 y_62_ + [ 1 x_62_ ^ 2 + 1 y_62_ ^ 2 ] <= 106214.24941997894
c162: -82 x_63_ - 54 y_63_ + [ 1 x_63_ ^ 2 + 1 y_63_ ^ 2 ] <= 5657.880000000001
c163: -82 x_64_ - 54 y_64_ + [ 1 x_64_ ^ 2 + 1 y_64_ ^ 2 ] <= 150269.50547309025
c164: -82 x_65_ - 54 y_65_ + [ 1 x_65_ ^ 2 + 1 y_65_ ^ 2 ] <= 49029.36183779577
c165: -82 x_66_ - 54 y_66_ + [ 1 x_66_ ^ 2 + 1 y_66_ ^ 2 ] <= 141101.57808021383
c166: -82 x_67_ - 54 y_67_ + [ 1 x_67_ ^ 2 + 1 y_67_ ^ 2 ] <= 89030.09530260134
c167: -82 x_68_ - 54 y_68_ + [ 1 x_68_ ^ 2 + 1 y_68_ ^ 2 ] <= 252467.16359924458
c168: -82 x_69_ - 54 y_69_ + [ 1 x_69_ ^ 2 + 1 y_69_ ^ 2 ] <= 122773.18600100488
c169: -82 x_70_ - 54 y_70_ + [ 1 x_70_ ^ 2 + 1 y_70_ ^ 2 ] <= 162126.35124226584
c170: -82 x_71_ - 54 y_71_ + [ 1 x_71_ ^ 2 + 1 y_71_ ^ 2 ] <= 267055.3362179652
c171: -82 x_72_ - 54 y_72_ + [ 1 x_72_ ^ 2 + 1 y_72_ ^ 2 ] <= 187662.46445015946
c172: -82 x_74_ - 54 y_74_ + [ 1 x_74_ ^ 2 + 1 y_74_ ^ 2 ] <= 91532.38493177661
c173: -82 x_75_ - 54 y_75_ + [ 1 x_75_ ^ 2 + 1 y_75_ ^ 2 ] <= 104470.34509491462
c174: -82 x_76_ - 54 y_76_ + [ 1 x_76_ ^ 2 + 1 y_76_ ^ 2 ] <= 71098.54305830781
c175: -82 x_77_ - 54 y_77_ + [ 1 x_77_ ^ 2 + 1 y_77_ ^ 2 ] <= 193756.78237787177
c176: -82 x_78_ - 54 y_78_ + [ 1 x_78_ ^ 2 + 1 y_78_ ^ 2 ] <= 102754.38705156738
c177: -82 x_79_ - 54 y_79_ + [ 1 x_79_ ^ 2 + 1 y_79_ ^ 2 ] <= 37064.31426387253
c178: -82 x_80_ - 54 y_80_ + [ 1 x_80_ ^ 2 + 1 y_80_ ^ 2 ] <= 191353.1573401306
c179: -82 x_81_ - 54 y_81_ + [ 1 x_81_ ^ 2 + 1 y_81_ ^ 2 ] <= 170077.52244061363
c180: -82 x_82_ - 54 y_82_ + [ 1 x_82_ ^ 2 + 1 y_82_ ^ 2 ] <= 102365.92031916698
c181: -82 x_83_ - 54 y_83_ + [ 1 x_83_ ^ 2 + 1 y_83_ ^ 2 ] <= 169700.27694312524
c182: -82 x_84_ - 54 y_84_ + [ 1 x_84_ ^ 2 + 1 y_84_ ^ 2 ] <= 96808.43800710245
c183: -82 x_85_ - 54 y_85_ + [ 1 x_85_ ^ 2 + 1 y_85_ ^ 2 ] <= 63964.88493020965
c184: -82 x_86_ - 54 y_86_ + [ 1 x_86_ ^ 2 + 1 y_86_ ^ 2 ] <= 173825.6294236628
c185: -82 x_87_ - 54 y_87_ + [ 1 x_87_ ^ 2 + 1 y_87_ ^ 2 ] <= 287035.49550714536
c186: -82 x_88_ - 54 y_88_ + [ 1 x_88_ ^ 2 + 1 y_88_ ^ 2 ] <= 127968.79621148734
c187: -82 x_89_ - 54 y_89_ + [ 1 x_89_ ^ 2 + 1 y_89_ ^ 2 ] <= 34291.02045388883
c188: -82 x_90_ - 54 y_90_ + [ 1 x_90_ ^ 2 + 1 y_90_ ^ 2 ] <= 175386.8388423708
c189: -82 x_91_ - 54 y_91_ + [ 1 x_91_ ^ 2 + 1 y_91_ ^ 2 ] <= 127462.87352774848
c190: -82 x_92_ - 54 y_92_ + [ 1 x_92_ ^ 2 + 1 y_92_ ^ 2 ] <= 84927.40008303233
c191: -82 x_93_ - 54 y_93_ + [ 1 x_93_ ^ 2 + 1 y_93_ ^ 2 ] <= 100627.09275756108
c192: -82 x_94_ - 54 y_94_ + [ 1 x_94_ ^ 2 + 1 y_94_ ^ 2 ] <= 203079.43220143023
c193: -82 x_95_ - 54 y_95_ + [ 1 x_95_ ^ 2 + 1 y_95_ ^ 2 ] <= 25157.474625773735
c194: -82 x_96_ - 54 y_96_ + [ 1 x_96_ ^ 2 + 1 y_96_ ^ 2 ] <= 113072.6508037606
c195: -82 x_97_ - 54 y_97_ + [ 1 x_97_ ^ 2 + 1 y_97_ ^ 2 ] <= 149628.8551574606
c196: -82 x_98_ - 54 y_98_ + [ 1 x_98_ ^ 2 + 1 y_98_ ^ 2 ] <= 23195.71372288893
c197: -82 x_99_ - 54 y_99_ + [ 1 x_99_ ^ 2 + 1 y_99_ ^ 2 ] <= 176505.68790974066
c198: -82 x_100_ - 54 y_100_ + [ 1 x_100_ ^ 2 + 1 y_100_ ^ 2 ] <= 319938.19799238164
c199: 114 x_1_ - 30 y_1_ + [ 1 x_1_ ^ 2 + 1 y_1_ ^ 2 ] <= 60001.86465512908
c200: 114 x_2_ - 30 y_2_ + [ 1 x_2_ ^ 2 + 1 y_2_ ^ 2 ] <= 126311.96347087539
c201: 114 x_3_ - 30 y_3_ + [ 1 x_3_ ^ 2 + 1 y_3_ ^ 2 ] <= 20610.14878122579
c202: 114 x_4_ - 30 y_4_ + [ 1 x_4_ ^ 2 + 1 y_4_ ^ 2 ] <= 35568.26529396783
c203: 114 x_5_ - 30 y_5_ + [ 1 x_5_ ^ 2 + 1 y_5_ ^ 2 ] <= 52804.62471793176
c204: 114 x_6_ - 30 y_6_ + [ 1 x_6_ ^ 2 + 1 y_6_ ^ 2 ] <= 32404.502977323136
c205: 114 x_7_ - 30 y_7_ + [ 1 x_7_ ^ 2 + 1 y_7_ ^ 2 ] <= 109813.7719349899
c206: 114 x_8_ - 30 y_8_ + [ 1 x_8_ ^ 2 + 1 y_8_ ^ 2 ] <= 35440.802508300316
c207: 114 x_9_ - 30 y_9_ + [ 1 x_9_ ^ 2 + 1 y_9_ ^ 2 ] <= 79846.2091640025
c208: 114 x_10_ - 30 y_10_ + [ 1 x_10_ ^ 2 + 1 y_10_ ^ 2 ] <= 64899.545296857075
c209: 114 x_11_ - 30 y_11_ + [ 1 x_11_ ^ 2 + 1 y_11_ ^ 2 ] <= 36290.40312119908
c210: 114 x_12_ - 30 y_12_ + [ 1 x_12_ ^ 2 + 1 y_12_ ^ 2 ] <= 65434.038064479086
c211: 114 x_13_ - 30 y_13_ + [ 1 x_13_ ^ 2 + 1 y_13_ ^ 2 ] <= 16430.980782943647
c212: 114 x_14_ - 30 y_14_ + [ 1 x_14_ ^ 2 + 1 y_14_ ^ 2 ] <= 71928.28912494202
c213: 114 x_15_ - 30 y_15_ + [ 1 x_15_ ^ 2 + 1 y_15_ ^ 2 ] <= 69412.18884192509
c214: 114 x_16_ - 30 y_16_ + [ 1 x_16_ ^ 2 + 1 y_16_ ^ 2 ] <= 1524.489999999998
c215: 114 x_17_ - 30 y_17_ + [ 1 x_17_ ^ 2 + 1 y_17_ ^ 2 ] <= 109265.22262766976
c216: 114 x_18_ - 30 y_18_ + [ 1 x_18_ ^ 2 + 1 y_18_ ^ 2 ] <= 119552.16887948055
c217: 114 x_19_ - 30 y_19_ + [ 1 x_19_ ^ 2 + 1 y_19_ ^ 2 ] <= 99706.33039301331
c218: 114 x_20_ - 30 y_20_ + [ 1 x_20_ ^ 2 + 1 y_20_ ^ 2 ] <= 92690.08634279233
c219: 114 x_21_ - 30 y_21_ + [ 1 x_21_ ^ 2 + 1 y_21_ ^ 2 ] <= 82395.54538282371
c220: 114 x_22_ - 30 y_22_ + [ 1 x_22_ ^ 2 + 1 y_22_ ^ 2 ] <= 98061.45923463466
c221: 114 x_23_ - 30 y_23_ + [ 1 x_23_ ^ 2 + 1 y_23_ ^ 2 ] <= 12312.521902707145
c222: 114 x_24_ - 30 y_24_ + [ 1 x_24_ ^ 2 + 1 y_24_ ^ 2 ] <= 75896.1854344405
c223: 114 x_25_ - 30 y_25_ + [ 1 x_25_ ^ 2 + 1 y_25_ ^ 2 ] <= 48672.94618257026
c224: 114 x_26_ - 30 y_26_ + [ 1 x_26_ ^ 2 + 1 y_26_ ^ 2 ] <= 147188.02757613355
c225: 114 x_27_ - 30 y_27_ + [ 1 x_27_ ^ 2 + 1 y_27_ ^ 2 ] <= 53469.73565782213
c226: 114 x_28_ - 30 y_28_ + [ 1 x_28_ ^ 2 + 1 y_28_ ^ 2 ] <= 150783.77694680067
c227: 114 x_29_ - 30 y_29_ + [ 1 x_29_ ^ 2 + 1 y_29_ ^ 2 ] <= 116650.22733283344
c228: 114 x_30_ - 30 y_30_ + [ 1 x_30_ ^ 2 + 1 y_30_ ^ 2 ] <= 142902.1331322505
c229: 114 x_31_ - 30 y_31_ + [ 1 x_31_ ^ 2 + 1 y_31_ ^ 2 ] <= 91663.98109307606
c230: 114 x_32_ - 30 y_32_ + [ 1 x_32_ ^ 2 + 1 y_32_ ^ 2 ] <= 75018.56318224054
c231: 114 x_33_ - 30 y_33_ + [ 1 x_33_ ^ 2 + 1 y_33_ ^ 2 ] <= 183197.2337687705
c232: 114 x_34_ - 30 y_34_ + [ 1 x_34_ ^ 2 + 1 y_34_ ^ 2 ] <= 28631.81482717719
c233: 114 x_35_ - 30 y_35_ + [ 1 x_35_ ^ 2 + 1 y_35_ ^ 2 ] <= 142639.8306891605
c234: 114 x_36_ - 30 y_36_ + [ 1 x_36_ ^ 2 + 1 y_36_ ^ 2 ] <= 165786.5525259666
c235: 114 x_37_ - 30 y_37_ + [ 1 x_37_ ^ 2 + 1 y_37_ ^ 2 ] <= 51436.58967276738
c236: 114 x_38_ - 30 y_38_ + [ 1 x_38_ ^ 2 + 1 y_38_ ^ 2 ] <= 23432.399999999998
c237: 114 x_39_ - 30 y_39_ + [ 1 x_39_ ^ 2 + 1 y_39_ ^ 2 ] <= 42672.239612385536
c238: 114 x_40_ - 30 y_40_ + [ 1 x_40_ ^ 2 + 1 y_40_ ^ 2 ] <= 28819.145113675837
c239: 114 x_41_ - 30 y_41_ + [ 1 x_41_ ^ 2 + 1 y_41_ ^ 2 ] <= 36453.78284543267
c240: 114 x_42_ - 30 y_42_ + [ 1 x_42_ ^ 2 + 1 y_42_ ^ 2 ] <= 160988.5405265552
c241: 114 x_43_ - 30 y_43_ + [ 1 x_43_ ^ 2 + 1 y_43_ ^ 2 ] <= 111692.27720235057
c242: 114 x_44_ - 30 y_44_ + [ 1 x_44_ ^ 2 + 1 y_44_ ^ 2 ] <= 69443.75816661825
c243: 114 x_45_ - 30 y_45_ + [ 1 x_45_ ^ 2 + 1 y_45_ ^ 2 ] <= 83445.29352118642
c244: 114 x_46_ - 30 y_46_ + [ 1 x_46_ ^ 2 + 1 y_46_ ^ 2 ] <= 97335.19255749535
c245: 114 x_47_ - 30 y_47_ + [ 1 x_47_ ^ 2 + 1 y_47_ ^ 2 ] <= 127605.34568776804
c246: 114 x_48_ - 30 y_48_ + [ 1 x_48_ ^ 2 + 1 y_48_ ^ 2 ] <= 24441.49340989447
c247: 114 x_49_ - 30 y_49_ + [ 1 x_49_ ^ 2 + 1 y_49_ ^ 2 ] <= 43086.716220604096
c248: 114 x_50_ - 30 y_50_ + [ 1 x_50_ ^ 2 + 1 y_50_ ^ 2 ] <= 57459.56692078639
c249: 114 x_51_ - 30 y_51_ + [ 1 x_51_ ^ 2 + 1 y_51_ ^ 2 ] <= 76960.40130182741
c250: 114 x_52_ - 30 y_52_ + [ 1 x_52_ ^ 2 + 1 y_52_ ^ 2 ] <= 54036.17250128314
c251: 114 x_53_ - 30 y_53_ + [ 1 x_53_ ^ 2 + 1 y_53_ ^ 2 ] <= 108795.70752937619
c252: 114 x_54_ - 30 y_54_ + [ 1 x_54_ ^ 2 + 1 y_54_ ^ 2 ] <= 54628.73872909464
c253: 114 x_55_ - 30 y_55_ + [ 1 x_55_ ^ 2 + 1 y_55_ ^ 2 ] <= 67928.6933649389
c254: 114 x_56_ - 30 y_56_ + [ 1 x_56_ ^ 2 + 1 y_56_ ^ 2 ] <= 42068.52216691905
c255: 114 x_57_ - 30 y_57_ + [ 1 x_57_ ^ 2 + 1 y_57_ ^ 2 ] <= 138271.6749822004
c256: 114 x_58_ - 30 y_58_ + [ 1 x_58_ ^ 2 + 1 y_58_ ^ 2 ] <= 91027.77595878417
c257: 114 x_59_ - 30 y_59_ + [ 1 x_59_ ^ 2 + 1 y_59_ ^ 2 ] <= 188485.19463310143
c258: 114 x_60_ - 30 y_60_ + [ 1 x_60_ ^ 2 + 1 y_60_ ^ 2 ] <= 82268.04963098811
c259: 114 x_61_ - 30 y_61_ + [ 1 x_61_ ^ 2 + 1 y_61_ ^ 2 ] <= 64271.57204667
c260: 114 x_62_ - 30 y_62_ + [ 1 x_62_ ^ 2 + 1 y_62_ ^ 2 ] <= 180428.9646229656
c261: 114 x_63_ - 30 y_63_ + [ 1 x_63_ ^ 2 + 1 y_63_ ^ 2 ] <= 102472.86050208817
c262: 114 x_64_ - 30 y_64_ + [ 1 x_64_ ^ 2 + 1 y_64_ ^ 2 ] <= 138089.6624600326
c263: 114 x_65_ - 30 y_65_ + [ 1 x_65_ ^ 2 + 1 y_65_ ^ 2 ] <= 84563.37713639729
c264: 114 x_66_ - 30 y_66_ + [ 1 x_66_ ^ 2 + 1 y_66_ ^ 2 ] <= 135498.82111227498
c265: 114 x_67_ - 30 y_67_ + [ 1 x_67_ ^ 2 + 1 y_67_ ^ 2 ] <= 45421.28007480048
c266: 114 x_68_ - 30 y_68_ + [ 1 x_68_ ^ 2 + 1 y_68_ ^ 2 ] <= 102091.34472040249
c267: 114 x_69_ - 30 y_69_ + [ 1 x_69_ ^ 2 + 1 y_69_ ^ 2 ] <= 52959.52225807343
c268: 114 x_70_ - 30 y_70_ + [ 1 x_70_ ^ 2 + 1 y_70_ ^ 2 ] <= 96898.5125821693
c269: 114 x_71_ - 30 y_71_ + [ 1 x_71_ ^ 2 + 1 y_71_ ^ 2 ] <= 173569.53254892072
c270: 114 x_72_ - 30 y_72_ + [ 1 x_72_ ^ 2 + 1 y_72_ ^ 2 ] <= 151170.29356209608
c271: 114 x_73_ - 30 y_73_ + [ 1 x_73_ ^ 2 + 1 y_73_ ^ 2 ] <= 169013.52244061363
c272: 114 x_74_ - 30 y_74_ + [ 1 x_74_ ^ 2 + 1 y_74_ ^ 2 ] <= 117942.13146366051
c273: 114 x_75_ - 30 y_75_ + [ 1 x_75_ ^ 2 + 1 y_75_ ^ 2 ] <= 90251.45109061325
c274: 114 x_76_ - 30 y_76_ + [ 1 x_76_ ^ 2 + 1 y_76_ ^ 2 ] <= 99087.45759690071
c275: 114 x_77_ - 30 y_77_ + [ 1 x_77_ ^ 2 + 1 y_77_ ^ 2 ] <= 102988.07168862666
c276: 114 x_78_ - 30 y_78_ + [ 1 x_78_ ^ 2 + 1 y_78_ ^ 2 ] <= 130656.67292823261
c277: 114 x_79_ - 30 y_79_ + [ 1 x_79_ ^ 2 + 1 y_79_ ^ 2 ] <= 169771.66999784095
c278: 114 x_80_ - 30 y_80_ + [ 1 x_80_ ^ 2 + 1 y_80_ ^ 2 ] <= 152173.70848461194
c279: 114 x_82_ - 30 y_82_ + [ 1 x_82_ ^ 2 + 1 y_82_ ^ 2 ] <= 88281.44902406418
c280: 114 x_83_ - 30 y_83_ + [ 1 x_83_ ^ 2 + 1 y_83_ ^ 2 ] <= 111813.26021414483
c281: 114 x_84_ - 30 y_84_ + [ 1 x_84_ ^ 2 + 1 y_84_ ^ 2 ] <= 53966.56070151049
c282: 114 x_85_ - 30 y_85_ + [ 1 x_85_ ^ 2 + 1 y_85_ ^ 2 ] <= 115505.4216737178
c283: 114 x_86_ - 30 y_86_ + [ 1 x_86_ ^ 2 + 1 y_86_ ^ 2 ] <= 125169.83532206551
c284: 114 x_87_ - 30 y_87_ + [ 1 x_87_ ^ 2 + 1 y_87_ ^ 2 ] <= 96652.10000042804
c285: 114 x_88_ - 30 y_88_ + [ 1 x_88_ ^ 2 + 1 y_88_ ^ 2 ] <= 102733.6326068636
c286: 114 x_89_ - 30 y_89_ + [ 1 x_89_ ^ 2 + 1 y_89_ ^ 2 ] <= 163906.45995258316
c287: 114 x_90_ - 30 y_90_ + [ 1 x_90_ ^ 2 + 1 y_90_ ^ 2 ] <= 107451.2228301049
c288: 114 x_91_ - 30 y_91_ + [ 1 x_91_ ^ 2 + 1 y_91_ ^ 2 ] <= 65192.899452749654
c289: 114 x_92_ - 30 y_92_ + [ 1 x_92_ ^ 2 + 1 y_92_ ^ 2 ] <= 32852.155220057495
c290: 114 x_93_ - 30 y_93_ + [ 1 x_93_ ^ 2 + 1 y_93_ ^ 2 ] <= 107581.2703405671
c291: 114 x_94_ - 30 y_94_ + [ 1 x_94_ ^ 2 + 1 y_94_ ^ 2 ] <= 129382.47977819823
c292: 114 x_95_ - 30 y_95_ + [ 1 x_95_ ^ 2 + 1 y_95_ ^ 2 ] <= 95741.04422953451
c293: 114 x_96_ - 30 y_96_ + [ 1 x_96_ ^ 2 + 1 y_96_ ^ 2 ] <= 135639.26509473525
c294: 114 x_97_ - 30 y_97_ + [ 1 x_97_ ^ 2 + 1 y_97_ ^ 2 ] <= 37110.18406236255
c295: 114 x_98_ - 30 y_98_ + [ 1 x_98_ ^ 2 + 1 y_98_ ^ 2 ] <= 139080.8169097021
c296: 114 x_99_ - 30 y_99_ + [ 1 x_99_ ^ 2 + 1 y_99_ ^ 2 ] <= 97681.46102405697
c297: 114 x_100_ - 30 y_100_ + [ 1 x_100_ ^ 2 + 1 y_100_ ^ 2 ] <= 279642.32653805945
quadratic_ranged_1_ub: [ 1 x_1_ ^ 2 - 2 x_4_ * x_1_ + 1 x_4_ ^ 2 + 1 y_1_ ^ 2 - 2 y_4_ * y_1_ + 1 y_4_ ^ 2 ] <= 2954.25
quadratic_ranged_2_ub: [ 1 x_3_ ^ 2 - 2 x_4_ * x_3_ + 1 x_4_ ^ 2 + 1 y_3_ ^ 2 - 2 y_4_ * y_3_ + 1 y_4_ ^ 2 ] <= 1797.8
quadratic_ranged_3_ub: [ 1 x_2_ ^ 2 - 2 x_5_ * x_2_ + 1 x_5_ ^ 2 + 1 y_2_ ^ 2 - 2 y_5_ * y_2_ + 1 y_5_ ^ 2 ] <= 33534.02
quadratic_ranged_4_ub: [ 1 x_3_ ^ 2 - 2 x_5_ * x_3_ + 1 x_5_ ^ 2 + 1 y_3_ ^ 2 - 2 y_5_ * y_3_ + 1 y_5_ ^ 2 ] <= 6730.64
quadratic_ranged_5_ub: [ 1 x_2_ ^ 2 - 2 x_6_ * x_2_ + 1 x_6_ ^ 2 + 1 y_2_ ^ 2 - 2 y_6_ * y_2_ + 1 y_6_ ^ 2 ] <= 29186.98
quadratic_ranged_6_ub: [ 1 x_2_ ^ 2 - 2 x_7_ * x_2_ + 1 x_7_ ^ 2 + 1 y_2_ ^ 2 - 2 y_7_ * y_2_ + 1 y_7_ ^ 2 ] <= 4550.05
quadratic_ranged_7_ub: [ 1 x_3_ ^ 2 - 2 x_8_ * x_3_ + 1 x_8_ ^ 2 + 1 y_3_ ^ 2 - 2 y_8_ * y_3_ + 1 y_8_ ^ 2 ] <= 1770.53
quadratic_ranged_8_ub: [ 1 x_4_ ^ 2 - 2 x_8_ * x_4_ + 1 x_8_ ^ 2 + 1 y_4_ ^ 2 - 2 y_8_ * y_4_ + 1 y_8_ ^ 2 ] <= 6065.05
quadratic_ranged_9_ub: [ 1 x_6_ ^ 2 - 2 x_10_ * x_6_ + 1 x_10_ ^ 2 + 1 y_6_ ^ 2 - 2 y_10_ * y_6_ + 1 y_10_ ^ 2 ] <= 6691.25
quadratic_ranged_10_ub: [ 1 x_9_ ^ 2 - 2 x_10_ * x_9_ + 1 x_10_ ^ 2 + 1 y_9_ ^ 2 - 2 y_10_ * y_9_ + 1 y_10_ ^ 2 ] <= 14645
quadratic_ranged_11_ub: [ 1 x_1_ ^ 2 - 2 x_11_ * x_1_ + 1 x_11_ ^ 2 + 1 y_1_ ^ 2 - 2 y_11_ * y_1_ + 1 y_11_ ^ 2 ] <= 3325.93
quadratic_ranged_12_ub: [ 1 x_3_ ^ 2 - 2 x_11_ * x_3_ + 1 x_11_ ^ 2 + 1 y_3_ ^ 2 - 2 y_11_ * y_3_ + 1 y_11_ ^ 2 ] <= 1955.3600000000001
quadratic_ranged_13_ub: [ 1 x_6_ ^ 2 - 2 x_11_ * x_6_ + 1 x_11_ ^ 2 + 1 y_6_ ^ 2 - 2 y_11_ * y_6_ + 1 y_11_ ^ 2 ] <= 13679.44
quadratic_ranged_14_ub: [ 1 x_3_ ^ 2 - 2 x_12_ * x_3_ + 1 x_12_ ^ 2 + 1 y_3_ ^ 2 - 2 y_12_ * y_3_ + 1 y_12_ ^ 2 ] <= 11516.02
quadratic_ranged_15_ub: [ 1 x_9_ ^ 2 - 2 x_12_ * x_9_ + 1 x_12_ ^ 2 + 1 y_9_ ^ 2 - 2 y_12_ * y_9_ + 1 y_12_ ^ 2 ] <= 683.77
quadratic_ranged_16_ub: [ 1 x_3_ ^ 2 - 2 x_13_ * x_3_ + 1 x_13_ ^ 2 + 1 y_3_ ^ 2 - 2 y_13_ * y_3_ + 1 y_13_ ^ 2 ] <= 198.97
quadratic_ranged_17_ub: [ 1 x_13_ ^ 2 - 2 x_15_ * x_13_ + 1 x_15_ ^ 2 + 1 y_13_ ^ 2 - 2 y_15_ * y_13_ + 1 y_15_ ^ 2 ] <= 16612.48
quadratic_ranged_18_ub: [ 1 x_14_ ^ 2 - 2 x_15_ * x_14_ + 1 x_15_ ^ 2 + 1 y_14_ ^ 2 - 2 y_15_ * y_14_ + 1 y_15_ ^ 2 ] <= 1063.53
quadratic_ranged_19_ub: [ 1 x_6_ ^ 2 - 2 x_16_ * x_6_ + 1 x_16_ ^ 2 + 1 y_6_ ^ 2 - 2 y_16_ * y_6_ + 1 y_16_ ^ 2 ] <= 14093.54
quadratic_ranged_20_ub: [ 1 x_13_ ^ 2 - 2 x_16_ * x_13_ + 1 x_16_ ^ 2 + 1 y_13_ ^ 2 - 2 y_16_ * y_13_ + 1 y_16_ ^ 2 ] <= 4954.05
quadratic_ranged_21_ub: [ 1 x_11_ ^ 2 - 2 x_17_ * x_11_ + 1 x_17_ ^ 2 + 1 y_11_ ^ 2 - 2 y_17_ * y_11_ + 1 y_17_ ^ 2 ] <= 18593.09
quadratic_ranged_22_ub: [ 1 x_9_ ^ 2 - 2 x_18_ * x_9_ + 1 x_18_ ^ 2 + 1 y_9_ ^ 2 - 2 y_18_ * y_9_ + 1 y_18_ ^ 2 ] <= 11831.14
quadratic_ranged_23_ub: [ 1 x_5_ ^ 2 - 2 x_19_ * x_5_ + 1 x_19_ ^ 2 + 1 y_5_ ^ 2 - 2 y_19_ * y_5_ + 1 y_19_ ^ 2 ] <= 29898.02
quadratic_ranged_24_ub: [ 1 x_7_ ^ 2 - 2 x_19_ * x_7_ + 1 x_19_ ^ 2 + 1 y_7_ ^ 2 - 2 y_19_ * y_7_ + 1 y_19_ ^ 2 ] <= 10702.97
quadratic_ranged_25_ub: [ 1 x_11_ ^ 2 - 2 x_19_ * x_11_ + 1 x_19_ ^ 2 + 1 y_11_ ^ 2 - 2 y_19_ * y_11_ + 1 y_19_ ^ 2 ] <= 14836.9
quadratic_ranged_26_ub: [ 1 x_1_ ^ 2 - 2 x_20_ * x_1_ + 1 x_20_ ^ 2 + 1 y_1_ ^ 2 - 2 y_20_ * y_1_ + 1 y_20_ ^ 2 ] <= 3382.4900000000002
quadratic_ranged_27_ub: [ 1 x_7_ ^ 2 - 2 x_21_ * x_7_ + 1 x_21_ ^ 2 + 1 y_7_ ^ 2 - 2 y_21_ * y_7_ + 1 y_21_ ^ 2 ] <= 12639.14
quadratic_ranged_28_ub: [ 1 x_1_ ^ 2 - 2 x_22_ * x_1_ + 1 x_22_ ^ 2 + 1 y_1_ ^ 2 - 2 y_22_ * y_1_ + 1 y_22_ ^ 2 ] <= 5398.45
quadratic_ranged_29_ub: [ 1 x_8_ ^ 2 - 2 x_23_ * x_8_ + 1 x_23_ ^ 2 + 1 y_8_ ^ 2 - 2 y_23_ * y_8_ + 1 y_23_ ^ 2 ] <= 16115.56
quadratic_ranged_30_ub: [ 1 x_16_ ^ 2 - 2 x_23_ * x_16_ + 1 x_23_ ^ 2 + 1 y_16_ ^ 2 - 2 y_23_ * y_16_ + 1 y_23_ ^ 2 ] <= 3018.89
quadratic_ranged_31_ub: [ 1 x_6_ ^ 2 - 2 x_24_ * x_6_ + 1 x_24_ ^ 2 + 1 y_6_ ^ 2 - 2 y_24_ * y_6_ + 1 y_24_ ^ 2 ] <= 20023.25
quadratic_ranged_32_ub: [ 1 x_11_ ^ 2 - 2 x_24_ * x_11_ + 1 x_24_ ^ 2 + 1 y_11_ ^ 2 - 2 y_24_ * y_11_ + 1 y_24_ ^ 2 ] <= 6776.09
quadratic_ranged_33_ub: [ 1 x_4_ ^ 2 - 2 x_25_ * x_4_ + 1 x_25_ ^ 2 + 1 y_4_ ^ 2 - 2 y_25_ * y_4_ + 1 y_25_ ^ 2 ] <= 11200.9
quadratic_ranged_34_ub: [ 1 x_12_ ^ 2 - 2 x_25_ * x_12_ + 1 x_25_ ^ 2 + 1 y_12_ ^ 2 - 2 y_25_ * y_12_ + 1 y_25_ ^ 2 ] <= 15206.56
quadratic_ranged_35_ub: [ 1 x_13_ ^ 2 - 2 x_25_ * x_13_ + 1 x_25_ ^ 2 + 1 y_13_ ^ 2 - 2 y_25_ * y_13_ + 1 y_25_ ^ 2 ] <= 7616.41
quadratic_ranged_36_ub: [ 1 x_17_ ^ 2 - 2 x_26_ * x_17_ + 1 x_26_ ^ 2 + 1 y_17_ ^ 2 - 2 y_26_ * y_17_ + 1 y_26_ ^ 2 ] <= 4000.61
quadratic_ranged_37_ub: [ 1 x_18_ ^ 2 - 2 x_26_ * x_18_ + 1 x_26_ ^ 2 + 1 y_18_ ^ 2 - 2 y_26_ * y_18_ + 1 y_26_ ^ 2 ] <= 1398.85
quadratic_ranged_38_ub: [ 1 x_3_ ^ 2 - 2 x_27_ * x_3_ + 1 x_27_ ^ 2 + 1 y_3_ ^ 2 - 2 y_27_ * y_3_ + 1 y_27_ ^ 2 ] <= 6961.93
quadratic_ranged_39_ub: [ 1 x_6_ ^ 2 - 2 x_27_ * x_6_ + 1 x_27_ ^ 2 + 1 y_6_ ^ 2 - 2 y_27_ * y_6_ + 1 y_27_ ^ 2 ] <= 23731.97
quadratic_ranged_40_ub: [ 1 x_17_ ^ 2 - 2 x_27_ * x_17_ + 1 x_27_ ^ 2 + 1 y_17_ ^ 2 - 2 y_27_ * y_17_ + 1 y_27_ ^ 2 ] <= 28902.16
quadratic_ranged_41_ub: [ 1 x_7_ ^ 2 - 2 x_28_ * x_7_ + 1 x_28_ ^ 2 + 1 y_7_ ^ 2 - 2 y_28_ * y_7_ + 1 y_28_ ^ 2 ] <= 25113.65
quadratic_ranged_42_ub: [ 1 x_28_ ^ 2 - 2 x_29_ * x_28_ + 1 x_29_ ^ 2 + 1 y_28_ ^ 2 - 2 y_29_ * y_28_ + 1 y_29_ ^ 2 ] <= 9712.16
quadratic_ranged_43_ub: [ 1 x_15_ ^ 2 - 2 x_30_ * x_15_ + 1 x_30_ ^ 2 + 1 y_15_ ^ 2 - 2 y_30_ * y_15_ + 1 y_30_ ^ 2 ] <= 12682.57
quadratic_ranged_44_ub: [ 1 x_4_ ^ 2 - 2 x_31_ * x_4_ + 1 x_31_ ^ 2 + 1 y_4_ ^ 2 - 2 y_31_ * y_4_ + 1 y_31_ ^ 2 ] <= 19596.02
quadratic_ranged_45_ub: [ 1 x_23_ ^ 2 - 2 x_31_ * x_23_ + 1 x_31_ ^ 2 + 1 y_23_ ^ 2 - 2 y_31_ * y_23_ + 1 y_31_ ^ 2 ] <= 33415.85
quadratic_ranged_46_ub: [ 1 x_3_ ^ 2 - 2 x_32_ * x_3_ + 1 x_32_ ^ 2 + 1 y_3_ ^ 2 - 2 y_32_ * y_3_ + 1 y_32_ ^ 2 ] <= 15618.64
quadratic_ranged_47_ub: [ 1 x_12_ ^ 2 - 2 x_32_ * x_12_ + 1 x_32_ ^ 2 + 1 y_12_ ^ 2 - 2 y_32_ * y_12_ + 1 y_32_ ^ 2 ] <= 14271.3
quadratic_ranged_48_ub: [ 1 x_18_ ^ 2 - 2 x_32_ * x_18_ + 1 x_32_ ^ 2 + 1 y_18_ ^ 2 - 2 y_32_ * y_18_ + 1 y_32_ ^ 2 ] <= 4982.33
quadratic_ranged_49_ub: [ 1 x_12_ ^ 2 - 2 x_33_ * x_12_ + 1 x_33_ ^ 2 + 1 y_12_ ^ 2 - 2 y_33_ * y_12_ + 1 y_33_ ^ 2 ] <= 29140.52
quadratic_ranged_50_ub: [ 1 x_26_ ^ 2 - 2 x_33_ * x_26_ + 1 x_33_ ^ 2 + 1 y_26_ ^ 2 - 2 y_33_ * y_26_ + 1 y_33_ ^ 2 ] <= 14303.62
quadratic_ranged_51_ub: [ 1 x_11_ ^ 2 - 2 x_34_ * x_11_ + 1 x_34_ ^ 2 + 1 y_11_ ^ 2 - 2 y_34_ * y_11_ + 1 y_34_ ^ 2 ] <= 9348.56
quadratic_ranged_52_ub: [ 1 x_22_ ^ 2 - 2 x_34_ * x_22_ + 1 x_34_ ^ 2 + 1 y_22_ ^ 2 - 2 y_34_ * y_22_ + 1 y_34_ ^ 2 ] <= 19450.58
quadratic_ranged_53_ub: [ 1 x_23_ ^ 2 - 2 x_34_ * x_23_ + 1 x_34_ ^ 2 + 1 y_23_ ^ 2 - 2 y_34_ * y_23_ + 1 y_34_ ^ 2 ] <= 17191.21
quadratic_ranged_54_ub: [ 1 x_24_ ^ 2 - 2 x_35_ * x_24_ + 1 x_35_ ^ 2 + 1 y_24_ ^ 2 - 2 y_35_ * y_24_ + 1 y_35_ ^ 2 ] <= 23562.29
quadratic_ranged_55_ub: [ 1 x_20_ ^ 2 - 2 x_36_ * x_20_ + 1 x_36_ ^ 2 + 1 y_20_ ^ 2 - 2 y_36_ * y_20_ + 1 y_36_ ^ 2 ] <= 10263.62
quadratic_ranged_56_ub: [ 1 x_24_ ^ 2 - 2 x_36_ * x_24_ + 1 x_36_ ^ 2 + 1 y_24_ ^ 2 - 2 y_36_ * y_24_ + 1 y_36_ ^ 2 ] <= 19635.41
quadratic_ranged_57_ub: [ 1 x_10_ ^ 2 - 2 x_37_ * x_10_ + 1 x_37_ ^ 2 + 1 y_10_ ^ 2 - 2 y_37_ * y_10_ + 1 y_37_ ^ 2 ] <= 737.3
quadratic_ranged_58_ub: [ 1 x_20_ ^ 2 - 2 x_37_ * x_20_ + 1 x_37_ ^ 2 + 1 y_20_ ^ 2 - 2 y_37_ * y_20_ + 1 y_37_ ^ 2 ] <= 6085.25
quadratic_ranged_59_ub: [ 1 x_16_ ^ 2 - 2 x_39_ * x_16_ + 1 x_39_ ^ 2 + 1 y_16_ ^ 2 - 2 y_39_ * y_16_ + 1 y_39_ ^ 2 ] <= 20769.64
quadratic_ranged_60_ub: [ 1 x_37_ ^ 2 - 2 x_39_ * x_37_ + 1 x_39_ ^ 2 + 1 y_37_ ^ 2 - 2 y_39_ * y_37_ + 1 y_39_ ^ 2 ] <= 380.77
quadratic_ranged_61_ub: [ 1 x_6_ ^ 2 - 2 x_40_ * x_6_ + 1 x_40_ ^ 2 + 1 y_6_ ^ 2 - 2 y_40_ * y_6_ + 1 y_40_ ^ 2 ] <= 22407.86
quadratic_ranged_62_ub: [ 1 x_16_ ^ 2 - 2 x_40_ * x_16_ + 1 x_40_ ^ 2 + 1 y_16_ ^ 2 - 2 y_40_ * y_16_ + 1 y_40_ ^ 2 ] <= 11881.64
quadratic_ranged_63_ub: [ 1 x_21_ ^ 2 - 2 x_40_ * x_21_ + 1 x_40_ ^ 2 + 1 y_21_ ^ 2 - 2 y_40_ * y_21_ + 1 y_40_ ^ 2 ] <= 12844.17
quadratic_ranged_64_ub: [ 1 x_3_ ^ 2 - 2 x_41_ * x_3_ + 1 x_41_ ^ 2 + 1 y_3_ ^ 2 - 2 y_41_ * y_3_ + 1 y_41_ ^ 2 ] <= 1991.72
quadratic_ranged_65_ub: [ 1 x_14_ ^ 2 - 2 x_41_ * x_14_ + 1 x_41_ ^ 2 + 1 y_14_ ^ 2 - 2 y_41_ * y_14_ + 1 y_41_ ^ 2 ] <= 5591.36
quadratic_ranged_66_ub: [ 1 x_37_ ^ 2 - 2 x_41_ * x_37_ + 1 x_41_ ^ 2 + 1 y_37_ ^ 2 - 2 y_41_ * y_37_ + 1 y_41_ ^ 2 ] <= 2550.25
quadratic_ranged_67_ub: [ 1 x_21_ ^ 2 - 2 x_42_ * x_21_ + 1 x_42_ ^ 2 + 1 y_21_ ^ 2 - 2 y_42_ * y_21_ + 1 y_42_ ^ 2 ] <= 12657.32
quadratic_ranged_68_ub: [ 1 x_36_ ^ 2 - 2 x_42_ * x_36_ + 1 x_42_ ^ 2 + 1 y_36_ ^ 2 - 2 y_42_ * y_36_ + 1 y_42_ ^ 2 ] <= 4412.69
quadratic_ranged_69_ub: [ 1 x_6_ ^ 2 - 2 x_43_ * x_6_ + 1 x_43_ ^ 2 + 1 y_6_ ^ 2 - 2 y_43_ * y_6_ + 1 y_43_ ^ 2 ] <= 22483.61
quadratic_ranged_70_ub: [ 1 x_21_ ^ 2 - 2 x_43_ * x_21_ + 1 x_43_ ^ 2 + 1 y_21_ ^ 2 - 2 y_43_ * y_21_ + 1 y_43_ ^ 2 ] <= 7373
quadratic_ranged_71_ub: [ 1 x_7_ ^ 2 - 2 x_44_ * x_7_ + 1 x_44_ ^ 2 + 1 y_7_ ^ 2 - 2 y_44_ * y_7_ + 1 y_44_ ^ 2 ] <= 4428.85
quadratic_ranged_72_ub: [ 1 x_28_ ^ 2 - 2 x_44_ * x_28_ + 1 x_44_ ^ 2 + 1 y_28_ ^ 2 - 2 y_44_ * y_28_ + 1 y_44_ ^ 2 ] <= 15061.12
quadratic_ranged_73_ub: [ 1 x_38_ ^ 2 - 2 x_44_ * x_38_ + 1 x_44_ ^ 2 + 1 y_38_ ^ 2 - 2 y_44_ * y_38_ + 1 y_44_ ^ 2 ] <= 11236.25
quadratic_ranged_74_ub: [ 1 x_4_ ^ 2 - 2 x_45_ * x_4_ + 1 x_45_ ^ 2 + 1 y_4_ ^ 2 - 2 y_45_ * y_4_ + 1 y_45_ ^ 2 ] <= 9453.6
quadratic_ranged_75_ub: [ 1 x_7_ ^ 2 - 2 x_45_ * x_7_ + 1 x_45_ ^ 2 + 1 y_7_ ^ 2 - 2 y_45_ * y_7_ + 1 y_45_ ^ 2 ] <= 11696.81
quadratic_ranged_76_ub: [ 1 x_6_ ^ 2 - 2 x_46_ * x_6_ + 1 x_46_ ^ 2 + 1 y_6_ ^ 2 - 2 y_46_ * y_6_ + 1 y_46_ ^ 2 ] <= 24724.8
quadratic_ranged_77_ub: [ 1 x_34_ ^ 2 - 2 x_46_ * x_34_ + 1 x_46_ ^ 2 + 1 y_34_ ^ 2 - 2 y_46_ * y_34_ + 1 y_46_ ^ 2 ] <= 19133.44
quadratic_ranged_78_ub: [ 1 x_2_ ^ 2 - 2 x_47_ * x_2_ + 1 x_47_ ^ 2 + 1 y_2_ ^ 2 - 2 y_47_ * y_2_ + 1 y_47_ ^ 2 ] <= 3961.2200000000003
quadratic_ranged_79_ub: [ 1 x_16_ ^ 2 - 2 x_48_ * x_16_ + 1 x_48_ ^ 2 + 1 y_16_ ^ 2 - 2 y_48_ * y_16_ + 1 y_48_ ^ 2 ] <= 9288.97
quadratic_ranged_80_ub: [ 1 x_34_ ^ 2 - 2 x_48_ * x_34_ + 1 x_48_ ^ 2 + 1 y_34_ ^ 2 - 2 y_48_ * y_34_ + 1 y_48_ ^ 2 ] <= 146.45
quadratic_ranged_81_ub: [ 1 x_13_ ^ 2 - 2 x_49_ * x_13_ + 1 x_49_ ^ 2 + 1 y_13_ ^ 2 - 2 y_49_ * y_13_ + 1 y_49_ ^ 2 ] <= 5579.24
quadratic_ranged_82_ub: [ 1 x_21_ ^ 2 - 2 x_49_ * x_21_ + 1 x_49_ ^ 2 + 1 y_21_ ^ 2 - 2 y_49_ * y_21_ + 1 y_49_ ^ 2 ] <= 6958.9
quadratic_ranged_83_ub: [ 1 x_11_ ^ 2 - 2 x_50_ * x_11_ + 1 x_50_ ^ 2 + 1 y_11_ ^ 2 - 2 y_50_ * y_11_ + 1 y_50_ ^ 2 ] <= 2250.28
quadratic_ranged_84_ub: [ 1 x_29_ ^ 2 - 2 x_50_ * x_29_ + 1 x_50_ ^ 2 + 1 y_29_ ^ 2 - 2 y_50_ * y_29_ + 1 y_50_ ^ 2 ] <= 9948.5
quadratic_ranged_85_ub: [ 1 x_47_ ^ 2 - 2 x_50_ * x_47_ + 1 x_50_ ^ 2 + 1 y_47_ ^ 2 - 2 y_50_ * y_47_ + 1 y_50_ ^ 2 ] <= 13271.4
quadratic_ranged_86_ub: [ 1 x_5_ ^ 2 - 2 x_51_ * x_5_ + 1 x_51_ ^ 2 + 1 y_5_ ^ 2 - 2 y_51_ * y_5_ + 1 y_51_ ^ 2 ] <= 5237.86
quadratic_ranged_87_ub: [ 1 x_8_ ^ 2 - 2 x_51_ * x_8_ + 1 x_51_ ^ 2 + 1 y_8_ ^ 2 - 2 y_51_ * y_8_ + 1 y_51_ ^ 2 ] <= 7454.81
quadratic_ranged_88_ub: [ 1 x_3_ ^ 2 - 2 x_52_ * x_3_ + 1 x_52_ ^ 2 + 1 y_3_ ^ 2 - 2 y_52_ * y_3_ + 1 y_52_ ^ 2 ] <= 7160.9
quadratic_ranged_89_ub: [ 1 x_20_ ^ 2 - 2 x_52_ * x_20_ + 1 x_52_ ^ 2 + 1 y_20_ ^ 2 - 2 y_52_ * y_20_ + 1 y_52_ ^ 2 ] <= 9900.02
quadratic_ranged_90_ub: [ 1 x_20_ ^ 2 - 2 x_53_ * x_20_ + 1 x_53_ ^ 2 + 1 y_20_ ^ 2 - 2 y_53_ * y_20_ + 1 y_53_ ^ 2 ] <= 623.17
quadratic_ranged_91_ub: [ 1 x_42_ ^ 2 - 2 x_53_ * x_42_ + 1 x_53_ ^ 2 + 1 y_42_ ^ 2 - 2 y_53_ * y_42_ + 1 y_53_ ^ 2 ] <= 20880.74
quadratic_ranged_92_ub: [ 1 x_3_ ^ 2 - 2 x_54_ * x_3_ + 1 x_54_ ^ 2 + 1 y_3_ ^ 2 - 2 y_54_ * y_3_ + 1 y_54_ ^ 2 ] <= 7370.9800000000005
quadratic_ranged_93_ub: [ 1 x_7_ ^ 2 - 2 x_54_ * x_7_ + 1 x_54_ ^ 2 + 1 y_7_ ^ 2 - 2 y_54_ * y_7_ + 1 y_54_ ^ 2 ] <= 13191.61
quadratic_ranged_94_ub: [ 1 x_5_ ^ 2 - 2 x_55_ * x_5_ + 1 x_55_ ^ 2 + 1 y_5_ ^ 2 - 2 y_55_ * y_5_ + 1 y_55_ ^ 2 ] <= 898.9
quadratic_ranged_95_ub: [ 1 x_22_ ^ 2 - 2 x_55_ * x_22_ + 1 x_55_ ^ 2 + 1 y_22_ ^ 2 - 2 y_55_ * y_22_ + 1 y_55_ ^ 2 ] <= 21234.24
quadratic_ranged_96_ub: [ 1 x_2_ ^ 2 - 2 x_56_ * x_2_ + 1 x_56_ ^ 2 + 1 y_2_ ^ 2 - 2 y_56_ * y_2_ + 1 y_56_ ^ 2 ] <= 43787.54
quadratic_ranged_97_ub: [ 1 x_48_ ^ 2 - 2 x_56_ * x_48_ + 1 x_56_ ^ 2 + 1 y_48_ ^ 2 - 2 y_56_ * y_48_ + 1 y_56_ ^ 2 ] <= 2146.25
quadratic_ranged_98_ub: [ 1 x_54_ ^ 2 - 2 x_56_ * x_54_ + 1 x_56_ ^ 2 + 1 y_54_ ^ 2 - 2 y_56_ * y_54_ + 1 y_56_ ^ 2 ] <= 16978.1
quadratic_ranged_99_ub: [ 1 x_19_ ^ 2 - 2 x_57_ * x_19_ + 1 x_57_ ^ 2 + 1 y_19_ ^ 2 - 2 y_57_ * y_19_ + 1 y_57_ ^ 2 ] <= 3055.25
quadratic_ranged_100_ub: [ 1 x_37_ ^ 2 - 2 x_58_ * x_37_ + 1 x_58_ ^ 2 + 1 y_37_ ^ 2 - 2 y_58_ * y_37_ + 1 y_58_ ^ 2 ] <= 5340.88
quadratic_ranged_101_ub: [ 1 x_40_ ^ 2 - 2 x_58_ * x_40_ + 1 x_58_ ^ 2 + 1 y_40_ ^ 2 - 2 y_58_ * y_40_ + 1 y_58_ ^ 2 ] <= 22544.21
quadratic_ranged_102_ub: [ 1 x_35_ ^ 2 - 2 x_59_ * x_35_ + 1 x_59_ ^ 2 + 1 y_35_ ^ 2 - 2 y_59_ * y_35_ + 1 y_59_ ^ 2 ] <= 3122.92
quadratic_ranged_103_ub: [ 1 x_42_ ^ 2 - 2 x_59_ * x_42_ + 1 x_59_ ^ 2 + 1 y_42_ ^ 2 - 2 y_59_ * y_42_ + 1 y_59_ ^ 2 ] <= 5301.49
quadratic_ranged_104_ub: [ 1 x_21_ ^ 2 - 2 x_60_ * x_21_ + 1 x_60_ ^ 2 + 1 y_21_ ^ 2 - 2 y_60_ * y_21_ + 1 y_60_ ^ 2 ] <= 2008.89
quadratic_ranged_105_ub: [ 1 x_25_ ^ 2 - 2 x_60_ * x_25_ + 1 x_60_ ^ 2 + 1 y_25_ ^ 2 - 2 y_60_ * y_25_ + 1 y_60_ ^ 2 ] <= 4155.14
quadratic_ranged_106_ub: [ 1 x_28_ ^ 2 - 2 x_61_ * x_28_ + 1 x_61_ ^ 2 + 1 y_28_ ^ 2 - 2 y_61_ * y_28_ + 1 y_61_ ^ 2 ] <= 30935.29
quadratic_ranged_107_ub: [ 1 x_36_ ^ 2 - 2 x_62_ * x_36_ + 1 x_62_ ^ 2 + 1 y_36_ ^ 2 - 2 y_62_ * y_36_ + 1 y_62_ ^ 2 ] <= 729.22
quadratic_ranged_108_ub: [ 1 x_39_ ^ 2 - 2 x_63_ * x_39_ + 1 x_63_ ^ 2 + 1 y_39_ ^ 2 - 2 y_63_ * y_39_ + 1 y_63_ ^ 2 ] <= 16589.25
quadratic_ranged_109_ub: [ 1 x_42_ ^ 2 - 2 x_63_ * x_42_ + 1 x_63_ ^ 2 + 1 y_42_ ^ 2 - 2 y_63_ * y_42_ + 1 y_63_ ^ 2 ] <= 21412
quadratic_ranged_110_ub: [ 1 x_51_ ^ 2 - 2 x_63_ * x_51_ + 1 x_63_ ^ 2 + 1 y_51_ ^ 2 - 2 y_63_ * y_51_ + 1 y_63_ ^ 2 ] <= 1754.3700000000001
quadratic_ranged_111_ub: [ 1 x_31_ ^ 2 - 2 x_64_ * x_31_ + 1 x_64_ ^ 2 + 1 y_31_ ^ 2 - 2 y_64_ * y_31_ + 1 y_64_ ^ 2 ] <= 4597.52
quadratic_ranged_112_ub: [ 1 x_36_ ^ 2 - 2 x_64_ * x_36_ + 1 x_64_ ^ 2 + 1 y_36_ ^ 2 - 2 y_64_ * y_36_ + 1 y_64_ ^ 2 ] <= 7772.96
quadratic_ranged_113_ub: [ 1 x_21_ ^ 2 - 2 x_65_ * x_21_ + 1 x_65_ ^ 2 + 1 y_21_ ^ 2 - 2 y_65_ * y_21_ + 1 y_65_ ^ 2 ] <= 365.62
quadratic_ranged_114_ub: [ 1 x_62_ ^ 2 - 2 x_65_ * x_62_ + 1 x_65_ ^ 2 + 1 y_62_ ^ 2 - 2 y_65_ * y_62_ + 1 y_65_ ^ 2 ] <= 17457.85
quadratic_ranged_115_ub: [ 1 x_53_ ^ 2 - 2 x_66_ * x_53_ + 1 x_66_ ^ 2 + 1 y_53_ ^ 2 - 2 y_66_ * y_53_ + 1 y_66_ ^ 2 ] <= 1423.09
quadratic_ranged_116_ub: [ 1 x_3_ ^ 2 - 2 x_67_ * x_3_ + 1 x_67_ ^ 2 + 1 y_3_ ^ 2 - 2 y_67_ * y_3_ + 1 y_67_ ^ 2 ] <= 4347.04
quadratic_ranged_117_ub: [ 1 x_65_ ^ 2 - 2 x_67_ * x_65_ + 1 x_67_ ^ 2 + 1 y_65_ ^ 2 - 2 y_67_ * y_65_ + 1 y_67_ ^ 2 ] <= 5713.57
quadratic_ranged_118_ub: [ 1 x_9_ ^ 2 - 2 x_68_ * x_9_ + 1 x_68_ ^ 2 + 1 y_9_ ^ 2 - 2 y_68_ * y_9_ + 1 y_68_ ^ 2 ] <= 53001.770000000004
quadratic_ranged_119_ub: [ 1 x_38_ ^ 2 - 2 x_68_ * x_38_ + 1 x_68_ ^ 2 + 1 y_38_ ^ 2 - 2 y_68_ * y_38_ + 1 y_68_ ^ 2 ] <= 25881.25
quadratic_ranged_120_ub: [ 1 x_62_ ^ 2 - 2 x_68_ * x_62_ + 1 x_68_ ^ 2 + 1 y_62_ ^ 2 - 2 y_68_ * y_62_ + 1 y_68_ ^ 2 ] <= 30720.16
quadratic_ranged_121_ub: [ 1 x_37_ ^ 2 - 2 x_69_ * x_37_ + 1 x_69_ ^ 2 + 1 y_37_ ^ 2 - 2 y_69_ * y_37_ + 1 y_69_ ^ 2 ] <= 13381.49
quadratic_ranged_122_ub: [ 1 x_38_ ^ 2 - 2 x_69_ * x_38_ + 1 x_69_ ^ 2 + 1 y_38_ ^ 2 - 2 y_69_ * y_38_ + 1 y_69_ ^ 2 ] <= 38506.25
quadratic_ranged_123_ub: [ 1 x_40_ ^ 2 - 2 x_69_ * x_40_ + 1 x_69_ ^ 2 + 1 y_40_ ^ 2 - 2 y_69_ * y_40_ + 1 y_69_ ^ 2 ] <= 3347.14
quadratic_ranged_124_ub: [ 1 x_14_ ^ 2 - 2 x_70_ * x_14_ + 1 x_70_ ^ 2 + 1 y_14_ ^ 2 - 2 y_70_ * y_14_ + 1 y_70_ ^ 2 ] <= 1782.65
quadratic_ranged_125_ub: [ 1 x_22_ ^ 2 - 2 x_70_ * x_22_ + 1 x_70_ ^ 2 + 1 y_22_ ^ 2 - 2 y_70_ * y_22_ + 1 y_70_ ^ 2 ] <= 4364.21
quadratic_ranged_126_ub: [ 1 x_66_ ^ 2 - 2 x_70_ * x_66_ + 1 x_70_ ^ 2 + 1 y_66_ ^ 2 - 2 y_70_ * y_66_ + 1 y_70_ ^ 2 ] <= 8036.57
quadratic_ranged_127_ub: [ 1 x_15_ ^ 2 - 2 x_71_ * x_15_ + 1 x_71_ ^ 2 + 1 y_15_ ^ 2 - 2 y_71_ * y_15_ + 1 y_71_ ^ 2 ] <= 23371.4
quadratic_ranged_128_ub: [ 1 x_45_ ^ 2 - 2 x_71_ * x_45_ + 1 x_71_ ^ 2 + 1 y_45_ ^ 2 - 2 y_71_ * y_45_ + 1 y_71_ ^ 2 ] <= 15862.05
quadratic_ranged_129_ub: [ 1 x_2_ ^ 2 - 2 x_72_ * x_2_ + 1 x_72_ ^ 2 + 1 y_2_ ^ 2 - 2 y_72_ * y_2_ + 1 y_72_ ^ 2 ] <= 20689.85
quadratic_ranged_130_ub: [ 1 x_12_ ^ 2 - 2 x_72_ * x_12_ + 1 x_72_ ^ 2 + 1 y_12_ ^ 2 - 2 y_72_ * y_12_ + 1 y_72_ ^ 2 ] <= 17094.25
quadratic_ranged_131_ub: [ 1 x_19_ ^ 2 - 2 x_72_ * x_19_ + 1 x_72_ ^ 2 + 1 y_19_ ^ 2 - 2 y_72_ * y_19_ + 1 y_72_ ^ 2 ] <= 28402.21
quadratic_ranged_132_ub: [ 1 x_43_ ^ 2 - 2 x_73_ * x_43_ + 1 x_73_ ^ 2 + 1 y_43_ ^ 2 - 2 y_73_ * y_43_ + 1 y_73_ ^ 2 ] <= 14838.92
quadratic_ranged_133_ub: [ 1 x_63_ ^ 2 - 2 x_73_ * x_63_ + 1 x_73_ ^ 2 + 1 y_63_ ^ 2 - 2 y_73_ * y_63_ + 1 y_73_ ^ 2 ] <= 8067.88
quadratic_ranged_134_ub: [ 1 x_10_ ^ 2 - 2 x_74_ * x_10_ + 1 x_74_ ^ 2 + 1 y_10_ ^ 2 - 2 y_74_ * y_10_ + 1 y_74_ ^ 2 ] <= 7562.88
quadratic_ranged_135_ub: [ 1 x_29_ ^ 2 - 2 x_74_ * x_29_ + 1 x_74_ ^ 2 + 1 y_29_ ^ 2 - 2 y_74_ * y_29_ + 1 y_74_ ^ 2 ] <= 13902.65
quadratic_ranged_136_ub: [ 1 x_8_ ^ 2 - 2 x_75_ * x_8_ + 1 x_75_ ^ 2 + 1 y_8_ ^ 2 - 2 y_75_ * y_8_ + 1 y_75_ ^ 2 ] <= 11854.37
quadratic_ranged_137_ub: [ 1 x_9_ ^ 2 - 2 x_75_ * x_9_ + 1 x_75_ ^ 2 + 1 y_9_ ^ 2 - 2 y_75_ * y_9_ + 1 y_75_ ^ 2 ] <= 50787.85
quadratic_ranged_138_ub: [ 1 x_33_ ^ 2 - 2 x_75_ * x_33_ + 1 x_75_ ^ 2 + 1 y_33_ ^ 2 - 2 y_75_ * y_33_ + 1 y_75_ ^ 2 ] <= 15852.960000000001
quadratic_ranged_139_ub: [ 1 x_19_ ^ 2 - 2 x_76_ * x_19_ + 1 x_76_ ^ 2 + 1 y_19_ ^ 2 - 2 y_76_ * y_19_ + 1 y_76_ ^ 2 ] <= 1846.28
quadratic_ranged_140_ub: [ 1 x_65_ ^ 2 - 2 x_76_ * x_65_ + 1 x_76_ ^ 2 + 1 y_65_ ^ 2 - 2 y_76_ * y_65_ + 1 y_76_ ^ 2 ] <= 1964.45
quadratic_ranged_141_ub: [ 1 x_35_ ^ 2 - 2 x_77_ * x_35_ + 1 x_77_ ^ 2 + 1 y_35_ ^ 2 - 2 y_77_ * y_35_ + 1 y_77_ ^ 2 ] <= 8549.65
quadratic_ranged_142_ub: [ 1 x_44_ ^ 2 - 2 x_77_ * x_44_ + 1 x_77_ ^ 2 + 1 y_44_ ^ 2 - 2 y_77_ * y_44_ + 1 y_77_ ^ 2 ] <= 3164.33
quadratic_ranged_143_ub: [ 1 x_10_ ^ 2 - 2 x_78_ * x_10_ + 1 x_78_ ^ 2 + 1 y_10_ ^ 2 - 2 y_78_ * y_10_ + 1 y_78_ ^ 2 ] <= 10973.65
quadratic_ranged_144_ub: [ 1 x_18_ ^ 2 - 2 x_78_ * x_18_ + 1 x_78_ ^ 2 + 1 y_18_ ^ 2 - 2 y_78_ * y_18_ + 1 y_78_ ^ 2 ] <= 10884.77
quadratic_ranged_145_ub: [ 1 x_17_ ^ 2 - 2 x_79_ * x_17_ + 1 x_79_ ^ 2 + 1 y_17_ ^ 2 - 2 y_79_ * y_17_ + 1 y_79_ ^ 2 ] <= 29844.49
quadratic_ranged_146_ub: [ 1 x_28_ ^ 2 - 2 x_79_ * x_28_ + 1 x_79_ ^ 2 + 1 y_28_ ^ 2 - 2 y_79_ * y_28_ + 1 y_79_ ^ 2 ] <= 30398.98
quadratic_ranged_147_ub: [ 1 x_30_ ^ 2 - 2 x_79_ * x_30_ + 1 x_79_ ^ 2 + 1 y_30_ ^ 2 - 2 y_79_ * y_30_ + 1 y_79_ ^ 2 ] <= 19563.7
quadratic_ranged_148_ub: [ 1 x_30_ ^ 2 - 2 x_80_ * x_30_ + 1 x_80_ ^ 2 + 1 y_30_ ^ 2 - 2 y_80_ * y_30_ + 1 y_80_ ^ 2 ] <= 27659.86
quadratic_ranged_149_ub: [ 1 x_52_ ^ 2 - 2 x_80_ * x_52_ + 1 x_80_ ^ 2 + 1 y_52_ ^ 2 - 2 y_80_ * y_52_ + 1 y_80_ ^ 2 ] <= 23934.98
quadratic_ranged_150_ub: [ 1 x_62_ ^ 2 - 2 x_80_ * x_62_ + 1 x_80_ ^ 2 + 1 y_62_ ^ 2 - 2 y_80_ * y_62_ + 1 y_80_ ^ 2 ] <= 12233.12
quadratic_ranged_151_ub: [ 1 x_16_ ^ 2 - 2 x_81_ * x_16_ + 1 x_81_ ^ 2 + 1 y_16_ ^ 2 - 2 y_81_ * y_16_ + 1 y_81_ ^ 2 ] <= 4998.49
quadratic_ranged_152_ub: [ 1 x_38_ ^ 2 - 2 x_81_ * x_38_ + 1 x_81_ ^ 2 + 1 y_38_ ^ 2 - 2 y_81_ * y_38_ + 1 y_81_ ^ 2 ] <= 26906.4
quadratic_ranged_153_ub: [ 1 x_8_ ^ 2 - 2 x_82_ * x_8_ + 1 x_82_ ^ 2 + 1 y_8_ ^ 2 - 2 y_82_ * y_8_ + 1 y_82_ ^ 2 ] <= 11160.5
quadratic_ranged_154_ub: [ 1 x_19_ ^ 2 - 2 x_82_ * x_19_ + 1 x_82_ ^ 2 + 1 y_19_ ^ 2 - 2 y_82_ * y_19_ + 1 y_82_ ^ 2 ] <= 30099.010000000002
quadratic_ranged_155_ub: [ 1 x_61_ ^ 2 - 2 x_82_ * x_61_ + 1 x_82_ ^ 2 + 1 y_61_ ^ 2 - 2 y_82_ * y_61_ + 1 y_82_ ^ 2 ] <= 28807.22
quadratic_ranged_156_ub: [ 1 x_9_ ^ 2 - 2 x_83_ * x_9_ + 1 x_83_ ^ 2 + 1 y_9_ ^ 2 - 2 y_83_ * y_9_ + 1 y_83_ ^ 2 ] <= 19877.81
quadratic_ranged_157_ub: [ 1 x_49_ ^ 2 - 2 x_83_ * x_49_ + 1 x_83_ ^ 2 + 1 y_49_ ^ 2 - 2 y_83_ * y_49_ + 1 y_83_ ^ 2 ] <= 15316.65
quadratic_ranged_158_ub: [ 1 x_57_ ^ 2 - 2 x_83_ * x_57_ + 1 x_83_ ^ 2 + 1 y_57_ ^ 2 - 2 y_83_ * y_57_ + 1 y_83_ ^ 2 ] <= 16262.01
quadratic_ranged_159_ub: [ 1 x_35_ ^ 2 - 2 x_84_ * x_35_ + 1 x_84_ ^ 2 + 1 y_35_ ^ 2 - 2 y_84_ * y_35_ + 1 y_84_ ^ 2 ] <= 20329.28
quadratic_ranged_160_ub: [ 1 x_49_ ^ 2 - 2 x_84_ * x_49_ + 1 x_84_ ^ 2 + 1 y_49_ ^ 2 - 2 y_84_ * y_49_ + 1 y_84_ ^ 2 ] <= 570.65
quadratic_ranged_161_ub: [ 1 x_58_ ^ 2 - 2 x_85_ * x_58_ + 1 x_85_ ^ 2 + 1 y_58_ ^ 2 - 2 y_85_ * y_58_ + 1 y_85_ ^ 2 ] <= 1407.94
quadratic_ranged_162_ub: [ 1 x_63_ ^ 2 - 2 x_85_ * x_63_ + 1 x_85_ ^ 2 + 1 y_63_ ^ 2 - 2 y_85_ * y_63_ + 1 y_85_ ^ 2 ] <= 28160.82
quadratic_ranged_163_ub: [ 1 x_22_ ^ 2 - 2 x_86_ * x_22_ + 1 x_86_ ^ 2 + 1 y_22_ ^ 2 - 2 y_86_ * y_22_ + 1 y_86_ ^ 2 ] <= 1601.8600000000001
quadratic_ranged_164_ub: [ 1 x_82_ ^ 2 - 2 x_86_ * x_82_ + 1 x_86_ ^ 2 + 1 y_82_ ^ 2 - 2 y_86_ * y_82_ + 1 y_86_ ^ 2 ] <= 38082.05
quadratic_ranged_165_ub: [ 1 x_17_ ^ 2 - 2 x_87_ * x_17_ + 1 x_87_ ^ 2 + 1 y_17_ ^ 2 - 2 y_87_ * y_17_ + 1 y_87_ ^ 2 ] <= 27743.69
quadratic_ranged_166_ub: [ 1 x_34_ ^ 2 - 2 x_87_ * x_34_ + 1 x_87_ ^ 2 + 1 y_34_ ^ 2 - 2 y_87_ * y_34_ + 1 y_87_ ^ 2 ] <= 18836.5
quadratic_ranged_167_ub: [ 1 x_19_ ^ 2 - 2 x_88_ * x_19_ + 1 x_88_ ^ 2 + 1 y_19_ ^ 2 - 2 y_88_ * y_19_ + 1 y_88_ ^ 2 ] <= 8767.81
quadratic_ranged_168_ub: [ 1 x_27_ ^ 2 - 2 x_88_ * x_27_ + 1 x_88_ ^ 2 + 1 y_27_ ^ 2 - 2 y_88_ * y_27_ + 1 y_88_ ^ 2 ] <= 7615.4
quadratic_ranged_169_ub: [ 1 x_29_ ^ 2 - 2 x_88_ * x_29_ + 1 x_88_ ^ 2 + 1 y_29_ ^ 2 - 2 y_88_ * y_29_ + 1 y_88_ ^ 2 ] <= 1168.57
quadratic_ranged_170_ub: [ 1 x_79_ ^ 2 - 2 x_89_ * x_79_ + 1 x_89_ ^ 2 + 1 y_79_ ^ 2 - 2 y_89_ * y_79_ + 1 y_89_ ^ 2 ] <= 50.5
quadratic_ranged_171_ub: [ 1 x_12_ ^ 2 - 2 x_90_ * x_12_ + 1 x_90_ ^ 2 + 1 y_12_ ^ 2 - 2 y_90_ * y_12_ + 1 y_90_ ^ 2 ] <= 42909.85
quadratic_ranged_172_ub: [ 1 x_25_ ^ 2 - 2 x_90_ * x_25_ + 1 x_90_ ^ 2 + 1 y_25_ ^ 2 - 2 y_90_ * y_25_ + 1 y_90_ ^ 2 ] <= 10961.53
quadratic_ranged_173_ub: [ 1 x_4_ ^ 2 - 2 x_91_ * x_4_ + 1 x_91_ ^ 2 + 1 y_4_ ^ 2 - 2 y_91_ * y_4_ + 1 y_91_ ^ 2 ] <= 4154.13
quadratic_ranged_174_ub: [ 1 x_27_ ^ 2 - 2 x_91_ * x_27_ + 1 x_91_ ^ 2 + 1 y_27_ ^ 2 - 2 y_91_ * y_27_ + 1 y_91_ ^ 2 ] <= 11251.4
quadratic_ranged_175_ub: [ 1 x_3_ ^ 2 - 2 x_92_ * x_3_ + 1 x_92_ ^ 2 + 1 y_3_ ^ 2 - 2 y_92_ * y_3_ + 1 y_92_ ^ 2 ] <= 1253.41
quadratic_ranged_176_ub: [ 1 x_61_ ^ 2 - 2 x_92_ * x_61_ + 1 x_92_ ^ 2 + 1 y_61_ ^ 2 - 2 y_92_ * y_61_ + 1 y_92_ ^ 2 ] <= 4856.08
quadratic_ranged_177_ub: [ 1 x_12_ ^ 2 - 2 x_93_ * x_12_ + 1 x_93_ ^ 2 + 1 y_12_ ^ 2 - 2 y_93_ * y_12_ + 1 y_93_ ^ 2 ] <= 26916.5
quadratic_ranged_178_ub: [ 1 x_58_ ^ 2 - 2 x_93_ * x_58_ + 1 x_93_ ^ 2 + 1 y_58_ ^ 2 - 2 y_93_ * y_58_ + 1 y_93_ ^ 2 ] <= 667.61
quadratic_ranged_179_ub: [ 1 x_14_ ^ 2 - 2 x_94_ * x_14_ + 1 x_94_ ^ 2 + 1 y_14_ ^ 2 - 2 y_94_ * y_14_ + 1 y_94_ ^ 2 ] <= 8082.02
quadratic_ranged_180_ub: [ 1 x_18_ ^ 2 - 2 x_94_ * x_18_ + 1 x_94_ ^ 2 + 1 y_18_ ^ 2 - 2 y_94_ * y_18_ + 1 y_94_ ^ 2 ] <= 1863.45
quadratic_ranged_181_ub: [ 1 x_26_ ^ 2 - 2 x_94_ * x_26_ + 1 x_94_ ^ 2 + 1 y_26_ ^ 2 - 2 y_94_ * y_26_ + 1 y_94_ ^ 2 ] <= 2232.1
quadratic_ranged_182_ub: [ 1 x_10_ ^ 2 - 2 x_95_ * x_10_ + 1 x_95_ ^ 2 + 1 y_10_ ^ 2 - 2 y_95_ * y_10_ + 1 y_95_ ^ 2 ] <= 2862.34
quadratic_ranged_183_ub: [ 1 x_43_ ^ 2 - 2 x_95_ * x_43_ + 1 x_95_ ^ 2 + 1 y_43_ ^ 2 - 2 y_95_ * y_43_ + 1 y_95_ ^ 2 ] <= 1955.3600000000001
quadratic_ranged_184_ub: [ 1 x_5_ ^ 2 - 2 x_96_ * x_5_ + 1 x_96_ ^ 2 + 1 y_5_ ^ 2 - 2 y_96_ * y_5_ + 1 y_96_ ^ 2 ] <= 18427.45
quadratic_ranged_185_ub: [ 1 x_45_ ^ 2 - 2 x_96_ * x_45_ + 1 x_96_ ^ 2 + 1 y_45_ ^ 2 - 2 y_96_ * y_45_ + 1 y_96_ ^ 2 ] <= 16694.29
quadratic_ranged_186_ub: [ 1 x_47_ ^ 2 - 2 x_96_ * x_47_ + 1 x_96_ ^ 2 + 1 y_47_ ^ 2 - 2 y_96_ * y_47_ + 1 y_96_ ^ 2 ] <= 13175.45
quadratic_ranged_187_ub: [ 1 x_48_ ^ 2 - 2 x_97_ * x_48_ + 1 x_97_ ^ 2 + 1 y_48_ ^ 2 - 2 y_97_ * y_48_ + 1 y_97_ ^ 2 ] <= 1181.7
quadratic_ranged_188_ub: [ 1 x_76_ ^ 2 - 2 x_97_ * x_76_ + 1 x_97_ ^ 2 + 1 y_76_ ^ 2 - 2 y_97_ * y_76_ + 1 y_97_ ^ 2 ] <= 14112.73
quadratic_ranged_189_ub: [ 1 x_84_ ^ 2 - 2 x_97_ * x_84_ + 1 x_97_ ^ 2 + 1 y_84_ ^ 2 - 2 y_97_ * y_84_ + 1 y_97_ ^ 2 ] <= 11575.61
quadratic_ranged_190_ub: [ 1 x_19_ ^ 2 - 2 x_98_ * x_19_ + 1 x_98_ ^ 2 + 1 y_19_ ^ 2 - 2 y_98_ * y_19_ + 1 y_98_ ^ 2 ] <= 11540.26
quadratic_ranged_191_ub: [ 1 x_43_ ^ 2 - 2 x_98_ * x_43_ + 1 x_98_ ^ 2 + 1 y_43_ ^ 2 - 2 y_98_ * y_43_ + 1 y_98_ ^ 2 ] <= 1459.45
quadratic_ranged_192_ub: [ 1 x_89_ ^ 2 - 2 x_98_ * x_89_ + 1 x_98_ ^ 2 + 1 y_89_ ^ 2 - 2 y_98_ * y_89_ + 1 y_98_ ^ 2 ] <= 995.86
quadratic_ranged_193_ub: [ 1 x_67_ ^ 2 - 2 x_99_ * x_67_ + 1 x_99_ ^ 2 + 1 y_67_ ^ 2 - 2 y_99_ * y_67_ + 1 y_99_ ^ 2 ] <= 15607.53
quadratic_ranged_194_ub: [ 1 x_86_ ^ 2 - 2 x_99_ * x_86_ + 1 x_99_ ^ 2 + 1 y_86_ ^ 2 - 2 y_99_ * y_86_ + 1 y_99_ ^ 2 ] <= 10816.09
quadratic_ranged_195_ub: [ 1 x_92_ ^ 2 - 2 x_99_ * x_92_ + 1 x_99_ ^ 2 + 1 y_92_ ^ 2 - 2 y_99_ * y_92_ + 1 y_99_ ^ 2 ] <= 16244.84
quadratic_ranged_196_ub: [ 1 x_17_ ^ 2 - 2 x_100_ * x_17_ + 1 x_100_ ^ 2 + 1 y_17_ ^ 2 - 2 y_100_ * y_17_ + 1 y_100_ ^ 2 ] <= 38541.6
quadratic_ranged_197_ub: [ 1 x_33_ ^ 2 - 2 x_100_ * x_33_ + 1 x_100_ ^ 2 + 1 y_33_ ^ 2 - 2 y_100_ * y_33_ + 1 y_100_ ^ 2 ] <= 18265.85
quadratic_ranged_1_lb: [ 1 x_1_ ^ 2 - 2 x_4_ * x_1_ + 1 x_4_ ^ 2 + 1 y_1_ ^ 2 - 2 y_4_ * y_1_ + 1 y_4_ ^ 2 ] >= 2895.75
quadratic_ranged_2_lb: [ 1 x_3_ ^ 2 - 2 x_4_ * x_3_ + 1 x_4_ ^ 2 + 1 y_3_ ^ 2 - 2 y_4_ * y_3_ + 1 y_4_ ^ 2 ] >= 1762.2
quadratic_ranged_3_lb: [ 1 x_2_ ^ 2 - 2 x_5_ * x_2_ + 1 x_5_ ^ 2 + 1 y_2_ ^ 2 - 2 y_5_ * y_2_ + 1 y_5_ ^ 2 ] >= 32869.98
quadratic_ranged_4_lb: [ 1 x_3_ ^ 2 - 2 x_5_ * x_3_ + 1 x_5_ ^ 2 + 1 y_3_ ^ 2 - 2 y_5_ * y_3_ + 1 y_5_ ^ 2 ] >= 6597.36
quadratic_ranged_5_lb: [ 1 x_2_ ^ 2 - 2 x_6_ * x_2_ + 1 x_6_ ^ 2 + 1 y_2_ ^ 2 - 2 y_6_ * y_2_ + 1 y_6_ ^ 2 ] >= 28609.02
quadratic_ranged_6_lb: [ 1 x_2_ ^ 2 - 2 x_7_ * x_2_ + 1 x_7_ ^ 2 + 1 y_2_ ^ 2 - 2 y_7_ * y_2_ + 1 y_7_ ^ 2 ] >= 4459.95
quadratic_ranged_7_lb: [ 1 x_3_ ^ 2 - 2 x_8_ * x_3_ + 1 x_8_ ^ 2 + 1 y_3_ ^ 2 - 2 y_8_ * y_3_ + 1 y_8_ ^ 2 ] >= 1735.47
quadratic_ranged_8_lb: [ 1 x_4_ ^ 2 - 2 x_8_ * x_4_ + 1 x_8_ ^ 2 + 1 y_4_ ^ 2 - 2 y_8_ * y_4_ + 1 y_8_ ^ 2 ] >= 5944.95
quadratic_ranged_9_lb: [ 1 x_6_ ^ 2 - 2 x_10_ * x_6_ + 1 x_10_ ^ 2 + 1 y_6_ ^ 2 - 2 y_10_ * y_6_ + 1 y_10_ ^ 2 ] >= 6558.75
quadratic_ranged_10_lb: [ 1 x_9_ ^ 2 - 2 x_10_ * x_9_ + 1 x_10_ ^ 2 + 1 y_9_ ^ 2 - 2 y_10_ * y_9_ + 1 y_10_ ^ 2 ] >= 14355
quadratic_ranged_11_lb: [ 1 x_1_ ^ 2 - 2 x_11_ * x_1_ + 1 x_11_ ^ 2 + 1 y_1_ ^ 2 - 2 y_11_ * y_1_ + 1 y_11_ ^ 2 ] >= 3260.07
quadratic_ranged_12_lb: [ 1 x_3_ ^ 2 - 2 x_11_ * x_3_ + 1 x_11_ ^ 2 + 1 y_3_ ^ 2 - 2 y_11_ * y_3_ + 1 y_11_ ^ 2 ] >= 1916.6399999999999
quadratic_ranged_13_lb: [ 1 x_6_ ^ 2 - 2 x_11_ * x_6_ + 1 x_11_ ^ 2 + 1 y_6_ ^ 2 - 2 y_11_ * y_6_ + 1 y_11_ ^ 2 ] >= 13408.56
quadratic_ranged_14_lb: [ 1 x_3_ ^ 2 - 2 x_12_ * x_3_ + 1 x_12_ ^ 2 + 1 y_3_ ^ 2 - 2 y_12_ * y_3_ + 1 y_12_ ^ 2 ] >= 11287.98
quadratic_ranged_15_lb: [ 1 x_9_ ^ 2 - 2 x_12_ * x_9_ + 1 x_12_ ^ 2 + 1 y_9_ ^ 2 - 2 y_12_ * y_9_ + 1 y_12_ ^ 2 ] >= 670.23
quadratic_ranged_16_lb: [ 1 x_3_ ^ 2 - 2 x_13_ * x_3_ + 1 x_13_ ^ 2 + 1 y_3_ ^ 2 - 2 y_13_ * y_3_ + 1 y_13_ ^ 2 ] >= 195.03
quadratic_ranged_17_lb: [ 1 x_13_ ^ 2 - 2 x_15_ * x_13_ + 1 x_15_ ^ 2 + 1 y_13_ ^ 2 - 2 y_15_ * y_13_ + 1 y_15_ ^ 2 ] >= 16283.52
quadratic_ranged_18_lb: [ 1 x_14_ ^ 2 - 2 x_15_ * x_14_ + 1 x_15_ ^ 2 + 1 y_14_ ^ 2 - 2 y_15_ * y_14_ + 1 y_15_ ^ 2 ] >= 1042.47
quadratic_ranged_19_lb: [ 1 x_6_ ^ 2 - 2 x_16_ * x_6_ + 1 x_16_ ^ 2 + 1 y_6_ ^ 2 - 2 y_16_ * y_6_ + 1 y_16_ ^ 2 ] >= 13814.46
quadratic_ranged_20_lb: [ 1 x_13_ ^ 2 - 2 x_16_ * x_13_ + 1 x_16_ ^ 2 + 1 y_13_ ^ 2 - 2 y_16_ * y_13_ + 1 y_16_ ^ 2 ] >= 4855.95
quadratic_ranged_21_lb: [ 1 x_11_ ^ 2 - 2 x_17_ * x_11_ + 1 x_17_ ^ 2 + 1 y_11_ ^ 2 - 2 y_17_ * y_11_ + 1 y_17_ ^ 2 ] >= 18224.91
quadratic_ranged_22_lb: [ 1 x_9_ ^ 2 - 2 x_18_ * x_9_ + 1 x_18_ ^ 2 + 1 y_9_ ^ 2 - 2 y_18_ * y_9_ + 1 y_18_ ^ 2 ] >= 11596.86
quadratic_ranged_23_lb: [ 1 x_5_ ^ 2 - 2 x_19_ * x_5_ + 1 x_19_ ^ 2 + 1 y_5_ ^ 2 - 2 y_19_ * y_5_ + 1 y_19_ ^ 2 ] >= 29305.98
quadratic_ranged_24_lb: [ 1 x_7_ ^ 2 - 2 x_19_ * x_7_ + 1 x_19_ ^ 2 + 1 y_7_ ^ 2 - 2 y_19_ * y_7_ + 1 y_19_ ^ 2 ] >= 10491.03
quadratic_ranged_25_lb: [ 1 x_11_ ^ 2 - 2 x_19_ * x_11_ + 1 x_19_ ^ 2 + 1 y_11_ ^ 2 - 2 y_19_ * y_11_ + 1 y_19_ ^ 2 ] >= 14543.1
quadratic_ranged_26_lb: [ 1 x_1_ ^ 2 - 2 x_20_ * x_1_ + 1 x_20_ ^ 2 + 1 y_1_ ^ 2 - 2 y_20_ * y_1_ + 1 y_20_ ^ 2 ] >= 3315.5099999999998
quadratic_ranged_27_lb: [ 1 x_7_ ^ 2 - 2 x_21_ * x_7_ + 1 x_21_ ^ 2 + 1 y_7_ ^ 2 - 2 y_21_ * y_7_ + 1 y_21_ ^ 2 ] >= 12388.86
quadratic_ranged_28_lb: [ 1 x_1_ ^ 2 - 2 x_22_ * x_1_ + 1 x_22_ ^ 2 + 1 y_1_ ^ 2 - 2 y_22_ * y_1_ + 1 y_22_ ^ 2 ] >= 5291.55
quadratic_ranged_29_lb: [ 1 x_8_ ^ 2 - 2 x_23_ * x_8_ + 1 x_23_ ^ 2 + 1 y_8_ ^ 2 - 2 y_23_ * y_8_ + 1 y_23_ ^ 2 ] >= 15796.44
quadratic_ranged_30_lb: [ 1 x_16_ ^ 2 - 2 x_23_ * x_16_ + 1 x_23_ ^ 2 + 1 y_16_ ^ 2 - 2 y_23_ * y_16_ + 1 y_23_ ^ 2 ] >= 2959.11
quadratic_ranged_31_lb: [ 1 x_6_ ^ 2 - 2 x_24_ * x_6_ + 1 x_24_ ^ 2 + 1 y_6_ ^ 2 - 2 y_24_ * y_6_ + 1 y_24_ ^ 2 ] >= 19626.75
quadratic_ranged_32_lb: [ 1 x_11_ ^ 2 - 2 x_24_ * x_11_ + 1 x_24_ ^ 2 + 1 y_11_ ^ 2 - 2 y_24_ * y_11_ + 1 y_24_ ^ 2 ] >= 6641.91
quadratic_ranged_33_lb: [ 1 x_4_ ^ 2 - 2 x_25_ * x_4_ + 1 x_25_ ^ 2 + 1 y_4_ ^ 2 - 2 y_25_ * y_4_ + 1 y_25_ ^ 2 ] >= 10979.1
quadratic_ranged_34_lb: [ 1 x_12_ ^ 2 - 2 x_25_ * x_12_ + 1 x_25_ ^ 2 + 1 y_12_ ^ 2 - 2 y_25_ * y_12_ + 1 y_25_ ^ 2 ] >= 14905.44
quadratic_ranged_35_lb: [ 1 x_13_ ^ 2 - 2 x_25_ * x_13_ + 1 x_25_ ^ 2 + 1 y_13_ ^ 2 - 2 y_25_ * y_13_ + 1 y_25_ ^ 2 ] >= 7465.59
quadratic_ranged_36_lb: [ 1 x_17_ ^ 2 - 2 x_26_ * x_17_ + 1 x_26_ ^ 2 + 1 y_17_ ^ 2 - 2 y_26_ * y_17_ + 1 y_26_ ^ 2 ] >= 3921.39
quadratic_ranged_37_lb: [ 1 x_18_ ^ 2 - 2 x_26_ * x_18_ + 1 x_26_ ^ 2 + 1 y_18_ ^ 2 - 2 y_26_ * y_18_ + 1 y_26_ ^ 2 ] >= 1371.15
quadratic_ranged_38_lb: [ 1 x_3_ ^ 2 - 2 x_27_ * x_3_ + 1 x_27_ ^ 2 + 1 y_3_ ^ 2 - 2 y_27_ * y_3_ + 1 y_27_ ^ 2 ] >= 6824.07
quadratic_ranged_39_lb: [ 1 x_6_ ^ 2 - 2 x_27_ * x_6_ + 1 x_27_ ^ 2 + 1 y_6_ ^ 2 - 2 y_27_ * y_6_ + 1 y_27_ ^ 2 ] >= 23262.03
quadratic_ranged_40_lb: [ 1 x_17_ ^ 2 - 2 x_27_ * x_17_ + 1 x_27_ ^ 2 + 1 y_17_ ^ 2 - 2 y_27_ * y_17_ + 1 y_27_ ^ 2 ] >= 28329.84
quadratic_ranged_41_lb: [ 1 x_7_ ^ 2 - 2 x_28_ * x_7_ + 1 x_28_ ^ 2 + 1 y_7_ ^ 2 - 2 y_28_ * y_7_ + 1 y_28_ ^ 2 ] >= 24616.35
quadratic_ranged_42_lb: [ 1 x_28_ ^ 2 - 2 x_29_ * x_28_ + 1 x_29_ ^ 2 + 1 y_28_ ^ 2 - 2 y_29_ * y_28_ + 1 y_29_ ^ 2 ] >= 9519.84
quadratic_ranged_43_lb: [ 1 x_15_ ^ 2 - 2 x_30_ * x_15_ + 1 x_30_ ^ 2 + 1 y_15_ ^ 2 - 2 y_30_ * y_15_ + 1 y_30_ ^ 2 ] >= 12431.43
quadratic_ranged_44_lb: [ 1 x_4_ ^ 2 - 2 x_31_ * x_4_ + 1 x_31_ ^ 2 + 1 y_4_ ^ 2 - 2 y_31_ * y_4_ + 1 y_31_ ^ 2 ] >= 19207.98
quadratic_ranged_45_lb: [ 1 x_23_ ^ 2 - 2 x_31_ * x_23_ + 1 x_31_ ^ 2 + 1 y_23_ ^ 2 - 2 y_31_ * y_23_ + 1 y_31_ ^ 2 ] >= 32754.15
quadratic_ranged_46_lb: [ 1 x_3_ ^ 2 - 2 x_32_ * x_3_ + 1 x_32_ ^ 2 + 1 y_3_ ^ 2 - 2 y_32_ * y_3_ + 1 y_32_ ^ 2 ] >= 15309.36
quadratic_ranged_47_lb: [ 1 x_12_ ^ 2 - 2 x_32_ * x_12_ + 1 x_32_ ^ 2 + 1 y_12_ ^ 2 - 2 y_32_ * y_12_ + 1 y_32_ ^ 2 ] >= 13988.7
quadratic_ranged_48_lb: [ 1 x_18_ ^ 2 - 2 x_32_ * x_18_ + 1 x_32_ ^ 2 + 1 y_18_ ^ 2 - 2 y_32_ * y_18_ + 1 y_32_ ^ 2 ] >= 4883.67
quadratic_ranged_49_lb: [ 1 x_12_ ^ 2 - 2 x_33_ * x_12_ + 1 x_33_ ^ 2 + 1 y_12_ ^ 2 - 2 y_33_ * y_12_ + 1 y_33_ ^ 2 ] >= 28563.48
quadratic_ranged_50_lb: [ 1 x_26_ ^ 2 - 2 x_33_ * x_26_ + 1 x_33_ ^ 2 + 1 y_26_ ^ 2 - 2 y_33_ * y_26_ + 1 y_33_ ^ 2 ] >= 14020.38
quadratic_ranged_51_lb: [ 1 x_11_ ^ 2 - 2 x_34_ * x_11_ + 1 x_34_ ^ 2 + 1 y_11_ ^ 2 - 2 y_34_ * y_11_ + 1 y_34_ ^ 2 ] >= 9163.44
quadratic_ranged_52_lb: [ 1 x_22_ ^ 2 - 2 x_34_ * x_22_ + 1 x_34_ ^ 2 + 1 y_22_ ^ 2 - 2 y_34_ * y_22_ + 1 y_34_ ^ 2 ] >= 19065.42
quadratic_ranged_53_lb: [ 1 x_23_ ^ 2 - 2 x_34_ * x_23_ + 1 x_34_ ^ 2 + 1 y_23_ ^ 2 - 2 y_34_ * y_23_ + 1 y_34_ ^ 2 ] >= 16850.79
quadratic_ranged_54_lb: [ 1 x_24_ ^ 2 - 2 x_35_ * x_24_ + 1 x_35_ ^ 2 + 1 y_24_ ^ 2 - 2 y_35_ * y_24_ + 1 y_35_ ^ 2 ] >= 23095.71
quadratic_ranged_55_lb: [ 1 x_20_ ^ 2 - 2 x_36_ * x_20_ + 1 x_36_ ^ 2 + 1 y_20_ ^ 2 - 2 y_36_ * y_20_ + 1 y_36_ ^ 2 ] >= 10060.38
quadratic_ranged_56_lb: [ 1 x_24_ ^ 2 - 2 x_36_ * x_24_ + 1 x_36_ ^ 2 + 1 y_24_ ^ 2 - 2 y_36_ * y_24_ + 1 y_36_ ^ 2 ] >= 19246.59
quadratic_ranged_57_lb: [ 1 x_10_ ^ 2 - 2 x_37_ * x_10_ + 1 x_37_ ^ 2 + 1 y_10_ ^ 2 - 2 y_37_ * y_10_ + 1 y_37_ ^ 2 ] >= 722.7
quadratic_ranged_58_lb: [ 1 x_20_ ^ 2 - 2 x_37_ * x_20_ + 1 x_37_ ^ 2 + 1 y_20_ ^ 2 - 2 y_37_ * y_20_ + 1 y_37_ ^ 2 ] >= 5964.75
quadratic_ranged_59_lb: [ 1 x_16_ ^ 2 - 2 x_39_ * x_16_ + 1 x_39_ ^ 2 + 1 y_16_ ^ 2 - 2 y_39_ * y_16_ + 1 y_39_ ^ 2 ] >= 20358.36
quadratic_ranged_60_lb: [ 1 x_37_ ^ 2 - 2 x_39_ * x_37_ + 1 x_39_ ^ 2 + 1 y_37_ ^ 2 - 2 y_39_ * y_37_ + 1 y_39_ ^ 2 ] >= 373.23
quadratic_ranged_61_lb: [ 1 x_6_ ^ 2 - 2 x_40_ * x_6_ + 1 x_40_ ^ 2 + 1 y_6_ ^ 2 - 2 y_40_ * y_6_ + 1 y_40_ ^ 2 ] >= 21964.14
quadratic_ranged_62_lb: [ 1 x_16_ ^ 2 - 2 x_40_ * x_16_ + 1 x_40_ ^ 2 + 1 y_16_ ^ 2 - 2 y_40_ * y_16_ + 1 y_40_ ^ 2 ] >= 11646.36
quadratic_ranged_63_lb: [ 1 x_21_ ^ 2 - 2 x_40_ * x_21_ + 1 x_40_ ^ 2 + 1 y_21_ ^ 2 - 2 y_40_ * y_21_ + 1 y_40_ ^ 2 ] >= 12589.83
quadratic_ranged_64_lb: [ 1 x_3_ ^ 2 - 2 x_41_ * x_3_ + 1 x_41_ ^ 2 + 1 y_3_ ^ 2 - 2 y_41_ * y_3_ + 1 y_41_ ^ 2 ] >= 1952.28
quadratic_ranged_65_lb: [ 1 x_14_ ^ 2 - 2 x_41_ * x_14_ + 1 x_41_ ^ 2 + 1 y_14_ ^ 2 - 2 y_41_ * y_14_ + 1 y_41_ ^ 2 ] >= 5480.64
quadratic_ranged_66_lb: [ 1 x_37_ ^ 2 - 2 x_41_ * x_37_ + 1 x_41_ ^ 2 + 1 y_37_ ^ 2 - 2 y_41_ * y_37_ + 1 y_41_ ^ 2 ] >= 2499.75
quadratic_ranged_67_lb: [ 1 x_21_ ^ 2 - 2 x_42_ * x_21_ + 1 x_42_ ^ 2 + 1 y_21_ ^ 2 - 2 y_42_ * y_21_ + 1 y_42_ ^ 2 ] >= 12406.68
quadratic_ranged_68_lb: [ 1 x_36_ ^ 2 - 2 x_42_ * x_36_ + 1 x_42_ ^ 2 + 1 y_36_ ^ 2 - 2 y_42_ * y_36_ + 1 y_42_ ^ 2 ] >= 4325.31
quadratic_ranged_69_lb: [ 1 x_6_ ^ 2 - 2 x_43_ * x_6_ + 1 x_43_ ^ 2 + 1 y_6_ ^ 2 - 2 y_43_ * y_6_ + 1 y_43_ ^ 2 ] >= 22038.39
quadratic_ranged_70_lb: [ 1 x_21_ ^ 2 - 2 x_43_ * x_21_ + 1 x_43_ ^ 2 + 1 y_21_ ^ 2 - 2 y_43_ * y_21_ + 1 y_43_ ^ 2 ] >= 7227
quadratic_ranged_71_lb: [ 1 x_7_ ^ 2 - 2 x_44_ * x_7_ + 1 x_44_ ^ 2 + 1 y_7_ ^ 2 - 2 y_44_ * y_7_ + 1 y_44_ ^ 2 ] >= 4341.15
quadratic_ranged_72_lb: [ 1 x_28_ ^ 2 - 2 x_44_ * x_28_ + 1 x_44_ ^ 2 + 1 y_28_ ^ 2 - 2 y_44_ * y_28_ + 1 y_44_ ^ 2 ] >= 14762.88
quadratic_ranged_73_lb: [ 1 x_38_ ^ 2 - 2 x_44_ * x_38_ + 1 x_44_ ^ 2 + 1 y_38_ ^ 2 - 2 y_44_ * y_38_ + 1 y_44_ ^ 2 ] >= 11013.75
quadratic_ranged_74_lb: [ 1 x_4_ ^ 2 - 2 x_45_ * x_4_ + 1 x_45_ ^ 2 + 1 y_4_ ^ 2 - 2 y_45_ * y_4_ + 1 y_45_ ^ 2 ] >= 9266.4
quadratic_ranged_75_lb: [ 1 x_7_ ^ 2 - 2 x_45_ * x_7_ + 1 x_45_ ^ 2 + 1 y_7_ ^ 2 - 2 y_45_ * y_7_ + 1 y_45_ ^ 2 ] >= 11465.19
quadratic_ranged_76_lb: [ 1 x_6_ ^ 2 - 2 x_46_ * x_6_ + 1 x_46_ ^ 2 + 1 y_6_ ^ 2 - 2 y_46_ * y_6_ + 1 y_46_ ^ 2 ] >= 24235.2
quadratic_ranged_77_lb: [ 1 x_34_ ^ 2 - 2 x_46_ * x_34_ + 1 x_46_ ^ 2 + 1 y_34_ ^ 2 - 2 y_46_ * y_34_ + 1 y_46_ ^ 2 ] >= 18754.56
quadratic_ranged_78_lb: [ 1 x_2_ ^ 2 - 2 x_47_ * x_2_ + 1 x_47_ ^ 2 + 1 y_2_ ^ 2 - 2 y_47_ * y_2_ + 1 y_47_ ^ 2 ] >= 3882.7799999999997
quadratic_ranged_79_lb: [ 1 x_16_ ^ 2 - 2 x_48_ * x_16_ + 1 x_48_ ^ 2 + 1 y_16_ ^ 2 - 2 y_48_ * y_16_ + 1 y_48_ ^ 2 ] >= 9105.03
quadratic_ranged_80_lb: [ 1 x_34_ ^ 2 - 2 x_48_ * x_34_ + 1 x_48_ ^ 2 + 1 y_34_ ^ 2 - 2 y_48_ * y_34_ + 1 y_48_ ^ 2 ] >= 143.55
quadratic_ranged_81_lb: [ 1 x_13_ ^ 2 - 2 x_49_ * x_13_ + 1 x_49_ ^ 2 + 1 y_13_ ^ 2 - 2 y_49_ * y_13_ + 1 y_49_ ^ 2 ] >= 5468.76
quadratic_ranged_82_lb: [ 1 x_21_ ^ 2 - 2 x_49_ * x_21_ + 1 x_49_ ^ 2 + 1 y_21_ ^ 2 - 2 y_49_ * y_21_ + 1 y_49_ ^ 2 ] >= 6821.1
quadratic_ranged_83_lb: [ 1 x_11_ ^ 2 - 2 x_50_ * x_11_ + 1 x_50_ ^ 2 + 1 y_11_ ^ 2 - 2 y_50_ * y_11_ + 1 y_50_ ^ 2 ] >= 2205.72
quadratic_ranged_84_lb: [ 1 x_29_ ^ 2 - 2 x_50_ * x_29_ + 1 x_50_ ^ 2 + 1 y_29_ ^ 2 - 2 y_50_ * y_29_ + 1 y_50_ ^ 2 ] >= 9751.5
quadratic_ranged_85_lb: [ 1 x_47_ ^ 2 - 2 x_50_ * x_47_ + 1 x_50_ ^ 2 + 1 y_47_ ^ 2 - 2 y_50_ * y_47_ + 1 y_50_ ^ 2 ] >= 13008.6
quadratic_ranged_86_lb: [ 1 x_5_ ^ 2 - 2 x_51_ * x_5_ + 1 x_51_ ^ 2 + 1 y_5_ ^ 2 - 2 y_51_ * y_5_ + 1 y_51_ ^ 2 ] >= 5134.14
quadratic_ranged_87_lb: [ 1 x_8_ ^ 2 - 2 x_51_ * x_8_ + 1 x_51_ ^ 2 + 1 y_8_ ^ 2 - 2 y_51_ * y_8_ + 1 y_51_ ^ 2 ] >= 7307.19
quadratic_ranged_88_lb: [ 1 x_3_ ^ 2 - 2 x_52_ * x_3_ + 1 x_52_ ^ 2 + 1 y_3_ ^ 2 - 2 y_52_ * y_3_ + 1 y_52_ ^ 2 ] >= 7019.1
quadratic_ranged_89_lb: [ 1 x_20_ ^ 2 - 2 x_52_ * x_20_ + 1 x_52_ ^ 2 + 1 y_20_ ^ 2 - 2 y_52_ * y_20_ + 1 y_52_ ^ 2 ] >= 9703.98
quadratic_ranged_90_lb: [ 1 x_20_ ^ 2 - 2 x_53_ * x_20_ + 1 x_53_ ^ 2 + 1 y_20_ ^ 2 - 2 y_53_ * y_20_ + 1 y_53_ ^ 2 ] >= 610.83
quadratic_ranged_91_lb: [ 1 x_42_ ^ 2 - 2 x_53_ * x_42_ + 1 x_53_ ^ 2 + 1 y_42_ ^ 2 - 2 y_53_ * y_42_ + 1 y_53_ ^ 2 ] >= 20467.26
quadratic_ranged_92_lb: [ 1 x_3_ ^ 2 - 2 x_54_ * x_3_ + 1 x_54_ ^ 2 + 1 y_3_ ^ 2 - 2 y_54_ * y_3_ + 1 y_54_ ^ 2 ] >= 7225.0199999999995
quadratic_ranged_93_lb: [ 1 x_7_ ^ 2 - 2 x_54_ * x_7_ + 1 x_54_ ^ 2 + 1 y_7_ ^ 2 - 2 y_54_ * y_7_ + 1 y_54_ ^ 2 ] >= 12930.39
quadratic_ranged_94_lb: [ 1 x_5_ ^ 2 - 2 x_55_ * x_5_ + 1 x_55_ ^ 2 + 1 y_5_ ^ 2 - 2 y_55_ * y_5_ + 1 y_55_ ^ 2 ] >= 881.1
quadratic_ranged_95_lb: [ 1 x_22_ ^ 2 - 2 x_55_ * x_22_ + 1 x_55_ ^ 2 + 1 y_22_ ^ 2 - 2 y_55_ * y_22_ + 1 y_55_ ^ 2 ] >= 20813.76
quadratic_ranged_96_lb: [ 1 x_2_ ^ 2 - 2 x_56_ * x_2_ + 1 x_56_ ^ 2 + 1 y_2_ ^ 2 - 2 y_56_ * y_2_ + 1 y_56_ ^ 2 ] >= 42920.46
quadratic_ranged_97_lb: [ 1 x_48_ ^ 2 - 2 x_56_ * x_48_ + 1 x_56_ ^ 2 + 1 y_48_ ^ 2 - 2 y_56_ * y_48_ + 1 y_56_ ^ 2 ] >= 2103.75
quadratic_ranged_98_lb: [ 1 x_54_ ^ 2 - 2 x_56_ * x_54_ + 1 x_56_ ^ 2 + 1 y_54_ ^ 2 - 2 y_56_ * y_54_ + 1 y_56_ ^ 2 ] >= 16641.9
quadratic_ranged_99_lb: [ 1 x_19_ ^ 2 - 2 x_57_ * x_19_ + 1 x_57_ ^ 2 + 1 y_19_ ^ 2 - 2 y_57_ * y_19_ + 1 y_57_ ^ 2 ] >= 2994.75
quadratic_ranged_100_lb: [ 1 x_37_ ^ 2 - 2 x_58_ * x_37_ + 1 x_58_ ^ 2 + 1 y_37_ ^ 2 - 2 y_58_ * y_37_ + 1 y_58_ ^ 2 ] >= 5235.12
quadratic_ranged_101_lb: [ 1 x_40_ ^ 2 - 2 x_58_ * x_40_ + 1 x_58_ ^ 2 + 1 y_40_ ^ 2 - 2 y_58_ * y_40_ + 1 y_58_ ^ 2 ] >= 22097.79
quadratic_ranged_102_lb: [ 1 x_35_ ^ 2 - 2 x_59_ * x_35_ + 1 x_59_ ^ 2 + 1 y_35_ ^ 2 - 2 y_59_ * y_35_ + 1 y_59_ ^ 2 ] >= 3061.08
quadratic_ranged_103_lb: [ 1 x_42_ ^ 2 - 2 x_59_ * x_42_ + 1 x_59_ ^ 2 + 1 y_42_ ^ 2 - 2 y_59_ * y_42_ + 1 y_59_ ^ 2 ] >= 5196.51
quadratic_ranged_104_lb: [ 1 x_21_ ^ 2 - 2 x_60_ * x_21_ + 1 x_60_ ^ 2 + 1 y_21_ ^ 2 - 2 y_60_ * y_21_ + 1 y_60_ ^ 2 ] >= 1969.11
quadratic_ranged_105_lb: [ 1 x_25_ ^ 2 - 2 x_60_ * x_25_ + 1 x_60_ ^ 2 + 1 y_25_ ^ 2 - 2 y_60_ * y_25_ + 1 y_60_ ^ 2 ] >= 4072.86
quadratic_ranged_106_lb: [ 1 x_28_ ^ 2 - 2 x_61_ * x_28_ + 1 x_61_ ^ 2 + 1 y_28_ ^ 2 - 2 y_61_ * y_28_ + 1 y_61_ ^ 2 ] >= 30322.71
quadratic_ranged_107_lb: [ 1 x_36_ ^ 2 - 2 x_62_ * x_36_ + 1 x_62_ ^ 2 + 1 y_36_ ^ 2 - 2 y_62_ * y_36_ + 1 y_62_ ^ 2 ] >= 714.78
quadratic_ranged_108_lb: [ 1 x_39_ ^ 2 - 2 x_63_ * x_39_ + 1 x_63_ ^ 2 + 1 y_39_ ^ 2 - 2 y_63_ * y_39_ + 1 y_63_ ^ 2 ] >= 16260.75
quadratic_ranged_109_lb: [ 1 x_42_ ^ 2 - 2 x_63_ * x_42_ + 1 x_63_ ^ 2 + 1 y_42_ ^ 2 - 2 y_63_ * y_42_ + 1 y_63_ ^ 2 ] >= 20988
quadratic_ranged_110_lb: [ 1 x_51_ ^ 2 - 2 x_63_ * x_51_ + 1 x_63_ ^ 2 + 1 y_51_ ^ 2 - 2 y_63_ * y_51_ + 1 y_63_ ^ 2 ] >= 1719.6299999999999
quadratic_ranged_111_lb: [ 1 x_31_ ^ 2 - 2 x_64_ * x_31_ + 1 x_64_ ^ 2 + 1 y_31_ ^ 2 - 2 y_64_ * y_31_ + 1 y_64_ ^ 2 ] >= 4506.48
quadratic_ranged_112_lb: [ 1 x_36_ ^ 2 - 2 x_64_ * x_36_ + 1 x_64_ ^ 2 + 1 y_36_ ^ 2 - 2 y_64_ * y_36_ + 1 y_64_ ^ 2 ] >= 7619.04
quadratic_ranged_113_lb: [ 1 x_21_ ^ 2 - 2 x_65_ * x_21_ + 1 x_65_ ^ 2 + 1 y_21_ ^ 2 - 2 y_65_ * y_21_ + 1 y_65_ ^ 2 ] >= 358.38
quadratic_ranged_114_lb: [ 1 x_62_ ^ 2 - 2 x_65_ * x_62_ + 1 x_65_ ^ 2 + 1 y_62_ ^ 2 - 2 y_65_ * y_62_ + 1 y_65_ ^ 2 ] >= 17112.15
quadratic_ranged_115_lb: [ 1 x_53_ ^ 2 - 2 x_66_ * x_53_ + 1 x_66_ ^ 2 + 1 y_53_ ^ 2 - 2 y_66_ * y_53_ + 1 y_66_ ^ 2 ] >= 1394.91
quadratic_ranged_116_lb: [ 1 x_3_ ^ 2 - 2 x_67_ * x_3_ + 1 x_67_ ^ 2 + 1 y_3_ ^ 2 - 2 y_67_ * y_3_ + 1 y_67_ ^ 2 ] >= 4260.96
quadratic_ranged_117_lb: [ 1 x_65_ ^ 2 - 2 x_67_ * x_65_ + 1 x_67_ ^ 2 + 1 y_65_ ^ 2 - 2 y_67_ * y_65_ + 1 y_67_ ^ 2 ] >= 5600.43
quadratic_ranged_118_lb: [ 1 x_9_ ^ 2 - 2 x_68_ * x_9_ + 1 x_68_ ^ 2 + 1 y_9_ ^ 2 - 2 y_68_ * y_9_ + 1 y_68_ ^ 2 ] >= 51952.229999999996
quadratic_ranged_119_lb: [ 1 x_38_ ^ 2 - 2 x_68_ * x_38_ + 1 x_68_ ^ 2 + 1 y_38_ ^ 2 - 2 y_68_ * y_38_ + 1 y_68_ ^ 2 ] >= 25368.75
quadratic_ranged_120_lb: [ 1 x_62_ ^ 2 - 2 x_68_ * x_62_ + 1 x_68_ ^ 2 + 1 y_62_ ^ 2 - 2 y_68_ * y_62_ + 1 y_68_ ^ 2 ] >= 30111.84
quadratic_ranged_121_lb: [ 1 x_37_ ^ 2 - 2 x_69_ * x_37_ + 1 x_69_ ^ 2 + 1 y_37_ ^ 2 - 2 y_69_ * y_37_ + 1 y_69_ ^ 2 ] >= 13116.51
quadratic_ranged_122_lb: [ 1 x_38_ ^ 2 - 2 x_69_ * x_38_ + 1 x_69_ ^ 2 + 1 y_38_ ^ 2 - 2 y_69_ * y_38_ + 1 y_69_ ^ 2 ] >= 37743.75
quadratic_ranged_123_lb: [ 1 x_40_ ^ 2 - 2 x_69_ * x_40_ + 1 x_69_ ^ 2 + 1 y_40_ ^ 2 - 2 y_69_ * y_40_ + 1 y_69_ ^ 2 ] >= 3280.86
quadratic_ranged_124_lb: [ 1 x_14_ ^ 2 - 2 x_70_ * x_14_ + 1 x_70_ ^ 2 + 1 y_14_ ^ 2 - 2 y_70_ * y_14_ + 1 y_70_ ^ 2 ] >= 1747.35
quadratic_ranged_125_lb: [ 1 x_22_ ^ 2 - 2 x_70_ * x_22_ + 1 x_70_ ^ 2 + 1 y_22_ ^ 2 - 2 y_70_ * y_22_ + 1 y_70_ ^ 2 ] >= 4277.79
quadratic_ranged_126_lb: [ 1 x_66_ ^ 2 - 2 x_70_ * x_66_ + 1 x_70_ ^ 2 + 1 y_66_ ^ 2 - 2 y_70_ * y_66_ + 1 y_70_ ^ 2 ] >= 7877.43
quadratic_ranged_127_lb: [ 1 x_15_ ^ 2 - 2 x_71_ * x_15_ + 1 x_71_ ^ 2 + 1 y_15_ ^ 2 - 2 y_71_ * y_15_ + 1 y_71_ ^ 2 ] >= 22908.6
quadratic_ranged_128_lb: [ 1 x_45_ ^ 2 - 2 x_71_ * x_45_ + 1 x_71_ ^ 2 + 1 y_45_ ^ 2 - 2 y_71_ * y_45_ + 1 y_71_ ^ 2 ] >= 15547.95
quadratic_ranged_129_lb: [ 1 x_2_ ^ 2 - 2 x_72_ * x_2_ + 1 x_72_ ^ 2 + 1 y_2_ ^ 2 - 2 y_72_ * y_2_ + 1 y_72_ ^ 2 ] >= 20280.15
quadratic_ranged_130_lb: [ 1 x_12_ ^ 2 - 2 x_72_ * x_12_ + 1 x_72_ ^ 2 + 1 y_12_ ^ 2 - 2 y_72_ * y_12_ + 1 y_72_ ^ 2 ] >= 16755.75
quadratic_ranged_131_lb: [ 1 x_19_ ^ 2 - 2 x_72_ * x_19_ + 1 x_72_ ^ 2 + 1 y_19_ ^ 2 - 2 y_72_ * y_19_ + 1 y_72_ ^ 2 ] >= 27839.79
quadratic_ranged_132_lb: [ 1 x_43_ ^ 2 - 2 x_73_ * x_43_ + 1 x_73_ ^ 2 + 1 y_43_ ^ 2 - 2 y_73_ * y_43_ + 1 y_73_ ^ 2 ] >= 14545.08
quadratic_ranged_133_lb: [ 1 x_63_ ^ 2 - 2 x_73_ * x_63_ + 1 x_73_ ^ 2 + 1 y_63_ ^ 2 - 2 y_73_ * y_63_ + 1 y_73_ ^ 2 ] >= 7908.12
quadratic_ranged_134_lb: [ 1 x_10_ ^ 2 - 2 x_74_ * x_10_ + 1 x_74_ ^ 2 + 1 y_10_ ^ 2 - 2 y_74_ * y_10_ + 1 y_74_ ^ 2 ] >= 7413.12
quadratic_ranged_135_lb: [ 1 x_29_ ^ 2 - 2 x_74_ * x_29_ + 1 x_74_ ^ 2 + 1 y_29_ ^ 2 - 2 y_74_ * y_29_ + 1 y_74_ ^ 2 ] >= 13627.35
quadratic_ranged_136_lb: [ 1 x_8_ ^ 2 - 2 x_75_ * x_8_ + 1 x_75_ ^ 2 + 1 y_8_ ^ 2 - 2 y_75_ * y_8_ + 1 y_75_ ^ 2 ] >= 11619.63
quadratic_ranged_137_lb: [ 1 x_9_ ^ 2 - 2 x_75_ * x_9_ + 1 x_75_ ^ 2 + 1 y_9_ ^ 2 - 2 y_75_ * y_9_ + 1 y_75_ ^ 2 ] >= 49782.15
quadratic_ranged_138_lb: [ 1 x_33_ ^ 2 - 2 x_75_ * x_33_ + 1 x_75_ ^ 2 + 1 y_33_ ^ 2 - 2 y_75_ * y_33_ + 1 y_75_ ^ 2 ] >= 15539.039999999999
quadratic_ranged_139_lb: [ 1 x_19_ ^ 2 - 2 x_76_ * x_19_ + 1 x_76_ ^ 2 + 1 y_19_ ^ 2 - 2 y_76_ * y_19_ + 1 y_76_ ^ 2 ] >= 1809.72
quadratic_ranged_140_lb: [ 1 x_65_ ^ 2 - 2 x_76_ * x_65_ + 1 x_76_ ^ 2 + 1 y_65_ ^ 2 - 2 y_76_ * y_65_ + 1 y_76_ ^ 2 ] >= 1925.55
quadratic_ranged_141_lb: [ 1 x_35_ ^ 2 - 2 x_77_ * x_35_ + 1 x_77_ ^ 2 + 1 y_35_ ^ 2 - 2 y_77_ * y_35_ + 1 y_77_ ^ 2 ] >= 8380.35
quadratic_ranged_142_lb: [ 1 x_44_ ^ 2 - 2 x_77_ * x_44_ + 1 x_77_ ^ 2 + 1 y_44_ ^ 2 - 2 y_77_ * y_44_ + 1 y_77_ ^ 2 ] >= 3101.67
quadratic_ranged_143_lb: [ 1 x_10_ ^ 2 - 2 x_78_ * x_10_ + 1 x_78_ ^ 2 + 1 y_10_ ^ 2 - 2 y_78_ * y_10_ + 1 y_78_ ^ 2 ] >= 10756.35
quadratic_ranged_144_lb: [ 1 x_18_ ^ 2 - 2 x_78_ * x_18_ + 1 x_78_ ^ 2 + 1 y_18_ ^ 2 - 2 y_78_ * y_18_ + 1 y_78_ ^ 2 ] >= 10669.23
quadratic_ranged_145_lb: [ 1 x_17_ ^ 2 - 2 x_79_ * x_17_ + 1 x_79_ ^ 2 + 1 y_17_ ^ 2 - 2 y_79_ * y_17_ + 1 y_79_ ^ 2 ] >= 29253.51
quadratic_ranged_146_lb: [ 1 x_28_ ^ 2 - 2 x_79_ * x_28_ + 1 x_79_ ^ 2 + 1 y_28_ ^ 2 - 2 y_79_ * y_28_ + 1 y_79_ ^ 2 ] >= 29797.02
quadratic_ranged_147_lb: [ 1 x_30_ ^ 2 - 2 x_79_ * x_30_ + 1 x_79_ ^ 2 + 1 y_30_ ^ 2 - 2 y_79_ * y_30_ + 1 y_79_ ^ 2 ] >= 19176.3
quadratic_ranged_148_lb: [ 1 x_30_ ^ 2 - 2 x_80_ * x_30_ + 1 x_80_ ^ 2 + 1 y_30_ ^ 2 - 2 y_80_ * y_30_ + 1 y_80_ ^ 2 ] >= 27112.14
quadratic_ranged_149_lb: [ 1 x_52_ ^ 2 - 2 x_80_ * x_52_ + 1 x_80_ ^ 2 + 1 y_52_ ^ 2 - 2 y_80_ * y_52_ + 1 y_80_ ^ 2 ] >= 23461.02
quadratic_ranged_150_lb: [ 1 x_62_ ^ 2 - 2 x_80_ * x_62_ + 1 x_80_ ^ 2 + 1 y_62_ ^ 2 - 2 y_80_ * y_62_ + 1 y_80_ ^ 2 ] >= 11990.88
quadratic_ranged_151_lb: [ 1 x_16_ ^ 2 - 2 x_81_ * x_16_ + 1 x_81_ ^ 2 + 1 y_16_ ^ 2 - 2 y_81_ * y_16_ + 1 y_81_ ^ 2 ] >= 4899.51
quadratic_ranged_152_lb: [ 1 x_38_ ^ 2 - 2 x_81_ * x_38_ + 1 x_81_ ^ 2 + 1 y_38_ ^ 2 - 2 y_81_ * y_38_ + 1 y_81_ ^ 2 ] >= 26373.6
quadratic_ranged_153_lb: [ 1 x_8_ ^ 2 - 2 x_82_ * x_8_ + 1 x_82_ ^ 2 + 1 y_8_ ^ 2 - 2 y_82_ * y_8_ + 1 y_82_ ^ 2 ] >= 10939.5
quadratic_ranged_154_lb: [ 1 x_19_ ^ 2 - 2 x_82_ * x_19_ + 1 x_82_ ^ 2 + 1 y_19_ ^ 2 - 2 y_82_ * y_19_ + 1 y_82_ ^ 2 ] >= 29502.989999999998
quadratic_ranged_155_lb: [ 1 x_61_ ^ 2 - 2 x_82_ * x_61_ + 1 x_82_ ^ 2 + 1 y_61_ ^ 2 - 2 y_82_ * y_61_ + 1 y_82_ ^ 2 ] >= 28236.78
quadratic_ranged_156_lb: [ 1 x_9_ ^ 2 - 2 x_83_ * x_9_ + 1 x_83_ ^ 2 + 1 y_9_ ^ 2 - 2 y_83_ * y_9_ + 1 y_83_ ^ 2 ] >= 19484.19
quadratic_ranged_157_lb: [ 1 x_49_ ^ 2 - 2 x_83_ * x_49_ + 1 x_83_ ^ 2 + 1 y_49_ ^ 2 - 2 y_83_ * y_49_ + 1 y_83_ ^ 2 ] >= 15013.35
quadratic_ranged_158_lb: [ 1 x_57_ ^ 2 - 2 x_83_ * x_57_ + 1 x_83_ ^ 2 + 1 y_57_ ^ 2 - 2 y_83_ * y_57_ + 1 y_83_ ^ 2 ] >= 15939.99
quadratic_ranged_159_lb: [ 1 x_35_ ^ 2 - 2 x_84_ * x_35_ + 1 x_84_ ^ 2 + 1 y_35_ ^ 2 - 2 y_84_ * y_35_ + 1 y_84_ ^ 2 ] >= 19926.72
quadratic_ranged_160_lb: [ 1 x_49_ ^ 2 - 2 x_84_ * x_49_ + 1 x_84_ ^ 2 + 1 y_49_ ^ 2 - 2 y_84_ * y_49_ + 1 y_84_ ^ 2 ] >= 559.35
quadratic_ranged_161_lb: [ 1 x_58_ ^ 2 - 2 x_85_ * x_58_ + 1 x_85_ ^ 2 + 1 y_58_ ^ 2 - 2 y_85_ * y_58_ + 1 y_85_ ^ 2 ] >= 1380.06
quadratic_ranged_162_lb: [ 1 x_63_ ^ 2 - 2 x_85_ * x_63_ + 1 x_85_ ^ 2 + 1 y_63_ ^ 2 - 2 y_85_ * y_63_ + 1 y_85_ ^ 2 ] >= 27603.18
quadratic_ranged_163_lb: [ 1 x_22_ ^ 2 - 2 x_86_ * x_22_ + 1 x_86_ ^ 2 + 1 y_22_ ^ 2 - 2 y_86_ * y_22_ + 1 y_86_ ^ 2 ] >= 1570.1399999999999
quadratic_ranged_164_lb: [ 1 x_82_ ^ 2 - 2 x_86_ * x_82_ + 1 x_86_ ^ 2 + 1 y_82_ ^ 2 - 2 y_86_ * y_82_ + 1 y_86_ ^ 2 ] >= 37327.95
quadratic_ranged_165_lb: [ 1 x_17_ ^ 2 - 2 x_87_ * x_17_ + 1 x_87_ ^ 2 + 1 y_17_ ^ 2 - 2 y_87_ * y_17_ + 1 y_87_ ^ 2 ] >= 27194.31
quadratic_ranged_166_lb: [ 1 x_34_ ^ 2 - 2 x_87_ * x_34_ + 1 x_87_ ^ 2 + 1 y_34_ ^ 2 - 2 y_87_ * y_34_ + 1 y_87_ ^ 2 ] >= 18463.5
quadratic_ranged_167_lb: [ 1 x_19_ ^ 2 - 2 x_88_ * x_19_ + 1 x_88_ ^ 2 + 1 y_19_ ^ 2 - 2 y_88_ * y_19_ + 1 y_88_ ^ 2 ] >= 8594.19
quadratic_ranged_168_lb: [ 1 x_27_ ^ 2 - 2 x_88_ * x_27_ + 1 x_88_ ^ 2 + 1 y_27_ ^ 2 - 2 y_88_ * y_27_ + 1 y_88_ ^ 2 ] >= 7464.6
quadratic_ranged_169_lb: [ 1 x_29_ ^ 2 - 2 x_88_ * x_29_ + 1 x_88_ ^ 2 + 1 y_29_ ^ 2 - 2 y_88_ * y_29_ + 1 y_88_ ^ 2 ] >= 1145.43
quadratic_ranged_170_lb: [ 1 x_79_ ^ 2 - 2 x_89_ * x_79_ + 1 x_89_ ^ 2 + 1 y_79_ ^ 2 - 2 y_89_ * y_79_ + 1 y_89_ ^ 2 ] >= 49.5
quadratic_ranged_171_lb: [ 1 x_12_ ^ 2 - 2 x_90_ * x_12_ + 1 x_90_ ^ 2 + 1 y_12_ ^ 2 - 2 y_90_ * y_12_ + 1 y_90_ ^ 2 ] >= 42060.15
quadratic_ranged_172_lb: [ 1 x_25_ ^ 2 - 2 x_90_ * x_25_ + 1 x_90_ ^ 2 + 1 y_25_ ^ 2 - 2 y_90_ * y_25_ + 1 y_90_ ^ 2 ] >= 10744.47
quadratic_ranged_173_lb: [ 1 x_4_ ^ 2 - 2 x_91_ * x_4_ + 1 x_91_ ^ 2 + 1 y_4_ ^ 2 - 2 y_91_ * y_4_ + 1 y_91_ ^ 2 ] >= 4071.87
quadratic_ranged_174_lb: [ 1 x_27_ ^ 2 - 2 x_91_ * x_27_ + 1 x_91_ ^ 2 + 1 y_27_ ^ 2 - 2 y_91_ * y_27_ + 1 y_91_ ^ 2 ] >= 11028.6
quadratic_ranged_175_lb: [ 1 x_3_ ^ 2 - 2 x_92_ * x_3_ + 1 x_92_ ^ 2 + 1 y_3_ ^ 2 - 2 y_92_ * y_3_ + 1 y_92_ ^ 2 ] >= 1228.59
quadratic_ranged_176_lb: [ 1 x_61_ ^ 2 - 2 x_92_ * x_61_ + 1 x_92_ ^ 2 + 1 y_61_ ^ 2 - 2 y_92_ * y_61_ + 1 y_92_ ^ 2 ] >= 4759.92
quadratic_ranged_177_lb: [ 1 x_12_ ^ 2 - 2 x_93_ * x_12_ + 1 x_93_ ^ 2 + 1 y_12_ ^ 2 - 2 y_93_ * y_12_ + 1 y_93_ ^ 2 ] >= 26383.5
quadratic_ranged_178_lb: [ 1 x_58_ ^ 2 - 2 x_93_ * x_58_ + 1 x_93_ ^ 2 + 1 y_58_ ^ 2 - 2 y_93_ * y_58_ + 1 y_93_ ^ 2 ] >= 654.39
quadratic_ranged_179_lb: [ 1 x_14_ ^ 2 - 2 x_94_ * x_14_ + 1 x_94_ ^ 2 + 1 y_14_ ^ 2 - 2 y_94_ * y_14_ + 1 y_94_ ^ 2 ] >= 7921.98
quadratic_ranged_180_lb: [ 1 x_18_ ^ 2 - 2 x_94_ * x_18_ + 1 x_94_ ^ 2 + 1 y_18_ ^ 2 - 2 y_94_ * y_18_ + 1 y_94_ ^ 2 ] >= 1826.55
quadratic_ranged_181_lb: [ 1 x_26_ ^ 2 - 2 x_94_ * x_26_ + 1 x_94_ ^ 2 + 1 y_26_ ^ 2 - 2 y_94_ * y_26_ + 1 y_94_ ^ 2 ] >= 2187.9
quadratic_ranged_182_lb: [ 1 x_10_ ^ 2 - 2 x_95_ * x_10_ + 1 x_95_ ^ 2 + 1 y_10_ ^ 2 - 2 y_95_ * y_10_ + 1 y_95_ ^ 2 ] >= 2805.66
quadratic_ranged_183_lb: [ 1 x_43_ ^ 2 - 2 x_95_ * x_43_ + 1 x_95_ ^ 2 + 1 y_43_ ^ 2 - 2 y_95_ * y_43_ + 1 y_95_ ^ 2 ] >= 1916.6399999999999
quadratic_ranged_184_lb: [ 1 x_5_ ^ 2 - 2 x_96_ * x_5_ + 1 x_96_ ^ 2 + 1 y_5_ ^ 2 - 2 y_96_ * y_5_ + 1 y_96_ ^ 2 ] >= 18062.55
quadratic_ranged_185_lb: [ 1 x_45_ ^ 2 - 2 x_96_ * x_45_ + 1 x_96_ ^ 2 + 1 y_45_ ^ 2 - 2 y_96_ * y_45_ + 1 y_96_ ^ 2 ] >= 16363.71
quadratic_ranged_186_lb: [ 1 x_47_ ^ 2 - 2 x_96_ * x_47_ + 1 x_96_ ^ 2 + 1 y_47_ ^ 2 - 2 y_96_ * y_47_ + 1 y_96_ ^ 2 ] >= 12914.55
quadratic_ranged_187_lb: [ 1 x_48_ ^ 2 - 2 x_97_ * x_48_ + 1 x_97_ ^ 2 + 1 y_48_ ^ 2 - 2 y_97_ * y_48_ + 1 y_97_ ^ 2 ] >= 1158.3
quadratic_ranged_188_lb: [ 1 x_76_ ^ 2 - 2 x_97_ * x_76_ + 1 x_97_ ^ 2 + 1 y_76_ ^ 2 - 2 y_97_ * y_76_ + 1 y_97_ ^ 2 ] >= 13833.27
quadratic_ranged_189_lb: [ 1 x_84_ ^ 2 - 2 x_97_ * x_84_ + 1 x_97_ ^ 2 + 1 y_84_ ^ 2 - 2 y_97_ * y_84_ + 1 y_97_ ^ 2 ] >= 11346.39
quadratic_ranged_190_lb: [ 1 x_19_ ^ 2 - 2 x_98_ * x_19_ + 1 x_98_ ^ 2 + 1 y_19_ ^ 2 - 2 y_98_ * y_19_ + 1 y_98_ ^ 2 ] >= 11311.74
quadratic_ranged_191_lb: [ 1 x_43_ ^ 2 - 2 x_98_ * x_43_ + 1 x_98_ ^ 2 + 1 y_43_ ^ 2 - 2 y_98_ * y_43_ + 1 y_98_ ^ 2 ] >= 1430.55
quadratic_ranged_192_lb: [ 1 x_89_ ^ 2 - 2 x_98_ * x_89_ + 1 x_98_ ^ 2 + 1 y_89_ ^ 2 - 2 y_98_ * y_89_ + 1 y_98_ ^ 2 ] >= 976.14
quadratic_ranged_193_lb: [ 1 x_67_ ^ 2 - 2 x_99_ * x_67_ + 1 x_99_ ^ 2 + 1 y_67_ ^ 2 - 2 y_99_ * y_67_ + 1 y_99_ ^ 2 ] >= 15298.47
quadratic_ranged_194_lb: [ 1 x_86_ ^ 2 - 2 x_99_ * x_86_ + 1 x_99_ ^ 2 + 1 y_86_ ^ 2 - 2 y_99_ * y_86_ + 1 y_99_ ^ 2 ] >= 10601.91
quadratic_ranged_195_lb: [ 1 x_92_ ^ 2 - 2 x_99_ * x_92_ + 1 x_99_ ^ 2 + 1 y_92_ ^ 2 - 2 y_99_ * y_92_ + 1 y_99_ ^ 2 ] >= 15923.16
quadratic_ranged_196_lb: [ 1 x_17_ ^ 2 - 2 x_100_ * x_17_ + 1 x_100_ ^ 2 + 1 y_17_ ^ 2 - 2 y_100_ * y_17_ + 1 y_100_ ^ 2 ] >= 37778.4
quadratic_ranged_197_lb: [ 1 x_33_ ^ 2 - 2 x_100_ * x_33_ + 1 x_100_ ^ 2 + 1 y_33_ ^ 2 - 2 y_100_ * y_33_ + 1 y_100_ ^ 2 ] >= 17904.15
c1_1: 1 x_63_ = -17
c2_1: 1 y_63_ = 95
c3_1: 1 x_73_ = 41
c4_1: 1 y_73_ = 27
c5_1: 1 x_81_ = -57
c6_1: 1 y_81_ = 15
Bounds
-277 <= x_1_ <= 194
-314 <= x_2_ <= 280
-187 <= x_3_ <= 98
-223 <= x_4_ <= 140
-131 <= x_5_ <= 97
-230 <= x_6_ <= 132
-279 <= x_7_ <= 279
-145 <= x_8_ <= 111
-299 <= x_9_ <= 231
-178 <= x_10_ <= 158
-231 <= x_11_ <= 142
-294 <= x_12_ <= 205
-198 <= x_13_ <= 84
-290 <= x_14_ <= 217
-323 <= x_15_ <= 212
-127 <= x_16_ <= 13
-330 <= x_17_ <= 278
-382 <= x_18_ <= 293
-226 <= x_19_ <= 264
-243 <= x_20_ <= 209
-166 <= x_21_ <= 236
-306 <= x_22_ <= 261
-182 <= x_23_ <= 68
-313 <= x_24_ <= 224
-275 <= x_25_ <= 171
-393 <= x_26_ <= 331
-270 <= x_27_ <= 181
-332 <= x_28_ <= 335
-354 <= x_29_ <= 289
-297 <= x_30_ <= 325
-363 <= x_31_ <= 251
-312 <= x_32_ <= 223
-380 <= x_33_ <= 346
-236 <= x_34_ <= 122
-292 <= x_35_ <= 258
-229 <= x_36_ <= 195
-165 <= x_37_ <= 131
-221 <= x_38_ <= 107
-145 <= x_39_ <= 111
-236 <= x_40_ <= 122
-215 <= x_41_ <= 142
-163 <= x_42_ <= 129
-80 <= x_43_ <= 162
-327 <= x_44_ <= 213
-320 <= x_45_ <= 237
-374 <= x_46_ <= 260
-377 <= x_47_ <= 305
-224 <= x_48_ <= 110
-250 <= x_49_ <= 158
-278 <= x_50_ <= 189
-58 <= x_51_ <= 24
-271 <= x_52_ <= 182
-268 <= x_53_ <= 234
-273 <= x_54_ <= 184
-161 <= x_55_ <= 127
-270 <= x_56_ <= 156
-281 <= x_57_ <= 319
-222 <= x_58_ <= 188
-236 <= x_59_ <= 202
-211 <= x_60_ <= 235
-292 <= x_61_ <= 203
-256 <= x_62_ <= 222
x_63_ = -17
-317 <= x_64_ <= 283
-185 <= x_65_ <= 239
-306 <= x_66_ <= 272
-253 <= x_67_ <= 164
-381 <= x_68_ <= 267
-280 <= x_69_ <= 180
-332 <= x_70_ <= 259
-446 <= x_71_ <= 363
-394 <= x_72_ <= 336
x_73_ = 41
-265 <= x_74_ <= 245
-254 <= x_75_ <= 220
-230 <= x_76_ <= 263
-383 <= x_77_ <= 269
-283 <= x_78_ <= 263
-157 <= x_79_ <= 239
-367 <= x_80_ <= 333
x_81_ = -57
-250 <= x_82_ <= 216
-373 <= x_83_ <= 282
-273 <= x_84_ <= 182
-184 <= x_85_ <= 150
-346 <= x_86_ <= 301
-373 <= x_87_ <= 259
-320 <= x_88_ <= 268
-150 <= x_89_ <= 232
-380 <= x_90_ <= 276
-287 <= x_91_ <= 205
-222 <= x_92_ <= 133
-248 <= x_93_ <= 214
-380 <= x_94_ <= 307
-125 <= x_95_ <= 207
-267 <= x_96_ <= 233
-258 <= x_97_ <= 144
-119 <= x_98_ <= 201
-350 <= x_99_ <= 261
-515 <= x_100_ <= 475
-165 <= y_1_ <= 266
-202 <= y_2_ <= 375
-75 <= y_3_ <= 170
-111 <= y_4_ <= 212
-19 <= y_5_ <= 209
-162 <= y_6_ <= 204
-269 <= y_7_ <= 347
-33 <= y_8_ <= 212
-201 <= y_9_ <= 303
-80 <= y_10_ <= 246
-119 <= y_11_ <= 214
-182 <= y_12_ <= 277
-89 <= y_13_ <= 156
-178 <= y_14_ <= 289
-211 <= y_15_ <= 284
-55 <= y_16_ <= 85
-255 <= y_17_ <= 350
-270 <= y_18_ <= 365
-192 <= y_19_ <= 294
-131 <= y_20_ <= 321
-163 <= y_21_ <= 234
-194 <= y_22_ <= 333
-110 <= y_23_ <= 140
-201 <= y_24_ <= 296
-176 <= y_25_ <= 243
-308 <= y_26_ <= 403
-158 <= y_27_ <= 253
-346 <= y_28_ <= 400
-266 <= y_29_ <= 361
-311 <= y_30_ <= 365
-251 <= y_31_ <= 323
-200 <= y_32_ <= 295
-268 <= y_33_ <= 447
-164 <= y_34_ <= 194
-180 <= y_35_ <= 370
-117 <= y_36_ <= 307
-53 <= y_37_ <= 243
-149 <= y_38_ <= 179
-33 <= y_39_ <= 223
-164 <= y_40_ <= 194
-103 <= y_41_ <= 214
-51 <= y_42_ <= 241
-94 <= y_43_ <= 148
-255 <= y_44_ <= 285
-208 <= y_45_ <= 309
-302 <= y_46_ <= 332
-265 <= y_47_ <= 377
-152 <= y_48_ <= 182
-164 <= y_49_ <= 230
-166 <= y_50_ <= 261
54 <= y_51_ <= 136
-159 <= y_52_ <= 254
-156 <= y_53_ <= 346
-161 <= y_54_ <= 256
-49 <= y_55_ <= 239
-198 <= y_56_ <= 228
-247 <= y_57_ <= 349
-110 <= y_58_ <= 300
-124 <= y_59_ <= 314
-208 <= y_60_ <= 279
-180 <= y_61_ <= 275
-144 <= y_62_ <= 334
y_63_ = 95
-205 <= y_64_ <= 391
-182 <= y_65_ <= 253
-194 <= y_66_ <= 384
-141 <= y_67_ <= 236
-309 <= y_68_ <= 339
-168 <= y_69_ <= 252
-220 <= y_70_ <= 331
-334 <= y_71_ <= 435
-313 <= y_72_ <= 408
y_73_ = 27
-167 <= y_74_ <= 333
-142 <= y_75_ <= 321
-227 <= y_76_ <= 298
-272 <= y_77_ <= 341
-185 <= y_78_ <= 351
-171 <= y_79_ <= 225
-255 <= y_80_ <= 409
y_81_ = 15
-138 <= y_82_ <= 317
-287 <= y_83_ <= 354
-187 <= y_84_ <= 254
-72 <= y_85_ <= 262
-234 <= y_86_ <= 373
-301 <= y_87_ <= 331
-246 <= y_88_ <= 340
-164 <= y_89_ <= 218
-281 <= y_90_ <= 348
-175 <= y_91_ <= 277
-110 <= y_92_ <= 205
-136 <= y_93_ <= 326
-268 <= y_94_ <= 379
-133 <= y_95_ <= 193
-155 <= y_96_ <= 345
-186 <= y_97_ <= 216
-133 <= y_98_ <= 187
-238 <= y_99_ <= 333
-403 <= y_100_ <= 547
General
x_1_
x_2_
x_3_
x_4_
x_5_
x_6_
x_7_
x_8_
x_9_
x_10_
x_11_
x_12_
x_13_
x_14_
x_15_
x_16_
x_17_
x_18_
x_19_
x_20_
x_21_
x_22_
x_23_
x_24_
x_25_
x_26_
x_27_
x_28_
x_29_
x_30_
x_31_
x_32_
x_33_
x_34_
x_35_
x_36_
x_37_
x_38_
x_39_
x_40_
x_41_
x_42_
x_43_
x_44_
x_45_
x_46_
x_47_
x_48_
x_49_
x_50_
x_51_
x_52_
x_53_
x_54_
x_55_
x_56_
x_57_
x_58_
x_59_
x_60_
x_61_
x_62_
x_63_
x_64_
x_65_
x_66_
x_67_
x_68_
x_69_
x_70_
x_71_
x_72_
x_73_
x_74_
x_75_
x_76_
x_77_
x_78_
x_79_
x_80_
x_81_
x_82_
x_83_
x_84_
x_85_
x_86_
x_87_
x_88_
x_89_
x_90_
x_91_
x_92_
x_93_
x_94_
x_95_
x_96_
x_97_
x_98_
x_99_
x_100_
y_1_
y_2_
y_3_
y_4_
y_5_
y_6_
y_7_
y_8_
y_9_
y_10_
y_11_
y_12_
y_13_
y_14_
y_15_
y_16_
y_17_
y_18_
y_19_
y_20_
y_21_
y_22_
y_23_
y_24_
y_25_
y_26_
y_27_
y_28_
y_29_
y_30_
y_31_
y_32_
y_33_
y_34_
y_35_
y_36_
y_37_
y_38_
y_39_
y_40_
y_41_
y_42_
y_43_
y_44_
y_45_
y_46_
y_47_
y_48_
y_49_
y_50_
y_51_
y_52_
y_53_
y_54_
y_55_
y_56_
y_57_
y_58_
y_59_
y_60_
y_61_
y_62_
y_63_
y_64_
y_65_
y_66_
y_67_
y_68_
y_69_
y_70_
y_71_
y_72_
y_73_
y_74_
y_75_
y_76_
y_77_
y_78_
y_79_
y_80_
y_81_
y_82_
y_83_
y_84_
y_85_
y_86_
y_87_
y_88_
y_89_
y_90_
y_91_
y_92_
y_93_
y_94_
y_95_
y_96_
y_97_
y_98_
y_99_
y_100_
End
