minimize
obj: 
subject to
c1_3: -1 x_19_ + 1 y_19_ <= 0
c1: [ 1 x_1_ ^ 2 + 1 y_1_ ^ 2 ] <= 35642.89999999999
c2: [ 1 x_2_ ^ 2 + 1 y_2_ ^ 2 ] <= 15267.96405664859
c3: [ 1 x_3_ ^ 2 + 1 y_3_ ^ 2 ] <= 449.45000000000005
c4: [ 1 x_5_ ^ 2 + 1 y_5_ ^ 2 ] <= 28109.37926789905
c5: [ 1 x_6_ ^ 2 + 1 y_6_ ^ 2 ] <= 14683.388542998297
c6: [ 1 x_7_ ^ 2 + 1 y_7_ ^ 2 ] <= 2086.0487111019584
c7: [ 1 x_8_ ^ 2 + 1 y_8_ ^ 2 ] <= 29391.595203281857
c8: [ 1 x_9_ ^ 2 + 1 y_9_ ^ 2 ] <= 25169.304667413184
c9: [ 1 x_10_ ^ 2 + 1 y_10_ ^ 2 ] <= 44057.588435888996
c10: [ 1 x_11_ ^ 2 + 1 y_11_ ^ 2 ] <= 2376.5299999999993
c11: [ 1 x_12_ ^ 2 + 1 y_12_ ^ 2 ] <= 10528.900707899793
c12: [ 1 x_13_ ^ 2 + 1 y_13_ ^ 2 ] <= 47282.22354634379
c13: [ 1 x_14_ ^ 2 + 1 y_14_ ^ 2 ] <= 6545.119181790038
c14: [ 1 x_15_ ^ 2 + 1 y_15_ ^ 2 ] <= 20200.08963789908
c15: [ 1 x_16_ ^ 2 + 1 y_16_ ^ 2 ] <= 16841.38302394924
c16: [ 1 x_17_ ^ 2 + 1 y_17_ ^ 2 ] <= 39267.712438016126
c17: [ 1 x_18_ ^ 2 + 1 y_18_ ^ 2 ] <= 41581.31606474712
c18: [ 1 x_19_ ^ 2 + 1 y_19_ ^ 2 ] <= 51608.85167665493
c19: [ 1 x_20_ ^ 2 + 1 y_20_ ^ 2 ] <= 37427.211512502654
quadratic_ranged_1_ub: [ 1 x_1_ ^ 2 - 2 x_4_ * x_1_ + 1 x_4_ ^ 2 + 1 y_1_ ^ 2 - 2 y_4_ * y_1_ + 1 y_4_ ^ 2 ] <= 35642.9
quadratic_ranged_2_ub: [ 1 x_3_ ^ 2 - 2 x_4_ * x_3_ + 1 x_4_ ^ 2 + 1 y_3_ ^ 2 - 2 y_4_ * y_3_ + 1 y_4_ ^ 2 ] <= 449.45
quadratic_ranged_3_ub: [ 1 x_1_ ^ 2 - 2 x_5_ * x_1_ + 1 x_5_ ^ 2 + 1 y_1_ ^ 2 - 2 y_5_ * y_1_ + 1 y_5_ ^ 2 ] <= 51231.24
quadratic_ranged_4_ub: [ 1 x_2_ ^ 2 - 2 x_5_ * x_2_ + 1 x_5_ ^ 2 + 1 y_2_ ^ 2 - 2 y_5_ * y_2_ + 1 y_5_ ^ 2 ] <= 17905.28
quadratic_ranged_5_ub: [ 1 x_1_ ^ 2 - 2 x_6_ * x_1_ + 1 x_6_ ^ 2 + 1 y_1_ ^ 2 - 2 y_6_ * y_1_ + 1 y_6_ ^ 2 ] <= 38930.45
quadratic_ranged_6_ub: [ 1 x_2_ ^ 2 - 2 x_6_ * x_2_ + 1 x_6_ ^ 2 + 1 y_2_ ^ 2 - 2 y_6_ * y_2_ + 1 y_6_ ^ 2 ] <= 9317.25
quadratic_ranged_7_ub: [ 1 x_3_ ^ 2 - 2 x_6_ * x_3_ + 1 x_6_ ^ 2 + 1 y_3_ ^ 2 - 2 y_6_ * y_3_ + 1 y_6_ ^ 2 ] <= 9994.960000000001
quadratic_ranged_8_ub: [ 1 x_1_ ^ 2 - 2 x_7_ * x_1_ + 1 x_7_ ^ 2 + 1 y_1_ ^ 2 - 2 y_7_ * y_1_ + 1 y_7_ ^ 2 ] <= 45904.5
quadratic_ranged_9_ub: [ 1 x_3_ ^ 2 - 2 x_7_ * x_3_ + 1 x_7_ ^ 2 + 1 y_3_ ^ 2 - 2 y_7_ * y_3_ + 1 y_7_ ^ 2 ] <= 598.93
quadratic_ranged_10_ub: [ 1 x_5_ ^ 2 - 2 x_8_ * x_5_ + 1 x_8_ ^ 2 + 1 y_5_ ^ 2 - 2 y_8_ * y_5_ + 1 y_8_ ^ 2 ] <= 18896.09
quadratic_ranged_11_ub: [ 1 x_1_ ^ 2 - 2 x_9_ * x_1_ + 1 x_9_ ^ 2 + 1 y_1_ ^ 2 - 2 y_9_ * y_1_ + 1 y_9_ ^ 2 ] <= 10339.37
quadratic_ranged_12_ub: [ 1 x_7_ ^ 2 - 2 x_9_ * x_7_ + 1 x_9_ ^ 2 + 1 y_7_ ^ 2 - 2 y_9_ * y_7_ + 1 y_9_ ^ 2 ] <= 12763.37
quadratic_ranged_13_ub: [ 1 x_8_ ^ 2 - 2 x_9_ * x_8_ + 1 x_9_ ^ 2 + 1 y_8_ ^ 2 - 2 y_9_ * y_8_ + 1 y_9_ ^ 2 ] <= 163.62
quadratic_ranged_14_ub: [ 1 x_2_ ^ 2 - 2 x_10_ * x_2_ + 1 x_10_ ^ 2 + 1 y_2_ ^ 2 - 2 y_10_ * y_2_ + 1 y_10_ ^ 2 ] <= 7453.8
quadratic_ranged_15_ub: [ 1 x_8_ ^ 2 - 2 x_10_ * x_8_ + 1 x_10_ ^ 2 + 1 y_8_ ^ 2 - 2 y_10_ * y_8_ + 1 y_10_ ^ 2 ] <= 7701.25
quadratic_ranged_16_ub: [ 1 x_4_ ^ 2 - 2 x_11_ * x_4_ + 1 x_11_ ^ 2 + 1 y_4_ ^ 2 - 2 y_11_ * y_4_ + 1 y_11_ ^ 2 ] <= 2376.53
quadratic_ranged_17_ub: [ 1 x_1_ ^ 2 - 2 x_12_ * x_1_ + 1 x_12_ ^ 2 + 1 y_1_ ^ 2 - 2 y_12_ * y_1_ + 1 y_12_ ^ 2 ] <= 19792.97
quadratic_ranged_18_ub: [ 1 x_3_ ^ 2 - 2 x_12_ * x_3_ + 1 x_12_ ^ 2 + 1 y_3_ ^ 2 - 2 y_12_ * y_3_ + 1 y_12_ ^ 2 ] <= 6627.62
quadratic_ranged_19_ub: [ 1 x_11_ ^ 2 - 2 x_12_ * x_11_ + 1 x_12_ ^ 2 + 1 y_11_ ^ 2 - 2 y_12_ * y_11_ + 1 y_12_ ^ 2 ] <= 15061.12
quadratic_ranged_20_ub: [ 1 x_2_ ^ 2 - 2 x_14_ * x_2_ + 1 x_14_ ^ 2 + 1 y_2_ ^ 2 - 2 y_14_ * y_2_ + 1 y_14_ ^ 2 ] <= 1820.02
quadratic_ranged_21_ub: [ 1 x_3_ ^ 2 - 2 x_14_ * x_3_ + 1 x_14_ ^ 2 + 1 y_3_ ^ 2 - 2 y_14_ * y_3_ + 1 y_14_ ^ 2 ] <= 3564.29
quadratic_ranged_22_ub: [ 1 x_11_ ^ 2 - 2 x_14_ * x_11_ + 1 x_14_ ^ 2 + 1 y_11_ ^ 2 - 2 y_14_ * y_11_ + 1 y_14_ ^ 2 ] <= 3689.53
quadratic_ranged_23_ub: [ 1 x_8_ ^ 2 - 2 x_15_ * x_8_ + 1 x_15_ ^ 2 + 1 y_8_ ^ 2 - 2 y_15_ * y_8_ + 1 y_15_ ^ 2 ] <= 21821.05
quadratic_ranged_24_ub: [ 1 x_11_ ^ 2 - 2 x_15_ * x_11_ + 1 x_15_ ^ 2 + 1 y_11_ ^ 2 - 2 y_15_ * y_11_ + 1 y_15_ ^ 2 ] <= 8719.33
quadratic_ranged_25_ub: [ 1 x_5_ ^ 2 - 2 x_16_ * x_5_ + 1 x_16_ ^ 2 + 1 y_5_ ^ 2 - 2 y_16_ * y_5_ + 1 y_16_ ^ 2 ] <= 1435.21
quadratic_ranged_26_ub: [ 1 x_11_ ^ 2 - 2 x_16_ * x_11_ + 1 x_16_ ^ 2 + 1 y_11_ ^ 2 - 2 y_16_ * y_11_ + 1 y_16_ ^ 2 ] <= 6565
quadratic_ranged_27_ub: [ 1 x_13_ ^ 2 - 2 x_16_ * x_13_ + 1 x_16_ ^ 2 + 1 y_13_ ^ 2 - 2 y_16_ * y_13_ + 1 y_16_ ^ 2 ] <= 7686.1
quadratic_ranged_28_ub: [ 1 x_3_ ^ 2 - 2 x_17_ * x_3_ + 1 x_17_ ^ 2 + 1 y_3_ ^ 2 - 2 y_17_ * y_3_ + 1 y_17_ ^ 2 ] <= 31315.05
quadratic_ranged_29_ub: [ 1 x_5_ ^ 2 - 2 x_17_ * x_5_ + 1 x_17_ ^ 2 + 1 y_5_ ^ 2 - 2 y_17_ * y_5_ + 1 y_17_ ^ 2 ] <= 44864.2
quadratic_ranged_30_ub: [ 1 x_11_ ^ 2 - 2 x_18_ * x_11_ + 1 x_18_ ^ 2 + 1 y_11_ ^ 2 - 2 y_18_ * y_11_ + 1 y_18_ ^ 2 ] <= 27456.85
quadratic_ranged_31_ub: [ 1 x_12_ ^ 2 - 2 x_18_ * x_12_ + 1 x_18_ ^ 2 + 1 y_12_ ^ 2 - 2 y_18_ * y_12_ + 1 y_18_ ^ 2 ] <= 10262.61
quadratic_ranged_32_ub: [ 1 x_7_ ^ 2 - 2 x_19_ * x_7_ + 1 x_19_ ^ 2 + 1 y_7_ ^ 2 - 2 y_19_ * y_7_ + 1 y_19_ ^ 2 ] <= 32943.17
quadratic_ranged_33_ub: [ 1 x_13_ ^ 2 - 2 x_19_ * x_13_ + 1 x_19_ ^ 2 + 1 y_13_ ^ 2 - 2 y_19_ * y_13_ + 1 y_19_ ^ 2 ] <= 6015.56
quadratic_ranged_34_ub: [ 1 x_17_ ^ 2 - 2 x_19_ * x_17_ + 1 x_19_ ^ 2 + 1 y_17_ ^ 2 - 2 y_19_ * y_17_ + 1 y_19_ ^ 2 ] <= 1786.69
quadratic_ranged_35_ub: [ 1 x_5_ ^ 2 - 2 x_20_ * x_5_ + 1 x_20_ ^ 2 + 1 y_5_ ^ 2 - 2 y_20_ * y_5_ + 1 y_20_ ^ 2 ] <= 26555.93
quadratic_ranged_36_ub: [ 1 x_7_ ^ 2 - 2 x_20_ * x_7_ + 1 x_20_ ^ 2 + 1 y_7_ ^ 2 - 2 y_20_ * y_7_ + 1 y_20_ ^ 2 ] <= 21841.25
quadratic_ranged_37_ub: [ 1 x_19_ ^ 2 - 2 x_20_ * x_19_ + 1 x_20_ ^ 2 + 1 y_19_ ^ 2 - 2 y_20_ * y_19_ + 1 y_20_ ^ 2 ] <= 11144.34
c1_2: 1 x_19_ >= 0
c2_2: 1 y_19_ >= 0
quadratic_ranged_1_lb: [ 1 x_1_ ^ 2 - 2 x_4_ * x_1_ + 1 x_4_ ^ 2 + 1 y_1_ ^ 2 - 2 y_4_ * y_1_ + 1 y_4_ ^ 2 ] >= 34937.1
quadratic_ranged_2_lb: [ 1 x_3_ ^ 2 - 2 x_4_ * x_3_ + 1 x_4_ ^ 2 + 1 y_3_ ^ 2 - 2 y_4_ * y_3_ + 1 y_4_ ^ 2 ] >= 440.55
quadratic_ranged_3_lb: [ 1 x_1_ ^ 2 - 2 x_5_ * x_1_ + 1 x_5_ ^ 2 + 1 y_1_ ^ 2 - 2 y_5_ * y_1_ + 1 y_5_ ^ 2 ] >= 50216.76
quadratic_ranged_4_lb: [ 1 x_2_ ^ 2 - 2 x_5_ * x_2_ + 1 x_5_ ^ 2 + 1 y_2_ ^ 2 - 2 y_5_ * y_2_ + 1 y_5_ ^ 2 ] >= 17550.72
quadratic_ranged_5_lb: [ 1 x_1_ ^ 2 - 2 x_6_ * x_1_ + 1 x_6_ ^ 2 + 1 y_1_ ^ 2 - 2 y_6_ * y_1_ + 1 y_6_ ^ 2 ] >= 38159.55
quadratic_ranged_6_lb: [ 1 x_2_ ^ 2 - 2 x_6_ * x_2_ + 1 x_6_ ^ 2 + 1 y_2_ ^ 2 - 2 y_6_ * y_2_ + 1 y_6_ ^ 2 ] >= 9132.75
quadratic_ranged_7_lb: [ 1 x_3_ ^ 2 - 2 x_6_ * x_3_ + 1 x_6_ ^ 2 + 1 y_3_ ^ 2 - 2 y_6_ * y_3_ + 1 y_6_ ^ 2 ] >= 9797.039999999999
quadratic_ranged_8_lb: [ 1 x_1_ ^ 2 - 2 x_7_ * x_1_ + 1 x_7_ ^ 2 + 1 y_1_ ^ 2 - 2 y_7_ * y_1_ + 1 y_7_ ^ 2 ] >= 44995.5
quadratic_ranged_9_lb: [ 1 x_3_ ^ 2 - 2 x_7_ * x_3_ + 1 x_7_ ^ 2 + 1 y_3_ ^ 2 - 2 y_7_ * y_3_ + 1 y_7_ ^ 2 ] >= 587.07
quadratic_ranged_10_lb: [ 1 x_5_ ^ 2 - 2 x_8_ * x_5_ + 1 x_8_ ^ 2 + 1 y_5_ ^ 2 - 2 y_8_ * y_5_ + 1 y_8_ ^ 2 ] >= 18521.91
quadratic_ranged_11_lb: [ 1 x_1_ ^ 2 - 2 x_9_ * x_1_ + 1 x_9_ ^ 2 + 1 y_1_ ^ 2 - 2 y_9_ * y_1_ + 1 y_9_ ^ 2 ] >= 10134.63
quadratic_ranged_12_lb: [ 1 x_7_ ^ 2 - 2 x_9_ * x_7_ + 1 x_9_ ^ 2 + 1 y_7_ ^ 2 - 2 y_9_ * y_7_ + 1 y_9_ ^ 2 ] >= 12510.63
quadratic_ranged_13_lb: [ 1 x_8_ ^ 2 - 2 x_9_ * x_8_ + 1 x_9_ ^ 2 + 1 y_8_ ^ 2 - 2 y_9_ * y_8_ + 1 y_9_ ^ 2 ] >= 160.38
quadratic_ranged_14_lb: [ 1 x_2_ ^ 2 - 2 x_10_ * x_2_ + 1 x_10_ ^ 2 + 1 y_2_ ^ 2 - 2 y_10_ * y_2_ + 1 y_10_ ^ 2 ] >= 7306.2
quadratic_ranged_15_lb: [ 1 x_8_ ^ 2 - 2 x_10_ * x_8_ + 1 x_10_ ^ 2 + 1 y_8_ ^ 2 - 2 y_10_ * y_8_ + 1 y_10_ ^ 2 ] >= 7548.75
quadratic_ranged_16_lb: [ 1 x_4_ ^ 2 - 2 x_11_ * x_4_ + 1 x_11_ ^ 2 + 1 y_4_ ^ 2 - 2 y_11_ * y_4_ + 1 y_11_ ^ 2 ] >= 2329.47
quadratic_ranged_17_lb: [ 1 x_1_ ^ 2 - 2 x_12_ * x_1_ + 1 x_12_ ^ 2 + 1 y_1_ ^ 2 - 2 y_12_ * y_1_ + 1 y_12_ ^ 2 ] >= 19401.03
quadratic_ranged_18_lb: [ 1 x_3_ ^ 2 - 2 x_12_ * x_3_ + 1 x_12_ ^ 2 + 1 y_3_ ^ 2 - 2 y_12_ * y_3_ + 1 y_12_ ^ 2 ] >= 6496.38
quadratic_ranged_19_lb: [ 1 x_11_ ^ 2 - 2 x_12_ * x_11_ + 1 x_12_ ^ 2 + 1 y_11_ ^ 2 - 2 y_12_ * y_11_ + 1 y_12_ ^ 2 ] >= 14762.88
quadratic_ranged_20_lb: [ 1 x_2_ ^ 2 - 2 x_14_ * x_2_ + 1 x_14_ ^ 2 + 1 y_2_ ^ 2 - 2 y_14_ * y_2_ + 1 y_14_ ^ 2 ] >= 1783.98
quadratic_ranged_21_lb: [ 1 x_3_ ^ 2 - 2 x_14_ * x_3_ + 1 x_14_ ^ 2 + 1 y_3_ ^ 2 - 2 y_14_ * y_3_ + 1 y_14_ ^ 2 ] >= 3493.71
quadratic_ranged_22_lb: [ 1 x_11_ ^ 2 - 2 x_14_ * x_11_ + 1 x_14_ ^ 2 + 1 y_11_ ^ 2 - 2 y_14_ * y_11_ + 1 y_14_ ^ 2 ] >= 3616.47
quadratic_ranged_23_lb: [ 1 x_8_ ^ 2 - 2 x_15_ * x_8_ + 1 x_15_ ^ 2 + 1 y_8_ ^ 2 - 2 y_15_ * y_8_ + 1 y_15_ ^ 2 ] >= 21388.95
quadratic_ranged_24_lb: [ 1 x_11_ ^ 2 - 2 x_15_ * x_11_ + 1 x_15_ ^ 2 + 1 y_11_ ^ 2 - 2 y_15_ * y_11_ + 1 y_15_ ^ 2 ] >= 8546.67
quadratic_ranged_25_lb: [ 1 x_5_ ^ 2 - 2 x_16_ * x_5_ + 1 x_16_ ^ 2 + 1 y_5_ ^ 2 - 2 y_16_ * y_5_ + 1 y_16_ ^ 2 ] >= 1406.79
quadratic_ranged_26_lb: [ 1 x_11_ ^ 2 - 2 x_16_ * x_11_ + 1 x_16_ ^ 2 + 1 y_11_ ^ 2 - 2 y_16_ * y_11_ + 1 y_16_ ^ 2 ] >= 6435
quadratic_ranged_27_lb: [ 1 x_13_ ^ 2 - 2 x_16_ * x_13_ + 1 x_16_ ^ 2 + 1 y_13_ ^ 2 - 2 y_16_ * y_13_ + 1 y_16_ ^ 2 ] >= 7533.9
quadratic_ranged_28_lb: [ 1 x_3_ ^ 2 - 2 x_17_ * x_3_ + 1 x_17_ ^ 2 + 1 y_3_ ^ 2 - 2 y_17_ * y_3_ + 1 y_17_ ^ 2 ] >= 30694.95
quadratic_ranged_29_lb: [ 1 x_5_ ^ 2 - 2 x_17_ * x_5_ + 1 x_17_ ^ 2 + 1 y_5_ ^ 2 - 2 y_17_ * y_5_ + 1 y_17_ ^ 2 ] >= 43975.8
quadratic_ranged_30_lb: [ 1 x_11_ ^ 2 - 2 x_18_ * x_11_ + 1 x_18_ ^ 2 + 1 y_11_ ^ 2 - 2 y_18_ * y_11_ + 1 y_18_ ^ 2 ] >= 26913.15
quadratic_ranged_31_lb: [ 1 x_12_ ^ 2 - 2 x_18_ * x_12_ + 1 x_18_ ^ 2 + 1 y_12_ ^ 2 - 2 y_18_ * y_12_ + 1 y_18_ ^ 2 ] >= 10059.39
quadratic_ranged_32_lb: [ 1 x_7_ ^ 2 - 2 x_19_ * x_7_ + 1 x_19_ ^ 2 + 1 y_7_ ^ 2 - 2 y_19_ * y_7_ + 1 y_19_ ^ 2 ] >= 32290.829999999998
quadratic_ranged_33_lb: [ 1 x_13_ ^ 2 - 2 x_19_ * x_13_ + 1 x_19_ ^ 2 + 1 y_13_ ^ 2 - 2 y_19_ * y_13_ + 1 y_19_ ^ 2 ] >= 5896.44
quadratic_ranged_34_lb: [ 1 x_17_ ^ 2 - 2 x_19_ * x_17_ + 1 x_19_ ^ 2 + 1 y_17_ ^ 2 - 2 y_19_ * y_17_ + 1 y_19_ ^ 2 ] >= 1751.31
quadratic_ranged_35_lb: [ 1 x_5_ ^ 2 - 2 x_20_ * x_5_ + 1 x_20_ ^ 2 + 1 y_5_ ^ 2 - 2 y_20_ * y_5_ + 1 y_20_ ^ 2 ] >= 26030.07
quadratic_ranged_36_lb: [ 1 x_7_ ^ 2 - 2 x_20_ * x_7_ + 1 x_20_ ^ 2 + 1 y_7_ ^ 2 - 2 y_20_ * y_7_ + 1 y_20_ ^ 2 ] >= 21408.75
quadratic_ranged_37_lb: [ 1 x_19_ ^ 2 - 2 x_20_ * x_19_ + 1 x_20_ ^ 2 + 1 y_19_ ^ 2 - 2 y_20_ * y_19_ + 1 y_20_ ^ 2 ] >= 10923.66
c1_1: 1 x_4_ = 0
c2_1: 1 y_4_ = 0
Bounds
-188 <= x_1_ <= 188
-123 <= x_2_ <= 123
-21 <= x_3_ <= 21
x_4_ = 0
-167 <= x_5_ <= 167
-121 <= x_6_ <= 121
-45 <= x_7_ <= 45
-171 <= x_8_ <= 171
-158 <= x_9_ <= 158
-209 <= x_10_ <= 209
-48 <= x_11_ <= 48
-102 <= x_12_ <= 102
-217 <= x_13_ <= 217
-80 <= x_14_ <= 80
-142 <= x_15_ <= 142
-129 <= x_16_ <= 129
-198 <= x_17_ <= 198
-203 <= x_18_ <= 203
-227 <= x_19_ <= 227
-193 <= x_20_ <= 193
-188 <= y_1_ <= 188
-123 <= y_2_ <= 123
-21 <= y_3_ <= 21
y_4_ = 0
-167 <= y_5_ <= 167
-121 <= y_6_ <= 121
-45 <= y_7_ <= 45
-171 <= y_8_ <= 171
-158 <= y_9_ <= 158
-209 <= y_10_ <= 209
-48 <= y_11_ <= 48
-102 <= y_12_ <= 102
-217 <= y_13_ <= 217
-80 <= y_14_ <= 80
-142 <= y_15_ <= 142
-129 <= y_16_ <= 129
-198 <= y_17_ <= 198
-203 <= y_18_ <= 203
-227 <= y_19_ <= 227
-193 <= y_20_ <= 193
General
x_1_
x_2_
x_3_
x_4_
x_5_
x_6_
x_7_
x_8_
x_9_
x_10_
x_11_
x_12_
x_13_
x_14_
x_15_
x_16_
x_17_
x_18_
x_19_
x_20_
y_1_
y_2_
y_3_
y_4_
y_5_
y_6_
y_7_
y_8_
y_9_
y_10_
y_11_
y_12_
y_13_
y_14_
y_15_
y_16_
y_17_
y_18_
y_19_
y_20_
End
