minimize
obj: 
subject to
c1_3: -1 x_99_ + 1 y_99_ <= 0
c1: [ 1 x_1_ ^ 2 + 1 y_1_ ^ 2 ] <= 16607.119426401136
c2: [ 1 x_2_ ^ 2 + 1 y_2_ ^ 2 ] <= 34629.629156943985
c3: [ 1 x_3_ ^ 2 + 1 y_3_ ^ 2 ] <= 25833.32348841548
c4: [ 1 x_4_ ^ 2 + 1 y_4_ ^ 2 ] <= 52833.25021831048
c5: [ 1 x_5_ ^ 2 + 1 y_5_ ^ 2 ] <= 43407.99207115289
c6: [ 1 x_7_ ^ 2 + 1 y_7_ ^ 2 ] <= 56618.550950343044
c7: [ 1 x_8_ ^ 2 + 1 y_8_ ^ 2 ] <= 31967.780534842594
c8: [ 1 x_9_ ^ 2 + 1 y_9_ ^ 2 ] <= 61897.60277816984
c9: [ 1 x_10_ ^ 2 + 1 y_10_ ^ 2 ] <= 36659.52571697102
c10: [ 1 x_11_ ^ 2 + 1 y_11_ ^ 2 ] <= 4501.569999999998
c11: [ 1 x_12_ ^ 2 + 1 y_12_ ^ 2 ] <= 69157.10697731552
c12: [ 1 x_13_ ^ 2 + 1 y_13_ ^ 2 ] <= 95930.12449428272
c13: [ 1 x_14_ ^ 2 + 1 y_14_ ^ 2 ] <= 44941.65039589949
c14: [ 1 x_15_ ^ 2 + 1 y_15_ ^ 2 ] <= 17490.169999999995
c15: [ 1 x_16_ ^ 2 + 1 y_16_ ^ 2 ] <= 44483.76239429341
c16: [ 1 x_17_ ^ 2 + 1 y_17_ ^ 2 ] <= 8690.605478738084
c17: [ 1 x_18_ ^ 2 + 1 y_18_ ^ 2 ] <= 21149.77791552105
c18: [ 1 x_19_ ^ 2 + 1 y_19_ ^ 2 ] <= 75733.39476919943
c19: [ 1 x_20_ ^ 2 + 1 y_20_ ^ 2 ] <= 36542.79396338883
c20: [ 1 x_21_ ^ 2 + 1 y_21_ ^ 2 ] <= 23739.04
c21: [ 1 x_22_ ^ 2 + 1 y_22_ ^ 2 ] <= 7555.8099999999995
c22: [ 1 x_23_ ^ 2 + 1 y_23_ ^ 2 ] <= 36392.946770653616
c23: [ 1 x_24_ ^ 2 + 1 y_24_ ^ 2 ] <= 40681.78216974765
c24: [ 1 x_25_ ^ 2 + 1 y_25_ ^ 2 ] <= 62436.99291481929
c25: [ 1 x_26_ ^ 2 + 1 y_26_ ^ 2 ] <= 86843.41409951133
c26: [ 1 x_27_ ^ 2 + 1 y_27_ ^ 2 ] <= 8464.81
c27: [ 1 x_28_ ^ 2 + 1 y_28_ ^ 2 ] <= 1426.12
c28: [ 1 x_29_ ^ 2 + 1 y_29_ ^ 2 ] <= 93164.68189370679
c29: [ 1 x_30_ ^ 2 + 1 y_30_ ^ 2 ] <= 67909.97318657709
c30: [ 1 x_31_ ^ 2 + 1 y_31_ ^ 2 ] <= 127361.81263305261
c31: [ 1 x_32_ ^ 2 + 1 y_32_ ^ 2 ] <= 58964.571889218
c32: [ 1 x_33_ ^ 2 + 1 y_33_ ^ 2 ] <= 41572.54938569789
c33: [ 1 x_34_ ^ 2 + 1 y_34_ ^ 2 ] <= 40168.6728611828
c34: [ 1 x_35_ ^ 2 + 1 y_35_ ^ 2 ] <= 24266.25999999999
c35: [ 1 x_36_ ^ 2 + 1 y_36_ ^ 2 ] <= 78592.998501041
c36: [ 1 x_37_ ^ 2 + 1 y_37_ ^ 2 ] <= 19754.81281222137
c37: [ 1 x_38_ ^ 2 + 1 y_38_ ^ 2 ] <= 5770.129999999998
c38: [ 1 x_39_ ^ 2 + 1 y_39_ ^ 2 ] <= 41481.733391674155
c39: [ 1 x_40_ ^ 2 + 1 y_40_ ^ 2 ] <= 103510.297780972
c40: [ 1 x_41_ ^ 2 + 1 y_41_ ^ 2 ] <= 76161.74209300124
c41: [ 1 x_42_ ^ 2 + 1 y_42_ ^ 2 ] <= 66554.27934863312
c42: [ 1 x_43_ ^ 2 + 1 y_43_ ^ 2 ] <= 42571.76268690578
c43: [ 1 x_44_ ^ 2 + 1 y_44_ ^ 2 ] <= 70512.82935281057
c44: [ 1 x_45_ ^ 2 + 1 y_45_ ^ 2 ] <= 13052.782303547907
c45: [ 1 x_46_ ^ 2 + 1 y_46_ ^ 2 ] <= 18560.049783870487
c46: [ 1 x_47_ ^ 2 + 1 y_47_ ^ 2 ] <= 34219.25747845894
c47: [ 1 x_48_ ^ 2 + 1 y_48_ ^ 2 ] <= 97128.78111946693
c48: [ 1 x_49_ ^ 2 + 1 y_49_ ^ 2 ] <= 8774.370266194
c49: [ 1 x_50_ ^ 2 + 1 y_50_ ^ 2 ] <= 32227.238172142963
c50: [ 1 x_51_ ^ 2 + 1 y_51_ ^ 2 ] <= 48132.09317695572
c51: [ 1 x_52_ ^ 2 + 1 y_52_ ^ 2 ] <= 34560.6248913904
c52: [ 1 x_53_ ^ 2 + 1 y_53_ ^ 2 ] <= 48697.17515669783
c53: [ 1 x_54_ ^ 2 + 1 y_54_ ^ 2 ] <= 12028.089999999998
c54: [ 1 x_55_ ^ 2 + 1 y_55_ ^ 2 ] <= 10876.791775571048
c55: [ 1 x_56_ ^ 2 + 1 y_56_ ^ 2 ] <= 55795.01591556555
c56: [ 1 x_57_ ^ 2 + 1 y_57_ ^ 2 ] <= 13120.629613563375
c57: [ 1 x_58_ ^ 2 + 1 y_58_ ^ 2 ] <= 30623.894295880647
c58: [ 1 x_59_ ^ 2 + 1 y_59_ ^ 2 ] <= 109991.15031071487
c59: [ 1 x_60_ ^ 2 + 1 y_60_ ^ 2 ] <= 39084.7553644171
c60: [ 1 x_61_ ^ 2 + 1 y_61_ ^ 2 ] <= 21060.40563246147
c61: [ 1 x_62_ ^ 2 + 1 y_62_ ^ 2 ] <= 119452.10927628024
c62: [ 1 x_63_ ^ 2 + 1 y_63_ ^ 2 ] <= 41687.110812969455
c63: [ 1 x_64_ ^ 2 + 1 y_64_ ^ 2 ] <= 47627.56316201387
c64: [ 1 x_65_ ^ 2 + 1 y_65_ ^ 2 ] <= 48831.91046278618
c65: [ 1 x_66_ ^ 2 + 1 y_66_ ^ 2 ] <= 33700.738433058985
c66: [ 1 x_67_ ^ 2 + 1 y_67_ ^ 2 ] <= 77254.92250352718
c67: [ 1 x_68_ ^ 2 + 1 y_68_ ^ 2 ] <= 66271.19129627568
c68: [ 1 x_69_ ^ 2 + 1 y_69_ ^ 2 ] <= 6887.081890660566
c69: [ 1 x_70_ ^ 2 + 1 y_70_ ^ 2 ] <= 97768.01107592157
c70: [ 1 x_71_ ^ 2 + 1 y_71_ ^ 2 ] <= 58688.34458712696
c71: [ 1 x_72_ ^ 2 + 1 y_72_ ^ 2 ] <= 10307.049999999997
c72: [ 1 x_73_ ^ 2 + 1 y_73_ ^ 2 ] <= 32053.80508951723
c73: [ 1 x_74_ ^ 2 + 1 y_74_ ^ 2 ] <= 119909.44431092415
c74: [ 1 x_75_ ^ 2 + 1 y_75_ ^ 2 ] <= 74250.81858015273
c75: [ 1 x_76_ ^ 2 + 1 y_76_ ^ 2 ] <= 45424.176607862675
c76: [ 1 x_77_ ^ 2 + 1 y_77_ ^ 2 ] <= 47022.80229346942
c77: [ 1 x_78_ ^ 2 + 1 y_78_ ^ 2 ] <= 117056.87902081912
c78: [ 1 x_79_ ^ 2 + 1 y_79_ ^ 2 ] <= 103508.6235783855
c79: [ 1 x_80_ ^ 2 + 1 y_80_ ^ 2 ] <= 104190.17308394956
c80: [ 1 x_81_ ^ 2 + 1 y_81_ ^ 2 ] <= 16294.329999999998
c81: [ 1 x_82_ ^ 2 + 1 y_82_ ^ 2 ] <= 12017.8842845104
c82: [ 1 x_83_ ^ 2 + 1 y_83_ ^ 2 ] <= 52897.213295048634
c83: [ 1 x_84_ ^ 2 + 1 y_84_ ^ 2 ] <= 118717.53259753632
c84: [ 1 x_85_ ^ 2 + 1 y_85_ ^ 2 ] <= 21400.261735652122
c85: [ 1 x_86_ ^ 2 + 1 y_86_ ^ 2 ] <= 150804.2233035161
c86: [ 1 x_87_ ^ 2 + 1 y_87_ ^ 2 ] <= 76956.38736973933
c87: [ 1 x_88_ ^ 2 + 1 y_88_ ^ 2 ] <= 74684.65028955201
c88: [ 1 x_89_ ^ 2 + 1 y_89_ ^ 2 ] <= 47973.23111106477
c89: [ 1 x_90_ ^ 2 + 1 y_90_ ^ 2 ] <= 69592.07058488326
c90: [ 1 x_91_ ^ 2 + 1 y_91_ ^ 2 ] <= 53350.26884371465
c91: [ 1 x_92_ ^ 2 + 1 y_92_ ^ 2 ] <= 12163.90453055377
c92: [ 1 x_93_ ^ 2 + 1 y_93_ ^ 2 ] <= 32984.78756254714
c93: [ 1 x_94_ ^ 2 + 1 y_94_ ^ 2 ] <= 60649.86144289363
c94: [ 1 x_95_ ^ 2 + 1 y_95_ ^ 2 ] <= 98939.95041626411
c95: [ 1 x_96_ ^ 2 + 1 y_96_ ^ 2 ] <= 61022.90802163363
c96: [ 1 x_97_ ^ 2 + 1 y_97_ ^ 2 ] <= 139494.140614029
c97: [ 1 x_98_ ^ 2 + 1 y_98_ ^ 2 ] <= 14453.58610710924
c98: [ 1 x_99_ ^ 2 + 1 y_99_ ^ 2 ] <= 175094.35694414005
c99: [ 1 x_100_ ^ 2 + 1 y_100_ ^ 2 ] <= 72462.3893549731
quadratic_ranged_1_ub: [ 1 x_1_ ^ 2 - 2 x_2_ * x_1_ + 1 x_2_ ^ 2 + 1 y_1_ ^ 2 - 2 y_2_ * y_1_ + 1 y_2_ ^ 2 ] <= 20468.66
quadratic_ranged_2_ub: [ 1 x_1_ ^ 2 - 2 x_4_ * x_1_ + 1 x_4_ ^ 2 + 1 y_1_ ^ 2 - 2 y_4_ * y_1_ + 1 y_4_ ^ 2 ] <= 15289.380000000001
quadratic_ranged_3_ub: [ 1 x_2_ ^ 2 - 2 x_4_ * x_2_ + 1 x_4_ ^ 2 + 1 y_2_ ^ 2 - 2 y_4_ * y_2_ + 1 y_4_ ^ 2 ] <= 6148.88
quadratic_ranged_4_ub: [ 1 x_1_ ^ 2 - 2 x_5_ * x_1_ + 1 x_5_ ^ 2 + 1 y_1_ ^ 2 - 2 y_5_ * y_1_ + 1 y_5_ ^ 2 ] <= 12851.24
quadratic_ranged_5_ub: [ 1 x_3_ ^ 2 - 2 x_5_ * x_3_ + 1 x_5_ ^ 2 + 1 y_3_ ^ 2 - 2 y_5_ * y_3_ + 1 y_5_ ^ 2 ] <= 26842.77
quadratic_ranged_6_ub: [ 1 x_1_ ^ 2 - 2 x_7_ * x_1_ + 1 x_7_ ^ 2 + 1 y_1_ ^ 2 - 2 y_7_ * y_1_ + 1 y_7_ ^ 2 ] <= 15830.74
quadratic_ranged_7_ub: [ 1 x_4_ ^ 2 - 2 x_7_ * x_4_ + 1 x_7_ ^ 2 + 1 y_4_ ^ 2 - 2 y_7_ * y_4_ + 1 y_7_ ^ 2 ] <= 105.04
quadratic_ranged_8_ub: [ 1 x_1_ ^ 2 - 2 x_8_ * x_1_ + 1 x_8_ ^ 2 + 1 y_1_ ^ 2 - 2 y_8_ * y_1_ + 1 y_8_ ^ 2 ] <= 2492.68
quadratic_ranged_9_ub: [ 1 x_5_ ^ 2 - 2 x_8_ * x_5_ + 1 x_8_ ^ 2 + 1 y_5_ ^ 2 - 2 y_8_ * y_5_ + 1 y_8_ ^ 2 ] <= 17856.8
quadratic_ranged_10_ub: [ 1 x_2_ ^ 2 - 2 x_11_ * x_2_ + 1 x_11_ ^ 2 + 1 y_2_ ^ 2 - 2 y_11_ * y_2_ + 1 y_11_ ^ 2 ] <= 14160.2
quadratic_ranged_11_ub: [ 1 x_6_ ^ 2 - 2 x_11_ * x_6_ + 1 x_11_ ^ 2 + 1 y_6_ ^ 2 - 2 y_11_ * y_6_ + 1 y_11_ ^ 2 ] <= 4501.57
quadratic_ranged_12_ub: [ 1 x_2_ ^ 2 - 2 x_13_ * x_2_ + 1 x_13_ ^ 2 + 1 y_2_ ^ 2 - 2 y_13_ * y_2_ + 1 y_13_ ^ 2 ] <= 29334.44
quadratic_ranged_13_ub: [ 1 x_6_ ^ 2 - 2 x_15_ * x_6_ + 1 x_15_ ^ 2 + 1 y_6_ ^ 2 - 2 y_15_ * y_6_ + 1 y_15_ ^ 2 ] <= 17490.170000000002
quadratic_ranged_14_ub: [ 1 x_10_ ^ 2 - 2 x_15_ * x_10_ + 1 x_15_ ^ 2 + 1 y_10_ ^ 2 - 2 y_15_ * y_10_ + 1 y_15_ ^ 2 ] <= 23116.88
quadratic_ranged_15_ub: [ 1 x_2_ ^ 2 - 2 x_16_ * x_2_ + 1 x_16_ ^ 2 + 1 y_2_ ^ 2 - 2 y_16_ * y_2_ + 1 y_16_ ^ 2 ] <= 616.1
quadratic_ranged_16_ub: [ 1 x_8_ ^ 2 - 2 x_16_ * x_8_ + 1 x_16_ ^ 2 + 1 y_8_ ^ 2 - 2 y_16_ * y_8_ + 1 y_16_ ^ 2 ] <= 32905.8
quadratic_ranged_17_ub: [ 1 x_14_ ^ 2 - 2 x_16_ * x_14_ + 1 x_16_ ^ 2 + 1 y_14_ ^ 2 - 2 y_16_ * y_14_ + 1 y_16_ ^ 2 ] <= 22604.81
quadratic_ranged_18_ub: [ 1 x_1_ ^ 2 - 2 x_17_ * x_1_ + 1 x_17_ ^ 2 + 1 y_1_ ^ 2 - 2 y_17_ * y_1_ + 1 y_17_ ^ 2 ] <= 1270.58
quadratic_ranged_19_ub: [ 1 x_11_ ^ 2 - 2 x_17_ * x_11_ + 1 x_17_ ^ 2 + 1 y_11_ ^ 2 - 2 y_17_ * y_11_ + 1 y_17_ ^ 2 ] <= 682.76
quadratic_ranged_20_ub: [ 1 x_17_ ^ 2 - 2 x_18_ * x_17_ + 1 x_18_ ^ 2 + 1 y_17_ ^ 2 - 2 y_18_ * y_17_ + 1 y_18_ ^ 2 ] <= 4917.69
quadratic_ranged_21_ub: [ 1 x_1_ ^ 2 - 2 x_19_ * x_1_ + 1 x_19_ ^ 2 + 1 y_1_ ^ 2 - 2 y_19_ * y_1_ + 1 y_19_ ^ 2 ] <= 21412
quadratic_ranged_22_ub: [ 1 x_4_ ^ 2 - 2 x_19_ * x_4_ + 1 x_19_ ^ 2 + 1 y_4_ ^ 2 - 2 y_19_ * y_4_ + 1 y_19_ ^ 2 ] <= 7346.74
quadratic_ranged_23_ub: [ 1 x_10_ ^ 2 - 2 x_19_ * x_10_ + 1 x_19_ ^ 2 + 1 y_10_ ^ 2 - 2 y_19_ * y_10_ + 1 y_19_ ^ 2 ] <= 38513.32
quadratic_ranged_24_ub: [ 1 x_7_ ^ 2 - 2 x_20_ * x_7_ + 1 x_20_ ^ 2 + 1 y_7_ ^ 2 - 2 y_20_ * y_7_ + 1 y_20_ ^ 2 ] <= 26835.7
quadratic_ranged_25_ub: [ 1 x_6_ ^ 2 - 2 x_21_ * x_6_ + 1 x_21_ ^ 2 + 1 y_6_ ^ 2 - 2 y_21_ * y_6_ + 1 y_21_ ^ 2 ] <= 23739.04
quadratic_ranged_26_ub: [ 1 x_9_ ^ 2 - 2 x_21_ * x_9_ + 1 x_21_ ^ 2 + 1 y_9_ ^ 2 - 2 y_21_ * y_9_ + 1 y_21_ ^ 2 ] <= 20390.89
quadratic_ranged_27_ub: [ 1 x_3_ ^ 2 - 2 x_22_ * x_3_ + 1 x_22_ ^ 2 + 1 y_3_ ^ 2 - 2 y_22_ * y_3_ + 1 y_22_ ^ 2 ] <= 5446.93
quadratic_ranged_28_ub: [ 1 x_6_ ^ 2 - 2 x_22_ * x_6_ + 1 x_22_ ^ 2 + 1 y_6_ ^ 2 - 2 y_22_ * y_6_ + 1 y_22_ ^ 2 ] <= 7555.81
quadratic_ranged_29_ub: [ 1 x_18_ ^ 2 - 2 x_22_ * x_18_ + 1 x_22_ ^ 2 + 1 y_18_ ^ 2 - 2 y_22_ * y_18_ + 1 y_22_ ^ 2 ] <= 3422.89
quadratic_ranged_30_ub: [ 1 x_17_ ^ 2 - 2 x_23_ * x_17_ + 1 x_23_ ^ 2 + 1 y_17_ ^ 2 - 2 y_23_ * y_17_ + 1 y_23_ ^ 2 ] <= 9515.210000000001
quadratic_ranged_31_ub: [ 1 x_3_ ^ 2 - 2 x_24_ * x_3_ + 1 x_24_ ^ 2 + 1 y_3_ ^ 2 - 2 y_24_ * y_3_ + 1 y_24_ ^ 2 ] <= 7373
quadratic_ranged_32_ub: [ 1 x_4_ ^ 2 - 2 x_24_ * x_4_ + 1 x_24_ ^ 2 + 1 y_4_ ^ 2 - 2 y_24_ * y_4_ + 1 y_24_ ^ 2 ] <= 792.85
quadratic_ranged_33_ub: [ 1 x_7_ ^ 2 - 2 x_24_ * x_7_ + 1 x_24_ ^ 2 + 1 y_7_ ^ 2 - 2 y_24_ * y_7_ + 1 y_24_ ^ 2 ] <= 1314.01
quadratic_ranged_34_ub: [ 1 x_12_ ^ 2 - 2 x_25_ * x_12_ + 1 x_25_ ^ 2 + 1 y_12_ ^ 2 - 2 y_25_ * y_12_ + 1 y_25_ ^ 2 ] <= 171.7
quadratic_ranged_35_ub: [ 1 x_4_ ^ 2 - 2 x_26_ * x_4_ + 1 x_26_ ^ 2 + 1 y_4_ ^ 2 - 2 y_26_ * y_4_ + 1 y_26_ ^ 2 ] <= 6037.78
quadratic_ranged_36_ub: [ 1 x_12_ ^ 2 - 2 x_26_ * x_12_ + 1 x_26_ ^ 2 + 1 y_12_ ^ 2 - 2 y_26_ * y_12_ + 1 y_26_ ^ 2 ] <= 39350.61
quadratic_ranged_37_ub: [ 1 x_23_ ^ 2 - 2 x_26_ * x_23_ + 1 x_26_ ^ 2 + 1 y_23_ ^ 2 - 2 y_26_ * y_23_ + 1 y_26_ ^ 2 ] <= 10799.93
quadratic_ranged_38_ub: [ 1 x_6_ ^ 2 - 2 x_27_ * x_6_ + 1 x_27_ ^ 2 + 1 y_6_ ^ 2 - 2 y_27_ * y_6_ + 1 y_27_ ^ 2 ] <= 8464.81
quadratic_ranged_39_ub: [ 1 x_6_ ^ 2 - 2 x_28_ * x_6_ + 1 x_28_ ^ 2 + 1 y_6_ ^ 2 - 2 y_28_ * y_6_ + 1 y_28_ ^ 2 ] <= 1426.1200000000001
quadratic_ranged_40_ub: [ 1 x_15_ ^ 2 - 2 x_28_ * x_15_ + 1 x_28_ ^ 2 + 1 y_15_ ^ 2 - 2 y_28_ * y_15_ + 1 y_28_ ^ 2 ] <= 10896.89
quadratic_ranged_41_ub: [ 1 x_20_ ^ 2 - 2 x_29_ * x_20_ + 1 x_29_ ^ 2 + 1 y_20_ ^ 2 - 2 y_29_ * y_20_ + 1 y_29_ ^ 2 ] <= 33598.66
quadratic_ranged_42_ub: [ 1 x_23_ ^ 2 - 2 x_29_ * x_23_ + 1 x_29_ ^ 2 + 1 y_23_ ^ 2 - 2 y_29_ * y_23_ + 1 y_29_ ^ 2 ] <= 28487.05
quadratic_ranged_43_ub: [ 1 x_8_ ^ 2 - 2 x_30_ * x_8_ + 1 x_30_ ^ 2 + 1 y_8_ ^ 2 - 2 y_30_ * y_8_ + 1 y_30_ ^ 2 ] <= 6691.25
quadratic_ranged_44_ub: [ 1 x_26_ ^ 2 - 2 x_30_ * x_26_ + 1 x_30_ ^ 2 + 1 y_26_ ^ 2 - 2 y_30_ * y_26_ + 1 y_30_ ^ 2 ] <= 15627.73
quadratic_ranged_45_ub: [ 1 x_12_ ^ 2 - 2 x_31_ * x_12_ + 1 x_31_ ^ 2 + 1 y_12_ ^ 2 - 2 y_31_ * y_12_ + 1 y_31_ ^ 2 ] <= 8817.3
quadratic_ranged_46_ub: [ 1 x_8_ ^ 2 - 2 x_32_ * x_8_ + 1 x_32_ ^ 2 + 1 y_8_ ^ 2 - 2 y_32_ * y_8_ + 1 y_32_ ^ 2 ] <= 17648.74
quadratic_ranged_47_ub: [ 1 x_23_ ^ 2 - 2 x_32_ * x_23_ + 1 x_32_ ^ 2 + 1 y_23_ ^ 2 - 2 y_32_ * y_23_ + 1 y_32_ ^ 2 ] <= 25137.89
quadratic_ranged_48_ub: [ 1 x_27_ ^ 2 - 2 x_32_ * x_27_ + 1 x_32_ ^ 2 + 1 y_27_ ^ 2 - 2 y_32_ * y_27_ + 1 y_32_ ^ 2 ] <= 22747.22
quadratic_ranged_49_ub: [ 1 x_1_ ^ 2 - 2 x_33_ * x_1_ + 1 x_33_ ^ 2 + 1 y_1_ ^ 2 - 2 y_33_ * y_1_ + 1 y_33_ ^ 2 ] <= 5628.7300000000005
quadratic_ranged_50_ub: [ 1 x_25_ ^ 2 - 2 x_33_ * x_25_ + 1 x_33_ ^ 2 + 1 y_25_ ^ 2 - 2 y_33_ * y_25_ + 1 y_33_ ^ 2 ] <= 18448.66
quadratic_ranged_51_ub: [ 1 x_5_ ^ 2 - 2 x_34_ * x_5_ + 1 x_34_ ^ 2 + 1 y_5_ ^ 2 - 2 y_34_ * y_5_ + 1 y_34_ ^ 2 ] <= 6307.45
quadratic_ranged_52_ub: [ 1 x_6_ ^ 2 - 2 x_35_ * x_6_ + 1 x_35_ ^ 2 + 1 y_6_ ^ 2 - 2 y_35_ * y_6_ + 1 y_35_ ^ 2 ] <= 24266.26
quadratic_ranged_53_ub: [ 1 x_9_ ^ 2 - 2 x_35_ * x_9_ + 1 x_35_ ^ 2 + 1 y_9_ ^ 2 - 2 y_35_ * y_9_ + 1 y_35_ ^ 2 ] <= 19877.81
quadratic_ranged_54_ub: [ 1 x_5_ ^ 2 - 2 x_36_ * x_5_ + 1 x_36_ ^ 2 + 1 y_5_ ^ 2 - 2 y_36_ * y_5_ + 1 y_36_ ^ 2 ] <= 13130
quadratic_ranged_55_ub: [ 1 x_9_ ^ 2 - 2 x_36_ * x_9_ + 1 x_36_ ^ 2 + 1 y_9_ ^ 2 - 2 y_36_ * y_9_ + 1 y_36_ ^ 2 ] <= 13061.32
quadratic_ranged_56_ub: [ 1 x_25_ ^ 2 - 2 x_36_ * x_25_ + 1 x_36_ ^ 2 + 1 y_25_ ^ 2 - 2 y_36_ * y_25_ + 1 y_36_ ^ 2 ] <= 30086.89
quadratic_ranged_57_ub: [ 1 x_9_ ^ 2 - 2 x_37_ * x_9_ + 1 x_37_ ^ 2 + 1 y_9_ ^ 2 - 2 y_37_ * y_9_ + 1 y_37_ ^ 2 ] <= 11716
quadratic_ranged_58_ub: [ 1 x_20_ ^ 2 - 2 x_37_ * x_20_ + 1 x_37_ ^ 2 + 1 y_20_ ^ 2 - 2 y_37_ * y_20_ + 1 y_37_ ^ 2 ] <= 2561.36
quadratic_ranged_59_ub: [ 1 x_25_ ^ 2 - 2 x_37_ * x_25_ + 1 x_37_ ^ 2 + 1 y_25_ ^ 2 - 2 y_37_ * y_25_ + 1 y_37_ ^ 2 ] <= 11951.33
quadratic_ranged_60_ub: [ 1 x_6_ ^ 2 - 2 x_38_ * x_6_ + 1 x_38_ ^ 2 + 1 y_6_ ^ 2 - 2 y_38_ * y_6_ + 1 y_38_ ^ 2 ] <= 5770.13
quadratic_ranged_61_ub: [ 1 x_11_ ^ 2 - 2 x_38_ * x_11_ + 1 x_38_ ^ 2 + 1 y_11_ ^ 2 - 2 y_38_ * y_11_ + 1 y_38_ ^ 2 ] <= 10481.78
quadratic_ranged_62_ub: [ 1 x_20_ ^ 2 - 2 x_38_ * x_20_ + 1 x_38_ ^ 2 + 1 y_20_ ^ 2 - 2 y_38_ * y_20_ + 1 y_38_ ^ 2 ] <= 33128
quadratic_ranged_63_ub: [ 1 x_20_ ^ 2 - 2 x_40_ * x_20_ + 1 x_40_ ^ 2 + 1 y_20_ ^ 2 - 2 y_40_ * y_20_ + 1 y_40_ ^ 2 ] <= 27610.37
quadratic_ranged_64_ub: [ 1 x_35_ ^ 2 - 2 x_40_ * x_35_ + 1 x_40_ ^ 2 + 1 y_35_ ^ 2 - 2 y_40_ * y_35_ + 1 y_40_ ^ 2 ] <= 27540.68
quadratic_ranged_65_ub: [ 1 x_15_ ^ 2 - 2 x_41_ * x_15_ + 1 x_41_ ^ 2 + 1 y_15_ ^ 2 - 2 y_41_ * y_15_ + 1 y_41_ ^ 2 ] <= 20656.52
quadratic_ranged_66_ub: [ 1 x_29_ ^ 2 - 2 x_41_ * x_29_ + 1 x_41_ ^ 2 + 1 y_29_ ^ 2 - 2 y_41_ * y_29_ + 1 y_41_ ^ 2 ] <= 2337.14
quadratic_ranged_67_ub: [ 1 x_31_ ^ 2 - 2 x_41_ * x_31_ + 1 x_41_ ^ 2 + 1 y_31_ ^ 2 - 2 y_41_ * y_31_ + 1 y_41_ ^ 2 ] <= 9034.45
quadratic_ranged_68_ub: [ 1 x_1_ ^ 2 - 2 x_42_ * x_1_ + 1 x_42_ ^ 2 + 1 y_1_ ^ 2 - 2 y_42_ * y_1_ + 1 y_42_ ^ 2 ] <= 16670.05
quadratic_ranged_69_ub: [ 1 x_34_ ^ 2 - 2 x_42_ * x_34_ + 1 x_42_ ^ 2 + 1 y_34_ ^ 2 - 2 y_42_ * y_34_ + 1 y_42_ ^ 2 ] <= 10164.64
quadratic_ranged_70_ub: [ 1 x_35_ ^ 2 - 2 x_42_ * x_35_ + 1 x_42_ ^ 2 + 1 y_35_ ^ 2 - 2 y_42_ * y_35_ + 1 y_42_ ^ 2 ] <= 16525.62
quadratic_ranged_71_ub: [ 1 x_5_ ^ 2 - 2 x_43_ * x_5_ + 1 x_43_ ^ 2 + 1 y_5_ ^ 2 - 2 y_43_ * y_5_ + 1 y_43_ ^ 2 ] <= 26956.9
quadratic_ranged_72_ub: [ 1 x_4_ ^ 2 - 2 x_44_ * x_4_ + 1 x_44_ ^ 2 + 1 y_4_ ^ 2 - 2 y_44_ * y_4_ + 1 y_44_ ^ 2 ] <= 1273.61
quadratic_ranged_73_ub: [ 1 x_10_ ^ 2 - 2 x_44_ * x_10_ + 1 x_44_ ^ 2 + 1 y_10_ ^ 2 - 2 y_44_ * y_10_ + 1 y_44_ ^ 2 ] <= 13518.85
quadratic_ranged_74_ub: [ 1 x_28_ ^ 2 - 2 x_45_ * x_28_ + 1 x_45_ ^ 2 + 1 y_28_ ^ 2 - 2 y_45_ * y_28_ + 1 y_45_ ^ 2 ] <= 5849.92
quadratic_ranged_75_ub: [ 1 x_37_ ^ 2 - 2 x_45_ * x_37_ + 1 x_45_ ^ 2 + 1 y_37_ ^ 2 - 2 y_45_ * y_37_ + 1 y_45_ ^ 2 ] <= 691.85
quadratic_ranged_76_ub: [ 1 x_27_ ^ 2 - 2 x_46_ * x_27_ + 1 x_46_ ^ 2 + 1 y_27_ ^ 2 - 2 y_46_ * y_27_ + 1 y_46_ ^ 2 ] <= 1956.3700000000001
quadratic_ranged_77_ub: [ 1 x_35_ ^ 2 - 2 x_46_ * x_35_ + 1 x_46_ ^ 2 + 1 y_35_ ^ 2 - 2 y_46_ * y_35_ + 1 y_46_ ^ 2 ] <= 9746.5
quadratic_ranged_78_ub: [ 1 x_3_ ^ 2 - 2 x_47_ * x_3_ + 1 x_47_ ^ 2 + 1 y_3_ ^ 2 - 2 y_47_ * y_3_ + 1 y_47_ ^ 2 ] <= 14416.74
quadratic_ranged_79_ub: [ 1 x_45_ ^ 2 - 2 x_47_ * x_45_ + 1 x_47_ ^ 2 + 1 y_45_ ^ 2 - 2 y_47_ * y_45_ + 1 y_47_ ^ 2 ] <= 5003.54
quadratic_ranged_80_ub: [ 1 x_4_ ^ 2 - 2 x_48_ * x_4_ + 1 x_48_ ^ 2 + 1 y_4_ ^ 2 - 2 y_48_ * y_4_ + 1 y_48_ ^ 2 ] <= 6691.25
quadratic_ranged_81_ub: [ 1 x_25_ ^ 2 - 2 x_48_ * x_25_ + 1 x_48_ ^ 2 + 1 y_25_ ^ 2 - 2 y_48_ * y_25_ + 1 y_48_ ^ 2 ] <= 39882.88
quadratic_ranged_82_ub: [ 1 x_24_ ^ 2 - 2 x_49_ * x_24_ + 1 x_49_ ^ 2 + 1 y_24_ ^ 2 - 2 y_49_ * y_24_ + 1 y_49_ ^ 2 ] <= 11669.54
quadratic_ranged_83_ub: [ 1 x_22_ ^ 2 - 2 x_50_ * x_22_ + 1 x_50_ ^ 2 + 1 y_22_ ^ 2 - 2 y_50_ * y_22_ + 1 y_50_ ^ 2 ] <= 8573.89
quadratic_ranged_84_ub: [ 1 x_13_ ^ 2 - 2 x_51_ * x_13_ + 1 x_51_ ^ 2 + 1 y_13_ ^ 2 - 2 y_51_ * y_13_ + 1 y_51_ ^ 2 ] <= 32547.25
quadratic_ranged_85_ub: [ 1 x_25_ ^ 2 - 2 x_51_ * x_25_ + 1 x_51_ ^ 2 + 1 y_25_ ^ 2 - 2 y_51_ * y_25_ + 1 y_51_ ^ 2 ] <= 11493.8
quadratic_ranged_86_ub: [ 1 x_20_ ^ 2 - 2 x_52_ * x_20_ + 1 x_52_ ^ 2 + 1 y_20_ ^ 2 - 2 y_52_ * y_20_ + 1 y_52_ ^ 2 ] <= 17357.86
quadratic_ranged_87_ub: [ 1 x_27_ ^ 2 - 2 x_52_ * x_27_ + 1 x_52_ ^ 2 + 1 y_27_ ^ 2 - 2 y_52_ * y_27_ + 1 y_52_ ^ 2 ] <= 8817.3
quadratic_ranged_88_ub: [ 1 x_45_ ^ 2 - 2 x_53_ * x_45_ + 1 x_53_ ^ 2 + 1 y_45_ ^ 2 - 2 y_53_ * y_45_ + 1 y_53_ ^ 2 ] <= 20947.4
quadratic_ranged_89_ub: [ 1 x_49_ ^ 2 - 2 x_53_ * x_49_ + 1 x_53_ ^ 2 + 1 y_49_ ^ 2 - 2 y_53_ * y_49_ + 1 y_53_ ^ 2 ] <= 16129.7
quadratic_ranged_90_ub: [ 1 x_5_ ^ 2 - 2 x_54_ * x_5_ + 1 x_54_ ^ 2 + 1 y_5_ ^ 2 - 2 y_54_ * y_5_ + 1 y_54_ ^ 2 ] <= 9736.4
quadratic_ranged_91_ub: [ 1 x_6_ ^ 2 - 2 x_54_ * x_6_ + 1 x_54_ ^ 2 + 1 y_6_ ^ 2 - 2 y_54_ * y_6_ + 1 y_54_ ^ 2 ] <= 12028.09
quadratic_ranged_92_ub: [ 1 x_43_ ^ 2 - 2 x_54_ * x_43_ + 1 x_54_ ^ 2 + 1 y_43_ ^ 2 - 2 y_54_ * y_43_ + 1 y_54_ ^ 2 ] <= 9342.5
quadratic_ranged_93_ub: [ 1 x_11_ ^ 2 - 2 x_55_ * x_11_ + 1 x_55_ ^ 2 + 1 y_11_ ^ 2 - 2 y_55_ * y_11_ + 1 y_55_ ^ 2 ] <= 1383.7
quadratic_ranged_94_ub: [ 1 x_14_ ^ 2 - 2 x_55_ * x_14_ + 1 x_55_ ^ 2 + 1 y_14_ ^ 2 - 2 y_55_ * y_14_ + 1 y_55_ ^ 2 ] <= 11599.85
quadratic_ranged_95_ub: [ 1 x_10_ ^ 2 - 2 x_56_ * x_10_ + 1 x_56_ ^ 2 + 1 y_10_ ^ 2 - 2 y_56_ * y_10_ + 1 y_56_ ^ 2 ] <= 30673.7
quadratic_ranged_96_ub: [ 1 x_43_ ^ 2 - 2 x_56_ * x_43_ + 1 x_56_ ^ 2 + 1 y_43_ ^ 2 - 2 y_56_ * y_43_ + 1 y_56_ ^ 2 ] <= 892.84
quadratic_ranged_97_ub: [ 1 x_28_ ^ 2 - 2 x_57_ * x_28_ + 1 x_57_ ^ 2 + 1 y_28_ ^ 2 - 2 y_57_ * y_28_ + 1 y_57_ ^ 2 ] <= 5895.37
quadratic_ranged_98_ub: [ 1 x_38_ ^ 2 - 2 x_57_ * x_38_ + 1 x_57_ ^ 2 + 1 y_38_ ^ 2 - 2 y_57_ * y_38_ + 1 y_57_ ^ 2 ] <= 6161
quadratic_ranged_99_ub: [ 1 x_32_ ^ 2 - 2 x_58_ * x_32_ + 1 x_58_ ^ 2 + 1 y_32_ ^ 2 - 2 y_58_ * y_32_ + 1 y_58_ ^ 2 ] <= 8792.05
quadratic_ranged_100_ub: [ 1 x_34_ ^ 2 - 2 x_58_ * x_34_ + 1 x_58_ ^ 2 + 1 y_34_ ^ 2 - 2 y_58_ * y_34_ + 1 y_58_ ^ 2 ] <= 646.4
quadratic_ranged_101_ub: [ 1 x_54_ ^ 2 - 2 x_58_ * x_54_ + 1 x_58_ ^ 2 + 1 y_54_ ^ 2 - 2 y_58_ * y_54_ + 1 y_58_ ^ 2 ] <= 4267.25
quadratic_ranged_102_ub: [ 1 x_29_ ^ 2 - 2 x_59_ * x_29_ + 1 x_59_ ^ 2 + 1 y_29_ ^ 2 - 2 y_59_ * y_29_ + 1 y_59_ ^ 2 ] <= 19038.5
quadratic_ranged_103_ub: [ 1 x_35_ ^ 2 - 2 x_59_ * x_35_ + 1 x_59_ ^ 2 + 1 y_35_ ^ 2 - 2 y_59_ * y_35_ + 1 y_59_ ^ 2 ] <= 30931.25
quadratic_ranged_104_ub: [ 1 x_56_ ^ 2 - 2 x_59_ * x_56_ + 1 x_59_ ^ 2 + 1 y_56_ ^ 2 - 2 y_59_ * y_56_ + 1 y_59_ ^ 2 ] <= 35909.54
quadratic_ranged_105_ub: [ 1 x_18_ ^ 2 - 2 x_60_ * x_18_ + 1 x_60_ ^ 2 + 1 y_18_ ^ 2 - 2 y_60_ * y_18_ + 1 y_60_ ^ 2 ] <= 2732.05
quadratic_ranged_106_ub: [ 1 x_24_ ^ 2 - 2 x_60_ * x_24_ + 1 x_60_ ^ 2 + 1 y_24_ ^ 2 - 2 y_60_ * y_24_ + 1 y_60_ ^ 2 ] <= 8367.85
quadratic_ranged_107_ub: [ 1 x_27_ ^ 2 - 2 x_61_ * x_27_ + 1 x_61_ ^ 2 + 1 y_27_ ^ 2 - 2 y_61_ * y_27_ + 1 y_61_ ^ 2 ] <= 19379.88
quadratic_ranged_108_ub: [ 1 x_39_ ^ 2 - 2 x_61_ * x_39_ + 1 x_61_ ^ 2 + 1 y_39_ ^ 2 - 2 y_61_ * y_39_ + 1 y_61_ ^ 2 ] <= 3427.94
quadratic_ranged_109_ub: [ 1 x_30_ ^ 2 - 2 x_62_ * x_30_ + 1 x_62_ ^ 2 + 1 y_30_ ^ 2 - 2 y_62_ * y_30_ + 1 y_62_ ^ 2 ] <= 15845.89
quadratic_ranged_110_ub: [ 1 x_40_ ^ 2 - 2 x_62_ * x_40_ + 1 x_62_ ^ 2 + 1 y_40_ ^ 2 - 2 y_62_ * y_40_ + 1 y_62_ ^ 2 ] <= 570.65
quadratic_ranged_111_ub: [ 1 x_44_ ^ 2 - 2 x_63_ * x_44_ + 1 x_63_ ^ 2 + 1 y_44_ ^ 2 - 2 y_63_ * y_44_ + 1 y_63_ ^ 2 ] <= 7312.4
quadratic_ranged_112_ub: [ 1 x_46_ ^ 2 - 2 x_63_ * x_46_ + 1 x_63_ ^ 2 + 1 y_46_ ^ 2 - 2 y_63_ * y_46_ + 1 y_63_ ^ 2 ] <= 4615.7
quadratic_ranged_113_ub: [ 1 x_14_ ^ 2 - 2 x_64_ * x_14_ + 1 x_64_ ^ 2 + 1 y_14_ ^ 2 - 2 y_64_ * y_14_ + 1 y_64_ ^ 2 ] <= 4545
quadratic_ranged_114_ub: [ 1 x_27_ ^ 2 - 2 x_64_ * x_27_ + 1 x_64_ ^ 2 + 1 y_27_ ^ 2 - 2 y_64_ * y_27_ + 1 y_64_ ^ 2 ] <= 15934.77
quadratic_ranged_115_ub: [ 1 x_14_ ^ 2 - 2 x_65_ * x_14_ + 1 x_65_ ^ 2 + 1 y_14_ ^ 2 - 2 y_65_ * y_14_ + 1 y_65_ ^ 2 ] <= 9244.53
quadratic_ranged_116_ub: [ 1 x_17_ ^ 2 - 2 x_65_ * x_17_ + 1 x_65_ ^ 2 + 1 y_17_ ^ 2 - 2 y_65_ * y_17_ + 1 y_65_ ^ 2 ] <= 16321.6
quadratic_ranged_117_ub: [ 1 x_11_ ^ 2 - 2 x_66_ * x_11_ + 1 x_66_ ^ 2 + 1 y_11_ ^ 2 - 2 y_66_ * y_11_ + 1 y_66_ ^ 2 ] <= 13657.22
quadratic_ranged_118_ub: [ 1 x_52_ ^ 2 - 2 x_67_ * x_52_ + 1 x_67_ ^ 2 + 1 y_52_ ^ 2 - 2 y_67_ * y_52_ + 1 y_67_ ^ 2 ] <= 8471.88
quadratic_ranged_119_ub: [ 1 x_40_ ^ 2 - 2 x_68_ * x_40_ + 1 x_68_ ^ 2 + 1 y_40_ ^ 2 - 2 y_68_ * y_40_ + 1 y_68_ ^ 2 ] <= 18568.85
quadratic_ranged_120_ub: [ 1 x_64_ ^ 2 - 2 x_68_ * x_64_ + 1 x_68_ ^ 2 + 1 y_64_ ^ 2 - 2 y_68_ * y_64_ + 1 y_68_ ^ 2 ] <= 1536.21
quadratic_ranged_121_ub: [ 1 x_28_ ^ 2 - 2 x_69_ * x_28_ + 1 x_69_ ^ 2 + 1 y_28_ ^ 2 - 2 y_69_ * y_28_ + 1 y_69_ ^ 2 ] <= 2045.25
quadratic_ranged_122_ub: [ 1 x_49_ ^ 2 - 2 x_69_ * x_49_ + 1 x_69_ ^ 2 + 1 y_49_ ^ 2 - 2 y_69_ * y_49_ + 1 y_69_ ^ 2 ] <= 114.13
quadratic_ranged_123_ub: [ 1 x_66_ ^ 2 - 2 x_69_ * x_66_ + 1 x_69_ ^ 2 + 1 y_66_ ^ 2 - 2 y_69_ * y_66_ + 1 y_69_ ^ 2 ] <= 10118.18
quadratic_ranged_124_ub: [ 1 x_53_ ^ 2 - 2 x_70_ * x_53_ + 1 x_70_ ^ 2 + 1 y_53_ ^ 2 - 2 y_70_ * y_53_ + 1 y_70_ ^ 2 ] <= 8464.81
quadratic_ranged_125_ub: [ 1 x_66_ ^ 2 - 2 x_70_ * x_66_ + 1 x_70_ ^ 2 + 1 y_66_ ^ 2 - 2 y_70_ * y_66_ + 1 y_70_ ^ 2 ] <= 35164.16
quadratic_ranged_126_ub: [ 1 x_68_ ^ 2 - 2 x_70_ * x_68_ + 1 x_70_ ^ 2 + 1 y_68_ ^ 2 - 2 y_70_ * y_68_ + 1 y_70_ ^ 2 ] <= 23763.28
quadratic_ranged_127_ub: [ 1 x_41_ ^ 2 - 2 x_71_ * x_41_ + 1 x_71_ ^ 2 + 1 y_41_ ^ 2 - 2 y_71_ * y_41_ + 1 y_71_ ^ 2 ] <= 16735.7
quadratic_ranged_128_ub: [ 1 x_50_ ^ 2 - 2 x_71_ * x_50_ + 1 x_71_ ^ 2 + 1 y_50_ ^ 2 - 2 y_71_ * y_50_ + 1 y_71_ ^ 2 ] <= 3935.9700000000003
quadratic_ranged_129_ub: [ 1 x_6_ ^ 2 - 2 x_72_ * x_6_ + 1 x_72_ ^ 2 + 1 y_6_ ^ 2 - 2 y_72_ * y_6_ + 1 y_72_ ^ 2 ] <= 10307.05
quadratic_ranged_130_ub: [ 1 x_13_ ^ 2 - 2 x_72_ * x_13_ + 1 x_72_ ^ 2 + 1 y_13_ ^ 2 - 2 y_72_ * y_13_ + 1 y_72_ ^ 2 ] <= 62862.4
quadratic_ranged_131_ub: [ 1 x_61_ ^ 2 - 2 x_72_ * x_61_ + 1 x_72_ ^ 2 + 1 y_61_ ^ 2 - 2 y_72_ * y_61_ + 1 y_72_ ^ 2 ] <= 1900.82
quadratic_ranged_132_ub: [ 1 x_3_ ^ 2 - 2 x_73_ * x_3_ + 1 x_73_ ^ 2 + 1 y_3_ ^ 2 - 2 y_73_ * y_3_ + 1 y_73_ ^ 2 ] <= 28199.2
quadratic_ranged_133_ub: [ 1 x_10_ ^ 2 - 2 x_73_ * x_10_ + 1 x_73_ ^ 2 + 1 y_10_ ^ 2 - 2 y_73_ * y_10_ + 1 y_73_ ^ 2 ] <= 154.53
quadratic_ranged_134_ub: [ 1 x_71_ ^ 2 - 2 x_73_ * x_71_ + 1 x_73_ ^ 2 + 1 y_71_ ^ 2 - 2 y_73_ * y_71_ + 1 y_73_ ^ 2 ] <= 9151.61
quadratic_ranged_135_ub: [ 1 x_40_ ^ 2 - 2 x_74_ * x_40_ + 1 x_74_ ^ 2 + 1 y_40_ ^ 2 - 2 y_74_ * y_40_ + 1 y_74_ ^ 2 ] <= 34622.8
quadratic_ranged_136_ub: [ 1 x_50_ ^ 2 - 2 x_74_ * x_50_ + 1 x_74_ ^ 2 + 1 y_50_ ^ 2 - 2 y_74_ * y_50_ + 1 y_74_ ^ 2 ] <= 28740.56
quadratic_ranged_137_ub: [ 1 x_34_ ^ 2 - 2 x_75_ * x_34_ + 1 x_75_ ^ 2 + 1 y_34_ ^ 2 - 2 y_75_ * y_34_ + 1 y_75_ ^ 2 ] <= 8504.2
quadratic_ranged_138_ub: [ 1 x_71_ ^ 2 - 2 x_75_ * x_71_ + 1 x_75_ ^ 2 + 1 y_71_ ^ 2 - 2 y_75_ * y_71_ + 1 y_75_ ^ 2 ] <= 914.05
quadratic_ranged_139_ub: [ 1 x_9_ ^ 2 - 2 x_76_ * x_9_ + 1 x_76_ ^ 2 + 1 y_9_ ^ 2 - 2 y_76_ * y_9_ + 1 y_76_ ^ 2 ] <= 18059.81
quadratic_ranged_140_ub: [ 1 x_69_ ^ 2 - 2 x_76_ * x_69_ + 1 x_76_ ^ 2 + 1 y_69_ ^ 2 - 2 y_76_ * y_69_ + 1 y_76_ ^ 2 ] <= 16936.69
quadratic_ranged_141_ub: [ 1 x_9_ ^ 2 - 2 x_77_ * x_9_ + 1 x_77_ ^ 2 + 1 y_9_ ^ 2 - 2 y_77_ * y_9_ + 1 y_77_ ^ 2 ] <= 6448.85
quadratic_ranged_142_ub: [ 1 x_13_ ^ 2 - 2 x_77_ * x_13_ + 1 x_77_ ^ 2 + 1 y_13_ ^ 2 - 2 y_77_ * y_13_ + 1 y_77_ ^ 2 ] <= 8626.41
quadratic_ranged_143_ub: [ 1 x_18_ ^ 2 - 2 x_77_ * x_18_ + 1 x_77_ ^ 2 + 1 y_18_ ^ 2 - 2 y_77_ * y_18_ + 1 y_77_ ^ 2 ] <= 5100.5
quadratic_ranged_144_ub: [ 1 x_13_ ^ 2 - 2 x_78_ * x_13_ + 1 x_78_ ^ 2 + 1 y_13_ ^ 2 - 2 y_78_ * y_13_ + 1 y_78_ ^ 2 ] <= 1050.4
quadratic_ranged_145_ub: [ 1 x_67_ ^ 2 - 2 x_78_ * x_67_ + 1 x_78_ ^ 2 + 1 y_67_ ^ 2 - 2 y_78_ * y_67_ + 1 y_78_ ^ 2 ] <= 7708.32
quadratic_ranged_146_ub: [ 1 x_74_ ^ 2 - 2 x_78_ * x_74_ + 1 x_78_ ^ 2 + 1 y_74_ ^ 2 - 2 y_78_ * y_74_ + 1 y_78_ ^ 2 ] <= 17.17
quadratic_ranged_147_ub: [ 1 x_12_ ^ 2 - 2 x_79_ * x_12_ + 1 x_79_ ^ 2 + 1 y_12_ ^ 2 - 2 y_79_ * y_12_ + 1 y_79_ ^ 2 ] <= 22963.36
quadratic_ranged_148_ub: [ 1 x_50_ ^ 2 - 2 x_79_ * x_50_ + 1 x_79_ ^ 2 + 1 y_50_ ^ 2 - 2 y_79_ * y_50_ + 1 y_79_ ^ 2 ] <= 26165.06
quadratic_ranged_149_ub: [ 1 x_68_ ^ 2 - 2 x_79_ * x_68_ + 1 x_79_ ^ 2 + 1 y_68_ ^ 2 - 2 y_79_ * y_68_ + 1 y_79_ ^ 2 ] <= 4133.93
quadratic_ranged_150_ub: [ 1 x_36_ ^ 2 - 2 x_80_ * x_36_ + 1 x_80_ ^ 2 + 1 y_36_ ^ 2 - 2 y_80_ * y_36_ + 1 y_80_ ^ 2 ] <= 16745.8
quadratic_ranged_151_ub: [ 1 x_65_ ^ 2 - 2 x_80_ * x_65_ + 1 x_80_ ^ 2 + 1 y_65_ ^ 2 - 2 y_80_ * y_65_ + 1 y_80_ ^ 2 ] <= 26310.5
quadratic_ranged_152_ub: [ 1 x_6_ ^ 2 - 2 x_81_ * x_6_ + 1 x_81_ ^ 2 + 1 y_6_ ^ 2 - 2 y_81_ * y_6_ + 1 y_81_ ^ 2 ] <= 16294.33
quadratic_ranged_153_ub: [ 1 x_60_ ^ 2 - 2 x_81_ * x_60_ + 1 x_81_ ^ 2 + 1 y_60_ ^ 2 - 2 y_81_ * y_60_ + 1 y_81_ ^ 2 ] <= 28643.6
quadratic_ranged_154_ub: [ 1 x_72_ ^ 2 - 2 x_82_ * x_72_ + 1 x_82_ ^ 2 + 1 y_72_ ^ 2 - 2 y_82_ * y_72_ + 1 y_82_ ^ 2 ] <= 65.65
quadratic_ranged_155_ub: [ 1 x_73_ ^ 2 - 2 x_82_ * x_73_ + 1 x_82_ ^ 2 + 1 y_73_ ^ 2 - 2 y_82_ * y_73_ + 1 y_82_ ^ 2 ] <= 4817.7
quadratic_ranged_156_ub: [ 1 x_4_ ^ 2 - 2 x_83_ * x_4_ + 1 x_83_ ^ 2 + 1 y_4_ ^ 2 - 2 y_83_ * y_4_ + 1 y_83_ ^ 2 ] <= 10061.62
quadratic_ranged_157_ub: [ 1 x_5_ ^ 2 - 2 x_83_ * x_5_ + 1 x_83_ ^ 2 + 1 y_5_ ^ 2 - 2 y_83_ * y_5_ + 1 y_83_ ^ 2 ] <= 468.64
quadratic_ranged_158_ub: [ 1 x_35_ ^ 2 - 2 x_83_ * x_35_ + 1 x_83_ ^ 2 + 1 y_35_ ^ 2 - 2 y_83_ * y_35_ + 1 y_83_ ^ 2 ] <= 32523.010000000002
quadratic_ranged_159_ub: [ 1 x_2_ ^ 2 - 2 x_84_ * x_2_ + 1 x_84_ ^ 2 + 1 y_2_ ^ 2 - 2 y_84_ * y_2_ + 1 y_84_ ^ 2 ] <= 27856.81
quadratic_ranged_160_ub: [ 1 x_5_ ^ 2 - 2 x_84_ * x_5_ + 1 x_84_ ^ 2 + 1 y_5_ ^ 2 - 2 y_84_ * y_5_ + 1 y_84_ ^ 2 ] <= 18552.69
quadratic_ranged_161_ub: [ 1 x_17_ ^ 2 - 2 x_85_ * x_17_ + 1 x_85_ ^ 2 + 1 y_17_ ^ 2 - 2 y_85_ * y_17_ + 1 y_85_ ^ 2 ] <= 2815.88
quadratic_ranged_162_ub: [ 1 x_25_ ^ 2 - 2 x_85_ * x_25_ + 1 x_85_ ^ 2 + 1 y_25_ ^ 2 - 2 y_85_ * y_25_ + 1 y_85_ ^ 2 ] <= 17930.53
quadratic_ranged_163_ub: [ 1 x_29_ ^ 2 - 2 x_85_ * x_29_ + 1 x_85_ ^ 2 + 1 y_29_ ^ 2 - 2 y_85_ * y_29_ + 1 y_85_ ^ 2 ] <= 25262.12
quadratic_ranged_164_ub: [ 1 x_41_ ^ 2 - 2 x_86_ * x_41_ + 1 x_86_ ^ 2 + 1 y_41_ ^ 2 - 2 y_86_ * y_41_ + 1 y_86_ ^ 2 ] <= 12625
quadratic_ranged_165_ub: [ 1 x_74_ ^ 2 - 2 x_86_ * x_74_ + 1 x_86_ ^ 2 + 1 y_74_ ^ 2 - 2 y_86_ * y_74_ + 1 y_86_ ^ 2 ] <= 6400.37
quadratic_ranged_166_ub: [ 1 x_21_ ^ 2 - 2 x_87_ * x_21_ + 1 x_87_ ^ 2 + 1 y_21_ ^ 2 - 2 y_87_ * y_21_ + 1 y_87_ ^ 2 ] <= 15211.61
quadratic_ranged_167_ub: [ 1 x_70_ ^ 2 - 2 x_87_ * x_70_ + 1 x_87_ ^ 2 + 1 y_70_ ^ 2 - 2 y_87_ * y_70_ + 1 y_87_ ^ 2 ] <= 9639.44
quadratic_ranged_168_ub: [ 1 x_25_ ^ 2 - 2 x_88_ * x_25_ + 1 x_88_ ^ 2 + 1 y_25_ ^ 2 - 2 y_88_ * y_25_ + 1 y_88_ ^ 2 ] <= 2231.09
quadratic_ranged_169_ub: [ 1 x_63_ ^ 2 - 2 x_88_ * x_63_ + 1 x_88_ ^ 2 + 1 y_63_ ^ 2 - 2 y_88_ * y_63_ + 1 y_88_ ^ 2 ] <= 4776.29
quadratic_ranged_170_ub: [ 1 x_80_ ^ 2 - 2 x_88_ * x_80_ + 1 x_88_ ^ 2 + 1 y_80_ ^ 2 - 2 y_88_ * y_80_ + 1 y_88_ ^ 2 ] <= 2450.26
quadratic_ranged_171_ub: [ 1 x_59_ ^ 2 - 2 x_89_ * x_59_ + 1 x_89_ ^ 2 + 1 y_59_ ^ 2 - 2 y_89_ * y_59_ + 1 y_89_ ^ 2 ] <= 29496.04
quadratic_ranged_172_ub: [ 1 x_61_ ^ 2 - 2 x_89_ * x_61_ + 1 x_89_ ^ 2 + 1 y_61_ ^ 2 - 2 y_89_ * y_61_ + 1 y_89_ ^ 2 ] <= 5462.08
quadratic_ranged_173_ub: [ 1 x_67_ ^ 2 - 2 x_90_ * x_67_ + 1 x_90_ ^ 2 + 1 y_67_ ^ 2 - 2 y_90_ * y_67_ + 1 y_90_ ^ 2 ] <= 934.25
quadratic_ranged_174_ub: [ 1 x_85_ ^ 2 - 2 x_90_ * x_85_ + 1 x_90_ ^ 2 + 1 y_85_ ^ 2 - 2 y_90_ * y_85_ + 1 y_90_ ^ 2 ] <= 13809.73
quadratic_ranged_175_ub: [ 1 x_32_ ^ 2 - 2 x_91_ * x_32_ + 1 x_91_ ^ 2 + 1 y_32_ ^ 2 - 2 y_91_ * y_32_ + 1 y_91_ ^ 2 ] <= 772.65
quadratic_ranged_176_ub: [ 1 x_54_ ^ 2 - 2 x_91_ * x_54_ + 1 x_91_ ^ 2 + 1 y_54_ ^ 2 - 2 y_91_ * y_54_ + 1 y_91_ ^ 2 ] <= 14714.69
quadratic_ranged_177_ub: [ 1 x_51_ ^ 2 - 2 x_92_ * x_51_ + 1 x_92_ ^ 2 + 1 y_51_ ^ 2 - 2 y_92_ * y_51_ + 1 y_92_ ^ 2 ] <= 11902.85
quadratic_ranged_178_ub: [ 1 x_69_ ^ 2 - 2 x_92_ * x_69_ + 1 x_92_ ^ 2 + 1 y_69_ ^ 2 - 2 y_92_ * y_69_ + 1 y_92_ ^ 2 ] <= 745.38
quadratic_ranged_179_ub: [ 1 x_42_ ^ 2 - 2 x_93_ * x_42_ + 1 x_93_ ^ 2 + 1 y_42_ ^ 2 - 2 y_93_ * y_42_ + 1 y_93_ ^ 2 ] <= 34789.45
quadratic_ranged_180_ub: [ 1 x_55_ ^ 2 - 2 x_93_ * x_55_ + 1 x_93_ ^ 2 + 1 y_55_ ^ 2 - 2 y_93_ * y_55_ + 1 y_93_ ^ 2 ] <= 5979.2
quadratic_ranged_181_ub: [ 1 x_71_ ^ 2 - 2 x_93_ * x_71_ + 1 x_93_ ^ 2 + 1 y_71_ ^ 2 - 2 y_93_ * y_71_ + 1 y_93_ ^ 2 ] <= 25171.22
quadratic_ranged_182_ub: [ 1 x_61_ ^ 2 - 2 x_94_ * x_61_ + 1 x_94_ ^ 2 + 1 y_61_ ^ 2 - 2 y_94_ * y_61_ + 1 y_94_ ^ 2 ] <= 10231.3
quadratic_ranged_183_ub: [ 1 x_64_ ^ 2 - 2 x_94_ * x_64_ + 1 x_94_ ^ 2 + 1 y_64_ ^ 2 - 2 y_94_ * y_64_ + 1 y_94_ ^ 2 ] <= 1289.77
quadratic_ranged_184_ub: [ 1 x_16_ ^ 2 - 2 x_95_ * x_16_ + 1 x_95_ ^ 2 + 1 y_16_ ^ 2 - 2 y_95_ * y_16_ + 1 y_95_ ^ 2 ] <= 13090.61
quadratic_ranged_185_ub: [ 1 x_52_ ^ 2 - 2 x_95_ * x_52_ + 1 x_95_ ^ 2 + 1 y_52_ ^ 2 - 2 y_95_ * y_52_ + 1 y_95_ ^ 2 ] <= 16548.85
quadratic_ranged_186_ub: [ 1 x_43_ ^ 2 - 2 x_96_ * x_43_ + 1 x_96_ ^ 2 + 1 y_43_ ^ 2 - 2 y_96_ * y_43_ + 1 y_96_ ^ 2 ] <= 1656.4
quadratic_ranged_187_ub: [ 1 x_76_ ^ 2 - 2 x_96_ * x_76_ + 1 x_96_ ^ 2 + 1 y_76_ ^ 2 - 2 y_96_ * y_76_ + 1 y_96_ ^ 2 ] <= 7527.53
quadratic_ranged_188_ub: [ 1 x_21_ ^ 2 - 2 x_97_ * x_21_ + 1 x_97_ ^ 2 + 1 y_21_ ^ 2 - 2 y_97_ * y_21_ + 1 y_97_ ^ 2 ] <= 48142.66
quadratic_ranged_189_ub: [ 1 x_31_ ^ 2 - 2 x_97_ * x_31_ + 1 x_97_ ^ 2 + 1 y_31_ ^ 2 - 2 y_97_ * y_31_ + 1 y_97_ ^ 2 ] <= 17182.12
quadratic_ranged_190_ub: [ 1 x_80_ ^ 2 - 2 x_97_ * x_80_ + 1 x_97_ ^ 2 + 1 y_80_ ^ 2 - 2 y_97_ * y_80_ + 1 y_97_ ^ 2 ] <= 35548.97
quadratic_ranged_191_ub: [ 1 x_36_ ^ 2 - 2 x_98_ * x_36_ + 1 x_98_ ^ 2 + 1 y_36_ ^ 2 - 2 y_98_ * y_36_ + 1 y_98_ ^ 2 ] <= 25638.85
quadratic_ranged_192_ub: [ 1 x_49_ ^ 2 - 2 x_98_ * x_49_ + 1 x_98_ ^ 2 + 1 y_49_ ^ 2 - 2 y_98_ * y_49_ + 1 y_98_ ^ 2 ] <= 704.98
quadratic_ranged_193_ub: [ 1 x_19_ ^ 2 - 2 x_99_ * x_19_ + 1 x_99_ ^ 2 + 1 y_19_ ^ 2 - 2 y_99_ * y_19_ + 1 y_99_ ^ 2 ] <= 46948.840000000004
quadratic_ranged_194_ub: [ 1 x_42_ ^ 2 - 2 x_99_ * x_42_ + 1 x_99_ ^ 2 + 1 y_42_ ^ 2 - 2 y_99_ * y_42_ + 1 y_99_ ^ 2 ] <= 25747.93
quadratic_ranged_195_ub: [ 1 x_8_ ^ 2 - 2 x_100_ * x_8_ + 1 x_100_ ^ 2 + 1 y_8_ ^ 2 - 2 y_100_ * y_8_ + 1 y_100_ ^ 2 ] <= 8170.9
quadratic_ranged_196_ub: [ 1 x_14_ ^ 2 - 2 x_100_ * x_14_ + 1 x_100_ ^ 2 + 1 y_14_ ^ 2 - 2 y_100_ * y_14_ + 1 y_100_ ^ 2 ] <= 5697.41
quadratic_ranged_197_ub: [ 1 x_39_ ^ 2 - 2 x_100_ * x_39_ + 1 x_100_ ^ 2 + 1 y_39_ ^ 2 - 2 y_100_ * y_39_ + 1 y_100_ ^ 2 ] <= 20624.2
c1_2: 1 x_99_ >= 0
c2_2: 1 y_99_ >= 0
quadratic_ranged_1_lb: [ 1 x_1_ ^ 2 - 2 x_2_ * x_1_ + 1 x_2_ ^ 2 + 1 y_1_ ^ 2 - 2 y_2_ * y_1_ + 1 y_2_ ^ 2 ] >= 20063.34
quadratic_ranged_2_lb: [ 1 x_1_ ^ 2 - 2 x_4_ * x_1_ + 1 x_4_ ^ 2 + 1 y_1_ ^ 2 - 2 y_4_ * y_1_ + 1 y_4_ ^ 2 ] >= 14986.619999999999
quadratic_ranged_3_lb: [ 1 x_2_ ^ 2 - 2 x_4_ * x_2_ + 1 x_4_ ^ 2 + 1 y_2_ ^ 2 - 2 y_4_ * y_2_ + 1 y_4_ ^ 2 ] >= 6027.12
quadratic_ranged_4_lb: [ 1 x_1_ ^ 2 - 2 x_5_ * x_1_ + 1 x_5_ ^ 2 + 1 y_1_ ^ 2 - 2 y_5_ * y_1_ + 1 y_5_ ^ 2 ] >= 12596.76
quadratic_ranged_5_lb: [ 1 x_3_ ^ 2 - 2 x_5_ * x_3_ + 1 x_5_ ^ 2 + 1 y_3_ ^ 2 - 2 y_5_ * y_3_ + 1 y_5_ ^ 2 ] >= 26311.23
quadratic_ranged_6_lb: [ 1 x_1_ ^ 2 - 2 x_7_ * x_1_ + 1 x_7_ ^ 2 + 1 y_1_ ^ 2 - 2 y_7_ * y_1_ + 1 y_7_ ^ 2 ] >= 15517.26
quadratic_ranged_7_lb: [ 1 x_4_ ^ 2 - 2 x_7_ * x_4_ + 1 x_7_ ^ 2 + 1 y_4_ ^ 2 - 2 y_7_ * y_4_ + 1 y_7_ ^ 2 ] >= 102.96
quadratic_ranged_8_lb: [ 1 x_1_ ^ 2 - 2 x_8_ * x_1_ + 1 x_8_ ^ 2 + 1 y_1_ ^ 2 - 2 y_8_ * y_1_ + 1 y_8_ ^ 2 ] >= 2443.32
quadratic_ranged_9_lb: [ 1 x_5_ ^ 2 - 2 x_8_ * x_5_ + 1 x_8_ ^ 2 + 1 y_5_ ^ 2 - 2 y_8_ * y_5_ + 1 y_8_ ^ 2 ] >= 17503.2
quadratic_ranged_10_lb: [ 1 x_2_ ^ 2 - 2 x_11_ * x_2_ + 1 x_11_ ^ 2 + 1 y_2_ ^ 2 - 2 y_11_ * y_2_ + 1 y_11_ ^ 2 ] >= 13879.8
quadratic_ranged_11_lb: [ 1 x_6_ ^ 2 - 2 x_11_ * x_6_ + 1 x_11_ ^ 2 + 1 y_6_ ^ 2 - 2 y_11_ * y_6_ + 1 y_11_ ^ 2 ] >= 4412.43
quadratic_ranged_12_lb: [ 1 x_2_ ^ 2 - 2 x_13_ * x_2_ + 1 x_13_ ^ 2 + 1 y_2_ ^ 2 - 2 y_13_ * y_2_ + 1 y_13_ ^ 2 ] >= 28753.56
quadratic_ranged_13_lb: [ 1 x_6_ ^ 2 - 2 x_15_ * x_6_ + 1 x_15_ ^ 2 + 1 y_6_ ^ 2 - 2 y_15_ * y_6_ + 1 y_15_ ^ 2 ] >= 17143.829999999998
quadratic_ranged_14_lb: [ 1 x_10_ ^ 2 - 2 x_15_ * x_10_ + 1 x_15_ ^ 2 + 1 y_10_ ^ 2 - 2 y_15_ * y_10_ + 1 y_15_ ^ 2 ] >= 22659.12
quadratic_ranged_15_lb: [ 1 x_2_ ^ 2 - 2 x_16_ * x_2_ + 1 x_16_ ^ 2 + 1 y_2_ ^ 2 - 2 y_16_ * y_2_ + 1 y_16_ ^ 2 ] >= 603.9
quadratic_ranged_16_lb: [ 1 x_8_ ^ 2 - 2 x_16_ * x_8_ + 1 x_16_ ^ 2 + 1 y_8_ ^ 2 - 2 y_16_ * y_8_ + 1 y_16_ ^ 2 ] >= 32254.2
quadratic_ranged_17_lb: [ 1 x_14_ ^ 2 - 2 x_16_ * x_14_ + 1 x_16_ ^ 2 + 1 y_14_ ^ 2 - 2 y_16_ * y_14_ + 1 y_16_ ^ 2 ] >= 22157.19
quadratic_ranged_18_lb: [ 1 x_1_ ^ 2 - 2 x_17_ * x_1_ + 1 x_17_ ^ 2 + 1 y_1_ ^ 2 - 2 y_17_ * y_1_ + 1 y_17_ ^ 2 ] >= 1245.42
quadratic_ranged_19_lb: [ 1 x_11_ ^ 2 - 2 x_17_ * x_11_ + 1 x_17_ ^ 2 + 1 y_11_ ^ 2 - 2 y_17_ * y_11_ + 1 y_17_ ^ 2 ] >= 669.24
quadratic_ranged_20_lb: [ 1 x_17_ ^ 2 - 2 x_18_ * x_17_ + 1 x_18_ ^ 2 + 1 y_17_ ^ 2 - 2 y_18_ * y_17_ + 1 y_18_ ^ 2 ] >= 4820.31
quadratic_ranged_21_lb: [ 1 x_1_ ^ 2 - 2 x_19_ * x_1_ + 1 x_19_ ^ 2 + 1 y_1_ ^ 2 - 2 y_19_ * y_1_ + 1 y_19_ ^ 2 ] >= 20988
quadratic_ranged_22_lb: [ 1 x_4_ ^ 2 - 2 x_19_ * x_4_ + 1 x_19_ ^ 2 + 1 y_4_ ^ 2 - 2 y_19_ * y_4_ + 1 y_19_ ^ 2 ] >= 7201.26
quadratic_ranged_23_lb: [ 1 x_10_ ^ 2 - 2 x_19_ * x_10_ + 1 x_19_ ^ 2 + 1 y_10_ ^ 2 - 2 y_19_ * y_10_ + 1 y_19_ ^ 2 ] >= 37750.68
quadratic_ranged_24_lb: [ 1 x_7_ ^ 2 - 2 x_20_ * x_7_ + 1 x_20_ ^ 2 + 1 y_7_ ^ 2 - 2 y_20_ * y_7_ + 1 y_20_ ^ 2 ] >= 26304.3
quadratic_ranged_25_lb: [ 1 x_6_ ^ 2 - 2 x_21_ * x_6_ + 1 x_21_ ^ 2 + 1 y_6_ ^ 2 - 2 y_21_ * y_6_ + 1 y_21_ ^ 2 ] >= 23268.96
quadratic_ranged_26_lb: [ 1 x_9_ ^ 2 - 2 x_21_ * x_9_ + 1 x_21_ ^ 2 + 1 y_9_ ^ 2 - 2 y_21_ * y_9_ + 1 y_21_ ^ 2 ] >= 19987.11
quadratic_ranged_27_lb: [ 1 x_3_ ^ 2 - 2 x_22_ * x_3_ + 1 x_22_ ^ 2 + 1 y_3_ ^ 2 - 2 y_22_ * y_3_ + 1 y_22_ ^ 2 ] >= 5339.07
quadratic_ranged_28_lb: [ 1 x_6_ ^ 2 - 2 x_22_ * x_6_ + 1 x_22_ ^ 2 + 1 y_6_ ^ 2 - 2 y_22_ * y_6_ + 1 y_22_ ^ 2 ] >= 7406.19
quadratic_ranged_29_lb: [ 1 x_18_ ^ 2 - 2 x_22_ * x_18_ + 1 x_22_ ^ 2 + 1 y_18_ ^ 2 - 2 y_22_ * y_18_ + 1 y_22_ ^ 2 ] >= 3355.11
quadratic_ranged_30_lb: [ 1 x_17_ ^ 2 - 2 x_23_ * x_17_ + 1 x_23_ ^ 2 + 1 y_17_ ^ 2 - 2 y_23_ * y_17_ + 1 y_23_ ^ 2 ] >= 9326.789999999999
quadratic_ranged_31_lb: [ 1 x_3_ ^ 2 - 2 x_24_ * x_3_ + 1 x_24_ ^ 2 + 1 y_3_ ^ 2 - 2 y_24_ * y_3_ + 1 y_24_ ^ 2 ] >= 7227
quadratic_ranged_32_lb: [ 1 x_4_ ^ 2 - 2 x_24_ * x_4_ + 1 x_24_ ^ 2 + 1 y_4_ ^ 2 - 2 y_24_ * y_4_ + 1 y_24_ ^ 2 ] >= 777.15
quadratic_ranged_33_lb: [ 1 x_7_ ^ 2 - 2 x_24_ * x_7_ + 1 x_24_ ^ 2 + 1 y_7_ ^ 2 - 2 y_24_ * y_7_ + 1 y_24_ ^ 2 ] >= 1287.99
quadratic_ranged_34_lb: [ 1 x_12_ ^ 2 - 2 x_25_ * x_12_ + 1 x_25_ ^ 2 + 1 y_12_ ^ 2 - 2 y_25_ * y_12_ + 1 y_25_ ^ 2 ] >= 168.3
quadratic_ranged_35_lb: [ 1 x_4_ ^ 2 - 2 x_26_ * x_4_ + 1 x_26_ ^ 2 + 1 y_4_ ^ 2 - 2 y_26_ * y_4_ + 1 y_26_ ^ 2 ] >= 5918.22
quadratic_ranged_36_lb: [ 1 x_12_ ^ 2 - 2 x_26_ * x_12_ + 1 x_26_ ^ 2 + 1 y_12_ ^ 2 - 2 y_26_ * y_12_ + 1 y_26_ ^ 2 ] >= 38571.39
quadratic_ranged_37_lb: [ 1 x_23_ ^ 2 - 2 x_26_ * x_23_ + 1 x_26_ ^ 2 + 1 y_23_ ^ 2 - 2 y_26_ * y_23_ + 1 y_26_ ^ 2 ] >= 10586.07
quadratic_ranged_38_lb: [ 1 x_6_ ^ 2 - 2 x_27_ * x_6_ + 1 x_27_ ^ 2 + 1 y_6_ ^ 2 - 2 y_27_ * y_6_ + 1 y_27_ ^ 2 ] >= 8297.19
quadratic_ranged_39_lb: [ 1 x_6_ ^ 2 - 2 x_28_ * x_6_ + 1 x_28_ ^ 2 + 1 y_6_ ^ 2 - 2 y_28_ * y_6_ + 1 y_28_ ^ 2 ] >= 1397.8799999999999
quadratic_ranged_40_lb: [ 1 x_15_ ^ 2 - 2 x_28_ * x_15_ + 1 x_28_ ^ 2 + 1 y_15_ ^ 2 - 2 y_28_ * y_15_ + 1 y_28_ ^ 2 ] >= 10681.11
quadratic_ranged_41_lb: [ 1 x_20_ ^ 2 - 2 x_29_ * x_20_ + 1 x_29_ ^ 2 + 1 y_20_ ^ 2 - 2 y_29_ * y_20_ + 1 y_29_ ^ 2 ] >= 32933.34
quadratic_ranged_42_lb: [ 1 x_23_ ^ 2 - 2 x_29_ * x_23_ + 1 x_29_ ^ 2 + 1 y_23_ ^ 2 - 2 y_29_ * y_23_ + 1 y_29_ ^ 2 ] >= 27922.95
quadratic_ranged_43_lb: [ 1 x_8_ ^ 2 - 2 x_30_ * x_8_ + 1 x_30_ ^ 2 + 1 y_8_ ^ 2 - 2 y_30_ * y_8_ + 1 y_30_ ^ 2 ] >= 6558.75
quadratic_ranged_44_lb: [ 1 x_26_ ^ 2 - 2 x_30_ * x_26_ + 1 x_30_ ^ 2 + 1 y_26_ ^ 2 - 2 y_30_ * y_26_ + 1 y_30_ ^ 2 ] >= 15318.27
quadratic_ranged_45_lb: [ 1 x_12_ ^ 2 - 2 x_31_ * x_12_ + 1 x_31_ ^ 2 + 1 y_12_ ^ 2 - 2 y_31_ * y_12_ + 1 y_31_ ^ 2 ] >= 8642.7
quadratic_ranged_46_lb: [ 1 x_8_ ^ 2 - 2 x_32_ * x_8_ + 1 x_32_ ^ 2 + 1 y_8_ ^ 2 - 2 y_32_ * y_8_ + 1 y_32_ ^ 2 ] >= 17299.26
quadratic_ranged_47_lb: [ 1 x_23_ ^ 2 - 2 x_32_ * x_23_ + 1 x_32_ ^ 2 + 1 y_23_ ^ 2 - 2 y_32_ * y_23_ + 1 y_32_ ^ 2 ] >= 24640.11
quadratic_ranged_48_lb: [ 1 x_27_ ^ 2 - 2 x_32_ * x_27_ + 1 x_32_ ^ 2 + 1 y_27_ ^ 2 - 2 y_32_ * y_27_ + 1 y_32_ ^ 2 ] >= 22296.78
quadratic_ranged_49_lb: [ 1 x_1_ ^ 2 - 2 x_33_ * x_1_ + 1 x_33_ ^ 2 + 1 y_1_ ^ 2 - 2 y_33_ * y_1_ + 1 y_33_ ^ 2 ] >= 5517.2699999999995
quadratic_ranged_50_lb: [ 1 x_25_ ^ 2 - 2 x_33_ * x_25_ + 1 x_33_ ^ 2 + 1 y_25_ ^ 2 - 2 y_33_ * y_25_ + 1 y_33_ ^ 2 ] >= 18083.34
quadratic_ranged_51_lb: [ 1 x_5_ ^ 2 - 2 x_34_ * x_5_ + 1 x_34_ ^ 2 + 1 y_5_ ^ 2 - 2 y_34_ * y_5_ + 1 y_34_ ^ 2 ] >= 6182.55
quadratic_ranged_52_lb: [ 1 x_6_ ^ 2 - 2 x_35_ * x_6_ + 1 x_35_ ^ 2 + 1 y_6_ ^ 2 - 2 y_35_ * y_6_ + 1 y_35_ ^ 2 ] >= 23785.74
quadratic_ranged_53_lb: [ 1 x_9_ ^ 2 - 2 x_35_ * x_9_ + 1 x_35_ ^ 2 + 1 y_9_ ^ 2 - 2 y_35_ * y_9_ + 1 y_35_ ^ 2 ] >= 19484.19
quadratic_ranged_54_lb: [ 1 x_5_ ^ 2 - 2 x_36_ * x_5_ + 1 x_36_ ^ 2 + 1 y_5_ ^ 2 - 2 y_36_ * y_5_ + 1 y_36_ ^ 2 ] >= 12870
quadratic_ranged_55_lb: [ 1 x_9_ ^ 2 - 2 x_36_ * x_9_ + 1 x_36_ ^ 2 + 1 y_9_ ^ 2 - 2 y_36_ * y_9_ + 1 y_36_ ^ 2 ] >= 12802.68
quadratic_ranged_56_lb: [ 1 x_25_ ^ 2 - 2 x_36_ * x_25_ + 1 x_36_ ^ 2 + 1 y_25_ ^ 2 - 2 y_36_ * y_25_ + 1 y_36_ ^ 2 ] >= 29491.11
quadratic_ranged_57_lb: [ 1 x_9_ ^ 2 - 2 x_37_ * x_9_ + 1 x_37_ ^ 2 + 1 y_9_ ^ 2 - 2 y_37_ * y_9_ + 1 y_37_ ^ 2 ] >= 11484
quadratic_ranged_58_lb: [ 1 x_20_ ^ 2 - 2 x_37_ * x_20_ + 1 x_37_ ^ 2 + 1 y_20_ ^ 2 - 2 y_37_ * y_20_ + 1 y_37_ ^ 2 ] >= 2510.64
quadratic_ranged_59_lb: [ 1 x_25_ ^ 2 - 2 x_37_ * x_25_ + 1 x_37_ ^ 2 + 1 y_25_ ^ 2 - 2 y_37_ * y_25_ + 1 y_37_ ^ 2 ] >= 11714.67
quadratic_ranged_60_lb: [ 1 x_6_ ^ 2 - 2 x_38_ * x_6_ + 1 x_38_ ^ 2 + 1 y_6_ ^ 2 - 2 y_38_ * y_6_ + 1 y_38_ ^ 2 ] >= 5655.87
quadratic_ranged_61_lb: [ 1 x_11_ ^ 2 - 2 x_38_ * x_11_ + 1 x_38_ ^ 2 + 1 y_11_ ^ 2 - 2 y_38_ * y_11_ + 1 y_38_ ^ 2 ] >= 10274.22
quadratic_ranged_62_lb: [ 1 x_20_ ^ 2 - 2 x_38_ * x_20_ + 1 x_38_ ^ 2 + 1 y_20_ ^ 2 - 2 y_38_ * y_20_ + 1 y_38_ ^ 2 ] >= 32472
quadratic_ranged_63_lb: [ 1 x_20_ ^ 2 - 2 x_40_ * x_20_ + 1 x_40_ ^ 2 + 1 y_20_ ^ 2 - 2 y_40_ * y_20_ + 1 y_40_ ^ 2 ] >= 27063.63
quadratic_ranged_64_lb: [ 1 x_35_ ^ 2 - 2 x_40_ * x_35_ + 1 x_40_ ^ 2 + 1 y_35_ ^ 2 - 2 y_40_ * y_35_ + 1 y_40_ ^ 2 ] >= 26995.32
quadratic_ranged_65_lb: [ 1 x_15_ ^ 2 - 2 x_41_ * x_15_ + 1 x_41_ ^ 2 + 1 y_15_ ^ 2 - 2 y_41_ * y_15_ + 1 y_41_ ^ 2 ] >= 20247.48
quadratic_ranged_66_lb: [ 1 x_29_ ^ 2 - 2 x_41_ * x_29_ + 1 x_41_ ^ 2 + 1 y_29_ ^ 2 - 2 y_41_ * y_29_ + 1 y_41_ ^ 2 ] >= 2290.86
quadratic_ranged_67_lb: [ 1 x_31_ ^ 2 - 2 x_41_ * x_31_ + 1 x_41_ ^ 2 + 1 y_31_ ^ 2 - 2 y_41_ * y_31_ + 1 y_41_ ^ 2 ] >= 8855.55
quadratic_ranged_68_lb: [ 1 x_1_ ^ 2 - 2 x_42_ * x_1_ + 1 x_42_ ^ 2 + 1 y_1_ ^ 2 - 2 y_42_ * y_1_ + 1 y_42_ ^ 2 ] >= 16339.95
quadratic_ranged_69_lb: [ 1 x_34_ ^ 2 - 2 x_42_ * x_34_ + 1 x_42_ ^ 2 + 1 y_34_ ^ 2 - 2 y_42_ * y_34_ + 1 y_42_ ^ 2 ] >= 9963.36
quadratic_ranged_70_lb: [ 1 x_35_ ^ 2 - 2 x_42_ * x_35_ + 1 x_42_ ^ 2 + 1 y_35_ ^ 2 - 2 y_42_ * y_35_ + 1 y_42_ ^ 2 ] >= 16198.38
quadratic_ranged_71_lb: [ 1 x_5_ ^ 2 - 2 x_43_ * x_5_ + 1 x_43_ ^ 2 + 1 y_5_ ^ 2 - 2 y_43_ * y_5_ + 1 y_43_ ^ 2 ] >= 26423.1
quadratic_ranged_72_lb: [ 1 x_4_ ^ 2 - 2 x_44_ * x_4_ + 1 x_44_ ^ 2 + 1 y_4_ ^ 2 - 2 y_44_ * y_4_ + 1 y_44_ ^ 2 ] >= 1248.39
quadratic_ranged_73_lb: [ 1 x_10_ ^ 2 - 2 x_44_ * x_10_ + 1 x_44_ ^ 2 + 1 y_10_ ^ 2 - 2 y_44_ * y_10_ + 1 y_44_ ^ 2 ] >= 13251.15
quadratic_ranged_74_lb: [ 1 x_28_ ^ 2 - 2 x_45_ * x_28_ + 1 x_45_ ^ 2 + 1 y_28_ ^ 2 - 2 y_45_ * y_28_ + 1 y_45_ ^ 2 ] >= 5734.08
quadratic_ranged_75_lb: [ 1 x_37_ ^ 2 - 2 x_45_ * x_37_ + 1 x_45_ ^ 2 + 1 y_37_ ^ 2 - 2 y_45_ * y_37_ + 1 y_45_ ^ 2 ] >= 678.15
quadratic_ranged_76_lb: [ 1 x_27_ ^ 2 - 2 x_46_ * x_27_ + 1 x_46_ ^ 2 + 1 y_27_ ^ 2 - 2 y_46_ * y_27_ + 1 y_46_ ^ 2 ] >= 1917.6299999999999
quadratic_ranged_77_lb: [ 1 x_35_ ^ 2 - 2 x_46_ * x_35_ + 1 x_46_ ^ 2 + 1 y_35_ ^ 2 - 2 y_46_ * y_35_ + 1 y_46_ ^ 2 ] >= 9553.5
quadratic_ranged_78_lb: [ 1 x_3_ ^ 2 - 2 x_47_ * x_3_ + 1 x_47_ ^ 2 + 1 y_3_ ^ 2 - 2 y_47_ * y_3_ + 1 y_47_ ^ 2 ] >= 14131.26
quadratic_ranged_79_lb: [ 1 x_45_ ^ 2 - 2 x_47_ * x_45_ + 1 x_47_ ^ 2 + 1 y_45_ ^ 2 - 2 y_47_ * y_45_ + 1 y_47_ ^ 2 ] >= 4904.46
quadratic_ranged_80_lb: [ 1 x_4_ ^ 2 - 2 x_48_ * x_4_ + 1 x_48_ ^ 2 + 1 y_4_ ^ 2 - 2 y_48_ * y_4_ + 1 y_48_ ^ 2 ] >= 6558.75
quadratic_ranged_81_lb: [ 1 x_25_ ^ 2 - 2 x_48_ * x_25_ + 1 x_48_ ^ 2 + 1 y_25_ ^ 2 - 2 y_48_ * y_25_ + 1 y_48_ ^ 2 ] >= 39093.12
quadratic_ranged_82_lb: [ 1 x_24_ ^ 2 - 2 x_49_ * x_24_ + 1 x_49_ ^ 2 + 1 y_24_ ^ 2 - 2 y_49_ * y_24_ + 1 y_49_ ^ 2 ] >= 11438.46
quadratic_ranged_83_lb: [ 1 x_22_ ^ 2 - 2 x_50_ * x_22_ + 1 x_50_ ^ 2 + 1 y_22_ ^ 2 - 2 y_50_ * y_22_ + 1 y_50_ ^ 2 ] >= 8404.11
quadratic_ranged_84_lb: [ 1 x_13_ ^ 2 - 2 x_51_ * x_13_ + 1 x_51_ ^ 2 + 1 y_13_ ^ 2 - 2 y_51_ * y_13_ + 1 y_51_ ^ 2 ] >= 31902.75
quadratic_ranged_85_lb: [ 1 x_25_ ^ 2 - 2 x_51_ * x_25_ + 1 x_51_ ^ 2 + 1 y_25_ ^ 2 - 2 y_51_ * y_25_ + 1 y_51_ ^ 2 ] >= 11266.2
quadratic_ranged_86_lb: [ 1 x_20_ ^ 2 - 2 x_52_ * x_20_ + 1 x_52_ ^ 2 + 1 y_20_ ^ 2 - 2 y_52_ * y_20_ + 1 y_52_ ^ 2 ] >= 17014.14
quadratic_ranged_87_lb: [ 1 x_27_ ^ 2 - 2 x_52_ * x_27_ + 1 x_52_ ^ 2 + 1 y_27_ ^ 2 - 2 y_52_ * y_27_ + 1 y_52_ ^ 2 ] >= 8642.7
quadratic_ranged_88_lb: [ 1 x_45_ ^ 2 - 2 x_53_ * x_45_ + 1 x_53_ ^ 2 + 1 y_45_ ^ 2 - 2 y_53_ * y_45_ + 1 y_53_ ^ 2 ] >= 20532.6
quadratic_ranged_89_lb: [ 1 x_49_ ^ 2 - 2 x_53_ * x_49_ + 1 x_53_ ^ 2 + 1 y_49_ ^ 2 - 2 y_53_ * y_49_ + 1 y_53_ ^ 2 ] >= 15810.3
quadratic_ranged_90_lb: [ 1 x_5_ ^ 2 - 2 x_54_ * x_5_ + 1 x_54_ ^ 2 + 1 y_5_ ^ 2 - 2 y_54_ * y_5_ + 1 y_54_ ^ 2 ] >= 9543.6
quadratic_ranged_91_lb: [ 1 x_6_ ^ 2 - 2 x_54_ * x_6_ + 1 x_54_ ^ 2 + 1 y_6_ ^ 2 - 2 y_54_ * y_6_ + 1 y_54_ ^ 2 ] >= 11789.91
quadratic_ranged_92_lb: [ 1 x_43_ ^ 2 - 2 x_54_ * x_43_ + 1 x_54_ ^ 2 + 1 y_43_ ^ 2 - 2 y_54_ * y_43_ + 1 y_54_ ^ 2 ] >= 9157.5
quadratic_ranged_93_lb: [ 1 x_11_ ^ 2 - 2 x_55_ * x_11_ + 1 x_55_ ^ 2 + 1 y_11_ ^ 2 - 2 y_55_ * y_11_ + 1 y_55_ ^ 2 ] >= 1356.3
quadratic_ranged_94_lb: [ 1 x_14_ ^ 2 - 2 x_55_ * x_14_ + 1 x_55_ ^ 2 + 1 y_14_ ^ 2 - 2 y_55_ * y_14_ + 1 y_55_ ^ 2 ] >= 11370.15
quadratic_ranged_95_lb: [ 1 x_10_ ^ 2 - 2 x_56_ * x_10_ + 1 x_56_ ^ 2 + 1 y_10_ ^ 2 - 2 y_56_ * y_10_ + 1 y_56_ ^ 2 ] >= 30066.3
quadratic_ranged_96_lb: [ 1 x_43_ ^ 2 - 2 x_56_ * x_43_ + 1 x_56_ ^ 2 + 1 y_43_ ^ 2 - 2 y_56_ * y_43_ + 1 y_56_ ^ 2 ] >= 875.16
quadratic_ranged_97_lb: [ 1 x_28_ ^ 2 - 2 x_57_ * x_28_ + 1 x_57_ ^ 2 + 1 y_28_ ^ 2 - 2 y_57_ * y_28_ + 1 y_57_ ^ 2 ] >= 5778.63
quadratic_ranged_98_lb: [ 1 x_38_ ^ 2 - 2 x_57_ * x_38_ + 1 x_57_ ^ 2 + 1 y_38_ ^ 2 - 2 y_57_ * y_38_ + 1 y_57_ ^ 2 ] >= 6039
quadratic_ranged_99_lb: [ 1 x_32_ ^ 2 - 2 x_58_ * x_32_ + 1 x_58_ ^ 2 + 1 y_32_ ^ 2 - 2 y_58_ * y_32_ + 1 y_58_ ^ 2 ] >= 8617.95
quadratic_ranged_100_lb: [ 1 x_34_ ^ 2 - 2 x_58_ * x_34_ + 1 x_58_ ^ 2 + 1 y_34_ ^ 2 - 2 y_58_ * y_34_ + 1 y_58_ ^ 2 ] >= 633.6
quadratic_ranged_101_lb: [ 1 x_54_ ^ 2 - 2 x_58_ * x_54_ + 1 x_58_ ^ 2 + 1 y_54_ ^ 2 - 2 y_58_ * y_54_ + 1 y_58_ ^ 2 ] >= 4182.75
quadratic_ranged_102_lb: [ 1 x_29_ ^ 2 - 2 x_59_ * x_29_ + 1 x_59_ ^ 2 + 1 y_29_ ^ 2 - 2 y_59_ * y_29_ + 1 y_59_ ^ 2 ] >= 18661.5
quadratic_ranged_103_lb: [ 1 x_35_ ^ 2 - 2 x_59_ * x_35_ + 1 x_59_ ^ 2 + 1 y_35_ ^ 2 - 2 y_59_ * y_35_ + 1 y_59_ ^ 2 ] >= 30318.75
quadratic_ranged_104_lb: [ 1 x_56_ ^ 2 - 2 x_59_ * x_56_ + 1 x_59_ ^ 2 + 1 y_56_ ^ 2 - 2 y_59_ * y_56_ + 1 y_59_ ^ 2 ] >= 35198.46
quadratic_ranged_105_lb: [ 1 x_18_ ^ 2 - 2 x_60_ * x_18_ + 1 x_60_ ^ 2 + 1 y_18_ ^ 2 - 2 y_60_ * y_18_ + 1 y_60_ ^ 2 ] >= 2677.95
quadratic_ranged_106_lb: [ 1 x_24_ ^ 2 - 2 x_60_ * x_24_ + 1 x_60_ ^ 2 + 1 y_24_ ^ 2 - 2 y_60_ * y_24_ + 1 y_60_ ^ 2 ] >= 8202.15
quadratic_ranged_107_lb: [ 1 x_27_ ^ 2 - 2 x_61_ * x_27_ + 1 x_61_ ^ 2 + 1 y_27_ ^ 2 - 2 y_61_ * y_27_ + 1 y_61_ ^ 2 ] >= 18996.12
quadratic_ranged_108_lb: [ 1 x_39_ ^ 2 - 2 x_61_ * x_39_ + 1 x_61_ ^ 2 + 1 y_39_ ^ 2 - 2 y_61_ * y_39_ + 1 y_61_ ^ 2 ] >= 3360.06
quadratic_ranged_109_lb: [ 1 x_30_ ^ 2 - 2 x_62_ * x_30_ + 1 x_62_ ^ 2 + 1 y_30_ ^ 2 - 2 y_62_ * y_30_ + 1 y_62_ ^ 2 ] >= 15532.11
quadratic_ranged_110_lb: [ 1 x_40_ ^ 2 - 2 x_62_ * x_40_ + 1 x_62_ ^ 2 + 1 y_40_ ^ 2 - 2 y_62_ * y_40_ + 1 y_62_ ^ 2 ] >= 559.35
quadratic_ranged_111_lb: [ 1 x_44_ ^ 2 - 2 x_63_ * x_44_ + 1 x_63_ ^ 2 + 1 y_44_ ^ 2 - 2 y_63_ * y_44_ + 1 y_63_ ^ 2 ] >= 7167.6
quadratic_ranged_112_lb: [ 1 x_46_ ^ 2 - 2 x_63_ * x_46_ + 1 x_63_ ^ 2 + 1 y_46_ ^ 2 - 2 y_63_ * y_46_ + 1 y_63_ ^ 2 ] >= 4524.3
quadratic_ranged_113_lb: [ 1 x_14_ ^ 2 - 2 x_64_ * x_14_ + 1 x_64_ ^ 2 + 1 y_14_ ^ 2 - 2 y_64_ * y_14_ + 1 y_64_ ^ 2 ] >= 4455
quadratic_ranged_114_lb: [ 1 x_27_ ^ 2 - 2 x_64_ * x_27_ + 1 x_64_ ^ 2 + 1 y_27_ ^ 2 - 2 y_64_ * y_27_ + 1 y_64_ ^ 2 ] >= 15619.23
quadratic_ranged_115_lb: [ 1 x_14_ ^ 2 - 2 x_65_ * x_14_ + 1 x_65_ ^ 2 + 1 y_14_ ^ 2 - 2 y_65_ * y_14_ + 1 y_65_ ^ 2 ] >= 9061.47
quadratic_ranged_116_lb: [ 1 x_17_ ^ 2 - 2 x_65_ * x_17_ + 1 x_65_ ^ 2 + 1 y_17_ ^ 2 - 2 y_65_ * y_17_ + 1 y_65_ ^ 2 ] >= 15998.4
quadratic_ranged_117_lb: [ 1 x_11_ ^ 2 - 2 x_66_ * x_11_ + 1 x_66_ ^ 2 + 1 y_11_ ^ 2 - 2 y_66_ * y_11_ + 1 y_66_ ^ 2 ] >= 13386.78
quadratic_ranged_118_lb: [ 1 x_52_ ^ 2 - 2 x_67_ * x_52_ + 1 x_67_ ^ 2 + 1 y_52_ ^ 2 - 2 y_67_ * y_52_ + 1 y_67_ ^ 2 ] >= 8304.12
quadratic_ranged_119_lb: [ 1 x_40_ ^ 2 - 2 x_68_ * x_40_ + 1 x_68_ ^ 2 + 1 y_40_ ^ 2 - 2 y_68_ * y_40_ + 1 y_68_ ^ 2 ] >= 18201.15
quadratic_ranged_120_lb: [ 1 x_64_ ^ 2 - 2 x_68_ * x_64_ + 1 x_68_ ^ 2 + 1 y_64_ ^ 2 - 2 y_68_ * y_64_ + 1 y_68_ ^ 2 ] >= 1505.79
quadratic_ranged_121_lb: [ 1 x_28_ ^ 2 - 2 x_69_ * x_28_ + 1 x_69_ ^ 2 + 1 y_28_ ^ 2 - 2 y_69_ * y_28_ + 1 y_69_ ^ 2 ] >= 2004.75
quadratic_ranged_122_lb: [ 1 x_49_ ^ 2 - 2 x_69_ * x_49_ + 1 x_69_ ^ 2 + 1 y_49_ ^ 2 - 2 y_69_ * y_49_ + 1 y_69_ ^ 2 ] >= 111.87
quadratic_ranged_123_lb: [ 1 x_66_ ^ 2 - 2 x_69_ * x_66_ + 1 x_69_ ^ 2 + 1 y_66_ ^ 2 - 2 y_69_ * y_66_ + 1 y_69_ ^ 2 ] >= 9917.82
quadratic_ranged_124_lb: [ 1 x_53_ ^ 2 - 2 x_70_ * x_53_ + 1 x_70_ ^ 2 + 1 y_53_ ^ 2 - 2 y_70_ * y_53_ + 1 y_70_ ^ 2 ] >= 8297.19
quadratic_ranged_125_lb: [ 1 x_66_ ^ 2 - 2 x_70_ * x_66_ + 1 x_70_ ^ 2 + 1 y_66_ ^ 2 - 2 y_70_ * y_66_ + 1 y_70_ ^ 2 ] >= 34467.84
quadratic_ranged_126_lb: [ 1 x_68_ ^ 2 - 2 x_70_ * x_68_ + 1 x_70_ ^ 2 + 1 y_68_ ^ 2 - 2 y_70_ * y_68_ + 1 y_70_ ^ 2 ] >= 23292.72
quadratic_ranged_127_lb: [ 1 x_41_ ^ 2 - 2 x_71_ * x_41_ + 1 x_71_ ^ 2 + 1 y_41_ ^ 2 - 2 y_71_ * y_41_ + 1 y_71_ ^ 2 ] >= 16404.3
quadratic_ranged_128_lb: [ 1 x_50_ ^ 2 - 2 x_71_ * x_50_ + 1 x_71_ ^ 2 + 1 y_50_ ^ 2 - 2 y_71_ * y_50_ + 1 y_71_ ^ 2 ] >= 3858.0299999999997
quadratic_ranged_129_lb: [ 1 x_6_ ^ 2 - 2 x_72_ * x_6_ + 1 x_72_ ^ 2 + 1 y_6_ ^ 2 - 2 y_72_ * y_6_ + 1 y_72_ ^ 2 ] >= 10102.95
quadratic_ranged_130_lb: [ 1 x_13_ ^ 2 - 2 x_72_ * x_13_ + 1 x_72_ ^ 2 + 1 y_13_ ^ 2 - 2 y_72_ * y_13_ + 1 y_72_ ^ 2 ] >= 61617.6
quadratic_ranged_131_lb: [ 1 x_61_ ^ 2 - 2 x_72_ * x_61_ + 1 x_72_ ^ 2 + 1 y_61_ ^ 2 - 2 y_72_ * y_61_ + 1 y_72_ ^ 2 ] >= 1863.18
quadratic_ranged_132_lb: [ 1 x_3_ ^ 2 - 2 x_73_ * x_3_ + 1 x_73_ ^ 2 + 1 y_3_ ^ 2 - 2 y_73_ * y_3_ + 1 y_73_ ^ 2 ] >= 27640.8
quadratic_ranged_133_lb: [ 1 x_10_ ^ 2 - 2 x_73_ * x_10_ + 1 x_73_ ^ 2 + 1 y_10_ ^ 2 - 2 y_73_ * y_10_ + 1 y_73_ ^ 2 ] >= 151.47
quadratic_ranged_134_lb: [ 1 x_71_ ^ 2 - 2 x_73_ * x_71_ + 1 x_73_ ^ 2 + 1 y_71_ ^ 2 - 2 y_73_ * y_71_ + 1 y_73_ ^ 2 ] >= 8970.39
quadratic_ranged_135_lb: [ 1 x_40_ ^ 2 - 2 x_74_ * x_40_ + 1 x_74_ ^ 2 + 1 y_40_ ^ 2 - 2 y_74_ * y_40_ + 1 y_74_ ^ 2 ] >= 33937.2
quadratic_ranged_136_lb: [ 1 x_50_ ^ 2 - 2 x_74_ * x_50_ + 1 x_74_ ^ 2 + 1 y_50_ ^ 2 - 2 y_74_ * y_50_ + 1 y_74_ ^ 2 ] >= 28171.44
quadratic_ranged_137_lb: [ 1 x_34_ ^ 2 - 2 x_75_ * x_34_ + 1 x_75_ ^ 2 + 1 y_34_ ^ 2 - 2 y_75_ * y_34_ + 1 y_75_ ^ 2 ] >= 8335.8
quadratic_ranged_138_lb: [ 1 x_71_ ^ 2 - 2 x_75_ * x_71_ + 1 x_75_ ^ 2 + 1 y_71_ ^ 2 - 2 y_75_ * y_71_ + 1 y_75_ ^ 2 ] >= 895.95
quadratic_ranged_139_lb: [ 1 x_9_ ^ 2 - 2 x_76_ * x_9_ + 1 x_76_ ^ 2 + 1 y_9_ ^ 2 - 2 y_76_ * y_9_ + 1 y_76_ ^ 2 ] >= 17702.19
quadratic_ranged_140_lb: [ 1 x_69_ ^ 2 - 2 x_76_ * x_69_ + 1 x_76_ ^ 2 + 1 y_69_ ^ 2 - 2 y_76_ * y_69_ + 1 y_76_ ^ 2 ] >= 16601.31
quadratic_ranged_141_lb: [ 1 x_9_ ^ 2 - 2 x_77_ * x_9_ + 1 x_77_ ^ 2 + 1 y_9_ ^ 2 - 2 y_77_ * y_9_ + 1 y_77_ ^ 2 ] >= 6321.15
quadratic_ranged_142_lb: [ 1 x_13_ ^ 2 - 2 x_77_ * x_13_ + 1 x_77_ ^ 2 + 1 y_13_ ^ 2 - 2 y_77_ * y_13_ + 1 y_77_ ^ 2 ] >= 8455.59
quadratic_ranged_143_lb: [ 1 x_18_ ^ 2 - 2 x_77_ * x_18_ + 1 x_77_ ^ 2 + 1 y_18_ ^ 2 - 2 y_77_ * y_18_ + 1 y_77_ ^ 2 ] >= 4999.5
quadratic_ranged_144_lb: [ 1 x_13_ ^ 2 - 2 x_78_ * x_13_ + 1 x_78_ ^ 2 + 1 y_13_ ^ 2 - 2 y_78_ * y_13_ + 1 y_78_ ^ 2 ] >= 1029.6
quadratic_ranged_145_lb: [ 1 x_67_ ^ 2 - 2 x_78_ * x_67_ + 1 x_78_ ^ 2 + 1 y_67_ ^ 2 - 2 y_78_ * y_67_ + 1 y_78_ ^ 2 ] >= 7555.68
quadratic_ranged_146_lb: [ 1 x_74_ ^ 2 - 2 x_78_ * x_74_ + 1 x_78_ ^ 2 + 1 y_74_ ^ 2 - 2 y_78_ * y_74_ + 1 y_78_ ^ 2 ] >= 16.83
quadratic_ranged_147_lb: [ 1 x_12_ ^ 2 - 2 x_79_ * x_12_ + 1 x_79_ ^ 2 + 1 y_12_ ^ 2 - 2 y_79_ * y_12_ + 1 y_79_ ^ 2 ] >= 22508.64
quadratic_ranged_148_lb: [ 1 x_50_ ^ 2 - 2 x_79_ * x_50_ + 1 x_79_ ^ 2 + 1 y_50_ ^ 2 - 2 y_79_ * y_50_ + 1 y_79_ ^ 2 ] >= 25646.94
quadratic_ranged_149_lb: [ 1 x_68_ ^ 2 - 2 x_79_ * x_68_ + 1 x_79_ ^ 2 + 1 y_68_ ^ 2 - 2 y_79_ * y_68_ + 1 y_79_ ^ 2 ] >= 4052.07
quadratic_ranged_150_lb: [ 1 x_36_ ^ 2 - 2 x_80_ * x_36_ + 1 x_80_ ^ 2 + 1 y_36_ ^ 2 - 2 y_80_ * y_36_ + 1 y_80_ ^ 2 ] >= 16414.2
quadratic_ranged_151_lb: [ 1 x_65_ ^ 2 - 2 x_80_ * x_65_ + 1 x_80_ ^ 2 + 1 y_65_ ^ 2 - 2 y_80_ * y_65_ + 1 y_80_ ^ 2 ] >= 25789.5
quadratic_ranged_152_lb: [ 1 x_6_ ^ 2 - 2 x_81_ * x_6_ + 1 x_81_ ^ 2 + 1 y_6_ ^ 2 - 2 y_81_ * y_6_ + 1 y_81_ ^ 2 ] >= 15971.67
quadratic_ranged_153_lb: [ 1 x_60_ ^ 2 - 2 x_81_ * x_60_ + 1 x_81_ ^ 2 + 1 y_60_ ^ 2 - 2 y_81_ * y_60_ + 1 y_81_ ^ 2 ] >= 28076.4
quadratic_ranged_154_lb: [ 1 x_72_ ^ 2 - 2 x_82_ * x_72_ + 1 x_82_ ^ 2 + 1 y_72_ ^ 2 - 2 y_82_ * y_72_ + 1 y_82_ ^ 2 ] >= 64.35
quadratic_ranged_155_lb: [ 1 x_73_ ^ 2 - 2 x_82_ * x_73_ + 1 x_82_ ^ 2 + 1 y_73_ ^ 2 - 2 y_82_ * y_73_ + 1 y_82_ ^ 2 ] >= 4722.3
quadratic_ranged_156_lb: [ 1 x_4_ ^ 2 - 2 x_83_ * x_4_ + 1 x_83_ ^ 2 + 1 y_4_ ^ 2 - 2 y_83_ * y_4_ + 1 y_83_ ^ 2 ] >= 9862.38
quadratic_ranged_157_lb: [ 1 x_5_ ^ 2 - 2 x_83_ * x_5_ + 1 x_83_ ^ 2 + 1 y_5_ ^ 2 - 2 y_83_ * y_5_ + 1 y_83_ ^ 2 ] >= 459.36
quadratic_ranged_158_lb: [ 1 x_35_ ^ 2 - 2 x_83_ * x_35_ + 1 x_83_ ^ 2 + 1 y_35_ ^ 2 - 2 y_83_ * y_35_ + 1 y_83_ ^ 2 ] >= 31878.989999999998
quadratic_ranged_159_lb: [ 1 x_2_ ^ 2 - 2 x_84_ * x_2_ + 1 x_84_ ^ 2 + 1 y_2_ ^ 2 - 2 y_84_ * y_2_ + 1 y_84_ ^ 2 ] >= 27305.19
quadratic_ranged_160_lb: [ 1 x_5_ ^ 2 - 2 x_84_ * x_5_ + 1 x_84_ ^ 2 + 1 y_5_ ^ 2 - 2 y_84_ * y_5_ + 1 y_84_ ^ 2 ] >= 18185.31
quadratic_ranged_161_lb: [ 1 x_17_ ^ 2 - 2 x_85_ * x_17_ + 1 x_85_ ^ 2 + 1 y_17_ ^ 2 - 2 y_85_ * y_17_ + 1 y_85_ ^ 2 ] >= 2760.12
quadratic_ranged_162_lb: [ 1 x_25_ ^ 2 - 2 x_85_ * x_25_ + 1 x_85_ ^ 2 + 1 y_25_ ^ 2 - 2 y_85_ * y_25_ + 1 y_85_ ^ 2 ] >= 17575.47
quadratic_ranged_163_lb: [ 1 x_29_ ^ 2 - 2 x_85_ * x_29_ + 1 x_85_ ^ 2 + 1 y_29_ ^ 2 - 2 y_85_ * y_29_ + 1 y_85_ ^ 2 ] >= 24761.88
quadratic_ranged_164_lb: [ 1 x_41_ ^ 2 - 2 x_86_ * x_41_ + 1 x_86_ ^ 2 + 1 y_41_ ^ 2 - 2 y_86_ * y_41_ + 1 y_86_ ^ 2 ] >= 12375
quadratic_ranged_165_lb: [ 1 x_74_ ^ 2 - 2 x_86_ * x_74_ + 1 x_86_ ^ 2 + 1 y_74_ ^ 2 - 2 y_86_ * y_74_ + 1 y_86_ ^ 2 ] >= 6273.63
quadratic_ranged_166_lb: [ 1 x_21_ ^ 2 - 2 x_87_ * x_21_ + 1 x_87_ ^ 2 + 1 y_21_ ^ 2 - 2 y_87_ * y_21_ + 1 y_87_ ^ 2 ] >= 14910.39
quadratic_ranged_167_lb: [ 1 x_70_ ^ 2 - 2 x_87_ * x_70_ + 1 x_87_ ^ 2 + 1 y_70_ ^ 2 - 2 y_87_ * y_70_ + 1 y_87_ ^ 2 ] >= 9448.56
quadratic_ranged_168_lb: [ 1 x_25_ ^ 2 - 2 x_88_ * x_25_ + 1 x_88_ ^ 2 + 1 y_25_ ^ 2 - 2 y_88_ * y_25_ + 1 y_88_ ^ 2 ] >= 2186.91
quadratic_ranged_169_lb: [ 1 x_63_ ^ 2 - 2 x_88_ * x_63_ + 1 x_88_ ^ 2 + 1 y_63_ ^ 2 - 2 y_88_ * y_63_ + 1 y_88_ ^ 2 ] >= 4681.71
quadratic_ranged_170_lb: [ 1 x_80_ ^ 2 - 2 x_88_ * x_80_ + 1 x_88_ ^ 2 + 1 y_80_ ^ 2 - 2 y_88_ * y_80_ + 1 y_88_ ^ 2 ] >= 2401.74
quadratic_ranged_171_lb: [ 1 x_59_ ^ 2 - 2 x_89_ * x_59_ + 1 x_89_ ^ 2 + 1 y_59_ ^ 2 - 2 y_89_ * y_59_ + 1 y_89_ ^ 2 ] >= 28911.96
quadratic_ranged_172_lb: [ 1 x_61_ ^ 2 - 2 x_89_ * x_61_ + 1 x_89_ ^ 2 + 1 y_61_ ^ 2 - 2 y_89_ * y_61_ + 1 y_89_ ^ 2 ] >= 5353.92
quadratic_ranged_173_lb: [ 1 x_67_ ^ 2 - 2 x_90_ * x_67_ + 1 x_90_ ^ 2 + 1 y_67_ ^ 2 - 2 y_90_ * y_67_ + 1 y_90_ ^ 2 ] >= 915.75
quadratic_ranged_174_lb: [ 1 x_85_ ^ 2 - 2 x_90_ * x_85_ + 1 x_90_ ^ 2 + 1 y_85_ ^ 2 - 2 y_90_ * y_85_ + 1 y_90_ ^ 2 ] >= 13536.27
quadratic_ranged_175_lb: [ 1 x_32_ ^ 2 - 2 x_91_ * x_32_ + 1 x_91_ ^ 2 + 1 y_32_ ^ 2 - 2 y_91_ * y_32_ + 1 y_91_ ^ 2 ] >= 757.35
quadratic_ranged_176_lb: [ 1 x_54_ ^ 2 - 2 x_91_ * x_54_ + 1 x_91_ ^ 2 + 1 y_54_ ^ 2 - 2 y_91_ * y_54_ + 1 y_91_ ^ 2 ] >= 14423.31
quadratic_ranged_177_lb: [ 1 x_51_ ^ 2 - 2 x_92_ * x_51_ + 1 x_92_ ^ 2 + 1 y_51_ ^ 2 - 2 y_92_ * y_51_ + 1 y_92_ ^ 2 ] >= 11667.15
quadratic_ranged_178_lb: [ 1 x_69_ ^ 2 - 2 x_92_ * x_69_ + 1 x_92_ ^ 2 + 1 y_69_ ^ 2 - 2 y_92_ * y_69_ + 1 y_92_ ^ 2 ] >= 730.62
quadratic_ranged_179_lb: [ 1 x_42_ ^ 2 - 2 x_93_ * x_42_ + 1 x_93_ ^ 2 + 1 y_42_ ^ 2 - 2 y_93_ * y_42_ + 1 y_93_ ^ 2 ] >= 34100.55
quadratic_ranged_180_lb: [ 1 x_55_ ^ 2 - 2 x_93_ * x_55_ + 1 x_93_ ^ 2 + 1 y_55_ ^ 2 - 2 y_93_ * y_55_ + 1 y_93_ ^ 2 ] >= 5860.8
quadratic_ranged_181_lb: [ 1 x_71_ ^ 2 - 2 x_93_ * x_71_ + 1 x_93_ ^ 2 + 1 y_71_ ^ 2 - 2 y_93_ * y_71_ + 1 y_93_ ^ 2 ] >= 24672.78
quadratic_ranged_182_lb: [ 1 x_61_ ^ 2 - 2 x_94_ * x_61_ + 1 x_94_ ^ 2 + 1 y_61_ ^ 2 - 2 y_94_ * y_61_ + 1 y_94_ ^ 2 ] >= 10028.7
quadratic_ranged_183_lb: [ 1 x_64_ ^ 2 - 2 x_94_ * x_64_ + 1 x_94_ ^ 2 + 1 y_64_ ^ 2 - 2 y_94_ * y_64_ + 1 y_94_ ^ 2 ] >= 1264.23
quadratic_ranged_184_lb: [ 1 x_16_ ^ 2 - 2 x_95_ * x_16_ + 1 x_95_ ^ 2 + 1 y_16_ ^ 2 - 2 y_95_ * y_16_ + 1 y_95_ ^ 2 ] >= 12831.39
quadratic_ranged_185_lb: [ 1 x_52_ ^ 2 - 2 x_95_ * x_52_ + 1 x_95_ ^ 2 + 1 y_52_ ^ 2 - 2 y_95_ * y_52_ + 1 y_95_ ^ 2 ] >= 16221.15
quadratic_ranged_186_lb: [ 1 x_43_ ^ 2 - 2 x_96_ * x_43_ + 1 x_96_ ^ 2 + 1 y_43_ ^ 2 - 2 y_96_ * y_43_ + 1 y_96_ ^ 2 ] >= 1623.6
quadratic_ranged_187_lb: [ 1 x_76_ ^ 2 - 2 x_96_ * x_76_ + 1 x_96_ ^ 2 + 1 y_76_ ^ 2 - 2 y_96_ * y_76_ + 1 y_96_ ^ 2 ] >= 7378.47
quadratic_ranged_188_lb: [ 1 x_21_ ^ 2 - 2 x_97_ * x_21_ + 1 x_97_ ^ 2 + 1 y_21_ ^ 2 - 2 y_97_ * y_21_ + 1 y_97_ ^ 2 ] >= 47189.34
quadratic_ranged_189_lb: [ 1 x_31_ ^ 2 - 2 x_97_ * x_31_ + 1 x_97_ ^ 2 + 1 y_31_ ^ 2 - 2 y_97_ * y_31_ + 1 y_97_ ^ 2 ] >= 16841.88
quadratic_ranged_190_lb: [ 1 x_80_ ^ 2 - 2 x_97_ * x_80_ + 1 x_97_ ^ 2 + 1 y_80_ ^ 2 - 2 y_97_ * y_80_ + 1 y_97_ ^ 2 ] >= 34845.03
quadratic_ranged_191_lb: [ 1 x_36_ ^ 2 - 2 x_98_ * x_36_ + 1 x_98_ ^ 2 + 1 y_36_ ^ 2 - 2 y_98_ * y_36_ + 1 y_98_ ^ 2 ] >= 25131.15
quadratic_ranged_192_lb: [ 1 x_49_ ^ 2 - 2 x_98_ * x_49_ + 1 x_98_ ^ 2 + 1 y_49_ ^ 2 - 2 y_98_ * y_49_ + 1 y_98_ ^ 2 ] >= 691.02
quadratic_ranged_193_lb: [ 1 x_19_ ^ 2 - 2 x_99_ * x_19_ + 1 x_99_ ^ 2 + 1 y_19_ ^ 2 - 2 y_99_ * y_19_ + 1 y_99_ ^ 2 ] >= 46019.159999999996
quadratic_ranged_194_lb: [ 1 x_42_ ^ 2 - 2 x_99_ * x_42_ + 1 x_99_ ^ 2 + 1 y_42_ ^ 2 - 2 y_99_ * y_42_ + 1 y_99_ ^ 2 ] >= 25238.07
quadratic_ranged_195_lb: [ 1 x_8_ ^ 2 - 2 x_100_ * x_8_ + 1 x_100_ ^ 2 + 1 y_8_ ^ 2 - 2 y_100_ * y_8_ + 1 y_100_ ^ 2 ] >= 8009.1
quadratic_ranged_196_lb: [ 1 x_14_ ^ 2 - 2 x_100_ * x_14_ + 1 x_100_ ^ 2 + 1 y_14_ ^ 2 - 2 y_100_ * y_14_ + 1 y_100_ ^ 2 ] >= 5584.59
quadratic_ranged_197_lb: [ 1 x_39_ ^ 2 - 2 x_100_ * x_39_ + 1 x_100_ ^ 2 + 1 y_39_ ^ 2 - 2 y_100_ * y_39_ + 1 y_100_ ^ 2 ] >= 20215.8
c1_1: 1 x_6_ = 0
c2_1: 1 y_6_ = 0
Bounds
-128 <= x_1_ <= 128
-186 <= x_2_ <= 186
-160 <= x_3_ <= 160
-229 <= x_4_ <= 229
-208 <= x_5_ <= 208
x_6_ = 0
-237 <= x_7_ <= 237
-178 <= x_8_ <= 178
-248 <= x_9_ <= 248
-191 <= x_10_ <= 191
-67 <= x_11_ <= 67
-262 <= x_12_ <= 262
-309 <= x_13_ <= 309
-211 <= x_14_ <= 211
-132 <= x_15_ <= 132
-210 <= x_16_ <= 210
-93 <= x_17_ <= 93
-145 <= x_18_ <= 145
-275 <= x_19_ <= 275
-191 <= x_20_ <= 191
-154 <= x_21_ <= 154
-86 <= x_22_ <= 86
-190 <= x_23_ <= 190
-201 <= x_24_ <= 201
-249 <= x_25_ <= 249
-294 <= x_26_ <= 294
-92 <= x_27_ <= 92
-37 <= x_28_ <= 37
-305 <= x_29_ <= 305
-260 <= x_30_ <= 260
-356 <= x_31_ <= 356
-242 <= x_32_ <= 242
-203 <= x_33_ <= 203
-200 <= x_34_ <= 200
-155 <= x_35_ <= 155
-280 <= x_36_ <= 280
-140 <= x_37_ <= 140
-75 <= x_38_ <= 75
-203 <= x_39_ <= 203
-321 <= x_40_ <= 321
-275 <= x_41_ <= 275
-257 <= x_42_ <= 257
-206 <= x_43_ <= 206
-265 <= x_44_ <= 265
-114 <= x_45_ <= 114
-136 <= x_46_ <= 136
-184 <= x_47_ <= 184
-311 <= x_48_ <= 311
-93 <= x_49_ <= 93
-179 <= x_50_ <= 179
-219 <= x_51_ <= 219
-185 <= x_52_ <= 185
-220 <= x_53_ <= 220
-109 <= x_54_ <= 109
-104 <= x_55_ <= 104
-236 <= x_56_ <= 236
-114 <= x_57_ <= 114
-174 <= x_58_ <= 174
-331 <= x_59_ <= 331
-197 <= x_60_ <= 197
-145 <= x_61_ <= 145
-345 <= x_62_ <= 345
-204 <= x_63_ <= 204
-218 <= x_64_ <= 218
-220 <= x_65_ <= 220
-183 <= x_66_ <= 183
-277 <= x_67_ <= 277
-257 <= x_68_ <= 257
-82 <= x_69_ <= 82
-312 <= x_70_ <= 312
-242 <= x_71_ <= 242
-101 <= x_72_ <= 101
-179 <= x_73_ <= 179
-346 <= x_74_ <= 346
-272 <= x_75_ <= 272
-213 <= x_76_ <= 213
-216 <= x_77_ <= 216
-342 <= x_78_ <= 342
-321 <= x_79_ <= 321
-322 <= x_80_ <= 322
-127 <= x_81_ <= 127
-109 <= x_82_ <= 109
-229 <= x_83_ <= 229
-344 <= x_84_ <= 344
-146 <= x_85_ <= 146
-388 <= x_86_ <= 388
-277 <= x_87_ <= 277
-273 <= x_88_ <= 273
-219 <= x_89_ <= 219
-263 <= x_90_ <= 263
-230 <= x_91_ <= 230
-110 <= x_92_ <= 110
-181 <= x_93_ <= 181
-246 <= x_94_ <= 246
-314 <= x_95_ <= 314
-247 <= x_96_ <= 247
-373 <= x_97_ <= 373
-120 <= x_98_ <= 120
-418 <= x_99_ <= 418
-269 <= x_100_ <= 269
-128 <= y_1_ <= 128
-186 <= y_2_ <= 186
-160 <= y_3_ <= 160
-229 <= y_4_ <= 229
-208 <= y_5_ <= 208
y_6_ = 0
-237 <= y_7_ <= 237
-178 <= y_8_ <= 178
-248 <= y_9_ <= 248
-191 <= y_10_ <= 191
-67 <= y_11_ <= 67
-262 <= y_12_ <= 262
-309 <= y_13_ <= 309
-211 <= y_14_ <= 211
-132 <= y_15_ <= 132
-210 <= y_16_ <= 210
-93 <= y_17_ <= 93
-145 <= y_18_ <= 145
-275 <= y_19_ <= 275
-191 <= y_20_ <= 191
-154 <= y_21_ <= 154
-86 <= y_22_ <= 86
-190 <= y_23_ <= 190
-201 <= y_24_ <= 201
-249 <= y_25_ <= 249
-294 <= y_26_ <= 294
-92 <= y_27_ <= 92
-37 <= y_28_ <= 37
-305 <= y_29_ <= 305
-260 <= y_30_ <= 260
-356 <= y_31_ <= 356
-242 <= y_32_ <= 242
-203 <= y_33_ <= 203
-200 <= y_34_ <= 200
-155 <= y_35_ <= 155
-280 <= y_36_ <= 280
-140 <= y_37_ <= 140
-75 <= y_38_ <= 75
-203 <= y_39_ <= 203
-321 <= y_40_ <= 321
-275 <= y_41_ <= 275
-257 <= y_42_ <= 257
-206 <= y_43_ <= 206
-265 <= y_44_ <= 265
-114 <= y_45_ <= 114
-136 <= y_46_ <= 136
-184 <= y_47_ <= 184
-311 <= y_48_ <= 311
-93 <= y_49_ <= 93
-179 <= y_50_ <= 179
-219 <= y_51_ <= 219
-185 <= y_52_ <= 185
-220 <= y_53_ <= 220
-109 <= y_54_ <= 109
-104 <= y_55_ <= 104
-236 <= y_56_ <= 236
-114 <= y_57_ <= 114
-174 <= y_58_ <= 174
-331 <= y_59_ <= 331
-197 <= y_60_ <= 197
-145 <= y_61_ <= 145
-345 <= y_62_ <= 345
-204 <= y_63_ <= 204
-218 <= y_64_ <= 218
-220 <= y_65_ <= 220
-183 <= y_66_ <= 183
-277 <= y_67_ <= 277
-257 <= y_68_ <= 257
-82 <= y_69_ <= 82
-312 <= y_70_ <= 312
-242 <= y_71_ <= 242
-101 <= y_72_ <= 101
-179 <= y_73_ <= 179
-346 <= y_74_ <= 346
-272 <= y_75_ <= 272
-213 <= y_76_ <= 213
-216 <= y_77_ <= 216
-342 <= y_78_ <= 342
-321 <= y_79_ <= 321
-322 <= y_80_ <= 322
-127 <= y_81_ <= 127
-109 <= y_82_ <= 109
-229 <= y_83_ <= 229
-344 <= y_84_ <= 344
-146 <= y_85_ <= 146
-388 <= y_86_ <= 388
-277 <= y_87_ <= 277
-273 <= y_88_ <= 273
-219 <= y_89_ <= 219
-263 <= y_90_ <= 263
-230 <= y_91_ <= 230
-110 <= y_92_ <= 110
-181 <= y_93_ <= 181
-246 <= y_94_ <= 246
-314 <= y_95_ <= 314
-247 <= y_96_ <= 247
-373 <= y_97_ <= 373
-120 <= y_98_ <= 120
-418 <= y_99_ <= 418
-269 <= y_100_ <= 269
General
x_1_
x_2_
x_3_
x_4_
x_5_
x_6_
x_7_
x_8_
x_9_
x_10_
x_11_
x_12_
x_13_
x_14_
x_15_
x_16_
x_17_
x_18_
x_19_
x_20_
x_21_
x_22_
x_23_
x_24_
x_25_
x_26_
x_27_
x_28_
x_29_
x_30_
x_31_
x_32_
x_33_
x_34_
x_35_
x_36_
x_37_
x_38_
x_39_
x_40_
x_41_
x_42_
x_43_
x_44_
x_45_
x_46_
x_47_
x_48_
x_49_
x_50_
x_51_
x_52_
x_53_
x_54_
x_55_
x_56_
x_57_
x_58_
x_59_
x_60_
x_61_
x_62_
x_63_
x_64_
x_65_
x_66_
x_67_
x_68_
x_69_
x_70_
x_71_
x_72_
x_73_
x_74_
x_75_
x_76_
x_77_
x_78_
x_79_
x_80_
x_81_
x_82_
x_83_
x_84_
x_85_
x_86_
x_87_
x_88_
x_89_
x_90_
x_91_
x_92_
x_93_
x_94_
x_95_
x_96_
x_97_
x_98_
x_99_
x_100_
y_1_
y_2_
y_3_
y_4_
y_5_
y_6_
y_7_
y_8_
y_9_
y_10_
y_11_
y_12_
y_13_
y_14_
y_15_
y_16_
y_17_
y_18_
y_19_
y_20_
y_21_
y_22_
y_23_
y_24_
y_25_
y_26_
y_27_
y_28_
y_29_
y_30_
y_31_
y_32_
y_33_
y_34_
y_35_
y_36_
y_37_
y_38_
y_39_
y_40_
y_41_
y_42_
y_43_
y_44_
y_45_
y_46_
y_47_
y_48_
y_49_
y_50_
y_51_
y_52_
y_53_
y_54_
y_55_
y_56_
y_57_
y_58_
y_59_
y_60_
y_61_
y_62_
y_63_
y_64_
y_65_
y_66_
y_67_
y_68_
y_69_
y_70_
y_71_
y_72_
y_73_
y_74_
y_75_
y_76_
y_77_
y_78_
y_79_
y_80_
y_81_
y_82_
y_83_
y_84_
y_85_
y_86_
y_87_
y_88_
y_89_
y_90_
y_91_
y_92_
y_93_
y_94_
y_95_
y_96_
y_97_
y_98_
y_99_
y_100_
End
