minimize
obj: 
subject to
c1_3: -1 x_12_ + 1 y_12_ <= 0
c1: [ 1 x_1_ ^ 2 + 1 y_1_ ^ 2 ] <= 74797.06996102972
c2: [ 1 x_2_ ^ 2 + 1 y_2_ ^ 2 ] <= 34679.47899749483
c3: [ 1 x_3_ ^ 2 + 1 y_3_ ^ 2 ] <= 18713.66295914421
c4: [ 1 x_4_ ^ 2 + 1 y_4_ ^ 2 ] <= 18955.09056949485
c5: [ 1 x_5_ ^ 2 + 1 y_5_ ^ 2 ] <= 41608.61225899193
c6: [ 1 x_6_ ^ 2 + 1 y_6_ ^ 2 ] <= 52105.29470559099
c7: [ 1 x_7_ ^ 2 + 1 y_7_ ^ 2 ] <= 27764.748456926674
c8: [ 1 x_8_ ^ 2 + 1 y_8_ ^ 2 ] <= 19527.392847351504
c9: [ 1 x_9_ ^ 2 + 1 y_9_ ^ 2 ] <= 429.24999999999994
c10: [ 1 x_10_ ^ 2 + 1 y_10_ ^ 2 ] <= 59344.035018593284
c11: [ 1 x_11_ ^ 2 + 1 y_11_ ^ 2 ] <= 62181.623983755104
c12: [ 1 x_12_ ^ 2 + 1 y_12_ ^ 2 ] <= 76800.79826336558
c13: [ 1 x_13_ ^ 2 + 1 y_13_ ^ 2 ] <= 66339.34662944423
c14: [ 1 x_15_ ^ 2 + 1 y_15_ ^ 2 ] <= 26048.981558955842
c15: [ 1 x_16_ ^ 2 + 1 y_16_ ^ 2 ] <= 65917.35673807947
c16: [ 1 x_17_ ^ 2 + 1 y_17_ ^ 2 ] <= 59615.25981090103
c17: [ 1 x_18_ ^ 2 + 1 y_18_ ^ 2 ] <= 19300.09
c18: [ 1 x_19_ ^ 2 + 1 y_19_ ^ 2 ] <= 24784.04385638013
c19: [ 1 x_20_ ^ 2 + 1 y_20_ ^ 2 ] <= 3425.9199999999996
quadratic_ranged_1_ub: [ 1 x_1_ ^ 2 - 2 x_2_ * x_1_ + 1 x_2_ ^ 2 + 1 y_1_ ^ 2 - 2 y_2_ * y_1_ + 1 y_2_ ^ 2 ] <= 7615.4
quadratic_ranged_2_ub: [ 1 x_1_ ^ 2 - 2 x_3_ * x_1_ + 1 x_3_ ^ 2 + 1 y_1_ ^ 2 - 2 y_3_ * y_1_ + 1 y_3_ ^ 2 ] <= 53345.17
quadratic_ranged_3_ub: [ 1 x_2_ ^ 2 - 2 x_4_ * x_2_ + 1 x_4_ ^ 2 + 1 y_2_ ^ 2 - 2 y_4_ * y_2_ + 1 y_4_ ^ 2 ] <= 20124.25
quadratic_ranged_4_ub: [ 1 x_2_ ^ 2 - 2 x_5_ * x_2_ + 1 x_5_ ^ 2 + 1 y_2_ ^ 2 - 2 y_5_ * y_2_ + 1 y_5_ ^ 2 ] <= 10481.78
quadratic_ranged_5_ub: [ 1 x_3_ ^ 2 - 2 x_5_ * x_3_ + 1 x_5_ ^ 2 + 1 y_3_ ^ 2 - 2 y_5_ * y_3_ + 1 y_5_ ^ 2 ] <= 4513.69
quadratic_ranged_6_ub: [ 1 x_1_ ^ 2 - 2 x_6_ * x_1_ + 1 x_6_ ^ 2 + 1 y_1_ ^ 2 - 2 y_6_ * y_1_ + 1 y_6_ ^ 2 ] <= 12960.32
quadratic_ranged_7_ub: [ 1 x_2_ ^ 2 - 2 x_6_ * x_2_ + 1 x_6_ ^ 2 + 1 y_2_ ^ 2 - 2 y_6_ * y_2_ + 1 y_6_ ^ 2 ] <= 4141
quadratic_ranged_8_ub: [ 1 x_4_ ^ 2 - 2 x_6_ * x_4_ + 1 x_6_ ^ 2 + 1 y_4_ ^ 2 - 2 y_6_ * y_4_ + 1 y_6_ ^ 2 ] <= 8206.25
quadratic_ranged_9_ub: [ 1 x_1_ ^ 2 - 2 x_7_ * x_1_ + 1 x_7_ ^ 2 + 1 y_1_ ^ 2 - 2 y_7_ * y_1_ + 1 y_7_ ^ 2 ] <= 67720.5
quadratic_ranged_10_ub: [ 1 x_3_ ^ 2 - 2 x_7_ * x_3_ + 1 x_7_ ^ 2 + 1 y_3_ ^ 2 - 2 y_7_ * y_3_ + 1 y_7_ ^ 2 ] <= 889.8100000000001
quadratic_ranged_11_ub: [ 1 x_2_ ^ 2 - 2 x_9_ * x_2_ + 1 x_9_ ^ 2 + 1 y_2_ ^ 2 - 2 y_9_ * y_2_ + 1 y_9_ ^ 2 ] <= 27392.21
quadratic_ranged_12_ub: [ 1 x_4_ ^ 2 - 2 x_9_ * x_4_ + 1 x_9_ ^ 2 + 1 y_4_ ^ 2 - 2 y_9_ * y_4_ + 1 y_9_ ^ 2 ] <= 13679.44
quadratic_ranged_13_ub: [ 1 x_8_ ^ 2 - 2 x_9_ * x_8_ + 1 x_9_ ^ 2 + 1 y_8_ ^ 2 - 2 y_9_ * y_8_ + 1 y_9_ ^ 2 ] <= 14166.26
quadratic_ranged_14_ub: [ 1 x_6_ ^ 2 - 2 x_10_ * x_6_ + 1 x_10_ ^ 2 + 1 y_6_ ^ 2 - 2 y_10_ * y_6_ + 1 y_10_ ^ 2 ] <= 235.33
quadratic_ranged_15_ub: [ 1 x_1_ ^ 2 - 2 x_11_ * x_1_ + 1 x_11_ ^ 2 + 1 y_1_ ^ 2 - 2 y_11_ * y_1_ + 1 y_11_ ^ 2 ] <= 41467.57
quadratic_ranged_16_ub: [ 1 x_8_ ^ 2 - 2 x_11_ * x_8_ + 1 x_11_ ^ 2 + 1 y_8_ ^ 2 - 2 y_11_ * y_8_ + 1 y_11_ ^ 2 ] <= 12016.98
quadratic_ranged_17_ub: [ 1 x_10_ ^ 2 - 2 x_11_ * x_10_ + 1 x_11_ ^ 2 + 1 y_10_ ^ 2 - 2 y_11_ * y_10_ + 1 y_11_ ^ 2 ] <= 8791.04
quadratic_ranged_18_ub: [ 1 x_3_ ^ 2 - 2 x_12_ * x_3_ + 1 x_12_ ^ 2 + 1 y_3_ ^ 2 - 2 y_12_ * y_3_ + 1 y_12_ ^ 2 ] <= 19692.98
quadratic_ranged_19_ub: [ 1 x_7_ ^ 2 - 2 x_12_ * x_7_ + 1 x_12_ ^ 2 + 1 y_7_ ^ 2 - 2 y_12_ * y_7_ + 1 y_12_ ^ 2 ] <= 26374.13
quadratic_ranged_20_ub: [ 1 x_8_ ^ 2 - 2 x_12_ * x_8_ + 1 x_12_ ^ 2 + 1 y_8_ ^ 2 - 2 y_12_ * y_8_ + 1 y_12_ ^ 2 ] <= 19402.1
quadratic_ranged_21_ub: [ 1 x_2_ ^ 2 - 2 x_13_ * x_2_ + 1 x_13_ ^ 2 + 1 y_2_ ^ 2 - 2 y_13_ * y_2_ + 1 y_13_ ^ 2 ] <= 9312.2
quadratic_ranged_22_ub: [ 1 x_8_ ^ 2 - 2 x_13_ * x_8_ + 1 x_13_ ^ 2 + 1 y_8_ ^ 2 - 2 y_13_ * y_8_ + 1 y_13_ ^ 2 ] <= 13882.45
quadratic_ranged_23_ub: [ 1 x_9_ ^ 2 - 2 x_14_ * x_9_ + 1 x_14_ ^ 2 + 1 y_9_ ^ 2 - 2 y_14_ * y_9_ + 1 y_14_ ^ 2 ] <= 429.25
quadratic_ranged_24_ub: [ 1 x_1_ ^ 2 - 2 x_15_ * x_1_ + 1 x_15_ ^ 2 + 1 y_1_ ^ 2 - 2 y_15_ * y_1_ + 1 y_15_ ^ 2 ] <= 35516.65
quadratic_ranged_25_ub: [ 1 x_2_ ^ 2 - 2 x_15_ * x_2_ + 1 x_15_ ^ 2 + 1 y_2_ ^ 2 - 2 y_15_ * y_2_ + 1 y_15_ ^ 2 ] <= 10779.73
quadratic_ranged_26_ub: [ 1 x_3_ ^ 2 - 2 x_15_ * x_3_ + 1 x_15_ ^ 2 + 1 y_3_ ^ 2 - 2 y_15_ * y_3_ + 1 y_15_ ^ 2 ] <= 10706
quadratic_ranged_27_ub: [ 1 x_7_ ^ 2 - 2 x_16_ * x_7_ + 1 x_16_ ^ 2 + 1 y_7_ ^ 2 - 2 y_16_ * y_7_ + 1 y_16_ ^ 2 ] <= 37210.42
quadratic_ranged_28_ub: [ 1 x_15_ ^ 2 - 2 x_16_ * x_15_ + 1 x_16_ ^ 2 + 1 y_15_ ^ 2 - 2 y_16_ * y_15_ + 1 y_16_ ^ 2 ] <= 9091.01
quadratic_ranged_29_ub: [ 1 x_2_ ^ 2 - 2 x_17_ * x_2_ + 1 x_17_ ^ 2 + 1 y_2_ ^ 2 - 2 y_17_ * y_2_ + 1 y_17_ ^ 2 ] <= 5116.66
quadratic_ranged_30_ub: [ 1 x_3_ ^ 2 - 2 x_17_ * x_3_ + 1 x_17_ ^ 2 + 1 y_3_ ^ 2 - 2 y_17_ * y_3_ + 1 y_17_ ^ 2 ] <= 11527.13
quadratic_ranged_31_ub: [ 1 x_14_ ^ 2 - 2 x_18_ * x_14_ + 1 x_18_ ^ 2 + 1 y_14_ ^ 2 - 2 y_18_ * y_14_ + 1 y_18_ ^ 2 ] <= 19300.09
quadratic_ranged_32_ub: [ 1 x_15_ ^ 2 - 2 x_18_ * x_15_ + 1 x_18_ ^ 2 + 1 y_15_ ^ 2 - 2 y_18_ * y_15_ + 1 y_18_ ^ 2 ] <= 505
quadratic_ranged_33_ub: [ 1 x_3_ ^ 2 - 2 x_19_ * x_3_ + 1 x_19_ ^ 2 + 1 y_3_ ^ 2 - 2 y_19_ * y_3_ + 1 y_19_ ^ 2 ] <= 8598.13
quadratic_ranged_34_ub: [ 1 x_8_ ^ 2 - 2 x_19_ * x_8_ + 1 x_19_ ^ 2 + 1 y_8_ ^ 2 - 2 y_19_ * y_8_ + 1 y_19_ ^ 2 ] <= 22693.69
quadratic_ranged_35_ub: [ 1 x_3_ ^ 2 - 2 x_20_ * x_3_ + 1 x_20_ ^ 2 + 1 y_3_ ^ 2 - 2 y_20_ * y_3_ + 1 y_20_ ^ 2 ] <= 6125.65
quadratic_ranged_36_ub: [ 1 x_14_ ^ 2 - 2 x_20_ * x_14_ + 1 x_20_ ^ 2 + 1 y_14_ ^ 2 - 2 y_20_ * y_14_ + 1 y_20_ ^ 2 ] <= 3425.92
quadratic_ranged_37_ub: [ 1 x_19_ ^ 2 - 2 x_20_ * x_19_ + 1 x_20_ ^ 2 + 1 y_19_ ^ 2 - 2 y_20_ * y_19_ + 1 y_20_ ^ 2 ] <= 9780.84
c1_2: 1 x_12_ >= 0
c2_2: 1 y_12_ >= 0
quadratic_ranged_1_lb: [ 1 x_1_ ^ 2 - 2 x_2_ * x_1_ + 1 x_2_ ^ 2 + 1 y_1_ ^ 2 - 2 y_2_ * y_1_ + 1 y_2_ ^ 2 ] >= 7464.6
quadratic_ranged_2_lb: [ 1 x_1_ ^ 2 - 2 x_3_ * x_1_ + 1 x_3_ ^ 2 + 1 y_1_ ^ 2 - 2 y_3_ * y_1_ + 1 y_3_ ^ 2 ] >= 52288.83
quadratic_ranged_3_lb: [ 1 x_2_ ^ 2 - 2 x_4_ * x_2_ + 1 x_4_ ^ 2 + 1 y_2_ ^ 2 - 2 y_4_ * y_2_ + 1 y_4_ ^ 2 ] >= 19725.75
quadratic_ranged_4_lb: [ 1 x_2_ ^ 2 - 2 x_5_ * x_2_ + 1 x_5_ ^ 2 + 1 y_2_ ^ 2 - 2 y_5_ * y_2_ + 1 y_5_ ^ 2 ] >= 10274.22
quadratic_ranged_5_lb: [ 1 x_3_ ^ 2 - 2 x_5_ * x_3_ + 1 x_5_ ^ 2 + 1 y_3_ ^ 2 - 2 y_5_ * y_3_ + 1 y_5_ ^ 2 ] >= 4424.31
quadratic_ranged_6_lb: [ 1 x_1_ ^ 2 - 2 x_6_ * x_1_ + 1 x_6_ ^ 2 + 1 y_1_ ^ 2 - 2 y_6_ * y_1_ + 1 y_6_ ^ 2 ] >= 12703.68
quadratic_ranged_7_lb: [ 1 x_2_ ^ 2 - 2 x_6_ * x_2_ + 1 x_6_ ^ 2 + 1 y_2_ ^ 2 - 2 y_6_ * y_2_ + 1 y_6_ ^ 2 ] >= 4059
quadratic_ranged_8_lb: [ 1 x_4_ ^ 2 - 2 x_6_ * x_4_ + 1 x_6_ ^ 2 + 1 y_4_ ^ 2 - 2 y_6_ * y_4_ + 1 y_6_ ^ 2 ] >= 8043.75
quadratic_ranged_9_lb: [ 1 x_1_ ^ 2 - 2 x_7_ * x_1_ + 1 x_7_ ^ 2 + 1 y_1_ ^ 2 - 2 y_7_ * y_1_ + 1 y_7_ ^ 2 ] >= 66379.5
quadratic_ranged_10_lb: [ 1 x_3_ ^ 2 - 2 x_7_ * x_3_ + 1 x_7_ ^ 2 + 1 y_3_ ^ 2 - 2 y_7_ * y_3_ + 1 y_7_ ^ 2 ] >= 872.1899999999999
quadratic_ranged_11_lb: [ 1 x_2_ ^ 2 - 2 x_9_ * x_2_ + 1 x_9_ ^ 2 + 1 y_2_ ^ 2 - 2 y_9_ * y_2_ + 1 y_9_ ^ 2 ] >= 26849.79
quadratic_ranged_12_lb: [ 1 x_4_ ^ 2 - 2 x_9_ * x_4_ + 1 x_9_ ^ 2 + 1 y_4_ ^ 2 - 2 y_9_ * y_4_ + 1 y_9_ ^ 2 ] >= 13408.56
quadratic_ranged_13_lb: [ 1 x_8_ ^ 2 - 2 x_9_ * x_8_ + 1 x_9_ ^ 2 + 1 y_8_ ^ 2 - 2 y_9_ * y_8_ + 1 y_9_ ^ 2 ] >= 13885.74
quadratic_ranged_14_lb: [ 1 x_6_ ^ 2 - 2 x_10_ * x_6_ + 1 x_10_ ^ 2 + 1 y_6_ ^ 2 - 2 y_10_ * y_6_ + 1 y_10_ ^ 2 ] >= 230.67
quadratic_ranged_15_lb: [ 1 x_1_ ^ 2 - 2 x_11_ * x_1_ + 1 x_11_ ^ 2 + 1 y_1_ ^ 2 - 2 y_11_ * y_1_ + 1 y_11_ ^ 2 ] >= 40646.43
quadratic_ranged_16_lb: [ 1 x_8_ ^ 2 - 2 x_11_ * x_8_ + 1 x_11_ ^ 2 + 1 y_8_ ^ 2 - 2 y_11_ * y_8_ + 1 y_11_ ^ 2 ] >= 11779.02
quadratic_ranged_17_lb: [ 1 x_10_ ^ 2 - 2 x_11_ * x_10_ + 1 x_11_ ^ 2 + 1 y_10_ ^ 2 - 2 y_11_ * y_10_ + 1 y_11_ ^ 2 ] >= 8616.96
quadratic_ranged_18_lb: [ 1 x_3_ ^ 2 - 2 x_12_ * x_3_ + 1 x_12_ ^ 2 + 1 y_3_ ^ 2 - 2 y_12_ * y_3_ + 1 y_12_ ^ 2 ] >= 19303.02
quadratic_ranged_19_lb: [ 1 x_7_ ^ 2 - 2 x_12_ * x_7_ + 1 x_12_ ^ 2 + 1 y_7_ ^ 2 - 2 y_12_ * y_7_ + 1 y_12_ ^ 2 ] >= 25851.87
quadratic_ranged_20_lb: [ 1 x_8_ ^ 2 - 2 x_12_ * x_8_ + 1 x_12_ ^ 2 + 1 y_8_ ^ 2 - 2 y_12_ * y_8_ + 1 y_12_ ^ 2 ] >= 19017.9
quadratic_ranged_21_lb: [ 1 x_2_ ^ 2 - 2 x_13_ * x_2_ + 1 x_13_ ^ 2 + 1 y_2_ ^ 2 - 2 y_13_ * y_2_ + 1 y_13_ ^ 2 ] >= 9127.8
quadratic_ranged_22_lb: [ 1 x_8_ ^ 2 - 2 x_13_ * x_8_ + 1 x_13_ ^ 2 + 1 y_8_ ^ 2 - 2 y_13_ * y_8_ + 1 y_13_ ^ 2 ] >= 13607.55
quadratic_ranged_23_lb: [ 1 x_9_ ^ 2 - 2 x_14_ * x_9_ + 1 x_14_ ^ 2 + 1 y_9_ ^ 2 - 2 y_14_ * y_9_ + 1 y_14_ ^ 2 ] >= 420.75
quadratic_ranged_24_lb: [ 1 x_1_ ^ 2 - 2 x_15_ * x_1_ + 1 x_15_ ^ 2 + 1 y_1_ ^ 2 - 2 y_15_ * y_1_ + 1 y_15_ ^ 2 ] >= 34813.35
quadratic_ranged_25_lb: [ 1 x_2_ ^ 2 - 2 x_15_ * x_2_ + 1 x_15_ ^ 2 + 1 y_2_ ^ 2 - 2 y_15_ * y_2_ + 1 y_15_ ^ 2 ] >= 10566.27
quadratic_ranged_26_lb: [ 1 x_3_ ^ 2 - 2 x_15_ * x_3_ + 1 x_15_ ^ 2 + 1 y_3_ ^ 2 - 2 y_15_ * y_3_ + 1 y_15_ ^ 2 ] >= 10494
quadratic_ranged_27_lb: [ 1 x_7_ ^ 2 - 2 x_16_ * x_7_ + 1 x_16_ ^ 2 + 1 y_7_ ^ 2 - 2 y_16_ * y_7_ + 1 y_16_ ^ 2 ] >= 36473.58
quadratic_ranged_28_lb: [ 1 x_15_ ^ 2 - 2 x_16_ * x_15_ + 1 x_16_ ^ 2 + 1 y_15_ ^ 2 - 2 y_16_ * y_15_ + 1 y_16_ ^ 2 ] >= 8910.99
quadratic_ranged_29_lb: [ 1 x_2_ ^ 2 - 2 x_17_ * x_2_ + 1 x_17_ ^ 2 + 1 y_2_ ^ 2 - 2 y_17_ * y_2_ + 1 y_17_ ^ 2 ] >= 5015.34
quadratic_ranged_30_lb: [ 1 x_3_ ^ 2 - 2 x_17_ * x_3_ + 1 x_17_ ^ 2 + 1 y_3_ ^ 2 - 2 y_17_ * y_3_ + 1 y_17_ ^ 2 ] >= 11298.87
quadratic_ranged_31_lb: [ 1 x_14_ ^ 2 - 2 x_18_ * x_14_ + 1 x_18_ ^ 2 + 1 y_14_ ^ 2 - 2 y_18_ * y_14_ + 1 y_18_ ^ 2 ] >= 18917.91
quadratic_ranged_32_lb: [ 1 x_15_ ^ 2 - 2 x_18_ * x_15_ + 1 x_18_ ^ 2 + 1 y_15_ ^ 2 - 2 y_18_ * y_15_ + 1 y_18_ ^ 2 ] >= 495
quadratic_ranged_33_lb: [ 1 x_3_ ^ 2 - 2 x_19_ * x_3_ + 1 x_19_ ^ 2 + 1 y_3_ ^ 2 - 2 y_19_ * y_3_ + 1 y_19_ ^ 2 ] >= 8427.87
quadratic_ranged_34_lb: [ 1 x_8_ ^ 2 - 2 x_19_ * x_8_ + 1 x_19_ ^ 2 + 1 y_8_ ^ 2 - 2 y_19_ * y_8_ + 1 y_19_ ^ 2 ] >= 22244.31
quadratic_ranged_35_lb: [ 1 x_3_ ^ 2 - 2 x_20_ * x_3_ + 1 x_20_ ^ 2 + 1 y_3_ ^ 2 - 2 y_20_ * y_3_ + 1 y_20_ ^ 2 ] >= 6004.35
quadratic_ranged_36_lb: [ 1 x_14_ ^ 2 - 2 x_20_ * x_14_ + 1 x_20_ ^ 2 + 1 y_14_ ^ 2 - 2 y_20_ * y_14_ + 1 y_20_ ^ 2 ] >= 3358.08
quadratic_ranged_37_lb: [ 1 x_19_ ^ 2 - 2 x_20_ * x_19_ + 1 x_20_ ^ 2 + 1 y_19_ ^ 2 - 2 y_20_ * y_19_ + 1 y_20_ ^ 2 ] >= 9587.16
c1_1: 1 x_14_ = 0
c2_1: 1 y_14_ = 0
Bounds
-273 <= x_1_ <= 273
-186 <= x_2_ <= 186
-136 <= x_3_ <= 136
-137 <= x_4_ <= 137
-203 <= x_5_ <= 203
-228 <= x_6_ <= 228
-166 <= x_7_ <= 166
-139 <= x_8_ <= 139
-20 <= x_9_ <= 20
-243 <= x_10_ <= 243
-249 <= x_11_ <= 249
-277 <= x_12_ <= 277
-257 <= x_13_ <= 257
x_14_ = 0
-161 <= x_15_ <= 161
-256 <= x_16_ <= 256
-244 <= x_17_ <= 244
-138 <= x_18_ <= 138
-157 <= x_19_ <= 157
-58 <= x_20_ <= 58
-273 <= y_1_ <= 273
-186 <= y_2_ <= 186
-136 <= y_3_ <= 136
-137 <= y_4_ <= 137
-203 <= y_5_ <= 203
-228 <= y_6_ <= 228
-166 <= y_7_ <= 166
-139 <= y_8_ <= 139
-20 <= y_9_ <= 20
-243 <= y_10_ <= 243
-249 <= y_11_ <= 249
-277 <= y_12_ <= 277
-257 <= y_13_ <= 257
y_14_ = 0
-161 <= y_15_ <= 161
-256 <= y_16_ <= 256
-244 <= y_17_ <= 244
-138 <= y_18_ <= 138
-157 <= y_19_ <= 157
-58 <= y_20_ <= 58
General
x_1_
x_2_
x_3_
x_4_
x_5_
x_6_
x_7_
x_8_
x_9_
x_10_
x_11_
x_12_
x_13_
x_14_
x_15_
x_16_
x_17_
x_18_
x_19_
x_20_
y_1_
y_2_
y_3_
y_4_
y_5_
y_6_
y_7_
y_8_
y_9_
y_10_
y_11_
y_12_
y_13_
y_14_
y_15_
y_16_
y_17_
y_18_
y_19_
y_20_
End
