minimize
obj: 
subject to
c1_1: 134 x_1_ - 90 y_1_ + [ 1 x_1_ ^ 2 + 1 y_1_ ^ 2 ] <= 20883
c2_1: 134 x_2_ - 90 y_2_ + [ 1 x_2_ ^ 2 + 1 y_2_ ^ 2 ] <= 62660
c3_1: 134 x_4_ - 90 y_4_ + [ 1 x_4_ ^ 2 + 1 y_4_ ^ 2 ] <= 109928
c4_1: 134 x_5_ - 90 y_5_ + [ 1 x_5_ ^ 2 + 1 y_5_ ^ 2 ] <= 28726
c5_1: 134 x_6_ - 90 y_6_ + [ 1 x_6_ ^ 2 + 1 y_6_ ^ 2 ] <= 98807
c6_1: 134 x_7_ - 90 y_7_ + [ 1 x_7_ ^ 2 + 1 y_7_ ^ 2 ] <= 59648
c7_1: 134 x_8_ - 90 y_8_ + [ 1 x_8_ ^ 2 + 1 y_8_ ^ 2 ] <= 14940
c8_1: 134 x_9_ - 90 y_9_ + [ 1 x_9_ ^ 2 + 1 y_9_ ^ 2 ] <= 16690
c9_1: 134 x_10_ - 90 y_10_ + [ 1 x_10_ ^ 2 + 1 y_10_ ^ 2 ] <= 1165
c10_1: 134 x_11_ - 90 y_11_ + [ 1 x_11_ ^ 2 + 1 y_11_ ^ 2 ] <= 71412
c11_1: 134 x_12_ - 90 y_12_ + [ 1 x_12_ ^ 2 + 1 y_12_ ^ 2 ] <= 51431
c12_1: 134 x_13_ - 90 y_13_ + [ 1 x_13_ ^ 2 + 1 y_13_ ^ 2 ] <= 14739
c13_1: 134 x_14_ - 90 y_14_ + [ 1 x_14_ ^ 2 + 1 y_14_ ^ 2 ] <= -3271
c14_1: 134 x_15_ - 90 y_15_ + [ 1 x_15_ ^ 2 + 1 y_15_ ^ 2 ] <= -6128
c15_1: 134 x_16_ - 90 y_16_ + [ 1 x_16_ ^ 2 + 1 y_16_ ^ 2 ] <= 38300
c16_1: 134 x_17_ - 90 y_17_ + [ 1 x_17_ ^ 2 + 1 y_17_ ^ 2 ] <= 65959
c17_1: 134 x_18_ - 90 y_18_ + [ 1 x_18_ ^ 2 + 1 y_18_ ^ 2 ] <= -4658
c18_1: 134 x_19_ - 90 y_19_ + [ 1 x_19_ ^ 2 + 1 y_19_ ^ 2 ] <= 57456
c19_1: 134 x_20_ - 90 y_20_ + [ 1 x_20_ ^ 2 + 1 y_20_ ^ 2 ] <= 17315
c20_1: 134 x_21_ - 90 y_21_ + [ 1 x_21_ ^ 2 + 1 y_21_ ^ 2 ] <= 39432
c21_1: 134 x_22_ - 90 y_22_ + [ 1 x_22_ ^ 2 + 1 y_22_ ^ 2 ] <= 7831
c22_1: 134 x_23_ - 90 y_23_ + [ 1 x_23_ ^ 2 + 1 y_23_ ^ 2 ] <= 98170
c23_1: 134 x_24_ - 90 y_24_ + [ 1 x_24_ ^ 2 + 1 y_24_ ^ 2 ] <= 87871
c24_1: 134 x_25_ - 90 y_25_ + [ 1 x_25_ ^ 2 + 1 y_25_ ^ 2 ] <= -4850
c25_1: 134 x_26_ - 90 y_26_ + [ 1 x_26_ ^ 2 + 1 y_26_ ^ 2 ] <= 30504
c26_1: 156 x_1_ - 152 y_1_ + [ 1 x_1_ ^ 2 + 1 y_1_ ^ 2 ] <= 52226
c27_1: 156 x_2_ - 152 y_2_ + [ 1 x_2_ ^ 2 + 1 y_2_ ^ 2 ] <= 58092
c28_1: 156 x_3_ - 152 y_3_ + [ 1 x_3_ ^ 2 + 1 y_3_ ^ 2 ] <= -4181
c29_1: 156 x_4_ - 152 y_4_ + [ 1 x_4_ ^ 2 + 1 y_4_ ^ 2 ] <= 106917
c30_1: 156 x_5_ - 152 y_5_ + [ 1 x_5_ ^ 2 + 1 y_5_ ^ 2 ] <= 34990
c31_1: 156 x_6_ - 152 y_6_ + [ 1 x_6_ ^ 2 + 1 y_6_ ^ 2 ] <= 94421
c32_1: 156 x_7_ - 152 y_7_ + [ 1 x_7_ ^ 2 + 1 y_7_ ^ 2 ] <= 55063
c33_1: 156 x_8_ - 152 y_8_ + [ 1 x_8_ ^ 2 + 1 y_8_ ^ 2 ] <= 26091
c34_1: 156 x_9_ - 152 y_9_ + [ 1 x_9_ ^ 2 + 1 y_9_ ^ 2 ] <= 11796
c35_1: 156 x_11_ - 152 y_11_ + [ 1 x_11_ ^ 2 + 1 y_11_ ^ 2 ] <= 66892
c36_1: 156 x_12_ - 152 y_12_ + [ 1 x_12_ ^ 2 + 1 y_12_ ^ 2 ] <= 71693
c37_1: 156 x_13_ - 152 y_13_ + [ 1 x_13_ ^ 2 + 1 y_13_ ^ 2 ] <= 42623
c38_1: 156 x_14_ - 152 y_14_ + [ 1 x_14_ ^ 2 + 1 y_14_ ^ 2 ] <= -4775
c39_1: 156 x_15_ - 152 y_15_ + [ 1 x_15_ ^ 2 + 1 y_15_ ^ 2 ] <= -7238
c40_1: 156 x_16_ - 152 y_16_ + [ 1 x_16_ ^ 2 + 1 y_16_ ^ 2 ] <= 33581
c41_1: 156 x_17_ - 152 y_17_ + [ 1 x_17_ ^ 2 + 1 y_17_ ^ 2 ] <= 62458
c42_1: 156 x_18_ - 152 y_18_ + [ 1 x_18_ ^ 2 + 1 y_18_ ^ 2 ] <= -9875
c43_1: 156 x_19_ - 152 y_19_ + [ 1 x_19_ ^ 2 + 1 y_19_ ^ 2 ] <= 52859
c44_1: 156 x_20_ - 152 y_20_ + [ 1 x_20_ ^ 2 + 1 y_20_ ^ 2 ] <= 13031
c45_1: 156 x_21_ - 152 y_21_ + [ 1 x_21_ ^ 2 + 1 y_21_ ^ 2 ] <= 34721
c46_1: 156 x_22_ - 152 y_22_ + [ 1 x_22_ ^ 2 + 1 y_22_ ^ 2 ] <= 2841
c47_1: 156 x_23_ - 152 y_23_ + [ 1 x_23_ ^ 2 + 1 y_23_ ^ 2 ] <= 102271
c48_1: 156 x_24_ - 152 y_24_ + [ 1 x_24_ ^ 2 + 1 y_24_ ^ 2 ] <= 84629
c49_1: 156 x_25_ - 152 y_25_ + [ 1 x_25_ ^ 2 + 1 y_25_ ^ 2 ] <= -1794
c50_1: 156 x_26_ - 152 y_26_ + [ 1 x_26_ ^ 2 + 1 y_26_ ^ 2 ] <= 51612
c51: -148 x_1_ + 132 y_1_ + [ 1 x_1_ ^ 2 + 1 y_1_ ^ 2 ] <= 15141
c52: -148 x_2_ + 132 y_2_ + [ 1 x_2_ ^ 2 + 1 y_2_ ^ 2 ] <= 71141
c53: -148 x_3_ + 132 y_3_ + [ 1 x_3_ ^ 2 + 1 y_3_ ^ 2 ] <= 94852
c54: -148 x_4_ + 132 y_4_ + [ 1 x_4_ ^ 2 + 1 y_4_ ^ 2 ] <= 21984
c55: -148 x_5_ + 132 y_5_ + [ 1 x_5_ ^ 2 + 1 y_5_ ^ 2 ] <= 91745
c56: -148 x_6_ + 132 y_6_ + [ 1 x_6_ ^ 2 + 1 y_6_ ^ 2 ] <= 39913
c57: -148 x_7_ + 132 y_7_ + [ 1 x_7_ ^ 2 + 1 y_7_ ^ 2 ] <= 73641
c58: -148 x_8_ + 132 y_8_ + [ 1 x_8_ ^ 2 + 1 y_8_ ^ 2 ] <= 47618
c59: -148 x_9_ + 132 y_9_ + [ 1 x_9_ ^ 2 + 1 y_9_ ^ 2 ] <= 24034
c60: -148 x_10_ + 132 y_10_ + [ 1 x_10_ ^ 2 + 1 y_10_ ^ 2 ] <= 104299
c61: -148 x_11_ + 132 y_11_ + [ 1 x_11_ ^ 2 + 1 y_11_ ^ 2 ] <= 86795
c62: -148 x_12_ + 132 y_12_ + [ 1 x_12_ ^ 2 + 1 y_12_ ^ 2 ] <= 101678
c63: -148 x_13_ + 132 y_13_ + [ 1 x_13_ ^ 2 + 1 y_13_ ^ 2 ] <= 210441
c64: -148 x_14_ + 132 y_14_ + [ 1 x_14_ ^ 2 + 1 y_14_ ^ 2 ] <= 134946
c65: -148 x_15_ + 132 y_15_ + [ 1 x_15_ ^ 2 + 1 y_15_ ^ 2 ] <= 90473
c66: -148 x_16_ + 132 y_16_ + [ 1 x_16_ ^ 2 + 1 y_16_ ^ 2 ] <= 5709
c67: -148 x_17_ + 132 y_17_ + [ 1 x_17_ ^ 2 + 1 y_17_ ^ 2 ] <= 52867
c68: -148 x_18_ + 132 y_18_ + [ 1 x_18_ ^ 2 + 1 y_18_ ^ 2 ] <= 76180
c69: -148 x_19_ + 132 y_19_ + [ 1 x_19_ ^ 2 + 1 y_19_ ^ 2 ] <= -2871
c70: -148 x_20_ + 132 y_20_ + [ 1 x_20_ ^ 2 + 1 y_20_ ^ 2 ] <= 123569
c71: -148 x_21_ + 132 y_21_ + [ 1 x_21_ ^ 2 + 1 y_21_ ^ 2 ] <= 49179
c72: -148 x_22_ + 132 y_22_ + [ 1 x_22_ ^ 2 + 1 y_22_ ^ 2 ] <= 37077
c73: -148 x_24_ + 132 y_24_ + [ 1 x_24_ ^ 2 + 1 y_24_ ^ 2 ] <= 73349
c74: -148 x_25_ + 132 y_25_ + [ 1 x_25_ ^ 2 + 1 y_25_ ^ 2 ] <= 122912
c75: -148 x_26_ + 132 y_26_ + [ 1 x_26_ ^ 2 + 1 y_26_ ^ 2 ] <= 75624
c1_2: 1 x_3_ = -67
c2_2: 1 y_3_ = 45
c3_2: 1 x_10_ = -78
c4_2: 1 y_10_ = 76
c5_2: 1 x_23_ = 74
c6_2: 1 y_23_ = -66
c1: [ 1 x_1_ ^ 2 - 2 x_2_ * x_1_ + 1 x_2_ ^ 2 + 1 y_1_ ^ 2 - 2 y_2_ * y_1_ + 1 y_2_ ^ 2 ] = 72202
c2: [ 1 x_1_ ^ 2 - 2 x_3_ * x_1_ + 1 x_3_ ^ 2 + 1 y_1_ ^ 2 - 2 y_3_ * y_1_ + 1 y_3_ ^ 2 ] = 27397
c3: [ 1 x_2_ ^ 2 - 2 x_5_ * x_2_ + 1 x_5_ ^ 2 + 1 y_2_ ^ 2 - 2 y_5_ * y_2_ + 1 y_5_ ^ 2 ] = 32309
c4: [ 1 x_3_ ^ 2 - 2 x_5_ * x_3_ + 1 x_5_ ^ 2 + 1 y_3_ ^ 2 - 2 y_5_ * y_3_ + 1 y_5_ ^ 2 ] = 35240
c5: [ 1 x_2_ ^ 2 - 2 x_6_ * x_2_ + 1 x_6_ ^ 2 + 1 y_2_ ^ 2 - 2 y_6_ * y_2_ + 1 y_6_ ^ 2 ] = 3785
c6: [ 1 x_1_ ^ 2 - 2 x_7_ * x_1_ + 1 x_7_ ^ 2 + 1 y_1_ ^ 2 - 2 y_7_ * y_1_ + 1 y_7_ ^ 2 ] = 30290
c7: [ 1 x_5_ ^ 2 - 2 x_8_ * x_5_ + 1 x_8_ ^ 2 + 1 y_5_ ^ 2 - 2 y_8_ * y_5_ + 1 y_8_ ^ 2 ] = 6245
c8: [ 1 x_2_ ^ 2 - 2 x_9_ * x_2_ + 1 x_9_ ^ 2 + 1 y_2_ ^ 2 - 2 y_9_ * y_2_ + 1 y_9_ ^ 2 ] = 12250
c9: [ 1 x_7_ ^ 2 - 2 x_9_ * x_7_ + 1 x_9_ ^ 2 + 1 y_7_ ^ 2 - 2 y_9_ * y_7_ + 1 y_9_ ^ 2 ] = 11002
c10: [ 1 x_8_ ^ 2 - 2 x_9_ * x_8_ + 1 x_9_ ^ 2 + 1 y_8_ ^ 2 - 2 y_9_ * y_8_ + 1 y_9_ ^ 2 ] = 3098
c11: [ 1 x_5_ ^ 2 - 2 x_10_ * x_5_ + 1 x_10_ ^ 2 + 1 y_5_ ^ 2 - 2 y_10_ * y_5_ + 1 y_10_ ^ 2 ] = 46850
c12: [ 1 x_2_ ^ 2 - 2 x_11_ * x_2_ + 1 x_11_ ^ 2 + 1 y_2_ ^ 2 - 2 y_11_ * y_2_ + 1 y_11_ ^ 2 ] = 17245
c13: [ 1 x_4_ ^ 2 - 2 x_11_ * x_4_ + 1 x_11_ ^ 2 + 1 y_4_ ^ 2 - 2 y_11_ * y_4_ + 1 y_11_ ^ 2 ] = 18674
c14: [ 1 x_7_ ^ 2 - 2 x_11_ * x_7_ + 1 x_11_ ^ 2 + 1 y_7_ ^ 2 - 2 y_11_ * y_7_ + 1 y_11_ ^ 2 ] = 481
c15: [ 1 x_5_ ^ 2 - 2 x_12_ * x_5_ + 1 x_12_ ^ 2 + 1 y_5_ ^ 2 - 2 y_12_ * y_5_ + 1 y_12_ ^ 2 ] = 23125
c16: [ 1 x_8_ ^ 2 - 2 x_12_ * x_8_ + 1 x_12_ ^ 2 + 1 y_8_ ^ 2 - 2 y_12_ * y_8_ + 1 y_12_ ^ 2 ] = 8882
c17: [ 1 x_2_ ^ 2 - 2 x_13_ * x_2_ + 1 x_13_ ^ 2 + 1 y_2_ ^ 2 - 2 y_13_ * y_2_ + 1 y_13_ ^ 2 ] = 65000
c18: [ 1 x_3_ ^ 2 - 2 x_13_ * x_3_ + 1 x_13_ ^ 2 + 1 y_3_ ^ 2 - 2 y_13_ * y_3_ + 1 y_13_ ^ 2 ] = 21253
c19: [ 1 x_5_ ^ 2 - 2 x_13_ * x_5_ + 1 x_13_ ^ 2 + 1 y_5_ ^ 2 - 2 y_13_ * y_5_ + 1 y_13_ ^ 2 ] = 27289
c20: [ 1 x_5_ ^ 2 - 2 x_14_ * x_5_ + 1 x_14_ ^ 2 + 1 y_5_ ^ 2 - 2 y_14_ * y_5_ + 1 y_14_ ^ 2 ] = 20313
c21: [ 1 x_10_ ^ 2 - 2 x_14_ * x_10_ + 1 x_14_ ^ 2 + 1 y_10_ ^ 2 - 2 y_14_ * y_10_ + 1 y_14_ ^ 2 ] = 7085
c22: [ 1 x_3_ ^ 2 - 2 x_15_ * x_3_ + 1 x_15_ ^ 2 + 1 y_3_ ^ 2 - 2 y_15_ * y_3_ + 1 y_15_ ^ 2 ] = 386
c23: [ 1 x_8_ ^ 2 - 2 x_15_ * x_8_ + 1 x_15_ ^ 2 + 1 y_8_ ^ 2 - 2 y_15_ * y_8_ + 1 y_15_ ^ 2 ] = 16085
c24: [ 1 x_6_ ^ 2 - 2 x_16_ * x_6_ + 1 x_16_ ^ 2 + 1 y_6_ ^ 2 - 2 y_16_ * y_6_ + 1 y_16_ ^ 2 ] = 15929
c25: [ 1 x_9_ ^ 2 - 2 x_16_ * x_9_ + 1 x_16_ ^ 2 + 1 y_9_ ^ 2 - 2 y_16_ * y_9_ + 1 y_16_ ^ 2 ] = 3524
c26: [ 1 x_1_ ^ 2 - 2 x_17_ * x_1_ + 1 x_17_ ^ 2 + 1 y_1_ ^ 2 - 2 y_17_ * y_1_ + 1 y_17_ ^ 2 ] = 48221
c27: [ 1 x_4_ ^ 2 - 2 x_17_ * x_4_ + 1 x_17_ ^ 2 + 1 y_4_ ^ 2 - 2 y_17_ * y_4_ + 1 y_17_ ^ 2 ] = 5188
c28: [ 1 x_10_ ^ 2 - 2 x_18_ * x_10_ + 1 x_18_ ^ 2 + 1 y_10_ ^ 2 - 2 y_18_ * y_10_ + 1 y_18_ ^ 2 ] = 1985
c29: [ 1 x_15_ ^ 2 - 2 x_18_ * x_15_ + 1 x_18_ ^ 2 + 1 y_15_ ^ 2 - 2 y_18_ * y_15_ + 1 y_18_ ^ 2 ] = 549
c30: [ 1 x_6_ ^ 2 - 2 x_19_ * x_6_ + 1 x_19_ ^ 2 + 1 y_6_ ^ 2 - 2 y_19_ * y_6_ + 1 y_19_ ^ 2 ] = 19489
c31: [ 1 x_16_ ^ 2 - 2 x_19_ * x_16_ + 1 x_19_ ^ 2 + 1 y_16_ ^ 2 - 2 y_19_ * y_16_ + 1 y_19_ ^ 2 ] = 1700
c32: [ 1 x_15_ ^ 2 - 2 x_20_ * x_15_ + 1 x_20_ ^ 2 + 1 y_15_ ^ 2 - 2 y_20_ * y_15_ + 1 y_20_ ^ 2 ] = 18149
c33: [ 1 x_17_ ^ 2 - 2 x_20_ * x_17_ + 1 x_20_ ^ 2 + 1 y_17_ ^ 2 - 2 y_20_ * y_17_ + 1 y_20_ ^ 2 ] = 13189
c34: [ 1 x_18_ ^ 2 - 2 x_20_ * x_18_ + 1 x_20_ ^ 2 + 1 y_18_ ^ 2 - 2 y_20_ * y_18_ + 1 y_20_ ^ 2 ] = 12818
c35: [ 1 x_12_ ^ 2 - 2 x_21_ * x_12_ + 1 x_21_ ^ 2 + 1 y_12_ ^ 2 - 2 y_21_ * y_12_ + 1 y_21_ ^ 2 ] = 13177
c36: [ 1 x_16_ ^ 2 - 2 x_21_ * x_16_ + 1 x_21_ ^ 2 + 1 y_16_ ^ 2 - 2 y_21_ * y_16_ + 1 y_21_ ^ 2 ] = 13985
c37: [ 1 x_9_ ^ 2 - 2 x_22_ * x_9_ + 1 x_22_ ^ 2 + 1 y_9_ ^ 2 - 2 y_22_ * y_9_ + 1 y_22_ ^ 2 ] = 1060
c38: [ 1 x_18_ ^ 2 - 2 x_22_ * x_18_ + 1 x_22_ ^ 2 + 1 y_18_ ^ 2 - 2 y_22_ * y_18_ + 1 y_22_ ^ 2 ] = 5882
c39: [ 1 x_21_ ^ 2 - 2 x_22_ * x_21_ + 1 x_22_ ^ 2 + 1 y_21_ ^ 2 - 2 y_22_ * y_21_ + 1 y_22_ ^ 2 ] = 8945
c40: [ 1 x_1_ ^ 2 - 2 x_23_ * x_1_ + 1 x_23_ ^ 2 + 1 y_1_ ^ 2 - 2 y_23_ * y_1_ + 1 y_23_ ^ 2 ] = 24973
c41: [ 1 x_4_ ^ 2 - 2 x_23_ * x_4_ + 1 x_23_ ^ 2 + 1 y_4_ ^ 2 - 2 y_23_ * y_4_ + 1 y_23_ ^ 2 ] = 31816
c42: [ 1 x_19_ ^ 2 - 2 x_23_ * x_19_ + 1 x_23_ ^ 2 + 1 y_19_ ^ 2 - 2 y_23_ * y_19_ + 1 y_23_ ^ 2 ] = 6961
c43: [ 1 x_1_ ^ 2 - 2 x_24_ * x_1_ + 1 x_24_ ^ 2 + 1 y_1_ ^ 2 - 2 y_24_ * y_1_ + 1 y_24_ ^ 2 ] = 45994
c44: [ 1 x_11_ ^ 2 - 2 x_24_ * x_11_ + 1 x_24_ ^ 2 + 1 y_11_ ^ 2 - 2 y_24_ * y_11_ + 1 y_24_ ^ 2 ] = 17093
c45: [ 1 x_17_ ^ 2 - 2 x_24_ * x_17_ + 1 x_24_ ^ 2 + 1 y_17_ ^ 2 - 2 y_24_ * y_17_ + 1 y_24_ ^ 2 ] = 1445
c46: [ 1 x_3_ ^ 2 - 2 x_25_ * x_3_ + 1 x_25_ ^ 2 + 1 y_3_ ^ 2 - 2 y_25_ * y_3_ + 1 y_25_ ^ 2 ] = 1664
c47: [ 1 x_14_ ^ 2 - 2 x_25_ * x_14_ + 1 x_25_ ^ 2 + 1 y_14_ ^ 2 - 2 y_25_ * y_14_ + 1 y_25_ ^ 2 ] = 261
c48: [ 1 x_17_ ^ 2 - 2 x_26_ * x_17_ + 1 x_26_ ^ 2 + 1 y_17_ ^ 2 - 2 y_26_ * y_17_ + 1 y_26_ ^ 2 ] = 24221
c49: [ 1 x_21_ ^ 2 - 2 x_26_ * x_21_ + 1 x_26_ ^ 2 + 1 y_21_ ^ 2 - 2 y_26_ * y_21_ + 1 y_26_ ^ 2 ] = 2441
c50: [ 1 x_25_ ^ 2 - 2 x_26_ * x_25_ + 1 x_26_ ^ 2 + 1 y_25_ ^ 2 - 2 y_26_ * y_25_ + 1 y_26_ ^ 2 ] = 22985
Bounds
-84 <= x_1_ <= 91
-98 <= x_2_ <= 91
x_3_ = -67
-98 <= x_4_ <= 91
-98 <= x_5_ <= 91
-98 <= x_6_ <= 91
-98 <= x_7_ <= 91
-98 <= x_8_ <= 79
-98 <= x_9_ <= 75
x_10_ = -78
-98 <= x_11_ <= 91
-98 <= x_12_ <= 91
-98 <= x_13_ <= 78
-98 <= x_14_ <= -11
-86 <= x_15_ <= -48
-50 <= x_16_ <= 91
-98 <= x_17_ <= 91
-98 <= x_18_ <= -34
-9 <= x_19_ <= 91
-98 <= x_20_ <= 79
-98 <= x_21_ <= 91
-98 <= x_22_ <= 43
x_23_ = 74
-98 <= x_24_ <= 91
-98 <= x_25_ <= -27
-98 <= x_26_ <= 91
-97 <= y_1_ <= 91
-97 <= y_2_ <= 91
y_3_ = 45
-97 <= y_4_ <= 91
-97 <= y_5_ <= 91
-97 <= y_6_ <= 91
-97 <= y_7_ <= 91
-97 <= y_8_ <= 91
-77 <= y_9_ <= 91
y_10_ = 76
-97 <= y_11_ <= 91
-97 <= y_12_ <= 91
-97 <= y_13_ <= 91
-8 <= y_14_ <= 91
26 <= y_15_ <= 64
-97 <= y_16_ <= 58
-97 <= y_17_ <= 91
32 <= y_18_ <= 88
-97 <= y_19_ <= 17
-81 <= y_20_ <= 91
-97 <= y_21_ <= 91
-45 <= y_22_ <= 91
y_23_ = -66
-97 <= y_24_ <= 91
5 <= y_25_ <= 85
-97 <= y_26_ <= 91
General
x_1_
x_2_
x_3_
x_4_
x_5_
x_6_
x_7_
x_8_
x_9_
x_10_
x_11_
x_12_
x_13_
x_14_
x_15_
x_16_
x_17_
x_18_
x_19_
x_20_
x_21_
x_22_
x_23_
x_24_
x_25_
x_26_
y_1_
y_2_
y_3_
y_4_
y_5_
y_6_
y_7_
y_8_
y_9_
y_10_
y_11_
y_12_
y_13_
y_14_
y_15_
y_16_
y_17_
y_18_
y_19_
y_20_
y_21_
y_22_
y_23_
y_24_
y_25_
y_26_
End
