minimize
obj: 
subject to
c1: -140 x_1_ - 140 y_1_ + [ 1 x_1_ ^ 2 + 1 y_1_ ^ 2 ] <= 22874.211912903593
c2: -140 x_2_ - 140 y_2_ + [ 1 x_2_ ^ 2 + 1 y_2_ ^ 2 ] <= 16093.564819580868
c3: -140 x_3_ - 140 y_3_ + [ 1 x_3_ ^ 2 + 1 y_3_ ^ 2 ] <= 35169.551605129855
c4: -140 x_4_ - 140 y_4_ + [ 1 x_4_ ^ 2 + 1 y_4_ ^ 2 ] <= 16329.137767347125
c5: -140 x_5_ - 140 y_5_ + [ 1 x_5_ ^ 2 + 1 y_5_ ^ 2 ] <= 67320.28899101156
c6: -140 x_6_ - 140 y_6_ + [ 1 x_6_ ^ 2 + 1 y_6_ ^ 2 ] <= 57938.558662339274
c7: -140 x_7_ - 140 y_7_ + [ 1 x_7_ ^ 2 + 1 y_7_ ^ 2 ] <= 30515.83755126185
c8: -140 x_8_ - 140 y_8_ + [ 1 x_8_ ^ 2 + 1 y_8_ ^ 2 ] <= 55197.26182879675
c9: -140 x_9_ - 140 y_9_ + [ 1 x_9_ ^ 2 + 1 y_9_ ^ 2 ] <= 8190.119999999992
c10: -140 x_10_ - 140 y_10_ + [ 1 x_10_ ^ 2 + 1 y_10_ ^ 2 ] <= 68030.10778635023
c11: -140 x_11_ - 140 y_11_ + [ 1 x_11_ ^ 2 + 1 y_11_ ^ 2 ] <= 49943.85084548286
c12: -140 x_12_ - 140 y_12_ + [ 1 x_12_ ^ 2 + 1 y_12_ ^ 2 ] <= 3751.1699999999983
c13: -140 x_13_ - 140 y_13_ + [ 1 x_13_ ^ 2 + 1 y_13_ ^ 2 ] <= 49941.70881845246
c14: -140 x_14_ - 140 y_14_ + [ 1 x_14_ ^ 2 + 1 y_14_ ^ 2 ] <= 47369.6250097504
c15: -140 x_15_ - 140 y_15_ + [ 1 x_15_ ^ 2 + 1 y_15_ ^ 2 ] <= 43788.46532998803
c16: -140 x_16_ - 140 y_16_ + [ 1 x_16_ ^ 2 + 1 y_16_ ^ 2 ] <= 62962.642574395504
c17: -140 x_17_ - 140 y_17_ + [ 1 x_17_ ^ 2 + 1 y_17_ ^ 2 ] <= 43235.28711811539
c18: -140 x_18_ - 140 y_18_ + [ 1 x_18_ ^ 2 + 1 y_18_ ^ 2 ] <= 69522.95209923526
c19: -140 x_19_ - 140 y_19_ + [ 1 x_19_ ^ 2 + 1 y_19_ ^ 2 ] <= 37589.99719137555
c20: -140 x_20_ - 140 y_20_ + [ 1 x_20_ ^ 2 + 1 y_20_ ^ 2 ] <= 129857.16932247966
c21: -140 x_21_ - 140 y_21_ + [ 1 x_21_ ^ 2 + 1 y_21_ ^ 2 ] <= 7370
c22: -140 x_22_ - 140 y_22_ + [ 1 x_22_ ^ 2 + 1 y_22_ ^ 2 ] <= 21109.12023721543
c23: -140 x_23_ - 140 y_23_ + [ 1 x_23_ ^ 2 + 1 y_23_ ^ 2 ] <= 66590.89097866362
c24: -140 x_24_ - 140 y_24_ + [ 1 x_24_ ^ 2 + 1 y_24_ ^ 2 ] <= 184355.8158705761
c25: -140 x_26_ - 140 y_26_ + [ 1 x_26_ ^ 2 + 1 y_26_ ^ 2 ] <= 56032.69220819307
c26: -140 x_27_ - 140 y_27_ + [ 1 x_27_ ^ 2 + 1 y_27_ ^ 2 ] <= 66172.33048576672
c27: -140 x_28_ - 140 y_28_ + [ 1 x_28_ ^ 2 + 1 y_28_ ^ 2 ] <= 54007.139989979856
c28: 168 x_1_ - 158 y_1_ + [ 1 x_1_ ^ 2 + 1 y_1_ ^ 2 ] <= 15414.50103626306
c29: 168 x_2_ - 158 y_2_ + [ 1 x_2_ ^ 2 + 1 y_2_ ^ 2 ] <= 343.04999999999745
c30: 168 x_3_ - 158 y_3_ + [ 1 x_3_ ^ 2 + 1 y_3_ ^ 2 ] <= 27001.492408753395
c31: 168 x_4_ - 158 y_4_ + [ 1 x_4_ ^ 2 + 1 y_4_ ^ 2 ] <= 30655.159471007864
c32: 168 x_6_ - 158 y_6_ + [ 1 x_6_ ^ 2 + 1 y_6_ ^ 2 ] <= 33420.438590714846
c33: 168 x_7_ - 158 y_7_ + [ 1 x_7_ ^ 2 + 1 y_7_ ^ 2 ] <= 35844.96219006943
c34: 168 x_8_ - 158 y_8_ + [ 1 x_8_ ^ 2 + 1 y_8_ ^ 2 ] <= 29649.209999999992
c35: 168 x_9_ - 158 y_9_ + [ 1 x_9_ ^ 2 + 1 y_9_ ^ 2 ] <= 10373.663960945196
c36: 168 x_10_ - 158 y_10_ + [ 1 x_10_ ^ 2 + 1 y_10_ ^ 2 ] <= 16664.649999999998
c37: 168 x_11_ - 158 y_11_ + [ 1 x_11_ ^ 2 + 1 y_11_ ^ 2 ] <= 18831.09999999999
c38: 168 x_12_ - 158 y_12_ + [ 1 x_12_ ^ 2 + 1 y_12_ ^ 2 ] <= 41363.23597514797
c39: 168 x_13_ - 158 y_13_ + [ 1 x_13_ ^ 2 + 1 y_13_ ^ 2 ] <= 57093.984685093994
c40: 168 x_14_ - 158 y_14_ + [ 1 x_14_ ^ 2 + 1 y_14_ ^ 2 ] <= 38589.59560011337
c41: 168 x_15_ - 158 y_15_ + [ 1 x_15_ ^ 2 + 1 y_15_ ^ 2 ] <= 47064.2704892895
c42: 168 x_16_ - 158 y_16_ + [ 1 x_16_ ^ 2 + 1 y_16_ ^ 2 ] <= 36736.837222757145
c43: 168 x_17_ - 158 y_17_ + [ 1 x_17_ ^ 2 + 1 y_17_ ^ 2 ] <= 64151.952867908316
c44: 168 x_18_ - 158 y_18_ + [ 1 x_18_ ^ 2 + 1 y_18_ ^ 2 ] <= 50173.25388377822
c45: 168 x_19_ - 158 y_19_ + [ 1 x_19_ ^ 2 + 1 y_19_ ^ 2 ] <= 43070.26816413919
c46: 168 x_20_ - 158 y_20_ + [ 1 x_20_ ^ 2 + 1 y_20_ ^ 2 ] <= -2591
c47: 168 x_21_ - 158 y_21_ + [ 1 x_21_ ^ 2 + 1 y_21_ ^ 2 ] <= 8215.39778837591
c48: 168 x_22_ - 158 y_22_ + [ 1 x_22_ ^ 2 + 1 y_22_ ^ 2 ] <= 23354.80232304139
c49: 168 x_23_ - 158 y_23_ + [ 1 x_23_ ^ 2 + 1 y_23_ ^ 2 ] <= 63407.77452106528
c50: 168 x_24_ - 158 y_24_ + [ 1 x_24_ ^ 2 + 1 y_24_ ^ 2 ] <= 165337.3708241923
c51: 168 x_25_ - 158 y_25_ + [ 1 x_25_ ^ 2 + 1 y_25_ ^ 2 ] <= 63823.28899101156
c52: 168 x_26_ - 158 y_26_ + [ 1 x_26_ ^ 2 + 1 y_26_ ^ 2 ] <= 31839.98774255057
c53: 168 x_27_ - 158 y_27_ + [ 1 x_27_ ^ 2 + 1 y_27_ ^ 2 ] <= 73938.325153326
c54: 168 x_28_ - 158 y_28_ + [ 1 x_28_ ^ 2 + 1 y_28_ ^ 2 ] <= 26492.902808933948
c55: -142 x_1_ + 114 y_1_ + [ 1 x_1_ ^ 2 + 1 y_1_ ^ 2 ] <= -2786.51
c56: -142 x_2_ + 114 y_2_ + [ 1 x_2_ ^ 2 + 1 y_2_ ^ 2 ] <= 7798.276616019564
c57: -142 x_3_ + 114 y_3_ + [ 1 x_3_ ^ 2 + 1 y_3_ ^ 2 ] <= 2837.226672120494
c58: -142 x_4_ + 114 y_4_ + [ 1 x_4_ ^ 2 + 1 y_4_ ^ 2 ] <= 3604.7700000000004
c59: -142 x_5_ + 114 y_5_ + [ 1 x_5_ ^ 2 + 1 y_5_ ^ 2 ] <= 34656.20999999999
c60: -142 x_6_ + 114 y_6_ + [ 1 x_6_ ^ 2 + 1 y_6_ ^ 2 ] <= 42872.421832378066
c61: -142 x_7_ + 114 y_7_ + [ 1 x_7_ ^ 2 + 1 y_7_ ^ 2 ] <= 13675.045117858408
c62: -142 x_9_ + 114 y_9_ + [ 1 x_9_ ^ 2 + 1 y_9_ ^ 2 ] <= 18573.76084414414
c63: -142 x_10_ + 114 y_10_ + [ 1 x_10_ ^ 2 + 1 y_10_ ^ 2 ] <= 49510.38696916352
c64: -142 x_11_ + 114 y_11_ + [ 1 x_11_ ^ 2 + 1 y_11_ ^ 2 ] <= 33991.91429366014
c65: -142 x_12_ + 114 y_12_ + [ 1 x_12_ ^ 2 + 1 y_12_ ^ 2 ] <= 10902.254573972266
c66: -142 x_13_ + 114 y_13_ + [ 1 x_13_ ^ 2 + 1 y_13_ ^ 2 ] <= 28512.286188669626
c67: -142 x_14_ + 114 y_14_ + [ 1 x_14_ ^ 2 + 1 y_14_ ^ 2 ] <= 9273.437568355239
c68: -142 x_15_ + 114 y_15_ + [ 1 x_15_ ^ 2 + 1 y_15_ ^ 2 ] <= 58841.23608172969
c69: -142 x_16_ + 114 y_16_ + [ 1 x_16_ ^ 2 + 1 y_16_ ^ 2 ] <= 38870.01314985768
c70: -142 x_17_ + 114 y_17_ + [ 1 x_17_ ^ 2 + 1 y_17_ ^ 2 ] <= 23291.541898633586
c71: -142 x_18_ + 114 y_18_ + [ 1 x_18_ ^ 2 + 1 y_18_ ^ 2 ] <= 44179.10443056555
c72: -142 x_19_ + 114 y_19_ + [ 1 x_19_ ^ 2 + 1 y_19_ ^ 2 ] <= 15600.557821678387
c73: -142 x_20_ + 114 y_20_ + [ 1 x_20_ ^ 2 + 1 y_20_ ^ 2 ] <= 88247.27146713561
c74: -142 x_21_ + 114 y_21_ + [ 1 x_21_ ^ 2 + 1 y_21_ ^ 2 ] <= 16271.1580126999
c75: -142 x_22_ + 114 y_22_ + [ 1 x_22_ ^ 2 + 1 y_22_ ^ 2 ] <= 7906.188237190236
c76: -142 x_23_ + 114 y_23_ + [ 1 x_23_ ^ 2 + 1 y_23_ ^ 2 ] <= 43622.60070450269
c77: -142 x_24_ + 114 y_24_ + [ 1 x_24_ ^ 2 + 1 y_24_ ^ 2 ] <= 38114.44999999999
c78: -142 x_25_ + 114 y_25_ + [ 1 x_25_ ^ 2 + 1 y_25_ ^ 2 ] <= 56707.261828796734
c79: -142 x_26_ + 114 y_26_ + [ 1 x_26_ ^ 2 + 1 y_26_ ^ 2 ] <= 41217.86000993366
c80: -142 x_27_ + 114 y_27_ + [ 1 x_27_ ^ 2 + 1 y_27_ ^ 2 ] <= 9333.489999999994
c81: -142 x_28_ + 114 y_28_ + [ 1 x_28_ ^ 2 + 1 y_28_ ^ 2 ] <= 62890.55247673132
quadratic_ranged_1_ub: [ 1 x_1_ ^ 2 - 2 x_2_ * x_1_ + 1 x_2_ ^ 2 + 1 y_1_ ^ 2 - 2 y_2_ * y_1_ + 1 y_2_ ^ 2 ] <= 2772.45
quadratic_ranged_2_ub: [ 1 x_1_ ^ 2 - 2 x_3_ * x_1_ + 1 x_3_ ^ 2 + 1 y_1_ ^ 2 - 2 y_3_ * y_1_ + 1 y_3_ ^ 2 ] <= 979.7
quadratic_ranged_3_ub: [ 1 x_3_ ^ 2 - 2 x_4_ * x_3_ + 1 x_4_ ^ 2 + 1 y_3_ ^ 2 - 2 y_4_ * y_3_ + 1 y_4_ ^ 2 ] <= 7191.2
quadratic_ranged_4_ub: [ 1 x_2_ ^ 2 - 2 x_5_ * x_2_ + 1 x_5_ ^ 2 + 1 y_2_ ^ 2 - 2 y_5_ * y_2_ + 1 y_5_ ^ 2 ] <= 13640.05
quadratic_ranged_5_ub: [ 1 x_2_ ^ 2 - 2 x_6_ * x_2_ + 1 x_6_ ^ 2 + 1 y_2_ ^ 2 - 2 y_6_ * y_2_ + 1 y_6_ ^ 2 ] <= 9870.73
quadratic_ranged_6_ub: [ 1 x_4_ ^ 2 - 2 x_7_ * x_4_ + 1 x_7_ ^ 2 + 1 y_4_ ^ 2 - 2 y_7_ * y_4_ + 1 y_7_ ^ 2 ] <= 1532.17
quadratic_ranged_7_ub: [ 1 x_6_ ^ 2 - 2 x_7_ * x_6_ + 1 x_7_ ^ 2 + 1 y_6_ ^ 2 - 2 y_7_ * y_6_ + 1 y_7_ ^ 2 ] <= 13470.37
quadratic_ranged_8_ub: [ 1 x_1_ ^ 2 - 2 x_8_ * x_1_ + 1 x_8_ ^ 2 + 1 y_1_ ^ 2 - 2 y_8_ * y_1_ + 1 y_8_ ^ 2 ] <= 5503.49
quadratic_ranged_9_ub: [ 1 x_4_ ^ 2 - 2 x_8_ * x_4_ + 1 x_8_ ^ 2 + 1 y_4_ ^ 2 - 2 y_8_ * y_4_ + 1 y_8_ ^ 2 ] <= 11894.77
quadratic_ranged_10_ub: [ 1 x_5_ ^ 2 - 2 x_8_ * x_5_ + 1 x_8_ ^ 2 + 1 y_5_ ^ 2 - 2 y_8_ * y_5_ + 1 y_8_ ^ 2 ] <= 42946.21
quadratic_ranged_11_ub: [ 1 x_2_ ^ 2 - 2 x_9_ * x_2_ + 1 x_9_ ^ 2 + 1 y_2_ ^ 2 - 2 y_9_ * y_2_ + 1 y_9_ ^ 2 ] <= 1373.6
quadratic_ranged_12_ub: [ 1 x_7_ ^ 2 - 2 x_9_ * x_7_ + 1 x_9_ ^ 2 + 1 y_7_ ^ 2 - 2 y_9_ * y_7_ + 1 y_9_ ^ 2 ] <= 6433.7
quadratic_ranged_13_ub: [ 1 x_5_ ^ 2 - 2 x_10_ * x_5_ + 1 x_10_ ^ 2 + 1 y_5_ ^ 2 - 2 y_10_ * y_5_ + 1 y_10_ ^ 2 ] <= 29961.65
quadratic_ranged_14_ub: [ 1 x_2_ ^ 2 - 2 x_11_ * x_2_ + 1 x_11_ ^ 2 + 1 y_2_ ^ 2 - 2 y_11_ * y_2_ + 1 y_11_ ^ 2 ] <= 6974.05
quadratic_ranged_15_ub: [ 1 x_4_ ^ 2 - 2 x_11_ * x_4_ + 1 x_11_ ^ 2 + 1 y_4_ ^ 2 - 2 y_11_ * y_4_ + 1 y_11_ ^ 2 ] <= 9324.32
quadratic_ranged_16_ub: [ 1 x_5_ ^ 2 - 2 x_11_ * x_5_ + 1 x_11_ ^ 2 + 1 y_5_ ^ 2 - 2 y_11_ * y_5_ + 1 y_11_ ^ 2 ] <= 32128.1
quadratic_ranged_17_ub: [ 1 x_1_ ^ 2 - 2 x_12_ * x_1_ + 1 x_12_ ^ 2 + 1 y_1_ ^ 2 - 2 y_12_ * y_1_ + 1 y_12_ ^ 2 ] <= 4141
quadratic_ranged_18_ub: [ 1 x_4_ ^ 2 - 2 x_12_ * x_4_ + 1 x_12_ ^ 2 + 1 y_4_ ^ 2 - 2 y_12_ * y_4_ + 1 y_12_ ^ 2 ] <= 2046.26
quadratic_ranged_19_ub: [ 1 x_7_ ^ 2 - 2 x_13_ * x_7_ + 1 x_13_ ^ 2 + 1 y_7_ ^ 2 - 2 y_13_ * y_7_ + 1 y_13_ ^ 2 ] <= 1903.85
quadratic_ranged_20_ub: [ 1 x_3_ ^ 2 - 2 x_14_ * x_3_ + 1 x_14_ ^ 2 + 1 y_3_ ^ 2 - 2 y_14_ * y_3_ + 1 y_14_ ^ 2 ] <= 731.24
quadratic_ranged_21_ub: [ 1 x_10_ ^ 2 - 2 x_14_ * x_10_ + 1 x_14_ ^ 2 + 1 y_10_ ^ 2 - 2 y_14_ * y_10_ + 1 y_14_ ^ 2 ] <= 11640.25
quadratic_ranged_22_ub: [ 1 x_13_ ^ 2 - 2 x_14_ * x_13_ + 1 x_14_ ^ 2 + 1 y_13_ ^ 2 - 2 y_14_ * y_13_ + 1 y_14_ ^ 2 ] <= 10346.44
quadratic_ranged_23_ub: [ 1 x_9_ ^ 2 - 2 x_15_ * x_9_ + 1 x_15_ ^ 2 + 1 y_9_ ^ 2 - 2 y_15_ * y_9_ + 1 y_15_ ^ 2 ] <= 9479.86
quadratic_ranged_24_ub: [ 1 x_4_ ^ 2 - 2 x_16_ * x_4_ + 1 x_16_ ^ 2 + 1 y_4_ ^ 2 - 2 y_16_ * y_4_ + 1 y_16_ ^ 2 ] <= 11685.7
quadratic_ranged_25_ub: [ 1 x_15_ ^ 2 - 2 x_16_ * x_15_ + 1 x_16_ ^ 2 + 1 y_15_ ^ 2 - 2 y_16_ * y_15_ + 1 y_16_ ^ 2 ] <= 1758.41
quadratic_ranged_26_ub: [ 1 x_4_ ^ 2 - 2 x_17_ * x_4_ + 1 x_17_ ^ 2 + 1 y_4_ ^ 2 - 2 y_17_ * y_4_ + 1 y_17_ ^ 2 ] <= 4712.66
quadratic_ranged_27_ub: [ 1 x_14_ ^ 2 - 2 x_17_ * x_14_ + 1 x_17_ ^ 2 + 1 y_14_ ^ 2 - 2 y_17_ * y_14_ + 1 y_17_ ^ 2 ] <= 10013.14
quadratic_ranged_28_ub: [ 1 x_4_ ^ 2 - 2 x_18_ * x_4_ + 1 x_18_ ^ 2 + 1 y_4_ ^ 2 - 2 y_18_ * y_4_ + 1 y_18_ ^ 2 ] <= 14399.57
quadratic_ranged_29_ub: [ 1 x_10_ ^ 2 - 2 x_18_ * x_10_ + 1 x_18_ ^ 2 + 1 y_10_ ^ 2 - 2 y_18_ * y_10_ + 1 y_18_ ^ 2 ] <= 6215.54
quadratic_ranged_30_ub: [ 1 x_3_ ^ 2 - 2 x_19_ * x_3_ + 1 x_19_ ^ 2 + 1 y_3_ ^ 2 - 2 y_19_ * y_3_ + 1 y_19_ ^ 2 ] <= 2408.85
quadratic_ranged_31_ub: [ 1 x_9_ ^ 2 - 2 x_19_ * x_9_ + 1 x_19_ ^ 2 + 1 y_9_ ^ 2 - 2 y_19_ * y_9_ + 1 y_19_ ^ 2 ] <= 6983.14
quadratic_ranged_32_ub: [ 1 x_5_ ^ 2 - 2 x_20_ * x_5_ + 1 x_20_ ^ 2 + 1 y_5_ ^ 2 - 2 y_20_ * y_5_ + 1 y_20_ ^ 2 ] <= 10706
quadratic_ranged_33_ub: [ 1 x_15_ ^ 2 - 2 x_20_ * x_15_ + 1 x_20_ ^ 2 + 1 y_15_ ^ 2 - 2 y_20_ * y_15_ + 1 y_20_ ^ 2 ] <= 20225.25
quadratic_ranged_34_ub: [ 1 x_16_ ^ 2 - 2 x_20_ * x_16_ + 1 x_20_ ^ 2 + 1 y_16_ ^ 2 - 2 y_20_ * y_16_ + 1 y_20_ ^ 2 ] <= 14451.08
quadratic_ranged_35_ub: [ 1 x_2_ ^ 2 - 2 x_21_ * x_2_ + 1 x_21_ ^ 2 + 1 y_2_ ^ 2 - 2 y_21_ * y_2_ + 1 y_21_ ^ 2 ] <= 892.84
quadratic_ranged_36_ub: [ 1 x_4_ ^ 2 - 2 x_22_ * x_4_ + 1 x_22_ ^ 2 + 1 y_4_ ^ 2 - 2 y_22_ * y_4_ + 1 y_22_ ^ 2 ] <= 331.28000000000003
quadratic_ranged_37_ub: [ 1 x_7_ ^ 2 - 2 x_22_ * x_7_ + 1 x_22_ ^ 2 + 1 y_7_ ^ 2 - 2 y_22_ * y_7_ + 1 y_22_ ^ 2 ] <= 914.05
quadratic_ranged_38_ub: [ 1 x_21_ ^ 2 - 2 x_22_ * x_21_ + 1 x_22_ ^ 2 + 1 y_21_ ^ 2 - 2 y_22_ * y_21_ + 1 y_22_ ^ 2 ] <= 2004.85
quadratic_ranged_39_ub: [ 1 x_16_ ^ 2 - 2 x_23_ * x_16_ + 1 x_23_ ^ 2 + 1 y_16_ ^ 2 - 2 y_23_ * y_16_ + 1 y_23_ ^ 2 ] <= 2838.1
quadratic_ranged_40_ub: [ 1 x_22_ ^ 2 - 2 x_23_ * x_22_ + 1 x_23_ ^ 2 + 1 y_22_ ^ 2 - 2 y_23_ * y_22_ + 1 y_23_ ^ 2 ] <= 10116.16
quadratic_ranged_41_ub: [ 1 x_8_ ^ 2 - 2 x_24_ * x_8_ + 1 x_24_ ^ 2 + 1 y_8_ ^ 2 - 2 y_24_ * y_8_ + 1 y_24_ ^ 2 ] <= 46404.45
quadratic_ranged_42_ub: [ 1 x_14_ ^ 2 - 2 x_24_ * x_14_ + 1 x_24_ ^ 2 + 1 y_14_ ^ 2 - 2 y_24_ * y_14_ + 1 y_24_ ^ 2 ] <= 40614.12
quadratic_ranged_43_ub: [ 1 x_15_ ^ 2 - 2 x_24_ * x_15_ + 1 x_24_ ^ 2 + 1 y_15_ ^ 2 - 2 y_24_ * y_15_ + 1 y_24_ ^ 2 ] <= 48020.45
quadratic_ranged_44_ub: [ 1 x_9_ ^ 2 - 2 x_25_ * x_9_ + 1 x_25_ ^ 2 + 1 y_9_ ^ 2 - 2 y_25_ * y_9_ + 1 y_25_ ^ 2 ] <= 17990.12
quadratic_ranged_45_ub: [ 1 x_12_ ^ 2 - 2 x_25_ * x_12_ + 1 x_25_ ^ 2 + 1 y_12_ ^ 2 - 2 y_25_ * y_12_ + 1 y_25_ ^ 2 ] <= 13551.17
quadratic_ranged_46_ub: [ 1 x_21_ ^ 2 - 2 x_25_ * x_21_ + 1 x_25_ ^ 2 + 1 y_21_ ^ 2 - 2 y_25_ * y_21_ + 1 y_25_ ^ 2 ] <= 17170
quadratic_ranged_47_ub: [ 1 x_2_ ^ 2 - 2 x_26_ * x_2_ + 1 x_26_ ^ 2 + 1 y_2_ ^ 2 - 2 y_26_ * y_2_ + 1 y_26_ ^ 2 ] <= 9151.61
quadratic_ranged_48_ub: [ 1 x_14_ ^ 2 - 2 x_26_ * x_14_ + 1 x_26_ ^ 2 + 1 y_14_ ^ 2 - 2 y_26_ * y_14_ + 1 y_26_ ^ 2 ] <= 29978.82
quadratic_ranged_49_ub: [ 1 x_8_ ^ 2 - 2 x_27_ * x_8_ + 1 x_27_ ^ 2 + 1 y_8_ ^ 2 - 2 y_27_ * y_8_ + 1 y_27_ ^ 2 ] <= 17623.49
quadratic_ranged_50_ub: [ 1 x_9_ ^ 2 - 2 x_27_ * x_9_ + 1 x_27_ ^ 2 + 1 y_9_ ^ 2 - 2 y_27_ * y_9_ + 1 y_27_ ^ 2 ] <= 20023.25
quadratic_ranged_51_ub: [ 1 x_9_ ^ 2 - 2 x_28_ * x_9_ + 1 x_28_ ^ 2 + 1 y_9_ ^ 2 - 2 y_28_ * y_9_ + 1 y_28_ ^ 2 ] <= 14035.97
quadratic_ranged_52_ub: [ 1 x_10_ ^ 2 - 2 x_28_ * x_10_ + 1 x_28_ ^ 2 + 1 y_10_ ^ 2 - 2 y_28_ * y_10_ + 1 y_28_ ^ 2 ] <= 695.89
quadratic_ranged_53_ub: [ 1 x_15_ ^ 2 - 2 x_28_ * x_15_ + 1 x_28_ ^ 2 + 1 y_15_ ^ 2 - 2 y_28_ * y_15_ + 1 y_28_ ^ 2 ] <= 7434.61
quadratic_ranged_1_lb: [ 1 x_1_ ^ 2 - 2 x_2_ * x_1_ + 1 x_2_ ^ 2 + 1 y_1_ ^ 2 - 2 y_2_ * y_1_ + 1 y_2_ ^ 2 ] >= 2717.55
quadratic_ranged_2_lb: [ 1 x_1_ ^ 2 - 2 x_3_ * x_1_ + 1 x_3_ ^ 2 + 1 y_1_ ^ 2 - 2 y_3_ * y_1_ + 1 y_3_ ^ 2 ] >= 960.3
quadratic_ranged_3_lb: [ 1 x_3_ ^ 2 - 2 x_4_ * x_3_ + 1 x_4_ ^ 2 + 1 y_3_ ^ 2 - 2 y_4_ * y_3_ + 1 y_4_ ^ 2 ] >= 7048.8
quadratic_ranged_4_lb: [ 1 x_2_ ^ 2 - 2 x_5_ * x_2_ + 1 x_5_ ^ 2 + 1 y_2_ ^ 2 - 2 y_5_ * y_2_ + 1 y_5_ ^ 2 ] >= 13369.95
quadratic_ranged_5_lb: [ 1 x_2_ ^ 2 - 2 x_6_ * x_2_ + 1 x_6_ ^ 2 + 1 y_2_ ^ 2 - 2 y_6_ * y_2_ + 1 y_6_ ^ 2 ] >= 9675.27
quadratic_ranged_6_lb: [ 1 x_4_ ^ 2 - 2 x_7_ * x_4_ + 1 x_7_ ^ 2 + 1 y_4_ ^ 2 - 2 y_7_ * y_4_ + 1 y_7_ ^ 2 ] >= 1501.83
quadratic_ranged_7_lb: [ 1 x_6_ ^ 2 - 2 x_7_ * x_6_ + 1 x_7_ ^ 2 + 1 y_6_ ^ 2 - 2 y_7_ * y_6_ + 1 y_7_ ^ 2 ] >= 13203.63
quadratic_ranged_8_lb: [ 1 x_1_ ^ 2 - 2 x_8_ * x_1_ + 1 x_8_ ^ 2 + 1 y_1_ ^ 2 - 2 y_8_ * y_1_ + 1 y_8_ ^ 2 ] >= 5394.51
quadratic_ranged_9_lb: [ 1 x_4_ ^ 2 - 2 x_8_ * x_4_ + 1 x_8_ ^ 2 + 1 y_4_ ^ 2 - 2 y_8_ * y_4_ + 1 y_8_ ^ 2 ] >= 11659.23
quadratic_ranged_10_lb: [ 1 x_5_ ^ 2 - 2 x_8_ * x_5_ + 1 x_8_ ^ 2 + 1 y_5_ ^ 2 - 2 y_8_ * y_5_ + 1 y_8_ ^ 2 ] >= 42095.79
quadratic_ranged_11_lb: [ 1 x_2_ ^ 2 - 2 x_9_ * x_2_ + 1 x_9_ ^ 2 + 1 y_2_ ^ 2 - 2 y_9_ * y_2_ + 1 y_9_ ^ 2 ] >= 1346.4
quadratic_ranged_12_lb: [ 1 x_7_ ^ 2 - 2 x_9_ * x_7_ + 1 x_9_ ^ 2 + 1 y_7_ ^ 2 - 2 y_9_ * y_7_ + 1 y_9_ ^ 2 ] >= 6306.3
quadratic_ranged_13_lb: [ 1 x_5_ ^ 2 - 2 x_10_ * x_5_ + 1 x_10_ ^ 2 + 1 y_5_ ^ 2 - 2 y_10_ * y_5_ + 1 y_10_ ^ 2 ] >= 29368.35
quadratic_ranged_14_lb: [ 1 x_2_ ^ 2 - 2 x_11_ * x_2_ + 1 x_11_ ^ 2 + 1 y_2_ ^ 2 - 2 y_11_ * y_2_ + 1 y_11_ ^ 2 ] >= 6835.95
quadratic_ranged_15_lb: [ 1 x_4_ ^ 2 - 2 x_11_ * x_4_ + 1 x_11_ ^ 2 + 1 y_4_ ^ 2 - 2 y_11_ * y_4_ + 1 y_11_ ^ 2 ] >= 9139.68
quadratic_ranged_16_lb: [ 1 x_5_ ^ 2 - 2 x_11_ * x_5_ + 1 x_11_ ^ 2 + 1 y_5_ ^ 2 - 2 y_11_ * y_5_ + 1 y_11_ ^ 2 ] >= 31491.9
quadratic_ranged_17_lb: [ 1 x_1_ ^ 2 - 2 x_12_ * x_1_ + 1 x_12_ ^ 2 + 1 y_1_ ^ 2 - 2 y_12_ * y_1_ + 1 y_12_ ^ 2 ] >= 4059
quadratic_ranged_18_lb: [ 1 x_4_ ^ 2 - 2 x_12_ * x_4_ + 1 x_12_ ^ 2 + 1 y_4_ ^ 2 - 2 y_12_ * y_4_ + 1 y_12_ ^ 2 ] >= 2005.74
quadratic_ranged_19_lb: [ 1 x_7_ ^ 2 - 2 x_13_ * x_7_ + 1 x_13_ ^ 2 + 1 y_7_ ^ 2 - 2 y_13_ * y_7_ + 1 y_13_ ^ 2 ] >= 1866.15
quadratic_ranged_20_lb: [ 1 x_3_ ^ 2 - 2 x_14_ * x_3_ + 1 x_14_ ^ 2 + 1 y_3_ ^ 2 - 2 y_14_ * y_3_ + 1 y_14_ ^ 2 ] >= 716.76
quadratic_ranged_21_lb: [ 1 x_10_ ^ 2 - 2 x_14_ * x_10_ + 1 x_14_ ^ 2 + 1 y_10_ ^ 2 - 2 y_14_ * y_10_ + 1 y_14_ ^ 2 ] >= 11409.75
quadratic_ranged_22_lb: [ 1 x_13_ ^ 2 - 2 x_14_ * x_13_ + 1 x_14_ ^ 2 + 1 y_13_ ^ 2 - 2 y_14_ * y_13_ + 1 y_14_ ^ 2 ] >= 10141.56
quadratic_ranged_23_lb: [ 1 x_9_ ^ 2 - 2 x_15_ * x_9_ + 1 x_15_ ^ 2 + 1 y_9_ ^ 2 - 2 y_15_ * y_9_ + 1 y_15_ ^ 2 ] >= 9292.14
quadratic_ranged_24_lb: [ 1 x_4_ ^ 2 - 2 x_16_ * x_4_ + 1 x_16_ ^ 2 + 1 y_4_ ^ 2 - 2 y_16_ * y_4_ + 1 y_16_ ^ 2 ] >= 11454.3
quadratic_ranged_25_lb: [ 1 x_15_ ^ 2 - 2 x_16_ * x_15_ + 1 x_16_ ^ 2 + 1 y_15_ ^ 2 - 2 y_16_ * y_15_ + 1 y_16_ ^ 2 ] >= 1723.59
quadratic_ranged_26_lb: [ 1 x_4_ ^ 2 - 2 x_17_ * x_4_ + 1 x_17_ ^ 2 + 1 y_4_ ^ 2 - 2 y_17_ * y_4_ + 1 y_17_ ^ 2 ] >= 4619.34
quadratic_ranged_27_lb: [ 1 x_14_ ^ 2 - 2 x_17_ * x_14_ + 1 x_17_ ^ 2 + 1 y_14_ ^ 2 - 2 y_17_ * y_14_ + 1 y_17_ ^ 2 ] >= 9814.86
quadratic_ranged_28_lb: [ 1 x_4_ ^ 2 - 2 x_18_ * x_4_ + 1 x_18_ ^ 2 + 1 y_4_ ^ 2 - 2 y_18_ * y_4_ + 1 y_18_ ^ 2 ] >= 14114.43
quadratic_ranged_29_lb: [ 1 x_10_ ^ 2 - 2 x_18_ * x_10_ + 1 x_18_ ^ 2 + 1 y_10_ ^ 2 - 2 y_18_ * y_10_ + 1 y_18_ ^ 2 ] >= 6092.46
quadratic_ranged_30_lb: [ 1 x_3_ ^ 2 - 2 x_19_ * x_3_ + 1 x_19_ ^ 2 + 1 y_3_ ^ 2 - 2 y_19_ * y_3_ + 1 y_19_ ^ 2 ] >= 2361.15
quadratic_ranged_31_lb: [ 1 x_9_ ^ 2 - 2 x_19_ * x_9_ + 1 x_19_ ^ 2 + 1 y_9_ ^ 2 - 2 y_19_ * y_9_ + 1 y_19_ ^ 2 ] >= 6844.86
quadratic_ranged_32_lb: [ 1 x_5_ ^ 2 - 2 x_20_ * x_5_ + 1 x_20_ ^ 2 + 1 y_5_ ^ 2 - 2 y_20_ * y_5_ + 1 y_20_ ^ 2 ] >= 10494
quadratic_ranged_33_lb: [ 1 x_15_ ^ 2 - 2 x_20_ * x_15_ + 1 x_20_ ^ 2 + 1 y_15_ ^ 2 - 2 y_20_ * y_15_ + 1 y_20_ ^ 2 ] >= 19824.75
quadratic_ranged_34_lb: [ 1 x_16_ ^ 2 - 2 x_20_ * x_16_ + 1 x_20_ ^ 2 + 1 y_16_ ^ 2 - 2 y_20_ * y_16_ + 1 y_20_ ^ 2 ] >= 14164.92
quadratic_ranged_35_lb: [ 1 x_2_ ^ 2 - 2 x_21_ * x_2_ + 1 x_21_ ^ 2 + 1 y_2_ ^ 2 - 2 y_21_ * y_2_ + 1 y_21_ ^ 2 ] >= 875.16
quadratic_ranged_36_lb: [ 1 x_4_ ^ 2 - 2 x_22_ * x_4_ + 1 x_22_ ^ 2 + 1 y_4_ ^ 2 - 2 y_22_ * y_4_ + 1 y_22_ ^ 2 ] >= 324.71999999999997
quadratic_ranged_37_lb: [ 1 x_7_ ^ 2 - 2 x_22_ * x_7_ + 1 x_22_ ^ 2 + 1 y_7_ ^ 2 - 2 y_22_ * y_7_ + 1 y_22_ ^ 2 ] >= 895.95
quadratic_ranged_38_lb: [ 1 x_21_ ^ 2 - 2 x_22_ * x_21_ + 1 x_22_ ^ 2 + 1 y_21_ ^ 2 - 2 y_22_ * y_21_ + 1 y_22_ ^ 2 ] >= 1965.15
quadratic_ranged_39_lb: [ 1 x_16_ ^ 2 - 2 x_23_ * x_16_ + 1 x_23_ ^ 2 + 1 y_16_ ^ 2 - 2 y_23_ * y_16_ + 1 y_23_ ^ 2 ] >= 2781.9
quadratic_ranged_40_lb: [ 1 x_22_ ^ 2 - 2 x_23_ * x_22_ + 1 x_23_ ^ 2 + 1 y_22_ ^ 2 - 2 y_23_ * y_22_ + 1 y_23_ ^ 2 ] >= 9915.84
quadratic_ranged_41_lb: [ 1 x_8_ ^ 2 - 2 x_24_ * x_8_ + 1 x_24_ ^ 2 + 1 y_8_ ^ 2 - 2 y_24_ * y_8_ + 1 y_24_ ^ 2 ] >= 45485.55
quadratic_ranged_42_lb: [ 1 x_14_ ^ 2 - 2 x_24_ * x_14_ + 1 x_24_ ^ 2 + 1 y_14_ ^ 2 - 2 y_24_ * y_14_ + 1 y_24_ ^ 2 ] >= 39809.88
quadratic_ranged_43_lb: [ 1 x_15_ ^ 2 - 2 x_24_ * x_15_ + 1 x_24_ ^ 2 + 1 y_15_ ^ 2 - 2 y_24_ * y_15_ + 1 y_24_ ^ 2 ] >= 47069.55
quadratic_ranged_44_lb: [ 1 x_9_ ^ 2 - 2 x_25_ * x_9_ + 1 x_25_ ^ 2 + 1 y_9_ ^ 2 - 2 y_25_ * y_9_ + 1 y_25_ ^ 2 ] >= 17633.88
quadratic_ranged_45_lb: [ 1 x_12_ ^ 2 - 2 x_25_ * x_12_ + 1 x_25_ ^ 2 + 1 y_12_ ^ 2 - 2 y_25_ * y_12_ + 1 y_25_ ^ 2 ] >= 13282.83
quadratic_ranged_46_lb: [ 1 x_21_ ^ 2 - 2 x_25_ * x_21_ + 1 x_25_ ^ 2 + 1 y_21_ ^ 2 - 2 y_25_ * y_21_ + 1 y_25_ ^ 2 ] >= 16830
quadratic_ranged_47_lb: [ 1 x_2_ ^ 2 - 2 x_26_ * x_2_ + 1 x_26_ ^ 2 + 1 y_2_ ^ 2 - 2 y_26_ * y_2_ + 1 y_26_ ^ 2 ] >= 8970.39
quadratic_ranged_48_lb: [ 1 x_14_ ^ 2 - 2 x_26_ * x_14_ + 1 x_26_ ^ 2 + 1 y_14_ ^ 2 - 2 y_26_ * y_14_ + 1 y_26_ ^ 2 ] >= 29385.18
quadratic_ranged_49_lb: [ 1 x_8_ ^ 2 - 2 x_27_ * x_8_ + 1 x_27_ ^ 2 + 1 y_8_ ^ 2 - 2 y_27_ * y_8_ + 1 y_27_ ^ 2 ] >= 17274.51
quadratic_ranged_50_lb: [ 1 x_9_ ^ 2 - 2 x_27_ * x_9_ + 1 x_27_ ^ 2 + 1 y_9_ ^ 2 - 2 y_27_ * y_9_ + 1 y_27_ ^ 2 ] >= 19626.75
quadratic_ranged_51_lb: [ 1 x_9_ ^ 2 - 2 x_28_ * x_9_ + 1 x_28_ ^ 2 + 1 y_9_ ^ 2 - 2 y_28_ * y_9_ + 1 y_28_ ^ 2 ] >= 13758.03
quadratic_ranged_52_lb: [ 1 x_10_ ^ 2 - 2 x_28_ * x_10_ + 1 x_28_ ^ 2 + 1 y_10_ ^ 2 - 2 y_28_ * y_10_ + 1 y_28_ ^ 2 ] >= 682.11
quadratic_ranged_53_lb: [ 1 x_15_ ^ 2 - 2 x_28_ * x_15_ + 1 x_28_ ^ 2 + 1 y_15_ ^ 2 - 2 y_28_ * y_15_ + 1 y_28_ ^ 2 ] >= 7287.39
c1_1: 1 x_25_ = 70
c2_1: 1 y_25_ = 70
c3_1: 1 x_5_ = -84
c4_1: 1 y_5_ = 79
c5_1: 1 x_8_ = 71
c6_1: 1 y_8_ = -57
Bounds
-3 <= x_1_ <= 85
-55 <= x_2_ <= 32
-34 <= x_3_ <= 116
-38 <= x_4_ <= 125
x_5_ = -84
-155 <= x_6_ <= 132
-77 <= x_7_ <= 137
x_8_ = 71
-64 <= x_9_ <= 69
-169 <= x_10_ <= 89
-134 <= x_11_ <= 95
-46 <= x_12_ <= 149
-120 <= x_13_ <= 181
-61 <= x_14_ <= 143
-161 <= x_15_ <= 161
-146 <= x_16_ <= 139
-106 <= x_17_ <= 194
-158 <= x_18_ <= 167
-83 <= x_19_ <= 153
-187 <= x_20_ <= 19
-61 <= x_21_ <= 62
-56 <= x_22_ <= 107
-156 <= x_23_ <= 192
-144 <= x_24_ <= 286
x_25_ = 70
-151 <= x_26_ <= 128
-61 <= x_27_ <= 203
-182 <= x_28_ <= 115
-90 <= y_1_ <= 17
-37 <= y_2_ <= 69
-121 <= y_3_ <= 48
-91 <= y_4_ <= 52
y_5_ = 79
-137 <= y_6_ <= 169
-130 <= y_7_ <= 91
y_8_ = -57
-64 <= y_9_ <= 106
-94 <= y_10_ <= 183
-100 <= y_11_ <= 148
-46 <= y_12_ <= 81
-174 <= y_13_ <= 134
-148 <= y_14_ <= 75
-161 <= y_15_ <= 202
-144 <= y_16_ <= 160
-160 <= y_17_ <= 120
-172 <= y_18_ <= 172
-147 <= y_19_ <= 97
-24 <= y_20_ <= 182
-61 <= y_21_ <= 99
-105 <= y_22_ <= 70
-197 <= y_23_ <= 170
-272 <= y_24_ <= 158
y_25_ = 70
-133 <= y_26_ <= 165
-189 <= y_27_ <= 75
-120 <= y_28_ <= 209
General
x_1_
x_2_
x_3_
x_4_
x_5_
x_6_
x_7_
x_8_
x_9_
x_10_
x_11_
x_12_
x_13_
x_14_
x_15_
x_16_
x_17_
x_18_
x_19_
x_20_
x_21_
x_22_
x_23_
x_24_
x_25_
x_26_
x_27_
x_28_
y_1_
y_2_
y_3_
y_4_
y_5_
y_6_
y_7_
y_8_
y_9_
y_10_
y_11_
y_12_
y_13_
y_14_
y_15_
y_16_
y_17_
y_18_
y_19_
y_20_
y_21_
y_22_
y_23_
y_24_
y_25_
y_26_
y_27_
y_28_
End
