minimize
obj: 
subject to
c1_1: -34 x_1_ - 138 y_1_ + [ 1 x_1_ ^ 2 + 1 y_1_ ^ 2 ] <= 134606
c2_1: -34 x_2_ - 138 y_2_ + [ 1 x_2_ ^ 2 + 1 y_2_ ^ 2 ] <= 140979
c3_1: -34 x_3_ - 138 y_3_ + [ 1 x_3_ ^ 2 + 1 y_3_ ^ 2 ] <= 69917
c4_1: -34 x_4_ - 138 y_4_ + [ 1 x_4_ ^ 2 + 1 y_4_ ^ 2 ] <= 20530
c5_1: -34 x_5_ - 138 y_5_ + [ 1 x_5_ ^ 2 + 1 y_5_ ^ 2 ] <= 3686
c6_1: -34 x_6_ - 138 y_6_ + [ 1 x_6_ ^ 2 + 1 y_6_ ^ 2 ] <= 56368
c7_1: -34 x_7_ - 138 y_7_ + [ 1 x_7_ ^ 2 + 1 y_7_ ^ 2 ] <= 6524
c8_1: -34 x_8_ - 138 y_8_ + [ 1 x_8_ ^ 2 + 1 y_8_ ^ 2 ] <= -3866
c9_1: -34 x_9_ - 138 y_9_ + [ 1 x_9_ ^ 2 + 1 y_9_ ^ 2 ] <= 899
c10_1: -34 x_10_ - 138 y_10_ + [ 1 x_10_ ^ 2 + 1 y_10_ ^ 2 ] <= 1203
c11_1: -34 x_11_ - 138 y_11_ + [ 1 x_11_ ^ 2 + 1 y_11_ ^ 2 ] <= -609
c12_1: -34 x_12_ - 138 y_12_ + [ 1 x_12_ ^ 2 + 1 y_12_ ^ 2 ] <= 7275
c13_1: -34 x_13_ - 138 y_13_ + [ 1 x_13_ ^ 2 + 1 y_13_ ^ 2 ] <= 59798
c14_1: -34 x_14_ - 138 y_14_ + [ 1 x_14_ ^ 2 + 1 y_14_ ^ 2 ] <= 5487
c15_1: -34 x_15_ - 138 y_15_ + [ 1 x_15_ ^ 2 + 1 y_15_ ^ 2 ] <= 33984
c16_1: -34 x_16_ - 138 y_16_ + [ 1 x_16_ ^ 2 + 1 y_16_ ^ 2 ] <= 43744
c17_1: -34 x_17_ - 138 y_17_ + [ 1 x_17_ ^ 2 + 1 y_17_ ^ 2 ] <= 38764
c18_1: -34 x_18_ - 138 y_18_ + [ 1 x_18_ ^ 2 + 1 y_18_ ^ 2 ] <= 65669
c19_1: -34 x_19_ - 138 y_19_ + [ 1 x_19_ ^ 2 + 1 y_19_ ^ 2 ] <= 103307
c20_1: -34 x_20_ - 138 y_20_ + [ 1 x_20_ ^ 2 + 1 y_20_ ^ 2 ] <= 139566
c21_1: -34 x_21_ - 138 y_21_ + [ 1 x_21_ ^ 2 + 1 y_21_ ^ 2 ] <= 123422
c22_1: -34 x_22_ - 138 y_22_ + [ 1 x_22_ ^ 2 + 1 y_22_ ^ 2 ] <= 74629
c23_1: -34 x_23_ - 138 y_23_ + [ 1 x_23_ ^ 2 + 1 y_23_ ^ 2 ] <= 6715
c24_1: -34 x_25_ - 138 y_25_ + [ 1 x_25_ ^ 2 + 1 y_25_ ^ 2 ] <= 3136
c25_1: -34 x_26_ - 138 y_26_ + [ 1 x_26_ ^ 2 + 1 y_26_ ^ 2 ] <= 34308
c26_1: -68 x_1_ + 86 y_1_ + [ 1 x_1_ ^ 2 + 1 y_1_ ^ 2 ] <= 256773
c27_1: -68 x_2_ + 86 y_2_ + [ 1 x_2_ ^ 2 + 1 y_2_ ^ 2 ] <= 138840
c28_1: -68 x_3_ + 86 y_3_ + [ 1 x_3_ ^ 2 + 1 y_3_ ^ 2 ] <= 68973
c29_1: -68 x_4_ + 86 y_4_ + [ 1 x_4_ ^ 2 + 1 y_4_ ^ 2 ] <= 20841
c30_1: -68 x_5_ + 86 y_5_ + [ 1 x_5_ ^ 2 + 1 y_5_ ^ 2 ] <= 29008
c31_1: -68 x_6_ + 86 y_6_ + [ 1 x_6_ ^ 2 + 1 y_6_ ^ 2 ] <= 111449
c32_1: -68 x_7_ + 86 y_7_ + [ 1 x_7_ ^ 2 + 1 y_7_ ^ 2 ] <= 83958
c33_1: -68 x_8_ + 86 y_8_ + [ 1 x_8_ ^ 2 + 1 y_8_ ^ 2 ] <= 53629
c34_1: -68 x_9_ + 86 y_9_ + [ 1 x_9_ ^ 2 + 1 y_9_ ^ 2 ] <= 75787
c35_1: -68 x_10_ + 86 y_10_ + [ 1 x_10_ ^ 2 + 1 y_10_ ^ 2 ] <= 86977
c36_1: -68 x_11_ + 86 y_11_ + [ 1 x_11_ ^ 2 + 1 y_11_ ^ 2 ] <= 79672
c37_1: -68 x_12_ + 86 y_12_ + [ 1 x_12_ ^ 2 + 1 y_12_ ^ 2 ] <= 107161
c38_1: -68 x_13_ + 86 y_13_ + [ 1 x_13_ ^ 2 + 1 y_13_ ^ 2 ] <= 70029
c39_1: -68 x_14_ + 86 y_14_ + [ 1 x_14_ ^ 2 + 1 y_14_ ^ 2 ] <= 10977
c40_1: -68 x_15_ + 86 y_15_ + [ 1 x_15_ ^ 2 + 1 y_15_ ^ 2 ] <= -2461
c41_1: -68 x_17_ + 86 y_17_ + [ 1 x_17_ ^ 2 + 1 y_17_ ^ 2 ] <= 973
c42: -68 x_18_ + 86 y_18_ + [ 1 x_18_ ^ 2 + 1 y_18_ ^ 2 ] <= 11319
c43: -68 x_19_ + 86 y_19_ + [ 1 x_19_ ^ 2 + 1 y_19_ ^ 2 ] <= 30458
c44: -68 x_20_ + 86 y_20_ + [ 1 x_20_ ^ 2 + 1 y_20_ ^ 2 ] <= 51768
c45: -68 x_21_ + 86 y_21_ + [ 1 x_21_ ^ 2 + 1 y_21_ ^ 2 ] <= 105492
c46: -68 x_22_ + 86 y_22_ + [ 1 x_22_ ^ 2 + 1 y_22_ ^ 2 ] <= 161782
c47: -68 x_23_ + 86 y_23_ + [ 1 x_23_ ^ 2 + 1 y_23_ ^ 2 ] <= 93452
c48: -68 x_24_ + 86 y_24_ + [ 1 x_24_ ^ 2 + 1 y_24_ ^ 2 ] <= 45789
c49: -68 x_25_ + 86 y_25_ + [ 1 x_25_ ^ 2 + 1 y_25_ ^ 2 ] <= 93947
c50: -68 x_26_ + 86 y_26_ + [ 1 x_26_ ^ 2 + 1 y_26_ ^ 2 ] <= 172793
c51: 52 x_1_ - 36 y_1_ + [ 1 x_1_ ^ 2 + 1 y_1_ ^ 2 ] <= 218054
c52: 52 x_2_ - 36 y_2_ + [ 1 x_2_ ^ 2 + 1 y_2_ ^ 2 ] <= 111206
c53: 52 x_3_ - 36 y_3_ + [ 1 x_3_ ^ 2 + 1 y_3_ ^ 2 ] <= 50363
c54: 52 x_4_ - 36 y_4_ + [ 1 x_4_ ^ 2 + 1 y_4_ ^ 2 ] <= 112206
c55: 52 x_5_ - 36 y_5_ + [ 1 x_5_ ^ 2 + 1 y_5_ ^ 2 ] <= 71896
c56: 52 x_6_ - 36 y_6_ + [ 1 x_6_ ^ 2 + 1 y_6_ ^ 2 ] <= 11233
c57: 52 x_7_ - 36 y_7_ + [ 1 x_7_ ^ 2 + 1 y_7_ ^ 2 ] <= 61925
c58: 52 x_8_ - 36 y_8_ + [ 1 x_8_ ^ 2 + 1 y_8_ ^ 2 ] <= 103989
c59: 52 x_9_ - 36 y_9_ + [ 1 x_9_ ^ 2 + 1 y_9_ ^ 2 ] <= 133498
c60: 52 x_10_ - 36 y_10_ + [ 1 x_10_ ^ 2 + 1 y_10_ ^ 2 ] <= 158439
c61: 52 x_11_ - 36 y_11_ + [ 1 x_11_ ^ 2 + 1 y_11_ ^ 2 ] <= 130221
c62: 52 x_12_ - 36 y_12_ + [ 1 x_12_ ^ 2 + 1 y_12_ ^ 2 ] <= 171059
c63: 52 x_13_ - 36 y_13_ + [ 1 x_13_ ^ 2 + 1 y_13_ ^ 2 ] <= 316142
c64: 52 x_14_ - 36 y_14_ + [ 1 x_14_ ^ 2 + 1 y_14_ ^ 2 ] <= 199376
c65: 52 x_15_ - 36 y_15_ + [ 1 x_15_ ^ 2 + 1 y_15_ ^ 2 ] <= 123407
c66: 52 x_16_ - 36 y_16_ + [ 1 x_16_ ^ 2 + 1 y_16_ ^ 2 ] <= 107497
c67: 52 x_17_ - 36 y_17_ + [ 1 x_17_ ^ 2 + 1 y_17_ ^ 2 ] <= 69925
c68: 52 x_18_ - 36 y_18_ + [ 1 x_18_ ^ 2 + 1 y_18_ ^ 2 ] <= 42976
c69: 52 x_19_ - 36 y_19_ + [ 1 x_19_ ^ 2 + 1 y_19_ ^ 2 ] <= 20450
c70: 52 x_20_ - 36 y_20_ + [ 1 x_20_ ^ 2 + 1 y_20_ ^ 2 ] <= 8092
c71: 52 x_22_ - 36 y_22_ + [ 1 x_22_ ^ 2 + 1 y_22_ ^ 2 ] <= 4860
c72: 52 x_23_ - 36 y_23_ + [ 1 x_23_ ^ 2 + 1 y_23_ ^ 2 ] <= 61679
c73: 52 x_24_ - 36 y_24_ + [ 1 x_24_ ^ 2 + 1 y_24_ ^ 2 ] <= 127472
c74: 52 x_25_ - 36 y_25_ + [ 1 x_25_ ^ 2 + 1 y_25_ ^ 2 ] <= 200517
c75: 52 x_26_ - 36 y_26_ + [ 1 x_26_ ^ 2 + 1 y_26_ ^ 2 ] <= 147055
c1_2: 1 x_24_ = 17
c2_2: 1 y_24_ = 69
c3_2: 1 x_16_ = 34
c4_2: 1 y_16_ = -43
c5_2: 1 x_21_ = -26
c6_2: 1 y_21_ = 18
c1: [ 1 x_1_ ^ 2 - 2 x_2_ * x_1_ + 1 x_2_ ^ 2 + 1 y_1_ ^ 2 - 2 y_2_ * y_1_ + 1 y_2_ ^ 2 ] = 17705
c2: [ 1 x_2_ ^ 2 - 2 x_3_ * x_2_ + 1 x_3_ ^ 2 + 1 y_2_ ^ 2 - 2 y_3_ * y_2_ + 1 y_3_ ^ 2 ] = 11737
c3: [ 1 x_3_ ^ 2 - 2 x_4_ * x_3_ + 1 x_4_ ^ 2 + 1 y_3_ ^ 2 - 2 y_4_ * y_3_ + 1 y_4_ ^ 2 ] = 12965
c4: [ 1 x_4_ ^ 2 - 2 x_5_ * x_4_ + 1 x_5_ ^ 2 + 1 y_4_ ^ 2 - 2 y_5_ * y_4_ + 1 y_5_ ^ 2 ] = 4418
c5: [ 1 x_5_ ^ 2 - 2 x_6_ * x_5_ + 1 x_6_ ^ 2 + 1 y_5_ ^ 2 - 2 y_6_ * y_5_ + 1 y_6_ ^ 2 ] = 25405
c6: [ 1 x_5_ ^ 2 - 2 x_7_ * x_5_ + 1 x_7_ ^ 2 + 1 y_5_ ^ 2 - 2 y_7_ * y_5_ + 1 y_7_ ^ 2 ] = 13450
c7: [ 1 x_6_ ^ 2 - 2 x_7_ * x_6_ + 1 x_7_ ^ 2 + 1 y_6_ ^ 2 - 2 y_7_ * y_6_ + 1 y_7_ ^ 2 ] = 19669
c8: [ 1 x_5_ ^ 2 - 2 x_8_ * x_5_ + 1 x_8_ ^ 2 + 1 y_5_ ^ 2 - 2 y_8_ * y_5_ + 1 y_8_ ^ 2 ] = 3488
c9: [ 1 x_7_ ^ 2 - 2 x_8_ * x_7_ + 1 x_8_ ^ 2 + 1 y_7_ ^ 2 - 2 y_8_ * y_7_ + 1 y_8_ ^ 2 ] = 5354
c10: [ 1 x_8_ ^ 2 - 2 x_9_ * x_8_ + 1 x_9_ ^ 2 + 1 y_8_ ^ 2 - 2 y_9_ * y_8_ + 1 y_9_ ^ 2 ] = 1825
c11: [ 1 x_9_ ^ 2 - 2 x_10_ * x_9_ + 1 x_10_ ^ 2 + 1 y_9_ ^ 2 - 2 y_10_ * y_9_ + 1 y_10_ ^ 2 ] = 1060
c12: [ 1 x_7_ ^ 2 - 2 x_11_ * x_7_ + 1 x_11_ ^ 2 + 1 y_7_ ^ 2 - 2 y_11_ * y_7_ + 1 y_11_ ^ 2 ] = 12409
c13: [ 1 x_9_ ^ 2 - 2 x_11_ * x_9_ + 1 x_11_ ^ 2 + 1 y_9_ ^ 2 - 2 y_11_ * y_9_ + 1 y_11_ ^ 2 ] = 11834
c14: [ 1 x_10_ ^ 2 - 2 x_11_ * x_10_ + 1 x_11_ ^ 2 + 1 y_10_ ^ 2 - 2 y_11_ * y_10_ + 1 y_11_ ^ 2 ] = 16298
c15: [ 1 x_11_ ^ 2 - 2 x_12_ * x_11_ + 1 x_12_ ^ 2 + 1 y_11_ ^ 2 - 2 y_12_ * y_11_ + 1 y_12_ ^ 2 ] = 2762
c16: [ 1 x_12_ ^ 2 - 2 x_13_ * x_12_ + 1 x_13_ ^ 2 + 1 y_12_ ^ 2 - 2 y_13_ * y_12_ + 1 y_13_ ^ 2 ] = 22009
c17: [ 1 x_13_ ^ 2 - 2 x_14_ * x_13_ + 1 x_14_ ^ 2 + 1 y_13_ ^ 2 - 2 y_14_ * y_13_ + 1 y_14_ ^ 2 ] = 23105
c18: [ 1 x_14_ ^ 2 - 2 x_15_ * x_14_ + 1 x_15_ ^ 2 + 1 y_14_ ^ 2 - 2 y_15_ * y_14_ + 1 y_15_ ^ 2 ] = 9010
c19: [ 1 x_15_ ^ 2 - 2 x_16_ * x_15_ + 1 x_16_ ^ 2 + 1 y_15_ ^ 2 - 2 y_16_ * y_15_ + 1 y_16_ ^ 2 ] = 544
c20: [ 1 x_4_ ^ 2 - 2 x_17_ * x_4_ + 1 x_17_ ^ 2 + 1 y_4_ ^ 2 - 2 y_17_ * y_4_ + 1 y_17_ ^ 2 ] = 8345
c21: [ 1 x_5_ ^ 2 - 2 x_17_ * x_5_ + 1 x_17_ ^ 2 + 1 y_5_ ^ 2 - 2 y_17_ * y_5_ + 1 y_17_ ^ 2 ] = 13421
c22: [ 1 x_16_ ^ 2 - 2 x_17_ * x_16_ + 1 x_17_ ^ 2 + 1 y_16_ ^ 2 - 2 y_17_ * y_16_ + 1 y_17_ ^ 2 ] = 3978
c23: [ 1 x_17_ ^ 2 - 2 x_18_ * x_17_ + 1 x_18_ ^ 2 + 1 y_17_ ^ 2 - 2 y_18_ * y_17_ + 1 y_18_ ^ 2 ] = 3205
c24: [ 1 x_18_ ^ 2 - 2 x_19_ * x_18_ + 1 x_19_ ^ 2 + 1 y_18_ ^ 2 - 2 y_19_ * y_18_ + 1 y_19_ ^ 2 ] = 4000
c25: [ 1 x_19_ ^ 2 - 2 x_20_ * x_19_ + 1 x_20_ ^ 2 + 1 y_19_ ^ 2 - 2 y_20_ * y_19_ + 1 y_20_ ^ 2 ] = 2612
c26: [ 1 x_6_ ^ 2 - 2 x_21_ * x_6_ + 1 x_21_ ^ 2 + 1 y_6_ ^ 2 - 2 y_21_ * y_6_ + 1 y_21_ ^ 2 ] = 12233
c27: [ 1 x_20_ ^ 2 - 2 x_21_ * x_20_ + 1 x_21_ ^ 2 + 1 y_20_ ^ 2 - 2 y_21_ * y_20_ + 1 y_21_ ^ 2 ] = 9092
c28: [ 1 x_3_ ^ 2 - 2 x_22_ * x_3_ + 1 x_22_ ^ 2 + 1 y_3_ ^ 2 - 2 y_22_ * y_3_ + 1 y_22_ ^ 2 ] = 22525
c29: [ 1 x_21_ ^ 2 - 2 x_22_ * x_21_ + 1 x_22_ ^ 2 + 1 y_21_ ^ 2 - 2 y_22_ * y_21_ + 1 y_22_ ^ 2 ] = 5860
c30: [ 1 x_5_ ^ 2 - 2 x_23_ * x_5_ + 1 x_23_ ^ 2 + 1 y_5_ ^ 2 - 2 y_23_ * y_5_ + 1 y_23_ ^ 2 ] = 17333
c31: [ 1 x_22_ ^ 2 - 2 x_23_ * x_22_ + 1 x_23_ ^ 2 + 1 y_22_ ^ 2 - 2 y_23_ * y_22_ + 1 y_23_ ^ 2 ] = 30209
c32: [ 1 x_8_ ^ 2 - 2 x_24_ * x_8_ + 1 x_24_ ^ 2 + 1 y_8_ ^ 2 - 2 y_24_ * y_8_ + 1 y_24_ ^ 2 ] = 1184
c33: [ 1 x_10_ ^ 2 - 2 x_24_ * x_10_ + 1 x_24_ ^ 2 + 1 y_10_ ^ 2 - 2 y_24_ * y_10_ + 1 y_24_ ^ 2 ] = 6253
c34: [ 1 x_11_ ^ 2 - 2 x_24_ * x_11_ + 1 x_24_ ^ 2 + 1 y_11_ ^ 2 - 2 y_24_ * y_11_ + 1 y_24_ ^ 2 ] = 4441
c35: [ 1 x_12_ ^ 2 - 2 x_24_ * x_12_ + 1 x_24_ ^ 2 + 1 y_12_ ^ 2 - 2 y_24_ * y_12_ + 1 y_24_ ^ 2 ] = 12325
c36: [ 1 x_14_ ^ 2 - 2 x_24_ * x_14_ + 1 x_24_ ^ 2 + 1 y_14_ ^ 2 - 2 y_24_ * y_14_ + 1 y_24_ ^ 2 ] = 10537
c37: [ 1 x_23_ ^ 2 - 2 x_24_ * x_23_ + 1 x_24_ ^ 2 + 1 y_23_ ^ 2 - 2 y_24_ * y_23_ + 1 y_24_ ^ 2 ] = 11765
c38: [ 1 x_24_ ^ 2 - 2 x_25_ * x_24_ + 1 x_25_ ^ 2 + 1 y_24_ ^ 2 - 2 y_25_ * y_24_ + 1 y_25_ ^ 2 ] = 8186
c39: [ 1 x_1_ ^ 2 - 2 x_26_ * x_1_ + 1 x_26_ ^ 2 + 1 y_1_ ^ 2 - 2 y_26_ * y_1_ + 1 y_26_ ^ 2 ] = 30736
c40: [ 1 x_3_ ^ 2 - 2 x_26_ * x_3_ + 1 x_26_ ^ 2 + 1 y_3_ ^ 2 - 2 y_26_ * y_3_ + 1 y_26_ ^ 2 ] = 25010
c41: [ 1 x_25_ ^ 2 - 2 x_26_ * x_25_ + 1 x_26_ ^ 2 + 1 y_25_ ^ 2 - 2 y_26_ * y_25_ + 1 y_26_ ^ 2 ] = 11645
Bounds
-356 <= x_1_ <= 390
-342 <= x_2_ <= 308
-234 <= x_3_ <= 200
-120 <= x_4_ <= 176
-76 <= x_5_ <= 110
-136 <= x_6_ <= 84
-90 <= x_7_ <= 124
-17 <= x_8_ <= 51
-60 <= x_9_ <= 94
-62 <= x_10_ <= 96
-49 <= x_11_ <= 83
-94 <= x_12_ <= 128
-236 <= x_13_ <= 271
-84 <= x_14_ <= 119
11 <= x_15_ <= 57
x_16_ = 34
-29 <= x_17_ <= 97
-85 <= x_18_ <= 153
-148 <= x_19_ <= 120
-121 <= x_20_ <= 69
x_21_ = -26
-102 <= x_22_ <= 50
-91 <= x_23_ <= 125
x_24_ = 17
-73 <= x_25_ <= 107
-181 <= x_26_ <= 215
-304 <= y_1_ <= 442
-313 <= y_2_ <= 333
-204 <= y_3_ <= 225
-90 <= y_4_ <= 111
-24 <= y_5_ <= 135
-92 <= y_6_ <= 128
-38 <= y_7_ <= 176
35 <= y_8_ <= 103
-8 <= y_9_ <= 146
-10 <= y_10_ <= 148
3 <= y_11_ <= 135
-42 <= y_12_ <= 180
-185 <= y_13_ <= 227
-33 <= y_14_ <= 75
-66 <= y_15_ <= -20
y_16_ = -43
-106 <= y_17_ <= 20
-162 <= y_18_ <= 76
-128 <= y_19_ <= 139
-77 <= y_20_ <= 113
y_21_ = 18
-58 <= y_22_ <= 94
-39 <= y_23_ <= 177
y_24_ = 69
-21 <= y_25_ <= 159
-129 <= y_26_ <= 267
General
x_1_
x_2_
x_3_
x_4_
x_5_
x_6_
x_7_
x_8_
x_9_
x_10_
x_11_
x_12_
x_13_
x_14_
x_15_
x_16_
x_17_
x_18_
x_19_
x_20_
x_21_
x_22_
x_23_
x_24_
x_25_
x_26_
y_1_
y_2_
y_3_
y_4_
y_5_
y_6_
y_7_
y_8_
y_9_
y_10_
y_11_
y_12_
y_13_
y_14_
y_15_
y_16_
y_17_
y_18_
y_19_
y_20_
y_21_
y_22_
y_23_
y_24_
y_25_
y_26_
End
