minimize
obj: 
subject to
c1_4: -1 x_21_ + 1 y_21_ <= 0
c1_1: [ 1 x_1_ ^ 2 + 1 y_1_ ^ 2 ] <= 5450
c2_1: [ 1 x_2_ ^ 2 + 1 y_2_ ^ 2 ] <= 22161
c3_1: [ 1 x_4_ ^ 2 + 1 y_4_ ^ 2 ] <= 46184
c4_1: [ 1 x_5_ ^ 2 + 1 y_5_ ^ 2 ] <= 34938
c5_1: [ 1 x_6_ ^ 2 + 1 y_6_ ^ 2 ] <= 4964
c6_1: [ 1 x_7_ ^ 2 + 1 y_7_ ^ 2 ] <= 47139
c7_1: [ 1 x_8_ ^ 2 + 1 y_8_ ^ 2 ] <= 7611
c8_1: [ 1 x_9_ ^ 2 + 1 y_9_ ^ 2 ] <= 10445
c9_1: [ 1 x_10_ ^ 2 + 1 y_10_ ^ 2 ] <= 64978
c10_1: [ 1 x_11_ ^ 2 + 1 y_11_ ^ 2 ] <= 4133
c11_1: [ 1 x_12_ ^ 2 + 1 y_12_ ^ 2 ] <= 69157
c12_1: [ 1 x_13_ ^ 2 + 1 y_13_ ^ 2 ] <= 70988
c13_1: [ 1 x_14_ ^ 2 + 1 y_14_ ^ 2 ] <= 4254
c14_1: [ 1 x_15_ ^ 2 + 1 y_15_ ^ 2 ] <= 41129
c15_1: [ 1 x_16_ ^ 2 + 1 y_16_ ^ 2 ] <= 18954
c16_1: [ 1 x_17_ ^ 2 + 1 y_17_ ^ 2 ] <= 11810
c17_1: [ 1 x_18_ ^ 2 + 1 y_18_ ^ 2 ] <= 43035
c18_1: [ 1 x_19_ ^ 2 + 1 y_19_ ^ 2 ] <= 44925
c19_1: [ 1 x_20_ ^ 2 + 1 y_20_ ^ 2 ] <= 20578
c20_1: [ 1 x_21_ ^ 2 + 1 y_21_ ^ 2 ] <= 100224
c21_1: [ 1 x_22_ ^ 2 + 1 y_22_ ^ 2 ] <= 6817
c22_1: [ 1 x_23_ ^ 2 + 1 y_23_ ^ 2 ] <= 18018
c23_1: [ 1 x_24_ ^ 2 + 1 y_24_ ^ 2 ] <= 79079
c24_1: [ 1 x_25_ ^ 2 + 1 y_25_ ^ 2 ] <= 808
c25_1: [ 1 x_26_ ^ 2 + 1 y_26_ ^ 2 ] <= 6441
c1_3: 1 x_21_ >= 0
c2_3: 1 y_21_ >= 0
c1_2: 1 x_3_ = 0
c2_2: 1 y_3_ = 0
c1: [ 1 x_1_ ^ 2 - 2 x_3_ * x_1_ + 1 x_3_ ^ 2 + 1 y_1_ ^ 2 - 2 y_3_ * y_1_ + 1 y_3_ ^ 2 ] = 5450
c2: [ 1 x_4_ ^ 2 - 2 x_5_ * x_4_ + 1 x_5_ ^ 2 + 1 y_4_ ^ 2 - 2 y_5_ * y_4_ + 1 y_5_ ^ 2 ] = 12484
c3: [ 1 x_2_ ^ 2 - 2 x_6_ * x_2_ + 1 x_6_ ^ 2 + 1 y_2_ ^ 2 - 2 y_6_ * y_2_ + 1 y_6_ ^ 2 ] = 6148
c4: [ 1 x_3_ ^ 2 - 2 x_6_ * x_3_ + 1 x_6_ ^ 2 + 1 y_3_ ^ 2 - 2 y_6_ * y_3_ + 1 y_6_ ^ 2 ] = 4964
c5: [ 1 x_5_ ^ 2 - 2 x_6_ * x_5_ + 1 x_6_ ^ 2 + 1 y_5_ ^ 2 - 2 y_6_ * y_5_ + 1 y_6_ ^ 2 ] = 18356
c6: [ 1 x_2_ ^ 2 - 2 x_7_ * x_2_ + 1 x_7_ ^ 2 + 1 y_2_ ^ 2 - 2 y_7_ * y_2_ + 1 y_7_ ^ 2 ] = 4658
c7: [ 1 x_1_ ^ 2 - 2 x_8_ * x_1_ + 1 x_8_ ^ 2 + 1 y_1_ ^ 2 - 2 y_8_ * y_1_ + 1 y_8_ ^ 2 ] = 180
c8: [ 1 x_4_ ^ 2 - 2 x_8_ * x_4_ + 1 x_8_ ^ 2 + 1 y_4_ ^ 2 - 2 y_8_ * y_4_ + 1 y_8_ ^ 2 ] = 22194
c9: [ 1 x_3_ ^ 2 - 2 x_9_ * x_3_ + 1 x_9_ ^ 2 + 1 y_3_ ^ 2 - 2 y_9_ * y_3_ + 1 y_9_ ^ 2 ] = 10445
c10: [ 1 x_6_ ^ 2 - 2 x_9_ * x_6_ + 1 x_9_ ^ 2 + 1 y_6_ ^ 2 - 2 y_9_ * y_6_ + 1 y_9_ ^ 2 ] = 24457
c11: [ 1 x_5_ ^ 2 - 2 x_10_ * x_5_ + 1 x_10_ ^ 2 + 1 y_5_ ^ 2 - 2 y_10_ * y_5_ + 1 y_10_ ^ 2 ] = 25681
c12: [ 1 x_7_ ^ 2 - 2 x_10_ * x_7_ + 1 x_10_ ^ 2 + 1 y_7_ ^ 2 - 2 y_10_ * y_7_ + 1 y_10_ ^ 2 ] = 18081
c13: [ 1 x_9_ ^ 2 - 2 x_10_ * x_9_ + 1 x_10_ ^ 2 + 1 y_9_ ^ 2 - 2 y_10_ * y_9_ + 1 y_10_ ^ 2 ] = 35362
c14: [ 1 x_1_ ^ 2 - 2 x_11_ * x_1_ + 1 x_11_ ^ 2 + 1 y_1_ ^ 2 - 2 y_11_ * y_1_ + 1 y_11_ ^ 2 ] = 10701
c15: [ 1 x_3_ ^ 2 - 2 x_11_ * x_3_ + 1 x_11_ ^ 2 + 1 y_3_ ^ 2 - 2 y_11_ * y_3_ + 1 y_11_ ^ 2 ] = 4133
c16: [ 1 x_5_ ^ 2 - 2 x_12_ * x_5_ + 1 x_12_ ^ 2 + 1 y_5_ ^ 2 - 2 y_12_ * y_5_ + 1 y_12_ ^ 2 ] = 5785
c17: [ 1 x_7_ ^ 2 - 2 x_13_ * x_7_ + 1 x_13_ ^ 2 + 1 y_7_ ^ 2 - 2 y_13_ * y_7_ + 1 y_13_ ^ 2 ] = 10786
c18: [ 1 x_9_ ^ 2 - 2 x_13_ * x_9_ + 1 x_13_ ^ 2 + 1 y_9_ ^ 2 - 2 y_13_ * y_9_ + 1 y_13_ ^ 2 ] = 26973
c19: [ 1 x_12_ ^ 2 - 2 x_13_ * x_12_ + 1 x_13_ ^ 2 + 1 y_12_ ^ 2 - 2 y_13_ * y_12_ + 1 y_13_ ^ 2 ] = 25633
c20: [ 1 x_5_ ^ 2 - 2 x_14_ * x_5_ + 1 x_14_ ^ 2 + 1 y_5_ ^ 2 - 2 y_14_ * y_5_ + 1 y_14_ ^ 2 ] = 14810
c21: [ 1 x_8_ ^ 2 - 2 x_14_ * x_8_ + 1 x_14_ ^ 2 + 1 y_8_ ^ 2 - 2 y_14_ * y_8_ + 1 y_14_ ^ 2 ] = 13000
c22: [ 1 x_4_ ^ 2 - 2 x_15_ * x_4_ + 1 x_15_ ^ 2 + 1 y_4_ ^ 2 - 2 y_15_ * y_4_ + 1 y_15_ ^ 2 ] = 14545
c23: [ 1 x_10_ ^ 2 - 2 x_15_ * x_10_ + 1 x_15_ ^ 2 + 1 y_10_ ^ 2 - 2 y_15_ * y_10_ + 1 y_15_ ^ 2 ] = 39538
c24: [ 1 x_11_ ^ 2 - 2 x_15_ * x_11_ + 1 x_15_ ^ 2 + 1 y_11_ ^ 2 - 2 y_15_ * y_11_ + 1 y_15_ ^ 2 ] = 19186
c25: [ 1 x_2_ ^ 2 - 2 x_16_ * x_2_ + 1 x_16_ ^ 2 + 1 y_2_ ^ 2 - 2 y_16_ * y_2_ + 1 y_16_ ^ 2 ] = 31450
c26: [ 1 x_3_ ^ 2 - 2 x_16_ * x_3_ + 1 x_16_ ^ 2 + 1 y_3_ ^ 2 - 2 y_16_ * y_3_ + 1 y_16_ ^ 2 ] = 18954
c27: [ 1 x_15_ ^ 2 - 2 x_16_ * x_15_ + 1 x_16_ ^ 2 + 1 y_15_ ^ 2 - 2 y_16_ * y_15_ + 1 y_16_ ^ 2 ] = 20665
c28: [ 1 x_4_ ^ 2 - 2 x_17_ * x_4_ + 1 x_17_ ^ 2 + 1 y_4_ ^ 2 - 2 y_17_ * y_4_ + 1 y_17_ ^ 2 ] = 11285
c29: [ 1 x_11_ ^ 2 - 2 x_17_ * x_11_ + 1 x_17_ ^ 2 + 1 y_11_ ^ 2 - 2 y_17_ * y_11_ + 1 y_17_ ^ 2 ] = 1970
c30: [ 1 x_8_ ^ 2 - 2 x_18_ * x_8_ + 1 x_18_ ^ 2 + 1 y_8_ ^ 2 - 2 y_18_ * y_8_ + 1 y_18_ ^ 2 ] = 14450
c31: [ 1 x_1_ ^ 2 - 2 x_19_ * x_1_ + 1 x_19_ ^ 2 + 1 y_1_ ^ 2 - 2 y_19_ * y_1_ + 1 y_19_ ^ 2 ] = 19080
c32: [ 1 x_5_ ^ 2 - 2 x_19_ * x_5_ + 1 x_19_ ^ 2 + 1 y_5_ ^ 2 - 2 y_19_ * y_5_ + 1 y_19_ ^ 2 ] = 14530
c33: [ 1 x_10_ ^ 2 - 2 x_19_ * x_10_ + 1 x_19_ ^ 2 + 1 y_10_ ^ 2 - 2 y_19_ * y_10_ + 1 y_19_ ^ 2 ] = 1845
c34: [ 1 x_3_ ^ 2 - 2 x_20_ * x_3_ + 1 x_20_ ^ 2 + 1 y_3_ ^ 2 - 2 y_20_ * y_3_ + 1 y_20_ ^ 2 ] = 20578
c35: [ 1 x_12_ ^ 2 - 2 x_20_ * x_12_ + 1 x_20_ ^ 2 + 1 y_12_ ^ 2 - 2 y_20_ * y_12_ + 1 y_20_ ^ 2 ] = 43933
c36: [ 1 x_10_ ^ 2 - 2 x_21_ * x_10_ + 1 x_21_ ^ 2 + 1 y_10_ ^ 2 - 2 y_21_ * y_10_ + 1 y_21_ ^ 2 ] = 7400
c37: [ 1 x_15_ ^ 2 - 2 x_21_ * x_15_ + 1 x_21_ ^ 2 + 1 y_15_ ^ 2 - 2 y_21_ * y_15_ + 1 y_21_ ^ 2 ] = 12946
c38: [ 1 x_3_ ^ 2 - 2 x_22_ * x_3_ + 1 x_22_ ^ 2 + 1 y_3_ ^ 2 - 2 y_22_ * y_3_ + 1 y_22_ ^ 2 ] = 6817
c39: [ 1 x_16_ ^ 2 - 2 x_22_ * x_16_ + 1 x_22_ ^ 2 + 1 y_16_ ^ 2 - 2 y_22_ * y_16_ + 1 y_22_ ^ 2 ] = 34465
c40: [ 1 x_14_ ^ 2 - 2 x_23_ * x_14_ + 1 x_23_ ^ 2 + 1 y_14_ ^ 2 - 2 y_23_ * y_14_ + 1 y_23_ ^ 2 ] = 4762
c41: [ 1 x_15_ ^ 2 - 2 x_23_ * x_15_ + 1 x_23_ ^ 2 + 1 y_15_ ^ 2 - 2 y_23_ * y_15_ + 1 y_23_ ^ 2 ] = 41605
c42: [ 1 x_1_ ^ 2 - 2 x_24_ * x_1_ + 1 x_24_ ^ 2 + 1 y_1_ ^ 2 - 2 y_24_ * y_1_ + 1 y_24_ ^ 2 ] = 43009
c43: [ 1 x_13_ ^ 2 - 2 x_24_ * x_13_ + 1 x_24_ ^ 2 + 1 y_13_ ^ 2 - 2 y_24_ * y_13_ + 1 y_24_ ^ 2 ] = 9281
c44: [ 1 x_18_ ^ 2 - 2 x_24_ * x_18_ + 1 x_24_ ^ 2 + 1 y_18_ ^ 2 - 2 y_24_ * y_18_ + 1 y_24_ ^ 2 ] = 27053
c45: [ 1 x_3_ ^ 2 - 2 x_25_ * x_3_ + 1 x_25_ ^ 2 + 1 y_3_ ^ 2 - 2 y_25_ * y_3_ + 1 y_25_ ^ 2 ] = 808
c46: [ 1 x_14_ ^ 2 - 2 x_25_ * x_14_ + 1 x_25_ ^ 2 + 1 y_14_ ^ 2 - 2 y_25_ * y_14_ + 1 y_25_ ^ 2 ] = 1354
c47: [ 1 x_9_ ^ 2 - 2 x_26_ * x_9_ + 1 x_26_ ^ 2 + 1 y_9_ ^ 2 - 2 y_26_ * y_9_ + 1 y_26_ ^ 2 ] = 25325
c48: [ 1 x_14_ ^ 2 - 2 x_26_ * x_14_ + 1 x_26_ ^ 2 + 1 y_14_ ^ 2 - 2 y_26_ * y_14_ + 1 y_26_ ^ 2 ] = 226
c49: [ 1 x_22_ ^ 2 - 2 x_26_ * x_22_ + 1 x_26_ ^ 2 + 1 y_22_ ^ 2 - 2 y_26_ * y_22_ + 1 y_26_ ^ 2 ] = 23977
Bounds
-73 <= x_1_ <= 73
-148 <= x_2_ <= 148
x_3_ = 0
-214 <= x_4_ <= 214
-186 <= x_5_ <= 186
-70 <= x_6_ <= 70
-217 <= x_7_ <= 217
-87 <= x_8_ <= 87
-102 <= x_9_ <= 102
-254 <= x_10_ <= 254
-64 <= x_11_ <= 64
-262 <= x_12_ <= 262
-266 <= x_13_ <= 266
-65 <= x_14_ <= 65
-202 <= x_15_ <= 202
-137 <= x_16_ <= 137
-108 <= x_17_ <= 108
-207 <= x_18_ <= 207
-211 <= x_19_ <= 211
-143 <= x_20_ <= 143
-316 <= x_21_ <= 316
-82 <= x_22_ <= 82
-134 <= x_23_ <= 134
-281 <= x_24_ <= 281
-28 <= x_25_ <= 28
-80 <= x_26_ <= 80
-73 <= y_1_ <= 73
-148 <= y_2_ <= 148
y_3_ = 0
-214 <= y_4_ <= 214
-186 <= y_5_ <= 186
-70 <= y_6_ <= 70
-217 <= y_7_ <= 217
-87 <= y_8_ <= 87
-102 <= y_9_ <= 102
-254 <= y_10_ <= 254
-64 <= y_11_ <= 64
-262 <= y_12_ <= 262
-266 <= y_13_ <= 266
-65 <= y_14_ <= 65
-202 <= y_15_ <= 202
-137 <= y_16_ <= 137
-108 <= y_17_ <= 108
-207 <= y_18_ <= 207
-211 <= y_19_ <= 211
-143 <= y_20_ <= 143
-316 <= y_21_ <= 316
-82 <= y_22_ <= 82
-134 <= y_23_ <= 134
-281 <= y_24_ <= 281
-28 <= y_25_ <= 28
-80 <= y_26_ <= 80
General
x_1_
x_2_
x_3_
x_4_
x_5_
x_6_
x_7_
x_8_
x_9_
x_10_
x_11_
x_12_
x_13_
x_14_
x_15_
x_16_
x_17_
x_18_
x_19_
x_20_
x_21_
x_22_
x_23_
x_24_
x_25_
x_26_
y_1_
y_2_
y_3_
y_4_
y_5_
y_6_
y_7_
y_8_
y_9_
y_10_
y_11_
y_12_
y_13_
y_14_
y_15_
y_16_
y_17_
y_18_
y_19_
y_20_
y_21_
y_22_
y_23_
y_24_
y_25_
y_26_
End
