minimize
obj: 
subject to
c1_1: 6 x_1_ + 110 y_1_ + [ 1 x_1_ ^ 2 + 1 y_1_ ^ 2 ] <= 12631
c2_1: 6 x_2_ + 110 y_2_ + [ 1 x_2_ ^ 2 + 1 y_2_ ^ 2 ] <= 9251
c3_1: 6 x_3_ + 110 y_3_ + [ 1 x_3_ ^ 2 + 1 y_3_ ^ 2 ] <= 7579
c4_1: 6 x_4_ + 110 y_4_ + [ 1 x_4_ ^ 2 + 1 y_4_ ^ 2 ] <= 43027
c5_1: 6 x_5_ + 110 y_5_ + [ 1 x_5_ ^ 2 + 1 y_5_ ^ 2 ] <= 12684
c6_1: 6 x_6_ + 110 y_6_ + [ 1 x_6_ ^ 2 + 1 y_6_ ^ 2 ] <= -2057
c7_1: 6 x_8_ + 110 y_8_ + [ 1 x_8_ ^ 2 + 1 y_8_ ^ 2 ] <= 72394
c8_1: 6 x_9_ + 110 y_9_ + [ 1 x_9_ ^ 2 + 1 y_9_ ^ 2 ] <= 13205
c9_1: 6 x_10_ + 110 y_10_ + [ 1 x_10_ ^ 2 + 1 y_10_ ^ 2 ] <= 20786
c10_1: 6 x_11_ + 110 y_11_ + [ 1 x_11_ ^ 2 + 1 y_11_ ^ 2 ] <= 54912
c11_1: 6 x_12_ + 110 y_12_ + [ 1 x_12_ ^ 2 + 1 y_12_ ^ 2 ] <= 55444
c12_1: 6 x_13_ + 110 y_13_ + [ 1 x_13_ ^ 2 + 1 y_13_ ^ 2 ] <= 163910
c13_1: 6 x_14_ + 110 y_14_ + [ 1 x_14_ ^ 2 + 1 y_14_ ^ 2 ] <= 72584
c14_1: 6 x_15_ + 110 y_15_ + [ 1 x_15_ ^ 2 + 1 y_15_ ^ 2 ] <= 20091
c15_1: 6 x_16_ + 110 y_16_ + [ 1 x_16_ ^ 2 + 1 y_16_ ^ 2 ] <= 56914
c16_1: 6 x_17_ + 110 y_17_ + [ 1 x_17_ ^ 2 + 1 y_17_ ^ 2 ] <= 45723
c17_1: 6 x_18_ + 110 y_18_ + [ 1 x_18_ ^ 2 + 1 y_18_ ^ 2 ] <= 12524
c18_1: 6 x_19_ + 110 y_19_ + [ 1 x_19_ ^ 2 + 1 y_19_ ^ 2 ] <= 72466
c19_1: 6 x_20_ + 110 y_20_ + [ 1 x_20_ ^ 2 + 1 y_20_ ^ 2 ] <= 7940
c20_1: 6 x_21_ + 110 y_21_ + [ 1 x_21_ ^ 2 + 1 y_21_ ^ 2 ] <= -564
c21_1: 6 x_22_ + 110 y_22_ + [ 1 x_22_ ^ 2 + 1 y_22_ ^ 2 ] <= 35791
c22_1: 6 x_23_ + 110 y_23_ + [ 1 x_23_ ^ 2 + 1 y_23_ ^ 2 ] <= 96524
c23_1: 6 x_24_ + 110 y_24_ + [ 1 x_24_ ^ 2 + 1 y_24_ ^ 2 ] <= 89161
c24_1: 6 x_25_ + 110 y_25_ + [ 1 x_25_ ^ 2 + 1 y_25_ ^ 2 ] <= 57868
c25_1: 6 x_26_ + 110 y_26_ + [ 1 x_26_ ^ 2 + 1 y_26_ ^ 2 ] <= 37171
c26_1: -28 x_1_ + 182 y_1_ + [ 1 x_1_ ^ 2 + 1 y_1_ ^ 2 ] <= 74876
c27_1: -28 x_2_ + 182 y_2_ + [ 1 x_2_ ^ 2 + 1 y_2_ ^ 2 ] <= 4321
c28_1: -28 x_3_ + 182 y_3_ + [ 1 x_3_ ^ 2 + 1 y_3_ ^ 2 ] <= 363
c29_1: -28 x_4_ + 182 y_4_ + [ 1 x_4_ ^ 2 + 1 y_4_ ^ 2 ] <= 38572
c30_1: -28 x_5_ + 182 y_5_ + [ 1 x_5_ ^ 2 + 1 y_5_ ^ 2 ] <= 1196
c31_1: -28 x_6_ + 182 y_6_ + [ 1 x_6_ ^ 2 + 1 y_6_ ^ 2 ] <= 19169
c32_1: -28 x_7_ + 182 y_7_ + [ 1 x_7_ ^ 2 + 1 y_7_ ^ 2 ] <= 30348
c33_1: -28 x_8_ + 182 y_8_ + [ 1 x_8_ ^ 2 + 1 y_8_ ^ 2 ] <= 18411
c34_1: -28 x_9_ + 182 y_9_ + [ 1 x_9_ ^ 2 + 1 y_9_ ^ 2 ] <= 5550
c35_1: -28 x_10_ + 182 y_10_ + [ 1 x_10_ ^ 2 + 1 y_10_ ^ 2 ] <= 53649
c36_1: -28 x_11_ + 182 y_11_ + [ 1 x_11_ ^ 2 + 1 y_11_ ^ 2 ] <= 33291
c37_1: -28 x_12_ + 182 y_12_ + [ 1 x_12_ ^ 2 + 1 y_12_ ^ 2 ] <= 45730
c38_1: -28 x_13_ + 182 y_13_ + [ 1 x_13_ ^ 2 + 1 y_13_ ^ 2 ] <= 138846
c39_1: -28 x_14_ + 182 y_14_ + [ 1 x_14_ ^ 2 + 1 y_14_ ^ 2 ] <= 54137
c40_1: -28 x_15_ + 182 y_15_ + [ 1 x_15_ ^ 2 + 1 y_15_ ^ 2 ] <= 15349
c41_1: -28 x_16_ + 182 y_16_ + [ 1 x_16_ ^ 2 + 1 y_16_ ^ 2 ] <= 49332
c42_1: -28 x_17_ + 182 y_17_ + [ 1 x_17_ ^ 2 + 1 y_17_ ^ 2 ] <= -7912
c43_1: -28 x_18_ + 182 y_18_ + [ 1 x_18_ ^ 2 + 1 y_18_ ^ 2 ] <= 7657
c44_1: -28 x_19_ + 182 y_19_ + [ 1 x_19_ ^ 2 + 1 y_19_ ^ 2 ] <= 52905
c45_1: -28 x_20_ + 182 y_20_ + [ 1 x_20_ ^ 2 + 1 y_20_ ^ 2 ] <= 5676
c46_1: -28 x_21_ + 182 y_21_ + [ 1 x_21_ ^ 2 + 1 y_21_ ^ 2 ] <= 25641
c47_1: -28 x_23_ + 182 y_23_ + [ 1 x_23_ ^ 2 + 1 y_23_ ^ 2 ] <= 74761
c48_1: -28 x_24_ + 182 y_24_ + [ 1 x_24_ ^ 2 + 1 y_24_ ^ 2 ] <= 78335
c49_1: -28 x_25_ + 182 y_25_ + [ 1 x_25_ ^ 2 + 1 y_25_ ^ 2 ] <= 39819
c50_1: -28 x_26_ + 182 y_26_ + [ 1 x_26_ ^ 2 + 1 y_26_ ^ 2 ] <= 28201
c51: -56 x_1_ + 118 y_1_ + [ 1 x_1_ ^ 2 + 1 y_1_ ^ 2 ] <= 10726
c52: -56 x_2_ + 118 y_2_ + [ 1 x_2_ ^ 2 + 1 y_2_ ^ 2 ] <= 2068
c53: -56 x_3_ + 118 y_3_ + [ 1 x_3_ ^ 2 + 1 y_3_ ^ 2 ] <= 955
c54: -56 x_4_ + 118 y_4_ + [ 1 x_4_ ^ 2 + 1 y_4_ ^ 2 ] <= 29357
c55: -56 x_5_ + 118 y_5_ + [ 1 x_5_ ^ 2 + 1 y_5_ ^ 2 ] <= 4592
c56: -56 x_7_ + 118 y_7_ + [ 1 x_7_ ^ 2 + 1 y_7_ ^ 2 ] <= -3288
c57: -56 x_8_ + 118 y_8_ + [ 1 x_8_ ^ 2 + 1 y_8_ ^ 2 ] <= 62774
c58: -56 x_9_ + 118 y_9_ + [ 1 x_9_ ^ 2 + 1 y_9_ ^ 2 ] <= 5079
c59: -56 x_10_ + 118 y_10_ + [ 1 x_10_ ^ 2 + 1 y_10_ ^ 2 ] <= 10884
c60: -56 x_11_ + 118 y_11_ + [ 1 x_11_ ^ 2 + 1 y_11_ ^ 2 ] <= 39610
c61: -56 x_12_ + 118 y_12_ + [ 1 x_12_ ^ 2 + 1 y_12_ ^ 2 ] <= 40278
c62: -56 x_13_ + 118 y_13_ + [ 1 x_13_ ^ 2 + 1 y_13_ ^ 2 ] <= 138113
c63: -56 x_14_ + 118 y_14_ + [ 1 x_14_ ^ 2 + 1 y_14_ ^ 2 ] <= 55140
c64: -56 x_15_ + 118 y_15_ + [ 1 x_15_ ^ 2 + 1 y_15_ ^ 2 ] <= 10331
c65: -56 x_16_ + 118 y_16_ + [ 1 x_16_ ^ 2 + 1 y_16_ ^ 2 ] <= 41353
c66: -56 x_17_ + 118 y_17_ + [ 1 x_17_ ^ 2 + 1 y_17_ ^ 2 ] <= 31850
c67: -56 x_18_ + 118 y_18_ + [ 1 x_18_ ^ 2 + 1 y_18_ ^ 2 ] <= 4472
c68: -56 x_19_ + 118 y_19_ + [ 1 x_19_ ^ 2 + 1 y_19_ ^ 2 ] <= 55035
c69: -56 x_20_ + 118 y_20_ + [ 1 x_20_ ^ 2 + 1 y_20_ ^ 2 ] <= 1137
c70: -56 x_21_ + 118 y_21_ + [ 1 x_21_ ^ 2 + 1 y_21_ ^ 2 ] <= -3925
c71: -56 x_22_ + 118 y_22_ + [ 1 x_22_ ^ 2 + 1 y_22_ ^ 2 ] <= 23381
c72: -56 x_23_ + 118 y_23_ + [ 1 x_23_ ^ 2 + 1 y_23_ ^ 2 ] <= 76545
c73: -56 x_24_ + 118 y_24_ + [ 1 x_24_ ^ 2 + 1 y_24_ ^ 2 ] <= 70191
c74: -56 x_25_ + 118 y_25_ + [ 1 x_25_ ^ 2 + 1 y_25_ ^ 2 ] <= 42187
c75: -56 x_26_ + 118 y_26_ + [ 1 x_26_ ^ 2 + 1 y_26_ ^ 2 ] <= 24548
c1_2: 1 x_7_ = -3
c2_2: 1 y_7_ = -55
c3_2: 1 x_22_ = 14
c4_2: 1 y_22_ = -91
c5_2: 1 x_6_ = 28
c6_2: 1 y_6_ = -59
c7_2: 1 x_10_ - 1 x_13_ = 0
c8_2: 1 y_10_ - 1 y_13_ = 0
c1: [ 1 x_2_ ^ 2 - 2 x_3_ * x_2_ + 1 x_3_ ^ 2 + 1 y_2_ ^ 2 - 2 y_3_ * y_2_ + 1 y_3_ ^ 2 ] = 365
c2: [ 1 x_3_ ^ 2 - 2 x_6_ * x_3_ + 1 x_6_ ^ 2 + 1 y_3_ ^ 2 - 2 y_6_ * y_3_ + 1 y_6_ ^ 2 ] = 5220
c3: [ 1 x_1_ ^ 2 - 2 x_7_ * x_1_ + 1 x_7_ ^ 2 + 1 y_1_ ^ 2 - 2 y_7_ * y_1_ + 1 y_7_ ^ 2 ] = 15665
c4: [ 1 x_3_ ^ 2 - 2 x_7_ * x_3_ + 1 x_7_ ^ 2 + 1 y_3_ ^ 2 - 2 y_7_ * y_3_ + 1 y_7_ ^ 2 ] = 10613
c5: [ 1 x_6_ ^ 2 - 2 x_7_ * x_6_ + 1 x_7_ ^ 2 + 1 y_6_ ^ 2 - 2 y_7_ * y_6_ + 1 y_7_ ^ 2 ] = 977
c6: [ 1 x_1_ ^ 2 - 2 x_8_ * x_1_ + 1 x_8_ ^ 2 + 1 y_1_ ^ 2 - 2 y_8_ * y_1_ + 1 y_8_ ^ 2 ] = 22345
c7: [ 1 x_2_ ^ 2 - 2 x_8_ * x_2_ + 1 x_8_ ^ 2 + 1 y_2_ ^ 2 - 2 y_8_ * y_2_ + 1 y_8_ ^ 2 ] = 32162
c8: [ 1 x_3_ ^ 2 - 2 x_9_ * x_3_ + 1 x_9_ ^ 2 + 1 y_3_ ^ 2 - 2 y_9_ * y_3_ + 1 y_9_ ^ 2 ] = 596
c9: [ 1 x_2_ ^ 2 - 2 x_10_ * x_2_ + 1 x_10_ ^ 2 + 1 y_2_ ^ 2 - 2 y_10_ * y_2_ + 1 y_10_ ^ 2 ] = 19674
c10: [ 1 x_6_ ^ 2 - 2 x_10_ * x_6_ + 1 x_10_ ^ 2 + 1 y_6_ ^ 2 - 2 y_10_ * y_6_ + 1 y_10_ ^ 2 ] = 15149
c11: [ 1 x_9_ ^ 2 - 2 x_10_ * x_9_ + 1 x_10_ ^ 2 + 1 y_9_ ^ 2 - 2 y_10_ * y_9_ + 1 y_10_ ^ 2 ] = 17113
c12: [ 1 x_5_ ^ 2 - 2 x_11_ * x_5_ + 1 x_11_ ^ 2 + 1 y_5_ ^ 2 - 2 y_11_ * y_5_ + 1 y_11_ ^ 2 ] = 37193
c13: [ 1 x_4_ ^ 2 - 2 x_12_ * x_4_ + 1 x_12_ ^ 2 + 1 y_4_ ^ 2 - 2 y_12_ * y_4_ + 1 y_12_ ^ 2 ] = 14561
c14: [ 1 x_9_ ^ 2 - 2 x_12_ * x_9_ + 1 x_12_ ^ 2 + 1 y_9_ ^ 2 - 2 y_12_ * y_9_ + 1 y_12_ ^ 2 ] = 13085
c15: [ 1 x_2_ ^ 2 - 2 x_14_ * x_2_ + 1 x_14_ ^ 2 + 1 y_2_ ^ 2 - 2 y_14_ * y_2_ + 1 y_14_ ^ 2 ] = 26945
c16: [ 1 x_11_ ^ 2 - 2 x_14_ * x_11_ + 1 x_14_ ^ 2 + 1 y_11_ ^ 2 - 2 y_14_ * y_11_ + 1 y_14_ ^ 2 ] = 8164
c17: [ 1 x_13_ ^ 2 - 2 x_14_ * x_13_ + 1 x_14_ ^ 2 + 1 y_13_ ^ 2 - 2 y_14_ * y_13_ + 1 y_14_ ^ 2 ] = 17849
c18: [ 1 x_2_ ^ 2 - 2 x_15_ * x_2_ + 1 x_15_ ^ 2 + 1 y_2_ ^ 2 - 2 y_15_ * y_2_ + 1 y_15_ ^ 2 ] = 1700
c19: [ 1 x_4_ ^ 2 - 2 x_15_ * x_4_ + 1 x_15_ ^ 2 + 1 y_4_ ^ 2 - 2 y_15_ * y_4_ + 1 y_15_ ^ 2 ] = 4369
c20: [ 1 x_2_ ^ 2 - 2 x_16_ * x_2_ + 1 x_16_ ^ 2 + 1 y_2_ ^ 2 - 2 y_16_ * y_2_ + 1 y_16_ ^ 2 ] = 17957
c21: [ 1 x_4_ ^ 2 - 2 x_16_ * x_4_ + 1 x_16_ ^ 2 + 1 y_4_ ^ 2 - 2 y_16_ * y_4_ + 1 y_16_ ^ 2 ] = 2290
c22: [ 1 x_9_ ^ 2 - 2 x_16_ * x_9_ + 1 x_16_ ^ 2 + 1 y_9_ ^ 2 - 2 y_16_ * y_9_ + 1 y_16_ ^ 2 ] = 14884
c23: [ 1 x_8_ ^ 2 - 2 x_17_ * x_8_ + 1 x_17_ ^ 2 + 1 y_8_ ^ 2 - 2 y_17_ * y_8_ + 1 y_17_ ^ 2 ] = 19658
c24: [ 1 x_11_ ^ 2 - 2 x_17_ * x_11_ + 1 x_17_ ^ 2 + 1 y_11_ ^ 2 - 2 y_17_ * y_11_ + 1 y_17_ ^ 2 ] = 32617
c25: [ 1 x_2_ ^ 2 - 2 x_18_ * x_2_ + 1 x_18_ ^ 2 + 1 y_2_ ^ 2 - 2 y_18_ * y_2_ + 1 y_18_ ^ 2 ] = 193
c26: [ 1 x_4_ ^ 2 - 2 x_18_ * x_4_ + 1 x_18_ ^ 2 + 1 y_4_ ^ 2 - 2 y_18_ * y_4_ + 1 y_18_ ^ 2 ] = 8080
c27: [ 1 x_5_ ^ 2 - 2 x_19_ * x_5_ + 1 x_19_ ^ 2 + 1 y_5_ ^ 2 - 2 y_19_ * y_5_ + 1 y_19_ ^ 2 ] = 22321
c28: [ 1 x_9_ ^ 2 - 2 x_19_ * x_9_ + 1 x_19_ ^ 2 + 1 y_9_ ^ 2 - 2 y_19_ * y_9_ + 1 y_19_ ^ 2 ] = 24400
c29: [ 1 x_13_ ^ 2 - 2 x_19_ * x_13_ + 1 x_19_ ^ 2 + 1 y_13_ ^ 2 - 2 y_19_ * y_13_ + 1 y_19_ ^ 2 ] = 29005
c30: [ 1 x_2_ ^ 2 - 2 x_20_ * x_2_ + 1 x_20_ ^ 2 + 1 y_2_ ^ 2 - 2 y_20_ * y_2_ + 1 y_20_ ^ 2 ] = 37
c31: [ 1 x_5_ ^ 2 - 2 x_20_ * x_5_ + 1 x_20_ ^ 2 + 1 y_5_ ^ 2 - 2 y_20_ * y_5_ + 1 y_20_ ^ 2 ] = 425
c32: [ 1 x_6_ ^ 2 - 2 x_20_ * x_6_ + 1 x_20_ ^ 2 + 1 y_6_ ^ 2 - 2 y_20_ * y_6_ + 1 y_20_ ^ 2 ] = 5402
c33: [ 1 x_1_ ^ 2 - 2 x_21_ * x_1_ + 1 x_21_ ^ 2 + 1 y_1_ ^ 2 - 2 y_21_ * y_1_ + 1 y_21_ ^ 2 ] = 10816
c34: [ 1 x_6_ ^ 2 - 2 x_21_ * x_6_ + 1 x_21_ ^ 2 + 1 y_6_ ^ 2 - 2 y_21_ * y_6_ + 1 y_21_ ^ 2 ] = 340
c35: [ 1 x_11_ ^ 2 - 2 x_21_ * x_11_ + 1 x_21_ ^ 2 + 1 y_11_ ^ 2 - 2 y_21_ * y_11_ + 1 y_21_ ^ 2 ] = 36490
c36: [ 1 x_3_ ^ 2 - 2 x_22_ * x_3_ + 1 x_22_ ^ 2 + 1 y_3_ ^ 2 - 2 y_22_ * y_3_ + 1 y_22_ ^ 2 ] = 8840
c37: [ 1 x_5_ ^ 2 - 2 x_22_ * x_5_ + 1 x_22_ ^ 2 + 1 y_5_ ^ 2 - 2 y_22_ * y_5_ + 1 y_22_ ^ 2 ] = 9673
c38: [ 1 x_17_ ^ 2 - 2 x_22_ * x_17_ + 1 x_22_ ^ 2 + 1 y_17_ ^ 2 - 2 y_22_ * y_17_ + 1 y_22_ ^ 2 ] = 565
c39: [ 1 x_5_ ^ 2 - 2 x_23_ * x_5_ + 1 x_23_ ^ 2 + 1 y_5_ ^ 2 - 2 y_23_ * y_5_ + 1 y_23_ ^ 2 ] = 36160
c40: [ 1 x_11_ ^ 2 - 2 x_23_ * x_11_ + 1 x_23_ ^ 2 + 1 y_11_ ^ 2 - 2 y_23_ * y_11_ + 1 y_23_ ^ 2 ] = 26329
c41: [ 1 x_15_ ^ 2 - 2 x_23_ * x_15_ + 1 x_23_ ^ 2 + 1 y_15_ ^ 2 - 2 y_23_ * y_15_ + 1 y_23_ ^ 2 ] = 28936
c42: [ 1 x_8_ ^ 2 - 2 x_24_ * x_8_ + 1 x_24_ ^ 2 + 1 y_8_ ^ 2 - 2 y_24_ * y_8_ + 1 y_24_ ^ 2 ] = 22901
c43: [ 1 x_12_ ^ 2 - 2 x_24_ * x_12_ + 1 x_24_ ^ 2 + 1 y_12_ ^ 2 - 2 y_24_ * y_12_ + 1 y_24_ ^ 2 ] = 3821
c44: [ 1 x_13_ ^ 2 - 2 x_24_ * x_13_ + 1 x_24_ ^ 2 + 1 y_13_ ^ 2 - 2 y_24_ * y_13_ + 1 y_24_ ^ 2 ] = 16921
c45: [ 1 x_1_ ^ 2 - 2 x_25_ * x_1_ + 1 x_25_ ^ 2 + 1 y_1_ ^ 2 - 2 y_25_ * y_1_ + 1 y_25_ ^ 2 ] = 16850
c46: [ 1 x_5_ ^ 2 - 2 x_25_ * x_5_ + 1 x_25_ ^ 2 + 1 y_5_ ^ 2 - 2 y_25_ * y_5_ + 1 y_25_ ^ 2 ] = 14741
c47: [ 1 x_14_ ^ 2 - 2 x_25_ * x_14_ + 1 x_25_ ^ 2 + 1 y_14_ ^ 2 - 2 y_25_ * y_14_ + 1 y_25_ ^ 2 ] = 928
c48: [ 1 x_3_ ^ 2 - 2 x_26_ * x_3_ + 1 x_26_ ^ 2 + 1 y_3_ ^ 2 - 2 y_26_ * y_3_ + 1 y_26_ ^ 2 ] = 9505
c49: [ 1 x_11_ ^ 2 - 2 x_26_ * x_11_ + 1 x_26_ ^ 2 + 1 y_11_ ^ 2 - 2 y_26_ * y_11_ + 1 y_26_ ^ 2 ] = 41281
c50: [ 1 x_18_ ^ 2 - 2 x_26_ * x_18_ + 1 x_26_ ^ 2 + 1 y_18_ ^ 2 - 2 y_26_ * y_18_ + 1 y_26_ ^ 2 ] = 11709
Bounds
-94 <= x_1_ <= 122
-51 <= x_2_ <= 107
-44 <= x_3_ <= 100
-155 <= x_4_ <= 211
-66 <= x_5_ <= 112
x_6_ = 28
x_7_ = -3
-149 <= x_8_ <= 177
-68 <= x_9_ <= 124
-95 <= x_10_ <= 151
-181 <= x_11_ <= 218
-183 <= x_12_ <= 238
-349 <= x_13_ <= 397
-215 <= x_14_ <= 264
-92 <= x_15_ <= 148
-185 <= x_16_ <= 241
-9 <= x_17_ <= 37
-65 <= x_18_ <= 121
-215 <= x_19_ <= 261
-45 <= x_20_ <= 101
10 <= x_21_ <= 46
x_22_ = 14
-256 <= x_23_ <= 302
-244 <= x_24_ <= 300
-187 <= x_25_ <= 233
-141 <= x_26_ <= 197
-180 <= y_1_ <= 63
-138 <= y_2_ <= 20
-131 <= y_3_ <= 3
-242 <= y_4_ <= 124
-153 <= y_5_ <= 7
y_6_ = -59
y_7_ = -55
-254 <= y_8_ <= 72
-155 <= y_9_ <= 27
-182 <= y_10_ <= 64
-268 <= y_11_ <= 113
-270 <= y_12_ <= 141
-436 <= y_13_ <= 292
-302 <= y_14_ <= 159
-179 <= y_15_ <= 61
-272 <= y_16_ <= 149
-114 <= y_17_ <= -68
-152 <= y_18_ <= 34
-302 <= y_19_ <= 156
-132 <= y_20_ <= 14
-77 <= y_21_ <= -41
y_22_ = -91
-343 <= y_23_ <= 197
-331 <= y_24_ <= 203
-274 <= y_25_ <= 128
-228 <= y_26_ <= 100
General
x_1_
x_2_
x_3_
x_4_
x_5_
x_6_
x_7_
x_8_
x_9_
x_10_
x_11_
x_12_
x_13_
x_14_
x_15_
x_16_
x_17_
x_18_
x_19_
x_20_
x_21_
x_22_
x_23_
x_24_
x_25_
x_26_
y_1_
y_2_
y_3_
y_4_
y_5_
y_6_
y_7_
y_8_
y_9_
y_10_
y_11_
y_12_
y_13_
y_14_
y_15_
y_16_
y_17_
y_18_
y_19_
y_20_
y_21_
y_22_
y_23_
y_24_
y_25_
y_26_
End
