minimize
obj: 
subject to
c1: -90 x_1_ - 90 y_1_ + [ 1 x_1_ ^ 2 + 1 y_1_ ^ 2 ] <= 208492.89114582888
c2: -90 x_2_ - 90 y_2_ + [ 1 x_2_ ^ 2 + 1 y_2_ ^ 2 ] <= 127755.37883727663
c3: -90 x_3_ - 90 y_3_ + [ 1 x_3_ ^ 2 + 1 y_3_ ^ 2 ] <= 199700.24213492117
c4: -90 x_4_ - 90 y_4_ + [ 1 x_4_ ^ 2 + 1 y_4_ ^ 2 ] <= 138788.92557453908
c5: -90 x_5_ - 90 y_5_ + [ 1 x_5_ ^ 2 + 1 y_5_ ^ 2 ] <= 260039.39174986962
c6: -90 x_6_ - 90 y_6_ + [ 1 x_6_ ^ 2 + 1 y_6_ ^ 2 ] <= 172471.84685532752
c7: -90 x_7_ - 90 y_7_ + [ 1 x_7_ ^ 2 + 1 y_7_ ^ 2 ] <= 129798.06777559765
c8: -90 x_8_ - 90 y_8_ + [ 1 x_8_ ^ 2 + 1 y_8_ ^ 2 ] <= 48082.871394876674
c9: -90 x_9_ - 90 y_9_ + [ 1 x_9_ ^ 2 + 1 y_9_ ^ 2 ] <= -1252.300000000001
c10: -90 x_11_ - 90 y_11_ + [ 1 x_11_ ^ 2 + 1 y_11_ ^ 2 ] <= 7625.599999999997
c11: -90 x_12_ - 90 y_12_ + [ 1 x_12_ ^ 2 + 1 y_12_ ^ 2 ] <= 44532.64686594604
c12: -90 x_13_ - 90 y_13_ + [ 1 x_13_ ^ 2 + 1 y_13_ ^ 2 ] <= 80547.85461955471
c13: -90 x_14_ - 90 y_14_ + [ 1 x_14_ ^ 2 + 1 y_14_ ^ 2 ] <= 99651.98327174642
c14: -90 x_15_ - 90 y_15_ + [ 1 x_15_ ^ 2 + 1 y_15_ ^ 2 ] <= 147838.3721627877
c15: -90 x_16_ - 90 y_16_ + [ 1 x_16_ ^ 2 + 1 y_16_ ^ 2 ] <= 174507.41454282717
c16: -90 x_17_ - 90 y_17_ + [ 1 x_17_ ^ 2 + 1 y_17_ ^ 2 ] <= 133635.85631439698
c17: -90 x_18_ - 90 y_18_ + [ 1 x_18_ ^ 2 + 1 y_18_ ^ 2 ] <= 98863.29530108708
c18: -90 x_19_ - 90 y_19_ + [ 1 x_19_ ^ 2 + 1 y_19_ ^ 2 ] <= 49102.27266764009
c19: -90 x_20_ - 90 y_20_ + [ 1 x_20_ ^ 2 + 1 y_20_ ^ 2 ] <= 106948.7984028455
c20: -90 x_21_ - 90 y_21_ + [ 1 x_21_ ^ 2 + 1 y_21_ ^ 2 ] <= 66226.05812155006
c21: -90 x_22_ - 90 y_22_ + [ 1 x_22_ ^ 2 + 1 y_22_ ^ 2 ] <= 46320.91924765741
c22: -90 x_23_ - 90 y_23_ + [ 1 x_23_ ^ 2 + 1 y_23_ ^ 2 ] <= 94706.86130325675
c23: -90 x_24_ - 90 y_24_ + [ 1 x_24_ ^ 2 + 1 y_24_ ^ 2 ] <= 190461.7737208162
c24: -90 x_25_ - 90 y_25_ + [ 1 x_25_ ^ 2 + 1 y_25_ ^ 2 ] <= 243153.8456978874
c25: -90 x_26_ - 90 y_26_ + [ 1 x_26_ ^ 2 + 1 y_26_ ^ 2 ] <= 200869.71890821494
c26: -90 x_27_ - 90 y_27_ + [ 1 x_27_ ^ 2 + 1 y_27_ ^ 2 ] <= 153513.17002283622
c27: -90 x_28_ - 90 y_28_ + [ 1 x_28_ ^ 2 + 1 y_28_ ^ 2 ] <= 138170.11469117313
c28: 130 x_1_ - 50 y_1_ + [ 1 x_1_ ^ 2 + 1 y_1_ ^ 2 ] <= 53042.70381016258
c29: 130 x_2_ - 50 y_2_ + [ 1 x_2_ ^ 2 + 1 y_2_ ^ 2 ] <= 15494.85433894799
c30: 130 x_3_ - 50 y_3_ + [ 1 x_3_ ^ 2 + 1 y_3_ ^ 2 ] <= 48498.20554516125
c31: 130 x_4_ - 50 y_4_ + [ 1 x_4_ ^ 2 + 1 y_4_ ^ 2 ] <= 19964.33274305803
c32: 130 x_5_ - 50 y_5_ + [ 1 x_5_ ^ 2 + 1 y_5_ ^ 2 ] <= 81281.43156775112
c33: 130 x_6_ - 50 y_6_ + [ 1 x_6_ ^ 2 + 1 y_6_ ^ 2 ] <= 35042.19877412937
c34: 130 x_7_ - 50 y_7_ + [ 1 x_7_ ^ 2 + 1 y_7_ ^ 2 ] <= 16302.155490848494
c35: 130 x_8_ - 50 y_8_ + [ 1 x_8_ ^ 2 + 1 y_8_ ^ 2 ] <= 117549.1044751107
c36: 130 x_9_ - 50 y_9_ + [ 1 x_9_ ^ 2 + 1 y_9_ ^ 2 ] <= 69847.2652847129
c37: 130 x_10_ - 50 y_10_ + [ 1 x_10_ ^ 2 + 1 y_10_ ^ 2 ] <= 43732.64686594604
c38: 130 x_11_ - 50 y_11_ + [ 1 x_11_ ^ 2 + 1 y_11_ ^ 2 ] <= 7774.999999999998
c39: 130 x_13_ - 50 y_13_ + [ 1 x_13_ ^ 2 + 1 y_13_ ^ 2 ] <= 112.1299999999992
c40: 130 x_14_ - 50 y_14_ + [ 1 x_14_ ^ 2 + 1 y_14_ ^ 2 ] <= 5475.243937420382
c41: 130 x_15_ - 50 y_15_ + [ 1 x_15_ ^ 2 + 1 y_15_ ^ 2 ] <= 23817.187315606905
c42: 130 x_16_ - 50 y_16_ + [ 1 x_16_ ^ 2 + 1 y_16_ ^ 2 ] <= 36012.93650042049
c43: 130 x_17_ - 50 y_17_ + [ 1 x_17_ ^ 2 + 1 y_17_ ^ 2 ] <= 17844.13678074194
c44: 130 x_18_ - 50 y_18_ + [ 1 x_18_ ^ 2 + 1 y_18_ ^ 2 ] <= 5227.410376838985
c45: 130 x_19_ - 50 y_19_ + [ 1 x_19_ ^ 2 + 1 y_19_ ^ 2 ] <= -4747.32127875519
c46: 130 x_20_ - 50 y_20_ + [ 1 x_20_ ^ 2 + 1 y_20_ ^ 2 ] <= 7862.586413692132
c47: 130 x_21_ - 50 y_21_ + [ 1 x_21_ ^ 2 + 1 y_21_ ^ 2 ] <= -2853.554358281835
c48: 130 x_22_ - 50 y_22_ + [ 1 x_22_ ^ 2 + 1 y_22_ ^ 2 ] <= -4833.84
c49: 130 x_23_ - 50 y_23_ + [ 1 x_23_ ^ 2 + 1 y_23_ ^ 2 ] <= 3956.19494403902
c50: 130 x_24_ - 50 y_24_ + [ 1 x_24_ ^ 2 + 1 y_24_ ^ 2 ] <= 47854.30925980747
c51: 130 x_25_ - 50 y_25_ + [ 1 x_25_ ^ 2 + 1 y_25_ ^ 2 ] <= 71757.87007117987
c52: 130 x_26_ - 50 y_26_ + [ 1 x_26_ ^ 2 + 1 y_26_ ^ 2 ] <= 49097.43760062042
c53: 130 x_27_ - 50 y_27_ + [ 1 x_27_ ^ 2 + 1 y_27_ ^ 2 ] <= 26311.97936887337
c54: 130 x_28_ - 50 y_28_ + [ 1 x_28_ ^ 2 + 1 y_28_ ^ 2 ] <= 19706.80390069243
c55: 36 x_1_ + 182 y_1_ + [ 1 x_1_ ^ 2 + 1 y_1_ ^ 2 ] <= 80801.14816443679
c56: 36 x_2_ + 182 y_2_ + [ 1 x_2_ ^ 2 + 1 y_2_ ^ 2 ] <= 99677.86750888207
c57: 36 x_3_ + 182 y_3_ + [ 1 x_3_ ^ 2 + 1 y_3_ ^ 2 ] <= 35244.4318305608
c58: 36 x_4_ + 182 y_4_ + [ 1 x_4_ ^ 2 + 1 y_4_ ^ 2 ] <= 9879.009999999991
c59: 36 x_6_ + 182 y_6_ + [ 1 x_6_ ^ 2 + 1 y_6_ ^ 2 ] <= 16954.059999999998
c60: 36 x_7_ + 182 y_7_ + [ 1 x_7_ ^ 2 + 1 y_7_ ^ 2 ] <= 87688.31004022999
c61: 36 x_8_ + 182 y_8_ + [ 1 x_8_ ^ 2 + 1 y_8_ ^ 2 ] <= 117756.40359718242
c62: 36 x_9_ + 182 y_9_ + [ 1 x_9_ ^ 2 + 1 y_9_ ^ 2 ] <= 273256.6504446456
c63: 36 x_10_ + 182 y_10_ + [ 1 x_10_ ^ 2 + 1 y_10_ ^ 2 ] <= 255484.39174986962
c64: 36 x_11_ + 182 y_11_ + [ 1 x_11_ ^ 2 + 1 y_11_ ^ 2 ] <= 156103.21163600576
c65: 36 x_12_ + 182 y_12_ + [ 1 x_12_ ^ 2 + 1 y_12_ ^ 2 ] <= 77526.43156775115
c66: 36 x_13_ + 182 y_13_ + [ 1 x_13_ ^ 2 + 1 y_13_ ^ 2 ] <= 74810.13951412204
c67: 36 x_14_ + 182 y_14_ + [ 1 x_14_ ^ 2 + 1 y_14_ ^ 2 ] <= 57776.447203061034
c68: 36 x_15_ + 182 y_15_ + [ 1 x_15_ ^ 2 + 1 y_15_ ^ 2 ] <= 27474.219999999987
c69: 36 x_16_ + 182 y_16_ + [ 1 x_16_ ^ 2 + 1 y_16_ ^ 2 ] <= 59882.78049534878
c70: 36 x_17_ + 182 y_17_ + [ 1 x_17_ ^ 2 + 1 y_17_ ^ 2 ] <= 89490.36655136921
c71: 36 x_18_ + 182 y_18_ + [ 1 x_18_ ^ 2 + 1 y_18_ ^ 2 ] <= 123499.06238739181
c72: 36 x_19_ + 182 y_19_ + [ 1 x_19_ ^ 2 + 1 y_19_ ^ 2 ] <= 71681.38290709234
c73: 36 x_20_ + 182 y_20_ + [ 1 x_20_ ^ 2 + 1 y_20_ ^ 2 ] <= 24058.86183958918
c74: 36 x_21_ + 182 y_21_ + [ 1 x_21_ ^ 2 + 1 y_21_ ^ 2 ] <= 84633.57427788034
c75: 36 x_22_ + 182 y_22_ + [ 1 x_22_ ^ 2 + 1 y_22_ ^ 2 ] <= 75183.02895223541
c76: 36 x_23_ + 182 y_23_ + [ 1 x_23_ ^ 2 + 1 y_23_ ^ 2 ] <= 68955.9712717387
c77: 36 x_24_ + 182 y_24_ + [ 1 x_24_ ^ 2 + 1 y_24_ ^ 2 ] <= 11776.799999999992
c78: 36 x_25_ + 182 y_25_ + [ 1 x_25_ ^ 2 + 1 y_25_ ^ 2 ] <= 50229.20237735917
c79: 36 x_26_ + 182 y_26_ + [ 1 x_26_ ^ 2 + 1 y_26_ ^ 2 ] <= 54407.322060207836
c80: 36 x_27_ + 182 y_27_ + [ 1 x_27_ ^ 2 + 1 y_27_ ^ 2 ] <= 29530.932724668695
c81: 36 x_28_ + 182 y_28_ + [ 1 x_28_ ^ 2 + 1 y_28_ ^ 2 ] <= 37665.45733454149
quadratic_ranged_1_ub: [ 1 x_1_ ^ 2 - 2 x_2_ * x_1_ + 1 x_2_ ^ 2 + 1 y_1_ ^ 2 - 2 y_2_ * y_1_ + 1 y_2_ ^ 2 ] <= 13097.68
quadratic_ranged_2_ub: [ 1 x_2_ ^ 2 - 2 x_3_ * x_2_ + 1 x_3_ ^ 2 + 1 y_2_ ^ 2 - 2 y_3_ * y_2_ + 1 y_3_ ^ 2 ] <= 14318.77
quadratic_ranged_3_ub: [ 1 x_3_ ^ 2 - 2 x_4_ * x_3_ + 1 x_4_ ^ 2 + 1 y_3_ ^ 2 - 2 y_4_ * y_3_ + 1 y_4_ ^ 2 ] <= 5394.41
quadratic_ranged_4_ub: [ 1 x_4_ ^ 2 - 2 x_5_ * x_4_ + 1 x_5_ ^ 2 + 1 y_4_ ^ 2 - 2 y_5_ * y_4_ + 1 y_5_ ^ 2 ] <= 18484.01
quadratic_ranged_5_ub: [ 1 x_5_ ^ 2 - 2 x_6_ * x_5_ + 1 x_6_ ^ 2 + 1 y_5_ ^ 2 - 2 y_6_ * y_5_ + 1 y_6_ ^ 2 ] <= 25559.06
quadratic_ranged_6_ub: [ 1 x_6_ ^ 2 - 2 x_7_ * x_6_ + 1 x_7_ ^ 2 + 1 y_6_ ^ 2 - 2 y_7_ * y_6_ + 1 y_7_ ^ 2 ] <= 22632.08
quadratic_ranged_7_ub: [ 1 x_7_ ^ 2 - 2 x_8_ * x_7_ + 1 x_8_ ^ 2 + 1 y_7_ ^ 2 - 2 y_8_ * y_7_ + 1 y_8_ ^ 2 ] <= 41786.73
quadratic_ranged_8_ub: [ 1 x_8_ ^ 2 - 2 x_9_ * x_8_ + 1 x_9_ ^ 2 + 1 y_8_ ^ 2 - 2 y_9_ * y_8_ + 1 y_9_ ^ 2 ] <= 30776.72
quadratic_ranged_9_ub: [ 1 x_9_ ^ 2 - 2 x_10_ * x_9_ + 1 x_10_ ^ 2 + 1 y_9_ ^ 2 - 2 y_10_ * y_9_ + 1 y_10_ ^ 2 ] <= 2797.7
quadratic_ranged_10_ub: [ 1 x_10_ ^ 2 - 2 x_11_ * x_10_ + 1 x_11_ ^ 2 + 1 y_10_ ^ 2 - 2 y_11_ * y_10_ + 1 y_11_ ^ 2 ] <= 11675.6
quadratic_ranged_11_ub: [ 1 x_11_ ^ 2 - 2 x_12_ * x_11_ + 1 x_12_ ^ 2 + 1 y_11_ ^ 2 - 2 y_12_ * y_11_ + 1 y_12_ ^ 2 ] <= 12625
quadratic_ranged_12_ub: [ 1 x_12_ ^ 2 - 2 x_13_ * x_12_ + 1 x_13_ ^ 2 + 1 y_12_ ^ 2 - 2 y_13_ * y_12_ + 1 y_13_ ^ 2 ] <= 4962.13
quadratic_ranged_13_ub: [ 1 x_13_ ^ 2 - 2 x_14_ * x_13_ + 1 x_14_ ^ 2 + 1 y_13_ ^ 2 - 2 y_14_ * y_13_ + 1 y_14_ ^ 2 ] <= 971.62
quadratic_ranged_14_ub: [ 1 x_5_ ^ 2 - 2 x_15_ * x_5_ + 1 x_15_ ^ 2 + 1 y_5_ ^ 2 - 2 y_15_ * y_5_ + 1 y_15_ ^ 2 ] <= 36079.22
quadratic_ranged_15_ub: [ 1 x_6_ ^ 2 - 2 x_15_ * x_6_ + 1 x_15_ ^ 2 + 1 y_6_ ^ 2 - 2 y_15_ * y_6_ + 1 y_15_ ^ 2 ] <= 925.16
quadratic_ranged_16_ub: [ 1 x_14_ ^ 2 - 2 x_15_ * x_14_ + 1 x_15_ ^ 2 + 1 y_14_ ^ 2 - 2 y_15_ * y_14_ + 1 y_15_ ^ 2 ] <= 4583.38
quadratic_ranged_17_ub: [ 1 x_15_ ^ 2 - 2 x_16_ * x_15_ + 1 x_16_ ^ 2 + 1 y_15_ ^ 2 - 2 y_16_ * y_15_ + 1 y_16_ ^ 2 ] <= 5148.9800000000005
quadratic_ranged_18_ub: [ 1 x_7_ ^ 2 - 2 x_17_ * x_7_ + 1 x_17_ ^ 2 + 1 y_7_ ^ 2 - 2 y_17_ * y_7_ + 1 y_17_ ^ 2 ] <= 3894.56
quadratic_ranged_19_ub: [ 1 x_16_ ^ 2 - 2 x_17_ * x_16_ + 1 x_17_ ^ 2 + 1 y_16_ ^ 2 - 2 y_17_ * y_16_ + 1 y_17_ ^ 2 ] <= 2652.26
quadratic_ranged_20_ub: [ 1 x_2_ ^ 2 - 2 x_18_ * x_2_ + 1 x_18_ ^ 2 + 1 y_2_ ^ 2 - 2 y_18_ * y_2_ + 1 y_18_ ^ 2 ] <= 7686.1
quadratic_ranged_21_ub: [ 1 x_17_ ^ 2 - 2 x_18_ * x_17_ + 1 x_18_ ^ 2 + 1 y_17_ ^ 2 - 2 y_18_ * y_17_ + 1 y_18_ ^ 2 ] <= 2526.01
quadratic_ranged_22_ub: [ 1 x_18_ ^ 2 - 2 x_19_ * x_18_ + 1 x_19_ ^ 2 + 1 y_18_ ^ 2 - 2 y_19_ * y_18_ + 1 y_19_ ^ 2 ] <= 8145.65
quadratic_ranged_23_ub: [ 1 x_4_ ^ 2 - 2 x_20_ * x_4_ + 1 x_20_ ^ 2 + 1 y_4_ ^ 2 - 2 y_20_ * y_4_ + 1 y_20_ ^ 2 ] <= 2004.85
quadratic_ranged_24_ub: [ 1 x_19_ ^ 2 - 2 x_20_ * x_19_ + 1 x_20_ ^ 2 + 1 y_19_ ^ 2 - 2 y_20_ * y_19_ + 1 y_20_ ^ 2 ] <= 10530.26
quadratic_ranged_25_ub: [ 1 x_19_ ^ 2 - 2 x_21_ * x_19_ + 1 x_21_ ^ 2 + 1 y_19_ ^ 2 - 2 y_21_ * y_19_ + 1 y_21_ ^ 2 ] <= 1262.5
quadratic_ranged_26_ub: [ 1 x_20_ ^ 2 - 2 x_21_ * x_20_ + 1 x_21_ ^ 2 + 1 y_20_ ^ 2 - 2 y_21_ * y_20_ + 1 y_21_ ^ 2 ] <= 15529.76
quadratic_ranged_27_ub: [ 1 x_2_ ^ 2 - 2 x_22_ * x_2_ + 1 x_22_ ^ 2 + 1 y_2_ ^ 2 - 2 y_22_ * y_2_ + 1 y_22_ ^ 2 ] <= 19214.24
quadratic_ranged_28_ub: [ 1 x_7_ ^ 2 - 2 x_22_ * x_7_ + 1 x_22_ ^ 2 + 1 y_7_ ^ 2 - 2 y_22_ * y_7_ + 1 y_22_ ^ 2 ] <= 19999.01
quadratic_ranged_29_ub: [ 1 x_12_ ^ 2 - 2 x_22_ * x_12_ + 1 x_22_ ^ 2 + 1 y_12_ ^ 2 - 2 y_22_ * y_12_ + 1 y_22_ ^ 2 ] <= 16.16
quadratic_ranged_30_ub: [ 1 x_19_ ^ 2 - 2 x_22_ * x_19_ + 1 x_22_ ^ 2 + 1 y_19_ ^ 2 - 2 y_22_ * y_19_ + 1 y_22_ ^ 2 ] <= 37.37
quadratic_ranged_31_ub: [ 1 x_21_ ^ 2 - 2 x_22_ * x_21_ + 1 x_22_ ^ 2 + 1 y_21_ ^ 2 - 2 y_22_ * y_21_ + 1 y_22_ ^ 2 ] <= 1653.3700000000001
quadratic_ranged_32_ub: [ 1 x_22_ ^ 2 - 2 x_23_ * x_22_ + 1 x_23_ ^ 2 + 1 y_22_ ^ 2 - 2 y_23_ * y_22_ + 1 y_23_ ^ 2 ] <= 8067.88
quadratic_ranged_33_ub: [ 1 x_5_ ^ 2 - 2 x_24_ * x_5_ + 1 x_24_ ^ 2 + 1 y_5_ ^ 2 - 2 y_24_ * y_5_ + 1 y_24_ ^ 2 ] <= 20381.8
quadratic_ranged_34_ub: [ 1 x_8_ ^ 2 - 2 x_24_ * x_8_ + 1 x_24_ ^ 2 + 1 y_8_ ^ 2 - 2 y_24_ * y_8_ + 1 y_24_ ^ 2 ] <= 45244.97
quadratic_ranged_35_ub: [ 1 x_23_ ^ 2 - 2 x_24_ * x_23_ + 1 x_24_ ^ 2 + 1 y_23_ ^ 2 - 2 y_24_ * y_23_ + 1 y_24_ ^ 2 ] <= 18423.41
quadratic_ranged_36_ub: [ 1 x_1_ ^ 2 - 2 x_25_ * x_1_ + 1 x_25_ ^ 2 + 1 y_1_ ^ 2 - 2 y_25_ * y_1_ + 1 y_25_ ^ 2 ] <= 4307.65
quadratic_ranged_37_ub: [ 1 x_24_ ^ 2 - 2 x_25_ * x_24_ + 1 x_25_ ^ 2 + 1 y_24_ ^ 2 - 2 y_25_ * y_24_ + 1 y_25_ ^ 2 ] <= 9958.6
quadratic_ranged_38_ub: [ 1 x_25_ ^ 2 - 2 x_26_ * x_25_ + 1 x_26_ ^ 2 + 1 y_25_ ^ 2 - 2 y_26_ * y_25_ + 1 y_26_ ^ 2 ] <= 1981.6200000000001
quadratic_ranged_39_ub: [ 1 x_4_ ^ 2 - 2 x_27_ * x_4_ + 1 x_27_ ^ 2 + 1 y_4_ ^ 2 - 2 y_27_ * y_4_ + 1 y_27_ ^ 2 ] <= 3519.85
quadratic_ranged_40_ub: [ 1 x_15_ ^ 2 - 2 x_27_ * x_15_ + 1 x_27_ ^ 2 + 1 y_15_ ^ 2 - 2 y_27_ * y_15_ + 1 y_27_ ^ 2 ] <= 5340.88
quadratic_ranged_41_ub: [ 1 x_26_ ^ 2 - 2 x_27_ * x_26_ + 1 x_27_ ^ 2 + 1 y_26_ ^ 2 - 2 y_27_ * y_26_ + 1 y_27_ ^ 2 ] <= 3106.76
quadratic_ranged_42_ub: [ 1 x_1_ ^ 2 - 2 x_28_ * x_1_ + 1 x_28_ ^ 2 + 1 y_1_ ^ 2 - 2 y_28_ * y_1_ + 1 y_28_ ^ 2 ] <= 7039.7
quadratic_ranged_43_ub: [ 1 x_7_ ^ 2 - 2 x_28_ * x_7_ + 1 x_28_ ^ 2 + 1 y_7_ ^ 2 - 2 y_28_ * y_7_ + 1 y_28_ ^ 2 ] <= 13591.57
quadratic_ranged_44_ub: [ 1 x_15_ ^ 2 - 2 x_28_ * x_15_ + 1 x_28_ ^ 2 + 1 y_15_ ^ 2 - 2 y_28_ * y_15_ + 1 y_28_ ^ 2 ] <= 5786.29
quadratic_ranged_45_ub: [ 1 x_20_ ^ 2 - 2 x_28_ * x_20_ + 1 x_28_ ^ 2 + 1 y_20_ ^ 2 - 2 y_28_ * y_20_ + 1 y_28_ ^ 2 ] <= 1932.13
quadratic_ranged_46_ub: [ 1 x_27_ ^ 2 - 2 x_28_ * x_27_ + 1 x_28_ ^ 2 + 1 y_27_ ^ 2 - 2 y_28_ * y_27_ + 1 y_28_ ^ 2 ] <= 392.89
quadratic_ranged_1_lb: [ 1 x_1_ ^ 2 - 2 x_2_ * x_1_ + 1 x_2_ ^ 2 + 1 y_1_ ^ 2 - 2 y_2_ * y_1_ + 1 y_2_ ^ 2 ] >= 12838.32
quadratic_ranged_2_lb: [ 1 x_2_ ^ 2 - 2 x_3_ * x_2_ + 1 x_3_ ^ 2 + 1 y_2_ ^ 2 - 2 y_3_ * y_2_ + 1 y_3_ ^ 2 ] >= 14035.23
quadratic_ranged_3_lb: [ 1 x_3_ ^ 2 - 2 x_4_ * x_3_ + 1 x_4_ ^ 2 + 1 y_3_ ^ 2 - 2 y_4_ * y_3_ + 1 y_4_ ^ 2 ] >= 5287.59
quadratic_ranged_4_lb: [ 1 x_4_ ^ 2 - 2 x_5_ * x_4_ + 1 x_5_ ^ 2 + 1 y_4_ ^ 2 - 2 y_5_ * y_4_ + 1 y_5_ ^ 2 ] >= 18117.99
quadratic_ranged_5_lb: [ 1 x_5_ ^ 2 - 2 x_6_ * x_5_ + 1 x_6_ ^ 2 + 1 y_5_ ^ 2 - 2 y_6_ * y_5_ + 1 y_6_ ^ 2 ] >= 25052.94
quadratic_ranged_6_lb: [ 1 x_6_ ^ 2 - 2 x_7_ * x_6_ + 1 x_7_ ^ 2 + 1 y_6_ ^ 2 - 2 y_7_ * y_6_ + 1 y_7_ ^ 2 ] >= 22183.92
quadratic_ranged_7_lb: [ 1 x_7_ ^ 2 - 2 x_8_ * x_7_ + 1 x_8_ ^ 2 + 1 y_7_ ^ 2 - 2 y_8_ * y_7_ + 1 y_8_ ^ 2 ] >= 40959.27
quadratic_ranged_8_lb: [ 1 x_8_ ^ 2 - 2 x_9_ * x_8_ + 1 x_9_ ^ 2 + 1 y_8_ ^ 2 - 2 y_9_ * y_8_ + 1 y_9_ ^ 2 ] >= 30167.28
quadratic_ranged_9_lb: [ 1 x_9_ ^ 2 - 2 x_10_ * x_9_ + 1 x_10_ ^ 2 + 1 y_9_ ^ 2 - 2 y_10_ * y_9_ + 1 y_10_ ^ 2 ] >= 2742.3
quadratic_ranged_10_lb: [ 1 x_10_ ^ 2 - 2 x_11_ * x_10_ + 1 x_11_ ^ 2 + 1 y_10_ ^ 2 - 2 y_11_ * y_10_ + 1 y_11_ ^ 2 ] >= 11444.4
quadratic_ranged_11_lb: [ 1 x_11_ ^ 2 - 2 x_12_ * x_11_ + 1 x_12_ ^ 2 + 1 y_11_ ^ 2 - 2 y_12_ * y_11_ + 1 y_12_ ^ 2 ] >= 12375
quadratic_ranged_12_lb: [ 1 x_12_ ^ 2 - 2 x_13_ * x_12_ + 1 x_13_ ^ 2 + 1 y_12_ ^ 2 - 2 y_13_ * y_12_ + 1 y_13_ ^ 2 ] >= 4863.87
quadratic_ranged_13_lb: [ 1 x_13_ ^ 2 - 2 x_14_ * x_13_ + 1 x_14_ ^ 2 + 1 y_13_ ^ 2 - 2 y_14_ * y_13_ + 1 y_14_ ^ 2 ] >= 952.38
quadratic_ranged_14_lb: [ 1 x_5_ ^ 2 - 2 x_15_ * x_5_ + 1 x_15_ ^ 2 + 1 y_5_ ^ 2 - 2 y_15_ * y_5_ + 1 y_15_ ^ 2 ] >= 35364.78
quadratic_ranged_15_lb: [ 1 x_6_ ^ 2 - 2 x_15_ * x_6_ + 1 x_15_ ^ 2 + 1 y_6_ ^ 2 - 2 y_15_ * y_6_ + 1 y_15_ ^ 2 ] >= 906.84
quadratic_ranged_16_lb: [ 1 x_14_ ^ 2 - 2 x_15_ * x_14_ + 1 x_15_ ^ 2 + 1 y_14_ ^ 2 - 2 y_15_ * y_14_ + 1 y_15_ ^ 2 ] >= 4492.62
quadratic_ranged_17_lb: [ 1 x_15_ ^ 2 - 2 x_16_ * x_15_ + 1 x_16_ ^ 2 + 1 y_15_ ^ 2 - 2 y_16_ * y_15_ + 1 y_16_ ^ 2 ] >= 5047.0199999999995
quadratic_ranged_18_lb: [ 1 x_7_ ^ 2 - 2 x_17_ * x_7_ + 1 x_17_ ^ 2 + 1 y_7_ ^ 2 - 2 y_17_ * y_7_ + 1 y_17_ ^ 2 ] >= 3817.44
quadratic_ranged_19_lb: [ 1 x_16_ ^ 2 - 2 x_17_ * x_16_ + 1 x_17_ ^ 2 + 1 y_16_ ^ 2 - 2 y_17_ * y_16_ + 1 y_17_ ^ 2 ] >= 2599.74
quadratic_ranged_20_lb: [ 1 x_2_ ^ 2 - 2 x_18_ * x_2_ + 1 x_18_ ^ 2 + 1 y_2_ ^ 2 - 2 y_18_ * y_2_ + 1 y_18_ ^ 2 ] >= 7533.9
quadratic_ranged_21_lb: [ 1 x_17_ ^ 2 - 2 x_18_ * x_17_ + 1 x_18_ ^ 2 + 1 y_17_ ^ 2 - 2 y_18_ * y_17_ + 1 y_18_ ^ 2 ] >= 2475.99
quadratic_ranged_22_lb: [ 1 x_18_ ^ 2 - 2 x_19_ * x_18_ + 1 x_19_ ^ 2 + 1 y_18_ ^ 2 - 2 y_19_ * y_18_ + 1 y_19_ ^ 2 ] >= 7984.35
quadratic_ranged_23_lb: [ 1 x_4_ ^ 2 - 2 x_20_ * x_4_ + 1 x_20_ ^ 2 + 1 y_4_ ^ 2 - 2 y_20_ * y_4_ + 1 y_20_ ^ 2 ] >= 1965.15
quadratic_ranged_24_lb: [ 1 x_19_ ^ 2 - 2 x_20_ * x_19_ + 1 x_20_ ^ 2 + 1 y_19_ ^ 2 - 2 y_20_ * y_19_ + 1 y_20_ ^ 2 ] >= 10321.74
quadratic_ranged_25_lb: [ 1 x_19_ ^ 2 - 2 x_21_ * x_19_ + 1 x_21_ ^ 2 + 1 y_19_ ^ 2 - 2 y_21_ * y_19_ + 1 y_21_ ^ 2 ] >= 1237.5
quadratic_ranged_26_lb: [ 1 x_20_ ^ 2 - 2 x_21_ * x_20_ + 1 x_21_ ^ 2 + 1 y_20_ ^ 2 - 2 y_21_ * y_20_ + 1 y_21_ ^ 2 ] >= 15222.24
quadratic_ranged_27_lb: [ 1 x_2_ ^ 2 - 2 x_22_ * x_2_ + 1 x_22_ ^ 2 + 1 y_2_ ^ 2 - 2 y_22_ * y_2_ + 1 y_22_ ^ 2 ] >= 18833.76
quadratic_ranged_28_lb: [ 1 x_7_ ^ 2 - 2 x_22_ * x_7_ + 1 x_22_ ^ 2 + 1 y_7_ ^ 2 - 2 y_22_ * y_7_ + 1 y_22_ ^ 2 ] >= 19602.99
quadratic_ranged_29_lb: [ 1 x_12_ ^ 2 - 2 x_22_ * x_12_ + 1 x_22_ ^ 2 + 1 y_12_ ^ 2 - 2 y_22_ * y_12_ + 1 y_22_ ^ 2 ] >= 15.84
quadratic_ranged_30_lb: [ 1 x_19_ ^ 2 - 2 x_22_ * x_19_ + 1 x_22_ ^ 2 + 1 y_19_ ^ 2 - 2 y_22_ * y_19_ + 1 y_22_ ^ 2 ] >= 36.63
quadratic_ranged_31_lb: [ 1 x_21_ ^ 2 - 2 x_22_ * x_21_ + 1 x_22_ ^ 2 + 1 y_21_ ^ 2 - 2 y_22_ * y_21_ + 1 y_22_ ^ 2 ] >= 1620.6299999999999
quadratic_ranged_32_lb: [ 1 x_22_ ^ 2 - 2 x_23_ * x_22_ + 1 x_23_ ^ 2 + 1 y_22_ ^ 2 - 2 y_23_ * y_22_ + 1 y_23_ ^ 2 ] >= 7908.12
quadratic_ranged_33_lb: [ 1 x_5_ ^ 2 - 2 x_24_ * x_5_ + 1 x_24_ ^ 2 + 1 y_5_ ^ 2 - 2 y_24_ * y_5_ + 1 y_24_ ^ 2 ] >= 19978.2
quadratic_ranged_34_lb: [ 1 x_8_ ^ 2 - 2 x_24_ * x_8_ + 1 x_24_ ^ 2 + 1 y_8_ ^ 2 - 2 y_24_ * y_8_ + 1 y_24_ ^ 2 ] >= 44349.03
quadratic_ranged_35_lb: [ 1 x_23_ ^ 2 - 2 x_24_ * x_23_ + 1 x_24_ ^ 2 + 1 y_23_ ^ 2 - 2 y_24_ * y_23_ + 1 y_24_ ^ 2 ] >= 18058.59
quadratic_ranged_36_lb: [ 1 x_1_ ^ 2 - 2 x_25_ * x_1_ + 1 x_25_ ^ 2 + 1 y_1_ ^ 2 - 2 y_25_ * y_1_ + 1 y_25_ ^ 2 ] >= 4222.35
quadratic_ranged_37_lb: [ 1 x_24_ ^ 2 - 2 x_25_ * x_24_ + 1 x_25_ ^ 2 + 1 y_24_ ^ 2 - 2 y_25_ * y_24_ + 1 y_25_ ^ 2 ] >= 9761.4
quadratic_ranged_38_lb: [ 1 x_25_ ^ 2 - 2 x_26_ * x_25_ + 1 x_26_ ^ 2 + 1 y_25_ ^ 2 - 2 y_26_ * y_25_ + 1 y_26_ ^ 2 ] >= 1942.3799999999999
quadratic_ranged_39_lb: [ 1 x_4_ ^ 2 - 2 x_27_ * x_4_ + 1 x_27_ ^ 2 + 1 y_4_ ^ 2 - 2 y_27_ * y_4_ + 1 y_27_ ^ 2 ] >= 3450.15
quadratic_ranged_40_lb: [ 1 x_15_ ^ 2 - 2 x_27_ * x_15_ + 1 x_27_ ^ 2 + 1 y_15_ ^ 2 - 2 y_27_ * y_15_ + 1 y_27_ ^ 2 ] >= 5235.12
quadratic_ranged_41_lb: [ 1 x_26_ ^ 2 - 2 x_27_ * x_26_ + 1 x_27_ ^ 2 + 1 y_26_ ^ 2 - 2 y_27_ * y_26_ + 1 y_27_ ^ 2 ] >= 3045.24
quadratic_ranged_42_lb: [ 1 x_1_ ^ 2 - 2 x_28_ * x_1_ + 1 x_28_ ^ 2 + 1 y_1_ ^ 2 - 2 y_28_ * y_1_ + 1 y_28_ ^ 2 ] >= 6900.3
quadratic_ranged_43_lb: [ 1 x_7_ ^ 2 - 2 x_28_ * x_7_ + 1 x_28_ ^ 2 + 1 y_7_ ^ 2 - 2 y_28_ * y_7_ + 1 y_28_ ^ 2 ] >= 13322.43
quadratic_ranged_44_lb: [ 1 x_15_ ^ 2 - 2 x_28_ * x_15_ + 1 x_28_ ^ 2 + 1 y_15_ ^ 2 - 2 y_28_ * y_15_ + 1 y_28_ ^ 2 ] >= 5671.71
quadratic_ranged_45_lb: [ 1 x_20_ ^ 2 - 2 x_28_ * x_20_ + 1 x_28_ ^ 2 + 1 y_20_ ^ 2 - 2 y_28_ * y_20_ + 1 y_28_ ^ 2 ] >= 1893.87
quadratic_ranged_46_lb: [ 1 x_27_ ^ 2 - 2 x_28_ * x_27_ + 1 x_28_ ^ 2 + 1 y_27_ ^ 2 - 2 y_28_ * y_27_ + 1 y_28_ ^ 2 ] >= 385.11
c1_1: 1 x_10_ = 45
c2_1: 1 y_10_ = 45
c3_1: 1 x_12_ = -65
c4_1: 1 y_12_ = 25
c5_1: 1 x_5_ = -18
c6_1: 1 y_5_ = -91
Bounds
-305 <= x_1_ <= 175
-207 <= x_2_ <= 77
-227 <= x_3_ <= 165
-153 <= x_4_ <= 92
x_5_ = -18
-177 <= x_6_ <= 134
-210 <= x_7_ <= 80
-183 <= x_8_ <= 273
-7 <= x_9_ <= 97
x_10_ = 45
-63 <= x_11_ <= 47
x_12_ = -65
-135 <= x_13_ <= 5
-166 <= x_14_ <= 36
-207 <= x_15_ <= 104
-267 <= x_16_ <= 137
-215 <= x_17_ <= 85
-165 <= x_18_ <= 35
-75 <= x_19_ <= -55
-177 <= x_20_ <= 47
-109 <= x_21_ <= -21
-69 <= x_22_ <= -61
-158 <= x_23_ <= 28
-160 <= x_24_ <= 124
-260 <= x_25_ <= 211
-269 <= x_26_ <= 167
-213 <= x_27_ <= 111
-221 <= x_28_ <= 91
-215 <= y_1_ <= 208
-117 <= y_2_ <= 167
-205 <= y_3_ <= 118
-132 <= y_4_ <= 44
y_5_ = -91
-174 <= y_6_ <= 68
-120 <= y_7_ <= 170
-183 <= y_8_ <= 264
-7 <= y_9_ <= 97
y_10_ = 45
-63 <= y_11_ <= 137
y_12_ = 25
-45 <= y_13_ <= 95
-76 <= y_14_ <= 126
-144 <= y_15_ <= 98
-177 <= y_16_ <= 170
-125 <= y_17_ <= 175
-75 <= y_18_ <= 125
15 <= y_19_ <= 35
-87 <= y_20_ <= 89
-19 <= y_21_ <= 69
21 <= y_22_ <= 29
-68 <= y_23_ <= 118
-204 <= y_24_ <= 51
-251 <= y_25_ <= 151
-207 <= y_26_ <= 160
-151 <= y_27_ <= 104
-131 <= y_28_ <= 124
General
x_1_
x_2_
x_3_
x_4_
x_5_
x_6_
x_7_
x_8_
x_9_
x_10_
x_11_
x_12_
x_13_
x_14_
x_15_
x_16_
x_17_
x_18_
x_19_
x_20_
x_21_
x_22_
x_23_
x_24_
x_25_
x_26_
x_27_
x_28_
y_1_
y_2_
y_3_
y_4_
y_5_
y_6_
y_7_
y_8_
y_9_
y_10_
y_11_
y_12_
y_13_
y_14_
y_15_
y_16_
y_17_
y_18_
y_19_
y_20_
y_21_
y_22_
y_23_
y_24_
y_25_
y_26_
y_27_
y_28_
End
