minimize
obj: 
subject to
c1: -48 x_1_ + 192 y_1_ + [ 1 x_1_ ^ 2 + 1 y_1_ ^ 2 ] <= 24095.519999999997
c2: -48 x_3_ + 192 y_3_ + [ 1 x_3_ ^ 2 + 1 y_3_ ^ 2 ] <= 28960.689999999988
c3: -48 x_4_ + 192 y_4_ + [ 1 x_4_ ^ 2 + 1 y_4_ ^ 2 ] <= 50698.10106301881
c4: -48 x_5_ + 192 y_5_ + [ 1 x_5_ ^ 2 + 1 y_5_ ^ 2 ] <= 142461.86030154178
c5: -48 x_6_ + 192 y_6_ + [ 1 x_6_ ^ 2 + 1 y_6_ ^ 2 ] <= 230184.07844501984
c6: -48 x_7_ + 192 y_7_ + [ 1 x_7_ ^ 2 + 1 y_7_ ^ 2 ] <= 217603.1002275335
c7: -48 x_8_ + 192 y_8_ + [ 1 x_8_ ^ 2 + 1 y_8_ ^ 2 ] <= 158084.69100796533
c8: -48 x_9_ + 192 y_9_ + [ 1 x_9_ ^ 2 + 1 y_9_ ^ 2 ] <= 217630.44238336463
c9: -48 x_10_ + 192 y_10_ + [ 1 x_10_ ^ 2 + 1 y_10_ ^ 2 ] <= 145936.68028051208
c10: -48 x_11_ + 192 y_11_ + [ 1 x_11_ ^ 2 + 1 y_11_ ^ 2 ] <= 200032.86255066513
c11: -48 x_12_ + 192 y_12_ + [ 1 x_12_ ^ 2 + 1 y_12_ ^ 2 ] <= 276089.0619083853
c12: -48 x_13_ + 192 y_13_ + [ 1 x_13_ ^ 2 + 1 y_13_ ^ 2 ] <= 388018.04138042
c13: -48 x_14_ + 192 y_14_ + [ 1 x_14_ ^ 2 + 1 y_14_ ^ 2 ] <= 353612.0147738973
c14: -48 x_15_ + 192 y_15_ + [ 1 x_15_ ^ 2 + 1 y_15_ ^ 2 ] <= 387885.32529770175
c15: -48 x_16_ + 192 y_16_ + [ 1 x_16_ ^ 2 + 1 y_16_ ^ 2 ] <= 282642.9825649742
c16: -48 x_17_ + 192 y_17_ + [ 1 x_17_ ^ 2 + 1 y_17_ ^ 2 ] <= 116412.304269815
c17: -48 x_18_ + 192 y_18_ + [ 1 x_18_ ^ 2 + 1 y_18_ ^ 2 ] <= 180883.16242493183
c18: -48 x_19_ + 192 y_19_ + [ 1 x_19_ ^ 2 + 1 y_19_ ^ 2 ] <= 99429.23906014812
c19: -48 x_20_ + 192 y_20_ + [ 1 x_20_ ^ 2 + 1 y_20_ ^ 2 ] <= 106172.93283453664
c20: -48 x_21_ + 192 y_21_ + [ 1 x_21_ ^ 2 + 1 y_21_ ^ 2 ] <= 159034.78925525618
c21: -48 x_22_ + 192 y_22_ + [ 1 x_22_ ^ 2 + 1 y_22_ ^ 2 ] <= 102467.41171653595
c22: -48 x_23_ + 192 y_23_ + [ 1 x_23_ ^ 2 + 1 y_23_ ^ 2 ] <= 164342.87935789197
c23: -48 x_24_ + 192 y_24_ + [ 1 x_24_ ^ 2 + 1 y_24_ ^ 2 ] <= 189193.90938693762
c24: -48 x_25_ + 192 y_25_ + [ 1 x_25_ ^ 2 + 1 y_25_ ^ 2 ] <= 161303.85190093098
c25: -48 x_26_ + 192 y_26_ + [ 1 x_26_ ^ 2 + 1 y_26_ ^ 2 ] <= 197415.92481709464
c26: -48 x_27_ + 192 y_27_ + [ 1 x_27_ ^ 2 + 1 y_27_ ^ 2 ] <= 273797.5188526996
c27: -48 x_28_ + 192 y_28_ + [ 1 x_28_ ^ 2 + 1 y_28_ ^ 2 ] <= 135598.8174810571
c28: -166 x_1_ + 96 y_1_ + [ 1 x_1_ ^ 2 + 1 y_1_ ^ 2 ] <= 124412.28820609793
c29: -166 x_2_ + 96 y_2_ + [ 1 x_2_ ^ 2 + 1 y_2_ ^ 2 ] <= 189792.90938693762
c30: -166 x_3_ + 96 y_3_ + [ 1 x_3_ ^ 2 + 1 y_3_ ^ 2 ] <= 52918.275079584106
c31: -166 x_4_ + 96 y_4_ + [ 1 x_4_ ^ 2 + 1 y_4_ ^ 2 ] <= 30859.422210837896
c32: -166 x_5_ + 96 y_5_ + [ 1 x_5_ ^ 2 + 1 y_5_ ^ 2 ] <= -6070.295964866877
c33: -166 x_6_ + 96 y_6_ + [ 1 x_6_ ^ 2 + 1 y_6_ ^ 2 ] <= 15005.131483735546
c34: -166 x_7_ + 96 y_7_ + [ 1 x_7_ ^ 2 + 1 y_7_ ^ 2 ] <= 70399.87598699368
c35: -166 x_8_ + 96 y_8_ + [ 1 x_8_ ^ 2 + 1 y_8_ ^ 2 ] <= 138763.0296090227
c36: -166 x_9_ + 96 y_9_ + [ 1 x_9_ ^ 2 + 1 y_9_ ^ 2 ] <= 108452.30281247015
c37: -166 x_10_ + 96 y_10_ + [ 1 x_10_ ^ 2 + 1 y_10_ ^ 2 ] <= 57028.05848691521
c38: -166 x_11_ + 96 y_11_ + [ 1 x_11_ ^ 2 + 1 y_11_ ^ 2 ] <= 93704.39098012281
c39: -166 x_12_ + 96 y_12_ + [ 1 x_12_ ^ 2 + 1 y_12_ ^ 2 ] <= 178294.13208884577
c40: -166 x_13_ + 96 y_13_ + [ 1 x_13_ ^ 2 + 1 y_13_ ^ 2 ] <= 270691.6110527055
c41: -166 x_14_ + 96 y_14_ + [ 1 x_14_ ^ 2 + 1 y_14_ ^ 2 ] <= 207534.30333767424
c42: -166 x_15_ + 96 y_15_ + [ 1 x_15_ ^ 2 + 1 y_15_ ^ 2 ] <= 147559.23092776877
c43: -166 x_16_ + 96 y_16_ + [ 1 x_16_ ^ 2 + 1 y_16_ ^ 2 ] <= 62471.25844445724
c44: -166 x_17_ + 96 y_17_ + [ 1 x_17_ ^ 2 + 1 y_17_ ^ 2 ] <= 196481.14180362067
c45: -166 x_18_ + 96 y_18_ + [ 1 x_18_ ^ 2 + 1 y_18_ ^ 2 ] <= 137663.97808730698
c46: -166 x_19_ + 96 y_19_ + [ 1 x_19_ ^ 2 + 1 y_19_ ^ 2 ] <= 94151.82059410212
c47: -166 x_20_ + 96 y_20_ + [ 1 x_20_ ^ 2 + 1 y_20_ ^ 2 ] <= 100714.34576390665
c48: -166 x_21_ + 96 y_21_ + [ 1 x_21_ ^ 2 + 1 y_21_ ^ 2 ] <= 97774.98351599861
c49: -166 x_22_ + 96 y_22_ + [ 1 x_22_ ^ 2 + 1 y_22_ ^ 2 ] <= 36840.782343604835
c50: -166 x_23_ + 96 y_23_ + [ 1 x_23_ ^ 2 + 1 y_23_ ^ 2 ] <= 8313.329999999994
c51: -166 x_25_ + 96 y_25_ + [ 1 x_25_ ^ 2 + 1 y_25_ ^ 2 ] <= -8140.58
c52: -166 x_26_ + 96 y_26_ + [ 1 x_26_ ^ 2 + 1 y_26_ ^ 2 ] <= 23978.410253723683
c53: -166 x_27_ + 96 y_27_ + [ 1 x_27_ ^ 2 + 1 y_27_ ^ 2 ] <= 109620.23563239048
c54: -166 x_28_ + 96 y_28_ + [ 1 x_28_ ^ 2 + 1 y_28_ ^ 2 ] <= 236746.34169877652
c55: 38 x_1_ - 120 y_1_ + [ 1 x_1_ ^ 2 + 1 y_1_ ^ 2 ] <= 180967.3694768242
c56: 38 x_2_ - 120 y_2_ + [ 1 x_2_ ^ 2 + 1 y_2_ ^ 2 ] <= 56529.10106301881
c57: 38 x_3_ - 120 y_3_ + [ 1 x_3_ ^ 2 + 1 y_3_ ^ 2 ] <= -1551.1400000000003
c58: 38 x_5_ - 120 y_5_ + [ 1 x_5_ ^ 2 + 1 y_5_ ^ 2 ] <= 16847.019999999997
c59: 38 x_6_ - 120 y_6_ + [ 1 x_6_ ^ 2 + 1 y_6_ ^ 2 ] <= 55538.980734466415
c60: 38 x_7_ - 120 y_7_ + [ 1 x_7_ ^ 2 + 1 y_7_ ^ 2 ] <= 104341.14917952524
c61: 38 x_8_ - 120 y_8_ + [ 1 x_8_ ^ 2 + 1 y_8_ ^ 2 ] <= 64662.501095615036
c62: 38 x_9_ - 120 y_9_ + [ 1 x_9_ ^ 2 + 1 y_9_ ^ 2 ] <= 104360.01894931457
c63: 38 x_10_ - 120 y_10_ + [ 1 x_10_ ^ 2 + 1 y_10_ ^ 2 ] <= 56977.88651229763
c64: 38 x_11_ - 120 y_11_ + [ 1 x_11_ ^ 2 + 1 y_11_ ^ 2 ] <= 92324.92528505236
c65: 38 x_12_ - 120 y_12_ + [ 1 x_12_ ^ 2 + 1 y_12_ ^ 2 ] <= 145739.7111748659
c66: 38 x_13_ - 120 y_13_ + [ 1 x_13_ ^ 2 + 1 y_13_ ^ 2 ] <= 229284.6644529749
c67: 38 x_14_ - 120 y_14_ + [ 1 x_14_ ^ 2 + 1 y_14_ ^ 2 ] <= 203121.6074125617
c68: 38 x_15_ - 120 y_15_ + [ 1 x_15_ ^ 2 + 1 y_15_ ^ 2 ] <= 229183.04393852485
c69: 38 x_16_ - 120 y_16_ + [ 1 x_16_ ^ 2 + 1 y_16_ ^ 2 ] <= 158408.32675955346
c70: 38 x_17_ - 120 y_17_ + [ 1 x_17_ ^ 2 + 1 y_17_ ^ 2 ] <= 221007.38340141773
c71: 38 x_18_ - 120 y_18_ + [ 1 x_18_ ^ 2 + 1 y_18_ ^ 2 ] <= 79500.45786037295
c72: 38 x_19_ - 120 y_19_ + [ 1 x_19_ ^ 2 + 1 y_19_ ^ 2 ] <= 29425.475249918723
c73: 38 x_20_ - 120 y_20_ + [ 1 x_20_ ^ 2 + 1 y_20_ ^ 2 ] <= 33199.09502345466
c74: 38 x_21_ - 120 y_21_ + [ 1 x_21_ ^ 2 + 1 y_21_ ^ 2 ] <= 65270.43343820622
c75: 38 x_22_ - 120 y_22_ + [ 1 x_22_ ^ 2 + 1 y_22_ ^ 2 ] <= 137131.95623111867
c76: 38 x_23_ - 120 y_23_ + [ 1 x_23_ ^ 2 + 1 y_23_ ^ 2 ] <= 106557.01657590468
c77: 38 x_24_ - 120 y_24_ + [ 1 x_24_ ^ 2 + 1 y_24_ ^ 2 ] <= 36091.422210837896
c78: 38 x_25_ - 120 y_25_ + [ 1 x_25_ ^ 2 + 1 y_25_ ^ 2 ] <= 24158.932479441224
c79: 38 x_26_ - 120 y_26_ + [ 1 x_26_ ^ 2 + 1 y_26_ ^ 2 ] <= 96768.53575361804
c80: 38 x_27_ - 120 y_27_ + [ 1 x_27_ ^ 2 + 1 y_27_ ^ 2 ] <= 226383.2506840808
c81: 38 x_28_ - 120 y_28_ + [ 1 x_28_ ^ 2 + 1 y_28_ ^ 2 ] <= 162922.22031248978
quadratic_ranged_1_ub: [ 1 x_1_ ^ 2 - 2 x_2_ * x_1_ + 1 x_2_ ^ 2 + 1 y_1_ ^ 2 - 2 y_2_ * y_1_ + 1 y_2_ ^ 2 ] <= 33887.52
quadratic_ranged_2_ub: [ 1 x_2_ ^ 2 - 2 x_3_ * x_2_ + 1 x_3_ ^ 2 + 1 y_2_ ^ 2 - 2 y_3_ * y_2_ + 1 y_3_ ^ 2 ] <= 38752.69
quadratic_ranged_3_ub: [ 1 x_3_ ^ 2 - 2 x_4_ * x_3_ + 1 x_4_ ^ 2 + 1 y_3_ ^ 2 - 2 y_4_ * y_3_ + 1 y_4_ ^ 2 ] <= 2409.86
quadratic_ranged_4_ub: [ 1 x_4_ ^ 2 - 2 x_5_ * x_4_ + 1 x_5_ ^ 2 + 1 y_4_ ^ 2 - 2 y_5_ * y_4_ + 1 y_5_ ^ 2 ] <= 20808.02
quadratic_ranged_5_ub: [ 1 x_5_ ^ 2 - 2 x_6_ * x_5_ + 1 x_6_ ^ 2 + 1 y_5_ ^ 2 - 2 y_6_ * y_5_ + 1 y_6_ ^ 2 ] <= 9935.37
quadratic_ranged_6_ub: [ 1 x_6_ ^ 2 - 2 x_7_ * x_6_ + 1 x_7_ ^ 2 + 1 y_6_ ^ 2 - 2 y_7_ * y_6_ + 1 y_7_ ^ 2 ] <= 16018.6
quadratic_ranged_7_ub: [ 1 x_7_ ^ 2 - 2 x_8_ * x_7_ + 1 x_8_ ^ 2 + 1 y_7_ ^ 2 - 2 y_8_ * y_7_ + 1 y_8_ ^ 2 ] <= 10512.08
quadratic_ranged_8_ub: [ 1 x_7_ ^ 2 - 2 x_9_ * x_7_ + 1 x_9_ ^ 2 + 1 y_7_ ^ 2 - 2 y_9_ * y_7_ + 1 y_9_ ^ 2 ] <= 7640.65
quadratic_ranged_9_ub: [ 1 x_8_ ^ 2 - 2 x_9_ * x_8_ + 1 x_9_ ^ 2 + 1 y_8_ ^ 2 - 2 y_9_ * y_8_ + 1 y_9_ ^ 2 ] <= 15126.77
quadratic_ranged_10_ub: [ 1 x_9_ ^ 2 - 2 x_10_ * x_9_ + 1 x_10_ ^ 2 + 1 y_9_ ^ 2 - 2 y_10_ * y_9_ + 1 y_10_ ^ 2 ] <= 7337.65
quadratic_ranged_11_ub: [ 1 x_10_ ^ 2 - 2 x_11_ * x_10_ + 1 x_11_ ^ 2 + 1 y_10_ ^ 2 - 2 y_11_ * y_10_ + 1 y_11_ ^ 2 ] <= 4024.85
quadratic_ranged_12_ub: [ 1 x_11_ ^ 2 - 2 x_12_ * x_11_ + 1 x_12_ ^ 2 + 1 y_11_ ^ 2 - 2 y_12_ * y_11_ + 1 y_12_ ^ 2 ] <= 12593.69
quadratic_ranged_13_ub: [ 1 x_12_ ^ 2 - 2 x_13_ * x_12_ + 1 x_13_ ^ 2 + 1 y_12_ ^ 2 - 2 y_13_ * y_12_ + 1 y_13_ ^ 2 ] <= 9224.33
quadratic_ranged_14_ub: [ 1 x_11_ ^ 2 - 2 x_14_ * x_11_ + 1 x_14_ ^ 2 + 1 y_11_ ^ 2 - 2 y_14_ * y_11_ + 1 y_14_ ^ 2 ] <= 20956.49
quadratic_ranged_15_ub: [ 1 x_13_ ^ 2 - 2 x_14_ * x_13_ + 1 x_14_ ^ 2 + 1 y_13_ ^ 2 - 2 y_14_ * y_13_ + 1 y_14_ ^ 2 ] <= 13591.57
quadratic_ranged_16_ub: [ 1 x_12_ ^ 2 - 2 x_15_ * x_12_ + 1 x_15_ ^ 2 + 1 y_12_ ^ 2 - 2 y_15_ * y_12_ + 1 y_15_ ^ 2 ] <= 9204.13
quadratic_ranged_17_ub: [ 1 x_14_ ^ 2 - 2 x_15_ * x_14_ + 1 x_15_ ^ 2 + 1 y_14_ ^ 2 - 2 y_15_ * y_14_ + 1 y_15_ ^ 2 ] <= 16544.81
quadratic_ranged_18_ub: [ 1 x_15_ ^ 2 - 2 x_16_ * x_15_ + 1 x_16_ ^ 2 + 1 y_15_ ^ 2 - 2 y_16_ * y_15_ + 1 y_16_ ^ 2 ] <= 16439.77
quadratic_ranged_19_ub: [ 1 x_1_ ^ 2 - 2 x_17_ * x_1_ + 1 x_17_ ^ 2 + 1 y_1_ ^ 2 - 2 y_17_ * y_1_ + 1 y_17_ ^ 2 ] <= 29298.08
quadratic_ranged_20_ub: [ 1 x_9_ ^ 2 - 2 x_17_ * x_9_ + 1 x_17_ ^ 2 + 1 y_9_ ^ 2 - 2 y_17_ * y_9_ + 1 y_17_ ^ 2 ] <= 44897.53
quadratic_ranged_21_ub: [ 1 x_16_ ^ 2 - 2 x_17_ * x_16_ + 1 x_17_ ^ 2 + 1 y_16_ ^ 2 - 2 y_17_ * y_16_ + 1 y_17_ ^ 2 ] <= 34525.840000000004
quadratic_ranged_22_ub: [ 1 x_9_ ^ 2 - 2 x_18_ * x_9_ + 1 x_18_ ^ 2 + 1 y_9_ ^ 2 - 2 y_18_ * y_9_ + 1 y_18_ ^ 2 ] <= 1618.02
quadratic_ranged_23_ub: [ 1 x_17_ ^ 2 - 2 x_18_ * x_17_ + 1 x_18_ ^ 2 + 1 y_17_ ^ 2 - 2 y_18_ * y_17_ + 1 y_18_ ^ 2 ] <= 34377.37
quadratic_ranged_24_ub: [ 1 x_3_ ^ 2 - 2 x_19_ * x_3_ + 1 x_19_ ^ 2 + 1 y_3_ ^ 2 - 2 y_19_ * y_3_ + 1 y_19_ ^ 2 ] <= 17856.8
quadratic_ranged_25_ub: [ 1 x_7_ ^ 2 - 2 x_19_ * x_7_ + 1 x_19_ ^ 2 + 1 y_7_ ^ 2 - 2 y_19_ * y_7_ + 1 y_19_ ^ 2 ] <= 21425.13
quadratic_ranged_26_ub: [ 1 x_8_ ^ 2 - 2 x_19_ * x_8_ + 1 x_19_ ^ 2 + 1 y_8_ ^ 2 - 2 y_19_ * y_8_ + 1 y_19_ ^ 2 ] <= 6279.17
quadratic_ranged_27_ub: [ 1 x_10_ ^ 2 - 2 x_19_ * x_10_ + 1 x_19_ ^ 2 + 1 y_10_ ^ 2 - 2 y_19_ * y_10_ + 1 y_19_ ^ 2 ] <= 4113.7300000000005
quadratic_ranged_28_ub: [ 1 x_18_ ^ 2 - 2 x_19_ * x_18_ + 1 x_19_ ^ 2 + 1 y_18_ ^ 2 - 2 y_19_ * y_18_ + 1 y_19_ ^ 2 ] <= 11273.62
quadratic_ranged_29_ub: [ 1 x_19_ ^ 2 - 2 x_20_ * x_19_ + 1 x_20_ ^ 2 + 1 y_19_ ^ 2 - 2 y_20_ * y_19_ + 1 y_20_ ^ 2 ] <= 101
quadratic_ranged_30_ub: [ 1 x_12_ ^ 2 - 2 x_21_ * x_12_ + 1 x_21_ ^ 2 + 1 y_12_ ^ 2 - 2 y_21_ * y_12_ + 1 y_21_ ^ 2 ] <= 15324.73
quadratic_ranged_31_ub: [ 1 x_20_ ^ 2 - 2 x_21_ * x_20_ + 1 x_21_ ^ 2 + 1 y_20_ ^ 2 - 2 y_21_ * y_20_ + 1 y_21_ ^ 2 ] <= 4949
quadratic_ranged_32_ub: [ 1 x_1_ ^ 2 - 2 x_22_ * x_1_ + 1 x_22_ ^ 2 + 1 y_1_ ^ 2 - 2 y_22_ * y_1_ + 1 y_22_ ^ 2 ] <= 22790.65
quadratic_ranged_33_ub: [ 1 x_21_ ^ 2 - 2 x_22_ * x_21_ + 1 x_22_ ^ 2 + 1 y_21_ ^ 2 - 2 y_22_ * y_21_ + 1 y_22_ ^ 2 ] <= 12657.32
quadratic_ranged_34_ub: [ 1 x_10_ ^ 2 - 2 x_23_ * x_10_ + 1 x_23_ ^ 2 + 1 y_10_ ^ 2 - 2 y_23_ * y_10_ + 1 y_23_ ^ 2 ] <= 15630.76
quadratic_ranged_35_ub: [ 1 x_22_ ^ 2 - 2 x_23_ * x_22_ + 1 x_23_ ^ 2 + 1 y_22_ ^ 2 - 2 y_23_ * y_22_ + 1 y_23_ ^ 2 ] <= 6763.97
quadratic_ranged_36_ub: [ 1 x_23_ ^ 2 - 2 x_24_ * x_23_ + 1 x_24_ ^ 2 + 1 y_23_ ^ 2 - 2 y_24_ * y_23_ + 1 y_24_ ^ 2 ] <= 17506.33
quadratic_ranged_37_ub: [ 1 x_5_ ^ 2 - 2 x_25_ * x_5_ + 1 x_25_ ^ 2 + 1 y_5_ ^ 2 - 2 y_25_ * y_5_ + 1 y_25_ ^ 2 ] <= 549.44
quadratic_ranged_38_ub: [ 1 x_24_ ^ 2 - 2 x_25_ * x_24_ + 1 x_25_ ^ 2 + 1 y_24_ ^ 2 - 2 y_25_ * y_24_ + 1 y_25_ ^ 2 ] <= 1052.42
quadratic_ranged_39_ub: [ 1 x_16_ ^ 2 - 2 x_26_ * x_16_ + 1 x_26_ ^ 2 + 1 y_16_ ^ 2 - 2 y_26_ * y_16_ + 1 y_26_ ^ 2 ] <= 7322.5
quadratic_ranged_40_ub: [ 1 x_22_ ^ 2 - 2 x_26_ * x_22_ + 1 x_26_ ^ 2 + 1 y_22_ ^ 2 - 2 y_26_ * y_22_ + 1 y_26_ ^ 2 ] <= 14435.93
quadratic_ranged_41_ub: [ 1 x_25_ ^ 2 - 2 x_26_ * x_25_ + 1 x_26_ ^ 2 + 1 y_25_ ^ 2 - 2 y_26_ * y_25_ + 1 y_26_ ^ 2 ] <= 22406.85
quadratic_ranged_42_ub: [ 1 x_15_ ^ 2 - 2 x_27_ * x_15_ + 1 x_27_ ^ 2 + 1 y_15_ ^ 2 - 2 y_27_ * y_15_ + 1 y_27_ ^ 2 ] <= 15194.44
quadratic_ranged_43_ub: [ 1 x_26_ ^ 2 - 2 x_27_ * x_26_ + 1 x_27_ ^ 2 + 1 y_26_ ^ 2 - 2 y_27_ * y_26_ + 1 y_27_ ^ 2 ] <= 26426.65
quadratic_ranged_44_ub: [ 1 x_1_ ^ 2 - 2 x_28_ * x_1_ + 1 x_28_ ^ 2 + 1 y_1_ ^ 2 - 2 y_28_ * y_1_ + 1 y_28_ ^ 2 ] <= 38894.090000000004
quadratic_ranged_45_ub: [ 1 x_8_ ^ 2 - 2 x_28_ * x_8_ + 1 x_28_ ^ 2 + 1 y_8_ ^ 2 - 2 y_28_ * y_8_ + 1 y_28_ ^ 2 ] <= 21477.65
quadratic_ranged_46_ub: [ 1 x_27_ ^ 2 - 2 x_28_ * x_27_ + 1 x_28_ ^ 2 + 1 y_27_ ^ 2 - 2 y_28_ * y_27_ + 1 y_28_ ^ 2 ] <= 22870.44
quadratic_ranged_1_lb: [ 1 x_1_ ^ 2 - 2 x_2_ * x_1_ + 1 x_2_ ^ 2 + 1 y_1_ ^ 2 - 2 y_2_ * y_1_ + 1 y_2_ ^ 2 ] >= 33216.48
quadratic_ranged_2_lb: [ 1 x_2_ ^ 2 - 2 x_3_ * x_2_ + 1 x_3_ ^ 2 + 1 y_2_ ^ 2 - 2 y_3_ * y_2_ + 1 y_3_ ^ 2 ] >= 37985.31
quadratic_ranged_3_lb: [ 1 x_3_ ^ 2 - 2 x_4_ * x_3_ + 1 x_4_ ^ 2 + 1 y_3_ ^ 2 - 2 y_4_ * y_3_ + 1 y_4_ ^ 2 ] >= 2362.14
quadratic_ranged_4_lb: [ 1 x_4_ ^ 2 - 2 x_5_ * x_4_ + 1 x_5_ ^ 2 + 1 y_4_ ^ 2 - 2 y_5_ * y_4_ + 1 y_5_ ^ 2 ] >= 20395.98
quadratic_ranged_5_lb: [ 1 x_5_ ^ 2 - 2 x_6_ * x_5_ + 1 x_6_ ^ 2 + 1 y_5_ ^ 2 - 2 y_6_ * y_5_ + 1 y_6_ ^ 2 ] >= 9738.63
quadratic_ranged_6_lb: [ 1 x_6_ ^ 2 - 2 x_7_ * x_6_ + 1 x_7_ ^ 2 + 1 y_6_ ^ 2 - 2 y_7_ * y_6_ + 1 y_7_ ^ 2 ] >= 15701.4
quadratic_ranged_7_lb: [ 1 x_7_ ^ 2 - 2 x_8_ * x_7_ + 1 x_8_ ^ 2 + 1 y_7_ ^ 2 - 2 y_8_ * y_7_ + 1 y_8_ ^ 2 ] >= 10303.92
quadratic_ranged_8_lb: [ 1 x_7_ ^ 2 - 2 x_9_ * x_7_ + 1 x_9_ ^ 2 + 1 y_7_ ^ 2 - 2 y_9_ * y_7_ + 1 y_9_ ^ 2 ] >= 7489.35
quadratic_ranged_9_lb: [ 1 x_8_ ^ 2 - 2 x_9_ * x_8_ + 1 x_9_ ^ 2 + 1 y_8_ ^ 2 - 2 y_9_ * y_8_ + 1 y_9_ ^ 2 ] >= 14827.23
quadratic_ranged_10_lb: [ 1 x_9_ ^ 2 - 2 x_10_ * x_9_ + 1 x_10_ ^ 2 + 1 y_9_ ^ 2 - 2 y_10_ * y_9_ + 1 y_10_ ^ 2 ] >= 7192.35
quadratic_ranged_11_lb: [ 1 x_10_ ^ 2 - 2 x_11_ * x_10_ + 1 x_11_ ^ 2 + 1 y_10_ ^ 2 - 2 y_11_ * y_10_ + 1 y_11_ ^ 2 ] >= 3945.15
quadratic_ranged_12_lb: [ 1 x_11_ ^ 2 - 2 x_12_ * x_11_ + 1 x_12_ ^ 2 + 1 y_11_ ^ 2 - 2 y_12_ * y_11_ + 1 y_12_ ^ 2 ] >= 12344.31
quadratic_ranged_13_lb: [ 1 x_12_ ^ 2 - 2 x_13_ * x_12_ + 1 x_13_ ^ 2 + 1 y_12_ ^ 2 - 2 y_13_ * y_12_ + 1 y_13_ ^ 2 ] >= 9041.67
quadratic_ranged_14_lb: [ 1 x_11_ ^ 2 - 2 x_14_ * x_11_ + 1 x_14_ ^ 2 + 1 y_11_ ^ 2 - 2 y_14_ * y_11_ + 1 y_14_ ^ 2 ] >= 20541.51
quadratic_ranged_15_lb: [ 1 x_13_ ^ 2 - 2 x_14_ * x_13_ + 1 x_14_ ^ 2 + 1 y_13_ ^ 2 - 2 y_14_ * y_13_ + 1 y_14_ ^ 2 ] >= 13322.43
quadratic_ranged_16_lb: [ 1 x_12_ ^ 2 - 2 x_15_ * x_12_ + 1 x_15_ ^ 2 + 1 y_12_ ^ 2 - 2 y_15_ * y_12_ + 1 y_15_ ^ 2 ] >= 9021.87
quadratic_ranged_17_lb: [ 1 x_14_ ^ 2 - 2 x_15_ * x_14_ + 1 x_15_ ^ 2 + 1 y_14_ ^ 2 - 2 y_15_ * y_14_ + 1 y_15_ ^ 2 ] >= 16217.19
quadratic_ranged_18_lb: [ 1 x_15_ ^ 2 - 2 x_16_ * x_15_ + 1 x_16_ ^ 2 + 1 y_15_ ^ 2 - 2 y_16_ * y_15_ + 1 y_16_ ^ 2 ] >= 16114.23
quadratic_ranged_19_lb: [ 1 x_1_ ^ 2 - 2 x_17_ * x_1_ + 1 x_17_ ^ 2 + 1 y_1_ ^ 2 - 2 y_17_ * y_1_ + 1 y_17_ ^ 2 ] >= 28717.92
quadratic_ranged_20_lb: [ 1 x_9_ ^ 2 - 2 x_17_ * x_9_ + 1 x_17_ ^ 2 + 1 y_9_ ^ 2 - 2 y_17_ * y_9_ + 1 y_17_ ^ 2 ] >= 44008.47
quadratic_ranged_21_lb: [ 1 x_16_ ^ 2 - 2 x_17_ * x_16_ + 1 x_17_ ^ 2 + 1 y_16_ ^ 2 - 2 y_17_ * y_16_ + 1 y_17_ ^ 2 ] >= 33842.159999999996
quadratic_ranged_22_lb: [ 1 x_9_ ^ 2 - 2 x_18_ * x_9_ + 1 x_18_ ^ 2 + 1 y_9_ ^ 2 - 2 y_18_ * y_9_ + 1 y_18_ ^ 2 ] >= 1585.98
quadratic_ranged_23_lb: [ 1 x_17_ ^ 2 - 2 x_18_ * x_17_ + 1 x_18_ ^ 2 + 1 y_17_ ^ 2 - 2 y_18_ * y_17_ + 1 y_18_ ^ 2 ] >= 33696.63
quadratic_ranged_24_lb: [ 1 x_3_ ^ 2 - 2 x_19_ * x_3_ + 1 x_19_ ^ 2 + 1 y_3_ ^ 2 - 2 y_19_ * y_3_ + 1 y_19_ ^ 2 ] >= 17503.2
quadratic_ranged_25_lb: [ 1 x_7_ ^ 2 - 2 x_19_ * x_7_ + 1 x_19_ ^ 2 + 1 y_7_ ^ 2 - 2 y_19_ * y_7_ + 1 y_19_ ^ 2 ] >= 21000.87
quadratic_ranged_26_lb: [ 1 x_8_ ^ 2 - 2 x_19_ * x_8_ + 1 x_19_ ^ 2 + 1 y_8_ ^ 2 - 2 y_19_ * y_8_ + 1 y_19_ ^ 2 ] >= 6154.83
quadratic_ranged_27_lb: [ 1 x_10_ ^ 2 - 2 x_19_ * x_10_ + 1 x_19_ ^ 2 + 1 y_10_ ^ 2 - 2 y_19_ * y_10_ + 1 y_19_ ^ 2 ] >= 4032.27
quadratic_ranged_28_lb: [ 1 x_18_ ^ 2 - 2 x_19_ * x_18_ + 1 x_19_ ^ 2 + 1 y_18_ ^ 2 - 2 y_19_ * y_18_ + 1 y_19_ ^ 2 ] >= 11050.38
quadratic_ranged_29_lb: [ 1 x_19_ ^ 2 - 2 x_20_ * x_19_ + 1 x_20_ ^ 2 + 1 y_19_ ^ 2 - 2 y_20_ * y_19_ + 1 y_20_ ^ 2 ] >= 99
quadratic_ranged_30_lb: [ 1 x_12_ ^ 2 - 2 x_21_ * x_12_ + 1 x_21_ ^ 2 + 1 y_12_ ^ 2 - 2 y_21_ * y_12_ + 1 y_21_ ^ 2 ] >= 15021.27
quadratic_ranged_31_lb: [ 1 x_20_ ^ 2 - 2 x_21_ * x_20_ + 1 x_21_ ^ 2 + 1 y_20_ ^ 2 - 2 y_21_ * y_20_ + 1 y_21_ ^ 2 ] >= 4851
quadratic_ranged_32_lb: [ 1 x_1_ ^ 2 - 2 x_22_ * x_1_ + 1 x_22_ ^ 2 + 1 y_1_ ^ 2 - 2 y_22_ * y_1_ + 1 y_22_ ^ 2 ] >= 22339.35
quadratic_ranged_33_lb: [ 1 x_21_ ^ 2 - 2 x_22_ * x_21_ + 1 x_22_ ^ 2 + 1 y_21_ ^ 2 - 2 y_22_ * y_21_ + 1 y_22_ ^ 2 ] >= 12406.68
quadratic_ranged_34_lb: [ 1 x_10_ ^ 2 - 2 x_23_ * x_10_ + 1 x_23_ ^ 2 + 1 y_10_ ^ 2 - 2 y_23_ * y_10_ + 1 y_23_ ^ 2 ] >= 15321.24
quadratic_ranged_35_lb: [ 1 x_22_ ^ 2 - 2 x_23_ * x_22_ + 1 x_23_ ^ 2 + 1 y_22_ ^ 2 - 2 y_23_ * y_22_ + 1 y_23_ ^ 2 ] >= 6630.03
quadratic_ranged_36_lb: [ 1 x_23_ ^ 2 - 2 x_24_ * x_23_ + 1 x_24_ ^ 2 + 1 y_23_ ^ 2 - 2 y_24_ * y_23_ + 1 y_24_ ^ 2 ] >= 17159.67
quadratic_ranged_37_lb: [ 1 x_5_ ^ 2 - 2 x_25_ * x_5_ + 1 x_25_ ^ 2 + 1 y_5_ ^ 2 - 2 y_25_ * y_5_ + 1 y_25_ ^ 2 ] >= 538.56
quadratic_ranged_38_lb: [ 1 x_24_ ^ 2 - 2 x_25_ * x_24_ + 1 x_25_ ^ 2 + 1 y_24_ ^ 2 - 2 y_25_ * y_24_ + 1 y_25_ ^ 2 ] >= 1031.58
quadratic_ranged_39_lb: [ 1 x_16_ ^ 2 - 2 x_26_ * x_16_ + 1 x_26_ ^ 2 + 1 y_16_ ^ 2 - 2 y_26_ * y_16_ + 1 y_26_ ^ 2 ] >= 7177.5
quadratic_ranged_40_lb: [ 1 x_22_ ^ 2 - 2 x_26_ * x_22_ + 1 x_26_ ^ 2 + 1 y_22_ ^ 2 - 2 y_26_ * y_22_ + 1 y_26_ ^ 2 ] >= 14150.07
quadratic_ranged_41_lb: [ 1 x_25_ ^ 2 - 2 x_26_ * x_25_ + 1 x_26_ ^ 2 + 1 y_25_ ^ 2 - 2 y_26_ * y_25_ + 1 y_26_ ^ 2 ] >= 21963.15
quadratic_ranged_42_lb: [ 1 x_15_ ^ 2 - 2 x_27_ * x_15_ + 1 x_27_ ^ 2 + 1 y_15_ ^ 2 - 2 y_27_ * y_15_ + 1 y_27_ ^ 2 ] >= 14893.56
quadratic_ranged_43_lb: [ 1 x_26_ ^ 2 - 2 x_27_ * x_26_ + 1 x_27_ ^ 2 + 1 y_26_ ^ 2 - 2 y_27_ * y_26_ + 1 y_27_ ^ 2 ] >= 25903.35
quadratic_ranged_44_lb: [ 1 x_1_ ^ 2 - 2 x_28_ * x_1_ + 1 x_28_ ^ 2 + 1 y_1_ ^ 2 - 2 y_28_ * y_1_ + 1 y_28_ ^ 2 ] >= 38123.909999999996
quadratic_ranged_45_lb: [ 1 x_8_ ^ 2 - 2 x_28_ * x_8_ + 1 x_28_ ^ 2 + 1 y_8_ ^ 2 - 2 y_28_ * y_8_ + 1 y_28_ ^ 2 ] >= 21052.35
quadratic_ranged_46_lb: [ 1 x_27_ ^ 2 - 2 x_28_ * x_27_ + 1 x_28_ ^ 2 + 1 y_27_ ^ 2 - 2 y_28_ * y_27_ + 1 y_28_ ^ 2 ] >= 22417.56
c1_1: 1 x_2_ = 24
c2_1: 1 y_2_ = -96
c3_1: 1 x_24_ = 83
c4_1: 1 y_24_ = -48
c5_1: 1 x_4_ = -19
c6_1: 1 y_4_ = 60
Bounds
-160 <= x_1_ <= 208
x_2_ = 24
-68 <= x_3_ <= 30
x_4_ = -19
28 <= x_5_ <= 125
-72 <= x_6_ <= 224
-199 <= x_7_ <= 310
-280 <= x_8_ <= 242
-259 <= x_9_ <= 310
-174 <= x_10_ <= 227
-237 <= x_11_ <= 291
-349 <= x_12_ <= 367
-446 <= x_13_ <= 463
-382 <= x_14_ <= 436
-312 <= x_15_ <= 463
-184 <= x_16_ <= 350
-331 <= x_17_ <= 379
-300 <= x_18_ <= 269
-201 <= x_19_ <= 163
-211 <= x_20_ <= 173
-244 <= x_21_ <= 244
-131 <= x_22_ <= 297
-49 <= x_23_ <= 215
x_24_ = 83
51 <= x_25_ <= 115
-99 <= x_26_ <= 265
-261 <= x_27_ <= 427
-357 <= x_28_ <= 389
-280 <= y_1_ <= 88
y_2_ = -96
11 <= y_3_ <= 100
y_4_ = 60
-84 <= y_5_ <= 7
-183 <= y_6_ <= 107
-269 <= y_7_ <= 234
-201 <= y_8_ <= 313
-269 <= y_9_ <= 294
-186 <= y_10_ <= 209
-250 <= y_11_ <= 272
-326 <= y_12_ <= 384
-422 <= y_13_ <= 481
-395 <= y_14_ <= 417
-422 <= y_15_ <= 347
-315 <= y_16_ <= 219
-414 <= y_17_ <= 259
-228 <= y_18_ <= 335
-122 <= y_19_ <= 234
-132 <= y_20_ <= 244
-203 <= y_21_ <= 279
-262 <= y_22_ <= 166
-180 <= y_23_ <= 84
y_24_ = -48
-80 <= y_25_ <= -16
-230 <= y_26_ <= 134
-392 <= y_27_ <= 296
-348 <= y_28_ <= 285
General
x_1_
x_2_
x_3_
x_4_
x_5_
x_6_
x_7_
x_8_
x_9_
x_10_
x_11_
x_12_
x_13_
x_14_
x_15_
x_16_
x_17_
x_18_
x_19_
x_20_
x_21_
x_22_
x_23_
x_24_
x_25_
x_26_
x_27_
x_28_
y_1_
y_2_
y_3_
y_4_
y_5_
y_6_
y_7_
y_8_
y_9_
y_10_
y_11_
y_12_
y_13_
y_14_
y_15_
y_16_
y_17_
y_18_
y_19_
y_20_
y_21_
y_22_
y_23_
y_24_
y_25_
y_26_
y_27_
y_28_
End
