minimize
obj: 
subject to
c1_1: -86 x_1_ + 138 y_1_ + [ 1 x_1_ ^ 2 + 1 y_1_ ^ 2 ] <= 53323
c2_1: -86 x_2_ + 138 y_2_ + [ 1 x_2_ ^ 2 + 1 y_2_ ^ 2 ] <= 53279
c3_1: -86 x_3_ + 138 y_3_ + [ 1 x_3_ ^ 2 + 1 y_3_ ^ 2 ] <= 35646
c4_1: -86 x_4_ + 138 y_4_ + [ 1 x_4_ ^ 2 + 1 y_4_ ^ 2 ] <= 28030
c5_1: -86 x_5_ + 138 y_5_ + [ 1 x_5_ ^ 2 + 1 y_5_ ^ 2 ] <= 37478
c6_1: -86 x_6_ + 138 y_6_ + [ 1 x_6_ ^ 2 + 1 y_6_ ^ 2 ] <= 16034
c7_1: -86 x_7_ + 138 y_7_ + [ 1 x_7_ ^ 2 + 1 y_7_ ^ 2 ] <= 49288
c8_1: -86 x_8_ + 138 y_8_ + [ 1 x_8_ ^ 2 + 1 y_8_ ^ 2 ] <= 66092
c9_1: -86 x_9_ + 138 y_9_ + [ 1 x_9_ ^ 2 + 1 y_9_ ^ 2 ] <= 51749
c10_1: -86 x_10_ + 138 y_10_ + [ 1 x_10_ ^ 2 + 1 y_10_ ^ 2 ] <= 83252
c11_1: -86 x_11_ + 138 y_11_ + [ 1 x_11_ ^ 2 + 1 y_11_ ^ 2 ] <= 19405
c12_1: -86 x_12_ + 138 y_12_ + [ 1 x_12_ ^ 2 + 1 y_12_ ^ 2 ] <= -3465
c13_1: -86 x_13_ + 138 y_13_ + [ 1 x_13_ ^ 2 + 1 y_13_ ^ 2 ] <= -6345
c14_1: -86 x_14_ + 138 y_14_ + [ 1 x_14_ ^ 2 + 1 y_14_ ^ 2 ] <= 62015
c15_1: -86 x_16_ + 138 y_16_ + [ 1 x_16_ ^ 2 + 1 y_16_ ^ 2 ] <= 55902
c16_1: -86 x_17_ + 138 y_17_ + [ 1 x_17_ ^ 2 + 1 y_17_ ^ 2 ] <= 77405
c17_1: -86 x_18_ + 138 y_18_ + [ 1 x_18_ ^ 2 + 1 y_18_ ^ 2 ] <= 40561
c18_1: -86 x_19_ + 138 y_19_ + [ 1 x_19_ ^ 2 + 1 y_19_ ^ 2 ] <= -1727
c19_1: -86 x_20_ + 138 y_20_ + [ 1 x_20_ ^ 2 + 1 y_20_ ^ 2 ] <= 117604
c20_1: -86 x_21_ + 138 y_21_ + [ 1 x_21_ ^ 2 + 1 y_21_ ^ 2 ] <= 22900
c21_1: -86 x_22_ + 138 y_22_ + [ 1 x_22_ ^ 2 + 1 y_22_ ^ 2 ] <= -33
c22_1: -86 x_23_ + 138 y_23_ + [ 1 x_23_ ^ 2 + 1 y_23_ ^ 2 ] <= 2128
c23_1: -86 x_24_ + 138 y_24_ + [ 1 x_24_ ^ 2 + 1 y_24_ ^ 2 ] <= 191470
c24_1: -86 x_25_ + 138 y_25_ + [ 1 x_25_ ^ 2 + 1 y_25_ ^ 2 ] <= 15531
c25_1: -86 x_26_ + 138 y_26_ + [ 1 x_26_ ^ 2 + 1 y_26_ ^ 2 ] <= 14710
c26_1: -84 x_1_ + 2 y_1_ + [ 1 x_1_ ^ 2 + 1 y_1_ ^ 2 ] <= 10255
c27_1: -84 x_3_ + 2 y_3_ + [ 1 x_3_ ^ 2 + 1 y_3_ ^ 2 ] <= 32708
c28_1: -84 x_4_ + 2 y_4_ + [ 1 x_4_ ^ 2 + 1 y_4_ ^ 2 ] <= 26570
c29_1: -84 x_5_ + 2 y_5_ + [ 1 x_5_ ^ 2 + 1 y_5_ ^ 2 ] <= 35170
c30_1: -84 x_6_ + 2 y_6_ + [ 1 x_6_ ^ 2 + 1 y_6_ ^ 2 ] <= 103219
c31_1: -84 x_7_ + 2 y_7_ + [ 1 x_7_ ^ 2 + 1 y_7_ ^ 2 ] <= 46242
c32_1: -84 x_8_ + 2 y_8_ + [ 1 x_8_ ^ 2 + 1 y_8_ ^ 2 ] <= 13021
c33_1: -84 x_9_ + 2 y_9_ + [ 1 x_9_ ^ 2 + 1 y_9_ ^ 2 ] <= 86557
c34_1: -84 x_10_ + 2 y_10_ + [ 1 x_10_ ^ 2 + 1 y_10_ ^ 2 ] <= 57797
c35_1: -84 x_11_ + 2 y_11_ + [ 1 x_11_ ^ 2 + 1 y_11_ ^ 2 ] <= 5196
c36_1: -84 x_12_ + 2 y_12_ + [ 1 x_12_ ^ 2 + 1 y_12_ ^ 2 ] <= 88718
c37_1: -84 x_13_ + 2 y_13_ + [ 1 x_13_ ^ 2 + 1 y_13_ ^ 2 ] <= 50422
c38_1: -84 x_14_ + 2 y_14_ + [ 1 x_14_ ^ 2 + 1 y_14_ ^ 2 ] <= 56832
c39_1: -84 x_15_ + 2 y_15_ + [ 1 x_15_ ^ 2 + 1 y_15_ ^ 2 ] <= 58124
c40_1: -84 x_16_ + 2 y_16_ + [ 1 x_16_ ^ 2 + 1 y_16_ ^ 2 ] <= 38657
c41_1: -84 x_17_ + 2 y_17_ + [ 1 x_17_ ^ 2 + 1 y_17_ ^ 2 ] <= 845
c42_1: -84 x_18_ + 2 y_18_ + [ 1 x_18_ ^ 2 + 1 y_18_ ^ 2 ] <= 78007
c43_1: -84 x_19_ + 2 y_19_ + [ 1 x_19_ ^ 2 + 1 y_19_ ^ 2 ] <= 28805
c44_1: -84 x_20_ + 2 y_20_ + [ 1 x_20_ ^ 2 + 1 y_20_ ^ 2 ] <= 81214
c45_1: -84 x_21_ + 2 y_21_ + [ 1 x_21_ ^ 2 + 1 y_21_ ^ 2 ] <= 26849
c46_1: -84 x_22_ + 2 y_22_ + [ 1 x_22_ ^ 2 + 1 y_22_ ^ 2 ] <= 65753
c47_1: -84 x_23_ + 2 y_23_ + [ 1 x_23_ ^ 2 + 1 y_23_ ^ 2 ] <= 91654
c48_1: -84 x_24_ + 2 y_24_ + [ 1 x_24_ ^ 2 + 1 y_24_ ^ 2 ] <= 54682
c49_1: -84 x_25_ + 2 y_25_ + [ 1 x_25_ ^ 2 + 1 y_25_ ^ 2 ] <= 128529
c50: -84 x_26_ + 2 y_26_ + [ 1 x_26_ ^ 2 + 1 y_26_ ^ 2 ] <= 150910
c51: 180 x_1_ + 114 y_1_ + [ 1 x_1_ ^ 2 + 1 y_1_ ^ 2 ] <= 26222
c52: 180 x_2_ + 114 y_2_ + [ 1 x_2_ ^ 2 + 1 y_2_ ^ 2 ] <= 71630
c53: 180 x_3_ + 114 y_3_ + [ 1 x_3_ ^ 2 + 1 y_3_ ^ 2 ] <= 39786
c54: 180 x_4_ + 114 y_4_ + [ 1 x_4_ ^ 2 + 1 y_4_ ^ 2 ] <= 16314
c55: 180 x_5_ + 114 y_5_ + [ 1 x_5_ ^ 2 + 1 y_5_ ^ 2 ] <= 24818
c56: 180 x_6_ + 114 y_6_ + [ 1 x_6_ ^ 2 + 1 y_6_ ^ 2 ] <= 92338
c57: 180 x_7_ + 114 y_7_ + [ 1 x_7_ ^ 2 + 1 y_7_ ^ 2 ] <= 35782
c58: 180 x_8_ + 114 y_8_ + [ 1 x_8_ ^ 2 + 1 y_8_ ^ 2 ] <= 50173
c59: 180 x_9_ + 114 y_9_ + [ 1 x_9_ ^ 2 + 1 y_9_ ^ 2 ] <= 75784
c60: 180 x_10_ + 114 y_10_ + [ 1 x_10_ ^ 2 + 1 y_10_ ^ 2 ] <= 67037
c61: 180 x_11_ + 114 y_11_ + [ 1 x_11_ ^ 2 + 1 y_11_ ^ 2 ] <= 30524
c62: 180 x_12_ + 114 y_12_ + [ 1 x_12_ ^ 2 + 1 y_12_ ^ 2 ] <= 129735
c63: 180 x_13_ + 114 y_13_ + [ 1 x_13_ ^ 2 + 1 y_13_ ^ 2 ] <= 110899
c64: 180 x_14_ + 114 y_14_ + [ 1 x_14_ ^ 2 + 1 y_14_ ^ 2 ] <= 17459
c65: 180 x_15_ + 114 y_15_ + [ 1 x_15_ ^ 2 + 1 y_15_ ^ 2 ] <= 112865
c66: 180 x_16_ + 114 y_16_ + [ 1 x_16_ ^ 2 + 1 y_16_ ^ 2 ] <= -860
c67: 180 x_17_ + 114 y_17_ + [ 1 x_17_ ^ 2 + 1 y_17_ ^ 2 ] <= 103674
c68: 180 x_18_ + 114 y_18_ + [ 1 x_18_ ^ 2 + 1 y_18_ ^ 2 ] <= 67293
c69: 180 x_19_ + 114 y_19_ + [ 1 x_19_ ^ 2 + 1 y_19_ ^ 2 ] <= 76291
c70: 180 x_21_ + 114 y_21_ + [ 1 x_21_ ^ 2 + 1 y_21_ ^ 2 ] <= 75032
c71: 180 x_22_ + 114 y_22_ + [ 1 x_22_ ^ 2 + 1 y_22_ ^ 2 ] <= 62277
c72: 180 x_23_ + 114 y_23_ + [ 1 x_23_ ^ 2 + 1 y_23_ ^ 2 ] <= 170845
c73: 180 x_24_ + 114 y_24_ + [ 1 x_24_ ^ 2 + 1 y_24_ ^ 2 ] <= 113138
c74: 180 x_25_ + 114 y_25_ + [ 1 x_25_ ^ 2 + 1 y_25_ ^ 2 ] <= 139165
c75: 180 x_26_ + 114 y_26_ + [ 1 x_26_ ^ 2 + 1 y_26_ ^ 2 ] <= 177880
c1_2: 1 x_15_ = 43
c2_2: 1 y_15_ = -69
c3_2: 1 x_2_ = 42
c4_2: 1 y_2_ = -1
c5_2: 1 x_20_ = -90
c6_2: 1 y_20_ = -57
c1: [ 1 x_1_ ^ 2 - 2 x_2_ * x_1_ + 1 x_2_ ^ 2 + 1 y_1_ ^ 2 - 2 y_2_ * y_1_ + 1 y_2_ ^ 2 ] = 12020
c2: [ 1 x_1_ ^ 2 - 2 x_4_ * x_1_ + 1 x_4_ ^ 2 + 1 y_1_ ^ 2 - 2 y_4_ * y_1_ + 1 y_4_ ^ 2 ] = 3445
c3: [ 1 x_4_ ^ 2 - 2 x_5_ * x_4_ + 1 x_5_ ^ 2 + 1 y_4_ ^ 2 - 2 y_5_ * y_4_ + 1 y_5_ ^ 2 ] = 569
c4: [ 1 x_4_ ^ 2 - 2 x_6_ * x_4_ + 1 x_6_ ^ 2 + 1 y_4_ ^ 2 - 2 y_6_ * y_4_ + 1 y_6_ ^ 2 ] = 24237
c5: [ 1 x_5_ ^ 2 - 2 x_6_ * x_5_ + 1 x_6_ ^ 2 + 1 y_5_ ^ 2 - 2 y_6_ * y_5_ + 1 y_6_ ^ 2 ] = 25832
c6: [ 1 x_4_ ^ 2 - 2 x_7_ * x_4_ + 1 x_7_ ^ 2 + 1 y_4_ ^ 2 - 2 y_7_ * y_4_ + 1 y_7_ ^ 2 ] = 2578
c7: [ 1 x_6_ ^ 2 - 2 x_7_ * x_6_ + 1 x_7_ ^ 2 + 1 y_6_ ^ 2 - 2 y_7_ * y_6_ + 1 y_7_ ^ 2 ] = 13525
c8: [ 1 x_1_ ^ 2 - 2 x_8_ * x_1_ + 1 x_8_ ^ 2 + 1 y_1_ ^ 2 - 2 y_8_ * y_1_ + 1 y_8_ ^ 2 ] = 2938
c9: [ 1 x_2_ ^ 2 - 2 x_8_ * x_2_ + 1 x_8_ ^ 2 + 1 y_2_ ^ 2 - 2 y_8_ * y_2_ + 1 y_8_ ^ 2 ] = 14786
c10: [ 1 x_3_ ^ 2 - 2 x_8_ * x_3_ + 1 x_8_ ^ 2 + 1 y_3_ ^ 2 - 2 y_8_ * y_3_ + 1 y_8_ ^ 2 ] = 4105
c11: [ 1 x_4_ ^ 2 - 2 x_9_ * x_4_ + 1 x_9_ ^ 2 + 1 y_4_ ^ 2 - 2 y_9_ * y_4_ + 1 y_9_ ^ 2 ] = 16605
c12: [ 1 x_7_ ^ 2 - 2 x_9_ * x_7_ + 1 x_9_ ^ 2 + 1 y_7_ ^ 2 - 2 y_9_ * y_7_ + 1 y_9_ ^ 2 ] = 14701
c13: [ 1 x_1_ ^ 2 - 2 x_10_ * x_1_ + 1 x_10_ ^ 2 + 1 y_1_ ^ 2 - 2 y_10_ * y_1_ + 1 y_10_ ^ 2 ] = 18068
c14: [ 1 x_4_ ^ 2 - 2 x_10_ * x_4_ + 1 x_10_ ^ 2 + 1 y_4_ ^ 2 - 2 y_10_ * y_4_ + 1 y_10_ ^ 2 ] = 12917
c15: [ 1 x_1_ ^ 2 - 2 x_11_ * x_1_ + 1 x_11_ ^ 2 + 1 y_1_ ^ 2 - 2 y_11_ * y_1_ + 1 y_11_ ^ 2 ] = 11405
c16: [ 1 x_2_ ^ 2 - 2 x_11_ * x_2_ + 1 x_11_ ^ 2 + 1 y_2_ ^ 2 - 2 y_11_ * y_2_ + 1 y_11_ ^ 2 ] = 6961
c17: [ 1 x_3_ ^ 2 - 2 x_12_ * x_3_ + 1 x_12_ ^ 2 + 1 y_3_ ^ 2 - 2 y_12_ * y_3_ + 1 y_12_ ^ 2 ] = 22345
c18: [ 1 x_7_ ^ 2 - 2 x_12_ * x_7_ + 1 x_12_ ^ 2 + 1 y_7_ ^ 2 - 2 y_12_ * y_7_ + 1 y_12_ ^ 2 ] = 32525
c19: [ 1 x_6_ ^ 2 - 2 x_13_ * x_6_ + 1 x_13_ ^ 2 + 1 y_6_ ^ 2 - 2 y_13_ * y_6_ + 1 y_13_ ^ 2 ] = 18010
c20: [ 1 x_3_ ^ 2 - 2 x_14_ * x_3_ + 1 x_14_ ^ 2 + 1 y_3_ ^ 2 - 2 y_14_ * y_3_ + 1 y_14_ ^ 2 ] = 3181
c21: [ 1 x_7_ ^ 2 - 2 x_14_ * x_7_ + 1 x_14_ ^ 2 + 1 y_7_ ^ 2 - 2 y_14_ * y_7_ + 1 y_14_ ^ 2 ] = 4033
c22: [ 1 x_12_ ^ 2 - 2 x_15_ * x_12_ + 1 x_15_ ^ 2 + 1 y_12_ ^ 2 - 2 y_15_ * y_12_ + 1 y_15_ ^ 2 ] = 3145
c23: [ 1 x_13_ ^ 2 - 2 x_15_ * x_13_ + 1 x_15_ ^ 2 + 1 y_13_ ^ 2 - 2 y_15_ * y_13_ + 1 y_15_ ^ 2 ] = 265
c24: [ 1 x_1_ ^ 2 - 2 x_16_ * x_1_ + 1 x_16_ ^ 2 + 1 y_1_ ^ 2 - 2 y_16_ * y_1_ + 1 y_16_ ^ 2 ] = 8357
c25: [ 1 x_4_ ^ 2 - 2 x_16_ * x_4_ + 1 x_16_ ^ 2 + 1 y_4_ ^ 2 - 2 y_16_ * y_4_ + 1 y_16_ ^ 2 ] = 4084
c26: [ 1 x_1_ ^ 2 - 2 x_17_ * x_1_ + 1 x_17_ ^ 2 + 1 y_1_ ^ 2 - 2 y_17_ * y_1_ + 1 y_17_ ^ 2 ] = 23810
c27: [ 1 x_2_ ^ 2 - 2 x_17_ * x_2_ + 1 x_17_ ^ 2 + 1 y_2_ ^ 2 - 2 y_17_ * y_2_ + 1 y_17_ ^ 2 ] = 2610
c28: [ 1 x_4_ ^ 2 - 2 x_18_ * x_4_ + 1 x_18_ ^ 2 + 1 y_4_ ^ 2 - 2 y_18_ * y_4_ + 1 y_18_ ^ 2 ] = 13021
c29: [ 1 x_6_ ^ 2 - 2 x_18_ * x_6_ + 1 x_18_ ^ 2 + 1 y_6_ ^ 2 - 2 y_18_ * y_6_ + 1 y_18_ ^ 2 ] = 4450
c30: [ 1 x_5_ ^ 2 - 2 x_19_ * x_5_ + 1 x_19_ ^ 2 + 1 y_5_ ^ 2 - 2 y_19_ * y_5_ + 1 y_19_ ^ 2 ] = 23801
c31: [ 1 x_11_ ^ 2 - 2 x_19_ * x_11_ + 1 x_19_ ^ 2 + 1 y_11_ ^ 2 - 2 y_19_ * y_11_ + 1 y_19_ ^ 2 ] = 8356
c32: [ 1 x_13_ ^ 2 - 2 x_19_ * x_13_ + 1 x_19_ ^ 2 + 1 y_13_ ^ 2 - 2 y_19_ * y_13_ + 1 y_19_ ^ 2 ] = 2873
c33: [ 1 x_11_ ^ 2 - 2 x_20_ * x_11_ + 1 x_20_ ^ 2 + 1 y_11_ ^ 2 - 2 y_20_ * y_11_ + 1 y_20_ ^ 2 ] = 41873
c34: [ 1 x_14_ ^ 2 - 2 x_20_ * x_14_ + 1 x_20_ ^ 2 + 1 y_14_ ^ 2 - 2 y_20_ * y_14_ + 1 y_20_ ^ 2 ] = 28808
c35: [ 1 x_16_ ^ 2 - 2 x_20_ * x_16_ + 1 x_20_ ^ 2 + 1 y_16_ ^ 2 - 2 y_20_ * y_16_ + 1 y_20_ ^ 2 ] = 10489
c36: [ 1 x_5_ ^ 2 - 2 x_21_ * x_5_ + 1 x_21_ ^ 2 + 1 y_5_ ^ 2 - 2 y_21_ * y_5_ + 1 y_21_ ^ 2 ] = 10760
c37: [ 1 x_14_ ^ 2 - 2 x_21_ * x_14_ + 1 x_21_ ^ 2 + 1 y_14_ ^ 2 - 2 y_21_ * y_14_ + 1 y_21_ ^ 2 ] = 15714
c38: [ 1 x_17_ ^ 2 - 2 x_21_ * x_17_ + 1 x_21_ ^ 2 + 1 y_17_ ^ 2 - 2 y_21_ * y_17_ + 1 y_21_ ^ 2 ] = 13940
c39: [ 1 x_4_ ^ 2 - 2 x_22_ * x_4_ + 1 x_22_ ^ 2 + 1 y_4_ ^ 2 - 2 y_22_ * y_4_ + 1 y_22_ ^ 2 ] = 11029
c40: [ 1 x_15_ ^ 2 - 2 x_22_ * x_15_ + 1 x_22_ ^ 2 + 1 y_15_ ^ 2 - 2 y_22_ * y_15_ + 1 y_22_ ^ 2 ] = 6577
c41: [ 1 x_21_ ^ 2 - 2 x_22_ * x_21_ + 1 x_22_ ^ 2 + 1 y_21_ ^ 2 - 2 y_22_ * y_21_ + 1 y_22_ ^ 2 ] = 8224
c42: [ 1 x_12_ ^ 2 - 2 x_23_ * x_12_ + 1 x_23_ ^ 2 + 1 y_12_ ^ 2 - 2 y_23_ * y_12_ + 1 y_23_ ^ 2 ] = 9610
c43: [ 1 x_13_ ^ 2 - 2 x_23_ * x_13_ + 1 x_23_ ^ 2 + 1 y_13_ ^ 2 - 2 y_23_ * y_13_ + 1 y_23_ ^ 2 ] = 5960
c44: [ 1 x_14_ ^ 2 - 2 x_24_ * x_14_ + 1 x_24_ ^ 2 + 1 y_14_ ^ 2 - 2 y_24_ * y_14_ + 1 y_24_ ^ 2 ] = 33525
c45: [ 1 x_17_ ^ 2 - 2 x_24_ * x_17_ + 1 x_24_ ^ 2 + 1 y_17_ ^ 2 - 2 y_24_ * y_17_ + 1 y_24_ ^ 2 ] = 34781
c46: [ 1 x_9_ ^ 2 - 2 x_25_ * x_9_ + 1 x_25_ ^ 2 + 1 y_9_ ^ 2 - 2 y_25_ * y_9_ + 1 y_25_ ^ 2 ] = 8608
c47: [ 1 x_23_ ^ 2 - 2 x_25_ * x_23_ + 1 x_25_ ^ 2 + 1 y_23_ ^ 2 - 2 y_25_ * y_23_ + 1 y_25_ ^ 2 ] = 3060
c48: [ 1 x_15_ ^ 2 - 2 x_26_ * x_15_ + 1 x_26_ ^ 2 + 1 y_15_ ^ 2 - 2 y_26_ * y_15_ + 1 y_26_ ^ 2 ] = 21320
c49: [ 1 x_25_ ^ 2 - 2 x_26_ * x_25_ + 1 x_26_ ^ 2 + 1 y_25_ ^ 2 - 2 y_26_ * y_25_ + 1 y_26_ ^ 2 ] = 2213
Bounds
-67 <= x_1_ <= 103
x_2_ = 42
-143 <= x_3_ <= 136
-126 <= x_4_ <= 76
-150 <= x_5_ <= 100
-107 <= x_6_ <= 193
-177 <= x_7_ <= 127
-79 <= x_8_ <= 158
-198 <= x_9_ <= 205
-202 <= x_10_ <= 189
-41 <= x_11_ <= 114
-13 <= x_12_ <= 99
27 <= x_13_ <= 59
-200 <= x_14_ <= 79
x_15_ = 43
-159 <= x_16_ <= 12
-9 <= x_17_ <= 93
-174 <= x_18_ <= 190
-26 <= x_19_ <= 112
x_20_ = -90
-127 <= x_21_ <= 203
-38 <= x_22_ <= 124
-50 <= x_23_ <= 136
-195 <= x_24_ <= 262
-105 <= x_25_ <= 191
-103 <= x_26_ <= 189
-110 <= y_1_ <= 108
y_2_ = -1
-186 <= y_3_ <= 136
-169 <= y_4_ <= 109
-193 <= y_5_ <= 133
-219 <= y_6_ <= 81
-220 <= y_7_ <= 160
-122 <= y_8_ <= 120
-298 <= y_9_ <= 172
-245 <= y_10_ <= 222
-84 <= y_11_ <= 82
-125 <= y_12_ <= -13
-85 <= y_13_ <= -53
-226 <= y_14_ <= 112
y_15_ = -69
-159 <= y_16_ <= 45
-52 <= y_17_ <= 50
-283 <= y_18_ <= 148
-138 <= y_19_ <= 0
y_20_ = -57
-170 <= y_21_ <= 102
-150 <= y_22_ <= 12
-162 <= y_23_ <= 24
-238 <= y_24_ <= 236
-217 <= y_25_ <= 79
-215 <= y_26_ <= 77
General
x_1_
x_2_
x_3_
x_4_
x_5_
x_6_
x_7_
x_8_
x_9_
x_10_
x_11_
x_12_
x_13_
x_14_
x_15_
x_16_
x_17_
x_18_
x_19_
x_20_
x_21_
x_22_
x_23_
x_24_
x_25_
x_26_
y_1_
y_2_
y_3_
y_4_
y_5_
y_6_
y_7_
y_8_
y_9_
y_10_
y_11_
y_12_
y_13_
y_14_
y_15_
y_16_
y_17_
y_18_
y_19_
y_20_
y_21_
y_22_
y_23_
y_24_
y_25_
y_26_
End
