minimize
obj: 
subject to
c1: -26 x_1_ + 44 y_1_ + [ 1 x_1_ ^ 2 + 1 y_1_ ^ 2 ] <= 23216.87941408979
c2: -26 x_2_ + 44 y_2_ + [ 1 x_2_ ^ 2 + 1 y_2_ ^ 2 ] <= 76695.70751686262
c3: -26 x_3_ + 44 y_3_ + [ 1 x_3_ ^ 2 + 1 y_3_ ^ 2 ] <= 59988.95413023723
c4: -26 x_4_ + 44 y_4_ + [ 1 x_4_ ^ 2 + 1 y_4_ ^ 2 ] <= 88896.61213637223
c5: -26 x_5_ + 44 y_5_ + [ 1 x_5_ ^ 2 + 1 y_5_ ^ 2 ] <= 3759.689999999998
c6: -26 x_6_ + 44 y_6_ + [ 1 x_6_ ^ 2 + 1 y_6_ ^ 2 ] <= 40851.16667177577
c7: -26 x_7_ + 44 y_7_ + [ 1 x_7_ ^ 2 + 1 y_7_ ^ 2 ] <= 53871.106784749514
c8: -26 x_8_ + 44 y_8_ + [ 1 x_8_ ^ 2 + 1 y_8_ ^ 2 ] <= 101775.20709971357
c9: -26 x_9_ + 44 y_9_ + [ 1 x_9_ ^ 2 + 1 y_9_ ^ 2 ] <= 42007.889159827115
c10: -26 x_10_ + 44 y_10_ + [ 1 x_10_ ^ 2 + 1 y_10_ ^ 2 ] <= 18435.872111662262
c11: -26 x_11_ + 44 y_11_ + [ 1 x_11_ ^ 2 + 1 y_11_ ^ 2 ] <= 23493.8934326422
c12: -26 x_12_ + 44 y_12_ + [ 1 x_12_ ^ 2 + 1 y_12_ ^ 2 ] <= 77116.69590785816
c13: -26 x_13_ + 44 y_13_ + [ 1 x_13_ ^ 2 + 1 y_13_ ^ 2 ] <= 6139.249999999998
c14: -26 x_15_ + 44 y_15_ + [ 1 x_15_ ^ 2 + 1 y_15_ ^ 2 ] <= 18678.564912735466
c15: -26 x_16_ + 44 y_16_ + [ 1 x_16_ ^ 2 + 1 y_16_ ^ 2 ] <= 100823.39144658693
c16: -26 x_17_ + 44 y_17_ + [ 1 x_17_ ^ 2 + 1 y_17_ ^ 2 ] <= 151438.1391230802
c17: -26 x_18_ + 44 y_18_ + [ 1 x_18_ ^ 2 + 1 y_18_ ^ 2 ] <= 20672.035613710657
c18: -26 x_19_ + 44 y_19_ + [ 1 x_19_ ^ 2 + 1 y_19_ ^ 2 ] <= 60763.64678230189
c19: -26 x_20_ + 44 y_20_ + [ 1 x_20_ ^ 2 + 1 y_20_ ^ 2 ] <= 10635.83517332899
c20: -26 x_21_ + 44 y_21_ + [ 1 x_21_ ^ 2 + 1 y_21_ ^ 2 ] <= 13173.899999999998
c21: -26 x_22_ + 44 y_22_ + [ 1 x_22_ ^ 2 + 1 y_22_ ^ 2 ] <= 25097.11476421421
c22: -26 x_23_ + 44 y_23_ + [ 1 x_23_ ^ 2 + 1 y_23_ ^ 2 ] <= 73654.1561261147
c23: -26 x_24_ + 44 y_24_ + [ 1 x_24_ ^ 2 + 1 y_24_ ^ 2 ] <= 22578.14728809736
c24: -26 x_25_ + 44 y_25_ + [ 1 x_25_ ^ 2 + 1 y_25_ ^ 2 ] <= 66303.26305467085
c25: -26 x_26_ + 44 y_26_ + [ 1 x_26_ ^ 2 + 1 y_26_ ^ 2 ] <= 54724.192188009336
c26: -26 x_27_ + 44 y_27_ + [ 1 x_27_ ^ 2 + 1 y_27_ ^ 2 ] <= 71907.51216507275
c27: -26 x_28_ + 44 y_28_ + [ 1 x_28_ ^ 2 + 1 y_28_ ^ 2 ] <= 125265.99107462466
c28: 66 y_1_ + [ 1 x_1_ ^ 2 + 1 y_1_ ^ 2 ] <= 1619.8200000000002
c29: 66 y_2_ + [ 1 x_2_ ^ 2 + 1 y_2_ ^ 2 ] <= 29768.799055058833
c30: 66 y_3_ + [ 1 x_3_ ^ 2 + 1 y_3_ ^ 2 ] <= 19590.416727293483
c31: 66 y_4_ + [ 1 x_4_ ^ 2 + 1 y_4_ ^ 2 ] <= 16045.649999999994
c32: 66 y_5_ + [ 1 x_5_ ^ 2 + 1 y_5_ ^ 2 ] <= 18543.786242225226
c33: 66 y_6_ + [ 1 x_6_ ^ 2 + 1 y_6_ ^ 2 ] <= 75869.9034010151
c34: 66 y_7_ + [ 1 x_7_ ^ 2 + 1 y_7_ ^ 2 ] <= 22045.877197418475
c35: 66 y_8_ + [ 1 x_8_ ^ 2 + 1 y_8_ ^ 2 ] <= 48807.53056851056
c36: 66 y_10_ + [ 1 x_10_ ^ 2 + 1 y_10_ ^ 2 ] <= 5754.8002464257215
c37: 66 y_11_ + [ 1 x_11_ ^ 2 + 1 y_11_ ^ 2 ] <= 3536.8
c38: 66 y_12_ + [ 1 x_12_ ^ 2 + 1 y_12_ ^ 2 ] <= 84693.30981891269
c39: 66 y_13_ + [ 1 x_13_ ^ 2 + 1 y_13_ ^ 2 ] <= 18086.226157578192
c40: 66 y_14_ + [ 1 x_14_ ^ 2 + 1 y_14_ ^ 2 ] <= 41571.889159827115
c41: 66 y_15_ + [ 1 x_15_ ^ 2 + 1 y_15_ ^ 2 ] <= 22335.909989217264
c42: 66 y_16_ + [ 1 x_16_ ^ 2 + 1 y_16_ ^ 2 ] <= 21472.41269773595
c43: 66 y_17_ + [ 1 x_17_ ^ 2 + 1 y_17_ ^ 2 ] <= 94136.44258403678
c44: 66 y_18_ + [ 1 x_18_ ^ 2 + 1 y_18_ ^ 2 ] <= 17681.615873998846
c45: 66 y_19_ + [ 1 x_19_ ^ 2 + 1 y_19_ ^ 2 ] <= 18628.23238288652
c46: 66 y_20_ + [ 1 x_20_ ^ 2 + 1 y_20_ ^ 2 ] <= 8970.326929033836
c47: 66 y_21_ + [ 1 x_21_ ^ 2 + 1 y_21_ ^ 2 ] <= 26284.37104515341
c48: 66 y_22_ + [ 1 x_22_ ^ 2 + 1 y_22_ ^ 2 ] <= 12453.76368435689
c49: 66 y_23_ + [ 1 x_23_ ^ 2 + 1 y_23_ ^ 2 ] <= 33215.19490164511
c50: 66 y_24_ + [ 1 x_24_ ^ 2 + 1 y_24_ ^ 2 ] <= 50035.21138091911
c51: 66 y_25_ + [ 1 x_25_ ^ 2 + 1 y_25_ ^ 2 ] <= 63630.52173464914
c52: 66 y_26_ + [ 1 x_26_ ^ 2 + 1 y_26_ ^ 2 ] <= -260.80000000000007
c53: 66 y_27_ + [ 1 x_27_ ^ 2 + 1 y_27_ ^ 2 ] <= 26772.655452494546
c54: 66 y_28_ + [ 1 x_28_ ^ 2 + 1 y_28_ ^ 2 ] <= 33693.86060405588
c55: -56 x_1_ + 78 y_1_ + [ 1 x_1_ ^ 2 + 1 y_1_ ^ 2 ] <= 4227.64662826995
c56: -56 x_2_ + 78 y_2_ + [ 1 x_2_ ^ 2 + 1 y_2_ ^ 2 ] <= 39491.672460406226
c57: -56 x_3_ + 78 y_3_ + [ 1 x_3_ ^ 2 + 1 y_3_ ^ 2 ] <= 27479.49849122957
c58: -56 x_4_ + 78 y_4_ + [ 1 x_4_ ^ 2 + 1 y_4_ ^ 2 ] <= 23192.01674357556
c59: -56 x_5_ + 78 y_5_ + [ 1 x_5_ ^ 2 + 1 y_5_ ^ 2 ] <= 26220.692948810633
c60: -56 x_6_ + 78 y_6_ + [ 1 x_6_ ^ 2 + 1 y_6_ ^ 2 ] <= 91449.24012576583
c61: -56 x_7_ + 78 y_7_ + [ 1 x_7_ ^ 2 + 1 y_7_ ^ 2 ] <= 12903.58
c62: -56 x_8_ + 78 y_8_ + [ 1 x_8_ ^ 2 + 1 y_8_ ^ 2 ] <= 37609.76750461333
c63: -56 x_9_ + 78 y_9_ + [ 1 x_9_ ^ 2 + 1 y_9_ ^ 2 ] <= -1476.8000000000002
c64: -56 x_10_ + 78 y_10_ + [ 1 x_10_ ^ 2 + 1 y_10_ ^ 2 ] <= 10128.527465329242
c65: -56 x_11_ + 78 y_11_ + [ 1 x_11_ ^ 2 + 1 y_11_ ^ 2 ] <= 7063.632835911945
c66: -56 x_12_ + 78 y_12_ + [ 1 x_12_ ^ 2 + 1 y_12_ ^ 2 ] <= 101163.13823954451
c67: -56 x_13_ + 78 y_13_ + [ 1 x_13_ ^ 2 + 1 y_13_ ^ 2 ] <= 25668.601137766822
c68: -56 x_14_ + 78 y_14_ + [ 1 x_14_ ^ 2 + 1 y_14_ ^ 2 ] <= 53072.19218800932
c69: -56 x_15_ + 78 y_15_ + [ 1 x_15_ ^ 2 + 1 y_15_ ^ 2 ] <= 30757.31209907255
c70: -56 x_16_ + 78 y_16_ + [ 1 x_16_ ^ 2 + 1 y_16_ ^ 2 ] <= 29729.926340690712
c71: -56 x_17_ + 78 y_17_ + [ 1 x_17_ ^ 2 + 1 y_17_ ^ 2 ] <= 75987.3688067314
c72: -56 x_18_ + 78 y_18_ + [ 1 x_18_ ^ 2 + 1 y_18_ ^ 2 ] <= 25179.454482721878
c73: -56 x_19_ + 78 y_19_ + [ 1 x_19_ ^ 2 + 1 y_19_ ^ 2 ] <= 10158.399999999998
c74: -56 x_20_ + 78 y_20_ + [ 1 x_20_ ^ 2 + 1 y_20_ ^ 2 ] <= 14355.267894164976
c75: -56 x_21_ + 78 y_21_ + [ 1 x_21_ ^ 2 + 1 y_21_ ^ 2 ] <= 35419.30718548536
c76: -56 x_22_ + 78 y_22_ + [ 1 x_22_ ^ 2 + 1 y_22_ ^ 2 ] <= 18764.058005396073
c77: -56 x_23_ + 78 y_23_ + [ 1 x_23_ ^ 2 + 1 y_23_ ^ 2 ] <= 43487.739026961586
c78: -56 x_24_ + 78 y_24_ + [ 1 x_24_ ^ 2 + 1 y_24_ ^ 2 ] <= 62661.41489493078
c79: -56 x_25_ + 78 y_25_ + [ 1 x_25_ ^ 2 + 1 y_25_ ^ 2 ] <= 77885.22260036689
c80: -56 x_27_ + 78 y_27_ + [ 1 x_27_ ^ 2 + 1 y_27_ ^ 2 ] <= 35992.149149630284
c81: -56 x_28_ + 78 y_28_ + [ 1 x_28_ ^ 2 + 1 y_28_ ^ 2 ] <= 44040.52196031945
quadratic_ranged_1_ub: [ 1 x_1_ ^ 2 - 2 x_2_ * x_1_ + 1 x_2_ ^ 2 + 1 y_1_ ^ 2 - 2 y_2_ * y_1_ + 1 y_2_ ^ 2 ] <= 15281.3
quadratic_ranged_2_ub: [ 1 x_1_ ^ 2 - 2 x_3_ * x_1_ + 1 x_3_ ^ 2 + 1 y_1_ ^ 2 - 2 y_3_ * y_1_ + 1 y_3_ ^ 2 ] <= 8419.36
quadratic_ranged_3_ub: [ 1 x_1_ ^ 2 - 2 x_4_ * x_1_ + 1 x_4_ ^ 2 + 1 y_1_ ^ 2 - 2 y_4_ * y_1_ + 1 y_4_ ^ 2 ] <= 20952.45
quadratic_ranged_4_ub: [ 1 x_5_ ^ 2 - 2 x_6_ * x_5_ + 1 x_6_ ^ 2 + 1 y_5_ ^ 2 - 2 y_6_ * y_5_ + 1 y_6_ ^ 2 ] <= 18850.64
quadratic_ranged_5_ub: [ 1 x_2_ ^ 2 - 2 x_8_ * x_2_ + 1 x_8_ ^ 2 + 1 y_2_ ^ 2 - 2 y_8_ * y_2_ + 1 y_8_ ^ 2 ] <= 18124.45
quadratic_ranged_6_ub: [ 1 x_3_ ^ 2 - 2 x_8_ * x_3_ + 1 x_8_ ^ 2 + 1 y_3_ ^ 2 - 2 y_8_ * y_3_ + 1 y_8_ ^ 2 ] <= 6331.6900000000005
quadratic_ranged_7_ub: [ 1 x_6_ ^ 2 - 2 x_8_ * x_6_ + 1 x_8_ ^ 2 + 1 y_6_ ^ 2 - 2 y_8_ * y_6_ + 1 y_8_ ^ 2 ] <= 13529.960000000001
quadratic_ranged_8_ub: [ 1 x_1_ ^ 2 - 2 x_9_ * x_1_ + 1 x_9_ ^ 2 + 1 y_1_ ^ 2 - 2 y_9_ * y_1_ + 1 y_9_ ^ 2 ] <= 2708.82
quadratic_ranged_9_ub: [ 1 x_4_ ^ 2 - 2 x_9_ * x_4_ + 1 x_9_ ^ 2 + 1 y_4_ ^ 2 - 2 y_9_ * y_4_ + 1 y_9_ ^ 2 ] <= 17134.65
quadratic_ranged_10_ub: [ 1 x_1_ ^ 2 - 2 x_10_ * x_1_ + 1 x_10_ ^ 2 + 1 y_1_ ^ 2 - 2 y_10_ * y_1_ + 1 y_10_ ^ 2 ] <= 941.32
quadratic_ranged_11_ub: [ 1 x_7_ ^ 2 - 2 x_10_ * x_7_ + 1 x_10_ ^ 2 + 1 y_7_ ^ 2 - 2 y_10_ * y_7_ + 1 y_10_ ^ 2 ] <= 9090
quadratic_ranged_12_ub: [ 1 x_2_ ^ 2 - 2 x_11_ * x_2_ + 1 x_11_ ^ 2 + 1 y_2_ ^ 2 - 2 y_11_ * y_2_ + 1 y_11_ ^ 2 ] <= 20232.32
quadratic_ranged_13_ub: [ 1 x_7_ ^ 2 - 2 x_11_ * x_7_ + 1 x_11_ ^ 2 + 1 y_7_ ^ 2 - 2 y_11_ * y_7_ + 1 y_11_ ^ 2 ] <= 12526.02
quadratic_ranged_14_ub: [ 1 x_9_ ^ 2 - 2 x_11_ * x_9_ + 1 x_11_ ^ 2 + 1 y_9_ ^ 2 - 2 y_11_ * y_9_ + 1 y_11_ ^ 2 ] <= 4625.8
quadratic_ranged_15_ub: [ 1 x_4_ ^ 2 - 2 x_12_ * x_4_ + 1 x_12_ ^ 2 + 1 y_4_ ^ 2 - 2 y_12_ * y_4_ + 1 y_12_ ^ 2 ] <= 50598.98
quadratic_ranged_16_ub: [ 1 x_10_ ^ 2 - 2 x_13_ * x_10_ + 1 x_13_ ^ 2 + 1 y_10_ ^ 2 - 2 y_13_ * y_10_ + 1 y_13_ ^ 2 ] <= 3107.77
quadratic_ranged_17_ub: [ 1 x_11_ ^ 2 - 2 x_13_ * x_11_ + 1 x_13_ ^ 2 + 1 y_11_ ^ 2 - 2 y_13_ * y_11_ + 1 y_13_ ^ 2 ] <= 5325.7300000000005
quadratic_ranged_18_ub: [ 1 x_5_ ^ 2 - 2 x_14_ * x_5_ + 1 x_14_ ^ 2 + 1 y_5_ ^ 2 - 2 y_14_ * y_5_ + 1 y_14_ ^ 2 ] <= 4412.69
quadratic_ranged_19_ub: [ 1 x_13_ ^ 2 - 2 x_14_ * x_13_ + 1 x_14_ ^ 2 + 1 y_13_ ^ 2 - 2 y_14_ * y_13_ + 1 y_14_ ^ 2 ] <= 6792.25
quadratic_ranged_20_ub: [ 1 x_5_ ^ 2 - 2 x_15_ * x_5_ + 1 x_15_ ^ 2 + 1 y_5_ ^ 2 - 2 y_15_ * y_5_ + 1 y_15_ ^ 2 ] <= 5272.2
quadratic_ranged_21_ub: [ 1 x_12_ ^ 2 - 2 x_15_ * x_12_ + 1 x_15_ ^ 2 + 1 y_12_ ^ 2 - 2 y_15_ * y_12_ + 1 y_15_ ^ 2 ] <= 19553.6
quadratic_ranged_22_ub: [ 1 x_3_ ^ 2 - 2 x_16_ * x_3_ + 1 x_16_ ^ 2 + 1 y_3_ ^ 2 - 2 y_16_ * y_3_ + 1 y_16_ ^ 2 ] <= 20284.84
quadratic_ranged_23_ub: [ 1 x_4_ ^ 2 - 2 x_16_ * x_4_ + 1 x_16_ ^ 2 + 1 y_4_ ^ 2 - 2 y_16_ * y_4_ + 1 y_16_ ^ 2 ] <= 372.69
quadratic_ranged_24_ub: [ 1 x_6_ ^ 2 - 2 x_16_ * x_6_ + 1 x_16_ ^ 2 + 1 y_6_ ^ 2 - 2 y_16_ * y_6_ + 1 y_16_ ^ 2 ] <= 19841.45
quadratic_ranged_25_ub: [ 1 x_3_ ^ 2 - 2 x_17_ * x_3_ + 1 x_17_ ^ 2 + 1 y_3_ ^ 2 - 2 y_17_ * y_3_ + 1 y_17_ ^ 2 ] <= 33819.85
quadratic_ranged_26_ub: [ 1 x_7_ ^ 2 - 2 x_17_ * x_7_ + 1 x_17_ ^ 2 + 1 y_7_ ^ 2 - 2 y_17_ * y_7_ + 1 y_17_ ^ 2 ] <= 24487.45
quadratic_ranged_27_ub: [ 1 x_10_ ^ 2 - 2 x_18_ * x_10_ + 1 x_18_ ^ 2 + 1 y_10_ ^ 2 - 2 y_18_ * y_10_ + 1 y_18_ ^ 2 ] <= 2946.17
quadratic_ranged_28_ub: [ 1 x_2_ ^ 2 - 2 x_19_ * x_2_ + 1 x_19_ ^ 2 + 1 y_2_ ^ 2 - 2 y_19_ * y_2_ + 1 y_19_ ^ 2 ] <= 26474.12
quadratic_ranged_29_ub: [ 1 x_8_ ^ 2 - 2 x_19_ * x_8_ + 1 x_19_ ^ 2 + 1 y_8_ ^ 2 - 2 y_19_ * y_8_ + 1 y_19_ ^ 2 ] <= 7769.93
quadratic_ranged_30_ub: [ 1 x_1_ ^ 2 - 2 x_20_ * x_1_ + 1 x_20_ ^ 2 + 1 y_1_ ^ 2 - 2 y_20_ * y_1_ + 1 y_20_ ^ 2 ] <= 2328.05
quadratic_ranged_31_ub: [ 1 x_5_ ^ 2 - 2 x_20_ * x_5_ + 1 x_20_ ^ 2 + 1 y_5_ ^ 2 - 2 y_20_ * y_5_ + 1 y_20_ ^ 2 ] <= 1585.7
quadratic_ranged_32_ub: [ 1 x_19_ ^ 2 - 2 x_20_ * x_19_ + 1 x_20_ ^ 2 + 1 y_19_ ^ 2 - 2 y_20_ * y_19_ + 1 y_20_ ^ 2 ] <= 20043.45
quadratic_ranged_33_ub: [ 1 x_14_ ^ 2 - 2 x_21_ * x_14_ + 1 x_21_ ^ 2 + 1 y_14_ ^ 2 - 2 y_21_ * y_14_ + 1 y_21_ ^ 2 ] <= 13826.9
quadratic_ranged_34_ub: [ 1 x_18_ ^ 2 - 2 x_21_ * x_18_ + 1 x_21_ ^ 2 + 1 y_18_ ^ 2 - 2 y_21_ * y_18_ + 1 y_21_ ^ 2 ] <= 809.01
quadratic_ranged_35_ub: [ 1 x_1_ ^ 2 - 2 x_22_ * x_1_ + 1 x_22_ ^ 2 + 1 y_1_ ^ 2 - 2 y_22_ * y_1_ + 1 y_22_ ^ 2 ] <= 4137.97
quadratic_ranged_36_ub: [ 1 x_13_ ^ 2 - 2 x_22_ * x_13_ + 1 x_22_ ^ 2 + 1 y_13_ ^ 2 - 2 y_22_ * y_13_ + 1 y_22_ ^ 2 ] <= 6092.32
quadratic_ranged_37_ub: [ 1 x_15_ ^ 2 - 2 x_22_ * x_15_ + 1 x_22_ ^ 2 + 1 y_15_ ^ 2 - 2 y_22_ * y_15_ + 1 y_22_ ^ 2 ] <= 1345.32
quadratic_ranged_38_ub: [ 1 x_2_ ^ 2 - 2 x_23_ * x_2_ + 1 x_23_ ^ 2 + 1 y_2_ ^ 2 - 2 y_23_ * y_2_ + 1 y_23_ ^ 2 ] <= 24595.52
quadratic_ranged_39_ub: [ 1 x_11_ ^ 2 - 2 x_23_ * x_11_ + 1 x_23_ ^ 2 + 1 y_11_ ^ 2 - 2 y_23_ * y_11_ + 1 y_23_ ^ 2 ] <= 13736
quadratic_ranged_40_ub: [ 1 x_3_ ^ 2 - 2 x_24_ * x_3_ + 1 x_24_ ^ 2 + 1 y_3_ ^ 2 - 2 y_24_ * y_3_ + 1 y_24_ ^ 2 ] <= 11564.5
quadratic_ranged_41_ub: [ 1 x_5_ ^ 2 - 2 x_24_ * x_5_ + 1 x_24_ ^ 2 + 1 y_5_ ^ 2 - 2 y_24_ * y_5_ + 1 y_24_ ^ 2 ] <= 7394.21
quadratic_ranged_42_ub: [ 1 x_7_ ^ 2 - 2 x_24_ * x_7_ + 1 x_24_ ^ 2 + 1 y_7_ ^ 2 - 2 y_24_ * y_7_ + 1 y_24_ ^ 2 ] <= 20218.18
quadratic_ranged_43_ub: [ 1 x_6_ ^ 2 - 2 x_25_ * x_6_ + 1 x_25_ ^ 2 + 1 y_6_ ^ 2 - 2 y_25_ * y_6_ + 1 y_25_ ^ 2 ] <= 32931.05
quadratic_ranged_44_ub: [ 1 x_18_ ^ 2 - 2 x_25_ * x_18_ + 1 x_25_ ^ 2 + 1 y_18_ ^ 2 - 2 y_25_ * y_18_ + 1 y_25_ ^ 2 ] <= 13781.45
quadratic_ranged_45_ub: [ 1 x_21_ ^ 2 - 2 x_25_ * x_21_ + 1 x_25_ ^ 2 + 1 y_21_ ^ 2 - 2 y_25_ * y_21_ + 1 y_25_ ^ 2 ] <= 19929.32
quadratic_ranged_46_ub: [ 1 x_7_ ^ 2 - 2 x_26_ * x_7_ + 1 x_26_ ^ 2 + 1 y_7_ ^ 2 - 2 y_26_ * y_7_ + 1 y_26_ ^ 2 ] <= 15208.58
quadratic_ranged_47_ub: [ 1 x_9_ ^ 2 - 2 x_26_ * x_9_ + 1 x_26_ ^ 2 + 1 y_9_ ^ 2 - 2 y_26_ * y_9_ + 1 y_26_ ^ 2 ] <= 828.2
quadratic_ranged_48_ub: [ 1 x_19_ ^ 2 - 2 x_26_ * x_19_ + 1 x_26_ ^ 2 + 1 y_19_ ^ 2 - 2 y_26_ * y_19_ + 1 y_26_ ^ 2 ] <= 12463.4
quadratic_ranged_49_ub: [ 1 x_3_ ^ 2 - 2 x_27_ * x_3_ + 1 x_27_ ^ 2 + 1 y_3_ ^ 2 - 2 y_27_ * y_3_ + 1 y_27_ ^ 2 ] <= 534.29
quadratic_ranged_50_ub: [ 1 x_12_ ^ 2 - 2 x_27_ * x_12_ + 1 x_27_ ^ 2 + 1 y_12_ ^ 2 - 2 y_27_ * y_12_ + 1 y_27_ ^ 2 ] <= 16315.54
quadratic_ranged_51_ub: [ 1 x_2_ ^ 2 - 2 x_28_ * x_2_ + 1 x_28_ ^ 2 + 1 y_2_ ^ 2 - 2 y_28_ * y_2_ + 1 y_28_ ^ 2 ] <= 29415.24
quadratic_ranged_52_ub: [ 1 x_4_ ^ 2 - 2 x_28_ * x_4_ + 1 x_28_ ^ 2 + 1 y_4_ ^ 2 - 2 y_28_ * y_4_ + 1 y_28_ ^ 2 ] <= 3091.61
quadratic_ranged_53_ub: [ 1 x_23_ ^ 2 - 2 x_28_ * x_23_ + 1 x_28_ ^ 2 + 1 y_23_ ^ 2 - 2 y_28_ * y_23_ + 1 y_28_ ^ 2 ] <= 62106.92
quadratic_ranged_1_lb: [ 1 x_1_ ^ 2 - 2 x_2_ * x_1_ + 1 x_2_ ^ 2 + 1 y_1_ ^ 2 - 2 y_2_ * y_1_ + 1 y_2_ ^ 2 ] >= 14978.7
quadratic_ranged_2_lb: [ 1 x_1_ ^ 2 - 2 x_3_ * x_1_ + 1 x_3_ ^ 2 + 1 y_1_ ^ 2 - 2 y_3_ * y_1_ + 1 y_3_ ^ 2 ] >= 8252.64
quadratic_ranged_3_lb: [ 1 x_1_ ^ 2 - 2 x_4_ * x_1_ + 1 x_4_ ^ 2 + 1 y_1_ ^ 2 - 2 y_4_ * y_1_ + 1 y_4_ ^ 2 ] >= 20537.55
quadratic_ranged_4_lb: [ 1 x_5_ ^ 2 - 2 x_6_ * x_5_ + 1 x_6_ ^ 2 + 1 y_5_ ^ 2 - 2 y_6_ * y_5_ + 1 y_6_ ^ 2 ] >= 18477.36
quadratic_ranged_5_lb: [ 1 x_2_ ^ 2 - 2 x_8_ * x_2_ + 1 x_8_ ^ 2 + 1 y_2_ ^ 2 - 2 y_8_ * y_2_ + 1 y_8_ ^ 2 ] >= 17765.55
quadratic_ranged_6_lb: [ 1 x_3_ ^ 2 - 2 x_8_ * x_3_ + 1 x_8_ ^ 2 + 1 y_3_ ^ 2 - 2 y_8_ * y_3_ + 1 y_8_ ^ 2 ] >= 6206.3099999999995
quadratic_ranged_7_lb: [ 1 x_6_ ^ 2 - 2 x_8_ * x_6_ + 1 x_8_ ^ 2 + 1 y_6_ ^ 2 - 2 y_8_ * y_6_ + 1 y_8_ ^ 2 ] >= 13262.039999999999
quadratic_ranged_8_lb: [ 1 x_1_ ^ 2 - 2 x_9_ * x_1_ + 1 x_9_ ^ 2 + 1 y_1_ ^ 2 - 2 y_9_ * y_1_ + 1 y_9_ ^ 2 ] >= 2655.18
quadratic_ranged_9_lb: [ 1 x_4_ ^ 2 - 2 x_9_ * x_4_ + 1 x_9_ ^ 2 + 1 y_4_ ^ 2 - 2 y_9_ * y_4_ + 1 y_9_ ^ 2 ] >= 16795.35
quadratic_ranged_10_lb: [ 1 x_1_ ^ 2 - 2 x_10_ * x_1_ + 1 x_10_ ^ 2 + 1 y_1_ ^ 2 - 2 y_10_ * y_1_ + 1 y_10_ ^ 2 ] >= 922.68
quadratic_ranged_11_lb: [ 1 x_7_ ^ 2 - 2 x_10_ * x_7_ + 1 x_10_ ^ 2 + 1 y_7_ ^ 2 - 2 y_10_ * y_7_ + 1 y_10_ ^ 2 ] >= 8910
quadratic_ranged_12_lb: [ 1 x_2_ ^ 2 - 2 x_11_ * x_2_ + 1 x_11_ ^ 2 + 1 y_2_ ^ 2 - 2 y_11_ * y_2_ + 1 y_11_ ^ 2 ] >= 19831.68
quadratic_ranged_13_lb: [ 1 x_7_ ^ 2 - 2 x_11_ * x_7_ + 1 x_11_ ^ 2 + 1 y_7_ ^ 2 - 2 y_11_ * y_7_ + 1 y_11_ ^ 2 ] >= 12277.98
quadratic_ranged_14_lb: [ 1 x_9_ ^ 2 - 2 x_11_ * x_9_ + 1 x_11_ ^ 2 + 1 y_9_ ^ 2 - 2 y_11_ * y_9_ + 1 y_11_ ^ 2 ] >= 4534.2
quadratic_ranged_15_lb: [ 1 x_4_ ^ 2 - 2 x_12_ * x_4_ + 1 x_12_ ^ 2 + 1 y_4_ ^ 2 - 2 y_12_ * y_4_ + 1 y_12_ ^ 2 ] >= 49597.02
quadratic_ranged_16_lb: [ 1 x_10_ ^ 2 - 2 x_13_ * x_10_ + 1 x_13_ ^ 2 + 1 y_10_ ^ 2 - 2 y_13_ * y_10_ + 1 y_13_ ^ 2 ] >= 3046.23
quadratic_ranged_17_lb: [ 1 x_11_ ^ 2 - 2 x_13_ * x_11_ + 1 x_13_ ^ 2 + 1 y_11_ ^ 2 - 2 y_13_ * y_11_ + 1 y_13_ ^ 2 ] >= 5220.2699999999995
quadratic_ranged_18_lb: [ 1 x_5_ ^ 2 - 2 x_14_ * x_5_ + 1 x_14_ ^ 2 + 1 y_5_ ^ 2 - 2 y_14_ * y_5_ + 1 y_14_ ^ 2 ] >= 4325.31
quadratic_ranged_19_lb: [ 1 x_13_ ^ 2 - 2 x_14_ * x_13_ + 1 x_14_ ^ 2 + 1 y_13_ ^ 2 - 2 y_14_ * y_13_ + 1 y_14_ ^ 2 ] >= 6657.75
quadratic_ranged_20_lb: [ 1 x_5_ ^ 2 - 2 x_15_ * x_5_ + 1 x_15_ ^ 2 + 1 y_5_ ^ 2 - 2 y_15_ * y_5_ + 1 y_15_ ^ 2 ] >= 5167.8
quadratic_ranged_21_lb: [ 1 x_12_ ^ 2 - 2 x_15_ * x_12_ + 1 x_15_ ^ 2 + 1 y_12_ ^ 2 - 2 y_15_ * y_12_ + 1 y_15_ ^ 2 ] >= 19166.4
quadratic_ranged_22_lb: [ 1 x_3_ ^ 2 - 2 x_16_ * x_3_ + 1 x_16_ ^ 2 + 1 y_3_ ^ 2 - 2 y_16_ * y_3_ + 1 y_16_ ^ 2 ] >= 19883.16
quadratic_ranged_23_lb: [ 1 x_4_ ^ 2 - 2 x_16_ * x_4_ + 1 x_16_ ^ 2 + 1 y_4_ ^ 2 - 2 y_16_ * y_4_ + 1 y_16_ ^ 2 ] >= 365.31
quadratic_ranged_24_lb: [ 1 x_6_ ^ 2 - 2 x_16_ * x_6_ + 1 x_16_ ^ 2 + 1 y_6_ ^ 2 - 2 y_16_ * y_6_ + 1 y_16_ ^ 2 ] >= 19448.55
quadratic_ranged_25_lb: [ 1 x_3_ ^ 2 - 2 x_17_ * x_3_ + 1 x_17_ ^ 2 + 1 y_3_ ^ 2 - 2 y_17_ * y_3_ + 1 y_17_ ^ 2 ] >= 33150.15
quadratic_ranged_26_lb: [ 1 x_7_ ^ 2 - 2 x_17_ * x_7_ + 1 x_17_ ^ 2 + 1 y_7_ ^ 2 - 2 y_17_ * y_7_ + 1 y_17_ ^ 2 ] >= 24002.55
quadratic_ranged_27_lb: [ 1 x_10_ ^ 2 - 2 x_18_ * x_10_ + 1 x_18_ ^ 2 + 1 y_10_ ^ 2 - 2 y_18_ * y_10_ + 1 y_18_ ^ 2 ] >= 2887.83
quadratic_ranged_28_lb: [ 1 x_2_ ^ 2 - 2 x_19_ * x_2_ + 1 x_19_ ^ 2 + 1 y_2_ ^ 2 - 2 y_19_ * y_2_ + 1 y_19_ ^ 2 ] >= 25949.88
quadratic_ranged_29_lb: [ 1 x_8_ ^ 2 - 2 x_19_ * x_8_ + 1 x_19_ ^ 2 + 1 y_8_ ^ 2 - 2 y_19_ * y_8_ + 1 y_19_ ^ 2 ] >= 7616.07
quadratic_ranged_30_lb: [ 1 x_1_ ^ 2 - 2 x_20_ * x_1_ + 1 x_20_ ^ 2 + 1 y_1_ ^ 2 - 2 y_20_ * y_1_ + 1 y_20_ ^ 2 ] >= 2281.95
quadratic_ranged_31_lb: [ 1 x_5_ ^ 2 - 2 x_20_ * x_5_ + 1 x_20_ ^ 2 + 1 y_5_ ^ 2 - 2 y_20_ * y_5_ + 1 y_20_ ^ 2 ] >= 1554.3
quadratic_ranged_32_lb: [ 1 x_19_ ^ 2 - 2 x_20_ * x_19_ + 1 x_20_ ^ 2 + 1 y_19_ ^ 2 - 2 y_20_ * y_19_ + 1 y_20_ ^ 2 ] >= 19646.55
quadratic_ranged_33_lb: [ 1 x_14_ ^ 2 - 2 x_21_ * x_14_ + 1 x_21_ ^ 2 + 1 y_14_ ^ 2 - 2 y_21_ * y_14_ + 1 y_21_ ^ 2 ] >= 13553.1
quadratic_ranged_34_lb: [ 1 x_18_ ^ 2 - 2 x_21_ * x_18_ + 1 x_21_ ^ 2 + 1 y_18_ ^ 2 - 2 y_21_ * y_18_ + 1 y_21_ ^ 2 ] >= 792.99
quadratic_ranged_35_lb: [ 1 x_1_ ^ 2 - 2 x_22_ * x_1_ + 1 x_22_ ^ 2 + 1 y_1_ ^ 2 - 2 y_22_ * y_1_ + 1 y_22_ ^ 2 ] >= 4056.0299999999997
quadratic_ranged_36_lb: [ 1 x_13_ ^ 2 - 2 x_22_ * x_13_ + 1 x_22_ ^ 2 + 1 y_13_ ^ 2 - 2 y_22_ * y_13_ + 1 y_22_ ^ 2 ] >= 5971.68
quadratic_ranged_37_lb: [ 1 x_15_ ^ 2 - 2 x_22_ * x_15_ + 1 x_22_ ^ 2 + 1 y_15_ ^ 2 - 2 y_22_ * y_15_ + 1 y_22_ ^ 2 ] >= 1318.68
quadratic_ranged_38_lb: [ 1 x_2_ ^ 2 - 2 x_23_ * x_2_ + 1 x_23_ ^ 2 + 1 y_2_ ^ 2 - 2 y_23_ * y_2_ + 1 y_23_ ^ 2 ] >= 24108.48
quadratic_ranged_39_lb: [ 1 x_11_ ^ 2 - 2 x_23_ * x_11_ + 1 x_23_ ^ 2 + 1 y_11_ ^ 2 - 2 y_23_ * y_11_ + 1 y_23_ ^ 2 ] >= 13464
quadratic_ranged_40_lb: [ 1 x_3_ ^ 2 - 2 x_24_ * x_3_ + 1 x_24_ ^ 2 + 1 y_3_ ^ 2 - 2 y_24_ * y_3_ + 1 y_24_ ^ 2 ] >= 11335.5
quadratic_ranged_41_lb: [ 1 x_5_ ^ 2 - 2 x_24_ * x_5_ + 1 x_24_ ^ 2 + 1 y_5_ ^ 2 - 2 y_24_ * y_5_ + 1 y_24_ ^ 2 ] >= 7247.79
quadratic_ranged_42_lb: [ 1 x_7_ ^ 2 - 2 x_24_ * x_7_ + 1 x_24_ ^ 2 + 1 y_7_ ^ 2 - 2 y_24_ * y_7_ + 1 y_24_ ^ 2 ] >= 19817.82
quadratic_ranged_43_lb: [ 1 x_6_ ^ 2 - 2 x_25_ * x_6_ + 1 x_25_ ^ 2 + 1 y_6_ ^ 2 - 2 y_25_ * y_6_ + 1 y_25_ ^ 2 ] >= 32278.95
quadratic_ranged_44_lb: [ 1 x_18_ ^ 2 - 2 x_25_ * x_18_ + 1 x_25_ ^ 2 + 1 y_18_ ^ 2 - 2 y_25_ * y_18_ + 1 y_25_ ^ 2 ] >= 13508.55
quadratic_ranged_45_lb: [ 1 x_21_ ^ 2 - 2 x_25_ * x_21_ + 1 x_25_ ^ 2 + 1 y_21_ ^ 2 - 2 y_25_ * y_21_ + 1 y_25_ ^ 2 ] >= 19534.68
quadratic_ranged_46_lb: [ 1 x_7_ ^ 2 - 2 x_26_ * x_7_ + 1 x_26_ ^ 2 + 1 y_7_ ^ 2 - 2 y_26_ * y_7_ + 1 y_26_ ^ 2 ] >= 14907.42
quadratic_ranged_47_lb: [ 1 x_9_ ^ 2 - 2 x_26_ * x_9_ + 1 x_26_ ^ 2 + 1 y_9_ ^ 2 - 2 y_26_ * y_9_ + 1 y_26_ ^ 2 ] >= 811.8
quadratic_ranged_48_lb: [ 1 x_19_ ^ 2 - 2 x_26_ * x_19_ + 1 x_26_ ^ 2 + 1 y_19_ ^ 2 - 2 y_26_ * y_19_ + 1 y_26_ ^ 2 ] >= 12216.6
quadratic_ranged_49_lb: [ 1 x_3_ ^ 2 - 2 x_27_ * x_3_ + 1 x_27_ ^ 2 + 1 y_3_ ^ 2 - 2 y_27_ * y_3_ + 1 y_27_ ^ 2 ] >= 523.71
quadratic_ranged_50_lb: [ 1 x_12_ ^ 2 - 2 x_27_ * x_12_ + 1 x_27_ ^ 2 + 1 y_12_ ^ 2 - 2 y_27_ * y_12_ + 1 y_27_ ^ 2 ] >= 15992.46
quadratic_ranged_51_lb: [ 1 x_2_ ^ 2 - 2 x_28_ * x_2_ + 1 x_28_ ^ 2 + 1 y_2_ ^ 2 - 2 y_28_ * y_2_ + 1 y_28_ ^ 2 ] >= 28832.76
quadratic_ranged_52_lb: [ 1 x_4_ ^ 2 - 2 x_28_ * x_4_ + 1 x_28_ ^ 2 + 1 y_4_ ^ 2 - 2 y_28_ * y_4_ + 1 y_28_ ^ 2 ] >= 3030.39
quadratic_ranged_53_lb: [ 1 x_23_ ^ 2 - 2 x_28_ * x_23_ + 1 x_28_ ^ 2 + 1 y_23_ ^ 2 - 2 y_28_ * y_23_ + 1 y_28_ ^ 2 ] >= 60877.08
c1_1: 1 x_14_ = 13
c2_1: 1 y_14_ = -22
c3_1: 1 x_9_ = 0
c4_1: 1 y_9_ = -33
c5_1: 1 x_26_ = 28
c6_1: 1 y_26_ = -39
Bounds
-52 <= x_1_ <= 52
-175 <= x_2_ <= 175
-143 <= x_3_ <= 143
-130 <= x_4_ <= 130
-53 <= x_5_ <= 79
-190 <= x_6_ <= 216
-95 <= x_7_ <= 151
-171 <= x_8_ <= 223
x_9_ = 0
-82 <= x_10_ <= 82
-68 <= x_11_ <= 68
-265 <= x_12_ <= 291
-69 <= x_13_ <= 95
x_14_ = 13
-126 <= x_15_ <= 152
-150 <= x_16_ <= 150
-251 <= x_17_ <= 307
-133 <= x_18_ <= 137
-83 <= x_19_ <= 139
-93 <= x_20_ <= 100
-104 <= x_21_ <= 130
-116 <= x_22_ <= 116
-185 <= x_23_ <= 185
-139 <= x_24_ <= 165
-245 <= x_25_ <= 254
x_26_ = 28
-166 <= x_27_ <= 166
-186 <= x_28_ <= 186
-85 <= y_1_ <= 19
-208 <= y_2_ <= 142
-176 <= y_3_ <= 110
-163 <= y_4_ <= 97
-88 <= y_5_ <= 44
-225 <= y_6_ <= 181
-162 <= y_7_ <= 84
-238 <= y_8_ <= 160
y_9_ = -33
-115 <= y_10_ <= 49
-101 <= y_11_ <= 35
-300 <= y_12_ <= 256
-104 <= y_13_ <= 60
y_14_ = -22
-161 <= y_15_ <= 117
-183 <= y_16_ <= 117
-318 <= y_17_ <= 240
-168 <= y_18_ <= 104
-150 <= y_19_ <= 72
-128 <= y_20_ <= 67
-139 <= y_21_ <= 95
-149 <= y_22_ <= 83
-218 <= y_23_ <= 152
-174 <= y_24_ <= 130
-280 <= y_25_ <= 221
y_26_ = -39
-199 <= y_27_ <= 133
-219 <= y_28_ <= 153
General
x_1_
x_2_
x_3_
x_4_
x_5_
x_6_
x_7_
x_8_
x_9_
x_10_
x_11_
x_12_
x_13_
x_14_
x_15_
x_16_
x_17_
x_18_
x_19_
x_20_
x_21_
x_22_
x_23_
x_24_
x_25_
x_26_
x_27_
x_28_
y_1_
y_2_
y_3_
y_4_
y_5_
y_6_
y_7_
y_8_
y_9_
y_10_
y_11_
y_12_
y_13_
y_14_
y_15_
y_16_
y_17_
y_18_
y_19_
y_20_
y_21_
y_22_
y_23_
y_24_
y_25_
y_26_
y_27_
y_28_
End
