minimize
obj: 
subject to
c1_3: -1 x_8_ + 1 y_8_ <= 0
c1: [ 1 x_1_ ^ 2 + 1 y_1_ ^ 2 ] <= 34999.20414574691
c2: [ 1 x_2_ ^ 2 + 1 y_2_ ^ 2 ] <= 18070.533006697384
c3: [ 1 x_3_ ^ 2 + 1 y_3_ ^ 2 ] <= 47690.21838482158
c4: [ 1 x_4_ ^ 2 + 1 y_4_ ^ 2 ] <= 22510.145900436313
c5: [ 1 x_5_ ^ 2 + 1 y_5_ ^ 2 ] <= 60361.2704892895
c6: [ 1 x_6_ ^ 2 + 1 y_6_ ^ 2 ] <= 54652.2609113207
c7: [ 1 x_7_ ^ 2 + 1 y_7_ ^ 2 ] <= 31532.852593712432
c8: [ 1 x_8_ ^ 2 + 1 y_8_ ^ 2 ] <= 67131.23608172969
c9: [ 1 x_9_ ^ 2 + 1 y_9_ ^ 2 ] <= 9479.859999999999
c10: [ 1 x_10_ ^ 2 + 1 y_10_ ^ 2 ] <= 12679.640909182745
c11: [ 1 x_11_ ^ 2 + 1 y_11_ ^ 2 ] <= 47496.736641959884
c12: [ 1 x_12_ ^ 2 + 1 y_12_ ^ 2 ] <= 38130.146895493905
c13: [ 1 x_13_ ^ 2 + 1 y_13_ ^ 2 ] <= 48933.00168872727
c14: [ 1 x_14_ ^ 2 + 1 y_14_ ^ 2 ] <= 48617.56076397452
c15: [ 1 x_16_ ^ 2 + 1 y_16_ ^ 2 ] <= 1758.4099999999996
c16: [ 1 x_17_ ^ 2 + 1 y_17_ ^ 2 ] <= 47822.09367250745
c17: [ 1 x_18_ ^ 2 + 1 y_18_ ^ 2 ] <= 36650.27203895864
c18: [ 1 x_19_ ^ 2 + 1 y_19_ ^ 2 ] <= 32735.57687772899
c19: [ 1 x_20_ ^ 2 + 1 y_20_ ^ 2 ] <= 20225.249999999993
c20: [ 1 x_21_ ^ 2 + 1 y_21_ ^ 2 ] <= 26996.82673213819
c21: [ 1 x_22_ ^ 2 + 1 y_22_ ^ 2 ] <= 28302.986532305753
c22: [ 1 x_23_ ^ 2 + 1 y_23_ ^ 2 ] <= 9064.414842764669
c23: [ 1 x_24_ ^ 2 + 1 y_24_ ^ 2 ] <= 48020.45
c24: [ 1 x_25_ ^ 2 + 1 y_25_ ^ 2 ] <= 53588.46532998803
c25: [ 1 x_26_ ^ 2 + 1 y_26_ ^ 2 ] <= 52941.74413653
c26: [ 1 x_27_ ^ 2 + 1 y_27_ ^ 2 ] <= 57057.97212957705
c27: [ 1 x_28_ ^ 2 + 1 y_28_ ^ 2 ] <= 7434.610000000001
quadratic_ranged_1_ub: [ 1 x_1_ ^ 2 - 2 x_2_ * x_1_ + 1 x_2_ ^ 2 + 1 y_1_ ^ 2 - 2 y_2_ * y_1_ + 1 y_2_ ^ 2 ] <= 2772.45
quadratic_ranged_2_ub: [ 1 x_1_ ^ 2 - 2 x_3_ * x_1_ + 1 x_3_ ^ 2 + 1 y_1_ ^ 2 - 2 y_3_ * y_1_ + 1 y_3_ ^ 2 ] <= 979.7
quadratic_ranged_3_ub: [ 1 x_3_ ^ 2 - 2 x_4_ * x_3_ + 1 x_4_ ^ 2 + 1 y_3_ ^ 2 - 2 y_4_ * y_3_ + 1 y_4_ ^ 2 ] <= 7191.2
quadratic_ranged_4_ub: [ 1 x_2_ ^ 2 - 2 x_5_ * x_2_ + 1 x_5_ ^ 2 + 1 y_2_ ^ 2 - 2 y_5_ * y_2_ + 1 y_5_ ^ 2 ] <= 13640.05
quadratic_ranged_5_ub: [ 1 x_2_ ^ 2 - 2 x_6_ * x_2_ + 1 x_6_ ^ 2 + 1 y_2_ ^ 2 - 2 y_6_ * y_2_ + 1 y_6_ ^ 2 ] <= 9870.73
quadratic_ranged_6_ub: [ 1 x_4_ ^ 2 - 2 x_7_ * x_4_ + 1 x_7_ ^ 2 + 1 y_4_ ^ 2 - 2 y_7_ * y_4_ + 1 y_7_ ^ 2 ] <= 1532.17
quadratic_ranged_7_ub: [ 1 x_6_ ^ 2 - 2 x_7_ * x_6_ + 1 x_7_ ^ 2 + 1 y_6_ ^ 2 - 2 y_7_ * y_6_ + 1 y_7_ ^ 2 ] <= 13470.37
quadratic_ranged_8_ub: [ 1 x_1_ ^ 2 - 2 x_8_ * x_1_ + 1 x_8_ ^ 2 + 1 y_1_ ^ 2 - 2 y_8_ * y_1_ + 1 y_8_ ^ 2 ] <= 5503.49
quadratic_ranged_9_ub: [ 1 x_4_ ^ 2 - 2 x_8_ * x_4_ + 1 x_8_ ^ 2 + 1 y_4_ ^ 2 - 2 y_8_ * y_4_ + 1 y_8_ ^ 2 ] <= 11894.77
quadratic_ranged_10_ub: [ 1 x_5_ ^ 2 - 2 x_8_ * x_5_ + 1 x_8_ ^ 2 + 1 y_5_ ^ 2 - 2 y_8_ * y_5_ + 1 y_8_ ^ 2 ] <= 42946.21
quadratic_ranged_11_ub: [ 1 x_2_ ^ 2 - 2 x_9_ * x_2_ + 1 x_9_ ^ 2 + 1 y_2_ ^ 2 - 2 y_9_ * y_2_ + 1 y_9_ ^ 2 ] <= 1373.6
quadratic_ranged_12_ub: [ 1 x_7_ ^ 2 - 2 x_9_ * x_7_ + 1 x_9_ ^ 2 + 1 y_7_ ^ 2 - 2 y_9_ * y_7_ + 1 y_9_ ^ 2 ] <= 6433.7
quadratic_ranged_13_ub: [ 1 x_5_ ^ 2 - 2 x_10_ * x_5_ + 1 x_10_ ^ 2 + 1 y_5_ ^ 2 - 2 y_10_ * y_5_ + 1 y_10_ ^ 2 ] <= 29961.65
quadratic_ranged_14_ub: [ 1 x_2_ ^ 2 - 2 x_11_ * x_2_ + 1 x_11_ ^ 2 + 1 y_2_ ^ 2 - 2 y_11_ * y_2_ + 1 y_11_ ^ 2 ] <= 6974.05
quadratic_ranged_15_ub: [ 1 x_4_ ^ 2 - 2 x_11_ * x_4_ + 1 x_11_ ^ 2 + 1 y_4_ ^ 2 - 2 y_11_ * y_4_ + 1 y_11_ ^ 2 ] <= 9324.32
quadratic_ranged_16_ub: [ 1 x_5_ ^ 2 - 2 x_11_ * x_5_ + 1 x_11_ ^ 2 + 1 y_5_ ^ 2 - 2 y_11_ * y_5_ + 1 y_11_ ^ 2 ] <= 32128.1
quadratic_ranged_17_ub: [ 1 x_1_ ^ 2 - 2 x_12_ * x_1_ + 1 x_12_ ^ 2 + 1 y_1_ ^ 2 - 2 y_12_ * y_1_ + 1 y_12_ ^ 2 ] <= 4141
quadratic_ranged_18_ub: [ 1 x_4_ ^ 2 - 2 x_12_ * x_4_ + 1 x_12_ ^ 2 + 1 y_4_ ^ 2 - 2 y_12_ * y_4_ + 1 y_12_ ^ 2 ] <= 2046.26
quadratic_ranged_19_ub: [ 1 x_7_ ^ 2 - 2 x_13_ * x_7_ + 1 x_13_ ^ 2 + 1 y_7_ ^ 2 - 2 y_13_ * y_7_ + 1 y_13_ ^ 2 ] <= 1903.85
quadratic_ranged_20_ub: [ 1 x_3_ ^ 2 - 2 x_14_ * x_3_ + 1 x_14_ ^ 2 + 1 y_3_ ^ 2 - 2 y_14_ * y_3_ + 1 y_14_ ^ 2 ] <= 731.24
quadratic_ranged_21_ub: [ 1 x_10_ ^ 2 - 2 x_14_ * x_10_ + 1 x_14_ ^ 2 + 1 y_10_ ^ 2 - 2 y_14_ * y_10_ + 1 y_14_ ^ 2 ] <= 11640.25
quadratic_ranged_22_ub: [ 1 x_13_ ^ 2 - 2 x_14_ * x_13_ + 1 x_14_ ^ 2 + 1 y_13_ ^ 2 - 2 y_14_ * y_13_ + 1 y_14_ ^ 2 ] <= 10346.44
quadratic_ranged_23_ub: [ 1 x_9_ ^ 2 - 2 x_15_ * x_9_ + 1 x_15_ ^ 2 + 1 y_9_ ^ 2 - 2 y_15_ * y_9_ + 1 y_15_ ^ 2 ] <= 9479.86
quadratic_ranged_24_ub: [ 1 x_4_ ^ 2 - 2 x_16_ * x_4_ + 1 x_16_ ^ 2 + 1 y_4_ ^ 2 - 2 y_16_ * y_4_ + 1 y_16_ ^ 2 ] <= 11685.7
quadratic_ranged_25_ub: [ 1 x_15_ ^ 2 - 2 x_16_ * x_15_ + 1 x_16_ ^ 2 + 1 y_15_ ^ 2 - 2 y_16_ * y_15_ + 1 y_16_ ^ 2 ] <= 1758.41
quadratic_ranged_26_ub: [ 1 x_4_ ^ 2 - 2 x_17_ * x_4_ + 1 x_17_ ^ 2 + 1 y_4_ ^ 2 - 2 y_17_ * y_4_ + 1 y_17_ ^ 2 ] <= 4712.66
quadratic_ranged_27_ub: [ 1 x_14_ ^ 2 - 2 x_17_ * x_14_ + 1 x_17_ ^ 2 + 1 y_14_ ^ 2 - 2 y_17_ * y_14_ + 1 y_17_ ^ 2 ] <= 10013.14
quadratic_ranged_28_ub: [ 1 x_4_ ^ 2 - 2 x_18_ * x_4_ + 1 x_18_ ^ 2 + 1 y_4_ ^ 2 - 2 y_18_ * y_4_ + 1 y_18_ ^ 2 ] <= 14399.57
quadratic_ranged_29_ub: [ 1 x_10_ ^ 2 - 2 x_18_ * x_10_ + 1 x_18_ ^ 2 + 1 y_10_ ^ 2 - 2 y_18_ * y_10_ + 1 y_18_ ^ 2 ] <= 6215.54
quadratic_ranged_30_ub: [ 1 x_3_ ^ 2 - 2 x_19_ * x_3_ + 1 x_19_ ^ 2 + 1 y_3_ ^ 2 - 2 y_19_ * y_3_ + 1 y_19_ ^ 2 ] <= 2408.85
quadratic_ranged_31_ub: [ 1 x_9_ ^ 2 - 2 x_19_ * x_9_ + 1 x_19_ ^ 2 + 1 y_9_ ^ 2 - 2 y_19_ * y_9_ + 1 y_19_ ^ 2 ] <= 6983.14
quadratic_ranged_32_ub: [ 1 x_5_ ^ 2 - 2 x_20_ * x_5_ + 1 x_20_ ^ 2 + 1 y_5_ ^ 2 - 2 y_20_ * y_5_ + 1 y_20_ ^ 2 ] <= 10706
quadratic_ranged_33_ub: [ 1 x_15_ ^ 2 - 2 x_20_ * x_15_ + 1 x_20_ ^ 2 + 1 y_15_ ^ 2 - 2 y_20_ * y_15_ + 1 y_20_ ^ 2 ] <= 20225.25
quadratic_ranged_34_ub: [ 1 x_16_ ^ 2 - 2 x_20_ * x_16_ + 1 x_20_ ^ 2 + 1 y_16_ ^ 2 - 2 y_20_ * y_16_ + 1 y_20_ ^ 2 ] <= 14451.08
quadratic_ranged_35_ub: [ 1 x_2_ ^ 2 - 2 x_21_ * x_2_ + 1 x_21_ ^ 2 + 1 y_2_ ^ 2 - 2 y_21_ * y_2_ + 1 y_21_ ^ 2 ] <= 892.84
quadratic_ranged_36_ub: [ 1 x_4_ ^ 2 - 2 x_22_ * x_4_ + 1 x_22_ ^ 2 + 1 y_4_ ^ 2 - 2 y_22_ * y_4_ + 1 y_22_ ^ 2 ] <= 331.28000000000003
quadratic_ranged_37_ub: [ 1 x_7_ ^ 2 - 2 x_22_ * x_7_ + 1 x_22_ ^ 2 + 1 y_7_ ^ 2 - 2 y_22_ * y_7_ + 1 y_22_ ^ 2 ] <= 914.05
quadratic_ranged_38_ub: [ 1 x_21_ ^ 2 - 2 x_22_ * x_21_ + 1 x_22_ ^ 2 + 1 y_21_ ^ 2 - 2 y_22_ * y_21_ + 1 y_22_ ^ 2 ] <= 2004.85
quadratic_ranged_39_ub: [ 1 x_16_ ^ 2 - 2 x_23_ * x_16_ + 1 x_23_ ^ 2 + 1 y_16_ ^ 2 - 2 y_23_ * y_16_ + 1 y_23_ ^ 2 ] <= 2838.1
quadratic_ranged_40_ub: [ 1 x_22_ ^ 2 - 2 x_23_ * x_22_ + 1 x_23_ ^ 2 + 1 y_22_ ^ 2 - 2 y_23_ * y_22_ + 1 y_23_ ^ 2 ] <= 10116.16
quadratic_ranged_41_ub: [ 1 x_8_ ^ 2 - 2 x_24_ * x_8_ + 1 x_24_ ^ 2 + 1 y_8_ ^ 2 - 2 y_24_ * y_8_ + 1 y_24_ ^ 2 ] <= 46404.45
quadratic_ranged_42_ub: [ 1 x_14_ ^ 2 - 2 x_24_ * x_14_ + 1 x_24_ ^ 2 + 1 y_14_ ^ 2 - 2 y_24_ * y_14_ + 1 y_24_ ^ 2 ] <= 40614.12
quadratic_ranged_43_ub: [ 1 x_15_ ^ 2 - 2 x_24_ * x_15_ + 1 x_24_ ^ 2 + 1 y_15_ ^ 2 - 2 y_24_ * y_15_ + 1 y_24_ ^ 2 ] <= 48020.45
quadratic_ranged_44_ub: [ 1 x_9_ ^ 2 - 2 x_25_ * x_9_ + 1 x_25_ ^ 2 + 1 y_9_ ^ 2 - 2 y_25_ * y_9_ + 1 y_25_ ^ 2 ] <= 17990.12
quadratic_ranged_45_ub: [ 1 x_12_ ^ 2 - 2 x_25_ * x_12_ + 1 x_25_ ^ 2 + 1 y_12_ ^ 2 - 2 y_25_ * y_12_ + 1 y_25_ ^ 2 ] <= 13551.17
quadratic_ranged_46_ub: [ 1 x_21_ ^ 2 - 2 x_25_ * x_21_ + 1 x_25_ ^ 2 + 1 y_21_ ^ 2 - 2 y_25_ * y_21_ + 1 y_25_ ^ 2 ] <= 17170
quadratic_ranged_47_ub: [ 1 x_2_ ^ 2 - 2 x_26_ * x_2_ + 1 x_26_ ^ 2 + 1 y_2_ ^ 2 - 2 y_26_ * y_2_ + 1 y_26_ ^ 2 ] <= 9151.61
quadratic_ranged_48_ub: [ 1 x_14_ ^ 2 - 2 x_26_ * x_14_ + 1 x_26_ ^ 2 + 1 y_14_ ^ 2 - 2 y_26_ * y_14_ + 1 y_26_ ^ 2 ] <= 29978.82
quadratic_ranged_49_ub: [ 1 x_8_ ^ 2 - 2 x_27_ * x_8_ + 1 x_27_ ^ 2 + 1 y_8_ ^ 2 - 2 y_27_ * y_8_ + 1 y_27_ ^ 2 ] <= 17623.49
quadratic_ranged_50_ub: [ 1 x_9_ ^ 2 - 2 x_27_ * x_9_ + 1 x_27_ ^ 2 + 1 y_9_ ^ 2 - 2 y_27_ * y_9_ + 1 y_27_ ^ 2 ] <= 20023.25
quadratic_ranged_51_ub: [ 1 x_9_ ^ 2 - 2 x_28_ * x_9_ + 1 x_28_ ^ 2 + 1 y_9_ ^ 2 - 2 y_28_ * y_9_ + 1 y_28_ ^ 2 ] <= 14035.97
quadratic_ranged_52_ub: [ 1 x_10_ ^ 2 - 2 x_28_ * x_10_ + 1 x_28_ ^ 2 + 1 y_10_ ^ 2 - 2 y_28_ * y_10_ + 1 y_28_ ^ 2 ] <= 695.89
quadratic_ranged_53_ub: [ 1 x_15_ ^ 2 - 2 x_28_ * x_15_ + 1 x_28_ ^ 2 + 1 y_15_ ^ 2 - 2 y_28_ * y_15_ + 1 y_28_ ^ 2 ] <= 7434.61
c1_2: 1 x_8_ >= 0
c2_2: 1 y_8_ >= 0
quadratic_ranged_1_lb: [ 1 x_1_ ^ 2 - 2 x_2_ * x_1_ + 1 x_2_ ^ 2 + 1 y_1_ ^ 2 - 2 y_2_ * y_1_ + 1 y_2_ ^ 2 ] >= 2717.55
quadratic_ranged_2_lb: [ 1 x_1_ ^ 2 - 2 x_3_ * x_1_ + 1 x_3_ ^ 2 + 1 y_1_ ^ 2 - 2 y_3_ * y_1_ + 1 y_3_ ^ 2 ] >= 960.3
quadratic_ranged_3_lb: [ 1 x_3_ ^ 2 - 2 x_4_ * x_3_ + 1 x_4_ ^ 2 + 1 y_3_ ^ 2 - 2 y_4_ * y_3_ + 1 y_4_ ^ 2 ] >= 7048.8
quadratic_ranged_4_lb: [ 1 x_2_ ^ 2 - 2 x_5_ * x_2_ + 1 x_5_ ^ 2 + 1 y_2_ ^ 2 - 2 y_5_ * y_2_ + 1 y_5_ ^ 2 ] >= 13369.95
quadratic_ranged_5_lb: [ 1 x_2_ ^ 2 - 2 x_6_ * x_2_ + 1 x_6_ ^ 2 + 1 y_2_ ^ 2 - 2 y_6_ * y_2_ + 1 y_6_ ^ 2 ] >= 9675.27
quadratic_ranged_6_lb: [ 1 x_4_ ^ 2 - 2 x_7_ * x_4_ + 1 x_7_ ^ 2 + 1 y_4_ ^ 2 - 2 y_7_ * y_4_ + 1 y_7_ ^ 2 ] >= 1501.83
quadratic_ranged_7_lb: [ 1 x_6_ ^ 2 - 2 x_7_ * x_6_ + 1 x_7_ ^ 2 + 1 y_6_ ^ 2 - 2 y_7_ * y_6_ + 1 y_7_ ^ 2 ] >= 13203.63
quadratic_ranged_8_lb: [ 1 x_1_ ^ 2 - 2 x_8_ * x_1_ + 1 x_8_ ^ 2 + 1 y_1_ ^ 2 - 2 y_8_ * y_1_ + 1 y_8_ ^ 2 ] >= 5394.51
quadratic_ranged_9_lb: [ 1 x_4_ ^ 2 - 2 x_8_ * x_4_ + 1 x_8_ ^ 2 + 1 y_4_ ^ 2 - 2 y_8_ * y_4_ + 1 y_8_ ^ 2 ] >= 11659.23
quadratic_ranged_10_lb: [ 1 x_5_ ^ 2 - 2 x_8_ * x_5_ + 1 x_8_ ^ 2 + 1 y_5_ ^ 2 - 2 y_8_ * y_5_ + 1 y_8_ ^ 2 ] >= 42095.79
quadratic_ranged_11_lb: [ 1 x_2_ ^ 2 - 2 x_9_ * x_2_ + 1 x_9_ ^ 2 + 1 y_2_ ^ 2 - 2 y_9_ * y_2_ + 1 y_9_ ^ 2 ] >= 1346.4
quadratic_ranged_12_lb: [ 1 x_7_ ^ 2 - 2 x_9_ * x_7_ + 1 x_9_ ^ 2 + 1 y_7_ ^ 2 - 2 y_9_ * y_7_ + 1 y_9_ ^ 2 ] >= 6306.3
quadratic_ranged_13_lb: [ 1 x_5_ ^ 2 - 2 x_10_ * x_5_ + 1 x_10_ ^ 2 + 1 y_5_ ^ 2 - 2 y_10_ * y_5_ + 1 y_10_ ^ 2 ] >= 29368.35
quadratic_ranged_14_lb: [ 1 x_2_ ^ 2 - 2 x_11_ * x_2_ + 1 x_11_ ^ 2 + 1 y_2_ ^ 2 - 2 y_11_ * y_2_ + 1 y_11_ ^ 2 ] >= 6835.95
quadratic_ranged_15_lb: [ 1 x_4_ ^ 2 - 2 x_11_ * x_4_ + 1 x_11_ ^ 2 + 1 y_4_ ^ 2 - 2 y_11_ * y_4_ + 1 y_11_ ^ 2 ] >= 9139.68
quadratic_ranged_16_lb: [ 1 x_5_ ^ 2 - 2 x_11_ * x_5_ + 1 x_11_ ^ 2 + 1 y_5_ ^ 2 - 2 y_11_ * y_5_ + 1 y_11_ ^ 2 ] >= 31491.9
quadratic_ranged_17_lb: [ 1 x_1_ ^ 2 - 2 x_12_ * x_1_ + 1 x_12_ ^ 2 + 1 y_1_ ^ 2 - 2 y_12_ * y_1_ + 1 y_12_ ^ 2 ] >= 4059
quadratic_ranged_18_lb: [ 1 x_4_ ^ 2 - 2 x_12_ * x_4_ + 1 x_12_ ^ 2 + 1 y_4_ ^ 2 - 2 y_12_ * y_4_ + 1 y_12_ ^ 2 ] >= 2005.74
quadratic_ranged_19_lb: [ 1 x_7_ ^ 2 - 2 x_13_ * x_7_ + 1 x_13_ ^ 2 + 1 y_7_ ^ 2 - 2 y_13_ * y_7_ + 1 y_13_ ^ 2 ] >= 1866.15
quadratic_ranged_20_lb: [ 1 x_3_ ^ 2 - 2 x_14_ * x_3_ + 1 x_14_ ^ 2 + 1 y_3_ ^ 2 - 2 y_14_ * y_3_ + 1 y_14_ ^ 2 ] >= 716.76
quadratic_ranged_21_lb: [ 1 x_10_ ^ 2 - 2 x_14_ * x_10_ + 1 x_14_ ^ 2 + 1 y_10_ ^ 2 - 2 y_14_ * y_10_ + 1 y_14_ ^ 2 ] >= 11409.75
quadratic_ranged_22_lb: [ 1 x_13_ ^ 2 - 2 x_14_ * x_13_ + 1 x_14_ ^ 2 + 1 y_13_ ^ 2 - 2 y_14_ * y_13_ + 1 y_14_ ^ 2 ] >= 10141.56
quadratic_ranged_23_lb: [ 1 x_9_ ^ 2 - 2 x_15_ * x_9_ + 1 x_15_ ^ 2 + 1 y_9_ ^ 2 - 2 y_15_ * y_9_ + 1 y_15_ ^ 2 ] >= 9292.14
quadratic_ranged_24_lb: [ 1 x_4_ ^ 2 - 2 x_16_ * x_4_ + 1 x_16_ ^ 2 + 1 y_4_ ^ 2 - 2 y_16_ * y_4_ + 1 y_16_ ^ 2 ] >= 11454.3
quadratic_ranged_25_lb: [ 1 x_15_ ^ 2 - 2 x_16_ * x_15_ + 1 x_16_ ^ 2 + 1 y_15_ ^ 2 - 2 y_16_ * y_15_ + 1 y_16_ ^ 2 ] >= 1723.59
quadratic_ranged_26_lb: [ 1 x_4_ ^ 2 - 2 x_17_ * x_4_ + 1 x_17_ ^ 2 + 1 y_4_ ^ 2 - 2 y_17_ * y_4_ + 1 y_17_ ^ 2 ] >= 4619.34
quadratic_ranged_27_lb: [ 1 x_14_ ^ 2 - 2 x_17_ * x_14_ + 1 x_17_ ^ 2 + 1 y_14_ ^ 2 - 2 y_17_ * y_14_ + 1 y_17_ ^ 2 ] >= 9814.86
quadratic_ranged_28_lb: [ 1 x_4_ ^ 2 - 2 x_18_ * x_4_ + 1 x_18_ ^ 2 + 1 y_4_ ^ 2 - 2 y_18_ * y_4_ + 1 y_18_ ^ 2 ] >= 14114.43
quadratic_ranged_29_lb: [ 1 x_10_ ^ 2 - 2 x_18_ * x_10_ + 1 x_18_ ^ 2 + 1 y_10_ ^ 2 - 2 y_18_ * y_10_ + 1 y_18_ ^ 2 ] >= 6092.46
quadratic_ranged_30_lb: [ 1 x_3_ ^ 2 - 2 x_19_ * x_3_ + 1 x_19_ ^ 2 + 1 y_3_ ^ 2 - 2 y_19_ * y_3_ + 1 y_19_ ^ 2 ] >= 2361.15
quadratic_ranged_31_lb: [ 1 x_9_ ^ 2 - 2 x_19_ * x_9_ + 1 x_19_ ^ 2 + 1 y_9_ ^ 2 - 2 y_19_ * y_9_ + 1 y_19_ ^ 2 ] >= 6844.86
quadratic_ranged_32_lb: [ 1 x_5_ ^ 2 - 2 x_20_ * x_5_ + 1 x_20_ ^ 2 + 1 y_5_ ^ 2 - 2 y_20_ * y_5_ + 1 y_20_ ^ 2 ] >= 10494
quadratic_ranged_33_lb: [ 1 x_15_ ^ 2 - 2 x_20_ * x_15_ + 1 x_20_ ^ 2 + 1 y_15_ ^ 2 - 2 y_20_ * y_15_ + 1 y_20_ ^ 2 ] >= 19824.75
quadratic_ranged_34_lb: [ 1 x_16_ ^ 2 - 2 x_20_ * x_16_ + 1 x_20_ ^ 2 + 1 y_16_ ^ 2 - 2 y_20_ * y_16_ + 1 y_20_ ^ 2 ] >= 14164.92
quadratic_ranged_35_lb: [ 1 x_2_ ^ 2 - 2 x_21_ * x_2_ + 1 x_21_ ^ 2 + 1 y_2_ ^ 2 - 2 y_21_ * y_2_ + 1 y_21_ ^ 2 ] >= 875.16
quadratic_ranged_36_lb: [ 1 x_4_ ^ 2 - 2 x_22_ * x_4_ + 1 x_22_ ^ 2 + 1 y_4_ ^ 2 - 2 y_22_ * y_4_ + 1 y_22_ ^ 2 ] >= 324.71999999999997
quadratic_ranged_37_lb: [ 1 x_7_ ^ 2 - 2 x_22_ * x_7_ + 1 x_22_ ^ 2 + 1 y_7_ ^ 2 - 2 y_22_ * y_7_ + 1 y_22_ ^ 2 ] >= 895.95
quadratic_ranged_38_lb: [ 1 x_21_ ^ 2 - 2 x_22_ * x_21_ + 1 x_22_ ^ 2 + 1 y_21_ ^ 2 - 2 y_22_ * y_21_ + 1 y_22_ ^ 2 ] >= 1965.15
quadratic_ranged_39_lb: [ 1 x_16_ ^ 2 - 2 x_23_ * x_16_ + 1 x_23_ ^ 2 + 1 y_16_ ^ 2 - 2 y_23_ * y_16_ + 1 y_23_ ^ 2 ] >= 2781.9
quadratic_ranged_40_lb: [ 1 x_22_ ^ 2 - 2 x_23_ * x_22_ + 1 x_23_ ^ 2 + 1 y_22_ ^ 2 - 2 y_23_ * y_22_ + 1 y_23_ ^ 2 ] >= 9915.84
quadratic_ranged_41_lb: [ 1 x_8_ ^ 2 - 2 x_24_ * x_8_ + 1 x_24_ ^ 2 + 1 y_8_ ^ 2 - 2 y_24_ * y_8_ + 1 y_24_ ^ 2 ] >= 45485.55
quadratic_ranged_42_lb: [ 1 x_14_ ^ 2 - 2 x_24_ * x_14_ + 1 x_24_ ^ 2 + 1 y_14_ ^ 2 - 2 y_24_ * y_14_ + 1 y_24_ ^ 2 ] >= 39809.88
quadratic_ranged_43_lb: [ 1 x_15_ ^ 2 - 2 x_24_ * x_15_ + 1 x_24_ ^ 2 + 1 y_15_ ^ 2 - 2 y_24_ * y_15_ + 1 y_24_ ^ 2 ] >= 47069.55
quadratic_ranged_44_lb: [ 1 x_9_ ^ 2 - 2 x_25_ * x_9_ + 1 x_25_ ^ 2 + 1 y_9_ ^ 2 - 2 y_25_ * y_9_ + 1 y_25_ ^ 2 ] >= 17633.88
quadratic_ranged_45_lb: [ 1 x_12_ ^ 2 - 2 x_25_ * x_12_ + 1 x_25_ ^ 2 + 1 y_12_ ^ 2 - 2 y_25_ * y_12_ + 1 y_25_ ^ 2 ] >= 13282.83
quadratic_ranged_46_lb: [ 1 x_21_ ^ 2 - 2 x_25_ * x_21_ + 1 x_25_ ^ 2 + 1 y_21_ ^ 2 - 2 y_25_ * y_21_ + 1 y_25_ ^ 2 ] >= 16830
quadratic_ranged_47_lb: [ 1 x_2_ ^ 2 - 2 x_26_ * x_2_ + 1 x_26_ ^ 2 + 1 y_2_ ^ 2 - 2 y_26_ * y_2_ + 1 y_26_ ^ 2 ] >= 8970.39
quadratic_ranged_48_lb: [ 1 x_14_ ^ 2 - 2 x_26_ * x_14_ + 1 x_26_ ^ 2 + 1 y_14_ ^ 2 - 2 y_26_ * y_14_ + 1 y_26_ ^ 2 ] >= 29385.18
quadratic_ranged_49_lb: [ 1 x_8_ ^ 2 - 2 x_27_ * x_8_ + 1 x_27_ ^ 2 + 1 y_8_ ^ 2 - 2 y_27_ * y_8_ + 1 y_27_ ^ 2 ] >= 17274.51
quadratic_ranged_50_lb: [ 1 x_9_ ^ 2 - 2 x_27_ * x_9_ + 1 x_27_ ^ 2 + 1 y_9_ ^ 2 - 2 y_27_ * y_9_ + 1 y_27_ ^ 2 ] >= 19626.75
quadratic_ranged_51_lb: [ 1 x_9_ ^ 2 - 2 x_28_ * x_9_ + 1 x_28_ ^ 2 + 1 y_9_ ^ 2 - 2 y_28_ * y_9_ + 1 y_28_ ^ 2 ] >= 13758.03
quadratic_ranged_52_lb: [ 1 x_10_ ^ 2 - 2 x_28_ * x_10_ + 1 x_28_ ^ 2 + 1 y_10_ ^ 2 - 2 y_28_ * y_10_ + 1 y_28_ ^ 2 ] >= 682.11
quadratic_ranged_53_lb: [ 1 x_15_ ^ 2 - 2 x_28_ * x_15_ + 1 x_28_ ^ 2 + 1 y_15_ ^ 2 - 2 y_28_ * y_15_ + 1 y_28_ ^ 2 ] >= 7287.39
c1_1: 1 x_15_ = 0
c2_1: 1 y_15_ = 0
Bounds
-187 <= x_1_ <= 187
-134 <= x_2_ <= 134
-218 <= x_3_ <= 218
-150 <= x_4_ <= 150
-245 <= x_5_ <= 245
-233 <= x_6_ <= 233
-177 <= x_7_ <= 177
-259 <= x_8_ <= 259
-97 <= x_9_ <= 97
-112 <= x_10_ <= 112
-217 <= x_11_ <= 217
-195 <= x_12_ <= 195
-221 <= x_13_ <= 221
-220 <= x_14_ <= 220
x_15_ = 0
-41 <= x_16_ <= 41
-218 <= x_17_ <= 218
-191 <= x_18_ <= 191
-180 <= x_19_ <= 180
-142 <= x_20_ <= 142
-164 <= x_21_ <= 164
-168 <= x_22_ <= 168
-95 <= x_23_ <= 95
-219 <= x_24_ <= 219
-231 <= x_25_ <= 231
-230 <= x_26_ <= 230
-238 <= x_27_ <= 238
-86 <= x_28_ <= 86
-187 <= y_1_ <= 187
-134 <= y_2_ <= 134
-218 <= y_3_ <= 218
-150 <= y_4_ <= 150
-245 <= y_5_ <= 245
-233 <= y_6_ <= 233
-177 <= y_7_ <= 177
-259 <= y_8_ <= 259
-97 <= y_9_ <= 97
-112 <= y_10_ <= 112
-217 <= y_11_ <= 217
-195 <= y_12_ <= 195
-221 <= y_13_ <= 221
-220 <= y_14_ <= 220
y_15_ = 0
-41 <= y_16_ <= 41
-218 <= y_17_ <= 218
-191 <= y_18_ <= 191
-180 <= y_19_ <= 180
-142 <= y_20_ <= 142
-164 <= y_21_ <= 164
-168 <= y_22_ <= 168
-95 <= y_23_ <= 95
-219 <= y_24_ <= 219
-231 <= y_25_ <= 231
-230 <= y_26_ <= 230
-238 <= y_27_ <= 238
-86 <= y_28_ <= 86
General
x_1_
x_2_
x_3_
x_4_
x_5_
x_6_
x_7_
x_8_
x_9_
x_10_
x_11_
x_12_
x_13_
x_14_
x_15_
x_16_
x_17_
x_18_
x_19_
x_20_
x_21_
x_22_
x_23_
x_24_
x_25_
x_26_
x_27_
x_28_
y_1_
y_2_
y_3_
y_4_
y_5_
y_6_
y_7_
y_8_
y_9_
y_10_
y_11_
y_12_
y_13_
y_14_
y_15_
y_16_
y_17_
y_18_
y_19_
y_20_
y_21_
y_22_
y_23_
y_24_
y_25_
y_26_
y_27_
y_28_
End
