minimize
obj: 
subject to
c1_1: 2 x_1_ + 184 y_1_ + [ 1 x_1_ ^ 2 + 1 y_1_ ^ 2 ] <= 55953
c2_1: 2 x_2_ + 184 y_2_ + [ 1 x_2_ ^ 2 + 1 y_2_ ^ 2 ] <= 76522
c3_1: 2 x_3_ + 184 y_3_ + [ 1 x_3_ ^ 2 + 1 y_3_ ^ 2 ] <= 28508
c4_1: 2 x_4_ + 184 y_4_ + [ 1 x_4_ ^ 2 + 1 y_4_ ^ 2 ] <= 124741
c5_1: 2 x_5_ + 184 y_5_ + [ 1 x_5_ ^ 2 + 1 y_5_ ^ 2 ] <= 161327
c6_1: 2 x_6_ + 184 y_6_ + [ 1 x_6_ ^ 2 + 1 y_6_ ^ 2 ] <= 42089
c7_1: 2 x_7_ + 184 y_7_ + [ 1 x_7_ ^ 2 + 1 y_7_ ^ 2 ] <= 35049
c8_1: 2 x_8_ + 184 y_8_ + [ 1 x_8_ ^ 2 + 1 y_8_ ^ 2 ] <= 103840
c9_1: 2 x_9_ + 184 y_9_ + [ 1 x_9_ ^ 2 + 1 y_9_ ^ 2 ] <= 80163
c10_1: 2 x_10_ + 184 y_10_ + [ 1 x_10_ ^ 2 + 1 y_10_ ^ 2 ] <= 146674
c11_1: 2 x_11_ + 184 y_11_ + [ 1 x_11_ ^ 2 + 1 y_11_ ^ 2 ] <= 14136
c12_1: 2 x_12_ + 184 y_12_ + [ 1 x_12_ ^ 2 + 1 y_12_ ^ 2 ] <= 66703
c13_1: 2 x_13_ + 184 y_13_ + [ 1 x_13_ ^ 2 + 1 y_13_ ^ 2 ] <= 94928
c14_1: 2 x_14_ + 184 y_14_ + [ 1 x_14_ ^ 2 + 1 y_14_ ^ 2 ] <= 55199
c15_1: 2 x_16_ + 184 y_16_ + [ 1 x_16_ ^ 2 + 1 y_16_ ^ 2 ] <= 59490
c16_1: 2 x_17_ + 184 y_17_ + [ 1 x_17_ ^ 2 + 1 y_17_ ^ 2 ] <= 106801
c17_1: 2 x_18_ + 184 y_18_ + [ 1 x_18_ ^ 2 + 1 y_18_ ^ 2 ] <= 5303
c18_1: 2 x_19_ + 184 y_19_ + [ 1 x_19_ ^ 2 + 1 y_19_ ^ 2 ] <= 60088
c19_1: 2 x_20_ + 184 y_20_ + [ 1 x_20_ ^ 2 + 1 y_20_ ^ 2 ] <= 168832
c20_1: 2 x_21_ + 184 y_21_ + [ 1 x_21_ ^ 2 + 1 y_21_ ^ 2 ] <= 45234
c21_1: 2 x_22_ + 184 y_22_ + [ 1 x_22_ ^ 2 + 1 y_22_ ^ 2 ] <= 94551
c22_1: 2 x_23_ + 184 y_23_ + [ 1 x_23_ ^ 2 + 1 y_23_ ^ 2 ] <= 132971
c23_1: 2 x_24_ + 184 y_24_ + [ 1 x_24_ ^ 2 + 1 y_24_ ^ 2 ] <= 21777
c24_1: 2 x_25_ + 184 y_25_ + [ 1 x_25_ ^ 2 + 1 y_25_ ^ 2 ] <= 86259
c25_1: 2 x_26_ + 184 y_26_ + [ 1 x_26_ ^ 2 + 1 y_26_ ^ 2 ] <= 145942
c26_1: 18 x_1_ - 52 y_1_ + [ 1 x_1_ ^ 2 + 1 y_1_ ^ 2 ] <= 3832
c27_1: 18 x_2_ - 52 y_2_ + [ 1 x_2_ ^ 2 + 1 y_2_ ^ 2 ] <= 66543
c28_1: 18 x_3_ - 52 y_3_ + [ 1 x_3_ ^ 2 + 1 y_3_ ^ 2 ] <= 30936
c29_1: 18 x_4_ - 52 y_4_ + [ 1 x_4_ ^ 2 + 1 y_4_ ^ 2 ] <= 122245
c30_1: 18 x_5_ - 52 y_5_ + [ 1 x_5_ ^ 2 + 1 y_5_ ^ 2 ] <= 7435
c31_1: 18 x_6_ - 52 y_6_ + [ 1 x_6_ ^ 2 + 1 y_6_ ^ 2 ] <= 43589
c32_1: 18 x_7_ - 52 y_7_ + [ 1 x_7_ ^ 2 + 1 y_7_ ^ 2 ] <= 30395
c33_1: 18 x_8_ - 52 y_8_ + [ 1 x_8_ ^ 2 + 1 y_8_ ^ 2 ] <= 22887
c34_1: 18 x_9_ - 52 y_9_ + [ 1 x_9_ ^ 2 + 1 y_9_ ^ 2 ] <= 78478
c35_1: 18 x_10_ - 52 y_10_ + [ 1 x_10_ ^ 2 + 1 y_10_ ^ 2 ] <= 44555
c36_1: 18 x_11_ - 52 y_11_ + [ 1 x_11_ ^ 2 + 1 y_11_ ^ 2 ] <= 28557
c37_1: 18 x_12_ - 52 y_12_ + [ 1 x_12_ ^ 2 + 1 y_12_ ^ 2 ] <= 65781
c38_1: 18 x_14_ - 52 y_14_ + [ 1 x_14_ ^ 2 + 1 y_14_ ^ 2 ] <= 44621
c39_1: 18 x_15_ - 52 y_15_ + [ 1 x_15_ ^ 2 + 1 y_15_ ^ 2 ] <= 102636
c40_1: 18 x_16_ - 52 y_16_ + [ 1 x_16_ ^ 2 + 1 y_16_ ^ 2 ] <= 78517
c41_1: 18 x_17_ - 52 y_17_ + [ 1 x_17_ ^ 2 + 1 y_17_ ^ 2 ] <= 22788
c42_1: 18 x_18_ - 52 y_18_ + [ 1 x_18_ ^ 2 + 1 y_18_ ^ 2 ] <= 63238
c43_1: 18 x_19_ - 52 y_19_ + [ 1 x_19_ ^ 2 + 1 y_19_ ^ 2 ] <= 52016
c44_1: 18 x_20_ - 52 y_20_ + [ 1 x_20_ ^ 2 + 1 y_20_ ^ 2 ] <= 78339
c45_1: 18 x_21_ - 52 y_21_ + [ 1 x_21_ ^ 2 + 1 y_21_ ^ 2 ] <= 18447
c46_1: 18 x_22_ - 52 y_22_ + [ 1 x_22_ ^ 2 + 1 y_22_ ^ 2 ] <= 82683
c47_1: 18 x_23_ - 52 y_23_ + [ 1 x_23_ ^ 2 + 1 y_23_ ^ 2 ] <= 132390
c48_1: 18 x_24_ - 52 y_24_ + [ 1 x_24_ ^ 2 + 1 y_24_ ^ 2 ] <= 38766
c49_1: 18 x_25_ - 52 y_25_ + [ 1 x_25_ ^ 2 + 1 y_25_ ^ 2 ] <= 107252
c50: 18 x_26_ - 52 y_26_ + [ 1 x_26_ ^ 2 + 1 y_26_ ^ 2 ] <= 42043
c51: 58 x_1_ - 138 y_1_ + [ 1 x_1_ ^ 2 + 1 y_1_ ^ 2 ] <= -584
c52: 58 x_2_ - 138 y_2_ + [ 1 x_2_ ^ 2 + 1 y_2_ ^ 2 ] <= 15622
c53: 58 x_3_ - 138 y_3_ + [ 1 x_3_ ^ 2 + 1 y_3_ ^ 2 ] <= -4046
c54: 58 x_4_ - 138 y_4_ + [ 1 x_4_ ^ 2 + 1 y_4_ ^ 2 ] <= 39400
c55: 58 x_5_ - 138 y_5_ + [ 1 x_5_ ^ 2 + 1 y_5_ ^ 2 ] <= 46880
c56: 58 x_6_ - 138 y_6_ + [ 1 x_6_ ^ 2 + 1 y_6_ ^ 2 ] <= -417
c57: 58 x_7_ - 138 y_7_ + [ 1 x_7_ ^ 2 + 1 y_7_ ^ 2 ] <= 11587
c58: 58 x_8_ - 138 y_8_ + [ 1 x_8_ ^ 2 + 1 y_8_ ^ 2 ] <= 19003
c59: 58 x_9_ - 138 y_9_ + [ 1 x_9_ ^ 2 + 1 y_9_ ^ 2 ] <= 14820
c60: 58 x_10_ - 138 y_10_ + [ 1 x_10_ ^ 2 + 1 y_10_ ^ 2 ] <= 41038
c61: 58 x_11_ - 138 y_11_ + [ 1 x_11_ ^ 2 + 1 y_11_ ^ 2 ] <= 24781
c62: 58 x_12_ - 138 y_12_ + [ 1 x_12_ ^ 2 + 1 y_12_ ^ 2 ] <= 8647
c63: 58 x_13_ - 138 y_13_ + [ 1 x_13_ ^ 2 + 1 y_13_ ^ 2 ] <= 13602
c64: 58 x_14_ - 138 y_14_ + [ 1 x_14_ ^ 2 + 1 y_14_ ^ 2 ] <= 4294
c65: 58 x_15_ - 138 y_15_ + [ 1 x_15_ ^ 2 + 1 y_15_ ^ 2 ] <= 48097
c66: 58 x_16_ - 138 y_16_ + [ 1 x_16_ ^ 2 + 1 y_16_ ^ 2 ] <= 75425
c67: 58 x_17_ - 138 y_17_ + [ 1 x_17_ ^ 2 + 1 y_17_ ^ 2 ] <= 18903
c68: 58 x_18_ - 138 y_18_ + [ 1 x_18_ ^ 2 + 1 y_18_ ^ 2 ] <= 7484
c69: 58 x_19_ - 138 y_19_ + [ 1 x_19_ ^ 2 + 1 y_19_ ^ 2 ] <= 9050
c70: 58 x_20_ - 138 y_20_ + [ 1 x_20_ ^ 2 + 1 y_20_ ^ 2 ] <= 70148
c71: 58 x_22_ - 138 y_22_ + [ 1 x_22_ ^ 2 + 1 y_22_ ^ 2 ] <= 53675
c72: 58 x_23_ - 138 y_23_ + [ 1 x_23_ ^ 2 + 1 y_23_ ^ 2 ] <= 45616
c73: 58 x_24_ - 138 y_24_ + [ 1 x_24_ ^ 2 + 1 y_24_ ^ 2 ] <= 1499
c74: 58 x_25_ - 138 y_25_ + [ 1 x_25_ ^ 2 + 1 y_25_ ^ 2 ] <= 81200
c75: 58 x_26_ - 138 y_26_ + [ 1 x_26_ ^ 2 + 1 y_26_ ^ 2 ] <= 38489
c1_2: 1 x_15_ = -1
c2_2: 1 y_15_ = -92
c3_2: 1 x_13_ = -9
c4_2: 1 y_13_ = 26
c5_2: 1 x_21_ = -29
c6_2: 1 y_21_ = 69
c1: [ 1 x_2_ ^ 2 - 2 x_4_ * x_2_ + 1 x_4_ ^ 2 + 1 y_2_ ^ 2 - 2 y_4_ * y_2_ + 1 y_4_ ^ 2 ] = 11810
c2: [ 1 x_2_ ^ 2 - 2 x_5_ * x_2_ + 1 x_5_ ^ 2 + 1 y_2_ ^ 2 - 2 y_5_ * y_2_ + 1 y_5_ ^ 2 ] = 28714
c3: [ 1 x_2_ ^ 2 - 2 x_6_ * x_2_ + 1 x_6_ ^ 2 + 1 y_2_ ^ 2 - 2 y_6_ * y_2_ + 1 y_6_ ^ 2 ] = 5429
c4: [ 1 x_3_ ^ 2 - 2 x_6_ * x_3_ + 1 x_6_ ^ 2 + 1 y_3_ ^ 2 - 2 y_6_ * y_3_ + 1 y_6_ ^ 2 ] = 1060
c5: [ 1 x_4_ ^ 2 - 2 x_6_ * x_4_ + 1 x_6_ ^ 2 + 1 y_4_ ^ 2 - 2 y_6_ * y_4_ + 1 y_6_ ^ 2 ] = 19637
c6: [ 1 x_1_ ^ 2 - 2 x_7_ * x_1_ + 1 x_7_ ^ 2 + 1 y_1_ ^ 2 - 2 y_7_ * y_1_ + 1 y_7_ ^ 2 ] = 11828
c7: [ 1 x_3_ ^ 2 - 2 x_7_ * x_3_ + 1 x_7_ ^ 2 + 1 y_3_ ^ 2 - 2 y_7_ * y_3_ + 1 y_7_ ^ 2 ] = 8402
c8: [ 1 x_1_ ^ 2 - 2 x_8_ * x_1_ + 1 x_8_ ^ 2 + 1 y_1_ ^ 2 - 2 y_8_ * y_1_ + 1 y_8_ ^ 2 ] = 7400
c9: [ 1 x_3_ ^ 2 - 2 x_8_ * x_3_ + 1 x_8_ ^ 2 + 1 y_3_ ^ 2 - 2 y_8_ * y_3_ + 1 y_8_ ^ 2 ] = 20402
c10: [ 1 x_4_ ^ 2 - 2 x_9_ * x_4_ + 1 x_9_ ^ 2 + 1 y_4_ ^ 2 - 2 y_9_ * y_4_ + 1 y_9_ ^ 2 ] = 31760
c11: [ 1 x_1_ ^ 2 - 2 x_10_ * x_1_ + 1 x_10_ ^ 2 + 1 y_1_ ^ 2 - 2 y_10_ * y_1_ + 1 y_10_ ^ 2 ] = 21061
c12: [ 1 x_5_ ^ 2 - 2 x_10_ * x_5_ + 1 x_10_ ^ 2 + 1 y_5_ ^ 2 - 2 y_10_ * y_5_ + 1 y_10_ ^ 2 ] = 26564
c13: [ 1 x_1_ ^ 2 - 2 x_11_ * x_1_ + 1 x_11_ ^ 2 + 1 y_1_ ^ 2 - 2 y_11_ * y_1_ + 1 y_11_ ^ 2 ] = 10706
c14: [ 1 x_3_ ^ 2 - 2 x_12_ * x_3_ + 1 x_12_ ^ 2 + 1 y_3_ ^ 2 - 2 y_12_ * y_3_ + 1 y_12_ ^ 2 ] = 6705
c15: [ 1 x_9_ ^ 2 - 2 x_12_ * x_9_ + 1 x_12_ ^ 2 + 1 y_9_ ^ 2 - 2 y_12_ * y_9_ + 1 y_12_ ^ 2 ] = 554
c16: [ 1 x_1_ ^ 2 - 2 x_13_ * x_1_ + 1 x_13_ ^ 2 + 1 y_1_ ^ 2 - 2 y_13_ * y_1_ + 1 y_13_ ^ 2 ] = 4589
c17: [ 1 x_5_ ^ 2 - 2 x_13_ * x_5_ + 1 x_13_ ^ 2 + 1 y_5_ ^ 2 - 2 y_13_ * y_5_ + 1 y_13_ ^ 2 ] = 8192
c18: [ 1 x_1_ ^ 2 - 2 x_14_ * x_1_ + 1 x_14_ ^ 2 + 1 y_1_ ^ 2 - 2 y_14_ * y_1_ + 1 y_14_ ^ 2 ] = 21106
c19: [ 1 x_3_ ^ 2 - 2 x_14_ * x_3_ + 1 x_14_ ^ 2 + 1 y_3_ ^ 2 - 2 y_14_ * y_3_ + 1 y_14_ ^ 2 ] = 3604
c20: [ 1 x_4_ ^ 2 - 2 x_14_ * x_4_ + 1 x_14_ ^ 2 + 1 y_4_ ^ 2 - 2 y_14_ * y_4_ + 1 y_14_ ^ 2 ] = 23629
c21: [ 1 x_11_ ^ 2 - 2 x_15_ * x_11_ + 1 x_15_ ^ 2 + 1 y_11_ ^ 2 - 2 y_15_ * y_11_ + 1 y_15_ ^ 2 ] = 22601
c22: [ 1 x_10_ ^ 2 - 2 x_16_ * x_10_ + 1 x_16_ ^ 2 + 1 y_10_ ^ 2 - 2 y_16_ * y_10_ + 1 y_16_ ^ 2 ] = 17741
c23: [ 1 x_11_ ^ 2 - 2 x_16_ * x_11_ + 1 x_16_ ^ 2 + 1 y_11_ ^ 2 - 2 y_16_ * y_11_ + 1 y_16_ ^ 2 ] = 12176
c24: [ 1 x_1_ ^ 2 - 2 x_17_ * x_1_ + 1 x_17_ ^ 2 + 1 y_1_ ^ 2 - 2 y_17_ * y_1_ + 1 y_17_ ^ 2 ] = 7345
c25: [ 1 x_9_ ^ 2 - 2 x_17_ * x_9_ + 1 x_17_ ^ 2 + 1 y_9_ ^ 2 - 2 y_17_ * y_9_ + 1 y_17_ ^ 2 ] = 17680
c26: [ 1 x_3_ ^ 2 - 2 x_18_ * x_3_ + 1 x_18_ ^ 2 + 1 y_3_ ^ 2 - 2 y_18_ * y_3_ + 1 y_18_ ^ 2 ] = 5617
c27: [ 1 x_7_ ^ 2 - 2 x_18_ * x_7_ + 1 x_18_ ^ 2 + 1 y_7_ ^ 2 - 2 y_18_ * y_7_ + 1 y_18_ ^ 2 ] = 8329
c28: [ 1 x_15_ ^ 2 - 2 x_18_ * x_15_ + 1 x_18_ ^ 2 + 1 y_15_ ^ 2 - 2 y_18_ * y_15_ + 1 y_18_ ^ 2 ] = 13768
c29: [ 1 x_2_ ^ 2 - 2 x_19_ * x_2_ + 1 x_19_ ^ 2 + 1 y_2_ ^ 2 - 2 y_19_ * y_2_ + 1 y_19_ ^ 2 ] = 882
c30: [ 1 x_6_ ^ 2 - 2 x_19_ * x_6_ + 1 x_19_ ^ 2 + 1 y_6_ ^ 2 - 2 y_19_ * y_6_ + 1 y_19_ ^ 2 ] = 2405
c31: [ 1 x_7_ ^ 2 - 2 x_19_ * x_7_ + 1 x_19_ ^ 2 + 1 y_7_ ^ 2 - 2 y_19_ * y_7_ + 1 y_19_ ^ 2 ] = 2833
c32: [ 1 x_2_ ^ 2 - 2 x_20_ * x_2_ + 1 x_20_ ^ 2 + 1 y_2_ ^ 2 - 2 y_20_ * y_2_ + 1 y_20_ ^ 2 ] = 16781
c33: [ 1 x_8_ ^ 2 - 2 x_20_ * x_8_ + 1 x_20_ ^ 2 + 1 y_8_ ^ 2 - 2 y_20_ * y_8_ + 1 y_20_ ^ 2 ] = 16250
c34: [ 1 x_1_ ^ 2 - 2 x_21_ * x_1_ + 1 x_21_ ^ 2 + 1 y_1_ ^ 2 - 2 y_21_ * y_1_ + 1 y_21_ ^ 2 ] = 5018
c35: [ 1 x_3_ ^ 2 - 2 x_21_ * x_3_ + 1 x_21_ ^ 2 + 1 y_3_ ^ 2 - 2 y_21_ * y_3_ + 1 y_21_ ^ 2 ] = 1556
c36: [ 1 x_12_ ^ 2 - 2 x_21_ * x_12_ + 1 x_21_ ^ 2 + 1 y_12_ ^ 2 - 2 y_21_ * y_12_ + 1 y_21_ ^ 2 ] = 14249
c37: [ 1 x_7_ ^ 2 - 2 x_22_ * x_7_ + 1 x_22_ ^ 2 + 1 y_7_ ^ 2 - 2 y_22_ * y_7_ + 1 y_22_ ^ 2 ] = 12625
c38: [ 1 x_10_ ^ 2 - 2 x_22_ * x_10_ + 1 x_22_ ^ 2 + 1 y_10_ ^ 2 - 2 y_22_ * y_10_ + 1 y_22_ ^ 2 ] = 33428
c39: [ 1 x_16_ ^ 2 - 2 x_22_ * x_16_ + 1 x_22_ ^ 2 + 1 y_16_ ^ 2 - 2 y_22_ * y_16_ + 1 y_22_ ^ 2 ] = 4753
c40: [ 1 x_12_ ^ 2 - 2 x_23_ * x_12_ + 1 x_23_ ^ 2 + 1 y_12_ ^ 2 - 2 y_23_ * y_12_ + 1 y_23_ ^ 2 ] = 11437
c41: [ 1 x_1_ ^ 2 - 2 x_24_ * x_1_ + 1 x_24_ ^ 2 + 1 y_1_ ^ 2 - 2 y_24_ * y_1_ + 1 y_24_ ^ 2 ] = 17177
c42: [ 1 x_3_ ^ 2 - 2 x_24_ * x_3_ + 1 x_24_ ^ 2 + 1 y_3_ ^ 2 - 2 y_24_ * y_3_ + 1 y_24_ ^ 2 ] = 2009
c43: [ 1 x_15_ ^ 2 - 2 x_24_ * x_15_ + 1 x_24_ ^ 2 + 1 y_15_ ^ 2 - 2 y_24_ * y_15_ + 1 y_24_ ^ 2 ] = 30242
c44: [ 1 x_11_ ^ 2 - 2 x_25_ * x_11_ + 1 x_25_ ^ 2 + 1 y_11_ ^ 2 - 2 y_25_ * y_11_ + 1 y_25_ ^ 2 ] = 24786
c45: [ 1 x_20_ ^ 2 - 2 x_25_ * x_20_ + 1 x_25_ ^ 2 + 1 y_20_ ^ 2 - 2 y_25_ * y_20_ + 1 y_25_ ^ 2 ] = 39890
c46: [ 1 x_23_ ^ 2 - 2 x_25_ * x_23_ + 1 x_25_ ^ 2 + 1 y_23_ ^ 2 - 2 y_25_ * y_23_ + 1 y_25_ ^ 2 ] = 4666
c47: [ 1 x_1_ ^ 2 - 2 x_26_ * x_1_ + 1 x_26_ ^ 2 + 1 y_1_ ^ 2 - 2 y_26_ * y_1_ + 1 y_26_ ^ 2 ] = 19360
c48: [ 1 x_5_ ^ 2 - 2 x_26_ * x_5_ + 1 x_26_ ^ 2 + 1 y_5_ ^ 2 - 2 y_26_ * y_5_ + 1 y_26_ ^ 2 ] = 17541
c49: [ 1 x_10_ ^ 2 - 2 x_26_ * x_10_ + 1 x_26_ ^ 2 + 1 y_10_ ^ 2 - 2 y_26_ * y_10_ + 1 y_26_ ^ 2 ] = 2669
Bounds
-76 <= x_1_ <= 41
-174 <= x_2_ <= 116
-68 <= x_3_ <= 10
-241 <= x_4_ <= 183
-99 <= x_5_ <= 81
-101 <= x_6_ <= 43
-160 <= x_7_ <= 102
-162 <= x_8_ <= 127
-171 <= x_9_ <= 113
-221 <= x_10_ <= 186
-151 <= x_11_ <= 145
-148 <= x_12_ <= 90
x_13_ = -9
-128 <= x_14_ <= 70
x_15_ = -1
-261 <= x_16_ <= 255
-162 <= x_17_ <= 127
-118 <= x_18_ <= 85
-150 <= x_19_ <= 92
-290 <= x_20_ <= 246
x_21_ = -29
-272 <= x_22_ <= 214
-255 <= x_23_ <= 197
-113 <= x_24_ <= 55
-308 <= x_25_ <= 265
-215 <= x_26_ <= 180
-1 <= y_1_ <= 93
-76 <= y_2_ <= 199
30 <= y_3_ <= 100
-143 <= y_4_ <= 272
-64 <= y_5_ <= 116
-3 <= y_6_ <= 132
-62 <= y_7_ <= 116
-87 <= y_8_ <= 179
-73 <= y_9_ <= 205
-146 <= y_10_ <= 238
-105 <= y_11_ <= 58
-50 <= y_12_ <= 182
y_13_ = 26
-30 <= y_14_ <= 160
y_15_ = -92
-215 <= y_16_ <= 168
-87 <= y_17_ <= 179
-45 <= y_18_ <= 25
-52 <= y_19_ <= 169
-206 <= y_20_ <= 307
y_21_ = 69
-174 <= y_22_ <= 228
-157 <= y_23_ <= 284
-15 <= y_24_ <= 81
-225 <= y_25_ <= 215
-140 <= y_26_ <= 232
General
x_1_
x_2_
x_3_
x_4_
x_5_
x_6_
x_7_
x_8_
x_9_
x_10_
x_11_
x_12_
x_13_
x_14_
x_15_
x_16_
x_17_
x_18_
x_19_
x_20_
x_21_
x_22_
x_23_
x_24_
x_25_
x_26_
y_1_
y_2_
y_3_
y_4_
y_5_
y_6_
y_7_
y_8_
y_9_
y_10_
y_11_
y_12_
y_13_
y_14_
y_15_
y_16_
y_17_
y_18_
y_19_
y_20_
y_21_
y_22_
y_23_
y_24_
y_25_
y_26_
End
