minimize
obj: 
subject to
c1_4: -1 x_21_ + 1 y_21_ <= 0
c1_1: [ 1 x_1_ ^ 2 + 1 y_1_ ^ 2 ] <= 83618
c2_1: [ 1 x_2_ ^ 2 + 1 y_2_ ^ 2 ] <= 44423
c3_1: [ 1 x_3_ ^ 2 + 1 y_3_ ^ 2 ] <= 2042
c4_1: [ 1 x_4_ ^ 2 + 1 y_4_ ^ 2 ] <= 17905
c5_1: [ 1 x_5_ ^ 2 + 1 y_5_ ^ 2 ] <= 51971
c6_1: [ 1 x_6_ ^ 2 + 1 y_6_ ^ 2 ] <= 48423
c7_1: [ 1 x_7_ ^ 2 + 1 y_7_ ^ 2 ] <= 34671
c8_1: [ 1 x_8_ ^ 2 + 1 y_8_ ^ 2 ] <= 11432
c9_1: [ 1 x_9_ ^ 2 + 1 y_9_ ^ 2 ] <= 65396
c10_1: [ 1 x_10_ ^ 2 + 1 y_10_ ^ 2 ] <= 34212
c11_1: [ 1 x_11_ ^ 2 + 1 y_11_ ^ 2 ] <= 16765
c12_1: [ 1 x_12_ ^ 2 + 1 y_12_ ^ 2 ] <= 62548
c13_1: [ 1 x_13_ ^ 2 + 1 y_13_ ^ 2 ] <= 36779
c14_1: [ 1 x_14_ ^ 2 + 1 y_14_ ^ 2 ] <= 29311
c15_1: [ 1 x_16_ ^ 2 + 1 y_16_ ^ 2 ] <= 94842
c16_1: [ 1 x_17_ ^ 2 + 1 y_17_ ^ 2 ] <= 75678
c17_1: [ 1 x_18_ ^ 2 + 1 y_18_ ^ 2 ] <= 19634
c18_1: [ 1 x_19_ ^ 2 + 1 y_19_ ^ 2 ] <= 28591
c19_1: [ 1 x_20_ ^ 2 + 1 y_20_ ^ 2 ] <= 22184
c20_1: [ 1 x_21_ ^ 2 + 1 y_21_ ^ 2 ] <= 97096
c21_1: [ 1 x_22_ ^ 2 + 1 y_22_ ^ 2 ] <= 61626
c22_1: [ 1 x_23_ ^ 2 + 1 y_23_ ^ 2 ] <= 77900
c23_1: [ 1 x_24_ ^ 2 + 1 y_24_ ^ 2 ] <= 80528
c24_1: [ 1 x_25_ ^ 2 + 1 y_25_ ^ 2 ] <= 74344
c25_1: [ 1 x_26_ ^ 2 + 1 y_26_ ^ 2 ] <= 32271
c1_3: 1 x_21_ >= 0
c2_3: 1 y_21_ >= 0
c1_2: 1 x_15_ = 0
c2_2: 1 y_15_ = 0
c1: [ 1 x_1_ ^ 2 - 2 x_2_ * x_1_ + 1 x_2_ ^ 2 + 1 y_1_ ^ 2 - 2 y_2_ * y_1_ + 1 y_2_ ^ 2 ] = 8450
c2: [ 1 x_2_ ^ 2 - 2 x_5_ * x_2_ + 1 x_5_ ^ 2 + 1 y_2_ ^ 2 - 2 y_5_ * y_2_ + 1 y_5_ ^ 2 ] = 12176
c3: [ 1 x_3_ ^ 2 - 2 x_5_ * x_3_ + 1 x_5_ ^ 2 + 1 y_3_ ^ 2 - 2 y_5_ * y_3_ + 1 y_5_ ^ 2 ] = 33410
c4: [ 1 x_1_ ^ 2 - 2 x_6_ * x_1_ + 1 x_6_ ^ 2 + 1 y_1_ ^ 2 - 2 y_6_ * y_1_ + 1 y_6_ ^ 2 ] = 4777
c5: [ 1 x_2_ ^ 2 - 2 x_6_ * x_2_ + 1 x_6_ ^ 2 + 1 y_2_ ^ 2 - 2 y_6_ * y_2_ + 1 y_6_ ^ 2 ] = 4105
c6: [ 1 x_3_ ^ 2 - 2 x_6_ * x_3_ + 1 x_6_ ^ 2 + 1 y_3_ ^ 2 - 2 y_6_ * y_3_ + 1 y_6_ ^ 2 ] = 30577
c7: [ 1 x_1_ ^ 2 - 2 x_7_ * x_1_ + 1 x_7_ ^ 2 + 1 y_1_ ^ 2 - 2 y_7_ * y_1_ + 1 y_7_ ^ 2 ] = 52277
c8: [ 1 x_3_ ^ 2 - 2 x_7_ * x_3_ + 1 x_7_ ^ 2 + 1 y_3_ ^ 2 - 2 y_7_ * y_3_ + 1 y_7_ ^ 2 ] = 19885
c9: [ 1 x_3_ ^ 2 - 2 x_8_ * x_3_ + 1 x_8_ ^ 2 + 1 y_3_ ^ 2 - 2 y_8_ * y_3_ + 1 y_8_ ^ 2 ] = 18650
c10: [ 1 x_1_ ^ 2 - 2 x_9_ * x_1_ + 1 x_9_ ^ 2 + 1 y_1_ ^ 2 - 2 y_9_ * y_1_ + 1 y_9_ ^ 2 ] = 6201
c11: [ 1 x_5_ ^ 2 - 2 x_9_ * x_5_ + 1 x_9_ ^ 2 + 1 y_5_ ^ 2 - 2 y_9_ * y_5_ + 1 y_9_ ^ 2 ] = 4933
c12: [ 1 x_4_ ^ 2 - 2 x_10_ * x_4_ + 1 x_10_ ^ 2 + 1 y_4_ ^ 2 - 2 y_10_ * y_4_ + 1 y_10_ ^ 2 ] = 2617
c13: [ 1 x_7_ ^ 2 - 2 x_10_ * x_7_ + 1 x_10_ ^ 2 + 1 y_7_ ^ 2 - 2 y_10_ * y_7_ + 1 y_10_ ^ 2 ] = 21969
c14: [ 1 x_7_ ^ 2 - 2 x_11_ * x_7_ + 1 x_11_ ^ 2 + 1 y_7_ ^ 2 - 2 y_11_ * y_7_ + 1 y_11_ ^ 2 ] = 4148
c15: [ 1 x_8_ ^ 2 - 2 x_11_ * x_8_ + 1 x_11_ ^ 2 + 1 y_8_ ^ 2 - 2 y_11_ * y_8_ + 1 y_11_ ^ 2 ] = 509
c16: [ 1 x_9_ ^ 2 - 2 x_11_ * x_9_ + 1 x_11_ ^ 2 + 1 y_9_ ^ 2 - 2 y_11_ * y_9_ + 1 y_11_ ^ 2 ] = 15938
c17: [ 1 x_7_ ^ 2 - 2 x_12_ * x_7_ + 1 x_12_ ^ 2 + 1 y_7_ ^ 2 - 2 y_12_ * y_7_ + 1 y_12_ ^ 2 ] = 29864
c18: [ 1 x_11_ ^ 2 - 2 x_13_ * x_11_ + 1 x_13_ ^ 2 + 1 y_11_ ^ 2 - 2 y_13_ * y_11_ + 1 y_13_ ^ 2 ] = 3881
c19: [ 1 x_12_ ^ 2 - 2 x_13_ * x_12_ + 1 x_13_ ^ 2 + 1 y_12_ ^ 2 - 2 y_13_ * y_12_ + 1 y_13_ ^ 2 ] = 3725
c20: [ 1 x_3_ ^ 2 - 2 x_14_ * x_3_ + 1 x_14_ ^ 2 + 1 y_3_ ^ 2 - 2 y_14_ * y_3_ + 1 y_14_ ^ 2 ] = 15880
c21: [ 1 x_5_ ^ 2 - 2 x_14_ * x_5_ + 1 x_14_ ^ 2 + 1 y_5_ ^ 2 - 2 y_14_ * y_5_ + 1 y_14_ ^ 2 ] = 57898
c22: [ 1 x_3_ ^ 2 - 2 x_15_ * x_3_ + 1 x_15_ ^ 2 + 1 y_3_ ^ 2 - 2 y_15_ * y_3_ + 1 y_15_ ^ 2 ] = 2042
c23: [ 1 x_4_ ^ 2 - 2 x_15_ * x_4_ + 1 x_15_ ^ 2 + 1 y_4_ ^ 2 - 2 y_15_ * y_4_ + 1 y_15_ ^ 2 ] = 17905
c24: [ 1 x_8_ ^ 2 - 2 x_15_ * x_8_ + 1 x_15_ ^ 2 + 1 y_8_ ^ 2 - 2 y_15_ * y_8_ + 1 y_15_ ^ 2 ] = 11432
c25: [ 1 x_5_ ^ 2 - 2 x_16_ * x_5_ + 1 x_16_ ^ 2 + 1 y_5_ ^ 2 - 2 y_16_ * y_5_ + 1 y_16_ ^ 2 ] = 21634
c26: [ 1 x_6_ ^ 2 - 2 x_16_ * x_6_ + 1 x_16_ ^ 2 + 1 y_6_ ^ 2 - 2 y_16_ * y_6_ + 1 y_16_ ^ 2 ] = 30017
c27: [ 1 x_12_ ^ 2 - 2 x_17_ * x_12_ + 1 x_17_ ^ 2 + 1 y_12_ ^ 2 - 2 y_17_ * y_12_ + 1 y_17_ ^ 2 ] = 625
c28: [ 1 x_15_ ^ 2 - 2 x_18_ * x_15_ + 1 x_18_ ^ 2 + 1 y_15_ ^ 2 - 2 y_18_ * y_15_ + 1 y_18_ ^ 2 ] = 19634
c29: [ 1 x_2_ ^ 2 - 2 x_19_ * x_2_ + 1 x_19_ ^ 2 + 1 y_2_ ^ 2 - 2 y_19_ * y_2_ + 1 y_19_ ^ 2 ] = 1737
c30: [ 1 x_8_ ^ 2 - 2 x_19_ * x_8_ + 1 x_19_ ^ 2 + 1 y_8_ ^ 2 - 2 y_19_ * y_8_ + 1 y_19_ ^ 2 ] = 3865
c31: [ 1 x_12_ ^ 2 - 2 x_19_ * x_12_ + 1 x_19_ ^ 2 + 1 y_12_ ^ 2 - 2 y_19_ * y_12_ + 1 y_19_ ^ 2 ] = 6562
c32: [ 1 x_4_ ^ 2 - 2 x_20_ * x_4_ + 1 x_20_ ^ 2 + 1 y_4_ ^ 2 - 2 y_20_ * y_4_ + 1 y_20_ ^ 2 ] = 229
c33: [ 1 x_16_ ^ 2 - 2 x_20_ * x_16_ + 1 x_20_ ^ 2 + 1 y_16_ ^ 2 - 2 y_20_ * y_16_ + 1 y_20_ ^ 2 ] = 25288
c34: [ 1 x_18_ ^ 2 - 2 x_20_ * x_18_ + 1 x_20_ ^ 2 + 1 y_18_ ^ 2 - 2 y_20_ * y_18_ + 1 y_20_ ^ 2 ] = 4168
c35: [ 1 x_1_ ^ 2 - 2 x_21_ * x_1_ + 1 x_21_ ^ 2 + 1 y_1_ ^ 2 - 2 y_21_ * y_1_ + 1 y_21_ ^ 2 ] = 33065
c36: [ 1 x_4_ ^ 2 - 2 x_21_ * x_4_ + 1 x_21_ ^ 2 + 1 y_4_ ^ 2 - 2 y_21_ * y_4_ + 1 y_21_ ^ 2 ] = 31610
c37: [ 1 x_14_ ^ 2 - 2 x_21_ * x_14_ + 1 x_21_ ^ 2 + 1 y_14_ ^ 2 - 2 y_21_ * y_14_ + 1 y_21_ ^ 2 ] = 27549
c38: [ 1 x_8_ ^ 2 - 2 x_22_ * x_8_ + 1 x_22_ ^ 2 + 1 y_8_ ^ 2 - 2 y_22_ * y_8_ + 1 y_22_ ^ 2 ] = 19973
c39: [ 1 x_14_ ^ 2 - 2 x_22_ * x_14_ + 1 x_22_ ^ 2 + 1 y_14_ ^ 2 - 2 y_22_ * y_14_ + 1 y_22_ ^ 2 ] = 36369
c40: [ 1 x_8_ ^ 2 - 2 x_23_ * x_8_ + 1 x_23_ ^ 2 + 1 y_8_ ^ 2 - 2 y_23_ * y_8_ + 1 y_23_ ^ 2 ] = 29648
c41: [ 1 x_13_ ^ 2 - 2 x_23_ * x_13_ + 1 x_23_ ^ 2 + 1 y_13_ ^ 2 - 2 y_23_ * y_13_ + 1 y_23_ ^ 2 ] = 8330
c42: [ 1 x_17_ ^ 2 - 2 x_23_ * x_17_ + 1 x_23_ ^ 2 + 1 y_17_ ^ 2 - 2 y_23_ * y_17_ + 1 y_23_ ^ 2 ] = 2650
c43: [ 1 x_2_ ^ 2 - 2 x_24_ * x_2_ + 1 x_24_ ^ 2 + 1 y_2_ ^ 2 - 2 y_24_ * y_2_ + 1 y_24_ ^ 2 ] = 5330
c44: [ 1 x_12_ ^ 2 - 2 x_24_ * x_12_ + 1 x_24_ ^ 2 + 1 y_12_ ^ 2 - 2 y_24_ * y_12_ + 1 y_24_ ^ 2 ] = 1465
c45: [ 1 x_5_ ^ 2 - 2 x_25_ * x_5_ + 1 x_25_ ^ 2 + 1 y_5_ ^ 2 - 2 y_25_ * y_5_ + 1 y_25_ ^ 2 ] = 1997
c46: [ 1 x_23_ ^ 2 - 2 x_25_ * x_23_ + 1 x_25_ ^ 2 + 1 y_23_ ^ 2 - 2 y_25_ * y_23_ + 1 y_25_ ^ 2 ] = 8245
c47: [ 1 x_1_ ^ 2 - 2 x_26_ * x_1_ + 1 x_26_ ^ 2 + 1 y_1_ ^ 2 - 2 y_26_ * y_1_ + 1 y_26_ ^ 2 ] = 16033
c48: [ 1 x_11_ ^ 2 - 2 x_26_ * x_11_ + 1 x_26_ ^ 2 + 1 y_11_ ^ 2 - 2 y_26_ * y_11_ + 1 y_26_ ^ 2 ] = 2516
c49: [ 1 x_12_ ^ 2 - 2 x_26_ * x_12_ + 1 x_26_ ^ 2 + 1 y_12_ ^ 2 - 2 y_26_ * y_12_ + 1 y_26_ ^ 2 ] = 16400
Bounds
-289 <= x_1_ <= 289
-210 <= x_2_ <= 210
-45 <= x_3_ <= 45
-133 <= x_4_ <= 133
-227 <= x_5_ <= 227
-220 <= x_6_ <= 220
-186 <= x_7_ <= 186
-106 <= x_8_ <= 106
-255 <= x_9_ <= 255
-184 <= x_10_ <= 184
-129 <= x_11_ <= 129
-250 <= x_12_ <= 250
-191 <= x_13_ <= 191
-171 <= x_14_ <= 171
x_15_ = 0
-307 <= x_16_ <= 307
-275 <= x_17_ <= 275
-140 <= x_18_ <= 140
-169 <= x_19_ <= 169
-148 <= x_20_ <= 148
-311 <= x_21_ <= 311
-248 <= x_22_ <= 248
-279 <= x_23_ <= 279
-283 <= x_24_ <= 283
-272 <= x_25_ <= 272
-179 <= x_26_ <= 179
-289 <= y_1_ <= 289
-210 <= y_2_ <= 210
-45 <= y_3_ <= 45
-133 <= y_4_ <= 133
-227 <= y_5_ <= 227
-220 <= y_6_ <= 220
-186 <= y_7_ <= 186
-106 <= y_8_ <= 106
-255 <= y_9_ <= 255
-184 <= y_10_ <= 184
-129 <= y_11_ <= 129
-250 <= y_12_ <= 250
-191 <= y_13_ <= 191
-171 <= y_14_ <= 171
y_15_ = 0
-307 <= y_16_ <= 307
-275 <= y_17_ <= 275
-140 <= y_18_ <= 140
-169 <= y_19_ <= 169
-148 <= y_20_ <= 148
-311 <= y_21_ <= 311
-248 <= y_22_ <= 248
-279 <= y_23_ <= 279
-283 <= y_24_ <= 283
-272 <= y_25_ <= 272
-179 <= y_26_ <= 179
General
x_1_
x_2_
x_3_
x_4_
x_5_
x_6_
x_7_
x_8_
x_9_
x_10_
x_11_
x_12_
x_13_
x_14_
x_15_
x_16_
x_17_
x_18_
x_19_
x_20_
x_21_
x_22_
x_23_
x_24_
x_25_
x_26_
y_1_
y_2_
y_3_
y_4_
y_5_
y_6_
y_7_
y_8_
y_9_
y_10_
y_11_
y_12_
y_13_
y_14_
y_15_
y_16_
y_17_
y_18_
y_19_
y_20_
y_21_
y_22_
y_23_
y_24_
y_25_
y_26_
End
