minimize
obj: 
subject to
c1_3: -1 x_18_ + 1 y_18_ <= 0
c1: [ 1 x_2_ ^ 2 + 1 y_2_ ^ 2 ] <= 10524.199999999999
c2: [ 1 x_3_ ^ 2 + 1 y_3_ ^ 2 ] <= 14764.18
c3: [ 1 x_4_ ^ 2 + 1 y_4_ ^ 2 ] <= 51982.11576594246
c4: [ 1 x_5_ ^ 2 + 1 y_5_ ^ 2 ] <= 69107.00458747197
c5: [ 1 x_6_ ^ 2 + 1 y_6_ ^ 2 ] <= 59245.59360134215
c6: [ 1 x_7_ ^ 2 + 1 y_7_ ^ 2 ] <= 27669.959999999995
c7: [ 1 x_8_ ^ 2 + 1 y_8_ ^ 2 ] <= 29852.223141717102
c8: [ 1 x_9_ ^ 2 + 1 y_9_ ^ 2 ] <= 5108.579999999999
c9: [ 1 x_10_ ^ 2 + 1 y_10_ ^ 2 ] <= 26153.36001526272
c10: [ 1 x_11_ ^ 2 + 1 y_11_ ^ 2 ] <= 12318.969999999998
c11: [ 1 x_12_ ^ 2 + 1 y_12_ ^ 2 ] <= 76107.35044182267
c12: [ 1 x_13_ ^ 2 + 1 y_13_ ^ 2 ] <= 45936.31044791847
c13: [ 1 x_14_ ^ 2 + 1 y_14_ ^ 2 ] <= 27086.530924643495
c14: [ 1 x_15_ ^ 2 + 1 y_15_ ^ 2 ] <= 25561.28471061814
c15: [ 1 x_16_ ^ 2 + 1 y_16_ ^ 2 ] <= 37795.589117969146
c16: [ 1 x_17_ ^ 2 + 1 y_17_ ^ 2 ] <= 91063.485807976
c17: [ 1 x_18_ ^ 2 + 1 y_18_ ^ 2 ] <= 130439.20240098113
c18: [ 1 x_19_ ^ 2 + 1 y_19_ ^ 2 ] <= 68544.20746181044
c19: [ 1 x_20_ ^ 2 + 1 y_20_ ^ 2 ] <= 111978.98128006487
c20: [ 1 x_21_ ^ 2 + 1 y_21_ ^ 2 ] <= 40411.05724476783
c21: [ 1 x_22_ ^ 2 + 1 y_22_ ^ 2 ] <= 83108.01809322071
c22: [ 1 x_23_ ^ 2 + 1 y_23_ ^ 2 ] <= 97778.77831938954
c23: [ 1 x_24_ ^ 2 + 1 y_24_ ^ 2 ] <= 12795.613572634596
c24: [ 1 x_25_ ^ 2 + 1 y_25_ ^ 2 ] <= 42767.19570405443
c25: [ 1 x_26_ ^ 2 + 1 y_26_ ^ 2 ] <= 103779.51746460807
c26: [ 1 x_27_ ^ 2 + 1 y_27_ ^ 2 ] <= 46047.73960992546
c27: [ 1 x_28_ ^ 2 + 1 y_28_ ^ 2 ] <= 67501.08729500372
quadratic_ranged_1_ub: [ 1 x_1_ ^ 2 - 2 x_2_ * x_1_ + 1 x_2_ ^ 2 + 1 y_1_ ^ 2 - 2 y_2_ * y_1_ + 1 y_2_ ^ 2 ] <= 10524.2
quadratic_ranged_2_ub: [ 1 x_1_ ^ 2 - 2 x_3_ * x_1_ + 1 x_3_ ^ 2 + 1 y_1_ ^ 2 - 2 y_3_ * y_1_ + 1 y_3_ ^ 2 ] <= 14764.18
quadratic_ranged_3_ub: [ 1 x_4_ ^ 2 - 2 x_5_ * x_4_ + 1 x_5_ ^ 2 + 1 y_4_ ^ 2 - 2 y_5_ * y_4_ + 1 y_5_ ^ 2 ] <= 1217.05
quadratic_ranged_4_ub: [ 1 x_2_ ^ 2 - 2 x_6_ * x_2_ + 1 x_6_ ^ 2 + 1 y_2_ ^ 2 - 2 y_6_ * y_2_ + 1 y_6_ ^ 2 ] <= 19829.33
quadratic_ranged_5_ub: [ 1 x_1_ ^ 2 - 2 x_7_ * x_1_ + 1 x_7_ ^ 2 + 1 y_1_ ^ 2 - 2 y_7_ * y_1_ + 1 y_7_ ^ 2 ] <= 27669.96
quadratic_ranged_6_ub: [ 1 x_4_ ^ 2 - 2 x_7_ * x_4_ + 1 x_7_ ^ 2 + 1 y_4_ ^ 2 - 2 y_7_ * y_4_ + 1 y_7_ ^ 2 ] <= 17182.12
quadratic_ranged_7_ub: [ 1 x_6_ ^ 2 - 2 x_7_ * x_6_ + 1 x_7_ ^ 2 + 1 y_6_ ^ 2 - 2 y_7_ * y_6_ + 1 y_7_ ^ 2 ] <= 35819.65
quadratic_ranged_8_ub: [ 1 x_7_ ^ 2 - 2 x_8_ * x_7_ + 1 x_8_ ^ 2 + 1 y_7_ ^ 2 - 2 y_8_ * y_7_ + 1 y_8_ ^ 2 ] <= 41.410000000000004
quadratic_ranged_9_ub: [ 1 x_1_ ^ 2 - 2 x_9_ * x_1_ + 1 x_9_ ^ 2 + 1 y_1_ ^ 2 - 2 y_9_ * y_1_ + 1 y_9_ ^ 2 ] <= 5108.58
quadratic_ranged_10_ub: [ 1 x_2_ ^ 2 - 2 x_9_ * x_2_ + 1 x_9_ ^ 2 + 1 y_2_ ^ 2 - 2 y_9_ * y_2_ + 1 y_9_ ^ 2 ] <= 17414.420000000002
quadratic_ranged_11_ub: [ 1 x_3_ ^ 2 - 2 x_10_ * x_3_ + 1 x_10_ ^ 2 + 1 y_3_ ^ 2 - 2 y_10_ * y_3_ + 1 y_10_ ^ 2 ] <= 1617.01
quadratic_ranged_12_ub: [ 1 x_4_ ^ 2 - 2 x_10_ * x_4_ + 1 x_10_ ^ 2 + 1 y_4_ ^ 2 - 2 y_10_ * y_4_ + 1 y_10_ ^ 2 ] <= 4392.49
quadratic_ranged_13_ub: [ 1 x_1_ ^ 2 - 2 x_11_ * x_1_ + 1 x_11_ ^ 2 + 1 y_1_ ^ 2 - 2 y_11_ * y_1_ + 1 y_11_ ^ 2 ] <= 12318.97
quadratic_ranged_14_ub: [ 1 x_7_ ^ 2 - 2 x_11_ * x_7_ + 1 x_11_ ^ 2 + 1 y_7_ ^ 2 - 2 y_11_ * y_7_ + 1 y_11_ ^ 2 ] <= 8064.85
quadratic_ranged_15_ub: [ 1 x_4_ ^ 2 - 2 x_12_ * x_4_ + 1 x_12_ ^ 2 + 1 y_4_ ^ 2 - 2 y_12_ * y_4_ + 1 y_12_ ^ 2 ] <= 17866.9
quadratic_ranged_16_ub: [ 1 x_5_ ^ 2 - 2 x_12_ * x_5_ + 1 x_12_ ^ 2 + 1 y_5_ ^ 2 - 2 y_12_ * y_5_ + 1 y_12_ ^ 2 ] <= 10618.13
quadratic_ranged_17_ub: [ 1 x_8_ ^ 2 - 2 x_13_ * x_8_ + 1 x_13_ ^ 2 + 1 y_8_ ^ 2 - 2 y_13_ * y_8_ + 1 y_13_ ^ 2 ] <= 6528.64
quadratic_ranged_18_ub: [ 1 x_9_ ^ 2 - 2 x_13_ * x_9_ + 1 x_13_ ^ 2 + 1 y_9_ ^ 2 - 2 y_13_ * y_9_ + 1 y_13_ ^ 2 ] <= 20407.05
quadratic_ranged_19_ub: [ 1 x_12_ ^ 2 - 2 x_13_ * x_12_ + 1 x_13_ ^ 2 + 1 y_12_ ^ 2 - 2 y_13_ * y_12_ + 1 y_13_ ^ 2 ] <= 6061.01
quadratic_ranged_20_ub: [ 1 x_2_ ^ 2 - 2 x_14_ * x_2_ + 1 x_14_ ^ 2 + 1 y_2_ ^ 2 - 2 y_14_ * y_2_ + 1 y_14_ ^ 2 ] <= 3843.05
quadratic_ranged_21_ub: [ 1 x_6_ ^ 2 - 2 x_14_ * x_6_ + 1 x_14_ ^ 2 + 1 y_6_ ^ 2 - 2 y_14_ * y_6_ + 1 y_14_ ^ 2 ] <= 37695.22
quadratic_ranged_22_ub: [ 1 x_10_ ^ 2 - 2 x_14_ * x_10_ + 1 x_14_ ^ 2 + 1 y_10_ ^ 2 - 2 y_14_ * y_10_ + 1 y_14_ ^ 2 ] <= 28160.82
quadratic_ranged_23_ub: [ 1 x_9_ ^ 2 - 2 x_15_ * x_9_ + 1 x_15_ ^ 2 + 1 y_9_ ^ 2 - 2 y_15_ * y_9_ + 1 y_15_ ^ 2 ] <= 7815.38
quadratic_ranged_24_ub: [ 1 x_12_ ^ 2 - 2 x_15_ * x_12_ + 1 x_15_ ^ 2 + 1 y_12_ ^ 2 - 2 y_15_ * y_12_ + 1 y_15_ ^ 2 ] <= 13455.22
quadratic_ranged_25_ub: [ 1 x_3_ ^ 2 - 2 x_16_ * x_3_ + 1 x_16_ ^ 2 + 1 y_3_ ^ 2 - 2 y_16_ * y_3_ + 1 y_16_ ^ 2 ] <= 22726.01
quadratic_ranged_26_ub: [ 1 x_11_ ^ 2 - 2 x_16_ * x_11_ + 1 x_16_ ^ 2 + 1 y_11_ ^ 2 - 2 y_16_ * y_11_ + 1 y_16_ ^ 2 ] <= 6958.9
quadratic_ranged_27_ub: [ 1 x_8_ ^ 2 - 2 x_17_ * x_8_ + 1 x_17_ ^ 2 + 1 y_8_ ^ 2 - 2 y_17_ * y_8_ + 1 y_17_ ^ 2 ] <= 28217.38
quadratic_ranged_28_ub: [ 1 x_13_ ^ 2 - 2 x_17_ * x_13_ + 1 x_17_ ^ 2 + 1 y_13_ ^ 2 - 2 y_17_ * y_13_ + 1 y_17_ ^ 2 ] <= 7645.7
quadratic_ranged_29_ub: [ 1 x_5_ ^ 2 - 2 x_18_ * x_5_ + 1 x_18_ ^ 2 + 1 y_5_ ^ 2 - 2 y_18_ * y_5_ + 1 y_18_ ^ 2 ] <= 36830.66
quadratic_ranged_30_ub: [ 1 x_6_ ^ 2 - 2 x_18_ * x_6_ + 1 x_18_ ^ 2 + 1 y_6_ ^ 2 - 2 y_18_ * y_6_ + 1 y_18_ ^ 2 ] <= 13867.3
quadratic_ranged_31_ub: [ 1 x_8_ ^ 2 - 2 x_18_ * x_8_ + 1 x_18_ ^ 2 + 1 y_8_ ^ 2 - 2 y_18_ * y_8_ + 1 y_18_ ^ 2 ] <= 37854.8
quadratic_ranged_32_ub: [ 1 x_14_ ^ 2 - 2 x_19_ * x_14_ + 1 x_19_ ^ 2 + 1 y_14_ ^ 2 - 2 y_19_ * y_14_ + 1 y_19_ ^ 2 ] <= 9453.6
quadratic_ranged_33_ub: [ 1 x_13_ ^ 2 - 2 x_20_ * x_13_ + 1 x_20_ ^ 2 + 1 y_13_ ^ 2 - 2 y_20_ * y_13_ + 1 y_20_ ^ 2 ] <= 14473.3
quadratic_ranged_34_ub: [ 1 x_18_ ^ 2 - 2 x_20_ * x_18_ + 1 x_20_ ^ 2 + 1 y_18_ ^ 2 - 2 y_20_ * y_18_ + 1 y_20_ ^ 2 ] <= 3282.5
quadratic_ranged_35_ub: [ 1 x_19_ ^ 2 - 2 x_20_ * x_19_ + 1 x_20_ ^ 2 + 1 y_19_ ^ 2 - 2 y_20_ * y_19_ + 1 y_20_ ^ 2 ] <= 33113.86
quadratic_ranged_36_ub: [ 1 x_2_ ^ 2 - 2 x_21_ * x_2_ + 1 x_21_ ^ 2 + 1 y_2_ ^ 2 - 2 y_21_ * y_2_ + 1 y_21_ ^ 2 ] <= 9689.94
quadratic_ranged_37_ub: [ 1 x_3_ ^ 2 - 2 x_21_ * x_3_ + 1 x_21_ ^ 2 + 1 y_3_ ^ 2 - 2 y_21_ * y_3_ + 1 y_21_ ^ 2 ] <= 24926.8
quadratic_ranged_38_ub: [ 1 x_10_ ^ 2 - 2 x_21_ * x_10_ + 1 x_21_ ^ 2 + 1 y_10_ ^ 2 - 2 y_21_ * y_10_ + 1 y_21_ ^ 2 ] <= 21562.49
quadratic_ranged_39_ub: [ 1 x_10_ ^ 2 - 2 x_22_ * x_10_ + 1 x_22_ ^ 2 + 1 y_10_ ^ 2 - 2 y_22_ * y_10_ + 1 y_22_ ^ 2 ] <= 16018.6
quadratic_ranged_40_ub: [ 1 x_20_ ^ 2 - 2 x_22_ * x_20_ + 1 x_22_ ^ 2 + 1 y_20_ ^ 2 - 2 y_22_ * y_20_ + 1 y_22_ ^ 2 ] <= 35830.76
quadratic_ranged_41_ub: [ 1 x_12_ ^ 2 - 2 x_23_ * x_12_ + 1 x_23_ ^ 2 + 1 y_12_ ^ 2 - 2 y_23_ * y_12_ + 1 y_23_ ^ 2 ] <= 35236.88
quadratic_ranged_42_ub: [ 1 x_4_ ^ 2 - 2 x_24_ * x_4_ + 1 x_24_ ^ 2 + 1 y_4_ ^ 2 - 2 y_24_ * y_4_ + 1 y_24_ ^ 2 ] <= 23457.25
quadratic_ranged_43_ub: [ 1 x_9_ ^ 2 - 2 x_24_ * x_9_ + 1 x_24_ ^ 2 + 1 y_9_ ^ 2 - 2 y_24_ * y_9_ + 1 y_24_ ^ 2 ] <= 1734.17
quadratic_ranged_44_ub: [ 1 x_14_ ^ 2 - 2 x_24_ * x_14_ + 1 x_24_ ^ 2 + 1 y_14_ ^ 2 - 2 y_24_ * y_14_ + 1 y_24_ ^ 2 ] <= 23135.06
quadratic_ranged_45_ub: [ 1 x_15_ ^ 2 - 2 x_25_ * x_15_ + 1 x_25_ ^ 2 + 1 y_15_ ^ 2 - 2 y_25_ * y_15_ + 1 y_25_ ^ 2 ] <= 2201.8
quadratic_ranged_46_ub: [ 1 x_19_ ^ 2 - 2 x_25_ * x_19_ + 1 x_25_ ^ 2 + 1 y_19_ ^ 2 - 2 y_25_ * y_19_ + 1 y_25_ ^ 2 ] <= 17324.53
quadratic_ranged_47_ub: [ 1 x_11_ ^ 2 - 2 x_26_ * x_11_ + 1 x_26_ ^ 2 + 1 y_11_ ^ 2 - 2 y_26_ * y_11_ + 1 y_26_ ^ 2 ] <= 44587.46
quadratic_ranged_48_ub: [ 1 x_17_ ^ 2 - 2 x_26_ * x_17_ + 1 x_26_ ^ 2 + 1 y_17_ ^ 2 - 2 y_26_ * y_17_ + 1 y_26_ ^ 2 ] <= 4122.82
quadratic_ranged_49_ub: [ 1 x_3_ ^ 2 - 2 x_27_ * x_3_ + 1 x_27_ ^ 2 + 1 y_3_ ^ 2 - 2 y_27_ * y_3_ + 1 y_27_ ^ 2 ] <= 8663.78
quadratic_ranged_50_ub: [ 1 x_23_ ^ 2 - 2 x_27_ * x_23_ + 1 x_27_ ^ 2 + 1 y_23_ ^ 2 - 2 y_27_ * y_23_ + 1 y_27_ ^ 2 ] <= 9625.3
quadratic_ranged_51_ub: [ 1 x_3_ ^ 2 - 2 x_28_ * x_3_ + 1 x_28_ ^ 2 + 1 y_3_ ^ 2 - 2 y_28_ * y_3_ + 1 y_28_ ^ 2 ] <= 19127.38
quadratic_ranged_52_ub: [ 1 x_19_ ^ 2 - 2 x_28_ * x_19_ + 1 x_28_ ^ 2 + 1 y_19_ ^ 2 - 2 y_28_ * y_19_ + 1 y_28_ ^ 2 ] <= 26301.41
quadratic_ranged_53_ub: [ 1 x_23_ ^ 2 - 2 x_28_ * x_23_ + 1 x_28_ ^ 2 + 1 y_23_ ^ 2 - 2 y_28_ * y_23_ + 1 y_28_ ^ 2 ] <= 23078.5
c1_2: 1 x_18_ >= 0
c2_2: 1 y_18_ >= 0
quadratic_ranged_1_lb: [ 1 x_1_ ^ 2 - 2 x_2_ * x_1_ + 1 x_2_ ^ 2 + 1 y_1_ ^ 2 - 2 y_2_ * y_1_ + 1 y_2_ ^ 2 ] >= 10315.8
quadratic_ranged_2_lb: [ 1 x_1_ ^ 2 - 2 x_3_ * x_1_ + 1 x_3_ ^ 2 + 1 y_1_ ^ 2 - 2 y_3_ * y_1_ + 1 y_3_ ^ 2 ] >= 14471.82
quadratic_ranged_3_lb: [ 1 x_4_ ^ 2 - 2 x_5_ * x_4_ + 1 x_5_ ^ 2 + 1 y_4_ ^ 2 - 2 y_5_ * y_4_ + 1 y_5_ ^ 2 ] >= 1192.95
quadratic_ranged_4_lb: [ 1 x_2_ ^ 2 - 2 x_6_ * x_2_ + 1 x_6_ ^ 2 + 1 y_2_ ^ 2 - 2 y_6_ * y_2_ + 1 y_6_ ^ 2 ] >= 19436.67
quadratic_ranged_5_lb: [ 1 x_1_ ^ 2 - 2 x_7_ * x_1_ + 1 x_7_ ^ 2 + 1 y_1_ ^ 2 - 2 y_7_ * y_1_ + 1 y_7_ ^ 2 ] >= 27122.04
quadratic_ranged_6_lb: [ 1 x_4_ ^ 2 - 2 x_7_ * x_4_ + 1 x_7_ ^ 2 + 1 y_4_ ^ 2 - 2 y_7_ * y_4_ + 1 y_7_ ^ 2 ] >= 16841.88
quadratic_ranged_7_lb: [ 1 x_6_ ^ 2 - 2 x_7_ * x_6_ + 1 x_7_ ^ 2 + 1 y_6_ ^ 2 - 2 y_7_ * y_6_ + 1 y_7_ ^ 2 ] >= 35110.35
quadratic_ranged_8_lb: [ 1 x_7_ ^ 2 - 2 x_8_ * x_7_ + 1 x_8_ ^ 2 + 1 y_7_ ^ 2 - 2 y_8_ * y_7_ + 1 y_8_ ^ 2 ] >= 40.589999999999996
quadratic_ranged_9_lb: [ 1 x_1_ ^ 2 - 2 x_9_ * x_1_ + 1 x_9_ ^ 2 + 1 y_1_ ^ 2 - 2 y_9_ * y_1_ + 1 y_9_ ^ 2 ] >= 5007.42
quadratic_ranged_10_lb: [ 1 x_2_ ^ 2 - 2 x_9_ * x_2_ + 1 x_9_ ^ 2 + 1 y_2_ ^ 2 - 2 y_9_ * y_2_ + 1 y_9_ ^ 2 ] >= 17069.579999999998
quadratic_ranged_11_lb: [ 1 x_3_ ^ 2 - 2 x_10_ * x_3_ + 1 x_10_ ^ 2 + 1 y_3_ ^ 2 - 2 y_10_ * y_3_ + 1 y_10_ ^ 2 ] >= 1584.99
quadratic_ranged_12_lb: [ 1 x_4_ ^ 2 - 2 x_10_ * x_4_ + 1 x_10_ ^ 2 + 1 y_4_ ^ 2 - 2 y_10_ * y_4_ + 1 y_10_ ^ 2 ] >= 4305.51
quadratic_ranged_13_lb: [ 1 x_1_ ^ 2 - 2 x_11_ * x_1_ + 1 x_11_ ^ 2 + 1 y_1_ ^ 2 - 2 y_11_ * y_1_ + 1 y_11_ ^ 2 ] >= 12075.03
quadratic_ranged_14_lb: [ 1 x_7_ ^ 2 - 2 x_11_ * x_7_ + 1 x_11_ ^ 2 + 1 y_7_ ^ 2 - 2 y_11_ * y_7_ + 1 y_11_ ^ 2 ] >= 7905.15
quadratic_ranged_15_lb: [ 1 x_4_ ^ 2 - 2 x_12_ * x_4_ + 1 x_12_ ^ 2 + 1 y_4_ ^ 2 - 2 y_12_ * y_4_ + 1 y_12_ ^ 2 ] >= 17513.1
quadratic_ranged_16_lb: [ 1 x_5_ ^ 2 - 2 x_12_ * x_5_ + 1 x_12_ ^ 2 + 1 y_5_ ^ 2 - 2 y_12_ * y_5_ + 1 y_12_ ^ 2 ] >= 10407.87
quadratic_ranged_17_lb: [ 1 x_8_ ^ 2 - 2 x_13_ * x_8_ + 1 x_13_ ^ 2 + 1 y_8_ ^ 2 - 2 y_13_ * y_8_ + 1 y_13_ ^ 2 ] >= 6399.36
quadratic_ranged_18_lb: [ 1 x_9_ ^ 2 - 2 x_13_ * x_9_ + 1 x_13_ ^ 2 + 1 y_9_ ^ 2 - 2 y_13_ * y_9_ + 1 y_13_ ^ 2 ] >= 20002.95
quadratic_ranged_19_lb: [ 1 x_12_ ^ 2 - 2 x_13_ * x_12_ + 1 x_13_ ^ 2 + 1 y_12_ ^ 2 - 2 y_13_ * y_12_ + 1 y_13_ ^ 2 ] >= 5940.99
quadratic_ranged_20_lb: [ 1 x_2_ ^ 2 - 2 x_14_ * x_2_ + 1 x_14_ ^ 2 + 1 y_2_ ^ 2 - 2 y_14_ * y_2_ + 1 y_14_ ^ 2 ] >= 3766.95
quadratic_ranged_21_lb: [ 1 x_6_ ^ 2 - 2 x_14_ * x_6_ + 1 x_14_ ^ 2 + 1 y_6_ ^ 2 - 2 y_14_ * y_6_ + 1 y_14_ ^ 2 ] >= 36948.78
quadratic_ranged_22_lb: [ 1 x_10_ ^ 2 - 2 x_14_ * x_10_ + 1 x_14_ ^ 2 + 1 y_10_ ^ 2 - 2 y_14_ * y_10_ + 1 y_14_ ^ 2 ] >= 27603.18
quadratic_ranged_23_lb: [ 1 x_9_ ^ 2 - 2 x_15_ * x_9_ + 1 x_15_ ^ 2 + 1 y_9_ ^ 2 - 2 y_15_ * y_9_ + 1 y_15_ ^ 2 ] >= 7660.62
quadratic_ranged_24_lb: [ 1 x_12_ ^ 2 - 2 x_15_ * x_12_ + 1 x_15_ ^ 2 + 1 y_12_ ^ 2 - 2 y_15_ * y_12_ + 1 y_15_ ^ 2 ] >= 13188.78
quadratic_ranged_25_lb: [ 1 x_3_ ^ 2 - 2 x_16_ * x_3_ + 1 x_16_ ^ 2 + 1 y_3_ ^ 2 - 2 y_16_ * y_3_ + 1 y_16_ ^ 2 ] >= 22275.99
quadratic_ranged_26_lb: [ 1 x_11_ ^ 2 - 2 x_16_ * x_11_ + 1 x_16_ ^ 2 + 1 y_11_ ^ 2 - 2 y_16_ * y_11_ + 1 y_16_ ^ 2 ] >= 6821.1
quadratic_ranged_27_lb: [ 1 x_8_ ^ 2 - 2 x_17_ * x_8_ + 1 x_17_ ^ 2 + 1 y_8_ ^ 2 - 2 y_17_ * y_8_ + 1 y_17_ ^ 2 ] >= 27658.62
quadratic_ranged_28_lb: [ 1 x_13_ ^ 2 - 2 x_17_ * x_13_ + 1 x_17_ ^ 2 + 1 y_13_ ^ 2 - 2 y_17_ * y_13_ + 1 y_17_ ^ 2 ] >= 7494.3
quadratic_ranged_29_lb: [ 1 x_5_ ^ 2 - 2 x_18_ * x_5_ + 1 x_18_ ^ 2 + 1 y_5_ ^ 2 - 2 y_18_ * y_5_ + 1 y_18_ ^ 2 ] >= 36101.34
quadratic_ranged_30_lb: [ 1 x_6_ ^ 2 - 2 x_18_ * x_6_ + 1 x_18_ ^ 2 + 1 y_6_ ^ 2 - 2 y_18_ * y_6_ + 1 y_18_ ^ 2 ] >= 13592.7
quadratic_ranged_31_lb: [ 1 x_8_ ^ 2 - 2 x_18_ * x_8_ + 1 x_18_ ^ 2 + 1 y_8_ ^ 2 - 2 y_18_ * y_8_ + 1 y_18_ ^ 2 ] >= 37105.2
quadratic_ranged_32_lb: [ 1 x_14_ ^ 2 - 2 x_19_ * x_14_ + 1 x_19_ ^ 2 + 1 y_14_ ^ 2 - 2 y_19_ * y_14_ + 1 y_19_ ^ 2 ] >= 9266.4
quadratic_ranged_33_lb: [ 1 x_13_ ^ 2 - 2 x_20_ * x_13_ + 1 x_20_ ^ 2 + 1 y_13_ ^ 2 - 2 y_20_ * y_13_ + 1 y_20_ ^ 2 ] >= 14186.7
quadratic_ranged_34_lb: [ 1 x_18_ ^ 2 - 2 x_20_ * x_18_ + 1 x_20_ ^ 2 + 1 y_18_ ^ 2 - 2 y_20_ * y_18_ + 1 y_20_ ^ 2 ] >= 3217.5
quadratic_ranged_35_lb: [ 1 x_19_ ^ 2 - 2 x_20_ * x_19_ + 1 x_20_ ^ 2 + 1 y_19_ ^ 2 - 2 y_20_ * y_19_ + 1 y_20_ ^ 2 ] >= 32458.14
quadratic_ranged_36_lb: [ 1 x_2_ ^ 2 - 2 x_21_ * x_2_ + 1 x_21_ ^ 2 + 1 y_2_ ^ 2 - 2 y_21_ * y_2_ + 1 y_21_ ^ 2 ] >= 9498.06
quadratic_ranged_37_lb: [ 1 x_3_ ^ 2 - 2 x_21_ * x_3_ + 1 x_21_ ^ 2 + 1 y_3_ ^ 2 - 2 y_21_ * y_3_ + 1 y_21_ ^ 2 ] >= 24433.2
quadratic_ranged_38_lb: [ 1 x_10_ ^ 2 - 2 x_21_ * x_10_ + 1 x_21_ ^ 2 + 1 y_10_ ^ 2 - 2 y_21_ * y_10_ + 1 y_21_ ^ 2 ] >= 21135.51
quadratic_ranged_39_lb: [ 1 x_10_ ^ 2 - 2 x_22_ * x_10_ + 1 x_22_ ^ 2 + 1 y_10_ ^ 2 - 2 y_22_ * y_10_ + 1 y_22_ ^ 2 ] >= 15701.4
quadratic_ranged_40_lb: [ 1 x_20_ ^ 2 - 2 x_22_ * x_20_ + 1 x_22_ ^ 2 + 1 y_20_ ^ 2 - 2 y_22_ * y_20_ + 1 y_22_ ^ 2 ] >= 35121.24
quadratic_ranged_41_lb: [ 1 x_12_ ^ 2 - 2 x_23_ * x_12_ + 1 x_23_ ^ 2 + 1 y_12_ ^ 2 - 2 y_23_ * y_12_ + 1 y_23_ ^ 2 ] >= 34539.12
quadratic_ranged_42_lb: [ 1 x_4_ ^ 2 - 2 x_24_ * x_4_ + 1 x_24_ ^ 2 + 1 y_4_ ^ 2 - 2 y_24_ * y_4_ + 1 y_24_ ^ 2 ] >= 22992.75
quadratic_ranged_43_lb: [ 1 x_9_ ^ 2 - 2 x_24_ * x_9_ + 1 x_24_ ^ 2 + 1 y_9_ ^ 2 - 2 y_24_ * y_9_ + 1 y_24_ ^ 2 ] >= 1699.83
quadratic_ranged_44_lb: [ 1 x_14_ ^ 2 - 2 x_24_ * x_14_ + 1 x_24_ ^ 2 + 1 y_14_ ^ 2 - 2 y_24_ * y_14_ + 1 y_24_ ^ 2 ] >= 22676.94
quadratic_ranged_45_lb: [ 1 x_15_ ^ 2 - 2 x_25_ * x_15_ + 1 x_25_ ^ 2 + 1 y_15_ ^ 2 - 2 y_25_ * y_15_ + 1 y_25_ ^ 2 ] >= 2158.2
quadratic_ranged_46_lb: [ 1 x_19_ ^ 2 - 2 x_25_ * x_19_ + 1 x_25_ ^ 2 + 1 y_19_ ^ 2 - 2 y_25_ * y_19_ + 1 y_25_ ^ 2 ] >= 16981.47
quadratic_ranged_47_lb: [ 1 x_11_ ^ 2 - 2 x_26_ * x_11_ + 1 x_26_ ^ 2 + 1 y_11_ ^ 2 - 2 y_26_ * y_11_ + 1 y_26_ ^ 2 ] >= 43704.54
quadratic_ranged_48_lb: [ 1 x_17_ ^ 2 - 2 x_26_ * x_17_ + 1 x_26_ ^ 2 + 1 y_17_ ^ 2 - 2 y_26_ * y_17_ + 1 y_26_ ^ 2 ] >= 4041.18
quadratic_ranged_49_lb: [ 1 x_3_ ^ 2 - 2 x_27_ * x_3_ + 1 x_27_ ^ 2 + 1 y_3_ ^ 2 - 2 y_27_ * y_3_ + 1 y_27_ ^ 2 ] >= 8492.22
quadratic_ranged_50_lb: [ 1 x_23_ ^ 2 - 2 x_27_ * x_23_ + 1 x_27_ ^ 2 + 1 y_23_ ^ 2 - 2 y_27_ * y_23_ + 1 y_27_ ^ 2 ] >= 9434.7
quadratic_ranged_51_lb: [ 1 x_3_ ^ 2 - 2 x_28_ * x_3_ + 1 x_28_ ^ 2 + 1 y_3_ ^ 2 - 2 y_28_ * y_3_ + 1 y_28_ ^ 2 ] >= 18748.62
quadratic_ranged_52_lb: [ 1 x_19_ ^ 2 - 2 x_28_ * x_19_ + 1 x_28_ ^ 2 + 1 y_19_ ^ 2 - 2 y_28_ * y_19_ + 1 y_28_ ^ 2 ] >= 25780.59
quadratic_ranged_53_lb: [ 1 x_23_ ^ 2 - 2 x_28_ * x_23_ + 1 x_28_ ^ 2 + 1 y_23_ ^ 2 - 2 y_28_ * y_23_ + 1 y_28_ ^ 2 ] >= 22621.5
c1_1: 1 x_1_ = 0
c2_1: 1 y_1_ = 0
Bounds
x_1_ = 0
-102 <= x_2_ <= 102
-121 <= x_3_ <= 121
-227 <= x_4_ <= 227
-262 <= x_5_ <= 262
-243 <= x_6_ <= 243
-166 <= x_7_ <= 166
-172 <= x_8_ <= 172
-71 <= x_9_ <= 71
-161 <= x_10_ <= 161
-110 <= x_11_ <= 110
-275 <= x_12_ <= 275
-214 <= x_13_ <= 214
-164 <= x_14_ <= 164
-159 <= x_15_ <= 159
-194 <= x_16_ <= 194
-301 <= x_17_ <= 301
-361 <= x_18_ <= 361
-261 <= x_19_ <= 261
-334 <= x_20_ <= 334
-201 <= x_21_ <= 201
-288 <= x_22_ <= 288
-312 <= x_23_ <= 312
-113 <= x_24_ <= 113
-206 <= x_25_ <= 206
-322 <= x_26_ <= 322
-214 <= x_27_ <= 214
-259 <= x_28_ <= 259
y_1_ = 0
-102 <= y_2_ <= 102
-121 <= y_3_ <= 121
-227 <= y_4_ <= 227
-262 <= y_5_ <= 262
-243 <= y_6_ <= 243
-166 <= y_7_ <= 166
-172 <= y_8_ <= 172
-71 <= y_9_ <= 71
-161 <= y_10_ <= 161
-110 <= y_11_ <= 110
-275 <= y_12_ <= 275
-214 <= y_13_ <= 214
-164 <= y_14_ <= 164
-159 <= y_15_ <= 159
-194 <= y_16_ <= 194
-301 <= y_17_ <= 301
-361 <= y_18_ <= 361
-261 <= y_19_ <= 261
-334 <= y_20_ <= 334
-201 <= y_21_ <= 201
-288 <= y_22_ <= 288
-312 <= y_23_ <= 312
-113 <= y_24_ <= 113
-206 <= y_25_ <= 206
-322 <= y_26_ <= 322
-214 <= y_27_ <= 214
-259 <= y_28_ <= 259
General
x_1_
x_2_
x_3_
x_4_
x_5_
x_6_
x_7_
x_8_
x_9_
x_10_
x_11_
x_12_
x_13_
x_14_
x_15_
x_16_
x_17_
x_18_
x_19_
x_20_
x_21_
x_22_
x_23_
x_24_
x_25_
x_26_
x_27_
x_28_
y_1_
y_2_
y_3_
y_4_
y_5_
y_6_
y_7_
y_8_
y_9_
y_10_
y_11_
y_12_
y_13_
y_14_
y_15_
y_16_
y_17_
y_18_
y_19_
y_20_
y_21_
y_22_
y_23_
y_24_
y_25_
y_26_
y_27_
y_28_
End
