minimize
obj: 
subject to
c1_4: -1 x_19_ + 1 y_19_ <= 0
c1_1: [ 1 x_1_ ^ 2 + 1 y_1_ ^ 2 ] <= 125673
c2_1: [ 1 x_2_ ^ 2 + 1 y_2_ ^ 2 ] <= 65348
c3_1: [ 1 x_3_ ^ 2 + 1 y_3_ ^ 2 ] <= 9172
c4_1: [ 1 x_4_ ^ 2 + 1 y_4_ ^ 2 ] <= 18869
c5_1: [ 1 x_5_ ^ 2 + 1 y_5_ ^ 2 ] <= 60650
c6_1: [ 1 x_6_ ^ 2 + 1 y_6_ ^ 2 ] <= 82741
c7_1: [ 1 x_7_ ^ 2 + 1 y_7_ ^ 2 ] <= 15490
c8_1: [ 1 x_9_ ^ 2 + 1 y_9_ ^ 2 ] <= 6425
c9_1: [ 1 x_10_ ^ 2 + 1 y_10_ ^ 2 ] <= 12828
c10_1: [ 1 x_11_ ^ 2 + 1 y_11_ ^ 2 ] <= 41209
c11_1: [ 1 x_12_ ^ 2 + 1 y_12_ ^ 2 ] <= 54065
c12_1: [ 1 x_13_ ^ 2 + 1 y_13_ ^ 2 ] <= 35164
c13_1: [ 1 x_14_ ^ 2 + 1 y_14_ ^ 2 ] <= 12365
c14_1: [ 1 x_15_ ^ 2 + 1 y_15_ ^ 2 ] <= 16785
c15_1: [ 1 x_16_ ^ 2 + 1 y_16_ ^ 2 ] <= 30098
c16_1: [ 1 x_17_ ^ 2 + 1 y_17_ ^ 2 ] <= 83925
c17_1: [ 1 x_18_ ^ 2 + 1 y_18_ ^ 2 ] <= 59999
c18_1: [ 1 x_19_ ^ 2 + 1 y_19_ ^ 2 ] <= 140312
c19_1: [ 1 x_20_ ^ 2 + 1 y_20_ ^ 2 ] <= 106392
c20_1: [ 1 x_21_ ^ 2 + 1 y_21_ ^ 2 ] <= 66471
c21_1: [ 1 x_22_ ^ 2 + 1 y_22_ ^ 2 ] <= 19520
c22_1: [ 1 x_23_ ^ 2 + 1 y_23_ ^ 2 ] <= 54246
c23_1: [ 1 x_24_ ^ 2 + 1 y_24_ ^ 2 ] <= 112051
c24_1: [ 1 x_25_ ^ 2 + 1 y_25_ ^ 2 ] <= 103492
c25_1: [ 1 x_26_ ^ 2 + 1 y_26_ ^ 2 ] <= 26273
c1_3: 1 x_19_ >= 0
c2_3: 1 y_19_ >= 0
c1_2: 1 x_8_ = 0
c2_2: 1 y_8_ = 0
c1: [ 1 x_1_ ^ 2 - 2 x_2_ * x_1_ + 1 x_2_ ^ 2 + 1 y_1_ ^ 2 - 2 y_2_ * y_1_ + 1 y_2_ ^ 2 ] = 34745
c2: [ 1 x_2_ ^ 2 - 2 x_3_ * x_2_ + 1 x_3_ ^ 2 + 1 y_2_ ^ 2 - 2 y_3_ * y_2_ + 1 y_3_ ^ 2 ] = 25556
c3: [ 1 x_3_ ^ 2 - 2 x_4_ * x_3_ + 1 x_4_ ^ 2 + 1 y_3_ ^ 2 - 2 y_4_ * y_3_ + 1 y_4_ ^ 2 ] = 1730
c4: [ 1 x_4_ ^ 2 - 2 x_5_ * x_4_ + 1 x_5_ ^ 2 + 1 y_4_ ^ 2 - 2 y_5_ * y_4_ + 1 y_5_ ^ 2 ] = 11861
c5: [ 1 x_5_ ^ 2 - 2 x_6_ * x_5_ + 1 x_6_ ^ 2 + 1 y_5_ ^ 2 - 2 y_6_ * y_5_ + 1 y_6_ ^ 2 ] = 12244
c6: [ 1 x_2_ ^ 2 - 2 x_7_ * x_2_ + 1 x_7_ ^ 2 + 1 y_2_ ^ 2 - 2 y_7_ * y_2_ + 1 y_7_ ^ 2 ] = 37298
c7: [ 1 x_6_ ^ 2 - 2 x_7_ * x_6_ + 1 x_7_ ^ 2 + 1 y_6_ ^ 2 - 2 y_7_ * y_6_ + 1 y_7_ ^ 2 ] = 33245
c8: [ 1 x_3_ ^ 2 - 2 x_8_ * x_3_ + 1 x_8_ ^ 2 + 1 y_3_ ^ 2 - 2 y_8_ * y_3_ + 1 y_8_ ^ 2 ] = 9172
c9: [ 1 x_7_ ^ 2 - 2 x_8_ * x_7_ + 1 x_8_ ^ 2 + 1 y_7_ ^ 2 - 2 y_8_ * y_7_ + 1 y_8_ ^ 2 ] = 15490
c10: [ 1 x_8_ ^ 2 - 2 x_9_ * x_8_ + 1 x_9_ ^ 2 + 1 y_8_ ^ 2 - 2 y_9_ * y_8_ + 1 y_9_ ^ 2 ] = 6425
c11: [ 1 x_9_ ^ 2 - 2 x_10_ * x_9_ + 1 x_10_ ^ 2 + 1 y_9_ ^ 2 - 2 y_10_ * y_9_ + 1 y_10_ ^ 2 ] = 1096
c12: [ 1 x_10_ ^ 2 - 2 x_11_ * x_10_ + 1 x_11_ ^ 2 + 1 y_10_ ^ 2 - 2 y_11_ * y_10_ + 1 y_11_ ^ 2 ] = 8053
c13: [ 1 x_5_ ^ 2 - 2 x_12_ * x_5_ + 1 x_12_ ^ 2 + 1 y_5_ ^ 2 - 2 y_12_ * y_5_ + 1 y_12_ ^ 2 ] = 9736
c14: [ 1 x_11_ ^ 2 - 2 x_12_ * x_11_ + 1 x_12_ ^ 2 + 1 y_11_ ^ 2 - 2 y_12_ * y_11_ + 1 y_12_ ^ 2 ] = 1117
c15: [ 1 x_12_ ^ 2 - 2 x_13_ * x_12_ + 1 x_13_ ^ 2 + 1 y_12_ ^ 2 - 2 y_13_ * y_12_ + 1 y_13_ ^ 2 ] = 2025
c16: [ 1 x_8_ ^ 2 - 2 x_14_ * x_8_ + 1 x_14_ ^ 2 + 1 y_8_ ^ 2 - 2 y_14_ * y_8_ + 1 y_14_ ^ 2 ] = 12365
c17: [ 1 x_13_ ^ 2 - 2 x_14_ * x_13_ + 1 x_14_ ^ 2 + 1 y_13_ ^ 2 - 2 y_14_ * y_13_ + 1 y_14_ ^ 2 ] = 5825
c18: [ 1 x_2_ ^ 2 - 2 x_15_ * x_2_ + 1 x_15_ ^ 2 + 1 y_2_ ^ 2 - 2 y_15_ * y_2_ + 1 y_15_ ^ 2 ] = 34192
c19: [ 1 x_6_ ^ 2 - 2 x_15_ * x_6_ + 1 x_15_ ^ 2 + 1 y_6_ ^ 2 - 2 y_15_ * y_6_ + 1 y_15_ ^ 2 ] = 24993
c20: [ 1 x_14_ ^ 2 - 2 x_15_ * x_14_ + 1 x_15_ ^ 2 + 1 y_14_ ^ 2 - 2 y_15_ * y_14_ + 1 y_15_ ^ 2 ] = 337
c21: [ 1 x_2_ ^ 2 - 2 x_16_ * x_2_ + 1 x_16_ ^ 2 + 1 y_2_ ^ 2 - 2 y_16_ * y_2_ + 1 y_16_ ^ 2 ] = 36818
c22: [ 1 x_15_ ^ 2 - 2 x_16_ * x_15_ + 1 x_16_ ^ 2 + 1 y_15_ ^ 2 - 2 y_16_ * y_15_ + 1 y_16_ ^ 2 ] = 1930
c23: [ 1 x_16_ ^ 2 - 2 x_17_ * x_16_ + 1 x_17_ ^ 2 + 1 y_16_ ^ 2 - 2 y_17_ * y_16_ + 1 y_17_ ^ 2 ] = 13505
c24: [ 1 x_13_ ^ 2 - 2 x_18_ * x_13_ + 1 x_18_ ^ 2 + 1 y_13_ ^ 2 - 2 y_18_ * y_13_ + 1 y_18_ ^ 2 ] = 3298
c25: [ 1 x_17_ ^ 2 - 2 x_18_ * x_17_ + 1 x_18_ ^ 2 + 1 y_17_ ^ 2 - 2 y_18_ * y_17_ + 1 y_18_ ^ 2 ] = 6521
c26: [ 1 x_18_ ^ 2 - 2 x_19_ * x_18_ + 1 x_19_ ^ 2 + 1 y_18_ ^ 2 - 2 y_19_ * y_18_ + 1 y_19_ ^ 2 ] = 16805
c27: [ 1 x_5_ ^ 2 - 2 x_20_ * x_5_ + 1 x_20_ ^ 2 + 1 y_5_ ^ 2 - 2 y_20_ * y_5_ + 1 y_20_ ^ 2 ] = 6385
c28: [ 1 x_17_ ^ 2 - 2 x_20_ * x_17_ + 1 x_20_ ^ 2 + 1 y_17_ ^ 2 - 2 y_20_ * y_17_ + 1 y_20_ ^ 2 ] = 42257
c29: [ 1 x_19_ ^ 2 - 2 x_20_ * x_19_ + 1 x_20_ ^ 2 + 1 y_19_ ^ 2 - 2 y_20_ * y_19_ + 1 y_20_ ^ 2 ] = 17485
c30: [ 1 x_20_ ^ 2 - 2 x_21_ * x_20_ + 1 x_21_ ^ 2 + 1 y_20_ ^ 2 - 2 y_21_ * y_20_ + 1 y_21_ ^ 2 ] = 13985
c31: [ 1 x_8_ ^ 2 - 2 x_22_ * x_8_ + 1 x_22_ ^ 2 + 1 y_8_ ^ 2 - 2 y_22_ * y_8_ + 1 y_22_ ^ 2 ] = 19520
c32: [ 1 x_21_ ^ 2 - 2 x_22_ * x_21_ + 1 x_22_ ^ 2 + 1 y_21_ ^ 2 - 2 y_22_ * y_21_ + 1 y_22_ ^ 2 ] = 13949
c33: [ 1 x_22_ ^ 2 - 2 x_23_ * x_22_ + 1 x_23_ ^ 2 + 1 y_22_ ^ 2 - 2 y_23_ * y_22_ + 1 y_23_ ^ 2 ] = 8685
c34: [ 1 x_6_ ^ 2 - 2 x_24_ * x_6_ + 1 x_24_ ^ 2 + 1 y_6_ ^ 2 - 2 y_24_ * y_6_ + 1 y_24_ ^ 2 ] = 17460
c35: [ 1 x_16_ ^ 2 - 2 x_24_ * x_16_ + 1 x_24_ ^ 2 + 1 y_16_ ^ 2 - 2 y_24_ * y_16_ + 1 y_24_ ^ 2 ] = 33973
c36: [ 1 x_23_ ^ 2 - 2 x_24_ * x_23_ + 1 x_24_ ^ 2 + 1 y_23_ ^ 2 - 2 y_24_ * y_23_ + 1 y_24_ ^ 2 ] = 10370
c37: [ 1 x_13_ ^ 2 - 2 x_25_ * x_13_ + 1 x_25_ ^ 2 + 1 y_13_ ^ 2 - 2 y_25_ * y_13_ + 1 y_25_ ^ 2 ] = 18005
c38: [ 1 x_24_ ^ 2 - 2 x_25_ * x_24_ + 1 x_25_ ^ 2 + 1 y_24_ ^ 2 - 2 y_25_ * y_24_ + 1 y_25_ ^ 2 ] = 44642
c39: [ 1 x_1_ ^ 2 - 2 x_26_ * x_1_ + 1 x_26_ ^ 2 + 1 y_1_ ^ 2 - 2 y_26_ * y_1_ + 1 y_26_ ^ 2 ] = 37024
c40: [ 1 x_10_ ^ 2 - 2 x_26_ * x_10_ + 1 x_26_ ^ 2 + 1 y_10_ ^ 2 - 2 y_26_ * y_10_ + 1 y_26_ ^ 2 ] = 2384
c41: [ 1 x_25_ ^ 2 - 2 x_26_ * x_25_ + 1 x_26_ ^ 2 + 1 y_25_ ^ 2 - 2 y_26_ * y_25_ + 1 y_26_ ^ 2 ] = 39968
Bounds
-354 <= x_1_ <= 354
-255 <= x_2_ <= 255
-95 <= x_3_ <= 95
-137 <= x_4_ <= 137
-246 <= x_5_ <= 246
-287 <= x_6_ <= 287
-124 <= x_7_ <= 124
x_8_ = 0
-80 <= x_9_ <= 80
-113 <= x_10_ <= 113
-203 <= x_11_ <= 203
-232 <= x_12_ <= 232
-187 <= x_13_ <= 187
-111 <= x_14_ <= 111
-129 <= x_15_ <= 129
-173 <= x_16_ <= 173
-289 <= x_17_ <= 289
-244 <= x_18_ <= 244
-374 <= x_19_ <= 374
-326 <= x_20_ <= 326
-257 <= x_21_ <= 257
-139 <= x_22_ <= 139
-232 <= x_23_ <= 232
-334 <= x_24_ <= 334
-321 <= x_25_ <= 321
-162 <= x_26_ <= 162
-354 <= y_1_ <= 354
-255 <= y_2_ <= 255
-95 <= y_3_ <= 95
-137 <= y_4_ <= 137
-246 <= y_5_ <= 246
-287 <= y_6_ <= 287
-124 <= y_7_ <= 124
y_8_ = 0
-80 <= y_9_ <= 80
-113 <= y_10_ <= 113
-203 <= y_11_ <= 203
-232 <= y_12_ <= 232
-187 <= y_13_ <= 187
-111 <= y_14_ <= 111
-129 <= y_15_ <= 129
-173 <= y_16_ <= 173
-289 <= y_17_ <= 289
-244 <= y_18_ <= 244
-374 <= y_19_ <= 374
-326 <= y_20_ <= 326
-257 <= y_21_ <= 257
-139 <= y_22_ <= 139
-232 <= y_23_ <= 232
-334 <= y_24_ <= 334
-321 <= y_25_ <= 321
-162 <= y_26_ <= 162
General
x_1_
x_2_
x_3_
x_4_
x_5_
x_6_
x_7_
x_8_
x_9_
x_10_
x_11_
x_12_
x_13_
x_14_
x_15_
x_16_
x_17_
x_18_
x_19_
x_20_
x_21_
x_22_
x_23_
x_24_
x_25_
x_26_
y_1_
y_2_
y_3_
y_4_
y_5_
y_6_
y_7_
y_8_
y_9_
y_10_
y_11_
y_12_
y_13_
y_14_
y_15_
y_16_
y_17_
y_18_
y_19_
y_20_
y_21_
y_22_
y_23_
y_24_
y_25_
y_26_
End
