minimize
obj: 
subject to
c1_3: -1 x_24_ + 1 y_24_ <= 0
c1: [ 1 x_1_ ^ 2 + 1 y_1_ ^ 2 ] <= 1716.9999999999998
c2: [ 1 x_3_ ^ 2 + 1 y_3_ ^ 2 ] <= 34130.47501951854
c3: [ 1 x_4_ ^ 2 + 1 y_4_ ^ 2 ] <= 31748.646056473113
c4: [ 1 x_5_ ^ 2 + 1 y_5_ ^ 2 ] <= 53501.734466188966
c5: [ 1 x_6_ ^ 2 + 1 y_6_ ^ 2 ] <= 12595.163063876491
c6: [ 1 x_7_ ^ 2 + 1 y_7_ ^ 2 ] <= 4730.044102678087
c7: [ 1 x_8_ ^ 2 + 1 y_8_ ^ 2 ] <= 8615.299999999997
c8: [ 1 x_9_ ^ 2 + 1 y_9_ ^ 2 ] <= 30769.649999999994
c9: [ 1 x_10_ ^ 2 + 1 y_10_ ^ 2 ] <= 22725.121782777667
c10: [ 1 x_11_ ^ 2 + 1 y_11_ ^ 2 ] <= 10502.893119918192
c11: [ 1 x_12_ ^ 2 + 1 y_12_ ^ 2 ] <= 27350.85200052926
c12: [ 1 x_13_ ^ 2 + 1 y_13_ ^ 2 ] <= 44150.62531118466
c13: [ 1 x_14_ ^ 2 + 1 y_14_ ^ 2 ] <= 8812.250000000002
c14: [ 1 x_15_ ^ 2 + 1 y_15_ ^ 2 ] <= 40245.446579595104
c15: [ 1 x_16_ ^ 2 + 1 y_16_ ^ 2 ] <= 14706.609999999997
c16: [ 1 x_17_ ^ 2 + 1 y_17_ ^ 2 ] <= 46331.07909386112
c17: [ 1 x_18_ ^ 2 + 1 y_18_ ^ 2 ] <= 39420.3233246933
c18: [ 1 x_19_ ^ 2 + 1 y_19_ ^ 2 ] <= 11014.50342414528
c19: [ 1 x_20_ ^ 2 + 1 y_20_ ^ 2 ] <= 10949.409999999998
c20: [ 1 x_21_ ^ 2 + 1 y_21_ ^ 2 ] <= 43949.42001961183
c21: [ 1 x_22_ ^ 2 + 1 y_22_ ^ 2 ] <= 30463.796752715618
c22: [ 1 x_23_ ^ 2 + 1 y_23_ ^ 2 ] <= 63224.93973546994
c23: [ 1 x_24_ ^ 2 + 1 y_24_ ^ 2 ] <= 85701.81232128844
c24: [ 1 x_25_ ^ 2 + 1 y_25_ ^ 2 ] <= 53385.61374352587
c25: [ 1 x_26_ ^ 2 + 1 y_26_ ^ 2 ] <= 13658.114245640141
c26: [ 1 x_27_ ^ 2 + 1 y_27_ ^ 2 ] <= 64248.92192593255
c27: [ 1 x_28_ ^ 2 + 1 y_28_ ^ 2 ] <= 25486.752106189044
quadratic_ranged_1_ub: [ 1 x_1_ ^ 2 - 2 x_2_ * x_1_ + 1 x_2_ ^ 2 + 1 y_1_ ^ 2 - 2 y_2_ * y_1_ + 1 y_2_ ^ 2 ] <= 1717
quadratic_ranged_2_ub: [ 1 x_1_ ^ 2 - 2 x_4_ * x_1_ + 1 x_4_ ^ 2 + 1 y_1_ ^ 2 - 2 y_4_ * y_1_ + 1 y_4_ ^ 2 ] <= 18699.14
quadratic_ranged_3_ub: [ 1 x_4_ ^ 2 - 2 x_5_ * x_4_ + 1 x_5_ ^ 2 + 1 y_4_ ^ 2 - 2 y_5_ * y_4_ + 1 y_5_ ^ 2 ] <= 18132.53
quadratic_ranged_4_ub: [ 1 x_5_ ^ 2 - 2 x_6_ * x_5_ + 1 x_6_ ^ 2 + 1 y_5_ ^ 2 - 2 y_6_ * y_5_ + 1 y_6_ ^ 2 ] <= 51196.9
quadratic_ranged_5_ub: [ 1 x_1_ ^ 2 - 2 x_7_ * x_1_ + 1 x_7_ ^ 2 + 1 y_1_ ^ 2 - 2 y_7_ * y_1_ + 1 y_7_ ^ 2 ] <= 747.4
quadratic_ranged_6_ub: [ 1 x_6_ ^ 2 - 2 x_7_ * x_6_ + 1 x_7_ ^ 2 + 1 y_6_ ^ 2 - 2 y_7_ * y_6_ + 1 y_7_ ^ 2 ] <= 5612.57
quadratic_ranged_7_ub: [ 1 x_2_ ^ 2 - 2 x_8_ * x_2_ + 1 x_8_ ^ 2 + 1 y_2_ ^ 2 - 2 y_8_ * y_2_ + 1 y_8_ ^ 2 ] <= 8615.3
quadratic_ranged_8_ub: [ 1 x_3_ ^ 2 - 2 x_8_ * x_3_ + 1 x_8_ ^ 2 + 1 y_3_ ^ 2 - 2 y_8_ * y_3_ + 1 y_8_ ^ 2 ] <= 22826
quadratic_ranged_9_ub: [ 1 x_6_ ^ 2 - 2 x_8_ * x_6_ + 1 x_8_ ^ 2 + 1 y_6_ ^ 2 - 2 y_8_ * y_6_ + 1 y_8_ ^ 2 ] <= 376.73
quadratic_ranged_10_ub: [ 1 x_2_ ^ 2 - 2 x_9_ * x_2_ + 1 x_9_ ^ 2 + 1 y_2_ ^ 2 - 2 y_9_ * y_2_ + 1 y_9_ ^ 2 ] <= 30769.65
quadratic_ranged_11_ub: [ 1 x_6_ ^ 2 - 2 x_9_ * x_6_ + 1 x_9_ ^ 2 + 1 y_6_ ^ 2 - 2 y_9_ * y_6_ + 1 y_9_ ^ 2 ] <= 14544
quadratic_ranged_12_ub: [ 1 x_8_ ^ 2 - 2 x_9_ * x_8_ + 1 x_9_ ^ 2 + 1 y_8_ ^ 2 - 2 y_9_ * y_8_ + 1 y_9_ ^ 2 ] <= 10557.53
quadratic_ranged_13_ub: [ 1 x_5_ ^ 2 - 2 x_10_ * x_5_ + 1 x_10_ ^ 2 + 1 y_5_ ^ 2 - 2 y_10_ * y_5_ + 1 y_10_ ^ 2 ] <= 6489.25
quadratic_ranged_14_ub: [ 1 x_7_ ^ 2 - 2 x_10_ * x_7_ + 1 x_10_ ^ 2 + 1 y_7_ ^ 2 - 2 y_10_ * y_7_ + 1 y_10_ ^ 2 ] <= 8106.26
quadratic_ranged_15_ub: [ 1 x_5_ ^ 2 - 2 x_11_ * x_5_ + 1 x_11_ ^ 2 + 1 y_5_ ^ 2 - 2 y_11_ * y_5_ + 1 y_11_ ^ 2 ] <= 31570.58
quadratic_ranged_16_ub: [ 1 x_7_ ^ 2 - 2 x_11_ * x_7_ + 1 x_11_ ^ 2 + 1 y_7_ ^ 2 - 2 y_11_ * y_7_ + 1 y_11_ ^ 2 ] <= 1136.25
quadratic_ranged_17_ub: [ 1 x_4_ ^ 2 - 2 x_13_ * x_4_ + 1 x_13_ ^ 2 + 1 y_4_ ^ 2 - 2 y_13_ * y_4_ + 1 y_13_ ^ 2 ] <= 1020.1
quadratic_ranged_18_ub: [ 1 x_12_ ^ 2 - 2 x_13_ * x_12_ + 1 x_13_ ^ 2 + 1 y_12_ ^ 2 - 2 y_13_ * y_12_ + 1 y_13_ ^ 2 ] <= 5383.3
quadratic_ranged_19_ub: [ 1 x_2_ ^ 2 - 2 x_14_ * x_2_ + 1 x_14_ ^ 2 + 1 y_2_ ^ 2 - 2 y_14_ * y_2_ + 1 y_14_ ^ 2 ] <= 8812.25
quadratic_ranged_20_ub: [ 1 x_3_ ^ 2 - 2 x_14_ * x_3_ + 1 x_14_ ^ 2 + 1 y_3_ ^ 2 - 2 y_14_ * y_3_ + 1 y_14_ ^ 2 ] <= 30632.29
quadratic_ranged_21_ub: [ 1 x_3_ ^ 2 - 2 x_15_ * x_3_ + 1 x_15_ ^ 2 + 1 y_3_ ^ 2 - 2 y_15_ * y_3_ + 1 y_15_ ^ 2 ] <= 17926.49
quadratic_ranged_22_ub: [ 1 x_7_ ^ 2 - 2 x_15_ * x_7_ + 1 x_15_ ^ 2 + 1 y_7_ ^ 2 - 2 y_15_ * y_7_ + 1 y_15_ ^ 2 ] <= 17381.09
quadratic_ranged_23_ub: [ 1 x_2_ ^ 2 - 2 x_16_ * x_2_ + 1 x_16_ ^ 2 + 1 y_2_ ^ 2 - 2 y_16_ * y_2_ + 1 y_16_ ^ 2 ] <= 14706.61
quadratic_ranged_24_ub: [ 1 x_3_ ^ 2 - 2 x_16_ * x_3_ + 1 x_16_ ^ 2 + 1 y_3_ ^ 2 - 2 y_16_ * y_3_ + 1 y_16_ ^ 2 ] <= 4028.89
quadratic_ranged_25_ub: [ 1 x_5_ ^ 2 - 2 x_16_ * x_5_ + 1 x_16_ ^ 2 + 1 y_5_ ^ 2 - 2 y_16_ * y_5_ + 1 y_16_ ^ 2 ] <= 14982.34
quadratic_ranged_26_ub: [ 1 x_14_ ^ 2 - 2 x_17_ * x_14_ + 1 x_17_ ^ 2 + 1 y_14_ ^ 2 - 2 y_17_ * y_14_ + 1 y_17_ ^ 2 ] <= 30461.6
quadratic_ranged_27_ub: [ 1 x_16_ ^ 2 - 2 x_17_ * x_16_ + 1 x_17_ ^ 2 + 1 y_16_ ^ 2 - 2 y_17_ * y_16_ + 1 y_17_ ^ 2 ] <= 8831.44
quadratic_ranged_28_ub: [ 1 x_10_ ^ 2 - 2 x_18_ * x_10_ + 1 x_18_ ^ 2 + 1 y_10_ ^ 2 - 2 y_18_ * y_10_ + 1 y_18_ ^ 2 ] <= 7527.53
quadratic_ranged_29_ub: [ 1 x_12_ ^ 2 - 2 x_18_ * x_12_ + 1 x_18_ ^ 2 + 1 y_12_ ^ 2 - 2 y_18_ * y_12_ + 1 y_18_ ^ 2 ] <= 1099.89
quadratic_ranged_30_ub: [ 1 x_1_ ^ 2 - 2 x_19_ * x_1_ + 1 x_19_ ^ 2 + 1 y_1_ ^ 2 - 2 y_19_ * y_1_ + 1 y_19_ ^ 2 ] <= 4033.94
quadratic_ranged_31_ub: [ 1 x_3_ ^ 2 - 2 x_19_ * x_3_ + 1 x_19_ ^ 2 + 1 y_3_ ^ 2 - 2 y_19_ * y_3_ + 1 y_19_ ^ 2 ] <= 8855.68
quadratic_ranged_32_ub: [ 1 x_7_ ^ 2 - 2 x_19_ * x_7_ + 1 x_19_ ^ 2 + 1 y_7_ ^ 2 - 2 y_19_ * y_7_ + 1 y_19_ ^ 2 ] <= 2522.98
quadratic_ranged_33_ub: [ 1 x_2_ ^ 2 - 2 x_20_ * x_2_ + 1 x_20_ ^ 2 + 1 y_2_ ^ 2 - 2 y_20_ * y_2_ + 1 y_20_ ^ 2 ] <= 10949.41
quadratic_ranged_34_ub: [ 1 x_10_ ^ 2 - 2 x_20_ * x_10_ + 1 x_20_ ^ 2 + 1 y_10_ ^ 2 - 2 y_20_ * y_10_ + 1 y_20_ ^ 2 ] <= 2126.05
quadratic_ranged_35_ub: [ 1 x_12_ ^ 2 - 2 x_20_ * x_12_ + 1 x_20_ ^ 2 + 1 y_12_ ^ 2 - 2 y_20_ * y_12_ + 1 y_20_ ^ 2 ] <= 3689.53
quadratic_ranged_36_ub: [ 1 x_16_ ^ 2 - 2 x_21_ * x_16_ + 1 x_21_ ^ 2 + 1 y_16_ ^ 2 - 2 y_21_ * y_16_ + 1 y_21_ ^ 2 ] <= 7809.32
quadratic_ranged_37_ub: [ 1 x_17_ ^ 2 - 2 x_21_ * x_17_ + 1 x_21_ ^ 2 + 1 y_17_ ^ 2 - 2 y_21_ * y_17_ + 1 y_21_ ^ 2 ] <= 30837.32
quadratic_ranged_38_ub: [ 1 x_12_ ^ 2 - 2 x_22_ * x_12_ + 1 x_22_ ^ 2 + 1 y_12_ ^ 2 - 2 y_22_ * y_12_ + 1 y_22_ ^ 2 ] <= 732.25
quadratic_ranged_39_ub: [ 1 x_18_ ^ 2 - 2 x_22_ * x_18_ + 1 x_22_ ^ 2 + 1 y_18_ ^ 2 - 2 y_22_ * y_18_ + 1 y_22_ ^ 2 ] <= 3498.64
quadratic_ranged_40_ub: [ 1 x_11_ ^ 2 - 2 x_23_ * x_11_ + 1 x_23_ ^ 2 + 1 y_11_ ^ 2 - 2 y_23_ * y_11_ + 1 y_23_ ^ 2 ] <= 22189.7
quadratic_ranged_41_ub: [ 1 x_12_ ^ 2 - 2 x_23_ * x_12_ + 1 x_23_ ^ 2 + 1 y_12_ ^ 2 - 2 y_23_ * y_12_ + 1 y_23_ ^ 2 ] <= 23089.61
quadratic_ranged_42_ub: [ 1 x_17_ ^ 2 - 2 x_23_ * x_17_ + 1 x_23_ ^ 2 + 1 y_17_ ^ 2 - 2 y_23_ * y_17_ + 1 y_23_ ^ 2 ] <= 36200.42
quadratic_ranged_43_ub: [ 1 x_9_ ^ 2 - 2 x_24_ * x_9_ + 1 x_24_ ^ 2 + 1 y_9_ ^ 2 - 2 y_24_ * y_9_ + 1 y_24_ ^ 2 ] <= 17599.25
quadratic_ranged_44_ub: [ 1 x_15_ ^ 2 - 2 x_24_ * x_15_ + 1 x_24_ ^ 2 + 1 y_15_ ^ 2 - 2 y_24_ * y_15_ + 1 y_24_ ^ 2 ] <= 8489.05
quadratic_ranged_45_ub: [ 1 x_10_ ^ 2 - 2 x_25_ * x_10_ + 1 x_25_ ^ 2 + 1 y_10_ ^ 2 - 2 y_25_ * y_10_ + 1 y_25_ ^ 2 ] <= 6448.85
quadratic_ranged_46_ub: [ 1 x_21_ ^ 2 - 2 x_25_ * x_21_ + 1 x_25_ ^ 2 + 1 y_21_ ^ 2 - 2 y_25_ * y_21_ + 1 y_25_ ^ 2 ] <= 12946.18
quadratic_ranged_47_ub: [ 1 x_7_ ^ 2 - 2 x_26_ * x_7_ + 1 x_26_ ^ 2 + 1 y_7_ ^ 2 - 2 y_26_ * y_7_ + 1 y_26_ ^ 2 ] <= 2312.9
quadratic_ranged_48_ub: [ 1 x_21_ ^ 2 - 2 x_26_ * x_21_ + 1 x_26_ ^ 2 + 1 y_21_ ^ 2 - 2 y_26_ * y_21_ + 1 y_26_ ^ 2 ] <= 12751.25
quadratic_ranged_49_ub: [ 1 x_22_ ^ 2 - 2 x_26_ * x_22_ + 1 x_26_ ^ 2 + 1 y_22_ ^ 2 - 2 y_26_ * y_22_ + 1 y_26_ ^ 2 ] <= 3325.93
quadratic_ranged_50_ub: [ 1 x_14_ ^ 2 - 2 x_27_ * x_14_ + 1 x_27_ ^ 2 + 1 y_14_ ^ 2 - 2 y_27_ * y_14_ + 1 y_27_ ^ 2 ] <= 25472.2
quadratic_ranged_51_ub: [ 1 x_15_ ^ 2 - 2 x_27_ * x_15_ + 1 x_27_ ^ 2 + 1 y_15_ ^ 2 - 2 y_27_ * y_15_ + 1 y_27_ ^ 2 ] <= 39470.8
quadratic_ranged_52_ub: [ 1 x_16_ ^ 2 - 2 x_28_ * x_16_ + 1 x_28_ ^ 2 + 1 y_16_ ^ 2 - 2 y_28_ * y_16_ + 1 y_28_ ^ 2 ] <= 2077.57
quadratic_ranged_53_ub: [ 1 x_19_ ^ 2 - 2 x_28_ * x_19_ + 1 x_28_ ^ 2 + 1 y_19_ ^ 2 - 2 y_28_ * y_19_ + 1 y_28_ ^ 2 ] <= 2991.62
c1_2: 1 x_24_ >= 0
c2_2: 1 y_24_ >= 0
quadratic_ranged_1_lb: [ 1 x_1_ ^ 2 - 2 x_2_ * x_1_ + 1 x_2_ ^ 2 + 1 y_1_ ^ 2 - 2 y_2_ * y_1_ + 1 y_2_ ^ 2 ] >= 1683
quadratic_ranged_2_lb: [ 1 x_1_ ^ 2 - 2 x_4_ * x_1_ + 1 x_4_ ^ 2 + 1 y_1_ ^ 2 - 2 y_4_ * y_1_ + 1 y_4_ ^ 2 ] >= 18328.86
quadratic_ranged_3_lb: [ 1 x_4_ ^ 2 - 2 x_5_ * x_4_ + 1 x_5_ ^ 2 + 1 y_4_ ^ 2 - 2 y_5_ * y_4_ + 1 y_5_ ^ 2 ] >= 17773.47
quadratic_ranged_4_lb: [ 1 x_5_ ^ 2 - 2 x_6_ * x_5_ + 1 x_6_ ^ 2 + 1 y_5_ ^ 2 - 2 y_6_ * y_5_ + 1 y_6_ ^ 2 ] >= 50183.1
quadratic_ranged_5_lb: [ 1 x_1_ ^ 2 - 2 x_7_ * x_1_ + 1 x_7_ ^ 2 + 1 y_1_ ^ 2 - 2 y_7_ * y_1_ + 1 y_7_ ^ 2 ] >= 732.6
quadratic_ranged_6_lb: [ 1 x_6_ ^ 2 - 2 x_7_ * x_6_ + 1 x_7_ ^ 2 + 1 y_6_ ^ 2 - 2 y_7_ * y_6_ + 1 y_7_ ^ 2 ] >= 5501.43
quadratic_ranged_7_lb: [ 1 x_2_ ^ 2 - 2 x_8_ * x_2_ + 1 x_8_ ^ 2 + 1 y_2_ ^ 2 - 2 y_8_ * y_2_ + 1 y_8_ ^ 2 ] >= 8444.7
quadratic_ranged_8_lb: [ 1 x_3_ ^ 2 - 2 x_8_ * x_3_ + 1 x_8_ ^ 2 + 1 y_3_ ^ 2 - 2 y_8_ * y_3_ + 1 y_8_ ^ 2 ] >= 22374
quadratic_ranged_9_lb: [ 1 x_6_ ^ 2 - 2 x_8_ * x_6_ + 1 x_8_ ^ 2 + 1 y_6_ ^ 2 - 2 y_8_ * y_6_ + 1 y_8_ ^ 2 ] >= 369.27
quadratic_ranged_10_lb: [ 1 x_2_ ^ 2 - 2 x_9_ * x_2_ + 1 x_9_ ^ 2 + 1 y_2_ ^ 2 - 2 y_9_ * y_2_ + 1 y_9_ ^ 2 ] >= 30160.35
quadratic_ranged_11_lb: [ 1 x_6_ ^ 2 - 2 x_9_ * x_6_ + 1 x_9_ ^ 2 + 1 y_6_ ^ 2 - 2 y_9_ * y_6_ + 1 y_9_ ^ 2 ] >= 14256
quadratic_ranged_12_lb: [ 1 x_8_ ^ 2 - 2 x_9_ * x_8_ + 1 x_9_ ^ 2 + 1 y_8_ ^ 2 - 2 y_9_ * y_8_ + 1 y_9_ ^ 2 ] >= 10348.47
quadratic_ranged_13_lb: [ 1 x_5_ ^ 2 - 2 x_10_ * x_5_ + 1 x_10_ ^ 2 + 1 y_5_ ^ 2 - 2 y_10_ * y_5_ + 1 y_10_ ^ 2 ] >= 6360.75
quadratic_ranged_14_lb: [ 1 x_7_ ^ 2 - 2 x_10_ * x_7_ + 1 x_10_ ^ 2 + 1 y_7_ ^ 2 - 2 y_10_ * y_7_ + 1 y_10_ ^ 2 ] >= 7945.74
quadratic_ranged_15_lb: [ 1 x_5_ ^ 2 - 2 x_11_ * x_5_ + 1 x_11_ ^ 2 + 1 y_5_ ^ 2 - 2 y_11_ * y_5_ + 1 y_11_ ^ 2 ] >= 30945.42
quadratic_ranged_16_lb: [ 1 x_7_ ^ 2 - 2 x_11_ * x_7_ + 1 x_11_ ^ 2 + 1 y_7_ ^ 2 - 2 y_11_ * y_7_ + 1 y_11_ ^ 2 ] >= 1113.75
quadratic_ranged_17_lb: [ 1 x_4_ ^ 2 - 2 x_13_ * x_4_ + 1 x_13_ ^ 2 + 1 y_4_ ^ 2 - 2 y_13_ * y_4_ + 1 y_13_ ^ 2 ] >= 999.9
quadratic_ranged_18_lb: [ 1 x_12_ ^ 2 - 2 x_13_ * x_12_ + 1 x_13_ ^ 2 + 1 y_12_ ^ 2 - 2 y_13_ * y_12_ + 1 y_13_ ^ 2 ] >= 5276.7
quadratic_ranged_19_lb: [ 1 x_2_ ^ 2 - 2 x_14_ * x_2_ + 1 x_14_ ^ 2 + 1 y_2_ ^ 2 - 2 y_14_ * y_2_ + 1 y_14_ ^ 2 ] >= 8637.75
quadratic_ranged_20_lb: [ 1 x_3_ ^ 2 - 2 x_14_ * x_3_ + 1 x_14_ ^ 2 + 1 y_3_ ^ 2 - 2 y_14_ * y_3_ + 1 y_14_ ^ 2 ] >= 30025.71
quadratic_ranged_21_lb: [ 1 x_3_ ^ 2 - 2 x_15_ * x_3_ + 1 x_15_ ^ 2 + 1 y_3_ ^ 2 - 2 y_15_ * y_3_ + 1 y_15_ ^ 2 ] >= 17571.51
quadratic_ranged_22_lb: [ 1 x_7_ ^ 2 - 2 x_15_ * x_7_ + 1 x_15_ ^ 2 + 1 y_7_ ^ 2 - 2 y_15_ * y_7_ + 1 y_15_ ^ 2 ] >= 17036.91
quadratic_ranged_23_lb: [ 1 x_2_ ^ 2 - 2 x_16_ * x_2_ + 1 x_16_ ^ 2 + 1 y_2_ ^ 2 - 2 y_16_ * y_2_ + 1 y_16_ ^ 2 ] >= 14415.39
quadratic_ranged_24_lb: [ 1 x_3_ ^ 2 - 2 x_16_ * x_3_ + 1 x_16_ ^ 2 + 1 y_3_ ^ 2 - 2 y_16_ * y_3_ + 1 y_16_ ^ 2 ] >= 3949.11
quadratic_ranged_25_lb: [ 1 x_5_ ^ 2 - 2 x_16_ * x_5_ + 1 x_16_ ^ 2 + 1 y_5_ ^ 2 - 2 y_16_ * y_5_ + 1 y_16_ ^ 2 ] >= 14685.66
quadratic_ranged_26_lb: [ 1 x_14_ ^ 2 - 2 x_17_ * x_14_ + 1 x_17_ ^ 2 + 1 y_14_ ^ 2 - 2 y_17_ * y_14_ + 1 y_17_ ^ 2 ] >= 29858.4
quadratic_ranged_27_lb: [ 1 x_16_ ^ 2 - 2 x_17_ * x_16_ + 1 x_17_ ^ 2 + 1 y_16_ ^ 2 - 2 y_17_ * y_16_ + 1 y_17_ ^ 2 ] >= 8656.56
quadratic_ranged_28_lb: [ 1 x_10_ ^ 2 - 2 x_18_ * x_10_ + 1 x_18_ ^ 2 + 1 y_10_ ^ 2 - 2 y_18_ * y_10_ + 1 y_18_ ^ 2 ] >= 7378.47
quadratic_ranged_29_lb: [ 1 x_12_ ^ 2 - 2 x_18_ * x_12_ + 1 x_18_ ^ 2 + 1 y_12_ ^ 2 - 2 y_18_ * y_12_ + 1 y_18_ ^ 2 ] >= 1078.11
quadratic_ranged_30_lb: [ 1 x_1_ ^ 2 - 2 x_19_ * x_1_ + 1 x_19_ ^ 2 + 1 y_1_ ^ 2 - 2 y_19_ * y_1_ + 1 y_19_ ^ 2 ] >= 3954.06
quadratic_ranged_31_lb: [ 1 x_3_ ^ 2 - 2 x_19_ * x_3_ + 1 x_19_ ^ 2 + 1 y_3_ ^ 2 - 2 y_19_ * y_3_ + 1 y_19_ ^ 2 ] >= 8680.32
quadratic_ranged_32_lb: [ 1 x_7_ ^ 2 - 2 x_19_ * x_7_ + 1 x_19_ ^ 2 + 1 y_7_ ^ 2 - 2 y_19_ * y_7_ + 1 y_19_ ^ 2 ] >= 2473.02
quadratic_ranged_33_lb: [ 1 x_2_ ^ 2 - 2 x_20_ * x_2_ + 1 x_20_ ^ 2 + 1 y_2_ ^ 2 - 2 y_20_ * y_2_ + 1 y_20_ ^ 2 ] >= 10732.59
quadratic_ranged_34_lb: [ 1 x_10_ ^ 2 - 2 x_20_ * x_10_ + 1 x_20_ ^ 2 + 1 y_10_ ^ 2 - 2 y_20_ * y_10_ + 1 y_20_ ^ 2 ] >= 2083.95
quadratic_ranged_35_lb: [ 1 x_12_ ^ 2 - 2 x_20_ * x_12_ + 1 x_20_ ^ 2 + 1 y_12_ ^ 2 - 2 y_20_ * y_12_ + 1 y_20_ ^ 2 ] >= 3616.47
quadratic_ranged_36_lb: [ 1 x_16_ ^ 2 - 2 x_21_ * x_16_ + 1 x_21_ ^ 2 + 1 y_16_ ^ 2 - 2 y_21_ * y_16_ + 1 y_21_ ^ 2 ] >= 7654.68
quadratic_ranged_37_lb: [ 1 x_17_ ^ 2 - 2 x_21_ * x_17_ + 1 x_21_ ^ 2 + 1 y_17_ ^ 2 - 2 y_21_ * y_17_ + 1 y_21_ ^ 2 ] >= 30226.68
quadratic_ranged_38_lb: [ 1 x_12_ ^ 2 - 2 x_22_ * x_12_ + 1 x_22_ ^ 2 + 1 y_12_ ^ 2 - 2 y_22_ * y_12_ + 1 y_22_ ^ 2 ] >= 717.75
quadratic_ranged_39_lb: [ 1 x_18_ ^ 2 - 2 x_22_ * x_18_ + 1 x_22_ ^ 2 + 1 y_18_ ^ 2 - 2 y_22_ * y_18_ + 1 y_22_ ^ 2 ] >= 3429.36
quadratic_ranged_40_lb: [ 1 x_11_ ^ 2 - 2 x_23_ * x_11_ + 1 x_23_ ^ 2 + 1 y_11_ ^ 2 - 2 y_23_ * y_11_ + 1 y_23_ ^ 2 ] >= 21750.3
quadratic_ranged_41_lb: [ 1 x_12_ ^ 2 - 2 x_23_ * x_12_ + 1 x_23_ ^ 2 + 1 y_12_ ^ 2 - 2 y_23_ * y_12_ + 1 y_23_ ^ 2 ] >= 22632.39
quadratic_ranged_42_lb: [ 1 x_17_ ^ 2 - 2 x_23_ * x_17_ + 1 x_23_ ^ 2 + 1 y_17_ ^ 2 - 2 y_23_ * y_17_ + 1 y_23_ ^ 2 ] >= 35483.58
quadratic_ranged_43_lb: [ 1 x_9_ ^ 2 - 2 x_24_ * x_9_ + 1 x_24_ ^ 2 + 1 y_9_ ^ 2 - 2 y_24_ * y_9_ + 1 y_24_ ^ 2 ] >= 17250.75
quadratic_ranged_44_lb: [ 1 x_15_ ^ 2 - 2 x_24_ * x_15_ + 1 x_24_ ^ 2 + 1 y_15_ ^ 2 - 2 y_24_ * y_15_ + 1 y_24_ ^ 2 ] >= 8320.95
quadratic_ranged_45_lb: [ 1 x_10_ ^ 2 - 2 x_25_ * x_10_ + 1 x_25_ ^ 2 + 1 y_10_ ^ 2 - 2 y_25_ * y_10_ + 1 y_25_ ^ 2 ] >= 6321.15
quadratic_ranged_46_lb: [ 1 x_21_ ^ 2 - 2 x_25_ * x_21_ + 1 x_25_ ^ 2 + 1 y_21_ ^ 2 - 2 y_25_ * y_21_ + 1 y_25_ ^ 2 ] >= 12689.82
quadratic_ranged_47_lb: [ 1 x_7_ ^ 2 - 2 x_26_ * x_7_ + 1 x_26_ ^ 2 + 1 y_7_ ^ 2 - 2 y_26_ * y_7_ + 1 y_26_ ^ 2 ] >= 2267.1
quadratic_ranged_48_lb: [ 1 x_21_ ^ 2 - 2 x_26_ * x_21_ + 1 x_26_ ^ 2 + 1 y_21_ ^ 2 - 2 y_26_ * y_21_ + 1 y_26_ ^ 2 ] >= 12498.75
quadratic_ranged_49_lb: [ 1 x_22_ ^ 2 - 2 x_26_ * x_22_ + 1 x_26_ ^ 2 + 1 y_22_ ^ 2 - 2 y_26_ * y_22_ + 1 y_26_ ^ 2 ] >= 3260.07
quadratic_ranged_50_lb: [ 1 x_14_ ^ 2 - 2 x_27_ * x_14_ + 1 x_27_ ^ 2 + 1 y_14_ ^ 2 - 2 y_27_ * y_14_ + 1 y_27_ ^ 2 ] >= 24967.8
quadratic_ranged_51_lb: [ 1 x_15_ ^ 2 - 2 x_27_ * x_15_ + 1 x_27_ ^ 2 + 1 y_15_ ^ 2 - 2 y_27_ * y_15_ + 1 y_27_ ^ 2 ] >= 38689.2
quadratic_ranged_52_lb: [ 1 x_16_ ^ 2 - 2 x_28_ * x_16_ + 1 x_28_ ^ 2 + 1 y_16_ ^ 2 - 2 y_28_ * y_16_ + 1 y_28_ ^ 2 ] >= 2036.43
quadratic_ranged_53_lb: [ 1 x_19_ ^ 2 - 2 x_28_ * x_19_ + 1 x_28_ ^ 2 + 1 y_19_ ^ 2 - 2 y_28_ * y_19_ + 1 y_28_ ^ 2 ] >= 2932.38
c1_1: 1 x_2_ = 0
c2_1: 1 y_2_ = 0
Bounds
-41 <= x_1_ <= 41
x_2_ = 0
-184 <= x_3_ <= 184
-178 <= x_4_ <= 178
-231 <= x_5_ <= 231
-112 <= x_6_ <= 112
-68 <= x_7_ <= 68
-92 <= x_8_ <= 92
-175 <= x_9_ <= 175
-150 <= x_10_ <= 150
-102 <= x_11_ <= 102
-165 <= x_12_ <= 165
-210 <= x_13_ <= 210
-93 <= x_14_ <= 93
-200 <= x_15_ <= 200
-121 <= x_16_ <= 121
-215 <= x_17_ <= 215
-198 <= x_18_ <= 198
-104 <= x_19_ <= 104
-104 <= x_20_ <= 104
-209 <= x_21_ <= 209
-174 <= x_22_ <= 174
-251 <= x_23_ <= 251
-292 <= x_24_ <= 292
-231 <= x_25_ <= 231
-116 <= x_26_ <= 116
-253 <= x_27_ <= 253
-159 <= x_28_ <= 159
-41 <= y_1_ <= 41
y_2_ = 0
-184 <= y_3_ <= 184
-178 <= y_4_ <= 178
-231 <= y_5_ <= 231
-112 <= y_6_ <= 112
-68 <= y_7_ <= 68
-92 <= y_8_ <= 92
-175 <= y_9_ <= 175
-150 <= y_10_ <= 150
-102 <= y_11_ <= 102
-165 <= y_12_ <= 165
-210 <= y_13_ <= 210
-93 <= y_14_ <= 93
-200 <= y_15_ <= 200
-121 <= y_16_ <= 121
-215 <= y_17_ <= 215
-198 <= y_18_ <= 198
-104 <= y_19_ <= 104
-104 <= y_20_ <= 104
-209 <= y_21_ <= 209
-174 <= y_22_ <= 174
-251 <= y_23_ <= 251
-292 <= y_24_ <= 292
-231 <= y_25_ <= 231
-116 <= y_26_ <= 116
-253 <= y_27_ <= 253
-159 <= y_28_ <= 159
General
x_1_
x_2_
x_3_
x_4_
x_5_
x_6_
x_7_
x_8_
x_9_
x_10_
x_11_
x_12_
x_13_
x_14_
x_15_
x_16_
x_17_
x_18_
x_19_
x_20_
x_21_
x_22_
x_23_
x_24_
x_25_
x_26_
x_27_
x_28_
y_1_
y_2_
y_3_
y_4_
y_5_
y_6_
y_7_
y_8_
y_9_
y_10_
y_11_
y_12_
y_13_
y_14_
y_15_
y_16_
y_17_
y_18_
y_19_
y_20_
y_21_
y_22_
y_23_
y_24_
y_25_
y_26_
y_27_
y_28_
End
