minimize
obj: 
subject to
c1_4: -1 x_6_ + 1 y_6_ <= 0
c1_1: [ 1 x_1_ ^ 2 + 1 y_1_ ^ 2 ] <= 68821
c2_1: [ 1 x_2_ ^ 2 + 1 y_2_ ^ 2 ] <= 39381
c3_1: [ 1 x_3_ ^ 2 + 1 y_3_ ^ 2 ] <= 43264
c4_1: [ 1 x_4_ ^ 2 + 1 y_4_ ^ 2 ] <= 9409
c5_1: [ 1 x_5_ ^ 2 + 1 y_5_ ^ 2 ] <= 48686
c6_1: [ 1 x_6_ ^ 2 + 1 y_6_ ^ 2 ] <= 91890
c7_1: [ 1 x_7_ ^ 2 + 1 y_7_ ^ 2 ] <= 11777
c8_1: [ 1 x_8_ ^ 2 + 1 y_8_ ^ 2 ] <= 23840
c9_1: [ 1 x_9_ ^ 2 + 1 y_9_ ^ 2 ] <= 40820
c10_1: [ 1 x_10_ ^ 2 + 1 y_10_ ^ 2 ] <= 34741
c11_1: [ 1 x_11_ ^ 2 + 1 y_11_ ^ 2 ] <= 7157
c12_1: [ 1 x_12_ ^ 2 + 1 y_12_ ^ 2 ] <= 42685
c13_1: [ 1 x_13_ ^ 2 + 1 y_13_ ^ 2 ] <= 87092
c14_1: [ 1 x_14_ ^ 2 + 1 y_14_ ^ 2 ] <= 48407
c15_1: [ 1 x_15_ ^ 2 + 1 y_15_ ^ 2 ] <= 40661
c16_1: [ 1 x_16_ ^ 2 + 1 y_16_ ^ 2 ] <= 9832
c17_1: [ 1 x_17_ ^ 2 + 1 y_17_ ^ 2 ] <= 9425
c18_1: [ 1 x_19_ ^ 2 + 1 y_19_ ^ 2 ] <= 6185
c19_1: [ 1 x_20_ ^ 2 + 1 y_20_ ^ 2 ] <= 52674
c20_1: [ 1 x_21_ ^ 2 + 1 y_21_ ^ 2 ] <= 24098
c21_1: [ 1 x_22_ ^ 2 + 1 y_22_ ^ 2 ] <= 31861
c22_1: [ 1 x_23_ ^ 2 + 1 y_23_ ^ 2 ] <= 36567
c23_1: [ 1 x_24_ ^ 2 + 1 y_24_ ^ 2 ] <= 43877
c24_1: [ 1 x_25_ ^ 2 + 1 y_25_ ^ 2 ] <= 49139
c25_1: [ 1 x_26_ ^ 2 + 1 y_26_ ^ 2 ] <= 69461
c1_3: 1 x_6_ >= 0
c2_3: 1 y_6_ >= 0
c1_2: 1 x_18_ = 0
c2_2: 1 y_18_ = 0
c1: [ 1 x_1_ ^ 2 - 2 x_2_ * x_1_ + 1 x_2_ ^ 2 + 1 y_1_ ^ 2 - 2 y_2_ * y_1_ + 1 y_2_ ^ 2 ] = 4082
c2: [ 1 x_2_ ^ 2 - 2 x_3_ * x_2_ + 1 x_3_ ^ 2 + 1 y_2_ ^ 2 - 2 y_3_ * y_2_ + 1 y_3_ ^ 2 ] = 17128
c3: [ 1 x_3_ ^ 2 - 2 x_4_ * x_3_ + 1 x_4_ ^ 2 + 1 y_3_ ^ 2 - 2 y_4_ * y_3_ + 1 y_4_ ^ 2 ] = 12321
c4: [ 1 x_4_ ^ 2 - 2 x_5_ * x_4_ + 1 x_5_ ^ 2 + 1 y_4_ ^ 2 - 2 y_5_ * y_4_ + 1 y_5_ ^ 2 ] = 15289
c5: [ 1 x_5_ ^ 2 - 2 x_6_ * x_5_ + 1 x_6_ ^ 2 + 1 y_5_ ^ 2 - 2 y_6_ * y_5_ + 1 y_6_ ^ 2 ] = 13977
c6: [ 1 x_6_ ^ 2 - 2 x_7_ * x_6_ + 1 x_7_ ^ 2 + 1 y_6_ ^ 2 - 2 y_7_ * y_6_ + 1 y_7_ ^ 2 ] = 37874
c7: [ 1 x_2_ ^ 2 - 2 x_8_ * x_2_ + 1 x_8_ ^ 2 + 1 y_2_ ^ 2 - 2 y_8_ * y_2_ + 1 y_8_ ^ 2 ] = 1940
c8: [ 1 x_7_ ^ 2 - 2 x_8_ * x_7_ + 1 x_8_ ^ 2 + 1 y_7_ ^ 2 - 2 y_8_ * y_7_ + 1 y_8_ ^ 2 ] = 2105
c9: [ 1 x_8_ ^ 2 - 2 x_9_ * x_8_ + 1 x_9_ ^ 2 + 1 y_8_ ^ 2 - 2 y_9_ * y_8_ + 1 y_9_ ^ 2 ] = 11453
c10: [ 1 x_9_ ^ 2 - 2 x_10_ * x_9_ + 1 x_10_ ^ 2 + 1 y_9_ ^ 2 - 2 y_10_ * y_9_ + 1 y_10_ ^ 2 ] = 245
c11: [ 1 x_10_ ^ 2 - 2 x_11_ * x_10_ + 1 x_11_ ^ 2 + 1 y_10_ ^ 2 - 2 y_11_ * y_10_ + 1 y_11_ ^ 2 ] = 10361
c12: [ 1 x_11_ ^ 2 - 2 x_12_ * x_11_ + 1 x_12_ ^ 2 + 1 y_11_ ^ 2 - 2 y_12_ * y_11_ + 1 y_12_ ^ 2 ] = 14885
c13: [ 1 x_9_ ^ 2 - 2 x_13_ * x_9_ + 1 x_13_ ^ 2 + 1 y_9_ ^ 2 - 2 y_13_ * y_9_ + 1 y_13_ ^ 2 ] = 14825
c14: [ 1 x_12_ ^ 2 - 2 x_13_ * x_12_ + 1 x_13_ ^ 2 + 1 y_12_ ^ 2 - 2 y_13_ * y_12_ + 1 y_13_ ^ 2 ] = 7834
c15: [ 1 x_9_ ^ 2 - 2 x_14_ * x_9_ + 1 x_14_ ^ 2 + 1 y_9_ ^ 2 - 2 y_14_ * y_9_ + 1 y_14_ ^ 2 ] = 6826
c16: [ 1 x_13_ ^ 2 - 2 x_14_ * x_13_ + 1 x_14_ ^ 2 + 1 y_13_ ^ 2 - 2 y_14_ * y_13_ + 1 y_14_ ^ 2 ] = 38293
c17: [ 1 x_11_ ^ 2 - 2 x_15_ * x_11_ + 1 x_15_ ^ 2 + 1 y_11_ ^ 2 - 2 y_15_ * y_11_ + 1 y_15_ ^ 2 ] = 13700
c18: [ 1 x_14_ ^ 2 - 2 x_15_ * x_14_ + 1 x_15_ ^ 2 + 1 y_14_ ^ 2 - 2 y_15_ * y_14_ + 1 y_15_ ^ 2 ] = 16964
c19: [ 1 x_15_ ^ 2 - 2 x_16_ * x_15_ + 1 x_16_ ^ 2 + 1 y_15_ ^ 2 - 2 y_16_ * y_15_ + 1 y_16_ ^ 2 ] = 18845
c20: [ 1 x_11_ ^ 2 - 2 x_17_ * x_11_ + 1 x_17_ ^ 2 + 1 y_11_ ^ 2 - 2 y_17_ * y_11_ + 1 y_17_ ^ 2 ] = 666
c21: [ 1 x_16_ ^ 2 - 2 x_17_ * x_16_ + 1 x_17_ ^ 2 + 1 y_16_ ^ 2 - 2 y_17_ * y_16_ + 1 y_17_ ^ 2 ] = 11701
c22: [ 1 x_4_ ^ 2 - 2 x_18_ * x_4_ + 1 x_18_ ^ 2 + 1 y_4_ ^ 2 - 2 y_18_ * y_4_ + 1 y_18_ ^ 2 ] = 9409
c23: [ 1 x_7_ ^ 2 - 2 x_18_ * x_7_ + 1 x_18_ ^ 2 + 1 y_7_ ^ 2 - 2 y_18_ * y_7_ + 1 y_18_ ^ 2 ] = 11777
c24: [ 1 x_11_ ^ 2 - 2 x_18_ * x_11_ + 1 x_18_ ^ 2 + 1 y_11_ ^ 2 - 2 y_18_ * y_11_ + 1 y_18_ ^ 2 ] = 7157
c25: [ 1 x_16_ ^ 2 - 2 x_18_ * x_16_ + 1 x_18_ ^ 2 + 1 y_16_ ^ 2 - 2 y_18_ * y_16_ + 1 y_18_ ^ 2 ] = 9832
c26: [ 1 x_17_ ^ 2 - 2 x_18_ * x_17_ + 1 x_18_ ^ 2 + 1 y_17_ ^ 2 - 2 y_18_ * y_17_ + 1 y_18_ ^ 2 ] = 9425
c27: [ 1 x_11_ ^ 2 - 2 x_19_ * x_11_ + 1 x_19_ ^ 2 + 1 y_11_ ^ 2 - 2 y_19_ * y_11_ + 1 y_19_ ^ 2 ] = 530
c28: [ 1 x_18_ ^ 2 - 2 x_19_ * x_18_ + 1 x_19_ ^ 2 + 1 y_18_ ^ 2 - 2 y_19_ * y_18_ + 1 y_19_ ^ 2 ] = 6185
c29: [ 1 x_10_ ^ 2 - 2 x_20_ * x_10_ + 1 x_20_ ^ 2 + 1 y_10_ ^ 2 - 2 y_20_ * y_10_ + 1 y_20_ ^ 2 ] = 26941
c30: [ 1 x_19_ ^ 2 - 2 x_20_ * x_19_ + 1 x_20_ ^ 2 + 1 y_19_ ^ 2 - 2 y_20_ * y_19_ + 1 y_20_ ^ 2 ] = 22760
c31: [ 1 x_16_ ^ 2 - 2 x_21_ * x_16_ + 1 x_21_ ^ 2 + 1 y_16_ ^ 2 - 2 y_21_ * y_16_ + 1 y_21_ ^ 2 ] = 3145
c32: [ 1 x_20_ ^ 2 - 2 x_21_ * x_20_ + 1 x_21_ ^ 2 + 1 y_20_ ^ 2 - 2 y_21_ * y_20_ + 1 y_21_ ^ 2 ] = 26170
c33: [ 1 x_21_ ^ 2 - 2 x_22_ * x_21_ + 1 x_22_ ^ 2 + 1 y_21_ ^ 2 - 2 y_22_ * y_21_ + 1 y_22_ ^ 2 ] = 541
c34: [ 1 x_9_ ^ 2 - 2 x_23_ * x_9_ + 1 x_23_ ^ 2 + 1 y_9_ ^ 2 - 2 y_23_ * y_9_ + 1 y_23_ ^ 2 ] = 3601
c35: [ 1 x_14_ ^ 2 - 2 x_23_ * x_14_ + 1 x_23_ ^ 2 + 1 y_14_ ^ 2 - 2 y_23_ * y_14_ + 1 y_23_ ^ 2 ] = 829
c36: [ 1 x_22_ ^ 2 - 2 x_23_ * x_22_ + 1 x_23_ ^ 2 + 1 y_22_ ^ 2 - 2 y_23_ * y_22_ + 1 y_23_ ^ 2 ] = 162
c37: [ 1 x_21_ ^ 2 - 2 x_24_ * x_21_ + 1 x_24_ ^ 2 + 1 y_21_ ^ 2 - 2 y_24_ * y_21_ + 1 y_24_ ^ 2 ] = 2941
c38: [ 1 x_23_ ^ 2 - 2 x_24_ * x_23_ + 1 x_24_ ^ 2 + 1 y_23_ ^ 2 - 2 y_24_ * y_23_ + 1 y_24_ ^ 2 ] = 4328
c39: [ 1 x_24_ ^ 2 - 2 x_25_ * x_24_ + 1 x_25_ ^ 2 + 1 y_24_ ^ 2 - 2 y_25_ * y_24_ + 1 y_25_ ^ 2 ] = 149
c40: [ 1 x_1_ ^ 2 - 2 x_26_ * x_1_ + 1 x_26_ ^ 2 + 1 y_1_ ^ 2 - 2 y_26_ * y_1_ + 1 y_26_ ^ 2 ] = 10817
c41: [ 1 x_25_ ^ 2 - 2 x_26_ * x_25_ + 1 x_26_ ^ 2 + 1 y_25_ ^ 2 - 2 y_26_ * y_25_ + 1 y_26_ ^ 2 ] = 1754
Bounds
-262 <= x_1_ <= 262
-198 <= x_2_ <= 198
-208 <= x_3_ <= 208
-97 <= x_4_ <= 97
-220 <= x_5_ <= 220
-303 <= x_6_ <= 303
-108 <= x_7_ <= 108
-154 <= x_8_ <= 154
-202 <= x_9_ <= 202
-186 <= x_10_ <= 186
-84 <= x_11_ <= 84
-206 <= x_12_ <= 206
-295 <= x_13_ <= 295
-220 <= x_14_ <= 220
-201 <= x_15_ <= 201
-99 <= x_16_ <= 99
-97 <= x_17_ <= 97
x_18_ = 0
-78 <= x_19_ <= 78
-229 <= x_20_ <= 229
-155 <= x_21_ <= 155
-178 <= x_22_ <= 178
-191 <= x_23_ <= 191
-209 <= x_24_ <= 209
-221 <= x_25_ <= 221
-263 <= x_26_ <= 263
-262 <= y_1_ <= 262
-198 <= y_2_ <= 198
-208 <= y_3_ <= 208
-97 <= y_4_ <= 97
-220 <= y_5_ <= 220
-303 <= y_6_ <= 303
-108 <= y_7_ <= 108
-154 <= y_8_ <= 154
-202 <= y_9_ <= 202
-186 <= y_10_ <= 186
-84 <= y_11_ <= 84
-206 <= y_12_ <= 206
-295 <= y_13_ <= 295
-220 <= y_14_ <= 220
-201 <= y_15_ <= 201
-99 <= y_16_ <= 99
-97 <= y_17_ <= 97
y_18_ = 0
-78 <= y_19_ <= 78
-229 <= y_20_ <= 229
-155 <= y_21_ <= 155
-178 <= y_22_ <= 178
-191 <= y_23_ <= 191
-209 <= y_24_ <= 209
-221 <= y_25_ <= 221
-263 <= y_26_ <= 263
General
x_1_
x_2_
x_3_
x_4_
x_5_
x_6_
x_7_
x_8_
x_9_
x_10_
x_11_
x_12_
x_13_
x_14_
x_15_
x_16_
x_17_
x_18_
x_19_
x_20_
x_21_
x_22_
x_23_
x_24_
x_25_
x_26_
y_1_
y_2_
y_3_
y_4_
y_5_
y_6_
y_7_
y_8_
y_9_
y_10_
y_11_
y_12_
y_13_
y_14_
y_15_
y_16_
y_17_
y_18_
y_19_
y_20_
y_21_
y_22_
y_23_
y_24_
y_25_
y_26_
End
