minimize
obj: 
subject to
c1_1: -132 x_1_ + 62 y_1_ + [ 1 x_1_ ^ 2 + 1 y_1_ ^ 2 ] <= 36599
c2_1: -132 x_2_ + 62 y_2_ + [ 1 x_2_ ^ 2 + 1 y_2_ ^ 2 ] <= 34859
c3_1: -132 x_3_ + 62 y_3_ + [ 1 x_3_ ^ 2 + 1 y_3_ ^ 2 ] <= 13084
c4_1: -132 x_4_ + 62 y_4_ + [ 1 x_4_ ^ 2 + 1 y_4_ ^ 2 ] <= 62435
c5_1: -132 x_5_ + 62 y_5_ + [ 1 x_5_ ^ 2 + 1 y_5_ ^ 2 ] <= 1909
c6_1: -132 x_6_ + 62 y_6_ + [ 1 x_6_ ^ 2 + 1 y_6_ ^ 2 ] <= 41365
c7_1: -132 x_7_ + 62 y_7_ + [ 1 x_7_ ^ 2 + 1 y_7_ ^ 2 ] <= 10836
c8_1: -132 x_8_ + 62 y_8_ + [ 1 x_8_ ^ 2 + 1 y_8_ ^ 2 ] <= 92674
c9_1: -132 x_9_ + 62 y_9_ + [ 1 x_9_ ^ 2 + 1 y_9_ ^ 2 ] <= 7554
c10_1: -132 x_10_ + 62 y_10_ + [ 1 x_10_ ^ 2 + 1 y_10_ ^ 2 ] <= 32069
c11_1: -132 x_12_ + 62 y_12_ + [ 1 x_12_ ^ 2 + 1 y_12_ ^ 2 ] <= 5919
c12_1: -132 x_13_ + 62 y_13_ + [ 1 x_13_ ^ 2 + 1 y_13_ ^ 2 ] <= 79750
c13_1: -132 x_14_ + 62 y_14_ + [ 1 x_14_ ^ 2 + 1 y_14_ ^ 2 ] <= 60653
c14_1: -132 x_15_ + 62 y_15_ + [ 1 x_15_ ^ 2 + 1 y_15_ ^ 2 ] <= 21884
c15_1: -132 x_16_ + 62 y_16_ + [ 1 x_16_ ^ 2 + 1 y_16_ ^ 2 ] <= 59700
c16_1: -132 x_17_ + 62 y_17_ + [ 1 x_17_ ^ 2 + 1 y_17_ ^ 2 ] <= 92371
c17_1: -132 x_18_ + 62 y_18_ + [ 1 x_18_ ^ 2 + 1 y_18_ ^ 2 ] <= 48427
c18_1: -132 x_19_ + 62 y_19_ + [ 1 x_19_ ^ 2 + 1 y_19_ ^ 2 ] <= 20506
c19_1: -132 x_20_ + 62 y_20_ + [ 1 x_20_ ^ 2 + 1 y_20_ ^ 2 ] <= 94784
c20_1: -132 x_21_ + 62 y_21_ + [ 1 x_21_ ^ 2 + 1 y_21_ ^ 2 ] <= 64195
c21_1: -132 x_22_ + 62 y_22_ + [ 1 x_22_ ^ 2 + 1 y_22_ ^ 2 ] <= 81249
c22_1: -132 x_23_ + 62 y_23_ + [ 1 x_23_ ^ 2 + 1 y_23_ ^ 2 ] <= 58784
c23_1: -132 x_24_ + 62 y_24_ + [ 1 x_24_ ^ 2 + 1 y_24_ ^ 2 ] <= 18175
c24_1: -132 x_25_ + 62 y_25_ + [ 1 x_25_ ^ 2 + 1 y_25_ ^ 2 ] <= 55995
c25_1: -132 x_26_ + 62 y_26_ + [ 1 x_26_ ^ 2 + 1 y_26_ ^ 2 ] <= 119784
c26_1: -24 x_1_ + 120 y_1_ + [ 1 x_1_ ^ 2 + 1 y_1_ ^ 2 ] <= 229
c27_1: -24 x_2_ + 120 y_2_ + [ 1 x_2_ ^ 2 + 1 y_2_ ^ 2 ] <= 50720
c28_1: -24 x_3_ + 120 y_3_ + [ 1 x_3_ ^ 2 + 1 y_3_ ^ 2 ] <= 10945
c29_1: -24 x_4_ + 120 y_4_ + [ 1 x_4_ ^ 2 + 1 y_4_ ^ 2 ] <= 13788
c30_1: -24 x_5_ + 120 y_5_ + [ 1 x_5_ ^ 2 + 1 y_5_ ^ 2 ] <= 29657
c31_1: -24 x_6_ + 120 y_6_ + [ 1 x_6_ ^ 2 + 1 y_6_ ^ 2 ] <= 57911
c32_1: -24 x_7_ + 120 y_7_ + [ 1 x_7_ ^ 2 + 1 y_7_ ^ 2 ] <= 14170
c33_1: -24 x_8_ + 120 y_8_ + [ 1 x_8_ ^ 2 + 1 y_8_ ^ 2 ] <= 25611
c34_1: -24 x_9_ + 120 y_9_ + [ 1 x_9_ ^ 2 + 1 y_9_ ^ 2 ] <= 20070
c35_1: -24 x_10_ + 120 y_10_ + [ 1 x_10_ ^ 2 + 1 y_10_ ^ 2 ] <= 44555
c36_1: -24 x_11_ + 120 y_11_ + [ 1 x_11_ ^ 2 + 1 y_11_ ^ 2 ] <= 62226
c37_1: -24 x_12_ + 120 y_12_ + [ 1 x_12_ ^ 2 + 1 y_12_ ^ 2 ] <= 20262
c38_1: -24 x_13_ + 120 y_13_ + [ 1 x_13_ ^ 2 + 1 y_13_ ^ 2 ] <= 26081
c39_1: -24 x_15_ + 120 y_15_ + [ 1 x_15_ ^ 2 + 1 y_15_ ^ 2 ] <= 38608
c40_1: -24 x_16_ + 120 y_16_ + [ 1 x_16_ ^ 2 + 1 y_16_ ^ 2 ] <= 9089
c41_1: -24 x_17_ + 120 y_17_ + [ 1 x_17_ ^ 2 + 1 y_17_ ^ 2 ] <= 38460
c42_1: -24 x_18_ + 120 y_18_ + [ 1 x_18_ ^ 2 + 1 y_18_ ^ 2 ] <= -3118
c43_1: -24 x_19_ + 120 y_19_ + [ 1 x_19_ ^ 2 + 1 y_19_ ^ 2 ] <= 24293
c44_1: -24 x_20_ + 120 y_20_ + [ 1 x_20_ ^ 2 + 1 y_20_ ^ 2 ] <= -199
c45_1: -24 x_21_ + 120 y_21_ + [ 1 x_21_ ^ 2 + 1 y_21_ ^ 2 ] <= 33364
c46_1: -24 x_22_ + 120 y_22_ + [ 1 x_22_ ^ 2 + 1 y_22_ ^ 2 ] <= 3897
c47_1: -24 x_23_ + 120 y_23_ + [ 1 x_23_ ^ 2 + 1 y_23_ ^ 2 ] <= 63820
c48_1: -24 x_24_ + 120 y_24_ + [ 1 x_24_ ^ 2 + 1 y_24_ ^ 2 ] <= 14340
c49_1: -24 x_25_ + 120 y_25_ + [ 1 x_25_ ^ 2 + 1 y_25_ ^ 2 ] <= 69358
c50_1: -24 x_26_ + 120 y_26_ + [ 1 x_26_ ^ 2 + 1 y_26_ ^ 2 ] <= 76424
c51: -132 x_1_ - 150 y_1_ + [ 1 x_1_ ^ 2 + 1 y_1_ ^ 2 ] <= 37530
c52: -132 x_2_ - 150 y_2_ + [ 1 x_2_ ^ 2 + 1 y_2_ ^ 2 ] <= 8627
c53: -132 x_3_ - 150 y_3_ + [ 1 x_3_ ^ 2 + 1 y_3_ ^ 2 ] <= 18869
c54: -132 x_4_ - 150 y_4_ + [ 1 x_4_ ^ 2 + 1 y_4_ ^ 2 ] <= 61141
c55: -132 x_5_ - 150 y_5_ + [ 1 x_5_ ^ 2 + 1 y_5_ ^ 2 ] <= 26502
c56: -132 x_6_ - 150 y_6_ + [ 1 x_6_ ^ 2 + 1 y_6_ ^ 2 ] <= 2132
c57: -132 x_7_ - 150 y_7_ + [ 1 x_7_ ^ 2 + 1 y_7_ ^ 2 ] <= -9536
c58: -132 x_8_ - 150 y_8_ + [ 1 x_8_ ^ 2 + 1 y_8_ ^ 2 ] <= 51473
c59: -132 x_9_ - 150 y_9_ + [ 1 x_9_ ^ 2 + 1 y_9_ ^ 2 ] <= 24961
c60: -132 x_10_ - 150 y_10_ + [ 1 x_10_ ^ 2 + 1 y_10_ ^ 2 ] <= 1473
c61: -132 x_11_ - 150 y_11_ + [ 1 x_11_ ^ 2 + 1 y_11_ ^ 2 ] <= 1255
c62: -132 x_13_ - 150 y_13_ + [ 1 x_13_ ^ 2 + 1 y_13_ ^ 2 ] <= 24490
c63: -132 x_14_ - 150 y_14_ + [ 1 x_14_ ^ 2 + 1 y_14_ ^ 2 ] <= 14025
c64: -132 x_15_ - 150 y_15_ + [ 1 x_15_ ^ 2 + 1 y_15_ ^ 2 ] <= 10589
c65: -132 x_16_ - 150 y_16_ + [ 1 x_16_ ^ 2 + 1 y_16_ ^ 2 ] <= 61961
c66: -132 x_17_ - 150 y_17_ + [ 1 x_17_ ^ 2 + 1 y_17_ ^ 2 ] <= 105425
c67: -132 x_18_ - 150 y_18_ + [ 1 x_18_ ^ 2 + 1 y_18_ ^ 2 ] <= 22404
c68: -132 x_19_ - 150 y_19_ + [ 1 x_19_ ^ 2 + 1 y_19_ ^ 2 ] <= -6989
c69: -132 x_20_ - 150 y_20_ + [ 1 x_20_ ^ 2 + 1 y_20_ ^ 2 ] <= 36020
c70: -132 x_21_ - 150 y_21_ + [ 1 x_21_ ^ 2 + 1 y_21_ ^ 2 ] <= 14873
c71: -132 x_22_ - 150 y_22_ + [ 1 x_22_ ^ 2 + 1 y_22_ ^ 2 ] <= 48754
c72: -132 x_23_ - 150 y_23_ + [ 1 x_23_ ^ 2 + 1 y_23_ ^ 2 ] <= 11682
c73: -132 x_24_ - 150 y_24_ + [ 1 x_24_ ^ 2 + 1 y_24_ ^ 2 ] <= 37774
c74: -132 x_25_ - 150 y_25_ + [ 1 x_25_ ^ 2 + 1 y_25_ ^ 2 ] <= 115061
c75: -132 x_26_ - 150 y_26_ + [ 1 x_26_ ^ 2 + 1 y_26_ ^ 2 ] <= 51372
c1_2: 1 x_11_ = 66
c2_2: 1 y_11_ = -31
c3_2: 1 x_14_ = 12
c4_2: 1 y_14_ = -60
c5_2: 1 x_12_ = 66
c6_2: 1 y_12_ = 75
c1: [ 1 x_1_ ^ 2 - 2 x_4_ * x_1_ + 1 x_4_ ^ 2 + 1 y_1_ ^ 2 - 2 y_4_ * y_1_ + 1 y_4_ ^ 2 ] = 4813
c2: [ 1 x_2_ ^ 2 - 2 x_5_ * x_2_ + 1 x_5_ ^ 2 + 1 y_2_ ^ 2 - 2 y_5_ * y_2_ + 1 y_5_ ^ 2 ] = 13325
c3: [ 1 x_4_ ^ 2 - 2 x_5_ * x_4_ + 1 x_5_ ^ 2 + 1 y_4_ ^ 2 - 2 y_5_ * y_4_ + 1 y_5_ ^ 2 ] = 30725
c4: [ 1 x_2_ ^ 2 - 2 x_6_ * x_2_ + 1 x_6_ ^ 2 + 1 y_2_ ^ 2 - 2 y_6_ * y_2_ + 1 y_6_ ^ 2 ] = 8552
c5: [ 1 x_2_ ^ 2 - 2 x_7_ * x_2_ + 1 x_7_ ^ 2 + 1 y_2_ ^ 2 - 2 y_7_ * y_2_ + 1 y_7_ ^ 2 ] = 13298
c6: [ 1 x_2_ ^ 2 - 2 x_8_ * x_2_ + 1 x_8_ ^ 2 + 1 y_2_ ^ 2 - 2 y_8_ * y_2_ + 1 y_8_ ^ 2 ] = 17540
c7: [ 1 x_1_ ^ 2 - 2 x_9_ * x_1_ + 1 x_9_ ^ 2 + 1 y_1_ ^ 2 - 2 y_9_ * y_1_ + 1 y_9_ ^ 2 ] = 8333
c8: [ 1 x_5_ ^ 2 - 2 x_9_ * x_5_ + 1 x_9_ ^ 2 + 1 y_5_ ^ 2 - 2 y_9_ * y_5_ + 1 y_9_ ^ 2 ] = 809
c9: [ 1 x_4_ ^ 2 - 2 x_10_ * x_4_ + 1 x_10_ ^ 2 + 1 y_4_ ^ 2 - 2 y_10_ * y_4_ + 1 y_10_ ^ 2 ] = 25493
c10: [ 1 x_9_ ^ 2 - 2 x_10_ * x_9_ + 1 x_10_ ^ 2 + 1 y_9_ ^ 2 - 2 y_10_ * y_9_ + 1 y_10_ ^ 2 ] = 6385
c11: [ 1 x_3_ ^ 2 - 2 x_11_ * x_3_ + 1 x_11_ ^ 2 + 1 y_3_ ^ 2 - 2 y_11_ * y_3_ + 1 y_11_ ^ 2 ] = 18401
c12: [ 1 x_5_ ^ 2 - 2 x_11_ * x_5_ + 1 x_11_ ^ 2 + 1 y_5_ ^ 2 - 2 y_11_ * y_5_ + 1 y_11_ ^ 2 ] = 7226
c13: [ 1 x_6_ ^ 2 - 2 x_12_ * x_6_ + 1 x_12_ ^ 2 + 1 y_6_ ^ 2 - 2 y_12_ * y_6_ + 1 y_12_ ^ 2 ] = 12113
c14: [ 1 x_7_ ^ 2 - 2 x_12_ * x_7_ + 1 x_12_ ^ 2 + 1 y_7_ ^ 2 - 2 y_12_ * y_7_ + 1 y_12_ ^ 2 ] = 445
c15: [ 1 x_11_ ^ 2 - 2 x_12_ * x_11_ + 1 x_12_ ^ 2 + 1 y_11_ ^ 2 - 2 y_12_ * y_11_ + 1 y_12_ ^ 2 ] = 11236
c16: [ 1 x_6_ ^ 2 - 2 x_13_ * x_6_ + 1 x_13_ ^ 2 + 1 y_6_ ^ 2 - 2 y_13_ * y_6_ + 1 y_13_ ^ 2 ] = 5716
c17: [ 1 x_10_ ^ 2 - 2 x_13_ * x_10_ + 1 x_13_ ^ 2 + 1 y_10_ ^ 2 - 2 y_13_ * y_10_ + 1 y_13_ ^ 2 ] = 20561
c18: [ 1 x_1_ ^ 2 - 2 x_14_ * x_1_ + 1 x_14_ ^ 2 + 1 y_1_ ^ 2 - 2 y_14_ * y_1_ + 1 y_14_ ^ 2 ] = 3973
c19: [ 1 x_7_ ^ 2 - 2 x_14_ * x_7_ + 1 x_14_ ^ 2 + 1 y_7_ ^ 2 - 2 y_14_ * y_7_ + 1 y_14_ ^ 2 ] = 17914
c20: [ 1 x_3_ ^ 2 - 2 x_15_ * x_3_ + 1 x_15_ ^ 2 + 1 y_3_ ^ 2 - 2 y_15_ * y_3_ + 1 y_15_ ^ 2 ] = 20180
c21: [ 1 x_9_ ^ 2 - 2 x_15_ * x_9_ + 1 x_15_ ^ 2 + 1 y_9_ ^ 2 - 2 y_15_ * y_9_ + 1 y_15_ ^ 2 ] = 2650
c22: [ 1 x_10_ ^ 2 - 2 x_15_ * x_10_ + 1 x_15_ ^ 2 + 1 y_10_ ^ 2 - 2 y_15_ * y_10_ + 1 y_15_ ^ 2 ] = 1325
c23: [ 1 x_1_ ^ 2 - 2 x_16_ * x_1_ + 1 x_16_ ^ 2 + 1 y_1_ ^ 2 - 2 y_16_ * y_1_ + 1 y_16_ ^ 2 ] = 2525
c24: [ 1 x_8_ ^ 2 - 2 x_16_ * x_8_ + 1 x_16_ ^ 2 + 1 y_8_ ^ 2 - 2 y_16_ * y_8_ + 1 y_16_ ^ 2 ] = 3370
c25: [ 1 x_4_ ^ 2 - 2 x_17_ * x_4_ + 1 x_17_ ^ 2 + 1 y_4_ ^ 2 - 2 y_17_ * y_4_ + 1 y_17_ ^ 2 ] = 5333
c26: [ 1 x_16_ ^ 2 - 2 x_17_ * x_16_ + 1 x_17_ ^ 2 + 1 y_16_ ^ 2 - 2 y_17_ * y_16_ + 1 y_17_ ^ 2 ] = 9689
c27: [ 1 x_3_ ^ 2 - 2 x_18_ * x_3_ + 1 x_18_ ^ 2 + 1 y_3_ ^ 2 - 2 y_18_ * y_3_ + 1 y_18_ ^ 2 ] = 9250
c28: [ 1 x_14_ ^ 2 - 2 x_18_ * x_14_ + 1 x_18_ ^ 2 + 1 y_14_ ^ 2 - 2 y_18_ * y_14_ + 1 y_18_ ^ 2 ] = 626
c29: [ 1 x_3_ ^ 2 - 2 x_19_ * x_3_ + 1 x_19_ ^ 2 + 1 y_3_ ^ 2 - 2 y_19_ * y_3_ + 1 y_19_ ^ 2 ] = 13261
c30: [ 1 x_7_ ^ 2 - 2 x_19_ * x_7_ + 1 x_19_ ^ 2 + 1 y_7_ ^ 2 - 2 y_19_ * y_7_ + 1 y_19_ ^ 2 ] = 1129
c31: [ 1 x_10_ ^ 2 - 2 x_19_ * x_10_ + 1 x_19_ ^ 2 + 1 y_10_ ^ 2 - 2 y_19_ * y_10_ + 1 y_19_ ^ 2 ] = 2738
c32: [ 1 x_13_ ^ 2 - 2 x_20_ * x_13_ + 1 x_20_ ^ 2 + 1 y_13_ ^ 2 - 2 y_20_ * y_13_ + 1 y_20_ ^ 2 ] = 12805
c33: [ 1 x_14_ ^ 2 - 2 x_20_ * x_14_ + 1 x_20_ ^ 2 + 1 y_14_ ^ 2 - 2 y_20_ * y_14_ + 1 y_20_ ^ 2 ] = 3545
c34: [ 1 x_8_ ^ 2 - 2 x_21_ * x_8_ + 1 x_21_ ^ 2 + 1 y_8_ ^ 2 - 2 y_21_ * y_8_ + 1 y_21_ ^ 2 ] = 18245
c35: [ 1 x_19_ ^ 2 - 2 x_21_ * x_19_ + 1 x_21_ ^ 2 + 1 y_19_ ^ 2 - 2 y_21_ * y_19_ + 1 y_21_ ^ 2 ] = 10600
c36: [ 1 x_20_ ^ 2 - 2 x_21_ * x_20_ + 1 x_21_ ^ 2 + 1 y_20_ ^ 2 - 2 y_21_ * y_20_ + 1 y_21_ ^ 2 ] = 17714
c37: [ 1 x_2_ ^ 2 - 2 x_22_ * x_2_ + 1 x_22_ ^ 2 + 1 y_2_ ^ 2 - 2 y_22_ * y_2_ + 1 y_22_ ^ 2 ] = 21305
c38: [ 1 x_4_ ^ 2 - 2 x_22_ * x_4_ + 1 x_22_ ^ 2 + 1 y_4_ ^ 2 - 2 y_22_ * y_4_ + 1 y_22_ ^ 2 ] = 6073
c39: [ 1 x_18_ ^ 2 - 2 x_22_ * x_18_ + 1 x_22_ ^ 2 + 1 y_18_ ^ 2 - 2 y_22_ * y_18_ + 1 y_22_ ^ 2 ] = 3893
c40: [ 1 x_7_ ^ 2 - 2 x_23_ * x_7_ + 1 x_23_ ^ 2 + 1 y_7_ ^ 2 - 2 y_23_ * y_7_ + 1 y_23_ ^ 2 ] = 15898
c41: [ 1 x_8_ ^ 2 - 2 x_23_ * x_8_ + 1 x_23_ ^ 2 + 1 y_8_ ^ 2 - 2 y_23_ * y_8_ + 1 y_23_ ^ 2 ] = 10144
c42: [ 1 x_15_ ^ 2 - 2 x_23_ * x_15_ + 1 x_23_ ^ 2 + 1 y_15_ ^ 2 - 2 y_23_ * y_15_ + 1 y_23_ ^ 2 ] = 15700
c43: [ 1 x_5_ ^ 2 - 2 x_24_ * x_5_ + 1 x_24_ ^ 2 + 1 y_5_ ^ 2 - 2 y_24_ * y_5_ + 1 y_24_ ^ 2 ] = 4660
c44: [ 1 x_10_ ^ 2 - 2 x_24_ * x_10_ + 1 x_24_ ^ 2 + 1 y_10_ ^ 2 - 2 y_24_ * y_10_ + 1 y_24_ ^ 2 ] = 12434
c45: [ 1 x_18_ ^ 2 - 2 x_24_ * x_18_ + 1 x_24_ ^ 2 + 1 y_18_ ^ 2 - 2 y_24_ * y_18_ + 1 y_24_ ^ 2 ] = 11981
c46: [ 1 x_5_ ^ 2 - 2 x_25_ * x_5_ + 1 x_25_ ^ 2 + 1 y_5_ ^ 2 - 2 y_25_ * y_5_ + 1 y_25_ ^ 2 ] = 26441
c47: [ 1 x_17_ ^ 2 - 2 x_25_ * x_17_ + 1 x_25_ ^ 2 + 1 y_17_ ^ 2 - 2 y_25_ * y_17_ + 1 y_25_ ^ 2 ] = 4217
c48: [ 1 x_6_ ^ 2 - 2 x_26_ * x_6_ + 1 x_26_ ^ 2 + 1 y_6_ ^ 2 - 2 y_26_ * y_6_ + 1 y_26_ ^ 2 ] = 18944
c49: [ 1 x_20_ ^ 2 - 2 x_26_ * x_20_ + 1 x_26_ ^ 2 + 1 y_20_ ^ 2 - 2 y_26_ * y_20_ + 1 y_26_ ^ 2 ] = 49997
c50: [ 1 x_25_ ^ 2 - 2 x_26_ * x_25_ + 1 x_26_ ^ 2 + 1 y_25_ ^ 2 - 2 y_26_ * y_25_ + 1 y_26_ ^ 2 ] = 43610
Bounds
-51 <= x_1_ <= 75
-66 <= x_2_ <= 99
-66 <= x_3_ <= 99
-66 <= x_4_ <= 99
-19 <= x_5_ <= 99
-44 <= x_6_ <= 99
45 <= x_7_ <= 87
-66 <= x_8_ <= 99
-47 <= x_9_ <= 99
-41 <= x_10_ <= 99
x_11_ = 66
x_12_ = 66
-66 <= x_13_ <= 99
x_14_ = 12
-66 <= x_15_ <= 99
-66 <= x_16_ <= 99
-66 <= x_17_ <= 99
-13 <= x_18_ <= 37
12 <= x_19_ <= 99
-47 <= x_20_ <= 71
-66 <= x_21_ <= 99
-66 <= x_22_ <= 99
-66 <= x_23_ <= 99
-66 <= x_24_ <= 99
-66 <= x_25_ <= 99
-66 <= x_26_ <= 99
-89 <= y_1_ <= 3
-61 <= y_2_ <= 89
-89 <= y_3_ <= 61
-89 <= y_4_ <= 72
-89 <= y_5_ <= 54
-35 <= y_6_ <= 89
54 <= y_7_ <= 73
-89 <= y_8_ <= 89
-89 <= y_9_ <= 82
-32 <= y_10_ <= 89
y_11_ = -31
y_12_ = 75
-89 <= y_13_ <= 89
y_14_ = -60
-68 <= y_15_ <= 89
-89 <= y_16_ <= 53
-89 <= y_17_ <= 89
-85 <= y_18_ <= -35
21 <= y_19_ <= 89
-89 <= y_20_ <= -1
-82 <= y_21_ <= 89
-89 <= y_22_ <= 27
-72 <= y_23_ <= 89
-89 <= y_24_ <= 74
-89 <= y_25_ <= 89
-89 <= y_26_ <= 89
General
x_1_
x_2_
x_3_
x_4_
x_5_
x_6_
x_7_
x_8_
x_9_
x_10_
x_11_
x_12_
x_13_
x_14_
x_15_
x_16_
x_17_
x_18_
x_19_
x_20_
x_21_
x_22_
x_23_
x_24_
x_25_
x_26_
y_1_
y_2_
y_3_
y_4_
y_5_
y_6_
y_7_
y_8_
y_9_
y_10_
y_11_
y_12_
y_13_
y_14_
y_15_
y_16_
y_17_
y_18_
y_19_
y_20_
y_21_
y_22_
y_23_
y_24_
y_25_
y_26_
End
