minimize
obj: 
subject to
c1_1: 200 x_1_ - 200 y_1_ + [ 1 x_1_ ^ 2 + 1 y_1_ ^ 2 ] <= 65859
c2_1: 200 x_2_ - 200 y_2_ + [ 1 x_2_ ^ 2 + 1 y_2_ ^ 2 ] <= 9066
c3_1: 200 x_3_ - 200 y_3_ + [ 1 x_3_ ^ 2 + 1 y_3_ ^ 2 ] <= 24410
c4_1: 200 x_4_ - 200 y_4_ + [ 1 x_4_ ^ 2 + 1 y_4_ ^ 2 ] <= 66671
c5_1: 200 x_5_ - 200 y_5_ + [ 1 x_5_ ^ 2 + 1 y_5_ ^ 2 ] <= 24072
c6_1: 200 x_6_ - 200 y_6_ + [ 1 x_6_ ^ 2 + 1 y_6_ ^ 2 ] <= 637
c7_1: 200 x_7_ - 200 y_7_ + [ 1 x_7_ ^ 2 + 1 y_7_ ^ 2 ] <= 59634
c8_1: 200 x_8_ - 200 y_8_ + [ 1 x_8_ ^ 2 + 1 y_8_ ^ 2 ] <= 62130
c9_1: 200 x_9_ - 200 y_9_ + [ 1 x_9_ ^ 2 + 1 y_9_ ^ 2 ] <= 113994
c10_1: 200 x_10_ - 200 y_10_ + [ 1 x_10_ ^ 2 + 1 y_10_ ^ 2 ] <= 70374
c11_1: 200 x_11_ - 200 y_11_ + [ 1 x_11_ ^ 2 + 1 y_11_ ^ 2 ] <= 15896
c12_1: 200 x_12_ - 200 y_12_ + [ 1 x_12_ ^ 2 + 1 y_12_ ^ 2 ] <= 11399
c13_1: 200 x_13_ - 200 y_13_ + [ 1 x_13_ ^ 2 + 1 y_13_ ^ 2 ] <= 19367
c14_1: 200 x_14_ - 200 y_14_ + [ 1 x_14_ ^ 2 + 1 y_14_ ^ 2 ] <= 49210
c15_1: 200 x_15_ - 200 y_15_ + [ 1 x_15_ ^ 2 + 1 y_15_ ^ 2 ] <= 80161
c16_1: 200 x_16_ - 200 y_16_ + [ 1 x_16_ ^ 2 + 1 y_16_ ^ 2 ] <= 55892
c17_1: 200 x_17_ - 200 y_17_ + [ 1 x_17_ ^ 2 + 1 y_17_ ^ 2 ] <= 83187
c18_1: 200 x_18_ - 200 y_18_ + [ 1 x_18_ ^ 2 + 1 y_18_ ^ 2 ] <= 106111
c19_1: 200 x_19_ - 200 y_19_ + [ 1 x_19_ ^ 2 + 1 y_19_ ^ 2 ] <= 162257
c20_1: 200 x_20_ - 200 y_20_ + [ 1 x_20_ ^ 2 + 1 y_20_ ^ 2 ] <= 23129
c21_1: 200 x_21_ - 200 y_21_ + [ 1 x_21_ ^ 2 + 1 y_21_ ^ 2 ] <= 91867
c22_1: 200 x_22_ - 200 y_22_ + [ 1 x_22_ ^ 2 + 1 y_22_ ^ 2 ] <= 46454
c23_1: 200 x_23_ - 200 y_23_ + [ 1 x_23_ ^ 2 + 1 y_23_ ^ 2 ] <= 148182
c24_1: 200 x_25_ - 200 y_25_ + [ 1 x_25_ ^ 2 + 1 y_25_ ^ 2 ] <= 48136
c25_1: 200 x_26_ - 200 y_26_ + [ 1 x_26_ ^ 2 + 1 y_26_ ^ 2 ] <= 157204
c26_1: -174 y_1_ + [ 1 x_1_ ^ 2 + 1 y_1_ ^ 2 ] <= 63966
c27_1: -174 y_2_ + [ 1 x_2_ ^ 2 + 1 y_2_ ^ 2 ] <= 13436
c28_1: -174 y_3_ + [ 1 x_3_ ^ 2 + 1 y_3_ ^ 2 ] <= 26723
c29_1: -174 y_4_ + [ 1 x_4_ ^ 2 + 1 y_4_ ^ 2 ] <= 37251
c30_1: -174 y_5_ + [ 1 x_5_ ^ 2 + 1 y_5_ ^ 2 ] <= 22994
c31_1: -174 y_6_ + [ 1 x_6_ ^ 2 + 1 y_6_ ^ 2 ] <= -3470
c32_1: -174 y_7_ + [ 1 x_7_ ^ 2 + 1 y_7_ ^ 2 ] <= 33461
c33_1: -174 y_8_ + [ 1 x_8_ ^ 2 + 1 y_8_ ^ 2 ] <= 46176
c34_1: -174 y_9_ + [ 1 x_9_ ^ 2 + 1 y_9_ ^ 2 ] <= 85804
c35_1: -174 y_10_ + [ 1 x_10_ ^ 2 + 1 y_10_ ^ 2 ] <= 68093
c36_1: -174 y_11_ + [ 1 x_11_ ^ 2 + 1 y_11_ ^ 2 ] <= 19296
c37_1: -174 y_12_ + [ 1 x_12_ ^ 2 + 1 y_12_ ^ 2 ] <= -6640
c38_1: -174 y_13_ + [ 1 x_13_ ^ 2 + 1 y_13_ ^ 2 ] <= -4897
c39_1: -174 y_14_ + [ 1 x_14_ ^ 2 + 1 y_14_ ^ 2 ] <= 29629
c40_1: -174 y_15_ + [ 1 x_15_ ^ 2 + 1 y_15_ ^ 2 ] <= 28305
c41_1: -174 y_16_ + [ 1 x_16_ ^ 2 + 1 y_16_ ^ 2 ] <= 50210
c42_1: -174 y_17_ + [ 1 x_17_ ^ 2 + 1 y_17_ ^ 2 ] <= 16127
c43_1: -174 y_18_ + [ 1 x_18_ ^ 2 + 1 y_18_ ^ 2 ] <= 44434
c44_1: -174 y_19_ + [ 1 x_19_ ^ 2 + 1 y_19_ ^ 2 ] <= 152314
c45_1: -174 y_21_ + [ 1 x_21_ ^ 2 + 1 y_21_ ^ 2 ] <= 82043
c46_1: -174 y_22_ + [ 1 x_22_ ^ 2 + 1 y_22_ ^ 2 ] <= 42016
c47_1: -174 y_23_ + [ 1 x_23_ ^ 2 + 1 y_23_ ^ 2 ] <= 124241
c48_1: -174 y_24_ + [ 1 x_24_ ^ 2 + 1 y_24_ ^ 2 ] <= 35560
c49_1: -174 y_25_ + [ 1 x_25_ ^ 2 + 1 y_25_ ^ 2 ] <= 47878
c50_1: -174 y_26_ + [ 1 x_26_ ^ 2 + 1 y_26_ ^ 2 ] <= 126535
c51: 128 x_1_ + 106 y_1_ + [ 1 x_1_ ^ 2 + 1 y_1_ ^ 2 ] <= 51821
c52: 128 x_2_ + 106 y_2_ + [ 1 x_2_ ^ 2 + 1 y_2_ ^ 2 ] <= 26024
c53: 128 x_3_ + 106 y_3_ + [ 1 x_3_ ^ 2 + 1 y_3_ ^ 2 ] <= 42251
c54: 128 x_4_ + 106 y_4_ + [ 1 x_4_ ^ 2 + 1 y_4_ ^ 2 ] <= 59103
c55: 128 x_5_ + 106 y_5_ + [ 1 x_5_ ^ 2 + 1 y_5_ ^ 2 ] <= 13264
c56: 128 x_6_ + 106 y_6_ + [ 1 x_6_ ^ 2 + 1 y_6_ ^ 2 ] <= 24627
c57: 128 x_7_ + 106 y_7_ + [ 1 x_7_ ^ 2 + 1 y_7_ ^ 2 ] <= 15127
c58: 128 x_8_ + 106 y_8_ + [ 1 x_8_ ^ 2 + 1 y_8_ ^ 2 ] <= -837
c59: 128 x_9_ + 106 y_9_ + [ 1 x_9_ ^ 2 + 1 y_9_ ^ 2 ] <= 81979
c60: 128 x_10_ + 106 y_10_ + [ 1 x_10_ ^ 2 + 1 y_10_ ^ 2 ] <= 74993
c61: 128 x_11_ + 106 y_11_ + [ 1 x_11_ ^ 2 + 1 y_11_ ^ 2 ] <= 23726
c62: 128 x_12_ + 106 y_12_ + [ 1 x_12_ ^ 2 + 1 y_12_ ^ 2 ] <= 13840
c63: 128 x_13_ + 106 y_13_ + [ 1 x_13_ ^ 2 + 1 y_13_ ^ 2 ] <= 20401
c64: 128 x_14_ + 106 y_14_ + [ 1 x_14_ ^ 2 + 1 y_14_ ^ 2 ] <= 76178
c65: 128 x_15_ + 106 y_15_ + [ 1 x_15_ ^ 2 + 1 y_15_ ^ 2 ] <= -5647
c66: 128 x_16_ + 106 y_16_ + [ 1 x_16_ ^ 2 + 1 y_16_ ^ 2 ] <= 36179
c67: 128 x_18_ + 106 y_18_ + [ 1 x_18_ ^ 2 + 1 y_18_ ^ 2 ] <= -1413
c68: 128 x_19_ + 106 y_19_ + [ 1 x_19_ ^ 2 + 1 y_19_ ^ 2 ] <= 78429
c69: 128 x_20_ + 106 y_20_ + [ 1 x_20_ ^ 2 + 1 y_20_ ^ 2 ] <= 16791
c70: 128 x_21_ + 106 y_21_ + [ 1 x_21_ ^ 2 + 1 y_21_ ^ 2 ] <= 38198
c71: 128 x_22_ + 106 y_22_ + [ 1 x_22_ ^ 2 + 1 y_22_ ^ 2 ] <= 1962
c72: 128 x_23_ + 106 y_23_ + [ 1 x_23_ ^ 2 + 1 y_23_ ^ 2 ] <= 83073
c73: 128 x_24_ + 106 y_24_ + [ 1 x_24_ ^ 2 + 1 y_24_ ^ 2 ] <= 96282
c74: 128 x_25_ + 106 y_25_ + [ 1 x_25_ ^ 2 + 1 y_25_ ^ 2 ] <= 3797
c75: 128 x_26_ + 106 y_26_ + [ 1 x_26_ ^ 2 + 1 y_26_ ^ 2 ] <= 38152
c1_2: 1 x_24_ = -100
c2_2: 1 y_24_ = 100
c3_2: 1 x_20_ = 0
c4_2: 1 y_20_ = 87
c5_2: 1 x_17_ = -64
c6_2: 1 y_17_ = -53
c7_2: 1 x_9_ - 1 x_17_ = 0
c8_2: 1 y_9_ - 1 y_17_ = 0
c1: [ 1 x_1_ ^ 2 - 2 x_3_ * x_1_ + 1 x_3_ ^ 2 + 1 y_1_ ^ 2 - 2 y_3_ * y_1_ + 1 y_3_ ^ 2 ] = 6770
c2: [ 1 x_2_ ^ 2 - 2 x_3_ * x_2_ + 1 x_3_ ^ 2 + 1 y_2_ ^ 2 - 2 y_3_ * y_2_ + 1 y_3_ ^ 2 ] = 1620
c3: [ 1 x_3_ ^ 2 - 2 x_4_ * x_3_ + 1 x_4_ ^ 2 + 1 y_3_ ^ 2 - 2 y_4_ * y_3_ + 1 y_4_ ^ 2 ] = 26969
c4: [ 1 x_2_ ^ 2 - 2 x_5_ * x_2_ + 1 x_5_ ^ 2 + 1 y_2_ ^ 2 - 2 y_5_ * y_2_ + 1 y_5_ ^ 2 ] = 1556
c5: [ 1 x_5_ ^ 2 - 2 x_6_ * x_5_ + 1 x_6_ ^ 2 + 1 y_5_ ^ 2 - 2 y_6_ * y_5_ + 1 y_6_ ^ 2 ] = 12277
c6: [ 1 x_1_ ^ 2 - 2 x_7_ * x_1_ + 1 x_7_ ^ 2 + 1 y_1_ ^ 2 - 2 y_7_ * y_1_ + 1 y_7_ ^ 2 ] = 8818
c7: [ 1 x_6_ ^ 2 - 2 x_7_ * x_6_ + 1 x_7_ ^ 2 + 1 y_6_ ^ 2 - 2 y_7_ * y_6_ + 1 y_7_ ^ 2 ] = 19193
c8: [ 1 x_4_ ^ 2 - 2 x_8_ * x_4_ + 1 x_8_ ^ 2 + 1 y_4_ ^ 2 - 2 y_8_ * y_4_ + 1 y_8_ ^ 2 ] = 32050
c9: [ 1 x_4_ ^ 2 - 2 x_9_ * x_4_ + 1 x_9_ ^ 2 + 1 y_4_ ^ 2 - 2 y_9_ * y_4_ + 1 y_9_ ^ 2 ] = 8810
c10: [ 1 x_5_ ^ 2 - 2 x_9_ * x_5_ + 1 x_9_ ^ 2 + 1 y_5_ ^ 2 - 2 y_9_ * y_5_ + 1 y_9_ ^ 2 ] = 24373
c11: [ 1 x_3_ ^ 2 - 2 x_10_ * x_3_ + 1 x_10_ ^ 2 + 1 y_3_ ^ 2 - 2 y_10_ * y_3_ + 1 y_10_ ^ 2 ] = 24309
c12: [ 1 x_9_ ^ 2 - 2 x_10_ * x_9_ + 1 x_10_ ^ 2 + 1 y_9_ ^ 2 - 2 y_10_ * y_9_ + 1 y_10_ ^ 2 ] = 6730
c13: [ 1 x_2_ ^ 2 - 2 x_11_ * x_2_ + 1 x_11_ ^ 2 + 1 y_2_ ^ 2 - 2 y_11_ * y_2_ + 1 y_11_ ^ 2 ] = 360
c14: [ 1 x_10_ ^ 2 - 2 x_11_ * x_10_ + 1 x_11_ ^ 2 + 1 y_10_ ^ 2 - 2 y_11_ * y_10_ + 1 y_11_ ^ 2 ] = 12357
c15: [ 1 x_6_ ^ 2 - 2 x_12_ * x_6_ + 1 x_12_ ^ 2 + 1 y_6_ ^ 2 - 2 y_12_ * y_6_ + 1 y_12_ ^ 2 ] = 1125
c16: [ 1 x_4_ ^ 2 - 2 x_13_ * x_4_ + 1 x_13_ ^ 2 + 1 y_4_ ^ 2 - 2 y_13_ * y_4_ + 1 y_13_ ^ 2 ] = 25605
c17: [ 1 x_5_ ^ 2 - 2 x_13_ * x_5_ + 1 x_13_ ^ 2 + 1 y_5_ ^ 2 - 2 y_13_ * y_5_ + 1 y_13_ ^ 2 ] = 20800
c18: [ 1 x_12_ ^ 2 - 2 x_13_ * x_12_ + 1 x_13_ ^ 2 + 1 y_12_ ^ 2 - 2 y_13_ * y_12_ + 1 y_13_ ^ 2 ] = 450
c19: [ 1 x_4_ ^ 2 - 2 x_14_ * x_4_ + 1 x_14_ ^ 2 + 1 y_4_ ^ 2 - 2 y_14_ * y_4_ + 1 y_14_ ^ 2 ] = 981
c20: [ 1 x_12_ ^ 2 - 2 x_14_ * x_12_ + 1 x_14_ ^ 2 + 1 y_12_ ^ 2 - 2 y_14_ * y_12_ + 1 y_14_ ^ 2 ] = 26370
c21: [ 1 x_8_ ^ 2 - 2 x_15_ * x_8_ + 1 x_15_ ^ 2 + 1 y_8_ ^ 2 - 2 y_15_ * y_8_ + 1 y_15_ ^ 2 ] = 1800
c22: [ 1 x_1_ ^ 2 - 2 x_16_ * x_1_ + 1 x_16_ ^ 2 + 1 y_1_ ^ 2 - 2 y_16_ * y_1_ + 1 y_16_ ^ 2 ] = 7501
c23: [ 1 x_5_ ^ 2 - 2 x_16_ * x_5_ + 1 x_16_ ^ 2 + 1 y_5_ ^ 2 - 2 y_16_ * y_5_ + 1 y_16_ ^ 2 ] = 4297
c24: [ 1 x_9_ ^ 2 - 2 x_16_ * x_9_ + 1 x_16_ ^ 2 + 1 y_9_ ^ 2 - 2 y_16_ * y_9_ + 1 y_16_ ^ 2 ] = 13140
c25: [ 1 x_12_ ^ 2 - 2 x_17_ * x_12_ + 1 x_17_ ^ 2 + 1 y_12_ ^ 2 - 2 y_17_ * y_12_ + 1 y_17_ ^ 2 ] = 20745
c26: [ 1 x_15_ ^ 2 - 2 x_17_ * x_15_ + 1 x_17_ ^ 2 + 1 y_15_ ^ 2 - 2 y_17_ * y_15_ + 1 y_17_ ^ 2 ] = 1258
c27: [ 1 x_7_ ^ 2 - 2 x_18_ * x_7_ + 1 x_18_ ^ 2 + 1 y_7_ ^ 2 - 2 y_18_ * y_7_ + 1 y_18_ ^ 2 ] = 5524
c28: [ 1 x_8_ ^ 2 - 2 x_18_ * x_8_ + 1 x_18_ ^ 2 + 1 y_8_ ^ 2 - 2 y_18_ * y_8_ + 1 y_18_ ^ 2 ] = 5153
c29: [ 1 x_15_ ^ 2 - 2 x_18_ * x_15_ + 1 x_18_ ^ 2 + 1 y_15_ ^ 2 - 2 y_18_ * y_15_ + 1 y_18_ ^ 2 ] = 1493
c30: [ 1 x_1_ ^ 2 - 2 x_19_ * x_1_ + 1 x_19_ ^ 2 + 1 y_1_ ^ 2 - 2 y_19_ * y_1_ + 1 y_19_ ^ 2 ] = 17929
c31: [ 1 x_7_ ^ 2 - 2 x_19_ * x_7_ + 1 x_19_ ^ 2 + 1 y_7_ ^ 2 - 2 y_19_ * y_7_ + 1 y_19_ ^ 2 ] = 38925
c32: [ 1 x_2_ ^ 2 - 2 x_20_ * x_2_ + 1 x_20_ ^ 2 + 1 y_2_ ^ 2 - 2 y_20_ * y_2_ + 1 y_20_ ^ 2 ] = 21005
c33: [ 1 x_12_ ^ 2 - 2 x_20_ * x_12_ + 1 x_20_ ^ 2 + 1 y_12_ ^ 2 - 2 y_20_ * y_12_ + 1 y_20_ ^ 2 ] = 929
c34: [ 1 x_17_ ^ 2 - 2 x_20_ * x_17_ + 1 x_20_ ^ 2 + 1 y_17_ ^ 2 - 2 y_20_ * y_17_ + 1 y_20_ ^ 2 ] = 23696
c35: [ 1 x_5_ ^ 2 - 2 x_21_ * x_5_ + 1 x_21_ ^ 2 + 1 y_5_ ^ 2 - 2 y_21_ * y_5_ + 1 y_21_ ^ 2 ] = 15508
c36: [ 1 x_8_ ^ 2 - 2 x_21_ * x_8_ + 1 x_21_ ^ 2 + 1 y_8_ ^ 2 - 2 y_21_ * y_8_ + 1 y_21_ ^ 2 ] = 18085
c37: [ 1 x_5_ ^ 2 - 2 x_22_ * x_5_ + 1 x_22_ ^ 2 + 1 y_5_ ^ 2 - 2 y_22_ * y_5_ + 1 y_22_ ^ 2 ] = 2290
c38: [ 1 x_15_ ^ 2 - 2 x_22_ * x_15_ + 1 x_22_ ^ 2 + 1 y_15_ ^ 2 - 2 y_22_ * y_15_ + 1 y_22_ ^ 2 ] = 3445
c39: [ 1 x_14_ ^ 2 - 2 x_23_ * x_14_ + 1 x_23_ ^ 2 + 1 y_14_ ^ 2 - 2 y_23_ * y_14_ + 1 y_23_ ^ 2 ] = 28964
c40: [ 1 x_16_ ^ 2 - 2 x_23_ * x_16_ + 1 x_23_ ^ 2 + 1 y_16_ ^ 2 - 2 y_23_ * y_16_ + 1 y_23_ ^ 2 ] = 18121
c41: [ 1 x_22_ ^ 2 - 2 x_23_ * x_22_ + 1 x_23_ ^ 2 + 1 y_22_ ^ 2 - 2 y_23_ * y_22_ + 1 y_23_ ^ 2 ] = 42354
c42: [ 1 x_2_ ^ 2 - 2 x_24_ * x_2_ + 1 x_24_ ^ 2 + 1 y_2_ ^ 2 - 2 y_24_ * y_2_ + 1 y_24_ ^ 2 ] = 29066
c43: [ 1 x_6_ ^ 2 - 2 x_24_ * x_6_ + 1 x_24_ ^ 2 + 1 y_6_ ^ 2 - 2 y_24_ * y_6_ + 1 y_24_ ^ 2 ] = 20637
c44: [ 1 x_14_ ^ 2 - 2 x_24_ * x_14_ + 1 x_24_ ^ 2 + 1 y_14_ ^ 2 - 2 y_24_ * y_14_ + 1 y_24_ ^ 2 ] = 69210
c45: [ 1 x_8_ ^ 2 - 2 x_25_ * x_8_ + 1 x_25_ ^ 2 + 1 y_8_ ^ 2 - 2 y_25_ * y_8_ + 1 y_25_ ^ 2 ] = 653
c46: [ 1 x_11_ ^ 2 - 2 x_25_ * x_11_ + 1 x_25_ ^ 2 + 1 y_11_ ^ 2 - 2 y_25_ * y_11_ + 1 y_25_ ^ 2 ] = 5122
c47: [ 1 x_19_ ^ 2 - 2 x_25_ * x_19_ + 1 x_25_ ^ 2 + 1 y_19_ ^ 2 - 2 y_25_ * y_19_ + 1 y_25_ ^ 2 ] = 35597
c48: [ 1 x_8_ ^ 2 - 2 x_26_ * x_8_ + 1 x_26_ ^ 2 + 1 y_8_ ^ 2 - 2 y_26_ * y_8_ + 1 y_26_ ^ 2 ] = 18056
c49: [ 1 x_19_ ^ 2 - 2 x_26_ * x_19_ + 1 x_26_ ^ 2 + 1 y_19_ ^ 2 - 2 y_26_ * y_19_ + 1 y_26_ ^ 2 ] = 11450
c50: [ 1 x_21_ ^ 2 - 2 x_26_ * x_21_ + 1 x_26_ ^ 2 + 1 y_21_ ^ 2 - 2 y_26_ * y_21_ + 1 y_26_ ^ 2 ] = 39793
Bounds
-267 <= x_1_ <= 178
-144 <= x_2_ <= 70
-185 <= x_3_ <= 110
-211 <= x_4_ <= 192
-174 <= x_5_ <= 78
-64 <= x_6_ <= 43
-202 <= x_7_ <= 84
-141 <= x_8_ <= 13
-305 <= x_9_ <= 234
-275 <= x_10_ <= 200
-163 <= x_11_ <= 89
-30 <= x_12_ <= 30
-51 <= x_13_ <= 51
-192 <= x_14_ <= 163
-99 <= x_15_ <= -29
-240 <= x_16_ <= 143
x_17_ = -64
-138 <= x_18_ <= 10
-356 <= x_19_ <= 228
x_20_ = 0
-276 <= x_21_ <= 148
-158 <= x_22_ <= 30
-363 <= x_23_ <= 235
x_24_ = -100
-167 <= x_25_ <= 39
-276 <= x_26_ <= 148
-180 <= y_1_ <= 189
-57 <= y_2_ <= 128
-98 <= y_3_ <= 168
-124 <= y_4_ <= 203
-87 <= y_5_ <= 89
23 <= y_6_ <= 124
-115 <= y_7_ <= 95
-130 <= y_8_ <= 24
-218 <= y_9_ <= 245
-188 <= y_10_ <= 233
-76 <= y_11_ <= 122
57 <= y_12_ <= 91
36 <= y_13_ <= 112
-105 <= y_14_ <= 235
-88 <= y_15_ <= -18
-153 <= y_16_ <= 154
y_17_ = -53
-127 <= y_18_ <= 21
-312 <= y_19_ <= 239
y_20_ = 87
-212 <= y_21_ <= 159
-135 <= y_22_ <= 41
-276 <= y_23_ <= 246
y_24_ = 100
-148 <= y_25_ <= 50
-265 <= y_26_ <= 159
General
x_1_
x_2_
x_3_
x_4_
x_5_
x_6_
x_7_
x_8_
x_9_
x_10_
x_11_
x_12_
x_13_
x_14_
x_15_
x_16_
x_17_
x_18_
x_19_
x_20_
x_21_
x_22_
x_23_
x_24_
x_25_
x_26_
y_1_
y_2_
y_3_
y_4_
y_5_
y_6_
y_7_
y_8_
y_9_
y_10_
y_11_
y_12_
y_13_
y_14_
y_15_
y_16_
y_17_
y_18_
y_19_
y_20_
y_21_
y_22_
y_23_
y_24_
y_25_
y_26_
End
