minimize
obj: 
subject to
c1: 142 x_1_ - 150 y_1_ + [ 1 x_1_ ^ 2 + 1 y_1_ ^ 2 ] <= 42374.9519833414
c2: 142 x_2_ - 150 y_2_ + [ 1 x_2_ ^ 2 + 1 y_2_ ^ 2 ] <= 2646.809999999996
c3: 142 x_3_ - 150 y_3_ + [ 1 x_3_ ^ 2 + 1 y_3_ ^ 2 ] <= 53972.89552140154
c4: 142 x_4_ - 150 y_4_ + [ 1 x_4_ ^ 2 + 1 y_4_ ^ 2 ] <= 29602.054168856965
c5: 142 x_5_ - 150 y_5_ + [ 1 x_5_ ^ 2 + 1 y_5_ ^ 2 ] <= 38376.48790401012
c6: 142 x_6_ - 150 y_6_ + [ 1 x_6_ ^ 2 + 1 y_6_ ^ 2 ] <= 43068.94652612872
c7: 142 x_7_ - 150 y_7_ + [ 1 x_7_ ^ 2 + 1 y_7_ ^ 2 ] <= 53199.044073727346
c8: 142 x_8_ - 150 y_8_ + [ 1 x_8_ ^ 2 + 1 y_8_ ^ 2 ] <= 41393.21468897466
c9: 142 x_9_ - 150 y_9_ + [ 1 x_9_ ^ 2 + 1 y_9_ ^ 2 ] <= 30862.647741707653
c10: 142 x_10_ - 150 y_10_ + [ 1 x_10_ ^ 2 + 1 y_10_ ^ 2 ] <= 37197.68973916838
c11: 142 x_11_ - 150 y_11_ + [ 1 x_11_ ^ 2 + 1 y_11_ ^ 2 ] <= 18147.4053884057
c12: 142 x_12_ - 150 y_12_ + [ 1 x_12_ ^ 2 + 1 y_12_ ^ 2 ] <= 51481.306551562535
c13: 142 x_13_ - 150 y_13_ + [ 1 x_13_ ^ 2 + 1 y_13_ ^ 2 ] <= -9686.300000000001
c14: 142 x_14_ - 150 y_14_ + [ 1 x_14_ ^ 2 + 1 y_14_ ^ 2 ] <= 53783.47955871777
c15: 142 x_15_ - 150 y_15_ + [ 1 x_15_ ^ 2 + 1 y_15_ ^ 2 ] <= 66039.53325540146
c16: 142 x_16_ - 150 y_16_ + [ 1 x_16_ ^ 2 + 1 y_16_ ^ 2 ] <= 35216.65705095448
c17: 142 x_17_ - 150 y_17_ + [ 1 x_17_ ^ 2 + 1 y_17_ ^ 2 ] <= 70362.09689650536
c18: 142 x_19_ - 150 y_19_ + [ 1 x_19_ ^ 2 + 1 y_19_ ^ 2 ] <= 91550.9932656871
c19: 142 x_20_ - 150 y_20_ + [ 1 x_20_ ^ 2 + 1 y_20_ ^ 2 ] <= 98719.37296271921
c20: 142 x_21_ - 150 y_21_ + [ 1 x_21_ ^ 2 + 1 y_21_ ^ 2 ] <= -2120.9523368194987
c21: 142 x_22_ - 150 y_22_ + [ 1 x_22_ ^ 2 + 1 y_22_ ^ 2 ] <= 37873.81863828125
c22: 142 x_23_ - 150 y_23_ + [ 1 x_23_ ^ 2 + 1 y_23_ ^ 2 ] <= 74762.63744141573
c23: 142 x_24_ - 150 y_24_ + [ 1 x_24_ ^ 2 + 1 y_24_ ^ 2 ] <= 131169.67002189282
c24: 142 x_25_ - 150 y_25_ + [ 1 x_25_ ^ 2 + 1 y_25_ ^ 2 ] <= 158563.2547729582
c25: 142 x_26_ - 150 y_26_ + [ 1 x_26_ ^ 2 + 1 y_26_ ^ 2 ] <= 87338.68847137893
c26: 142 x_27_ - 150 y_27_ + [ 1 x_27_ ^ 2 + 1 y_27_ ^ 2 ] <= -5064.884484530318
c27: 142 x_28_ - 150 y_28_ + [ 1 x_28_ ^ 2 + 1 y_28_ ^ 2 ] <= 121458.54995199098
c28: 22 x_1_ + 148 y_1_ + [ 1 x_1_ ^ 2 + 1 y_1_ ^ 2 ] <= 34488.21655102928
c29: 22 x_2_ + 148 y_2_ + [ 1 x_2_ ^ 2 + 1 y_2_ ^ 2 ] <= 1677.0199999999986
c30: 22 x_3_ + 148 y_3_ + [ 1 x_3_ ^ 2 + 1 y_3_ ^ 2 ] <= 13926.299999999996
c31: 22 x_5_ + 148 y_5_ + [ 1 x_5_ ^ 2 + 1 y_5_ ^ 2 ] <= 5199.899999999998
c32: 22 x_6_ + 148 y_6_ + [ 1 x_6_ ^ 2 + 1 y_6_ ^ 2 ] <= 35091.82401842847
c33: 22 x_7_ + 148 y_7_ + [ 1 x_7_ ^ 2 + 1 y_7_ ^ 2 ] <= -2888.18
c34: 22 x_8_ + 148 y_8_ + [ 1 x_8_ ^ 2 + 1 y_8_ ^ 2 ] <= 13567.06801996339
c35: 22 x_9_ + 148 y_9_ + [ 1 x_9_ ^ 2 + 1 y_9_ ^ 2 ] <= 24572.08572982872
c36: 22 x_10_ + 148 y_10_ + [ 1 x_10_ ^ 2 + 1 y_10_ ^ 2 ] <= 30004.814941457407
c37: 22 x_11_ + 148 y_11_ + [ 1 x_11_ ^ 2 + 1 y_11_ ^ 2 ] <= 25209.07046003735
c38: 22 x_12_ + 148 y_12_ + [ 1 x_12_ ^ 2 + 1 y_12_ ^ 2 ] <= 42451.78452362251
c39: 22 x_13_ + 148 y_13_ + [ 1 x_13_ ^ 2 + 1 y_13_ ^ 2 ] <= 48212.69871088217
c40: 22 x_14_ + 148 y_14_ + [ 1 x_14_ ^ 2 + 1 y_14_ ^ 2 ] <= 44478.57957291659
c41: 22 x_15_ + 148 y_15_ + [ 1 x_15_ ^ 2 + 1 y_15_ ^ 2 ] <= 19814.670752847782
c42: 22 x_16_ + 148 y_16_ + [ 1 x_16_ ^ 2 + 1 y_16_ ^ 2 ] <= 146228.3310108427
c43: 22 x_17_ + 148 y_17_ + [ 1 x_17_ ^ 2 + 1 y_17_ ^ 2 ] <= 1456.5356361299891
c44: 22 x_18_ + 148 y_18_ + [ 1 x_18_ ^ 2 + 1 y_18_ ^ 2 ] <= 34671.054168856965
c45: 22 x_19_ + 148 y_19_ + [ 1 x_19_ ^ 2 + 1 y_19_ ^ 2 ] <= 30376.667300470297
c46: 22 x_20_ + 148 y_20_ + [ 1 x_20_ ^ 2 + 1 y_20_ ^ 2 ] <= 20341.356792948976
c47: 22 x_21_ + 148 y_21_ + [ 1 x_21_ ^ 2 + 1 y_21_ ^ 2 ] <= 58322.10203990037
c48: 22 x_22_ + 148 y_22_ + [ 1 x_22_ ^ 2 + 1 y_22_ ^ 2 ] <= 87005.34855807527
c49: 22 x_23_ + 148 y_23_ + [ 1 x_23_ ^ 2 + 1 y_23_ ^ 2 ] <= 63145.80533092939
c50: 22 x_24_ + 148 y_24_ + [ 1 x_24_ ^ 2 + 1 y_24_ ^ 2 ] <= 39680.282723113014
c51: 22 x_25_ + 148 y_25_ + [ 1 x_25_ ^ 2 + 1 y_25_ ^ 2 ] <= 86900.00804554818
c52: 22 x_26_ + 148 y_26_ + [ 1 x_26_ ^ 2 + 1 y_26_ ^ 2 ] <= 7034.0599999999995
c53: 22 x_27_ + 148 y_27_ + [ 1 x_27_ ^ 2 + 1 y_27_ ^ 2 ] <= 70308.54915875454
c54: 22 x_28_ + 148 y_28_ + [ 1 x_28_ ^ 2 + 1 y_28_ ^ 2 ] <= 20913.479999999996
c55: 126 x_1_ + 198 y_1_ + [ 1 x_1_ ^ 2 + 1 y_1_ ^ 2 ] <= -3684.1400000000012
c56: 126 x_2_ + 198 y_2_ + [ 1 x_2_ ^ 2 + 1 y_2_ ^ 2 ] <= 32607.106266125942
c57: 126 x_3_ + 198 y_3_ + [ 1 x_3_ ^ 2 + 1 y_3_ ^ 2 ] <= 34246.48590640392
c58: 126 x_4_ + 198 y_4_ + [ 1 x_4_ ^ 2 + 1 y_4_ ^ 2 ] <= 12168.356792948976
c59: 126 x_5_ + 198 y_5_ + [ 1 x_5_ ^ 2 + 1 y_5_ ^ 2 ] <= 16758.770331058888
c60: 126 x_6_ + 198 y_6_ + [ 1 x_6_ ^ 2 + 1 y_6_ ^ 2 ] <= 90330.54042785193
c61: 126 x_7_ + 198 y_7_ + [ 1 x_7_ ^ 2 + 1 y_7_ ^ 2 ] <= -1887.350000000004
c62: 126 x_8_ + 198 y_8_ + [ 1 x_8_ ^ 2 + 1 y_8_ ^ 2 ] <= 24409.436023765214
c63: 126 x_9_ + 198 y_9_ + [ 1 x_9_ ^ 2 + 1 y_9_ ^ 2 ] <= 78498.97290920558
c64: 126 x_10_ + 198 y_10_ + [ 1 x_10_ ^ 2 + 1 y_10_ ^ 2 ] <= 80582.3233269285
c65: 126 x_11_ + 198 y_11_ + [ 1 x_11_ ^ 2 + 1 y_11_ ^ 2 ] <= 22335.05957748637
c66: 126 x_12_ + 198 y_12_ + [ 1 x_12_ ^ 2 + 1 y_12_ ^ 2 ] <= 62766.5147059974
c67: 126 x_13_ + 198 y_13_ + [ 1 x_13_ ^ 2 + 1 y_13_ ^ 2 ] <= 94114.83733948515
c68: 126 x_14_ + 198 y_14_ + [ 1 x_14_ ^ 2 + 1 y_14_ ^ 2 ] <= 111433.67583864043
c69: 126 x_15_ + 198 y_15_ + [ 1 x_15_ ^ 2 + 1 y_15_ ^ 2 ] <= 39234.51480024018
c70: 126 x_16_ + 198 y_16_ + [ 1 x_16_ ^ 2 + 1 y_16_ ^ 2 ] <= 247719.54835282234
c71: 126 x_17_ + 198 y_17_ + [ 1 x_17_ ^ 2 + 1 y_17_ ^ 2 ] <= 6095.93641571515
c72: 126 x_18_ + 198 y_18_ + [ 1 x_18_ ^ 2 + 1 y_18_ ^ 2 ] <= 95615.37296271921
c73: 126 x_19_ + 198 y_19_ + [ 1 x_19_ ^ 2 + 1 y_19_ ^ 2 ] <= 47055.61562399459
c74: 126 x_21_ + 198 y_21_ + [ 1 x_21_ ^ 2 + 1 y_21_ ^ 2 ] <= 57689.451027750314
c75: 126 x_22_ + 198 y_22_ + [ 1 x_22_ ^ 2 + 1 y_22_ ^ 2 ] <= 116744.26653808022
c76: 126 x_23_ + 198 y_23_ + [ 1 x_23_ ^ 2 + 1 y_23_ ^ 2 ] <= 140093.2565928146
c77: 126 x_24_ + 198 y_24_ + [ 1 x_24_ ^ 2 + 1 y_24_ ^ 2 ] <= 58992.81567924059
c78: 126 x_25_ + 198 y_25_ + [ 1 x_25_ ^ 2 + 1 y_25_ ^ 2 ] <= 6701.689999999999
c79: 126 x_26_ + 198 y_26_ + [ 1 x_26_ ^ 2 + 1 y_26_ ^ 2 ] <= 17974.3378521194
c80: 126 x_27_ + 198 y_27_ + [ 1 x_27_ ^ 2 + 1 y_27_ ^ 2 ] <= 124613.0434653172
c81: 126 x_28_ + 198 y_28_ + [ 1 x_28_ ^ 2 + 1 y_28_ ^ 2 ] <= 84336.57712540858
quadratic_ranged_1_ub: [ 1 x_1_ ^ 2 - 2 x_2_ * x_1_ + 1 x_2_ ^ 2 + 1 y_1_ ^ 2 - 2 y_2_ * y_1_ + 1 y_2_ ^ 2 ] <= 13207.77
quadratic_ranged_2_ub: [ 1 x_2_ ^ 2 - 2 x_4_ * x_2_ + 1 x_4_ ^ 2 + 1 y_2_ ^ 2 - 2 y_4_ * y_2_ + 1 y_4_ ^ 2 ] <= 7274.02
quadratic_ranged_3_ub: [ 1 x_3_ ^ 2 - 2 x_4_ * x_3_ + 1 x_4_ ^ 2 + 1 y_3_ ^ 2 - 2 y_4_ * y_3_ + 1 y_4_ ^ 2 ] <= 19523.3
quadratic_ranged_4_ub: [ 1 x_3_ ^ 2 - 2 x_5_ * x_3_ + 1 x_5_ ^ 2 + 1 y_3_ ^ 2 - 2 y_5_ * y_3_ + 1 y_5_ ^ 2 ] <= 1971.52
quadratic_ranged_5_ub: [ 1 x_4_ ^ 2 - 2 x_5_ * x_4_ + 1 x_5_ ^ 2 + 1 y_4_ ^ 2 - 2 y_5_ * y_4_ + 1 y_5_ ^ 2 ] <= 10796.9
quadratic_ranged_6_ub: [ 1 x_2_ ^ 2 - 2 x_6_ * x_2_ + 1 x_6_ ^ 2 + 1 y_2_ ^ 2 - 2 y_6_ * y_2_ + 1 y_6_ ^ 2 ] <= 13555.210000000001
quadratic_ranged_7_ub: [ 1 x_4_ ^ 2 - 2 x_7_ * x_4_ + 1 x_7_ ^ 2 + 1 y_4_ ^ 2 - 2 y_7_ * y_4_ + 1 y_7_ ^ 2 ] <= 2708.82
quadratic_ranged_8_ub: [ 1 x_5_ ^ 2 - 2 x_7_ * x_5_ + 1 x_7_ ^ 2 + 1 y_5_ ^ 2 - 2 y_7_ * y_5_ + 1 y_7_ ^ 2 ] <= 4318.76
quadratic_ranged_9_ub: [ 1 x_7_ ^ 2 - 2 x_8_ * x_7_ + 1 x_8_ ^ 2 + 1 y_7_ ^ 2 - 2 y_8_ * y_7_ + 1 y_8_ ^ 2 ] <= 7462.89
quadratic_ranged_10_ub: [ 1 x_2_ ^ 2 - 2 x_9_ * x_2_ + 1 x_9_ ^ 2 + 1 y_2_ ^ 2 - 2 y_9_ * y_2_ + 1 y_9_ ^ 2 ] <= 7815.38
quadratic_ranged_11_ub: [ 1 x_2_ ^ 2 - 2 x_10_ * x_2_ + 1 x_10_ ^ 2 + 1 y_2_ ^ 2 - 2 y_10_ * y_2_ + 1 y_10_ ^ 2 ] <= 10690.85
quadratic_ranged_12_ub: [ 1 x_8_ ^ 2 - 2 x_10_ * x_8_ + 1 x_10_ ^ 2 + 1 y_8_ ^ 2 - 2 y_10_ * y_8_ + 1 y_10_ ^ 2 ] <= 19690.96
quadratic_ranged_13_ub: [ 1 x_1_ ^ 2 - 2 x_11_ * x_1_ + 1 x_11_ ^ 2 + 1 y_1_ ^ 2 - 2 y_11_ * y_1_ + 1 y_11_ ^ 2 ] <= 8025.46
quadratic_ranged_14_ub: [ 1 x_3_ ^ 2 - 2 x_11_ * x_3_ + 1 x_11_ ^ 2 + 1 y_3_ ^ 2 - 2 y_11_ * y_3_ + 1 y_11_ ^ 2 ] <= 7139.6900000000005
quadratic_ranged_15_ub: [ 1 x_5_ ^ 2 - 2 x_11_ * x_5_ + 1 x_11_ ^ 2 + 1 y_5_ ^ 2 - 2 y_11_ * y_5_ + 1 y_11_ ^ 2 ] <= 5127.77
quadratic_ranged_16_ub: [ 1 x_10_ ^ 2 - 2 x_12_ * x_10_ + 1 x_12_ ^ 2 + 1 y_10_ ^ 2 - 2 y_12_ * y_10_ + 1 y_12_ ^ 2 ] <= 931.22
quadratic_ranged_17_ub: [ 1 x_11_ ^ 2 - 2 x_12_ * x_11_ + 1 x_12_ ^ 2 + 1 y_11_ ^ 2 - 2 y_12_ * y_11_ + 1 y_12_ ^ 2 ] <= 7506.32
quadratic_ranged_18_ub: [ 1 x_5_ ^ 2 - 2 x_13_ * x_5_ + 1 x_13_ ^ 2 + 1 y_5_ ^ 2 - 2 y_13_ * y_5_ + 1 y_13_ ^ 2 ] <= 36159.01
quadratic_ranged_19_ub: [ 1 x_8_ ^ 2 - 2 x_13_ * x_8_ + 1 x_13_ ^ 2 + 1 y_8_ ^ 2 - 2 y_13_ * y_8_ + 1 y_13_ ^ 2 ] <= 38755.72
quadratic_ranged_20_ub: [ 1 x_2_ ^ 2 - 2 x_14_ * x_2_ + 1 x_14_ ^ 2 + 1 y_2_ ^ 2 - 2 y_14_ * y_2_ + 1 y_14_ ^ 2 ] <= 19178.89
quadratic_ranged_21_ub: [ 1 x_3_ ^ 2 - 2 x_14_ * x_3_ + 1 x_14_ ^ 2 + 1 y_3_ ^ 2 - 2 y_14_ * y_3_ + 1 y_14_ ^ 2 ] <= 39681.89
quadratic_ranged_22_ub: [ 1 x_8_ ^ 2 - 2 x_14_ * x_8_ + 1 x_14_ ^ 2 + 1 y_8_ ^ 2 - 2 y_14_ * y_8_ + 1 y_14_ ^ 2 ] <= 37701.28
quadratic_ranged_23_ub: [ 1 x_5_ ^ 2 - 2 x_15_ * x_5_ + 1 x_15_ ^ 2 + 1 y_5_ ^ 2 - 2 y_15_ * y_5_ + 1 y_15_ ^ 2 ] <= 3080.5
quadratic_ranged_24_ub: [ 1 x_9_ ^ 2 - 2 x_15_ * x_9_ + 1 x_15_ ^ 2 + 1 y_9_ ^ 2 - 2 y_15_ * y_9_ + 1 y_15_ ^ 2 ] <= 20543.4
quadratic_ranged_25_ub: [ 1 x_6_ ^ 2 - 2 x_16_ * x_6_ + 1 x_16_ ^ 2 + 1 y_6_ ^ 2 - 2 y_16_ * y_6_ + 1 y_16_ ^ 2 ] <= 40925.2
quadratic_ranged_26_ub: [ 1 x_13_ ^ 2 - 2 x_16_ * x_13_ + 1 x_16_ ^ 2 + 1 y_13_ ^ 2 - 2 y_16_ * y_13_ + 1 y_16_ ^ 2 ] <= 33453.22
quadratic_ranged_27_ub: [ 1 x_7_ ^ 2 - 2 x_17_ * x_7_ + 1 x_17_ ^ 2 + 1 y_7_ ^ 2 - 2 y_17_ * y_7_ + 1 y_17_ ^ 2 ] <= 1020.1
quadratic_ranged_28_ub: [ 1 x_8_ ^ 2 - 2 x_17_ * x_8_ + 1 x_17_ ^ 2 + 1 y_8_ ^ 2 - 2 y_17_ * y_8_ + 1 y_17_ ^ 2 ] <= 12585.61
quadratic_ranged_29_ub: [ 1 x_2_ ^ 2 - 2 x_18_ * x_2_ + 1 x_18_ ^ 2 + 1 y_2_ ^ 2 - 2 y_18_ * y_2_ + 1 y_18_ ^ 2 ] <= 13312.81
quadratic_ranged_30_ub: [ 1 x_13_ ^ 2 - 2 x_18_ * x_13_ + 1 x_18_ ^ 2 + 1 y_13_ ^ 2 - 2 y_18_ * y_13_ + 1 y_18_ ^ 2 ] <= 979.7
quadratic_ranged_31_ub: [ 1 x_7_ ^ 2 - 2 x_19_ * x_7_ + 1 x_19_ ^ 2 + 1 y_7_ ^ 2 - 2 y_19_ * y_7_ + 1 y_19_ ^ 2 ] <= 18939.52
quadratic_ranged_32_ub: [ 1 x_14_ ^ 2 - 2 x_19_ * x_14_ + 1 x_19_ ^ 2 + 1 y_14_ ^ 2 - 2 y_19_ * y_14_ + 1 y_19_ ^ 2 ] <= 35548.97
quadratic_ranged_33_ub: [ 1 x_15_ ^ 2 - 2 x_19_ * x_15_ + 1 x_19_ ^ 2 + 1 y_15_ ^ 2 - 2 y_19_ * y_15_ + 1 y_19_ ^ 2 ] <= 1828.1
quadratic_ranged_34_ub: [ 1 x_1_ ^ 2 - 2 x_20_ * x_1_ + 1 x_20_ ^ 2 + 1 y_1_ ^ 2 - 2 y_20_ * y_1_ + 1 y_20_ ^ 2 ] <= 10085.86
quadratic_ranged_35_ub: [ 1 x_7_ ^ 2 - 2 x_20_ * x_7_ + 1 x_20_ ^ 2 + 1 y_7_ ^ 2 - 2 y_20_ * y_7_ + 1 y_20_ ^ 2 ] <= 11882.65
quadratic_ranged_36_ub: [ 1 x_11_ ^ 2 - 2 x_21_ * x_11_ + 1 x_21_ ^ 2 + 1 y_11_ ^ 2 - 2 y_21_ * y_11_ + 1 y_21_ ^ 2 ] <= 5976.17
quadratic_ranged_37_ub: [ 1 x_13_ ^ 2 - 2 x_21_ * x_13_ + 1 x_21_ ^ 2 + 1 y_13_ ^ 2 - 2 y_21_ * y_13_ + 1 y_21_ ^ 2 ] <= 3738.01
quadratic_ranged_38_ub: [ 1 x_6_ ^ 2 - 2 x_22_ * x_6_ + 1 x_22_ ^ 2 + 1 y_6_ ^ 2 - 2 y_22_ * y_6_ + 1 y_22_ ^ 2 ] <= 14524.81
quadratic_ranged_39_ub: [ 1 x_10_ ^ 2 - 2 x_22_ * x_10_ + 1 x_22_ ^ 2 + 1 y_10_ ^ 2 - 2 y_22_ * y_10_ + 1 y_22_ ^ 2 ] <= 21841.25
quadratic_ranged_40_ub: [ 1 x_19_ ^ 2 - 2 x_22_ * x_19_ + 1 x_22_ ^ 2 + 1 y_19_ ^ 2 - 2 y_22_ * y_19_ + 1 y_22_ ^ 2 ] <= 13142.12
quadratic_ranged_41_ub: [ 1 x_9_ ^ 2 - 2 x_23_ * x_9_ + 1 x_23_ ^ 2 + 1 y_9_ ^ 2 - 2 y_23_ * y_9_ + 1 y_23_ ^ 2 ] <= 7831.54
quadratic_ranged_42_ub: [ 1 x_16_ ^ 2 - 2 x_23_ * x_16_ + 1 x_23_ ^ 2 + 1 y_16_ ^ 2 - 2 y_23_ * y_16_ + 1 y_23_ ^ 2 ] <= 16245.85
quadratic_ranged_43_ub: [ 1 x_3_ ^ 2 - 2 x_24_ * x_3_ + 1 x_24_ ^ 2 + 1 y_3_ ^ 2 - 2 y_24_ * y_3_ + 1 y_24_ ^ 2 ] <= 21732.170000000002
quadratic_ranged_44_ub: [ 1 x_8_ ^ 2 - 2 x_24_ * x_8_ + 1 x_24_ ^ 2 + 1 y_8_ ^ 2 - 2 y_24_ * y_8_ + 1 y_24_ ^ 2 ] <= 22036.18
quadratic_ranged_45_ub: [ 1 x_17_ ^ 2 - 2 x_24_ * x_17_ + 1 x_24_ ^ 2 + 1 y_17_ ^ 2 - 2 y_24_ * y_17_ + 1 y_24_ ^ 2 ] <= 16589.25
quadratic_ranged_46_ub: [ 1 x_6_ ^ 2 - 2 x_25_ * x_6_ + 1 x_25_ ^ 2 + 1 y_6_ ^ 2 - 2 y_25_ * y_6_ + 1 y_25_ ^ 2 ] <= 32244.25
quadratic_ranged_47_ub: [ 1 x_20_ ^ 2 - 2 x_25_ * x_20_ + 1 x_25_ ^ 2 + 1 y_20_ ^ 2 - 2 y_25_ * y_20_ + 1 y_25_ ^ 2 ] <= 20471.69
quadratic_ranged_48_ub: [ 1 x_4_ ^ 2 - 2 x_26_ * x_4_ + 1 x_26_ ^ 2 + 1 y_4_ ^ 2 - 2 y_26_ * y_4_ + 1 y_26_ ^ 2 ] <= 12631.06
quadratic_ranged_49_ub: [ 1 x_7_ ^ 2 - 2 x_26_ * x_7_ + 1 x_26_ ^ 2 + 1 y_7_ ^ 2 - 2 y_26_ * y_7_ + 1 y_26_ ^ 2 ] <= 4783.36
quadratic_ranged_50_ub: [ 1 x_13_ ^ 2 - 2 x_27_ * x_13_ + 1 x_27_ ^ 2 + 1 y_13_ ^ 2 - 2 y_27_ * y_13_ + 1 y_27_ ^ 2 ] <= 1895.77
quadratic_ranged_51_ub: [ 1 x_22_ ^ 2 - 2 x_27_ * x_22_ + 1 x_27_ ^ 2 + 1 y_22_ ^ 2 - 2 y_27_ * y_22_ + 1 y_27_ ^ 2 ] <= 21163.54
quadratic_ranged_52_ub: [ 1 x_4_ ^ 2 - 2 x_28_ * x_4_ + 1 x_28_ ^ 2 + 1 y_4_ ^ 2 - 2 y_28_ * y_4_ + 1 y_28_ ^ 2 ] <= 26510.48
quadratic_ranged_53_ub: [ 1 x_26_ ^ 2 - 2 x_28_ * x_26_ + 1 x_28_ ^ 2 + 1 y_26_ ^ 2 - 2 y_28_ * y_26_ + 1 y_28_ ^ 2 ] <= 18238.58
quadratic_ranged_1_lb: [ 1 x_1_ ^ 2 - 2 x_2_ * x_1_ + 1 x_2_ ^ 2 + 1 y_1_ ^ 2 - 2 y_2_ * y_1_ + 1 y_2_ ^ 2 ] >= 12946.23
quadratic_ranged_2_lb: [ 1 x_2_ ^ 2 - 2 x_4_ * x_2_ + 1 x_4_ ^ 2 + 1 y_2_ ^ 2 - 2 y_4_ * y_2_ + 1 y_4_ ^ 2 ] >= 7129.98
quadratic_ranged_3_lb: [ 1 x_3_ ^ 2 - 2 x_4_ * x_3_ + 1 x_4_ ^ 2 + 1 y_3_ ^ 2 - 2 y_4_ * y_3_ + 1 y_4_ ^ 2 ] >= 19136.7
quadratic_ranged_4_lb: [ 1 x_3_ ^ 2 - 2 x_5_ * x_3_ + 1 x_5_ ^ 2 + 1 y_3_ ^ 2 - 2 y_5_ * y_3_ + 1 y_5_ ^ 2 ] >= 1932.48
quadratic_ranged_5_lb: [ 1 x_4_ ^ 2 - 2 x_5_ * x_4_ + 1 x_5_ ^ 2 + 1 y_4_ ^ 2 - 2 y_5_ * y_4_ + 1 y_5_ ^ 2 ] >= 10583.1
quadratic_ranged_6_lb: [ 1 x_2_ ^ 2 - 2 x_6_ * x_2_ + 1 x_6_ ^ 2 + 1 y_2_ ^ 2 - 2 y_6_ * y_2_ + 1 y_6_ ^ 2 ] >= 13286.789999999999
quadratic_ranged_7_lb: [ 1 x_4_ ^ 2 - 2 x_7_ * x_4_ + 1 x_7_ ^ 2 + 1 y_4_ ^ 2 - 2 y_7_ * y_4_ + 1 y_7_ ^ 2 ] >= 2655.18
quadratic_ranged_8_lb: [ 1 x_5_ ^ 2 - 2 x_7_ * x_5_ + 1 x_7_ ^ 2 + 1 y_5_ ^ 2 - 2 y_7_ * y_5_ + 1 y_7_ ^ 2 ] >= 4233.24
quadratic_ranged_9_lb: [ 1 x_7_ ^ 2 - 2 x_8_ * x_7_ + 1 x_8_ ^ 2 + 1 y_7_ ^ 2 - 2 y_8_ * y_7_ + 1 y_8_ ^ 2 ] >= 7315.11
quadratic_ranged_10_lb: [ 1 x_2_ ^ 2 - 2 x_9_ * x_2_ + 1 x_9_ ^ 2 + 1 y_2_ ^ 2 - 2 y_9_ * y_2_ + 1 y_9_ ^ 2 ] >= 7660.62
quadratic_ranged_11_lb: [ 1 x_2_ ^ 2 - 2 x_10_ * x_2_ + 1 x_10_ ^ 2 + 1 y_2_ ^ 2 - 2 y_10_ * y_2_ + 1 y_10_ ^ 2 ] >= 10479.15
quadratic_ranged_12_lb: [ 1 x_8_ ^ 2 - 2 x_10_ * x_8_ + 1 x_10_ ^ 2 + 1 y_8_ ^ 2 - 2 y_10_ * y_8_ + 1 y_10_ ^ 2 ] >= 19301.04
quadratic_ranged_13_lb: [ 1 x_1_ ^ 2 - 2 x_11_ * x_1_ + 1 x_11_ ^ 2 + 1 y_1_ ^ 2 - 2 y_11_ * y_1_ + 1 y_11_ ^ 2 ] >= 7866.54
quadratic_ranged_14_lb: [ 1 x_3_ ^ 2 - 2 x_11_ * x_3_ + 1 x_11_ ^ 2 + 1 y_3_ ^ 2 - 2 y_11_ * y_3_ + 1 y_11_ ^ 2 ] >= 6998.3099999999995
quadratic_ranged_15_lb: [ 1 x_5_ ^ 2 - 2 x_11_ * x_5_ + 1 x_11_ ^ 2 + 1 y_5_ ^ 2 - 2 y_11_ * y_5_ + 1 y_11_ ^ 2 ] >= 5026.23
quadratic_ranged_16_lb: [ 1 x_10_ ^ 2 - 2 x_12_ * x_10_ + 1 x_12_ ^ 2 + 1 y_10_ ^ 2 - 2 y_12_ * y_10_ + 1 y_12_ ^ 2 ] >= 912.78
quadratic_ranged_17_lb: [ 1 x_11_ ^ 2 - 2 x_12_ * x_11_ + 1 x_12_ ^ 2 + 1 y_11_ ^ 2 - 2 y_12_ * y_11_ + 1 y_12_ ^ 2 ] >= 7357.68
quadratic_ranged_18_lb: [ 1 x_5_ ^ 2 - 2 x_13_ * x_5_ + 1 x_13_ ^ 2 + 1 y_5_ ^ 2 - 2 y_13_ * y_5_ + 1 y_13_ ^ 2 ] >= 35442.99
quadratic_ranged_19_lb: [ 1 x_8_ ^ 2 - 2 x_13_ * x_8_ + 1 x_13_ ^ 2 + 1 y_8_ ^ 2 - 2 y_13_ * y_8_ + 1 y_13_ ^ 2 ] >= 37988.28
quadratic_ranged_20_lb: [ 1 x_2_ ^ 2 - 2 x_14_ * x_2_ + 1 x_14_ ^ 2 + 1 y_2_ ^ 2 - 2 y_14_ * y_2_ + 1 y_14_ ^ 2 ] >= 18799.11
quadratic_ranged_21_lb: [ 1 x_3_ ^ 2 - 2 x_14_ * x_3_ + 1 x_14_ ^ 2 + 1 y_3_ ^ 2 - 2 y_14_ * y_3_ + 1 y_14_ ^ 2 ] >= 38896.11
quadratic_ranged_22_lb: [ 1 x_8_ ^ 2 - 2 x_14_ * x_8_ + 1 x_14_ ^ 2 + 1 y_8_ ^ 2 - 2 y_14_ * y_8_ + 1 y_14_ ^ 2 ] >= 36954.72
quadratic_ranged_23_lb: [ 1 x_5_ ^ 2 - 2 x_15_ * x_5_ + 1 x_15_ ^ 2 + 1 y_5_ ^ 2 - 2 y_15_ * y_5_ + 1 y_15_ ^ 2 ] >= 3019.5
quadratic_ranged_24_lb: [ 1 x_9_ ^ 2 - 2 x_15_ * x_9_ + 1 x_15_ ^ 2 + 1 y_9_ ^ 2 - 2 y_15_ * y_9_ + 1 y_15_ ^ 2 ] >= 20136.6
quadratic_ranged_25_lb: [ 1 x_6_ ^ 2 - 2 x_16_ * x_6_ + 1 x_16_ ^ 2 + 1 y_6_ ^ 2 - 2 y_16_ * y_6_ + 1 y_16_ ^ 2 ] >= 40114.8
quadratic_ranged_26_lb: [ 1 x_13_ ^ 2 - 2 x_16_ * x_13_ + 1 x_16_ ^ 2 + 1 y_13_ ^ 2 - 2 y_16_ * y_13_ + 1 y_16_ ^ 2 ] >= 32790.78
quadratic_ranged_27_lb: [ 1 x_7_ ^ 2 - 2 x_17_ * x_7_ + 1 x_17_ ^ 2 + 1 y_7_ ^ 2 - 2 y_17_ * y_7_ + 1 y_17_ ^ 2 ] >= 999.9
quadratic_ranged_28_lb: [ 1 x_8_ ^ 2 - 2 x_17_ * x_8_ + 1 x_17_ ^ 2 + 1 y_8_ ^ 2 - 2 y_17_ * y_8_ + 1 y_17_ ^ 2 ] >= 12336.39
quadratic_ranged_29_lb: [ 1 x_2_ ^ 2 - 2 x_18_ * x_2_ + 1 x_18_ ^ 2 + 1 y_2_ ^ 2 - 2 y_18_ * y_2_ + 1 y_18_ ^ 2 ] >= 13049.19
quadratic_ranged_30_lb: [ 1 x_13_ ^ 2 - 2 x_18_ * x_13_ + 1 x_18_ ^ 2 + 1 y_13_ ^ 2 - 2 y_18_ * y_13_ + 1 y_18_ ^ 2 ] >= 960.3
quadratic_ranged_31_lb: [ 1 x_7_ ^ 2 - 2 x_19_ * x_7_ + 1 x_19_ ^ 2 + 1 y_7_ ^ 2 - 2 y_19_ * y_7_ + 1 y_19_ ^ 2 ] >= 18564.48
quadratic_ranged_32_lb: [ 1 x_14_ ^ 2 - 2 x_19_ * x_14_ + 1 x_19_ ^ 2 + 1 y_14_ ^ 2 - 2 y_19_ * y_14_ + 1 y_19_ ^ 2 ] >= 34845.03
quadratic_ranged_33_lb: [ 1 x_15_ ^ 2 - 2 x_19_ * x_15_ + 1 x_19_ ^ 2 + 1 y_15_ ^ 2 - 2 y_19_ * y_15_ + 1 y_19_ ^ 2 ] >= 1791.9
quadratic_ranged_34_lb: [ 1 x_1_ ^ 2 - 2 x_20_ * x_1_ + 1 x_20_ ^ 2 + 1 y_1_ ^ 2 - 2 y_20_ * y_1_ + 1 y_20_ ^ 2 ] >= 9886.14
quadratic_ranged_35_lb: [ 1 x_7_ ^ 2 - 2 x_20_ * x_7_ + 1 x_20_ ^ 2 + 1 y_7_ ^ 2 - 2 y_20_ * y_7_ + 1 y_20_ ^ 2 ] >= 11647.35
quadratic_ranged_36_lb: [ 1 x_11_ ^ 2 - 2 x_21_ * x_11_ + 1 x_21_ ^ 2 + 1 y_11_ ^ 2 - 2 y_21_ * y_11_ + 1 y_21_ ^ 2 ] >= 5857.83
quadratic_ranged_37_lb: [ 1 x_13_ ^ 2 - 2 x_21_ * x_13_ + 1 x_21_ ^ 2 + 1 y_13_ ^ 2 - 2 y_21_ * y_13_ + 1 y_21_ ^ 2 ] >= 3663.99
quadratic_ranged_38_lb: [ 1 x_6_ ^ 2 - 2 x_22_ * x_6_ + 1 x_22_ ^ 2 + 1 y_6_ ^ 2 - 2 y_22_ * y_6_ + 1 y_22_ ^ 2 ] >= 14237.19
quadratic_ranged_39_lb: [ 1 x_10_ ^ 2 - 2 x_22_ * x_10_ + 1 x_22_ ^ 2 + 1 y_10_ ^ 2 - 2 y_22_ * y_10_ + 1 y_22_ ^ 2 ] >= 21408.75
quadratic_ranged_40_lb: [ 1 x_19_ ^ 2 - 2 x_22_ * x_19_ + 1 x_22_ ^ 2 + 1 y_19_ ^ 2 - 2 y_22_ * y_19_ + 1 y_22_ ^ 2 ] >= 12881.88
quadratic_ranged_41_lb: [ 1 x_9_ ^ 2 - 2 x_23_ * x_9_ + 1 x_23_ ^ 2 + 1 y_9_ ^ 2 - 2 y_23_ * y_9_ + 1 y_23_ ^ 2 ] >= 7676.46
quadratic_ranged_42_lb: [ 1 x_16_ ^ 2 - 2 x_23_ * x_16_ + 1 x_23_ ^ 2 + 1 y_16_ ^ 2 - 2 y_23_ * y_16_ + 1 y_23_ ^ 2 ] >= 15924.15
quadratic_ranged_43_lb: [ 1 x_3_ ^ 2 - 2 x_24_ * x_3_ + 1 x_24_ ^ 2 + 1 y_3_ ^ 2 - 2 y_24_ * y_3_ + 1 y_24_ ^ 2 ] >= 21301.829999999998
quadratic_ranged_44_lb: [ 1 x_8_ ^ 2 - 2 x_24_ * x_8_ + 1 x_24_ ^ 2 + 1 y_8_ ^ 2 - 2 y_24_ * y_8_ + 1 y_24_ ^ 2 ] >= 21599.82
quadratic_ranged_45_lb: [ 1 x_17_ ^ 2 - 2 x_24_ * x_17_ + 1 x_24_ ^ 2 + 1 y_17_ ^ 2 - 2 y_24_ * y_17_ + 1 y_24_ ^ 2 ] >= 16260.75
quadratic_ranged_46_lb: [ 1 x_6_ ^ 2 - 2 x_25_ * x_6_ + 1 x_25_ ^ 2 + 1 y_6_ ^ 2 - 2 y_25_ * y_6_ + 1 y_25_ ^ 2 ] >= 31605.75
quadratic_ranged_47_lb: [ 1 x_20_ ^ 2 - 2 x_25_ * x_20_ + 1 x_25_ ^ 2 + 1 y_20_ ^ 2 - 2 y_25_ * y_20_ + 1 y_25_ ^ 2 ] >= 20066.31
quadratic_ranged_48_lb: [ 1 x_4_ ^ 2 - 2 x_26_ * x_4_ + 1 x_26_ ^ 2 + 1 y_4_ ^ 2 - 2 y_26_ * y_4_ + 1 y_26_ ^ 2 ] >= 12380.94
quadratic_ranged_49_lb: [ 1 x_7_ ^ 2 - 2 x_26_ * x_7_ + 1 x_26_ ^ 2 + 1 y_7_ ^ 2 - 2 y_26_ * y_7_ + 1 y_26_ ^ 2 ] >= 4688.64
quadratic_ranged_50_lb: [ 1 x_13_ ^ 2 - 2 x_27_ * x_13_ + 1 x_27_ ^ 2 + 1 y_13_ ^ 2 - 2 y_27_ * y_13_ + 1 y_27_ ^ 2 ] >= 1858.23
quadratic_ranged_51_lb: [ 1 x_22_ ^ 2 - 2 x_27_ * x_22_ + 1 x_27_ ^ 2 + 1 y_22_ ^ 2 - 2 y_27_ * y_22_ + 1 y_27_ ^ 2 ] >= 20744.46
quadratic_ranged_52_lb: [ 1 x_4_ ^ 2 - 2 x_28_ * x_4_ + 1 x_28_ ^ 2 + 1 y_4_ ^ 2 - 2 y_28_ * y_4_ + 1 y_28_ ^ 2 ] >= 25985.52
quadratic_ranged_53_lb: [ 1 x_26_ ^ 2 - 2 x_28_ * x_26_ + 1 x_28_ ^ 2 + 1 y_26_ ^ 2 - 2 y_28_ * y_26_ + 1 y_28_ ^ 2 ] >= 17877.42
c1_1: 1 x_18_ = -71
c2_1: 1 y_18_ = 75
c3_1: 1 x_4_ = -11
c4_1: 1 y_4_ = -74
c5_1: 1 x_20_ = -63
c6_1: 1 y_20_ = -99
Bounds
-163 <= x_1_ <= 37
-96 <= x_2_ <= 44
-150 <= x_3_ <= 128
x_4_ = -11
-114 <= x_5_ <= 92
-212 <= x_6_ <= 160
-63 <= x_7_ <= 41
-149 <= x_8_ <= 127
-184 <= x_9_ <= 132
-199 <= x_10_ <= 147
-186 <= x_11_ <= 98
-230 <= x_12_ <= 178
-102 <= x_13_ <= -40
-234 <= x_14_ <= 182
-170 <= x_15_ <= 148
-285 <= x_16_ <= 143
-94 <= x_17_ <= 72
x_18_ = -71
-200 <= x_19_ <= 178
x_20_ = -63
-163 <= x_21_ <= 21
-291 <= x_22_ <= 149
-273 <= x_23_ <= 221
-223 <= x_24_ <= 201
-206 <= x_25_ <= 80
-123 <= x_26_ <= 101
-145 <= x_27_ <= 3
-173 <= x_28_ <= 151
-155 <= y_1_ <= 1
-40 <= y_2_ <= 11
-179 <= y_3_ <= 65
y_4_ = -74
-146 <= y_5_ <= 29
-156 <= y_6_ <= 127
-126 <= y_7_ <= -22
-153 <= y_8_ <= 64
-128 <= y_9_ <= 99
-143 <= y_10_ <= 114
-94 <= y_11_ <= 91
-174 <= y_12_ <= 145
44 <= y_13_ <= 106
-178 <= y_14_ <= 149
-201 <= y_15_ <= 85
-139 <= y_16_ <= 289
-157 <= y_17_ <= 9
y_18_ = 75
-244 <= y_19_ <= 115
y_20_ = -99
-17 <= y_21_ <= 167
-145 <= y_22_ <= 230
-217 <= y_23_ <= 188
-286 <= y_24_ <= 138
-242 <= y_25_ <= 44
-186 <= y_26_ <= 38
1 <= y_27_ <= 149
-236 <= y_28_ <= 88
General
x_1_
x_2_
x_3_
x_4_
x_5_
x_6_
x_7_
x_8_
x_9_
x_10_
x_11_
x_12_
x_13_
x_14_
x_15_
x_16_
x_17_
x_18_
x_19_
x_20_
x_21_
x_22_
x_23_
x_24_
x_25_
x_26_
x_27_
x_28_
y_1_
y_2_
y_3_
y_4_
y_5_
y_6_
y_7_
y_8_
y_9_
y_10_
y_11_
y_12_
y_13_
y_14_
y_15_
y_16_
y_17_
y_18_
y_19_
y_20_
y_21_
y_22_
y_23_
y_24_
y_25_
y_26_
y_27_
y_28_
End
