minimize
obj: 
subject to
c1_3: -1 x_8_ + 1 y_8_ <= 0
c1: [ 1 x_1_ ^ 2 + 1 y_1_ ^ 2 ] <= 55974.39117549211
c2: [ 1 x_2_ ^ 2 + 1 y_2_ ^ 2 ] <= 19214.239999999994
c3: [ 1 x_3_ ^ 2 + 1 y_3_ ^ 2 ] <= 51507.371197717184
c4: [ 1 x_4_ ^ 2 + 1 y_4_ ^ 2 ] <= 23564.002131757945
c5: [ 1 x_5_ ^ 2 + 1 y_5_ ^ 2 ] <= 83788.02895223539
c6: [ 1 x_6_ ^ 2 + 1 y_6_ ^ 2 ] <= 41514.17063383141
c7: [ 1 x_7_ ^ 2 + 1 y_7_ ^ 2 ] <= 19999.01
c8: [ 1 x_8_ ^ 2 + 1 y_8_ ^ 2 ] <= 119602.45838274117
c9: [ 1 x_9_ ^ 2 + 1 y_9_ ^ 2 ] <= 76910.7944453238
c10: [ 1 x_10_ ^ 2 + 1 y_10_ ^ 2 ] <= 50370.91924765741
c11: [ 1 x_11_ ^ 2 + 1 y_11_ ^ 2 ] <= 13544.531462909912
c12: [ 1 x_12_ ^ 2 + 1 y_12_ ^ 2 ] <= 16.159999999999997
c13: [ 1 x_13_ ^ 2 + 1 y_13_ ^ 2 ] <= 5544.63978873484
c14: [ 1 x_14_ ^ 2 + 1 y_14_ ^ 2 ] <= 11158.364014850638
c15: [ 1 x_15_ ^ 2 + 1 y_15_ ^ 2 ] <= 30044.614000750127
c16: [ 1 x_16_ ^ 2 + 1 y_16_ ^ 2 ] <= 39253.86414306751
c17: [ 1 x_17_ ^ 2 + 1 y_17_ ^ 2 ] <= 21499.12007955125
c18: [ 1 x_18_ ^ 2 + 1 y_18_ ^ 2 ] <= 9286.474467569913
c19: [ 1 x_19_ ^ 2 + 1 y_19_ ^ 2 ] <= 37.36999999999999
c20: [ 1 x_20_ ^ 2 + 1 y_20_ ^ 2 ] <= 11822.246780056763
c21: [ 1 x_21_ ^ 2 + 1 y_21_ ^ 2 ] <= 1653.3699999999997
c22: [ 1 x_23_ ^ 2 + 1 y_23_ ^ 2 ] <= 8067.880000000001
c23: [ 1 x_24_ ^ 2 + 1 y_24_ ^ 2 ] <= 50874.7156059972
c24: [ 1 x_25_ ^ 2 + 1 y_25_ ^ 2 ] <= 74398.73622060621
c25: [ 1 x_26_ ^ 2 + 1 y_26_ ^ 2 ] <= 52096.20306102678
c26: [ 1 x_27_ ^ 2 + 1 y_27_ ^ 2 ] <= 29758.875353122967
c27: [ 1 x_28_ ^ 2 + 1 y_28_ ^ 2 ] <= 23313.062394962413
quadratic_ranged_1_ub: [ 1 x_1_ ^ 2 - 2 x_2_ * x_1_ + 1 x_2_ ^ 2 + 1 y_1_ ^ 2 - 2 y_2_ * y_1_ + 1 y_2_ ^ 2 ] <= 13097.68
quadratic_ranged_2_ub: [ 1 x_2_ ^ 2 - 2 x_3_ * x_2_ + 1 x_3_ ^ 2 + 1 y_2_ ^ 2 - 2 y_3_ * y_2_ + 1 y_3_ ^ 2 ] <= 14318.77
quadratic_ranged_3_ub: [ 1 x_3_ ^ 2 - 2 x_4_ * x_3_ + 1 x_4_ ^ 2 + 1 y_3_ ^ 2 - 2 y_4_ * y_3_ + 1 y_4_ ^ 2 ] <= 5394.41
quadratic_ranged_4_ub: [ 1 x_4_ ^ 2 - 2 x_5_ * x_4_ + 1 x_5_ ^ 2 + 1 y_4_ ^ 2 - 2 y_5_ * y_4_ + 1 y_5_ ^ 2 ] <= 18484.01
quadratic_ranged_5_ub: [ 1 x_5_ ^ 2 - 2 x_6_ * x_5_ + 1 x_6_ ^ 2 + 1 y_5_ ^ 2 - 2 y_6_ * y_5_ + 1 y_6_ ^ 2 ] <= 25559.06
quadratic_ranged_6_ub: [ 1 x_6_ ^ 2 - 2 x_7_ * x_6_ + 1 x_7_ ^ 2 + 1 y_6_ ^ 2 - 2 y_7_ * y_6_ + 1 y_7_ ^ 2 ] <= 22632.08
quadratic_ranged_7_ub: [ 1 x_7_ ^ 2 - 2 x_8_ * x_7_ + 1 x_8_ ^ 2 + 1 y_7_ ^ 2 - 2 y_8_ * y_7_ + 1 y_8_ ^ 2 ] <= 41786.73
quadratic_ranged_8_ub: [ 1 x_8_ ^ 2 - 2 x_9_ * x_8_ + 1 x_9_ ^ 2 + 1 y_8_ ^ 2 - 2 y_9_ * y_8_ + 1 y_9_ ^ 2 ] <= 30776.72
quadratic_ranged_9_ub: [ 1 x_9_ ^ 2 - 2 x_10_ * x_9_ + 1 x_10_ ^ 2 + 1 y_9_ ^ 2 - 2 y_10_ * y_9_ + 1 y_10_ ^ 2 ] <= 2797.7
quadratic_ranged_10_ub: [ 1 x_10_ ^ 2 - 2 x_11_ * x_10_ + 1 x_11_ ^ 2 + 1 y_10_ ^ 2 - 2 y_11_ * y_10_ + 1 y_11_ ^ 2 ] <= 11675.6
quadratic_ranged_11_ub: [ 1 x_11_ ^ 2 - 2 x_12_ * x_11_ + 1 x_12_ ^ 2 + 1 y_11_ ^ 2 - 2 y_12_ * y_11_ + 1 y_12_ ^ 2 ] <= 12625
quadratic_ranged_12_ub: [ 1 x_12_ ^ 2 - 2 x_13_ * x_12_ + 1 x_13_ ^ 2 + 1 y_12_ ^ 2 - 2 y_13_ * y_12_ + 1 y_13_ ^ 2 ] <= 4962.13
quadratic_ranged_13_ub: [ 1 x_13_ ^ 2 - 2 x_14_ * x_13_ + 1 x_14_ ^ 2 + 1 y_13_ ^ 2 - 2 y_14_ * y_13_ + 1 y_14_ ^ 2 ] <= 971.62
quadratic_ranged_14_ub: [ 1 x_5_ ^ 2 - 2 x_15_ * x_5_ + 1 x_15_ ^ 2 + 1 y_5_ ^ 2 - 2 y_15_ * y_5_ + 1 y_15_ ^ 2 ] <= 36079.22
quadratic_ranged_15_ub: [ 1 x_6_ ^ 2 - 2 x_15_ * x_6_ + 1 x_15_ ^ 2 + 1 y_6_ ^ 2 - 2 y_15_ * y_6_ + 1 y_15_ ^ 2 ] <= 925.16
quadratic_ranged_16_ub: [ 1 x_14_ ^ 2 - 2 x_15_ * x_14_ + 1 x_15_ ^ 2 + 1 y_14_ ^ 2 - 2 y_15_ * y_14_ + 1 y_15_ ^ 2 ] <= 4583.38
quadratic_ranged_17_ub: [ 1 x_15_ ^ 2 - 2 x_16_ * x_15_ + 1 x_16_ ^ 2 + 1 y_15_ ^ 2 - 2 y_16_ * y_15_ + 1 y_16_ ^ 2 ] <= 5148.9800000000005
quadratic_ranged_18_ub: [ 1 x_7_ ^ 2 - 2 x_17_ * x_7_ + 1 x_17_ ^ 2 + 1 y_7_ ^ 2 - 2 y_17_ * y_7_ + 1 y_17_ ^ 2 ] <= 3894.56
quadratic_ranged_19_ub: [ 1 x_16_ ^ 2 - 2 x_17_ * x_16_ + 1 x_17_ ^ 2 + 1 y_16_ ^ 2 - 2 y_17_ * y_16_ + 1 y_17_ ^ 2 ] <= 2652.26
quadratic_ranged_20_ub: [ 1 x_2_ ^ 2 - 2 x_18_ * x_2_ + 1 x_18_ ^ 2 + 1 y_2_ ^ 2 - 2 y_18_ * y_2_ + 1 y_18_ ^ 2 ] <= 7686.1
quadratic_ranged_21_ub: [ 1 x_17_ ^ 2 - 2 x_18_ * x_17_ + 1 x_18_ ^ 2 + 1 y_17_ ^ 2 - 2 y_18_ * y_17_ + 1 y_18_ ^ 2 ] <= 2526.01
quadratic_ranged_22_ub: [ 1 x_18_ ^ 2 - 2 x_19_ * x_18_ + 1 x_19_ ^ 2 + 1 y_18_ ^ 2 - 2 y_19_ * y_18_ + 1 y_19_ ^ 2 ] <= 8145.65
quadratic_ranged_23_ub: [ 1 x_4_ ^ 2 - 2 x_20_ * x_4_ + 1 x_20_ ^ 2 + 1 y_4_ ^ 2 - 2 y_20_ * y_4_ + 1 y_20_ ^ 2 ] <= 2004.85
quadratic_ranged_24_ub: [ 1 x_19_ ^ 2 - 2 x_20_ * x_19_ + 1 x_20_ ^ 2 + 1 y_19_ ^ 2 - 2 y_20_ * y_19_ + 1 y_20_ ^ 2 ] <= 10530.26
quadratic_ranged_25_ub: [ 1 x_19_ ^ 2 - 2 x_21_ * x_19_ + 1 x_21_ ^ 2 + 1 y_19_ ^ 2 - 2 y_21_ * y_19_ + 1 y_21_ ^ 2 ] <= 1262.5
quadratic_ranged_26_ub: [ 1 x_20_ ^ 2 - 2 x_21_ * x_20_ + 1 x_21_ ^ 2 + 1 y_20_ ^ 2 - 2 y_21_ * y_20_ + 1 y_21_ ^ 2 ] <= 15529.76
quadratic_ranged_27_ub: [ 1 x_2_ ^ 2 - 2 x_22_ * x_2_ + 1 x_22_ ^ 2 + 1 y_2_ ^ 2 - 2 y_22_ * y_2_ + 1 y_22_ ^ 2 ] <= 19214.24
quadratic_ranged_28_ub: [ 1 x_7_ ^ 2 - 2 x_22_ * x_7_ + 1 x_22_ ^ 2 + 1 y_7_ ^ 2 - 2 y_22_ * y_7_ + 1 y_22_ ^ 2 ] <= 19999.01
quadratic_ranged_29_ub: [ 1 x_12_ ^ 2 - 2 x_22_ * x_12_ + 1 x_22_ ^ 2 + 1 y_12_ ^ 2 - 2 y_22_ * y_12_ + 1 y_22_ ^ 2 ] <= 16.16
quadratic_ranged_30_ub: [ 1 x_19_ ^ 2 - 2 x_22_ * x_19_ + 1 x_22_ ^ 2 + 1 y_19_ ^ 2 - 2 y_22_ * y_19_ + 1 y_22_ ^ 2 ] <= 37.37
quadratic_ranged_31_ub: [ 1 x_21_ ^ 2 - 2 x_22_ * x_21_ + 1 x_22_ ^ 2 + 1 y_21_ ^ 2 - 2 y_22_ * y_21_ + 1 y_22_ ^ 2 ] <= 1653.3700000000001
quadratic_ranged_32_ub: [ 1 x_22_ ^ 2 - 2 x_23_ * x_22_ + 1 x_23_ ^ 2 + 1 y_22_ ^ 2 - 2 y_23_ * y_22_ + 1 y_23_ ^ 2 ] <= 8067.88
quadratic_ranged_33_ub: [ 1 x_5_ ^ 2 - 2 x_24_ * x_5_ + 1 x_24_ ^ 2 + 1 y_5_ ^ 2 - 2 y_24_ * y_5_ + 1 y_24_ ^ 2 ] <= 20381.8
quadratic_ranged_34_ub: [ 1 x_8_ ^ 2 - 2 x_24_ * x_8_ + 1 x_24_ ^ 2 + 1 y_8_ ^ 2 - 2 y_24_ * y_8_ + 1 y_24_ ^ 2 ] <= 45244.97
quadratic_ranged_35_ub: [ 1 x_23_ ^ 2 - 2 x_24_ * x_23_ + 1 x_24_ ^ 2 + 1 y_23_ ^ 2 - 2 y_24_ * y_23_ + 1 y_24_ ^ 2 ] <= 18423.41
quadratic_ranged_36_ub: [ 1 x_1_ ^ 2 - 2 x_25_ * x_1_ + 1 x_25_ ^ 2 + 1 y_1_ ^ 2 - 2 y_25_ * y_1_ + 1 y_25_ ^ 2 ] <= 4307.65
quadratic_ranged_37_ub: [ 1 x_24_ ^ 2 - 2 x_25_ * x_24_ + 1 x_25_ ^ 2 + 1 y_24_ ^ 2 - 2 y_25_ * y_24_ + 1 y_25_ ^ 2 ] <= 9958.6
quadratic_ranged_38_ub: [ 1 x_25_ ^ 2 - 2 x_26_ * x_25_ + 1 x_26_ ^ 2 + 1 y_25_ ^ 2 - 2 y_26_ * y_25_ + 1 y_26_ ^ 2 ] <= 1981.6200000000001
quadratic_ranged_39_ub: [ 1 x_4_ ^ 2 - 2 x_27_ * x_4_ + 1 x_27_ ^ 2 + 1 y_4_ ^ 2 - 2 y_27_ * y_4_ + 1 y_27_ ^ 2 ] <= 3519.85
quadratic_ranged_40_ub: [ 1 x_15_ ^ 2 - 2 x_27_ * x_15_ + 1 x_27_ ^ 2 + 1 y_15_ ^ 2 - 2 y_27_ * y_15_ + 1 y_27_ ^ 2 ] <= 5340.88
quadratic_ranged_41_ub: [ 1 x_26_ ^ 2 - 2 x_27_ * x_26_ + 1 x_27_ ^ 2 + 1 y_26_ ^ 2 - 2 y_27_ * y_26_ + 1 y_27_ ^ 2 ] <= 3106.76
quadratic_ranged_42_ub: [ 1 x_1_ ^ 2 - 2 x_28_ * x_1_ + 1 x_28_ ^ 2 + 1 y_1_ ^ 2 - 2 y_28_ * y_1_ + 1 y_28_ ^ 2 ] <= 7039.7
quadratic_ranged_43_ub: [ 1 x_7_ ^ 2 - 2 x_28_ * x_7_ + 1 x_28_ ^ 2 + 1 y_7_ ^ 2 - 2 y_28_ * y_7_ + 1 y_28_ ^ 2 ] <= 13591.57
quadratic_ranged_44_ub: [ 1 x_15_ ^ 2 - 2 x_28_ * x_15_ + 1 x_28_ ^ 2 + 1 y_15_ ^ 2 - 2 y_28_ * y_15_ + 1 y_28_ ^ 2 ] <= 5786.29
quadratic_ranged_45_ub: [ 1 x_20_ ^ 2 - 2 x_28_ * x_20_ + 1 x_28_ ^ 2 + 1 y_20_ ^ 2 - 2 y_28_ * y_20_ + 1 y_28_ ^ 2 ] <= 1932.13
quadratic_ranged_46_ub: [ 1 x_27_ ^ 2 - 2 x_28_ * x_27_ + 1 x_28_ ^ 2 + 1 y_27_ ^ 2 - 2 y_28_ * y_27_ + 1 y_28_ ^ 2 ] <= 392.89
c1_2: 1 x_8_ >= 0
c2_2: 1 y_8_ >= 0
quadratic_ranged_1_lb: [ 1 x_1_ ^ 2 - 2 x_2_ * x_1_ + 1 x_2_ ^ 2 + 1 y_1_ ^ 2 - 2 y_2_ * y_1_ + 1 y_2_ ^ 2 ] >= 12838.32
quadratic_ranged_2_lb: [ 1 x_2_ ^ 2 - 2 x_3_ * x_2_ + 1 x_3_ ^ 2 + 1 y_2_ ^ 2 - 2 y_3_ * y_2_ + 1 y_3_ ^ 2 ] >= 14035.23
quadratic_ranged_3_lb: [ 1 x_3_ ^ 2 - 2 x_4_ * x_3_ + 1 x_4_ ^ 2 + 1 y_3_ ^ 2 - 2 y_4_ * y_3_ + 1 y_4_ ^ 2 ] >= 5287.59
quadratic_ranged_4_lb: [ 1 x_4_ ^ 2 - 2 x_5_ * x_4_ + 1 x_5_ ^ 2 + 1 y_4_ ^ 2 - 2 y_5_ * y_4_ + 1 y_5_ ^ 2 ] >= 18117.99
quadratic_ranged_5_lb: [ 1 x_5_ ^ 2 - 2 x_6_ * x_5_ + 1 x_6_ ^ 2 + 1 y_5_ ^ 2 - 2 y_6_ * y_5_ + 1 y_6_ ^ 2 ] >= 25052.94
quadratic_ranged_6_lb: [ 1 x_6_ ^ 2 - 2 x_7_ * x_6_ + 1 x_7_ ^ 2 + 1 y_6_ ^ 2 - 2 y_7_ * y_6_ + 1 y_7_ ^ 2 ] >= 22183.92
quadratic_ranged_7_lb: [ 1 x_7_ ^ 2 - 2 x_8_ * x_7_ + 1 x_8_ ^ 2 + 1 y_7_ ^ 2 - 2 y_8_ * y_7_ + 1 y_8_ ^ 2 ] >= 40959.27
quadratic_ranged_8_lb: [ 1 x_8_ ^ 2 - 2 x_9_ * x_8_ + 1 x_9_ ^ 2 + 1 y_8_ ^ 2 - 2 y_9_ * y_8_ + 1 y_9_ ^ 2 ] >= 30167.28
quadratic_ranged_9_lb: [ 1 x_9_ ^ 2 - 2 x_10_ * x_9_ + 1 x_10_ ^ 2 + 1 y_9_ ^ 2 - 2 y_10_ * y_9_ + 1 y_10_ ^ 2 ] >= 2742.3
quadratic_ranged_10_lb: [ 1 x_10_ ^ 2 - 2 x_11_ * x_10_ + 1 x_11_ ^ 2 + 1 y_10_ ^ 2 - 2 y_11_ * y_10_ + 1 y_11_ ^ 2 ] >= 11444.4
quadratic_ranged_11_lb: [ 1 x_11_ ^ 2 - 2 x_12_ * x_11_ + 1 x_12_ ^ 2 + 1 y_11_ ^ 2 - 2 y_12_ * y_11_ + 1 y_12_ ^ 2 ] >= 12375
quadratic_ranged_12_lb: [ 1 x_12_ ^ 2 - 2 x_13_ * x_12_ + 1 x_13_ ^ 2 + 1 y_12_ ^ 2 - 2 y_13_ * y_12_ + 1 y_13_ ^ 2 ] >= 4863.87
quadratic_ranged_13_lb: [ 1 x_13_ ^ 2 - 2 x_14_ * x_13_ + 1 x_14_ ^ 2 + 1 y_13_ ^ 2 - 2 y_14_ * y_13_ + 1 y_14_ ^ 2 ] >= 952.38
quadratic_ranged_14_lb: [ 1 x_5_ ^ 2 - 2 x_15_ * x_5_ + 1 x_15_ ^ 2 + 1 y_5_ ^ 2 - 2 y_15_ * y_5_ + 1 y_15_ ^ 2 ] >= 35364.78
quadratic_ranged_15_lb: [ 1 x_6_ ^ 2 - 2 x_15_ * x_6_ + 1 x_15_ ^ 2 + 1 y_6_ ^ 2 - 2 y_15_ * y_6_ + 1 y_15_ ^ 2 ] >= 906.84
quadratic_ranged_16_lb: [ 1 x_14_ ^ 2 - 2 x_15_ * x_14_ + 1 x_15_ ^ 2 + 1 y_14_ ^ 2 - 2 y_15_ * y_14_ + 1 y_15_ ^ 2 ] >= 4492.62
quadratic_ranged_17_lb: [ 1 x_15_ ^ 2 - 2 x_16_ * x_15_ + 1 x_16_ ^ 2 + 1 y_15_ ^ 2 - 2 y_16_ * y_15_ + 1 y_16_ ^ 2 ] >= 5047.0199999999995
quadratic_ranged_18_lb: [ 1 x_7_ ^ 2 - 2 x_17_ * x_7_ + 1 x_17_ ^ 2 + 1 y_7_ ^ 2 - 2 y_17_ * y_7_ + 1 y_17_ ^ 2 ] >= 3817.44
quadratic_ranged_19_lb: [ 1 x_16_ ^ 2 - 2 x_17_ * x_16_ + 1 x_17_ ^ 2 + 1 y_16_ ^ 2 - 2 y_17_ * y_16_ + 1 y_17_ ^ 2 ] >= 2599.74
quadratic_ranged_20_lb: [ 1 x_2_ ^ 2 - 2 x_18_ * x_2_ + 1 x_18_ ^ 2 + 1 y_2_ ^ 2 - 2 y_18_ * y_2_ + 1 y_18_ ^ 2 ] >= 7533.9
quadratic_ranged_21_lb: [ 1 x_17_ ^ 2 - 2 x_18_ * x_17_ + 1 x_18_ ^ 2 + 1 y_17_ ^ 2 - 2 y_18_ * y_17_ + 1 y_18_ ^ 2 ] >= 2475.99
quadratic_ranged_22_lb: [ 1 x_18_ ^ 2 - 2 x_19_ * x_18_ + 1 x_19_ ^ 2 + 1 y_18_ ^ 2 - 2 y_19_ * y_18_ + 1 y_19_ ^ 2 ] >= 7984.35
quadratic_ranged_23_lb: [ 1 x_4_ ^ 2 - 2 x_20_ * x_4_ + 1 x_20_ ^ 2 + 1 y_4_ ^ 2 - 2 y_20_ * y_4_ + 1 y_20_ ^ 2 ] >= 1965.15
quadratic_ranged_24_lb: [ 1 x_19_ ^ 2 - 2 x_20_ * x_19_ + 1 x_20_ ^ 2 + 1 y_19_ ^ 2 - 2 y_20_ * y_19_ + 1 y_20_ ^ 2 ] >= 10321.74
quadratic_ranged_25_lb: [ 1 x_19_ ^ 2 - 2 x_21_ * x_19_ + 1 x_21_ ^ 2 + 1 y_19_ ^ 2 - 2 y_21_ * y_19_ + 1 y_21_ ^ 2 ] >= 1237.5
quadratic_ranged_26_lb: [ 1 x_20_ ^ 2 - 2 x_21_ * x_20_ + 1 x_21_ ^ 2 + 1 y_20_ ^ 2 - 2 y_21_ * y_20_ + 1 y_21_ ^ 2 ] >= 15222.24
quadratic_ranged_27_lb: [ 1 x_2_ ^ 2 - 2 x_22_ * x_2_ + 1 x_22_ ^ 2 + 1 y_2_ ^ 2 - 2 y_22_ * y_2_ + 1 y_22_ ^ 2 ] >= 18833.76
quadratic_ranged_28_lb: [ 1 x_7_ ^ 2 - 2 x_22_ * x_7_ + 1 x_22_ ^ 2 + 1 y_7_ ^ 2 - 2 y_22_ * y_7_ + 1 y_22_ ^ 2 ] >= 19602.99
quadratic_ranged_29_lb: [ 1 x_12_ ^ 2 - 2 x_22_ * x_12_ + 1 x_22_ ^ 2 + 1 y_12_ ^ 2 - 2 y_22_ * y_12_ + 1 y_22_ ^ 2 ] >= 15.84
quadratic_ranged_30_lb: [ 1 x_19_ ^ 2 - 2 x_22_ * x_19_ + 1 x_22_ ^ 2 + 1 y_19_ ^ 2 - 2 y_22_ * y_19_ + 1 y_22_ ^ 2 ] >= 36.63
quadratic_ranged_31_lb: [ 1 x_21_ ^ 2 - 2 x_22_ * x_21_ + 1 x_22_ ^ 2 + 1 y_21_ ^ 2 - 2 y_22_ * y_21_ + 1 y_22_ ^ 2 ] >= 1620.6299999999999
quadratic_ranged_32_lb: [ 1 x_22_ ^ 2 - 2 x_23_ * x_22_ + 1 x_23_ ^ 2 + 1 y_22_ ^ 2 - 2 y_23_ * y_22_ + 1 y_23_ ^ 2 ] >= 7908.12
quadratic_ranged_33_lb: [ 1 x_5_ ^ 2 - 2 x_24_ * x_5_ + 1 x_24_ ^ 2 + 1 y_5_ ^ 2 - 2 y_24_ * y_5_ + 1 y_24_ ^ 2 ] >= 19978.2
quadratic_ranged_34_lb: [ 1 x_8_ ^ 2 - 2 x_24_ * x_8_ + 1 x_24_ ^ 2 + 1 y_8_ ^ 2 - 2 y_24_ * y_8_ + 1 y_24_ ^ 2 ] >= 44349.03
quadratic_ranged_35_lb: [ 1 x_23_ ^ 2 - 2 x_24_ * x_23_ + 1 x_24_ ^ 2 + 1 y_23_ ^ 2 - 2 y_24_ * y_23_ + 1 y_24_ ^ 2 ] >= 18058.59
quadratic_ranged_36_lb: [ 1 x_1_ ^ 2 - 2 x_25_ * x_1_ + 1 x_25_ ^ 2 + 1 y_1_ ^ 2 - 2 y_25_ * y_1_ + 1 y_25_ ^ 2 ] >= 4222.35
quadratic_ranged_37_lb: [ 1 x_24_ ^ 2 - 2 x_25_ * x_24_ + 1 x_25_ ^ 2 + 1 y_24_ ^ 2 - 2 y_25_ * y_24_ + 1 y_25_ ^ 2 ] >= 9761.4
quadratic_ranged_38_lb: [ 1 x_25_ ^ 2 - 2 x_26_ * x_25_ + 1 x_26_ ^ 2 + 1 y_25_ ^ 2 - 2 y_26_ * y_25_ + 1 y_26_ ^ 2 ] >= 1942.3799999999999
quadratic_ranged_39_lb: [ 1 x_4_ ^ 2 - 2 x_27_ * x_4_ + 1 x_27_ ^ 2 + 1 y_4_ ^ 2 - 2 y_27_ * y_4_ + 1 y_27_ ^ 2 ] >= 3450.15
quadratic_ranged_40_lb: [ 1 x_15_ ^ 2 - 2 x_27_ * x_15_ + 1 x_27_ ^ 2 + 1 y_15_ ^ 2 - 2 y_27_ * y_15_ + 1 y_27_ ^ 2 ] >= 5235.12
quadratic_ranged_41_lb: [ 1 x_26_ ^ 2 - 2 x_27_ * x_26_ + 1 x_27_ ^ 2 + 1 y_26_ ^ 2 - 2 y_27_ * y_26_ + 1 y_27_ ^ 2 ] >= 3045.24
quadratic_ranged_42_lb: [ 1 x_1_ ^ 2 - 2 x_28_ * x_1_ + 1 x_28_ ^ 2 + 1 y_1_ ^ 2 - 2 y_28_ * y_1_ + 1 y_28_ ^ 2 ] >= 6900.3
quadratic_ranged_43_lb: [ 1 x_7_ ^ 2 - 2 x_28_ * x_7_ + 1 x_28_ ^ 2 + 1 y_7_ ^ 2 - 2 y_28_ * y_7_ + 1 y_28_ ^ 2 ] >= 13322.43
quadratic_ranged_44_lb: [ 1 x_15_ ^ 2 - 2 x_28_ * x_15_ + 1 x_28_ ^ 2 + 1 y_15_ ^ 2 - 2 y_28_ * y_15_ + 1 y_28_ ^ 2 ] >= 5671.71
quadratic_ranged_45_lb: [ 1 x_20_ ^ 2 - 2 x_28_ * x_20_ + 1 x_28_ ^ 2 + 1 y_20_ ^ 2 - 2 y_28_ * y_20_ + 1 y_28_ ^ 2 ] >= 1893.87
quadratic_ranged_46_lb: [ 1 x_27_ ^ 2 - 2 x_28_ * x_27_ + 1 x_28_ ^ 2 + 1 y_27_ ^ 2 - 2 y_28_ * y_27_ + 1 y_28_ ^ 2 ] >= 385.11
c1_1: 1 x_22_ = 0
c2_1: 1 y_22_ = 0
Bounds
-236 <= x_1_ <= 236
-138 <= x_2_ <= 138
-226 <= x_3_ <= 226
-153 <= x_4_ <= 153
-289 <= x_5_ <= 289
-203 <= x_6_ <= 203
-141 <= x_7_ <= 141
-345 <= x_8_ <= 345
-277 <= x_9_ <= 277
-224 <= x_10_ <= 224
-116 <= x_11_ <= 116
-4 <= x_12_ <= 4
-74 <= x_13_ <= 74
-105 <= x_14_ <= 105
-173 <= x_15_ <= 173
-198 <= x_16_ <= 198
-146 <= x_17_ <= 146
-96 <= x_18_ <= 96
-6 <= x_19_ <= 6
-108 <= x_20_ <= 108
-40 <= x_21_ <= 40
x_22_ = 0
-89 <= x_23_ <= 89
-225 <= x_24_ <= 225
-272 <= x_25_ <= 272
-228 <= x_26_ <= 228
-172 <= x_27_ <= 172
-152 <= x_28_ <= 152
-236 <= y_1_ <= 236
-138 <= y_2_ <= 138
-226 <= y_3_ <= 226
-153 <= y_4_ <= 153
-289 <= y_5_ <= 289
-203 <= y_6_ <= 203
-141 <= y_7_ <= 141
-345 <= y_8_ <= 345
-277 <= y_9_ <= 277
-224 <= y_10_ <= 224
-116 <= y_11_ <= 116
-4 <= y_12_ <= 4
-74 <= y_13_ <= 74
-105 <= y_14_ <= 105
-173 <= y_15_ <= 173
-198 <= y_16_ <= 198
-146 <= y_17_ <= 146
-96 <= y_18_ <= 96
-6 <= y_19_ <= 6
-108 <= y_20_ <= 108
-40 <= y_21_ <= 40
y_22_ = 0
-89 <= y_23_ <= 89
-225 <= y_24_ <= 225
-272 <= y_25_ <= 272
-228 <= y_26_ <= 228
-172 <= y_27_ <= 172
-152 <= y_28_ <= 152
General
x_1_
x_2_
x_3_
x_4_
x_5_
x_6_
x_7_
x_8_
x_9_
x_10_
x_11_
x_12_
x_13_
x_14_
x_15_
x_16_
x_17_
x_18_
x_19_
x_20_
x_21_
x_22_
x_23_
x_24_
x_25_
x_26_
x_27_
x_28_
y_1_
y_2_
y_3_
y_4_
y_5_
y_6_
y_7_
y_8_
y_9_
y_10_
y_11_
y_12_
y_13_
y_14_
y_15_
y_16_
y_17_
y_18_
y_19_
y_20_
y_21_
y_22_
y_23_
y_24_
y_25_
y_26_
y_27_
y_28_
End
