minimize
obj: 
subject to
c1_1: 128 x_1_ + 70 y_1_ + [ 1 x_1_ ^ 2 + 1 y_1_ ^ 2 ] <= 40615
c2_1: 128 x_2_ + 70 y_2_ + [ 1 x_2_ ^ 2 + 1 y_2_ ^ 2 ] <= 21906
c3_1: 128 x_3_ + 70 y_3_ + [ 1 x_3_ ^ 2 + 1 y_3_ ^ 2 ] <= 17024
c4_1: 128 x_4_ + 70 y_4_ + [ 1 x_4_ ^ 2 + 1 y_4_ ^ 2 ] <= 39366
c5_1: 128 x_5_ + 70 y_5_ + [ 1 x_5_ ^ 2 + 1 y_5_ ^ 2 ] <= 67724
c6_1: 128 x_6_ + 70 y_6_ + [ 1 x_6_ ^ 2 + 1 y_6_ ^ 2 ] <= 98473
c7_1: 128 x_7_ + 70 y_7_ + [ 1 x_7_ ^ 2 + 1 y_7_ ^ 2 ] <= 29337
c8_1: 128 x_8_ + 70 y_8_ + [ 1 x_8_ ^ 2 + 1 y_8_ ^ 2 ] <= 77802
c9_1: 128 x_9_ + 70 y_9_ + [ 1 x_9_ ^ 2 + 1 y_9_ ^ 2 ] <= 29243
c10_1: 128 x_10_ + 70 y_10_ + [ 1 x_10_ ^ 2 + 1 y_10_ ^ 2 ] <= 36313
c11_1: 128 x_11_ + 70 y_11_ + [ 1 x_11_ ^ 2 + 1 y_11_ ^ 2 ] <= 13346
c12_1: 128 x_12_ + 70 y_12_ + [ 1 x_12_ ^ 2 + 1 y_12_ ^ 2 ] <= 26857
c13_1: 128 x_13_ + 70 y_13_ + [ 1 x_13_ ^ 2 + 1 y_13_ ^ 2 ] <= 23933
c14_1: 128 x_14_ + 70 y_14_ + [ 1 x_14_ ^ 2 + 1 y_14_ ^ 2 ] <= 38773
c15_1: 128 x_15_ + 70 y_15_ + [ 1 x_15_ ^ 2 + 1 y_15_ ^ 2 ] <= 43514
c16_1: 128 x_16_ + 70 y_16_ + [ 1 x_16_ ^ 2 + 1 y_16_ ^ 2 ] <= 31233
c17_1: 128 x_17_ + 70 y_17_ + [ 1 x_17_ ^ 2 + 1 y_17_ ^ 2 ] <= 4116
c18_1: 128 x_19_ + 70 y_19_ + [ 1 x_19_ ^ 2 + 1 y_19_ ^ 2 ] <= -4336
c19_1: 128 x_20_ + 70 y_20_ + [ 1 x_20_ ^ 2 + 1 y_20_ ^ 2 ] <= -209
c20_1: 128 x_21_ + 70 y_21_ + [ 1 x_21_ ^ 2 + 1 y_21_ ^ 2 ] <= 519
c21_1: 128 x_22_ + 70 y_22_ + [ 1 x_22_ ^ 2 + 1 y_22_ ^ 2 ] <= 23022
c22_1: 128 x_23_ + 70 y_23_ + [ 1 x_23_ ^ 2 + 1 y_23_ ^ 2 ] <= 58656
c23_1: 128 x_24_ + 70 y_24_ + [ 1 x_24_ ^ 2 + 1 y_24_ ^ 2 ] <= 87128
c24_1: 128 x_25_ + 70 y_25_ + [ 1 x_25_ ^ 2 + 1 y_25_ ^ 2 ] <= 125065
c25_1: 128 x_26_ + 70 y_26_ + [ 1 x_26_ ^ 2 + 1 y_26_ ^ 2 ] <= 71571
c26_1: 6 x_2_ - 60 y_2_ + [ 1 x_2_ ^ 2 + 1 y_2_ ^ 2 ] <= 7669
c27_1: 6 x_3_ - 60 y_3_ + [ 1 x_3_ ^ 2 + 1 y_3_ ^ 2 ] <= 10786
c28_1: 6 x_4_ - 60 y_4_ + [ 1 x_4_ ^ 2 + 1 y_4_ ^ 2 ] <= 28009
c29_1: 6 x_5_ - 60 y_5_ + [ 1 x_5_ ^ 2 + 1 y_5_ ^ 2 ] <= 18411
c30_1: 6 x_6_ - 60 y_6_ + [ 1 x_6_ ^ 2 + 1 y_6_ ^ 2 ] <= 72451
c31_1: 6 x_7_ - 60 y_7_ + [ 1 x_7_ ^ 2 + 1 y_7_ ^ 2 ] <= 113502
c32_1: 6 x_8_ - 60 y_8_ + [ 1 x_8_ ^ 2 + 1 y_8_ ^ 2 ] <= 160117
c33_1: 6 x_9_ - 60 y_9_ + [ 1 x_9_ ^ 2 + 1 y_9_ ^ 2 ] <= 88423
c34_1: 6 x_10_ - 60 y_10_ + [ 1 x_10_ ^ 2 + 1 y_10_ ^ 2 ] <= 20149
c35_1: 6 x_11_ - 60 y_11_ + [ 1 x_11_ ^ 2 + 1 y_11_ ^ 2 ] <= 5128
c36_1: 6 x_12_ - 60 y_12_ + [ 1 x_12_ ^ 2 + 1 y_12_ ^ 2 ] <= 13600
c37_1: 6 x_13_ - 60 y_13_ + [ 1 x_13_ ^ 2 + 1 y_13_ ^ 2 ] <= 11659
c38_1: 6 x_14_ - 60 y_14_ + [ 1 x_14_ ^ 2 + 1 y_14_ ^ 2 ] <= 21909
c39_1: 6 x_15_ - 60 y_15_ + [ 1 x_15_ ^ 2 + 1 y_15_ ^ 2 ] <= 33413
c40_1: 6 x_16_ - 60 y_16_ + [ 1 x_16_ ^ 2 + 1 y_16_ ^ 2 ] <= 46646
c41_1: 6 x_17_ - 60 y_17_ + [ 1 x_17_ ^ 2 + 1 y_17_ ^ 2 ] <= 96105
c42: 6 x_18_ - 60 y_18_ + [ 1 x_18_ ^ 2 + 1 y_18_ ^ 2 ] <= 45027
c43: 6 x_19_ - 60 y_19_ + [ 1 x_19_ ^ 2 + 1 y_19_ ^ 2 ] <= 47331
c44: 6 x_20_ - 60 y_20_ + [ 1 x_20_ ^ 2 + 1 y_20_ ^ 2 ] <= 31320
c45: 6 x_21_ - 60 y_21_ + [ 1 x_21_ ^ 2 + 1 y_21_ ^ 2 ] <= 18109
c46: 6 x_22_ - 60 y_22_ + [ 1 x_22_ ^ 2 + 1 y_22_ ^ 2 ] <= 51918
c47: 6 x_23_ - 60 y_23_ + [ 1 x_23_ ^ 2 + 1 y_23_ ^ 2 ] <= 60980
c48: 6 x_24_ - 60 y_24_ + [ 1 x_24_ ^ 2 + 1 y_24_ ^ 2 ] <= 8113
c49: 6 x_25_ - 60 y_25_ + [ 1 x_25_ ^ 2 + 1 y_25_ ^ 2 ] <= 22187
c50: 6 x_26_ - 60 y_26_ + [ 1 x_26_ ^ 2 + 1 y_26_ ^ 2 ] <= 3056
c51: -64 x_1_ - 18 y_1_ + [ 1 x_1_ ^ 2 + 1 y_1_ ^ 2 ] <= 27813
c52: -64 x_2_ - 18 y_2_ + [ 1 x_2_ ^ 2 + 1 y_2_ ^ 2 ] <= 4891
c53: -64 x_3_ - 18 y_3_ + [ 1 x_3_ ^ 2 + 1 y_3_ ^ 2 ] <= 2728
c54: -64 x_5_ - 18 y_5_ + [ 1 x_5_ ^ 2 + 1 y_5_ ^ 2 ] <= 10516
c55: -64 x_6_ - 18 y_6_ + [ 1 x_6_ ^ 2 + 1 y_6_ ^ 2 ] <= 56330
c56: -64 x_7_ - 18 y_7_ + [ 1 x_7_ ^ 2 + 1 y_7_ ^ 2 ] <= 93176
c57: -64 x_8_ - 18 y_8_ + [ 1 x_8_ ^ 2 + 1 y_8_ ^ 2 ] <= 127227
c58: -64 x_9_ - 18 y_9_ + [ 1 x_9_ ^ 2 + 1 y_9_ ^ 2 ] <= 64348
c59: -64 x_10_ - 18 y_10_ + [ 1 x_10_ ^ 2 + 1 y_10_ ^ 2 ] <= 9313
c60: -64 x_11_ - 18 y_11_ + [ 1 x_11_ ^ 2 + 1 y_11_ ^ 2 ] <= 27620
c61: -64 x_12_ - 18 y_12_ + [ 1 x_12_ ^ 2 + 1 y_12_ ^ 2 ] <= 43941
c62: -64 x_13_ - 18 y_13_ + [ 1 x_13_ ^ 2 + 1 y_13_ ^ 2 ] <= 40468
c63: -64 x_14_ - 18 y_14_ + [ 1 x_14_ ^ 2 + 1 y_14_ ^ 2 ] <= 57868
c64: -64 x_15_ - 18 y_15_ + [ 1 x_15_ ^ 2 + 1 y_15_ ^ 2 ] <= 75651
c65: -64 x_16_ - 18 y_16_ + [ 1 x_16_ ^ 2 + 1 y_16_ ^ 2 ] <= 33818
c66: -64 x_17_ - 18 y_17_ + [ 1 x_17_ ^ 2 + 1 y_17_ ^ 2 ] <= 77814
c67: -64 x_18_ - 18 y_18_ + [ 1 x_18_ ^ 2 + 1 y_18_ ^ 2 ] <= 43582
c68: -64 x_19_ - 18 y_19_ + [ 1 x_19_ ^ 2 + 1 y_19_ ^ 2 ] <= 57836
c69: -64 x_20_ - 18 y_20_ + [ 1 x_20_ ^ 2 + 1 y_20_ ^ 2 ] <= 72504
c70: -64 x_21_ - 18 y_21_ + [ 1 x_21_ ^ 2 + 1 y_21_ ^ 2 ] <= 51654
c71: -64 x_22_ - 18 y_22_ + [ 1 x_22_ ^ 2 + 1 y_22_ ^ 2 ] <= 102340
c72: -64 x_23_ - 18 y_23_ + [ 1 x_23_ ^ 2 + 1 y_23_ ^ 2 ] <= 59634
c73: -64 x_24_ - 18 y_24_ + [ 1 x_24_ ^ 2 + 1 y_24_ ^ 2 ] <= 7481
c74: -64 x_25_ - 18 y_25_ + [ 1 x_25_ ^ 2 + 1 y_25_ ^ 2 ] <= 21304
c75: -64 x_26_ - 18 y_26_ + [ 1 x_26_ ^ 2 + 1 y_26_ ^ 2 ] <= 14439
c1_2: 1 x_18_ = -64
c2_2: 1 y_18_ = -35
c3_2: 1 x_1_ = -3
c4_2: 1 y_1_ = 30
c5_2: 1 x_4_ = 32
c6_2: 1 y_4_ = 9
c1: [ 1 x_1_ ^ 2 - 2 x_2_ * x_1_ + 1 x_2_ ^ 2 + 1 y_1_ ^ 2 - 2 y_2_ * y_1_ + 1 y_2_ ^ 2 ] = 8578
c2: [ 1 x_2_ ^ 2 - 2 x_3_ * x_2_ + 1 x_3_ ^ 2 + 1 y_2_ ^ 2 - 2 y_3_ * y_2_ + 1 y_3_ ^ 2 ] = 241
c3: [ 1 x_3_ ^ 2 - 2 x_4_ * x_3_ + 1 x_4_ ^ 2 + 1 y_3_ ^ 2 - 2 y_4_ * y_3_ + 1 y_4_ ^ 2 ] = 3833
c4: [ 1 x_4_ ^ 2 - 2 x_5_ * x_4_ + 1 x_5_ ^ 2 + 1 y_4_ ^ 2 - 2 y_5_ * y_4_ + 1 y_5_ ^ 2 ] = 11621
c5: [ 1 x_5_ ^ 2 - 2 x_6_ * x_5_ + 1 x_6_ ^ 2 + 1 y_5_ ^ 2 - 2 y_6_ * y_5_ + 1 y_6_ ^ 2 ] = 17386
c6: [ 1 x_5_ ^ 2 - 2 x_7_ * x_5_ + 1 x_7_ ^ 2 + 1 y_5_ ^ 2 - 2 y_7_ * y_5_ + 1 y_7_ ^ 2 ] = 39701
c7: [ 1 x_6_ ^ 2 - 2 x_7_ * x_6_ + 1 x_7_ ^ 2 + 1 y_6_ ^ 2 - 2 y_7_ * y_6_ + 1 y_7_ ^ 2 ] = 18497
c8: [ 1 x_7_ ^ 2 - 2 x_8_ * x_7_ + 1 x_8_ ^ 2 + 1 y_7_ ^ 2 - 2 y_8_ * y_7_ + 1 y_8_ ^ 2 ] = 22018
c9: [ 1 x_8_ ^ 2 - 2 x_9_ * x_8_ + 1 x_9_ ^ 2 + 1 y_8_ ^ 2 - 2 y_9_ * y_8_ + 1 y_9_ ^ 2 ] = 10485
c10: [ 1 x_4_ ^ 2 - 2 x_10_ * x_4_ + 1 x_10_ ^ 2 + 1 y_4_ ^ 2 - 2 y_10_ * y_4_ + 1 y_10_ ^ 2 ] = 10418
c11: [ 1 x_9_ ^ 2 - 2 x_10_ * x_9_ + 1 x_10_ ^ 2 + 1 y_9_ ^ 2 - 2 y_10_ * y_9_ + 1 y_10_ ^ 2 ] = 23645
c12: [ 1 x_1_ ^ 2 - 2 x_11_ * x_1_ + 1 x_11_ ^ 2 + 1 y_1_ ^ 2 - 2 y_11_ * y_1_ + 1 y_11_ ^ 2 ] = 6037
c13: [ 1 x_10_ ^ 2 - 2 x_11_ * x_10_ + 1 x_11_ ^ 2 + 1 y_10_ ^ 2 - 2 y_11_ * y_10_ + 1 y_11_ ^ 2 ] = 4545
c14: [ 1 x_11_ ^ 2 - 2 x_12_ * x_11_ + 1 x_12_ ^ 2 + 1 y_11_ ^ 2 - 2 y_12_ * y_11_ + 1 y_12_ ^ 2 ] = 1828
c15: [ 1 x_11_ ^ 2 - 2 x_13_ * x_11_ + 1 x_13_ ^ 2 + 1 y_11_ ^ 2 - 2 y_13_ * y_11_ + 1 y_13_ ^ 2 ] = 1184
c16: [ 1 x_12_ ^ 2 - 2 x_13_ * x_12_ + 1 x_13_ ^ 2 + 1 y_12_ ^ 2 - 2 y_13_ * y_12_ + 1 y_13_ ^ 2 ] = 884
c17: [ 1 x_13_ ^ 2 - 2 x_14_ * x_13_ + 1 x_14_ ^ 2 + 1 y_13_ ^ 2 - 2 y_14_ * y_13_ + 1 y_14_ ^ 2 ] = 1517
c18: [ 1 x_14_ ^ 2 - 2 x_15_ * x_14_ + 1 x_15_ ^ 2 + 1 y_14_ ^ 2 - 2 y_15_ * y_14_ + 1 y_15_ ^ 2 ] = 1170
c19: [ 1 x_5_ ^ 2 - 2 x_16_ * x_5_ + 1 x_16_ ^ 2 + 1 y_5_ ^ 2 - 2 y_16_ * y_5_ + 1 y_16_ ^ 2 ] = 6253
c20: [ 1 x_10_ ^ 2 - 2 x_16_ * x_10_ + 1 x_16_ ^ 2 + 1 y_10_ ^ 2 - 2 y_16_ * y_10_ + 1 y_16_ ^ 2 ] = 31652
c21: [ 1 x_15_ ^ 2 - 2 x_16_ * x_15_ + 1 x_16_ ^ 2 + 1 y_15_ ^ 2 - 2 y_16_ * y_15_ + 1 y_16_ ^ 2 ] = 10064
c22: [ 1 x_7_ ^ 2 - 2 x_17_ * x_7_ + 1 x_17_ ^ 2 + 1 y_7_ ^ 2 - 2 y_17_ * y_7_ + 1 y_17_ ^ 2 ] = 7925
c23: [ 1 x_9_ ^ 2 - 2 x_17_ * x_9_ + 1 x_17_ ^ 2 + 1 y_9_ ^ 2 - 2 y_17_ * y_9_ + 1 y_17_ ^ 2 ] = 7880
c24: [ 1 x_16_ ^ 2 - 2 x_17_ * x_16_ + 1 x_17_ ^ 2 + 1 y_16_ ^ 2 - 2 y_17_ * y_16_ + 1 y_17_ ^ 2 ] = 8845
c25: [ 1 x_3_ ^ 2 - 2 x_18_ * x_3_ + 1 x_18_ ^ 2 + 1 y_3_ ^ 2 - 2 y_18_ * y_3_ + 1 y_18_ ^ 2 ] = 22345
c26: [ 1 x_17_ ^ 2 - 2 x_18_ * x_17_ + 1 x_18_ ^ 2 + 1 y_17_ ^ 2 - 2 y_18_ * y_17_ + 1 y_18_ ^ 2 ] = 9437
c27: [ 1 x_18_ ^ 2 - 2 x_19_ * x_18_ + 1 x_19_ ^ 2 + 1 y_18_ ^ 2 - 2 y_19_ * y_18_ + 1 y_19_ ^ 2 ] = 985
c28: [ 1 x_19_ ^ 2 - 2 x_20_ * x_19_ + 1 x_20_ ^ 2 + 1 y_19_ ^ 2 - 2 y_20_ * y_19_ + 1 y_20_ ^ 2 ] = 1609
c29: [ 1 x_11_ ^ 2 - 2 x_21_ * x_11_ + 1 x_21_ ^ 2 + 1 y_11_ ^ 2 - 2 y_21_ * y_11_ + 1 y_21_ ^ 2 ] = 3625
c30: [ 1 x_18_ ^ 2 - 2 x_21_ * x_18_ + 1 x_21_ ^ 2 + 1 y_18_ ^ 2 - 2 y_21_ * y_18_ + 1 y_21_ ^ 2 ] = 5840
c31: [ 1 x_20_ ^ 2 - 2 x_21_ * x_20_ + 1 x_21_ ^ 2 + 1 y_20_ ^ 2 - 2 y_21_ * y_20_ + 1 y_21_ ^ 2 ] = 1732
c32: [ 1 x_15_ ^ 2 - 2 x_22_ * x_15_ + 1 x_22_ ^ 2 + 1 y_15_ ^ 2 - 2 y_22_ * y_15_ + 1 y_22_ ^ 2 ] = 2770
c33: [ 1 x_21_ ^ 2 - 2 x_22_ * x_21_ + 1 x_22_ ^ 2 + 1 y_21_ ^ 2 - 2 y_22_ * y_21_ + 1 y_22_ ^ 2 ] = 8452
c34: [ 1 x_22_ ^ 2 - 2 x_23_ * x_22_ + 1 x_23_ ^ 2 + 1 y_22_ ^ 2 - 2 y_23_ * y_22_ + 1 y_23_ ^ 2 ] = 7154
c35: [ 1 x_4_ ^ 2 - 2 x_24_ * x_4_ + 1 x_24_ ^ 2 + 1 y_4_ ^ 2 - 2 y_24_ * y_4_ + 1 y_24_ ^ 2 ] = 8586
c36: [ 1 x_5_ ^ 2 - 2 x_24_ * x_5_ + 1 x_24_ ^ 2 + 1 y_5_ ^ 2 - 2 y_24_ * y_5_ + 1 y_24_ ^ 2 ] = 1937
c37: [ 1 x_23_ ^ 2 - 2 x_24_ * x_23_ + 1 x_24_ ^ 2 + 1 y_23_ ^ 2 - 2 y_24_ * y_23_ + 1 y_24_ ^ 2 ] = 23652
c38: [ 1 x_24_ ^ 2 - 2 x_25_ * x_24_ + 1 x_25_ ^ 2 + 1 y_24_ ^ 2 - 2 y_25_ * y_24_ + 1 y_25_ ^ 2 ] = 3253
c39: [ 1 x_1_ ^ 2 - 2 x_26_ * x_1_ + 1 x_26_ ^ 2 + 1 y_1_ ^ 2 - 2 y_26_ * y_1_ + 1 y_26_ ^ 2 ] = 3965
c40: [ 1 x_24_ ^ 2 - 2 x_26_ * x_24_ + 1 x_26_ ^ 2 + 1 y_24_ ^ 2 - 2 y_26_ * y_24_ + 1 y_26_ ^ 2 ] = 1025
c41: [ 1 x_25_ ^ 2 - 2 x_26_ * x_25_ + 1 x_26_ ^ 2 + 1 y_25_ ^ 2 - 2 y_26_ * y_25_ + 1 y_26_ ^ 2 ] = 7922
Bounds
x_1_ = -3
-45 <= x_2_ <= 89
-29 <= x_3_ <= 85
x_4_ = 32
-75 <= x_5_ <= 135
-207 <= x_6_ <= 258
-250 <= x_7_ <= 122
-326 <= x_8_ <= 224
-223 <= x_9_ <= 121
-70 <= x_10_ <= 134
-80 <= x_11_ <= 72
-123 <= x_12_ <= 115
-115 <= x_13_ <= 107
-154 <= x_14_ <= 145
-188 <= x_15_ <= 156
-154 <= x_16_ <= 127
-161 <= x_17_ <= 33
x_18_ = -64
-95 <= x_19_ <= -33
-135 <= x_20_ <= 7
-140 <= x_21_ <= 12
-232 <= x_22_ <= 104
-214 <= x_23_ <= 188
-60 <= x_24_ <= 91
-117 <= x_25_ <= 148
-65 <= x_26_ <= 59
y_1_ = 30
-62 <= y_2_ <= 86
-52 <= y_3_ <= 70
y_4_ = 9
-98 <= y_5_ <= 116
-230 <= y_6_ <= 248
-221 <= y_7_ <= 151
-323 <= y_8_ <= 253
-220 <= y_9_ <= 150
-93 <= y_10_ <= 111
-47 <= y_11_ <= 101
-90 <= y_12_ <= 144
-82 <= y_13_ <= 136
-121 <= y_14_ <= 174
-155 <= y_15_ <= 185
-177 <= y_16_ <= 156
-132 <= y_17_ <= 62
y_18_ = -35
-66 <= y_19_ <= -4
-106 <= y_20_ <= 36
-107 <= y_21_ <= 41
-199 <= y_22_ <= 133
-218 <= y_23_ <= 217
-64 <= y_24_ <= 101
-121 <= y_25_ <= 158
-32 <= y_26_ <= 92
General
x_1_
x_2_
x_3_
x_4_
x_5_
x_6_
x_7_
x_8_
x_9_
x_10_
x_11_
x_12_
x_13_
x_14_
x_15_
x_16_
x_17_
x_18_
x_19_
x_20_
x_21_
x_22_
x_23_
x_24_
x_25_
x_26_
y_1_
y_2_
y_3_
y_4_
y_5_
y_6_
y_7_
y_8_
y_9_
y_10_
y_11_
y_12_
y_13_
y_14_
y_15_
y_16_
y_17_
y_18_
y_19_
y_20_
y_21_
y_22_
y_23_
y_24_
y_25_
y_26_
End
