minimize
obj: 
subject to
c1: 120 x_1_ + 100 y_1_ + [ 1 x_1_ ^ 2 + 1 y_1_ ^ 2 ] <= 106424.51243002771
c2: 120 x_2_ + 100 y_2_ + [ 1 x_2_ ^ 2 + 1 y_2_ ^ 2 ] <= 112903.49349641579
c3: 120 x_3_ + 100 y_3_ + [ 1 x_3_ ^ 2 + 1 y_3_ ^ 2 ] <= 42810.57945259994
c4: 120 x_4_ + 100 y_4_ + [ 1 x_4_ ^ 2 + 1 y_4_ ^ 2 ] <= 116924.26514838431
c5: 120 x_5_ + 100 y_5_ + [ 1 x_5_ ^ 2 + 1 y_5_ ^ 2 ] <= 30174.13568417146
c6: 120 x_6_ + 100 y_6_ + [ 1 x_6_ ^ 2 + 1 y_6_ ^ 2 ] <= 33237.544309364326
c7: 120 x_7_ + 100 y_7_ + [ 1 x_7_ ^ 2 + 1 y_7_ ^ 2 ] <= 146654.3544547559
c8: 120 x_8_ + 100 y_8_ + [ 1 x_8_ ^ 2 + 1 y_8_ ^ 2 ] <= 57659.8030889042
c9: 120 x_9_ + 100 y_9_ + [ 1 x_9_ ^ 2 + 1 y_9_ ^ 2 ] <= 82464.39327846449
c10: 120 x_10_ + 100 y_10_ + [ 1 x_10_ ^ 2 + 1 y_10_ ^ 2 ] <= 14057.452302919748
c11: 120 x_11_ + 100 y_11_ + [ 1 x_11_ ^ 2 + 1 y_11_ ^ 2 ] <= 131887.36058790152
c12: 120 x_12_ + 100 y_12_ + [ 1 x_12_ ^ 2 + 1 y_12_ ^ 2 ] <= 68666.49415695952
c13: 120 x_13_ + 100 y_13_ + [ 1 x_13_ ^ 2 + 1 y_13_ ^ 2 ] <= 80945.7485617285
c14: 120 x_14_ + 100 y_14_ + [ 1 x_14_ ^ 2 + 1 y_14_ ^ 2 ] <= 158073.95757758414
c15: 120 x_15_ + 100 y_15_ + [ 1 x_15_ ^ 2 + 1 y_15_ ^ 2 ] <= 36886.12962727631
c16: 120 x_16_ + 100 y_16_ + [ 1 x_16_ ^ 2 + 1 y_16_ ^ 2 ] <= 82933.38478029174
c17: 120 x_17_ + 100 y_17_ + [ 1 x_17_ ^ 2 + 1 y_17_ ^ 2 ] <= 107955.98810510754
c18: 120 x_18_ + 100 y_18_ + [ 1 x_18_ ^ 2 + 1 y_18_ ^ 2 ] <= 74018.36143688392
c19: 120 x_19_ + 100 y_19_ + [ 1 x_19_ ^ 2 + 1 y_19_ ^ 2 ] <= 16383.609999999997
c20: 120 x_21_ + 100 y_21_ + [ 1 x_21_ ^ 2 + 1 y_21_ ^ 2 ] <= 18175.319815832732
c21: 120 x_22_ + 100 y_22_ + [ 1 x_22_ ^ 2 + 1 y_22_ ^ 2 ] <= -3150.8
c22: 120 x_23_ + 100 y_23_ + [ 1 x_23_ ^ 2 + 1 y_23_ ^ 2 ] <= 63861.3740897714
c23: 120 x_24_ + 100 y_24_ + [ 1 x_24_ ^ 2 + 1 y_24_ ^ 2 ] <= 31942.659999999996
c24: 120 x_25_ + 100 y_25_ + [ 1 x_25_ ^ 2 + 1 y_25_ ^ 2 ] <= 125561.52545104656
c25: 120 x_26_ + 100 y_26_ + [ 1 x_26_ ^ 2 + 1 y_26_ ^ 2 ] <= 136966.21518587793
c26: 120 x_27_ + 100 y_27_ + [ 1 x_27_ ^ 2 + 1 y_27_ ^ 2 ] <= 197253.70465746403
c27: 120 x_28_ + 100 y_28_ + [ 1 x_28_ ^ 2 + 1 y_28_ ^ 2 ] <= 373.08999999999924
c28: 170 x_1_ + 6 y_1_ + [ 1 x_1_ ^ 2 + 1 y_1_ ^ 2 ] <= 24021.48406585568
c29: 170 x_2_ + 6 y_2_ + [ 1 x_2_ ^ 2 + 1 y_2_ ^ 2 ] <= 4237.829403118718
c30: 170 x_3_ + 6 y_3_ + [ 1 x_3_ ^ 2 + 1 y_3_ ^ 2 ] <= 55111.006907531235
c31: 170 x_4_ + 6 y_4_ + [ 1 x_4_ ^ 2 + 1 y_4_ ^ 2 ] <= 5509.237070585816
c32: 170 x_5_ + 6 y_5_ + [ 1 x_5_ ^ 2 + 1 y_5_ ^ 2 ] <= 27214.158842656427
c33: 170 x_6_ + 6 y_6_ + [ 1 x_6_ ^ 2 + 1 y_6_ ^ 2 ] <= 88846.52977305482
c34: 170 x_7_ + 6 y_7_ + [ 1 x_7_ ^ 2 + 1 y_7_ ^ 2 ] <= 30883.54909164642
c35: 170 x_8_ + 6 y_8_ + [ 1 x_8_ ^ 2 + 1 y_8_ ^ 2 ] <= 54097.25913816211
c36: 170 x_9_ + 6 y_9_ + [ 1 x_9_ ^ 2 + 1 y_9_ ^ 2 ] <= -3665.670000000001
c37: 170 x_10_ + 6 y_10_ + [ 1 x_10_ ^ 2 + 1 y_10_ ^ 2 ] <= 126962.64198078777
c38: 170 x_11_ + 6 y_11_ + [ 1 x_11_ ^ 2 + 1 y_11_ ^ 2 ] <= 10616.108052473493
c39: 170 x_12_ + 6 y_12_ + [ 1 x_12_ ^ 2 + 1 y_12_ ^ 2 ] <= 64900.720357891114
c40: 170 x_14_ + 6 y_14_ + [ 1 x_14_ ^ 2 + 1 y_14_ ^ 2 ] <= 73877.41532387836
c41: 170 x_15_ + 6 y_15_ + [ 1 x_15_ ^ 2 + 1 y_15_ ^ 2 ] <= 26654.529999999984
c42: 170 x_16_ + 6 y_16_ + [ 1 x_16_ ^ 2 + 1 y_16_ ^ 2 ] <= 30360.08230774264
c43: 170 x_17_ + 6 y_17_ + [ 1 x_17_ ^ 2 + 1 y_17_ ^ 2 ] <= 2737.9313147780867
c44: 170 x_18_ + 6 y_18_ + [ 1 x_18_ ^ 2 + 1 y_18_ ^ 2 ] <= 51796.37838214604
c45: 170 x_19_ + 6 y_19_ + [ 1 x_19_ ^ 2 + 1 y_19_ ^ 2 ] <= 13817.052456334171
c46: 170 x_20_ + 6 y_20_ + [ 1 x_20_ ^ 2 + 1 y_20_ ^ 2 ] <= 79811.7485617285
c47: 170 x_21_ + 6 y_21_ + [ 1 x_21_ ^ 2 + 1 y_21_ ^ 2 ] <= 12150.929999999997
c48: 170 x_22_ + 6 y_22_ + [ 1 x_22_ ^ 2 + 1 y_22_ ^ 2 ] <= 114805.62497814745
c49: 170 x_23_ + 6 y_23_ + [ 1 x_23_ ^ 2 + 1 y_23_ ^ 2 ] <= 54233.553466342055
c50: 170 x_24_ + 6 y_24_ + [ 1 x_24_ ^ 2 + 1 y_24_ ^ 2 ] <= 77907.7953477367
c51: 170 x_25_ + 6 y_25_ + [ 1 x_25_ ^ 2 + 1 y_25_ ^ 2 ] <= 31333.249375931526
c52: 170 x_26_ + 6 y_26_ + [ 1 x_26_ ^ 2 + 1 y_26_ ^ 2 ] <= 151582.7379300074
c53: 170 x_27_ + 6 y_27_ + [ 1 x_27_ ^ 2 + 1 y_27_ ^ 2 ] <= 48712.87653426287
c54: 170 x_28_ + 6 y_28_ + [ 1 x_28_ ^ 2 + 1 y_28_ ^ 2 ] <= 89464.50123839735
c55: 16 x_1_ + 108 y_1_ + [ 1 x_1_ ^ 2 + 1 y_1_ ^ 2 ] <= 55445.208774137
c56: 16 x_2_ + 108 y_2_ + [ 1 x_2_ ^ 2 + 1 y_2_ ^ 2 ] <= 33833.560237549296
c57: 16 x_3_ + 108 y_3_ + [ 1 x_3_ ^ 2 + 1 y_3_ ^ 2 ] <= 49823.5358047451
c58: 16 x_4_ + 108 y_4_ + [ 1 x_4_ ^ 2 + 1 y_4_ ^ 2 ] <= 12308.079522431704
c59: 16 x_5_ + 108 y_5_ + [ 1 x_5_ ^ 2 + 1 y_5_ ^ 2 ] <= 130201.06059387425
c60: 16 x_6_ + 108 y_6_ + [ 1 x_6_ ^ 2 + 1 y_6_ ^ 2 ] <= 99886.2070921287
c61: 16 x_7_ + 108 y_7_ + [ 1 x_7_ ^ 2 + 1 y_7_ ^ 2 ] <= 24099.82540654648
c62: 16 x_8_ + 108 y_8_ + [ 1 x_8_ ^ 2 + 1 y_8_ ^ 2 ] <= 88762.6361256012
c63: 16 x_9_ + 108 y_9_ + [ 1 x_9_ ^ 2 + 1 y_9_ ^ 2 ] <= 28276.620727927402
c64: 16 x_10_ + 108 y_10_ + [ 1 x_10_ ^ 2 + 1 y_10_ ^ 2 ] <= 138454.04364049414
c65: 16 x_11_ + 108 y_11_ + [ 1 x_11_ ^ 2 + 1 y_11_ ^ 2 ] <= 7613.889999999998
c66: 16 x_12_ + 108 y_12_ + [ 1 x_12_ ^ 2 + 1 y_12_ ^ 2 ] <= 90669.51584054723
c67: 16 x_13_ + 108 y_13_ + [ 1 x_13_ ^ 2 + 1 y_13_ ^ 2 ] <= 52966.87653426288
c68: 16 x_14_ + 108 y_14_ + [ 1 x_14_ ^ 2 + 1 y_14_ ^ 2 ] <= 61598.49238949927
c69: 16 x_15_ + 108 y_15_ + [ 1 x_15_ ^ 2 + 1 y_15_ ^ 2 ] <= 134067.4463180408
c70: 16 x_16_ + 108 y_16_ + [ 1 x_16_ ^ 2 + 1 y_16_ ^ 2 ] <= 38902.0158945891
c71: 16 x_17_ + 108 y_17_ + [ 1 x_17_ ^ 2 + 1 y_17_ ^ 2 ] <= 31105.11049037396
c72: 16 x_18_ + 108 y_18_ + [ 1 x_18_ ^ 2 + 1 y_18_ ^ 2 ] <= 25208.96356481465
c73: 16 x_19_ + 108 y_19_ + [ 1 x_19_ ^ 2 + 1 y_19_ ^ 2 ] <= 102286.35389390391
c74: 16 x_20_ + 108 y_20_ + [ 1 x_20_ ^ 2 + 1 y_20_ ^ 2 ] <= 200373.70465746397
c75: 16 x_21_ + 108 y_21_ + [ 1 x_21_ ^ 2 + 1 y_21_ ^ 2 ] <= 98518.14391121245
c76: 16 x_22_ + 108 y_22_ + [ 1 x_22_ ^ 2 + 1 y_22_ ^ 2 ] <= 212081.82098722836
c77: 16 x_23_ + 108 y_23_ + [ 1 x_23_ ^ 2 + 1 y_23_ ^ 2 ] <= 179592.01620232832
c78: 16 x_24_ + 108 y_24_ + [ 1 x_24_ ^ 2 + 1 y_24_ ^ 2 ] <= 88556.31912541021
c79: 16 x_25_ + 108 y_25_ + [ 1 x_25_ ^ 2 + 1 y_25_ ^ 2 ] <= 4780.839999999999
c80: 16 x_26_ + 108 y_26_ + [ 1 x_26_ ^ 2 + 1 y_26_ ^ 2 ] <= 187082.1548530837
c81: 16 x_28_ + 108 y_28_ + [ 1 x_28_ ^ 2 + 1 y_28_ ^ 2 ] <= 134284.3572099475
quadratic_ranged_1_ub: [ 1 x_1_ ^ 2 - 2 x_2_ * x_1_ + 1 x_2_ ^ 2 + 1 y_1_ ^ 2 - 2 y_2_ * y_1_ + 1 y_2_ ^ 2 ] <= 4856.08
quadratic_ranged_2_ub: [ 1 x_2_ ^ 2 - 2 x_4_ * x_2_ + 1 x_4_ ^ 2 + 1 y_2_ ^ 2 - 2 y_4_ * y_2_ + 1 y_4_ ^ 2 ] <= 6800.33
quadratic_ranged_3_ub: [ 1 x_3_ ^ 2 - 2 x_4_ * x_3_ + 1 x_4_ ^ 2 + 1 y_3_ ^ 2 - 2 y_4_ * y_3_ + 1 y_4_ ^ 2 ] <= 18715.3
quadratic_ranged_4_ub: [ 1 x_3_ ^ 2 - 2 x_6_ * x_3_ + 1 x_6_ ^ 2 + 1 y_3_ ^ 2 - 2 y_6_ * y_3_ + 1 y_6_ ^ 2 ] <= 39237.49
quadratic_ranged_5_ub: [ 1 x_4_ ^ 2 - 2 x_6_ * x_4_ + 1 x_6_ ^ 2 + 1 y_4_ ^ 2 - 2 y_6_ * y_4_ + 1 y_6_ ^ 2 ] <= 38841.57
quadratic_ranged_6_ub: [ 1 x_5_ ^ 2 - 2 x_6_ * x_5_ + 1 x_6_ ^ 2 + 1 y_5_ ^ 2 - 2 y_6_ * y_5_ + 1 y_6_ ^ 2 ] <= 20366.65
quadratic_ranged_7_ub: [ 1 x_1_ ^ 2 - 2 x_7_ * x_1_ + 1 x_7_ ^ 2 + 1 y_1_ ^ 2 - 2 y_7_ * y_1_ + 1 y_7_ ^ 2 ] <= 15033.85
quadratic_ranged_8_ub: [ 1 x_2_ ^ 2 - 2 x_7_ * x_2_ + 1 x_7_ ^ 2 + 1 y_2_ ^ 2 - 2 y_7_ * y_2_ + 1 y_7_ ^ 2 ] <= 23174.45
quadratic_ranged_9_ub: [ 1 x_5_ ^ 2 - 2 x_8_ * x_5_ + 1 x_8_ ^ 2 + 1 y_5_ ^ 2 - 2 y_8_ * y_5_ + 1 y_8_ ^ 2 ] <= 3850.12
quadratic_ranged_10_ub: [ 1 x_7_ ^ 2 - 2 x_8_ * x_7_ + 1 x_8_ ^ 2 + 1 y_7_ ^ 2 - 2 y_8_ * y_7_ + 1 y_8_ ^ 2 ] <= 19135.46
quadratic_ranged_11_ub: [ 1 x_4_ ^ 2 - 2 x_9_ * x_4_ + 1 x_9_ ^ 2 + 1 y_4_ ^ 2 - 2 y_9_ * y_4_ + 1 y_9_ ^ 2 ] <= 2824.97
quadratic_ranged_12_ub: [ 1 x_3_ ^ 2 - 2 x_10_ * x_3_ + 1 x_10_ ^ 2 + 1 y_3_ ^ 2 - 2 y_10_ * y_3_ + 1 y_10_ ^ 2 ] <= 21399.88
quadratic_ranged_13_ub: [ 1 x_6_ ^ 2 - 2 x_10_ * x_6_ + 1 x_10_ ^ 2 + 1 y_6_ ^ 2 - 2 y_10_ * y_6_ + 1 y_10_ ^ 2 ] <= 3176.45
quadratic_ranged_14_ub: [ 1 x_3_ ^ 2 - 2 x_11_ * x_3_ + 1 x_11_ ^ 2 + 1 y_3_ ^ 2 - 2 y_11_ * y_3_ + 1 y_11_ ^ 2 ] <= 24810.65
quadratic_ranged_15_ub: [ 1 x_4_ ^ 2 - 2 x_11_ * x_4_ + 1 x_11_ ^ 2 + 1 y_4_ ^ 2 - 2 y_11_ * y_4_ + 1 y_11_ ^ 2 ] <= 429.25
quadratic_ranged_16_ub: [ 1 x_7_ ^ 2 - 2 x_11_ * x_7_ + 1 x_11_ ^ 2 + 1 y_7_ ^ 2 - 2 y_11_ * y_7_ + 1 y_11_ ^ 2 ] <= 3798.61
quadratic_ranged_17_ub: [ 1 x_5_ ^ 2 - 2 x_12_ * x_5_ + 1 x_12_ ^ 2 + 1 y_5_ ^ 2 - 2 y_12_ * y_5_ + 1 y_12_ ^ 2 ] <= 6885.17
quadratic_ranged_18_ub: [ 1 x_9_ ^ 2 - 2 x_13_ * x_9_ + 1 x_13_ ^ 2 + 1 y_9_ ^ 2 - 2 y_13_ * y_9_ + 1 y_13_ ^ 2 ] <= 3568.33
quadratic_ranged_19_ub: [ 1 x_11_ ^ 2 - 2 x_14_ * x_11_ + 1 x_14_ ^ 2 + 1 y_11_ ^ 2 - 2 y_14_ * y_11_ + 1 y_14_ ^ 2 ] <= 22860.34
quadratic_ranged_20_ub: [ 1 x_12_ ^ 2 - 2 x_14_ * x_12_ + 1 x_14_ ^ 2 + 1 y_12_ ^ 2 - 2 y_14_ * y_12_ + 1 y_14_ ^ 2 ] <= 17357.86
quadratic_ranged_21_ub: [ 1 x_7_ ^ 2 - 2 x_15_ * x_7_ + 1 x_15_ ^ 2 + 1 y_7_ ^ 2 - 2 y_15_ * y_7_ + 1 y_15_ ^ 2 ] <= 42287.69
quadratic_ranged_22_ub: [ 1 x_8_ ^ 2 - 2 x_15_ * x_8_ + 1 x_15_ ^ 2 + 1 y_8_ ^ 2 - 2 y_15_ * y_8_ + 1 y_15_ ^ 2 ] <= 4590.45
quadratic_ranged_23_ub: [ 1 x_13_ ^ 2 - 2 x_15_ * x_13_ + 1 x_15_ ^ 2 + 1 y_13_ ^ 2 - 2 y_15_ * y_13_ + 1 y_15_ ^ 2 ] <= 33888.53
quadratic_ranged_24_ub: [ 1 x_1_ ^ 2 - 2 x_16_ * x_1_ + 1 x_16_ ^ 2 + 1 y_1_ ^ 2 - 2 y_16_ * y_1_ + 1 y_16_ ^ 2 ] <= 1373.6
quadratic_ranged_25_ub: [ 1 x_3_ ^ 2 - 2 x_16_ * x_3_ + 1 x_16_ ^ 2 + 1 y_3_ ^ 2 - 2 y_16_ * y_3_ + 1 y_16_ ^ 2 ] <= 5964.05
quadratic_ranged_26_ub: [ 1 x_4_ ^ 2 - 2 x_16_ * x_4_ + 1 x_16_ ^ 2 + 1 y_4_ ^ 2 - 2 y_16_ * y_4_ + 1 y_16_ ^ 2 ] <= 6561.97
quadratic_ranged_27_ub: [ 1 x_2_ ^ 2 - 2 x_17_ * x_2_ + 1 x_17_ ^ 2 + 1 y_2_ ^ 2 - 2 y_17_ * y_2_ + 1 y_17_ ^ 2 ] <= 52.52
quadratic_ranged_28_ub: [ 1 x_6_ ^ 2 - 2 x_17_ * x_6_ + 1 x_17_ ^ 2 + 1 y_6_ ^ 2 - 2 y_17_ * y_6_ + 1 y_17_ ^ 2 ] <= 63383.56
quadratic_ranged_29_ub: [ 1 x_9_ ^ 2 - 2 x_17_ * x_9_ + 1 x_17_ ^ 2 + 1 y_9_ ^ 2 - 2 y_17_ * y_9_ + 1 y_17_ ^ 2 ] <= 1609.94
quadratic_ranged_30_ub: [ 1 x_3_ ^ 2 - 2 x_18_ * x_3_ + 1 x_18_ ^ 2 + 1 y_3_ ^ 2 - 2 y_18_ * y_3_ + 1 y_18_ ^ 2 ] <= 3830.93
quadratic_ranged_31_ub: [ 1 x_12_ ^ 2 - 2 x_18_ * x_12_ + 1 x_18_ ^ 2 + 1 y_12_ ^ 2 - 2 y_18_ * y_12_ + 1 y_18_ ^ 2 ] <= 19078.9
quadratic_ranged_32_ub: [ 1 x_16_ ^ 2 - 2 x_18_ * x_16_ + 1 x_18_ ^ 2 + 1 y_16_ ^ 2 - 2 y_18_ * y_16_ + 1 y_18_ ^ 2 ] <= 2407.84
quadratic_ranged_33_ub: [ 1 x_5_ ^ 2 - 2 x_19_ * x_5_ + 1 x_19_ ^ 2 + 1 y_5_ ^ 2 - 2 y_19_ * y_5_ + 1 y_19_ ^ 2 ] <= 1641.25
quadratic_ranged_34_ub: [ 1 x_19_ ^ 2 - 2 x_20_ * x_19_ + 1 x_20_ ^ 2 + 1 y_19_ ^ 2 - 2 y_20_ * y_19_ + 1 y_20_ ^ 2 ] <= 22483.61
quadratic_ranged_35_ub: [ 1 x_9_ ^ 2 - 2 x_21_ * x_9_ + 1 x_21_ ^ 2 + 1 y_9_ ^ 2 - 2 y_21_ * y_9_ + 1 y_21_ ^ 2 ] <= 20105.06
quadratic_ranged_36_ub: [ 1 x_13_ ^ 2 - 2 x_21_ * x_13_ + 1 x_21_ ^ 2 + 1 y_13_ ^ 2 - 2 y_21_ * y_13_ + 1 y_21_ ^ 2 ] <= 19384.93
quadratic_ranged_37_ub: [ 1 x_19_ ^ 2 - 2 x_21_ * x_19_ + 1 x_21_ ^ 2 + 1 y_19_ ^ 2 - 2 y_21_ * y_19_ + 1 y_21_ ^ 2 ] <= 34.34
quadratic_ranged_38_ub: [ 1 x_10_ ^ 2 - 2 x_22_ * x_10_ + 1 x_22_ ^ 2 + 1 y_10_ ^ 2 - 2 y_22_ * y_10_ + 1 y_22_ ^ 2 ] <= 7686.1
quadratic_ranged_39_ub: [ 1 x_20_ ^ 2 - 2 x_22_ * x_20_ + 1 x_22_ ^ 2 + 1 y_20_ ^ 2 - 2 y_22_ * y_20_ + 1 y_22_ ^ 2 ] <= 2949.2
quadratic_ranged_40_ub: [ 1 x_15_ ^ 2 - 2 x_23_ * x_15_ + 1 x_23_ ^ 2 + 1 y_15_ ^ 2 - 2 y_23_ * y_15_ + 1 y_23_ ^ 2 ] <= 22359.38
quadratic_ranged_41_ub: [ 1 x_21_ ^ 2 - 2 x_23_ * x_21_ + 1 x_23_ ^ 2 + 1 y_21_ ^ 2 - 2 y_23_ * y_21_ + 1 y_23_ ^ 2 ] <= 11814.98
quadratic_ranged_42_ub: [ 1 x_4_ ^ 2 - 2 x_24_ * x_4_ + 1 x_24_ ^ 2 + 1 y_4_ ^ 2 - 2 y_24_ * y_4_ + 1 y_24_ ^ 2 ] <= 32006.9
quadratic_ranged_43_ub: [ 1 x_8_ ^ 2 - 2 x_24_ * x_8_ + 1 x_24_ ^ 2 + 1 y_8_ ^ 2 - 2 y_24_ * y_8_ + 1 y_24_ ^ 2 ] <= 6627.62
quadratic_ranged_44_ub: [ 1 x_20_ ^ 2 - 2 x_24_ * x_20_ + 1 x_24_ ^ 2 + 1 y_20_ ^ 2 - 2 y_24_ * y_20_ + 1 y_24_ ^ 2 ] <= 38042.66
quadratic_ranged_45_ub: [ 1 x_17_ ^ 2 - 2 x_25_ * x_17_ + 1 x_25_ ^ 2 + 1 y_17_ ^ 2 - 2 y_25_ * y_17_ + 1 y_25_ ^ 2 ] <= 9317.25
quadratic_ranged_46_ub: [ 1 x_18_ ^ 2 - 2 x_25_ * x_18_ + 1 x_25_ ^ 2 + 1 y_18_ ^ 2 - 2 y_25_ * y_18_ + 1 y_25_ ^ 2 ] <= 6368.05
quadratic_ranged_47_ub: [ 1 x_6_ ^ 2 - 2 x_26_ * x_6_ + 1 x_26_ ^ 2 + 1 y_6_ ^ 2 - 2 y_26_ * y_6_ + 1 y_26_ ^ 2 ] <= 32365.45
quadratic_ranged_48_ub: [ 1 x_12_ ^ 2 - 2 x_26_ * x_12_ + 1 x_26_ ^ 2 + 1 y_12_ ^ 2 - 2 y_26_ * y_12_ + 1 y_26_ ^ 2 ] <= 16884.170000000002
quadratic_ranged_49_ub: [ 1 x_11_ ^ 2 - 2 x_27_ * x_11_ + 1 x_27_ ^ 2 + 1 y_11_ ^ 2 - 2 y_27_ * y_11_ + 1 y_27_ ^ 2 ] <= 10593.89
quadratic_ranged_50_ub: [ 1 x_25_ ^ 2 - 2 x_27_ * x_25_ + 1 x_27_ ^ 2 + 1 y_25_ ^ 2 - 2 y_27_ * y_25_ + 1 y_27_ ^ 2 ] <= 7760.84
quadratic_ranged_51_ub: [ 1 x_3_ ^ 2 - 2 x_28_ * x_3_ + 1 x_28_ ^ 2 + 1 y_3_ ^ 2 - 2 y_28_ * y_3_ + 1 y_28_ ^ 2 ] <= 19797.01
quadratic_ranged_52_ub: [ 1 x_15_ ^ 2 - 2 x_28_ * x_15_ + 1 x_28_ ^ 2 + 1 y_15_ ^ 2 - 2 y_28_ * y_15_ + 1 y_28_ ^ 2 ] <= 16097.380000000001
quadratic_ranged_53_ub: [ 1 x_20_ ^ 2 - 2 x_28_ * x_20_ + 1 x_28_ ^ 2 + 1 y_20_ ^ 2 - 2 y_28_ * y_20_ + 1 y_28_ ^ 2 ] <= 6473.09
quadratic_ranged_1_lb: [ 1 x_1_ ^ 2 - 2 x_2_ * x_1_ + 1 x_2_ ^ 2 + 1 y_1_ ^ 2 - 2 y_2_ * y_1_ + 1 y_2_ ^ 2 ] >= 4759.92
quadratic_ranged_2_lb: [ 1 x_2_ ^ 2 - 2 x_4_ * x_2_ + 1 x_4_ ^ 2 + 1 y_2_ ^ 2 - 2 y_4_ * y_2_ + 1 y_4_ ^ 2 ] >= 6665.67
quadratic_ranged_3_lb: [ 1 x_3_ ^ 2 - 2 x_4_ * x_3_ + 1 x_4_ ^ 2 + 1 y_3_ ^ 2 - 2 y_4_ * y_3_ + 1 y_4_ ^ 2 ] >= 18344.7
quadratic_ranged_4_lb: [ 1 x_3_ ^ 2 - 2 x_6_ * x_3_ + 1 x_6_ ^ 2 + 1 y_3_ ^ 2 - 2 y_6_ * y_3_ + 1 y_6_ ^ 2 ] >= 38460.51
quadratic_ranged_5_lb: [ 1 x_4_ ^ 2 - 2 x_6_ * x_4_ + 1 x_6_ ^ 2 + 1 y_4_ ^ 2 - 2 y_6_ * y_4_ + 1 y_6_ ^ 2 ] >= 38072.43
quadratic_ranged_6_lb: [ 1 x_5_ ^ 2 - 2 x_6_ * x_5_ + 1 x_6_ ^ 2 + 1 y_5_ ^ 2 - 2 y_6_ * y_5_ + 1 y_6_ ^ 2 ] >= 19963.35
quadratic_ranged_7_lb: [ 1 x_1_ ^ 2 - 2 x_7_ * x_1_ + 1 x_7_ ^ 2 + 1 y_1_ ^ 2 - 2 y_7_ * y_1_ + 1 y_7_ ^ 2 ] >= 14736.15
quadratic_ranged_8_lb: [ 1 x_2_ ^ 2 - 2 x_7_ * x_2_ + 1 x_7_ ^ 2 + 1 y_2_ ^ 2 - 2 y_7_ * y_2_ + 1 y_7_ ^ 2 ] >= 22715.55
quadratic_ranged_9_lb: [ 1 x_5_ ^ 2 - 2 x_8_ * x_5_ + 1 x_8_ ^ 2 + 1 y_5_ ^ 2 - 2 y_8_ * y_5_ + 1 y_8_ ^ 2 ] >= 3773.88
quadratic_ranged_10_lb: [ 1 x_7_ ^ 2 - 2 x_8_ * x_7_ + 1 x_8_ ^ 2 + 1 y_7_ ^ 2 - 2 y_8_ * y_7_ + 1 y_8_ ^ 2 ] >= 18756.54
quadratic_ranged_11_lb: [ 1 x_4_ ^ 2 - 2 x_9_ * x_4_ + 1 x_9_ ^ 2 + 1 y_4_ ^ 2 - 2 y_9_ * y_4_ + 1 y_9_ ^ 2 ] >= 2769.03
quadratic_ranged_12_lb: [ 1 x_3_ ^ 2 - 2 x_10_ * x_3_ + 1 x_10_ ^ 2 + 1 y_3_ ^ 2 - 2 y_10_ * y_3_ + 1 y_10_ ^ 2 ] >= 20976.12
quadratic_ranged_13_lb: [ 1 x_6_ ^ 2 - 2 x_10_ * x_6_ + 1 x_10_ ^ 2 + 1 y_6_ ^ 2 - 2 y_10_ * y_6_ + 1 y_10_ ^ 2 ] >= 3113.55
quadratic_ranged_14_lb: [ 1 x_3_ ^ 2 - 2 x_11_ * x_3_ + 1 x_11_ ^ 2 + 1 y_3_ ^ 2 - 2 y_11_ * y_3_ + 1 y_11_ ^ 2 ] >= 24319.35
quadratic_ranged_15_lb: [ 1 x_4_ ^ 2 - 2 x_11_ * x_4_ + 1 x_11_ ^ 2 + 1 y_4_ ^ 2 - 2 y_11_ * y_4_ + 1 y_11_ ^ 2 ] >= 420.75
quadratic_ranged_16_lb: [ 1 x_7_ ^ 2 - 2 x_11_ * x_7_ + 1 x_11_ ^ 2 + 1 y_7_ ^ 2 - 2 y_11_ * y_7_ + 1 y_11_ ^ 2 ] >= 3723.39
quadratic_ranged_17_lb: [ 1 x_5_ ^ 2 - 2 x_12_ * x_5_ + 1 x_12_ ^ 2 + 1 y_5_ ^ 2 - 2 y_12_ * y_5_ + 1 y_12_ ^ 2 ] >= 6748.83
quadratic_ranged_18_lb: [ 1 x_9_ ^ 2 - 2 x_13_ * x_9_ + 1 x_13_ ^ 2 + 1 y_9_ ^ 2 - 2 y_13_ * y_9_ + 1 y_13_ ^ 2 ] >= 3497.67
quadratic_ranged_19_lb: [ 1 x_11_ ^ 2 - 2 x_14_ * x_11_ + 1 x_14_ ^ 2 + 1 y_11_ ^ 2 - 2 y_14_ * y_11_ + 1 y_14_ ^ 2 ] >= 22407.66
quadratic_ranged_20_lb: [ 1 x_12_ ^ 2 - 2 x_14_ * x_12_ + 1 x_14_ ^ 2 + 1 y_12_ ^ 2 - 2 y_14_ * y_12_ + 1 y_14_ ^ 2 ] >= 17014.14
quadratic_ranged_21_lb: [ 1 x_7_ ^ 2 - 2 x_15_ * x_7_ + 1 x_15_ ^ 2 + 1 y_7_ ^ 2 - 2 y_15_ * y_7_ + 1 y_15_ ^ 2 ] >= 41450.31
quadratic_ranged_22_lb: [ 1 x_8_ ^ 2 - 2 x_15_ * x_8_ + 1 x_15_ ^ 2 + 1 y_8_ ^ 2 - 2 y_15_ * y_8_ + 1 y_15_ ^ 2 ] >= 4499.55
quadratic_ranged_23_lb: [ 1 x_13_ ^ 2 - 2 x_15_ * x_13_ + 1 x_15_ ^ 2 + 1 y_13_ ^ 2 - 2 y_15_ * y_13_ + 1 y_15_ ^ 2 ] >= 33217.47
quadratic_ranged_24_lb: [ 1 x_1_ ^ 2 - 2 x_16_ * x_1_ + 1 x_16_ ^ 2 + 1 y_1_ ^ 2 - 2 y_16_ * y_1_ + 1 y_16_ ^ 2 ] >= 1346.4
quadratic_ranged_25_lb: [ 1 x_3_ ^ 2 - 2 x_16_ * x_3_ + 1 x_16_ ^ 2 + 1 y_3_ ^ 2 - 2 y_16_ * y_3_ + 1 y_16_ ^ 2 ] >= 5845.95
quadratic_ranged_26_lb: [ 1 x_4_ ^ 2 - 2 x_16_ * x_4_ + 1 x_16_ ^ 2 + 1 y_4_ ^ 2 - 2 y_16_ * y_4_ + 1 y_16_ ^ 2 ] >= 6432.03
quadratic_ranged_27_lb: [ 1 x_2_ ^ 2 - 2 x_17_ * x_2_ + 1 x_17_ ^ 2 + 1 y_2_ ^ 2 - 2 y_17_ * y_2_ + 1 y_17_ ^ 2 ] >= 51.48
quadratic_ranged_28_lb: [ 1 x_6_ ^ 2 - 2 x_17_ * x_6_ + 1 x_17_ ^ 2 + 1 y_6_ ^ 2 - 2 y_17_ * y_6_ + 1 y_17_ ^ 2 ] >= 62128.44
quadratic_ranged_29_lb: [ 1 x_9_ ^ 2 - 2 x_17_ * x_9_ + 1 x_17_ ^ 2 + 1 y_9_ ^ 2 - 2 y_17_ * y_9_ + 1 y_17_ ^ 2 ] >= 1578.06
quadratic_ranged_30_lb: [ 1 x_3_ ^ 2 - 2 x_18_ * x_3_ + 1 x_18_ ^ 2 + 1 y_3_ ^ 2 - 2 y_18_ * y_3_ + 1 y_18_ ^ 2 ] >= 3755.07
quadratic_ranged_31_lb: [ 1 x_12_ ^ 2 - 2 x_18_ * x_12_ + 1 x_18_ ^ 2 + 1 y_12_ ^ 2 - 2 y_18_ * y_12_ + 1 y_18_ ^ 2 ] >= 18701.1
quadratic_ranged_32_lb: [ 1 x_16_ ^ 2 - 2 x_18_ * x_16_ + 1 x_18_ ^ 2 + 1 y_16_ ^ 2 - 2 y_18_ * y_16_ + 1 y_18_ ^ 2 ] >= 2360.16
quadratic_ranged_33_lb: [ 1 x_5_ ^ 2 - 2 x_19_ * x_5_ + 1 x_19_ ^ 2 + 1 y_5_ ^ 2 - 2 y_19_ * y_5_ + 1 y_19_ ^ 2 ] >= 1608.75
quadratic_ranged_34_lb: [ 1 x_19_ ^ 2 - 2 x_20_ * x_19_ + 1 x_20_ ^ 2 + 1 y_19_ ^ 2 - 2 y_20_ * y_19_ + 1 y_20_ ^ 2 ] >= 22038.39
quadratic_ranged_35_lb: [ 1 x_9_ ^ 2 - 2 x_21_ * x_9_ + 1 x_21_ ^ 2 + 1 y_9_ ^ 2 - 2 y_21_ * y_9_ + 1 y_21_ ^ 2 ] >= 19706.94
quadratic_ranged_36_lb: [ 1 x_13_ ^ 2 - 2 x_21_ * x_13_ + 1 x_21_ ^ 2 + 1 y_13_ ^ 2 - 2 y_21_ * y_13_ + 1 y_21_ ^ 2 ] >= 19001.07
quadratic_ranged_37_lb: [ 1 x_19_ ^ 2 - 2 x_21_ * x_19_ + 1 x_21_ ^ 2 + 1 y_19_ ^ 2 - 2 y_21_ * y_19_ + 1 y_21_ ^ 2 ] >= 33.66
quadratic_ranged_38_lb: [ 1 x_10_ ^ 2 - 2 x_22_ * x_10_ + 1 x_22_ ^ 2 + 1 y_10_ ^ 2 - 2 y_22_ * y_10_ + 1 y_22_ ^ 2 ] >= 7533.9
quadratic_ranged_39_lb: [ 1 x_20_ ^ 2 - 2 x_22_ * x_20_ + 1 x_22_ ^ 2 + 1 y_20_ ^ 2 - 2 y_22_ * y_20_ + 1 y_22_ ^ 2 ] >= 2890.8
quadratic_ranged_40_lb: [ 1 x_15_ ^ 2 - 2 x_23_ * x_15_ + 1 x_23_ ^ 2 + 1 y_15_ ^ 2 - 2 y_23_ * y_15_ + 1 y_23_ ^ 2 ] >= 21916.62
quadratic_ranged_41_lb: [ 1 x_21_ ^ 2 - 2 x_23_ * x_21_ + 1 x_23_ ^ 2 + 1 y_21_ ^ 2 - 2 y_23_ * y_21_ + 1 y_23_ ^ 2 ] >= 11581.02
quadratic_ranged_42_lb: [ 1 x_4_ ^ 2 - 2 x_24_ * x_4_ + 1 x_24_ ^ 2 + 1 y_4_ ^ 2 - 2 y_24_ * y_4_ + 1 y_24_ ^ 2 ] >= 31373.1
quadratic_ranged_43_lb: [ 1 x_8_ ^ 2 - 2 x_24_ * x_8_ + 1 x_24_ ^ 2 + 1 y_8_ ^ 2 - 2 y_24_ * y_8_ + 1 y_24_ ^ 2 ] >= 6496.38
quadratic_ranged_44_lb: [ 1 x_20_ ^ 2 - 2 x_24_ * x_20_ + 1 x_24_ ^ 2 + 1 y_20_ ^ 2 - 2 y_24_ * y_20_ + 1 y_24_ ^ 2 ] >= 37289.34
quadratic_ranged_45_lb: [ 1 x_17_ ^ 2 - 2 x_25_ * x_17_ + 1 x_25_ ^ 2 + 1 y_17_ ^ 2 - 2 y_25_ * y_17_ + 1 y_25_ ^ 2 ] >= 9132.75
quadratic_ranged_46_lb: [ 1 x_18_ ^ 2 - 2 x_25_ * x_18_ + 1 x_25_ ^ 2 + 1 y_18_ ^ 2 - 2 y_25_ * y_18_ + 1 y_25_ ^ 2 ] >= 6241.95
quadratic_ranged_47_lb: [ 1 x_6_ ^ 2 - 2 x_26_ * x_6_ + 1 x_26_ ^ 2 + 1 y_6_ ^ 2 - 2 y_26_ * y_6_ + 1 y_26_ ^ 2 ] >= 31724.55
quadratic_ranged_48_lb: [ 1 x_12_ ^ 2 - 2 x_26_ * x_12_ + 1 x_26_ ^ 2 + 1 y_12_ ^ 2 - 2 y_26_ * y_12_ + 1 y_26_ ^ 2 ] >= 16549.829999999998
quadratic_ranged_49_lb: [ 1 x_11_ ^ 2 - 2 x_27_ * x_11_ + 1 x_27_ ^ 2 + 1 y_11_ ^ 2 - 2 y_27_ * y_11_ + 1 y_27_ ^ 2 ] >= 10384.11
quadratic_ranged_50_lb: [ 1 x_25_ ^ 2 - 2 x_27_ * x_25_ + 1 x_27_ ^ 2 + 1 y_25_ ^ 2 - 2 y_27_ * y_25_ + 1 y_27_ ^ 2 ] >= 7607.16
quadratic_ranged_51_lb: [ 1 x_3_ ^ 2 - 2 x_28_ * x_3_ + 1 x_28_ ^ 2 + 1 y_3_ ^ 2 - 2 y_28_ * y_3_ + 1 y_28_ ^ 2 ] >= 19404.99
quadratic_ranged_52_lb: [ 1 x_15_ ^ 2 - 2 x_28_ * x_15_ + 1 x_28_ ^ 2 + 1 y_15_ ^ 2 - 2 y_28_ * y_15_ + 1 y_28_ ^ 2 ] >= 15778.619999999999
quadratic_ranged_53_lb: [ 1 x_20_ ^ 2 - 2 x_28_ * x_20_ + 1 x_28_ ^ 2 + 1 y_20_ ^ 2 - 2 y_28_ * y_20_ + 1 y_28_ ^ 2 ] >= 6344.91
c1_1: 1 x_20_ = -60
c2_1: 1 y_20_ = -50
c3_1: 1 x_13_ = -85
c4_1: 1 y_13_ = -3
c5_1: 1 x_27_ = -8
c6_1: 1 y_27_ = -54
Bounds
-249 <= x_1_ <= 91
-192 <= x_2_ <= 22
-237 <= x_3_ <= 161
-131 <= x_4_ <= 27
-250 <= x_5_ <= 100
-258 <= x_6_ <= 138
-172 <= x_7_ <= 110
-310 <= x_8_ <= 162
-144 <= x_9_ <= -26
-201 <= x_10_ <= 81
-110 <= x_11_ <= 48
-314 <= x_12_ <= 183
x_13_ = -85
-262 <= x_14_ <= 199
-267 <= x_15_ <= 99
-212 <= x_16_ <= 108
-184 <= x_17_ <= 14
-175 <= x_18_ <= 157
-209 <= x_19_ <= 60
x_20_ = -60
-215 <= x_21_ <= 54
-114 <= x_22_ <= -6
-324 <= x_23_ <= 162
-255 <= x_24_ <= 135
-96 <= x_25_ <= 80
-438 <= x_26_ <= 313
x_27_ = -8
-140 <= x_28_ <= 20
-179 <= y_1_ <= 173
-110 <= y_2_ <= 104
-252 <= y_3_ <= 171
-115 <= y_4_ <= 69
-188 <= y_5_ <= 140
-248 <= y_6_ <= 148
-198 <= y_7_ <= 110
-250 <= y_8_ <= 202
-62 <= y_9_ <= 56
-191 <= y_10_ <= 91
-136 <= y_11_ <= 48
-271 <= y_12_ <= 223
y_13_ = -3
-287 <= y_14_ <= 200
-187 <= y_15_ <= 157
-196 <= y_16_ <= 150
-102 <= y_17_ <= 96
-221 <= y_18_ <= 113
-148 <= y_19_ <= 99
y_20_ = -50
-142 <= y_21_ <= 105
-104 <= y_22_ <= 4
-250 <= y_23_ <= 214
-245 <= y_24_ <= 145
-142 <= y_25_ <= 34
-401 <= y_26_ <= 328
y_27_ = -54
-130 <= y_28_ <= 30
General
x_1_
x_2_
x_3_
x_4_
x_5_
x_6_
x_7_
x_8_
x_9_
x_10_
x_11_
x_12_
x_13_
x_14_
x_15_
x_16_
x_17_
x_18_
x_19_
x_20_
x_21_
x_22_
x_23_
x_24_
x_25_
x_26_
x_27_
x_28_
y_1_
y_2_
y_3_
y_4_
y_5_
y_6_
y_7_
y_8_
y_9_
y_10_
y_11_
y_12_
y_13_
y_14_
y_15_
y_16_
y_17_
y_18_
y_19_
y_20_
y_21_
y_22_
y_23_
y_24_
y_25_
y_26_
y_27_
y_28_
End
