minimize
obj: 
subject to
c1: -8 x_1_ + 182 y_1_ + [ 1 x_1_ ^ 2 + 1 y_1_ ^ 2 ] <= 66078.0526026135
c2: -8 x_2_ + 182 y_2_ + [ 1 x_2_ ^ 2 + 1 y_2_ ^ 2 ] <= -2878.3500000000004
c3: -8 x_3_ + 182 y_3_ + [ 1 x_3_ ^ 2 + 1 y_3_ ^ 2 ] <= 63789.845975732154
c4: -8 x_4_ + 182 y_4_ + [ 1 x_4_ ^ 2 + 1 y_4_ ^ 2 ] <= 52818.56647963942
c5: -8 x_5_ + 182 y_5_ + [ 1 x_5_ ^ 2 + 1 y_5_ ^ 2 ] <= 32895.150272215025
c6: -8 x_7_ + 182 y_7_ + [ 1 x_7_ ^ 2 + 1 y_7_ ^ 2 ] <= 107697.34310206166
c7: -8 x_8_ + 182 y_8_ + [ 1 x_8_ ^ 2 + 1 y_8_ ^ 2 ] <= 79486.9136326674
c8: -8 x_9_ + 182 y_9_ + [ 1 x_9_ ^ 2 + 1 y_9_ ^ 2 ] <= 50687.71023187029
c9: -8 x_10_ + 182 y_10_ + [ 1 x_10_ ^ 2 + 1 y_10_ ^ 2 ] <= 99297.25188345004
c10: -8 x_11_ + 182 y_11_ + [ 1 x_11_ ^ 2 + 1 y_11_ ^ 2 ] <= 173575.83820082436
c11: -8 x_12_ + 182 y_12_ + [ 1 x_12_ ^ 2 + 1 y_12_ ^ 2 ] <= 50700.72258768625
c12: -8 x_13_ + 182 y_13_ + [ 1 x_13_ ^ 2 + 1 y_13_ ^ 2 ] <= 22750.39999999999
c13: -8 x_14_ + 182 y_14_ + [ 1 x_14_ ^ 2 + 1 y_14_ ^ 2 ] <= 123904.14174598566
c14: -8 x_15_ + 182 y_15_ + [ 1 x_15_ ^ 2 + 1 y_15_ ^ 2 ] <= 85891.4367591492
c15: -8 x_16_ + 182 y_16_ + [ 1 x_16_ ^ 2 + 1 y_16_ ^ 2 ] <= 111414.42699089045
c16: -8 x_17_ + 182 y_17_ + [ 1 x_17_ ^ 2 + 1 y_17_ ^ 2 ] <= 124980.4585214371
c17: -8 x_18_ + 182 y_18_ + [ 1 x_18_ ^ 2 + 1 y_18_ ^ 2 ] <= 103672.97119880702
c18: -8 x_19_ + 182 y_19_ + [ 1 x_19_ ^ 2 + 1 y_19_ ^ 2 ] <= 47636.007066755075
c19: -8 x_20_ + 182 y_20_ + [ 1 x_20_ ^ 2 + 1 y_20_ ^ 2 ] <= 101919.53897414562
c20: -8 x_21_ + 182 y_21_ + [ 1 x_21_ ^ 2 + 1 y_21_ ^ 2 ] <= 27591.761389269705
c21: -8 x_22_ + 182 y_22_ + [ 1 x_22_ ^ 2 + 1 y_22_ ^ 2 ] <= 149801.7542120947
c22: -8 x_23_ + 182 y_23_ + [ 1 x_23_ ^ 2 + 1 y_23_ ^ 2 ] <= 196571.9773381332
c23: -8 x_24_ + 182 y_24_ + [ 1 x_24_ ^ 2 + 1 y_24_ ^ 2 ] <= 25331.959999999992
c24: -8 x_25_ + 182 y_25_ + [ 1 x_25_ ^ 2 + 1 y_25_ ^ 2 ] <= 7116.586076383423
c25: -8 x_26_ + 182 y_26_ + [ 1 x_26_ ^ 2 + 1 y_26_ ^ 2 ] <= 1112.1600000000017
c26: -8 x_27_ + 182 y_27_ + [ 1 x_27_ ^ 2 + 1 y_27_ ^ 2 ] <= 170214.1836781682
c27: -8 x_28_ + 182 y_28_ + [ 1 x_28_ ^ 2 + 1 y_28_ ^ 2 ] <= 54291.1627691457
c28: 144 x_1_ - 134 y_1_ + [ 1 x_1_ ^ 2 + 1 y_1_ ^ 2 ] <= 10774.449999999993
c29: 144 x_2_ - 134 y_2_ + [ 1 x_2_ ^ 2 + 1 y_2_ ^ 2 ] <= 52734.13663953767
c30: 144 x_3_ - 134 y_3_ + [ 1 x_3_ ^ 2 + 1 y_3_ ^ 2 ] <= 131495.0564505989
c31: 144 x_4_ - 134 y_4_ + [ 1 x_4_ ^ 2 + 1 y_4_ ^ 2 ] <= 53329.83320783259
c32: 144 x_5_ - 134 y_5_ + [ 1 x_5_ ^ 2 + 1 y_5_ ^ 2 ] <= 121151.49119816025
c33: 144 x_6_ - 134 y_6_ + [ 1 x_6_ ^ 2 + 1 y_6_ ^ 2 ] <= 21374.39999999999
c34: 144 x_7_ - 134 y_7_ + [ 1 x_7_ ^ 2 + 1 y_7_ ^ 2 ] <= 67909.33077563507
c35: 144 x_8_ - 134 y_8_ + [ 1 x_8_ ^ 2 + 1 y_8_ ^ 2 ] <= 179744.9254275504
c36: 144 x_9_ - 134 y_9_ + [ 1 x_9_ ^ 2 + 1 y_9_ ^ 2 ] <= 151405.31754393523
c37: 144 x_10_ - 134 y_10_ + [ 1 x_10_ ^ 2 + 1 y_10_ ^ 2 ] <= 44575.51486684221
c38: 144 x_11_ - 134 y_11_ + [ 1 x_11_ ^ 2 + 1 y_11_ ^ 2 ] <= 109055.34636333479
c39: 144 x_12_ - 134 y_12_ + [ 1 x_12_ ^ 2 + 1 y_12_ ^ 2 ] <= 165969.45647768377
c40: 144 x_14_ - 134 y_14_ + [ 1 x_14_ ^ 2 + 1 y_14_ ^ 2 ] <= 64821.25064679739
c41: 144 x_15_ - 134 y_15_ + [ 1 x_15_ ^ 2 + 1 y_15_ ^ 2 ] <= 7409.129999999997
c42: 144 x_16_ - 134 y_16_ + [ 1 x_16_ ^ 2 + 1 y_16_ ^ 2 ] <= 36524.20114843124
c43: 144 x_17_ - 134 y_17_ + [ 1 x_17_ ^ 2 + 1 y_17_ ^ 2 ] <= 150802.32552371526
c44: 144 x_18_ - 134 y_18_ + [ 1 x_18_ ^ 2 + 1 y_18_ ^ 2 ] <= 118481.52478964755
c45: 144 x_19_ - 134 y_19_ + [ 1 x_19_ ^ 2 + 1 y_19_ ^ 2 ] <= 146541.49204892118
c46: 144 x_20_ - 134 y_20_ + [ 1 x_20_ ^ 2 + 1 y_20_ ^ 2 ] <= 14596.289999999994
c47: 144 x_21_ - 134 y_21_ + [ 1 x_21_ ^ 2 + 1 y_21_ ^ 2 ] <= 41524.74466439639
c48: 144 x_22_ - 134 y_22_ + [ 1 x_22_ ^ 2 + 1 y_22_ ^ 2 ] <= 72559.48923821122
c49: 144 x_23_ - 134 y_23_ + [ 1 x_23_ ^ 2 + 1 y_23_ ^ 2 ] <= 66736.0221847365
c50: 144 x_24_ - 134 y_24_ + [ 1 x_24_ ^ 2 + 1 y_24_ ^ 2 ] <= 119628.17791708196
c51: 144 x_25_ - 134 y_25_ + [ 1 x_25_ ^ 2 + 1 y_25_ ^ 2 ] <= 75413.19897713486
c52: 144 x_26_ - 134 y_26_ + [ 1 x_26_ ^ 2 + 1 y_26_ ^ 2 ] <= 64967.179128699645
c53: 144 x_27_ - 134 y_27_ + [ 1 x_27_ ^ 2 + 1 y_27_ ^ 2 ] <= 97519.93195776556
c54: 144 x_28_ - 134 y_28_ + [ 1 x_28_ ^ 2 + 1 y_28_ ^ 2 ] <= 147252.98230203195
c55: -50 x_1_ - 118 y_1_ + [ 1 x_1_ ^ 2 + 1 y_1_ ^ 2 ] <= 46363.514701326334
c56: -50 x_2_ - 118 y_2_ + [ 1 x_2_ ^ 2 + 1 y_2_ ^ 2 ] <= 70085.90569021698
c57: -50 x_3_ - 118 y_3_ + [ 1 x_3_ ^ 2 + 1 y_3_ ^ 2 ] <= 24982.64704248583
c58: -50 x_4_ - 118 y_4_ + [ 1 x_4_ ^ 2 + 1 y_4_ ^ 2 ] <= 5651.0466694126935
c59: -50 x_5_ - 118 y_5_ + [ 1 x_5_ ^ 2 + 1 y_5_ ^ 2 ] <= 17432.891561133787
c60: -50 x_6_ - 118 y_6_ + [ 1 x_6_ ^ 2 + 1 y_6_ ^ 2 ] <= 115605.42699089048
c61: -50 x_7_ - 118 y_7_ + [ 1 x_7_ ^ 2 + 1 y_7_ ^ 2 ] <= -60.95000000000027
c62: -50 x_8_ - 118 y_8_ + [ 1 x_8_ ^ 2 + 1 y_8_ ^ 2 ] <= 48818.042810691106
c63: -50 x_9_ - 118 y_9_ + [ 1 x_9_ ^ 2 + 1 y_9_ ^ 2 ] <= 34379.100539705825
c64: -50 x_10_ - 118 y_10_ + [ 1 x_10_ ^ 2 + 1 y_10_ ^ 2 ] <= -3782.8
c65: -50 x_11_ - 118 y_11_ + [ 1 x_11_ ^ 2 + 1 y_11_ ^ 2 ] <= 20270.74569874593
c66: -50 x_12_ - 118 y_12_ + [ 1 x_12_ ^ 2 + 1 y_12_ ^ 2 ] <= 38328.33571991127
c67: -50 x_13_ - 118 y_13_ + [ 1 x_13_ ^ 2 + 1 y_13_ ^ 2 ] <= 42091.20114843124
c68: -50 x_14_ - 118 y_14_ + [ 1 x_14_ ^ 2 + 1 y_14_ ^ 2 ] <= -741.883153311865
c69: -50 x_15_ - 118 y_15_ + [ 1 x_15_ ^ 2 + 1 y_15_ ^ 2 ] <= 43891.27020279502
c70: -50 x_17_ - 118 y_17_ + [ 1 x_17_ ^ 2 + 1 y_17_ ^ 2 ] <= 47073.41923602143
c71: -50 x_18_ - 118 y_18_ + [ 1 x_18_ ^ 2 + 1 y_18_ ^ 2 ] <= 122530.67120223009
c72: -50 x_19_ - 118 y_19_ + [ 1 x_19_ ^ 2 + 1 y_19_ ^ 2 ] <= 28403.694251089004
c73: -50 x_20_ - 118 y_20_ + [ 1 x_20_ ^ 2 + 1 y_20_ ^ 2 ] <= -607.360000000001
c74: -50 x_21_ - 118 y_21_ + [ 1 x_21_ ^ 2 + 1 y_21_ ^ 2 ] <= 90714.15657104076
c75: -50 x_22_ - 118 y_22_ + [ 1 x_22_ ^ 2 + 1 y_22_ ^ 2 ] <= 1053.079999999999
c76: -50 x_23_ - 118 y_23_ + [ 1 x_23_ ^ 2 + 1 y_23_ ^ 2 ] <= 118674.56989628582
c77: -50 x_24_ - 118 y_24_ + [ 1 x_24_ ^ 2 + 1 y_24_ ^ 2 ] <= 67933.83242173817
c78: -50 x_25_ - 118 y_25_ + [ 1 x_25_ ^ 2 + 1 y_25_ ^ 2 ] <= 95051.2323544168
c79: -50 x_26_ - 118 y_26_ + [ 1 x_26_ ^ 2 + 1 y_26_ ^ 2 ] <= 156191.16663093923
c80: -50 x_27_ - 118 y_27_ + [ 1 x_27_ ^ 2 + 1 y_27_ ^ 2 ] <= 8543.045440327189
c81: -50 x_28_ - 118 y_28_ + [ 1 x_28_ ^ 2 + 1 y_28_ ^ 2 ] <= 189761.03651540325
quadratic_ranged_1_ub: [ 1 x_1_ ^ 2 - 2 x_4_ * x_1_ + 1 x_4_ ^ 2 + 1 y_1_ ^ 2 - 2 y_4_ * y_1_ + 1 y_4_ ^ 2 ] <= 15844.880000000001
quadratic_ranged_2_ub: [ 1 x_2_ ^ 2 - 2 x_4_ * x_2_ + 1 x_4_ ^ 2 + 1 y_2_ ^ 2 - 2 y_4_ * y_2_ + 1 y_4_ ^ 2 ] <= 30138.4
quadratic_ranged_3_ub: [ 1 x_3_ ^ 2 - 2 x_4_ * x_3_ + 1 x_4_ ^ 2 + 1 y_3_ ^ 2 - 2 y_4_ * y_3_ + 1 y_4_ ^ 2 ] <= 15555.01
quadratic_ranged_4_ub: [ 1 x_2_ ^ 2 - 2 x_5_ * x_2_ + 1 x_5_ ^ 2 + 1 y_2_ ^ 2 - 2 y_5_ * y_2_ + 1 y_5_ ^ 2 ] <= 16730.65
quadratic_ranged_5_ub: [ 1 x_2_ ^ 2 - 2 x_6_ * x_2_ + 1 x_6_ ^ 2 + 1 y_2_ ^ 2 - 2 y_6_ * y_2_ + 1 y_6_ ^ 2 ] <= 5418.65
quadratic_ranged_6_ub: [ 1 x_5_ ^ 2 - 2 x_7_ * x_5_ + 1 x_7_ ^ 2 + 1 y_5_ ^ 2 - 2 y_7_ * y_5_ + 1 y_7_ ^ 2 ] <= 18939.52
quadratic_ranged_7_ub: [ 1 x_3_ ^ 2 - 2 x_8_ * x_3_ + 1 x_8_ ^ 2 + 1 y_3_ ^ 2 - 2 y_8_ * y_3_ + 1 y_8_ ^ 2 ] <= 3540.05
quadratic_ranged_8_ub: [ 1 x_3_ ^ 2 - 2 x_9_ * x_3_ + 1 x_9_ ^ 2 + 1 y_3_ ^ 2 - 2 y_9_ * y_3_ + 1 y_9_ ^ 2 ] <= 656.5
quadratic_ranged_9_ub: [ 1 x_8_ ^ 2 - 2 x_9_ * x_8_ + 1 x_9_ ^ 2 + 1 y_8_ ^ 2 - 2 y_9_ * y_8_ + 1 y_9_ ^ 2 ] <= 2853.25
quadratic_ranged_10_ub: [ 1 x_3_ ^ 2 - 2 x_10_ * x_3_ + 1 x_10_ ^ 2 + 1 y_3_ ^ 2 - 2 y_10_ * y_3_ + 1 y_10_ ^ 2 ] <= 23279.49
quadratic_ranged_11_ub: [ 1 x_4_ ^ 2 - 2 x_10_ * x_4_ + 1 x_10_ ^ 2 + 1 y_4_ ^ 2 - 2 y_10_ * y_4_ + 1 y_10_ ^ 2 ] <= 6528.64
quadratic_ranged_12_ub: [ 1 x_5_ ^ 2 - 2 x_10_ * x_5_ + 1 x_10_ ^ 2 + 1 y_5_ ^ 2 - 2 y_10_ * y_5_ + 1 y_10_ ^ 2 ] <= 16585.21
quadratic_ranged_13_ub: [ 1 x_7_ ^ 2 - 2 x_11_ * x_7_ + 1 x_11_ ^ 2 + 1 y_7_ ^ 2 - 2 y_11_ * y_7_ + 1 y_11_ ^ 2 ] <= 8561.77
quadratic_ranged_14_ub: [ 1 x_9_ ^ 2 - 2 x_11_ * x_9_ + 1 x_11_ ^ 2 + 1 y_9_ ^ 2 - 2 y_11_ * y_9_ + 1 y_11_ ^ 2 ] <= 33722.89
quadratic_ranged_15_ub: [ 1 x_2_ ^ 2 - 2 x_12_ * x_2_ + 1 x_12_ ^ 2 + 1 y_2_ ^ 2 - 2 y_12_ * y_2_ + 1 y_12_ ^ 2 ] <= 28656.73
quadratic_ranged_16_ub: [ 1 x_5_ ^ 2 - 2 x_12_ * x_5_ + 1 x_12_ ^ 2 + 1 y_5_ ^ 2 - 2 y_12_ * y_5_ + 1 y_12_ ^ 2 ] <= 3508.7400000000002
quadratic_ranged_17_ub: [ 1 x_1_ ^ 2 - 2 x_13_ * x_1_ + 1 x_13_ ^ 2 + 1 y_1_ ^ 2 - 2 y_13_ * y_1_ + 1 y_13_ ^ 2 ] <= 20447.45
quadratic_ranged_18_ub: [ 1 x_6_ ^ 2 - 2 x_13_ * x_6_ + 1 x_13_ ^ 2 + 1 y_6_ ^ 2 - 2 y_13_ * y_6_ + 1 y_13_ ^ 2 ] <= 31047.4
quadratic_ranged_19_ub: [ 1 x_4_ ^ 2 - 2 x_14_ * x_4_ + 1 x_14_ ^ 2 + 1 y_4_ ^ 2 - 2 y_14_ * y_4_ + 1 y_14_ ^ 2 ] <= 13544.1
quadratic_ranged_20_ub: [ 1 x_10_ ^ 2 - 2 x_14_ * x_10_ + 1 x_14_ ^ 2 + 1 y_10_ ^ 2 - 2 y_14_ * y_10_ + 1 y_14_ ^ 2 ] <= 1601.8600000000001
quadratic_ranged_21_ub: [ 1 x_4_ ^ 2 - 2 x_15_ * x_4_ + 1 x_15_ ^ 2 + 1 y_4_ ^ 2 - 2 y_15_ * y_4_ + 1 y_15_ ^ 2 ] <= 14473.3
quadratic_ranged_22_ub: [ 1 x_11_ ^ 2 - 2 x_15_ * x_11_ + 1 x_15_ ^ 2 + 1 y_11_ ^ 2 - 2 y_15_ * y_11_ + 1 y_15_ ^ 2 ] <= 45740.88
quadratic_ranged_23_ub: [ 1 x_13_ ^ 2 - 2 x_15_ * x_13_ + 1 x_15_ ^ 2 + 1 y_13_ ^ 2 - 2 y_15_ * y_13_ + 1 y_15_ ^ 2 ] <= 17082.13
quadratic_ranged_24_ub: [ 1 x_7_ ^ 2 - 2 x_16_ * x_7_ + 1 x_16_ ^ 2 + 1 y_7_ ^ 2 - 2 y_16_ * y_7_ + 1 y_16_ ^ 2 ] <= 4045.05
quadratic_ranged_25_ub: [ 1 x_10_ ^ 2 - 2 x_16_ * x_10_ + 1 x_16_ ^ 2 + 1 y_10_ ^ 2 - 2 y_16_ * y_10_ + 1 y_16_ ^ 2 ] <= 323.2
quadratic_ranged_26_ub: [ 1 x_7_ ^ 2 - 2 x_17_ * x_7_ + 1 x_17_ ^ 2 + 1 y_7_ ^ 2 - 2 y_17_ * y_7_ + 1 y_17_ ^ 2 ] <= 26447.86
quadratic_ranged_27_ub: [ 1 x_9_ ^ 2 - 2 x_17_ * x_9_ + 1 x_17_ ^ 2 + 1 y_9_ ^ 2 - 2 y_17_ * y_9_ + 1 y_17_ ^ 2 ] <= 14933.86
quadratic_ranged_28_ub: [ 1 x_1_ ^ 2 - 2 x_18_ * x_1_ + 1 x_18_ ^ 2 + 1 y_1_ ^ 2 - 2 y_18_ * y_1_ + 1 y_18_ ^ 2 ] <= 46221.64
quadratic_ranged_29_ub: [ 1 x_3_ ^ 2 - 2 x_18_ * x_3_ + 1 x_18_ ^ 2 + 1 y_3_ ^ 2 - 2 y_18_ * y_3_ + 1 y_18_ ^ 2 ] <= 35019.73
quadratic_ranged_30_ub: [ 1 x_12_ ^ 2 - 2 x_18_ * x_12_ + 1 x_18_ ^ 2 + 1 y_12_ ^ 2 - 2 y_18_ * y_12_ + 1 y_18_ ^ 2 ] <= 22459.37
quadratic_ranged_31_ub: [ 1 x_5_ ^ 2 - 2 x_19_ * x_5_ + 1 x_19_ ^ 2 + 1 y_5_ ^ 2 - 2 y_19_ * y_5_ + 1 y_19_ ^ 2 ] <= 1125.14
quadratic_ranged_32_ub: [ 1 x_11_ ^ 2 - 2 x_19_ * x_11_ + 1 x_19_ ^ 2 + 1 y_11_ ^ 2 - 2 y_19_ * y_11_ + 1 y_19_ ^ 2 ] <= 36086.29
quadratic_ranged_33_ub: [ 1 x_13_ ^ 2 - 2 x_20_ * x_13_ + 1 x_20_ ^ 2 + 1 y_13_ ^ 2 - 2 y_20_ * y_13_ + 1 y_20_ ^ 2 ] <= 24269.29
quadratic_ranged_34_ub: [ 1 x_16_ ^ 2 - 2 x_20_ * x_16_ + 1 x_20_ ^ 2 + 1 y_16_ ^ 2 - 2 y_20_ * y_16_ + 1 y_20_ ^ 2 ] <= 3498.64
quadratic_ranged_35_ub: [ 1 x_1_ ^ 2 - 2 x_21_ * x_1_ + 1 x_21_ ^ 2 + 1 y_1_ ^ 2 - 2 y_21_ * y_1_ + 1 y_21_ ^ 2 ] <= 6934.66
quadratic_ranged_36_ub: [ 1 x_7_ ^ 2 - 2 x_22_ * x_7_ + 1 x_22_ ^ 2 + 1 y_7_ ^ 2 - 2 y_22_ * y_7_ + 1 y_22_ ^ 2 ] <= 3253.21
quadratic_ranged_37_ub: [ 1 x_16_ ^ 2 - 2 x_22_ * x_16_ + 1 x_22_ ^ 2 + 1 y_16_ ^ 2 - 2 y_22_ * y_16_ + 1 y_22_ ^ 2 ] <= 5159.08
quadratic_ranged_38_ub: [ 1 x_15_ ^ 2 - 2 x_23_ * x_15_ + 1 x_23_ ^ 2 + 1 y_15_ ^ 2 - 2 y_23_ * y_15_ + 1 y_23_ ^ 2 ] <= 21235.25
quadratic_ranged_39_ub: [ 1 x_17_ ^ 2 - 2 x_23_ * x_17_ + 1 x_23_ ^ 2 + 1 y_17_ ^ 2 - 2 y_23_ * y_17_ + 1 y_23_ ^ 2 ] <= 15418.66
quadratic_ranged_40_ub: [ 1 x_6_ ^ 2 - 2 x_24_ * x_6_ + 1 x_24_ ^ 2 + 1 y_6_ ^ 2 - 2 y_24_ * y_6_ + 1 y_24_ ^ 2 ] <= 33628.96
quadratic_ranged_41_ub: [ 1 x_12_ ^ 2 - 2 x_24_ * x_12_ + 1 x_24_ ^ 2 + 1 y_12_ ^ 2 - 2 y_24_ * y_12_ + 1 y_24_ ^ 2 ] <= 3894.56
quadratic_ranged_42_ub: [ 1 x_19_ ^ 2 - 2 x_24_ * x_19_ + 1 x_24_ ^ 2 + 1 y_19_ ^ 2 - 2 y_24_ * y_19_ + 1 y_24_ ^ 2 ] <= 15036.880000000001
quadratic_ranged_43_ub: [ 1 x_1_ ^ 2 - 2 x_25_ * x_1_ + 1 x_25_ ^ 2 + 1 y_1_ ^ 2 - 2 y_25_ * y_1_ + 1 y_25_ ^ 2 ] <= 22111.93
quadratic_ranged_44_ub: [ 1 x_2_ ^ 2 - 2 x_25_ * x_2_ + 1 x_25_ ^ 2 + 1 y_2_ ^ 2 - 2 y_25_ * y_2_ + 1 y_25_ ^ 2 ] <= 2554.29
quadratic_ranged_45_ub: [ 1 x_9_ ^ 2 - 2 x_25_ * x_9_ + 1 x_25_ ^ 2 + 1 y_9_ ^ 2 - 2 y_25_ * y_9_ + 1 y_25_ ^ 2 ] <= 14093.54
quadratic_ranged_46_ub: [ 1 x_6_ ^ 2 - 2 x_26_ * x_6_ + 1 x_26_ ^ 2 + 1 y_6_ ^ 2 - 2 y_26_ * y_6_ + 1 y_26_ ^ 2 ] <= 9409.16
quadratic_ranged_47_ub: [ 1 x_21_ ^ 2 - 2 x_26_ * x_21_ + 1 x_26_ ^ 2 + 1 y_21_ ^ 2 - 2 y_26_ * y_21_ + 1 y_26_ ^ 2 ] <= 8545.61
quadratic_ranged_48_ub: [ 1 x_1_ ^ 2 - 2 x_27_ * x_1_ + 1 x_27_ ^ 2 + 1 y_1_ ^ 2 - 2 y_27_ * y_1_ + 1 y_27_ ^ 2 ] <= 35455.04
quadratic_ranged_49_ub: [ 1 x_10_ ^ 2 - 2 x_27_ * x_10_ + 1 x_27_ ^ 2 + 1 y_10_ ^ 2 - 2 y_27_ * y_10_ + 1 y_27_ ^ 2 ] <= 8928.4
quadratic_ranged_50_ub: [ 1 x_22_ ^ 2 - 2 x_27_ * x_22_ + 1 x_27_ ^ 2 + 1 y_22_ ^ 2 - 2 y_27_ * y_22_ + 1 y_27_ ^ 2 ] <= 24001.64
quadratic_ranged_51_ub: [ 1 x_18_ ^ 2 - 2 x_28_ * x_18_ + 1 x_28_ ^ 2 + 1 y_18_ ^ 2 - 2 y_28_ * y_18_ + 1 y_28_ ^ 2 ] <= 7130.6
quadratic_ranged_52_ub: [ 1 x_21_ ^ 2 - 2 x_28_ * x_21_ + 1 x_28_ ^ 2 + 1 y_21_ ^ 2 - 2 y_28_ * y_21_ + 1 y_28_ ^ 2 ] <= 28855.7
quadratic_ranged_53_ub: [ 1 x_25_ ^ 2 - 2 x_28_ * x_25_ + 1 x_28_ ^ 2 + 1 y_25_ ^ 2 - 2 y_28_ * y_25_ + 1 y_28_ ^ 2 ] <= 15882.25
quadratic_ranged_1_lb: [ 1 x_1_ ^ 2 - 2 x_4_ * x_1_ + 1 x_4_ ^ 2 + 1 y_1_ ^ 2 - 2 y_4_ * y_1_ + 1 y_4_ ^ 2 ] >= 15531.119999999999
quadratic_ranged_2_lb: [ 1 x_2_ ^ 2 - 2 x_4_ * x_2_ + 1 x_4_ ^ 2 + 1 y_2_ ^ 2 - 2 y_4_ * y_2_ + 1 y_4_ ^ 2 ] >= 29541.6
quadratic_ranged_3_lb: [ 1 x_3_ ^ 2 - 2 x_4_ * x_3_ + 1 x_4_ ^ 2 + 1 y_3_ ^ 2 - 2 y_4_ * y_3_ + 1 y_4_ ^ 2 ] >= 15246.99
quadratic_ranged_4_lb: [ 1 x_2_ ^ 2 - 2 x_5_ * x_2_ + 1 x_5_ ^ 2 + 1 y_2_ ^ 2 - 2 y_5_ * y_2_ + 1 y_5_ ^ 2 ] >= 16399.35
quadratic_ranged_5_lb: [ 1 x_2_ ^ 2 - 2 x_6_ * x_2_ + 1 x_6_ ^ 2 + 1 y_2_ ^ 2 - 2 y_6_ * y_2_ + 1 y_6_ ^ 2 ] >= 5311.35
quadratic_ranged_6_lb: [ 1 x_5_ ^ 2 - 2 x_7_ * x_5_ + 1 x_7_ ^ 2 + 1 y_5_ ^ 2 - 2 y_7_ * y_5_ + 1 y_7_ ^ 2 ] >= 18564.48
quadratic_ranged_7_lb: [ 1 x_3_ ^ 2 - 2 x_8_ * x_3_ + 1 x_8_ ^ 2 + 1 y_3_ ^ 2 - 2 y_8_ * y_3_ + 1 y_8_ ^ 2 ] >= 3469.95
quadratic_ranged_8_lb: [ 1 x_3_ ^ 2 - 2 x_9_ * x_3_ + 1 x_9_ ^ 2 + 1 y_3_ ^ 2 - 2 y_9_ * y_3_ + 1 y_9_ ^ 2 ] >= 643.5
quadratic_ranged_9_lb: [ 1 x_8_ ^ 2 - 2 x_9_ * x_8_ + 1 x_9_ ^ 2 + 1 y_8_ ^ 2 - 2 y_9_ * y_8_ + 1 y_9_ ^ 2 ] >= 2796.75
quadratic_ranged_10_lb: [ 1 x_3_ ^ 2 - 2 x_10_ * x_3_ + 1 x_10_ ^ 2 + 1 y_3_ ^ 2 - 2 y_10_ * y_3_ + 1 y_10_ ^ 2 ] >= 22818.51
quadratic_ranged_11_lb: [ 1 x_4_ ^ 2 - 2 x_10_ * x_4_ + 1 x_10_ ^ 2 + 1 y_4_ ^ 2 - 2 y_10_ * y_4_ + 1 y_10_ ^ 2 ] >= 6399.36
quadratic_ranged_12_lb: [ 1 x_5_ ^ 2 - 2 x_10_ * x_5_ + 1 x_10_ ^ 2 + 1 y_5_ ^ 2 - 2 y_10_ * y_5_ + 1 y_10_ ^ 2 ] >= 16256.789999999999
quadratic_ranged_13_lb: [ 1 x_7_ ^ 2 - 2 x_11_ * x_7_ + 1 x_11_ ^ 2 + 1 y_7_ ^ 2 - 2 y_11_ * y_7_ + 1 y_11_ ^ 2 ] >= 8392.23
quadratic_ranged_14_lb: [ 1 x_9_ ^ 2 - 2 x_11_ * x_9_ + 1 x_11_ ^ 2 + 1 y_9_ ^ 2 - 2 y_11_ * y_9_ + 1 y_11_ ^ 2 ] >= 33055.11
quadratic_ranged_15_lb: [ 1 x_2_ ^ 2 - 2 x_12_ * x_2_ + 1 x_12_ ^ 2 + 1 y_2_ ^ 2 - 2 y_12_ * y_2_ + 1 y_12_ ^ 2 ] >= 28089.27
quadratic_ranged_16_lb: [ 1 x_5_ ^ 2 - 2 x_12_ * x_5_ + 1 x_12_ ^ 2 + 1 y_5_ ^ 2 - 2 y_12_ * y_5_ + 1 y_12_ ^ 2 ] >= 3439.2599999999998
quadratic_ranged_17_lb: [ 1 x_1_ ^ 2 - 2 x_13_ * x_1_ + 1 x_13_ ^ 2 + 1 y_1_ ^ 2 - 2 y_13_ * y_1_ + 1 y_13_ ^ 2 ] >= 20042.55
quadratic_ranged_18_lb: [ 1 x_6_ ^ 2 - 2 x_13_ * x_6_ + 1 x_13_ ^ 2 + 1 y_6_ ^ 2 - 2 y_13_ * y_6_ + 1 y_13_ ^ 2 ] >= 30432.6
quadratic_ranged_19_lb: [ 1 x_4_ ^ 2 - 2 x_14_ * x_4_ + 1 x_14_ ^ 2 + 1 y_4_ ^ 2 - 2 y_14_ * y_4_ + 1 y_14_ ^ 2 ] >= 13275.9
quadratic_ranged_20_lb: [ 1 x_10_ ^ 2 - 2 x_14_ * x_10_ + 1 x_14_ ^ 2 + 1 y_10_ ^ 2 - 2 y_14_ * y_10_ + 1 y_14_ ^ 2 ] >= 1570.1399999999999
quadratic_ranged_21_lb: [ 1 x_4_ ^ 2 - 2 x_15_ * x_4_ + 1 x_15_ ^ 2 + 1 y_4_ ^ 2 - 2 y_15_ * y_4_ + 1 y_15_ ^ 2 ] >= 14186.7
quadratic_ranged_22_lb: [ 1 x_11_ ^ 2 - 2 x_15_ * x_11_ + 1 x_15_ ^ 2 + 1 y_11_ ^ 2 - 2 y_15_ * y_11_ + 1 y_15_ ^ 2 ] >= 44835.12
quadratic_ranged_23_lb: [ 1 x_13_ ^ 2 - 2 x_15_ * x_13_ + 1 x_15_ ^ 2 + 1 y_13_ ^ 2 - 2 y_15_ * y_13_ + 1 y_15_ ^ 2 ] >= 16743.87
quadratic_ranged_24_lb: [ 1 x_7_ ^ 2 - 2 x_16_ * x_7_ + 1 x_16_ ^ 2 + 1 y_7_ ^ 2 - 2 y_16_ * y_7_ + 1 y_16_ ^ 2 ] >= 3964.95
quadratic_ranged_25_lb: [ 1 x_10_ ^ 2 - 2 x_16_ * x_10_ + 1 x_16_ ^ 2 + 1 y_10_ ^ 2 - 2 y_16_ * y_10_ + 1 y_16_ ^ 2 ] >= 316.8
quadratic_ranged_26_lb: [ 1 x_7_ ^ 2 - 2 x_17_ * x_7_ + 1 x_17_ ^ 2 + 1 y_7_ ^ 2 - 2 y_17_ * y_7_ + 1 y_17_ ^ 2 ] >= 25924.14
quadratic_ranged_27_lb: [ 1 x_9_ ^ 2 - 2 x_17_ * x_9_ + 1 x_17_ ^ 2 + 1 y_9_ ^ 2 - 2 y_17_ * y_9_ + 1 y_17_ ^ 2 ] >= 14638.14
quadratic_ranged_28_lb: [ 1 x_1_ ^ 2 - 2 x_18_ * x_1_ + 1 x_18_ ^ 2 + 1 y_1_ ^ 2 - 2 y_18_ * y_1_ + 1 y_18_ ^ 2 ] >= 45306.36
quadratic_ranged_29_lb: [ 1 x_3_ ^ 2 - 2 x_18_ * x_3_ + 1 x_18_ ^ 2 + 1 y_3_ ^ 2 - 2 y_18_ * y_3_ + 1 y_18_ ^ 2 ] >= 34326.27
quadratic_ranged_30_lb: [ 1 x_12_ ^ 2 - 2 x_18_ * x_12_ + 1 x_18_ ^ 2 + 1 y_12_ ^ 2 - 2 y_18_ * y_12_ + 1 y_18_ ^ 2 ] >= 22014.63
quadratic_ranged_31_lb: [ 1 x_5_ ^ 2 - 2 x_19_ * x_5_ + 1 x_19_ ^ 2 + 1 y_5_ ^ 2 - 2 y_19_ * y_5_ + 1 y_19_ ^ 2 ] >= 1102.86
quadratic_ranged_32_lb: [ 1 x_11_ ^ 2 - 2 x_19_ * x_11_ + 1 x_19_ ^ 2 + 1 y_11_ ^ 2 - 2 y_19_ * y_11_ + 1 y_19_ ^ 2 ] >= 35371.71
quadratic_ranged_33_lb: [ 1 x_13_ ^ 2 - 2 x_20_ * x_13_ + 1 x_20_ ^ 2 + 1 y_13_ ^ 2 - 2 y_20_ * y_13_ + 1 y_20_ ^ 2 ] >= 23788.71
quadratic_ranged_34_lb: [ 1 x_16_ ^ 2 - 2 x_20_ * x_16_ + 1 x_20_ ^ 2 + 1 y_16_ ^ 2 - 2 y_20_ * y_16_ + 1 y_20_ ^ 2 ] >= 3429.36
quadratic_ranged_35_lb: [ 1 x_1_ ^ 2 - 2 x_21_ * x_1_ + 1 x_21_ ^ 2 + 1 y_1_ ^ 2 - 2 y_21_ * y_1_ + 1 y_21_ ^ 2 ] >= 6797.34
quadratic_ranged_36_lb: [ 1 x_7_ ^ 2 - 2 x_22_ * x_7_ + 1 x_22_ ^ 2 + 1 y_7_ ^ 2 - 2 y_22_ * y_7_ + 1 y_22_ ^ 2 ] >= 3188.79
quadratic_ranged_37_lb: [ 1 x_16_ ^ 2 - 2 x_22_ * x_16_ + 1 x_22_ ^ 2 + 1 y_16_ ^ 2 - 2 y_22_ * y_16_ + 1 y_22_ ^ 2 ] >= 5056.92
quadratic_ranged_38_lb: [ 1 x_15_ ^ 2 - 2 x_23_ * x_15_ + 1 x_23_ ^ 2 + 1 y_15_ ^ 2 - 2 y_23_ * y_15_ + 1 y_23_ ^ 2 ] >= 20814.75
quadratic_ranged_39_lb: [ 1 x_17_ ^ 2 - 2 x_23_ * x_17_ + 1 x_23_ ^ 2 + 1 y_17_ ^ 2 - 2 y_23_ * y_17_ + 1 y_23_ ^ 2 ] >= 15113.34
quadratic_ranged_40_lb: [ 1 x_6_ ^ 2 - 2 x_24_ * x_6_ + 1 x_24_ ^ 2 + 1 y_6_ ^ 2 - 2 y_24_ * y_6_ + 1 y_24_ ^ 2 ] >= 32963.04
quadratic_ranged_41_lb: [ 1 x_12_ ^ 2 - 2 x_24_ * x_12_ + 1 x_24_ ^ 2 + 1 y_12_ ^ 2 - 2 y_24_ * y_12_ + 1 y_24_ ^ 2 ] >= 3817.44
quadratic_ranged_42_lb: [ 1 x_19_ ^ 2 - 2 x_24_ * x_19_ + 1 x_24_ ^ 2 + 1 y_19_ ^ 2 - 2 y_24_ * y_19_ + 1 y_24_ ^ 2 ] >= 14739.119999999999
quadratic_ranged_43_lb: [ 1 x_1_ ^ 2 - 2 x_25_ * x_1_ + 1 x_25_ ^ 2 + 1 y_1_ ^ 2 - 2 y_25_ * y_1_ + 1 y_25_ ^ 2 ] >= 21674.07
quadratic_ranged_44_lb: [ 1 x_2_ ^ 2 - 2 x_25_ * x_2_ + 1 x_25_ ^ 2 + 1 y_2_ ^ 2 - 2 y_25_ * y_2_ + 1 y_25_ ^ 2 ] >= 2503.71
quadratic_ranged_45_lb: [ 1 x_9_ ^ 2 - 2 x_25_ * x_9_ + 1 x_25_ ^ 2 + 1 y_9_ ^ 2 - 2 y_25_ * y_9_ + 1 y_25_ ^ 2 ] >= 13814.46
quadratic_ranged_46_lb: [ 1 x_6_ ^ 2 - 2 x_26_ * x_6_ + 1 x_26_ ^ 2 + 1 y_6_ ^ 2 - 2 y_26_ * y_6_ + 1 y_26_ ^ 2 ] >= 9222.84
quadratic_ranged_47_lb: [ 1 x_21_ ^ 2 - 2 x_26_ * x_21_ + 1 x_26_ ^ 2 + 1 y_21_ ^ 2 - 2 y_26_ * y_21_ + 1 y_26_ ^ 2 ] >= 8376.39
quadratic_ranged_48_lb: [ 1 x_1_ ^ 2 - 2 x_27_ * x_1_ + 1 x_27_ ^ 2 + 1 y_1_ ^ 2 - 2 y_27_ * y_1_ + 1 y_27_ ^ 2 ] >= 34752.96
quadratic_ranged_49_lb: [ 1 x_10_ ^ 2 - 2 x_27_ * x_10_ + 1 x_27_ ^ 2 + 1 y_10_ ^ 2 - 2 y_27_ * y_10_ + 1 y_27_ ^ 2 ] >= 8751.6
quadratic_ranged_50_lb: [ 1 x_22_ ^ 2 - 2 x_27_ * x_22_ + 1 x_27_ ^ 2 + 1 y_22_ ^ 2 - 2 y_27_ * y_22_ + 1 y_27_ ^ 2 ] >= 23526.36
quadratic_ranged_51_lb: [ 1 x_18_ ^ 2 - 2 x_28_ * x_18_ + 1 x_28_ ^ 2 + 1 y_18_ ^ 2 - 2 y_28_ * y_18_ + 1 y_28_ ^ 2 ] >= 6989.4
quadratic_ranged_52_lb: [ 1 x_21_ ^ 2 - 2 x_28_ * x_21_ + 1 x_28_ ^ 2 + 1 y_21_ ^ 2 - 2 y_28_ * y_21_ + 1 y_28_ ^ 2 ] >= 28284.3
quadratic_ranged_53_lb: [ 1 x_25_ ^ 2 - 2 x_28_ * x_25_ + 1 x_28_ ^ 2 + 1 y_25_ ^ 2 - 2 y_28_ * y_25_ + 1 y_28_ ^ 2 ] >= 15567.75
c1_1: 1 x_6_ = 4
c2_1: 1 y_6_ = -91
c3_1: 1 x_13_ = -72
c4_1: 1 y_13_ = 67
c5_1: 1 x_16_ = 25
c6_1: 1 y_16_ = 59
Bounds
-199 <= x_1_ <= 70
-69 <= x_2_ <= 77
-145 <= x_3_ <= 195
-73 <= x_4_ <= 123
-121 <= x_5_ <= 171
x_6_ = 4
-38 <= x_7_ <= 88
-205 <= x_8_ <= 255
-171 <= x_9_ <= 221
8 <= x_10_ <= 42
-131 <= x_11_ <= 181
-180 <= x_12_ <= 230
x_13_ = -72
-33 <= x_14_ <= 83
-194 <= x_15_ <= 58
x_16_ = 25
-201 <= x_17_ <= 251
-330 <= x_18_ <= 285
-155 <= x_19_ <= 205
-34 <= x_20_ <= 83
-185 <= x_21_ <= 154
-46 <= x_22_ <= 96
-325 <= x_23_ <= 204
-179 <= x_24_ <= 187
-120 <= x_25_ <= 128
-93 <= x_26_ <= 101
-87 <= x_27_ <= 137
-246 <= x_28_ <= 254
-75 <= y_1_ <= 181
-164 <= y_2_ <= -18
-111 <= y_3_ <= 177
-39 <= y_4_ <= 156
-87 <= y_5_ <= 111
y_6_ = -91
-4 <= y_7_ <= 122
-171 <= y_8_ <= 205
-137 <= y_9_ <= 151
42 <= y_10_ <= 76
-97 <= y_11_ <= 215
-146 <= y_12_ <= 151
y_13_ = 67
1 <= y_14_ <= 117
-63 <= y_15_ <= 197
y_16_ = 59
-167 <= y_17_ <= 274
-290 <= y_18_ <= 243
-121 <= y_19_ <= 145
0 <= y_20_ <= 118
-159 <= y_21_ <= 98
-12 <= y_22_ <= 130
-209 <= y_23_ <= 343
-209 <= y_24_ <= 92
-215 <= y_25_ <= 33
-188 <= y_26_ <= 6
-53 <= y_27_ <= 171
-329 <= y_28_ <= 159
General
x_1_
x_2_
x_3_
x_4_
x_5_
x_6_
x_7_
x_8_
x_9_
x_10_
x_11_
x_12_
x_13_
x_14_
x_15_
x_16_
x_17_
x_18_
x_19_
x_20_
x_21_
x_22_
x_23_
x_24_
x_25_
x_26_
x_27_
x_28_
y_1_
y_2_
y_3_
y_4_
y_5_
y_6_
y_7_
y_8_
y_9_
y_10_
y_11_
y_12_
y_13_
y_14_
y_15_
y_16_
y_17_
y_18_
y_19_
y_20_
y_21_
y_22_
y_23_
y_24_
y_25_
y_26_
y_27_
y_28_
End
