minimize
obj: 
subject to
c1_4: -1 x_26_ + 1 y_26_ <= 0
c1_1: [ 1 x_1_ ^ 2 + 1 y_1_ ^ 2 ] <= 112209
c2_1: [ 1 x_2_ ^ 2 + 1 y_2_ ^ 2 ] <= 104336
c3_1: [ 1 x_3_ ^ 2 + 1 y_3_ ^ 2 ] <= 58979
c4_1: [ 1 x_4_ ^ 2 + 1 y_4_ ^ 2 ] <= 64584
c5_1: [ 1 x_5_ ^ 2 + 1 y_5_ ^ 2 ] <= 17175
c6_1: [ 1 x_6_ ^ 2 + 1 y_6_ ^ 2 ] <= 72058
c7_1: [ 1 x_7_ ^ 2 + 1 y_7_ ^ 2 ] <= 105467
c8_1: [ 1 x_8_ ^ 2 + 1 y_8_ ^ 2 ] <= 85659
c9_1: [ 1 x_9_ ^ 2 + 1 y_9_ ^ 2 ] <= 66545
c10_1: [ 1 x_10_ ^ 2 + 1 y_10_ ^ 2 ] <= 19390
c11_1: [ 1 x_11_ ^ 2 + 1 y_11_ ^ 2 ] <= 71132
c12_1: [ 1 x_12_ ^ 2 + 1 y_12_ ^ 2 ] <= 28446
c13_1: [ 1 x_13_ ^ 2 + 1 y_13_ ^ 2 ] <= 11449
c14_1: [ 1 x_15_ ^ 2 + 1 y_15_ ^ 2 ] <= 7624
c15_1: [ 1 x_16_ ^ 2 + 1 y_16_ ^ 2 ] <= 56148
c16_1: [ 1 x_17_ ^ 2 + 1 y_17_ ^ 2 ] <= 34564
c17_1: [ 1 x_18_ ^ 2 + 1 y_18_ ^ 2 ] <= 24099
c18_1: [ 1 x_19_ ^ 2 + 1 y_19_ ^ 2 ] <= 99257
c19_1: [ 1 x_20_ ^ 2 + 1 y_20_ ^ 2 ] <= 102777
c20_1: [ 1 x_21_ ^ 2 + 1 y_21_ ^ 2 ] <= 66545
c21_1: [ 1 x_22_ ^ 2 + 1 y_22_ ^ 2 ] <= 57965
c22_1: [ 1 x_23_ ^ 2 + 1 y_23_ ^ 2 ] <= 27707
c23_1: [ 1 x_24_ ^ 2 + 1 y_24_ ^ 2 ] <= 6109
c24_1: [ 1 x_25_ ^ 2 + 1 y_25_ ^ 2 ] <= 34243
c25_1: [ 1 x_26_ ^ 2 + 1 y_26_ ^ 2 ] <= 116226
c1_3: 1 x_26_ >= 0
c2_3: 1 y_26_ >= 0
c1_2: 1 x_14_ = 0
c2_2: 1 y_14_ = 0
c1: [ 1 x_1_ ^ 2 - 2 x_2_ * x_1_ + 1 x_2_ ^ 2 + 1 y_1_ ^ 2 - 2 y_2_ * y_1_ + 1 y_2_ ^ 2 ] = 4768
c2: [ 1 x_2_ ^ 2 - 2 x_3_ * x_2_ + 1 x_3_ ^ 2 + 1 y_2_ ^ 2 - 2 y_3_ * y_2_ + 1 y_3_ ^ 2 ] = 6425
c3: [ 1 x_3_ ^ 2 - 2 x_4_ * x_3_ + 1 x_4_ ^ 2 + 1 y_3_ ^ 2 - 2 y_4_ * y_3_ + 1 y_4_ ^ 2 ] = 25604
c4: [ 1 x_4_ ^ 2 - 2 x_5_ * x_4_ + 1 x_5_ ^ 2 + 1 y_4_ ^ 2 - 2 y_5_ * y_4_ + 1 y_5_ ^ 2 ] = 15149
c5: [ 1 x_5_ ^ 2 - 2 x_6_ * x_5_ + 1 x_6_ ^ 2 + 1 y_5_ ^ 2 - 2 y_6_ * y_5_ + 1 y_6_ ^ 2 ] = 18874
c6: [ 1 x_6_ ^ 2 - 2 x_7_ * x_6_ + 1 x_7_ ^ 2 + 1 y_6_ ^ 2 - 2 y_7_ * y_6_ + 1 y_7_ ^ 2 ] = 3172
c7: [ 1 x_7_ ^ 2 - 2 x_8_ * x_7_ + 1 x_8_ ^ 2 + 1 y_7_ ^ 2 - 2 y_8_ * y_7_ + 1 y_8_ ^ 2 ] = 10064
c8: [ 1 x_6_ ^ 2 - 2 x_9_ * x_6_ + 1 x_9_ ^ 2 + 1 y_6_ ^ 2 - 2 y_9_ * y_6_ + 1 y_9_ ^ 2 ] = 20641
c9: [ 1 x_8_ ^ 2 - 2 x_9_ * x_8_ + 1 x_9_ ^ 2 + 1 y_8_ ^ 2 - 2 y_9_ * y_8_ + 1 y_9_ ^ 2 ] = 1205
c10: [ 1 x_9_ ^ 2 - 2 x_10_ * x_9_ + 1 x_10_ ^ 2 + 1 y_9_ ^ 2 - 2 y_10_ * y_9_ + 1 y_10_ ^ 2 ] = 14093
c11: [ 1 x_10_ ^ 2 - 2 x_11_ * x_10_ + 1 x_11_ ^ 2 + 1 y_10_ ^ 2 - 2 y_11_ * y_10_ + 1 y_11_ ^ 2 ] = 16245
c12: [ 1 x_11_ ^ 2 - 2 x_12_ * x_11_ + 1 x_12_ ^ 2 + 1 y_11_ ^ 2 - 2 y_12_ * y_11_ + 1 y_12_ ^ 2 ] = 12125
c13: [ 1 x_10_ ^ 2 - 2 x_13_ * x_10_ + 1 x_13_ ^ 2 + 1 y_10_ ^ 2 - 2 y_13_ * y_10_ + 1 y_13_ ^ 2 ] = 1040
c14: [ 1 x_12_ ^ 2 - 2 x_13_ * x_12_ + 1 x_13_ ^ 2 + 1 y_12_ ^ 2 - 2 y_13_ * y_12_ + 1 y_13_ ^ 2 ] = 3802
c15: [ 1 x_13_ ^ 2 - 2 x_14_ * x_13_ + 1 x_14_ ^ 2 + 1 y_13_ ^ 2 - 2 y_14_ * y_13_ + 1 y_14_ ^ 2 ] = 11449
c16: [ 1 x_5_ ^ 2 - 2 x_15_ * x_5_ + 1 x_15_ ^ 2 + 1 y_5_ ^ 2 - 2 y_15_ * y_5_ + 1 y_15_ ^ 2 ] = 1913
c17: [ 1 x_14_ ^ 2 - 2 x_15_ * x_14_ + 1 x_15_ ^ 2 + 1 y_14_ ^ 2 - 2 y_15_ * y_14_ + 1 y_15_ ^ 2 ] = 7624
c18: [ 1 x_1_ ^ 2 - 2 x_16_ * x_1_ + 1 x_16_ ^ 2 + 1 y_1_ ^ 2 - 2 y_16_ * y_1_ + 1 y_16_ ^ 2 ] = 9608
c19: [ 1 x_15_ ^ 2 - 2 x_16_ * x_15_ + 1 x_16_ ^ 2 + 1 y_15_ ^ 2 - 2 y_16_ * y_15_ + 1 y_16_ ^ 2 ] = 32017
c20: [ 1 x_16_ ^ 2 - 2 x_17_ * x_16_ + 1 x_17_ ^ 2 + 1 y_16_ ^ 2 - 2 y_17_ * y_16_ + 1 y_17_ ^ 2 ] = 66266
c21: [ 1 x_17_ ^ 2 - 2 x_18_ * x_17_ + 1 x_18_ ^ 2 + 1 y_17_ ^ 2 - 2 y_18_ * y_17_ + 1 y_18_ ^ 2 ] = 941
c22: [ 1 x_6_ ^ 2 - 2 x_19_ * x_6_ + 1 x_19_ ^ 2 + 1 y_6_ ^ 2 - 2 y_19_ * y_6_ + 1 y_19_ ^ 2 ] = 2173
c23: [ 1 x_18_ ^ 2 - 2 x_19_ * x_18_ + 1 x_19_ ^ 2 + 1 y_18_ ^ 2 - 2 y_19_ * y_18_ + 1 y_19_ ^ 2 ] = 39650
c24: [ 1 x_19_ ^ 2 - 2 x_20_ * x_19_ + 1 x_20_ ^ 2 + 1 y_19_ ^ 2 - 2 y_20_ * y_19_ + 1 y_20_ ^ 2 ] = 7930
c25: [ 1 x_7_ ^ 2 - 2 x_21_ * x_7_ + 1 x_21_ ^ 2 + 1 y_7_ ^ 2 - 2 y_21_ * y_7_ + 1 y_21_ ^ 2 ] = 12713
c26: [ 1 x_20_ ^ 2 - 2 x_21_ * x_20_ + 1 x_21_ ^ 2 + 1 y_20_ ^ 2 - 2 y_21_ * y_20_ + 1 y_21_ ^ 2 ] = 3922
c27: [ 1 x_19_ ^ 2 - 2 x_22_ * x_19_ + 1 x_22_ ^ 2 + 1 y_19_ ^ 2 - 2 y_22_ * y_19_ + 1 y_22_ ^ 2 ] = 25664
c28: [ 1 x_21_ ^ 2 - 2 x_22_ * x_21_ + 1 x_22_ ^ 2 + 1 y_21_ ^ 2 - 2 y_22_ * y_21_ + 1 y_22_ ^ 2 ] = 296
c29: [ 1 x_3_ ^ 2 - 2 x_23_ * x_3_ + 1 x_23_ ^ 2 + 1 y_3_ ^ 2 - 2 y_23_ * y_3_ + 1 y_23_ ^ 2 ] = 5837
c30: [ 1 x_16_ ^ 2 - 2 x_23_ * x_16_ + 1 x_23_ ^ 2 + 1 y_16_ ^ 2 - 2 y_23_ * y_16_ + 1 y_23_ ^ 2 ] = 55700
c31: [ 1 x_18_ ^ 2 - 2 x_23_ * x_18_ + 1 x_23_ ^ 2 + 1 y_18_ ^ 2 - 2 y_23_ * y_18_ + 1 y_23_ ^ 2 ] = 325
c32: [ 1 x_22_ ^ 2 - 2 x_23_ * x_22_ + 1 x_23_ ^ 2 + 1 y_22_ ^ 2 - 2 y_23_ * y_22_ + 1 y_23_ ^ 2 ] = 5521
c33: [ 1 x_12_ ^ 2 - 2 x_24_ * x_12_ + 1 x_24_ ^ 2 + 1 y_12_ ^ 2 - 2 y_24_ * y_12_ + 1 y_24_ ^ 2 ] = 10170
c34: [ 1 x_14_ ^ 2 - 2 x_24_ * x_14_ + 1 x_24_ ^ 2 + 1 y_14_ ^ 2 - 2 y_24_ * y_14_ + 1 y_24_ ^ 2 ] = 6109
c35: [ 1 x_16_ ^ 2 - 2 x_24_ * x_16_ + 1 x_24_ ^ 2 + 1 y_16_ ^ 2 - 2 y_24_ * y_16_ + 1 y_24_ ^ 2 ] = 25216
c36: [ 1 x_18_ ^ 2 - 2 x_24_ * x_18_ + 1 x_24_ ^ 2 + 1 y_18_ ^ 2 - 2 y_24_ * y_18_ + 1 y_24_ ^ 2 ] = 5941
c37: [ 1 x_23_ ^ 2 - 2 x_24_ * x_23_ + 1 x_24_ ^ 2 + 1 y_23_ ^ 2 - 2 y_24_ * y_23_ + 1 y_24_ ^ 2 ] = 7796
c38: [ 1 x_24_ ^ 2 - 2 x_25_ * x_24_ + 1 x_25_ ^ 2 + 1 y_24_ ^ 2 - 2 y_25_ * y_24_ + 1 y_25_ ^ 2 ] = 11425
c39: [ 1 x_1_ ^ 2 - 2 x_26_ * x_1_ + 1 x_26_ ^ 2 + 1 y_1_ ^ 2 - 2 y_26_ * y_1_ + 1 y_26_ ^ 2 ] = 21425
c40: [ 1 x_8_ ^ 2 - 2 x_26_ * x_8_ + 1 x_26_ ^ 2 + 1 y_8_ ^ 2 - 2 y_26_ * y_8_ + 1 y_26_ ^ 2 ] = 10237
c41: [ 1 x_25_ ^ 2 - 2 x_26_ * x_25_ + 1 x_26_ ^ 2 + 1 y_25_ ^ 2 - 2 y_26_ * y_25_ + 1 y_26_ ^ 2 ] = 24296
Bounds
-334 <= x_1_ <= 334
-323 <= x_2_ <= 323
-242 <= x_3_ <= 242
-254 <= x_4_ <= 254
-131 <= x_5_ <= 131
-268 <= x_6_ <= 268
-324 <= x_7_ <= 324
-292 <= x_8_ <= 292
-257 <= x_9_ <= 257
-139 <= x_10_ <= 139
-266 <= x_11_ <= 266
-168 <= x_12_ <= 168
-107 <= x_13_ <= 107
x_14_ = 0
-87 <= x_15_ <= 87
-236 <= x_16_ <= 236
-185 <= x_17_ <= 185
-155 <= x_18_ <= 155
-315 <= x_19_ <= 315
-320 <= x_20_ <= 320
-257 <= x_21_ <= 257
-240 <= x_22_ <= 240
-166 <= x_23_ <= 166
-78 <= x_24_ <= 78
-185 <= x_25_ <= 185
-340 <= x_26_ <= 340
-334 <= y_1_ <= 334
-323 <= y_2_ <= 323
-242 <= y_3_ <= 242
-254 <= y_4_ <= 254
-131 <= y_5_ <= 131
-268 <= y_6_ <= 268
-324 <= y_7_ <= 324
-292 <= y_8_ <= 292
-257 <= y_9_ <= 257
-139 <= y_10_ <= 139
-266 <= y_11_ <= 266
-168 <= y_12_ <= 168
-107 <= y_13_ <= 107
y_14_ = 0
-87 <= y_15_ <= 87
-236 <= y_16_ <= 236
-185 <= y_17_ <= 185
-155 <= y_18_ <= 155
-315 <= y_19_ <= 315
-320 <= y_20_ <= 320
-257 <= y_21_ <= 257
-240 <= y_22_ <= 240
-166 <= y_23_ <= 166
-78 <= y_24_ <= 78
-185 <= y_25_ <= 185
-340 <= y_26_ <= 340
General
x_1_
x_2_
x_3_
x_4_
x_5_
x_6_
x_7_
x_8_
x_9_
x_10_
x_11_
x_12_
x_13_
x_14_
x_15_
x_16_
x_17_
x_18_
x_19_
x_20_
x_21_
x_22_
x_23_
x_24_
x_25_
x_26_
y_1_
y_2_
y_3_
y_4_
y_5_
y_6_
y_7_
y_8_
y_9_
y_10_
y_11_
y_12_
y_13_
y_14_
y_15_
y_16_
y_17_
y_18_
y_19_
y_20_
y_21_
y_22_
y_23_
y_24_
y_25_
y_26_
End
