minimize
obj: 
subject to
c1: 168 x_1_ + 34 y_1_ + [ 1 x_1_ ^ 2 + 1 y_1_ ^ 2 ] <= 30450.589117969146
c2: 168 x_2_ + 34 y_2_ + [ 1 x_2_ ^ 2 + 1 y_2_ ^ 2 ] <= 80863.0499973472
c3: 168 x_3_ + 34 y_3_ + [ 1 x_3_ ^ 2 + 1 y_3_ ^ 2 ] <= 15381.009999999995
c4: 168 x_4_ + 34 y_4_ + [ 1 x_4_ ^ 2 + 1 y_4_ ^ 2 ] <= 58827.11404747781
c5: 168 x_5_ + 34 y_5_ + [ 1 x_5_ ^ 2 + 1 y_5_ ^ 2 ] <= 77992.39754289268
c6: 168 x_6_ + 34 y_6_ + [ 1 x_6_ ^ 2 + 1 y_6_ ^ 2 ] <= 124050.61474495856
c7: 168 x_7_ + 34 y_7_ + [ 1 x_7_ ^ 2 + 1 y_7_ ^ 2 ] <= 22661.73830874535
c8: 168 x_8_ + 34 y_8_ + [ 1 x_8_ ^ 2 + 1 y_8_ ^ 2 ] <= 24932.568891197345
c9: 168 x_9_ + 34 y_9_ + [ 1 x_9_ ^ 2 + 1 y_9_ ^ 2 ] <= 63349.94389351472
c10: 168 x_10_ + 34 y_10_ + [ 1 x_10_ ^ 2 + 1 y_10_ ^ 2 ] <= 29122.076322881374
c11: 168 x_11_ + 34 y_11_ + [ 1 x_11_ ^ 2 + 1 y_11_ ^ 2 ] <= -386.1000000000013
c12: 168 x_12_ + 34 y_12_ + [ 1 x_12_ ^ 2 + 1 y_12_ ^ 2 ] <= 107110.06376116411
c13: 168 x_13_ + 34 y_13_ + [ 1 x_13_ ^ 2 + 1 y_13_ ^ 2 ] <= 60494.198910540945
c14: 168 x_14_ + 34 y_14_ + [ 1 x_14_ ^ 2 + 1 y_14_ ^ 2 ] <= 121374.79198075451
c15: 168 x_15_ + 34 y_15_ + [ 1 x_15_ ^ 2 + 1 y_15_ ^ 2 ] <= 118176.29497927285
c16: 168 x_17_ + 34 y_17_ + [ 1 x_17_ ^ 2 + 1 y_17_ ^ 2 ] <= 113508.4918450856
c17: 168 x_18_ + 34 y_18_ + [ 1 x_18_ ^ 2 + 1 y_18_ ^ 2 ] <= 132697.62321379286
c18: 168 x_19_ + 34 y_19_ + [ 1 x_19_ ^ 2 + 1 y_19_ ^ 2 ] <= 196263.82903026463
c19: 168 x_20_ + 34 y_20_ + [ 1 x_20_ ^ 2 + 1 y_20_ ^ 2 ] <= 137636.69637123714
c20: 168 x_21_ + 34 y_21_ + [ 1 x_21_ ^ 2 + 1 y_21_ ^ 2 ] <= 87909.77239938013
c21: 168 x_22_ + 34 y_22_ + [ 1 x_22_ ^ 2 + 1 y_22_ ^ 2 ] <= 93479.12928884657
c22: 168 x_23_ + 34 y_23_ + [ 1 x_23_ ^ 2 + 1 y_23_ ^ 2 ] <= 109577.63941814537
c23: 168 x_24_ + 34 y_24_ + [ 1 x_24_ ^ 2 + 1 y_24_ ^ 2 ] <= 87228.82439980189
c24: 168 x_25_ + 34 y_25_ + [ 1 x_25_ ^ 2 + 1 y_25_ ^ 2 ] <= 153627.0220167195
c25: 168 x_26_ + 34 y_26_ + [ 1 x_26_ ^ 2 + 1 y_26_ ^ 2 ] <= 79430.87463724699
c26: 168 x_27_ + 34 y_27_ + [ 1 x_27_ ^ 2 + 1 y_27_ ^ 2 ] <= 52108.513980811935
c27: 168 x_28_ + 34 y_28_ + [ 1 x_28_ ^ 2 + 1 y_28_ ^ 2 ] <= 76206.78465273452
c28: 188 x_1_ + 10 y_1_ + [ 1 x_1_ ^ 2 + 1 y_1_ ^ 2 ] <= 18225.530924643495
c29: 188 x_2_ + 10 y_2_ + [ 1 x_2_ ^ 2 + 1 y_2_ ^ 2 ] <= -5017.950000000001
c30: 188 x_3_ + 10 y_3_ + [ 1 x_3_ ^ 2 + 1 y_3_ ^ 2 ] <= 34412.9520427499
c31: 188 x_4_ + 10 y_4_ + [ 1 x_4_ ^ 2 + 1 y_4_ ^ 2 ] <= 45936.06150389878
c32: 188 x_5_ + 10 y_5_ + [ 1 x_5_ ^ 2 + 1 y_5_ ^ 2 ] <= 63485.99412801875
c33: 188 x_6_ + 10 y_6_ + [ 1 x_6_ ^ 2 + 1 y_6_ ^ 2 ] <= 28834.22
c34: 188 x_7_ + 10 y_7_ + [ 1 x_7_ ^ 2 + 1 y_7_ ^ 2 ] <= 100648.8735497799
c35: 188 x_8_ + 10 y_8_ + [ 1 x_8_ ^ 2 + 1 y_8_ ^ 2 ] <= 104949.29933453412
c36: 188 x_9_ + 10 y_9_ + [ 1 x_9_ ^ 2 + 1 y_9_ ^ 2 ] <= 28676.32014811624
c37: 188 x_10_ + 10 y_10_ + [ 1 x_10_ ^ 2 + 1 y_10_ ^ 2 ] <= 19299.819999999992
c38: 188 x_11_ + 10 y_11_ + [ 1 x_11_ ^ 2 + 1 y_11_ ^ 2 ] <= 67078.22024610081
c39: 188 x_12_ + 10 y_12_ + [ 1 x_12_ ^ 2 + 1 y_12_ ^ 2 ] <= 126382.6265136768
c40: 188 x_13_ + 10 y_13_ + [ 1 x_13_ ^ 2 + 1 y_13_ ^ 2 ] <= 104437.71845531306
c41: 188 x_15_ + 10 y_15_ + [ 1 x_15_ ^ 2 + 1 y_15_ ^ 2 ] <= 67191.20762766757
c42: 188 x_16_ + 10 y_16_ + [ 1 x_16_ ^ 2 + 1 y_16_ ^ 2 ] <= 119858.79198075451
c43: 188 x_17_ + 10 y_17_ + [ 1 x_17_ ^ 2 + 1 y_17_ ^ 2 ] <= 170947.60151067495
c44: 188 x_18_ + 10 y_18_ + [ 1 x_18_ ^ 2 + 1 y_18_ ^ 2 ] <= 88428.13913179236
c45: 188 x_19_ + 10 y_19_ + [ 1 x_19_ ^ 2 + 1 y_19_ ^ 2 ] <= 592.5999999999967
c46: 188 x_20_ + 10 y_20_ + [ 1 x_20_ ^ 2 + 1 y_20_ ^ 2 ] <= 69092.62604810414
c47: 188 x_21_ + 10 y_21_ + [ 1 x_21_ ^ 2 + 1 y_21_ ^ 2 ] <= 16876.73070466062
c48: 188 x_22_ + 10 y_22_ + [ 1 x_22_ ^ 2 + 1 y_22_ ^ 2 ] <= 77796.50429070217
c49: 188 x_23_ + 10 y_23_ + [ 1 x_23_ ^ 2 + 1 y_23_ ^ 2 ] <= 150509.1918273742
c50: 188 x_24_ + 10 y_24_ + [ 1 x_24_ ^ 2 + 1 y_24_ ^ 2 ] <= 14274.059999999994
c51: 188 x_25_ + 10 y_25_ + [ 1 x_25_ ^ 2 + 1 y_25_ ^ 2 ] <= 43512.377747033024
c52: 188 x_26_ + 10 y_26_ + [ 1 x_26_ ^ 2 + 1 y_26_ ^ 2 ] <= 228043.28883390792
c53: 188 x_27_ + 10 y_27_ + [ 1 x_27_ ^ 2 + 1 y_27_ ^ 2 ] <= 81802.22753235909
c54: 188 x_28_ + 10 y_28_ + [ 1 x_28_ ^ 2 + 1 y_28_ ^ 2 ] <= 58430.84621265771
c55: -180 x_1_ + 124 y_1_ + [ 1 x_1_ ^ 2 + 1 y_1_ ^ 2 ] <= 85834.77831938954
c56: -180 x_2_ + 124 y_2_ + [ 1 x_2_ ^ 2 + 1 y_2_ ^ 2 ] <= 160516.3915711384
c57: -180 x_3_ + 124 y_3_ + [ 1 x_3_ ^ 2 + 1 y_3_ ^ 2 ] <= 24608.86729990031
c58: -180 x_4_ + 124 y_4_ + [ 1 x_4_ ^ 2 + 1 y_4_ ^ 2 ] <= 76666.98161001378
c59: -180 x_5_ + 124 y_5_ + [ 1 x_5_ ^ 2 + 1 y_5_ ^ 2 ] <= 72596.9129949877
c60: -180 x_6_ + 124 y_6_ + [ 1 x_6_ ^ 2 + 1 y_6_ ^ 2 ] <= 281888.5540233288
c61: -180 x_7_ + 124 y_7_ + [ 1 x_7_ ^ 2 + 1 y_7_ ^ 2 ] <= 112525.56105641766
c62: -180 x_8_ + 124 y_8_ + [ 1 x_8_ ^ 2 + 1 y_8_ ^ 2 ] <= 108026.36117520291
c63: -180 x_9_ + 124 y_9_ + [ 1 x_9_ ^ 2 + 1 y_9_ ^ 2 ] <= 135642.8308597615
c64: -180 x_10_ + 124 y_10_ + [ 1 x_10_ ^ 2 + 1 y_10_ ^ 2 ] <= 41602.00840660095
c65: -180 x_11_ + 124 y_11_ + [ 1 x_11_ ^ 2 + 1 y_11_ ^ 2 ] <= 167566.53782545132
c66: -180 x_12_ + 124 y_12_ + [ 1 x_12_ ^ 2 + 1 y_12_ ^ 2 ] <= 23292.879999999997
c67: -180 x_13_ + 124 y_13_ + [ 1 x_13_ ^ 2 + 1 y_13_ ^ 2 ] <= 58582.03274282919
c68: -180 x_14_ + 124 y_14_ + [ 1 x_14_ ^ 2 + 1 y_14_ ^ 2 ] <= 147426.19182737425
c69: -180 x_15_ + 124 y_15_ + [ 1 x_15_ ^ 2 + 1 y_15_ ^ 2 ] <= 80296.69228556532
c70: -180 x_16_ + 124 y_16_ + [ 1 x_16_ ^ 2 + 1 y_16_ ^ 2 ] <= 104978.63941814537
c71: -180 x_17_ + 124 y_17_ + [ 1 x_17_ ^ 2 + 1 y_17_ ^ 2 ] <= 112669.99317626847
c72: -180 x_18_ + 124 y_18_ + [ 1 x_18_ ^ 2 + 1 y_18_ ^ 2 ] <= 184451.67274973303
c73: -180 x_19_ + 124 y_19_ + [ 1 x_19_ ^ 2 + 1 y_19_ ^ 2 ] <= 86710.531893425
c74: -180 x_20_ + 124 y_20_ + [ 1 x_20_ ^ 2 + 1 y_20_ ^ 2 ] <= 136953.51518010328
c75: -180 x_21_ + 124 y_21_ + [ 1 x_21_ ^ 2 + 1 y_21_ ^ 2 ] <= 109906.05781085049
c76: -180 x_22_ + 124 y_22_ + [ 1 x_22_ ^ 2 + 1 y_22_ ^ 2 ] <= 116194.73546836701
c77: -180 x_24_ + 124 y_24_ + [ 1 x_24_ ^ 2 + 1 y_24_ ^ 2 ] <= 169373.2915492819
c78: -180 x_25_ + 124 y_25_ + [ 1 x_25_ ^ 2 + 1 y_25_ ^ 2 ] <= 111000.81192971765
c79: -180 x_26_ + 124 y_26_ + [ 1 x_26_ ^ 2 + 1 y_26_ ^ 2 ] <= 162125.40910224573
c80: -180 x_27_ + 124 y_27_ + [ 1 x_27_ ^ 2 + 1 y_27_ ^ 2 ] <= -2318.7000000000007
c81: -180 x_28_ + 124 y_28_ + [ 1 x_28_ ^ 2 + 1 y_28_ ^ 2 ] <= 11134.499999999996
quadratic_ranged_1_ub: [ 1 x_1_ ^ 2 - 2 x_2_ * x_1_ + 1 x_2_ ^ 2 + 1 y_1_ ^ 2 - 2 y_2_ * y_1_ + 1 y_2_ ^ 2 ] <= 10524.2
quadratic_ranged_2_ub: [ 1 x_1_ ^ 2 - 2 x_3_ * x_1_ + 1 x_3_ ^ 2 + 1 y_1_ ^ 2 - 2 y_3_ * y_1_ + 1 y_3_ ^ 2 ] <= 14764.18
quadratic_ranged_3_ub: [ 1 x_4_ ^ 2 - 2 x_5_ * x_4_ + 1 x_5_ ^ 2 + 1 y_4_ ^ 2 - 2 y_5_ * y_4_ + 1 y_5_ ^ 2 ] <= 1217.05
quadratic_ranged_4_ub: [ 1 x_2_ ^ 2 - 2 x_6_ * x_2_ + 1 x_6_ ^ 2 + 1 y_2_ ^ 2 - 2 y_6_ * y_2_ + 1 y_6_ ^ 2 ] <= 19829.33
quadratic_ranged_5_ub: [ 1 x_1_ ^ 2 - 2 x_7_ * x_1_ + 1 x_7_ ^ 2 + 1 y_1_ ^ 2 - 2 y_7_ * y_1_ + 1 y_7_ ^ 2 ] <= 27669.96
quadratic_ranged_6_ub: [ 1 x_4_ ^ 2 - 2 x_7_ * x_4_ + 1 x_7_ ^ 2 + 1 y_4_ ^ 2 - 2 y_7_ * y_4_ + 1 y_7_ ^ 2 ] <= 17182.12
quadratic_ranged_7_ub: [ 1 x_6_ ^ 2 - 2 x_7_ * x_6_ + 1 x_7_ ^ 2 + 1 y_6_ ^ 2 - 2 y_7_ * y_6_ + 1 y_7_ ^ 2 ] <= 35819.65
quadratic_ranged_8_ub: [ 1 x_7_ ^ 2 - 2 x_8_ * x_7_ + 1 x_8_ ^ 2 + 1 y_7_ ^ 2 - 2 y_8_ * y_7_ + 1 y_8_ ^ 2 ] <= 41.410000000000004
quadratic_ranged_9_ub: [ 1 x_1_ ^ 2 - 2 x_9_ * x_1_ + 1 x_9_ ^ 2 + 1 y_1_ ^ 2 - 2 y_9_ * y_1_ + 1 y_9_ ^ 2 ] <= 5108.58
quadratic_ranged_10_ub: [ 1 x_2_ ^ 2 - 2 x_9_ * x_2_ + 1 x_9_ ^ 2 + 1 y_2_ ^ 2 - 2 y_9_ * y_2_ + 1 y_9_ ^ 2 ] <= 17414.420000000002
quadratic_ranged_11_ub: [ 1 x_3_ ^ 2 - 2 x_10_ * x_3_ + 1 x_10_ ^ 2 + 1 y_3_ ^ 2 - 2 y_10_ * y_3_ + 1 y_10_ ^ 2 ] <= 1617.01
quadratic_ranged_12_ub: [ 1 x_4_ ^ 2 - 2 x_10_ * x_4_ + 1 x_10_ ^ 2 + 1 y_4_ ^ 2 - 2 y_10_ * y_4_ + 1 y_10_ ^ 2 ] <= 4392.49
quadratic_ranged_13_ub: [ 1 x_1_ ^ 2 - 2 x_11_ * x_1_ + 1 x_11_ ^ 2 + 1 y_1_ ^ 2 - 2 y_11_ * y_1_ + 1 y_11_ ^ 2 ] <= 12318.97
quadratic_ranged_14_ub: [ 1 x_7_ ^ 2 - 2 x_11_ * x_7_ + 1 x_11_ ^ 2 + 1 y_7_ ^ 2 - 2 y_11_ * y_7_ + 1 y_11_ ^ 2 ] <= 8064.85
quadratic_ranged_15_ub: [ 1 x_4_ ^ 2 - 2 x_12_ * x_4_ + 1 x_12_ ^ 2 + 1 y_4_ ^ 2 - 2 y_12_ * y_4_ + 1 y_12_ ^ 2 ] <= 17866.9
quadratic_ranged_16_ub: [ 1 x_5_ ^ 2 - 2 x_12_ * x_5_ + 1 x_12_ ^ 2 + 1 y_5_ ^ 2 - 2 y_12_ * y_5_ + 1 y_12_ ^ 2 ] <= 10618.13
quadratic_ranged_17_ub: [ 1 x_8_ ^ 2 - 2 x_13_ * x_8_ + 1 x_13_ ^ 2 + 1 y_8_ ^ 2 - 2 y_13_ * y_8_ + 1 y_13_ ^ 2 ] <= 6528.64
quadratic_ranged_18_ub: [ 1 x_9_ ^ 2 - 2 x_13_ * x_9_ + 1 x_13_ ^ 2 + 1 y_9_ ^ 2 - 2 y_13_ * y_9_ + 1 y_13_ ^ 2 ] <= 20407.05
quadratic_ranged_19_ub: [ 1 x_12_ ^ 2 - 2 x_13_ * x_12_ + 1 x_13_ ^ 2 + 1 y_12_ ^ 2 - 2 y_13_ * y_12_ + 1 y_13_ ^ 2 ] <= 6061.01
quadratic_ranged_20_ub: [ 1 x_2_ ^ 2 - 2 x_14_ * x_2_ + 1 x_14_ ^ 2 + 1 y_2_ ^ 2 - 2 y_14_ * y_2_ + 1 y_14_ ^ 2 ] <= 3843.05
quadratic_ranged_21_ub: [ 1 x_6_ ^ 2 - 2 x_14_ * x_6_ + 1 x_14_ ^ 2 + 1 y_6_ ^ 2 - 2 y_14_ * y_6_ + 1 y_14_ ^ 2 ] <= 37695.22
quadratic_ranged_22_ub: [ 1 x_10_ ^ 2 - 2 x_14_ * x_10_ + 1 x_14_ ^ 2 + 1 y_10_ ^ 2 - 2 y_14_ * y_10_ + 1 y_14_ ^ 2 ] <= 28160.82
quadratic_ranged_23_ub: [ 1 x_9_ ^ 2 - 2 x_15_ * x_9_ + 1 x_15_ ^ 2 + 1 y_9_ ^ 2 - 2 y_15_ * y_9_ + 1 y_15_ ^ 2 ] <= 7815.38
quadratic_ranged_24_ub: [ 1 x_12_ ^ 2 - 2 x_15_ * x_12_ + 1 x_15_ ^ 2 + 1 y_12_ ^ 2 - 2 y_15_ * y_12_ + 1 y_15_ ^ 2 ] <= 13455.22
quadratic_ranged_25_ub: [ 1 x_3_ ^ 2 - 2 x_16_ * x_3_ + 1 x_16_ ^ 2 + 1 y_3_ ^ 2 - 2 y_16_ * y_3_ + 1 y_16_ ^ 2 ] <= 22726.01
quadratic_ranged_26_ub: [ 1 x_11_ ^ 2 - 2 x_16_ * x_11_ + 1 x_16_ ^ 2 + 1 y_11_ ^ 2 - 2 y_16_ * y_11_ + 1 y_16_ ^ 2 ] <= 6958.9
quadratic_ranged_27_ub: [ 1 x_8_ ^ 2 - 2 x_17_ * x_8_ + 1 x_17_ ^ 2 + 1 y_8_ ^ 2 - 2 y_17_ * y_8_ + 1 y_17_ ^ 2 ] <= 28217.38
quadratic_ranged_28_ub: [ 1 x_13_ ^ 2 - 2 x_17_ * x_13_ + 1 x_17_ ^ 2 + 1 y_13_ ^ 2 - 2 y_17_ * y_13_ + 1 y_17_ ^ 2 ] <= 7645.7
quadratic_ranged_29_ub: [ 1 x_5_ ^ 2 - 2 x_18_ * x_5_ + 1 x_18_ ^ 2 + 1 y_5_ ^ 2 - 2 y_18_ * y_5_ + 1 y_18_ ^ 2 ] <= 36830.66
quadratic_ranged_30_ub: [ 1 x_6_ ^ 2 - 2 x_18_ * x_6_ + 1 x_18_ ^ 2 + 1 y_6_ ^ 2 - 2 y_18_ * y_6_ + 1 y_18_ ^ 2 ] <= 13867.3
quadratic_ranged_31_ub: [ 1 x_8_ ^ 2 - 2 x_18_ * x_8_ + 1 x_18_ ^ 2 + 1 y_8_ ^ 2 - 2 y_18_ * y_8_ + 1 y_18_ ^ 2 ] <= 37854.8
quadratic_ranged_32_ub: [ 1 x_14_ ^ 2 - 2 x_19_ * x_14_ + 1 x_19_ ^ 2 + 1 y_14_ ^ 2 - 2 y_19_ * y_14_ + 1 y_19_ ^ 2 ] <= 9453.6
quadratic_ranged_33_ub: [ 1 x_13_ ^ 2 - 2 x_20_ * x_13_ + 1 x_20_ ^ 2 + 1 y_13_ ^ 2 - 2 y_20_ * y_13_ + 1 y_20_ ^ 2 ] <= 14473.3
quadratic_ranged_34_ub: [ 1 x_18_ ^ 2 - 2 x_20_ * x_18_ + 1 x_20_ ^ 2 + 1 y_18_ ^ 2 - 2 y_20_ * y_18_ + 1 y_20_ ^ 2 ] <= 3282.5
quadratic_ranged_35_ub: [ 1 x_19_ ^ 2 - 2 x_20_ * x_19_ + 1 x_20_ ^ 2 + 1 y_19_ ^ 2 - 2 y_20_ * y_19_ + 1 y_20_ ^ 2 ] <= 33113.86
quadratic_ranged_36_ub: [ 1 x_2_ ^ 2 - 2 x_21_ * x_2_ + 1 x_21_ ^ 2 + 1 y_2_ ^ 2 - 2 y_21_ * y_2_ + 1 y_21_ ^ 2 ] <= 9689.94
quadratic_ranged_37_ub: [ 1 x_3_ ^ 2 - 2 x_21_ * x_3_ + 1 x_21_ ^ 2 + 1 y_3_ ^ 2 - 2 y_21_ * y_3_ + 1 y_21_ ^ 2 ] <= 24926.8
quadratic_ranged_38_ub: [ 1 x_10_ ^ 2 - 2 x_21_ * x_10_ + 1 x_21_ ^ 2 + 1 y_10_ ^ 2 - 2 y_21_ * y_10_ + 1 y_21_ ^ 2 ] <= 21562.49
quadratic_ranged_39_ub: [ 1 x_10_ ^ 2 - 2 x_22_ * x_10_ + 1 x_22_ ^ 2 + 1 y_10_ ^ 2 - 2 y_22_ * y_10_ + 1 y_22_ ^ 2 ] <= 16018.6
quadratic_ranged_40_ub: [ 1 x_20_ ^ 2 - 2 x_22_ * x_20_ + 1 x_22_ ^ 2 + 1 y_20_ ^ 2 - 2 y_22_ * y_20_ + 1 y_22_ ^ 2 ] <= 35830.76
quadratic_ranged_41_ub: [ 1 x_12_ ^ 2 - 2 x_23_ * x_12_ + 1 x_23_ ^ 2 + 1 y_12_ ^ 2 - 2 y_23_ * y_12_ + 1 y_23_ ^ 2 ] <= 35236.88
quadratic_ranged_42_ub: [ 1 x_4_ ^ 2 - 2 x_24_ * x_4_ + 1 x_24_ ^ 2 + 1 y_4_ ^ 2 - 2 y_24_ * y_4_ + 1 y_24_ ^ 2 ] <= 23457.25
quadratic_ranged_43_ub: [ 1 x_9_ ^ 2 - 2 x_24_ * x_9_ + 1 x_24_ ^ 2 + 1 y_9_ ^ 2 - 2 y_24_ * y_9_ + 1 y_24_ ^ 2 ] <= 1734.17
quadratic_ranged_44_ub: [ 1 x_14_ ^ 2 - 2 x_24_ * x_14_ + 1 x_24_ ^ 2 + 1 y_14_ ^ 2 - 2 y_24_ * y_14_ + 1 y_24_ ^ 2 ] <= 23135.06
quadratic_ranged_45_ub: [ 1 x_15_ ^ 2 - 2 x_25_ * x_15_ + 1 x_25_ ^ 2 + 1 y_15_ ^ 2 - 2 y_25_ * y_15_ + 1 y_25_ ^ 2 ] <= 2201.8
quadratic_ranged_46_ub: [ 1 x_19_ ^ 2 - 2 x_25_ * x_19_ + 1 x_25_ ^ 2 + 1 y_19_ ^ 2 - 2 y_25_ * y_19_ + 1 y_25_ ^ 2 ] <= 17324.53
quadratic_ranged_47_ub: [ 1 x_11_ ^ 2 - 2 x_26_ * x_11_ + 1 x_26_ ^ 2 + 1 y_11_ ^ 2 - 2 y_26_ * y_11_ + 1 y_26_ ^ 2 ] <= 44587.46
quadratic_ranged_48_ub: [ 1 x_17_ ^ 2 - 2 x_26_ * x_17_ + 1 x_26_ ^ 2 + 1 y_17_ ^ 2 - 2 y_26_ * y_17_ + 1 y_26_ ^ 2 ] <= 4122.82
quadratic_ranged_49_ub: [ 1 x_3_ ^ 2 - 2 x_27_ * x_3_ + 1 x_27_ ^ 2 + 1 y_3_ ^ 2 - 2 y_27_ * y_3_ + 1 y_27_ ^ 2 ] <= 8663.78
quadratic_ranged_50_ub: [ 1 x_23_ ^ 2 - 2 x_27_ * x_23_ + 1 x_27_ ^ 2 + 1 y_23_ ^ 2 - 2 y_27_ * y_23_ + 1 y_27_ ^ 2 ] <= 9625.3
quadratic_ranged_51_ub: [ 1 x_3_ ^ 2 - 2 x_28_ * x_3_ + 1 x_28_ ^ 2 + 1 y_3_ ^ 2 - 2 y_28_ * y_3_ + 1 y_28_ ^ 2 ] <= 19127.38
quadratic_ranged_52_ub: [ 1 x_19_ ^ 2 - 2 x_28_ * x_19_ + 1 x_28_ ^ 2 + 1 y_19_ ^ 2 - 2 y_28_ * y_19_ + 1 y_28_ ^ 2 ] <= 26301.41
quadratic_ranged_53_ub: [ 1 x_23_ ^ 2 - 2 x_28_ * x_23_ + 1 x_28_ ^ 2 + 1 y_23_ ^ 2 - 2 y_28_ * y_23_ + 1 y_28_ ^ 2 ] <= 23078.5
quadratic_ranged_1_lb: [ 1 x_1_ ^ 2 - 2 x_2_ * x_1_ + 1 x_2_ ^ 2 + 1 y_1_ ^ 2 - 2 y_2_ * y_1_ + 1 y_2_ ^ 2 ] >= 10315.8
quadratic_ranged_2_lb: [ 1 x_1_ ^ 2 - 2 x_3_ * x_1_ + 1 x_3_ ^ 2 + 1 y_1_ ^ 2 - 2 y_3_ * y_1_ + 1 y_3_ ^ 2 ] >= 14471.82
quadratic_ranged_3_lb: [ 1 x_4_ ^ 2 - 2 x_5_ * x_4_ + 1 x_5_ ^ 2 + 1 y_4_ ^ 2 - 2 y_5_ * y_4_ + 1 y_5_ ^ 2 ] >= 1192.95
quadratic_ranged_4_lb: [ 1 x_2_ ^ 2 - 2 x_6_ * x_2_ + 1 x_6_ ^ 2 + 1 y_2_ ^ 2 - 2 y_6_ * y_2_ + 1 y_6_ ^ 2 ] >= 19436.67
quadratic_ranged_5_lb: [ 1 x_1_ ^ 2 - 2 x_7_ * x_1_ + 1 x_7_ ^ 2 + 1 y_1_ ^ 2 - 2 y_7_ * y_1_ + 1 y_7_ ^ 2 ] >= 27122.04
quadratic_ranged_6_lb: [ 1 x_4_ ^ 2 - 2 x_7_ * x_4_ + 1 x_7_ ^ 2 + 1 y_4_ ^ 2 - 2 y_7_ * y_4_ + 1 y_7_ ^ 2 ] >= 16841.88
quadratic_ranged_7_lb: [ 1 x_6_ ^ 2 - 2 x_7_ * x_6_ + 1 x_7_ ^ 2 + 1 y_6_ ^ 2 - 2 y_7_ * y_6_ + 1 y_7_ ^ 2 ] >= 35110.35
quadratic_ranged_8_lb: [ 1 x_7_ ^ 2 - 2 x_8_ * x_7_ + 1 x_8_ ^ 2 + 1 y_7_ ^ 2 - 2 y_8_ * y_7_ + 1 y_8_ ^ 2 ] >= 40.589999999999996
quadratic_ranged_9_lb: [ 1 x_1_ ^ 2 - 2 x_9_ * x_1_ + 1 x_9_ ^ 2 + 1 y_1_ ^ 2 - 2 y_9_ * y_1_ + 1 y_9_ ^ 2 ] >= 5007.42
quadratic_ranged_10_lb: [ 1 x_2_ ^ 2 - 2 x_9_ * x_2_ + 1 x_9_ ^ 2 + 1 y_2_ ^ 2 - 2 y_9_ * y_2_ + 1 y_9_ ^ 2 ] >= 17069.579999999998
quadratic_ranged_11_lb: [ 1 x_3_ ^ 2 - 2 x_10_ * x_3_ + 1 x_10_ ^ 2 + 1 y_3_ ^ 2 - 2 y_10_ * y_3_ + 1 y_10_ ^ 2 ] >= 1584.99
quadratic_ranged_12_lb: [ 1 x_4_ ^ 2 - 2 x_10_ * x_4_ + 1 x_10_ ^ 2 + 1 y_4_ ^ 2 - 2 y_10_ * y_4_ + 1 y_10_ ^ 2 ] >= 4305.51
quadratic_ranged_13_lb: [ 1 x_1_ ^ 2 - 2 x_11_ * x_1_ + 1 x_11_ ^ 2 + 1 y_1_ ^ 2 - 2 y_11_ * y_1_ + 1 y_11_ ^ 2 ] >= 12075.03
quadratic_ranged_14_lb: [ 1 x_7_ ^ 2 - 2 x_11_ * x_7_ + 1 x_11_ ^ 2 + 1 y_7_ ^ 2 - 2 y_11_ * y_7_ + 1 y_11_ ^ 2 ] >= 7905.15
quadratic_ranged_15_lb: [ 1 x_4_ ^ 2 - 2 x_12_ * x_4_ + 1 x_12_ ^ 2 + 1 y_4_ ^ 2 - 2 y_12_ * y_4_ + 1 y_12_ ^ 2 ] >= 17513.1
quadratic_ranged_16_lb: [ 1 x_5_ ^ 2 - 2 x_12_ * x_5_ + 1 x_12_ ^ 2 + 1 y_5_ ^ 2 - 2 y_12_ * y_5_ + 1 y_12_ ^ 2 ] >= 10407.87
quadratic_ranged_17_lb: [ 1 x_8_ ^ 2 - 2 x_13_ * x_8_ + 1 x_13_ ^ 2 + 1 y_8_ ^ 2 - 2 y_13_ * y_8_ + 1 y_13_ ^ 2 ] >= 6399.36
quadratic_ranged_18_lb: [ 1 x_9_ ^ 2 - 2 x_13_ * x_9_ + 1 x_13_ ^ 2 + 1 y_9_ ^ 2 - 2 y_13_ * y_9_ + 1 y_13_ ^ 2 ] >= 20002.95
quadratic_ranged_19_lb: [ 1 x_12_ ^ 2 - 2 x_13_ * x_12_ + 1 x_13_ ^ 2 + 1 y_12_ ^ 2 - 2 y_13_ * y_12_ + 1 y_13_ ^ 2 ] >= 5940.99
quadratic_ranged_20_lb: [ 1 x_2_ ^ 2 - 2 x_14_ * x_2_ + 1 x_14_ ^ 2 + 1 y_2_ ^ 2 - 2 y_14_ * y_2_ + 1 y_14_ ^ 2 ] >= 3766.95
quadratic_ranged_21_lb: [ 1 x_6_ ^ 2 - 2 x_14_ * x_6_ + 1 x_14_ ^ 2 + 1 y_6_ ^ 2 - 2 y_14_ * y_6_ + 1 y_14_ ^ 2 ] >= 36948.78
quadratic_ranged_22_lb: [ 1 x_10_ ^ 2 - 2 x_14_ * x_10_ + 1 x_14_ ^ 2 + 1 y_10_ ^ 2 - 2 y_14_ * y_10_ + 1 y_14_ ^ 2 ] >= 27603.18
quadratic_ranged_23_lb: [ 1 x_9_ ^ 2 - 2 x_15_ * x_9_ + 1 x_15_ ^ 2 + 1 y_9_ ^ 2 - 2 y_15_ * y_9_ + 1 y_15_ ^ 2 ] >= 7660.62
quadratic_ranged_24_lb: [ 1 x_12_ ^ 2 - 2 x_15_ * x_12_ + 1 x_15_ ^ 2 + 1 y_12_ ^ 2 - 2 y_15_ * y_12_ + 1 y_15_ ^ 2 ] >= 13188.78
quadratic_ranged_25_lb: [ 1 x_3_ ^ 2 - 2 x_16_ * x_3_ + 1 x_16_ ^ 2 + 1 y_3_ ^ 2 - 2 y_16_ * y_3_ + 1 y_16_ ^ 2 ] >= 22275.99
quadratic_ranged_26_lb: [ 1 x_11_ ^ 2 - 2 x_16_ * x_11_ + 1 x_16_ ^ 2 + 1 y_11_ ^ 2 - 2 y_16_ * y_11_ + 1 y_16_ ^ 2 ] >= 6821.1
quadratic_ranged_27_lb: [ 1 x_8_ ^ 2 - 2 x_17_ * x_8_ + 1 x_17_ ^ 2 + 1 y_8_ ^ 2 - 2 y_17_ * y_8_ + 1 y_17_ ^ 2 ] >= 27658.62
quadratic_ranged_28_lb: [ 1 x_13_ ^ 2 - 2 x_17_ * x_13_ + 1 x_17_ ^ 2 + 1 y_13_ ^ 2 - 2 y_17_ * y_13_ + 1 y_17_ ^ 2 ] >= 7494.3
quadratic_ranged_29_lb: [ 1 x_5_ ^ 2 - 2 x_18_ * x_5_ + 1 x_18_ ^ 2 + 1 y_5_ ^ 2 - 2 y_18_ * y_5_ + 1 y_18_ ^ 2 ] >= 36101.34
quadratic_ranged_30_lb: [ 1 x_6_ ^ 2 - 2 x_18_ * x_6_ + 1 x_18_ ^ 2 + 1 y_6_ ^ 2 - 2 y_18_ * y_6_ + 1 y_18_ ^ 2 ] >= 13592.7
quadratic_ranged_31_lb: [ 1 x_8_ ^ 2 - 2 x_18_ * x_8_ + 1 x_18_ ^ 2 + 1 y_8_ ^ 2 - 2 y_18_ * y_8_ + 1 y_18_ ^ 2 ] >= 37105.2
quadratic_ranged_32_lb: [ 1 x_14_ ^ 2 - 2 x_19_ * x_14_ + 1 x_19_ ^ 2 + 1 y_14_ ^ 2 - 2 y_19_ * y_14_ + 1 y_19_ ^ 2 ] >= 9266.4
quadratic_ranged_33_lb: [ 1 x_13_ ^ 2 - 2 x_20_ * x_13_ + 1 x_20_ ^ 2 + 1 y_13_ ^ 2 - 2 y_20_ * y_13_ + 1 y_20_ ^ 2 ] >= 14186.7
quadratic_ranged_34_lb: [ 1 x_18_ ^ 2 - 2 x_20_ * x_18_ + 1 x_20_ ^ 2 + 1 y_18_ ^ 2 - 2 y_20_ * y_18_ + 1 y_20_ ^ 2 ] >= 3217.5
quadratic_ranged_35_lb: [ 1 x_19_ ^ 2 - 2 x_20_ * x_19_ + 1 x_20_ ^ 2 + 1 y_19_ ^ 2 - 2 y_20_ * y_19_ + 1 y_20_ ^ 2 ] >= 32458.14
quadratic_ranged_36_lb: [ 1 x_2_ ^ 2 - 2 x_21_ * x_2_ + 1 x_21_ ^ 2 + 1 y_2_ ^ 2 - 2 y_21_ * y_2_ + 1 y_21_ ^ 2 ] >= 9498.06
quadratic_ranged_37_lb: [ 1 x_3_ ^ 2 - 2 x_21_ * x_3_ + 1 x_21_ ^ 2 + 1 y_3_ ^ 2 - 2 y_21_ * y_3_ + 1 y_21_ ^ 2 ] >= 24433.2
quadratic_ranged_38_lb: [ 1 x_10_ ^ 2 - 2 x_21_ * x_10_ + 1 x_21_ ^ 2 + 1 y_10_ ^ 2 - 2 y_21_ * y_10_ + 1 y_21_ ^ 2 ] >= 21135.51
quadratic_ranged_39_lb: [ 1 x_10_ ^ 2 - 2 x_22_ * x_10_ + 1 x_22_ ^ 2 + 1 y_10_ ^ 2 - 2 y_22_ * y_10_ + 1 y_22_ ^ 2 ] >= 15701.4
quadratic_ranged_40_lb: [ 1 x_20_ ^ 2 - 2 x_22_ * x_20_ + 1 x_22_ ^ 2 + 1 y_20_ ^ 2 - 2 y_22_ * y_20_ + 1 y_22_ ^ 2 ] >= 35121.24
quadratic_ranged_41_lb: [ 1 x_12_ ^ 2 - 2 x_23_ * x_12_ + 1 x_23_ ^ 2 + 1 y_12_ ^ 2 - 2 y_23_ * y_12_ + 1 y_23_ ^ 2 ] >= 34539.12
quadratic_ranged_42_lb: [ 1 x_4_ ^ 2 - 2 x_24_ * x_4_ + 1 x_24_ ^ 2 + 1 y_4_ ^ 2 - 2 y_24_ * y_4_ + 1 y_24_ ^ 2 ] >= 22992.75
quadratic_ranged_43_lb: [ 1 x_9_ ^ 2 - 2 x_24_ * x_9_ + 1 x_24_ ^ 2 + 1 y_9_ ^ 2 - 2 y_24_ * y_9_ + 1 y_24_ ^ 2 ] >= 1699.83
quadratic_ranged_44_lb: [ 1 x_14_ ^ 2 - 2 x_24_ * x_14_ + 1 x_24_ ^ 2 + 1 y_14_ ^ 2 - 2 y_24_ * y_14_ + 1 y_24_ ^ 2 ] >= 22676.94
quadratic_ranged_45_lb: [ 1 x_15_ ^ 2 - 2 x_25_ * x_15_ + 1 x_25_ ^ 2 + 1 y_15_ ^ 2 - 2 y_25_ * y_15_ + 1 y_25_ ^ 2 ] >= 2158.2
quadratic_ranged_46_lb: [ 1 x_19_ ^ 2 - 2 x_25_ * x_19_ + 1 x_25_ ^ 2 + 1 y_19_ ^ 2 - 2 y_25_ * y_19_ + 1 y_25_ ^ 2 ] >= 16981.47
quadratic_ranged_47_lb: [ 1 x_11_ ^ 2 - 2 x_26_ * x_11_ + 1 x_26_ ^ 2 + 1 y_11_ ^ 2 - 2 y_26_ * y_11_ + 1 y_26_ ^ 2 ] >= 43704.54
quadratic_ranged_48_lb: [ 1 x_17_ ^ 2 - 2 x_26_ * x_17_ + 1 x_26_ ^ 2 + 1 y_17_ ^ 2 - 2 y_26_ * y_17_ + 1 y_26_ ^ 2 ] >= 4041.18
quadratic_ranged_49_lb: [ 1 x_3_ ^ 2 - 2 x_27_ * x_3_ + 1 x_27_ ^ 2 + 1 y_3_ ^ 2 - 2 y_27_ * y_3_ + 1 y_27_ ^ 2 ] >= 8492.22
quadratic_ranged_50_lb: [ 1 x_23_ ^ 2 - 2 x_27_ * x_23_ + 1 x_27_ ^ 2 + 1 y_23_ ^ 2 - 2 y_27_ * y_23_ + 1 y_27_ ^ 2 ] >= 9434.7
quadratic_ranged_51_lb: [ 1 x_3_ ^ 2 - 2 x_28_ * x_3_ + 1 x_28_ ^ 2 + 1 y_3_ ^ 2 - 2 y_28_ * y_3_ + 1 y_28_ ^ 2 ] >= 18748.62
quadratic_ranged_52_lb: [ 1 x_19_ ^ 2 - 2 x_28_ * x_19_ + 1 x_28_ ^ 2 + 1 y_19_ ^ 2 - 2 y_28_ * y_19_ + 1 y_28_ ^ 2 ] >= 25780.59
quadratic_ranged_53_lb: [ 1 x_23_ ^ 2 - 2 x_28_ * x_23_ + 1 x_28_ ^ 2 + 1 y_23_ ^ 2 - 2 y_28_ * y_23_ + 1 y_28_ ^ 2 ] >= 22621.5
c1_1: 1 x_16_ = -84
c2_1: 1 y_16_ = -17
c3_1: 1 x_14_ = -94
c4_1: 1 y_14_ = -5
c5_1: 1 x_23_ = 90
c6_1: 1 y_23_ = -62
Bounds
-222 <= x_1_ <= 70
-155 <= x_2_ <= -33
-101 <= x_3_ <= 66
-207 <= x_4_ <= 140
-200 <= x_5_ <= 174
-288 <= x_6_ <= 100
-257 <= x_7_ <= 89
-256 <= x_8_ <= 95
-287 <= x_9_ <= 99
-141 <= x_10_ <= 73
-167 <= x_11_ <= -1
-97 <= x_12_ <= 254
-175 <= x_13_ <= 176
x_14_ = -94
-213 <= x_15_ <= 181
x_16_ = -84
-263 <= x_17_ <= 263
-353 <= x_18_ <= 217
-191 <= x_19_ <= 3
-295 <= x_20_ <= 185
-254 <= x_21_ <= 66
-267 <= x_22_ <= 200
x_23_ = 90
-246 <= x_24_ <= 58
-260 <= x_25_ <= 134
-327 <= x_26_ <= 210
-8 <= x_27_ <= 159
-61 <= x_28_ <= 165
-169 <= y_1_ <= 159
-66 <= y_2_ <= 56
-167 <= y_3_ <= 129
-239 <= y_4_ <= 229
-273 <= y_5_ <= 228
-199 <= y_6_ <= 189
-190 <= y_7_ <= 156
-196 <= y_8_ <= 162
-198 <= y_9_ <= 188
-172 <= y_10_ <= 162
-100 <= y_11_ <= 66
-249 <= y_12_ <= 125
-277 <= y_13_ <= 203
y_14_ = -5
-280 <= y_15_ <= 241
y_16_ = -17
-364 <= y_17_ <= 291
-316 <= y_18_ <= 306
-102 <= y_19_ <= 92
-284 <= y_20_ <= 274
-165 <= y_21_ <= 155
-299 <= y_22_ <= 289
y_23_ = -62
-157 <= y_24_ <= 147
-233 <= y_25_ <= 223
-311 <= y_26_ <= 277
-160 <= y_27_ <= 36
-213 <= y_28_ <= 89
General
x_1_
x_2_
x_3_
x_4_
x_5_
x_6_
x_7_
x_8_
x_9_
x_10_
x_11_
x_12_
x_13_
x_14_
x_15_
x_16_
x_17_
x_18_
x_19_
x_20_
x_21_
x_22_
x_23_
x_24_
x_25_
x_26_
x_27_
x_28_
y_1_
y_2_
y_3_
y_4_
y_5_
y_6_
y_7_
y_8_
y_9_
y_10_
y_11_
y_12_
y_13_
y_14_
y_15_
y_16_
y_17_
y_18_
y_19_
y_20_
y_21_
y_22_
y_23_
y_24_
y_25_
y_26_
y_27_
y_28_
End
