minimize
obj: 
subject to
c1_1: 116 x_1_ + 110 y_1_ + [ 1 x_1_ ^ 2 + 1 y_1_ ^ 2 ] <= 319620
c2_1: 116 x_2_ + 110 y_2_ + [ 1 x_2_ ^ 2 + 1 y_2_ ^ 2 ] <= 234669
c3_1: 116 x_3_ + 110 y_3_ + [ 1 x_3_ ^ 2 + 1 y_3_ ^ 2 ] <= 176335
c4_1: 116 x_4_ + 110 y_4_ + [ 1 x_4_ ^ 2 + 1 y_4_ ^ 2 ] <= 115325
c5_1: 116 x_5_ + 110 y_5_ + [ 1 x_5_ ^ 2 + 1 y_5_ ^ 2 ] <= 155121
c6_1: 116 x_6_ + 110 y_6_ + [ 1 x_6_ ^ 2 + 1 y_6_ ^ 2 ] <= 80435
c7_1: 116 x_7_ + 110 y_7_ + [ 1 x_7_ ^ 2 + 1 y_7_ ^ 2 ] <= 29536
c8_1: 116 x_8_ + 110 y_8_ + [ 1 x_8_ ^ 2 + 1 y_8_ ^ 2 ] <= 61684
c9_1: 116 x_9_ + 110 y_9_ + [ 1 x_9_ ^ 2 + 1 y_9_ ^ 2 ] <= 35101
c10_1: 116 x_10_ + 110 y_10_ + [ 1 x_10_ ^ 2 + 1 y_10_ ^ 2 ] <= 51718
c11_1: 116 x_11_ + 110 y_11_ + [ 1 x_11_ ^ 2 + 1 y_11_ ^ 2 ] <= 13971
c12_1: 116 x_13_ + 110 y_13_ + [ 1 x_13_ ^ 2 + 1 y_13_ ^ 2 ] <= 11661
c13_1: 116 x_14_ + 110 y_14_ + [ 1 x_14_ ^ 2 + 1 y_14_ ^ 2 ] <= 25485
c14_1: 116 x_15_ + 110 y_15_ + [ 1 x_15_ ^ 2 + 1 y_15_ ^ 2 ] <= 62968
c15_1: 116 x_16_ + 110 y_16_ + [ 1 x_16_ ^ 2 + 1 y_16_ ^ 2 ] <= 18111
c16_1: 116 x_17_ + 110 y_17_ + [ 1 x_17_ ^ 2 + 1 y_17_ ^ 2 ] <= 49608
c17_1: 116 x_18_ + 110 y_18_ + [ 1 x_18_ ^ 2 + 1 y_18_ ^ 2 ] <= 61651
c18_1: 116 x_19_ + 110 y_19_ + [ 1 x_19_ ^ 2 + 1 y_19_ ^ 2 ] <= 132691
c19_1: 116 x_20_ + 110 y_20_ + [ 1 x_20_ ^ 2 + 1 y_20_ ^ 2 ] <= 178674
c20_1: 116 x_21_ + 110 y_21_ + [ 1 x_21_ ^ 2 + 1 y_21_ ^ 2 ] <= 86401
c21_1: 116 x_22_ + 110 y_22_ + [ 1 x_22_ ^ 2 + 1 y_22_ ^ 2 ] <= 100582
c22_1: 116 x_23_ + 110 y_23_ + [ 1 x_23_ ^ 2 + 1 y_23_ ^ 2 ] <= 169844
c23_1: 116 x_24_ + 110 y_24_ + [ 1 x_24_ ^ 2 + 1 y_24_ ^ 2 ] <= 91523
c24_1: 116 x_25_ + 110 y_25_ + [ 1 x_25_ ^ 2 + 1 y_25_ ^ 2 ] <= 77254
c25_1: 116 x_26_ + 110 y_26_ + [ 1 x_26_ ^ 2 + 1 y_26_ ^ 2 ] <= 144577
c26_1: -14 x_1_ + 166 y_1_ + [ 1 x_1_ ^ 2 + 1 y_1_ ^ 2 ] <= 252974
c27_1: -14 x_2_ + 166 y_2_ + [ 1 x_2_ ^ 2 + 1 y_2_ ^ 2 ] <= 203265
c28_1: -14 x_3_ + 166 y_3_ + [ 1 x_3_ ^ 2 + 1 y_3_ ^ 2 ] <= 149060
c29_1: -14 x_4_ + 166 y_4_ + [ 1 x_4_ ^ 2 + 1 y_4_ ^ 2 ] <= 93157
c30_1: -14 x_5_ + 166 y_5_ + [ 1 x_5_ ^ 2 + 1 y_5_ ^ 2 ] <= 68342
c31_1: -14 x_6_ + 166 y_6_ + [ 1 x_6_ ^ 2 + 1 y_6_ ^ 2 ] <= 88341
c32_1: -14 x_7_ + 166 y_7_ + [ 1 x_7_ ^ 2 + 1 y_7_ ^ 2 ] <= 34496
c33_1: -14 x_8_ + 166 y_8_ + [ 1 x_8_ ^ 2 + 1 y_8_ ^ 2 ] <= 45234
c34_1: -14 x_9_ + 166 y_9_ + [ 1 x_9_ ^ 2 + 1 y_9_ ^ 2 ] <= 50647
c35_1: -14 x_10_ + 166 y_10_ + [ 1 x_10_ ^ 2 + 1 y_10_ ^ 2 ] <= 34111
c36_1: -14 x_11_ + 166 y_11_ + [ 1 x_11_ ^ 2 + 1 y_11_ ^ 2 ] <= 120946
c37_1: -14 x_12_ + 166 y_12_ + [ 1 x_12_ ^ 2 + 1 y_12_ ^ 2 ] <= 100033
c38_1: -14 x_13_ + 166 y_13_ + [ 1 x_13_ ^ 2 + 1 y_13_ ^ 2 ] <= 88733
c39_1: -14 x_14_ + 166 y_14_ + [ 1 x_14_ ^ 2 + 1 y_14_ ^ 2 ] <= 118017
c40_1: -14 x_15_ + 166 y_15_ + [ 1 x_15_ ^ 2 + 1 y_15_ ^ 2 ] <= 69997
c41_1: -14 x_16_ + 166 y_16_ + [ 1 x_16_ ^ 2 + 1 y_16_ ^ 2 ] <= 22146
c42: -14 x_17_ + 166 y_17_ + [ 1 x_17_ ^ 2 + 1 y_17_ ^ 2 ] <= 1239
c43: -14 x_18_ + 166 y_18_ + [ 1 x_18_ ^ 2 + 1 y_18_ ^ 2 ] <= -1077
c44: -14 x_19_ + 166 y_19_ + [ 1 x_19_ ^ 2 + 1 y_19_ ^ 2 ] <= 28649
c45: -14 x_20_ + 166 y_20_ + [ 1 x_20_ ^ 2 + 1 y_20_ ^ 2 ] <= 56969
c46: -14 x_21_ + 166 y_21_ + [ 1 x_21_ ^ 2 + 1 y_21_ ^ 2 ] <= 9248
c47: -14 x_23_ + 166 y_23_ + [ 1 x_23_ ^ 2 + 1 y_23_ ^ 2 ] <= 14735
c48: -14 x_24_ + 166 y_24_ + [ 1 x_24_ ^ 2 + 1 y_24_ ^ 2 ] <= 57634
c49: -14 x_25_ + 166 y_25_ + [ 1 x_25_ ^ 2 + 1 y_25_ ^ 2 ] <= 58964
c50: -14 x_26_ + 166 y_26_ + [ 1 x_26_ ^ 2 + 1 y_26_ ^ 2 ] <= 100244
c51: 166 x_1_ - 148 y_1_ + [ 1 x_1_ ^ 2 + 1 y_1_ ^ 2 ] <= 141644
c52: 166 x_2_ - 148 y_2_ + [ 1 x_2_ ^ 2 + 1 y_2_ ^ 2 ] <= 148281
c53: 166 x_3_ - 148 y_3_ + [ 1 x_3_ ^ 2 + 1 y_3_ ^ 2 ] <= 101402
c54: 166 x_4_ - 148 y_4_ + [ 1 x_4_ ^ 2 + 1 y_4_ ^ 2 ] <= 54564
c55: 166 x_5_ - 148 y_5_ + [ 1 x_5_ ^ 2 + 1 y_5_ ^ 2 ] <= 117492
c56: 166 x_6_ - 148 y_6_ + [ 1 x_6_ ^ 2 + 1 y_6_ ^ 2 ] <= 109978
c57: 166 x_7_ - 148 y_7_ + [ 1 x_7_ ^ 2 + 1 y_7_ ^ 2 ] <= 47492
c58: 166 x_8_ - 148 y_8_ + [ 1 x_8_ ^ 2 + 1 y_8_ ^ 2 ] <= 16787
c59: 166 x_9_ - 148 y_9_ + [ 1 x_9_ ^ 2 + 1 y_9_ ^ 2 ] <= 522
c60: 166 x_10_ - 148 y_10_ + [ 1 x_10_ ^ 2 + 1 y_10_ ^ 2 ] <= 10401
c61: 166 x_11_ - 148 y_11_ + [ 1 x_11_ ^ 2 + 1 y_11_ ^ 2 ] <= 81202
c62: 166 x_12_ - 148 y_12_ + [ 1 x_12_ ^ 2 + 1 y_12_ ^ 2 ] <= 19509
c63: 166 x_13_ - 148 y_13_ + [ 1 x_13_ ^ 2 + 1 y_13_ ^ 2 ] <= -10413
c64: 166 x_15_ - 148 y_15_ + [ 1 x_15_ ^ 2 + 1 y_15_ ^ 2 ] <= -1380
c65: 166 x_16_ - 148 y_16_ + [ 1 x_16_ ^ 2 + 1 y_16_ ^ 2 ] <= 32427
c66: 166 x_17_ - 148 y_17_ + [ 1 x_17_ ^ 2 + 1 y_17_ ^ 2 ] <= 56837
c67: 166 x_18_ - 148 y_18_ + [ 1 x_18_ ^ 2 + 1 y_18_ ^ 2 ] <= 70159
c68: 166 x_19_ - 148 y_19_ + [ 1 x_19_ ^ 2 + 1 y_19_ ^ 2 ] <= 109263
c69: 166 x_20_ - 148 y_20_ + [ 1 x_20_ ^ 2 + 1 y_20_ ^ 2 ] <= 196133
c70: 166 x_21_ - 148 y_21_ + [ 1 x_21_ ^ 2 + 1 y_21_ ^ 2 ] <= 97223
c71: 166 x_22_ - 148 y_22_ + [ 1 x_22_ ^ 2 + 1 y_22_ ^ 2 ] <= 112590
c72: 166 x_23_ - 148 y_23_ + [ 1 x_23_ ^ 2 + 1 y_23_ ^ 2 ] <= 96293
c73: 166 x_24_ - 148 y_24_ + [ 1 x_24_ ^ 2 + 1 y_24_ ^ 2 ] <= 37248
c74: 166 x_25_ - 148 y_25_ + [ 1 x_25_ ^ 2 + 1 y_25_ ^ 2 ] <= 27253
c75: 166 x_26_ - 148 y_26_ + [ 1 x_26_ ^ 2 + 1 y_26_ ^ 2 ] <= 31740
c1_2: 1 x_12_ = -58
c2_2: 1 y_12_ = -55
c3_2: 1 x_22_ = 7
c4_2: 1 y_22_ = -83
c5_2: 1 x_14_ = -83
c6_2: 1 y_14_ = 74
c1: [ 1 x_1_ ^ 2 - 2 x_2_ * x_1_ + 1 x_2_ ^ 2 + 1 y_1_ ^ 2 - 2 y_2_ * y_1_ + 1 y_2_ ^ 2 ] = 11413
c2: [ 1 x_2_ ^ 2 - 2 x_3_ * x_2_ + 1 x_3_ ^ 2 + 1 y_2_ ^ 2 - 2 y_3_ * y_2_ + 1 y_3_ ^ 2 ] = 4034
c3: [ 1 x_3_ ^ 2 - 2 x_4_ * x_3_ + 1 x_4_ ^ 2 + 1 y_3_ ^ 2 - 2 y_4_ * y_3_ + 1 y_4_ ^ 2 ] = 6176
c4: [ 1 x_4_ ^ 2 - 2 x_5_ * x_4_ + 1 x_5_ ^ 2 + 1 y_4_ ^ 2 - 2 y_5_ * y_4_ + 1 y_5_ ^ 2 ] = 10333
c5: [ 1 x_5_ ^ 2 - 2 x_6_ * x_5_ + 1 x_6_ ^ 2 + 1 y_5_ ^ 2 - 2 y_6_ * y_5_ + 1 y_6_ ^ 2 ] = 11497
c6: [ 1 x_6_ ^ 2 - 2 x_7_ * x_6_ + 1 x_7_ ^ 2 + 1 y_6_ ^ 2 - 2 y_7_ * y_6_ + 1 y_7_ ^ 2 ] = 11050
c7: [ 1 x_4_ ^ 2 - 2 x_8_ * x_4_ + 1 x_8_ ^ 2 + 1 y_4_ ^ 2 - 2 y_8_ * y_4_ + 1 y_8_ ^ 2 ] = 7738
c8: [ 1 x_7_ ^ 2 - 2 x_8_ * x_7_ + 1 x_8_ ^ 2 + 1 y_7_ ^ 2 - 2 y_8_ * y_7_ + 1 y_8_ ^ 2 ] = 29090
c9: [ 1 x_8_ ^ 2 - 2 x_9_ * x_8_ + 1 x_9_ ^ 2 + 1 y_8_ ^ 2 - 2 y_9_ * y_8_ + 1 y_9_ ^ 2 ] = 3274
c10: [ 1 x_8_ ^ 2 - 2 x_10_ * x_8_ + 1 x_10_ ^ 2 + 1 y_8_ ^ 2 - 2 y_10_ * y_8_ + 1 y_10_ ^ 2 ] = 666
c11: [ 1 x_9_ ^ 2 - 2 x_10_ * x_9_ + 1 x_10_ ^ 2 + 1 y_9_ ^ 2 - 2 y_10_ * y_9_ + 1 y_10_ ^ 2 ] = 1396
c12: [ 1 x_10_ ^ 2 - 2 x_11_ * x_10_ + 1 x_11_ ^ 2 + 1 y_10_ ^ 2 - 2 y_11_ * y_10_ + 1 y_11_ ^ 2 ] = 24026
c13: [ 1 x_11_ ^ 2 - 2 x_12_ * x_11_ + 1 x_12_ ^ 2 + 1 y_11_ ^ 2 - 2 y_12_ * y_11_ + 1 y_12_ ^ 2 ] = 20360
c14: [ 1 x_9_ ^ 2 - 2 x_13_ * x_9_ + 1 x_13_ ^ 2 + 1 y_9_ ^ 2 - 2 y_13_ * y_9_ + 1 y_13_ ^ 2 ] = 4808
c15: [ 1 x_12_ ^ 2 - 2 x_13_ * x_12_ + 1 x_13_ ^ 2 + 1 y_12_ ^ 2 - 2 y_13_ * y_12_ + 1 y_13_ ^ 2 ] = 18050
c16: [ 1 x_13_ ^ 2 - 2 x_14_ * x_13_ + 1 x_14_ ^ 2 + 1 y_13_ ^ 2 - 2 y_14_ * y_13_ + 1 y_14_ ^ 2 ] = 1952
c17: [ 1 x_14_ ^ 2 - 2 x_15_ * x_14_ + 1 x_15_ ^ 2 + 1 y_14_ ^ 2 - 2 y_15_ * y_14_ + 1 y_15_ ^ 2 ] = 10985
c18: [ 1 x_7_ ^ 2 - 2 x_16_ * x_7_ + 1 x_16_ ^ 2 + 1 y_7_ ^ 2 - 2 y_16_ * y_7_ + 1 y_16_ ^ 2 ] = 1090
c19: [ 1 x_12_ ^ 2 - 2 x_16_ * x_12_ + 1 x_16_ ^ 2 + 1 y_12_ ^ 2 - 2 y_16_ * y_12_ + 1 y_16_ ^ 2 ] = 24500
c20: [ 1 x_15_ ^ 2 - 2 x_16_ * x_15_ + 1 x_16_ ^ 2 + 1 y_15_ ^ 2 - 2 y_16_ * y_15_ + 1 y_16_ ^ 2 ] = 11413
c21: [ 1 x_10_ ^ 2 - 2 x_17_ * x_10_ + 1 x_17_ ^ 2 + 1 y_10_ ^ 2 - 2 y_17_ * y_10_ + 1 y_17_ ^ 2 ] = 12584
c22: [ 1 x_16_ ^ 2 - 2 x_17_ * x_16_ + 1 x_17_ ^ 2 + 1 y_16_ ^ 2 - 2 y_17_ * y_16_ + 1 y_17_ ^ 2 ] = 6418
c23: [ 1 x_17_ ^ 2 - 2 x_18_ * x_17_ + 1 x_18_ ^ 2 + 1 y_17_ ^ 2 - 2 y_18_ * y_17_ + 1 y_18_ ^ 2 ] = 586
c24: [ 1 x_5_ ^ 2 - 2 x_19_ * x_5_ + 1 x_19_ ^ 2 + 1 y_5_ ^ 2 - 2 y_19_ * y_5_ + 1 y_19_ ^ 2 ] = 7349
c25: [ 1 x_18_ ^ 2 - 2 x_19_ * x_18_ + 1 x_19_ ^ 2 + 1 y_18_ ^ 2 - 2 y_19_ * y_18_ + 1 y_19_ ^ 2 ] = 12564
c26: [ 1 x_19_ ^ 2 - 2 x_20_ * x_19_ + 1 x_20_ ^ 2 + 1 y_19_ ^ 2 - 2 y_20_ * y_19_ + 1 y_20_ ^ 2 ] = 36560
c27: [ 1 x_17_ ^ 2 - 2 x_21_ * x_17_ + 1 x_21_ ^ 2 + 1 y_17_ ^ 2 - 2 y_21_ * y_17_ + 1 y_21_ ^ 2 ] = 4621
c28: [ 1 x_20_ ^ 2 - 2 x_21_ * x_20_ + 1 x_21_ ^ 2 + 1 y_20_ ^ 2 - 2 y_21_ * y_20_ + 1 y_21_ ^ 2 ] = 15769
c29: [ 1 x_17_ ^ 2 - 2 x_22_ * x_17_ + 1 x_22_ ^ 2 + 1 y_17_ ^ 2 - 2 y_22_ * y_17_ + 1 y_22_ ^ 2 ] = 8177
c30: [ 1 x_18_ ^ 2 - 2 x_22_ * x_18_ + 1 x_22_ ^ 2 + 1 y_18_ ^ 2 - 2 y_22_ * y_18_ + 1 y_22_ ^ 2 ] = 5861
c31: [ 1 x_21_ ^ 2 - 2 x_22_ * x_21_ + 1 x_22_ ^ 2 + 1 y_21_ ^ 2 - 2 y_22_ * y_21_ + 1 y_22_ ^ 2 ] = 16186
c32: [ 1 x_22_ ^ 2 - 2 x_23_ * x_22_ + 1 x_23_ ^ 2 + 1 y_22_ ^ 2 - 2 y_23_ * y_22_ + 1 y_23_ ^ 2 ] = 21673
c33: [ 1 x_8_ ^ 2 - 2 x_24_ * x_8_ + 1 x_24_ ^ 2 + 1 y_8_ ^ 2 - 2 y_24_ * y_8_ + 1 y_24_ ^ 2 ] = 2704
c34: [ 1 x_23_ ^ 2 - 2 x_24_ * x_23_ + 1 x_24_ ^ 2 + 1 y_23_ ^ 2 - 2 y_24_ * y_23_ + 1 y_24_ ^ 2 ] = 11426
c35: [ 1 x_8_ ^ 2 - 2 x_25_ * x_8_ + 1 x_25_ ^ 2 + 1 y_8_ ^ 2 - 2 y_25_ * y_8_ + 1 y_25_ ^ 2 ] = 801
c36: [ 1 x_24_ ^ 2 - 2 x_25_ * x_24_ + 1 x_25_ ^ 2 + 1 y_24_ ^ 2 - 2 y_25_ * y_24_ + 1 y_25_ ^ 2 ] = 1009
c37: [ 1 x_1_ ^ 2 - 2 x_26_ * x_1_ + 1 x_26_ ^ 2 + 1 y_1_ ^ 2 - 2 y_26_ * y_1_ + 1 y_26_ ^ 2 ] = 33280
c38: [ 1 x_14_ ^ 2 - 2 x_26_ * x_14_ + 1 x_26_ ^ 2 + 1 y_14_ ^ 2 - 2 y_26_ * y_14_ + 1 y_26_ ^ 2 ] = 44105
c39: [ 1 x_19_ ^ 2 - 2 x_26_ * x_19_ + 1 x_26_ ^ 2 + 1 y_19_ ^ 2 - 2 y_26_ * y_19_ + 1 y_26_ ^ 2 ] = 19249
c40: [ 1 x_24_ ^ 2 - 2 x_26_ * x_24_ + 1 x_26_ ^ 2 + 1 y_24_ ^ 2 - 2 y_26_ * y_24_ + 1 y_26_ ^ 2 ] = 8669
c41: [ 1 x_25_ ^ 2 - 2 x_26_ * x_25_ + 1 x_26_ ^ 2 + 1 y_25_ ^ 2 - 2 y_26_ * y_25_ + 1 y_26_ ^ 2 ] = 15578
Bounds
-475 <= x_1_ <= 309
-451 <= x_2_ <= 317
-387 <= x_3_ <= 254
-309 <= x_4_ <= 175
-267 <= x_5_ <= 277
-301 <= x_6_ <= 236
-196 <= x_7_ <= 131
-221 <= x_8_ <= 87
-196 <= x_9_ <= 30
-195 <= x_10_ <= 67
-200 <= x_11_ <= 84
x_12_ = -58
-127 <= x_13_ <= -39
x_14_ = -83
-187 <= x_15_ <= 21
-163 <= x_16_ <= 98
-83 <= x_17_ <= 97
-69 <= x_18_ <= 83
-181 <= x_19_ <= 195
-245 <= x_20_ <= 259
-120 <= x_21_ <= 134
x_22_ = 7
-140 <= x_23_ <= 154
-247 <= x_24_ <= 139
-249 <= x_25_ <= 116
-293 <= x_26_ <= 127
-318 <= y_1_ <= 426
-326 <= y_2_ <= 375
-263 <= y_3_ <= 311
-184 <= y_4_ <= 233
-286 <= y_5_ <= 191
-275 <= y_6_ <= 225
-170 <= y_7_ <= 120
-96 <= y_8_ <= 145
-39 <= y_9_ <= 148
-76 <= y_10_ <= 119
-197 <= y_11_ <= 87
y_12_ = -55
30 <= y_13_ <= 79
y_14_ = 74
-30 <= y_15_ <= 178
-137 <= y_16_ <= 87
-173 <= y_17_ <= 7
-159 <= y_18_ <= -7
-271 <= y_19_ <= 105
-335 <= y_20_ <= 169
-210 <= y_21_ <= 44
y_22_ = -83
-230 <= y_23_ <= 64
-148 <= y_24_ <= 171
-125 <= y_25_ <= 173
-136 <= y_26_ <= 244
General
x_1_
x_2_
x_3_
x_4_
x_5_
x_6_
x_7_
x_8_
x_9_
x_10_
x_11_
x_12_
x_13_
x_14_
x_15_
x_16_
x_17_
x_18_
x_19_
x_20_
x_21_
x_22_
x_23_
x_24_
x_25_
x_26_
y_1_
y_2_
y_3_
y_4_
y_5_
y_6_
y_7_
y_8_
y_9_
y_10_
y_11_
y_12_
y_13_
y_14_
y_15_
y_16_
y_17_
y_18_
y_19_
y_20_
y_21_
y_22_
y_23_
y_24_
y_25_
y_26_
End
