minimize
obj: 
subject to
c1_1: 48 x_1_ - 20 y_1_ + [ 1 x_1_ ^ 2 + 1 y_1_ ^ 2 ] <= 11709
c2_1: 48 x_3_ - 20 y_3_ + [ 1 x_3_ ^ 2 + 1 y_3_ ^ 2 ] <= 97276
c3_1: 48 x_4_ - 20 y_4_ + [ 1 x_4_ ^ 2 + 1 y_4_ ^ 2 ] <= 28717
c4_1: 48 x_5_ - 20 y_5_ + [ 1 x_5_ ^ 2 + 1 y_5_ ^ 2 ] <= 5629
c5_1: 48 x_6_ - 20 y_6_ + [ 1 x_6_ ^ 2 + 1 y_6_ ^ 2 ] <= 50107
c6_1: 48 x_7_ - 20 y_7_ + [ 1 x_7_ ^ 2 + 1 y_7_ ^ 2 ] <= 51854
c7_1: 48 x_8_ - 20 y_8_ + [ 1 x_8_ ^ 2 + 1 y_8_ ^ 2 ] <= 55605
c8_1: 48 x_9_ - 20 y_9_ + [ 1 x_9_ ^ 2 + 1 y_9_ ^ 2 ] <= 13
c9_1: 48 x_10_ - 20 y_10_ + [ 1 x_10_ ^ 2 + 1 y_10_ ^ 2 ] <= 120796
c10_1: 48 x_11_ - 20 y_11_ + [ 1 x_11_ ^ 2 + 1 y_11_ ^ 2 ] <= 16339
c11_1: 48 x_12_ - 20 y_12_ + [ 1 x_12_ ^ 2 + 1 y_12_ ^ 2 ] <= 101581
c12_1: 48 x_13_ - 20 y_13_ + [ 1 x_13_ ^ 2 + 1 y_13_ ^ 2 ] <= 64981
c13_1: 48 x_14_ - 20 y_14_ + [ 1 x_14_ ^ 2 + 1 y_14_ ^ 2 ] <= 81027
c14_1: 48 x_15_ - 20 y_15_ + [ 1 x_15_ ^ 2 + 1 y_15_ ^ 2 ] <= 67896
c15_1: 48 x_16_ - 20 y_16_ + [ 1 x_16_ ^ 2 + 1 y_16_ ^ 2 ] <= 1444
c16_1: 48 x_17_ - 20 y_17_ + [ 1 x_17_ ^ 2 + 1 y_17_ ^ 2 ] <= 93189
c17_1: 48 x_18_ - 20 y_18_ + [ 1 x_18_ ^ 2 + 1 y_18_ ^ 2 ] <= 10309
c18_1: 48 x_19_ - 20 y_19_ + [ 1 x_19_ ^ 2 + 1 y_19_ ^ 2 ] <= 68467
c19_1: 48 x_20_ - 20 y_20_ + [ 1 x_20_ ^ 2 + 1 y_20_ ^ 2 ] <= 93361
c20_1: 48 x_21_ - 20 y_21_ + [ 1 x_21_ ^ 2 + 1 y_21_ ^ 2 ] <= 32711
c21_1: 48 x_22_ - 20 y_22_ + [ 1 x_22_ ^ 2 + 1 y_22_ ^ 2 ] <= 66349
c22_1: 48 x_23_ - 20 y_23_ + [ 1 x_23_ ^ 2 + 1 y_23_ ^ 2 ] <= 30602
c23_1: 48 x_24_ - 20 y_24_ + [ 1 x_24_ ^ 2 + 1 y_24_ ^ 2 ] <= 23354
c24_1: 48 x_25_ - 20 y_25_ + [ 1 x_25_ ^ 2 + 1 y_25_ ^ 2 ] <= 22112
c25_1: 48 x_26_ - 20 y_26_ + [ 1 x_26_ ^ 2 + 1 y_26_ ^ 2 ] <= 59531
c26_1: 14 x_1_ - 60 y_1_ + [ 1 x_1_ ^ 2 + 1 y_1_ ^ 2 ] <= 6283
c27_1: 14 x_2_ - 60 y_2_ + [ 1 x_2_ ^ 2 + 1 y_2_ ^ 2 ] <= -260
c28_1: 14 x_3_ - 60 y_3_ + [ 1 x_3_ ^ 2 + 1 y_3_ ^ 2 ] <= 81261
c29_1: 14 x_4_ - 60 y_4_ + [ 1 x_4_ ^ 2 + 1 y_4_ ^ 2 ] <= 38133
c30_1: 14 x_5_ - 60 y_5_ + [ 1 x_5_ ^ 2 + 1 y_5_ ^ 2 ] <= 3157
c31_1: 14 x_6_ - 60 y_6_ + [ 1 x_6_ ^ 2 + 1 y_6_ ^ 2 ] <= 62353
c32_1: 14 x_7_ - 60 y_7_ + [ 1 x_7_ ^ 2 + 1 y_7_ ^ 2 ] <= 44791
c33_1: 14 x_8_ - 60 y_8_ + [ 1 x_8_ ^ 2 + 1 y_8_ ^ 2 ] <= 51705
c34_1: 14 x_10_ - 60 y_10_ + [ 1 x_10_ ^ 2 + 1 y_10_ ^ 2 ] <= 139509
c35_1: 14 x_11_ - 60 y_11_ + [ 1 x_11_ ^ 2 + 1 y_11_ ^ 2 ] <= 23603
c36_1: 14 x_12_ - 60 y_12_ + [ 1 x_12_ ^ 2 + 1 y_12_ ^ 2 ] <= 118785
c37_1: 14 x_13_ - 60 y_13_ + [ 1 x_13_ ^ 2 + 1 y_13_ ^ 2 ] <= 78849
c38_1: 14 x_14_ - 60 y_14_ + [ 1 x_14_ ^ 2 + 1 y_14_ ^ 2 ] <= 85507
c39_1: 14 x_15_ - 60 y_15_ + [ 1 x_15_ ^ 2 + 1 y_15_ ^ 2 ] <= 54565
c40_1: 14 x_16_ - 60 y_16_ + [ 1 x_16_ ^ 2 + 1 y_16_ ^ 2 ] <= 4277
c41_1: 14 x_17_ - 60 y_17_ + [ 1 x_17_ ^ 2 + 1 y_17_ ^ 2 ] <= 109688
c42_1: 14 x_18_ - 60 y_18_ + [ 1 x_18_ ^ 2 + 1 y_18_ ^ 2 ] <= 16227
c43_1: 14 x_19_ - 60 y_19_ + [ 1 x_19_ ^ 2 + 1 y_19_ ^ 2 ] <= 60369
c44_1: 14 x_20_ - 60 y_20_ + [ 1 x_20_ ^ 2 + 1 y_20_ ^ 2 ] <= 83924
c45_1: 14 x_21_ - 60 y_21_ + [ 1 x_21_ ^ 2 + 1 y_21_ ^ 2 ] <= 23535
c46_1: 14 x_22_ - 60 y_22_ + [ 1 x_22_ ^ 2 + 1 y_22_ ^ 2 ] <= 58375
c47_1: 14 x_23_ - 60 y_23_ + [ 1 x_23_ ^ 2 + 1 y_23_ ^ 2 ] <= 25143
c48_1: 14 x_24_ - 60 y_24_ + [ 1 x_24_ ^ 2 + 1 y_24_ ^ 2 ] <= 18564
c49_1: 14 x_25_ - 60 y_25_ + [ 1 x_25_ ^ 2 + 1 y_25_ ^ 2 ] <= 17447
c50_1: 14 x_26_ - 60 y_26_ + [ 1 x_26_ ^ 2 + 1 y_26_ ^ 2 ] <= 47066
c51: -192 x_1_ + 150 y_1_ + [ 1 x_1_ ^ 2 + 1 y_1_ ^ 2 ] <= 90570
c52: -192 x_2_ + 150 y_2_ + [ 1 x_2_ ^ 2 + 1 y_2_ ^ 2 ] <= 79196
c53: -192 x_3_ + 150 y_3_ + [ 1 x_3_ ^ 2 + 1 y_3_ ^ 2 ] <= 140710
c54: -192 x_4_ + 150 y_4_ + [ 1 x_4_ ^ 2 + 1 y_4_ ^ 2 ] <= 62903
c55: -192 x_5_ + 150 y_5_ + [ 1 x_5_ ^ 2 + 1 y_5_ ^ 2 ] <= 36802
c56: -192 x_6_ + 150 y_6_ + [ 1 x_6_ ^ 2 + 1 y_6_ ^ 2 ] <= 95871
c57: -192 x_7_ + 150 y_7_ + [ 1 x_7_ ^ 2 + 1 y_7_ ^ 2 ] <= 127320
c58: -192 x_8_ + 150 y_8_ + [ 1 x_8_ ^ 2 + 1 y_8_ ^ 2 ] <= 150572
c59: -192 x_9_ + 150 y_9_ + [ 1 x_9_ ^ 2 + 1 y_9_ ^ 2 ] <= 70032
c60: -192 x_10_ + 150 y_10_ + [ 1 x_10_ ^ 2 + 1 y_10_ ^ 2 ] <= 72799
c61: -192 x_11_ + 150 y_11_ + [ 1 x_11_ ^ 2 + 1 y_11_ ^ 2 ] <= 93893
c62: -192 x_12_ + 150 y_12_ + [ 1 x_12_ ^ 2 + 1 y_12_ ^ 2 ] <= 204971
c63: -192 x_13_ + 150 y_13_ + [ 1 x_13_ ^ 2 + 1 y_13_ ^ 2 ] <= 80867
c64: -192 x_14_ + 150 y_14_ + [ 1 x_14_ ^ 2 + 1 y_14_ ^ 2 ] <= 203111
c65: -192 x_15_ + 150 y_15_ + [ 1 x_15_ ^ 2 + 1 y_15_ ^ 2 ] <= 163953
c66: -192 x_16_ + 150 y_16_ + [ 1 x_16_ ^ 2 + 1 y_16_ ^ 2 ] <= 59158
c67: -192 x_17_ + 150 y_17_ + [ 1 x_17_ ^ 2 + 1 y_17_ ^ 2 ] <= 8992
c68: -192 x_18_ + 150 y_18_ + [ 1 x_18_ ^ 2 + 1 y_18_ ^ 2 ] <= 111454
c69: -192 x_19_ + 150 y_19_ + [ 1 x_19_ ^ 2 + 1 y_19_ ^ 2 ] <= 52538
c70: -192 x_21_ + 150 y_21_ + [ 1 x_21_ ^ 2 + 1 y_21_ ^ 2 ] <= 54934
c71: -192 x_22_ + 150 y_22_ + [ 1 x_22_ ^ 2 + 1 y_22_ ^ 2 ] <= 29689
c72: -192 x_23_ + 150 y_23_ + [ 1 x_23_ ^ 2 + 1 y_23_ ^ 2 ] <= 2007
c73: -192 x_24_ + 150 y_24_ + [ 1 x_24_ ^ 2 + 1 y_24_ ^ 2 ] <= 8154
c74: -192 x_25_ + 150 y_25_ + [ 1 x_25_ ^ 2 + 1 y_25_ ^ 2 ] <= 74444
c75: -192 x_26_ + 150 y_26_ + [ 1 x_26_ ^ 2 + 1 y_26_ ^ 2 ] <= 21483
c1_2: 1 x_2_ = -24
c2_2: 1 y_2_ = 10
c3_2: 1 x_9_ = -7
c4_2: 1 y_9_ = 30
c5_2: 1 x_20_ = 96
c6_2: 1 y_20_ = -75
c7_2: 1 x_8_ - 1 x_20_ = 0
c8_2: 1 y_8_ - 1 y_20_ = 0
c1: [ 1 x_2_ ^ 2 - 2 x_5_ * x_2_ + 1 x_5_ ^ 2 + 1 y_2_ ^ 2 - 2 y_5_ * y_2_ + 1 y_5_ ^ 2 ] = 6305
c2: [ 1 x_3_ ^ 2 - 2 x_6_ * x_3_ + 1 x_6_ ^ 2 + 1 y_3_ ^ 2 - 2 y_6_ * y_3_ + 1 y_6_ ^ 2 ] = 24973
c3: [ 1 x_4_ ^ 2 - 2 x_6_ * x_4_ + 1 x_6_ ^ 2 + 1 y_4_ ^ 2 - 2 y_6_ * y_4_ + 1 y_6_ ^ 2 ] = 2906
c4: [ 1 x_1_ ^ 2 - 2 x_7_ * x_1_ + 1 x_7_ ^ 2 + 1 y_1_ ^ 2 - 2 y_7_ * y_1_ + 1 y_7_ ^ 2 ] = 23965
c5: [ 1 x_1_ ^ 2 - 2 x_8_ * x_1_ + 1 x_8_ ^ 2 + 1 y_1_ ^ 2 - 2 y_8_ * y_1_ + 1 y_8_ ^ 2 ] = 20858
c6: [ 1 x_4_ ^ 2 - 2 x_8_ * x_4_ + 1 x_8_ ^ 2 + 1 y_4_ ^ 2 - 2 y_8_ * y_4_ + 1 y_8_ ^ 2 ] = 16354
c7: [ 1 x_1_ ^ 2 - 2 x_9_ * x_1_ + 1 x_9_ ^ 2 + 1 y_1_ ^ 2 - 2 y_9_ * y_1_ + 1 y_9_ ^ 2 ] = 7232
c8: [ 1 x_2_ ^ 2 - 2 x_9_ * x_2_ + 1 x_9_ ^ 2 + 1 y_2_ ^ 2 - 2 y_9_ * y_2_ + 1 y_9_ ^ 2 ] = 689
c9: [ 1 x_5_ ^ 2 - 2 x_9_ * x_5_ + 1 x_9_ ^ 2 + 1 y_5_ ^ 2 - 2 y_9_ * y_5_ + 1 y_9_ ^ 2 ] = 4106
c10: [ 1 x_6_ ^ 2 - 2 x_10_ * x_6_ + 1 x_10_ ^ 2 + 1 y_6_ ^ 2 - 2 y_10_ * y_6_ + 1 y_10_ ^ 2 ] = 15173
c11: [ 1 x_4_ ^ 2 - 2 x_11_ * x_4_ + 1 x_11_ ^ 2 + 1 y_4_ ^ 2 - 2 y_11_ * y_4_ + 1 y_11_ ^ 2 ] = 2593
c12: [ 1 x_8_ ^ 2 - 2 x_11_ * x_8_ + 1 x_11_ ^ 2 + 1 y_8_ ^ 2 - 2 y_11_ * y_8_ + 1 y_11_ ^ 2 ] = 11405
c13: [ 1 x_8_ ^ 2 - 2 x_12_ * x_8_ + 1 x_12_ ^ 2 + 1 y_8_ ^ 2 - 2 y_12_ * y_8_ + 1 y_12_ ^ 2 ] = 22265
c14: [ 1 x_10_ ^ 2 - 2 x_12_ * x_10_ + 1 x_12_ ^ 2 + 1 y_10_ ^ 2 - 2 y_12_ * y_10_ + 1 y_12_ ^ 2 ] = 29860
c15: [ 1 x_11_ ^ 2 - 2 x_12_ * x_11_ + 1 x_12_ ^ 2 + 1 y_11_ ^ 2 - 2 y_12_ * y_11_ + 1 y_12_ ^ 2 ] = 35848
c16: [ 1 x_3_ ^ 2 - 2 x_13_ * x_3_ + 1 x_13_ ^ 2 + 1 y_3_ ^ 2 - 2 y_13_ * y_3_ + 1 y_13_ ^ 2 ] = 19253
c17: [ 1 x_7_ ^ 2 - 2 x_14_ * x_7_ + 1 x_14_ ^ 2 + 1 y_7_ ^ 2 - 2 y_14_ * y_7_ + 1 y_14_ ^ 2 ] = 8066
c18: [ 1 x_11_ ^ 2 - 2 x_14_ * x_11_ + 1 x_14_ ^ 2 + 1 y_11_ ^ 2 - 2 y_14_ * y_11_ + 1 y_14_ ^ 2 ] = 24148
c19: [ 1 x_13_ ^ 2 - 2 x_14_ * x_13_ + 1 x_14_ ^ 2 + 1 y_13_ ^ 2 - 2 y_14_ * y_13_ + 1 y_14_ ^ 2 ] = 36505
c20: [ 1 x_1_ ^ 2 - 2 x_15_ * x_1_ + 1 x_15_ ^ 2 + 1 y_1_ ^ 2 - 2 y_15_ * y_1_ + 1 y_15_ ^ 2 ] = 22672
c21: [ 1 x_4_ ^ 2 - 2 x_15_ * x_4_ + 1 x_15_ ^ 2 + 1 y_4_ ^ 2 - 2 y_15_ * y_4_ + 1 y_15_ ^ 2 ] = 20740
c22: [ 1 x_14_ ^ 2 - 2 x_15_ * x_14_ + 1 x_15_ ^ 2 + 1 y_14_ ^ 2 - 2 y_15_ * y_14_ + 1 y_15_ ^ 2 ] = 3413
c23: [ 1 x_2_ ^ 2 - 2 x_16_ * x_2_ + 1 x_16_ ^ 2 + 1 y_2_ ^ 2 - 2 y_16_ * y_2_ + 1 y_16_ ^ 2 ] = 2120
c24: [ 1 x_4_ ^ 2 - 2 x_16_ * x_4_ + 1 x_16_ ^ 2 + 1 y_4_ ^ 2 - 2 y_16_ * y_4_ + 1 y_16_ ^ 2 ] = 15725
c25: [ 1 x_5_ ^ 2 - 2 x_16_ * x_5_ + 1 x_16_ ^ 2 + 1 y_5_ ^ 2 - 2 y_16_ * y_5_ + 1 y_16_ ^ 2 ] = 2005
c26: [ 1 x_10_ ^ 2 - 2 x_17_ * x_10_ + 1 x_17_ ^ 2 + 1 y_10_ ^ 2 - 2 y_17_ * y_10_ + 1 y_17_ ^ 2 ] = 20068
c27: [ 1 x_11_ ^ 2 - 2 x_17_ * x_11_ + 1 x_17_ ^ 2 + 1 y_11_ ^ 2 - 2 y_17_ * y_11_ + 1 y_17_ ^ 2 ] = 30952
c28: [ 1 x_13_ ^ 2 - 2 x_17_ * x_13_ + 1 x_17_ ^ 2 + 1 y_13_ ^ 2 - 2 y_17_ * y_13_ + 1 y_17_ ^ 2 ] = 24021
c29: [ 1 x_2_ ^ 2 - 2 x_18_ * x_2_ + 1 x_18_ ^ 2 + 1 y_2_ ^ 2 - 2 y_18_ * y_2_ + 1 y_18_ ^ 2 ] = 10985
c30: [ 1 x_11_ ^ 2 - 2 x_18_ * x_11_ + 1 x_18_ ^ 2 + 1 y_11_ ^ 2 - 2 y_18_ * y_11_ + 1 y_18_ ^ 2 ] = 657
c31: [ 1 x_13_ ^ 2 - 2 x_18_ * x_13_ + 1 x_18_ ^ 2 + 1 y_13_ ^ 2 - 2 y_18_ * y_13_ + 1 y_18_ ^ 2 ] = 22930
c32: [ 1 x_10_ ^ 2 - 2 x_19_ * x_10_ + 1 x_19_ ^ 2 + 1 y_10_ ^ 2 - 2 y_19_ * y_10_ + 1 y_19_ ^ 2 ] = 47106
c33: [ 1 x_17_ ^ 2 - 2 x_19_ * x_17_ + 1 x_19_ ^ 2 + 1 y_17_ ^ 2 - 2 y_19_ * y_17_ + 1 y_19_ ^ 2 ] = 17698
c34: [ 1 x_17_ ^ 2 - 2 x_20_ * x_17_ + 1 x_20_ ^ 2 + 1 y_17_ ^ 2 - 2 y_20_ * y_17_ + 1 y_20_ ^ 2 ] = 23833
c35: [ 1 x_3_ ^ 2 - 2 x_21_ * x_3_ + 1 x_21_ ^ 2 + 1 y_3_ ^ 2 - 2 y_21_ * y_3_ + 1 y_21_ ^ 2 ] = 16965
c36: [ 1 x_9_ ^ 2 - 2 x_21_ * x_9_ + 1 x_21_ ^ 2 + 1 y_9_ ^ 2 - 2 y_21_ * y_9_ + 1 y_21_ ^ 2 ] = 24484
c37: [ 1 x_4_ ^ 2 - 2 x_22_ * x_4_ + 1 x_22_ ^ 2 + 1 y_4_ ^ 2 - 2 y_22_ * y_4_ + 1 y_22_ ^ 2 ] = 21572
c38: [ 1 x_20_ ^ 2 - 2 x_22_ * x_20_ + 1 x_22_ ^ 2 + 1 y_20_ ^ 2 - 2 y_22_ * y_20_ + 1 y_22_ ^ 2 ] = 44530
c39: [ 1 x_20_ ^ 2 - 2 x_23_ * x_20_ + 1 x_23_ ^ 2 + 1 y_20_ ^ 2 - 2 y_23_ * y_20_ + 1 y_23_ ^ 2 ] = 16848
c40: [ 1 x_21_ ^ 2 - 2 x_23_ * x_21_ + 1 x_23_ ^ 2 + 1 y_21_ ^ 2 - 2 y_23_ * y_21_ + 1 y_23_ ^ 2 ] = 18050
c41: [ 1 x_22_ ^ 2 - 2 x_23_ * x_22_ + 1 x_23_ ^ 2 + 1 y_22_ ^ 2 - 2 y_23_ * y_22_ + 1 y_23_ ^ 2 ] = 6730
c42: [ 1 x_5_ ^ 2 - 2 x_24_ * x_5_ + 1 x_24_ ^ 2 + 1 y_5_ ^ 2 - 2 y_24_ * y_5_ + 1 y_24_ ^ 2 ] = 5717
c43: [ 1 x_19_ ^ 2 - 2 x_24_ * x_19_ + 1 x_24_ ^ 2 + 1 y_19_ ^ 2 - 2 y_24_ * y_19_ + 1 y_24_ ^ 2 ] = 11650
c44: [ 1 x_23_ ^ 2 - 2 x_24_ * x_23_ + 1 x_24_ ^ 2 + 1 y_23_ ^ 2 - 2 y_24_ * y_23_ + 1 y_24_ ^ 2 ] = 477
c45: [ 1 x_4_ ^ 2 - 2 x_25_ * x_4_ + 1 x_25_ ^ 2 + 1 y_4_ ^ 2 - 2 y_25_ * y_4_ + 1 y_25_ ^ 2 ] = 5794
c46: [ 1 x_5_ ^ 2 - 2 x_25_ * x_5_ + 1 x_25_ ^ 2 + 1 y_5_ ^ 2 - 2 y_25_ * y_5_ + 1 y_25_ ^ 2 ] = 5120
c47: [ 1 x_7_ ^ 2 - 2 x_25_ * x_7_ + 1 x_25_ ^ 2 + 1 y_7_ ^ 2 - 2 y_25_ * y_7_ + 1 y_25_ ^ 2 ] = 6121
c48: [ 1 x_1_ ^ 2 - 2 x_26_ * x_1_ + 1 x_26_ ^ 2 + 1 y_1_ ^ 2 - 2 y_26_ * y_1_ + 1 y_26_ ^ 2 ] = 17978
c49: [ 1 x_4_ ^ 2 - 2 x_26_ * x_4_ + 1 x_26_ ^ 2 + 1 y_4_ ^ 2 - 2 y_26_ * y_4_ + 1 y_26_ ^ 2 ] = 7786
c50: [ 1 x_20_ ^ 2 - 2 x_26_ * x_20_ + 1 x_26_ ^ 2 + 1 y_20_ ^ 2 - 2 y_26_ * y_20_ + 1 y_26_ ^ 2 ] = 36324
Bounds
-92 <= x_1_ <= 78
x_2_ = -24
-293 <= x_3_ <= 279
-182 <= x_4_ <= 147
-71 <= x_5_ <= 55
-236 <= x_6_ <= 201
-220 <= x_7_ <= 205
-236 <= x_8_ <= 213
x_9_ = -7
-200 <= x_10_ <= 324
-154 <= x_11_ <= 106
-343 <= x_12_ <= 295
-213 <= x_13_ <= 232
-301 <= x_14_ <= 261
-242 <= x_15_ <= 228
-70 <= x_16_ <= 22
-58 <= x_17_ <= 250
-128 <= x_18_ <= 80
-163 <= x_19_ <= 238
x_20_ = 96
-163 <= x_21_ <= 149
-115 <= x_22_ <= 234
-33 <= x_23_ <= 152
-55 <= x_24_ <= 131
-142 <= x_25_ <= 126
-94 <= x_26_ <= 212
-55 <= y_1_ <= 115
y_2_ = 10
-256 <= y_3_ <= 316
-161 <= y_4_ <= 181
-34 <= y_5_ <= 89
-215 <= y_6_ <= 235
-183 <= y_7_ <= 239
-199 <= y_8_ <= 247
y_9_ = 30
-338 <= y_10_ <= 221
-120 <= y_11_ <= 140
-309 <= y_12_ <= 329
-246 <= y_13_ <= 234
-264 <= y_14_ <= 295
-205 <= y_15_ <= 265
-36 <= y_16_ <= 56
-229 <= y_17_ <= 79
-94 <= y_18_ <= 114
-217 <= y_19_ <= 184
y_20_ = -75
-126 <= y_21_ <= 186
-213 <= y_22_ <= 136
-131 <= y_23_ <= 54
-109 <= y_24_ <= 76
-105 <= y_25_ <= 160
-189 <= y_26_ <= 115
General
x_1_
x_2_
x_3_
x_4_
x_5_
x_6_
x_7_
x_8_
x_9_
x_10_
x_11_
x_12_
x_13_
x_14_
x_15_
x_16_
x_17_
x_18_
x_19_
x_20_
x_21_
x_22_
x_23_
x_24_
x_25_
x_26_
y_1_
y_2_
y_3_
y_4_
y_5_
y_6_
y_7_
y_8_
y_9_
y_10_
y_11_
y_12_
y_13_
y_14_
y_15_
y_16_
y_17_
y_18_
y_19_
y_20_
y_21_
y_22_
y_23_
y_24_
y_25_
y_26_
End
