minimize
obj: 
subject to
c1_3: -1 x_12_ + 1 y_12_ <= 0
c1: [ 1 x_1_ ^ 2 + 1 y_1_ ^ 2 ] <= 8258.77
c2: [ 1 x_2_ ^ 2 + 1 y_2_ ^ 2 ] <= 35840.27066683955
c3: [ 1 x_3_ ^ 2 + 1 y_3_ ^ 2 ] <= 100183.91425401835
c4: [ 1 x_4_ ^ 2 + 1 y_4_ ^ 2 ] <= 164515.06551715033
c5: [ 1 x_5_ ^ 2 + 1 y_5_ ^ 2 ] <= 69985.56057018026
c6: [ 1 x_6_ ^ 2 + 1 y_6_ ^ 2 ] <= 22657.782525608287
c7: [ 1 x_7_ ^ 2 + 1 y_7_ ^ 2 ] <= 68235.75164764325
c8: [ 1 x_8_ ^ 2 + 1 y_8_ ^ 2 ] <= 125693.05986719049
c9: [ 1 x_9_ ^ 2 + 1 y_9_ ^ 2 ] <= 69946.07114184297
c10: [ 1 x_10_ ^ 2 + 1 y_10_ ^ 2 ] <= 45783.7243820072
c11: [ 1 x_11_ ^ 2 + 1 y_11_ ^ 2 ] <= 114172.95120026362
c12: [ 1 x_12_ ^ 2 + 1 y_12_ ^ 2 ] <= 169608.00557962907
c13: [ 1 x_13_ ^ 2 + 1 y_13_ ^ 2 ] <= 128541.78605676797
c14: [ 1 x_14_ ^ 2 + 1 y_14_ ^ 2 ] <= 60619.94222073939
c15: [ 1 x_15_ ^ 2 + 1 y_15_ ^ 2 ] <= 39126.64511133706
c16: [ 1 x_16_ ^ 2 + 1 y_16_ ^ 2 ] <= 5350.869719337989
c17: [ 1 x_17_ ^ 2 + 1 y_17_ ^ 2 ] <= 1843.2499999999998
c18: [ 1 x_19_ ^ 2 + 1 y_19_ ^ 2 ] <= 8004.250000000001
c19: [ 1 x_20_ ^ 2 + 1 y_20_ ^ 2 ] <= 17231.075660093687
c20: [ 1 x_21_ ^ 2 + 1 y_21_ ^ 2 ] <= 44650.41631313443
c21: [ 1 x_22_ ^ 2 + 1 y_22_ ^ 2 ] <= 149058.32077448012
c22: [ 1 x_23_ ^ 2 + 1 y_23_ ^ 2 ] <= 167873.4804338015
c23: [ 1 x_24_ ^ 2 + 1 y_24_ ^ 2 ] <= 39930.25809826482
c24: [ 1 x_25_ ^ 2 + 1 y_25_ ^ 2 ] <= 409.05
c25: [ 1 x_26_ ^ 2 + 1 y_26_ ^ 2 ] <= 19241.9990108784
c26: [ 1 x_27_ ^ 2 + 1 y_27_ ^ 2 ] <= 43495.32259077992
c27: [ 1 x_28_ ^ 2 + 1 y_28_ ^ 2 ] <= 15080.076789917453
quadratic_ranged_1_ub: [ 1 x_1_ ^ 2 - 2 x_2_ * x_1_ + 1 x_2_ ^ 2 + 1 y_1_ ^ 2 - 2 y_2_ * y_1_ + 1 y_2_ ^ 2 ] <= 9689.94
quadratic_ranged_2_ub: [ 1 x_2_ ^ 2 - 2 x_3_ * x_2_ + 1 x_3_ ^ 2 + 1 y_2_ ^ 2 - 2 y_3_ * y_2_ + 1 y_3_ ^ 2 ] <= 43079.53
quadratic_ranged_3_ub: [ 1 x_3_ ^ 2 - 2 x_4_ * x_3_ + 1 x_4_ ^ 2 + 1 y_3_ ^ 2 - 2 y_4_ * y_3_ + 1 y_4_ ^ 2 ] <= 24960.13
quadratic_ranged_4_ub: [ 1 x_4_ ^ 2 - 2 x_5_ * x_4_ + 1 x_5_ ^ 2 + 1 y_4_ ^ 2 - 2 y_5_ * y_4_ + 1 y_5_ ^ 2 ] <= 19897
quadratic_ranged_5_ub: [ 1 x_3_ ^ 2 - 2 x_6_ * x_3_ + 1 x_6_ ^ 2 + 1 y_3_ ^ 2 - 2 y_6_ * y_3_ + 1 y_6_ ^ 2 ] <= 27553.81
quadratic_ranged_6_ub: [ 1 x_5_ ^ 2 - 2 x_6_ * x_5_ + 1 x_6_ ^ 2 + 1 y_5_ ^ 2 - 2 y_6_ * y_5_ + 1 y_6_ ^ 2 ] <= 15515.62
quadratic_ranged_7_ub: [ 1 x_6_ ^ 2 - 2 x_7_ * x_6_ + 1 x_7_ ^ 2 + 1 y_6_ ^ 2 - 2 y_7_ * y_6_ + 1 y_7_ ^ 2 ] <= 12253.32
quadratic_ranged_8_ub: [ 1 x_7_ ^ 2 - 2 x_8_ * x_7_ + 1 x_8_ ^ 2 + 1 y_7_ ^ 2 - 2 y_8_ * y_7_ + 1 y_8_ ^ 2 ] <= 8707.210000000001
quadratic_ranged_9_ub: [ 1 x_1_ ^ 2 - 2 x_9_ * x_1_ + 1 x_9_ ^ 2 + 1 y_1_ ^ 2 - 2 y_9_ * y_1_ + 1 y_9_ ^ 2 ] <= 30135.37
quadratic_ranged_10_ub: [ 1 x_8_ ^ 2 - 2 x_9_ * x_8_ + 1 x_9_ ^ 2 + 1 y_8_ ^ 2 - 2 y_9_ * y_8_ + 1 y_9_ ^ 2 ] <= 37460.9
quadratic_ranged_11_ub: [ 1 x_1_ ^ 2 - 2 x_10_ * x_1_ + 1 x_10_ ^ 2 + 1 y_1_ ^ 2 - 2 y_10_ * y_1_ + 1 y_10_ ^ 2 ] <= 15152.02
quadratic_ranged_12_ub: [ 1 x_5_ ^ 2 - 2 x_10_ * x_5_ + 1 x_10_ ^ 2 + 1 y_5_ ^ 2 - 2 y_10_ * y_5_ + 1 y_10_ ^ 2 ] <= 10772.66
quadratic_ranged_13_ub: [ 1 x_9_ ^ 2 - 2 x_10_ * x_9_ + 1 x_10_ ^ 2 + 1 y_9_ ^ 2 - 2 y_10_ * y_9_ + 1 y_10_ ^ 2 ] <= 19461.69
quadratic_ranged_14_ub: [ 1 x_10_ ^ 2 - 2 x_11_ * x_10_ + 1 x_11_ ^ 2 + 1 y_10_ ^ 2 - 2 y_11_ * y_10_ + 1 y_11_ ^ 2 ] <= 15357.05
quadratic_ranged_15_ub: [ 1 x_11_ ^ 2 - 2 x_12_ * x_11_ + 1 x_12_ ^ 2 + 1 y_11_ ^ 2 - 2 y_12_ * y_11_ + 1 y_12_ ^ 2 ] <= 5467.13
quadratic_ranged_16_ub: [ 1 x_12_ ^ 2 - 2 x_13_ * x_12_ + 1 x_13_ ^ 2 + 1 y_12_ ^ 2 - 2 y_13_ * y_12_ + 1 y_13_ ^ 2 ] <= 10937.29
quadratic_ranged_17_ub: [ 1 x_13_ ^ 2 - 2 x_14_ * x_13_ + 1 x_14_ ^ 2 + 1 y_13_ ^ 2 - 2 y_14_ * y_13_ + 1 y_14_ ^ 2 ] <= 12614.9
quadratic_ranged_18_ub: [ 1 x_14_ ^ 2 - 2 x_15_ * x_14_ + 1 x_15_ ^ 2 + 1 y_14_ ^ 2 - 2 y_15_ * y_14_ + 1 y_15_ ^ 2 ] <= 2343.2
quadratic_ranged_19_ub: [ 1 x_15_ ^ 2 - 2 x_16_ * x_15_ + 1 x_16_ ^ 2 + 1 y_15_ ^ 2 - 2 y_16_ * y_15_ + 1 y_16_ ^ 2 ] <= 15538.85
quadratic_ranged_20_ub: [ 1 x_16_ ^ 2 - 2 x_17_ * x_16_ + 1 x_17_ ^ 2 + 1 y_16_ ^ 2 - 2 y_17_ * y_16_ + 1 y_17_ ^ 2 ] <= 913.04
quadratic_ranged_21_ub: [ 1 x_1_ ^ 2 - 2 x_18_ * x_1_ + 1 x_18_ ^ 2 + 1 y_1_ ^ 2 - 2 y_18_ * y_1_ + 1 y_18_ ^ 2 ] <= 8258.77
quadratic_ranged_22_ub: [ 1 x_17_ ^ 2 - 2 x_18_ * x_17_ + 1 x_18_ ^ 2 + 1 y_17_ ^ 2 - 2 y_18_ * y_17_ + 1 y_18_ ^ 2 ] <= 1843.25
quadratic_ranged_23_ub: [ 1 x_1_ ^ 2 - 2 x_19_ * x_1_ + 1 x_19_ ^ 2 + 1 y_1_ ^ 2 - 2 y_19_ * y_1_ + 1 y_19_ ^ 2 ] <= 10960.52
quadratic_ranged_24_ub: [ 1 x_18_ ^ 2 - 2 x_19_ * x_18_ + 1 x_19_ ^ 2 + 1 y_18_ ^ 2 - 2 y_19_ * y_18_ + 1 y_19_ ^ 2 ] <= 8004.25
quadratic_ranged_25_ub: [ 1 x_2_ ^ 2 - 2 x_20_ * x_2_ + 1 x_20_ ^ 2 + 1 y_2_ ^ 2 - 2 y_20_ * y_2_ + 1 y_20_ ^ 2 ] <= 40888.840000000004
quadratic_ranged_26_ub: [ 1 x_19_ ^ 2 - 2 x_20_ * x_19_ + 1 x_20_ ^ 2 + 1 y_19_ ^ 2 - 2 y_20_ * y_19_ + 1 y_20_ ^ 2 ] <= 1747.3
quadratic_ranged_27_ub: [ 1 x_19_ ^ 2 - 2 x_21_ * x_19_ + 1 x_21_ ^ 2 + 1 y_19_ ^ 2 - 2 y_21_ * y_19_ + 1 y_21_ ^ 2 ] <= 14844.98
quadratic_ranged_28_ub: [ 1 x_20_ ^ 2 - 2 x_21_ * x_20_ + 1 x_21_ ^ 2 + 1 y_20_ ^ 2 - 2 y_21_ * y_20_ + 1 y_21_ ^ 2 ] <= 24648.04
quadratic_ranged_29_ub: [ 1 x_5_ ^ 2 - 2 x_22_ * x_5_ + 1 x_22_ ^ 2 + 1 y_5_ ^ 2 - 2 y_22_ * y_5_ + 1 y_22_ ^ 2 ] <= 14770.24
quadratic_ranged_30_ub: [ 1 x_21_ ^ 2 - 2 x_22_ * x_21_ + 1 x_22_ ^ 2 + 1 y_21_ ^ 2 - 2 y_22_ * y_21_ + 1 y_22_ ^ 2 ] <= 30625.22
quadratic_ranged_31_ub: [ 1 x_22_ ^ 2 - 2 x_23_ * x_22_ + 1 x_23_ ^ 2 + 1 y_22_ ^ 2 - 2 y_23_ * y_22_ + 1 y_23_ ^ 2 ] <= 5908.5
quadratic_ranged_32_ub: [ 1 x_6_ ^ 2 - 2 x_24_ * x_6_ + 1 x_24_ ^ 2 + 1 y_6_ ^ 2 - 2 y_24_ * y_6_ + 1 y_24_ ^ 2 ] <= 53292.65
quadratic_ranged_33_ub: [ 1 x_23_ ^ 2 - 2 x_24_ * x_23_ + 1 x_24_ ^ 2 + 1 y_23_ ^ 2 - 2 y_24_ * y_23_ + 1 y_24_ ^ 2 ] <= 44057.21
quadratic_ranged_34_ub: [ 1 x_6_ ^ 2 - 2 x_25_ * x_6_ + 1 x_25_ ^ 2 + 1 y_6_ ^ 2 - 2 y_25_ * y_6_ + 1 y_25_ ^ 2 ] <= 16978.1
quadratic_ranged_35_ub: [ 1 x_18_ ^ 2 - 2 x_25_ * x_18_ + 1 x_25_ ^ 2 + 1 y_18_ ^ 2 - 2 y_25_ * y_18_ + 1 y_25_ ^ 2 ] <= 409.05
quadratic_ranged_36_ub: [ 1 x_19_ ^ 2 - 2 x_25_ * x_19_ + 1 x_25_ ^ 2 + 1 y_19_ ^ 2 - 2 y_25_ * y_19_ + 1 y_25_ ^ 2 ] <= 4868.2
quadratic_ranged_37_ub: [ 1 x_24_ ^ 2 - 2 x_25_ * x_24_ + 1 x_25_ ^ 2 + 1 y_24_ ^ 2 - 2 y_25_ * y_24_ + 1 y_25_ ^ 2 ] <= 32256.37
quadratic_ranged_38_ub: [ 1 x_5_ ^ 2 - 2 x_26_ * x_5_ + 1 x_26_ ^ 2 + 1 y_5_ ^ 2 - 2 y_26_ * y_5_ + 1 y_26_ ^ 2 ] <= 15833.77
quadratic_ranged_39_ub: [ 1 x_19_ ^ 2 - 2 x_26_ * x_19_ + 1 x_26_ ^ 2 + 1 y_19_ ^ 2 - 2 y_26_ * y_19_ + 1 y_26_ ^ 2 ] <= 26862.97
quadratic_ranged_40_ub: [ 1 x_25_ ^ 2 - 2 x_26_ * x_25_ + 1 x_26_ ^ 2 + 1 y_25_ ^ 2 - 2 y_26_ * y_25_ + 1 y_26_ ^ 2 ] <= 14040.01
quadratic_ranged_41_ub: [ 1 x_2_ ^ 2 - 2 x_27_ * x_2_ + 1 x_27_ ^ 2 + 1 y_2_ ^ 2 - 2 y_27_ * y_2_ + 1 y_27_ ^ 2 ] <= 5870.12
quadratic_ranged_42_ub: [ 1 x_26_ ^ 2 - 2 x_27_ * x_26_ + 1 x_27_ ^ 2 + 1 y_26_ ^ 2 - 2 y_27_ * y_26_ + 1 y_27_ ^ 2 ] <= 15252.01
quadratic_ranged_43_ub: [ 1 x_1_ ^ 2 - 2 x_28_ * x_1_ + 1 x_28_ ^ 2 + 1 y_1_ ^ 2 - 2 y_28_ * y_1_ + 1 y_28_ ^ 2 ] <= 1019.09
quadratic_ranged_44_ub: [ 1 x_9_ ^ 2 - 2 x_28_ * x_9_ + 1 x_28_ ^ 2 + 1 y_9_ ^ 2 - 2 y_28_ * y_9_ + 1 y_28_ ^ 2 ] <= 26878.12
quadratic_ranged_45_ub: [ 1 x_26_ ^ 2 - 2 x_28_ * x_26_ + 1 x_28_ ^ 2 + 1 y_26_ ^ 2 - 2 y_28_ * y_26_ + 1 y_28_ ^ 2 ] <= 7589.14
quadratic_ranged_46_ub: [ 1 x_27_ ^ 2 - 2 x_28_ * x_27_ + 1 x_28_ ^ 2 + 1 y_27_ ^ 2 - 2 y_28_ * y_27_ + 1 y_28_ ^ 2 ] <= 7353.81
c1_2: 1 x_12_ >= 0
c2_2: 1 y_12_ >= 0
quadratic_ranged_1_lb: [ 1 x_1_ ^ 2 - 2 x_2_ * x_1_ + 1 x_2_ ^ 2 + 1 y_1_ ^ 2 - 2 y_2_ * y_1_ + 1 y_2_ ^ 2 ] >= 9498.06
quadratic_ranged_2_lb: [ 1 x_2_ ^ 2 - 2 x_3_ * x_2_ + 1 x_3_ ^ 2 + 1 y_2_ ^ 2 - 2 y_3_ * y_2_ + 1 y_3_ ^ 2 ] >= 42226.47
quadratic_ranged_3_lb: [ 1 x_3_ ^ 2 - 2 x_4_ * x_3_ + 1 x_4_ ^ 2 + 1 y_3_ ^ 2 - 2 y_4_ * y_3_ + 1 y_4_ ^ 2 ] >= 24465.87
quadratic_ranged_4_lb: [ 1 x_4_ ^ 2 - 2 x_5_ * x_4_ + 1 x_5_ ^ 2 + 1 y_4_ ^ 2 - 2 y_5_ * y_4_ + 1 y_5_ ^ 2 ] >= 19503
quadratic_ranged_5_lb: [ 1 x_3_ ^ 2 - 2 x_6_ * x_3_ + 1 x_6_ ^ 2 + 1 y_3_ ^ 2 - 2 y_6_ * y_3_ + 1 y_6_ ^ 2 ] >= 27008.19
quadratic_ranged_6_lb: [ 1 x_5_ ^ 2 - 2 x_6_ * x_5_ + 1 x_6_ ^ 2 + 1 y_5_ ^ 2 - 2 y_6_ * y_5_ + 1 y_6_ ^ 2 ] >= 15208.38
quadratic_ranged_7_lb: [ 1 x_6_ ^ 2 - 2 x_7_ * x_6_ + 1 x_7_ ^ 2 + 1 y_6_ ^ 2 - 2 y_7_ * y_6_ + 1 y_7_ ^ 2 ] >= 12010.68
quadratic_ranged_8_lb: [ 1 x_7_ ^ 2 - 2 x_8_ * x_7_ + 1 x_8_ ^ 2 + 1 y_7_ ^ 2 - 2 y_8_ * y_7_ + 1 y_8_ ^ 2 ] >= 8534.789999999999
quadratic_ranged_9_lb: [ 1 x_1_ ^ 2 - 2 x_9_ * x_1_ + 1 x_9_ ^ 2 + 1 y_1_ ^ 2 - 2 y_9_ * y_1_ + 1 y_9_ ^ 2 ] >= 29538.63
quadratic_ranged_10_lb: [ 1 x_8_ ^ 2 - 2 x_9_ * x_8_ + 1 x_9_ ^ 2 + 1 y_8_ ^ 2 - 2 y_9_ * y_8_ + 1 y_9_ ^ 2 ] >= 36719.1
quadratic_ranged_11_lb: [ 1 x_1_ ^ 2 - 2 x_10_ * x_1_ + 1 x_10_ ^ 2 + 1 y_1_ ^ 2 - 2 y_10_ * y_1_ + 1 y_10_ ^ 2 ] >= 14851.98
quadratic_ranged_12_lb: [ 1 x_5_ ^ 2 - 2 x_10_ * x_5_ + 1 x_10_ ^ 2 + 1 y_5_ ^ 2 - 2 y_10_ * y_5_ + 1 y_10_ ^ 2 ] >= 10559.34
quadratic_ranged_13_lb: [ 1 x_9_ ^ 2 - 2 x_10_ * x_9_ + 1 x_10_ ^ 2 + 1 y_9_ ^ 2 - 2 y_10_ * y_9_ + 1 y_10_ ^ 2 ] >= 19076.31
quadratic_ranged_14_lb: [ 1 x_10_ ^ 2 - 2 x_11_ * x_10_ + 1 x_11_ ^ 2 + 1 y_10_ ^ 2 - 2 y_11_ * y_10_ + 1 y_11_ ^ 2 ] >= 15052.95
quadratic_ranged_15_lb: [ 1 x_11_ ^ 2 - 2 x_12_ * x_11_ + 1 x_12_ ^ 2 + 1 y_11_ ^ 2 - 2 y_12_ * y_11_ + 1 y_12_ ^ 2 ] >= 5358.87
quadratic_ranged_16_lb: [ 1 x_12_ ^ 2 - 2 x_13_ * x_12_ + 1 x_13_ ^ 2 + 1 y_12_ ^ 2 - 2 y_13_ * y_12_ + 1 y_13_ ^ 2 ] >= 10720.71
quadratic_ranged_17_lb: [ 1 x_13_ ^ 2 - 2 x_14_ * x_13_ + 1 x_14_ ^ 2 + 1 y_13_ ^ 2 - 2 y_14_ * y_13_ + 1 y_14_ ^ 2 ] >= 12365.1
quadratic_ranged_18_lb: [ 1 x_14_ ^ 2 - 2 x_15_ * x_14_ + 1 x_15_ ^ 2 + 1 y_14_ ^ 2 - 2 y_15_ * y_14_ + 1 y_15_ ^ 2 ] >= 2296.8
quadratic_ranged_19_lb: [ 1 x_15_ ^ 2 - 2 x_16_ * x_15_ + 1 x_16_ ^ 2 + 1 y_15_ ^ 2 - 2 y_16_ * y_15_ + 1 y_16_ ^ 2 ] >= 15231.15
quadratic_ranged_20_lb: [ 1 x_16_ ^ 2 - 2 x_17_ * x_16_ + 1 x_17_ ^ 2 + 1 y_16_ ^ 2 - 2 y_17_ * y_16_ + 1 y_17_ ^ 2 ] >= 894.96
quadratic_ranged_21_lb: [ 1 x_1_ ^ 2 - 2 x_18_ * x_1_ + 1 x_18_ ^ 2 + 1 y_1_ ^ 2 - 2 y_18_ * y_1_ + 1 y_18_ ^ 2 ] >= 8095.23
quadratic_ranged_22_lb: [ 1 x_17_ ^ 2 - 2 x_18_ * x_17_ + 1 x_18_ ^ 2 + 1 y_17_ ^ 2 - 2 y_18_ * y_17_ + 1 y_18_ ^ 2 ] >= 1806.75
quadratic_ranged_23_lb: [ 1 x_1_ ^ 2 - 2 x_19_ * x_1_ + 1 x_19_ ^ 2 + 1 y_1_ ^ 2 - 2 y_19_ * y_1_ + 1 y_19_ ^ 2 ] >= 10743.48
quadratic_ranged_24_lb: [ 1 x_18_ ^ 2 - 2 x_19_ * x_18_ + 1 x_19_ ^ 2 + 1 y_18_ ^ 2 - 2 y_19_ * y_18_ + 1 y_19_ ^ 2 ] >= 7845.75
quadratic_ranged_25_lb: [ 1 x_2_ ^ 2 - 2 x_20_ * x_2_ + 1 x_20_ ^ 2 + 1 y_2_ ^ 2 - 2 y_20_ * y_2_ + 1 y_20_ ^ 2 ] >= 40079.159999999996
quadratic_ranged_26_lb: [ 1 x_19_ ^ 2 - 2 x_20_ * x_19_ + 1 x_20_ ^ 2 + 1 y_19_ ^ 2 - 2 y_20_ * y_19_ + 1 y_20_ ^ 2 ] >= 1712.7
quadratic_ranged_27_lb: [ 1 x_19_ ^ 2 - 2 x_21_ * x_19_ + 1 x_21_ ^ 2 + 1 y_19_ ^ 2 - 2 y_21_ * y_19_ + 1 y_21_ ^ 2 ] >= 14551.02
quadratic_ranged_28_lb: [ 1 x_20_ ^ 2 - 2 x_21_ * x_20_ + 1 x_21_ ^ 2 + 1 y_20_ ^ 2 - 2 y_21_ * y_20_ + 1 y_21_ ^ 2 ] >= 24159.96
quadratic_ranged_29_lb: [ 1 x_5_ ^ 2 - 2 x_22_ * x_5_ + 1 x_22_ ^ 2 + 1 y_5_ ^ 2 - 2 y_22_ * y_5_ + 1 y_22_ ^ 2 ] >= 14477.76
quadratic_ranged_30_lb: [ 1 x_21_ ^ 2 - 2 x_22_ * x_21_ + 1 x_22_ ^ 2 + 1 y_21_ ^ 2 - 2 y_22_ * y_21_ + 1 y_22_ ^ 2 ] >= 30018.78
quadratic_ranged_31_lb: [ 1 x_22_ ^ 2 - 2 x_23_ * x_22_ + 1 x_23_ ^ 2 + 1 y_22_ ^ 2 - 2 y_23_ * y_22_ + 1 y_23_ ^ 2 ] >= 5791.5
quadratic_ranged_32_lb: [ 1 x_6_ ^ 2 - 2 x_24_ * x_6_ + 1 x_24_ ^ 2 + 1 y_6_ ^ 2 - 2 y_24_ * y_6_ + 1 y_24_ ^ 2 ] >= 52237.35
quadratic_ranged_33_lb: [ 1 x_23_ ^ 2 - 2 x_24_ * x_23_ + 1 x_24_ ^ 2 + 1 y_23_ ^ 2 - 2 y_24_ * y_23_ + 1 y_24_ ^ 2 ] >= 43184.79
quadratic_ranged_34_lb: [ 1 x_6_ ^ 2 - 2 x_25_ * x_6_ + 1 x_25_ ^ 2 + 1 y_6_ ^ 2 - 2 y_25_ * y_6_ + 1 y_25_ ^ 2 ] >= 16641.9
quadratic_ranged_35_lb: [ 1 x_18_ ^ 2 - 2 x_25_ * x_18_ + 1 x_25_ ^ 2 + 1 y_18_ ^ 2 - 2 y_25_ * y_18_ + 1 y_25_ ^ 2 ] >= 400.95
quadratic_ranged_36_lb: [ 1 x_19_ ^ 2 - 2 x_25_ * x_19_ + 1 x_25_ ^ 2 + 1 y_19_ ^ 2 - 2 y_25_ * y_19_ + 1 y_25_ ^ 2 ] >= 4771.8
quadratic_ranged_37_lb: [ 1 x_24_ ^ 2 - 2 x_25_ * x_24_ + 1 x_25_ ^ 2 + 1 y_24_ ^ 2 - 2 y_25_ * y_24_ + 1 y_25_ ^ 2 ] >= 31617.63
quadratic_ranged_38_lb: [ 1 x_5_ ^ 2 - 2 x_26_ * x_5_ + 1 x_26_ ^ 2 + 1 y_5_ ^ 2 - 2 y_26_ * y_5_ + 1 y_26_ ^ 2 ] >= 15520.23
quadratic_ranged_39_lb: [ 1 x_19_ ^ 2 - 2 x_26_ * x_19_ + 1 x_26_ ^ 2 + 1 y_19_ ^ 2 - 2 y_26_ * y_19_ + 1 y_26_ ^ 2 ] >= 26331.03
quadratic_ranged_40_lb: [ 1 x_25_ ^ 2 - 2 x_26_ * x_25_ + 1 x_26_ ^ 2 + 1 y_25_ ^ 2 - 2 y_26_ * y_25_ + 1 y_26_ ^ 2 ] >= 13761.99
quadratic_ranged_41_lb: [ 1 x_2_ ^ 2 - 2 x_27_ * x_2_ + 1 x_27_ ^ 2 + 1 y_2_ ^ 2 - 2 y_27_ * y_2_ + 1 y_27_ ^ 2 ] >= 5753.88
quadratic_ranged_42_lb: [ 1 x_26_ ^ 2 - 2 x_27_ * x_26_ + 1 x_27_ ^ 2 + 1 y_26_ ^ 2 - 2 y_27_ * y_26_ + 1 y_27_ ^ 2 ] >= 14949.99
quadratic_ranged_43_lb: [ 1 x_1_ ^ 2 - 2 x_28_ * x_1_ + 1 x_28_ ^ 2 + 1 y_1_ ^ 2 - 2 y_28_ * y_1_ + 1 y_28_ ^ 2 ] >= 998.91
quadratic_ranged_44_lb: [ 1 x_9_ ^ 2 - 2 x_28_ * x_9_ + 1 x_28_ ^ 2 + 1 y_9_ ^ 2 - 2 y_28_ * y_9_ + 1 y_28_ ^ 2 ] >= 26345.88
quadratic_ranged_45_lb: [ 1 x_26_ ^ 2 - 2 x_28_ * x_26_ + 1 x_28_ ^ 2 + 1 y_26_ ^ 2 - 2 y_28_ * y_26_ + 1 y_28_ ^ 2 ] >= 7438.86
quadratic_ranged_46_lb: [ 1 x_27_ ^ 2 - 2 x_28_ * x_27_ + 1 x_28_ ^ 2 + 1 y_27_ ^ 2 - 2 y_28_ * y_27_ + 1 y_28_ ^ 2 ] >= 7208.19
c1_1: 1 x_18_ = 0
c2_1: 1 y_18_ = 0
Bounds
-90 <= x_1_ <= 90
-189 <= x_2_ <= 189
-316 <= x_3_ <= 316
-405 <= x_4_ <= 405
-264 <= x_5_ <= 264
-150 <= x_6_ <= 150
-261 <= x_7_ <= 261
-354 <= x_8_ <= 354
-264 <= x_9_ <= 264
-213 <= x_10_ <= 213
-337 <= x_11_ <= 337
-411 <= x_12_ <= 411
-358 <= x_13_ <= 358
-246 <= x_14_ <= 246
-197 <= x_15_ <= 197
-73 <= x_16_ <= 73
-42 <= x_17_ <= 42
x_18_ = 0
-89 <= x_19_ <= 89
-131 <= x_20_ <= 131
-211 <= x_21_ <= 211
-386 <= x_22_ <= 386
-409 <= x_23_ <= 409
-199 <= x_24_ <= 199
-20 <= x_25_ <= 20
-138 <= x_26_ <= 138
-208 <= x_27_ <= 208
-122 <= x_28_ <= 122
-90 <= y_1_ <= 90
-189 <= y_2_ <= 189
-316 <= y_3_ <= 316
-405 <= y_4_ <= 405
-264 <= y_5_ <= 264
-150 <= y_6_ <= 150
-261 <= y_7_ <= 261
-354 <= y_8_ <= 354
-264 <= y_9_ <= 264
-213 <= y_10_ <= 213
-337 <= y_11_ <= 337
-411 <= y_12_ <= 411
-358 <= y_13_ <= 358
-246 <= y_14_ <= 246
-197 <= y_15_ <= 197
-73 <= y_16_ <= 73
-42 <= y_17_ <= 42
y_18_ = 0
-89 <= y_19_ <= 89
-131 <= y_20_ <= 131
-211 <= y_21_ <= 211
-386 <= y_22_ <= 386
-409 <= y_23_ <= 409
-199 <= y_24_ <= 199
-20 <= y_25_ <= 20
-138 <= y_26_ <= 138
-208 <= y_27_ <= 208
-122 <= y_28_ <= 122
General
x_1_
x_2_
x_3_
x_4_
x_5_
x_6_
x_7_
x_8_
x_9_
x_10_
x_11_
x_12_
x_13_
x_14_
x_15_
x_16_
x_17_
x_18_
x_19_
x_20_
x_21_
x_22_
x_23_
x_24_
x_25_
x_26_
x_27_
x_28_
y_1_
y_2_
y_3_
y_4_
y_5_
y_6_
y_7_
y_8_
y_9_
y_10_
y_11_
y_12_
y_13_
y_14_
y_15_
y_16_
y_17_
y_18_
y_19_
y_20_
y_21_
y_22_
y_23_
y_24_
y_25_
y_26_
y_27_
y_28_
End
