minimize
obj: 
subject to
c1_1: 198 x_1_ - 22 y_1_ + [ 1 x_1_ ^ 2 + 1 y_1_ ^ 2 ] <= 32036
c2_1: 198 x_2_ - 22 y_2_ + [ 1 x_2_ ^ 2 + 1 y_2_ ^ 2 ] <= 2743
c3_1: 198 x_3_ - 22 y_3_ + [ 1 x_3_ ^ 2 + 1 y_3_ ^ 2 ] <= 75888
c4_1: 198 x_4_ - 22 y_4_ + [ 1 x_4_ ^ 2 + 1 y_4_ ^ 2 ] <= 38793
c5_1: 198 x_5_ - 22 y_5_ + [ 1 x_5_ ^ 2 + 1 y_5_ ^ 2 ] <= 86944
c6_1: 198 x_6_ - 22 y_6_ + [ 1 x_6_ ^ 2 + 1 y_6_ ^ 2 ] <= 49211
c7_1: 198 x_7_ - 22 y_7_ + [ 1 x_7_ ^ 2 + 1 y_7_ ^ 2 ] <= 24342
c8_1: 198 x_8_ - 22 y_8_ + [ 1 x_8_ ^ 2 + 1 y_8_ ^ 2 ] <= 24166
c9_1: 198 x_9_ - 22 y_9_ + [ 1 x_9_ ^ 2 + 1 y_9_ ^ 2 ] <= 511
c10_1: 198 x_10_ - 22 y_10_ + [ 1 x_10_ ^ 2 + 1 y_10_ ^ 2 ] <= 43948
c11_1: 198 x_11_ - 22 y_11_ + [ 1 x_11_ ^ 2 + 1 y_11_ ^ 2 ] <= 62456
c12_1: 198 x_12_ - 22 y_12_ + [ 1 x_12_ ^ 2 + 1 y_12_ ^ 2 ] <= 60226
c13_1: 198 x_13_ - 22 y_13_ + [ 1 x_13_ ^ 2 + 1 y_13_ ^ 2 ] <= 125867
c14_1: 198 x_14_ - 22 y_14_ + [ 1 x_14_ ^ 2 + 1 y_14_ ^ 2 ] <= -2541
c15_1: 198 x_15_ - 22 y_15_ + [ 1 x_15_ ^ 2 + 1 y_15_ ^ 2 ] <= 83456
c16_1: 198 x_16_ - 22 y_16_ + [ 1 x_16_ ^ 2 + 1 y_16_ ^ 2 ] <= 22900
c17_1: 198 x_17_ - 22 y_17_ + [ 1 x_17_ ^ 2 + 1 y_17_ ^ 2 ] <= 55805
c18_1: 198 x_18_ - 22 y_18_ + [ 1 x_18_ ^ 2 + 1 y_18_ ^ 2 ] <= 31682
c19_1: 198 x_19_ - 22 y_19_ + [ 1 x_19_ ^ 2 + 1 y_19_ ^ 2 ] <= 21870
c20_1: 198 x_21_ - 22 y_21_ + [ 1 x_21_ ^ 2 + 1 y_21_ ^ 2 ] <= 53783
c21_1: 198 x_22_ - 22 y_22_ + [ 1 x_22_ ^ 2 + 1 y_22_ ^ 2 ] <= 159665
c22_1: 198 x_23_ - 22 y_23_ + [ 1 x_23_ ^ 2 + 1 y_23_ ^ 2 ] <= 4578
c23_1: 198 x_24_ - 22 y_24_ + [ 1 x_24_ ^ 2 + 1 y_24_ ^ 2 ] <= 13734
c24_1: 198 x_25_ - 22 y_25_ + [ 1 x_25_ ^ 2 + 1 y_25_ ^ 2 ] <= 48853
c25_1: 198 x_26_ - 22 y_26_ + [ 1 x_26_ ^ 2 + 1 y_26_ ^ 2 ] <= 56051
c26_1: 54 x_1_ + 166 y_1_ + [ 1 x_1_ ^ 2 + 1 y_1_ ^ 2 ] <= 86097
c27_1: 54 x_2_ + 166 y_2_ + [ 1 x_2_ ^ 2 + 1 y_2_ ^ 2 ] <= 42826
c28_1: 54 x_3_ + 166 y_3_ + [ 1 x_3_ ^ 2 + 1 y_3_ ^ 2 ] <= 102799
c29_1: 54 x_4_ + 166 y_4_ + [ 1 x_4_ ^ 2 + 1 y_4_ ^ 2 ] <= 75450
c30_1: 54 x_5_ + 166 y_5_ + [ 1 x_5_ ^ 2 + 1 y_5_ ^ 2 ] <= 57140
c31_1: 54 x_6_ + 166 y_6_ + [ 1 x_6_ ^ 2 + 1 y_6_ ^ 2 ] <= 118570
c32_1: 54 x_7_ + 166 y_7_ + [ 1 x_7_ ^ 2 + 1 y_7_ ^ 2 ] <= 15495
c33_1: 54 x_8_ + 166 y_8_ + [ 1 x_8_ ^ 2 + 1 y_8_ ^ 2 ] <= 39949
c34_1: 54 x_9_ + 166 y_9_ + [ 1 x_9_ ^ 2 + 1 y_9_ ^ 2 ] <= 33768
c35_1: 54 x_10_ + 166 y_10_ + [ 1 x_10_ ^ 2 + 1 y_10_ ^ 2 ] <= 103533
c36_1: 54 x_11_ + 166 y_11_ + [ 1 x_11_ ^ 2 + 1 y_11_ ^ 2 ] <= 37442
c37_1: 54 x_12_ + 166 y_12_ + [ 1 x_12_ ^ 2 + 1 y_12_ ^ 2 ] <= 16062
c38_1: 54 x_13_ + 166 y_13_ + [ 1 x_13_ ^ 2 + 1 y_13_ ^ 2 ] <= 154079
c39_1: 54 x_14_ + 166 y_14_ + [ 1 x_14_ ^ 2 + 1 y_14_ ^ 2 ] <= 93553
c40_1: 54 x_16_ + 166 y_16_ + [ 1 x_16_ ^ 2 + 1 y_16_ ^ 2 ] <= 7860
c41_1: 54 x_17_ + 166 y_17_ + [ 1 x_17_ ^ 2 + 1 y_17_ ^ 2 ] <= 61576
c42_1: 54 x_18_ + 166 y_18_ + [ 1 x_18_ ^ 2 + 1 y_18_ ^ 2 ] <= 2706
c43_1: 54 x_19_ + 166 y_19_ + [ 1 x_19_ ^ 2 + 1 y_19_ ^ 2 ] <= 70016
c44_1: 54 x_20_ + 166 y_20_ + [ 1 x_20_ ^ 2 + 1 y_20_ ^ 2 ] <= 85760
c45_1: 54 x_21_ + 166 y_21_ + [ 1 x_21_ ^ 2 + 1 y_21_ ^ 2 ] <= 97400
c46_1: 54 x_22_ + 166 y_22_ + [ 1 x_22_ ^ 2 + 1 y_22_ ^ 2 ] <= 131174
c47_1: 54 x_23_ + 166 y_23_ + [ 1 x_23_ ^ 2 + 1 y_23_ ^ 2 ] <= 151586
c48_1: 54 x_24_ + 166 y_24_ + [ 1 x_24_ ^ 2 + 1 y_24_ ^ 2 ] <= 57457
c49_1: 54 x_25_ + 166 y_25_ + [ 1 x_25_ ^ 2 + 1 y_25_ ^ 2 ] <= 97204
c50_1: 54 x_26_ + 166 y_26_ + [ 1 x_26_ ^ 2 + 1 y_26_ ^ 2 ] <= 119958
c51: 124 x_1_ + 140 y_1_ + [ 1 x_1_ ^ 2 + 1 y_1_ ^ 2 ] <= 63384
c52: 124 x_2_ + 140 y_2_ + [ 1 x_2_ ^ 2 + 1 y_2_ ^ 2 ] <= 8321
c53: 124 x_3_ + 140 y_3_ + [ 1 x_3_ ^ 2 + 1 y_3_ ^ 2 ] <= 40851
c54: 124 x_4_ + 140 y_4_ + [ 1 x_4_ ^ 2 + 1 y_4_ ^ 2 ] <= 24371
c55: 124 x_5_ + 140 y_5_ + [ 1 x_5_ ^ 2 + 1 y_5_ ^ 2 ] <= 17431
c56: 124 x_7_ + 140 y_7_ + [ 1 x_7_ ^ 2 + 1 y_7_ ^ 2 ] <= 32546
c57: 124 x_8_ + 140 y_8_ + [ 1 x_8_ ^ 2 + 1 y_8_ ^ 2 ] <= 32353
c58: 124 x_9_ + 140 y_9_ + [ 1 x_9_ ^ 2 + 1 y_9_ ^ 2 ] <= 19054
c59: 124 x_10_ + 140 y_10_ + [ 1 x_10_ ^ 2 + 1 y_10_ ^ 2 ] <= -7392
c60: 124 x_11_ + 140 y_11_ + [ 1 x_11_ ^ 2 + 1 y_11_ ^ 2 ] <= 32867
c61: 124 x_12_ + 140 y_12_ + [ 1 x_12_ ^ 2 + 1 y_12_ ^ 2 ] <= 71316
c62: 124 x_13_ + 140 y_13_ + [ 1 x_13_ ^ 2 + 1 y_13_ ^ 2 ] <= 6962
c63: 124 x_14_ + 140 y_14_ + [ 1 x_14_ ^ 2 + 1 y_14_ ^ 2 ] <= 41481
c64: 124 x_15_ + 140 y_15_ + [ 1 x_15_ ^ 2 + 1 y_15_ ^ 2 ] <= 117444
c65: 124 x_16_ + 140 y_16_ + [ 1 x_16_ ^ 2 + 1 y_16_ ^ 2 ] <= 51650
c66: 124 x_17_ + 140 y_17_ + [ 1 x_17_ ^ 2 + 1 y_17_ ^ 2 ] <= 89989
c67: 124 x_18_ + 140 y_18_ + [ 1 x_18_ ^ 2 + 1 y_18_ ^ 2 ] <= 63378
c68: 124 x_19_ + 140 y_19_ + [ 1 x_19_ ^ 2 + 1 y_19_ ^ 2 ] <= 29828
c69: 124 x_20_ + 140 y_20_ + [ 1 x_20_ ^ 2 + 1 y_20_ ^ 2 ] <= 50389
c70: 124 x_21_ + 140 y_21_ + [ 1 x_21_ ^ 2 + 1 y_21_ ^ 2 ] <= 64422
c71: 124 x_22_ + 140 y_22_ + [ 1 x_22_ ^ 2 + 1 y_22_ ^ 2 ] <= 69576
c72: 124 x_23_ + 140 y_23_ + [ 1 x_23_ ^ 2 + 1 y_23_ ^ 2 ] <= 92818
c73: 124 x_24_ + 140 y_24_ + [ 1 x_24_ ^ 2 + 1 y_24_ ^ 2 ] <= 4496
c74: 124 x_25_ + 140 y_25_ + [ 1 x_25_ ^ 2 + 1 y_25_ ^ 2 ] <= 85517
c75: 124 x_26_ + 140 y_26_ + [ 1 x_26_ ^ 2 + 1 y_26_ ^ 2 ] <= 66852
c1_2: 1 x_20_ = -99
c2_2: 1 y_20_ = 11
c3_2: 1 x_15_ = -27
c4_2: 1 y_15_ = -83
c5_2: 1 x_6_ = -62
c6_2: 1 y_6_ = -70
c7_2: 1 x_14_ - 1 x_16_ = 0
c8_2: 1 y_14_ - 1 y_16_ = 0
c1: [ 1 x_1_ ^ 2 - 2 x_3_ * x_1_ + 1 x_3_ ^ 2 + 1 y_1_ ^ 2 - 2 y_3_ * y_1_ + 1 y_3_ ^ 2 ] = 39341
c2: [ 1 x_2_ ^ 2 - 2 x_4_ * x_2_ + 1 x_4_ ^ 2 + 1 y_2_ ^ 2 - 2 y_4_ * y_2_ + 1 y_4_ ^ 2 ] = 19802
c3: [ 1 x_1_ ^ 2 - 2 x_5_ * x_1_ + 1 x_5_ ^ 2 + 1 y_1_ ^ 2 - 2 y_5_ * y_1_ + 1 y_5_ ^ 2 ] = 11402
c4: [ 1 x_2_ ^ 2 - 2 x_6_ * x_2_ + 1 x_6_ ^ 2 + 1 y_2_ ^ 2 - 2 y_6_ * y_2_ + 1 y_6_ ^ 2 ] = 17065
c5: [ 1 x_2_ ^ 2 - 2 x_7_ * x_2_ + 1 x_7_ ^ 2 + 1 y_2_ ^ 2 - 2 y_7_ * y_2_ + 1 y_7_ ^ 2 ] = 5266
c6: [ 1 x_2_ ^ 2 - 2 x_8_ * x_2_ + 1 x_8_ ^ 2 + 1 y_2_ ^ 2 - 2 y_8_ * y_2_ + 1 y_8_ ^ 2 ] = 5197
c7: [ 1 x_7_ ^ 2 - 2 x_8_ * x_7_ + 1 x_8_ ^ 2 + 1 y_7_ ^ 2 - 2 y_8_ * y_7_ + 1 y_8_ ^ 2 ] = 4365
c8: [ 1 x_1_ ^ 2 - 2 x_9_ * x_1_ + 1 x_9_ ^ 2 + 1 y_1_ ^ 2 - 2 y_9_ * y_1_ + 1 y_9_ ^ 2 ] = 10546
c9: [ 1 x_3_ ^ 2 - 2 x_10_ * x_3_ + 1 x_10_ ^ 2 + 1 y_3_ ^ 2 - 2 y_10_ * y_3_ + 1 y_10_ ^ 2 ] = 34570
c10: [ 1 x_5_ ^ 2 - 2 x_10_ * x_5_ + 1 x_10_ ^ 2 + 1 y_5_ ^ 2 - 2 y_10_ * y_5_ + 1 y_10_ ^ 2 ] = 15629
c11: [ 1 x_6_ ^ 2 - 2 x_10_ * x_6_ + 1 x_10_ ^ 2 + 1 y_6_ ^ 2 - 2 y_10_ * y_6_ + 1 y_10_ ^ 2 ] = 1352
c12: [ 1 x_3_ ^ 2 - 2 x_11_ * x_3_ + 1 x_11_ ^ 2 + 1 y_3_ ^ 2 - 2 y_11_ * y_3_ + 1 y_11_ ^ 2 ] = 14404
c13: [ 1 x_5_ ^ 2 - 2 x_11_ * x_5_ + 1 x_11_ ^ 2 + 1 y_5_ ^ 2 - 2 y_11_ * y_5_ + 1 y_11_ ^ 2 ] = 1781
c14: [ 1 x_4_ ^ 2 - 2 x_12_ * x_4_ + 1 x_12_ ^ 2 + 1 y_4_ ^ 2 - 2 y_12_ * y_4_ + 1 y_12_ ^ 2 ] = 18045
c15: [ 1 x_8_ ^ 2 - 2 x_12_ * x_8_ + 1 x_12_ ^ 2 + 1 y_8_ ^ 2 - 2 y_12_ * y_8_ + 1 y_12_ ^ 2 ] = 6436
c16: [ 1 x_6_ ^ 2 - 2 x_13_ * x_6_ + 1 x_13_ ^ 2 + 1 y_6_ ^ 2 - 2 y_13_ * y_6_ + 1 y_13_ ^ 2 ] = 15706
c17: [ 1 x_11_ ^ 2 - 2 x_13_ * x_11_ + 1 x_13_ ^ 2 + 1 y_11_ ^ 2 - 2 y_13_ * y_11_ + 1 y_13_ ^ 2 ] = 36040
c18: [ 1 x_2_ ^ 2 - 2 x_14_ * x_2_ + 1 x_14_ ^ 2 + 1 y_2_ ^ 2 - 2 y_14_ * y_2_ + 1 y_14_ ^ 2 ] = 8738
c19: [ 1 x_7_ ^ 2 - 2 x_15_ * x_7_ + 1 x_15_ ^ 2 + 1 y_7_ ^ 2 - 2 y_15_ * y_7_ + 1 y_15_ ^ 2 ] = 23113
c20: [ 1 x_12_ ^ 2 - 2 x_15_ * x_12_ + 1 x_15_ ^ 2 + 1 y_12_ ^ 2 - 2 y_15_ * y_12_ + 1 y_15_ ^ 2 ] = 23680
c21: [ 1 x_9_ ^ 2 - 2 x_16_ * x_9_ + 1 x_16_ ^ 2 + 1 y_9_ ^ 2 - 2 y_16_ * y_9_ + 1 y_16_ ^ 2 ] = 6245
c22: [ 1 x_11_ ^ 2 - 2 x_16_ * x_11_ + 1 x_16_ ^ 2 + 1 y_11_ ^ 2 - 2 y_16_ * y_11_ + 1 y_16_ ^ 2 ] = 7720
c23: [ 1 x_7_ ^ 2 - 2 x_17_ * x_7_ + 1 x_17_ ^ 2 + 1 y_7_ ^ 2 - 2 y_17_ * y_7_ + 1 y_17_ ^ 2 ] = 12325
c24: [ 1 x_12_ ^ 2 - 2 x_17_ * x_12_ + 1 x_17_ ^ 2 + 1 y_12_ ^ 2 - 2 y_17_ * y_12_ + 1 y_17_ ^ 2 ] = 20756
c25: [ 1 x_8_ ^ 2 - 2 x_18_ * x_8_ + 1 x_18_ ^ 2 + 1 y_8_ ^ 2 - 2 y_18_ * y_8_ + 1 y_18_ ^ 2 ] = 16552
c26: [ 1 x_15_ ^ 2 - 2 x_18_ * x_15_ + 1 x_18_ ^ 2 + 1 y_15_ ^ 2 - 2 y_18_ * y_15_ + 1 y_18_ ^ 2 ] = 10324
c27: [ 1 x_16_ ^ 2 - 2 x_18_ * x_16_ + 1 x_18_ ^ 2 + 1 y_16_ ^ 2 - 2 y_18_ * y_16_ + 1 y_18_ ^ 2 ] = 520
c28: [ 1 x_2_ ^ 2 - 2 x_19_ * x_2_ + 1 x_19_ ^ 2 + 1 y_2_ ^ 2 - 2 y_19_ * y_2_ + 1 y_19_ ^ 2 ] = 4325
c29: [ 1 x_3_ ^ 2 - 2 x_19_ * x_3_ + 1 x_19_ ^ 2 + 1 y_3_ ^ 2 - 2 y_19_ * y_3_ + 1 y_19_ ^ 2 ] = 13140
c30: [ 1 x_8_ ^ 2 - 2 x_19_ * x_8_ + 1 x_19_ ^ 2 + 1 y_8_ ^ 2 - 2 y_19_ * y_8_ + 1 y_19_ ^ 2 ] = 3664
c31: [ 1 x_2_ ^ 2 - 2 x_20_ * x_2_ + 1 x_20_ ^ 2 + 1 y_2_ ^ 2 - 2 y_20_ * y_2_ + 1 y_20_ ^ 2 ] = 12665
c32: [ 1 x_9_ ^ 2 - 2 x_20_ * x_9_ + 1 x_20_ ^ 2 + 1 y_9_ ^ 2 - 2 y_20_ * y_9_ + 1 y_20_ ^ 2 ] = 10433
c33: [ 1 x_14_ ^ 2 - 2 x_20_ * x_14_ + 1 x_20_ ^ 2 + 1 y_14_ ^ 2 - 2 y_20_ * y_14_ + 1 y_20_ ^ 2 ] = 7381
c34: [ 1 x_12_ ^ 2 - 2 x_21_ * x_12_ + 1 x_21_ ^ 2 + 1 y_12_ ^ 2 - 2 y_21_ * y_12_ + 1 y_21_ ^ 2 ] = 28962
c35: [ 1 x_19_ ^ 2 - 2 x_21_ * x_19_ + 1 x_21_ ^ 2 + 1 y_19_ ^ 2 - 2 y_21_ * y_19_ + 1 y_21_ ^ 2 ] = 5490
c36: [ 1 x_4_ ^ 2 - 2 x_22_ * x_4_ + 1 x_22_ ^ 2 + 1 y_4_ ^ 2 - 2 y_22_ * y_4_ + 1 y_22_ ^ 2 ] = 36517
c37: [ 1 x_5_ ^ 2 - 2 x_22_ * x_5_ + 1 x_22_ ^ 2 + 1 y_5_ ^ 2 - 2 y_22_ * y_5_ + 1 y_22_ ^ 2 ] = 13941
c38: [ 1 x_13_ ^ 2 - 2 x_22_ * x_13_ + 1 x_22_ ^ 2 + 1 y_13_ ^ 2 - 2 y_22_ * y_13_ + 1 y_22_ ^ 2 ] = 24034
c39: [ 1 x_14_ ^ 2 - 2 x_23_ * x_14_ + 1 x_23_ ^ 2 + 1 y_14_ ^ 2 - 2 y_23_ * y_14_ + 1 y_23_ ^ 2 ] = 8945
c40: [ 1 x_17_ ^ 2 - 2 x_23_ * x_17_ + 1 x_23_ ^ 2 + 1 y_17_ ^ 2 - 2 y_23_ * y_17_ + 1 y_23_ ^ 2 ] = 18484
c41: [ 1 x_20_ ^ 2 - 2 x_23_ * x_20_ + 1 x_23_ ^ 2 + 1 y_20_ ^ 2 - 2 y_23_ * y_20_ + 1 y_23_ ^ 2 ] = 14500
c42: [ 1 x_4_ ^ 2 - 2 x_24_ * x_4_ + 1 x_24_ ^ 2 + 1 y_4_ ^ 2 - 2 y_24_ * y_4_ + 1 y_24_ ^ 2 ] = 4477
c43: [ 1 x_9_ ^ 2 - 2 x_24_ * x_9_ + 1 x_24_ ^ 2 + 1 y_9_ ^ 2 - 2 y_24_ * y_9_ + 1 y_24_ ^ 2 ] = 2669
c44: [ 1 x_10_ ^ 2 - 2 x_24_ * x_10_ + 1 x_24_ ^ 2 + 1 y_10_ ^ 2 - 2 y_24_ * y_10_ + 1 y_24_ ^ 2 ] = 6130
c45: [ 1 x_4_ ^ 2 - 2 x_25_ * x_4_ + 1 x_25_ ^ 2 + 1 y_4_ ^ 2 - 2 y_25_ * y_4_ + 1 y_25_ ^ 2 ] = 58484
c46: [ 1 x_7_ ^ 2 - 2 x_25_ * x_7_ + 1 x_25_ ^ 2 + 1 y_7_ ^ 2 - 2 y_25_ * y_7_ + 1 y_25_ ^ 2 ] = 29492
c47: [ 1 x_9_ ^ 2 - 2 x_25_ * x_9_ + 1 x_25_ ^ 2 + 1 y_9_ ^ 2 - 2 y_25_ * y_9_ + 1 y_25_ ^ 2 ] = 19682
c48: [ 1 x_3_ ^ 2 - 2 x_26_ * x_3_ + 1 x_26_ ^ 2 + 1 y_3_ ^ 2 - 2 y_26_ * y_3_ + 1 y_26_ ^ 2 ] = 15746
c49: [ 1 x_19_ ^ 2 - 2 x_26_ * x_19_ + 1 x_26_ ^ 2 + 1 y_19_ ^ 2 - 2 y_26_ * y_19_ + 1 y_26_ ^ 2 ] = 6170
c50: [ 1 x_21_ ^ 2 - 2 x_26_ * x_21_ + 1 x_26_ ^ 2 + 1 y_21_ ^ 2 - 2 y_26_ * y_21_ + 1 y_26_ ^ 2 ] = 16904
Bounds
-303 <= x_1_ <= 105
-192 <= x_2_ <= 13
-284 <= x_3_ <= 160
-243 <= x_4_ <= 119
-223 <= x_5_ <= 99
x_6_ = -62
-179 <= x_7_ <= 86
-245 <= x_8_ <= 85
-201 <= x_9_ <= 3
-98 <= x_10_ <= -26
-239 <= x_11_ <= 141
-180 <= x_12_ <= 126
-187 <= x_13_ <= 63
-184 <= x_14_ <= -14
x_15_ = -27
-151 <= x_16_ <= 82
-290 <= x_17_ <= 157
-128 <= x_18_ <= 74
-258 <= x_19_ <= 79
x_20_ = -99
-332 <= x_21_ <= 153
-341 <= x_22_ <= 217
-219 <= x_23_ <= 21
-177 <= x_24_ <= 53
-341 <= x_25_ <= 143
-336 <= x_26_ <= 157
-193 <= y_1_ <= 198
-101 <= y_2_ <= 60
-281 <= y_3_ <= 152
-209 <= y_4_ <= 111
-231 <= y_5_ <= 91
y_6_ = -70
-174 <= y_7_ <= 69
-173 <= y_8_ <= 132
-91 <= y_9_ <= 96
-106 <= y_10_ <= -34
-258 <= y_11_ <= 129
-236 <= y_12_ <= 70
-195 <= y_13_ <= 55
-74 <= y_14_ <= 96
y_15_ = -83
-170 <= y_16_ <= 41
-245 <= y_17_ <= 180
-184 <= y_18_ <= 18
-167 <= y_19_ <= 126
y_20_ = 11
-241 <= y_21_ <= 200
-349 <= y_22_ <= 209
-109 <= y_23_ <= 131
-142 <= y_24_ <= 45
-231 <= y_25_ <= 237
-245 <= y_26_ <= 204
General
x_1_
x_2_
x_3_
x_4_
x_5_
x_6_
x_7_
x_8_
x_9_
x_10_
x_11_
x_12_
x_13_
x_14_
x_15_
x_16_
x_17_
x_18_
x_19_
x_20_
x_21_
x_22_
x_23_
x_24_
x_25_
x_26_
y_1_
y_2_
y_3_
y_4_
y_5_
y_6_
y_7_
y_8_
y_9_
y_10_
y_11_
y_12_
y_13_
y_14_
y_15_
y_16_
y_17_
y_18_
y_19_
y_20_
y_21_
y_22_
y_23_
y_24_
y_25_
y_26_
End
