minimize
obj: 
subject to
c1_4: -1 x_17_ + 1 y_17_ <= 0
c1_1: [ 1 x_1_ ^ 2 + 1 y_1_ ^ 2 ] <= 117541
c2_1: [ 1 x_2_ ^ 2 + 1 y_2_ ^ 2 ] <= 35039
c3_1: [ 1 x_3_ ^ 2 + 1 y_3_ ^ 2 ] <= 1037
c4_1: [ 1 x_5_ ^ 2 + 1 y_5_ ^ 2 ] <= 21908
c5_1: [ 1 x_6_ ^ 2 + 1 y_6_ ^ 2 ] <= 32080
c6_1: [ 1 x_7_ ^ 2 + 1 y_7_ ^ 2 ] <= 104
c7_1: [ 1 x_8_ ^ 2 + 1 y_8_ ^ 2 ] <= 2520
c8_1: [ 1 x_9_ ^ 2 + 1 y_9_ ^ 2 ] <= 29929
c9_1: [ 1 x_10_ ^ 2 + 1 y_10_ ^ 2 ] <= 85660
c10_1: [ 1 x_11_ ^ 2 + 1 y_11_ ^ 2 ] <= 42401
c11_1: [ 1 x_12_ ^ 2 + 1 y_12_ ^ 2 ] <= 35612
c12_1: [ 1 x_13_ ^ 2 + 1 y_13_ ^ 2 ] <= 16302
c13_1: [ 1 x_14_ ^ 2 + 1 y_14_ ^ 2 ] <= 61509
c14_1: [ 1 x_15_ ^ 2 + 1 y_15_ ^ 2 ] <= 103691
c15_1: [ 1 x_16_ ^ 2 + 1 y_16_ ^ 2 ] <= 49230
c16_1: [ 1 x_17_ ^ 2 + 1 y_17_ ^ 2 ] <= 148176
c17_1: [ 1 x_18_ ^ 2 + 1 y_18_ ^ 2 ] <= 138548
c18_1: [ 1 x_19_ ^ 2 + 1 y_19_ ^ 2 ] <= 123220
c19_1: [ 1 x_20_ ^ 2 + 1 y_20_ ^ 2 ] <= 51132
c20_1: [ 1 x_21_ ^ 2 + 1 y_21_ ^ 2 ] <= 58036
c21_1: [ 1 x_22_ ^ 2 + 1 y_22_ ^ 2 ] <= 26684
c22_1: [ 1 x_23_ ^ 2 + 1 y_23_ ^ 2 ] <= 1996
c23_1: [ 1 x_24_ ^ 2 + 1 y_24_ ^ 2 ] <= 977
c24_1: [ 1 x_25_ ^ 2 + 1 y_25_ ^ 2 ] <= 31795
c25_1: [ 1 x_26_ ^ 2 + 1 y_26_ ^ 2 ] <= 110029
c1_3: 1 x_17_ >= 0
c2_3: 1 y_17_ >= 0
c1_2: 1 x_4_ = 0
c2_2: 1 y_4_ = 0
c1: [ 1 x_1_ ^ 2 - 2 x_2_ * x_1_ + 1 x_2_ ^ 2 + 1 y_1_ ^ 2 - 2 y_2_ * y_1_ + 1 y_2_ ^ 2 ] = 24229
c2: [ 1 x_2_ ^ 2 - 2 x_3_ * x_2_ + 1 x_3_ ^ 2 + 1 y_2_ ^ 2 - 2 y_3_ * y_2_ + 1 y_3_ ^ 2 ] = 24020
c3: [ 1 x_3_ ^ 2 - 2 x_4_ * x_3_ + 1 x_4_ ^ 2 + 1 y_3_ ^ 2 - 2 y_4_ * y_3_ + 1 y_4_ ^ 2 ] = 1037
c4: [ 1 x_4_ ^ 2 - 2 x_5_ * x_4_ + 1 x_5_ ^ 2 + 1 y_4_ ^ 2 - 2 y_5_ * y_4_ + 1 y_5_ ^ 2 ] = 21908
c5: [ 1 x_5_ ^ 2 - 2 x_6_ * x_5_ + 1 x_6_ ^ 2 + 1 y_5_ ^ 2 - 2 y_6_ * y_5_ + 1 y_6_ ^ 2 ] = 6521
c6: [ 1 x_4_ ^ 2 - 2 x_7_ * x_4_ + 1 x_7_ ^ 2 + 1 y_4_ ^ 2 - 2 y_7_ * y_4_ + 1 y_7_ ^ 2 ] = 104
c7: [ 1 x_6_ ^ 2 - 2 x_7_ * x_6_ + 1 x_7_ ^ 2 + 1 y_6_ ^ 2 - 2 y_7_ * y_6_ + 1 y_7_ ^ 2 ] = 34337
c8: [ 1 x_7_ ^ 2 - 2 x_8_ * x_7_ + 1 x_8_ ^ 2 + 1 y_7_ ^ 2 - 2 y_8_ * y_7_ + 1 y_8_ ^ 2 ] = 1600
c9: [ 1 x_8_ ^ 2 - 2 x_9_ * x_8_ + 1 x_9_ ^ 2 + 1 y_8_ ^ 2 - 2 y_9_ * y_8_ + 1 y_9_ ^ 2 ] = 15080
c10: [ 1 x_1_ ^ 2 - 2 x_10_ * x_1_ + 1 x_10_ ^ 2 + 1 y_1_ ^ 2 - 2 y_10_ * y_1_ + 1 y_10_ ^ 2 ] = 38537
c11: [ 1 x_9_ ^ 2 - 2 x_10_ * x_9_ + 1 x_10_ ^ 2 + 1 y_9_ ^ 2 - 2 y_10_ * y_9_ + 1 y_10_ ^ 2 ] = 31513
c12: [ 1 x_10_ ^ 2 - 2 x_11_ * x_10_ + 1 x_11_ ^ 2 + 1 y_10_ ^ 2 - 2 y_11_ * y_10_ + 1 y_11_ ^ 2 ] = 14240
c13: [ 1 x_11_ ^ 2 - 2 x_12_ * x_11_ + 1 x_12_ ^ 2 + 1 y_11_ ^ 2 - 2 y_12_ * y_11_ + 1 y_12_ ^ 2 ] = 296
c14: [ 1 x_10_ ^ 2 - 2 x_13_ * x_10_ + 1 x_13_ ^ 2 + 1 y_10_ ^ 2 - 2 y_13_ * y_10_ + 1 y_13_ ^ 2 ] = 27225
c15: [ 1 x_12_ ^ 2 - 2 x_13_ * x_12_ + 1 x_13_ ^ 2 + 1 y_12_ ^ 2 - 2 y_13_ * y_12_ + 1 y_13_ ^ 2 ] = 3725
c16: [ 1 x_12_ ^ 2 - 2 x_14_ * x_12_ + 1 x_14_ ^ 2 + 1 y_12_ ^ 2 - 2 y_14_ * y_12_ + 1 y_14_ ^ 2 ] = 4717
c17: [ 1 x_13_ ^ 2 - 2 x_14_ * x_13_ + 1 x_14_ ^ 2 + 1 y_13_ ^ 2 - 2 y_14_ * y_13_ + 1 y_14_ ^ 2 ] = 14480
c18: [ 1 x_14_ ^ 2 - 2 x_15_ * x_14_ + 1 x_15_ ^ 2 + 1 y_14_ ^ 2 - 2 y_15_ * y_14_ + 1 y_15_ ^ 2 ] = 5476
c19: [ 1 x_15_ ^ 2 - 2 x_16_ * x_15_ + 1 x_16_ ^ 2 + 1 y_15_ ^ 2 - 2 y_16_ * y_15_ + 1 y_16_ ^ 2 ] = 13364
c20: [ 1 x_6_ ^ 2 - 2 x_17_ * x_6_ + 1 x_17_ ^ 2 + 1 y_6_ ^ 2 - 2 y_17_ * y_6_ + 1 y_17_ ^ 2 ] = 42365
c21: [ 1 x_16_ ^ 2 - 2 x_17_ * x_16_ + 1 x_17_ ^ 2 + 1 y_16_ ^ 2 - 2 y_17_ * y_16_ + 1 y_17_ ^ 2 ] = 26960
c22: [ 1 x_5_ ^ 2 - 2 x_18_ * x_5_ + 1 x_18_ ^ 2 + 1 y_5_ ^ 2 - 2 y_18_ * y_5_ + 1 y_18_ ^ 2 ] = 50269
c23: [ 1 x_17_ ^ 2 - 2 x_18_ * x_17_ + 1 x_18_ ^ 2 + 1 y_17_ ^ 2 - 2 y_18_ * y_17_ + 1 y_18_ ^ 2 ] = 26117
c24: [ 1 x_18_ ^ 2 - 2 x_19_ * x_18_ + 1 x_19_ ^ 2 + 1 y_18_ ^ 2 - 2 y_19_ * y_18_ + 1 y_19_ ^ 2 ] = 33128
c25: [ 1 x_5_ ^ 2 - 2 x_20_ * x_5_ + 1 x_20_ ^ 2 + 1 y_5_ ^ 2 - 2 y_20_ * y_5_ + 1 y_20_ ^ 2 ] = 29860
c26: [ 1 x_19_ ^ 2 - 2 x_20_ * x_19_ + 1 x_20_ ^ 2 + 1 y_19_ ^ 2 - 2 y_20_ * y_19_ + 1 y_20_ ^ 2 ] = 15601
c27: [ 1 x_5_ ^ 2 - 2 x_21_ * x_5_ + 1 x_21_ ^ 2 + 1 y_5_ ^ 2 - 2 y_21_ * y_5_ + 1 y_21_ ^ 2 ] = 8629
c28: [ 1 x_20_ ^ 2 - 2 x_21_ * x_20_ + 1 x_21_ ^ 2 + 1 y_20_ ^ 2 - 2 y_21_ * y_20_ + 1 y_21_ ^ 2 ] = 8865
c29: [ 1 x_6_ ^ 2 - 2 x_22_ * x_6_ + 1 x_22_ ^ 2 + 1 y_6_ ^ 2 - 2 y_22_ * y_6_ + 1 y_22_ ^ 2 ] = 31085
c30: [ 1 x_20_ ^ 2 - 2 x_22_ * x_20_ + 1 x_22_ ^ 2 + 1 y_20_ ^ 2 - 2 y_22_ * y_20_ + 1 y_22_ ^ 2 ] = 3940
c31: [ 1 x_21_ ^ 2 - 2 x_22_ * x_21_ + 1 x_22_ ^ 2 + 1 y_21_ ^ 2 - 2 y_22_ * y_21_ + 1 y_22_ ^ 2 ] = 19897
c32: [ 1 x_22_ ^ 2 - 2 x_23_ * x_22_ + 1 x_23_ ^ 2 + 1 y_22_ ^ 2 - 2 y_23_ * y_22_ + 1 y_23_ ^ 2 ] = 14085
c33: [ 1 x_4_ ^ 2 - 2 x_24_ * x_4_ + 1 x_24_ ^ 2 + 1 y_4_ ^ 2 - 2 y_24_ * y_4_ + 1 y_24_ ^ 2 ] = 977
c34: [ 1 x_6_ ^ 2 - 2 x_24_ * x_6_ + 1 x_24_ ^ 2 + 1 y_6_ ^ 2 - 2 y_24_ * y_6_ + 1 y_24_ ^ 2 ] = 21860
c35: [ 1 x_13_ ^ 2 - 2 x_24_ * x_13_ + 1 x_24_ ^ 2 + 1 y_13_ ^ 2 - 2 y_24_ * y_13_ + 1 y_24_ ^ 2 ] = 9297
c36: [ 1 x_23_ ^ 2 - 2 x_24_ * x_23_ + 1 x_24_ ^ 2 + 1 y_23_ ^ 2 - 2 y_24_ * y_23_ + 1 y_24_ ^ 2 ] = 180
c37: [ 1 x_16_ ^ 2 - 2 x_25_ * x_16_ + 1 x_25_ ^ 2 + 1 y_16_ ^ 2 - 2 y_25_ * y_16_ + 1 y_25_ ^ 2 ] = 1898
c38: [ 1 x_24_ ^ 2 - 2 x_25_ * x_24_ + 1 x_25_ ^ 2 + 1 y_24_ ^ 2 - 2 y_25_ * y_24_ + 1 y_25_ ^ 2 ] = 21625
c39: [ 1 x_1_ ^ 2 - 2 x_26_ * x_1_ + 1 x_26_ ^ 2 + 1 y_1_ ^ 2 - 2 y_26_ * y_1_ + 1 y_26_ ^ 2 ] = 18980
c40: [ 1 x_18_ ^ 2 - 2 x_26_ * x_18_ + 1 x_26_ ^ 2 + 1 y_18_ ^ 2 - 2 y_26_ * y_18_ + 1 y_26_ ^ 2 ] = 32537
c41: [ 1 x_25_ ^ 2 - 2 x_26_ * x_25_ + 1 x_26_ ^ 2 + 1 y_25_ ^ 2 - 2 y_26_ * y_25_ + 1 y_26_ ^ 2 ] = 23530
Bounds
-342 <= x_1_ <= 342
-187 <= x_2_ <= 187
-32 <= x_3_ <= 32
x_4_ = 0
-148 <= x_5_ <= 148
-179 <= x_6_ <= 179
-10 <= x_7_ <= 10
-50 <= x_8_ <= 50
-172 <= x_9_ <= 172
-292 <= x_10_ <= 292
-205 <= x_11_ <= 205
-188 <= x_12_ <= 188
-127 <= x_13_ <= 127
-248 <= x_14_ <= 248
-322 <= x_15_ <= 322
-221 <= x_16_ <= 221
-384 <= x_17_ <= 384
-372 <= x_18_ <= 372
-351 <= x_19_ <= 351
-226 <= x_20_ <= 226
-240 <= x_21_ <= 240
-163 <= x_22_ <= 163
-44 <= x_23_ <= 44
-31 <= x_24_ <= 31
-178 <= x_25_ <= 178
-331 <= x_26_ <= 331
-342 <= y_1_ <= 342
-187 <= y_2_ <= 187
-32 <= y_3_ <= 32
y_4_ = 0
-148 <= y_5_ <= 148
-179 <= y_6_ <= 179
-10 <= y_7_ <= 10
-50 <= y_8_ <= 50
-172 <= y_9_ <= 172
-292 <= y_10_ <= 292
-205 <= y_11_ <= 205
-188 <= y_12_ <= 188
-127 <= y_13_ <= 127
-248 <= y_14_ <= 248
-322 <= y_15_ <= 322
-221 <= y_16_ <= 221
-384 <= y_17_ <= 384
-372 <= y_18_ <= 372
-351 <= y_19_ <= 351
-226 <= y_20_ <= 226
-240 <= y_21_ <= 240
-163 <= y_22_ <= 163
-44 <= y_23_ <= 44
-31 <= y_24_ <= 31
-178 <= y_25_ <= 178
-331 <= y_26_ <= 331
General
x_1_
x_2_
x_3_
x_4_
x_5_
x_6_
x_7_
x_8_
x_9_
x_10_
x_11_
x_12_
x_13_
x_14_
x_15_
x_16_
x_17_
x_18_
x_19_
x_20_
x_21_
x_22_
x_23_
x_24_
x_25_
x_26_
y_1_
y_2_
y_3_
y_4_
y_5_
y_6_
y_7_
y_8_
y_9_
y_10_
y_11_
y_12_
y_13_
y_14_
y_15_
y_16_
y_17_
y_18_
y_19_
y_20_
y_21_
y_22_
y_23_
y_24_
y_25_
y_26_
End
