minimize
obj: 
subject to
c1_1: -70 x_1_ + 60 y_1_ + [ 1 x_1_ ^ 2 + 1 y_1_ ^ 2 ] <= 17971
c2_1: -70 x_2_ + 60 y_2_ + [ 1 x_2_ ^ 2 + 1 y_2_ ^ 2 ] <= 200
c3_1: -70 x_3_ + 60 y_3_ + [ 1 x_3_ ^ 2 + 1 y_3_ ^ 2 ] <= 17637
c4_1: -70 x_4_ + 60 y_4_ + [ 1 x_4_ ^ 2 + 1 y_4_ ^ 2 ] <= 89038
c5_1: -70 x_5_ + 60 y_5_ + [ 1 x_5_ ^ 2 + 1 y_5_ ^ 2 ] <= 3943
c6_1: -70 x_6_ + 60 y_6_ + [ 1 x_6_ ^ 2 + 1 y_6_ ^ 2 ] <= -1792
c7_1: -70 x_7_ + 60 y_7_ + [ 1 x_7_ ^ 2 + 1 y_7_ ^ 2 ] <= 13671
c8_1: -70 x_8_ + 60 y_8_ + [ 1 x_8_ ^ 2 + 1 y_8_ ^ 2 ] <= 885
c9_1: -70 x_9_ + 60 y_9_ + [ 1 x_9_ ^ 2 + 1 y_9_ ^ 2 ] <= 53275
c10_1: -70 x_10_ + 60 y_10_ + [ 1 x_10_ ^ 2 + 1 y_10_ ^ 2 ] <= 49613
c11_1: -70 x_11_ + 60 y_11_ + [ 1 x_11_ ^ 2 + 1 y_11_ ^ 2 ] <= 2810
c12_1: -70 x_12_ + 60 y_12_ + [ 1 x_12_ ^ 2 + 1 y_12_ ^ 2 ] <= 50661
c13_1: -70 x_14_ + 60 y_14_ + [ 1 x_14_ ^ 2 + 1 y_14_ ^ 2 ] <= 82635
c14_1: -70 x_15_ + 60 y_15_ + [ 1 x_15_ ^ 2 + 1 y_15_ ^ 2 ] <= 8581
c15_1: -70 x_16_ + 60 y_16_ + [ 1 x_16_ ^ 2 + 1 y_16_ ^ 2 ] <= 9800
c16_1: -70 x_17_ + 60 y_17_ + [ 1 x_17_ ^ 2 + 1 y_17_ ^ 2 ] <= 9063
c17_1: -70 x_18_ + 60 y_18_ + [ 1 x_18_ ^ 2 + 1 y_18_ ^ 2 ] <= 25365
c18_1: -70 x_19_ + 60 y_19_ + [ 1 x_19_ ^ 2 + 1 y_19_ ^ 2 ] <= 46438
c19_1: -70 x_20_ + 60 y_20_ + [ 1 x_20_ ^ 2 + 1 y_20_ ^ 2 ] <= 63406
c20_1: -70 x_21_ + 60 y_21_ + [ 1 x_21_ ^ 2 + 1 y_21_ ^ 2 ] <= 15709
c21_1: -70 x_22_ + 60 y_22_ + [ 1 x_22_ ^ 2 + 1 y_22_ ^ 2 ] <= 18423
c22_1: -70 x_23_ + 60 y_23_ + [ 1 x_23_ ^ 2 + 1 y_23_ ^ 2 ] <= 24739
c23_1: -70 x_24_ + 60 y_24_ + [ 1 x_24_ ^ 2 + 1 y_24_ ^ 2 ] <= 9334
c24_1: -70 x_25_ + 60 y_25_ + [ 1 x_25_ ^ 2 + 1 y_25_ ^ 2 ] <= 46831
c25_1: -70 x_26_ + 60 y_26_ + [ 1 x_26_ ^ 2 + 1 y_26_ ^ 2 ] <= 12925
c26_1: -88 x_1_ - 48 y_1_ + [ 1 x_1_ ^ 2 + 1 y_1_ ^ 2 ] <= 18402
c27_1: -88 x_2_ - 48 y_2_ + [ 1 x_2_ ^ 2 + 1 y_2_ ^ 2 ] <= 66903
c28_1: -88 x_3_ - 48 y_3_ + [ 1 x_3_ ^ 2 + 1 y_3_ ^ 2 ] <= 17097
c29_1: -88 x_4_ - 48 y_4_ + [ 1 x_4_ ^ 2 + 1 y_4_ ^ 2 ] <= 44268
c30_1: -88 x_5_ - 48 y_5_ + [ 1 x_5_ ^ 2 + 1 y_5_ ^ 2 ] <= 18041
c31_1: -88 x_6_ - 48 y_6_ + [ 1 x_6_ ^ 2 + 1 y_6_ ^ 2 ] <= 54852
c32_1: -88 x_7_ - 48 y_7_ + [ 1 x_7_ ^ 2 + 1 y_7_ ^ 2 ] <= 60499
c33_1: -88 x_8_ - 48 y_8_ + [ 1 x_8_ ^ 2 + 1 y_8_ ^ 2 ] <= 73735
c34_1: -88 x_9_ - 48 y_9_ + [ 1 x_9_ ^ 2 + 1 y_9_ ^ 2 ] <= 52631
c35_1: -88 x_10_ - 48 y_10_ + [ 1 x_10_ ^ 2 + 1 y_10_ ^ 2 ] <= 5346
c36_1: -88 x_11_ - 48 y_11_ + [ 1 x_11_ ^ 2 + 1 y_11_ ^ 2 ] <= 46703
c37_1: -88 x_12_ - 48 y_12_ + [ 1 x_12_ ^ 2 + 1 y_12_ ^ 2 ] <= 18255
c38_1: -88 x_13_ - 48 y_13_ + [ 1 x_13_ ^ 2 + 1 y_13_ ^ 2 ] <= 46444
c39_1: -88 x_14_ - 48 y_14_ + [ 1 x_14_ ^ 2 + 1 y_14_ ^ 2 ] <= 33166
c40_1: -88 x_15_ - 48 y_15_ + [ 1 x_15_ ^ 2 + 1 y_15_ ^ 2 ] <= 51849
c41_1: -88 x_16_ - 48 y_16_ + [ 1 x_16_ ^ 2 + 1 y_16_ ^ 2 ] <= 10045
c42_1: -88 x_17_ - 48 y_17_ + [ 1 x_17_ ^ 2 + 1 y_17_ ^ 2 ] <= 38077
c43_1: -88 x_18_ - 48 y_18_ + [ 1 x_18_ ^ 2 + 1 y_18_ ^ 2 ] <= 22413
c44_1: -88 x_19_ - 48 y_19_ + [ 1 x_19_ ^ 2 + 1 y_19_ ^ 2 ] <= 102938
c45_1: -88 x_20_ - 48 y_20_ + [ 1 x_20_ ^ 2 + 1 y_20_ ^ 2 ] <= 62740
c46_1: -88 x_21_ - 48 y_21_ + [ 1 x_21_ ^ 2 + 1 y_21_ ^ 2 ] <= 55495
c47_1: -88 x_22_ - 48 y_22_ + [ 1 x_22_ ^ 2 + 1 y_22_ ^ 2 ] <= 50624
c48_1: -88 x_23_ - 48 y_23_ + [ 1 x_23_ ^ 2 + 1 y_23_ ^ 2 ] <= 24173
c49_1: -88 x_24_ - 48 y_24_ + [ 1 x_24_ ^ 2 + 1 y_24_ ^ 2 ] <= 41195
c50_1: -88 x_26_ - 48 y_26_ + [ 1 x_26_ ^ 2 + 1 y_26_ ^ 2 ] <= 43260
c51: -142 x_1_ - 118 y_1_ + [ 1 x_1_ ^ 2 + 1 y_1_ ^ 2 ] <= 34630
c52: -142 x_2_ - 118 y_2_ + [ 1 x_2_ ^ 2 + 1 y_2_ ^ 2 ] <= 9540
c53: -142 x_3_ - 118 y_3_ + [ 1 x_3_ ^ 2 + 1 y_3_ ^ 2 ] <= 60781
c54: -142 x_4_ - 118 y_4_ + [ 1 x_4_ ^ 2 + 1 y_4_ ^ 2 ] <= 55457
c55: -142 x_5_ - 118 y_5_ + [ 1 x_5_ ^ 2 + 1 y_5_ ^ 2 ] <= 31708
c56: -142 x_6_ - 118 y_6_ + [ 1 x_6_ ^ 2 + 1 y_6_ ^ 2 ] <= 2384
c57: -142 x_7_ - 118 y_7_ + [ 1 x_7_ ^ 2 + 1 y_7_ ^ 2 ] <= 36364
c58: -142 x_8_ - 118 y_8_ + [ 1 x_8_ ^ 2 + 1 y_8_ ^ 2 ] <= -3924
c59: -142 x_9_ - 118 y_9_ + [ 1 x_9_ ^ 2 + 1 y_9_ ^ 2 ] <= 86943
c60: -142 x_10_ - 118 y_10_ + [ 1 x_10_ ^ 2 + 1 y_10_ ^ 2 ] <= 7178
c61: -142 x_11_ - 118 y_11_ + [ 1 x_11_ ^ 2 + 1 y_11_ ^ 2 ] <= 15948
c62: -142 x_12_ - 118 y_12_ + [ 1 x_12_ ^ 2 + 1 y_12_ ^ 2 ] <= 24153
c63: -142 x_13_ - 118 y_13_ + [ 1 x_13_ ^ 2 + 1 y_13_ ^ 2 ] <= 6528
c64: -142 x_14_ - 118 y_14_ + [ 1 x_14_ ^ 2 + 1 y_14_ ^ 2 ] <= 42346
c65: -142 x_15_ - 118 y_15_ + [ 1 x_15_ ^ 2 + 1 y_15_ ^ 2 ] <= -8153
c66: -142 x_16_ - 118 y_16_ + [ 1 x_16_ ^ 2 + 1 y_16_ ^ 2 ] <= 45246
c67: -142 x_17_ - 118 y_17_ + [ 1 x_17_ ^ 2 + 1 y_17_ ^ 2 ] <= 14243
c68: -142 x_18_ - 118 y_18_ + [ 1 x_18_ ^ 2 + 1 y_18_ ^ 2 ] <= 29320
c69: -142 x_19_ - 118 y_19_ + [ 1 x_19_ ^ 2 + 1 y_19_ ^ 2 ] <= 10004
c70: -142 x_20_ - 118 y_20_ + [ 1 x_20_ ^ 2 + 1 y_20_ ^ 2 ] <= 71014
c71: -142 x_21_ - 118 y_21_ + [ 1 x_21_ ^ 2 + 1 y_21_ ^ 2 ] <= 21776
c72: -142 x_22_ - 118 y_22_ + [ 1 x_22_ ^ 2 + 1 y_22_ ^ 2 ] <= 44161
c73: -142 x_23_ - 118 y_23_ + [ 1 x_23_ ^ 2 + 1 y_23_ ^ 2 ] <= 73605
c74: -142 x_24_ - 118 y_24_ + [ 1 x_24_ ^ 2 + 1 y_24_ ^ 2 ] <= 28814
c75: -142 x_25_ - 118 y_25_ + [ 1 x_25_ ^ 2 + 1 y_25_ ^ 2 ] <= 37250
c1_2: 1 x_13_ = 35
c2_2: 1 y_13_ = -30
c3_2: 1 x_25_ = 44
c4_2: 1 y_25_ = 24
c5_2: 1 x_26_ = 71
c6_2: 1 y_26_ = 59
c1: [ 1 x_2_ ^ 2 - 2 x_5_ * x_2_ + 1 x_5_ ^ 2 + 1 y_2_ ^ 2 - 2 y_5_ * y_2_ + 1 y_5_ ^ 2 ] = 14425
c2: [ 1 x_2_ ^ 2 - 2 x_6_ * x_2_ + 1 x_6_ ^ 2 + 1 y_2_ ^ 2 - 2 y_6_ * y_2_ + 1 y_6_ ^ 2 ] = 898
c3: [ 1 x_1_ ^ 2 - 2 x_7_ * x_1_ + 1 x_7_ ^ 2 + 1 y_1_ ^ 2 - 2 y_7_ * y_1_ + 1 y_7_ ^ 2 ] = 11322
c4: [ 1 x_2_ ^ 2 - 2 x_7_ * x_2_ + 1 x_7_ ^ 2 + 1 y_2_ ^ 2 - 2 y_7_ * y_2_ + 1 y_7_ ^ 2 ] = 6001
c5: [ 1 x_5_ ^ 2 - 2 x_7_ * x_5_ + 1 x_7_ ^ 2 + 1 y_5_ ^ 2 - 2 y_7_ * y_5_ + 1 y_7_ ^ 2 ] = 25642
c6: [ 1 x_6_ ^ 2 - 2 x_8_ * x_6_ + 1 x_8_ ^ 2 + 1 y_6_ ^ 2 - 2 y_8_ * y_6_ + 1 y_8_ ^ 2 ] = 1341
c7: [ 1 x_1_ ^ 2 - 2 x_9_ * x_1_ + 1 x_9_ ^ 2 + 1 y_1_ ^ 2 - 2 y_9_ * y_1_ + 1 y_9_ ^ 2 ] = 10250
c8: [ 1 x_5_ ^ 2 - 2 x_9_ * x_5_ + 1 x_9_ ^ 2 + 1 y_5_ ^ 2 - 2 y_9_ * y_5_ + 1 y_9_ ^ 2 ] = 26090
c9: [ 1 x_6_ ^ 2 - 2 x_11_ * x_6_ + 1 x_11_ ^ 2 + 1 y_6_ ^ 2 - 2 y_11_ * y_6_ + 1 y_11_ ^ 2 ] = 2704
c10: [ 1 x_4_ ^ 2 - 2 x_12_ * x_4_ + 1 x_12_ ^ 2 + 1 y_4_ ^ 2 - 2 y_12_ * y_4_ + 1 y_12_ ^ 2 ] = 5210
c11: [ 1 x_10_ ^ 2 - 2 x_12_ * x_10_ + 1 x_12_ ^ 2 + 1 y_10_ ^ 2 - 2 y_12_ * y_10_ + 1 y_12_ ^ 2 ] = 3076
c12: [ 1 x_3_ ^ 2 - 2 x_13_ * x_3_ + 1 x_13_ ^ 2 + 1 y_3_ ^ 2 - 2 y_13_ * y_3_ + 1 y_13_ ^ 2 ] = 19762
c13: [ 1 x_5_ ^ 2 - 2 x_13_ * x_5_ + 1 x_13_ ^ 2 + 1 y_5_ ^ 2 - 2 y_13_ * y_5_ + 1 y_13_ ^ 2 ] = 6068
c14: [ 1 x_6_ ^ 2 - 2 x_13_ * x_6_ + 1 x_13_ ^ 2 + 1 y_6_ ^ 2 - 2 y_13_ * y_6_ + 1 y_13_ ^ 2 ] = 333
c15: [ 1 x_1_ ^ 2 - 2 x_14_ * x_1_ + 1 x_14_ ^ 2 + 1 y_1_ ^ 2 - 2 y_14_ * y_1_ + 1 y_14_ ^ 2 ] = 22313
c16: [ 1 x_10_ ^ 2 - 2 x_14_ * x_10_ + 1 x_14_ ^ 2 + 1 y_10_ ^ 2 - 2 y_14_ * y_10_ + 1 y_14_ ^ 2 ] = 10048
c17: [ 1 x_12_ ^ 2 - 2 x_14_ * x_12_ + 1 x_14_ ^ 2 + 1 y_12_ ^ 2 - 2 y_14_ * y_12_ + 1 y_14_ ^ 2 ] = 12548
c18: [ 1 x_8_ ^ 2 - 2 x_15_ * x_8_ + 1 x_15_ ^ 2 + 1 y_8_ ^ 2 - 2 y_15_ * y_8_ + 1 y_15_ ^ 2 ] = 2362
c19: [ 1 x_1_ ^ 2 - 2 x_16_ * x_1_ + 1 x_16_ ^ 2 + 1 y_1_ ^ 2 - 2 y_16_ * y_1_ + 1 y_16_ ^ 2 ] = 1060
c20: [ 1 x_5_ ^ 2 - 2 x_16_ * x_5_ + 1 x_16_ ^ 2 + 1 y_5_ ^ 2 - 2 y_16_ * y_5_ + 1 y_16_ ^ 2 ] = 980
c21: [ 1 x_11_ ^ 2 - 2 x_16_ * x_11_ + 1 x_16_ ^ 2 + 1 y_11_ ^ 2 - 2 y_16_ * y_11_ + 1 y_16_ ^ 2 ] = 12053
c22: [ 1 x_1_ ^ 2 - 2 x_17_ * x_1_ + 1 x_17_ ^ 2 + 1 y_1_ ^ 2 - 2 y_17_ * y_1_ + 1 y_17_ ^ 2 ] = 3232
c23: [ 1 x_13_ ^ 2 - 2 x_17_ * x_13_ + 1 x_17_ ^ 2 + 1 y_13_ ^ 2 - 2 y_17_ * y_13_ + 1 y_17_ ^ 2 ] = 11188
c24: [ 1 x_1_ ^ 2 - 2 x_18_ * x_1_ + 1 x_18_ ^ 2 + 1 y_1_ ^ 2 - 2 y_18_ * y_1_ + 1 y_18_ ^ 2 ] = 578
c25: [ 1 x_10_ ^ 2 - 2 x_18_ * x_10_ + 1 x_18_ ^ 2 + 1 y_10_ ^ 2 - 2 y_18_ * y_10_ + 1 y_18_ ^ 2 ] = 4793
c26: [ 1 x_11_ ^ 2 - 2 x_18_ * x_11_ + 1 x_18_ ^ 2 + 1 y_11_ ^ 2 - 2 y_18_ * y_11_ + 1 y_18_ ^ 2 ] = 14297
c27: [ 1 x_4_ ^ 2 - 2 x_19_ * x_4_ + 1 x_19_ ^ 2 + 1 y_4_ ^ 2 - 2 y_19_ * y_4_ + 1 y_19_ ^ 2 ] = 15625
c28: [ 1 x_7_ ^ 2 - 2 x_19_ * x_7_ + 1 x_19_ ^ 2 + 1 y_7_ ^ 2 - 2 y_19_ * y_7_ + 1 y_19_ ^ 2 ] = 17002
c29: [ 1 x_15_ ^ 2 - 2 x_19_ * x_15_ + 1 x_19_ ^ 2 + 1 y_15_ ^ 2 - 2 y_19_ * y_15_ + 1 y_19_ ^ 2 ] = 13666
c30: [ 1 x_3_ ^ 2 - 2 x_20_ * x_3_ + 1 x_20_ ^ 2 + 1 y_3_ ^ 2 - 2 y_20_ * y_3_ + 1 y_20_ ^ 2 ] = 13320
c31: [ 1 x_4_ ^ 2 - 2 x_20_ * x_4_ + 1 x_20_ ^ 2 + 1 y_4_ ^ 2 - 2 y_20_ * y_4_ + 1 y_20_ ^ 2 ] = 3965
c32: [ 1 x_19_ ^ 2 - 2 x_20_ * x_19_ + 1 x_20_ ^ 2 + 1 y_19_ ^ 2 - 2 y_20_ * y_19_ + 1 y_20_ ^ 2 ] = 21290
c33: [ 1 x_2_ ^ 2 - 2 x_21_ * x_2_ + 1 x_21_ ^ 2 + 1 y_2_ ^ 2 - 2 y_21_ * y_2_ + 1 y_21_ ^ 2 ] = 7281
c34: [ 1 x_8_ ^ 2 - 2 x_21_ * x_8_ + 1 x_21_ ^ 2 + 1 y_8_ ^ 2 - 2 y_21_ * y_8_ + 1 y_21_ ^ 2 ] = 11290
c35: [ 1 x_18_ ^ 2 - 2 x_21_ * x_18_ + 1 x_21_ ^ 2 + 1 y_18_ ^ 2 - 2 y_21_ * y_18_ + 1 y_21_ ^ 2 ] = 6884
c36: [ 1 x_2_ ^ 2 - 2 x_22_ * x_2_ + 1 x_22_ ^ 2 + 1 y_2_ ^ 2 - 2 y_22_ * y_2_ + 1 y_22_ ^ 2 ] = 9050
c37: [ 1 x_3_ ^ 2 - 2 x_22_ * x_3_ + 1 x_22_ ^ 2 + 1 y_3_ ^ 2 - 2 y_22_ * y_3_ + 1 y_22_ ^ 2 ] = 12053
c38: [ 1 x_12_ ^ 2 - 2 x_22_ * x_12_ + 1 x_22_ ^ 2 + 1 y_12_ ^ 2 - 2 y_22_ * y_12_ + 1 y_22_ ^ 2 ] = 7466
c39: [ 1 x_3_ ^ 2 - 2 x_23_ * x_3_ + 1 x_23_ ^ 2 + 1 y_3_ ^ 2 - 2 y_23_ * y_3_ + 1 y_23_ ^ 2 ] = 544
c40: [ 1 x_9_ ^ 2 - 2 x_23_ * x_9_ + 1 x_23_ ^ 2 + 1 y_9_ ^ 2 - 2 y_23_ * y_9_ + 1 y_23_ ^ 2 ] = 5108
c41: [ 1 x_19_ ^ 2 - 2 x_23_ * x_19_ + 1 x_23_ ^ 2 + 1 y_19_ ^ 2 - 2 y_23_ * y_19_ + 1 y_23_ ^ 2 ] = 26042
c42: [ 1 x_10_ ^ 2 - 2 x_24_ * x_10_ + 1 x_24_ ^ 2 + 1 y_10_ ^ 2 - 2 y_24_ * y_10_ + 1 y_24_ ^ 2 ] = 14500
c43: [ 1 x_11_ ^ 2 - 2 x_24_ * x_11_ + 1 x_24_ ^ 2 + 1 y_11_ ^ 2 - 2 y_24_ * y_11_ + 1 y_24_ ^ 2 ] = 1354
c44: [ 1 x_12_ ^ 2 - 2 x_24_ * x_12_ + 1 x_24_ ^ 2 + 1 y_12_ ^ 2 - 2 y_24_ * y_12_ + 1 y_24_ ^ 2 ] = 24704
c45: [ 1 x_3_ ^ 2 - 2 x_25_ * x_3_ + 1 x_25_ ^ 2 + 1 y_3_ ^ 2 - 2 y_25_ * y_3_ + 1 y_25_ ^ 2 ] = 19609
c46: [ 1 x_10_ ^ 2 - 2 x_25_ * x_10_ + 1 x_25_ ^ 2 + 1 y_10_ ^ 2 - 2 y_25_ * y_10_ + 1 y_25_ ^ 2 ] = 7858
c47: [ 1 x_16_ ^ 2 - 2 x_25_ * x_16_ + 1 x_25_ ^ 2 + 1 y_16_ ^ 2 - 2 y_25_ * y_16_ + 1 y_25_ ^ 2 ] = 12557
c48: [ 1 x_10_ ^ 2 - 2 x_26_ * x_10_ + 1 x_26_ ^ 2 + 1 y_10_ ^ 2 - 2 y_26_ * y_10_ + 1 y_26_ ^ 2 ] = 15700
c49: [ 1 x_15_ ^ 2 - 2 x_26_ * x_15_ + 1 x_26_ ^ 2 + 1 y_15_ ^ 2 - 2 y_26_ * y_15_ + 1 y_26_ ^ 2 ] = 369
c50: [ 1 x_17_ ^ 2 - 2 x_26_ * x_17_ + 1 x_26_ ^ 2 + 1 y_17_ ^ 2 - 2 y_26_ * y_17_ + 1 y_26_ ^ 2 ] = 22765
Bounds
-95 <= x_1_ <= 85
-13 <= x_2_ <= 83
-95 <= x_3_ <= 85
-95 <= x_4_ <= 85
-42 <= x_5_ <= 85
17 <= x_6_ <= 53
-90 <= x_7_ <= 85
4 <= x_8_ <= 85
-95 <= x_9_ <= 85
-44 <= x_10_ <= 85
-35 <= x_11_ <= 85
-95 <= x_12_ <= 85
x_13_ = 35
-95 <= x_14_ <= 85
52 <= x_15_ <= 85
-68 <= x_16_ <= 85
-70 <= x_17_ <= 85
-95 <= x_18_ <= 85
-65 <= x_19_ <= 85
-95 <= x_20_ <= 85
-95 <= x_21_ <= 85
-95 <= x_22_ <= 85
-95 <= x_23_ <= 85
-72 <= x_24_ <= 85
x_25_ = 44
x_26_ = 71
-97 <= y_1_ <= 94
-75 <= y_2_ <= 18
-97 <= y_3_ <= 94
-97 <= y_4_ <= 94
-97 <= y_5_ <= 47
-45 <= y_6_ <= -12
-97 <= y_7_ <= 94
-8 <= y_8_ <= 24
-97 <= y_9_ <= 94
-64 <= y_10_ <= 94
-97 <= y_11_ <= 40
-97 <= y_12_ <= 94
y_13_ = -30
-97 <= y_14_ <= 94
40 <= y_15_ <= 73
-88 <= y_16_ <= 79
-91 <= y_17_ <= 75
-97 <= y_18_ <= 94
-77 <= y_19_ <= 94
-97 <= y_20_ <= 94
-97 <= y_21_ <= 94
-97 <= y_22_ <= 94
-97 <= y_23_ <= 94
-97 <= y_24_ <= 77
y_25_ = 24
y_26_ = 59
General
x_1_
x_2_
x_3_
x_4_
x_5_
x_6_
x_7_
x_8_
x_9_
x_10_
x_11_
x_12_
x_13_
x_14_
x_15_
x_16_
x_17_
x_18_
x_19_
x_20_
x_21_
x_22_
x_23_
x_24_
x_25_
x_26_
y_1_
y_2_
y_3_
y_4_
y_5_
y_6_
y_7_
y_8_
y_9_
y_10_
y_11_
y_12_
y_13_
y_14_
y_15_
y_16_
y_17_
y_18_
y_19_
y_20_
y_21_
y_22_
y_23_
y_24_
y_25_
y_26_
End
