minimize
obj: 
subject to
c1_1: -66 x_1_ + 64 y_1_ + [ 1 x_1_ ^ 2 + 1 y_1_ ^ 2 ] <= 6915
c2_1: -66 x_2_ + 64 y_2_ + [ 1 x_2_ ^ 2 + 1 y_2_ ^ 2 ] <= 1208
c3_1: -66 x_3_ + 64 y_3_ + [ 1 x_3_ ^ 2 + 1 y_3_ ^ 2 ] <= 40416
c4_1: -66 x_5_ + 64 y_5_ + [ 1 x_5_ ^ 2 + 1 y_5_ ^ 2 ] <= 82538
c5_1: -66 x_6_ + 64 y_6_ + [ 1 x_6_ ^ 2 + 1 y_6_ ^ 2 ] <= 24625
c6_1: -66 x_7_ + 64 y_7_ + [ 1 x_7_ ^ 2 + 1 y_7_ ^ 2 ] <= 23514
c7_1: -66 x_8_ + 64 y_8_ + [ 1 x_8_ ^ 2 + 1 y_8_ ^ 2 ] <= 68496
c8_1: -66 x_9_ + 64 y_9_ + [ 1 x_9_ ^ 2 + 1 y_9_ ^ 2 ] <= 43185
c9_1: -66 x_10_ + 64 y_10_ + [ 1 x_10_ ^ 2 + 1 y_10_ ^ 2 ] <= 24877
c10_1: -66 x_11_ + 64 y_11_ + [ 1 x_11_ ^ 2 + 1 y_11_ ^ 2 ] <= 201
c11_1: -66 x_12_ + 64 y_12_ + [ 1 x_12_ ^ 2 + 1 y_12_ ^ 2 ] <= 13513
c12_1: -66 x_13_ + 64 y_13_ + [ 1 x_13_ ^ 2 + 1 y_13_ ^ 2 ] <= 9983
c13_1: -66 x_14_ + 64 y_14_ + [ 1 x_14_ ^ 2 + 1 y_14_ ^ 2 ] <= 31689
c14_1: -66 x_15_ + 64 y_15_ + [ 1 x_15_ ^ 2 + 1 y_15_ ^ 2 ] <= 38057
c15_1: -66 x_16_ + 64 y_16_ + [ 1 x_16_ ^ 2 + 1 y_16_ ^ 2 ] <= 17318
c16_1: -66 x_17_ + 64 y_17_ + [ 1 x_17_ ^ 2 + 1 y_17_ ^ 2 ] <= 72731
c17_1: -66 x_18_ + 64 y_18_ + [ 1 x_18_ ^ 2 + 1 y_18_ ^ 2 ] <= 12123
c18_1: -66 x_19_ + 64 y_19_ + [ 1 x_19_ ^ 2 + 1 y_19_ ^ 2 ] <= 23314
c19_1: -66 x_20_ + 64 y_20_ + [ 1 x_20_ ^ 2 + 1 y_20_ ^ 2 ] <= 109122
c20_1: -66 x_21_ + 64 y_21_ + [ 1 x_21_ ^ 2 + 1 y_21_ ^ 2 ] <= 118878
c21_1: -66 x_22_ + 64 y_22_ + [ 1 x_22_ ^ 2 + 1 y_22_ ^ 2 ] <= 23767
c22_1: -66 x_23_ + 64 y_23_ + [ 1 x_23_ ^ 2 + 1 y_23_ ^ 2 ] <= 61002
c23_1: -66 x_24_ + 64 y_24_ + [ 1 x_24_ ^ 2 + 1 y_24_ ^ 2 ] <= 78331
c24_1: -66 x_25_ + 64 y_25_ + [ 1 x_25_ ^ 2 + 1 y_25_ ^ 2 ] <= 85982
c25_1: -66 x_26_ + 64 y_26_ + [ 1 x_26_ ^ 2 + 1 y_26_ ^ 2 ] <= 187415
c26_1: 178 x_1_ + 126 y_1_ + [ 1 x_1_ ^ 2 + 1 y_1_ ^ 2 ] <= 87202
c27_1: 178 x_2_ + 126 y_2_ + [ 1 x_2_ ^ 2 + 1 y_2_ ^ 2 ] <= 64226
c28_1: 178 x_3_ + 126 y_3_ + [ 1 x_3_ ^ 2 + 1 y_3_ ^ 2 ] <= 45121
c29_1: 178 x_4_ + 126 y_4_ + [ 1 x_4_ ^ 2 + 1 y_4_ ^ 2 ] <= 99345
c30_1: 178 x_5_ + 126 y_5_ + [ 1 x_5_ ^ 2 + 1 y_5_ ^ 2 ] <= 92758
c31_1: 178 x_6_ + 126 y_6_ + [ 1 x_6_ ^ 2 + 1 y_6_ ^ 2 ] <= 17011
c32_1: 178 x_7_ + 126 y_7_ + [ 1 x_7_ ^ 2 + 1 y_7_ ^ 2 ] <= 69285
c33_1: 178 x_8_ + 126 y_8_ + [ 1 x_8_ ^ 2 + 1 y_8_ ^ 2 ] <= 22894
c34_1: 178 x_9_ + 126 y_9_ + [ 1 x_9_ ^ 2 + 1 y_9_ ^ 2 ] <= 181924
c35_1: 178 x_10_ + 126 y_10_ + [ 1 x_10_ ^ 2 + 1 y_10_ ^ 2 ] <= 71020
c36_1: 178 x_11_ + 126 y_11_ + [ 1 x_11_ ^ 2 + 1 y_11_ ^ 2 ] <= 133747
c37_1: 178 x_12_ + 126 y_12_ + [ 1 x_12_ ^ 2 + 1 y_12_ ^ 2 ] <= 87339
c38_1: 178 x_13_ + 126 y_13_ + [ 1 x_13_ ^ 2 + 1 y_13_ ^ 2 ] <= 95856
c39_1: 178 x_14_ + 126 y_14_ + [ 1 x_14_ ^ 2 + 1 y_14_ ^ 2 ] <= 65522
c40_1: 178 x_15_ + 126 y_15_ + [ 1 x_15_ ^ 2 + 1 y_15_ ^ 2 ] <= 51515
c41_1: 178 x_16_ + 126 y_16_ + [ 1 x_16_ ^ 2 + 1 y_16_ ^ 2 ] <= 116029
c42_1: 178 x_17_ + 126 y_17_ + [ 1 x_17_ ^ 2 + 1 y_17_ ^ 2 ] <= 38367
c43_1: 178 x_18_ + 126 y_18_ + [ 1 x_18_ ^ 2 + 1 y_18_ ^ 2 ] <= 33995
c44_1: 178 x_19_ + 126 y_19_ + [ 1 x_19_ ^ 2 + 1 y_19_ ^ 2 ] <= 83639
c45_1: 178 x_21_ + 126 y_21_ + [ 1 x_21_ ^ 2 + 1 y_21_ ^ 2 ] <= -11685
c46_1: 178 x_22_ + 126 y_22_ + [ 1 x_22_ ^ 2 + 1 y_22_ ^ 2 ] <= 91713
c47_1: 178 x_23_ + 126 y_23_ + [ 1 x_23_ ^ 2 + 1 y_23_ ^ 2 ] <= 68636
c48_1: 178 x_24_ + 126 y_24_ + [ 1 x_24_ ^ 2 + 1 y_24_ ^ 2 ] <= 42974
c49_1: 178 x_25_ + 126 y_25_ + [ 1 x_25_ ^ 2 + 1 y_25_ ^ 2 ] <= 208759
c50: 178 x_26_ + 126 y_26_ + [ 1 x_26_ ^ 2 + 1 y_26_ ^ 2 ] <= 137069
c51: 184 x_1_ - 190 y_1_ + [ 1 x_1_ ^ 2 + 1 y_1_ ^ 2 ] <= 31088
c52: 184 x_2_ - 190 y_2_ + [ 1 x_2_ ^ 2 + 1 y_2_ ^ 2 ] <= 49747
c53: 184 x_3_ - 190 y_3_ + [ 1 x_3_ ^ 2 + 1 y_3_ ^ 2 ] <= 23102
c54: 184 x_4_ - 190 y_4_ + [ 1 x_4_ ^ 2 + 1 y_4_ ^ 2 ] <= 27809
c55: 184 x_5_ - 190 y_5_ + [ 1 x_5_ ^ 2 + 1 y_5_ ^ 2 ] <= 64419
c56: 184 x_6_ - 190 y_6_ + [ 1 x_6_ ^ 2 + 1 y_6_ ^ 2 ] <= 55541
c57: 184 x_7_ - 190 y_7_ + [ 1 x_7_ ^ 2 + 1 y_7_ ^ 2 ] <= 6639
c58: 184 x_8_ - 190 y_8_ + [ 1 x_8_ ^ 2 + 1 y_8_ ^ 2 ] <= 117583
c59: 184 x_10_ - 190 y_10_ + [ 1 x_10_ ^ 2 + 1 y_10_ ^ 2 ] <= 53312
c60: 184 x_11_ - 190 y_11_ + [ 1 x_11_ ^ 2 + 1 y_11_ ^ 2 ] <= 9647
c61: 184 x_12_ - 190 y_12_ + [ 1 x_12_ ^ 2 + 1 y_12_ ^ 2 ] <= 72352
c62: 184 x_13_ - 190 y_13_ + [ 1 x_13_ ^ 2 + 1 y_13_ ^ 2 ] <= 34941
c63: 184 x_14_ - 190 y_14_ + [ 1 x_14_ ^ 2 + 1 y_14_ ^ 2 ] <= 40559
c64: 184 x_15_ - 190 y_15_ + [ 1 x_15_ ^ 2 + 1 y_15_ ^ 2 ] <= 73849
c65: 184 x_16_ - 190 y_16_ + [ 1 x_16_ ^ 2 + 1 y_16_ ^ 2 ] <= 49274
c66: 184 x_17_ - 190 y_17_ + [ 1 x_17_ ^ 2 + 1 y_17_ ^ 2 ] <= 131325
c67: 184 x_18_ - 190 y_18_ + [ 1 x_18_ ^ 2 + 1 y_18_ ^ 2 ] <= 81387
c68: 184 x_19_ - 190 y_19_ + [ 1 x_19_ ^ 2 + 1 y_19_ ^ 2 ] <= 14731
c69: 184 x_20_ - 190 y_20_ + [ 1 x_20_ ^ 2 + 1 y_20_ ^ 2 ] <= 176325
c70: 184 x_21_ - 190 y_21_ + [ 1 x_21_ ^ 2 + 1 y_21_ ^ 2 ] <= 189137
c71: 184 x_22_ - 190 y_22_ + [ 1 x_22_ ^ 2 + 1 y_22_ ^ 2 ] <= 64454
c72: 184 x_23_ - 190 y_23_ + [ 1 x_23_ ^ 2 + 1 y_23_ ^ 2 ] <= 43260
c73: 184 x_24_ - 190 y_24_ + [ 1 x_24_ ^ 2 + 1 y_24_ ^ 2 ] <= 139180
c74: 184 x_25_ - 190 y_25_ + [ 1 x_25_ ^ 2 + 1 y_25_ ^ 2 ] <= 98215
c75: 184 x_26_ - 190 y_26_ + [ 1 x_26_ ^ 2 + 1 y_26_ ^ 2 ] <= 222185
c1_2: 1 x_4_ = 33
c2_2: 1 y_4_ = -32
c3_2: 1 x_20_ = -89
c4_2: 1 y_20_ = -63
c5_2: 1 x_9_ = -92
c6_2: 1 y_9_ = 95
c1: [ 1 x_1_ ^ 2 - 2 x_2_ * x_1_ + 1 x_2_ ^ 2 + 1 y_1_ ^ 2 - 2 y_2_ * y_1_ + 1 y_2_ ^ 2 ] = 1513
c2: [ 1 x_1_ ^ 2 - 2 x_4_ * x_1_ + 1 x_4_ ^ 2 + 1 y_1_ ^ 2 - 2 y_4_ * y_1_ + 1 y_4_ ^ 2 ] = 9028
c3: [ 1 x_2_ ^ 2 - 2 x_4_ * x_2_ + 1 x_4_ ^ 2 + 1 y_2_ ^ 2 - 2 y_4_ * y_2_ + 1 y_4_ ^ 2 ] = 3321
c4: [ 1 x_3_ ^ 2 - 2 x_5_ * x_3_ + 1 x_5_ ^ 2 + 1 y_3_ ^ 2 - 2 y_5_ * y_3_ + 1 y_5_ ^ 2 ] = 7178
c5: [ 1 x_3_ ^ 2 - 2 x_6_ * x_3_ + 1 x_6_ ^ 2 + 1 y_3_ ^ 2 - 2 y_6_ * y_3_ + 1 y_6_ ^ 2 ] = 4729
c6: [ 1 x_1_ ^ 2 - 2 x_7_ * x_1_ + 1 x_7_ ^ 2 + 1 y_1_ ^ 2 - 2 y_7_ * y_1_ + 1 y_7_ ^ 2 ] = 4234
c7: [ 1 x_3_ ^ 2 - 2 x_7_ * x_3_ + 1 x_7_ ^ 2 + 1 y_3_ ^ 2 - 2 y_7_ * y_3_ + 1 y_7_ ^ 2 ] = 2129
c8: [ 1 x_5_ ^ 2 - 2 x_8_ * x_5_ + 1 x_8_ ^ 2 + 1 y_5_ ^ 2 - 2 y_8_ * y_5_ + 1 y_8_ ^ 2 ] = 30605
c9: [ 1 x_7_ ^ 2 - 2 x_9_ * x_7_ + 1 x_9_ ^ 2 + 1 y_7_ ^ 2 - 2 y_9_ * y_7_ + 1 y_9_ ^ 2 ] = 24128
c10: [ 1 x_2_ ^ 2 - 2 x_10_ * x_2_ + 1 x_10_ ^ 2 + 1 y_2_ ^ 2 - 2 y_10_ * y_2_ + 1 y_10_ ^ 2 ] = 17165
c11: [ 1 x_3_ ^ 2 - 2 x_10_ * x_3_ + 1 x_10_ ^ 2 + 1 y_3_ ^ 2 - 2 y_10_ * y_3_ + 1 y_10_ ^ 2 ] = 17929
c12: [ 1 x_7_ ^ 2 - 2 x_10_ * x_7_ + 1 x_10_ ^ 2 + 1 y_7_ ^ 2 - 2 y_10_ * y_7_ + 1 y_10_ ^ 2 ] = 12266
c13: [ 1 x_4_ ^ 2 - 2 x_11_ * x_4_ + 1 x_11_ ^ 2 + 1 y_4_ ^ 2 - 2 y_11_ * y_4_ + 1 y_11_ ^ 2 ] = 2314
c14: [ 1 x_9_ ^ 2 - 2 x_11_ * x_9_ + 1 x_11_ ^ 2 + 1 y_9_ ^ 2 - 2 y_11_ * y_9_ + 1 y_11_ ^ 2 ] = 27136
c15: [ 1 x_10_ ^ 2 - 2 x_11_ * x_10_ + 1 x_11_ ^ 2 + 1 y_10_ ^ 2 - 2 y_11_ * y_10_ + 1 y_11_ ^ 2 ] = 13498
c16: [ 1 x_4_ ^ 2 - 2 x_12_ * x_4_ + 1 x_12_ ^ 2 + 1 y_4_ ^ 2 - 2 y_12_ * y_4_ + 1 y_12_ ^ 2 ] = 15626
c17: [ 1 x_6_ ^ 2 - 2 x_12_ * x_6_ + 1 x_12_ ^ 2 + 1 y_6_ ^ 2 - 2 y_12_ * y_6_ + 1 y_12_ ^ 2 ] = 21026
c18: [ 1 x_7_ ^ 2 - 2 x_12_ * x_7_ + 1 x_12_ ^ 2 + 1 y_7_ ^ 2 - 2 y_12_ * y_7_ + 1 y_12_ ^ 2 ] = 20852
c19: [ 1 x_1_ ^ 2 - 2 x_13_ * x_1_ + 1 x_13_ ^ 2 + 1 y_1_ ^ 2 - 2 y_13_ * y_1_ + 1 y_13_ ^ 2 ] = 8258
c20: [ 1 x_2_ ^ 2 - 2 x_13_ * x_2_ + 1 x_13_ ^ 2 + 1 y_2_ ^ 2 - 2 y_13_ * y_2_ + 1 y_13_ ^ 2 ] = 2741
c21: [ 1 x_1_ ^ 2 - 2 x_14_ * x_1_ + 1 x_14_ ^ 2 + 1 y_1_ ^ 2 - 2 y_14_ * y_1_ + 1 y_14_ ^ 2 ] = 7892
c22: [ 1 x_3_ ^ 2 - 2 x_14_ * x_3_ + 1 x_14_ ^ 2 + 1 y_3_ ^ 2 - 2 y_14_ * y_3_ + 1 y_14_ ^ 2 ] = 1557
c23: [ 1 x_5_ ^ 2 - 2 x_14_ * x_5_ + 1 x_14_ ^ 2 + 1 y_5_ ^ 2 - 2 y_14_ * y_5_ + 1 y_14_ ^ 2 ] = 12965
c24: [ 1 x_8_ ^ 2 - 2 x_15_ * x_8_ + 1 x_15_ ^ 2 + 1 y_8_ ^ 2 - 2 y_15_ * y_8_ + 1 y_15_ ^ 2 ] = 4264
c25: [ 1 x_10_ ^ 2 - 2 x_15_ * x_10_ + 1 x_15_ ^ 2 + 1 y_10_ ^ 2 - 2 y_15_ * y_10_ + 1 y_15_ ^ 2 ] = 1306
c26: [ 1 x_10_ ^ 2 - 2 x_16_ * x_10_ + 1 x_16_ ^ 2 + 1 y_10_ ^ 2 - 2 y_16_ * y_10_ + 1 y_16_ ^ 2 ] = 13897
c27: [ 1 x_13_ ^ 2 - 2 x_16_ * x_13_ + 1 x_16_ ^ 2 + 1 y_13_ ^ 2 - 2 y_16_ * y_13_ + 1 y_16_ ^ 2 ] = 865
c28: [ 1 x_10_ ^ 2 - 2 x_17_ * x_10_ + 1 x_17_ ^ 2 + 1 y_10_ ^ 2 - 2 y_17_ * y_10_ + 1 y_17_ ^ 2 ] = 28946
c29: [ 1 x_16_ ^ 2 - 2 x_17_ * x_16_ + 1 x_17_ ^ 2 + 1 y_16_ ^ 2 - 2 y_17_ * y_16_ + 1 y_17_ ^ 2 ] = 18005
c30: [ 1 x_2_ ^ 2 - 2 x_18_ * x_2_ + 1 x_18_ ^ 2 + 1 y_2_ ^ 2 - 2 y_18_ * y_2_ + 1 y_18_ ^ 2 ] = 3805
c31: [ 1 x_6_ ^ 2 - 2 x_18_ * x_6_ + 1 x_18_ ^ 2 + 1 y_6_ ^ 2 - 2 y_18_ * y_6_ + 1 y_18_ ^ 2 ] = 1954
c32: [ 1 x_14_ ^ 2 - 2 x_18_ * x_14_ + 1 x_18_ ^ 2 + 1 y_14_ ^ 2 - 2 y_18_ * y_14_ + 1 y_18_ ^ 2 ] = 9626
c33: [ 1 x_7_ ^ 2 - 2 x_19_ * x_7_ + 1 x_19_ ^ 2 + 1 y_7_ ^ 2 - 2 y_19_ * y_7_ + 1 y_19_ ^ 2 ] = 584
c34: [ 1 x_13_ ^ 2 - 2 x_19_ * x_13_ + 1 x_19_ ^ 2 + 1 y_13_ ^ 2 - 2 y_19_ * y_13_ + 1 y_19_ ^ 2 ] = 2448
c35: [ 1 x_6_ ^ 2 - 2 x_20_ * x_6_ + 1 x_20_ ^ 2 + 1 y_6_ ^ 2 - 2 y_20_ * y_6_ + 1 y_20_ ^ 2 ] = 28901
c36: [ 1 x_17_ ^ 2 - 2 x_20_ * x_17_ + 1 x_20_ ^ 2 + 1 y_17_ ^ 2 - 2 y_20_ * y_17_ + 1 y_20_ ^ 2 ] = 50257
c37: [ 1 x_8_ ^ 2 - 2 x_21_ * x_8_ + 1 x_21_ ^ 2 + 1 y_8_ ^ 2 - 2 y_21_ * y_8_ + 1 y_21_ ^ 2 ] = 29648
c38: [ 1 x_20_ ^ 2 - 2 x_21_ * x_20_ + 1 x_21_ ^ 2 + 1 y_20_ ^ 2 - 2 y_21_ * y_20_ + 1 y_21_ ^ 2 ] = 205
c39: [ 1 x_1_ ^ 2 - 2 x_22_ * x_1_ + 1 x_22_ ^ 2 + 1 y_1_ ^ 2 - 2 y_22_ * y_1_ + 1 y_22_ ^ 2 ] = 4337
c40: [ 1 x_8_ ^ 2 - 2 x_22_ * x_8_ + 1 x_22_ ^ 2 + 1 y_8_ ^ 2 - 2 y_22_ * y_8_ + 1 y_22_ ^ 2 ] = 18325
c41: [ 1 x_3_ ^ 2 - 2 x_23_ * x_3_ + 1 x_23_ ^ 2 + 1 y_3_ ^ 2 - 2 y_23_ * y_3_ + 1 y_23_ ^ 2 ] = 2025
c42: [ 1 x_15_ ^ 2 - 2 x_23_ * x_15_ + 1 x_23_ ^ 2 + 1 y_15_ ^ 2 - 2 y_23_ * y_15_ + 1 y_23_ ^ 2 ] = 19314
c43: [ 1 x_17_ ^ 2 - 2 x_23_ * x_17_ + 1 x_23_ ^ 2 + 1 y_17_ ^ 2 - 2 y_23_ * y_17_ + 1 y_23_ ^ 2 ] = 19402
c44: [ 1 x_17_ ^ 2 - 2 x_24_ * x_17_ + 1 x_24_ ^ 2 + 1 y_17_ ^ 2 - 2 y_24_ * y_17_ + 1 y_24_ ^ 2 ] = 101
c45: [ 1 x_1_ ^ 2 - 2 x_25_ * x_1_ + 1 x_25_ ^ 2 + 1 y_1_ ^ 2 - 2 y_25_ * y_1_ + 1 y_25_ ^ 2 ] = 40720
c46: [ 1 x_19_ ^ 2 - 2 x_25_ * x_19_ + 1 x_25_ ^ 2 + 1 y_19_ ^ 2 - 2 y_25_ * y_19_ + 1 y_25_ ^ 2 ] = 25810
c47: [ 1 x_17_ ^ 2 - 2 x_26_ * x_17_ + 1 x_26_ ^ 2 + 1 y_17_ ^ 2 - 2 y_26_ * y_17_ + 1 y_26_ ^ 2 ] = 26170
c48: [ 1 x_24_ ^ 2 - 2 x_26_ * x_24_ + 1 x_26_ ^ 2 + 1 y_24_ ^ 2 - 2 y_26_ * y_24_ + 1 y_26_ ^ 2 ] = 27233
c49: [ 1 x_25_ ^ 2 - 2 x_26_ * x_25_ + 1 x_26_ ^ 2 + 1 y_25_ ^ 2 - 2 y_26_ * y_25_ + 1 y_26_ ^ 2 ] = 22324
Bounds
-62 <= x_1_ <= 128
-24 <= x_2_ <= 90
-173 <= x_3_ <= 109
x_4_ = 33
-257 <= x_5_ <= 194
-130 <= x_6_ <= 81
-127 <= x_7_ <= 63
-232 <= x_8_ <= 97
x_9_ = -92
-131 <= x_10_ <= 174
-15 <= x_11_ <= 72
-92 <= x_12_ <= 158
-76 <= x_13_ <= 136
-150 <= x_14_ <= 148
-167 <= x_15_ <= 162
-106 <= x_16_ <= 166
-240 <= x_17_ <= 135
-86 <= x_18_ <= 125
-126 <= x_19_ <= 87
x_20_ = -89
-103 <= x_21_ <= -75
-127 <= x_22_ <= 193
-218 <= x_23_ <= 154
-250 <= x_24_ <= 145
-263 <= x_25_ <= 248
-402 <= x_26_ <= 296
-125 <= y_1_ <= 63
-89 <= y_2_ <= 25
-106 <= y_3_ <= 174
y_4_ = -32
-191 <= y_5_ <= 258
-175 <= y_6_ <= 107
-60 <= y_7_ <= 128
-249 <= y_8_ <= 123
y_9_ = 95
-171 <= y_10_ <= 132
-69 <= y_11_ <= 16
-157 <= y_12_ <= 93
-133 <= y_13_ <= 77
-145 <= y_14_ <= 151
-207 <= y_15_ <= 168
-163 <= y_16_ <= 107
-287 <= y_17_ <= 161
-151 <= y_18_ <= 87
-84 <= y_19_ <= 127
y_20_ = -63
-77 <= y_21_ <= -49
-191 <= y_22_ <= 128
-151 <= y_23_ <= 219
-297 <= y_24_ <= 171
-245 <= y_25_ <= 264
-394 <= y_26_ <= 322
General
x_1_
x_2_
x_3_
x_4_
x_5_
x_6_
x_7_
x_8_
x_9_
x_10_
x_11_
x_12_
x_13_
x_14_
x_15_
x_16_
x_17_
x_18_
x_19_
x_20_
x_21_
x_22_
x_23_
x_24_
x_25_
x_26_
y_1_
y_2_
y_3_
y_4_
y_5_
y_6_
y_7_
y_8_
y_9_
y_10_
y_11_
y_12_
y_13_
y_14_
y_15_
y_16_
y_17_
y_18_
y_19_
y_20_
y_21_
y_22_
y_23_
y_24_
y_25_
y_26_
End
