minimize
obj: 
subject to
c1: 30 x_1_ - 2 y_1_ + [ 1 x_1_ ^ 2 + 1 y_1_ ^ 2 ] <= 58009.141449070674
c2: 30 x_2_ - 2 y_2_ + [ 1 x_2_ ^ 2 + 1 y_2_ ^ 2 ] <= 89183.76625175105
c3: 30 x_3_ - 2 y_3_ + [ 1 x_3_ ^ 2 + 1 y_3_ ^ 2 ] <= 43215.52430938275
c4: 30 x_4_ - 2 y_4_ + [ 1 x_4_ ^ 2 + 1 y_4_ ^ 2 ] <= 65853.32200929544
c5: 30 x_5_ - 2 y_5_ + [ 1 x_5_ ^ 2 + 1 y_5_ ^ 2 ] <= 66378.87318721262
c6: 30 x_6_ - 2 y_6_ + [ 1 x_6_ ^ 2 + 1 y_6_ ^ 2 ] <= 25576.199899828527
c7: 30 x_7_ - 2 y_7_ + [ 1 x_7_ ^ 2 + 1 y_7_ ^ 2 ] <= 28343.848633343438
c8: 30 x_8_ - 2 y_8_ + [ 1 x_8_ ^ 2 + 1 y_8_ ^ 2 ] <= 47685.10090934272
c9: 30 x_9_ - 2 y_9_ + [ 1 x_9_ ^ 2 + 1 y_9_ ^ 2 ] <= 8820.57
c10: 30 x_10_ - 2 y_10_ + [ 1 x_10_ ^ 2 + 1 y_10_ ^ 2 ] <= 79055.54854413071
c11: 30 x_11_ - 2 y_11_ + [ 1 x_11_ ^ 2 + 1 y_11_ ^ 2 ] <= 53751.55491530727
c12: 30 x_13_ - 2 y_13_ + [ 1 x_13_ ^ 2 + 1 y_13_ ^ 2 ] <= 13356.479999999996
c13: 30 x_14_ - 2 y_14_ + [ 1 x_14_ ^ 2 + 1 y_14_ ^ 2 ] <= 71612.14004419846
c14: 30 x_15_ - 2 y_15_ + [ 1 x_15_ ^ 2 + 1 y_15_ ^ 2 ] <= 85363.8104718001
c15: 30 x_16_ - 2 y_16_ + [ 1 x_16_ ^ 2 + 1 y_16_ ^ 2 ] <= 125390.05852164046
c16: 30 x_17_ - 2 y_17_ + [ 1 x_17_ ^ 2 + 1 y_17_ ^ 2 ] <= 100196.97785577261
c17: 30 x_18_ - 2 y_18_ + [ 1 x_18_ ^ 2 + 1 y_18_ ^ 2 ] <= 12088.929999999997
c18: 30 x_19_ - 2 y_19_ + [ 1 x_19_ ^ 2 + 1 y_19_ ^ 2 ] <= 157182.01509024046
c19: 30 x_20_ - 2 y_20_ + [ 1 x_20_ ^ 2 + 1 y_20_ ^ 2 ] <= 120373.2075275255
c20: 30 x_21_ - 2 y_21_ + [ 1 x_21_ ^ 2 + 1 y_21_ ^ 2 ] <= 16064.651943495108
c21: 30 x_22_ - 2 y_22_ + [ 1 x_22_ ^ 2 + 1 y_22_ ^ 2 ] <= 144847.55489586157
c22: 30 x_23_ - 2 y_23_ + [ 1 x_23_ ^ 2 + 1 y_23_ ^ 2 ] <= 93454.80558966627
c23: 30 x_24_ - 2 y_24_ + [ 1 x_24_ ^ 2 + 1 y_24_ ^ 2 ] <= 97832.66411545406
c24: 30 x_25_ - 2 y_25_ + [ 1 x_25_ ^ 2 + 1 y_25_ ^ 2 ] <= 52643.52031082986
c25: 30 x_26_ - 2 y_26_ + [ 1 x_26_ ^ 2 + 1 y_26_ ^ 2 ] <= 108898.7991838711
c26: 30 x_27_ - 2 y_27_ + [ 1 x_27_ ^ 2 + 1 y_27_ ^ 2 ] <= 14250.521804674026
c27: 30 x_28_ - 2 y_28_ + [ 1 x_28_ ^ 2 + 1 y_28_ ^ 2 ] <= 29339.599254909866
c28: 162 x_1_ + 86 y_1_ + [ 1 x_1_ ^ 2 + 1 y_1_ ^ 2 ] <= 48804.51647008899
c29: 162 x_2_ + 86 y_2_ + [ 1 x_2_ ^ 2 + 1 y_2_ ^ 2 ] <= 29756.00378082045
c30: 162 x_3_ + 86 y_3_ + [ 1 x_3_ ^ 2 + 1 y_3_ ^ 2 ] <= 3508.8444862193282
c31: 162 x_4_ + 86 y_4_ + [ 1 x_4_ ^ 2 + 1 y_4_ ^ 2 ] <= -4829.55
c32: 162 x_5_ + 86 y_5_ + [ 1 x_5_ ^ 2 + 1 y_5_ ^ 2 ] <= 16815.811271989536
c33: 162 x_6_ + 86 y_6_ + [ 1 x_6_ ^ 2 + 1 y_6_ ^ 2 ] <= 46010.18454579731
c34: 162 x_7_ + 86 y_7_ + [ 1 x_7_ ^ 2 + 1 y_7_ ^ 2 ] <= 13664.110885705326
c35: 162 x_8_ + 86 y_8_ + [ 1 x_8_ ^ 2 + 1 y_8_ ^ 2 ] <= 14441.471405338714
c36: 162 x_9_ + 86 y_9_ + [ 1 x_9_ ^ 2 + 1 y_9_ ^ 2 ] <= 41090.156464460015
c37: 162 x_10_ + 86 y_10_ + [ 1 x_10_ ^ 2 + 1 y_10_ ^ 2 ] <= 24136.344067943337
c38: 162 x_11_ + 86 y_11_ + [ 1 x_11_ ^ 2 + 1 y_11_ ^ 2 ] <= 44585.11511164859
c39: 162 x_12_ + 86 y_12_ + [ 1 x_12_ ^ 2 + 1 y_12_ ^ 2 ] <= 92012.97785577261
c40: 162 x_13_ + 86 y_13_ + [ 1 x_13_ ^ 2 + 1 y_13_ ^ 2 ] <= 31730.903751209742
c41: 162 x_14_ + 86 y_14_ + [ 1 x_14_ ^ 2 + 1 y_14_ ^ 2 ] <= 16470.34
c42: 162 x_15_ + 86 y_15_ + [ 1 x_15_ ^ 2 + 1 y_15_ ^ 2 ] <= 70290.89054373468
c43: 162 x_16_ + 86 y_16_ + [ 1 x_16_ ^ 2 + 1 y_16_ ^ 2 ] <= 16302.29090231872
c44: 162 x_18_ + 86 y_18_ + [ 1 x_18_ ^ 2 + 1 y_18_ ^ 2 ] <= 58712.66541341708
c45: 162 x_19_ + 86 y_19_ + [ 1 x_19_ ^ 2 + 1 y_19_ ^ 2 ] <= 65259.503671979604
c46: 162 x_20_ + 86 y_20_ + [ 1 x_20_ ^ 2 + 1 y_20_ ^ 2 ] <= 47750.76109173349
c47: 162 x_21_ + 86 y_21_ + [ 1 x_21_ ^ 2 + 1 y_21_ ^ 2 ] <= 56618.919898276064
c48: 162 x_22_ + 86 y_22_ + [ 1 x_22_ ^ 2 + 1 y_22_ ^ 2 ] <= 38989.299999999996
c49: 162 x_23_ + 86 y_23_ + [ 1 x_23_ ^ 2 + 1 y_23_ ^ 2 ] <= 49150.85848682397
c50: 162 x_24_ + 86 y_24_ + [ 1 x_24_ ^ 2 + 1 y_24_ ^ 2 ] <= 88322.9291793834
c51: 162 x_25_ + 86 y_25_ + [ 1 x_25_ ^ 2 + 1 y_25_ ^ 2 ] <= 2450.529999999999
c52: 162 x_26_ + 86 y_26_ + [ 1 x_26_ ^ 2 + 1 y_26_ ^ 2 ] <= 9310.483209081427
c53: 162 x_27_ + 86 y_27_ + [ 1 x_27_ ^ 2 + 1 y_27_ ^ 2 ] <= 52940.96328720283
c54: 162 x_28_ + 86 y_28_ + [ 1 x_28_ ^ 2 + 1 y_28_ ^ 2 ] <= 60335.84066602326
c55: -28 x_1_ + 110 y_1_ + [ 1 x_1_ ^ 2 + 1 y_1_ ^ 2 ] <= 3289.7069355903395
c56: -28 x_2_ + 110 y_2_ + [ 1 x_2_ ^ 2 + 1 y_2_ ^ 2 ] <= 19824.169999999995
c57: -28 x_3_ + 110 y_3_ + [ 1 x_3_ ^ 2 + 1 y_3_ ^ 2 ] <= 12181.76625145079
c58: -28 x_4_ + 110 y_4_ + [ 1 x_4_ ^ 2 + 1 y_4_ ^ 2 ] <= 26861.987814240605
c59: -28 x_5_ + 110 y_5_ + [ 1 x_5_ ^ 2 + 1 y_5_ ^ 2 ] <= 26971.8075147364
c60: -28 x_7_ + 110 y_7_ + [ 1 x_7_ ^ 2 + 1 y_7_ ^ 2 ] <= 16219.694816159703
c61: -28 x_8_ + 110 y_8_ + [ 1 x_8_ ^ 2 + 1 y_8_ ^ 2 ] <= 3521.7599999999975
c62: -28 x_9_ + 110 y_9_ + [ 1 x_9_ ^ 2 + 1 y_9_ ^ 2 ] <= 1071.5
c63: -28 x_10_ + 110 y_10_ + [ 1 x_10_ ^ 2 + 1 y_10_ ^ 2 ] <= 35687.10321136368
c64: -28 x_11_ + 110 y_11_ + [ 1 x_11_ ^ 2 + 1 y_11_ ^ 2 ] <= 1919.8999999999987
c65: -28 x_12_ + 110 y_12_ + [ 1 x_12_ ^ 2 + 1 y_12_ ^ 2 ] <= 22581.199899828527
c66: -28 x_13_ + 110 y_13_ + [ 1 x_13_ ^ 2 + 1 y_13_ ^ 2 ] <= 70601.94241566179
c67: -28 x_14_ + 110 y_14_ + [ 1 x_14_ ^ 2 + 1 y_14_ ^ 2 ] <= 53627.909790863196
c68: -28 x_15_ + 110 y_15_ + [ 1 x_15_ ^ 2 + 1 y_15_ ^ 2 ] <= 152128.81510407757
c69: -28 x_16_ + 110 y_16_ + [ 1 x_16_ ^ 2 + 1 y_16_ ^ 2 ] <= 70116.54324503356
c70: -28 x_17_ + 110 y_17_ + [ 1 x_17_ ^ 2 + 1 y_17_ ^ 2 ] <= 51199.184545797325
c71: -28 x_18_ + 110 y_18_ + [ 1 x_18_ ^ 2 + 1 y_18_ ^ 2 ] <= 22401.883937913117
c72: -28 x_19_ + 110 y_19_ + [ 1 x_19_ ^ 2 + 1 y_19_ ^ 2 ] <= 52529.83995325798
c73: -28 x_20_ + 110 y_20_ + [ 1 x_20_ ^ 2 + 1 y_20_ ^ 2 ] <= 97698.10891181008
c74: -28 x_21_ + 110 y_21_ + [ 1 x_21_ ^ 2 + 1 y_21_ ^ 2 ] <= 6390.5578821968575
c75: -28 x_22_ + 110 y_22_ + [ 1 x_22_ ^ 2 + 1 y_22_ ^ 2 ] <= 69023.38620868832
c76: -28 x_23_ + 110 y_23_ + [ 1 x_23_ ^ 2 + 1 y_23_ ^ 2 ] <= 53468.09855138198
c77: -28 x_24_ + 110 y_24_ + [ 1 x_24_ ^ 2 + 1 y_24_ ^ 2 ] <= 20039.083632283793
c78: -28 x_25_ + 110 y_25_ + [ 1 x_25_ ^ 2 + 1 y_25_ ^ 2 ] <= 36914.091875640406
c79: -28 x_26_ + 110 y_26_ + [ 1 x_26_ ^ 2 + 1 y_26_ ^ 2 ] <= 31621.060220314313
c80: -28 x_27_ + 110 y_27_ + [ 1 x_27_ ^ 2 + 1 y_27_ ^ 2 ] <= 5009.505443388969
c81: -28 x_28_ + 110 y_28_ + [ 1 x_28_ ^ 2 + 1 y_28_ ^ 2 ] <= 34082.66199654752
quadratic_ranged_1_ub: [ 1 x_2_ ^ 2 - 2 x_3_ * x_2_ + 1 x_3_ ^ 2 + 1 y_2_ ^ 2 - 2 y_3_ * y_2_ + 1 y_3_ ^ 2 ] <= 8206.25
quadratic_ranged_2_ub: [ 1 x_2_ ^ 2 - 2 x_4_ * x_2_ + 1 x_4_ ^ 2 + 1 y_2_ ^ 2 - 2 y_4_ * y_2_ + 1 y_4_ ^ 2 ] <= 18366.85
quadratic_ranged_3_ub: [ 1 x_3_ ^ 2 - 2 x_4_ * x_3_ + 1 x_4_ ^ 2 + 1 y_3_ ^ 2 - 2 y_4_ * y_3_ + 1 y_4_ ^ 2 ] <= 2434.1
quadratic_ranged_4_ub: [ 1 x_1_ ^ 2 - 2 x_5_ * x_1_ + 1 x_5_ ^ 2 + 1 y_1_ ^ 2 - 2 y_5_ * y_1_ + 1 y_5_ ^ 2 ] <= 26184.25
quadratic_ranged_5_ub: [ 1 x_3_ ^ 2 - 2 x_5_ * x_3_ + 1 x_5_ ^ 2 + 1 y_3_ ^ 2 - 2 y_5_ * y_3_ + 1 y_5_ ^ 2 ] <= 2465.41
quadratic_ranged_6_ub: [ 1 x_2_ ^ 2 - 2 x_6_ * x_2_ + 1 x_6_ ^ 2 + 1 y_2_ ^ 2 - 2 y_6_ * y_2_ + 1 y_6_ ^ 2 ] <= 23045.170000000002
quadratic_ranged_7_ub: [ 1 x_3_ ^ 2 - 2 x_7_ * x_3_ + 1 x_7_ ^ 2 + 1 y_3_ ^ 2 - 2 y_7_ * y_3_ + 1 y_7_ ^ 2 ] <= 1552.3700000000001
quadratic_ranged_8_ub: [ 1 x_3_ ^ 2 - 2 x_8_ * x_3_ + 1 x_8_ ^ 2 + 1 y_3_ ^ 2 - 2 y_8_ * y_3_ + 1 y_8_ ^ 2 ] <= 1763.46
quadratic_ranged_9_ub: [ 1 x_6_ ^ 2 - 2 x_8_ * x_6_ + 1 x_8_ ^ 2 + 1 y_6_ ^ 2 - 2 y_8_ * y_6_ + 1 y_8_ ^ 2 ] <= 6742.76
quadratic_ranged_10_ub: [ 1 x_6_ ^ 2 - 2 x_9_ * x_6_ + 1 x_9_ ^ 2 + 1 y_6_ ^ 2 - 2 y_9_ * y_6_ + 1 y_9_ ^ 2 ] <= 4292.5
quadratic_ranged_11_ub: [ 1 x_7_ ^ 2 - 2 x_9_ * x_7_ + 1 x_9_ ^ 2 + 1 y_7_ ^ 2 - 2 y_9_ * y_7_ + 1 y_9_ ^ 2 ] <= 5463.09
quadratic_ranged_12_ub: [ 1 x_3_ ^ 2 - 2 x_10_ * x_3_ + 1 x_10_ ^ 2 + 1 y_3_ ^ 2 - 2 y_10_ * y_3_ + 1 y_10_ ^ 2 ] <= 5349.97
quadratic_ranged_13_ub: [ 1 x_4_ ^ 2 - 2 x_10_ * x_4_ + 1 x_10_ ^ 2 + 1 y_4_ ^ 2 - 2 y_10_ * y_4_ + 1 y_10_ ^ 2 ] <= 14536.93
quadratic_ranged_14_ub: [ 1 x_5_ ^ 2 - 2 x_10_ * x_5_ + 1 x_10_ ^ 2 + 1 y_5_ ^ 2 - 2 y_10_ * y_5_ + 1 y_10_ ^ 2 ] <= 3015.86
quadratic_ranged_15_ub: [ 1 x_1_ ^ 2 - 2 x_11_ * x_1_ + 1 x_11_ ^ 2 + 1 y_1_ ^ 2 - 2 y_11_ * y_1_ + 1 y_11_ ^ 2 ] <= 80.8
quadratic_ranged_16_ub: [ 1 x_3_ ^ 2 - 2 x_11_ * x_3_ + 1 x_11_ ^ 2 + 1 y_3_ ^ 2 - 2 y_11_ * y_3_ + 1 y_11_ ^ 2 ] <= 14649.04
quadratic_ranged_17_ub: [ 1 x_6_ ^ 2 - 2 x_11_ * x_6_ + 1 x_11_ ^ 2 + 1 y_6_ ^ 2 - 2 y_11_ * y_6_ + 1 y_11_ ^ 2 ] <= 5140.9
quadratic_ranged_18_ub: [ 1 x_9_ ^ 2 - 2 x_12_ * x_9_ + 1 x_12_ ^ 2 + 1 y_9_ ^ 2 - 2 y_12_ * y_9_ + 1 y_12_ ^ 2 ] <= 9046.57
quadratic_ranged_19_ub: [ 1 x_4_ ^ 2 - 2 x_13_ * x_4_ + 1 x_13_ ^ 2 + 1 y_4_ ^ 2 - 2 y_13_ * y_4_ + 1 y_13_ ^ 2 ] <= 19744.49
quadratic_ranged_20_ub: [ 1 x_12_ ^ 2 - 2 x_13_ * x_12_ + 1 x_13_ ^ 2 + 1 y_12_ ^ 2 - 2 y_13_ * y_12_ + 1 y_13_ ^ 2 ] <= 13582.48
quadratic_ranged_21_ub: [ 1 x_5_ ^ 2 - 2 x_14_ * x_5_ + 1 x_14_ ^ 2 + 1 y_5_ ^ 2 - 2 y_14_ * y_5_ + 1 y_14_ ^ 2 ] <= 12253.32
quadratic_ranged_22_ub: [ 1 x_7_ ^ 2 - 2 x_14_ * x_7_ + 1 x_14_ ^ 2 + 1 y_7_ ^ 2 - 2 y_14_ * y_7_ + 1 y_14_ ^ 2 ] <= 9801.04
quadratic_ranged_23_ub: [ 1 x_13_ ^ 2 - 2 x_15_ * x_13_ + 1 x_15_ ^ 2 + 1 y_13_ ^ 2 - 2 y_15_ * y_13_ + 1 y_15_ ^ 2 ] <= 30980.74
quadratic_ranged_24_ub: [ 1 x_4_ ^ 2 - 2 x_16_ * x_4_ + 1 x_16_ ^ 2 + 1 y_4_ ^ 2 - 2 y_16_ * y_4_ + 1 y_16_ ^ 2 ] <= 9479.86
quadratic_ranged_25_ub: [ 1 x_15_ ^ 2 - 2 x_16_ * x_15_ + 1 x_16_ ^ 2 + 1 y_15_ ^ 2 - 2 y_16_ * y_15_ + 1 y_16_ ^ 2 ] <= 15211.61
quadratic_ranged_26_ub: [ 1 x_4_ ^ 2 - 2 x_17_ * x_4_ + 1 x_17_ ^ 2 + 1 y_4_ ^ 2 - 2 y_17_ * y_4_ + 1 y_17_ ^ 2 ] <= 3580.45
quadratic_ranged_27_ub: [ 1 x_14_ ^ 2 - 2 x_17_ * x_14_ + 1 x_17_ ^ 2 + 1 y_14_ ^ 2 - 2 y_17_ * y_14_ + 1 y_17_ ^ 2 ] <= 24880.34
quadratic_ranged_28_ub: [ 1 x_8_ ^ 2 - 2 x_18_ * x_8_ + 1 x_18_ ^ 2 + 1 y_8_ ^ 2 - 2 y_18_ * y_8_ + 1 y_18_ ^ 2 ] <= 11645.3
quadratic_ranged_29_ub: [ 1 x_9_ ^ 2 - 2 x_18_ * x_9_ + 1 x_18_ ^ 2 + 1 y_9_ ^ 2 - 2 y_18_ * y_9_ + 1 y_18_ ^ 2 ] <= 8940.52
quadratic_ranged_30_ub: [ 1 x_12_ ^ 2 - 2 x_18_ * x_12_ + 1 x_18_ ^ 2 + 1 y_12_ ^ 2 - 2 y_18_ * y_12_ + 1 y_18_ ^ 2 ] <= 12314.93
quadratic_ranged_31_ub: [ 1 x_11_ ^ 2 - 2 x_19_ * x_11_ + 1 x_19_ ^ 2 + 1 y_11_ ^ 2 - 2 y_19_ * y_11_ + 1 y_19_ ^ 2 ] <= 27032.65
quadratic_ranged_32_ub: [ 1 x_16_ ^ 2 - 2 x_19_ * x_16_ + 1 x_19_ ^ 2 + 1 y_16_ ^ 2 - 2 y_19_ * y_16_ + 1 y_19_ ^ 2 ] <= 13046.17
quadratic_ranged_33_ub: [ 1 x_14_ ^ 2 - 2 x_20_ * x_14_ + 1 x_20_ ^ 2 + 1 y_14_ ^ 2 - 2 y_20_ * y_14_ + 1 y_20_ ^ 2 ] <= 6280.18
quadratic_ranged_34_ub: [ 1 x_15_ ^ 2 - 2 x_20_ * x_15_ + 1 x_20_ ^ 2 + 1 y_15_ ^ 2 - 2 y_20_ * y_15_ + 1 y_20_ ^ 2 ] <= 31053.46
quadratic_ranged_35_ub: [ 1 x_16_ ^ 2 - 2 x_20_ * x_16_ + 1 x_20_ ^ 2 + 1 y_16_ ^ 2 - 2 y_20_ * y_16_ + 1 y_20_ ^ 2 ] <= 38304.25
quadratic_ranged_36_ub: [ 1 x_1_ ^ 2 - 2 x_21_ * x_1_ + 1 x_21_ ^ 2 + 1 y_1_ ^ 2 - 2 y_21_ * y_1_ + 1 y_21_ ^ 2 ] <= 18965.78
quadratic_ranged_37_ub: [ 1 x_13_ ^ 2 - 2 x_21_ * x_13_ + 1 x_21_ ^ 2 + 1 y_13_ ^ 2 - 2 y_21_ * y_13_ + 1 y_21_ ^ 2 ] <= 30159.61
quadratic_ranged_38_ub: [ 1 x_5_ ^ 2 - 2 x_22_ * x_5_ + 1 x_22_ ^ 2 + 1 y_5_ ^ 2 - 2 y_22_ * y_5_ + 1 y_22_ ^ 2 ] <= 15081.32
quadratic_ranged_39_ub: [ 1 x_17_ ^ 2 - 2 x_22_ * x_17_ + 1 x_22_ ^ 2 + 1 y_17_ ^ 2 - 2 y_22_ * y_17_ + 1 y_22_ ^ 2 ] <= 47399.3
quadratic_ranged_40_ub: [ 1 x_3_ ^ 2 - 2 x_23_ * x_3_ + 1 x_23_ ^ 2 + 1 y_3_ ^ 2 - 2 y_23_ * y_3_ + 1 y_23_ ^ 2 ] <= 17094.25
quadratic_ranged_41_ub: [ 1 x_8_ ^ 2 - 2 x_23_ * x_8_ + 1 x_23_ ^ 2 + 1 y_8_ ^ 2 - 2 y_23_ * y_8_ + 1 y_23_ ^ 2 ] <= 24329.89
quadratic_ranged_42_ub: [ 1 x_21_ ^ 2 - 2 x_23_ * x_21_ + 1 x_23_ ^ 2 + 1 y_21_ ^ 2 - 2 y_23_ * y_21_ + 1 y_23_ ^ 2 ] <= 31840.25
quadratic_ranged_43_ub: [ 1 x_11_ ^ 2 - 2 x_24_ * x_11_ + 1 x_24_ ^ 2 + 1 y_11_ ^ 2 - 2 y_24_ * y_11_ + 1 y_24_ ^ 2 ] <= 6530.66
quadratic_ranged_44_ub: [ 1 x_22_ ^ 2 - 2 x_24_ * x_22_ + 1 x_24_ ^ 2 + 1 y_22_ ^ 2 - 2 y_24_ * y_22_ + 1 y_24_ ^ 2 ] <= 13518.85
quadratic_ranged_45_ub: [ 1 x_7_ ^ 2 - 2 x_25_ * x_7_ + 1 x_25_ ^ 2 + 1 y_7_ ^ 2 - 2 y_25_ * y_7_ + 1 y_25_ ^ 2 ] <= 3709.73
quadratic_ranged_46_ub: [ 1 x_17_ ^ 2 - 2 x_25_ * x_17_ + 1 x_25_ ^ 2 + 1 y_17_ ^ 2 - 2 y_25_ * y_17_ + 1 y_25_ ^ 2 ] <= 10860.53
quadratic_ranged_47_ub: [ 1 x_4_ ^ 2 - 2 x_26_ * x_4_ + 1 x_26_ ^ 2 + 1 y_4_ ^ 2 - 2 y_26_ * y_4_ + 1 y_26_ ^ 2 ] <= 5370.17
quadratic_ranged_48_ub: [ 1 x_11_ ^ 2 - 2 x_26_ * x_11_ + 1 x_26_ ^ 2 + 1 y_11_ ^ 2 - 2 y_26_ * y_11_ + 1 y_26_ ^ 2 ] <= 13215.85
quadratic_ranged_49_ub: [ 1 x_9_ ^ 2 - 2 x_27_ * x_9_ + 1 x_27_ ^ 2 + 1 y_9_ ^ 2 - 2 y_27_ * y_9_ + 1 y_27_ ^ 2 ] <= 635.29
quadratic_ranged_50_ub: [ 1 x_21_ ^ 2 - 2 x_27_ * x_21_ + 1 x_27_ ^ 2 + 1 y_21_ ^ 2 - 2 y_27_ * y_21_ + 1 y_27_ ^ 2 ] <= 53.53
quadratic_ranged_51_ub: [ 1 x_2_ ^ 2 - 2 x_28_ * x_2_ + 1 x_28_ ^ 2 + 1 y_2_ ^ 2 - 2 y_28_ * y_2_ + 1 y_28_ ^ 2 ] <= 30520.18
quadratic_ranged_52_ub: [ 1 x_8_ ^ 2 - 2 x_28_ * x_8_ + 1 x_28_ ^ 2 + 1 y_8_ ^ 2 - 2 y_28_ * y_8_ + 1 y_28_ ^ 2 ] <= 12327.05
quadratic_ranged_53_ub: [ 1 x_18_ ^ 2 - 2 x_28_ * x_18_ + 1 x_28_ ^ 2 + 1 y_18_ ^ 2 - 2 y_28_ * y_18_ + 1 y_28_ ^ 2 ] <= 3717.81
quadratic_ranged_1_lb: [ 1 x_2_ ^ 2 - 2 x_3_ * x_2_ + 1 x_3_ ^ 2 + 1 y_2_ ^ 2 - 2 y_3_ * y_2_ + 1 y_3_ ^ 2 ] >= 8043.75
quadratic_ranged_2_lb: [ 1 x_2_ ^ 2 - 2 x_4_ * x_2_ + 1 x_4_ ^ 2 + 1 y_2_ ^ 2 - 2 y_4_ * y_2_ + 1 y_4_ ^ 2 ] >= 18003.15
quadratic_ranged_3_lb: [ 1 x_3_ ^ 2 - 2 x_4_ * x_3_ + 1 x_4_ ^ 2 + 1 y_3_ ^ 2 - 2 y_4_ * y_3_ + 1 y_4_ ^ 2 ] >= 2385.9
quadratic_ranged_4_lb: [ 1 x_1_ ^ 2 - 2 x_5_ * x_1_ + 1 x_5_ ^ 2 + 1 y_1_ ^ 2 - 2 y_5_ * y_1_ + 1 y_5_ ^ 2 ] >= 25665.75
quadratic_ranged_5_lb: [ 1 x_3_ ^ 2 - 2 x_5_ * x_3_ + 1 x_5_ ^ 2 + 1 y_3_ ^ 2 - 2 y_5_ * y_3_ + 1 y_5_ ^ 2 ] >= 2416.59
quadratic_ranged_6_lb: [ 1 x_2_ ^ 2 - 2 x_6_ * x_2_ + 1 x_6_ ^ 2 + 1 y_2_ ^ 2 - 2 y_6_ * y_2_ + 1 y_6_ ^ 2 ] >= 22588.829999999998
quadratic_ranged_7_lb: [ 1 x_3_ ^ 2 - 2 x_7_ * x_3_ + 1 x_7_ ^ 2 + 1 y_3_ ^ 2 - 2 y_7_ * y_3_ + 1 y_7_ ^ 2 ] >= 1521.6299999999999
quadratic_ranged_8_lb: [ 1 x_3_ ^ 2 - 2 x_8_ * x_3_ + 1 x_8_ ^ 2 + 1 y_3_ ^ 2 - 2 y_8_ * y_3_ + 1 y_8_ ^ 2 ] >= 1728.54
quadratic_ranged_9_lb: [ 1 x_6_ ^ 2 - 2 x_8_ * x_6_ + 1 x_8_ ^ 2 + 1 y_6_ ^ 2 - 2 y_8_ * y_6_ + 1 y_8_ ^ 2 ] >= 6609.24
quadratic_ranged_10_lb: [ 1 x_6_ ^ 2 - 2 x_9_ * x_6_ + 1 x_9_ ^ 2 + 1 y_6_ ^ 2 - 2 y_9_ * y_6_ + 1 y_9_ ^ 2 ] >= 4207.5
quadratic_ranged_11_lb: [ 1 x_7_ ^ 2 - 2 x_9_ * x_7_ + 1 x_9_ ^ 2 + 1 y_7_ ^ 2 - 2 y_9_ * y_7_ + 1 y_9_ ^ 2 ] >= 5354.91
quadratic_ranged_12_lb: [ 1 x_3_ ^ 2 - 2 x_10_ * x_3_ + 1 x_10_ ^ 2 + 1 y_3_ ^ 2 - 2 y_10_ * y_3_ + 1 y_10_ ^ 2 ] >= 5244.03
quadratic_ranged_13_lb: [ 1 x_4_ ^ 2 - 2 x_10_ * x_4_ + 1 x_10_ ^ 2 + 1 y_4_ ^ 2 - 2 y_10_ * y_4_ + 1 y_10_ ^ 2 ] >= 14249.07
quadratic_ranged_14_lb: [ 1 x_5_ ^ 2 - 2 x_10_ * x_5_ + 1 x_10_ ^ 2 + 1 y_5_ ^ 2 - 2 y_10_ * y_5_ + 1 y_10_ ^ 2 ] >= 2956.14
quadratic_ranged_15_lb: [ 1 x_1_ ^ 2 - 2 x_11_ * x_1_ + 1 x_11_ ^ 2 + 1 y_1_ ^ 2 - 2 y_11_ * y_1_ + 1 y_11_ ^ 2 ] >= 79.2
quadratic_ranged_16_lb: [ 1 x_3_ ^ 2 - 2 x_11_ * x_3_ + 1 x_11_ ^ 2 + 1 y_3_ ^ 2 - 2 y_11_ * y_3_ + 1 y_11_ ^ 2 ] >= 14358.96
quadratic_ranged_17_lb: [ 1 x_6_ ^ 2 - 2 x_11_ * x_6_ + 1 x_11_ ^ 2 + 1 y_6_ ^ 2 - 2 y_11_ * y_6_ + 1 y_11_ ^ 2 ] >= 5039.1
quadratic_ranged_18_lb: [ 1 x_9_ ^ 2 - 2 x_12_ * x_9_ + 1 x_12_ ^ 2 + 1 y_9_ ^ 2 - 2 y_12_ * y_9_ + 1 y_12_ ^ 2 ] >= 8867.43
quadratic_ranged_19_lb: [ 1 x_4_ ^ 2 - 2 x_13_ * x_4_ + 1 x_13_ ^ 2 + 1 y_4_ ^ 2 - 2 y_13_ * y_4_ + 1 y_13_ ^ 2 ] >= 19353.51
quadratic_ranged_20_lb: [ 1 x_12_ ^ 2 - 2 x_13_ * x_12_ + 1 x_13_ ^ 2 + 1 y_12_ ^ 2 - 2 y_13_ * y_12_ + 1 y_13_ ^ 2 ] >= 13313.52
quadratic_ranged_21_lb: [ 1 x_5_ ^ 2 - 2 x_14_ * x_5_ + 1 x_14_ ^ 2 + 1 y_5_ ^ 2 - 2 y_14_ * y_5_ + 1 y_14_ ^ 2 ] >= 12010.68
quadratic_ranged_22_lb: [ 1 x_7_ ^ 2 - 2 x_14_ * x_7_ + 1 x_14_ ^ 2 + 1 y_7_ ^ 2 - 2 y_14_ * y_7_ + 1 y_14_ ^ 2 ] >= 9606.96
quadratic_ranged_23_lb: [ 1 x_13_ ^ 2 - 2 x_15_ * x_13_ + 1 x_15_ ^ 2 + 1 y_13_ ^ 2 - 2 y_15_ * y_13_ + 1 y_15_ ^ 2 ] >= 30367.26
quadratic_ranged_24_lb: [ 1 x_4_ ^ 2 - 2 x_16_ * x_4_ + 1 x_16_ ^ 2 + 1 y_4_ ^ 2 - 2 y_16_ * y_4_ + 1 y_16_ ^ 2 ] >= 9292.14
quadratic_ranged_25_lb: [ 1 x_15_ ^ 2 - 2 x_16_ * x_15_ + 1 x_16_ ^ 2 + 1 y_15_ ^ 2 - 2 y_16_ * y_15_ + 1 y_16_ ^ 2 ] >= 14910.39
quadratic_ranged_26_lb: [ 1 x_4_ ^ 2 - 2 x_17_ * x_4_ + 1 x_17_ ^ 2 + 1 y_4_ ^ 2 - 2 y_17_ * y_4_ + 1 y_17_ ^ 2 ] >= 3509.55
quadratic_ranged_27_lb: [ 1 x_14_ ^ 2 - 2 x_17_ * x_14_ + 1 x_17_ ^ 2 + 1 y_14_ ^ 2 - 2 y_17_ * y_14_ + 1 y_17_ ^ 2 ] >= 24387.66
quadratic_ranged_28_lb: [ 1 x_8_ ^ 2 - 2 x_18_ * x_8_ + 1 x_18_ ^ 2 + 1 y_8_ ^ 2 - 2 y_18_ * y_8_ + 1 y_18_ ^ 2 ] >= 11414.7
quadratic_ranged_29_lb: [ 1 x_9_ ^ 2 - 2 x_18_ * x_9_ + 1 x_18_ ^ 2 + 1 y_9_ ^ 2 - 2 y_18_ * y_9_ + 1 y_18_ ^ 2 ] >= 8763.48
quadratic_ranged_30_lb: [ 1 x_12_ ^ 2 - 2 x_18_ * x_12_ + 1 x_18_ ^ 2 + 1 y_12_ ^ 2 - 2 y_18_ * y_12_ + 1 y_18_ ^ 2 ] >= 12071.07
quadratic_ranged_31_lb: [ 1 x_11_ ^ 2 - 2 x_19_ * x_11_ + 1 x_19_ ^ 2 + 1 y_11_ ^ 2 - 2 y_19_ * y_11_ + 1 y_19_ ^ 2 ] >= 26497.35
quadratic_ranged_32_lb: [ 1 x_16_ ^ 2 - 2 x_19_ * x_16_ + 1 x_19_ ^ 2 + 1 y_16_ ^ 2 - 2 y_19_ * y_16_ + 1 y_19_ ^ 2 ] >= 12787.83
quadratic_ranged_33_lb: [ 1 x_14_ ^ 2 - 2 x_20_ * x_14_ + 1 x_20_ ^ 2 + 1 y_14_ ^ 2 - 2 y_20_ * y_14_ + 1 y_20_ ^ 2 ] >= 6155.82
quadratic_ranged_34_lb: [ 1 x_15_ ^ 2 - 2 x_20_ * x_15_ + 1 x_20_ ^ 2 + 1 y_15_ ^ 2 - 2 y_20_ * y_15_ + 1 y_20_ ^ 2 ] >= 30438.54
quadratic_ranged_35_lb: [ 1 x_16_ ^ 2 - 2 x_20_ * x_16_ + 1 x_20_ ^ 2 + 1 y_16_ ^ 2 - 2 y_20_ * y_16_ + 1 y_20_ ^ 2 ] >= 37545.75
quadratic_ranged_36_lb: [ 1 x_1_ ^ 2 - 2 x_21_ * x_1_ + 1 x_21_ ^ 2 + 1 y_1_ ^ 2 - 2 y_21_ * y_1_ + 1 y_21_ ^ 2 ] >= 18590.22
quadratic_ranged_37_lb: [ 1 x_13_ ^ 2 - 2 x_21_ * x_13_ + 1 x_21_ ^ 2 + 1 y_13_ ^ 2 - 2 y_21_ * y_13_ + 1 y_21_ ^ 2 ] >= 29562.39
quadratic_ranged_38_lb: [ 1 x_5_ ^ 2 - 2 x_22_ * x_5_ + 1 x_22_ ^ 2 + 1 y_5_ ^ 2 - 2 y_22_ * y_5_ + 1 y_22_ ^ 2 ] >= 14782.68
quadratic_ranged_39_lb: [ 1 x_17_ ^ 2 - 2 x_22_ * x_17_ + 1 x_22_ ^ 2 + 1 y_17_ ^ 2 - 2 y_22_ * y_17_ + 1 y_22_ ^ 2 ] >= 46460.7
quadratic_ranged_40_lb: [ 1 x_3_ ^ 2 - 2 x_23_ * x_3_ + 1 x_23_ ^ 2 + 1 y_3_ ^ 2 - 2 y_23_ * y_3_ + 1 y_23_ ^ 2 ] >= 16755.75
quadratic_ranged_41_lb: [ 1 x_8_ ^ 2 - 2 x_23_ * x_8_ + 1 x_23_ ^ 2 + 1 y_8_ ^ 2 - 2 y_23_ * y_8_ + 1 y_23_ ^ 2 ] >= 23848.11
quadratic_ranged_42_lb: [ 1 x_21_ ^ 2 - 2 x_23_ * x_21_ + 1 x_23_ ^ 2 + 1 y_21_ ^ 2 - 2 y_23_ * y_21_ + 1 y_23_ ^ 2 ] >= 31209.75
quadratic_ranged_43_lb: [ 1 x_11_ ^ 2 - 2 x_24_ * x_11_ + 1 x_24_ ^ 2 + 1 y_11_ ^ 2 - 2 y_24_ * y_11_ + 1 y_24_ ^ 2 ] >= 6401.34
quadratic_ranged_44_lb: [ 1 x_22_ ^ 2 - 2 x_24_ * x_22_ + 1 x_24_ ^ 2 + 1 y_22_ ^ 2 - 2 y_24_ * y_22_ + 1 y_24_ ^ 2 ] >= 13251.15
quadratic_ranged_45_lb: [ 1 x_7_ ^ 2 - 2 x_25_ * x_7_ + 1 x_25_ ^ 2 + 1 y_7_ ^ 2 - 2 y_25_ * y_7_ + 1 y_25_ ^ 2 ] >= 3636.27
quadratic_ranged_46_lb: [ 1 x_17_ ^ 2 - 2 x_25_ * x_17_ + 1 x_25_ ^ 2 + 1 y_17_ ^ 2 - 2 y_25_ * y_17_ + 1 y_25_ ^ 2 ] >= 10645.47
quadratic_ranged_47_lb: [ 1 x_4_ ^ 2 - 2 x_26_ * x_4_ + 1 x_26_ ^ 2 + 1 y_4_ ^ 2 - 2 y_26_ * y_4_ + 1 y_26_ ^ 2 ] >= 5263.83
quadratic_ranged_48_lb: [ 1 x_11_ ^ 2 - 2 x_26_ * x_11_ + 1 x_26_ ^ 2 + 1 y_11_ ^ 2 - 2 y_26_ * y_11_ + 1 y_26_ ^ 2 ] >= 12954.15
quadratic_ranged_49_lb: [ 1 x_9_ ^ 2 - 2 x_27_ * x_9_ + 1 x_27_ ^ 2 + 1 y_9_ ^ 2 - 2 y_27_ * y_9_ + 1 y_27_ ^ 2 ] >= 622.71
quadratic_ranged_50_lb: [ 1 x_21_ ^ 2 - 2 x_27_ * x_21_ + 1 x_27_ ^ 2 + 1 y_21_ ^ 2 - 2 y_27_ * y_21_ + 1 y_27_ ^ 2 ] >= 52.47
quadratic_ranged_51_lb: [ 1 x_2_ ^ 2 - 2 x_28_ * x_2_ + 1 x_28_ ^ 2 + 1 y_2_ ^ 2 - 2 y_28_ * y_2_ + 1 y_28_ ^ 2 ] >= 29915.82
quadratic_ranged_52_lb: [ 1 x_8_ ^ 2 - 2 x_28_ * x_8_ + 1 x_28_ ^ 2 + 1 y_8_ ^ 2 - 2 y_28_ * y_8_ + 1 y_28_ ^ 2 ] >= 12082.95
quadratic_ranged_53_lb: [ 1 x_18_ ^ 2 - 2 x_28_ * x_18_ + 1 x_28_ ^ 2 + 1 y_18_ ^ 2 - 2 y_28_ * y_18_ + 1 y_28_ ^ 2 ] >= 3644.19
c1_1: 1 x_12_ = -15
c2_1: 1 y_12_ = 1
c3_1: 1 x_17_ = -81
c4_1: 1 y_17_ = -43
c5_1: 1 x_6_ = 14
c6_1: 1 y_6_ = -55
Bounds
-66 <= x_1_ <= 94
-137 <= x_2_ <= 114
-110 <= x_3_ <= 28
-140 <= x_4_ <= -22
-159 <= x_5_ <= 77
x_6_ = 14
-125 <= x_7_ <= 67
-68 <= x_8_ <= 70
-51 <= x_9_ <= 79
-183 <= x_10_ <= 99
-57 <= x_11_ <= 85
x_12_ = -15
-131 <= x_13_ <= 101
-224 <= x_14_ <= 76
-307 <= x_15_ <= 199
-238 <= x_16_ <= 76
x_17_ = -81
-125 <= x_18_ <= 95
-222 <= x_19_ <= 190
-303 <= x_20_ <= 155
-84 <= x_21_ <= 112
-254 <= x_22_ <= 136
-224 <= x_23_ <= 158
-138 <= x_24_ <= 166
-185 <= x_25_ <= 23
-172 <= x_26_ <= 52
-76 <= x_27_ <= 104
-179 <= x_28_ <= 156
-135 <= y_1_ <= 25
-206 <= y_2_ <= 96
-152 <= y_3_ <= 66
-102 <= y_4_ <= 16
-201 <= y_5_ <= 115
y_6_ = -55
-168 <= y_7_ <= 84
-137 <= y_8_ <= 27
-94 <= y_9_ <= 10
-223 <= y_10_ <= 137
-126 <= y_11_ <= 16
y_12_ = 1
-115 <= y_13_ <= 117
-200 <= y_14_ <= 114
-291 <= y_15_ <= 237
-200 <= y_16_ <= 114
y_17_ = -43
-109 <= y_18_ <= 105
-291 <= y_19_ <= 181
-279 <= y_20_ <= 193
-126 <= y_21_ <= 43
-260 <= y_22_ <= 174
-282 <= y_23_ <= 183
-207 <= y_24_ <= 97
-147 <= y_25_ <= 61
-176 <= y_26_ <= 90
-119 <= y_27_ <= 35
-170 <= y_28_ <= 138
General
x_1_
x_2_
x_3_
x_4_
x_5_
x_6_
x_7_
x_8_
x_9_
x_10_
x_11_
x_12_
x_13_
x_14_
x_15_
x_16_
x_17_
x_18_
x_19_
x_20_
x_21_
x_22_
x_23_
x_24_
x_25_
x_26_
x_27_
x_28_
y_1_
y_2_
y_3_
y_4_
y_5_
y_6_
y_7_
y_8_
y_9_
y_10_
y_11_
y_12_
y_13_
y_14_
y_15_
y_16_
y_17_
y_18_
y_19_
y_20_
y_21_
y_22_
y_23_
y_24_
y_25_
y_26_
y_27_
y_28_
End
