minimize
obj: 
subject to
c1_1: 120 x_1_ - 78 y_1_ + [ 1 x_1_ ^ 2 + 1 y_1_ ^ 2 ] <= 121751
c2_1: 120 x_2_ - 78 y_2_ + [ 1 x_2_ ^ 2 + 1 y_2_ ^ 2 ] <= 20736
c3_1: 120 x_4_ - 78 y_4_ + [ 1 x_4_ ^ 2 + 1 y_4_ ^ 2 ] <= -1177
c4_1: 120 x_5_ - 78 y_5_ + [ 1 x_5_ ^ 2 + 1 y_5_ ^ 2 ] <= 27086
c5_1: 120 x_6_ - 78 y_6_ + [ 1 x_6_ ^ 2 + 1 y_6_ ^ 2 ] <= 87716
c6_1: 120 x_7_ - 78 y_7_ + [ 1 x_7_ ^ 2 + 1 y_7_ ^ 2 ] <= 105859
c7_1: 120 x_8_ - 78 y_8_ + [ 1 x_8_ ^ 2 + 1 y_8_ ^ 2 ] <= 95455
c8_1: 120 x_9_ - 78 y_9_ + [ 1 x_9_ ^ 2 + 1 y_9_ ^ 2 ] <= 96078
c9_1: 120 x_10_ - 78 y_10_ + [ 1 x_10_ ^ 2 + 1 y_10_ ^ 2 ] <= 47988
c10_1: 120 x_11_ - 78 y_11_ + [ 1 x_11_ ^ 2 + 1 y_11_ ^ 2 ] <= 106393
c11_1: 120 x_12_ - 78 y_12_ + [ 1 x_12_ ^ 2 + 1 y_12_ ^ 2 ] <= 120927
c12_1: 120 x_13_ - 78 y_13_ + [ 1 x_13_ ^ 2 + 1 y_13_ ^ 2 ] <= 156844
c13_1: 120 x_14_ - 78 y_14_ + [ 1 x_14_ ^ 2 + 1 y_14_ ^ 2 ] <= 76124
c14_1: 120 x_15_ - 78 y_15_ + [ 1 x_15_ ^ 2 + 1 y_15_ ^ 2 ] <= 96112
c15_1: 120 x_16_ - 78 y_16_ + [ 1 x_16_ ^ 2 + 1 y_16_ ^ 2 ] <= 138674
c16_1: 120 x_17_ - 78 y_17_ + [ 1 x_17_ ^ 2 + 1 y_17_ ^ 2 ] <= 177105
c17_1: 120 x_18_ - 78 y_18_ + [ 1 x_18_ ^ 2 + 1 y_18_ ^ 2 ] <= 140681
c18_1: 120 x_19_ - 78 y_19_ + [ 1 x_19_ ^ 2 + 1 y_19_ ^ 2 ] <= 137290
c19_1: 120 x_20_ - 78 y_20_ + [ 1 x_20_ ^ 2 + 1 y_20_ ^ 2 ] <= 129828
c20_1: 120 x_21_ - 78 y_21_ + [ 1 x_21_ ^ 2 + 1 y_21_ ^ 2 ] <= 243563
c21_1: 120 x_22_ - 78 y_22_ + [ 1 x_22_ ^ 2 + 1 y_22_ ^ 2 ] <= 161552
c22_1: 120 x_23_ - 78 y_23_ + [ 1 x_23_ ^ 2 + 1 y_23_ ^ 2 ] <= 112325
c23_1: 120 x_24_ - 78 y_24_ + [ 1 x_24_ ^ 2 + 1 y_24_ ^ 2 ] <= 129488
c24_1: 120 x_25_ - 78 y_25_ + [ 1 x_25_ ^ 2 + 1 y_25_ ^ 2 ] <= 50360
c25_1: 120 x_26_ - 78 y_26_ + [ 1 x_26_ ^ 2 + 1 y_26_ ^ 2 ] <= 146443
c26_1: 72 x_1_ + 50 y_1_ + [ 1 x_1_ ^ 2 + 1 y_1_ ^ 2 ] <= 28249
c27_1: 72 x_2_ + 50 y_2_ + [ 1 x_2_ ^ 2 + 1 y_2_ ^ 2 ] <= 59898
c28_1: 72 x_3_ + 50 y_3_ + [ 1 x_3_ ^ 2 + 1 y_3_ ^ 2 ] <= 143881
c29_1: 72 x_4_ + 50 y_4_ + [ 1 x_4_ ^ 2 + 1 y_4_ ^ 2 ] <= 99865
c30_1: 72 x_5_ + 50 y_5_ + [ 1 x_5_ ^ 2 + 1 y_5_ ^ 2 ] <= 39035
c31_1: 72 x_6_ + 50 y_6_ + [ 1 x_6_ ^ 2 + 1 y_6_ ^ 2 ] <= 12675
c32_1: 72 x_7_ + 50 y_7_ + [ 1 x_7_ ^ 2 + 1 y_7_ ^ 2 ] <= 451
c33_1: 72 x_8_ + 50 y_8_ + [ 1 x_8_ ^ 2 + 1 y_8_ ^ 2 ] <= 2266
c34_1: 72 x_9_ + 50 y_9_ + [ 1 x_9_ ^ 2 + 1 y_9_ ^ 2 ] <= 10802
c35_1: 72 x_10_ + 50 y_10_ + [ 1 x_10_ ^ 2 + 1 y_10_ ^ 2 ] <= 20997
c36_1: 72 x_11_ + 50 y_11_ + [ 1 x_11_ ^ 2 + 1 y_11_ ^ 2 ] <= 57204
c37_1: 72 x_12_ + 50 y_12_ + [ 1 x_12_ ^ 2 + 1 y_12_ ^ 2 ] <= 67908
c38_1: 72 x_13_ + 50 y_13_ + [ 1 x_13_ ^ 2 + 1 y_13_ ^ 2 ] <= 32783
c39_1: 72 x_14_ + 50 y_14_ + [ 1 x_14_ ^ 2 + 1 y_14_ ^ 2 ] <= 13555
c40_1: 72 x_15_ + 50 y_15_ + [ 1 x_15_ ^ 2 + 1 y_15_ ^ 2 ] <= 6408
c41_1: 72 x_16_ + 50 y_16_ + [ 1 x_16_ ^ 2 + 1 y_16_ ^ 2 ] <= 8636
c42: 72 x_17_ + 50 y_17_ + [ 1 x_17_ ^ 2 + 1 y_17_ ^ 2 ] <= 1112
c43: 72 x_19_ + 50 y_19_ + [ 1 x_19_ ^ 2 + 1 y_19_ ^ 2 ] <= -893
c44: 72 x_20_ + 50 y_20_ + [ 1 x_20_ ^ 2 + 1 y_20_ ^ 2 ] <= 3762
c45: 72 x_21_ + 50 y_21_ + [ 1 x_21_ ^ 2 + 1 y_21_ ^ 2 ] <= 15666
c46: 72 x_22_ + 50 y_22_ + [ 1 x_22_ ^ 2 + 1 y_22_ ^ 2 ] <= -141
c47: 72 x_23_ + 50 y_23_ + [ 1 x_23_ ^ 2 + 1 y_23_ ^ 2 ] <= 9687
c48: 72 x_24_ + 50 y_24_ + [ 1 x_24_ ^ 2 + 1 y_24_ ^ 2 ] <= 15484
c49: 72 x_25_ + 50 y_25_ + [ 1 x_25_ ^ 2 + 1 y_25_ ^ 2 ] <= 50508
c50: 72 x_26_ + 50 y_26_ + [ 1 x_26_ ^ 2 + 1 y_26_ ^ 2 ] <= 3735
c51: 30 x_1_ - 88 y_1_ + [ 1 x_1_ ^ 2 + 1 y_1_ ^ 2 ] <= 7539
c52: 30 x_2_ - 88 y_2_ + [ 1 x_2_ ^ 2 + 1 y_2_ ^ 2 ] <= 84203
c53: 30 x_3_ - 88 y_3_ + [ 1 x_3_ ^ 2 + 1 y_3_ ^ 2 ] <= 149403
c54: 30 x_4_ - 88 y_4_ + [ 1 x_4_ ^ 2 + 1 y_4_ ^ 2 ] <= 104449
c55: 30 x_5_ - 88 y_5_ + [ 1 x_5_ ^ 2 + 1 y_5_ ^ 2 ] <= 41876
c56: 30 x_6_ - 88 y_6_ + [ 1 x_6_ ^ 2 + 1 y_6_ ^ 2 ] <= 16493
c57: 30 x_7_ - 88 y_7_ + [ 1 x_7_ ^ 2 + 1 y_7_ ^ 2 ] <= 13192
c58: 30 x_8_ - 88 y_8_ + [ 1 x_8_ ^ 2 + 1 y_8_ ^ 2 ] <= 17413
c59: 30 x_9_ - 88 y_9_ + [ 1 x_9_ ^ 2 + 1 y_9_ ^ 2 ] <= 33184
c60: 30 x_10_ - 88 y_10_ + [ 1 x_10_ ^ 2 + 1 y_10_ ^ 2 ] <= 49183
c61: 30 x_11_ - 88 y_11_ + [ 1 x_11_ ^ 2 + 1 y_11_ ^ 2 ] <= 26046
c62: 30 x_12_ - 88 y_12_ + [ 1 x_12_ ^ 2 + 1 y_12_ ^ 2 ] <= 33577
c63: 30 x_13_ - 88 y_13_ + [ 1 x_13_ ^ 2 + 1 y_13_ ^ 2 ] <= 29209
c64: 30 x_14_ - 88 y_14_ + [ 1 x_14_ ^ 2 + 1 y_14_ ^ 2 ] <= 31058
c65: 30 x_15_ - 88 y_15_ + [ 1 x_15_ ^ 2 + 1 y_15_ ^ 2 ] <= 20077
c66: 30 x_16_ - 88 y_16_ + [ 1 x_16_ ^ 2 + 1 y_16_ ^ 2 ] <= 5599
c67: 30 x_17_ - 88 y_17_ + [ 1 x_17_ ^ 2 + 1 y_17_ ^ 2 ] <= 14811
c68: 30 x_18_ - 88 y_18_ + [ 1 x_18_ ^ 2 + 1 y_18_ ^ 2 ] <= 3495
c69: 30 x_19_ - 88 y_19_ + [ 1 x_19_ ^ 2 + 1 y_19_ ^ 2 ] <= 9345
c70: 30 x_20_ - 88 y_20_ + [ 1 x_20_ ^ 2 + 1 y_20_ ^ 2 ] <= 20517
c71: 30 x_21_ - 88 y_21_ + [ 1 x_21_ ^ 2 + 1 y_21_ ^ 2 ] <= 13077
c72: 30 x_22_ - 88 y_22_ + [ 1 x_22_ ^ 2 + 1 y_22_ ^ 2 ] <= -1071
c73: 30 x_23_ - 88 y_23_ + [ 1 x_23_ ^ 2 + 1 y_23_ ^ 2 ] <= 7554
c74: 30 x_24_ - 88 y_24_ + [ 1 x_24_ ^ 2 + 1 y_24_ ^ 2 ] <= 12907
c75: 30 x_25_ - 88 y_25_ + [ 1 x_25_ ^ 2 + 1 y_25_ ^ 2 ] <= 21484
c1_2: 1 x_3_ = -60
c2_2: 1 y_3_ = 39
c3_2: 1 x_18_ = -36
c4_2: 1 y_18_ = -25
c5_2: 1 x_26_ = -15
c6_2: 1 y_26_ = 44
c1: [ 1 x_1_ ^ 2 - 2 x_2_ * x_1_ + 1 x_2_ ^ 2 + 1 y_1_ ^ 2 - 2 y_2_ * y_1_ + 1 y_2_ ^ 2 ] = 38177
c2: [ 1 x_2_ ^ 2 - 2 x_3_ * x_2_ + 1 x_3_ ^ 2 + 1 y_2_ ^ 2 - 2 y_3_ * y_2_ + 1 y_3_ ^ 2 ] = 25857
c3: [ 1 x_3_ ^ 2 - 2 x_4_ * x_3_ + 1 x_4_ ^ 2 + 1 y_3_ ^ 2 - 2 y_4_ * y_3_ + 1 y_4_ ^ 2 ] = 3944
c4: [ 1 x_4_ ^ 2 - 2 x_5_ * x_4_ + 1 x_5_ ^ 2 + 1 y_4_ ^ 2 - 2 y_5_ * y_4_ + 1 y_5_ ^ 2 ] = 13610
c5: [ 1 x_5_ ^ 2 - 2 x_6_ * x_5_ + 1 x_6_ ^ 2 + 1 y_5_ ^ 2 - 2 y_6_ * y_5_ + 1 y_6_ ^ 2 ] = 15682
c6: [ 1 x_6_ ^ 2 - 2 x_7_ * x_6_ + 1 x_7_ ^ 2 + 1 y_6_ ^ 2 - 2 y_7_ * y_6_ + 1 y_7_ ^ 2 ] = 5200
c7: [ 1 x_7_ ^ 2 - 2 x_8_ * x_7_ + 1 x_8_ ^ 2 + 1 y_7_ ^ 2 - 2 y_8_ * y_7_ + 1 y_8_ ^ 2 ] = 256
c8: [ 1 x_8_ ^ 2 - 2 x_9_ * x_8_ + 1 x_9_ ^ 2 + 1 y_8_ ^ 2 - 2 y_9_ * y_8_ + 1 y_9_ ^ 2 ] = 2313
c9: [ 1 x_5_ ^ 2 - 2 x_10_ * x_5_ + 1 x_10_ ^ 2 + 1 y_5_ ^ 2 - 2 y_10_ * y_5_ + 1 y_10_ ^ 2 ] = 2600
c10: [ 1 x_8_ ^ 2 - 2 x_10_ * x_8_ + 1 x_10_ ^ 2 + 1 y_8_ ^ 2 - 2 y_10_ * y_8_ + 1 y_10_ ^ 2 ] = 7514
c11: [ 1 x_9_ ^ 2 - 2 x_10_ * x_9_ + 1 x_10_ ^ 2 + 1 y_9_ ^ 2 - 2 y_10_ * y_9_ + 1 y_10_ ^ 2 ] = 7685
c12: [ 1 x_1_ ^ 2 - 2 x_11_ * x_1_ + 1 x_11_ ^ 2 + 1 y_1_ ^ 2 - 2 y_11_ * y_1_ + 1 y_11_ ^ 2 ] = 4825
c13: [ 1 x_10_ ^ 2 - 2 x_11_ * x_10_ + 1 x_11_ ^ 2 + 1 y_10_ ^ 2 - 2 y_11_ * y_10_ + 1 y_11_ ^ 2 ] = 10709
c14: [ 1 x_11_ ^ 2 - 2 x_12_ * x_11_ + 1 x_12_ ^ 2 + 1 y_11_ ^ 2 - 2 y_12_ * y_11_ + 1 y_12_ ^ 2 ] = 445
c15: [ 1 x_12_ ^ 2 - 2 x_13_ * x_12_ + 1 x_13_ ^ 2 + 1 y_12_ ^ 2 - 2 y_13_ * y_12_ + 1 y_13_ ^ 2 ] = 13885
c16: [ 1 x_2_ ^ 2 - 2 x_14_ * x_2_ + 1 x_14_ ^ 2 + 1 y_2_ ^ 2 - 2 y_14_ * y_2_ + 1 y_14_ ^ 2 ] = 15434
c17: [ 1 x_10_ ^ 2 - 2 x_14_ * x_10_ + 1 x_14_ ^ 2 + 1 y_10_ ^ 2 - 2 y_14_ * y_10_ + 1 y_14_ ^ 2 ] = 12645
c18: [ 1 x_13_ ^ 2 - 2 x_14_ * x_13_ + 1 x_14_ ^ 2 + 1 y_13_ ^ 2 - 2 y_14_ * y_13_ + 1 y_14_ ^ 2 ] = 13786
c19: [ 1 x_14_ ^ 2 - 2 x_15_ * x_14_ + 1 x_15_ ^ 2 + 1 y_14_ ^ 2 - 2 y_15_ * y_14_ + 1 y_15_ ^ 2 ] = 1098
c20: [ 1 x_15_ ^ 2 - 2 x_16_ * x_15_ + 1 x_16_ ^ 2 + 1 y_15_ ^ 2 - 2 y_16_ * y_15_ + 1 y_16_ ^ 2 ] = 3725
c21: [ 1 x_16_ ^ 2 - 2 x_17_ * x_16_ + 1 x_17_ ^ 2 + 1 y_16_ ^ 2 - 2 y_17_ * y_16_ + 1 y_17_ ^ 2 ] = 2273
c22: [ 1 x_7_ ^ 2 - 2 x_18_ * x_7_ + 1 x_18_ ^ 2 + 1 y_7_ ^ 2 - 2 y_18_ * y_7_ + 1 y_18_ ^ 2 ] = 2372
c23: [ 1 x_17_ ^ 2 - 2 x_18_ * x_17_ + 1 x_18_ ^ 2 + 1 y_17_ ^ 2 - 2 y_18_ * y_17_ + 1 y_18_ ^ 2 ] = 3033
c24: [ 1 x_15_ ^ 2 - 2 x_19_ * x_15_ + 1 x_19_ ^ 2 + 1 y_15_ ^ 2 - 2 y_19_ * y_15_ + 1 y_19_ ^ 2 ] = 3505
c25: [ 1 x_18_ ^ 2 - 2 x_19_ * x_18_ + 1 x_19_ ^ 2 + 1 y_18_ ^ 2 - 2 y_19_ * y_18_ + 1 y_19_ ^ 2 ] = 1028
c26: [ 1 x_2_ ^ 2 - 2 x_20_ * x_2_ + 1 x_20_ ^ 2 + 1 y_2_ ^ 2 - 2 y_20_ * y_2_ + 1 y_20_ ^ 2 ] = 42664
c27: [ 1 x_19_ ^ 2 - 2 x_20_ * x_19_ + 1 x_20_ ^ 2 + 1 y_19_ ^ 2 - 2 y_20_ * y_19_ + 1 y_20_ ^ 2 ] = 1877
c28: [ 1 x_20_ ^ 2 - 2 x_21_ * x_20_ + 1 x_21_ ^ 2 + 1 y_20_ ^ 2 - 2 y_21_ * y_20_ + 1 y_21_ ^ 2 ] = 21572
c29: [ 1 x_18_ ^ 2 - 2 x_22_ * x_18_ + 1 x_22_ ^ 2 + 1 y_18_ ^ 2 - 2 y_22_ * y_18_ + 1 y_22_ ^ 2 ] = 1780
c30: [ 1 x_21_ ^ 2 - 2 x_22_ * x_21_ + 1 x_22_ ^ 2 + 1 y_21_ ^ 2 - 2 y_22_ * y_21_ + 1 y_22_ ^ 2 ] = 8177
c31: [ 1 x_6_ ^ 2 - 2 x_23_ * x_6_ + 1 x_23_ ^ 2 + 1 y_6_ ^ 2 - 2 y_23_ * y_6_ + 1 y_23_ ^ 2 ] = 1445
c32: [ 1 x_9_ ^ 2 - 2 x_23_ * x_9_ + 1 x_23_ ^ 2 + 1 y_9_ ^ 2 - 2 y_23_ * y_9_ + 1 y_23_ ^ 2 ] = 14314
c33: [ 1 x_13_ ^ 2 - 2 x_23_ * x_13_ + 1 x_23_ ^ 2 + 1 y_13_ ^ 2 - 2 y_23_ * y_13_ + 1 y_23_ ^ 2 ] = 6170
c34: [ 1 x_22_ ^ 2 - 2 x_23_ * x_22_ + 1 x_23_ ^ 2 + 1 y_22_ ^ 2 - 2 y_23_ * y_22_ + 1 y_23_ ^ 2 ] = 4297
c35: [ 1 x_23_ ^ 2 - 2 x_24_ * x_23_ + 1 x_24_ ^ 2 + 1 y_23_ ^ 2 - 2 y_24_ * y_23_ + 1 y_24_ ^ 2 ] = 585
c36: [ 1 x_5_ ^ 2 - 2 x_25_ * x_5_ + 1 x_25_ ^ 2 + 1 y_5_ ^ 2 - 2 y_25_ * y_5_ + 1 y_25_ ^ 2 ] = 3145
c37: [ 1 x_24_ ^ 2 - 2 x_25_ * x_24_ + 1 x_25_ ^ 2 + 1 y_24_ ^ 2 - 2 y_25_ * y_24_ + 1 y_25_ ^ 2 ] = 26309
c38: [ 1 x_1_ ^ 2 - 2 x_26_ * x_1_ + 1 x_26_ ^ 2 + 1 y_1_ ^ 2 - 2 y_26_ * y_1_ + 1 y_26_ ^ 2 ] = 9700
c39: [ 1 x_16_ ^ 2 - 2 x_26_ * x_16_ + 1 x_26_ ^ 2 + 1 y_16_ ^ 2 - 2 y_26_ * y_16_ + 1 y_26_ ^ 2 ] = 7760
c40: [ 1 x_22_ ^ 2 - 2 x_26_ * x_22_ + 1 x_26_ ^ 2 + 1 y_22_ ^ 2 - 2 y_26_ * y_22_ + 1 y_26_ ^ 2 ] = 1090
c41: [ 1 x_25_ ^ 2 - 2 x_26_ * x_25_ + 1 x_26_ ^ 2 + 1 y_25_ ^ 2 - 2 y_26_ * y_25_ + 1 y_26_ ^ 2 ] = 23645
Bounds
-113 <= x_1_ <= 83
-220 <= x_2_ <= 100
x_3_ = -60
-122 <= x_4_ <= 2
-224 <= x_5_ <= 119
-151 <= x_6_ <= 84
-84 <= x_7_ <= 12
-100 <= x_8_ <= 28
-148 <= x_9_ <= 76
-187 <= x_10_ <= 115
-182 <= x_11_ <= 152
-204 <= x_12_ <= 174
-192 <= x_13_ <= 150
-160 <= x_14_ <= 88
-127 <= x_15_ <= 55
-103 <= x_16_ <= 66
-91 <= x_17_ <= 19
x_18_ = -36
-68 <= x_19_ <= -4
-111 <= x_20_ <= 39
-138 <= x_21_ <= 96
-48 <= x_22_ <= 6
-113 <= x_23_ <= 71
-137 <= x_24_ <= 95
-168 <= x_25_ <= 138
x_26_ = -15
-54 <= y_1_ <= 142
-121 <= y_2_ <= 199
y_3_ = 39
-23 <= y_4_ <= 101
-140 <= y_5_ <= 177
-92 <= y_6_ <= 95
-73 <= y_7_ <= 23
-89 <= y_8_ <= 39
-137 <= y_9_ <= 87
-176 <= y_10_ <= 126
-123 <= y_11_ <= 211
-145 <= y_12_ <= 233
-133 <= y_13_ <= 161
-138 <= y_14_ <= 99
-105 <= y_15_ <= 66
-44 <= y_16_ <= 77
-80 <= y_17_ <= 30
y_18_ = -25
-57 <= y_19_ <= 7
-100 <= y_20_ <= 50
-79 <= y_21_ <= 107
11 <= y_22_ <= 17
-54 <= y_23_ <= 82
-78 <= y_24_ <= 106
-109 <= y_25_ <= 197
y_26_ = 44
General
x_1_
x_2_
x_3_
x_4_
x_5_
x_6_
x_7_
x_8_
x_9_
x_10_
x_11_
x_12_
x_13_
x_14_
x_15_
x_16_
x_17_
x_18_
x_19_
x_20_
x_21_
x_22_
x_23_
x_24_
x_25_
x_26_
y_1_
y_2_
y_3_
y_4_
y_5_
y_6_
y_7_
y_8_
y_9_
y_10_
y_11_
y_12_
y_13_
y_14_
y_15_
y_16_
y_17_
y_18_
y_19_
y_20_
y_21_
y_22_
y_23_
y_24_
y_25_
y_26_
End
