minimize
obj: 
subject to
c1_1: 184 x_1_ - 54 y_1_ + [ 1 x_1_ ^ 2 + 1 y_1_ ^ 2 ] <= 94464
c2_1: 184 x_2_ - 54 y_2_ + [ 1 x_2_ ^ 2 + 1 y_2_ ^ 2 ] <= 19522
c3_1: 184 x_3_ - 54 y_3_ + [ 1 x_3_ ^ 2 + 1 y_3_ ^ 2 ] <= 16884
c4_1: 184 x_4_ - 54 y_4_ + [ 1 x_4_ ^ 2 + 1 y_4_ ^ 2 ] <= 3300
c5_1: 184 x_6_ - 54 y_6_ + [ 1 x_6_ ^ 2 + 1 y_6_ ^ 2 ] <= -5961
c6_1: 184 x_7_ - 54 y_7_ + [ 1 x_7_ ^ 2 + 1 y_7_ ^ 2 ] <= 5951
c7_1: 184 x_8_ - 54 y_8_ + [ 1 x_8_ ^ 2 + 1 y_8_ ^ 2 ] <= 1339
c8_1: 184 x_9_ - 54 y_9_ + [ 1 x_9_ ^ 2 + 1 y_9_ ^ 2 ] <= 3307
c9_1: 184 x_10_ - 54 y_10_ + [ 1 x_10_ ^ 2 + 1 y_10_ ^ 2 ] <= 22433
c10_1: 184 x_11_ - 54 y_11_ + [ 1 x_11_ ^ 2 + 1 y_11_ ^ 2 ] <= 10417
c11_1: 184 x_12_ - 54 y_12_ + [ 1 x_12_ ^ 2 + 1 y_12_ ^ 2 ] <= 80806
c12_1: 184 x_13_ - 54 y_13_ + [ 1 x_13_ ^ 2 + 1 y_13_ ^ 2 ] <= 77145
c13_1: 184 x_14_ - 54 y_14_ + [ 1 x_14_ ^ 2 + 1 y_14_ ^ 2 ] <= 51797
c14_1: 184 x_15_ - 54 y_15_ + [ 1 x_15_ ^ 2 + 1 y_15_ ^ 2 ] <= 18039
c15_1: 184 x_16_ - 54 y_16_ + [ 1 x_16_ ^ 2 + 1 y_16_ ^ 2 ] <= -725
c16_1: 184 x_17_ - 54 y_17_ + [ 1 x_17_ ^ 2 + 1 y_17_ ^ 2 ] <= 17946
c17_1: 184 x_18_ - 54 y_18_ + [ 1 x_18_ ^ 2 + 1 y_18_ ^ 2 ] <= 42495
c18_1: 184 x_19_ - 54 y_19_ + [ 1 x_19_ ^ 2 + 1 y_19_ ^ 2 ] <= 63271
c19_1: 184 x_20_ - 54 y_20_ + [ 1 x_20_ ^ 2 + 1 y_20_ ^ 2 ] <= 52092
c20_1: 184 x_21_ - 54 y_21_ + [ 1 x_21_ ^ 2 + 1 y_21_ ^ 2 ] <= 22587
c21_1: 184 x_22_ - 54 y_22_ + [ 1 x_22_ ^ 2 + 1 y_22_ ^ 2 ] <= 18330
c22_1: 184 x_23_ - 54 y_23_ + [ 1 x_23_ ^ 2 + 1 y_23_ ^ 2 ] <= 26523
c23_1: 184 x_24_ - 54 y_24_ + [ 1 x_24_ ^ 2 + 1 y_24_ ^ 2 ] <= 7756
c24_1: 184 x_25_ - 54 y_25_ + [ 1 x_25_ ^ 2 + 1 y_25_ ^ 2 ] <= 21420
c25_1: 184 x_26_ - 54 y_26_ + [ 1 x_26_ ^ 2 + 1 y_26_ ^ 2 ] <= 45646
c26_1: 96 x_1_ + 18 y_1_ + [ 1 x_1_ ^ 2 + 1 y_1_ ^ 2 ] <= 67897
c27_1: 96 x_2_ + 18 y_2_ + [ 1 x_2_ ^ 2 + 1 y_2_ ^ 2 ] <= 10295
c28_1: 96 x_3_ + 18 y_3_ + [ 1 x_3_ ^ 2 + 1 y_3_ ^ 2 ] <= 33899
c29_1: 96 x_4_ + 18 y_4_ + [ 1 x_4_ ^ 2 + 1 y_4_ ^ 2 ] <= 26049
c30_1: 96 x_5_ + 18 y_5_ + [ 1 x_5_ ^ 2 + 1 y_5_ ^ 2 ] <= 847
c31_1: 96 x_7_ + 18 y_7_ + [ 1 x_7_ ^ 2 + 1 y_7_ ^ 2 ] <= 1999
c32_1: 96 x_8_ + 18 y_8_ + [ 1 x_8_ ^ 2 + 1 y_8_ ^ 2 ] <= 23048
c33_1: 96 x_9_ + 18 y_9_ + [ 1 x_9_ ^ 2 + 1 y_9_ ^ 2 ] <= 26059
c34_1: 96 x_10_ + 18 y_10_ + [ 1 x_10_ ^ 2 + 1 y_10_ ^ 2 ] <= 52694
c35_1: 96 x_11_ + 18 y_11_ + [ 1 x_11_ ^ 2 + 1 y_11_ ^ 2 ] <= 36379
c36_1: 96 x_12_ + 18 y_12_ + [ 1 x_12_ ^ 2 + 1 y_12_ ^ 2 ] <= 124956
c37_1: 96 x_13_ + 18 y_13_ + [ 1 x_13_ ^ 2 + 1 y_13_ ^ 2 ] <= 118123
c38_1: 96 x_14_ + 18 y_14_ + [ 1 x_14_ ^ 2 + 1 y_14_ ^ 2 ] <= 87778
c39_1: 96 x_15_ + 18 y_15_ + [ 1 x_15_ ^ 2 + 1 y_15_ ^ 2 ] <= 45284
c40_1: 96 x_16_ + 18 y_16_ + [ 1 x_16_ ^ 2 + 1 y_16_ ^ 2 ] <= 18736
c41_1: 96 x_17_ + 18 y_17_ + [ 1 x_17_ ^ 2 + 1 y_17_ ^ 2 ] <= 45161
c42: 96 x_18_ + 18 y_18_ + [ 1 x_18_ ^ 2 + 1 y_18_ ^ 2 ] <= 76385
c43: 96 x_19_ + 18 y_19_ + [ 1 x_19_ ^ 2 + 1 y_19_ ^ 2 ] <= 46414
c44: 96 x_20_ + 18 y_20_ + [ 1 x_20_ ^ 2 + 1 y_20_ ^ 2 ] <= 56440
c45: 96 x_21_ + 18 y_21_ + [ 1 x_21_ ^ 2 + 1 y_21_ ^ 2 ] <= 51244
c46: 96 x_22_ + 18 y_22_ + [ 1 x_22_ ^ 2 + 1 y_22_ ^ 2 ] <= 45668
c47: 96 x_23_ + 18 y_23_ + [ 1 x_23_ ^ 2 + 1 y_23_ ^ 2 ] <= 56323
c48: 96 x_24_ + 18 y_24_ + [ 1 x_24_ ^ 2 + 1 y_24_ ^ 2 ] <= 32599
c49: 96 x_25_ + 18 y_25_ + [ 1 x_25_ ^ 2 + 1 y_25_ ^ 2 ] <= 51354
c50: 96 x_26_ + 18 y_26_ + [ 1 x_26_ ^ 2 + 1 y_26_ ^ 2 ] <= 82312
c51: -2 x_1_ + 70 y_1_ + [ 1 x_1_ ^ 2 + 1 y_1_ ^ 2 ] <= 101190
c52: -2 x_2_ + 70 y_2_ + [ 1 x_2_ ^ 2 + 1 y_2_ ^ 2 ] <= 26838
c53: -2 x_3_ + 70 y_3_ + [ 1 x_3_ ^ 2 + 1 y_3_ ^ 2 ] <= 6810
c54: -2 x_5_ + 70 y_5_ + [ 1 x_5_ ^ 2 + 1 y_5_ ^ 2 ] <= 11267
c55: -2 x_6_ + 70 y_6_ + [ 1 x_6_ ^ 2 + 1 y_6_ ^ 2 ] <= 27208
c56: -2 x_7_ + 70 y_7_ + [ 1 x_7_ ^ 2 + 1 y_7_ ^ 2 ] <= 53921
c57: -2 x_8_ + 70 y_8_ + [ 1 x_8_ ^ 2 + 1 y_8_ ^ 2 ] <= 44740
c58: -2 x_9_ + 70 y_9_ + [ 1 x_9_ ^ 2 + 1 y_9_ ^ 2 ] <= 38302
c59: -2 x_10_ + 70 y_10_ + [ 1 x_10_ ^ 2 + 1 y_10_ ^ 2 ] <= 6984
c60: -2 x_11_ + 70 y_11_ + [ 1 x_11_ ^ 2 + 1 y_11_ ^ 2 ] <= 15263
c61: -2 x_12_ + 70 y_12_ + [ 1 x_12_ ^ 2 + 1 y_12_ ^ 2 ] <= 81933
c62: -2 x_13_ + 70 y_13_ + [ 1 x_13_ ^ 2 + 1 y_13_ ^ 2 ] <= 125366
c63: -2 x_14_ + 70 y_14_ + [ 1 x_14_ ^ 2 + 1 y_14_ ^ 2 ] <= 97398
c64: -2 x_15_ + 70 y_15_ + [ 1 x_15_ ^ 2 + 1 y_15_ ^ 2 ] <= 52647
c65: -2 x_16_ + 70 y_16_ + [ 1 x_16_ ^ 2 + 1 y_16_ ^ 2 ] <= 24089
c66: -2 x_17_ + 70 y_17_ + [ 1 x_17_ ^ 2 + 1 y_17_ ^ 2 ] <= 52517
c67: -2 x_18_ + 70 y_18_ + [ 1 x_18_ ^ 2 + 1 y_18_ ^ 2 ] <= 85466
c68: -2 x_19_ + 70 y_19_ + [ 1 x_19_ ^ 2 + 1 y_19_ ^ 2 ] <= 101782
c69: -2 x_20_ + 70 y_20_ + [ 1 x_20_ ^ 2 + 1 y_20_ ^ 2 ] <= 88363
c70: -2 x_21_ + 70 y_21_ + [ 1 x_21_ ^ 2 + 1 y_21_ ^ 2 ] <= 51686
c71: -2 x_22_ + 70 y_22_ + [ 1 x_22_ ^ 2 + 1 y_22_ ^ 2 ] <= 46148
c72: -2 x_23_ + 70 y_23_ + [ 1 x_23_ ^ 2 + 1 y_23_ ^ 2 ] <= 56731
c73: -2 x_24_ + 70 y_24_ + [ 1 x_24_ ^ 2 + 1 y_24_ ^ 2 ] <= 45951
c74: -2 x_25_ + 70 y_25_ + [ 1 x_25_ ^ 2 + 1 y_25_ ^ 2 ] <= 48962
c75: -2 x_26_ + 70 y_26_ + [ 1 x_26_ ^ 2 + 1 y_26_ ^ 2 ] <= 78997
c1_2: 1 x_5_ = -92
c2_2: 1 y_5_ = 27
c3_2: 1 x_6_ = -48
c4_2: 1 y_6_ = -9
c5_2: 1 x_4_ = 1
c6_2: 1 y_4_ = -35
c1: [ 1 x_1_ ^ 2 - 2 x_2_ * x_1_ + 1 x_2_ ^ 2 + 1 y_1_ ^ 2 - 2 y_2_ * y_1_ + 1 y_2_ ^ 2 ] = 23257
c2: [ 1 x_2_ ^ 2 - 2 x_3_ * x_2_ + 1 x_3_ ^ 2 + 1 y_2_ ^ 2 - 2 y_3_ * y_2_ + 1 y_3_ ^ 2 ] = 6065
c3: [ 1 x_3_ ^ 2 - 2 x_4_ * x_3_ + 1 x_4_ ^ 2 + 1 y_3_ ^ 2 - 2 y_4_ * y_3_ + 1 y_4_ ^ 2 ] = 8036
c4: [ 1 x_4_ ^ 2 - 2 x_5_ * x_4_ + 1 x_5_ ^ 2 + 1 y_4_ ^ 2 - 2 y_5_ * y_4_ + 1 y_5_ ^ 2 ] = 12493
c5: [ 1 x_2_ ^ 2 - 2 x_6_ * x_2_ + 1 x_6_ ^ 2 + 1 y_2_ ^ 2 - 2 y_6_ * y_2_ + 1 y_6_ ^ 2 ] = 12680
c6: [ 1 x_5_ ^ 2 - 2 x_6_ * x_5_ + 1 x_6_ ^ 2 + 1 y_5_ ^ 2 - 2 y_6_ * y_5_ + 1 y_6_ ^ 2 ] = 3232
c7: [ 1 x_6_ ^ 2 - 2 x_7_ * x_6_ + 1 x_7_ ^ 2 + 1 y_6_ ^ 2 - 2 y_7_ * y_6_ + 1 y_7_ ^ 2 ] = 4384
c8: [ 1 x_5_ ^ 2 - 2 x_8_ * x_5_ + 1 x_8_ ^ 2 + 1 y_5_ ^ 2 - 2 y_8_ * y_5_ + 1 y_8_ ^ 2 ] = 10532
c9: [ 1 x_7_ ^ 2 - 2 x_8_ * x_7_ + 1 x_8_ ^ 2 + 1 y_7_ ^ 2 - 2 y_8_ * y_7_ + 1 y_8_ ^ 2 ] = 13700
c10: [ 1 x_5_ ^ 2 - 2 x_9_ * x_5_ + 1 x_9_ ^ 2 + 1 y_5_ ^ 2 - 2 y_9_ * y_5_ + 1 y_9_ ^ 2 ] = 12500
c11: [ 1 x_8_ ^ 2 - 2 x_9_ * x_8_ + 1 x_9_ ^ 2 + 1 y_8_ ^ 2 - 2 y_9_ * y_8_ + 1 y_9_ ^ 2 ] = 776
c12: [ 1 x_3_ ^ 2 - 2 x_10_ * x_3_ + 1 x_10_ ^ 2 + 1 y_3_ ^ 2 - 2 y_10_ * y_3_ + 1 y_10_ ^ 2 ] = 18794
c13: [ 1 x_4_ ^ 2 - 2 x_10_ * x_4_ + 1 x_10_ ^ 2 + 1 y_4_ ^ 2 - 2 y_10_ * y_4_ + 1 y_10_ ^ 2 ] = 8210
c14: [ 1 x_9_ ^ 2 - 2 x_10_ * x_9_ + 1 x_10_ ^ 2 + 1 y_9_ ^ 2 - 2 y_10_ * y_9_ + 1 y_10_ ^ 2 ] = 11709
c15: [ 1 x_5_ ^ 2 - 2 x_11_ * x_5_ + 1 x_11_ ^ 2 + 1 y_5_ ^ 2 - 2 y_11_ * y_5_ + 1 y_11_ ^ 2 ] = 19610
c16: [ 1 x_10_ ^ 2 - 2 x_11_ * x_10_ + 1 x_11_ ^ 2 + 1 y_10_ ^ 2 - 2 y_11_ * y_10_ + 1 y_11_ ^ 2 ] = 1429
c17: [ 1 x_11_ ^ 2 - 2 x_12_ * x_11_ + 1 x_12_ ^ 2 + 1 y_11_ ^ 2 - 2 y_12_ * y_11_ + 1 y_12_ ^ 2 ] = 25588
c18: [ 1 x_12_ ^ 2 - 2 x_13_ * x_12_ + 1 x_13_ ^ 2 + 1 y_12_ ^ 2 - 2 y_13_ * y_12_ + 1 y_13_ ^ 2 ] = 4546
c19: [ 1 x_13_ ^ 2 - 2 x_14_ * x_13_ + 1 x_14_ ^ 2 + 1 y_13_ ^ 2 - 2 y_14_ * y_13_ + 1 y_14_ ^ 2 ] = 2197
c20: [ 1 x_14_ ^ 2 - 2 x_15_ * x_14_ + 1 x_15_ ^ 2 + 1 y_14_ ^ 2 - 2 y_15_ * y_14_ + 1 y_15_ ^ 2 ] = 6714
c21: [ 1 x_3_ ^ 2 - 2 x_16_ * x_3_ + 1 x_16_ ^ 2 + 1 y_3_ ^ 2 - 2 y_16_ * y_3_ + 1 y_16_ ^ 2 ] = 4825
c22: [ 1 x_5_ ^ 2 - 2 x_16_ * x_5_ + 1 x_16_ ^ 2 + 1 y_5_ ^ 2 - 2 y_16_ * y_5_ + 1 y_16_ ^ 2 ] = 8468
c23: [ 1 x_7_ ^ 2 - 2 x_16_ * x_7_ + 1 x_16_ ^ 2 + 1 y_7_ ^ 2 - 2 y_16_ * y_7_ + 1 y_16_ ^ 2 ] = 6260
c24: [ 1 x_9_ ^ 2 - 2 x_16_ * x_9_ + 1 x_16_ ^ 2 + 1 y_9_ ^ 2 - 2 y_16_ * y_9_ + 1 y_16_ ^ 2 ] = 6184
c25: [ 1 x_15_ ^ 2 - 2 x_16_ * x_15_ + 1 x_16_ ^ 2 + 1 y_15_ ^ 2 - 2 y_16_ * y_15_ + 1 y_16_ ^ 2 ] = 5329
c26: [ 1 x_16_ ^ 2 - 2 x_17_ * x_16_ + 1 x_17_ ^ 2 + 1 y_16_ ^ 2 - 2 y_17_ * y_16_ + 1 y_17_ ^ 2 ] = 5288
c27: [ 1 x_17_ ^ 2 - 2 x_18_ * x_17_ + 1 x_18_ ^ 2 + 1 y_17_ ^ 2 - 2 y_18_ * y_17_ + 1 y_18_ ^ 2 ] = 3920
c28: [ 1 x_7_ ^ 2 - 2 x_19_ * x_7_ + 1 x_19_ ^ 2 + 1 y_7_ ^ 2 - 2 y_19_ * y_7_ + 1 y_19_ ^ 2 ] = 23930
c29: [ 1 x_18_ ^ 2 - 2 x_19_ * x_18_ + 1 x_19_ ^ 2 + 1 y_18_ ^ 2 - 2 y_19_ * y_18_ + 1 y_19_ ^ 2 ] = 11074
c30: [ 1 x_19_ ^ 2 - 2 x_20_ * x_19_ + 1 x_20_ ^ 2 + 1 y_19_ ^ 2 - 2 y_20_ * y_19_ + 1 y_20_ ^ 2 ] = 468
c31: [ 1 x_20_ ^ 2 - 2 x_21_ * x_20_ + 1 x_21_ ^ 2 + 1 y_20_ ^ 2 - 2 y_21_ * y_20_ + 1 y_21_ ^ 2 ] = 4801
c32: [ 1 x_10_ ^ 2 - 2 x_22_ * x_10_ + 1 x_22_ ^ 2 + 1 y_10_ ^ 2 - 2 y_22_ * y_10_ + 1 y_22_ ^ 2 ] = 16141
c33: [ 1 x_16_ ^ 2 - 2 x_22_ * x_16_ + 1 x_22_ ^ 2 + 1 y_16_ ^ 2 - 2 y_22_ * y_16_ + 1 y_22_ ^ 2 ] = 5458
c34: [ 1 x_21_ ^ 2 - 2 x_22_ * x_21_ + 1 x_22_ ^ 2 + 1 y_21_ ^ 2 - 2 y_22_ * y_21_ + 1 y_22_ ^ 2 ] = 153
c35: [ 1 x_22_ ^ 2 - 2 x_23_ * x_22_ + 1 x_23_ ^ 2 + 1 y_22_ ^ 2 - 2 y_23_ * y_22_ + 1 y_23_ ^ 2 ] = 533
c36: [ 1 x_9_ ^ 2 - 2 x_24_ * x_9_ + 1 x_24_ ^ 2 + 1 y_9_ ^ 2 - 2 y_24_ * y_9_ + 1 y_24_ ^ 2 ] = 338
c37: [ 1 x_23_ ^ 2 - 2 x_24_ * x_23_ + 1 x_24_ ^ 2 + 1 y_23_ ^ 2 - 2 y_24_ * y_23_ + 1 y_24_ ^ 2 ] = 5017
c38: [ 1 x_10_ ^ 2 - 2 x_25_ * x_10_ + 1 x_25_ ^ 2 + 1 y_10_ ^ 2 - 2 y_25_ * y_10_ + 1 y_25_ ^ 2 ] = 17800
c39: [ 1 x_24_ ^ 2 - 2 x_25_ * x_24_ + 1 x_25_ ^ 2 + 1 y_24_ ^ 2 - 2 y_25_ * y_24_ + 1 y_25_ ^ 2 ] = 2005
c40: [ 1 x_1_ ^ 2 - 2 x_26_ * x_1_ + 1 x_26_ ^ 2 + 1 y_1_ ^ 2 - 2 y_26_ * y_1_ + 1 y_26_ ^ 2 ] = 17938
c41: [ 1 x_25_ ^ 2 - 2 x_26_ * x_25_ + 1 x_26_ ^ 2 + 1 y_25_ ^ 2 - 2 y_26_ * y_25_ + 1 y_26_ ^ 2 ] = 3506
Bounds
-313 <= x_1_ <= 217
-160 <= x_2_ <= 64
-88 <= x_3_ <= 69
x_4_ = 1
x_5_ = -92
x_6_ = -48
-114 <= x_7_ <= 18
-194 <= x_8_ <= 10
-197 <= x_9_ <= 19
-89 <= x_10_ <= 85
-127 <= x_11_ <= 48
-287 <= x_12_ <= 207
-354 <= x_13_ <= 201
-313 <= x_14_ <= 154
-231 <= x_15_ <= 73
-158 <= x_16_ <= 0
-230 <= x_17_ <= 72
-293 <= x_18_ <= 135
-268 <= x_19_ <= 172
-290 <= x_20_ <= 155
-229 <= x_21_ <= 86
-216 <= x_22_ <= 73
-239 <= x_23_ <= 96
-216 <= x_24_ <= 38
-223 <= x_25_ <= 82
-282 <= x_26_ <= 142
-274 <= y_1_ <= 256
-121 <= y_2_ <= 103
-124 <= y_3_ <= 54
y_4_ = -35
y_5_ = 27
y_6_ = -9
-75 <= y_7_ <= 57
-75 <= y_8_ <= 129
-84 <= y_9_ <= 138
-125 <= y_10_ <= 55
-113 <= y_11_ <= 93
-272 <= y_12_ <= 253
-266 <= y_13_ <= 320
-219 <= y_14_ <= 273
-138 <= y_15_ <= 192
-65 <= y_16_ <= 119
-137 <= y_17_ <= 191
-200 <= y_18_ <= 254
-229 <= y_19_ <= 211
-220 <= y_20_ <= 233
-151 <= y_21_ <= 195
-138 <= y_22_ <= 182
-161 <= y_23_ <= 205
-103 <= y_24_ <= 157
-147 <= y_25_ <= 189
-207 <= y_26_ <= 248
General
x_1_
x_2_
x_3_
x_4_
x_5_
x_6_
x_7_
x_8_
x_9_
x_10_
x_11_
x_12_
x_13_
x_14_
x_15_
x_16_
x_17_
x_18_
x_19_
x_20_
x_21_
x_22_
x_23_
x_24_
x_25_
x_26_
y_1_
y_2_
y_3_
y_4_
y_5_
y_6_
y_7_
y_8_
y_9_
y_10_
y_11_
y_12_
y_13_
y_14_
y_15_
y_16_
y_17_
y_18_
y_19_
y_20_
y_21_
y_22_
y_23_
y_24_
y_25_
y_26_
End
