minimize
obj: 
subject to
c1: -138 x_1_ - 196 y_1_ + [ 1 x_1_ ^ 2 + 1 y_1_ ^ 2 ] <= 35041.141137527615
c2: -138 x_2_ - 196 y_2_ + [ 1 x_2_ ^ 2 + 1 y_2_ ^ 2 ] <= 28556.2242219526
c3: -138 x_3_ - 196 y_3_ + [ 1 x_3_ ^ 2 + 1 y_3_ ^ 2 ] <= 14703.809999999994
c4: -138 x_4_ - 196 y_4_ + [ 1 x_4_ ^ 2 + 1 y_4_ ^ 2 ] <= 43662.90010504122
c5: -138 x_5_ - 196 y_5_ + [ 1 x_5_ ^ 2 + 1 y_5_ ^ 2 ] <= 27983.33159794157
c6: -138 x_6_ - 196 y_6_ + [ 1 x_6_ ^ 2 + 1 y_6_ ^ 2 ] <= -2026.2312371693079
c7: -138 x_7_ - 196 y_7_ + [ 1 x_7_ ^ 2 + 1 y_7_ ^ 2 ] <= 34806.61673949619
c8: -138 x_8_ - 196 y_8_ + [ 1 x_8_ ^ 2 + 1 y_8_ ^ 2 ] <= 75483.09710366873
c9: -138 x_9_ - 196 y_9_ + [ 1 x_9_ ^ 2 + 1 y_9_ ^ 2 ] <= 67382.56929448062
c10: -138 x_10_ - 196 y_10_ + [ 1 x_10_ ^ 2 + 1 y_10_ ^ 2 ] <= 51288.9555719272
c11: -138 x_11_ - 196 y_11_ + [ 1 x_11_ ^ 2 + 1 y_11_ ^ 2 ] <= 74579.32385731094
c12: -138 x_12_ - 196 y_12_ + [ 1 x_12_ ^ 2 + 1 y_12_ ^ 2 ] <= 77406.01089877817
c13: -138 x_13_ - 196 y_13_ + [ 1 x_13_ ^ 2 + 1 y_13_ ^ 2 ] <= -1383.4700000000012
c14: -138 x_14_ - 196 y_14_ + [ 1 x_14_ ^ 2 + 1 y_14_ ^ 2 ] <= 4192.193793685874
c15: -138 x_15_ - 196 y_15_ + [ 1 x_15_ ^ 2 + 1 y_15_ ^ 2 ] <= 35250.200153742066
c16: -138 x_16_ - 196 y_16_ + [ 1 x_16_ ^ 2 + 1 y_16_ ^ 2 ] <= 82455.50248897275
c17: -138 x_17_ - 196 y_17_ + [ 1 x_17_ ^ 2 + 1 y_17_ ^ 2 ] <= 122934.30838217743
c18: -138 x_18_ - 196 y_18_ + [ 1 x_18_ ^ 2 + 1 y_18_ ^ 2 ] <= -9414.99
c19: -138 x_19_ - 196 y_19_ + [ 1 x_19_ ^ 2 + 1 y_19_ ^ 2 ] <= 19743.412578909265
c20: -138 x_20_ - 196 y_20_ + [ 1 x_20_ ^ 2 + 1 y_20_ ^ 2 ] <= 95565.29636183371
c21: -138 x_21_ - 196 y_21_ + [ 1 x_21_ ^ 2 + 1 y_21_ ^ 2 ] <= 38876.74185929877
c22: -138 x_22_ - 196 y_22_ + [ 1 x_22_ ^ 2 + 1 y_22_ ^ 2 ] <= 179600.4152810747
c23: -138 x_23_ - 196 y_23_ + [ 1 x_23_ ^ 2 + 1 y_23_ ^ 2 ] <= 184773.65284068143
c24: -138 x_24_ - 196 y_24_ + [ 1 x_24_ ^ 2 + 1 y_24_ ^ 2 ] <= 105551.69424751695
c25: -138 x_25_ - 196 y_25_ + [ 1 x_25_ ^ 2 + 1 y_25_ ^ 2 ] <= 70458.6142377356
c26: -138 x_26_ - 196 y_26_ + [ 1 x_26_ ^ 2 + 1 y_26_ ^ 2 ] <= 37530.6377609208
c27: -138 x_27_ - 196 y_27_ + [ 1 x_27_ ^ 2 + 1 y_27_ ^ 2 ] <= 50639.30045403215
c28: 2 x_1_ + 92 y_1_ + [ 1 x_1_ ^ 2 + 1 y_1_ ^ 2 ] <= 20570.423286324272
c29: 2 x_2_ + 92 y_2_ + [ 1 x_2_ ^ 2 + 1 y_2_ ^ 2 ] <= 7625.363933596767
c30: 2 x_3_ + 92 y_3_ + [ 1 x_3_ ^ 2 + 1 y_3_ ^ 2 ] <= 16211.290827261524
c31: 2 x_4_ + 92 y_4_ + [ 1 x_4_ ^ 2 + 1 y_4_ ^ 2 ] <= -884.8000000000002
c32: 2 x_6_ + 92 y_6_ + [ 1 x_6_ ^ 2 + 1 y_6_ ^ 2 ] <= 8525.369999999999
c33: 2 x_7_ + 92 y_7_ + [ 1 x_7_ ^ 2 + 1 y_7_ ^ 2 ] <= 13769.593671126097
c34: 2 x_8_ + 92 y_8_ + [ 1 x_8_ ^ 2 + 1 y_8_ ^ 2 ] <= 6711.409999999998
c35: 2 x_9_ + 92 y_9_ + [ 1 x_9_ ^ 2 + 1 y_9_ ^ 2 ] <= 43791.995118392035
c36: 2 x_10_ + 92 y_10_ + [ 1 x_10_ ^ 2 + 1 y_10_ ^ 2 ] <= 427.5139850248456
c37: 2 x_11_ + 92 y_11_ + [ 1 x_11_ ^ 2 + 1 y_11_ ^ 2 ] <= 33893.52089543105
c38: 2 x_12_ + 92 y_12_ + [ 1 x_12_ ^ 2 + 1 y_12_ ^ 2 ] <= 16145.819999999996
c39: 2 x_13_ + 92 y_13_ + [ 1 x_13_ ^ 2 + 1 y_13_ ^ 2 ] <= 6319.530000000001
c40: 2 x_14_ + 92 y_14_ + [ 1 x_14_ ^ 2 + 1 y_14_ ^ 2 ] <= 14345.594863489343
c41: 2 x_15_ + 92 y_15_ + [ 1 x_15_ ^ 2 + 1 y_15_ ^ 2 ] <= 17556.445956416268
c42: 2 x_16_ + 92 y_16_ + [ 1 x_16_ ^ 2 + 1 y_16_ ^ 2 ] <= 8986.432906387105
c43: 2 x_17_ + 92 y_17_ + [ 1 x_17_ ^ 2 + 1 y_17_ ^ 2 ] <= 50910.49119012776
c44: 2 x_18_ + 92 y_18_ + [ 1 x_18_ ^ 2 + 1 y_18_ ^ 2 ] <= 18586.056183691147
c45: 2 x_19_ + 92 y_19_ + [ 1 x_19_ ^ 2 + 1 y_19_ ^ 2 ] <= 24485.960941407167
c46: 2 x_20_ + 92 y_20_ + [ 1 x_20_ ^ 2 + 1 y_20_ ^ 2 ] <= 13813.729999999994
c47: 2 x_21_ + 92 y_21_ + [ 1 x_21_ ^ 2 + 1 y_21_ ^ 2 ] <= 31667.34119498173
c48: 2 x_22_ + 92 y_22_ + [ 1 x_22_ ^ 2 + 1 y_22_ ^ 2 ] <= 55919.62072034672
c49: 2 x_23_ + 92 y_23_ + [ 1 x_23_ ^ 2 + 1 y_23_ ^ 2 ] <= 67782.05514096598
c50: 2 x_24_ + 92 y_24_ + [ 1 x_24_ ^ 2 + 1 y_24_ ^ 2 ] <= 73309.26469538939
c51: 2 x_25_ + 92 y_25_ + [ 1 x_25_ ^ 2 + 1 y_25_ ^ 2 ] <= 5438.8099999999995
c52: 2 x_26_ + 92 y_26_ + [ 1 x_26_ ^ 2 + 1 y_26_ ^ 2 ] <= 88686.023028124
c53: 2 x_27_ + 92 y_27_ + [ 1 x_27_ ^ 2 + 1 y_27_ ^ 2 ] <= 82748.08301345566
c54: 2 x_28_ + 92 y_28_ + [ 1 x_28_ ^ 2 + 1 y_28_ ^ 2 ] <= 40231.33159794157
c55: -62 x_1_ - 190 y_1_ + [ 1 x_1_ ^ 2 + 1 y_1_ ^ 2 ] <= 5393.714450868771
c56: -62 x_2_ - 190 y_2_ + [ 1 x_2_ ^ 2 + 1 y_2_ ^ 2 ] <= 20967.128232354757
c57: -62 x_3_ - 190 y_3_ + [ 1 x_3_ ^ 2 + 1 y_3_ ^ 2 ] <= 35218.54949858562
c58: -62 x_4_ - 190 y_4_ + [ 1 x_4_ ^ 2 + 1 y_4_ ^ 2 ] <= 47391.36064425592
c59: -62 x_5_ - 190 y_5_ + [ 1 x_5_ ^ 2 + 1 y_5_ ^ 2 ] <= 65440.264695389385
c60: -62 x_6_ - 190 y_6_ + [ 1 x_6_ ^ 2 + 1 y_6_ ^ 2 ] <= 45990.56723660608
c61: -62 x_7_ - 190 y_7_ + [ 1 x_7_ ^ 2 + 1 y_7_ ^ 2 ] <= 31334.16815095087
c62: -62 x_8_ - 190 y_8_ + [ 1 x_8_ ^ 2 + 1 y_8_ ^ 2 ] <= 45191.267087662985
c63: -62 x_9_ - 190 y_9_ + [ 1 x_9_ ^ 2 + 1 y_9_ ^ 2 ] <= -6340.91
c64: -62 x_10_ - 190 y_10_ + [ 1 x_10_ ^ 2 + 1 y_10_ ^ 2 ] <= 54975.871355168594
c65: -62 x_11_ - 190 y_11_ + [ 1 x_11_ ^ 2 + 1 y_11_ ^ 2 ] <= -354.6400000000049
c66: -62 x_12_ - 190 y_12_ + [ 1 x_12_ ^ 2 + 1 y_12_ ^ 2 ] <= 31906.821502694373
c67: -62 x_13_ - 190 y_13_ + [ 1 x_13_ ^ 2 + 1 y_13_ ^ 2 ] <= 44002.09400114189
c68: -62 x_14_ - 190 y_14_ + [ 1 x_14_ ^ 2 + 1 y_14_ ^ 2 ] <= 34724.63503761777
c69: -62 x_15_ - 190 y_15_ + [ 1 x_15_ ^ 2 + 1 y_15_ ^ 2 ] <= 75663.9353025978
c70: -62 x_16_ - 190 y_16_ + [ 1 x_16_ ^ 2 + 1 y_16_ ^ 2 ] <= 85993.65887322466
c71: -62 x_17_ - 190 y_17_ + [ 1 x_17_ ^ 2 + 1 y_17_ ^ 2 ] <= 113964.53996064657
c72: -62 x_18_ - 190 y_18_ + [ 1 x_18_ ^ 2 + 1 y_18_ ^ 2 ] <= 66918.92845463083
c73: -62 x_19_ - 190 y_19_ + [ 1 x_19_ ^ 2 + 1 y_19_ ^ 2 ] <= 47775.2673425415
c74: -62 x_20_ - 190 y_20_ + [ 1 x_20_ ^ 2 + 1 y_20_ ^ 2 ] <= 129647.16901624526
c75: -62 x_21_ - 190 y_21_ + [ 1 x_21_ ^ 2 + 1 y_21_ ^ 2 ] <= 83629.08565440528
c76: -62 x_22_ - 190 y_22_ + [ 1 x_22_ ^ 2 + 1 y_22_ ^ 2 ] <= 107084.11463189695
c77: -62 x_23_ - 190 y_23_ + [ 1 x_23_ ^ 2 + 1 y_23_ ^ 2 ] <= 5.929999999998472
c78: -62 x_25_ - 190 y_25_ + [ 1 x_25_ ^ 2 + 1 y_25_ ^ 2 ] <= 101144.74108508145
c79: -62 x_26_ - 190 y_26_ + [ 1 x_26_ ^ 2 + 1 y_26_ ^ 2 ] <= 151291.3372280393
c80: -62 x_27_ - 190 y_27_ + [ 1 x_27_ ^ 2 + 1 y_27_ ^ 2 ] <= 130233.07301680019
c81: -62 x_28_ - 190 y_28_ + [ 1 x_28_ ^ 2 + 1 y_28_ ^ 2 ] <= 109930.69424751692
quadratic_ranged_1_ub: [ 1 x_1_ ^ 2 - 2 x_2_ * x_1_ + 1 x_2_ ^ 2 + 1 y_1_ ^ 2 - 2 y_2_ * y_1_ + 1 y_2_ ^ 2 ] <= 2695.69
quadratic_ranged_2_ub: [ 1 x_2_ ^ 2 - 2 x_3_ * x_2_ + 1 x_3_ ^ 2 + 1 y_2_ ^ 2 - 2 y_3_ * y_2_ + 1 y_3_ ^ 2 ] <= 1345.32
quadratic_ranged_3_ub: [ 1 x_2_ ^ 2 - 2 x_4_ * x_2_ + 1 x_4_ ^ 2 + 1 y_2_ ^ 2 - 2 y_4_ * y_2_ + 1 y_4_ ^ 2 ] <= 4045.05
quadratic_ranged_4_ub: [ 1 x_4_ ^ 2 - 2 x_5_ * x_4_ + 1 x_5_ ^ 2 + 1 y_4_ ^ 2 - 2 y_5_ * y_4_ + 1 y_5_ ^ 2 ] <= 1232.2
quadratic_ranged_5_ub: [ 1 x_3_ ^ 2 - 2 x_6_ * x_3_ + 1 x_6_ ^ 2 + 1 y_3_ ^ 2 - 2 y_6_ * y_3_ + 1 y_6_ ^ 2 ] <= 11930.12
quadratic_ranged_6_ub: [ 1 x_5_ ^ 2 - 2 x_6_ * x_5_ + 1 x_6_ ^ 2 + 1 y_5_ ^ 2 - 2 y_6_ * y_5_ + 1 y_6_ ^ 2 ] <= 10642.37
quadratic_ranged_7_ub: [ 1 x_2_ ^ 2 - 2 x_7_ * x_2_ + 1 x_7_ ^ 2 + 1 y_2_ ^ 2 - 2 y_7_ * y_2_ + 1 y_7_ ^ 2 ] <= 747.4
quadratic_ranged_8_ub: [ 1 x_3_ ^ 2 - 2 x_7_ * x_3_ + 1 x_7_ ^ 2 + 1 y_3_ ^ 2 - 2 y_7_ * y_3_ + 1 y_7_ ^ 2 ] <= 3498.64
quadratic_ranged_9_ub: [ 1 x_4_ ^ 2 - 2 x_8_ * x_4_ + 1 x_8_ ^ 2 + 1 y_4_ ^ 2 - 2 y_8_ * y_4_ + 1 y_8_ ^ 2 ] <= 7903.25
quadratic_ranged_10_ub: [ 1 x_5_ ^ 2 - 2 x_8_ * x_5_ + 1 x_8_ ^ 2 + 1 y_5_ ^ 2 - 2 y_8_ * y_5_ + 1 y_8_ ^ 2 ] <= 8828.41
quadratic_ranged_11_ub: [ 1 x_1_ ^ 2 - 2 x_9_ * x_1_ + 1 x_9_ ^ 2 + 1 y_1_ ^ 2 - 2 y_9_ * y_1_ + 1 y_9_ ^ 2 ] <= 4050.1
quadratic_ranged_12_ub: [ 1 x_8_ ^ 2 - 2 x_9_ * x_8_ + 1 x_9_ ^ 2 + 1 y_8_ ^ 2 - 2 y_9_ * y_8_ + 1 y_9_ ^ 2 ] <= 30458.57
quadratic_ranged_13_ub: [ 1 x_4_ ^ 2 - 2 x_10_ * x_4_ + 1 x_10_ ^ 2 + 1 y_4_ ^ 2 - 2 y_10_ * y_4_ + 1 y_10_ ^ 2 ] <= 235.33
quadratic_ranged_14_ub: [ 1 x_2_ ^ 2 - 2 x_11_ * x_2_ + 1 x_11_ ^ 2 + 1 y_2_ ^ 2 - 2 y_11_ * y_2_ + 1 y_11_ ^ 2 ] <= 8292.1
quadratic_ranged_15_ub: [ 1 x_1_ ^ 2 - 2 x_12_ * x_1_ + 1 x_12_ ^ 2 + 1 y_1_ ^ 2 - 2 y_12_ * y_1_ + 1 y_12_ ^ 2 ] <= 6506.42
quadratic_ranged_16_ub: [ 1 x_5_ ^ 2 - 2 x_12_ * x_5_ + 1 x_12_ ^ 2 + 1 y_5_ ^ 2 - 2 y_12_ * y_5_ + 1 y_12_ ^ 2 ] <= 18262.82
quadratic_ranged_17_ub: [ 1 x_10_ ^ 2 - 2 x_12_ * x_10_ + 1 x_12_ ^ 2 + 1 y_10_ ^ 2 - 2 y_12_ * y_10_ + 1 y_12_ ^ 2 ] <= 19970.73
quadratic_ranged_18_ub: [ 1 x_1_ ^ 2 - 2 x_13_ * x_1_ + 1 x_13_ ^ 2 + 1 y_1_ ^ 2 - 2 y_13_ * y_1_ + 1 y_13_ ^ 2 ] <= 11737.210000000001
quadratic_ranged_19_ub: [ 1 x_3_ ^ 2 - 2 x_13_ * x_3_ + 1 x_13_ ^ 2 + 1 y_3_ ^ 2 - 2 y_13_ * y_3_ + 1 y_13_ ^ 2 ] <= 16008.5
quadratic_ranged_20_ub: [ 1 x_5_ ^ 2 - 2 x_13_ * x_5_ + 1 x_13_ ^ 2 + 1 y_5_ ^ 2 - 2 y_13_ * y_5_ + 1 y_13_ ^ 2 ] <= 8436.53
quadratic_ranged_21_ub: [ 1 x_1_ ^ 2 - 2 x_14_ * x_1_ + 1 x_14_ ^ 2 + 1 y_1_ ^ 2 - 2 y_14_ * y_1_ + 1 y_14_ ^ 2 ] <= 7644.6900000000005
quadratic_ranged_22_ub: [ 1 x_6_ ^ 2 - 2 x_14_ * x_6_ + 1 x_14_ ^ 2 + 1 y_6_ ^ 2 - 2 y_14_ * y_6_ + 1 y_14_ ^ 2 ] <= 632.26
quadratic_ranged_23_ub: [ 1 x_3_ ^ 2 - 2 x_15_ * x_3_ + 1 x_15_ ^ 2 + 1 y_3_ ^ 2 - 2 y_15_ * y_3_ + 1 y_15_ ^ 2 ] <= 6407.4400000000005
quadratic_ranged_24_ub: [ 1 x_4_ ^ 2 - 2 x_15_ * x_4_ + 1 x_15_ ^ 2 + 1 y_4_ ^ 2 - 2 y_15_ * y_4_ + 1 y_15_ ^ 2 ] <= 11058.49
quadratic_ranged_25_ub: [ 1 x_13_ ^ 2 - 2 x_15_ * x_13_ + 1 x_15_ ^ 2 + 1 y_13_ ^ 2 - 2 y_15_ * y_13_ + 1 y_15_ ^ 2 ] <= 11839.22
quadratic_ranged_26_ub: [ 1 x_4_ ^ 2 - 2 x_16_ * x_4_ + 1 x_16_ ^ 2 + 1 y_4_ ^ 2 - 2 y_16_ * y_4_ + 1 y_16_ ^ 2 ] <= 4937.89
quadratic_ranged_27_ub: [ 1 x_15_ ^ 2 - 2 x_16_ * x_15_ + 1 x_16_ ^ 2 + 1 y_15_ ^ 2 - 2 y_16_ * y_15_ + 1 y_16_ ^ 2 ] <= 28106.28
quadratic_ranged_28_ub: [ 1 x_7_ ^ 2 - 2 x_17_ * x_7_ + 1 x_17_ ^ 2 + 1 y_7_ ^ 2 - 2 y_17_ * y_7_ + 1 y_17_ ^ 2 ] <= 22139.2
quadratic_ranged_29_ub: [ 1 x_10_ ^ 2 - 2 x_17_ * x_10_ + 1 x_17_ ^ 2 + 1 y_10_ ^ 2 - 2 y_17_ * y_10_ + 1 y_17_ ^ 2 ] <= 32340.2
quadratic_ranged_30_ub: [ 1 x_6_ ^ 2 - 2 x_18_ * x_6_ + 1 x_18_ ^ 2 + 1 y_6_ ^ 2 - 2 y_18_ * y_6_ + 1 y_18_ ^ 2 ] <= 1658.42
quadratic_ranged_31_ub: [ 1 x_6_ ^ 2 - 2 x_19_ * x_6_ + 1 x_19_ ^ 2 + 1 y_6_ ^ 2 - 2 y_19_ * y_6_ + 1 y_19_ ^ 2 ] <= 5417.64
quadratic_ranged_32_ub: [ 1 x_7_ ^ 2 - 2 x_19_ * x_7_ + 1 x_19_ ^ 2 + 1 y_7_ ^ 2 - 2 y_19_ * y_7_ + 1 y_19_ ^ 2 ] <= 1373.6
quadratic_ranged_33_ub: [ 1 x_3_ ^ 2 - 2 x_20_ * x_3_ + 1 x_20_ ^ 2 + 1 y_3_ ^ 2 - 2 y_20_ * y_3_ + 1 y_20_ ^ 2 ] <= 25940.84
quadratic_ranged_34_ub: [ 1 x_5_ ^ 2 - 2 x_20_ * x_5_ + 1 x_20_ ^ 2 + 1 y_5_ ^ 2 - 2 y_20_ * y_5_ + 1 y_20_ ^ 2 ] <= 15930.73
quadratic_ranged_35_ub: [ 1 x_8_ ^ 2 - 2 x_21_ * x_8_ + 1 x_21_ ^ 2 + 1 y_8_ ^ 2 - 2 y_21_ * y_8_ + 1 y_21_ ^ 2 ] <= 13640.05
quadratic_ranged_36_ub: [ 1 x_14_ ^ 2 - 2 x_21_ * x_14_ + 1 x_21_ ^ 2 + 1 y_14_ ^ 2 - 2 y_21_ * y_14_ + 1 y_21_ ^ 2 ] <= 8933.45
quadratic_ranged_37_ub: [ 1 x_8_ ^ 2 - 2 x_22_ * x_8_ + 1 x_22_ ^ 2 + 1 y_8_ ^ 2 - 2 y_22_ * y_8_ + 1 y_22_ ^ 2 ] <= 21593.8
quadratic_ranged_38_ub: [ 1 x_12_ ^ 2 - 2 x_22_ * x_12_ + 1 x_22_ ^ 2 + 1 y_12_ ^ 2 - 2 y_22_ * y_12_ + 1 y_22_ ^ 2 ] <= 18900.13
quadratic_ranged_39_ub: [ 1 x_8_ ^ 2 - 2 x_23_ * x_8_ + 1 x_23_ ^ 2 + 1 y_8_ ^ 2 - 2 y_23_ * y_8_ + 1 y_23_ ^ 2 ] <= 29044.57
quadratic_ranged_40_ub: [ 1 x_12_ ^ 2 - 2 x_23_ * x_12_ + 1 x_23_ ^ 2 + 1 y_12_ ^ 2 - 2 y_23_ * y_12_ + 1 y_23_ ^ 2 ] <= 27956.8
quadratic_ranged_41_ub: [ 1 x_9_ ^ 2 - 2 x_24_ * x_9_ + 1 x_24_ ^ 2 + 1 y_9_ ^ 2 - 2 y_24_ * y_9_ + 1 y_24_ ^ 2 ] <= 3645.09
quadratic_ranged_42_ub: [ 1 x_11_ ^ 2 - 2 x_24_ * x_11_ + 1 x_24_ ^ 2 + 1 y_11_ ^ 2 - 2 y_24_ * y_11_ + 1 y_24_ ^ 2 ] <= 9631.36
quadratic_ranged_43_ub: [ 1 x_23_ ^ 2 - 2 x_24_ * x_23_ + 1 x_24_ ^ 2 + 1 y_23_ ^ 2 - 2 y_24_ * y_23_ + 1 y_24_ ^ 2 ] <= 9991.93
quadratic_ranged_44_ub: [ 1 x_3_ ^ 2 - 2 x_25_ * x_3_ + 1 x_25_ ^ 2 + 1 y_3_ ^ 2 - 2 y_25_ * y_3_ + 1 y_25_ ^ 2 ] <= 14580.36
quadratic_ranged_45_ub: [ 1 x_5_ ^ 2 - 2 x_25_ * x_5_ + 1 x_25_ ^ 2 + 1 y_5_ ^ 2 - 2 y_25_ * y_5_ + 1 y_25_ ^ 2 ] <= 7555.81
quadratic_ranged_46_ub: [ 1 x_21_ ^ 2 - 2 x_25_ * x_21_ + 1 x_25_ ^ 2 + 1 y_21_ ^ 2 - 2 y_25_ * y_21_ + 1 y_25_ ^ 2 ] <= 9385.93
quadratic_ranged_47_ub: [ 1 x_14_ ^ 2 - 2 x_26_ * x_14_ + 1 x_26_ ^ 2 + 1 y_14_ ^ 2 - 2 y_26_ * y_14_ + 1 y_26_ ^ 2 ] <= 36154.97
quadratic_ranged_48_ub: [ 1 x_18_ ^ 2 - 2 x_26_ * x_18_ + 1 x_26_ ^ 2 + 1 y_18_ ^ 2 - 2 y_26_ * y_18_ + 1 y_26_ ^ 2 ] <= 24790.45
quadratic_ranged_49_ub: [ 1 x_14_ ^ 2 - 2 x_27_ * x_14_ + 1 x_27_ ^ 2 + 1 y_14_ ^ 2 - 2 y_27_ * y_14_ + 1 y_27_ ^ 2 ] <= 26572.09
quadratic_ranged_50_ub: [ 1 x_26_ ^ 2 - 2 x_27_ * x_26_ + 1 x_27_ ^ 2 + 1 y_26_ ^ 2 - 2 y_27_ * y_26_ + 1 y_27_ ^ 2 ] <= 737.3
quadratic_ranged_51_ub: [ 1 x_3_ ^ 2 - 2 x_28_ * x_3_ + 1 x_28_ ^ 2 + 1 y_3_ ^ 2 - 2 y_28_ * y_3_ + 1 y_28_ ^ 2 ] <= 29068.81
quadratic_ranged_52_ub: [ 1 x_13_ ^ 2 - 2 x_28_ * x_13_ + 1 x_28_ ^ 2 + 1 y_13_ ^ 2 - 2 y_28_ * y_13_ + 1 y_28_ ^ 2 ] <= 12981.53
quadratic_ranged_53_ub: [ 1 x_18_ ^ 2 - 2 x_28_ * x_18_ + 1 x_28_ ^ 2 + 1 y_18_ ^ 2 - 2 y_28_ * y_18_ + 1 y_28_ ^ 2 ] <= 4950.01
quadratic_ranged_1_lb: [ 1 x_1_ ^ 2 - 2 x_2_ * x_1_ + 1 x_2_ ^ 2 + 1 y_1_ ^ 2 - 2 y_2_ * y_1_ + 1 y_2_ ^ 2 ] >= 2642.31
quadratic_ranged_2_lb: [ 1 x_2_ ^ 2 - 2 x_3_ * x_2_ + 1 x_3_ ^ 2 + 1 y_2_ ^ 2 - 2 y_3_ * y_2_ + 1 y_3_ ^ 2 ] >= 1318.68
quadratic_ranged_3_lb: [ 1 x_2_ ^ 2 - 2 x_4_ * x_2_ + 1 x_4_ ^ 2 + 1 y_2_ ^ 2 - 2 y_4_ * y_2_ + 1 y_4_ ^ 2 ] >= 3964.95
quadratic_ranged_4_lb: [ 1 x_4_ ^ 2 - 2 x_5_ * x_4_ + 1 x_5_ ^ 2 + 1 y_4_ ^ 2 - 2 y_5_ * y_4_ + 1 y_5_ ^ 2 ] >= 1207.8
quadratic_ranged_5_lb: [ 1 x_3_ ^ 2 - 2 x_6_ * x_3_ + 1 x_6_ ^ 2 + 1 y_3_ ^ 2 - 2 y_6_ * y_3_ + 1 y_6_ ^ 2 ] >= 11693.88
quadratic_ranged_6_lb: [ 1 x_5_ ^ 2 - 2 x_6_ * x_5_ + 1 x_6_ ^ 2 + 1 y_5_ ^ 2 - 2 y_6_ * y_5_ + 1 y_6_ ^ 2 ] >= 10431.63
quadratic_ranged_7_lb: [ 1 x_2_ ^ 2 - 2 x_7_ * x_2_ + 1 x_7_ ^ 2 + 1 y_2_ ^ 2 - 2 y_7_ * y_2_ + 1 y_7_ ^ 2 ] >= 732.6
quadratic_ranged_8_lb: [ 1 x_3_ ^ 2 - 2 x_7_ * x_3_ + 1 x_7_ ^ 2 + 1 y_3_ ^ 2 - 2 y_7_ * y_3_ + 1 y_7_ ^ 2 ] >= 3429.36
quadratic_ranged_9_lb: [ 1 x_4_ ^ 2 - 2 x_8_ * x_4_ + 1 x_8_ ^ 2 + 1 y_4_ ^ 2 - 2 y_8_ * y_4_ + 1 y_8_ ^ 2 ] >= 7746.75
quadratic_ranged_10_lb: [ 1 x_5_ ^ 2 - 2 x_8_ * x_5_ + 1 x_8_ ^ 2 + 1 y_5_ ^ 2 - 2 y_8_ * y_5_ + 1 y_8_ ^ 2 ] >= 8653.59
quadratic_ranged_11_lb: [ 1 x_1_ ^ 2 - 2 x_9_ * x_1_ + 1 x_9_ ^ 2 + 1 y_1_ ^ 2 - 2 y_9_ * y_1_ + 1 y_9_ ^ 2 ] >= 3969.9
quadratic_ranged_12_lb: [ 1 x_8_ ^ 2 - 2 x_9_ * x_8_ + 1 x_9_ ^ 2 + 1 y_8_ ^ 2 - 2 y_9_ * y_8_ + 1 y_9_ ^ 2 ] >= 29855.43
quadratic_ranged_13_lb: [ 1 x_4_ ^ 2 - 2 x_10_ * x_4_ + 1 x_10_ ^ 2 + 1 y_4_ ^ 2 - 2 y_10_ * y_4_ + 1 y_10_ ^ 2 ] >= 230.67
quadratic_ranged_14_lb: [ 1 x_2_ ^ 2 - 2 x_11_ * x_2_ + 1 x_11_ ^ 2 + 1 y_2_ ^ 2 - 2 y_11_ * y_2_ + 1 y_11_ ^ 2 ] >= 8127.9
quadratic_ranged_15_lb: [ 1 x_1_ ^ 2 - 2 x_12_ * x_1_ + 1 x_12_ ^ 2 + 1 y_1_ ^ 2 - 2 y_12_ * y_1_ + 1 y_12_ ^ 2 ] >= 6377.58
quadratic_ranged_16_lb: [ 1 x_5_ ^ 2 - 2 x_12_ * x_5_ + 1 x_12_ ^ 2 + 1 y_5_ ^ 2 - 2 y_12_ * y_5_ + 1 y_12_ ^ 2 ] >= 17901.18
quadratic_ranged_17_lb: [ 1 x_10_ ^ 2 - 2 x_12_ * x_10_ + 1 x_12_ ^ 2 + 1 y_10_ ^ 2 - 2 y_12_ * y_10_ + 1 y_12_ ^ 2 ] >= 19575.27
quadratic_ranged_18_lb: [ 1 x_1_ ^ 2 - 2 x_13_ * x_1_ + 1 x_13_ ^ 2 + 1 y_1_ ^ 2 - 2 y_13_ * y_1_ + 1 y_13_ ^ 2 ] >= 11504.789999999999
quadratic_ranged_19_lb: [ 1 x_3_ ^ 2 - 2 x_13_ * x_3_ + 1 x_13_ ^ 2 + 1 y_3_ ^ 2 - 2 y_13_ * y_3_ + 1 y_13_ ^ 2 ] >= 15691.5
quadratic_ranged_20_lb: [ 1 x_5_ ^ 2 - 2 x_13_ * x_5_ + 1 x_13_ ^ 2 + 1 y_5_ ^ 2 - 2 y_13_ * y_5_ + 1 y_13_ ^ 2 ] >= 8269.47
quadratic_ranged_21_lb: [ 1 x_1_ ^ 2 - 2 x_14_ * x_1_ + 1 x_14_ ^ 2 + 1 y_1_ ^ 2 - 2 y_14_ * y_1_ + 1 y_14_ ^ 2 ] >= 7493.3099999999995
quadratic_ranged_22_lb: [ 1 x_6_ ^ 2 - 2 x_14_ * x_6_ + 1 x_14_ ^ 2 + 1 y_6_ ^ 2 - 2 y_14_ * y_6_ + 1 y_14_ ^ 2 ] >= 619.74
quadratic_ranged_23_lb: [ 1 x_3_ ^ 2 - 2 x_15_ * x_3_ + 1 x_15_ ^ 2 + 1 y_3_ ^ 2 - 2 y_15_ * y_3_ + 1 y_15_ ^ 2 ] >= 6280.5599999999995
quadratic_ranged_24_lb: [ 1 x_4_ ^ 2 - 2 x_15_ * x_4_ + 1 x_15_ ^ 2 + 1 y_4_ ^ 2 - 2 y_15_ * y_4_ + 1 y_15_ ^ 2 ] >= 10839.51
quadratic_ranged_25_lb: [ 1 x_13_ ^ 2 - 2 x_15_ * x_13_ + 1 x_15_ ^ 2 + 1 y_13_ ^ 2 - 2 y_15_ * y_13_ + 1 y_15_ ^ 2 ] >= 11604.78
quadratic_ranged_26_lb: [ 1 x_4_ ^ 2 - 2 x_16_ * x_4_ + 1 x_16_ ^ 2 + 1 y_4_ ^ 2 - 2 y_16_ * y_4_ + 1 y_16_ ^ 2 ] >= 4840.11
quadratic_ranged_27_lb: [ 1 x_15_ ^ 2 - 2 x_16_ * x_15_ + 1 x_16_ ^ 2 + 1 y_15_ ^ 2 - 2 y_16_ * y_15_ + 1 y_16_ ^ 2 ] >= 27549.72
quadratic_ranged_28_lb: [ 1 x_7_ ^ 2 - 2 x_17_ * x_7_ + 1 x_17_ ^ 2 + 1 y_7_ ^ 2 - 2 y_17_ * y_7_ + 1 y_17_ ^ 2 ] >= 21700.8
quadratic_ranged_29_lb: [ 1 x_10_ ^ 2 - 2 x_17_ * x_10_ + 1 x_17_ ^ 2 + 1 y_10_ ^ 2 - 2 y_17_ * y_10_ + 1 y_17_ ^ 2 ] >= 31699.8
quadratic_ranged_30_lb: [ 1 x_6_ ^ 2 - 2 x_18_ * x_6_ + 1 x_18_ ^ 2 + 1 y_6_ ^ 2 - 2 y_18_ * y_6_ + 1 y_18_ ^ 2 ] >= 1625.58
quadratic_ranged_31_lb: [ 1 x_6_ ^ 2 - 2 x_19_ * x_6_ + 1 x_19_ ^ 2 + 1 y_6_ ^ 2 - 2 y_19_ * y_6_ + 1 y_19_ ^ 2 ] >= 5310.36
quadratic_ranged_32_lb: [ 1 x_7_ ^ 2 - 2 x_19_ * x_7_ + 1 x_19_ ^ 2 + 1 y_7_ ^ 2 - 2 y_19_ * y_7_ + 1 y_19_ ^ 2 ] >= 1346.4
quadratic_ranged_33_lb: [ 1 x_3_ ^ 2 - 2 x_20_ * x_3_ + 1 x_20_ ^ 2 + 1 y_3_ ^ 2 - 2 y_20_ * y_3_ + 1 y_20_ ^ 2 ] >= 25427.16
quadratic_ranged_34_lb: [ 1 x_5_ ^ 2 - 2 x_20_ * x_5_ + 1 x_20_ ^ 2 + 1 y_5_ ^ 2 - 2 y_20_ * y_5_ + 1 y_20_ ^ 2 ] >= 15615.27
quadratic_ranged_35_lb: [ 1 x_8_ ^ 2 - 2 x_21_ * x_8_ + 1 x_21_ ^ 2 + 1 y_8_ ^ 2 - 2 y_21_ * y_8_ + 1 y_21_ ^ 2 ] >= 13369.95
quadratic_ranged_36_lb: [ 1 x_14_ ^ 2 - 2 x_21_ * x_14_ + 1 x_21_ ^ 2 + 1 y_14_ ^ 2 - 2 y_21_ * y_14_ + 1 y_21_ ^ 2 ] >= 8756.55
quadratic_ranged_37_lb: [ 1 x_8_ ^ 2 - 2 x_22_ * x_8_ + 1 x_22_ ^ 2 + 1 y_8_ ^ 2 - 2 y_22_ * y_8_ + 1 y_22_ ^ 2 ] >= 21166.2
quadratic_ranged_38_lb: [ 1 x_12_ ^ 2 - 2 x_22_ * x_12_ + 1 x_22_ ^ 2 + 1 y_12_ ^ 2 - 2 y_22_ * y_12_ + 1 y_22_ ^ 2 ] >= 18525.87
quadratic_ranged_39_lb: [ 1 x_8_ ^ 2 - 2 x_23_ * x_8_ + 1 x_23_ ^ 2 + 1 y_8_ ^ 2 - 2 y_23_ * y_8_ + 1 y_23_ ^ 2 ] >= 28469.43
quadratic_ranged_40_lb: [ 1 x_12_ ^ 2 - 2 x_23_ * x_12_ + 1 x_23_ ^ 2 + 1 y_12_ ^ 2 - 2 y_23_ * y_12_ + 1 y_23_ ^ 2 ] >= 27403.2
quadratic_ranged_41_lb: [ 1 x_9_ ^ 2 - 2 x_24_ * x_9_ + 1 x_24_ ^ 2 + 1 y_9_ ^ 2 - 2 y_24_ * y_9_ + 1 y_24_ ^ 2 ] >= 3572.91
quadratic_ranged_42_lb: [ 1 x_11_ ^ 2 - 2 x_24_ * x_11_ + 1 x_24_ ^ 2 + 1 y_11_ ^ 2 - 2 y_24_ * y_11_ + 1 y_24_ ^ 2 ] >= 9440.64
quadratic_ranged_43_lb: [ 1 x_23_ ^ 2 - 2 x_24_ * x_23_ + 1 x_24_ ^ 2 + 1 y_23_ ^ 2 - 2 y_24_ * y_23_ + 1 y_24_ ^ 2 ] >= 9794.07
quadratic_ranged_44_lb: [ 1 x_3_ ^ 2 - 2 x_25_ * x_3_ + 1 x_25_ ^ 2 + 1 y_3_ ^ 2 - 2 y_25_ * y_3_ + 1 y_25_ ^ 2 ] >= 14291.64
quadratic_ranged_45_lb: [ 1 x_5_ ^ 2 - 2 x_25_ * x_5_ + 1 x_25_ ^ 2 + 1 y_5_ ^ 2 - 2 y_25_ * y_5_ + 1 y_25_ ^ 2 ] >= 7406.19
quadratic_ranged_46_lb: [ 1 x_21_ ^ 2 - 2 x_25_ * x_21_ + 1 x_25_ ^ 2 + 1 y_21_ ^ 2 - 2 y_25_ * y_21_ + 1 y_25_ ^ 2 ] >= 9200.07
quadratic_ranged_47_lb: [ 1 x_14_ ^ 2 - 2 x_26_ * x_14_ + 1 x_26_ ^ 2 + 1 y_14_ ^ 2 - 2 y_26_ * y_14_ + 1 y_26_ ^ 2 ] >= 35439.03
quadratic_ranged_48_lb: [ 1 x_18_ ^ 2 - 2 x_26_ * x_18_ + 1 x_26_ ^ 2 + 1 y_18_ ^ 2 - 2 y_26_ * y_18_ + 1 y_26_ ^ 2 ] >= 24299.55
quadratic_ranged_49_lb: [ 1 x_14_ ^ 2 - 2 x_27_ * x_14_ + 1 x_27_ ^ 2 + 1 y_14_ ^ 2 - 2 y_27_ * y_14_ + 1 y_27_ ^ 2 ] >= 26045.91
quadratic_ranged_50_lb: [ 1 x_26_ ^ 2 - 2 x_27_ * x_26_ + 1 x_27_ ^ 2 + 1 y_26_ ^ 2 - 2 y_27_ * y_26_ + 1 y_27_ ^ 2 ] >= 722.7
quadratic_ranged_51_lb: [ 1 x_3_ ^ 2 - 2 x_28_ * x_3_ + 1 x_28_ ^ 2 + 1 y_3_ ^ 2 - 2 y_28_ * y_3_ + 1 y_28_ ^ 2 ] >= 28493.19
quadratic_ranged_52_lb: [ 1 x_13_ ^ 2 - 2 x_28_ * x_13_ + 1 x_28_ ^ 2 + 1 y_13_ ^ 2 - 2 y_28_ * y_13_ + 1 y_28_ ^ 2 ] >= 12724.47
quadratic_ranged_53_lb: [ 1 x_18_ ^ 2 - 2 x_28_ * x_18_ + 1 x_28_ ^ 2 + 1 y_18_ ^ 2 - 2 y_28_ * y_18_ + 1 y_28_ ^ 2 ] >= 4851.99
c1_1: 1 x_28_ = 69
c2_1: 1 y_28_ = 98
c3_1: 1 x_5_ = -1
c4_1: 1 y_5_ = -46
c5_1: 1 x_24_ = 31
c6_1: 1 y_24_ = 95
Bounds
-93 <= x_1_ <= 149
-99 <= x_2_ <= 97
-101 <= x_3_ <= 134
-36 <= x_4_ <= 34
x_5_ = -1
-42 <= x_6_ <= 102
-127 <= x_7_ <= 125
-94 <= x_8_ <= 92
-29 <= x_9_ <= 91
-51 <= x_10_ <= 49
-67 <= x_11_ <= 129
-136 <= x_12_ <= 134
-44 <= x_13_ <= 90
-67 <= x_14_ <= 127
-141 <= x_15_ <= 139
-106 <= x_16_ <= 104
-231 <= x_17_ <= 229
-1 <= x_18_ <= 139
-115 <= x_19_ <= 162
-127 <= x_20_ <= 125
-161 <= x_21_ <= 182
-241 <= x_22_ <= 239
-68 <= x_23_ <= 130
x_24_ = 31
-87 <= x_25_ <= 85
-158 <= x_26_ <= 296
-185 <= x_27_ <= 290
x_28_ = 69
-29 <= y_1_ <= 104
-80 <= y_2_ <= 52
-72 <= y_3_ <= 89
-81 <= y_4_ <= -11
y_5_ = -46
-13 <= y_6_ <= 57
-108 <= y_7_ <= 80
-139 <= y_8_ <= 47
35 <= y_9_ <= 155
-96 <= y_10_ <= 4
-3 <= y_11_ <= 143
-109 <= y_12_ <= 89
-15 <= y_13_ <= 45
-38 <= y_14_ <= 82
-124 <= y_15_ <= 94
-151 <= y_16_ <= 59
-257 <= y_17_ <= 184
28 <= y_18_ <= 97
-86 <= y_19_ <= 117
-172 <= y_20_ <= 80
-132 <= y_21_ <= 137
-247 <= y_22_ <= 194
-4 <= y_23_ <= 194
y_24_ = 95
-132 <= y_25_ <= 40
-129 <= y_26_ <= 255
-156 <= y_27_ <= 245
y_28_ = 98
General
x_1_
x_2_
x_3_
x_4_
x_5_
x_6_
x_7_
x_8_
x_9_
x_10_
x_11_
x_12_
x_13_
x_14_
x_15_
x_16_
x_17_
x_18_
x_19_
x_20_
x_21_
x_22_
x_23_
x_24_
x_25_
x_26_
x_27_
x_28_
y_1_
y_2_
y_3_
y_4_
y_5_
y_6_
y_7_
y_8_
y_9_
y_10_
y_11_
y_12_
y_13_
y_14_
y_15_
y_16_
y_17_
y_18_
y_19_
y_20_
y_21_
y_22_
y_23_
y_24_
y_25_
y_26_
y_27_
y_28_
End
