minimize
obj: 
subject to
c1_3: -1 x_24_ + 1 y_24_ <= 0
c1: [ 1 x_1_ ^ 2 + 1 y_1_ ^ 2 ] <= 14725.799999999997
c2: [ 1 x_2_ ^ 2 + 1 y_2_ ^ 2 ] <= 39936.58936662348
c3: [ 1 x_3_ ^ 2 + 1 y_3_ ^ 2 ] <= 29096.079999999994
c4: [ 1 x_5_ ^ 2 + 1 y_5_ ^ 2 ] <= 19952.968045694095
c5: [ 1 x_6_ ^ 2 + 1 y_6_ ^ 2 ] <= 2352.2900000000004
c6: [ 1 x_7_ ^ 2 + 1 y_7_ ^ 2 ] <= 17647.730000000003
c7: [ 1 x_8_ ^ 2 + 1 y_8_ ^ 2 ] <= 21801.393331306484
c8: [ 1 x_9_ ^ 2 + 1 y_9_ ^ 2 ] <= 71274.05520917456
c9: [ 1 x_10_ ^ 2 + 1 y_10_ ^ 2 ] <= 64570.47145205777
c10: [ 1 x_11_ ^ 2 + 1 y_11_ ^ 2 ] <= 44861.09156408512
c11: [ 1 x_12_ ^ 2 + 1 y_12_ ^ 2 ] <= 61204.34369497834
c12: [ 1 x_13_ ^ 2 + 1 y_13_ ^ 2 ] <= 77279.76771853156
c13: [ 1 x_14_ ^ 2 + 1 y_14_ ^ 2 ] <= 19540.64776014632
c14: [ 1 x_15_ ^ 2 + 1 y_15_ ^ 2 ] <= 32692.943510913996
c15: [ 1 x_16_ ^ 2 + 1 y_16_ ^ 2 ] <= 12230.089999999997
c16: [ 1 x_17_ ^ 2 + 1 y_17_ ^ 2 ] <= 25902.271246832297
c17: [ 1 x_18_ ^ 2 + 1 y_18_ ^ 2 ] <= 32499.1898789465
c18: [ 1 x_19_ ^ 2 + 1 y_19_ ^ 2 ] <= 87923.86423648447
c19: [ 1 x_20_ ^ 2 + 1 y_20_ ^ 2 ] <= 62519.71372368428
c20: [ 1 x_21_ ^ 2 + 1 y_21_ ^ 2 ] <= 35850.95999999999
c21: [ 1 x_22_ ^ 2 + 1 y_22_ ^ 2 ] <= 3074.4399999999996
c22: [ 1 x_23_ ^ 2 + 1 y_23_ ^ 2 ] <= 33551.39889329328
c23: [ 1 x_24_ ^ 2 + 1 y_24_ ^ 2 ] <= 93797.60774547944
c24: [ 1 x_25_ ^ 2 + 1 y_25_ ^ 2 ] <= 75557.01027748165
c25: [ 1 x_26_ ^ 2 + 1 y_26_ ^ 2 ] <= 23356.25
c26: [ 1 x_27_ ^ 2 + 1 y_27_ ^ 2 ] <= 84059.75151187627
c27: [ 1 x_28_ ^ 2 + 1 y_28_ ^ 2 ] <= 15769.129999999996
quadratic_ranged_1_ub: [ 1 x_2_ ^ 2 - 2 x_3_ * x_2_ + 1 x_3_ ^ 2 + 1 y_2_ ^ 2 - 2 y_3_ * y_2_ + 1 y_3_ ^ 2 ] <= 856.48
quadratic_ranged_2_ub: [ 1 x_1_ ^ 2 - 2 x_4_ * x_1_ + 1 x_4_ ^ 2 + 1 y_1_ ^ 2 - 2 y_4_ * y_1_ + 1 y_4_ ^ 2 ] <= 14725.8
quadratic_ranged_3_ub: [ 1 x_3_ ^ 2 - 2 x_4_ * x_3_ + 1 x_4_ ^ 2 + 1 y_3_ ^ 2 - 2 y_4_ * y_3_ + 1 y_4_ ^ 2 ] <= 29096.08
quadratic_ranged_4_ub: [ 1 x_1_ ^ 2 - 2 x_5_ * x_1_ + 1 x_5_ ^ 2 + 1 y_1_ ^ 2 - 2 y_5_ * y_1_ + 1 y_5_ ^ 2 ] <= 24726.82
quadratic_ranged_5_ub: [ 1 x_1_ ^ 2 - 2 x_6_ * x_1_ + 1 x_6_ ^ 2 + 1 y_1_ ^ 2 - 2 y_6_ * y_1_ + 1 y_6_ ^ 2 ] <= 22859.33
quadratic_ranged_6_ub: [ 1 x_2_ ^ 2 - 2 x_6_ * x_2_ + 1 x_6_ ^ 2 + 1 y_2_ ^ 2 - 2 y_6_ * y_2_ + 1 y_6_ ^ 2 ] <= 33197.69
quadratic_ranged_7_ub: [ 1 x_4_ ^ 2 - 2 x_6_ * x_4_ + 1 x_6_ ^ 2 + 1 y_4_ ^ 2 - 2 y_6_ * y_4_ + 1 y_6_ ^ 2 ] <= 2352.29
quadratic_ranged_8_ub: [ 1 x_4_ ^ 2 - 2 x_7_ * x_4_ + 1 x_7_ ^ 2 + 1 y_4_ ^ 2 - 2 y_7_ * y_4_ + 1 y_7_ ^ 2 ] <= 17647.73
quadratic_ranged_9_ub: [ 1 x_1_ ^ 2 - 2 x_8_ * x_1_ + 1 x_8_ ^ 2 + 1 y_1_ ^ 2 - 2 y_8_ * y_1_ + 1 y_8_ ^ 2 ] <= 691.85
quadratic_ranged_10_ub: [ 1 x_2_ ^ 2 - 2 x_8_ * x_2_ + 1 x_8_ ^ 2 + 1 y_2_ ^ 2 - 2 y_8_ * y_2_ + 1 y_8_ ^ 2 ] <= 4642.97
quadratic_ranged_11_ub: [ 1 x_2_ ^ 2 - 2 x_9_ * x_2_ + 1 x_9_ ^ 2 + 1 y_2_ ^ 2 - 2 y_9_ * y_2_ + 1 y_9_ ^ 2 ] <= 5236.85
quadratic_ranged_12_ub: [ 1 x_5_ ^ 2 - 2 x_9_ * x_5_ + 1 x_9_ ^ 2 + 1 y_5_ ^ 2 - 2 y_9_ * y_5_ + 1 y_9_ ^ 2 ] <= 24220.81
quadratic_ranged_13_ub: [ 1 x_7_ ^ 2 - 2 x_9_ * x_7_ + 1 x_9_ ^ 2 + 1 y_7_ ^ 2 - 2 y_9_ * y_7_ + 1 y_9_ ^ 2 ] <= 17990.12
quadratic_ranged_14_ub: [ 1 x_1_ ^ 2 - 2 x_10_ * x_1_ + 1 x_10_ ^ 2 + 1 y_1_ ^ 2 - 2 y_10_ * y_1_ + 1 y_10_ ^ 2 ] <= 17624.5
quadratic_ranged_15_ub: [ 1 x_9_ ^ 2 - 2 x_10_ * x_9_ + 1 x_10_ ^ 2 + 1 y_9_ ^ 2 - 2 y_10_ * y_9_ + 1 y_10_ ^ 2 ] <= 10731.25
quadratic_ranged_16_ub: [ 1 x_1_ ^ 2 - 2 x_11_ * x_1_ + 1 x_11_ ^ 2 + 1 y_1_ ^ 2 - 2 y_11_ * y_1_ + 1 y_11_ ^ 2 ] <= 8182.01
quadratic_ranged_17_ub: [ 1 x_8_ ^ 2 - 2 x_11_ * x_8_ + 1 x_11_ ^ 2 + 1 y_8_ ^ 2 - 2 y_11_ * y_8_ + 1 y_11_ ^ 2 ] <= 5456.02
quadratic_ranged_18_ub: [ 1 x_8_ ^ 2 - 2 x_12_ * x_8_ + 1 x_12_ ^ 2 + 1 y_8_ ^ 2 - 2 y_12_ * y_8_ + 1 y_12_ ^ 2 ] <= 9948.5
quadratic_ranged_19_ub: [ 1 x_9_ ^ 2 - 2 x_12_ * x_9_ + 1 x_12_ ^ 2 + 1 y_9_ ^ 2 - 2 y_12_ * y_9_ + 1 y_12_ ^ 2 ] <= 2056.36
quadratic_ranged_20_ub: [ 1 x_5_ ^ 2 - 2 x_13_ * x_5_ + 1 x_13_ ^ 2 + 1 y_5_ ^ 2 - 2 y_13_ * y_5_ + 1 y_13_ ^ 2 ] <= 18697.12
quadratic_ranged_21_ub: [ 1 x_12_ ^ 2 - 2 x_13_ * x_12_ + 1 x_13_ ^ 2 + 1 y_12_ ^ 2 - 2 y_13_ * y_12_ + 1 y_13_ ^ 2 ] <= 15821.65
quadratic_ranged_22_ub: [ 1 x_8_ ^ 2 - 2 x_14_ * x_8_ + 1 x_14_ ^ 2 + 1 y_8_ ^ 2 - 2 y_14_ * y_8_ + 1 y_14_ ^ 2 ] <= 4704.58
quadratic_ranged_23_ub: [ 1 x_5_ ^ 2 - 2 x_15_ * x_5_ + 1 x_15_ ^ 2 + 1 y_5_ ^ 2 - 2 y_15_ * y_5_ + 1 y_15_ ^ 2 ] <= 21123.14
quadratic_ranged_24_ub: [ 1 x_6_ ^ 2 - 2 x_15_ * x_6_ + 1 x_15_ ^ 2 + 1 y_6_ ^ 2 - 2 y_15_ * y_6_ + 1 y_15_ ^ 2 ] <= 17506.33
quadratic_ranged_25_ub: [ 1 x_4_ ^ 2 - 2 x_16_ * x_4_ + 1 x_16_ ^ 2 + 1 y_4_ ^ 2 - 2 y_16_ * y_4_ + 1 y_16_ ^ 2 ] <= 12230.09
quadratic_ranged_26_ub: [ 1 x_11_ ^ 2 - 2 x_16_ * x_11_ + 1 x_16_ ^ 2 + 1 y_11_ ^ 2 - 2 y_16_ * y_11_ + 1 y_16_ ^ 2 ] <= 11946.28
quadratic_ranged_27_ub: [ 1 x_1_ ^ 2 - 2 x_17_ * x_1_ + 1 x_17_ ^ 2 + 1 y_1_ ^ 2 - 2 y_17_ * y_1_ + 1 y_17_ ^ 2 ] <= 1567.52
quadratic_ranged_28_ub: [ 1 x_7_ ^ 2 - 2 x_17_ * x_7_ + 1 x_17_ ^ 2 + 1 y_7_ ^ 2 - 2 y_17_ * y_7_ + 1 y_17_ ^ 2 ] <= 4154.13
quadratic_ranged_29_ub: [ 1 x_16_ ^ 2 - 2 x_18_ * x_16_ + 1 x_18_ ^ 2 + 1 y_16_ ^ 2 - 2 y_18_ * y_16_ + 1 y_18_ ^ 2 ] <= 4856.08
quadratic_ranged_30_ub: [ 1 x_10_ ^ 2 - 2 x_19_ * x_10_ + 1 x_19_ ^ 2 + 1 y_10_ ^ 2 - 2 y_19_ * y_10_ + 1 y_19_ ^ 2 ] <= 1798.81
quadratic_ranged_31_ub: [ 1 x_15_ ^ 2 - 2 x_20_ * x_15_ + 1 x_20_ ^ 2 + 1 y_15_ ^ 2 - 2 y_20_ * y_15_ + 1 y_20_ ^ 2 ] <= 4792.45
quadratic_ranged_32_ub: [ 1 x_18_ ^ 2 - 2 x_20_ * x_18_ + 1 x_20_ ^ 2 + 1 y_18_ ^ 2 - 2 y_20_ * y_18_ + 1 y_20_ ^ 2 ] <= 23213.84
quadratic_ranged_33_ub: [ 1 x_4_ ^ 2 - 2 x_21_ * x_4_ + 1 x_21_ ^ 2 + 1 y_4_ ^ 2 - 2 y_21_ * y_4_ + 1 y_21_ ^ 2 ] <= 35850.96
quadratic_ranged_34_ub: [ 1 x_5_ ^ 2 - 2 x_21_ * x_5_ + 1 x_21_ ^ 2 + 1 y_5_ ^ 2 - 2 y_21_ * y_5_ + 1 y_21_ ^ 2 ] <= 47924.5
quadratic_ranged_35_ub: [ 1 x_4_ ^ 2 - 2 x_22_ * x_4_ + 1 x_22_ ^ 2 + 1 y_4_ ^ 2 - 2 y_22_ * y_4_ + 1 y_22_ ^ 2 ] <= 3074.44
quadratic_ranged_36_ub: [ 1 x_5_ ^ 2 - 2 x_22_ * x_5_ + 1 x_22_ ^ 2 + 1 y_5_ ^ 2 - 2 y_22_ * y_5_ + 1 y_22_ ^ 2 ] <= 7362.9
quadratic_ranged_37_ub: [ 1 x_17_ ^ 2 - 2 x_22_ * x_17_ + 1 x_22_ ^ 2 + 1 y_17_ ^ 2 - 2 y_22_ * y_17_ + 1 y_22_ ^ 2 ] <= 12257.36
quadratic_ranged_38_ub: [ 1 x_8_ ^ 2 - 2 x_23_ * x_8_ + 1 x_23_ ^ 2 + 1 y_8_ ^ 2 - 2 y_23_ * y_8_ + 1 y_23_ ^ 2 ] <= 1261.49
quadratic_ranged_39_ub: [ 1 x_19_ ^ 2 - 2 x_23_ * x_19_ + 1 x_23_ ^ 2 + 1 y_19_ ^ 2 - 2 y_23_ * y_19_ + 1 y_23_ ^ 2 ] <= 13518.85
quadratic_ranged_40_ub: [ 1 x_3_ ^ 2 - 2 x_24_ * x_3_ + 1 x_24_ ^ 2 + 1 y_3_ ^ 2 - 2 y_24_ * y_3_ + 1 y_24_ ^ 2 ] <= 28613.3
quadratic_ranged_41_ub: [ 1 x_23_ ^ 2 - 2 x_24_ * x_23_ + 1 x_24_ ^ 2 + 1 y_23_ ^ 2 - 2 y_24_ * y_23_ + 1 y_24_ ^ 2 ] <= 15152.02
quadratic_ranged_42_ub: [ 1 x_1_ ^ 2 - 2 x_25_ * x_1_ + 1 x_25_ ^ 2 + 1 y_1_ ^ 2 - 2 y_25_ * y_1_ + 1 y_25_ ^ 2 ] <= 23570.37
quadratic_ranged_43_ub: [ 1 x_12_ ^ 2 - 2 x_25_ * x_12_ + 1 x_25_ ^ 2 + 1 y_12_ ^ 2 - 2 y_25_ * y_12_ + 1 y_25_ ^ 2 ] <= 38598.16
quadratic_ranged_44_ub: [ 1 x_24_ ^ 2 - 2 x_25_ * x_24_ + 1 x_25_ ^ 2 + 1 y_24_ ^ 2 - 2 y_25_ * y_24_ + 1 y_25_ ^ 2 ] <= 9006.17
quadratic_ranged_45_ub: [ 1 x_4_ ^ 2 - 2 x_26_ * x_4_ + 1 x_26_ ^ 2 + 1 y_4_ ^ 2 - 2 y_26_ * y_4_ + 1 y_26_ ^ 2 ] <= 23356.25
quadratic_ranged_46_ub: [ 1 x_14_ ^ 2 - 2 x_26_ * x_14_ + 1 x_26_ ^ 2 + 1 y_14_ ^ 2 - 2 y_26_ * y_14_ + 1 y_26_ ^ 2 ] <= 365.62
quadratic_ranged_47_ub: [ 1 x_18_ ^ 2 - 2 x_26_ * x_18_ + 1 x_26_ ^ 2 + 1 y_18_ ^ 2 - 2 y_26_ * y_18_ + 1 y_26_ ^ 2 ] <= 5391.38
quadratic_ranged_48_ub: [ 1 x_2_ ^ 2 - 2 x_27_ * x_2_ + 1 x_27_ ^ 2 + 1 y_2_ ^ 2 - 2 y_27_ * y_2_ + 1 y_27_ ^ 2 ] <= 30442.41
quadratic_ranged_49_ub: [ 1 x_15_ ^ 2 - 2 x_27_ * x_15_ + 1 x_27_ ^ 2 + 1 y_15_ ^ 2 - 2 y_27_ * y_15_ + 1 y_27_ ^ 2 ] <= 11906.89
quadratic_ranged_50_ub: [ 1 x_23_ ^ 2 - 2 x_27_ * x_23_ + 1 x_27_ ^ 2 + 1 y_23_ ^ 2 - 2 y_27_ * y_23_ + 1 y_27_ ^ 2 ] <= 13421.89
quadratic_ranged_51_ub: [ 1 x_4_ ^ 2 - 2 x_28_ * x_4_ + 1 x_28_ ^ 2 + 1 y_4_ ^ 2 - 2 y_28_ * y_4_ + 1 y_28_ ^ 2 ] <= 15769.130000000001
quadratic_ranged_52_ub: [ 1 x_14_ ^ 2 - 2 x_28_ * x_14_ + 1 x_28_ ^ 2 + 1 y_14_ ^ 2 - 2 y_28_ * y_14_ + 1 y_28_ ^ 2 ] <= 202
quadratic_ranged_53_ub: [ 1 x_19_ ^ 2 - 2 x_28_ * x_19_ + 1 x_28_ ^ 2 + 1 y_19_ ^ 2 - 2 y_28_ * y_19_ + 1 y_28_ ^ 2 ] <= 43779.46
c1_2: 1 x_24_ >= 0
c2_2: 1 y_24_ >= 0
quadratic_ranged_1_lb: [ 1 x_2_ ^ 2 - 2 x_3_ * x_2_ + 1 x_3_ ^ 2 + 1 y_2_ ^ 2 - 2 y_3_ * y_2_ + 1 y_3_ ^ 2 ] >= 839.52
quadratic_ranged_2_lb: [ 1 x_1_ ^ 2 - 2 x_4_ * x_1_ + 1 x_4_ ^ 2 + 1 y_1_ ^ 2 - 2 y_4_ * y_1_ + 1 y_4_ ^ 2 ] >= 14434.2
quadratic_ranged_3_lb: [ 1 x_3_ ^ 2 - 2 x_4_ * x_3_ + 1 x_4_ ^ 2 + 1 y_3_ ^ 2 - 2 y_4_ * y_3_ + 1 y_4_ ^ 2 ] >= 28519.92
quadratic_ranged_4_lb: [ 1 x_1_ ^ 2 - 2 x_5_ * x_1_ + 1 x_5_ ^ 2 + 1 y_1_ ^ 2 - 2 y_5_ * y_1_ + 1 y_5_ ^ 2 ] >= 24237.18
quadratic_ranged_5_lb: [ 1 x_1_ ^ 2 - 2 x_6_ * x_1_ + 1 x_6_ ^ 2 + 1 y_1_ ^ 2 - 2 y_6_ * y_1_ + 1 y_6_ ^ 2 ] >= 22406.67
quadratic_ranged_6_lb: [ 1 x_2_ ^ 2 - 2 x_6_ * x_2_ + 1 x_6_ ^ 2 + 1 y_2_ ^ 2 - 2 y_6_ * y_2_ + 1 y_6_ ^ 2 ] >= 32540.31
quadratic_ranged_7_lb: [ 1 x_4_ ^ 2 - 2 x_6_ * x_4_ + 1 x_6_ ^ 2 + 1 y_4_ ^ 2 - 2 y_6_ * y_4_ + 1 y_6_ ^ 2 ] >= 2305.71
quadratic_ranged_8_lb: [ 1 x_4_ ^ 2 - 2 x_7_ * x_4_ + 1 x_7_ ^ 2 + 1 y_4_ ^ 2 - 2 y_7_ * y_4_ + 1 y_7_ ^ 2 ] >= 17298.27
quadratic_ranged_9_lb: [ 1 x_1_ ^ 2 - 2 x_8_ * x_1_ + 1 x_8_ ^ 2 + 1 y_1_ ^ 2 - 2 y_8_ * y_1_ + 1 y_8_ ^ 2 ] >= 678.15
quadratic_ranged_10_lb: [ 1 x_2_ ^ 2 - 2 x_8_ * x_2_ + 1 x_8_ ^ 2 + 1 y_2_ ^ 2 - 2 y_8_ * y_2_ + 1 y_8_ ^ 2 ] >= 4551.03
quadratic_ranged_11_lb: [ 1 x_2_ ^ 2 - 2 x_9_ * x_2_ + 1 x_9_ ^ 2 + 1 y_2_ ^ 2 - 2 y_9_ * y_2_ + 1 y_9_ ^ 2 ] >= 5133.15
quadratic_ranged_12_lb: [ 1 x_5_ ^ 2 - 2 x_9_ * x_5_ + 1 x_9_ ^ 2 + 1 y_5_ ^ 2 - 2 y_9_ * y_5_ + 1 y_9_ ^ 2 ] >= 23741.19
quadratic_ranged_13_lb: [ 1 x_7_ ^ 2 - 2 x_9_ * x_7_ + 1 x_9_ ^ 2 + 1 y_7_ ^ 2 - 2 y_9_ * y_7_ + 1 y_9_ ^ 2 ] >= 17633.88
quadratic_ranged_14_lb: [ 1 x_1_ ^ 2 - 2 x_10_ * x_1_ + 1 x_10_ ^ 2 + 1 y_1_ ^ 2 - 2 y_10_ * y_1_ + 1 y_10_ ^ 2 ] >= 17275.5
quadratic_ranged_15_lb: [ 1 x_9_ ^ 2 - 2 x_10_ * x_9_ + 1 x_10_ ^ 2 + 1 y_9_ ^ 2 - 2 y_10_ * y_9_ + 1 y_10_ ^ 2 ] >= 10518.75
quadratic_ranged_16_lb: [ 1 x_1_ ^ 2 - 2 x_11_ * x_1_ + 1 x_11_ ^ 2 + 1 y_1_ ^ 2 - 2 y_11_ * y_1_ + 1 y_11_ ^ 2 ] >= 8019.99
quadratic_ranged_17_lb: [ 1 x_8_ ^ 2 - 2 x_11_ * x_8_ + 1 x_11_ ^ 2 + 1 y_8_ ^ 2 - 2 y_11_ * y_8_ + 1 y_11_ ^ 2 ] >= 5347.98
quadratic_ranged_18_lb: [ 1 x_8_ ^ 2 - 2 x_12_ * x_8_ + 1 x_12_ ^ 2 + 1 y_8_ ^ 2 - 2 y_12_ * y_8_ + 1 y_12_ ^ 2 ] >= 9751.5
quadratic_ranged_19_lb: [ 1 x_9_ ^ 2 - 2 x_12_ * x_9_ + 1 x_12_ ^ 2 + 1 y_9_ ^ 2 - 2 y_12_ * y_9_ + 1 y_12_ ^ 2 ] >= 2015.6399999999999
quadratic_ranged_20_lb: [ 1 x_5_ ^ 2 - 2 x_13_ * x_5_ + 1 x_13_ ^ 2 + 1 y_5_ ^ 2 - 2 y_13_ * y_5_ + 1 y_13_ ^ 2 ] >= 18326.88
quadratic_ranged_21_lb: [ 1 x_12_ ^ 2 - 2 x_13_ * x_12_ + 1 x_13_ ^ 2 + 1 y_12_ ^ 2 - 2 y_13_ * y_12_ + 1 y_13_ ^ 2 ] >= 15508.35
quadratic_ranged_22_lb: [ 1 x_8_ ^ 2 - 2 x_14_ * x_8_ + 1 x_14_ ^ 2 + 1 y_8_ ^ 2 - 2 y_14_ * y_8_ + 1 y_14_ ^ 2 ] >= 4611.42
quadratic_ranged_23_lb: [ 1 x_5_ ^ 2 - 2 x_15_ * x_5_ + 1 x_15_ ^ 2 + 1 y_5_ ^ 2 - 2 y_15_ * y_5_ + 1 y_15_ ^ 2 ] >= 20704.86
quadratic_ranged_24_lb: [ 1 x_6_ ^ 2 - 2 x_15_ * x_6_ + 1 x_15_ ^ 2 + 1 y_6_ ^ 2 - 2 y_15_ * y_6_ + 1 y_15_ ^ 2 ] >= 17159.67
quadratic_ranged_25_lb: [ 1 x_4_ ^ 2 - 2 x_16_ * x_4_ + 1 x_16_ ^ 2 + 1 y_4_ ^ 2 - 2 y_16_ * y_4_ + 1 y_16_ ^ 2 ] >= 11987.91
quadratic_ranged_26_lb: [ 1 x_11_ ^ 2 - 2 x_16_ * x_11_ + 1 x_16_ ^ 2 + 1 y_11_ ^ 2 - 2 y_16_ * y_11_ + 1 y_16_ ^ 2 ] >= 11709.72
quadratic_ranged_27_lb: [ 1 x_1_ ^ 2 - 2 x_17_ * x_1_ + 1 x_17_ ^ 2 + 1 y_1_ ^ 2 - 2 y_17_ * y_1_ + 1 y_17_ ^ 2 ] >= 1536.48
quadratic_ranged_28_lb: [ 1 x_7_ ^ 2 - 2 x_17_ * x_7_ + 1 x_17_ ^ 2 + 1 y_7_ ^ 2 - 2 y_17_ * y_7_ + 1 y_17_ ^ 2 ] >= 4071.87
quadratic_ranged_29_lb: [ 1 x_16_ ^ 2 - 2 x_18_ * x_16_ + 1 x_18_ ^ 2 + 1 y_16_ ^ 2 - 2 y_18_ * y_16_ + 1 y_18_ ^ 2 ] >= 4759.92
quadratic_ranged_30_lb: [ 1 x_10_ ^ 2 - 2 x_19_ * x_10_ + 1 x_19_ ^ 2 + 1 y_10_ ^ 2 - 2 y_19_ * y_10_ + 1 y_19_ ^ 2 ] >= 1763.19
quadratic_ranged_31_lb: [ 1 x_15_ ^ 2 - 2 x_20_ * x_15_ + 1 x_20_ ^ 2 + 1 y_15_ ^ 2 - 2 y_20_ * y_15_ + 1 y_20_ ^ 2 ] >= 4697.55
quadratic_ranged_32_lb: [ 1 x_18_ ^ 2 - 2 x_20_ * x_18_ + 1 x_20_ ^ 2 + 1 y_18_ ^ 2 - 2 y_20_ * y_18_ + 1 y_20_ ^ 2 ] >= 22754.16
quadratic_ranged_33_lb: [ 1 x_4_ ^ 2 - 2 x_21_ * x_4_ + 1 x_21_ ^ 2 + 1 y_4_ ^ 2 - 2 y_21_ * y_4_ + 1 y_21_ ^ 2 ] >= 35141.04
quadratic_ranged_34_lb: [ 1 x_5_ ^ 2 - 2 x_21_ * x_5_ + 1 x_21_ ^ 2 + 1 y_5_ ^ 2 - 2 y_21_ * y_5_ + 1 y_21_ ^ 2 ] >= 46975.5
quadratic_ranged_35_lb: [ 1 x_4_ ^ 2 - 2 x_22_ * x_4_ + 1 x_22_ ^ 2 + 1 y_4_ ^ 2 - 2 y_22_ * y_4_ + 1 y_22_ ^ 2 ] >= 3013.56
quadratic_ranged_36_lb: [ 1 x_5_ ^ 2 - 2 x_22_ * x_5_ + 1 x_22_ ^ 2 + 1 y_5_ ^ 2 - 2 y_22_ * y_5_ + 1 y_22_ ^ 2 ] >= 7217.1
quadratic_ranged_37_lb: [ 1 x_17_ ^ 2 - 2 x_22_ * x_17_ + 1 x_22_ ^ 2 + 1 y_17_ ^ 2 - 2 y_22_ * y_17_ + 1 y_22_ ^ 2 ] >= 12014.64
quadratic_ranged_38_lb: [ 1 x_8_ ^ 2 - 2 x_23_ * x_8_ + 1 x_23_ ^ 2 + 1 y_8_ ^ 2 - 2 y_23_ * y_8_ + 1 y_23_ ^ 2 ] >= 1236.51
quadratic_ranged_39_lb: [ 1 x_19_ ^ 2 - 2 x_23_ * x_19_ + 1 x_23_ ^ 2 + 1 y_19_ ^ 2 - 2 y_23_ * y_19_ + 1 y_23_ ^ 2 ] >= 13251.15
quadratic_ranged_40_lb: [ 1 x_3_ ^ 2 - 2 x_24_ * x_3_ + 1 x_24_ ^ 2 + 1 y_3_ ^ 2 - 2 y_24_ * y_3_ + 1 y_24_ ^ 2 ] >= 28046.7
quadratic_ranged_41_lb: [ 1 x_23_ ^ 2 - 2 x_24_ * x_23_ + 1 x_24_ ^ 2 + 1 y_23_ ^ 2 - 2 y_24_ * y_23_ + 1 y_24_ ^ 2 ] >= 14851.98
quadratic_ranged_42_lb: [ 1 x_1_ ^ 2 - 2 x_25_ * x_1_ + 1 x_25_ ^ 2 + 1 y_1_ ^ 2 - 2 y_25_ * y_1_ + 1 y_25_ ^ 2 ] >= 23103.63
quadratic_ranged_43_lb: [ 1 x_12_ ^ 2 - 2 x_25_ * x_12_ + 1 x_25_ ^ 2 + 1 y_12_ ^ 2 - 2 y_25_ * y_12_ + 1 y_25_ ^ 2 ] >= 37833.84
quadratic_ranged_44_lb: [ 1 x_24_ ^ 2 - 2 x_25_ * x_24_ + 1 x_25_ ^ 2 + 1 y_24_ ^ 2 - 2 y_25_ * y_24_ + 1 y_25_ ^ 2 ] >= 8827.83
quadratic_ranged_45_lb: [ 1 x_4_ ^ 2 - 2 x_26_ * x_4_ + 1 x_26_ ^ 2 + 1 y_4_ ^ 2 - 2 y_26_ * y_4_ + 1 y_26_ ^ 2 ] >= 22893.75
quadratic_ranged_46_lb: [ 1 x_14_ ^ 2 - 2 x_26_ * x_14_ + 1 x_26_ ^ 2 + 1 y_14_ ^ 2 - 2 y_26_ * y_14_ + 1 y_26_ ^ 2 ] >= 358.38
quadratic_ranged_47_lb: [ 1 x_18_ ^ 2 - 2 x_26_ * x_18_ + 1 x_26_ ^ 2 + 1 y_18_ ^ 2 - 2 y_26_ * y_18_ + 1 y_26_ ^ 2 ] >= 5284.62
quadratic_ranged_48_lb: [ 1 x_2_ ^ 2 - 2 x_27_ * x_2_ + 1 x_27_ ^ 2 + 1 y_2_ ^ 2 - 2 y_27_ * y_2_ + 1 y_27_ ^ 2 ] >= 29839.59
quadratic_ranged_49_lb: [ 1 x_15_ ^ 2 - 2 x_27_ * x_15_ + 1 x_27_ ^ 2 + 1 y_15_ ^ 2 - 2 y_27_ * y_15_ + 1 y_27_ ^ 2 ] >= 11671.11
quadratic_ranged_50_lb: [ 1 x_23_ ^ 2 - 2 x_27_ * x_23_ + 1 x_27_ ^ 2 + 1 y_23_ ^ 2 - 2 y_27_ * y_23_ + 1 y_27_ ^ 2 ] >= 13156.11
quadratic_ranged_51_lb: [ 1 x_4_ ^ 2 - 2 x_28_ * x_4_ + 1 x_28_ ^ 2 + 1 y_4_ ^ 2 - 2 y_28_ * y_4_ + 1 y_28_ ^ 2 ] >= 15456.869999999999
quadratic_ranged_52_lb: [ 1 x_14_ ^ 2 - 2 x_28_ * x_14_ + 1 x_28_ ^ 2 + 1 y_14_ ^ 2 - 2 y_28_ * y_14_ + 1 y_28_ ^ 2 ] >= 198
quadratic_ranged_53_lb: [ 1 x_19_ ^ 2 - 2 x_28_ * x_19_ + 1 x_28_ ^ 2 + 1 y_19_ ^ 2 - 2 y_28_ * y_19_ + 1 y_28_ ^ 2 ] >= 42912.54
c1_1: 1 x_4_ = 0
c2_1: 1 y_4_ = 0
Bounds
-121 <= x_1_ <= 121
-199 <= x_2_ <= 199
-170 <= x_3_ <= 170
x_4_ = 0
-141 <= x_5_ <= 141
-48 <= x_6_ <= 48
-132 <= x_7_ <= 132
-147 <= x_8_ <= 147
-266 <= x_9_ <= 266
-254 <= x_10_ <= 254
-211 <= x_11_ <= 211
-247 <= x_12_ <= 247
-277 <= x_13_ <= 277
-139 <= x_14_ <= 139
-180 <= x_15_ <= 180
-110 <= x_16_ <= 110
-160 <= x_17_ <= 160
-180 <= x_18_ <= 180
-296 <= x_19_ <= 296
-250 <= x_20_ <= 250
-189 <= x_21_ <= 189
-55 <= x_22_ <= 55
-183 <= x_23_ <= 183
-306 <= x_24_ <= 306
-274 <= x_25_ <= 274
-152 <= x_26_ <= 152
-289 <= x_27_ <= 289
-125 <= x_28_ <= 125
-121 <= y_1_ <= 121
-199 <= y_2_ <= 199
-170 <= y_3_ <= 170
y_4_ = 0
-141 <= y_5_ <= 141
-48 <= y_6_ <= 48
-132 <= y_7_ <= 132
-147 <= y_8_ <= 147
-266 <= y_9_ <= 266
-254 <= y_10_ <= 254
-211 <= y_11_ <= 211
-247 <= y_12_ <= 247
-277 <= y_13_ <= 277
-139 <= y_14_ <= 139
-180 <= y_15_ <= 180
-110 <= y_16_ <= 110
-160 <= y_17_ <= 160
-180 <= y_18_ <= 180
-296 <= y_19_ <= 296
-250 <= y_20_ <= 250
-189 <= y_21_ <= 189
-55 <= y_22_ <= 55
-183 <= y_23_ <= 183
-306 <= y_24_ <= 306
-274 <= y_25_ <= 274
-152 <= y_26_ <= 152
-289 <= y_27_ <= 289
-125 <= y_28_ <= 125
General
x_1_
x_2_
x_3_
x_4_
x_5_
x_6_
x_7_
x_8_
x_9_
x_10_
x_11_
x_12_
x_13_
x_14_
x_15_
x_16_
x_17_
x_18_
x_19_
x_20_
x_21_
x_22_
x_23_
x_24_
x_25_
x_26_
x_27_
x_28_
y_1_
y_2_
y_3_
y_4_
y_5_
y_6_
y_7_
y_8_
y_9_
y_10_
y_11_
y_12_
y_13_
y_14_
y_15_
y_16_
y_17_
y_18_
y_19_
y_20_
y_21_
y_22_
y_23_
y_24_
y_25_
y_26_
y_27_
y_28_
End
