minimize
obj: 
subject to
c1: -84 x_2_ + 106 y_2_ + [ 1 x_2_ ^ 2 + 1 y_2_ ^ 2 ] <= 59547.5626935038
c2: -84 x_3_ + 106 y_3_ + [ 1 x_3_ ^ 2 + 1 y_3_ ^ 2 ] <= 14911.156991042779
c3: -84 x_4_ + 106 y_4_ + [ 1 x_4_ ^ 2 + 1 y_4_ ^ 2 ] <= 17440.96
c4: -84 x_5_ + 106 y_5_ + [ 1 x_5_ ^ 2 + 1 y_5_ ^ 2 ] <= 5794.65
c5: -84 x_6_ + 106 y_6_ + [ 1 x_6_ ^ 2 + 1 y_6_ ^ 2 ] <= 20344.271308229534
c6: -84 x_7_ + 106 y_7_ + [ 1 x_7_ ^ 2 + 1 y_7_ ^ 2 ] <= 109232.99656365607
c7: -84 x_8_ + 106 y_8_ + [ 1 x_8_ ^ 2 + 1 y_8_ ^ 2 ] <= 42604.6995715219
c8: -84 x_9_ + 106 y_9_ + [ 1 x_9_ ^ 2 + 1 y_9_ ^ 2 ] <= 23631.249999999993
c9: -84 x_10_ + 106 y_10_ + [ 1 x_10_ ^ 2 + 1 y_10_ ^ 2 ] <= 49255.29358400547
c10: -84 x_11_ + 106 y_11_ + [ 1 x_11_ ^ 2 + 1 y_11_ ^ 2 ] <= 71708.54784926742
c11: -84 x_12_ + 106 y_12_ + [ 1 x_12_ ^ 2 + 1 y_12_ ^ 2 ] <= 9146.243005689428
c12: -84 x_13_ + 106 y_13_ + [ 1 x_13_ ^ 2 + 1 y_13_ ^ 2 ] <= 15692.649999999994
c13: -84 x_14_ + 106 y_14_ + [ 1 x_14_ ^ 2 + 1 y_14_ ^ 2 ] <= 13511.31835882887
c14: -84 x_15_ + 106 y_15_ + [ 1 x_15_ ^ 2 + 1 y_15_ ^ 2 ] <= 77330.52449245304
c15: -84 x_16_ + 106 y_16_ + [ 1 x_16_ ^ 2 + 1 y_16_ ^ 2 ] <= 6376.409999999998
c16: -84 x_17_ + 106 y_17_ + [ 1 x_17_ ^ 2 + 1 y_17_ ^ 2 ] <= 20516.387466007585
c17: -84 x_18_ + 106 y_18_ + [ 1 x_18_ ^ 2 + 1 y_18_ ^ 2 ] <= 37002.542674302385
c18: -84 x_19_ + 106 y_19_ + [ 1 x_19_ ^ 2 + 1 y_19_ ^ 2 ] <= 31892.768464036482
c19: -84 x_20_ + 106 y_20_ + [ 1 x_20_ ^ 2 + 1 y_20_ ^ 2 ] <= 28180.640185865177
c20: -84 x_21_ + 106 y_21_ + [ 1 x_21_ ^ 2 + 1 y_21_ ^ 2 ] <= 3688.7999999999993
c21: -84 x_22_ + 106 y_22_ + [ 1 x_22_ ^ 2 + 1 y_22_ ^ 2 ] <= 13781.73
c22: -84 x_23_ + 106 y_23_ + [ 1 x_23_ ^ 2 + 1 y_23_ ^ 2 ] <= 35464.57911702532
c23: -84 x_24_ + 106 y_24_ + [ 1 x_24_ ^ 2 + 1 y_24_ ^ 2 ] <= 47965.71354670711
c24: -84 x_25_ + 106 y_25_ + [ 1 x_25_ ^ 2 + 1 y_25_ ^ 2 ] <= 41926.9369815185
c25: -84 x_26_ + 106 y_26_ + [ 1 x_26_ ^ 2 + 1 y_26_ ^ 2 ] <= 48686.4663454579
c26: -84 x_27_ + 106 y_27_ + [ 1 x_27_ ^ 2 + 1 y_27_ ^ 2 ] <= -2863.0699999999997
c27: -84 x_28_ + 106 y_28_ + [ 1 x_28_ ^ 2 + 1 y_28_ ^ 2 ] <= 30382.360048027513
c28: 176 x_1_ - 104 y_1_ + [ 1 x_1_ ^ 2 + 1 y_1_ ^ 2 ] <= 17756.249999999993
c29: 176 x_2_ - 104 y_2_ + [ 1 x_2_ ^ 2 + 1 y_2_ ^ 2 ] <= 13332.44999999999
c30: 176 x_3_ - 104 y_3_ + [ 1 x_3_ ^ 2 + 1 y_3_ ^ 2 ] <= 52498.601968839204
c31: 176 x_4_ - 104 y_4_ + [ 1 x_4_ ^ 2 + 1 y_4_ ^ 2 ] <= 72455.17656434892
c32: 176 x_5_ - 104 y_5_ + [ 1 x_5_ ^ 2 + 1 y_5_ ^ 2 ] <= 62324.00482513175
c33: 176 x_6_ - 104 y_6_ + [ 1 x_6_ ^ 2 + 1 y_6_ ^ 2 ] <= 78004.7978915735
c34: 176 x_7_ - 104 y_7_ + [ 1 x_7_ ^ 2 + 1 y_7_ ^ 2 ] <= 89243.9969501696
c35: 176 x_8_ - 104 y_8_ + [ 1 x_8_ ^ 2 + 1 y_8_ ^ 2 ] <= 19575.530826180962
c36: 176 x_10_ - 104 y_10_ + [ 1 x_10_ ^ 2 + 1 y_10_ ^ 2 ] <= 65810.00645611038
c37: 176 x_11_ - 104 y_11_ + [ 1 x_11_ ^ 2 + 1 y_11_ ^ 2 ] <= 2613.3199999999997
c38: 176 x_12_ - 104 y_12_ + [ 1 x_12_ ^ 2 + 1 y_12_ ^ 2 ] <= 70817.12284194386
c39: 176 x_13_ - 104 y_13_ + [ 1 x_13_ ^ 2 + 1 y_13_ ^ 2 ] <= 67450.46184660957
c40: 176 x_14_ - 104 y_14_ + [ 1 x_14_ ^ 2 + 1 y_14_ ^ 2 ] <= 68175.18521283095
c41: 176 x_15_ - 104 y_15_ + [ 1 x_15_ ^ 2 + 1 y_15_ ^ 2 ] <= 84681.87982842824
c42: 176 x_16_ - 104 y_16_ + [ 1 x_16_ ^ 2 + 1 y_16_ ^ 2 ] <= 63852.20446698846
c43: 176 x_17_ - 104 y_17_ + [ 1 x_17_ ^ 2 + 1 y_17_ ^ 2 ] <= 96048.1696026698
c44: 176 x_18_ - 104 y_18_ + [ 1 x_18_ ^ 2 + 1 y_18_ ^ 2 ] <= 127818.49209752449
c45: 176 x_19_ - 104 y_19_ + [ 1 x_19_ ^ 2 + 1 y_19_ ^ 2 ] <= 118362.16658365965
c46: 176 x_20_ - 104 y_20_ + [ 1 x_20_ ^ 2 + 1 y_20_ ^ 2 ] <= 44259.59207332061
c47: 176 x_21_ - 104 y_21_ + [ 1 x_21_ ^ 2 + 1 y_21_ ^ 2 ] <= 56547.89589872668
c48: 176 x_22_ - 104 y_22_ + [ 1 x_22_ ^ 2 + 1 y_22_ ^ 2 ] <= 81616.20579231971
c49: 176 x_23_ - 104 y_23_ + [ 1 x_23_ ^ 2 + 1 y_23_ ^ 2 ] <= 86521.88394684836
c50: 176 x_24_ - 104 y_24_ + [ 1 x_24_ ^ 2 + 1 y_24_ ^ 2 ] <= 125544.30481348163
c51: 176 x_25_ - 104 y_25_ + [ 1 x_25_ ^ 2 + 1 y_25_ ^ 2 ] <= 76144.59257263537
c52: 176 x_26_ - 104 y_26_ + [ 1 x_26_ ^ 2 + 1 y_26_ ^ 2 ] <= 64174.93834980497
c53: 176 x_27_ - 104 y_27_ + [ 1 x_27_ ^ 2 + 1 y_27_ ^ 2 ] <= 33355.35466266444
c54: 176 x_28_ - 104 y_28_ + [ 1 x_28_ ^ 2 + 1 y_28_ ^ 2 ] <= 94339.5248534175
c55: 164 x_1_ + 60 y_1_ + [ 1 x_1_ ^ 2 + 1 y_1_ ^ 2 ] <= 44914.71354670711
c56: 164 x_2_ + 60 y_2_ + [ 1 x_2_ ^ 2 + 1 y_2_ ^ 2 ] <= 38412.95209504545
c57: 164 x_3_ + 60 y_3_ + [ 1 x_3_ ^ 2 + 1 y_3_ ^ 2 ] <= 23530.46519144301
c58: 164 x_4_ + 60 y_4_ + [ 1 x_4_ ^ 2 + 1 y_4_ ^ 2 ] <= -1088.534230991866
c59: 164 x_5_ + 60 y_5_ + [ 1 x_5_ ^ 2 + 1 y_5_ ^ 2 ] <= 38287.75256700629
c60: 164 x_6_ + 60 y_6_ + [ 1 x_6_ ^ 2 + 1 y_6_ ^ 2 ] <= -2531.58
c61: 164 x_7_ + 60 y_7_ + [ 1 x_7_ ^ 2 + 1 y_7_ ^ 2 ] <= 65180.26239989558
c62: 164 x_8_ + 60 y_8_ + [ 1 x_8_ ^ 2 + 1 y_8_ ^ 2 ] <= 56955.4618108292
c63: 164 x_9_ + 60 y_9_ + [ 1 x_9_ ^ 2 + 1 y_9_ ^ 2 ] <= 128368.30481348163
c64: 164 x_10_ + 60 y_10_ + [ 1 x_10_ ^ 2 + 1 y_10_ ^ 2 ] <= 20807.620195579424
c65: 164 x_11_ + 60 y_11_ + [ 1 x_11_ ^ 2 + 1 y_11_ ^ 2 ] <= 90414.97241101411
c66: 164 x_12_ + 60 y_12_ + [ 1 x_12_ ^ 2 + 1 y_12_ ^ 2 ] <= 45081.96337753078
c67: 164 x_13_ + 60 y_13_ + [ 1 x_13_ ^ 2 + 1 y_13_ ^ 2 ] <= 34285.30412429651
c68: 164 x_14_ + 60 y_14_ + [ 1 x_14_ ^ 2 + 1 y_14_ ^ 2 ] <= 53348.73043402912
c69: 164 x_15_ + 60 y_15_ + [ 1 x_15_ ^ 2 + 1 y_15_ ^ 2 ] <= 45504.12596725413
c70: 164 x_16_ + 60 y_16_ + [ 1 x_16_ ^ 2 + 1 y_16_ ^ 2 ] <= 103833.61032717832
c71: 164 x_17_ + 60 y_17_ + [ 1 x_17_ ^ 2 + 1 y_17_ ^ 2 ] <= 52511.93720281964
c72: 164 x_18_ + 60 y_18_ + [ 1 x_18_ ^ 2 + 1 y_18_ ^ 2 ] <= 93733.0636517865
c73: 164 x_19_ + 60 y_19_ + [ 1 x_19_ ^ 2 + 1 y_19_ ^ 2 ] <= 8932.929999999993
c74: 164 x_20_ + 60 y_20_ + [ 1 x_20_ ^ 2 + 1 y_20_ ^ 2 ] <= 78476.16096681757
c75: 164 x_21_ + 60 y_21_ + [ 1 x_21_ ^ 2 + 1 y_21_ ^ 2 ] <= 44697.71911691675
c76: 164 x_22_ + 60 y_22_ + [ 1 x_22_ ^ 2 + 1 y_22_ ^ 2 ] <= 125376.89565020759
c77: 164 x_23_ + 60 y_23_ + [ 1 x_23_ ^ 2 + 1 y_23_ ^ 2 ] <= 48551.89175271429
c78: 164 x_25_ + 60 y_25_ + [ 1 x_25_ ^ 2 + 1 y_25_ ^ 2 ] <= 27245.757045333325
c79: 164 x_26_ + 60 y_26_ + [ 1 x_26_ ^ 2 + 1 y_26_ ^ 2 ] <= 117708.91689464528
c80: 164 x_27_ + 60 y_27_ + [ 1 x_27_ ^ 2 + 1 y_27_ ^ 2 ] <= 65581.17513399075
c81: 164 x_28_ + 60 y_28_ + [ 1 x_28_ ^ 2 + 1 y_28_ ^ 2 ] <= 18699.83595821793
quadratic_ranged_1_ub: [ 1 x_2_ ^ 2 - 2 x_3_ * x_2_ + 1 x_3_ ^ 2 + 1 y_2_ ^ 2 - 2 y_3_ * y_2_ + 1 y_3_ ^ 2 ] <= 12912.85
quadratic_ranged_2_ub: [ 1 x_1_ ^ 2 - 2 x_4_ * x_1_ + 1 x_4_ ^ 2 + 1 y_1_ ^ 2 - 2 y_4_ * y_1_ + 1 y_4_ ^ 2 ] <= 22013.96
quadratic_ranged_3_ub: [ 1 x_2_ ^ 2 - 2 x_4_ * x_2_ + 1 x_4_ ^ 2 + 1 y_2_ ^ 2 - 2 y_4_ * y_2_ + 1 y_4_ ^ 2 ] <= 17881.04
quadratic_ranged_4_ub: [ 1 x_3_ ^ 2 - 2 x_4_ * x_3_ + 1 x_4_ ^ 2 + 1 y_3_ ^ 2 - 2 y_4_ * y_3_ + 1 y_4_ ^ 2 ] <= 9151.61
quadratic_ranged_5_ub: [ 1 x_1_ ^ 2 - 2 x_5_ * x_1_ + 1 x_5_ ^ 2 + 1 y_1_ ^ 2 - 2 y_5_ * y_1_ + 1 y_5_ ^ 2 ] <= 10367.65
quadratic_ranged_6_ub: [ 1 x_3_ ^ 2 - 2 x_5_ * x_3_ + 1 x_5_ ^ 2 + 1 y_3_ ^ 2 - 2 y_5_ * y_3_ + 1 y_5_ ^ 2 ] <= 1426.1200000000001
quadratic_ranged_7_ub: [ 1 x_4_ ^ 2 - 2 x_6_ * x_4_ + 1 x_6_ ^ 2 + 1 y_4_ ^ 2 - 2 y_6_ * y_4_ + 1 y_6_ ^ 2 ] <= 89.89
quadratic_ranged_8_ub: [ 1 x_4_ ^ 2 - 2 x_7_ * x_4_ + 1 x_7_ ^ 2 + 1 y_4_ ^ 2 - 2 y_7_ * y_4_ + 1 y_7_ ^ 2 ] <= 35713.6
quadratic_ranged_9_ub: [ 1 x_3_ ^ 2 - 2 x_8_ * x_3_ + 1 x_8_ ^ 2 + 1 y_3_ ^ 2 - 2 y_8_ * y_3_ + 1 y_8_ ^ 2 ] <= 6024.65
quadratic_ranged_10_ub: [ 1 x_7_ ^ 2 - 2 x_8_ * x_7_ + 1 x_8_ ^ 2 + 1 y_7_ ^ 2 - 2 y_8_ * y_7_ + 1 y_8_ ^ 2 ] <= 20296.96
quadratic_ranged_11_ub: [ 1 x_1_ ^ 2 - 2 x_9_ * x_1_ + 1 x_9_ ^ 2 + 1 y_1_ ^ 2 - 2 y_9_ * y_1_ + 1 y_9_ ^ 2 ] <= 28204.25
quadratic_ranged_12_ub: [ 1 x_2_ ^ 2 - 2 x_9_ * x_2_ + 1 x_9_ ^ 2 + 1 y_2_ ^ 2 - 2 y_9_ * y_2_ + 1 y_9_ ^ 2 ] <= 23780.45
quadratic_ranged_13_ub: [ 1 x_2_ ^ 2 - 2 x_10_ * x_2_ + 1 x_10_ ^ 2 + 1 y_2_ ^ 2 - 2 y_10_ * y_2_ + 1 y_10_ ^ 2 ] <= 14869.22
quadratic_ranged_14_ub: [ 1 x_5_ ^ 2 - 2 x_10_ * x_5_ + 1 x_10_ ^ 2 + 1 y_5_ ^ 2 - 2 y_10_ * y_5_ + 1 y_10_ ^ 2 ] <= 16948.81
quadratic_ranged_15_ub: [ 1 x_6_ ^ 2 - 2 x_10_ * x_6_ + 1 x_10_ ^ 2 + 1 y_6_ ^ 2 - 2 y_10_ * y_6_ + 1 y_10_ ^ 2 ] <= 9458.65
quadratic_ranged_16_ub: [ 1 x_8_ ^ 2 - 2 x_11_ * x_8_ + 1 x_11_ ^ 2 + 1 y_8_ ^ 2 - 2 y_11_ * y_8_ + 1 y_11_ ^ 2 ] <= 3479.45
quadratic_ranged_17_ub: [ 1 x_9_ ^ 2 - 2 x_11_ * x_9_ + 1 x_11_ ^ 2 + 1 y_9_ ^ 2 - 2 y_11_ * y_9_ + 1 y_11_ ^ 2 ] <= 13061.32
quadratic_ranged_18_ub: [ 1 x_5_ ^ 2 - 2 x_12_ * x_5_ + 1 x_12_ ^ 2 + 1 y_5_ ^ 2 - 2 y_12_ * y_5_ + 1 y_12_ ^ 2 ] <= 234.32
quadratic_ranged_19_ub: [ 1 x_1_ ^ 2 - 2 x_13_ * x_1_ + 1 x_13_ ^ 2 + 1 y_1_ ^ 2 - 2 y_13_ * y_1_ + 1 y_13_ ^ 2 ] <= 20265.65
quadratic_ranged_20_ub: [ 1 x_3_ ^ 2 - 2 x_13_ * x_3_ + 1 x_13_ ^ 2 + 1 y_3_ ^ 2 - 2 y_13_ * y_3_ + 1 y_13_ ^ 2 ] <= 795.88
quadratic_ranged_21_ub: [ 1 x_10_ ^ 2 - 2 x_14_ * x_10_ + 1 x_14_ ^ 2 + 1 y_10_ ^ 2 - 2 y_14_ * y_10_ + 1 y_14_ ^ 2 ] <= 16730.65
quadratic_ranged_22_ub: [ 1 x_12_ ^ 2 - 2 x_14_ * x_12_ + 1 x_14_ ^ 2 + 1 y_12_ ^ 2 - 2 y_14_ * y_12_ + 1 y_14_ ^ 2 ] <= 300.98
quadratic_ranged_23_ub: [ 1 x_2_ ^ 2 - 2 x_15_ * x_2_ + 1 x_15_ ^ 2 + 1 y_2_ ^ 2 - 2 y_15_ * y_2_ + 1 y_15_ ^ 2 ] <= 23784.49
quadratic_ranged_24_ub: [ 1 x_1_ ^ 2 - 2 x_16_ * x_1_ + 1 x_16_ ^ 2 + 1 y_1_ ^ 2 - 2 y_16_ * y_1_ + 1 y_16_ ^ 2 ] <= 10949.41
quadratic_ranged_25_ub: [ 1 x_3_ ^ 2 - 2 x_16_ * x_3_ + 1 x_16_ ^ 2 + 1 y_3_ ^ 2 - 2 y_16_ * y_3_ + 1 y_16_ ^ 2 ] <= 32465.44
quadratic_ranged_26_ub: [ 1 x_3_ ^ 2 - 2 x_17_ * x_3_ + 1 x_17_ ^ 2 + 1 y_3_ ^ 2 - 2 y_17_ * y_3_ + 1 y_17_ ^ 2 ] <= 8016.37
quadratic_ranged_27_ub: [ 1 x_5_ ^ 2 - 2 x_17_ * x_5_ + 1 x_17_ ^ 2 + 1 y_5_ ^ 2 - 2 y_17_ * y_5_ + 1 y_17_ ^ 2 ] <= 3200.69
quadratic_ranged_28_ub: [ 1 x_14_ ^ 2 - 2 x_17_ * x_14_ + 1 x_17_ ^ 2 + 1 y_14_ ^ 2 - 2 y_17_ * y_14_ + 1 y_17_ ^ 2 ] <= 3624.89
quadratic_ranged_29_ub: [ 1 x_3_ ^ 2 - 2 x_18_ * x_3_ + 1 x_18_ ^ 2 + 1 y_3_ ^ 2 - 2 y_18_ * y_3_ + 1 y_18_ ^ 2 ] <= 20124.25
quadratic_ranged_30_ub: [ 1 x_14_ ^ 2 - 2 x_18_ * x_14_ + 1 x_18_ ^ 2 + 1 y_14_ ^ 2 - 2 y_18_ * y_14_ + 1 y_18_ ^ 2 ] <= 14185.45
quadratic_ranged_31_ub: [ 1 x_15_ ^ 2 - 2 x_19_ * x_15_ + 1 x_19_ ^ 2 + 1 y_15_ ^ 2 - 2 y_19_ * y_15_ + 1 y_19_ ^ 2 ] <= 10367.65
quadratic_ranged_32_ub: [ 1 x_17_ ^ 2 - 2 x_19_ * x_17_ + 1 x_19_ ^ 2 + 1 y_17_ ^ 2 - 2 y_19_ * y_17_ + 1 y_19_ ^ 2 ] <= 13584.5
quadratic_ranged_33_ub: [ 1 x_2_ ^ 2 - 2 x_20_ * x_2_ + 1 x_20_ ^ 2 + 1 y_2_ ^ 2 - 2 y_20_ * y_2_ + 1 y_20_ ^ 2 ] <= 6958.9
quadratic_ranged_34_ub: [ 1 x_11_ ^ 2 - 2 x_20_ * x_11_ + 1 x_20_ ^ 2 + 1 y_11_ ^ 2 - 2 y_20_ * y_11_ + 1 y_20_ ^ 2 ] <= 14306.65
quadratic_ranged_35_ub: [ 1 x_14_ ^ 2 - 2 x_20_ * x_14_ + 1 x_20_ ^ 2 + 1 y_14_ ^ 2 - 2 y_20_ * y_14_ + 1 y_20_ ^ 2 ] <= 2162.41
quadratic_ranged_36_ub: [ 1 x_1_ ^ 2 - 2 x_21_ * x_1_ + 1 x_21_ ^ 2 + 1 y_1_ ^ 2 - 2 y_21_ * y_1_ + 1 y_21_ ^ 2 ] <= 8261.8
quadratic_ranged_37_ub: [ 1 x_18_ ^ 2 - 2 x_21_ * x_18_ + 1 x_21_ ^ 2 + 1 y_18_ ^ 2 - 2 y_21_ * y_18_ + 1 y_21_ ^ 2 ] <= 12770.44
quadratic_ranged_38_ub: [ 1 x_19_ ^ 2 - 2 x_21_ * x_19_ + 1 x_21_ ^ 2 + 1 y_19_ ^ 2 - 2 y_21_ * y_19_ + 1 y_21_ ^ 2 ] <= 10013.14
quadratic_ranged_39_ub: [ 1 x_1_ ^ 2 - 2 x_22_ * x_1_ + 1 x_22_ ^ 2 + 1 y_1_ ^ 2 - 2 y_22_ * y_1_ + 1 y_22_ ^ 2 ] <= 18354.73
quadratic_ranged_40_ub: [ 1 x_13_ ^ 2 - 2 x_22_ * x_13_ + 1 x_22_ ^ 2 + 1 y_13_ ^ 2 - 2 y_22_ * y_13_ + 1 y_22_ ^ 2 ] <= 54380.42
quadratic_ranged_41_ub: [ 1 x_3_ ^ 2 - 2 x_23_ * x_3_ + 1 x_23_ ^ 2 + 1 y_3_ ^ 2 - 2 y_23_ * y_3_ + 1 y_23_ ^ 2 ] <= 3661.25
quadratic_ranged_42_ub: [ 1 x_6_ ^ 2 - 2 x_24_ * x_6_ + 1 x_24_ ^ 2 + 1 y_6_ ^ 2 - 2 y_24_ * y_6_ + 1 y_24_ ^ 2 ] <= 5092.42
quadratic_ranged_43_ub: [ 1 x_19_ ^ 2 - 2 x_24_ * x_19_ + 1 x_24_ ^ 2 + 1 y_19_ ^ 2 - 2 y_24_ * y_19_ + 1 y_24_ ^ 2 ] <= 16556.93
quadratic_ranged_44_ub: [ 1 x_5_ ^ 2 - 2 x_25_ * x_5_ + 1 x_25_ ^ 2 + 1 y_5_ ^ 2 - 2 y_25_ * y_5_ + 1 y_25_ ^ 2 ] <= 12954.26
quadratic_ranged_45_ub: [ 1 x_10_ ^ 2 - 2 x_25_ * x_10_ + 1 x_25_ ^ 2 + 1 y_10_ ^ 2 - 2 y_25_ * y_10_ + 1 y_25_ ^ 2 ] <= 328.25
quadratic_ranged_46_ub: [ 1 x_23_ ^ 2 - 2 x_25_ * x_23_ + 1 x_25_ ^ 2 + 1 y_23_ ^ 2 - 2 y_25_ * y_23_ + 1 y_25_ ^ 2 ] <= 11979.61
quadratic_ranged_47_ub: [ 1 x_8_ ^ 2 - 2 x_26_ * x_8_ + 1 x_26_ ^ 2 + 1 y_8_ ^ 2 - 2 y_26_ * y_8_ + 1 y_26_ ^ 2 ] <= 9979.81
quadratic_ranged_48_ub: [ 1 x_1_ ^ 2 - 2 x_27_ * x_1_ + 1 x_27_ ^ 2 + 1 y_1_ ^ 2 - 2 y_27_ * y_1_ + 1 y_27_ ^ 2 ] <= 1709.93
quadratic_ranged_49_ub: [ 1 x_22_ ^ 2 - 2 x_27_ * x_22_ + 1 x_27_ ^ 2 + 1 y_22_ ^ 2 - 2 y_27_ * y_22_ + 1 y_27_ ^ 2 ] <= 29205.16
quadratic_ranged_50_ub: [ 1 x_26_ ^ 2 - 2 x_27_ * x_26_ + 1 x_27_ ^ 2 + 1 y_26_ ^ 2 - 2 y_27_ * y_26_ + 1 y_27_ ^ 2 ] <= 35883.28
quadratic_ranged_51_ub: [ 1 x_4_ ^ 2 - 2 x_28_ * x_4_ + 1 x_28_ ^ 2 + 1 y_4_ ^ 2 - 2 y_28_ * y_4_ + 1 y_28_ ^ 2 ] <= 6626.61
quadratic_ranged_52_ub: [ 1 x_13_ ^ 2 - 2 x_28_ * x_13_ + 1 x_28_ ^ 2 + 1 y_13_ ^ 2 - 2 y_28_ * y_13_ + 1 y_28_ ^ 2 ] <= 1989.7
quadratic_ranged_53_ub: [ 1 x_15_ ^ 2 - 2 x_28_ * x_15_ + 1 x_28_ ^ 2 + 1 y_15_ ^ 2 - 2 y_28_ * y_15_ + 1 y_28_ ^ 2 ] <= 9845.48
quadratic_ranged_1_lb: [ 1 x_2_ ^ 2 - 2 x_3_ * x_2_ + 1 x_3_ ^ 2 + 1 y_2_ ^ 2 - 2 y_3_ * y_2_ + 1 y_3_ ^ 2 ] >= 12657.15
quadratic_ranged_2_lb: [ 1 x_1_ ^ 2 - 2 x_4_ * x_1_ + 1 x_4_ ^ 2 + 1 y_1_ ^ 2 - 2 y_4_ * y_1_ + 1 y_4_ ^ 2 ] >= 21578.04
quadratic_ranged_3_lb: [ 1 x_2_ ^ 2 - 2 x_4_ * x_2_ + 1 x_4_ ^ 2 + 1 y_2_ ^ 2 - 2 y_4_ * y_2_ + 1 y_4_ ^ 2 ] >= 17526.96
quadratic_ranged_4_lb: [ 1 x_3_ ^ 2 - 2 x_4_ * x_3_ + 1 x_4_ ^ 2 + 1 y_3_ ^ 2 - 2 y_4_ * y_3_ + 1 y_4_ ^ 2 ] >= 8970.39
quadratic_ranged_5_lb: [ 1 x_1_ ^ 2 - 2 x_5_ * x_1_ + 1 x_5_ ^ 2 + 1 y_1_ ^ 2 - 2 y_5_ * y_1_ + 1 y_5_ ^ 2 ] >= 10162.35
quadratic_ranged_6_lb: [ 1 x_3_ ^ 2 - 2 x_5_ * x_3_ + 1 x_5_ ^ 2 + 1 y_3_ ^ 2 - 2 y_5_ * y_3_ + 1 y_5_ ^ 2 ] >= 1397.8799999999999
quadratic_ranged_7_lb: [ 1 x_4_ ^ 2 - 2 x_6_ * x_4_ + 1 x_6_ ^ 2 + 1 y_4_ ^ 2 - 2 y_6_ * y_4_ + 1 y_6_ ^ 2 ] >= 88.11
quadratic_ranged_8_lb: [ 1 x_4_ ^ 2 - 2 x_7_ * x_4_ + 1 x_7_ ^ 2 + 1 y_4_ ^ 2 - 2 y_7_ * y_4_ + 1 y_7_ ^ 2 ] >= 35006.4
quadratic_ranged_9_lb: [ 1 x_3_ ^ 2 - 2 x_8_ * x_3_ + 1 x_8_ ^ 2 + 1 y_3_ ^ 2 - 2 y_8_ * y_3_ + 1 y_8_ ^ 2 ] >= 5905.35
quadratic_ranged_10_lb: [ 1 x_7_ ^ 2 - 2 x_8_ * x_7_ + 1 x_8_ ^ 2 + 1 y_7_ ^ 2 - 2 y_8_ * y_7_ + 1 y_8_ ^ 2 ] >= 19895.04
quadratic_ranged_11_lb: [ 1 x_1_ ^ 2 - 2 x_9_ * x_1_ + 1 x_9_ ^ 2 + 1 y_1_ ^ 2 - 2 y_9_ * y_1_ + 1 y_9_ ^ 2 ] >= 27645.75
quadratic_ranged_12_lb: [ 1 x_2_ ^ 2 - 2 x_9_ * x_2_ + 1 x_9_ ^ 2 + 1 y_2_ ^ 2 - 2 y_9_ * y_2_ + 1 y_9_ ^ 2 ] >= 23309.55
quadratic_ranged_13_lb: [ 1 x_2_ ^ 2 - 2 x_10_ * x_2_ + 1 x_10_ ^ 2 + 1 y_2_ ^ 2 - 2 y_10_ * y_2_ + 1 y_10_ ^ 2 ] >= 14574.78
quadratic_ranged_14_lb: [ 1 x_5_ ^ 2 - 2 x_10_ * x_5_ + 1 x_10_ ^ 2 + 1 y_5_ ^ 2 - 2 y_10_ * y_5_ + 1 y_10_ ^ 2 ] >= 16613.19
quadratic_ranged_15_lb: [ 1 x_6_ ^ 2 - 2 x_10_ * x_6_ + 1 x_10_ ^ 2 + 1 y_6_ ^ 2 - 2 y_10_ * y_6_ + 1 y_10_ ^ 2 ] >= 9271.35
quadratic_ranged_16_lb: [ 1 x_8_ ^ 2 - 2 x_11_ * x_8_ + 1 x_11_ ^ 2 + 1 y_8_ ^ 2 - 2 y_11_ * y_8_ + 1 y_11_ ^ 2 ] >= 3410.55
quadratic_ranged_17_lb: [ 1 x_9_ ^ 2 - 2 x_11_ * x_9_ + 1 x_11_ ^ 2 + 1 y_9_ ^ 2 - 2 y_11_ * y_9_ + 1 y_11_ ^ 2 ] >= 12802.68
quadratic_ranged_18_lb: [ 1 x_5_ ^ 2 - 2 x_12_ * x_5_ + 1 x_12_ ^ 2 + 1 y_5_ ^ 2 - 2 y_12_ * y_5_ + 1 y_12_ ^ 2 ] >= 229.68
quadratic_ranged_19_lb: [ 1 x_1_ ^ 2 - 2 x_13_ * x_1_ + 1 x_13_ ^ 2 + 1 y_1_ ^ 2 - 2 y_13_ * y_1_ + 1 y_13_ ^ 2 ] >= 19864.35
quadratic_ranged_20_lb: [ 1 x_3_ ^ 2 - 2 x_13_ * x_3_ + 1 x_13_ ^ 2 + 1 y_3_ ^ 2 - 2 y_13_ * y_3_ + 1 y_13_ ^ 2 ] >= 780.12
quadratic_ranged_21_lb: [ 1 x_10_ ^ 2 - 2 x_14_ * x_10_ + 1 x_14_ ^ 2 + 1 y_10_ ^ 2 - 2 y_14_ * y_10_ + 1 y_14_ ^ 2 ] >= 16399.35
quadratic_ranged_22_lb: [ 1 x_12_ ^ 2 - 2 x_14_ * x_12_ + 1 x_14_ ^ 2 + 1 y_12_ ^ 2 - 2 y_14_ * y_12_ + 1 y_14_ ^ 2 ] >= 295.02
quadratic_ranged_23_lb: [ 1 x_2_ ^ 2 - 2 x_15_ * x_2_ + 1 x_15_ ^ 2 + 1 y_2_ ^ 2 - 2 y_15_ * y_2_ + 1 y_15_ ^ 2 ] >= 23313.51
quadratic_ranged_24_lb: [ 1 x_1_ ^ 2 - 2 x_16_ * x_1_ + 1 x_16_ ^ 2 + 1 y_1_ ^ 2 - 2 y_16_ * y_1_ + 1 y_16_ ^ 2 ] >= 10732.59
quadratic_ranged_25_lb: [ 1 x_3_ ^ 2 - 2 x_16_ * x_3_ + 1 x_16_ ^ 2 + 1 y_3_ ^ 2 - 2 y_16_ * y_3_ + 1 y_16_ ^ 2 ] >= 31822.56
quadratic_ranged_26_lb: [ 1 x_3_ ^ 2 - 2 x_17_ * x_3_ + 1 x_17_ ^ 2 + 1 y_3_ ^ 2 - 2 y_17_ * y_3_ + 1 y_17_ ^ 2 ] >= 7857.63
quadratic_ranged_27_lb: [ 1 x_5_ ^ 2 - 2 x_17_ * x_5_ + 1 x_17_ ^ 2 + 1 y_5_ ^ 2 - 2 y_17_ * y_5_ + 1 y_17_ ^ 2 ] >= 3137.31
quadratic_ranged_28_lb: [ 1 x_14_ ^ 2 - 2 x_17_ * x_14_ + 1 x_17_ ^ 2 + 1 y_14_ ^ 2 - 2 y_17_ * y_14_ + 1 y_17_ ^ 2 ] >= 3553.11
quadratic_ranged_29_lb: [ 1 x_3_ ^ 2 - 2 x_18_ * x_3_ + 1 x_18_ ^ 2 + 1 y_3_ ^ 2 - 2 y_18_ * y_3_ + 1 y_18_ ^ 2 ] >= 19725.75
quadratic_ranged_30_lb: [ 1 x_14_ ^ 2 - 2 x_18_ * x_14_ + 1 x_18_ ^ 2 + 1 y_14_ ^ 2 - 2 y_18_ * y_14_ + 1 y_18_ ^ 2 ] >= 13904.55
quadratic_ranged_31_lb: [ 1 x_15_ ^ 2 - 2 x_19_ * x_15_ + 1 x_19_ ^ 2 + 1 y_15_ ^ 2 - 2 y_19_ * y_15_ + 1 y_19_ ^ 2 ] >= 10162.35
quadratic_ranged_32_lb: [ 1 x_17_ ^ 2 - 2 x_19_ * x_17_ + 1 x_19_ ^ 2 + 1 y_17_ ^ 2 - 2 y_19_ * y_17_ + 1 y_19_ ^ 2 ] >= 13315.5
quadratic_ranged_33_lb: [ 1 x_2_ ^ 2 - 2 x_20_ * x_2_ + 1 x_20_ ^ 2 + 1 y_2_ ^ 2 - 2 y_20_ * y_2_ + 1 y_20_ ^ 2 ] >= 6821.1
quadratic_ranged_34_lb: [ 1 x_11_ ^ 2 - 2 x_20_ * x_11_ + 1 x_20_ ^ 2 + 1 y_11_ ^ 2 - 2 y_20_ * y_11_ + 1 y_20_ ^ 2 ] >= 14023.35
quadratic_ranged_35_lb: [ 1 x_14_ ^ 2 - 2 x_20_ * x_14_ + 1 x_20_ ^ 2 + 1 y_14_ ^ 2 - 2 y_20_ * y_14_ + 1 y_20_ ^ 2 ] >= 2119.59
quadratic_ranged_36_lb: [ 1 x_1_ ^ 2 - 2 x_21_ * x_1_ + 1 x_21_ ^ 2 + 1 y_1_ ^ 2 - 2 y_21_ * y_1_ + 1 y_21_ ^ 2 ] >= 8098.2
quadratic_ranged_37_lb: [ 1 x_18_ ^ 2 - 2 x_21_ * x_18_ + 1 x_21_ ^ 2 + 1 y_18_ ^ 2 - 2 y_21_ * y_18_ + 1 y_21_ ^ 2 ] >= 12517.56
quadratic_ranged_38_lb: [ 1 x_19_ ^ 2 - 2 x_21_ * x_19_ + 1 x_21_ ^ 2 + 1 y_19_ ^ 2 - 2 y_21_ * y_19_ + 1 y_21_ ^ 2 ] >= 9814.86
quadratic_ranged_39_lb: [ 1 x_1_ ^ 2 - 2 x_22_ * x_1_ + 1 x_22_ ^ 2 + 1 y_1_ ^ 2 - 2 y_22_ * y_1_ + 1 y_22_ ^ 2 ] >= 17991.27
quadratic_ranged_40_lb: [ 1 x_13_ ^ 2 - 2 x_22_ * x_13_ + 1 x_22_ ^ 2 + 1 y_13_ ^ 2 - 2 y_22_ * y_13_ + 1 y_22_ ^ 2 ] >= 53303.58
quadratic_ranged_41_lb: [ 1 x_3_ ^ 2 - 2 x_23_ * x_3_ + 1 x_23_ ^ 2 + 1 y_3_ ^ 2 - 2 y_23_ * y_3_ + 1 y_23_ ^ 2 ] >= 3588.75
quadratic_ranged_42_lb: [ 1 x_6_ ^ 2 - 2 x_24_ * x_6_ + 1 x_24_ ^ 2 + 1 y_6_ ^ 2 - 2 y_24_ * y_6_ + 1 y_24_ ^ 2 ] >= 4991.58
quadratic_ranged_43_lb: [ 1 x_19_ ^ 2 - 2 x_24_ * x_19_ + 1 x_24_ ^ 2 + 1 y_19_ ^ 2 - 2 y_24_ * y_19_ + 1 y_24_ ^ 2 ] >= 16229.07
quadratic_ranged_44_lb: [ 1 x_5_ ^ 2 - 2 x_25_ * x_5_ + 1 x_25_ ^ 2 + 1 y_5_ ^ 2 - 2 y_25_ * y_5_ + 1 y_25_ ^ 2 ] >= 12697.74
quadratic_ranged_45_lb: [ 1 x_10_ ^ 2 - 2 x_25_ * x_10_ + 1 x_25_ ^ 2 + 1 y_10_ ^ 2 - 2 y_25_ * y_10_ + 1 y_25_ ^ 2 ] >= 321.75
quadratic_ranged_46_lb: [ 1 x_23_ ^ 2 - 2 x_25_ * x_23_ + 1 x_25_ ^ 2 + 1 y_23_ ^ 2 - 2 y_25_ * y_23_ + 1 y_25_ ^ 2 ] >= 11742.39
quadratic_ranged_47_lb: [ 1 x_8_ ^ 2 - 2 x_26_ * x_8_ + 1 x_26_ ^ 2 + 1 y_8_ ^ 2 - 2 y_26_ * y_8_ + 1 y_26_ ^ 2 ] >= 9782.19
quadratic_ranged_48_lb: [ 1 x_1_ ^ 2 - 2 x_27_ * x_1_ + 1 x_27_ ^ 2 + 1 y_1_ ^ 2 - 2 y_27_ * y_1_ + 1 y_27_ ^ 2 ] >= 1676.07
quadratic_ranged_49_lb: [ 1 x_22_ ^ 2 - 2 x_27_ * x_22_ + 1 x_27_ ^ 2 + 1 y_22_ ^ 2 - 2 y_27_ * y_22_ + 1 y_27_ ^ 2 ] >= 28626.84
quadratic_ranged_50_lb: [ 1 x_26_ ^ 2 - 2 x_27_ * x_26_ + 1 x_27_ ^ 2 + 1 y_26_ ^ 2 - 2 y_27_ * y_26_ + 1 y_27_ ^ 2 ] >= 35172.72
quadratic_ranged_51_lb: [ 1 x_4_ ^ 2 - 2 x_28_ * x_4_ + 1 x_28_ ^ 2 + 1 y_4_ ^ 2 - 2 y_28_ * y_4_ + 1 y_28_ ^ 2 ] >= 6495.39
quadratic_ranged_52_lb: [ 1 x_13_ ^ 2 - 2 x_28_ * x_13_ + 1 x_28_ ^ 2 + 1 y_13_ ^ 2 - 2 y_28_ * y_13_ + 1 y_28_ ^ 2 ] >= 1950.3
quadratic_ranged_53_lb: [ 1 x_15_ ^ 2 - 2 x_28_ * x_15_ + 1 x_28_ ^ 2 + 1 y_15_ ^ 2 - 2 y_28_ * y_15_ + 1 y_28_ ^ 2 ] >= 9650.52
c1_1: 1 x_1_ = 42
c2_1: 1 y_1_ = -53
c3_1: 1 x_9_ = -88
c4_1: 1 y_9_ = 52
c5_1: 1 x_24_ = -82
c6_1: 1 y_24_ = -30
Bounds
x_1_ = 42
-211 <= x_2_ <= 66
-97 <= x_3_ <= 94
-106 <= x_4_ <= -2
-59 <= x_5_ <= 132
-115 <= x_6_ <= -11
-295 <= x_7_ <= 187
-175 <= x_8_ <= 85
x_9_ = -88
-190 <= x_10_ <= 86
-202 <= x_11_ <= 26
-75 <= x_12_ <= 147
-100 <= x_13_ <= 122
-92 <= x_14_ <= 164
-244 <= x_15_ <= 148
-62 <= x_16_ <= 146
-116 <= x_17_ <= 163
-161 <= x_18_ <= 236
-148 <= x_19_ <= 46
-138 <= x_20_ <= 145
-48 <= x_21_ <= 132
-93 <= x_22_ <= 177
-158 <= x_23_ <= 155
x_24_ = -82
-173 <= x_25_ <= 104
-188 <= x_26_ <= 185
1 <= x_27_ <= 83
-144 <= x_28_ <= 80
y_1_ = -53
-102 <= y_2_ <= 184
-192 <= y_3_ <= 86
-110 <= y_4_ <= 50
-154 <= y_5_ <= 48
-101 <= y_6_ <= 41
-263 <= y_7_ <= 239
-121 <= y_8_ <= 164
y_9_ = 52
-198 <= y_10_ <= 138
-62 <= y_11_ <= 166
-170 <= y_12_ <= 64
-195 <= y_13_ <= 89
-187 <= y_14_ <= 81
-256 <= y_15_ <= 200
-157 <= y_16_ <= 51
-211 <= y_17_ <= 105
-256 <= y_18_ <= 150
-158 <= y_19_ <= 98
-181 <= y_20_ <= 127
-143 <= y_21_ <= 37
-188 <= y_22_ <= 82
-253 <= y_23_ <= 147
y_24_ = -30
-216 <= y_25_ <= 156
-221 <= y_26_ <= 177
-94 <= y_27_ <= -12
-192 <= y_28_ <= 132
General
x_1_
x_2_
x_3_
x_4_
x_5_
x_6_
x_7_
x_8_
x_9_
x_10_
x_11_
x_12_
x_13_
x_14_
x_15_
x_16_
x_17_
x_18_
x_19_
x_20_
x_21_
x_22_
x_23_
x_24_
x_25_
x_26_
x_27_
x_28_
y_1_
y_2_
y_3_
y_4_
y_5_
y_6_
y_7_
y_8_
y_9_
y_10_
y_11_
y_12_
y_13_
y_14_
y_15_
y_16_
y_17_
y_18_
y_19_
y_20_
y_21_
y_22_
y_23_
y_24_
y_25_
y_26_
y_27_
y_28_
End
