minimize
obj: 
subject to
c1_1: -62 x_1_ + 146 y_1_ + [ 1 x_1_ ^ 2 + 1 y_1_ ^ 2 ] <= 52699
c2_1: -62 x_2_ + 146 y_2_ + [ 1 x_2_ ^ 2 + 1 y_2_ ^ 2 ] <= 26790
c3_1: -62 x_3_ + 146 y_3_ + [ 1 x_3_ ^ 2 + 1 y_3_ ^ 2 ] <= 58291
c4_1: -62 x_4_ + 146 y_4_ + [ 1 x_4_ ^ 2 + 1 y_4_ ^ 2 ] <= 69610
c5_1: -62 x_5_ + 146 y_5_ + [ 1 x_5_ ^ 2 + 1 y_5_ ^ 2 ] <= 74857
c6_1: -62 x_6_ + 146 y_6_ + [ 1 x_6_ ^ 2 + 1 y_6_ ^ 2 ] <= 31676
c7_1: -62 x_7_ + 146 y_7_ + [ 1 x_7_ ^ 2 + 1 y_7_ ^ 2 ] <= 56292
c8_1: -62 x_8_ + 146 y_8_ + [ 1 x_8_ ^ 2 + 1 y_8_ ^ 2 ] <= 7574
c9_1: -62 x_9_ + 146 y_9_ + [ 1 x_9_ ^ 2 + 1 y_9_ ^ 2 ] <= 92338
c10_1: -62 x_10_ + 146 y_10_ + [ 1 x_10_ ^ 2 + 1 y_10_ ^ 2 ] <= 10088
c11_1: -62 x_11_ + 146 y_11_ + [ 1 x_11_ ^ 2 + 1 y_11_ ^ 2 ] <= 113477
c12_1: -62 x_12_ + 146 y_12_ + [ 1 x_12_ ^ 2 + 1 y_12_ ^ 2 ] <= 20283
c13_1: -62 x_13_ + 146 y_13_ + [ 1 x_13_ ^ 2 + 1 y_13_ ^ 2 ] <= 55325
c14_1: -62 x_14_ + 146 y_14_ + [ 1 x_14_ ^ 2 + 1 y_14_ ^ 2 ] <= 2799
c15_1: -62 x_15_ + 146 y_15_ + [ 1 x_15_ ^ 2 + 1 y_15_ ^ 2 ] <= 8328
c16_1: -62 x_16_ + 146 y_16_ + [ 1 x_16_ ^ 2 + 1 y_16_ ^ 2 ] <= 16607
c17_1: -62 x_17_ + 146 y_17_ + [ 1 x_17_ ^ 2 + 1 y_17_ ^ 2 ] <= 35633
c18_1: -62 x_18_ + 146 y_18_ + [ 1 x_18_ ^ 2 + 1 y_18_ ^ 2 ] <= 125454
c19_1: -62 x_19_ + 146 y_19_ + [ 1 x_19_ ^ 2 + 1 y_19_ ^ 2 ] <= 63906
c20_1: -62 x_20_ + 146 y_20_ + [ 1 x_20_ ^ 2 + 1 y_20_ ^ 2 ] <= 88495
c21_1: -62 x_21_ + 146 y_21_ + [ 1 x_21_ ^ 2 + 1 y_21_ ^ 2 ] <= 55905
c22_1: -62 x_22_ + 146 y_22_ + [ 1 x_22_ ^ 2 + 1 y_22_ ^ 2 ] <= 32544
c23_1: -62 x_23_ + 146 y_23_ + [ 1 x_23_ ^ 2 + 1 y_23_ ^ 2 ] <= 101507
c24_1: -62 x_24_ + 146 y_24_ + [ 1 x_24_ ^ 2 + 1 y_24_ ^ 2 ] <= 175363
c25_1: -62 x_25_ + 146 y_25_ + [ 1 x_25_ ^ 2 + 1 y_25_ ^ 2 ] <= 39775
c26_1: 198 x_1_ + 162 y_1_ + [ 1 x_1_ ^ 2 + 1 y_1_ ^ 2 ] <= 57803
c27_1: 198 x_2_ + 162 y_2_ + [ 1 x_2_ ^ 2 + 1 y_2_ ^ 2 ] <= 28300
c28_1: 198 x_3_ + 162 y_3_ + [ 1 x_3_ ^ 2 + 1 y_3_ ^ 2 ] <= 64057
c29_1: 198 x_4_ + 162 y_4_ + [ 1 x_4_ ^ 2 + 1 y_4_ ^ 2 ] <= 76635
c30_1: 198 x_5_ + 162 y_5_ + [ 1 x_5_ ^ 2 + 1 y_5_ ^ 2 ] <= 124318
c31_1: 198 x_6_ + 162 y_6_ + [ 1 x_6_ ^ 2 + 1 y_6_ ^ 2 ] <= 33950
c32_1: 198 x_7_ + 162 y_7_ + [ 1 x_7_ ^ 2 + 1 y_7_ ^ 2 ] <= 99493
c33_1: 198 x_8_ + 162 y_8_ + [ 1 x_8_ ^ 2 + 1 y_8_ ^ 2 ] <= 5306
c34_1: 198 x_9_ + 162 y_9_ + [ 1 x_9_ ^ 2 + 1 y_9_ ^ 2 ] <= 101634
c35_1: 198 x_10_ + 162 y_10_ + [ 1 x_10_ ^ 2 + 1 y_10_ ^ 2 ] <= 31244
c36_1: 198 x_11_ + 162 y_11_ + [ 1 x_11_ ^ 2 + 1 y_11_ ^ 2 ] <= 124659
c37_1: 198 x_12_ + 162 y_12_ + [ 1 x_12_ ^ 2 + 1 y_12_ ^ 2 ] <= 130232
c38_1: 198 x_13_ + 162 y_13_ + [ 1 x_13_ ^ 2 + 1 y_13_ ^ 2 ] <= 72242
c39_1: 198 x_14_ + 162 y_14_ + [ 1 x_14_ ^ 2 + 1 y_14_ ^ 2 ] <= 113441
c40_1: 198 x_15_ + 162 y_15_ + [ 1 x_15_ ^ 2 + 1 y_15_ ^ 2 ] <= 28208
c41_1: 198 x_16_ + 162 y_16_ + [ 1 x_16_ ^ 2 + 1 y_16_ ^ 2 ] <= 41975
c42_1: 198 x_17_ + 162 y_17_ + [ 1 x_17_ ^ 2 + 1 y_17_ ^ 2 ] <= 38491
c43_1: 198 x_18_ + 162 y_18_ + [ 1 x_18_ ^ 2 + 1 y_18_ ^ 2 ] <= 189007
c44_1: 198 x_20_ + 162 y_20_ + [ 1 x_20_ ^ 2 + 1 y_20_ ^ 2 ] <= 97428
c45_1: 198 x_21_ + 162 y_21_ + [ 1 x_21_ ^ 2 + 1 y_21_ ^ 2 ] <= 145507
c46_1: 198 x_22_ + 162 y_22_ + [ 1 x_22_ ^ 2 + 1 y_22_ ^ 2 ] <= 66164
c47_1: 198 x_23_ + 162 y_23_ + [ 1 x_23_ ^ 2 + 1 y_23_ ^ 2 ] <= 158810
c48_1: 198 x_24_ + 162 y_24_ + [ 1 x_24_ ^ 2 + 1 y_24_ ^ 2 ] <= 302453
c49_1: 198 x_25_ + 162 y_25_ + [ 1 x_25_ ^ 2 + 1 y_25_ ^ 2 ] <= 43214
c50: 198 x_26_ + 162 y_26_ + [ 1 x_26_ ^ 2 + 1 y_26_ ^ 2 ] <= 53834
c51: -16 x_1_ - 156 y_1_ + [ 1 x_1_ ^ 2 + 1 y_1_ ^ 2 ] <= 52469
c52: -16 x_2_ - 156 y_2_ + [ 1 x_2_ ^ 2 + 1 y_2_ ^ 2 ] <= 48535
c53: -16 x_3_ - 156 y_3_ + [ 1 x_3_ ^ 2 + 1 y_3_ ^ 2 ] <= 87545
c54: -16 x_4_ - 156 y_4_ + [ 1 x_4_ ^ 2 + 1 y_4_ ^ 2 ] <= 101086
c55: -16 x_5_ - 156 y_5_ + [ 1 x_5_ ^ 2 + 1 y_5_ ^ 2 ] <= 51507
c56: -16 x_6_ - 156 y_6_ + [ 1 x_6_ ^ 2 + 1 y_6_ ^ 2 ] <= 77288
c57: -16 x_7_ - 156 y_7_ + [ 1 x_7_ ^ 2 + 1 y_7_ ^ 2 ] <= 36048
c58: -16 x_8_ - 156 y_8_ + [ 1 x_8_ ^ 2 + 1 y_8_ ^ 2 ] <= 82642
c59: -16 x_9_ - 156 y_9_ + [ 1 x_9_ ^ 2 + 1 y_9_ ^ 2 ] <= 94972
c60: -16 x_10_ - 156 y_10_ + [ 1 x_10_ ^ 2 + 1 y_10_ ^ 2 ] <= 779
c61: -16 x_11_ - 156 y_11_ + [ 1 x_11_ ^ 2 + 1 y_11_ ^ 2 ] <= 110010
c62: -16 x_12_ - 156 y_12_ + [ 1 x_12_ ^ 2 + 1 y_12_ ^ 2 ] <= 121347
c63: -16 x_13_ - 156 y_13_ + [ 1 x_13_ ^ 2 + 1 y_13_ ^ 2 ] <= 96364
c64: -16 x_14_ - 156 y_14_ + [ 1 x_14_ ^ 2 + 1 y_14_ ^ 2 ] <= 79349
c65: -16 x_15_ - 156 y_15_ + [ 1 x_15_ ^ 2 + 1 y_15_ ^ 2 ] <= -348
c66: -16 x_16_ - 156 y_16_ + [ 1 x_16_ ^ 2 + 1 y_16_ ^ 2 ] <= 5209
c67: -16 x_17_ - 156 y_17_ + [ 1 x_17_ ^ 2 + 1 y_17_ ^ 2 ] <= 142064
c68: -16 x_18_ - 156 y_18_ + [ 1 x_18_ ^ 2 + 1 y_18_ ^ 2 ] <= 55285
c69: -16 x_19_ - 156 y_19_ + [ 1 x_19_ ^ 2 + 1 y_19_ ^ 2 ] <= 76378
c70: -16 x_20_ - 156 y_20_ + [ 1 x_20_ ^ 2 + 1 y_20_ ^ 2 ] <= 138954
c71: -16 x_21_ - 156 y_21_ + [ 1 x_21_ ^ 2 + 1 y_21_ ^ 2 ] <= 70612
c72: -16 x_23_ - 156 y_23_ + [ 1 x_23_ ^ 2 + 1 y_23_ ^ 2 ] <= 14669
c73: -16 x_24_ - 156 y_24_ + [ 1 x_24_ ^ 2 + 1 y_24_ ^ 2 ] <= 199854
c74: -16 x_25_ - 156 y_25_ + [ 1 x_25_ ^ 2 + 1 y_25_ ^ 2 ] <= 47547
c75: -16 x_26_ - 156 y_26_ + [ 1 x_26_ ^ 2 + 1 y_26_ ^ 2 ] <= 32686
c1_2: 1 x_26_ = 31
c2_2: 1 y_26_ = -73
c3_2: 1 x_19_ = -99
c4_2: 1 y_19_ = -81
c5_2: 1 x_22_ = 8
c6_2: 1 y_22_ = 78
c1: [ 1 x_1_ ^ 2 - 2 x_3_ * x_1_ + 1 x_3_ ^ 2 + 1 y_1_ ^ 2 - 2 y_3_ * y_1_ + 1 y_3_ ^ 2 ] = 14713
c2: [ 1 x_2_ ^ 2 - 2 x_3_ * x_2_ + 1 x_3_ ^ 2 + 1 y_2_ ^ 2 - 2 y_3_ * y_2_ + 1 y_3_ ^ 2 ] = 5220
c3: [ 1 x_2_ ^ 2 - 2 x_4_ * x_2_ + 1 x_4_ ^ 2 + 1 y_2_ ^ 2 - 2 y_4_ * y_2_ + 1 y_4_ ^ 2 ] = 8765
c4: [ 1 x_4_ ^ 2 - 2 x_5_ * x_4_ + 1 x_5_ ^ 2 + 1 y_4_ ^ 2 - 2 y_5_ * y_4_ + 1 y_5_ ^ 2 ] = 11365
c5: [ 1 x_2_ ^ 2 - 2 x_6_ * x_2_ + 1 x_6_ ^ 2 + 1 y_2_ ^ 2 - 2 y_6_ * y_2_ + 1 y_6_ ^ 2 ] = 3026
c6: [ 1 x_4_ ^ 2 - 2 x_6_ * x_4_ + 1 x_6_ ^ 2 + 1 y_4_ ^ 2 - 2 y_6_ * y_4_ + 1 y_6_ ^ 2 ] = 7893
c7: [ 1 x_1_ ^ 2 - 2 x_8_ * x_1_ + 1 x_8_ ^ 2 + 1 y_1_ ^ 2 - 2 y_8_ * y_1_ + 1 y_8_ ^ 2 ] = 15658
c8: [ 1 x_2_ ^ 2 - 2 x_8_ * x_2_ + 1 x_8_ ^ 2 + 1 y_2_ ^ 2 - 2 y_8_ * y_2_ + 1 y_8_ ^ 2 ] = 4113
c9: [ 1 x_6_ ^ 2 - 2 x_8_ * x_6_ + 1 x_8_ ^ 2 + 1 y_6_ ^ 2 - 2 y_8_ * y_6_ + 1 y_8_ ^ 2 ] = 5945
c10: [ 1 x_5_ ^ 2 - 2 x_9_ * x_5_ + 1 x_9_ ^ 2 + 1 y_5_ ^ 2 - 2 y_9_ * y_5_ + 1 y_9_ ^ 2 ] = 6065
c11: [ 1 x_6_ ^ 2 - 2 x_9_ * x_6_ + 1 x_9_ ^ 2 + 1 y_6_ ^ 2 - 2 y_9_ * y_6_ + 1 y_9_ ^ 2 ] = 14209
c12: [ 1 x_2_ ^ 2 - 2 x_10_ * x_2_ + 1 x_10_ ^ 2 + 1 y_2_ ^ 2 - 2 y_10_ * y_2_ + 1 y_10_ ^ 2 ] = 22685
c13: [ 1 x_2_ ^ 2 - 2 x_11_ * x_2_ + 1 x_11_ ^ 2 + 1 y_2_ ^ 2 - 2 y_11_ * y_2_ + 1 y_11_ ^ 2 ] = 26960
c14: [ 1 x_5_ ^ 2 - 2 x_11_ * x_5_ + 1 x_11_ ^ 2 + 1 y_5_ ^ 2 - 2 y_11_ * y_5_ + 1 y_11_ ^ 2 ] = 21562
c15: [ 1 x_7_ ^ 2 - 2 x_12_ * x_7_ + 1 x_12_ ^ 2 + 1 y_7_ ^ 2 - 2 y_12_ * y_7_ + 1 y_12_ ^ 2 ] = 22997
c16: [ 1 x_2_ ^ 2 - 2 x_13_ * x_2_ + 1 x_13_ ^ 2 + 1 y_2_ ^ 2 - 2 y_13_ * y_2_ + 1 y_13_ ^ 2 ] = 7453
c17: [ 1 x_12_ ^ 2 - 2 x_13_ * x_12_ + 1 x_13_ ^ 2 + 1 y_12_ ^ 2 - 2 y_13_ * y_12_ + 1 y_13_ ^ 2 ] = 7261
c18: [ 1 x_12_ ^ 2 - 2 x_14_ * x_12_ + 1 x_14_ ^ 2 + 1 y_12_ ^ 2 - 2 y_14_ * y_12_ + 1 y_14_ ^ 2 ] = 4580
c19: [ 1 x_1_ ^ 2 - 2 x_15_ * x_1_ + 1 x_15_ ^ 2 + 1 y_1_ ^ 2 - 2 y_15_ * y_1_ + 1 y_15_ ^ 2 ] = 27540
c20: [ 1 x_7_ ^ 2 - 2 x_15_ * x_7_ + 1 x_15_ ^ 2 + 1 y_7_ ^ 2 - 2 y_15_ * y_7_ + 1 y_15_ ^ 2 ] = 16708
c21: [ 1 x_10_ ^ 2 - 2 x_15_ * x_10_ + 1 x_15_ ^ 2 + 1 y_10_ ^ 2 - 2 y_15_ * y_10_ + 1 y_15_ ^ 2 ] = 50
c22: [ 1 x_2_ ^ 2 - 2 x_16_ * x_2_ + 1 x_16_ ^ 2 + 1 y_2_ ^ 2 - 2 y_16_ * y_2_ + 1 y_16_ ^ 2 ] = 17172
c23: [ 1 x_5_ ^ 2 - 2 x_16_ * x_5_ + 1 x_16_ ^ 2 + 1 y_5_ ^ 2 - 2 y_16_ * y_5_ + 1 y_16_ ^ 2 ] = 17834
c24: [ 1 x_15_ ^ 2 - 2 x_16_ * x_15_ + 1 x_16_ ^ 2 + 1 y_15_ ^ 2 - 2 y_16_ * y_15_ + 1 y_16_ ^ 2 ] = 925
c25: [ 1 x_1_ ^ 2 - 2 x_17_ * x_1_ + 1 x_17_ ^ 2 + 1 y_1_ ^ 2 - 2 y_17_ * y_1_ + 1 y_17_ ^ 2 ] = 26984
c26: [ 1 x_8_ ^ 2 - 2 x_17_ * x_8_ + 1 x_17_ ^ 2 + 1 y_8_ ^ 2 - 2 y_17_ * y_8_ + 1 y_17_ ^ 2 ] = 7570
c27: [ 1 x_13_ ^ 2 - 2 x_17_ * x_13_ + 1 x_17_ ^ 2 + 1 y_13_ ^ 2 - 2 y_17_ * y_13_ + 1 y_17_ ^ 2 ] = 4880
c28: [ 1 x_5_ ^ 2 - 2 x_18_ * x_5_ + 1 x_18_ ^ 2 + 1 y_5_ ^ 2 - 2 y_18_ * y_5_ + 1 y_18_ ^ 2 ] = 6100
c29: [ 1 x_7_ ^ 2 - 2 x_18_ * x_7_ + 1 x_18_ ^ 2 + 1 y_7_ ^ 2 - 2 y_18_ * y_7_ + 1 y_18_ ^ 2 ] = 24025
c30: [ 1 x_11_ ^ 2 - 2 x_18_ * x_11_ + 1 x_18_ ^ 2 + 1 y_11_ ^ 2 - 2 y_18_ * y_11_ + 1 y_18_ ^ 2 ] = 8642
c31: [ 1 x_8_ ^ 2 - 2 x_19_ * x_8_ + 1 x_19_ ^ 2 + 1 y_8_ ^ 2 - 2 y_19_ * y_8_ + 1 y_19_ ^ 2 ] = 21668
c32: [ 1 x_15_ ^ 2 - 2 x_19_ * x_15_ + 1 x_19_ ^ 2 + 1 y_15_ ^ 2 - 2 y_19_ * y_15_ + 1 y_19_ ^ 2 ] = 44570
c33: [ 1 x_7_ ^ 2 - 2 x_20_ * x_7_ + 1 x_20_ ^ 2 + 1 y_7_ ^ 2 - 2 y_20_ * y_7_ + 1 y_20_ ^ 2 ] = 30802
c34: [ 1 x_17_ ^ 2 - 2 x_20_ * x_17_ + 1 x_20_ ^ 2 + 1 y_17_ ^ 2 - 2 y_20_ * y_17_ + 1 y_20_ ^ 2 ] = 10634
c35: [ 1 x_6_ ^ 2 - 2 x_21_ * x_6_ + 1 x_21_ ^ 2 + 1 y_6_ ^ 2 - 2 y_21_ * y_6_ + 1 y_21_ ^ 2 ] = 31693
c36: [ 1 x_12_ ^ 2 - 2 x_21_ * x_12_ + 1 x_21_ ^ 2 + 1 y_12_ ^ 2 - 2 y_21_ * y_12_ + 1 y_21_ ^ 2 ] = 7461
c37: [ 1 x_15_ ^ 2 - 2 x_21_ * x_15_ + 1 x_21_ ^ 2 + 1 y_15_ ^ 2 - 2 y_21_ * y_15_ + 1 y_21_ ^ 2 ] = 40360
c38: [ 1 x_15_ ^ 2 - 2 x_22_ * x_15_ + 1 x_22_ ^ 2 + 1 y_15_ ^ 2 - 2 y_22_ * y_15_ + 1 y_22_ ^ 2 ] = 5800
c39: [ 1 x_7_ ^ 2 - 2 x_23_ * x_7_ + 1 x_23_ ^ 2 + 1 y_7_ ^ 2 - 2 y_23_ * y_7_ + 1 y_23_ ^ 2 ] = 6109
c40: [ 1 x_18_ ^ 2 - 2 x_23_ * x_18_ + 1 x_23_ ^ 2 + 1 y_18_ ^ 2 - 2 y_23_ * y_18_ + 1 y_23_ ^ 2 ] = 10728
c41: [ 1 x_22_ ^ 2 - 2 x_23_ * x_22_ + 1 x_23_ ^ 2 + 1 y_22_ ^ 2 - 2 y_23_ * y_22_ + 1 y_23_ ^ 2 ] = 20817
c42: [ 1 x_11_ ^ 2 - 2 x_24_ * x_11_ + 1 x_24_ ^ 2 + 1 y_11_ ^ 2 - 2 y_24_ * y_11_ + 1 y_24_ ^ 2 ] = 35762
c43: [ 1 x_21_ ^ 2 - 2 x_24_ * x_21_ + 1 x_24_ ^ 2 + 1 y_21_ ^ 2 - 2 y_24_ * y_21_ + 1 y_24_ ^ 2 ] = 31265
c44: [ 1 x_4_ ^ 2 - 2 x_25_ * x_4_ + 1 x_25_ ^ 2 + 1 y_4_ ^ 2 - 2 y_25_ * y_4_ + 1 y_25_ ^ 2 ] = 16164
c45: [ 1 x_8_ ^ 2 - 2 x_25_ * x_8_ + 1 x_25_ ^ 2 + 1 y_8_ ^ 2 - 2 y_25_ * y_8_ + 1 y_25_ ^ 2 ] = 9386
c46: [ 1 x_10_ ^ 2 - 2 x_25_ * x_10_ + 1 x_25_ ^ 2 + 1 y_10_ ^ 2 - 2 y_25_ * y_10_ + 1 y_25_ ^ 2 ] = 22050
c47: [ 1 x_8_ ^ 2 - 2 x_26_ * x_8_ + 1 x_26_ ^ 2 + 1 y_8_ ^ 2 - 2 y_26_ * y_8_ + 1 y_26_ ^ 2 ] = 13864
c48: [ 1 x_14_ ^ 2 - 2 x_26_ * x_14_ + 1 x_26_ ^ 2 + 1 y_14_ ^ 2 - 2 y_26_ * y_14_ + 1 y_26_ ^ 2 ] = 9089
c49: [ 1 x_15_ ^ 2 - 2 x_26_ * x_15_ + 1 x_26_ ^ 2 + 1 y_15_ ^ 2 - 2 y_26_ * y_15_ + 1 y_26_ ^ 2 ] = 14618
Bounds
-211 <= x_1_ <= 173
-150 <= x_2_ <= 112
-223 <= x_3_ <= 184
-244 <= x_4_ <= 205
-232 <= x_5_ <= 248
-163 <= x_6_ <= 125
-197 <= x_7_ <= 213
-86 <= x_8_ <= 48
-283 <= x_9_ <= 244
-75 <= x_10_ <= 91
-315 <= x_11_ <= 276
-132 <= x_12_ <= 194
-217 <= x_13_ <= 198
-64 <= x_14_ <= 126
-68 <= x_15_ <= 84
-98 <= x_16_ <= 114
-173 <= x_17_ <= 135
-239 <= x_18_ <= 255
x_19_ = -99
-276 <= x_20_ <= 238
-218 <= x_21_ <= 280
x_22_ = 8
-136 <= x_23_ <= 152
-395 <= x_24_ <= 457
-183 <= x_25_ <= 145
x_26_ = 31
-164 <= y_1_ <= 169
-155 <= y_2_ <= 108
-228 <= y_3_ <= 181
-249 <= y_4_ <= 202
-162 <= y_5_ <= 211
-210 <= y_6_ <= 121
-127 <= y_7_ <= 177
-190 <= y_8_ <= 44
-239 <= y_9_ <= 241
-5 <= y_10_ <= 54
-262 <= y_11_ <= 273
-236 <= y_12_ <= 90
-242 <= y_13_ <= 175
-168 <= y_14_ <= 22
2 <= y_15_ <= 47
-28 <= y_16_ <= 78
-277 <= y_17_ <= 131
-169 <= y_18_ <= 289
y_19_ = -81
-302 <= y_20_ <= 234
-199 <= y_21_ <= 176
y_22_ = 78
-66 <= y_23_ <= 222
-375 <= y_24_ <= 353
-153 <= y_25_ <= 141
y_26_ = -73
General
x_1_
x_2_
x_3_
x_4_
x_5_
x_6_
x_7_
x_8_
x_9_
x_10_
x_11_
x_12_
x_13_
x_14_
x_15_
x_16_
x_17_
x_18_
x_19_
x_20_
x_21_
x_22_
x_23_
x_24_
x_25_
x_26_
y_1_
y_2_
y_3_
y_4_
y_5_
y_6_
y_7_
y_8_
y_9_
y_10_
y_11_
y_12_
y_13_
y_14_
y_15_
y_16_
y_17_
y_18_
y_19_
y_20_
y_21_
y_22_
y_23_
y_24_
y_25_
y_26_
End
