minimize
obj: 
subject to
c1_4: -1 x_16_ + 1 y_16_ <= 0
c1_1: [ 1 x_1_ ^ 2 + 1 y_1_ ^ 2 ] <= 12163
c2_1: [ 1 x_2_ ^ 2 + 1 y_2_ ^ 2 ] <= 11287
c3_1: [ 1 x_4_ ^ 2 + 1 y_4_ ^ 2 ] <= 29822
c4_1: [ 1 x_5_ ^ 2 + 1 y_5_ ^ 2 ] <= 72111
c5_1: [ 1 x_6_ ^ 2 + 1 y_6_ ^ 2 ] <= 1060
c6_1: [ 1 x_7_ ^ 2 + 1 y_7_ ^ 2 ] <= 8402
c7_1: [ 1 x_8_ ^ 2 + 1 y_8_ ^ 2 ] <= 20402
c8_1: [ 1 x_9_ ^ 2 + 1 y_9_ ^ 2 ] <= 11114
c9_1: [ 1 x_10_ ^ 2 + 1 y_10_ ^ 2 ] <= 65233
c10_1: [ 1 x_11_ ^ 2 + 1 y_11_ ^ 2 ] <= 45691
c11_1: [ 1 x_12_ ^ 2 + 1 y_12_ ^ 2 ] <= 6705
c12_1: [ 1 x_13_ ^ 2 + 1 y_13_ ^ 2 ] <= 31693
c13_1: [ 1 x_14_ ^ 2 + 1 y_14_ ^ 2 ] <= 3604
c14_1: [ 1 x_15_ ^ 2 + 1 y_15_ ^ 2 ] <= 36973
c15_1: [ 1 x_16_ ^ 2 + 1 y_16_ ^ 2 ] <= 74510
c16_1: [ 1 x_17_ ^ 2 + 1 y_17_ ^ 2 ] <= 38411
c17_1: [ 1 x_18_ ^ 2 + 1 y_18_ ^ 2 ] <= 5617
c18_1: [ 1 x_19_ ^ 2 + 1 y_19_ ^ 2 ] <= 6658
c19_1: [ 1 x_20_ ^ 2 + 1 y_20_ ^ 2 ] <= 55593
c20_1: [ 1 x_21_ ^ 2 + 1 y_21_ ^ 2 ] <= 1556
c21_1: [ 1 x_22_ ^ 2 + 1 y_22_ ^ 2 ] <= 41626
c22_1: [ 1 x_23_ ^ 2 + 1 y_23_ ^ 2 ] <= 35656
c23_1: [ 1 x_24_ ^ 2 + 1 y_24_ ^ 2 ] <= 2009
c24_1: [ 1 x_25_ ^ 2 + 1 y_25_ ^ 2 ] <= 66119
c25_1: [ 1 x_26_ ^ 2 + 1 y_26_ ^ 2 ] <= 62212
c1_3: 1 x_16_ >= 0
c2_3: 1 y_16_ >= 0
c1_2: 1 x_3_ = 0
c2_2: 1 y_3_ = 0
c1: [ 1 x_2_ ^ 2 - 2 x_4_ * x_2_ + 1 x_4_ ^ 2 + 1 y_2_ ^ 2 - 2 y_4_ * y_2_ + 1 y_4_ ^ 2 ] = 11810
c2: [ 1 x_2_ ^ 2 - 2 x_5_ * x_2_ + 1 x_5_ ^ 2 + 1 y_2_ ^ 2 - 2 y_5_ * y_2_ + 1 y_5_ ^ 2 ] = 28714
c3: [ 1 x_2_ ^ 2 - 2 x_6_ * x_2_ + 1 x_6_ ^ 2 + 1 y_2_ ^ 2 - 2 y_6_ * y_2_ + 1 y_6_ ^ 2 ] = 5429
c4: [ 1 x_3_ ^ 2 - 2 x_6_ * x_3_ + 1 x_6_ ^ 2 + 1 y_3_ ^ 2 - 2 y_6_ * y_3_ + 1 y_6_ ^ 2 ] = 1060
c5: [ 1 x_4_ ^ 2 - 2 x_6_ * x_4_ + 1 x_6_ ^ 2 + 1 y_4_ ^ 2 - 2 y_6_ * y_4_ + 1 y_6_ ^ 2 ] = 19637
c6: [ 1 x_1_ ^ 2 - 2 x_7_ * x_1_ + 1 x_7_ ^ 2 + 1 y_1_ ^ 2 - 2 y_7_ * y_1_ + 1 y_7_ ^ 2 ] = 11828
c7: [ 1 x_3_ ^ 2 - 2 x_7_ * x_3_ + 1 x_7_ ^ 2 + 1 y_3_ ^ 2 - 2 y_7_ * y_3_ + 1 y_7_ ^ 2 ] = 8402
c8: [ 1 x_1_ ^ 2 - 2 x_8_ * x_1_ + 1 x_8_ ^ 2 + 1 y_1_ ^ 2 - 2 y_8_ * y_1_ + 1 y_8_ ^ 2 ] = 7400
c9: [ 1 x_3_ ^ 2 - 2 x_8_ * x_3_ + 1 x_8_ ^ 2 + 1 y_3_ ^ 2 - 2 y_8_ * y_3_ + 1 y_8_ ^ 2 ] = 20402
c10: [ 1 x_4_ ^ 2 - 2 x_9_ * x_4_ + 1 x_9_ ^ 2 + 1 y_4_ ^ 2 - 2 y_9_ * y_4_ + 1 y_9_ ^ 2 ] = 31760
c11: [ 1 x_1_ ^ 2 - 2 x_10_ * x_1_ + 1 x_10_ ^ 2 + 1 y_1_ ^ 2 - 2 y_10_ * y_1_ + 1 y_10_ ^ 2 ] = 21061
c12: [ 1 x_5_ ^ 2 - 2 x_10_ * x_5_ + 1 x_10_ ^ 2 + 1 y_5_ ^ 2 - 2 y_10_ * y_5_ + 1 y_10_ ^ 2 ] = 26564
c13: [ 1 x_1_ ^ 2 - 2 x_11_ * x_1_ + 1 x_11_ ^ 2 + 1 y_1_ ^ 2 - 2 y_11_ * y_1_ + 1 y_11_ ^ 2 ] = 10706
c14: [ 1 x_3_ ^ 2 - 2 x_12_ * x_3_ + 1 x_12_ ^ 2 + 1 y_3_ ^ 2 - 2 y_12_ * y_3_ + 1 y_12_ ^ 2 ] = 6705
c15: [ 1 x_9_ ^ 2 - 2 x_12_ * x_9_ + 1 x_12_ ^ 2 + 1 y_9_ ^ 2 - 2 y_12_ * y_9_ + 1 y_12_ ^ 2 ] = 554
c16: [ 1 x_1_ ^ 2 - 2 x_13_ * x_1_ + 1 x_13_ ^ 2 + 1 y_1_ ^ 2 - 2 y_13_ * y_1_ + 1 y_13_ ^ 2 ] = 4589
c17: [ 1 x_5_ ^ 2 - 2 x_13_ * x_5_ + 1 x_13_ ^ 2 + 1 y_5_ ^ 2 - 2 y_13_ * y_5_ + 1 y_13_ ^ 2 ] = 8192
c18: [ 1 x_1_ ^ 2 - 2 x_14_ * x_1_ + 1 x_14_ ^ 2 + 1 y_1_ ^ 2 - 2 y_14_ * y_1_ + 1 y_14_ ^ 2 ] = 21106
c19: [ 1 x_3_ ^ 2 - 2 x_14_ * x_3_ + 1 x_14_ ^ 2 + 1 y_3_ ^ 2 - 2 y_14_ * y_3_ + 1 y_14_ ^ 2 ] = 3604
c20: [ 1 x_4_ ^ 2 - 2 x_14_ * x_4_ + 1 x_14_ ^ 2 + 1 y_4_ ^ 2 - 2 y_14_ * y_4_ + 1 y_14_ ^ 2 ] = 23629
c21: [ 1 x_11_ ^ 2 - 2 x_15_ * x_11_ + 1 x_15_ ^ 2 + 1 y_11_ ^ 2 - 2 y_15_ * y_11_ + 1 y_15_ ^ 2 ] = 22601
c22: [ 1 x_10_ ^ 2 - 2 x_16_ * x_10_ + 1 x_16_ ^ 2 + 1 y_10_ ^ 2 - 2 y_16_ * y_10_ + 1 y_16_ ^ 2 ] = 17741
c23: [ 1 x_11_ ^ 2 - 2 x_16_ * x_11_ + 1 x_16_ ^ 2 + 1 y_11_ ^ 2 - 2 y_16_ * y_11_ + 1 y_16_ ^ 2 ] = 12176
c24: [ 1 x_1_ ^ 2 - 2 x_17_ * x_1_ + 1 x_17_ ^ 2 + 1 y_1_ ^ 2 - 2 y_17_ * y_1_ + 1 y_17_ ^ 2 ] = 7345
c25: [ 1 x_9_ ^ 2 - 2 x_17_ * x_9_ + 1 x_17_ ^ 2 + 1 y_9_ ^ 2 - 2 y_17_ * y_9_ + 1 y_17_ ^ 2 ] = 17680
c26: [ 1 x_3_ ^ 2 - 2 x_18_ * x_3_ + 1 x_18_ ^ 2 + 1 y_3_ ^ 2 - 2 y_18_ * y_3_ + 1 y_18_ ^ 2 ] = 5617
c27: [ 1 x_7_ ^ 2 - 2 x_18_ * x_7_ + 1 x_18_ ^ 2 + 1 y_7_ ^ 2 - 2 y_18_ * y_7_ + 1 y_18_ ^ 2 ] = 8329
c28: [ 1 x_15_ ^ 2 - 2 x_18_ * x_15_ + 1 x_18_ ^ 2 + 1 y_15_ ^ 2 - 2 y_18_ * y_15_ + 1 y_18_ ^ 2 ] = 13768
c29: [ 1 x_2_ ^ 2 - 2 x_19_ * x_2_ + 1 x_19_ ^ 2 + 1 y_2_ ^ 2 - 2 y_19_ * y_2_ + 1 y_19_ ^ 2 ] = 882
c30: [ 1 x_6_ ^ 2 - 2 x_19_ * x_6_ + 1 x_19_ ^ 2 + 1 y_6_ ^ 2 - 2 y_19_ * y_6_ + 1 y_19_ ^ 2 ] = 2405
c31: [ 1 x_7_ ^ 2 - 2 x_19_ * x_7_ + 1 x_19_ ^ 2 + 1 y_7_ ^ 2 - 2 y_19_ * y_7_ + 1 y_19_ ^ 2 ] = 2833
c32: [ 1 x_2_ ^ 2 - 2 x_20_ * x_2_ + 1 x_20_ ^ 2 + 1 y_2_ ^ 2 - 2 y_20_ * y_2_ + 1 y_20_ ^ 2 ] = 16781
c33: [ 1 x_8_ ^ 2 - 2 x_20_ * x_8_ + 1 x_20_ ^ 2 + 1 y_8_ ^ 2 - 2 y_20_ * y_8_ + 1 y_20_ ^ 2 ] = 16250
c34: [ 1 x_1_ ^ 2 - 2 x_21_ * x_1_ + 1 x_21_ ^ 2 + 1 y_1_ ^ 2 - 2 y_21_ * y_1_ + 1 y_21_ ^ 2 ] = 5018
c35: [ 1 x_3_ ^ 2 - 2 x_21_ * x_3_ + 1 x_21_ ^ 2 + 1 y_3_ ^ 2 - 2 y_21_ * y_3_ + 1 y_21_ ^ 2 ] = 1556
c36: [ 1 x_12_ ^ 2 - 2 x_21_ * x_12_ + 1 x_21_ ^ 2 + 1 y_12_ ^ 2 - 2 y_21_ * y_12_ + 1 y_21_ ^ 2 ] = 14249
c37: [ 1 x_7_ ^ 2 - 2 x_22_ * x_7_ + 1 x_22_ ^ 2 + 1 y_7_ ^ 2 - 2 y_22_ * y_7_ + 1 y_22_ ^ 2 ] = 12625
c38: [ 1 x_10_ ^ 2 - 2 x_22_ * x_10_ + 1 x_22_ ^ 2 + 1 y_10_ ^ 2 - 2 y_22_ * y_10_ + 1 y_22_ ^ 2 ] = 33428
c39: [ 1 x_16_ ^ 2 - 2 x_22_ * x_16_ + 1 x_22_ ^ 2 + 1 y_16_ ^ 2 - 2 y_22_ * y_16_ + 1 y_22_ ^ 2 ] = 4753
c40: [ 1 x_12_ ^ 2 - 2 x_23_ * x_12_ + 1 x_23_ ^ 2 + 1 y_12_ ^ 2 - 2 y_23_ * y_12_ + 1 y_23_ ^ 2 ] = 11437
c41: [ 1 x_1_ ^ 2 - 2 x_24_ * x_1_ + 1 x_24_ ^ 2 + 1 y_1_ ^ 2 - 2 y_24_ * y_1_ + 1 y_24_ ^ 2 ] = 17177
c42: [ 1 x_3_ ^ 2 - 2 x_24_ * x_3_ + 1 x_24_ ^ 2 + 1 y_3_ ^ 2 - 2 y_24_ * y_3_ + 1 y_24_ ^ 2 ] = 2009
c43: [ 1 x_15_ ^ 2 - 2 x_24_ * x_15_ + 1 x_24_ ^ 2 + 1 y_15_ ^ 2 - 2 y_24_ * y_15_ + 1 y_24_ ^ 2 ] = 30242
c44: [ 1 x_11_ ^ 2 - 2 x_25_ * x_11_ + 1 x_25_ ^ 2 + 1 y_11_ ^ 2 - 2 y_25_ * y_11_ + 1 y_25_ ^ 2 ] = 24786
c45: [ 1 x_20_ ^ 2 - 2 x_25_ * x_20_ + 1 x_25_ ^ 2 + 1 y_20_ ^ 2 - 2 y_25_ * y_20_ + 1 y_25_ ^ 2 ] = 39890
c46: [ 1 x_23_ ^ 2 - 2 x_25_ * x_23_ + 1 x_25_ ^ 2 + 1 y_23_ ^ 2 - 2 y_25_ * y_23_ + 1 y_25_ ^ 2 ] = 4666
c47: [ 1 x_1_ ^ 2 - 2 x_26_ * x_1_ + 1 x_26_ ^ 2 + 1 y_1_ ^ 2 - 2 y_26_ * y_1_ + 1 y_26_ ^ 2 ] = 19360
c48: [ 1 x_5_ ^ 2 - 2 x_26_ * x_5_ + 1 x_26_ ^ 2 + 1 y_5_ ^ 2 - 2 y_26_ * y_5_ + 1 y_26_ ^ 2 ] = 17541
c49: [ 1 x_10_ ^ 2 - 2 x_26_ * x_10_ + 1 x_26_ ^ 2 + 1 y_10_ ^ 2 - 2 y_26_ * y_10_ + 1 y_26_ ^ 2 ] = 2669
Bounds
-110 <= x_1_ <= 110
-106 <= x_2_ <= 106
x_3_ = 0
-172 <= x_4_ <= 172
-268 <= x_5_ <= 268
-32 <= x_6_ <= 32
-91 <= x_7_ <= 91
-142 <= x_8_ <= 142
-105 <= x_9_ <= 105
-255 <= x_10_ <= 255
-213 <= x_11_ <= 213
-81 <= x_12_ <= 81
-178 <= x_13_ <= 178
-60 <= x_14_ <= 60
-192 <= x_15_ <= 192
-272 <= x_16_ <= 272
-195 <= x_17_ <= 195
-74 <= x_18_ <= 74
-81 <= x_19_ <= 81
-235 <= x_20_ <= 235
-39 <= x_21_ <= 39
-204 <= x_22_ <= 204
-188 <= x_23_ <= 188
-44 <= x_24_ <= 44
-257 <= x_25_ <= 257
-249 <= x_26_ <= 249
-110 <= y_1_ <= 110
-106 <= y_2_ <= 106
y_3_ = 0
-172 <= y_4_ <= 172
-268 <= y_5_ <= 268
-32 <= y_6_ <= 32
-91 <= y_7_ <= 91
-142 <= y_8_ <= 142
-105 <= y_9_ <= 105
-255 <= y_10_ <= 255
-213 <= y_11_ <= 213
-81 <= y_12_ <= 81
-178 <= y_13_ <= 178
-60 <= y_14_ <= 60
-192 <= y_15_ <= 192
-272 <= y_16_ <= 272
-195 <= y_17_ <= 195
-74 <= y_18_ <= 74
-81 <= y_19_ <= 81
-235 <= y_20_ <= 235
-39 <= y_21_ <= 39
-204 <= y_22_ <= 204
-188 <= y_23_ <= 188
-44 <= y_24_ <= 44
-257 <= y_25_ <= 257
-249 <= y_26_ <= 249
General
x_1_
x_2_
x_3_
x_4_
x_5_
x_6_
x_7_
x_8_
x_9_
x_10_
x_11_
x_12_
x_13_
x_14_
x_15_
x_16_
x_17_
x_18_
x_19_
x_20_
x_21_
x_22_
x_23_
x_24_
x_25_
x_26_
y_1_
y_2_
y_3_
y_4_
y_5_
y_6_
y_7_
y_8_
y_9_
y_10_
y_11_
y_12_
y_13_
y_14_
y_15_
y_16_
y_17_
y_18_
y_19_
y_20_
y_21_
y_22_
y_23_
y_24_
y_25_
y_26_
End
