minimize
obj: 
subject to
c1_3: -1 x_26_ + 1 y_26_ <= 0
c1: [ 1 x_1_ ^ 2 + 1 y_1_ ^ 2 ] <= 28217.85496834975
c2: [ 1 x_2_ ^ 2 + 1 y_2_ ^ 2 ] <= 4130.899999999998
c3: [ 1 x_4_ ^ 2 + 1 y_4_ ^ 2 ] <= 2747.2000000000003
c4: [ 1 x_5_ ^ 2 + 1 y_5_ ^ 2 ] <= 2029.0899999999995
c5: [ 1 x_6_ ^ 2 + 1 y_6_ ^ 2 ] <= 22895.42906357583
c6: [ 1 x_7_ ^ 2 + 1 y_7_ ^ 2 ] <= 23574.028260764684
c7: [ 1 x_8_ ^ 2 + 1 y_8_ ^ 2 ] <= 13842.049999999996
c8: [ 1 x_9_ ^ 2 + 1 y_9_ ^ 2 ] <= 12933.049999999997
c9: [ 1 x_10_ ^ 2 + 1 y_10_ ^ 2 ] <= 26973.830226818933
c10: [ 1 x_11_ ^ 2 + 1 y_11_ ^ 2 ] <= 50042.541873662725
c11: [ 1 x_12_ ^ 2 + 1 y_12_ ^ 2 ] <= 17702.117206174877
c12: [ 1 x_13_ ^ 2 + 1 y_13_ ^ 2 ] <= 24454.259624183243
c13: [ 1 x_14_ ^ 2 + 1 y_14_ ^ 2 ] <= 39129.93000693039
c14: [ 1 x_15_ ^ 2 + 1 y_15_ ^ 2 ] <= 10429.840751921676
c15: [ 1 x_16_ ^ 2 + 1 y_16_ ^ 2 ] <= 5272.755041741142
c16: [ 1 x_17_ ^ 2 + 1 y_17_ ^ 2 ] <= 8657.082157541468
c17: [ 1 x_18_ ^ 2 + 1 y_18_ ^ 2 ] <= 62958.87963153414
c18: [ 1 x_19_ ^ 2 + 1 y_19_ ^ 2 ] <= 44669.06976081801
c19: [ 1 x_20_ ^ 2 + 1 y_20_ ^ 2 ] <= 38041.81611218676
c20: [ 1 x_21_ ^ 2 + 1 y_21_ ^ 2 ] <= 4753.0599999999995
c21: [ 1 x_22_ ^ 2 + 1 y_22_ ^ 2 ] <= 21591.78883430095
c22: [ 1 x_23_ ^ 2 + 1 y_23_ ^ 2 ] <= 58807.81420146254
c23: [ 1 x_24_ ^ 2 + 1 y_24_ ^ 2 ] <= 12405.063860810733
c24: [ 1 x_25_ ^ 2 + 1 y_25_ ^ 2 ] <= 29994.756638306204
c25: [ 1 x_26_ ^ 2 + 1 y_26_ ^ 2 ] <= 64011.297963119665
c26: [ 1 x_27_ ^ 2 + 1 y_27_ ^ 2 ] <= 22656.978433056287
c27: [ 1 x_28_ ^ 2 + 1 y_28_ ^ 2 ] <= 57384.89301812654
quadratic_ranged_1_ub: [ 1 x_2_ ^ 2 - 2 x_3_ * x_2_ + 1 x_3_ ^ 2 + 1 y_2_ ^ 2 - 2 y_3_ * y_2_ + 1 y_3_ ^ 2 ] <= 4130.9
quadratic_ranged_2_ub: [ 1 x_3_ ^ 2 - 2 x_4_ * x_3_ + 1 x_4_ ^ 2 + 1 y_3_ ^ 2 - 2 y_4_ * y_3_ + 1 y_4_ ^ 2 ] <= 2747.2
quadratic_ranged_3_ub: [ 1 x_3_ ^ 2 - 2 x_5_ * x_3_ + 1 x_5_ ^ 2 + 1 y_3_ ^ 2 - 2 y_5_ * y_3_ + 1 y_5_ ^ 2 ] <= 2029.09
quadratic_ranged_4_ub: [ 1 x_2_ ^ 2 - 2 x_6_ * x_2_ + 1 x_6_ ^ 2 + 1 y_2_ ^ 2 - 2 y_6_ * y_2_ + 1 y_6_ ^ 2 ] <= 7576.01
quadratic_ranged_5_ub: [ 1 x_6_ ^ 2 - 2 x_7_ * x_6_ + 1 x_7_ ^ 2 + 1 y_6_ ^ 2 - 2 y_7_ * y_6_ + 1 y_7_ ^ 2 ] <= 231.29
quadratic_ranged_6_ub: [ 1 x_1_ ^ 2 - 2 x_8_ * x_1_ + 1 x_8_ ^ 2 + 1 y_1_ ^ 2 - 2 y_8_ * y_1_ + 1 y_8_ ^ 2 ] <= 25940.84
quadratic_ranged_7_ub: [ 1 x_3_ ^ 2 - 2 x_8_ * x_3_ + 1 x_8_ ^ 2 + 1 y_3_ ^ 2 - 2 y_8_ * y_3_ + 1 y_8_ ^ 2 ] <= 13842.05
quadratic_ranged_8_ub: [ 1 x_3_ ^ 2 - 2 x_9_ * x_3_ + 1 x_9_ ^ 2 + 1 y_3_ ^ 2 - 2 y_9_ * y_3_ + 1 y_9_ ^ 2 ] <= 12933.05
quadratic_ranged_9_ub: [ 1 x_2_ ^ 2 - 2 x_10_ * x_2_ + 1 x_10_ ^ 2 + 1 y_2_ ^ 2 - 2 y_10_ * y_2_ + 1 y_10_ ^ 2 ] <= 12981.53
quadratic_ranged_10_ub: [ 1 x_5_ ^ 2 - 2 x_10_ * x_5_ + 1 x_10_ ^ 2 + 1 y_5_ ^ 2 - 2 y_10_ * y_5_ + 1 y_10_ ^ 2 ] <= 14206.66
quadratic_ranged_11_ub: [ 1 x_8_ ^ 2 - 2 x_10_ * x_8_ + 1 x_10_ ^ 2 + 1 y_8_ ^ 2 - 2 y_10_ * y_8_ + 1 y_10_ ^ 2 ] <= 8585
quadratic_ranged_12_ub: [ 1 x_1_ ^ 2 - 2 x_11_ * x_1_ + 1 x_11_ ^ 2 + 1 y_1_ ^ 2 - 2 y_11_ * y_1_ + 1 y_11_ ^ 2 ] <= 3104.7400000000002
quadratic_ranged_13_ub: [ 1 x_7_ ^ 2 - 2 x_11_ * x_7_ + 1 x_11_ ^ 2 + 1 y_7_ ^ 2 - 2 y_11_ * y_7_ + 1 y_11_ ^ 2 ] <= 6153.93
quadratic_ranged_14_ub: [ 1 x_5_ ^ 2 - 2 x_12_ * x_5_ + 1 x_12_ ^ 2 + 1 y_5_ ^ 2 - 2 y_12_ * y_5_ + 1 y_12_ ^ 2 ] <= 9340.48
quadratic_ranged_15_ub: [ 1 x_8_ ^ 2 - 2 x_12_ * x_8_ + 1 x_12_ ^ 2 + 1 y_8_ ^ 2 - 2 y_12_ * y_8_ + 1 y_12_ ^ 2 ] <= 785.78
quadratic_ranged_16_ub: [ 1 x_9_ ^ 2 - 2 x_12_ * x_9_ + 1 x_12_ ^ 2 + 1 y_9_ ^ 2 - 2 y_12_ * y_9_ + 1 y_12_ ^ 2 ] <= 3947.08
quadratic_ranged_17_ub: [ 1 x_7_ ^ 2 - 2 x_13_ * x_7_ + 1 x_13_ ^ 2 + 1 y_7_ ^ 2 - 2 y_13_ * y_7_ + 1 y_13_ ^ 2 ] <= 24502.6
quadratic_ranged_18_ub: [ 1 x_11_ ^ 2 - 2 x_13_ * x_11_ + 1 x_13_ ^ 2 + 1 y_11_ ^ 2 - 2 y_13_ * y_11_ + 1 y_13_ ^ 2 ] <= 8670.85
quadratic_ranged_19_ub: [ 1 x_9_ ^ 2 - 2 x_14_ * x_9_ + 1 x_14_ ^ 2 + 1 y_9_ ^ 2 - 2 y_14_ * y_9_ + 1 y_14_ ^ 2 ] <= 7071.01
quadratic_ranged_20_ub: [ 1 x_12_ ^ 2 - 2 x_14_ * x_12_ + 1 x_14_ ^ 2 + 1 y_12_ ^ 2 - 2 y_14_ * y_12_ + 1 y_14_ ^ 2 ] <= 14173.33
quadratic_ranged_21_ub: [ 1 x_5_ ^ 2 - 2 x_15_ * x_5_ + 1 x_15_ ^ 2 + 1 y_5_ ^ 2 - 2 y_15_ * y_5_ + 1 y_15_ ^ 2 ] <= 3258.26
quadratic_ranged_22_ub: [ 1 x_7_ ^ 2 - 2 x_15_ * x_7_ + 1 x_15_ ^ 2 + 1 y_7_ ^ 2 - 2 y_15_ * y_7_ + 1 y_15_ ^ 2 ] <= 2643.17
quadratic_ranged_23_ub: [ 1 x_1_ ^ 2 - 2 x_16_ * x_1_ + 1 x_16_ ^ 2 + 1 y_1_ ^ 2 - 2 y_16_ * y_1_ + 1 y_16_ ^ 2 ] <= 9095.05
quadratic_ranged_24_ub: [ 1 x_2_ ^ 2 - 2 x_16_ * x_2_ + 1 x_16_ ^ 2 + 1 y_2_ ^ 2 - 2 y_16_ * y_2_ + 1 y_16_ ^ 2 ] <= 341.38
quadratic_ranged_25_ub: [ 1 x_4_ ^ 2 - 2 x_16_ * x_4_ + 1 x_16_ ^ 2 + 1 y_4_ ^ 2 - 2 y_16_ * y_4_ + 1 y_16_ ^ 2 ] <= 408.04
quadratic_ranged_26_ub: [ 1 x_5_ ^ 2 - 2 x_17_ * x_5_ + 1 x_17_ ^ 2 + 1 y_5_ ^ 2 - 2 y_17_ * y_5_ + 1 y_17_ ^ 2 ] <= 2303.81
quadratic_ranged_27_ub: [ 1 x_6_ ^ 2 - 2 x_17_ * x_6_ + 1 x_17_ ^ 2 + 1 y_6_ ^ 2 - 2 y_17_ * y_6_ + 1 y_17_ ^ 2 ] <= 15385.33
quadratic_ranged_28_ub: [ 1 x_17_ ^ 2 - 2 x_18_ * x_17_ + 1 x_18_ ^ 2 + 1 y_17_ ^ 2 - 2 y_18_ * y_17_ + 1 y_18_ ^ 2 ] <= 24923.77
quadratic_ranged_29_ub: [ 1 x_12_ ^ 2 - 2 x_19_ * x_12_ + 1 x_19_ ^ 2 + 1 y_12_ ^ 2 - 2 y_19_ * y_12_ + 1 y_19_ ^ 2 ] <= 21307.97
quadratic_ranged_30_ub: [ 1 x_17_ ^ 2 - 2 x_19_ * x_17_ + 1 x_19_ ^ 2 + 1 y_17_ ^ 2 - 2 y_19_ * y_17_ + 1 y_19_ ^ 2 ] <= 13996.58
quadratic_ranged_31_ub: [ 1 x_11_ ^ 2 - 2 x_20_ * x_11_ + 1 x_20_ ^ 2 + 1 y_11_ ^ 2 - 2 y_20_ * y_11_ + 1 y_20_ ^ 2 ] <= 13414.82
quadratic_ranged_32_ub: [ 1 x_13_ ^ 2 - 2 x_20_ * x_13_ + 1 x_20_ ^ 2 + 1 y_13_ ^ 2 - 2 y_20_ * y_13_ + 1 y_20_ ^ 2 ] <= 42869.45
quadratic_ranged_33_ub: [ 1 x_15_ ^ 2 - 2 x_20_ * x_15_ + 1 x_20_ ^ 2 + 1 y_15_ ^ 2 - 2 y_20_ * y_15_ + 1 y_20_ ^ 2 ] <= 8633.48
quadratic_ranged_34_ub: [ 1 x_3_ ^ 2 - 2 x_21_ * x_3_ + 1 x_21_ ^ 2 + 1 y_3_ ^ 2 - 2 y_21_ * y_3_ + 1 y_21_ ^ 2 ] <= 4753.06
quadratic_ranged_35_ub: [ 1 x_12_ ^ 2 - 2 x_21_ * x_12_ + 1 x_21_ ^ 2 + 1 y_12_ ^ 2 - 2 y_21_ * y_12_ + 1 y_21_ ^ 2 ] <= 4109.69
quadratic_ranged_36_ub: [ 1 x_17_ ^ 2 - 2 x_21_ * x_17_ + 1 x_21_ ^ 2 + 1 y_17_ ^ 2 - 2 y_21_ * y_17_ + 1 y_21_ ^ 2 ] <= 11435.22
quadratic_ranged_37_ub: [ 1 x_4_ ^ 2 - 2 x_22_ * x_4_ + 1 x_22_ ^ 2 + 1 y_4_ ^ 2 - 2 y_22_ * y_4_ + 1 y_22_ ^ 2 ] <= 15882.25
quadratic_ranged_38_ub: [ 1 x_5_ ^ 2 - 2 x_22_ * x_5_ + 1 x_22_ ^ 2 + 1 y_5_ ^ 2 - 2 y_22_ * y_5_ + 1 y_22_ ^ 2 ] <= 10382.8
quadratic_ranged_39_ub: [ 1 x_11_ ^ 2 - 2 x_22_ * x_11_ + 1 x_22_ ^ 2 + 1 y_11_ ^ 2 - 2 y_22_ * y_11_ + 1 y_22_ ^ 2 ] <= 8055.76
quadratic_ranged_40_ub: [ 1 x_9_ ^ 2 - 2 x_23_ * x_9_ + 1 x_23_ ^ 2 + 1 y_9_ ^ 2 - 2 y_23_ * y_9_ + 1 y_23_ ^ 2 ] <= 16584.2
quadratic_ranged_41_ub: [ 1 x_20_ ^ 2 - 2 x_23_ * x_20_ + 1 x_23_ ^ 2 + 1 y_20_ ^ 2 - 2 y_23_ * y_20_ + 1 y_23_ ^ 2 ] <= 13414.82
quadratic_ranged_42_ub: [ 1 x_2_ ^ 2 - 2 x_24_ * x_2_ + 1 x_24_ ^ 2 + 1 y_2_ ^ 2 - 2 y_24_ * y_2_ + 1 y_24_ ^ 2 ] <= 2218.97
quadratic_ranged_43_ub: [ 1 x_13_ ^ 2 - 2 x_24_ * x_13_ + 1 x_24_ ^ 2 + 1 y_13_ ^ 2 - 2 y_24_ * y_13_ + 1 y_24_ ^ 2 ] <= 2025.05
quadratic_ranged_44_ub: [ 1 x_18_ ^ 2 - 2 x_24_ * x_18_ + 1 x_24_ ^ 2 + 1 y_18_ ^ 2 - 2 y_24_ * y_18_ + 1 y_24_ ^ 2 ] <= 31386.760000000002
quadratic_ranged_45_ub: [ 1 x_6_ ^ 2 - 2 x_25_ * x_6_ + 1 x_25_ ^ 2 + 1 y_6_ ^ 2 - 2 y_25_ * y_6_ + 1 y_25_ ^ 2 ] <= 1313
quadratic_ranged_46_ub: [ 1 x_15_ ^ 2 - 2 x_25_ * x_15_ + 1 x_25_ ^ 2 + 1 y_15_ ^ 2 - 2 y_25_ * y_15_ + 1 y_25_ ^ 2 ] <= 5050
quadratic_ranged_47_ub: [ 1 x_22_ ^ 2 - 2 x_26_ * x_22_ + 1 x_26_ ^ 2 + 1 y_22_ ^ 2 - 2 y_26_ * y_22_ + 1 y_26_ ^ 2 ] <= 11249.38
quadratic_ranged_48_ub: [ 1 x_23_ ^ 2 - 2 x_26_ * x_23_ + 1 x_26_ ^ 2 + 1 y_23_ ^ 2 - 2 y_26_ * y_23_ + 1 y_26_ ^ 2 ] <= 7039.7
quadratic_ranged_49_ub: [ 1 x_4_ ^ 2 - 2 x_27_ * x_4_ + 1 x_27_ ^ 2 + 1 y_4_ ^ 2 - 2 y_27_ * y_4_ + 1 y_27_ ^ 2 ] <= 9625.3
quadratic_ranged_50_ub: [ 1 x_5_ ^ 2 - 2 x_27_ * x_5_ + 1 x_27_ ^ 2 + 1 y_5_ ^ 2 - 2 y_27_ * y_5_ + 1 y_27_ ^ 2 ] <= 11308.97
quadratic_ranged_51_ub: [ 1 x_19_ ^ 2 - 2 x_27_ * x_19_ + 1 x_27_ ^ 2 + 1 y_19_ ^ 2 - 2 y_27_ * y_19_ + 1 y_27_ ^ 2 ] <= 5728.72
quadratic_ranged_52_ub: [ 1 x_7_ ^ 2 - 2 x_28_ * x_7_ + 1 x_28_ ^ 2 + 1 y_7_ ^ 2 - 2 y_28_ * y_7_ + 1 y_28_ ^ 2 ] <= 7398.25
quadratic_ranged_53_ub: [ 1 x_26_ ^ 2 - 2 x_28_ * x_26_ + 1 x_28_ ^ 2 + 1 y_26_ ^ 2 - 2 y_28_ * y_26_ + 1 y_28_ ^ 2 ] <= 5708.52
c1_2: 1 x_26_ >= 0
c2_2: 1 y_26_ >= 0
quadratic_ranged_1_lb: [ 1 x_2_ ^ 2 - 2 x_3_ * x_2_ + 1 x_3_ ^ 2 + 1 y_2_ ^ 2 - 2 y_3_ * y_2_ + 1 y_3_ ^ 2 ] >= 4049.1
quadratic_ranged_2_lb: [ 1 x_3_ ^ 2 - 2 x_4_ * x_3_ + 1 x_4_ ^ 2 + 1 y_3_ ^ 2 - 2 y_4_ * y_3_ + 1 y_4_ ^ 2 ] >= 2692.8
quadratic_ranged_3_lb: [ 1 x_3_ ^ 2 - 2 x_5_ * x_3_ + 1 x_5_ ^ 2 + 1 y_3_ ^ 2 - 2 y_5_ * y_3_ + 1 y_5_ ^ 2 ] >= 1988.91
quadratic_ranged_4_lb: [ 1 x_2_ ^ 2 - 2 x_6_ * x_2_ + 1 x_6_ ^ 2 + 1 y_2_ ^ 2 - 2 y_6_ * y_2_ + 1 y_6_ ^ 2 ] >= 7425.99
quadratic_ranged_5_lb: [ 1 x_6_ ^ 2 - 2 x_7_ * x_6_ + 1 x_7_ ^ 2 + 1 y_6_ ^ 2 - 2 y_7_ * y_6_ + 1 y_7_ ^ 2 ] >= 226.71
quadratic_ranged_6_lb: [ 1 x_1_ ^ 2 - 2 x_8_ * x_1_ + 1 x_8_ ^ 2 + 1 y_1_ ^ 2 - 2 y_8_ * y_1_ + 1 y_8_ ^ 2 ] >= 25427.16
quadratic_ranged_7_lb: [ 1 x_3_ ^ 2 - 2 x_8_ * x_3_ + 1 x_8_ ^ 2 + 1 y_3_ ^ 2 - 2 y_8_ * y_3_ + 1 y_8_ ^ 2 ] >= 13567.95
quadratic_ranged_8_lb: [ 1 x_3_ ^ 2 - 2 x_9_ * x_3_ + 1 x_9_ ^ 2 + 1 y_3_ ^ 2 - 2 y_9_ * y_3_ + 1 y_9_ ^ 2 ] >= 12676.95
quadratic_ranged_9_lb: [ 1 x_2_ ^ 2 - 2 x_10_ * x_2_ + 1 x_10_ ^ 2 + 1 y_2_ ^ 2 - 2 y_10_ * y_2_ + 1 y_10_ ^ 2 ] >= 12724.47
quadratic_ranged_10_lb: [ 1 x_5_ ^ 2 - 2 x_10_ * x_5_ + 1 x_10_ ^ 2 + 1 y_5_ ^ 2 - 2 y_10_ * y_5_ + 1 y_10_ ^ 2 ] >= 13925.34
quadratic_ranged_11_lb: [ 1 x_8_ ^ 2 - 2 x_10_ * x_8_ + 1 x_10_ ^ 2 + 1 y_8_ ^ 2 - 2 y_10_ * y_8_ + 1 y_10_ ^ 2 ] >= 8415
quadratic_ranged_12_lb: [ 1 x_1_ ^ 2 - 2 x_11_ * x_1_ + 1 x_11_ ^ 2 + 1 y_1_ ^ 2 - 2 y_11_ * y_1_ + 1 y_11_ ^ 2 ] >= 3043.2599999999998
quadratic_ranged_13_lb: [ 1 x_7_ ^ 2 - 2 x_11_ * x_7_ + 1 x_11_ ^ 2 + 1 y_7_ ^ 2 - 2 y_11_ * y_7_ + 1 y_11_ ^ 2 ] >= 6032.07
quadratic_ranged_14_lb: [ 1 x_5_ ^ 2 - 2 x_12_ * x_5_ + 1 x_12_ ^ 2 + 1 y_5_ ^ 2 - 2 y_12_ * y_5_ + 1 y_12_ ^ 2 ] >= 9155.52
quadratic_ranged_15_lb: [ 1 x_8_ ^ 2 - 2 x_12_ * x_8_ + 1 x_12_ ^ 2 + 1 y_8_ ^ 2 - 2 y_12_ * y_8_ + 1 y_12_ ^ 2 ] >= 770.22
quadratic_ranged_16_lb: [ 1 x_9_ ^ 2 - 2 x_12_ * x_9_ + 1 x_12_ ^ 2 + 1 y_9_ ^ 2 - 2 y_12_ * y_9_ + 1 y_12_ ^ 2 ] >= 3868.92
quadratic_ranged_17_lb: [ 1 x_7_ ^ 2 - 2 x_13_ * x_7_ + 1 x_13_ ^ 2 + 1 y_7_ ^ 2 - 2 y_13_ * y_7_ + 1 y_13_ ^ 2 ] >= 24017.4
quadratic_ranged_18_lb: [ 1 x_11_ ^ 2 - 2 x_13_ * x_11_ + 1 x_13_ ^ 2 + 1 y_11_ ^ 2 - 2 y_13_ * y_11_ + 1 y_13_ ^ 2 ] >= 8499.15
quadratic_ranged_19_lb: [ 1 x_9_ ^ 2 - 2 x_14_ * x_9_ + 1 x_14_ ^ 2 + 1 y_9_ ^ 2 - 2 y_14_ * y_9_ + 1 y_14_ ^ 2 ] >= 6930.99
quadratic_ranged_20_lb: [ 1 x_12_ ^ 2 - 2 x_14_ * x_12_ + 1 x_14_ ^ 2 + 1 y_12_ ^ 2 - 2 y_14_ * y_12_ + 1 y_14_ ^ 2 ] >= 13892.67
quadratic_ranged_21_lb: [ 1 x_5_ ^ 2 - 2 x_15_ * x_5_ + 1 x_15_ ^ 2 + 1 y_5_ ^ 2 - 2 y_15_ * y_5_ + 1 y_15_ ^ 2 ] >= 3193.74
quadratic_ranged_22_lb: [ 1 x_7_ ^ 2 - 2 x_15_ * x_7_ + 1 x_15_ ^ 2 + 1 y_7_ ^ 2 - 2 y_15_ * y_7_ + 1 y_15_ ^ 2 ] >= 2590.83
quadratic_ranged_23_lb: [ 1 x_1_ ^ 2 - 2 x_16_ * x_1_ + 1 x_16_ ^ 2 + 1 y_1_ ^ 2 - 2 y_16_ * y_1_ + 1 y_16_ ^ 2 ] >= 8914.95
quadratic_ranged_24_lb: [ 1 x_2_ ^ 2 - 2 x_16_ * x_2_ + 1 x_16_ ^ 2 + 1 y_2_ ^ 2 - 2 y_16_ * y_2_ + 1 y_16_ ^ 2 ] >= 334.62
quadratic_ranged_25_lb: [ 1 x_4_ ^ 2 - 2 x_16_ * x_4_ + 1 x_16_ ^ 2 + 1 y_4_ ^ 2 - 2 y_16_ * y_4_ + 1 y_16_ ^ 2 ] >= 399.96
quadratic_ranged_26_lb: [ 1 x_5_ ^ 2 - 2 x_17_ * x_5_ + 1 x_17_ ^ 2 + 1 y_5_ ^ 2 - 2 y_17_ * y_5_ + 1 y_17_ ^ 2 ] >= 2258.19
quadratic_ranged_27_lb: [ 1 x_6_ ^ 2 - 2 x_17_ * x_6_ + 1 x_17_ ^ 2 + 1 y_6_ ^ 2 - 2 y_17_ * y_6_ + 1 y_17_ ^ 2 ] >= 15080.67
quadratic_ranged_28_lb: [ 1 x_17_ ^ 2 - 2 x_18_ * x_17_ + 1 x_18_ ^ 2 + 1 y_17_ ^ 2 - 2 y_18_ * y_17_ + 1 y_18_ ^ 2 ] >= 24430.23
quadratic_ranged_29_lb: [ 1 x_12_ ^ 2 - 2 x_19_ * x_12_ + 1 x_19_ ^ 2 + 1 y_12_ ^ 2 - 2 y_19_ * y_12_ + 1 y_19_ ^ 2 ] >= 20886.03
quadratic_ranged_30_lb: [ 1 x_17_ ^ 2 - 2 x_19_ * x_17_ + 1 x_19_ ^ 2 + 1 y_17_ ^ 2 - 2 y_19_ * y_17_ + 1 y_19_ ^ 2 ] >= 13719.42
quadratic_ranged_31_lb: [ 1 x_11_ ^ 2 - 2 x_20_ * x_11_ + 1 x_20_ ^ 2 + 1 y_11_ ^ 2 - 2 y_20_ * y_11_ + 1 y_20_ ^ 2 ] >= 13149.18
quadratic_ranged_32_lb: [ 1 x_13_ ^ 2 - 2 x_20_ * x_13_ + 1 x_20_ ^ 2 + 1 y_13_ ^ 2 - 2 y_20_ * y_13_ + 1 y_20_ ^ 2 ] >= 42020.55
quadratic_ranged_33_lb: [ 1 x_15_ ^ 2 - 2 x_20_ * x_15_ + 1 x_20_ ^ 2 + 1 y_15_ ^ 2 - 2 y_20_ * y_15_ + 1 y_20_ ^ 2 ] >= 8462.52
quadratic_ranged_34_lb: [ 1 x_3_ ^ 2 - 2 x_21_ * x_3_ + 1 x_21_ ^ 2 + 1 y_3_ ^ 2 - 2 y_21_ * y_3_ + 1 y_21_ ^ 2 ] >= 4658.94
quadratic_ranged_35_lb: [ 1 x_12_ ^ 2 - 2 x_21_ * x_12_ + 1 x_21_ ^ 2 + 1 y_12_ ^ 2 - 2 y_21_ * y_12_ + 1 y_21_ ^ 2 ] >= 4028.31
quadratic_ranged_36_lb: [ 1 x_17_ ^ 2 - 2 x_21_ * x_17_ + 1 x_21_ ^ 2 + 1 y_17_ ^ 2 - 2 y_21_ * y_17_ + 1 y_21_ ^ 2 ] >= 11208.78
quadratic_ranged_37_lb: [ 1 x_4_ ^ 2 - 2 x_22_ * x_4_ + 1 x_22_ ^ 2 + 1 y_4_ ^ 2 - 2 y_22_ * y_4_ + 1 y_22_ ^ 2 ] >= 15567.75
quadratic_ranged_38_lb: [ 1 x_5_ ^ 2 - 2 x_22_ * x_5_ + 1 x_22_ ^ 2 + 1 y_5_ ^ 2 - 2 y_22_ * y_5_ + 1 y_22_ ^ 2 ] >= 10177.2
quadratic_ranged_39_lb: [ 1 x_11_ ^ 2 - 2 x_22_ * x_11_ + 1 x_22_ ^ 2 + 1 y_11_ ^ 2 - 2 y_22_ * y_11_ + 1 y_22_ ^ 2 ] >= 7896.24
quadratic_ranged_40_lb: [ 1 x_9_ ^ 2 - 2 x_23_ * x_9_ + 1 x_23_ ^ 2 + 1 y_9_ ^ 2 - 2 y_23_ * y_9_ + 1 y_23_ ^ 2 ] >= 16255.8
quadratic_ranged_41_lb: [ 1 x_20_ ^ 2 - 2 x_23_ * x_20_ + 1 x_23_ ^ 2 + 1 y_20_ ^ 2 - 2 y_23_ * y_20_ + 1 y_23_ ^ 2 ] >= 13149.18
quadratic_ranged_42_lb: [ 1 x_2_ ^ 2 - 2 x_24_ * x_2_ + 1 x_24_ ^ 2 + 1 y_2_ ^ 2 - 2 y_24_ * y_2_ + 1 y_24_ ^ 2 ] >= 2175.03
quadratic_ranged_43_lb: [ 1 x_13_ ^ 2 - 2 x_24_ * x_13_ + 1 x_24_ ^ 2 + 1 y_13_ ^ 2 - 2 y_24_ * y_13_ + 1 y_24_ ^ 2 ] >= 1984.95
quadratic_ranged_44_lb: [ 1 x_18_ ^ 2 - 2 x_24_ * x_18_ + 1 x_24_ ^ 2 + 1 y_18_ ^ 2 - 2 y_24_ * y_18_ + 1 y_24_ ^ 2 ] >= 30765.239999999998
quadratic_ranged_45_lb: [ 1 x_6_ ^ 2 - 2 x_25_ * x_6_ + 1 x_25_ ^ 2 + 1 y_6_ ^ 2 - 2 y_25_ * y_6_ + 1 y_25_ ^ 2 ] >= 1287
quadratic_ranged_46_lb: [ 1 x_15_ ^ 2 - 2 x_25_ * x_15_ + 1 x_25_ ^ 2 + 1 y_15_ ^ 2 - 2 y_25_ * y_15_ + 1 y_25_ ^ 2 ] >= 4950
quadratic_ranged_47_lb: [ 1 x_22_ ^ 2 - 2 x_26_ * x_22_ + 1 x_26_ ^ 2 + 1 y_22_ ^ 2 - 2 y_26_ * y_22_ + 1 y_26_ ^ 2 ] >= 11026.62
quadratic_ranged_48_lb: [ 1 x_23_ ^ 2 - 2 x_26_ * x_23_ + 1 x_26_ ^ 2 + 1 y_23_ ^ 2 - 2 y_26_ * y_23_ + 1 y_26_ ^ 2 ] >= 6900.3
quadratic_ranged_49_lb: [ 1 x_4_ ^ 2 - 2 x_27_ * x_4_ + 1 x_27_ ^ 2 + 1 y_4_ ^ 2 - 2 y_27_ * y_4_ + 1 y_27_ ^ 2 ] >= 9434.7
quadratic_ranged_50_lb: [ 1 x_5_ ^ 2 - 2 x_27_ * x_5_ + 1 x_27_ ^ 2 + 1 y_5_ ^ 2 - 2 y_27_ * y_5_ + 1 y_27_ ^ 2 ] >= 11085.03
quadratic_ranged_51_lb: [ 1 x_19_ ^ 2 - 2 x_27_ * x_19_ + 1 x_27_ ^ 2 + 1 y_19_ ^ 2 - 2 y_27_ * y_19_ + 1 y_27_ ^ 2 ] >= 5615.28
quadratic_ranged_52_lb: [ 1 x_7_ ^ 2 - 2 x_28_ * x_7_ + 1 x_28_ ^ 2 + 1 y_7_ ^ 2 - 2 y_28_ * y_7_ + 1 y_28_ ^ 2 ] >= 7251.75
quadratic_ranged_53_lb: [ 1 x_26_ ^ 2 - 2 x_28_ * x_26_ + 1 x_28_ ^ 2 + 1 y_26_ ^ 2 - 2 y_28_ * y_26_ + 1 y_28_ ^ 2 ] >= 5595.48
c1_1: 1 x_3_ = 0
c2_1: 1 y_3_ = 0
Bounds
-167 <= x_1_ <= 167
-64 <= x_2_ <= 64
x_3_ = 0
-52 <= x_4_ <= 52
-45 <= x_5_ <= 45
-151 <= x_6_ <= 151
-153 <= x_7_ <= 153
-117 <= x_8_ <= 117
-113 <= x_9_ <= 113
-164 <= x_10_ <= 164
-223 <= x_11_ <= 223
-133 <= x_12_ <= 133
-156 <= x_13_ <= 156
-197 <= x_14_ <= 197
-102 <= x_15_ <= 102
-72 <= x_16_ <= 72
-93 <= x_17_ <= 93
-250 <= x_18_ <= 250
-211 <= x_19_ <= 211
-195 <= x_20_ <= 195
-68 <= x_21_ <= 68
-146 <= x_22_ <= 146
-242 <= x_23_ <= 242
-111 <= x_24_ <= 111
-173 <= x_25_ <= 173
-253 <= x_26_ <= 253
-150 <= x_27_ <= 150
-239 <= x_28_ <= 239
-167 <= y_1_ <= 167
-64 <= y_2_ <= 64
y_3_ = 0
-52 <= y_4_ <= 52
-45 <= y_5_ <= 45
-151 <= y_6_ <= 151
-153 <= y_7_ <= 153
-117 <= y_8_ <= 117
-113 <= y_9_ <= 113
-164 <= y_10_ <= 164
-223 <= y_11_ <= 223
-133 <= y_12_ <= 133
-156 <= y_13_ <= 156
-197 <= y_14_ <= 197
-102 <= y_15_ <= 102
-72 <= y_16_ <= 72
-93 <= y_17_ <= 93
-250 <= y_18_ <= 250
-211 <= y_19_ <= 211
-195 <= y_20_ <= 195
-68 <= y_21_ <= 68
-146 <= y_22_ <= 146
-242 <= y_23_ <= 242
-111 <= y_24_ <= 111
-173 <= y_25_ <= 173
-253 <= y_26_ <= 253
-150 <= y_27_ <= 150
-239 <= y_28_ <= 239
General
x_1_
x_2_
x_3_
x_4_
x_5_
x_6_
x_7_
x_8_
x_9_
x_10_
x_11_
x_12_
x_13_
x_14_
x_15_
x_16_
x_17_
x_18_
x_19_
x_20_
x_21_
x_22_
x_23_
x_24_
x_25_
x_26_
x_27_
x_28_
y_1_
y_2_
y_3_
y_4_
y_5_
y_6_
y_7_
y_8_
y_9_
y_10_
y_11_
y_12_
y_13_
y_14_
y_15_
y_16_
y_17_
y_18_
y_19_
y_20_
y_21_
y_22_
y_23_
y_24_
y_25_
y_26_
y_27_
y_28_
End
