minimize
obj: 
subject to
c1_1: -82 y_1_ + [ 1 x_1_ ^ 2 + 1 y_1_ ^ 2 ] <= 125208
c2_1: -82 y_2_ + [ 1 x_2_ ^ 2 + 1 y_2_ ^ 2 ] <= 42046
c3_1: -82 y_3_ + [ 1 x_3_ ^ 2 + 1 y_3_ ^ 2 ] <= 13103
c4_1: -82 y_4_ + [ 1 x_4_ ^ 2 + 1 y_4_ ^ 2 ] <= 45129
c5_1: -82 y_5_ + [ 1 x_5_ ^ 2 + 1 y_5_ ^ 2 ] <= 11265
c6_1: -82 y_6_ + [ 1 x_6_ ^ 2 + 1 y_6_ ^ 2 ] <= 56036
c7_1: -82 y_7_ + [ 1 x_7_ ^ 2 + 1 y_7_ ^ 2 ] <= 115224
c8_1: -82 y_8_ + [ 1 x_8_ ^ 2 + 1 y_8_ ^ 2 ] <= 134030
c9_1: -82 y_9_ + [ 1 x_9_ ^ 2 + 1 y_9_ ^ 2 ] <= 156992
c10_1: -82 y_10_ + [ 1 x_10_ ^ 2 + 1 y_10_ ^ 2 ] <= 86164
c11_1: -82 y_11_ + [ 1 x_11_ ^ 2 + 1 y_11_ ^ 2 ] <= 28381
c12_1: -82 y_12_ + [ 1 x_12_ ^ 2 + 1 y_12_ ^ 2 ] <= 2740
c13_1: -82 y_14_ + [ 1 x_14_ ^ 2 + 1 y_14_ ^ 2 ] <= 14257
c14_1: -82 y_15_ + [ 1 x_15_ ^ 2 + 1 y_15_ ^ 2 ] <= 50206
c15_1: -82 y_16_ + [ 1 x_16_ ^ 2 + 1 y_16_ ^ 2 ] <= 20158
c16_1: -82 y_17_ + [ 1 x_17_ ^ 2 + 1 y_17_ ^ 2 ] <= 88890
c17_1: -82 y_18_ + [ 1 x_18_ ^ 2 + 1 y_18_ ^ 2 ] <= 254611
c18_1: -82 y_19_ + [ 1 x_19_ ^ 2 + 1 y_19_ ^ 2 ] <= 150548
c19_1: -82 y_20_ + [ 1 x_20_ ^ 2 + 1 y_20_ ^ 2 ] <= 113640
c20_1: -82 y_21_ + [ 1 x_21_ ^ 2 + 1 y_21_ ^ 2 ] <= 80415
c21_1: -82 y_22_ + [ 1 x_22_ ^ 2 + 1 y_22_ ^ 2 ] <= 124122
c22_1: -82 y_23_ + [ 1 x_23_ ^ 2 + 1 y_23_ ^ 2 ] <= 157595
c23_1: -82 y_24_ + [ 1 x_24_ ^ 2 + 1 y_24_ ^ 2 ] <= 95844
c24_1: -82 y_25_ + [ 1 x_25_ ^ 2 + 1 y_25_ ^ 2 ] <= 62471
c25_1: -82 y_26_ + [ 1 x_26_ ^ 2 + 1 y_26_ ^ 2 ] <= 83650
c26_1: 82 x_1_ + 200 y_1_ + [ 1 x_1_ ^ 2 + 1 y_1_ ^ 2 ] <= 57005
c27_1: 82 x_2_ + 200 y_2_ + [ 1 x_2_ ^ 2 + 1 y_2_ ^ 2 ] <= 31123
c28_1: 82 x_3_ + 200 y_3_ + [ 1 x_3_ ^ 2 + 1 y_3_ ^ 2 ] <= -9933
c29_1: 82 x_4_ + 200 y_4_ + [ 1 x_4_ ^ 2 + 1 y_4_ ^ 2 ] <= 6972
c30_1: 82 x_5_ + 200 y_5_ + [ 1 x_5_ ^ 2 + 1 y_5_ ^ 2 ] <= -10525
c31_1: 82 x_6_ + 200 y_6_ + [ 1 x_6_ ^ 2 + 1 y_6_ ^ 2 ] <= 10952
c32_1: 82 x_7_ + 200 y_7_ + [ 1 x_7_ ^ 2 + 1 y_7_ ^ 2 ] <= 26007
c33_1: 82 x_8_ + 200 y_8_ + [ 1 x_8_ ^ 2 + 1 y_8_ ^ 2 ] <= 36988
c34_1: 82 x_9_ + 200 y_9_ + [ 1 x_9_ ^ 2 + 1 y_9_ ^ 2 ] <= 88012
c35_1: 82 x_10_ + 200 y_10_ + [ 1 x_10_ ^ 2 + 1 y_10_ ^ 2 ] <= 137426
c36_1: 82 x_11_ + 200 y_11_ + [ 1 x_11_ ^ 2 + 1 y_11_ ^ 2 ] <= 91465
c37_1: 82 x_12_ + 200 y_12_ + [ 1 x_12_ ^ 2 + 1 y_12_ ^ 2 ] <= 34231
c38_1: 82 x_13_ + 200 y_13_ + [ 1 x_13_ ^ 2 + 1 y_13_ ^ 2 ] <= 10158
c39_1: 82 x_14_ + 200 y_14_ + [ 1 x_14_ ^ 2 + 1 y_14_ ^ 2 ] <= 38543
c40_1: 82 x_15_ + 200 y_15_ + [ 1 x_15_ ^ 2 + 1 y_15_ ^ 2 ] <= -5280
c41_1: 82 x_17_ + 200 y_17_ + [ 1 x_17_ ^ 2 + 1 y_17_ ^ 2 ] <= 11780
c42: 82 x_18_ + 200 y_18_ + [ 1 x_18_ ^ 2 + 1 y_18_ ^ 2 ] <= 116821
c43: 82 x_19_ + 200 y_19_ + [ 1 x_19_ ^ 2 + 1 y_19_ ^ 2 ] <= 47069
c44: 82 x_20_ + 200 y_20_ + [ 1 x_20_ ^ 2 + 1 y_20_ ^ 2 ] <= 25110
c45: 82 x_21_ + 200 y_21_ + [ 1 x_21_ ^ 2 + 1 y_21_ ^ 2 ] <= 7569
c46: 82 x_22_ + 200 y_22_ + [ 1 x_22_ ^ 2 + 1 y_22_ ^ 2 ] <= 37691
c47: 82 x_23_ + 200 y_23_ + [ 1 x_23_ ^ 2 + 1 y_23_ ^ 2 ] <= 59398
c48: 82 x_24_ + 200 y_24_ + [ 1 x_24_ ^ 2 + 1 y_24_ ^ 2 ] <= 15382
c49: 82 x_25_ + 200 y_25_ + [ 1 x_25_ ^ 2 + 1 y_25_ ^ 2 ] <= -550
c50: 82 x_26_ + 200 y_26_ + [ 1 x_26_ ^ 2 + 1 y_26_ ^ 2 ] <= 9151
c51: 38 x_1_ + 130 y_1_ + [ 1 x_1_ ^ 2 + 1 y_1_ ^ 2 ] <= 87763
c52: 38 x_2_ + 130 y_2_ + [ 1 x_2_ ^ 2 + 1 y_2_ ^ 2 ] <= 22666
c53: 38 x_4_ + 130 y_4_ + [ 1 x_4_ ^ 2 + 1 y_4_ ^ 2 ] <= 5719
c54: 38 x_5_ + 130 y_5_ + [ 1 x_5_ ^ 2 + 1 y_5_ ^ 2 ] <= -4525
c55: 38 x_6_ + 130 y_6_ + [ 1 x_6_ ^ 2 + 1 y_6_ ^ 2 ] <= 13443
c56: 38 x_7_ + 130 y_7_ + [ 1 x_7_ ^ 2 + 1 y_7_ ^ 2 ] <= 51083
c57: 38 x_8_ + 130 y_8_ + [ 1 x_8_ ^ 2 + 1 y_8_ ^ 2 ] <= 64278
c58: 38 x_9_ + 130 y_9_ + [ 1 x_9_ ^ 2 + 1 y_9_ ^ 2 ] <= 123257
c59: 38 x_10_ + 130 y_10_ + [ 1 x_10_ ^ 2 + 1 y_10_ ^ 2 ] <= 170120
c60: 38 x_11_ + 130 y_11_ + [ 1 x_11_ ^ 2 + 1 y_11_ ^ 2 ] <= 82424
c61: 38 x_12_ + 130 y_12_ + [ 1 x_12_ ^ 2 + 1 y_12_ ^ 2 ] <= 30789
c62: 38 x_13_ + 130 y_13_ + [ 1 x_13_ ^ 2 + 1 y_13_ ^ 2 ] <= 10198
c63: 38 x_14_ + 130 y_14_ + [ 1 x_14_ ^ 2 + 1 y_14_ ^ 2 ] <= 56837
c64: 38 x_15_ + 130 y_15_ + [ 1 x_15_ ^ 2 + 1 y_15_ ^ 2 ] <= 10253
c65: 38 x_16_ + 130 y_16_ + [ 1 x_16_ ^ 2 + 1 y_16_ ^ 2 ] <= -2838
c66: 38 x_17_ + 130 y_17_ + [ 1 x_17_ ^ 2 + 1 y_17_ ^ 2 ] <= 33431
c67: 38 x_18_ + 130 y_18_ + [ 1 x_18_ ^ 2 + 1 y_18_ ^ 2 ] <= 155640
c68: 38 x_19_ + 130 y_19_ + [ 1 x_19_ ^ 2 + 1 y_19_ ^ 2 ] <= 76181
c69: 38 x_20_ + 130 y_20_ + [ 1 x_20_ ^ 2 + 1 y_20_ ^ 2 ] <= 49992
c70: 38 x_21_ + 130 y_21_ + [ 1 x_21_ ^ 2 + 1 y_21_ ^ 2 ] <= 28013
c71: 38 x_22_ + 130 y_22_ + [ 1 x_22_ ^ 2 + 1 y_22_ ^ 2 ] <= 65115
c72: 38 x_23_ + 130 y_23_ + [ 1 x_23_ ^ 2 + 1 y_23_ ^ 2 ] <= 90535
c73: 38 x_24_ + 130 y_24_ + [ 1 x_24_ ^ 2 + 1 y_24_ ^ 2 ] <= 37982
c74: 38 x_25_ + 130 y_25_ + [ 1 x_25_ ^ 2 + 1 y_25_ ^ 2 ] <= 17115
c75: 38 x_26_ + 130 y_26_ + [ 1 x_26_ ^ 2 + 1 y_26_ ^ 2 ] <= 30064
c1_2: 1 x_13_ = 0
c2_2: 1 y_13_ = 41
c3_2: 1 x_16_ = -41
c4_2: 1 y_16_ = -100
c5_2: 1 x_3_ = -19
c6_2: 1 y_3_ = -65
c1: [ 1 x_1_ ^ 2 - 2 x_2_ * x_1_ + 1 x_2_ ^ 2 + 1 y_1_ ^ 2 - 2 y_2_ * y_1_ + 1 y_2_ ^ 2 ] = 21640
c2: [ 1 x_2_ ^ 2 - 2 x_3_ * x_2_ + 1 x_3_ ^ 2 + 1 y_2_ ^ 2 - 2 y_3_ * y_2_ + 1 y_3_ ^ 2 ] = 27252
c3: [ 1 x_3_ ^ 2 - 2 x_4_ * x_3_ + 1 x_4_ ^ 2 + 1 y_3_ ^ 2 - 2 y_4_ * y_3_ + 1 y_4_ ^ 2 ] = 10305
c4: [ 1 x_3_ ^ 2 - 2 x_5_ * x_3_ + 1 x_5_ ^ 2 + 1 y_3_ ^ 2 - 2 y_5_ * y_3_ + 1 y_5_ ^ 2 ] = 61
c5: [ 1 x_4_ ^ 2 - 2 x_5_ * x_4_ + 1 x_5_ ^ 2 + 1 y_4_ ^ 2 - 2 y_5_ * y_4_ + 1 y_5_ ^ 2 ] = 10522
c6: [ 1 x_5_ ^ 2 - 2 x_6_ * x_5_ + 1 x_6_ ^ 2 + 1 y_5_ ^ 2 - 2 y_6_ * y_5_ + 1 y_6_ ^ 2 ] = 15993
c7: [ 1 x_6_ ^ 2 - 2 x_7_ * x_6_ + 1 x_7_ ^ 2 + 1 y_6_ ^ 2 - 2 y_7_ * y_6_ + 1 y_7_ ^ 2 ] = 17425
c8: [ 1 x_7_ ^ 2 - 2 x_8_ * x_7_ + 1 x_8_ ^ 2 + 1 y_7_ ^ 2 - 2 y_8_ * y_7_ + 1 y_8_ ^ 2 ] = 701
c9: [ 1 x_8_ ^ 2 - 2 x_9_ * x_8_ + 1 x_9_ ^ 2 + 1 y_8_ ^ 2 - 2 y_9_ * y_8_ + 1 y_9_ ^ 2 ] = 9050
c10: [ 1 x_1_ ^ 2 - 2 x_10_ * x_1_ + 1 x_10_ ^ 2 + 1 y_1_ ^ 2 - 2 y_10_ * y_1_ + 1 y_10_ ^ 2 ] = 15392
c11: [ 1 x_9_ ^ 2 - 2 x_10_ * x_9_ + 1 x_10_ ^ 2 + 1 y_9_ ^ 2 - 2 y_10_ * y_9_ + 1 y_10_ ^ 2 ] = 10394
c12: [ 1 x_10_ ^ 2 - 2 x_11_ * x_10_ + 1 x_11_ ^ 2 + 1 y_10_ ^ 2 - 2 y_11_ * y_10_ + 1 y_11_ ^ 2 ] = 15130
c13: [ 1 x_2_ ^ 2 - 2 x_12_ * x_2_ + 1 x_12_ ^ 2 + 1 y_2_ ^ 2 - 2 y_12_ * y_2_ + 1 y_12_ ^ 2 ] = 20340
c14: [ 1 x_11_ ^ 2 - 2 x_12_ * x_11_ + 1 x_12_ ^ 2 + 1 y_11_ ^ 2 - 2 y_12_ * y_11_ + 1 y_12_ ^ 2 ] = 11426
c15: [ 1 x_5_ ^ 2 - 2 x_13_ * x_5_ + 1 x_13_ ^ 2 + 1 y_5_ ^ 2 - 2 y_13_ * y_5_ + 1 y_13_ ^ 2 ] = 12946
c16: [ 1 x_12_ ^ 2 - 2 x_13_ * x_12_ + 1 x_13_ ^ 2 + 1 y_12_ ^ 2 - 2 y_13_ * y_12_ + 1 y_13_ ^ 2 ] = 4421
c17: [ 1 x_13_ ^ 2 - 2 x_14_ * x_13_ + 1 x_14_ ^ 2 + 1 y_13_ ^ 2 - 2 y_14_ * y_13_ + 1 y_14_ ^ 2 ] = 15938
c18: [ 1 x_7_ ^ 2 - 2 x_15_ * x_7_ + 1 x_15_ ^ 2 + 1 y_7_ ^ 2 - 2 y_15_ * y_7_ + 1 y_15_ ^ 2 ] = 13025
c19: [ 1 x_14_ ^ 2 - 2 x_15_ * x_14_ + 1 x_15_ ^ 2 + 1 y_14_ ^ 2 - 2 y_15_ * y_14_ + 1 y_15_ ^ 2 ] = 20765
c20: [ 1 x_5_ ^ 2 - 2 x_16_ * x_5_ + 1 x_16_ ^ 2 + 1 y_5_ ^ 2 - 2 y_16_ * y_5_ + 1 y_16_ ^ 2 ] = 1156
c21: [ 1 x_6_ ^ 2 - 2 x_16_ * x_6_ + 1 x_16_ ^ 2 + 1 y_6_ ^ 2 - 2 y_16_ * y_6_ + 1 y_16_ ^ 2 ] = 22633
c22: [ 1 x_15_ ^ 2 - 2 x_16_ * x_15_ + 1 x_16_ ^ 2 + 1 y_15_ ^ 2 - 2 y_16_ * y_15_ + 1 y_16_ ^ 2 ] = 6401
c23: [ 1 x_16_ ^ 2 - 2 x_17_ * x_16_ + 1 x_17_ ^ 2 + 1 y_16_ ^ 2 - 2 y_17_ * y_16_ + 1 y_17_ ^ 2 ] = 23461
c24: [ 1 x_17_ ^ 2 - 2 x_18_ * x_17_ + 1 x_18_ ^ 2 + 1 y_17_ ^ 2 - 2 y_18_ * y_17_ + 1 y_18_ ^ 2 ] = 42149
c25: [ 1 x_18_ ^ 2 - 2 x_19_ * x_18_ + 1 x_19_ ^ 2 + 1 y_18_ ^ 2 - 2 y_19_ * y_18_ + 1 y_19_ ^ 2 ] = 20308
c26: [ 1 x_15_ ^ 2 - 2 x_20_ * x_15_ + 1 x_20_ ^ 2 + 1 y_15_ ^ 2 - 2 y_20_ * y_15_ + 1 y_20_ ^ 2 ] = 12500
c27: [ 1 x_19_ ^ 2 - 2 x_20_ * x_19_ + 1 x_20_ ^ 2 + 1 y_19_ ^ 2 - 2 y_20_ * y_19_ + 1 y_20_ ^ 2 ] = 18229
c28: [ 1 x_20_ ^ 2 - 2 x_21_ * x_20_ + 1 x_21_ ^ 2 + 1 y_20_ ^ 2 - 2 y_21_ * y_20_ + 1 y_21_ ^ 2 ] = 12385
c29: [ 1 x_2_ ^ 2 - 2 x_22_ * x_2_ + 1 x_22_ ^ 2 + 1 y_2_ ^ 2 - 2 y_22_ * y_2_ + 1 y_22_ ^ 2 ] = 21193
c30: [ 1 x_17_ ^ 2 - 2 x_22_ * x_17_ + 1 x_22_ ^ 2 + 1 y_17_ ^ 2 - 2 y_22_ * y_17_ + 1 y_22_ ^ 2 ] = 4765
c31: [ 1 x_21_ ^ 2 - 2 x_22_ * x_21_ + 1 x_22_ ^ 2 + 1 y_21_ ^ 2 - 2 y_22_ * y_21_ + 1 y_22_ ^ 2 ] = 9620
c32: [ 1 x_9_ ^ 2 - 2 x_23_ * x_9_ + 1 x_23_ ^ 2 + 1 y_9_ ^ 2 - 2 y_23_ * y_9_ + 1 y_23_ ^ 2 ] = 6161
c33: [ 1 x_20_ ^ 2 - 2 x_23_ * x_20_ + 1 x_23_ ^ 2 + 1 y_20_ ^ 2 - 2 y_23_ * y_20_ + 1 y_23_ ^ 2 ] = 26725
c34: [ 1 x_22_ ^ 2 - 2 x_23_ * x_22_ + 1 x_23_ ^ 2 + 1 y_22_ ^ 2 - 2 y_23_ * y_22_ + 1 y_23_ ^ 2 ] = 1972
c35: [ 1 x_23_ ^ 2 - 2 x_24_ * x_23_ + 1 x_24_ ^ 2 + 1 y_23_ ^ 2 - 2 y_24_ * y_23_ + 1 y_24_ ^ 2 ] = 14909
c36: [ 1 x_15_ ^ 2 - 2 x_25_ * x_15_ + 1 x_25_ ^ 2 + 1 y_15_ ^ 2 - 2 y_25_ * y_15_ + 1 y_25_ ^ 2 ] = 650
c37: [ 1 x_19_ ^ 2 - 2 x_25_ * x_19_ + 1 x_25_ ^ 2 + 1 y_19_ ^ 2 - 2 y_25_ * y_19_ + 1 y_25_ ^ 2 ] = 18737
c38: [ 1 x_21_ ^ 2 - 2 x_25_ * x_21_ + 1 x_25_ ^ 2 + 1 y_21_ ^ 2 - 2 y_25_ * y_21_ + 1 y_25_ ^ 2 ] = 1105
c39: [ 1 x_24_ ^ 2 - 2 x_25_ * x_24_ + 1 x_25_ ^ 2 + 1 y_24_ ^ 2 - 2 y_25_ * y_24_ + 1 y_25_ ^ 2 ] = 3482
c40: [ 1 x_1_ ^ 2 - 2 x_26_ * x_1_ + 1 x_26_ ^ 2 + 1 y_1_ ^ 2 - 2 y_26_ * y_1_ + 1 y_26_ ^ 2 ] = 13864
c41: [ 1 x_25_ ^ 2 - 2 x_26_ * x_25_ + 1 x_26_ ^ 2 + 1 y_25_ ^ 2 - 2 y_26_ * y_25_ + 1 y_26_ ^ 2 ] = 1508
Bounds
-303 <= x_1_ <= 221
-184 <= x_2_ <= 146
x_3_ = -19
-120 <= x_4_ <= 82
-26 <= x_5_ <= -12
-153 <= x_6_ <= 109
-235 <= x_7_ <= 153
-261 <= x_8_ <= 179
-356 <= x_9_ <= 274
-296 <= x_10_ <= 296
-173 <= x_11_ <= 173
-66 <= x_12_ <= 66
x_13_ = 0
-126 <= x_14_ <= 126
-121 <= x_15_ <= 39
x_16_ = -41
-194 <= x_17_ <= 112
-399 <= x_18_ <= 317
-283 <= x_19_ <= 201
-232 <= x_20_ <= 150
-179 <= x_21_ <= 97
-263 <= x_22_ <= 181
-307 <= x_23_ <= 225
-205 <= x_24_ <= 123
-146 <= x_25_ <= 64
-185 <= x_26_ <= 103
-315 <= y_1_ <= 162
-168 <= y_2_ <= 100
y_3_ = -65
-166 <= y_4_ <= 36
-72 <= y_5_ <= -66
-199 <= y_6_ <= 50
-294 <= y_7_ <= 94
-320 <= y_8_ <= 120
-357 <= y_9_ <= 215
-255 <= y_10_ <= 286
-132 <= y_11_ <= 214
-25 <= y_12_ <= 107
y_13_ = 41
-85 <= y_14_ <= 124
-180 <= y_15_ <= -20
y_16_ = -100
-253 <= y_17_ <= 53
-458 <= y_18_ <= 258
-342 <= y_19_ <= 142
-291 <= y_20_ <= 91
-238 <= y_21_ <= 38
-313 <= y_22_ <= 122
-358 <= y_23_ <= 166
-264 <= y_24_ <= 64
-205 <= y_25_ <= 5
-244 <= y_26_ <= 44
General
x_1_
x_2_
x_3_
x_4_
x_5_
x_6_
x_7_
x_8_
x_9_
x_10_
x_11_
x_12_
x_13_
x_14_
x_15_
x_16_
x_17_
x_18_
x_19_
x_20_
x_21_
x_22_
x_23_
x_24_
x_25_
x_26_
y_1_
y_2_
y_3_
y_4_
y_5_
y_6_
y_7_
y_8_
y_9_
y_10_
y_11_
y_12_
y_13_
y_14_
y_15_
y_16_
y_17_
y_18_
y_19_
y_20_
y_21_
y_22_
y_23_
y_24_
y_25_
y_26_
End
