minimize
obj: 
subject to
c1_3: -1 x_27_ + 1 y_27_ <= 0
c1: [ 1 x_1_ ^ 2 + 1 y_1_ ^ 2 ] <= 70070.88252964907
c2: [ 1 x_2_ ^ 2 + 1 y_2_ ^ 2 ] <= 38034.155033630086
c3: [ 1 x_3_ ^ 2 + 1 y_3_ ^ 2 ] <= 104658.82797303038
c4: [ 1 x_4_ ^ 2 + 1 y_4_ ^ 2 ] <= 40321.762032006336
c5: [ 1 x_5_ ^ 2 + 1 y_5_ ^ 2 ] <= 1641.2499999999998
c6: [ 1 x_6_ ^ 2 + 1 y_6_ ^ 2 ] <= 33571.07678019322
c7: [ 1 x_7_ ^ 2 + 1 y_7_ ^ 2 ] <= 58029.27311554683
c8: [ 1 x_8_ ^ 2 + 1 y_8_ ^ 2 ] <= 10518.89800091655
c9: [ 1 x_9_ ^ 2 + 1 y_9_ ^ 2 ] <= 21801.215585918002
c10: [ 1 x_10_ ^ 2 + 1 y_10_ ^ 2 ] <= 57400.55046569214
c11: [ 1 x_11_ ^ 2 + 1 y_11_ ^ 2 ] <= 49071.61690238414
c12: [ 1 x_12_ ^ 2 + 1 y_12_ ^ 2 ] <= 15249.599385528843
c13: [ 1 x_13_ ^ 2 + 1 y_13_ ^ 2 ] <= 21051.05245633417
c14: [ 1 x_14_ ^ 2 + 1 y_14_ ^ 2 ] <= 65146.69177906238
c15: [ 1 x_15_ ^ 2 + 1 y_15_ ^ 2 ] <= 29007.042101494153
c16: [ 1 x_16_ ^ 2 + 1 y_16_ ^ 2 ] <= 79416.18922793084
c17: [ 1 x_17_ ^ 2 + 1 y_17_ ^ 2 ] <= 35259.978146897265
c18: [ 1 x_18_ ^ 2 + 1 y_18_ ^ 2 ] <= 68442.75339856955
c19: [ 1 x_20_ ^ 2 + 1 y_20_ ^ 2 ] <= 22483.609999999997
c20: [ 1 x_21_ ^ 2 + 1 y_21_ ^ 2 ] <= 34.339999999999996
c21: [ 1 x_22_ ^ 2 + 1 y_22_ ^ 2 ] <= 41718.83623257129
c22: [ 1 x_23_ ^ 2 + 1 y_23_ ^ 2 ] <= 13123.253142986709
c23: [ 1 x_24_ ^ 2 + 1 y_24_ ^ 2 ] <= 33845.65076508542
c24: [ 1 x_25_ ^ 2 + 1 y_25_ ^ 2 ] <= 80827.80228796041
c25: [ 1 x_26_ ^ 2 + 1 y_26_ ^ 2 ] <= 64225.938427659006
c26: [ 1 x_27_ ^ 2 + 1 y_27_ ^ 2 ] <= 105266.35389390391
c27: [ 1 x_28_ ^ 2 + 1 y_28_ ^ 2 ] <= 53084.56199023029
quadratic_ranged_1_ub: [ 1 x_1_ ^ 2 - 2 x_2_ * x_1_ + 1 x_2_ ^ 2 + 1 y_1_ ^ 2 - 2 y_2_ * y_1_ + 1 y_2_ ^ 2 ] <= 4856.08
quadratic_ranged_2_ub: [ 1 x_2_ ^ 2 - 2 x_4_ * x_2_ + 1 x_4_ ^ 2 + 1 y_2_ ^ 2 - 2 y_4_ * y_2_ + 1 y_4_ ^ 2 ] <= 6800.33
quadratic_ranged_3_ub: [ 1 x_3_ ^ 2 - 2 x_4_ * x_3_ + 1 x_4_ ^ 2 + 1 y_3_ ^ 2 - 2 y_4_ * y_3_ + 1 y_4_ ^ 2 ] <= 18715.3
quadratic_ranged_4_ub: [ 1 x_3_ ^ 2 - 2 x_6_ * x_3_ + 1 x_6_ ^ 2 + 1 y_3_ ^ 2 - 2 y_6_ * y_3_ + 1 y_6_ ^ 2 ] <= 39237.49
quadratic_ranged_5_ub: [ 1 x_4_ ^ 2 - 2 x_6_ * x_4_ + 1 x_6_ ^ 2 + 1 y_4_ ^ 2 - 2 y_6_ * y_4_ + 1 y_6_ ^ 2 ] <= 38841.57
quadratic_ranged_6_ub: [ 1 x_5_ ^ 2 - 2 x_6_ * x_5_ + 1 x_6_ ^ 2 + 1 y_5_ ^ 2 - 2 y_6_ * y_5_ + 1 y_6_ ^ 2 ] <= 20366.65
quadratic_ranged_7_ub: [ 1 x_1_ ^ 2 - 2 x_7_ * x_1_ + 1 x_7_ ^ 2 + 1 y_1_ ^ 2 - 2 y_7_ * y_1_ + 1 y_7_ ^ 2 ] <= 15033.85
quadratic_ranged_8_ub: [ 1 x_2_ ^ 2 - 2 x_7_ * x_2_ + 1 x_7_ ^ 2 + 1 y_2_ ^ 2 - 2 y_7_ * y_2_ + 1 y_7_ ^ 2 ] <= 23174.45
quadratic_ranged_9_ub: [ 1 x_5_ ^ 2 - 2 x_8_ * x_5_ + 1 x_8_ ^ 2 + 1 y_5_ ^ 2 - 2 y_8_ * y_5_ + 1 y_8_ ^ 2 ] <= 3850.12
quadratic_ranged_10_ub: [ 1 x_7_ ^ 2 - 2 x_8_ * x_7_ + 1 x_8_ ^ 2 + 1 y_7_ ^ 2 - 2 y_8_ * y_7_ + 1 y_8_ ^ 2 ] <= 19135.46
quadratic_ranged_11_ub: [ 1 x_4_ ^ 2 - 2 x_9_ * x_4_ + 1 x_9_ ^ 2 + 1 y_4_ ^ 2 - 2 y_9_ * y_4_ + 1 y_9_ ^ 2 ] <= 2824.97
quadratic_ranged_12_ub: [ 1 x_3_ ^ 2 - 2 x_10_ * x_3_ + 1 x_10_ ^ 2 + 1 y_3_ ^ 2 - 2 y_10_ * y_3_ + 1 y_10_ ^ 2 ] <= 21399.88
quadratic_ranged_13_ub: [ 1 x_6_ ^ 2 - 2 x_10_ * x_6_ + 1 x_10_ ^ 2 + 1 y_6_ ^ 2 - 2 y_10_ * y_6_ + 1 y_10_ ^ 2 ] <= 3176.45
quadratic_ranged_14_ub: [ 1 x_3_ ^ 2 - 2 x_11_ * x_3_ + 1 x_11_ ^ 2 + 1 y_3_ ^ 2 - 2 y_11_ * y_3_ + 1 y_11_ ^ 2 ] <= 24810.65
quadratic_ranged_15_ub: [ 1 x_4_ ^ 2 - 2 x_11_ * x_4_ + 1 x_11_ ^ 2 + 1 y_4_ ^ 2 - 2 y_11_ * y_4_ + 1 y_11_ ^ 2 ] <= 429.25
quadratic_ranged_16_ub: [ 1 x_7_ ^ 2 - 2 x_11_ * x_7_ + 1 x_11_ ^ 2 + 1 y_7_ ^ 2 - 2 y_11_ * y_7_ + 1 y_11_ ^ 2 ] <= 3798.61
quadratic_ranged_17_ub: [ 1 x_5_ ^ 2 - 2 x_12_ * x_5_ + 1 x_12_ ^ 2 + 1 y_5_ ^ 2 - 2 y_12_ * y_5_ + 1 y_12_ ^ 2 ] <= 6885.17
quadratic_ranged_18_ub: [ 1 x_9_ ^ 2 - 2 x_13_ * x_9_ + 1 x_13_ ^ 2 + 1 y_9_ ^ 2 - 2 y_13_ * y_9_ + 1 y_13_ ^ 2 ] <= 3568.33
quadratic_ranged_19_ub: [ 1 x_11_ ^ 2 - 2 x_14_ * x_11_ + 1 x_14_ ^ 2 + 1 y_11_ ^ 2 - 2 y_14_ * y_11_ + 1 y_14_ ^ 2 ] <= 22860.34
quadratic_ranged_20_ub: [ 1 x_12_ ^ 2 - 2 x_14_ * x_12_ + 1 x_14_ ^ 2 + 1 y_12_ ^ 2 - 2 y_14_ * y_12_ + 1 y_14_ ^ 2 ] <= 17357.86
quadratic_ranged_21_ub: [ 1 x_7_ ^ 2 - 2 x_15_ * x_7_ + 1 x_15_ ^ 2 + 1 y_7_ ^ 2 - 2 y_15_ * y_7_ + 1 y_15_ ^ 2 ] <= 42287.69
quadratic_ranged_22_ub: [ 1 x_8_ ^ 2 - 2 x_15_ * x_8_ + 1 x_15_ ^ 2 + 1 y_8_ ^ 2 - 2 y_15_ * y_8_ + 1 y_15_ ^ 2 ] <= 4590.45
quadratic_ranged_23_ub: [ 1 x_13_ ^ 2 - 2 x_15_ * x_13_ + 1 x_15_ ^ 2 + 1 y_13_ ^ 2 - 2 y_15_ * y_13_ + 1 y_15_ ^ 2 ] <= 33888.53
quadratic_ranged_24_ub: [ 1 x_1_ ^ 2 - 2 x_16_ * x_1_ + 1 x_16_ ^ 2 + 1 y_1_ ^ 2 - 2 y_16_ * y_1_ + 1 y_16_ ^ 2 ] <= 1373.6
quadratic_ranged_25_ub: [ 1 x_3_ ^ 2 - 2 x_16_ * x_3_ + 1 x_16_ ^ 2 + 1 y_3_ ^ 2 - 2 y_16_ * y_3_ + 1 y_16_ ^ 2 ] <= 5964.05
quadratic_ranged_26_ub: [ 1 x_4_ ^ 2 - 2 x_16_ * x_4_ + 1 x_16_ ^ 2 + 1 y_4_ ^ 2 - 2 y_16_ * y_4_ + 1 y_16_ ^ 2 ] <= 6561.97
quadratic_ranged_27_ub: [ 1 x_2_ ^ 2 - 2 x_17_ * x_2_ + 1 x_17_ ^ 2 + 1 y_2_ ^ 2 - 2 y_17_ * y_2_ + 1 y_17_ ^ 2 ] <= 52.52
quadratic_ranged_28_ub: [ 1 x_6_ ^ 2 - 2 x_17_ * x_6_ + 1 x_17_ ^ 2 + 1 y_6_ ^ 2 - 2 y_17_ * y_6_ + 1 y_17_ ^ 2 ] <= 63383.56
quadratic_ranged_29_ub: [ 1 x_9_ ^ 2 - 2 x_17_ * x_9_ + 1 x_17_ ^ 2 + 1 y_9_ ^ 2 - 2 y_17_ * y_9_ + 1 y_17_ ^ 2 ] <= 1609.94
quadratic_ranged_30_ub: [ 1 x_3_ ^ 2 - 2 x_18_ * x_3_ + 1 x_18_ ^ 2 + 1 y_3_ ^ 2 - 2 y_18_ * y_3_ + 1 y_18_ ^ 2 ] <= 3830.93
quadratic_ranged_31_ub: [ 1 x_12_ ^ 2 - 2 x_18_ * x_12_ + 1 x_18_ ^ 2 + 1 y_12_ ^ 2 - 2 y_18_ * y_12_ + 1 y_18_ ^ 2 ] <= 19078.9
quadratic_ranged_32_ub: [ 1 x_16_ ^ 2 - 2 x_18_ * x_16_ + 1 x_18_ ^ 2 + 1 y_16_ ^ 2 - 2 y_18_ * y_16_ + 1 y_18_ ^ 2 ] <= 2407.84
quadratic_ranged_33_ub: [ 1 x_5_ ^ 2 - 2 x_19_ * x_5_ + 1 x_19_ ^ 2 + 1 y_5_ ^ 2 - 2 y_19_ * y_5_ + 1 y_19_ ^ 2 ] <= 1641.25
quadratic_ranged_34_ub: [ 1 x_19_ ^ 2 - 2 x_20_ * x_19_ + 1 x_20_ ^ 2 + 1 y_19_ ^ 2 - 2 y_20_ * y_19_ + 1 y_20_ ^ 2 ] <= 22483.61
quadratic_ranged_35_ub: [ 1 x_9_ ^ 2 - 2 x_21_ * x_9_ + 1 x_21_ ^ 2 + 1 y_9_ ^ 2 - 2 y_21_ * y_9_ + 1 y_21_ ^ 2 ] <= 20105.06
quadratic_ranged_36_ub: [ 1 x_13_ ^ 2 - 2 x_21_ * x_13_ + 1 x_21_ ^ 2 + 1 y_13_ ^ 2 - 2 y_21_ * y_13_ + 1 y_21_ ^ 2 ] <= 19384.93
quadratic_ranged_37_ub: [ 1 x_19_ ^ 2 - 2 x_21_ * x_19_ + 1 x_21_ ^ 2 + 1 y_19_ ^ 2 - 2 y_21_ * y_19_ + 1 y_21_ ^ 2 ] <= 34.34
quadratic_ranged_38_ub: [ 1 x_10_ ^ 2 - 2 x_22_ * x_10_ + 1 x_22_ ^ 2 + 1 y_10_ ^ 2 - 2 y_22_ * y_10_ + 1 y_22_ ^ 2 ] <= 7686.1
quadratic_ranged_39_ub: [ 1 x_20_ ^ 2 - 2 x_22_ * x_20_ + 1 x_22_ ^ 2 + 1 y_20_ ^ 2 - 2 y_22_ * y_20_ + 1 y_22_ ^ 2 ] <= 2949.2
quadratic_ranged_40_ub: [ 1 x_15_ ^ 2 - 2 x_23_ * x_15_ + 1 x_23_ ^ 2 + 1 y_15_ ^ 2 - 2 y_23_ * y_15_ + 1 y_23_ ^ 2 ] <= 22359.38
quadratic_ranged_41_ub: [ 1 x_21_ ^ 2 - 2 x_23_ * x_21_ + 1 x_23_ ^ 2 + 1 y_21_ ^ 2 - 2 y_23_ * y_21_ + 1 y_23_ ^ 2 ] <= 11814.98
quadratic_ranged_42_ub: [ 1 x_4_ ^ 2 - 2 x_24_ * x_4_ + 1 x_24_ ^ 2 + 1 y_4_ ^ 2 - 2 y_24_ * y_4_ + 1 y_24_ ^ 2 ] <= 32006.9
quadratic_ranged_43_ub: [ 1 x_8_ ^ 2 - 2 x_24_ * x_8_ + 1 x_24_ ^ 2 + 1 y_8_ ^ 2 - 2 y_24_ * y_8_ + 1 y_24_ ^ 2 ] <= 6627.62
quadratic_ranged_44_ub: [ 1 x_20_ ^ 2 - 2 x_24_ * x_20_ + 1 x_24_ ^ 2 + 1 y_20_ ^ 2 - 2 y_24_ * y_20_ + 1 y_24_ ^ 2 ] <= 38042.66
quadratic_ranged_45_ub: [ 1 x_17_ ^ 2 - 2 x_25_ * x_17_ + 1 x_25_ ^ 2 + 1 y_17_ ^ 2 - 2 y_25_ * y_17_ + 1 y_25_ ^ 2 ] <= 9317.25
quadratic_ranged_46_ub: [ 1 x_18_ ^ 2 - 2 x_25_ * x_18_ + 1 x_25_ ^ 2 + 1 y_18_ ^ 2 - 2 y_25_ * y_18_ + 1 y_25_ ^ 2 ] <= 6368.05
quadratic_ranged_47_ub: [ 1 x_6_ ^ 2 - 2 x_26_ * x_6_ + 1 x_26_ ^ 2 + 1 y_6_ ^ 2 - 2 y_26_ * y_6_ + 1 y_26_ ^ 2 ] <= 32365.45
quadratic_ranged_48_ub: [ 1 x_12_ ^ 2 - 2 x_26_ * x_12_ + 1 x_26_ ^ 2 + 1 y_12_ ^ 2 - 2 y_26_ * y_12_ + 1 y_26_ ^ 2 ] <= 16884.170000000002
quadratic_ranged_49_ub: [ 1 x_11_ ^ 2 - 2 x_27_ * x_11_ + 1 x_27_ ^ 2 + 1 y_11_ ^ 2 - 2 y_27_ * y_11_ + 1 y_27_ ^ 2 ] <= 10593.89
quadratic_ranged_50_ub: [ 1 x_25_ ^ 2 - 2 x_27_ * x_25_ + 1 x_27_ ^ 2 + 1 y_25_ ^ 2 - 2 y_27_ * y_25_ + 1 y_27_ ^ 2 ] <= 7760.84
quadratic_ranged_51_ub: [ 1 x_3_ ^ 2 - 2 x_28_ * x_3_ + 1 x_28_ ^ 2 + 1 y_3_ ^ 2 - 2 y_28_ * y_3_ + 1 y_28_ ^ 2 ] <= 19797.01
quadratic_ranged_52_ub: [ 1 x_15_ ^ 2 - 2 x_28_ * x_15_ + 1 x_28_ ^ 2 + 1 y_15_ ^ 2 - 2 y_28_ * y_15_ + 1 y_28_ ^ 2 ] <= 16097.380000000001
quadratic_ranged_53_ub: [ 1 x_20_ ^ 2 - 2 x_28_ * x_20_ + 1 x_28_ ^ 2 + 1 y_20_ ^ 2 - 2 y_28_ * y_20_ + 1 y_28_ ^ 2 ] <= 6473.09
c1_2: 1 x_27_ >= 0
c2_2: 1 y_27_ >= 0
quadratic_ranged_1_lb: [ 1 x_1_ ^ 2 - 2 x_2_ * x_1_ + 1 x_2_ ^ 2 + 1 y_1_ ^ 2 - 2 y_2_ * y_1_ + 1 y_2_ ^ 2 ] >= 4759.92
quadratic_ranged_2_lb: [ 1 x_2_ ^ 2 - 2 x_4_ * x_2_ + 1 x_4_ ^ 2 + 1 y_2_ ^ 2 - 2 y_4_ * y_2_ + 1 y_4_ ^ 2 ] >= 6665.67
quadratic_ranged_3_lb: [ 1 x_3_ ^ 2 - 2 x_4_ * x_3_ + 1 x_4_ ^ 2 + 1 y_3_ ^ 2 - 2 y_4_ * y_3_ + 1 y_4_ ^ 2 ] >= 18344.7
quadratic_ranged_4_lb: [ 1 x_3_ ^ 2 - 2 x_6_ * x_3_ + 1 x_6_ ^ 2 + 1 y_3_ ^ 2 - 2 y_6_ * y_3_ + 1 y_6_ ^ 2 ] >= 38460.51
quadratic_ranged_5_lb: [ 1 x_4_ ^ 2 - 2 x_6_ * x_4_ + 1 x_6_ ^ 2 + 1 y_4_ ^ 2 - 2 y_6_ * y_4_ + 1 y_6_ ^ 2 ] >= 38072.43
quadratic_ranged_6_lb: [ 1 x_5_ ^ 2 - 2 x_6_ * x_5_ + 1 x_6_ ^ 2 + 1 y_5_ ^ 2 - 2 y_6_ * y_5_ + 1 y_6_ ^ 2 ] >= 19963.35
quadratic_ranged_7_lb: [ 1 x_1_ ^ 2 - 2 x_7_ * x_1_ + 1 x_7_ ^ 2 + 1 y_1_ ^ 2 - 2 y_7_ * y_1_ + 1 y_7_ ^ 2 ] >= 14736.15
quadratic_ranged_8_lb: [ 1 x_2_ ^ 2 - 2 x_7_ * x_2_ + 1 x_7_ ^ 2 + 1 y_2_ ^ 2 - 2 y_7_ * y_2_ + 1 y_7_ ^ 2 ] >= 22715.55
quadratic_ranged_9_lb: [ 1 x_5_ ^ 2 - 2 x_8_ * x_5_ + 1 x_8_ ^ 2 + 1 y_5_ ^ 2 - 2 y_8_ * y_5_ + 1 y_8_ ^ 2 ] >= 3773.88
quadratic_ranged_10_lb: [ 1 x_7_ ^ 2 - 2 x_8_ * x_7_ + 1 x_8_ ^ 2 + 1 y_7_ ^ 2 - 2 y_8_ * y_7_ + 1 y_8_ ^ 2 ] >= 18756.54
quadratic_ranged_11_lb: [ 1 x_4_ ^ 2 - 2 x_9_ * x_4_ + 1 x_9_ ^ 2 + 1 y_4_ ^ 2 - 2 y_9_ * y_4_ + 1 y_9_ ^ 2 ] >= 2769.03
quadratic_ranged_12_lb: [ 1 x_3_ ^ 2 - 2 x_10_ * x_3_ + 1 x_10_ ^ 2 + 1 y_3_ ^ 2 - 2 y_10_ * y_3_ + 1 y_10_ ^ 2 ] >= 20976.12
quadratic_ranged_13_lb: [ 1 x_6_ ^ 2 - 2 x_10_ * x_6_ + 1 x_10_ ^ 2 + 1 y_6_ ^ 2 - 2 y_10_ * y_6_ + 1 y_10_ ^ 2 ] >= 3113.55
quadratic_ranged_14_lb: [ 1 x_3_ ^ 2 - 2 x_11_ * x_3_ + 1 x_11_ ^ 2 + 1 y_3_ ^ 2 - 2 y_11_ * y_3_ + 1 y_11_ ^ 2 ] >= 24319.35
quadratic_ranged_15_lb: [ 1 x_4_ ^ 2 - 2 x_11_ * x_4_ + 1 x_11_ ^ 2 + 1 y_4_ ^ 2 - 2 y_11_ * y_4_ + 1 y_11_ ^ 2 ] >= 420.75
quadratic_ranged_16_lb: [ 1 x_7_ ^ 2 - 2 x_11_ * x_7_ + 1 x_11_ ^ 2 + 1 y_7_ ^ 2 - 2 y_11_ * y_7_ + 1 y_11_ ^ 2 ] >= 3723.39
quadratic_ranged_17_lb: [ 1 x_5_ ^ 2 - 2 x_12_ * x_5_ + 1 x_12_ ^ 2 + 1 y_5_ ^ 2 - 2 y_12_ * y_5_ + 1 y_12_ ^ 2 ] >= 6748.83
quadratic_ranged_18_lb: [ 1 x_9_ ^ 2 - 2 x_13_ * x_9_ + 1 x_13_ ^ 2 + 1 y_9_ ^ 2 - 2 y_13_ * y_9_ + 1 y_13_ ^ 2 ] >= 3497.67
quadratic_ranged_19_lb: [ 1 x_11_ ^ 2 - 2 x_14_ * x_11_ + 1 x_14_ ^ 2 + 1 y_11_ ^ 2 - 2 y_14_ * y_11_ + 1 y_14_ ^ 2 ] >= 22407.66
quadratic_ranged_20_lb: [ 1 x_12_ ^ 2 - 2 x_14_ * x_12_ + 1 x_14_ ^ 2 + 1 y_12_ ^ 2 - 2 y_14_ * y_12_ + 1 y_14_ ^ 2 ] >= 17014.14
quadratic_ranged_21_lb: [ 1 x_7_ ^ 2 - 2 x_15_ * x_7_ + 1 x_15_ ^ 2 + 1 y_7_ ^ 2 - 2 y_15_ * y_7_ + 1 y_15_ ^ 2 ] >= 41450.31
quadratic_ranged_22_lb: [ 1 x_8_ ^ 2 - 2 x_15_ * x_8_ + 1 x_15_ ^ 2 + 1 y_8_ ^ 2 - 2 y_15_ * y_8_ + 1 y_15_ ^ 2 ] >= 4499.55
quadratic_ranged_23_lb: [ 1 x_13_ ^ 2 - 2 x_15_ * x_13_ + 1 x_15_ ^ 2 + 1 y_13_ ^ 2 - 2 y_15_ * y_13_ + 1 y_15_ ^ 2 ] >= 33217.47
quadratic_ranged_24_lb: [ 1 x_1_ ^ 2 - 2 x_16_ * x_1_ + 1 x_16_ ^ 2 + 1 y_1_ ^ 2 - 2 y_16_ * y_1_ + 1 y_16_ ^ 2 ] >= 1346.4
quadratic_ranged_25_lb: [ 1 x_3_ ^ 2 - 2 x_16_ * x_3_ + 1 x_16_ ^ 2 + 1 y_3_ ^ 2 - 2 y_16_ * y_3_ + 1 y_16_ ^ 2 ] >= 5845.95
quadratic_ranged_26_lb: [ 1 x_4_ ^ 2 - 2 x_16_ * x_4_ + 1 x_16_ ^ 2 + 1 y_4_ ^ 2 - 2 y_16_ * y_4_ + 1 y_16_ ^ 2 ] >= 6432.03
quadratic_ranged_27_lb: [ 1 x_2_ ^ 2 - 2 x_17_ * x_2_ + 1 x_17_ ^ 2 + 1 y_2_ ^ 2 - 2 y_17_ * y_2_ + 1 y_17_ ^ 2 ] >= 51.48
quadratic_ranged_28_lb: [ 1 x_6_ ^ 2 - 2 x_17_ * x_6_ + 1 x_17_ ^ 2 + 1 y_6_ ^ 2 - 2 y_17_ * y_6_ + 1 y_17_ ^ 2 ] >= 62128.44
quadratic_ranged_29_lb: [ 1 x_9_ ^ 2 - 2 x_17_ * x_9_ + 1 x_17_ ^ 2 + 1 y_9_ ^ 2 - 2 y_17_ * y_9_ + 1 y_17_ ^ 2 ] >= 1578.06
quadratic_ranged_30_lb: [ 1 x_3_ ^ 2 - 2 x_18_ * x_3_ + 1 x_18_ ^ 2 + 1 y_3_ ^ 2 - 2 y_18_ * y_3_ + 1 y_18_ ^ 2 ] >= 3755.07
quadratic_ranged_31_lb: [ 1 x_12_ ^ 2 - 2 x_18_ * x_12_ + 1 x_18_ ^ 2 + 1 y_12_ ^ 2 - 2 y_18_ * y_12_ + 1 y_18_ ^ 2 ] >= 18701.1
quadratic_ranged_32_lb: [ 1 x_16_ ^ 2 - 2 x_18_ * x_16_ + 1 x_18_ ^ 2 + 1 y_16_ ^ 2 - 2 y_18_ * y_16_ + 1 y_18_ ^ 2 ] >= 2360.16
quadratic_ranged_33_lb: [ 1 x_5_ ^ 2 - 2 x_19_ * x_5_ + 1 x_19_ ^ 2 + 1 y_5_ ^ 2 - 2 y_19_ * y_5_ + 1 y_19_ ^ 2 ] >= 1608.75
quadratic_ranged_34_lb: [ 1 x_19_ ^ 2 - 2 x_20_ * x_19_ + 1 x_20_ ^ 2 + 1 y_19_ ^ 2 - 2 y_20_ * y_19_ + 1 y_20_ ^ 2 ] >= 22038.39
quadratic_ranged_35_lb: [ 1 x_9_ ^ 2 - 2 x_21_ * x_9_ + 1 x_21_ ^ 2 + 1 y_9_ ^ 2 - 2 y_21_ * y_9_ + 1 y_21_ ^ 2 ] >= 19706.94
quadratic_ranged_36_lb: [ 1 x_13_ ^ 2 - 2 x_21_ * x_13_ + 1 x_21_ ^ 2 + 1 y_13_ ^ 2 - 2 y_21_ * y_13_ + 1 y_21_ ^ 2 ] >= 19001.07
quadratic_ranged_37_lb: [ 1 x_19_ ^ 2 - 2 x_21_ * x_19_ + 1 x_21_ ^ 2 + 1 y_19_ ^ 2 - 2 y_21_ * y_19_ + 1 y_21_ ^ 2 ] >= 33.66
quadratic_ranged_38_lb: [ 1 x_10_ ^ 2 - 2 x_22_ * x_10_ + 1 x_22_ ^ 2 + 1 y_10_ ^ 2 - 2 y_22_ * y_10_ + 1 y_22_ ^ 2 ] >= 7533.9
quadratic_ranged_39_lb: [ 1 x_20_ ^ 2 - 2 x_22_ * x_20_ + 1 x_22_ ^ 2 + 1 y_20_ ^ 2 - 2 y_22_ * y_20_ + 1 y_22_ ^ 2 ] >= 2890.8
quadratic_ranged_40_lb: [ 1 x_15_ ^ 2 - 2 x_23_ * x_15_ + 1 x_23_ ^ 2 + 1 y_15_ ^ 2 - 2 y_23_ * y_15_ + 1 y_23_ ^ 2 ] >= 21916.62
quadratic_ranged_41_lb: [ 1 x_21_ ^ 2 - 2 x_23_ * x_21_ + 1 x_23_ ^ 2 + 1 y_21_ ^ 2 - 2 y_23_ * y_21_ + 1 y_23_ ^ 2 ] >= 11581.02
quadratic_ranged_42_lb: [ 1 x_4_ ^ 2 - 2 x_24_ * x_4_ + 1 x_24_ ^ 2 + 1 y_4_ ^ 2 - 2 y_24_ * y_4_ + 1 y_24_ ^ 2 ] >= 31373.1
quadratic_ranged_43_lb: [ 1 x_8_ ^ 2 - 2 x_24_ * x_8_ + 1 x_24_ ^ 2 + 1 y_8_ ^ 2 - 2 y_24_ * y_8_ + 1 y_24_ ^ 2 ] >= 6496.38
quadratic_ranged_44_lb: [ 1 x_20_ ^ 2 - 2 x_24_ * x_20_ + 1 x_24_ ^ 2 + 1 y_20_ ^ 2 - 2 y_24_ * y_20_ + 1 y_24_ ^ 2 ] >= 37289.34
quadratic_ranged_45_lb: [ 1 x_17_ ^ 2 - 2 x_25_ * x_17_ + 1 x_25_ ^ 2 + 1 y_17_ ^ 2 - 2 y_25_ * y_17_ + 1 y_25_ ^ 2 ] >= 9132.75
quadratic_ranged_46_lb: [ 1 x_18_ ^ 2 - 2 x_25_ * x_18_ + 1 x_25_ ^ 2 + 1 y_18_ ^ 2 - 2 y_25_ * y_18_ + 1 y_25_ ^ 2 ] >= 6241.95
quadratic_ranged_47_lb: [ 1 x_6_ ^ 2 - 2 x_26_ * x_6_ + 1 x_26_ ^ 2 + 1 y_6_ ^ 2 - 2 y_26_ * y_6_ + 1 y_26_ ^ 2 ] >= 31724.55
quadratic_ranged_48_lb: [ 1 x_12_ ^ 2 - 2 x_26_ * x_12_ + 1 x_26_ ^ 2 + 1 y_12_ ^ 2 - 2 y_26_ * y_12_ + 1 y_26_ ^ 2 ] >= 16549.829999999998
quadratic_ranged_49_lb: [ 1 x_11_ ^ 2 - 2 x_27_ * x_11_ + 1 x_27_ ^ 2 + 1 y_11_ ^ 2 - 2 y_27_ * y_11_ + 1 y_27_ ^ 2 ] >= 10384.11
quadratic_ranged_50_lb: [ 1 x_25_ ^ 2 - 2 x_27_ * x_25_ + 1 x_27_ ^ 2 + 1 y_25_ ^ 2 - 2 y_27_ * y_25_ + 1 y_27_ ^ 2 ] >= 7607.16
quadratic_ranged_51_lb: [ 1 x_3_ ^ 2 - 2 x_28_ * x_3_ + 1 x_28_ ^ 2 + 1 y_3_ ^ 2 - 2 y_28_ * y_3_ + 1 y_28_ ^ 2 ] >= 19404.99
quadratic_ranged_52_lb: [ 1 x_15_ ^ 2 - 2 x_28_ * x_15_ + 1 x_28_ ^ 2 + 1 y_15_ ^ 2 - 2 y_28_ * y_15_ + 1 y_28_ ^ 2 ] >= 15778.619999999999
quadratic_ranged_53_lb: [ 1 x_20_ ^ 2 - 2 x_28_ * x_20_ + 1 x_28_ ^ 2 + 1 y_20_ ^ 2 - 2 y_28_ * y_20_ + 1 y_28_ ^ 2 ] >= 6344.91
c1_1: 1 x_19_ = 0
c2_1: 1 y_19_ = 0
Bounds
-264 <= x_1_ <= 264
-195 <= x_2_ <= 195
-323 <= x_3_ <= 323
-200 <= x_4_ <= 200
-40 <= x_5_ <= 40
-183 <= x_6_ <= 183
-240 <= x_7_ <= 240
-102 <= x_8_ <= 102
-147 <= x_9_ <= 147
-239 <= x_10_ <= 239
-221 <= x_11_ <= 221
-123 <= x_12_ <= 123
-145 <= x_13_ <= 145
-255 <= x_14_ <= 255
-170 <= x_15_ <= 170
-281 <= x_16_ <= 281
-187 <= x_17_ <= 187
-261 <= x_18_ <= 261
x_19_ = 0
-149 <= x_20_ <= 149
-5 <= x_21_ <= 5
-204 <= x_22_ <= 204
-114 <= x_23_ <= 114
-183 <= x_24_ <= 183
-284 <= x_25_ <= 284
-253 <= x_26_ <= 253
-324 <= x_27_ <= 324
-230 <= x_28_ <= 230
-264 <= y_1_ <= 264
-195 <= y_2_ <= 195
-323 <= y_3_ <= 323
-200 <= y_4_ <= 200
-40 <= y_5_ <= 40
-183 <= y_6_ <= 183
-240 <= y_7_ <= 240
-102 <= y_8_ <= 102
-147 <= y_9_ <= 147
-239 <= y_10_ <= 239
-221 <= y_11_ <= 221
-123 <= y_12_ <= 123
-145 <= y_13_ <= 145
-255 <= y_14_ <= 255
-170 <= y_15_ <= 170
-281 <= y_16_ <= 281
-187 <= y_17_ <= 187
-261 <= y_18_ <= 261
y_19_ = 0
-149 <= y_20_ <= 149
-5 <= y_21_ <= 5
-204 <= y_22_ <= 204
-114 <= y_23_ <= 114
-183 <= y_24_ <= 183
-284 <= y_25_ <= 284
-253 <= y_26_ <= 253
-324 <= y_27_ <= 324
-230 <= y_28_ <= 230
General
x_1_
x_2_
x_3_
x_4_
x_5_
x_6_
x_7_
x_8_
x_9_
x_10_
x_11_
x_12_
x_13_
x_14_
x_15_
x_16_
x_17_
x_18_
x_19_
x_20_
x_21_
x_22_
x_23_
x_24_
x_25_
x_26_
x_27_
x_28_
y_1_
y_2_
y_3_
y_4_
y_5_
y_6_
y_7_
y_8_
y_9_
y_10_
y_11_
y_12_
y_13_
y_14_
y_15_
y_16_
y_17_
y_18_
y_19_
y_20_
y_21_
y_22_
y_23_
y_24_
y_25_
y_26_
y_27_
y_28_
End
