minimize
obj: 
subject to
c1_1: -8 x_1_ + 128 y_1_ + [ 1 x_1_ ^ 2 + 1 y_1_ ^ 2 ] <= 116902
c2_1: -8 x_2_ + 128 y_2_ + [ 1 x_2_ ^ 2 + 1 y_2_ ^ 2 ] <= 126076
c3_1: -8 x_3_ + 128 y_3_ + [ 1 x_3_ ^ 2 + 1 y_3_ ^ 2 ] <= 74658
c4_1: -8 x_4_ + 128 y_4_ + [ 1 x_4_ ^ 2 + 1 y_4_ ^ 2 ] <= 96240
c5_1: -8 x_5_ + 128 y_5_ + [ 1 x_5_ ^ 2 + 1 y_5_ ^ 2 ] <= 33409
c6_1: -8 x_6_ + 128 y_6_ + [ 1 x_6_ ^ 2 + 1 y_6_ ^ 2 ] <= -940
c7_1: -8 x_8_ + 128 y_8_ + [ 1 x_8_ ^ 2 + 1 y_8_ ^ 2 ] <= 5952
c8_1: -8 x_9_ + 128 y_9_ + [ 1 x_9_ ^ 2 + 1 y_9_ ^ 2 ] <= 14122
c9_1: -8 x_10_ + 128 y_10_ + [ 1 x_10_ ^ 2 + 1 y_10_ ^ 2 ] <= 60275
c10_1: -8 x_11_ + 128 y_11_ + [ 1 x_11_ ^ 2 + 1 y_11_ ^ 2 ] <= 141203
c11_1: -8 x_12_ + 128 y_12_ + [ 1 x_12_ ^ 2 + 1 y_12_ ^ 2 ] <= 116753
c12_1: -8 x_13_ + 128 y_13_ + [ 1 x_13_ ^ 2 + 1 y_13_ ^ 2 ] <= 77681
c13_1: -8 x_14_ + 128 y_14_ + [ 1 x_14_ ^ 2 + 1 y_14_ ^ 2 ] <= 101355
c14_1: -8 x_15_ + 128 y_15_ + [ 1 x_15_ ^ 2 + 1 y_15_ ^ 2 ] <= 52266
c15_1: -8 x_16_ + 128 y_16_ + [ 1 x_16_ ^ 2 + 1 y_16_ ^ 2 ] <= 169255
c16_1: -8 x_17_ + 128 y_17_ + [ 1 x_17_ ^ 2 + 1 y_17_ ^ 2 ] <= 59879
c17_1: -8 x_18_ + 128 y_18_ + [ 1 x_18_ ^ 2 + 1 y_18_ ^ 2 ] <= 45300
c18_1: -8 x_19_ + 128 y_19_ + [ 1 x_19_ ^ 2 + 1 y_19_ ^ 2 ] <= 6484
c19_1: -8 x_20_ + 128 y_20_ + [ 1 x_20_ ^ 2 + 1 y_20_ ^ 2 ] <= 26645
c20_1: -8 x_21_ + 128 y_21_ + [ 1 x_21_ ^ 2 + 1 y_21_ ^ 2 ] <= 8601
c21_1: -8 x_22_ + 128 y_22_ + [ 1 x_22_ ^ 2 + 1 y_22_ ^ 2 ] <= 12777
c22_1: -8 x_23_ + 128 y_23_ + [ 1 x_23_ ^ 2 + 1 y_23_ ^ 2 ] <= 37610
c23_1: -8 x_24_ + 128 y_24_ + [ 1 x_24_ ^ 2 + 1 y_24_ ^ 2 ] <= 81476
c24_1: -8 x_25_ + 128 y_25_ + [ 1 x_25_ ^ 2 + 1 y_25_ ^ 2 ] <= 123601
c25_1: -8 x_26_ + 128 y_26_ + [ 1 x_26_ ^ 2 + 1 y_26_ ^ 2 ] <= 36489
c26_1: -192 x_1_ - 148 y_1_ + [ 1 x_1_ ^ 2 + 1 y_1_ ^ 2 ] <= -9924
c27_1: -192 x_3_ - 148 y_3_ + [ 1 x_3_ ^ 2 + 1 y_3_ ^ 2 ] <= -8267
c28_1: -192 x_4_ - 148 y_4_ + [ 1 x_4_ ^ 2 + 1 y_4_ ^ 2 ] <= 42989
c29_1: -192 x_5_ - 148 y_5_ + [ 1 x_5_ ^ 2 + 1 y_5_ ^ 2 ] <= 117258
c30_1: -192 x_6_ - 148 y_6_ + [ 1 x_6_ ^ 2 + 1 y_6_ ^ 2 ] <= 159311
c31_1: -192 x_7_ - 148 y_7_ + [ 1 x_7_ ^ 2 + 1 y_7_ ^ 2 ] <= 115496
c32_1: -192 x_8_ - 148 y_8_ + [ 1 x_8_ ^ 2 + 1 y_8_ ^ 2 ] <= 85545
c33_1: -192 x_9_ - 148 y_9_ + [ 1 x_9_ ^ 2 + 1 y_9_ ^ 2 ] <= 108730
c34_1: -192 x_10_ - 148 y_10_ + [ 1 x_10_ ^ 2 + 1 y_10_ ^ 2 ] <= 178562
c35_1: -192 x_11_ - 148 y_11_ + [ 1 x_11_ ^ 2 + 1 y_11_ ^ 2 ] <= 193072
c36_1: -192 x_12_ - 148 y_12_ + [ 1 x_12_ ^ 2 + 1 y_12_ ^ 2 ] <= 104815
c37_1: -192 x_13_ - 148 y_13_ + [ 1 x_13_ ^ 2 + 1 y_13_ ^ 2 ] <= 151249
c38_1: -192 x_14_ - 148 y_14_ + [ 1 x_14_ ^ 2 + 1 y_14_ ^ 2 ] <= 89644
c39_1: -192 x_15_ - 148 y_15_ + [ 1 x_15_ ^ 2 + 1 y_15_ ^ 2 ] <= 105027
c40_1: -192 x_16_ - 148 y_16_ + [ 1 x_16_ ^ 2 + 1 y_16_ ^ 2 ] <= 13221
c41_1: -192 x_17_ - 148 y_17_ + [ 1 x_17_ ^ 2 + 1 y_17_ ^ 2 ] <= 27440
c42: -192 x_18_ - 148 y_18_ + [ 1 x_18_ ^ 2 + 1 y_18_ ^ 2 ] <= 15788
c43: -192 x_19_ - 148 y_19_ + [ 1 x_19_ ^ 2 + 1 y_19_ ^ 2 ] <= 124965
c44: -192 x_20_ - 148 y_20_ + [ 1 x_20_ ^ 2 + 1 y_20_ ^ 2 ] <= 81836
c45: -192 x_21_ - 148 y_21_ + [ 1 x_21_ ^ 2 + 1 y_21_ ^ 2 ] <= 46844
c46: -192 x_22_ - 148 y_22_ + [ 1 x_22_ ^ 2 + 1 y_22_ ^ 2 ] <= 38604
c47: -192 x_23_ - 148 y_23_ + [ 1 x_23_ ^ 2 + 1 y_23_ ^ 2 ] <= 9818
c48: -192 x_24_ - 148 y_24_ + [ 1 x_24_ ^ 2 + 1 y_24_ ^ 2 ] <= 45260
c49: -192 x_25_ - 148 y_25_ + [ 1 x_25_ ^ 2 + 1 y_25_ ^ 2 ] <= 109028
c50: -192 x_26_ - 148 y_26_ + [ 1 x_26_ ^ 2 + 1 y_26_ ^ 2 ] <= 31715
c51: -30 x_1_ + 196 y_1_ + [ 1 x_1_ ^ 2 + 1 y_1_ ^ 2 ] <= 186206
c52: -30 x_2_ + 196 y_2_ + [ 1 x_2_ ^ 2 + 1 y_2_ ^ 2 ] <= 129828
c53: -30 x_3_ + 196 y_3_ + [ 1 x_3_ ^ 2 + 1 y_3_ ^ 2 ] <= 76343
c54: -30 x_4_ + 196 y_4_ + [ 1 x_4_ ^ 2 + 1 y_4_ ^ 2 ] <= 84469
c55: -30 x_5_ + 196 y_5_ + [ 1 x_5_ ^ 2 + 1 y_5_ ^ 2 ] <= 24026
c56: -30 x_6_ + 196 y_6_ + [ 1 x_6_ ^ 2 + 1 y_6_ ^ 2 ] <= -7656
c57: -30 x_7_ + 196 y_7_ + [ 1 x_7_ ^ 2 + 1 y_7_ ^ 2 ] <= 767
c58: -30 x_8_ + 196 y_8_ + [ 1 x_8_ ^ 2 + 1 y_8_ ^ 2 ] <= 31484
c59: -30 x_9_ + 196 y_9_ + [ 1 x_9_ ^ 2 + 1 y_9_ ^ 2 ] <= 26379
c60: -30 x_10_ + 196 y_10_ + [ 1 x_10_ ^ 2 + 1 y_10_ ^ 2 ] <= 85651
c61: -30 x_11_ + 196 y_11_ + [ 1 x_11_ ^ 2 + 1 y_11_ ^ 2 ] <= 180664
c62: -30 x_12_ + 196 y_12_ + [ 1 x_12_ ^ 2 + 1 y_12_ ^ 2 ] <= 132336
c63: -30 x_13_ + 196 y_13_ + [ 1 x_13_ ^ 2 + 1 y_13_ ^ 2 ] <= 106621
c64: -30 x_14_ + 196 y_14_ + [ 1 x_14_ ^ 2 + 1 y_14_ ^ 2 ] <= 89428
c65: -30 x_15_ + 196 y_15_ + [ 1 x_15_ ^ 2 + 1 y_15_ ^ 2 ] <= 42035
c66: -30 x_16_ + 196 y_16_ + [ 1 x_16_ ^ 2 + 1 y_16_ ^ 2 ] <= 155551
c67: -30 x_17_ + 196 y_17_ + [ 1 x_17_ ^ 2 + 1 y_17_ ^ 2 ] <= 42978
c68: -30 x_18_ + 196 y_18_ + [ 1 x_18_ ^ 2 + 1 y_18_ ^ 2 ] <= 29821
c69: -30 x_20_ + 196 y_20_ + [ 1 x_20_ ^ 2 + 1 y_20_ ^ 2 ] <= -1899
c70: -30 x_21_ + 196 y_21_ + [ 1 x_21_ ^ 2 + 1 y_21_ ^ 2 ] <= 13177
c71: -30 x_22_ + 196 y_22_ + [ 1 x_22_ ^ 2 + 1 y_22_ ^ 2 ] <= 15835
c72: -30 x_23_ + 196 y_23_ + [ 1 x_23_ ^ 2 + 1 y_23_ ^ 2 ] <= 37325
c73: -30 x_24_ + 196 y_24_ + [ 1 x_24_ ^ 2 + 1 y_24_ ^ 2 ] <= 66458
c74: -30 x_25_ + 196 y_25_ + [ 1 x_25_ ^ 2 + 1 y_25_ ^ 2 ] <= 136928
c75: -30 x_26_ + 196 y_26_ + [ 1 x_26_ ^ 2 + 1 y_26_ ^ 2 ] <= 82851
c1_2: 1 x_7_ = 4
c2_2: 1 y_7_ = -64
c3_2: 1 x_2_ = 96
c4_2: 1 y_2_ = 74
c5_2: 1 x_19_ = 15
c6_2: 1 y_19_ = -98
c1: [ 1 x_1_ ^ 2 - 2 x_2_ * x_1_ + 1 x_2_ ^ 2 + 1 y_1_ ^ 2 - 2 y_2_ * y_1_ + 1 y_2_ ^ 2 ] = 4768
c2: [ 1 x_2_ ^ 2 - 2 x_3_ * x_2_ + 1 x_3_ ^ 2 + 1 y_2_ ^ 2 - 2 y_3_ * y_2_ + 1 y_3_ ^ 2 ] = 6425
c3: [ 1 x_3_ ^ 2 - 2 x_4_ * x_3_ + 1 x_4_ ^ 2 + 1 y_3_ ^ 2 - 2 y_4_ * y_3_ + 1 y_4_ ^ 2 ] = 25604
c4: [ 1 x_4_ ^ 2 - 2 x_5_ * x_4_ + 1 x_5_ ^ 2 + 1 y_4_ ^ 2 - 2 y_5_ * y_4_ + 1 y_5_ ^ 2 ] = 15149
c5: [ 1 x_5_ ^ 2 - 2 x_6_ * x_5_ + 1 x_6_ ^ 2 + 1 y_5_ ^ 2 - 2 y_6_ * y_5_ + 1 y_6_ ^ 2 ] = 18874
c6: [ 1 x_6_ ^ 2 - 2 x_7_ * x_6_ + 1 x_7_ ^ 2 + 1 y_6_ ^ 2 - 2 y_7_ * y_6_ + 1 y_7_ ^ 2 ] = 3172
c7: [ 1 x_7_ ^ 2 - 2 x_8_ * x_7_ + 1 x_8_ ^ 2 + 1 y_7_ ^ 2 - 2 y_8_ * y_7_ + 1 y_8_ ^ 2 ] = 10064
c8: [ 1 x_6_ ^ 2 - 2 x_9_ * x_6_ + 1 x_9_ ^ 2 + 1 y_6_ ^ 2 - 2 y_9_ * y_6_ + 1 y_9_ ^ 2 ] = 20641
c9: [ 1 x_8_ ^ 2 - 2 x_9_ * x_8_ + 1 x_9_ ^ 2 + 1 y_8_ ^ 2 - 2 y_9_ * y_8_ + 1 y_9_ ^ 2 ] = 1205
c10: [ 1 x_9_ ^ 2 - 2 x_10_ * x_9_ + 1 x_10_ ^ 2 + 1 y_9_ ^ 2 - 2 y_10_ * y_9_ + 1 y_10_ ^ 2 ] = 14093
c11: [ 1 x_10_ ^ 2 - 2 x_11_ * x_10_ + 1 x_11_ ^ 2 + 1 y_10_ ^ 2 - 2 y_11_ * y_10_ + 1 y_11_ ^ 2 ] = 16245
c12: [ 1 x_11_ ^ 2 - 2 x_12_ * x_11_ + 1 x_12_ ^ 2 + 1 y_11_ ^ 2 - 2 y_12_ * y_11_ + 1 y_12_ ^ 2 ] = 12125
c13: [ 1 x_10_ ^ 2 - 2 x_13_ * x_10_ + 1 x_13_ ^ 2 + 1 y_10_ ^ 2 - 2 y_13_ * y_10_ + 1 y_13_ ^ 2 ] = 1040
c14: [ 1 x_12_ ^ 2 - 2 x_13_ * x_12_ + 1 x_13_ ^ 2 + 1 y_12_ ^ 2 - 2 y_13_ * y_12_ + 1 y_13_ ^ 2 ] = 3802
c15: [ 1 x_13_ ^ 2 - 2 x_14_ * x_13_ + 1 x_14_ ^ 2 + 1 y_13_ ^ 2 - 2 y_14_ * y_13_ + 1 y_14_ ^ 2 ] = 11449
c16: [ 1 x_5_ ^ 2 - 2 x_15_ * x_5_ + 1 x_15_ ^ 2 + 1 y_5_ ^ 2 - 2 y_15_ * y_5_ + 1 y_15_ ^ 2 ] = 1913
c17: [ 1 x_14_ ^ 2 - 2 x_15_ * x_14_ + 1 x_15_ ^ 2 + 1 y_14_ ^ 2 - 2 y_15_ * y_14_ + 1 y_15_ ^ 2 ] = 7624
c18: [ 1 x_1_ ^ 2 - 2 x_16_ * x_1_ + 1 x_16_ ^ 2 + 1 y_1_ ^ 2 - 2 y_16_ * y_1_ + 1 y_16_ ^ 2 ] = 9608
c19: [ 1 x_15_ ^ 2 - 2 x_16_ * x_15_ + 1 x_16_ ^ 2 + 1 y_15_ ^ 2 - 2 y_16_ * y_15_ + 1 y_16_ ^ 2 ] = 32017
c20: [ 1 x_16_ ^ 2 - 2 x_17_ * x_16_ + 1 x_17_ ^ 2 + 1 y_16_ ^ 2 - 2 y_17_ * y_16_ + 1 y_17_ ^ 2 ] = 66266
c21: [ 1 x_17_ ^ 2 - 2 x_18_ * x_17_ + 1 x_18_ ^ 2 + 1 y_17_ ^ 2 - 2 y_18_ * y_17_ + 1 y_18_ ^ 2 ] = 941
c22: [ 1 x_6_ ^ 2 - 2 x_19_ * x_6_ + 1 x_19_ ^ 2 + 1 y_6_ ^ 2 - 2 y_19_ * y_6_ + 1 y_19_ ^ 2 ] = 2173
c23: [ 1 x_18_ ^ 2 - 2 x_19_ * x_18_ + 1 x_19_ ^ 2 + 1 y_18_ ^ 2 - 2 y_19_ * y_18_ + 1 y_19_ ^ 2 ] = 39650
c24: [ 1 x_19_ ^ 2 - 2 x_20_ * x_19_ + 1 x_20_ ^ 2 + 1 y_19_ ^ 2 - 2 y_20_ * y_19_ + 1 y_20_ ^ 2 ] = 7930
c25: [ 1 x_7_ ^ 2 - 2 x_21_ * x_7_ + 1 x_21_ ^ 2 + 1 y_7_ ^ 2 - 2 y_21_ * y_7_ + 1 y_21_ ^ 2 ] = 12713
c26: [ 1 x_20_ ^ 2 - 2 x_21_ * x_20_ + 1 x_21_ ^ 2 + 1 y_20_ ^ 2 - 2 y_21_ * y_20_ + 1 y_21_ ^ 2 ] = 3922
c27: [ 1 x_19_ ^ 2 - 2 x_22_ * x_19_ + 1 x_22_ ^ 2 + 1 y_19_ ^ 2 - 2 y_22_ * y_19_ + 1 y_22_ ^ 2 ] = 25664
c28: [ 1 x_21_ ^ 2 - 2 x_22_ * x_21_ + 1 x_22_ ^ 2 + 1 y_21_ ^ 2 - 2 y_22_ * y_21_ + 1 y_22_ ^ 2 ] = 296
c29: [ 1 x_3_ ^ 2 - 2 x_23_ * x_3_ + 1 x_23_ ^ 2 + 1 y_3_ ^ 2 - 2 y_23_ * y_3_ + 1 y_23_ ^ 2 ] = 5837
c30: [ 1 x_16_ ^ 2 - 2 x_23_ * x_16_ + 1 x_23_ ^ 2 + 1 y_16_ ^ 2 - 2 y_23_ * y_16_ + 1 y_23_ ^ 2 ] = 55700
c31: [ 1 x_18_ ^ 2 - 2 x_23_ * x_18_ + 1 x_23_ ^ 2 + 1 y_18_ ^ 2 - 2 y_23_ * y_18_ + 1 y_23_ ^ 2 ] = 325
c32: [ 1 x_22_ ^ 2 - 2 x_23_ * x_22_ + 1 x_23_ ^ 2 + 1 y_22_ ^ 2 - 2 y_23_ * y_22_ + 1 y_23_ ^ 2 ] = 5521
c33: [ 1 x_12_ ^ 2 - 2 x_24_ * x_12_ + 1 x_24_ ^ 2 + 1 y_12_ ^ 2 - 2 y_24_ * y_12_ + 1 y_24_ ^ 2 ] = 10170
c34: [ 1 x_14_ ^ 2 - 2 x_24_ * x_14_ + 1 x_24_ ^ 2 + 1 y_14_ ^ 2 - 2 y_24_ * y_14_ + 1 y_24_ ^ 2 ] = 6109
c35: [ 1 x_16_ ^ 2 - 2 x_24_ * x_16_ + 1 x_24_ ^ 2 + 1 y_16_ ^ 2 - 2 y_24_ * y_16_ + 1 y_24_ ^ 2 ] = 25216
c36: [ 1 x_18_ ^ 2 - 2 x_24_ * x_18_ + 1 x_24_ ^ 2 + 1 y_18_ ^ 2 - 2 y_24_ * y_18_ + 1 y_24_ ^ 2 ] = 5941
c37: [ 1 x_23_ ^ 2 - 2 x_24_ * x_23_ + 1 x_24_ ^ 2 + 1 y_23_ ^ 2 - 2 y_24_ * y_23_ + 1 y_24_ ^ 2 ] = 7796
c38: [ 1 x_24_ ^ 2 - 2 x_25_ * x_24_ + 1 x_25_ ^ 2 + 1 y_24_ ^ 2 - 2 y_25_ * y_24_ + 1 y_25_ ^ 2 ] = 11425
c39: [ 1 x_1_ ^ 2 - 2 x_26_ * x_1_ + 1 x_26_ ^ 2 + 1 y_1_ ^ 2 - 2 y_26_ * y_1_ + 1 y_26_ ^ 2 ] = 21425
c40: [ 1 x_8_ ^ 2 - 2 x_26_ * x_8_ + 1 x_26_ ^ 2 + 1 y_8_ ^ 2 - 2 y_26_ * y_8_ + 1 y_26_ ^ 2 ] = 10237
c41: [ 1 x_25_ ^ 2 - 2 x_26_ * x_25_ + 1 x_26_ ^ 2 + 1 y_25_ ^ 2 - 2 y_26_ * y_25_ + 1 y_26_ ^ 2 ] = 24296
Bounds
27 <= x_1_ <= 165
x_2_ = 96
16 <= x_3_ <= 176
-144 <= x_4_ <= 320
-168 <= x_5_ <= 197
-31 <= x_6_ <= 60
x_7_ = 4
-96 <= x_8_ <= 104
-131 <= x_9_ <= 139
-249 <= x_10_ <= 257
-359 <= x_11_ <= 385
-249 <= x_12_ <= 351
-281 <= x_13_ <= 289
-227 <= x_14_ <= 328
-212 <= x_15_ <= 241
-71 <= x_16_ <= 263
-109 <= x_17_ <= 244
-78 <= x_18_ <= 214
x_19_ = 15
-74 <= x_20_ <= 104
-108 <= x_21_ <= 116
-125 <= x_22_ <= 133
-60 <= x_23_ <= 208
-148 <= x_24_ <= 291
-255 <= x_25_ <= 361
-119 <= x_26_ <= 205
5 <= y_1_ <= 143
y_2_ = 74
-6 <= y_3_ <= 154
-166 <= y_4_ <= 209
-257 <= y_5_ <= 85
-120 <= y_6_ <= -52
y_7_ = -64
-164 <= y_8_ <= 36
-199 <= y_9_ <= 71
-317 <= y_10_ <= 189
-381 <= y_11_ <= 317
-271 <= y_12_ <= 279
-333 <= y_13_ <= 221
-249 <= y_14_ <= 217
-272 <= y_15_ <= 129
-93 <= y_16_ <= 241
-131 <= y_17_ <= 131
-100 <= y_18_ <= 101
y_19_ = -98
-187 <= y_20_ <= -9
-174 <= y_21_ <= 48
-156 <= y_22_ <= 62
-82 <= y_23_ <= 119
-170 <= y_24_ <= 178
-277 <= y_25_ <= 285
-141 <= y_26_ <= 137
General
x_1_
x_2_
x_3_
x_4_
x_5_
x_6_
x_7_
x_8_
x_9_
x_10_
x_11_
x_12_
x_13_
x_14_
x_15_
x_16_
x_17_
x_18_
x_19_
x_20_
x_21_
x_22_
x_23_
x_24_
x_25_
x_26_
y_1_
y_2_
y_3_
y_4_
y_5_
y_6_
y_7_
y_8_
y_9_
y_10_
y_11_
y_12_
y_13_
y_14_
y_15_
y_16_
y_17_
y_18_
y_19_
y_20_
y_21_
y_22_
y_23_
y_24_
y_25_
y_26_
End
