minimize
obj: 
subject to
c1_4: -1 x_1_ + 1 y_1_ <= 0
c1_1: [ 1 x_1_ ^ 2 + 1 y_1_ ^ 2 ] <= 108193
c2_1: [ 1 x_3_ ^ 2 + 1 y_3_ ^ 2 ] <= 30589
c3_1: [ 1 x_4_ ^ 2 + 1 y_4_ ^ 2 ] <= 13595
c4_1: [ 1 x_5_ ^ 2 + 1 y_5_ ^ 2 ] <= 84832
c5_1: [ 1 x_6_ ^ 2 + 1 y_6_ ^ 2 ] <= 26507
c6_1: [ 1 x_7_ ^ 2 + 1 y_7_ ^ 2 ] <= 72226
c7_1: [ 1 x_8_ ^ 2 + 1 y_8_ ^ 2 ] <= 9700
c8_1: [ 1 x_9_ ^ 2 + 1 y_9_ ^ 2 ] <= 32838
c9_1: [ 1 x_10_ ^ 2 + 1 y_10_ ^ 2 ] <= 82601
c10_1: [ 1 x_11_ ^ 2 + 1 y_11_ ^ 2 ] <= 28705
c11_1: [ 1 x_12_ ^ 2 + 1 y_12_ ^ 2 ] <= 46035
c12_1: [ 1 x_13_ ^ 2 + 1 y_13_ ^ 2 ] <= 16592
c13_1: [ 1 x_14_ ^ 2 + 1 y_14_ ^ 2 ] <= 38994
c14_1: [ 1 x_15_ ^ 2 + 1 y_15_ ^ 2 ] <= 56422
c15_1: [ 1 x_16_ ^ 2 + 1 y_16_ ^ 2 ] <= 18704
c16_1: [ 1 x_17_ ^ 2 + 1 y_17_ ^ 2 ] <= 50558
c17_1: [ 1 x_18_ ^ 2 + 1 y_18_ ^ 2 ] <= 53692
c18_1: [ 1 x_19_ ^ 2 + 1 y_19_ ^ 2 ] <= 69095
c19_1: [ 1 x_20_ ^ 2 + 1 y_20_ ^ 2 ] <= 69438
c20_1: [ 1 x_21_ ^ 2 + 1 y_21_ ^ 2 ] <= 54300
c21_1: [ 1 x_22_ ^ 2 + 1 y_22_ ^ 2 ] <= 22802
c22_1: [ 1 x_23_ ^ 2 + 1 y_23_ ^ 2 ] <= 97432
c23_1: [ 1 x_24_ ^ 2 + 1 y_24_ ^ 2 ] <= 33473
c24_1: [ 1 x_25_ ^ 2 + 1 y_25_ ^ 2 ] <= 37103
c25_1: [ 1 x_26_ ^ 2 + 1 y_26_ ^ 2 ] <= 81653
c1_3: 1 x_1_ >= 0
c2_3: 1 y_1_ >= 0
c1_2: 1 x_2_ = 0
c2_2: 1 y_2_ = 0
c1: [ 1 x_1_ ^ 2 - 2 x_3_ * x_1_ + 1 x_3_ ^ 2 + 1 y_1_ ^ 2 - 2 y_3_ * y_1_ + 1 y_3_ ^ 2 ] = 23725
c2: [ 1 x_2_ ^ 2 - 2 x_3_ * x_2_ + 1 x_3_ ^ 2 + 1 y_2_ ^ 2 - 2 y_3_ * y_2_ + 1 y_3_ ^ 2 ] = 30589
c3: [ 1 x_3_ ^ 2 - 2 x_4_ * x_3_ + 1 x_4_ ^ 2 + 1 y_3_ ^ 2 - 2 y_4_ * y_3_ + 1 y_4_ ^ 2 ] = 20565
c4: [ 1 x_3_ ^ 2 - 2 x_5_ * x_3_ + 1 x_5_ ^ 2 + 1 y_3_ ^ 2 - 2 y_5_ * y_3_ + 1 y_5_ ^ 2 ] = 13540
c5: [ 1 x_1_ ^ 2 - 2 x_6_ * x_1_ + 1 x_6_ ^ 2 + 1 y_1_ ^ 2 - 2 y_6_ * y_1_ + 1 y_6_ ^ 2 ] = 34432
c6: [ 1 x_5_ ^ 2 - 2 x_7_ * x_5_ + 1 x_7_ ^ 2 + 1 y_5_ ^ 2 - 2 y_7_ * y_5_ + 1 y_7_ ^ 2 ] = 18729
c7: [ 1 x_2_ ^ 2 - 2 x_8_ * x_2_ + 1 x_8_ ^ 2 + 1 y_2_ ^ 2 - 2 y_8_ * y_2_ + 1 y_8_ ^ 2 ] = 9700
c8: [ 1 x_4_ ^ 2 - 2 x_8_ * x_4_ + 1 x_8_ ^ 2 + 1 y_4_ ^ 2 - 2 y_8_ * y_4_ + 1 y_8_ ^ 2 ] = 328
c9: [ 1 x_6_ ^ 2 - 2 x_9_ * x_6_ + 1 x_9_ ^ 2 + 1 y_6_ ^ 2 - 2 y_9_ * y_6_ + 1 y_9_ ^ 2 ] = 4754
c10: [ 1 x_6_ ^ 2 - 2 x_10_ * x_6_ + 1 x_10_ ^ 2 + 1 y_6_ ^ 2 - 2 y_10_ * y_6_ + 1 y_10_ ^ 2 ] = 28541
c11: [ 1 x_8_ ^ 2 - 2 x_10_ * x_8_ + 1 x_10_ ^ 2 + 1 y_8_ ^ 2 - 2 y_10_ * y_8_ + 1 y_10_ ^ 2 ] = 35689
c12: [ 1 x_1_ ^ 2 - 2 x_11_ * x_1_ + 1 x_11_ ^ 2 + 1 y_1_ ^ 2 - 2 y_11_ * y_1_ + 1 y_11_ ^ 2 ] = 33533
c13: [ 1 x_2_ ^ 2 - 2 x_11_ * x_2_ + 1 x_11_ ^ 2 + 1 y_2_ ^ 2 - 2 y_11_ * y_2_ + 1 y_11_ ^ 2 ] = 28705
c14: [ 1 x_3_ ^ 2 - 2 x_12_ * x_3_ + 1 x_12_ ^ 2 + 1 y_3_ ^ 2 - 2 y_12_ * y_3_ + 1 y_12_ ^ 2 ] = 1573
c15: [ 1 x_5_ ^ 2 - 2 x_12_ * x_5_ + 1 x_12_ ^ 2 + 1 y_5_ ^ 2 - 2 y_12_ * y_5_ + 1 y_12_ ^ 2 ] = 10229
c16: [ 1 x_2_ ^ 2 - 2 x_13_ * x_2_ + 1 x_13_ ^ 2 + 1 y_2_ ^ 2 - 2 y_13_ * y_2_ + 1 y_13_ ^ 2 ] = 16592
c17: [ 1 x_6_ ^ 2 - 2 x_13_ * x_6_ + 1 x_13_ ^ 2 + 1 y_6_ ^ 2 - 2 y_13_ * y_6_ + 1 y_13_ ^ 2 ] = 1156
c18: [ 1 x_9_ ^ 2 - 2 x_13_ * x_9_ + 1 x_13_ ^ 2 + 1 y_9_ ^ 2 - 2 y_13_ * y_9_ + 1 y_13_ ^ 2 ] = 2746
c19: [ 1 x_1_ ^ 2 - 2 x_14_ * x_1_ + 1 x_14_ ^ 2 + 1 y_1_ ^ 2 - 2 y_14_ * y_1_ + 1 y_14_ ^ 2 ] = 33633
c20: [ 1 x_7_ ^ 2 - 2 x_14_ * x_7_ + 1 x_14_ ^ 2 + 1 y_7_ ^ 2 - 2 y_14_ * y_7_ + 1 y_14_ ^ 2 ] = 5081
c21: [ 1 x_8_ ^ 2 - 2 x_14_ * x_8_ + 1 x_14_ ^ 2 + 1 y_8_ ^ 2 - 2 y_14_ * y_8_ + 1 y_14_ ^ 2 ] = 9797
c22: [ 1 x_5_ ^ 2 - 2 x_15_ * x_5_ + 1 x_15_ ^ 2 + 1 y_5_ ^ 2 - 2 y_15_ * y_5_ + 1 y_15_ ^ 2 ] = 17053
c23: [ 1 x_9_ ^ 2 - 2 x_15_ * x_9_ + 1 x_15_ ^ 2 + 1 y_9_ ^ 2 - 2 y_15_ * y_9_ + 1 y_15_ ^ 2 ] = 3172
c24: [ 1 x_11_ ^ 2 - 2 x_15_ * x_11_ + 1 x_15_ ^ 2 + 1 y_11_ ^ 2 - 2 y_15_ * y_11_ + 1 y_15_ ^ 2 ] = 5213
c25: [ 1 x_3_ ^ 2 - 2 x_16_ * x_3_ + 1 x_16_ ^ 2 + 1 y_3_ ^ 2 - 2 y_16_ * y_3_ + 1 y_16_ ^ 2 ] = 15354
c26: [ 1 x_8_ ^ 2 - 2 x_16_ * x_8_ + 1 x_16_ ^ 2 + 1 y_8_ ^ 2 - 2 y_16_ * y_8_ + 1 y_16_ ^ 2 ] = 1465
c27: [ 1 x_10_ ^ 2 - 2 x_16_ * x_10_ + 1 x_16_ ^ 2 + 1 y_10_ ^ 2 - 2 y_16_ * y_10_ + 1 y_16_ ^ 2 ] = 25348
c28: [ 1 x_13_ ^ 2 - 2 x_17_ * x_13_ + 1 x_17_ ^ 2 + 1 y_13_ ^ 2 - 2 y_17_ * y_13_ + 1 y_17_ ^ 2 ] = 9224
c29: [ 1 x_14_ ^ 2 - 2 x_17_ * x_14_ + 1 x_17_ ^ 2 + 1 y_14_ ^ 2 - 2 y_17_ * y_14_ + 1 y_17_ ^ 2 ] = 19125
c30: [ 1 x_11_ ^ 2 - 2 x_18_ * x_11_ + 1 x_18_ ^ 2 + 1 y_11_ ^ 2 - 2 y_18_ * y_11_ + 1 y_18_ ^ 2 ] = 3880
c31: [ 1 x_16_ ^ 2 - 2 x_18_ * x_16_ + 1 x_18_ ^ 2 + 1 y_16_ ^ 2 - 2 y_18_ * y_16_ + 1 y_18_ ^ 2 ] = 22888
c32: [ 1 x_1_ ^ 2 - 2 x_19_ * x_1_ + 1 x_19_ ^ 2 + 1 y_1_ ^ 2 - 2 y_19_ * y_1_ + 1 y_19_ ^ 2 ] = 31061
c33: [ 1 x_11_ ^ 2 - 2 x_19_ * x_11_ + 1 x_19_ ^ 2 + 1 y_11_ ^ 2 - 2 y_19_ * y_11_ + 1 y_19_ ^ 2 ] = 8730
c34: [ 1 x_1_ ^ 2 - 2 x_20_ * x_1_ + 1 x_20_ ^ 2 + 1 y_1_ ^ 2 - 2 y_20_ * y_1_ + 1 y_20_ ^ 2 ] = 36945
c35: [ 1 x_5_ ^ 2 - 2 x_20_ * x_5_ + 1 x_20_ ^ 2 + 1 y_5_ ^ 2 - 2 y_20_ * y_5_ + 1 y_20_ ^ 2 ] = 13850
c36: [ 1 x_9_ ^ 2 - 2 x_20_ * x_9_ + 1 x_20_ ^ 2 + 1 y_9_ ^ 2 - 2 y_20_ * y_9_ + 1 y_20_ ^ 2 ] = 6773
c37: [ 1 x_6_ ^ 2 - 2 x_21_ * x_6_ + 1 x_21_ ^ 2 + 1 y_6_ ^ 2 - 2 y_21_ * y_6_ + 1 y_21_ ^ 2 ] = 4930
c38: [ 1 x_10_ ^ 2 - 2 x_21_ * x_10_ + 1 x_21_ ^ 2 + 1 y_10_ ^ 2 - 2 y_21_ * y_10_ + 1 y_21_ ^ 2 ] = 15533
c39: [ 1 x_11_ ^ 2 - 2 x_21_ * x_11_ + 1 x_21_ ^ 2 + 1 y_11_ ^ 2 - 2 y_21_ * y_11_ + 1 y_21_ ^ 2 ] = 4993
c40: [ 1 x_2_ ^ 2 - 2 x_22_ * x_2_ + 1 x_22_ ^ 2 + 1 y_2_ ^ 2 - 2 y_22_ * y_2_ + 1 y_22_ ^ 2 ] = 22802
c41: [ 1 x_20_ ^ 2 - 2 x_22_ * x_20_ + 1 x_22_ ^ 2 + 1 y_20_ ^ 2 - 2 y_22_ * y_20_ + 1 y_22_ ^ 2 ] = 25925
c42: [ 1 x_12_ ^ 2 - 2 x_23_ * x_12_ + 1 x_23_ ^ 2 + 1 y_12_ ^ 2 - 2 y_23_ * y_12_ + 1 y_23_ ^ 2 ] = 15476
c43: [ 1 x_14_ ^ 2 - 2 x_24_ * x_14_ + 1 x_24_ ^ 2 + 1 y_14_ ^ 2 - 2 y_24_ * y_14_ + 1 y_24_ ^ 2 ] = 23546
c44: [ 1 x_22_ ^ 2 - 2 x_24_ * x_22_ + 1 x_24_ ^ 2 + 1 y_22_ ^ 2 - 2 y_24_ * y_22_ + 1 y_24_ ^ 2 ] = 1021
c45: [ 1 x_8_ ^ 2 - 2 x_25_ * x_8_ + 1 x_25_ ^ 2 + 1 y_8_ ^ 2 - 2 y_25_ * y_8_ + 1 y_25_ ^ 2 ] = 8861
c46: [ 1 x_18_ ^ 2 - 2 x_25_ * x_18_ + 1 x_25_ ^ 2 + 1 y_18_ ^ 2 - 2 y_25_ * y_18_ + 1 y_25_ ^ 2 ] = 4210
c47: [ 1 x_23_ ^ 2 - 2 x_25_ * x_23_ + 1 x_25_ ^ 2 + 1 y_23_ ^ 2 - 2 y_25_ * y_23_ + 1 y_25_ ^ 2 ] = 14285
c48: [ 1 x_7_ ^ 2 - 2 x_26_ * x_7_ + 1 x_26_ ^ 2 + 1 y_7_ ^ 2 - 2 y_26_ * y_7_ + 1 y_26_ ^ 2 ] = 289
c49: [ 1 x_21_ ^ 2 - 2 x_26_ * x_21_ + 1 x_26_ ^ 2 + 1 y_21_ ^ 2 - 2 y_26_ * y_21_ + 1 y_26_ ^ 2 ] = 10865
Bounds
-328 <= x_1_ <= 328
x_2_ = 0
-174 <= x_3_ <= 174
-116 <= x_4_ <= 116
-291 <= x_5_ <= 291
-162 <= x_6_ <= 162
-268 <= x_7_ <= 268
-98 <= x_8_ <= 98
-181 <= x_9_ <= 181
-287 <= x_10_ <= 287
-169 <= x_11_ <= 169
-214 <= x_12_ <= 214
-128 <= x_13_ <= 128
-197 <= x_14_ <= 197
-237 <= x_15_ <= 237
-136 <= x_16_ <= 136
-224 <= x_17_ <= 224
-231 <= x_18_ <= 231
-262 <= x_19_ <= 262
-263 <= x_20_ <= 263
-233 <= x_21_ <= 233
-151 <= x_22_ <= 151
-312 <= x_23_ <= 312
-182 <= x_24_ <= 182
-192 <= x_25_ <= 192
-285 <= x_26_ <= 285
-328 <= y_1_ <= 328
y_2_ = 0
-174 <= y_3_ <= 174
-116 <= y_4_ <= 116
-291 <= y_5_ <= 291
-162 <= y_6_ <= 162
-268 <= y_7_ <= 268
-98 <= y_8_ <= 98
-181 <= y_9_ <= 181
-287 <= y_10_ <= 287
-169 <= y_11_ <= 169
-214 <= y_12_ <= 214
-128 <= y_13_ <= 128
-197 <= y_14_ <= 197
-237 <= y_15_ <= 237
-136 <= y_16_ <= 136
-224 <= y_17_ <= 224
-231 <= y_18_ <= 231
-262 <= y_19_ <= 262
-263 <= y_20_ <= 263
-233 <= y_21_ <= 233
-151 <= y_22_ <= 151
-312 <= y_23_ <= 312
-182 <= y_24_ <= 182
-192 <= y_25_ <= 192
-285 <= y_26_ <= 285
General
x_1_
x_2_
x_3_
x_4_
x_5_
x_6_
x_7_
x_8_
x_9_
x_10_
x_11_
x_12_
x_13_
x_14_
x_15_
x_16_
x_17_
x_18_
x_19_
x_20_
x_21_
x_22_
x_23_
x_24_
x_25_
x_26_
y_1_
y_2_
y_3_
y_4_
y_5_
y_6_
y_7_
y_8_
y_9_
y_10_
y_11_
y_12_
y_13_
y_14_
y_15_
y_16_
y_17_
y_18_
y_19_
y_20_
y_21_
y_22_
y_23_
y_24_
y_25_
y_26_
End
