minimize
obj: 
subject to
c1_1: -166 x_1_ - 190 y_1_ + [ 1 x_1_ ^ 2 + 1 y_1_ ^ 2 ] <= 33676
c2_1: -166 x_3_ - 190 y_3_ + [ 1 x_3_ ^ 2 + 1 y_3_ ^ 2 ] <= 6247
c3_1: -166 x_4_ - 190 y_4_ + [ 1 x_4_ ^ 2 + 1 y_4_ ^ 2 ] <= 90118
c4_1: -166 x_5_ - 190 y_5_ + [ 1 x_5_ ^ 2 + 1 y_5_ ^ 2 ] <= 29836
c5_1: -166 x_6_ - 190 y_6_ + [ 1 x_6_ ^ 2 + 1 y_6_ ^ 2 ] <= -9766
c6_1: -166 x_7_ - 190 y_7_ + [ 1 x_7_ ^ 2 + 1 y_7_ ^ 2 ] <= -11256
c7_1: -166 x_8_ - 190 y_8_ + [ 1 x_8_ ^ 2 + 1 y_8_ ^ 2 ] <= 39832
c8_1: -166 x_9_ - 190 y_9_ + [ 1 x_9_ ^ 2 + 1 y_9_ ^ 2 ] <= 39215
c9_1: -166 x_10_ - 190 y_10_ + [ 1 x_10_ ^ 2 + 1 y_10_ ^ 2 ] <= 25179
c10_1: -166 x_11_ - 190 y_11_ + [ 1 x_11_ ^ 2 + 1 y_11_ ^ 2 ] <= 29520
c11_1: -166 x_12_ - 190 y_12_ + [ 1 x_12_ ^ 2 + 1 y_12_ ^ 2 ] <= 68159
c12_1: -166 x_13_ - 190 y_13_ + [ 1 x_13_ ^ 2 + 1 y_13_ ^ 2 ] <= 13706
c13_1: -166 x_14_ - 190 y_14_ + [ 1 x_14_ ^ 2 + 1 y_14_ ^ 2 ] <= 29919
c14_1: -166 x_15_ - 190 y_15_ + [ 1 x_15_ ^ 2 + 1 y_15_ ^ 2 ] <= 87188
c15_1: -166 x_16_ - 190 y_16_ + [ 1 x_16_ ^ 2 + 1 y_16_ ^ 2 ] <= 15536
c16_1: -166 x_17_ - 190 y_17_ + [ 1 x_17_ ^ 2 + 1 y_17_ ^ 2 ] <= 50412
c17_1: -166 x_18_ - 190 y_18_ + [ 1 x_18_ ^ 2 + 1 y_18_ ^ 2 ] <= 111045
c18_1: -166 x_19_ - 190 y_19_ + [ 1 x_19_ ^ 2 + 1 y_19_ ^ 2 ] <= 44439
c19_1: -166 x_20_ - 190 y_20_ + [ 1 x_20_ ^ 2 + 1 y_20_ ^ 2 ] <= 69534
c20_1: -166 x_21_ - 190 y_21_ + [ 1 x_21_ ^ 2 + 1 y_21_ ^ 2 ] <= 67456
c21_1: -166 x_22_ - 190 y_22_ + [ 1 x_22_ ^ 2 + 1 y_22_ ^ 2 ] <= 37646
c22_1: -166 x_23_ - 190 y_23_ + [ 1 x_23_ ^ 2 + 1 y_23_ ^ 2 ] <= 64228
c23_1: -166 x_24_ - 190 y_24_ + [ 1 x_24_ ^ 2 + 1 y_24_ ^ 2 ] <= 56148
c24_1: -166 x_25_ - 190 y_25_ + [ 1 x_25_ ^ 2 + 1 y_25_ ^ 2 ] <= 15518
c25_1: -166 x_26_ - 190 y_26_ + [ 1 x_26_ ^ 2 + 1 y_26_ ^ 2 ] <= 36582
c26_1: -34 x_1_ - 114 y_1_ + [ 1 x_1_ ^ 2 + 1 y_1_ ^ 2 ] <= 1912
c27_1: -34 x_2_ - 114 y_2_ + [ 1 x_2_ ^ 2 + 1 y_2_ ^ 2 ] <= 18623
c28_1: -34 x_4_ - 114 y_4_ + [ 1 x_4_ ^ 2 + 1 y_4_ ^ 2 ] <= 42646
c29_1: -34 x_5_ - 114 y_5_ + [ 1 x_5_ ^ 2 + 1 y_5_ ^ 2 ] <= 31400
c30_1: -34 x_6_ - 114 y_6_ + [ 1 x_6_ ^ 2 + 1 y_6_ ^ 2 ] <= 1426
c31_1: -34 x_7_ - 114 y_7_ + [ 1 x_7_ ^ 2 + 1 y_7_ ^ 2 ] <= 43601
c32_1: -34 x_8_ - 114 y_8_ + [ 1 x_8_ ^ 2 + 1 y_8_ ^ 2 ] <= 4073
c33_1: -34 x_9_ - 114 y_9_ + [ 1 x_9_ ^ 2 + 1 y_9_ ^ 2 ] <= 6907
c34_1: -34 x_10_ - 114 y_10_ + [ 1 x_10_ ^ 2 + 1 y_10_ ^ 2 ] <= 61440
c35_1: -34 x_11_ - 114 y_11_ + [ 1 x_11_ ^ 2 + 1 y_11_ ^ 2 ] <= 595
c36_1: -34 x_12_ - 114 y_12_ + [ 1 x_12_ ^ 2 + 1 y_12_ ^ 2 ] <= 65619
c37_1: -34 x_13_ - 114 y_13_ + [ 1 x_13_ ^ 2 + 1 y_13_ ^ 2 ] <= 67450
c38_1: -34 x_14_ - 114 y_14_ + [ 1 x_14_ ^ 2 + 1 y_14_ ^ 2 ] <= 716
c39_1: -34 x_15_ - 114 y_15_ + [ 1 x_15_ ^ 2 + 1 y_15_ ^ 2 ] <= 37591
c40_1: -34 x_16_ - 114 y_16_ + [ 1 x_16_ ^ 2 + 1 y_16_ ^ 2 ] <= 15416
c41_1: -34 x_17_ - 114 y_17_ + [ 1 x_17_ ^ 2 + 1 y_17_ ^ 2 ] <= 8272
c42_1: -34 x_18_ - 114 y_18_ + [ 1 x_18_ ^ 2 + 1 y_18_ ^ 2 ] <= 39497
c43_1: -34 x_19_ - 114 y_19_ + [ 1 x_19_ ^ 2 + 1 y_19_ ^ 2 ] <= 41387
c44_1: -34 x_20_ - 114 y_20_ + [ 1 x_20_ ^ 2 + 1 y_20_ ^ 2 ] <= 17040
c45_1: -34 x_21_ - 114 y_21_ + [ 1 x_21_ ^ 2 + 1 y_21_ ^ 2 ] <= 96686
c46_1: -34 x_22_ - 114 y_22_ + [ 1 x_22_ ^ 2 + 1 y_22_ ^ 2 ] <= 3279
c47_1: -34 x_23_ - 114 y_23_ + [ 1 x_23_ ^ 2 + 1 y_23_ ^ 2 ] <= 14480
c48_1: -34 x_24_ - 114 y_24_ + [ 1 x_24_ ^ 2 + 1 y_24_ ^ 2 ] <= 75541
c49_1: -34 x_25_ - 114 y_25_ + [ 1 x_25_ ^ 2 + 1 y_25_ ^ 2 ] <= -2730
c50: -34 x_26_ - 114 y_26_ + [ 1 x_26_ ^ 2 + 1 y_26_ ^ 2 ] <= 2903
c51: -28 x_1_ + 50 y_1_ + [ 1 x_1_ ^ 2 + 1 y_1_ ^ 2 ] <= 70525
c52: -28 x_2_ + 50 y_2_ + [ 1 x_2_ ^ 2 + 1 y_2_ ^ 2 ] <= 82549
c53: -28 x_3_ + 50 y_3_ + [ 1 x_3_ ^ 2 + 1 y_3_ ^ 2 ] <= 99403
c54: -28 x_4_ + 50 y_4_ + [ 1 x_4_ ^ 2 + 1 y_4_ ^ 2 ] <= 54114
c55: -28 x_5_ + 50 y_5_ + [ 1 x_5_ ^ 2 + 1 y_5_ ^ 2 ] <= 59831
c56: -28 x_6_ + 50 y_6_ + [ 1 x_6_ ^ 2 + 1 y_6_ ^ 2 ] <= 133976
c57: -28 x_7_ + 50 y_7_ + [ 1 x_7_ ^ 2 + 1 y_7_ ^ 2 ] <= 47794
c58: -28 x_8_ + 50 y_8_ + [ 1 x_8_ ^ 2 + 1 y_8_ ^ 2 ] <= 77872
c59: -28 x_9_ + 50 y_9_ + [ 1 x_9_ ^ 2 + 1 y_9_ ^ 2 ] <= 74294
c60: -28 x_10_ + 50 y_10_ + [ 1 x_10_ ^ 2 + 1 y_10_ ^ 2 ] <= 6579
c61: -28 x_11_ + 50 y_11_ + [ 1 x_11_ ^ 2 + 1 y_11_ ^ 2 ] <= 62831
c62: -28 x_12_ + 50 y_12_ + [ 1 x_12_ ^ 2 + 1 y_12_ ^ 2 ] <= 103079
c63: -28 x_13_ + 50 y_13_ + [ 1 x_13_ ^ 2 + 1 y_13_ ^ 2 ] <= 104378
c64: -28 x_14_ + 50 y_14_ + [ 1 x_14_ ^ 2 + 1 y_14_ ^ 2 ] <= 134583
c65: -28 x_15_ + 50 y_15_ + [ 1 x_15_ ^ 2 + 1 y_15_ ^ 2 ] <= 12125
c66: -28 x_16_ + 50 y_16_ + [ 1 x_16_ ^ 2 + 1 y_16_ ^ 2 ] <= 65503
c67: -28 x_17_ + 50 y_17_ + [ 1 x_17_ ^ 2 + 1 y_17_ ^ 2 ] <= 87197
c68: -28 x_18_ + 50 y_18_ + [ 1 x_18_ ^ 2 + 1 y_18_ ^ 2 ] <= 159765
c69: -28 x_19_ + 50 y_19_ + [ 1 x_19_ ^ 2 + 1 y_19_ ^ 2 ] <= 15814
c70: -28 x_20_ + 50 y_20_ + [ 1 x_20_ ^ 2 + 1 y_20_ ^ 2 ] <= 210809
c71: -28 x_22_ + 50 y_22_ + [ 1 x_22_ ^ 2 + 1 y_22_ ^ 2 ] <= 158498
c72: -28 x_23_ + 50 y_23_ + [ 1 x_23_ ^ 2 + 1 y_23_ ^ 2 ] <= 100146
c73: -28 x_24_ + 50 y_24_ + [ 1 x_24_ ^ 2 + 1 y_24_ ^ 2 ] <= 176153
c74: -28 x_25_ + 50 y_25_ + [ 1 x_25_ ^ 2 + 1 y_25_ ^ 2 ] <= 118209
c75: -28 x_26_ + 50 y_26_ + [ 1 x_26_ ^ 2 + 1 y_26_ ^ 2 ] <= 145872
c1_2: 1 x_2_ = 83
c2_2: 1 y_2_ = 95
c3_2: 1 x_3_ = 17
c4_2: 1 y_3_ = 57
c5_2: 1 x_21_ = 14
c6_2: 1 y_21_ = -25
c1: [ 1 x_1_ ^ 2 - 2 x_3_ * x_1_ + 1 x_3_ ^ 2 + 1 y_1_ ^ 2 - 2 y_3_ * y_1_ + 1 y_3_ ^ 2 ] = 5450
c2: [ 1 x_4_ ^ 2 - 2 x_5_ * x_4_ + 1 x_5_ ^ 2 + 1 y_4_ ^ 2 - 2 y_5_ * y_4_ + 1 y_5_ ^ 2 ] = 12484
c3: [ 1 x_2_ ^ 2 - 2 x_6_ * x_2_ + 1 x_6_ ^ 2 + 1 y_2_ ^ 2 - 2 y_6_ * y_2_ + 1 y_6_ ^ 2 ] = 6148
c4: [ 1 x_3_ ^ 2 - 2 x_6_ * x_3_ + 1 x_6_ ^ 2 + 1 y_3_ ^ 2 - 2 y_6_ * y_3_ + 1 y_6_ ^ 2 ] = 4964
c5: [ 1 x_5_ ^ 2 - 2 x_6_ * x_5_ + 1 x_6_ ^ 2 + 1 y_5_ ^ 2 - 2 y_6_ * y_5_ + 1 y_6_ ^ 2 ] = 18356
c6: [ 1 x_2_ ^ 2 - 2 x_7_ * x_2_ + 1 x_7_ ^ 2 + 1 y_2_ ^ 2 - 2 y_7_ * y_2_ + 1 y_7_ ^ 2 ] = 4658
c7: [ 1 x_1_ ^ 2 - 2 x_8_ * x_1_ + 1 x_8_ ^ 2 + 1 y_1_ ^ 2 - 2 y_8_ * y_1_ + 1 y_8_ ^ 2 ] = 180
c8: [ 1 x_4_ ^ 2 - 2 x_8_ * x_4_ + 1 x_8_ ^ 2 + 1 y_4_ ^ 2 - 2 y_8_ * y_4_ + 1 y_8_ ^ 2 ] = 22194
c9: [ 1 x_3_ ^ 2 - 2 x_9_ * x_3_ + 1 x_9_ ^ 2 + 1 y_3_ ^ 2 - 2 y_9_ * y_3_ + 1 y_9_ ^ 2 ] = 10445
c10: [ 1 x_6_ ^ 2 - 2 x_9_ * x_6_ + 1 x_9_ ^ 2 + 1 y_6_ ^ 2 - 2 y_9_ * y_6_ + 1 y_9_ ^ 2 ] = 24457
c11: [ 1 x_5_ ^ 2 - 2 x_10_ * x_5_ + 1 x_10_ ^ 2 + 1 y_5_ ^ 2 - 2 y_10_ * y_5_ + 1 y_10_ ^ 2 ] = 25681
c12: [ 1 x_7_ ^ 2 - 2 x_10_ * x_7_ + 1 x_10_ ^ 2 + 1 y_7_ ^ 2 - 2 y_10_ * y_7_ + 1 y_10_ ^ 2 ] = 18081
c13: [ 1 x_9_ ^ 2 - 2 x_10_ * x_9_ + 1 x_10_ ^ 2 + 1 y_9_ ^ 2 - 2 y_10_ * y_9_ + 1 y_10_ ^ 2 ] = 35362
c14: [ 1 x_1_ ^ 2 - 2 x_11_ * x_1_ + 1 x_11_ ^ 2 + 1 y_1_ ^ 2 - 2 y_11_ * y_1_ + 1 y_11_ ^ 2 ] = 10701
c15: [ 1 x_3_ ^ 2 - 2 x_11_ * x_3_ + 1 x_11_ ^ 2 + 1 y_3_ ^ 2 - 2 y_11_ * y_3_ + 1 y_11_ ^ 2 ] = 4133
c16: [ 1 x_5_ ^ 2 - 2 x_12_ * x_5_ + 1 x_12_ ^ 2 + 1 y_5_ ^ 2 - 2 y_12_ * y_5_ + 1 y_12_ ^ 2 ] = 5785
c17: [ 1 x_7_ ^ 2 - 2 x_13_ * x_7_ + 1 x_13_ ^ 2 + 1 y_7_ ^ 2 - 2 y_13_ * y_7_ + 1 y_13_ ^ 2 ] = 10786
c18: [ 1 x_9_ ^ 2 - 2 x_13_ * x_9_ + 1 x_13_ ^ 2 + 1 y_9_ ^ 2 - 2 y_13_ * y_9_ + 1 y_13_ ^ 2 ] = 26973
c19: [ 1 x_12_ ^ 2 - 2 x_13_ * x_12_ + 1 x_13_ ^ 2 + 1 y_12_ ^ 2 - 2 y_13_ * y_12_ + 1 y_13_ ^ 2 ] = 25633
c20: [ 1 x_5_ ^ 2 - 2 x_14_ * x_5_ + 1 x_14_ ^ 2 + 1 y_5_ ^ 2 - 2 y_14_ * y_5_ + 1 y_14_ ^ 2 ] = 14810
c21: [ 1 x_8_ ^ 2 - 2 x_14_ * x_8_ + 1 x_14_ ^ 2 + 1 y_8_ ^ 2 - 2 y_14_ * y_8_ + 1 y_14_ ^ 2 ] = 13000
c22: [ 1 x_4_ ^ 2 - 2 x_15_ * x_4_ + 1 x_15_ ^ 2 + 1 y_4_ ^ 2 - 2 y_15_ * y_4_ + 1 y_15_ ^ 2 ] = 14545
c23: [ 1 x_10_ ^ 2 - 2 x_15_ * x_10_ + 1 x_15_ ^ 2 + 1 y_10_ ^ 2 - 2 y_15_ * y_10_ + 1 y_15_ ^ 2 ] = 39538
c24: [ 1 x_11_ ^ 2 - 2 x_15_ * x_11_ + 1 x_15_ ^ 2 + 1 y_11_ ^ 2 - 2 y_15_ * y_11_ + 1 y_15_ ^ 2 ] = 19186
c25: [ 1 x_2_ ^ 2 - 2 x_16_ * x_2_ + 1 x_16_ ^ 2 + 1 y_2_ ^ 2 - 2 y_16_ * y_2_ + 1 y_16_ ^ 2 ] = 31450
c26: [ 1 x_3_ ^ 2 - 2 x_16_ * x_3_ + 1 x_16_ ^ 2 + 1 y_3_ ^ 2 - 2 y_16_ * y_3_ + 1 y_16_ ^ 2 ] = 18954
c27: [ 1 x_15_ ^ 2 - 2 x_16_ * x_15_ + 1 x_16_ ^ 2 + 1 y_15_ ^ 2 - 2 y_16_ * y_15_ + 1 y_16_ ^ 2 ] = 20665
c28: [ 1 x_4_ ^ 2 - 2 x_17_ * x_4_ + 1 x_17_ ^ 2 + 1 y_4_ ^ 2 - 2 y_17_ * y_4_ + 1 y_17_ ^ 2 ] = 11285
c29: [ 1 x_11_ ^ 2 - 2 x_17_ * x_11_ + 1 x_17_ ^ 2 + 1 y_11_ ^ 2 - 2 y_17_ * y_11_ + 1 y_17_ ^ 2 ] = 1970
c30: [ 1 x_8_ ^ 2 - 2 x_18_ * x_8_ + 1 x_18_ ^ 2 + 1 y_8_ ^ 2 - 2 y_18_ * y_8_ + 1 y_18_ ^ 2 ] = 14450
c31: [ 1 x_1_ ^ 2 - 2 x_19_ * x_1_ + 1 x_19_ ^ 2 + 1 y_1_ ^ 2 - 2 y_19_ * y_1_ + 1 y_19_ ^ 2 ] = 19080
c32: [ 1 x_5_ ^ 2 - 2 x_19_ * x_5_ + 1 x_19_ ^ 2 + 1 y_5_ ^ 2 - 2 y_19_ * y_5_ + 1 y_19_ ^ 2 ] = 14530
c33: [ 1 x_10_ ^ 2 - 2 x_19_ * x_10_ + 1 x_19_ ^ 2 + 1 y_10_ ^ 2 - 2 y_19_ * y_10_ + 1 y_19_ ^ 2 ] = 1845
c34: [ 1 x_3_ ^ 2 - 2 x_20_ * x_3_ + 1 x_20_ ^ 2 + 1 y_3_ ^ 2 - 2 y_20_ * y_3_ + 1 y_20_ ^ 2 ] = 20578
c35: [ 1 x_12_ ^ 2 - 2 x_20_ * x_12_ + 1 x_20_ ^ 2 + 1 y_12_ ^ 2 - 2 y_20_ * y_12_ + 1 y_20_ ^ 2 ] = 43933
c36: [ 1 x_10_ ^ 2 - 2 x_21_ * x_10_ + 1 x_21_ ^ 2 + 1 y_10_ ^ 2 - 2 y_21_ * y_10_ + 1 y_21_ ^ 2 ] = 7400
c37: [ 1 x_15_ ^ 2 - 2 x_21_ * x_15_ + 1 x_21_ ^ 2 + 1 y_15_ ^ 2 - 2 y_21_ * y_15_ + 1 y_21_ ^ 2 ] = 12946
c38: [ 1 x_3_ ^ 2 - 2 x_22_ * x_3_ + 1 x_22_ ^ 2 + 1 y_3_ ^ 2 - 2 y_22_ * y_3_ + 1 y_22_ ^ 2 ] = 6817
c39: [ 1 x_16_ ^ 2 - 2 x_22_ * x_16_ + 1 x_22_ ^ 2 + 1 y_16_ ^ 2 - 2 y_22_ * y_16_ + 1 y_22_ ^ 2 ] = 34465
c40: [ 1 x_14_ ^ 2 - 2 x_23_ * x_14_ + 1 x_23_ ^ 2 + 1 y_14_ ^ 2 - 2 y_23_ * y_14_ + 1 y_23_ ^ 2 ] = 4762
c41: [ 1 x_15_ ^ 2 - 2 x_23_ * x_15_ + 1 x_23_ ^ 2 + 1 y_15_ ^ 2 - 2 y_23_ * y_15_ + 1 y_23_ ^ 2 ] = 41605
c42: [ 1 x_1_ ^ 2 - 2 x_24_ * x_1_ + 1 x_24_ ^ 2 + 1 y_1_ ^ 2 - 2 y_24_ * y_1_ + 1 y_24_ ^ 2 ] = 43009
c43: [ 1 x_13_ ^ 2 - 2 x_24_ * x_13_ + 1 x_24_ ^ 2 + 1 y_13_ ^ 2 - 2 y_24_ * y_13_ + 1 y_24_ ^ 2 ] = 9281
c44: [ 1 x_18_ ^ 2 - 2 x_24_ * x_18_ + 1 x_24_ ^ 2 + 1 y_18_ ^ 2 - 2 y_24_ * y_18_ + 1 y_24_ ^ 2 ] = 27053
c45: [ 1 x_3_ ^ 2 - 2 x_25_ * x_3_ + 1 x_25_ ^ 2 + 1 y_3_ ^ 2 - 2 y_25_ * y_3_ + 1 y_25_ ^ 2 ] = 808
c46: [ 1 x_14_ ^ 2 - 2 x_25_ * x_14_ + 1 x_25_ ^ 2 + 1 y_14_ ^ 2 - 2 y_25_ * y_14_ + 1 y_25_ ^ 2 ] = 1354
c47: [ 1 x_9_ ^ 2 - 2 x_26_ * x_9_ + 1 x_26_ ^ 2 + 1 y_9_ ^ 2 - 2 y_26_ * y_9_ + 1 y_26_ ^ 2 ] = 25325
c48: [ 1 x_14_ ^ 2 - 2 x_26_ * x_14_ + 1 x_26_ ^ 2 + 1 y_14_ ^ 2 - 2 y_26_ * y_14_ + 1 y_26_ ^ 2 ] = 226
c49: [ 1 x_22_ ^ 2 - 2 x_26_ * x_22_ + 1 x_26_ ^ 2 + 1 y_22_ ^ 2 - 2 y_26_ * y_22_ + 1 y_26_ ^ 2 ] = 23977
Bounds
-56 <= x_1_ <= 90
x_2_ = 83
x_3_ = 17
-197 <= x_4_ <= 231
-130 <= x_5_ <= 203
5 <= x_6_ <= 87
15 <= x_7_ <= 151
-70 <= x_8_ <= 104
-85 <= x_9_ <= 119
-72 <= x_10_ <= 100
-47 <= x_11_ <= 81
-206 <= x_12_ <= 279
-89 <= x_13_ <= 255
-48 <= x_14_ <= 82
-99 <= x_15_ <= 127
-94 <= x_16_ <= 154
-91 <= x_17_ <= 125
-190 <= x_18_ <= 224
-114 <= x_19_ <= 142
-126 <= x_20_ <= 160
x_21_ = 14
-65 <= x_22_ <= 99
-117 <= x_23_ <= 151
-185 <= x_24_ <= 298
-11 <= x_25_ <= 45
-63 <= x_26_ <= 97
-16 <= y_1_ <= 130
y_2_ = 95
y_3_ = 57
-157 <= y_4_ <= 209
-118 <= y_5_ <= 221
17 <= y_6_ <= 127
27 <= y_7_ <= 163
-30 <= y_8_ <= 144
-45 <= y_9_ <= 159
-107 <= y_10_ <= 61
-7 <= y_11_ <= 121
-194 <= y_12_ <= 297
-77 <= y_13_ <= 267
-8 <= y_14_ <= 122
-138 <= y_15_ <= 88
-80 <= y_16_ <= 194
-51 <= y_17_ <= 165
-150 <= y_18_ <= 264
-150 <= y_19_ <= 103
-86 <= y_20_ <= 200
y_21_ = -25
-25 <= y_22_ <= 139
-77 <= y_23_ <= 191
-173 <= y_24_ <= 338
29 <= y_25_ <= 85
-23 <= y_26_ <= 137
General
x_1_
x_2_
x_3_
x_4_
x_5_
x_6_
x_7_
x_8_
x_9_
x_10_
x_11_
x_12_
x_13_
x_14_
x_15_
x_16_
x_17_
x_18_
x_19_
x_20_
x_21_
x_22_
x_23_
x_24_
x_25_
x_26_
y_1_
y_2_
y_3_
y_4_
y_5_
y_6_
y_7_
y_8_
y_9_
y_10_
y_11_
y_12_
y_13_
y_14_
y_15_
y_16_
y_17_
y_18_
y_19_
y_20_
y_21_
y_22_
y_23_
y_24_
y_25_
y_26_
End
