minimize
obj: 
subject to
c1_3: -1 x_16_ + 1 y_16_ <= 0
c1: [ 1 x_1_ ^ 2 + 1 y_1_ ^ 2 ] <= 16110.109832482853
c2: [ 1 x_2_ ^ 2 + 1 y_2_ ^ 2 ] <= 27461.823225443815
c3: [ 1 x_3_ ^ 2 + 1 y_3_ ^ 2 ] <= 12262.22109811411
c4: [ 1 x_4_ ^ 2 + 1 y_4_ ^ 2 ] <= 9799.062728884755
c5: [ 1 x_5_ ^ 2 + 1 y_5_ ^ 2 ] <= 76005.4848763763
c6: [ 1 x_6_ ^ 2 + 1 y_6_ ^ 2 ] <= 24087.280539605792
c7: [ 1 x_7_ ^ 2 + 1 y_7_ ^ 2 ] <= 71179.64119337482
c8: [ 1 x_8_ ^ 2 + 1 y_8_ ^ 2 ] <= 73409.43290928974
c9: [ 1 x_9_ ^ 2 + 1 y_9_ ^ 2 ] <= 57143.254644055094
c10: [ 1 x_10_ ^ 2 + 1 y_10_ ^ 2 ] <= 18920.182906551036
c11: [ 1 x_11_ ^ 2 + 1 y_11_ ^ 2 ] <= 2004.8499999999992
c12: [ 1 x_12_ ^ 2 + 1 y_12_ ^ 2 ] <= 52895.72049202286
c13: [ 1 x_13_ ^ 2 + 1 y_13_ ^ 2 ] <= 62613.28020974696
c14: [ 1 x_14_ ^ 2 + 1 y_14_ ^ 2 ] <= 28384.095308109987
c15: [ 1 x_15_ ^ 2 + 1 y_15_ ^ 2 ] <= 76416.85004724102
c16: [ 1 x_16_ ^ 2 + 1 y_16_ ^ 2 ] <= 106964.74858920444
c17: [ 1 x_17_ ^ 2 + 1 y_17_ ^ 2 ] <= 23293.913932982294
c18: [ 1 x_18_ ^ 2 + 1 y_18_ ^ 2 ] <= 27990.707596707278
c19: [ 1 x_19_ ^ 2 + 1 y_19_ ^ 2 ] <= 50601.55957193116
c20: [ 1 x_20_ ^ 2 + 1 y_20_ ^ 2 ] <= 23530.30062507218
c21: [ 1 x_21_ ^ 2 + 1 y_21_ ^ 2 ] <= 14451.906355204164
c22: [ 1 x_22_ ^ 2 + 1 y_22_ ^ 2 ] <= 12371.489999999998
c23: [ 1 x_23_ ^ 2 + 1 y_23_ ^ 2 ] <= 61153.79099952653
c24: [ 1 x_24_ ^ 2 + 1 y_24_ ^ 2 ] <= 15735.322745064706
c25: [ 1 x_25_ ^ 2 + 1 y_25_ ^ 2 ] <= 6226.649999999998
c26: [ 1 x_27_ ^ 2 + 1 y_27_ ^ 2 ] <= 235.32999999999996
c27: [ 1 x_28_ ^ 2 + 1 y_28_ ^ 2 ] <= 6836.335531670635
quadratic_ranged_1_ub: [ 1 x_1_ ^ 2 - 2 x_2_ * x_1_ + 1 x_2_ ^ 2 + 1 y_1_ ^ 2 - 2 y_2_ * y_1_ + 1 y_2_ ^ 2 ] <= 16035.77
quadratic_ranged_2_ub: [ 1 x_2_ ^ 2 - 2 x_3_ * x_2_ + 1 x_3_ ^ 2 + 1 y_2_ ^ 2 - 2 y_3_ * y_2_ + 1 y_3_ ^ 2 ] <= 3022.93
quadratic_ranged_3_ub: [ 1 x_3_ ^ 2 - 2 x_4_ * x_3_ + 1 x_4_ ^ 2 + 1 y_3_ ^ 2 - 2 y_4_ * y_3_ + 1 y_4_ ^ 2 ] <= 979.7
quadratic_ranged_4_ub: [ 1 x_4_ ^ 2 - 2 x_5_ * x_4_ + 1 x_5_ ^ 2 + 1 y_4_ ^ 2 - 2 y_5_ * y_4_ + 1 y_5_ ^ 2 ] <= 31223.14
quadratic_ranged_5_ub: [ 1 x_5_ ^ 2 - 2 x_6_ * x_5_ + 1 x_6_ ^ 2 + 1 y_5_ ^ 2 - 2 y_6_ * y_5_ + 1 y_6_ ^ 2 ] <= 21990.73
quadratic_ranged_6_ub: [ 1 x_6_ ^ 2 - 2 x_7_ * x_6_ + 1 x_7_ ^ 2 + 1 y_6_ ^ 2 - 2 y_7_ * y_6_ + 1 y_7_ ^ 2 ] <= 12453.3
quadratic_ranged_7_ub: [ 1 x_7_ ^ 2 - 2 x_8_ * x_7_ + 1 x_8_ ^ 2 + 1 y_7_ ^ 2 - 2 y_8_ * y_7_ + 1 y_8_ ^ 2 ] <= 28090.12
quadratic_ranged_8_ub: [ 1 x_8_ ^ 2 - 2 x_9_ * x_8_ + 1 x_9_ ^ 2 + 1 y_8_ ^ 2 - 2 y_9_ * y_8_ + 1 y_9_ ^ 2 ] <= 26353.93
quadratic_ranged_9_ub: [ 1 x_9_ ^ 2 - 2 x_10_ * x_9_ + 1 x_10_ ^ 2 + 1 y_9_ ^ 2 - 2 y_10_ * y_9_ + 1 y_10_ ^ 2 ] <= 20402
quadratic_ranged_10_ub: [ 1 x_6_ ^ 2 - 2 x_11_ * x_6_ + 1 x_11_ ^ 2 + 1 y_6_ ^ 2 - 2 y_11_ * y_6_ + 1 y_11_ ^ 2 ] <= 12193.73
quadratic_ranged_11_ub: [ 1 x_10_ ^ 2 - 2 x_11_ * x_10_ + 1 x_11_ ^ 2 + 1 y_10_ ^ 2 - 2 y_11_ * y_10_ + 1 y_11_ ^ 2 ] <= 8607.22
quadratic_ranged_12_ub: [ 1 x_1_ ^ 2 - 2 x_12_ * x_1_ + 1 x_12_ ^ 2 + 1 y_1_ ^ 2 - 2 y_12_ * y_1_ + 1 y_12_ ^ 2 ] <= 24111.73
quadratic_ranged_13_ub: [ 1 x_6_ ^ 2 - 2 x_12_ * x_6_ + 1 x_12_ ^ 2 + 1 y_6_ ^ 2 - 2 y_12_ * y_6_ + 1 y_12_ ^ 2 ] <= 11766.5
quadratic_ranged_14_ub: [ 1 x_11_ ^ 2 - 2 x_12_ * x_11_ + 1 x_12_ ^ 2 + 1 y_11_ ^ 2 - 2 y_12_ * y_11_ + 1 y_12_ ^ 2 ] <= 34304.65
quadratic_ranged_15_ub: [ 1 x_9_ ^ 2 - 2 x_13_ * x_9_ + 1 x_13_ ^ 2 + 1 y_9_ ^ 2 - 2 y_13_ * y_9_ + 1 y_13_ ^ 2 ] <= 18927.4
quadratic_ranged_16_ub: [ 1 x_12_ ^ 2 - 2 x_13_ * x_12_ + 1 x_13_ ^ 2 + 1 y_12_ ^ 2 - 2 y_13_ * y_12_ + 1 y_13_ ^ 2 ] <= 5370.17
quadratic_ranged_17_ub: [ 1 x_3_ ^ 2 - 2 x_14_ * x_3_ + 1 x_14_ ^ 2 + 1 y_3_ ^ 2 - 2 y_14_ * y_3_ + 1 y_14_ ^ 2 ] <= 3334.01
quadratic_ranged_18_ub: [ 1 x_13_ ^ 2 - 2 x_14_ * x_13_ + 1 x_14_ ^ 2 + 1 y_13_ ^ 2 - 2 y_14_ * y_13_ + 1 y_14_ ^ 2 ] <= 6683.17
quadratic_ranged_19_ub: [ 1 x_14_ ^ 2 - 2 x_15_ * x_14_ + 1 x_15_ ^ 2 + 1 y_14_ ^ 2 - 2 y_15_ * y_14_ + 1 y_15_ ^ 2 ] <= 11655.4
quadratic_ranged_20_ub: [ 1 x_15_ ^ 2 - 2 x_16_ * x_15_ + 1 x_16_ ^ 2 + 1 y_15_ ^ 2 - 2 y_16_ * y_15_ + 1 y_16_ ^ 2 ] <= 21793.78
quadratic_ranged_21_ub: [ 1 x_16_ ^ 2 - 2 x_17_ * x_16_ + 1 x_17_ ^ 2 + 1 y_16_ ^ 2 - 2 y_17_ * y_16_ + 1 y_17_ ^ 2 ] <= 30426.25
quadratic_ranged_22_ub: [ 1 x_9_ ^ 2 - 2 x_18_ * x_9_ + 1 x_18_ ^ 2 + 1 y_9_ ^ 2 - 2 y_18_ * y_9_ + 1 y_18_ ^ 2 ] <= 5146.96
quadratic_ranged_23_ub: [ 1 x_17_ ^ 2 - 2 x_18_ * x_17_ + 1 x_18_ ^ 2 + 1 y_17_ ^ 2 - 2 y_18_ * y_17_ + 1 y_18_ ^ 2 ] <= 25116.68
quadratic_ranged_24_ub: [ 1 x_18_ ^ 2 - 2 x_19_ * x_18_ + 1 x_19_ ^ 2 + 1 y_18_ ^ 2 - 2 y_19_ * y_18_ + 1 y_19_ ^ 2 ] <= 8145.65
quadratic_ranged_25_ub: [ 1 x_19_ ^ 2 - 2 x_20_ * x_19_ + 1 x_20_ ^ 2 + 1 y_19_ ^ 2 - 2 y_20_ * y_19_ + 1 y_20_ ^ 2 ] <= 5119.69
quadratic_ranged_26_ub: [ 1 x_20_ ^ 2 - 2 x_21_ * x_20_ + 1 x_21_ ^ 2 + 1 y_20_ ^ 2 - 2 y_21_ * y_20_ + 1 y_21_ ^ 2 ] <= 1100.9
quadratic_ranged_27_ub: [ 1 x_1_ ^ 2 - 2 x_22_ * x_1_ + 1 x_22_ ^ 2 + 1 y_1_ ^ 2 - 2 y_22_ * y_1_ + 1 y_22_ ^ 2 ] <= 246.44
quadratic_ranged_28_ub: [ 1 x_21_ ^ 2 - 2 x_22_ * x_21_ + 1 x_22_ ^ 2 + 1 y_21_ ^ 2 - 2 y_22_ * y_21_ + 1 y_22_ ^ 2 ] <= 80.8
quadratic_ranged_29_ub: [ 1 x_7_ ^ 2 - 2 x_23_ * x_7_ + 1 x_23_ ^ 2 + 1 y_7_ ^ 2 - 2 y_23_ * y_7_ + 1 y_23_ ^ 2 ] <= 38169.92
quadratic_ranged_30_ub: [ 1 x_22_ ^ 2 - 2 x_23_ * x_22_ + 1 x_23_ ^ 2 + 1 y_22_ ^ 2 - 2 y_23_ * y_22_ + 1 y_23_ ^ 2 ] <= 31343.33
quadratic_ranged_31_ub: [ 1 x_8_ ^ 2 - 2 x_24_ * x_8_ + 1 x_24_ ^ 2 + 1 y_8_ ^ 2 - 2 y_24_ * y_8_ + 1 y_24_ ^ 2 ] <= 21170.61
quadratic_ranged_32_ub: [ 1 x_23_ ^ 2 - 2 x_24_ * x_23_ + 1 x_24_ ^ 2 + 1 y_23_ ^ 2 - 2 y_24_ * y_23_ + 1 y_24_ ^ 2 ] <= 14848.01
quadratic_ranged_33_ub: [ 1 x_17_ ^ 2 - 2 x_25_ * x_17_ + 1 x_25_ ^ 2 + 1 y_17_ ^ 2 - 2 y_25_ * y_17_ + 1 y_25_ ^ 2 ] <= 5433.8
quadratic_ranged_34_ub: [ 1 x_24_ ^ 2 - 2 x_25_ * x_24_ + 1 x_25_ ^ 2 + 1 y_24_ ^ 2 - 2 y_25_ * y_24_ + 1 y_25_ ^ 2 ] <= 5108.58
quadratic_ranged_35_ub: [ 1 x_11_ ^ 2 - 2 x_26_ * x_11_ + 1 x_26_ ^ 2 + 1 y_11_ ^ 2 - 2 y_26_ * y_11_ + 1 y_26_ ^ 2 ] <= 2004.85
quadratic_ranged_36_ub: [ 1 x_22_ ^ 2 - 2 x_26_ * x_22_ + 1 x_26_ ^ 2 + 1 y_22_ ^ 2 - 2 y_26_ * y_22_ + 1 y_26_ ^ 2 ] <= 12371.49
quadratic_ranged_37_ub: [ 1 x_25_ ^ 2 - 2 x_26_ * x_25_ + 1 x_26_ ^ 2 + 1 y_25_ ^ 2 - 2 y_26_ * y_25_ + 1 y_26_ ^ 2 ] <= 6226.65
quadratic_ranged_38_ub: [ 1 x_3_ ^ 2 - 2 x_27_ * x_3_ + 1 x_27_ ^ 2 + 1 y_3_ ^ 2 - 2 y_27_ * y_3_ + 1 y_27_ ^ 2 ] <= 9100.1
quadratic_ranged_39_ub: [ 1 x_4_ ^ 2 - 2 x_27_ * x_4_ + 1 x_27_ ^ 2 + 1 y_4_ ^ 2 - 2 y_27_ * y_4_ + 1 y_27_ ^ 2 ] <= 6997.28
quadratic_ranged_40_ub: [ 1 x_24_ ^ 2 - 2 x_27_ * x_24_ + 1 x_27_ ^ 2 + 1 y_24_ ^ 2 - 2 y_27_ * y_24_ + 1 y_27_ ^ 2 ] <= 12122.02
quadratic_ranged_41_ub: [ 1 x_26_ ^ 2 - 2 x_27_ * x_26_ + 1 x_27_ ^ 2 + 1 y_26_ ^ 2 - 2 y_27_ * y_26_ + 1 y_27_ ^ 2 ] <= 235.33
quadratic_ranged_42_ub: [ 1 x_1_ ^ 2 - 2 x_28_ * x_1_ + 1 x_28_ ^ 2 + 1 y_1_ ^ 2 - 2 y_28_ * y_1_ + 1 y_28_ ^ 2 ] <= 5851.94
quadratic_ranged_43_ub: [ 1 x_18_ ^ 2 - 2 x_28_ * x_18_ + 1 x_28_ ^ 2 + 1 y_18_ ^ 2 - 2 y_28_ * y_18_ + 1 y_28_ ^ 2 ] <= 7160.9
quadratic_ranged_44_ub: [ 1 x_21_ ^ 2 - 2 x_28_ * x_21_ + 1 x_28_ ^ 2 + 1 y_21_ ^ 2 - 2 y_28_ * y_21_ + 1 y_28_ ^ 2 ] <= 3840.02
quadratic_ranged_45_ub: [ 1 x_22_ ^ 2 - 2 x_28_ * x_22_ + 1 x_28_ ^ 2 + 1 y_22_ ^ 2 - 2 y_28_ * y_22_ + 1 y_28_ ^ 2 ] <= 4268.26
quadratic_ranged_46_ub: [ 1 x_27_ ^ 2 - 2 x_28_ * x_27_ + 1 x_28_ ^ 2 + 1 y_27_ ^ 2 - 2 y_28_ * y_27_ + 1 y_28_ ^ 2 ] <= 4534.9
c1_2: 1 x_16_ >= 0
c2_2: 1 y_16_ >= 0
quadratic_ranged_1_lb: [ 1 x_1_ ^ 2 - 2 x_2_ * x_1_ + 1 x_2_ ^ 2 + 1 y_1_ ^ 2 - 2 y_2_ * y_1_ + 1 y_2_ ^ 2 ] >= 15718.23
quadratic_ranged_2_lb: [ 1 x_2_ ^ 2 - 2 x_3_ * x_2_ + 1 x_3_ ^ 2 + 1 y_2_ ^ 2 - 2 y_3_ * y_2_ + 1 y_3_ ^ 2 ] >= 2963.07
quadratic_ranged_3_lb: [ 1 x_3_ ^ 2 - 2 x_4_ * x_3_ + 1 x_4_ ^ 2 + 1 y_3_ ^ 2 - 2 y_4_ * y_3_ + 1 y_4_ ^ 2 ] >= 960.3
quadratic_ranged_4_lb: [ 1 x_4_ ^ 2 - 2 x_5_ * x_4_ + 1 x_5_ ^ 2 + 1 y_4_ ^ 2 - 2 y_5_ * y_4_ + 1 y_5_ ^ 2 ] >= 30604.86
quadratic_ranged_5_lb: [ 1 x_5_ ^ 2 - 2 x_6_ * x_5_ + 1 x_6_ ^ 2 + 1 y_5_ ^ 2 - 2 y_6_ * y_5_ + 1 y_6_ ^ 2 ] >= 21555.27
quadratic_ranged_6_lb: [ 1 x_6_ ^ 2 - 2 x_7_ * x_6_ + 1 x_7_ ^ 2 + 1 y_6_ ^ 2 - 2 y_7_ * y_6_ + 1 y_7_ ^ 2 ] >= 12206.7
quadratic_ranged_7_lb: [ 1 x_7_ ^ 2 - 2 x_8_ * x_7_ + 1 x_8_ ^ 2 + 1 y_7_ ^ 2 - 2 y_8_ * y_7_ + 1 y_8_ ^ 2 ] >= 27533.88
quadratic_ranged_8_lb: [ 1 x_8_ ^ 2 - 2 x_9_ * x_8_ + 1 x_9_ ^ 2 + 1 y_8_ ^ 2 - 2 y_9_ * y_8_ + 1 y_9_ ^ 2 ] >= 25832.07
quadratic_ranged_9_lb: [ 1 x_9_ ^ 2 - 2 x_10_ * x_9_ + 1 x_10_ ^ 2 + 1 y_9_ ^ 2 - 2 y_10_ * y_9_ + 1 y_10_ ^ 2 ] >= 19998
quadratic_ranged_10_lb: [ 1 x_6_ ^ 2 - 2 x_11_ * x_6_ + 1 x_11_ ^ 2 + 1 y_6_ ^ 2 - 2 y_11_ * y_6_ + 1 y_11_ ^ 2 ] >= 11952.27
quadratic_ranged_11_lb: [ 1 x_10_ ^ 2 - 2 x_11_ * x_10_ + 1 x_11_ ^ 2 + 1 y_10_ ^ 2 - 2 y_11_ * y_10_ + 1 y_11_ ^ 2 ] >= 8436.78
quadratic_ranged_12_lb: [ 1 x_1_ ^ 2 - 2 x_12_ * x_1_ + 1 x_12_ ^ 2 + 1 y_1_ ^ 2 - 2 y_12_ * y_1_ + 1 y_12_ ^ 2 ] >= 23634.27
quadratic_ranged_13_lb: [ 1 x_6_ ^ 2 - 2 x_12_ * x_6_ + 1 x_12_ ^ 2 + 1 y_6_ ^ 2 - 2 y_12_ * y_6_ + 1 y_12_ ^ 2 ] >= 11533.5
quadratic_ranged_14_lb: [ 1 x_11_ ^ 2 - 2 x_12_ * x_11_ + 1 x_12_ ^ 2 + 1 y_11_ ^ 2 - 2 y_12_ * y_11_ + 1 y_12_ ^ 2 ] >= 33625.35
quadratic_ranged_15_lb: [ 1 x_9_ ^ 2 - 2 x_13_ * x_9_ + 1 x_13_ ^ 2 + 1 y_9_ ^ 2 - 2 y_13_ * y_9_ + 1 y_13_ ^ 2 ] >= 18552.6
quadratic_ranged_16_lb: [ 1 x_12_ ^ 2 - 2 x_13_ * x_12_ + 1 x_13_ ^ 2 + 1 y_12_ ^ 2 - 2 y_13_ * y_12_ + 1 y_13_ ^ 2 ] >= 5263.83
quadratic_ranged_17_lb: [ 1 x_3_ ^ 2 - 2 x_14_ * x_3_ + 1 x_14_ ^ 2 + 1 y_3_ ^ 2 - 2 y_14_ * y_3_ + 1 y_14_ ^ 2 ] >= 3267.99
quadratic_ranged_18_lb: [ 1 x_13_ ^ 2 - 2 x_14_ * x_13_ + 1 x_14_ ^ 2 + 1 y_13_ ^ 2 - 2 y_14_ * y_13_ + 1 y_14_ ^ 2 ] >= 6550.83
quadratic_ranged_19_lb: [ 1 x_14_ ^ 2 - 2 x_15_ * x_14_ + 1 x_15_ ^ 2 + 1 y_14_ ^ 2 - 2 y_15_ * y_14_ + 1 y_15_ ^ 2 ] >= 11424.6
quadratic_ranged_20_lb: [ 1 x_15_ ^ 2 - 2 x_16_ * x_15_ + 1 x_16_ ^ 2 + 1 y_15_ ^ 2 - 2 y_16_ * y_15_ + 1 y_16_ ^ 2 ] >= 21362.22
quadratic_ranged_21_lb: [ 1 x_16_ ^ 2 - 2 x_17_ * x_16_ + 1 x_17_ ^ 2 + 1 y_16_ ^ 2 - 2 y_17_ * y_16_ + 1 y_17_ ^ 2 ] >= 29823.75
quadratic_ranged_22_lb: [ 1 x_9_ ^ 2 - 2 x_18_ * x_9_ + 1 x_18_ ^ 2 + 1 y_9_ ^ 2 - 2 y_18_ * y_9_ + 1 y_18_ ^ 2 ] >= 5045.04
quadratic_ranged_23_lb: [ 1 x_17_ ^ 2 - 2 x_18_ * x_17_ + 1 x_18_ ^ 2 + 1 y_17_ ^ 2 - 2 y_18_ * y_17_ + 1 y_18_ ^ 2 ] >= 24619.32
quadratic_ranged_24_lb: [ 1 x_18_ ^ 2 - 2 x_19_ * x_18_ + 1 x_19_ ^ 2 + 1 y_18_ ^ 2 - 2 y_19_ * y_18_ + 1 y_19_ ^ 2 ] >= 7984.35
quadratic_ranged_25_lb: [ 1 x_19_ ^ 2 - 2 x_20_ * x_19_ + 1 x_20_ ^ 2 + 1 y_19_ ^ 2 - 2 y_20_ * y_19_ + 1 y_20_ ^ 2 ] >= 5018.31
quadratic_ranged_26_lb: [ 1 x_20_ ^ 2 - 2 x_21_ * x_20_ + 1 x_21_ ^ 2 + 1 y_20_ ^ 2 - 2 y_21_ * y_20_ + 1 y_21_ ^ 2 ] >= 1079.1
quadratic_ranged_27_lb: [ 1 x_1_ ^ 2 - 2 x_22_ * x_1_ + 1 x_22_ ^ 2 + 1 y_1_ ^ 2 - 2 y_22_ * y_1_ + 1 y_22_ ^ 2 ] >= 241.56
quadratic_ranged_28_lb: [ 1 x_21_ ^ 2 - 2 x_22_ * x_21_ + 1 x_22_ ^ 2 + 1 y_21_ ^ 2 - 2 y_22_ * y_21_ + 1 y_22_ ^ 2 ] >= 79.2
quadratic_ranged_29_lb: [ 1 x_7_ ^ 2 - 2 x_23_ * x_7_ + 1 x_23_ ^ 2 + 1 y_7_ ^ 2 - 2 y_23_ * y_7_ + 1 y_23_ ^ 2 ] >= 37414.08
quadratic_ranged_30_lb: [ 1 x_22_ ^ 2 - 2 x_23_ * x_22_ + 1 x_23_ ^ 2 + 1 y_22_ ^ 2 - 2 y_23_ * y_22_ + 1 y_23_ ^ 2 ] >= 30722.67
quadratic_ranged_31_lb: [ 1 x_8_ ^ 2 - 2 x_24_ * x_8_ + 1 x_24_ ^ 2 + 1 y_8_ ^ 2 - 2 y_24_ * y_8_ + 1 y_24_ ^ 2 ] >= 20751.39
quadratic_ranged_32_lb: [ 1 x_23_ ^ 2 - 2 x_24_ * x_23_ + 1 x_24_ ^ 2 + 1 y_23_ ^ 2 - 2 y_24_ * y_23_ + 1 y_24_ ^ 2 ] >= 14553.99
quadratic_ranged_33_lb: [ 1 x_17_ ^ 2 - 2 x_25_ * x_17_ + 1 x_25_ ^ 2 + 1 y_17_ ^ 2 - 2 y_25_ * y_17_ + 1 y_25_ ^ 2 ] >= 5326.2
quadratic_ranged_34_lb: [ 1 x_24_ ^ 2 - 2 x_25_ * x_24_ + 1 x_25_ ^ 2 + 1 y_24_ ^ 2 - 2 y_25_ * y_24_ + 1 y_25_ ^ 2 ] >= 5007.42
quadratic_ranged_35_lb: [ 1 x_11_ ^ 2 - 2 x_26_ * x_11_ + 1 x_26_ ^ 2 + 1 y_11_ ^ 2 - 2 y_26_ * y_11_ + 1 y_26_ ^ 2 ] >= 1965.15
quadratic_ranged_36_lb: [ 1 x_22_ ^ 2 - 2 x_26_ * x_22_ + 1 x_26_ ^ 2 + 1 y_22_ ^ 2 - 2 y_26_ * y_22_ + 1 y_26_ ^ 2 ] >= 12126.51
quadratic_ranged_37_lb: [ 1 x_25_ ^ 2 - 2 x_26_ * x_25_ + 1 x_26_ ^ 2 + 1 y_25_ ^ 2 - 2 y_26_ * y_25_ + 1 y_26_ ^ 2 ] >= 6103.35
quadratic_ranged_38_lb: [ 1 x_3_ ^ 2 - 2 x_27_ * x_3_ + 1 x_27_ ^ 2 + 1 y_3_ ^ 2 - 2 y_27_ * y_3_ + 1 y_27_ ^ 2 ] >= 8919.9
quadratic_ranged_39_lb: [ 1 x_4_ ^ 2 - 2 x_27_ * x_4_ + 1 x_27_ ^ 2 + 1 y_4_ ^ 2 - 2 y_27_ * y_4_ + 1 y_27_ ^ 2 ] >= 6858.72
quadratic_ranged_40_lb: [ 1 x_24_ ^ 2 - 2 x_27_ * x_24_ + 1 x_27_ ^ 2 + 1 y_24_ ^ 2 - 2 y_27_ * y_24_ + 1 y_27_ ^ 2 ] >= 11881.98
quadratic_ranged_41_lb: [ 1 x_26_ ^ 2 - 2 x_27_ * x_26_ + 1 x_27_ ^ 2 + 1 y_26_ ^ 2 - 2 y_27_ * y_26_ + 1 y_27_ ^ 2 ] >= 230.67
quadratic_ranged_42_lb: [ 1 x_1_ ^ 2 - 2 x_28_ * x_1_ + 1 x_28_ ^ 2 + 1 y_1_ ^ 2 - 2 y_28_ * y_1_ + 1 y_28_ ^ 2 ] >= 5736.06
quadratic_ranged_43_lb: [ 1 x_18_ ^ 2 - 2 x_28_ * x_18_ + 1 x_28_ ^ 2 + 1 y_18_ ^ 2 - 2 y_28_ * y_18_ + 1 y_28_ ^ 2 ] >= 7019.1
quadratic_ranged_44_lb: [ 1 x_21_ ^ 2 - 2 x_28_ * x_21_ + 1 x_28_ ^ 2 + 1 y_21_ ^ 2 - 2 y_28_ * y_21_ + 1 y_28_ ^ 2 ] >= 3763.98
quadratic_ranged_45_lb: [ 1 x_22_ ^ 2 - 2 x_28_ * x_22_ + 1 x_28_ ^ 2 + 1 y_22_ ^ 2 - 2 y_28_ * y_22_ + 1 y_28_ ^ 2 ] >= 4183.74
quadratic_ranged_46_lb: [ 1 x_27_ ^ 2 - 2 x_28_ * x_27_ + 1 x_28_ ^ 2 + 1 y_27_ ^ 2 - 2 y_28_ * y_27_ + 1 y_28_ ^ 2 ] >= 4445.1
c1_1: 1 x_26_ = 0
c2_1: 1 y_26_ = 0
Bounds
-126 <= x_1_ <= 126
-165 <= x_2_ <= 165
-110 <= x_3_ <= 110
-98 <= x_4_ <= 98
-275 <= x_5_ <= 275
-155 <= x_6_ <= 155
-266 <= x_7_ <= 266
-270 <= x_8_ <= 270
-239 <= x_9_ <= 239
-137 <= x_10_ <= 137
-44 <= x_11_ <= 44
-229 <= x_12_ <= 229
-250 <= x_13_ <= 250
-168 <= x_14_ <= 168
-276 <= x_15_ <= 276
-327 <= x_16_ <= 327
-152 <= x_17_ <= 152
-167 <= x_18_ <= 167
-224 <= x_19_ <= 224
-153 <= x_20_ <= 153
-120 <= x_21_ <= 120
-111 <= x_22_ <= 111
-247 <= x_23_ <= 247
-125 <= x_24_ <= 125
-78 <= x_25_ <= 78
x_26_ = 0
-15 <= x_27_ <= 15
-82 <= x_28_ <= 82
-126 <= y_1_ <= 126
-165 <= y_2_ <= 165
-110 <= y_3_ <= 110
-98 <= y_4_ <= 98
-275 <= y_5_ <= 275
-155 <= y_6_ <= 155
-266 <= y_7_ <= 266
-270 <= y_8_ <= 270
-239 <= y_9_ <= 239
-137 <= y_10_ <= 137
-44 <= y_11_ <= 44
-229 <= y_12_ <= 229
-250 <= y_13_ <= 250
-168 <= y_14_ <= 168
-276 <= y_15_ <= 276
-327 <= y_16_ <= 327
-152 <= y_17_ <= 152
-167 <= y_18_ <= 167
-224 <= y_19_ <= 224
-153 <= y_20_ <= 153
-120 <= y_21_ <= 120
-111 <= y_22_ <= 111
-247 <= y_23_ <= 247
-125 <= y_24_ <= 125
-78 <= y_25_ <= 78
y_26_ = 0
-15 <= y_27_ <= 15
-82 <= y_28_ <= 82
General
x_1_
x_2_
x_3_
x_4_
x_5_
x_6_
x_7_
x_8_
x_9_
x_10_
x_11_
x_12_
x_13_
x_14_
x_15_
x_16_
x_17_
x_18_
x_19_
x_20_
x_21_
x_22_
x_23_
x_24_
x_25_
x_26_
x_27_
x_28_
y_1_
y_2_
y_3_
y_4_
y_5_
y_6_
y_7_
y_8_
y_9_
y_10_
y_11_
y_12_
y_13_
y_14_
y_15_
y_16_
y_17_
y_18_
y_19_
y_20_
y_21_
y_22_
y_23_
y_24_
y_25_
y_26_
y_27_
y_28_
End
