minimize
obj: 
subject to
c1_3: -1 x_26_ + 1 y_26_ <= 0
c1: [ 1 x_1_ ^ 2 + 1 y_1_ ^ 2 ] <= 56965.73611017388
c2: [ 1 x_2_ ^ 2 + 1 y_2_ ^ 2 ] <= 28818.96657321055
c3: [ 1 x_3_ ^ 2 + 1 y_3_ ^ 2 ] <= 100520.18155146301
c4: [ 1 x_4_ ^ 2 + 1 y_4_ ^ 2 ] <= 47049.00599620902
c5: [ 1 x_5_ ^ 2 + 1 y_5_ ^ 2 ] <= 26808.028231881734
c6: [ 1 x_6_ ^ 2 + 1 y_6_ ^ 2 ] <= 42407.545892265975
c7: [ 1 x_7_ ^ 2 + 1 y_7_ ^ 2 ] <= 27846.391076877368
c8: [ 1 x_8_ ^ 2 + 1 y_8_ ^ 2 ] <= 2158.37
c9: [ 1 x_9_ ^ 2 + 1 y_9_ ^ 2 ] <= 17807.916583085476
c10: [ 1 x_10_ ^ 2 + 1 y_10_ ^ 2 ] <= 36675.93598998018
c11: [ 1 x_11_ ^ 2 + 1 y_11_ ^ 2 ] <= 25039.45938858124
c12: [ 1 x_12_ ^ 2 + 1 y_12_ ^ 2 ] <= 12614.899999999998
c13: [ 1 x_13_ ^ 2 + 1 y_13_ ^ 2 ] <= 76047.96821183494
c14: [ 1 x_14_ ^ 2 + 1 y_14_ ^ 2 ] <= 68763.757178978
c15: [ 1 x_15_ ^ 2 + 1 y_15_ ^ 2 ] <= 38186.54369159745
c16: [ 1 x_16_ ^ 2 + 1 y_16_ ^ 2 ] <= 18197.24547654619
c17: [ 1 x_17_ ^ 2 + 1 y_17_ ^ 2 ] <= 60192.04988981966
c18: [ 1 x_18_ ^ 2 + 1 y_18_ ^ 2 ] <= 90687.50814271173
c19: [ 1 x_19_ ^ 2 + 1 y_19_ ^ 2 ] <= 17865.03446038569
c20: [ 1 x_20_ ^ 2 + 1 y_20_ ^ 2 ] <= 14397.800887765567
c21: [ 1 x_21_ ^ 2 + 1 y_21_ ^ 2 ] <= 4292.5
c22: [ 1 x_23_ ^ 2 + 1 y_23_ ^ 2 ] <= 2307.849999999999
c23: [ 1 x_24_ ^ 2 + 1 y_24_ ^ 2 ] <= 17570.748902462678
c24: [ 1 x_25_ ^ 2 + 1 y_25_ ^ 2 ] <= 37257.19183726364
c25: [ 1 x_26_ ^ 2 + 1 y_26_ ^ 2 ] <= 104730.75420790236
c26: [ 1 x_27_ ^ 2 + 1 y_27_ ^ 2 ] <= 63831.61567416522
c27: [ 1 x_28_ ^ 2 + 1 y_28_ ^ 2 ] <= 23765.433181232147
quadratic_ranged_1_ub: [ 1 x_1_ ^ 2 - 2 x_2_ * x_1_ + 1 x_2_ ^ 2 + 1 y_1_ ^ 2 - 2 y_2_ * y_1_ + 1 y_2_ ^ 2 ] <= 28184.05
quadratic_ranged_2_ub: [ 1 x_2_ ^ 2 - 2 x_3_ * x_2_ + 1 x_3_ ^ 2 + 1 y_2_ ^ 2 - 2 y_3_ * y_2_ + 1 y_3_ ^ 2 ] <= 35119.72
quadratic_ranged_3_ub: [ 1 x_3_ ^ 2 - 2 x_4_ * x_3_ + 1 x_4_ ^ 2 + 1 y_3_ ^ 2 - 2 y_4_ * y_3_ + 1 y_4_ ^ 2 ] <= 10028.29
quadratic_ranged_4_ub: [ 1 x_2_ ^ 2 - 2 x_5_ * x_2_ + 1 x_5_ ^ 2 + 1 y_2_ ^ 2 - 2 y_5_ * y_2_ + 1 y_5_ ^ 2 ] <= 36.36
quadratic_ranged_5_ub: [ 1 x_4_ ^ 2 - 2 x_5_ * x_4_ + 1 x_5_ ^ 2 + 1 y_4_ ^ 2 - 2 y_5_ * y_4_ + 1 y_5_ ^ 2 ] <= 7155.85
quadratic_ranged_6_ub: [ 1 x_2_ ^ 2 - 2 x_6_ * x_2_ + 1 x_6_ ^ 2 + 1 y_2_ ^ 2 - 2 y_6_ * y_2_ + 1 y_6_ ^ 2 ] <= 26181.22
quadratic_ranged_7_ub: [ 1 x_5_ ^ 2 - 2 x_6_ * x_5_ + 1 x_6_ ^ 2 + 1 y_5_ ^ 2 - 2 y_6_ * y_5_ + 1 y_6_ ^ 2 ] <= 25478.260000000002
quadratic_ranged_8_ub: [ 1 x_6_ ^ 2 - 2 x_7_ * x_6_ + 1 x_7_ ^ 2 + 1 y_6_ ^ 2 - 2 y_7_ * y_6_ + 1 y_7_ ^ 2 ] <= 23765.3
quadratic_ranged_9_ub: [ 1 x_7_ ^ 2 - 2 x_8_ * x_7_ + 1 x_8_ ^ 2 + 1 y_7_ ^ 2 - 2 y_8_ * y_7_ + 1 y_8_ ^ 2 ] <= 14499.56
quadratic_ranged_10_ub: [ 1 x_6_ ^ 2 - 2 x_9_ * x_6_ + 1 x_9_ ^ 2 + 1 y_6_ ^ 2 - 2 y_9_ * y_6_ + 1 y_9_ ^ 2 ] <= 5254.02
quadratic_ranged_11_ub: [ 1 x_8_ ^ 2 - 2 x_9_ * x_8_ + 1 x_9_ ^ 2 + 1 y_8_ ^ 2 - 2 y_9_ * y_8_ + 1 y_9_ ^ 2 ] <= 7566.92
quadratic_ranged_12_ub: [ 1 x_9_ ^ 2 - 2 x_10_ * x_9_ + 1 x_10_ ^ 2 + 1 y_9_ ^ 2 - 2 y_10_ * y_9_ + 1 y_10_ ^ 2 ] <= 26313.53
quadratic_ranged_13_ub: [ 1 x_10_ ^ 2 - 2 x_11_ * x_10_ + 1 x_11_ ^ 2 + 1 y_10_ ^ 2 - 2 y_11_ * y_10_ + 1 y_11_ ^ 2 ] <= 1106.96
quadratic_ranged_14_ub: [ 1 x_2_ ^ 2 - 2 x_12_ * x_2_ + 1 x_12_ ^ 2 + 1 y_2_ ^ 2 - 2 y_12_ * y_2_ + 1 y_12_ ^ 2 ] <= 12064.45
quadratic_ranged_15_ub: [ 1 x_11_ ^ 2 - 2 x_12_ * x_11_ + 1 x_12_ ^ 2 + 1 y_11_ ^ 2 - 2 y_12_ * y_11_ + 1 y_12_ ^ 2 ] <= 2108.88
quadratic_ranged_16_ub: [ 1 x_7_ ^ 2 - 2 x_13_ * x_7_ + 1 x_13_ ^ 2 + 1 y_7_ ^ 2 - 2 y_13_ * y_7_ + 1 y_13_ ^ 2 ] <= 42618.97
quadratic_ranged_17_ub: [ 1 x_12_ ^ 2 - 2 x_13_ * x_12_ + 1 x_13_ ^ 2 + 1 y_12_ ^ 2 - 2 y_13_ * y_12_ + 1 y_13_ ^ 2 ] <= 26716.52
quadratic_ranged_18_ub: [ 1 x_13_ ^ 2 - 2 x_14_ * x_13_ + 1 x_14_ ^ 2 + 1 y_13_ ^ 2 - 2 y_14_ * y_13_ + 1 y_14_ ^ 2 ] <= 29493.010000000002
quadratic_ranged_19_ub: [ 1 x_1_ ^ 2 - 2 x_15_ * x_1_ + 1 x_15_ ^ 2 + 1 y_1_ ^ 2 - 2 y_15_ * y_1_ + 1 y_15_ ^ 2 ] <= 1871.53
quadratic_ranged_20_ub: [ 1 x_14_ ^ 2 - 2 x_15_ * x_14_ + 1 x_15_ ^ 2 + 1 y_14_ ^ 2 - 2 y_15_ * y_14_ + 1 y_15_ ^ 2 ] <= 4464.2
quadratic_ranged_21_ub: [ 1 x_8_ ^ 2 - 2 x_16_ * x_8_ + 1 x_16_ ^ 2 + 1 y_8_ ^ 2 - 2 y_16_ * y_8_ + 1 y_16_ ^ 2 ] <= 7821.4400000000005
quadratic_ranged_22_ub: [ 1 x_15_ ^ 2 - 2 x_16_ * x_15_ + 1 x_16_ ^ 2 + 1 y_15_ ^ 2 - 2 y_16_ * y_15_ + 1 y_16_ ^ 2 ] <= 3662.26
quadratic_ranged_23_ub: [ 1 x_16_ ^ 2 - 2 x_17_ * x_16_ + 1 x_17_ ^ 2 + 1 y_16_ ^ 2 - 2 y_17_ * y_16_ + 1 y_17_ ^ 2 ] <= 12197.77
quadratic_ranged_24_ub: [ 1 x_17_ ^ 2 - 2 x_18_ * x_17_ + 1 x_18_ ^ 2 + 1 y_17_ ^ 2 - 2 y_18_ * y_17_ + 1 y_18_ ^ 2 ] <= 4803.56
quadratic_ranged_25_ub: [ 1 x_18_ ^ 2 - 2 x_19_ * x_18_ + 1 x_19_ ^ 2 + 1 y_18_ ^ 2 - 2 y_19_ * y_18_ + 1 y_19_ ^ 2 ] <= 28050.73
quadratic_ranged_26_ub: [ 1 x_19_ ^ 2 - 2 x_20_ * x_19_ + 1 x_20_ ^ 2 + 1 y_19_ ^ 2 - 2 y_20_ * y_19_ + 1 y_20_ ^ 2 ] <= 186.85
quadratic_ranged_27_ub: [ 1 x_8_ ^ 2 - 2 x_21_ * x_8_ + 1 x_21_ ^ 2 + 1 y_8_ ^ 2 - 2 y_21_ * y_8_ + 1 y_21_ ^ 2 ] <= 5406.53
quadratic_ranged_28_ub: [ 1 x_20_ ^ 2 - 2 x_21_ * x_20_ + 1 x_21_ ^ 2 + 1 y_20_ ^ 2 - 2 y_21_ * y_20_ + 1 y_21_ ^ 2 ] <= 2967.38
quadratic_ranged_29_ub: [ 1 x_8_ ^ 2 - 2 x_22_ * x_8_ + 1 x_22_ ^ 2 + 1 y_8_ ^ 2 - 2 y_22_ * y_8_ + 1 y_22_ ^ 2 ] <= 2158.37
quadratic_ranged_30_ub: [ 1 x_12_ ^ 2 - 2 x_22_ * x_12_ + 1 x_22_ ^ 2 + 1 y_12_ ^ 2 - 2 y_22_ * y_12_ + 1 y_22_ ^ 2 ] <= 12614.9
quadratic_ranged_31_ub: [ 1 x_21_ ^ 2 - 2 x_22_ * x_21_ + 1 x_22_ ^ 2 + 1 y_21_ ^ 2 - 2 y_22_ * y_21_ + 1 y_22_ ^ 2 ] <= 4292.5
quadratic_ranged_32_ub: [ 1 x_5_ ^ 2 - 2 x_23_ * x_5_ + 1 x_23_ ^ 2 + 1 y_5_ ^ 2 - 2 y_23_ * y_5_ + 1 y_23_ ^ 2 ] <= 13384.52
quadratic_ranged_33_ub: [ 1 x_22_ ^ 2 - 2 x_23_ * x_22_ + 1 x_23_ ^ 2 + 1 y_22_ ^ 2 - 2 y_23_ * y_22_ + 1 y_23_ ^ 2 ] <= 2307.85
quadratic_ranged_34_ub: [ 1 x_4_ ^ 2 - 2 x_24_ * x_4_ + 1 x_24_ ^ 2 + 1 y_4_ ^ 2 - 2 y_24_ * y_4_ + 1 y_24_ ^ 2 ] <= 7115.45
quadratic_ranged_35_ub: [ 1 x_7_ ^ 2 - 2 x_24_ * x_7_ + 1 x_24_ ^ 2 + 1 y_7_ ^ 2 - 2 y_24_ * y_7_ + 1 y_24_ ^ 2 ] <= 3361.28
quadratic_ranged_36_ub: [ 1 x_23_ ^ 2 - 2 x_24_ * x_23_ + 1 x_24_ ^ 2 + 1 y_23_ ^ 2 - 2 y_24_ * y_23_ + 1 y_24_ ^ 2 ] <= 7142.72
quadratic_ranged_37_ub: [ 1 x_24_ ^ 2 - 2 x_25_ * x_24_ + 1 x_25_ ^ 2 + 1 y_24_ ^ 2 - 2 y_25_ * y_24_ + 1 y_25_ ^ 2 ] <= 3656.2
quadratic_ranged_38_ub: [ 1 x_24_ ^ 2 - 2 x_26_ * x_24_ + 1 x_26_ ^ 2 + 1 y_24_ ^ 2 - 2 y_26_ * y_24_ + 1 y_26_ ^ 2 ] <= 36506.45
quadratic_ranged_39_ub: [ 1 x_25_ ^ 2 - 2 x_26_ * x_25_ + 1 x_26_ ^ 2 + 1 y_25_ ^ 2 - 2 y_26_ * y_25_ + 1 y_26_ ^ 2 ] <= 24305.65
quadratic_ranged_40_ub: [ 1 x_11_ ^ 2 - 2 x_27_ * x_11_ + 1 x_27_ ^ 2 + 1 y_11_ ^ 2 - 2 y_27_ * y_11_ + 1 y_27_ ^ 2 ] <= 15248.98
quadratic_ranged_41_ub: [ 1 x_13_ ^ 2 - 2 x_27_ * x_13_ + 1 x_27_ ^ 2 + 1 y_13_ ^ 2 - 2 y_27_ * y_13_ + 1 y_27_ ^ 2 ] <= 25502.5
quadratic_ranged_42_ub: [ 1 x_19_ ^ 2 - 2 x_27_ * x_19_ + 1 x_27_ ^ 2 + 1 y_19_ ^ 2 - 2 y_27_ * y_19_ + 1 y_27_ ^ 2 ] <= 15930.73
quadratic_ranged_43_ub: [ 1 x_26_ ^ 2 - 2 x_27_ * x_26_ + 1 x_27_ ^ 2 + 1 y_26_ ^ 2 - 2 y_27_ * y_26_ + 1 y_27_ ^ 2 ] <= 25540.88
quadratic_ranged_44_ub: [ 1 x_1_ ^ 2 - 2 x_28_ * x_1_ + 1 x_28_ ^ 2 + 1 y_1_ ^ 2 - 2 y_28_ * y_1_ + 1 y_28_ ^ 2 ] <= 23080.52
quadratic_ranged_45_ub: [ 1 x_20_ ^ 2 - 2 x_28_ * x_20_ + 1 x_28_ ^ 2 + 1 y_20_ ^ 2 - 2 y_28_ * y_20_ + 1 y_28_ ^ 2 ] <= 1167.56
quadratic_ranged_46_ub: [ 1 x_27_ ^ 2 - 2 x_28_ * x_27_ + 1 x_28_ ^ 2 + 1 y_27_ ^ 2 - 2 y_28_ * y_27_ + 1 y_28_ ^ 2 ] <= 9700.04
c1_2: 1 x_26_ >= 0
c2_2: 1 y_26_ >= 0
quadratic_ranged_1_lb: [ 1 x_1_ ^ 2 - 2 x_2_ * x_1_ + 1 x_2_ ^ 2 + 1 y_1_ ^ 2 - 2 y_2_ * y_1_ + 1 y_2_ ^ 2 ] >= 27625.95
quadratic_ranged_2_lb: [ 1 x_2_ ^ 2 - 2 x_3_ * x_2_ + 1 x_3_ ^ 2 + 1 y_2_ ^ 2 - 2 y_3_ * y_2_ + 1 y_3_ ^ 2 ] >= 34424.28
quadratic_ranged_3_lb: [ 1 x_3_ ^ 2 - 2 x_4_ * x_3_ + 1 x_4_ ^ 2 + 1 y_3_ ^ 2 - 2 y_4_ * y_3_ + 1 y_4_ ^ 2 ] >= 9829.71
quadratic_ranged_4_lb: [ 1 x_2_ ^ 2 - 2 x_5_ * x_2_ + 1 x_5_ ^ 2 + 1 y_2_ ^ 2 - 2 y_5_ * y_2_ + 1 y_5_ ^ 2 ] >= 35.64
quadratic_ranged_5_lb: [ 1 x_4_ ^ 2 - 2 x_5_ * x_4_ + 1 x_5_ ^ 2 + 1 y_4_ ^ 2 - 2 y_5_ * y_4_ + 1 y_5_ ^ 2 ] >= 7014.15
quadratic_ranged_6_lb: [ 1 x_2_ ^ 2 - 2 x_6_ * x_2_ + 1 x_6_ ^ 2 + 1 y_2_ ^ 2 - 2 y_6_ * y_2_ + 1 y_6_ ^ 2 ] >= 25662.78
quadratic_ranged_7_lb: [ 1 x_5_ ^ 2 - 2 x_6_ * x_5_ + 1 x_6_ ^ 2 + 1 y_5_ ^ 2 - 2 y_6_ * y_5_ + 1 y_6_ ^ 2 ] >= 24973.739999999998
quadratic_ranged_8_lb: [ 1 x_6_ ^ 2 - 2 x_7_ * x_6_ + 1 x_7_ ^ 2 + 1 y_6_ ^ 2 - 2 y_7_ * y_6_ + 1 y_7_ ^ 2 ] >= 23294.7
quadratic_ranged_9_lb: [ 1 x_7_ ^ 2 - 2 x_8_ * x_7_ + 1 x_8_ ^ 2 + 1 y_7_ ^ 2 - 2 y_8_ * y_7_ + 1 y_8_ ^ 2 ] >= 14212.44
quadratic_ranged_10_lb: [ 1 x_6_ ^ 2 - 2 x_9_ * x_6_ + 1 x_9_ ^ 2 + 1 y_6_ ^ 2 - 2 y_9_ * y_6_ + 1 y_9_ ^ 2 ] >= 5149.98
quadratic_ranged_11_lb: [ 1 x_8_ ^ 2 - 2 x_9_ * x_8_ + 1 x_9_ ^ 2 + 1 y_8_ ^ 2 - 2 y_9_ * y_8_ + 1 y_9_ ^ 2 ] >= 7417.08
quadratic_ranged_12_lb: [ 1 x_9_ ^ 2 - 2 x_10_ * x_9_ + 1 x_10_ ^ 2 + 1 y_9_ ^ 2 - 2 y_10_ * y_9_ + 1 y_10_ ^ 2 ] >= 25792.47
quadratic_ranged_13_lb: [ 1 x_10_ ^ 2 - 2 x_11_ * x_10_ + 1 x_11_ ^ 2 + 1 y_10_ ^ 2 - 2 y_11_ * y_10_ + 1 y_11_ ^ 2 ] >= 1085.04
quadratic_ranged_14_lb: [ 1 x_2_ ^ 2 - 2 x_12_ * x_2_ + 1 x_12_ ^ 2 + 1 y_2_ ^ 2 - 2 y_12_ * y_2_ + 1 y_12_ ^ 2 ] >= 11825.55
quadratic_ranged_15_lb: [ 1 x_11_ ^ 2 - 2 x_12_ * x_11_ + 1 x_12_ ^ 2 + 1 y_11_ ^ 2 - 2 y_12_ * y_11_ + 1 y_12_ ^ 2 ] >= 2067.12
quadratic_ranged_16_lb: [ 1 x_7_ ^ 2 - 2 x_13_ * x_7_ + 1 x_13_ ^ 2 + 1 y_7_ ^ 2 - 2 y_13_ * y_7_ + 1 y_13_ ^ 2 ] >= 41775.03
quadratic_ranged_17_lb: [ 1 x_12_ ^ 2 - 2 x_13_ * x_12_ + 1 x_13_ ^ 2 + 1 y_12_ ^ 2 - 2 y_13_ * y_12_ + 1 y_13_ ^ 2 ] >= 26187.48
quadratic_ranged_18_lb: [ 1 x_13_ ^ 2 - 2 x_14_ * x_13_ + 1 x_14_ ^ 2 + 1 y_13_ ^ 2 - 2 y_14_ * y_13_ + 1 y_14_ ^ 2 ] >= 28908.989999999998
quadratic_ranged_19_lb: [ 1 x_1_ ^ 2 - 2 x_15_ * x_1_ + 1 x_15_ ^ 2 + 1 y_1_ ^ 2 - 2 y_15_ * y_1_ + 1 y_15_ ^ 2 ] >= 1834.47
quadratic_ranged_20_lb: [ 1 x_14_ ^ 2 - 2 x_15_ * x_14_ + 1 x_15_ ^ 2 + 1 y_14_ ^ 2 - 2 y_15_ * y_14_ + 1 y_15_ ^ 2 ] >= 4375.8
quadratic_ranged_21_lb: [ 1 x_8_ ^ 2 - 2 x_16_ * x_8_ + 1 x_16_ ^ 2 + 1 y_8_ ^ 2 - 2 y_16_ * y_8_ + 1 y_16_ ^ 2 ] >= 7666.5599999999995
quadratic_ranged_22_lb: [ 1 x_15_ ^ 2 - 2 x_16_ * x_15_ + 1 x_16_ ^ 2 + 1 y_15_ ^ 2 - 2 y_16_ * y_15_ + 1 y_16_ ^ 2 ] >= 3589.74
quadratic_ranged_23_lb: [ 1 x_16_ ^ 2 - 2 x_17_ * x_16_ + 1 x_17_ ^ 2 + 1 y_16_ ^ 2 - 2 y_17_ * y_16_ + 1 y_17_ ^ 2 ] >= 11956.23
quadratic_ranged_24_lb: [ 1 x_17_ ^ 2 - 2 x_18_ * x_17_ + 1 x_18_ ^ 2 + 1 y_17_ ^ 2 - 2 y_18_ * y_17_ + 1 y_18_ ^ 2 ] >= 4708.44
quadratic_ranged_25_lb: [ 1 x_18_ ^ 2 - 2 x_19_ * x_18_ + 1 x_19_ ^ 2 + 1 y_18_ ^ 2 - 2 y_19_ * y_18_ + 1 y_19_ ^ 2 ] >= 27495.27
quadratic_ranged_26_lb: [ 1 x_19_ ^ 2 - 2 x_20_ * x_19_ + 1 x_20_ ^ 2 + 1 y_19_ ^ 2 - 2 y_20_ * y_19_ + 1 y_20_ ^ 2 ] >= 183.15
quadratic_ranged_27_lb: [ 1 x_8_ ^ 2 - 2 x_21_ * x_8_ + 1 x_21_ ^ 2 + 1 y_8_ ^ 2 - 2 y_21_ * y_8_ + 1 y_21_ ^ 2 ] >= 5299.47
quadratic_ranged_28_lb: [ 1 x_20_ ^ 2 - 2 x_21_ * x_20_ + 1 x_21_ ^ 2 + 1 y_20_ ^ 2 - 2 y_21_ * y_20_ + 1 y_21_ ^ 2 ] >= 2908.62
quadratic_ranged_29_lb: [ 1 x_8_ ^ 2 - 2 x_22_ * x_8_ + 1 x_22_ ^ 2 + 1 y_8_ ^ 2 - 2 y_22_ * y_8_ + 1 y_22_ ^ 2 ] >= 2115.63
quadratic_ranged_30_lb: [ 1 x_12_ ^ 2 - 2 x_22_ * x_12_ + 1 x_22_ ^ 2 + 1 y_12_ ^ 2 - 2 y_22_ * y_12_ + 1 y_22_ ^ 2 ] >= 12365.1
quadratic_ranged_31_lb: [ 1 x_21_ ^ 2 - 2 x_22_ * x_21_ + 1 x_22_ ^ 2 + 1 y_21_ ^ 2 - 2 y_22_ * y_21_ + 1 y_22_ ^ 2 ] >= 4207.5
quadratic_ranged_32_lb: [ 1 x_5_ ^ 2 - 2 x_23_ * x_5_ + 1 x_23_ ^ 2 + 1 y_5_ ^ 2 - 2 y_23_ * y_5_ + 1 y_23_ ^ 2 ] >= 13119.48
quadratic_ranged_33_lb: [ 1 x_22_ ^ 2 - 2 x_23_ * x_22_ + 1 x_23_ ^ 2 + 1 y_22_ ^ 2 - 2 y_23_ * y_22_ + 1 y_23_ ^ 2 ] >= 2262.15
quadratic_ranged_34_lb: [ 1 x_4_ ^ 2 - 2 x_24_ * x_4_ + 1 x_24_ ^ 2 + 1 y_4_ ^ 2 - 2 y_24_ * y_4_ + 1 y_24_ ^ 2 ] >= 6974.55
quadratic_ranged_35_lb: [ 1 x_7_ ^ 2 - 2 x_24_ * x_7_ + 1 x_24_ ^ 2 + 1 y_7_ ^ 2 - 2 y_24_ * y_7_ + 1 y_24_ ^ 2 ] >= 3294.72
quadratic_ranged_36_lb: [ 1 x_23_ ^ 2 - 2 x_24_ * x_23_ + 1 x_24_ ^ 2 + 1 y_23_ ^ 2 - 2 y_24_ * y_23_ + 1 y_24_ ^ 2 ] >= 7001.28
quadratic_ranged_37_lb: [ 1 x_24_ ^ 2 - 2 x_25_ * x_24_ + 1 x_25_ ^ 2 + 1 y_24_ ^ 2 - 2 y_25_ * y_24_ + 1 y_25_ ^ 2 ] >= 3583.8
quadratic_ranged_38_lb: [ 1 x_24_ ^ 2 - 2 x_26_ * x_24_ + 1 x_26_ ^ 2 + 1 y_24_ ^ 2 - 2 y_26_ * y_24_ + 1 y_26_ ^ 2 ] >= 35783.55
quadratic_ranged_39_lb: [ 1 x_25_ ^ 2 - 2 x_26_ * x_25_ + 1 x_26_ ^ 2 + 1 y_25_ ^ 2 - 2 y_26_ * y_25_ + 1 y_26_ ^ 2 ] >= 23824.35
quadratic_ranged_40_lb: [ 1 x_11_ ^ 2 - 2 x_27_ * x_11_ + 1 x_27_ ^ 2 + 1 y_11_ ^ 2 - 2 y_27_ * y_11_ + 1 y_27_ ^ 2 ] >= 14947.02
quadratic_ranged_41_lb: [ 1 x_13_ ^ 2 - 2 x_27_ * x_13_ + 1 x_27_ ^ 2 + 1 y_13_ ^ 2 - 2 y_27_ * y_13_ + 1 y_27_ ^ 2 ] >= 24997.5
quadratic_ranged_42_lb: [ 1 x_19_ ^ 2 - 2 x_27_ * x_19_ + 1 x_27_ ^ 2 + 1 y_19_ ^ 2 - 2 y_27_ * y_19_ + 1 y_27_ ^ 2 ] >= 15615.27
quadratic_ranged_43_lb: [ 1 x_26_ ^ 2 - 2 x_27_ * x_26_ + 1 x_27_ ^ 2 + 1 y_26_ ^ 2 - 2 y_27_ * y_26_ + 1 y_27_ ^ 2 ] >= 25035.12
quadratic_ranged_44_lb: [ 1 x_1_ ^ 2 - 2 x_28_ * x_1_ + 1 x_28_ ^ 2 + 1 y_1_ ^ 2 - 2 y_28_ * y_1_ + 1 y_28_ ^ 2 ] >= 22623.48
quadratic_ranged_45_lb: [ 1 x_20_ ^ 2 - 2 x_28_ * x_20_ + 1 x_28_ ^ 2 + 1 y_20_ ^ 2 - 2 y_28_ * y_20_ + 1 y_28_ ^ 2 ] >= 1144.44
quadratic_ranged_46_lb: [ 1 x_27_ ^ 2 - 2 x_28_ * x_27_ + 1 x_28_ ^ 2 + 1 y_27_ ^ 2 - 2 y_28_ * y_27_ + 1 y_28_ ^ 2 ] >= 9507.96
c1_1: 1 x_22_ = 0
c2_1: 1 y_22_ = 0
Bounds
-238 <= x_1_ <= 238
-169 <= x_2_ <= 169
-317 <= x_3_ <= 317
-216 <= x_4_ <= 216
-163 <= x_5_ <= 163
-205 <= x_6_ <= 205
-166 <= x_7_ <= 166
-46 <= x_8_ <= 46
-133 <= x_9_ <= 133
-191 <= x_10_ <= 191
-158 <= x_11_ <= 158
-112 <= x_12_ <= 112
-275 <= x_13_ <= 275
-262 <= x_14_ <= 262
-195 <= x_15_ <= 195
-134 <= x_16_ <= 134
-245 <= x_17_ <= 245
-301 <= x_18_ <= 301
-133 <= x_19_ <= 133
-119 <= x_20_ <= 119
-65 <= x_21_ <= 65
x_22_ = 0
-48 <= x_23_ <= 48
-132 <= x_24_ <= 132
-193 <= x_25_ <= 193
-323 <= x_26_ <= 323
-252 <= x_27_ <= 252
-154 <= x_28_ <= 154
-238 <= y_1_ <= 238
-169 <= y_2_ <= 169
-317 <= y_3_ <= 317
-216 <= y_4_ <= 216
-163 <= y_5_ <= 163
-205 <= y_6_ <= 205
-166 <= y_7_ <= 166
-46 <= y_8_ <= 46
-133 <= y_9_ <= 133
-191 <= y_10_ <= 191
-158 <= y_11_ <= 158
-112 <= y_12_ <= 112
-275 <= y_13_ <= 275
-262 <= y_14_ <= 262
-195 <= y_15_ <= 195
-134 <= y_16_ <= 134
-245 <= y_17_ <= 245
-301 <= y_18_ <= 301
-133 <= y_19_ <= 133
-119 <= y_20_ <= 119
-65 <= y_21_ <= 65
y_22_ = 0
-48 <= y_23_ <= 48
-132 <= y_24_ <= 132
-193 <= y_25_ <= 193
-323 <= y_26_ <= 323
-252 <= y_27_ <= 252
-154 <= y_28_ <= 154
General
x_1_
x_2_
x_3_
x_4_
x_5_
x_6_
x_7_
x_8_
x_9_
x_10_
x_11_
x_12_
x_13_
x_14_
x_15_
x_16_
x_17_
x_18_
x_19_
x_20_
x_21_
x_22_
x_23_
x_24_
x_25_
x_26_
x_27_
x_28_
y_1_
y_2_
y_3_
y_4_
y_5_
y_6_
y_7_
y_8_
y_9_
y_10_
y_11_
y_12_
y_13_
y_14_
y_15_
y_16_
y_17_
y_18_
y_19_
y_20_
y_21_
y_22_
y_23_
y_24_
y_25_
y_26_
y_27_
y_28_
End
