minimize
obj: 
subject to
c1: -124 x_1_ + 154 y_1_ + [ 1 x_1_ ^ 2 + 1 y_1_ ^ 2 ] <= 26358.842870590874
c2: -124 x_2_ + 154 y_2_ + [ 1 x_2_ ^ 2 + 1 y_2_ ^ 2 ] <= 23585.888175468623
c3: -124 x_3_ + 154 y_3_ + [ 1 x_3_ ^ 2 + 1 y_3_ ^ 2 ] <= 56499.26361897336
c4: -124 x_4_ + 154 y_4_ + [ 1 x_4_ ^ 2 + 1 y_4_ ^ 2 ] <= 13294.8472632312
c5: -124 x_5_ + 154 y_5_ + [ 1 x_5_ ^ 2 + 1 y_5_ ^ 2 ] <= 21472.282966517974
c6: -124 x_6_ + 154 y_6_ + [ 1 x_6_ ^ 2 + 1 y_6_ ^ 2 ] <= 35575.0982885367
c7: -124 x_7_ + 154 y_7_ + [ 1 x_7_ ^ 2 + 1 y_7_ ^ 2 ] <= 20762.329999999998
c8: -124 x_8_ + 154 y_8_ + [ 1 x_8_ ^ 2 + 1 y_8_ ^ 2 ] <= 5807.259999999998
c9: -124 x_9_ + 154 y_9_ + [ 1 x_9_ ^ 2 + 1 y_9_ ^ 2 ] <= 40199.49018516594
c10: -124 x_10_ + 154 y_10_ + [ 1 x_10_ ^ 2 + 1 y_10_ ^ 2 ] <= 52518.22357280533
c11: -124 x_11_ + 154 y_11_ + [ 1 x_11_ ^ 2 + 1 y_11_ ^ 2 ] <= 94033.46057906732
c12: -124 x_12_ + 154 y_12_ + [ 1 x_12_ ^ 2 + 1 y_12_ ^ 2 ] <= 69112.54508062205
c13: -124 x_13_ + 154 y_13_ + [ 1 x_13_ ^ 2 + 1 y_13_ ^ 2 ] <= 68980.24933498785
c14: -124 x_14_ + 154 y_14_ + [ 1 x_14_ ^ 2 + 1 y_14_ ^ 2 ] <= 46636.579270544775
c15: -124 x_15_ + 154 y_15_ + [ 1 x_15_ ^ 2 + 1 y_15_ ^ 2 ] <= 41461.98363739048
c16: -124 x_16_ + 154 y_16_ + [ 1 x_16_ ^ 2 + 1 y_16_ ^ 2 ] <= 56486.65559818447
c17: -124 x_17_ + 154 y_17_ + [ 1 x_17_ ^ 2 + 1 y_17_ ^ 2 ] <= 102862.93749757772
c18: -124 x_18_ + 154 y_18_ + [ 1 x_18_ ^ 2 + 1 y_18_ ^ 2 ] <= 27056.32710168344
c19: -124 x_19_ + 154 y_19_ + [ 1 x_19_ ^ 2 + 1 y_19_ ^ 2 ] <= 69270.10520648767
c20: -124 x_20_ + 154 y_20_ + [ 1 x_20_ ^ 2 + 1 y_20_ ^ 2 ] <= 40405.595064782196
c21: -124 x_21_ + 154 y_21_ + [ 1 x_21_ ^ 2 + 1 y_21_ ^ 2 ] <= 142775.336276836
c22: -124 x_22_ + 154 y_22_ + [ 1 x_22_ ^ 2 + 1 y_22_ ^ 2 ] <= 48943.13939847928
c23: -124 x_23_ + 154 y_23_ + [ 1 x_23_ ^ 2 + 1 y_23_ ^ 2 ] <= 29822.815976165955
c24: -124 x_24_ + 154 y_24_ + [ 1 x_24_ ^ 2 + 1 y_24_ ^ 2 ] <= 49073.127927948866
c25: -124 x_25_ + 154 y_25_ + [ 1 x_25_ ^ 2 + 1 y_25_ ^ 2 ] <= 85764.05423243872
c26: -124 x_26_ + 154 y_26_ + [ 1 x_26_ ^ 2 + 1 y_26_ ^ 2 ] <= 63996.625392529255
c27: -124 x_28_ + 154 y_28_ + [ 1 x_28_ ^ 2 + 1 y_28_ ^ 2 ] <= 62330.6257612778
c28: -124 x_1_ + 66 y_1_ + [ 1 x_1_ ^ 2 + 1 y_1_ ^ 2 ] <= 12519.08018197725
c29: -124 x_2_ + 66 y_2_ + [ 1 x_2_ ^ 2 + 1 y_2_ ^ 2 ] <= 35497.02855840546
c30: -124 x_3_ + 66 y_3_ + [ 1 x_3_ ^ 2 + 1 y_3_ ^ 2 ] <= 49267.85528302576
c31: -124 x_4_ + 66 y_4_ + [ 1 x_4_ ^ 2 + 1 y_4_ ^ 2 ] <= 24072.179357887155
c32: -124 x_5_ + 66 y_5_ + [ 1 x_5_ ^ 2 + 1 y_5_ ^ 2 ] <= 33166.67995647426
c33: -124 x_6_ + 66 y_6_ + [ 1 x_6_ ^ 2 + 1 y_6_ ^ 2 ] <= 69337.81857596827
c34: -124 x_7_ + 66 y_7_ + [ 1 x_7_ ^ 2 + 1 y_7_ ^ 2 ] <= 17603.130000000005
c35: -124 x_8_ + 66 y_8_ + [ 1 x_8_ ^ 2 + 1 y_8_ ^ 2 ] <= 34021.59651158745
c36: -124 x_9_ + 66 y_9_ + [ 1 x_9_ ^ 2 + 1 y_9_ ^ 2 ] <= 53618.37555823465
c37: -124 x_10_ + 66 y_10_ + [ 1 x_10_ ^ 2 + 1 y_10_ ^ 2 ] <= 2768.25
c38: -124 x_12_ + 66 y_12_ + [ 1 x_12_ ^ 2 + 1 y_12_ ^ 2 ] <= 59270.80239846373
c39: -124 x_13_ + 66 y_13_ + [ 1 x_13_ ^ 2 + 1 y_13_ ^ 2 ] <= 31035.316511985802
c40: -124 x_14_ + 66 y_14_ + [ 1 x_14_ ^ 2 + 1 y_14_ ^ 2 ] <= 60570.05614932996
c41: -124 x_15_ + 66 y_15_ + [ 1 x_15_ ^ 2 + 1 y_15_ ^ 2 ] <= 13393.259287854318
c42: -124 x_16_ + 66 y_16_ + [ 1 x_16_ ^ 2 + 1 y_16_ ^ 2 ] <= 41873.11472949108
c43: -124 x_17_ + 66 y_17_ + [ 1 x_17_ ^ 2 + 1 y_17_ ^ 2 ] <= 72148.37205134929
c44: -124 x_18_ + 66 y_18_ + [ 1 x_18_ ^ 2 + 1 y_18_ ^ 2 ] <= 39308.95851017199
c45: -124 x_19_ + 66 y_19_ + [ 1 x_19_ ^ 2 + 1 y_19_ ^ 2 ] <= 84811.99865215181
c46: -124 x_20_ + 66 y_20_ + [ 1 x_20_ ^ 2 + 1 y_20_ ^ 2 ] <= 72809.27977912655
c47: -124 x_21_ + 66 y_21_ + [ 1 x_21_ ^ 2 + 1 y_21_ ^ 2 ] <= 47393.121202161536
c48: -124 x_22_ + 66 y_22_ + [ 1 x_22_ ^ 2 + 1 y_22_ ^ 2 ] <= 1447.17
c49: -124 x_23_ + 66 y_23_ + [ 1 x_23_ ^ 2 + 1 y_23_ ^ 2 ] <= 42336.28853955472
c50: -124 x_24_ + 66 y_24_ + [ 1 x_24_ ^ 2 + 1 y_24_ ^ 2 ] <= 63193.34994262534
c51: -124 x_25_ + 66 y_25_ + [ 1 x_25_ ^ 2 + 1 y_25_ ^ 2 ] <= 42640.60524272518
c52: -124 x_26_ + 66 y_26_ + [ 1 x_26_ ^ 2 + 1 y_26_ ^ 2 ] <= 79186.5374408243
c53: -124 x_27_ + 66 y_27_ + [ 1 x_27_ ^ 2 + 1 y_27_ ^ 2 ] <= 98873.46057906735
c54: -124 x_28_ + 66 y_28_ + [ 1 x_28_ ^ 2 + 1 y_28_ ^ 2 ] <= 77562.7798289111
c55: -86 x_2_ + 20 y_2_ + [ 1 x_2_ ^ 2 + 1 y_2_ ^ 2 ] <= 2807.2920347198333
c56: -86 x_3_ + 20 y_3_ + [ 1 x_3_ ^ 2 + 1 y_3_ ^ 2 ] <= 23593.438404215252
c57: -86 x_4_ + 20 y_4_ + [ 1 x_4_ ^ 2 + 1 y_4_ ^ 2 ] <= -489.55000000000064
c58: -86 x_5_ + 20 y_5_ + [ 1 x_5_ ^ 2 + 1 y_5_ ^ 2 ] <= 2030.7262631791373
c59: -86 x_6_ + 20 y_6_ + [ 1 x_6_ ^ 2 + 1 y_6_ ^ 2 ] <= 17768.89112739572
c60: -86 x_7_ + 20 y_7_ + [ 1 x_7_ ^ 2 + 1 y_7_ ^ 2 ] <= 13222.21
c61: -86 x_8_ + 20 y_8_ + [ 1 x_8_ ^ 2 + 1 y_8_ ^ 2 ] <= 2310.2417891786363
c62: -86 x_9_ + 20 y_9_ + [ 1 x_9_ ^ 2 + 1 y_9_ ^ 2 ] <= 10121.888108139614
c63: -86 x_10_ + 20 y_10_ + [ 1 x_10_ ^ 2 + 1 y_10_ ^ 2 ] <= 1591.0499999999997
c64: -86 x_11_ + 20 y_11_ + [ 1 x_11_ ^ 2 + 1 y_11_ ^ 2 ] <= 15503.08018197725
c65: -86 x_12_ + 20 y_12_ + [ 1 x_12_ ^ 2 + 1 y_12_ ^ 2 ] <= 26002.635116426543
c66: -86 x_13_ + 20 y_13_ + [ 1 x_13_ ^ 2 + 1 y_13_ ^ 2 ] <= 24099.249540767298
c67: -86 x_14_ + 20 y_14_ + [ 1 x_14_ ^ 2 + 1 y_14_ ^ 2 ] <= 13384.702212156357
c68: -86 x_15_ + 20 y_15_ + [ 1 x_15_ ^ 2 + 1 y_15_ ^ 2 ] <= 9524.852044305047
c69: -86 x_16_ + 20 y_16_ + [ 1 x_16_ ^ 2 + 1 y_16_ ^ 2 ] <= 18709.665948534017
c70: -86 x_17_ + 20 y_17_ + [ 1 x_17_ ^ 2 + 1 y_17_ ^ 2 ] <= 19229.68999999999
c71: -86 x_18_ + 20 y_18_ + [ 1 x_18_ ^ 2 + 1 y_18_ ^ 2 ] <= 4171.152474709583
c72: -86 x_19_ + 20 y_19_ + [ 1 x_19_ ^ 2 + 1 y_19_ ^ 2 ] <= 26096.656549781084
c73: -86 x_20_ + 20 y_20_ + [ 1 x_20_ ^ 2 + 1 y_20_ ^ 2 ] <= 19576.79135182444
c74: -86 x_21_ + 20 y_21_ + [ 1 x_21_ ^ 2 + 1 y_21_ ^ 2 ] <= 38247.47611541468
c75: -86 x_22_ + 20 y_22_ + [ 1 x_22_ ^ 2 + 1 y_22_ ^ 2 ] <= 779.0099999999993
c76: -86 x_23_ + 20 y_23_ + [ 1 x_23_ ^ 2 + 1 y_23_ ^ 2 ] <= 5328.573103995438
c77: -86 x_24_ + 20 y_24_ + [ 1 x_24_ ^ 2 + 1 y_24_ ^ 2 ] <= 14667.22245390404
c78: -86 x_25_ + 20 y_25_ + [ 1 x_25_ ^ 2 + 1 y_25_ ^ 2 ] <= 34096.03379973645
c79: -86 x_26_ + 20 y_26_ + [ 1 x_26_ ^ 2 + 1 y_26_ ^ 2 ] <= 22992.05159884207
c80: -86 x_27_ + 20 y_27_ + [ 1 x_27_ ^ 2 + 1 y_27_ ^ 2 ] <= 34182.842870590874
c81: -86 x_28_ + 20 y_28_ + [ 1 x_28_ ^ 2 + 1 y_28_ ^ 2 ] <= 34620.714159308634
quadratic_ranged_1_ub: [ 1 x_1_ ^ 2 - 2 x_4_ * x_1_ + 1 x_4_ ^ 2 + 1 y_1_ ^ 2 - 2 y_4_ * y_1_ + 1 y_4_ ^ 2 ] <= 1459.45
quadratic_ranged_2_ub: [ 1 x_2_ ^ 2 - 2 x_4_ * x_2_ + 1 x_4_ ^ 2 + 1 y_2_ ^ 2 - 2 y_4_ * y_2_ + 1 y_4_ ^ 2 ] <= 946.37
quadratic_ranged_3_ub: [ 1 x_3_ ^ 2 - 2 x_5_ * x_3_ + 1 x_5_ ^ 2 + 1 y_3_ ^ 2 - 2 y_5_ * y_3_ + 1 y_5_ ^ 2 ] <= 9357.65
quadratic_ranged_4_ub: [ 1 x_4_ ^ 2 - 2 x_5_ * x_4_ + 1 x_5_ ^ 2 + 1 y_4_ ^ 2 - 2 y_5_ * y_4_ + 1 y_5_ ^ 2 ] <= 619.13
quadratic_ranged_5_ub: [ 1 x_2_ ^ 2 - 2 x_6_ * x_2_ + 1 x_6_ ^ 2 + 1 y_2_ ^ 2 - 2 y_6_ * y_2_ + 1 y_6_ ^ 2 ] <= 13703.68
quadratic_ranged_6_ub: [ 1 x_4_ ^ 2 - 2 x_6_ * x_4_ + 1 x_6_ ^ 2 + 1 y_4_ ^ 2 - 2 y_6_ * y_4_ + 1 y_6_ ^ 2 ] <= 10448.45
quadratic_ranged_7_ub: [ 1 x_1_ ^ 2 - 2 x_7_ * x_1_ + 1 x_7_ ^ 2 + 1 y_1_ ^ 2 - 2 y_7_ * y_1_ + 1 y_7_ ^ 2 ] <= 15171.210000000001
quadratic_ranged_8_ub: [ 1 x_3_ ^ 2 - 2 x_7_ * x_3_ + 1 x_7_ ^ 2 + 1 y_3_ ^ 2 - 2 y_7_ * y_3_ + 1 y_7_ ^ 2 ] <= 6837.7
quadratic_ranged_9_ub: [ 1 x_4_ ^ 2 - 2 x_8_ * x_4_ + 1 x_8_ ^ 2 + 1 y_4_ ^ 2 - 2 y_8_ * y_4_ + 1 y_8_ ^ 2 ] <= 732.25
quadratic_ranged_10_ub: [ 1 x_6_ ^ 2 - 2 x_8_ * x_6_ + 1 x_8_ ^ 2 + 1 y_6_ ^ 2 - 2 y_8_ * y_6_ + 1 y_8_ ^ 2 ] <= 7766.9
quadratic_ranged_11_ub: [ 1 x_4_ ^ 2 - 2 x_9_ * x_4_ + 1 x_9_ ^ 2 + 1 y_4_ ^ 2 - 2 y_9_ * y_4_ + 1 y_9_ ^ 2 ] <= 5135.85
quadratic_ranged_12_ub: [ 1 x_8_ ^ 2 - 2 x_9_ * x_8_ + 1 x_9_ ^ 2 + 1 y_8_ ^ 2 - 2 y_9_ * y_8_ + 1 y_9_ ^ 2 ] <= 9746.5
quadratic_ranged_13_ub: [ 1 x_1_ ^ 2 - 2 x_10_ * x_1_ + 1 x_10_ ^ 2 + 1 y_1_ ^ 2 - 2 y_10_ * y_1_ + 1 y_10_ ^ 2 ] <= 3540.05
quadratic_ranged_14_ub: [ 1 x_7_ ^ 2 - 2 x_11_ * x_7_ + 1 x_11_ ^ 2 + 1 y_7_ ^ 2 - 2 y_11_ * y_7_ + 1 y_11_ ^ 2 ] <= 22536.13
quadratic_ranged_15_ub: [ 1 x_10_ ^ 2 - 2 x_11_ * x_10_ + 1 x_11_ ^ 2 + 1 y_10_ ^ 2 - 2 y_11_ * y_10_ + 1 y_11_ ^ 2 ] <= 7701.25
quadratic_ranged_16_ub: [ 1 x_5_ ^ 2 - 2 x_12_ * x_5_ + 1 x_12_ ^ 2 + 1 y_5_ ^ 2 - 2 y_12_ * y_5_ + 1 y_12_ ^ 2 ] <= 10837.3
quadratic_ranged_17_ub: [ 1 x_10_ ^ 2 - 2 x_12_ * x_10_ + 1 x_12_ ^ 2 + 1 y_10_ ^ 2 - 2 y_12_ * y_10_ + 1 y_12_ ^ 2 ] <= 27432.61
quadratic_ranged_18_ub: [ 1 x_6_ ^ 2 - 2 x_13_ * x_6_ + 1 x_13_ ^ 2 + 1 y_6_ ^ 2 - 2 y_13_ * y_6_ + 1 y_13_ ^ 2 ] <= 21417.05
quadratic_ranged_19_ub: [ 1 x_12_ ^ 2 - 2 x_13_ * x_12_ + 1 x_13_ ^ 2 + 1 y_12_ ^ 2 - 2 y_13_ * y_12_ + 1 y_13_ ^ 2 ] <= 35306.57
quadratic_ranged_20_ub: [ 1 x_9_ ^ 2 - 2 x_14_ * x_9_ + 1 x_14_ ^ 2 + 1 y_9_ ^ 2 - 2 y_14_ * y_9_ + 1 y_14_ ^ 2 ] <= 194.93
quadratic_ranged_21_ub: [ 1 x_12_ ^ 2 - 2 x_14_ * x_12_ + 1 x_14_ ^ 2 + 1 y_12_ ^ 2 - 2 y_14_ * y_12_ + 1 y_14_ ^ 2 ] <= 24224.85
quadratic_ranged_22_ub: [ 1 x_7_ ^ 2 - 2 x_15_ * x_7_ + 1 x_15_ ^ 2 + 1 y_7_ ^ 2 - 2 y_15_ * y_7_ + 1 y_15_ ^ 2 ] <= 2663.37
quadratic_ranged_23_ub: [ 1 x_10_ ^ 2 - 2 x_15_ * x_10_ + 1 x_15_ ^ 2 + 1 y_10_ ^ 2 - 2 y_15_ * y_10_ + 1 y_15_ ^ 2 ] <= 2267.45
quadratic_ranged_24_ub: [ 1 x_13_ ^ 2 - 2 x_15_ * x_13_ + 1 x_15_ ^ 2 + 1 y_13_ ^ 2 - 2 y_15_ * y_13_ + 1 y_15_ ^ 2 ] <= 2946.17
quadratic_ranged_25_ub: [ 1 x_4_ ^ 2 - 2 x_16_ * x_4_ + 1 x_16_ ^ 2 + 1 y_4_ ^ 2 - 2 y_16_ * y_4_ + 1 y_16_ ^ 2 ] <= 11136.26
quadratic_ranged_26_ub: [ 1 x_1_ ^ 2 - 2 x_17_ * x_1_ + 1 x_17_ ^ 2 + 1 y_1_ ^ 2 - 2 y_17_ * y_1_ + 1 y_17_ ^ 2 ] <= 21178.69
quadratic_ranged_27_ub: [ 1 x_13_ ^ 2 - 2 x_17_ * x_13_ + 1 x_17_ ^ 2 + 1 y_13_ ^ 2 - 2 y_17_ * y_13_ + 1 y_17_ ^ 2 ] <= 10815.08
quadratic_ranged_28_ub: [ 1 x_2_ ^ 2 - 2 x_18_ * x_2_ + 1 x_18_ ^ 2 + 1 y_2_ ^ 2 - 2 y_18_ * y_2_ + 1 y_18_ ^ 2 ] <= 85.85
quadratic_ranged_29_ub: [ 1 x_13_ ^ 2 - 2 x_18_ * x_13_ + 1 x_18_ ^ 2 + 1 y_13_ ^ 2 - 2 y_18_ * y_13_ + 1 y_18_ ^ 2 ] <= 15663.08
quadratic_ranged_30_ub: [ 1 x_9_ ^ 2 - 2 x_19_ * x_9_ + 1 x_19_ ^ 2 + 1 y_9_ ^ 2 - 2 y_19_ * y_9_ + 1 y_19_ ^ 2 ] <= 3317.85
quadratic_ranged_31_ub: [ 1 x_16_ ^ 2 - 2 x_19_ * x_16_ + 1 x_19_ ^ 2 + 1 y_16_ ^ 2 - 2 y_19_ * y_16_ + 1 y_19_ ^ 2 ] <= 22165.46
quadratic_ranged_32_ub: [ 1 x_5_ ^ 2 - 2 x_20_ * x_5_ + 1 x_20_ ^ 2 + 1 y_5_ ^ 2 - 2 y_20_ * y_5_ + 1 y_20_ ^ 2 ] <= 6994.25
quadratic_ranged_33_ub: [ 1 x_6_ ^ 2 - 2 x_20_ * x_6_ + 1 x_20_ ^ 2 + 1 y_6_ ^ 2 - 2 y_20_ * y_6_ + 1 y_20_ ^ 2 ] <= 122.21000000000001
quadratic_ranged_34_ub: [ 1 x_3_ ^ 2 - 2 x_21_ * x_3_ + 1 x_21_ ^ 2 + 1 y_3_ ^ 2 - 2 y_21_ * y_3_ + 1 y_21_ ^ 2 ] <= 22123.04
quadratic_ranged_35_ub: [ 1 x_10_ ^ 2 - 2 x_21_ * x_10_ + 1 x_21_ ^ 2 + 1 y_10_ ^ 2 - 2 y_21_ * y_10_ + 1 y_21_ ^ 2 ] <= 19878.82
quadratic_ranged_36_ub: [ 1 x_1_ ^ 2 - 2 x_22_ * x_1_ + 1 x_22_ ^ 2 + 1 y_1_ ^ 2 - 2 y_22_ * y_1_ + 1 y_22_ ^ 2 ] <= 2728.01
quadratic_ranged_37_ub: [ 1 x_11_ ^ 2 - 2 x_22_ * x_11_ + 1 x_22_ ^ 2 + 1 y_11_ ^ 2 - 2 y_22_ * y_11_ + 1 y_22_ ^ 2 ] <= 6380.17
quadratic_ranged_38_ub: [ 1 x_16_ ^ 2 - 2 x_22_ * x_16_ + 1 x_22_ ^ 2 + 1 y_16_ ^ 2 - 2 y_22_ * y_16_ + 1 y_22_ ^ 2 ] <= 18624.4
quadratic_ranged_39_ub: [ 1 x_4_ ^ 2 - 2 x_23_ * x_4_ + 1 x_23_ ^ 2 + 1 y_4_ ^ 2 - 2 y_23_ * y_4_ + 1 y_23_ ^ 2 ] <= 2218.97
quadratic_ranged_40_ub: [ 1 x_14_ ^ 2 - 2 x_23_ * x_14_ + 1 x_23_ ^ 2 + 1 y_14_ ^ 2 - 2 y_23_ * y_14_ + 1 y_23_ ^ 2 ] <= 4671.25
quadratic_ranged_41_ub: [ 1 x_2_ ^ 2 - 2 x_24_ * x_2_ + 1 x_24_ ^ 2 + 1 y_2_ ^ 2 - 2 y_24_ * y_2_ + 1 y_24_ ^ 2 ] <= 3592.57
quadratic_ranged_42_ub: [ 1 x_12_ ^ 2 - 2 x_24_ * x_12_ + 1 x_24_ ^ 2 + 1 y_12_ ^ 2 - 2 y_24_ * y_12_ + 1 y_24_ ^ 2 ] <= 27081.13
quadratic_ranged_43_ub: [ 1 x_17_ ^ 2 - 2 x_24_ * x_17_ + 1 x_24_ ^ 2 + 1 y_17_ ^ 2 - 2 y_24_ * y_17_ + 1 y_24_ ^ 2 ] <= 38125.48
quadratic_ranged_44_ub: [ 1 x_2_ ^ 2 - 2 x_25_ * x_2_ + 1 x_25_ ^ 2 + 1 y_2_ ^ 2 - 2 y_25_ * y_2_ + 1 y_25_ ^ 2 ] <= 24605.62
quadratic_ranged_45_ub: [ 1 x_15_ ^ 2 - 2 x_25_ * x_15_ + 1 x_25_ ^ 2 + 1 y_15_ ^ 2 - 2 y_25_ * y_15_ + 1 y_25_ ^ 2 ] <= 6845.78
quadratic_ranged_46_ub: [ 1 x_21_ ^ 2 - 2 x_25_ * x_21_ + 1 x_25_ ^ 2 + 1 y_21_ ^ 2 - 2 y_25_ * y_21_ + 1 y_25_ ^ 2 ] <= 51749.37
quadratic_ranged_47_ub: [ 1 x_5_ ^ 2 - 2 x_26_ * x_5_ + 1 x_26_ ^ 2 + 1 y_5_ ^ 2 - 2 y_26_ * y_5_ + 1 y_26_ ^ 2 ] <= 8995.06
quadratic_ranged_48_ub: [ 1 x_17_ ^ 2 - 2 x_26_ * x_17_ + 1 x_26_ ^ 2 + 1 y_17_ ^ 2 - 2 y_26_ * y_17_ + 1 y_26_ ^ 2 ] <= 36736.73
quadratic_ranged_49_ub: [ 1 x_7_ ^ 2 - 2 x_27_ * x_7_ + 1 x_27_ ^ 2 + 1 y_7_ ^ 2 - 2 y_27_ * y_7_ + 1 y_27_ ^ 2 ] <= 30535.33
quadratic_ranged_50_ub: [ 1 x_8_ ^ 2 - 2 x_27_ * x_8_ + 1 x_27_ ^ 2 + 1 y_8_ ^ 2 - 2 y_27_ * y_8_ + 1 y_27_ ^ 2 ] <= 15580.26
quadratic_ranged_51_ub: [ 1 x_15_ ^ 2 - 2 x_28_ * x_15_ + 1 x_28_ ^ 2 + 1 y_15_ ^ 2 - 2 y_28_ * y_15_ + 1 y_28_ ^ 2 ] <= 23057.29
quadratic_ranged_52_ub: [ 1 x_18_ ^ 2 - 2 x_28_ * x_18_ + 1 x_28_ ^ 2 + 1 y_18_ ^ 2 - 2 y_28_ * y_18_ + 1 y_28_ ^ 2 ] <= 25629.760000000002
quadratic_ranged_53_ub: [ 1 x_20_ ^ 2 - 2 x_28_ * x_20_ + 1 x_28_ ^ 2 + 1 y_20_ ^ 2 - 2 y_28_ * y_20_ + 1 y_28_ ^ 2 ] <= 1981.6200000000001
quadratic_ranged_1_lb: [ 1 x_1_ ^ 2 - 2 x_4_ * x_1_ + 1 x_4_ ^ 2 + 1 y_1_ ^ 2 - 2 y_4_ * y_1_ + 1 y_4_ ^ 2 ] >= 1430.55
quadratic_ranged_2_lb: [ 1 x_2_ ^ 2 - 2 x_4_ * x_2_ + 1 x_4_ ^ 2 + 1 y_2_ ^ 2 - 2 y_4_ * y_2_ + 1 y_4_ ^ 2 ] >= 927.63
quadratic_ranged_3_lb: [ 1 x_3_ ^ 2 - 2 x_5_ * x_3_ + 1 x_5_ ^ 2 + 1 y_3_ ^ 2 - 2 y_5_ * y_3_ + 1 y_5_ ^ 2 ] >= 9172.35
quadratic_ranged_4_lb: [ 1 x_4_ ^ 2 - 2 x_5_ * x_4_ + 1 x_5_ ^ 2 + 1 y_4_ ^ 2 - 2 y_5_ * y_4_ + 1 y_5_ ^ 2 ] >= 606.87
quadratic_ranged_5_lb: [ 1 x_2_ ^ 2 - 2 x_6_ * x_2_ + 1 x_6_ ^ 2 + 1 y_2_ ^ 2 - 2 y_6_ * y_2_ + 1 y_6_ ^ 2 ] >= 13432.32
quadratic_ranged_6_lb: [ 1 x_4_ ^ 2 - 2 x_6_ * x_4_ + 1 x_6_ ^ 2 + 1 y_4_ ^ 2 - 2 y_6_ * y_4_ + 1 y_6_ ^ 2 ] >= 10241.55
quadratic_ranged_7_lb: [ 1 x_1_ ^ 2 - 2 x_7_ * x_1_ + 1 x_7_ ^ 2 + 1 y_1_ ^ 2 - 2 y_7_ * y_1_ + 1 y_7_ ^ 2 ] >= 14870.789999999999
quadratic_ranged_8_lb: [ 1 x_3_ ^ 2 - 2 x_7_ * x_3_ + 1 x_7_ ^ 2 + 1 y_3_ ^ 2 - 2 y_7_ * y_3_ + 1 y_7_ ^ 2 ] >= 6702.3
quadratic_ranged_9_lb: [ 1 x_4_ ^ 2 - 2 x_8_ * x_4_ + 1 x_8_ ^ 2 + 1 y_4_ ^ 2 - 2 y_8_ * y_4_ + 1 y_8_ ^ 2 ] >= 717.75
quadratic_ranged_10_lb: [ 1 x_6_ ^ 2 - 2 x_8_ * x_6_ + 1 x_8_ ^ 2 + 1 y_6_ ^ 2 - 2 y_8_ * y_6_ + 1 y_8_ ^ 2 ] >= 7613.1
quadratic_ranged_11_lb: [ 1 x_4_ ^ 2 - 2 x_9_ * x_4_ + 1 x_9_ ^ 2 + 1 y_4_ ^ 2 - 2 y_9_ * y_4_ + 1 y_9_ ^ 2 ] >= 5034.15
quadratic_ranged_12_lb: [ 1 x_8_ ^ 2 - 2 x_9_ * x_8_ + 1 x_9_ ^ 2 + 1 y_8_ ^ 2 - 2 y_9_ * y_8_ + 1 y_9_ ^ 2 ] >= 9553.5
quadratic_ranged_13_lb: [ 1 x_1_ ^ 2 - 2 x_10_ * x_1_ + 1 x_10_ ^ 2 + 1 y_1_ ^ 2 - 2 y_10_ * y_1_ + 1 y_10_ ^ 2 ] >= 3469.95
quadratic_ranged_14_lb: [ 1 x_7_ ^ 2 - 2 x_11_ * x_7_ + 1 x_11_ ^ 2 + 1 y_7_ ^ 2 - 2 y_11_ * y_7_ + 1 y_11_ ^ 2 ] >= 22089.87
quadratic_ranged_15_lb: [ 1 x_10_ ^ 2 - 2 x_11_ * x_10_ + 1 x_11_ ^ 2 + 1 y_10_ ^ 2 - 2 y_11_ * y_10_ + 1 y_11_ ^ 2 ] >= 7548.75
quadratic_ranged_16_lb: [ 1 x_5_ ^ 2 - 2 x_12_ * x_5_ + 1 x_12_ ^ 2 + 1 y_5_ ^ 2 - 2 y_12_ * y_5_ + 1 y_12_ ^ 2 ] >= 10622.7
quadratic_ranged_17_lb: [ 1 x_10_ ^ 2 - 2 x_12_ * x_10_ + 1 x_12_ ^ 2 + 1 y_10_ ^ 2 - 2 y_12_ * y_10_ + 1 y_12_ ^ 2 ] >= 26889.39
quadratic_ranged_18_lb: [ 1 x_6_ ^ 2 - 2 x_13_ * x_6_ + 1 x_13_ ^ 2 + 1 y_6_ ^ 2 - 2 y_13_ * y_6_ + 1 y_13_ ^ 2 ] >= 20992.95
quadratic_ranged_19_lb: [ 1 x_12_ ^ 2 - 2 x_13_ * x_12_ + 1 x_13_ ^ 2 + 1 y_12_ ^ 2 - 2 y_13_ * y_12_ + 1 y_13_ ^ 2 ] >= 34607.43
quadratic_ranged_20_lb: [ 1 x_9_ ^ 2 - 2 x_14_ * x_9_ + 1 x_14_ ^ 2 + 1 y_9_ ^ 2 - 2 y_14_ * y_9_ + 1 y_14_ ^ 2 ] >= 191.07
quadratic_ranged_21_lb: [ 1 x_12_ ^ 2 - 2 x_14_ * x_12_ + 1 x_14_ ^ 2 + 1 y_12_ ^ 2 - 2 y_14_ * y_12_ + 1 y_14_ ^ 2 ] >= 23745.15
quadratic_ranged_22_lb: [ 1 x_7_ ^ 2 - 2 x_15_ * x_7_ + 1 x_15_ ^ 2 + 1 y_7_ ^ 2 - 2 y_15_ * y_7_ + 1 y_15_ ^ 2 ] >= 2610.63
quadratic_ranged_23_lb: [ 1 x_10_ ^ 2 - 2 x_15_ * x_10_ + 1 x_15_ ^ 2 + 1 y_10_ ^ 2 - 2 y_15_ * y_10_ + 1 y_15_ ^ 2 ] >= 2222.55
quadratic_ranged_24_lb: [ 1 x_13_ ^ 2 - 2 x_15_ * x_13_ + 1 x_15_ ^ 2 + 1 y_13_ ^ 2 - 2 y_15_ * y_13_ + 1 y_15_ ^ 2 ] >= 2887.83
quadratic_ranged_25_lb: [ 1 x_4_ ^ 2 - 2 x_16_ * x_4_ + 1 x_16_ ^ 2 + 1 y_4_ ^ 2 - 2 y_16_ * y_4_ + 1 y_16_ ^ 2 ] >= 10915.74
quadratic_ranged_26_lb: [ 1 x_1_ ^ 2 - 2 x_17_ * x_1_ + 1 x_17_ ^ 2 + 1 y_1_ ^ 2 - 2 y_17_ * y_1_ + 1 y_17_ ^ 2 ] >= 20759.31
quadratic_ranged_27_lb: [ 1 x_13_ ^ 2 - 2 x_17_ * x_13_ + 1 x_17_ ^ 2 + 1 y_13_ ^ 2 - 2 y_17_ * y_13_ + 1 y_17_ ^ 2 ] >= 10600.92
quadratic_ranged_28_lb: [ 1 x_2_ ^ 2 - 2 x_18_ * x_2_ + 1 x_18_ ^ 2 + 1 y_2_ ^ 2 - 2 y_18_ * y_2_ + 1 y_18_ ^ 2 ] >= 84.15
quadratic_ranged_29_lb: [ 1 x_13_ ^ 2 - 2 x_18_ * x_13_ + 1 x_18_ ^ 2 + 1 y_13_ ^ 2 - 2 y_18_ * y_13_ + 1 y_18_ ^ 2 ] >= 15352.92
quadratic_ranged_30_lb: [ 1 x_9_ ^ 2 - 2 x_19_ * x_9_ + 1 x_19_ ^ 2 + 1 y_9_ ^ 2 - 2 y_19_ * y_9_ + 1 y_19_ ^ 2 ] >= 3252.15
quadratic_ranged_31_lb: [ 1 x_16_ ^ 2 - 2 x_19_ * x_16_ + 1 x_19_ ^ 2 + 1 y_16_ ^ 2 - 2 y_19_ * y_16_ + 1 y_19_ ^ 2 ] >= 21726.54
quadratic_ranged_32_lb: [ 1 x_5_ ^ 2 - 2 x_20_ * x_5_ + 1 x_20_ ^ 2 + 1 y_5_ ^ 2 - 2 y_20_ * y_5_ + 1 y_20_ ^ 2 ] >= 6855.75
quadratic_ranged_33_lb: [ 1 x_6_ ^ 2 - 2 x_20_ * x_6_ + 1 x_20_ ^ 2 + 1 y_6_ ^ 2 - 2 y_20_ * y_6_ + 1 y_20_ ^ 2 ] >= 119.78999999999999
quadratic_ranged_34_lb: [ 1 x_3_ ^ 2 - 2 x_21_ * x_3_ + 1 x_21_ ^ 2 + 1 y_3_ ^ 2 - 2 y_21_ * y_3_ + 1 y_21_ ^ 2 ] >= 21684.96
quadratic_ranged_35_lb: [ 1 x_10_ ^ 2 - 2 x_21_ * x_10_ + 1 x_21_ ^ 2 + 1 y_10_ ^ 2 - 2 y_21_ * y_10_ + 1 y_21_ ^ 2 ] >= 19485.18
quadratic_ranged_36_lb: [ 1 x_1_ ^ 2 - 2 x_22_ * x_1_ + 1 x_22_ ^ 2 + 1 y_1_ ^ 2 - 2 y_22_ * y_1_ + 1 y_22_ ^ 2 ] >= 2673.99
quadratic_ranged_37_lb: [ 1 x_11_ ^ 2 - 2 x_22_ * x_11_ + 1 x_22_ ^ 2 + 1 y_11_ ^ 2 - 2 y_22_ * y_11_ + 1 y_22_ ^ 2 ] >= 6253.83
quadratic_ranged_38_lb: [ 1 x_16_ ^ 2 - 2 x_22_ * x_16_ + 1 x_22_ ^ 2 + 1 y_16_ ^ 2 - 2 y_22_ * y_16_ + 1 y_22_ ^ 2 ] >= 18255.6
quadratic_ranged_39_lb: [ 1 x_4_ ^ 2 - 2 x_23_ * x_4_ + 1 x_23_ ^ 2 + 1 y_4_ ^ 2 - 2 y_23_ * y_4_ + 1 y_23_ ^ 2 ] >= 2175.03
quadratic_ranged_40_lb: [ 1 x_14_ ^ 2 - 2 x_23_ * x_14_ + 1 x_23_ ^ 2 + 1 y_14_ ^ 2 - 2 y_23_ * y_14_ + 1 y_23_ ^ 2 ] >= 4578.75
quadratic_ranged_41_lb: [ 1 x_2_ ^ 2 - 2 x_24_ * x_2_ + 1 x_24_ ^ 2 + 1 y_2_ ^ 2 - 2 y_24_ * y_2_ + 1 y_24_ ^ 2 ] >= 3521.43
quadratic_ranged_42_lb: [ 1 x_12_ ^ 2 - 2 x_24_ * x_12_ + 1 x_24_ ^ 2 + 1 y_12_ ^ 2 - 2 y_24_ * y_12_ + 1 y_24_ ^ 2 ] >= 26544.87
quadratic_ranged_43_lb: [ 1 x_17_ ^ 2 - 2 x_24_ * x_17_ + 1 x_24_ ^ 2 + 1 y_17_ ^ 2 - 2 y_24_ * y_17_ + 1 y_24_ ^ 2 ] >= 37370.52
quadratic_ranged_44_lb: [ 1 x_2_ ^ 2 - 2 x_25_ * x_2_ + 1 x_25_ ^ 2 + 1 y_2_ ^ 2 - 2 y_25_ * y_2_ + 1 y_25_ ^ 2 ] >= 24118.38
quadratic_ranged_45_lb: [ 1 x_15_ ^ 2 - 2 x_25_ * x_15_ + 1 x_25_ ^ 2 + 1 y_15_ ^ 2 - 2 y_25_ * y_15_ + 1 y_25_ ^ 2 ] >= 6710.22
quadratic_ranged_46_lb: [ 1 x_21_ ^ 2 - 2 x_25_ * x_21_ + 1 x_25_ ^ 2 + 1 y_21_ ^ 2 - 2 y_25_ * y_21_ + 1 y_25_ ^ 2 ] >= 50724.63
quadratic_ranged_47_lb: [ 1 x_5_ ^ 2 - 2 x_26_ * x_5_ + 1 x_26_ ^ 2 + 1 y_5_ ^ 2 - 2 y_26_ * y_5_ + 1 y_26_ ^ 2 ] >= 8816.94
quadratic_ranged_48_lb: [ 1 x_17_ ^ 2 - 2 x_26_ * x_17_ + 1 x_26_ ^ 2 + 1 y_17_ ^ 2 - 2 y_26_ * y_17_ + 1 y_26_ ^ 2 ] >= 36009.27
quadratic_ranged_49_lb: [ 1 x_7_ ^ 2 - 2 x_27_ * x_7_ + 1 x_27_ ^ 2 + 1 y_7_ ^ 2 - 2 y_27_ * y_7_ + 1 y_27_ ^ 2 ] >= 29930.67
quadratic_ranged_50_lb: [ 1 x_8_ ^ 2 - 2 x_27_ * x_8_ + 1 x_27_ ^ 2 + 1 y_8_ ^ 2 - 2 y_27_ * y_8_ + 1 y_27_ ^ 2 ] >= 15271.74
quadratic_ranged_51_lb: [ 1 x_15_ ^ 2 - 2 x_28_ * x_15_ + 1 x_28_ ^ 2 + 1 y_15_ ^ 2 - 2 y_28_ * y_15_ + 1 y_28_ ^ 2 ] >= 22600.71
quadratic_ranged_52_lb: [ 1 x_18_ ^ 2 - 2 x_28_ * x_18_ + 1 x_28_ ^ 2 + 1 y_18_ ^ 2 - 2 y_28_ * y_18_ + 1 y_28_ ^ 2 ] >= 25122.239999999998
quadratic_ranged_53_lb: [ 1 x_20_ ^ 2 - 2 x_28_ * x_20_ + 1 x_28_ ^ 2 + 1 y_20_ ^ 2 - 2 y_28_ * y_20_ + 1 y_28_ ^ 2 ] >= 1942.3799999999999
c1_1: 1 x_27_ = 62
c2_1: 1 y_27_ = -77
c3_1: 1 x_11_ = 62
c4_1: 1 y_11_ = -33
c5_1: 1 x_1_ = 43
c6_1: 1 y_1_ = -10
Bounds
x_1_ = 43
-25 <= x_2_ <= 111
-116 <= x_3_ <= 202
5 <= x_4_ <= 81
-20 <= x_5_ <= 106
-97 <= x_6_ <= 183
-80 <= x_7_ <= 166
-22 <= x_8_ <= 108
-66 <= x_9_ <= 152
-16 <= x_10_ <= 102
x_11_ = 62
-124 <= x_12_ <= 210
-118 <= x_13_ <= 204
-80 <= x_14_ <= 166
-64 <= x_15_ <= 150
-100 <= x_16_ <= 186
-102 <= x_17_ <= 188
-35 <= x_18_ <= 121
-124 <= x_19_ <= 210
-103 <= x_20_ <= 189
-157 <= x_21_ <= 243
-9 <= x_22_ <= 95
-42 <= x_23_ <= 128
-85 <= x_24_ <= 171
-146 <= x_25_ <= 232
-114 <= x_26_ <= 200
x_27_ = 62
-148 <= x_28_ <= 234
y_1_ = -10
-78 <= y_2_ <= 58
-169 <= y_3_ <= 149
-48 <= y_4_ <= 28
-73 <= y_5_ <= 53
-150 <= y_6_ <= 130
-133 <= y_7_ <= 97
-75 <= y_8_ <= 47
-119 <= y_9_ <= 99
-69 <= y_10_ <= 49
y_11_ = -33
-177 <= y_12_ <= 157
-171 <= y_13_ <= 151
-133 <= y_14_ <= 113
-117 <= y_15_ <= 97
-153 <= y_16_ <= 133
-155 <= y_17_ <= 135
-88 <= y_18_ <= 68
-177 <= y_19_ <= 157
-156 <= y_20_ <= 136
-210 <= y_21_ <= 190
-62 <= y_22_ <= 42
-95 <= y_23_ <= 75
-138 <= y_24_ <= 118
-199 <= y_25_ <= 179
-167 <= y_26_ <= 147
y_27_ = -77
-201 <= y_28_ <= 181
General
x_1_
x_2_
x_3_
x_4_
x_5_
x_6_
x_7_
x_8_
x_9_
x_10_
x_11_
x_12_
x_13_
x_14_
x_15_
x_16_
x_17_
x_18_
x_19_
x_20_
x_21_
x_22_
x_23_
x_24_
x_25_
x_26_
x_27_
x_28_
y_1_
y_2_
y_3_
y_4_
y_5_
y_6_
y_7_
y_8_
y_9_
y_10_
y_11_
y_12_
y_13_
y_14_
y_15_
y_16_
y_17_
y_18_
y_19_
y_20_
y_21_
y_22_
y_23_
y_24_
y_25_
y_26_
y_27_
y_28_
End
