minimize
obj: -29 x_18_ + 5 x_23_ - 19 x_24_ - 3 x_25_ + 30 x_30_ + 42 x_32_ - 9 x_38_ + 14 x_41_ + 46 x_43_ - 11 x_49_
subject to
quadratic_ranged_1_ub: -2 x_4_ + 20 x_12_ - 16 x_20_ - 22 x_46_ + [ -8 x_4_ * x_1_ - 96 x_15_ * x_1_ + 82 x_20_ * x_1_ - 31 x_4_ ^ 2 - 90 x_15_ * x_4_ - 46 x_17_ * x_4_ + 56 x_20_ * x_7_ + 40 x_29_ * x_7_ - 68 x_46_ * x_7_ + 2 x_46_ * x_12_ + 14 x_17_ * x_15_ - 6 x_21_ * x_15_ + 22 x_41_ * x_17_ + 36 x_48_ * x_17_ + 60 x_46_ * x_20_ + 12 x_21_ ^ 2 - 74 x_46_ * x_21_ + 4 x_27_ ^ 2 + 100 x_48_ * x_46_ ] <= -4764
quadratic_ranged_2_ub: -25 x_24_ + [ -78 x_39_ * x_5_ + 74 x_39_ * x_6_ - 54 x_22_ * x_19_ - 4 x_24_ * x_22_ - 96 x_38_ * x_24_ + 42 x_39_ ^ 2 + 2 x_42_ * x_39_ ] <= 545
quadratic_ranged_3_ub: -17 x_46_ - 13 x_49_ + [ -60 x_18_ * x_11_ + 12 x_31_ * x_16_ - 26 x_49_ * x_16_ - 12 x_49_ * x_18_ + 58 x_46_ * x_21_ + 64 x_46_ * x_45_ + 25 x_46_ ^ 2 ] <= -1688
quadratic_ranged_4_ub: -14 x_2_ + [ 94 x_6_ * x_2_ + 10 x_11_ * x_2_ + 64 x_26_ * x_2_ + 90 x_38_ * x_2_ - 20 x_11_ * x_6_ + 28 x_15_ * x_6_ + 34 x_11_ ^ 2 - 52 x_38_ * x_11_ + 4 x_17_ ^ 2 - 40 x_26_ * x_17_ - 20 x_29_ * x_17_ + 4 x_42_ * x_17_ - 88 x_42_ * x_26_ - 82 x_38_ * x_29_ - 16 x_42_ * x_38_ ] <= 51
quadratic_ranged_5_ub: -41 x_10_ - 2 x_13_ - 31 x_15_ + [ -36 x_13_ * x_10_ + 26 x_12_ ^ 2 - 92 x_13_ * x_12_ + 40 x_13_ ^ 2 + 32 x_39_ * x_13_ + 23 x_15_ ^ 2 - 66 x_28_ * x_15_ - 38 x_18_ ^ 2 - 50 x_20_ * x_18_ + 8 x_46_ * x_18_ + 17 x_46_ ^ 2 ] <= -1033
quadratic_ranged_6_ub: -17 x_3_ - 41 x_14_ + 11 x_21_ - 14 x_23_ + [ 6 x_3_ ^ 2 - 24 x_8_ * x_3_ - 10 x_14_ * x_4_ - 66 x_31_ * x_4_ + 54 x_23_ * x_8_ - 70 x_28_ * x_8_ - 18 x_11_ ^ 2 + 22 x_31_ * x_11_ - 24 x_23_ * x_21_ + 10 x_28_ * x_21_ + 88 x_31_ * x_23_ ] <= -1649
quadratic_ranged_7_ub: 34 x_25_ + 40 x_27_ + 1 x_43_ + 43 x_50_ + [ 12 x_11_ * x_6_ - 16 x_19_ * x_6_ - 36 x_31_ * x_6_ + 84 x_34_ * x_6_ - 29 x_9_ ^ 2 - 100 x_19_ * x_9_ - 88 x_44_ * x_9_ - 84 x_19_ * x_11_ + 6 x_43_ * x_11_ + 40 x_25_ ^ 2 + 56 x_27_ * x_25_ + 74 x_44_ * x_25_ - 44 x_34_ * x_28_ + 52 x_43_ * x_34_ - 50 x_43_ ^ 2 ] <= -7152
quadratic_ranged_8_ub: -9 x_1_ + 20 x_39_ + 24 x_41_ + [ -28 x_39_ * x_1_ + 22 x_8_ ^ 2 - 34 x_15_ * x_8_ + 54 x_42_ * x_8_ - 72 x_41_ * x_20_ - 50 x_41_ * x_39_ ] <= 589
quadratic_ranged_9_ub: [ 42 x_24_ * x_3_ + 28 x_8_ ^ 2 - 28 x_18_ * x_8_ - 66 x_18_ * x_10_ - 40 x_21_ * x_10_ + 88 x_50_ * x_21_ - 4 x_50_ * x_24_ - 54 x_44_ * x_34_ ] <= -1794
quadratic_ranged_10_ub: 20 x_31_ + 19 x_45_ - 12 x_46_ + [ 88 x_45_ * x_8_ - 98 x_46_ * x_8_ - 22 x_14_ * x_9_ - 32 x_42_ * x_9_ + 45 x_14_ ^ 2 - 72 x_31_ * x_30_ - 72 x_46_ * x_30_ + 44 x_35_ * x_31_ - 8 x_45_ * x_31_ + 50 x_46_ * x_35_ - 68 x_46_ * x_42_ + 47 x_46_ ^ 2 ] <= -149
quadratic_ranged_11_ub: -19 x_1_ + 17 x_7_ + 21 x_21_ + 7 x_26_ + 23 x_42_ + [ -66 x_25_ * x_1_ + 58 x_26_ * x_1_ - 82 x_43_ * x_1_ - 80 x_20_ * x_6_ - 24 x_35_ * x_6_ - 8 x_7_ ^ 2 + 54 x_26_ * x_7_ + 70 x_42_ * x_7_ + 24 x_43_ * x_7_ - 30 x_35_ * x_14_ + 16 x_49_ * x_14_ + 42 x_31_ * x_20_ - 70 x_42_ * x_20_ - 32 x_43_ * x_20_ - 62 x_49_ * x_20_ - 88 x_31_ * x_21_ + 13 x_25_ ^ 2 - 60 x_49_ * x_31_ ] <= -5838
quadratic_ranged_12_ub: -48 x_38_ - 47 x_45_ + [ -22 x_45_ ^ 2 ] <= 141
quadratic_ranged_13_ub: 14 x_37_ + [ 26 x_2_ ^ 2 + 42 x_9_ * x_2_ + 14 x_18_ * x_2_ - 34 x_40_ * x_2_ + 84 x_24_ * x_9_ - 80 x_20_ * x_15_ - 76 x_43_ * x_15_ + 20 x_24_ * x_18_ + 20 x_40_ * x_18_ + 26 x_36_ * x_20_ - 62 x_47_ * x_20_ - 100 x_43_ * x_21_ + 16 x_36_ * x_24_ - 28 x_25_ ^ 2 - 34 x_27_ * x_25_ + 56 x_36_ * x_25_ - 28 x_37_ * x_25_ + 46 x_36_ * x_27_ + 64 x_40_ * x_30_ + 100 x_47_ * x_30_ + 6 x_40_ * x_36_ - 64 x_43_ * x_40_ - 84 x_47_ * x_43_ ] <= -5863
quadratic_ranged_14_ub: 21 x_1_ + 15 x_13_ + 39 x_41_ + [ 64 x_36_ * x_1_ + 18 x_7_ ^ 2 + 60 x_13_ * x_7_ + 38 x_21_ * x_7_ + 66 x_41_ * x_7_ + 42 x_36_ * x_21_ - 74 x_48_ * x_47_ - 36 x_48_ ^ 2 ] <= 6252
quadratic_ranged_15_ub: 4 x_18_ + 40 x_23_ + 18 x_25_ + [ -14 x_23_ * x_4_ - 52 x_23_ * x_18_ - 40 x_31_ * x_18_ - 1 x_31_ ^ 2 + 23 x_41_ ^ 2 + 80 x_42_ * x_41_ ] <= 575
quadratic_ranged_16_ub: -29 x_20_ + 13 x_21_ + [ -64 x_16_ * x_10_ + 10 x_20_ * x_16_ - 14 x_21_ ^ 2 - 6 x_23_ * x_21_ - 12 x_26_ * x_21_ + 68 x_26_ * x_23_ ] <= 107
quadratic_ranged_17_ub: [ -52 x_41_ * x_3_ - 41 x_8_ ^ 2 - 58 x_10_ * x_8_ + 56 x_35_ * x_8_ + 90 x_41_ * x_8_ - 80 x_50_ * x_8_ - 35 x_22_ ^ 2 - 22 x_36_ * x_35_ ] <= -1806
quadratic_ranged_18_ub: 23 x_31_ - 25 x_47_ + 7 x_50_ + [ 14 x_8_ * x_5_ - 22 x_35_ * x_5_ - 14 x_35_ * x_7_ + 82 x_47_ * x_8_ + 19 x_31_ ^ 2 - 64 x_37_ * x_31_ - 22 x_47_ * x_31_ + 48 x_35_ ^ 2 + 14 x_47_ ^ 2 ] <= 7002
quadratic_ranged_19_ub: -49 x_38_ + [ -49 x_3_ ^ 2 + 28 x_15_ * x_3_ - 24 x_38_ * x_3_ - 100 x_41_ * x_3_ + 46 x_12_ * x_4_ - 44 x_24_ * x_8_ - 76 x_21_ * x_12_ - 38 x_41_ * x_12_ - 56 x_48_ * x_12_ + 8 x_38_ * x_15_ - 80 x_48_ * x_38_ + 28 x_41_ ^ 2 + 13 x_48_ ^ 2 ] <= -4578
quadratic_ranged_20_ub: -30 x_15_ + 10 x_32_ + [ 8 x_30_ * x_3_ - 32 x_47_ * x_3_ - 20 x_43_ * x_15_ - 34 x_47_ * x_30_ - 72 x_41_ * x_32_ - 84 x_43_ * x_32_ - 38 x_41_ ^ 2 ] <= 1511
quadratic_ranged_21_ub: -42 x_1_ - 16 x_8_ + [ 98 x_8_ * x_1_ - 40 x_36_ * x_1_ - 14 x_37_ * x_1_ + 76 x_43_ * x_1_ - 48 x_10_ * x_8_ + 96 x_36_ * x_10_ - 64 x_38_ * x_10_ - 18 x_36_ * x_32_ - 44 x_37_ * x_32_ + 42 x_36_ ^ 2 - 62 x_43_ * x_37_ ] <= -1330
quadratic_ranged_22_ub: 6 x_18_ - 38 x_27_ + [ 42 x_11_ * x_9_ + 30 x_25_ * x_9_ + 94 x_27_ * x_9_ + 88 x_21_ * x_11_ + 4 x_40_ * x_11_ + 40 x_50_ * x_11_ - 38 x_21_ * x_17_ + 80 x_22_ * x_17_ + 8 x_38_ * x_18_ - 28 x_27_ * x_20_ + 6 x_50_ * x_20_ - 94 x_25_ * x_21_ - 14 x_39_ * x_21_ - 84 x_47_ * x_21_ + 94 x_27_ * x_25_ - 26 x_47_ * x_25_ - 44 x_39_ * x_27_ + 80 x_39_ * x_38_ - 68 x_47_ * x_38_ - 6 x_47_ ^ 2 ] <= 10087
quadratic_ranged_23_ub: -42 x_29_ - 17 x_36_ - 14 x_42_ + 23 x_45_ + [ -48 x_28_ * x_3_ - 74 x_29_ * x_3_ - 68 x_42_ * x_3_ - 18 x_45_ * x_3_ - 2 x_29_ * x_10_ - 6 x_32_ * x_10_ - 78 x_36_ * x_10_ + 100 x_45_ * x_10_ + 82 x_16_ * x_15_ + 76 x_45_ * x_15_ - 50 x_38_ * x_16_ - 94 x_36_ * x_28_ - 44 x_38_ * x_28_ - 2 x_29_ ^ 2 - 48 x_44_ * x_29_ - 49 x_32_ ^ 2 + 8 x_42_ * x_32_ - 62 x_46_ * x_32_ - 76 x_38_ * x_36_ + 62 x_49_ * x_36_ - 60 x_46_ * x_38_ - 37 x_42_ ^ 2 + 82 x_44_ * x_42_ + 44 x_49_ * x_45_ ] <= 1136
quadratic_ranged_24_ub: -39 x_2_ + 26 x_4_ - 26 x_43_ + [ 46 x_2_ ^ 2 - 70 x_9_ * x_2_ + 70 x_25_ * x_4_ + 36 x_41_ * x_4_ - 80 x_16_ * x_15_ - 94 x_41_ * x_15_ - 38 x_19_ * x_16_ + 8 x_41_ * x_16_ - 14 x_45_ * x_16_ + 94 x_41_ * x_17_ - 12 x_43_ * x_17_ - 30 x_45_ * x_19_ - 48 x_43_ ^ 2 + 84 x_50_ * x_43_ ] <= 405
quadratic_ranged_25_ub: -50 x_5_ + 44 x_13_ - 17 x_19_ + [ 18 x_1_ ^ 2 + 36 x_13_ * x_1_ + 78 x_13_ * x_5_ - 48 x_13_ * x_8_ + 52 x_44_ * x_8_ + 52 x_49_ * x_13_ + 90 x_47_ * x_18_ + 12 x_48_ * x_18_ + 46 x_49_ * x_18_ + 20 x_37_ * x_19_ - 78 x_40_ * x_19_ + 78 x_35_ * x_30_ - 38 x_49_ * x_35_ - 24 x_44_ * x_37_ + 8 x_48_ * x_37_ + 76 x_44_ * x_40_ + 82 x_47_ * x_40_ ] <= 8964
quadratic_ranged_1_lb: -2 x_4_ + 20 x_12_ - 16 x_20_ - 22 x_46_ + [ -8 x_4_ * x_1_ - 96 x_15_ * x_1_ + 82 x_20_ * x_1_ - 31 x_4_ ^ 2 - 90 x_15_ * x_4_ - 46 x_17_ * x_4_ + 56 x_20_ * x_7_ + 40 x_29_ * x_7_ - 68 x_46_ * x_7_ + 2 x_46_ * x_12_ + 14 x_17_ * x_15_ - 6 x_21_ * x_15_ + 22 x_41_ * x_17_ + 36 x_48_ * x_17_ + 60 x_46_ * x_20_ + 12 x_21_ ^ 2 - 74 x_46_ * x_21_ + 4 x_27_ ^ 2 + 100 x_48_ * x_46_ ] >= -4771
quadratic_ranged_2_lb: -25 x_24_ + [ -78 x_39_ * x_5_ + 74 x_39_ * x_6_ - 54 x_22_ * x_19_ - 4 x_24_ * x_22_ - 96 x_38_ * x_24_ + 42 x_39_ ^ 2 + 2 x_42_ * x_39_ ] >= 544
quadratic_ranged_3_lb: -17 x_46_ - 13 x_49_ + [ -60 x_18_ * x_11_ + 12 x_31_ * x_16_ - 26 x_49_ * x_16_ - 12 x_49_ * x_18_ + 58 x_46_ * x_21_ + 64 x_46_ * x_45_ + 25 x_46_ ^ 2 ] >= -1694
quadratic_ranged_4_lb: -14 x_2_ + [ 94 x_6_ * x_2_ + 10 x_11_ * x_2_ + 64 x_26_ * x_2_ + 90 x_38_ * x_2_ - 20 x_11_ * x_6_ + 28 x_15_ * x_6_ + 34 x_11_ ^ 2 - 52 x_38_ * x_11_ + 4 x_17_ ^ 2 - 40 x_26_ * x_17_ - 20 x_29_ * x_17_ + 4 x_42_ * x_17_ - 88 x_42_ * x_26_ - 82 x_38_ * x_29_ - 16 x_42_ * x_38_ ] >= 46
quadratic_ranged_5_lb: -41 x_10_ - 2 x_13_ - 31 x_15_ + [ -36 x_13_ * x_10_ + 26 x_12_ ^ 2 - 92 x_13_ * x_12_ + 40 x_13_ ^ 2 + 32 x_39_ * x_13_ + 23 x_15_ ^ 2 - 66 x_28_ * x_15_ - 38 x_18_ ^ 2 - 50 x_20_ * x_18_ + 8 x_46_ * x_18_ + 17 x_46_ ^ 2 ] >= -1039
quadratic_ranged_6_lb: -17 x_3_ - 41 x_14_ + 11 x_21_ - 14 x_23_ + [ 6 x_3_ ^ 2 - 24 x_8_ * x_3_ - 10 x_14_ * x_4_ - 66 x_31_ * x_4_ + 54 x_23_ * x_8_ - 70 x_28_ * x_8_ - 18 x_11_ ^ 2 + 22 x_31_ * x_11_ - 24 x_23_ * x_21_ + 10 x_28_ * x_21_ + 88 x_31_ * x_23_ ] >= -1652
quadratic_ranged_7_lb: 34 x_25_ + 40 x_27_ + 1 x_43_ + 43 x_50_ + [ 12 x_11_ * x_6_ - 16 x_19_ * x_6_ - 36 x_31_ * x_6_ + 84 x_34_ * x_6_ - 29 x_9_ ^ 2 - 100 x_19_ * x_9_ - 88 x_44_ * x_9_ - 84 x_19_ * x_11_ + 6 x_43_ * x_11_ + 40 x_25_ ^ 2 + 56 x_27_ * x_25_ + 74 x_44_ * x_25_ - 44 x_34_ * x_28_ + 52 x_43_ * x_34_ - 50 x_43_ ^ 2 ] >= -7156
quadratic_ranged_8_lb: -9 x_1_ + 20 x_39_ + 24 x_41_ + [ -28 x_39_ * x_1_ + 22 x_8_ ^ 2 - 34 x_15_ * x_8_ + 54 x_42_ * x_8_ - 72 x_41_ * x_20_ - 50 x_41_ * x_39_ ] >= 586
quadratic_ranged_9_lb: [ 42 x_24_ * x_3_ + 28 x_8_ ^ 2 - 28 x_18_ * x_8_ - 66 x_18_ * x_10_ - 40 x_21_ * x_10_ + 88 x_50_ * x_21_ - 4 x_50_ * x_24_ - 54 x_44_ * x_34_ ] >= -1800
quadratic_ranged_10_lb: 20 x_31_ + 19 x_45_ - 12 x_46_ + [ 88 x_45_ * x_8_ - 98 x_46_ * x_8_ - 22 x_14_ * x_9_ - 32 x_42_ * x_9_ + 45 x_14_ ^ 2 - 72 x_31_ * x_30_ - 72 x_46_ * x_30_ + 44 x_35_ * x_31_ - 8 x_45_ * x_31_ + 50 x_46_ * x_35_ - 68 x_46_ * x_42_ + 47 x_46_ ^ 2 ] >= -154
quadratic_ranged_11_lb: -19 x_1_ + 17 x_7_ + 21 x_21_ + 7 x_26_ + 23 x_42_ + [ -66 x_25_ * x_1_ + 58 x_26_ * x_1_ - 82 x_43_ * x_1_ - 80 x_20_ * x_6_ - 24 x_35_ * x_6_ - 8 x_7_ ^ 2 + 54 x_26_ * x_7_ + 70 x_42_ * x_7_ + 24 x_43_ * x_7_ - 30 x_35_ * x_14_ + 16 x_49_ * x_14_ + 42 x_31_ * x_20_ - 70 x_42_ * x_20_ - 32 x_43_ * x_20_ - 62 x_49_ * x_20_ - 88 x_31_ * x_21_ + 13 x_25_ ^ 2 - 60 x_49_ * x_31_ ] >= -5841
quadratic_ranged_12_lb: -48 x_38_ - 47 x_45_ + [ -22 x_45_ ^ 2 ] >= 138
quadratic_ranged_13_lb: 14 x_37_ + [ 26 x_2_ ^ 2 + 42 x_9_ * x_2_ + 14 x_18_ * x_2_ - 34 x_40_ * x_2_ + 84 x_24_ * x_9_ - 80 x_20_ * x_15_ - 76 x_43_ * x_15_ + 20 x_24_ * x_18_ + 20 x_40_ * x_18_ + 26 x_36_ * x_20_ - 62 x_47_ * x_20_ - 100 x_43_ * x_21_ + 16 x_36_ * x_24_ - 28 x_25_ ^ 2 - 34 x_27_ * x_25_ + 56 x_36_ * x_25_ - 28 x_37_ * x_25_ + 46 x_36_ * x_27_ + 64 x_40_ * x_30_ + 100 x_47_ * x_30_ + 6 x_40_ * x_36_ - 64 x_43_ * x_40_ - 84 x_47_ * x_43_ ] >= -5868
quadratic_ranged_14_lb: 21 x_1_ + 15 x_13_ + 39 x_41_ + [ 64 x_36_ * x_1_ + 18 x_7_ ^ 2 + 60 x_13_ * x_7_ + 38 x_21_ * x_7_ + 66 x_41_ * x_7_ + 42 x_36_ * x_21_ - 74 x_48_ * x_47_ - 36 x_48_ ^ 2 ] >= 6245
quadratic_ranged_15_lb: 4 x_18_ + 40 x_23_ + 18 x_25_ + [ -14 x_23_ * x_4_ - 52 x_23_ * x_18_ - 40 x_31_ * x_18_ - 1 x_31_ ^ 2 + 23 x_41_ ^ 2 + 80 x_42_ * x_41_ ] >= 573
quadratic_ranged_16_lb: -29 x_20_ + 13 x_21_ + [ -64 x_16_ * x_10_ + 10 x_20_ * x_16_ - 14 x_21_ ^ 2 - 6 x_23_ * x_21_ - 12 x_26_ * x_21_ + 68 x_26_ * x_23_ ] >= 100
quadratic_ranged_17_lb: [ -52 x_41_ * x_3_ - 41 x_8_ ^ 2 - 58 x_10_ * x_8_ + 56 x_35_ * x_8_ + 90 x_41_ * x_8_ - 80 x_50_ * x_8_ - 35 x_22_ ^ 2 - 22 x_36_ * x_35_ ] >= -1811
quadratic_ranged_18_lb: 23 x_31_ - 25 x_47_ + 7 x_50_ + [ 14 x_8_ * x_5_ - 22 x_35_ * x_5_ - 14 x_35_ * x_7_ + 82 x_47_ * x_8_ + 19 x_31_ ^ 2 - 64 x_37_ * x_31_ - 22 x_47_ * x_31_ + 48 x_35_ ^ 2 + 14 x_47_ ^ 2 ] >= 7000
quadratic_ranged_19_lb: -49 x_38_ + [ -49 x_3_ ^ 2 + 28 x_15_ * x_3_ - 24 x_38_ * x_3_ - 100 x_41_ * x_3_ + 46 x_12_ * x_4_ - 44 x_24_ * x_8_ - 76 x_21_ * x_12_ - 38 x_41_ * x_12_ - 56 x_48_ * x_12_ + 8 x_38_ * x_15_ - 80 x_48_ * x_38_ + 28 x_41_ ^ 2 + 13 x_48_ ^ 2 ] >= -4585
quadratic_ranged_20_lb: -30 x_15_ + 10 x_32_ + [ 8 x_30_ * x_3_ - 32 x_47_ * x_3_ - 20 x_43_ * x_15_ - 34 x_47_ * x_30_ - 72 x_41_ * x_32_ - 84 x_43_ * x_32_ - 38 x_41_ ^ 2 ] >= 1506
quadratic_ranged_21_lb: -42 x_1_ - 16 x_8_ + [ 98 x_8_ * x_1_ - 40 x_36_ * x_1_ - 14 x_37_ * x_1_ + 76 x_43_ * x_1_ - 48 x_10_ * x_8_ + 96 x_36_ * x_10_ - 64 x_38_ * x_10_ - 18 x_36_ * x_32_ - 44 x_37_ * x_32_ + 42 x_36_ ^ 2 - 62 x_43_ * x_37_ ] >= -1332
quadratic_ranged_22_lb: 6 x_18_ - 38 x_27_ + [ 42 x_11_ * x_9_ + 30 x_25_ * x_9_ + 94 x_27_ * x_9_ + 88 x_21_ * x_11_ + 4 x_40_ * x_11_ + 40 x_50_ * x_11_ - 38 x_21_ * x_17_ + 80 x_22_ * x_17_ + 8 x_38_ * x_18_ - 28 x_27_ * x_20_ + 6 x_50_ * x_20_ - 94 x_25_ * x_21_ - 14 x_39_ * x_21_ - 84 x_47_ * x_21_ + 94 x_27_ * x_25_ - 26 x_47_ * x_25_ - 44 x_39_ * x_27_ + 80 x_39_ * x_38_ - 68 x_47_ * x_38_ - 6 x_47_ ^ 2 ] >= 10081
quadratic_ranged_23_lb: -42 x_29_ - 17 x_36_ - 14 x_42_ + 23 x_45_ + [ -48 x_28_ * x_3_ - 74 x_29_ * x_3_ - 68 x_42_ * x_3_ - 18 x_45_ * x_3_ - 2 x_29_ * x_10_ - 6 x_32_ * x_10_ - 78 x_36_ * x_10_ + 100 x_45_ * x_10_ + 82 x_16_ * x_15_ + 76 x_45_ * x_15_ - 50 x_38_ * x_16_ - 94 x_36_ * x_28_ - 44 x_38_ * x_28_ - 2 x_29_ ^ 2 - 48 x_44_ * x_29_ - 49 x_32_ ^ 2 + 8 x_42_ * x_32_ - 62 x_46_ * x_32_ - 76 x_38_ * x_36_ + 62 x_49_ * x_36_ - 60 x_46_ * x_38_ - 37 x_42_ ^ 2 + 82 x_44_ * x_42_ + 44 x_49_ * x_45_ ] >= 1131
quadratic_ranged_24_lb: -39 x_2_ + 26 x_4_ - 26 x_43_ + [ 46 x_2_ ^ 2 - 70 x_9_ * x_2_ + 70 x_25_ * x_4_ + 36 x_41_ * x_4_ - 80 x_16_ * x_15_ - 94 x_41_ * x_15_ - 38 x_19_ * x_16_ + 8 x_41_ * x_16_ - 14 x_45_ * x_16_ + 94 x_41_ * x_17_ - 12 x_43_ * x_17_ - 30 x_45_ * x_19_ - 48 x_43_ ^ 2 + 84 x_50_ * x_43_ ] >= 398
quadratic_ranged_25_lb: -50 x_5_ + 44 x_13_ - 17 x_19_ + [ 18 x_1_ ^ 2 + 36 x_13_ * x_1_ + 78 x_13_ * x_5_ - 48 x_13_ * x_8_ + 52 x_44_ * x_8_ + 52 x_49_ * x_13_ + 90 x_47_ * x_18_ + 12 x_48_ * x_18_ + 46 x_49_ * x_18_ + 20 x_37_ * x_19_ - 78 x_40_ * x_19_ + 78 x_35_ * x_30_ - 38 x_49_ * x_35_ - 24 x_44_ * x_37_ + 8 x_48_ * x_37_ + 76 x_44_ * x_40_ + 82 x_47_ * x_40_ ] >= 8963
c1: -43 x_1_ + 47 x_25_ + [ -50 x_50_ * x_1_ - 94 x_31_ * x_5_ - 100 x_38_ * x_16_ + 12 x_46_ * x_16_ + 22 x_25_ ^ 2 - 14 x_46_ * x_25_ - 22 x_38_ * x_31_ + 18 x_50_ * x_31_ - 29 x_46_ ^ 2 - 17 x_50_ ^ 2 ] = 6475
c2: 40 x_7_ + 23 x_26_ + 21 x_33_ + 14 x_42_ - 47 x_46_ - 7 x_47_ + [ 96 x_14_ * x_7_ - 54 x_47_ * x_7_ + 84 x_48_ * x_7_ + 23 x_13_ ^ 2 - 60 x_14_ * x_13_ + 66 x_17_ * x_13_ + 98 x_26_ * x_13_ + 86 x_40_ * x_13_ + 6 x_42_ * x_13_ - 68 x_47_ * x_13_ - 56 x_48_ * x_13_ - 78 x_17_ * x_14_ - 96 x_33_ * x_14_ - 62 x_36_ * x_26_ - 82 x_43_ * x_26_ - 32 x_46_ * x_26_ - 50 x_33_ * x_28_ + 86 x_36_ * x_28_ - 84 x_40_ * x_33_ - 28 x_46_ * x_33_ + 74 x_42_ * x_40_ - 78 x_43_ * x_40_ + 16 x_47_ * x_42_ + 30 x_45_ * x_43_ ] = -6838
c3: -13 x_31_ + 11 x_37_ + [ -30 x_35_ * x_4_ + 40 x_50_ * x_4_ + 98 x_21_ * x_14_ - 80 x_31_ * x_14_ - 78 x_45_ * x_14_ + 52 x_35_ * x_19_ - 74 x_31_ * x_21_ + 13 x_31_ ^ 2 - 8 x_37_ * x_35_ - 21 x_37_ ^ 2 - 58 x_50_ * x_37_ ] = -8928
c4: -38 x_18_ + 44 x_28_ + 7 x_50_ + [ 20 x_6_ ^ 2 - 48 x_22_ * x_6_ - 78 x_35_ * x_6_ + 22 x_41_ * x_6_ + 24 x_45_ * x_8_ - 20 x_28_ * x_18_ - 36 x_41_ * x_18_ - 16 x_41_ * x_23_ - 22 x_35_ * x_24_ - 78 x_45_ * x_41_ - 9 x_45_ ^ 2 + 86 x_50_ * x_45_ - 7 x_50_ ^ 2 ] = 6213
c5: 7 x_13_ + [ -48 x_13_ * x_2_ - 16 x_45_ * x_8_ - 40 x_21_ * x_13_ - 44 x_21_ ^ 2 - 30 x_43_ * x_35_ ] = 463
c6: -42 x_26_ + [ 64 x_7_ * x_5_ - 8 x_21_ * x_5_ - 82 x_21_ * x_7_ - 96 x_24_ * x_7_ - 72 x_31_ * x_7_ + 90 x_26_ * x_24_ + 8 x_28_ * x_24_ - 38 x_31_ ^ 2 - 68 x_39_ * x_36_ - 6 x_39_ ^ 2 ] = -5684
c7: 27 x_44_ + [ 18 x_36_ * x_4_ + 4 x_5_ ^ 2 + 30 x_11_ * x_5_ + 49 x_10_ ^ 2 - 10 x_31_ * x_10_ - 24 x_32_ * x_11_ - 40 x_36_ * x_27_ + 30 x_32_ ^ 2 ] = -397
c8: -23 x_4_ + 36 x_48_ + [ -38 x_4_ ^ 2 - 72 x_19_ * x_4_ - 28 x_41_ * x_4_ - 8 x_44_ * x_4_ + 56 x_17_ * x_5_ - 48 x_39_ * x_5_ - 28 x_44_ * x_17_ - 90 x_47_ * x_17_ - 2 x_48_ * x_17_ + 22 x_26_ * x_19_ + 22 x_39_ * x_19_ + 76 x_41_ * x_19_ - 56 x_47_ * x_29_ - 44 x_44_ * x_39_ + 26 x_48_ ^ 2 ] = 2136
c9: 18 x_4_ + 43 x_7_ - 34 x_43_ + 40 x_44_ + [ 84 x_44_ * x_4_ - 6 x_14_ * x_7_ - 34 x_28_ * x_7_ - 84 x_27_ * x_9_ - 40 x_43_ * x_9_ - 94 x_15_ * x_14_ - 80 x_28_ * x_14_ - 48 x_15_ ^ 2 + 6 x_39_ * x_27_ - 20 x_43_ * x_28_ + 86 x_44_ * x_39_ + 4 x_44_ ^ 2 ] = -2076
c10: 14 x_9_ + 12 x_47_ + 26 x_49_ + [ -1 x_9_ ^ 2 + 90 x_30_ * x_22_ - 92 x_43_ * x_22_ - 9 x_23_ ^ 2 - 82 x_37_ * x_23_ - 62 x_43_ * x_23_ + 70 x_47_ * x_23_ + 48 x_49_ * x_23_ + 38 x_37_ * x_29_ - 38 x_47_ * x_29_ - 62 x_37_ * x_30_ - 18 x_43_ * x_30_ + 100 x_43_ * x_31_ + 68 x_43_ * x_37_ + 36 x_47_ * x_37_ - 90 x_49_ * x_37_ ] = -1658
c11: 7 x_12_ - 22 x_41_ + [ -90 x_12_ * x_2_ + 28 x_3_ ^ 2 - 44 x_7_ * x_3_ + 66 x_12_ * x_3_ + 20 x_42_ * x_3_ + 64 x_26_ * x_7_ - 82 x_47_ * x_7_ - 94 x_42_ * x_12_ - 66 x_26_ * x_18_ + 90 x_34_ * x_18_ + 41 x_34_ ^ 2 - 40 x_38_ * x_34_ - 24 x_41_ * x_38_ - 74 x_47_ * x_41_ + 1 x_47_ ^ 2 ] = -8225
c12: -10 x_11_ - 40 x_44_ - 19 x_45_ + [ -82 x_26_ * x_3_ - 92 x_11_ * x_8_ + 74 x_19_ * x_8_ - 20 x_37_ * x_8_ - 44 x_37_ * x_11_ - 26 x_19_ ^ 2 - 24 x_26_ * x_19_ - 76 x_38_ * x_19_ - 10 x_45_ * x_19_ + 56 x_45_ * x_37_ + 12 x_39_ ^ 2 + 40 x_45_ ^ 2 ] = 6017
c13: 39 x_30_ + [ 46 x_2_ * x_12_ - 82 x_31_ * x_2_ - 24 x_35_ * x_2_ + 96 x_31_ * x_10_ + 52 x_41_ * x_10_ + 14 x_45_ * x_18_ + 56 x_40_ * x_30_ + 38 x_41_ * x_30_ + 50 x_40_ * x_31_ - 92 x_45_ * x_31_ - 40 x_49_ * x_31_ + 50 x_41_ * x_35_ - 20 x_49_ * x_35_ + 46 x_41_ * x_40_ ] = -1629
c14: 4 x_19_ + 25 x_27_ + 36 x_31_ - 19 x_42_ + [ 12 x_10_ * x_3_ - 30 x_44_ * x_3_ + 14 x_19_ * x_4_ - 14 x_44_ * x_4_ - 15 x_10_ ^ 2 - 4 x_19_ * x_10_ - 96 x_44_ * x_10_ + 90 x_42_ * x_16_ - 54 x_44_ * x_16_ + 40 x_47_ * x_16_ + 58 x_27_ * x_19_ - 10 x_45_ * x_19_ + 78 x_47_ * x_19_ + 30 x_44_ * x_27_ - 3 x_31_ ^ 2 + 32 x_45_ * x_31_ + 22 x_42_ * x_37_ - 10 x_44_ * x_42_ - 38 x_47_ * x_42_ + 26 x_47_ ^ 2 ] = 7177
c15: [ -45 x_1_ ^ 2 + 8 x_31_ * x_1_ + 72 x_41_ * x_1_ - 54 x_31_ * x_27_ - 20 x_39_ * x_27_ - 36 x_41_ * x_31_ ] = 599
c16: 33 x_10_ - 29 x_24_ + [ -1 x_2_ ^ 2 - 46 x_22_ * x_10_ - 54 x_24_ * x_10_ + 94 x_26_ * x_10_ - 78 x_39_ * x_10_ + 70 x_29_ * x_11_ - 90 x_39_ * x_22_ - 54 x_39_ * x_24_ + 47 x_26_ ^ 2 - 23 x_37_ ^ 2 + 98 x_39_ * x_37_ + 76 x_50_ * x_37_ - 7 x_39_ ^ 2 ] = 1649
c17: -8 x_10_ + 38 x_46_ + [ 74 x_37_ * x_10_ + 20 x_46_ * x_10_ + 46 x_44_ * x_27_ - 32 x_44_ ^ 2 ] = -1394
c18: -34 x_13_ - 44 x_14_ + [ 76 x_8_ * x_5_ + 24 x_14_ * x_6_ - 20 x_8_ ^ 2 + 100 x_14_ * x_8_ - 4 x_39_ * x_8_ + 42 x_44_ * x_13_ - 33 x_14_ ^ 2 - 70 x_39_ * x_14_ - 11 x_44_ ^ 2 ] = -4088
c19: -24 x_2_ - 15 x_23_ + [ 16 x_1_ ^ 2 - 34 x_2_ * x_1_ - 8 x_48_ * x_2_ + 5 x_3_ ^ 2 + 100 x_21_ * x_3_ - 30 x_23_ * x_4_ - 16 x_21_ * x_20_ - 72 x_24_ * x_20_ - 42 x_21_ ^ 2 + 18 x_34_ * x_21_ + 40 x_24_ * x_23_ + 9 x_24_ ^ 2 + 72 x_48_ * x_24_ - 52 x_48_ * x_34_ + 27 x_37_ ^ 2 ] = -3109
c20: -37 x_9_ - 16 x_11_ + [ -42 x_12_ * x_9_ - 64 x_33_ * x_11_ + 43 x_12_ ^ 2 + 72 x_28_ * x_12_ - 42 x_33_ * x_18_ ] = -859
c21: 23 x_11_ + [ 68 x_11_ * x_9_ + 34 x_14_ * x_9_ + 56 x_19_ * x_11_ + 14 x_23_ * x_11_ + 18 x_44_ * x_11_ - 66 x_46_ * x_11_ + 76 x_47_ * x_11_ + 84 x_19_ * x_14_ + 56 x_23_ * x_19_ - 12 x_44_ * x_19_ - 92 x_46_ * x_19_ - 22 x_28_ * x_23_ + 36 x_30_ * x_28_ + 30 x_47_ * x_28_ + 26 x_44_ ^ 2 + 50 x_46_ * x_44_ ] = 3189
c22: -50 x_13_ + 24 x_43_ + [ -60 x_26_ * x_11_ + 48 x_23_ * x_13_ - 100 x_29_ * x_13_ - 20 x_43_ * x_13_ + 36 x_46_ * x_13_ - 6 x_35_ * x_23_ - 12 x_43_ * x_23_ + 44 x_44_ * x_23_ + 24 x_35_ * x_26_ + 68 x_43_ * x_29_ - 36 x_44_ * x_32_ - 94 x_43_ * x_37_ + 17 x_43_ ^ 2 - 52 x_44_ * x_43_ + 20 x_46_ * x_43_ ] = 841
c23: 3 x_1_ + 15 x_24_ + 13 x_46_ + [ -8 x_24_ * x_11_ - 22 x_28_ * x_11_ + 42 x_29_ * x_11_ + 16 x_13_ ^ 2 - 20 x_24_ * x_13_ - 50 x_33_ * x_13_ - 22 x_33_ * x_24_ - 68 x_46_ * x_24_ + 90 x_29_ * x_28_ - 2 x_33_ * x_28_ + 48 x_29_ ^ 2 - 50 x_33_ * x_29_ ] = -1506
c24: 40 x_17_ + [ 80 x_11_ * x_3_ - 30 x_35_ * x_17_ - 24 x_40_ * x_18_ - 70 x_41_ * x_18_ - 6 x_46_ * x_18_ - 56 x_40_ * x_39_ + 68 x_41_ * x_40_ + 22 x_41_ ^ 2 ] = -288
c25: 12 x_11_ - 5 x_22_ - 9 x_24_ + [ 32 x_24_ * x_6_ + 14 x_36_ * x_6_ + 90 x_37_ * x_6_ + 19 x_9_ ^ 2 + 30 x_36_ * x_9_ + 26 x_36_ * x_11_ - 42 x_37_ * x_11_ + 30 x_36_ * x_16_ - 28 x_37_ * x_16_ + 60 x_30_ * x_24_ + 90 x_36_ * x_24_ + 24 x_37_ * x_36_ ] = 5221
Bounds
3 <= x_1_ <= 9
x_2_ = -5
-8 <= x_3_ <= 4
-10 <= x_4_ <= -4
-9 <= x_5_ <= -3
-1 <= x_6_ <= 9
-1 <= x_7_ <= 10
-6 <= x_8_ <= 3
-9 <= x_9_ <= -1
-9 <= x_10_ <= 0
2 <= x_11_ <= 5
-10 <= x_12_ <= 5
-6 <= x_13_ <= 5
-9 <= x_14_ <= 3
-7 <= x_15_ <= 10
-1 <= x_16_ <= 9
1 <= x_17_ <= 6
-2 <= x_18_ <= 5
8 <= x_19_ <= 10
-4 <= x_20_ <= 6
-10 <= x_21_ <= 9
0 <= x_22_ <= 7
4 <= x_23_ <= 10
-5 <= x_24_ <= 7
-6 <= x_25_ <= 6
-3 <= x_26_ <= 0
-7 <= x_27_ <= 1
-6 <= x_28_ <= 7
-8 <= x_29_ <= 0
-10 <= x_30_ <= 10
-10 <= x_31_ <= 4
-2 <= x_32_ <= 6
2 <= x_33_ <= 7
-10 <= x_34_ <= -5
-10 <= x_35_ <= 7
-4 <= x_36_ <= 9
-10 <= x_37_ <= 10
-10 <= x_38_ <= 7
-10 <= x_39_ <= 7
-4 <= x_40_ <= -2
2 <= x_41_ <= 6
-9 <= x_42_ <= 1
-3 <= x_43_ <= 7
-1 <= x_44_ <= 9
0 <= x_45_ <= 8
-10 <= x_46_ <= 0
-10 <= x_47_ <= 10
-7 <= x_48_ <= -1
5 <= x_49_ <= 7
-4 <= x_50_ <= 7
General
x_1_
x_2_
x_3_
x_4_
x_5_
x_6_
x_7_
x_8_
x_9_
x_10_
x_11_
x_12_
x_13_
x_14_
x_15_
x_16_
x_17_
x_18_
x_19_
x_20_
x_21_
x_22_
x_23_
x_24_
x_25_
x_26_
x_27_
x_28_
x_29_
x_30_
x_31_
x_32_
x_33_
x_34_
x_35_
x_36_
x_37_
x_38_
x_39_
x_40_
x_41_
x_42_
x_43_
x_44_
x_45_
x_46_
x_47_
x_48_
x_49_
x_50_
End
