minimize
obj: 
subject to
quadratic_ranged_1_ub: [ -100 x_49_ * x_28_ - 6 x_29_ ^ 2 + 34 x_41_ * x_29_ + 60 x_49_ * x_29_ + 5 x_47_ ^ 2 ] <= -3703
quadratic_ranged_2_ub: [ 10 x_1_ ^ 2 - 60 x_14_ * x_1_ - 72 x_31_ * x_1_ - 34 x_29_ * x_2_ - 70 x_14_ * x_4_ + 11 x_14_ ^ 2 + 49 x_29_ ^ 2 + 15 x_33_ ^ 2 ] <= -12070
quadratic_ranged_3_ub: [ -6 x_6_ * x_4_ + 32 x_7_ * x_4_ + 44 x_17_ * x_4_ - 28 x_39_ * x_4_ + 4 x_47_ * x_4_ + 50 x_8_ * x_6_ + 52 x_47_ * x_6_ - 82 x_25_ * x_7_ + 34 x_39_ * x_7_ - 66 x_24_ * x_8_ + 70 x_39_ * x_8_ - 12 x_12_ * x_11_ - 10 x_17_ * x_11_ - 6 x_29_ * x_11_ - 2 x_47_ * x_11_ + 30 x_29_ * x_12_ - 20 x_34_ * x_12_ - 82 x_38_ * x_12_ + 2 x_39_ * x_17_ + 10 x_24_ ^ 2 + 8 x_39_ * x_24_ + 4 x_38_ * x_25_ + 45 x_29_ ^ 2 + 4 x_38_ * x_29_ - 22 x_47_ * x_38_ ] <= 1306
quadratic_ranged_4_ub: [ 20 x_7_ ^ 2 - 8 x_11_ * x_7_ + 100 x_20_ * x_7_ - 92 x_27_ * x_7_ - 84 x_14_ * x_10_ + 10 x_27_ * x_10_ - 47 x_11_ ^ 2 + 62 x_33_ * x_14_ - 48 x_43_ * x_14_ - 11 x_17_ ^ 2 - 36 x_28_ * x_17_ - 36 x_48_ * x_17_ + 6 x_18_ ^ 2 + 36 x_27_ * x_18_ - 6 x_33_ * x_20_ + 92 x_43_ * x_20_ + 100 x_48_ * x_28_ - 6 x_43_ * x_37_ - 48 x_48_ * x_37_ ] <= -1899
quadratic_ranged_5_ub: [ -94 x_8_ * x_1_ - 80 x_49_ * x_1_ + 32 x_22_ * x_3_ - 48 x_30_ * x_3_ + 28 x_22_ * x_8_ - 14 x_35_ * x_8_ + 2 x_14_ ^ 2 - 62 x_22_ * x_14_ + 92 x_30_ * x_14_ + 90 x_34_ * x_14_ - 92 x_25_ * x_20_ - 86 x_30_ * x_20_ - 20 x_35_ * x_20_ - 80 x_36_ * x_20_ + 68 x_39_ * x_20_ - 78 x_36_ * x_21_ - 66 x_25_ * x_22_ + 46 x_48_ * x_22_ + 10 x_36_ * x_25_ - 68 x_49_ * x_25_ - 41 x_34_ ^ 2 + 96 x_35_ * x_34_ + 44 x_48_ * x_35_ + 14 x_36_ ^ 2 + 86 x_39_ * x_36_ + 33 x_39_ ^ 2 ] <= 25205
quadratic_ranged_6_ub: [ 36 x_3_ ^ 2 + 28 x_28_ * x_3_ + 40 x_20_ * x_4_ + 56 x_41_ * x_4_ + 14 x_12_ * x_7_ - 40 x_15_ * x_7_ + 18 x_15_ * x_12_ - 74 x_28_ * x_12_ + 80 x_32_ * x_15_ + 48 x_41_ * x_16_ - 66 x_44_ * x_20_ + 18 x_41_ * x_22_ - 36 x_32_ * x_28_ ] <= 6021
quadratic_ranged_7_ub: [ 32 x_34_ ^ 2 ] <= 2052
quadratic_ranged_8_ub: [ -34 x_31_ * x_4_ + 40 x_43_ * x_4_ - 50 x_50_ * x_4_ - 20 x_43_ * x_5_ + 76 x_10_ * x_6_ - 92 x_43_ * x_6_ + 7 x_9_ ^ 2 - 36 x_31_ * x_9_ + 84 x_39_ * x_9_ + 14 x_50_ * x_9_ + 16 x_48_ * x_10_ - 96 x_39_ * x_31_ + 78 x_43_ * x_39_ - 56 x_50_ * x_39_ + 20 x_48_ ^ 2 ] <= -1252
quadratic_ranged_9_ub: [ 8 x_5_ * x_3_ - 20 x_43_ * x_3_ - 74 x_47_ * x_3_ - 10 x_8_ * x_5_ - 28 x_34_ * x_5_ - 42 x_12_ * x_8_ + 90 x_34_ * x_8_ + 94 x_34_ * x_12_ + 52 x_45_ * x_12_ - 94 x_45_ * x_34_ + 26 x_47_ * x_43_ - 44 x_47_ ^ 2 - 32 x_50_ * x_47_ ] <= 3500
quadratic_ranged_10_ub: [ -39 x_7_ ^ 2 + 32 x_13_ * x_7_ + 44 x_47_ * x_7_ + 58 x_13_ * x_11_ - 82 x_16_ * x_11_ + 82 x_45_ * x_11_ + 33 x_14_ ^ 2 + 44 x_15_ * x_14_ + 34 x_17_ * x_14_ - 37 x_16_ ^ 2 - 24 x_45_ * x_16_ - 16 x_47_ ^ 2 ] <= 8106
quadratic_ranged_11_ub: [ 92 x_5_ * x_10_ + 88 x_12_ * x_5_ + 22 x_19_ * x_5_ - 32 x_38_ * x_5_ + 38 x_33_ * x_10_ + 52 x_35_ * x_12_ + 82 x_44_ * x_12_ - 46 x_35_ * x_26_ + 62 x_38_ * x_33_ + 40 x_38_ * x_35_ ] <= -6085
quadratic_ranged_12_ub: [ 72 x_27_ * x_2_ + 62 x_27_ * x_5_ - 48 x_22_ * x_21_ + 22 x_27_ * x_22_ - 2 x_24_ ^ 2 ] <= 2290
quadratic_ranged_13_ub: [ 46 x_1_ ^ 2 - 6 x_14_ * x_1_ - 50 x_28_ * x_1_ + 4 x_29_ * x_1_ + 20 x_40_ * x_1_ + 36 x_46_ * x_1_ + 50 x_9_ * x_3_ - 32 x_14_ * x_3_ - 40 x_37_ * x_3_ - 2 x_40_ * x_3_ - 20 x_29_ * x_4_ + 18 x_35_ * x_4_ - 64 x_41_ * x_9_ - 6 x_14_ ^ 2 + 64 x_35_ * x_14_ - 74 x_37_ * x_14_ + 78 x_41_ * x_14_ + 4 x_37_ * x_35_ + 14 x_37_ ^ 2 + 38 x_40_ ^ 2 - 78 x_46_ * x_41_ ] <= 13463
quadratic_ranged_14_ub: [ -32 x_8_ * x_14_ + 12 x_14_ * x_12_ - 26 x_19_ * x_12_ + 16 x_41_ * x_12_ - 98 x_23_ * x_14_ + 32 x_41_ * x_14_ ] <= -1431
quadratic_ranged_15_ub: [ 44 x_14_ * x_37_ + 46 x_42_ * x_14_ - 84 x_45_ * x_17_ + 60 x_45_ * x_37_ ] <= -477
quadratic_ranged_16_ub: [ 58 x_34_ * x_2_ + 16 x_8_ * x_5_ + 46 x_32_ * x_8_ - 64 x_50_ * x_8_ - 72 x_32_ * x_18_ + 62 x_34_ * x_18_ - 86 x_34_ * x_29_ + 52 x_41_ * x_32_ + 90 x_50_ * x_34_ - 47 x_41_ ^ 2 ] <= -6045
quadratic_ranged_17_ub: [ -50 x_42_ * x_24_ - 21 x_28_ ^ 2 + 40 x_49_ * x_28_ - 12 x_42_ * x_34_ - 60 x_49_ * x_42_ ] <= 392
quadratic_ranged_18_ub: [ 86 x_5_ * x_1_ - 12 x_45_ * x_1_ - 24 x_33_ * x_5_ - 38 x_37_ * x_5_ + 6 x_33_ * x_10_ + 10 x_42_ * x_10_ - 38 x_48_ * x_10_ + 46 x_45_ * x_37_ - 36 x_43_ ^ 2 + 58 x_48_ * x_43_ ] <= -4159
quadratic_ranged_19_ub: [ 40 x_3_ ^ 2 - 54 x_14_ * x_3_ - 2 x_18_ * x_3_ - 40 x_27_ * x_3_ + 46 x_29_ * x_11_ + 14 x_33_ * x_11_ + 36 x_33_ * x_14_ - 96 x_18_ * x_16_ - 30 x_23_ * x_16_ - 34 x_23_ ^ 2 + 64 x_33_ * x_23_ - 30 x_29_ * x_27_ + 18 x_41_ * x_27_ + 43 x_33_ ^ 2 ] <= -2593
quadratic_ranged_20_ub: [ 14 x_5_ * x_1_ - 34 x_37_ * x_1_ - 54 x_44_ * x_1_ - 37 x_3_ ^ 2 + 18 x_25_ * x_3_ + 54 x_32_ * x_5_ + 38 x_37_ * x_5_ + 16 x_45_ * x_11_ - 44 x_32_ * x_20_ + 12 x_25_ ^ 2 + 26 x_44_ * x_25_ + 50 x_32_ * x_30_ + 92 x_44_ * x_30_ - 16 x_45_ * x_30_ - 37 x_32_ ^ 2 ] <= -883
quadratic_ranged_21_ub: [ 48 x_19_ * x_9_ + 60 x_35_ * x_9_ - 98 x_30_ * x_17_ - 78 x_36_ * x_17_ + 26 x_49_ * x_17_ - 90 x_49_ * x_19_ + 46 x_40_ * x_28_ - 56 x_49_ * x_28_ - 16 x_30_ ^ 2 - 26 x_37_ * x_30_ - 72 x_43_ * x_30_ - 24 x_35_ ^ 2 + 12 x_49_ * x_35_ + 78 x_43_ * x_36_ - 76 x_43_ * x_37_ - 46 x_49_ * x_37_ ] <= 5370
quadratic_ranged_22_ub: [ -23 x_1_ ^ 2 + 42 x_2_ * x_1_ - 32 x_10_ * x_1_ + 18 x_12_ * x_1_ + 16 x_12_ * x_2_ - 60 x_20_ * x_2_ + 12 x_21_ * x_2_ + 46 x_31_ * x_2_ + 10 x_33_ * x_2_ + 84 x_24_ * x_11_ - 44 x_31_ * x_11_ + 14 x_27_ * x_12_ - 56 x_31_ * x_12_ - 92 x_46_ * x_13_ + 32 x_26_ * x_20_ - 48 x_41_ * x_20_ - 6 x_26_ * x_21_ - 26 x_33_ * x_24_ + 18 x_46_ * x_24_ - 16 x_26_ ^ 2 + 8 x_31_ * x_26_ - 30 x_33_ * x_31_ + 44 x_41_ * x_31_ + 64 x_41_ * x_33_ - 50 x_46_ * x_33_ + 34 x_46_ ^ 2 ] <= 9401
quadratic_ranged_23_ub: [ 29 x_2_ ^ 2 - 98 x_6_ * x_2_ + 4 x_13_ * x_3_ + 52 x_40_ * x_3_ + 16 x_18_ * x_6_ + 14 x_50_ * x_6_ + 4 x_18_ * x_13_ - 58 x_40_ * x_13_ + 68 x_47_ * x_13_ - 10 x_50_ * x_18_ - 24 x_47_ * x_26_ - 96 x_50_ * x_26_ - 40 x_36_ * x_32_ - 32 x_36_ ^ 2 + 2 x_50_ * x_36_ + 88 x_50_ * x_47_ ] <= -2300
quadratic_ranged_24_ub: [ -10 x_6_ * x_34_ - 6 x_36_ * x_11_ + 74 x_37_ * x_11_ + 16 x_28_ * x_21_ + 4 x_36_ * x_28_ - 90 x_36_ * x_34_ + 6 x_37_ * x_34_ - 20 x_40_ * x_37_ ] <= -8376
quadratic_ranged_1_lb: [ -100 x_49_ * x_28_ - 6 x_29_ ^ 2 + 34 x_41_ * x_29_ + 60 x_49_ * x_29_ + 5 x_47_ ^ 2 ] >= -3707
quadratic_ranged_2_lb: [ 10 x_1_ ^ 2 - 60 x_14_ * x_1_ - 72 x_31_ * x_1_ - 34 x_29_ * x_2_ - 70 x_14_ * x_4_ + 11 x_14_ ^ 2 + 49 x_29_ ^ 2 + 15 x_33_ ^ 2 ] >= -12076
quadratic_ranged_3_lb: [ -6 x_6_ * x_4_ + 32 x_7_ * x_4_ + 44 x_17_ * x_4_ - 28 x_39_ * x_4_ + 4 x_47_ * x_4_ + 50 x_8_ * x_6_ + 52 x_47_ * x_6_ - 82 x_25_ * x_7_ + 34 x_39_ * x_7_ - 66 x_24_ * x_8_ + 70 x_39_ * x_8_ - 12 x_12_ * x_11_ - 10 x_17_ * x_11_ - 6 x_29_ * x_11_ - 2 x_47_ * x_11_ + 30 x_29_ * x_12_ - 20 x_34_ * x_12_ - 82 x_38_ * x_12_ + 2 x_39_ * x_17_ + 10 x_24_ ^ 2 + 8 x_39_ * x_24_ + 4 x_38_ * x_25_ + 45 x_29_ ^ 2 + 4 x_38_ * x_29_ - 22 x_47_ * x_38_ ] >= 1301
quadratic_ranged_4_lb: [ 20 x_7_ ^ 2 - 8 x_11_ * x_7_ + 100 x_20_ * x_7_ - 92 x_27_ * x_7_ - 84 x_14_ * x_10_ + 10 x_27_ * x_10_ - 47 x_11_ ^ 2 + 62 x_33_ * x_14_ - 48 x_43_ * x_14_ - 11 x_17_ ^ 2 - 36 x_28_ * x_17_ - 36 x_48_ * x_17_ + 6 x_18_ ^ 2 + 36 x_27_ * x_18_ - 6 x_33_ * x_20_ + 92 x_43_ * x_20_ + 100 x_48_ * x_28_ - 6 x_43_ * x_37_ - 48 x_48_ * x_37_ ] >= -1908
quadratic_ranged_5_lb: [ -94 x_8_ * x_1_ - 80 x_49_ * x_1_ + 32 x_22_ * x_3_ - 48 x_30_ * x_3_ + 28 x_22_ * x_8_ - 14 x_35_ * x_8_ + 2 x_14_ ^ 2 - 62 x_22_ * x_14_ + 92 x_30_ * x_14_ + 90 x_34_ * x_14_ - 92 x_25_ * x_20_ - 86 x_30_ * x_20_ - 20 x_35_ * x_20_ - 80 x_36_ * x_20_ + 68 x_39_ * x_20_ - 78 x_36_ * x_21_ - 66 x_25_ * x_22_ + 46 x_48_ * x_22_ + 10 x_36_ * x_25_ - 68 x_49_ * x_25_ - 41 x_34_ ^ 2 + 96 x_35_ * x_34_ + 44 x_48_ * x_35_ + 14 x_36_ ^ 2 + 86 x_39_ * x_36_ + 33 x_39_ ^ 2 ] >= 25198
quadratic_ranged_6_lb: [ 36 x_3_ ^ 2 + 28 x_28_ * x_3_ + 40 x_20_ * x_4_ + 56 x_41_ * x_4_ + 14 x_12_ * x_7_ - 40 x_15_ * x_7_ + 18 x_15_ * x_12_ - 74 x_28_ * x_12_ + 80 x_32_ * x_15_ + 48 x_41_ * x_16_ - 66 x_44_ * x_20_ + 18 x_41_ * x_22_ - 36 x_32_ * x_28_ ] >= 6013
quadratic_ranged_7_lb: [ 32 x_34_ ^ 2 ] >= 2043
quadratic_ranged_8_lb: [ -34 x_31_ * x_4_ + 40 x_43_ * x_4_ - 50 x_50_ * x_4_ - 20 x_43_ * x_5_ + 76 x_10_ * x_6_ - 92 x_43_ * x_6_ + 7 x_9_ ^ 2 - 36 x_31_ * x_9_ + 84 x_39_ * x_9_ + 14 x_50_ * x_9_ + 16 x_48_ * x_10_ - 96 x_39_ * x_31_ + 78 x_43_ * x_39_ - 56 x_50_ * x_39_ + 20 x_48_ ^ 2 ] >= -1258
quadratic_ranged_9_lb: [ 8 x_5_ * x_3_ - 20 x_43_ * x_3_ - 74 x_47_ * x_3_ - 10 x_8_ * x_5_ - 28 x_34_ * x_5_ - 42 x_12_ * x_8_ + 90 x_34_ * x_8_ + 94 x_34_ * x_12_ + 52 x_45_ * x_12_ - 94 x_45_ * x_34_ + 26 x_47_ * x_43_ - 44 x_47_ ^ 2 - 32 x_50_ * x_47_ ] >= 3496
quadratic_ranged_10_lb: [ -39 x_7_ ^ 2 + 32 x_13_ * x_7_ + 44 x_47_ * x_7_ + 58 x_13_ * x_11_ - 82 x_16_ * x_11_ + 82 x_45_ * x_11_ + 33 x_14_ ^ 2 + 44 x_15_ * x_14_ + 34 x_17_ * x_14_ - 37 x_16_ ^ 2 - 24 x_45_ * x_16_ - 16 x_47_ ^ 2 ] >= 8096
quadratic_ranged_11_lb: [ 92 x_5_ * x_10_ + 88 x_12_ * x_5_ + 22 x_19_ * x_5_ - 32 x_38_ * x_5_ + 38 x_33_ * x_10_ + 52 x_35_ * x_12_ + 82 x_44_ * x_12_ - 46 x_35_ * x_26_ + 62 x_38_ * x_33_ + 40 x_38_ * x_35_ ] >= -6087
quadratic_ranged_12_lb: [ 72 x_27_ * x_2_ + 62 x_27_ * x_5_ - 48 x_22_ * x_21_ + 22 x_27_ * x_22_ - 2 x_24_ ^ 2 ] >= 2288
quadratic_ranged_13_lb: [ 46 x_1_ ^ 2 - 6 x_14_ * x_1_ - 50 x_28_ * x_1_ + 4 x_29_ * x_1_ + 20 x_40_ * x_1_ + 36 x_46_ * x_1_ + 50 x_9_ * x_3_ - 32 x_14_ * x_3_ - 40 x_37_ * x_3_ - 2 x_40_ * x_3_ - 20 x_29_ * x_4_ + 18 x_35_ * x_4_ - 64 x_41_ * x_9_ - 6 x_14_ ^ 2 + 64 x_35_ * x_14_ - 74 x_37_ * x_14_ + 78 x_41_ * x_14_ + 4 x_37_ * x_35_ + 14 x_37_ ^ 2 + 38 x_40_ ^ 2 - 78 x_46_ * x_41_ ] >= 13455
quadratic_ranged_14_lb: [ -32 x_8_ * x_14_ + 12 x_14_ * x_12_ - 26 x_19_ * x_12_ + 16 x_41_ * x_12_ - 98 x_23_ * x_14_ + 32 x_41_ * x_14_ ] >= -1436
quadratic_ranged_15_lb: [ 44 x_14_ * x_37_ + 46 x_42_ * x_14_ - 84 x_45_ * x_17_ + 60 x_45_ * x_37_ ] >= -481
quadratic_ranged_16_lb: [ 58 x_34_ * x_2_ + 16 x_8_ * x_5_ + 46 x_32_ * x_8_ - 64 x_50_ * x_8_ - 72 x_32_ * x_18_ + 62 x_34_ * x_18_ - 86 x_34_ * x_29_ + 52 x_41_ * x_32_ + 90 x_50_ * x_34_ - 47 x_41_ ^ 2 ] >= -6047
quadratic_ranged_17_lb: [ -50 x_42_ * x_24_ - 21 x_28_ ^ 2 + 40 x_49_ * x_28_ - 12 x_42_ * x_34_ - 60 x_49_ * x_42_ ] >= 385
quadratic_ranged_18_lb: [ 86 x_5_ * x_1_ - 12 x_45_ * x_1_ - 24 x_33_ * x_5_ - 38 x_37_ * x_5_ + 6 x_33_ * x_10_ + 10 x_42_ * x_10_ - 38 x_48_ * x_10_ + 46 x_45_ * x_37_ - 36 x_43_ ^ 2 + 58 x_48_ * x_43_ ] >= -4165
quadratic_ranged_19_lb: [ 40 x_3_ ^ 2 - 54 x_14_ * x_3_ - 2 x_18_ * x_3_ - 40 x_27_ * x_3_ + 46 x_29_ * x_11_ + 14 x_33_ * x_11_ + 36 x_33_ * x_14_ - 96 x_18_ * x_16_ - 30 x_23_ * x_16_ - 34 x_23_ ^ 2 + 64 x_33_ * x_23_ - 30 x_29_ * x_27_ + 18 x_41_ * x_27_ + 43 x_33_ ^ 2 ] >= -2601
quadratic_ranged_20_lb: [ 14 x_5_ * x_1_ - 34 x_37_ * x_1_ - 54 x_44_ * x_1_ - 37 x_3_ ^ 2 + 18 x_25_ * x_3_ + 54 x_32_ * x_5_ + 38 x_37_ * x_5_ + 16 x_45_ * x_11_ - 44 x_32_ * x_20_ + 12 x_25_ ^ 2 + 26 x_44_ * x_25_ + 50 x_32_ * x_30_ + 92 x_44_ * x_30_ - 16 x_45_ * x_30_ - 37 x_32_ ^ 2 ] >= -892
quadratic_ranged_21_lb: [ 48 x_19_ * x_9_ + 60 x_35_ * x_9_ - 98 x_30_ * x_17_ - 78 x_36_ * x_17_ + 26 x_49_ * x_17_ - 90 x_49_ * x_19_ + 46 x_40_ * x_28_ - 56 x_49_ * x_28_ - 16 x_30_ ^ 2 - 26 x_37_ * x_30_ - 72 x_43_ * x_30_ - 24 x_35_ ^ 2 + 12 x_49_ * x_35_ + 78 x_43_ * x_36_ - 76 x_43_ * x_37_ - 46 x_49_ * x_37_ ] >= 5366
quadratic_ranged_22_lb: [ -23 x_1_ ^ 2 + 42 x_2_ * x_1_ - 32 x_10_ * x_1_ + 18 x_12_ * x_1_ + 16 x_12_ * x_2_ - 60 x_20_ * x_2_ + 12 x_21_ * x_2_ + 46 x_31_ * x_2_ + 10 x_33_ * x_2_ + 84 x_24_ * x_11_ - 44 x_31_ * x_11_ + 14 x_27_ * x_12_ - 56 x_31_ * x_12_ - 92 x_46_ * x_13_ + 32 x_26_ * x_20_ - 48 x_41_ * x_20_ - 6 x_26_ * x_21_ - 26 x_33_ * x_24_ + 18 x_46_ * x_24_ - 16 x_26_ ^ 2 + 8 x_31_ * x_26_ - 30 x_33_ * x_31_ + 44 x_41_ * x_31_ + 64 x_41_ * x_33_ - 50 x_46_ * x_33_ + 34 x_46_ ^ 2 ] >= 9395
quadratic_ranged_23_lb: [ 29 x_2_ ^ 2 - 98 x_6_ * x_2_ + 4 x_13_ * x_3_ + 52 x_40_ * x_3_ + 16 x_18_ * x_6_ + 14 x_50_ * x_6_ + 4 x_18_ * x_13_ - 58 x_40_ * x_13_ + 68 x_47_ * x_13_ - 10 x_50_ * x_18_ - 24 x_47_ * x_26_ - 96 x_50_ * x_26_ - 40 x_36_ * x_32_ - 32 x_36_ ^ 2 + 2 x_50_ * x_36_ + 88 x_50_ * x_47_ ] >= -2307
quadratic_ranged_24_lb: [ -10 x_6_ * x_34_ - 6 x_36_ * x_11_ + 74 x_37_ * x_11_ + 16 x_28_ * x_21_ + 4 x_36_ * x_28_ - 90 x_36_ * x_34_ + 6 x_37_ * x_34_ - 20 x_40_ * x_37_ ] >= -8380
c1: [ -24 x_15_ * x_1_ - 72 x_15_ * x_6_ - 34 x_21_ * x_6_ - 64 x_44_ * x_6_ + 36 x_28_ * x_15_ + 10 x_44_ * x_21_ + 46 x_31_ ^ 2 + 49 x_44_ ^ 2 ] = 5209
c2: [ -26 x_4_ * x_3_ + 62 x_50_ * x_3_ - 3 x_4_ ^ 2 + 62 x_44_ * x_4_ + 16 x_49_ * x_4_ - 4 x_50_ * x_4_ - 70 x_25_ * x_12_ + 38 x_25_ * x_23_ - 17 x_25_ ^ 2 + 80 x_27_ * x_25_ + 36 x_50_ * x_25_ + 28 x_49_ * x_44_ - 94 x_49_ * x_48_ + 78 x_50_ * x_49_ ] = -5827
c3: [ 46 x_11_ * x_2_ - 26 x_12_ * x_2_ - 20 x_21_ * x_2_ + 2 x_10_ ^ 2 + 62 x_12_ * x_10_ - 98 x_15_ * x_10_ - 50 x_21_ * x_10_ + 66 x_32_ * x_10_ + 86 x_43_ * x_10_ + 48 x_12_ * x_11_ + 44 x_36_ * x_11_ + 82 x_21_ * x_13_ - 52 x_36_ * x_13_ + 1 x_17_ ^ 2 + 62 x_20_ * x_17_ + 92 x_36_ * x_17_ + 36 x_46_ * x_20_ - 42 x_32_ * x_21_ + 4 x_36_ * x_32_ ] = -14059
c4: [ 48 x_50_ * x_4_ + 49 x_7_ ^ 2 - 48 x_9_ * x_7_ + 46 x_15_ * x_7_ - 90 x_24_ * x_7_ - 50 x_38_ * x_7_ - 30 x_39_ * x_7_ + 14 x_50_ * x_7_ + 34 x_13_ * x_9_ - 64 x_36_ * x_13_ + 86 x_26_ * x_15_ + 30 x_39_ * x_15_ - 82 x_50_ * x_15_ + 58 x_30_ * x_22_ - 90 x_36_ * x_22_ + 18 x_30_ * x_24_ - 90 x_38_ * x_26_ - 60 x_38_ * x_30_ + 30 x_38_ * x_36_ + 88 x_43_ * x_39_ - 36 x_50_ * x_39_ ] = 8797
c5: [ 70 x_28_ * x_3_ + 72 x_29_ * x_3_ - 14 x_41_ * x_3_ + 72 x_43_ * x_5_ - 1 x_28_ ^ 2 + 30 x_29_ ^ 2 + 32 x_38_ * x_29_ - 36 x_41_ ^ 2 - 17 x_43_ ^ 2 ] = -105
c6: [ -96 x_17_ * x_5_ + 56 x_26_ * x_5_ - 94 x_14_ * x_9_ - 38 x_43_ * x_9_ + 40 x_49_ * x_9_ - 44 x_21_ * x_14_ - 70 x_27_ * x_14_ + 64 x_42_ * x_14_ - 56 x_22_ * x_17_ - 98 x_43_ * x_17_ + 64 x_22_ * x_21_ + 4 x_26_ * x_21_ - 64 x_26_ * x_22_ + 48 x_42_ * x_22_ - 20 x_42_ * x_26_ - 76 x_43_ * x_27_ - 4 x_32_ ^ 2 - 45 x_43_ ^ 2 ] = 9674
c7: [ -36 x_28_ * x_12_ + 38 x_26_ * x_22_ - 20 x_30_ * x_22_ - 44 x_46_ * x_22_ - 2 x_35_ * x_25_ + 54 x_48_ * x_25_ - 2 x_30_ ^ 2 + 16 x_36_ * x_30_ + 35 x_36_ ^ 2 - 42 x_48_ * x_36_ ] = 7210
c8: [ 62 x_7_ * x_2_ - 28 x_11_ * x_2_ + 50 x_43_ * x_2_ + 41 x_7_ ^ 2 + 14 x_11_ * x_7_ - 70 x_26_ * x_7_ + 98 x_42_ * x_7_ + 72 x_40_ * x_8_ + 11 x_11_ ^ 2 - 66 x_32_ * x_11_ - 66 x_40_ * x_11_ - 40 x_42_ * x_11_ + 4 x_40_ * x_19_ - 34 x_42_ * x_26_ - 8 x_43_ * x_26_ + 28 x_32_ ^ 2 - 24 x_40_ * x_32_ + 13 x_40_ ^ 2 ] = 4952
c9: [ 68 x_8_ * x_42_ + 12 x_43_ * x_8_ - 94 x_21_ * x_15_ + 54 x_27_ * x_15_ + 70 x_40_ * x_15_ - 28 x_21_ * x_16_ - 100 x_22_ * x_16_ - 40 x_27_ * x_20_ - 88 x_42_ * x_20_ - 54 x_43_ * x_20_ - 20 x_22_ * x_21_ - 54 x_27_ * x_21_ + 94 x_43_ * x_21_ + 88 x_44_ * x_21_ - 44 x_43_ * x_40_ ] = 920
c10: [ -62 x_19_ * x_8_ + 42 x_33_ * x_15_ - 44 x_19_ ^ 2 - 56 x_40_ * x_19_ + 26 x_28_ * x_22_ + 60 x_42_ * x_22_ - 86 x_33_ * x_24_ + 12 x_40_ * x_24_ + 49 x_28_ ^ 2 - 58 x_40_ * x_33_ - 90 x_42_ * x_33_ + 68 x_42_ * x_35_ + 6 x_46_ * x_35_ + 92 x_42_ * x_40_ ] = -10577
c11: [ -18 x_13_ * x_7_ - 26 x_43_ * x_7_ + 38 x_39_ * x_13_ - 38 x_43_ * x_13_ - 7 x_36_ ^ 2 - 58 x_48_ * x_36_ - 11 x_39_ ^ 2 + 26 x_48_ ^ 2 ] = -654
c12: [ 72 x_22_ * x_7_ + 92 x_31_ * x_22_ - 2 x_44_ * x_22_ - 6 x_35_ * x_31_ + 64 x_39_ * x_31_ + 94 x_50_ * x_31_ - 94 x_44_ * x_35_ - 25 x_44_ ^ 2 ] = 7301
c13: [ -37 x_4_ ^ 2 + 10 x_11_ * x_7_ - 90 x_47_ * x_7_ - 22 x_12_ * x_11_ - 9 x_28_ ^ 2 ] = -4968
c14: [ 16 x_48_ * x_21_ + 82 x_37_ * x_34_ - 23 x_37_ ^ 2 + 30 x_44_ * x_37_ - 23 x_43_ ^ 2 ] = -6188
c15: [ -29 x_4_ ^ 2 + 98 x_13_ * x_8_ - 66 x_41_ * x_8_ - 62 x_46_ * x_8_ + 60 x_30_ * x_13_ - 2 x_47_ * x_13_ - 46 x_21_ * x_15_ + 16 x_22_ * x_15_ + 34 x_29_ * x_15_ - 20 x_46_ * x_15_ - 40 x_47_ * x_15_ + 39 x_19_ ^ 2 - 38 x_30_ * x_19_ - 26 x_41_ * x_19_ + 90 x_38_ * x_21_ - 90 x_30_ * x_22_ + 35 x_30_ ^ 2 - 92 x_47_ * x_30_ - 84 x_47_ * x_41_ + 31 x_46_ ^ 2 + 21 x_47_ ^ 2 ] = 6476
c16: [ -74 x_4_ * x_3_ - 14 x_7_ * x_3_ + 100 x_42_ * x_3_ + 10 x_5_ * x_4_ + 2 x_30_ * x_4_ - 70 x_31_ * x_4_ + 40 x_40_ * x_4_ + 72 x_42_ * x_4_ + 62 x_24_ * x_5_ + 52 x_30_ * x_7_ - 68 x_31_ * x_7_ + 12 x_8_ ^ 2 - 36 x_31_ * x_8_ + 9 x_23_ ^ 2 - 4 x_40_ * x_23_ + 80 x_31_ * x_24_ - 25 x_42_ ^ 2 ] = 1082
c17: [ -80 x_1_ * x_14_ - 62 x_16_ * x_4_ + 4 x_14_ * x_7_ - 24 x_33_ * x_7_ - 72 x_19_ * x_14_ + 38 x_33_ * x_14_ + 50 x_37_ * x_16_ ] = 4458
c18: [ -8 x_23_ ^ 2 - 12 x_46_ * x_23_ - 37 x_46_ ^ 2 ] = -3300
c19: [ 64 x_27_ * x_14_ - 34 x_27_ * x_26_ + 8 x_48_ * x_26_ + 40 x_50_ * x_26_ - 10 x_36_ * x_27_ - 86 x_50_ * x_36_ - 46 x_48_ ^ 2 - 46 x_50_ * x_48_ ] = -1206
c20: [ 46 x_5_ ^ 2 - 66 x_41_ * x_5_ + 92 x_20_ * x_8_ + 22 x_20_ ^ 2 + 62 x_27_ * x_20_ - 6 x_40_ ^ 2 ] = -494
c21: [ 72 x_10_ * x_12_ + 52 x_27_ * x_10_ - 34 x_27_ * x_11_ + 48 x_27_ * x_12_ - 36 x_44_ * x_29_ - 64 x_47_ * x_29_ - 6 x_38_ * x_34_ + 22 x_44_ * x_34_ + 82 x_47_ * x_34_ - 14 x_43_ * x_41_ ] = -3336
c22: [ -36 x_22_ * x_2_ - 52 x_19_ * x_10_ - 46 x_38_ * x_10_ - 50 x_39_ * x_19_ - 4 x_22_ ^ 2 - 30 x_25_ * x_22_ + 80 x_38_ * x_31_ - 100 x_43_ * x_39_ + 14 x_43_ ^ 2 + 36 x_45_ * x_43_ ] = -6698
c23: [ -10 x_23_ * x_1_ + 88 x_39_ * x_1_ + 94 x_45_ * x_1_ + 54 x_47_ * x_1_ - 33 x_3_ ^ 2 + 18 x_5_ * x_3_ + 62 x_28_ * x_3_ - 24 x_39_ * x_3_ - 68 x_47_ * x_23_ - 68 x_28_ * x_27_ + 100 x_39_ * x_27_ - 70 x_42_ * x_27_ + 12 x_39_ * x_28_ + 14 x_50_ * x_39_ - 78 x_50_ * x_42_ ] = 2267
c24: [ 96 x_16_ * x_6_ - 10 x_16_ * x_7_ - 100 x_34_ * x_7_ - 66 x_44_ * x_16_ - 15 x_34_ ^ 2 + 26 x_50_ * x_34_ - 36 x_44_ * x_41_ - 22 x_50_ * x_44_ ] = 1440
c25: [ 92 x_14_ * x_8_ - 52 x_19_ * x_8_ + 44 x_19_ * x_14_ + 52 x_33_ * x_14_ - 54 x_40_ * x_14_ - 40 x_36_ * x_19_ + 74 x_40_ * x_36_ - 23 x_40_ ^ 2 ] = -9756
c26: [ -28 x_1_ ^ 2 - 44 x_21_ * x_1_ + 10 x_21_ * x_3_ - 34 x_27_ * x_3_ + 90 x_49_ * x_3_ + 26 x_4_ ^ 2 + 52 x_27_ * x_5_ + 47 x_21_ ^ 2 + 68 x_27_ * x_21_ - 46 x_49_ * x_27_ ] = 2610
Bounds
3 <= x_1_ <= 10
-6 <= x_2_ <= 6
-1 <= x_3_ <= 7
9 <= x_4_ <= 10
-5 <= x_5_ <= 2
0 <= x_6_ <= 9
-8 <= x_7_ <= 0
-8 <= x_8_ <= 6
-7 <= x_9_ <= -3
-8 <= x_10_ <= 5
x_11_ = 7
-2 <= x_12_ <= 10
0 <= x_13_ <= 8
-5 <= x_14_ <= 9
0 <= x_15_ <= 10
-10 <= x_16_ <= 1
-8 <= x_17_ <= 4
-8 <= x_18_ <= 1
-10 <= x_19_ <= 6
-1 <= x_20_ <= 1
-10 <= x_21_ <= 2
-3 <= x_22_ <= 7
8 <= x_23_ <= 10
4 <= x_24_ <= 9
-7 <= x_25_ <= 4
-3 <= x_26_ <= 9
-6 <= x_27_ <= 2
-8 <= x_28_ <= 0
2 <= x_29_ <= 10
-9 <= x_30_ <= 10
-8 <= x_31_ <= 9
-10 <= x_32_ <= 3
-1 <= x_33_ <= 5
-3 <= x_34_ <= 8
-3 <= x_35_ <= 10
5 <= x_36_ <= 10
-10 <= x_37_ <= 10
-10 <= x_38_ <= 1
-10 <= x_39_ <= 10
-9 <= x_40_ <= 8
-4 <= x_41_ <= 5
-1 <= x_42_ <= 7
-4 <= x_43_ <= 10
-8 <= x_44_ <= -1
-6 <= x_45_ <= 8
-10 <= x_46_ <= 10
-6 <= x_47_ <= 8
-6 <= x_48_ <= 8
-8 <= x_49_ <= -3
x_50_ = 2
General
x_1_
x_2_
x_3_
x_4_
x_5_
x_6_
x_7_
x_8_
x_9_
x_10_
x_11_
x_12_
x_13_
x_14_
x_15_
x_16_
x_17_
x_18_
x_19_
x_20_
x_21_
x_22_
x_23_
x_24_
x_25_
x_26_
x_27_
x_28_
x_29_
x_30_
x_31_
x_32_
x_33_
x_34_
x_35_
x_36_
x_37_
x_38_
x_39_
x_40_
x_41_
x_42_
x_43_
x_44_
x_45_
x_46_
x_47_
x_48_
x_49_
x_50_
End
