minimize
obj: -41 x_2_ + 27 x_4_ + 20 x_27_ - 31 x_38_ - 16 x_42_ + 39 x_43_ - 3 x_44_
subject to
quadratic_ranged_1_ub: 5 x_7_ - 46 x_42_ + [ -4 x_17_ * x_2_ + 88 x_20_ * x_2_ + 62 x_38_ * x_2_ + 56 x_44_ * x_2_ - 74 x_7_ * x_6_ + 58 x_17_ * x_6_ - 14 x_20_ * x_6_ - 32 x_17_ * x_7_ + 38 x_38_ * x_7_ + 24 x_50_ * x_13_ + 4 x_36_ * x_17_ + 39 x_19_ ^ 2 - 26 x_20_ * x_19_ - 84 x_27_ * x_19_ + 72 x_38_ * x_19_ + 80 x_44_ * x_19_ - 6 x_27_ * x_20_ - 68 x_38_ * x_36_ + 28 x_38_ ^ 2 - 48 x_42_ * x_40_ + 46 x_44_ * x_40_ + 33 x_44_ ^ 2 ] <= -11413
quadratic_ranged_2_ub: -25 x_5_ - 9 x_39_ + [ 58 x_20_ * x_1_ + 20 x_26_ * x_1_ + 70 x_39_ * x_1_ - 64 x_18_ * x_5_ - 2 x_39_ * x_5_ + 48 x_20_ ^ 2 + 80 x_39_ * x_20_ + 50 x_39_ * x_22_ + 22 x_47_ * x_22_ - 44 x_26_ ^ 2 - 72 x_40_ * x_39_ + 94 x_45_ * x_40_ + 32 x_47_ ^ 2 ] <= -2326
quadratic_ranged_3_ub: 28 x_7_ - 13 x_39_ + 27 x_46_ + [ -23 x_7_ ^ 2 + 2 x_12_ * x_7_ + 56 x_22_ * x_7_ + 96 x_39_ * x_7_ + 54 x_39_ * x_18_ - 38 x_39_ * x_22_ + 68 x_46_ * x_22_ + 52 x_36_ * x_23_ - 4 x_46_ * x_23_ + 6 x_46_ ^ 2 ] <= -189
quadratic_ranged_4_ub: 26 x_16_ - 10 x_36_ + [ 8 x_7_ ^ 2 + 86 x_16_ * x_7_ + 30 x_20_ * x_7_ + 94 x_21_ * x_7_ + 48 x_20_ * x_16_ - 74 x_41_ * x_21_ - 30 x_42_ * x_21_ + 26 x_29_ ^ 2 - 66 x_42_ * x_29_ ] <= -10451
quadratic_ranged_5_ub: -16 x_18_ - 12 x_35_ - 26 x_37_ + [ 78 x_37_ * x_17_ + 90 x_37_ * x_18_ - 86 x_45_ * x_18_ - 64 x_37_ * x_30_ + 26 x_45_ * x_30_ - 10 x_45_ * x_35_ + 32 x_47_ * x_35_ + 14 x_40_ * x_37_ - 11 x_42_ ^ 2 - 78 x_45_ * x_42_ - 3 x_45_ ^ 2 - 49 x_47_ ^ 2 ] <= 5638
quadratic_ranged_6_ub: 41 x_27_ + 18 x_42_ + [ -1 x_1_ ^ 2 - 50 x_30_ * x_1_ + 40 x_40_ * x_8_ - 64 x_43_ * x_8_ + 82 x_30_ * x_11_ - 24 x_30_ * x_12_ + 44 x_40_ * x_12_ - 56 x_42_ * x_29_ - 94 x_42_ * x_40_ ] <= -190
quadratic_ranged_7_ub: -39 x_8_ + 50 x_20_ + [ 96 x_11_ * x_8_ - 72 x_34_ * x_20_ - 40 x_46_ * x_20_ + 16 x_46_ * x_34_ - 26 x_37_ ^ 2 ] <= 151
quadratic_ranged_8_ub: [ -88 x_44_ * x_20_ - 48 x_44_ * x_23_ - 25 x_44_ ^ 2 + 14 x_47_ ^ 2 ] <= -7501
quadratic_ranged_9_ub: 33 x_5_ + [ 6 x_5_ * x_18_ + 20 x_21_ * x_5_ + 68 x_19_ * x_12_ + 54 x_21_ * x_12_ - 18 x_38_ * x_12_ - 48 x_18_ * x_17_ + 96 x_19_ * x_17_ + 82 x_19_ * x_18_ - 70 x_38_ * x_18_ + 100 x_38_ * x_21_ ] <= -28041
quadratic_ranged_10_ub: -1 x_13_ + [ -90 x_44_ * x_2_ + 76 x_15_ * x_13_ + 24 x_15_ ^ 2 + 4 x_25_ * x_15_ - 78 x_26_ * x_15_ - 30 x_19_ ^ 2 + 38 x_27_ * x_19_ + 92 x_28_ * x_25_ - 32 x_27_ * x_26_ - 12 x_27_ ^ 2 ] <= 5495
quadratic_ranged_11_ub: -21 x_16_ + 26 x_29_ - 4 x_37_ - 23 x_46_ + [ -92 x_17_ * x_11_ - 32 x_44_ * x_11_ + 24 x_49_ * x_11_ - 60 x_16_ * x_15_ + 72 x_29_ * x_15_ + 44 x_30_ * x_15_ + 76 x_44_ * x_15_ - 52 x_37_ * x_16_ + 35 x_17_ ^ 2 + 56 x_44_ * x_17_ + 90 x_48_ * x_17_ - 100 x_46_ * x_21_ + 18 x_49_ * x_21_ - 76 x_46_ * x_29_ - 86 x_49_ * x_29_ + 8 x_46_ ^ 2 ] <= -1551
quadratic_ranged_12_ub: 14 x_3_ + 34 x_24_ - 38 x_29_ + [ -96 x_10_ * x_2_ + 22 x_24_ * x_3_ + 32 x_29_ * x_19_ + 32 x_29_ * x_24_ + 1 x_29_ ^ 2 + 34 x_41_ * x_29_ ] <= -230
quadratic_ranged_13_ub: -35 x_1_ + [ 28 x_1_ ^ 2 + 36 x_4_ * x_1_ ] <= -494
quadratic_ranged_14_ub: -13 x_22_ + 20 x_29_ + 39 x_37_ + [ 94 x_8_ * x_24_ + 26 x_29_ * x_24_ + 60 x_29_ * x_25_ + 16 x_35_ * x_29_ ] <= -73
quadratic_ranged_15_ub: -26 x_33_ + [ -20 x_2_ ^ 2 - 10 x_4_ * x_2_ + 58 x_24_ * x_2_ + 22 x_13_ * x_9_ - 24 x_34_ * x_9_ - 30 x_20_ * x_13_ + 6 x_28_ * x_13_ - 50 x_24_ * x_20_ + 10 x_28_ * x_20_ - 12 x_28_ ^ 2 - 30 x_33_ * x_28_ ] <= -70
quadratic_ranged_16_ub: 6 x_24_ - 18 x_36_ + [ -74 x_25_ * x_3_ + 6 x_24_ * x_17_ + 94 x_48_ * x_21_ - 33 x_24_ ^ 2 + 18 x_36_ * x_24_ - 37 x_33_ ^ 2 + 50 x_37_ * x_33_ - 30 x_36_ ^ 2 + 2 x_37_ ^ 2 ] <= 6781
quadratic_ranged_17_ub: -37 x_16_ + 1 x_43_ + [ 30 x_4_ * x_1_ - 32 x_25_ * x_1_ - 52 x_27_ * x_1_ + 76 x_48_ * x_1_ - 78 x_25_ * x_4_ + 86 x_38_ * x_13_ - 36 x_43_ * x_13_ + 37 x_16_ ^ 2 + 82 x_43_ * x_16_ + 78 x_31_ * x_19_ - 52 x_33_ * x_19_ + 94 x_39_ * x_19_ - 38 x_45_ * x_19_ + 12 x_21_ ^ 2 - 56 x_38_ * x_21_ + 72 x_43_ * x_21_ - 34 x_47_ * x_21_ + 18 x_38_ * x_25_ - 4 x_31_ ^ 2 - 66 x_45_ * x_38_ + 34 x_48_ * x_39_ ] <= 3597
quadratic_ranged_18_ub: -48 x_5_ - 20 x_11_ - 37 x_22_ + 29 x_50_ + [ 94 x_30_ * x_5_ + 19 x_11_ ^ 2 - 40 x_30_ * x_11_ - 58 x_31_ * x_11_ + 2 x_31_ * x_17_ - 70 x_40_ * x_17_ + 26 x_22_ * x_21_ + 38 x_39_ * x_22_ + 40 x_50_ * x_39_ - 88 x_42_ * x_40_ - 30 x_46_ * x_40_ ] <= 13559
quadratic_ranged_19_ub: -39 x_9_ + 15 x_18_ - 27 x_23_ + [ -98 x_43_ * x_2_ - 34 x_9_ ^ 2 - 12 x_44_ * x_9_ - 96 x_44_ * x_18_ - 36 x_48_ * x_18_ + 2 x_48_ * x_23_ - 98 x_49_ * x_23_ + 50 x_49_ * x_29_ + 68 x_44_ * x_40_ + 88 x_44_ * x_43_ + 40 x_48_ * x_44_ + 44 x_49_ * x_48_ ] <= -3661
quadratic_ranged_20_ub: 31 x_12_ - 36 x_19_ - 39 x_36_ - 16 x_41_ + [ -54 x_30_ * x_2_ - 4 x_41_ * x_2_ + 46 x_33_ * x_7_ - 44 x_36_ * x_7_ + 84 x_36_ * x_19_ - 38 x_41_ * x_19_ - 26 x_30_ ^ 2 + 60 x_32_ * x_30_ - 76 x_33_ * x_32_ ] <= -2664
quadratic_ranged_21_ub: [ 32 x_11_ * x_10_ - 100 x_46_ * x_10_ - 36 x_11_ ^ 2 + 22 x_37_ * x_25_ + 50 x_48_ * x_46_ ] <= -350
quadratic_ranged_1_lb: 5 x_7_ - 46 x_42_ + [ -4 x_17_ * x_2_ + 88 x_20_ * x_2_ + 62 x_38_ * x_2_ + 56 x_44_ * x_2_ - 74 x_7_ * x_6_ + 58 x_17_ * x_6_ - 14 x_20_ * x_6_ - 32 x_17_ * x_7_ + 38 x_38_ * x_7_ + 24 x_50_ * x_13_ + 4 x_36_ * x_17_ + 39 x_19_ ^ 2 - 26 x_20_ * x_19_ - 84 x_27_ * x_19_ + 72 x_38_ * x_19_ + 80 x_44_ * x_19_ - 6 x_27_ * x_20_ - 68 x_38_ * x_36_ + 28 x_38_ ^ 2 - 48 x_42_ * x_40_ + 46 x_44_ * x_40_ + 33 x_44_ ^ 2 ] >= -11419
quadratic_ranged_2_lb: -25 x_5_ - 9 x_39_ + [ 58 x_20_ * x_1_ + 20 x_26_ * x_1_ + 70 x_39_ * x_1_ - 64 x_18_ * x_5_ - 2 x_39_ * x_5_ + 48 x_20_ ^ 2 + 80 x_39_ * x_20_ + 50 x_39_ * x_22_ + 22 x_47_ * x_22_ - 44 x_26_ ^ 2 - 72 x_40_ * x_39_ + 94 x_45_ * x_40_ + 32 x_47_ ^ 2 ] >= -2329
quadratic_ranged_3_lb: 28 x_7_ - 13 x_39_ + 27 x_46_ + [ -23 x_7_ ^ 2 + 2 x_12_ * x_7_ + 56 x_22_ * x_7_ + 96 x_39_ * x_7_ + 54 x_39_ * x_18_ - 38 x_39_ * x_22_ + 68 x_46_ * x_22_ + 52 x_36_ * x_23_ - 4 x_46_ * x_23_ + 6 x_46_ ^ 2 ] >= -194
quadratic_ranged_4_lb: 26 x_16_ - 10 x_36_ + [ 8 x_7_ ^ 2 + 86 x_16_ * x_7_ + 30 x_20_ * x_7_ + 94 x_21_ * x_7_ + 48 x_20_ * x_16_ - 74 x_41_ * x_21_ - 30 x_42_ * x_21_ + 26 x_29_ ^ 2 - 66 x_42_ * x_29_ ] >= -10460
quadratic_ranged_5_lb: -16 x_18_ - 12 x_35_ - 26 x_37_ + [ 78 x_37_ * x_17_ + 90 x_37_ * x_18_ - 86 x_45_ * x_18_ - 64 x_37_ * x_30_ + 26 x_45_ * x_30_ - 10 x_45_ * x_35_ + 32 x_47_ * x_35_ + 14 x_40_ * x_37_ - 11 x_42_ ^ 2 - 78 x_45_ * x_42_ - 3 x_45_ ^ 2 - 49 x_47_ ^ 2 ] >= 5630
quadratic_ranged_6_lb: 41 x_27_ + 18 x_42_ + [ -1 x_1_ ^ 2 - 50 x_30_ * x_1_ + 40 x_40_ * x_8_ - 64 x_43_ * x_8_ + 82 x_30_ * x_11_ - 24 x_30_ * x_12_ + 44 x_40_ * x_12_ - 56 x_42_ * x_29_ - 94 x_42_ * x_40_ ] >= -198
quadratic_ranged_7_lb: -39 x_8_ + 50 x_20_ + [ 96 x_11_ * x_8_ - 72 x_34_ * x_20_ - 40 x_46_ * x_20_ + 16 x_46_ * x_34_ - 26 x_37_ ^ 2 ] >= 147
quadratic_ranged_8_lb: [ -88 x_44_ * x_20_ - 48 x_44_ * x_23_ - 25 x_44_ ^ 2 + 14 x_47_ ^ 2 ] >= -7508
quadratic_ranged_9_lb: 33 x_5_ + [ 6 x_5_ * x_18_ + 20 x_21_ * x_5_ + 68 x_19_ * x_12_ + 54 x_21_ * x_12_ - 18 x_38_ * x_12_ - 48 x_18_ * x_17_ + 96 x_19_ * x_17_ + 82 x_19_ * x_18_ - 70 x_38_ * x_18_ + 100 x_38_ * x_21_ ] >= -28048
quadratic_ranged_10_lb: -1 x_13_ + [ -90 x_44_ * x_2_ + 76 x_15_ * x_13_ + 24 x_15_ ^ 2 + 4 x_25_ * x_15_ - 78 x_26_ * x_15_ - 30 x_19_ ^ 2 + 38 x_27_ * x_19_ + 92 x_28_ * x_25_ - 32 x_27_ * x_26_ - 12 x_27_ ^ 2 ] >= 5490
quadratic_ranged_11_lb: -21 x_16_ + 26 x_29_ - 4 x_37_ - 23 x_46_ + [ -92 x_17_ * x_11_ - 32 x_44_ * x_11_ + 24 x_49_ * x_11_ - 60 x_16_ * x_15_ + 72 x_29_ * x_15_ + 44 x_30_ * x_15_ + 76 x_44_ * x_15_ - 52 x_37_ * x_16_ + 35 x_17_ ^ 2 + 56 x_44_ * x_17_ + 90 x_48_ * x_17_ - 100 x_46_ * x_21_ + 18 x_49_ * x_21_ - 76 x_46_ * x_29_ - 86 x_49_ * x_29_ + 8 x_46_ ^ 2 ] >= -1559
quadratic_ranged_12_lb: 14 x_3_ + 34 x_24_ - 38 x_29_ + [ -96 x_10_ * x_2_ + 22 x_24_ * x_3_ + 32 x_29_ * x_19_ + 32 x_29_ * x_24_ + 1 x_29_ ^ 2 + 34 x_41_ * x_29_ ] >= -237
quadratic_ranged_13_lb: -35 x_1_ + [ 28 x_1_ ^ 2 + 36 x_4_ * x_1_ ] >= -503
quadratic_ranged_14_lb: -13 x_22_ + 20 x_29_ + 39 x_37_ + [ 94 x_8_ * x_24_ + 26 x_29_ * x_24_ + 60 x_29_ * x_25_ + 16 x_35_ * x_29_ ] >= -77
quadratic_ranged_15_lb: -26 x_33_ + [ -20 x_2_ ^ 2 - 10 x_4_ * x_2_ + 58 x_24_ * x_2_ + 22 x_13_ * x_9_ - 24 x_34_ * x_9_ - 30 x_20_ * x_13_ + 6 x_28_ * x_13_ - 50 x_24_ * x_20_ + 10 x_28_ * x_20_ - 12 x_28_ ^ 2 - 30 x_33_ * x_28_ ] >= -79
quadratic_ranged_16_lb: 6 x_24_ - 18 x_36_ + [ -74 x_25_ * x_3_ + 6 x_24_ * x_17_ + 94 x_48_ * x_21_ - 33 x_24_ ^ 2 + 18 x_36_ * x_24_ - 37 x_33_ ^ 2 + 50 x_37_ * x_33_ - 30 x_36_ ^ 2 + 2 x_37_ ^ 2 ] >= 6771
quadratic_ranged_17_lb: -37 x_16_ + 1 x_43_ + [ 30 x_4_ * x_1_ - 32 x_25_ * x_1_ - 52 x_27_ * x_1_ + 76 x_48_ * x_1_ - 78 x_25_ * x_4_ + 86 x_38_ * x_13_ - 36 x_43_ * x_13_ + 37 x_16_ ^ 2 + 82 x_43_ * x_16_ + 78 x_31_ * x_19_ - 52 x_33_ * x_19_ + 94 x_39_ * x_19_ - 38 x_45_ * x_19_ + 12 x_21_ ^ 2 - 56 x_38_ * x_21_ + 72 x_43_ * x_21_ - 34 x_47_ * x_21_ + 18 x_38_ * x_25_ - 4 x_31_ ^ 2 - 66 x_45_ * x_38_ + 34 x_48_ * x_39_ ] >= 3595
quadratic_ranged_18_lb: -48 x_5_ - 20 x_11_ - 37 x_22_ + 29 x_50_ + [ 94 x_30_ * x_5_ + 19 x_11_ ^ 2 - 40 x_30_ * x_11_ - 58 x_31_ * x_11_ + 2 x_31_ * x_17_ - 70 x_40_ * x_17_ + 26 x_22_ * x_21_ + 38 x_39_ * x_22_ + 40 x_50_ * x_39_ - 88 x_42_ * x_40_ - 30 x_46_ * x_40_ ] >= 13554
quadratic_ranged_19_lb: -39 x_9_ + 15 x_18_ - 27 x_23_ + [ -98 x_43_ * x_2_ - 34 x_9_ ^ 2 - 12 x_44_ * x_9_ - 96 x_44_ * x_18_ - 36 x_48_ * x_18_ + 2 x_48_ * x_23_ - 98 x_49_ * x_23_ + 50 x_49_ * x_29_ + 68 x_44_ * x_40_ + 88 x_44_ * x_43_ + 40 x_48_ * x_44_ + 44 x_49_ * x_48_ ] >= -3664
quadratic_ranged_20_lb: 31 x_12_ - 36 x_19_ - 39 x_36_ - 16 x_41_ + [ -54 x_30_ * x_2_ - 4 x_41_ * x_2_ + 46 x_33_ * x_7_ - 44 x_36_ * x_7_ + 84 x_36_ * x_19_ - 38 x_41_ * x_19_ - 26 x_30_ ^ 2 + 60 x_32_ * x_30_ - 76 x_33_ * x_32_ ] >= -2669
quadratic_ranged_21_lb: [ 32 x_11_ * x_10_ - 100 x_46_ * x_10_ - 36 x_11_ ^ 2 + 22 x_37_ * x_25_ + 50 x_48_ * x_46_ ] >= -355
c1: -25 x_22_ - 49 x_49_ + [ 80 x_48_ * x_1_ - 66 x_49_ * x_13_ + 58 x_21_ * x_19_ - 70 x_22_ * x_19_ - 36 x_35_ * x_19_ - 6 x_37_ * x_19_ + 98 x_48_ * x_21_ - 50 x_22_ ^ 2 - 30 x_35_ * x_22_ - 2 x_35_ ^ 2 - 76 x_39_ * x_35_ + 34 x_49_ * x_39_ ] = 7659
c2: -41 x_13_ + 45 x_37_ + [ -4 x_21_ * x_4_ + 80 x_27_ * x_4_ + 54 x_33_ * x_7_ - 12 x_27_ * x_13_ + 66 x_44_ * x_13_ + 38 x_37_ * x_18_ + 46 x_49_ * x_18_ + 36 x_49_ * x_33_ - 16 x_37_ ^ 2 - 12 x_49_ ^ 2 ] = 4934
c3: 16 x_19_ + [ 12 x_19_ * x_14_ + 86 x_39_ * x_14_ + 50 x_43_ * x_14_ + 90 x_39_ * x_31_ - 31 x_39_ ^ 2 ] = -8621
c4: -32 x_20_ + 48 x_29_ - 9 x_48_ + [ -32 x_30_ * x_7_ + 90 x_47_ * x_7_ - 48 x_20_ * x_8_ - 28 x_30_ * x_8_ + 18 x_29_ * x_22_ + 38 x_37_ * x_22_ + 88 x_47_ * x_22_ + 50 x_47_ * x_29_ + 38 x_48_ * x_37_ - 43 x_47_ ^ 2 ] = -7917
c5: 17 x_31_ + [ 28 x_17_ * x_2_ + 16 x_17_ * x_3_ - 18 x_18_ * x_3_ - 52 x_18_ * x_6_ + 2 x_27_ * x_6_ + 64 x_31_ * x_6_ + 84 x_41_ * x_6_ - 36 x_37_ * x_17_ + 8 x_41_ * x_17_ + 2 x_33_ * x_31_ + 20 x_33_ ^ 2 - 78 x_41_ * x_37_ ] = 1391
c6: -7 x_10_ - 34 x_12_ + [ 12 x_12_ * x_40_ - 92 x_47_ * x_15_ - 46 x_22_ * x_19_ + 74 x_40_ * x_19_ + 28 x_47_ * x_19_ + 26 x_32_ * x_22_ + 86 x_47_ * x_22_ - 24 x_47_ * x_32_ ] = -1564
c7: -31 x_3_ + 36 x_49_ + [ 64 x_30_ * x_3_ - 6 x_49_ * x_8_ + 72 x_30_ * x_9_ + 92 x_49_ * x_9_ + 41 x_19_ ^ 2 + 20 x_38_ * x_19_ - 14 x_30_ * x_28_ + 98 x_49_ * x_30_ + 16 x_42_ * x_38_ - 11 x_49_ ^ 2 ] = -234
c8: 9 x_37_ + [ -40 x_24_ * x_5_ - 11 x_21_ ^ 2 - 60 x_32_ * x_21_ - 62 x_33_ * x_21_ - 76 x_35_ * x_21_ + 17 x_24_ ^ 2 - 14 x_28_ * x_24_ + 96 x_36_ * x_24_ - 30 x_33_ * x_28_ - 92 x_35_ * x_28_ - 10 x_36_ * x_32_ - 34 x_35_ * x_33_ + 46 x_45_ * x_35_ ] = -798
c9: 49 x_35_ + [ -58 x_16_ * x_6_ - 8 x_35_ * x_6_ + 18 x_25_ * x_16_ + 68 x_48_ * x_16_ - 86 x_42_ * x_29_ + 34 x_36_ * x_35_ - 84 x_48_ * x_35_ - 30 x_36_ ^ 2 - 30 x_40_ * x_36_ + 24 x_37_ ^ 2 - 96 x_40_ * x_37_ - 50 x_48_ ^ 2 ] = -11053
c10: 19 x_16_ - 8 x_29_ - 7 x_40_ - 48 x_41_ + [ -16 x_11_ * x_5_ + 60 x_11_ * x_8_ + 76 x_29_ * x_8_ + 18 x_40_ * x_8_ - 70 x_41_ * x_8_ + 76 x_49_ * x_8_ - 28 x_11_ ^ 2 + 22 x_15_ * x_12_ - 6 x_16_ * x_12_ + 18 x_29_ * x_12_ - 24 x_40_ * x_12_ - 32 x_41_ * x_12_ + 16 x_44_ * x_15_ + 76 x_49_ * x_15_ - 44 x_29_ * x_16_ + 78 x_40_ * x_16_ - 28 x_18_ ^ 2 + 38 x_29_ * x_18_ - 16 x_44_ * x_18_ - 64 x_42_ * x_29_ - 52 x_44_ * x_41_ - 44 x_42_ ^ 2 ] = -4785
c11: 24 x_12_ - 33 x_29_ + [ 94 x_16_ * x_12_ - 88 x_21_ * x_12_ + 20 x_37_ * x_12_ - 22 x_15_ ^ 2 + 8 x_17_ * x_15_ + 32 x_17_ * x_16_ + 74 x_43_ * x_16_ - 36 x_35_ * x_17_ + 29 x_20_ ^ 2 + 42 x_29_ * x_20_ + 40 x_47_ * x_20_ + 14 x_35_ * x_21_ + 42 x_37_ * x_21_ + 34 x_29_ ^ 2 + 36 x_40_ * x_29_ - 68 x_37_ * x_35_ + 72 x_40_ * x_37_ + 48 x_43_ * x_37_ ] = 6679
c12: -50 x_17_ - 8 x_39_ + 20 x_49_ + [ 10 x_31_ * x_2_ + 10 x_49_ * x_2_ - 4 x_50_ * x_8_ + 84 x_50_ * x_10_ - 86 x_18_ * x_15_ - 12 x_18_ ^ 2 - 22 x_49_ * x_18_ - 82 x_31_ * x_21_ + 32 x_31_ * x_27_ + 38 x_31_ ^ 2 - 82 x_49_ * x_31_ - 23 x_39_ ^ 2 - 88 x_50_ * x_39_ ] = -4081
c13: -22 x_33_ + [ 58 x_7_ * x_37_ - 94 x_31_ * x_11_ - 8 x_37_ * x_12_ ] = 3610
c14: -37 x_26_ + [ 76 x_23_ * x_2_ + 72 x_39_ * x_18_ - 54 x_26_ * x_20_ + 30 x_23_ ^ 2 - 72 x_41_ * x_23_ - 100 x_41_ * x_26_ + 52 x_45_ * x_26_ - 32 x_39_ * x_30_ - 32 x_40_ * x_30_ - 36 x_45_ * x_30_ - 22 x_31_ ^ 2 - 78 x_41_ * x_31_ - 4 x_45_ * x_31_ - 33 x_39_ ^ 2 - 94 x_40_ * x_39_ - 52 x_41_ * x_39_ + 58 x_45_ * x_41_ ] = 2252
c15: [ 36 x_12_ * x_3_ - 62 x_13_ * x_3_ + 78 x_9_ * x_7_ - 6 x_50_ * x_7_ - 68 x_28_ * x_9_ + 34 x_15_ * x_12_ + 74 x_28_ * x_12_ - 30 x_41_ * x_12_ - 82 x_40_ * x_13_ - 80 x_41_ * x_13_ - 40 x_43_ * x_13_ - 16 x_50_ * x_13_ - 80 x_43_ * x_15_ + 80 x_45_ * x_15_ - 68 x_50_ * x_26_ + 80 x_45_ * x_27_ + 33 x_41_ ^ 2 + 8 x_43_ ^ 2 - 12 x_50_ * x_43_ ] = 9344
c16: 3 x_1_ + 4 x_10_ - 49 x_27_ - 23 x_40_ + [ -28 x_28_ * x_10_ - 72 x_27_ * x_18_ - 94 x_37_ * x_18_ - 92 x_40_ * x_27_ - 9 x_28_ ^ 2 + 38 x_44_ * x_37_ ] = -1960
c17: -33 x_19_ + 27 x_34_ - 46 x_41_ + [ 78 x_11_ * x_4_ + 80 x_16_ * x_4_ + 21 x_11_ ^ 2 + 78 x_28_ * x_11_ - 32 x_34_ * x_11_ + 14 x_46_ * x_11_ + 35 x_12_ ^ 2 - 8 x_16_ * x_12_ - 16 x_28_ * x_12_ - 66 x_34_ * x_12_ - 86 x_23_ * x_16_ - 2 x_46_ * x_16_ - 84 x_34_ * x_17_ - 22 x_34_ * x_19_ + 50 x_28_ * x_23_ + 28 x_49_ * x_28_ - 42 x_29_ ^ 2 + 88 x_49_ * x_29_ - 78 x_49_ * x_46_ ] = 9684
c18: 17 x_41_ - 18 x_44_ + [ -28 x_1_ ^ 2 + 30 x_39_ * x_4_ + 43 x_5_ ^ 2 + 26 x_40_ * x_5_ + 48 x_47_ * x_5_ + 78 x_35_ * x_7_ + 92 x_40_ * x_7_ + 94 x_34_ * x_16_ - 6 x_40_ * x_16_ + 8 x_35_ * x_18_ + 44 x_40_ * x_27_ - 70 x_44_ * x_27_ - 26 x_39_ * x_34_ - 16 x_40_ * x_34_ + 12 x_41_ * x_34_ - 30 x_35_ ^ 2 + 48 x_40_ * x_39_ + 20 x_44_ * x_40_ + 38 x_47_ * x_44_ ] = 7052
c19: 21 x_25_ + [ 22 x_3_ ^ 2 + 86 x_8_ * x_3_ + 18 x_20_ * x_4_ + 92 x_44_ * x_4_ - 86 x_15_ * x_8_ - 48 x_20_ * x_8_ - 40 x_25_ * x_8_ - 100 x_50_ * x_8_ + 26 x_22_ * x_15_ + 100 x_25_ * x_22_ + 52 x_50_ * x_22_ + 4 x_44_ * x_25_ ] = -3749
c20: 6 x_2_ - 48 x_25_ - 19 x_33_ + [ 6 x_5_ * x_1_ - 22 x_25_ * x_1_ - 74 x_26_ * x_1_ - 48 x_4_ * x_2_ - 24 x_15_ * x_2_ - 92 x_33_ * x_2_ - 74 x_37_ * x_2_ - 16 x_3_ ^ 2 - 62 x_11_ * x_3_ - 70 x_26_ * x_3_ - 88 x_11_ * x_4_ + 42 x_37_ * x_4_ + 98 x_50_ * x_4_ - 10 x_11_ * x_5_ - 64 x_33_ * x_11_ - 80 x_33_ * x_28_ + 10 x_37_ * x_28_ ] = 5234
c21: 5 x_7_ - 14 x_15_ + [ -13 x_1_ ^ 2 - 74 x_23_ * x_1_ + 41 x_7_ ^ 2 + 66 x_15_ * x_7_ - 62 x_38_ * x_7_ + 88 x_31_ * x_15_ + 92 x_33_ * x_23_ + 96 x_48_ * x_23_ + 22 x_38_ * x_31_ + 50 x_33_ ^ 2 - 16 x_49_ * x_33_ ] = -6850
c22: -4 x_17_ + [ 10 x_10_ * x_2_ - 18 x_21_ * x_2_ + 64 x_24_ * x_2_ - 6 x_9_ * x_7_ - 84 x_11_ * x_7_ - 80 x_17_ * x_9_ + 11 x_10_ ^ 2 + 88 x_11_ * x_10_ + 96 x_21_ * x_10_ + 10 x_16_ * x_11_ - 100 x_17_ * x_11_ + 30 x_21_ * x_16_ + 4 x_25_ * x_16_ + 52 x_24_ * x_17_ - 12 x_46_ * x_17_ + 12 x_25_ * x_21_ - 94 x_31_ * x_24_ + 18 x_25_ ^ 2 + 22 x_46_ * x_25_ ] = 14354
c23: -14 x_21_ + [ -68 x_21_ * x_1_ + 32 x_4_ ^ 2 - 26 x_23_ * x_4_ + 4 x_19_ * x_14_ - 40 x_23_ * x_14_ - 94 x_32_ * x_14_ - 28 x_49_ * x_14_ + 15 x_17_ ^ 2 + 56 x_25_ * x_19_ - 28 x_34_ * x_19_ - 4 x_23_ * x_21_ - 62 x_28_ * x_21_ - 62 x_23_ * x_22_ + 20 x_25_ * x_22_ - 84 x_34_ * x_22_ - 8 x_49_ * x_22_ - 28 x_34_ ^ 2 ] = 6849
c24: 10 x_1_ - 34 x_41_ + [ 6 x_30_ * x_2_ + 24 x_49_ * x_2_ + 66 x_31_ * x_3_ + 58 x_36_ * x_3_ + 88 x_31_ * x_23_ - 4 x_38_ * x_30_ + 28 x_31_ ^ 2 - 44 x_41_ * x_31_ + 58 x_47_ * x_38_ - 88 x_49_ * x_38_ ] = 11178
c25: 23 x_16_ + [ -42 x_11_ * x_1_ - 20 x_16_ * x_1_ + 92 x_28_ * x_1_ - 42 x_44_ * x_1_ - 88 x_17_ * x_16_ - 24 x_21_ * x_16_ + 56 x_44_ * x_16_ + 26 x_43_ * x_21_ + 80 x_29_ * x_28_ - 62 x_33_ * x_28_ + 34 x_42_ * x_28_ + 46 x_44_ * x_28_ + 68 x_43_ * x_29_ - 32 x_33_ * x_30_ - 48 x_43_ ^ 2 - 18 x_44_ ^ 2 + 100 x_50_ * x_44_ ] = -12808
c26: 1 x_38_ - 1 x_39_ + 18 x_45_ - 34 x_47_ + [ -58 x_38_ * x_12_ - 84 x_39_ * x_12_ - 44 x_47_ * x_12_ - 36 x_39_ * x_18_ - 90 x_45_ * x_18_ + 36 x_39_ * x_38_ - 25 x_39_ ^ 2 + 70 x_47_ * x_39_ ] = -8507
c27: [ -48 x_4_ ^ 2 + 26 x_5_ * x_4_ + 80 x_40_ * x_4_ - 1 x_5_ ^ 2 + 52 x_7_ * x_5_ - 9 x_7_ ^ 2 - 72 x_18_ * x_7_ - 6 x_40_ * x_7_ - 82 x_40_ * x_26_ ] = -9270
c28: 25 x_20_ - 13 x_50_ + [ -66 x_8_ * x_10_ - 44 x_19_ * x_8_ - 8 x_32_ * x_8_ - 62 x_35_ * x_8_ - 78 x_39_ * x_8_ - 26 x_35_ * x_10_ - 94 x_19_ * x_11_ - 64 x_32_ * x_11_ + 100 x_35_ * x_11_ + 78 x_39_ * x_11_ + 86 x_35_ * x_20_ - 92 x_39_ * x_20_ - 74 x_50_ * x_20_ - 82 x_32_ * x_22_ - 100 x_50_ * x_32_ - 42 x_39_ * x_35_ ] = 9610
c29: -48 x_13_ + [ -35 x_5_ ^ 2 - 28 x_15_ * x_5_ + 78 x_15_ * x_13_ - 32 x_37_ * x_13_ - 80 x_39_ * x_13_ + 28 x_37_ * x_15_ + 25 x_23_ ^ 2 + 10 x_42_ * x_23_ + 22 x_42_ * x_37_ ] = -1466
Bounds
-9 <= x_1_ <= 7
-9 <= x_2_ <= 1
0 <= x_3_ <= 2
x_4_ = -6
x_5_ = 8
-4 <= x_6_ <= 5
-5 <= x_7_ <= 4
-2 <= x_8_ <= 9
-5 <= x_9_ <= 2
-5 <= x_10_ <= -3
-7 <= x_11_ <= -5
-2 <= x_12_ <= 9
0 <= x_13_ <= 10
-10 <= x_14_ <= -1
-2 <= x_15_ <= 7
-9 <= x_16_ <= 0
-8 <= x_17_ <= 9
5 <= x_18_ <= 7
-7 <= x_19_ <= 5
4 <= x_20_ <= 5
-9 <= x_21_ <= -3
-2 <= x_22_ <= 10
5 <= x_23_ <= 9
-8 <= x_24_ <= 4
-5 <= x_25_ <= 0
-2 <= x_26_ <= 7
-4 <= x_27_ <= 3
-5 <= x_28_ <= 6
-6 <= x_29_ <= 0
2 <= x_30_ <= 8
-7 <= x_31_ <= 10
-9 <= x_32_ <= -1
-8 <= x_33_ <= 8
-9 <= x_34_ <= 0
-1 <= x_35_ <= 6
-6 <= x_36_ <= 10
1 <= x_37_ <= 9
8 <= x_38_ <= 10
-10 <= x_39_ <= -4
4 <= x_40_ <= 9
-9 <= x_41_ <= 5
-9 <= x_42_ <= 0
-2 <= x_43_ <= 10
-9 <= x_44_ <= 8
-8 <= x_45_ <= 1
-8 <= x_46_ <= -4
-9 <= x_47_ <= 10
-10 <= x_48_ <= -7
-7 <= x_49_ <= 9
-10 <= x_50_ <= -3
General
x_1_
x_2_
x_3_
x_4_
x_5_
x_6_
x_7_
x_8_
x_9_
x_10_
x_11_
x_12_
x_13_
x_14_
x_15_
x_16_
x_17_
x_18_
x_19_
x_20_
x_21_
x_22_
x_23_
x_24_
x_25_
x_26_
x_27_
x_28_
x_29_
x_30_
x_31_
x_32_
x_33_
x_34_
x_35_
x_36_
x_37_
x_38_
x_39_
x_40_
x_41_
x_42_
x_43_
x_44_
x_45_
x_46_
x_47_
x_48_
x_49_
x_50_
End
