minimize
obj: 
subject to
quadratic_ranged_1_ub: [ 10 x_37_ * x_7_ + 40 x_18_ * x_9_ - 46 x_41_ * x_9_ - 80 x_18_ * x_11_ + 90 x_22_ * x_11_ - 78 x_26_ * x_12_ - 82 x_37_ * x_12_ + 40 x_41_ * x_12_ + 38 x_39_ * x_18_ + 64 x_26_ * x_22_ - 14 x_36_ * x_22_ - 26 x_26_ ^ 2 + 26 x_39_ * x_26_ + 74 x_37_ * x_36_ + 78 x_41_ * x_39_ ] <= 2191
quadratic_ranged_2_ub: [ -28 x_42_ * x_2_ + 6 x_48_ * x_2_ + 6 x_25_ * x_3_ + 38 x_28_ * x_3_ - 36 x_14_ * x_13_ - 2 x_34_ * x_13_ - 18 x_41_ * x_13_ + 34 x_47_ * x_13_ + 54 x_28_ * x_14_ - 14 x_42_ * x_14_ + 66 x_37_ * x_25_ - 8 x_47_ * x_28_ + 84 x_48_ * x_28_ - 90 x_42_ * x_32_ + 96 x_48_ * x_32_ - 56 x_41_ * x_34_ + 54 x_42_ * x_34_ + 43 x_37_ ^ 2 + 96 x_42_ * x_37_ + 100 x_48_ * x_41_ ] <= -8199
quadratic_ranged_3_ub: [ -48 x_31_ * x_1_ + 44 x_44_ * x_1_ + 66 x_16_ * x_6_ - 76 x_26_ * x_6_ + 46 x_29_ * x_6_ + 100 x_30_ * x_6_ - 96 x_33_ * x_6_ - 58 x_45_ * x_6_ + 49 x_8_ ^ 2 + 28 x_30_ * x_8_ - 18 x_28_ * x_16_ - 6 x_44_ * x_16_ + 88 x_29_ * x_22_ + 56 x_30_ * x_22_ + 4 x_33_ * x_22_ + 14 x_26_ ^ 2 - 90 x_30_ * x_28_ + 24 x_31_ * x_28_ + 24 x_46_ * x_29_ ] <= 5947
quadratic_ranged_4_ub: [ -42 x_27_ * x_8_ - 12 x_31_ * x_8_ + 52 x_43_ * x_8_ - 36 x_31_ * x_10_ + 76 x_46_ * x_10_ - 100 x_27_ * x_17_ + 9 x_28_ ^ 2 - 16 x_43_ * x_28_ + 24 x_37_ * x_31_ + 11 x_33_ ^ 2 + 6 x_37_ * x_33_ - 14 x_46_ * x_33_ ] <= -1777
quadratic_ranged_5_ub: [ 24 x_8_ * x_1_ - 84 x_12_ * x_1_ + 16 x_21_ * x_1_ + 98 x_28_ * x_1_ - 82 x_24_ * x_2_ - 32 x_32_ * x_2_ + 42 x_50_ * x_2_ + 18 x_21_ * x_7_ + 88 x_28_ * x_7_ + 50 x_50_ * x_7_ - 56 x_20_ * x_8_ + 12 x_20_ * x_12_ - 92 x_21_ * x_12_ + 32 x_28_ * x_12_ + 44 x_36_ * x_12_ + 20 x_32_ * x_21_ + 86 x_28_ * x_22_ + 42 x_32_ * x_22_ + 68 x_41_ * x_22_ + 52 x_47_ * x_22_ - 60 x_26_ * x_24_ + 42 x_50_ * x_26_ + 24 x_28_ ^ 2 + 47 x_32_ ^ 2 + 26 x_34_ ^ 2 + 14 x_36_ * x_34_ + 86 x_47_ * x_41_ - 10 x_50_ * x_41_ ] <= 8083
quadratic_ranged_6_ub: [ 84 x_1_ * x_16_ - 40 x_4_ * x_2_ - 72 x_16_ * x_2_ - 22 x_15_ * x_4_ - 74 x_21_ * x_11_ - 44 x_16_ * x_15_ - 18 x_22_ * x_15_ - 12 x_33_ * x_15_ - 74 x_22_ * x_16_ + 50 x_38_ * x_21_ ] <= -112
quadratic_ranged_7_ub: [ -6 x_4_ * x_19_ - 14 x_24_ * x_4_ + 28 x_37_ * x_4_ - 20 x_24_ * x_12_ + 82 x_27_ * x_12_ - 24 x_37_ * x_12_ - 44 x_22_ * x_18_ - 34 x_41_ * x_18_ + 32 x_22_ * x_19_ + 92 x_41_ * x_22_ - 38 x_41_ * x_37_ ] <= -4373
quadratic_ranged_8_ub: [ -92 x_25_ * x_2_ - 26 x_37_ * x_2_ - 84 x_41_ * x_2_ + 86 x_33_ * x_21_ - 12 x_35_ * x_21_ - 5 x_25_ ^ 2 - 86 x_37_ * x_25_ - 38 x_35_ * x_33_ ] <= -286
quadratic_ranged_9_ub: [ 30 x_21_ * x_17_ + 36 x_39_ * x_21_ - 24 x_41_ * x_25_ - 27 x_39_ ^ 2 ] <= -1
quadratic_ranged_10_ub: [ 88 x_12_ * x_5_ + 20 x_26_ * x_5_ + 94 x_47_ * x_5_ + 40 x_43_ * x_12_ - 20 x_13_ ^ 2 - 32 x_14_ * x_13_ + 100 x_39_ * x_13_ + 18 x_43_ * x_13_ + 22 x_47_ * x_13_ - 50 x_48_ * x_18_ - 90 x_43_ * x_26_ - 34 x_47_ * x_26_ - 54 x_48_ * x_39_ + 30 x_47_ ^ 2 ] <= -7704
quadratic_ranged_11_ub: [ 4 x_6_ ^ 2 - 82 x_8_ * x_6_ + 100 x_25_ * x_6_ + 2 x_24_ * x_8_ + 44 x_21_ * x_17_ + 88 x_24_ * x_19_ - 26 x_50_ * x_19_ + 72 x_25_ * x_20_ + 26 x_48_ * x_24_ - 52 x_50_ * x_25_ - 6 x_50_ ^ 2 ] <= 4390
quadratic_ranged_12_ub: [ -34 x_5_ ^ 2 + 94 x_15_ * x_5_ + 52 x_42_ * x_5_ + 6 x_13_ * x_7_ + 62 x_17_ * x_7_ + 2 x_37_ * x_7_ - 14 x_13_ * x_11_ - 18 x_37_ * x_11_ + 2 x_42_ * x_11_ - 70 x_42_ * x_13_ - 2 x_45_ * x_13_ + 64 x_25_ * x_15_ + 88 x_49_ * x_25_ + 12 x_31_ ^ 2 - 84 x_37_ * x_31_ - 38 x_42_ * x_37_ - 6 x_42_ ^ 2 - 88 x_49_ * x_42_ - 49 x_49_ ^ 2 ] <= 2567
quadratic_ranged_13_ub: [ -78 x_11_ * x_8_ - 80 x_14_ * x_8_ - 90 x_16_ * x_8_ - 86 x_35_ * x_8_ - 98 x_42_ * x_8_ + 68 x_14_ * x_11_ + 88 x_30_ * x_11_ - 96 x_42_ * x_11_ + 60 x_43_ * x_11_ - 14 x_30_ * x_13_ - 80 x_43_ * x_13_ + 86 x_44_ * x_14_ - 48 x_43_ * x_16_ + 4 x_46_ * x_16_ - 82 x_35_ * x_30_ - 33 x_35_ ^ 2 + 92 x_43_ * x_42_ + 22 x_46_ * x_42_ ] <= -1237
quadratic_ranged_14_ub: [ 24 x_27_ * x_4_ - 50 x_24_ * x_6_ - 58 x_27_ * x_6_ - 80 x_40_ * x_6_ + 84 x_24_ * x_14_ + 80 x_24_ * x_22_ - 82 x_30_ * x_22_ + 24 x_30_ * x_24_ - 37 x_40_ ^ 2 ] <= -1766
quadratic_ranged_15_ub: [ 10 x_50_ * x_4_ - 84 x_36_ * x_10_ - 30 x_46_ * x_10_ - 20 x_47_ * x_15_ - 72 x_30_ * x_19_ - 18 x_36_ * x_19_ - 86 x_39_ * x_19_ - 52 x_50_ * x_19_ + 13 x_30_ ^ 2 + 70 x_39_ * x_30_ - 80 x_50_ * x_30_ + 96 x_50_ * x_36_ ] <= 640
quadratic_ranged_16_ub: [ -78 x_35_ * x_11_ + 26 x_25_ ^ 2 - 18 x_35_ * x_25_ + 24 x_33_ ^ 2 - 24 x_35_ * x_33_ + 22 x_35_ ^ 2 ] <= 2974
quadratic_ranged_17_ub: [ 96 x_25_ * x_2_ - 86 x_42_ * x_2_ + 30 x_38_ * x_22_ + 6 x_42_ * x_22_ - 90 x_35_ * x_25_ + 20 x_49_ * x_35_ - 9 x_42_ ^ 2 - 20 x_49_ * x_42_ ] <= 5405
quadratic_ranged_18_ub: [ -68 x_15_ * x_5_ - 72 x_40_ * x_5_ - 70 x_37_ * x_8_ - 30 x_46_ * x_8_ - 4 x_34_ * x_13_ + 50 x_40_ * x_13_ - 84 x_46_ * x_13_ - 52 x_26_ * x_15_ - 20 x_40_ * x_15_ - 60 x_34_ * x_25_ - 10 x_46_ * x_25_ - 16 x_30_ ^ 2 - 30 x_35_ * x_30_ + 84 x_40_ * x_30_ + 42 x_35_ * x_32_ - 39 x_34_ ^ 2 - 48 x_46_ * x_40_ + 31 x_46_ ^ 2 ] <= 497
quadratic_ranged_19_ub: [ -66 x_47_ * x_2_ + 64 x_10_ * x_3_ - 27 x_10_ ^ 2 - 100 x_16_ * x_10_ + 13 x_16_ ^ 2 - 16 x_47_ * x_16_ - 29 x_25_ ^ 2 + 8 x_26_ ^ 2 ] <= 4549
quadratic_ranged_20_ub: [ 98 x_48_ * x_1_ - 45 x_10_ ^ 2 + 18 x_17_ * x_10_ - 14 x_39_ * x_10_ + 76 x_44_ * x_10_ - 100 x_49_ * x_10_ - 7 x_13_ ^ 2 - 76 x_17_ * x_13_ + 84 x_39_ * x_13_ - 50 x_48_ * x_17_ - 50 x_26_ * x_24_ - 82 x_48_ * x_24_ + 66 x_48_ * x_26_ + 8 x_44_ ^ 2 ] <= -1091
quadratic_ranged_21_ub: [ -36 x_33_ * x_1_ - 46 x_36_ * x_1_ + 94 x_44_ * x_1_ + 30 x_7_ * x_3_ + 98 x_14_ * x_3_ - 84 x_15_ * x_3_ + 6 x_33_ * x_3_ + 3 x_7_ ^ 2 + 18 x_14_ ^ 2 + 35 x_15_ ^ 2 + 82 x_33_ * x_15_ + 20 x_36_ * x_18_ + 42 x_39_ * x_23_ - 11 x_33_ ^ 2 + 56 x_45_ * x_33_ - 78 x_39_ * x_36_ ] <= 5064
quadratic_ranged_22_ub: [ -24 x_19_ * x_5_ + 96 x_29_ * x_5_ - 40 x_30_ * x_9_ + 10 x_12_ ^ 2 + 80 x_38_ * x_12_ + 32 x_38_ * x_15_ + 46 x_29_ * x_17_ + 76 x_30_ * x_19_ - 56 x_38_ * x_19_ - 7 x_30_ ^ 2 ] <= 8852
quadratic_ranged_23_ub: [ -76 x_30_ * x_5_ + 80 x_33_ * x_5_ + 40 x_37_ * x_9_ - 14 x_30_ * x_16_ + 50 x_35_ * x_17_ - 6 x_30_ * x_28_ + 46 x_35_ * x_28_ + 68 x_39_ * x_28_ + 28 x_30_ ^ 2 - 54 x_34_ * x_30_ - 19 x_33_ ^ 2 - 74 x_37_ * x_33_ - 35 x_34_ ^ 2 - 42 x_39_ * x_34_ - 68 x_37_ * x_35_ + 64 x_39_ * x_35_ - 1 x_37_ ^ 2 - 96 x_39_ * x_37_ ] <= -3236
quadratic_ranged_24_ub: [ 88 x_10_ * x_3_ - 32 x_12_ * x_3_ + 94 x_21_ * x_3_ + 10 x_27_ * x_4_ - 90 x_10_ * x_7_ + 34 x_10_ ^ 2 - 64 x_21_ * x_10_ - 78 x_24_ * x_10_ + 18 x_39_ * x_10_ - 96 x_21_ * x_12_ + 56 x_45_ * x_12_ - 2 x_21_ ^ 2 + 86 x_24_ * x_21_ + 92 x_45_ * x_21_ - 10 x_48_ * x_21_ + 56 x_48_ * x_24_ + 54 x_48_ * x_26_ + 44 x_39_ * x_27_ - 66 x_45_ * x_33_ - 6 x_48_ * x_39_ ] <= 11324
quadratic_ranged_25_ub: [ 50 x_2_ * x_14_ - 54 x_16_ * x_2_ - 42 x_30_ * x_2_ + 62 x_46_ * x_2_ - 20 x_11_ * x_4_ + 28 x_29_ * x_4_ - 78 x_14_ * x_11_ + 80 x_30_ * x_11_ - 60 x_46_ * x_11_ - 26 x_30_ * x_16_ + 80 x_32_ * x_16_ - 34 x_32_ * x_29_ + 38 x_46_ * x_29_ - 96 x_49_ * x_29_ - 64 x_32_ * x_30_ + 78 x_46_ * x_30_ - 58 x_46_ * x_32_ ] <= 4037
quadratic_ranged_26_ub: [ 76 x_24_ * x_4_ + 78 x_27_ * x_4_ + 72 x_24_ * x_6_ + 80 x_33_ * x_6_ + 38 x_10_ ^ 2 + 82 x_33_ * x_10_ - 14 x_39_ * x_10_ + 50 x_12_ ^ 2 + 50 x_26_ * x_12_ + 64 x_42_ * x_24_ - 14 x_26_ ^ 2 + 98 x_33_ * x_27_ + 50 x_34_ * x_27_ + 14 x_39_ * x_34_ + 23 x_39_ ^ 2 ] <= 5223
quadratic_ranged_27_ub: [ -32 x_13_ * x_1_ + 26 x_26_ * x_1_ + 10 x_28_ * x_1_ - 48 x_49_ * x_1_ - 26 x_4_ * x_3_ - 100 x_20_ * x_3_ + 4 x_40_ * x_3_ - 28 x_49_ * x_3_ - 84 x_26_ * x_4_ - 100 x_13_ * x_10_ - 52 x_25_ * x_10_ - 80 x_25_ * x_13_ - 48 x_36_ * x_13_ - 28 x_40_ * x_13_ + 92 x_26_ * x_20_ - 46 x_26_ * x_25_ - 34 x_36_ * x_25_ - 2 x_50_ * x_26_ + 52 x_49_ * x_40_ + 11 x_49_ ^ 2 ] <= -4396
quadratic_ranged_28_ub: [ -74 x_7_ * x_26_ - 22 x_33_ * x_7_ + 4 x_43_ * x_7_ - 30 x_26_ * x_20_ + 10 x_33_ * x_20_ - 52 x_37_ * x_26_ + 20 x_43_ * x_26_ + 14 x_43_ * x_33_ - 56 x_43_ * x_37_ ] <= 37
quadratic_ranged_29_ub: [ 22 x_11_ * x_12_ - 8 x_41_ * x_11_ - 40 x_41_ * x_12_ - 54 x_46_ * x_12_ ] <= 1422
quadratic_ranged_30_ub: [ 96 x_18_ * x_24_ + 52 x_28_ * x_18_ - 78 x_43_ * x_24_ - 26 x_43_ * x_27_ + 54 x_43_ * x_28_ + 98 x_46_ * x_28_ + 86 x_43_ * x_39_ ] <= -9543
quadratic_ranged_31_ub: [ 70 x_7_ * x_6_ + 46 x_21_ * x_6_ + 12 x_23_ * x_6_ + 26 x_26_ * x_6_ - 54 x_36_ * x_6_ - 60 x_39_ * x_6_ - 82 x_47_ * x_6_ - 38 x_7_ ^ 2 + 42 x_21_ * x_7_ - 30 x_33_ * x_7_ - 1 x_11_ ^ 2 + 90 x_23_ * x_11_ - 94 x_26_ * x_11_ - 44 x_26_ * x_17_ - 70 x_42_ * x_21_ - 8 x_47_ * x_21_ + 74 x_25_ * x_23_ + 5 x_25_ ^ 2 + 78 x_42_ * x_25_ - 31 x_26_ ^ 2 + 34 x_33_ * x_26_ - 3 x_33_ ^ 2 - 12 x_39_ * x_36_ - 8 x_48_ * x_36_ ] <= 16673
quadratic_ranged_1_lb: [ 10 x_37_ * x_7_ + 40 x_18_ * x_9_ - 46 x_41_ * x_9_ - 80 x_18_ * x_11_ + 90 x_22_ * x_11_ - 78 x_26_ * x_12_ - 82 x_37_ * x_12_ + 40 x_41_ * x_12_ + 38 x_39_ * x_18_ + 64 x_26_ * x_22_ - 14 x_36_ * x_22_ - 26 x_26_ ^ 2 + 26 x_39_ * x_26_ + 74 x_37_ * x_36_ + 78 x_41_ * x_39_ ] >= 2189
quadratic_ranged_2_lb: [ -28 x_42_ * x_2_ + 6 x_48_ * x_2_ + 6 x_25_ * x_3_ + 38 x_28_ * x_3_ - 36 x_14_ * x_13_ - 2 x_34_ * x_13_ - 18 x_41_ * x_13_ + 34 x_47_ * x_13_ + 54 x_28_ * x_14_ - 14 x_42_ * x_14_ + 66 x_37_ * x_25_ - 8 x_47_ * x_28_ + 84 x_48_ * x_28_ - 90 x_42_ * x_32_ + 96 x_48_ * x_32_ - 56 x_41_ * x_34_ + 54 x_42_ * x_34_ + 43 x_37_ ^ 2 + 96 x_42_ * x_37_ + 100 x_48_ * x_41_ ] >= -8200
quadratic_ranged_3_lb: [ -48 x_31_ * x_1_ + 44 x_44_ * x_1_ + 66 x_16_ * x_6_ - 76 x_26_ * x_6_ + 46 x_29_ * x_6_ + 100 x_30_ * x_6_ - 96 x_33_ * x_6_ - 58 x_45_ * x_6_ + 49 x_8_ ^ 2 + 28 x_30_ * x_8_ - 18 x_28_ * x_16_ - 6 x_44_ * x_16_ + 88 x_29_ * x_22_ + 56 x_30_ * x_22_ + 4 x_33_ * x_22_ + 14 x_26_ ^ 2 - 90 x_30_ * x_28_ + 24 x_31_ * x_28_ + 24 x_46_ * x_29_ ] >= 5942
quadratic_ranged_4_lb: [ -42 x_27_ * x_8_ - 12 x_31_ * x_8_ + 52 x_43_ * x_8_ - 36 x_31_ * x_10_ + 76 x_46_ * x_10_ - 100 x_27_ * x_17_ + 9 x_28_ ^ 2 - 16 x_43_ * x_28_ + 24 x_37_ * x_31_ + 11 x_33_ ^ 2 + 6 x_37_ * x_33_ - 14 x_46_ * x_33_ ] >= -1782
quadratic_ranged_5_lb: [ 24 x_8_ * x_1_ - 84 x_12_ * x_1_ + 16 x_21_ * x_1_ + 98 x_28_ * x_1_ - 82 x_24_ * x_2_ - 32 x_32_ * x_2_ + 42 x_50_ * x_2_ + 18 x_21_ * x_7_ + 88 x_28_ * x_7_ + 50 x_50_ * x_7_ - 56 x_20_ * x_8_ + 12 x_20_ * x_12_ - 92 x_21_ * x_12_ + 32 x_28_ * x_12_ + 44 x_36_ * x_12_ + 20 x_32_ * x_21_ + 86 x_28_ * x_22_ + 42 x_32_ * x_22_ + 68 x_41_ * x_22_ + 52 x_47_ * x_22_ - 60 x_26_ * x_24_ + 42 x_50_ * x_26_ + 24 x_28_ ^ 2 + 47 x_32_ ^ 2 + 26 x_34_ ^ 2 + 14 x_36_ * x_34_ + 86 x_47_ * x_41_ - 10 x_50_ * x_41_ ] >= 8078
quadratic_ranged_6_lb: [ 84 x_1_ * x_16_ - 40 x_4_ * x_2_ - 72 x_16_ * x_2_ - 22 x_15_ * x_4_ - 74 x_21_ * x_11_ - 44 x_16_ * x_15_ - 18 x_22_ * x_15_ - 12 x_33_ * x_15_ - 74 x_22_ * x_16_ + 50 x_38_ * x_21_ ] >= -120
quadratic_ranged_7_lb: [ -6 x_4_ * x_19_ - 14 x_24_ * x_4_ + 28 x_37_ * x_4_ - 20 x_24_ * x_12_ + 82 x_27_ * x_12_ - 24 x_37_ * x_12_ - 44 x_22_ * x_18_ - 34 x_41_ * x_18_ + 32 x_22_ * x_19_ + 92 x_41_ * x_22_ - 38 x_41_ * x_37_ ] >= -4380
quadratic_ranged_8_lb: [ -92 x_25_ * x_2_ - 26 x_37_ * x_2_ - 84 x_41_ * x_2_ + 86 x_33_ * x_21_ - 12 x_35_ * x_21_ - 5 x_25_ ^ 2 - 86 x_37_ * x_25_ - 38 x_35_ * x_33_ ] >= -292
quadratic_ranged_9_lb: [ 30 x_21_ * x_17_ + 36 x_39_ * x_21_ - 24 x_41_ * x_25_ - 27 x_39_ ^ 2 ] >= -8
quadratic_ranged_10_lb: [ 88 x_12_ * x_5_ + 20 x_26_ * x_5_ + 94 x_47_ * x_5_ + 40 x_43_ * x_12_ - 20 x_13_ ^ 2 - 32 x_14_ * x_13_ + 100 x_39_ * x_13_ + 18 x_43_ * x_13_ + 22 x_47_ * x_13_ - 50 x_48_ * x_18_ - 90 x_43_ * x_26_ - 34 x_47_ * x_26_ - 54 x_48_ * x_39_ + 30 x_47_ ^ 2 ] >= -7707
quadratic_ranged_11_lb: [ 4 x_6_ ^ 2 - 82 x_8_ * x_6_ + 100 x_25_ * x_6_ + 2 x_24_ * x_8_ + 44 x_21_ * x_17_ + 88 x_24_ * x_19_ - 26 x_50_ * x_19_ + 72 x_25_ * x_20_ + 26 x_48_ * x_24_ - 52 x_50_ * x_25_ - 6 x_50_ ^ 2 ] >= 4389
quadratic_ranged_12_lb: [ -34 x_5_ ^ 2 + 94 x_15_ * x_5_ + 52 x_42_ * x_5_ + 6 x_13_ * x_7_ + 62 x_17_ * x_7_ + 2 x_37_ * x_7_ - 14 x_13_ * x_11_ - 18 x_37_ * x_11_ + 2 x_42_ * x_11_ - 70 x_42_ * x_13_ - 2 x_45_ * x_13_ + 64 x_25_ * x_15_ + 88 x_49_ * x_25_ + 12 x_31_ ^ 2 - 84 x_37_ * x_31_ - 38 x_42_ * x_37_ - 6 x_42_ ^ 2 - 88 x_49_ * x_42_ - 49 x_49_ ^ 2 ] >= 2561
quadratic_ranged_13_lb: [ -78 x_11_ * x_8_ - 80 x_14_ * x_8_ - 90 x_16_ * x_8_ - 86 x_35_ * x_8_ - 98 x_42_ * x_8_ + 68 x_14_ * x_11_ + 88 x_30_ * x_11_ - 96 x_42_ * x_11_ + 60 x_43_ * x_11_ - 14 x_30_ * x_13_ - 80 x_43_ * x_13_ + 86 x_44_ * x_14_ - 48 x_43_ * x_16_ + 4 x_46_ * x_16_ - 82 x_35_ * x_30_ - 33 x_35_ ^ 2 + 92 x_43_ * x_42_ + 22 x_46_ * x_42_ ] >= -1243
quadratic_ranged_14_lb: [ 24 x_27_ * x_4_ - 50 x_24_ * x_6_ - 58 x_27_ * x_6_ - 80 x_40_ * x_6_ + 84 x_24_ * x_14_ + 80 x_24_ * x_22_ - 82 x_30_ * x_22_ + 24 x_30_ * x_24_ - 37 x_40_ ^ 2 ] >= -1772
quadratic_ranged_15_lb: [ 10 x_50_ * x_4_ - 84 x_36_ * x_10_ - 30 x_46_ * x_10_ - 20 x_47_ * x_15_ - 72 x_30_ * x_19_ - 18 x_36_ * x_19_ - 86 x_39_ * x_19_ - 52 x_50_ * x_19_ + 13 x_30_ ^ 2 + 70 x_39_ * x_30_ - 80 x_50_ * x_30_ + 96 x_50_ * x_36_ ] >= 632
quadratic_ranged_16_lb: [ -78 x_35_ * x_11_ + 26 x_25_ ^ 2 - 18 x_35_ * x_25_ + 24 x_33_ ^ 2 - 24 x_35_ * x_33_ + 22 x_35_ ^ 2 ] >= 2965
quadratic_ranged_17_lb: [ 96 x_25_ * x_2_ - 86 x_42_ * x_2_ + 30 x_38_ * x_22_ + 6 x_42_ * x_22_ - 90 x_35_ * x_25_ + 20 x_49_ * x_35_ - 9 x_42_ ^ 2 - 20 x_49_ * x_42_ ] >= 5400
quadratic_ranged_18_lb: [ -68 x_15_ * x_5_ - 72 x_40_ * x_5_ - 70 x_37_ * x_8_ - 30 x_46_ * x_8_ - 4 x_34_ * x_13_ + 50 x_40_ * x_13_ - 84 x_46_ * x_13_ - 52 x_26_ * x_15_ - 20 x_40_ * x_15_ - 60 x_34_ * x_25_ - 10 x_46_ * x_25_ - 16 x_30_ ^ 2 - 30 x_35_ * x_30_ + 84 x_40_ * x_30_ + 42 x_35_ * x_32_ - 39 x_34_ ^ 2 - 48 x_46_ * x_40_ + 31 x_46_ ^ 2 ] >= 491
quadratic_ranged_19_lb: [ -66 x_47_ * x_2_ + 64 x_10_ * x_3_ - 27 x_10_ ^ 2 - 100 x_16_ * x_10_ + 13 x_16_ ^ 2 - 16 x_47_ * x_16_ - 29 x_25_ ^ 2 + 8 x_26_ ^ 2 ] >= 4546
quadratic_ranged_20_lb: [ 98 x_48_ * x_1_ - 45 x_10_ ^ 2 + 18 x_17_ * x_10_ - 14 x_39_ * x_10_ + 76 x_44_ * x_10_ - 100 x_49_ * x_10_ - 7 x_13_ ^ 2 - 76 x_17_ * x_13_ + 84 x_39_ * x_13_ - 50 x_48_ * x_17_ - 50 x_26_ * x_24_ - 82 x_48_ * x_24_ + 66 x_48_ * x_26_ + 8 x_44_ ^ 2 ] >= -1098
quadratic_ranged_21_lb: [ -36 x_33_ * x_1_ - 46 x_36_ * x_1_ + 94 x_44_ * x_1_ + 30 x_7_ * x_3_ + 98 x_14_ * x_3_ - 84 x_15_ * x_3_ + 6 x_33_ * x_3_ + 3 x_7_ ^ 2 + 18 x_14_ ^ 2 + 35 x_15_ ^ 2 + 82 x_33_ * x_15_ + 20 x_36_ * x_18_ + 42 x_39_ * x_23_ - 11 x_33_ ^ 2 + 56 x_45_ * x_33_ - 78 x_39_ * x_36_ ] >= 5057
quadratic_ranged_22_lb: [ -24 x_19_ * x_5_ + 96 x_29_ * x_5_ - 40 x_30_ * x_9_ + 10 x_12_ ^ 2 + 80 x_38_ * x_12_ + 32 x_38_ * x_15_ + 46 x_29_ * x_17_ + 76 x_30_ * x_19_ - 56 x_38_ * x_19_ - 7 x_30_ ^ 2 ] >= 8846
quadratic_ranged_23_lb: [ -76 x_30_ * x_5_ + 80 x_33_ * x_5_ + 40 x_37_ * x_9_ - 14 x_30_ * x_16_ + 50 x_35_ * x_17_ - 6 x_30_ * x_28_ + 46 x_35_ * x_28_ + 68 x_39_ * x_28_ + 28 x_30_ ^ 2 - 54 x_34_ * x_30_ - 19 x_33_ ^ 2 - 74 x_37_ * x_33_ - 35 x_34_ ^ 2 - 42 x_39_ * x_34_ - 68 x_37_ * x_35_ + 64 x_39_ * x_35_ - 1 x_37_ ^ 2 - 96 x_39_ * x_37_ ] >= -3244
quadratic_ranged_24_lb: [ 88 x_10_ * x_3_ - 32 x_12_ * x_3_ + 94 x_21_ * x_3_ + 10 x_27_ * x_4_ - 90 x_10_ * x_7_ + 34 x_10_ ^ 2 - 64 x_21_ * x_10_ - 78 x_24_ * x_10_ + 18 x_39_ * x_10_ - 96 x_21_ * x_12_ + 56 x_45_ * x_12_ - 2 x_21_ ^ 2 + 86 x_24_ * x_21_ + 92 x_45_ * x_21_ - 10 x_48_ * x_21_ + 56 x_48_ * x_24_ + 54 x_48_ * x_26_ + 44 x_39_ * x_27_ - 66 x_45_ * x_33_ - 6 x_48_ * x_39_ ] >= 11317
quadratic_ranged_25_lb: [ 50 x_2_ * x_14_ - 54 x_16_ * x_2_ - 42 x_30_ * x_2_ + 62 x_46_ * x_2_ - 20 x_11_ * x_4_ + 28 x_29_ * x_4_ - 78 x_14_ * x_11_ + 80 x_30_ * x_11_ - 60 x_46_ * x_11_ - 26 x_30_ * x_16_ + 80 x_32_ * x_16_ - 34 x_32_ * x_29_ + 38 x_46_ * x_29_ - 96 x_49_ * x_29_ - 64 x_32_ * x_30_ + 78 x_46_ * x_30_ - 58 x_46_ * x_32_ ] >= 4030
quadratic_ranged_26_lb: [ 76 x_24_ * x_4_ + 78 x_27_ * x_4_ + 72 x_24_ * x_6_ + 80 x_33_ * x_6_ + 38 x_10_ ^ 2 + 82 x_33_ * x_10_ - 14 x_39_ * x_10_ + 50 x_12_ ^ 2 + 50 x_26_ * x_12_ + 64 x_42_ * x_24_ - 14 x_26_ ^ 2 + 98 x_33_ * x_27_ + 50 x_34_ * x_27_ + 14 x_39_ * x_34_ + 23 x_39_ ^ 2 ] >= 5221
quadratic_ranged_27_lb: [ -32 x_13_ * x_1_ + 26 x_26_ * x_1_ + 10 x_28_ * x_1_ - 48 x_49_ * x_1_ - 26 x_4_ * x_3_ - 100 x_20_ * x_3_ + 4 x_40_ * x_3_ - 28 x_49_ * x_3_ - 84 x_26_ * x_4_ - 100 x_13_ * x_10_ - 52 x_25_ * x_10_ - 80 x_25_ * x_13_ - 48 x_36_ * x_13_ - 28 x_40_ * x_13_ + 92 x_26_ * x_20_ - 46 x_26_ * x_25_ - 34 x_36_ * x_25_ - 2 x_50_ * x_26_ + 52 x_49_ * x_40_ + 11 x_49_ ^ 2 ] >= -4397
quadratic_ranged_28_lb: [ -74 x_7_ * x_26_ - 22 x_33_ * x_7_ + 4 x_43_ * x_7_ - 30 x_26_ * x_20_ + 10 x_33_ * x_20_ - 52 x_37_ * x_26_ + 20 x_43_ * x_26_ + 14 x_43_ * x_33_ - 56 x_43_ * x_37_ ] >= 36
quadratic_ranged_29_lb: [ 22 x_11_ * x_12_ - 8 x_41_ * x_11_ - 40 x_41_ * x_12_ - 54 x_46_ * x_12_ ] >= 1417
quadratic_ranged_30_lb: [ 96 x_18_ * x_24_ + 52 x_28_ * x_18_ - 78 x_43_ * x_24_ - 26 x_43_ * x_27_ + 54 x_43_ * x_28_ + 98 x_46_ * x_28_ + 86 x_43_ * x_39_ ] >= -9550
quadratic_ranged_31_lb: [ 70 x_7_ * x_6_ + 46 x_21_ * x_6_ + 12 x_23_ * x_6_ + 26 x_26_ * x_6_ - 54 x_36_ * x_6_ - 60 x_39_ * x_6_ - 82 x_47_ * x_6_ - 38 x_7_ ^ 2 + 42 x_21_ * x_7_ - 30 x_33_ * x_7_ - 1 x_11_ ^ 2 + 90 x_23_ * x_11_ - 94 x_26_ * x_11_ - 44 x_26_ * x_17_ - 70 x_42_ * x_21_ - 8 x_47_ * x_21_ + 74 x_25_ * x_23_ + 5 x_25_ ^ 2 + 78 x_42_ * x_25_ - 31 x_26_ ^ 2 + 34 x_33_ * x_26_ - 3 x_33_ ^ 2 - 12 x_39_ * x_36_ - 8 x_48_ * x_36_ ] >= 16668
c1: [ 50 x_20_ * x_14_ + 62 x_38_ * x_14_ - 12 x_37_ * x_30_ + 98 x_37_ * x_35_ + 64 x_43_ * x_35_ - 28 x_44_ * x_37_ + 21 x_38_ ^ 2 - 42 x_44_ * x_38_ + 72 x_50_ * x_43_ ] = 2107
c2: [ -98 x_14_ * x_7_ - 64 x_20_ * x_7_ - 94 x_48_ * x_7_ + 21 x_13_ ^ 2 + 92 x_26_ * x_14_ - 96 x_48_ * x_14_ - 37 x_18_ ^ 2 + 92 x_26_ * x_18_ + 12 x_46_ * x_18_ + 16 x_48_ * x_18_ - 80 x_48_ * x_26_ - 21 x_48_ ^ 2 ] = -6564
c3: [ 14 x_39_ * x_17_ - 26 x_27_ ^ 2 + 74 x_39_ * x_27_ + 44 x_29_ * x_28_ - 32 x_41_ * x_28_ ] = -5876
c4: [ -12 x_17_ * x_1_ - 82 x_26_ * x_3_ + 28 x_21_ * x_10_ + 100 x_21_ * x_17_ - 18 x_29_ * x_17_ + 36 x_29_ * x_22_ - 44 x_49_ * x_22_ + 38 x_37_ * x_24_ + 12 x_42_ * x_26_ - 36 x_29_ ^ 2 - 82 x_44_ * x_37_ - 86 x_49_ * x_44_ ] = -1694
c5: [ 92 x_9_ * x_7_ + 20 x_20_ * x_7_ + 92 x_48_ * x_7_ + 92 x_37_ * x_9_ + 24 x_40_ * x_9_ - 78 x_43_ * x_9_ - 62 x_20_ * x_11_ - 82 x_42_ * x_11_ - 34 x_20_ ^ 2 - 8 x_32_ ^ 2 - 36 x_40_ * x_32_ - 92 x_42_ * x_32_ + 37 x_36_ ^ 2 - 27 x_40_ ^ 2 ] = -7767
c6: [ -41 x_6_ ^ 2 - 88 x_21_ * x_6_ - 54 x_48_ * x_6_ - 5 x_17_ ^ 2 + 88 x_21_ * x_17_ - 74 x_21_ * x_20_ + 7 x_21_ ^ 2 - 54 x_24_ * x_21_ - 23 x_24_ ^ 2 + 56 x_25_ * x_24_ - 74 x_48_ * x_24_ - 50 x_34_ * x_33_ + 38 x_48_ * x_33_ + 14 x_36_ * x_34_ - 2 x_48_ * x_36_ ] = 1191
c7: [ 39 x_3_ ^ 2 - 72 x_20_ * x_3_ - 98 x_24_ * x_3_ - 42 x_30_ * x_3_ - 48 x_41_ * x_3_ - 36 x_46_ * x_3_ - 50 x_29_ * x_4_ - 18 x_20_ ^ 2 + 38 x_38_ * x_20_ + 100 x_46_ * x_20_ + 60 x_42_ * x_24_ - 78 x_46_ * x_24_ + 68 x_49_ * x_24_ + 34 x_26_ ^ 2 + 94 x_41_ * x_26_ + 2 x_49_ * x_26_ - 92 x_35_ * x_29_ - 98 x_46_ * x_30_ + 68 x_49_ * x_30_ + 28 x_32_ ^ 2 - 86 x_35_ * x_32_ + 48 x_42_ * x_32_ + 32 x_49_ * x_32_ + 20 x_46_ * x_35_ + 34 x_48_ * x_35_ + 34 x_49_ * x_38_ - 10 x_41_ ^ 2 - 28 x_48_ * x_41_ + 14 x_42_ ^ 2 - 88 x_46_ * x_42_ - 88 x_48_ * x_46_ + 41 x_48_ ^ 2 ] = 9898
c8: [ 76 x_2_ * x_9_ + 88 x_25_ * x_2_ + 68 x_28_ * x_2_ + 10 x_41_ * x_2_ + 10 x_16_ * x_6_ + 70 x_17_ * x_6_ + 30 x_28_ * x_6_ + 88 x_33_ * x_6_ + 26 x_43_ * x_6_ + 28 x_47_ * x_6_ - 48 x_17_ * x_7_ + 98 x_25_ * x_7_ + 14 x_28_ * x_7_ - 26 x_39_ * x_7_ + 32 x_45_ * x_7_ + 44 x_15_ * x_9_ - 88 x_31_ * x_9_ + 58 x_33_ * x_9_ + 90 x_39_ * x_9_ + 14 x_47_ * x_9_ + 4 x_16_ * x_15_ - 76 x_31_ * x_15_ - 98 x_39_ * x_15_ + 16 x_39_ * x_16_ + 90 x_43_ * x_16_ + 88 x_47_ * x_16_ + 76 x_47_ * x_17_ + 56 x_39_ * x_24_ + 14 x_43_ * x_24_ + 8 x_45_ * x_24_ - 34 x_31_ * x_25_ + 12 x_47_ * x_25_ - 18 x_50_ * x_25_ - 2 x_39_ * x_28_ + 76 x_33_ * x_31_ - 36 x_43_ * x_31_ + 6 x_45_ * x_31_ - 54 x_47_ * x_39_ + 28 x_50_ * x_42_ + 34 x_50_ * x_47_ ] = -13680
c9: [ -11 x_26_ ^ 2 - 16 x_40_ * x_26_ - 14 x_34_ ^ 2 + 98 x_40_ * x_34_ ] = 3276
c10: [ -82 x_32_ * x_30_ + 80 x_48_ * x_30_ + 50 x_48_ * x_32_ + 16 x_42_ ^ 2 ] = -1638
c11: [ -36 x_22_ * x_2_ - 98 x_36_ * x_2_ - 4 x_36_ * x_20_ + 44 x_22_ ^ 2 - 22 x_48_ * x_35_ + 20 x_38_ ^ 2 ] = 1768
c12: [ 36 x_2_ ^ 2 - 70 x_8_ * x_2_ + 84 x_39_ * x_2_ + 22 x_41_ * x_2_ + 10 x_41_ * x_3_ - 33 x_8_ ^ 2 + 38 x_10_ * x_8_ + 8 x_38_ * x_8_ + 26 x_25_ * x_10_ - 66 x_38_ * x_25_ - 24 x_41_ * x_28_ ] = -2654
c13: [ 10 x_22_ * x_2_ - 52 x_21_ * x_6_ - 22 x_16_ ^ 2 + 76 x_22_ * x_16_ - 88 x_47_ * x_16_ + 98 x_47_ * x_21_ + 40 x_35_ * x_22_ - 25 x_45_ ^ 2 - 68 x_47_ * x_45_ - 20 x_49_ * x_45_ ] = -5464
c14: [ 64 x_11_ * x_1_ - 14 x_15_ * x_1_ - 76 x_41_ * x_1_ + 30 x_11_ * x_5_ - 80 x_23_ * x_5_ - 30 x_24_ * x_5_ + 54 x_9_ * x_7_ + 30 x_24_ * x_7_ - 70 x_23_ * x_11_ - 76 x_30_ * x_15_ - 52 x_41_ * x_15_ - 58 x_33_ * x_24_ + 54 x_41_ * x_33_ - 11 x_41_ ^ 2 ] = 45
c15: [ 72 x_26_ * x_17_ - 29 x_26_ ^ 2 - 42 x_29_ ^ 2 - 88 x_34_ * x_29_ - 88 x_39_ * x_29_ - 44 x_39_ * x_34_ - 8 x_40_ * x_34_ ] = 5346
c16: [ 82 x_44_ * x_10_ + 4 x_11_ ^ 2 + 46 x_22_ * x_11_ + 96 x_33_ * x_15_ + 14 x_44_ * x_15_ - 2 x_50_ * x_15_ + 54 x_48_ * x_17_ - 16 x_42_ * x_22_ - 96 x_44_ * x_22_ + 8 x_42_ * x_33_ - 80 x_48_ * x_33_ - 26 x_44_ ^ 2 + 82 x_48_ * x_44_ ] = -10750
c17: [ -64 x_21_ * x_1_ + 48 x_47_ * x_1_ - 62 x_21_ * x_4_ - 82 x_46_ * x_4_ + 76 x_47_ * x_4_ + 66 x_50_ * x_4_ + 82 x_24_ * x_5_ + 20 x_25_ * x_5_ - 38 x_35_ * x_5_ - 82 x_40_ * x_5_ - 38 x_46_ * x_5_ - 70 x_22_ * x_21_ + 24 x_40_ * x_21_ + 82 x_44_ * x_21_ - 66 x_24_ * x_22_ + 26 x_35_ * x_24_ + 42 x_25_ ^ 2 - 78 x_41_ * x_25_ - 24 x_47_ * x_25_ - 10 x_50_ * x_25_ + 74 x_35_ * x_28_ - 58 x_46_ * x_28_ - 23 x_40_ ^ 2 + 98 x_44_ * x_40_ - 56 x_47_ * x_41_ - 12 x_46_ * x_44_ - 74 x_50_ * x_44_ ] = -6093
c18: [ 34 x_46_ * x_2_ + 32 x_16_ * x_6_ - 32 x_30_ * x_6_ - 22 x_36_ * x_6_ - 34 x_48_ * x_6_ - 31 x_7_ ^ 2 + 72 x_22_ * x_16_ + 58 x_36_ * x_16_ + 32 x_41_ * x_16_ + 24 x_22_ * x_18_ - 18 x_26_ * x_18_ + 8 x_46_ * x_18_ + 49 x_22_ ^ 2 + 64 x_29_ * x_22_ - 94 x_36_ * x_22_ - 20 x_43_ * x_22_ + 48 x_36_ * x_26_ + 78 x_39_ * x_26_ - 13 x_29_ ^ 2 + 38 x_39_ * x_29_ + 80 x_43_ * x_29_ + 8 x_41_ * x_30_ + 8 x_43_ * x_30_ + 17 x_39_ ^ 2 - 24 x_43_ * x_39_ + 15 x_43_ ^ 2 + 2 x_48_ ^ 2 ] = 9266
c19: [ -42 x_14_ * x_12_ + 14 x_44_ * x_12_ - 46 x_14_ ^ 2 + 94 x_44_ * x_14_ - 3 x_44_ ^ 2 ] = 3924
Bounds
-9 <= x_1_ <= 8
-9 <= x_2_ <= -2
-10 <= x_3_ <= 9
-3 <= x_4_ <= 10
-9 <= x_5_ <= 0
-8 <= x_6_ <= 4
-10 <= x_7_ <= 5
-7 <= x_8_ <= 0
-9 <= x_9_ <= 6
-6 <= x_10_ <= 9
-1 <= x_11_ <= 9
-5 <= x_12_ <= 10
-3 <= x_13_ <= 8
-8 <= x_14_ <= 7
-6 <= x_15_ <= 10
-6 <= x_16_ <= 4
-8 <= x_17_ <= 0
-10 <= x_18_ <= -4
-2 <= x_19_ <= 5
-8 <= x_20_ <= 4
-10 <= x_21_ <= 6
-9 <= x_22_ <= 2
4 <= x_23_ <= 9
-2 <= x_24_ <= 10
-1 <= x_25_ <= 7
-3 <= x_26_ <= 2
-10 <= x_27_ <= 8
0 <= x_28_ <= 10
-10 <= x_29_ <= -4
-1 <= x_30_ <= 5
-7 <= x_31_ <= 8
9 <= x_32_ <= 10
-4 <= x_33_ <= 6
4 <= x_34_ <= 10
-7 <= x_35_ <= -3
-2 <= x_36_ <= 6
-1 <= x_37_ <= 8
-10 <= x_38_ <= 5
-9 <= x_39_ <= 7
-5 <= x_40_ <= 7
-10 <= x_41_ <= 3
-5 <= x_42_ <= 7
-9 <= x_43_ <= 4
-8 <= x_44_ <= 5
0 <= x_45_ <= 5
-6 <= x_46_ <= 8
-10 <= x_47_ <= 9
-4 <= x_48_ <= 3
-10 <= x_49_ <= -6
-1 <= x_50_ <= 9
General
x_1_
x_2_
x_3_
x_4_
x_5_
x_6_
x_7_
x_8_
x_9_
x_10_
x_11_
x_12_
x_13_
x_14_
x_15_
x_16_
x_17_
x_18_
x_19_
x_20_
x_21_
x_22_
x_23_
x_24_
x_25_
x_26_
x_27_
x_28_
x_29_
x_30_
x_31_
x_32_
x_33_
x_34_
x_35_
x_36_
x_37_
x_38_
x_39_
x_40_
x_41_
x_42_
x_43_
x_44_
x_45_
x_46_
x_47_
x_48_
x_49_
x_50_
End
