minimize
obj: 
subject to
quadratic_ranged_1_ub: [ 16 x_1_ * x_33_ - 22 x_36_ * x_1_ + 68 x_12_ * x_9_ - 22 x_13_ * x_12_ + 82 x_33_ * x_12_ + 8 x_43_ * x_12_ + 6 x_47_ * x_23_ ] <= -1869
quadratic_ranged_2_ub: [ -4 x_20_ * x_22_ + 30 x_24_ * x_20_ - 78 x_26_ * x_20_ - 94 x_48_ * x_20_ - 80 x_47_ * x_22_ + 78 x_42_ * x_26_ - 88 x_46_ * x_26_ + 70 x_46_ * x_42_ + 48 x_48_ * x_42_ ] <= 775
quadratic_ranged_3_ub: [ -68 x_4_ * x_47_ - 62 x_32_ * x_12_ - 78 x_47_ * x_17_ - 90 x_48_ * x_24_ - 94 x_32_ * x_29_ - 14 x_46_ * x_29_ ] <= -8274
quadratic_ranged_4_ub: [ -12 x_3_ * x_9_ + 54 x_10_ * x_3_ - 14 x_7_ * x_4_ + 46 x_28_ * x_4_ + 86 x_31_ * x_4_ + 16 x_40_ * x_4_ - 26 x_28_ * x_7_ + 36 x_48_ * x_7_ - 52 x_40_ * x_8_ + 84 x_48_ * x_8_ + 86 x_33_ * x_9_ - 84 x_40_ * x_9_ + 80 x_48_ * x_9_ + 80 x_31_ * x_10_ + 78 x_21_ * x_14_ - 24 x_33_ * x_14_ - 60 x_32_ * x_21_ - 74 x_40_ * x_28_ + 16 x_40_ * x_31_ + 38 x_50_ * x_31_ - 86 x_48_ * x_40_ ] <= 185
quadratic_ranged_5_ub: [ 88 x_3_ * x_26_ - 42 x_47_ * x_3_ + 100 x_26_ * x_7_ - 54 x_35_ * x_7_ + 42 x_26_ * x_9_ - 42 x_31_ * x_9_ - 66 x_37_ * x_9_ - 10 x_47_ * x_9_ - 14 x_26_ * x_20_ - 8 x_42_ * x_20_ - 50 x_46_ * x_20_ - 20 x_31_ * x_22_ + 48 x_44_ * x_22_ - 4 x_46_ * x_22_ + 84 x_37_ * x_26_ - 98 x_42_ * x_37_ + 26 x_47_ * x_37_ ] <= 14704
quadratic_ranged_6_ub: [ -30 x_5_ * x_13_ + 66 x_25_ * x_9_ + 30 x_48_ * x_9_ + 100 x_43_ * x_26_ - 14 x_43_ * x_42_ ] <= -1183
quadratic_ranged_7_ub: [ -28 x_1_ * x_10_ + 68 x_33_ * x_1_ - 96 x_50_ * x_1_ - 18 x_10_ * x_2_ + 74 x_33_ * x_2_ - 58 x_49_ * x_2_ + 44 x_24_ * x_10_ + 46 x_49_ * x_10_ - 18 x_33_ * x_13_ - 82 x_50_ * x_13_ - 30 x_38_ * x_32_ - 24 x_38_ * x_33_ + 28 x_41_ * x_33_ + 36 x_50_ * x_33_ - 16 x_49_ * x_38_ ] <= 2054
quadratic_ranged_8_ub: [ 6 x_2_ * x_5_ - 62 x_17_ * x_2_ - 98 x_35_ * x_2_ + 10 x_7_ * x_5_ - 82 x_23_ * x_5_ + 2 x_40_ * x_5_ + 58 x_50_ * x_5_ - 16 x_43_ * x_7_ + 58 x_23_ * x_15_ - 60 x_35_ * x_15_ - 60 x_46_ * x_15_ - 88 x_34_ * x_17_ + 92 x_39_ * x_21_ - 42 x_46_ * x_21_ - 84 x_35_ * x_23_ - 80 x_46_ * x_23_ - 82 x_39_ * x_34_ + 4 x_39_ * x_35_ + 16 x_40_ * x_35_ + 56 x_50_ * x_35_ - 72 x_43_ * x_39_ - 50 x_43_ * x_40_ + 32 x_50_ * x_40_ ] <= 6504
quadratic_ranged_9_ub: [ -36 x_1_ * x_31_ + 56 x_31_ * x_6_ - 46 x_26_ * x_18_ - 80 x_43_ * x_26_ - 74 x_39_ * x_31_ + 22 x_40_ * x_31_ + 58 x_39_ * x_32_ + 82 x_40_ * x_32_ - 44 x_40_ * x_39_ ] <= -7922
quadratic_ranged_10_ub: [ -100 x_5_ * x_10_ - 64 x_21_ * x_5_ - 56 x_28_ * x_5_ - 98 x_13_ * x_10_ + 2 x_29_ * x_11_ - 50 x_48_ * x_11_ + 38 x_29_ * x_16_ - 48 x_34_ * x_21_ + 76 x_34_ * x_29_ + 44 x_48_ * x_34_ - 76 x_48_ * x_46_ ] <= -11293
quadratic_ranged_11_ub: [ 26 x_1_ * x_20_ + 62 x_39_ * x_1_ - 70 x_20_ * x_2_ + 6 x_9_ * x_6_ + 46 x_39_ * x_6_ - 88 x_26_ * x_9_ + 88 x_20_ * x_11_ - 60 x_39_ * x_26_ ] <= 360
quadratic_ranged_12_ub: [ -42 x_4_ * x_14_ - 36 x_23_ * x_4_ - 58 x_26_ * x_4_ + 52 x_33_ * x_4_ + 40 x_23_ * x_5_ + 76 x_12_ * x_6_ - 88 x_21_ * x_6_ - 46 x_23_ * x_6_ - 54 x_18_ * x_7_ - 22 x_20_ * x_7_ + 98 x_21_ * x_7_ - 82 x_33_ * x_7_ - 18 x_14_ * x_10_ + 22 x_16_ * x_10_ + 74 x_18_ * x_10_ + 78 x_14_ * x_12_ - 90 x_35_ * x_12_ - 78 x_16_ * x_13_ - 100 x_23_ * x_13_ + 48 x_33_ * x_13_ + 78 x_49_ * x_13_ + 38 x_26_ * x_14_ - 36 x_33_ * x_14_ - 6 x_35_ * x_14_ + 50 x_33_ * x_16_ + 64 x_23_ * x_18_ + 70 x_49_ * x_18_ + 60 x_21_ * x_20_ - 98 x_35_ * x_20_ - 8 x_49_ * x_20_ - 66 x_26_ * x_21_ - 50 x_33_ * x_21_ + 10 x_33_ * x_26_ + 88 x_35_ * x_26_ ] <= -6019
quadratic_ranged_13_ub: [ 60 x_35_ * x_47_ + 26 x_47_ * x_37_ ] <= -126
quadratic_ranged_14_ub: [ -64 x_3_ * x_9_ - 12 x_14_ * x_3_ + 66 x_20_ * x_13_ + 20 x_22_ * x_14_ + 60 x_28_ * x_21_ - 84 x_46_ * x_21_ ] <= 2554
quadratic_ranged_15_ub: [ 86 x_9_ * x_29_ - 88 x_33_ * x_13_ + 40 x_21_ * x_17_ - 50 x_33_ * x_21_ - 14 x_33_ * x_29_ ] <= -3816
quadratic_ranged_16_ub: [ -50 x_17_ * x_26_ - 100 x_29_ * x_17_ - 90 x_38_ * x_17_ + 66 x_39_ * x_17_ - 44 x_41_ * x_17_ - 4 x_47_ * x_17_ - 58 x_38_ * x_26_ - 14 x_39_ * x_29_ - 48 x_42_ * x_33_ - 84 x_46_ * x_33_ - 44 x_41_ * x_35_ + 54 x_39_ * x_37_ - 8 x_42_ * x_37_ - 22 x_42_ * x_38_ - 64 x_43_ * x_38_ + 64 x_46_ * x_38_ + 72 x_42_ * x_41_ + 52 x_43_ * x_41_ + 22 x_47_ * x_42_ + 82 x_47_ * x_46_ ] <= -13858
quadratic_ranged_17_ub: [ 44 x_5_ * x_13_ + 80 x_47_ * x_26_ + 92 x_47_ * x_42_ ] <= 1296
quadratic_ranged_18_ub: [ -2 x_12_ * x_41_ + 14 x_50_ * x_12_ - 84 x_35_ * x_22_ - 4 x_42_ * x_22_ + 86 x_44_ * x_35_ + 50 x_50_ * x_35_ - 52 x_38_ * x_36_ - 30 x_42_ * x_36_ - 42 x_44_ * x_41_ ] <= -1259
quadratic_ranged_19_ub: [ -92 x_3_ * x_6_ - 74 x_12_ * x_3_ + 42 x_30_ * x_3_ + 54 x_27_ * x_6_ + 2 x_8_ * x_7_ + 24 x_11_ * x_8_ - 56 x_44_ * x_8_ + 20 x_11_ * x_9_ + 28 x_39_ * x_9_ + 80 x_39_ * x_30_ ] <= -11914
quadratic_ranged_20_ub: [ 74 x_12_ * x_17_ + 6 x_32_ * x_12_ + 30 x_17_ * x_16_ - 20 x_46_ * x_23_ - 76 x_39_ * x_32_ + 52 x_41_ * x_32_ - 46 x_44_ * x_39_ - 86 x_49_ * x_39_ - 16 x_43_ * x_41_ + 60 x_49_ * x_46_ ] <= -2391
quadratic_ranged_21_ub: [ 48 x_9_ * x_43_ + 14 x_37_ * x_23_ + 52 x_38_ * x_23_ + 92 x_44_ * x_23_ ] <= -2990
quadratic_ranged_22_ub: [ 50 x_2_ * x_11_ - 94 x_14_ * x_2_ - 56 x_27_ * x_2_ + 14 x_42_ * x_2_ - 70 x_44_ * x_2_ - 100 x_14_ * x_11_ + 62 x_36_ * x_11_ - 94 x_47_ * x_11_ - 94 x_47_ * x_12_ - 44 x_26_ * x_14_ + 32 x_37_ * x_14_ - 48 x_47_ * x_14_ + 90 x_42_ * x_26_ + 50 x_42_ * x_36_ + 98 x_47_ * x_42_ ] <= 2766
quadratic_ranged_23_ub: [ -50 x_3_ * x_25_ + 18 x_31_ * x_3_ + 96 x_41_ * x_8_ + 20 x_35_ * x_21_ + 18 x_41_ * x_21_ + 52 x_37_ * x_25_ - 96 x_31_ * x_29_ + 4 x_37_ * x_29_ ] <= -5051
quadratic_ranged_24_ub: [ -96 x_5_ * x_15_ + 88 x_46_ * x_5_ + 4 x_41_ * x_11_ - 48 x_42_ * x_15_ - 16 x_44_ * x_15_ - 52 x_41_ * x_37_ - 24 x_44_ * x_37_ - 96 x_44_ * x_41_ - 88 x_46_ * x_41_ - 62 x_44_ * x_42_ - 36 x_46_ * x_42_ + 2 x_46_ * x_44_ ] <= 3423
quadratic_ranged_25_ub: [ -4 x_5_ * x_7_ - 38 x_33_ * x_27_ - 36 x_47_ * x_27_ - 80 x_44_ * x_32_ ] <= 457
quadratic_ranged_26_ub: [ -64 x_8_ * x_38_ + 84 x_50_ * x_12_ - 82 x_50_ * x_19_ + 86 x_50_ * x_38_ ] <= 4633
quadratic_ranged_27_ub: [ 44 x_10_ * x_17_ + 78 x_17_ * x_15_ + 100 x_31_ * x_15_ + 58 x_32_ * x_15_ - 50 x_28_ * x_17_ + 64 x_31_ * x_28_ ] <= -1290
quadratic_ranged_28_ub: [ -22 x_4_ * x_6_ + 6 x_11_ * x_4_ - 4 x_42_ * x_4_ - 2 x_46_ * x_4_ + 8 x_42_ * x_6_ + 68 x_48_ * x_6_ - 4 x_14_ * x_11_ - 80 x_18_ * x_11_ - 72 x_38_ * x_14_ + 88 x_45_ * x_14_ + 44 x_48_ * x_14_ + 86 x_45_ * x_18_ - 52 x_46_ * x_18_ - 24 x_25_ * x_23_ - 56 x_45_ * x_23_ + 66 x_38_ * x_25_ - 92 x_45_ * x_25_ - 78 x_47_ * x_42_ - 16 x_46_ * x_45_ + 12 x_48_ * x_46_ ] <= -9483
quadratic_ranged_29_ub: [ -96 x_1_ * x_4_ - 90 x_17_ * x_1_ + 76 x_33_ * x_1_ - 48 x_7_ * x_3_ + 78 x_33_ * x_4_ - 80 x_49_ * x_4_ + 12 x_29_ * x_7_ + 2 x_41_ * x_7_ - 28 x_18_ * x_17_ - 10 x_29_ * x_18_ - 54 x_47_ * x_18_ + 56 x_33_ * x_22_ + 16 x_41_ * x_22_ + 38 x_29_ * x_24_ - 20 x_49_ * x_24_ + 86 x_33_ * x_29_ + 30 x_41_ * x_29_ - 54 x_49_ * x_33_ - 62 x_49_ * x_41_ ] <= -13923
quadratic_ranged_30_ub: [ -28 x_3_ * x_18_ + 80 x_18_ * x_6_ - 66 x_24_ * x_6_ + 14 x_25_ * x_6_ - 46 x_47_ * x_14_ + 38 x_25_ * x_18_ + 80 x_35_ * x_18_ - 84 x_48_ * x_24_ + 44 x_35_ * x_25_ - 6 x_41_ * x_25_ - 72 x_44_ * x_26_ - 54 x_35_ * x_30_ - 76 x_41_ * x_30_ + 82 x_47_ * x_30_ - 28 x_44_ * x_35_ + 32 x_44_ * x_41_ + 86 x_48_ * x_47_ ] <= 2507
quadratic_ranged_31_ub: [ -34 x_8_ * x_36_ + 16 x_43_ * x_14_ + 58 x_36_ * x_19_ + 26 x_43_ * x_30_ ] <= -1228
quadratic_ranged_32_ub: [ 6 x_8_ * x_16_ + 18 x_49_ * x_8_ + 74 x_30_ * x_16_ + 62 x_49_ * x_16_ + 54 x_30_ * x_17_ + 74 x_49_ * x_17_ - 78 x_25_ * x_21_ - 24 x_45_ * x_21_ - 94 x_46_ * x_21_ + 100 x_28_ * x_25_ + 74 x_37_ * x_25_ + 96 x_49_ * x_25_ + 44 x_47_ * x_28_ + 46 x_49_ * x_45_ ] <= 2695
quadratic_ranged_33_ub: [ 88 x_6_ * x_23_ - 38 x_48_ * x_18_ + 46 x_48_ * x_38_ ] <= 2820
quadratic_ranged_34_ub: [ 84 x_6_ * x_13_ + 34 x_35_ * x_6_ - 18 x_38_ * x_13_ - 46 x_26_ * x_17_ + 34 x_35_ * x_17_ - 28 x_38_ * x_17_ + 4 x_26_ * x_24_ - 74 x_35_ * x_24_ - 74 x_35_ * x_26_ + 82 x_38_ * x_35_ ] <= -299
quadratic_ranged_35_ub: [ -42 x_9_ * x_28_ + 86 x_28_ * x_11_ + 20 x_38_ * x_11_ ] <= 26
quadratic_ranged_36_ub: [ 10 x_3_ * x_4_ - 2 x_31_ * x_3_ + 88 x_50_ * x_3_ + 46 x_31_ * x_4_ - 64 x_40_ * x_4_ - 54 x_50_ * x_4_ + 92 x_23_ * x_11_ + 62 x_40_ * x_11_ - 64 x_31_ * x_12_ + 16 x_40_ * x_12_ - 6 x_31_ * x_23_ - 12 x_32_ * x_23_ - 22 x_40_ * x_23_ + 80 x_40_ * x_31_ ] <= -22137
quadratic_ranged_37_ub: [ 26 x_4_ * x_5_ - 74 x_24_ * x_4_ + 84 x_24_ * x_5_ - 48 x_41_ * x_5_ - 48 x_48_ * x_5_ - 30 x_17_ * x_11_ - 20 x_48_ * x_11_ - 54 x_48_ * x_13_ + 6 x_48_ * x_17_ - 48 x_48_ * x_46_ ] <= -5217
quadratic_ranged_38_ub: [ 88 x_9_ * x_16_ + 82 x_31_ * x_9_ - 62 x_19_ * x_16_ + 32 x_25_ * x_16_ + 90 x_24_ * x_19_ - 42 x_31_ * x_19_ + 64 x_30_ * x_24_ + 18 x_30_ * x_25_ + 74 x_44_ * x_30_ ] <= -17383
quadratic_ranged_39_ub: [ -10 x_3_ * x_9_ - 36 x_41_ * x_3_ - 30 x_10_ * x_9_ + 12 x_46_ * x_9_ + 22 x_19_ * x_10_ - 60 x_41_ * x_10_ ] <= 2316
quadratic_ranged_40_ub: [ -90 x_4_ * x_29_ + 56 x_31_ * x_4_ - 52 x_33_ * x_4_ - 6 x_44_ * x_4_ + 80 x_23_ * x_17_ - 20 x_33_ * x_17_ - 82 x_36_ * x_17_ + 26 x_44_ * x_17_ - 48 x_36_ * x_18_ + 64 x_31_ * x_19_ + 78 x_31_ * x_23_ + 20 x_36_ * x_23_ - 60 x_33_ * x_31_ ] <= 20857
quadratic_ranged_41_ub: [ 16 x_7_ * x_23_ - 76 x_48_ * x_7_ + 44 x_27_ * x_8_ + 66 x_41_ * x_8_ + 38 x_45_ * x_8_ + 58 x_23_ * x_11_ + 26 x_34_ * x_11_ - 10 x_45_ * x_11_ + 10 x_34_ * x_23_ + 72 x_35_ * x_23_ + 26 x_36_ * x_30_ + 58 x_45_ * x_41_ ] <= -6441
quadratic_ranged_42_ub: [ -50 x_1_ * x_46_ + 6 x_13_ * x_5_ - 70 x_46_ * x_5_ + 80 x_32_ * x_13_ - 54 x_37_ * x_26_ - 78 x_47_ * x_26_ - 52 x_48_ * x_37_ - 32 x_47_ * x_46_ ] <= -3784
quadratic_ranged_43_ub: [ -56 x_3_ * x_45_ - 42 x_48_ * x_3_ + 28 x_47_ * x_15_ - 28 x_34_ * x_29_ + 28 x_45_ * x_29_ - 34 x_48_ * x_29_ - 70 x_50_ * x_34_ + 14 x_45_ * x_37_ - 40 x_45_ * x_43_ - 76 x_50_ * x_43_ ] <= 1651
quadratic_ranged_44_ub: [ -52 x_10_ * x_35_ + 2 x_50_ * x_10_ - 28 x_32_ * x_11_ + 92 x_50_ * x_11_ + 84 x_32_ * x_19_ + 34 x_40_ * x_35_ - 74 x_44_ * x_40_ ] <= 8599
quadratic_ranged_45_ub: [ -86 x_1_ * x_30_ + 34 x_31_ * x_1_ + 66 x_38_ * x_3_ - 96 x_41_ * x_3_ + 80 x_42_ * x_3_ - 68 x_11_ * x_6_ - 78 x_38_ * x_6_ - 84 x_42_ * x_6_ - 14 x_43_ * x_6_ - 94 x_29_ * x_11_ + 60 x_41_ * x_11_ - 50 x_43_ * x_11_ + 26 x_29_ * x_17_ - 24 x_41_ * x_29_ - 40 x_42_ * x_29_ - 2 x_42_ * x_30_ - 8 x_41_ * x_31_ + 94 x_43_ * x_31_ - 54 x_42_ * x_38_ ] <= 7810
quadratic_ranged_46_ub: [ 8 x_1_ * x_13_ + 54 x_22_ * x_1_ - 82 x_36_ * x_1_ + 16 x_42_ * x_1_ - 30 x_16_ * x_4_ + 88 x_22_ * x_4_ + 4 x_29_ * x_4_ - 28 x_45_ * x_4_ + 54 x_48_ * x_4_ - 18 x_16_ * x_10_ - 76 x_17_ * x_10_ - 70 x_17_ * x_13_ + 30 x_29_ * x_13_ - 2 x_34_ * x_13_ + 60 x_36_ * x_13_ + 70 x_45_ * x_16_ + 18 x_22_ * x_17_ + 48 x_45_ * x_17_ - 48 x_29_ * x_22_ + 64 x_48_ * x_22_ - 2 x_34_ * x_29_ - 4 x_36_ * x_29_ + 44 x_42_ * x_29_ - 88 x_47_ * x_29_ - 70 x_36_ * x_34_ + 92 x_48_ * x_42_ ] <= -4547
quadratic_ranged_47_ub: [ -96 x_1_ * x_33_ + 6 x_36_ * x_1_ + 20 x_16_ * x_3_ - 16 x_26_ * x_3_ + 30 x_47_ * x_11_ + 40 x_38_ * x_16_ + 90 x_39_ * x_16_ + 88 x_45_ * x_16_ - 96 x_50_ * x_26_ + 36 x_36_ * x_30_ + 36 x_45_ * x_30_ + 28 x_36_ * x_33_ + 32 x_45_ * x_33_ - 48 x_39_ * x_36_ - 98 x_47_ * x_39_ - 14 x_47_ * x_45_ ] <= -2027
quadratic_ranged_48_ub: [ 54 x_2_ * x_38_ + 24 x_22_ * x_6_ - 14 x_36_ * x_6_ + 80 x_36_ * x_8_ - 50 x_28_ * x_22_ - 76 x_38_ * x_36_ ] <= -7247
quadratic_ranged_49_ub: [ -82 x_4_ * x_13_ + 22 x_47_ * x_4_ + 96 x_32_ * x_11_ + 20 x_35_ * x_11_ - 50 x_32_ * x_28_ + 28 x_35_ * x_28_ - 60 x_46_ * x_32_ + 30 x_47_ * x_35_ ] <= -885
quadratic_ranged_50_ub: [ 90 x_1_ * x_13_ + 50 x_22_ * x_1_ - 72 x_25_ * x_1_ - 72 x_31_ * x_1_ - 8 x_39_ * x_8_ + 24 x_45_ * x_8_ + 88 x_22_ * x_10_ + 46 x_36_ * x_10_ - 24 x_42_ * x_10_ + 94 x_22_ * x_13_ - 86 x_26_ * x_13_ - 94 x_31_ * x_13_ - 42 x_39_ * x_13_ - 100 x_36_ * x_23_ + 92 x_29_ * x_26_ - 70 x_31_ * x_26_ - 10 x_42_ * x_26_ - 30 x_45_ * x_26_ + 46 x_39_ * x_36_ - 68 x_42_ * x_36_ ] <= -2635
quadratic_ranged_51_ub: [ 70 x_11_ * x_14_ + 40 x_46_ * x_11_ - 8 x_48_ * x_15_ + 80 x_46_ * x_33_ - 8 x_46_ * x_38_ + 64 x_47_ * x_40_ + 16 x_48_ * x_40_ ] <= 17
quadratic_ranged_52_ub: [ 40 x_10_ * x_17_ - 32 x_30_ * x_10_ + 30 x_22_ * x_14_ - 70 x_30_ * x_14_ + 98 x_32_ * x_14_ - 2 x_35_ * x_14_ - 70 x_22_ * x_17_ - 52 x_24_ * x_17_ + 82 x_35_ * x_17_ + 4 x_48_ * x_17_ - 76 x_24_ * x_22_ + 78 x_31_ * x_22_ - 8 x_30_ * x_24_ - 32 x_50_ * x_30_ + 28 x_41_ * x_32_ + 78 x_48_ * x_32_ ] <= 1469
quadratic_ranged_53_ub: [ -34 x_5_ * x_11_ - 70 x_12_ * x_5_ + 36 x_38_ * x_5_ + 82 x_24_ * x_9_ - 30 x_26_ * x_9_ + 24 x_38_ * x_9_ + 20 x_24_ * x_11_ - 98 x_29_ * x_11_ - 36 x_40_ * x_11_ + 20 x_49_ * x_11_ - 72 x_29_ * x_12_ + 60 x_37_ * x_12_ + 68 x_37_ * x_24_ - 24 x_28_ * x_26_ + 64 x_49_ * x_26_ - 36 x_38_ * x_28_ - 32 x_40_ * x_29_ + 10 x_40_ * x_38_ + 18 x_49_ * x_40_ ] <= 3739
quadratic_ranged_54_ub: [ 84 x_5_ * x_6_ - 66 x_49_ * x_5_ ] <= 2142
quadratic_ranged_55_ub: [ -42 x_11_ * x_14_ - 50 x_22_ * x_11_ + 38 x_43_ * x_11_ + 56 x_37_ * x_14_ - 58 x_43_ * x_14_ - 48 x_48_ * x_22_ + 64 x_45_ * x_37_ - 26 x_48_ * x_45_ ] <= -2541
quadratic_ranged_56_ub: [ 4 x_1_ * x_30_ - 76 x_30_ * x_13_ - 14 x_35_ * x_13_ + 64 x_30_ * x_25_ - 72 x_37_ * x_30_ ] <= -3958
quadratic_ranged_57_ub: [ 94 x_1_ * x_6_ + 14 x_15_ * x_7_ + 94 x_10_ * x_9_ + 82 x_14_ * x_10_ - 24 x_19_ * x_10_ - 96 x_17_ * x_13_ + 92 x_19_ * x_17_ - 38 x_24_ * x_19_ + 46 x_34_ * x_19_ + 18 x_34_ * x_24_ ] <= 811
quadratic_ranged_58_ub: [ 90 x_5_ * x_42_ + 30 x_16_ * x_15_ - 28 x_28_ * x_15_ + 98 x_28_ * x_23_ ] <= 2285
quadratic_ranged_59_ub: [ -8 x_9_ * x_25_ + 76 x_32_ * x_9_ - 82 x_46_ * x_9_ + 70 x_27_ * x_17_ + 74 x_41_ * x_17_ + 62 x_46_ * x_17_ - 34 x_32_ * x_27_ + 82 x_41_ * x_32_ + 76 x_42_ * x_32_ - 52 x_46_ * x_32_ + 64 x_46_ * x_41_ ] <= 25
quadratic_ranged_1_lb: [ 16 x_1_ * x_33_ - 22 x_36_ * x_1_ + 68 x_12_ * x_9_ - 22 x_13_ * x_12_ + 82 x_33_ * x_12_ + 8 x_43_ * x_12_ + 6 x_47_ * x_23_ ] >= -1874
quadratic_ranged_2_lb: [ -4 x_20_ * x_22_ + 30 x_24_ * x_20_ - 78 x_26_ * x_20_ - 94 x_48_ * x_20_ - 80 x_47_ * x_22_ + 78 x_42_ * x_26_ - 88 x_46_ * x_26_ + 70 x_46_ * x_42_ + 48 x_48_ * x_42_ ] >= 772
quadratic_ranged_3_lb: [ -68 x_4_ * x_47_ - 62 x_32_ * x_12_ - 78 x_47_ * x_17_ - 90 x_48_ * x_24_ - 94 x_32_ * x_29_ - 14 x_46_ * x_29_ ] >= -8278
quadratic_ranged_4_lb: [ -12 x_3_ * x_9_ + 54 x_10_ * x_3_ - 14 x_7_ * x_4_ + 46 x_28_ * x_4_ + 86 x_31_ * x_4_ + 16 x_40_ * x_4_ - 26 x_28_ * x_7_ + 36 x_48_ * x_7_ - 52 x_40_ * x_8_ + 84 x_48_ * x_8_ + 86 x_33_ * x_9_ - 84 x_40_ * x_9_ + 80 x_48_ * x_9_ + 80 x_31_ * x_10_ + 78 x_21_ * x_14_ - 24 x_33_ * x_14_ - 60 x_32_ * x_21_ - 74 x_40_ * x_28_ + 16 x_40_ * x_31_ + 38 x_50_ * x_31_ - 86 x_48_ * x_40_ ] >= 177
quadratic_ranged_5_lb: [ 88 x_3_ * x_26_ - 42 x_47_ * x_3_ + 100 x_26_ * x_7_ - 54 x_35_ * x_7_ + 42 x_26_ * x_9_ - 42 x_31_ * x_9_ - 66 x_37_ * x_9_ - 10 x_47_ * x_9_ - 14 x_26_ * x_20_ - 8 x_42_ * x_20_ - 50 x_46_ * x_20_ - 20 x_31_ * x_22_ + 48 x_44_ * x_22_ - 4 x_46_ * x_22_ + 84 x_37_ * x_26_ - 98 x_42_ * x_37_ + 26 x_47_ * x_37_ ] >= 14697
quadratic_ranged_6_lb: [ -30 x_5_ * x_13_ + 66 x_25_ * x_9_ + 30 x_48_ * x_9_ + 100 x_43_ * x_26_ - 14 x_43_ * x_42_ ] >= -1189
quadratic_ranged_7_lb: [ -28 x_1_ * x_10_ + 68 x_33_ * x_1_ - 96 x_50_ * x_1_ - 18 x_10_ * x_2_ + 74 x_33_ * x_2_ - 58 x_49_ * x_2_ + 44 x_24_ * x_10_ + 46 x_49_ * x_10_ - 18 x_33_ * x_13_ - 82 x_50_ * x_13_ - 30 x_38_ * x_32_ - 24 x_38_ * x_33_ + 28 x_41_ * x_33_ + 36 x_50_ * x_33_ - 16 x_49_ * x_38_ ] >= 2052
quadratic_ranged_8_lb: [ 6 x_2_ * x_5_ - 62 x_17_ * x_2_ - 98 x_35_ * x_2_ + 10 x_7_ * x_5_ - 82 x_23_ * x_5_ + 2 x_40_ * x_5_ + 58 x_50_ * x_5_ - 16 x_43_ * x_7_ + 58 x_23_ * x_15_ - 60 x_35_ * x_15_ - 60 x_46_ * x_15_ - 88 x_34_ * x_17_ + 92 x_39_ * x_21_ - 42 x_46_ * x_21_ - 84 x_35_ * x_23_ - 80 x_46_ * x_23_ - 82 x_39_ * x_34_ + 4 x_39_ * x_35_ + 16 x_40_ * x_35_ + 56 x_50_ * x_35_ - 72 x_43_ * x_39_ - 50 x_43_ * x_40_ + 32 x_50_ * x_40_ ] >= 6502
quadratic_ranged_9_lb: [ -36 x_1_ * x_31_ + 56 x_31_ * x_6_ - 46 x_26_ * x_18_ - 80 x_43_ * x_26_ - 74 x_39_ * x_31_ + 22 x_40_ * x_31_ + 58 x_39_ * x_32_ + 82 x_40_ * x_32_ - 44 x_40_ * x_39_ ] >= -7928
quadratic_ranged_10_lb: [ -100 x_5_ * x_10_ - 64 x_21_ * x_5_ - 56 x_28_ * x_5_ - 98 x_13_ * x_10_ + 2 x_29_ * x_11_ - 50 x_48_ * x_11_ + 38 x_29_ * x_16_ - 48 x_34_ * x_21_ + 76 x_34_ * x_29_ + 44 x_48_ * x_34_ - 76 x_48_ * x_46_ ] >= -11301
quadratic_ranged_11_lb: [ 26 x_1_ * x_20_ + 62 x_39_ * x_1_ - 70 x_20_ * x_2_ + 6 x_9_ * x_6_ + 46 x_39_ * x_6_ - 88 x_26_ * x_9_ + 88 x_20_ * x_11_ - 60 x_39_ * x_26_ ] >= 352
quadratic_ranged_12_lb: [ -42 x_4_ * x_14_ - 36 x_23_ * x_4_ - 58 x_26_ * x_4_ + 52 x_33_ * x_4_ + 40 x_23_ * x_5_ + 76 x_12_ * x_6_ - 88 x_21_ * x_6_ - 46 x_23_ * x_6_ - 54 x_18_ * x_7_ - 22 x_20_ * x_7_ + 98 x_21_ * x_7_ - 82 x_33_ * x_7_ - 18 x_14_ * x_10_ + 22 x_16_ * x_10_ + 74 x_18_ * x_10_ + 78 x_14_ * x_12_ - 90 x_35_ * x_12_ - 78 x_16_ * x_13_ - 100 x_23_ * x_13_ + 48 x_33_ * x_13_ + 78 x_49_ * x_13_ + 38 x_26_ * x_14_ - 36 x_33_ * x_14_ - 6 x_35_ * x_14_ + 50 x_33_ * x_16_ + 64 x_23_ * x_18_ + 70 x_49_ * x_18_ + 60 x_21_ * x_20_ - 98 x_35_ * x_20_ - 8 x_49_ * x_20_ - 66 x_26_ * x_21_ - 50 x_33_ * x_21_ + 10 x_33_ * x_26_ + 88 x_35_ * x_26_ ] >= -6024
quadratic_ranged_13_lb: [ 60 x_35_ * x_47_ + 26 x_47_ * x_37_ ] >= -130
quadratic_ranged_14_lb: [ -64 x_3_ * x_9_ - 12 x_14_ * x_3_ + 66 x_20_ * x_13_ + 20 x_22_ * x_14_ + 60 x_28_ * x_21_ - 84 x_46_ * x_21_ ] >= 2548
quadratic_ranged_15_lb: [ 86 x_9_ * x_29_ - 88 x_33_ * x_13_ + 40 x_21_ * x_17_ - 50 x_33_ * x_21_ - 14 x_33_ * x_29_ ] >= -3817
quadratic_ranged_16_lb: [ -50 x_17_ * x_26_ - 100 x_29_ * x_17_ - 90 x_38_ * x_17_ + 66 x_39_ * x_17_ - 44 x_41_ * x_17_ - 4 x_47_ * x_17_ - 58 x_38_ * x_26_ - 14 x_39_ * x_29_ - 48 x_42_ * x_33_ - 84 x_46_ * x_33_ - 44 x_41_ * x_35_ + 54 x_39_ * x_37_ - 8 x_42_ * x_37_ - 22 x_42_ * x_38_ - 64 x_43_ * x_38_ + 64 x_46_ * x_38_ + 72 x_42_ * x_41_ + 52 x_43_ * x_41_ + 22 x_47_ * x_42_ + 82 x_47_ * x_46_ ] >= -13860
quadratic_ranged_17_lb: [ 44 x_5_ * x_13_ + 80 x_47_ * x_26_ + 92 x_47_ * x_42_ ] >= 1293
quadratic_ranged_18_lb: [ -2 x_12_ * x_41_ + 14 x_50_ * x_12_ - 84 x_35_ * x_22_ - 4 x_42_ * x_22_ + 86 x_44_ * x_35_ + 50 x_50_ * x_35_ - 52 x_38_ * x_36_ - 30 x_42_ * x_36_ - 42 x_44_ * x_41_ ] >= -1267
quadratic_ranged_19_lb: [ -92 x_3_ * x_6_ - 74 x_12_ * x_3_ + 42 x_30_ * x_3_ + 54 x_27_ * x_6_ + 2 x_8_ * x_7_ + 24 x_11_ * x_8_ - 56 x_44_ * x_8_ + 20 x_11_ * x_9_ + 28 x_39_ * x_9_ + 80 x_39_ * x_30_ ] >= -11920
quadratic_ranged_20_lb: [ 74 x_12_ * x_17_ + 6 x_32_ * x_12_ + 30 x_17_ * x_16_ - 20 x_46_ * x_23_ - 76 x_39_ * x_32_ + 52 x_41_ * x_32_ - 46 x_44_ * x_39_ - 86 x_49_ * x_39_ - 16 x_43_ * x_41_ + 60 x_49_ * x_46_ ] >= -2399
quadratic_ranged_21_lb: [ 48 x_9_ * x_43_ + 14 x_37_ * x_23_ + 52 x_38_ * x_23_ + 92 x_44_ * x_23_ ] >= -2994
quadratic_ranged_22_lb: [ 50 x_2_ * x_11_ - 94 x_14_ * x_2_ - 56 x_27_ * x_2_ + 14 x_42_ * x_2_ - 70 x_44_ * x_2_ - 100 x_14_ * x_11_ + 62 x_36_ * x_11_ - 94 x_47_ * x_11_ - 94 x_47_ * x_12_ - 44 x_26_ * x_14_ + 32 x_37_ * x_14_ - 48 x_47_ * x_14_ + 90 x_42_ * x_26_ + 50 x_42_ * x_36_ + 98 x_47_ * x_42_ ] >= 2760
quadratic_ranged_23_lb: [ -50 x_3_ * x_25_ + 18 x_31_ * x_3_ + 96 x_41_ * x_8_ + 20 x_35_ * x_21_ + 18 x_41_ * x_21_ + 52 x_37_ * x_25_ - 96 x_31_ * x_29_ + 4 x_37_ * x_29_ ] >= -5055
quadratic_ranged_24_lb: [ -96 x_5_ * x_15_ + 88 x_46_ * x_5_ + 4 x_41_ * x_11_ - 48 x_42_ * x_15_ - 16 x_44_ * x_15_ - 52 x_41_ * x_37_ - 24 x_44_ * x_37_ - 96 x_44_ * x_41_ - 88 x_46_ * x_41_ - 62 x_44_ * x_42_ - 36 x_46_ * x_42_ + 2 x_46_ * x_44_ ] >= 3416
quadratic_ranged_25_lb: [ -4 x_5_ * x_7_ - 38 x_33_ * x_27_ - 36 x_47_ * x_27_ - 80 x_44_ * x_32_ ] >= 449
quadratic_ranged_26_lb: [ -64 x_8_ * x_38_ + 84 x_50_ * x_12_ - 82 x_50_ * x_19_ + 86 x_50_ * x_38_ ] >= 4631
quadratic_ranged_27_lb: [ 44 x_10_ * x_17_ + 78 x_17_ * x_15_ + 100 x_31_ * x_15_ + 58 x_32_ * x_15_ - 50 x_28_ * x_17_ + 64 x_31_ * x_28_ ] >= -1294
quadratic_ranged_28_lb: [ -22 x_4_ * x_6_ + 6 x_11_ * x_4_ - 4 x_42_ * x_4_ - 2 x_46_ * x_4_ + 8 x_42_ * x_6_ + 68 x_48_ * x_6_ - 4 x_14_ * x_11_ - 80 x_18_ * x_11_ - 72 x_38_ * x_14_ + 88 x_45_ * x_14_ + 44 x_48_ * x_14_ + 86 x_45_ * x_18_ - 52 x_46_ * x_18_ - 24 x_25_ * x_23_ - 56 x_45_ * x_23_ + 66 x_38_ * x_25_ - 92 x_45_ * x_25_ - 78 x_47_ * x_42_ - 16 x_46_ * x_45_ + 12 x_48_ * x_46_ ] >= -9484
quadratic_ranged_29_lb: [ -96 x_1_ * x_4_ - 90 x_17_ * x_1_ + 76 x_33_ * x_1_ - 48 x_7_ * x_3_ + 78 x_33_ * x_4_ - 80 x_49_ * x_4_ + 12 x_29_ * x_7_ + 2 x_41_ * x_7_ - 28 x_18_ * x_17_ - 10 x_29_ * x_18_ - 54 x_47_ * x_18_ + 56 x_33_ * x_22_ + 16 x_41_ * x_22_ + 38 x_29_ * x_24_ - 20 x_49_ * x_24_ + 86 x_33_ * x_29_ + 30 x_41_ * x_29_ - 54 x_49_ * x_33_ - 62 x_49_ * x_41_ ] >= -13929
quadratic_ranged_30_lb: [ -28 x_3_ * x_18_ + 80 x_18_ * x_6_ - 66 x_24_ * x_6_ + 14 x_25_ * x_6_ - 46 x_47_ * x_14_ + 38 x_25_ * x_18_ + 80 x_35_ * x_18_ - 84 x_48_ * x_24_ + 44 x_35_ * x_25_ - 6 x_41_ * x_25_ - 72 x_44_ * x_26_ - 54 x_35_ * x_30_ - 76 x_41_ * x_30_ + 82 x_47_ * x_30_ - 28 x_44_ * x_35_ + 32 x_44_ * x_41_ + 86 x_48_ * x_47_ ] >= 2502
quadratic_ranged_31_lb: [ -34 x_8_ * x_36_ + 16 x_43_ * x_14_ + 58 x_36_ * x_19_ + 26 x_43_ * x_30_ ] >= -1231
quadratic_ranged_32_lb: [ 6 x_8_ * x_16_ + 18 x_49_ * x_8_ + 74 x_30_ * x_16_ + 62 x_49_ * x_16_ + 54 x_30_ * x_17_ + 74 x_49_ * x_17_ - 78 x_25_ * x_21_ - 24 x_45_ * x_21_ - 94 x_46_ * x_21_ + 100 x_28_ * x_25_ + 74 x_37_ * x_25_ + 96 x_49_ * x_25_ + 44 x_47_ * x_28_ + 46 x_49_ * x_45_ ] >= 2692
quadratic_ranged_33_lb: [ 88 x_6_ * x_23_ - 38 x_48_ * x_18_ + 46 x_48_ * x_38_ ] >= 2816
quadratic_ranged_34_lb: [ 84 x_6_ * x_13_ + 34 x_35_ * x_6_ - 18 x_38_ * x_13_ - 46 x_26_ * x_17_ + 34 x_35_ * x_17_ - 28 x_38_ * x_17_ + 4 x_26_ * x_24_ - 74 x_35_ * x_24_ - 74 x_35_ * x_26_ + 82 x_38_ * x_35_ ] >= -309
quadratic_ranged_35_lb: [ -42 x_9_ * x_28_ + 86 x_28_ * x_11_ + 20 x_38_ * x_11_ ] >= 23
quadratic_ranged_36_lb: [ 10 x_3_ * x_4_ - 2 x_31_ * x_3_ + 88 x_50_ * x_3_ + 46 x_31_ * x_4_ - 64 x_40_ * x_4_ - 54 x_50_ * x_4_ + 92 x_23_ * x_11_ + 62 x_40_ * x_11_ - 64 x_31_ * x_12_ + 16 x_40_ * x_12_ - 6 x_31_ * x_23_ - 12 x_32_ * x_23_ - 22 x_40_ * x_23_ + 80 x_40_ * x_31_ ] >= -22143
quadratic_ranged_37_lb: [ 26 x_4_ * x_5_ - 74 x_24_ * x_4_ + 84 x_24_ * x_5_ - 48 x_41_ * x_5_ - 48 x_48_ * x_5_ - 30 x_17_ * x_11_ - 20 x_48_ * x_11_ - 54 x_48_ * x_13_ + 6 x_48_ * x_17_ - 48 x_48_ * x_46_ ] >= -5226
quadratic_ranged_38_lb: [ 88 x_9_ * x_16_ + 82 x_31_ * x_9_ - 62 x_19_ * x_16_ + 32 x_25_ * x_16_ + 90 x_24_ * x_19_ - 42 x_31_ * x_19_ + 64 x_30_ * x_24_ + 18 x_30_ * x_25_ + 74 x_44_ * x_30_ ] >= -17388
quadratic_ranged_39_lb: [ -10 x_3_ * x_9_ - 36 x_41_ * x_3_ - 30 x_10_ * x_9_ + 12 x_46_ * x_9_ + 22 x_19_ * x_10_ - 60 x_41_ * x_10_ ] >= 2312
quadratic_ranged_40_lb: [ -90 x_4_ * x_29_ + 56 x_31_ * x_4_ - 52 x_33_ * x_4_ - 6 x_44_ * x_4_ + 80 x_23_ * x_17_ - 20 x_33_ * x_17_ - 82 x_36_ * x_17_ + 26 x_44_ * x_17_ - 48 x_36_ * x_18_ + 64 x_31_ * x_19_ + 78 x_31_ * x_23_ + 20 x_36_ * x_23_ - 60 x_33_ * x_31_ ] >= 20854
quadratic_ranged_41_lb: [ 16 x_7_ * x_23_ - 76 x_48_ * x_7_ + 44 x_27_ * x_8_ + 66 x_41_ * x_8_ + 38 x_45_ * x_8_ + 58 x_23_ * x_11_ + 26 x_34_ * x_11_ - 10 x_45_ * x_11_ + 10 x_34_ * x_23_ + 72 x_35_ * x_23_ + 26 x_36_ * x_30_ + 58 x_45_ * x_41_ ] >= -6446
quadratic_ranged_42_lb: [ -50 x_1_ * x_46_ + 6 x_13_ * x_5_ - 70 x_46_ * x_5_ + 80 x_32_ * x_13_ - 54 x_37_ * x_26_ - 78 x_47_ * x_26_ - 52 x_48_ * x_37_ - 32 x_47_ * x_46_ ] >= -3787
quadratic_ranged_43_lb: [ -56 x_3_ * x_45_ - 42 x_48_ * x_3_ + 28 x_47_ * x_15_ - 28 x_34_ * x_29_ + 28 x_45_ * x_29_ - 34 x_48_ * x_29_ - 70 x_50_ * x_34_ + 14 x_45_ * x_37_ - 40 x_45_ * x_43_ - 76 x_50_ * x_43_ ] >= 1647
quadratic_ranged_44_lb: [ -52 x_10_ * x_35_ + 2 x_50_ * x_10_ - 28 x_32_ * x_11_ + 92 x_50_ * x_11_ + 84 x_32_ * x_19_ + 34 x_40_ * x_35_ - 74 x_44_ * x_40_ ] >= 8594
quadratic_ranged_45_lb: [ -86 x_1_ * x_30_ + 34 x_31_ * x_1_ + 66 x_38_ * x_3_ - 96 x_41_ * x_3_ + 80 x_42_ * x_3_ - 68 x_11_ * x_6_ - 78 x_38_ * x_6_ - 84 x_42_ * x_6_ - 14 x_43_ * x_6_ - 94 x_29_ * x_11_ + 60 x_41_ * x_11_ - 50 x_43_ * x_11_ + 26 x_29_ * x_17_ - 24 x_41_ * x_29_ - 40 x_42_ * x_29_ - 2 x_42_ * x_30_ - 8 x_41_ * x_31_ + 94 x_43_ * x_31_ - 54 x_42_ * x_38_ ] >= 7802
quadratic_ranged_46_lb: [ 8 x_1_ * x_13_ + 54 x_22_ * x_1_ - 82 x_36_ * x_1_ + 16 x_42_ * x_1_ - 30 x_16_ * x_4_ + 88 x_22_ * x_4_ + 4 x_29_ * x_4_ - 28 x_45_ * x_4_ + 54 x_48_ * x_4_ - 18 x_16_ * x_10_ - 76 x_17_ * x_10_ - 70 x_17_ * x_13_ + 30 x_29_ * x_13_ - 2 x_34_ * x_13_ + 60 x_36_ * x_13_ + 70 x_45_ * x_16_ + 18 x_22_ * x_17_ + 48 x_45_ * x_17_ - 48 x_29_ * x_22_ + 64 x_48_ * x_22_ - 2 x_34_ * x_29_ - 4 x_36_ * x_29_ + 44 x_42_ * x_29_ - 88 x_47_ * x_29_ - 70 x_36_ * x_34_ + 92 x_48_ * x_42_ ] >= -4552
quadratic_ranged_47_lb: [ -96 x_1_ * x_33_ + 6 x_36_ * x_1_ + 20 x_16_ * x_3_ - 16 x_26_ * x_3_ + 30 x_47_ * x_11_ + 40 x_38_ * x_16_ + 90 x_39_ * x_16_ + 88 x_45_ * x_16_ - 96 x_50_ * x_26_ + 36 x_36_ * x_30_ + 36 x_45_ * x_30_ + 28 x_36_ * x_33_ + 32 x_45_ * x_33_ - 48 x_39_ * x_36_ - 98 x_47_ * x_39_ - 14 x_47_ * x_45_ ] >= -2037
quadratic_ranged_48_lb: [ 54 x_2_ * x_38_ + 24 x_22_ * x_6_ - 14 x_36_ * x_6_ + 80 x_36_ * x_8_ - 50 x_28_ * x_22_ - 76 x_38_ * x_36_ ] >= -7255
quadratic_ranged_49_lb: [ -82 x_4_ * x_13_ + 22 x_47_ * x_4_ + 96 x_32_ * x_11_ + 20 x_35_ * x_11_ - 50 x_32_ * x_28_ + 28 x_35_ * x_28_ - 60 x_46_ * x_32_ + 30 x_47_ * x_35_ ] >= -890
quadratic_ranged_50_lb: [ 90 x_1_ * x_13_ + 50 x_22_ * x_1_ - 72 x_25_ * x_1_ - 72 x_31_ * x_1_ - 8 x_39_ * x_8_ + 24 x_45_ * x_8_ + 88 x_22_ * x_10_ + 46 x_36_ * x_10_ - 24 x_42_ * x_10_ + 94 x_22_ * x_13_ - 86 x_26_ * x_13_ - 94 x_31_ * x_13_ - 42 x_39_ * x_13_ - 100 x_36_ * x_23_ + 92 x_29_ * x_26_ - 70 x_31_ * x_26_ - 10 x_42_ * x_26_ - 30 x_45_ * x_26_ + 46 x_39_ * x_36_ - 68 x_42_ * x_36_ ] >= -2643
quadratic_ranged_51_lb: [ 70 x_11_ * x_14_ + 40 x_46_ * x_11_ - 8 x_48_ * x_15_ + 80 x_46_ * x_33_ - 8 x_46_ * x_38_ + 64 x_47_ * x_40_ + 16 x_48_ * x_40_ ] >= 12
quadratic_ranged_52_lb: [ 40 x_10_ * x_17_ - 32 x_30_ * x_10_ + 30 x_22_ * x_14_ - 70 x_30_ * x_14_ + 98 x_32_ * x_14_ - 2 x_35_ * x_14_ - 70 x_22_ * x_17_ - 52 x_24_ * x_17_ + 82 x_35_ * x_17_ + 4 x_48_ * x_17_ - 76 x_24_ * x_22_ + 78 x_31_ * x_22_ - 8 x_30_ * x_24_ - 32 x_50_ * x_30_ + 28 x_41_ * x_32_ + 78 x_48_ * x_32_ ] >= 1468
quadratic_ranged_53_lb: [ -34 x_5_ * x_11_ - 70 x_12_ * x_5_ + 36 x_38_ * x_5_ + 82 x_24_ * x_9_ - 30 x_26_ * x_9_ + 24 x_38_ * x_9_ + 20 x_24_ * x_11_ - 98 x_29_ * x_11_ - 36 x_40_ * x_11_ + 20 x_49_ * x_11_ - 72 x_29_ * x_12_ + 60 x_37_ * x_12_ + 68 x_37_ * x_24_ - 24 x_28_ * x_26_ + 64 x_49_ * x_26_ - 36 x_38_ * x_28_ - 32 x_40_ * x_29_ + 10 x_40_ * x_38_ + 18 x_49_ * x_40_ ] >= 3736
quadratic_ranged_54_lb: [ 84 x_5_ * x_6_ - 66 x_49_ * x_5_ ] >= 2140
quadratic_ranged_55_lb: [ -42 x_11_ * x_14_ - 50 x_22_ * x_11_ + 38 x_43_ * x_11_ + 56 x_37_ * x_14_ - 58 x_43_ * x_14_ - 48 x_48_ * x_22_ + 64 x_45_ * x_37_ - 26 x_48_ * x_45_ ] >= -2546
quadratic_ranged_56_lb: [ 4 x_1_ * x_30_ - 76 x_30_ * x_13_ - 14 x_35_ * x_13_ + 64 x_30_ * x_25_ - 72 x_37_ * x_30_ ] >= -3961
quadratic_ranged_57_lb: [ 94 x_1_ * x_6_ + 14 x_15_ * x_7_ + 94 x_10_ * x_9_ + 82 x_14_ * x_10_ - 24 x_19_ * x_10_ - 96 x_17_ * x_13_ + 92 x_19_ * x_17_ - 38 x_24_ * x_19_ + 46 x_34_ * x_19_ + 18 x_34_ * x_24_ ] >= 803
quadratic_ranged_58_lb: [ 90 x_5_ * x_42_ + 30 x_16_ * x_15_ - 28 x_28_ * x_15_ + 98 x_28_ * x_23_ ] >= 2278
quadratic_ranged_59_lb: [ -8 x_9_ * x_25_ + 76 x_32_ * x_9_ - 82 x_46_ * x_9_ + 70 x_27_ * x_17_ + 74 x_41_ * x_17_ + 62 x_46_ * x_17_ - 34 x_32_ * x_27_ + 82 x_41_ * x_32_ + 76 x_42_ * x_32_ - 52 x_46_ * x_32_ + 64 x_46_ * x_41_ ] >= 15
c1: [ 30 x_15_ * x_28_ ] = -120
c2: [ -52 x_2_ * x_45_ - 32 x_19_ * x_4_ + 22 x_19_ * x_16_ + 52 x_45_ * x_18_ ] = 1402
c3: [ 78 x_8_ * x_37_ - 6 x_47_ * x_8_ - 98 x_50_ * x_8_ - 62 x_14_ * x_9_ - 2 x_50_ * x_9_ - 100 x_37_ * x_14_ + 42 x_38_ * x_14_ - 26 x_40_ * x_14_ + 100 x_37_ * x_22_ + 70 x_37_ * x_35_ + 84 x_38_ * x_35_ + 30 x_47_ * x_40_ ] = 6350
c4: [ -56 x_8_ * x_9_ - 70 x_22_ * x_8_ + 14 x_36_ * x_9_ ] = 2520
c5: [ 44 x_3_ * x_21_ + 48 x_23_ * x_3_ - 80 x_42_ * x_3_ - 100 x_17_ * x_4_ + 84 x_30_ * x_4_ + 92 x_39_ * x_4_ + 14 x_47_ * x_4_ - 34 x_17_ * x_10_ + 10 x_21_ * x_10_ + 4 x_35_ * x_10_ + 24 x_43_ * x_16_ - 2 x_47_ * x_16_ - 40 x_43_ * x_17_ - 70 x_49_ * x_17_ + 36 x_43_ * x_21_ - 64 x_30_ * x_23_ + 74 x_47_ * x_23_ - 20 x_43_ * x_39_ - 46 x_49_ * x_47_ ] = 6654
c6: [ 2 x_2_ * x_35_ + 52 x_41_ * x_2_ - 30 x_43_ * x_2_ - 60 x_19_ * x_9_ + 64 x_28_ * x_9_ - 48 x_34_ * x_9_ + 24 x_37_ * x_9_ + 30 x_35_ * x_19_ + 88 x_43_ * x_19_ - 2 x_37_ * x_28_ - 84 x_35_ * x_34_ + 20 x_37_ * x_34_ + 36 x_41_ * x_35_ ] = -7352
c7: [ -68 x_3_ * x_14_ - 90 x_23_ * x_3_ - 94 x_15_ * x_14_ + 32 x_16_ * x_14_ + 38 x_22_ * x_14_ + 52 x_25_ * x_15_ - 54 x_28_ * x_19_ - 82 x_23_ * x_22_ - 28 x_28_ * x_25_ - 60 x_36_ * x_25_ - 86 x_46_ * x_25_ + 66 x_46_ * x_28_ ] = -7154
c8: [ 62 x_2_ * x_7_ + 16 x_50_ * x_34_ ] = 3244
c9: [ -84 x_3_ * x_44_ - 86 x_21_ * x_17_ - 34 x_46_ * x_41_ - 80 x_46_ * x_44_ ] = 3186
c10: [ -10 x_14_ * x_19_ + 94 x_20_ * x_14_ - 100 x_27_ * x_14_ + 50 x_41_ * x_14_ - 94 x_42_ * x_14_ + 46 x_20_ * x_19_ - 20 x_41_ * x_24_ + 54 x_41_ * x_33_ ] = -1440
c11: [ 80 x_10_ * x_29_ + 82 x_30_ * x_10_ + 12 x_29_ * x_22_ + 78 x_38_ * x_22_ + 40 x_38_ * x_30_ - 4 x_41_ * x_34_ ] = 5810
c12: [ 42 x_2_ * x_14_ - 54 x_31_ * x_2_ - 88 x_38_ * x_4_ - 6 x_45_ * x_7_ + 100 x_38_ * x_13_ - 12 x_45_ * x_13_ + 2 x_45_ * x_14_ - 48 x_31_ * x_21_ - 18 x_38_ * x_21_ - 20 x_38_ * x_30_ ] = -9280
c13: [ 6 x_2_ * x_33_ - 82 x_12_ * x_9_ - 30 x_33_ * x_28_ + 78 x_41_ * x_28_ - 96 x_46_ * x_28_ - 70 x_40_ * x_33_ - 22 x_46_ * x_33_ + 28 x_46_ * x_45_ ] = 1516
c14: [ 38 x_2_ * x_37_ - 90 x_44_ * x_2_ + 62 x_19_ * x_12_ + 30 x_37_ * x_30_ ] = 9486
c15: [ -80 x_1_ * x_17_ + 36 x_45_ * x_1_ - 98 x_17_ * x_3_ + 4 x_21_ * x_3_ + 66 x_36_ * x_3_ + 58 x_45_ * x_3_ + 92 x_45_ * x_27_ + 78 x_45_ * x_33_ - 32 x_45_ * x_36_ ] = -17604
c16: [ -86 x_4_ * x_47_ - 14 x_22_ * x_17_ + 30 x_25_ * x_17_ + 8 x_26_ * x_19_ + 70 x_31_ * x_19_ - 18 x_26_ * x_25_ + 80 x_41_ * x_26_ - 74 x_48_ * x_26_ - 60 x_47_ * x_31_ + 32 x_48_ * x_31_ - 90 x_48_ * x_38_ ] = 5658
c17: [ -92 x_2_ * x_29_ - 40 x_41_ * x_2_ - 46 x_41_ * x_11_ + 62 x_41_ * x_18_ - 70 x_41_ * x_29_ ] = -4498
c18: [ -24 x_14_ * x_33_ + 54 x_50_ * x_14_ + 28 x_22_ * x_18_ - 86 x_50_ * x_25_ + 58 x_50_ * x_30_ - 94 x_36_ * x_33_ - 32 x_50_ * x_36_ ] = 992
c19: [ -82 x_1_ * x_23_ - 56 x_39_ * x_1_ + 84 x_46_ * x_1_ - 42 x_25_ * x_14_ - 8 x_31_ * x_14_ - 88 x_40_ * x_14_ - 68 x_42_ * x_14_ - 66 x_46_ * x_14_ - 36 x_23_ * x_22_ + 16 x_40_ * x_22_ - 92 x_45_ * x_25_ + 2 x_31_ * x_26_ + 64 x_39_ * x_26_ + 68 x_42_ * x_26_ + 24 x_40_ * x_28_ + 50 x_42_ * x_28_ - 82 x_33_ * x_31_ + 94 x_44_ * x_39_ + 60 x_42_ * x_40_ + 100 x_45_ * x_40_ ] = -28
c20: [ -100 x_5_ * x_8_ + 38 x_18_ * x_5_ + 92 x_16_ * x_7_ + 56 x_50_ * x_7_ + 88 x_41_ * x_16_ - 78 x_41_ * x_18_ + 58 x_27_ * x_22_ - 24 x_41_ * x_22_ - 4 x_50_ * x_22_ ] = -2924
c21: [ 52 x_2_ * x_4_ - 74 x_9_ * x_3_ - 90 x_50_ * x_3_ - 58 x_36_ * x_4_ + 48 x_9_ * x_7_ + 72 x_20_ * x_9_ - 46 x_36_ * x_9_ - 34 x_45_ * x_18_ - 16 x_23_ * x_20_ ] = 1020
c22: [ 18 x_10_ * x_24_ + 66 x_48_ * x_10_ - 44 x_16_ * x_15_ - 20 x_37_ * x_15_ - 96 x_37_ * x_16_ + 62 x_37_ * x_25_ - 34 x_37_ * x_34_ ] = 7658
c23: [ 70 x_4_ * x_9_ - 90 x_47_ * x_4_ - 24 x_19_ * x_9_ - 36 x_47_ * x_9_ - 78 x_49_ * x_9_ + 50 x_13_ * x_10_ - 34 x_36_ * x_10_ - 62 x_49_ * x_11_ - 52 x_19_ * x_13_ + 78 x_19_ * x_14_ - 60 x_47_ * x_14_ ] = -4046
c24: [ -62 x_5_ * x_19_ - 80 x_39_ * x_5_ + 50 x_41_ * x_5_ - 4 x_17_ * x_11_ + 50 x_40_ * x_11_ - 92 x_41_ * x_16_ + 8 x_19_ * x_17_ - 32 x_39_ * x_17_ - 38 x_39_ * x_23_ - 98 x_31_ * x_30_ + 28 x_40_ * x_31_ + 70 x_41_ * x_31_ ] = 1540
c25: [ -90 x_12_ * x_31_ - 42 x_31_ * x_26_ ] = -6216
c26: [ -18 x_25_ * x_40_ ] = 1458
c27: [ 92 x_2_ * x_20_ - 2 x_39_ * x_2_ + 6 x_20_ * x_7_ + 8 x_44_ * x_7_ - 40 x_20_ * x_15_ + 58 x_31_ * x_15_ - 38 x_34_ * x_15_ + 18 x_25_ * x_24_ ] = -5824
c28: [ 42 x_1_ * x_2_ - 50 x_16_ * x_1_ + 28 x_23_ * x_1_ - 22 x_29_ * x_1_ - 48 x_33_ * x_2_ - 24 x_18_ * x_4_ + 12 x_23_ * x_4_ + 32 x_33_ * x_4_ - 12 x_23_ * x_16_ + 38 x_33_ * x_16_ ] = 2384
c29: [ 6 x_7_ * x_42_ - 46 x_43_ * x_13_ - 34 x_42_ * x_14_ - 18 x_33_ * x_22_ ] = -748
c30: [ -42 x_1_ * x_8_ - 90 x_11_ * x_1_ - 34 x_15_ * x_1_ - 56 x_43_ * x_1_ - 36 x_50_ * x_1_ + 22 x_11_ * x_7_ + 78 x_41_ * x_7_ + 56 x_11_ * x_8_ - 36 x_37_ * x_11_ + 72 x_37_ * x_13_ - 56 x_39_ * x_13_ + 86 x_50_ * x_13_ - 86 x_34_ * x_19_ - 46 x_37_ * x_34_ + 28 x_39_ * x_34_ + 36 x_43_ * x_37_ + 10 x_50_ * x_39_ + 54 x_50_ * x_41_ ] = 22442
c31: [ -36 x_1_ * x_3_ - 22 x_19_ * x_1_ - 62 x_22_ * x_1_ + 76 x_45_ * x_1_ - 100 x_30_ * x_3_ + 2 x_45_ * x_3_ + 54 x_45_ * x_30_ ] = -10244
c32: [ 86 x_2_ * x_6_ + 22 x_22_ * x_2_ - 26 x_41_ * x_2_ + 92 x_21_ * x_6_ + 28 x_48_ * x_6_ - 22 x_45_ * x_14_ + 6 x_33_ * x_21_ - 82 x_31_ * x_22_ + 38 x_41_ * x_22_ - 62 x_35_ * x_24_ + 30 x_39_ * x_24_ - 18 x_33_ * x_25_ + 80 x_35_ * x_25_ + 88 x_41_ * x_25_ + 50 x_48_ * x_25_ - 20 x_35_ * x_31_ - 6 x_36_ * x_31_ + 68 x_35_ * x_33_ - 82 x_39_ * x_33_ - 4 x_48_ * x_36_ - 32 x_41_ * x_39_ + 14 x_48_ * x_41_ - 64 x_50_ * x_48_ ] = -4372
c33: [ -52 x_3_ * x_27_ - 82 x_28_ * x_3_ - 20 x_37_ * x_3_ + 84 x_46_ * x_3_ - 56 x_48_ * x_3_ + 14 x_37_ * x_22_ - 76 x_46_ * x_22_ - 96 x_28_ * x_27_ + 92 x_38_ * x_27_ + 58 x_48_ * x_27_ - 26 x_46_ * x_34_ + 18 x_48_ * x_38_ ] = 14688
c34: [ 16 x_7_ * x_14_ + 2 x_16_ * x_7_ + 26 x_23_ * x_7_ + 74 x_25_ * x_7_ + 76 x_49_ * x_14_ - 92 x_23_ * x_15_ + 50 x_25_ * x_15_ + 64 x_32_ * x_15_ + 30 x_34_ * x_15_ + 64 x_32_ * x_16_ + 14 x_49_ * x_16_ - 72 x_32_ * x_23_ + 42 x_34_ * x_32_ ] = 4302
c35: [ 24 x_10_ * x_23_ - 16 x_25_ * x_17_ + 28 x_36_ * x_17_ - 10 x_44_ * x_17_ - 68 x_25_ * x_23_ + 74 x_45_ * x_23_ - 32 x_45_ * x_44_ - 78 x_48_ * x_45_ ] = -5094
c36: [ -44 x_2_ * x_22_ - 100 x_29_ * x_2_ + 22 x_33_ * x_2_ + 74 x_36_ * x_2_ + 54 x_20_ * x_18_ + 44 x_24_ * x_18_ - 68 x_30_ * x_18_ - 62 x_33_ * x_18_ + 74 x_24_ * x_21_ + 72 x_35_ * x_21_ + 78 x_26_ * x_22_ + 92 x_36_ * x_22_ - 84 x_29_ * x_24_ - 18 x_35_ * x_24_ + 66 x_48_ * x_24_ - 62 x_36_ * x_26_ + 62 x_30_ * x_29_ + 28 x_48_ * x_29_ - 98 x_35_ * x_30_ + 52 x_36_ * x_30_ - 88 x_48_ * x_31_ - 28 x_42_ * x_36_ + 90 x_48_ * x_41_ ] = 10790
c37: [ 24 x_2_ * x_11_ + 24 x_26_ * x_2_ + 74 x_33_ * x_2_ - 98 x_34_ * x_2_ + 32 x_49_ * x_2_ + 38 x_40_ * x_4_ + 58 x_49_ * x_4_ - 76 x_34_ * x_11_ - 6 x_40_ * x_11_ + 78 x_46_ * x_11_ - 58 x_32_ * x_26_ + 30 x_46_ * x_33_ + 22 x_40_ * x_34_ + 10 x_46_ * x_34_ - 58 x_49_ * x_41_ ] = 1270
c38: [ -56 x_8_ * x_10_ + 14 x_18_ * x_8_ - 72 x_20_ * x_8_ - 40 x_40_ * x_8_ + 78 x_18_ * x_10_ + 90 x_34_ * x_10_ - 32 x_40_ * x_11_ + 62 x_20_ * x_18_ + 58 x_34_ * x_30_ ] = -8788
c39: [ 54 x_23_ * x_37_ - 22 x_42_ * x_23_ - 66 x_42_ * x_27_ ] = 4328
c40: [ -96 x_4_ * x_27_ + 56 x_36_ * x_4_ - 46 x_48_ * x_4_ + 54 x_23_ * x_7_ + 40 x_29_ * x_7_ - 94 x_27_ * x_8_ + 44 x_29_ * x_8_ - 88 x_49_ * x_13_ - 88 x_36_ * x_21_ + 34 x_44_ * x_21_ - 28 x_49_ * x_21_ - 96 x_29_ * x_23_ + 36 x_48_ * x_23_ - 24 x_49_ * x_23_ + 90 x_29_ * x_27_ + 64 x_44_ * x_27_ + 4 x_48_ * x_27_ - 58 x_44_ * x_29_ + 82 x_49_ * x_48_ ] = 2394
c41: [ 62 x_5_ * x_11_ + 2 x_16_ * x_5_ - 80 x_35_ * x_5_ + 34 x_16_ * x_11_ + 50 x_35_ * x_16_ + 52 x_48_ * x_44_ ] = 926
Bounds
5 <= x_1_ <= 10
-8 <= x_2_ <= 6
1 <= x_3_ <= 10
-10 <= x_4_ <= 3
3 <= x_5_ <= 4
x_6_ = 3
-6 <= x_7_ <= 7
-3 <= x_8_ <= 8
-10 <= x_9_ <= -3
0 <= x_10_ <= 8
-7 <= x_11_ <= 1
2 <= x_12_ <= 9
0 <= x_13_ <= 9
-8 <= x_14_ <= -3
-4 <= x_15_ <= 10
-9 <= x_16_ <= 3
0 <= x_17_ <= 10
-9 <= x_18_ <= 7
-9 <= x_19_ <= 10
-4 <= x_20_ <= 5
-3 <= x_21_ <= 2
-9 <= x_22_ <= 9
8 <= x_23_ <= 9
-10 <= x_24_ <= 8
9 <= x_25_ <= 10
-2 <= x_26_ <= 7
-8 <= x_27_ <= -2
-4 <= x_28_ <= 10
6 <= x_29_ <= 10
2 <= x_30_ <= 9
-3 <= x_31_ <= 7
2 <= x_32_ <= 7
-4 <= x_33_ <= 6
-10 <= x_34_ <= -2
-10 <= x_35_ <= 3
-10 <= x_36_ <= 10
2 <= x_37_ <= 9
-8 <= x_38_ <= 1
-10 <= x_39_ <= 4
-9 <= x_40_ <= 5
-8 <= x_41_ <= 5
-5 <= x_42_ <= 3
0 <= x_43_ <= 9
-1 <= x_44_ <= 10
0 <= x_45_ <= 8
5 <= x_46_ <= 10
-5 <= x_47_ <= 7
-8 <= x_48_ <= -1
-8 <= x_49_ <= -3
-5 <= x_50_ <= -2
General
x_1_
x_2_
x_3_
x_4_
x_5_
x_6_
x_7_
x_8_
x_9_
x_10_
x_11_
x_12_
x_13_
x_14_
x_15_
x_16_
x_17_
x_18_
x_19_
x_20_
x_21_
x_22_
x_23_
x_24_
x_25_
x_26_
x_27_
x_28_
x_29_
x_30_
x_31_
x_32_
x_33_
x_34_
x_35_
x_36_
x_37_
x_38_
x_39_
x_40_
x_41_
x_42_
x_43_
x_44_
x_45_
x_46_
x_47_
x_48_
x_49_
x_50_
End
