minimize
obj: -24 x_2_ + 40 x_13_ + 13 x_18_ + 25 x_23_ - 42 x_31_ - 44 x_33_ - 23 x_41_
subject to
affine_ranged_1_ub: 49 x_9_ - 8 x_18_ + 10 x_40_ <= 48
affine_ranged_2_ub: -3 x_2_ - 37 x_10_ <= 86
affine_ranged_3_ub: 1 x_20_ - 25 x_34_ <= 244
affine_ranged_4_ub: -4 x_19_ - 2 x_34_ <= 21
quadratic_ranged_1_ub: 44 x_28_ + 49 x_35_ + [ 27 x_27_ ^ 2 ] <= 924
quadratic_ranged_2_ub: -6 x_43_ + [ 27 x_41_ ^ 2 ] <= 2692
quadratic_ranged_3_ub: 27 x_18_ + [ -2 x_21_ ^ 2 + 3 x_40_ ^ 2 ] <= -4
quadratic_ranged_4_ub: -11 x_8_ + 12 x_16_ - 5 x_22_ + 34 x_34_ + [ 20 x_15_ ^ 2 - 5 x_21_ ^ 2 - 9 x_32_ ^ 2 - 22 x_36_ ^ 2 - 24 x_44_ ^ 2 ] <= -1010
quadratic_ranged_5_ub: -25 x_6_ + 35 x_16_ + 9 x_48_ + [ 42 x_30_ ^ 2 ] <= -18
quadratic_ranged_6_ub: -43 x_15_ + [ -14 x_41_ ^ 2 ] <= -1827
quadratic_ranged_7_ub: [ -22 x_6_ ^ 2 - 26 x_10_ ^ 2 - 23 x_31_ ^ 2 ] <= -1594
quadratic_ranged_8_ub: [ -29 x_14_ ^ 2 ] <= -1856
quadratic_ranged_9_ub: -13 x_27_ + 12 x_39_ + 9 x_40_ - 23 x_45_ + [ -2 x_49_ ^ 2 ] <= -323
quadratic_ranged_10_ub: -25 x_2_ - 30 x_30_ - 3 x_37_ + 39 x_47_ + [ 35 x_47_ ^ 2 ] <= 2042
quadratic_ranged_11_ub: [ -11 x_1_ ^ 2 + 19 x_41_ ^ 2 ] <= 1011
quadratic_ranged_12_ub: 49 x_6_ - 6 x_10_ + 4 x_12_ + 9 x_16_ + [ -4 x_26_ ^ 2 ] <= -83
quadratic_ranged_13_ub: -28 x_42_ - 22 x_50_ + [ -9 x_21_ ^ 2 + 21 x_25_ ^ 2 + 8 x_30_ ^ 2 + 10 x_50_ ^ 2 ] <= 1496
quadratic_ranged_14_ub: 8 x_1_ - 2 x_18_ + [ 21 x_17_ ^ 2 - 21 x_32_ ^ 2 + 46 x_39_ ^ 2 ] <= 320
quadratic_ranged_15_ub: -26 x_50_ + [ -24 x_2_ ^ 2 + 35 x_7_ ^ 2 - 7 x_30_ ^ 2 + 26 x_38_ ^ 2 - 42 x_50_ ^ 2 ] <= 65
quadratic_ranged_16_ub: 44 x_7_ - 41 x_14_ + 32 x_20_ + 3 x_28_ + [ 43 x_20_ ^ 2 + 33 x_29_ ^ 2 + 43 x_45_ ^ 2 ] <= 5074
quadratic_ranged_17_ub: -42 x_4_ - 14 x_22_ + [ -48 x_48_ ^ 2 ] <= -3536
quadratic_ranged_18_ub: -37 x_4_ + 5 x_36_ + 45 x_39_ + [ 44 x_18_ ^ 2 - 25 x_41_ ^ 2 ] <= -1272
quadratic_ranged_19_ub: -1 x_28_ + [ 34 x_25_ ^ 2 + 37 x_40_ ^ 2 ] <= 2547
quadratic_ranged_20_ub: 47 x_7_ - 40 x_16_ + 3 x_28_ - 35 x_30_ + [ -45 x_7_ ^ 2 - 41 x_25_ ^ 2 ] <= -1755
quadratic_ranged_21_ub: 30 x_14_ - 9 x_18_ + [ 16 x_42_ ^ 2 ] <= 1876
quadratic_ranged_22_ub: -13 x_50_ + [ -12 x_6_ ^ 2 + 46 x_18_ ^ 2 + 31 x_30_ ^ 2 + 26 x_48_ ^ 2 ] <= 2912
quadratic_ranged_23_ub: 40 x_13_ + 46 x_18_ - 24 x_35_ - 48 x_37_ + 20 x_45_ + [ 46 x_3_ ^ 2 + 8 x_35_ ^ 2 ] <= 1386
quadratic_ranged_24_ub: 7 x_9_ - 18 x_15_ - 11 x_44_ + [ -8 x_10_ ^ 2 + 29 x_14_ ^ 2 + 22 x_46_ ^ 2 ] <= 1554
quadratic_ranged_25_ub: 44 x_6_ + [ 44 x_2_ ^ 2 ] <= 661
quadratic_ranged_26_ub: 3 x_1_ - 32 x_41_ - 28 x_42_ + 36 x_48_ + [ 16 x_1_ ^ 2 ] <= 1599
quadratic_ranged_27_ub: [ 6 x_9_ ^ 2 + 30 x_24_ ^ 2 ] <= 40
quadratic_ranged_28_ub: 20 x_5_ + [ 36 x_18_ ^ 2 ] <= 596
quadratic_ranged_29_ub: 6 x_35_ - 2 x_38_ + [ 12 x_42_ ^ 2 + 29 x_48_ ^ 2 ] <= 3506
quadratic_ranged_30_ub: [ -47 x_42_ ^ 2 ] <= -4698
quadratic_ranged_31_ub: -44 x_30_ + [ -1 x_50_ ^ 2 ] <= -35
quadratic_ranged_32_ub: 14 x_5_ + 46 x_7_ + 49 x_47_ + [ -22 x_35_ ^ 2 + 40 x_38_ ^ 2 ] <= -110
quadratic_ranged_33_ub: [ -31 x_20_ ^ 2 - 27 x_32_ ^ 2 ] <= -4217
quadratic_ranged_34_ub: -47 x_21_ + [ 7 x_27_ ^ 2 + 8 x_46_ ^ 2 ] <= 350
quadratic_ranged_35_ub: -26 x_49_ + [ 3 x_8_ ^ 2 ] <= -151
affine_ranged_1_lb: 49 x_9_ - 8 x_18_ + 10 x_40_ >= 40
affine_ranged_2_lb: -3 x_2_ - 37 x_10_ >= 83
affine_ranged_3_lb: 1 x_20_ - 25 x_34_ >= 243
affine_ranged_4_lb: -4 x_19_ - 2 x_34_ >= 19
quadratic_ranged_1_lb: 44 x_28_ + 49 x_35_ + [ 27 x_27_ ^ 2 ] >= 918
quadratic_ranged_2_lb: -6 x_43_ + [ 27 x_41_ ^ 2 ] >= 2685
quadratic_ranged_3_lb: 27 x_18_ + [ -2 x_21_ ^ 2 + 3 x_40_ ^ 2 ] >= -9
quadratic_ranged_4_lb: -11 x_8_ + 12 x_16_ - 5 x_22_ + 34 x_34_ + [ 20 x_15_ ^ 2 - 5 x_21_ ^ 2 - 9 x_32_ ^ 2 - 22 x_36_ ^ 2 - 24 x_44_ ^ 2 ] >= -1017
quadratic_ranged_5_lb: -25 x_6_ + 35 x_16_ + 9 x_48_ + [ 42 x_30_ ^ 2 ] >= -22
quadratic_ranged_6_lb: -43 x_15_ + [ -14 x_41_ ^ 2 ] >= -1833
quadratic_ranged_7_lb: [ -22 x_6_ ^ 2 - 26 x_10_ ^ 2 - 23 x_31_ ^ 2 ] >= -1598
quadratic_ranged_8_lb: [ -29 x_14_ ^ 2 ] >= -1857
quadratic_ranged_9_lb: -13 x_27_ + 12 x_39_ + 9 x_40_ - 23 x_45_ + [ -2 x_49_ ^ 2 ] >= -329
quadratic_ranged_10_lb: -25 x_2_ - 30 x_30_ - 3 x_37_ + 39 x_47_ + [ 35 x_47_ ^ 2 ] >= 2034
quadratic_ranged_11_lb: [ -11 x_1_ ^ 2 + 19 x_41_ ^ 2 ] >= 1006
quadratic_ranged_12_lb: 49 x_6_ - 6 x_10_ + 4 x_12_ + 9 x_16_ + [ -4 x_26_ ^ 2 ] >= -89
quadratic_ranged_13_lb: -28 x_42_ - 22 x_50_ + [ -9 x_21_ ^ 2 + 21 x_25_ ^ 2 + 8 x_30_ ^ 2 + 10 x_50_ ^ 2 ] >= 1487
quadratic_ranged_14_lb: 8 x_1_ - 2 x_18_ + [ 21 x_17_ ^ 2 - 21 x_32_ ^ 2 + 46 x_39_ ^ 2 ] >= 318
quadratic_ranged_15_lb: -26 x_50_ + [ -24 x_2_ ^ 2 + 35 x_7_ ^ 2 - 7 x_30_ ^ 2 + 26 x_38_ ^ 2 - 42 x_50_ ^ 2 ] >= 59
quadratic_ranged_16_lb: 44 x_7_ - 41 x_14_ + 32 x_20_ + 3 x_28_ + [ 43 x_20_ ^ 2 + 33 x_29_ ^ 2 + 43 x_45_ ^ 2 ] >= 5069
quadratic_ranged_17_lb: -42 x_4_ - 14 x_22_ + [ -48 x_48_ ^ 2 ] >= -3538
quadratic_ranged_18_lb: -37 x_4_ + 5 x_36_ + 45 x_39_ + [ 44 x_18_ ^ 2 - 25 x_41_ ^ 2 ] >= -1278
quadratic_ranged_19_lb: -1 x_28_ + [ 34 x_25_ ^ 2 + 37 x_40_ ^ 2 ] >= 2542
quadratic_ranged_20_lb: 47 x_7_ - 40 x_16_ + 3 x_28_ - 35 x_30_ + [ -45 x_7_ ^ 2 - 41 x_25_ ^ 2 ] >= -1760
quadratic_ranged_21_lb: 30 x_14_ - 9 x_18_ + [ 16 x_42_ ^ 2 ] >= 1874
quadratic_ranged_22_lb: -13 x_50_ + [ -12 x_6_ ^ 2 + 46 x_18_ ^ 2 + 31 x_30_ ^ 2 + 26 x_48_ ^ 2 ] >= 2903
quadratic_ranged_23_lb: 40 x_13_ + 46 x_18_ - 24 x_35_ - 48 x_37_ + 20 x_45_ + [ 46 x_3_ ^ 2 + 8 x_35_ ^ 2 ] >= 1383
quadratic_ranged_24_lb: 7 x_9_ - 18 x_15_ - 11 x_44_ + [ -8 x_10_ ^ 2 + 29 x_14_ ^ 2 + 22 x_46_ ^ 2 ] >= 1544
quadratic_ranged_25_lb: 44 x_6_ + [ 44 x_2_ ^ 2 ] >= 657
quadratic_ranged_26_lb: 3 x_1_ - 32 x_41_ - 28 x_42_ + 36 x_48_ + [ 16 x_1_ ^ 2 ] >= 1598
quadratic_ranged_27_lb: [ 6 x_9_ ^ 2 + 30 x_24_ ^ 2 ] >= 31
quadratic_ranged_28_lb: 20 x_5_ + [ 36 x_18_ ^ 2 ] >= 595
quadratic_ranged_29_lb: 6 x_35_ - 2 x_38_ + [ 12 x_42_ ^ 2 + 29 x_48_ ^ 2 ] >= 3505
quadratic_ranged_30_lb: [ -47 x_42_ ^ 2 ] >= -4705
quadratic_ranged_31_lb: -44 x_30_ + [ -1 x_50_ ^ 2 ] >= -37
quadratic_ranged_32_lb: 14 x_5_ + 46 x_7_ + 49 x_47_ + [ -22 x_35_ ^ 2 + 40 x_38_ ^ 2 ] >= -115
quadratic_ranged_33_lb: [ -31 x_20_ ^ 2 - 27 x_32_ ^ 2 ] >= -4222
quadratic_ranged_34_lb: -47 x_21_ + [ 7 x_27_ ^ 2 + 8 x_46_ ^ 2 ] >= 342
quadratic_ranged_35_lb: -26 x_49_ + [ 3 x_8_ ^ 2 ] >= -154
c1_1: 20 x_1_ - 44 x_23_ + 19 x_26_ = 476
c2_1: 23 x_24_ + 5 x_45_ = 63
c3_1: 38 x_13_ - 13 x_44_ = -66
c1: 33 x_11_ - 8 x_18_ + 17 x_39_ + [ -27 x_13_ ^ 2 + 11 x_18_ ^ 2 + 14 x_50_ ^ 2 ] = 738
c2: -4 x_31_ + [ 50 x_21_ ^ 2 + 24 x_42_ ^ 2 + 47 x_45_ ^ 2 ] = 5576
c3: 15 x_44_ + [ 33 x_31_ ^ 2 - 28 x_47_ ^ 2 ] = 440
c4: -11 x_2_ + 10 x_13_ - 43 x_27_ - 23 x_35_ + [ 48 x_28_ ^ 2 - 40 x_32_ ^ 2 + 4 x_35_ ^ 2 + 48 x_50_ ^ 2 ] = 2954
c5: 7 x_31_ + 40 x_49_ + [ 48 x_10_ ^ 2 + 21 x_45_ ^ 2 ] = 1992
c6: 41 x_42_ + [ 7 x_32_ ^ 2 ] = 290
c7: -50 x_27_ - 45 x_39_ - 18 x_47_ + [ -42 x_4_ ^ 2 + 12 x_27_ ^ 2 - 19 x_36_ ^ 2 ] = -1722
c8: [ -42 x_38_ ^ 2 ] = -2688
c9: 4 x_19_ + [ -26 x_6_ ^ 2 - 35 x_41_ ^ 2 ] = -3526
c10: 8 x_15_ + [ 39 x_12_ ^ 2 - 31 x_43_ ^ 2 + 40 x_44_ ^ 2 ] = 2555
c11: 21 x_6_ + [ 10 x_6_ ^ 2 - 27 x_26_ ^ 2 - 30 x_42_ ^ 2 ] = -3443
c12: 50 x_30_ + [ 37 x_27_ ^ 2 + 40 x_39_ ^ 2 ] = 3292
c13: -22 x_13_ + 31 x_28_ + [ -27 x_38_ ^ 2 ] = -1440
c14: 19 x_26_ + 20 x_38_ + [ -28 x_39_ ^ 2 ] = -1456
c15: [ 8 x_8_ ^ 2 ] = 288
c16: -12 x_13_ + [ 48 x_13_ ^ 2 + 4 x_20_ ^ 2 ] = 232
c17: 23 x_1_ - 44 x_28_ - 28 x_42_ + [ 35 x_40_ ^ 2 + 29 x_41_ ^ 2 + 12 x_46_ ^ 2 ] = 4207
c18: 47 x_7_ - 7 x_10_ + [ -16 x_7_ ^ 2 + 2 x_31_ ^ 2 ] = -16
c19: 6 x_33_ + 34 x_39_ + [ 19 x_25_ ^ 2 - 18 x_42_ ^ 2 + 42 x_46_ ^ 2 ] = -914
c20: -42 x_6_ - 50 x_9_ + 11 x_17_ + [ 6 x_17_ ^ 2 - 19 x_27_ ^ 2 ] = -546
c21: 21 x_10_ - 19 x_43_ + [ -41 x_34_ ^ 2 + 23 x_43_ ^ 2 ] = -4088
c22: -20 x_43_ + 7 x_44_ + [ -40 x_13_ ^ 2 ] = -24
c23: -39 x_32_ - 26 x_46_ + [ 13 x_5_ ^ 2 - 19 x_10_ ^ 2 + 1 x_12_ ^ 2 + 43 x_18_ ^ 2 + 37 x_39_ ^ 2 - 10 x_43_ ^ 2 ] = 2789
c24: 50 x_6_ - 48 x_10_ - 28 x_13_ - 48 x_14_ + [ 2 x_1_ ^ 2 ] = -204
c25: 3 x_15_ + 34 x_30_ + [ -39 x_7_ ^ 2 - 41 x_13_ ^ 2 - 5 x_22_ ^ 2 + 38 x_30_ ^ 2 ] = -412
c26: -39 x_22_ - 48 x_39_ + [ 41 x_22_ ^ 2 - 48 x_23_ ^ 2 ] = 746
c27: 36 x_6_ - 38 x_34_ + [ 14 x_16_ ^ 2 + 22 x_18_ ^ 2 + 33 x_28_ ^ 2 ] = 4010
c28: 19 x_7_ + 21 x_15_ - 20 x_20_ + [ 3 x_4_ ^ 2 - 7 x_8_ ^ 2 - 33 x_24_ ^ 2 ] = 135
c29: 2 x_4_ + 12 x_24_ + [ -10 x_3_ ^ 2 - 48 x_41_ ^ 2 ] = -4840
c30: 22 x_5_ + [ 46 x_5_ ^ 2 + 14 x_15_ ^ 2 + 19 x_22_ ^ 2 + 13 x_32_ ^ 2 ] = 3699
c31: 43 x_35_ + [ 27 x_8_ ^ 2 - 19 x_16_ ^ 2 - 32 x_29_ ^ 2 ] = -277
c32: 34 x_40_ + 25 x_48_ + [ -21 x_5_ ^ 2 - 33 x_16_ ^ 2 + 29 x_38_ ^ 2 ] = 1781
c33: [ 40 x_27_ ^ 2 - 50 x_35_ ^ 2 - 2 x_47_ ^ 2 ] = -3688
c34: -29 x_11_ + 34 x_49_ + [ -50 x_11_ ^ 2 ] = 198
c35: 23 x_20_ - 49 x_28_ - 14 x_33_ + [ -21 x_11_ ^ 2 + 32 x_33_ ^ 2 ] = 501
c36: 10 x_10_ - 3 x_16_ - 47 x_18_ + [ -5 x_10_ ^ 2 ] = 145
c37: 20 x_11_ - 14 x_12_ - 48 x_16_ - 34 x_23_ - 25 x_39_ + 1 x_48_ + [ 42 x_6_ ^ 2 + 50 x_18_ ^ 2 - 20 x_23_ ^ 2 ] = 226
c38: 13 x_6_ - 7 x_21_ + 39 x_32_ + 27 x_35_ + [ -38 x_6_ ^ 2 ] = -697
c39: 10 x_6_ - 20 x_10_ - 3 x_25_ - 10 x_34_ - 9 x_36_ + [ -21 x_10_ ^ 2 + 20 x_49_ ^ 2 ] = 2055
c40: 17 x_23_ - 19 x_48_ + [ 27 x_22_ ^ 2 + 43 x_43_ ^ 2 ] = 1581
c41: [ -45 x_25_ ^ 2 + 10 x_37_ ^ 2 ] = -1530
c42: -31 x_19_ + [ -31 x_5_ ^ 2 ] = -31
c43: -37 x_10_ + 45 x_31_ - 48 x_41_ - 29 x_50_ + [ -36 x_50_ ^ 2 ] = -208
c44: 38 x_30_ - 49 x_45_ + [ 14 x_45_ ^ 2 ] = 504
c45: -27 x_27_ - 46 x_30_ + [ 11 x_3_ ^ 2 - 31 x_26_ ^ 2 + 10 x_30_ ^ 2 - 36 x_45_ ^ 2 ] = -2918
c46: 15 x_34_ + 12 x_39_ + [ -42 x_33_ ^ 2 + 40 x_36_ ^ 2 - 1 x_41_ ^ 2 - 21 x_49_ ^ 2 ] = -3418
c47: -6 x_26_ + 47 x_30_ + 43 x_34_ + [ -33 x_23_ ^ 2 - 49 x_30_ ^ 2 ] = -1279
c48: 5 x_1_ - 36 x_8_ - 31 x_32_ - 25 x_47_ + [ -37 x_20_ ^ 2 + 2 x_22_ ^ 2 ] = -1376
c49: 40 x_2_ - 20 x_21_ + 27 x_22_ - 42 x_24_ + 39 x_45_ + [ -23 x_2_ ^ 2 - 39 x_13_ ^ 2 + 46 x_17_ ^ 2 + 46 x_21_ ^ 2 - 25 x_28_ ^ 2 + 2 x_30_ ^ 2 + 50 x_33_ ^ 2 - 32 x_49_ ^ 2 ] = -3978
c50: -13 x_8_ + 4 x_49_ + [ -18 x_8_ ^ 2 - 50 x_15_ ^ 2 - 38 x_30_ ^ 2 ] = -5686
c51: 25 x_11_ + 21 x_28_ + 29 x_43_ - 2 x_49_ + [ 24 x_2_ ^ 2 + 8 x_19_ ^ 2 - 5 x_39_ ^ 2 ] = 337
c52: -23 x_1_ + [ 44 x_4_ ^ 2 - 3 x_9_ ^ 2 + 12 x_13_ ^ 2 + 18 x_41_ ^ 2 ] = 3186
c53: -15 x_6_ + 9 x_16_ + [ -49 x_6_ ^ 2 - 29 x_16_ ^ 2 + 25 x_44_ ^ 2 ] = 1546
c54: 50 x_6_ - 28 x_50_ + [ 49 x_30_ ^ 2 + 14 x_40_ ^ 2 ] = 622
c55: 22 x_23_ + [ 46 x_5_ ^ 2 - 35 x_39_ ^ 2 + 24 x_41_ ^ 2 ] = 621
c56: 3 x_44_ + [ -49 x_8_ ^ 2 + 22 x_45_ ^ 2 ] = -332
c57: [ 11 x_15_ ^ 2 - 3 x_22_ ^ 2 ] = 953
c58: 33 x_43_ + [ 48 x_6_ ^ 2 + 12 x_14_ ^ 2 ] = 882
Bounds
-9 <= x_1_ <= 9
-5 <= x_2_ <= 9
-4 <= x_3_ <= 8
-8 <= x_4_ <= -5
-5 <= x_5_ <= 7
-8 <= x_6_ <= 0
-10 <= x_7_ <= 9
-4 <= x_8_ <= 9
-7 <= x_9_ <= 2
-6 <= x_10_ <= 6
-5 <= x_11_ <= 1
-8 <= x_12_ <= 10
-10 <= x_13_ <= 4
7 <= x_14_ <= 10
4 <= x_15_ <= 10
-2 <= x_16_ <= 2
0 <= x_17_ <= 3
-6 <= x_18_ <= 1
-8 <= x_19_ <= 7
-10 <= x_20_ <= -6
-7 <= x_21_ <= 8
-7 <= x_22_ <= 7
-7 <= x_23_ <= -3
-5 <= x_24_ <= 3
1 <= x_25_ <= 6
-7 <= x_26_ <= 6
-10 <= x_27_ <= 6
x_28_ = 10
-6 <= x_29_ <= 2
-7 <= x_30_ <= 9
-4 <= x_31_ <= 10
-10 <= x_32_ <= 8
-8 <= x_33_ <= 7
-10 <= x_34_ <= 2
-10 <= x_35_ <= 9
-3 <= x_36_ <= -1
-3 <= x_37_ <= 10
-9 <= x_38_ <= -3
7 <= x_39_ <= 9
4 <= x_40_ <= 9
-10 <= x_41_ <= 8
-10 <= x_42_ <= 2
-6 <= x_43_ <= 5
-2 <= x_44_ <= 10
-5 <= x_45_ <= 8
0 <= x_46_ <= 10
-9 <= x_47_ <= -2
-9 <= x_48_ <= -3
3 <= x_49_ <= 10
-8 <= x_50_ <= -4
General
x_1_
x_2_
x_3_
x_4_
x_5_
x_6_
x_7_
x_8_
x_9_
x_10_
x_11_
x_12_
x_13_
x_14_
x_15_
x_16_
x_17_
x_18_
x_19_
x_20_
x_21_
x_22_
x_23_
x_24_
x_25_
x_26_
x_27_
x_28_
x_29_
x_30_
x_31_
x_32_
x_33_
x_34_
x_35_
x_36_
x_37_
x_38_
x_39_
x_40_
x_41_
x_42_
x_43_
x_44_
x_45_
x_46_
x_47_
x_48_
x_49_
x_50_
End
