minimize
obj: -19 x_3_ + 32 x_5_ - 3 x_7_ + 29 x_15_ + 11 x_29_ - 9 x_34_ - 18 x_36_ - 37 x_39_ - 35 x_41_ + 15 x_43_
subject to
quadratic_ranged_1_ub: [ 13 x_7_ ^ 2 + 90 x_35_ * x_7_ + 16 x_42_ * x_7_ + 14 x_20_ * x_9_ + 50 x_20_ * x_19_ - 74 x_35_ * x_19_ + 20 x_35_ * x_29_ - 58 x_41_ * x_29_ - 50 x_42_ * x_29_ - 44 x_46_ * x_35_ + 37 x_41_ ^ 2 ] <= 6351
quadratic_ranged_2_ub: 10 x_1_ + [ -12 x_31_ * x_1_ - 34 x_44_ * x_1_ + 4 x_48_ * x_1_ + 26 x_44_ * x_31_ + 10 x_48_ ^ 2 ] <= -476
quadratic_ranged_3_ub: [ 24 x_24_ * x_17_ + 100 x_29_ * x_17_ - 8 x_42_ * x_17_ - 48 x_44_ * x_24_ - 28 x_39_ * x_29_ + 88 x_42_ * x_29_ - 92 x_38_ * x_31_ + 44 x_39_ * x_31_ - 52 x_44_ * x_31_ + 58 x_42_ * x_38_ + 74 x_42_ * x_39_ + 38 x_42_ ^ 2 ] <= 3949
quadratic_ranged_4_ub: 24 x_9_ - 21 x_28_ + 3 x_39_ + [ -4 x_8_ * x_4_ - 30 x_9_ * x_4_ - 52 x_10_ * x_4_ - 88 x_24_ * x_4_ + 92 x_37_ * x_4_ - 2 x_45_ * x_4_ + 36 x_20_ * x_8_ - 10 x_22_ * x_8_ - 92 x_34_ * x_8_ + 62 x_43_ * x_9_ - 4 x_45_ * x_9_ - 92 x_18_ * x_10_ - 78 x_23_ * x_10_ + 66 x_45_ * x_10_ - 22 x_18_ ^ 2 - 84 x_24_ * x_18_ + 78 x_39_ * x_18_ + 36 x_23_ * x_20_ - 24 x_24_ * x_20_ + 34 x_37_ * x_20_ + 100 x_39_ * x_20_ + 18 x_34_ * x_22_ - 64 x_45_ * x_24_ + 22 x_37_ * x_28_ - 4 x_45_ * x_28_ - 34 x_47_ * x_28_ - 36 x_50_ * x_28_ + 23 x_34_ ^ 2 + 74 x_39_ * x_37_ + 86 x_43_ * x_37_ + 100 x_50_ * x_37_ + 6 x_43_ * x_39_ + 30 x_50_ * x_39_ ] <= 858
quadratic_ranged_5_ub: -17 x_6_ + [ 13 x_3_ ^ 2 + 88 x_6_ * x_3_ - 6 x_32_ * x_3_ - 20 x_35_ * x_3_ - 8 x_37_ * x_3_ - 52 x_39_ * x_3_ + 32 x_43_ * x_3_ - 66 x_13_ * x_6_ + 94 x_43_ * x_6_ - 44 x_27_ * x_13_ + 74 x_35_ * x_13_ + 14 x_37_ * x_23_ + 50 x_35_ * x_27_ + 58 x_37_ * x_27_ - 86 x_43_ * x_27_ - 18 x_32_ ^ 2 ] <= -12977
quadratic_ranged_6_ub: [ 4 x_3_ ^ 2 ] <= 145
quadratic_ranged_7_ub: 30 x_41_ + [ -82 x_9_ * x_3_ - 30 x_35_ * x_9_ - 90 x_41_ * x_9_ + 20 x_35_ * x_15_ - 60 x_40_ * x_15_ + 90 x_40_ * x_19_ + 86 x_41_ * x_19_ - 80 x_41_ * x_35_ - 56 x_48_ * x_38_ + 26 x_41_ * x_39_ - 52 x_50_ * x_41_ - 5 x_48_ ^ 2 ] <= 191
quadratic_ranged_8_ub: 21 x_13_ - 43 x_16_ + 11 x_19_ - 22 x_35_ + [ -56 x_29_ * x_8_ - 16 x_29_ * x_9_ + 16 x_10_ ^ 2 - 40 x_13_ ^ 2 - 28 x_19_ * x_13_ + 52 x_29_ * x_13_ + 8 x_32_ * x_13_ + 8 x_35_ * x_16_ + 47 x_19_ ^ 2 - 94 x_32_ * x_29_ - 21 x_32_ ^ 2 ] <= 2377
quadratic_ranged_9_ub: -6 x_31_ + [ 2 x_13_ * x_3_ + 94 x_25_ * x_3_ - 44 x_46_ * x_3_ - 50 x_47_ * x_3_ + 13 x_10_ ^ 2 + 26 x_15_ * x_10_ - 90 x_19_ * x_10_ + 8 x_31_ * x_10_ + 40 x_13_ ^ 2 - 62 x_25_ * x_15_ - 80 x_31_ * x_15_ - 42 x_47_ * x_15_ + 15 x_19_ ^ 2 + 70 x_31_ * x_19_ + 4 x_25_ ^ 2 ] <= 2880
quadratic_ranged_10_ub: 37 x_18_ + [ 41 x_9_ ^ 2 + 78 x_32_ * x_9_ - 6 x_14_ ^ 2 + 12 x_17_ * x_14_ - 36 x_30_ * x_14_ + 88 x_50_ * x_14_ - 24 x_32_ * x_30_ ] <= 12892
quadratic_ranged_11_ub: [ -24 x_21_ * x_1_ - 30 x_29_ * x_1_ + 12 x_26_ * x_4_ - 9 x_19_ ^ 2 + 96 x_23_ * x_19_ + 27 x_21_ ^ 2 + 26 x_24_ * x_21_ + 90 x_24_ * x_23_ + 16 x_26_ * x_23_ - 74 x_26_ * x_24_ + 36 x_26_ ^ 2 ] <= -3754
quadratic_ranged_12_ub: -33 x_28_ + 25 x_36_ + 42 x_45_ + 21 x_46_ + [ 8 x_28_ * x_5_ - 40 x_16_ * x_6_ - 68 x_36_ * x_6_ - 98 x_46_ * x_6_ + 44 x_13_ * x_9_ - 90 x_18_ * x_9_ - 66 x_28_ * x_9_ - 80 x_41_ * x_13_ + 28 x_16_ * x_14_ - 36 x_36_ * x_14_ + 48 x_45_ * x_14_ - 4 x_28_ * x_16_ + 16 x_18_ ^ 2 + 88 x_36_ * x_18_ - 56 x_45_ * x_18_ + 32 x_36_ * x_28_ + 40 x_36_ * x_30_ - 38 x_36_ ^ 2 + 22 x_45_ * x_36_ - 82 x_46_ * x_41_ ] <= 18746
quadratic_ranged_13_ub: 46 x_12_ - 5 x_47_ + [ -24 x_12_ * x_5_ - 80 x_16_ * x_5_ + 76 x_17_ * x_5_ - 52 x_37_ * x_5_ + 56 x_47_ * x_5_ - 20 x_9_ * x_8_ - 14 x_47_ * x_8_ + 18 x_37_ * x_9_ + 42 x_37_ * x_21_ - 3 x_35_ ^ 2 - 32 x_47_ ^ 2 ] <= -2003
quadratic_ranged_14_ub: 1 x_29_ + 42 x_31_ + 21 x_32_ - 37 x_33_ + [ 40 x_24_ * x_1_ - 10 x_25_ * x_1_ - 32 x_29_ * x_1_ + 8 x_11_ ^ 2 + 2 x_32_ * x_11_ - 20 x_39_ * x_11_ - 60 x_45_ * x_11_ - 18 x_28_ * x_23_ - 4 x_45_ * x_23_ - 12 x_46_ * x_23_ - 8 x_32_ * x_24_ - 56 x_46_ * x_24_ + 82 x_46_ * x_25_ + 88 x_32_ * x_29_ - 36 x_33_ * x_31_ - 8 x_45_ * x_32_ + 94 x_46_ * x_32_ - 23 x_46_ ^ 2 ] <= 431
quadratic_ranged_15_ub: [ -76 x_10_ * x_2_ - 34 x_10_ * x_7_ - 26 x_10_ * x_9_ + 8 x_22_ * x_9_ + 6 x_22_ * x_10_ - 16 x_13_ * x_12_ + 80 x_47_ * x_12_ + 3 x_13_ ^ 2 + 68 x_23_ * x_13_ - 4 x_27_ * x_22_ - 76 x_27_ * x_23_ ] <= 5971
quadratic_ranged_16_ub: 29 x_3_ + [ -48 x_37_ * x_1_ - 4 x_3_ ^ 2 + 100 x_17_ * x_3_ + 82 x_29_ * x_3_ - 36 x_37_ * x_3_ + 42 x_44_ * x_3_ + 92 x_26_ * x_22_ + 46 x_25_ ^ 2 ] <= 3618
quadratic_ranged_1_lb: [ 13 x_7_ ^ 2 + 90 x_35_ * x_7_ + 16 x_42_ * x_7_ + 14 x_20_ * x_9_ + 50 x_20_ * x_19_ - 74 x_35_ * x_19_ + 20 x_35_ * x_29_ - 58 x_41_ * x_29_ - 50 x_42_ * x_29_ - 44 x_46_ * x_35_ + 37 x_41_ ^ 2 ] >= 6349
quadratic_ranged_2_lb: 10 x_1_ + [ -12 x_31_ * x_1_ - 34 x_44_ * x_1_ + 4 x_48_ * x_1_ + 26 x_44_ * x_31_ + 10 x_48_ ^ 2 ] >= -480
quadratic_ranged_3_lb: [ 24 x_24_ * x_17_ + 100 x_29_ * x_17_ - 8 x_42_ * x_17_ - 48 x_44_ * x_24_ - 28 x_39_ * x_29_ + 88 x_42_ * x_29_ - 92 x_38_ * x_31_ + 44 x_39_ * x_31_ - 52 x_44_ * x_31_ + 58 x_42_ * x_38_ + 74 x_42_ * x_39_ + 38 x_42_ ^ 2 ] >= 3945
quadratic_ranged_4_lb: 24 x_9_ - 21 x_28_ + 3 x_39_ + [ -4 x_8_ * x_4_ - 30 x_9_ * x_4_ - 52 x_10_ * x_4_ - 88 x_24_ * x_4_ + 92 x_37_ * x_4_ - 2 x_45_ * x_4_ + 36 x_20_ * x_8_ - 10 x_22_ * x_8_ - 92 x_34_ * x_8_ + 62 x_43_ * x_9_ - 4 x_45_ * x_9_ - 92 x_18_ * x_10_ - 78 x_23_ * x_10_ + 66 x_45_ * x_10_ - 22 x_18_ ^ 2 - 84 x_24_ * x_18_ + 78 x_39_ * x_18_ + 36 x_23_ * x_20_ - 24 x_24_ * x_20_ + 34 x_37_ * x_20_ + 100 x_39_ * x_20_ + 18 x_34_ * x_22_ - 64 x_45_ * x_24_ + 22 x_37_ * x_28_ - 4 x_45_ * x_28_ - 34 x_47_ * x_28_ - 36 x_50_ * x_28_ + 23 x_34_ ^ 2 + 74 x_39_ * x_37_ + 86 x_43_ * x_37_ + 100 x_50_ * x_37_ + 6 x_43_ * x_39_ + 30 x_50_ * x_39_ ] >= 853
quadratic_ranged_5_lb: -17 x_6_ + [ 13 x_3_ ^ 2 + 88 x_6_ * x_3_ - 6 x_32_ * x_3_ - 20 x_35_ * x_3_ - 8 x_37_ * x_3_ - 52 x_39_ * x_3_ + 32 x_43_ * x_3_ - 66 x_13_ * x_6_ + 94 x_43_ * x_6_ - 44 x_27_ * x_13_ + 74 x_35_ * x_13_ + 14 x_37_ * x_23_ + 50 x_35_ * x_27_ + 58 x_37_ * x_27_ - 86 x_43_ * x_27_ - 18 x_32_ ^ 2 ] >= -12983
quadratic_ranged_6_lb: [ 4 x_3_ ^ 2 ] >= 142
quadratic_ranged_7_lb: 30 x_41_ + [ -82 x_9_ * x_3_ - 30 x_35_ * x_9_ - 90 x_41_ * x_9_ + 20 x_35_ * x_15_ - 60 x_40_ * x_15_ + 90 x_40_ * x_19_ + 86 x_41_ * x_19_ - 80 x_41_ * x_35_ - 56 x_48_ * x_38_ + 26 x_41_ * x_39_ - 52 x_50_ * x_41_ - 5 x_48_ ^ 2 ] >= 189
quadratic_ranged_8_lb: 21 x_13_ - 43 x_16_ + 11 x_19_ - 22 x_35_ + [ -56 x_29_ * x_8_ - 16 x_29_ * x_9_ + 16 x_10_ ^ 2 - 40 x_13_ ^ 2 - 28 x_19_ * x_13_ + 52 x_29_ * x_13_ + 8 x_32_ * x_13_ + 8 x_35_ * x_16_ + 47 x_19_ ^ 2 - 94 x_32_ * x_29_ - 21 x_32_ ^ 2 ] >= 2372
quadratic_ranged_9_lb: -6 x_31_ + [ 2 x_13_ * x_3_ + 94 x_25_ * x_3_ - 44 x_46_ * x_3_ - 50 x_47_ * x_3_ + 13 x_10_ ^ 2 + 26 x_15_ * x_10_ - 90 x_19_ * x_10_ + 8 x_31_ * x_10_ + 40 x_13_ ^ 2 - 62 x_25_ * x_15_ - 80 x_31_ * x_15_ - 42 x_47_ * x_15_ + 15 x_19_ ^ 2 + 70 x_31_ * x_19_ + 4 x_25_ ^ 2 ] >= 2875
quadratic_ranged_10_lb: 37 x_18_ + [ 41 x_9_ ^ 2 + 78 x_32_ * x_9_ - 6 x_14_ ^ 2 + 12 x_17_ * x_14_ - 36 x_30_ * x_14_ + 88 x_50_ * x_14_ - 24 x_32_ * x_30_ ] >= 12890
quadratic_ranged_11_lb: [ -24 x_21_ * x_1_ - 30 x_29_ * x_1_ + 12 x_26_ * x_4_ - 9 x_19_ ^ 2 + 96 x_23_ * x_19_ + 27 x_21_ ^ 2 + 26 x_24_ * x_21_ + 90 x_24_ * x_23_ + 16 x_26_ * x_23_ - 74 x_26_ * x_24_ + 36 x_26_ ^ 2 ] >= -3759
quadratic_ranged_12_lb: -33 x_28_ + 25 x_36_ + 42 x_45_ + 21 x_46_ + [ 8 x_28_ * x_5_ - 40 x_16_ * x_6_ - 68 x_36_ * x_6_ - 98 x_46_ * x_6_ + 44 x_13_ * x_9_ - 90 x_18_ * x_9_ - 66 x_28_ * x_9_ - 80 x_41_ * x_13_ + 28 x_16_ * x_14_ - 36 x_36_ * x_14_ + 48 x_45_ * x_14_ - 4 x_28_ * x_16_ + 16 x_18_ ^ 2 + 88 x_36_ * x_18_ - 56 x_45_ * x_18_ + 32 x_36_ * x_28_ + 40 x_36_ * x_30_ - 38 x_36_ ^ 2 + 22 x_45_ * x_36_ - 82 x_46_ * x_41_ ] >= 18739
quadratic_ranged_13_lb: 46 x_12_ - 5 x_47_ + [ -24 x_12_ * x_5_ - 80 x_16_ * x_5_ + 76 x_17_ * x_5_ - 52 x_37_ * x_5_ + 56 x_47_ * x_5_ - 20 x_9_ * x_8_ - 14 x_47_ * x_8_ + 18 x_37_ * x_9_ + 42 x_37_ * x_21_ - 3 x_35_ ^ 2 - 32 x_47_ ^ 2 ] >= -2010
quadratic_ranged_14_lb: 1 x_29_ + 42 x_31_ + 21 x_32_ - 37 x_33_ + [ 40 x_24_ * x_1_ - 10 x_25_ * x_1_ - 32 x_29_ * x_1_ + 8 x_11_ ^ 2 + 2 x_32_ * x_11_ - 20 x_39_ * x_11_ - 60 x_45_ * x_11_ - 18 x_28_ * x_23_ - 4 x_45_ * x_23_ - 12 x_46_ * x_23_ - 8 x_32_ * x_24_ - 56 x_46_ * x_24_ + 82 x_46_ * x_25_ + 88 x_32_ * x_29_ - 36 x_33_ * x_31_ - 8 x_45_ * x_32_ + 94 x_46_ * x_32_ - 23 x_46_ ^ 2 ] >= 422
quadratic_ranged_15_lb: [ -76 x_10_ * x_2_ - 34 x_10_ * x_7_ - 26 x_10_ * x_9_ + 8 x_22_ * x_9_ + 6 x_22_ * x_10_ - 16 x_13_ * x_12_ + 80 x_47_ * x_12_ + 3 x_13_ ^ 2 + 68 x_23_ * x_13_ - 4 x_27_ * x_22_ - 76 x_27_ * x_23_ ] >= 5964
quadratic_ranged_16_lb: 29 x_3_ + [ -48 x_37_ * x_1_ - 4 x_3_ ^ 2 + 100 x_17_ * x_3_ + 82 x_29_ * x_3_ - 36 x_37_ * x_3_ + 42 x_44_ * x_3_ + 92 x_26_ * x_22_ + 46 x_25_ ^ 2 ] >= 3613
c1: -26 x_19_ + [ 34 x_4_ * x_13_ - 20 x_32_ * x_4_ + 46 x_19_ * x_13_ + 8 x_30_ * x_13_ + 70 x_32_ * x_13_ + 42 x_32_ * x_19_ + 6 x_30_ * x_21_ + 72 x_32_ * x_28_ - 62 x_32_ * x_30_ ] = -7842
c2: -50 x_2_ - 34 x_32_ + [ 32 x_14_ * x_2_ + 8 x_35_ * x_2_ + 16 x_38_ * x_2_ - 92 x_22_ * x_5_ + 17 x_13_ ^ 2 + 92 x_40_ * x_17_ - 34 x_32_ * x_22_ + 11 x_32_ ^ 2 + 17 x_38_ ^ 2 - 58 x_40_ * x_38_ ] = 6462
c3: 44 x_8_ - 50 x_26_ + 36 x_40_ + 35 x_44_ + [ -46 x_8_ ^ 2 - 48 x_26_ * x_8_ + 30 x_26_ * x_14_ - 7 x_22_ ^ 2 + 24 x_40_ * x_22_ - 32 x_44_ * x_22_ - 36 x_49_ * x_22_ + 12 x_32_ * x_24_ - 44 x_49_ * x_24_ - 64 x_40_ * x_26_ - 72 x_38_ * x_32_ + 80 x_49_ * x_32_ + 33 x_38_ ^ 2 + 50 x_44_ * x_38_ + 12 x_50_ * x_38_ - 20 x_44_ ^ 2 ] = -6908
c4: -7 x_5_ + 9 x_17_ + [ -2 x_17_ * x_6_ + 36 x_32_ * x_6_ + 72 x_49_ * x_6_ - 22 x_32_ * x_19_ - 68 x_34_ * x_19_ + 43 x_28_ ^ 2 + 100 x_32_ * x_28_ ] = -7023
c5: -5 x_35_ + [ 15 x_1_ ^ 2 - 8 x_43_ * x_1_ + 50 x_35_ * x_14_ - 76 x_37_ * x_14_ - 26 x_43_ * x_14_ - 100 x_43_ * x_35_ + 26 x_37_ ^ 2 + 50 x_45_ * x_37_ ] = 8709
c6: -48 x_11_ + [ -34 x_47_ * x_35_ - 1 x_47_ ^ 2 ] = -1568
c7: -37 x_23_ + 29 x_29_ + 39 x_38_ + [ 30 x_23_ * x_14_ + 82 x_29_ * x_14_ + 13 x_17_ ^ 2 + 44 x_19_ ^ 2 - 74 x_38_ * x_19_ - 96 x_35_ * x_25_ - 56 x_35_ * x_29_ - 20 x_35_ * x_32_ + 33 x_35_ ^ 2 - 52 x_45_ * x_38_ - 24 x_45_ * x_43_ ] = 1760
c8: -25 x_7_ + 4 x_26_ - 49 x_28_ + [ 14 x_6_ * x_2_ - 52 x_21_ * x_2_ + 2 x_26_ * x_2_ + 28 x_30_ * x_2_ - 1 x_4_ ^ 2 - 8 x_26_ * x_4_ + 72 x_28_ * x_4_ + 3 x_6_ ^ 2 + 70 x_34_ * x_6_ - 2 x_7_ ^ 2 - 20 x_43_ * x_7_ + 44 x_28_ * x_21_ + 45 x_28_ ^ 2 - 86 x_34_ * x_28_ - 8 x_34_ * x_30_ + 78 x_43_ * x_34_ + 27 x_43_ ^ 2 ] = -8597
c9: -22 x_12_ + [ 94 x_12_ * x_5_ - 54 x_24_ * x_5_ + 3 x_12_ ^ 2 + 28 x_23_ * x_12_ + 84 x_23_ * x_13_ - 14 x_29_ * x_13_ + 29 x_23_ ^ 2 + 100 x_37_ * x_29_ + 38 x_41_ ^ 2 ] = 9038
c10: 30 x_22_ + 35 x_33_ - 47 x_44_ + [ 92 x_15_ * x_4_ - 26 x_36_ * x_13_ + 52 x_40_ * x_14_ - 4 x_20_ * x_15_ + 2 x_25_ * x_15_ + 38 x_20_ ^ 2 + 34 x_22_ * x_20_ - 68 x_30_ * x_20_ - 92 x_40_ * x_20_ + 15 x_22_ ^ 2 - 86 x_36_ * x_22_ - 26 x_44_ * x_22_ + 26 x_48_ * x_22_ + 10 x_35_ * x_25_ + 52 x_44_ * x_25_ - 78 x_48_ * x_25_ + 22 x_34_ * x_30_ - 52 x_40_ * x_30_ - 27 x_33_ ^ 2 + 52 x_35_ * x_34_ + 84 x_48_ * x_34_ - 28 x_48_ * x_35_ + 74 x_48_ * x_36_ - 76 x_44_ * x_40_ ] = 25549
c11: [ -54 x_6_ * x_2_ + 82 x_23_ * x_2_ + 96 x_30_ * x_2_ - 34 x_16_ * x_4_ + 32 x_6_ ^ 2 - 4 x_16_ * x_6_ - 14 x_31_ * x_6_ - 36 x_16_ * x_9_ - 32 x_30_ * x_23_ + 98 x_48_ * x_23_ - 68 x_31_ * x_30_ - 96 x_39_ * x_30_ + 39 x_31_ ^ 2 - 84 x_48_ * x_31_ ] = -657
c12: -22 x_50_ + [ 92 x_11_ * x_7_ + 88 x_18_ * x_7_ - 42 x_11_ * x_10_ - 16 x_50_ * x_10_ - 32 x_16_ ^ 2 - 68 x_43_ * x_16_ - 92 x_44_ * x_16_ + 100 x_50_ * x_18_ - 45 x_23_ ^ 2 - 11 x_44_ ^ 2 ] = 344
c13: -41 x_2_ + 32 x_8_ + 44 x_39_ + [ -80 x_27_ * x_2_ + 70 x_33_ * x_8_ + 47 x_10_ ^ 2 - 88 x_50_ * x_10_ - 17 x_14_ ^ 2 - 24 x_25_ * x_14_ + 44 x_48_ * x_14_ - 5 x_25_ ^ 2 + 64 x_34_ * x_25_ - 60 x_46_ * x_25_ + 42 x_48_ * x_27_ + 86 x_49_ * x_27_ - 20 x_33_ ^ 2 + 42 x_50_ * x_33_ - 16 x_39_ * x_34_ + 72 x_46_ * x_42_ - 28 x_48_ ^ 2 ] = 3530
c14: 32 x_1_ + 32 x_27_ + 44 x_29_ + [ 36 x_1_ ^ 2 - 66 x_21_ * x_1_ - 20 x_29_ * x_1_ + 40 x_43_ * x_1_ - 80 x_50_ * x_1_ - 48 x_8_ ^ 2 + 86 x_27_ * x_8_ + 72 x_44_ * x_8_ - 74 x_44_ * x_9_ + 36 x_50_ * x_9_ + 96 x_27_ * x_16_ - 28 x_50_ * x_16_ - 26 x_44_ * x_21_ + 20 x_50_ * x_21_ - 82 x_49_ * x_27_ - 54 x_49_ * x_29_ + 14 x_50_ * x_29_ - 6 x_35_ ^ 2 - 72 x_43_ * x_35_ - 96 x_44_ * x_43_ - 44 x_49_ * x_43_ + 82 x_50_ * x_44_ ] = -13940
c15: 9 x_25_ + 44 x_39_ + 15 x_40_ + 40 x_47_ + [ -98 x_12_ * x_1_ - 78 x_41_ * x_2_ - 76 x_29_ * x_5_ - 94 x_50_ * x_5_ + 100 x_47_ * x_12_ - 18 x_22_ * x_17_ + 96 x_22_ * x_19_ - 6 x_47_ * x_19_ + 30 x_25_ * x_22_ + 38 x_50_ * x_22_ - 17 x_25_ ^ 2 - 56 x_40_ * x_29_ - 40 x_42_ * x_29_ - 4 x_39_ * x_31_ - 48 x_40_ * x_31_ - 34 x_41_ * x_31_ + 66 x_47_ * x_39_ + 76 x_41_ * x_40_ - 38 x_42_ * x_40_ + 56 x_42_ * x_41_ - 94 x_47_ * x_41_ ] = -4017
c16: -48 x_16_ - 36 x_18_ + 11 x_46_ + [ -80 x_10_ * x_4_ - 25 x_7_ ^ 2 - 84 x_38_ * x_7_ + 4 x_32_ * x_9_ - 98 x_43_ * x_9_ - 98 x_18_ * x_10_ - 6 x_43_ * x_10_ + 26 x_15_ ^ 2 + 14 x_18_ * x_15_ - 16 x_38_ * x_15_ - 6 x_43_ * x_15_ - 88 x_18_ * x_16_ - 54 x_26_ * x_16_ - 34 x_38_ * x_16_ + 78 x_46_ * x_16_ - 36 x_38_ * x_18_ + 52 x_43_ * x_26_ + 50 x_38_ * x_32_ + 16 x_43_ * x_32_ + 18 x_43_ * x_38_ - 3 x_46_ ^ 2 ] = -6007
c17: 23 x_16_ - 50 x_18_ - 48 x_24_ + 29 x_38_ + [ -34 x_3_ ^ 2 - 90 x_12_ * x_3_ + 28 x_28_ * x_3_ + 24 x_37_ * x_3_ - 30 x_38_ * x_3_ + 86 x_16_ * x_12_ + 92 x_30_ * x_12_ - 56 x_35_ * x_12_ - 90 x_16_ * x_14_ + 44 x_30_ * x_14_ + 10 x_37_ * x_14_ + 50 x_38_ * x_14_ + 78 x_16_ * x_15_ + 6 x_24_ * x_16_ + 48 x_28_ * x_16_ - 12 x_35_ * x_16_ - 22 x_37_ * x_16_ + 70 x_28_ * x_18_ + 16 x_38_ * x_18_ - 78 x_30_ * x_19_ - 47 x_28_ ^ 2 - 34 x_37_ * x_28_ - 44 x_38_ * x_30_ - 24 x_38_ ^ 2 ] = 1267
c18: -9 x_29_ - 12 x_36_ + [ -60 x_47_ * x_1_ - 42 x_28_ * x_7_ + 36 x_46_ * x_7_ - 35 x_9_ ^ 2 + 22 x_28_ * x_9_ - 74 x_29_ * x_9_ - 42 x_36_ * x_9_ - 10 x_31_ * x_20_ + 44 x_39_ * x_20_ - 70 x_29_ * x_24_ - 76 x_36_ * x_24_ - 50 x_25_ ^ 2 + 92 x_28_ * x_25_ - 62 x_47_ * x_25_ - 40 x_31_ * x_28_ - 94 x_46_ * x_28_ + 72 x_31_ * x_29_ - 52 x_36_ * x_29_ - 14 x_47_ * x_31_ ] = 977
c19: 25 x_7_ - 13 x_22_ + [ -70 x_36_ * x_4_ - 8 x_37_ * x_4_ - 16 x_26_ * x_13_ - 68 x_36_ * x_13_ + 8 x_47_ * x_13_ + 6 x_22_ ^ 2 - 34 x_45_ * x_22_ + 6 x_47_ * x_22_ - 14 x_26_ ^ 2 + 10 x_41_ ^ 2 + 28 x_47_ ^ 2 ] = 5700
c20: -1 x_3_ + 11 x_9_ + [ 30 x_45_ * x_9_ + 35 x_45_ ^ 2 ] = -436
c21: -1 x_13_ + 23 x_27_ + 27 x_38_ + 44 x_45_ + [ 10 x_36_ * x_4_ + 36 x_9_ ^ 2 + 82 x_49_ * x_9_ + 50 x_28_ * x_13_ - 2 x_31_ * x_13_ - 58 x_28_ * x_17_ - 82 x_37_ * x_27_ + 34 x_28_ ^ 2 + 88 x_36_ * x_28_ - 2 x_36_ * x_31_ + 98 x_44_ * x_31_ + 29 x_34_ ^ 2 - 80 x_38_ * x_34_ + 32 x_49_ * x_34_ - 48 x_38_ * x_36_ - 88 x_45_ * x_38_ - 74 x_49_ * x_44_ ] = 23601
c22: 33 x_10_ + [ 86 x_48_ * x_10_ - 30 x_32_ * x_14_ - 2 x_48_ ^ 2 ] = 282
c23: [ 70 x_2_ * x_7_ + 76 x_36_ * x_2_ - 2 x_7_ * x_5_ ] = -48
c24: [ 6 x_16_ * x_4_ - 6 x_19_ * x_4_ + 14 x_39_ * x_16_ + 52 x_41_ * x_16_ + 90 x_28_ * x_19_ - 44 x_41_ * x_19_ + 10 x_29_ * x_20_ + 46 x_41_ * x_21_ + 11 x_29_ ^ 2 + 20 x_35_ * x_29_ - 50 x_41_ * x_39_ ] = -3419
c25: 20 x_18_ - 3 x_21_ + 30 x_38_ - 30 x_50_ + [ 14 x_18_ * x_10_ + 8 x_18_ ^ 2 - 70 x_22_ * x_18_ - 84 x_40_ * x_20_ + 18 x_50_ * x_21_ - 98 x_50_ * x_38_ ] = 13878
c26: -50 x_3_ + 16 x_4_ + 31 x_27_ + [ -16 x_20_ * x_4_ - 68 x_33_ * x_17_ + 20 x_23_ * x_20_ + 54 x_27_ * x_20_ - 72 x_46_ * x_20_ + 64 x_27_ * x_23_ + 29 x_27_ ^ 2 ] = -952
c27: -14 x_27_ + [ 1 x_12_ ^ 2 ] = -54
c28: 20 x_22_ + 10 x_28_ - 13 x_29_ + [ 16 x_7_ ^ 2 + 48 x_31_ * x_7_ + 9 x_8_ ^ 2 - 58 x_31_ * x_8_ - 4 x_22_ ^ 2 + 54 x_27_ * x_22_ - 86 x_31_ * x_22_ + 5 x_27_ ^ 2 - 80 x_28_ * x_27_ + 66 x_39_ * x_27_ - 18 x_29_ * x_28_ - 22 x_47_ * x_28_ + 80 x_47_ * x_29_ - 74 x_39_ * x_31_ + 13 x_39_ ^ 2 ] = 4103
c29: 39 x_41_ + 42 x_42_ + [ -26 x_44_ * x_13_ + 38 x_42_ * x_20_ - 76 x_45_ * x_20_ - 16 x_38_ * x_34_ - 100 x_42_ * x_34_ - 30 x_47_ * x_34_ + 58 x_44_ * x_37_ + 70 x_45_ * x_37_ + 76 x_47_ * x_37_ + 26 x_44_ * x_38_ - 28 x_41_ ^ 2 - 38 x_47_ * x_41_ + 44 x_47_ * x_44_ - 13 x_47_ ^ 2 ] = -1878
c30: [ -66 x_30_ * x_10_ + 42 x_32_ * x_10_ - 66 x_18_ * x_12_ - 40 x_30_ * x_12_ + 58 x_30_ * x_18_ - 26 x_44_ * x_18_ - 17 x_30_ ^ 2 - 96 x_39_ * x_30_ ] = -1320
c31: 4 x_2_ - 12 x_15_ - 16 x_34_ + 50 x_39_ + [ 1 x_1_ ^ 2 - 48 x_34_ * x_1_ + 66 x_41_ * x_1_ - 13 x_2_ ^ 2 + 80 x_35_ * x_2_ - 52 x_15_ * x_12_ + 26 x_34_ * x_13_ - 4 x_35_ * x_13_ + 66 x_42_ * x_13_ - 90 x_34_ * x_16_ + 60 x_41_ * x_16_ + 48 x_26_ ^ 2 + 22 x_34_ * x_26_ + 44 x_41_ * x_26_ + 2 x_42_ * x_26_ - 14 x_39_ * x_34_ + 22 x_42_ * x_35_ ] = 6278
c32: 50 x_21_ - 28 x_25_ + [ -30 x_21_ * x_2_ - 8 x_36_ * x_10_ + 40 x_46_ * x_10_ + 92 x_36_ * x_18_ - 64 x_44_ * x_18_ - 28 x_25_ * x_21_ - 8 x_25_ ^ 2 - 12 x_44_ * x_27_ ] = 15504
c33: -13 x_38_ + [ -72 x_16_ * x_2_ - 92 x_38_ * x_2_ - 6 x_4_ ^ 2 - 58 x_16_ * x_4_ + 92 x_38_ * x_12_ - 70 x_47_ * x_16_ + 31 x_22_ ^ 2 + 38 x_25_ * x_22_ - 26 x_47_ * x_22_ + 86 x_45_ * x_25_ + 49 x_42_ ^ 2 - 62 x_43_ * x_42_ - 66 x_45_ * x_43_ + 18 x_47_ * x_43_ ] = 9166
c34: [ -46 x_1_ ^ 2 - 62 x_43_ * x_1_ + 48 x_27_ * x_8_ + 68 x_43_ * x_8_ + 84 x_13_ * x_9_ + 82 x_34_ * x_11_ + 72 x_37_ * x_11_ - 66 x_43_ * x_11_ - 56 x_27_ * x_13_ - 10 x_47_ * x_43_ - 28 x_47_ ^ 2 ] = -158
Bounds
-7 <= x_1_ <= 6
-5 <= x_2_ <= 1
4 <= x_3_ <= 9
0 <= x_4_ <= 9
-4 <= x_5_ <= 5
-10 <= x_6_ <= -9
-8 <= x_7_ <= 10
-5 <= x_8_ <= 8
-5 <= x_9_ <= 10
-10 <= x_10_ <= 7
-2 <= x_11_ <= 4
-9 <= x_12_ <= 4
-6 <= x_13_ <= -3
-10 <= x_14_ <= 4
-7 <= x_15_ <= 7
-5 <= x_16_ <= 6
-6 <= x_17_ <= -2
-10 <= x_18_ <= 8
0 <= x_19_ <= 9
-5 <= x_20_ <= 10
7 <= x_21_ <= 9
-9 <= x_22_ <= 8
-10 <= x_23_ <= 2
-10 <= x_24_ <= 6
-7 <= x_25_ <= 0
-7 <= x_26_ <= 10
-4 <= x_27_ <= 5
-10 <= x_28_ <= -8
-9 <= x_29_ <= 2
-7 <= x_30_ <= 2
-6 <= x_31_ <= 8
-10 <= x_32_ <= 10
7 <= x_33_ <= 10
-8 <= x_34_ <= 9
-10 <= x_35_ <= 8
-10 <= x_36_ <= -8
0 <= x_37_ <= 9
-5 <= x_38_ <= 8
-9 <= x_39_ <= -3
-10 <= x_40_ <= 10
2 <= x_41_ <= 10
-7 <= x_42_ <= 2
2 <= x_43_ <= 8
2 <= x_44_ <= 10
-8 <= x_45_ <= 2
-2 <= x_46_ <= 5
-9 <= x_47_ <= 9
2 <= x_48_ <= 10
-8 <= x_49_ <= 3
-6 <= x_50_ <= 10
General
x_1_
x_2_
x_3_
x_4_
x_5_
x_6_
x_7_
x_8_
x_9_
x_10_
x_11_
x_12_
x_13_
x_14_
x_15_
x_16_
x_17_
x_18_
x_19_
x_20_
x_21_
x_22_
x_23_
x_24_
x_25_
x_26_
x_27_
x_28_
x_29_
x_30_
x_31_
x_32_
x_33_
x_34_
x_35_
x_36_
x_37_
x_38_
x_39_
x_40_
x_41_
x_42_
x_43_
x_44_
x_45_
x_46_
x_47_
x_48_
x_49_
x_50_
End
