minimize
obj: -36 x_4_ + 27 x_5_ + 33 x_8_ + 42 x_9_ + 39 x_14_ - 37 x_24_ + 14 x_31_ + 41 x_32_ - 42 x_35_ + 15 x_36_ - 38 x_37_
subject to
affine_ranged_1_ub: -41 x_17_ + 29 x_23_ <= -162
affine_ranged_2_ub: 19 x_4_ - 27 x_26_ <= 224
affine_ranged_3_ub: 40 x_4_ - 15 x_7_ <= 38
quadratic_ranged_1_ub: -9 x_39_ + [ -13 x_26_ ^ 2 + 47 x_33_ ^ 2 + 5 x_37_ ^ 2 + 16 x_40_ ^ 2 - 38 x_48_ ^ 2 ] <= -1334
quadratic_ranged_2_ub: -37 x_13_ + [ -46 x_1_ ^ 2 - 47 x_13_ ^ 2 - 19 x_32_ ^ 2 ] <= -2478
quadratic_ranged_3_ub: [ 21 x_1_ ^ 2 + 21 x_32_ ^ 2 ] <= 2126
quadratic_ranged_4_ub: 49 x_2_ + 18 x_15_ + [ -35 x_1_ ^ 2 + 10 x_5_ ^ 2 + 16 x_37_ ^ 2 + 38 x_47_ ^ 2 ] <= 2500
quadratic_ranged_5_ub: 25 x_12_ - 29 x_18_ - 45 x_22_ - 40 x_26_ + 41 x_42_ + [ 16 x_33_ ^ 2 - 10 x_42_ ^ 2 ] <= 252
quadratic_ranged_6_ub: -30 x_37_ + [ 4 x_19_ ^ 2 - 18 x_32_ ^ 2 ] <= -1632
quadratic_ranged_7_ub: -21 x_26_ - 19 x_38_ - 30 x_41_ + 31 x_49_ + [ 27 x_41_ ^ 2 ] <= 1131
quadratic_ranged_8_ub: -47 x_45_ + [ -13 x_1_ ^ 2 - 49 x_45_ ^ 2 - 50 x_50_ ^ 2 ] <= -161
quadratic_ranged_9_ub: -6 x_48_ + [ -2 x_33_ ^ 2 ] <= 16
quadratic_ranged_10_ub: 47 x_30_ + 9 x_35_ + 49 x_47_ + [ -43 x_15_ ^ 2 - 11 x_28_ ^ 2 - 16 x_30_ ^ 2 - 14 x_35_ ^ 2 - 15 x_40_ ^ 2 ] <= -2358
quadratic_ranged_11_ub: -24 x_22_ + [ 19 x_33_ ^ 2 + 24 x_36_ ^ 2 ] <= 1780
quadratic_ranged_12_ub: -14 x_6_ + [ -47 x_27_ ^ 2 + 47 x_29_ ^ 2 ] <= 73
quadratic_ranged_13_ub: -32 x_1_ - 14 x_14_ + 25 x_33_ - 26 x_40_ + [ -5 x_21_ ^ 2 - 47 x_23_ ^ 2 - 34 x_40_ ^ 2 + 19 x_47_ ^ 2 ] <= -4303
quadratic_ranged_14_ub: 10 x_12_ + [ 41 x_6_ ^ 2 + 22 x_13_ ^ 2 + 22 x_21_ ^ 2 + 4 x_22_ ^ 2 + 12 x_46_ ^ 2 ] <= 1194
quadratic_ranged_15_ub: [ 30 x_9_ ^ 2 + 30 x_15_ ^ 2 - 14 x_33_ ^ 2 ] <= 1375
quadratic_ranged_16_ub: 11 x_11_ - 48 x_16_ + 16 x_43_ + [ -1 x_13_ ^ 2 - 34 x_46_ ^ 2 ] <= -509
affine_ranged_1_lb: -41 x_17_ + 29 x_23_ >= -167
affine_ranged_2_lb: 19 x_4_ - 27 x_26_ >= 222
affine_ranged_3_lb: 40 x_4_ - 15 x_7_ >= 31
quadratic_ranged_1_lb: -9 x_39_ + [ -13 x_26_ ^ 2 + 47 x_33_ ^ 2 + 5 x_37_ ^ 2 + 16 x_40_ ^ 2 - 38 x_48_ ^ 2 ] >= -1340
quadratic_ranged_2_lb: -37 x_13_ + [ -46 x_1_ ^ 2 - 47 x_13_ ^ 2 - 19 x_32_ ^ 2 ] >= -2480
quadratic_ranged_3_lb: [ 21 x_1_ ^ 2 + 21 x_32_ ^ 2 ] >= 2120
quadratic_ranged_4_lb: 49 x_2_ + 18 x_15_ + [ -35 x_1_ ^ 2 + 10 x_5_ ^ 2 + 16 x_37_ ^ 2 + 38 x_47_ ^ 2 ] >= 2498
quadratic_ranged_5_lb: 25 x_12_ - 29 x_18_ - 45 x_22_ - 40 x_26_ + 41 x_42_ + [ 16 x_33_ ^ 2 - 10 x_42_ ^ 2 ] >= 244
quadratic_ranged_6_lb: -30 x_37_ + [ 4 x_19_ ^ 2 - 18 x_32_ ^ 2 ] >= -1639
quadratic_ranged_7_lb: -21 x_26_ - 19 x_38_ - 30 x_41_ + 31 x_49_ + [ 27 x_41_ ^ 2 ] >= 1126
quadratic_ranged_8_lb: -47 x_45_ + [ -13 x_1_ ^ 2 - 49 x_45_ ^ 2 - 50 x_50_ ^ 2 ] >= -168
quadratic_ranged_9_lb: -6 x_48_ + [ -2 x_33_ ^ 2 ] >= 9
quadratic_ranged_10_lb: 47 x_30_ + 9 x_35_ + 49 x_47_ + [ -43 x_15_ ^ 2 - 11 x_28_ ^ 2 - 16 x_30_ ^ 2 - 14 x_35_ ^ 2 - 15 x_40_ ^ 2 ] >= -2362
quadratic_ranged_11_lb: -24 x_22_ + [ 19 x_33_ ^ 2 + 24 x_36_ ^ 2 ] >= 1776
quadratic_ranged_12_lb: -14 x_6_ + [ -47 x_27_ ^ 2 + 47 x_29_ ^ 2 ] >= 70
quadratic_ranged_13_lb: -32 x_1_ - 14 x_14_ + 25 x_33_ - 26 x_40_ + [ -5 x_21_ ^ 2 - 47 x_23_ ^ 2 - 34 x_40_ ^ 2 + 19 x_47_ ^ 2 ] >= -4307
quadratic_ranged_14_lb: 10 x_12_ + [ 41 x_6_ ^ 2 + 22 x_13_ ^ 2 + 22 x_21_ ^ 2 + 4 x_22_ ^ 2 + 12 x_46_ ^ 2 ] >= 1192
quadratic_ranged_15_lb: [ 30 x_9_ ^ 2 + 30 x_15_ ^ 2 - 14 x_33_ ^ 2 ] >= 1372
quadratic_ranged_16_lb: 11 x_11_ - 48 x_16_ + 16 x_43_ + [ -1 x_13_ ^ 2 - 34 x_46_ ^ 2 ] >= -510
c1_1: -10 x_5_ + 43 x_9_ + 29 x_14_ - 45 x_24_ + 43 x_25_ - 22 x_33_ = 477
c2_1: -24 x_10_ + 19 x_33_ = -111
c3_1: -34 x_19_ - 27 x_39_ = 434
c4_1: 42 x_43_ + 25 x_44_ - 16 x_46_ = -269
c5_1: -24 x_13_ = -72
c6_1: 25 x_6_ = -125
c7_1: 2 x_10_ - 43 x_39_ = 272
c1: -15 x_32_ + 45 x_45_ + [ -1 x_14_ ^ 2 + 34 x_39_ ^ 2 + 19 x_47_ ^ 2 ] = 1919
c2: [ 1 x_2_ ^ 2 - 44 x_10_ ^ 2 + 15 x_31_ ^ 2 ] = -2012
c3: 14 x_46_ - 33 x_49_ + [ -44 x_46_ ^ 2 ] = -327
c4: 27 x_43_ + [ 17 x_31_ ^ 2 ] = -90
c5: 10 x_2_ + 39 x_45_ + [ 37 x_16_ ^ 2 ] = 2949
c6: -34 x_29_ + [ -14 x_12_ ^ 2 - 30 x_17_ ^ 2 - 38 x_21_ ^ 2 ] = -1946
c7: [ -3 x_5_ ^ 2 + 29 x_24_ ^ 2 + 28 x_38_ ^ 2 ] = 1797
c8: 41 x_50_ + [ 3 x_9_ ^ 2 - 33 x_50_ ^ 2 ] = 11
c9: -25 x_21_ + 42 x_36_ - 35 x_42_ + 3 x_46_ + [ -40 x_8_ ^ 2 + 50 x_21_ ^ 2 - 50 x_36_ ^ 2 ] = -5608
c10: -9 x_1_ - 10 x_13_ - 31 x_21_ - 1 x_44_ + [ 16 x_1_ ^ 2 + 1 x_5_ ^ 2 + 48 x_8_ ^ 2 + 29 x_13_ ^ 2 - 19 x_24_ ^ 2 ] = 2179
c11: 14 x_18_ + 27 x_23_ + [ 43 x_39_ ^ 2 + 10 x_50_ ^ 2 ] = 1358
c12: -49 x_46_ + [ -25 x_14_ ^ 2 - 41 x_42_ ^ 2 + 40 x_49_ ^ 2 - 44 x_50_ ^ 2 ] = 1266
c13: -33 x_5_ + 13 x_11_ + 4 x_20_ + [ 29 x_5_ ^ 2 ] = 2664
c14: [ -8 x_2_ ^ 2 + 32 x_50_ ^ 2 ] = -40
c15: -30 x_28_ + [ 15 x_5_ ^ 2 + 45 x_21_ ^ 2 + 19 x_28_ ^ 2 ] = 2170
c16: 42 x_12_ + [ 4 x_24_ ^ 2 ] = -320
c17: [ 49 x_14_ ^ 2 - 14 x_36_ ^ 2 + 27 x_42_ ^ 2 ] = 1937
c18: 13 x_12_ + [ 8 x_12_ ^ 2 + 43 x_23_ ^ 2 + 14 x_50_ ^ 2 ] = 4984
c19: 48 x_11_ - 44 x_16_ + 15 x_40_ + [ -25 x_42_ ^ 2 ] = -361
c20: -25 x_27_ + [ -27 x_9_ ^ 2 ] = 148
c21: 20 x_9_ + [ -15 x_40_ ^ 2 ] = -155
c22: -13 x_43_ + 15 x_49_ + [ -36 x_4_ ^ 2 + 41 x_34_ ^ 2 - 42 x_36_ ^ 2 - 16 x_37_ ^ 2 ] = -1140
c23: 46 x_35_ + [ 25 x_16_ ^ 2 + 46 x_24_ ^ 2 + 2 x_32_ ^ 2 + 13 x_35_ ^ 2 ] = 3335
c24: -28 x_11_ - 44 x_28_ + [ -35 x_19_ ^ 2 + 34 x_24_ ^ 2 ] = -1450
Bounds
-1 <= x_1_ <= 8
-4 <= x_2_ <= 9
-2 <= x_3_ <= 4
-1 <= x_4_ <= 4
-7 <= x_5_ <= 10
-5 <= x_6_ <= 7
-8 <= x_7_ <= 5
-7 <= x_8_ <= 10
-2 <= x_9_ <= 3
-2 <= x_10_ <= 7
-3 <= x_11_ <= 10
-10 <= x_12_ <= 0
x_13_ = 3
5 <= x_14_ <= 7
-10 <= x_15_ <= -4
6 <= x_16_ <= 9
-10 <= x_17_ <= 10
1 <= x_18_ <= 10
-9 <= x_19_ <= 6
-10 <= x_20_ <= -8
-2 <= x_21_ <= 4
-10 <= x_22_ <= 4
-10 <= x_23_ <= 4
-9 <= x_24_ <= 4
-3 <= x_25_ <= 7
-9 <= x_26_ <= 6
-8 <= x_27_ <= 2
-10 <= x_28_ <= -4
6 <= x_29_ <= 8
-7 <= x_30_ <= 9
-10 <= x_31_ <= 8
-10 <= x_32_ <= 6
-10 <= x_33_ <= 8
-6 <= x_34_ <= 4
-7 <= x_35_ <= 3
-10 <= x_36_ <= 10
-5 <= x_37_ <= 6
-3 <= x_38_ <= 8
-9 <= x_39_ <= 6
-9 <= x_40_ <= -2
-4 <= x_41_ <= 9
-3 <= x_42_ <= 5
-10 <= x_43_ <= 5
-10 <= x_44_ <= 6
-5 <= x_45_ <= 2
0 <= x_46_ <= 7
5 <= x_47_ <= 10
-5 <= x_48_ <= 3
-9 <= x_49_ <= 10
-10 <= x_50_ <= 2
General
x_1_
x_2_
x_3_
x_4_
x_5_
x_6_
x_7_
x_8_
x_9_
x_10_
x_11_
x_12_
x_13_
x_14_
x_15_
x_16_
x_17_
x_18_
x_19_
x_20_
x_21_
x_22_
x_23_
x_24_
x_25_
x_26_
x_27_
x_28_
x_29_
x_30_
x_31_
x_32_
x_33_
x_34_
x_35_
x_36_
x_37_
x_38_
x_39_
x_40_
x_41_
x_42_
x_43_
x_44_
x_45_
x_46_
x_47_
x_48_
x_49_
x_50_
End
