minimize
obj: -1 x_4_ + 32 x_8_ - 9 x_9_ - 7 x_12_ + 44 x_14_ - 23 x_16_ + 29 x_24_ + 49 x_34_ - 28 x_40_ + 40 x_45_
subject to
quadratic_ranged_1_ub: 31 x_31_ - 28 x_34_ + [ -82 x_10_ * x_31_ - 52 x_42_ * x_20_ ] <= 604
quadratic_ranged_2_ub: -25 x_15_ + [ 62 x_23_ * x_2_ - 14 x_28_ * x_2_ + 32 x_39_ * x_2_ - 98 x_26_ * x_4_ + 42 x_28_ * x_4_ - 20 x_23_ * x_15_ - 42 x_39_ * x_15_ - 37 x_20_ ^ 2 + 28 x_43_ * x_20_ + 84 x_26_ * x_23_ - 12 x_35_ * x_26_ - 90 x_43_ * x_26_ + 14 x_28_ ^ 2 + 64 x_35_ * x_28_ ] <= 7395
quadratic_ranged_3_ub: 46 x_14_ - 2 x_25_ + [ 30 x_19_ * x_14_ - 88 x_22_ * x_14_ - 14 x_29_ * x_14_ + 32 x_41_ * x_14_ + 7 x_19_ ^ 2 + 92 x_25_ * x_19_ + 38 x_29_ * x_19_ - 21 x_22_ ^ 2 - 15 x_25_ ^ 2 - 10 x_41_ * x_29_ ] <= 7064
quadratic_ranged_4_ub: 18 x_49_ + [ -28 x_27_ * x_3_ - 70 x_20_ * x_18_ + 24 x_49_ * x_18_ + 18 x_27_ * x_20_ + 90 x_46_ * x_22_ - 10 x_47_ ^ 2 - 48 x_49_ ^ 2 ] <= -6234
quadratic_ranged_5_ub: 36 x_6_ + 4 x_9_ + [ 86 x_6_ * x_9_ + 12 x_20_ * x_6_ - 54 x_33_ * x_6_ - 56 x_33_ * x_20_ ] <= 5897
quadratic_ranged_6_ub: 44 x_36_ + [ 12 x_3_ ^ 2 - 46 x_4_ * x_3_ + 36 x_6_ * x_3_ - 70 x_6_ * x_4_ - 18 x_36_ * x_13_ + 76 x_39_ * x_13_ - 40 x_22_ ^ 2 ] <= 8342
quadratic_ranged_7_ub: 27 x_5_ + [ 86 x_8_ * x_5_ + 16 x_12_ * x_10_ + 90 x_44_ * x_12_ - 32 x_37_ ^ 2 ] <= 1304
quadratic_ranged_8_ub: 13 x_35_ + [ -8 x_16_ * x_3_ - 58 x_21_ * x_3_ + 18 x_47_ * x_3_ + 70 x_40_ * x_5_ + 86 x_45_ * x_5_ + 12 x_8_ * x_7_ - 82 x_11_ * x_7_ - 90 x_13_ * x_7_ + 12 x_21_ * x_7_ + 96 x_35_ * x_7_ + 36 x_37_ * x_7_ + 54 x_42_ * x_7_ - 90 x_47_ * x_7_ - 80 x_20_ * x_8_ + 88 x_33_ * x_8_ - 92 x_20_ * x_11_ - 90 x_33_ * x_11_ - 1 x_13_ ^ 2 + 84 x_35_ * x_13_ + 16 x_37_ * x_13_ + 4 x_40_ * x_13_ - 98 x_45_ * x_13_ + 8 x_37_ * x_16_ + 88 x_42_ * x_16_ + 96 x_20_ * x_17_ + 4 x_33_ * x_17_ - 88 x_33_ * x_21_ + 68 x_35_ * x_21_ - 92 x_37_ * x_21_ + 26 x_35_ * x_33_ + 18 x_45_ * x_33_ + 74 x_42_ * x_37_ - 82 x_45_ * x_37_ + 78 x_45_ * x_40_ + 14 x_42_ ^ 2 - 48 x_47_ * x_45_ + 23 x_47_ ^ 2 ] <= -13992
quadratic_ranged_9_ub: 29 x_2_ - 26 x_48_ + [ 13 x_2_ ^ 2 - 14 x_48_ * x_2_ - 54 x_50_ * x_15_ + 48 x_50_ * x_45_ - 33 x_50_ ^ 2 ] <= -5630
quadratic_ranged_10_ub: -5 x_8_ + 27 x_32_ - 16 x_33_ + [ 33 x_5_ ^ 2 - 64 x_23_ * x_5_ + 78 x_31_ * x_5_ + 48 x_39_ * x_5_ + 26 x_7_ ^ 2 + 18 x_8_ * x_7_ - 100 x_14_ * x_7_ - 66 x_16_ * x_7_ + 40 x_23_ * x_7_ - 14 x_24_ * x_7_ + 28 x_30_ * x_7_ + 70 x_41_ * x_7_ + 88 x_16_ * x_8_ - 68 x_31_ * x_8_ - 72 x_33_ * x_8_ + 36 x_31_ * x_14_ - 90 x_30_ * x_16_ - 36 x_39_ * x_16_ - 46 x_41_ * x_23_ + 24 x_30_ * x_24_ + 84 x_33_ * x_24_ - 96 x_39_ * x_24_ - 20 x_39_ * x_30_ + 24 x_41_ ^ 2 ] <= 11030
quadratic_ranged_11_ub: 34 x_6_ + 48 x_12_ - 4 x_37_ + [ -24 x_12_ * x_6_ + 20 x_32_ ^ 2 - 36 x_45_ * x_34_ + 7 x_44_ ^ 2 ] <= -3778
quadratic_ranged_12_ub: -42 x_1_ + [ -39 x_1_ ^ 2 + 34 x_5_ * x_1_ - 2 x_36_ * x_1_ + 90 x_36_ * x_4_ + 43 x_5_ ^ 2 - 36 x_8_ * x_5_ + 28 x_11_ * x_5_ - 94 x_22_ * x_5_ + 54 x_36_ * x_5_ + 46 x_22_ * x_8_ + 48 x_33_ * x_11_ + 76 x_36_ * x_11_ - 34 x_30_ * x_22_ - 56 x_31_ * x_22_ + 12 x_36_ * x_30_ + 74 x_33_ * x_31_ + 40 x_36_ * x_33_ + 34 x_47_ * x_33_ ] <= -6730
quadratic_ranged_13_ub: -8 x_2_ - 15 x_21_ + [ -46 x_2_ * x_23_ - 8 x_21_ * x_11_ - 94 x_24_ * x_13_ + 96 x_24_ * x_14_ - 22 x_24_ * x_21_ + 32 x_33_ * x_23_ + 76 x_25_ * x_24_ ] <= 14913
quadratic_ranged_14_ub: -29 x_19_ - 19 x_25_ + 42 x_26_ + [ -23 x_15_ ^ 2 - 30 x_44_ * x_19_ + 10 x_27_ * x_20_ + 72 x_25_ * x_24_ - 4 x_26_ * x_25_ - 62 x_27_ * x_25_ + 18 x_44_ * x_25_ - 56 x_27_ * x_26_ - 44 x_44_ * x_27_ ] <= -7550
quadratic_ranged_15_ub: 40 x_3_ + [ -18 x_5_ * x_1_ - 40 x_19_ * x_1_ + 10 x_19_ * x_2_ - 82 x_30_ * x_2_ - 96 x_45_ * x_2_ + 48 x_20_ * x_3_ - 49 x_5_ ^ 2 - 88 x_20_ * x_5_ - 32 x_20_ * x_14_ - 16 x_45_ * x_19_ + 60 x_48_ * x_20_ - 92 x_45_ * x_30_ ] <= -6906
quadratic_ranged_16_ub: [ 58 x_13_ * x_9_ - 88 x_31_ * x_10_ - 78 x_31_ * x_13_ - 86 x_48_ * x_13_ - 17 x_14_ ^ 2 + 26 x_17_ * x_14_ + 50 x_50_ * x_14_ - 41 x_17_ ^ 2 - 12 x_50_ * x_17_ - 39 x_37_ ^ 2 - 4 x_50_ * x_37_ ] <= -2668
quadratic_ranged_17_ub: 36 x_2_ + 32 x_17_ + 12 x_37_ + [ 36 x_32_ * x_2_ - 38 x_35_ * x_2_ - 94 x_21_ * x_4_ - 39 x_16_ ^ 2 - 72 x_21_ * x_16_ - 50 x_29_ * x_16_ + 42 x_21_ * x_17_ + 38 x_32_ * x_17_ - 58 x_37_ * x_17_ + 5 x_21_ ^ 2 + 7 x_29_ ^ 2 + 48 x_35_ * x_29_ + 48 x_32_ ^ 2 - 56 x_37_ * x_32_ + 86 x_37_ * x_35_ - 13 x_37_ ^ 2 + 32 x_47_ ^ 2 ] <= -1714
quadratic_ranged_18_ub: 7 x_6_ + [ -52 x_6_ * x_3_ - 60 x_13_ * x_4_ + 38 x_17_ * x_4_ + 30 x_20_ * x_4_ - 6 x_41_ * x_4_ + 96 x_49_ * x_4_ - 76 x_9_ * x_6_ - 10 x_9_ ^ 2 + 12 x_17_ * x_9_ + 54 x_41_ * x_9_ - 16 x_20_ * x_13_ - 10 x_49_ * x_13_ - 50 x_20_ ^ 2 + 19 x_40_ ^ 2 ] <= -15521
quadratic_ranged_19_ub: 50 x_24_ + [ -80 x_4_ * x_24_ + 22 x_34_ * x_4_ ] <= 2305
quadratic_ranged_20_ub: 20 x_4_ - 32 x_16_ + [ -42 x_17_ * x_4_ + 36 x_31_ * x_15_ - 56 x_32_ * x_15_ - 90 x_48_ * x_15_ - 42 x_17_ * x_16_ - 8 x_22_ * x_16_ - 42 x_49_ * x_16_ - 98 x_32_ * x_22_ + 64 x_48_ * x_22_ + 45 x_24_ ^ 2 - 52 x_49_ * x_36_ - 37 x_48_ ^ 2 - 50 x_49_ ^ 2 ] <= -12282
quadratic_ranged_21_ub: -3 x_16_ + [ 38 x_15_ * x_14_ - 78 x_16_ * x_14_ - 22 x_30_ * x_14_ - 46 x_35_ * x_14_ + 8 x_25_ * x_15_ - 28 x_45_ * x_15_ + 48 x_16_ ^ 2 - 36 x_25_ * x_16_ + 54 x_35_ * x_16_ + 76 x_41_ * x_25_ - 49 x_29_ ^ 2 + 90 x_30_ * x_29_ + 38 x_41_ * x_29_ + 40 x_35_ * x_30_ - 86 x_41_ * x_35_ + 6 x_41_ * x_38_ ] <= -2676
quadratic_ranged_22_ub: 29 x_8_ + [ -84 x_15_ * x_1_ - 80 x_46_ * x_1_ + 92 x_24_ * x_8_ + 56 x_26_ * x_8_ - 74 x_46_ * x_8_ - 92 x_50_ * x_8_ + 4 x_31_ * x_15_ - 68 x_49_ * x_15_ - 48 x_24_ ^ 2 - 40 x_31_ * x_24_ - 52 x_32_ * x_24_ - 80 x_43_ * x_26_ - 92 x_50_ * x_32_ + 36 x_49_ * x_43_ ] <= -1517
quadratic_ranged_23_ub: [ 54 x_21_ * x_4_ - 36 x_30_ * x_4_ + 19 x_5_ ^ 2 - 22 x_30_ * x_5_ + 8 x_43_ * x_5_ - 26 x_43_ * x_11_ - 66 x_44_ * x_11_ + 16 x_37_ * x_30_ - 16 x_43_ * x_30_ - 18 x_44_ * x_43_ ] <= 3089
quadratic_ranged_24_ub: [ 11 x_5_ ^ 2 + 38 x_36_ * x_5_ + 50 x_17_ * x_12_ + 16 x_36_ * x_12_ + 17 x_17_ ^ 2 + 82 x_36_ * x_18_ ] <= 4176
quadratic_ranged_25_ub: -23 x_18_ + [ -90 x_6_ * x_4_ - 23 x_11_ ^ 2 - 50 x_34_ * x_11_ ] <= -253
quadratic_ranged_26_ub: -36 x_8_ + 21 x_49_ + [ 68 x_36_ * x_6_ - 8 x_8_ ^ 2 + 56 x_37_ * x_8_ + 98 x_49_ * x_8_ - 74 x_32_ * x_13_ + 10 x_22_ * x_15_ + 96 x_37_ * x_22_ + 72 x_46_ * x_22_ + 36 x_37_ ^ 2 ] <= 11610
quadratic_ranged_27_ub: 30 x_3_ - 6 x_24_ + 15 x_43_ + [ -48 x_3_ ^ 2 + 48 x_11_ * x_3_ + 86 x_24_ * x_3_ + 16 x_25_ * x_3_ + 48 x_12_ * x_11_ + 88 x_26_ * x_11_ + 76 x_39_ * x_11_ + 68 x_39_ * x_25_ + 15 x_26_ ^ 2 - 40 x_39_ * x_26_ + 18 x_43_ ^ 2 ] <= 1344
quadratic_ranged_28_ub: 37 x_37_ + [ -70 x_7_ * x_3_ + 28 x_21_ * x_3_ - 52 x_32_ * x_3_ + 46 x_37_ * x_3_ + 26 x_6_ ^ 2 - 8 x_37_ * x_7_ + 52 x_12_ * x_9_ - 94 x_31_ * x_12_ - 8 x_32_ * x_31_ - 23 x_37_ ^ 2 ] <= 742
quadratic_ranged_29_ub: 4 x_20_ + 44 x_23_ + [ -78 x_22_ * x_6_ - 30 x_23_ * x_6_ - 82 x_28_ * x_6_ - 20 x_30_ * x_6_ + 6 x_39_ * x_6_ + 88 x_46_ * x_6_ - 54 x_22_ * x_13_ + 34 x_32_ * x_13_ + 42 x_33_ * x_13_ - 42 x_48_ * x_13_ - 46 x_15_ ^ 2 + 88 x_20_ * x_15_ + 18 x_28_ * x_20_ + 16 x_33_ * x_20_ - 16 x_39_ * x_20_ + 32 x_43_ * x_20_ - 96 x_48_ * x_20_ + 92 x_28_ * x_22_ - 78 x_39_ * x_22_ - 30 x_46_ * x_22_ - 24 x_48_ * x_22_ - 20 x_23_ ^ 2 + 30 x_28_ * x_23_ + 40 x_30_ * x_23_ - 54 x_46_ * x_23_ - 34 x_48_ * x_23_ + 92 x_30_ * x_28_ - 78 x_43_ * x_28_ + 12 x_32_ * x_30_ + 44 x_43_ * x_30_ - 96 x_46_ * x_30_ - 60 x_48_ * x_30_ + 42 x_46_ * x_32_ - 44 x_43_ * x_33_ - 26 x_46_ * x_33_ + 100 x_43_ * x_39_ - 82 x_48_ * x_39_ + 10 x_48_ * x_46_ ] <= 11164
quadratic_ranged_30_ub: 4 x_32_ + 49 x_38_ + 39 x_47_ - 46 x_50_ + [ 90 x_9_ * x_8_ - 47 x_9_ ^ 2 - 62 x_38_ * x_9_ + 98 x_21_ * x_20_ - 80 x_32_ * x_20_ + 76 x_50_ * x_32_ - 80 x_47_ * x_38_ ] <= -765
quadratic_ranged_31_ub: 25 x_15_ - 49 x_32_ - 43 x_45_ + 9 x_47_ + [ 26 x_15_ * x_19_ - 82 x_47_ * x_15_ - 36 x_49_ * x_15_ + 92 x_38_ * x_19_ + 88 x_34_ * x_32_ - 76 x_45_ * x_32_ + 4 x_45_ * x_34_ + 96 x_41_ * x_38_ - 38 x_45_ * x_38_ - 94 x_47_ * x_38_ ] <= 14739
quadratic_ranged_32_ub: -1 x_12_ + 38 x_14_ - 6 x_27_ + 42 x_43_ + [ 6 x_4_ * x_38_ - 62 x_44_ * x_4_ + 50 x_43_ * x_14_ + 64 x_47_ * x_35_ - 62 x_49_ * x_38_ + 18 x_44_ * x_43_ ] <= -5792
quadratic_ranged_33_ub: -22 x_10_ - 29 x_21_ + [ -32 x_1_ ^ 2 - 94 x_25_ * x_1_ - 80 x_45_ * x_1_ - 20 x_21_ * x_4_ + 74 x_43_ * x_4_ - 46 x_6_ ^ 2 + 18 x_14_ * x_6_ - 14 x_36_ * x_6_ + 44 x_46_ * x_6_ + 44 x_14_ * x_9_ - 34 x_21_ * x_9_ + 26 x_36_ * x_9_ - 16 x_43_ * x_9_ + 66 x_46_ * x_9_ + 56 x_50_ * x_9_ - 6 x_25_ * x_10_ - 66 x_30_ * x_10_ - 54 x_46_ * x_14_ - 62 x_30_ * x_21_ - 100 x_46_ * x_25_ + 40 x_39_ * x_36_ + 46 x_43_ * x_36_ + 20 x_45_ * x_43_ + 49 x_45_ ^ 2 + 32 x_50_ * x_45_ ] <= 7176
quadratic_ranged_34_ub: 40 x_19_ + [ -20 x_5_ * x_1_ - 88 x_19_ * x_1_ + 2 x_27_ * x_1_ - 20 x_14_ * x_5_ + 36 x_7_ ^ 2 + 36 x_27_ * x_14_ - 54 x_43_ * x_19_ + 2 x_40_ * x_27_ ] <= 1626
quadratic_ranged_35_ub: 18 x_23_ + 26 x_25_ + [ -96 x_8_ * x_23_ + 28 x_25_ * x_8_ + 12 x_41_ * x_20_ ] <= -2120
quadratic_ranged_36_ub: 13 x_26_ + [ -30 x_8_ * x_3_ + 98 x_12_ * x_3_ + 78 x_45_ * x_3_ + 34 x_47_ * x_3_ - 3 x_19_ ^ 2 + 92 x_34_ * x_19_ - 90 x_37_ * x_19_ - 60 x_30_ * x_23_ - 60 x_34_ * x_26_ + 8 x_45_ * x_26_ - 58 x_34_ * x_30_ + 52 x_47_ * x_34_ + 100 x_47_ * x_37_ ] <= 14371
quadratic_ranged_37_ub: [ -58 x_18_ * x_1_ + 4 x_28_ * x_1_ + 36 x_44_ * x_1_ - 16 x_31_ * x_2_ - 14 x_44_ * x_2_ - 66 x_47_ * x_2_ + 43 x_6_ ^ 2 + 20 x_7_ * x_6_ + 90 x_18_ * x_6_ - 98 x_23_ * x_7_ + 94 x_47_ * x_7_ + 6 x_44_ * x_9_ + 98 x_47_ * x_9_ + 20 x_28_ * x_15_ + 32 x_44_ * x_15_ + 30 x_47_ * x_15_ + 86 x_44_ * x_18_ + 33 x_28_ ^ 2 + 38 x_31_ * x_28_ ] <= 3135
quadratic_ranged_38_ub: -27 x_34_ + [ -32 x_46_ * x_19_ + 98 x_49_ * x_19_ + 98 x_50_ * x_19_ + 30 x_49_ * x_38_ + 31 x_46_ ^ 2 ] <= 15288
quadratic_ranged_39_ub: 10 x_11_ + [ 24 x_33_ * x_2_ - 12 x_11_ * x_10_ + 72 x_30_ * x_10_ + 70 x_33_ * x_11_ + 28 x_33_ ^ 2 - 14 x_46_ ^ 2 ] <= -700
quadratic_ranged_40_ub: 23 x_2_ + [ -82 x_22_ * x_2_ - 34 x_29_ * x_2_ - 10 x_34_ * x_19_ - 3 x_22_ ^ 2 - 20 x_29_ * x_23_ + 86 x_34_ * x_23_ - 26 x_34_ * x_29_ + 8 x_34_ ^ 2 ] <= -5227
quadratic_ranged_41_ub: 50 x_7_ + 29 x_15_ - 3 x_20_ - 9 x_42_ + [ 50 x_20_ * x_1_ + 92 x_33_ * x_1_ - 70 x_42_ * x_1_ - 9 x_7_ ^ 2 + 8 x_29_ * x_7_ - 42 x_12_ ^ 2 - 72 x_42_ * x_15_ - 27 x_29_ ^ 2 - 1 x_33_ ^ 2 ] <= -3625
quadratic_ranged_42_ub: [ 14 x_13_ * x_3_ + 66 x_21_ * x_13_ + 31 x_15_ ^ 2 + 82 x_21_ * x_15_ - 6 x_18_ ^ 2 - 14 x_21_ * x_18_ ] <= 638
quadratic_ranged_43_ub: 21 x_8_ + 20 x_35_ + 35 x_49_ + [ -50 x_6_ * x_5_ - 40 x_44_ * x_5_ - 36 x_8_ * x_6_ + 62 x_32_ * x_6_ + 68 x_42_ * x_6_ - 16 x_11_ * x_8_ - 94 x_49_ * x_8_ - 4 x_27_ * x_11_ - 58 x_30_ * x_11_ - 42 x_43_ * x_11_ - 6 x_44_ * x_11_ - 30 x_35_ * x_22_ - 16 x_44_ * x_25_ + 14 x_49_ * x_25_ + 58 x_35_ * x_27_ - 94 x_41_ * x_27_ + 43 x_30_ ^ 2 + 32 x_43_ * x_30_ - 16 x_42_ * x_32_ + 30 x_43_ * x_42_ - 26 x_49_ * x_43_ + 80 x_49_ * x_44_ ] <= 2234
quadratic_ranged_44_ub: 42 x_44_ + [ 40 x_12_ * x_3_ + 82 x_17_ * x_12_ - 44 x_32_ * x_12_ + 4 x_30_ * x_17_ + 8 x_35_ * x_17_ - 94 x_44_ * x_17_ + 32 x_46_ * x_17_ - 40 x_46_ * x_30_ - 22 x_32_ ^ 2 + 30 x_49_ * x_32_ - 43 x_34_ ^ 2 + 4 x_35_ ^ 2 - 42 x_38_ * x_35_ - 24 x_44_ * x_35_ - 88 x_44_ * x_38_ - 3 x_44_ ^ 2 - 48 x_49_ * x_44_ + 20 x_49_ ^ 2 ] <= -9256
quadratic_ranged_1_lb: 31 x_31_ - 28 x_34_ + [ -82 x_10_ * x_31_ - 52 x_42_ * x_20_ ] >= 596
quadratic_ranged_2_lb: -25 x_15_ + [ 62 x_23_ * x_2_ - 14 x_28_ * x_2_ + 32 x_39_ * x_2_ - 98 x_26_ * x_4_ + 42 x_28_ * x_4_ - 20 x_23_ * x_15_ - 42 x_39_ * x_15_ - 37 x_20_ ^ 2 + 28 x_43_ * x_20_ + 84 x_26_ * x_23_ - 12 x_35_ * x_26_ - 90 x_43_ * x_26_ + 14 x_28_ ^ 2 + 64 x_35_ * x_28_ ] >= 7387
quadratic_ranged_3_lb: 46 x_14_ - 2 x_25_ + [ 30 x_19_ * x_14_ - 88 x_22_ * x_14_ - 14 x_29_ * x_14_ + 32 x_41_ * x_14_ + 7 x_19_ ^ 2 + 92 x_25_ * x_19_ + 38 x_29_ * x_19_ - 21 x_22_ ^ 2 - 15 x_25_ ^ 2 - 10 x_41_ * x_29_ ] >= 7055
quadratic_ranged_4_lb: 18 x_49_ + [ -28 x_27_ * x_3_ - 70 x_20_ * x_18_ + 24 x_49_ * x_18_ + 18 x_27_ * x_20_ + 90 x_46_ * x_22_ - 10 x_47_ ^ 2 - 48 x_49_ ^ 2 ] >= -6239
quadratic_ranged_5_lb: 36 x_6_ + 4 x_9_ + [ 86 x_6_ * x_9_ + 12 x_20_ * x_6_ - 54 x_33_ * x_6_ - 56 x_33_ * x_20_ ] >= 5892
quadratic_ranged_6_lb: 44 x_36_ + [ 12 x_3_ ^ 2 - 46 x_4_ * x_3_ + 36 x_6_ * x_3_ - 70 x_6_ * x_4_ - 18 x_36_ * x_13_ + 76 x_39_ * x_13_ - 40 x_22_ ^ 2 ] >= 8338
quadratic_ranged_7_lb: 27 x_5_ + [ 86 x_8_ * x_5_ + 16 x_12_ * x_10_ + 90 x_44_ * x_12_ - 32 x_37_ ^ 2 ] >= 1299
quadratic_ranged_8_lb: 13 x_35_ + [ -8 x_16_ * x_3_ - 58 x_21_ * x_3_ + 18 x_47_ * x_3_ + 70 x_40_ * x_5_ + 86 x_45_ * x_5_ + 12 x_8_ * x_7_ - 82 x_11_ * x_7_ - 90 x_13_ * x_7_ + 12 x_21_ * x_7_ + 96 x_35_ * x_7_ + 36 x_37_ * x_7_ + 54 x_42_ * x_7_ - 90 x_47_ * x_7_ - 80 x_20_ * x_8_ + 88 x_33_ * x_8_ - 92 x_20_ * x_11_ - 90 x_33_ * x_11_ - 1 x_13_ ^ 2 + 84 x_35_ * x_13_ + 16 x_37_ * x_13_ + 4 x_40_ * x_13_ - 98 x_45_ * x_13_ + 8 x_37_ * x_16_ + 88 x_42_ * x_16_ + 96 x_20_ * x_17_ + 4 x_33_ * x_17_ - 88 x_33_ * x_21_ + 68 x_35_ * x_21_ - 92 x_37_ * x_21_ + 26 x_35_ * x_33_ + 18 x_45_ * x_33_ + 74 x_42_ * x_37_ - 82 x_45_ * x_37_ + 78 x_45_ * x_40_ + 14 x_42_ ^ 2 - 48 x_47_ * x_45_ + 23 x_47_ ^ 2 ] >= -13997
quadratic_ranged_9_lb: 29 x_2_ - 26 x_48_ + [ 13 x_2_ ^ 2 - 14 x_48_ * x_2_ - 54 x_50_ * x_15_ + 48 x_50_ * x_45_ - 33 x_50_ ^ 2 ] >= -5634
quadratic_ranged_10_lb: -5 x_8_ + 27 x_32_ - 16 x_33_ + [ 33 x_5_ ^ 2 - 64 x_23_ * x_5_ + 78 x_31_ * x_5_ + 48 x_39_ * x_5_ + 26 x_7_ ^ 2 + 18 x_8_ * x_7_ - 100 x_14_ * x_7_ - 66 x_16_ * x_7_ + 40 x_23_ * x_7_ - 14 x_24_ * x_7_ + 28 x_30_ * x_7_ + 70 x_41_ * x_7_ + 88 x_16_ * x_8_ - 68 x_31_ * x_8_ - 72 x_33_ * x_8_ + 36 x_31_ * x_14_ - 90 x_30_ * x_16_ - 36 x_39_ * x_16_ - 46 x_41_ * x_23_ + 24 x_30_ * x_24_ + 84 x_33_ * x_24_ - 96 x_39_ * x_24_ - 20 x_39_ * x_30_ + 24 x_41_ ^ 2 ] >= 11024
quadratic_ranged_11_lb: 34 x_6_ + 48 x_12_ - 4 x_37_ + [ -24 x_12_ * x_6_ + 20 x_32_ ^ 2 - 36 x_45_ * x_34_ + 7 x_44_ ^ 2 ] >= -3788
quadratic_ranged_12_lb: -42 x_1_ + [ -39 x_1_ ^ 2 + 34 x_5_ * x_1_ - 2 x_36_ * x_1_ + 90 x_36_ * x_4_ + 43 x_5_ ^ 2 - 36 x_8_ * x_5_ + 28 x_11_ * x_5_ - 94 x_22_ * x_5_ + 54 x_36_ * x_5_ + 46 x_22_ * x_8_ + 48 x_33_ * x_11_ + 76 x_36_ * x_11_ - 34 x_30_ * x_22_ - 56 x_31_ * x_22_ + 12 x_36_ * x_30_ + 74 x_33_ * x_31_ + 40 x_36_ * x_33_ + 34 x_47_ * x_33_ ] >= -6739
quadratic_ranged_13_lb: -8 x_2_ - 15 x_21_ + [ -46 x_2_ * x_23_ - 8 x_21_ * x_11_ - 94 x_24_ * x_13_ + 96 x_24_ * x_14_ - 22 x_24_ * x_21_ + 32 x_33_ * x_23_ + 76 x_25_ * x_24_ ] >= 14907
quadratic_ranged_14_lb: -29 x_19_ - 19 x_25_ + 42 x_26_ + [ -23 x_15_ ^ 2 - 30 x_44_ * x_19_ + 10 x_27_ * x_20_ + 72 x_25_ * x_24_ - 4 x_26_ * x_25_ - 62 x_27_ * x_25_ + 18 x_44_ * x_25_ - 56 x_27_ * x_26_ - 44 x_44_ * x_27_ ] >= -7554
quadratic_ranged_15_lb: 40 x_3_ + [ -18 x_5_ * x_1_ - 40 x_19_ * x_1_ + 10 x_19_ * x_2_ - 82 x_30_ * x_2_ - 96 x_45_ * x_2_ + 48 x_20_ * x_3_ - 49 x_5_ ^ 2 - 88 x_20_ * x_5_ - 32 x_20_ * x_14_ - 16 x_45_ * x_19_ + 60 x_48_ * x_20_ - 92 x_45_ * x_30_ ] >= -6910
quadratic_ranged_16_lb: [ 58 x_13_ * x_9_ - 88 x_31_ * x_10_ - 78 x_31_ * x_13_ - 86 x_48_ * x_13_ - 17 x_14_ ^ 2 + 26 x_17_ * x_14_ + 50 x_50_ * x_14_ - 41 x_17_ ^ 2 - 12 x_50_ * x_17_ - 39 x_37_ ^ 2 - 4 x_50_ * x_37_ ] >= -2669
quadratic_ranged_17_lb: 36 x_2_ + 32 x_17_ + 12 x_37_ + [ 36 x_32_ * x_2_ - 38 x_35_ * x_2_ - 94 x_21_ * x_4_ - 39 x_16_ ^ 2 - 72 x_21_ * x_16_ - 50 x_29_ * x_16_ + 42 x_21_ * x_17_ + 38 x_32_ * x_17_ - 58 x_37_ * x_17_ + 5 x_21_ ^ 2 + 7 x_29_ ^ 2 + 48 x_35_ * x_29_ + 48 x_32_ ^ 2 - 56 x_37_ * x_32_ + 86 x_37_ * x_35_ - 13 x_37_ ^ 2 + 32 x_47_ ^ 2 ] >= -1716
quadratic_ranged_18_lb: 7 x_6_ + [ -52 x_6_ * x_3_ - 60 x_13_ * x_4_ + 38 x_17_ * x_4_ + 30 x_20_ * x_4_ - 6 x_41_ * x_4_ + 96 x_49_ * x_4_ - 76 x_9_ * x_6_ - 10 x_9_ ^ 2 + 12 x_17_ * x_9_ + 54 x_41_ * x_9_ - 16 x_20_ * x_13_ - 10 x_49_ * x_13_ - 50 x_20_ ^ 2 + 19 x_40_ ^ 2 ] >= -15524
quadratic_ranged_19_lb: 50 x_24_ + [ -80 x_4_ * x_24_ + 22 x_34_ * x_4_ ] >= 2304
quadratic_ranged_20_lb: 20 x_4_ - 32 x_16_ + [ -42 x_17_ * x_4_ + 36 x_31_ * x_15_ - 56 x_32_ * x_15_ - 90 x_48_ * x_15_ - 42 x_17_ * x_16_ - 8 x_22_ * x_16_ - 42 x_49_ * x_16_ - 98 x_32_ * x_22_ + 64 x_48_ * x_22_ + 45 x_24_ ^ 2 - 52 x_49_ * x_36_ - 37 x_48_ ^ 2 - 50 x_49_ ^ 2 ] >= -12285
quadratic_ranged_21_lb: -3 x_16_ + [ 38 x_15_ * x_14_ - 78 x_16_ * x_14_ - 22 x_30_ * x_14_ - 46 x_35_ * x_14_ + 8 x_25_ * x_15_ - 28 x_45_ * x_15_ + 48 x_16_ ^ 2 - 36 x_25_ * x_16_ + 54 x_35_ * x_16_ + 76 x_41_ * x_25_ - 49 x_29_ ^ 2 + 90 x_30_ * x_29_ + 38 x_41_ * x_29_ + 40 x_35_ * x_30_ - 86 x_41_ * x_35_ + 6 x_41_ * x_38_ ] >= -2679
quadratic_ranged_22_lb: 29 x_8_ + [ -84 x_15_ * x_1_ - 80 x_46_ * x_1_ + 92 x_24_ * x_8_ + 56 x_26_ * x_8_ - 74 x_46_ * x_8_ - 92 x_50_ * x_8_ + 4 x_31_ * x_15_ - 68 x_49_ * x_15_ - 48 x_24_ ^ 2 - 40 x_31_ * x_24_ - 52 x_32_ * x_24_ - 80 x_43_ * x_26_ - 92 x_50_ * x_32_ + 36 x_49_ * x_43_ ] >= -1523
quadratic_ranged_23_lb: [ 54 x_21_ * x_4_ - 36 x_30_ * x_4_ + 19 x_5_ ^ 2 - 22 x_30_ * x_5_ + 8 x_43_ * x_5_ - 26 x_43_ * x_11_ - 66 x_44_ * x_11_ + 16 x_37_ * x_30_ - 16 x_43_ * x_30_ - 18 x_44_ * x_43_ ] >= 3087
quadratic_ranged_24_lb: [ 11 x_5_ ^ 2 + 38 x_36_ * x_5_ + 50 x_17_ * x_12_ + 16 x_36_ * x_12_ + 17 x_17_ ^ 2 + 82 x_36_ * x_18_ ] >= 4172
quadratic_ranged_25_lb: -23 x_18_ + [ -90 x_6_ * x_4_ - 23 x_11_ ^ 2 - 50 x_34_ * x_11_ ] >= -260
quadratic_ranged_26_lb: -36 x_8_ + 21 x_49_ + [ 68 x_36_ * x_6_ - 8 x_8_ ^ 2 + 56 x_37_ * x_8_ + 98 x_49_ * x_8_ - 74 x_32_ * x_13_ + 10 x_22_ * x_15_ + 96 x_37_ * x_22_ + 72 x_46_ * x_22_ + 36 x_37_ ^ 2 ] >= 11607
quadratic_ranged_27_lb: 30 x_3_ - 6 x_24_ + 15 x_43_ + [ -48 x_3_ ^ 2 + 48 x_11_ * x_3_ + 86 x_24_ * x_3_ + 16 x_25_ * x_3_ + 48 x_12_ * x_11_ + 88 x_26_ * x_11_ + 76 x_39_ * x_11_ + 68 x_39_ * x_25_ + 15 x_26_ ^ 2 - 40 x_39_ * x_26_ + 18 x_43_ ^ 2 ] >= 1336
quadratic_ranged_28_lb: 37 x_37_ + [ -70 x_7_ * x_3_ + 28 x_21_ * x_3_ - 52 x_32_ * x_3_ + 46 x_37_ * x_3_ + 26 x_6_ ^ 2 - 8 x_37_ * x_7_ + 52 x_12_ * x_9_ - 94 x_31_ * x_12_ - 8 x_32_ * x_31_ - 23 x_37_ ^ 2 ] >= 736
quadratic_ranged_29_lb: 4 x_20_ + 44 x_23_ + [ -78 x_22_ * x_6_ - 30 x_23_ * x_6_ - 82 x_28_ * x_6_ - 20 x_30_ * x_6_ + 6 x_39_ * x_6_ + 88 x_46_ * x_6_ - 54 x_22_ * x_13_ + 34 x_32_ * x_13_ + 42 x_33_ * x_13_ - 42 x_48_ * x_13_ - 46 x_15_ ^ 2 + 88 x_20_ * x_15_ + 18 x_28_ * x_20_ + 16 x_33_ * x_20_ - 16 x_39_ * x_20_ + 32 x_43_ * x_20_ - 96 x_48_ * x_20_ + 92 x_28_ * x_22_ - 78 x_39_ * x_22_ - 30 x_46_ * x_22_ - 24 x_48_ * x_22_ - 20 x_23_ ^ 2 + 30 x_28_ * x_23_ + 40 x_30_ * x_23_ - 54 x_46_ * x_23_ - 34 x_48_ * x_23_ + 92 x_30_ * x_28_ - 78 x_43_ * x_28_ + 12 x_32_ * x_30_ + 44 x_43_ * x_30_ - 96 x_46_ * x_30_ - 60 x_48_ * x_30_ + 42 x_46_ * x_32_ - 44 x_43_ * x_33_ - 26 x_46_ * x_33_ + 100 x_43_ * x_39_ - 82 x_48_ * x_39_ + 10 x_48_ * x_46_ ] >= 11157
quadratic_ranged_30_lb: 4 x_32_ + 49 x_38_ + 39 x_47_ - 46 x_50_ + [ 90 x_9_ * x_8_ - 47 x_9_ ^ 2 - 62 x_38_ * x_9_ + 98 x_21_ * x_20_ - 80 x_32_ * x_20_ + 76 x_50_ * x_32_ - 80 x_47_ * x_38_ ] >= -772
quadratic_ranged_31_lb: 25 x_15_ - 49 x_32_ - 43 x_45_ + 9 x_47_ + [ 26 x_15_ * x_19_ - 82 x_47_ * x_15_ - 36 x_49_ * x_15_ + 92 x_38_ * x_19_ + 88 x_34_ * x_32_ - 76 x_45_ * x_32_ + 4 x_45_ * x_34_ + 96 x_41_ * x_38_ - 38 x_45_ * x_38_ - 94 x_47_ * x_38_ ] >= 14735
quadratic_ranged_32_lb: -1 x_12_ + 38 x_14_ - 6 x_27_ + 42 x_43_ + [ 6 x_4_ * x_38_ - 62 x_44_ * x_4_ + 50 x_43_ * x_14_ + 64 x_47_ * x_35_ - 62 x_49_ * x_38_ + 18 x_44_ * x_43_ ] >= -5797
quadratic_ranged_33_lb: -22 x_10_ - 29 x_21_ + [ -32 x_1_ ^ 2 - 94 x_25_ * x_1_ - 80 x_45_ * x_1_ - 20 x_21_ * x_4_ + 74 x_43_ * x_4_ - 46 x_6_ ^ 2 + 18 x_14_ * x_6_ - 14 x_36_ * x_6_ + 44 x_46_ * x_6_ + 44 x_14_ * x_9_ - 34 x_21_ * x_9_ + 26 x_36_ * x_9_ - 16 x_43_ * x_9_ + 66 x_46_ * x_9_ + 56 x_50_ * x_9_ - 6 x_25_ * x_10_ - 66 x_30_ * x_10_ - 54 x_46_ * x_14_ - 62 x_30_ * x_21_ - 100 x_46_ * x_25_ + 40 x_39_ * x_36_ + 46 x_43_ * x_36_ + 20 x_45_ * x_43_ + 49 x_45_ ^ 2 + 32 x_50_ * x_45_ ] >= 7173
quadratic_ranged_34_lb: 40 x_19_ + [ -20 x_5_ * x_1_ - 88 x_19_ * x_1_ + 2 x_27_ * x_1_ - 20 x_14_ * x_5_ + 36 x_7_ ^ 2 + 36 x_27_ * x_14_ - 54 x_43_ * x_19_ + 2 x_40_ * x_27_ ] >= 1624
quadratic_ranged_35_lb: 18 x_23_ + 26 x_25_ + [ -96 x_8_ * x_23_ + 28 x_25_ * x_8_ + 12 x_41_ * x_20_ ] >= -2122
quadratic_ranged_36_lb: 13 x_26_ + [ -30 x_8_ * x_3_ + 98 x_12_ * x_3_ + 78 x_45_ * x_3_ + 34 x_47_ * x_3_ - 3 x_19_ ^ 2 + 92 x_34_ * x_19_ - 90 x_37_ * x_19_ - 60 x_30_ * x_23_ - 60 x_34_ * x_26_ + 8 x_45_ * x_26_ - 58 x_34_ * x_30_ + 52 x_47_ * x_34_ + 100 x_47_ * x_37_ ] >= 14369
quadratic_ranged_37_lb: [ -58 x_18_ * x_1_ + 4 x_28_ * x_1_ + 36 x_44_ * x_1_ - 16 x_31_ * x_2_ - 14 x_44_ * x_2_ - 66 x_47_ * x_2_ + 43 x_6_ ^ 2 + 20 x_7_ * x_6_ + 90 x_18_ * x_6_ - 98 x_23_ * x_7_ + 94 x_47_ * x_7_ + 6 x_44_ * x_9_ + 98 x_47_ * x_9_ + 20 x_28_ * x_15_ + 32 x_44_ * x_15_ + 30 x_47_ * x_15_ + 86 x_44_ * x_18_ + 33 x_28_ ^ 2 + 38 x_31_ * x_28_ ] >= 3129
quadratic_ranged_38_lb: -27 x_34_ + [ -32 x_46_ * x_19_ + 98 x_49_ * x_19_ + 98 x_50_ * x_19_ + 30 x_49_ * x_38_ + 31 x_46_ ^ 2 ] >= 15283
quadratic_ranged_39_lb: 10 x_11_ + [ 24 x_33_ * x_2_ - 12 x_11_ * x_10_ + 72 x_30_ * x_10_ + 70 x_33_ * x_11_ + 28 x_33_ ^ 2 - 14 x_46_ ^ 2 ] >= -705
quadratic_ranged_40_lb: 23 x_2_ + [ -82 x_22_ * x_2_ - 34 x_29_ * x_2_ - 10 x_34_ * x_19_ - 3 x_22_ ^ 2 - 20 x_29_ * x_23_ + 86 x_34_ * x_23_ - 26 x_34_ * x_29_ + 8 x_34_ ^ 2 ] >= -5228
quadratic_ranged_41_lb: 50 x_7_ + 29 x_15_ - 3 x_20_ - 9 x_42_ + [ 50 x_20_ * x_1_ + 92 x_33_ * x_1_ - 70 x_42_ * x_1_ - 9 x_7_ ^ 2 + 8 x_29_ * x_7_ - 42 x_12_ ^ 2 - 72 x_42_ * x_15_ - 27 x_29_ ^ 2 - 1 x_33_ ^ 2 ] >= -3633
quadratic_ranged_42_lb: [ 14 x_13_ * x_3_ + 66 x_21_ * x_13_ + 31 x_15_ ^ 2 + 82 x_21_ * x_15_ - 6 x_18_ ^ 2 - 14 x_21_ * x_18_ ] >= 632
quadratic_ranged_43_lb: 21 x_8_ + 20 x_35_ + 35 x_49_ + [ -50 x_6_ * x_5_ - 40 x_44_ * x_5_ - 36 x_8_ * x_6_ + 62 x_32_ * x_6_ + 68 x_42_ * x_6_ - 16 x_11_ * x_8_ - 94 x_49_ * x_8_ - 4 x_27_ * x_11_ - 58 x_30_ * x_11_ - 42 x_43_ * x_11_ - 6 x_44_ * x_11_ - 30 x_35_ * x_22_ - 16 x_44_ * x_25_ + 14 x_49_ * x_25_ + 58 x_35_ * x_27_ - 94 x_41_ * x_27_ + 43 x_30_ ^ 2 + 32 x_43_ * x_30_ - 16 x_42_ * x_32_ + 30 x_43_ * x_42_ - 26 x_49_ * x_43_ + 80 x_49_ * x_44_ ] >= 2226
quadratic_ranged_44_lb: 42 x_44_ + [ 40 x_12_ * x_3_ + 82 x_17_ * x_12_ - 44 x_32_ * x_12_ + 4 x_30_ * x_17_ + 8 x_35_ * x_17_ - 94 x_44_ * x_17_ + 32 x_46_ * x_17_ - 40 x_46_ * x_30_ - 22 x_32_ ^ 2 + 30 x_49_ * x_32_ - 43 x_34_ ^ 2 + 4 x_35_ ^ 2 - 42 x_38_ * x_35_ - 24 x_44_ * x_35_ - 88 x_44_ * x_38_ - 3 x_44_ ^ 2 - 48 x_49_ * x_44_ + 20 x_49_ ^ 2 ] >= -9260
c1_1: -27 x_36_ = 243
c1: -29 x_24_ + 19 x_33_ + [ -56 x_14_ * x_7_ - 84 x_20_ * x_7_ - 94 x_46_ * x_7_ + 44 x_20_ * x_14_ - 74 x_33_ * x_14_ + 60 x_35_ * x_14_ - 48 x_20_ ^ 2 - 6 x_35_ * x_20_ + 50 x_37_ * x_20_ + 72 x_47_ * x_20_ - 21 x_24_ ^ 2 + 78 x_35_ * x_24_ + 30 x_35_ * x_33_ - 18 x_46_ * x_37_ ] = 5006
c2: 9 x_8_ - 15 x_31_ + 28 x_38_ + [ 10 x_8_ * x_5_ - 82 x_19_ * x_5_ - 94 x_36_ * x_8_ - 30 x_47_ * x_8_ - 24 x_50_ * x_8_ + 26 x_16_ ^ 2 + 82 x_17_ * x_16_ + 92 x_50_ * x_16_ + 26 x_31_ * x_17_ - 74 x_50_ * x_17_ - 30 x_47_ * x_19_ + 28 x_38_ * x_31_ + 74 x_47_ * x_31_ + 8 x_48_ * x_31_ - 7 x_35_ ^ 2 + 34 x_44_ * x_35_ + 25 x_36_ ^ 2 + 48 x_50_ * x_36_ + 24 x_44_ * x_38_ + 94 x_47_ * x_38_ + 22 x_50_ * x_38_ ] = 7652
c3: -40 x_17_ - 26 x_42_ + [ -39 x_7_ ^ 2 - 96 x_17_ * x_7_ + 62 x_32_ * x_7_ + 8 x_29_ * x_12_ - 18 x_42_ * x_17_ + 84 x_47_ * x_17_ - 4 x_29_ * x_22_ + 10 x_35_ * x_29_ - 22 x_39_ * x_33_ + 24 x_42_ * x_33_ + 88 x_47_ * x_39_ + 78 x_42_ * x_40_ ] = 11272
c4: -34 x_14_ - 2 x_15_ + 32 x_17_ + 40 x_24_ + 28 x_31_ + 41 x_39_ + [ -36 x_36_ * x_6_ - 2 x_17_ * x_14_ - 66 x_24_ * x_14_ + 14 x_17_ * x_15_ - 70 x_27_ * x_24_ + 86 x_36_ * x_26_ - 24 x_36_ * x_27_ + 4 x_39_ * x_36_ + 3 x_39_ ^ 2 ] = -8250
c5: -31 x_17_ - 44 x_25_ - 42 x_28_ + [ -84 x_14_ * x_3_ + 88 x_28_ * x_3_ - 82 x_14_ * x_6_ + 68 x_20_ * x_6_ - 22 x_17_ * x_13_ - 78 x_18_ * x_13_ + 30 x_25_ * x_13_ - 34 x_28_ * x_13_ + 84 x_29_ * x_13_ + 78 x_17_ * x_14_ - 78 x_17_ * x_15_ - 22 x_20_ * x_15_ + 92 x_25_ * x_17_ - 22 x_18_ ^ 2 - 84 x_20_ * x_18_ + 48 x_29_ * x_18_ + 27 x_25_ ^ 2 - 4 x_29_ * x_25_ - 26 x_29_ * x_28_ - 1 x_42_ ^ 2 ] = -13785
c6: -3 x_3_ - 12 x_9_ + 31 x_48_ + [ -31 x_1_ ^ 2 - 64 x_4_ * x_1_ + 14 x_50_ * x_1_ + 54 x_21_ * x_3_ - 60 x_48_ * x_3_ + 64 x_50_ * x_3_ - 21 x_4_ ^ 2 + 80 x_38_ * x_9_ + 48 x_50_ * x_9_ - 30 x_38_ * x_32_ + 74 x_44_ * x_38_ - 8 x_48_ * x_38_ - 10 x_48_ * x_44_ ] = 11175
c7: -37 x_14_ - 48 x_16_ + [ 14 x_4_ ^ 2 + 90 x_9_ * x_4_ + 26 x_13_ * x_4_ - 82 x_23_ * x_4_ + 68 x_25_ * x_9_ - 38 x_27_ * x_9_ - 52 x_14_ * x_13_ + 26 x_23_ * x_14_ - 92 x_27_ * x_14_ ] = -3242
c8: -38 x_48_ + [ 84 x_18_ * x_5_ + 66 x_21_ * x_5_ - 68 x_18_ * x_14_ - 22 x_48_ * x_14_ + 44 x_21_ * x_15_ - 46 x_49_ * x_15_ - 30 x_18_ ^ 2 + 18 x_42_ * x_18_ + 86 x_48_ * x_18_ + 30 x_21_ ^ 2 + 16 x_45_ * x_21_ + 10 x_48_ * x_21_ - 70 x_49_ * x_21_ + 58 x_49_ * x_26_ + 30 x_45_ * x_42_ + 7 x_44_ ^ 2 + 12 x_48_ * x_45_ + 90 x_48_ * x_46_ - 72 x_49_ * x_46_ - 4 x_49_ * x_48_ ] = 10507
c9: [ 8 x_45_ * x_1_ + 28 x_37_ * x_2_ + 62 x_12_ * x_11_ + 50 x_28_ * x_12_ + 72 x_45_ * x_28_ + 33 x_45_ ^ 2 ] = 1736
c10: 17 x_34_ + [ 19 x_9_ ^ 2 - 94 x_19_ * x_9_ - 60 x_24_ * x_9_ - 32 x_35_ * x_9_ - 66 x_42_ * x_9_ + 18 x_19_ * x_12_ + 58 x_25_ * x_12_ - 72 x_34_ * x_19_ + 60 x_35_ * x_25_ + 86 x_40_ * x_28_ - 80 x_42_ * x_30_ + 22 x_34_ ^ 2 - 20 x_35_ * x_34_ - 16 x_42_ * x_40_ ] = -4581
c11: 41 x_5_ - 40 x_14_ - 50 x_15_ - 28 x_18_ + [ -9 x_3_ ^ 2 + 36 x_19_ * x_3_ + 74 x_47_ * x_3_ + 62 x_9_ * x_5_ + 34 x_18_ * x_5_ + 92 x_47_ * x_5_ - 100 x_49_ * x_5_ + 38 x_7_ ^ 2 - 70 x_14_ * x_7_ + 42 x_16_ * x_7_ + 50 x_18_ * x_7_ - 22 x_49_ * x_9_ - 50 x_19_ * x_14_ + 38 x_24_ * x_14_ + 68 x_47_ * x_14_ + 14 x_18_ * x_15_ - 98 x_47_ * x_15_ + 15 x_18_ ^ 2 - 30 x_24_ * x_19_ ] = -6355
c12: -29 x_17_ - 17 x_36_ + 31 x_40_ + 10 x_41_ + [ -98 x_46_ * x_17_ - 78 x_48_ * x_19_ + 42 x_36_ ^ 2 + 20 x_40_ * x_36_ + 16 x_41_ * x_36_ - 6 x_46_ * x_36_ - 54 x_48_ * x_40_ ] = -446
c13: 24 x_7_ + 39 x_8_ - 10 x_18_ - 37 x_43_ + 5 x_47_ + [ -70 x_5_ * x_1_ + 22 x_42_ * x_1_ - 52 x_42_ * x_5_ + 48 x_43_ * x_5_ + 54 x_50_ * x_5_ - 42 x_42_ * x_7_ - 31 x_8_ ^ 2 - 70 x_31_ * x_8_ - 74 x_18_ * x_11_ + 8 x_48_ * x_11_ + 64 x_19_ * x_18_ - 30 x_48_ * x_19_ + 20 x_34_ ^ 2 - 76 x_50_ * x_34_ + 46 x_48_ * x_42_ + 13 x_47_ ^ 2 + 10 x_48_ * x_47_ + 12 x_50_ * x_47_ ] = 10766
c14: 4 x_20_ + [ -28 x_20_ * x_2_ - 90 x_32_ * x_2_ - 2 x_44_ * x_2_ - 38 x_13_ ^ 2 + 2 x_18_ * x_13_ - 50 x_38_ * x_13_ + 98 x_44_ * x_13_ + 54 x_46_ * x_13_ - 36 x_50_ * x_13_ - 82 x_38_ * x_18_ - 16 x_44_ * x_18_ - 52 x_48_ * x_18_ + 17 x_20_ ^ 2 + 40 x_34_ * x_20_ - 42 x_29_ ^ 2 + 12 x_48_ * x_32_ - 76 x_46_ * x_38_ - 15 x_50_ ^ 2 ] = -16332
c15: -39 x_16_ + 4 x_36_ + 50 x_40_ + [ 100 x_40_ * x_2_ + 78 x_15_ * x_9_ + 84 x_25_ * x_9_ + 36 x_36_ * x_9_ - 84 x_40_ * x_9_ - 24 x_25_ * x_10_ - 42 x_36_ * x_10_ + 80 x_40_ * x_10_ - 22 x_14_ ^ 2 - 92 x_15_ * x_14_ + 40 x_32_ * x_14_ + 74 x_36_ * x_14_ + 12 x_24_ * x_15_ - 86 x_27_ * x_15_ - 88 x_27_ * x_24_ + 42 x_36_ * x_24_ + 2 x_40_ * x_24_ + 32 x_32_ * x_25_ - 10 x_36_ * x_25_ + 40 x_32_ * x_27_ - 15 x_32_ ^ 2 - 30 x_40_ ^ 2 ] = -10273
c16: -42 x_43_ + [ -33 x_34_ ^ 2 ] = -2841
c17: -40 x_5_ + 3 x_6_ - 48 x_26_ + [ 20 x_11_ * x_1_ - 88 x_17_ * x_1_ + 66 x_18_ * x_1_ + 2 x_22_ * x_1_ - 27 x_5_ ^ 2 - 38 x_19_ * x_5_ - 64 x_36_ * x_5_ + 78 x_42_ * x_5_ - 98 x_22_ * x_6_ - 74 x_42_ * x_6_ - 30 x_11_ * x_8_ + 12 x_17_ ^ 2 + 24 x_50_ * x_17_ + 35 x_18_ ^ 2 - 64 x_19_ * x_18_ + 60 x_30_ * x_18_ - 42 x_48_ * x_18_ - 52 x_22_ * x_19_ + 82 x_30_ * x_19_ + 68 x_50_ * x_19_ - 64 x_26_ * x_22_ + 56 x_36_ * x_22_ + 14 x_50_ * x_22_ - 50 x_36_ ^ 2 - 14 x_50_ * x_36_ + 23 x_48_ ^ 2 + 54 x_50_ * x_48_ ] = 9224
c18: 31 x_16_ + [ -8 x_12_ ^ 2 - 12 x_38_ ^ 2 ] = -1160
c19: 50 x_49_ + [ 28 x_40_ * x_2_ - 22 x_42_ * x_2_ - 76 x_40_ * x_23_ + 14 x_42_ * x_23_ - 32 x_42_ * x_34_ - 47 x_49_ ^ 2 ] = -8400
c20: 39 x_44_ + [ -72 x_26_ * x_5_ - 56 x_44_ * x_5_ - 100 x_49_ * x_5_ + 14 x_18_ * x_10_ + 2 x_23_ * x_10_ + 18 x_41_ * x_10_ + 60 x_45_ * x_10_ - 13 x_14_ ^ 2 + 2 x_26_ * x_14_ - 12 x_23_ ^ 2 - 88 x_35_ * x_23_ - 92 x_35_ * x_26_ - 26 x_41_ * x_26_ + 74 x_45_ * x_26_ + 12 x_49_ * x_26_ - 31 x_35_ ^ 2 + 30 x_45_ ^ 2 ] = -10974
c21: -39 x_14_ + 23 x_19_ - 29 x_40_ + [ -2 x_8_ ^ 2 + 18 x_14_ * x_13_ - 44 x_19_ * x_13_ + 42 x_38_ * x_13_ - 26 x_40_ * x_20_ + 64 x_40_ * x_38_ + 86 x_42_ * x_38_ + 10 x_43_ * x_38_ ] = 3280
c22: 5 x_24_ - 27 x_32_ + [ 54 x_5_ * x_47_ - 68 x_45_ * x_27_ + 64 x_47_ * x_27_ ] = -1598
c23: -2 x_21_ - 19 x_22_ - 47 x_24_ + 16 x_39_ + [ 38 x_39_ * x_7_ + 36 x_17_ ^ 2 - 2 x_24_ * x_17_ - 4 x_22_ * x_21_ - 66 x_39_ * x_22_ + 48 x_24_ ^ 2 - 12 x_39_ * x_24_ ] = 4716
c24: -13 x_14_ + [ 50 x_19_ * x_14_ + 86 x_22_ * x_14_ - 25 x_19_ ^ 2 - 30 x_22_ * x_19_ + 22 x_42_ * x_19_ ] = -468
c25: 10 x_7_ - 35 x_25_ + [ -58 x_15_ * x_7_ - 84 x_48_ * x_7_ + 86 x_33_ * x_8_ - 12 x_15_ * x_14_ - 42 x_41_ * x_33_ - 78 x_48_ * x_33_ - 6 x_37_ ^ 2 - 4 x_48_ ^ 2 ] = -276
c26: -33 x_10_ - 5 x_21_ + [ 74 x_21_ * x_1_ + 92 x_23_ * x_1_ - 40 x_39_ * x_1_ - 80 x_41_ * x_1_ - 48 x_16_ * x_10_ + 14 x_39_ * x_10_ + 38 x_44_ * x_10_ + 16 x_36_ * x_16_ - 24 x_45_ * x_16_ + 26 x_21_ ^ 2 - 82 x_39_ * x_21_ + 60 x_39_ * x_35_ + 70 x_45_ * x_35_ + 8 x_44_ * x_36_ - 10 x_45_ * x_36_ - 43 x_39_ ^ 2 - 42 x_44_ * x_39_ ] = -6401
c27: [ 56 x_26_ * x_1_ + 78 x_22_ * x_6_ - 27 x_7_ ^ 2 - 10 x_9_ * x_7_ + 34 x_14_ * x_9_ - 86 x_26_ * x_9_ - 46 x_14_ ^ 2 - 42 x_25_ * x_14_ + 94 x_24_ * x_22_ + 10 x_24_ ^ 2 - 70 x_33_ * x_24_ - 2 x_25_ ^ 2 - 26 x_33_ * x_25_ - 21 x_33_ ^ 2 ] = -15426
c28: 23 x_33_ + 12 x_47_ + [ 14 x_16_ * x_33_ - 42 x_47_ * x_16_ + 92 x_47_ * x_28_ - 46 x_47_ * x_45_ ] = 2948
c29: -4 x_25_ + [ 31 x_8_ ^ 2 + 66 x_20_ * x_11_ - 14 x_25_ * x_16_ + 44 x_49_ * x_20_ ] = 207
c30: 2 x_9_ + 20 x_21_ - 17 x_24_ - 47 x_35_ + [ -6 x_9_ * x_2_ - 32 x_14_ * x_2_ - 98 x_17_ * x_6_ - 30 x_10_ ^ 2 + 76 x_35_ * x_10_ - 50 x_35_ * x_14_ - 58 x_44_ * x_14_ + 62 x_21_ * x_17_ + 44 x_24_ * x_21_ - 4 x_35_ * x_21_ + 68 x_35_ * x_24_ - 24 x_44_ * x_24_ + 41 x_25_ ^ 2 ] = 7584
c31: -50 x_7_ - 46 x_10_ + [ -64 x_15_ * x_7_ + 12 x_16_ * x_7_ - 98 x_49_ * x_10_ - 24 x_16_ * x_15_ + 8 x_32_ * x_15_ - 56 x_45_ * x_15_ - 18 x_33_ * x_16_ - 30 x_45_ * x_16_ - 28 x_49_ * x_29_ - 100 x_42_ * x_33_ - 18 x_49_ * x_33_ - 22 x_45_ ^ 2 - 36 x_49_ * x_45_ ] = -7592
c32: 5 x_35_ + 17 x_37_ + [ -12 x_4_ * x_3_ + 24 x_37_ * x_3_ + 42 x_48_ * x_3_ - 36 x_22_ * x_4_ + 100 x_31_ * x_4_ + 14 x_35_ * x_4_ + 18 x_43_ * x_4_ - 12 x_48_ * x_4_ + 18 x_36_ * x_12_ - 70 x_37_ * x_12_ - 39 x_22_ ^ 2 - 24 x_35_ * x_22_ - 18 x_48_ * x_22_ - 14 x_36_ * x_30_ + 46 x_36_ * x_33_ + 16 x_37_ * x_35_ + 58 x_43_ * x_36_ - 66 x_43_ * x_37_ ] = 3810
c33: -29 x_25_ + [ 20 x_42_ ^ 2 ] = 116
c34: 9 x_6_ - 21 x_14_ + [ -14 x_10_ * x_6_ - 62 x_21_ * x_6_ + 78 x_31_ * x_10_ - 39 x_14_ ^ 2 + 1 x_21_ ^ 2 - 30 x_48_ * x_31_ ] = 3259
c35: 3 x_8_ - 35 x_14_ + 46 x_25_ - 29 x_46_ + [ -100 x_8_ * x_2_ - 44 x_46_ * x_2_ - 13 x_8_ ^ 2 - 94 x_14_ * x_8_ - 68 x_40_ * x_8_ + 16 x_39_ * x_14_ + 88 x_40_ * x_25_ - 44 x_39_ ^ 2 + 72 x_46_ * x_39_ - 74 x_46_ * x_40_ - 22 x_44_ ^ 2 - 88 x_46_ * x_44_ ] = -8455
c36: -23 x_5_ + [ -54 x_8_ * x_2_ - 62 x_10_ * x_2_ - 84 x_29_ * x_2_ - 17 x_5_ ^ 2 + 82 x_8_ * x_5_ + 46 x_28_ * x_10_ - 30 x_47_ * x_10_ + 28 x_47_ * x_28_ + 39 x_29_ ^ 2 ] = 15128
c37: -24 x_30_ - 50 x_33_ + [ 62 x_9_ * x_44_ + 92 x_44_ * x_16_ + 26 x_42_ * x_19_ - 70 x_44_ * x_30_ - 46 x_47_ * x_30_ - 16 x_44_ * x_33_ - 98 x_42_ * x_41_ + 54 x_44_ * x_41_ ] = 2482
c38: -44 x_10_ - 8 x_34_ - 30 x_35_ - 37 x_43_ - 29 x_44_ + [ 42 x_43_ * x_6_ - 42 x_44_ * x_6_ - 52 x_44_ * x_10_ + 36 x_11_ ^ 2 + 46 x_36_ * x_26_ + 18 x_36_ * x_34_ + 90 x_44_ * x_34_ - 84 x_44_ * x_35_ - 82 x_43_ * x_36_ + 19 x_44_ ^ 2 ] = -5090
c39: [ 40 x_43_ * x_3_ - 44 x_33_ * x_9_ + 76 x_43_ * x_11_ + 36 x_30_ * x_12_ - 46 x_34_ * x_12_ - 19 x_30_ ^ 2 ] = 1611
c40: 24 x_19_ + 26 x_36_ + 25 x_39_ + 19 x_48_ + [ 38 x_1_ ^ 2 + 100 x_39_ * x_1_ + 10 x_36_ * x_19_ - 18 x_49_ * x_19_ + 2 x_50_ * x_19_ + 22 x_39_ * x_20_ + 14 x_48_ * x_20_ - 48 x_50_ * x_20_ + 36 x_36_ * x_22_ - 25 x_24_ ^ 2 - 52 x_49_ * x_24_ - 48 x_48_ * x_39_ + 14 x_50_ * x_45_ + 2 x_50_ * x_49_ - 29 x_50_ ^ 2 ] = -7522
c41: -19 x_13_ + [ 68 x_8_ * x_27_ - 82 x_30_ * x_27_ + 12 x_44_ * x_30_ ] = 1204
c42: 29 x_17_ + 38 x_18_ + 43 x_21_ + 23 x_47_ + [ -31 x_15_ ^ 2 - 64 x_28_ * x_17_ + 4 x_47_ * x_17_ - 42 x_28_ * x_18_ - 20 x_29_ * x_28_ - 4 x_45_ * x_28_ + 24 x_47_ * x_28_ - 34 x_45_ * x_40_ - 92 x_47_ * x_45_ ] = -1734
c43: 6 x_31_ + [ 41 x_5_ ^ 2 - 92 x_27_ * x_5_ - 96 x_27_ * x_14_ + 36 x_33_ * x_14_ - 80 x_38_ * x_27_ + 14 x_43_ * x_27_ + 72 x_43_ * x_31_ ] = -10809
c44: -23 x_33_ + [ -88 x_26_ * x_5_ + 4 x_33_ * x_5_ + 50 x_37_ * x_20_ - 23 x_37_ ^ 2 - 22 x_44_ * x_37_ - 60 x_46_ * x_38_ + 50 x_45_ * x_44_ - 16 x_45_ ^ 2 + 20 x_46_ * x_45_ + 19 x_46_ ^ 2 ] = -4309
c45: -35 x_26_ + [ 96 x_21_ * x_1_ + 3 x_8_ ^ 2 + 22 x_21_ * x_8_ + 34 x_32_ * x_8_ - 82 x_38_ * x_8_ - 96 x_42_ * x_8_ - 23 x_16_ ^ 2 - 36 x_26_ * x_16_ + 74 x_32_ * x_16_ - 12 x_36_ * x_16_ - 86 x_38_ * x_16_ + 30 x_26_ ^ 2 ] = -3112
c46: 7 x_3_ - 37 x_15_ + 36 x_20_ + [ 58 x_18_ * x_3_ - 84 x_21_ * x_3_ - 96 x_42_ * x_3_ - 47 x_18_ ^ 2 + 6 x_21_ * x_18_ - 32 x_20_ ^ 2 + 88 x_42_ * x_41_ ] = 7139
c47: 24 x_26_ + [ -16 x_7_ ^ 2 - 54 x_16_ * x_7_ - 16 x_49_ * x_11_ + 25 x_16_ ^ 2 + 82 x_21_ * x_16_ - 46 x_48_ * x_21_ - 78 x_36_ * x_26_ + 24 x_36_ * x_30_ + 26 x_49_ * x_30_ - 13 x_35_ ^ 2 + 74 x_36_ * x_35_ - 94 x_48_ * x_35_ ] = -777
c48: 29 x_28_ + [ 46 x_26_ * x_3_ + 11 x_8_ ^ 2 - 82 x_28_ * x_8_ ] = 4600
c49: [ -74 x_33_ * x_3_ - 24 x_15_ ^ 2 + 52 x_17_ * x_15_ - 44 x_20_ * x_15_ + 8 x_43_ * x_15_ - 43 x_18_ ^ 2 - 100 x_33_ * x_18_ + 62 x_39_ * x_20_ - 68 x_39_ * x_27_ - 36 x_43_ * x_33_ ] = 1736
c50: -34 x_17_ + [ -82 x_42_ * x_5_ + 30 x_48_ * x_17_ - 98 x_41_ * x_29_ + 54 x_43_ * x_33_ - 4 x_41_ * x_38_ + 66 x_48_ * x_38_ - 8 x_42_ * x_41_ - 48 x_48_ * x_41_ + 26 x_48_ ^ 2 ] = 5506
c51: -41 x_36_ + [ 68 x_10_ * x_4_ - 24 x_29_ * x_4_ - 20 x_40_ * x_4_ + 36 x_14_ * x_8_ - 66 x_29_ * x_8_ + 58 x_36_ * x_8_ + 38 x_43_ * x_8_ + 22 x_29_ * x_10_ - 98 x_32_ * x_10_ + 86 x_40_ * x_19_ + 94 x_43_ * x_19_ - 76 x_32_ * x_29_ - 68 x_43_ * x_32_ + 47 x_36_ ^ 2 + 48 x_47_ * x_36_ + 76 x_47_ * x_40_ - 33 x_43_ ^ 2 ] = 2226
c52: -26 x_41_ + [ -23 x_9_ ^ 2 + 38 x_10_ ^ 2 + 42 x_18_ * x_10_ + 84 x_19_ * x_18_ + 2 x_41_ * x_18_ - 64 x_38_ * x_19_ - 80 x_41_ * x_19_ - 22 x_41_ * x_28_ - 50 x_46_ * x_28_ ] = 6602
c53: -9 x_45_ - 37 x_47_ + [ -32 x_2_ ^ 2 + 6 x_12_ * x_2_ - 16 x_36_ * x_2_ + 58 x_15_ * x_12_ + 80 x_39_ * x_12_ - 44 x_43_ * x_12_ - 2 x_19_ * x_15_ - 64 x_35_ * x_15_ + 50 x_36_ * x_15_ + 58 x_39_ * x_19_ - 78 x_45_ * x_19_ + 40 x_35_ * x_26_ + 44 x_39_ * x_26_ - 64 x_45_ * x_26_ - 22 x_47_ * x_26_ + 66 x_48_ * x_26_ + 33 x_33_ ^ 2 - 50 x_48_ * x_33_ - 64 x_43_ * x_36_ + 68 x_45_ * x_36_ + 8 x_39_ ^ 2 + 16 x_47_ ^ 2 ] = 1038
c54: 16 x_7_ + [ 17 x_5_ ^ 2 - 94 x_16_ * x_5_ - 52 x_16_ * x_7_ + 30 x_18_ ^ 2 ] = 1129
c55: 31 x_8_ - 33 x_16_ + [ -62 x_15_ * x_8_ - 50 x_31_ * x_8_ + 20 x_35_ * x_12_ - 36 x_31_ * x_15_ + 64 x_31_ * x_16_ + 92 x_35_ * x_16_ + 52 x_50_ * x_16_ + 6 x_35_ * x_31_ - 45 x_35_ ^ 2 ] = -396
Bounds
-7 <= x_1_ <= 0
-10 <= x_2_ <= 9
-8 <= x_3_ <= 5
0 <= x_4_ <= 4
-6 <= x_5_ <= 5
-10 <= x_6_ <= 8
-8 <= x_7_ <= 10
-7 <= x_8_ <= -3
-10 <= x_9_ <= 1
-10 <= x_10_ <= 4
4 <= x_11_ <= 9
-10 <= x_12_ <= 5
-5 <= x_13_ <= 4
-4 <= x_14_ <= -2
-6 <= x_15_ <= -3
-5 <= x_16_ <= 5
-3 <= x_17_ <= 7
-9 <= x_18_ <= -1
-10 <= x_19_ <= 4
-7 <= x_20_ <= 4
-2 <= x_21_ <= 10
0 <= x_22_ <= 5
-9 <= x_23_ <= -7
-10 <= x_24_ <= -1
-4 <= x_25_ <= 3
-10 <= x_26_ <= 9
-10 <= x_27_ <= -9
-7 <= x_28_ <= 9
-10 <= x_29_ <= 7
-10 <= x_30_ <= 3
-10 <= x_31_ <= 4
-7 <= x_32_ <= 7
-7 <= x_33_ <= -1
2 <= x_34_ <= 10
-3 <= x_35_ <= -2
-9 <= x_36_ <= 0
-2 <= x_37_ <= 10
-8 <= x_38_ <= 3
-1 <= x_39_ <= 9
-9 <= x_40_ <= 0
-7 <= x_41_ <= 5
-10 <= x_42_ <= 9
-7 <= x_43_ <= 6
-9 <= x_44_ <= 9
-4 <= x_45_ <= 7
-8 <= x_46_ <= -4
6 <= x_47_ <= 8
-10 <= x_48_ <= 7
-8 <= x_49_ <= 8
x_50_ = -10
General
x_1_
x_2_
x_3_
x_4_
x_5_
x_6_
x_7_
x_8_
x_9_
x_10_
x_11_
x_12_
x_13_
x_14_
x_15_
x_16_
x_17_
x_18_
x_19_
x_20_
x_21_
x_22_
x_23_
x_24_
x_25_
x_26_
x_27_
x_28_
x_29_
x_30_
x_31_
x_32_
x_33_
x_34_
x_35_
x_36_
x_37_
x_38_
x_39_
x_40_
x_41_
x_42_
x_43_
x_44_
x_45_
x_46_
x_47_
x_48_
x_49_
x_50_
End
