minimize
obj: -4 x_3_ - 39 x_15_ - 39 x_17_ + 35 x_21_ + 17 x_24_ + 1 x_31_ + 5 x_36_ + 11 x_41_
subject to
affine_ranged_1_ub: 32 x_44_ <= -191
affine_ranged_2_ub: 3 x_14_ <= -26
affine_ranged_3_ub: 41 x_9_ + 48 x_31_ <= -253
affine_ranged_4_ub: -50 x_7_ + 39 x_42_ <= -187
quadratic_ranged_1_ub: -1 x_10_ + 11 x_19_ + 27 x_22_ - 50 x_40_ + [ 17 x_12_ ^ 2 - 32 x_19_ ^ 2 - 9 x_39_ ^ 2 + 9 x_40_ ^ 2 ] <= -2729
quadratic_ranged_2_ub: -14 x_17_ - 16 x_24_ + [ -50 x_18_ ^ 2 - 45 x_24_ ^ 2 - 45 x_35_ ^ 2 ] <= -6793
quadratic_ranged_3_ub: [ 38 x_1_ ^ 2 - 14 x_46_ ^ 2 ] <= 3678
quadratic_ranged_4_ub: 18 x_1_ - 49 x_14_ - 13 x_18_ - 5 x_28_ + [ -4 x_28_ ^ 2 ] <= 293
quadratic_ranged_5_ub: 6 x_1_ - 40 x_5_ - 46 x_27_ + [ 28 x_1_ ^ 2 - 29 x_13_ ^ 2 - 48 x_29_ ^ 2 - 19 x_40_ ^ 2 ] <= -3520
quadratic_ranged_6_ub: -15 x_14_ + [ 23 x_5_ ^ 2 ] <= 519
quadratic_ranged_7_ub: -26 x_10_ - 5 x_20_ + 5 x_27_ + [ -2 x_10_ ^ 2 - 33 x_34_ ^ 2 + 19 x_35_ ^ 2 + 5 x_39_ ^ 2 ] <= 725
quadratic_ranged_8_ub: [ 16 x_24_ ^ 2 + 8 x_31_ ^ 2 ] <= 1035
quadratic_ranged_9_ub: -26 x_24_ - 46 x_43_ + [ -13 x_12_ ^ 2 ] <= 564
quadratic_ranged_10_ub: 1 x_20_ - 30 x_28_ + [ -18 x_6_ ^ 2 ] <= -1915
quadratic_ranged_11_ub: -9 x_8_ + 15 x_18_ + 24 x_20_ - 12 x_37_ + [ 19 x_6_ ^ 2 + 18 x_26_ ^ 2 - 12 x_37_ ^ 2 + 43 x_39_ ^ 2 ] <= 6259
quadratic_ranged_12_ub: 28 x_8_ + 6 x_10_ - 32 x_22_ - 15 x_43_ - 24 x_49_ + [ 35 x_7_ ^ 2 - 33 x_8_ ^ 2 + 2 x_33_ ^ 2 + 50 x_49_ ^ 2 ] <= -1520
quadratic_ranged_13_ub: 27 x_36_ + 10 x_50_ + [ -45 x_9_ ^ 2 + 25 x_46_ ^ 2 ] <= -826
quadratic_ranged_14_ub: 28 x_30_ + [ -1 x_12_ ^ 2 - 35 x_30_ ^ 2 - 7 x_48_ ^ 2 + 24 x_50_ ^ 2 ] <= -178
quadratic_ranged_15_ub: -46 x_14_ + 14 x_16_ - 39 x_37_ + 6 x_48_ + [ 33 x_5_ ^ 2 - 20 x_14_ ^ 2 ] <= -897
quadratic_ranged_16_ub: [ -43 x_6_ ^ 2 - 27 x_18_ ^ 2 - 15 x_43_ ^ 2 - 42 x_46_ ^ 2 ] <= -6308
quadratic_ranged_17_ub: 20 x_17_ + [ -50 x_39_ ^ 2 ] <= -5120
quadratic_ranged_18_ub: -14 x_6_ + [ -31 x_5_ ^ 2 - 28 x_44_ ^ 2 + 20 x_47_ ^ 2 ] <= -924
quadratic_ranged_19_ub: 8 x_13_ - 48 x_15_ - 22 x_30_ + 16 x_35_ + [ -49 x_15_ ^ 2 ] <= -4078
quadratic_ranged_20_ub: -27 x_16_ - 44 x_17_ + 41 x_25_ + [ 29 x_39_ ^ 2 ] <= 2919
quadratic_ranged_21_ub: 22 x_10_ - 21 x_12_ + 42 x_33_ + [ -27 x_6_ ^ 2 - 26 x_10_ ^ 2 ] <= -4929
quadratic_ranged_22_ub: -42 x_15_ + [ -34 x_5_ ^ 2 ] <= -919
quadratic_ranged_23_ub: [ 23 x_12_ ^ 2 - 35 x_35_ ^ 2 - 22 x_43_ ^ 2 - 13 x_49_ ^ 2 ] <= -3633
quadratic_ranged_24_ub: 5 x_13_ + 27 x_39_ + 13 x_47_ + [ -32 x_28_ ^ 2 - 26 x_39_ ^ 2 ] <= -3406
quadratic_ranged_25_ub: -29 x_10_ + 50 x_21_ + 12 x_33_ + [ 19 x_33_ ^ 2 - 3 x_35_ ^ 2 - 20 x_45_ ^ 2 ] <= -604
quadratic_ranged_26_ub: 13 x_1_ + 23 x_39_ - 23 x_41_ + [ -46 x_2_ ^ 2 + 39 x_31_ ^ 2 - 30 x_37_ ^ 2 + 28 x_42_ ^ 2 ] <= 603
quadratic_ranged_27_ub: [ -3 x_20_ ^ 2 ] <= 1
quadratic_ranged_28_ub: [ 48 x_10_ ^ 2 + 13 x_39_ ^ 2 ] <= 6101
quadratic_ranged_29_ub: -35 x_12_ + 12 x_43_ + [ 3 x_2_ ^ 2 - 10 x_10_ ^ 2 + 1 x_34_ ^ 2 - 29 x_43_ ^ 2 ] <= -2821
quadratic_ranged_30_ub: [ -12 x_31_ ^ 2 ] <= -11
quadratic_ranged_31_ub: [ -35 x_18_ ^ 2 - 45 x_46_ ^ 2 ] <= -1276
quadratic_ranged_32_ub: -15 x_3_ + 19 x_19_ + 12 x_23_ + [ 45 x_19_ ^ 2 + 5 x_30_ ^ 2 ] <= 3248
quadratic_ranged_33_ub: [ 7 x_20_ ^ 2 + 22 x_23_ ^ 2 + 42 x_30_ ^ 2 ] <= 1405
quadratic_ranged_34_ub: -32 x_12_ + 8 x_33_ + 20 x_48_ + [ -34 x_8_ ^ 2 - 11 x_25_ ^ 2 + 9 x_33_ ^ 2 - 7 x_34_ ^ 2 + 48 x_40_ ^ 2 - 20 x_48_ ^ 2 ] <= -1477
quadratic_ranged_35_ub: 4 x_33_ + [ -44 x_21_ ^ 2 - 6 x_33_ ^ 2 ] <= -435
quadratic_ranged_36_ub: 6 x_12_ + [ 41 x_12_ ^ 2 ] <= 39
quadratic_ranged_37_ub: 20 x_36_ + [ -43 x_14_ ^ 2 - 20 x_23_ ^ 2 ] <= -4615
quadratic_ranged_38_ub: -48 x_10_ + 38 x_50_ + [ 16 x_10_ ^ 2 + 27 x_34_ ^ 2 ] <= 1821
quadratic_ranged_39_ub: 15 x_22_ + [ 22 x_22_ ^ 2 - 9 x_39_ ^ 2 - 49 x_50_ ^ 2 ] <= -3238
quadratic_ranged_40_ub: 31 x_1_ + 15 x_17_ - 25 x_46_ + 31 x_48_ + [ 50 x_1_ ^ 2 ] <= 4462
quadratic_ranged_41_ub: -24 x_50_ + [ 10 x_17_ ^ 2 - 23 x_22_ ^ 2 - 14 x_31_ ^ 2 ] <= 90
quadratic_ranged_42_ub: 10 x_7_ - 5 x_9_ - 25 x_26_ - 27 x_49_ + [ -47 x_3_ ^ 2 + 28 x_9_ ^ 2 - 34 x_33_ ^ 2 ] <= -3276
quadratic_ranged_43_ub: 27 x_16_ + 2 x_17_ - 47 x_27_ + [ -29 x_2_ ^ 2 + 2 x_13_ ^ 2 - 41 x_16_ ^ 2 + 36 x_43_ ^ 2 ] <= 1364
quadratic_ranged_44_ub: -9 x_9_ + 18 x_11_ + 9 x_35_ + [ -12 x_9_ ^ 2 - 38 x_37_ ^ 2 ] <= -1168
quadratic_ranged_45_ub: 17 x_4_ + 25 x_23_ - 9 x_50_ + [ -49 x_19_ ^ 2 - 36 x_32_ ^ 2 ] <= -6384
quadratic_ranged_46_ub: -15 x_2_ - 42 x_39_ + 2 x_50_ + [ -14 x_3_ ^ 2 + 49 x_36_ ^ 2 - 1 x_39_ ^ 2 - 16 x_46_ ^ 2 ] <= -869
quadratic_ranged_47_ub: 27 x_12_ - 32 x_18_ + 35 x_34_ + [ -39 x_8_ ^ 2 - 14 x_12_ ^ 2 + 9 x_34_ ^ 2 + 6 x_47_ ^ 2 ] <= -2817
quadratic_ranged_48_ub: 36 x_14_ - 50 x_16_ - 34 x_20_ + 32 x_22_ + [ -8 x_14_ ^ 2 - 17 x_16_ ^ 2 - 28 x_20_ ^ 2 - 9 x_23_ ^ 2 - 2 x_31_ ^ 2 ] <= -1371
affine_ranged_1_lb: 32 x_44_ >= -194
affine_ranged_2_lb: 3 x_14_ >= -34
affine_ranged_3_lb: 41 x_9_ + 48 x_31_ >= -256
affine_ranged_4_lb: -50 x_7_ + 39 x_42_ >= -191
quadratic_ranged_1_lb: -1 x_10_ + 11 x_19_ + 27 x_22_ - 50 x_40_ + [ 17 x_12_ ^ 2 - 32 x_19_ ^ 2 - 9 x_39_ ^ 2 + 9 x_40_ ^ 2 ] >= -2733
quadratic_ranged_2_lb: -14 x_17_ - 16 x_24_ + [ -50 x_18_ ^ 2 - 45 x_24_ ^ 2 - 45 x_35_ ^ 2 ] >= -6802
quadratic_ranged_3_lb: [ 38 x_1_ ^ 2 - 14 x_46_ ^ 2 ] >= 3670
quadratic_ranged_4_lb: 18 x_1_ - 49 x_14_ - 13 x_18_ - 5 x_28_ + [ -4 x_28_ ^ 2 ] >= 290
quadratic_ranged_5_lb: 6 x_1_ - 40 x_5_ - 46 x_27_ + [ 28 x_1_ ^ 2 - 29 x_13_ ^ 2 - 48 x_29_ ^ 2 - 19 x_40_ ^ 2 ] >= -3522
quadratic_ranged_6_lb: -15 x_14_ + [ 23 x_5_ ^ 2 ] >= 517
quadratic_ranged_7_lb: -26 x_10_ - 5 x_20_ + 5 x_27_ + [ -2 x_10_ ^ 2 - 33 x_34_ ^ 2 + 19 x_35_ ^ 2 + 5 x_39_ ^ 2 ] >= 721
quadratic_ranged_8_lb: [ 16 x_24_ ^ 2 + 8 x_31_ ^ 2 ] >= 1030
quadratic_ranged_9_lb: -26 x_24_ - 46 x_43_ + [ -13 x_12_ ^ 2 ] >= 559
quadratic_ranged_10_lb: 1 x_20_ - 30 x_28_ + [ -18 x_6_ ^ 2 ] >= -1924
quadratic_ranged_11_lb: -9 x_8_ + 15 x_18_ + 24 x_20_ - 12 x_37_ + [ 19 x_6_ ^ 2 + 18 x_26_ ^ 2 - 12 x_37_ ^ 2 + 43 x_39_ ^ 2 ] >= 6253
quadratic_ranged_12_lb: 28 x_8_ + 6 x_10_ - 32 x_22_ - 15 x_43_ - 24 x_49_ + [ 35 x_7_ ^ 2 - 33 x_8_ ^ 2 + 2 x_33_ ^ 2 + 50 x_49_ ^ 2 ] >= -1530
quadratic_ranged_13_lb: 27 x_36_ + 10 x_50_ + [ -45 x_9_ ^ 2 + 25 x_46_ ^ 2 ] >= -833
quadratic_ranged_14_lb: 28 x_30_ + [ -1 x_12_ ^ 2 - 35 x_30_ ^ 2 - 7 x_48_ ^ 2 + 24 x_50_ ^ 2 ] >= -187
quadratic_ranged_15_lb: -46 x_14_ + 14 x_16_ - 39 x_37_ + 6 x_48_ + [ 33 x_5_ ^ 2 - 20 x_14_ ^ 2 ] >= -906
quadratic_ranged_16_lb: [ -43 x_6_ ^ 2 - 27 x_18_ ^ 2 - 15 x_43_ ^ 2 - 42 x_46_ ^ 2 ] >= -6316
quadratic_ranged_17_lb: 20 x_17_ + [ -50 x_39_ ^ 2 ] >= -5125
quadratic_ranged_18_lb: -14 x_6_ + [ -31 x_5_ ^ 2 - 28 x_44_ ^ 2 + 20 x_47_ ^ 2 ] >= -929
quadratic_ranged_19_lb: 8 x_13_ - 48 x_15_ - 22 x_30_ + 16 x_35_ + [ -49 x_15_ ^ 2 ] >= -4084
quadratic_ranged_20_lb: -27 x_16_ - 44 x_17_ + 41 x_25_ + [ 29 x_39_ ^ 2 ] >= 2914
quadratic_ranged_21_lb: 22 x_10_ - 21 x_12_ + 42 x_33_ + [ -27 x_6_ ^ 2 - 26 x_10_ ^ 2 ] >= -4936
quadratic_ranged_22_lb: -42 x_15_ + [ -34 x_5_ ^ 2 ] >= -922
quadratic_ranged_23_lb: [ 23 x_12_ ^ 2 - 35 x_35_ ^ 2 - 22 x_43_ ^ 2 - 13 x_49_ ^ 2 ] >= -3638
quadratic_ranged_24_lb: 5 x_13_ + 27 x_39_ + 13 x_47_ + [ -32 x_28_ ^ 2 - 26 x_39_ ^ 2 ] >= -3410
quadratic_ranged_25_lb: -29 x_10_ + 50 x_21_ + 12 x_33_ + [ 19 x_33_ ^ 2 - 3 x_35_ ^ 2 - 20 x_45_ ^ 2 ] >= -609
quadratic_ranged_26_lb: 13 x_1_ + 23 x_39_ - 23 x_41_ + [ -46 x_2_ ^ 2 + 39 x_31_ ^ 2 - 30 x_37_ ^ 2 + 28 x_42_ ^ 2 ] >= 598
quadratic_ranged_27_lb: [ -3 x_20_ ^ 2 ] >= -5
quadratic_ranged_28_lb: [ 48 x_10_ ^ 2 + 13 x_39_ ^ 2 ] >= 6096
quadratic_ranged_29_lb: -35 x_12_ + 12 x_43_ + [ 3 x_2_ ^ 2 - 10 x_10_ ^ 2 + 1 x_34_ ^ 2 - 29 x_43_ ^ 2 ] >= -2827
quadratic_ranged_30_lb: [ -12 x_31_ ^ 2 ] >= -13
quadratic_ranged_31_lb: [ -35 x_18_ ^ 2 - 45 x_46_ ^ 2 ] >= -1284
quadratic_ranged_32_lb: -15 x_3_ + 19 x_19_ + 12 x_23_ + [ 45 x_19_ ^ 2 + 5 x_30_ ^ 2 ] >= 3241
quadratic_ranged_33_lb: [ 7 x_20_ ^ 2 + 22 x_23_ ^ 2 + 42 x_30_ ^ 2 ] >= 1397
quadratic_ranged_34_lb: -32 x_12_ + 8 x_33_ + 20 x_48_ + [ -34 x_8_ ^ 2 - 11 x_25_ ^ 2 + 9 x_33_ ^ 2 - 7 x_34_ ^ 2 + 48 x_40_ ^ 2 - 20 x_48_ ^ 2 ] >= -1482
quadratic_ranged_35_lb: 4 x_33_ + [ -44 x_21_ ^ 2 - 6 x_33_ ^ 2 ] >= -441
quadratic_ranged_36_lb: 6 x_12_ + [ 41 x_12_ ^ 2 ] >= 30
quadratic_ranged_37_lb: 20 x_36_ + [ -43 x_14_ ^ 2 - 20 x_23_ ^ 2 ] >= -4625
quadratic_ranged_38_lb: -48 x_10_ + 38 x_50_ + [ 16 x_10_ ^ 2 + 27 x_34_ ^ 2 ] >= 1815
quadratic_ranged_39_lb: 15 x_22_ + [ 22 x_22_ ^ 2 - 9 x_39_ ^ 2 - 49 x_50_ ^ 2 ] >= -3243
quadratic_ranged_40_lb: 31 x_1_ + 15 x_17_ - 25 x_46_ + 31 x_48_ + [ 50 x_1_ ^ 2 ] >= 4454
quadratic_ranged_41_lb: -24 x_50_ + [ 10 x_17_ ^ 2 - 23 x_22_ ^ 2 - 14 x_31_ ^ 2 ] >= 82
quadratic_ranged_42_lb: 10 x_7_ - 5 x_9_ - 25 x_26_ - 27 x_49_ + [ -47 x_3_ ^ 2 + 28 x_9_ ^ 2 - 34 x_33_ ^ 2 ] >= -3281
quadratic_ranged_43_lb: 27 x_16_ + 2 x_17_ - 47 x_27_ + [ -29 x_2_ ^ 2 + 2 x_13_ ^ 2 - 41 x_16_ ^ 2 + 36 x_43_ ^ 2 ] >= 1361
quadratic_ranged_44_lb: -9 x_9_ + 18 x_11_ + 9 x_35_ + [ -12 x_9_ ^ 2 - 38 x_37_ ^ 2 ] >= -1171
quadratic_ranged_45_lb: 17 x_4_ + 25 x_23_ - 9 x_50_ + [ -49 x_19_ ^ 2 - 36 x_32_ ^ 2 ] >= -6389
quadratic_ranged_46_lb: -15 x_2_ - 42 x_39_ + 2 x_50_ + [ -14 x_3_ ^ 2 + 49 x_36_ ^ 2 - 1 x_39_ ^ 2 - 16 x_46_ ^ 2 ] >= -872
quadratic_ranged_47_lb: 27 x_12_ - 32 x_18_ + 35 x_34_ + [ -39 x_8_ ^ 2 - 14 x_12_ ^ 2 + 9 x_34_ ^ 2 + 6 x_47_ ^ 2 ] >= -2820
quadratic_ranged_48_lb: 36 x_14_ - 50 x_16_ - 34 x_20_ + 32 x_22_ + [ -8 x_14_ ^ 2 - 17 x_16_ ^ 2 - 28 x_20_ ^ 2 - 9 x_23_ ^ 2 - 2 x_31_ ^ 2 ] >= -1377
c1_1: 47 x_46_ = -141
c2_1: 43 x_30_ = -215
c3_1: 10 x_1_ + 8 x_24_ = -164
c4_1: 32 x_31_ = -32
c5_1: -26 x_39_ = 260
c6_1: -26 x_13_ = -260
c7_1: -43 x_7_ = 172
c1: [ -18 x_8_ ^ 2 - 10 x_18_ ^ 2 + 3 x_32_ ^ 2 - 28 x_41_ ^ 2 ] = -1493
c2: -2 x_45_ + [ -20 x_9_ ^ 2 + 25 x_47_ ^ 2 ] = 394
c3: 22 x_3_ - 19 x_13_ + 47 x_26_ + [ -46 x_3_ ^ 2 ] = -4349
c4: [ -14 x_38_ ^ 2 ] = -504
c5: 45 x_35_ + 21 x_44_ - 17 x_49_ + [ 28 x_35_ ^ 2 ] = 2043
c6: -41 x_4_ + 48 x_10_ + 11 x_23_ - 48 x_26_ - 16 x_37_ + [ -6 x_26_ ^ 2 - 14 x_30_ ^ 2 - 3 x_46_ ^ 2 ] = 639
c7: 37 x_1_ + 20 x_10_ + 23 x_40_ - 44 x_46_ + [ -17 x_10_ ^ 2 - 48 x_41_ ^ 2 - 34 x_46_ ^ 2 ] = -1908
c8: [ -27 x_2_ ^ 2 + 8 x_16_ ^ 2 + 37 x_34_ ^ 2 ] = -11
c9: -27 x_8_ - 29 x_20_ - 11 x_30_ + [ 21 x_8_ ^ 2 - 10 x_12_ ^ 2 - 37 x_28_ ^ 2 + 2 x_30_ ^ 2 ] = 961
c10: [ -25 x_5_ ^ 2 - 21 x_16_ ^ 2 ] = -589
c11: -8 x_20_ + [ 2 x_20_ ^ 2 - 28 x_27_ ^ 2 ] = -28
c12: 9 x_11_ + 44 x_17_ + 48 x_48_ + [ -11 x_34_ ^ 2 ] = -794
c13: -37 x_10_ - 11 x_12_ + [ -47 x_7_ ^ 2 - 21 x_25_ ^ 2 ] = -2455
c14: -27 x_1_ - 33 x_42_ + 11 x_48_ + [ 21 x_2_ ^ 2 + 30 x_10_ ^ 2 + 30 x_38_ ^ 2 ] = 5128
c15: 49 x_11_ + [ -18 x_7_ ^ 2 + 13 x_35_ ^ 2 - 41 x_45_ ^ 2 ] = 77
c16: 28 x_27_ + [ -6 x_23_ ^ 2 - 34 x_42_ ^ 2 + 34 x_46_ ^ 2 ] = -3218
c17: -15 x_18_ + 8 x_37_ + [ 15 x_30_ ^ 2 - 22 x_31_ ^ 2 - 44 x_37_ ^ 2 ] = -712
c18: -50 x_30_ - 19 x_41_ + [ -1 x_20_ ^ 2 ] = 269
c19: 7 x_24_ + [ 4 x_30_ ^ 2 + 2 x_33_ ^ 2 ] = 62
c20: 6 x_24_ + 50 x_34_ + 41 x_50_ + [ -30 x_39_ ^ 2 + 2 x_50_ ^ 2 ] = -2863
c21: -16 x_7_ + [ -25 x_37_ ^ 2 - 7 x_39_ ^ 2 ] = -1261
c22: 39 x_7_ - 40 x_11_ + 10 x_24_ - 18 x_29_ - 11 x_32_ + [ -20 x_24_ ^ 2 - 10 x_46_ ^ 2 ] = -1553
c23: -44 x_10_ + 49 x_40_ + [ 23 x_25_ ^ 2 ] = 1424
c24: -2 x_11_ - 2 x_23_ - 4 x_26_ + 46 x_43_ - 4 x_50_ + [ -4 x_11_ ^ 2 ] = -380
c25: -14 x_1_ + 7 x_5_ + [ -31 x_4_ ^ 2 ] = -2988
c26: 29 x_28_ - 46 x_30_ + 11 x_47_ + [ -19 x_25_ ^ 2 - 4 x_27_ ^ 2 - 46 x_28_ ^ 2 + 13 x_49_ ^ 2 ] = -1663
c27: [ -4 x_43_ ^ 2 ] = -256
c28: 12 x_38_ + 32 x_46_ + [ 40 x_6_ ^ 2 + 16 x_26_ ^ 2 ] = 4376
c29: -1 x_21_ + [ 33 x_31_ ^ 2 - 20 x_42_ ^ 2 ] = -1964
c30: -40 x_8_ - 3 x_18_ - 28 x_36_ + [ -9 x_29_ ^ 2 - 12 x_50_ ^ 2 ] = -1374
c31: 49 x_1_ - 1 x_16_ + 33 x_27_ - 3 x_33_ + [ -11 x_19_ ^ 2 + 34 x_24_ ^ 2 ] = 943
c32: 46 x_10_ - 10 x_30_ - 33 x_43_ + [ 46 x_30_ ^ 2 ] = 1924
c33: -24 x_14_ - 26 x_16_ - 25 x_31_ + 45 x_42_ + [ 9 x_24_ ^ 2 ] = 469
c34: -13 x_5_ + 5 x_21_ - 26 x_24_ + [ -50 x_5_ ^ 2 - 11 x_20_ ^ 2 - 11 x_33_ ^ 2 ] = -654
c35: -22 x_30_ + [ -28 x_28_ ^ 2 ] = -338
c36: -47 x_38_ + [ -19 x_24_ ^ 2 - 10 x_50_ ^ 2 ] = -1988
c37: 4 x_6_ - 42 x_38_ + [ -38 x_20_ ^ 2 ] = -212
c38: 6 x_16_ - 5 x_42_ + [ -12 x_16_ ^ 2 + 19 x_36_ ^ 2 ] = -76
c39: -44 x_23_ + 31 x_41_ - 6 x_43_ - 42 x_48_ + [ 32 x_1_ ^ 2 - 25 x_3_ ^ 2 - 47 x_43_ ^ 2 ] = -1346
c40: -48 x_42_ + [ -37 x_4_ ^ 2 ] = -3220
c41: -6 x_41_ - 43 x_50_ + [ -44 x_40_ ^ 2 ] = -3111
Bounds
-10 <= x_1_ <= -7
-8 <= x_2_ <= -1
-9 <= x_3_ <= 9
-10 <= x_4_ <= -8
-6 <= x_5_ <= 7
7 <= x_6_ <= 10
-10 <= x_7_ <= -3
8 <= x_8_ <= 10
-8 <= x_9_ <= -5
9 <= x_10_ <= 10
-7 <= x_11_ <= 6
-2 <= x_12_ <= 3
-2 <= x_13_ <= 10
-10 <= x_14_ <= -2
-10 <= x_15_ <= 9
x_16_ = -3
-7 <= x_17_ <= 10
-7 <= x_18_ <= 10
-1 <= x_19_ <= 10
0 <= x_20_ <= 6
-6 <= x_21_ <= 3
-7 <= x_22_ <= 5
-5 <= x_23_ <= -4
-10 <= x_24_ <= -3
-8 <= x_25_ <= 7
-6 <= x_26_ <= 4
-3 <= x_27_ <= 2
-4 <= x_28_ <= 4
1 <= x_29_ <= 9
-9 <= x_30_ <= 10
-10 <= x_31_ <= 3
-9 <= x_32_ <= -6
2 <= x_33_ <= 8
-5 <= x_34_ <= -1
6 <= x_35_ <= 9
-6 <= x_36_ <= 7
-6 <= x_37_ <= 4
1 <= x_38_ <= 10
-10 <= x_39_ <= -5
4 <= x_40_ <= 9
-8 <= x_41_ <= 8
-10 <= x_42_ <= 2
-9 <= x_43_ <= 7
-8 <= x_44_ <= 6
-6 <= x_45_ <= 8
-7 <= x_46_ <= -3
-10 <= x_47_ <= 2
-9 <= x_48_ <= -2
-1 <= x_49_ <= 0
-4 <= x_50_ <= 10
General
x_1_
x_2_
x_3_
x_4_
x_5_
x_6_
x_7_
x_8_
x_9_
x_10_
x_11_
x_12_
x_13_
x_14_
x_15_
x_16_
x_17_
x_18_
x_19_
x_20_
x_21_
x_22_
x_23_
x_24_
x_25_
x_26_
x_27_
x_28_
x_29_
x_30_
x_31_
x_32_
x_33_
x_34_
x_35_
x_36_
x_37_
x_38_
x_39_
x_40_
x_41_
x_42_
x_43_
x_44_
x_45_
x_46_
x_47_
x_48_
x_49_
x_50_
End
