minimize
obj: -16 x_3_ + 42 x_4_ - 50 x_9_ + 10 x_24_
subject to
quadratic_ranged_1_ub: [ 5 x_32_ ^ 2 - 43 x_34_ ^ 2 ] <= 148
quadratic_ranged_2_ub: 46 x_39_ + [ -28 x_20_ * x_17_ + 78 x_26_ * x_17_ + 94 x_31_ * x_17_ + 80 x_28_ * x_20_ - 1 x_29_ ^ 2 - 32 x_34_ ^ 2 + 2 x_39_ * x_34_ ] <= 683
quadratic_ranged_3_ub: -24 x_1_ + 38 x_30_ + 22 x_39_ + 14 x_41_ + [ -30 x_1_ ^ 2 + 28 x_10_ * x_1_ - 78 x_16_ * x_1_ - 86 x_39_ * x_1_ - 88 x_21_ * x_6_ - 32 x_32_ * x_6_ + 64 x_36_ * x_6_ - 54 x_13_ * x_10_ - 32 x_32_ * x_10_ + 70 x_27_ * x_13_ + 50 x_30_ * x_13_ + 64 x_27_ * x_16_ - 20 x_39_ * x_16_ + 38 x_30_ * x_21_ + 46 x_45_ * x_21_ + 60 x_30_ * x_27_ - 7 x_28_ ^ 2 + 88 x_30_ * x_28_ - 48 x_32_ * x_30_ + 28 x_39_ * x_30_ - 44 x_41_ * x_30_ + 42 x_41_ * x_32_ - 90 x_45_ * x_32_ - 66 x_45_ * x_36_ - 58 x_41_ * x_39_ + 10 x_45_ * x_39_ - 35 x_41_ ^ 2 ] <= -600
quadratic_ranged_4_ub: -42 x_9_ + 26 x_31_ + 16 x_43_ + [ -2 x_15_ * x_8_ + 18 x_21_ * x_8_ + 100 x_27_ * x_8_ - 64 x_10_ * x_9_ - 90 x_42_ * x_9_ - 26 x_27_ * x_10_ + 72 x_38_ * x_10_ - 10 x_31_ * x_15_ + 4 x_38_ * x_15_ - 84 x_49_ * x_15_ + 46 x_21_ ^ 2 - 80 x_38_ * x_21_ - 76 x_49_ * x_21_ + 94 x_38_ * x_31_ + 4 x_46_ * x_31_ + 19 x_46_ ^ 2 - 94 x_49_ * x_46_ ] <= 15333
quadratic_ranged_5_ub: -47 x_9_ - 9 x_14_ + [ 42 x_45_ * x_1_ - 74 x_47_ * x_1_ + 24 x_9_ * x_6_ + 70 x_14_ * x_6_ + 50 x_32_ * x_6_ - 15 x_26_ ^ 2 + 94 x_32_ * x_26_ - 78 x_45_ * x_26_ + 42 x_47_ * x_26_ - 60 x_32_ * x_27_ - 70 x_40_ * x_27_ - 4 x_45_ * x_32_ + 74 x_45_ * x_40_ - 24 x_47_ * x_40_ ] <= -6669
quadratic_ranged_6_ub: -47 x_8_ + [ 34 x_7_ ^ 2 - 76 x_8_ * x_7_ + 46 x_44_ * x_7_ + 72 x_48_ * x_7_ - 84 x_26_ * x_8_ + 82 x_26_ * x_23_ - 38 x_48_ * x_23_ + 16 x_26_ ^ 2 - 10 x_44_ * x_26_ - 28 x_48_ * x_26_ ] <= 2552
quadratic_ranged_7_ub: -27 x_4_ - 47 x_43_ + [ -14 x_44_ * x_4_ + 28 x_5_ ^ 2 - 100 x_44_ * x_5_ + 24 x_12_ ^ 2 - 40 x_24_ * x_12_ + 94 x_44_ * x_12_ + 54 x_43_ * x_32_ ] <= -2831
quadratic_ranged_8_ub: -38 x_16_ + [ 32 x_15_ * x_41_ - 34 x_26_ * x_16_ - 100 x_32_ * x_16_ - 66 x_42_ * x_26_ - 46 x_41_ * x_32_ - 32 x_45_ * x_34_ + 86 x_49_ * x_41_ + 58 x_49_ * x_45_ ] <= 2815
quadratic_ranged_9_ub: 3 x_23_ + 46 x_48_ + [ -76 x_25_ * x_11_ + 78 x_26_ * x_11_ - 40 x_26_ * x_17_ - 54 x_26_ * x_23_ + 82 x_44_ * x_23_ + 24 x_48_ * x_25_ - 96 x_48_ * x_26_ - 35 x_48_ ^ 2 ] <= -480
quadratic_ranged_10_ub: -24 x_3_ + [ 100 x_42_ * x_3_ - 28 x_43_ * x_3_ + 54 x_47_ * x_3_ + 88 x_20_ * x_5_ + 76 x_37_ * x_5_ + 41 x_8_ ^ 2 - 54 x_22_ * x_8_ + 30 x_20_ ^ 2 - 12 x_22_ * x_20_ + 42 x_37_ * x_20_ + 4 x_47_ * x_20_ - 84 x_42_ * x_22_ + 14 x_43_ * x_35_ + 36 x_37_ ^ 2 + 44 x_42_ * x_37_ - 46 x_43_ * x_37_ + 96 x_43_ * x_42_ ] <= -14840
quadratic_ranged_11_ub: 2 x_45_ - 37 x_47_ + [ -2 x_3_ * x_1_ + 8 x_32_ * x_1_ + 90 x_36_ * x_1_ - 94 x_45_ * x_1_ - 4 x_17_ * x_3_ - 58 x_18_ * x_3_ - 48 x_36_ * x_3_ + 96 x_18_ * x_5_ + 26 x_30_ * x_5_ - 2 x_36_ * x_5_ + 64 x_45_ * x_5_ - 26 x_18_ * x_17_ + 64 x_24_ * x_17_ - 16 x_40_ * x_17_ - 24 x_27_ * x_18_ - 74 x_30_ * x_18_ - 38 x_40_ * x_18_ - 12 x_27_ * x_24_ + 70 x_30_ * x_24_ - 100 x_40_ * x_24_ - 92 x_47_ * x_24_ + 100 x_47_ * x_27_ - 1 x_30_ ^ 2 - 10 x_47_ * x_30_ + 44 x_47_ * x_32_ ] <= -849
quadratic_ranged_12_ub: 3 x_36_ - 4 x_44_ + [ -30 x_8_ * x_7_ + 18 x_15_ * x_7_ + 70 x_21_ * x_7_ - 74 x_44_ * x_7_ - 20 x_43_ * x_8_ + 98 x_44_ * x_8_ - 100 x_16_ * x_10_ - 8 x_23_ * x_10_ - 24 x_44_ * x_10_ - 20 x_16_ * x_14_ - 2 x_21_ * x_14_ - 72 x_36_ * x_14_ + 92 x_35_ * x_15_ - 24 x_36_ * x_15_ - 84 x_43_ * x_15_ + 4 x_44_ * x_15_ + 92 x_47_ * x_15_ + 28 x_21_ * x_16_ + 33 x_19_ ^ 2 - 52 x_35_ * x_19_ + 80 x_36_ * x_21_ - 14 x_23_ ^ 2 - 80 x_36_ * x_23_ + 90 x_42_ * x_23_ + 36 x_42_ * x_32_ - 34 x_35_ ^ 2 - 58 x_42_ * x_35_ - 32 x_44_ * x_35_ ] <= -8514
quadratic_ranged_13_ub: 5 x_10_ + 30 x_17_ + [ 48 x_2_ ^ 2 + 30 x_8_ * x_2_ - 42 x_24_ * x_2_ + 10 x_3_ ^ 2 - 18 x_9_ * x_3_ + 10 x_10_ * x_3_ + 48 x_13_ * x_3_ + 6 x_17_ * x_3_ - 64 x_9_ * x_6_ - 22 x_13_ * x_6_ + 80 x_46_ * x_6_ - 37 x_8_ ^ 2 - 92 x_13_ * x_8_ + 46 x_29_ * x_8_ - 100 x_40_ * x_8_ + 90 x_13_ * x_9_ + 74 x_44_ * x_9_ - 31 x_10_ ^ 2 + 32 x_40_ * x_10_ + 76 x_46_ * x_13_ - 50 x_25_ * x_17_ + 30 x_30_ * x_17_ + 27 x_24_ ^ 2 - 34 x_25_ * x_24_ - 38 x_46_ * x_24_ + 40 x_30_ * x_25_ + 18 x_30_ ^ 2 - 94 x_46_ * x_30_ - 26 x_43_ * x_40_ + 46 x_46_ * x_40_ + 2 x_43_ ^ 2 ] <= -7269
quadratic_ranged_14_ub: [ 38 x_5_ * x_46_ - 20 x_48_ * x_6_ - 98 x_41_ * x_19_ + 26 x_48_ * x_46_ ] <= -9425
quadratic_ranged_15_ub: 5 x_8_ + 38 x_18_ + 47 x_47_ - 44 x_48_ + [ -74 x_10_ * x_7_ - 22 x_18_ * x_7_ + 100 x_21_ * x_7_ - 56 x_47_ * x_7_ + 94 x_48_ * x_7_ + 4 x_13_ * x_8_ + 90 x_35_ * x_8_ - 62 x_47_ * x_8_ - 12 x_10_ ^ 2 + 52 x_18_ * x_10_ - 84 x_42_ * x_10_ + 24 x_48_ * x_10_ + 96 x_18_ * x_13_ + 80 x_19_ * x_18_ + 84 x_35_ * x_18_ - 56 x_45_ * x_18_ + 18 x_47_ * x_18_ + 30 x_48_ * x_18_ + 82 x_47_ * x_19_ + 4 x_45_ * x_21_ + 4 x_48_ * x_21_ + 56 x_44_ * x_42_ + 54 x_47_ * x_45_ - 3 x_47_ ^ 2 ] <= -6844
quadratic_ranged_16_ub: 40 x_18_ + 17 x_37_ - 32 x_43_ + [ 82 x_18_ * x_9_ + 20 x_28_ * x_9_ + 80 x_31_ * x_9_ - 22 x_43_ * x_9_ + 96 x_23_ * x_18_ - 60 x_28_ * x_18_ - 74 x_31_ * x_23_ + 92 x_37_ * x_23_ + 34 x_43_ ^ 2 ] <= 7832
quadratic_ranged_17_ub: 1 x_1_ - 42 x_25_ + [ -22 x_1_ ^ 2 + 50 x_10_ * x_1_ + 32 x_15_ * x_1_ + 10 x_25_ * x_1_ + 40 x_39_ * x_1_ - 36 x_38_ * x_8_ + 42 x_11_ * x_10_ + 90 x_21_ * x_10_ - 72 x_32_ * x_10_ - 44 x_39_ * x_10_ - 4 x_45_ * x_10_ + 20 x_38_ * x_11_ + 68 x_18_ * x_15_ - 96 x_45_ * x_15_ + 6 x_32_ * x_18_ - 8 x_38_ * x_18_ - 74 x_47_ * x_18_ - 90 x_39_ * x_24_ + 38 x_47_ * x_24_ - 50 x_27_ ^ 2 + 43 x_32_ ^ 2 + 68 x_45_ * x_38_ ] <= -5964
quadratic_ranged_18_ub: -32 x_12_ + [ 40 x_3_ ^ 2 - 22 x_7_ * x_4_ - 94 x_27_ * x_6_ + 26 x_31_ * x_6_ + 24 x_7_ ^ 2 + 26 x_47_ * x_7_ + 32 x_27_ * x_12_ + 62 x_47_ * x_31_ ] <= 2733
quadratic_ranged_19_ub: -27 x_5_ + 49 x_8_ - 19 x_9_ + 33 x_25_ + [ -86 x_20_ * x_2_ - 38 x_32_ * x_2_ + 92 x_22_ * x_5_ - 22 x_22_ * x_6_ + 26 x_20_ * x_9_ + 56 x_25_ * x_9_ + 92 x_32_ * x_18_ + 32 x_20_ ^ 2 - 30 x_22_ * x_20_ - 16 x_32_ * x_22_ - 8 x_37_ * x_25_ ] <= 11182
quadratic_ranged_20_ub: 19 x_13_ + [ -74 x_4_ * x_1_ - 64 x_13_ * x_1_ + 94 x_26_ * x_1_ + 10 x_26_ * x_4_ + 1 x_26_ ^ 2 - 66 x_43_ * x_33_ ] <= 10190
quadratic_ranged_21_ub: 25 x_31_ + 23 x_34_ + 23 x_43_ - 6 x_47_ + [ 32 x_47_ * x_2_ + 27 x_16_ ^ 2 - 78 x_34_ * x_16_ + 80 x_46_ * x_19_ - 68 x_27_ * x_25_ - 86 x_35_ * x_25_ - 8 x_34_ * x_29_ + 22 x_46_ * x_31_ + 49 x_34_ ^ 2 + 4 x_35_ ^ 2 - 50 x_47_ * x_43_ + 6 x_46_ ^ 2 + 30 x_47_ * x_46_ ] <= 6658
quadratic_ranged_22_ub: 48 x_6_ + 9 x_14_ - 40 x_20_ + [ -54 x_4_ * x_2_ - 60 x_20_ * x_2_ + 22 x_45_ * x_2_ - 38 x_4_ ^ 2 + 40 x_6_ * x_4_ + 84 x_38_ * x_6_ + 62 x_50_ * x_6_ - 6 x_21_ * x_14_ + 47 x_20_ ^ 2 + 10 x_45_ * x_20_ - 66 x_25_ * x_21_ - 48 x_50_ * x_21_ - 10 x_25_ ^ 2 + 50 x_34_ * x_25_ + 56 x_45_ * x_25_ - 88 x_50_ * x_36_ + 13 x_38_ ^ 2 - 18 x_45_ * x_38_ - 38 x_50_ * x_38_ - 42 x_45_ ^ 2 ] <= -1295
quadratic_ranged_23_ub: -6 x_10_ + 28 x_44_ + [ -46 x_22_ * x_3_ + 18 x_36_ * x_3_ + 72 x_44_ * x_3_ + 40 x_10_ ^ 2 - 96 x_12_ * x_10_ - 60 x_22_ * x_12_ + 12 x_42_ * x_12_ + 92 x_50_ * x_22_ - 50 x_42_ * x_30_ - 50 x_44_ * x_30_ + 68 x_42_ * x_36_ + 100 x_50_ * x_36_ + 26 x_44_ * x_42_ + 60 x_50_ * x_42_ ] <= 19529
quadratic_ranged_24_ub: -37 x_6_ + 38 x_38_ + 30 x_43_ + [ -8 x_5_ ^ 2 + 52 x_38_ * x_27_ + 82 x_43_ * x_27_ + 54 x_38_ * x_30_ + 38 x_48_ ^ 2 ] <= 1270
quadratic_ranged_25_ub: -22 x_10_ + 30 x_12_ - 13 x_48_ + [ 64 x_19_ * x_3_ + 40 x_10_ * x_7_ - 22 x_34_ * x_7_ + 38 x_38_ * x_7_ - 74 x_46_ * x_7_ - 82 x_21_ * x_10_ + 70 x_32_ * x_10_ + 30 x_13_ * x_12_ + 70 x_34_ * x_12_ + 50 x_46_ * x_12_ + 64 x_48_ * x_12_ - 40 x_21_ * x_19_ - 8 x_46_ * x_19_ + 3 x_21_ ^ 2 - 58 x_34_ * x_21_ - 8 x_48_ * x_21_ - 45 x_32_ ^ 2 - 16 x_48_ * x_32_ + 76 x_48_ * x_46_ ] <= -1383
quadratic_ranged_26_ub: 11 x_5_ + 35 x_10_ + 6 x_17_ + 49 x_26_ + 13 x_27_ - 10 x_44_ + [ -80 x_5_ * x_1_ - 27 x_2_ ^ 2 + 50 x_44_ * x_2_ + 52 x_46_ * x_2_ + 76 x_7_ * x_5_ - 6 x_10_ * x_5_ - 54 x_36_ * x_5_ - 56 x_26_ * x_7_ + 56 x_27_ * x_10_ - 52 x_46_ * x_10_ + 2 x_46_ * x_22_ - 16 x_36_ * x_27_ - 12 x_36_ ^ 2 - 68 x_46_ * x_36_ ] <= -9257
quadratic_ranged_27_ub: -21 x_8_ + [ 88 x_27_ * x_7_ + 26 x_44_ * x_7_ - 90 x_16_ * x_8_ + 98 x_27_ * x_13_ + 62 x_42_ * x_13_ - 2 x_44_ * x_13_ - 34 x_17_ ^ 2 - 62 x_33_ * x_19_ - 8 x_44_ * x_19_ - 72 x_42_ * x_25_ + 40 x_33_ * x_27_ + 66 x_44_ * x_27_ + 31 x_42_ ^ 2 ] <= -872
quadratic_ranged_28_ub: -21 x_6_ + 46 x_12_ - 7 x_22_ + [ 52 x_22_ * x_6_ + 54 x_43_ * x_6_ - 22 x_10_ ^ 2 + 50 x_22_ * x_10_ - 38 x_43_ * x_12_ - 48 x_22_ ^ 2 + 72 x_43_ * x_22_ ] <= -13742
quadratic_ranged_1_lb: [ 5 x_32_ ^ 2 - 43 x_34_ ^ 2 ] >= 146
quadratic_ranged_2_lb: 46 x_39_ + [ -28 x_20_ * x_17_ + 78 x_26_ * x_17_ + 94 x_31_ * x_17_ + 80 x_28_ * x_20_ - 1 x_29_ ^ 2 - 32 x_34_ ^ 2 + 2 x_39_ * x_34_ ] >= 677
quadratic_ranged_3_lb: -24 x_1_ + 38 x_30_ + 22 x_39_ + 14 x_41_ + [ -30 x_1_ ^ 2 + 28 x_10_ * x_1_ - 78 x_16_ * x_1_ - 86 x_39_ * x_1_ - 88 x_21_ * x_6_ - 32 x_32_ * x_6_ + 64 x_36_ * x_6_ - 54 x_13_ * x_10_ - 32 x_32_ * x_10_ + 70 x_27_ * x_13_ + 50 x_30_ * x_13_ + 64 x_27_ * x_16_ - 20 x_39_ * x_16_ + 38 x_30_ * x_21_ + 46 x_45_ * x_21_ + 60 x_30_ * x_27_ - 7 x_28_ ^ 2 + 88 x_30_ * x_28_ - 48 x_32_ * x_30_ + 28 x_39_ * x_30_ - 44 x_41_ * x_30_ + 42 x_41_ * x_32_ - 90 x_45_ * x_32_ - 66 x_45_ * x_36_ - 58 x_41_ * x_39_ + 10 x_45_ * x_39_ - 35 x_41_ ^ 2 ] >= -604
quadratic_ranged_4_lb: -42 x_9_ + 26 x_31_ + 16 x_43_ + [ -2 x_15_ * x_8_ + 18 x_21_ * x_8_ + 100 x_27_ * x_8_ - 64 x_10_ * x_9_ - 90 x_42_ * x_9_ - 26 x_27_ * x_10_ + 72 x_38_ * x_10_ - 10 x_31_ * x_15_ + 4 x_38_ * x_15_ - 84 x_49_ * x_15_ + 46 x_21_ ^ 2 - 80 x_38_ * x_21_ - 76 x_49_ * x_21_ + 94 x_38_ * x_31_ + 4 x_46_ * x_31_ + 19 x_46_ ^ 2 - 94 x_49_ * x_46_ ] >= 15331
quadratic_ranged_5_lb: -47 x_9_ - 9 x_14_ + [ 42 x_45_ * x_1_ - 74 x_47_ * x_1_ + 24 x_9_ * x_6_ + 70 x_14_ * x_6_ + 50 x_32_ * x_6_ - 15 x_26_ ^ 2 + 94 x_32_ * x_26_ - 78 x_45_ * x_26_ + 42 x_47_ * x_26_ - 60 x_32_ * x_27_ - 70 x_40_ * x_27_ - 4 x_45_ * x_32_ + 74 x_45_ * x_40_ - 24 x_47_ * x_40_ ] >= -6676
quadratic_ranged_6_lb: -47 x_8_ + [ 34 x_7_ ^ 2 - 76 x_8_ * x_7_ + 46 x_44_ * x_7_ + 72 x_48_ * x_7_ - 84 x_26_ * x_8_ + 82 x_26_ * x_23_ - 38 x_48_ * x_23_ + 16 x_26_ ^ 2 - 10 x_44_ * x_26_ - 28 x_48_ * x_26_ ] >= 2548
quadratic_ranged_7_lb: -27 x_4_ - 47 x_43_ + [ -14 x_44_ * x_4_ + 28 x_5_ ^ 2 - 100 x_44_ * x_5_ + 24 x_12_ ^ 2 - 40 x_24_ * x_12_ + 94 x_44_ * x_12_ + 54 x_43_ * x_32_ ] >= -2840
quadratic_ranged_8_lb: -38 x_16_ + [ 32 x_15_ * x_41_ - 34 x_26_ * x_16_ - 100 x_32_ * x_16_ - 66 x_42_ * x_26_ - 46 x_41_ * x_32_ - 32 x_45_ * x_34_ + 86 x_49_ * x_41_ + 58 x_49_ * x_45_ ] >= 2807
quadratic_ranged_9_lb: 3 x_23_ + 46 x_48_ + [ -76 x_25_ * x_11_ + 78 x_26_ * x_11_ - 40 x_26_ * x_17_ - 54 x_26_ * x_23_ + 82 x_44_ * x_23_ + 24 x_48_ * x_25_ - 96 x_48_ * x_26_ - 35 x_48_ ^ 2 ] >= -482
quadratic_ranged_10_lb: -24 x_3_ + [ 100 x_42_ * x_3_ - 28 x_43_ * x_3_ + 54 x_47_ * x_3_ + 88 x_20_ * x_5_ + 76 x_37_ * x_5_ + 41 x_8_ ^ 2 - 54 x_22_ * x_8_ + 30 x_20_ ^ 2 - 12 x_22_ * x_20_ + 42 x_37_ * x_20_ + 4 x_47_ * x_20_ - 84 x_42_ * x_22_ + 14 x_43_ * x_35_ + 36 x_37_ ^ 2 + 44 x_42_ * x_37_ - 46 x_43_ * x_37_ + 96 x_43_ * x_42_ ] >= -14849
quadratic_ranged_11_lb: 2 x_45_ - 37 x_47_ + [ -2 x_3_ * x_1_ + 8 x_32_ * x_1_ + 90 x_36_ * x_1_ - 94 x_45_ * x_1_ - 4 x_17_ * x_3_ - 58 x_18_ * x_3_ - 48 x_36_ * x_3_ + 96 x_18_ * x_5_ + 26 x_30_ * x_5_ - 2 x_36_ * x_5_ + 64 x_45_ * x_5_ - 26 x_18_ * x_17_ + 64 x_24_ * x_17_ - 16 x_40_ * x_17_ - 24 x_27_ * x_18_ - 74 x_30_ * x_18_ - 38 x_40_ * x_18_ - 12 x_27_ * x_24_ + 70 x_30_ * x_24_ - 100 x_40_ * x_24_ - 92 x_47_ * x_24_ + 100 x_47_ * x_27_ - 1 x_30_ ^ 2 - 10 x_47_ * x_30_ + 44 x_47_ * x_32_ ] >= -858
quadratic_ranged_12_lb: 3 x_36_ - 4 x_44_ + [ -30 x_8_ * x_7_ + 18 x_15_ * x_7_ + 70 x_21_ * x_7_ - 74 x_44_ * x_7_ - 20 x_43_ * x_8_ + 98 x_44_ * x_8_ - 100 x_16_ * x_10_ - 8 x_23_ * x_10_ - 24 x_44_ * x_10_ - 20 x_16_ * x_14_ - 2 x_21_ * x_14_ - 72 x_36_ * x_14_ + 92 x_35_ * x_15_ - 24 x_36_ * x_15_ - 84 x_43_ * x_15_ + 4 x_44_ * x_15_ + 92 x_47_ * x_15_ + 28 x_21_ * x_16_ + 33 x_19_ ^ 2 - 52 x_35_ * x_19_ + 80 x_36_ * x_21_ - 14 x_23_ ^ 2 - 80 x_36_ * x_23_ + 90 x_42_ * x_23_ + 36 x_42_ * x_32_ - 34 x_35_ ^ 2 - 58 x_42_ * x_35_ - 32 x_44_ * x_35_ ] >= -8518
quadratic_ranged_13_lb: 5 x_10_ + 30 x_17_ + [ 48 x_2_ ^ 2 + 30 x_8_ * x_2_ - 42 x_24_ * x_2_ + 10 x_3_ ^ 2 - 18 x_9_ * x_3_ + 10 x_10_ * x_3_ + 48 x_13_ * x_3_ + 6 x_17_ * x_3_ - 64 x_9_ * x_6_ - 22 x_13_ * x_6_ + 80 x_46_ * x_6_ - 37 x_8_ ^ 2 - 92 x_13_ * x_8_ + 46 x_29_ * x_8_ - 100 x_40_ * x_8_ + 90 x_13_ * x_9_ + 74 x_44_ * x_9_ - 31 x_10_ ^ 2 + 32 x_40_ * x_10_ + 76 x_46_ * x_13_ - 50 x_25_ * x_17_ + 30 x_30_ * x_17_ + 27 x_24_ ^ 2 - 34 x_25_ * x_24_ - 38 x_46_ * x_24_ + 40 x_30_ * x_25_ + 18 x_30_ ^ 2 - 94 x_46_ * x_30_ - 26 x_43_ * x_40_ + 46 x_46_ * x_40_ + 2 x_43_ ^ 2 ] >= -7274
quadratic_ranged_14_lb: [ 38 x_5_ * x_46_ - 20 x_48_ * x_6_ - 98 x_41_ * x_19_ + 26 x_48_ * x_46_ ] >= -9431
quadratic_ranged_15_lb: 5 x_8_ + 38 x_18_ + 47 x_47_ - 44 x_48_ + [ -74 x_10_ * x_7_ - 22 x_18_ * x_7_ + 100 x_21_ * x_7_ - 56 x_47_ * x_7_ + 94 x_48_ * x_7_ + 4 x_13_ * x_8_ + 90 x_35_ * x_8_ - 62 x_47_ * x_8_ - 12 x_10_ ^ 2 + 52 x_18_ * x_10_ - 84 x_42_ * x_10_ + 24 x_48_ * x_10_ + 96 x_18_ * x_13_ + 80 x_19_ * x_18_ + 84 x_35_ * x_18_ - 56 x_45_ * x_18_ + 18 x_47_ * x_18_ + 30 x_48_ * x_18_ + 82 x_47_ * x_19_ + 4 x_45_ * x_21_ + 4 x_48_ * x_21_ + 56 x_44_ * x_42_ + 54 x_47_ * x_45_ - 3 x_47_ ^ 2 ] >= -6849
quadratic_ranged_16_lb: 40 x_18_ + 17 x_37_ - 32 x_43_ + [ 82 x_18_ * x_9_ + 20 x_28_ * x_9_ + 80 x_31_ * x_9_ - 22 x_43_ * x_9_ + 96 x_23_ * x_18_ - 60 x_28_ * x_18_ - 74 x_31_ * x_23_ + 92 x_37_ * x_23_ + 34 x_43_ ^ 2 ] >= 7825
quadratic_ranged_17_lb: 1 x_1_ - 42 x_25_ + [ -22 x_1_ ^ 2 + 50 x_10_ * x_1_ + 32 x_15_ * x_1_ + 10 x_25_ * x_1_ + 40 x_39_ * x_1_ - 36 x_38_ * x_8_ + 42 x_11_ * x_10_ + 90 x_21_ * x_10_ - 72 x_32_ * x_10_ - 44 x_39_ * x_10_ - 4 x_45_ * x_10_ + 20 x_38_ * x_11_ + 68 x_18_ * x_15_ - 96 x_45_ * x_15_ + 6 x_32_ * x_18_ - 8 x_38_ * x_18_ - 74 x_47_ * x_18_ - 90 x_39_ * x_24_ + 38 x_47_ * x_24_ - 50 x_27_ ^ 2 + 43 x_32_ ^ 2 + 68 x_45_ * x_38_ ] >= -5969
quadratic_ranged_18_lb: -32 x_12_ + [ 40 x_3_ ^ 2 - 22 x_7_ * x_4_ - 94 x_27_ * x_6_ + 26 x_31_ * x_6_ + 24 x_7_ ^ 2 + 26 x_47_ * x_7_ + 32 x_27_ * x_12_ + 62 x_47_ * x_31_ ] >= 2728
quadratic_ranged_19_lb: -27 x_5_ + 49 x_8_ - 19 x_9_ + 33 x_25_ + [ -86 x_20_ * x_2_ - 38 x_32_ * x_2_ + 92 x_22_ * x_5_ - 22 x_22_ * x_6_ + 26 x_20_ * x_9_ + 56 x_25_ * x_9_ + 92 x_32_ * x_18_ + 32 x_20_ ^ 2 - 30 x_22_ * x_20_ - 16 x_32_ * x_22_ - 8 x_37_ * x_25_ ] >= 11177
quadratic_ranged_20_lb: 19 x_13_ + [ -74 x_4_ * x_1_ - 64 x_13_ * x_1_ + 94 x_26_ * x_1_ + 10 x_26_ * x_4_ + 1 x_26_ ^ 2 - 66 x_43_ * x_33_ ] >= 10187
quadratic_ranged_21_lb: 25 x_31_ + 23 x_34_ + 23 x_43_ - 6 x_47_ + [ 32 x_47_ * x_2_ + 27 x_16_ ^ 2 - 78 x_34_ * x_16_ + 80 x_46_ * x_19_ - 68 x_27_ * x_25_ - 86 x_35_ * x_25_ - 8 x_34_ * x_29_ + 22 x_46_ * x_31_ + 49 x_34_ ^ 2 + 4 x_35_ ^ 2 - 50 x_47_ * x_43_ + 6 x_46_ ^ 2 + 30 x_47_ * x_46_ ] >= 6655
quadratic_ranged_22_lb: 48 x_6_ + 9 x_14_ - 40 x_20_ + [ -54 x_4_ * x_2_ - 60 x_20_ * x_2_ + 22 x_45_ * x_2_ - 38 x_4_ ^ 2 + 40 x_6_ * x_4_ + 84 x_38_ * x_6_ + 62 x_50_ * x_6_ - 6 x_21_ * x_14_ + 47 x_20_ ^ 2 + 10 x_45_ * x_20_ - 66 x_25_ * x_21_ - 48 x_50_ * x_21_ - 10 x_25_ ^ 2 + 50 x_34_ * x_25_ + 56 x_45_ * x_25_ - 88 x_50_ * x_36_ + 13 x_38_ ^ 2 - 18 x_45_ * x_38_ - 38 x_50_ * x_38_ - 42 x_45_ ^ 2 ] >= -1303
quadratic_ranged_23_lb: -6 x_10_ + 28 x_44_ + [ -46 x_22_ * x_3_ + 18 x_36_ * x_3_ + 72 x_44_ * x_3_ + 40 x_10_ ^ 2 - 96 x_12_ * x_10_ - 60 x_22_ * x_12_ + 12 x_42_ * x_12_ + 92 x_50_ * x_22_ - 50 x_42_ * x_30_ - 50 x_44_ * x_30_ + 68 x_42_ * x_36_ + 100 x_50_ * x_36_ + 26 x_44_ * x_42_ + 60 x_50_ * x_42_ ] >= 19525
quadratic_ranged_24_lb: -37 x_6_ + 38 x_38_ + 30 x_43_ + [ -8 x_5_ ^ 2 + 52 x_38_ * x_27_ + 82 x_43_ * x_27_ + 54 x_38_ * x_30_ + 38 x_48_ ^ 2 ] >= 1264
quadratic_ranged_25_lb: -22 x_10_ + 30 x_12_ - 13 x_48_ + [ 64 x_19_ * x_3_ + 40 x_10_ * x_7_ - 22 x_34_ * x_7_ + 38 x_38_ * x_7_ - 74 x_46_ * x_7_ - 82 x_21_ * x_10_ + 70 x_32_ * x_10_ + 30 x_13_ * x_12_ + 70 x_34_ * x_12_ + 50 x_46_ * x_12_ + 64 x_48_ * x_12_ - 40 x_21_ * x_19_ - 8 x_46_ * x_19_ + 3 x_21_ ^ 2 - 58 x_34_ * x_21_ - 8 x_48_ * x_21_ - 45 x_32_ ^ 2 - 16 x_48_ * x_32_ + 76 x_48_ * x_46_ ] >= -1389
quadratic_ranged_26_lb: 11 x_5_ + 35 x_10_ + 6 x_17_ + 49 x_26_ + 13 x_27_ - 10 x_44_ + [ -80 x_5_ * x_1_ - 27 x_2_ ^ 2 + 50 x_44_ * x_2_ + 52 x_46_ * x_2_ + 76 x_7_ * x_5_ - 6 x_10_ * x_5_ - 54 x_36_ * x_5_ - 56 x_26_ * x_7_ + 56 x_27_ * x_10_ - 52 x_46_ * x_10_ + 2 x_46_ * x_22_ - 16 x_36_ * x_27_ - 12 x_36_ ^ 2 - 68 x_46_ * x_36_ ] >= -9260
quadratic_ranged_27_lb: -21 x_8_ + [ 88 x_27_ * x_7_ + 26 x_44_ * x_7_ - 90 x_16_ * x_8_ + 98 x_27_ * x_13_ + 62 x_42_ * x_13_ - 2 x_44_ * x_13_ - 34 x_17_ ^ 2 - 62 x_33_ * x_19_ - 8 x_44_ * x_19_ - 72 x_42_ * x_25_ + 40 x_33_ * x_27_ + 66 x_44_ * x_27_ + 31 x_42_ ^ 2 ] >= -875
quadratic_ranged_28_lb: -21 x_6_ + 46 x_12_ - 7 x_22_ + [ 52 x_22_ * x_6_ + 54 x_43_ * x_6_ - 22 x_10_ ^ 2 + 50 x_22_ * x_10_ - 38 x_43_ * x_12_ - 48 x_22_ ^ 2 + 72 x_43_ * x_22_ ] >= -13749
c1: -44 x_7_ + 41 x_12_ - 6 x_14_ + [ 22 x_3_ * x_33_ + 72 x_14_ * x_4_ - 42 x_33_ * x_4_ + 26 x_33_ * x_14_ ] = 4704
c2: 43 x_11_ + [ 1 x_16_ ^ 2 ] = 165
c3: -14 x_4_ + 49 x_10_ + [ -13 x_3_ ^ 2 - 84 x_21_ * x_3_ - 44 x_43_ * x_3_ + 18 x_50_ * x_3_ - 96 x_10_ * x_4_ + 86 x_21_ * x_7_ + 100 x_49_ * x_7_ - 20 x_18_ * x_10_ - 86 x_33_ * x_10_ + 80 x_49_ * x_10_ - 60 x_21_ * x_18_ + 72 x_36_ * x_18_ - 56 x_33_ * x_21_ + 42 x_36_ * x_21_ + 90 x_43_ * x_21_ - 47 x_27_ ^ 2 - 34 x_49_ * x_43_ - 56 x_50_ * x_43_ + 60 x_49_ * x_47_ ] = -9524
c4: 4 x_11_ + [ 2 x_11_ * x_3_ + 30 x_39_ * x_3_ + 46 x_9_ * x_4_ + 92 x_19_ * x_4_ - 48 x_39_ * x_4_ - 42 x_48_ * x_4_ + 96 x_29_ * x_9_ + 34 x_47_ * x_9_ + 46 x_13_ * x_11_ + 92 x_39_ * x_11_ - 74 x_43_ * x_13_ - 42 x_47_ * x_13_ - 44 x_29_ * x_19_ - 1 x_26_ ^ 2 + 38 x_27_ * x_26_ + 54 x_48_ * x_26_ + 22 x_39_ * x_27_ + 56 x_48_ * x_27_ - 46 x_43_ * x_29_ - 47 x_34_ ^ 2 - 74 x_47_ * x_39_ - 14 x_47_ * x_43_ ] = 22834
c5: 8 x_10_ - 22 x_32_ + [ 37 x_10_ ^ 2 - 86 x_15_ * x_10_ - 70 x_32_ * x_10_ + 36 x_36_ * x_10_ - 16 x_38_ * x_12_ - 4 x_43_ * x_12_ + 40 x_46_ * x_13_ + 56 x_46_ * x_18_ - 46 x_38_ * x_24_ + 26 x_38_ * x_32_ - 46 x_43_ * x_36_ - 62 x_43_ * x_38_ - 88 x_46_ * x_38_ ] = -4395
c6: -6 x_38_ + [ -34 x_18_ * x_1_ + 34 x_43_ * x_5_ + 14 x_11_ ^ 2 - 60 x_34_ * x_11_ + 68 x_43_ * x_11_ + 8 x_18_ * x_14_ - 48 x_34_ * x_14_ - 78 x_43_ * x_18_ + 74 x_43_ * x_34_ + 28 x_45_ * x_43_ + 20 x_45_ ^ 2 ] = 1778
c7: -19 x_39_ + 7 x_47_ + [ 4 x_11_ ^ 2 - 96 x_31_ * x_11_ + 18 x_39_ * x_11_ + 62 x_47_ * x_11_ + 76 x_28_ * x_17_ - 84 x_47_ * x_17_ + 80 x_38_ * x_19_ - 98 x_39_ * x_19_ + 60 x_38_ * x_28_ - 88 x_43_ * x_38_ - 98 x_48_ * x_38_ - 15 x_43_ ^ 2 + 18 x_48_ ^ 2 ] = -1514
c8: -1 x_2_ - 40 x_16_ + [ 92 x_7_ * x_2_ - 24 x_29_ * x_2_ + 68 x_18_ * x_7_ - 10 x_39_ * x_7_ + 28 x_40_ * x_7_ + 45 x_16_ ^ 2 + 98 x_39_ * x_18_ - 76 x_40_ * x_18_ + 44 x_39_ * x_29_ - 2 x_40_ ^ 2 - 20 x_50_ * x_40_ ] = -6385
c9: -26 x_34_ + [ 17 x_1_ ^ 2 - 80 x_26_ * x_9_ - 18 x_34_ * x_9_ + 92 x_35_ * x_26_ - 90 x_45_ * x_26_ + 58 x_35_ * x_34_ - 32 x_42_ ^ 2 ] = 2537
c10: 26 x_23_ + [ 24 x_11_ * x_1_ - 90 x_17_ * x_1_ + 22 x_23_ * x_11_ + 10 x_20_ * x_12_ - 82 x_38_ * x_12_ + 4 x_17_ ^ 2 - 34 x_23_ * x_17_ + 52 x_47_ * x_17_ + 72 x_23_ * x_20_ + 31 x_23_ ^ 2 - 43 x_24_ ^ 2 + 31 x_38_ ^ 2 - 33 x_39_ ^ 2 + 8 x_47_ * x_39_ ] = 8935
c11: 49 x_6_ - 28 x_12_ + 6 x_35_ + [ 80 x_6_ * x_1_ + 50 x_22_ * x_1_ + 6 x_24_ * x_1_ - 42 x_30_ * x_1_ + 56 x_36_ * x_1_ - 82 x_38_ * x_1_ + 66 x_22_ * x_5_ + 32 x_22_ * x_6_ + 16 x_23_ * x_6_ + 1 x_12_ ^ 2 - 46 x_18_ * x_12_ - 54 x_30_ * x_12_ - 88 x_22_ * x_18_ - 40 x_40_ * x_18_ - 14 x_31_ * x_22_ - 6 x_23_ ^ 2 + 74 x_30_ * x_23_ + 12 x_40_ * x_24_ + 42 x_30_ ^ 2 - 26 x_35_ * x_30_ - 88 x_40_ * x_30_ - 38 x_35_ ^ 2 - 38 x_40_ * x_35_ + 1 x_36_ ^ 2 ] = 16526
c12: 2 x_5_ - 10 x_26_ + [ 46 x_20_ * x_5_ + 56 x_26_ * x_5_ + 92 x_47_ * x_5_ - 4 x_20_ ^ 2 + 4 x_45_ ^ 2 - 36 x_47_ * x_45_ ] = 11108
c13: 42 x_46_ + [ -76 x_23_ * x_18_ - 54 x_46_ * x_18_ + 46 x_30_ * x_23_ - 10 x_24_ ^ 2 - 74 x_46_ * x_30_ ] = -2650
c14: 14 x_24_ - 44 x_33_ + 31 x_37_ + [ -19 x_5_ ^ 2 - 20 x_24_ * x_5_ - 60 x_33_ * x_5_ + 4 x_41_ * x_5_ + 34 x_24_ ^ 2 + 44 x_35_ * x_24_ + 38 x_46_ * x_24_ - 30 x_44_ * x_33_ - 88 x_46_ * x_37_ ] = -689
c15: 21 x_1_ - 40 x_7_ + 12 x_12_ + 1 x_22_ + 46 x_50_ + [ -60 x_50_ * x_1_ - 34 x_7_ ^ 2 + 2 x_37_ * x_7_ + 30 x_19_ * x_12_ + 76 x_26_ * x_12_ - 72 x_49_ * x_12_ + 74 x_26_ * x_14_ - 100 x_27_ * x_14_ - 52 x_22_ * x_18_ - 98 x_49_ * x_18_ - 11 x_26_ ^ 2 + 16 x_37_ * x_26_ - 20 x_41_ * x_26_ - 16 x_37_ * x_27_ + 38 x_41_ * x_38_ + 34 x_49_ * x_38_ ] = -6347
c16: 40 x_1_ + [ 66 x_13_ * x_1_ - 96 x_23_ * x_1_ - 82 x_30_ * x_1_ + 100 x_31_ * x_13_ + 48 x_49_ * x_13_ + 50 x_14_ ^ 2 - 94 x_23_ * x_14_ - 50 x_42_ * x_30_ ] = 11978
c17: -4 x_3_ + 48 x_6_ + 2 x_10_ + 2 x_13_ + [ 8 x_8_ * x_3_ - 8 x_33_ * x_3_ + 22 x_6_ ^ 2 - 30 x_8_ * x_6_ + 2 x_37_ * x_6_ - 86 x_39_ * x_6_ - 82 x_44_ * x_8_ + 11 x_10_ ^ 2 - 24 x_33_ * x_10_ - 14 x_37_ * x_23_ + 16 x_39_ * x_33_ - 54 x_39_ * x_37_ - 74 x_44_ * x_39_ ] = -4407
c18: -42 x_6_ + 8 x_21_ + [ 64 x_39_ * x_6_ + 8 x_39_ * x_8_ + 100 x_39_ * x_21_ + 76 x_45_ * x_21_ - 33 x_39_ ^ 2 - 56 x_45_ * x_39_ ] = -7870
c19: 19 x_16_ - 32 x_44_ + [ -64 x_12_ * x_44_ ] = 4590
c20: 44 x_26_ + [ 46 x_21_ * x_6_ + 2 x_26_ * x_6_ - 10 x_31_ * x_6_ + 92 x_8_ * x_7_ + 30 x_33_ * x_7_ + 34 x_31_ * x_8_ - 16 x_33_ * x_8_ + 2 x_31_ * x_10_ - 86 x_33_ * x_10_ - 22 x_50_ * x_15_ - 20 x_21_ ^ 2 + 16 x_32_ * x_21_ + 40 x_33_ * x_21_ - 4 x_32_ * x_31_ + 72 x_33_ * x_31_ - 50 x_33_ * x_32_ ] = 1092
c21: -17 x_19_ + 36 x_45_ + [ -86 x_32_ * x_7_ + 24 x_33_ * x_7_ + 44 x_45_ * x_7_ - 86 x_45_ * x_14_ - 10 x_50_ * x_14_ - 33 x_24_ ^ 2 - 86 x_32_ * x_24_ + 88 x_33_ * x_24_ - 88 x_45_ * x_30_ + 8 x_50_ * x_30_ + 68 x_46_ * x_32_ + 64 x_46_ * x_42_ + 40 x_50_ ^ 2 ] = -19489
c22: -27 x_25_ + 47 x_33_ + 39 x_47_ + [ 34 x_12_ * x_1_ - 8 x_41_ * x_1_ - 44 x_9_ * x_7_ + 10 x_12_ * x_7_ - 40 x_33_ * x_7_ + 16 x_35_ * x_7_ + 62 x_41_ * x_7_ + 98 x_50_ * x_7_ + 40 x_12_ * x_9_ - 78 x_25_ * x_9_ - 96 x_42_ * x_9_ + 12 x_43_ * x_9_ + 44 x_49_ * x_9_ - 50 x_18_ ^ 2 - 26 x_25_ * x_18_ + 38 x_41_ * x_18_ - 8 x_43_ * x_18_ - 30 x_42_ * x_35_ - 52 x_43_ * x_35_ + 46 x_47_ * x_42_ - 30 x_50_ * x_42_ - 48 x_49_ ^ 2 ] = -1895
Bounds
-6 <= x_1_ <= 8
-6 <= x_2_ <= 6
-7 <= x_3_ <= 2
-10 <= x_4_ <= 7
5 <= x_5_ <= 8
-10 <= x_6_ <= 7
-5 <= x_7_ <= 3
-10 <= x_8_ <= -3
-5 <= x_9_ <= 10
-10 <= x_10_ <= 3
-6 <= x_11_ <= 6
x_12_ = 10
-2 <= x_13_ <= 0
-10 <= x_14_ <= 10
-8 <= x_15_ <= 9
-10 <= x_16_ <= 0
-10 <= x_17_ <= 9
-5 <= x_18_ <= 9
-10 <= x_19_ <= 3
-6 <= x_20_ <= 3
3 <= x_21_ <= 10
-4 <= x_22_ <= 10
-4 <= x_23_ <= 7
0 <= x_24_ <= 8
1 <= x_25_ <= 2
-8 <= x_26_ <= 7
-6 <= x_27_ <= 9
-3 <= x_28_ <= 6
-2 <= x_29_ <= 9
-10 <= x_30_ <= 8
-3 <= x_31_ <= 3
6 <= x_32_ <= 8
0 <= x_33_ <= 9
-7 <= x_34_ <= 2
3 <= x_35_ <= 10
-4 <= x_36_ <= 7
-10 <= x_37_ <= 8
-10 <= x_38_ <= -2
-8 <= x_39_ <= 8
-4 <= x_40_ <= 10
-9 <= x_41_ <= -6
-10 <= x_42_ <= 10
-10 <= x_43_ <= 0
-8 <= x_44_ <= 5
-7 <= x_45_ <= -4
-7 <= x_46_ <= 2
-8 <= x_47_ <= 10
3 <= x_48_ <= 5
2 <= x_49_ <= 10
-2 <= x_50_ <= 10
General
x_1_
x_2_
x_3_
x_4_
x_5_
x_6_
x_7_
x_8_
x_9_
x_10_
x_11_
x_12_
x_13_
x_14_
x_15_
x_16_
x_17_
x_18_
x_19_
x_20_
x_21_
x_22_
x_23_
x_24_
x_25_
x_26_
x_27_
x_28_
x_29_
x_30_
x_31_
x_32_
x_33_
x_34_
x_35_
x_36_
x_37_
x_38_
x_39_
x_40_
x_41_
x_42_
x_43_
x_44_
x_45_
x_46_
x_47_
x_48_
x_49_
x_50_
End
