minimize
obj: 
subject to
quadratic_ranged_1_ub: [ 96 x_12_ * x_35_ + 8 x_36_ * x_12_ + 32 x_19_ * x_14_ - 84 x_34_ * x_19_ + 10 x_36_ * x_19_ ] <= -13975
quadratic_ranged_2_ub: [ -12 x_1_ * x_24_ - 56 x_33_ * x_1_ + 76 x_24_ * x_11_ + 22 x_33_ * x_15_ - 26 x_37_ * x_15_ + 28 x_37_ * x_23_ + 28 x_28_ * x_24_ + 6 x_43_ * x_25_ + 32 x_40_ * x_33_ ] <= -7715
quadratic_ranged_3_ub: [ 60 x_4_ * x_45_ - 34 x_22_ * x_14_ + 40 x_22_ * x_18_ - 50 x_26_ * x_18_ - 80 x_38_ * x_18_ - 64 x_45_ * x_22_ ] <= 7774
quadratic_ranged_4_ub: [ -62 x_3_ * x_7_ + 18 x_8_ * x_3_ + 98 x_25_ * x_22_ ] <= 2357
quadratic_ranged_5_ub: [ 86 x_16_ * x_34_ + 42 x_44_ * x_34_ ] <= 1343
quadratic_ranged_6_ub: [ 46 x_9_ * x_18_ - 42 x_39_ * x_9_ - 46 x_20_ * x_18_ + 60 x_22_ * x_18_ - 58 x_50_ * x_18_ - 8 x_40_ * x_20_ - 6 x_39_ * x_28_ + 12 x_40_ * x_34_ + 16 x_46_ * x_34_ + 38 x_50_ * x_34_ - 56 x_40_ * x_39_ + 16 x_50_ * x_45_ ] <= 7861
quadratic_ranged_7_ub: [ 52 x_3_ * x_16_ + 28 x_39_ * x_3_ - 38 x_33_ * x_8_ - 88 x_31_ * x_16_ + 6 x_39_ * x_19_ - 40 x_47_ * x_19_ - 42 x_29_ * x_20_ - 26 x_33_ * x_20_ - 8 x_47_ * x_20_ + 52 x_22_ * x_21_ - 100 x_39_ * x_22_ + 10 x_47_ * x_31_ ] <= 135
quadratic_ranged_8_ub: [ 56 x_1_ * x_4_ + 24 x_23_ * x_1_ - 84 x_31_ * x_1_ + 36 x_45_ * x_1_ + 32 x_48_ * x_1_ - 18 x_23_ * x_10_ - 46 x_31_ * x_10_ - 24 x_33_ * x_10_ + 86 x_48_ * x_10_ + 44 x_31_ * x_11_ - 80 x_31_ * x_20_ + 68 x_33_ * x_20_ - 38 x_48_ * x_31_ ] <= -453
quadratic_ranged_9_ub: [ -88 x_8_ * x_10_ - 28 x_14_ * x_8_ + 62 x_32_ * x_8_ - 20 x_39_ * x_8_ + 92 x_11_ * x_10_ - 66 x_19_ * x_10_ + 22 x_19_ * x_14_ + 70 x_41_ * x_14_ - 12 x_49_ * x_14_ + 36 x_41_ * x_17_ - 38 x_48_ * x_17_ + 52 x_29_ * x_19_ + 28 x_31_ * x_19_ + 42 x_32_ * x_19_ + 18 x_39_ * x_29_ - 56 x_39_ * x_31_ + 8 x_49_ * x_39_ - 80 x_49_ * x_41_ ] <= -8102
quadratic_ranged_10_ub: [ 62 x_5_ * x_39_ - 88 x_26_ * x_20_ + 74 x_31_ * x_20_ - 82 x_46_ * x_20_ - 98 x_50_ * x_20_ - 78 x_31_ * x_26_ + 24 x_35_ * x_26_ - 44 x_35_ * x_31_ + 48 x_46_ * x_35_ - 34 x_46_ * x_39_ - 24 x_50_ * x_39_ ] <= -6097
quadratic_ranged_11_ub: [ -8 x_10_ * x_11_ - 8 x_47_ * x_10_ - 56 x_23_ * x_11_ + 2 x_42_ * x_11_ - 60 x_47_ * x_23_ + 84 x_34_ * x_33_ ] <= 6723
quadratic_ranged_12_ub: [ -66 x_4_ * x_11_ - 68 x_41_ * x_4_ - 78 x_21_ * x_11_ + 58 x_21_ * x_12_ + 96 x_24_ * x_12_ - 98 x_30_ * x_21_ - 44 x_41_ * x_24_ + 20 x_49_ * x_41_ ] <= 18838
quadratic_ranged_13_ub: [ -86 x_16_ * x_25_ + 4 x_41_ * x_16_ - 86 x_46_ * x_25_ + 60 x_41_ * x_38_ - 90 x_46_ * x_38_ - 94 x_46_ * x_41_ ] <= 9764
quadratic_ranged_14_ub: [ 100 x_18_ * x_25_ - 18 x_31_ * x_18_ ] <= 5666
quadratic_ranged_15_ub: [ -42 x_16_ * x_19_ + 94 x_35_ * x_16_ - 92 x_41_ * x_16_ + 12 x_43_ * x_16_ + 100 x_32_ * x_19_ + 42 x_43_ * x_19_ + 78 x_41_ * x_29_ + 30 x_45_ * x_29_ + 40 x_44_ * x_32_ + 20 x_44_ * x_35_ - 80 x_47_ * x_41_ - 36 x_44_ * x_43_ + 6 x_45_ * x_44_ ] <= -4545
quadratic_ranged_16_ub: [ -60 x_4_ * x_10_ - 94 x_33_ * x_4_ - 80 x_45_ * x_4_ + 96 x_45_ * x_7_ - 28 x_14_ * x_10_ - 66 x_33_ * x_10_ - 44 x_40_ * x_10_ - 76 x_48_ * x_10_ - 22 x_40_ * x_14_ + 72 x_31_ * x_15_ - 40 x_33_ * x_31_ - 68 x_35_ * x_33_ + 82 x_40_ * x_33_ + 36 x_45_ * x_33_ + 22 x_45_ * x_35_ + 48 x_48_ * x_40_ ] <= -19427
quadratic_ranged_17_ub: [ 18 x_1_ * x_7_ + 12 x_34_ * x_1_ - 32 x_47_ * x_1_ - 54 x_47_ * x_7_ - 48 x_36_ * x_8_ - 72 x_41_ * x_8_ + 56 x_47_ * x_10_ - 14 x_34_ * x_11_ - 52 x_47_ * x_34_ ] <= -4615
quadratic_ranged_18_ub: [ -90 x_9_ * x_23_ - 48 x_35_ * x_14_ - 72 x_39_ * x_14_ - 38 x_25_ * x_22_ - 86 x_38_ * x_22_ - 88 x_38_ * x_23_ + 36 x_35_ * x_25_ - 64 x_39_ * x_25_ ] <= 3299
quadratic_ranged_19_ub: [ 12 x_1_ * x_2_ + 54 x_24_ * x_1_ - 20 x_14_ * x_2_ - 98 x_29_ * x_2_ - 8 x_34_ * x_2_ + 26 x_50_ * x_2_ + 48 x_12_ * x_9_ - 46 x_18_ * x_9_ + 60 x_34_ * x_9_ + 94 x_14_ * x_10_ - 6 x_34_ * x_10_ + 98 x_18_ * x_12_ - 50 x_25_ * x_12_ - 26 x_29_ * x_12_ + 82 x_18_ * x_14_ - 82 x_24_ * x_14_ + 72 x_24_ * x_19_ + 60 x_25_ * x_19_ - 86 x_50_ * x_29_ ] <= 2150
quadratic_ranged_20_ub: [ 70 x_2_ * x_33_ + 4 x_46_ * x_2_ + 16 x_24_ * x_3_ + 46 x_27_ * x_3_ - 42 x_33_ * x_3_ - 92 x_50_ * x_3_ + 44 x_27_ * x_13_ - 46 x_33_ * x_13_ - 34 x_40_ * x_13_ + 4 x_43_ * x_13_ + 16 x_22_ * x_15_ - 26 x_33_ * x_15_ - 24 x_43_ * x_15_ + 88 x_24_ * x_17_ - 94 x_44_ * x_17_ + 10 x_33_ * x_22_ - 64 x_27_ * x_24_ - 88 x_46_ * x_24_ - 66 x_33_ * x_27_ + 50 x_39_ * x_27_ - 76 x_44_ * x_27_ - 38 x_44_ * x_33_ + 18 x_50_ * x_33_ ] <= 7454
quadratic_ranged_21_ub: [ -28 x_4_ * x_9_ + 90 x_23_ * x_9_ - 30 x_27_ * x_9_ + 22 x_49_ * x_9_ + 88 x_25_ * x_23_ - 10 x_50_ * x_23_ - 46 x_27_ * x_25_ + 10 x_48_ * x_25_ ] <= -365
quadratic_ranged_22_ub: [ 36 x_1_ * x_2_ - 22 x_26_ * x_1_ + 2 x_4_ * x_2_ - 50 x_26_ * x_2_ - 20 x_26_ * x_5_ + 42 x_44_ * x_5_ + 34 x_48_ * x_5_ - 12 x_9_ * x_6_ + 92 x_43_ * x_6_ + 46 x_48_ * x_6_ - 22 x_43_ * x_26_ - 16 x_44_ * x_43_ ] <= 8677
quadratic_ranged_23_ub: [ 16 x_8_ * x_19_ - 18 x_45_ * x_19_ ] <= 260
quadratic_ranged_24_ub: [ -44 x_2_ * x_5_ + 88 x_7_ * x_2_ + 28 x_19_ * x_2_ - 90 x_35_ * x_2_ + 52 x_43_ * x_2_ - 84 x_17_ * x_5_ - 68 x_19_ * x_5_ - 40 x_21_ * x_5_ - 68 x_14_ * x_6_ - 44 x_22_ * x_6_ - 20 x_13_ * x_7_ + 48 x_17_ * x_13_ + 78 x_19_ * x_13_ + 64 x_27_ * x_13_ - 50 x_32_ * x_13_ - 20 x_18_ * x_14_ + 70 x_32_ * x_14_ + 16 x_35_ * x_14_ - 56 x_32_ * x_18_ - 52 x_24_ * x_22_ + 58 x_32_ * x_24_ + 64 x_31_ * x_27_ - 30 x_47_ * x_31_ - 66 x_43_ * x_41_ ] <= 9401
quadratic_ranged_25_ub: [ 96 x_3_ * x_11_ - 4 x_22_ * x_3_ - 66 x_23_ * x_3_ + 78 x_11_ * x_6_ + 92 x_17_ * x_11_ - 100 x_17_ * x_12_ + 98 x_47_ * x_12_ - 76 x_22_ * x_17_ + 62 x_25_ * x_17_ - 60 x_47_ * x_17_ + 86 x_49_ * x_22_ + 54 x_47_ * x_23_ - 42 x_49_ * x_23_ + 36 x_47_ * x_25_ + 82 x_49_ * x_47_ ] <= 169
quadratic_ranged_26_ub: [ 88 x_4_ * x_14_ + 34 x_24_ * x_14_ + 90 x_24_ * x_21_ + 92 x_25_ * x_22_ + 36 x_48_ * x_22_ - 18 x_48_ * x_23_ ] <= 5011
quadratic_ranged_27_ub: [ 42 x_11_ * x_20_ - 30 x_24_ * x_11_ + 8 x_14_ * x_12_ - 60 x_16_ * x_14_ - 36 x_26_ * x_14_ - 50 x_32_ * x_14_ - 74 x_23_ * x_16_ + 40 x_24_ * x_20_ + 76 x_32_ * x_20_ - 24 x_26_ * x_23_ - 62 x_32_ * x_23_ + 68 x_48_ * x_24_ + 2 x_49_ * x_24_ + 78 x_48_ * x_26_ - 72 x_48_ * x_32_ ] <= -660
quadratic_ranged_28_ub: [ 62 x_3_ * x_6_ + 54 x_7_ * x_3_ + 90 x_23_ * x_3_ + 16 x_7_ * x_6_ + 58 x_43_ * x_6_ + 92 x_21_ * x_7_ - 58 x_43_ * x_7_ + 86 x_48_ * x_7_ + 58 x_31_ * x_16_ + 88 x_34_ * x_16_ + 82 x_31_ * x_23_ - 20 x_37_ * x_23_ + 98 x_43_ * x_23_ - 18 x_43_ * x_34_ + 54 x_48_ * x_37_ ] <= 19179
quadratic_ranged_29_ub: [ -76 x_1_ * x_4_ - 56 x_6_ * x_1_ - 88 x_25_ * x_4_ + 68 x_37_ * x_4_ + 66 x_10_ * x_6_ - 58 x_13_ * x_6_ - 70 x_33_ * x_6_ - 70 x_37_ * x_6_ + 20 x_13_ * x_9_ + 84 x_36_ * x_9_ - 22 x_41_ * x_9_ - 64 x_25_ * x_10_ - 60 x_33_ * x_10_ + 22 x_37_ * x_10_ - 54 x_45_ * x_10_ + 98 x_37_ * x_13_ - 10 x_24_ * x_18_ + 38 x_45_ * x_18_ - 62 x_36_ * x_24_ + 78 x_37_ * x_24_ + 18 x_41_ * x_24_ - 38 x_49_ * x_24_ + 20 x_37_ * x_33_ - 68 x_41_ * x_37_ - 80 x_45_ * x_37_ ] <= -16334
quadratic_ranged_30_ub: [ -10 x_2_ * x_3_ - 44 x_9_ * x_2_ + 82 x_47_ * x_2_ + 54 x_48_ * x_2_ - 20 x_5_ * x_3_ + 36 x_9_ * x_3_ + 42 x_33_ * x_3_ - 28 x_9_ * x_5_ + 66 x_14_ * x_5_ - 84 x_36_ * x_5_ - 22 x_39_ * x_5_ - 88 x_45_ * x_5_ - 74 x_49_ * x_5_ - 78 x_34_ * x_9_ - 18 x_47_ * x_9_ + 58 x_48_ * x_9_ - 56 x_44_ * x_14_ - 40 x_48_ * x_14_ + 86 x_49_ * x_14_ - 40 x_44_ * x_26_ - 68 x_47_ * x_26_ + 72 x_36_ * x_34_ + 98 x_44_ * x_34_ + 36 x_47_ * x_34_ + 80 x_42_ * x_39_ + 64 x_44_ * x_39_ - 72 x_45_ * x_39_ - 92 x_45_ * x_42_ - 2 x_48_ * x_45_ - 34 x_48_ * x_47_ ] <= -9650
quadratic_ranged_31_ub: [ 60 x_1_ * x_23_ - 40 x_28_ * x_1_ + 70 x_31_ * x_1_ + 92 x_33_ * x_1_ - 58 x_28_ * x_23_ + 22 x_33_ * x_28_ - 22 x_46_ * x_28_ ] <= 11660
quadratic_ranged_32_ub: [ 14 x_4_ * x_8_ + 88 x_13_ * x_4_ - 66 x_9_ * x_5_ - 58 x_25_ * x_13_ + 16 x_37_ * x_25_ + 10 x_46_ * x_26_ + 28 x_46_ * x_37_ ] <= 5541
quadratic_ranged_33_ub: [ -6 x_2_ * x_21_ + 2 x_12_ * x_7_ - 76 x_13_ * x_7_ + 60 x_13_ * x_12_ ] <= 2063
quadratic_ranged_34_ub: [ -84 x_4_ * x_9_ - 74 x_30_ * x_4_ - 28 x_37_ * x_4_ + 40 x_43_ * x_4_ - 28 x_25_ * x_9_ + 42 x_37_ * x_9_ - 58 x_37_ * x_16_ + 42 x_22_ * x_21_ - 44 x_25_ * x_21_ + 38 x_37_ * x_21_ - 60 x_30_ * x_22_ + 84 x_37_ * x_22_ + 72 x_50_ * x_22_ + 40 x_49_ * x_24_ - 42 x_50_ * x_24_ + 98 x_37_ * x_30_ + 36 x_43_ * x_37_ - 2 x_49_ * x_43_ - 18 x_50_ * x_43_ ] <= -1517
quadratic_ranged_35_ub: [ -74 x_1_ * x_4_ - 22 x_15_ * x_1_ - 60 x_12_ * x_2_ - 32 x_29_ * x_2_ - 4 x_48_ * x_2_ + 14 x_8_ * x_3_ - 42 x_9_ * x_3_ - 82 x_12_ * x_3_ + 50 x_18_ * x_3_ - 12 x_39_ * x_3_ + 100 x_10_ * x_4_ - 38 x_20_ * x_4_ + 42 x_35_ * x_4_ + 54 x_48_ * x_4_ + 48 x_21_ * x_8_ + 60 x_50_ * x_8_ + 54 x_25_ * x_9_ + 78 x_39_ * x_9_ + 42 x_15_ * x_10_ - 96 x_35_ * x_10_ - 90 x_29_ * x_12_ + 88 x_39_ * x_12_ - 36 x_48_ * x_12_ + 24 x_20_ * x_15_ + 42 x_21_ * x_15_ - 62 x_35_ * x_15_ - 90 x_48_ * x_15_ - 34 x_25_ * x_18_ - 40 x_35_ * x_18_ + 94 x_21_ * x_20_ - 62 x_35_ * x_20_ - 50 x_50_ * x_20_ + 6 x_29_ * x_21_ - 56 x_35_ * x_25_ - 76 x_50_ * x_25_ - 30 x_48_ * x_29_ - 62 x_39_ * x_35_ ] <= -171
quadratic_ranged_36_ub: [ 54 x_9_ * x_40_ - 24 x_20_ * x_14_ + 10 x_42_ * x_23_ - 38 x_48_ * x_23_ + 88 x_48_ * x_34_ ] <= 3993
quadratic_ranged_37_ub: [ -30 x_1_ * x_15_ - 32 x_28_ * x_1_ - 60 x_49_ * x_15_ ] <= -2875
quadratic_ranged_38_ub: [ -6 x_1_ * x_17_ - 32 x_33_ * x_1_ - 36 x_40_ * x_1_ - 40 x_12_ * x_7_ - 32 x_28_ * x_7_ - 28 x_32_ * x_7_ - 52 x_49_ * x_7_ - 100 x_40_ * x_8_ + 38 x_12_ * x_11_ + 4 x_17_ * x_11_ - 84 x_49_ * x_11_ + 74 x_28_ * x_12_ + 72 x_33_ * x_13_ - 64 x_28_ * x_14_ + 40 x_30_ * x_15_ - 20 x_40_ * x_15_ + 38 x_30_ * x_17_ - 46 x_32_ * x_17_ - 6 x_49_ * x_17_ + 16 x_40_ * x_28_ + 6 x_49_ * x_32_ + 16 x_49_ * x_40_ ] <= -16367
quadratic_ranged_39_ub: [ 64 x_21_ * x_33_ - 78 x_37_ * x_21_ + 72 x_50_ * x_21_ - 64 x_27_ * x_26_ + 80 x_46_ * x_45_ ] <= -5525
quadratic_ranged_40_ub: [ 84 x_11_ * x_27_ + 16 x_43_ * x_11_ + 16 x_45_ * x_11_ + 58 x_46_ * x_11_ - 52 x_48_ * x_11_ + 4 x_27_ * x_17_ - 86 x_22_ * x_21_ - 8 x_43_ * x_21_ - 84 x_46_ * x_22_ + 84 x_48_ * x_22_ + 82 x_43_ * x_27_ + 52 x_48_ * x_27_ - 96 x_46_ * x_45_ ] <= 30
quadratic_ranged_41_ub: [ 90 x_7_ * x_48_ + 70 x_41_ * x_15_ - 18 x_48_ * x_15_ + 88 x_42_ * x_41_ ] <= -8787
quadratic_ranged_42_ub: [ -4 x_5_ * x_7_ + 60 x_10_ * x_5_ + 84 x_21_ * x_7_ - 32 x_45_ * x_7_ - 84 x_19_ * x_10_ - 82 x_27_ * x_10_ - 66 x_21_ * x_19_ + 50 x_22_ * x_21_ + 32 x_35_ * x_23_ ] <= 17622
quadratic_ranged_43_ub: [ 68 x_3_ * x_25_ - 36 x_29_ * x_3_ - 56 x_33_ * x_10_ - 76 x_18_ * x_15_ + 52 x_29_ * x_15_ + 64 x_20_ * x_18_ - 46 x_26_ * x_20_ - 76 x_38_ * x_20_ + 6 x_38_ * x_26_ + 24 x_38_ * x_33_ ] <= -7970
quadratic_ranged_44_ub: [ -22 x_2_ * x_12_ - 32 x_25_ * x_2_ + 90 x_15_ * x_5_ + 64 x_25_ * x_5_ - 62 x_9_ * x_6_ + 98 x_15_ * x_7_ + 18 x_37_ * x_7_ - 28 x_47_ * x_7_ - 92 x_41_ * x_9_ - 4 x_37_ * x_15_ + 12 x_49_ * x_15_ + 22 x_25_ * x_20_ - 44 x_29_ * x_25_ + 32 x_33_ * x_25_ + 4 x_49_ * x_25_ ] <= -11370
quadratic_ranged_45_ub: [ -50 x_5_ * x_34_ - 2 x_33_ * x_32_ - 48 x_35_ * x_32_ - 36 x_35_ * x_33_ - 86 x_38_ * x_33_ + 90 x_35_ * x_34_ - 26 x_43_ * x_34_ + 68 x_43_ * x_35_ ] <= -4362
quadratic_ranged_46_ub: [ 4 x_10_ * x_22_ - 74 x_24_ * x_10_ - 32 x_42_ * x_10_ + 100 x_30_ * x_22_ - 80 x_40_ * x_22_ - 66 x_25_ * x_24_ - 16 x_40_ * x_24_ + 82 x_30_ * x_25_ - 10 x_32_ * x_25_ - 26 x_30_ * x_29_ - 78 x_38_ * x_29_ - 100 x_32_ * x_30_ - 66 x_42_ * x_30_ + 2 x_45_ * x_30_ + 20 x_42_ * x_38_ - 96 x_42_ * x_40_ - 94 x_45_ * x_40_ ] <= 1906
quadratic_ranged_47_ub: [ 70 x_2_ * x_16_ - 76 x_32_ * x_2_ - 60 x_46_ * x_2_ - 34 x_16_ * x_3_ + 80 x_22_ * x_3_ - 4 x_23_ * x_3_ + 78 x_25_ * x_3_ + 28 x_32_ * x_3_ - 80 x_8_ * x_7_ - 50 x_32_ * x_7_ + 98 x_45_ * x_7_ + 6 x_25_ * x_8_ + 4 x_46_ * x_8_ + 100 x_15_ * x_9_ - 42 x_26_ * x_9_ + 14 x_26_ * x_15_ - 46 x_32_ * x_15_ + 62 x_26_ * x_16_ + 34 x_26_ * x_22_ + 80 x_25_ * x_23_ - 68 x_45_ * x_23_ + 10 x_26_ * x_25_ - 20 x_46_ * x_32_ - 74 x_45_ * x_38_ - 42 x_45_ * x_43_ ] <= -5287
quadratic_ranged_1_lb: [ 96 x_12_ * x_35_ + 8 x_36_ * x_12_ + 32 x_19_ * x_14_ - 84 x_34_ * x_19_ + 10 x_36_ * x_19_ ] >= -13982
quadratic_ranged_2_lb: [ -12 x_1_ * x_24_ - 56 x_33_ * x_1_ + 76 x_24_ * x_11_ + 22 x_33_ * x_15_ - 26 x_37_ * x_15_ + 28 x_37_ * x_23_ + 28 x_28_ * x_24_ + 6 x_43_ * x_25_ + 32 x_40_ * x_33_ ] >= -7721
quadratic_ranged_3_lb: [ 60 x_4_ * x_45_ - 34 x_22_ * x_14_ + 40 x_22_ * x_18_ - 50 x_26_ * x_18_ - 80 x_38_ * x_18_ - 64 x_45_ * x_22_ ] >= 7770
quadratic_ranged_4_lb: [ -62 x_3_ * x_7_ + 18 x_8_ * x_3_ + 98 x_25_ * x_22_ ] >= 2347
quadratic_ranged_5_lb: [ 86 x_16_ * x_34_ + 42 x_44_ * x_34_ ] >= 1335
quadratic_ranged_6_lb: [ 46 x_9_ * x_18_ - 42 x_39_ * x_9_ - 46 x_20_ * x_18_ + 60 x_22_ * x_18_ - 58 x_50_ * x_18_ - 8 x_40_ * x_20_ - 6 x_39_ * x_28_ + 12 x_40_ * x_34_ + 16 x_46_ * x_34_ + 38 x_50_ * x_34_ - 56 x_40_ * x_39_ + 16 x_50_ * x_45_ ] >= 7854
quadratic_ranged_7_lb: [ 52 x_3_ * x_16_ + 28 x_39_ * x_3_ - 38 x_33_ * x_8_ - 88 x_31_ * x_16_ + 6 x_39_ * x_19_ - 40 x_47_ * x_19_ - 42 x_29_ * x_20_ - 26 x_33_ * x_20_ - 8 x_47_ * x_20_ + 52 x_22_ * x_21_ - 100 x_39_ * x_22_ + 10 x_47_ * x_31_ ] >= 128
quadratic_ranged_8_lb: [ 56 x_1_ * x_4_ + 24 x_23_ * x_1_ - 84 x_31_ * x_1_ + 36 x_45_ * x_1_ + 32 x_48_ * x_1_ - 18 x_23_ * x_10_ - 46 x_31_ * x_10_ - 24 x_33_ * x_10_ + 86 x_48_ * x_10_ + 44 x_31_ * x_11_ - 80 x_31_ * x_20_ + 68 x_33_ * x_20_ - 38 x_48_ * x_31_ ] >= -459
quadratic_ranged_9_lb: [ -88 x_8_ * x_10_ - 28 x_14_ * x_8_ + 62 x_32_ * x_8_ - 20 x_39_ * x_8_ + 92 x_11_ * x_10_ - 66 x_19_ * x_10_ + 22 x_19_ * x_14_ + 70 x_41_ * x_14_ - 12 x_49_ * x_14_ + 36 x_41_ * x_17_ - 38 x_48_ * x_17_ + 52 x_29_ * x_19_ + 28 x_31_ * x_19_ + 42 x_32_ * x_19_ + 18 x_39_ * x_29_ - 56 x_39_ * x_31_ + 8 x_49_ * x_39_ - 80 x_49_ * x_41_ ] >= -8106
quadratic_ranged_10_lb: [ 62 x_5_ * x_39_ - 88 x_26_ * x_20_ + 74 x_31_ * x_20_ - 82 x_46_ * x_20_ - 98 x_50_ * x_20_ - 78 x_31_ * x_26_ + 24 x_35_ * x_26_ - 44 x_35_ * x_31_ + 48 x_46_ * x_35_ - 34 x_46_ * x_39_ - 24 x_50_ * x_39_ ] >= -6102
quadratic_ranged_11_lb: [ -8 x_10_ * x_11_ - 8 x_47_ * x_10_ - 56 x_23_ * x_11_ + 2 x_42_ * x_11_ - 60 x_47_ * x_23_ + 84 x_34_ * x_33_ ] >= 6719
quadratic_ranged_12_lb: [ -66 x_4_ * x_11_ - 68 x_41_ * x_4_ - 78 x_21_ * x_11_ + 58 x_21_ * x_12_ + 96 x_24_ * x_12_ - 98 x_30_ * x_21_ - 44 x_41_ * x_24_ + 20 x_49_ * x_41_ ] >= 18835
quadratic_ranged_13_lb: [ -86 x_16_ * x_25_ + 4 x_41_ * x_16_ - 86 x_46_ * x_25_ + 60 x_41_ * x_38_ - 90 x_46_ * x_38_ - 94 x_46_ * x_41_ ] >= 9759
quadratic_ranged_14_lb: [ 100 x_18_ * x_25_ - 18 x_31_ * x_18_ ] >= 5662
quadratic_ranged_15_lb: [ -42 x_16_ * x_19_ + 94 x_35_ * x_16_ - 92 x_41_ * x_16_ + 12 x_43_ * x_16_ + 100 x_32_ * x_19_ + 42 x_43_ * x_19_ + 78 x_41_ * x_29_ + 30 x_45_ * x_29_ + 40 x_44_ * x_32_ + 20 x_44_ * x_35_ - 80 x_47_ * x_41_ - 36 x_44_ * x_43_ + 6 x_45_ * x_44_ ] >= -4554
quadratic_ranged_16_lb: [ -60 x_4_ * x_10_ - 94 x_33_ * x_4_ - 80 x_45_ * x_4_ + 96 x_45_ * x_7_ - 28 x_14_ * x_10_ - 66 x_33_ * x_10_ - 44 x_40_ * x_10_ - 76 x_48_ * x_10_ - 22 x_40_ * x_14_ + 72 x_31_ * x_15_ - 40 x_33_ * x_31_ - 68 x_35_ * x_33_ + 82 x_40_ * x_33_ + 36 x_45_ * x_33_ + 22 x_45_ * x_35_ + 48 x_48_ * x_40_ ] >= -19435
quadratic_ranged_17_lb: [ 18 x_1_ * x_7_ + 12 x_34_ * x_1_ - 32 x_47_ * x_1_ - 54 x_47_ * x_7_ - 48 x_36_ * x_8_ - 72 x_41_ * x_8_ + 56 x_47_ * x_10_ - 14 x_34_ * x_11_ - 52 x_47_ * x_34_ ] >= -4620
quadratic_ranged_18_lb: [ -90 x_9_ * x_23_ - 48 x_35_ * x_14_ - 72 x_39_ * x_14_ - 38 x_25_ * x_22_ - 86 x_38_ * x_22_ - 88 x_38_ * x_23_ + 36 x_35_ * x_25_ - 64 x_39_ * x_25_ ] >= 3297
quadratic_ranged_19_lb: [ 12 x_1_ * x_2_ + 54 x_24_ * x_1_ - 20 x_14_ * x_2_ - 98 x_29_ * x_2_ - 8 x_34_ * x_2_ + 26 x_50_ * x_2_ + 48 x_12_ * x_9_ - 46 x_18_ * x_9_ + 60 x_34_ * x_9_ + 94 x_14_ * x_10_ - 6 x_34_ * x_10_ + 98 x_18_ * x_12_ - 50 x_25_ * x_12_ - 26 x_29_ * x_12_ + 82 x_18_ * x_14_ - 82 x_24_ * x_14_ + 72 x_24_ * x_19_ + 60 x_25_ * x_19_ - 86 x_50_ * x_29_ ] >= 2147
quadratic_ranged_20_lb: [ 70 x_2_ * x_33_ + 4 x_46_ * x_2_ + 16 x_24_ * x_3_ + 46 x_27_ * x_3_ - 42 x_33_ * x_3_ - 92 x_50_ * x_3_ + 44 x_27_ * x_13_ - 46 x_33_ * x_13_ - 34 x_40_ * x_13_ + 4 x_43_ * x_13_ + 16 x_22_ * x_15_ - 26 x_33_ * x_15_ - 24 x_43_ * x_15_ + 88 x_24_ * x_17_ - 94 x_44_ * x_17_ + 10 x_33_ * x_22_ - 64 x_27_ * x_24_ - 88 x_46_ * x_24_ - 66 x_33_ * x_27_ + 50 x_39_ * x_27_ - 76 x_44_ * x_27_ - 38 x_44_ * x_33_ + 18 x_50_ * x_33_ ] >= 7447
quadratic_ranged_21_lb: [ -28 x_4_ * x_9_ + 90 x_23_ * x_9_ - 30 x_27_ * x_9_ + 22 x_49_ * x_9_ + 88 x_25_ * x_23_ - 10 x_50_ * x_23_ - 46 x_27_ * x_25_ + 10 x_48_ * x_25_ ] >= -371
quadratic_ranged_22_lb: [ 36 x_1_ * x_2_ - 22 x_26_ * x_1_ + 2 x_4_ * x_2_ - 50 x_26_ * x_2_ - 20 x_26_ * x_5_ + 42 x_44_ * x_5_ + 34 x_48_ * x_5_ - 12 x_9_ * x_6_ + 92 x_43_ * x_6_ + 46 x_48_ * x_6_ - 22 x_43_ * x_26_ - 16 x_44_ * x_43_ ] >= 8673
quadratic_ranged_23_lb: [ 16 x_8_ * x_19_ - 18 x_45_ * x_19_ ] >= 257
quadratic_ranged_24_lb: [ -44 x_2_ * x_5_ + 88 x_7_ * x_2_ + 28 x_19_ * x_2_ - 90 x_35_ * x_2_ + 52 x_43_ * x_2_ - 84 x_17_ * x_5_ - 68 x_19_ * x_5_ - 40 x_21_ * x_5_ - 68 x_14_ * x_6_ - 44 x_22_ * x_6_ - 20 x_13_ * x_7_ + 48 x_17_ * x_13_ + 78 x_19_ * x_13_ + 64 x_27_ * x_13_ - 50 x_32_ * x_13_ - 20 x_18_ * x_14_ + 70 x_32_ * x_14_ + 16 x_35_ * x_14_ - 56 x_32_ * x_18_ - 52 x_24_ * x_22_ + 58 x_32_ * x_24_ + 64 x_31_ * x_27_ - 30 x_47_ * x_31_ - 66 x_43_ * x_41_ ] >= 9398
quadratic_ranged_25_lb: [ 96 x_3_ * x_11_ - 4 x_22_ * x_3_ - 66 x_23_ * x_3_ + 78 x_11_ * x_6_ + 92 x_17_ * x_11_ - 100 x_17_ * x_12_ + 98 x_47_ * x_12_ - 76 x_22_ * x_17_ + 62 x_25_ * x_17_ - 60 x_47_ * x_17_ + 86 x_49_ * x_22_ + 54 x_47_ * x_23_ - 42 x_49_ * x_23_ + 36 x_47_ * x_25_ + 82 x_49_ * x_47_ ] >= 160
quadratic_ranged_26_lb: [ 88 x_4_ * x_14_ + 34 x_24_ * x_14_ + 90 x_24_ * x_21_ + 92 x_25_ * x_22_ + 36 x_48_ * x_22_ - 18 x_48_ * x_23_ ] >= 5010
quadratic_ranged_27_lb: [ 42 x_11_ * x_20_ - 30 x_24_ * x_11_ + 8 x_14_ * x_12_ - 60 x_16_ * x_14_ - 36 x_26_ * x_14_ - 50 x_32_ * x_14_ - 74 x_23_ * x_16_ + 40 x_24_ * x_20_ + 76 x_32_ * x_20_ - 24 x_26_ * x_23_ - 62 x_32_ * x_23_ + 68 x_48_ * x_24_ + 2 x_49_ * x_24_ + 78 x_48_ * x_26_ - 72 x_48_ * x_32_ ] >= -667
quadratic_ranged_28_lb: [ 62 x_3_ * x_6_ + 54 x_7_ * x_3_ + 90 x_23_ * x_3_ + 16 x_7_ * x_6_ + 58 x_43_ * x_6_ + 92 x_21_ * x_7_ - 58 x_43_ * x_7_ + 86 x_48_ * x_7_ + 58 x_31_ * x_16_ + 88 x_34_ * x_16_ + 82 x_31_ * x_23_ - 20 x_37_ * x_23_ + 98 x_43_ * x_23_ - 18 x_43_ * x_34_ + 54 x_48_ * x_37_ ] >= 19177
quadratic_ranged_29_lb: [ -76 x_1_ * x_4_ - 56 x_6_ * x_1_ - 88 x_25_ * x_4_ + 68 x_37_ * x_4_ + 66 x_10_ * x_6_ - 58 x_13_ * x_6_ - 70 x_33_ * x_6_ - 70 x_37_ * x_6_ + 20 x_13_ * x_9_ + 84 x_36_ * x_9_ - 22 x_41_ * x_9_ - 64 x_25_ * x_10_ - 60 x_33_ * x_10_ + 22 x_37_ * x_10_ - 54 x_45_ * x_10_ + 98 x_37_ * x_13_ - 10 x_24_ * x_18_ + 38 x_45_ * x_18_ - 62 x_36_ * x_24_ + 78 x_37_ * x_24_ + 18 x_41_ * x_24_ - 38 x_49_ * x_24_ + 20 x_37_ * x_33_ - 68 x_41_ * x_37_ - 80 x_45_ * x_37_ ] >= -16339
quadratic_ranged_30_lb: [ -10 x_2_ * x_3_ - 44 x_9_ * x_2_ + 82 x_47_ * x_2_ + 54 x_48_ * x_2_ - 20 x_5_ * x_3_ + 36 x_9_ * x_3_ + 42 x_33_ * x_3_ - 28 x_9_ * x_5_ + 66 x_14_ * x_5_ - 84 x_36_ * x_5_ - 22 x_39_ * x_5_ - 88 x_45_ * x_5_ - 74 x_49_ * x_5_ - 78 x_34_ * x_9_ - 18 x_47_ * x_9_ + 58 x_48_ * x_9_ - 56 x_44_ * x_14_ - 40 x_48_ * x_14_ + 86 x_49_ * x_14_ - 40 x_44_ * x_26_ - 68 x_47_ * x_26_ + 72 x_36_ * x_34_ + 98 x_44_ * x_34_ + 36 x_47_ * x_34_ + 80 x_42_ * x_39_ + 64 x_44_ * x_39_ - 72 x_45_ * x_39_ - 92 x_45_ * x_42_ - 2 x_48_ * x_45_ - 34 x_48_ * x_47_ ] >= -9654
quadratic_ranged_31_lb: [ 60 x_1_ * x_23_ - 40 x_28_ * x_1_ + 70 x_31_ * x_1_ + 92 x_33_ * x_1_ - 58 x_28_ * x_23_ + 22 x_33_ * x_28_ - 22 x_46_ * x_28_ ] >= 11654
quadratic_ranged_32_lb: [ 14 x_4_ * x_8_ + 88 x_13_ * x_4_ - 66 x_9_ * x_5_ - 58 x_25_ * x_13_ + 16 x_37_ * x_25_ + 10 x_46_ * x_26_ + 28 x_46_ * x_37_ ] >= 5533
quadratic_ranged_33_lb: [ -6 x_2_ * x_21_ + 2 x_12_ * x_7_ - 76 x_13_ * x_7_ + 60 x_13_ * x_12_ ] >= 2059
quadratic_ranged_34_lb: [ -84 x_4_ * x_9_ - 74 x_30_ * x_4_ - 28 x_37_ * x_4_ + 40 x_43_ * x_4_ - 28 x_25_ * x_9_ + 42 x_37_ * x_9_ - 58 x_37_ * x_16_ + 42 x_22_ * x_21_ - 44 x_25_ * x_21_ + 38 x_37_ * x_21_ - 60 x_30_ * x_22_ + 84 x_37_ * x_22_ + 72 x_50_ * x_22_ + 40 x_49_ * x_24_ - 42 x_50_ * x_24_ + 98 x_37_ * x_30_ + 36 x_43_ * x_37_ - 2 x_49_ * x_43_ - 18 x_50_ * x_43_ ] >= -1525
quadratic_ranged_35_lb: [ -74 x_1_ * x_4_ - 22 x_15_ * x_1_ - 60 x_12_ * x_2_ - 32 x_29_ * x_2_ - 4 x_48_ * x_2_ + 14 x_8_ * x_3_ - 42 x_9_ * x_3_ - 82 x_12_ * x_3_ + 50 x_18_ * x_3_ - 12 x_39_ * x_3_ + 100 x_10_ * x_4_ - 38 x_20_ * x_4_ + 42 x_35_ * x_4_ + 54 x_48_ * x_4_ + 48 x_21_ * x_8_ + 60 x_50_ * x_8_ + 54 x_25_ * x_9_ + 78 x_39_ * x_9_ + 42 x_15_ * x_10_ - 96 x_35_ * x_10_ - 90 x_29_ * x_12_ + 88 x_39_ * x_12_ - 36 x_48_ * x_12_ + 24 x_20_ * x_15_ + 42 x_21_ * x_15_ - 62 x_35_ * x_15_ - 90 x_48_ * x_15_ - 34 x_25_ * x_18_ - 40 x_35_ * x_18_ + 94 x_21_ * x_20_ - 62 x_35_ * x_20_ - 50 x_50_ * x_20_ + 6 x_29_ * x_21_ - 56 x_35_ * x_25_ - 76 x_50_ * x_25_ - 30 x_48_ * x_29_ - 62 x_39_ * x_35_ ] >= -180
quadratic_ranged_36_lb: [ 54 x_9_ * x_40_ - 24 x_20_ * x_14_ + 10 x_42_ * x_23_ - 38 x_48_ * x_23_ + 88 x_48_ * x_34_ ] >= 3987
quadratic_ranged_37_lb: [ -30 x_1_ * x_15_ - 32 x_28_ * x_1_ - 60 x_49_ * x_15_ ] >= -2881
quadratic_ranged_38_lb: [ -6 x_1_ * x_17_ - 32 x_33_ * x_1_ - 36 x_40_ * x_1_ - 40 x_12_ * x_7_ - 32 x_28_ * x_7_ - 28 x_32_ * x_7_ - 52 x_49_ * x_7_ - 100 x_40_ * x_8_ + 38 x_12_ * x_11_ + 4 x_17_ * x_11_ - 84 x_49_ * x_11_ + 74 x_28_ * x_12_ + 72 x_33_ * x_13_ - 64 x_28_ * x_14_ + 40 x_30_ * x_15_ - 20 x_40_ * x_15_ + 38 x_30_ * x_17_ - 46 x_32_ * x_17_ - 6 x_49_ * x_17_ + 16 x_40_ * x_28_ + 6 x_49_ * x_32_ + 16 x_49_ * x_40_ ] >= -16369
quadratic_ranged_39_lb: [ 64 x_21_ * x_33_ - 78 x_37_ * x_21_ + 72 x_50_ * x_21_ - 64 x_27_ * x_26_ + 80 x_46_ * x_45_ ] >= -5530
quadratic_ranged_40_lb: [ 84 x_11_ * x_27_ + 16 x_43_ * x_11_ + 16 x_45_ * x_11_ + 58 x_46_ * x_11_ - 52 x_48_ * x_11_ + 4 x_27_ * x_17_ - 86 x_22_ * x_21_ - 8 x_43_ * x_21_ - 84 x_46_ * x_22_ + 84 x_48_ * x_22_ + 82 x_43_ * x_27_ + 52 x_48_ * x_27_ - 96 x_46_ * x_45_ ] >= 25
quadratic_ranged_41_lb: [ 90 x_7_ * x_48_ + 70 x_41_ * x_15_ - 18 x_48_ * x_15_ + 88 x_42_ * x_41_ ] >= -8796
quadratic_ranged_42_lb: [ -4 x_5_ * x_7_ + 60 x_10_ * x_5_ + 84 x_21_ * x_7_ - 32 x_45_ * x_7_ - 84 x_19_ * x_10_ - 82 x_27_ * x_10_ - 66 x_21_ * x_19_ + 50 x_22_ * x_21_ + 32 x_35_ * x_23_ ] >= 17617
quadratic_ranged_43_lb: [ 68 x_3_ * x_25_ - 36 x_29_ * x_3_ - 56 x_33_ * x_10_ - 76 x_18_ * x_15_ + 52 x_29_ * x_15_ + 64 x_20_ * x_18_ - 46 x_26_ * x_20_ - 76 x_38_ * x_20_ + 6 x_38_ * x_26_ + 24 x_38_ * x_33_ ] >= -7974
quadratic_ranged_44_lb: [ -22 x_2_ * x_12_ - 32 x_25_ * x_2_ + 90 x_15_ * x_5_ + 64 x_25_ * x_5_ - 62 x_9_ * x_6_ + 98 x_15_ * x_7_ + 18 x_37_ * x_7_ - 28 x_47_ * x_7_ - 92 x_41_ * x_9_ - 4 x_37_ * x_15_ + 12 x_49_ * x_15_ + 22 x_25_ * x_20_ - 44 x_29_ * x_25_ + 32 x_33_ * x_25_ + 4 x_49_ * x_25_ ] >= -11376
quadratic_ranged_45_lb: [ -50 x_5_ * x_34_ - 2 x_33_ * x_32_ - 48 x_35_ * x_32_ - 36 x_35_ * x_33_ - 86 x_38_ * x_33_ + 90 x_35_ * x_34_ - 26 x_43_ * x_34_ + 68 x_43_ * x_35_ ] >= -4366
quadratic_ranged_46_lb: [ 4 x_10_ * x_22_ - 74 x_24_ * x_10_ - 32 x_42_ * x_10_ + 100 x_30_ * x_22_ - 80 x_40_ * x_22_ - 66 x_25_ * x_24_ - 16 x_40_ * x_24_ + 82 x_30_ * x_25_ - 10 x_32_ * x_25_ - 26 x_30_ * x_29_ - 78 x_38_ * x_29_ - 100 x_32_ * x_30_ - 66 x_42_ * x_30_ + 2 x_45_ * x_30_ + 20 x_42_ * x_38_ - 96 x_42_ * x_40_ - 94 x_45_ * x_40_ ] >= 1897
quadratic_ranged_47_lb: [ 70 x_2_ * x_16_ - 76 x_32_ * x_2_ - 60 x_46_ * x_2_ - 34 x_16_ * x_3_ + 80 x_22_ * x_3_ - 4 x_23_ * x_3_ + 78 x_25_ * x_3_ + 28 x_32_ * x_3_ - 80 x_8_ * x_7_ - 50 x_32_ * x_7_ + 98 x_45_ * x_7_ + 6 x_25_ * x_8_ + 4 x_46_ * x_8_ + 100 x_15_ * x_9_ - 42 x_26_ * x_9_ + 14 x_26_ * x_15_ - 46 x_32_ * x_15_ + 62 x_26_ * x_16_ + 34 x_26_ * x_22_ + 80 x_25_ * x_23_ - 68 x_45_ * x_23_ + 10 x_26_ * x_25_ - 20 x_46_ * x_32_ - 74 x_45_ * x_38_ - 42 x_45_ * x_43_ ] >= -5296
c1: [ 72 x_3_ * x_14_ + 46 x_49_ * x_3_ + 64 x_26_ * x_6_ + 60 x_13_ * x_11_ - 22 x_27_ * x_11_ - 74 x_22_ * x_12_ + 38 x_14_ * x_13_ - 8 x_22_ * x_13_ - 38 x_26_ * x_13_ + 88 x_27_ * x_14_ - 28 x_26_ * x_22_ - 20 x_49_ * x_22_ ] = 250
c2: [ -18 x_17_ * x_34_ + 16 x_36_ * x_17_ - 6 x_40_ * x_17_ + 42 x_49_ * x_17_ - 84 x_40_ * x_21_ - 74 x_34_ * x_27_ + 78 x_40_ * x_27_ + 74 x_49_ * x_27_ - 38 x_40_ * x_34_ + 88 x_40_ * x_39_ ] = -2040
c3: [ -4 x_8_ * x_11_ - 82 x_24_ * x_8_ + 10 x_24_ * x_11_ - 20 x_26_ * x_11_ - 8 x_38_ * x_11_ + 80 x_43_ * x_11_ - 82 x_49_ * x_11_ + 90 x_34_ * x_23_ + 12 x_38_ * x_23_ + 84 x_43_ * x_29_ - 54 x_43_ * x_38_ ] = -2420
c4: [ 12 x_21_ * x_43_ ] = -1080
c5: [ -86 x_2_ * x_4_ + 10 x_6_ * x_2_ - 42 x_45_ * x_2_ - 40 x_50_ * x_2_ + 16 x_39_ * x_6_ - 18 x_50_ * x_6_ - 42 x_45_ * x_29_ - 22 x_50_ * x_29_ ] = -6272
c6: [ 54 x_1_ * x_2_ + 8 x_23_ * x_1_ + 48 x_48_ * x_1_ - 74 x_44_ * x_5_ - 54 x_48_ * x_5_ - 8 x_38_ * x_23_ - 64 x_25_ * x_24_ - 52 x_27_ * x_24_ + 82 x_29_ * x_24_ - 24 x_38_ * x_24_ - 10 x_44_ * x_27_ + 38 x_44_ * x_38_ ] = 7124
c7: [ 100 x_7_ * x_49_ - 54 x_35_ * x_21_ ] = 7700
c8: [ 86 x_8_ * x_14_ + 84 x_16_ * x_8_ + 38 x_23_ * x_8_ - 78 x_22_ * x_14_ - 52 x_18_ * x_16_ + 48 x_45_ * x_16_ + 6 x_22_ * x_18_ + 74 x_23_ * x_18_ - 16 x_31_ * x_18_ + 58 x_48_ * x_18_ - 42 x_36_ * x_22_ + 22 x_43_ * x_22_ - 36 x_48_ * x_22_ - 30 x_48_ * x_23_ + 36 x_45_ * x_27_ - 80 x_48_ * x_27_ - 30 x_36_ * x_28_ - 80 x_45_ * x_28_ - 16 x_43_ * x_31_ - 94 x_48_ * x_31_ - 60 x_45_ * x_36_ - 86 x_45_ * x_43_ - 58 x_48_ * x_45_ ] = -11682
c9: [ 40 x_15_ * x_20_ ] = -2240
c10: [ -92 x_3_ * x_9_ - 34 x_23_ * x_3_ - 2 x_39_ * x_3_ + 78 x_9_ * x_5_ - 20 x_49_ * x_5_ - 40 x_49_ * x_9_ + 34 x_23_ * x_15_ - 4 x_32_ * x_16_ + 14 x_39_ * x_34_ ] = 4776
c11: [ -22 x_5_ * x_7_ + 42 x_9_ * x_5_ + 100 x_10_ * x_5_ - 30 x_34_ * x_5_ - 100 x_9_ * x_7_ - 2 x_34_ * x_24_ + 74 x_35_ * x_34_ ] = 8504
c12: [ 24 x_2_ * x_8_ - 64 x_12_ * x_8_ + 32 x_19_ * x_8_ - 46 x_25_ * x_8_ + 66 x_31_ * x_19_ ] = 12760
c13: [ -50 x_5_ * x_6_ + 56 x_29_ * x_6_ + 48 x_32_ * x_6_ + 88 x_37_ * x_6_ - 84 x_48_ * x_6_ - 86 x_21_ * x_12_ - 6 x_32_ * x_12_ + 96 x_45_ * x_12_ - 72 x_48_ * x_21_ - 30 x_32_ * x_29_ - 34 x_45_ * x_43_ ] = -17198
c14: [ -44 x_1_ * x_39_ + 58 x_26_ * x_7_ + 76 x_26_ * x_18_ - 90 x_34_ * x_18_ - 70 x_42_ * x_18_ - 60 x_34_ * x_26_ + 2 x_38_ * x_26_ + 42 x_42_ * x_26_ + 22 x_42_ * x_31_ - 50 x_42_ * x_33_ - 34 x_38_ * x_34_ - 16 x_39_ * x_34_ - 20 x_40_ * x_34_ + 18 x_42_ * x_34_ - 66 x_42_ * x_40_ ] = -6962
c15: [ -62 x_1_ * x_9_ + 12 x_10_ * x_1_ + 82 x_20_ * x_1_ - 70 x_20_ * x_4_ - 62 x_17_ * x_10_ - 74 x_31_ * x_10_ - 94 x_26_ * x_17_ + 32 x_31_ * x_17_ - 58 x_31_ * x_25_ ] = 4622
c16: [ -76 x_3_ * x_4_ + 70 x_24_ * x_3_ + 84 x_24_ * x_4_ - 64 x_37_ * x_7_ - 90 x_24_ * x_8_ + 12 x_15_ * x_12_ - 24 x_24_ * x_12_ - 62 x_30_ * x_12_ + 20 x_24_ * x_14_ + 46 x_39_ * x_30_ ] = 12178
c17: [ 96 x_1_ * x_13_ + 36 x_29_ * x_2_ - 36 x_13_ * x_9_ - 58 x_29_ * x_13_ + 98 x_36_ * x_13_ + 36 x_29_ * x_15_ - 88 x_42_ * x_15_ - 50 x_43_ * x_15_ + 2 x_43_ * x_29_ ] = 20010
c18: [ -66 x_2_ * x_30_ + 42 x_46_ * x_2_ - 32 x_27_ * x_11_ - 100 x_30_ * x_11_ + 92 x_30_ * x_15_ + 62 x_46_ * x_33_ ] = -19918
c19: [ -28 x_4_ * x_32_ - 20 x_14_ * x_11_ + 58 x_26_ * x_11_ - 8 x_32_ * x_11_ - 48 x_20_ * x_13_ + 20 x_35_ * x_14_ + 78 x_43_ * x_14_ - 80 x_25_ * x_17_ + 74 x_35_ * x_17_ + 92 x_43_ * x_20_ - 42 x_26_ * x_24_ + 26 x_35_ * x_24_ - 76 x_43_ * x_32_ + 94 x_43_ * x_35_ ] = 4872
c20: [ -54 x_20_ * x_25_ + 90 x_29_ * x_20_ + 18 x_29_ * x_25_ + 44 x_34_ * x_25_ + 90 x_41_ * x_32_ ] = -8452
c21: [ 68 x_1_ * x_19_ - 72 x_30_ * x_1_ + 16 x_41_ * x_1_ + 54 x_44_ * x_1_ - 26 x_45_ * x_1_ - 54 x_26_ * x_3_ - 22 x_37_ * x_3_ + 78 x_48_ * x_3_ + 72 x_48_ * x_5_ - 34 x_48_ * x_10_ + 30 x_41_ * x_12_ + 14 x_44_ * x_12_ + 80 x_18_ * x_16_ + 98 x_19_ * x_16_ + 26 x_45_ * x_16_ + 98 x_48_ * x_16_ + 80 x_26_ * x_18_ - 74 x_30_ * x_18_ + 86 x_37_ * x_18_ + 38 x_44_ * x_18_ + 22 x_48_ * x_18_ + 42 x_45_ * x_19_ + 8 x_30_ * x_21_ + 32 x_41_ * x_21_ - 8 x_41_ * x_25_ + 62 x_44_ * x_25_ - 42 x_41_ * x_37_ ] = -1440
c22: [ 86 x_2_ * x_39_ - 32 x_47_ * x_2_ + 60 x_15_ * x_11_ - 10 x_39_ * x_15_ + 88 x_47_ * x_15_ + 44 x_47_ * x_39_ ] = 2684
c23: [ -76 x_1_ * x_38_ - 90 x_38_ * x_16_ - 18 x_38_ * x_18_ - 86 x_45_ * x_21_ ] = -6528
c24: [ -72 x_2_ * x_7_ + 98 x_18_ * x_2_ - 52 x_18_ * x_7_ + 26 x_39_ * x_7_ + 62 x_42_ * x_7_ - 32 x_44_ * x_9_ - 52 x_44_ * x_22_ + 6 x_42_ * x_34_ + 12 x_44_ * x_42_ - 48 x_46_ * x_44_ ] = -1956
c25: [ -68 x_1_ * x_31_ + 50 x_42_ * x_1_ - 52 x_48_ * x_23_ - 34 x_48_ * x_31_ + 46 x_48_ * x_42_ ] = -8372
c26: [ 40 x_8_ * x_10_ + 88 x_37_ * x_10_ - 14 x_46_ * x_10_ - 60 x_37_ * x_32_ ] = 4800
c27: [ 18 x_3_ * x_11_ ] = 0
c28: [ 66 x_1_ * x_4_ - 90 x_11_ * x_1_ - 90 x_50_ * x_2_ - 62 x_14_ * x_7_ + 20 x_20_ * x_7_ - 16 x_50_ * x_7_ + 36 x_36_ * x_11_ + 46 x_50_ * x_11_ + 40 x_37_ * x_14_ + 78 x_50_ * x_20_ - 30 x_50_ * x_37_ ] = -2828
c29: [ 30 x_2_ * x_9_ - 48 x_47_ * x_2_ - 10 x_48_ * x_2_ + 22 x_49_ * x_2_ + 6 x_33_ * x_9_ + 82 x_41_ * x_9_ - 46 x_49_ * x_9_ - 22 x_14_ * x_12_ + 70 x_43_ * x_12_ + 4 x_48_ * x_12_ - 16 x_43_ * x_14_ - 10 x_45_ * x_24_ + 94 x_43_ * x_26_ + 100 x_47_ * x_33_ - 24 x_45_ * x_34_ - 6 x_49_ * x_34_ - 86 x_48_ * x_41_ + 52 x_47_ * x_43_ - 46 x_49_ * x_48_ ] = -6524
c30: [ 90 x_9_ * x_17_ - 54 x_27_ * x_9_ + 58 x_16_ * x_13_ - 88 x_22_ * x_13_ - 94 x_34_ * x_13_ + 88 x_42_ * x_13_ - 38 x_22_ * x_16_ - 76 x_42_ * x_17_ + 52 x_49_ * x_17_ + 90 x_32_ * x_22_ + 92 x_27_ * x_26_ ] = -6252
c31: [ 44 x_5_ * x_22_ - 48 x_37_ * x_5_ + 52 x_46_ * x_5_ + 86 x_48_ * x_5_ + 32 x_37_ * x_10_ - 82 x_37_ * x_13_ + 56 x_38_ * x_13_ + 78 x_33_ * x_14_ - 70 x_48_ * x_14_ + 42 x_47_ * x_33_ - 20 x_46_ * x_37_ + 96 x_48_ * x_46_ ] = -10100
c32: [ -6 x_5_ * x_23_ + 64 x_24_ * x_11_ + 98 x_45_ * x_11_ - 64 x_50_ * x_11_ - 20 x_48_ * x_13_ - 94 x_24_ * x_23_ + 90 x_48_ * x_23_ ] = -5114
c33: [ -38 x_4_ * x_14_ + 98 x_27_ * x_4_ + 30 x_49_ * x_4_ - 66 x_37_ * x_12_ + 20 x_48_ * x_12_ + 10 x_34_ * x_14_ - 44 x_38_ * x_14_ + 100 x_34_ * x_25_ - 66 x_31_ * x_27_ - 40 x_44_ * x_28_ - 40 x_50_ * x_28_ - 36 x_37_ * x_31_ - 78 x_49_ * x_31_ - 80 x_50_ * x_31_ + 78 x_44_ * x_34_ - 34 x_48_ * x_37_ + 24 x_49_ * x_37_ + 20 x_50_ * x_44_ + 40 x_50_ * x_48_ + 86 x_50_ * x_49_ ] = -17840
c34: [ -14 x_5_ * x_23_ + 40 x_27_ * x_5_ + 18 x_30_ * x_5_ + 62 x_25_ * x_20_ - 74 x_35_ * x_20_ + 10 x_43_ * x_20_ + 76 x_30_ * x_23_ + 74 x_35_ * x_23_ - 50 x_40_ * x_23_ - 98 x_43_ * x_23_ - 100 x_27_ * x_25_ - 68 x_37_ * x_25_ + 6 x_45_ * x_25_ - 20 x_43_ * x_27_ + 68 x_44_ * x_35_ - 38 x_43_ * x_37_ - 94 x_45_ * x_37_ - 86 x_45_ * x_44_ ] = -2780
c35: [ 26 x_6_ * x_17_ + 60 x_30_ * x_6_ - 76 x_34_ * x_6_ - 84 x_48_ * x_6_ - 60 x_19_ * x_8_ + 4 x_48_ * x_8_ - 68 x_34_ * x_12_ - 12 x_19_ * x_17_ - 2 x_34_ * x_17_ + 52 x_20_ * x_19_ + 82 x_34_ * x_19_ + 72 x_48_ * x_19_ - 24 x_48_ * x_30_ ] = 11096
c36: [ 92 x_3_ * x_33_ + 66 x_10_ * x_7_ + 20 x_12_ * x_7_ - 8 x_30_ * x_7_ - 24 x_33_ * x_7_ - 84 x_25_ * x_10_ - 86 x_43_ * x_10_ + 14 x_42_ * x_12_ - 36 x_17_ * x_16_ + 56 x_30_ * x_16_ + 60 x_33_ * x_16_ + 40 x_39_ * x_16_ - 46 x_43_ * x_25_ + 10 x_43_ * x_30_ ] = 14734
c37: [ 60 x_2_ * x_33_ + 2 x_33_ * x_4_ + 10 x_33_ * x_7_ + 6 x_21_ * x_15_ + 86 x_33_ * x_15_ - 24 x_49_ * x_15_ + 52 x_31_ * x_21_ - 86 x_49_ * x_21_ - 38 x_33_ * x_31_ + 62 x_40_ * x_31_ ] = -14700
c38: [ 54 x_2_ * x_20_ - 90 x_23_ * x_2_ + 60 x_48_ * x_2_ - 58 x_20_ * x_7_ - 8 x_29_ * x_7_ + 90 x_38_ * x_9_ + 52 x_45_ * x_9_ - 6 x_23_ * x_20_ - 68 x_34_ * x_20_ + 10 x_38_ * x_20_ - 46 x_29_ * x_21_ - 16 x_38_ * x_21_ - 92 x_38_ * x_22_ + 32 x_45_ * x_22_ + 40 x_38_ * x_23_ + 44 x_48_ * x_23_ + 36 x_38_ * x_34_ - 48 x_45_ * x_43_ + 14 x_48_ * x_43_ ] = 11100
c39: [ 58 x_2_ * x_20_ + 8 x_38_ * x_2_ - 52 x_47_ * x_2_ + 34 x_50_ * x_2_ - 18 x_20_ * x_3_ - 94 x_47_ * x_3_ - 22 x_47_ * x_10_ - 10 x_19_ * x_11_ - 60 x_46_ * x_11_ - 26 x_19_ * x_13_ - 4 x_38_ * x_13_ + 44 x_47_ * x_13_ - 38 x_49_ * x_13_ + 34 x_49_ * x_18_ - 76 x_31_ * x_19_ + 14 x_49_ * x_20_ - 76 x_46_ * x_31_ + 38 x_46_ * x_38_ - 76 x_49_ * x_38_ + 94 x_50_ * x_38_ + 6 x_47_ * x_46_ + 38 x_49_ * x_46_ + 64 x_50_ * x_49_ ] = 9762
c40: [ -16 x_2_ * x_3_ + 72 x_35_ * x_2_ - 40 x_32_ * x_3_ - 96 x_35_ * x_14_ + 66 x_34_ * x_20_ ] = 8580
c41: [ 60 x_1_ * x_38_ - 86 x_39_ * x_1_ - 100 x_26_ * x_23_ + 12 x_38_ * x_23_ + 70 x_34_ * x_25_ ] = -1628
c42: [ -64 x_1_ * x_35_ - 16 x_47_ * x_1_ - 78 x_26_ * x_3_ - 72 x_37_ * x_3_ + 66 x_30_ * x_26_ + 44 x_35_ * x_26_ + 40 x_50_ * x_26_ - 10 x_30_ * x_27_ + 28 x_34_ * x_27_ - 54 x_50_ * x_27_ - 14 x_31_ * x_30_ - 62 x_43_ * x_34_ + 46 x_37_ * x_35_ - 66 x_47_ * x_43_ ] = 90
c43: [ 94 x_5_ * x_10_ - 20 x_20_ * x_5_ + 20 x_36_ * x_5_ + 16 x_50_ * x_5_ + 100 x_10_ * x_6_ - 46 x_20_ * x_6_ + 72 x_41_ * x_6_ - 78 x_44_ * x_6_ + 82 x_48_ * x_6_ + 86 x_18_ * x_10_ + 50 x_48_ * x_10_ - 52 x_14_ * x_12_ - 98 x_25_ * x_12_ - 62 x_20_ * x_13_ + 98 x_25_ * x_13_ + 94 x_50_ * x_13_ - 68 x_41_ * x_20_ - 94 x_44_ * x_20_ - 22 x_50_ * x_20_ - 74 x_36_ * x_25_ - 100 x_50_ * x_25_ - 38 x_48_ * x_36_ + 78 x_50_ * x_36_ + 24 x_48_ * x_41_ - 42 x_48_ * x_44_ ] = 15286
c44: [ -86 x_1_ * x_18_ + 54 x_19_ * x_1_ + 36 x_25_ * x_1_ - 88 x_31_ * x_1_ - 94 x_35_ * x_1_ - 42 x_19_ * x_11_ + 86 x_31_ * x_11_ + 18 x_34_ * x_16_ - 90 x_39_ * x_16_ - 50 x_25_ * x_19_ + 42 x_39_ * x_19_ + 34 x_34_ * x_25_ - 44 x_34_ * x_31_ - 40 x_39_ * x_34_ - 76 x_37_ * x_35_ ] = -8452
c45: [ 22 x_3_ * x_11_ + 54 x_14_ * x_3_ + 78 x_34_ * x_3_ - 10 x_12_ * x_8_ - 98 x_14_ * x_8_ + 46 x_25_ * x_11_ + 22 x_25_ * x_14_ + 52 x_32_ * x_14_ + 54 x_34_ * x_25_ ] = -2782
c46: [ -20 x_1_ * x_4_ + 88 x_15_ * x_1_ + 46 x_42_ * x_1_ + 54 x_35_ * x_4_ + 18 x_42_ * x_4_ - 92 x_42_ * x_10_ - 34 x_31_ * x_15_ + 60 x_35_ * x_31_ - 100 x_42_ * x_31_ + 56 x_36_ * x_35_ ] = 1188
c47: [ 100 x_14_ * x_42_ + 44 x_45_ * x_14_ - 84 x_46_ * x_14_ - 22 x_48_ * x_14_ - 98 x_25_ * x_19_ + 52 x_42_ * x_22_ - 90 x_26_ * x_25_ - 78 x_48_ * x_25_ - 34 x_42_ * x_26_ - 82 x_45_ * x_42_ ] = 14590
c48: [ -22 x_1_ * x_27_ - 26 x_33_ * x_1_ - 76 x_40_ * x_1_ + 24 x_40_ * x_2_ + 52 x_24_ * x_8_ + 48 x_29_ * x_8_ + 48 x_26_ * x_17_ - 96 x_31_ * x_17_ - 46 x_26_ * x_24_ + 78 x_27_ * x_24_ - 66 x_29_ * x_24_ + 94 x_40_ * x_24_ + 42 x_31_ * x_26_ - 16 x_33_ * x_27_ ] = -504
c49: [ -34 x_2_ * x_15_ + 88 x_48_ * x_2_ + 22 x_48_ * x_7_ + 46 x_24_ * x_13_ + 82 x_24_ * x_15_ ] = 4698
c50: [ -54 x_9_ * x_18_ ] = 1296
c51: [ 6 x_2_ * x_44_ + 14 x_45_ * x_2_ + 2 x_10_ * x_4_ - 60 x_39_ * x_10_ - 62 x_44_ * x_25_ - 24 x_45_ * x_25_ - 48 x_46_ * x_39_ + 98 x_46_ * x_44_ ] = 524
c52: [ 92 x_1_ * x_9_ - 2 x_11_ * x_1_ - 14 x_9_ * x_5_ - 42 x_15_ * x_5_ - 60 x_26_ * x_5_ - 76 x_33_ * x_5_ - 68 x_36_ * x_5_ + 62 x_26_ * x_7_ + 32 x_35_ * x_7_ + 4 x_38_ * x_7_ - 100 x_20_ * x_8_ + 50 x_35_ * x_8_ + 54 x_15_ * x_9_ - 24 x_23_ * x_11_ - 58 x_29_ * x_11_ + 14 x_35_ * x_11_ - 20 x_36_ * x_11_ + 50 x_23_ * x_20_ - 34 x_35_ * x_20_ + 28 x_33_ * x_23_ + 22 x_31_ * x_26_ + 92 x_38_ * x_26_ + 10 x_38_ * x_29_ - 48 x_35_ * x_31_ - 78 x_38_ * x_33_ ] = -18550
c53: [ 36 x_4_ * x_6_ + 46 x_19_ * x_4_ - 42 x_50_ * x_4_ + 80 x_39_ * x_16_ ] = 3734
Bounds
-10 <= x_1_ <= -7
-10 <= x_2_ <= 8
-4 <= x_3_ <= 0
-10 <= x_4_ <= 7
-8 <= x_5_ <= -6
-10 <= x_6_ <= -1
7 <= x_7_ <= 10
-10 <= x_8_ <= 10
-4 <= x_9_ <= 4
-7 <= x_10_ <= 5
-7 <= x_11_ <= 6
-6 <= x_12_ <= 10
-10 <= x_13_ <= 6
-8 <= x_14_ <= 5
-8 <= x_15_ <= 10
-6 <= x_16_ <= 8
4 <= x_17_ <= 9
3 <= x_18_ <= 8
-10 <= x_19_ <= 3
-9 <= x_20_ <= -1
-5 <= x_21_ <= 10
-2 <= x_22_ <= 6
-6 <= x_23_ <= 6
-6 <= x_24_ <= 6
5 <= x_25_ <= 10
-6 <= x_26_ <= -4
-10 <= x_27_ <= 9
-10 <= x_28_ <= -4
-3 <= x_29_ <= 7
-10 <= x_30_ <= -9
-9 <= x_31_ <= 6
4 <= x_32_ <= 10
-10 <= x_33_ <= -6
-10 <= x_34_ <= 1
-9 <= x_35_ <= 3
-10 <= x_36_ <= -3
-10 <= x_37_ <= 10
-10 <= x_38_ <= 5
-10 <= x_39_ <= 2
-9 <= x_40_ <= 7
-8 <= x_41_ <= 2
-3 <= x_42_ <= 3
-9 <= x_43_ <= 8
-8 <= x_44_ <= 9
-7 <= x_45_ <= 3
-3 <= x_46_ <= 6
0 <= x_47_ <= 9
-9 <= x_48_ <= 4
-3 <= x_49_ <= 10
-10 <= x_50_ <= -1
General
x_1_
x_2_
x_3_
x_4_
x_5_
x_6_
x_7_
x_8_
x_9_
x_10_
x_11_
x_12_
x_13_
x_14_
x_15_
x_16_
x_17_
x_18_
x_19_
x_20_
x_21_
x_22_
x_23_
x_24_
x_25_
x_26_
x_27_
x_28_
x_29_
x_30_
x_31_
x_32_
x_33_
x_34_
x_35_
x_36_
x_37_
x_38_
x_39_
x_40_
x_41_
x_42_
x_43_
x_44_
x_45_
x_46_
x_47_
x_48_
x_49_
x_50_
End
