minimize
obj: 
subject to
quadratic_ranged_1_ub: [ 16 x_33_ * x_5_ - 80 x_46_ * x_5_ + 29 x_26_ ^ 2 - 20 x_40_ * x_26_ + 86 x_48_ * x_26_ + 42 x_33_ ^ 2 + 36 x_37_ ^ 2 + 19 x_40_ ^ 2 + 58 x_46_ * x_40_ - 90 x_47_ * x_40_ + 86 x_48_ * x_47_ - 27 x_48_ ^ 2 ] <= 4428
quadratic_ranged_2_ub: [ 10 x_1_ ^ 2 + 39 x_13_ ^ 2 - 14 x_32_ ^ 2 ] <= -1039
quadratic_ranged_3_ub: [ -70 x_9_ * x_34_ + 6 x_42_ * x_12_ + 32 x_29_ * x_15_ + 2 x_31_ * x_15_ + 96 x_35_ * x_15_ + 58 x_31_ * x_17_ - 38 x_42_ * x_17_ - 18 x_31_ * x_23_ - 20 x_31_ * x_29_ - 62 x_42_ * x_29_ - 2 x_34_ * x_31_ - 48 x_38_ * x_31_ + 38 x_42_ * x_31_ + 86 x_49_ * x_31_ + 20 x_42_ * x_35_ ] <= -3682
quadratic_ranged_4_ub: [ -50 x_8_ * x_26_ - 82 x_48_ * x_8_ + 80 x_42_ * x_11_ - 88 x_31_ * x_20_ - 98 x_43_ * x_20_ - 68 x_47_ * x_42_ - 54 x_48_ * x_43_ ] <= -5153
quadratic_ranged_5_ub: [ 27 x_1_ ^ 2 + 84 x_48_ * x_10_ + 4 x_32_ ^ 2 + 80 x_46_ * x_39_ ] <= -2992
quadratic_ranged_6_ub: [ 16 x_1_ ^ 2 - 54 x_2_ * x_1_ + 52 x_5_ * x_1_ - 4 x_16_ * x_1_ + 26 x_5_ * x_2_ - 64 x_15_ * x_2_ - 80 x_16_ * x_2_ + 92 x_39_ * x_2_ - 54 x_40_ * x_2_ + 33 x_5_ ^ 2 - 60 x_7_ * x_5_ + 64 x_39_ * x_5_ - 22 x_40_ * x_5_ + 38 x_34_ * x_7_ - 74 x_34_ * x_8_ + 12 x_37_ * x_8_ - 14 x_47_ * x_8_ - 8 x_40_ * x_15_ - 68 x_37_ * x_20_ + 80 x_38_ * x_20_ + 28 x_47_ * x_20_ - 98 x_50_ * x_34_ - 44 x_37_ ^ 2 + 8 x_38_ * x_37_ - 26 x_39_ * x_37_ + 80 x_47_ * x_37_ + 46 x_40_ * x_39_ - 34 x_47_ ^ 2 + 40 x_50_ * x_47_ ] <= 3393
quadratic_ranged_7_ub: [ -96 x_30_ * x_12_ + 8 x_39_ * x_12_ + 62 x_42_ * x_12_ + 42 x_43_ * x_13_ - 32 x_18_ * x_15_ + 62 x_26_ * x_15_ - 14 x_42_ * x_15_ + 46 x_26_ * x_18_ + 2 x_30_ * x_22_ - 76 x_42_ * x_22_ - 14 x_30_ * x_26_ + 78 x_43_ * x_26_ - 25 x_33_ ^ 2 - 80 x_39_ * x_33_ + 70 x_38_ * x_37_ + 46 x_42_ ^ 2 - 34 x_43_ * x_42_ ] <= 11011
quadratic_ranged_8_ub: [ 26 x_4_ * x_7_ + 46 x_50_ * x_7_ - 44 x_43_ * x_19_ - 14 x_44_ * x_43_ ] <= -2633
quadratic_ranged_9_ub: [ 12 x_5_ * x_2_ - 40 x_41_ * x_5_ + 34 x_26_ * x_7_ + 92 x_33_ * x_7_ + 14 x_50_ * x_38_ + 13 x_41_ ^ 2 ] <= -1322
quadratic_ranged_10_ub: [ 9 x_1_ ^ 2 - 84 x_17_ * x_12_ + 58 x_50_ * x_12_ + 88 x_38_ * x_29_ - 30 x_45_ ^ 2 + 19 x_50_ ^ 2 ] <= 1123
quadratic_ranged_11_ub: [ -14 x_3_ * x_1_ + 84 x_11_ * x_1_ - 40 x_28_ * x_3_ - 12 x_24_ * x_11_ + 60 x_28_ * x_24_ + 28 x_33_ * x_28_ + 40 x_33_ ^ 2 ] <= 3254
quadratic_ranged_12_ub: [ -6 x_15_ ^ 2 - 12 x_30_ * x_15_ - 34 x_40_ * x_15_ - 46 x_44_ * x_15_ - 82 x_47_ * x_15_ + 92 x_28_ * x_23_ - 56 x_35_ * x_23_ - 32 x_40_ * x_23_ - 50 x_28_ ^ 2 + 36 x_30_ * x_28_ - 70 x_36_ * x_28_ + 66 x_40_ * x_28_ - 38 x_30_ * x_29_ - 42 x_35_ * x_29_ + 48 x_30_ ^ 2 - 10 x_35_ ^ 2 + 72 x_44_ * x_36_ - 18 x_44_ * x_39_ + 39 x_40_ ^ 2 ] <= 2478
quadratic_ranged_13_ub: [ 68 x_50_ * x_1_ - 52 x_27_ * x_5_ + 70 x_29_ * x_5_ - 24 x_50_ * x_5_ + 46 x_15_ * x_6_ + 100 x_30_ * x_6_ - 74 x_50_ * x_6_ + 96 x_29_ * x_15_ - 44 x_48_ * x_15_ - 12 x_27_ ^ 2 - 46 x_29_ * x_27_ + 30 x_47_ * x_27_ - 2 x_29_ ^ 2 ] <= 4913
quadratic_ranged_14_ub: [ -96 x_12_ * x_1_ - 72 x_14_ * x_1_ - 78 x_23_ * x_1_ - 4 x_40_ * x_1_ - 32 x_42_ * x_2_ - 22 x_23_ * x_4_ + 52 x_47_ * x_12_ + 14 x_21_ ^ 2 + 2 x_23_ * x_21_ - 32 x_24_ * x_21_ + 96 x_38_ * x_21_ + 98 x_42_ * x_21_ - 34 x_47_ * x_21_ + 29 x_23_ ^ 2 + 24 x_24_ * x_23_ + 60 x_47_ * x_23_ - 14 x_38_ * x_24_ + 26 x_47_ * x_33_ + 11 x_40_ ^ 2 + 58 x_42_ * x_40_ - 24 x_47_ ^ 2 ] <= -1462
quadratic_ranged_15_ub: [ 96 x_6_ * x_4_ - 34 x_12_ * x_4_ - 74 x_22_ * x_4_ - 31 x_6_ ^ 2 + 2 x_22_ * x_6_ + 44 x_35_ * x_6_ - 66 x_24_ * x_10_ - 2 x_35_ * x_12_ + 12 x_13_ ^ 2 + 60 x_46_ * x_13_ + 4 x_21_ ^ 2 - 86 x_35_ * x_21_ - 30 x_22_ ^ 2 - 52 x_35_ * x_22_ - 78 x_30_ * x_24_ + 80 x_46_ * x_30_ - 28 x_46_ ^ 2 ] <= 1267
quadratic_ranged_16_ub: [ 26 x_14_ * x_4_ - 58 x_13_ * x_8_ + 46 x_15_ * x_8_ - 74 x_20_ * x_8_ - 24 x_22_ * x_8_ - 66 x_36_ * x_8_ - 22 x_49_ * x_8_ + 13 x_9_ ^ 2 + 18 x_14_ * x_9_ - 88 x_20_ * x_9_ - 22 x_36_ * x_9_ - 68 x_49_ * x_9_ + 56 x_20_ * x_14_ - 36 x_15_ ^ 2 + 54 x_36_ * x_15_ + 42 x_36_ * x_22_ + 19 x_33_ ^ 2 + 66 x_36_ * x_33_ + 80 x_49_ * x_33_ ] <= 2842
quadratic_ranged_17_ub: [ 60 x_43_ * x_11_ + 30 x_13_ ^ 2 - 6 x_28_ * x_13_ - 48 x_35_ * x_13_ + 76 x_43_ * x_13_ + 42 x_35_ * x_16_ + 96 x_43_ * x_16_ + 46 x_24_ * x_17_ + 80 x_28_ * x_17_ - 76 x_43_ * x_17_ + 20 x_36_ * x_24_ + 70 x_46_ * x_36_ + 44 x_46_ * x_43_ - 26 x_46_ ^ 2 ] <= -15677
quadratic_ranged_18_ub: [ -98 x_16_ * x_1_ + 24 x_41_ * x_1_ + 66 x_48_ * x_1_ - 44 x_5_ ^ 2 - 2 x_27_ * x_5_ - 76 x_19_ * x_7_ + 4 x_41_ * x_7_ + 36 x_8_ ^ 2 - 80 x_19_ * x_8_ + 46 x_24_ * x_8_ + 4 x_48_ * x_8_ + 78 x_27_ * x_16_ + 38 x_48_ * x_16_ - 20 x_19_ ^ 2 - 86 x_25_ * x_19_ - 62 x_41_ * x_19_ + 64 x_49_ * x_24_ - 21 x_48_ ^ 2 - 52 x_49_ * x_48_ ] <= -5858
quadratic_ranged_19_ub: [ -74 x_19_ * x_1_ - 8 x_31_ * x_1_ - 16 x_31_ * x_3_ + 44 x_50_ * x_11_ - 49 x_23_ ^ 2 - 88 x_29_ * x_23_ + 84 x_50_ * x_29_ - 28 x_31_ ^ 2 ] <= 2748
quadratic_ranged_20_ub: [ -47 x_17_ ^ 2 - 14 x_18_ * x_17_ + 44 x_30_ * x_18_ - 60 x_42_ * x_18_ + 42 x_44_ * x_18_ - 78 x_25_ * x_21_ - 2 x_30_ * x_25_ - 50 x_36_ * x_25_ + 22 x_38_ * x_25_ + 54 x_42_ * x_25_ + 48 x_44_ * x_29_ ] <= 5263
quadratic_ranged_21_ub: [ -94 x_3_ * x_1_ + 40 x_38_ * x_1_ + 12 x_3_ ^ 2 + 32 x_20_ * x_3_ - 98 x_40_ * x_3_ - 62 x_24_ * x_20_ + 46 x_50_ * x_20_ + 42 x_24_ ^ 2 - 72 x_40_ * x_24_ + 48 x_42_ * x_25_ + 10 x_33_ ^ 2 + 54 x_50_ * x_33_ - 10 x_50_ * x_40_ ] <= -1645
quadratic_ranged_22_ub: [ 40 x_27_ * x_5_ - 42 x_37_ * x_5_ + 20 x_44_ * x_5_ - 24 x_8_ ^ 2 + 56 x_12_ * x_8_ - 64 x_12_ * x_9_ + 20 x_19_ * x_12_ + 24 x_44_ * x_12_ ] <= -8391
quadratic_ranged_23_ub: [ -44 x_15_ * x_2_ + 46 x_23_ * x_12_ + 60 x_41_ * x_12_ - 56 x_43_ * x_12_ + 90 x_41_ * x_14_ + 46 x_45_ * x_14_ + 24 x_23_ ^ 2 + 44 x_41_ ^ 2 + 22 x_45_ ^ 2 ] <= 4097
quadratic_ranged_24_ub: [ 86 x_12_ * x_6_ - 68 x_15_ * x_6_ + 40 x_21_ * x_8_ + 90 x_44_ * x_8_ - 12 x_12_ ^ 2 + 100 x_15_ * x_12_ - 72 x_21_ * x_12_ + 70 x_48_ * x_12_ + 26 x_21_ * x_14_ + 10 x_35_ * x_15_ + 88 x_21_ * x_19_ + 76 x_35_ * x_19_ - 52 x_41_ * x_21_ + 36 x_42_ * x_21_ - 72 x_48_ * x_27_ + 84 x_50_ * x_27_ - 16 x_35_ ^ 2 + 12 x_48_ * x_35_ + 20 x_42_ * x_41_ + 48 x_44_ * x_41_ - 37 x_42_ ^ 2 + 50 x_50_ * x_42_ ] <= 14515
quadratic_ranged_25_ub: [ -16 x_40_ * x_13_ - 46 x_27_ * x_22_ - 96 x_34_ * x_22_ - 4 x_41_ * x_22_ + 88 x_44_ * x_22_ - 14 x_27_ * x_24_ + 14 x_27_ ^ 2 - 62 x_44_ * x_27_ - 48 x_34_ * x_29_ - 96 x_40_ * x_29_ + 28 x_34_ ^ 2 + 26 x_44_ * x_41_ ] <= 4391
quadratic_ranged_26_ub: [ -18 x_1_ ^ 2 - 16 x_42_ * x_1_ - 15 x_5_ ^ 2 + 22 x_12_ * x_5_ - 22 x_31_ * x_5_ + 68 x_42_ * x_5_ - 32 x_12_ * x_9_ - 64 x_41_ * x_23_ + 54 x_32_ * x_31_ + 16 x_42_ * x_32_ ] <= 4103
quadratic_ranged_27_ub: [ 40 x_47_ * x_2_ - 68 x_50_ * x_2_ - 20 x_49_ * x_8_ - 35 x_12_ ^ 2 + 24 x_30_ * x_12_ + 44 x_49_ * x_30_ + 6 x_50_ * x_30_ - 18 x_50_ * x_47_ ] <= -4510
quadratic_ranged_28_ub: [ -22 x_3_ ^ 2 + 58 x_11_ * x_3_ + 74 x_45_ * x_3_ - 64 x_47_ * x_3_ - 29 x_6_ ^ 2 + 96 x_11_ * x_6_ + 40 x_21_ * x_6_ + 92 x_47_ * x_6_ - 23 x_11_ ^ 2 + 94 x_30_ * x_12_ + 24 x_15_ ^ 2 + 36 x_21_ * x_15_ - 38 x_41_ * x_15_ - 30 x_30_ * x_21_ + 32 x_41_ * x_25_ + 43 x_45_ ^ 2 - 35 x_47_ ^ 2 ] <= -7219
quadratic_ranged_29_ub: [ -24 x_4_ * x_30_ - 72 x_30_ * x_13_ + 14 x_26_ * x_18_ - 34 x_33_ * x_18_ - 96 x_33_ * x_26_ + 46 x_44_ * x_30_ ] <= 1414
quadratic_ranged_30_ub: [ 36 x_4_ * x_13_ - 90 x_29_ * x_13_ - 48 x_30_ * x_13_ - 92 x_31_ * x_13_ + 72 x_48_ * x_31_ ] <= 57
quadratic_ranged_31_ub: [ -30 x_40_ * x_1_ - 42 x_44_ * x_1_ + 12 x_50_ * x_1_ + 11 x_23_ ^ 2 + 54 x_35_ * x_23_ - 92 x_38_ * x_23_ + 92 x_44_ * x_23_ + 26 x_40_ * x_24_ - 8 x_44_ * x_24_ + 24 x_26_ ^ 2 - 8 x_42_ * x_26_ + 68 x_50_ * x_26_ + 82 x_44_ * x_35_ - 36 x_40_ ^ 2 - 8 x_42_ ^ 2 ] <= 4853
quadratic_ranged_32_ub: [ -24 x_23_ * x_4_ - 2 x_40_ * x_6_ + 24 x_37_ * x_19_ - 14 x_40_ * x_19_ - 25 x_23_ ^ 2 - 19 x_25_ ^ 2 + 26 x_44_ * x_37_ - 2 x_44_ * x_43_ + 22 x_44_ ^ 2 ] <= -3331
quadratic_ranged_33_ub: [ 24 x_17_ ^ 2 - 82 x_28_ * x_19_ - 66 x_50_ * x_19_ + 24 x_29_ * x_28_ - 10 x_41_ * x_28_ + 80 x_48_ * x_41_ + 28 x_50_ * x_41_ ] <= -5308
quadratic_ranged_34_ub: [ -42 x_10_ * x_8_ + 60 x_21_ * x_8_ - 84 x_18_ * x_10_ + 66 x_39_ * x_10_ + 6 x_11_ ^ 2 - 90 x_27_ * x_16_ - 78 x_39_ * x_16_ - 62 x_38_ * x_31_ ] <= 4436
quadratic_ranged_35_ub: [ 14 x_17_ * x_26_ + 90 x_38_ * x_28_ ] <= -2772
quadratic_ranged_36_ub: [ 48 x_35_ * x_8_ - 86 x_17_ * x_9_ - 26 x_24_ * x_9_ + 70 x_35_ * x_17_ + 15 x_24_ ^ 2 - 72 x_35_ * x_24_ - 66 x_36_ * x_24_ + 100 x_45_ * x_24_ - 30 x_36_ ^ 2 ] <= -4545
quadratic_ranged_37_ub: [ 26 x_10_ * x_2_ + 76 x_11_ * x_2_ + 70 x_28_ * x_10_ + 82 x_30_ * x_10_ + 62 x_50_ * x_10_ + 52 x_28_ * x_11_ + 64 x_50_ * x_11_ + 17 x_26_ ^ 2 + 64 x_28_ * x_26_ - 76 x_30_ * x_26_ - 80 x_46_ * x_26_ + 92 x_30_ * x_27_ + 50 x_46_ * x_29_ + 74 x_50_ * x_29_ ] <= 4085
quadratic_ranged_38_ub: [ 88 x_4_ * x_2_ + 50 x_5_ * x_2_ - 72 x_22_ * x_2_ - 10 x_43_ * x_2_ + 90 x_7_ * x_4_ + 98 x_22_ * x_4_ - 76 x_9_ * x_5_ - 37 x_7_ ^ 2 + 36 x_9_ * x_7_ ] <= 2918
quadratic_ranged_39_ub: [ 8 x_19_ * x_8_ - 68 x_29_ * x_8_ + 2 x_25_ * x_10_ - 98 x_28_ * x_10_ - 40 x_45_ * x_10_ + 58 x_49_ * x_10_ - 30 x_29_ * x_19_ - 34 x_36_ * x_19_ - 84 x_45_ * x_19_ - 86 x_49_ * x_19_ - 66 x_41_ * x_25_ + 30 x_45_ * x_25_ - 40 x_28_ ^ 2 - 11 x_36_ ^ 2 + 43 x_49_ ^ 2 ] <= 7346
quadratic_ranged_40_ub: [ -20 x_16_ ^ 2 + 78 x_43_ * x_16_ + 2 x_50_ * x_16_ + 80 x_45_ * x_26_ + 60 x_45_ * x_43_ ] <= -5400
quadratic_ranged_41_ub: [ -24 x_21_ * x_8_ + 64 x_24_ * x_8_ - 72 x_41_ * x_8_ - 70 x_48_ * x_8_ + 74 x_49_ * x_8_ - 28 x_28_ * x_11_ - 76 x_40_ * x_11_ + 70 x_41_ * x_11_ - 76 x_48_ * x_11_ - 26 x_29_ * x_13_ - 62 x_41_ * x_13_ + 16 x_41_ * x_21_ - 80 x_40_ * x_24_ - 14 x_41_ * x_24_ - 60 x_49_ * x_24_ + 40 x_48_ * x_28_ + 68 x_49_ * x_28_ + 96 x_40_ * x_29_ - 96 x_49_ * x_37_ + 62 x_47_ * x_39_ + 18 x_41_ * x_40_ + 35 x_49_ ^ 2 ] <= 7330
quadratic_ranged_42_ub: [ 23 x_6_ ^ 2 + 14 x_9_ * x_6_ - 62 x_18_ * x_6_ - 72 x_46_ * x_6_ + 44 x_16_ * x_9_ - 84 x_17_ * x_9_ + 30 x_15_ * x_13_ + 20 x_29_ * x_13_ - 98 x_35_ * x_13_ - 90 x_46_ * x_13_ + 32 x_16_ ^ 2 - 100 x_17_ * x_16_ - 20 x_18_ * x_16_ - 12 x_29_ * x_16_ - 26 x_17_ ^ 2 - 96 x_29_ * x_17_ - 14 x_18_ ^ 2 - 86 x_46_ * x_18_ ] <= 6655
quadratic_ranged_1_lb: [ 16 x_33_ * x_5_ - 80 x_46_ * x_5_ + 29 x_26_ ^ 2 - 20 x_40_ * x_26_ + 86 x_48_ * x_26_ + 42 x_33_ ^ 2 + 36 x_37_ ^ 2 + 19 x_40_ ^ 2 + 58 x_46_ * x_40_ - 90 x_47_ * x_40_ + 86 x_48_ * x_47_ - 27 x_48_ ^ 2 ] >= 4419
quadratic_ranged_2_lb: [ 10 x_1_ ^ 2 + 39 x_13_ ^ 2 - 14 x_32_ ^ 2 ] >= -1043
quadratic_ranged_3_lb: [ -70 x_9_ * x_34_ + 6 x_42_ * x_12_ + 32 x_29_ * x_15_ + 2 x_31_ * x_15_ + 96 x_35_ * x_15_ + 58 x_31_ * x_17_ - 38 x_42_ * x_17_ - 18 x_31_ * x_23_ - 20 x_31_ * x_29_ - 62 x_42_ * x_29_ - 2 x_34_ * x_31_ - 48 x_38_ * x_31_ + 38 x_42_ * x_31_ + 86 x_49_ * x_31_ + 20 x_42_ * x_35_ ] >= -3688
quadratic_ranged_4_lb: [ -50 x_8_ * x_26_ - 82 x_48_ * x_8_ + 80 x_42_ * x_11_ - 88 x_31_ * x_20_ - 98 x_43_ * x_20_ - 68 x_47_ * x_42_ - 54 x_48_ * x_43_ ] >= -5161
quadratic_ranged_5_lb: [ 27 x_1_ ^ 2 + 84 x_48_ * x_10_ + 4 x_32_ ^ 2 + 80 x_46_ * x_39_ ] >= -2996
quadratic_ranged_6_lb: [ 16 x_1_ ^ 2 - 54 x_2_ * x_1_ + 52 x_5_ * x_1_ - 4 x_16_ * x_1_ + 26 x_5_ * x_2_ - 64 x_15_ * x_2_ - 80 x_16_ * x_2_ + 92 x_39_ * x_2_ - 54 x_40_ * x_2_ + 33 x_5_ ^ 2 - 60 x_7_ * x_5_ + 64 x_39_ * x_5_ - 22 x_40_ * x_5_ + 38 x_34_ * x_7_ - 74 x_34_ * x_8_ + 12 x_37_ * x_8_ - 14 x_47_ * x_8_ - 8 x_40_ * x_15_ - 68 x_37_ * x_20_ + 80 x_38_ * x_20_ + 28 x_47_ * x_20_ - 98 x_50_ * x_34_ - 44 x_37_ ^ 2 + 8 x_38_ * x_37_ - 26 x_39_ * x_37_ + 80 x_47_ * x_37_ + 46 x_40_ * x_39_ - 34 x_47_ ^ 2 + 40 x_50_ * x_47_ ] >= 3387
quadratic_ranged_7_lb: [ -96 x_30_ * x_12_ + 8 x_39_ * x_12_ + 62 x_42_ * x_12_ + 42 x_43_ * x_13_ - 32 x_18_ * x_15_ + 62 x_26_ * x_15_ - 14 x_42_ * x_15_ + 46 x_26_ * x_18_ + 2 x_30_ * x_22_ - 76 x_42_ * x_22_ - 14 x_30_ * x_26_ + 78 x_43_ * x_26_ - 25 x_33_ ^ 2 - 80 x_39_ * x_33_ + 70 x_38_ * x_37_ + 46 x_42_ ^ 2 - 34 x_43_ * x_42_ ] >= 11004
quadratic_ranged_8_lb: [ 26 x_4_ * x_7_ + 46 x_50_ * x_7_ - 44 x_43_ * x_19_ - 14 x_44_ * x_43_ ] >= -2639
quadratic_ranged_9_lb: [ 12 x_5_ * x_2_ - 40 x_41_ * x_5_ + 34 x_26_ * x_7_ + 92 x_33_ * x_7_ + 14 x_50_ * x_38_ + 13 x_41_ ^ 2 ] >= -1324
quadratic_ranged_10_lb: [ 9 x_1_ ^ 2 - 84 x_17_ * x_12_ + 58 x_50_ * x_12_ + 88 x_38_ * x_29_ - 30 x_45_ ^ 2 + 19 x_50_ ^ 2 ] >= 1115
quadratic_ranged_11_lb: [ -14 x_3_ * x_1_ + 84 x_11_ * x_1_ - 40 x_28_ * x_3_ - 12 x_24_ * x_11_ + 60 x_28_ * x_24_ + 28 x_33_ * x_28_ + 40 x_33_ ^ 2 ] >= 3249
quadratic_ranged_12_lb: [ -6 x_15_ ^ 2 - 12 x_30_ * x_15_ - 34 x_40_ * x_15_ - 46 x_44_ * x_15_ - 82 x_47_ * x_15_ + 92 x_28_ * x_23_ - 56 x_35_ * x_23_ - 32 x_40_ * x_23_ - 50 x_28_ ^ 2 + 36 x_30_ * x_28_ - 70 x_36_ * x_28_ + 66 x_40_ * x_28_ - 38 x_30_ * x_29_ - 42 x_35_ * x_29_ + 48 x_30_ ^ 2 - 10 x_35_ ^ 2 + 72 x_44_ * x_36_ - 18 x_44_ * x_39_ + 39 x_40_ ^ 2 ] >= 2471
quadratic_ranged_13_lb: [ 68 x_50_ * x_1_ - 52 x_27_ * x_5_ + 70 x_29_ * x_5_ - 24 x_50_ * x_5_ + 46 x_15_ * x_6_ + 100 x_30_ * x_6_ - 74 x_50_ * x_6_ + 96 x_29_ * x_15_ - 44 x_48_ * x_15_ - 12 x_27_ ^ 2 - 46 x_29_ * x_27_ + 30 x_47_ * x_27_ - 2 x_29_ ^ 2 ] >= 4907
quadratic_ranged_14_lb: [ -96 x_12_ * x_1_ - 72 x_14_ * x_1_ - 78 x_23_ * x_1_ - 4 x_40_ * x_1_ - 32 x_42_ * x_2_ - 22 x_23_ * x_4_ + 52 x_47_ * x_12_ + 14 x_21_ ^ 2 + 2 x_23_ * x_21_ - 32 x_24_ * x_21_ + 96 x_38_ * x_21_ + 98 x_42_ * x_21_ - 34 x_47_ * x_21_ + 29 x_23_ ^ 2 + 24 x_24_ * x_23_ + 60 x_47_ * x_23_ - 14 x_38_ * x_24_ + 26 x_47_ * x_33_ + 11 x_40_ ^ 2 + 58 x_42_ * x_40_ - 24 x_47_ ^ 2 ] >= -1466
quadratic_ranged_15_lb: [ 96 x_6_ * x_4_ - 34 x_12_ * x_4_ - 74 x_22_ * x_4_ - 31 x_6_ ^ 2 + 2 x_22_ * x_6_ + 44 x_35_ * x_6_ - 66 x_24_ * x_10_ - 2 x_35_ * x_12_ + 12 x_13_ ^ 2 + 60 x_46_ * x_13_ + 4 x_21_ ^ 2 - 86 x_35_ * x_21_ - 30 x_22_ ^ 2 - 52 x_35_ * x_22_ - 78 x_30_ * x_24_ + 80 x_46_ * x_30_ - 28 x_46_ ^ 2 ] >= 1264
quadratic_ranged_16_lb: [ 26 x_14_ * x_4_ - 58 x_13_ * x_8_ + 46 x_15_ * x_8_ - 74 x_20_ * x_8_ - 24 x_22_ * x_8_ - 66 x_36_ * x_8_ - 22 x_49_ * x_8_ + 13 x_9_ ^ 2 + 18 x_14_ * x_9_ - 88 x_20_ * x_9_ - 22 x_36_ * x_9_ - 68 x_49_ * x_9_ + 56 x_20_ * x_14_ - 36 x_15_ ^ 2 + 54 x_36_ * x_15_ + 42 x_36_ * x_22_ + 19 x_33_ ^ 2 + 66 x_36_ * x_33_ + 80 x_49_ * x_33_ ] >= 2840
quadratic_ranged_17_lb: [ 60 x_43_ * x_11_ + 30 x_13_ ^ 2 - 6 x_28_ * x_13_ - 48 x_35_ * x_13_ + 76 x_43_ * x_13_ + 42 x_35_ * x_16_ + 96 x_43_ * x_16_ + 46 x_24_ * x_17_ + 80 x_28_ * x_17_ - 76 x_43_ * x_17_ + 20 x_36_ * x_24_ + 70 x_46_ * x_36_ + 44 x_46_ * x_43_ - 26 x_46_ ^ 2 ] >= -15684
quadratic_ranged_18_lb: [ -98 x_16_ * x_1_ + 24 x_41_ * x_1_ + 66 x_48_ * x_1_ - 44 x_5_ ^ 2 - 2 x_27_ * x_5_ - 76 x_19_ * x_7_ + 4 x_41_ * x_7_ + 36 x_8_ ^ 2 - 80 x_19_ * x_8_ + 46 x_24_ * x_8_ + 4 x_48_ * x_8_ + 78 x_27_ * x_16_ + 38 x_48_ * x_16_ - 20 x_19_ ^ 2 - 86 x_25_ * x_19_ - 62 x_41_ * x_19_ + 64 x_49_ * x_24_ - 21 x_48_ ^ 2 - 52 x_49_ * x_48_ ] >= -5862
quadratic_ranged_19_lb: [ -74 x_19_ * x_1_ - 8 x_31_ * x_1_ - 16 x_31_ * x_3_ + 44 x_50_ * x_11_ - 49 x_23_ ^ 2 - 88 x_29_ * x_23_ + 84 x_50_ * x_29_ - 28 x_31_ ^ 2 ] >= 2743
quadratic_ranged_20_lb: [ -47 x_17_ ^ 2 - 14 x_18_ * x_17_ + 44 x_30_ * x_18_ - 60 x_42_ * x_18_ + 42 x_44_ * x_18_ - 78 x_25_ * x_21_ - 2 x_30_ * x_25_ - 50 x_36_ * x_25_ + 22 x_38_ * x_25_ + 54 x_42_ * x_25_ + 48 x_44_ * x_29_ ] >= 5256
quadratic_ranged_21_lb: [ -94 x_3_ * x_1_ + 40 x_38_ * x_1_ + 12 x_3_ ^ 2 + 32 x_20_ * x_3_ - 98 x_40_ * x_3_ - 62 x_24_ * x_20_ + 46 x_50_ * x_20_ + 42 x_24_ ^ 2 - 72 x_40_ * x_24_ + 48 x_42_ * x_25_ + 10 x_33_ ^ 2 + 54 x_50_ * x_33_ - 10 x_50_ * x_40_ ] >= -1653
quadratic_ranged_22_lb: [ 40 x_27_ * x_5_ - 42 x_37_ * x_5_ + 20 x_44_ * x_5_ - 24 x_8_ ^ 2 + 56 x_12_ * x_8_ - 64 x_12_ * x_9_ + 20 x_19_ * x_12_ + 24 x_44_ * x_12_ ] >= -8401
quadratic_ranged_23_lb: [ -44 x_15_ * x_2_ + 46 x_23_ * x_12_ + 60 x_41_ * x_12_ - 56 x_43_ * x_12_ + 90 x_41_ * x_14_ + 46 x_45_ * x_14_ + 24 x_23_ ^ 2 + 44 x_41_ ^ 2 + 22 x_45_ ^ 2 ] >= 4092
quadratic_ranged_24_lb: [ 86 x_12_ * x_6_ - 68 x_15_ * x_6_ + 40 x_21_ * x_8_ + 90 x_44_ * x_8_ - 12 x_12_ ^ 2 + 100 x_15_ * x_12_ - 72 x_21_ * x_12_ + 70 x_48_ * x_12_ + 26 x_21_ * x_14_ + 10 x_35_ * x_15_ + 88 x_21_ * x_19_ + 76 x_35_ * x_19_ - 52 x_41_ * x_21_ + 36 x_42_ * x_21_ - 72 x_48_ * x_27_ + 84 x_50_ * x_27_ - 16 x_35_ ^ 2 + 12 x_48_ * x_35_ + 20 x_42_ * x_41_ + 48 x_44_ * x_41_ - 37 x_42_ ^ 2 + 50 x_50_ * x_42_ ] >= 14509
quadratic_ranged_25_lb: [ -16 x_40_ * x_13_ - 46 x_27_ * x_22_ - 96 x_34_ * x_22_ - 4 x_41_ * x_22_ + 88 x_44_ * x_22_ - 14 x_27_ * x_24_ + 14 x_27_ ^ 2 - 62 x_44_ * x_27_ - 48 x_34_ * x_29_ - 96 x_40_ * x_29_ + 28 x_34_ ^ 2 + 26 x_44_ * x_41_ ] >= 4388
quadratic_ranged_26_lb: [ -18 x_1_ ^ 2 - 16 x_42_ * x_1_ - 15 x_5_ ^ 2 + 22 x_12_ * x_5_ - 22 x_31_ * x_5_ + 68 x_42_ * x_5_ - 32 x_12_ * x_9_ - 64 x_41_ * x_23_ + 54 x_32_ * x_31_ + 16 x_42_ * x_32_ ] >= 4097
quadratic_ranged_27_lb: [ 40 x_47_ * x_2_ - 68 x_50_ * x_2_ - 20 x_49_ * x_8_ - 35 x_12_ ^ 2 + 24 x_30_ * x_12_ + 44 x_49_ * x_30_ + 6 x_50_ * x_30_ - 18 x_50_ * x_47_ ] >= -4518
quadratic_ranged_28_lb: [ -22 x_3_ ^ 2 + 58 x_11_ * x_3_ + 74 x_45_ * x_3_ - 64 x_47_ * x_3_ - 29 x_6_ ^ 2 + 96 x_11_ * x_6_ + 40 x_21_ * x_6_ + 92 x_47_ * x_6_ - 23 x_11_ ^ 2 + 94 x_30_ * x_12_ + 24 x_15_ ^ 2 + 36 x_21_ * x_15_ - 38 x_41_ * x_15_ - 30 x_30_ * x_21_ + 32 x_41_ * x_25_ + 43 x_45_ ^ 2 - 35 x_47_ ^ 2 ] >= -7228
quadratic_ranged_29_lb: [ -24 x_4_ * x_30_ - 72 x_30_ * x_13_ + 14 x_26_ * x_18_ - 34 x_33_ * x_18_ - 96 x_33_ * x_26_ + 46 x_44_ * x_30_ ] >= 1412
quadratic_ranged_30_lb: [ 36 x_4_ * x_13_ - 90 x_29_ * x_13_ - 48 x_30_ * x_13_ - 92 x_31_ * x_13_ + 72 x_48_ * x_31_ ] >= 50
quadratic_ranged_31_lb: [ -30 x_40_ * x_1_ - 42 x_44_ * x_1_ + 12 x_50_ * x_1_ + 11 x_23_ ^ 2 + 54 x_35_ * x_23_ - 92 x_38_ * x_23_ + 92 x_44_ * x_23_ + 26 x_40_ * x_24_ - 8 x_44_ * x_24_ + 24 x_26_ ^ 2 - 8 x_42_ * x_26_ + 68 x_50_ * x_26_ + 82 x_44_ * x_35_ - 36 x_40_ ^ 2 - 8 x_42_ ^ 2 ] >= 4848
quadratic_ranged_32_lb: [ -24 x_23_ * x_4_ - 2 x_40_ * x_6_ + 24 x_37_ * x_19_ - 14 x_40_ * x_19_ - 25 x_23_ ^ 2 - 19 x_25_ ^ 2 + 26 x_44_ * x_37_ - 2 x_44_ * x_43_ + 22 x_44_ ^ 2 ] >= -3338
quadratic_ranged_33_lb: [ 24 x_17_ ^ 2 - 82 x_28_ * x_19_ - 66 x_50_ * x_19_ + 24 x_29_ * x_28_ - 10 x_41_ * x_28_ + 80 x_48_ * x_41_ + 28 x_50_ * x_41_ ] >= -5311
quadratic_ranged_34_lb: [ -42 x_10_ * x_8_ + 60 x_21_ * x_8_ - 84 x_18_ * x_10_ + 66 x_39_ * x_10_ + 6 x_11_ ^ 2 - 90 x_27_ * x_16_ - 78 x_39_ * x_16_ - 62 x_38_ * x_31_ ] >= 4434
quadratic_ranged_35_lb: [ 14 x_17_ * x_26_ + 90 x_38_ * x_28_ ] >= -2774
quadratic_ranged_36_lb: [ 48 x_35_ * x_8_ - 86 x_17_ * x_9_ - 26 x_24_ * x_9_ + 70 x_35_ * x_17_ + 15 x_24_ ^ 2 - 72 x_35_ * x_24_ - 66 x_36_ * x_24_ + 100 x_45_ * x_24_ - 30 x_36_ ^ 2 ] >= -4550
quadratic_ranged_37_lb: [ 26 x_10_ * x_2_ + 76 x_11_ * x_2_ + 70 x_28_ * x_10_ + 82 x_30_ * x_10_ + 62 x_50_ * x_10_ + 52 x_28_ * x_11_ + 64 x_50_ * x_11_ + 17 x_26_ ^ 2 + 64 x_28_ * x_26_ - 76 x_30_ * x_26_ - 80 x_46_ * x_26_ + 92 x_30_ * x_27_ + 50 x_46_ * x_29_ + 74 x_50_ * x_29_ ] >= 4078
quadratic_ranged_38_lb: [ 88 x_4_ * x_2_ + 50 x_5_ * x_2_ - 72 x_22_ * x_2_ - 10 x_43_ * x_2_ + 90 x_7_ * x_4_ + 98 x_22_ * x_4_ - 76 x_9_ * x_5_ - 37 x_7_ ^ 2 + 36 x_9_ * x_7_ ] >= 2908
quadratic_ranged_39_lb: [ 8 x_19_ * x_8_ - 68 x_29_ * x_8_ + 2 x_25_ * x_10_ - 98 x_28_ * x_10_ - 40 x_45_ * x_10_ + 58 x_49_ * x_10_ - 30 x_29_ * x_19_ - 34 x_36_ * x_19_ - 84 x_45_ * x_19_ - 86 x_49_ * x_19_ - 66 x_41_ * x_25_ + 30 x_45_ * x_25_ - 40 x_28_ ^ 2 - 11 x_36_ ^ 2 + 43 x_49_ ^ 2 ] >= 7342
quadratic_ranged_40_lb: [ -20 x_16_ ^ 2 + 78 x_43_ * x_16_ + 2 x_50_ * x_16_ + 80 x_45_ * x_26_ + 60 x_45_ * x_43_ ] >= -5401
quadratic_ranged_41_lb: [ -24 x_21_ * x_8_ + 64 x_24_ * x_8_ - 72 x_41_ * x_8_ - 70 x_48_ * x_8_ + 74 x_49_ * x_8_ - 28 x_28_ * x_11_ - 76 x_40_ * x_11_ + 70 x_41_ * x_11_ - 76 x_48_ * x_11_ - 26 x_29_ * x_13_ - 62 x_41_ * x_13_ + 16 x_41_ * x_21_ - 80 x_40_ * x_24_ - 14 x_41_ * x_24_ - 60 x_49_ * x_24_ + 40 x_48_ * x_28_ + 68 x_49_ * x_28_ + 96 x_40_ * x_29_ - 96 x_49_ * x_37_ + 62 x_47_ * x_39_ + 18 x_41_ * x_40_ + 35 x_49_ ^ 2 ] >= 7320
quadratic_ranged_42_lb: [ 23 x_6_ ^ 2 + 14 x_9_ * x_6_ - 62 x_18_ * x_6_ - 72 x_46_ * x_6_ + 44 x_16_ * x_9_ - 84 x_17_ * x_9_ + 30 x_15_ * x_13_ + 20 x_29_ * x_13_ - 98 x_35_ * x_13_ - 90 x_46_ * x_13_ + 32 x_16_ ^ 2 - 100 x_17_ * x_16_ - 20 x_18_ * x_16_ - 12 x_29_ * x_16_ - 26 x_17_ ^ 2 - 96 x_29_ * x_17_ - 14 x_18_ ^ 2 - 86 x_46_ * x_18_ ] >= 6653
c1: [ -36 x_14_ ^ 2 + 84 x_28_ * x_14_ + 78 x_32_ * x_14_ - 74 x_39_ * x_14_ + 28 x_25_ * x_22_ + 82 x_38_ * x_22_ - 84 x_27_ * x_25_ + 30 x_32_ * x_25_ - 76 x_39_ * x_25_ - 2 x_38_ * x_27_ + 68 x_39_ * x_27_ + 38 x_32_ * x_28_ - 30 x_45_ * x_32_ + 90 x_47_ * x_32_ + 2 x_49_ * x_32_ + 27 x_39_ ^ 2 - 88 x_47_ * x_39_ + 30 x_47_ * x_45_ + 33 x_47_ ^ 2 ] = -1176
c2: [ 32 x_6_ * x_1_ - 76 x_26_ * x_1_ - 18 x_28_ * x_1_ - 13 x_2_ ^ 2 - 26 x_6_ * x_2_ + 18 x_16_ * x_2_ - 92 x_42_ * x_2_ - 94 x_29_ * x_4_ - 38 x_28_ * x_6_ + 47 x_10_ ^ 2 - 74 x_28_ * x_10_ + 78 x_31_ * x_16_ - 22 x_42_ * x_16_ - 88 x_49_ * x_16_ + 28 x_28_ * x_26_ - 66 x_42_ * x_26_ + 34 x_49_ * x_26_ + 54 x_42_ * x_28_ - 82 x_42_ * x_29_ + 5 x_31_ ^ 2 ] = -7605
c3: [ 42 x_8_ * x_5_ + 42 x_46_ * x_5_ + 64 x_49_ * x_5_ + 80 x_50_ * x_8_ - 6 x_30_ * x_14_ + 58 x_38_ * x_14_ - 34 x_46_ ^ 2 + 56 x_50_ * x_49_ ] = 13034
c4: [ -66 x_31_ * x_15_ + 82 x_29_ * x_17_ - 80 x_31_ * x_17_ + 100 x_43_ * x_17_ + 3 x_31_ ^ 2 - 100 x_43_ * x_39_ - 50 x_48_ * x_39_ + 84 x_48_ * x_43_ ] = -4221
c5: [ 32 x_5_ * x_14_ + 76 x_24_ * x_5_ + 98 x_25_ * x_5_ + 36 x_29_ * x_5_ + 76 x_25_ * x_9_ - 16 x_33_ * x_9_ + 84 x_42_ * x_9_ + 50 x_35_ * x_14_ - 32 x_33_ * x_24_ + 58 x_42_ * x_24_ - 66 x_39_ * x_25_ + 26 x_35_ * x_33_ + 8 x_39_ * x_35_ - 48 x_39_ * x_37_ ] = 7896
c6: [ 64 x_45_ * x_2_ - 8 x_16_ ^ 2 + 30 x_38_ * x_21_ + 90 x_45_ * x_41_ ] = -1902
c7: [ -20 x_43_ * x_9_ + 50 x_43_ * x_10_ + 19 x_12_ ^ 2 - 58 x_27_ * x_12_ - 30 x_17_ ^ 2 - 90 x_27_ * x_17_ - 80 x_36_ * x_17_ + 82 x_43_ * x_17_ + 16 x_21_ ^ 2 - 58 x_36_ * x_27_ ] = -10588
c8: [ 5 x_5_ ^ 2 + 54 x_13_ * x_5_ + 16 x_15_ * x_5_ + 86 x_13_ * x_11_ + 28 x_31_ * x_13_ + 26 x_26_ * x_14_ + 8 x_36_ * x_14_ - 36 x_24_ * x_15_ - 60 x_31_ * x_15_ - 86 x_36_ * x_15_ + 49 x_24_ ^ 2 - 50 x_31_ * x_24_ - 14 x_38_ ^ 2 ] = -6305
c9: [ 30 x_9_ * x_1_ - 54 x_26_ * x_1_ - 50 x_23_ * x_5_ + 54 x_26_ * x_5_ + 48 x_9_ ^ 2 - 42 x_26_ * x_9_ - 38 x_30_ * x_9_ - 60 x_30_ * x_11_ + 62 x_30_ * x_23_ + 66 x_50_ * x_23_ + 50 x_50_ * x_30_ - 44 x_50_ ^ 2 ] = 694
c10: [ -15 x_8_ ^ 2 + 82 x_21_ * x_8_ - 84 x_46_ * x_8_ - 32 x_42_ * x_10_ + 20 x_21_ ^ 2 - 26 x_36_ * x_21_ + 30 x_42_ * x_21_ - 36 x_36_ ^ 2 - 26 x_44_ * x_36_ - 98 x_46_ * x_36_ ] = -1777
c11: [ -50 x_1_ ^ 2 - 12 x_44_ * x_1_ - 47 x_5_ ^ 2 - 24 x_8_ * x_5_ + 60 x_9_ * x_5_ - 11 x_8_ ^ 2 + 50 x_9_ * x_8_ - 86 x_37_ * x_8_ - 22 x_44_ * x_8_ - 32 x_47_ * x_8_ - 28 x_16_ * x_9_ - 30 x_19_ * x_9_ + 94 x_23_ * x_9_ + 18 x_34_ * x_9_ + 98 x_37_ * x_9_ + 16 x_44_ * x_9_ - 20 x_47_ * x_9_ + 50 x_16_ * x_10_ + 92 x_47_ * x_10_ + 31 x_13_ ^ 2 + 4 x_23_ * x_16_ + 26 x_24_ * x_16_ + 92 x_37_ * x_16_ + 38 x_44_ * x_16_ + 48 x_21_ * x_19_ - 48 x_38_ * x_21_ - 2 x_47_ * x_21_ - 62 x_24_ * x_23_ - 2 x_24_ ^ 2 - 94 x_39_ * x_37_ + 94 x_47_ * x_37_ ] = -1634
c12: [ -28 x_10_ * x_42_ + 72 x_33_ * x_15_ + 22 x_42_ * x_15_ ] = -2912
c13: [ -68 x_34_ * x_2_ + 38 x_39_ * x_15_ - 64 x_18_ * x_17_ - 28 x_34_ * x_17_ + 50 x_36_ * x_17_ - 52 x_39_ * x_17_ - 50 x_34_ * x_23_ + 82 x_50_ * x_23_ + 44 x_46_ * x_34_ - 5 x_39_ ^ 2 - 47 x_50_ ^ 2 ] = -771
c14: [ 50 x_24_ * x_5_ - 42 x_46_ * x_5_ + 22 x_14_ ^ 2 - 70 x_15_ * x_14_ + 68 x_50_ * x_14_ - 56 x_49_ * x_15_ - 88 x_29_ * x_24_ + 4 x_42_ * x_24_ - 86 x_42_ * x_29_ + 60 x_46_ * x_29_ + 60 x_46_ * x_36_ - 28 x_50_ * x_36_ + 28 x_46_ * x_40_ - 36 x_50_ * x_40_ + 4 x_42_ ^ 2 - 2 x_49_ * x_42_ + 12 x_49_ ^ 2 - 68 x_50_ * x_49_ + 10 x_50_ ^ 2 ] = 6734
c15: [ 22 x_17_ * x_39_ - 96 x_34_ * x_25_ ] = 3852
c16: [ -6 x_4_ * x_8_ - 72 x_44_ * x_4_ + 74 x_46_ * x_8_ - 30 x_46_ * x_22_ + 92 x_44_ * x_38_ ] = 4230
c17: [ -13 x_5_ ^ 2 + 10 x_20_ * x_5_ ] = -2200
c18: [ -42 x_1_ * x_19_ + 4 x_20_ * x_1_ ] = 300
c19: [ 32 x_2_ ^ 2 - 66 x_9_ * x_2_ + 46 x_39_ * x_2_ + 6 x_39_ * x_28_ - 30 x_49_ * x_30_ - 4 x_50_ * x_30_ - 9 x_50_ ^ 2 ] = 103
c20: [ -44 x_5_ * x_4_ + 32 x_21_ * x_4_ - 74 x_24_ * x_4_ + 29 x_5_ ^ 2 - 2 x_48_ * x_5_ - 18 x_21_ ^ 2 + 14 x_33_ * x_21_ - 3 x_28_ ^ 2 - 22 x_36_ * x_28_ - 40 x_42_ * x_28_ - 42 x_45_ * x_28_ - 14 x_48_ * x_28_ - 74 x_33_ * x_29_ - 52 x_43_ * x_29_ - 18 x_42_ * x_33_ - 40 x_42_ * x_36_ + 90 x_48_ * x_36_ + 12 x_44_ * x_42_ + 78 x_45_ * x_42_ - 76 x_48_ * x_43_ + 44 x_45_ * x_44_ ] = 4279
c21: [ 82 x_12_ * x_5_ - 70 x_47_ * x_5_ - 12 x_42_ * x_12_ + 41 x_24_ ^ 2 ] = -10895
c22: [ 27 x_14_ ^ 2 - 2 x_36_ ^ 2 - 64 x_42_ * x_36_ + 5 x_42_ ^ 2 ] = 3323
c23: [ 62 x_18_ * x_5_ - 35 x_12_ ^ 2 - 88 x_16_ * x_12_ + 74 x_18_ * x_16_ + 16 x_33_ * x_16_ - 12 x_23_ * x_18_ + 5 x_23_ ^ 2 - 28 x_50_ ^ 2 ] = 12354
c24: [ -70 x_24_ * x_12_ - 36 x_32_ * x_12_ + 22 x_19_ ^ 2 + 6 x_32_ ^ 2 ] = -5092
c25: [ 38 x_11_ * x_2_ + 18 x_19_ * x_2_ + 30 x_42_ * x_2_ - 34 x_38_ * x_5_ - 100 x_19_ * x_6_ + 94 x_21_ * x_9_ - 66 x_38_ * x_9_ - 70 x_16_ * x_11_ + 62 x_50_ * x_16_ + 12 x_40_ * x_19_ + 80 x_38_ * x_24_ + 82 x_40_ * x_24_ - 46 x_42_ * x_24_ + 94 x_42_ * x_38_ - 96 x_50_ * x_40_ - 39 x_42_ ^ 2 + 78 x_50_ * x_42_ ] = -8440
c26: [ 22 x_9_ * x_1_ - 24 x_29_ * x_1_ + 29 x_9_ ^ 2 + 90 x_22_ * x_15_ + 28 x_27_ * x_15_ + 34 x_22_ * x_16_ + 32 x_26_ * x_22_ + 18 x_45_ * x_22_ ] = 3155
c27: [ -92 x_34_ * x_8_ - 6 x_36_ * x_8_ - 78 x_39_ * x_8_ - 96 x_39_ * x_9_ - 20 x_36_ * x_28_ - 98 x_39_ * x_28_ + 80 x_40_ * x_28_ + 62 x_39_ * x_36_ + 23 x_40_ ^ 2 ] = 7543
c28: [ -48 x_4_ ^ 2 + 60 x_18_ * x_4_ + 60 x_19_ * x_4_ - 68 x_33_ * x_4_ - 92 x_37_ * x_4_ - 76 x_38_ * x_4_ - 8 x_10_ * x_5_ - 50 x_36_ * x_5_ + 14 x_43_ * x_5_ + 20 x_34_ * x_10_ - 52 x_38_ * x_10_ + 38 x_33_ * x_18_ + 66 x_33_ * x_30_ + 4 x_36_ * x_30_ + 34 x_37_ * x_33_ + 36 x_43_ * x_33_ + 16 x_34_ ^ 2 - 92 x_37_ * x_34_ - 43 x_36_ ^ 2 + 56 x_43_ * x_36_ + 28 x_49_ * x_36_ + 17 x_37_ ^ 2 - 68 x_43_ * x_38_ ] = 5607
c29: [ -66 x_8_ * x_19_ ] = 3696
c30: [ -16 x_40_ * x_6_ - 20 x_34_ * x_8_ + 20 x_40_ * x_8_ + 60 x_16_ * x_14_ + 60 x_35_ * x_14_ + 32 x_16_ ^ 2 - 6 x_19_ * x_16_ - 16 x_34_ * x_19_ + 21 x_24_ ^ 2 - 54 x_34_ * x_24_ + 42 x_35_ * x_24_ + 12 x_49_ * x_24_ + 25 x_32_ ^ 2 - 18 x_35_ * x_32_ + 72 x_40_ * x_32_ + 94 x_35_ * x_34_ + 31 x_35_ ^ 2 - 78 x_40_ * x_35_ ] = 9245
c31: [ -12 x_20_ * x_3_ + 47 x_33_ ^ 2 + 58 x_36_ * x_33_ + 24 x_36_ ^ 2 - 94 x_41_ * x_36_ ] = 5295
c32: [ 4 x_11_ * x_5_ + 60 x_18_ * x_5_ - 38 x_19_ * x_5_ + 34 x_18_ * x_8_ + 70 x_18_ * x_11_ - 4 x_29_ * x_11_ + 80 x_24_ * x_18_ - 38 x_45_ * x_18_ - 49 x_19_ ^ 2 + 88 x_29_ * x_19_ - 10 x_24_ ^ 2 - 2 x_45_ * x_24_ - 68 x_46_ * x_24_ - 44 x_28_ * x_25_ - 52 x_45_ * x_28_ + 100 x_45_ * x_29_ ] = 636
c33: [ 74 x_10_ * x_39_ + 44 x_50_ * x_10_ - 98 x_50_ * x_27_ + 90 x_49_ * x_34_ - 12 x_39_ * x_38_ - 2 x_43_ * x_38_ + 12 x_46_ * x_39_ - 42 x_49_ * x_39_ ] = -4148
c34: [ -19 x_2_ ^ 2 - 22 x_24_ * x_2_ + 60 x_25_ * x_2_ + 100 x_33_ * x_2_ - 86 x_44_ * x_3_ + 28 x_5_ ^ 2 + 98 x_45_ * x_24_ + 30 x_27_ * x_25_ + 45 x_33_ ^ 2 + 52 x_48_ * x_33_ + 8 x_48_ * x_44_ ] = 3224
c35: [ -90 x_9_ * x_3_ - 82 x_18_ * x_3_ + 40 x_29_ * x_9_ + 54 x_37_ * x_15_ + 21 x_18_ ^ 2 + 70 x_37_ * x_18_ - 18 x_37_ ^ 2 ] = -641
c36: [ -66 x_8_ * x_2_ + 4 x_9_ * x_2_ - 24 x_28_ * x_2_ + 40 x_39_ * x_2_ - 32 x_6_ ^ 2 - 86 x_38_ * x_6_ - 62 x_9_ * x_8_ + 66 x_32_ * x_8_ - 50 x_40_ * x_9_ - 2 x_30_ * x_21_ + 72 x_45_ * x_21_ + 78 x_32_ * x_30_ - 4 x_38_ * x_32_ + 34 x_39_ * x_32_ - 14 x_38_ ^ 2 + 28 x_40_ ^ 2 + 48 x_45_ * x_40_ ] = -1072
c37: [ -16 x_17_ * x_41_ - 30 x_43_ * x_17_ + 96 x_27_ * x_18_ - 76 x_41_ * x_24_ - 6 x_41_ * x_25_ - 54 x_41_ * x_27_ + 8 x_43_ * x_41_ + 84 x_46_ * x_41_ ] = 522
c38: [ 8 x_4_ ^ 2 - 30 x_19_ ^ 2 + 14 x_27_ ^ 2 ] = -1226
c39: [ -38 x_38_ * x_2_ + 52 x_50_ * x_2_ + 1 x_11_ ^ 2 + 22 x_26_ * x_14_ - 49 x_19_ ^ 2 - 16 x_35_ * x_26_ - 4 x_38_ * x_26_ - 37 x_38_ ^ 2 - 74 x_50_ * x_38_ + 23 x_50_ ^ 2 ] = -7408
c40: [ -64 x_6_ * x_4_ - 100 x_29_ * x_4_ + 18 x_6_ * x_5_ + 14 x_29_ * x_5_ + 4 x_35_ * x_6_ + 48 x_12_ ^ 2 - 2 x_16_ * x_12_ + 96 x_19_ * x_12_ + 12 x_20_ * x_12_ + 10 x_47_ * x_12_ - 42 x_47_ * x_35_ ] = 14144
c41: [ -86 x_46_ * x_9_ + 46 x_35_ * x_16_ - 4 x_44_ * x_39_ + 74 x_43_ * x_41_ - 50 x_43_ ^ 2 + 42 x_46_ * x_44_ ] = -8458
c42: [ -84 x_6_ * x_12_ + 8 x_22_ * x_6_ + 14 x_36_ * x_6_ - 50 x_41_ * x_6_ + 84 x_19_ * x_7_ + 38 x_41_ * x_7_ - 46 x_45_ * x_7_ + 62 x_38_ * x_9_ + 22 x_45_ * x_9_ - 26 x_22_ * x_12_ + 48 x_45_ * x_12_ + 44 x_36_ * x_19_ + 26 x_36_ * x_22_ + 84 x_38_ * x_22_ + 60 x_38_ * x_36_ ] = -2154
c43: [ -78 x_39_ * x_3_ - 70 x_46_ * x_3_ + 50 x_39_ * x_5_ - 10 x_6_ ^ 2 - 84 x_36_ * x_6_ + 30 x_39_ * x_36_ + 90 x_42_ * x_36_ + 66 x_46_ * x_36_ - 49 x_42_ ^ 2 + 98 x_46_ * x_42_ ] = -8174
c44: [ -78 x_18_ * x_1_ + 70 x_32_ * x_1_ + 8 x_39_ * x_1_ + 90 x_47_ * x_1_ + 48 x_15_ * x_5_ + 78 x_34_ * x_5_ + 22 x_48_ * x_5_ - 78 x_17_ * x_13_ - 52 x_29_ * x_13_ + 62 x_39_ * x_13_ - 16 x_40_ * x_13_ + 8 x_45_ * x_13_ + 82 x_18_ * x_15_ - 20 x_20_ * x_15_ + 24 x_36_ * x_15_ - 82 x_47_ * x_15_ + 68 x_27_ * x_17_ + 60 x_29_ * x_17_ - 26 x_32_ * x_17_ - 60 x_39_ * x_17_ - 50 x_40_ * x_17_ + 94 x_26_ * x_18_ + 42 x_39_ * x_18_ - 58 x_40_ * x_18_ - 76 x_45_ * x_18_ + 98 x_32_ * x_20_ - 94 x_40_ * x_20_ - 58 x_45_ * x_20_ - 14 x_48_ * x_20_ - 12 x_39_ * x_26_ + 32 x_40_ * x_26_ + 72 x_47_ * x_26_ + 24 x_48_ * x_26_ - 37 x_27_ ^ 2 + 8 x_39_ * x_34_ + 96 x_47_ * x_34_ + 19 x_39_ ^ 2 - 2 x_40_ * x_39_ - 24 x_45_ * x_39_ + 30 x_45_ * x_40_ + 18 x_48_ * x_47_ - 3 x_48_ ^ 2 ] = -19532
c45: [ 78 x_17_ * x_7_ + 56 x_20_ * x_7_ + 10 x_35_ * x_7_ - 46 x_42_ * x_7_ - 16 x_30_ * x_17_ - 11 x_20_ ^ 2 + 64 x_48_ * x_20_ + 66 x_48_ * x_35_ ] = 7311
c46: [ 80 x_4_ * x_2_ - 8 x_4_ ^ 2 - 58 x_15_ * x_4_ - 70 x_16_ * x_4_ - 74 x_23_ * x_4_ + 64 x_35_ * x_4_ - 46 x_41_ * x_5_ + 24 x_33_ * x_15_ + 8 x_41_ * x_15_ + 36 x_44_ * x_15_ + 94 x_45_ * x_15_ + 2 x_35_ * x_16_ - 8 x_44_ * x_16_ + 84 x_47_ * x_16_ + 31 x_23_ ^ 2 + 42 x_35_ * x_23_ - 8 x_44_ * x_23_ + 38 x_33_ ^ 2 - 18 x_44_ * x_41_ - 98 x_45_ * x_41_ - 12 x_47_ * x_41_ - 30 x_47_ * x_44_ - 47 x_47_ ^ 2 ] = 2254
c47: [ -74 x_9_ * x_7_ - 25 x_9_ ^ 2 + 96 x_11_ * x_10_ + 26 x_22_ * x_10_ - 36 x_28_ * x_10_ - 60 x_22_ * x_11_ - 36 x_49_ * x_11_ + 78 x_32_ * x_16_ - 50 x_45_ * x_28_ ] = -1921
c48: [ -20 x_7_ * x_1_ + 64 x_21_ * x_1_ - 78 x_7_ * x_3_ + 42 x_20_ * x_3_ - 24 x_42_ * x_3_ + 6 x_7_ ^ 2 - 48 x_31_ * x_7_ + 19 x_20_ ^ 2 - 24 x_31_ * x_20_ + 54 x_33_ * x_20_ - 90 x_31_ * x_21_ + 90 x_42_ * x_21_ + 76 x_43_ * x_42_ - 7 x_43_ ^ 2 ] = -3814
c49: [ 52 x_4_ * x_2_ + 2 x_33_ * x_2_ - 20 x_32_ * x_4_ + 36 x_35_ * x_4_ + 2 x_21_ * x_8_ + 48 x_25_ * x_8_ + 78 x_45_ * x_8_ - 60 x_34_ * x_9_ - 19 x_21_ ^ 2 + 10 x_32_ * x_21_ + 20 x_42_ * x_21_ + 2 x_34_ * x_25_ + 88 x_39_ * x_25_ + 48 x_33_ * x_32_ - 62 x_42_ * x_34_ + 70 x_42_ * x_39_ + 52 x_45_ * x_39_ + 24 x_45_ ^ 2 ] = -3879
c50: [ 32 x_39_ * x_3_ + 30 x_9_ * x_8_ - 46 x_10_ * x_9_ + 40 x_10_ ^ 2 + 42 x_39_ * x_10_ + 76 x_39_ * x_23_ ] = 4484
c51: [ 45 x_1_ ^ 2 - 90 x_32_ * x_1_ + 28 x_18_ * x_5_ + 5 x_7_ ^ 2 + 36 x_18_ * x_7_ + 36 x_24_ * x_7_ - 60 x_34_ * x_7_ + 62 x_17_ * x_12_ - 88 x_32_ * x_12_ - 18 x_34_ * x_12_ - 60 x_24_ * x_17_ + 88 x_26_ * x_17_ + 16 x_31_ * x_17_ - 86 x_24_ * x_18_ + 30 x_26_ * x_18_ + 10 x_27_ * x_24_ - 31 x_26_ ^ 2 + 74 x_31_ * x_26_ - 56 x_32_ * x_26_ - 24 x_31_ ^ 2 + 44 x_32_ ^ 2 ] = -5949
c52: [ 34 x_37_ * x_4_ + 2 x_42_ * x_5_ - 54 x_36_ * x_24_ - 37 x_30_ ^ 2 + 40 x_34_ * x_30_ - 86 x_37_ * x_30_ - 96 x_42_ * x_30_ - 44 x_42_ * x_33_ + 18 x_36_ * x_34_ - 100 x_50_ * x_34_ - 36 x_36_ ^ 2 + 68 x_42_ * x_36_ + 17 x_37_ ^ 2 - 98 x_50_ * x_37_ - 38 x_50_ * x_42_ ] = -5174
c53: [ -52 x_32_ * x_7_ - 48 x_42_ * x_7_ - 43 x_8_ ^ 2 + 6 x_13_ ^ 2 - 60 x_27_ * x_13_ + 6 x_32_ * x_27_ - 84 x_42_ * x_31_ ] = -1005
c54: [ -22 x_4_ * x_6_ - 68 x_9_ * x_4_ + 96 x_30_ * x_4_ - 82 x_15_ * x_6_ - 10 x_30_ * x_9_ + 70 x_30_ * x_15_ ] = -2472
c55: [ -66 x_2_ * x_15_ - 54 x_32_ * x_2_ - 6 x_15_ * x_12_ + 48 x_16_ * x_12_ + 78 x_30_ * x_12_ + 34 x_30_ * x_15_ + 68 x_32_ * x_15_ - 36 x_30_ * x_26_ + 48 x_49_ * x_32_ ] = -600
c56: [ 44 x_32_ * x_7_ - 52 x_41_ * x_7_ - 22 x_45_ * x_7_ + 40 x_23_ * x_18_ + 16 x_30_ * x_18_ + 28 x_32_ * x_18_ + 18 x_41_ * x_30_ - 82 x_45_ * x_30_ - 86 x_45_ * x_41_ - 28 x_45_ ^ 2 ] = 708
c57: [ -18 x_2_ ^ 2 - 28 x_5_ * x_2_ - 16 x_26_ * x_2_ - 66 x_37_ * x_2_ - 50 x_26_ * x_4_ + 84 x_37_ * x_5_ - 54 x_50_ * x_5_ + 100 x_17_ * x_14_ - 2 x_50_ * x_14_ - 1 x_17_ ^ 2 + 16 x_48_ * x_26_ - 80 x_42_ * x_37_ - 45 x_42_ ^ 2 - 34 x_50_ ^ 2 ] = -2751
c58: [ 86 x_21_ * x_8_ + 20 x_26_ * x_8_ - 66 x_35_ * x_8_ + 60 x_37_ * x_20_ - 38 x_45_ * x_20_ + 18 x_48_ * x_20_ - 26 x_35_ * x_21_ - 78 x_48_ * x_21_ - 6 x_45_ * x_26_ + 86 x_48_ * x_37_ - 12 x_48_ ^ 2 ] = -2484
Bounds
-1 <= x_1_ <= 8
-4 <= x_2_ <= 9
-2 <= x_3_ <= 4
-1 <= x_4_ <= 4
-7 <= x_5_ <= 10
-5 <= x_6_ <= 7
-8 <= x_7_ <= 5
-7 <= x_8_ <= 10
-2 <= x_9_ <= 3
-2 <= x_10_ <= 7
-3 <= x_11_ <= 10
-10 <= x_12_ <= 0
x_13_ = 3
5 <= x_14_ <= 7
-10 <= x_15_ <= -4
6 <= x_16_ <= 9
-10 <= x_17_ <= 10
1 <= x_18_ <= 10
-9 <= x_19_ <= 6
-10 <= x_20_ <= -8
-2 <= x_21_ <= 4
-10 <= x_22_ <= 4
-10 <= x_23_ <= 4
-9 <= x_24_ <= 4
-3 <= x_25_ <= 7
-9 <= x_26_ <= 6
-8 <= x_27_ <= 2
-10 <= x_28_ <= -4
6 <= x_29_ <= 8
-7 <= x_30_ <= 9
-10 <= x_31_ <= 8
-10 <= x_32_ <= 6
-10 <= x_33_ <= 8
-6 <= x_34_ <= 4
-7 <= x_35_ <= 3
-10 <= x_36_ <= 10
-5 <= x_37_ <= 6
-3 <= x_38_ <= 8
-9 <= x_39_ <= 6
-9 <= x_40_ <= -2
-4 <= x_41_ <= 9
-3 <= x_42_ <= 5
-10 <= x_43_ <= 5
-10 <= x_44_ <= 6
-5 <= x_45_ <= 2
0 <= x_46_ <= 7
5 <= x_47_ <= 10
-5 <= x_48_ <= 3
-9 <= x_49_ <= 10
-10 <= x_50_ <= 2
General
x_1_
x_2_
x_3_
x_4_
x_5_
x_6_
x_7_
x_8_
x_9_
x_10_
x_11_
x_12_
x_13_
x_14_
x_15_
x_16_
x_17_
x_18_
x_19_
x_20_
x_21_
x_22_
x_23_
x_24_
x_25_
x_26_
x_27_
x_28_
x_29_
x_30_
x_31_
x_32_
x_33_
x_34_
x_35_
x_36_
x_37_
x_38_
x_39_
x_40_
x_41_
x_42_
x_43_
x_44_
x_45_
x_46_
x_47_
x_48_
x_49_
x_50_
End
