minimize
obj: 
subject to
quadratic_ranged_1_ub: [ -2 x_10_ * x_31_ + 64 x_42_ * x_20_ ] <= 22
quadratic_ranged_2_ub: [ 88 x_2_ * x_23_ - 46 x_28_ * x_2_ + 58 x_39_ * x_2_ + 98 x_26_ * x_4_ - 56 x_28_ * x_4_ + 80 x_23_ * x_15_ - 82 x_39_ * x_15_ - 52 x_43_ * x_20_ + 62 x_26_ * x_23_ - 56 x_35_ * x_26_ - 30 x_43_ * x_26_ + 76 x_35_ * x_28_ ] <= -2421
quadratic_ranged_3_ub: [ 26 x_14_ * x_19_ - 74 x_22_ * x_14_ - 30 x_29_ * x_14_ + 28 x_41_ * x_14_ + 74 x_25_ * x_19_ + 8 x_29_ * x_19_ + 34 x_41_ * x_29_ ] <= 3467
quadratic_ranged_4_ub: [ 94 x_3_ * x_27_ + 22 x_20_ * x_18_ + 18 x_49_ * x_18_ - 30 x_27_ * x_20_ + 56 x_46_ * x_22_ ] <= 7656
quadratic_ranged_5_ub: [ 62 x_6_ * x_9_ + 8 x_20_ * x_6_ - 18 x_33_ * x_6_ + 84 x_33_ * x_20_ ] <= 3303
quadratic_ranged_6_ub: [ -30 x_3_ * x_4_ + 30 x_6_ * x_3_ - 88 x_6_ * x_4_ - 14 x_36_ * x_13_ + 32 x_39_ * x_13_ ] <= 6916
quadratic_ranged_7_ub: [ -10 x_5_ * x_8_ + 92 x_12_ * x_10_ - 4 x_44_ * x_12_ ] <= 6275
quadratic_ranged_8_ub: [ -20 x_3_ * x_16_ - 96 x_21_ * x_3_ - 28 x_47_ * x_3_ - 70 x_40_ * x_5_ + 24 x_45_ * x_5_ + 18 x_8_ * x_7_ + 90 x_11_ * x_7_ + 36 x_13_ * x_7_ - 82 x_21_ * x_7_ - 100 x_35_ * x_7_ + 86 x_37_ * x_7_ + 12 x_42_ * x_7_ - 54 x_47_ * x_7_ - 56 x_20_ * x_8_ + 72 x_33_ * x_8_ + 8 x_20_ * x_11_ - 66 x_33_ * x_11_ - 48 x_35_ * x_13_ + 6 x_37_ * x_13_ - 36 x_40_ * x_13_ - 2 x_45_ * x_13_ - 66 x_37_ * x_16_ + 14 x_42_ * x_16_ - 70 x_20_ * x_17_ + 86 x_33_ * x_17_ - 24 x_33_ * x_21_ + 4 x_35_ * x_21_ - 68 x_37_ * x_21_ - 4 x_35_ * x_33_ + 64 x_45_ * x_33_ + 80 x_42_ * x_37_ + 56 x_45_ * x_37_ + 82 x_45_ * x_40_ + 24 x_47_ * x_45_ ] <= 4101
quadratic_ranged_9_ub: [ 36 x_2_ * x_48_ - 70 x_50_ * x_15_ - 18 x_50_ * x_45_ ] <= -3319
quadratic_ranged_10_ub: [ -68 x_5_ * x_23_ - 76 x_31_ * x_5_ - 64 x_39_ * x_5_ + 86 x_8_ * x_7_ + 16 x_14_ * x_7_ + 90 x_16_ * x_7_ + 54 x_23_ * x_7_ + 12 x_24_ * x_7_ + 18 x_30_ * x_7_ - 2 x_41_ * x_7_ + 28 x_16_ * x_8_ + 46 x_31_ * x_8_ - 8 x_33_ * x_8_ - 58 x_31_ * x_14_ + 18 x_30_ * x_16_ + 70 x_39_ * x_16_ + 86 x_41_ * x_23_ + 12 x_30_ * x_24_ - 82 x_33_ * x_24_ - 90 x_39_ * x_24_ + 12 x_39_ * x_30_ ] <= 1304
quadratic_ranged_11_ub: [ 78 x_1_ * x_5_ - 48 x_36_ * x_1_ + 26 x_36_ * x_4_ + 2 x_8_ * x_5_ + 18 x_11_ * x_5_ + 26 x_22_ * x_5_ - 66 x_36_ * x_5_ - 14 x_22_ * x_8_ - 54 x_33_ * x_11_ + 48 x_36_ * x_11_ + 58 x_30_ * x_22_ - 52 x_31_ * x_22_ + 24 x_36_ * x_30_ - 4 x_33_ * x_31_ + 66 x_36_ * x_33_ + 52 x_47_ * x_33_ ] <= -2693
quadratic_ranged_12_ub: [ -72 x_2_ * x_23_ + 36 x_21_ * x_11_ - 90 x_24_ * x_13_ - 36 x_24_ * x_14_ - 46 x_24_ * x_21_ + 24 x_33_ * x_23_ + 84 x_25_ * x_24_ ] <= 16286
quadratic_ranged_13_ub: [ -10 x_19_ * x_44_ + 54 x_27_ * x_20_ - 32 x_25_ * x_24_ - 4 x_26_ * x_25_ + 28 x_27_ * x_25_ - 44 x_44_ * x_25_ + 54 x_27_ * x_26_ - 2 x_44_ * x_27_ ] <= 101
quadratic_ranged_14_ub: [ -100 x_1_ * x_5_ + 78 x_19_ * x_1_ - 78 x_19_ * x_2_ + 86 x_30_ * x_2_ + 34 x_45_ * x_2_ - 2 x_20_ * x_3_ + 90 x_20_ * x_5_ - 36 x_20_ * x_14_ + 28 x_45_ * x_19_ - 94 x_48_ * x_20_ + 54 x_45_ * x_30_ ] <= 8608
quadratic_ranged_15_ub: [ 40 x_9_ * x_13_ + 34 x_31_ * x_10_ - 84 x_31_ * x_13_ - 38 x_48_ * x_13_ + 70 x_17_ * x_14_ - 62 x_50_ * x_14_ - 42 x_50_ * x_17_ - 64 x_50_ * x_37_ ] <= 3844
quadratic_ranged_16_ub: [ -8 x_2_ * x_32_ - 94 x_35_ * x_2_ + 96 x_21_ * x_4_ - 22 x_21_ * x_16_ + 32 x_29_ * x_16_ + 76 x_21_ * x_17_ - 16 x_32_ * x_17_ - 30 x_37_ * x_17_ - 22 x_35_ * x_29_ + 16 x_37_ * x_32_ - 46 x_37_ * x_35_ ] <= 9163
quadratic_ranged_17_ub: [ 72 x_3_ * x_6_ - 4 x_13_ * x_4_ - 62 x_17_ * x_4_ + 18 x_20_ * x_4_ - 56 x_41_ * x_4_ - 44 x_49_ * x_4_ - 58 x_9_ * x_6_ - 38 x_17_ * x_9_ + 84 x_41_ * x_9_ + 40 x_20_ * x_13_ + 4 x_49_ * x_13_ ] <= 1047
quadratic_ranged_18_ub: [ -34 x_4_ * x_24_ - 82 x_34_ * x_4_ ] <= -1292
quadratic_ranged_19_ub: [ -88 x_4_ * x_17_ - 78 x_31_ * x_15_ - 86 x_32_ * x_15_ + 26 x_48_ * x_15_ + 50 x_17_ * x_16_ - 12 x_22_ * x_16_ - 4 x_49_ * x_16_ + 92 x_32_ * x_22_ - 38 x_48_ * x_22_ + 38 x_49_ * x_36_ ] <= 5420
quadratic_ranged_20_ub: [ -88 x_5_ * x_18_ - 20 x_25_ * x_5_ - 100 x_43_ * x_5_ + 38 x_49_ * x_5_ - 52 x_12_ * x_8_ - 60 x_15_ * x_8_ + 38 x_18_ * x_12_ + 30 x_29_ * x_12_ - 6 x_33_ * x_12_ + 96 x_26_ * x_13_ - 76 x_43_ * x_13_ + 12 x_24_ * x_15_ + 54 x_29_ * x_26_ - 16 x_33_ * x_26_ - 10 x_49_ * x_26_ + 14 x_43_ * x_29_ - 32 x_37_ * x_33_ - 100 x_49_ * x_33_ ] <= -2355
quadratic_ranged_21_ub: [ -22 x_9_ * x_31_ - 50 x_47_ * x_9_ + 38 x_48_ * x_9_ + 68 x_19_ * x_15_ + 14 x_23_ * x_15_ - 98 x_47_ * x_18_ - 30 x_29_ * x_19_ + 82 x_48_ * x_19_ - 80 x_45_ * x_23_ - 100 x_47_ * x_27_ - 56 x_31_ * x_29_ + 84 x_47_ * x_29_ - 98 x_48_ * x_29_ - 78 x_48_ * x_34_ + 20 x_47_ * x_40_ + 16 x_47_ * x_43_ - 6 x_48_ * x_43_ ] <= 23261
quadratic_ranged_22_ub: [ 2 x_1_ * x_17_ - 50 x_22_ * x_1_ + 98 x_45_ * x_1_ + 54 x_17_ * x_2_ - 36 x_25_ * x_2_ - 82 x_45_ * x_17_ ] <= 29
quadratic_ranged_23_ub: [ 40 x_2_ * x_41_ + 12 x_43_ * x_26_ - 76 x_41_ * x_36_ ] <= 1672
quadratic_ranged_24_ub: [ 22 x_14_ * x_41_ + 100 x_44_ * x_14_ + 78 x_39_ * x_18_ - 56 x_29_ * x_22_ + 90 x_41_ * x_29_ - 74 x_44_ * x_29_ ] <= -4547
quadratic_ranged_25_ub: [ 36 x_2_ * x_4_ - 56 x_22_ * x_2_ - 90 x_39_ * x_2_ - 42 x_35_ * x_4_ - 8 x_46_ * x_4_ - 42 x_17_ * x_16_ - 98 x_20_ * x_16_ + 64 x_25_ * x_16_ - 52 x_49_ * x_16_ + 40 x_20_ * x_17_ - 64 x_50_ * x_17_ + 22 x_39_ * x_20_ - 64 x_45_ * x_20_ - 44 x_49_ * x_20_ - 30 x_39_ * x_22_ - 60 x_45_ * x_25_ + 100 x_49_ * x_25_ + 78 x_50_ * x_25_ + 84 x_35_ * x_26_ + 36 x_45_ * x_35_ ] <= 6434
quadratic_ranged_26_ub: [ 12 x_8_ * x_24_ - 86 x_38_ * x_24_ ] <= -5864
quadratic_ranged_27_ub: [ 2 x_10_ * x_12_ + 32 x_40_ * x_10_ - 10 x_33_ * x_12_ + 40 x_50_ * x_12_ - 78 x_50_ * x_31_ ] <= 5365
quadratic_ranged_28_ub: [ -88 x_5_ * x_34_ + 66 x_15_ * x_10_ + 2 x_16_ * x_12_ - 38 x_16_ * x_15_ - 64 x_31_ * x_15_ + 78 x_39_ * x_15_ - 98 x_17_ * x_16_ - 74 x_31_ * x_16_ - 30 x_39_ * x_34_ ] <= -1571
quadratic_ranged_29_ub: [ 62 x_2_ * x_14_ - 94 x_24_ * x_2_ + 28 x_29_ * x_2_ - 22 x_48_ * x_2_ - 76 x_24_ * x_12_ + 14 x_24_ * x_14_ - 32 x_29_ * x_14_ + 100 x_24_ * x_20_ - 26 x_26_ * x_20_ - 24 x_49_ * x_20_ - 62 x_26_ * x_23_ + 60 x_48_ * x_29_ ] <= -2643
quadratic_ranged_30_ub: [ 60 x_3_ * x_16_ + 2 x_49_ * x_3_ - 88 x_49_ * x_13_ - 92 x_49_ * x_16_ ] <= 2949
quadratic_ranged_31_ub: [ -78 x_2_ * x_24_ + 46 x_30_ * x_4_ ] <= 5482
quadratic_ranged_32_ub: [ 54 x_5_ * x_18_ - 36 x_46_ * x_5_ ] <= 147
quadratic_ranged_33_ub: [ -12 x_7_ * x_11_ - 4 x_17_ * x_7_ - 38 x_37_ * x_7_ - 94 x_43_ * x_7_ + 32 x_19_ * x_11_ - 50 x_38_ * x_11_ + 50 x_50_ * x_11_ + 86 x_19_ * x_17_ - 30 x_50_ * x_17_ + 22 x_43_ * x_19_ - 26 x_32_ * x_20_ + 22 x_36_ * x_20_ + 34 x_38_ * x_20_ + 38 x_36_ * x_22_ + 50 x_47_ * x_22_ + 16 x_36_ * x_32_ + 82 x_43_ * x_32_ + 68 x_43_ * x_36_ + 52 x_50_ * x_36_ - 12 x_38_ * x_37_ - 8 x_47_ * x_37_ - 58 x_47_ * x_38_ ] <= -1969
quadratic_ranged_34_ub: [ 70 x_29_ * x_41_ ] <= -1118
quadratic_ranged_35_ub: [ -42 x_1_ * x_35_ - 66 x_42_ * x_18_ - 10 x_42_ * x_32_ - 54 x_42_ * x_35_ ] <= -249
quadratic_ranged_36_ub: [ -46 x_1_ * x_4_ - 90 x_25_ * x_1_ - 50 x_25_ * x_6_ - 46 x_48_ * x_6_ - 18 x_43_ * x_24_ + 42 x_43_ * x_30_ ] <= -5075
quadratic_ranged_37_ub: [ 92 x_2_ * x_9_ - 46 x_11_ * x_2_ + 46 x_19_ * x_2_ + 24 x_26_ * x_2_ + 62 x_39_ * x_2_ + 66 x_11_ * x_9_ - 14 x_16_ * x_9_ + 44 x_26_ * x_9_ - 8 x_28_ * x_9_ - 60 x_29_ * x_11_ + 82 x_42_ * x_11_ - 6 x_44_ * x_11_ - 32 x_49_ * x_11_ - 98 x_19_ * x_16_ + 76 x_26_ * x_16_ - 50 x_39_ * x_16_ - 58 x_44_ * x_16_ + 62 x_49_ * x_16_ + 44 x_19_ * x_18_ - 4 x_24_ * x_18_ + 68 x_39_ * x_18_ - 24 x_42_ * x_18_ + 4 x_44_ * x_18_ + 40 x_28_ * x_19_ - 34 x_39_ * x_19_ - 94 x_49_ * x_19_ - 16 x_26_ * x_24_ + 72 x_28_ * x_24_ + 68 x_42_ * x_24_ + 56 x_28_ * x_26_ + 98 x_29_ * x_26_ - 74 x_39_ * x_26_ + 10 x_44_ * x_26_ + 96 x_35_ * x_28_ + 72 x_49_ * x_28_ - 72 x_39_ * x_29_ ] <= -10968
quadratic_ranged_38_ub: [ 22 x_2_ * x_25_ - 22 x_36_ * x_2_ - 90 x_33_ * x_12_ + 26 x_41_ * x_33_ + 54 x_42_ * x_36_ - 50 x_45_ * x_36_ - 58 x_47_ * x_45_ ] <= -1928
quadratic_ranged_39_ub: [ -60 x_2_ * x_19_ - 90 x_41_ * x_2_ + 18 x_12_ * x_4_ - 32 x_37_ * x_4_ - 96 x_8_ * x_7_ - 16 x_28_ * x_7_ + 84 x_43_ * x_7_ + 80 x_49_ * x_7_ + 4 x_12_ * x_8_ - 8 x_28_ * x_8_ - 86 x_37_ * x_8_ - 70 x_43_ * x_8_ - 30 x_44_ * x_8_ - 30 x_19_ * x_12_ - 22 x_23_ * x_12_ - 6 x_43_ * x_19_ + 8 x_49_ * x_19_ + 40 x_43_ * x_28_ - 30 x_48_ * x_34_ + 32 x_49_ * x_34_ + 66 x_48_ * x_41_ - 68 x_49_ * x_43_ ] <= 3921
quadratic_ranged_40_ub: [ -86 x_6_ * x_11_ - 94 x_28_ * x_12_ - 16 x_28_ * x_25_ ] <= 8925
quadratic_ranged_41_ub: [ 82 x_3_ * x_17_ - 30 x_25_ * x_3_ + 38 x_17_ * x_5_ - 76 x_41_ * x_25_ ] <= -5210
quadratic_ranged_42_ub: [ 66 x_16_ * x_49_ ] <= 0
quadratic_ranged_43_ub: [ 22 x_6_ * x_7_ + 52 x_16_ * x_6_ - 32 x_23_ * x_6_ - 70 x_16_ * x_7_ - 52 x_34_ * x_7_ - 84 x_44_ * x_11_ - 100 x_45_ * x_11_ + 64 x_34_ * x_16_ - 68 x_42_ * x_19_ + 40 x_34_ * x_23_ - 50 x_45_ * x_23_ ] <= -5011
quadratic_ranged_44_ub: [ 88 x_1_ * x_25_ - 62 x_28_ * x_1_ + 18 x_37_ * x_1_ - 100 x_48_ * x_1_ - 6 x_8_ * x_4_ + 32 x_40_ * x_4_ + 44 x_48_ * x_4_ - 20 x_25_ * x_8_ + 62 x_32_ * x_8_ + 48 x_36_ * x_8_ - 44 x_37_ * x_8_ - 24 x_40_ * x_8_ + 50 x_32_ * x_15_ - 16 x_25_ * x_22_ - 50 x_28_ * x_22_ + 4 x_45_ * x_25_ - 8 x_48_ * x_25_ + 26 x_48_ * x_28_ + 34 x_36_ * x_32_ - 94 x_40_ * x_34_ + 52 x_48_ * x_34_ + 10 x_37_ * x_36_ - 80 x_40_ * x_36_ ] <= -9074
quadratic_ranged_45_ub: [ 4 x_1_ * x_46_ + 44 x_46_ * x_9_ - 100 x_46_ * x_14_ + 74 x_25_ * x_19_ ] <= 2613
quadratic_ranged_46_ub: [ 98 x_6_ * x_36_ + 64 x_42_ * x_6_ + 6 x_48_ * x_6_ - 76 x_25_ * x_10_ - 52 x_36_ * x_25_ - 12 x_48_ * x_25_ + 42 x_50_ * x_25_ + 48 x_42_ * x_31_ + 48 x_48_ * x_31_ + 28 x_36_ * x_34_ - 60 x_42_ * x_36_ + 48 x_45_ * x_36_ + 42 x_48_ * x_36_ + 56 x_49_ * x_36_ - 66 x_50_ * x_42_ ] <= 6571
quadratic_ranged_47_ub: [ 50 x_1_ * x_19_ - 26 x_23_ * x_1_ + 86 x_38_ * x_1_ + 22 x_23_ * x_4_ - 68 x_39_ * x_4_ + 32 x_49_ * x_4_ + 10 x_19_ * x_7_ - 44 x_40_ * x_7_ + 34 x_43_ * x_7_ + 6 x_38_ * x_10_ - 26 x_41_ * x_10_ - 76 x_14_ * x_11_ - 72 x_37_ * x_11_ + 34 x_39_ * x_11_ + 96 x_37_ * x_14_ + 88 x_40_ * x_14_ + 6 x_41_ * x_19_ + 14 x_38_ * x_23_ - 30 x_40_ * x_23_ + 82 x_41_ * x_23_ + 6 x_49_ * x_23_ + 30 x_39_ * x_37_ + 24 x_49_ * x_37_ + 18 x_49_ * x_38_ - 44 x_41_ * x_39_ - 90 x_43_ * x_40_ - 62 x_49_ * x_40_ - 12 x_49_ * x_41_ ] <= -3061
quadratic_ranged_48_ub: [ 74 x_1_ * x_33_ - 50 x_30_ * x_4_ - 4 x_27_ * x_11_ - 78 x_35_ * x_11_ - 14 x_30_ * x_14_ + 58 x_33_ * x_19_ - 76 x_30_ * x_27_ - 56 x_35_ * x_27_ - 100 x_33_ * x_30_ - 42 x_44_ * x_35_ ] <= 446
quadratic_ranged_49_ub: [ 60 x_6_ * x_33_ - 70 x_33_ * x_16_ - 70 x_33_ * x_17_ - 22 x_33_ * x_22_ - 16 x_38_ * x_33_ ] <= 4053
quadratic_ranged_1_lb: [ -2 x_10_ * x_31_ + 64 x_42_ * x_20_ ] >= 17
quadratic_ranged_2_lb: [ 88 x_2_ * x_23_ - 46 x_28_ * x_2_ + 58 x_39_ * x_2_ + 98 x_26_ * x_4_ - 56 x_28_ * x_4_ + 80 x_23_ * x_15_ - 82 x_39_ * x_15_ - 52 x_43_ * x_20_ + 62 x_26_ * x_23_ - 56 x_35_ * x_26_ - 30 x_43_ * x_26_ + 76 x_35_ * x_28_ ] >= -2429
quadratic_ranged_3_lb: [ 26 x_14_ * x_19_ - 74 x_22_ * x_14_ - 30 x_29_ * x_14_ + 28 x_41_ * x_14_ + 74 x_25_ * x_19_ + 8 x_29_ * x_19_ + 34 x_41_ * x_29_ ] >= 3463
quadratic_ranged_4_lb: [ 94 x_3_ * x_27_ + 22 x_20_ * x_18_ + 18 x_49_ * x_18_ - 30 x_27_ * x_20_ + 56 x_46_ * x_22_ ] >= 7651
quadratic_ranged_5_lb: [ 62 x_6_ * x_9_ + 8 x_20_ * x_6_ - 18 x_33_ * x_6_ + 84 x_33_ * x_20_ ] >= 3297
quadratic_ranged_6_lb: [ -30 x_3_ * x_4_ + 30 x_6_ * x_3_ - 88 x_6_ * x_4_ - 14 x_36_ * x_13_ + 32 x_39_ * x_13_ ] >= 6912
quadratic_ranged_7_lb: [ -10 x_5_ * x_8_ + 92 x_12_ * x_10_ - 4 x_44_ * x_12_ ] >= 6266
quadratic_ranged_8_lb: [ -20 x_3_ * x_16_ - 96 x_21_ * x_3_ - 28 x_47_ * x_3_ - 70 x_40_ * x_5_ + 24 x_45_ * x_5_ + 18 x_8_ * x_7_ + 90 x_11_ * x_7_ + 36 x_13_ * x_7_ - 82 x_21_ * x_7_ - 100 x_35_ * x_7_ + 86 x_37_ * x_7_ + 12 x_42_ * x_7_ - 54 x_47_ * x_7_ - 56 x_20_ * x_8_ + 72 x_33_ * x_8_ + 8 x_20_ * x_11_ - 66 x_33_ * x_11_ - 48 x_35_ * x_13_ + 6 x_37_ * x_13_ - 36 x_40_ * x_13_ - 2 x_45_ * x_13_ - 66 x_37_ * x_16_ + 14 x_42_ * x_16_ - 70 x_20_ * x_17_ + 86 x_33_ * x_17_ - 24 x_33_ * x_21_ + 4 x_35_ * x_21_ - 68 x_37_ * x_21_ - 4 x_35_ * x_33_ + 64 x_45_ * x_33_ + 80 x_42_ * x_37_ + 56 x_45_ * x_37_ + 82 x_45_ * x_40_ + 24 x_47_ * x_45_ ] >= 4095
quadratic_ranged_9_lb: [ 36 x_2_ * x_48_ - 70 x_50_ * x_15_ - 18 x_50_ * x_45_ ] >= -3324
quadratic_ranged_10_lb: [ -68 x_5_ * x_23_ - 76 x_31_ * x_5_ - 64 x_39_ * x_5_ + 86 x_8_ * x_7_ + 16 x_14_ * x_7_ + 90 x_16_ * x_7_ + 54 x_23_ * x_7_ + 12 x_24_ * x_7_ + 18 x_30_ * x_7_ - 2 x_41_ * x_7_ + 28 x_16_ * x_8_ + 46 x_31_ * x_8_ - 8 x_33_ * x_8_ - 58 x_31_ * x_14_ + 18 x_30_ * x_16_ + 70 x_39_ * x_16_ + 86 x_41_ * x_23_ + 12 x_30_ * x_24_ - 82 x_33_ * x_24_ - 90 x_39_ * x_24_ + 12 x_39_ * x_30_ ] >= 1300
quadratic_ranged_11_lb: [ 78 x_1_ * x_5_ - 48 x_36_ * x_1_ + 26 x_36_ * x_4_ + 2 x_8_ * x_5_ + 18 x_11_ * x_5_ + 26 x_22_ * x_5_ - 66 x_36_ * x_5_ - 14 x_22_ * x_8_ - 54 x_33_ * x_11_ + 48 x_36_ * x_11_ + 58 x_30_ * x_22_ - 52 x_31_ * x_22_ + 24 x_36_ * x_30_ - 4 x_33_ * x_31_ + 66 x_36_ * x_33_ + 52 x_47_ * x_33_ ] >= -2695
quadratic_ranged_12_lb: [ -72 x_2_ * x_23_ + 36 x_21_ * x_11_ - 90 x_24_ * x_13_ - 36 x_24_ * x_14_ - 46 x_24_ * x_21_ + 24 x_33_ * x_23_ + 84 x_25_ * x_24_ ] >= 16279
quadratic_ranged_13_lb: [ -10 x_19_ * x_44_ + 54 x_27_ * x_20_ - 32 x_25_ * x_24_ - 4 x_26_ * x_25_ + 28 x_27_ * x_25_ - 44 x_44_ * x_25_ + 54 x_27_ * x_26_ - 2 x_44_ * x_27_ ] >= 91
quadratic_ranged_14_lb: [ -100 x_1_ * x_5_ + 78 x_19_ * x_1_ - 78 x_19_ * x_2_ + 86 x_30_ * x_2_ + 34 x_45_ * x_2_ - 2 x_20_ * x_3_ + 90 x_20_ * x_5_ - 36 x_20_ * x_14_ + 28 x_45_ * x_19_ - 94 x_48_ * x_20_ + 54 x_45_ * x_30_ ] >= 8603
quadratic_ranged_15_lb: [ 40 x_9_ * x_13_ + 34 x_31_ * x_10_ - 84 x_31_ * x_13_ - 38 x_48_ * x_13_ + 70 x_17_ * x_14_ - 62 x_50_ * x_14_ - 42 x_50_ * x_17_ - 64 x_50_ * x_37_ ] >= 3838
quadratic_ranged_16_lb: [ -8 x_2_ * x_32_ - 94 x_35_ * x_2_ + 96 x_21_ * x_4_ - 22 x_21_ * x_16_ + 32 x_29_ * x_16_ + 76 x_21_ * x_17_ - 16 x_32_ * x_17_ - 30 x_37_ * x_17_ - 22 x_35_ * x_29_ + 16 x_37_ * x_32_ - 46 x_37_ * x_35_ ] >= 9157
quadratic_ranged_17_lb: [ 72 x_3_ * x_6_ - 4 x_13_ * x_4_ - 62 x_17_ * x_4_ + 18 x_20_ * x_4_ - 56 x_41_ * x_4_ - 44 x_49_ * x_4_ - 58 x_9_ * x_6_ - 38 x_17_ * x_9_ + 84 x_41_ * x_9_ + 40 x_20_ * x_13_ + 4 x_49_ * x_13_ ] >= 1040
quadratic_ranged_18_lb: [ -34 x_4_ * x_24_ - 82 x_34_ * x_4_ ] >= -1301
quadratic_ranged_19_lb: [ -88 x_4_ * x_17_ - 78 x_31_ * x_15_ - 86 x_32_ * x_15_ + 26 x_48_ * x_15_ + 50 x_17_ * x_16_ - 12 x_22_ * x_16_ - 4 x_49_ * x_16_ + 92 x_32_ * x_22_ - 38 x_48_ * x_22_ + 38 x_49_ * x_36_ ] >= 5419
quadratic_ranged_20_lb: [ -88 x_5_ * x_18_ - 20 x_25_ * x_5_ - 100 x_43_ * x_5_ + 38 x_49_ * x_5_ - 52 x_12_ * x_8_ - 60 x_15_ * x_8_ + 38 x_18_ * x_12_ + 30 x_29_ * x_12_ - 6 x_33_ * x_12_ + 96 x_26_ * x_13_ - 76 x_43_ * x_13_ + 12 x_24_ * x_15_ + 54 x_29_ * x_26_ - 16 x_33_ * x_26_ - 10 x_49_ * x_26_ + 14 x_43_ * x_29_ - 32 x_37_ * x_33_ - 100 x_49_ * x_33_ ] >= -2363
quadratic_ranged_21_lb: [ -22 x_9_ * x_31_ - 50 x_47_ * x_9_ + 38 x_48_ * x_9_ + 68 x_19_ * x_15_ + 14 x_23_ * x_15_ - 98 x_47_ * x_18_ - 30 x_29_ * x_19_ + 82 x_48_ * x_19_ - 80 x_45_ * x_23_ - 100 x_47_ * x_27_ - 56 x_31_ * x_29_ + 84 x_47_ * x_29_ - 98 x_48_ * x_29_ - 78 x_48_ * x_34_ + 20 x_47_ * x_40_ + 16 x_47_ * x_43_ - 6 x_48_ * x_43_ ] >= 23256
quadratic_ranged_22_lb: [ 2 x_1_ * x_17_ - 50 x_22_ * x_1_ + 98 x_45_ * x_1_ + 54 x_17_ * x_2_ - 36 x_25_ * x_2_ - 82 x_45_ * x_17_ ] >= 25
quadratic_ranged_23_lb: [ 40 x_2_ * x_41_ + 12 x_43_ * x_26_ - 76 x_41_ * x_36_ ] >= 1670
quadratic_ranged_24_lb: [ 22 x_14_ * x_41_ + 100 x_44_ * x_14_ + 78 x_39_ * x_18_ - 56 x_29_ * x_22_ + 90 x_41_ * x_29_ - 74 x_44_ * x_29_ ] >= -4553
quadratic_ranged_25_lb: [ 36 x_2_ * x_4_ - 56 x_22_ * x_2_ - 90 x_39_ * x_2_ - 42 x_35_ * x_4_ - 8 x_46_ * x_4_ - 42 x_17_ * x_16_ - 98 x_20_ * x_16_ + 64 x_25_ * x_16_ - 52 x_49_ * x_16_ + 40 x_20_ * x_17_ - 64 x_50_ * x_17_ + 22 x_39_ * x_20_ - 64 x_45_ * x_20_ - 44 x_49_ * x_20_ - 30 x_39_ * x_22_ - 60 x_45_ * x_25_ + 100 x_49_ * x_25_ + 78 x_50_ * x_25_ + 84 x_35_ * x_26_ + 36 x_45_ * x_35_ ] >= 6427
quadratic_ranged_26_lb: [ 12 x_8_ * x_24_ - 86 x_38_ * x_24_ ] >= -5873
quadratic_ranged_27_lb: [ 2 x_10_ * x_12_ + 32 x_40_ * x_10_ - 10 x_33_ * x_12_ + 40 x_50_ * x_12_ - 78 x_50_ * x_31_ ] >= 5358
quadratic_ranged_28_lb: [ -88 x_5_ * x_34_ + 66 x_15_ * x_10_ + 2 x_16_ * x_12_ - 38 x_16_ * x_15_ - 64 x_31_ * x_15_ + 78 x_39_ * x_15_ - 98 x_17_ * x_16_ - 74 x_31_ * x_16_ - 30 x_39_ * x_34_ ] >= -1574
quadratic_ranged_29_lb: [ 62 x_2_ * x_14_ - 94 x_24_ * x_2_ + 28 x_29_ * x_2_ - 22 x_48_ * x_2_ - 76 x_24_ * x_12_ + 14 x_24_ * x_14_ - 32 x_29_ * x_14_ + 100 x_24_ * x_20_ - 26 x_26_ * x_20_ - 24 x_49_ * x_20_ - 62 x_26_ * x_23_ + 60 x_48_ * x_29_ ] >= -2649
quadratic_ranged_30_lb: [ 60 x_3_ * x_16_ + 2 x_49_ * x_3_ - 88 x_49_ * x_13_ - 92 x_49_ * x_16_ ] >= 2941
quadratic_ranged_31_lb: [ -78 x_2_ * x_24_ + 46 x_30_ * x_4_ ] >= 5474
quadratic_ranged_32_lb: [ 54 x_5_ * x_18_ - 36 x_46_ * x_5_ ] >= 141
quadratic_ranged_33_lb: [ -12 x_7_ * x_11_ - 4 x_17_ * x_7_ - 38 x_37_ * x_7_ - 94 x_43_ * x_7_ + 32 x_19_ * x_11_ - 50 x_38_ * x_11_ + 50 x_50_ * x_11_ + 86 x_19_ * x_17_ - 30 x_50_ * x_17_ + 22 x_43_ * x_19_ - 26 x_32_ * x_20_ + 22 x_36_ * x_20_ + 34 x_38_ * x_20_ + 38 x_36_ * x_22_ + 50 x_47_ * x_22_ + 16 x_36_ * x_32_ + 82 x_43_ * x_32_ + 68 x_43_ * x_36_ + 52 x_50_ * x_36_ - 12 x_38_ * x_37_ - 8 x_47_ * x_37_ - 58 x_47_ * x_38_ ] >= -1979
quadratic_ranged_34_lb: [ 70 x_29_ * x_41_ ] >= -1122
quadratic_ranged_35_lb: [ -42 x_1_ * x_35_ - 66 x_42_ * x_18_ - 10 x_42_ * x_32_ - 54 x_42_ * x_35_ ] >= -257
quadratic_ranged_36_lb: [ -46 x_1_ * x_4_ - 90 x_25_ * x_1_ - 50 x_25_ * x_6_ - 46 x_48_ * x_6_ - 18 x_43_ * x_24_ + 42 x_43_ * x_30_ ] >= -5078
quadratic_ranged_37_lb: [ 92 x_2_ * x_9_ - 46 x_11_ * x_2_ + 46 x_19_ * x_2_ + 24 x_26_ * x_2_ + 62 x_39_ * x_2_ + 66 x_11_ * x_9_ - 14 x_16_ * x_9_ + 44 x_26_ * x_9_ - 8 x_28_ * x_9_ - 60 x_29_ * x_11_ + 82 x_42_ * x_11_ - 6 x_44_ * x_11_ - 32 x_49_ * x_11_ - 98 x_19_ * x_16_ + 76 x_26_ * x_16_ - 50 x_39_ * x_16_ - 58 x_44_ * x_16_ + 62 x_49_ * x_16_ + 44 x_19_ * x_18_ - 4 x_24_ * x_18_ + 68 x_39_ * x_18_ - 24 x_42_ * x_18_ + 4 x_44_ * x_18_ + 40 x_28_ * x_19_ - 34 x_39_ * x_19_ - 94 x_49_ * x_19_ - 16 x_26_ * x_24_ + 72 x_28_ * x_24_ + 68 x_42_ * x_24_ + 56 x_28_ * x_26_ + 98 x_29_ * x_26_ - 74 x_39_ * x_26_ + 10 x_44_ * x_26_ + 96 x_35_ * x_28_ + 72 x_49_ * x_28_ - 72 x_39_ * x_29_ ] >= -10971
quadratic_ranged_38_lb: [ 22 x_2_ * x_25_ - 22 x_36_ * x_2_ - 90 x_33_ * x_12_ + 26 x_41_ * x_33_ + 54 x_42_ * x_36_ - 50 x_45_ * x_36_ - 58 x_47_ * x_45_ ] >= -1936
quadratic_ranged_39_lb: [ -60 x_2_ * x_19_ - 90 x_41_ * x_2_ + 18 x_12_ * x_4_ - 32 x_37_ * x_4_ - 96 x_8_ * x_7_ - 16 x_28_ * x_7_ + 84 x_43_ * x_7_ + 80 x_49_ * x_7_ + 4 x_12_ * x_8_ - 8 x_28_ * x_8_ - 86 x_37_ * x_8_ - 70 x_43_ * x_8_ - 30 x_44_ * x_8_ - 30 x_19_ * x_12_ - 22 x_23_ * x_12_ - 6 x_43_ * x_19_ + 8 x_49_ * x_19_ + 40 x_43_ * x_28_ - 30 x_48_ * x_34_ + 32 x_49_ * x_34_ + 66 x_48_ * x_41_ - 68 x_49_ * x_43_ ] >= 3914
quadratic_ranged_40_lb: [ -86 x_6_ * x_11_ - 94 x_28_ * x_12_ - 16 x_28_ * x_25_ ] >= 8922
quadratic_ranged_41_lb: [ 82 x_3_ * x_17_ - 30 x_25_ * x_3_ + 38 x_17_ * x_5_ - 76 x_41_ * x_25_ ] >= -5211
quadratic_ranged_42_lb: [ 66 x_16_ * x_49_ ] >= -5
quadratic_ranged_43_lb: [ 22 x_6_ * x_7_ + 52 x_16_ * x_6_ - 32 x_23_ * x_6_ - 70 x_16_ * x_7_ - 52 x_34_ * x_7_ - 84 x_44_ * x_11_ - 100 x_45_ * x_11_ + 64 x_34_ * x_16_ - 68 x_42_ * x_19_ + 40 x_34_ * x_23_ - 50 x_45_ * x_23_ ] >= -5017
quadratic_ranged_44_lb: [ 88 x_1_ * x_25_ - 62 x_28_ * x_1_ + 18 x_37_ * x_1_ - 100 x_48_ * x_1_ - 6 x_8_ * x_4_ + 32 x_40_ * x_4_ + 44 x_48_ * x_4_ - 20 x_25_ * x_8_ + 62 x_32_ * x_8_ + 48 x_36_ * x_8_ - 44 x_37_ * x_8_ - 24 x_40_ * x_8_ + 50 x_32_ * x_15_ - 16 x_25_ * x_22_ - 50 x_28_ * x_22_ + 4 x_45_ * x_25_ - 8 x_48_ * x_25_ + 26 x_48_ * x_28_ + 34 x_36_ * x_32_ - 94 x_40_ * x_34_ + 52 x_48_ * x_34_ + 10 x_37_ * x_36_ - 80 x_40_ * x_36_ ] >= -9079
quadratic_ranged_45_lb: [ 4 x_1_ * x_46_ + 44 x_46_ * x_9_ - 100 x_46_ * x_14_ + 74 x_25_ * x_19_ ] >= 2607
quadratic_ranged_46_lb: [ 98 x_6_ * x_36_ + 64 x_42_ * x_6_ + 6 x_48_ * x_6_ - 76 x_25_ * x_10_ - 52 x_36_ * x_25_ - 12 x_48_ * x_25_ + 42 x_50_ * x_25_ + 48 x_42_ * x_31_ + 48 x_48_ * x_31_ + 28 x_36_ * x_34_ - 60 x_42_ * x_36_ + 48 x_45_ * x_36_ + 42 x_48_ * x_36_ + 56 x_49_ * x_36_ - 66 x_50_ * x_42_ ] >= 6561
quadratic_ranged_47_lb: [ 50 x_1_ * x_19_ - 26 x_23_ * x_1_ + 86 x_38_ * x_1_ + 22 x_23_ * x_4_ - 68 x_39_ * x_4_ + 32 x_49_ * x_4_ + 10 x_19_ * x_7_ - 44 x_40_ * x_7_ + 34 x_43_ * x_7_ + 6 x_38_ * x_10_ - 26 x_41_ * x_10_ - 76 x_14_ * x_11_ - 72 x_37_ * x_11_ + 34 x_39_ * x_11_ + 96 x_37_ * x_14_ + 88 x_40_ * x_14_ + 6 x_41_ * x_19_ + 14 x_38_ * x_23_ - 30 x_40_ * x_23_ + 82 x_41_ * x_23_ + 6 x_49_ * x_23_ + 30 x_39_ * x_37_ + 24 x_49_ * x_37_ + 18 x_49_ * x_38_ - 44 x_41_ * x_39_ - 90 x_43_ * x_40_ - 62 x_49_ * x_40_ - 12 x_49_ * x_41_ ] >= -3063
quadratic_ranged_48_lb: [ 74 x_1_ * x_33_ - 50 x_30_ * x_4_ - 4 x_27_ * x_11_ - 78 x_35_ * x_11_ - 14 x_30_ * x_14_ + 58 x_33_ * x_19_ - 76 x_30_ * x_27_ - 56 x_35_ * x_27_ - 100 x_33_ * x_30_ - 42 x_44_ * x_35_ ] >= 438
quadratic_ranged_49_lb: [ 60 x_6_ * x_33_ - 70 x_33_ * x_16_ - 70 x_33_ * x_17_ - 22 x_33_ * x_22_ - 16 x_38_ * x_33_ ] >= 4043
c1: [ 62 x_7_ * x_14_ - 14 x_20_ * x_7_ + 32 x_46_ * x_7_ - 98 x_20_ * x_14_ + 42 x_33_ * x_14_ - 20 x_35_ * x_14_ - 42 x_35_ * x_20_ + 28 x_37_ * x_20_ + 84 x_47_ * x_20_ - 12 x_35_ * x_24_ - 90 x_35_ * x_33_ + 64 x_46_ * x_37_ ] = 780
c2: [ -50 x_5_ * x_8_ - 64 x_19_ * x_5_ + 46 x_36_ * x_8_ - 96 x_47_ * x_8_ - 42 x_50_ * x_8_ - 56 x_17_ * x_16_ - 84 x_50_ * x_16_ - 94 x_31_ * x_17_ + 44 x_50_ * x_17_ - 74 x_47_ * x_19_ + 60 x_38_ * x_31_ - 6 x_47_ * x_31_ + 50 x_48_ * x_31_ + 72 x_44_ * x_35_ + 78 x_50_ * x_36_ + 30 x_44_ * x_38_ - 18 x_47_ * x_38_ - 58 x_50_ * x_38_ ] = 7506
c3: [ 38 x_7_ * x_17_ + 52 x_32_ * x_7_ - 14 x_29_ * x_12_ + 50 x_42_ * x_17_ + 10 x_47_ * x_17_ - 82 x_29_ * x_22_ - 94 x_35_ * x_29_ - 30 x_39_ * x_33_ - 24 x_42_ * x_33_ + 82 x_47_ * x_39_ + 92 x_42_ * x_40_ ] = 8628
c4: [ -22 x_6_ * x_36_ + 24 x_17_ * x_14_ + 88 x_24_ * x_14_ + 78 x_17_ * x_15_ - 80 x_27_ * x_24_ - 52 x_36_ * x_26_ + 14 x_36_ * x_27_ - 42 x_39_ * x_36_ ] = -6738
c5: [ 54 x_3_ * x_14_ - 90 x_28_ * x_3_ - 80 x_14_ * x_6_ + 88 x_20_ * x_6_ - 92 x_17_ * x_13_ - 90 x_18_ * x_13_ + 84 x_25_ * x_13_ + 16 x_28_ * x_13_ + 4 x_29_ * x_13_ - 98 x_17_ * x_14_ + 8 x_17_ * x_15_ + 88 x_20_ * x_15_ + 96 x_25_ * x_17_ + 4 x_20_ * x_18_ - 88 x_29_ * x_18_ + 68 x_29_ * x_25_ - 92 x_29_ * x_28_ ] = 1120
c6: [ 26 x_6_ * x_12_ + 18 x_45_ * x_34_ ] = 2610
c7: [ 78 x_1_ * x_4_ + 48 x_50_ * x_1_ + 18 x_21_ * x_3_ - 100 x_48_ * x_3_ - 66 x_50_ * x_3_ + 40 x_38_ * x_9_ - 14 x_50_ * x_9_ + 28 x_38_ * x_32_ + 70 x_44_ * x_38_ + 88 x_48_ * x_38_ - 68 x_48_ * x_44_ ] = -5788
c8: [ -82 x_4_ * x_9_ + 68 x_13_ * x_4_ - 22 x_23_ * x_4_ - 78 x_25_ * x_9_ + 30 x_27_ * x_9_ - 34 x_14_ * x_13_ + 84 x_23_ * x_14_ + 78 x_27_ * x_14_ ] = 10036
c9: [ -78 x_5_ * x_18_ - 22 x_21_ * x_5_ + 92 x_18_ * x_14_ - 84 x_48_ * x_14_ + 48 x_21_ * x_15_ - 4 x_49_ * x_15_ - 26 x_42_ * x_18_ - 62 x_48_ * x_18_ - 88 x_45_ * x_21_ - 84 x_48_ * x_21_ + 40 x_49_ * x_21_ + 14 x_49_ * x_26_ - 24 x_45_ * x_42_ - 36 x_48_ * x_45_ + 68 x_48_ * x_46_ + 96 x_49_ * x_46_ - 8 x_49_ * x_48_ ] = 1560
c10: [ 76 x_1_ * x_45_ - 34 x_37_ * x_2_ - 56 x_12_ * x_11_ + 12 x_28_ * x_12_ + 74 x_45_ * x_28_ ] = 848
c11: [ -60 x_9_ * x_19_ + 64 x_24_ * x_9_ + 80 x_35_ * x_9_ + 48 x_42_ * x_9_ - 30 x_19_ * x_12_ + 74 x_25_ * x_12_ - 8 x_34_ * x_19_ - 10 x_35_ * x_25_ - 6 x_40_ * x_28_ - 24 x_42_ * x_30_ + 62 x_35_ * x_34_ - 46 x_42_ * x_40_ ] = 2786
c12: [ 26 x_3_ * x_19_ - 82 x_47_ * x_3_ + 68 x_9_ * x_5_ - 38 x_18_ * x_5_ - 52 x_47_ * x_5_ + 26 x_49_ * x_5_ - 92 x_14_ * x_7_ - 74 x_16_ * x_7_ - 96 x_18_ * x_7_ - 60 x_49_ * x_9_ + 60 x_19_ * x_14_ + 14 x_24_ * x_14_ + 84 x_47_ * x_14_ + 66 x_18_ * x_15_ - 68 x_47_ * x_15_ - 22 x_24_ * x_19_ ] = 6048
c13: [ 44 x_17_ * x_46_ - 46 x_48_ * x_19_ + 18 x_40_ * x_36_ + 86 x_41_ * x_36_ + 16 x_46_ * x_36_ + 10 x_48_ * x_40_ ] = -3860
c14: [ -70 x_1_ * x_5_ + 58 x_42_ * x_1_ + 30 x_42_ * x_5_ + 12 x_43_ * x_5_ + 90 x_50_ * x_5_ - 72 x_42_ * x_7_ - 4 x_31_ * x_8_ - 76 x_18_ * x_11_ - 98 x_48_ * x_11_ - 18 x_19_ * x_18_ - 40 x_48_ * x_19_ + 10 x_50_ * x_34_ - 82 x_48_ * x_42_ - 96 x_48_ * x_47_ + 48 x_50_ * x_47_ ] = 4904
c15: [ -88 x_2_ * x_20_ - 32 x_32_ * x_2_ - 16 x_44_ * x_2_ + 60 x_18_ * x_13_ - 92 x_38_ * x_13_ + 80 x_44_ * x_13_ + 44 x_46_ * x_13_ + 10 x_50_ * x_13_ + 66 x_38_ * x_18_ + 8 x_44_ * x_18_ + 28 x_48_ * x_18_ + 62 x_34_ * x_20_ + 50 x_48_ * x_32_ + 72 x_46_ * x_38_ ] = 4344
c16: [ -60 x_2_ * x_40_ - 32 x_15_ * x_9_ - 66 x_25_ * x_9_ + 18 x_36_ * x_9_ + 58 x_40_ * x_9_ - 72 x_25_ * x_10_ + 60 x_36_ * x_10_ + 86 x_40_ * x_10_ - 80 x_15_ * x_14_ - 20 x_32_ * x_14_ - 16 x_36_ * x_14_ + 34 x_24_ * x_15_ - 78 x_27_ * x_15_ + 10 x_27_ * x_24_ + 14 x_36_ * x_24_ + 96 x_40_ * x_24_ - 26 x_32_ * x_25_ + 64 x_36_ * x_25_ + 36 x_32_ * x_27_ ] = 18096
c17: [ -38 x_15_ * x_17_ - 94 x_26_ * x_15_ - 72 x_36_ * x_15_ - 50 x_39_ * x_15_ + 42 x_30_ * x_16_ + 38 x_26_ * x_17_ - 58 x_30_ * x_17_ + 48 x_39_ * x_17_ - 56 x_46_ * x_26_ + 86 x_36_ * x_30_ + 72 x_46_ * x_30_ + 64 x_39_ * x_31_ + 24 x_46_ * x_36_ + 22 x_46_ * x_39_ ] = -362
c18: [ 30 x_4_ * x_9_ + 36 x_44_ * x_7_ + 74 x_23_ * x_9_ + 62 x_44_ * x_10_ + 34 x_35_ * x_23_ ] = 8576
c19: [ 92 x_17_ * x_32_ - 100 x_40_ * x_17_ - 70 x_40_ * x_23_ + 42 x_44_ * x_25_ + 50 x_45_ * x_32_ ] = 4512
c20: [ -34 x_1_ * x_15_ + 62 x_42_ * x_1_ + 20 x_44_ * x_1_ - 62 x_10_ * x_5_ + 40 x_15_ * x_5_ + 26 x_19_ * x_5_ - 70 x_15_ * x_10_ + 22 x_22_ * x_10_ - 52 x_30_ * x_10_ + 48 x_42_ * x_10_ + 54 x_42_ * x_12_ - 42 x_44_ * x_22_ - 70 x_30_ * x_23_ - 74 x_44_ * x_23_ ] = -6486
c21: [ 8 x_2_ * x_7_ + 64 x_13_ * x_2_ - 30 x_7_ * x_5_ - 76 x_13_ * x_6_ + 46 x_15_ * x_6_ + 10 x_13_ * x_7_ + 12 x_18_ * x_7_ + 48 x_15_ * x_13_ + 78 x_18_ * x_13_ - 20 x_18_ * x_15_ - 74 x_25_ * x_15_ + 10 x_25_ * x_18_ ] = 2694
c22: [ -76 x_12_ * x_15_ + 34 x_35_ * x_15_ - 84 x_33_ * x_20_ ] = 54
c23: [ -30 x_10_ * x_24_ - 28 x_27_ * x_20_ - 90 x_27_ * x_24_ - 2 x_27_ * x_25_ ] = -9760
c24: [ -42 x_7_ * x_17_ + 80 x_32_ * x_7_ - 92 x_41_ * x_7_ + 40 x_41_ * x_12_ + 74 x_43_ * x_28_ ] = 1036
c25: [ -54 x_3_ * x_23_ + 96 x_29_ * x_3_ - 98 x_23_ * x_5_ + 38 x_47_ * x_5_ - 78 x_47_ * x_7_ - 22 x_47_ * x_23_ - 46 x_36_ * x_29_ ] = -1552
c26: [ 8 x_9_ * x_28_ - 28 x_40_ * x_19_ - 36 x_28_ * x_24_ + 54 x_30_ * x_24_ ] = 850
c27: [ 76 x_6_ * x_10_ + 90 x_21_ * x_6_ + 38 x_30_ * x_6_ + 40 x_23_ * x_10_ - 86 x_28_ * x_11_ + 6 x_47_ * x_13_ - 6 x_28_ * x_21_ - 30 x_47_ * x_21_ - 74 x_30_ * x_28_ ] = -2838
c28: [ -66 x_6_ * x_25_ - 84 x_31_ * x_14_ - 54 x_48_ * x_14_ + 24 x_25_ * x_22_ + 70 x_40_ * x_29_ - 100 x_44_ * x_31_ + 46 x_44_ * x_40_ + 20 x_47_ * x_44_ ] = 192
c29: [ 60 x_3_ * x_12_ - 42 x_47_ * x_3_ - 52 x_39_ * x_5_ + 82 x_29_ * x_8_ + 68 x_47_ * x_8_ - 64 x_50_ * x_8_ + 56 x_20_ * x_12_ + 14 x_29_ * x_12_ - 14 x_48_ * x_12_ + 54 x_50_ * x_12_ - 80 x_48_ * x_16_ + 6 x_50_ * x_16_ - 96 x_50_ * x_20_ - 16 x_48_ * x_21_ - 24 x_48_ * x_29_ ] = 10728
c30: [ -100 x_7_ * x_23_ + 14 x_13_ * x_11_ + 2 x_42_ * x_11_ + 18 x_42_ * x_23_ ] = 1880
c31: [ 12 x_3_ * x_10_ + 78 x_18_ * x_3_ - 96 x_49_ * x_3_ - 84 x_30_ * x_6_ - 80 x_48_ * x_6_ + 92 x_10_ * x_8_ + 56 x_34_ * x_8_ - 74 x_48_ * x_10_ - 92 x_30_ * x_12_ + 4 x_34_ * x_18_ - 68 x_49_ * x_36_ ] = -18384
c32: [ -40 x_2_ * x_18_ - 52 x_33_ * x_2_ - 80 x_39_ * x_2_ - 92 x_17_ * x_4_ + 36 x_19_ * x_4_ + 58 x_35_ * x_4_ + 20 x_39_ * x_4_ + 66 x_33_ * x_9_ - 4 x_19_ * x_17_ + 18 x_31_ * x_17_ - 44 x_39_ * x_17_ + 42 x_28_ * x_18_ - 26 x_31_ * x_19_ + 64 x_39_ * x_28_ + 86 x_33_ * x_31_ + 10 x_39_ * x_35_ ] = -2874
c33: [ -26 x_4_ * x_12_ - 66 x_49_ * x_4_ + 16 x_49_ * x_7_ - 16 x_12_ * x_9_ - 18 x_27_ * x_9_ + 96 x_27_ * x_12_ - 2 x_48_ * x_27_ + 54 x_42_ * x_39_ - 68 x_49_ * x_39_ + 64 x_47_ * x_42_ ] = 10410
c34: [ 10 x_5_ * x_8_ - 54 x_10_ * x_5_ + 72 x_34_ * x_5_ + 96 x_33_ * x_18_ + 38 x_49_ * x_18_ - 2 x_33_ * x_27_ - 4 x_44_ * x_33_ - 66 x_46_ * x_34_ ] = 5780
c35: [ -12 x_3_ * x_9_ - 42 x_21_ * x_3_ - 78 x_7_ * x_4_ + 20 x_21_ * x_4_ - 70 x_31_ * x_4_ + 52 x_31_ * x_7_ - 86 x_40_ * x_11_ ] = 5006
c36: [ 74 x_7_ * x_15_ + 92 x_43_ * x_7_ - 40 x_15_ * x_13_ - 80 x_26_ * x_13_ - 48 x_37_ * x_13_ + 14 x_40_ * x_13_ + 38 x_29_ * x_22_ + 16 x_40_ * x_22_ - 24 x_40_ * x_23_ - 82 x_44_ * x_26_ + 60 x_44_ * x_43_ ] = -6466
c37: [ -4 x_4_ * x_35_ - 42 x_36_ * x_4_ + 56 x_48_ * x_4_ + 78 x_40_ * x_10_ - 10 x_40_ * x_21_ + 34 x_42_ * x_35_ - 86 x_40_ * x_36_ - 42 x_42_ * x_36_ + 94 x_42_ * x_40_ - 70 x_48_ * x_40_ - 26 x_48_ * x_42_ ] = -2898
c38: [ -72 x_7_ * x_22_ - 44 x_24_ * x_13_ - 64 x_27_ * x_13_ + 12 x_24_ * x_21_ - 98 x_48_ * x_21_ - 24 x_24_ * x_22_ ] = 11264
c39: [ 8 x_7_ * x_11_ - 56 x_45_ * x_7_ - 18 x_12_ * x_11_ - 30 x_17_ * x_12_ - 28 x_44_ * x_27_ - 100 x_44_ * x_35_ - 18 x_37_ * x_36_ - 36 x_44_ * x_37_ - 100 x_45_ * x_37_ ] = -3972
c40: [ -92 x_9_ * x_22_ - 96 x_33_ * x_21_ + 30 x_33_ * x_22_ + 36 x_39_ * x_22_ ] = 9460
c41: [ 48 x_6_ * x_13_ + 86 x_19_ * x_7_ + 16 x_43_ * x_7_ + 48 x_40_ * x_8_ + 88 x_43_ * x_8_ + 76 x_13_ * x_9_ + 68 x_44_ * x_19_ ] = -3488
c42: [ -40 x_9_ * x_22_ + 60 x_47_ * x_9_ - 12 x_26_ * x_11_ + 30 x_22_ * x_15_ - 90 x_24_ * x_15_ + 16 x_26_ * x_15_ - 78 x_26_ * x_24_ - 12 x_47_ * x_26_ ] = -9166
c43: [ 24 x_17_ * x_34_ + 42 x_22_ * x_18_ - 36 x_46_ * x_18_ + 100 x_47_ * x_18_ + 14 x_34_ * x_20_ + 18 x_43_ * x_20_ - 12 x_47_ * x_20_ + 18 x_49_ * x_20_ + 10 x_46_ * x_34_ + 72 x_49_ * x_37_ - 50 x_47_ * x_46_ + 78 x_48_ * x_47_ + 6 x_49_ * x_48_ ] = -14614
c44: [ -24 x_25_ * x_42_ - 46 x_43_ * x_42_ + 58 x_45_ * x_43_ + 38 x_46_ * x_45_ ] = 252
c45: [ 76 x_9_ * x_11_ + 18 x_28_ * x_9_ - 56 x_38_ * x_11_ - 44 x_41_ * x_11_ - 8 x_28_ * x_15_ + 46 x_50_ * x_26_ + 48 x_40_ * x_28_ + 12 x_40_ * x_38_ - 44 x_50_ * x_43_ ] = 448
c46: [ -16 x_5_ * x_26_ - 72 x_30_ * x_14_ - 74 x_49_ * x_14_ - 56 x_30_ * x_17_ + 26 x_49_ * x_17_ + 94 x_26_ * x_24_ + 94 x_32_ * x_24_ - 22 x_30_ * x_26_ + 74 x_37_ * x_32_ ] = 1618
c47: [ -18 x_4_ * x_16_ - 56 x_8_ * x_6_ + 40 x_11_ * x_6_ - 84 x_46_ * x_6_ + 92 x_35_ * x_8_ - 66 x_15_ * x_11_ - 50 x_46_ * x_11_ + 46 x_46_ * x_16_ + 56 x_37_ * x_35_ ] = -5704
c48: [ -50 x_7_ * x_35_ + 78 x_25_ * x_8_ + 52 x_41_ * x_8_ - 60 x_22_ * x_17_ - 18 x_40_ * x_17_ + 62 x_41_ * x_17_ - 88 x_40_ * x_35_ ] = -1136
c49: [ -42 x_11_ * x_40_ - 24 x_41_ * x_11_ - 92 x_19_ * x_13_ + 18 x_22_ * x_13_ - 66 x_37_ * x_19_ - 80 x_26_ * x_22_ - 98 x_46_ * x_37_ - 2 x_47_ * x_40_ + 4 x_46_ * x_41_ ] = 17360
c50: [ 88 x_2_ * x_6_ - 96 x_20_ * x_2_ - 52 x_33_ * x_2_ + 76 x_35_ * x_6_ + 12 x_38_ * x_6_ - 52 x_37_ * x_15_ + 36 x_47_ * x_15_ + 90 x_33_ * x_20_ - 22 x_35_ * x_20_ + 52 x_37_ * x_33_ - 56 x_41_ * x_35_ - 12 x_49_ * x_37_ - 98 x_41_ * x_38_ - 76 x_47_ * x_41_ ] = -5740
c51: [ 46 x_4_ * x_31_ + 42 x_31_ * x_20_ - 46 x_44_ * x_31_ - 22 x_41_ * x_35_ ] = 668
Bounds
-7 <= x_1_ <= 0
-10 <= x_2_ <= 9
-8 <= x_3_ <= 5
0 <= x_4_ <= 4
-6 <= x_5_ <= 5
-10 <= x_6_ <= 8
-8 <= x_7_ <= 10
-7 <= x_8_ <= -3
-10 <= x_9_ <= 1
-10 <= x_10_ <= 4
4 <= x_11_ <= 9
-10 <= x_12_ <= 5
-5 <= x_13_ <= 4
-4 <= x_14_ <= -2
-6 <= x_15_ <= -3
-5 <= x_16_ <= 5
-3 <= x_17_ <= 7
-9 <= x_18_ <= -1
-10 <= x_19_ <= 4
-7 <= x_20_ <= 4
-2 <= x_21_ <= 10
0 <= x_22_ <= 5
-9 <= x_23_ <= -7
-10 <= x_24_ <= -1
-4 <= x_25_ <= 3
-10 <= x_26_ <= 9
-10 <= x_27_ <= -9
-7 <= x_28_ <= 9
-10 <= x_29_ <= 7
-10 <= x_30_ <= 3
-10 <= x_31_ <= 4
-7 <= x_32_ <= 7
-7 <= x_33_ <= -1
2 <= x_34_ <= 10
-3 <= x_35_ <= -2
-9 <= x_36_ <= 0
-2 <= x_37_ <= 10
-8 <= x_38_ <= 3
-1 <= x_39_ <= 9
-9 <= x_40_ <= 0
-7 <= x_41_ <= 5
-10 <= x_42_ <= 9
-7 <= x_43_ <= 6
-9 <= x_44_ <= 9
-4 <= x_45_ <= 7
-8 <= x_46_ <= -4
6 <= x_47_ <= 8
-10 <= x_48_ <= 7
-8 <= x_49_ <= 8
x_50_ = -10
General
x_1_
x_2_
x_3_
x_4_
x_5_
x_6_
x_7_
x_8_
x_9_
x_10_
x_11_
x_12_
x_13_
x_14_
x_15_
x_16_
x_17_
x_18_
x_19_
x_20_
x_21_
x_22_
x_23_
x_24_
x_25_
x_26_
x_27_
x_28_
x_29_
x_30_
x_31_
x_32_
x_33_
x_34_
x_35_
x_36_
x_37_
x_38_
x_39_
x_40_
x_41_
x_42_
x_43_
x_44_
x_45_
x_46_
x_47_
x_48_
x_49_
x_50_
End
