minimize
obj: 
subject to
quadratic_ranged_1_ub: [ 32 x_9_ * x_20_ - 34 x_33_ * x_20_ - 72 x_44_ * x_20_ + 20 x_32_ * x_21_ + 28 x_44_ * x_21_ - 36 x_44_ * x_35_ - 14 x_45_ * x_35_ - 16 x_48_ * x_35_ + 54 x_44_ * x_36_ + 96 x_50_ * x_36_ - 4 x_50_ * x_48_ ] <= -18279
quadratic_ranged_2_ub: [ -26 x_25_ * x_39_ - 10 x_42_ * x_25_ ] <= -574
quadratic_ranged_3_ub: [ 66 x_3_ * x_13_ + 24 x_38_ * x_3_ - 36 x_38_ * x_16_ + 86 x_34_ * x_27_ ] <= 3576
quadratic_ranged_4_ub: [ -50 x_7_ * x_40_ - 70 x_26_ * x_11_ + 90 x_40_ * x_11_ + 2 x_33_ * x_32_ ] <= -364
quadratic_ranged_5_ub: [ 88 x_1_ * x_8_ - 96 x_33_ * x_1_ - 32 x_46_ * x_1_ - 48 x_20_ * x_8_ - 46 x_39_ * x_8_ - 76 x_46_ * x_8_ - 56 x_33_ * x_13_ - 24 x_49_ * x_13_ - 32 x_34_ * x_20_ - 46 x_48_ * x_37_ + 60 x_50_ * x_37_ - 96 x_48_ * x_39_ + 56 x_50_ * x_48_ ] <= 7744
quadratic_ranged_6_ub: [ -44 x_1_ * x_32_ + 6 x_46_ * x_5_ + 78 x_32_ * x_12_ - 54 x_46_ * x_12_ + 22 x_35_ * x_15_ + 92 x_46_ * x_15_ ] <= -1729
quadratic_ranged_7_ub: [ 32 x_8_ * x_38_ + 6 x_21_ * x_16_ + 100 x_38_ * x_16_ ] <= 675
quadratic_ranged_8_ub: [ 32 x_5_ * x_19_ - 50 x_39_ * x_5_ - 50 x_45_ * x_5_ - 84 x_50_ * x_5_ + 76 x_23_ * x_15_ + 70 x_27_ * x_15_ - 98 x_45_ * x_15_ - 100 x_50_ * x_15_ - 20 x_49_ * x_19_ - 14 x_50_ * x_19_ + 24 x_45_ * x_23_ + 98 x_50_ * x_23_ - 88 x_45_ * x_25_ - 22 x_49_ * x_25_ + 38 x_50_ * x_27_ - 68 x_46_ * x_33_ - 54 x_49_ * x_33_ + 20 x_50_ * x_33_ - 94 x_50_ * x_39_ + 44 x_46_ * x_45_ ] <= -2694
quadratic_ranged_9_ub: [ 60 x_5_ * x_16_ + 80 x_40_ * x_16_ + 4 x_22_ * x_17_ - 92 x_40_ * x_17_ + 40 x_24_ * x_22_ + 76 x_45_ * x_22_ - 88 x_35_ * x_24_ ] <= -1074
quadratic_ranged_10_ub: [ -34 x_2_ * x_27_ + 4 x_41_ * x_2_ + 22 x_47_ * x_2_ - 56 x_15_ * x_5_ + 100 x_21_ * x_5_ - 30 x_27_ * x_11_ + 86 x_47_ * x_15_ + 24 x_36_ * x_35_ + 52 x_37_ * x_35_ - 70 x_41_ * x_36_ + 84 x_47_ * x_37_ + 40 x_47_ * x_41_ ] <= 2059
quadratic_ranged_11_ub: [ 78 x_1_ * x_27_ - 90 x_7_ * x_4_ - 32 x_27_ * x_4_ - 68 x_7_ * x_6_ - 10 x_49_ * x_6_ - 32 x_23_ * x_7_ - 68 x_23_ * x_22_ + 76 x_27_ * x_22_ + 48 x_49_ * x_23_ + 20 x_49_ * x_27_ ] <= -1247
quadratic_ranged_12_ub: [ -8 x_9_ * x_16_ + 88 x_36_ * x_9_ + 62 x_36_ * x_16_ - 72 x_47_ * x_21_ - 88 x_39_ * x_27_ - 88 x_49_ * x_27_ + 40 x_49_ * x_39_ - 76 x_49_ * x_43_ ] <= 4341
quadratic_ranged_13_ub: [ 42 x_1_ * x_21_ + 72 x_42_ * x_1_ + 58 x_45_ * x_1_ + 56 x_20_ * x_2_ - 60 x_13_ * x_3_ - 82 x_16_ * x_3_ - 78 x_27_ * x_3_ + 46 x_13_ * x_8_ + 34 x_14_ * x_8_ - 24 x_27_ * x_8_ - 12 x_14_ * x_13_ - 46 x_16_ * x_14_ + 70 x_45_ * x_14_ - 18 x_42_ * x_16_ + 34 x_45_ * x_16_ ] <= -8704
quadratic_ranged_14_ub: [ -34 x_7_ * x_17_ - 38 x_24_ * x_7_ - 96 x_13_ * x_10_ + 66 x_16_ * x_10_ - 78 x_24_ * x_10_ + 42 x_14_ * x_11_ + 20 x_17_ * x_11_ + 64 x_24_ * x_11_ + 76 x_16_ * x_13_ - 12 x_32_ * x_24_ + 48 x_42_ * x_24_ + 26 x_49_ * x_32_ - 78 x_49_ * x_42_ ] <= -504
quadratic_ranged_15_ub: [ -4 x_1_ * x_47_ - 6 x_47_ * x_42_ ] <= 40
quadratic_ranged_16_ub: [ 84 x_3_ * x_14_ - 98 x_24_ * x_3_ - 32 x_25_ * x_3_ - 80 x_35_ * x_3_ - 40 x_36_ * x_3_ + 70 x_34_ * x_4_ - 22 x_24_ * x_14_ - 4 x_25_ * x_14_ - 16 x_29_ * x_14_ + 66 x_35_ * x_14_ + 88 x_26_ * x_24_ + 4 x_35_ * x_24_ + 44 x_34_ * x_25_ - 2 x_35_ * x_26_ + 20 x_34_ * x_29_ + 44 x_50_ * x_36_ ] <= -1006
quadratic_ranged_17_ub: [ 88 x_2_ * x_8_ - 74 x_11_ * x_2_ + 24 x_14_ * x_2_ + 24 x_14_ * x_11_ - 24 x_36_ * x_12_ + 2 x_26_ * x_14_ + 90 x_31_ * x_26_ ] <= -982
quadratic_ranged_18_ub: [ -4 x_31_ * x_48_ ] <= -200
quadratic_ranged_19_ub: [ 82 x_3_ * x_41_ + 80 x_19_ * x_8_ - 22 x_49_ * x_8_ - 84 x_18_ * x_11_ + 60 x_49_ * x_18_ - 14 x_41_ * x_19_ - 16 x_49_ * x_19_ + 72 x_49_ * x_41_ ] <= 5367
quadratic_ranged_20_ub: [ 48 x_5_ * x_23_ + 66 x_32_ * x_5_ - 54 x_36_ * x_5_ - 94 x_15_ * x_14_ + 32 x_23_ * x_14_ + 48 x_32_ * x_14_ + 42 x_36_ * x_14_ - 20 x_36_ * x_15_ - 16 x_23_ * x_22_ - 90 x_30_ * x_22_ - 58 x_33_ * x_22_ + 38 x_32_ * x_23_ + 14 x_30_ * x_25_ - 84 x_33_ * x_25_ + 26 x_38_ * x_25_ - 22 x_38_ * x_36_ ] <= -4670
quadratic_ranged_21_ub: [ -12 x_6_ * x_11_ - 46 x_48_ * x_6_ + 82 x_27_ * x_11_ - 94 x_47_ * x_11_ + 38 x_40_ * x_18_ + 68 x_48_ * x_18_ - 70 x_48_ * x_27_ - 88 x_40_ * x_30_ - 22 x_48_ * x_47_ ] <= 473
quadratic_ranged_22_ub: [ 62 x_10_ * x_40_ - 94 x_38_ * x_11_ + 28 x_38_ * x_17_ ] <= -3409
quadratic_ranged_23_ub: [ 48 x_5_ * x_28_ + 14 x_30_ * x_5_ - 10 x_48_ * x_5_ + 6 x_15_ * x_12_ - 32 x_18_ * x_12_ + 28 x_21_ * x_12_ - 90 x_26_ * x_12_ - 6 x_28_ * x_12_ - 96 x_30_ * x_12_ - 68 x_21_ * x_18_ + 60 x_30_ * x_18_ - 14 x_42_ * x_21_ - 74 x_48_ * x_21_ + 68 x_30_ * x_26_ + 72 x_29_ * x_28_ ] <= 5924
quadratic_ranged_24_ub: [ -36 x_7_ * x_46_ - 20 x_14_ * x_13_ - 76 x_18_ * x_13_ - 24 x_16_ * x_14_ - 44 x_33_ * x_16_ + 56 x_46_ * x_16_ + 36 x_48_ * x_16_ + 20 x_46_ * x_33_ + 96 x_48_ * x_33_ ] <= 3314
quadratic_ranged_25_ub: [ 6 x_7_ * x_38_ - 48 x_50_ * x_7_ + 2 x_22_ * x_8_ - 68 x_38_ * x_21_ - 32 x_50_ * x_38_ ] <= 1555
quadratic_ranged_26_ub: [ 58 x_4_ * x_11_ - 38 x_16_ * x_9_ + 70 x_19_ * x_11_ - 36 x_38_ * x_16_ ] <= 1337
quadratic_ranged_27_ub: [ -12 x_1_ * x_23_ + 2 x_47_ * x_11_ + 74 x_50_ * x_11_ - 14 x_47_ * x_16_ - 84 x_28_ * x_23_ + 30 x_39_ * x_28_ + 24 x_47_ * x_28_ + 34 x_47_ * x_33_ - 86 x_47_ * x_38_ ] <= -3023
quadratic_ranged_1_lb: [ 32 x_9_ * x_20_ - 34 x_33_ * x_20_ - 72 x_44_ * x_20_ + 20 x_32_ * x_21_ + 28 x_44_ * x_21_ - 36 x_44_ * x_35_ - 14 x_45_ * x_35_ - 16 x_48_ * x_35_ + 54 x_44_ * x_36_ + 96 x_50_ * x_36_ - 4 x_50_ * x_48_ ] >= -18282
quadratic_ranged_2_lb: [ -26 x_25_ * x_39_ - 10 x_42_ * x_25_ ] >= -579
quadratic_ranged_3_lb: [ 66 x_3_ * x_13_ + 24 x_38_ * x_3_ - 36 x_38_ * x_16_ + 86 x_34_ * x_27_ ] >= 3570
quadratic_ranged_4_lb: [ -50 x_7_ * x_40_ - 70 x_26_ * x_11_ + 90 x_40_ * x_11_ + 2 x_33_ * x_32_ ] >= -370
quadratic_ranged_5_lb: [ 88 x_1_ * x_8_ - 96 x_33_ * x_1_ - 32 x_46_ * x_1_ - 48 x_20_ * x_8_ - 46 x_39_ * x_8_ - 76 x_46_ * x_8_ - 56 x_33_ * x_13_ - 24 x_49_ * x_13_ - 32 x_34_ * x_20_ - 46 x_48_ * x_37_ + 60 x_50_ * x_37_ - 96 x_48_ * x_39_ + 56 x_50_ * x_48_ ] >= 7738
quadratic_ranged_6_lb: [ -44 x_1_ * x_32_ + 6 x_46_ * x_5_ + 78 x_32_ * x_12_ - 54 x_46_ * x_12_ + 22 x_35_ * x_15_ + 92 x_46_ * x_15_ ] >= -1731
quadratic_ranged_7_lb: [ 32 x_8_ * x_38_ + 6 x_21_ * x_16_ + 100 x_38_ * x_16_ ] >= 669
quadratic_ranged_8_lb: [ 32 x_5_ * x_19_ - 50 x_39_ * x_5_ - 50 x_45_ * x_5_ - 84 x_50_ * x_5_ + 76 x_23_ * x_15_ + 70 x_27_ * x_15_ - 98 x_45_ * x_15_ - 100 x_50_ * x_15_ - 20 x_49_ * x_19_ - 14 x_50_ * x_19_ + 24 x_45_ * x_23_ + 98 x_50_ * x_23_ - 88 x_45_ * x_25_ - 22 x_49_ * x_25_ + 38 x_50_ * x_27_ - 68 x_46_ * x_33_ - 54 x_49_ * x_33_ + 20 x_50_ * x_33_ - 94 x_50_ * x_39_ + 44 x_46_ * x_45_ ] >= -2695
quadratic_ranged_9_lb: [ 60 x_5_ * x_16_ + 80 x_40_ * x_16_ + 4 x_22_ * x_17_ - 92 x_40_ * x_17_ + 40 x_24_ * x_22_ + 76 x_45_ * x_22_ - 88 x_35_ * x_24_ ] >= -1080
quadratic_ranged_10_lb: [ -34 x_2_ * x_27_ + 4 x_41_ * x_2_ + 22 x_47_ * x_2_ - 56 x_15_ * x_5_ + 100 x_21_ * x_5_ - 30 x_27_ * x_11_ + 86 x_47_ * x_15_ + 24 x_36_ * x_35_ + 52 x_37_ * x_35_ - 70 x_41_ * x_36_ + 84 x_47_ * x_37_ + 40 x_47_ * x_41_ ] >= 2054
quadratic_ranged_11_lb: [ 78 x_1_ * x_27_ - 90 x_7_ * x_4_ - 32 x_27_ * x_4_ - 68 x_7_ * x_6_ - 10 x_49_ * x_6_ - 32 x_23_ * x_7_ - 68 x_23_ * x_22_ + 76 x_27_ * x_22_ + 48 x_49_ * x_23_ + 20 x_49_ * x_27_ ] >= -1249
quadratic_ranged_12_lb: [ -8 x_9_ * x_16_ + 88 x_36_ * x_9_ + 62 x_36_ * x_16_ - 72 x_47_ * x_21_ - 88 x_39_ * x_27_ - 88 x_49_ * x_27_ + 40 x_49_ * x_39_ - 76 x_49_ * x_43_ ] >= 4336
quadratic_ranged_13_lb: [ 42 x_1_ * x_21_ + 72 x_42_ * x_1_ + 58 x_45_ * x_1_ + 56 x_20_ * x_2_ - 60 x_13_ * x_3_ - 82 x_16_ * x_3_ - 78 x_27_ * x_3_ + 46 x_13_ * x_8_ + 34 x_14_ * x_8_ - 24 x_27_ * x_8_ - 12 x_14_ * x_13_ - 46 x_16_ * x_14_ + 70 x_45_ * x_14_ - 18 x_42_ * x_16_ + 34 x_45_ * x_16_ ] >= -8706
quadratic_ranged_14_lb: [ -34 x_7_ * x_17_ - 38 x_24_ * x_7_ - 96 x_13_ * x_10_ + 66 x_16_ * x_10_ - 78 x_24_ * x_10_ + 42 x_14_ * x_11_ + 20 x_17_ * x_11_ + 64 x_24_ * x_11_ + 76 x_16_ * x_13_ - 12 x_32_ * x_24_ + 48 x_42_ * x_24_ + 26 x_49_ * x_32_ - 78 x_49_ * x_42_ ] >= -510
quadratic_ranged_15_lb: [ -4 x_1_ * x_47_ - 6 x_47_ * x_42_ ] >= 35
quadratic_ranged_16_lb: [ 84 x_3_ * x_14_ - 98 x_24_ * x_3_ - 32 x_25_ * x_3_ - 80 x_35_ * x_3_ - 40 x_36_ * x_3_ + 70 x_34_ * x_4_ - 22 x_24_ * x_14_ - 4 x_25_ * x_14_ - 16 x_29_ * x_14_ + 66 x_35_ * x_14_ + 88 x_26_ * x_24_ + 4 x_35_ * x_24_ + 44 x_34_ * x_25_ - 2 x_35_ * x_26_ + 20 x_34_ * x_29_ + 44 x_50_ * x_36_ ] >= -1007
quadratic_ranged_17_lb: [ 88 x_2_ * x_8_ - 74 x_11_ * x_2_ + 24 x_14_ * x_2_ + 24 x_14_ * x_11_ - 24 x_36_ * x_12_ + 2 x_26_ * x_14_ + 90 x_31_ * x_26_ ] >= -986
quadratic_ranged_18_lb: [ -4 x_31_ * x_48_ ] >= -202
quadratic_ranged_19_lb: [ 82 x_3_ * x_41_ + 80 x_19_ * x_8_ - 22 x_49_ * x_8_ - 84 x_18_ * x_11_ + 60 x_49_ * x_18_ - 14 x_41_ * x_19_ - 16 x_49_ * x_19_ + 72 x_49_ * x_41_ ] >= 5363
quadratic_ranged_20_lb: [ 48 x_5_ * x_23_ + 66 x_32_ * x_5_ - 54 x_36_ * x_5_ - 94 x_15_ * x_14_ + 32 x_23_ * x_14_ + 48 x_32_ * x_14_ + 42 x_36_ * x_14_ - 20 x_36_ * x_15_ - 16 x_23_ * x_22_ - 90 x_30_ * x_22_ - 58 x_33_ * x_22_ + 38 x_32_ * x_23_ + 14 x_30_ * x_25_ - 84 x_33_ * x_25_ + 26 x_38_ * x_25_ - 22 x_38_ * x_36_ ] >= -4674
quadratic_ranged_21_lb: [ -12 x_6_ * x_11_ - 46 x_48_ * x_6_ + 82 x_27_ * x_11_ - 94 x_47_ * x_11_ + 38 x_40_ * x_18_ + 68 x_48_ * x_18_ - 70 x_48_ * x_27_ - 88 x_40_ * x_30_ - 22 x_48_ * x_47_ ] >= 467
quadratic_ranged_22_lb: [ 62 x_10_ * x_40_ - 94 x_38_ * x_11_ + 28 x_38_ * x_17_ ] >= -3412
quadratic_ranged_23_lb: [ 48 x_5_ * x_28_ + 14 x_30_ * x_5_ - 10 x_48_ * x_5_ + 6 x_15_ * x_12_ - 32 x_18_ * x_12_ + 28 x_21_ * x_12_ - 90 x_26_ * x_12_ - 6 x_28_ * x_12_ - 96 x_30_ * x_12_ - 68 x_21_ * x_18_ + 60 x_30_ * x_18_ - 14 x_42_ * x_21_ - 74 x_48_ * x_21_ + 68 x_30_ * x_26_ + 72 x_29_ * x_28_ ] >= 5920
quadratic_ranged_24_lb: [ -36 x_7_ * x_46_ - 20 x_14_ * x_13_ - 76 x_18_ * x_13_ - 24 x_16_ * x_14_ - 44 x_33_ * x_16_ + 56 x_46_ * x_16_ + 36 x_48_ * x_16_ + 20 x_46_ * x_33_ + 96 x_48_ * x_33_ ] >= 3312
quadratic_ranged_25_lb: [ 6 x_7_ * x_38_ - 48 x_50_ * x_7_ + 2 x_22_ * x_8_ - 68 x_38_ * x_21_ - 32 x_50_ * x_38_ ] >= 1548
quadratic_ranged_26_lb: [ 58 x_4_ * x_11_ - 38 x_16_ * x_9_ + 70 x_19_ * x_11_ - 36 x_38_ * x_16_ ] >= 1327
quadratic_ranged_27_lb: [ -12 x_1_ * x_23_ + 2 x_47_ * x_11_ + 74 x_50_ * x_11_ - 14 x_47_ * x_16_ - 84 x_28_ * x_23_ + 30 x_39_ * x_28_ + 24 x_47_ * x_28_ + 34 x_47_ * x_33_ - 86 x_47_ * x_38_ ] >= -3029
c1: [ -10 x_2_ * x_42_ + 48 x_39_ * x_6_ - 66 x_43_ * x_24_ ] = 474
c2: [ -30 x_3_ * x_45_ - 58 x_16_ * x_13_ + 28 x_45_ * x_16_ ] = -1080
c3: [ -6 x_2_ * x_7_ + 70 x_50_ * x_2_ - 66 x_6_ * x_3_ - 54 x_7_ * x_3_ + 52 x_23_ * x_3_ - 74 x_38_ * x_3_ + 72 x_7_ * x_6_ + 42 x_10_ * x_6_ - 12 x_19_ * x_6_ + 22 x_20_ * x_6_ + 94 x_23_ * x_6_ + 78 x_38_ * x_6_ + 12 x_50_ * x_6_ + 64 x_13_ * x_8_ + 56 x_19_ * x_8_ - 30 x_29_ * x_8_ + 74 x_45_ * x_8_ - 96 x_33_ * x_10_ - 34 x_45_ * x_10_ - 16 x_19_ * x_13_ - 56 x_22_ * x_13_ - 14 x_45_ * x_13_ + 14 x_22_ * x_19_ + 48 x_27_ * x_19_ + 92 x_50_ * x_19_ + 20 x_23_ * x_22_ + 10 x_38_ * x_29_ ] = -13474
c4: [ 64 x_8_ * x_13_ - 60 x_43_ * x_13_ - 6 x_49_ * x_13_ + 92 x_44_ * x_15_ - 14 x_37_ * x_17_ - 90 x_49_ * x_19_ + 94 x_49_ * x_28_ - 78 x_44_ * x_37_ ] = 5606
c5: [ 12 x_5_ * x_11_ + 4 x_26_ * x_5_ + 54 x_50_ * x_5_ + 10 x_26_ * x_11_ + 88 x_50_ * x_28_ ] = -1494
c6: [ -66 x_2_ * x_12_ + 12 x_24_ * x_2_ + 60 x_46_ * x_2_ - 58 x_12_ * x_7_ - 18 x_24_ * x_7_ - 94 x_24_ * x_10_ + 46 x_24_ * x_15_ - 2 x_46_ * x_15_ - 56 x_41_ * x_17_ + 98 x_46_ * x_17_ + 70 x_41_ * x_21_ ] = -4
c7: [ -96 x_6_ * x_13_ - 32 x_34_ * x_6_ + 34 x_16_ * x_9_ - 74 x_39_ * x_9_ + 70 x_49_ * x_9_ - 64 x_42_ * x_13_ - 30 x_40_ * x_34_ + 68 x_49_ * x_34_ - 82 x_42_ * x_38_ - 34 x_42_ * x_40_ + 50 x_49_ * x_42_ ] = -3868
c8: [ 84 x_8_ * x_18_ - 92 x_30_ * x_8_ + 30 x_42_ * x_9_ - 16 x_39_ * x_18_ + 58 x_42_ * x_21_ ] = -2338
c9: [ -6 x_14_ * x_16_ + 68 x_23_ * x_14_ + 72 x_50_ * x_33_ + 90 x_50_ * x_35_ ] = 4086
c10: [ -40 x_24_ * x_37_ ] = -1000
c11: [ -20 x_9_ * x_12_ - 28 x_43_ * x_13_ + 90 x_37_ * x_19_ - 88 x_46_ * x_24_ + 88 x_48_ * x_46_ ] = -664
c12: [ 24 x_1_ * x_29_ + 32 x_16_ * x_7_ - 34 x_45_ * x_7_ + 54 x_21_ * x_16_ + 50 x_29_ * x_16_ - 50 x_45_ * x_16_ + 38 x_29_ * x_21_ - 96 x_45_ * x_21_ - 72 x_45_ * x_26_ - 50 x_46_ * x_26_ ] = -4112
c13: [ 32 x_2_ * x_6_ - 80 x_8_ * x_2_ + 100 x_18_ * x_6_ + 30 x_46_ * x_8_ - 74 x_30_ * x_18_ + 30 x_46_ * x_26_ ] = -2584
c14: [ -78 x_3_ * x_10_ + 42 x_13_ * x_9_ - 4 x_15_ * x_9_ + 20 x_23_ * x_9_ + 30 x_50_ * x_9_ - 86 x_23_ * x_10_ + 66 x_38_ * x_13_ + 26 x_23_ * x_15_ - 42 x_38_ * x_21_ ] = 6926
c15: [ -32 x_1_ * x_26_ - 48 x_33_ * x_1_ - 62 x_38_ * x_1_ - 12 x_15_ * x_6_ - 22 x_43_ * x_6_ + 44 x_23_ * x_15_ - 24 x_35_ * x_15_ + 88 x_36_ * x_15_ + 92 x_39_ * x_15_ + 26 x_23_ * x_21_ + 86 x_35_ * x_21_ - 50 x_38_ * x_21_ + 18 x_43_ * x_21_ - 80 x_33_ * x_23_ + 92 x_35_ * x_23_ - 6 x_43_ * x_23_ + 38 x_49_ * x_23_ + 28 x_38_ * x_24_ - 86 x_39_ * x_24_ - 70 x_38_ * x_26_ + 90 x_39_ * x_26_ + 98 x_35_ * x_33_ - 24 x_36_ * x_33_ + 34 x_40_ * x_33_ - 100 x_36_ * x_35_ - 86 x_38_ * x_35_ + 90 x_39_ * x_36_ - 96 x_49_ * x_36_ - 24 x_43_ * x_38_ - 36 x_49_ * x_39_ ] = -1546
c16: [ -18 x_17_ * x_48_ - 92 x_22_ * x_18_ + 70 x_26_ * x_18_ + 92 x_36_ * x_22_ + 4 x_36_ * x_26_ + 50 x_38_ * x_26_ - 38 x_48_ * x_26_ - 94 x_38_ * x_36_ ] = 292
c17: [ 24 x_4_ * x_48_ + 28 x_28_ * x_9_ + 52 x_32_ * x_9_ - 20 x_46_ * x_9_ - 86 x_24_ * x_17_ - 88 x_46_ * x_17_ + 26 x_24_ * x_20_ - 2 x_28_ * x_20_ + 70 x_32_ * x_20_ - 6 x_34_ * x_20_ + 62 x_34_ * x_22_ - 52 x_48_ * x_22_ + 36 x_46_ * x_28_ - 42 x_34_ * x_32_ + 68 x_47_ * x_32_ ] = 2144
c18: [ 98 x_3_ * x_37_ + 66 x_46_ * x_3_ - 68 x_22_ * x_11_ - 6 x_36_ * x_11_ + 30 x_37_ * x_15_ + 88 x_33_ * x_16_ + 4 x_37_ * x_16_ - 64 x_26_ * x_19_ - 4 x_36_ * x_19_ + 42 x_46_ * x_19_ - 38 x_46_ * x_26_ + 2 x_46_ * x_36_ + 64 x_46_ * x_37_ ] = -5820
c19: [ 72 x_7_ * x_35_ - 40 x_38_ * x_7_ ] = -2560
c20: [ 28 x_11_ * x_16_ ] = 0
c21: [ 100 x_5_ * x_20_ - 66 x_25_ * x_5_ - 82 x_35_ * x_5_ + 86 x_20_ * x_15_ + 16 x_41_ * x_15_ - 78 x_35_ * x_25_ - 20 x_47_ * x_25_ + 42 x_41_ * x_35_ ] = 3450
c22: [ -50 x_9_ * x_16_ + 42 x_28_ * x_9_ - 40 x_28_ * x_13_ + 96 x_47_ * x_16_ - 70 x_41_ * x_28_ - 98 x_44_ * x_41_ - 54 x_47_ * x_41_ ] = -3340
c23: [ 80 x_1_ * x_26_ + 100 x_29_ * x_1_ - 54 x_36_ * x_1_ + 64 x_44_ * x_7_ + 26 x_24_ * x_14_ + 76 x_26_ * x_14_ + 16 x_30_ * x_14_ + 48 x_35_ * x_14_ - 70 x_50_ * x_17_ - 90 x_32_ * x_22_ + 88 x_48_ * x_22_ - 30 x_30_ * x_24_ - 62 x_36_ * x_24_ - 40 x_29_ * x_26_ + 2 x_32_ * x_26_ - 56 x_44_ * x_26_ - 78 x_32_ * x_29_ + 42 x_36_ * x_29_ + 82 x_44_ * x_29_ - 10 x_48_ * x_29_ + 4 x_50_ * x_30_ - 40 x_36_ * x_35_ + 94 x_50_ * x_35_ ] = -5090
Bounds
2 <= x_1_ <= 6
-10 <= x_2_ <= 10
-8 <= x_3_ <= 6
-6 <= x_4_ <= 3
-4 <= x_5_ <= 8
-9 <= x_6_ <= 1
-8 <= x_7_ <= 10
-4 <= x_8_ <= 2
-10 <= x_9_ <= -4
2 <= x_10_ <= 9
-9 <= x_11_ <= 8
2 <= x_12_ <= 10
-10 <= x_13_ <= 2
-3 <= x_14_ <= 4
-4 <= x_15_ <= 6
-6 <= x_16_ <= 10
-4 <= x_17_ <= 2
-9 <= x_18_ <= 2
-8 <= x_19_ <= 2
4 <= x_20_ <= 10
-5 <= x_21_ <= 5
-8 <= x_22_ <= 1
-6 <= x_23_ <= 1
-1 <= x_24_ <= 10
3 <= x_25_ <= 7
-7 <= x_26_ <= 6
-9 <= x_27_ <= 8
-9 <= x_28_ <= -2
-6 <= x_29_ <= -4
-8 <= x_30_ <= 0
-6 <= x_31_ <= 10
-8 <= x_32_ <= -4
-5 <= x_33_ <= 4
-10 <= x_34_ <= 0
5 <= x_35_ <= 7
-10 <= x_36_ <= 10
5 <= x_37_ <= 7
-8 <= x_38_ <= 8
0 <= x_39_ <= 3
-9 <= x_40_ <= 4
1 <= x_41_ <= 9
-6 <= x_42_ <= 9
-4 <= x_43_ <= 3
6 <= x_44_ <= 8
-6 <= x_45_ <= 3
4 <= x_46_ <= 6
-3 <= x_47_ <= 1
-2 <= x_48_ <= 10
4 <= x_49_ <= 7
1 <= x_50_ <= 9
General
x_1_
x_2_
x_3_
x_4_
x_5_
x_6_
x_7_
x_8_
x_9_
x_10_
x_11_
x_12_
x_13_
x_14_
x_15_
x_16_
x_17_
x_18_
x_19_
x_20_
x_21_
x_22_
x_23_
x_24_
x_25_
x_26_
x_27_
x_28_
x_29_
x_30_
x_31_
x_32_
x_33_
x_34_
x_35_
x_36_
x_37_
x_38_
x_39_
x_40_
x_41_
x_42_
x_43_
x_44_
x_45_
x_46_
x_47_
x_48_
x_49_
x_50_
End
