minimize
obj: 
subject to
quadratic_ranged_1_ub: [ -20 x_18_ ^ 2 + 4 x_44_ * x_18_ + 36 x_22_ ^ 2 ] <= 276
quadratic_ranged_2_ub: [ -78 x_10_ * x_8_ + 78 x_45_ * x_8_ - 98 x_48_ * x_8_ - 30 x_50_ * x_8_ - 54 x_13_ * x_10_ + 62 x_19_ * x_10_ - 52 x_26_ * x_10_ - 24 x_48_ * x_10_ - 84 x_19_ * x_13_ + 22 x_21_ * x_19_ - 41 x_21_ ^ 2 - 80 x_50_ * x_21_ + 32 x_48_ * x_45_ ] <= 5436
quadratic_ranged_3_ub: [ -78 x_32_ * x_13_ - 28 x_46_ * x_13_ + 72 x_49_ * x_13_ + 34 x_44_ * x_14_ + 84 x_45_ * x_14_ + 56 x_47_ * x_14_ + 88 x_49_ * x_14_ - 24 x_49_ * x_17_ - 26 x_45_ * x_25_ + 42 x_46_ * x_25_ - 84 x_50_ * x_32_ - 88 x_47_ * x_44_ - 20 x_50_ * x_44_ + 21 x_49_ ^ 2 ] <= -5249
quadratic_ranged_4_ub: [ 22 x_4_ * x_18_ + 74 x_50_ * x_20_ + 44 x_50_ * x_26_ ] <= 725
quadratic_ranged_5_ub: [ 47 x_6_ ^ 2 + 62 x_48_ * x_6_ - 6 x_50_ * x_6_ + 70 x_42_ * x_14_ + 12 x_48_ * x_14_ - 10 x_24_ ^ 2 - 2 x_28_ * x_24_ - 12 x_42_ * x_24_ + 28 x_46_ * x_24_ - 66 x_48_ * x_24_ + 18 x_42_ * x_38_ + 32 x_42_ * x_41_ + 76 x_50_ * x_41_ + 10 x_48_ * x_42_ ] <= 8150
quadratic_ranged_6_ub: [ 44 x_33_ * x_7_ + 28 x_35_ * x_7_ - 52 x_36_ * x_7_ - 88 x_47_ * x_7_ - 66 x_33_ * x_20_ + 18 x_36_ * x_20_ + 24 x_39_ * x_20_ + 16 x_35_ * x_24_ - 82 x_50_ * x_24_ + 94 x_29_ * x_25_ - 70 x_35_ * x_25_ + 82 x_50_ * x_25_ - 28 x_39_ * x_29_ - 13 x_33_ ^ 2 - 22 x_47_ * x_33_ - 70 x_50_ * x_47_ ] <= -1063
quadratic_ranged_7_ub: [ 84 x_33_ * x_4_ + 58 x_34_ * x_4_ + 32 x_48_ * x_4_ + 54 x_33_ * x_19_ + 12 x_33_ * x_24_ + 32 x_43_ * x_24_ + 90 x_31_ * x_25_ + 94 x_43_ * x_31_ + 42 x_43_ * x_33_ - 25 x_34_ ^ 2 + 36 x_48_ * x_40_ ] <= -7118
quadratic_ranged_8_ub: [ 24 x_27_ * x_6_ - 48 x_31_ * x_6_ - 40 x_50_ * x_6_ + 11 x_13_ ^ 2 + 28 x_32_ * x_13_ + 96 x_16_ * x_14_ - 22 x_27_ * x_14_ + 22 x_33_ * x_14_ - 32 x_47_ * x_14_ + 6 x_26_ * x_16_ - 68 x_30_ * x_20_ - 96 x_32_ * x_20_ + 88 x_26_ * x_24_ + 100 x_32_ * x_26_ + 88 x_33_ * x_26_ + 100 x_36_ * x_26_ + 42 x_39_ * x_26_ - 18 x_39_ * x_30_ - 36 x_44_ * x_30_ + 100 x_50_ * x_30_ - 17 x_31_ ^ 2 + 96 x_39_ * x_31_ + 26 x_44_ * x_31_ + 18 x_47_ * x_31_ - 100 x_39_ * x_33_ + 44 x_47_ * x_33_ + 2 x_44_ * x_39_ + 15 x_50_ ^ 2 ] <= 457
quadratic_ranged_9_ub: [ 88 x_4_ * x_2_ - 46 x_9_ * x_4_ - 52 x_22_ * x_4_ + 14 x_48_ * x_4_ + 22 x_14_ * x_9_ + 12 x_16_ * x_9_ - 68 x_35_ * x_9_ - 32 x_10_ ^ 2 + 22 x_35_ * x_10_ - 18 x_50_ * x_10_ + 54 x_22_ * x_16_ - 22 x_50_ * x_16_ + 2 x_35_ * x_20_ - 22 x_48_ * x_43_ ] <= -2505
quadratic_ranged_10_ub: [ 60 x_12_ * x_21_ - 40 x_40_ * x_12_ + 12 x_42_ * x_21_ ] <= 1264
quadratic_ranged_11_ub: [ -86 x_8_ * x_4_ - 10 x_9_ * x_4_ - 9 x_5_ ^ 2 - 82 x_8_ * x_5_ + 62 x_9_ * x_5_ + 32 x_35_ * x_5_ + 14 x_22_ * x_8_ + 40 x_25_ * x_8_ - 12 x_35_ * x_8_ + 38 x_22_ * x_9_ + 98 x_35_ * x_9_ - 76 x_35_ * x_22_ - 45 x_25_ ^ 2 - 7 x_35_ ^ 2 ] <= -4358
quadratic_ranged_12_ub: [ 40 x_6_ ^ 2 + 22 x_22_ * x_6_ + 58 x_23_ * x_9_ + 92 x_28_ * x_9_ + 96 x_12_ * x_11_ + 20 x_19_ * x_11_ + 22 x_43_ * x_11_ - 98 x_23_ * x_12_ - 1 x_19_ ^ 2 - 70 x_43_ * x_19_ - 20 x_22_ ^ 2 - 35 x_43_ ^ 2 ] <= -7776
quadratic_ranged_13_ub: [ -20 x_16_ * x_1_ - 58 x_31_ * x_1_ + 50 x_3_ ^ 2 - 18 x_19_ * x_5_ + 64 x_29_ * x_16_ ] <= 3312
quadratic_ranged_14_ub: [ 41 x_3_ ^ 2 - 36 x_30_ * x_3_ + 2 x_5_ ^ 2 - 74 x_12_ * x_5_ + 92 x_19_ * x_5_ + 60 x_30_ * x_5_ + 76 x_24_ * x_18_ - 94 x_30_ * x_19_ - 16 x_26_ * x_24_ + 66 x_50_ * x_24_ - 48 x_40_ * x_30_ - 68 x_50_ * x_30_ - 48 x_40_ ^ 2 + 28 x_50_ * x_40_ ] <= 1901
quadratic_ranged_15_ub: [ -82 x_16_ * x_1_ + 78 x_47_ * x_1_ - 10 x_28_ * x_14_ + 14 x_29_ * x_14_ + 82 x_31_ * x_14_ - 88 x_32_ * x_14_ - 94 x_37_ * x_14_ + 28 x_22_ * x_15_ + 6 x_31_ * x_16_ - 14 x_47_ * x_16_ - 30 x_25_ * x_22_ + 52 x_31_ * x_22_ + 42 x_49_ * x_22_ + 86 x_50_ * x_25_ - 82 x_34_ * x_28_ - 98 x_31_ * x_29_ - 6 x_37_ * x_29_ + 26 x_50_ * x_29_ - 94 x_34_ * x_31_ + 52 x_49_ * x_31_ - 16 x_49_ * x_32_ + 18 x_37_ ^ 2 + 64 x_47_ * x_43_ ] <= -6076
quadratic_ranged_16_ub: [ 32 x_47_ * x_28_ - 15 x_38_ ^ 2 ] <= 804
quadratic_ranged_17_ub: [ -96 x_2_ * x_17_ - 12 x_17_ * x_5_ + 52 x_48_ * x_5_ + 74 x_38_ * x_17_ - 50 x_39_ * x_17_ - 50 x_47_ * x_17_ + 10 x_45_ * x_19_ + 76 x_38_ * x_36_ + 56 x_47_ * x_36_ - 78 x_48_ * x_36_ + 90 x_47_ * x_38_ + 2 x_43_ * x_39_ + 30 x_45_ * x_39_ - 92 x_48_ * x_45_ + 88 x_48_ * x_47_ ] <= 15396
quadratic_ranged_18_ub: [ 88 x_18_ * x_9_ + 26 x_27_ * x_9_ + 40 x_43_ * x_9_ + 56 x_37_ * x_18_ - 48 x_50_ * x_18_ + 74 x_27_ * x_25_ + 22 x_29_ * x_25_ + 84 x_37_ * x_25_ + 20 x_32_ * x_27_ - 74 x_37_ * x_27_ + 54 x_43_ * x_27_ + 82 x_50_ * x_27_ + 34 x_37_ * x_29_ + 56 x_43_ * x_29_ - 41 x_32_ ^ 2 - 36 x_50_ * x_32_ - 66 x_37_ * x_36_ + 66 x_42_ * x_36_ - 46 x_47_ * x_36_ + 36 x_50_ * x_36_ + 86 x_42_ * x_37_ + 26 x_50_ * x_42_ + 86 x_46_ * x_43_ + 78 x_47_ * x_43_ - 15 x_46_ ^ 2 + 82 x_47_ * x_46_ - 50 x_50_ * x_46_ ] <= -8286
quadratic_ranged_19_ub: [ -22 x_13_ * x_11_ - 64 x_37_ * x_11_ + 76 x_39_ * x_11_ - 40 x_34_ * x_12_ + 82 x_39_ * x_12_ + 52 x_29_ * x_13_ + 86 x_39_ * x_13_ + 36 x_49_ * x_13_ + 7 x_29_ ^ 2 + 66 x_30_ * x_29_ - 22 x_34_ * x_29_ + 28 x_34_ * x_30_ + 12 x_41_ * x_30_ - 60 x_50_ * x_30_ - 36 x_49_ ^ 2 + 26 x_50_ ^ 2 ] <= 11333
quadratic_ranged_20_ub: [ 34 x_30_ * x_3_ + 8 x_13_ * x_6_ - 28 x_30_ * x_6_ + 10 x_40_ * x_6_ - 84 x_40_ * x_13_ - 6 x_30_ * x_20_ - 6 x_40_ * x_20_ - 16 x_40_ ^ 2 ] <= -699
quadratic_ranged_1_lb: [ -20 x_18_ ^ 2 + 4 x_44_ * x_18_ + 36 x_22_ ^ 2 ] >= 270
quadratic_ranged_2_lb: [ -78 x_10_ * x_8_ + 78 x_45_ * x_8_ - 98 x_48_ * x_8_ - 30 x_50_ * x_8_ - 54 x_13_ * x_10_ + 62 x_19_ * x_10_ - 52 x_26_ * x_10_ - 24 x_48_ * x_10_ - 84 x_19_ * x_13_ + 22 x_21_ * x_19_ - 41 x_21_ ^ 2 - 80 x_50_ * x_21_ + 32 x_48_ * x_45_ ] >= 5427
quadratic_ranged_3_lb: [ -78 x_32_ * x_13_ - 28 x_46_ * x_13_ + 72 x_49_ * x_13_ + 34 x_44_ * x_14_ + 84 x_45_ * x_14_ + 56 x_47_ * x_14_ + 88 x_49_ * x_14_ - 24 x_49_ * x_17_ - 26 x_45_ * x_25_ + 42 x_46_ * x_25_ - 84 x_50_ * x_32_ - 88 x_47_ * x_44_ - 20 x_50_ * x_44_ + 21 x_49_ ^ 2 ] >= -5255
quadratic_ranged_4_lb: [ 22 x_4_ * x_18_ + 74 x_50_ * x_20_ + 44 x_50_ * x_26_ ] >= 718
quadratic_ranged_5_lb: [ 47 x_6_ ^ 2 + 62 x_48_ * x_6_ - 6 x_50_ * x_6_ + 70 x_42_ * x_14_ + 12 x_48_ * x_14_ - 10 x_24_ ^ 2 - 2 x_28_ * x_24_ - 12 x_42_ * x_24_ + 28 x_46_ * x_24_ - 66 x_48_ * x_24_ + 18 x_42_ * x_38_ + 32 x_42_ * x_41_ + 76 x_50_ * x_41_ + 10 x_48_ * x_42_ ] >= 8145
quadratic_ranged_6_lb: [ 44 x_33_ * x_7_ + 28 x_35_ * x_7_ - 52 x_36_ * x_7_ - 88 x_47_ * x_7_ - 66 x_33_ * x_20_ + 18 x_36_ * x_20_ + 24 x_39_ * x_20_ + 16 x_35_ * x_24_ - 82 x_50_ * x_24_ + 94 x_29_ * x_25_ - 70 x_35_ * x_25_ + 82 x_50_ * x_25_ - 28 x_39_ * x_29_ - 13 x_33_ ^ 2 - 22 x_47_ * x_33_ - 70 x_50_ * x_47_ ] >= -1067
quadratic_ranged_7_lb: [ 84 x_33_ * x_4_ + 58 x_34_ * x_4_ + 32 x_48_ * x_4_ + 54 x_33_ * x_19_ + 12 x_33_ * x_24_ + 32 x_43_ * x_24_ + 90 x_31_ * x_25_ + 94 x_43_ * x_31_ + 42 x_43_ * x_33_ - 25 x_34_ ^ 2 + 36 x_48_ * x_40_ ] >= -7124
quadratic_ranged_8_lb: [ 24 x_27_ * x_6_ - 48 x_31_ * x_6_ - 40 x_50_ * x_6_ + 11 x_13_ ^ 2 + 28 x_32_ * x_13_ + 96 x_16_ * x_14_ - 22 x_27_ * x_14_ + 22 x_33_ * x_14_ - 32 x_47_ * x_14_ + 6 x_26_ * x_16_ - 68 x_30_ * x_20_ - 96 x_32_ * x_20_ + 88 x_26_ * x_24_ + 100 x_32_ * x_26_ + 88 x_33_ * x_26_ + 100 x_36_ * x_26_ + 42 x_39_ * x_26_ - 18 x_39_ * x_30_ - 36 x_44_ * x_30_ + 100 x_50_ * x_30_ - 17 x_31_ ^ 2 + 96 x_39_ * x_31_ + 26 x_44_ * x_31_ + 18 x_47_ * x_31_ - 100 x_39_ * x_33_ + 44 x_47_ * x_33_ + 2 x_44_ * x_39_ + 15 x_50_ ^ 2 ] >= 451
quadratic_ranged_9_lb: [ 88 x_4_ * x_2_ - 46 x_9_ * x_4_ - 52 x_22_ * x_4_ + 14 x_48_ * x_4_ + 22 x_14_ * x_9_ + 12 x_16_ * x_9_ - 68 x_35_ * x_9_ - 32 x_10_ ^ 2 + 22 x_35_ * x_10_ - 18 x_50_ * x_10_ + 54 x_22_ * x_16_ - 22 x_50_ * x_16_ + 2 x_35_ * x_20_ - 22 x_48_ * x_43_ ] >= -2514
quadratic_ranged_10_lb: [ 60 x_12_ * x_21_ - 40 x_40_ * x_12_ + 12 x_42_ * x_21_ ] >= 1258
quadratic_ranged_11_lb: [ -86 x_8_ * x_4_ - 10 x_9_ * x_4_ - 9 x_5_ ^ 2 - 82 x_8_ * x_5_ + 62 x_9_ * x_5_ + 32 x_35_ * x_5_ + 14 x_22_ * x_8_ + 40 x_25_ * x_8_ - 12 x_35_ * x_8_ + 38 x_22_ * x_9_ + 98 x_35_ * x_9_ - 76 x_35_ * x_22_ - 45 x_25_ ^ 2 - 7 x_35_ ^ 2 ] >= -4359
quadratic_ranged_12_lb: [ 40 x_6_ ^ 2 + 22 x_22_ * x_6_ + 58 x_23_ * x_9_ + 92 x_28_ * x_9_ + 96 x_12_ * x_11_ + 20 x_19_ * x_11_ + 22 x_43_ * x_11_ - 98 x_23_ * x_12_ - 1 x_19_ ^ 2 - 70 x_43_ * x_19_ - 20 x_22_ ^ 2 - 35 x_43_ ^ 2 ] >= -7781
quadratic_ranged_13_lb: [ -20 x_16_ * x_1_ - 58 x_31_ * x_1_ + 50 x_3_ ^ 2 - 18 x_19_ * x_5_ + 64 x_29_ * x_16_ ] >= 3303
quadratic_ranged_14_lb: [ 41 x_3_ ^ 2 - 36 x_30_ * x_3_ + 2 x_5_ ^ 2 - 74 x_12_ * x_5_ + 92 x_19_ * x_5_ + 60 x_30_ * x_5_ + 76 x_24_ * x_18_ - 94 x_30_ * x_19_ - 16 x_26_ * x_24_ + 66 x_50_ * x_24_ - 48 x_40_ * x_30_ - 68 x_50_ * x_30_ - 48 x_40_ ^ 2 + 28 x_50_ * x_40_ ] >= 1895
quadratic_ranged_15_lb: [ -82 x_16_ * x_1_ + 78 x_47_ * x_1_ - 10 x_28_ * x_14_ + 14 x_29_ * x_14_ + 82 x_31_ * x_14_ - 88 x_32_ * x_14_ - 94 x_37_ * x_14_ + 28 x_22_ * x_15_ + 6 x_31_ * x_16_ - 14 x_47_ * x_16_ - 30 x_25_ * x_22_ + 52 x_31_ * x_22_ + 42 x_49_ * x_22_ + 86 x_50_ * x_25_ - 82 x_34_ * x_28_ - 98 x_31_ * x_29_ - 6 x_37_ * x_29_ + 26 x_50_ * x_29_ - 94 x_34_ * x_31_ + 52 x_49_ * x_31_ - 16 x_49_ * x_32_ + 18 x_37_ ^ 2 + 64 x_47_ * x_43_ ] >= -6078
quadratic_ranged_16_lb: [ 32 x_47_ * x_28_ - 15 x_38_ ^ 2 ] >= 801
quadratic_ranged_17_lb: [ -96 x_2_ * x_17_ - 12 x_17_ * x_5_ + 52 x_48_ * x_5_ + 74 x_38_ * x_17_ - 50 x_39_ * x_17_ - 50 x_47_ * x_17_ + 10 x_45_ * x_19_ + 76 x_38_ * x_36_ + 56 x_47_ * x_36_ - 78 x_48_ * x_36_ + 90 x_47_ * x_38_ + 2 x_43_ * x_39_ + 30 x_45_ * x_39_ - 92 x_48_ * x_45_ + 88 x_48_ * x_47_ ] >= 15392
quadratic_ranged_18_lb: [ 88 x_18_ * x_9_ + 26 x_27_ * x_9_ + 40 x_43_ * x_9_ + 56 x_37_ * x_18_ - 48 x_50_ * x_18_ + 74 x_27_ * x_25_ + 22 x_29_ * x_25_ + 84 x_37_ * x_25_ + 20 x_32_ * x_27_ - 74 x_37_ * x_27_ + 54 x_43_ * x_27_ + 82 x_50_ * x_27_ + 34 x_37_ * x_29_ + 56 x_43_ * x_29_ - 41 x_32_ ^ 2 - 36 x_50_ * x_32_ - 66 x_37_ * x_36_ + 66 x_42_ * x_36_ - 46 x_47_ * x_36_ + 36 x_50_ * x_36_ + 86 x_42_ * x_37_ + 26 x_50_ * x_42_ + 86 x_46_ * x_43_ + 78 x_47_ * x_43_ - 15 x_46_ ^ 2 + 82 x_47_ * x_46_ - 50 x_50_ * x_46_ ] >= -8291
quadratic_ranged_19_lb: [ -22 x_13_ * x_11_ - 64 x_37_ * x_11_ + 76 x_39_ * x_11_ - 40 x_34_ * x_12_ + 82 x_39_ * x_12_ + 52 x_29_ * x_13_ + 86 x_39_ * x_13_ + 36 x_49_ * x_13_ + 7 x_29_ ^ 2 + 66 x_30_ * x_29_ - 22 x_34_ * x_29_ + 28 x_34_ * x_30_ + 12 x_41_ * x_30_ - 60 x_50_ * x_30_ - 36 x_49_ ^ 2 + 26 x_50_ ^ 2 ] >= 11331
quadratic_ranged_20_lb: [ 34 x_30_ * x_3_ + 8 x_13_ * x_6_ - 28 x_30_ * x_6_ + 10 x_40_ * x_6_ - 84 x_40_ * x_13_ - 6 x_30_ * x_20_ - 6 x_40_ * x_20_ - 16 x_40_ ^ 2 ] >= -707
c1: [ 68 x_12_ * x_1_ - 54 x_46_ * x_1_ + 8 x_47_ * x_1_ + 32 x_29_ * x_12_ + 6 x_33_ * x_12_ + 62 x_34_ * x_12_ - 78 x_34_ * x_32_ + 6 x_46_ * x_33_ - 64 x_49_ * x_41_ - 1 x_49_ ^ 2 ] = -5394
c2: [ -43 x_11_ ^ 2 - 2 x_17_ * x_11_ + 32 x_12_ ^ 2 + 38 x_18_ * x_12_ - 74 x_24_ * x_12_ + 40 x_39_ * x_12_ + 44 x_35_ * x_14_ + 68 x_33_ * x_17_ - 30 x_20_ * x_18_ - 16 x_24_ * x_18_ + 26 x_35_ * x_29_ ] = 8957
c3: [ 13 x_5_ ^ 2 - 50 x_25_ * x_5_ + 94 x_45_ * x_5_ - 58 x_25_ * x_13_ + 2 x_45_ * x_16_ + 32 x_48_ * x_16_ - 94 x_25_ * x_18_ + 15 x_25_ ^ 2 - 82 x_48_ * x_25_ - 36 x_32_ ^ 2 + 78 x_45_ * x_39_ + 30 x_45_ ^ 2 ] = -4685
c4: [ -36 x_2_ ^ 2 - 66 x_15_ * x_2_ - 11 x_15_ ^ 2 + 26 x_16_ * x_15_ + 72 x_22_ * x_15_ + 16 x_36_ * x_15_ - 2 x_43_ * x_15_ - 76 x_22_ * x_16_ - 64 x_40_ * x_16_ - 62 x_43_ * x_16_ + 18 x_40_ * x_36_ + 23 x_43_ ^ 2 ] = -3448
c5: [ 29 x_2_ ^ 2 + 48 x_7_ * x_2_ + 32 x_26_ * x_2_ - 62 x_44_ * x_2_ - 20 x_10_ * x_7_ - 76 x_19_ * x_7_ + 88 x_44_ * x_10_ - 18 x_22_ * x_19_ - 40 x_20_ ^ 2 - 56 x_44_ * x_22_ + 70 x_41_ * x_26_ ] = -4153
c6: [ -82 x_1_ * x_19_ + 4 x_23_ * x_4_ + 46 x_44_ * x_9_ + 10 x_23_ * x_20_ - 94 x_48_ * x_36_ + 12 x_48_ * x_37_ + 12 x_48_ * x_44_ ] = -4394
c7: [ 36 x_9_ ^ 2 - 36 x_14_ * x_9_ - 44 x_19_ * x_9_ + 90 x_20_ * x_9_ + 98 x_20_ * x_14_ - 50 x_40_ * x_14_ - 94 x_19_ * x_18_ - 48 x_41_ * x_32_ + 62 x_50_ * x_32_ + 70 x_41_ * x_40_ ] = 7968
c8: [ -4 x_24_ * x_6_ - 64 x_31_ * x_6_ + 4 x_33_ * x_6_ - 50 x_37_ * x_6_ + 7 x_11_ ^ 2 - 88 x_37_ * x_11_ + 44 x_20_ * x_14_ + 78 x_21_ * x_14_ - 52 x_41_ * x_21_ + 20 x_23_ ^ 2 - 48 x_24_ * x_23_ - 56 x_33_ * x_23_ - 96 x_37_ * x_31_ + 18 x_34_ * x_33_ - 78 x_41_ * x_33_ - 36 x_34_ ^ 2 ] = 4463
c9: [ 12 x_11_ * x_1_ + 2 x_37_ * x_1_ - 94 x_13_ * x_6_ + 48 x_14_ * x_11_ + 26 x_31_ * x_11_ - 50 x_37_ * x_11_ + 78 x_49_ * x_11_ - 98 x_31_ * x_13_ - 74 x_49_ * x_13_ - 37 x_14_ ^ 2 - 16 x_20_ ^ 2 + 12 x_35_ * x_31_ + 6 x_37_ * x_31_ + 19 x_35_ ^ 2 - 32 x_37_ ^ 2 - 26 x_47_ ^ 2 ] = -1742
c10: [ -20 x_16_ ^ 2 - 30 x_19_ * x_16_ - 68 x_41_ * x_16_ + 92 x_28_ * x_19_ - 4 x_25_ * x_21_ + 46 x_28_ ^ 2 - 78 x_33_ * x_28_ ] = 696
c11: [ -96 x_42_ * x_21_ - 48 x_41_ * x_33_ + 22 x_42_ ^ 2 ] = -8
c12: [ -16 x_1_ ^ 2 + 24 x_6_ * x_1_ - 74 x_23_ * x_1_ + 60 x_18_ * x_3_ + 66 x_43_ * x_3_ - 36 x_50_ * x_3_ + 100 x_27_ * x_5_ + 50 x_40_ * x_5_ - 46 x_8_ * x_6_ + 38 x_21_ * x_6_ + 66 x_18_ * x_8_ + 86 x_27_ * x_8_ + 2 x_33_ * x_8_ + 12 x_50_ * x_8_ - 96 x_43_ * x_13_ + 10 x_48_ * x_13_ + 28 x_23_ * x_17_ - 92 x_42_ * x_17_ + 13 x_18_ ^ 2 + 96 x_27_ * x_21_ + 12 x_33_ * x_21_ + 72 x_48_ * x_21_ + 14 x_27_ * x_23_ - 84 x_40_ * x_23_ - 78 x_50_ * x_48_ ] = 25150
c13: [ -42 x_8_ * x_3_ + 16 x_14_ * x_3_ - 86 x_14_ * x_8_ - 70 x_20_ * x_8_ - 10 x_30_ * x_8_ - 94 x_36_ * x_8_ + 1 x_12_ ^ 2 - 98 x_30_ * x_12_ + 86 x_20_ * x_14_ + 84 x_24_ * x_14_ + 12 x_30_ * x_15_ + 100 x_36_ * x_24_ ] = 24155
c14: [ 74 x_15_ * x_7_ - 72 x_38_ * x_7_ + 40 x_15_ ^ 2 - 84 x_19_ * x_15_ - 98 x_34_ * x_19_ + 70 x_49_ * x_19_ + 4 x_21_ ^ 2 - 94 x_49_ * x_38_ ] = 3004
c15: [ 74 x_15_ * x_1_ + 10 x_18_ * x_1_ + 60 x_44_ * x_1_ + 88 x_46_ * x_1_ + 4 x_13_ * x_10_ - 44 x_46_ * x_10_ - 9 x_14_ ^ 2 + 70 x_46_ * x_14_ - 14 x_15_ ^ 2 + 38 x_44_ * x_18_ + 58 x_46_ * x_18_ - 90 x_48_ * x_44_ - 13 x_46_ ^ 2 + 82 x_47_ * x_46_ + 82 x_48_ * x_46_ - 28 x_48_ ^ 2 ] = 3007
c16: [ -31 x_2_ ^ 2 + 44 x_38_ * x_2_ ] = -543
c17: [ 76 x_9_ * x_1_ - 24 x_30_ * x_1_ + 98 x_38_ * x_1_ + 4 x_45_ * x_1_ - 8 x_9_ * x_6_ - 32 x_32_ * x_6_ + 52 x_45_ * x_6_ + 80 x_21_ * x_9_ + 76 x_30_ * x_9_ - 36 x_46_ * x_9_ - 4 x_45_ * x_29_ + 54 x_42_ * x_30_ - 28 x_42_ * x_32_ - 82 x_46_ * x_32_ + 23 x_42_ ^ 2 ] = -852
c18: [ 26 x_26_ * x_14_ - 6 x_22_ * x_15_ + 80 x_37_ * x_15_ + 64 x_50_ * x_15_ + 28 x_21_ * x_19_ + 54 x_29_ * x_19_ + 100 x_50_ * x_19_ + 40 x_37_ * x_21_ + 64 x_25_ * x_22_ + 14 x_44_ * x_26_ + 16 x_44_ * x_29_ - 5 x_44_ ^ 2 ] = 1477
c19: [ -50 x_16_ * x_15_ + 48 x_20_ * x_15_ - 14 x_24_ * x_15_ + 90 x_35_ * x_15_ + 52 x_46_ * x_15_ + 31 x_20_ ^ 2 + 4 x_46_ * x_20_ + 25 x_22_ ^ 2 - 54 x_33_ * x_22_ + 96 x_35_ * x_22_ - 16 x_33_ * x_24_ + 38 x_38_ * x_33_ - 44 x_35_ ^ 2 - 56 x_44_ * x_35_ + 6 x_42_ * x_38_ - 82 x_44_ * x_38_ + 14 x_46_ ^ 2 ] = -1029
c20: [ 48 x_26_ * x_6_ + 32 x_39_ * x_6_ + 60 x_42_ * x_6_ + 98 x_21_ * x_8_ + 40 x_39_ * x_8_ - 6 x_11_ ^ 2 - 66 x_20_ * x_11_ - 10 x_39_ * x_11_ - 82 x_32_ * x_14_ - 66 x_44_ * x_14_ - 1 x_20_ ^ 2 + 32 x_36_ * x_20_ - 78 x_48_ * x_20_ - 22 x_21_ ^ 2 - 26 x_48_ * x_21_ + 46 x_34_ * x_26_ - 88 x_44_ * x_26_ - 74 x_34_ * x_32_ + 2 x_40_ * x_32_ + 29 x_34_ ^ 2 + 30 x_39_ * x_34_ - 10 x_36_ ^ 2 - 36 x_48_ * x_39_ - 7 x_40_ ^ 2 - 30 x_42_ * x_40_ ] = -6481
c21: [ -26 x_17_ * x_1_ - 56 x_23_ * x_1_ - 34 x_31_ * x_1_ - 72 x_34_ * x_1_ - 2 x_46_ * x_1_ + 29 x_2_ ^ 2 + 56 x_3_ * x_2_ - 10 x_23_ * x_2_ - 40 x_29_ * x_2_ + 74 x_43_ * x_2_ + 100 x_31_ * x_3_ - 44 x_43_ * x_3_ - 60 x_24_ * x_4_ - 94 x_31_ * x_4_ + 5 x_5_ ^ 2 - 24 x_47_ * x_5_ - 32 x_47_ * x_17_ + 16 x_43_ * x_31_ + 20 x_46_ * x_34_ ] = 523
c22: [ 94 x_21_ * x_1_ - 28 x_18_ * x_15_ + 4 x_27_ * x_15_ + 42 x_27_ * x_16_ + 40 x_29_ * x_16_ + 14 x_18_ ^ 2 - 58 x_21_ * x_18_ - 82 x_27_ * x_18_ - 46 x_41_ * x_18_ + 16 x_29_ * x_27_ - 62 x_35_ * x_27_ - 6 x_46_ * x_27_ + 41 x_29_ ^ 2 - 56 x_46_ * x_29_ - 72 x_48_ * x_29_ + 18 x_49_ * x_29_ - 62 x_49_ * x_35_ - 76 x_49_ * x_48_ + 38 x_50_ * x_48_ + 18 x_49_ ^ 2 - 26 x_50_ * x_49_ ] = 5299
c23: [ 68 x_50_ * x_4_ + 19 x_14_ ^ 2 - 1 x_20_ ^ 2 ] = 2278
c24: [ 24 x_3_ ^ 2 + 94 x_50_ * x_3_ ] = -744
c25: [ -32 x_1_ ^ 2 - 22 x_7_ * x_1_ - 92 x_19_ * x_1_ + 44 x_32_ * x_1_ - 72 x_10_ * x_7_ - 68 x_20_ * x_7_ - 46 x_31_ * x_7_ + 24 x_32_ * x_7_ + 28 x_23_ * x_12_ - 52 x_20_ * x_19_ - 36 x_32_ * x_20_ - 88 x_32_ * x_23_ + 48 x_38_ * x_32_ + 72 x_48_ * x_32_ ] = 20
c26: [ 86 x_29_ * x_4_ + 82 x_30_ * x_4_ - 66 x_30_ * x_5_ - 2 x_30_ * x_7_ + 33 x_30_ ^ 2 + 78 x_45_ * x_30_ + 23 x_45_ ^ 2 ] = 3645
c27: [ -32 x_2_ * x_49_ + 28 x_7_ * x_4_ - 92 x_12_ * x_7_ + 88 x_49_ * x_12_ ] = -9120
c28: [ 74 x_8_ * x_5_ - 8 x_12_ * x_5_ + 60 x_18_ * x_5_ + 26 x_32_ * x_5_ + 70 x_45_ * x_5_ + 2 x_48_ * x_5_ - 48 x_50_ * x_5_ - 24 x_14_ * x_6_ + 98 x_15_ * x_6_ + 12 x_12_ * x_8_ + 80 x_15_ * x_8_ + 84 x_18_ * x_8_ - 38 x_32_ * x_8_ - 6 x_45_ * x_8_ + 60 x_50_ * x_8_ - 17 x_9_ ^ 2 + 74 x_14_ * x_9_ - 60 x_18_ * x_12_ - 18 x_32_ * x_12_ + 44 x_48_ * x_12_ - 74 x_36_ * x_14_ - 12 x_37_ * x_14_ + 60 x_45_ * x_14_ + 68 x_41_ * x_15_ - 28 x_48_ * x_15_ + 62 x_41_ * x_18_ - 56 x_45_ * x_27_ - 64 x_36_ * x_32_ - 66 x_41_ * x_32_ - 42 x_45_ * x_32_ + 26 x_50_ * x_36_ - 60 x_45_ * x_37_ + 34 x_50_ * x_37_ + 10 x_41_ ^ 2 + 82 x_45_ * x_41_ - 34 x_48_ ^ 2 ] = 2858
c29: [ -74 x_3_ * x_37_ - 74 x_44_ * x_3_ - 42 x_11_ * x_9_ - 98 x_17_ * x_9_ - 28 x_31_ * x_9_ + 26 x_17_ * x_11_ - 48 x_31_ * x_11_ + 54 x_41_ * x_11_ - 32 x_47_ * x_11_ - 36 x_41_ * x_17_ - 98 x_47_ * x_17_ + 72 x_39_ * x_37_ - 74 x_44_ * x_37_ ] = 15818
c30: [ 10 x_9_ * x_5_ - 8 x_27_ * x_5_ - 86 x_33_ * x_5_ + 34 x_46_ * x_5_ + 80 x_16_ * x_9_ - 52 x_18_ * x_9_ - 68 x_22_ * x_9_ - 64 x_33_ * x_9_ - 96 x_44_ * x_10_ + 100 x_19_ * x_14_ + 16 x_19_ * x_16_ + 4 x_27_ * x_16_ - 46 x_32_ * x_16_ - 62 x_33_ * x_16_ - 82 x_18_ * x_17_ - 18 x_27_ * x_17_ - 62 x_32_ * x_18_ - 54 x_27_ * x_19_ - 20 x_33_ * x_19_ - 37 x_22_ ^ 2 + 50 x_32_ * x_22_ - 56 x_32_ * x_27_ + 21 x_33_ ^ 2 + 80 x_46_ * x_33_ + 25 x_46_ ^ 2 ] = 1387
Bounds
3 <= x_1_ <= 10
-9 <= x_2_ <= 7
-8 <= x_3_ <= 9
-10 <= x_4_ <= 2
1 <= x_5_ <= 8
-9 <= x_6_ <= 6
-9 <= x_7_ <= 1
-1 <= x_8_ <= 9
-5 <= x_9_ <= 4
-8 <= x_10_ <= 9
-1 <= x_11_ <= 9
-9 <= x_12_ <= -1
-6 <= x_13_ <= 6
-10 <= x_14_ <= -1
-4 <= x_15_ <= 10
-7 <= x_16_ <= 2
-3 <= x_17_ <= 10
-9 <= x_18_ <= 5
-3 <= x_19_ <= -2
-10 <= x_20_ <= 2
-8 <= x_21_ <= -2
-4 <= x_22_ <= 4
-3 <= x_23_ <= 0
-3 <= x_24_ <= 9
-9 <= x_25_ <= 5
-3 <= x_26_ <= 6
-2 <= x_27_ <= 10
-9 <= x_28_ <= -3
-9 <= x_29_ <= -3
0 <= x_30_ <= 8
-7 <= x_31_ <= 9
-1 <= x_32_ <= 8
4 <= x_33_ <= 8
-6 <= x_34_ <= 10
-8 <= x_35_ <= 0
-7 <= x_36_ <= 9
-1 <= x_37_ <= 2
-10 <= x_38_ <= 1
-10 <= x_39_ <= -7
-9 <= x_40_ <= 10
-3 <= x_41_ <= 10
-10 <= x_42_ <= 2
-9 <= x_43_ <= 10
-3 <= x_44_ <= 2
-7 <= x_45_ <= 6
-5 <= x_46_ <= 3
-10 <= x_47_ <= 3
-10 <= x_48_ <= 1
-8 <= x_49_ <= 6
-10 <= x_50_ <= 10
General
x_1_
x_2_
x_3_
x_4_
x_5_
x_6_
x_7_
x_8_
x_9_
x_10_
x_11_
x_12_
x_13_
x_14_
x_15_
x_16_
x_17_
x_18_
x_19_
x_20_
x_21_
x_22_
x_23_
x_24_
x_25_
x_26_
x_27_
x_28_
x_29_
x_30_
x_31_
x_32_
x_33_
x_34_
x_35_
x_36_
x_37_
x_38_
x_39_
x_40_
x_41_
x_42_
x_43_
x_44_
x_45_
x_46_
x_47_
x_48_
x_49_
x_50_
End
