minimize
obj: 
subject to
quadratic_ranged_1_ub: [ -49 x_19_ ^ 2 + 84 x_27_ * x_19_ - 82 x_28_ * x_19_ - 46 x_47_ * x_19_ + 62 x_49_ * x_19_ - 78 x_26_ * x_21_ + 60 x_49_ * x_22_ - 54 x_43_ * x_23_ + 12 x_49_ * x_23_ - 45 x_25_ ^ 2 - 78 x_28_ * x_26_ - 40 x_47_ * x_26_ + 42 x_49_ * x_26_ - 24 x_43_ * x_27_ + 38 x_43_ * x_28_ + 86 x_50_ * x_28_ - 84 x_47_ * x_43_ + 72 x_47_ * x_46_ + 74 x_50_ * x_46_ + 17 x_47_ ^ 2 - 92 x_50_ * x_47_ ] <= -11622
quadratic_ranged_2_ub: [ -100 x_41_ * x_30_ - 48 x_31_ ^ 2 ] <= -2096
quadratic_ranged_3_ub: [ -8 x_2_ ^ 2 + 96 x_12_ * x_2_ - 86 x_14_ * x_2_ + 80 x_17_ * x_2_ - 32 x_12_ * x_5_ + 42 x_28_ * x_5_ - 40 x_49_ * x_5_ + 18 x_20_ * x_9_ - 26 x_28_ * x_9_ + 42 x_27_ * x_10_ + 2 x_48_ * x_10_ - 86 x_27_ * x_12_ - 26 x_48_ * x_12_ + 26 x_49_ * x_12_ + 78 x_48_ * x_14_ - 26 x_17_ ^ 2 - 50 x_20_ * x_17_ + 72 x_28_ * x_17_ + 36 x_18_ ^ 2 - 6 x_28_ * x_18_ - 62 x_49_ * x_18_ + 100 x_48_ * x_20_ + 39 x_27_ ^ 2 - 28 x_28_ * x_27_ ] <= -5025
quadratic_ranged_4_ub: [ 5 x_9_ ^ 2 - 18 x_25_ * x_9_ - 32 x_11_ ^ 2 + 82 x_25_ * x_11_ + 42 x_45_ * x_11_ + 14 x_45_ * x_13_ + 56 x_30_ * x_18_ ] <= -7075
quadratic_ranged_5_ub: [ -78 x_37_ * x_7_ - 28 x_42_ * x_7_ + 84 x_34_ * x_12_ - 28 x_46_ * x_12_ + 16 x_13_ ^ 2 + 46 x_34_ ^ 2 - 56 x_47_ * x_34_ + 6 x_46_ ^ 2 ] <= 1124
quadratic_ranged_6_ub: [ 4 x_19_ * x_3_ + 50 x_20_ * x_3_ + 8 x_34_ * x_3_ + 34 x_8_ ^ 2 + 32 x_20_ * x_18_ + 66 x_21_ * x_19_ - 100 x_26_ * x_19_ - 66 x_34_ * x_20_ - 48 x_36_ * x_23_ ] <= -1043
quadratic_ranged_7_ub: [ 24 x_7_ ^ 2 - 76 x_35_ * x_7_ + 78 x_38_ * x_7_ + 18 x_42_ * x_7_ - 32 x_20_ * x_8_ - 6 x_35_ * x_8_ + 26 x_35_ * x_9_ + 40 x_20_ * x_14_ + 44 x_23_ * x_15_ - 18 x_33_ * x_15_ + 70 x_42_ * x_20_ - 4 x_23_ ^ 2 - 40 x_35_ * x_23_ + 100 x_42_ * x_23_ - 4 x_50_ * x_33_ - 28 x_42_ * x_36_ + 3 x_42_ ^ 2 + 48 x_50_ ^ 2 ] <= 4101
quadratic_ranged_8_ub: [ 52 x_2_ * x_47_ + 12 x_30_ * x_19_ - 78 x_32_ * x_30_ + 56 x_42_ * x_32_ ] <= 2539
quadratic_ranged_9_ub: [ -54 x_10_ * x_5_ + 74 x_32_ * x_5_ + 82 x_43_ * x_5_ - 72 x_11_ * x_8_ - 66 x_14_ * x_8_ - 70 x_21_ * x_8_ + 44 x_28_ * x_8_ + 23 x_10_ ^ 2 - 22 x_28_ * x_10_ - 34 x_43_ * x_10_ + 60 x_28_ * x_16_ - 14 x_33_ * x_16_ - 56 x_28_ * x_21_ + 48 x_43_ * x_21_ - 14 x_28_ ^ 2 - 74 x_33_ * x_28_ + 15 x_32_ ^ 2 + 16 x_33_ * x_32_ - 28 x_33_ ^ 2 ] <= -9740
quadratic_ranged_10_ub: [ -14 x_24_ * x_4_ - 44 x_41_ * x_4_ + 10 x_49_ * x_4_ + 74 x_38_ * x_8_ + 100 x_43_ * x_8_ + 94 x_48_ * x_8_ - 5 x_9_ ^ 2 + 6 x_23_ * x_11_ - 8 x_28_ * x_11_ - 78 x_43_ * x_11_ + 62 x_48_ * x_11_ - 32 x_23_ ^ 2 - 66 x_24_ * x_23_ - 6 x_43_ * x_23_ + 52 x_28_ * x_24_ - 30 x_38_ * x_24_ + 54 x_49_ * x_24_ - 34 x_37_ * x_28_ + 60 x_43_ * x_28_ + 100 x_49_ * x_28_ - 18 x_48_ * x_34_ + 19 x_37_ ^ 2 + 3 x_38_ ^ 2 + 8 x_43_ ^ 2 ] <= 12814
quadratic_ranged_11_ub: [ 68 x_9_ * x_7_ + 94 x_10_ * x_7_ - 8 x_15_ * x_9_ + 76 x_20_ * x_9_ + 12 x_27_ * x_9_ + 74 x_39_ * x_9_ - 68 x_48_ * x_9_ + 38 x_10_ ^ 2 - 50 x_42_ * x_27_ + 49 x_39_ ^ 2 - 48 x_46_ ^ 2 + 92 x_48_ * x_46_ ] <= -5520
quadratic_ranged_12_ub: [ 100 x_42_ * x_6_ - 74 x_42_ * x_15_ - 36 x_30_ * x_19_ + 32 x_40_ * x_19_ + 32 x_46_ * x_19_ - 36 x_50_ * x_19_ - 5 x_30_ ^ 2 + 8 x_40_ ^ 2 ] <= 3763
quadratic_ranged_13_ub: [ -16 x_26_ * x_2_ + 24 x_38_ * x_16_ + 50 x_48_ * x_16_ - 70 x_50_ * x_16_ + 72 x_21_ * x_17_ - 33 x_25_ ^ 2 + 4 x_26_ * x_25_ - 44 x_26_ ^ 2 - 16 x_48_ * x_26_ + 98 x_50_ * x_26_ - 44 x_38_ ^ 2 - 10 x_50_ * x_48_ - 22 x_50_ ^ 2 ] <= -2916
quadratic_ranged_14_ub: [ 20 x_17_ * x_1_ - 70 x_28_ * x_1_ - 44 x_32_ * x_1_ - 24 x_16_ * x_2_ + 64 x_49_ * x_2_ + 10 x_16_ * x_12_ - 50 x_17_ * x_12_ + 20 x_17_ * x_16_ - 6 x_28_ * x_16_ + 2 x_17_ ^ 2 - 44 x_21_ * x_17_ + 10 x_28_ * x_17_ - 82 x_32_ * x_17_ - 47 x_26_ ^ 2 + 64 x_41_ * x_26_ ] <= 12393
quadratic_ranged_15_ub: [ -36 x_38_ * x_3_ + 74 x_42_ * x_3_ - 4 x_38_ * x_14_ + 40 x_42_ * x_14_ - 86 x_42_ * x_16_ + 32 x_29_ ^ 2 + 32 x_42_ * x_29_ - 34 x_38_ ^ 2 ] <= -2078
quadratic_ranged_16_ub: [ 70 x_24_ * x_12_ - 58 x_27_ * x_12_ - 46 x_31_ * x_12_ - 30 x_38_ * x_12_ - 54 x_41_ * x_12_ - 90 x_27_ * x_22_ - 38 x_36_ * x_22_ + 46 x_39_ * x_22_ - 82 x_28_ * x_26_ + 44 x_29_ * x_26_ - 22 x_42_ * x_26_ + 34 x_44_ * x_26_ + 36 x_47_ * x_26_ + 100 x_31_ * x_27_ - 66 x_39_ * x_27_ + 6 x_44_ * x_27_ + 5 x_28_ ^ 2 - 32 x_38_ * x_31_ + 56 x_39_ * x_31_ + 74 x_47_ * x_36_ - 6 x_44_ * x_38_ - 2 x_41_ * x_39_ + 12 x_42_ * x_39_ + 20 x_41_ ^ 2 + 26 x_44_ * x_41_ - 64 x_47_ * x_42_ - 76 x_44_ * x_43_ ] <= 4799
quadratic_ranged_17_ub: [ 90 x_15_ * x_1_ + 54 x_37_ * x_1_ - 70 x_31_ * x_2_ - 18 x_43_ * x_2_ - 56 x_50_ * x_2_ - 22 x_37_ * x_8_ + 8 x_31_ ^ 2 + 94 x_34_ * x_31_ - 31 x_34_ ^ 2 - 22 x_37_ * x_34_ - 48 x_42_ * x_37_ + 60 x_43_ * x_37_ - 16 x_43_ * x_42_ + 90 x_50_ * x_42_ - 41 x_50_ ^ 2 ] <= -9714
quadratic_ranged_18_ub: [ 8 x_30_ * x_1_ - 90 x_18_ * x_6_ + 24 x_22_ * x_6_ + 36 x_41_ * x_6_ - 32 x_22_ * x_7_ - 38 x_30_ * x_7_ - 28 x_31_ * x_7_ + 4 x_41_ * x_18_ + 14 x_21_ ^ 2 + 22 x_39_ * x_21_ ] <= 1692
quadratic_ranged_19_ub: [ 16 x_4_ * x_32_ + 42 x_32_ * x_16_ ] <= -2266
quadratic_ranged_20_ub: [ 46 x_1_ ^ 2 + 60 x_4_ * x_1_ + 10 x_13_ * x_1_ + 28 x_5_ * x_2_ + 10 x_15_ * x_2_ + 98 x_20_ * x_2_ - 36 x_20_ * x_4_ + 100 x_23_ * x_4_ - 40 x_38_ * x_5_ + 49 x_13_ ^ 2 + 100 x_15_ * x_13_ - 68 x_16_ * x_13_ + 24 x_20_ * x_15_ - 6 x_21_ * x_15_ - 92 x_23_ * x_15_ + 96 x_40_ * x_16_ - 44 x_50_ * x_21_ - 58 x_50_ * x_23_ + 50 x_40_ ^ 2 ] <= 18239
quadratic_ranged_21_ub: [ -26 x_49_ ^ 2 ] <= -99
quadratic_ranged_22_ub: [ -28 x_5_ ^ 2 - 20 x_47_ * x_5_ - 70 x_32_ * x_9_ - 2 x_48_ * x_9_ - 16 x_26_ * x_20_ - 15 x_26_ ^ 2 - 70 x_48_ * x_26_ + 5 x_32_ ^ 2 + 50 x_47_ * x_42_ ] <= 480
quadratic_ranged_23_ub: [ 46 x_3_ * x_14_ - 100 x_24_ * x_3_ - 26 x_35_ * x_3_ + 36 x_36_ * x_3_ - 88 x_36_ * x_10_ + 98 x_24_ * x_14_ + 70 x_35_ * x_14_ + 48 x_36_ * x_14_ + 22 x_41_ * x_20_ - 30 x_41_ * x_35_ + 80 x_41_ * x_40_ ] <= 5379
quadratic_ranged_24_ub: [ 90 x_18_ * x_1_ + 54 x_24_ * x_1_ - 7 x_7_ ^ 2 + 40 x_11_ * x_7_ - 68 x_26_ * x_7_ + 36 x_39_ * x_7_ - 38 x_18_ ^ 2 + 94 x_19_ * x_18_ + 44 x_26_ * x_18_ + 49 x_19_ ^ 2 - 54 x_30_ * x_19_ + 47 x_23_ ^ 2 - 10 x_30_ * x_23_ + 70 x_48_ * x_26_ + 76 x_39_ * x_30_ + 42 x_48_ ^ 2 ] <= -482
quadratic_ranged_25_ub: [ -1 x_10_ ^ 2 - 100 x_21_ * x_10_ - 14 x_26_ * x_10_ + 40 x_18_ * x_13_ - 96 x_21_ * x_18_ - 24 x_30_ * x_20_ + 48 x_21_ ^ 2 + 78 x_30_ * x_26_ - 8 x_34_ ^ 2 ] <= 6351
quadratic_ranged_26_ub: [ 16 x_4_ ^ 2 + 66 x_16_ * x_4_ - 36 x_14_ ^ 2 - 16 x_16_ * x_14_ + 8 x_17_ * x_14_ + 38 x_20_ * x_17_ + 92 x_50_ * x_17_ - 60 x_40_ * x_20_ - 64 x_48_ * x_31_ - 100 x_48_ * x_40_ + 12 x_50_ * x_40_ - 13 x_48_ ^ 2 ] <= 5136
quadratic_ranged_27_ub: [ 42 x_7_ * x_3_ - 18 x_30_ * x_3_ + 16 x_6_ ^ 2 - 84 x_39_ * x_6_ + 74 x_30_ * x_7_ + 94 x_47_ * x_7_ + 12 x_26_ * x_11_ + 38 x_26_ * x_21_ + 44 x_30_ * x_24_ - 52 x_39_ * x_24_ - 40 x_30_ ^ 2 ] <= -4680
quadratic_ranged_28_ub: [ -44 x_4_ * x_16_ + 48 x_25_ * x_4_ + 8 x_15_ * x_10_ + 90 x_42_ * x_10_ + 96 x_16_ * x_15_ + 52 x_32_ * x_15_ - 18 x_32_ * x_25_ + 64 x_42_ * x_32_ ] <= -8086
quadratic_ranged_29_ub: [ -98 x_6_ * x_21_ - 92 x_30_ * x_6_ - 2 x_33_ * x_6_ + 14 x_48_ * x_6_ - 58 x_50_ * x_21_ - 56 x_42_ * x_30_ + 56 x_48_ * x_30_ + 46 x_43_ * x_33_ + 64 x_50_ * x_33_ + 72 x_48_ * x_42_ - 52 x_48_ * x_43_ ] <= -1413
quadratic_ranged_30_ub: [ 94 x_50_ * x_2_ + 98 x_19_ * x_5_ + 42 x_9_ * x_8_ + 40 x_15_ * x_8_ + 82 x_20_ * x_8_ - 20 x_19_ * x_9_ - 22 x_50_ * x_9_ - 49 x_15_ ^ 2 - 4 x_20_ * x_15_ + 64 x_19_ * x_17_ - 14 x_19_ ^ 2 - 8 x_28_ * x_20_ + 27 x_28_ ^ 2 ] <= -8719
quadratic_ranged_31_ub: [ -30 x_28_ * x_17_ + 48 x_18_ ^ 2 + 22 x_28_ * x_18_ - 44 x_42_ * x_18_ - 48 x_31_ * x_25_ + 56 x_42_ * x_25_ + 78 x_40_ * x_28_ - 28 x_42_ * x_28_ + 28 x_44_ * x_40_ ] <= 1998
quadratic_ranged_32_ub: [ 30 x_13_ ^ 2 + 70 x_40_ * x_13_ + 30 x_48_ * x_13_ - 60 x_40_ * x_16_ - 56 x_48_ * x_16_ + 94 x_31_ * x_26_ + 6 x_46_ * x_26_ + 72 x_33_ * x_31_ - 1 x_32_ ^ 2 + 64 x_33_ * x_32_ + 22 x_42_ * x_32_ - 46 x_48_ ^ 2 ] <= -5349
quadratic_ranged_33_ub: [ -68 x_17_ * x_3_ - 98 x_19_ * x_3_ - 24 x_43_ * x_3_ + 54 x_25_ * x_16_ - 48 x_43_ * x_16_ + 88 x_44_ * x_16_ - 92 x_48_ * x_16_ - 10 x_34_ * x_17_ + 74 x_36_ * x_17_ - 56 x_44_ * x_17_ - 64 x_43_ * x_19_ + 21 x_24_ ^ 2 - 46 x_35_ * x_24_ - 92 x_42_ * x_24_ - 20 x_48_ * x_24_ - 90 x_34_ * x_25_ - 28 x_35_ * x_25_ + 19 x_34_ ^ 2 - 18 x_43_ * x_34_ - 76 x_43_ * x_35_ - 32 x_42_ ^ 2 - 98 x_48_ * x_42_ - 30 x_48_ * x_43_ ] <= 3282
quadratic_ranged_34_ub: [ -46 x_22_ * x_3_ - 76 x_27_ * x_3_ - 94 x_36_ * x_3_ - 96 x_39_ * x_3_ + 28 x_36_ * x_5_ - 58 x_22_ * x_6_ + 2 x_27_ * x_6_ + 32 x_36_ * x_6_ + 72 x_12_ * x_9_ - 100 x_36_ * x_9_ - 30 x_12_ ^ 2 + 26 x_39_ * x_12_ - 84 x_40_ * x_12_ + 18 x_23_ * x_20_ + 26 x_27_ * x_20_ + 84 x_39_ * x_20_ - 6 x_23_ ^ 2 + 92 x_40_ * x_27_ + 28 x_36_ ^ 2 - 10 x_40_ * x_36_ ] <= 7688
quadratic_ranged_35_ub: [ 56 x_3_ * x_1_ + 48 x_23_ * x_1_ + 52 x_25_ * x_1_ + 54 x_28_ * x_1_ + 36 x_30_ * x_1_ + 2 x_38_ * x_1_ + 32 x_28_ * x_3_ + 2 x_25_ * x_18_ - 96 x_29_ * x_18_ - 54 x_34_ * x_18_ - 34 x_23_ ^ 2 - 68 x_30_ * x_23_ - 86 x_29_ * x_25_ + 92 x_31_ * x_25_ - 42 x_34_ * x_25_ - 4 x_28_ ^ 2 - 12 x_30_ * x_28_ - 38 x_29_ ^ 2 + 96 x_40_ * x_29_ - 100 x_38_ * x_30_ - 16 x_40_ * x_38_ ] <= 4416
quadratic_ranged_36_ub: [ 20 x_48_ * x_8_ - 70 x_38_ * x_9_ + 34 x_28_ * x_13_ - 38 x_38_ * x_13_ + 48 x_50_ * x_13_ + 22 x_28_ ^ 2 - 68 x_38_ * x_28_ + 14 x_48_ * x_38_ ] <= 3314
quadratic_ranged_37_ub: [ 46 x_29_ * x_5_ + 90 x_50_ * x_5_ + 74 x_26_ * x_6_ + 80 x_32_ * x_6_ + 38 x_46_ * x_6_ + 24 x_29_ * x_11_ - 72 x_36_ * x_11_ + 82 x_50_ * x_11_ + 22 x_26_ ^ 2 + 92 x_32_ * x_26_ - 84 x_49_ * x_29_ - 88 x_49_ * x_46_ - 40 x_50_ * x_46_ - 50 x_49_ ^ 2 - 12 x_50_ * x_49_ - 4 x_50_ ^ 2 ] <= 6296
quadratic_ranged_38_ub: [ 28 x_40_ * x_4_ + 4 x_45_ * x_11_ - 1 x_21_ ^ 2 - 7 x_26_ ^ 2 - 49 x_34_ ^ 2 ] <= -2891
quadratic_ranged_39_ub: [ 43 x_4_ ^ 2 - 68 x_9_ * x_4_ + 2 x_43_ * x_4_ + 64 x_15_ * x_9_ + 48 x_28_ * x_9_ - 44 x_34_ * x_9_ - 84 x_43_ * x_9_ + 66 x_34_ * x_15_ + 36 x_37_ * x_28_ + 78 x_43_ * x_42_ ] <= 584
quadratic_ranged_40_ub: [ 92 x_9_ * x_14_ - 28 x_30_ * x_11_ - 4 x_45_ * x_11_ - 44 x_30_ * x_14_ + 90 x_45_ * x_14_ + 82 x_23_ * x_16_ + 40 x_33_ * x_16_ + 12 x_30_ * x_20_ ] <= 4427
quadratic_ranged_41_ub: [ 12 x_4_ * x_14_ + 28 x_28_ * x_4_ - 34 x_31_ * x_4_ - 46 x_17_ * x_5_ + 60 x_12_ * x_8_ - 34 x_17_ * x_8_ + 80 x_23_ * x_8_ - 2 x_24_ * x_8_ - 24 x_40_ * x_8_ + 4 x_13_ * x_9_ - 96 x_40_ * x_12_ - 24 x_17_ * x_13_ + 50 x_23_ * x_13_ + 48 x_28_ * x_13_ + 32 x_17_ * x_14_ + 50 x_31_ * x_17_ + 26 x_40_ * x_24_ - 42 x_31_ * x_27_ + 96 x_42_ * x_28_ + 56 x_40_ * x_31_ - 14 x_50_ * x_40_ ] <= 4560
quadratic_ranged_1_lb: [ -49 x_19_ ^ 2 + 84 x_27_ * x_19_ - 82 x_28_ * x_19_ - 46 x_47_ * x_19_ + 62 x_49_ * x_19_ - 78 x_26_ * x_21_ + 60 x_49_ * x_22_ - 54 x_43_ * x_23_ + 12 x_49_ * x_23_ - 45 x_25_ ^ 2 - 78 x_28_ * x_26_ - 40 x_47_ * x_26_ + 42 x_49_ * x_26_ - 24 x_43_ * x_27_ + 38 x_43_ * x_28_ + 86 x_50_ * x_28_ - 84 x_47_ * x_43_ + 72 x_47_ * x_46_ + 74 x_50_ * x_46_ + 17 x_47_ ^ 2 - 92 x_50_ * x_47_ ] >= -11628
quadratic_ranged_2_lb: [ -100 x_41_ * x_30_ - 48 x_31_ ^ 2 ] >= -2101
quadratic_ranged_3_lb: [ -8 x_2_ ^ 2 + 96 x_12_ * x_2_ - 86 x_14_ * x_2_ + 80 x_17_ * x_2_ - 32 x_12_ * x_5_ + 42 x_28_ * x_5_ - 40 x_49_ * x_5_ + 18 x_20_ * x_9_ - 26 x_28_ * x_9_ + 42 x_27_ * x_10_ + 2 x_48_ * x_10_ - 86 x_27_ * x_12_ - 26 x_48_ * x_12_ + 26 x_49_ * x_12_ + 78 x_48_ * x_14_ - 26 x_17_ ^ 2 - 50 x_20_ * x_17_ + 72 x_28_ * x_17_ + 36 x_18_ ^ 2 - 6 x_28_ * x_18_ - 62 x_49_ * x_18_ + 100 x_48_ * x_20_ + 39 x_27_ ^ 2 - 28 x_28_ * x_27_ ] >= -5034
quadratic_ranged_4_lb: [ 5 x_9_ ^ 2 - 18 x_25_ * x_9_ - 32 x_11_ ^ 2 + 82 x_25_ * x_11_ + 42 x_45_ * x_11_ + 14 x_45_ * x_13_ + 56 x_30_ * x_18_ ] >= -7083
quadratic_ranged_5_lb: [ -78 x_37_ * x_7_ - 28 x_42_ * x_7_ + 84 x_34_ * x_12_ - 28 x_46_ * x_12_ + 16 x_13_ ^ 2 + 46 x_34_ ^ 2 - 56 x_47_ * x_34_ + 6 x_46_ ^ 2 ] >= 1119
quadratic_ranged_6_lb: [ 4 x_19_ * x_3_ + 50 x_20_ * x_3_ + 8 x_34_ * x_3_ + 34 x_8_ ^ 2 + 32 x_20_ * x_18_ + 66 x_21_ * x_19_ - 100 x_26_ * x_19_ - 66 x_34_ * x_20_ - 48 x_36_ * x_23_ ] >= -1050
quadratic_ranged_7_lb: [ 24 x_7_ ^ 2 - 76 x_35_ * x_7_ + 78 x_38_ * x_7_ + 18 x_42_ * x_7_ - 32 x_20_ * x_8_ - 6 x_35_ * x_8_ + 26 x_35_ * x_9_ + 40 x_20_ * x_14_ + 44 x_23_ * x_15_ - 18 x_33_ * x_15_ + 70 x_42_ * x_20_ - 4 x_23_ ^ 2 - 40 x_35_ * x_23_ + 100 x_42_ * x_23_ - 4 x_50_ * x_33_ - 28 x_42_ * x_36_ + 3 x_42_ ^ 2 + 48 x_50_ ^ 2 ] >= 4097
quadratic_ranged_8_lb: [ 52 x_2_ * x_47_ + 12 x_30_ * x_19_ - 78 x_32_ * x_30_ + 56 x_42_ * x_32_ ] >= 2533
quadratic_ranged_9_lb: [ -54 x_10_ * x_5_ + 74 x_32_ * x_5_ + 82 x_43_ * x_5_ - 72 x_11_ * x_8_ - 66 x_14_ * x_8_ - 70 x_21_ * x_8_ + 44 x_28_ * x_8_ + 23 x_10_ ^ 2 - 22 x_28_ * x_10_ - 34 x_43_ * x_10_ + 60 x_28_ * x_16_ - 14 x_33_ * x_16_ - 56 x_28_ * x_21_ + 48 x_43_ * x_21_ - 14 x_28_ ^ 2 - 74 x_33_ * x_28_ + 15 x_32_ ^ 2 + 16 x_33_ * x_32_ - 28 x_33_ ^ 2 ] >= -9749
quadratic_ranged_10_lb: [ -14 x_24_ * x_4_ - 44 x_41_ * x_4_ + 10 x_49_ * x_4_ + 74 x_38_ * x_8_ + 100 x_43_ * x_8_ + 94 x_48_ * x_8_ - 5 x_9_ ^ 2 + 6 x_23_ * x_11_ - 8 x_28_ * x_11_ - 78 x_43_ * x_11_ + 62 x_48_ * x_11_ - 32 x_23_ ^ 2 - 66 x_24_ * x_23_ - 6 x_43_ * x_23_ + 52 x_28_ * x_24_ - 30 x_38_ * x_24_ + 54 x_49_ * x_24_ - 34 x_37_ * x_28_ + 60 x_43_ * x_28_ + 100 x_49_ * x_28_ - 18 x_48_ * x_34_ + 19 x_37_ ^ 2 + 3 x_38_ ^ 2 + 8 x_43_ ^ 2 ] >= 12809
quadratic_ranged_11_lb: [ 68 x_9_ * x_7_ + 94 x_10_ * x_7_ - 8 x_15_ * x_9_ + 76 x_20_ * x_9_ + 12 x_27_ * x_9_ + 74 x_39_ * x_9_ - 68 x_48_ * x_9_ + 38 x_10_ ^ 2 - 50 x_42_ * x_27_ + 49 x_39_ ^ 2 - 48 x_46_ ^ 2 + 92 x_48_ * x_46_ ] >= -5524
quadratic_ranged_12_lb: [ 100 x_42_ * x_6_ - 74 x_42_ * x_15_ - 36 x_30_ * x_19_ + 32 x_40_ * x_19_ + 32 x_46_ * x_19_ - 36 x_50_ * x_19_ - 5 x_30_ ^ 2 + 8 x_40_ ^ 2 ] >= 3758
quadratic_ranged_13_lb: [ -16 x_26_ * x_2_ + 24 x_38_ * x_16_ + 50 x_48_ * x_16_ - 70 x_50_ * x_16_ + 72 x_21_ * x_17_ - 33 x_25_ ^ 2 + 4 x_26_ * x_25_ - 44 x_26_ ^ 2 - 16 x_48_ * x_26_ + 98 x_50_ * x_26_ - 44 x_38_ ^ 2 - 10 x_50_ * x_48_ - 22 x_50_ ^ 2 ] >= -2922
quadratic_ranged_14_lb: [ 20 x_17_ * x_1_ - 70 x_28_ * x_1_ - 44 x_32_ * x_1_ - 24 x_16_ * x_2_ + 64 x_49_ * x_2_ + 10 x_16_ * x_12_ - 50 x_17_ * x_12_ + 20 x_17_ * x_16_ - 6 x_28_ * x_16_ + 2 x_17_ ^ 2 - 44 x_21_ * x_17_ + 10 x_28_ * x_17_ - 82 x_32_ * x_17_ - 47 x_26_ ^ 2 + 64 x_41_ * x_26_ ] >= 12387
quadratic_ranged_15_lb: [ -36 x_38_ * x_3_ + 74 x_42_ * x_3_ - 4 x_38_ * x_14_ + 40 x_42_ * x_14_ - 86 x_42_ * x_16_ + 32 x_29_ ^ 2 + 32 x_42_ * x_29_ - 34 x_38_ ^ 2 ] >= -2083
quadratic_ranged_16_lb: [ 70 x_24_ * x_12_ - 58 x_27_ * x_12_ - 46 x_31_ * x_12_ - 30 x_38_ * x_12_ - 54 x_41_ * x_12_ - 90 x_27_ * x_22_ - 38 x_36_ * x_22_ + 46 x_39_ * x_22_ - 82 x_28_ * x_26_ + 44 x_29_ * x_26_ - 22 x_42_ * x_26_ + 34 x_44_ * x_26_ + 36 x_47_ * x_26_ + 100 x_31_ * x_27_ - 66 x_39_ * x_27_ + 6 x_44_ * x_27_ + 5 x_28_ ^ 2 - 32 x_38_ * x_31_ + 56 x_39_ * x_31_ + 74 x_47_ * x_36_ - 6 x_44_ * x_38_ - 2 x_41_ * x_39_ + 12 x_42_ * x_39_ + 20 x_41_ ^ 2 + 26 x_44_ * x_41_ - 64 x_47_ * x_42_ - 76 x_44_ * x_43_ ] >= 4792
quadratic_ranged_17_lb: [ 90 x_15_ * x_1_ + 54 x_37_ * x_1_ - 70 x_31_ * x_2_ - 18 x_43_ * x_2_ - 56 x_50_ * x_2_ - 22 x_37_ * x_8_ + 8 x_31_ ^ 2 + 94 x_34_ * x_31_ - 31 x_34_ ^ 2 - 22 x_37_ * x_34_ - 48 x_42_ * x_37_ + 60 x_43_ * x_37_ - 16 x_43_ * x_42_ + 90 x_50_ * x_42_ - 41 x_50_ ^ 2 ] >= -9721
quadratic_ranged_18_lb: [ 8 x_30_ * x_1_ - 90 x_18_ * x_6_ + 24 x_22_ * x_6_ + 36 x_41_ * x_6_ - 32 x_22_ * x_7_ - 38 x_30_ * x_7_ - 28 x_31_ * x_7_ + 4 x_41_ * x_18_ + 14 x_21_ ^ 2 + 22 x_39_ * x_21_ ] >= 1691
quadratic_ranged_19_lb: [ 16 x_4_ * x_32_ + 42 x_32_ * x_16_ ] >= -2271
quadratic_ranged_20_lb: [ 46 x_1_ ^ 2 + 60 x_4_ * x_1_ + 10 x_13_ * x_1_ + 28 x_5_ * x_2_ + 10 x_15_ * x_2_ + 98 x_20_ * x_2_ - 36 x_20_ * x_4_ + 100 x_23_ * x_4_ - 40 x_38_ * x_5_ + 49 x_13_ ^ 2 + 100 x_15_ * x_13_ - 68 x_16_ * x_13_ + 24 x_20_ * x_15_ - 6 x_21_ * x_15_ - 92 x_23_ * x_15_ + 96 x_40_ * x_16_ - 44 x_50_ * x_21_ - 58 x_50_ * x_23_ + 50 x_40_ ^ 2 ] >= 18238
quadratic_ranged_21_lb: [ -26 x_49_ ^ 2 ] >= -106
quadratic_ranged_22_lb: [ -28 x_5_ ^ 2 - 20 x_47_ * x_5_ - 70 x_32_ * x_9_ - 2 x_48_ * x_9_ - 16 x_26_ * x_20_ - 15 x_26_ ^ 2 - 70 x_48_ * x_26_ + 5 x_32_ ^ 2 + 50 x_47_ * x_42_ ] >= 474
quadratic_ranged_23_lb: [ 46 x_3_ * x_14_ - 100 x_24_ * x_3_ - 26 x_35_ * x_3_ + 36 x_36_ * x_3_ - 88 x_36_ * x_10_ + 98 x_24_ * x_14_ + 70 x_35_ * x_14_ + 48 x_36_ * x_14_ + 22 x_41_ * x_20_ - 30 x_41_ * x_35_ + 80 x_41_ * x_40_ ] >= 5375
quadratic_ranged_24_lb: [ 90 x_18_ * x_1_ + 54 x_24_ * x_1_ - 7 x_7_ ^ 2 + 40 x_11_ * x_7_ - 68 x_26_ * x_7_ + 36 x_39_ * x_7_ - 38 x_18_ ^ 2 + 94 x_19_ * x_18_ + 44 x_26_ * x_18_ + 49 x_19_ ^ 2 - 54 x_30_ * x_19_ + 47 x_23_ ^ 2 - 10 x_30_ * x_23_ + 70 x_48_ * x_26_ + 76 x_39_ * x_30_ + 42 x_48_ ^ 2 ] >= -487
quadratic_ranged_25_lb: [ -1 x_10_ ^ 2 - 100 x_21_ * x_10_ - 14 x_26_ * x_10_ + 40 x_18_ * x_13_ - 96 x_21_ * x_18_ - 24 x_30_ * x_20_ + 48 x_21_ ^ 2 + 78 x_30_ * x_26_ - 8 x_34_ ^ 2 ] >= 6342
quadratic_ranged_26_lb: [ 16 x_4_ ^ 2 + 66 x_16_ * x_4_ - 36 x_14_ ^ 2 - 16 x_16_ * x_14_ + 8 x_17_ * x_14_ + 38 x_20_ * x_17_ + 92 x_50_ * x_17_ - 60 x_40_ * x_20_ - 64 x_48_ * x_31_ - 100 x_48_ * x_40_ + 12 x_50_ * x_40_ - 13 x_48_ ^ 2 ] >= 5127
quadratic_ranged_27_lb: [ 42 x_7_ * x_3_ - 18 x_30_ * x_3_ + 16 x_6_ ^ 2 - 84 x_39_ * x_6_ + 74 x_30_ * x_7_ + 94 x_47_ * x_7_ + 12 x_26_ * x_11_ + 38 x_26_ * x_21_ + 44 x_30_ * x_24_ - 52 x_39_ * x_24_ - 40 x_30_ ^ 2 ] >= -4689
quadratic_ranged_28_lb: [ -44 x_4_ * x_16_ + 48 x_25_ * x_4_ + 8 x_15_ * x_10_ + 90 x_42_ * x_10_ + 96 x_16_ * x_15_ + 52 x_32_ * x_15_ - 18 x_32_ * x_25_ + 64 x_42_ * x_32_ ] >= -8093
quadratic_ranged_29_lb: [ -98 x_6_ * x_21_ - 92 x_30_ * x_6_ - 2 x_33_ * x_6_ + 14 x_48_ * x_6_ - 58 x_50_ * x_21_ - 56 x_42_ * x_30_ + 56 x_48_ * x_30_ + 46 x_43_ * x_33_ + 64 x_50_ * x_33_ + 72 x_48_ * x_42_ - 52 x_48_ * x_43_ ] >= -1419
quadratic_ranged_30_lb: [ 94 x_50_ * x_2_ + 98 x_19_ * x_5_ + 42 x_9_ * x_8_ + 40 x_15_ * x_8_ + 82 x_20_ * x_8_ - 20 x_19_ * x_9_ - 22 x_50_ * x_9_ - 49 x_15_ ^ 2 - 4 x_20_ * x_15_ + 64 x_19_ * x_17_ - 14 x_19_ ^ 2 - 8 x_28_ * x_20_ + 27 x_28_ ^ 2 ] >= -8722
quadratic_ranged_31_lb: [ -30 x_28_ * x_17_ + 48 x_18_ ^ 2 + 22 x_28_ * x_18_ - 44 x_42_ * x_18_ - 48 x_31_ * x_25_ + 56 x_42_ * x_25_ + 78 x_40_ * x_28_ - 28 x_42_ * x_28_ + 28 x_44_ * x_40_ ] >= 1995
quadratic_ranged_32_lb: [ 30 x_13_ ^ 2 + 70 x_40_ * x_13_ + 30 x_48_ * x_13_ - 60 x_40_ * x_16_ - 56 x_48_ * x_16_ + 94 x_31_ * x_26_ + 6 x_46_ * x_26_ + 72 x_33_ * x_31_ - 1 x_32_ ^ 2 + 64 x_33_ * x_32_ + 22 x_42_ * x_32_ - 46 x_48_ ^ 2 ] >= -5354
quadratic_ranged_33_lb: [ -68 x_17_ * x_3_ - 98 x_19_ * x_3_ - 24 x_43_ * x_3_ + 54 x_25_ * x_16_ - 48 x_43_ * x_16_ + 88 x_44_ * x_16_ - 92 x_48_ * x_16_ - 10 x_34_ * x_17_ + 74 x_36_ * x_17_ - 56 x_44_ * x_17_ - 64 x_43_ * x_19_ + 21 x_24_ ^ 2 - 46 x_35_ * x_24_ - 92 x_42_ * x_24_ - 20 x_48_ * x_24_ - 90 x_34_ * x_25_ - 28 x_35_ * x_25_ + 19 x_34_ ^ 2 - 18 x_43_ * x_34_ - 76 x_43_ * x_35_ - 32 x_42_ ^ 2 - 98 x_48_ * x_42_ - 30 x_48_ * x_43_ ] >= 3277
quadratic_ranged_34_lb: [ -46 x_22_ * x_3_ - 76 x_27_ * x_3_ - 94 x_36_ * x_3_ - 96 x_39_ * x_3_ + 28 x_36_ * x_5_ - 58 x_22_ * x_6_ + 2 x_27_ * x_6_ + 32 x_36_ * x_6_ + 72 x_12_ * x_9_ - 100 x_36_ * x_9_ - 30 x_12_ ^ 2 + 26 x_39_ * x_12_ - 84 x_40_ * x_12_ + 18 x_23_ * x_20_ + 26 x_27_ * x_20_ + 84 x_39_ * x_20_ - 6 x_23_ ^ 2 + 92 x_40_ * x_27_ + 28 x_36_ ^ 2 - 10 x_40_ * x_36_ ] >= 7684
quadratic_ranged_35_lb: [ 56 x_3_ * x_1_ + 48 x_23_ * x_1_ + 52 x_25_ * x_1_ + 54 x_28_ * x_1_ + 36 x_30_ * x_1_ + 2 x_38_ * x_1_ + 32 x_28_ * x_3_ + 2 x_25_ * x_18_ - 96 x_29_ * x_18_ - 54 x_34_ * x_18_ - 34 x_23_ ^ 2 - 68 x_30_ * x_23_ - 86 x_29_ * x_25_ + 92 x_31_ * x_25_ - 42 x_34_ * x_25_ - 4 x_28_ ^ 2 - 12 x_30_ * x_28_ - 38 x_29_ ^ 2 + 96 x_40_ * x_29_ - 100 x_38_ * x_30_ - 16 x_40_ * x_38_ ] >= 4414
quadratic_ranged_36_lb: [ 20 x_48_ * x_8_ - 70 x_38_ * x_9_ + 34 x_28_ * x_13_ - 38 x_38_ * x_13_ + 48 x_50_ * x_13_ + 22 x_28_ ^ 2 - 68 x_38_ * x_28_ + 14 x_48_ * x_38_ ] >= 3308
quadratic_ranged_37_lb: [ 46 x_29_ * x_5_ + 90 x_50_ * x_5_ + 74 x_26_ * x_6_ + 80 x_32_ * x_6_ + 38 x_46_ * x_6_ + 24 x_29_ * x_11_ - 72 x_36_ * x_11_ + 82 x_50_ * x_11_ + 22 x_26_ ^ 2 + 92 x_32_ * x_26_ - 84 x_49_ * x_29_ - 88 x_49_ * x_46_ - 40 x_50_ * x_46_ - 50 x_49_ ^ 2 - 12 x_50_ * x_49_ - 4 x_50_ ^ 2 ] >= 6292
quadratic_ranged_38_lb: [ 28 x_40_ * x_4_ + 4 x_45_ * x_11_ - 1 x_21_ ^ 2 - 7 x_26_ ^ 2 - 49 x_34_ ^ 2 ] >= -2898
quadratic_ranged_39_lb: [ 43 x_4_ ^ 2 - 68 x_9_ * x_4_ + 2 x_43_ * x_4_ + 64 x_15_ * x_9_ + 48 x_28_ * x_9_ - 44 x_34_ * x_9_ - 84 x_43_ * x_9_ + 66 x_34_ * x_15_ + 36 x_37_ * x_28_ + 78 x_43_ * x_42_ ] >= 579
quadratic_ranged_40_lb: [ 92 x_9_ * x_14_ - 28 x_30_ * x_11_ - 4 x_45_ * x_11_ - 44 x_30_ * x_14_ + 90 x_45_ * x_14_ + 82 x_23_ * x_16_ + 40 x_33_ * x_16_ + 12 x_30_ * x_20_ ] >= 4420
quadratic_ranged_41_lb: [ 12 x_4_ * x_14_ + 28 x_28_ * x_4_ - 34 x_31_ * x_4_ - 46 x_17_ * x_5_ + 60 x_12_ * x_8_ - 34 x_17_ * x_8_ + 80 x_23_ * x_8_ - 2 x_24_ * x_8_ - 24 x_40_ * x_8_ + 4 x_13_ * x_9_ - 96 x_40_ * x_12_ - 24 x_17_ * x_13_ + 50 x_23_ * x_13_ + 48 x_28_ * x_13_ + 32 x_17_ * x_14_ + 50 x_31_ * x_17_ + 26 x_40_ * x_24_ - 42 x_31_ * x_27_ + 96 x_42_ * x_28_ + 56 x_40_ * x_31_ - 14 x_50_ * x_40_ ] >= 4553
c1: [ 62 x_12_ * x_2_ - 80 x_43_ * x_2_ + 36 x_30_ * x_10_ + 50 x_45_ * x_10_ - 46 x_19_ ^ 2 - 30 x_27_ ^ 2 + 34 x_36_ * x_27_ - 32 x_36_ * x_30_ + 66 x_45_ * x_36_ ] = -8420
c2: [ 2 x_20_ * x_2_ + 50 x_20_ * x_8_ - 80 x_21_ * x_8_ - 16 x_34_ * x_8_ + 14 x_21_ * x_20_ + 88 x_26_ * x_20_ - 6 x_27_ * x_20_ - 70 x_38_ * x_20_ - 22 x_27_ * x_21_ - 64 x_34_ * x_21_ + 74 x_27_ * x_26_ + 82 x_40_ * x_26_ + 35 x_28_ ^ 2 - 88 x_40_ * x_38_ ] = 1304
c3: [ -6 x_39_ * x_12_ - 88 x_39_ * x_23_ + 50 x_44_ * x_24_ - 4 x_37_ * x_27_ + 42 x_39_ * x_37_ - 47 x_39_ ^ 2 + 24 x_50_ * x_44_ ] = -582
c4: [ -38 x_14_ * x_1_ + 46 x_25_ * x_1_ - 6 x_26_ * x_3_ + 52 x_26_ * x_8_ - 16 x_37_ * x_8_ - 92 x_47_ * x_8_ - 6 x_35_ * x_11_ - 16 x_42_ * x_11_ + 14 x_46_ * x_11_ - 100 x_37_ * x_14_ - 84 x_47_ * x_14_ - 15 x_25_ ^ 2 + 14 x_42_ * x_25_ + 86 x_38_ * x_26_ - 20 x_37_ * x_35_ + 54 x_42_ * x_35_ - 94 x_47_ * x_46_ - 8 x_47_ ^ 2 ] = -10843
c5: [ 38 x_6_ * x_21_ + 58 x_27_ * x_6_ + 2 x_49_ * x_6_ + 84 x_49_ * x_21_ - 44 x_34_ * x_27_ + 40 x_39_ * x_34_ - 80 x_49_ * x_34_ - 76 x_49_ * x_39_ ] = -60
c6: [ 24 x_25_ * x_1_ + 66 x_19_ * x_4_ - 24 x_17_ * x_8_ - 68 x_19_ * x_8_ + 22 x_11_ ^ 2 - 58 x_15_ * x_13_ + 50 x_25_ * x_13_ - 58 x_48_ * x_15_ - 11 x_25_ ^ 2 - 20 x_31_ * x_25_ - 88 x_34_ * x_25_ ] = 707
c7: [ 96 x_20_ * x_6_ + 50 x_8_ ^ 2 - 2 x_50_ * x_20_ + 34 x_50_ * x_28_ + 32 x_50_ ^ 2 ] = 714
c8: [ -4 x_2_ * x_25_ + 42 x_32_ * x_25_ ] = 1890
c9: [ -94 x_4_ * x_7_ + 68 x_35_ * x_4_ - 42 x_35_ * x_7_ - 84 x_37_ * x_7_ ] = -7202
c10: [ 38 x_9_ * x_1_ + 16 x_31_ * x_1_ + 84 x_28_ * x_5_ - 34 x_37_ * x_5_ + 30 x_50_ * x_5_ - 46 x_14_ * x_9_ + 54 x_27_ * x_9_ + 92 x_31_ * x_9_ + 46 x_35_ * x_9_ + 94 x_37_ * x_9_ - 90 x_14_ * x_12_ - 18 x_28_ * x_12_ + 90 x_42_ * x_12_ - 76 x_35_ * x_14_ - 96 x_50_ * x_14_ - 14 x_35_ * x_27_ - 10 x_35_ * x_28_ + 36 x_37_ * x_31_ - 96 x_37_ * x_35_ - 38 x_44_ * x_35_ - 34 x_42_ ^ 2 + 58 x_50_ * x_42_ ] = 2296
c11: [ 10 x_5_ ^ 2 - 100 x_32_ * x_5_ - 46 x_10_ * x_9_ + 94 x_18_ * x_9_ - 56 x_30_ * x_9_ + 40 x_37_ * x_9_ + 90 x_30_ * x_18_ + 4 x_40_ * x_18_ - 76 x_45_ * x_18_ + 74 x_30_ * x_26_ + 32 x_45_ * x_26_ + 50 x_30_ ^ 2 - 80 x_39_ * x_30_ + 12 x_40_ * x_32_ - 6 x_45_ * x_32_ + 68 x_41_ * x_39_ + 20 x_44_ * x_41_ - 1 x_44_ ^ 2 ] = 7701
c12: [ 22 x_9_ * x_1_ + 92 x_33_ * x_2_ + 38 x_34_ * x_2_ - 12 x_43_ * x_4_ - 38 x_34_ * x_9_ - 17 x_34_ ^ 2 + 3 x_41_ ^ 2 + 72 x_43_ * x_41_ ] = -2719
c13: [ -44 x_22_ * x_3_ - 14 x_41_ * x_3_ - 100 x_42_ * x_3_ - 98 x_22_ * x_5_ + 80 x_50_ * x_5_ - 18 x_41_ * x_22_ - 88 x_42_ * x_24_ - 47 x_33_ ^ 2 - 78 x_41_ * x_33_ - 26 x_50_ * x_33_ - 32 x_50_ * x_41_ - 24 x_50_ ^ 2 ] = 9936
c14: [ 54 x_16_ * x_4_ + 22 x_47_ * x_4_ - 27 x_15_ ^ 2 - 38 x_18_ * x_15_ - 48 x_47_ * x_15_ + 19 x_16_ ^ 2 + 14 x_20_ ^ 2 ] = -938
c15: [ 4 x_15_ * x_2_ - 22 x_38_ * x_2_ - 38 x_47_ * x_2_ + 84 x_9_ * x_3_ - 22 x_31_ * x_3_ - 22 x_47_ * x_3_ - 14 x_15_ * x_7_ + 22 x_34_ * x_7_ + 42 x_47_ * x_7_ - 54 x_21_ * x_9_ - 86 x_31_ * x_9_ - 39 x_15_ ^ 2 - 46 x_27_ * x_15_ - 74 x_34_ * x_15_ + 70 x_18_ * x_17_ - 48 x_21_ * x_17_ - 2 x_23_ * x_17_ + 74 x_31_ * x_17_ - 6 x_34_ * x_17_ + 2 x_47_ * x_17_ - 44 x_18_ ^ 2 + 10 x_23_ * x_18_ + 62 x_31_ * x_18_ - 68 x_34_ * x_18_ - 88 x_27_ * x_21_ - 54 x_31_ * x_21_ + 54 x_37_ * x_21_ + 80 x_47_ * x_21_ - 30 x_38_ * x_23_ + 64 x_38_ * x_31_ + 20 x_47_ * x_31_ - 84 x_38_ * x_37_ + 26 x_47_ * x_38_ - 45 x_47_ ^ 2 ] = -4328
c16: [ -100 x_20_ * x_19_ - 5 x_27_ ^ 2 - 100 x_33_ * x_27_ + 6 x_40_ * x_34_ + 18 x_44_ * x_34_ ] = 7980
c17: [ 96 x_32_ * x_7_ - 28 x_11_ ^ 2 + 42 x_24_ * x_11_ - 76 x_32_ * x_11_ - 72 x_32_ * x_16_ + 68 x_35_ * x_22_ - 64 x_32_ * x_24_ + 4 x_42_ * x_24_ + 54 x_42_ * x_32_ - 42 x_35_ ^ 2 + 84 x_42_ * x_35_ + 25 x_42_ ^ 2 - 44 x_47_ ^ 2 ] = -1118
c18: [ -5 x_6_ ^ 2 + 74 x_23_ * x_6_ + 66 x_31_ * x_6_ + 40 x_49_ * x_6_ - 13 x_31_ ^ 2 ] = 584
c19: [ 74 x_16_ * x_2_ + 98 x_50_ * x_2_ + 46 x_17_ * x_3_ - 52 x_41_ * x_16_ - 4 x_24_ * x_17_ + 100 x_29_ * x_17_ - 52 x_29_ * x_24_ - 88 x_41_ * x_29_ - 60 x_41_ * x_38_ + 62 x_48_ * x_41_ - 4 x_50_ * x_41_ - 12 x_48_ * x_42_ - 28 x_45_ ^ 2 ] = 498
c20: [ 40 x_9_ * x_4_ + 48 x_9_ ^ 2 + 24 x_37_ * x_30_ + 27 x_37_ ^ 2 ] = 892
c21: [ 62 x_29_ * x_8_ - 38 x_37_ * x_8_ + 12 x_37_ * x_14_ + 48 x_15_ ^ 2 + 68 x_44_ * x_15_ + 48 x_33_ * x_18_ + 74 x_44_ * x_18_ - 20 x_27_ * x_26_ + 62 x_28_ * x_26_ - 32 x_44_ * x_26_ - 18 x_28_ * x_27_ + 66 x_37_ * x_28_ + 24 x_44_ * x_28_ + 98 x_44_ * x_29_ ] = -6158
c22: [ 44 x_4_ * x_2_ - 90 x_6_ * x_2_ + 40 x_35_ * x_2_ + 86 x_45_ * x_4_ + 50 x_13_ * x_6_ - 36 x_16_ * x_8_ - 82 x_35_ * x_8_ - 6 x_42_ * x_8_ - 22 x_32_ * x_13_ + 66 x_47_ * x_13_ + 22 x_40_ * x_16_ - 28 x_42_ * x_35_ + 70 x_45_ * x_35_ - 45 x_41_ ^ 2 + 82 x_43_ * x_41_ + 24 x_45_ * x_41_ + 88 x_45_ * x_42_ + 18 x_47_ * x_45_ - 43 x_47_ ^ 2 ] = -3536
c23: [ 1 x_4_ ^ 2 + 38 x_35_ * x_4_ - 22 x_35_ * x_6_ + 78 x_26_ * x_15_ - 56 x_28_ * x_26_ + 24 x_35_ * x_28_ - 22 x_48_ ^ 2 ] = -698
c24: [ -80 x_2_ * x_1_ + 48 x_3_ * x_1_ - 10 x_8_ * x_1_ + 72 x_18_ * x_1_ + 40 x_26_ * x_1_ - 20 x_31_ * x_1_ - 22 x_38_ * x_1_ - 42 x_50_ * x_1_ + 84 x_48_ * x_2_ + 32 x_3_ ^ 2 + 42 x_26_ * x_3_ + 18 x_30_ * x_3_ + 26 x_32_ * x_4_ - 96 x_48_ * x_4_ - 44 x_8_ * x_5_ + 64 x_18_ * x_5_ + 8 x_38_ * x_5_ + 34 x_48_ * x_5_ + 18 x_38_ * x_8_ - 36 x_30_ * x_18_ - 50 x_32_ * x_18_ + 19 x_26_ ^ 2 - 72 x_30_ * x_26_ - 90 x_48_ * x_26_ + 49 x_30_ ^ 2 + 62 x_44_ * x_30_ - 86 x_48_ * x_31_ - 40 x_44_ ^ 2 + 72 x_48_ * x_44_ + 49 x_50_ ^ 2 ] = 642
c25: [ 36 x_2_ ^ 2 + 2 x_11_ * x_2_ - 30 x_27_ * x_2_ + 26 x_31_ * x_2_ + 24 x_45_ * x_2_ + 82 x_13_ * x_5_ - 34 x_23_ * x_5_ - 14 x_31_ * x_5_ + 70 x_32_ * x_5_ + 22 x_35_ * x_5_ + 62 x_50_ * x_9_ - 54 x_16_ * x_11_ - 58 x_23_ * x_11_ + 26 x_32_ * x_11_ - 58 x_36_ * x_11_ - 20 x_45_ * x_11_ - 50 x_32_ * x_13_ - 22 x_36_ * x_13_ - 46 x_50_ * x_13_ - 38 x_15_ ^ 2 - 16 x_23_ * x_15_ + 58 x_27_ * x_15_ + 58 x_31_ * x_15_ - 56 x_27_ * x_16_ + 96 x_31_ * x_16_ + 78 x_36_ * x_16_ - 76 x_45_ * x_23_ - 48 x_27_ ^ 2 + 2 x_31_ * x_27_ - 98 x_35_ * x_27_ - 88 x_50_ * x_27_ + 72 x_45_ * x_31_ + 48 x_35_ * x_32_ - 76 x_50_ * x_32_ - 16 x_45_ ^ 2 ] = -8328
c26: [ 90 x_38_ * x_2_ - 46 x_18_ * x_11_ + 10 x_26_ * x_11_ + 20 x_21_ * x_16_ + 60 x_28_ * x_17_ - 25 x_18_ ^ 2 + 25 x_21_ ^ 2 - 68 x_28_ * x_21_ - 86 x_45_ * x_21_ + 72 x_28_ * x_26_ + 64 x_38_ * x_26_ + 76 x_42_ * x_28_ + 16 x_38_ * x_36_ + 50 x_45_ * x_36_ - 26 x_45_ * x_38_ - 34 x_45_ * x_42_ ] = -1951
c27: [ -16 x_46_ * x_2_ + 28 x_32_ * x_4_ + 38 x_16_ * x_7_ + 16 x_46_ * x_29_ + 15 x_46_ ^ 2 ] = 738
c28: [ 84 x_17_ * x_8_ + 36 x_28_ * x_8_ - 15 x_12_ ^ 2 + 76 x_15_ * x_12_ + 50 x_39_ * x_12_ - 8 x_47_ * x_12_ + 8 x_15_ ^ 2 + 24 x_20_ * x_15_ - 56 x_29_ * x_16_ - 32 x_20_ * x_17_ + 88 x_47_ * x_20_ + 26 x_28_ ^ 2 + 22 x_31_ * x_28_ + 44 x_29_ ^ 2 + 52 x_32_ * x_29_ ] = -4168
c29: [ -8 x_5_ * x_4_ - 90 x_14_ * x_4_ - 68 x_20_ * x_4_ + 56 x_26_ * x_4_ - 48 x_27_ * x_4_ + 18 x_40_ * x_4_ + 40 x_15_ * x_5_ + 22 x_24_ * x_5_ - 44 x_28_ * x_5_ - 40 x_14_ ^ 2 + 20 x_19_ * x_14_ - 70 x_27_ * x_15_ + 86 x_41_ * x_15_ + 26 x_40_ * x_19_ + 44 x_26_ * x_24_ + 22 x_27_ * x_24_ + 72 x_41_ * x_26_ - 36 x_40_ * x_27_ + 24 x_41_ * x_40_ ] = -11920
c30: [ 78 x_2_ * x_43_ + 50 x_16_ * x_3_ - 32 x_34_ * x_3_ - 86 x_49_ * x_3_ + 24 x_43_ * x_8_ - 92 x_15_ * x_9_ - 2 x_49_ * x_16_ - 40 x_49_ * x_43_ ] = -126
c31: [ 16 x_22_ * x_2_ - 20 x_30_ * x_2_ - 66 x_50_ * x_7_ + 80 x_19_ * x_13_ + 32 x_30_ * x_13_ + 8 x_18_ * x_16_ + 22 x_20_ * x_16_ - 86 x_22_ * x_16_ + 92 x_30_ * x_16_ + 13 x_18_ ^ 2 - 20 x_50_ * x_19_ + 44 x_22_ ^ 2 + 18 x_50_ * x_22_ + 72 x_50_ * x_30_ ] = 18060
c32: [ 50 x_1_ ^ 2 - 48 x_8_ * x_1_ + 18 x_36_ * x_1_ - 27 x_9_ ^ 2 + 58 x_36_ * x_9_ + 80 x_43_ * x_9_ - 24 x_48_ * x_9_ ] = 3279
c33: [ -16 x_16_ * x_35_ + 18 x_35_ * x_30_ - 78 x_46_ * x_30_ + 84 x_36_ * x_35_ + 20 x_44_ * x_36_ ] = 5362
c34: [ 38 x_18_ * x_12_ + 76 x_19_ * x_12_ - 44 x_37_ * x_12_ + 40 x_40_ * x_12_ - 82 x_45_ * x_12_ + 58 x_27_ * x_18_ + 56 x_27_ * x_21_ - 9 x_27_ ^ 2 - 24 x_47_ * x_37_ + 31 x_40_ ^ 2 + 34 x_45_ ^ 2 ] = 15617
c35: [ 32 x_38_ * x_2_ - 24 x_22_ * x_11_ + 14 x_23_ * x_11_ + 60 x_38_ * x_11_ - 20 x_22_ ^ 2 + 24 x_23_ * x_22_ + 80 x_39_ * x_22_ + 6 x_38_ * x_23_ - 43 x_38_ ^ 2 ] = 1467
c36: [ 84 x_21_ * x_4_ - 44 x_24_ * x_4_ - 96 x_47_ * x_4_ + 10 x_24_ * x_20_ - 58 x_46_ * x_21_ - 50 x_24_ ^ 2 + 100 x_47_ * x_24_ ] = 19340
c37: [ -66 x_18_ * x_2_ - 45 x_13_ ^ 2 + 22 x_39_ * x_13_ - 80 x_45_ * x_13_ + 8 x_14_ ^ 2 - 88 x_38_ * x_14_ - 92 x_34_ * x_18_ + 76 x_37_ * x_18_ - 28 x_30_ * x_26_ + 4 x_39_ * x_29_ + 60 x_39_ * x_30_ - 28 x_45_ * x_34_ ] = 2503
c38: [ 45 x_1_ ^ 2 - 12 x_6_ * x_1_ + 28 x_18_ * x_1_ + 36 x_35_ * x_4_ - 26 x_5_ ^ 2 + 62 x_6_ * x_5_ - 80 x_41_ * x_6_ - 64 x_43_ * x_6_ + 98 x_44_ * x_6_ + 72 x_45_ * x_15_ + 3 x_18_ ^ 2 - 66 x_41_ * x_18_ + 58 x_44_ * x_18_ - 8 x_44_ * x_23_ - 88 x_45_ * x_43_ + 8 x_44_ ^ 2 ] = 3369
c39: [ 23 x_14_ ^ 2 + 74 x_15_ * x_14_ - 78 x_36_ * x_33_ ] = -1463
c40: [ 68 x_32_ * x_5_ - 80 x_42_ * x_5_ - 74 x_17_ * x_9_ + 22 x_19_ * x_9_ + 47 x_17_ ^ 2 + 28 x_19_ * x_17_ + 32 x_32_ * x_17_ - 94 x_44_ * x_17_ - 42 x_32_ * x_19_ + 15 x_33_ ^ 2 - 2 x_39_ * x_33_ + 96 x_44_ * x_39_ ] = -6592
c41: [ -2 x_39_ * x_1_ + 32 x_50_ * x_1_ - 66 x_34_ * x_6_ + 90 x_42_ * x_18_ - 32 x_34_ * x_20_ - 60 x_42_ * x_20_ - 46 x_50_ * x_34_ + 26 x_39_ ^ 2 + 64 x_41_ * x_39_ + 48 x_50_ * x_42_ ] = -2864
c42: [ 45 x_8_ ^ 2 + 30 x_30_ * x_25_ + 44 x_34_ * x_25_ - 60 x_39_ * x_30_ + 8 x_39_ * x_34_ ] = -5170
c43: [ 72 x_9_ * x_1_ + 38 x_24_ * x_5_ - 14 x_21_ * x_9_ - 24 x_43_ * x_9_ + 92 x_21_ * x_20_ - 52 x_24_ * x_21_ + 3 x_47_ ^ 2 ] = 2493
c44: [ 58 x_30_ * x_9_ + 100 x_44_ * x_9_ + 62 x_34_ * x_10_ - 70 x_14_ * x_13_ - 36 x_44_ * x_13_ - 52 x_19_ * x_14_ + 82 x_34_ * x_14_ - 28 x_24_ * x_19_ - 36 x_43_ * x_24_ + 15 x_30_ ^ 2 + 10 x_43_ * x_30_ - 12 x_47_ * x_30_ - 28 x_34_ ^ 2 ] = 1205
c45: [ -6 x_5_ * x_38_ - 60 x_7_ * x_6_ - 32 x_40_ * x_7_ + 88 x_47_ * x_7_ + 78 x_41_ * x_11_ + 40 x_32_ * x_26_ + 94 x_47_ * x_26_ + 84 x_47_ * x_32_ + 58 x_39_ * x_38_ - 2 x_40_ * x_38_ + 58 x_41_ * x_38_ ] = -2384
c46: [ 44 x_17_ * x_3_ + 62 x_47_ * x_3_ - 90 x_17_ * x_16_ - 44 x_47_ * x_16_ - 18 x_17_ ^ 2 + 86 x_47_ * x_17_ ] = -8946
c47: [ 26 x_27_ ^ 2 + 88 x_49_ * x_45_ - 21 x_49_ ^ 2 ] = 1564
c48: [ -6 x_7_ * x_28_ + 6 x_32_ * x_7_ - 36 x_19_ * x_8_ + 24 x_28_ * x_8_ + 70 x_36_ * x_8_ + 82 x_32_ * x_9_ + 74 x_36_ * x_10_ + 100 x_16_ * x_12_ - 12 x_32_ * x_12_ - 46 x_28_ * x_16_ + 82 x_30_ * x_16_ - 32 x_28_ * x_19_ - 42 x_29_ * x_19_ + 46 x_30_ * x_19_ + 62 x_35_ * x_19_ - 44 x_35_ * x_29_ ] = -452
c49: [ -94 x_17_ * x_6_ - 30 x_28_ * x_6_ - 15 x_10_ ^ 2 + 88 x_17_ * x_10_ - 14 x_17_ ^ 2 - 72 x_23_ * x_17_ + 62 x_35_ * x_17_ + 42 x_28_ * x_22_ + 40 x_32_ * x_22_ - 48 x_32_ * x_23_ - 17 x_32_ ^ 2 + 64 x_38_ * x_32_ + 11 x_38_ ^ 2 ] = -5225
c50: [ -14 x_40_ * x_11_ - 94 x_44_ * x_11_ + 84 x_42_ * x_28_ + 98 x_44_ * x_28_ + 18 x_42_ ^ 2 - 48 x_48_ * x_44_ ] = -3360
c51: [ 78 x_10_ * x_1_ + 92 x_33_ * x_1_ + 70 x_46_ * x_1_ - 29 x_6_ ^ 2 - 44 x_7_ * x_6_ - 76 x_33_ * x_6_ - 58 x_33_ * x_10_ - 18 x_37_ * x_10_ - 58 x_43_ * x_10_ - 14 x_17_ ^ 2 - 8 x_37_ * x_17_ + 6 x_33_ * x_23_ - 14 x_37_ * x_33_ - 5 x_43_ ^ 2 + 42 x_46_ * x_43_ ] = -10077
c52: [ 14 x_33_ * x_14_ + 90 x_43_ * x_14_ + 34 x_47_ * x_24_ + 7 x_29_ ^ 2 - 68 x_47_ * x_29_ + 4 x_43_ * x_33_ + 16 x_47_ * x_33_ ] = -3073
c53: [ 25 x_2_ ^ 2 - 48 x_20_ * x_2_ - 38 x_36_ * x_35_ ] = 0
c54: [ 18 x_1_ ^ 2 + 16 x_4_ ^ 2 + 62 x_13_ * x_4_ - 92 x_23_ * x_4_ - 34 x_30_ * x_4_ + 80 x_38_ * x_4_ - 92 x_43_ * x_4_ - 10 x_30_ * x_23_ ] = 6528
c55: [ -10 x_4_ * x_3_ - 23 x_4_ ^ 2 - 12 x_10_ * x_4_ - 82 x_16_ * x_4_ - 38 x_39_ * x_4_ - 32 x_16_ * x_10_ + 47 x_32_ ^ 2 + 72 x_44_ * x_34_ - 15 x_44_ ^ 2 ] = -2572
c56: [ 28 x_1_ ^ 2 - 34 x_18_ * x_1_ + 88 x_36_ * x_18_ + 34 x_40_ * x_33_ - 90 x_46_ * x_33_ - 42 x_40_ * x_36_ - 46 x_48_ * x_40_ ] = 6670
c57: [ 37 x_32_ ^ 2 - 48 x_49_ * x_32_ - 19 x_46_ ^ 2 ] = -495
c58: [ 7 x_6_ ^ 2 + 6 x_7_ * x_6_ + 72 x_8_ * x_6_ - 64 x_28_ * x_6_ + 60 x_47_ * x_6_ + 2 x_26_ * x_7_ - 50 x_28_ * x_8_ - 34 x_47_ * x_8_ + 29 x_10_ ^ 2 + 12 x_14_ * x_10_ - 64 x_26_ * x_10_ - 46 x_47_ * x_10_ - 32 x_48_ * x_14_ + 32 x_28_ ^ 2 - 16 x_41_ * x_28_ + 20 x_42_ * x_28_ - 60 x_44_ * x_28_ + 34 x_47_ * x_41_ ] = 2809
c59: [ -32 x_7_ * x_13_ - 20 x_36_ * x_7_ - 66 x_36_ * x_30_ ] = 288
Bounds
-9 <= x_1_ <= -6
-8 <= x_2_ <= 8
-10 <= x_3_ <= -4
-10 <= x_4_ <= 8
-8 <= x_5_ <= 4
-9 <= x_6_ <= 5
-8 <= x_7_ <= 10
-9 <= x_8_ <= 7
-7 <= x_9_ <= 8
1 <= x_10_ <= 9
-10 <= x_11_ <= 5
6 <= x_12_ <= 9
-2 <= x_13_ <= 10
-9 <= x_14_ <= -6
1 <= x_15_ <= 6
-8 <= x_16_ <= 1
-9 <= x_17_ <= 8
-2 <= x_18_ <= 8
-9 <= x_19_ <= 9
-10 <= x_20_ <= 9
-3 <= x_21_ <= 8
6 <= x_22_ <= 9
-3 <= x_23_ <= 0
-7 <= x_24_ <= 8
4 <= x_25_ <= 9
-6 <= x_26_ <= -3
-5 <= x_27_ <= 10
2 <= x_28_ <= 9
-6 <= x_29_ <= 9
-8 <= x_30_ <= 10
-7 <= x_31_ <= 0
2 <= x_32_ <= 8
-10 <= x_33_ <= 3
-10 <= x_34_ <= -7
6 <= x_35_ <= 10
-1 <= x_36_ <= 2
-2 <= x_37_ <= -1
-6 <= x_38_ <= 10
1 <= x_39_ <= 2
-8 <= x_40_ <= 6
-4 <= x_41_ <= 10
-4 <= x_42_ <= 10
5 <= x_43_ <= 9
-4 <= x_44_ <= -3
-10 <= x_45_ <= 3
0 <= x_46_ <= 10
0 <= x_47_ <= 9
-10 <= x_48_ <= 7
-3 <= x_49_ <= 5
-8 <= x_50_ <= -5
General
x_1_
x_2_
x_3_
x_4_
x_5_
x_6_
x_7_
x_8_
x_9_
x_10_
x_11_
x_12_
x_13_
x_14_
x_15_
x_16_
x_17_
x_18_
x_19_
x_20_
x_21_
x_22_
x_23_
x_24_
x_25_
x_26_
x_27_
x_28_
x_29_
x_30_
x_31_
x_32_
x_33_
x_34_
x_35_
x_36_
x_37_
x_38_
x_39_
x_40_
x_41_
x_42_
x_43_
x_44_
x_45_
x_46_
x_47_
x_48_
x_49_
x_50_
End
