minimize
obj: 15 x_16_ + 13 x_18_ + 45 x_32_ + 28 x_36_ - 43 x_42_ + 29 x_44_ + 17 x_46_ - 24 x_48_
subject to
quadratic_ranged_1_ub: -28 x_22_ + 17 x_26_ + [ 62 x_8_ * x_22_ + 10 x_26_ * x_8_ - 66 x_14_ * x_10_ - 32 x_20_ * x_10_ + 54 x_26_ * x_12_ - 74 x_39_ * x_12_ + 38 x_44_ * x_14_ - 16 x_47_ * x_18_ + 94 x_37_ * x_20_ - 82 x_44_ * x_26_ - 8 x_48_ * x_37_ + 24 x_46_ * x_39_ + 80 x_48_ * x_44_ ] <= 1795
quadratic_ranged_2_ub: 9 x_20_ + 21 x_26_ + [ -100 x_20_ * x_5_ - 20 x_26_ * x_5_ - 14 x_17_ ^ 2 - 44 x_22_ * x_17_ + 44 x_26_ * x_20_ + 66 x_49_ * x_20_ + 2 x_26_ * x_22_ ] <= 3110
quadratic_ranged_3_ub: -45 x_14_ + [ -64 x_7_ * x_2_ - 84 x_29_ * x_2_ - 8 x_7_ ^ 2 + 30 x_36_ * x_7_ + 42 x_36_ * x_14_ + 9 x_21_ ^ 2 + 30 x_36_ ^ 2 ] <= -1019
quadratic_ranged_4_ub: 21 x_7_ + 20 x_12_ + [ -36 x_2_ ^ 2 - 80 x_29_ * x_2_ + 10 x_50_ * x_2_ + 42 x_9_ * x_4_ - 50 x_25_ * x_4_ - 76 x_37_ * x_4_ - 52 x_9_ * x_7_ - 98 x_21_ * x_7_ + 12 x_29_ * x_7_ + 18 x_24_ * x_9_ - 74 x_39_ * x_9_ + 24 x_21_ * x_12_ - 100 x_50_ * x_12_ - 48 x_21_ * x_17_ - 36 x_39_ * x_17_ + 40 x_35_ * x_21_ + 24 x_27_ * x_23_ - 47 x_25_ ^ 2 + 50 x_50_ * x_25_ - 42 x_35_ * x_27_ - 80 x_35_ * x_29_ + 92 x_39_ * x_29_ - 15 x_35_ ^ 2 - 6 x_39_ * x_37_ ] <= 4280
quadratic_ranged_5_ub: -3 x_17_ - 19 x_21_ + [ 62 x_8_ * x_11_ + 100 x_21_ * x_8_ + 52 x_40_ * x_11_ + 2 x_19_ * x_17_ + 66 x_30_ * x_17_ - 88 x_40_ * x_17_ ] <= 3095
quadratic_ranged_6_ub: -49 x_48_ + [ -14 x_10_ * x_5_ + 66 x_16_ * x_7_ - 22 x_29_ * x_7_ - 4 x_22_ * x_10_ - 98 x_37_ * x_10_ - 38 x_40_ * x_16_ - 70 x_22_ * x_17_ + 20 x_29_ * x_17_ - 20 x_43_ * x_17_ - 72 x_44_ * x_17_ - 70 x_48_ * x_17_ - 76 x_24_ * x_22_ - 38 x_33_ * x_22_ - 12 x_37_ * x_22_ - 34 x_43_ * x_22_ + 4 x_48_ * x_24_ - 48 x_33_ * x_30_ - 44 x_43_ * x_30_ + 92 x_48_ * x_30_ + 15 x_33_ ^ 2 - 92 x_48_ * x_33_ - 62 x_48_ * x_43_ ] <= 1103
quadratic_ranged_7_ub: -21 x_8_ + 34 x_19_ + [ -88 x_30_ * x_7_ + 2 x_32_ * x_8_ + 8 x_49_ * x_8_ - 64 x_32_ * x_13_ - 88 x_35_ * x_19_ + 80 x_26_ * x_22_ - 34 x_49_ * x_22_ - 12 x_32_ * x_26_ - 30 x_49_ ^ 2 ] <= -7462
quadratic_ranged_8_ub: 15 x_4_ + 24 x_11_ + 5 x_18_ - 13 x_22_ + [ 8 x_4_ * x_2_ + 12 x_12_ * x_2_ - 17 x_4_ ^ 2 - 30 x_22_ * x_4_ + 96 x_22_ * x_11_ - 2 x_39_ * x_11_ + 60 x_47_ * x_45_ ] <= -3907
quadratic_ranged_9_ub: -6 x_9_ + 13 x_11_ + 23 x_15_ - 26 x_16_ + 42 x_28_ + 18 x_38_ + [ 64 x_17_ * x_9_ + 36 x_45_ * x_9_ + 86 x_29_ * x_11_ - 50 x_30_ * x_11_ + 13 x_12_ ^ 2 + 20 x_32_ * x_12_ - 6 x_32_ * x_15_ - 14 x_41_ * x_15_ + 44 x_16_ ^ 2 - 94 x_17_ * x_16_ - 10 x_29_ * x_16_ + 74 x_43_ * x_29_ + 62 x_41_ * x_30_ - 23 x_32_ ^ 2 + 84 x_45_ * x_34_ + 70 x_41_ * x_38_ + 40 x_45_ * x_38_ ] <= 2543
quadratic_ranged_10_ub: -50 x_3_ + 19 x_4_ - 25 x_8_ + 23 x_37_ + [ 82 x_42_ * x_3_ + 38 x_44_ * x_3_ - 84 x_47_ * x_3_ + 30 x_48_ * x_3_ - 12 x_49_ * x_3_ - 26 x_4_ ^ 2 + 70 x_37_ * x_4_ + 100 x_49_ * x_37_ + 86 x_49_ * x_42_ + 41 x_44_ ^ 2 + 37 x_47_ ^ 2 + 96 x_49_ * x_48_ ] <= 1110
quadratic_ranged_11_ub: -24 x_16_ + 9 x_21_ - 17 x_27_ + [ -44 x_13_ * x_6_ + 66 x_16_ * x_6_ - 100 x_27_ * x_6_ + 94 x_42_ * x_6_ + 58 x_50_ * x_6_ + 22 x_45_ * x_13_ + 4 x_50_ * x_13_ - 1 x_16_ ^ 2 - 78 x_21_ * x_16_ + 70 x_42_ * x_16_ + 86 x_50_ * x_16_ - 72 x_45_ * x_21_ + 26 x_50_ * x_21_ - 42 x_27_ ^ 2 - 8 x_50_ ^ 2 ] <= -4816
quadratic_ranged_12_ub: [ -10 x_1_ ^ 2 - 6 x_6_ * x_1_ + 36 x_15_ * x_1_ - 8 x_18_ * x_1_ + 54 x_19_ * x_1_ + 34 x_7_ * x_6_ - 34 x_13_ * x_6_ + 16 x_18_ * x_6_ + 98 x_13_ * x_7_ - 44 x_14_ * x_7_ - 8 x_8_ ^ 2 + 28 x_11_ * x_8_ - 70 x_18_ * x_8_ + 21 x_11_ ^ 2 + 6 x_14_ * x_13_ - 76 x_23_ * x_15_ - 54 x_30_ * x_18_ - 39 x_23_ ^ 2 - 20 x_30_ ^ 2 ] <= 3877
quadratic_ranged_13_ub: [ 78 x_25_ * x_1_ + 88 x_36_ * x_1_ - 48 x_14_ * x_10_ + 42 x_26_ * x_10_ - 64 x_38_ * x_10_ + 72 x_50_ * x_10_ - 14 x_25_ * x_13_ - 12 x_14_ ^ 2 + 24 x_19_ * x_14_ - 8 x_36_ * x_14_ - 44 x_24_ * x_18_ + 2 x_19_ ^ 2 - 42 x_26_ * x_19_ + 36 x_49_ * x_24_ - 16 x_50_ * x_24_ - 78 x_26_ * x_25_ + 42 x_49_ * x_26_ - 64 x_38_ * x_36_ - 26 x_50_ * x_49_ ] <= 4056
quadratic_ranged_14_ub: -12 x_44_ + [ -60 x_17_ * x_16_ - 28 x_34_ * x_16_ + 16 x_32_ * x_17_ + 3 x_22_ ^ 2 - 24 x_34_ * x_32_ - 43 x_34_ ^ 2 - 24 x_44_ ^ 2 ] <= 4969
quadratic_ranged_15_ub: -14 x_12_ + 39 x_18_ + [ -2 x_9_ * x_1_ - 70 x_11_ * x_3_ - 18 x_15_ * x_3_ + 86 x_16_ * x_3_ + 54 x_20_ * x_3_ + 56 x_42_ * x_3_ + 7 x_9_ ^ 2 + 4 x_11_ * x_9_ + 74 x_12_ * x_9_ + 8 x_34_ * x_9_ - 38 x_42_ * x_9_ - 34 x_44_ * x_9_ + 94 x_16_ * x_11_ + 10 x_42_ * x_11_ - 45 x_12_ ^ 2 - 4 x_15_ * x_12_ - 52 x_16_ * x_12_ - 82 x_18_ * x_12_ - 36 x_21_ * x_12_ - 41 x_16_ ^ 2 + 84 x_44_ * x_16_ + 26 x_18_ ^ 2 - 22 x_34_ * x_18_ + 39 x_20_ ^ 2 + 6 x_21_ * x_20_ + 20 x_34_ * x_20_ + 20 x_42_ * x_20_ - 54 x_44_ * x_20_ + 98 x_42_ * x_21_ ] <= -21006
quadratic_ranged_16_ub: 10 x_11_ + 29 x_17_ + 40 x_46_ + [ 16 x_2_ ^ 2 - 18 x_18_ * x_2_ - 13 x_10_ ^ 2 + 92 x_11_ * x_10_ + 16 x_11_ ^ 2 - 88 x_17_ * x_13_ + 70 x_29_ * x_17_ + 14 x_46_ * x_17_ - 22 x_46_ * x_29_ + 36 x_43_ * x_30_ ] <= 194
quadratic_ranged_17_ub: -44 x_13_ + 34 x_49_ + [ -50 x_13_ * x_3_ + 20 x_41_ * x_13_ + 8 x_49_ * x_13_ - 20 x_15_ ^ 2 - 20 x_39_ ^ 2 ] <= -5235
quadratic_ranged_18_ub: -27 x_2_ - 40 x_35_ - 19 x_37_ + [ 84 x_3_ * x_2_ - 66 x_6_ * x_2_ - 64 x_35_ * x_2_ - 33 x_3_ ^ 2 + 30 x_20_ * x_6_ - 96 x_31_ * x_6_ + 62 x_50_ * x_20_ - 50 x_35_ * x_31_ + 64 x_37_ * x_31_ + 56 x_50_ * x_35_ + 6 x_37_ ^ 2 ] <= 1439
quadratic_ranged_19_ub: -5 x_12_ - 18 x_22_ - 28 x_25_ - 11 x_28_ + [ -22 x_9_ ^ 2 + 88 x_30_ * x_9_ + 10 x_12_ ^ 2 - 72 x_28_ * x_12_ - 64 x_33_ * x_12_ + 74 x_33_ * x_17_ - 36 x_39_ * x_17_ - 6 x_22_ ^ 2 + 74 x_25_ * x_22_ + 70 x_33_ * x_25_ + 34 x_39_ * x_25_ - 24 x_30_ * x_28_ + 50 x_40_ * x_33_ ] <= -12153
quadratic_ranged_20_ub: -7 x_34_ - 17 x_36_ + [ -68 x_16_ * x_22_ - 50 x_34_ * x_16_ + 24 x_36_ * x_16_ + 56 x_34_ * x_20_ + 20 x_42_ * x_37_ ] <= -2372
quadratic_ranged_21_ub: 44 x_17_ + 17 x_27_ + [ -82 x_19_ * x_17_ + 20 x_27_ ^ 2 + 40 x_36_ * x_27_ + 70 x_32_ * x_29_ + 29 x_31_ ^ 2 - 20 x_36_ ^ 2 - 32 x_45_ * x_36_ ] <= 6439
quadratic_ranged_22_ub: 41 x_1_ + 21 x_16_ + [ -46 x_16_ * x_1_ + 22 x_19_ * x_1_ + 58 x_20_ * x_1_ + 64 x_44_ * x_1_ + 46 x_14_ * x_5_ - 46 x_16_ * x_6_ - 72 x_19_ * x_6_ - 38 x_14_ ^ 2 - 68 x_19_ * x_14_ + 44 x_40_ * x_14_ + 50 x_44_ * x_40_ ] <= -4590
quadratic_ranged_23_ub: 42 x_23_ + [ -12 x_8_ * x_20_ - 54 x_12_ * x_11_ - 28 x_35_ * x_23_ ] <= 1586
quadratic_ranged_24_ub: -27 x_22_ + [ 76 x_22_ * x_5_ + 29 x_12_ ^ 2 - 40 x_22_ * x_17_ - 5 x_21_ ^ 2 - 10 x_42_ * x_21_ - 21 x_22_ ^ 2 - 30 x_35_ * x_22_ + 96 x_42_ * x_22_ - 26 x_35_ * x_33_ + 47 x_35_ ^ 2 ] <= -326
quadratic_ranged_25_ub: 35 x_44_ + [ 48 x_4_ * x_5_ - 94 x_12_ * x_4_ - 92 x_28_ * x_5_ - 12 x_35_ * x_12_ + 46 x_44_ * x_26_ - 98 x_42_ * x_35_ + 62 x_44_ * x_42_ ] <= 8325
quadratic_ranged_26_ub: -8 x_6_ + 3 x_33_ + [ -100 x_39_ * x_6_ - 54 x_39_ * x_15_ - 72 x_33_ * x_16_ + 42 x_33_ ^ 2 + 4 x_48_ ^ 2 ] <= -8947
quadratic_ranged_27_ub: -18 x_6_ - 25 x_37_ + [ -26 x_37_ * x_6_ - 12 x_21_ * x_8_ - 12 x_30_ * x_8_ + 36 x_44_ * x_21_ + 32 x_23_ ^ 2 ] <= 994
quadratic_ranged_28_ub: 42 x_8_ - 50 x_13_ - 9 x_34_ + [ -38 x_8_ * x_3_ + 42 x_34_ * x_5_ - 8 x_39_ * x_5_ - 8 x_8_ ^ 2 + 42 x_17_ * x_8_ + 72 x_50_ * x_8_ - 12 x_17_ * x_12_ - 31 x_13_ ^ 2 - 36 x_39_ * x_13_ - 90 x_43_ * x_13_ + 84 x_43_ * x_17_ + 78 x_50_ * x_17_ + 24 x_44_ * x_34_ - 12 x_43_ * x_37_ - 20 x_50_ * x_43_ ] <= 377
quadratic_ranged_29_ub: 31 x_6_ - 32 x_11_ - 32 x_33_ + [ -4 x_8_ * x_6_ + 44 x_9_ * x_6_ - 78 x_33_ * x_6_ + 70 x_43_ * x_6_ + 17 x_8_ ^ 2 - 48 x_32_ * x_8_ - 54 x_33_ * x_8_ + 40 x_23_ * x_9_ - 28 x_32_ * x_11_ + 98 x_40_ * x_32_ ] <= 5498
quadratic_ranged_30_ub: -20 x_7_ + [ -24 x_13_ * x_1_ + 28 x_23_ * x_1_ - 82 x_40_ * x_1_ - 12 x_13_ * x_7_ + 64 x_30_ * x_7_ + 16 x_13_ * x_8_ + 36 x_25_ * x_8_ - 20 x_40_ * x_8_ - 50 x_42_ * x_8_ + 32 x_42_ * x_11_ + 68 x_25_ * x_16_ + 20 x_42_ * x_16_ - 44 x_25_ * x_23_ - 22 x_35_ * x_23_ + 86 x_43_ * x_23_ + 33 x_25_ ^ 2 + 2 x_30_ ^ 2 + 100 x_40_ * x_30_ - 6 x_40_ ^ 2 ] <= 12037
quadratic_ranged_31_ub: -43 x_30_ + 33 x_36_ + 27 x_39_ + [ 72 x_21_ * x_3_ + 66 x_21_ * x_7_ + 24 x_36_ * x_7_ - 54 x_49_ * x_7_ - 47 x_10_ ^ 2 - 10 x_49_ * x_10_ + 22 x_30_ ^ 2 + 96 x_47_ * x_39_ - 58 x_47_ * x_46_ ] <= -2961
quadratic_ranged_1_lb: -28 x_22_ + 17 x_26_ + [ 62 x_8_ * x_22_ + 10 x_26_ * x_8_ - 66 x_14_ * x_10_ - 32 x_20_ * x_10_ + 54 x_26_ * x_12_ - 74 x_39_ * x_12_ + 38 x_44_ * x_14_ - 16 x_47_ * x_18_ + 94 x_37_ * x_20_ - 82 x_44_ * x_26_ - 8 x_48_ * x_37_ + 24 x_46_ * x_39_ + 80 x_48_ * x_44_ ] >= 1788
quadratic_ranged_2_lb: 9 x_20_ + 21 x_26_ + [ -100 x_20_ * x_5_ - 20 x_26_ * x_5_ - 14 x_17_ ^ 2 - 44 x_22_ * x_17_ + 44 x_26_ * x_20_ + 66 x_49_ * x_20_ + 2 x_26_ * x_22_ ] >= 3104
quadratic_ranged_3_lb: -45 x_14_ + [ -64 x_7_ * x_2_ - 84 x_29_ * x_2_ - 8 x_7_ ^ 2 + 30 x_36_ * x_7_ + 42 x_36_ * x_14_ + 9 x_21_ ^ 2 + 30 x_36_ ^ 2 ] >= -1020
quadratic_ranged_4_lb: 21 x_7_ + 20 x_12_ + [ -36 x_2_ ^ 2 - 80 x_29_ * x_2_ + 10 x_50_ * x_2_ + 42 x_9_ * x_4_ - 50 x_25_ * x_4_ - 76 x_37_ * x_4_ - 52 x_9_ * x_7_ - 98 x_21_ * x_7_ + 12 x_29_ * x_7_ + 18 x_24_ * x_9_ - 74 x_39_ * x_9_ + 24 x_21_ * x_12_ - 100 x_50_ * x_12_ - 48 x_21_ * x_17_ - 36 x_39_ * x_17_ + 40 x_35_ * x_21_ + 24 x_27_ * x_23_ - 47 x_25_ ^ 2 + 50 x_50_ * x_25_ - 42 x_35_ * x_27_ - 80 x_35_ * x_29_ + 92 x_39_ * x_29_ - 15 x_35_ ^ 2 - 6 x_39_ * x_37_ ] >= 4270
quadratic_ranged_5_lb: -3 x_17_ - 19 x_21_ + [ 62 x_8_ * x_11_ + 100 x_21_ * x_8_ + 52 x_40_ * x_11_ + 2 x_19_ * x_17_ + 66 x_30_ * x_17_ - 88 x_40_ * x_17_ ] >= 3088
quadratic_ranged_6_lb: -49 x_48_ + [ -14 x_10_ * x_5_ + 66 x_16_ * x_7_ - 22 x_29_ * x_7_ - 4 x_22_ * x_10_ - 98 x_37_ * x_10_ - 38 x_40_ * x_16_ - 70 x_22_ * x_17_ + 20 x_29_ * x_17_ - 20 x_43_ * x_17_ - 72 x_44_ * x_17_ - 70 x_48_ * x_17_ - 76 x_24_ * x_22_ - 38 x_33_ * x_22_ - 12 x_37_ * x_22_ - 34 x_43_ * x_22_ + 4 x_48_ * x_24_ - 48 x_33_ * x_30_ - 44 x_43_ * x_30_ + 92 x_48_ * x_30_ + 15 x_33_ ^ 2 - 92 x_48_ * x_33_ - 62 x_48_ * x_43_ ] >= 1097
quadratic_ranged_7_lb: -21 x_8_ + 34 x_19_ + [ -88 x_30_ * x_7_ + 2 x_32_ * x_8_ + 8 x_49_ * x_8_ - 64 x_32_ * x_13_ - 88 x_35_ * x_19_ + 80 x_26_ * x_22_ - 34 x_49_ * x_22_ - 12 x_32_ * x_26_ - 30 x_49_ ^ 2 ] >= -7467
quadratic_ranged_8_lb: 15 x_4_ + 24 x_11_ + 5 x_18_ - 13 x_22_ + [ 8 x_4_ * x_2_ + 12 x_12_ * x_2_ - 17 x_4_ ^ 2 - 30 x_22_ * x_4_ + 96 x_22_ * x_11_ - 2 x_39_ * x_11_ + 60 x_47_ * x_45_ ] >= -3910
quadratic_ranged_9_lb: -6 x_9_ + 13 x_11_ + 23 x_15_ - 26 x_16_ + 42 x_28_ + 18 x_38_ + [ 64 x_17_ * x_9_ + 36 x_45_ * x_9_ + 86 x_29_ * x_11_ - 50 x_30_ * x_11_ + 13 x_12_ ^ 2 + 20 x_32_ * x_12_ - 6 x_32_ * x_15_ - 14 x_41_ * x_15_ + 44 x_16_ ^ 2 - 94 x_17_ * x_16_ - 10 x_29_ * x_16_ + 74 x_43_ * x_29_ + 62 x_41_ * x_30_ - 23 x_32_ ^ 2 + 84 x_45_ * x_34_ + 70 x_41_ * x_38_ + 40 x_45_ * x_38_ ] >= 2537
quadratic_ranged_10_lb: -50 x_3_ + 19 x_4_ - 25 x_8_ + 23 x_37_ + [ 82 x_42_ * x_3_ + 38 x_44_ * x_3_ - 84 x_47_ * x_3_ + 30 x_48_ * x_3_ - 12 x_49_ * x_3_ - 26 x_4_ ^ 2 + 70 x_37_ * x_4_ + 100 x_49_ * x_37_ + 86 x_49_ * x_42_ + 41 x_44_ ^ 2 + 37 x_47_ ^ 2 + 96 x_49_ * x_48_ ] >= 1107
quadratic_ranged_11_lb: -24 x_16_ + 9 x_21_ - 17 x_27_ + [ -44 x_13_ * x_6_ + 66 x_16_ * x_6_ - 100 x_27_ * x_6_ + 94 x_42_ * x_6_ + 58 x_50_ * x_6_ + 22 x_45_ * x_13_ + 4 x_50_ * x_13_ - 1 x_16_ ^ 2 - 78 x_21_ * x_16_ + 70 x_42_ * x_16_ + 86 x_50_ * x_16_ - 72 x_45_ * x_21_ + 26 x_50_ * x_21_ - 42 x_27_ ^ 2 - 8 x_50_ ^ 2 ] >= -4819
quadratic_ranged_12_lb: [ -10 x_1_ ^ 2 - 6 x_6_ * x_1_ + 36 x_15_ * x_1_ - 8 x_18_ * x_1_ + 54 x_19_ * x_1_ + 34 x_7_ * x_6_ - 34 x_13_ * x_6_ + 16 x_18_ * x_6_ + 98 x_13_ * x_7_ - 44 x_14_ * x_7_ - 8 x_8_ ^ 2 + 28 x_11_ * x_8_ - 70 x_18_ * x_8_ + 21 x_11_ ^ 2 + 6 x_14_ * x_13_ - 76 x_23_ * x_15_ - 54 x_30_ * x_18_ - 39 x_23_ ^ 2 - 20 x_30_ ^ 2 ] >= 3872
quadratic_ranged_13_lb: [ 78 x_25_ * x_1_ + 88 x_36_ * x_1_ - 48 x_14_ * x_10_ + 42 x_26_ * x_10_ - 64 x_38_ * x_10_ + 72 x_50_ * x_10_ - 14 x_25_ * x_13_ - 12 x_14_ ^ 2 + 24 x_19_ * x_14_ - 8 x_36_ * x_14_ - 44 x_24_ * x_18_ + 2 x_19_ ^ 2 - 42 x_26_ * x_19_ + 36 x_49_ * x_24_ - 16 x_50_ * x_24_ - 78 x_26_ * x_25_ + 42 x_49_ * x_26_ - 64 x_38_ * x_36_ - 26 x_50_ * x_49_ ] >= 4053
quadratic_ranged_14_lb: -12 x_44_ + [ -60 x_17_ * x_16_ - 28 x_34_ * x_16_ + 16 x_32_ * x_17_ + 3 x_22_ ^ 2 - 24 x_34_ * x_32_ - 43 x_34_ ^ 2 - 24 x_44_ ^ 2 ] >= 4960
quadratic_ranged_15_lb: -14 x_12_ + 39 x_18_ + [ -2 x_9_ * x_1_ - 70 x_11_ * x_3_ - 18 x_15_ * x_3_ + 86 x_16_ * x_3_ + 54 x_20_ * x_3_ + 56 x_42_ * x_3_ + 7 x_9_ ^ 2 + 4 x_11_ * x_9_ + 74 x_12_ * x_9_ + 8 x_34_ * x_9_ - 38 x_42_ * x_9_ - 34 x_44_ * x_9_ + 94 x_16_ * x_11_ + 10 x_42_ * x_11_ - 45 x_12_ ^ 2 - 4 x_15_ * x_12_ - 52 x_16_ * x_12_ - 82 x_18_ * x_12_ - 36 x_21_ * x_12_ - 41 x_16_ ^ 2 + 84 x_44_ * x_16_ + 26 x_18_ ^ 2 - 22 x_34_ * x_18_ + 39 x_20_ ^ 2 + 6 x_21_ * x_20_ + 20 x_34_ * x_20_ + 20 x_42_ * x_20_ - 54 x_44_ * x_20_ + 98 x_42_ * x_21_ ] >= -21011
quadratic_ranged_16_lb: 10 x_11_ + 29 x_17_ + 40 x_46_ + [ 16 x_2_ ^ 2 - 18 x_18_ * x_2_ - 13 x_10_ ^ 2 + 92 x_11_ * x_10_ + 16 x_11_ ^ 2 - 88 x_17_ * x_13_ + 70 x_29_ * x_17_ + 14 x_46_ * x_17_ - 22 x_46_ * x_29_ + 36 x_43_ * x_30_ ] >= 189
quadratic_ranged_17_lb: -44 x_13_ + 34 x_49_ + [ -50 x_13_ * x_3_ + 20 x_41_ * x_13_ + 8 x_49_ * x_13_ - 20 x_15_ ^ 2 - 20 x_39_ ^ 2 ] >= -5241
quadratic_ranged_18_lb: -27 x_2_ - 40 x_35_ - 19 x_37_ + [ 84 x_3_ * x_2_ - 66 x_6_ * x_2_ - 64 x_35_ * x_2_ - 33 x_3_ ^ 2 + 30 x_20_ * x_6_ - 96 x_31_ * x_6_ + 62 x_50_ * x_20_ - 50 x_35_ * x_31_ + 64 x_37_ * x_31_ + 56 x_50_ * x_35_ + 6 x_37_ ^ 2 ] >= 1435
quadratic_ranged_19_lb: -5 x_12_ - 18 x_22_ - 28 x_25_ - 11 x_28_ + [ -22 x_9_ ^ 2 + 88 x_30_ * x_9_ + 10 x_12_ ^ 2 - 72 x_28_ * x_12_ - 64 x_33_ * x_12_ + 74 x_33_ * x_17_ - 36 x_39_ * x_17_ - 6 x_22_ ^ 2 + 74 x_25_ * x_22_ + 70 x_33_ * x_25_ + 34 x_39_ * x_25_ - 24 x_30_ * x_28_ + 50 x_40_ * x_33_ ] >= -12156
quadratic_ranged_20_lb: -7 x_34_ - 17 x_36_ + [ -68 x_16_ * x_22_ - 50 x_34_ * x_16_ + 24 x_36_ * x_16_ + 56 x_34_ * x_20_ + 20 x_42_ * x_37_ ] >= -2378
quadratic_ranged_21_lb: 44 x_17_ + 17 x_27_ + [ -82 x_19_ * x_17_ + 20 x_27_ ^ 2 + 40 x_36_ * x_27_ + 70 x_32_ * x_29_ + 29 x_31_ ^ 2 - 20 x_36_ ^ 2 - 32 x_45_ * x_36_ ] >= 6435
quadratic_ranged_22_lb: 41 x_1_ + 21 x_16_ + [ -46 x_16_ * x_1_ + 22 x_19_ * x_1_ + 58 x_20_ * x_1_ + 64 x_44_ * x_1_ + 46 x_14_ * x_5_ - 46 x_16_ * x_6_ - 72 x_19_ * x_6_ - 38 x_14_ ^ 2 - 68 x_19_ * x_14_ + 44 x_40_ * x_14_ + 50 x_44_ * x_40_ ] >= -4598
quadratic_ranged_23_lb: 42 x_23_ + [ -12 x_8_ * x_20_ - 54 x_12_ * x_11_ - 28 x_35_ * x_23_ ] >= 1578
quadratic_ranged_24_lb: -27 x_22_ + [ 76 x_22_ * x_5_ + 29 x_12_ ^ 2 - 40 x_22_ * x_17_ - 5 x_21_ ^ 2 - 10 x_42_ * x_21_ - 21 x_22_ ^ 2 - 30 x_35_ * x_22_ + 96 x_42_ * x_22_ - 26 x_35_ * x_33_ + 47 x_35_ ^ 2 ] >= -330
quadratic_ranged_25_lb: 35 x_44_ + [ 48 x_4_ * x_5_ - 94 x_12_ * x_4_ - 92 x_28_ * x_5_ - 12 x_35_ * x_12_ + 46 x_44_ * x_26_ - 98 x_42_ * x_35_ + 62 x_44_ * x_42_ ] >= 8322
quadratic_ranged_26_lb: -8 x_6_ + 3 x_33_ + [ -100 x_39_ * x_6_ - 54 x_39_ * x_15_ - 72 x_33_ * x_16_ + 42 x_33_ ^ 2 + 4 x_48_ ^ 2 ] >= -8956
quadratic_ranged_27_lb: -18 x_6_ - 25 x_37_ + [ -26 x_37_ * x_6_ - 12 x_21_ * x_8_ - 12 x_30_ * x_8_ + 36 x_44_ * x_21_ + 32 x_23_ ^ 2 ] >= 984
quadratic_ranged_28_lb: 42 x_8_ - 50 x_13_ - 9 x_34_ + [ -38 x_8_ * x_3_ + 42 x_34_ * x_5_ - 8 x_39_ * x_5_ - 8 x_8_ ^ 2 + 42 x_17_ * x_8_ + 72 x_50_ * x_8_ - 12 x_17_ * x_12_ - 31 x_13_ ^ 2 - 36 x_39_ * x_13_ - 90 x_43_ * x_13_ + 84 x_43_ * x_17_ + 78 x_50_ * x_17_ + 24 x_44_ * x_34_ - 12 x_43_ * x_37_ - 20 x_50_ * x_43_ ] >= 374
quadratic_ranged_29_lb: 31 x_6_ - 32 x_11_ - 32 x_33_ + [ -4 x_8_ * x_6_ + 44 x_9_ * x_6_ - 78 x_33_ * x_6_ + 70 x_43_ * x_6_ + 17 x_8_ ^ 2 - 48 x_32_ * x_8_ - 54 x_33_ * x_8_ + 40 x_23_ * x_9_ - 28 x_32_ * x_11_ + 98 x_40_ * x_32_ ] >= 5495
quadratic_ranged_30_lb: -20 x_7_ + [ -24 x_13_ * x_1_ + 28 x_23_ * x_1_ - 82 x_40_ * x_1_ - 12 x_13_ * x_7_ + 64 x_30_ * x_7_ + 16 x_13_ * x_8_ + 36 x_25_ * x_8_ - 20 x_40_ * x_8_ - 50 x_42_ * x_8_ + 32 x_42_ * x_11_ + 68 x_25_ * x_16_ + 20 x_42_ * x_16_ - 44 x_25_ * x_23_ - 22 x_35_ * x_23_ + 86 x_43_ * x_23_ + 33 x_25_ ^ 2 + 2 x_30_ ^ 2 + 100 x_40_ * x_30_ - 6 x_40_ ^ 2 ] >= 12029
quadratic_ranged_31_lb: -43 x_30_ + 33 x_36_ + 27 x_39_ + [ 72 x_21_ * x_3_ + 66 x_21_ * x_7_ + 24 x_36_ * x_7_ - 54 x_49_ * x_7_ - 47 x_10_ ^ 2 - 10 x_49_ * x_10_ + 22 x_30_ ^ 2 + 96 x_47_ * x_39_ - 58 x_47_ * x_46_ ] >= -2969
c1: 26 x_32_ + [ 20 x_1_ ^ 2 - 78 x_15_ * x_6_ - 38 x_37_ * x_6_ + 80 x_39_ * x_6_ - 58 x_43_ * x_6_ + 44 x_15_ ^ 2 + 56 x_30_ * x_17_ + 2 x_37_ * x_20_ - 10 x_38_ * x_28_ + 72 x_38_ * x_30_ + 33 x_32_ ^ 2 + 12 x_37_ * x_32_ - 98 x_39_ * x_32_ - 52 x_39_ * x_37_ ] = 2796
c2: 45 x_12_ + 23 x_14_ - 30 x_31_ + 47 x_45_ + [ -15 x_11_ ^ 2 - 16 x_22_ * x_11_ - 84 x_31_ * x_11_ - 28 x_46_ * x_11_ + 68 x_44_ * x_12_ - 54 x_46_ * x_12_ - 33 x_14_ ^ 2 - 7 x_22_ ^ 2 + 58 x_44_ * x_22_ - 44 x_45_ * x_31_ - 90 x_44_ * x_43_ - 14 x_46_ * x_43_ + 21 x_44_ ^ 2 - 49 x_46_ ^ 2 ] = -199
c3: 42 x_43_ + [ 6 x_13_ * x_37_ + 24 x_37_ * x_36_ - 64 x_43_ * x_36_ ] = 2152
c4: 24 x_21_ - 7 x_48_ + [ -24 x_5_ ^ 2 + 62 x_22_ * x_5_ - 26 x_35_ * x_5_ + 42 x_41_ * x_5_ - 46 x_42_ * x_5_ + 72 x_22_ * x_10_ - 68 x_42_ * x_10_ + 46 x_22_ * x_12_ + 86 x_26_ * x_12_ + 40 x_42_ * x_12_ + 86 x_48_ * x_12_ - 26 x_22_ * x_21_ + 62 x_39_ * x_21_ - 62 x_49_ * x_21_ - 28 x_42_ * x_22_ + 46 x_49_ * x_22_ + 88 x_35_ * x_26_ + 48 x_39_ * x_26_ + 84 x_42_ * x_35_ + 64 x_49_ * x_35_ + 58 x_41_ * x_39_ - 8 x_42_ * x_39_ + 48 x_49_ * x_48_ ] = -3099
c5: -48 x_24_ + [ 62 x_29_ * x_9_ - 66 x_41_ * x_9_ - 36 x_43_ * x_9_ + 40 x_19_ ^ 2 + 64 x_24_ * x_19_ - 33 x_20_ ^ 2 - 28 x_24_ ^ 2 + 36 x_43_ * x_29_ - 2 x_41_ * x_31_ + 88 x_43_ * x_31_ - 2 x_41_ ^ 2 ] = -4427
c6: -15 x_9_ - 23 x_11_ - 47 x_31_ + 22 x_47_ + [ 96 x_10_ * x_9_ - 8 x_33_ * x_9_ + 4 x_35_ * x_9_ + 4 x_42_ * x_9_ - 26 x_47_ * x_9_ + 30 x_48_ * x_9_ - 30 x_47_ * x_10_ + 94 x_31_ * x_11_ - 94 x_37_ * x_11_ + 44 x_45_ * x_11_ + 8 x_35_ * x_19_ + 20 x_47_ * x_19_ - 38 x_44_ * x_28_ - 68 x_42_ * x_31_ + 68 x_35_ * x_33_ - 92 x_37_ * x_33_ - 18 x_42_ * x_33_ + 84 x_48_ * x_33_ + 7 x_35_ ^ 2 - 78 x_44_ * x_35_ - 14 x_45_ * x_42_ + 5 x_44_ ^ 2 - 50 x_45_ ^ 2 - 4 x_47_ ^ 2 ] = -4514
c7: -6 x_19_ - 10 x_27_ + [ 8 x_10_ * x_7_ - 66 x_27_ * x_10_ - 66 x_22_ * x_19_ - 11 x_33_ ^ 2 ] = -1609
c8: -32 x_12_ - 49 x_45_ + [ 60 x_12_ * x_6_ - 2 x_12_ ^ 2 - 38 x_21_ * x_12_ - 12 x_43_ * x_17_ ] = -3809
c9: -44 x_18_ - 8 x_43_ + [ 84 x_9_ * x_5_ + 24 x_9_ ^ 2 - 82 x_18_ * x_9_ - 16 x_35_ * x_9_ - 64 x_22_ * x_18_ + 96 x_44_ * x_18_ - 74 x_30_ * x_19_ - 52 x_35_ * x_22_ + 22 x_30_ ^ 2 - 82 x_44_ * x_30_ - 68 x_48_ * x_30_ + 24 x_43_ * x_35_ - 20 x_44_ * x_43_ ] = -662
c10: -39 x_4_ + [ -38 x_4_ ^ 2 + 32 x_9_ * x_4_ - 94 x_35_ * x_4_ + 34 x_5_ ^ 2 - 72 x_38_ * x_5_ - 76 x_39_ * x_5_ + 11 x_9_ ^ 2 - 60 x_18_ * x_9_ + 40 x_30_ * x_9_ + 80 x_44_ * x_18_ + 80 x_47_ * x_18_ - 96 x_50_ * x_18_ - 22 x_35_ * x_22_ - 76 x_35_ * x_27_ + 16 x_41_ * x_27_ - 4 x_44_ * x_35_ + 64 x_50_ * x_35_ - 52 x_47_ * x_39_ + 17 x_44_ ^ 2 + 42 x_47_ * x_44_ - 14 x_50_ ^ 2 ] = -11918
c11: -10 x_8_ + 2 x_35_ + [ 60 x_2_ * x_1_ - 86 x_31_ * x_1_ - 20 x_45_ * x_1_ - 40 x_35_ * x_2_ + 62 x_21_ * x_8_ + 20 x_27_ * x_18_ - 58 x_47_ * x_18_ + 40 x_47_ * x_21_ + 27 x_27_ ^ 2 - 88 x_35_ * x_27_ + 21 x_35_ ^ 2 - 16 x_45_ * x_35_ ] = 11449
c12: -10 x_34_ + [ 94 x_43_ * x_1_ + 50 x_27_ * x_10_ - 32 x_25_ ^ 2 + 34 x_34_ * x_25_ + 46 x_34_ * x_27_ - 28 x_43_ * x_27_ + 68 x_43_ * x_34_ ] = 412
c13: 48 x_12_ + [ -8 x_29_ * x_23_ - 84 x_43_ * x_23_ - 50 x_43_ ^ 2 ] = -5718
c14: -13 x_20_ + [ -82 x_15_ * x_3_ + 22 x_43_ * x_3_ + 58 x_27_ * x_4_ + 90 x_15_ * x_9_ - 56 x_43_ * x_9_ + 34 x_15_ * x_13_ - 72 x_20_ * x_13_ - 38 x_43_ * x_13_ - 50 x_43_ * x_20_ + 80 x_43_ * x_25_ - 29 x_43_ ^ 2 ] = -11858
c15: -35 x_7_ + 43 x_22_ + [ 76 x_7_ * x_4_ + 18 x_22_ * x_4_ + 56 x_35_ * x_4_ + 12 x_35_ * x_7_ - 76 x_26_ * x_13_ - 14 x_21_ ^ 2 - 52 x_22_ * x_21_ + 80 x_26_ * x_22_ - 82 x_42_ * x_22_ - 70 x_35_ * x_26_ - 24 x_42_ * x_26_ ] = -3916
c16: -16 x_17_ + [ -48 x_22_ * x_3_ + 9 x_17_ ^ 2 - 54 x_29_ * x_22_ + 6 x_42_ * x_22_ - 20 x_45_ * x_22_ + 74 x_43_ * x_37_ + 8 x_49_ ^ 2 ] = 1722
c17: -2 x_22_ - 31 x_26_ + [ 2 x_5_ * x_2_ - 90 x_20_ * x_2_ + 36 x_11_ * x_5_ + 70 x_14_ * x_5_ - 54 x_49_ * x_5_ + 48 x_33_ * x_6_ + 6 x_49_ * x_6_ - 32 x_26_ * x_11_ + 45 x_14_ ^ 2 + 82 x_22_ * x_14_ + 16 x_20_ ^ 2 + 98 x_26_ * x_20_ + 10 x_31_ * x_22_ - 62 x_33_ * x_31_ + 4 x_33_ ^ 2 - 82 x_49_ * x_33_ - 48 x_49_ ^ 2 ] = -3550
c18: -50 x_6_ + [ -49 x_2_ ^ 2 + 2 x_6_ ^ 2 + 94 x_21_ * x_6_ - 12 x_21_ ^ 2 - 22 x_28_ * x_21_ + 17 x_28_ ^ 2 ] = -3716
c19: [ 68 x_3_ * x_1_ + 14 x_4_ * x_3_ + 70 x_19_ * x_3_ - 38 x_28_ * x_4_ - 18 x_36_ * x_4_ - 6 x_24_ * x_19_ + 52 x_30_ * x_19_ - 16 x_24_ ^ 2 - 98 x_27_ * x_24_ + 78 x_28_ * x_27_ + 11 x_30_ ^ 2 ] = 6935
Bounds
-8 <= x_1_ <= 5
2 <= x_2_ <= 6
0 <= x_3_ <= 8
-10 <= x_4_ <= 8
7 <= x_5_ <= 9
2 <= x_6_ <= 9
1 <= x_7_ <= 10
-4 <= x_8_ <= 8
-8 <= x_9_ <= -2
-10 <= x_10_ <= 0
0 <= x_11_ <= 9
-8 <= x_12_ <= 9
-2 <= x_13_ <= 8
-9 <= x_14_ <= 5
-2 <= x_15_ <= 10
-7 <= x_16_ <= 6
9 <= x_17_ <= 10
-10 <= x_18_ <= 3
-10 <= x_19_ <= 10
-9 <= x_20_ <= -1
-10 <= x_21_ <= -3
-8 <= x_22_ <= 2
-4 <= x_23_ <= 8
-10 <= x_24_ <= 0
-7 <= x_25_ <= -3
7 <= x_26_ <= 9
-10 <= x_27_ <= 5
-9 <= x_28_ <= 2
-9 <= x_29_ <= 1
x_30_ = 7
-10 <= x_31_ <= 3
-10 <= x_32_ <= 5
-9 <= x_33_ <= -3
1 <= x_34_ <= 2
0 <= x_35_ <= 9
-8 <= x_36_ <= -2
-6 <= x_37_ <= 3
-6 <= x_38_ <= 4
3 <= x_39_ <= 7
-8 <= x_40_ <= 7
-7 <= x_41_ <= 1
8 <= x_42_ <= 9
-1 <= x_43_ <= 8
-7 <= x_44_ <= 3
-10 <= x_45_ <= 1
-8 <= x_46_ <= 10
-4 <= x_47_ <= 8
-4 <= x_48_ <= -1
-3 <= x_49_ <= 5
-10 <= x_50_ <= 1
General
x_1_
x_2_
x_3_
x_4_
x_5_
x_6_
x_7_
x_8_
x_9_
x_10_
x_11_
x_12_
x_13_
x_14_
x_15_
x_16_
x_17_
x_18_
x_19_
x_20_
x_21_
x_22_
x_23_
x_24_
x_25_
x_26_
x_27_
x_28_
x_29_
x_30_
x_31_
x_32_
x_33_
x_34_
x_35_
x_36_
x_37_
x_38_
x_39_
x_40_
x_41_
x_42_
x_43_
x_44_
x_45_
x_46_
x_47_
x_48_
x_49_
x_50_
End
