minimize
obj: 20 x_7_ - 26 x_11_ - 8 x_15_ + 50 x_20_ - 36 x_21_ - 20 x_24_ + 34 x_25_ - 38 x_29_ - 1 x_31_ + 1 x_34_ - 6 x_42_ + 36 x_49_ + 41 x_50_
subject to
quadratic_ranged_1_ub: -11 x_3_ + 15 x_16_ - 10 x_31_ + [ -70 x_21_ * x_16_ + 40 x_48_ * x_31_ - 30 x_37_ ^ 2 - 43 x_39_ ^ 2 ] <= 39
quadratic_ranged_2_ub: 17 x_30_ + [ 14 x_6_ * x_13_ - 36 x_23_ * x_14_ - 36 x_25_ * x_14_ + 56 x_25_ * x_23_ ] <= -2925
quadratic_ranged_3_ub: 3 x_4_ - 27 x_19_ + [ 74 x_44_ * x_4_ + 80 x_45_ * x_4_ + 29 x_6_ ^ 2 + 24 x_11_ * x_6_ - 54 x_44_ * x_6_ - 100 x_45_ * x_6_ + 90 x_19_ * x_11_ + 6 x_44_ * x_11_ - 82 x_45_ * x_11_ - 52 x_45_ * x_39_ + 36 x_44_ ^ 2 + 21 x_45_ ^ 2 ] <= 6547
quadratic_ranged_4_ub: -47 x_1_ - 21 x_2_ + 10 x_9_ + 1 x_16_ + 8 x_38_ - 25 x_48_ + [ -54 x_1_ * x_9_ - 46 x_28_ * x_2_ + 32 x_38_ * x_2_ + 30 x_42_ * x_2_ - 94 x_48_ * x_4_ + 30 x_28_ * x_9_ + 92 x_48_ * x_9_ + 8 x_28_ * x_16_ - 46 x_38_ * x_16_ + 56 x_42_ * x_28_ ] <= 11952
quadratic_ranged_5_ub: 38 x_13_ - 3 x_33_ + 22 x_46_ + [ -6 x_19_ * x_11_ + 98 x_24_ * x_11_ - 42 x_47_ * x_11_ + 92 x_48_ * x_11_ - 30 x_41_ * x_13_ + 80 x_30_ * x_17_ - 44 x_48_ * x_17_ + 82 x_30_ * x_19_ - 22 x_40_ * x_19_ - 96 x_40_ * x_24_ + 6 x_41_ * x_24_ - 44 x_40_ ^ 2 - 12 x_50_ * x_40_ + 38 x_41_ ^ 2 ] <= 1670
quadratic_ranged_6_ub: 44 x_1_ - 6 x_9_ - 16 x_38_ - 39 x_41_ + 41 x_48_ + [ 56 x_3_ * x_9_ - 38 x_27_ * x_3_ + 46 x_12_ * x_9_ + 40 x_38_ * x_12_ - 52 x_27_ * x_26_ + 64 x_48_ * x_26_ ] <= 3015
quadratic_ranged_7_ub: 41 x_41_ + [ -7 x_2_ ^ 2 - 50 x_5_ * x_2_ + 74 x_25_ * x_2_ + 90 x_32_ * x_2_ + 4 x_36_ * x_2_ - 4 x_40_ * x_2_ + 34 x_47_ * x_2_ - 10 x_30_ * x_3_ - 66 x_10_ * x_5_ - 26 x_46_ * x_5_ - 88 x_9_ * x_7_ - 8 x_25_ * x_7_ - 86 x_41_ * x_7_ + 56 x_46_ * x_7_ - 96 x_40_ * x_13_ - 96 x_46_ * x_13_ + 35 x_25_ ^ 2 - 4 x_47_ * x_25_ + 46 x_36_ * x_30_ - 24 x_40_ * x_30_ - 50 x_36_ ^ 2 - 74 x_46_ * x_36_ - 8 x_41_ * x_38_ + 16 x_47_ * x_40_ - 98 x_47_ * x_46_ ] <= -11589
quadratic_ranged_8_ub: 41 x_8_ - 36 x_13_ - 17 x_29_ + 31 x_43_ + [ -12 x_22_ * x_8_ + 64 x_36_ * x_8_ + 46 x_46_ * x_8_ + 1 x_13_ ^ 2 + 72 x_22_ * x_13_ + 60 x_39_ * x_13_ + 36 x_36_ * x_21_ + 74 x_43_ * x_21_ + 12 x_27_ * x_22_ - 92 x_35_ * x_27_ - 2 x_39_ * x_27_ - 26 x_50_ * x_27_ - 25 x_29_ ^ 2 + 4 x_41_ * x_29_ + 78 x_43_ * x_29_ - 82 x_46_ * x_29_ - 31 x_31_ ^ 2 - 70 x_46_ * x_31_ + 22 x_36_ * x_35_ + 64 x_41_ * x_36_ + 12 x_41_ * x_39_ + 48 x_46_ * x_43_ + 22 x_50_ * x_43_ + 22 x_50_ * x_46_ ] <= -6774
quadratic_ranged_9_ub: 28 x_16_ - 46 x_28_ + 44 x_44_ - 38 x_48_ + [ 44 x_16_ * x_5_ - 68 x_44_ * x_5_ + 88 x_13_ * x_10_ - 56 x_42_ * x_10_ + 86 x_48_ * x_10_ + 40 x_28_ * x_13_ - 64 x_42_ * x_13_ - 4 x_16_ ^ 2 + 62 x_38_ * x_16_ - 4 x_28_ * x_20_ - 54 x_38_ * x_20_ + 2 x_38_ * x_24_ - 4 x_44_ * x_24_ - 12 x_48_ * x_28_ - 28 x_38_ * x_36_ - 72 x_48_ * x_36_ + 34 x_38_ ^ 2 ] <= -9178
quadratic_ranged_10_ub: -32 x_49_ + [ -78 x_42_ * x_2_ + 1 x_4_ ^ 2 + 58 x_42_ * x_9_ - 80 x_11_ * x_10_ + 18 x_14_ * x_11_ + 44 x_14_ ^ 2 - 80 x_35_ * x_14_ + 38 x_42_ * x_14_ + 74 x_35_ * x_31_ - 18 x_44_ * x_42_ + 6 x_44_ ^ 2 ] <= 2415
quadratic_ranged_11_ub: 34 x_7_ + 34 x_39_ + [ 18 x_1_ ^ 2 - 78 x_32_ * x_1_ + 62 x_39_ * x_1_ + 82 x_28_ * x_5_ + 86 x_31_ * x_5_ - 82 x_8_ * x_7_ - 90 x_31_ * x_7_ - 26 x_10_ * x_8_ - 52 x_28_ * x_8_ + 66 x_13_ * x_10_ - 42 x_13_ ^ 2 + 36 x_28_ * x_13_ - 70 x_39_ * x_13_ + 12 x_46_ * x_13_ + 26 x_32_ * x_28_ - 34 x_31_ ^ 2 + 34 x_46_ * x_31_ + 14 x_43_ * x_39_ - 58 x_46_ * x_39_ ] <= -4351
quadratic_ranged_12_ub: -2 x_24_ + 24 x_29_ + [ -25 x_2_ ^ 2 + 56 x_8_ * x_2_ + 88 x_23_ * x_2_ + 38 x_39_ * x_2_ - 24 x_48_ * x_2_ - 39 x_8_ ^ 2 - 68 x_23_ * x_8_ + 14 x_24_ * x_8_ + 88 x_24_ * x_15_ + 10 x_29_ * x_15_ - 6 x_38_ * x_15_ - 48 x_48_ * x_15_ + 4 x_24_ * x_17_ + 88 x_29_ * x_17_ + 64 x_38_ * x_17_ - 28 x_44_ * x_17_ - 80 x_33_ * x_19_ - 76 x_38_ * x_19_ - 26 x_41_ * x_19_ + 82 x_48_ * x_19_ - 20 x_39_ * x_23_ + 19 x_24_ ^ 2 - 2 x_33_ * x_24_ + 22 x_39_ * x_24_ - 34 x_41_ * x_24_ - 96 x_43_ * x_24_ + 8 x_41_ * x_29_ - 12 x_41_ * x_33_ - 20 x_48_ * x_33_ - 52 x_43_ * x_41_ + 33 x_43_ ^ 2 + 32 x_44_ ^ 2 ] <= -146
quadratic_ranged_13_ub: 42 x_2_ + 16 x_38_ + 42 x_45_ + [ -80 x_39_ * x_2_ - 27 x_38_ ^ 2 - 40 x_43_ * x_39_ + 20 x_45_ * x_39_ - 21 x_43_ ^ 2 ] <= 1835
quadratic_ranged_14_ub: [ -28 x_1_ * x_28_ + 52 x_49_ * x_1_ - 82 x_23_ * x_7_ + 84 x_28_ * x_7_ - 44 x_47_ * x_7_ + 80 x_28_ * x_9_ - 20 x_34_ * x_9_ + 40 x_40_ * x_9_ - 86 x_23_ * x_19_ - 16 x_27_ * x_23_ + 12 x_28_ * x_23_ + 80 x_40_ * x_23_ + 52 x_45_ * x_27_ - 40 x_40_ * x_34_ + 86 x_47_ * x_40_ ] <= -17991
quadratic_ranged_15_ub: 27 x_40_ + 15 x_47_ + [ 16 x_16_ * x_1_ + 94 x_28_ * x_1_ + 32 x_36_ * x_1_ + 30 x_35_ * x_28_ + 62 x_47_ * x_28_ - 50 x_33_ ^ 2 + 38 x_47_ * x_40_ ] <= -2247
quadratic_ranged_16_ub: 29 x_24_ + 42 x_41_ + [ -28 x_2_ ^ 2 - 2 x_32_ * x_2_ - 34 x_50_ * x_2_ + 92 x_12_ * x_4_ - 80 x_15_ * x_4_ + 54 x_32_ * x_4_ - 14 x_50_ * x_4_ + 66 x_22_ * x_12_ - 16 x_33_ * x_12_ + 66 x_50_ * x_12_ - 2 x_22_ * x_14_ + 78 x_36_ * x_22_ + 38 x_44_ * x_22_ + 38 x_50_ * x_22_ + 72 x_32_ * x_24_ + 48 x_36_ * x_24_ + 45 x_27_ ^ 2 - 42 x_44_ * x_27_ - 34 x_33_ * x_32_ + 40 x_45_ * x_32_ + 20 x_45_ * x_33_ - 2 x_45_ * x_44_ - 80 x_50_ * x_45_ ] <= -12244
quadratic_ranged_17_ub: 49 x_24_ + [ 6 x_11_ ^ 2 - 70 x_26_ * x_11_ + 98 x_46_ * x_11_ + 14 x_17_ ^ 2 - 74 x_46_ * x_17_ + 90 x_50_ * x_17_ + 22 x_32_ * x_22_ + 82 x_40_ * x_24_ - 20 x_44_ * x_24_ - 40 x_26_ ^ 2 + 84 x_44_ * x_32_ + 4 x_40_ ^ 2 - 31 x_44_ ^ 2 ] <= 2850
quadratic_ranged_18_ub: -40 x_25_ - 43 x_47_ + [ 10 x_24_ * x_19_ + 44 x_29_ * x_22_ - 26 x_45_ * x_22_ - 2 x_47_ * x_22_ - 42 x_29_ * x_24_ + 50 x_29_ ^ 2 + 46 x_45_ * x_29_ - 4 x_47_ ^ 2 ] <= 1669
quadratic_ranged_19_ub: 22 x_8_ + 5 x_42_ + 8 x_50_ + [ 94 x_16_ * x_3_ + 40 x_41_ * x_3_ - 4 x_12_ * x_8_ + 30 x_41_ * x_8_ + 37 x_9_ ^ 2 + 96 x_16_ * x_9_ - 24 x_35_ * x_9_ - 58 x_41_ * x_9_ - 4 x_13_ * x_12_ - 28 x_50_ * x_12_ - 12 x_50_ * x_13_ + 72 x_20_ * x_15_ + 14 x_31_ * x_16_ - 18 x_35_ * x_16_ - 80 x_37_ * x_35_ + 74 x_42_ * x_35_ - 18 x_42_ * x_37_ ] <= 7305
quadratic_ranged_20_ub: 30 x_1_ - 1 x_47_ + [ -20 x_7_ * x_1_ - 4 x_14_ * x_1_ + 34 x_49_ * x_1_ + 31 x_2_ ^ 2 + 6 x_47_ * x_2_ - 40 x_49_ * x_2_ - 22 x_7_ ^ 2 + 8 x_15_ * x_7_ + 17 x_14_ ^ 2 + 40 x_43_ * x_14_ + 72 x_47_ * x_15_ - 96 x_49_ * x_15_ - 44 x_20_ ^ 2 + 60 x_47_ * x_20_ + 4 x_49_ * x_20_ ] <= -6061
quadratic_ranged_21_ub: -21 x_8_ - 19 x_40_ + [ 94 x_24_ * x_5_ + 58 x_47_ * x_5_ - 7 x_8_ ^ 2 + 12 x_40_ * x_8_ + 56 x_47_ * x_8_ - 6 x_34_ * x_12_ + 30 x_38_ * x_12_ + 86 x_40_ * x_12_ + 42 x_34_ * x_33_ - 8 x_36_ * x_33_ + 82 x_40_ * x_33_ + 50 x_49_ * x_34_ - 28 x_49_ * x_36_ + 40 x_38_ ^ 2 ] <= -6275
quadratic_ranged_22_ub: 39 x_10_ - 6 x_30_ - 25 x_39_ - 17 x_41_ + [ -26 x_25_ * x_9_ - 32 x_48_ * x_9_ + 14 x_19_ ^ 2 + 68 x_25_ * x_19_ + 84 x_30_ * x_25_ - 12 x_39_ * x_25_ + 72 x_48_ * x_25_ - 20 x_33_ ^ 2 - 96 x_39_ * x_33_ - 12 x_41_ * x_33_ + 40 x_41_ * x_39_ - 12 x_49_ * x_39_ - 84 x_49_ * x_41_ - 46 x_49_ * x_48_ + 25 x_49_ ^ 2 ] <= 4616
quadratic_ranged_23_ub: 24 x_6_ + 31 x_34_ + 32 x_39_ + [ 4 x_8_ * x_6_ + 88 x_17_ * x_6_ - 64 x_25_ * x_6_ - 96 x_39_ * x_6_ + 68 x_46_ * x_6_ - 12 x_26_ * x_8_ + 12 x_17_ * x_13_ - 8 x_26_ * x_13_ - 90 x_39_ * x_13_ - 92 x_26_ * x_16_ + 16 x_32_ * x_16_ - 56 x_25_ * x_17_ - 18 x_46_ * x_25_ - 42 x_26_ ^ 2 - 70 x_32_ * x_26_ + 88 x_46_ * x_32_ - 6 x_47_ * x_32_ ] <= -10261
quadratic_ranged_24_ub: [ -60 x_19_ * x_3_ - 30 x_27_ * x_3_ + 28 x_42_ * x_3_ - 72 x_42_ * x_19_ + 41 x_33_ ^ 2 ] <= -583
quadratic_ranged_25_ub: 26 x_7_ + 20 x_30_ + [ -86 x_8_ * x_1_ + 62 x_49_ * x_1_ + 66 x_10_ * x_5_ - 82 x_18_ * x_5_ - 100 x_25_ * x_5_ + 34 x_31_ * x_5_ - 94 x_41_ * x_5_ - 76 x_49_ * x_5_ - 86 x_24_ * x_7_ + 36 x_49_ * x_7_ + 86 x_10_ * x_8_ + 20 x_30_ * x_8_ + 24 x_10_ ^ 2 - 76 x_34_ * x_10_ - 94 x_49_ * x_10_ - 6 x_24_ * x_13_ + 21 x_24_ ^ 2 + 66 x_30_ * x_24_ - 88 x_34_ * x_24_ - 24 x_49_ * x_24_ - 64 x_30_ * x_25_ + 50 x_31_ * x_25_ + 88 x_31_ * x_30_ + 34 x_37_ * x_30_ - 10 x_34_ * x_31_ - 2 x_49_ * x_34_ - 70 x_41_ * x_37_ + 38 x_49_ * x_37_ ] <= -9786
quadratic_ranged_26_ub: 23 x_10_ + 16 x_19_ + 18 x_42_ + [ 28 x_36_ * x_10_ - 22 x_13_ ^ 2 - 90 x_18_ * x_13_ - 68 x_33_ * x_18_ + 76 x_33_ * x_29_ + 58 x_37_ * x_29_ - 8 x_33_ ^ 2 - 52 x_37_ * x_33_ ] <= -2100
quadratic_ranged_27_ub: -30 x_16_ - 17 x_20_ + [ 4 x_3_ ^ 2 + 22 x_15_ * x_3_ + 28 x_16_ * x_3_ - 34 x_16_ * x_11_ + 6 x_17_ * x_11_ + 50 x_19_ * x_11_ + 2 x_15_ ^ 2 + 30 x_24_ * x_15_ + 23 x_19_ ^ 2 - 32 x_24_ * x_19_ - 37 x_24_ ^ 2 + 62 x_26_ * x_24_ + 44 x_36_ ^ 2 - 34 x_41_ * x_36_ + 29 x_37_ ^ 2 ] <= 3641
quadratic_ranged_28_ub: 32 x_10_ - 38 x_24_ + 8 x_47_ + [ -86 x_10_ * x_31_ + 100 x_33_ * x_12_ - 30 x_40_ * x_12_ - 58 x_46_ * x_12_ - 98 x_31_ * x_24_ - 20 x_33_ * x_24_ - 74 x_47_ * x_24_ - 82 x_43_ * x_31_ + 86 x_37_ * x_33_ - 4 x_43_ * x_37_ + 90 x_49_ * x_40_ ] <= 8691
quadratic_ranged_29_ub: -4 x_30_ - 38 x_36_ + 49 x_46_ + [ 62 x_4_ * x_3_ - 58 x_9_ * x_3_ + 88 x_36_ * x_3_ - 16 x_45_ * x_9_ + 62 x_24_ * x_12_ + 16 x_21_ ^ 2 - 50 x_30_ * x_21_ - 8 x_36_ * x_21_ + 92 x_27_ * x_24_ + 90 x_46_ * x_24_ + 22 x_46_ * x_30_ - 50 x_46_ * x_34_ - 54 x_45_ * x_36_ + 24 x_46_ ^ 2 ] <= -6279
quadratic_ranged_30_ub: -30 x_17_ + 26 x_36_ - 44 x_40_ + [ 17 x_7_ ^ 2 - 18 x_15_ * x_8_ - 84 x_21_ * x_8_ - 52 x_15_ * x_10_ + 58 x_17_ * x_10_ - 94 x_17_ * x_13_ + 56 x_40_ * x_13_ - 84 x_21_ * x_15_ - 64 x_29_ * x_15_ - 16 x_36_ * x_15_ + 4 x_36_ * x_17_ - 10 x_40_ * x_17_ - 22 x_22_ * x_19_ + 96 x_29_ * x_21_ + 24 x_27_ * x_22_ + 50 x_27_ ^ 2 - 94 x_36_ * x_29_ - 36 x_36_ ^ 2 - 16 x_40_ * x_36_ + 37 x_40_ ^ 2 ] <= -676
quadratic_ranged_31_ub: [ 11 x_5_ ^ 2 + 74 x_7_ * x_5_ - 4 x_8_ * x_5_ - 4 x_19_ * x_5_ + 25 x_7_ ^ 2 - 44 x_8_ * x_7_ - 70 x_19_ * x_7_ - 12 x_38_ * x_7_ + 43 x_8_ ^ 2 - 54 x_27_ * x_8_ + 28 x_42_ * x_8_ + 2 x_19_ ^ 2 - 70 x_38_ * x_19_ + 32 x_42_ * x_40_ ] <= 2520
quadratic_ranged_32_ub: 30 x_8_ + 5 x_11_ + 40 x_30_ + [ 42 x_7_ * x_3_ - 100 x_11_ * x_3_ - 66 x_15_ * x_3_ + 76 x_26_ * x_3_ - 48 x_46_ * x_3_ - 6 x_48_ * x_3_ - 4 x_8_ * x_7_ + 42 x_11_ * x_7_ + 44 x_46_ * x_8_ - 52 x_13_ * x_11_ - 70 x_30_ * x_11_ - 64 x_45_ * x_11_ + 20 x_15_ * x_13_ - 50 x_45_ * x_15_ + 86 x_48_ * x_15_ + 33 x_30_ ^ 2 - 64 x_45_ * x_32_ - 42 x_46_ * x_32_ ] <= 3216
quadratic_ranged_33_ub: [ -90 x_8_ * x_1_ + 52 x_21_ * x_1_ + 56 x_26_ * x_1_ - 36 x_4_ ^ 2 - 12 x_26_ * x_4_ + 4 x_30_ * x_4_ ] <= -80
quadratic_ranged_34_ub: -2 x_8_ - 45 x_13_ - 49 x_21_ + [ -23 x_4_ ^ 2 + 64 x_13_ * x_4_ + 43 x_19_ ^ 2 - 88 x_27_ * x_19_ + 96 x_41_ * x_19_ + 11 x_21_ ^ 2 ] <= 2196
quadratic_ranged_35_ub: -45 x_3_ - 20 x_17_ - 29 x_25_ + 9 x_43_ + [ 4 x_17_ * x_3_ + 11 x_15_ ^ 2 - 40 x_32_ * x_15_ - 62 x_33_ * x_25_ - 28 x_43_ * x_25_ + 54 x_49_ * x_32_ - 58 x_43_ * x_33_ - 24 x_43_ ^ 2 - 14 x_49_ * x_43_ ] <= 1261
quadratic_ranged_36_ub: 34 x_8_ + 14 x_18_ - 47 x_30_ + 1 x_33_ + [ 24 x_10_ * x_2_ - 72 x_14_ * x_4_ - 80 x_30_ * x_4_ + 66 x_21_ * x_8_ - 50 x_20_ * x_10_ + 16 x_30_ * x_14_ - 60 x_20_ * x_18_ - 28 x_30_ * x_20_ - 5 x_30_ ^ 2 ] <= -5782
quadratic_ranged_37_ub: 5 x_30_ + [ 92 x_7_ * x_14_ - 60 x_42_ * x_7_ - 90 x_13_ * x_9_ + 82 x_17_ * x_9_ + 10 x_20_ * x_9_ - 64 x_14_ * x_13_ + 56 x_42_ * x_13_ - 12 x_19_ * x_17_ + 8 x_30_ * x_17_ + 14 x_34_ * x_20_ + 66 x_42_ * x_30_ ] <= -1325
quadratic_ranged_38_ub: 22 x_1_ + 14 x_25_ + 4 x_38_ + [ 5 x_1_ ^ 2 + 80 x_11_ * x_1_ - 80 x_38_ * x_1_ + 29 x_5_ ^ 2 - 100 x_35_ * x_5_ - 2 x_42_ * x_5_ - 31 x_11_ ^ 2 - 66 x_25_ * x_11_ + 68 x_49_ * x_25_ + 8 x_35_ * x_27_ - 46 x_49_ * x_38_ ] <= 3880
quadratic_ranged_39_ub: 32 x_14_ - 37 x_18_ - 23 x_21_ - 50 x_36_ + [ -98 x_44_ * x_14_ - 66 x_46_ * x_14_ + 6 x_40_ * x_18_ + 26 x_29_ * x_21_ - 36 x_29_ * x_26_ - 72 x_46_ * x_29_ + 3 x_31_ ^ 2 + 36 x_36_ * x_31_ - 16 x_40_ * x_31_ ] <= 3841
quadratic_ranged_40_ub: 13 x_6_ + 8 x_18_ + [ 46 x_6_ * x_1_ - 50 x_13_ * x_6_ + 94 x_26_ * x_6_ - 16 x_35_ * x_6_ - 66 x_42_ * x_6_ - 62 x_29_ * x_17_ + 12 x_18_ ^ 2 - 50 x_39_ * x_18_ - 46 x_42_ * x_18_ - 88 x_32_ * x_26_ - 16 x_35_ * x_26_ + 84 x_39_ * x_26_ + 26 x_42_ * x_26_ + 22 x_39_ * x_29_ - 54 x_42_ * x_29_ + 58 x_35_ * x_32_ - 8 x_35_ ^ 2 ] <= 399
quadratic_ranged_41_ub: [ 43 x_18_ ^ 2 + 8 x_27_ * x_18_ - 54 x_49_ * x_18_ + 46 x_50_ * x_32_ - 23 x_49_ ^ 2 ] <= 358
quadratic_ranged_42_ub: -39 x_9_ + 13 x_30_ + [ -46 x_13_ * x_3_ - 58 x_36_ * x_3_ + 100 x_16_ * x_9_ + 70 x_49_ * x_9_ - 100 x_16_ * x_13_ - 1 x_15_ ^ 2 - 16 x_49_ * x_15_ - 90 x_49_ * x_16_ + 86 x_49_ * x_22_ - 18 x_30_ ^ 2 ] <= -1293
quadratic_ranged_43_ub: -36 x_6_ - 20 x_14_ - 1 x_24_ - 19 x_46_ + [ 96 x_14_ * x_6_ - 12 x_28_ * x_6_ - 14 x_46_ * x_6_ + 39 x_41_ ^ 2 ] <= 8
quadratic_ranged_44_ub: 5 x_20_ - 24 x_21_ + [ -74 x_10_ * x_36_ + 96 x_36_ * x_20_ ] <= -2344
quadratic_ranged_45_ub: -15 x_17_ - 22 x_37_ + [ -10 x_36_ * x_4_ - 80 x_29_ * x_9_ + 78 x_37_ * x_17_ + 14 x_37_ * x_21_ - 33 x_29_ ^ 2 ] <= -1943
quadratic_ranged_46_ub: 6 x_2_ - 33 x_18_ - 14 x_24_ + 42 x_30_ - 43 x_33_ - 38 x_36_ + [ -60 x_13_ * x_2_ + 25 x_13_ ^ 2 - 42 x_33_ * x_13_ + 46 x_47_ * x_13_ + 28 x_23_ * x_18_ - 50 x_30_ * x_18_ + 68 x_41_ * x_18_ + 94 x_47_ * x_18_ + 8 x_25_ * x_23_ - 50 x_47_ * x_23_ - 56 x_49_ * x_23_ + 16 x_30_ * x_25_ + 88 x_36_ * x_25_ + 4 x_36_ * x_33_ - 50 x_47_ * x_36_ - 22 x_49_ * x_47_ ] <= -7522
quadratic_ranged_47_ub: 3 x_21_ + 24 x_37_ + [ 47 x_2_ ^ 2 + 56 x_24_ * x_14_ - 66 x_27_ * x_21_ - 68 x_46_ * x_21_ - 24 x_24_ * x_22_ + 70 x_41_ * x_24_ + 8 x_46_ * x_24_ - 90 x_37_ * x_27_ + 11 x_37_ ^ 2 ] <= 2604
quadratic_ranged_48_ub: 25 x_4_ + [ -10 x_36_ * x_4_ - 60 x_45_ * x_4_ - 4 x_48_ * x_4_ - 20 x_27_ * x_5_ - 46 x_41_ * x_27_ - 13 x_36_ ^ 2 ] <= -799
quadratic_ranged_49_ub: -29 x_50_ + [ -22 x_23_ ^ 2 - 36 x_26_ * x_23_ - 22 x_26_ * x_24_ - 62 x_34_ * x_26_ - 4 x_50_ * x_42_ ] <= -223
quadratic_ranged_50_ub: -13 x_24_ + [ 74 x_12_ * x_11_ + 2 x_22_ * x_11_ - 56 x_22_ * x_12_ - 52 x_24_ * x_12_ - 22 x_24_ * x_22_ - 80 x_45_ * x_22_ + 2 x_45_ ^ 2 ] <= 4464
quadratic_ranged_51_ub: 45 x_26_ - 22 x_45_ + [ -100 x_25_ * x_1_ - 82 x_26_ * x_1_ + 80 x_26_ * x_22_ - 19 x_24_ ^ 2 + 45 x_31_ ^ 2 + 30 x_45_ * x_31_ + 23 x_48_ ^ 2 ] <= -1930
quadratic_ranged_52_ub: 21 x_9_ + 15 x_13_ + [ -56 x_15_ * x_4_ + 34 x_29_ * x_4_ + 70 x_39_ * x_4_ - 90 x_50_ * x_4_ - 22 x_18_ * x_9_ + 80 x_39_ * x_9_ - 76 x_50_ * x_9_ + 34 x_15_ * x_13_ + 45 x_18_ ^ 2 - 2 x_50_ * x_21_ + 48 x_25_ ^ 2 - 82 x_39_ * x_25_ ] <= -2895
quadratic_ranged_53_ub: 26 x_9_ - 15 x_27_ + [ -64 x_15_ * x_9_ - 78 x_33_ * x_15_ + 88 x_49_ * x_15_ + 1 x_22_ ^ 2 - 48 x_24_ ^ 2 - 36 x_27_ * x_24_ + 54 x_29_ * x_24_ + 10 x_33_ * x_24_ - 34 x_27_ ^ 2 - 64 x_37_ * x_27_ + 24 x_49_ * x_27_ + 94 x_49_ * x_29_ - 36 x_37_ * x_33_ - 44 x_38_ * x_33_ - 4 x_37_ ^ 2 ] <= 2331
quadratic_ranged_54_ub: 23 x_38_ + [ 46 x_3_ ^ 2 + 68 x_25_ * x_3_ + 62 x_27_ * x_3_ + 27 x_25_ ^ 2 - 40 x_34_ * x_25_ + 22 x_34_ * x_27_ ] <= 1095
quadratic_ranged_1_lb: -11 x_3_ + 15 x_16_ - 10 x_31_ + [ -70 x_21_ * x_16_ + 40 x_48_ * x_31_ - 30 x_37_ ^ 2 - 43 x_39_ ^ 2 ] >= 37
quadratic_ranged_2_lb: 17 x_30_ + [ 14 x_6_ * x_13_ - 36 x_23_ * x_14_ - 36 x_25_ * x_14_ + 56 x_25_ * x_23_ ] >= -2929
quadratic_ranged_3_lb: 3 x_4_ - 27 x_19_ + [ 74 x_44_ * x_4_ + 80 x_45_ * x_4_ + 29 x_6_ ^ 2 + 24 x_11_ * x_6_ - 54 x_44_ * x_6_ - 100 x_45_ * x_6_ + 90 x_19_ * x_11_ + 6 x_44_ * x_11_ - 82 x_45_ * x_11_ - 52 x_45_ * x_39_ + 36 x_44_ ^ 2 + 21 x_45_ ^ 2 ] >= 6546
quadratic_ranged_4_lb: -47 x_1_ - 21 x_2_ + 10 x_9_ + 1 x_16_ + 8 x_38_ - 25 x_48_ + [ -54 x_1_ * x_9_ - 46 x_28_ * x_2_ + 32 x_38_ * x_2_ + 30 x_42_ * x_2_ - 94 x_48_ * x_4_ + 30 x_28_ * x_9_ + 92 x_48_ * x_9_ + 8 x_28_ * x_16_ - 46 x_38_ * x_16_ + 56 x_42_ * x_28_ ] >= 11946
quadratic_ranged_5_lb: 38 x_13_ - 3 x_33_ + 22 x_46_ + [ -6 x_19_ * x_11_ + 98 x_24_ * x_11_ - 42 x_47_ * x_11_ + 92 x_48_ * x_11_ - 30 x_41_ * x_13_ + 80 x_30_ * x_17_ - 44 x_48_ * x_17_ + 82 x_30_ * x_19_ - 22 x_40_ * x_19_ - 96 x_40_ * x_24_ + 6 x_41_ * x_24_ - 44 x_40_ ^ 2 - 12 x_50_ * x_40_ + 38 x_41_ ^ 2 ] >= 1665
quadratic_ranged_6_lb: 44 x_1_ - 6 x_9_ - 16 x_38_ - 39 x_41_ + 41 x_48_ + [ 56 x_3_ * x_9_ - 38 x_27_ * x_3_ + 46 x_12_ * x_9_ + 40 x_38_ * x_12_ - 52 x_27_ * x_26_ + 64 x_48_ * x_26_ ] >= 3011
quadratic_ranged_7_lb: 41 x_41_ + [ -7 x_2_ ^ 2 - 50 x_5_ * x_2_ + 74 x_25_ * x_2_ + 90 x_32_ * x_2_ + 4 x_36_ * x_2_ - 4 x_40_ * x_2_ + 34 x_47_ * x_2_ - 10 x_30_ * x_3_ - 66 x_10_ * x_5_ - 26 x_46_ * x_5_ - 88 x_9_ * x_7_ - 8 x_25_ * x_7_ - 86 x_41_ * x_7_ + 56 x_46_ * x_7_ - 96 x_40_ * x_13_ - 96 x_46_ * x_13_ + 35 x_25_ ^ 2 - 4 x_47_ * x_25_ + 46 x_36_ * x_30_ - 24 x_40_ * x_30_ - 50 x_36_ ^ 2 - 74 x_46_ * x_36_ - 8 x_41_ * x_38_ + 16 x_47_ * x_40_ - 98 x_47_ * x_46_ ] >= -11599
quadratic_ranged_8_lb: 41 x_8_ - 36 x_13_ - 17 x_29_ + 31 x_43_ + [ -12 x_22_ * x_8_ + 64 x_36_ * x_8_ + 46 x_46_ * x_8_ + 1 x_13_ ^ 2 + 72 x_22_ * x_13_ + 60 x_39_ * x_13_ + 36 x_36_ * x_21_ + 74 x_43_ * x_21_ + 12 x_27_ * x_22_ - 92 x_35_ * x_27_ - 2 x_39_ * x_27_ - 26 x_50_ * x_27_ - 25 x_29_ ^ 2 + 4 x_41_ * x_29_ + 78 x_43_ * x_29_ - 82 x_46_ * x_29_ - 31 x_31_ ^ 2 - 70 x_46_ * x_31_ + 22 x_36_ * x_35_ + 64 x_41_ * x_36_ + 12 x_41_ * x_39_ + 48 x_46_ * x_43_ + 22 x_50_ * x_43_ + 22 x_50_ * x_46_ ] >= -6779
quadratic_ranged_9_lb: 28 x_16_ - 46 x_28_ + 44 x_44_ - 38 x_48_ + [ 44 x_16_ * x_5_ - 68 x_44_ * x_5_ + 88 x_13_ * x_10_ - 56 x_42_ * x_10_ + 86 x_48_ * x_10_ + 40 x_28_ * x_13_ - 64 x_42_ * x_13_ - 4 x_16_ ^ 2 + 62 x_38_ * x_16_ - 4 x_28_ * x_20_ - 54 x_38_ * x_20_ + 2 x_38_ * x_24_ - 4 x_44_ * x_24_ - 12 x_48_ * x_28_ - 28 x_38_ * x_36_ - 72 x_48_ * x_36_ + 34 x_38_ ^ 2 ] >= -9185
quadratic_ranged_10_lb: -32 x_49_ + [ -78 x_42_ * x_2_ + 1 x_4_ ^ 2 + 58 x_42_ * x_9_ - 80 x_11_ * x_10_ + 18 x_14_ * x_11_ + 44 x_14_ ^ 2 - 80 x_35_ * x_14_ + 38 x_42_ * x_14_ + 74 x_35_ * x_31_ - 18 x_44_ * x_42_ + 6 x_44_ ^ 2 ] >= 2413
quadratic_ranged_11_lb: 34 x_7_ + 34 x_39_ + [ 18 x_1_ ^ 2 - 78 x_32_ * x_1_ + 62 x_39_ * x_1_ + 82 x_28_ * x_5_ + 86 x_31_ * x_5_ - 82 x_8_ * x_7_ - 90 x_31_ * x_7_ - 26 x_10_ * x_8_ - 52 x_28_ * x_8_ + 66 x_13_ * x_10_ - 42 x_13_ ^ 2 + 36 x_28_ * x_13_ - 70 x_39_ * x_13_ + 12 x_46_ * x_13_ + 26 x_32_ * x_28_ - 34 x_31_ ^ 2 + 34 x_46_ * x_31_ + 14 x_43_ * x_39_ - 58 x_46_ * x_39_ ] >= -4352
quadratic_ranged_12_lb: -2 x_24_ + 24 x_29_ + [ -25 x_2_ ^ 2 + 56 x_8_ * x_2_ + 88 x_23_ * x_2_ + 38 x_39_ * x_2_ - 24 x_48_ * x_2_ - 39 x_8_ ^ 2 - 68 x_23_ * x_8_ + 14 x_24_ * x_8_ + 88 x_24_ * x_15_ + 10 x_29_ * x_15_ - 6 x_38_ * x_15_ - 48 x_48_ * x_15_ + 4 x_24_ * x_17_ + 88 x_29_ * x_17_ + 64 x_38_ * x_17_ - 28 x_44_ * x_17_ - 80 x_33_ * x_19_ - 76 x_38_ * x_19_ - 26 x_41_ * x_19_ + 82 x_48_ * x_19_ - 20 x_39_ * x_23_ + 19 x_24_ ^ 2 - 2 x_33_ * x_24_ + 22 x_39_ * x_24_ - 34 x_41_ * x_24_ - 96 x_43_ * x_24_ + 8 x_41_ * x_29_ - 12 x_41_ * x_33_ - 20 x_48_ * x_33_ - 52 x_43_ * x_41_ + 33 x_43_ ^ 2 + 32 x_44_ ^ 2 ] >= -153
quadratic_ranged_13_lb: 42 x_2_ + 16 x_38_ + 42 x_45_ + [ -80 x_39_ * x_2_ - 27 x_38_ ^ 2 - 40 x_43_ * x_39_ + 20 x_45_ * x_39_ - 21 x_43_ ^ 2 ] >= 1831
quadratic_ranged_14_lb: [ -28 x_1_ * x_28_ + 52 x_49_ * x_1_ - 82 x_23_ * x_7_ + 84 x_28_ * x_7_ - 44 x_47_ * x_7_ + 80 x_28_ * x_9_ - 20 x_34_ * x_9_ + 40 x_40_ * x_9_ - 86 x_23_ * x_19_ - 16 x_27_ * x_23_ + 12 x_28_ * x_23_ + 80 x_40_ * x_23_ + 52 x_45_ * x_27_ - 40 x_40_ * x_34_ + 86 x_47_ * x_40_ ] >= -17997
quadratic_ranged_15_lb: 27 x_40_ + 15 x_47_ + [ 16 x_16_ * x_1_ + 94 x_28_ * x_1_ + 32 x_36_ * x_1_ + 30 x_35_ * x_28_ + 62 x_47_ * x_28_ - 50 x_33_ ^ 2 + 38 x_47_ * x_40_ ] >= -2254
quadratic_ranged_16_lb: 29 x_24_ + 42 x_41_ + [ -28 x_2_ ^ 2 - 2 x_32_ * x_2_ - 34 x_50_ * x_2_ + 92 x_12_ * x_4_ - 80 x_15_ * x_4_ + 54 x_32_ * x_4_ - 14 x_50_ * x_4_ + 66 x_22_ * x_12_ - 16 x_33_ * x_12_ + 66 x_50_ * x_12_ - 2 x_22_ * x_14_ + 78 x_36_ * x_22_ + 38 x_44_ * x_22_ + 38 x_50_ * x_22_ + 72 x_32_ * x_24_ + 48 x_36_ * x_24_ + 45 x_27_ ^ 2 - 42 x_44_ * x_27_ - 34 x_33_ * x_32_ + 40 x_45_ * x_32_ + 20 x_45_ * x_33_ - 2 x_45_ * x_44_ - 80 x_50_ * x_45_ ] >= -12247
quadratic_ranged_17_lb: 49 x_24_ + [ 6 x_11_ ^ 2 - 70 x_26_ * x_11_ + 98 x_46_ * x_11_ + 14 x_17_ ^ 2 - 74 x_46_ * x_17_ + 90 x_50_ * x_17_ + 22 x_32_ * x_22_ + 82 x_40_ * x_24_ - 20 x_44_ * x_24_ - 40 x_26_ ^ 2 + 84 x_44_ * x_32_ + 4 x_40_ ^ 2 - 31 x_44_ ^ 2 ] >= 2848
quadratic_ranged_18_lb: -40 x_25_ - 43 x_47_ + [ 10 x_24_ * x_19_ + 44 x_29_ * x_22_ - 26 x_45_ * x_22_ - 2 x_47_ * x_22_ - 42 x_29_ * x_24_ + 50 x_29_ ^ 2 + 46 x_45_ * x_29_ - 4 x_47_ ^ 2 ] >= 1667
quadratic_ranged_19_lb: 22 x_8_ + 5 x_42_ + 8 x_50_ + [ 94 x_16_ * x_3_ + 40 x_41_ * x_3_ - 4 x_12_ * x_8_ + 30 x_41_ * x_8_ + 37 x_9_ ^ 2 + 96 x_16_ * x_9_ - 24 x_35_ * x_9_ - 58 x_41_ * x_9_ - 4 x_13_ * x_12_ - 28 x_50_ * x_12_ - 12 x_50_ * x_13_ + 72 x_20_ * x_15_ + 14 x_31_ * x_16_ - 18 x_35_ * x_16_ - 80 x_37_ * x_35_ + 74 x_42_ * x_35_ - 18 x_42_ * x_37_ ] >= 7299
quadratic_ranged_20_lb: 30 x_1_ - 1 x_47_ + [ -20 x_7_ * x_1_ - 4 x_14_ * x_1_ + 34 x_49_ * x_1_ + 31 x_2_ ^ 2 + 6 x_47_ * x_2_ - 40 x_49_ * x_2_ - 22 x_7_ ^ 2 + 8 x_15_ * x_7_ + 17 x_14_ ^ 2 + 40 x_43_ * x_14_ + 72 x_47_ * x_15_ - 96 x_49_ * x_15_ - 44 x_20_ ^ 2 + 60 x_47_ * x_20_ + 4 x_49_ * x_20_ ] >= -6069
quadratic_ranged_21_lb: -21 x_8_ - 19 x_40_ + [ 94 x_24_ * x_5_ + 58 x_47_ * x_5_ - 7 x_8_ ^ 2 + 12 x_40_ * x_8_ + 56 x_47_ * x_8_ - 6 x_34_ * x_12_ + 30 x_38_ * x_12_ + 86 x_40_ * x_12_ + 42 x_34_ * x_33_ - 8 x_36_ * x_33_ + 82 x_40_ * x_33_ + 50 x_49_ * x_34_ - 28 x_49_ * x_36_ + 40 x_38_ ^ 2 ] >= -6276
quadratic_ranged_22_lb: 39 x_10_ - 6 x_30_ - 25 x_39_ - 17 x_41_ + [ -26 x_25_ * x_9_ - 32 x_48_ * x_9_ + 14 x_19_ ^ 2 + 68 x_25_ * x_19_ + 84 x_30_ * x_25_ - 12 x_39_ * x_25_ + 72 x_48_ * x_25_ - 20 x_33_ ^ 2 - 96 x_39_ * x_33_ - 12 x_41_ * x_33_ + 40 x_41_ * x_39_ - 12 x_49_ * x_39_ - 84 x_49_ * x_41_ - 46 x_49_ * x_48_ + 25 x_49_ ^ 2 ] >= 4609
quadratic_ranged_23_lb: 24 x_6_ + 31 x_34_ + 32 x_39_ + [ 4 x_8_ * x_6_ + 88 x_17_ * x_6_ - 64 x_25_ * x_6_ - 96 x_39_ * x_6_ + 68 x_46_ * x_6_ - 12 x_26_ * x_8_ + 12 x_17_ * x_13_ - 8 x_26_ * x_13_ - 90 x_39_ * x_13_ - 92 x_26_ * x_16_ + 16 x_32_ * x_16_ - 56 x_25_ * x_17_ - 18 x_46_ * x_25_ - 42 x_26_ ^ 2 - 70 x_32_ * x_26_ + 88 x_46_ * x_32_ - 6 x_47_ * x_32_ ] >= -10268
quadratic_ranged_24_lb: [ -60 x_19_ * x_3_ - 30 x_27_ * x_3_ + 28 x_42_ * x_3_ - 72 x_42_ * x_19_ + 41 x_33_ ^ 2 ] >= -587
quadratic_ranged_25_lb: 26 x_7_ + 20 x_30_ + [ -86 x_8_ * x_1_ + 62 x_49_ * x_1_ + 66 x_10_ * x_5_ - 82 x_18_ * x_5_ - 100 x_25_ * x_5_ + 34 x_31_ * x_5_ - 94 x_41_ * x_5_ - 76 x_49_ * x_5_ - 86 x_24_ * x_7_ + 36 x_49_ * x_7_ + 86 x_10_ * x_8_ + 20 x_30_ * x_8_ + 24 x_10_ ^ 2 - 76 x_34_ * x_10_ - 94 x_49_ * x_10_ - 6 x_24_ * x_13_ + 21 x_24_ ^ 2 + 66 x_30_ * x_24_ - 88 x_34_ * x_24_ - 24 x_49_ * x_24_ - 64 x_30_ * x_25_ + 50 x_31_ * x_25_ + 88 x_31_ * x_30_ + 34 x_37_ * x_30_ - 10 x_34_ * x_31_ - 2 x_49_ * x_34_ - 70 x_41_ * x_37_ + 38 x_49_ * x_37_ ] >= -9789
quadratic_ranged_26_lb: 23 x_10_ + 16 x_19_ + 18 x_42_ + [ 28 x_36_ * x_10_ - 22 x_13_ ^ 2 - 90 x_18_ * x_13_ - 68 x_33_ * x_18_ + 76 x_33_ * x_29_ + 58 x_37_ * x_29_ - 8 x_33_ ^ 2 - 52 x_37_ * x_33_ ] >= -2108
quadratic_ranged_27_lb: -30 x_16_ - 17 x_20_ + [ 4 x_3_ ^ 2 + 22 x_15_ * x_3_ + 28 x_16_ * x_3_ - 34 x_16_ * x_11_ + 6 x_17_ * x_11_ + 50 x_19_ * x_11_ + 2 x_15_ ^ 2 + 30 x_24_ * x_15_ + 23 x_19_ ^ 2 - 32 x_24_ * x_19_ - 37 x_24_ ^ 2 + 62 x_26_ * x_24_ + 44 x_36_ ^ 2 - 34 x_41_ * x_36_ + 29 x_37_ ^ 2 ] >= 3634
quadratic_ranged_28_lb: 32 x_10_ - 38 x_24_ + 8 x_47_ + [ -86 x_10_ * x_31_ + 100 x_33_ * x_12_ - 30 x_40_ * x_12_ - 58 x_46_ * x_12_ - 98 x_31_ * x_24_ - 20 x_33_ * x_24_ - 74 x_47_ * x_24_ - 82 x_43_ * x_31_ + 86 x_37_ * x_33_ - 4 x_43_ * x_37_ + 90 x_49_ * x_40_ ] >= 8685
quadratic_ranged_29_lb: -4 x_30_ - 38 x_36_ + 49 x_46_ + [ 62 x_4_ * x_3_ - 58 x_9_ * x_3_ + 88 x_36_ * x_3_ - 16 x_45_ * x_9_ + 62 x_24_ * x_12_ + 16 x_21_ ^ 2 - 50 x_30_ * x_21_ - 8 x_36_ * x_21_ + 92 x_27_ * x_24_ + 90 x_46_ * x_24_ + 22 x_46_ * x_30_ - 50 x_46_ * x_34_ - 54 x_45_ * x_36_ + 24 x_46_ ^ 2 ] >= -6285
quadratic_ranged_30_lb: -30 x_17_ + 26 x_36_ - 44 x_40_ + [ 17 x_7_ ^ 2 - 18 x_15_ * x_8_ - 84 x_21_ * x_8_ - 52 x_15_ * x_10_ + 58 x_17_ * x_10_ - 94 x_17_ * x_13_ + 56 x_40_ * x_13_ - 84 x_21_ * x_15_ - 64 x_29_ * x_15_ - 16 x_36_ * x_15_ + 4 x_36_ * x_17_ - 10 x_40_ * x_17_ - 22 x_22_ * x_19_ + 96 x_29_ * x_21_ + 24 x_27_ * x_22_ + 50 x_27_ ^ 2 - 94 x_36_ * x_29_ - 36 x_36_ ^ 2 - 16 x_40_ * x_36_ + 37 x_40_ ^ 2 ] >= -682
quadratic_ranged_31_lb: [ 11 x_5_ ^ 2 + 74 x_7_ * x_5_ - 4 x_8_ * x_5_ - 4 x_19_ * x_5_ + 25 x_7_ ^ 2 - 44 x_8_ * x_7_ - 70 x_19_ * x_7_ - 12 x_38_ * x_7_ + 43 x_8_ ^ 2 - 54 x_27_ * x_8_ + 28 x_42_ * x_8_ + 2 x_19_ ^ 2 - 70 x_38_ * x_19_ + 32 x_42_ * x_40_ ] >= 2515
quadratic_ranged_32_lb: 30 x_8_ + 5 x_11_ + 40 x_30_ + [ 42 x_7_ * x_3_ - 100 x_11_ * x_3_ - 66 x_15_ * x_3_ + 76 x_26_ * x_3_ - 48 x_46_ * x_3_ - 6 x_48_ * x_3_ - 4 x_8_ * x_7_ + 42 x_11_ * x_7_ + 44 x_46_ * x_8_ - 52 x_13_ * x_11_ - 70 x_30_ * x_11_ - 64 x_45_ * x_11_ + 20 x_15_ * x_13_ - 50 x_45_ * x_15_ + 86 x_48_ * x_15_ + 33 x_30_ ^ 2 - 64 x_45_ * x_32_ - 42 x_46_ * x_32_ ] >= 3211
quadratic_ranged_33_lb: [ -90 x_8_ * x_1_ + 52 x_21_ * x_1_ + 56 x_26_ * x_1_ - 36 x_4_ ^ 2 - 12 x_26_ * x_4_ + 4 x_30_ * x_4_ ] >= -87
quadratic_ranged_34_lb: -2 x_8_ - 45 x_13_ - 49 x_21_ + [ -23 x_4_ ^ 2 + 64 x_13_ * x_4_ + 43 x_19_ ^ 2 - 88 x_27_ * x_19_ + 96 x_41_ * x_19_ + 11 x_21_ ^ 2 ] >= 2187
quadratic_ranged_35_lb: -45 x_3_ - 20 x_17_ - 29 x_25_ + 9 x_43_ + [ 4 x_17_ * x_3_ + 11 x_15_ ^ 2 - 40 x_32_ * x_15_ - 62 x_33_ * x_25_ - 28 x_43_ * x_25_ + 54 x_49_ * x_32_ - 58 x_43_ * x_33_ - 24 x_43_ ^ 2 - 14 x_49_ * x_43_ ] >= 1258
quadratic_ranged_36_lb: 34 x_8_ + 14 x_18_ - 47 x_30_ + 1 x_33_ + [ 24 x_10_ * x_2_ - 72 x_14_ * x_4_ - 80 x_30_ * x_4_ + 66 x_21_ * x_8_ - 50 x_20_ * x_10_ + 16 x_30_ * x_14_ - 60 x_20_ * x_18_ - 28 x_30_ * x_20_ - 5 x_30_ ^ 2 ] >= -5783
quadratic_ranged_37_lb: 5 x_30_ + [ 92 x_7_ * x_14_ - 60 x_42_ * x_7_ - 90 x_13_ * x_9_ + 82 x_17_ * x_9_ + 10 x_20_ * x_9_ - 64 x_14_ * x_13_ + 56 x_42_ * x_13_ - 12 x_19_ * x_17_ + 8 x_30_ * x_17_ + 14 x_34_ * x_20_ + 66 x_42_ * x_30_ ] >= -1328
quadratic_ranged_38_lb: 22 x_1_ + 14 x_25_ + 4 x_38_ + [ 5 x_1_ ^ 2 + 80 x_11_ * x_1_ - 80 x_38_ * x_1_ + 29 x_5_ ^ 2 - 100 x_35_ * x_5_ - 2 x_42_ * x_5_ - 31 x_11_ ^ 2 - 66 x_25_ * x_11_ + 68 x_49_ * x_25_ + 8 x_35_ * x_27_ - 46 x_49_ * x_38_ ] >= 3875
quadratic_ranged_39_lb: 32 x_14_ - 37 x_18_ - 23 x_21_ - 50 x_36_ + [ -98 x_44_ * x_14_ - 66 x_46_ * x_14_ + 6 x_40_ * x_18_ + 26 x_29_ * x_21_ - 36 x_29_ * x_26_ - 72 x_46_ * x_29_ + 3 x_31_ ^ 2 + 36 x_36_ * x_31_ - 16 x_40_ * x_31_ ] >= 3834
quadratic_ranged_40_lb: 13 x_6_ + 8 x_18_ + [ 46 x_6_ * x_1_ - 50 x_13_ * x_6_ + 94 x_26_ * x_6_ - 16 x_35_ * x_6_ - 66 x_42_ * x_6_ - 62 x_29_ * x_17_ + 12 x_18_ ^ 2 - 50 x_39_ * x_18_ - 46 x_42_ * x_18_ - 88 x_32_ * x_26_ - 16 x_35_ * x_26_ + 84 x_39_ * x_26_ + 26 x_42_ * x_26_ + 22 x_39_ * x_29_ - 54 x_42_ * x_29_ + 58 x_35_ * x_32_ - 8 x_35_ ^ 2 ] >= 391
quadratic_ranged_41_lb: [ 43 x_18_ ^ 2 + 8 x_27_ * x_18_ - 54 x_49_ * x_18_ + 46 x_50_ * x_32_ - 23 x_49_ ^ 2 ] >= 354
quadratic_ranged_42_lb: -39 x_9_ + 13 x_30_ + [ -46 x_13_ * x_3_ - 58 x_36_ * x_3_ + 100 x_16_ * x_9_ + 70 x_49_ * x_9_ - 100 x_16_ * x_13_ - 1 x_15_ ^ 2 - 16 x_49_ * x_15_ - 90 x_49_ * x_16_ + 86 x_49_ * x_22_ - 18 x_30_ ^ 2 ] >= -1301
quadratic_ranged_43_lb: -36 x_6_ - 20 x_14_ - 1 x_24_ - 19 x_46_ + [ 96 x_14_ * x_6_ - 12 x_28_ * x_6_ - 14 x_46_ * x_6_ + 39 x_41_ ^ 2 ] >= 2
quadratic_ranged_44_lb: 5 x_20_ - 24 x_21_ + [ -74 x_10_ * x_36_ + 96 x_36_ * x_20_ ] >= -2350
quadratic_ranged_45_lb: -15 x_17_ - 22 x_37_ + [ -10 x_36_ * x_4_ - 80 x_29_ * x_9_ + 78 x_37_ * x_17_ + 14 x_37_ * x_21_ - 33 x_29_ ^ 2 ] >= -1944
quadratic_ranged_46_lb: 6 x_2_ - 33 x_18_ - 14 x_24_ + 42 x_30_ - 43 x_33_ - 38 x_36_ + [ -60 x_13_ * x_2_ + 25 x_13_ ^ 2 - 42 x_33_ * x_13_ + 46 x_47_ * x_13_ + 28 x_23_ * x_18_ - 50 x_30_ * x_18_ + 68 x_41_ * x_18_ + 94 x_47_ * x_18_ + 8 x_25_ * x_23_ - 50 x_47_ * x_23_ - 56 x_49_ * x_23_ + 16 x_30_ * x_25_ + 88 x_36_ * x_25_ + 4 x_36_ * x_33_ - 50 x_47_ * x_36_ - 22 x_49_ * x_47_ ] >= -7525
quadratic_ranged_47_lb: 3 x_21_ + 24 x_37_ + [ 47 x_2_ ^ 2 + 56 x_24_ * x_14_ - 66 x_27_ * x_21_ - 68 x_46_ * x_21_ - 24 x_24_ * x_22_ + 70 x_41_ * x_24_ + 8 x_46_ * x_24_ - 90 x_37_ * x_27_ + 11 x_37_ ^ 2 ] >= 2597
quadratic_ranged_48_lb: 25 x_4_ + [ -10 x_36_ * x_4_ - 60 x_45_ * x_4_ - 4 x_48_ * x_4_ - 20 x_27_ * x_5_ - 46 x_41_ * x_27_ - 13 x_36_ ^ 2 ] >= -803
quadratic_ranged_49_lb: -29 x_50_ + [ -22 x_23_ ^ 2 - 36 x_26_ * x_23_ - 22 x_26_ * x_24_ - 62 x_34_ * x_26_ - 4 x_50_ * x_42_ ] >= -228
quadratic_ranged_50_lb: -13 x_24_ + [ 74 x_12_ * x_11_ + 2 x_22_ * x_11_ - 56 x_22_ * x_12_ - 52 x_24_ * x_12_ - 22 x_24_ * x_22_ - 80 x_45_ * x_22_ + 2 x_45_ ^ 2 ] >= 4456
quadratic_ranged_51_lb: 45 x_26_ - 22 x_45_ + [ -100 x_25_ * x_1_ - 82 x_26_ * x_1_ + 80 x_26_ * x_22_ - 19 x_24_ ^ 2 + 45 x_31_ ^ 2 + 30 x_45_ * x_31_ + 23 x_48_ ^ 2 ] >= -1932
quadratic_ranged_52_lb: 21 x_9_ + 15 x_13_ + [ -56 x_15_ * x_4_ + 34 x_29_ * x_4_ + 70 x_39_ * x_4_ - 90 x_50_ * x_4_ - 22 x_18_ * x_9_ + 80 x_39_ * x_9_ - 76 x_50_ * x_9_ + 34 x_15_ * x_13_ + 45 x_18_ ^ 2 - 2 x_50_ * x_21_ + 48 x_25_ ^ 2 - 82 x_39_ * x_25_ ] >= -2896
quadratic_ranged_53_lb: 26 x_9_ - 15 x_27_ + [ -64 x_15_ * x_9_ - 78 x_33_ * x_15_ + 88 x_49_ * x_15_ + 1 x_22_ ^ 2 - 48 x_24_ ^ 2 - 36 x_27_ * x_24_ + 54 x_29_ * x_24_ + 10 x_33_ * x_24_ - 34 x_27_ ^ 2 - 64 x_37_ * x_27_ + 24 x_49_ * x_27_ + 94 x_49_ * x_29_ - 36 x_37_ * x_33_ - 44 x_38_ * x_33_ - 4 x_37_ ^ 2 ] >= 2330
quadratic_ranged_54_lb: 23 x_38_ + [ 46 x_3_ ^ 2 + 68 x_25_ * x_3_ + 62 x_27_ * x_3_ + 27 x_25_ ^ 2 - 40 x_34_ * x_25_ + 22 x_34_ * x_27_ ] >= 1089
c1: -50 x_37_ + [ -72 x_3_ * x_32_ + 98 x_39_ * x_3_ - 94 x_42_ * x_26_ + 12 x_46_ * x_26_ + 98 x_32_ * x_30_ + 88 x_42_ * x_30_ + 86 x_40_ * x_31_ + 14 x_39_ * x_32_ - 72 x_40_ * x_32_ - 62 x_46_ * x_37_ - 50 x_46_ * x_40_ - 56 x_49_ * x_46_ ] = -5564
c2: -17 x_19_ + [ -18 x_4_ ^ 2 - 46 x_5_ * x_4_ - 10 x_18_ * x_4_ - 80 x_19_ * x_4_ + 4 x_18_ * x_5_ - 86 x_44_ * x_5_ - 66 x_26_ * x_10_ - 36 x_43_ * x_10_ - 32 x_18_ ^ 2 + 70 x_27_ * x_18_ + 50 x_28_ * x_18_ - 72 x_20_ * x_19_ - 38 x_26_ * x_19_ + 6 x_31_ * x_19_ - 34 x_47_ * x_19_ - 10 x_26_ * x_20_ + 94 x_28_ * x_20_ + 12 x_43_ * x_20_ - 31 x_26_ ^ 2 - 46 x_27_ * x_26_ + 10 x_47_ * x_26_ + 66 x_29_ * x_27_ + 2 x_31_ * x_27_ - 88 x_43_ * x_27_ - 68 x_47_ * x_27_ + 18 x_28_ ^ 2 - 4 x_43_ * x_28_ - 54 x_44_ * x_28_ - 10 x_44_ * x_31_ - 74 x_47_ * x_41_ - 10 x_47_ ^ 2 ] = -11130
c3: [ 22 x_12_ * x_3_ + 50 x_30_ * x_3_ - 28 x_16_ * x_11_ + 84 x_41_ * x_11_ - 32 x_44_ * x_11_ + 54 x_49_ * x_12_ - 10 x_31_ * x_16_ - 80 x_50_ * x_16_ + 5 x_24_ ^ 2 - 46 x_30_ * x_24_ - 20 x_31_ * x_24_ + 36 x_38_ * x_24_ - 4 x_44_ * x_24_ + 78 x_50_ * x_24_ - 31 x_29_ ^ 2 + 40 x_45_ * x_29_ + 4 x_30_ ^ 2 - 44 x_49_ * x_30_ - 60 x_38_ * x_31_ - 54 x_50_ * x_38_ + 52 x_49_ * x_45_ ] = -1343
c4: -1 x_43_ + [ 29 x_1_ ^ 2 + 50 x_43_ * x_1_ + 90 x_8_ * x_6_ + 68 x_19_ * x_6_ - 66 x_26_ * x_6_ + 28 x_19_ * x_13_ - 16 x_21_ * x_19_ - 92 x_43_ * x_19_ - 42 x_43_ ^ 2 ] = 5447
c5: [ 92 x_26_ * x_2_ + 64 x_41_ * x_2_ + 58 x_11_ * x_10_ - 80 x_15_ * x_10_ - 42 x_26_ * x_10_ - 74 x_35_ * x_10_ - 18 x_11_ ^ 2 + 34 x_41_ * x_11_ + 42 x_26_ * x_15_ + 58 x_35_ * x_15_ + 17 x_18_ ^ 2 - 96 x_26_ * x_18_ - 86 x_41_ * x_18_ - 30 x_20_ ^ 2 - 72 x_41_ * x_20_ + 48 x_26_ ^ 2 ] = -18313
c6: -27 x_10_ - 19 x_30_ + 3 x_46_ + [ -14 x_10_ * x_12_ + 72 x_21_ * x_10_ + 32 x_42_ * x_10_ + 6 x_16_ * x_13_ + 16 x_46_ * x_13_ + 40 x_21_ * x_16_ + 60 x_30_ * x_16_ + 44 x_30_ * x_21_ - 52 x_46_ * x_21_ - 46 x_46_ * x_42_ ] = 7112
c7: 16 x_10_ - 42 x_35_ + 33 x_46_ - 12 x_47_ + [ -48 x_10_ * x_2_ - 2 x_47_ * x_2_ - 58 x_10_ * x_8_ - 96 x_15_ * x_8_ + 52 x_43_ * x_8_ - 18 x_47_ * x_8_ - 12 x_10_ ^ 2 - 50 x_26_ * x_10_ + 80 x_36_ * x_10_ + 94 x_46_ * x_10_ + 74 x_33_ * x_15_ - 20 x_35_ * x_15_ + 60 x_46_ * x_15_ + 50 x_35_ * x_26_ - 10 x_43_ * x_26_ + 88 x_38_ * x_28_ + 80 x_38_ * x_33_ - 52 x_47_ * x_33_ + 28 x_38_ * x_35_ + 96 x_46_ * x_35_ - 80 x_43_ * x_36_ - 50 x_46_ * x_36_ + 28 x_37_ ^ 2 ] = -13556
c8: -23 x_8_ - 24 x_22_ + 19 x_38_ + 15 x_50_ + [ 12 x_8_ ^ 2 + 56 x_17_ * x_8_ + 70 x_38_ * x_8_ - 18 x_45_ * x_8_ + 16 x_22_ * x_16_ - 72 x_33_ * x_17_ + 30 x_38_ * x_17_ + 56 x_40_ * x_22_ - 36 x_45_ * x_22_ - 44 x_35_ * x_28_ - 16 x_35_ * x_29_ + 100 x_50_ * x_29_ + 38 x_35_ ^ 2 + 58 x_38_ * x_35_ - 100 x_50_ * x_38_ - 46 x_50_ * x_40_ ] = 7747
c9: [ -66 x_1_ * x_14_ ] = 1782
c10: -38 x_7_ - 41 x_14_ + 4 x_45_ + [ -68 x_3_ * x_15_ - 6 x_17_ * x_3_ - 26 x_31_ * x_3_ - 80 x_17_ * x_4_ + 62 x_32_ * x_5_ - 42 x_29_ * x_7_ - 84 x_32_ * x_7_ + 20 x_45_ * x_7_ + 60 x_45_ * x_14_ - 4 x_45_ * x_15_ + 12 x_49_ * x_15_ + 54 x_46_ * x_29_ + 30 x_49_ * x_29_ - 20 x_33_ * x_31_ + 2 x_45_ * x_31_ - 8 x_49_ * x_46_ ] = 2793
c11: 15 x_3_ + [ -68 x_32_ * x_3_ + 88 x_45_ * x_3_ - 36 x_50_ * x_3_ + 92 x_6_ * x_4_ + 90 x_10_ * x_4_ + 70 x_32_ * x_4_ + 40 x_13_ * x_6_ - 68 x_13_ * x_10_ + 22 x_24_ * x_13_ + 10 x_32_ * x_13_ + 28 x_45_ * x_13_ - 56 x_37_ * x_14_ + 66 x_50_ * x_14_ - 20 x_17_ ^ 2 - 22 x_45_ * x_24_ - 42 x_47_ * x_24_ + 20 x_50_ * x_32_ + 42 x_47_ ^ 2 ] = 6127
c12: [ -92 x_3_ * x_17_ + 44 x_47_ * x_3_ ] = 1096
c13: 47 x_5_ - 15 x_31_ + [ -44 x_5_ * x_6_ + 46 x_23_ * x_6_ + 40 x_31_ * x_6_ - 10 x_23_ * x_16_ - 12 x_31_ * x_23_ - 88 x_31_ * x_30_ ] = -6720
c14: [ 26 x_32_ * x_6_ - 50 x_19_ ^ 2 + 68 x_21_ * x_19_ + 60 x_32_ * x_19_ + 46 x_20_ ^ 2 - 36 x_24_ * x_20_ + 10 x_50_ * x_21_ - 39 x_32_ ^ 2 ] = 4732
c15: -29 x_15_ + [ 70 x_8_ * x_5_ + 94 x_29_ * x_5_ - 42 x_38_ * x_5_ - 46 x_39_ * x_5_ + 94 x_49_ * x_5_ - 30 x_38_ * x_7_ - 42 x_38_ * x_8_ - 100 x_39_ * x_8_ - 62 x_46_ * x_8_ + 10 x_39_ * x_12_ - 40 x_15_ ^ 2 - 78 x_29_ * x_15_ - 62 x_31_ * x_15_ + 52 x_31_ * x_29_ + 8 x_39_ * x_29_ - 78 x_46_ * x_29_ + 30 x_49_ * x_31_ ] = 398
c16: -45 x_21_ - 4 x_39_ - 38 x_41_ + 41 x_46_ - 4 x_50_ + [ -28 x_37_ * x_3_ + 42 x_39_ * x_4_ - 42 x_45_ * x_4_ - 90 x_19_ * x_12_ - 34 x_28_ * x_12_ + 60 x_21_ * x_19_ + 76 x_37_ * x_19_ - 66 x_46_ * x_19_ + 44 x_37_ * x_21_ - 48 x_39_ * x_21_ + 62 x_37_ * x_28_ + 16 x_39_ * x_38_ + 14 x_46_ * x_38_ - 54 x_50_ * x_38_ + 30 x_46_ * x_41_ + 62 x_50_ * x_45_ + 42 x_46_ ^ 2 ] = 14071
c17: -34 x_4_ - 36 x_42_ + [ 36 x_4_ * x_1_ - 50 x_24_ * x_1_ - 8 x_41_ * x_1_ - 34 x_4_ ^ 2 - 74 x_22_ * x_4_ + 26 x_24_ * x_19_ - 4 x_35_ * x_19_ - 60 x_47_ * x_19_ + 98 x_47_ * x_22_ - 14 x_49_ * x_24_ - 84 x_42_ * x_35_ + 84 x_49_ * x_41_ - 26 x_42_ ^ 2 ] = 88
c18: 14 x_14_ + 46 x_16_ + 43 x_22_ + 29 x_24_ + 2 x_31_ - 17 x_44_ + 2 x_45_ + [ -35 x_11_ ^ 2 - 62 x_22_ * x_14_ + 28 x_25_ * x_14_ - 72 x_31_ * x_16_ + 6 x_30_ * x_22_ + 78 x_45_ * x_22_ + 16 x_31_ * x_24_ + 54 x_31_ * x_30_ + 35 x_44_ ^ 2 ] = 842
c19: 34 x_23_ + 36 x_29_ - 10 x_30_ + [ -70 x_23_ * x_10_ + 26 x_28_ * x_10_ - 36 x_39_ * x_10_ + 76 x_40_ * x_10_ + 94 x_23_ * x_22_ + 70 x_30_ * x_22_ - 66 x_31_ * x_23_ + 18 x_36_ * x_23_ - 70 x_39_ * x_23_ - 94 x_40_ * x_23_ + 48 x_28_ ^ 2 + 76 x_36_ * x_28_ + 8 x_30_ * x_29_ - 4 x_39_ * x_29_ + 26 x_39_ * x_36_ ] = 8718
c20: 19 x_30_ + [ -54 x_10_ * x_8_ - 20 x_11_ * x_8_ + 54 x_30_ * x_8_ - 96 x_43_ * x_8_ - 24 x_11_ * x_10_ + 56 x_15_ * x_10_ - 86 x_26_ * x_11_ + 16 x_14_ ^ 2 - 24 x_43_ * x_14_ + 29 x_15_ ^ 2 + 50 x_20_ * x_15_ - 40 x_26_ * x_15_ - 6 x_31_ * x_15_ + 94 x_31_ * x_20_ + 6 x_35_ * x_20_ - 10 x_30_ * x_26_ - 12 x_35_ ^ 2 ] = -1119
c21: -47 x_44_ + [ -10 x_14_ ^ 2 - 78 x_17_ * x_14_ - 32 x_17_ ^ 2 + 58 x_44_ * x_17_ - 35 x_44_ ^ 2 - 52 x_50_ * x_44_ ] = 5134
c22: 15 x_11_ + 49 x_29_ - 17 x_42_ - 7 x_47_ + [ 10 x_7_ ^ 2 - 4 x_42_ * x_7_ - 42 x_47_ * x_7_ - 44 x_11_ ^ 2 + 46 x_29_ * x_15_ + 16 x_24_ ^ 2 - 24 x_42_ * x_28_ - 62 x_47_ * x_28_ + 58 x_47_ * x_39_ ] = -2005
c23: [ 7 x_3_ ^ 2 + 10 x_34_ * x_3_ - 70 x_22_ * x_10_ + 8 x_34_ ^ 2 ] = -625
c24: -42 x_5_ + [ 36 x_4_ * x_2_ + 12 x_20_ * x_2_ - 42 x_24_ * x_2_ + 20 x_7_ * x_4_ - 46 x_18_ * x_4_ + 4 x_20_ * x_4_ - 24 x_24_ * x_4_ + 32 x_30_ * x_4_ + 100 x_50_ * x_4_ - 78 x_14_ * x_5_ + 1 x_7_ ^ 2 - 74 x_9_ * x_7_ - 34 x_14_ * x_7_ - 70 x_20_ * x_14_ + 96 x_42_ * x_14_ - 48 x_49_ * x_14_ + 40 x_18_ ^ 2 - 18 x_30_ * x_18_ - 82 x_42_ * x_24_ - 48 x_50_ * x_24_ - 27 x_30_ ^ 2 + 62 x_48_ * x_42_ - 37 x_49_ ^ 2 ] = -8908
c25: 45 x_23_ - 50 x_34_ + 6 x_48_ + [ 80 x_20_ * x_1_ + 4 x_23_ * x_1_ - 48 x_37_ * x_1_ - 100 x_48_ * x_1_ + 86 x_30_ * x_3_ + 54 x_36_ * x_3_ - 12 x_23_ * x_20_ + 72 x_34_ * x_23_ - 50 x_37_ * x_23_ - 48 x_48_ * x_23_ + 36 x_30_ ^ 2 + 40 x_34_ * x_30_ - 29 x_34_ ^ 2 - 70 x_46_ * x_34_ + 92 x_41_ * x_36_ + 2 x_46_ * x_36_ + 54 x_48_ * x_37_ - 82 x_46_ * x_39_ + 37 x_41_ ^ 2 + 78 x_46_ * x_41_ + 40 x_48_ * x_46_ ] = 8412
c26: 27 x_21_ + 34 x_46_ + [ 88 x_8_ * x_3_ + 92 x_35_ * x_3_ - 28 x_8_ ^ 2 - 96 x_21_ * x_8_ + 20 x_28_ * x_8_ + 14 x_35_ * x_8_ - 58 x_29_ * x_13_ - 58 x_46_ * x_13_ - 26 x_15_ ^ 2 + 31 x_21_ ^ 2 - 46 x_30_ * x_28_ - 54 x_35_ * x_28_ - 14 x_46_ * x_29_ - 60 x_43_ * x_35_ + 46 x_44_ ^ 2 - 36 x_46_ ^ 2 ] = 2776
c27: 8 x_6_ - 39 x_50_ + [ -36 x_14_ * x_4_ - 16 x_19_ * x_4_ - 98 x_49_ * x_4_ + 45 x_6_ ^ 2 - 42 x_30_ * x_6_ - 38 x_36_ * x_6_ + 54 x_50_ * x_6_ - 12 x_14_ * x_10_ + 12 x_36_ * x_14_ + 72 x_49_ * x_14_ + 58 x_50_ * x_14_ - 40 x_31_ * x_19_ - 36 x_36_ * x_30_ - 64 x_50_ * x_30_ - 49 x_50_ ^ 2 ] = 3082
c28: -8 x_3_ + 11 x_8_ - 26 x_10_ + 34 x_34_ + 43 x_39_ + [ 18 x_3_ * x_11_ - 58 x_33_ * x_3_ + 38 x_18_ * x_8_ - 100 x_33_ * x_8_ - 96 x_38_ * x_8_ + 22 x_39_ * x_8_ - 30 x_32_ * x_10_ + 84 x_34_ * x_10_ + 26 x_32_ * x_11_ + 52 x_38_ * x_11_ - 92 x_28_ * x_13_ + 58 x_34_ * x_13_ + 20 x_38_ * x_18_ - 28 x_40_ * x_18_ - 16 x_33_ * x_28_ + 66 x_39_ * x_28_ - 96 x_34_ * x_32_ - 90 x_44_ * x_34_ + 66 x_44_ * x_39_ + 42 x_44_ * x_40_ ] = 8890
c29: [ -22 x_4_ * x_1_ - 32 x_6_ * x_1_ + 26 x_39_ * x_1_ - 90 x_8_ * x_3_ + 94 x_28_ * x_3_ - 26 x_46_ * x_3_ - 25 x_4_ ^ 2 + 80 x_39_ * x_4_ - 64 x_39_ * x_28_ ] = -1301
c30: [ -38 x_6_ ^ 2 - 4 x_20_ * x_6_ - 8 x_24_ * x_6_ + 28 x_28_ * x_6_ - 15 x_13_ ^ 2 + 10 x_20_ * x_13_ + 82 x_27_ * x_13_ - 100 x_36_ * x_24_ - 26 x_28_ ^ 2 - 92 x_36_ * x_28_ ] = 4014
c31: -19 x_36_ - 35 x_42_ + [ 98 x_24_ * x_9_ + 30 x_36_ * x_9_ - 78 x_37_ * x_9_ - 36 x_24_ * x_12_ - 34 x_39_ * x_24_ - 21 x_27_ ^ 2 + 70 x_37_ * x_36_ - 24 x_42_ * x_39_ ] = -939
c32: -41 x_4_ - 41 x_12_ + 34 x_43_ + [ -44 x_46_ * x_4_ + 48 x_43_ * x_10_ - 88 x_37_ * x_20_ - 32 x_43_ * x_36_ + 46 x_43_ * x_37_ + 48 x_46_ ^ 2 ] = 4718
c33: -43 x_36_ + [ 2 x_36_ * x_30_ + 6 x_36_ ^ 2 ] = -21
c34: -45 x_3_ - 33 x_37_ - 2 x_41_ + [ -2 x_3_ * x_21_ + 88 x_33_ * x_3_ + 94 x_34_ * x_3_ - 90 x_45_ * x_3_ - 46 x_22_ * x_6_ + 46 x_41_ * x_6_ - 86 x_22_ * x_15_ + 68 x_41_ * x_15_ - 8 x_45_ * x_15_ - 70 x_22_ * x_21_ - 78 x_34_ * x_21_ + 12 x_37_ * x_22_ - 92 x_41_ * x_22_ + 60 x_45_ * x_22_ + 52 x_41_ * x_34_ - 34 x_45_ * x_37_ ] = 60
c35: 10 x_7_ + [ -50 x_5_ * x_1_ - 12 x_35_ * x_1_ - 90 x_49_ * x_1_ - 42 x_12_ * x_3_ - 96 x_29_ * x_12_ + 16 x_35_ ^ 2 ] = -4088
c36: 29 x_18_ + 26 x_27_ + 13 x_32_ - 39 x_46_ - 6 x_50_ + [ -24 x_18_ * x_30_ - 34 x_32_ * x_27_ - 62 x_34_ * x_27_ - 16 x_46_ * x_27_ + 64 x_50_ * x_27_ + 14 x_50_ * x_29_ - 70 x_32_ * x_31_ - 46 x_40_ * x_31_ + 54 x_46_ * x_32_ + 76 x_40_ * x_34_ ] = -1205
c37: -34 x_6_ + 36 x_7_ - 22 x_9_ - 31 x_14_ + 39 x_38_ + [ -2 x_1_ ^ 2 + 38 x_6_ * x_1_ - 16 x_7_ * x_1_ + 32 x_38_ * x_1_ - 98 x_12_ * x_6_ - 24 x_40_ * x_6_ - 34 x_14_ * x_7_ - 30 x_11_ * x_9_ - 26 x_12_ * x_11_ - 90 x_14_ * x_11_ + 100 x_40_ * x_11_ + 80 x_49_ * x_11_ - 30 x_23_ * x_12_ + 46 x_42_ * x_14_ - 42 x_40_ * x_23_ - 20 x_49_ * x_23_ - 12 x_49_ * x_38_ + 84 x_49_ * x_40_ + 43 x_42_ ^ 2 - 16 x_49_ * x_42_ ] = 694
c38: -18 x_11_ + 44 x_14_ - 21 x_16_ - 11 x_42_ + [ -50 x_37_ * x_8_ - 62 x_42_ * x_8_ + 27 x_16_ ^ 2 + 100 x_41_ * x_16_ - 22 x_42_ * x_16_ + 47 x_32_ ^ 2 + 34 x_41_ * x_32_ + 4 x_41_ * x_37_ - 2 x_41_ ^ 2 ] = 1560
c39: -42 x_2_ - 36 x_5_ - 32 x_32_ + [ 14 x_2_ * x_19_ + 48 x_7_ * x_5_ - 46 x_19_ * x_10_ ] = -4702
c40: -13 x_16_ - 39 x_30_ + [ -20 x_13_ ^ 2 - 34 x_50_ * x_13_ - 13 x_14_ ^ 2 - 16 x_16_ * x_14_ - 24 x_31_ * x_14_ - 80 x_50_ * x_14_ + 24 x_24_ * x_16_ + 10 x_48_ * x_24_ + 96 x_48_ * x_39_ + 37 x_50_ ^ 2 ] = -2254
c41: [ -90 x_20_ * x_3_ + 90 x_50_ * x_3_ - 60 x_33_ * x_11_ + 90 x_50_ * x_13_ + 31 x_20_ ^ 2 - 16 x_44_ * x_20_ + 72 x_50_ * x_20_ + 7 x_44_ ^ 2 - 32 x_50_ * x_44_ ] = -2538
c42: 45 x_17_ + 48 x_21_ - 25 x_23_ + [ 78 x_17_ * x_3_ + 10 x_20_ * x_3_ - 38 x_7_ * x_4_ + 10 x_9_ * x_4_ + 28 x_23_ * x_7_ + 44 x_20_ * x_9_ + 48 x_29_ * x_9_ + 24 x_37_ * x_9_ + 60 x_39_ * x_9_ - 20 x_21_ * x_14_ - 92 x_37_ * x_14_ + 98 x_45_ * x_14_ - 40 x_48_ * x_14_ - 58 x_39_ * x_17_ + 18 x_48_ * x_17_ + 8 x_23_ * x_20_ + 24 x_29_ * x_20_ - 72 x_48_ * x_20_ - 29 x_21_ ^ 2 - 2 x_37_ * x_21_ + 10 x_39_ ^ 2 ] = -4579
c43: 38 x_1_ + 36 x_6_ + 38 x_25_ + 5 x_44_ + [ 20 x_2_ * x_1_ - 86 x_13_ * x_1_ + 98 x_29_ * x_1_ - 88 x_30_ * x_1_ - 9 x_2_ ^ 2 + 20 x_13_ * x_6_ - 12 x_25_ * x_6_ + 48 x_29_ * x_6_ - 80 x_50_ * x_6_ - 18 x_25_ ^ 2 + 94 x_44_ * x_25_ + 13 x_30_ ^ 2 - 46 x_36_ * x_30_ + 24 x_50_ * x_30_ ] = -255
c44: -35 x_25_ - 1 x_33_ + 6 x_39_ + [ -17 x_7_ ^ 2 + 68 x_33_ * x_17_ - 72 x_39_ * x_17_ - 32 x_43_ * x_17_ + 12 x_31_ * x_25_ - 50 x_33_ * x_25_ + 28 x_34_ * x_33_ + 38 x_39_ * x_33_ - 96 x_49_ * x_39_ + 11 x_43_ ^ 2 ] = -6197
c45: 39 x_11_ + 12 x_21_ + [ 88 x_21_ * x_11_ + 54 x_34_ * x_11_ + 48 x_36_ * x_11_ + 12 x_38_ * x_11_ + 2 x_21_ ^ 2 + 22 x_31_ * x_21_ + 32 x_34_ * x_31_ - 52 x_36_ * x_31_ - 64 x_39_ * x_31_ + 27 x_38_ ^ 2 ] = 1422
c46: 40 x_3_ + 37 x_27_ + [ -60 x_27_ * x_1_ + 82 x_45_ * x_1_ - 56 x_25_ * x_3_ - 12 x_27_ * x_3_ + 42 x_25_ ^ 2 + 12 x_31_ * x_25_ + 2 x_45_ * x_25_ + 31 x_26_ ^ 2 + 88 x_45_ * x_26_ - 45 x_27_ ^ 2 + 49 x_31_ ^ 2 - 48 x_45_ * x_31_ ] = -15442
Bounds
-9 <= x_1_ <= -8
-10 <= x_2_ <= 7
-7 <= x_3_ <= 5
-10 <= x_4_ <= 2
-9 <= x_5_ <= 0
-7 <= x_6_ <= 6
-1 <= x_7_ <= 7
-5 <= x_8_ <= 0
x_9_ = 9
-7 <= x_10_ <= 4
-2 <= x_11_ <= 8
6 <= x_12_ <= 10
-5 <= x_13_ <= 6
-9 <= x_14_ <= 6
-8 <= x_15_ <= -6
-5 <= x_16_ <= 2
-10 <= x_17_ <= 5
-10 <= x_18_ <= 2
-8 <= x_19_ <= -2
-10 <= x_20_ <= 5
-7 <= x_21_ <= -3
-5 <= x_22_ <= -2
7 <= x_23_ <= 9
-8 <= x_24_ <= 7
-7 <= x_25_ <= 7
-8 <= x_26_ <= 6
-10 <= x_27_ <= 6
-4 <= x_28_ <= 5
-7 <= x_29_ <= 2
-2 <= x_30_ <= 1
1 <= x_31_ <= 10
-7 <= x_32_ <= 10
0 <= x_33_ <= 8
-1 <= x_34_ <= 8
-7 <= x_35_ <= 2
5 <= x_36_ <= 10
-2 <= x_37_ <= 5
-10 <= x_38_ <= 4
-5 <= x_39_ <= 5
-10 <= x_40_ <= 1
-9 <= x_41_ <= -3
-8 <= x_42_ <= 7
-4 <= x_43_ <= -2
-9 <= x_44_ <= 1
3 <= x_45_ <= 10
-2 <= x_46_ <= 6
-6 <= x_47_ <= 4
-3 <= x_48_ <= 8
-8 <= x_49_ <= 5
5 <= x_50_ <= 9
General
x_1_
x_2_
x_3_
x_4_
x_5_
x_6_
x_7_
x_8_
x_9_
x_10_
x_11_
x_12_
x_13_
x_14_
x_15_
x_16_
x_17_
x_18_
x_19_
x_20_
x_21_
x_22_
x_23_
x_24_
x_25_
x_26_
x_27_
x_28_
x_29_
x_30_
x_31_
x_32_
x_33_
x_34_
x_35_
x_36_
x_37_
x_38_
x_39_
x_40_
x_41_
x_42_
x_43_
x_44_
x_45_
x_46_
x_47_
x_48_
x_49_
x_50_
End
