minimize
obj: -4 x_3_ - 39 x_15_ - 39 x_17_ + 35 x_21_ + 17 x_24_ + 1 x_31_ + 5 x_36_ + 11 x_41_
subject to
quadratic_ranged_1_ub: -20 x_10_ + 25 x_19_ - 2 x_22_ - 46 x_40_ + [ -2 x_22_ * x_5_ + 22 x_39_ * x_5_ + 54 x_42_ * x_5_ - 100 x_14_ * x_8_ + 10 x_40_ * x_8_ - 24 x_14_ * x_10_ + 17 x_12_ ^ 2 - 100 x_22_ * x_12_ - 90 x_29_ * x_12_ - 90 x_42_ * x_14_ - 28 x_29_ * x_15_ - 32 x_19_ ^ 2 - 32 x_22_ * x_19_ - 42 x_38_ * x_19_ + 82 x_39_ * x_22_ - 36 x_41_ * x_29_ - 20 x_39_ * x_38_ - 9 x_39_ ^ 2 + 6 x_41_ * x_39_ + 9 x_40_ ^ 2 - 56 x_42_ * x_41_ ] <= 3183
quadratic_ranged_2_ub: -17 x_17_ - 48 x_24_ + [ 56 x_18_ * x_4_ + 90 x_23_ * x_6_ + 42 x_39_ * x_6_ - 34 x_17_ * x_16_ - 12 x_23_ * x_16_ - 28 x_30_ * x_16_ - 6 x_43_ * x_16_ - 19 x_18_ ^ 2 - 82 x_27_ * x_18_ + 96 x_39_ * x_20_ + 22 x_36_ * x_23_ + 47 x_24_ ^ 2 - 96 x_35_ * x_24_ - 32 x_41_ * x_24_ + 76 x_35_ * x_30_ - 14 x_35_ ^ 2 - 28 x_36_ * x_35_ - 62 x_39_ * x_36_ + 46 x_43_ * x_41_ ] <= -1386
quadratic_ranged_3_ub: [ -27 x_1_ ^ 2 - 33 x_46_ ^ 2 ] <= -2996
quadratic_ranged_4_ub: -9 x_44_ + [ 38 x_9_ * x_16_ + 36 x_44_ * x_9_ - 24 x_46_ * x_9_ + 86 x_39_ * x_16_ ] <= 3928
quadratic_ranged_5_ub: -10 x_1_ + 39 x_14_ - 40 x_18_ + 10 x_28_ + [ 100 x_43_ * x_1_ + 82 x_33_ * x_14_ + 86 x_37_ * x_14_ - 50 x_47_ * x_14_ - 14 x_23_ * x_18_ - 32 x_47_ * x_23_ + 6 x_28_ ^ 2 - 40 x_43_ * x_28_ ] <= 7120
quadratic_ranged_6_ub: -14 x_1_ + 7 x_5_ - 19 x_27_ + [ 35 x_1_ ^ 2 + 56 x_15_ * x_1_ + 12 x_27_ * x_1_ - 64 x_40_ * x_1_ - 30 x_47_ * x_1_ - 48 x_22_ * x_2_ - 84 x_27_ * x_2_ + 94 x_47_ * x_2_ + 46 x_13_ * x_4_ - 88 x_15_ * x_4_ + 98 x_16_ * x_4_ + 20 x_15_ * x_5_ - 33 x_13_ ^ 2 + 16 x_15_ * x_13_ - 90 x_40_ * x_15_ + 50 x_49_ * x_15_ + 54 x_47_ * x_16_ + 20 x_29_ * x_22_ - 6 x_37_ * x_22_ + 40 x_40_ * x_22_ - 8 x_37_ * x_27_ - 4 x_48_ * x_27_ + 2 x_29_ ^ 2 - 4 x_37_ * x_31_ - 8 x_48_ * x_37_ + 50 x_40_ ^ 2 + 92 x_49_ * x_40_ - 8 x_48_ * x_47_ - 62 x_49_ * x_48_ ] <= 2117
quadratic_ranged_7_ub: 6 x_14_ + [ -39 x_5_ ^ 2 ] <= -680
quadratic_ranged_8_ub: -27 x_14_ + [ -86 x_27_ * x_36_ ] <= 270
quadratic_ranged_9_ub: 14 x_10_ + 23 x_20_ - 35 x_27_ + [ -24 x_20_ * x_2_ - 80 x_31_ * x_2_ - 6 x_6_ * x_4_ - 56 x_10_ * x_4_ + 58 x_18_ * x_4_ - 54 x_20_ * x_4_ - 88 x_31_ * x_4_ + 82 x_34_ * x_6_ - 12 x_10_ * x_8_ - 26 x_18_ * x_8_ - 54 x_39_ * x_8_ + 16 x_10_ ^ 2 - 52 x_20_ * x_10_ + 44 x_18_ * x_11_ - 42 x_20_ * x_11_ + 84 x_34_ * x_11_ - 14 x_24_ * x_18_ + 44 x_31_ * x_18_ - 22 x_24_ * x_19_ + 68 x_27_ * x_19_ + 98 x_31_ * x_19_ - 2 x_34_ * x_19_ + 66 x_24_ * x_20_ - 6 x_35_ * x_24_ - 68 x_39_ * x_24_ - 84 x_34_ * x_27_ + 27 x_34_ ^ 2 + 98 x_39_ * x_34_ + 42 x_35_ ^ 2 - 9 x_39_ ^ 2 ] <= 12931
quadratic_ranged_10_ub: [ -58 x_19_ * x_1_ + 100 x_31_ * x_1_ + 24 x_19_ * x_12_ - 50 x_23_ * x_12_ - 56 x_24_ * x_12_ - 92 x_19_ * x_16_ - 3 x_24_ ^ 2 + 78 x_31_ * x_24_ - 20 x_31_ ^ 2 ] <= 7424
quadratic_ranged_11_ub: -11 x_24_ - 13 x_43_ + [ -48 x_43_ * x_3_ + 9 x_12_ ^ 2 - 52 x_16_ * x_12_ - 50 x_22_ * x_14_ + 90 x_32_ * x_14_ + 14 x_34_ * x_16_ + 44 x_35_ * x_16_ + 84 x_32_ * x_22_ - 74 x_45_ * x_22_ + 28 x_34_ * x_32_ - 100 x_48_ * x_35_ - 22 x_48_ * x_45_ ] <= 11828
quadratic_ranged_12_ub: 19 x_20_ + 6 x_28_ + [ 19 x_6_ ^ 2 + 38 x_20_ * x_6_ - 56 x_28_ * x_6_ - 44 x_20_ * x_17_ - 38 x_25_ * x_17_ - 20 x_49_ * x_17_ - 94 x_25_ * x_20_ - 76 x_26_ * x_25_ + 8 x_28_ * x_25_ - 84 x_44_ * x_26_ - 24 x_44_ * x_28_ ] <= -7496
quadratic_ranged_13_ub: 31 x_8_ - 19 x_18_ + 28 x_20_ - 44 x_37_ + [ 98 x_8_ * x_1_ + 32 x_18_ * x_1_ + 54 x_26_ * x_1_ - 96 x_37_ * x_1_ + 76 x_40_ * x_1_ - 43 x_6_ ^ 2 - 20 x_8_ * x_6_ + 10 x_26_ * x_6_ - 74 x_27_ * x_6_ - 96 x_28_ * x_14_ + 44 x_22_ * x_18_ - 18 x_26_ * x_18_ - 98 x_27_ * x_18_ + 30 x_40_ * x_20_ + 88 x_28_ * x_22_ + 68 x_40_ * x_22_ - 20 x_26_ ^ 2 + 100 x_37_ * x_26_ + 62 x_36_ * x_30_ + 30 x_40_ * x_30_ - 50 x_39_ * x_36_ + 20 x_37_ ^ 2 - 38 x_39_ ^ 2 ] <= -21615
quadratic_ranged_14_ub: [ 18 x_2_ * x_38_ + 12 x_38_ * x_16_ ] <= -755
quadratic_ranged_15_ub: 36 x_5_ + [ 24 x_10_ * x_5_ - 16 x_36_ * x_5_ - 34 x_29_ * x_6_ - 56 x_29_ * x_28_ + 35 x_29_ ^ 2 - 18 x_36_ * x_29_ - 4 x_38_ * x_29_ + 43 x_36_ ^ 2 ] <= -3504
quadratic_ranged_16_ub: -7 x_1_ + 23 x_6_ + 32 x_22_ + 6 x_23_ + 26 x_29_ + [ -18 x_6_ * x_1_ - 54 x_10_ * x_1_ + 82 x_23_ * x_1_ + 94 x_23_ * x_6_ + 52 x_31_ * x_6_ - 74 x_23_ * x_10_ + 78 x_28_ * x_10_ + 32 x_22_ ^ 2 - 6 x_23_ * x_22_ - 42 x_29_ * x_22_ - 6 x_29_ * x_23_ - 33 x_31_ ^ 2 ] <= 13481
quadratic_ranged_17_ub: 19 x_45_ + [ 8 x_45_ * x_9_ + 9 x_17_ ^ 2 + 24 x_45_ ^ 2 - 4 x_46_ * x_45_ + 37 x_48_ ^ 2 ] <= 2329
quadratic_ranged_18_ub: -1 x_16_ - 22 x_40_ + [ 76 x_36_ * x_13_ - 52 x_48_ * x_13_ + 64 x_40_ * x_16_ + 48 x_48_ * x_16_ - 18 x_33_ ^ 2 ] <= 2781
quadratic_ranged_19_ub: 13 x_24_ - 15 x_38_ - 34 x_41_ + 17 x_46_ + 28 x_48_ + [ 60 x_4_ * x_41_ - 86 x_48_ * x_4_ - 92 x_12_ * x_11_ - 60 x_22_ * x_11_ - 18 x_29_ * x_11_ + 66 x_46_ * x_11_ + 2 x_22_ * x_13_ - 82 x_26_ * x_13_ + 84 x_41_ * x_13_ + 48 x_46_ * x_13_ - 18 x_48_ * x_13_ + 60 x_41_ * x_22_ + 78 x_46_ * x_24_ + 88 x_29_ * x_26_ - 92 x_41_ * x_26_ + 86 x_48_ * x_26_ - 40 x_46_ * x_29_ - 34 x_48_ * x_29_ + 24 x_48_ * x_41_ ] <= 1575
quadratic_ranged_20_ub: [ 32 x_12_ * x_5_ + 50 x_8_ ^ 2 + 26 x_12_ ^ 2 + 88 x_29_ * x_12_ - 37 x_43_ ^ 2 ] <= 1224
quadratic_ranged_21_ub: -44 x_3_ - 5 x_12_ - 45 x_31_ + [ -42 x_8_ * x_3_ + 60 x_48_ * x_3_ - 15 x_8_ ^ 2 - 76 x_20_ * x_8_ + 17 x_12_ ^ 2 - 82 x_20_ * x_12_ + 36 x_27_ * x_20_ - 60 x_41_ * x_31_ - 50 x_48_ * x_41_ ] <= 6021
quadratic_ranged_1_lb: -20 x_10_ + 25 x_19_ - 2 x_22_ - 46 x_40_ + [ -2 x_22_ * x_5_ + 22 x_39_ * x_5_ + 54 x_42_ * x_5_ - 100 x_14_ * x_8_ + 10 x_40_ * x_8_ - 24 x_14_ * x_10_ + 17 x_12_ ^ 2 - 100 x_22_ * x_12_ - 90 x_29_ * x_12_ - 90 x_42_ * x_14_ - 28 x_29_ * x_15_ - 32 x_19_ ^ 2 - 32 x_22_ * x_19_ - 42 x_38_ * x_19_ + 82 x_39_ * x_22_ - 36 x_41_ * x_29_ - 20 x_39_ * x_38_ - 9 x_39_ ^ 2 + 6 x_41_ * x_39_ + 9 x_40_ ^ 2 - 56 x_42_ * x_41_ ] >= 3177
quadratic_ranged_2_lb: -17 x_17_ - 48 x_24_ + [ 56 x_18_ * x_4_ + 90 x_23_ * x_6_ + 42 x_39_ * x_6_ - 34 x_17_ * x_16_ - 12 x_23_ * x_16_ - 28 x_30_ * x_16_ - 6 x_43_ * x_16_ - 19 x_18_ ^ 2 - 82 x_27_ * x_18_ + 96 x_39_ * x_20_ + 22 x_36_ * x_23_ + 47 x_24_ ^ 2 - 96 x_35_ * x_24_ - 32 x_41_ * x_24_ + 76 x_35_ * x_30_ - 14 x_35_ ^ 2 - 28 x_36_ * x_35_ - 62 x_39_ * x_36_ + 46 x_43_ * x_41_ ] >= -1396
quadratic_ranged_3_lb: [ -27 x_1_ ^ 2 - 33 x_46_ ^ 2 ] >= -2999
quadratic_ranged_4_lb: -9 x_44_ + [ 38 x_9_ * x_16_ + 36 x_44_ * x_9_ - 24 x_46_ * x_9_ + 86 x_39_ * x_16_ ] >= 3922
quadratic_ranged_5_lb: -10 x_1_ + 39 x_14_ - 40 x_18_ + 10 x_28_ + [ 100 x_43_ * x_1_ + 82 x_33_ * x_14_ + 86 x_37_ * x_14_ - 50 x_47_ * x_14_ - 14 x_23_ * x_18_ - 32 x_47_ * x_23_ + 6 x_28_ ^ 2 - 40 x_43_ * x_28_ ] >= 7114
quadratic_ranged_6_lb: -14 x_1_ + 7 x_5_ - 19 x_27_ + [ 35 x_1_ ^ 2 + 56 x_15_ * x_1_ + 12 x_27_ * x_1_ - 64 x_40_ * x_1_ - 30 x_47_ * x_1_ - 48 x_22_ * x_2_ - 84 x_27_ * x_2_ + 94 x_47_ * x_2_ + 46 x_13_ * x_4_ - 88 x_15_ * x_4_ + 98 x_16_ * x_4_ + 20 x_15_ * x_5_ - 33 x_13_ ^ 2 + 16 x_15_ * x_13_ - 90 x_40_ * x_15_ + 50 x_49_ * x_15_ + 54 x_47_ * x_16_ + 20 x_29_ * x_22_ - 6 x_37_ * x_22_ + 40 x_40_ * x_22_ - 8 x_37_ * x_27_ - 4 x_48_ * x_27_ + 2 x_29_ ^ 2 - 4 x_37_ * x_31_ - 8 x_48_ * x_37_ + 50 x_40_ ^ 2 + 92 x_49_ * x_40_ - 8 x_48_ * x_47_ - 62 x_49_ * x_48_ ] >= 2114
quadratic_ranged_7_lb: 6 x_14_ + [ -39 x_5_ ^ 2 ] >= -689
quadratic_ranged_8_lb: -27 x_14_ + [ -86 x_27_ * x_36_ ] >= 267
quadratic_ranged_9_lb: 14 x_10_ + 23 x_20_ - 35 x_27_ + [ -24 x_20_ * x_2_ - 80 x_31_ * x_2_ - 6 x_6_ * x_4_ - 56 x_10_ * x_4_ + 58 x_18_ * x_4_ - 54 x_20_ * x_4_ - 88 x_31_ * x_4_ + 82 x_34_ * x_6_ - 12 x_10_ * x_8_ - 26 x_18_ * x_8_ - 54 x_39_ * x_8_ + 16 x_10_ ^ 2 - 52 x_20_ * x_10_ + 44 x_18_ * x_11_ - 42 x_20_ * x_11_ + 84 x_34_ * x_11_ - 14 x_24_ * x_18_ + 44 x_31_ * x_18_ - 22 x_24_ * x_19_ + 68 x_27_ * x_19_ + 98 x_31_ * x_19_ - 2 x_34_ * x_19_ + 66 x_24_ * x_20_ - 6 x_35_ * x_24_ - 68 x_39_ * x_24_ - 84 x_34_ * x_27_ + 27 x_34_ ^ 2 + 98 x_39_ * x_34_ + 42 x_35_ ^ 2 - 9 x_39_ ^ 2 ] >= 12925
quadratic_ranged_10_lb: [ -58 x_19_ * x_1_ + 100 x_31_ * x_1_ + 24 x_19_ * x_12_ - 50 x_23_ * x_12_ - 56 x_24_ * x_12_ - 92 x_19_ * x_16_ - 3 x_24_ ^ 2 + 78 x_31_ * x_24_ - 20 x_31_ ^ 2 ] >= 7416
quadratic_ranged_11_lb: -11 x_24_ - 13 x_43_ + [ -48 x_43_ * x_3_ + 9 x_12_ ^ 2 - 52 x_16_ * x_12_ - 50 x_22_ * x_14_ + 90 x_32_ * x_14_ + 14 x_34_ * x_16_ + 44 x_35_ * x_16_ + 84 x_32_ * x_22_ - 74 x_45_ * x_22_ + 28 x_34_ * x_32_ - 100 x_48_ * x_35_ - 22 x_48_ * x_45_ ] >= 11825
quadratic_ranged_12_lb: 19 x_20_ + 6 x_28_ + [ 19 x_6_ ^ 2 + 38 x_20_ * x_6_ - 56 x_28_ * x_6_ - 44 x_20_ * x_17_ - 38 x_25_ * x_17_ - 20 x_49_ * x_17_ - 94 x_25_ * x_20_ - 76 x_26_ * x_25_ + 8 x_28_ * x_25_ - 84 x_44_ * x_26_ - 24 x_44_ * x_28_ ] >= -7503
quadratic_ranged_13_lb: 31 x_8_ - 19 x_18_ + 28 x_20_ - 44 x_37_ + [ 98 x_8_ * x_1_ + 32 x_18_ * x_1_ + 54 x_26_ * x_1_ - 96 x_37_ * x_1_ + 76 x_40_ * x_1_ - 43 x_6_ ^ 2 - 20 x_8_ * x_6_ + 10 x_26_ * x_6_ - 74 x_27_ * x_6_ - 96 x_28_ * x_14_ + 44 x_22_ * x_18_ - 18 x_26_ * x_18_ - 98 x_27_ * x_18_ + 30 x_40_ * x_20_ + 88 x_28_ * x_22_ + 68 x_40_ * x_22_ - 20 x_26_ ^ 2 + 100 x_37_ * x_26_ + 62 x_36_ * x_30_ + 30 x_40_ * x_30_ - 50 x_39_ * x_36_ + 20 x_37_ ^ 2 - 38 x_39_ ^ 2 ] >= -21621
quadratic_ranged_14_lb: [ 18 x_2_ * x_38_ + 12 x_38_ * x_16_ ] >= -757
quadratic_ranged_15_lb: 36 x_5_ + [ 24 x_10_ * x_5_ - 16 x_36_ * x_5_ - 34 x_29_ * x_6_ - 56 x_29_ * x_28_ + 35 x_29_ ^ 2 - 18 x_36_ * x_29_ - 4 x_38_ * x_29_ + 43 x_36_ ^ 2 ] >= -3510
quadratic_ranged_16_lb: -7 x_1_ + 23 x_6_ + 32 x_22_ + 6 x_23_ + 26 x_29_ + [ -18 x_6_ * x_1_ - 54 x_10_ * x_1_ + 82 x_23_ * x_1_ + 94 x_23_ * x_6_ + 52 x_31_ * x_6_ - 74 x_23_ * x_10_ + 78 x_28_ * x_10_ + 32 x_22_ ^ 2 - 6 x_23_ * x_22_ - 42 x_29_ * x_22_ - 6 x_29_ * x_23_ - 33 x_31_ ^ 2 ] >= 13473
quadratic_ranged_17_lb: 19 x_45_ + [ 8 x_45_ * x_9_ + 9 x_17_ ^ 2 + 24 x_45_ ^ 2 - 4 x_46_ * x_45_ + 37 x_48_ ^ 2 ] >= 2326
quadratic_ranged_18_lb: -1 x_16_ - 22 x_40_ + [ 76 x_36_ * x_13_ - 52 x_48_ * x_13_ + 64 x_40_ * x_16_ + 48 x_48_ * x_16_ - 18 x_33_ ^ 2 ] >= 2776
quadratic_ranged_19_lb: 13 x_24_ - 15 x_38_ - 34 x_41_ + 17 x_46_ + 28 x_48_ + [ 60 x_4_ * x_41_ - 86 x_48_ * x_4_ - 92 x_12_ * x_11_ - 60 x_22_ * x_11_ - 18 x_29_ * x_11_ + 66 x_46_ * x_11_ + 2 x_22_ * x_13_ - 82 x_26_ * x_13_ + 84 x_41_ * x_13_ + 48 x_46_ * x_13_ - 18 x_48_ * x_13_ + 60 x_41_ * x_22_ + 78 x_46_ * x_24_ + 88 x_29_ * x_26_ - 92 x_41_ * x_26_ + 86 x_48_ * x_26_ - 40 x_46_ * x_29_ - 34 x_48_ * x_29_ + 24 x_48_ * x_41_ ] >= 1573
quadratic_ranged_20_lb: [ 32 x_12_ * x_5_ + 50 x_8_ ^ 2 + 26 x_12_ ^ 2 + 88 x_29_ * x_12_ - 37 x_43_ ^ 2 ] >= 1219
quadratic_ranged_21_lb: -44 x_3_ - 5 x_12_ - 45 x_31_ + [ -42 x_8_ * x_3_ + 60 x_48_ * x_3_ - 15 x_8_ ^ 2 - 76 x_20_ * x_8_ + 17 x_12_ ^ 2 - 82 x_20_ * x_12_ + 36 x_27_ * x_20_ - 60 x_41_ * x_31_ - 50 x_48_ * x_41_ ] >= 6015
c1_1: -43 x_46_ = 129
c1: [ -38 x_8_ * x_1_ + 20 x_8_ ^ 2 - 54 x_12_ * x_8_ + 16 x_25_ * x_8_ + 74 x_32_ * x_8_ + 23 x_18_ ^ 2 - 8 x_45_ * x_18_ + 36 x_32_ * x_25_ - 44 x_32_ ^ 2 - 98 x_41_ * x_33_ + 32 x_41_ ^ 2 ] = -1571
c2: -3 x_45_ + [ -13 x_9_ ^ 2 + 62 x_13_ * x_9_ - 5 x_47_ ^ 2 ] = -3614
c3: -11 x_3_ - 25 x_13_ - 21 x_26_ + [ -58 x_3_ * x_1_ - 96 x_13_ * x_1_ - 38 x_15_ * x_1_ + 12 x_37_ * x_1_ + 28 x_3_ ^ 2 - 80 x_13_ * x_11_ - 92 x_19_ * x_11_ + 94 x_31_ * x_11_ - 10 x_37_ * x_11_ + 42 x_16_ * x_13_ - 20 x_21_ * x_15_ - 74 x_47_ * x_15_ + 4 x_20_ * x_16_ - 54 x_26_ * x_16_ - 58 x_47_ * x_19_ ] = 19032
c4: [ -30 x_17_ * x_6_ + 46 x_38_ * x_6_ + 23 x_38_ ^ 2 ] = 5388
c5: 48 x_35_ - 2 x_44_ - 33 x_49_ + [ 6 x_12_ * x_2_ - 46 x_18_ * x_12_ + 68 x_44_ * x_12_ + 4 x_35_ * x_15_ - 56 x_47_ * x_15_ - 16 x_44_ * x_23_ - 22 x_49_ * x_23_ - 18 x_35_ ^ 2 + 18 x_47_ * x_35_ + 88 x_49_ * x_39_ ] = 2341
c6: 8 x_4_ + 2 x_10_ + 21 x_23_ + 30 x_26_ + 30 x_37_ + [ -10 x_46_ * x_4_ + 10 x_23_ * x_10_ + 8 x_24_ * x_10_ - 6 x_37_ * x_10_ - 94 x_46_ * x_23_ - 42 x_46_ * x_24_ + 19 x_26_ ^ 2 - 74 x_46_ * x_26_ + 5 x_30_ ^ 2 - 22 x_37_ * x_30_ + 32 x_46_ * x_37_ - 26 x_46_ ^ 2 ] = -4434
c7: -22 x_1_ - 44 x_10_ - 15 x_40_ + 8 x_46_ + [ -26 x_4_ * x_1_ - 52 x_6_ * x_1_ - 92 x_6_ * x_4_ - 38 x_8_ * x_4_ - 52 x_21_ * x_4_ - 12 x_46_ * x_4_ - 68 x_27_ * x_6_ + 68 x_41_ * x_6_ + 13 x_10_ ^ 2 + 56 x_21_ * x_10_ - 36 x_40_ * x_10_ + 2 x_41_ * x_10_ - 60 x_46_ * x_10_ - 46 x_41_ * x_21_ + 88 x_40_ * x_38_ + 30 x_41_ * x_40_ - 41 x_41_ ^ 2 + 49 x_46_ ^ 2 ] = 15702
c8: [ -12 x_2_ ^ 2 + 94 x_12_ * x_2_ - 2 x_16_ * x_2_ - 100 x_18_ * x_9_ - 38 x_47_ * x_9_ + 8 x_12_ * x_10_ + 22 x_16_ ^ 2 + 4 x_18_ * x_16_ + 14 x_23_ * x_17_ - 60 x_38_ * x_18_ + 4 x_47_ * x_26_ + 45 x_34_ ^ 2 ] = -346
c9: -7 x_8_ + 24 x_20_ + 28 x_30_ + [ 13 x_8_ ^ 2 - 8 x_10_ * x_8_ + 80 x_23_ * x_8_ + 32 x_49_ * x_8_ + 24 x_20_ * x_10_ + 29 x_12_ ^ 2 + 64 x_28_ * x_12_ - 2 x_49_ * x_23_ - 46 x_28_ ^ 2 + 11 x_30_ ^ 2 - 70 x_48_ * x_30_ ] = -6184
c10: [ -19 x_5_ ^ 2 + 82 x_7_ * x_5_ + 96 x_14_ * x_5_ - 34 x_43_ * x_5_ - 74 x_41_ * x_7_ + 50 x_16_ ^ 2 + 66 x_32_ * x_16_ - 40 x_34_ * x_16_ - 2 x_42_ * x_16_ + 66 x_43_ * x_16_ - 40 x_34_ * x_32_ - 92 x_43_ * x_32_ + 28 x_42_ * x_41_ ] = -1044
c11: -31 x_20_ + [ -7 x_20_ ^ 2 + 64 x_27_ * x_20_ + 39 x_27_ ^ 2 - 100 x_41_ * x_27_ + 40 x_41_ * x_40_ - 90 x_44_ * x_40_ - 92 x_46_ * x_41_ ] = 3663
c12: 8 x_11_ - 48 x_17_ - 22 x_48_ + [ 40 x_34_ * x_13_ - 28 x_28_ * x_17_ - 74 x_34_ * x_26_ - 100 x_34_ * x_28_ - 98 x_34_ * x_31_ - 28 x_34_ ^ 2 ] = -1222
c13: 33 x_10_ + 19 x_12_ + [ -64 x_12_ * x_3_ - 52 x_49_ * x_3_ + 35 x_7_ ^ 2 + 10 x_45_ * x_7_ + 54 x_48_ * x_7_ + 26 x_19_ * x_10_ + 42 x_25_ ^ 2 + 74 x_45_ * x_33_ ] = 6653
c14: -10 x_1_ + 1 x_42_ - 29 x_48_ + [ -52 x_2_ * x_1_ - 48 x_38_ * x_1_ + 13 x_2_ ^ 2 + 23 x_10_ ^ 2 - 6 x_45_ * x_10_ - 72 x_32_ * x_14_ - 54 x_32_ * x_17_ - 23 x_38_ ^ 2 + 96 x_40_ * x_38_ + 26 x_45_ * x_38_ - 46 x_48_ * x_38_ - 66 x_42_ * x_40_ + 6 x_48_ * x_45_ ] = 4956
c15: -33 x_11_ + [ 90 x_7_ * x_3_ - 24 x_10_ * x_3_ + 44 x_11_ * x_3_ - 56 x_34_ * x_3_ - 70 x_11_ * x_4_ - 35 x_7_ ^ 2 - 90 x_23_ * x_7_ - 38 x_32_ * x_7_ + 62 x_47_ * x_7_ + 90 x_49_ * x_7_ + 10 x_32_ * x_10_ - 30 x_34_ * x_10_ + 38 x_23_ * x_11_ + 24 x_44_ * x_11_ - 26 x_45_ * x_11_ + 40 x_49_ * x_11_ - 52 x_35_ * x_23_ + 92 x_34_ * x_32_ + 92 x_45_ * x_34_ + 12 x_35_ ^ 2 - 20 x_47_ * x_44_ + 18 x_45_ ^ 2 ] = 6532
c16: 20 x_27_ + [ -14 x_42_ * x_7_ - 34 x_23_ ^ 2 + 96 x_27_ * x_23_ - 40 x_37_ * x_23_ - 64 x_42_ * x_23_ + 16 x_46_ * x_27_ - 11 x_42_ ^ 2 + 9 x_46_ ^ 2 ] = -5071
c17: -35 x_18_ + 30 x_37_ + [ 62 x_24_ * x_13_ - 12 x_31_ * x_13_ - 84 x_30_ * x_16_ - 88 x_31_ * x_18_ - 12 x_49_ * x_18_ + 8 x_37_ * x_24_ - 20 x_37_ * x_27_ - 25 x_30_ ^ 2 + 2 x_38_ * x_30_ - 47 x_31_ ^ 2 + 82 x_49_ * x_31_ - 44 x_37_ ^ 2 + 12 x_49_ * x_38_ ] = -8177
c18: 28 x_30_ - 34 x_41_ + [ -46 x_30_ * x_6_ - 28 x_31_ * x_6_ - 48 x_45_ * x_6_ - 46 x_47_ * x_6_ + 10 x_20_ ^ 2 + 56 x_44_ * x_20_ - 100 x_31_ * x_29_ + 78 x_45_ * x_29_ + 58 x_31_ * x_30_ + 34 x_47_ * x_30_ - 52 x_45_ * x_41_ - 94 x_47_ * x_44_ ] = 4214
c19: -50 x_24_ + [ -50 x_45_ * x_24_ - 54 x_33_ * x_26_ + 10 x_30_ ^ 2 - 5 x_33_ ^ 2 ] = 2615
c20: -29 x_24_ - 14 x_34_ + 49 x_50_ + [ 4 x_29_ * x_8_ - 82 x_36_ * x_8_ + 72 x_26_ * x_13_ + 54 x_34_ * x_13_ + 4 x_36_ * x_13_ - 94 x_39_ * x_13_ - 30 x_32_ * x_24_ - 90 x_39_ * x_25_ - 24 x_32_ * x_26_ - 76 x_34_ * x_26_ - 18 x_39_ * x_26_ + 36 x_49_ * x_26_ + 18 x_34_ * x_29_ + 26 x_36_ * x_29_ - 36 x_43_ * x_32_ - 86 x_50_ * x_34_ - 98 x_49_ * x_35_ - 72 x_50_ * x_35_ + 34 x_43_ * x_36_ + 50 x_50_ * x_36_ - 35 x_39_ ^ 2 - 18 x_43_ * x_39_ - 36 x_49_ * x_39_ - 29 x_50_ ^ 2 ] = -18814
c21: -14 x_30_ + [ -2 x_3_ * x_17_ - 32 x_35_ * x_3_ - 30 x_17_ * x_12_ - 84 x_49_ * x_12_ + 4 x_30_ * x_17_ - 8 x_46_ * x_17_ - 82 x_49_ * x_17_ - 78 x_46_ * x_30_ ] = 316
c22: 32 x_20_ - 16 x_32_ + [ -13 x_6_ ^ 2 + 26 x_7_ * x_6_ - 68 x_21_ * x_6_ - 46 x_42_ * x_6_ - 56 x_21_ * x_7_ - 60 x_50_ * x_7_ - 36 x_15_ * x_9_ - 74 x_48_ * x_9_ + 94 x_25_ * x_10_ - 70 x_20_ * x_15_ + 68 x_21_ * x_20_ + 18 x_42_ * x_20_ - 4 x_48_ * x_21_ - 88 x_50_ * x_21_ + 30 x_25_ ^ 2 + 20 x_50_ * x_25_ - 4 x_50_ * x_32_ - 21 x_42_ ^ 2 - 48 x_48_ * x_42_ ] = -5682
c23: -33 x_7_ - 32 x_30_ - 21 x_49_ + [ -76 x_45_ * x_6_ - 62 x_49_ * x_6_ - 44 x_26_ * x_7_ - 54 x_41_ * x_7_ - 50 x_49_ * x_7_ + 72 x_45_ * x_11_ + 10 x_26_ * x_12_ + 48 x_30_ * x_12_ + 68 x_30_ * x_26_ + 34 x_30_ ^ 2 + 88 x_49_ * x_30_ + 8 x_41_ ^ 2 + 18 x_49_ * x_45_ ] = 159
c24: 45 x_38_ + 40 x_40_ + [ 100 x_11_ * x_5_ + 92 x_18_ * x_5_ + 28 x_28_ * x_5_ - 100 x_43_ * x_5_ + 84 x_30_ * x_7_ - 33 x_9_ ^ 2 + 82 x_24_ * x_9_ - 30 x_30_ * x_9_ + 38 x_18_ * x_11_ + 78 x_24_ * x_11_ + 43 x_18_ ^ 2 + 28 x_27_ * x_24_ - 11 x_27_ ^ 2 + 60 x_38_ * x_27_ - 98 x_43_ * x_27_ + 86 x_49_ * x_27_ - 38 x_50_ * x_27_ + 70 x_50_ * x_30_ - 4 x_43_ * x_38_ - 8 x_49_ * x_38_ ] = 2881
c25: 3 x_29_ + 23 x_48_ + [ -33 x_1_ ^ 2 - 98 x_20_ * x_1_ - 20 x_29_ * x_1_ - 30 x_48_ * x_1_ + 43 x_4_ ^ 2 + 32 x_20_ * x_4_ + 16 x_23_ * x_4_ + 68 x_34_ * x_4_ - 96 x_45_ * x_4_ + 58 x_49_ * x_4_ - 40 x_23_ * x_20_ - 36 x_29_ * x_20_ - 84 x_34_ * x_20_ - 22 x_23_ ^ 2 + 90 x_28_ * x_23_ - 19 x_28_ ^ 2 + 22 x_29_ * x_28_ - 4 x_34_ ^ 2 ] = 5436
c26: 8 x_32_ + 3 x_34_ + [ -54 x_17_ * x_1_ + 4 x_38_ * x_1_ - 4 x_48_ * x_16_ + 98 x_32_ * x_17_ - 78 x_34_ * x_17_ + 42 x_36_ * x_17_ - 11 x_32_ ^ 2 - 16 x_48_ * x_32_ + 21 x_34_ ^ 2 - 90 x_48_ * x_34_ + 18 x_38_ ^ 2 ] = -3663
c27: 1 x_2_ - 46 x_11_ - 35 x_45_ + [ -6 x_1_ * x_7_ + 78 x_9_ * x_1_ - 12 x_12_ * x_1_ + 34 x_29_ * x_1_ - 34 x_9_ * x_7_ - 84 x_11_ * x_7_ - 34 x_12_ * x_7_ + 62 x_29_ * x_7_ + 100 x_31_ * x_7_ + 80 x_12_ * x_9_ + 98 x_29_ * x_9_ + 82 x_31_ * x_9_ - 50 x_35_ * x_29_ ] = -7102
c28: 45 x_14_ + [ -92 x_38_ * x_19_ + 74 x_38_ * x_25_ - 96 x_38_ * x_36_ - 21 x_41_ ^ 2 ] = -8439
Bounds
-10 <= x_1_ <= -7
-8 <= x_2_ <= -1
-9 <= x_3_ <= 9
-10 <= x_4_ <= -8
-6 <= x_5_ <= 7
7 <= x_6_ <= 10
-10 <= x_7_ <= -3
8 <= x_8_ <= 10
-8 <= x_9_ <= -5
9 <= x_10_ <= 10
-7 <= x_11_ <= 6
-2 <= x_12_ <= 3
-2 <= x_13_ <= 10
-10 <= x_14_ <= -2
-10 <= x_15_ <= 9
x_16_ = -3
-7 <= x_17_ <= 10
-7 <= x_18_ <= 10
-1 <= x_19_ <= 10
0 <= x_20_ <= 6
-6 <= x_21_ <= 3
-7 <= x_22_ <= 5
-5 <= x_23_ <= -4
-10 <= x_24_ <= -3
-8 <= x_25_ <= 7
-6 <= x_26_ <= 4
-3 <= x_27_ <= 2
-4 <= x_28_ <= 4
1 <= x_29_ <= 9
-9 <= x_30_ <= 10
-10 <= x_31_ <= 3
-9 <= x_32_ <= -6
2 <= x_33_ <= 8
-5 <= x_34_ <= -1
6 <= x_35_ <= 9
-6 <= x_36_ <= 7
-6 <= x_37_ <= 4
1 <= x_38_ <= 10
-10 <= x_39_ <= -5
4 <= x_40_ <= 9
-8 <= x_41_ <= 8
-10 <= x_42_ <= 2
-9 <= x_43_ <= 7
-8 <= x_44_ <= 6
-6 <= x_45_ <= 8
-7 <= x_46_ <= -3
-10 <= x_47_ <= 2
-9 <= x_48_ <= -2
-1 <= x_49_ <= 0
-4 <= x_50_ <= 10
General
x_1_
x_2_
x_3_
x_4_
x_5_
x_6_
x_7_
x_8_
x_9_
x_10_
x_11_
x_12_
x_13_
x_14_
x_15_
x_16_
x_17_
x_18_
x_19_
x_20_
x_21_
x_22_
x_23_
x_24_
x_25_
x_26_
x_27_
x_28_
x_29_
x_30_
x_31_
x_32_
x_33_
x_34_
x_35_
x_36_
x_37_
x_38_
x_39_
x_40_
x_41_
x_42_
x_43_
x_44_
x_45_
x_46_
x_47_
x_48_
x_49_
x_50_
End
