minimize
obj: 
subject to
quadratic_ranged_1_ub: [ 66 x_35_ * x_4_ - 56 x_7_ * x_6_ + 30 x_29_ * x_6_ - 4 x_27_ ^ 2 + 96 x_35_ * x_27_ - 80 x_45_ * x_27_ + 8 x_46_ * x_35_ ] <= -5744
quadratic_ranged_2_ub: [ -22 x_32_ * x_1_ + 24 x_17_ * x_2_ - 10 x_41_ * x_2_ + 68 x_46_ * x_2_ - 60 x_14_ * x_5_ + 30 x_29_ * x_5_ - 84 x_17_ * x_6_ + 24 x_32_ * x_6_ - 38 x_32_ * x_29_ - 100 x_46_ * x_29_ - 90 x_43_ * x_32_ - 36 x_46_ * x_32_ - 24 x_41_ ^ 2 ] <= -1332
quadratic_ranged_3_ub: [ 8 x_3_ * x_1_ + 78 x_21_ * x_1_ - 62 x_24_ * x_1_ + 80 x_26_ * x_1_ + 16 x_37_ * x_1_ - 28 x_39_ * x_1_ - 86 x_49_ * x_1_ - 14 x_11_ * x_3_ + 12 x_24_ * x_3_ + 20 x_26_ * x_3_ - 54 x_39_ * x_3_ - 60 x_49_ * x_3_ + 42 x_24_ * x_11_ - 44 x_33_ * x_11_ - 52 x_41_ * x_11_ - 46 x_40_ * x_19_ + 94 x_41_ * x_19_ - 26 x_21_ ^ 2 + 40 x_34_ * x_21_ - 6 x_37_ * x_21_ - 74 x_39_ * x_21_ - 14 x_33_ * x_24_ - 72 x_37_ * x_24_ + 74 x_49_ * x_24_ + 80 x_33_ * x_26_ + 100 x_38_ * x_26_ - 58 x_40_ * x_26_ + 36 x_34_ * x_33_ - 76 x_40_ * x_34_ - 35 x_40_ ^ 2 ] <= -10556
quadratic_ranged_4_ub: [ -54 x_10_ * x_2_ - 44 x_15_ * x_2_ + 62 x_26_ * x_2_ - 56 x_34_ * x_2_ + 38 x_36_ * x_2_ + 40 x_15_ * x_5_ + 16 x_26_ * x_8_ + 96 x_15_ * x_10_ + 8 x_21_ * x_10_ - 30 x_15_ ^ 2 - 24 x_16_ * x_15_ - 22 x_21_ * x_15_ + 38 x_34_ * x_15_ - 28 x_36_ * x_15_ - 18 x_21_ * x_16_ - 8 x_49_ * x_16_ - 3 x_21_ ^ 2 + 98 x_35_ * x_21_ - 12 x_36_ * x_21_ + 8 x_26_ * x_22_ + 18 x_45_ * x_22_ + 38 x_34_ * x_26_ + 84 x_44_ * x_26_ + 70 x_45_ * x_26_ + 39 x_32_ ^ 2 + 58 x_38_ * x_32_ + 24 x_44_ * x_35_ - 10 x_36_ ^ 2 + 46 x_44_ * x_36_ + 42 x_44_ ^ 2 - 88 x_45_ * x_44_ ] <= -1820
quadratic_ranged_5_ub: [ -42 x_3_ * x_21_ + 92 x_28_ * x_3_ + 16 x_38_ * x_3_ - 4 x_9_ * x_8_ + 70 x_25_ * x_8_ - 22 x_18_ * x_9_ - 32 x_28_ * x_9_ + 4 x_42_ * x_9_ + 94 x_28_ * x_15_ - 14 x_47_ * x_18_ + 38 x_25_ * x_21_ - 36 x_28_ * x_21_ + 84 x_40_ * x_21_ + 12 x_35_ * x_31_ + 68 x_40_ * x_31_ - 48 x_37_ * x_35_ + 70 x_38_ * x_35_ - 14 x_42_ * x_35_ + 52 x_50_ * x_42_ ] <= 20960
quadratic_ranged_6_ub: [ -82 x_30_ * x_3_ + 64 x_17_ * x_16_ + 44 x_30_ ^ 2 + 6 x_41_ * x_30_ - 100 x_41_ * x_37_ - 86 x_42_ * x_37_ - 96 x_48_ * x_42_ ] <= -14090
quadratic_ranged_7_ub: [ -96 x_41_ * x_24_ - 56 x_43_ * x_26_ + 50 x_41_ ^ 2 ] <= 5512
quadratic_ranged_8_ub: [ -24 x_17_ * x_2_ + 92 x_31_ * x_2_ + 62 x_46_ * x_2_ - 48 x_6_ ^ 2 + 52 x_48_ * x_6_ - 39 x_10_ ^ 2 - 26 x_11_ * x_10_ - 96 x_26_ * x_10_ + 64 x_39_ * x_10_ + 92 x_46_ * x_10_ + 16 x_39_ * x_11_ + 80 x_26_ * x_12_ + 92 x_46_ * x_17_ - 48 x_39_ * x_26_ - 48 x_31_ ^ 2 ] <= -7036
quadratic_ranged_9_ub: [ 64 x_2_ * x_10_ - 28 x_13_ * x_2_ + 28 x_5_ * x_3_ + 44 x_13_ * x_3_ + 66 x_42_ * x_3_ + 72 x_13_ * x_5_ - 76 x_22_ * x_5_ + 6 x_16_ * x_8_ - 14 x_22_ * x_8_ - 66 x_42_ * x_8_ + 38 x_13_ * x_10_ + 42 x_14_ * x_10_ - 40 x_16_ * x_13_ - 20 x_22_ * x_13_ - 96 x_30_ * x_13_ + 4 x_49_ * x_14_ + 24 x_49_ * x_18_ + 92 x_36_ * x_30_ + 28 x_42_ * x_30_ ] <= 3350
quadratic_ranged_10_ub: [ -11 x_14_ ^ 2 - 68 x_35_ * x_23_ ] <= -4100
quadratic_ranged_11_ub: [ -100 x_9_ * x_2_ - 58 x_30_ * x_2_ + 68 x_25_ * x_9_ - 42 x_44_ * x_9_ + 64 x_44_ * x_16_ + 46 x_47_ * x_17_ - 98 x_26_ * x_25_ - 28 x_47_ * x_25_ + 40 x_46_ * x_44_ - 88 x_47_ * x_44_ - 2 x_47_ ^ 2 ] <= 3802
quadratic_ranged_12_ub: [ 30 x_1_ ^ 2 + 42 x_34_ * x_1_ - 42 x_41_ * x_5_ + 40 x_23_ * x_14_ + 20 x_34_ * x_14_ - 42 x_41_ ^ 2 ] <= -8328
quadratic_ranged_13_ub: [ -18 x_26_ * x_1_ + 54 x_16_ * x_6_ + 86 x_18_ * x_10_ + 34 x_18_ * x_12_ - 38 x_26_ * x_16_ - 90 x_50_ * x_16_ - 10 x_26_ ^ 2 + 20 x_45_ * x_26_ ] <= 722
quadratic_ranged_14_ub: [ 22 x_16_ * x_50_ - 62 x_48_ * x_31_ + 20 x_39_ * x_34_ - 72 x_50_ * x_39_ ] <= 5956
quadratic_ranged_15_ub: [ -54 x_7_ * x_5_ - 18 x_12_ * x_5_ - 32 x_47_ * x_5_ + 14 x_35_ * x_7_ + 16 x_41_ * x_7_ - 31 x_12_ ^ 2 - 94 x_30_ * x_17_ - 38 x_47_ * x_23_ + 46 x_41_ * x_30_ + 48 x_43_ * x_41_ + 16 x_47_ * x_43_ ] <= -1817
quadratic_ranged_16_ub: [ 88 x_9_ * x_1_ - 6 x_9_ * x_2_ + 24 x_9_ * x_3_ + 36 x_17_ * x_3_ - 46 x_10_ * x_7_ - 98 x_36_ * x_7_ - 58 x_45_ * x_7_ + 21 x_9_ ^ 2 + 50 x_45_ * x_17_ + 29 x_36_ ^ 2 - 2 x_45_ ^ 2 ] <= 393
quadratic_ranged_17_ub: [ 100 x_6_ * x_1_ - 56 x_29_ * x_1_ + 92 x_31_ * x_1_ - 70 x_13_ * x_6_ + 48 x_24_ * x_6_ + 49 x_13_ ^ 2 + 44 x_29_ * x_13_ + 6 x_31_ * x_13_ - 52 x_37_ * x_13_ - 42 x_46_ * x_13_ - 98 x_29_ * x_25_ + 44 x_31_ * x_25_ + 6 x_37_ * x_25_ + 14 x_31_ ^ 2 + 22 x_44_ * x_37_ - 6 x_46_ * x_37_ + 96 x_46_ * x_45_ ] <= 13615
quadratic_ranged_18_ub: [ 12 x_4_ * x_3_ + 56 x_13_ * x_3_ + 6 x_40_ * x_4_ + 88 x_30_ * x_13_ + 15 x_30_ ^ 2 - 98 x_37_ * x_30_ + 94 x_37_ * x_36_ + 64 x_40_ * x_37_ + 28 x_49_ ^ 2 ] <= 2249
quadratic_ranged_19_ub: [ 98 x_16_ * x_6_ - 100 x_37_ * x_6_ - 100 x_17_ * x_16_ + 42 x_30_ * x_19_ - 54 x_37_ * x_19_ + 50 x_42_ * x_19_ + 46 x_30_ ^ 2 - 44 x_40_ * x_30_ + 90 x_40_ * x_37_ - 16 x_42_ * x_37_ ] <= -2695
quadratic_ranged_20_ub: [ 100 x_7_ * x_3_ + 88 x_13_ * x_3_ - 88 x_16_ * x_3_ + 54 x_39_ * x_3_ + 22 x_7_ * x_4_ - 36 x_13_ * x_4_ + 6 x_14_ * x_4_ - 52 x_33_ * x_7_ + 62 x_37_ * x_7_ + 50 x_13_ * x_8_ - 92 x_37_ * x_8_ - 36 x_17_ * x_13_ + 8 x_14_ ^ 2 - 100 x_38_ * x_14_ - 90 x_39_ * x_14_ - 72 x_39_ * x_17_ + 6 x_48_ * x_17_ - 37 x_37_ ^ 2 + 16 x_41_ * x_39_ ] <= 1487
quadratic_ranged_1_lb: [ 66 x_35_ * x_4_ - 56 x_7_ * x_6_ + 30 x_29_ * x_6_ - 4 x_27_ ^ 2 + 96 x_35_ * x_27_ - 80 x_45_ * x_27_ + 8 x_46_ * x_35_ ] >= -5746
quadratic_ranged_2_lb: [ -22 x_32_ * x_1_ + 24 x_17_ * x_2_ - 10 x_41_ * x_2_ + 68 x_46_ * x_2_ - 60 x_14_ * x_5_ + 30 x_29_ * x_5_ - 84 x_17_ * x_6_ + 24 x_32_ * x_6_ - 38 x_32_ * x_29_ - 100 x_46_ * x_29_ - 90 x_43_ * x_32_ - 36 x_46_ * x_32_ - 24 x_41_ ^ 2 ] >= -1334
quadratic_ranged_3_lb: [ 8 x_3_ * x_1_ + 78 x_21_ * x_1_ - 62 x_24_ * x_1_ + 80 x_26_ * x_1_ + 16 x_37_ * x_1_ - 28 x_39_ * x_1_ - 86 x_49_ * x_1_ - 14 x_11_ * x_3_ + 12 x_24_ * x_3_ + 20 x_26_ * x_3_ - 54 x_39_ * x_3_ - 60 x_49_ * x_3_ + 42 x_24_ * x_11_ - 44 x_33_ * x_11_ - 52 x_41_ * x_11_ - 46 x_40_ * x_19_ + 94 x_41_ * x_19_ - 26 x_21_ ^ 2 + 40 x_34_ * x_21_ - 6 x_37_ * x_21_ - 74 x_39_ * x_21_ - 14 x_33_ * x_24_ - 72 x_37_ * x_24_ + 74 x_49_ * x_24_ + 80 x_33_ * x_26_ + 100 x_38_ * x_26_ - 58 x_40_ * x_26_ + 36 x_34_ * x_33_ - 76 x_40_ * x_34_ - 35 x_40_ ^ 2 ] >= -10561
quadratic_ranged_4_lb: [ -54 x_10_ * x_2_ - 44 x_15_ * x_2_ + 62 x_26_ * x_2_ - 56 x_34_ * x_2_ + 38 x_36_ * x_2_ + 40 x_15_ * x_5_ + 16 x_26_ * x_8_ + 96 x_15_ * x_10_ + 8 x_21_ * x_10_ - 30 x_15_ ^ 2 - 24 x_16_ * x_15_ - 22 x_21_ * x_15_ + 38 x_34_ * x_15_ - 28 x_36_ * x_15_ - 18 x_21_ * x_16_ - 8 x_49_ * x_16_ - 3 x_21_ ^ 2 + 98 x_35_ * x_21_ - 12 x_36_ * x_21_ + 8 x_26_ * x_22_ + 18 x_45_ * x_22_ + 38 x_34_ * x_26_ + 84 x_44_ * x_26_ + 70 x_45_ * x_26_ + 39 x_32_ ^ 2 + 58 x_38_ * x_32_ + 24 x_44_ * x_35_ - 10 x_36_ ^ 2 + 46 x_44_ * x_36_ + 42 x_44_ ^ 2 - 88 x_45_ * x_44_ ] >= -1826
quadratic_ranged_5_lb: [ -42 x_3_ * x_21_ + 92 x_28_ * x_3_ + 16 x_38_ * x_3_ - 4 x_9_ * x_8_ + 70 x_25_ * x_8_ - 22 x_18_ * x_9_ - 32 x_28_ * x_9_ + 4 x_42_ * x_9_ + 94 x_28_ * x_15_ - 14 x_47_ * x_18_ + 38 x_25_ * x_21_ - 36 x_28_ * x_21_ + 84 x_40_ * x_21_ + 12 x_35_ * x_31_ + 68 x_40_ * x_31_ - 48 x_37_ * x_35_ + 70 x_38_ * x_35_ - 14 x_42_ * x_35_ + 52 x_50_ * x_42_ ] >= 20957
quadratic_ranged_6_lb: [ -82 x_30_ * x_3_ + 64 x_17_ * x_16_ + 44 x_30_ ^ 2 + 6 x_41_ * x_30_ - 100 x_41_ * x_37_ - 86 x_42_ * x_37_ - 96 x_48_ * x_42_ ] >= -14097
quadratic_ranged_7_lb: [ -96 x_41_ * x_24_ - 56 x_43_ * x_26_ + 50 x_41_ ^ 2 ] >= 5507
quadratic_ranged_8_lb: [ -24 x_17_ * x_2_ + 92 x_31_ * x_2_ + 62 x_46_ * x_2_ - 48 x_6_ ^ 2 + 52 x_48_ * x_6_ - 39 x_10_ ^ 2 - 26 x_11_ * x_10_ - 96 x_26_ * x_10_ + 64 x_39_ * x_10_ + 92 x_46_ * x_10_ + 16 x_39_ * x_11_ + 80 x_26_ * x_12_ + 92 x_46_ * x_17_ - 48 x_39_ * x_26_ - 48 x_31_ ^ 2 ] >= -7045
quadratic_ranged_9_lb: [ 64 x_2_ * x_10_ - 28 x_13_ * x_2_ + 28 x_5_ * x_3_ + 44 x_13_ * x_3_ + 66 x_42_ * x_3_ + 72 x_13_ * x_5_ - 76 x_22_ * x_5_ + 6 x_16_ * x_8_ - 14 x_22_ * x_8_ - 66 x_42_ * x_8_ + 38 x_13_ * x_10_ + 42 x_14_ * x_10_ - 40 x_16_ * x_13_ - 20 x_22_ * x_13_ - 96 x_30_ * x_13_ + 4 x_49_ * x_14_ + 24 x_49_ * x_18_ + 92 x_36_ * x_30_ + 28 x_42_ * x_30_ ] >= 3347
quadratic_ranged_10_lb: [ -11 x_14_ ^ 2 - 68 x_35_ * x_23_ ] >= -4104
quadratic_ranged_11_lb: [ -100 x_9_ * x_2_ - 58 x_30_ * x_2_ + 68 x_25_ * x_9_ - 42 x_44_ * x_9_ + 64 x_44_ * x_16_ + 46 x_47_ * x_17_ - 98 x_26_ * x_25_ - 28 x_47_ * x_25_ + 40 x_46_ * x_44_ - 88 x_47_ * x_44_ - 2 x_47_ ^ 2 ] >= 3799
quadratic_ranged_12_lb: [ 30 x_1_ ^ 2 + 42 x_34_ * x_1_ - 42 x_41_ * x_5_ + 40 x_23_ * x_14_ + 20 x_34_ * x_14_ - 42 x_41_ ^ 2 ] >= -8334
quadratic_ranged_13_lb: [ -18 x_26_ * x_1_ + 54 x_16_ * x_6_ + 86 x_18_ * x_10_ + 34 x_18_ * x_12_ - 38 x_26_ * x_16_ - 90 x_50_ * x_16_ - 10 x_26_ ^ 2 + 20 x_45_ * x_26_ ] >= 718
quadratic_ranged_14_lb: [ 22 x_16_ * x_50_ - 62 x_48_ * x_31_ + 20 x_39_ * x_34_ - 72 x_50_ * x_39_ ] >= 5952
quadratic_ranged_15_lb: [ -54 x_7_ * x_5_ - 18 x_12_ * x_5_ - 32 x_47_ * x_5_ + 14 x_35_ * x_7_ + 16 x_41_ * x_7_ - 31 x_12_ ^ 2 - 94 x_30_ * x_17_ - 38 x_47_ * x_23_ + 46 x_41_ * x_30_ + 48 x_43_ * x_41_ + 16 x_47_ * x_43_ ] >= -1824
quadratic_ranged_16_lb: [ 88 x_9_ * x_1_ - 6 x_9_ * x_2_ + 24 x_9_ * x_3_ + 36 x_17_ * x_3_ - 46 x_10_ * x_7_ - 98 x_36_ * x_7_ - 58 x_45_ * x_7_ + 21 x_9_ ^ 2 + 50 x_45_ * x_17_ + 29 x_36_ ^ 2 - 2 x_45_ ^ 2 ] >= 387
quadratic_ranged_17_lb: [ 100 x_6_ * x_1_ - 56 x_29_ * x_1_ + 92 x_31_ * x_1_ - 70 x_13_ * x_6_ + 48 x_24_ * x_6_ + 49 x_13_ ^ 2 + 44 x_29_ * x_13_ + 6 x_31_ * x_13_ - 52 x_37_ * x_13_ - 42 x_46_ * x_13_ - 98 x_29_ * x_25_ + 44 x_31_ * x_25_ + 6 x_37_ * x_25_ + 14 x_31_ ^ 2 + 22 x_44_ * x_37_ - 6 x_46_ * x_37_ + 96 x_46_ * x_45_ ] >= 13609
quadratic_ranged_18_lb: [ 12 x_4_ * x_3_ + 56 x_13_ * x_3_ + 6 x_40_ * x_4_ + 88 x_30_ * x_13_ + 15 x_30_ ^ 2 - 98 x_37_ * x_30_ + 94 x_37_ * x_36_ + 64 x_40_ * x_37_ + 28 x_49_ ^ 2 ] >= 2245
quadratic_ranged_19_lb: [ 98 x_16_ * x_6_ - 100 x_37_ * x_6_ - 100 x_17_ * x_16_ + 42 x_30_ * x_19_ - 54 x_37_ * x_19_ + 50 x_42_ * x_19_ + 46 x_30_ ^ 2 - 44 x_40_ * x_30_ + 90 x_40_ * x_37_ - 16 x_42_ * x_37_ ] >= -2698
quadratic_ranged_20_lb: [ 100 x_7_ * x_3_ + 88 x_13_ * x_3_ - 88 x_16_ * x_3_ + 54 x_39_ * x_3_ + 22 x_7_ * x_4_ - 36 x_13_ * x_4_ + 6 x_14_ * x_4_ - 52 x_33_ * x_7_ + 62 x_37_ * x_7_ + 50 x_13_ * x_8_ - 92 x_37_ * x_8_ - 36 x_17_ * x_13_ + 8 x_14_ ^ 2 - 100 x_38_ * x_14_ - 90 x_39_ * x_14_ - 72 x_39_ * x_17_ + 6 x_48_ * x_17_ - 37 x_37_ ^ 2 + 16 x_41_ * x_39_ ] >= 1479
c1: [ 50 x_12_ * x_11_ - 84 x_31_ * x_11_ - 88 x_42_ * x_11_ - 46 x_50_ * x_11_ - 54 x_15_ * x_12_ + 22 x_18_ * x_12_ + 28 x_39_ * x_12_ - 24 x_13_ ^ 2 + 66 x_18_ * x_13_ - 16 x_50_ * x_13_ + 40 x_18_ ^ 2 + 34 x_44_ * x_18_ + 54 x_40_ * x_30_ + 88 x_44_ * x_30_ + 98 x_50_ * x_31_ - 64 x_44_ * x_32_ - 14 x_50_ * x_32_ + 100 x_40_ * x_39_ + 48 x_42_ * x_39_ + 94 x_48_ * x_44_ + 13 x_50_ ^ 2 ] = -8024
c2: [ 10 x_21_ ^ 2 + 54 x_43_ * x_21_ - 12 x_46_ * x_24_ - 22 x_45_ * x_31_ - 43 x_42_ ^ 2 - 23 x_45_ ^ 2 + 66 x_46_ * x_45_ ] = -7356
c3: [ 48 x_31_ ^ 2 + 21 x_47_ ^ 2 ] = 4416
c4: [ 54 x_13_ * x_1_ + 36 x_31_ * x_1_ + 46 x_32_ * x_1_ + 14 x_14_ * x_2_ + 82 x_35_ * x_2_ + 40 x_31_ * x_6_ - 10 x_27_ * x_14_ - 18 x_31_ * x_14_ - 44 x_31_ * x_27_ + 7 x_28_ ^ 2 + 40 x_32_ ^ 2 - 2 x_35_ ^ 2 + 3 x_50_ ^ 2 ] = 2314
c5: [ 10 x_10_ ^ 2 - 84 x_41_ * x_15_ + 84 x_45_ * x_15_ - 50 x_46_ * x_15_ + 70 x_46_ * x_23_ + 18 x_49_ * x_31_ + 40 x_45_ * x_41_ + 42 x_45_ ^ 2 + 4 x_46_ * x_45_ ] = 16088
c6: [ 18 x_21_ * x_6_ - 46 x_36_ * x_6_ - 70 x_42_ * x_21_ - 60 x_36_ * x_23_ + 70 x_42_ * x_23_ - 50 x_32_ * x_31_ + 12 x_32_ ^ 2 ] = 6298
c7: [ 21 x_4_ ^ 2 - 56 x_15_ * x_4_ - 44 x_28_ * x_15_ - 82 x_39_ * x_15_ + 8 x_27_ ^ 2 + 44 x_36_ * x_27_ + 10 x_36_ ^ 2 + 42 x_39_ * x_36_ ] = -7320
c8: [ -100 x_34_ * x_6_ - 60 x_38_ * x_17_ + 86 x_30_ * x_21_ + 66 x_41_ * x_28_ + 86 x_42_ * x_30_ - 26 x_38_ ^ 2 ] = -8304
c9: [ 40 x_6_ ^ 2 + 12 x_19_ * x_6_ - 38 x_27_ * x_6_ - 84 x_35_ * x_6_ - 100 x_19_ * x_7_ + 22 x_21_ * x_7_ - 82 x_22_ * x_7_ + 46 x_41_ * x_7_ + 42 x_21_ * x_19_ - 38 x_22_ * x_19_ + 88 x_35_ * x_19_ - 50 x_34_ * x_21_ - 74 x_26_ * x_22_ + 10 x_26_ * x_24_ + 90 x_34_ * x_24_ - 38 x_35_ * x_24_ - 2 x_41_ * x_24_ + 68 x_41_ * x_26_ + 74 x_34_ * x_27_ - 2 x_47_ * x_27_ - 54 x_41_ * x_34_ - 42 x_47_ * x_34_ - 13 x_41_ ^ 2 ] = -17224
c10: [ -80 x_19_ * x_7_ + 6 x_25_ * x_7_ - 70 x_19_ * x_11_ + 74 x_21_ * x_11_ - 45 x_12_ ^ 2 + 94 x_14_ * x_12_ - 80 x_19_ * x_12_ - 40 x_22_ * x_12_ + 14 x_31_ * x_12_ + 84 x_15_ * x_14_ - 74 x_21_ * x_14_ + 26 x_31_ * x_15_ - 38 x_25_ * x_19_ + 2 x_31_ * x_19_ + 86 x_35_ * x_19_ + 74 x_22_ * x_21_ - 20 x_43_ * x_21_ - 78 x_43_ * x_23_ - 52 x_43_ * x_40_ - 41 x_43_ ^ 2 + 4 x_44_ * x_43_ + 47 x_44_ ^ 2 ] = 15487
c11: [ 6 x_6_ * x_3_ - 41 x_6_ ^ 2 + 68 x_8_ * x_6_ + 32 x_13_ * x_8_ + 60 x_39_ * x_8_ - 18 x_42_ * x_8_ + 28 x_26_ * x_11_ - 5 x_26_ ^ 2 - 100 x_42_ * x_31_ + 82 x_49_ * x_39_ + 38 x_42_ ^ 2 ] = 20567
c12: [ -16 x_27_ * x_2_ + 58 x_41_ * x_2_ + 13 x_27_ ^ 2 + 44 x_41_ * x_27_ + 14 x_41_ * x_30_ + 22 x_39_ ^ 2 - 36 x_41_ * x_39_ ] = 4130
c13: [ -64 x_48_ * x_27_ + 86 x_39_ * x_32_ - 42 x_40_ * x_32_ - 66 x_45_ * x_32_ + 58 x_49_ * x_39_ + 68 x_45_ * x_40_ + 50 x_49_ * x_40_ - 19 x_49_ ^ 2 ] = 13660
c14: [ -6 x_23_ * x_8_ - 94 x_32_ * x_22_ + 88 x_38_ * x_32_ + 10 x_38_ ^ 2 ] = 1280
c15: [ -8 x_11_ * x_1_ - 62 x_26_ * x_1_ + 2 x_27_ * x_1_ - 50 x_20_ * x_11_ + 84 x_27_ * x_11_ - 66 x_39_ * x_11_ + 32 x_18_ * x_13_ + 6 x_20_ * x_13_ - 64 x_39_ * x_13_ - 56 x_46_ * x_13_ + 72 x_26_ * x_18_ + 64 x_46_ * x_18_ - 90 x_29_ * x_20_ + 84 x_47_ * x_20_ + 100 x_27_ * x_26_ - 40 x_49_ * x_29_ + 40 x_49_ * x_38_ + 44 x_39_ ^ 2 - 28 x_49_ * x_46_ ] = 376
c16: [ -48 x_8_ ^ 2 ] = -1728
c17: [ 2 x_37_ * x_8_ - 34 x_13_ ^ 2 - 76 x_37_ * x_14_ + 26 x_43_ * x_14_ - 25 x_20_ ^ 2 - 14 x_27_ * x_20_ + 78 x_29_ * x_20_ + 54 x_37_ * x_20_ + 12 x_29_ * x_27_ ] = 5037
c18: [ -62 x_14_ * x_1_ - 72 x_36_ * x_1_ - 74 x_42_ * x_1_ + 90 x_43_ * x_1_ - 96 x_36_ * x_4_ - 58 x_10_ * x_5_ + 28 x_41_ * x_10_ + 76 x_43_ * x_10_ - 98 x_42_ * x_14_ + 24 x_43_ * x_14_ + 58 x_43_ * x_23_ + 12 x_40_ * x_28_ - 4 x_42_ * x_28_ + 18 x_40_ ^ 2 - 36 x_41_ ^ 2 + 84 x_46_ * x_41_ - 40 x_43_ * x_42_ - 31 x_46_ ^ 2 ] = 11016
c19: [ -88 x_17_ * x_11_ + 52 x_32_ * x_11_ - 58 x_49_ * x_11_ - 8 x_46_ * x_17_ - 47 x_19_ ^ 2 - 4 x_24_ * x_19_ + 42 x_41_ * x_19_ - 44 x_46_ * x_19_ - 84 x_49_ * x_19_ - 48 x_20_ ^ 2 + 80 x_24_ * x_20_ - 1 x_24_ ^ 2 - 2 x_29_ * x_24_ - 42 x_41_ * x_24_ + 30 x_49_ * x_24_ + 24 x_34_ * x_32_ - 66 x_49_ * x_32_ - 98 x_41_ * x_34_ - 12 x_49_ * x_41_ - 1 x_46_ ^ 2 ] = 769
c20: [ 10 x_13_ * x_1_ - 44 x_16_ * x_1_ + 80 x_30_ * x_13_ + 47 x_16_ ^ 2 + 28 x_17_ * x_16_ + 92 x_19_ * x_16_ + 98 x_30_ * x_16_ - 74 x_30_ * x_17_ - 96 x_30_ * x_19_ + 43 x_31_ ^ 2 + 76 x_39_ * x_31_ + 23 x_38_ ^ 2 - 26 x_39_ * x_38_ ] = 9733
c21: [ -37 x_5_ ^ 2 + 10 x_15_ * x_5_ - 72 x_38_ * x_5_ - 62 x_38_ * x_15_ - 50 x_43_ * x_15_ + 86 x_38_ * x_18_ - 84 x_42_ * x_18_ - 46 x_43_ * x_18_ - 78 x_43_ * x_20_ + 92 x_35_ * x_21_ + 92 x_43_ * x_21_ - 50 x_29_ * x_28_ + 4 x_42_ * x_29_ + 2 x_35_ ^ 2 + 100 x_38_ * x_35_ - 64 x_43_ * x_38_ + 80 x_48_ * x_38_ ] = 24607
c22: [ -84 x_2_ * x_1_ + 78 x_13_ * x_2_ - 36 x_15_ * x_2_ - 100 x_47_ * x_2_ - 76 x_15_ * x_13_ - 26 x_47_ * x_13_ - 20 x_42_ ^ 2 + 8 x_50_ * x_47_ + 27 x_50_ ^ 2 ] = -244
c23: [ 39 x_3_ ^ 2 + 86 x_10_ * x_3_ + 28 x_32_ * x_3_ - 30 x_36_ * x_3_ - 32 x_43_ * x_3_ - 66 x_43_ * x_10_ - 60 x_43_ * x_18_ + 56 x_50_ * x_18_ + 74 x_32_ * x_30_ - 20 x_50_ ^ 2 ] = 672
c24: [ 21 x_2_ ^ 2 - 2 x_9_ * x_2_ - 32 x_16_ * x_2_ + 14 x_43_ * x_2_ + 88 x_22_ * x_9_ - 84 x_48_ * x_9_ + 44 x_22_ * x_16_ - 58 x_24_ * x_16_ - 26 x_27_ * x_16_ - 54 x_48_ * x_16_ + 82 x_27_ * x_24_ + 4 x_48_ * x_24_ - 34 x_27_ ^ 2 + 44 x_43_ ^ 2 - 84 x_48_ * x_43_ + 10 x_47_ ^ 2 ] = 1728
c25: [ -86 x_28_ * x_2_ + 88 x_45_ * x_5_ + 34 x_7_ ^ 2 + 18 x_34_ * x_23_ + 74 x_40_ * x_23_ + 70 x_45_ * x_23_ - 88 x_45_ * x_34_ + 80 x_45_ * x_40_ ] = 11040
c26: [ -78 x_40_ * x_1_ - 39 x_9_ ^ 2 - 68 x_22_ * x_9_ - 42 x_33_ * x_10_ + 16 x_42_ * x_22_ - 22 x_46_ * x_22_ - 12 x_33_ ^ 2 + 2 x_46_ ^ 2 ] = -4543
c27: [ 26 x_8_ * x_5_ - 14 x_15_ * x_5_ - 20 x_16_ * x_5_ + 2 x_16_ * x_8_ - 56 x_36_ * x_15_ - 76 x_24_ * x_20_ + 2 x_24_ ^ 2 + 12 x_36_ * x_32_ + 42 x_42_ * x_32_ ] = 6782
c28: [ 4 x_2_ ^ 2 - 36 x_20_ * x_2_ + 44 x_28_ * x_2_ + 60 x_30_ * x_2_ - 98 x_38_ * x_2_ + 16 x_41_ * x_2_ + 98 x_30_ * x_5_ + 8 x_23_ * x_16_ + 90 x_28_ * x_20_ + 42 x_30_ * x_20_ - 72 x_38_ * x_20_ + 30 x_46_ * x_20_ - 32 x_41_ * x_23_ + 60 x_46_ * x_23_ - 2 x_38_ * x_28_ - 98 x_46_ * x_30_ - 46 x_45_ * x_36_ + 28 x_46_ * x_36_ + 12 x_49_ * x_36_ + 28 x_45_ * x_38_ + 14 x_49_ * x_38_ + 24 x_39_ ^ 2 - 56 x_49_ * x_39_ + 84 x_46_ * x_41_ + 96 x_49_ * x_41_ + 20 x_46_ * x_45_ + 35 x_49_ ^ 2 ] = -28024
c29: [ 38 x_1_ * x_7_ + 58 x_34_ * x_1_ + 20 x_45_ * x_1_ - 80 x_44_ * x_4_ - 40 x_19_ * x_7_ + 8 x_45_ * x_7_ + 44 x_41_ * x_10_ + 34 x_41_ * x_17_ - 90 x_45_ * x_19_ + 80 x_50_ * x_45_ ] = -4392
c30: [ 10 x_23_ * x_10_ - 80 x_34_ * x_10_ + 98 x_49_ * x_10_ - 66 x_23_ * x_22_ + 38 x_30_ * x_22_ + 48 x_44_ * x_22_ - 42 x_34_ * x_29_ - 92 x_37_ * x_29_ - 47 x_30_ ^ 2 - 13 x_34_ ^ 2 + 84 x_38_ * x_34_ - 34 x_45_ * x_34_ + 22 x_44_ ^ 2 + 4 x_49_ * x_44_ - 3 x_49_ ^ 2 ] = -2370
Bounds
-9 <= x_1_ <= 9
-5 <= x_2_ <= 9
-4 <= x_3_ <= 8
-8 <= x_4_ <= -5
-5 <= x_5_ <= 7
-8 <= x_6_ <= 0
-10 <= x_7_ <= 9
-4 <= x_8_ <= 9
-7 <= x_9_ <= 2
-6 <= x_10_ <= 6
-5 <= x_11_ <= 1
-8 <= x_12_ <= 10
-10 <= x_13_ <= 4
7 <= x_14_ <= 10
4 <= x_15_ <= 10
-2 <= x_16_ <= 2
0 <= x_17_ <= 3
-6 <= x_18_ <= 1
-8 <= x_19_ <= 7
-10 <= x_20_ <= -6
-7 <= x_21_ <= 8
-7 <= x_22_ <= 7
-7 <= x_23_ <= -3
-5 <= x_24_ <= 3
1 <= x_25_ <= 6
-7 <= x_26_ <= 6
-10 <= x_27_ <= 6
x_28_ = 10
-6 <= x_29_ <= 2
-7 <= x_30_ <= 9
-4 <= x_31_ <= 10
-10 <= x_32_ <= 8
-8 <= x_33_ <= 7
-10 <= x_34_ <= 2
-10 <= x_35_ <= 9
-3 <= x_36_ <= -1
-3 <= x_37_ <= 10
-9 <= x_38_ <= -3
7 <= x_39_ <= 9
4 <= x_40_ <= 9
-10 <= x_41_ <= 8
-10 <= x_42_ <= 2
-6 <= x_43_ <= 5
-2 <= x_44_ <= 10
-5 <= x_45_ <= 8
0 <= x_46_ <= 10
-9 <= x_47_ <= -2
-9 <= x_48_ <= -3
3 <= x_49_ <= 10
-8 <= x_50_ <= -4
General
x_1_
x_2_
x_3_
x_4_
x_5_
x_6_
x_7_
x_8_
x_9_
x_10_
x_11_
x_12_
x_13_
x_14_
x_15_
x_16_
x_17_
x_18_
x_19_
x_20_
x_21_
x_22_
x_23_
x_24_
x_25_
x_26_
x_27_
x_28_
x_29_
x_30_
x_31_
x_32_
x_33_
x_34_
x_35_
x_36_
x_37_
x_38_
x_39_
x_40_
x_41_
x_42_
x_43_
x_44_
x_45_
x_46_
x_47_
x_48_
x_49_
x_50_
End
