minimize
obj: 
subject to
quadratic_ranged_1_ub: [ 34 x_22_ * x_5_ + 2 x_39_ * x_5_ + 10 x_42_ * x_5_ + 22 x_14_ * x_8_ + 34 x_40_ * x_8_ - 64 x_14_ * x_10_ - 4 x_12_ ^ 2 - 18 x_22_ * x_12_ + 18 x_29_ * x_12_ - 2 x_42_ * x_14_ + 22 x_29_ * x_15_ - 39 x_19_ ^ 2 + 54 x_22_ * x_19_ - 100 x_38_ * x_19_ + 10 x_39_ * x_22_ - 24 x_41_ * x_29_ - 100 x_39_ * x_38_ - 39 x_39_ ^ 2 - 90 x_41_ * x_39_ + 35 x_40_ ^ 2 - 90 x_42_ * x_41_ ] <= 3390
quadratic_ranged_2_ub: [ -20 x_18_ * x_4_ + 6 x_23_ * x_6_ - 56 x_39_ * x_6_ - 40 x_17_ * x_16_ + 50 x_23_ * x_16_ - 4 x_30_ * x_16_ - 92 x_43_ * x_16_ - 21 x_18_ ^ 2 + 44 x_27_ * x_18_ - 38 x_39_ * x_20_ + 94 x_36_ * x_23_ + 41 x_24_ ^ 2 - 28 x_35_ * x_24_ + 56 x_41_ * x_24_ + 90 x_35_ * x_30_ - 18 x_35_ ^ 2 + 42 x_36_ * x_35_ - 34 x_39_ * x_36_ - 12 x_43_ * x_41_ ] <= 1685
quadratic_ranged_3_ub: [ -28 x_1_ ^ 2 - 8 x_46_ ^ 2 ] <= -2869
quadratic_ranged_4_ub: [ 42 x_9_ * x_16_ + 60 x_44_ * x_9_ + 60 x_46_ * x_9_ - 54 x_39_ * x_16_ ] <= 1713
quadratic_ranged_5_ub: [ -36 x_43_ * x_1_ + 2 x_33_ * x_14_ - 60 x_37_ * x_14_ - 46 x_47_ * x_14_ + 88 x_23_ * x_18_ + 30 x_47_ * x_23_ + 28 x_28_ ^ 2 - 44 x_43_ * x_28_ ] <= -4362
quadratic_ranged_6_ub: [ 20 x_5_ ^ 2 ] <= 322
quadratic_ranged_7_ub: [ -4 x_27_ * x_36_ ] <= 5
quadratic_ranged_8_ub: [ -70 x_20_ * x_2_ - 14 x_31_ * x_2_ + 48 x_6_ * x_4_ + 56 x_10_ * x_4_ - 38 x_18_ * x_4_ + 100 x_20_ * x_4_ + 82 x_31_ * x_4_ + 96 x_34_ * x_6_ - 34 x_10_ * x_8_ - 74 x_18_ * x_8_ + 66 x_39_ * x_8_ + 16 x_10_ ^ 2 - 40 x_20_ * x_10_ - 2 x_18_ * x_11_ + 66 x_20_ * x_11_ - 40 x_34_ * x_11_ - 92 x_24_ * x_18_ + 28 x_31_ * x_18_ - 78 x_24_ * x_19_ + 12 x_27_ * x_19_ - 94 x_31_ * x_19_ + 46 x_34_ * x_19_ - 86 x_24_ * x_20_ - 54 x_35_ * x_24_ - 30 x_39_ * x_24_ - 84 x_34_ * x_27_ + 12 x_34_ ^ 2 - 14 x_39_ * x_34_ + 32 x_35_ ^ 2 - 1 x_39_ ^ 2 ] <= -16860
quadratic_ranged_9_ub: [ -98 x_19_ * x_1_ + 16 x_31_ * x_1_ - 96 x_19_ * x_12_ - 44 x_23_ * x_12_ + 32 x_24_ * x_12_ + 54 x_19_ * x_16_ - 37 x_24_ ^ 2 + 84 x_31_ * x_24_ - 50 x_31_ ^ 2 ] <= 5808
quadratic_ranged_10_ub: [ 26 x_43_ * x_3_ + 27 x_12_ ^ 2 + 74 x_16_ * x_12_ + 66 x_22_ * x_14_ + 38 x_32_ * x_14_ - 6 x_34_ * x_16_ - 40 x_35_ * x_16_ - 58 x_32_ * x_22_ + 100 x_45_ * x_22_ + 24 x_34_ * x_32_ - 50 x_48_ * x_35_ - 56 x_48_ * x_45_ ] <= 10950
quadratic_ranged_11_ub: [ -36 x_6_ ^ 2 - 54 x_20_ * x_6_ + 96 x_28_ * x_6_ + 26 x_20_ * x_17_ - 46 x_25_ * x_17_ - 66 x_49_ * x_17_ + 6 x_25_ * x_20_ - 20 x_26_ * x_25_ + 2 x_28_ * x_25_ - 58 x_44_ * x_26_ - 70 x_44_ * x_28_ ] <= -3284
quadratic_ranged_12_ub: [ 92 x_8_ * x_1_ - 20 x_18_ * x_1_ - 66 x_26_ * x_1_ + 18 x_37_ * x_1_ - 48 x_40_ * x_1_ - 13 x_6_ ^ 2 - 52 x_8_ * x_6_ - 50 x_26_ * x_6_ + 90 x_27_ * x_6_ + 14 x_28_ * x_14_ + 44 x_22_ * x_18_ + 84 x_26_ * x_18_ - 74 x_27_ * x_18_ + 28 x_40_ * x_20_ - 100 x_28_ * x_22_ - 22 x_40_ * x_22_ + 20 x_26_ ^ 2 - 22 x_37_ * x_26_ - 26 x_36_ * x_30_ + 10 x_40_ * x_30_ - 52 x_39_ * x_36_ - 26 x_37_ ^ 2 + 46 x_39_ ^ 2 ] <= -5956
quadratic_ranged_13_ub: [ -9 x_6_ ^ 2 ] <= -897
quadratic_ranged_14_ub: [ -12 x_20_ * x_2_ - 86 x_37_ * x_2_ - 19 x_14_ ^ 2 + 20 x_15_ * x_14_ - 46 x_20_ * x_14_ - 28 x_46_ * x_14_ + 28 x_15_ ^ 2 - 48 x_20_ * x_15_ - 46 x_46_ * x_15_ - 44 x_21_ ^ 2 + 56 x_46_ * x_21_ - 100 x_50_ * x_21_ + 78 x_46_ * x_23_ + 58 x_50_ * x_23_ + 34 x_50_ * x_37_ ] <= -2850
quadratic_ranged_15_ub: [ -10 x_2_ * x_1_ - 50 x_40_ * x_1_ + 28 x_2_ ^ 2 - 54 x_12_ * x_2_ - 100 x_17_ * x_2_ - 70 x_50_ * x_2_ - 58 x_34_ * x_7_ + 4 x_13_ * x_12_ - 82 x_50_ * x_12_ - 34 x_13_ ^ 2 + 72 x_34_ * x_13_ + 54 x_34_ * x_17_ + 4 x_40_ * x_17_ - 94 x_34_ * x_24_ - 30 x_43_ * x_24_ - 90 x_50_ * x_24_ + 10 x_42_ ^ 2 - 24 x_43_ * x_42_ ] <= -2996
quadratic_ranged_16_ub: [ 26 x_2_ ^ 2 - 37 x_8_ ^ 2 - 42 x_17_ * x_8_ - 6 x_23_ * x_8_ - 14 x_41_ * x_8_ + 46 x_19_ * x_13_ + 64 x_20_ * x_13_ + 12 x_22_ * x_13_ + 52 x_46_ * x_13_ - 34 x_49_ * x_13_ + 50 x_19_ * x_16_ - 26 x_23_ * x_16_ + 60 x_48_ * x_16_ - 42 x_20_ * x_17_ + 26 x_34_ * x_17_ - 68 x_40_ * x_17_ + 39 x_20_ ^ 2 - 46 x_34_ * x_20_ - 56 x_40_ * x_20_ - 60 x_41_ * x_20_ - 36 x_46_ * x_20_ - 74 x_23_ * x_22_ + 94 x_34_ * x_22_ - 70 x_38_ * x_23_ + 68 x_41_ * x_23_ + 18 x_48_ * x_23_ - 4 x_49_ * x_23_ - 88 x_31_ * x_25_ + 20 x_44_ * x_25_ - 4 x_41_ * x_31_ - 48 x_46_ * x_31_ + 64 x_49_ * x_31_ - 32 x_40_ * x_34_ + 68 x_46_ * x_34_ + 16 x_48_ * x_34_ - 76 x_46_ * x_38_ - 3 x_40_ ^ 2 - 62 x_49_ * x_40_ - 44 x_48_ * x_41_ - 54 x_49_ * x_41_ - 50 x_46_ * x_44_ + 72 x_48_ * x_44_ ] <= 14617
quadratic_ranged_17_ub: [ 82 x_17_ * x_13_ - 30 x_24_ * x_14_ - 50 x_15_ ^ 2 + 38 x_18_ * x_15_ + 78 x_18_ * x_17_ + 28 x_50_ * x_18_ + 60 x_24_ * x_22_ - 98 x_44_ * x_22_ + 86 x_44_ * x_24_ + 42 x_44_ ^ 2 ] <= -6291
quadratic_ranged_18_ub: [ -18 x_1_ ^ 2 + 48 x_37_ * x_1_ + 38 x_5_ ^ 2 - 2 x_25_ * x_5_ - 44 x_25_ * x_6_ + 44 x_18_ * x_12_ + 62 x_42_ * x_12_ - 66 x_45_ * x_12_ + 86 x_50_ * x_12_ - 26 x_18_ ^ 2 - 44 x_30_ * x_18_ - 38 x_37_ * x_18_ - 8 x_45_ * x_25_ - 98 x_37_ * x_30_ - 20 x_39_ * x_37_ - 30 x_50_ * x_37_ + 32 x_45_ * x_39_ + 32 x_42_ ^ 2 ] <= 2437
quadratic_ranged_19_ub: [ -40 x_46_ * x_7_ - 36 x_38_ * x_16_ - 84 x_48_ * x_16_ - 48 x_17_ ^ 2 + 90 x_18_ * x_17_ + 29 x_18_ ^ 2 + 22 x_38_ * x_18_ + 6 x_39_ * x_18_ + 46 x_46_ * x_18_ + 60 x_50_ * x_23_ - 86 x_39_ * x_38_ - 92 x_46_ * x_38_ - 60 x_50_ * x_46_ - 18 x_50_ * x_48_ ] <= 7712
quadratic_ranged_1_lb: [ 34 x_22_ * x_5_ + 2 x_39_ * x_5_ + 10 x_42_ * x_5_ + 22 x_14_ * x_8_ + 34 x_40_ * x_8_ - 64 x_14_ * x_10_ - 4 x_12_ ^ 2 - 18 x_22_ * x_12_ + 18 x_29_ * x_12_ - 2 x_42_ * x_14_ + 22 x_29_ * x_15_ - 39 x_19_ ^ 2 + 54 x_22_ * x_19_ - 100 x_38_ * x_19_ + 10 x_39_ * x_22_ - 24 x_41_ * x_29_ - 100 x_39_ * x_38_ - 39 x_39_ ^ 2 - 90 x_41_ * x_39_ + 35 x_40_ ^ 2 - 90 x_42_ * x_41_ ] >= 3385
quadratic_ranged_2_lb: [ -20 x_18_ * x_4_ + 6 x_23_ * x_6_ - 56 x_39_ * x_6_ - 40 x_17_ * x_16_ + 50 x_23_ * x_16_ - 4 x_30_ * x_16_ - 92 x_43_ * x_16_ - 21 x_18_ ^ 2 + 44 x_27_ * x_18_ - 38 x_39_ * x_20_ + 94 x_36_ * x_23_ + 41 x_24_ ^ 2 - 28 x_35_ * x_24_ + 56 x_41_ * x_24_ + 90 x_35_ * x_30_ - 18 x_35_ ^ 2 + 42 x_36_ * x_35_ - 34 x_39_ * x_36_ - 12 x_43_ * x_41_ ] >= 1680
quadratic_ranged_3_lb: [ -28 x_1_ ^ 2 - 8 x_46_ ^ 2 ] >= -2875
quadratic_ranged_4_lb: [ 42 x_9_ * x_16_ + 60 x_44_ * x_9_ + 60 x_46_ * x_9_ - 54 x_39_ * x_16_ ] >= 1706
quadratic_ranged_5_lb: [ -36 x_43_ * x_1_ + 2 x_33_ * x_14_ - 60 x_37_ * x_14_ - 46 x_47_ * x_14_ + 88 x_23_ * x_18_ + 30 x_47_ * x_23_ + 28 x_28_ ^ 2 - 44 x_43_ * x_28_ ] >= -4369
quadratic_ranged_6_lb: [ 20 x_5_ ^ 2 ] >= 317
quadratic_ranged_7_lb: [ -4 x_27_ * x_36_ ] >= -3
quadratic_ranged_8_lb: [ -70 x_20_ * x_2_ - 14 x_31_ * x_2_ + 48 x_6_ * x_4_ + 56 x_10_ * x_4_ - 38 x_18_ * x_4_ + 100 x_20_ * x_4_ + 82 x_31_ * x_4_ + 96 x_34_ * x_6_ - 34 x_10_ * x_8_ - 74 x_18_ * x_8_ + 66 x_39_ * x_8_ + 16 x_10_ ^ 2 - 40 x_20_ * x_10_ - 2 x_18_ * x_11_ + 66 x_20_ * x_11_ - 40 x_34_ * x_11_ - 92 x_24_ * x_18_ + 28 x_31_ * x_18_ - 78 x_24_ * x_19_ + 12 x_27_ * x_19_ - 94 x_31_ * x_19_ + 46 x_34_ * x_19_ - 86 x_24_ * x_20_ - 54 x_35_ * x_24_ - 30 x_39_ * x_24_ - 84 x_34_ * x_27_ + 12 x_34_ ^ 2 - 14 x_39_ * x_34_ + 32 x_35_ ^ 2 - 1 x_39_ ^ 2 ] >= -16864
quadratic_ranged_9_lb: [ -98 x_19_ * x_1_ + 16 x_31_ * x_1_ - 96 x_19_ * x_12_ - 44 x_23_ * x_12_ + 32 x_24_ * x_12_ + 54 x_19_ * x_16_ - 37 x_24_ ^ 2 + 84 x_31_ * x_24_ - 50 x_31_ ^ 2 ] >= 5803
quadratic_ranged_10_lb: [ 26 x_43_ * x_3_ + 27 x_12_ ^ 2 + 74 x_16_ * x_12_ + 66 x_22_ * x_14_ + 38 x_32_ * x_14_ - 6 x_34_ * x_16_ - 40 x_35_ * x_16_ - 58 x_32_ * x_22_ + 100 x_45_ * x_22_ + 24 x_34_ * x_32_ - 50 x_48_ * x_35_ - 56 x_48_ * x_45_ ] >= 10940
quadratic_ranged_11_lb: [ -36 x_6_ ^ 2 - 54 x_20_ * x_6_ + 96 x_28_ * x_6_ + 26 x_20_ * x_17_ - 46 x_25_ * x_17_ - 66 x_49_ * x_17_ + 6 x_25_ * x_20_ - 20 x_26_ * x_25_ + 2 x_28_ * x_25_ - 58 x_44_ * x_26_ - 70 x_44_ * x_28_ ] >= -3290
quadratic_ranged_12_lb: [ 92 x_8_ * x_1_ - 20 x_18_ * x_1_ - 66 x_26_ * x_1_ + 18 x_37_ * x_1_ - 48 x_40_ * x_1_ - 13 x_6_ ^ 2 - 52 x_8_ * x_6_ - 50 x_26_ * x_6_ + 90 x_27_ * x_6_ + 14 x_28_ * x_14_ + 44 x_22_ * x_18_ + 84 x_26_ * x_18_ - 74 x_27_ * x_18_ + 28 x_40_ * x_20_ - 100 x_28_ * x_22_ - 22 x_40_ * x_22_ + 20 x_26_ ^ 2 - 22 x_37_ * x_26_ - 26 x_36_ * x_30_ + 10 x_40_ * x_30_ - 52 x_39_ * x_36_ - 26 x_37_ ^ 2 + 46 x_39_ ^ 2 ] >= -5962
quadratic_ranged_13_lb: [ -9 x_6_ ^ 2 ] >= -905
quadratic_ranged_14_lb: [ -12 x_20_ * x_2_ - 86 x_37_ * x_2_ - 19 x_14_ ^ 2 + 20 x_15_ * x_14_ - 46 x_20_ * x_14_ - 28 x_46_ * x_14_ + 28 x_15_ ^ 2 - 48 x_20_ * x_15_ - 46 x_46_ * x_15_ - 44 x_21_ ^ 2 + 56 x_46_ * x_21_ - 100 x_50_ * x_21_ + 78 x_46_ * x_23_ + 58 x_50_ * x_23_ + 34 x_50_ * x_37_ ] >= -2854
quadratic_ranged_15_lb: [ -10 x_2_ * x_1_ - 50 x_40_ * x_1_ + 28 x_2_ ^ 2 - 54 x_12_ * x_2_ - 100 x_17_ * x_2_ - 70 x_50_ * x_2_ - 58 x_34_ * x_7_ + 4 x_13_ * x_12_ - 82 x_50_ * x_12_ - 34 x_13_ ^ 2 + 72 x_34_ * x_13_ + 54 x_34_ * x_17_ + 4 x_40_ * x_17_ - 94 x_34_ * x_24_ - 30 x_43_ * x_24_ - 90 x_50_ * x_24_ + 10 x_42_ ^ 2 - 24 x_43_ * x_42_ ] >= -3003
quadratic_ranged_16_lb: [ 26 x_2_ ^ 2 - 37 x_8_ ^ 2 - 42 x_17_ * x_8_ - 6 x_23_ * x_8_ - 14 x_41_ * x_8_ + 46 x_19_ * x_13_ + 64 x_20_ * x_13_ + 12 x_22_ * x_13_ + 52 x_46_ * x_13_ - 34 x_49_ * x_13_ + 50 x_19_ * x_16_ - 26 x_23_ * x_16_ + 60 x_48_ * x_16_ - 42 x_20_ * x_17_ + 26 x_34_ * x_17_ - 68 x_40_ * x_17_ + 39 x_20_ ^ 2 - 46 x_34_ * x_20_ - 56 x_40_ * x_20_ - 60 x_41_ * x_20_ - 36 x_46_ * x_20_ - 74 x_23_ * x_22_ + 94 x_34_ * x_22_ - 70 x_38_ * x_23_ + 68 x_41_ * x_23_ + 18 x_48_ * x_23_ - 4 x_49_ * x_23_ - 88 x_31_ * x_25_ + 20 x_44_ * x_25_ - 4 x_41_ * x_31_ - 48 x_46_ * x_31_ + 64 x_49_ * x_31_ - 32 x_40_ * x_34_ + 68 x_46_ * x_34_ + 16 x_48_ * x_34_ - 76 x_46_ * x_38_ - 3 x_40_ ^ 2 - 62 x_49_ * x_40_ - 44 x_48_ * x_41_ - 54 x_49_ * x_41_ - 50 x_46_ * x_44_ + 72 x_48_ * x_44_ ] >= 14611
quadratic_ranged_17_lb: [ 82 x_17_ * x_13_ - 30 x_24_ * x_14_ - 50 x_15_ ^ 2 + 38 x_18_ * x_15_ + 78 x_18_ * x_17_ + 28 x_50_ * x_18_ + 60 x_24_ * x_22_ - 98 x_44_ * x_22_ + 86 x_44_ * x_24_ + 42 x_44_ ^ 2 ] >= -6300
quadratic_ranged_18_lb: [ -18 x_1_ ^ 2 + 48 x_37_ * x_1_ + 38 x_5_ ^ 2 - 2 x_25_ * x_5_ - 44 x_25_ * x_6_ + 44 x_18_ * x_12_ + 62 x_42_ * x_12_ - 66 x_45_ * x_12_ + 86 x_50_ * x_12_ - 26 x_18_ ^ 2 - 44 x_30_ * x_18_ - 38 x_37_ * x_18_ - 8 x_45_ * x_25_ - 98 x_37_ * x_30_ - 20 x_39_ * x_37_ - 30 x_50_ * x_37_ + 32 x_45_ * x_39_ + 32 x_42_ ^ 2 ] >= 2430
quadratic_ranged_19_lb: [ -40 x_46_ * x_7_ - 36 x_38_ * x_16_ - 84 x_48_ * x_16_ - 48 x_17_ ^ 2 + 90 x_18_ * x_17_ + 29 x_18_ ^ 2 + 22 x_38_ * x_18_ + 6 x_39_ * x_18_ + 46 x_46_ * x_18_ + 60 x_50_ * x_23_ - 86 x_39_ * x_38_ - 92 x_46_ * x_38_ - 60 x_50_ * x_46_ - 18 x_50_ * x_48_ ] >= 7708
c1: [ -32 x_8_ * x_1_ - 41 x_8_ ^ 2 + 76 x_12_ * x_8_ - 28 x_25_ * x_8_ - 62 x_32_ * x_8_ + 48 x_18_ ^ 2 + 46 x_45_ * x_18_ - 34 x_32_ * x_25_ + 11 x_32_ ^ 2 - 96 x_41_ * x_33_ - 48 x_41_ ^ 2 ] = 5106
c2: [ -34 x_9_ ^ 2 + 40 x_13_ * x_9_ + 37 x_47_ ^ 2 ] = -1518
c3: [ -88 x_3_ * x_1_ + 64 x_13_ * x_1_ - 38 x_15_ * x_1_ - 54 x_37_ * x_1_ + 23 x_3_ ^ 2 + 16 x_13_ * x_11_ + 74 x_19_ * x_11_ - 8 x_31_ * x_11_ + 36 x_37_ * x_11_ - 98 x_16_ * x_13_ - 26 x_21_ * x_15_ - 10 x_47_ * x_15_ + 62 x_20_ * x_16_ - 6 x_26_ * x_16_ + 56 x_47_ * x_19_ ] = -11493
c4: [ -96 x_17_ * x_6_ - 38 x_38_ * x_6_ - 29 x_38_ ^ 2 ] = 2436
c5: [ -80 x_12_ * x_2_ - 92 x_18_ * x_12_ + 94 x_44_ * x_12_ - 10 x_35_ * x_15_ + 42 x_47_ * x_15_ - 20 x_44_ * x_23_ - 74 x_49_ * x_23_ + 6 x_35_ ^ 2 + 4 x_47_ * x_35_ - 54 x_49_ * x_39_ ] = -4408
c6: [ -42 x_46_ * x_4_ + 46 x_23_ * x_10_ - 30 x_24_ * x_10_ + 46 x_37_ * x_10_ - 36 x_46_ * x_23_ + 6 x_46_ * x_24_ - 29 x_26_ ^ 2 - 46 x_46_ * x_26_ - 11 x_30_ ^ 2 + 68 x_37_ * x_30_ + 4 x_46_ * x_37_ - 25 x_46_ ^ 2 ] = -3443
c7: [ -66 x_4_ * x_1_ + 38 x_6_ * x_1_ + 10 x_6_ * x_4_ - 52 x_8_ * x_4_ - 10 x_21_ * x_4_ + 10 x_46_ * x_4_ + 8 x_27_ * x_6_ - 6 x_41_ * x_6_ + 44 x_10_ ^ 2 - 94 x_21_ * x_10_ - 42 x_40_ * x_10_ - 74 x_41_ * x_10_ - 22 x_46_ * x_10_ + 32 x_41_ * x_21_ + 16 x_40_ * x_38_ + 4 x_41_ * x_40_ + 48 x_41_ ^ 2 - 2 x_46_ ^ 2 ] = -618
c8: [ -18 x_2_ ^ 2 + 98 x_12_ * x_2_ - 26 x_16_ * x_2_ - 52 x_18_ * x_9_ - 92 x_47_ * x_9_ - 38 x_12_ * x_10_ + 13 x_16_ ^ 2 - 52 x_18_ * x_16_ - 12 x_23_ * x_17_ - 68 x_38_ * x_18_ + 68 x_47_ * x_26_ - 41 x_34_ ^ 2 ] = -1557
c9: [ 8 x_1_ ^ 2 + 86 x_15_ * x_1_ - 18 x_27_ * x_1_ + 30 x_40_ * x_1_ + 48 x_47_ * x_1_ - 24 x_22_ * x_2_ + 44 x_27_ * x_2_ + 90 x_47_ * x_2_ + 94 x_13_ * x_4_ - 2 x_15_ * x_4_ - 100 x_16_ * x_4_ - 38 x_15_ * x_5_ + 19 x_13_ ^ 2 + 8 x_15_ * x_13_ + 4 x_40_ * x_15_ + 14 x_49_ * x_15_ - 60 x_47_ * x_16_ + 4 x_29_ * x_22_ + 12 x_37_ * x_22_ + 100 x_40_ * x_22_ + 82 x_37_ * x_27_ + 86 x_48_ * x_27_ + 18 x_29_ ^ 2 - 50 x_37_ * x_31_ - 14 x_48_ * x_37_ - 12 x_40_ ^ 2 - 32 x_49_ * x_40_ - 40 x_48_ * x_47_ - 20 x_49_ * x_48_ ] = -15824
c10: [ 10 x_8_ ^ 2 - 66 x_10_ * x_8_ + 4 x_23_ * x_8_ + 100 x_49_ * x_8_ + 56 x_20_ * x_10_ - 18 x_12_ ^ 2 + 12 x_28_ * x_12_ - 64 x_49_ * x_23_ - 11 x_28_ ^ 2 + 35 x_30_ ^ 2 - 30 x_48_ * x_30_ ] = -6847
c11: [ -24 x_5_ ^ 2 + 94 x_7_ * x_5_ + 46 x_14_ * x_5_ - 88 x_43_ * x_5_ + 98 x_41_ * x_7_ - 42 x_16_ ^ 2 + 20 x_32_ * x_16_ + 16 x_34_ * x_16_ - 90 x_42_ * x_16_ + 50 x_43_ * x_16_ + 54 x_34_ * x_32_ + 20 x_43_ * x_32_ - 6 x_42_ * x_41_ ] = 2714
c12: [ -4 x_20_ ^ 2 - 28 x_27_ * x_20_ - 31 x_27_ ^ 2 + 14 x_41_ * x_27_ - 38 x_41_ * x_40_ - 8 x_44_ * x_40_ - 92 x_46_ * x_41_ ] = 395
c13: [ 58 x_34_ * x_13_ - 92 x_28_ * x_17_ + 22 x_34_ * x_26_ - 8 x_34_ * x_28_ + 80 x_34_ * x_31_ + 13 x_34_ ^ 2 ] = 984
c14: [ -90 x_12_ * x_3_ - 92 x_49_ * x_3_ - 50 x_7_ ^ 2 - 62 x_45_ * x_7_ - 56 x_48_ * x_7_ + 40 x_19_ * x_10_ + 20 x_25_ ^ 2 - 28 x_45_ * x_33_ ] = 966
c15: [ 58 x_2_ * x_1_ - 54 x_38_ * x_1_ - 40 x_2_ ^ 2 - 3 x_10_ ^ 2 - 88 x_45_ * x_10_ + 82 x_32_ * x_14_ - 12 x_32_ * x_17_ - 28 x_38_ ^ 2 - 26 x_40_ * x_38_ - 54 x_45_ * x_38_ - 52 x_48_ * x_38_ + 44 x_42_ * x_40_ - 42 x_48_ * x_45_ ] = 5250
c16: [ -22 x_7_ * x_3_ + 68 x_10_ * x_3_ + 98 x_11_ * x_3_ - 2 x_34_ * x_3_ + 66 x_11_ * x_4_ + 42 x_7_ ^ 2 - 6 x_23_ * x_7_ - 68 x_32_ * x_7_ - 84 x_47_ * x_7_ + 98 x_49_ * x_7_ + 28 x_32_ * x_10_ + 46 x_34_ * x_10_ - 70 x_23_ * x_11_ - 44 x_44_ * x_11_ - 26 x_45_ * x_11_ + 70 x_49_ * x_11_ + 84 x_35_ * x_23_ - 64 x_34_ * x_32_ - 52 x_45_ * x_34_ - 7 x_35_ ^ 2 + 10 x_47_ * x_44_ + 22 x_45_ ^ 2 ] = -16806
c17: [ 46 x_42_ * x_7_ - 30 x_23_ ^ 2 - 46 x_27_ * x_23_ - 52 x_37_ * x_23_ - 48 x_42_ * x_23_ - 6 x_46_ * x_27_ + 28 x_42_ ^ 2 + 13 x_46_ ^ 2 ] = 1115
c18: [ -56 x_24_ * x_13_ - 70 x_31_ * x_13_ - 90 x_30_ * x_16_ - 38 x_31_ * x_18_ + 62 x_49_ * x_18_ + 90 x_37_ * x_24_ + 10 x_37_ * x_27_ + 45 x_30_ ^ 2 - 30 x_38_ * x_30_ - 12 x_31_ ^ 2 + 38 x_49_ * x_31_ + 22 x_37_ ^ 2 + 24 x_49_ * x_38_ ] = 10057
c19: [ -14 x_30_ * x_1_ + 96 x_31_ * x_1_ - 40 x_45_ * x_1_ - 64 x_46_ * x_1_ + 16 x_31_ * x_10_ + 40 x_46_ * x_10_ + 9 x_21_ ^ 2 + 38 x_31_ * x_21_ + 38 x_42_ * x_21_ - 56 x_31_ * x_30_ - 44 x_32_ * x_31_ - 38 x_46_ * x_31_ - 20 x_45_ * x_42_ - 94 x_48_ * x_42_ ] = -7255
c20: [ -84 x_19_ * x_13_ - 24 x_19_ * x_15_ + 38 x_34_ * x_19_ + 12 x_43_ * x_22_ - 38 x_34_ ^ 2 + 4 x_44_ ^ 2 ] = -9936
c21: [ -88 x_6_ * x_4_ + 62 x_31_ * x_4_ - 12 x_34_ * x_4_ - 84 x_50_ * x_4_ - 5 x_5_ ^ 2 - 88 x_9_ * x_5_ - 12 x_20_ * x_5_ + 8 x_34_ * x_5_ - 20 x_34_ * x_6_ + 32 x_9_ ^ 2 + 2 x_34_ * x_9_ - 25 x_13_ ^ 2 + 82 x_19_ * x_13_ + 12 x_20_ * x_13_ - 70 x_34_ * x_13_ + 60 x_43_ * x_13_ - 86 x_50_ * x_13_ - 40 x_20_ * x_19_ + 40 x_34_ * x_20_ - 76 x_39_ * x_31_ + 98 x_43_ * x_39_ - 47 x_50_ ^ 2 ] = 15565
c22: [ 16 x_2_ ^ 2 + 76 x_20_ * x_2_ - 20 x_22_ * x_2_ + 10 x_45_ * x_2_ - 74 x_45_ * x_20_ - 96 x_34_ * x_31_ + 44 x_45_ * x_31_ + 27 x_34_ ^ 2 - 48 x_45_ ^ 2 ] = -466
c23: [ 100 x_21_ * x_2_ + 44 x_20_ ^ 2 + 62 x_37_ * x_20_ + 30 x_30_ * x_21_ - 50 x_37_ * x_21_ + 62 x_47_ * x_28_ + 34 x_30_ ^ 2 ] = 562
c24: [ 26 x_22_ * x_3_ - 36 x_37_ * x_3_ - 86 x_48_ * x_3_ - 98 x_37_ * x_4_ - 72 x_48_ * x_4_ + 34 x_49_ * x_4_ + 50 x_41_ * x_18_ - 18 x_48_ * x_22_ - 36 x_41_ * x_33_ - 58 x_49_ * x_33_ - 28 x_48_ * x_41_ + 18 x_48_ ^ 2 + 9 x_49_ ^ 2 ] = -15195
c25: [ -2 x_9_ * x_1_ - 32 x_37_ * x_9_ - 30 x_40_ * x_9_ - 84 x_45_ * x_9_ + 4 x_49_ * x_9_ - 8 x_40_ * x_38_ + 49 x_40_ ^ 2 - 82 x_45_ * x_40_ - 78 x_45_ * x_44_ - 28 x_47_ * x_44_ + 18 x_47_ * x_45_ ] = 2436
c26: [ 70 x_25_ * x_7_ + 6 x_8_ ^ 2 + 86 x_26_ * x_8_ + 24 x_33_ * x_8_ - 16 x_42_ * x_8_ - 34 x_50_ * x_8_ - 56 x_26_ * x_13_ - 18 x_33_ * x_13_ - 4 x_42_ * x_13_ + 27 x_29_ ^ 2 + 72 x_33_ * x_29_ - 100 x_42_ * x_29_ - 32 x_33_ ^ 2 ] = 11009
c27: [ -66 x_50_ * x_3_ - 18 x_32_ * x_20_ - 54 x_50_ * x_20_ - 34 x_23_ ^ 2 + 82 x_35_ * x_23_ + 32 x_32_ ^ 2 + 94 x_47_ * x_40_ ] = -930
c28: [ 68 x_6_ * x_42_ + 88 x_50_ * x_20_ + 18 x_42_ * x_30_ - 66 x_50_ * x_30_ ] = -3590
c29: [ -32 x_2_ ^ 2 + 48 x_26_ * x_2_ + 74 x_30_ * x_2_ + 8 x_6_ * x_4_ - 4 x_16_ * x_4_ + 38 x_34_ * x_4_ + 80 x_49_ * x_4_ + 20 x_16_ * x_6_ - 66 x_23_ * x_6_ + 86 x_24_ * x_6_ - 22 x_26_ * x_23_ + 100 x_34_ * x_23_ + 92 x_26_ * x_24_ - 21 x_26_ ^ 2 + 28 x_50_ * x_26_ + 9 x_48_ ^ 2 ] = 2586
c30: [ -2 x_2_ ^ 2 - 8 x_23_ * x_2_ + 90 x_32_ * x_19_ + 80 x_32_ * x_23_ ] = -3810
c31: [ 60 x_26_ * x_1_ + 78 x_50_ * x_1_ + 88 x_5_ * x_3_ - 92 x_8_ * x_3_ + 86 x_9_ * x_3_ - 40 x_40_ * x_3_ - 34 x_45_ * x_3_ + 24 x_5_ * x_4_ + 26 x_11_ * x_4_ - 30 x_24_ * x_4_ - 68 x_26_ * x_4_ + 34 x_44_ * x_4_ + 56 x_14_ * x_8_ - 41 x_9_ ^ 2 + 92 x_24_ * x_9_ - 10 x_48_ * x_9_ + 100 x_26_ * x_11_ + 52 x_44_ * x_11_ - 74 x_44_ * x_20_ + 42 x_24_ ^ 2 + 32 x_48_ * x_24_ + 24 x_48_ ^ 2 - 9 x_50_ ^ 2 ] = 17652
Bounds
-10 <= x_1_ <= -7
-8 <= x_2_ <= -1
-9 <= x_3_ <= 9
-10 <= x_4_ <= -8
-6 <= x_5_ <= 7
7 <= x_6_ <= 10
-10 <= x_7_ <= -3
8 <= x_8_ <= 10
-8 <= x_9_ <= -5
9 <= x_10_ <= 10
-7 <= x_11_ <= 6
-2 <= x_12_ <= 3
-2 <= x_13_ <= 10
-10 <= x_14_ <= -2
-10 <= x_15_ <= 9
x_16_ = -3
-7 <= x_17_ <= 10
-7 <= x_18_ <= 10
-1 <= x_19_ <= 10
0 <= x_20_ <= 6
-6 <= x_21_ <= 3
-7 <= x_22_ <= 5
-5 <= x_23_ <= -4
-10 <= x_24_ <= -3
-8 <= x_25_ <= 7
-6 <= x_26_ <= 4
-3 <= x_27_ <= 2
-4 <= x_28_ <= 4
1 <= x_29_ <= 9
-9 <= x_30_ <= 10
-10 <= x_31_ <= 3
-9 <= x_32_ <= -6
2 <= x_33_ <= 8
-5 <= x_34_ <= -1
6 <= x_35_ <= 9
-6 <= x_36_ <= 7
-6 <= x_37_ <= 4
1 <= x_38_ <= 10
-10 <= x_39_ <= -5
4 <= x_40_ <= 9
-8 <= x_41_ <= 8
-10 <= x_42_ <= 2
-9 <= x_43_ <= 7
-8 <= x_44_ <= 6
-6 <= x_45_ <= 8
-7 <= x_46_ <= -3
-10 <= x_47_ <= 2
-9 <= x_48_ <= -2
-1 <= x_49_ <= 0
-4 <= x_50_ <= 10
General
x_1_
x_2_
x_3_
x_4_
x_5_
x_6_
x_7_
x_8_
x_9_
x_10_
x_11_
x_12_
x_13_
x_14_
x_15_
x_16_
x_17_
x_18_
x_19_
x_20_
x_21_
x_22_
x_23_
x_24_
x_25_
x_26_
x_27_
x_28_
x_29_
x_30_
x_31_
x_32_
x_33_
x_34_
x_35_
x_36_
x_37_
x_38_
x_39_
x_40_
x_41_
x_42_
x_43_
x_44_
x_45_
x_46_
x_47_
x_48_
x_49_
x_50_
End
