minimize
obj: 15 x_1_ + 8 x_3_ - 11 x_6_ + 34 x_18_ - 11 x_19_ + 41 x_36_ + 4 x_39_ + 3 x_46_
subject to
affine_ranged_1_ub: -25 x_34_ - 14 x_36_ + 43 x_38_ - 44 x_44_ <= 121
affine_ranged_2_ub: 39 x_3_ <= 390
quadratic_ranged_1_ub: 11 x_23_ + [ -26 x_1_ ^ 2 - 16 x_47_ ^ 2 ] <= -1590
quadratic_ranged_2_ub: -44 x_12_ + 35 x_40_ + [ -40 x_34_ ^ 2 + 39 x_48_ ^ 2 ] <= -4506
quadratic_ranged_3_ub: -6 x_20_ + 27 x_34_ + [ -7 x_11_ ^ 2 + 12 x_20_ ^ 2 - 3 x_23_ ^ 2 ] <= -494
quadratic_ranged_4_ub: -30 x_22_ - 37 x_23_ + 8 x_31_ + 19 x_40_ + [ 40 x_4_ ^ 2 + 39 x_22_ ^ 2 - 12 x_40_ ^ 2 ] <= 795
quadratic_ranged_5_ub: -3 x_19_ + [ -9 x_6_ ^ 2 + 39 x_19_ ^ 2 ] <= 3052
quadratic_ranged_6_ub: -50 x_1_ + 21 x_2_ - 13 x_14_ + 50 x_22_ + 35 x_27_ + 42 x_30_ + 15 x_41_ + [ -1 x_32_ ^ 2 ] <= -181
quadratic_ranged_7_ub: 21 x_24_ + 45 x_37_ + [ 15 x_24_ ^ 2 + 50 x_37_ ^ 2 - 7 x_40_ ^ 2 ] <= 5178
quadratic_ranged_8_ub: 42 x_42_ + [ -50 x_37_ ^ 2 ] <= -3963
quadratic_ranged_9_ub: 5 x_7_ + 2 x_11_ + 12 x_23_ + [ -17 x_11_ ^ 2 ] <= -490
quadratic_ranged_10_ub: 18 x_41_ + [ -20 x_6_ ^ 2 - 35 x_19_ ^ 2 ] <= -3028
quadratic_ranged_11_ub: -31 x_32_ - 49 x_40_ + [ -10 x_37_ ^ 2 - 23 x_41_ ^ 2 + 3 x_46_ ^ 2 ] <= -369
quadratic_ranged_12_ub: 29 x_21_ + [ 1 x_28_ ^ 2 ] <= -50
quadratic_ranged_13_ub: -42 x_1_ - 40 x_29_ - 41 x_30_ + 2 x_44_ + [ -44 x_1_ ^ 2 + 46 x_11_ ^ 2 - 21 x_12_ ^ 2 ] <= -3567
quadratic_ranged_14_ub: 16 x_14_ + 9 x_26_ - 39 x_27_ - 18 x_45_ + [ -36 x_14_ ^ 2 - 25 x_45_ ^ 2 ] <= -505
quadratic_ranged_15_ub: [ 19 x_1_ ^ 2 ] <= 1221
quadratic_ranged_16_ub: [ 22 x_47_ ^ 2 ] <= 24
quadratic_ranged_17_ub: 26 x_14_ - 15 x_39_ - 30 x_45_ + [ 41 x_30_ ^ 2 + 1 x_40_ ^ 2 ] <= 3389
quadratic_ranged_18_ub: -1 x_34_ + [ 12 x_28_ ^ 2 + 15 x_34_ ^ 2 + 44 x_40_ ^ 2 ] <= 5125
quadratic_ranged_19_ub: 21 x_8_ - 21 x_17_ + [ -30 x_8_ ^ 2 - 23 x_46_ ^ 2 ] <= -2269
quadratic_ranged_20_ub: 38 x_26_ - 44 x_32_ + [ 26 x_9_ ^ 2 + 20 x_28_ ^ 2 ] <= 473
quadratic_ranged_21_ub: -45 x_27_ - 39 x_39_ - 50 x_48_ + [ 39 x_20_ ^ 2 ] <= 1389
quadratic_ranged_22_ub: -49 x_33_ + [ 35 x_24_ ^ 2 + 30 x_48_ ^ 2 ] <= 3621
quadratic_ranged_23_ub: 13 x_5_ - 28 x_19_ - 43 x_20_ - 34 x_24_ - 45 x_49_ + [ -25 x_3_ ^ 2 + 5 x_6_ ^ 2 + 44 x_9_ ^ 2 + 8 x_19_ ^ 2 + 13 x_26_ ^ 2 + 30 x_43_ ^ 2 ] <= 202
quadratic_ranged_24_ub: 26 x_6_ - 27 x_22_ - 41 x_25_ - 14 x_27_ - 30 x_33_ - 43 x_44_ + [ 19 x_27_ ^ 2 ] <= 578
quadratic_ranged_25_ub: -43 x_10_ - 17 x_15_ + [ 8 x_10_ ^ 2 - 42 x_28_ ^ 2 ] <= -148
quadratic_ranged_26_ub: 33 x_9_ + 10 x_40_ + [ -6 x_13_ ^ 2 ] <= -438
quadratic_ranged_27_ub: 23 x_3_ - 10 x_13_ + 27 x_35_ + [ -47 x_43_ ^ 2 ] <= -744
quadratic_ranged_28_ub: -24 x_32_ + [ -2 x_19_ ^ 2 - 29 x_27_ ^ 2 - 7 x_42_ ^ 2 ] <= -1329
quadratic_ranged_29_ub: 32 x_12_ + 36 x_30_ + [ -32 x_1_ ^ 2 ] <= -1465
quadratic_ranged_30_ub: 41 x_36_ + [ 40 x_3_ ^ 2 ] <= 3759
quadratic_ranged_31_ub: [ 50 x_31_ ^ 2 - 6 x_42_ ^ 2 + 1 x_47_ ^ 2 ] <= 2429
quadratic_ranged_32_ub: -35 x_15_ + [ -15 x_21_ ^ 2 + 39 x_35_ ^ 2 - 48 x_47_ ^ 2 ] <= 1369
quadratic_ranged_33_ub: -42 x_6_ - 2 x_37_ + [ 7 x_6_ ^ 2 ] <= -77
quadratic_ranged_34_ub: -37 x_10_ + 21 x_36_ + 27 x_44_ + 1 x_48_ + [ -46 x_19_ ^ 2 ] <= -4065
quadratic_ranged_35_ub: [ 10 x_14_ ^ 2 + 14 x_35_ ^ 2 ] <= 665
quadratic_ranged_36_ub: 25 x_5_ - 47 x_14_ + [ -4 x_26_ ^ 2 ] <= 202
quadratic_ranged_37_ub: -47 x_3_ + [ 31 x_8_ ^ 2 - 47 x_30_ ^ 2 ] <= -3158
quadratic_ranged_38_ub: 25 x_18_ + 49 x_40_ - 17 x_43_ + [ -24 x_17_ ^ 2 + 45 x_30_ ^ 2 ] <= 1243
quadratic_ranged_39_ub: 2 x_23_ - 10 x_25_ + [ 9 x_6_ ^ 2 + 48 x_8_ ^ 2 + 10 x_41_ ^ 2 + 9 x_44_ ^ 2 + 26 x_48_ ^ 2 - 48 x_50_ ^ 2 ] <= 1090
quadratic_ranged_40_ub: -18 x_30_ + 1 x_49_ + [ -8 x_7_ ^ 2 - 26 x_9_ ^ 2 - 12 x_24_ ^ 2 - 48 x_30_ ^ 2 - 44 x_38_ ^ 2 - 31 x_49_ ^ 2 ] <= -9163
quadratic_ranged_41_ub: -12 x_9_ + 27 x_46_ + 14 x_48_ + [ -19 x_10_ ^ 2 - 18 x_18_ ^ 2 - 40 x_20_ ^ 2 - 12 x_23_ ^ 2 + 36 x_31_ ^ 2 ] <= 22
quadratic_ranged_42_ub: 42 x_22_ - 41 x_48_ + [ -47 x_23_ ^ 2 - 16 x_28_ ^ 2 - 32 x_38_ ^ 2 ] <= -4222
quadratic_ranged_43_ub: 50 x_31_ + 29 x_34_ + [ -20 x_17_ ^ 2 + 22 x_20_ ^ 2 + 39 x_34_ ^ 2 ] <= 2696
quadratic_ranged_44_ub: -36 x_12_ + 44 x_34_ + [ 34 x_3_ ^ 2 - 2 x_27_ ^ 2 - 40 x_36_ ^ 2 ] <= 1165
quadratic_ranged_45_ub: 33 x_10_ + [ -12 x_10_ ^ 2 - 28 x_27_ ^ 2 ] <= -1143
quadratic_ranged_46_ub: -21 x_4_ - 4 x_9_ - 44 x_50_ + [ -28 x_8_ ^ 2 + 42 x_9_ ^ 2 ] <= 4
quadratic_ranged_47_ub: 1 x_3_ + 32 x_9_ + 34 x_24_ + 12 x_36_ + [ -18 x_3_ ^ 2 + 8 x_9_ ^ 2 - 46 x_47_ ^ 2 ] <= -2248
affine_ranged_1_lb: -25 x_34_ - 14 x_36_ + 43 x_38_ - 44 x_44_ >= 119
affine_ranged_2_lb: 39 x_3_ >= 387
quadratic_ranged_1_lb: 11 x_23_ + [ -26 x_1_ ^ 2 - 16 x_47_ ^ 2 ] >= -1593
quadratic_ranged_2_lb: -44 x_12_ + 35 x_40_ + [ -40 x_34_ ^ 2 + 39 x_48_ ^ 2 ] >= -4512
quadratic_ranged_3_lb: -6 x_20_ + 27 x_34_ + [ -7 x_11_ ^ 2 + 12 x_20_ ^ 2 - 3 x_23_ ^ 2 ] >= -501
quadratic_ranged_4_lb: -30 x_22_ - 37 x_23_ + 8 x_31_ + 19 x_40_ + [ 40 x_4_ ^ 2 + 39 x_22_ ^ 2 - 12 x_40_ ^ 2 ] >= 788
quadratic_ranged_5_lb: -3 x_19_ + [ -9 x_6_ ^ 2 + 39 x_19_ ^ 2 ] >= 3046
quadratic_ranged_6_lb: -50 x_1_ + 21 x_2_ - 13 x_14_ + 50 x_22_ + 35 x_27_ + 42 x_30_ + 15 x_41_ + [ -1 x_32_ ^ 2 ] >= -188
quadratic_ranged_7_lb: 21 x_24_ + 45 x_37_ + [ 15 x_24_ ^ 2 + 50 x_37_ ^ 2 - 7 x_40_ ^ 2 ] >= 5174
quadratic_ranged_8_lb: 42 x_42_ + [ -50 x_37_ ^ 2 ] >= -3966
quadratic_ranged_9_lb: 5 x_7_ + 2 x_11_ + 12 x_23_ + [ -17 x_11_ ^ 2 ] >= -496
quadratic_ranged_10_lb: 18 x_41_ + [ -20 x_6_ ^ 2 - 35 x_19_ ^ 2 ] >= -3037
quadratic_ranged_11_lb: -31 x_32_ - 49 x_40_ + [ -10 x_37_ ^ 2 - 23 x_41_ ^ 2 + 3 x_46_ ^ 2 ] >= -371
quadratic_ranged_12_lb: 29 x_21_ + [ 1 x_28_ ^ 2 ] >= -57
quadratic_ranged_13_lb: -42 x_1_ - 40 x_29_ - 41 x_30_ + 2 x_44_ + [ -44 x_1_ ^ 2 + 46 x_11_ ^ 2 - 21 x_12_ ^ 2 ] >= -3573
quadratic_ranged_14_lb: 16 x_14_ + 9 x_26_ - 39 x_27_ - 18 x_45_ + [ -36 x_14_ ^ 2 - 25 x_45_ ^ 2 ] >= -507
quadratic_ranged_15_lb: [ 19 x_1_ ^ 2 ] >= 1212
quadratic_ranged_16_lb: [ 22 x_47_ ^ 2 ] >= 17
quadratic_ranged_17_lb: 26 x_14_ - 15 x_39_ - 30 x_45_ + [ 41 x_30_ ^ 2 + 1 x_40_ ^ 2 ] >= 3387
quadratic_ranged_18_lb: -1 x_34_ + [ 12 x_28_ ^ 2 + 15 x_34_ ^ 2 + 44 x_40_ ^ 2 ] >= 5117
quadratic_ranged_19_lb: 21 x_8_ - 21 x_17_ + [ -30 x_8_ ^ 2 - 23 x_46_ ^ 2 ] >= -2274
quadratic_ranged_20_lb: 38 x_26_ - 44 x_32_ + [ 26 x_9_ ^ 2 + 20 x_28_ ^ 2 ] >= 468
quadratic_ranged_21_lb: -45 x_27_ - 39 x_39_ - 50 x_48_ + [ 39 x_20_ ^ 2 ] >= 1383
quadratic_ranged_22_lb: -49 x_33_ + [ 35 x_24_ ^ 2 + 30 x_48_ ^ 2 ] >= 3617
quadratic_ranged_23_lb: 13 x_5_ - 28 x_19_ - 43 x_20_ - 34 x_24_ - 45 x_49_ + [ -25 x_3_ ^ 2 + 5 x_6_ ^ 2 + 44 x_9_ ^ 2 + 8 x_19_ ^ 2 + 13 x_26_ ^ 2 + 30 x_43_ ^ 2 ] >= 194
quadratic_ranged_24_lb: 26 x_6_ - 27 x_22_ - 41 x_25_ - 14 x_27_ - 30 x_33_ - 43 x_44_ + [ 19 x_27_ ^ 2 ] >= 573
quadratic_ranged_25_lb: -43 x_10_ - 17 x_15_ + [ 8 x_10_ ^ 2 - 42 x_28_ ^ 2 ] >= -154
quadratic_ranged_26_lb: 33 x_9_ + 10 x_40_ + [ -6 x_13_ ^ 2 ] >= -439
quadratic_ranged_27_lb: 23 x_3_ - 10 x_13_ + 27 x_35_ + [ -47 x_43_ ^ 2 ] >= -748
quadratic_ranged_28_lb: -24 x_32_ + [ -2 x_19_ ^ 2 - 29 x_27_ ^ 2 - 7 x_42_ ^ 2 ] >= -1335
quadratic_ranged_29_lb: 32 x_12_ + 36 x_30_ + [ -32 x_1_ ^ 2 ] >= -1469
quadratic_ranged_30_lb: 41 x_36_ + [ 40 x_3_ ^ 2 ] >= 3752
quadratic_ranged_31_lb: [ 50 x_31_ ^ 2 - 6 x_42_ ^ 2 + 1 x_47_ ^ 2 ] >= 2423
quadratic_ranged_32_lb: -35 x_15_ + [ -15 x_21_ ^ 2 + 39 x_35_ ^ 2 - 48 x_47_ ^ 2 ] >= 1363
quadratic_ranged_33_lb: -42 x_6_ - 2 x_37_ + [ 7 x_6_ ^ 2 ] >= -81
quadratic_ranged_34_lb: -37 x_10_ + 21 x_36_ + 27 x_44_ + 1 x_48_ + [ -46 x_19_ ^ 2 ] >= -4068
quadratic_ranged_35_lb: [ 10 x_14_ ^ 2 + 14 x_35_ ^ 2 ] >= 664
quadratic_ranged_36_lb: 25 x_5_ - 47 x_14_ + [ -4 x_26_ ^ 2 ] >= 195
quadratic_ranged_37_lb: -47 x_3_ + [ 31 x_8_ ^ 2 - 47 x_30_ ^ 2 ] >= -3165
quadratic_ranged_38_lb: 25 x_18_ + 49 x_40_ - 17 x_43_ + [ -24 x_17_ ^ 2 + 45 x_30_ ^ 2 ] >= 1239
quadratic_ranged_39_lb: 2 x_23_ - 10 x_25_ + [ 9 x_6_ ^ 2 + 48 x_8_ ^ 2 + 10 x_41_ ^ 2 + 9 x_44_ ^ 2 + 26 x_48_ ^ 2 - 48 x_50_ ^ 2 ] >= 1086
quadratic_ranged_40_lb: -18 x_30_ + 1 x_49_ + [ -8 x_7_ ^ 2 - 26 x_9_ ^ 2 - 12 x_24_ ^ 2 - 48 x_30_ ^ 2 - 44 x_38_ ^ 2 - 31 x_49_ ^ 2 ] >= -9170
quadratic_ranged_41_lb: -12 x_9_ + 27 x_46_ + 14 x_48_ + [ -19 x_10_ ^ 2 - 18 x_18_ ^ 2 - 40 x_20_ ^ 2 - 12 x_23_ ^ 2 + 36 x_31_ ^ 2 ] >= 13
quadratic_ranged_42_lb: 42 x_22_ - 41 x_48_ + [ -47 x_23_ ^ 2 - 16 x_28_ ^ 2 - 32 x_38_ ^ 2 ] >= -4226
quadratic_ranged_43_lb: 50 x_31_ + 29 x_34_ + [ -20 x_17_ ^ 2 + 22 x_20_ ^ 2 + 39 x_34_ ^ 2 ] >= 2688
quadratic_ranged_44_lb: -36 x_12_ + 44 x_34_ + [ 34 x_3_ ^ 2 - 2 x_27_ ^ 2 - 40 x_36_ ^ 2 ] >= 1159
quadratic_ranged_45_lb: 33 x_10_ + [ -12 x_10_ ^ 2 - 28 x_27_ ^ 2 ] >= -1148
quadratic_ranged_46_lb: -21 x_4_ - 4 x_9_ - 44 x_50_ + [ -28 x_8_ ^ 2 + 42 x_9_ ^ 2 ] >= -2
quadratic_ranged_47_lb: 1 x_3_ + 32 x_9_ + 34 x_24_ + 12 x_36_ + [ -18 x_3_ ^ 2 + 8 x_9_ ^ 2 - 46 x_47_ ^ 2 ] >= -2249
c1_1: 14 x_5_ = 42
c2_1: -28 x_4_ - 49 x_11_ + 1 x_18_ - 25 x_31_ = 317
c3_1: -11 x_24_ + 49 x_38_ = -184
c4_1: 19 x_40_ = -171
c5_1: 41 x_18_ + 16 x_35_ - 48 x_36_ = 274
c6_1: -20 x_4_ - 23 x_40_ = 347
c7_1: -26 x_44_ = 26
c1: 6 x_28_ + [ 14 x_37_ ^ 2 ] = 1146
c2: -47 x_25_ + [ 15 x_22_ ^ 2 - 39 x_47_ ^ 2 ] = -402
c3: -39 x_4_ - 45 x_37_ - 47 x_45_ + [ 7 x_24_ ^ 2 - 34 x_37_ ^ 2 - 31 x_41_ ^ 2 ] = -2311
c4: -13 x_13_ + 18 x_40_ + [ 43 x_14_ ^ 2 + 8 x_40_ ^ 2 ] = 1096
c5: [ -26 x_1_ ^ 2 + 42 x_2_ ^ 2 ] = -152
c6: -42 x_11_ + 40 x_22_ + [ 43 x_30_ ^ 2 ] = 3655
c7: -27 x_18_ + 21 x_25_ - 21 x_50_ + [ 45 x_18_ ^ 2 + 44 x_31_ ^ 2 - 21 x_32_ ^ 2 + 50 x_50_ ^ 2 ] = 3019
c8: [ -33 x_2_ ^ 2 ] = -1188
c9: -25 x_9_ - 10 x_38_ + [ -5 x_5_ ^ 2 - 7 x_12_ ^ 2 - 4 x_31_ ^ 2 ] = -529
c10: -49 x_4_ + 13 x_29_ - 41 x_37_ + [ 24 x_4_ ^ 2 - 2 x_5_ ^ 2 + 42 x_29_ ^ 2 ] = 4651
c11: -9 x_12_ + 37 x_18_ + [ 7 x_9_ ^ 2 - 14 x_12_ ^ 2 + 34 x_17_ ^ 2 - 48 x_45_ ^ 2 ] = 1780
c12: -41 x_9_ - 15 x_10_ - 12 x_26_ + [ -29 x_9_ ^ 2 + 22 x_26_ ^ 2 + 23 x_29_ ^ 2 - 9 x_47_ ^ 2 ] = 1783
c13: -8 x_10_ + 7 x_12_ - 45 x_41_ + 22 x_50_ + [ 18 x_3_ ^ 2 ] = 1773
c14: -40 x_8_ + [ 24 x_45_ ^ 2 ] = -144
c15: -30 x_35_ + [ -30 x_35_ ^ 2 ] = -900
c16: 29 x_15_ + [ -40 x_5_ ^ 2 - 37 x_15_ ^ 2 + 11 x_38_ ^ 2 ] = -170
c17: 11 x_25_ + 33 x_36_ + [ 41 x_25_ ^ 2 - 22 x_33_ ^ 2 ] = 3222
c18: -32 x_36_ + [ -50 x_29_ ^ 2 ] = -3858
c19: 31 x_35_ + [ 18 x_17_ ^ 2 + 13 x_45_ ^ 2 ] = 1324
c20: 44 x_24_ + [ -35 x_9_ ^ 2 + 3 x_11_ ^ 2 + 23 x_39_ ^ 2 - 44 x_43_ ^ 2 ] = 704
c21: 37 x_32_ + [ -41 x_8_ ^ 2 - 9 x_30_ ^ 2 + 11 x_50_ ^ 2 ] = -1881
c22: 25 x_40_ + 32 x_48_ + [ -18 x_31_ ^ 2 - 3 x_48_ ^ 2 ] = -1183
c23: 47 x_12_ - 50 x_18_ + 25 x_27_ + [ -7 x_12_ ^ 2 + 27 x_16_ ^ 2 - 37 x_26_ ^ 2 - 5 x_48_ ^ 2 ] = -907
c24: -22 x_8_ + [ -45 x_2_ ^ 2 + 33 x_8_ ^ 2 ] = -564
c25: -11 x_41_ + [ 27 x_4_ ^ 2 - 4 x_37_ ^ 2 ] = 1010
c26: 22 x_42_ + [ 20 x_17_ ^ 2 - 2 x_22_ ^ 2 ] = 1656
c27: 21 x_10_ - 27 x_12_ - 44 x_28_ - 3 x_30_ + [ 40 x_5_ ^ 2 + 46 x_13_ ^ 2 - 40 x_28_ ^ 2 ] = 1630
c28: 3 x_1_ - 41 x_3_ + [ -10 x_35_ ^ 2 ] = -746
c29: [ -1 x_41_ ^ 2 ] = -1
c30: -41 x_29_ + 2 x_32_ + [ -26 x_13_ ^ 2 - 15 x_26_ ^ 2 - 21 x_37_ ^ 2 ] = -3238
c31: 15 x_28_ + [ -2 x_6_ ^ 2 + 19 x_21_ ^ 2 - 45 x_22_ ^ 2 + 31 x_29_ ^ 2 ] = 2419
c32: 3 x_5_ + 15 x_20_ - 10 x_31_ - 38 x_36_ + [ 37 x_4_ ^ 2 ] = 1920
c33: -43 x_19_ - 8 x_33_ + 30 x_36_ + [ 26 x_4_ ^ 2 - 23 x_33_ ^ 2 ] = 707
c34: 46 x_6_ + 8 x_36_ + [ -41 x_7_ ^ 2 + 4 x_17_ ^ 2 + 24 x_22_ ^ 2 + 7 x_33_ ^ 2 + 26 x_39_ ^ 2 ] = 1101
c35: [ -35 x_29_ ^ 2 - 50 x_44_ ^ 2 ] = -2885
c36: 2 x_9_ - 24 x_39_ + [ 44 x_16_ ^ 2 ] = 276
c37: 29 x_18_ + 46 x_49_ + [ -40 x_5_ ^ 2 + 18 x_8_ ^ 2 - 49 x_19_ ^ 2 + 2 x_27_ ^ 2 + 33 x_50_ ^ 2 ] = -3345
c38: 4 x_26_ + 35 x_42_ - 9 x_49_ + [ -7 x_26_ ^ 2 + 15 x_28_ ^ 2 ] = 97
c39: 16 x_15_ - 45 x_25_ - 46 x_46_ + [ 40 x_19_ ^ 2 - 37 x_21_ ^ 2 - 30 x_37_ ^ 2 ] = -97
c40: -35 x_13_ - 2 x_47_ + [ 31 x_10_ ^ 2 ] = 563
c41: -16 x_47_ + [ 8 x_35_ ^ 2 ] = 272
c42: -2 x_20_ - 1 x_25_ + 4 x_28_ + [ -11 x_25_ ^ 2 + 3 x_43_ ^ 2 ] = -836
c43: -41 x_32_ + [ -8 x_11_ ^ 2 + 6 x_21_ ^ 2 + 46 x_46_ ^ 2 - 18 x_50_ ^ 2 ] = 1538
c44: [ 47 x_4_ ^ 2 + 30 x_13_ ^ 2 + 50 x_16_ ^ 2 ] = 3433
Bounds
5 <= x_1_ <= 10
-8 <= x_2_ <= 6
1 <= x_3_ <= 10
-10 <= x_4_ <= 3
3 <= x_5_ <= 4
x_6_ = 3
-6 <= x_7_ <= 7
-3 <= x_8_ <= 8
-10 <= x_9_ <= -3
0 <= x_10_ <= 8
-7 <= x_11_ <= 1
2 <= x_12_ <= 9
0 <= x_13_ <= 9
-8 <= x_14_ <= -3
-4 <= x_15_ <= 10
-9 <= x_16_ <= 3
0 <= x_17_ <= 10
-9 <= x_18_ <= 7
-9 <= x_19_ <= 10
-4 <= x_20_ <= 5
-3 <= x_21_ <= 2
-9 <= x_22_ <= 9
8 <= x_23_ <= 9
-10 <= x_24_ <= 8
9 <= x_25_ <= 10
-2 <= x_26_ <= 7
-8 <= x_27_ <= -2
-4 <= x_28_ <= 10
6 <= x_29_ <= 10
2 <= x_30_ <= 9
-3 <= x_31_ <= 7
2 <= x_32_ <= 7
-4 <= x_33_ <= 6
-10 <= x_34_ <= -2
-10 <= x_35_ <= 3
-10 <= x_36_ <= 10
2 <= x_37_ <= 9
-8 <= x_38_ <= 1
-10 <= x_39_ <= 4
-9 <= x_40_ <= 5
-8 <= x_41_ <= 5
-5 <= x_42_ <= 3
0 <= x_43_ <= 9
-1 <= x_44_ <= 10
0 <= x_45_ <= 8
5 <= x_46_ <= 10
-5 <= x_47_ <= 7
-8 <= x_48_ <= -1
-8 <= x_49_ <= -3
-5 <= x_50_ <= -2
General
x_1_
x_2_
x_3_
x_4_
x_5_
x_6_
x_7_
x_8_
x_9_
x_10_
x_11_
x_12_
x_13_
x_14_
x_15_
x_16_
x_17_
x_18_
x_19_
x_20_
x_21_
x_22_
x_23_
x_24_
x_25_
x_26_
x_27_
x_28_
x_29_
x_30_
x_31_
x_32_
x_33_
x_34_
x_35_
x_36_
x_37_
x_38_
x_39_
x_40_
x_41_
x_42_
x_43_
x_44_
x_45_
x_46_
x_47_
x_48_
x_49_
x_50_
End
