minimize
obj: 15 x_16_ + 13 x_18_ + 45 x_32_ + 28 x_36_ - 43 x_42_ + 29 x_44_ + 17 x_46_ - 24 x_48_
subject to
affine_ranged_1_ub: 31 x_22_ + 5 x_26_ <= -144
affine_ranged_2_ub: -33 x_17_ + 20 x_21_ <= -406
affine_ranged_3_ub: -6 x_34_ + 13 x_36_ <= -63
affine_ranged_4_ub: 43 x_23_ <= 219
affine_ranged_5_ub: 24 x_44_ <= -22
affine_ranged_6_ub: -22 x_9_ <= 110
quadratic_ranged_1_ub: -37 x_20_ + 19 x_26_ + [ 27 x_17_ ^ 2 ] <= 3116
quadratic_ranged_2_ub: 40 x_14_ + [ -41 x_7_ ^ 2 - 4 x_21_ ^ 2 + 12 x_36_ ^ 2 ] <= -1664
quadratic_ranged_3_ub: 15 x_7_ + 21 x_12_ + [ 30 x_2_ ^ 2 - 32 x_25_ ^ 2 - 42 x_35_ ^ 2 ] <= -2491
quadratic_ranged_4_ub: -19 x_48_ + [ -39 x_33_ ^ 2 ] <= -1853
quadratic_ranged_5_ub: 1 x_8_ - 5 x_19_ + [ 28 x_49_ ^ 2 ] <= 19
quadratic_ranged_6_ub: -26 x_4_ + 26 x_11_ - 15 x_18_ - 33 x_22_ + [ -49 x_4_ ^ 2 ] <= -2810
quadratic_ranged_7_ub: -14 x_9_ + 34 x_11_ - 27 x_15_ + 29 x_16_ - 22 x_28_ - 45 x_38_ + [ -49 x_12_ ^ 2 - 8 x_16_ ^ 2 - 42 x_32_ ^ 2 ] <= -2835
quadratic_ranged_8_ub: 42 x_3_ - 36 x_4_ - 47 x_8_ - 15 x_37_ + [ 3 x_4_ ^ 2 + 12 x_44_ ^ 2 - 32 x_47_ ^ 2 ] <= 191
quadratic_ranged_9_ub: -49 x_24_ + [ 21 x_19_ ^ 2 - 25 x_20_ ^ 2 - 38 x_24_ ^ 2 - 26 x_41_ ^ 2 ] <= -1321
quadratic_ranged_10_ub: -3 x_16_ + 21 x_21_ + 20 x_27_ + [ -21 x_16_ ^ 2 - 40 x_27_ ^ 2 + 46 x_50_ ^ 2 ] <= -5103
quadratic_ranged_11_ub: [ 31 x_1_ ^ 2 + 50 x_8_ ^ 2 + 26 x_11_ ^ 2 + 1 x_23_ ^ 2 + 33 x_30_ ^ 2 ] <= 2968
quadratic_ranged_12_ub: [ -11 x_14_ ^ 2 - 2 x_19_ ^ 2 ] <= -721
quadratic_ranged_13_ub: -36 x_44_ + [ -35 x_22_ ^ 2 + 10 x_34_ ^ 2 - 10 x_44_ ^ 2 ] <= -1194
quadratic_ranged_14_ub: 4 x_12_ - 32 x_18_ + [ -44 x_9_ ^ 2 - 30 x_12_ ^ 2 - 30 x_16_ ^ 2 - 44 x_18_ ^ 2 + 1 x_20_ ^ 2 ] <= -7700
quadratic_ranged_15_ub: 34 x_11_ + 40 x_17_ + 37 x_46_ + [ -17 x_2_ ^ 2 - 6 x_10_ ^ 2 - 21 x_11_ ^ 2 ] <= -887
quadratic_ranged_16_ub: 48 x_13_ - 1 x_49_ + [ 6 x_15_ ^ 2 - 15 x_39_ ^ 2 ] <= 303
quadratic_ranged_17_ub: 44 x_2_ - 23 x_35_ + 32 x_37_ + [ -30 x_3_ ^ 2 + 13 x_37_ ^ 2 ] <= -1875
quadratic_ranged_18_ub: -7 x_12_ - 47 x_22_ - 5 x_25_ + 37 x_28_ + [ -25 x_9_ ^ 2 + 10 x_12_ ^ 2 - 3 x_22_ ^ 2 ] <= -347
quadratic_ranged_19_ub: -13 x_17_ - 24 x_27_ + [ 42 x_27_ ^ 2 + 18 x_31_ ^ 2 - 26 x_36_ ^ 2 ] <= 4544
quadratic_ranged_20_ub: -34 x_1_ + 23 x_16_ + [ 36 x_14_ ^ 2 ] <= 2147
quadratic_ranged_21_ub: 32 x_22_ + [ 23 x_12_ ^ 2 + 44 x_21_ ^ 2 + 24 x_22_ ^ 2 + 42 x_35_ ^ 2 ] <= 4264
quadratic_ranged_22_ub: 37 x_6_ + 41 x_33_ + [ -26 x_33_ ^ 2 + 41 x_48_ ^ 2 ] <= -933
quadratic_ranged_23_ub: 19 x_6_ - 25 x_37_ + [ -50 x_23_ ^ 2 ] <= -1090
quadratic_ranged_24_ub: -33 x_8_ - 28 x_13_ - 2 x_34_ + [ -49 x_8_ ^ 2 + 40 x_13_ ^ 2 ] <= 775
quadratic_ranged_25_ub: 5 x_7_ + [ 45 x_25_ ^ 2 - 46 x_30_ ^ 2 + 7 x_40_ ^ 2 ] <= -539
quadratic_ranged_26_ub: 2 x_30_ + 2 x_36_ - 13 x_39_ + [ 48 x_10_ ^ 2 - 4 x_30_ ^ 2 ] <= -266
quadratic_ranged_27_ub: -1 x_20_ - 42 x_29_ + [ 22 x_29_ ^ 2 ] <= -12
quadratic_ranged_28_ub: 11 x_5_ + 2 x_38_ - 39 x_41_ + 35 x_43_ + 43 x_44_ + [ 33 x_5_ ^ 2 - 50 x_22_ ^ 2 + 47 x_29_ ^ 2 + 29 x_44_ ^ 2 ] <= 800
quadratic_ranged_29_ub: 9 x_4_ + [ -24 x_4_ ^ 2 + 9 x_8_ ^ 2 - 17 x_21_ ^ 2 + 44 x_48_ ^ 2 ] <= -1329
quadratic_ranged_30_ub: 27 x_38_ + [ -3 x_14_ ^ 2 + 18 x_23_ ^ 2 - 4 x_35_ ^ 2 ] <= 90
quadratic_ranged_31_ub: -2 x_2_ + 30 x_34_ - 19 x_48_ - 6 x_49_ + [ -33 x_2_ ^ 2 - 6 x_40_ ^ 2 - 10 x_49_ ^ 2 ] <= -772
quadratic_ranged_32_ub: -4 x_20_ - 22 x_21_ - 21 x_30_ + 18 x_34_ + [ -32 x_10_ ^ 2 + 36 x_23_ ^ 2 - 7 x_34_ ^ 2 + 12 x_48_ ^ 2 ] <= 985
quadratic_ranged_33_ub: -13 x_18_ + 32 x_35_ - 12 x_44_ + [ 21 x_8_ ^ 2 - 32 x_37_ ^ 2 ] <= 355
quadratic_ranged_34_ub: -12 x_10_ - 12 x_19_ - 29 x_20_ + [ -14 x_19_ ^ 2 + 8 x_23_ ^ 2 ] <= 317
quadratic_ranged_35_ub: -38 x_27_ + 34 x_35_ + [ -34 x_8_ ^ 2 + 12 x_16_ ^ 2 - 10 x_27_ ^ 2 - 44 x_34_ ^ 2 - 8 x_35_ ^ 2 ] <= -392
quadratic_ranged_36_ub: -2 x_9_ + 32 x_15_ - 26 x_19_ + [ -11 x_6_ ^ 2 - 38 x_7_ ^ 2 + 8 x_15_ ^ 2 ] <= -699
quadratic_ranged_37_ub: 47 x_12_ + 5 x_46_ + [ 37 x_7_ ^ 2 + 4 x_27_ ^ 2 - 19 x_43_ ^ 2 - 17 x_46_ ^ 2 ] <= 442
quadratic_ranged_38_ub: 42 x_19_ + [ -41 x_19_ ^ 2 - 18 x_47_ ^ 2 ] <= -510
quadratic_ranged_39_ub: [ 10 x_33_ ^ 2 + 10 x_50_ ^ 2 ] <= 535
quadratic_ranged_40_ub: 18 x_2_ + 10 x_8_ + 29 x_35_ + [ 35 x_36_ ^ 2 + 7 x_39_ ^ 2 - 11 x_41_ ^ 2 ] <= 1018
quadratic_ranged_41_ub: -20 x_2_ - 25 x_13_ + 10 x_21_ + 4 x_30_ - 44 x_40_ + [ -4 x_2_ ^ 2 - 20 x_13_ ^ 2 ] <= -965
quadratic_ranged_42_ub: 21 x_15_ + 30 x_23_ + [ 48 x_7_ ^ 2 + 27 x_30_ ^ 2 ] <= 3413
quadratic_ranged_43_ub: 31 x_5_ + 10 x_16_ - 29 x_48_ + [ -20 x_48_ ^ 2 ] <= 85
quadratic_ranged_44_ub: 28 x_12_ + [ -25 x_8_ ^ 2 + 32 x_40_ ^ 2 ] <= 95
quadratic_ranged_45_ub: -6 x_19_ + 44 x_38_ + [ -22 x_33_ ^ 2 + 10 x_39_ ^ 2 ] <= -655
quadratic_ranged_46_ub: -18 x_2_ - 28 x_12_ + [ 37 x_8_ ^ 2 + 35 x_9_ ^ 2 + 17 x_19_ ^ 2 - 12 x_29_ ^ 2 + 25 x_34_ ^ 2 - 5 x_49_ ^ 2 ] <= 1235
quadratic_ranged_47_ub: -25 x_9_ + 12 x_22_ + 28 x_26_ + 10 x_32_ - 7 x_44_ + [ -14 x_6_ ^ 2 + 34 x_19_ ^ 2 - 10 x_35_ ^ 2 - 34 x_44_ ^ 2 ] <= -579
quadratic_ranged_48_ub: -42 x_32_ + 48 x_42_ - 38 x_47_ + [ -31 x_34_ ^ 2 - 50 x_46_ ^ 2 - 4 x_47_ ^ 2 ] <= -147
affine_ranged_1_lb: 31 x_22_ + 5 x_26_ >= -150
affine_ranged_2_lb: -33 x_17_ + 20 x_21_ >= -410
affine_ranged_3_lb: -6 x_34_ + 13 x_36_ >= -65
affine_ranged_4_lb: 43 x_23_ >= 212
affine_ranged_5_lb: 24 x_44_ >= -25
affine_ranged_6_lb: -22 x_9_ >= 108
quadratic_ranged_1_lb: -37 x_20_ + 19 x_26_ + [ 27 x_17_ ^ 2 ] >= 3108
quadratic_ranged_2_lb: 40 x_14_ + [ -41 x_7_ ^ 2 - 4 x_21_ ^ 2 + 12 x_36_ ^ 2 ] >= -1672
quadratic_ranged_3_lb: 15 x_7_ + 21 x_12_ + [ 30 x_2_ ^ 2 - 32 x_25_ ^ 2 - 42 x_35_ ^ 2 ] >= -2501
quadratic_ranged_4_lb: -19 x_48_ + [ -39 x_33_ ^ 2 ] >= -1854
quadratic_ranged_5_lb: 1 x_8_ - 5 x_19_ + [ 28 x_49_ ^ 2 ] >= 16
quadratic_ranged_6_lb: -26 x_4_ + 26 x_11_ - 15 x_18_ - 33 x_22_ + [ -49 x_4_ ^ 2 ] >= -2817
quadratic_ranged_7_lb: -14 x_9_ + 34 x_11_ - 27 x_15_ + 29 x_16_ - 22 x_28_ - 45 x_38_ + [ -49 x_12_ ^ 2 - 8 x_16_ ^ 2 - 42 x_32_ ^ 2 ] >= -2843
quadratic_ranged_8_lb: 42 x_3_ - 36 x_4_ - 47 x_8_ - 15 x_37_ + [ 3 x_4_ ^ 2 + 12 x_44_ ^ 2 - 32 x_47_ ^ 2 ] >= 183
quadratic_ranged_9_lb: -49 x_24_ + [ 21 x_19_ ^ 2 - 25 x_20_ ^ 2 - 38 x_24_ ^ 2 - 26 x_41_ ^ 2 ] >= -1326
quadratic_ranged_10_lb: -3 x_16_ + 21 x_21_ + 20 x_27_ + [ -21 x_16_ ^ 2 - 40 x_27_ ^ 2 + 46 x_50_ ^ 2 ] >= -5113
quadratic_ranged_11_lb: [ 31 x_1_ ^ 2 + 50 x_8_ ^ 2 + 26 x_11_ ^ 2 + 1 x_23_ ^ 2 + 33 x_30_ ^ 2 ] >= 2961
quadratic_ranged_12_lb: [ -11 x_14_ ^ 2 - 2 x_19_ ^ 2 ] >= -727
quadratic_ranged_13_lb: -36 x_44_ + [ -35 x_22_ ^ 2 + 10 x_34_ ^ 2 - 10 x_44_ ^ 2 ] >= -1199
quadratic_ranged_14_lb: 4 x_12_ - 32 x_18_ + [ -44 x_9_ ^ 2 - 30 x_12_ ^ 2 - 30 x_16_ ^ 2 - 44 x_18_ ^ 2 + 1 x_20_ ^ 2 ] >= -7710
quadratic_ranged_15_lb: 34 x_11_ + 40 x_17_ + 37 x_46_ + [ -17 x_2_ ^ 2 - 6 x_10_ ^ 2 - 21 x_11_ ^ 2 ] >= -894
quadratic_ranged_16_lb: 48 x_13_ - 1 x_49_ + [ 6 x_15_ ^ 2 - 15 x_39_ ^ 2 ] >= 299
quadratic_ranged_17_lb: 44 x_2_ - 23 x_35_ + 32 x_37_ + [ -30 x_3_ ^ 2 + 13 x_37_ ^ 2 ] >= -1881
quadratic_ranged_18_lb: -7 x_12_ - 47 x_22_ - 5 x_25_ + 37 x_28_ + [ -25 x_9_ ^ 2 + 10 x_12_ ^ 2 - 3 x_22_ ^ 2 ] >= -353
quadratic_ranged_19_lb: -13 x_17_ - 24 x_27_ + [ 42 x_27_ ^ 2 + 18 x_31_ ^ 2 - 26 x_36_ ^ 2 ] >= 4541
quadratic_ranged_20_lb: -34 x_1_ + 23 x_16_ + [ 36 x_14_ ^ 2 ] >= 2143
quadratic_ranged_21_lb: 32 x_22_ + [ 23 x_12_ ^ 2 + 44 x_21_ ^ 2 + 24 x_22_ ^ 2 + 42 x_35_ ^ 2 ] >= 4261
quadratic_ranged_22_lb: 37 x_6_ + 41 x_33_ + [ -26 x_33_ ^ 2 + 41 x_48_ ^ 2 ] >= -934
quadratic_ranged_23_lb: 19 x_6_ - 25 x_37_ + [ -50 x_23_ ^ 2 ] >= -1093
quadratic_ranged_24_lb: -33 x_8_ - 28 x_13_ - 2 x_34_ + [ -49 x_8_ ^ 2 + 40 x_13_ ^ 2 ] >= 773
quadratic_ranged_25_lb: 5 x_7_ + [ 45 x_25_ ^ 2 - 46 x_30_ ^ 2 + 7 x_40_ ^ 2 ] >= -546
quadratic_ranged_26_lb: 2 x_30_ + 2 x_36_ - 13 x_39_ + [ 48 x_10_ ^ 2 - 4 x_30_ ^ 2 ] >= -270
quadratic_ranged_27_lb: -1 x_20_ - 42 x_29_ + [ 22 x_29_ ^ 2 ] >= -16
quadratic_ranged_28_lb: 11 x_5_ + 2 x_38_ - 39 x_41_ + 35 x_43_ + 43 x_44_ + [ 33 x_5_ ^ 2 - 50 x_22_ ^ 2 + 47 x_29_ ^ 2 + 29 x_44_ ^ 2 ] >= 792
quadratic_ranged_29_lb: 9 x_4_ + [ -24 x_4_ ^ 2 + 9 x_8_ ^ 2 - 17 x_21_ ^ 2 + 44 x_48_ ^ 2 ] >= -1334
quadratic_ranged_30_lb: 27 x_38_ + [ -3 x_14_ ^ 2 + 18 x_23_ ^ 2 - 4 x_35_ ^ 2 ] >= 87
quadratic_ranged_31_lb: -2 x_2_ + 30 x_34_ - 19 x_48_ - 6 x_49_ + [ -33 x_2_ ^ 2 - 6 x_40_ ^ 2 - 10 x_49_ ^ 2 ] >= -776
quadratic_ranged_32_lb: -4 x_20_ - 22 x_21_ - 21 x_30_ + 18 x_34_ + [ -32 x_10_ ^ 2 + 36 x_23_ ^ 2 - 7 x_34_ ^ 2 + 12 x_48_ ^ 2 ] >= 982
quadratic_ranged_33_lb: -13 x_18_ + 32 x_35_ - 12 x_44_ + [ 21 x_8_ ^ 2 - 32 x_37_ ^ 2 ] >= 353
quadratic_ranged_34_lb: -12 x_10_ - 12 x_19_ - 29 x_20_ + [ -14 x_19_ ^ 2 + 8 x_23_ ^ 2 ] >= 313
quadratic_ranged_35_lb: -38 x_27_ + 34 x_35_ + [ -34 x_8_ ^ 2 + 12 x_16_ ^ 2 - 10 x_27_ ^ 2 - 44 x_34_ ^ 2 - 8 x_35_ ^ 2 ] >= -398
quadratic_ranged_36_lb: -2 x_9_ + 32 x_15_ - 26 x_19_ + [ -11 x_6_ ^ 2 - 38 x_7_ ^ 2 + 8 x_15_ ^ 2 ] >= -700
quadratic_ranged_37_lb: 47 x_12_ + 5 x_46_ + [ 37 x_7_ ^ 2 + 4 x_27_ ^ 2 - 19 x_43_ ^ 2 - 17 x_46_ ^ 2 ] >= 438
quadratic_ranged_38_lb: 42 x_19_ + [ -41 x_19_ ^ 2 - 18 x_47_ ^ 2 ] >= -516
quadratic_ranged_39_lb: [ 10 x_33_ ^ 2 + 10 x_50_ ^ 2 ] >= 526
quadratic_ranged_40_lb: 18 x_2_ + 10 x_8_ + 29 x_35_ + [ 35 x_36_ ^ 2 + 7 x_39_ ^ 2 - 11 x_41_ ^ 2 ] >= 1016
quadratic_ranged_41_lb: -20 x_2_ - 25 x_13_ + 10 x_21_ + 4 x_30_ - 44 x_40_ + [ -4 x_2_ ^ 2 - 20 x_13_ ^ 2 ] >= -969
quadratic_ranged_42_lb: 21 x_15_ + 30 x_23_ + [ 48 x_7_ ^ 2 + 27 x_30_ ^ 2 ] >= 3406
quadratic_ranged_43_lb: 31 x_5_ + 10 x_16_ - 29 x_48_ + [ -20 x_48_ ^ 2 ] >= 84
quadratic_ranged_44_lb: 28 x_12_ + [ -25 x_8_ ^ 2 + 32 x_40_ ^ 2 ] >= 91
quadratic_ranged_45_lb: -6 x_19_ + 44 x_38_ + [ -22 x_33_ ^ 2 + 10 x_39_ ^ 2 ] >= -661
quadratic_ranged_46_lb: -18 x_2_ - 28 x_12_ + [ 37 x_8_ ^ 2 + 35 x_9_ ^ 2 + 17 x_19_ ^ 2 - 12 x_29_ ^ 2 + 25 x_34_ ^ 2 - 5 x_49_ ^ 2 ] >= 1228
quadratic_ranged_47_lb: -25 x_9_ + 12 x_22_ + 28 x_26_ + 10 x_32_ - 7 x_44_ + [ -14 x_6_ ^ 2 + 34 x_19_ ^ 2 - 10 x_35_ ^ 2 - 34 x_44_ ^ 2 ] >= -584
quadratic_ranged_48_lb: -42 x_32_ + 48 x_42_ - 38 x_47_ + [ -31 x_34_ ^ 2 - 50 x_46_ ^ 2 - 4 x_47_ ^ 2 ] >= -154
c1_1: 9 x_43_ = 63
c2_1: -12 x_19_ + 2 x_40_ = 42
c3_1: -19 x_8_ - 7 x_10_ - 22 x_11_ = -173
c4_1: 37 x_30_ - 18 x_38_ = 241
c1: -10 x_32_ + [ 42 x_1_ ^ 2 - 14 x_15_ ^ 2 - 50 x_32_ ^ 2 ] = -2240
c2: 21 x_12_ + 23 x_14_ + 49 x_31_ - 8 x_45_ + [ -22 x_11_ ^ 2 + 22 x_14_ ^ 2 + 33 x_22_ ^ 2 + 1 x_44_ ^ 2 + 9 x_46_ ^ 2 ] = 1007
c3: -30 x_21_ + 47 x_48_ + [ 23 x_5_ ^ 2 ] = 1451
c4: -18 x_9_ + 20 x_11_ + 12 x_31_ + 25 x_47_ + [ -37 x_35_ ^ 2 + 12 x_44_ ^ 2 - 50 x_45_ ^ 2 - 24 x_47_ ^ 2 ] = -4092
c5: -33 x_19_ + 1 x_27_ + [ -19 x_33_ ^ 2 ] = -842
c6: -7 x_12_ + 33 x_45_ + [ 15 x_12_ ^ 2 ] = 351
c7: -17 x_18_ + 2 x_43_ + [ -19 x_9_ ^ 2 - 6 x_30_ ^ 2 ] = -585
c8: -49 x_4_ + [ -24 x_4_ ^ 2 - 22 x_5_ ^ 2 + 46 x_9_ ^ 2 - 46 x_44_ ^ 2 - 31 x_50_ ^ 2 ] = -2356
c9: -13 x_8_ + 13 x_35_ + [ 24 x_27_ ^ 2 + 5 x_35_ ^ 2 ] = 2723
c10: 20 x_34_ + [ 35 x_25_ ^ 2 ] = 1300
c11: -23 x_12_ + [ 21 x_43_ ^ 2 ] = 1167
c12: -14 x_20_ + [ -31 x_43_ ^ 2 ] = -1421
c13: -6 x_7_ + 35 x_22_ + [ 15 x_21_ ^ 2 ] = -6
c14: 48 x_17_ + [ 50 x_17_ ^ 2 + 43 x_49_ ^ 2 ] = 5480
c15: 32 x_6_ + 18 x_11_ - 1 x_33_ + [ -18 x_8_ ^ 2 ] = 339
c16: 10 x_22_ - 19 x_26_ + [ 47 x_14_ ^ 2 - 47 x_20_ ^ 2 + 22 x_33_ ^ 2 + 4 x_49_ ^ 2 ] = 1571
c17: 42 x_6_ + [ -34 x_2_ ^ 2 + 34 x_6_ ^ 2 - 46 x_21_ ^ 2 - 9 x_28_ ^ 2 ] = -355
c18: [ -39 x_24_ ^ 2 - 7 x_30_ ^ 2 ] = -499
c19: -23 x_23_ - 47 x_27_ + [ -15 x_19_ ^ 2 ] = 220
c20: -20 x_44_ + [ 21 x_3_ ^ 2 - 39 x_22_ ^ 2 ] = -40
c21: 49 x_25_ + [ 8 x_47_ ^ 2 ] = -286
c22: [ 3 x_33_ ^ 2 ] = 147
c23: [ -38 x_15_ ^ 2 - 27 x_29_ ^ 2 + 36 x_47_ ^ 2 ] = -3791
c24: 4 x_3_ - 33 x_14_ + [ 38 x_3_ ^ 2 - 11 x_28_ ^ 2 ] = 1837
c25: 21 x_41_ + [ 39 x_41_ ^ 2 + 44 x_44_ ^ 2 - 24 x_47_ ^ 2 ] = 308
c26: [ -24 x_19_ ^ 2 - 30 x_22_ ^ 2 ] = -1296
c27: [ 22 x_7_ ^ 2 ] = 792
c28: 48 x_2_ - 37 x_34_ - 26 x_37_ - 41 x_47_ + [ -8 x_22_ ^ 2 - 32 x_34_ ^ 2 ] = -265
c29: -38 x_18_ - 30 x_32_ + 20 x_35_ + 40 x_38_ + 40 x_42_ - 48 x_45_ + [ -14 x_10_ ^ 2 + 16 x_20_ ^ 2 - 47 x_30_ ^ 2 - 36 x_37_ ^ 2 ] = -459
c30: 26 x_29_ + [ 7 x_9_ ^ 2 - 45 x_13_ ^ 2 - 41 x_31_ ^ 2 ] = -2400
c31: 43 x_2_ + 27 x_16_ + 28 x_18_ + 2 x_38_ + [ 39 x_2_ ^ 2 - 1 x_9_ ^ 2 - 35 x_24_ ^ 2 - 9 x_47_ ^ 2 ] = 549
c32: -25 x_9_ + 16 x_18_ - 13 x_21_ + 16 x_40_ + [ -14 x_7_ ^ 2 + 39 x_9_ ^ 2 - 29 x_40_ ^ 2 ] = 275
c33: 46 x_34_ - 44 x_48_ + [ -9 x_4_ ^ 2 ] = -352
c34: [ -8 x_9_ ^ 2 - 10 x_35_ ^ 2 ] = -690
c35: 6 x_14_ + 42 x_18_ - 33 x_26_ - 32 x_41_ + [ 2 x_7_ ^ 2 - 33 x_26_ ^ 2 ] = -2676
c36: 31 x_46_ + [ 15 x_19_ ^ 2 - 48 x_45_ ^ 2 ] = -2279
c37: -32 x_19_ + 47 x_22_ + 25 x_23_ + 17 x_31_ + 23 x_43_ + [ -16 x_22_ ^ 2 ] = -578
c38: -16 x_20_ + [ -9 x_1_ ^ 2 + 20 x_2_ ^ 2 + 29 x_14_ ^ 2 - 20 x_23_ ^ 2 - 41 x_28_ ^ 2 + 20 x_35_ ^ 2 + 35 x_42_ ^ 2 ] = 1867
c39: -10 x_4_ + [ 44 x_24_ ^ 2 + 17 x_30_ ^ 2 ] = 929
c40: 32 x_3_ + 23 x_5_ - 23 x_19_ - 36 x_32_ + [ 29 x_32_ ^ 2 ] = 829
c41: 22 x_5_ + [ -34 x_31_ ^ 2 ] = -1048
c42: 21 x_46_ + [ 25 x_6_ ^ 2 + 41 x_35_ ^ 2 ] = 3192
Bounds
-8 <= x_1_ <= 5
2 <= x_2_ <= 6
0 <= x_3_ <= 8
-10 <= x_4_ <= 8
7 <= x_5_ <= 9
2 <= x_6_ <= 9
1 <= x_7_ <= 10
-4 <= x_8_ <= 8
-8 <= x_9_ <= -2
-10 <= x_10_ <= 0
0 <= x_11_ <= 9
-8 <= x_12_ <= 9
-2 <= x_13_ <= 8
-9 <= x_14_ <= 5
-2 <= x_15_ <= 10
-7 <= x_16_ <= 6
9 <= x_17_ <= 10
-10 <= x_18_ <= 3
-10 <= x_19_ <= 10
-9 <= x_20_ <= -1
-10 <= x_21_ <= -3
-8 <= x_22_ <= 2
-4 <= x_23_ <= 8
-10 <= x_24_ <= 0
-7 <= x_25_ <= -3
7 <= x_26_ <= 9
-10 <= x_27_ <= 5
-9 <= x_28_ <= 2
-9 <= x_29_ <= 1
x_30_ = 7
-10 <= x_31_ <= 3
-10 <= x_32_ <= 5
-9 <= x_33_ <= -3
1 <= x_34_ <= 2
0 <= x_35_ <= 9
-8 <= x_36_ <= -2
-6 <= x_37_ <= 3
-6 <= x_38_ <= 4
3 <= x_39_ <= 7
-8 <= x_40_ <= 7
-7 <= x_41_ <= 1
8 <= x_42_ <= 9
-1 <= x_43_ <= 8
-7 <= x_44_ <= 3
-10 <= x_45_ <= 1
-8 <= x_46_ <= 10
-4 <= x_47_ <= 8
-4 <= x_48_ <= -1
-3 <= x_49_ <= 5
-10 <= x_50_ <= 1
General
x_1_
x_2_
x_3_
x_4_
x_5_
x_6_
x_7_
x_8_
x_9_
x_10_
x_11_
x_12_
x_13_
x_14_
x_15_
x_16_
x_17_
x_18_
x_19_
x_20_
x_21_
x_22_
x_23_
x_24_
x_25_
x_26_
x_27_
x_28_
x_29_
x_30_
x_31_
x_32_
x_33_
x_34_
x_35_
x_36_
x_37_
x_38_
x_39_
x_40_
x_41_
x_42_
x_43_
x_44_
x_45_
x_46_
x_47_
x_48_
x_49_
x_50_
End
