minimize
obj: -10 x_1_ - 16 x_16_ - 3 x_21_ + 43 x_22_ + 22 x_45_ + 12 x_50_
subject to
affine_ranged_1_ub: 48 x_10_ - 37 x_20_ + 37 x_36_ <= -383
affine_ranged_2_ub: -42 x_24_ <= -82
affine_ranged_3_ub: 45 x_13_ <= 137
quadratic_ranged_1_ub: 10 x_30_ - 15 x_40_ + [ -17 x_25_ ^ 2 ] <= -639
quadratic_ranged_2_ub: -38 x_10_ + [ 33 x_24_ ^ 2 ] <= 326
quadratic_ranged_3_ub: 14 x_3_ + 38 x_4_ + [ 36 x_25_ ^ 2 ] <= 1109
quadratic_ranged_4_ub: 18 x_45_ + [ -40 x_4_ ^ 2 + 49 x_13_ ^ 2 + 36 x_33_ ^ 2 - 26 x_45_ ^ 2 ] <= -1224
quadratic_ranged_5_ub: [ 40 x_15_ ^ 2 + 38 x_24_ ^ 2 ] <= 2713
quadratic_ranged_6_ub: 11 x_9_ - 48 x_10_ + 22 x_49_ + [ -10 x_9_ ^ 2 - 20 x_40_ ^ 2 + 14 x_50_ ^ 2 ] <= 525
quadratic_ranged_7_ub: 13 x_16_ + 25 x_33_ + [ 19 x_32_ ^ 2 ] <= 446
quadratic_ranged_8_ub: 45 x_10_ + 21 x_17_ - 13 x_27_ + 22 x_34_ - 36 x_39_ + [ 45 x_31_ ^ 2 ] <= 773
quadratic_ranged_9_ub: -31 x_23_ - 41 x_31_ - 29 x_37_ + [ -20 x_20_ ^ 2 + 17 x_27_ ^ 2 - 44 x_37_ ^ 2 - 49 x_41_ ^ 2 ] <= -1556
quadratic_ranged_10_ub: -1 x_29_ + [ 34 x_30_ ^ 2 ] <= 2763
quadratic_ranged_11_ub: -40 x_17_ - 6 x_39_ + 7 x_41_ + [ 36 x_5_ ^ 2 + 6 x_18_ ^ 2 ] <= 2568
quadratic_ranged_12_ub: 39 x_34_ + [ 7 x_14_ ^ 2 + 40 x_17_ ^ 2 ] <= 380
quadratic_ranged_13_ub: -44 x_35_ - 13 x_41_ + [ -11 x_26_ ^ 2 + 41 x_32_ ^ 2 - 38 x_35_ ^ 2 ] <= 661
quadratic_ranged_14_ub: 6 x_15_ + [ 21 x_6_ ^ 2 + 18 x_17_ ^ 2 - 45 x_27_ ^ 2 ] <= 594
quadratic_ranged_15_ub: 12 x_12_ + 25 x_20_ + 22 x_41_ + 48 x_44_ + [ -31 x_37_ ^ 2 ] <= -533
quadratic_ranged_16_ub: 12 x_10_ - 12 x_13_ - 14 x_16_ + [ -4 x_10_ ^ 2 ] <= -293
quadratic_ranged_17_ub: -45 x_17_ + [ 7 x_41_ ^ 2 ] <= 134
quadratic_ranged_18_ub: -13 x_1_ + 14 x_10_ + [ -36 x_14_ ^ 2 - 12 x_40_ ^ 2 ] <= -414
quadratic_ranged_19_ub: -3 x_4_ - 40 x_5_ + 11 x_14_ + 15 x_24_ + [ -5 x_33_ ^ 2 + 20 x_41_ ^ 2 ] <= 133
quadratic_ranged_20_ub: 33 x_17_ + 21 x_22_ + [ 9 x_20_ ^ 2 + 49 x_38_ ^ 2 ] <= 4233
quadratic_ranged_21_ub: 7 x_2_ + 4 x_27_ + 28 x_38_ + [ -38 x_2_ ^ 2 + 48 x_27_ ^ 2 ] <= 531
affine_ranged_1_lb: 48 x_10_ - 37 x_20_ + 37 x_36_ >= -391
affine_ranged_2_lb: -42 x_24_ >= -89
affine_ranged_3_lb: 45 x_13_ >= 131
quadratic_ranged_1_lb: 10 x_30_ - 15 x_40_ + [ -17 x_25_ ^ 2 ] >= -646
quadratic_ranged_2_lb: -38 x_10_ + [ 33 x_24_ ^ 2 ] >= 318
quadratic_ranged_3_lb: 14 x_3_ + 38 x_4_ + [ 36 x_25_ ^ 2 ] >= 1099
quadratic_ranged_4_lb: 18 x_45_ + [ -40 x_4_ ^ 2 + 49 x_13_ ^ 2 + 36 x_33_ ^ 2 - 26 x_45_ ^ 2 ] >= -1231
quadratic_ranged_5_lb: [ 40 x_15_ ^ 2 + 38 x_24_ ^ 2 ] >= 2708
quadratic_ranged_6_lb: 11 x_9_ - 48 x_10_ + 22 x_49_ + [ -10 x_9_ ^ 2 - 20 x_40_ ^ 2 + 14 x_50_ ^ 2 ] >= 522
quadratic_ranged_7_lb: 13 x_16_ + 25 x_33_ + [ 19 x_32_ ^ 2 ] >= 439
quadratic_ranged_8_lb: 45 x_10_ + 21 x_17_ - 13 x_27_ + 22 x_34_ - 36 x_39_ + [ 45 x_31_ ^ 2 ] >= 765
quadratic_ranged_9_lb: -31 x_23_ - 41 x_31_ - 29 x_37_ + [ -20 x_20_ ^ 2 + 17 x_27_ ^ 2 - 44 x_37_ ^ 2 - 49 x_41_ ^ 2 ] >= -1562
quadratic_ranged_10_lb: -1 x_29_ + [ 34 x_30_ ^ 2 ] >= 2761
quadratic_ranged_11_lb: -40 x_17_ - 6 x_39_ + 7 x_41_ + [ 36 x_5_ ^ 2 + 6 x_18_ ^ 2 ] >= 2563
quadratic_ranged_12_lb: 39 x_34_ + [ 7 x_14_ ^ 2 + 40 x_17_ ^ 2 ] >= 379
quadratic_ranged_13_lb: -44 x_35_ - 13 x_41_ + [ -11 x_26_ ^ 2 + 41 x_32_ ^ 2 - 38 x_35_ ^ 2 ] >= 656
quadratic_ranged_14_lb: 6 x_15_ + [ 21 x_6_ ^ 2 + 18 x_17_ ^ 2 - 45 x_27_ ^ 2 ] >= 590
quadratic_ranged_15_lb: 12 x_12_ + 25 x_20_ + 22 x_41_ + 48 x_44_ + [ -31 x_37_ ^ 2 ] >= -537
quadratic_ranged_16_lb: 12 x_10_ - 12 x_13_ - 14 x_16_ + [ -4 x_10_ ^ 2 ] >= -297
quadratic_ranged_17_lb: -45 x_17_ + [ 7 x_41_ ^ 2 ] >= 125
quadratic_ranged_18_lb: -13 x_1_ + 14 x_10_ + [ -36 x_14_ ^ 2 - 12 x_40_ ^ 2 ] >= -421
quadratic_ranged_19_lb: -3 x_4_ - 40 x_5_ + 11 x_14_ + 15 x_24_ + [ -5 x_33_ ^ 2 + 20 x_41_ ^ 2 ] >= 130
quadratic_ranged_20_lb: 33 x_17_ + 21 x_22_ + [ 9 x_20_ ^ 2 + 49 x_38_ ^ 2 ] >= 4228
quadratic_ranged_21_lb: 7 x_2_ + 4 x_27_ + 28 x_38_ + [ -38 x_2_ ^ 2 + 48 x_27_ ^ 2 ] >= 529
c1_1: -27 x_25_ = -162
c2_1: 43 x_5_ - 26 x_17_ = 318
c3_1: 21 x_26_ + 46 x_45_ = 46
c1: 38 x_14_ + 15 x_29_ + 20 x_31_ + [ -39 x_21_ ^ 2 + 47 x_29_ ^ 2 - 32 x_38_ ^ 2 - 23 x_40_ ^ 2 ] = -720
c2: -13 x_30_ - 10 x_35_ - 12 x_49_ + [ -3 x_1_ ^ 2 + 48 x_19_ ^ 2 - 37 x_20_ ^ 2 ] = 2929
c3: [ -20 x_43_ ^ 2 ] = -720
c4: 46 x_16_ + [ -20 x_39_ ^ 2 - 37 x_41_ ^ 2 - 14 x_48_ ^ 2 ] = -2779
c5: -13 x_40_ - 8 x_46_ + [ -20 x_7_ ^ 2 + 8 x_44_ ^ 2 ] = -1440
c6: 25 x_5_ - 47 x_35_ + 5 x_44_ + [ -46 x_25_ ^ 2 + 34 x_35_ ^ 2 - 38 x_42_ ^ 2 ] = -2112
c7: 10 x_1_ + 2 x_20_ + [ -16 x_23_ ^ 2 ] = -1292
c8: 20 x_23_ - 12 x_43_ + [ -3 x_31_ ^ 2 ] = 177
c9: 26 x_50_ + [ 34 x_9_ ^ 2 + 14 x_37_ ^ 2 ] = 10
c10: 22 x_16_ - 17 x_21_ + 19 x_28_ + [ 21 x_19_ ^ 2 - 46 x_34_ ^ 2 - 8 x_38_ ^ 2 ] = -2314
c11: [ 3 x_5_ ^ 2 + 5 x_10_ ^ 2 ] = 317
c12: [ -50 x_23_ ^ 2 ] = -4050
c13: -38 x_12_ + 27 x_19_ - 45 x_50_ + [ 34 x_41_ ^ 2 ] = 1495
c14: 27 x_31_ + [ 43 x_31_ ^ 2 ] = 940
c15: 42 x_34_ + [ 25 x_34_ ^ 2 ] = 1936
c16: [ 44 x_5_ ^ 2 + 37 x_34_ ^ 2 - 37 x_46_ ^ 2 ] = 5184
c17: -42 x_9_ + [ -40 x_25_ ^ 2 ] = -1524
c18: -47 x_18_ + 8 x_22_ - 22 x_28_ + [ 21 x_22_ ^ 2 + 17 x_46_ ^ 2 ] = 1637
c19: 23 x_46_ + [ -41 x_32_ ^ 2 ] = -1025
c20: -37 x_24_ + 45 x_39_ + [ 19 x_49_ ^ 2 ] = 457
c21: -48 x_28_ + [ 2 x_1_ ^ 2 - 42 x_22_ ^ 2 - 22 x_29_ ^ 2 ] = -3080
c22: -39 x_32_ + [ -36 x_46_ ^ 2 + 44 x_50_ ^ 2 ] = 1961
c23: 30 x_7_ - 14 x_18_ - 12 x_47_ + [ 40 x_7_ ^ 2 + 32 x_47_ ^ 2 - 3 x_49_ ^ 2 ] = 5547
Bounds
-4 <= x_1_ <= 3
-2 <= x_2_ <= 10
-7 <= x_3_ <= 8
-8 <= x_4_ <= 2
6 <= x_5_ <= 10
-1 <= x_6_ <= 7
7 <= x_7_ <= 10
-10 <= x_8_ <= 5
-4 <= x_9_ <= 10
-9 <= x_10_ <= 10
-9 <= x_11_ <= 3
-5 <= x_12_ <= 6
-2 <= x_13_ <= 8
-9 <= x_14_ <= 6
-8 <= x_15_ <= 2
1 <= x_16_ <= 10
-6 <= x_17_ <= 8
-8 <= x_18_ <= 4
-5 <= x_19_ <= 10
-3 <= x_20_ <= 4
-10 <= x_21_ <= 9
0 <= x_22_ <= 10
-8 <= x_23_ <= 10
2 <= x_24_ <= 5
-3 <= x_25_ <= 8
-4 <= x_26_ <= 2
-5 <= x_27_ <= 10
-8 <= x_28_ <= -5
-10 <= x_29_ <= -6
-9 <= x_30_ <= 5
-5 <= x_31_ <= 6
-2 <= x_32_ <= 5
-9 <= x_33_ <= 1
-5 <= x_34_ <= 8
-6 <= x_35_ <= 7
-10 <= x_36_ <= 3
-6 <= x_37_ <= 3
2 <= x_38_ <= 10
-9 <= x_39_ <= 8
-8 <= x_40_ <= 5
-7 <= x_41_ <= 9
-2 <= x_42_ <= 9
-8 <= x_43_ <= -4
-4 <= x_44_ <= 8
-4 <= x_45_ <= 2
-2 <= x_46_ <= 4
-6 <= x_47_ <= 9
-10 <= x_48_ <= 9
-6 <= x_49_ <= 6
-9 <= x_50_ <= 4
General
x_1_
x_2_
x_3_
x_4_
x_5_
x_6_
x_7_
x_8_
x_9_
x_10_
x_11_
x_12_
x_13_
x_14_
x_15_
x_16_
x_17_
x_18_
x_19_
x_20_
x_21_
x_22_
x_23_
x_24_
x_25_
x_26_
x_27_
x_28_
x_29_
x_30_
x_31_
x_32_
x_33_
x_34_
x_35_
x_36_
x_37_
x_38_
x_39_
x_40_
x_41_
x_42_
x_43_
x_44_
x_45_
x_46_
x_47_
x_48_
x_49_
x_50_
End
