minimize
obj: -29 x_18_ + 5 x_23_ - 19 x_24_ - 3 x_25_ + 30 x_30_ + 42 x_32_ - 9 x_38_ + 14 x_41_ + 46 x_43_ - 11 x_49_
subject to
affine_ranged_1_ub: 12 x_28_ + 26 x_36_ + 45 x_45_ <= 144
affine_ranged_2_ub: -29 x_47_ <= -230
affine_ranged_3_ub: -29 x_9_ + 28 x_18_ + 45 x_26_ - 40 x_32_ - 11 x_36_ <= 233
affine_ranged_4_ub: 19 x_30_ <= -130
quadratic_ranged_1_ub: -4 x_4_ - 48 x_12_ + 41 x_20_ - 45 x_46_ + [ -31 x_4_ ^ 2 + 12 x_21_ ^ 2 + 4 x_27_ ^ 2 ] <= -2814
quadratic_ranged_2_ub: 18 x_24_ + [ 11 x_39_ ^ 2 ] <= 302
quadratic_ranged_3_ub: -2 x_46_ + 20 x_49_ + [ 50 x_46_ ^ 2 ] <= 101
quadratic_ranged_4_ub: -25 x_2_ + [ -48 x_11_ ^ 2 + 1 x_17_ ^ 2 ] <= -303
quadratic_ranged_5_ub: 29 x_10_ + 32 x_13_ - 17 x_15_ + [ 25 x_12_ ^ 2 - 30 x_13_ ^ 2 + 6 x_15_ ^ 2 - 13 x_18_ ^ 2 - 6 x_46_ ^ 2 ] <= 300
quadratic_ranged_6_ub: -30 x_3_ + 33 x_14_ + 49 x_21_ + 43 x_23_ + [ -27 x_3_ ^ 2 + 42 x_11_ ^ 2 ] <= -107
quadratic_ranged_7_ub: -47 x_1_ - 7 x_39_ + 13 x_41_ + [ 14 x_8_ ^ 2 ] <= -58
quadratic_ranged_8_ub: 12 x_31_ - 10 x_45_ - 18 x_46_ + [ -39 x_14_ ^ 2 + 11 x_46_ ^ 2 ] <= -1027
quadratic_ranged_9_ub: -38 x_1_ + 44 x_7_ + 7 x_21_ - 44 x_26_ - 24 x_42_ + [ -39 x_7_ ^ 2 + 43 x_25_ ^ 2 ] <= -3472
quadratic_ranged_10_ub: 32 x_38_ + 45 x_45_ + [ 5 x_45_ ^ 2 ] <= -137
quadratic_ranged_11_ub: -30 x_37_ + [ -8 x_2_ ^ 2 - 14 x_25_ ^ 2 ] <= -466
quadratic_ranged_12_ub: -38 x_1_ + 17 x_13_ - 18 x_41_ + [ 40 x_7_ ^ 2 + 23 x_48_ ^ 2 ] <= 5013
quadratic_ranged_13_ub: 4 x_18_ - 41 x_23_ - 2 x_25_ + [ -33 x_31_ ^ 2 - 25 x_41_ ^ 2 ] <= -599
quadratic_ranged_14_ub: -6 x_20_ + 32 x_21_ + [ -38 x_21_ ^ 2 ] <= -1122
quadratic_ranged_15_ub: [ -18 x_8_ ^ 2 - 12 x_22_ ^ 2 ] <= -449
quadratic_ranged_16_ub: -12 x_31_ + 5 x_47_ + 44 x_50_ + [ 27 x_31_ ^ 2 - 35 x_35_ ^ 2 + 11 x_47_ ^ 2 ] <= -1783
quadratic_ranged_17_ub: -35 x_38_ + [ 11 x_3_ ^ 2 - 14 x_41_ ^ 2 - 9 x_48_ ^ 2 ] <= -113
quadratic_ranged_18_ub: 6 x_15_ - 8 x_32_ + [ -50 x_41_ ^ 2 ] <= -465
quadratic_ranged_19_ub: 34 x_1_ + 40 x_8_ + [ 26 x_36_ ^ 2 ] <= 251
quadratic_ranged_20_ub: 7 x_18_ + 4 x_27_ + [ 17 x_47_ ^ 2 ] <= 1103
quadratic_ranged_21_ub: -12 x_29_ - 20 x_36_ + 27 x_42_ - 38 x_45_ + [ 9 x_29_ ^ 2 + 15 x_32_ ^ 2 - 5 x_42_ ^ 2 ] <= -147
quadratic_ranged_22_ub: -28 x_2_ - 22 x_4_ - 23 x_43_ + [ 11 x_2_ ^ 2 + 38 x_43_ ^ 2 ] <= 654
quadratic_ranged_23_ub: -2 x_5_ - 27 x_13_ + 5 x_19_ + [ 44 x_1_ ^ 2 ] <= 365
quadratic_ranged_24_ub: -31 x_26_ + [ -41 x_37_ ^ 2 ] <= -3255
quadratic_ranged_25_ub: [ 34 x_30_ ^ 2 + 18 x_36_ ^ 2 ] <= 1741
quadratic_ranged_26_ub: -36 x_1_ - 36 x_5_ + 22 x_20_ - 4 x_21_ + [ -49 x_1_ ^ 2 - 11 x_46_ ^ 2 - 16 x_47_ ^ 2 ] <= -1329
quadratic_ranged_27_ub: 39 x_1_ - 8 x_11_ + 13 x_34_ + [ 20 x_18_ ^ 2 + 19 x_23_ ^ 2 - 12 x_24_ ^ 2 + 39 x_35_ ^ 2 ] <= 3242
quadratic_ranged_28_ub: -12 x_10_ + 27 x_46_ + [ -41 x_15_ ^ 2 - 40 x_46_ ^ 2 ] <= -1449
quadratic_ranged_29_ub: 23 x_3_ + 27 x_15_ - 15 x_36_ + 28 x_50_ + [ -31 x_3_ ^ 2 - 44 x_9_ ^ 2 - 30 x_13_ ^ 2 - 19 x_14_ ^ 2 + 17 x_37_ ^ 2 + 21 x_39_ ^ 2 + 7 x_49_ ^ 2 ] <= -1960
quadratic_ranged_30_ub: [ -45 x_6_ ^ 2 - 22 x_33_ ^ 2 ] <= -3955
quadratic_ranged_31_ub: 7 x_2_ - 22 x_42_ + [ -37 x_47_ ^ 2 ] <= -2359
quadratic_ranged_32_ub: -5 x_1_ + 28 x_21_ - 10 x_30_ - 40 x_33_ + [ -12 x_7_ ^ 2 - 38 x_9_ ^ 2 ] <= -3993
quadratic_ranged_33_ub: [ 32 x_15_ ^ 2 + 30 x_22_ ^ 2 + 19 x_25_ ^ 2 + 33 x_29_ ^ 2 ] <= 2265
quadratic_ranged_34_ub: -41 x_48_ + [ -42 x_29_ ^ 2 + 23 x_48_ ^ 2 ] <= 1377
quadratic_ranged_35_ub: -10 x_44_ + [ -46 x_9_ ^ 2 - 20 x_40_ ^ 2 + 25 x_47_ ^ 2 ] <= -1649
quadratic_ranged_36_ub: -32 x_4_ + 5 x_17_ + [ -14 x_3_ ^ 2 ] <= 206
quadratic_ranged_37_ub: 6 x_44_ + [ 26 x_27_ ^ 2 - 15 x_47_ ^ 2 - 3 x_48_ ^ 2 + 26 x_49_ ^ 2 ] <= -434
quadratic_ranged_38_ub: -48 x_37_ + 45 x_39_ - 27 x_46_ + [ -7 x_3_ ^ 2 - 2 x_50_ ^ 2 ] <= -703
quadratic_ranged_39_ub: 36 x_20_ + [ 25 x_39_ ^ 2 ] <= 472
quadratic_ranged_40_ub: 41 x_44_ + [ 7 x_3_ ^ 2 - 11 x_7_ ^ 2 - 7 x_10_ ^ 2 ] <= -1104
quadratic_ranged_41_ub: -12 x_3_ - 50 x_25_ + 23 x_29_ - 22 x_48_ + [ 28 x_3_ ^ 2 + 13 x_9_ ^ 2 + 14 x_29_ ^ 2 ] <= 1195
quadratic_ranged_42_ub: -28 x_8_ + 4 x_40_ - 40 x_46_ + [ -19 x_7_ ^ 2 ] <= -1944
quadratic_ranged_43_ub: -38 x_38_ + [ -17 x_38_ ^ 2 ] <= -1318
affine_ranged_1_lb: 12 x_28_ + 26 x_36_ + 45 x_45_ >= 139
affine_ranged_2_lb: -29 x_47_ >= -234
affine_ranged_3_lb: -29 x_9_ + 28 x_18_ + 45 x_26_ - 40 x_32_ - 11 x_36_ >= 228
affine_ranged_4_lb: 19 x_30_ >= -133
quadratic_ranged_1_lb: -4 x_4_ - 48 x_12_ + 41 x_20_ - 45 x_46_ + [ -31 x_4_ ^ 2 + 12 x_21_ ^ 2 + 4 x_27_ ^ 2 ] >= -2822
quadratic_ranged_2_lb: 18 x_24_ + [ 11 x_39_ ^ 2 ] >= 301
quadratic_ranged_3_lb: -2 x_46_ + 20 x_49_ + [ 50 x_46_ ^ 2 ] >= 97
quadratic_ranged_4_lb: -25 x_2_ + [ -48 x_11_ ^ 2 + 1 x_17_ ^ 2 ] >= -304
quadratic_ranged_5_lb: 29 x_10_ + 32 x_13_ - 17 x_15_ + [ 25 x_12_ ^ 2 - 30 x_13_ ^ 2 + 6 x_15_ ^ 2 - 13 x_18_ ^ 2 - 6 x_46_ ^ 2 ] >= 295
quadratic_ranged_6_lb: -30 x_3_ + 33 x_14_ + 49 x_21_ + 43 x_23_ + [ -27 x_3_ ^ 2 + 42 x_11_ ^ 2 ] >= -109
quadratic_ranged_7_lb: -47 x_1_ - 7 x_39_ + 13 x_41_ + [ 14 x_8_ ^ 2 ] >= -64
quadratic_ranged_8_lb: 12 x_31_ - 10 x_45_ - 18 x_46_ + [ -39 x_14_ ^ 2 + 11 x_46_ ^ 2 ] >= -1032
quadratic_ranged_9_lb: -38 x_1_ + 44 x_7_ + 7 x_21_ - 44 x_26_ - 24 x_42_ + [ -39 x_7_ ^ 2 + 43 x_25_ ^ 2 ] >= -3476
quadratic_ranged_10_lb: 32 x_38_ + 45 x_45_ + [ 5 x_45_ ^ 2 ] >= -143
quadratic_ranged_11_lb: -30 x_37_ + [ -8 x_2_ ^ 2 - 14 x_25_ ^ 2 ] >= -474
quadratic_ranged_12_lb: -38 x_1_ + 17 x_13_ - 18 x_41_ + [ 40 x_7_ ^ 2 + 23 x_48_ ^ 2 ] >= 5005
quadratic_ranged_13_lb: 4 x_18_ - 41 x_23_ - 2 x_25_ + [ -33 x_31_ ^ 2 - 25 x_41_ ^ 2 ] >= -603
quadratic_ranged_14_lb: -6 x_20_ + 32 x_21_ + [ -38 x_21_ ^ 2 ] >= -1125
quadratic_ranged_15_lb: [ -18 x_8_ ^ 2 - 12 x_22_ ^ 2 ] >= -453
quadratic_ranged_16_lb: -12 x_31_ + 5 x_47_ + 44 x_50_ + [ 27 x_31_ ^ 2 - 35 x_35_ ^ 2 + 11 x_47_ ^ 2 ] >= -1787
quadratic_ranged_17_lb: -35 x_38_ + [ 11 x_3_ ^ 2 - 14 x_41_ ^ 2 - 9 x_48_ ^ 2 ] >= -122
quadratic_ranged_18_lb: 6 x_15_ - 8 x_32_ + [ -50 x_41_ ^ 2 ] >= -474
quadratic_ranged_19_lb: 34 x_1_ + 40 x_8_ + [ 26 x_36_ ^ 2 ] >= 244
quadratic_ranged_20_lb: 7 x_18_ + 4 x_27_ + [ 17 x_47_ ^ 2 ] >= 1099
quadratic_ranged_21_lb: -12 x_29_ - 20 x_36_ + 27 x_42_ - 38 x_45_ + [ 9 x_29_ ^ 2 + 15 x_32_ ^ 2 - 5 x_42_ ^ 2 ] >= -148
quadratic_ranged_22_lb: -28 x_2_ - 22 x_4_ - 23 x_43_ + [ 11 x_2_ ^ 2 + 38 x_43_ ^ 2 ] >= 650
quadratic_ranged_23_lb: -2 x_5_ - 27 x_13_ + 5 x_19_ + [ 44 x_1_ ^ 2 ] >= 364
quadratic_ranged_24_lb: -31 x_26_ + [ -41 x_37_ ^ 2 ] >= -3259
quadratic_ranged_25_lb: [ 34 x_30_ ^ 2 + 18 x_36_ ^ 2 ] >= 1733
quadratic_ranged_26_lb: -36 x_1_ - 36 x_5_ + 22 x_20_ - 4 x_21_ + [ -49 x_1_ ^ 2 - 11 x_46_ ^ 2 - 16 x_47_ ^ 2 ] >= -1330
quadratic_ranged_27_lb: 39 x_1_ - 8 x_11_ + 13 x_34_ + [ 20 x_18_ ^ 2 + 19 x_23_ ^ 2 - 12 x_24_ ^ 2 + 39 x_35_ ^ 2 ] >= 3234
quadratic_ranged_28_lb: -12 x_10_ + 27 x_46_ + [ -41 x_15_ ^ 2 - 40 x_46_ ^ 2 ] >= -1452
quadratic_ranged_29_lb: 23 x_3_ + 27 x_15_ - 15 x_36_ + 28 x_50_ + [ -31 x_3_ ^ 2 - 44 x_9_ ^ 2 - 30 x_13_ ^ 2 - 19 x_14_ ^ 2 + 17 x_37_ ^ 2 + 21 x_39_ ^ 2 + 7 x_49_ ^ 2 ] >= -1963
quadratic_ranged_30_lb: [ -45 x_6_ ^ 2 - 22 x_33_ ^ 2 ] >= -3959
quadratic_ranged_31_lb: 7 x_2_ - 22 x_42_ + [ -37 x_47_ ^ 2 ] >= -2363
quadratic_ranged_32_lb: -5 x_1_ + 28 x_21_ - 10 x_30_ - 40 x_33_ + [ -12 x_7_ ^ 2 - 38 x_9_ ^ 2 ] >= -4001
quadratic_ranged_33_lb: [ 32 x_15_ ^ 2 + 30 x_22_ ^ 2 + 19 x_25_ ^ 2 + 33 x_29_ ^ 2 ] >= 2264
quadratic_ranged_34_lb: -41 x_48_ + [ -42 x_29_ ^ 2 + 23 x_48_ ^ 2 ] >= 1369
quadratic_ranged_35_lb: -10 x_44_ + [ -46 x_9_ ^ 2 - 20 x_40_ ^ 2 + 25 x_47_ ^ 2 ] >= -1655
quadratic_ranged_36_lb: -32 x_4_ + 5 x_17_ + [ -14 x_3_ ^ 2 ] >= 201
quadratic_ranged_37_lb: 6 x_44_ + [ 26 x_27_ ^ 2 - 15 x_47_ ^ 2 - 3 x_48_ ^ 2 + 26 x_49_ ^ 2 ] >= -440
quadratic_ranged_38_lb: -48 x_37_ + 45 x_39_ - 27 x_46_ + [ -7 x_3_ ^ 2 - 2 x_50_ ^ 2 ] >= -708
quadratic_ranged_39_lb: 36 x_20_ + [ 25 x_39_ ^ 2 ] >= 468
quadratic_ranged_40_lb: 41 x_44_ + [ 7 x_3_ ^ 2 - 11 x_7_ ^ 2 - 7 x_10_ ^ 2 ] >= -1110
quadratic_ranged_41_lb: -12 x_3_ - 50 x_25_ + 23 x_29_ - 22 x_48_ + [ 28 x_3_ ^ 2 + 13 x_9_ ^ 2 + 14 x_29_ ^ 2 ] >= 1188
quadratic_ranged_42_lb: -28 x_8_ + 4 x_40_ - 40 x_46_ + [ -19 x_7_ ^ 2 ] >= -1949
quadratic_ranged_43_lb: -38 x_38_ + [ -17 x_38_ ^ 2 ] >= -1322
c1_1: -32 x_30_ = 224
c2_1: 13 x_36_ - 31 x_42_ = 88
c3_1: 3 x_12_ - 32 x_21_ - 42 x_39_ = 337
c4_1: 40 x_39_ = -160
c5_1: 18 x_37_ + 7 x_42_ = 148
c6_1: 34 x_48_ = -238
c7_1: -5 x_2_ + 39 x_8_ + 15 x_49_ = 139
c1: 7 x_1_ - 3 x_25_ + [ 20 x_25_ ^ 2 - 34 x_46_ ^ 2 + 1 x_50_ ^ 2 ] = 37
c2: 25 x_7_ + 22 x_26_ - 29 x_33_ - 17 x_42_ - 25 x_46_ - 47 x_47_ + [ -3 x_13_ ^ 2 ] = -366
c3: -7 x_31_ - 11 x_37_ + [ -50 x_31_ ^ 2 + 6 x_37_ ^ 2 ] = 201
c4: 42 x_18_ - 39 x_28_ + 37 x_50_ + [ 9 x_6_ ^ 2 - 43 x_45_ ^ 2 + 47 x_50_ ^ 2 ] = 1287
c5: -2 x_13_ + [ -27 x_21_ ^ 2 ] = -681
c6: 48 x_26_ + [ 6 x_31_ ^ 2 + 23 x_39_ ^ 2 ] = 296
c7: -31 x_25_ - 41 x_27_ - 16 x_43_ - 25 x_50_ + [ -28 x_9_ ^ 2 - 39 x_25_ ^ 2 - 48 x_43_ ^ 2 ] = -1997
c8: 8 x_44_ + [ -14 x_5_ ^ 2 + 37 x_10_ ^ 2 - 39 x_32_ ^ 2 ] = -366
c9: 23 x_4_ + 21 x_48_ + [ 15 x_4_ ^ 2 + 40 x_48_ ^ 2 ] = 3083
c10: [ 20 x_8_ ^ 2 ] = 20
c11: -37 x_4_ - 4 x_7_ - 29 x_43_ - 13 x_44_ + [ -39 x_15_ ^ 2 + 26 x_44_ ^ 2 ] = -1064
c12: -9 x_9_ - 7 x_47_ - 24 x_49_ + [ 11 x_9_ ^ 2 + 20 x_23_ ^ 2 ] = 1320
c13: 4 x_12_ + 47 x_41_ + [ -15 x_3_ ^ 2 + 7 x_34_ ^ 2 + 34 x_47_ ^ 2 ] = 2894
c14: 2 x_11_ - 44 x_44_ - 41 x_45_ + [ -26 x_19_ ^ 2 - 20 x_39_ ^ 2 - 10 x_45_ ^ 2 ] = -2147
c15: 4 x_19_ - 34 x_27_ - 42 x_31_ + 6 x_42_ + [ -48 x_10_ ^ 2 - 36 x_31_ ^ 2 + 45 x_47_ ^ 2 ] = 2614
c16: [ -50 x_1_ ^ 2 ] = -450
c17: 37 x_10_ - 22 x_24_ + [ -44 x_2_ ^ 2 - 42 x_26_ ^ 2 + 3 x_37_ ^ 2 + 28 x_39_ ^ 2 ] = -805
c18: -4 x_10_ + 28 x_46_ + [ -14 x_44_ ^ 2 ] = -6
c19: -1 x_13_ + 11 x_14_ + [ -24 x_8_ ^ 2 - 14 x_14_ ^ 2 - 45 x_44_ ^ 2 ] = -477
c20: -9 x_2_ + 20 x_23_ + [ -14 x_1_ ^ 2 - 17 x_3_ ^ 2 + 27 x_21_ ^ 2 - 36 x_24_ ^ 2 - 25 x_37_ ^ 2 ] = -3228
c21: 28 x_9_ - 8 x_11_ + [ 24 x_12_ ^ 2 ] = -32
c22: 21 x_11_ + [ 28 x_44_ ^ 2 ] = 91
c23: -33 x_13_ - 20 x_43_ + [ -14 x_43_ ^ 2 ] = -133
c24: -3 x_1_ - 17 x_24_ - 42 x_46_ + [ 4 x_13_ ^ 2 + 42 x_29_ ^ 2 ] = -50
c25: -47 x_17_ + [ -20 x_41_ ^ 2 ] = -274
c26: 3 x_11_ - 10 x_22_ + 43 x_24_ + [ -40 x_9_ ^ 2 ] = -2310
c27: 43 x_39_ - 34 x_44_ + [ 18 x_31_ ^ 2 ] = -66
c28: -9 x_3_ + 45 x_12_ - 46 x_21_ + [ 40 x_5_ ^ 2 - 1 x_36_ ^ 2 ] = 1334
c29: -31 x_8_ - 9 x_9_ + 50 x_32_ + [ 19 x_8_ ^ 2 - 19 x_13_ ^ 2 ] = -211
c30: 21 x_18_ - 35 x_24_ - 16 x_26_ + [ -15 x_24_ ^ 2 + 8 x_46_ ^ 2 ] = -927
c31: -33 x_9_ + 45 x_26_ - 20 x_27_ - 12 x_36_ + [ 32 x_4_ ^ 2 - 41 x_37_ ^ 2 - 47 x_40_ ^ 2 ] = -743
c32: -13 x_4_ + [ -47 x_4_ ^ 2 ] = -4570
c33: -26 x_10_ + 12 x_29_ + [ -50 x_45_ ^ 2 ] = -410
c34: -22 x_39_ + [ -46 x_10_ ^ 2 + 37 x_34_ ^ 2 - 10 x_36_ ^ 2 ] = 3564
c35: 7 x_44_ - 17 x_47_ + [ -28 x_31_ ^ 2 + 21 x_41_ ^ 2 ] = -66
c36: -38 x_8_ + 10 x_17_ + 10 x_18_ + [ 42 x_38_ ^ 2 - 40 x_45_ ^ 2 ] = 3832
c37: 8 x_24_ - 17 x_44_ + [ -50 x_5_ ^ 2 ] = -1177
c38: 32 x_10_ + 50 x_41_ + [ 28 x_10_ ^ 2 - 14 x_39_ ^ 2 + 23 x_42_ ^ 2 ] = 66
c39: 5 x_3_ + 17 x_30_ + [ 14 x_45_ ^ 2 ] = 22
c40: [ 18 x_37_ ^ 2 - 36 x_43_ ^ 2 ] = 1422
c41: 15 x_4_ + 39 x_8_ - 20 x_10_ + 16 x_20_ - 1 x_24_ + 23 x_40_ - 7 x_42_ + [ 21 x_9_ ^ 2 ] = 1220
c42: 40 x_18_ + 4 x_20_ + [ -26 x_28_ ^ 2 - 20 x_48_ ^ 2 ] = -1348
c43: 28 x_2_ + 19 x_6_ + 25 x_39_ + [ 26 x_14_ ^ 2 + 7 x_21_ ^ 2 ] = 737
c44: 4 x_32_ + [ 16 x_5_ ^ 2 + 11 x_10_ ^ 2 - 5 x_18_ ^ 2 - 19 x_44_ ^ 2 ] = 412
c45: -26 x_40_ + [ -35 x_40_ ^ 2 ] = -456
c46: 12 x_9_ - 38 x_32_ - 49 x_35_ + [ 23 x_1_ ^ 2 - 25 x_15_ ^ 2 + 7 x_25_ ^ 2 ] = -272
Bounds
3 <= x_1_ <= 9
x_2_ = -5
-8 <= x_3_ <= 4
-10 <= x_4_ <= -4
-9 <= x_5_ <= -3
-1 <= x_6_ <= 9
-1 <= x_7_ <= 10
-6 <= x_8_ <= 3
-9 <= x_9_ <= -1
-9 <= x_10_ <= 0
2 <= x_11_ <= 5
-10 <= x_12_ <= 5
-6 <= x_13_ <= 5
-9 <= x_14_ <= 3
-7 <= x_15_ <= 10
-1 <= x_16_ <= 9
1 <= x_17_ <= 6
-2 <= x_18_ <= 5
8 <= x_19_ <= 10
-4 <= x_20_ <= 6
-10 <= x_21_ <= 9
0 <= x_22_ <= 7
4 <= x_23_ <= 10
-5 <= x_24_ <= 7
-6 <= x_25_ <= 6
-3 <= x_26_ <= 0
-7 <= x_27_ <= 1
-6 <= x_28_ <= 7
-8 <= x_29_ <= 0
-10 <= x_30_ <= 10
-10 <= x_31_ <= 4
-2 <= x_32_ <= 6
2 <= x_33_ <= 7
-10 <= x_34_ <= -5
-10 <= x_35_ <= 7
-4 <= x_36_ <= 9
-10 <= x_37_ <= 10
-10 <= x_38_ <= 7
-10 <= x_39_ <= 7
-4 <= x_40_ <= -2
2 <= x_41_ <= 6
-9 <= x_42_ <= 1
-3 <= x_43_ <= 7
-1 <= x_44_ <= 9
0 <= x_45_ <= 8
-10 <= x_46_ <= 0
-10 <= x_47_ <= 10
-7 <= x_48_ <= -1
5 <= x_49_ <= 7
-4 <= x_50_ <= 7
General
x_1_
x_2_
x_3_
x_4_
x_5_
x_6_
x_7_
x_8_
x_9_
x_10_
x_11_
x_12_
x_13_
x_14_
x_15_
x_16_
x_17_
x_18_
x_19_
x_20_
x_21_
x_22_
x_23_
x_24_
x_25_
x_26_
x_27_
x_28_
x_29_
x_30_
x_31_
x_32_
x_33_
x_34_
x_35_
x_36_
x_37_
x_38_
x_39_
x_40_
x_41_
x_42_
x_43_
x_44_
x_45_
x_46_
x_47_
x_48_
x_49_
x_50_
End
