minimize
obj: -43 x_7_ + 2 x_10_ - 2 x_17_ + 7 x_24_ - 16 x_29_ + 39 x_38_ - 13 x_45_ - 8 x_47_
subject to
quadratic_ranged_1_ub: 13 x_39_ + [ 4 x_11_ * x_33_ + 30 x_39_ * x_33_ + 30 x_48_ * x_39_ ] <= 16
quadratic_ranged_2_ub: -13 x_2_ - 20 x_47_ + 30 x_50_ + [ 48 x_2_ ^ 2 - 58 x_3_ * x_2_ - 54 x_15_ * x_2_ + 98 x_37_ * x_2_ + 32 x_40_ * x_2_ + 30 x_49_ * x_2_ + 22 x_47_ * x_3_ - 40 x_49_ * x_3_ + 74 x_26_ * x_9_ + 22 x_27_ * x_9_ + 18 x_28_ * x_9_ - 40 x_40_ * x_9_ - 34 x_44_ * x_9_ - 44 x_47_ * x_9_ + 100 x_18_ * x_15_ - 86 x_25_ * x_15_ - 86 x_26_ * x_15_ + 72 x_44_ * x_15_ - 18 x_28_ * x_18_ + 34 x_40_ * x_18_ - 96 x_37_ * x_25_ + 40 x_40_ * x_25_ - 48 x_27_ * x_26_ + 38 x_37_ * x_26_ - 78 x_44_ * x_26_ + 2 x_47_ * x_26_ + 32 x_49_ * x_26_ - 46 x_28_ ^ 2 - 58 x_37_ * x_28_ + 22 x_40_ * x_28_ + 76 x_47_ * x_28_ - 74 x_50_ * x_37_ - 32 x_50_ * x_40_ - 100 x_44_ * x_42_ ] <= -4015
quadratic_ranged_3_ub: 8 x_19_ + 35 x_28_ + 25 x_48_ + [ -24 x_5_ * x_2_ + 10 x_8_ * x_5_ - 82 x_11_ * x_5_ + 28 x_48_ * x_5_ - 92 x_43_ * x_7_ + 24 x_11_ ^ 2 + 26 x_43_ * x_11_ ] <= 578
quadratic_ranged_4_ub: 44 x_4_ + 29 x_16_ + 28 x_40_ + 23 x_43_ + [ 80 x_20_ * x_4_ + 10 x_22_ * x_9_ + 66 x_39_ * x_9_ - 60 x_40_ * x_9_ + 84 x_43_ * x_9_ + 50 x_47_ * x_9_ - 62 x_13_ * x_10_ - 42 x_43_ * x_10_ - 94 x_16_ * x_13_ - 30 x_40_ * x_13_ + 74 x_42_ * x_13_ + 28 x_16_ ^ 2 + 24 x_22_ * x_16_ + 48 x_38_ * x_16_ + 22 x_43_ * x_16_ - 66 x_40_ * x_21_ + 34 x_38_ * x_22_ - 58 x_43_ * x_22_ + 66 x_50_ * x_22_ - 30 x_50_ * x_38_ - 20 x_47_ * x_39_ - 76 x_43_ * x_40_ + 8 x_42_ ^ 2 ] <= 4395
quadratic_ranged_5_ub: 16 x_15_ + 7 x_43_ + [ 44 x_35_ * x_7_ + 98 x_43_ * x_7_ + 23 x_30_ ^ 2 - 12 x_49_ * x_30_ + 96 x_43_ * x_35_ ] <= -1548
quadratic_ranged_6_ub: 17 x_28_ + [ 32 x_1_ ^ 2 - 82 x_24_ * x_1_ + 20 x_44_ * x_19_ - 22 x_24_ ^ 2 + 96 x_44_ * x_24_ ] <= 2824
quadratic_ranged_7_ub: -38 x_2_ - 46 x_14_ + 15 x_24_ + [ 28 x_39_ * x_2_ - 88 x_43_ * x_2_ - 34 x_34_ * x_5_ + 60 x_39_ * x_5_ + 48 x_12_ ^ 2 - 26 x_13_ ^ 2 + 38 x_14_ * x_13_ + 12 x_34_ * x_14_ + 26 x_39_ * x_14_ + 90 x_34_ * x_17_ - 22 x_43_ * x_17_ - 4 x_34_ * x_31_ + 74 x_39_ * x_34_ ] <= 5023
quadratic_ranged_8_ub: -36 x_25_ - 36 x_47_ + 21 x_50_ + [ -20 x_6_ * x_50_ - 98 x_25_ * x_9_ + 46 x_31_ * x_9_ - 32 x_31_ * x_25_ - 4 x_38_ * x_25_ + 86 x_47_ * x_25_ + 22 x_50_ * x_25_ - 16 x_41_ * x_38_ ] <= -3167
quadratic_ranged_9_ub: -12 x_3_ + 24 x_12_ + [ 43 x_3_ ^ 2 + 38 x_7_ * x_3_ - 88 x_21_ * x_3_ - 40 x_47_ * x_7_ - 68 x_21_ * x_12_ - 14 x_48_ * x_12_ + 16 x_21_ ^ 2 + 22 x_48_ * x_47_ + 10 x_48_ ^ 2 ] <= 2581
quadratic_ranged_10_ub: 16 x_43_ - 25 x_47_ + [ -2 x_3_ ^ 2 + 76 x_33_ * x_3_ + 40 x_47_ * x_3_ ] <= -1219
quadratic_ranged_11_ub: 25 x_14_ + [ 82 x_34_ * x_10_ - 52 x_37_ * x_10_ + 32 x_47_ * x_10_ + 96 x_14_ * x_12_ + 56 x_21_ * x_12_ + 96 x_23_ * x_12_ - 56 x_34_ * x_12_ + 38 x_43_ * x_12_ - 2 x_21_ * x_14_ - 6 x_47_ * x_19_ - 18 x_45_ * x_21_ + 62 x_43_ * x_23_ + 4 x_45_ * x_23_ + 40 x_47_ * x_23_ + 38 x_37_ * x_31_ - 92 x_47_ * x_31_ + 19 x_34_ ^ 2 + 80 x_43_ * x_34_ - 84 x_47_ * x_34_ + 44 x_37_ * x_36_ - 36 x_43_ ^ 2 ] <= -602
quadratic_ranged_12_ub: -45 x_41_ - 47 x_42_ + [ -56 x_37_ * x_1_ + 50 x_39_ * x_1_ + 88 x_43_ * x_1_ + 6 x_27_ * x_9_ + 8 x_38_ * x_9_ + 84 x_43_ * x_9_ + 32 x_25_ * x_14_ + 49 x_22_ ^ 2 + 20 x_39_ * x_22_ - 96 x_41_ * x_22_ + 58 x_27_ * x_25_ - 84 x_39_ * x_25_ + 4 x_42_ * x_27_ + 4 x_38_ * x_37_ + 48 x_38_ ^ 2 + 36 x_39_ * x_38_ - 44 x_39_ ^ 2 ] <= -5491
quadratic_ranged_13_ub: [ -84 x_4_ * x_1_ - 66 x_6_ * x_1_ + 24 x_44_ * x_1_ - 58 x_34_ * x_6_ + 34 x_34_ * x_24_ + 24 x_44_ * x_34_ - 2 x_44_ ^ 2 ] <= -741
quadratic_ranged_14_ub: [ -20 x_3_ * x_41_ - 38 x_12_ * x_5_ - 50 x_14_ * x_5_ - 12 x_41_ * x_5_ + 76 x_16_ * x_12_ + 78 x_26_ * x_14_ - 74 x_41_ * x_14_ + 94 x_21_ * x_16_ + 24 x_41_ * x_16_ + 4 x_43_ * x_16_ - 36 x_50_ * x_16_ + 94 x_21_ * x_17_ + 10 x_26_ * x_17_ + 26 x_30_ * x_17_ + 34 x_34_ * x_17_ + 68 x_21_ * x_19_ + 12 x_30_ * x_19_ + 8 x_43_ * x_19_ - 8 x_30_ * x_21_ + 80 x_39_ * x_21_ - 100 x_34_ * x_26_ - 44 x_39_ * x_29_ + 4 x_40_ * x_29_ + 12 x_43_ * x_34_ + 88 x_50_ * x_34_ - 44 x_41_ * x_40_ ] <= -13509
quadratic_ranged_15_ub: -21 x_13_ + 14 x_15_ + 29 x_45_ + [ -68 x_19_ * x_6_ + 90 x_37_ * x_6_ + 88 x_41_ * x_6_ - 62 x_45_ * x_6_ + 98 x_45_ * x_10_ + 16 x_49_ * x_10_ + 70 x_49_ * x_15_ - 78 x_23_ * x_19_ + 18 x_49_ * x_20_ + 80 x_45_ * x_23_ + 88 x_41_ * x_32_ - 32 x_41_ * x_33_ + 86 x_39_ * x_37_ + 70 x_42_ * x_37_ + 80 x_49_ * x_37_ + 22 x_41_ ^ 2 - 78 x_49_ * x_45_ ] <= 10805
quadratic_ranged_16_ub: 16 x_23_ - 2 x_36_ + [ -47 x_14_ ^ 2 + 2 x_24_ * x_14_ + 40 x_36_ * x_24_ - 58 x_43_ * x_24_ + 28 x_36_ * x_33_ - 24 x_38_ * x_33_ + 38 x_43_ * x_33_ + 84 x_38_ * x_36_ ] <= -3223
quadratic_ranged_17_ub: [ -80 x_4_ * x_2_ + 40 x_5_ * x_2_ - 38 x_5_ * x_4_ - 56 x_45_ * x_4_ - 16 x_5_ ^ 2 + 82 x_44_ * x_6_ - 37 x_45_ ^ 2 ] <= -6335
quadratic_ranged_18_ub: -36 x_42_ + [ -26 x_32_ * x_14_ - 74 x_32_ * x_16_ + 20 x_37_ * x_30_ + 38 x_32_ ^ 2 - 14 x_42_ * x_32_ - 25 x_37_ ^ 2 + 50 x_42_ ^ 2 ] <= -750
quadratic_ranged_19_ub: 41 x_47_ + 35 x_48_ + [ 6 x_4_ * x_48_ - 50 x_48_ * x_13_ + 12 x_32_ * x_20_ + 38 x_38_ * x_21_ + 100 x_47_ * x_32_ + 52 x_48_ * x_38_ ] <= -5113
quadratic_ranged_20_ub: -12 x_50_ + [ 16 x_48_ * x_18_ + 41 x_29_ ^ 2 - 10 x_48_ * x_42_ ] <= -576
quadratic_ranged_21_ub: 9 x_2_ + 27 x_5_ + 27 x_32_ - 6 x_46_ + [ 44 x_5_ * x_2_ + 58 x_23_ * x_6_ + 24 x_28_ * x_6_ + 3 x_16_ ^ 2 - 8 x_28_ * x_23_ - 43 x_32_ ^ 2 ] <= -5464
quadratic_ranged_22_ub: -40 x_17_ - 9 x_35_ + [ -70 x_2_ * x_11_ + 34 x_17_ * x_2_ + 24 x_24_ * x_2_ - 16 x_38_ * x_11_ - 70 x_38_ * x_24_ + 40 x_38_ * x_35_ ] <= 2722
quadratic_ranged_23_ub: -36 x_4_ - 31 x_39_ + [ -26 x_4_ * x_6_ - 10 x_7_ * x_4_ - 94 x_38_ * x_6_ - 90 x_45_ * x_6_ + 78 x_38_ * x_7_ - 64 x_41_ * x_35_ - 34 x_45_ * x_35_ + 24 x_41_ * x_38_ + 22 x_45_ * x_39_ ] <= 10331
quadratic_ranged_24_ub: 28 x_33_ + [ -42 x_4_ * x_3_ - 47 x_6_ ^ 2 + 56 x_20_ * x_6_ - 82 x_20_ * x_12_ + 72 x_33_ * x_12_ + 26 x_30_ * x_16_ - 58 x_33_ * x_16_ - 20 x_20_ ^ 2 ] <= 4254
quadratic_ranged_25_ub: 33 x_14_ - 19 x_15_ - 46 x_29_ + 6 x_31_ + [ 48 x_1_ * x_5_ - 80 x_15_ * x_1_ + 94 x_24_ * x_1_ + 82 x_33_ * x_1_ + 56 x_28_ * x_2_ + 10 x_29_ * x_2_ + 30 x_31_ * x_2_ + 60 x_44_ * x_2_ + 64 x_33_ * x_5_ + 28 x_44_ * x_5_ - 100 x_29_ * x_14_ + 76 x_20_ * x_15_ - 92 x_29_ * x_15_ - 80 x_31_ * x_15_ - 74 x_29_ * x_20_ - 10 x_31_ * x_20_ + 70 x_31_ * x_23_ - 70 x_44_ * x_23_ - 4 x_44_ * x_28_ - 18 x_31_ * x_29_ - 38 x_44_ * x_29_ + 100 x_33_ * x_31_ ] <= 2232
quadratic_ranged_26_ub: 38 x_26_ + 7 x_31_ + 8 x_42_ + [ 98 x_13_ * x_9_ + 16 x_26_ * x_9_ + 62 x_29_ * x_9_ + 10 x_31_ * x_9_ + 21 x_13_ ^ 2 + 14 x_26_ * x_19_ + 16 x_29_ * x_19_ - 76 x_31_ * x_19_ + 24 x_42_ * x_26_ - 28 x_47_ * x_26_ + 54 x_42_ * x_29_ - 36 x_35_ * x_31_ - 5 x_35_ ^ 2 - 70 x_47_ * x_35_ + 47 x_47_ ^ 2 ] <= -6201
quadratic_ranged_27_ub: 4 x_5_ - 10 x_23_ + [ -39 x_1_ ^ 2 - 32 x_33_ * x_1_ + 62 x_34_ * x_1_ - 94 x_21_ * x_5_ + 74 x_34_ * x_5_ - 8 x_40_ * x_5_ + 56 x_48_ * x_5_ - 49 x_7_ ^ 2 + 24 x_21_ * x_7_ - 86 x_32_ * x_7_ + 18 x_41_ * x_7_ - 14 x_16_ * x_15_ - 20 x_23_ * x_15_ + 2 x_29_ * x_15_ + 36 x_29_ * x_16_ - 6 x_34_ * x_16_ - 26 x_23_ * x_21_ + 2 x_33_ * x_23_ - 18 x_41_ * x_29_ - 16 x_48_ * x_29_ + 50 x_41_ * x_31_ - 30 x_48_ * x_32_ - 3 x_33_ ^ 2 - 96 x_41_ * x_34_ - 34 x_48_ * x_34_ + 56 x_48_ * x_41_ ] <= -14977
quadratic_ranged_28_ub: [ 18 x_5_ * x_17_ + 42 x_27_ * x_17_ + 94 x_27_ * x_26_ ] <= 6830
quadratic_ranged_29_ub: -11 x_35_ + [ -12 x_46_ * x_35_ + 96 x_48_ * x_46_ - 3 x_48_ ^ 2 ] <= -221
quadratic_ranged_30_ub: 37 x_14_ + [ 46 x_15_ * x_1_ - 62 x_46_ * x_1_ + 4 x_19_ * x_5_ + 60 x_28_ * x_5_ + 22 x_14_ ^ 2 + 29 x_15_ ^ 2 - 70 x_34_ * x_15_ - 16 x_30_ * x_25_ - 38 x_34_ * x_28_ - 70 x_46_ * x_28_ + 39 x_30_ ^ 2 - 82 x_46_ * x_30_ + 3 x_46_ ^ 2 ] <= -3198
quadratic_ranged_31_ub: -50 x_44_ + [ -88 x_11_ * x_1_ + 90 x_46_ * x_1_ + 8 x_11_ * x_2_ + 2 x_15_ * x_2_ + 64 x_32_ * x_2_ - 68 x_35_ * x_2_ - 44 x_44_ * x_2_ + 19 x_3_ ^ 2 - 44 x_11_ * x_3_ + 17 x_11_ ^ 2 - 92 x_13_ * x_11_ + 68 x_15_ * x_11_ + 24 x_31_ * x_11_ - 84 x_32_ * x_11_ + 88 x_46_ * x_13_ + 46 x_31_ * x_15_ - 74 x_32_ * x_31_ - 36 x_43_ * x_31_ + 44 x_46_ * x_31_ - 5 x_32_ ^ 2 - 12 x_46_ * x_32_ - 42 x_35_ ^ 2 - 20 x_44_ ^ 2 + 26 x_46_ ^ 2 ] <= 16122
quadratic_ranged_32_ub: 13 x_1_ - 5 x_5_ - 32 x_39_ + 45 x_43_ + [ -38 x_40_ * x_1_ - 40 x_24_ * x_3_ - 68 x_37_ * x_3_ + 90 x_39_ * x_3_ - 2 x_43_ * x_3_ - 54 x_50_ * x_3_ + 4 x_37_ * x_4_ + 4 x_26_ * x_5_ - 22 x_6_ ^ 2 - 32 x_10_ * x_6_ - 10 x_31_ * x_6_ + 94 x_43_ * x_6_ - 64 x_47_ * x_6_ - 78 x_50_ * x_6_ - 38 x_31_ * x_10_ + 50 x_43_ * x_10_ + 2 x_12_ ^ 2 + 72 x_40_ * x_12_ - 34 x_50_ * x_12_ - 25 x_24_ ^ 2 - 96 x_26_ * x_24_ + 74 x_39_ * x_24_ + 76 x_47_ * x_24_ - 82 x_43_ * x_31_ - 26 x_47_ * x_31_ + 36 x_50_ * x_43_ ] <= -3236
quadratic_ranged_33_ub: -35 x_1_ - 18 x_11_ + [ 86 x_7_ * x_1_ - 96 x_8_ * x_1_ - 46 x_15_ * x_1_ - 72 x_42_ * x_1_ - 72 x_34_ * x_7_ + 28 x_17_ * x_8_ - 56 x_34_ * x_8_ + 14 x_42_ * x_8_ - 32 x_9_ ^ 2 + 4 x_11_ * x_9_ + 74 x_15_ * x_11_ - 80 x_39_ * x_11_ + 42 x_15_ ^ 2 + 90 x_36_ * x_15_ - 26 x_42_ * x_15_ + 94 x_21_ * x_17_ - 100 x_34_ * x_17_ + 34 x_21_ ^ 2 + 68 x_42_ * x_21_ + 52 x_39_ * x_36_ - 58 x_42_ * x_39_ - 3 x_42_ ^ 2 ] <= -2149
quadratic_ranged_34_ub: -37 x_37_ + [ 18 x_17_ * x_28_ - 22 x_33_ * x_17_ + 16 x_37_ * x_17_ - 40 x_37_ * x_28_ ] <= -2660
quadratic_ranged_35_ub: 20 x_6_ - 24 x_26_ - 22 x_48_ + 10 x_50_ + [ -4 x_8_ * x_2_ - 22 x_10_ * x_2_ + 62 x_17_ * x_2_ + 70 x_20_ * x_2_ + 16 x_38_ * x_2_ + 90 x_27_ * x_4_ + 54 x_47_ * x_4_ - 2 x_8_ * x_6_ - 4 x_13_ * x_6_ - 68 x_23_ * x_6_ + 36 x_26_ * x_6_ + 70 x_27_ * x_6_ + 60 x_29_ * x_6_ - 72 x_48_ * x_6_ - 72 x_10_ * x_8_ - 26 x_29_ * x_8_ + 54 x_47_ * x_8_ + 98 x_48_ * x_8_ + 90 x_17_ * x_10_ - 80 x_25_ * x_10_ + 16 x_29_ * x_10_ - 62 x_50_ * x_10_ + 1 x_13_ ^ 2 + 86 x_23_ * x_13_ + 88 x_27_ * x_13_ - 42 x_47_ * x_13_ + 74 x_30_ * x_17_ + 66 x_23_ * x_18_ + 34 x_27_ * x_18_ - 80 x_50_ * x_18_ + 50 x_20_ ^ 2 + 5 x_25_ ^ 2 - 8 x_26_ * x_25_ + 60 x_38_ * x_25_ - 3 x_26_ ^ 2 + 50 x_29_ * x_26_ - 42 x_30_ * x_29_ + 24 x_50_ * x_38_ + 46 x_50_ * x_47_ ] <= 5280
quadratic_ranged_36_ub: 36 x_15_ + 48 x_22_ + [ 100 x_10_ * x_5_ - 44 x_35_ * x_5_ + 96 x_15_ * x_10_ + 4 x_36_ * x_15_ + 44 x_38_ * x_15_ - 98 x_38_ * x_22_ + 80 x_47_ * x_22_ + 78 x_47_ * x_32_ - 49 x_35_ ^ 2 + 70 x_36_ * x_35_ + 70 x_38_ * x_35_ + 18 x_47_ * x_38_ ] <= -15864
quadratic_ranged_37_ub: 38 x_6_ + [ -8 x_16_ * x_6_ - 70 x_47_ * x_6_ + 80 x_32_ * x_10_ + 8 x_15_ ^ 2 - 34 x_47_ * x_15_ - 62 x_27_ * x_23_ - 74 x_32_ * x_27_ + 13 x_32_ ^ 2 ] <= 3899
quadratic_ranged_38_ub: -31 x_22_ - 1 x_26_ - 7 x_43_ + [ -22 x_43_ * x_14_ + 46 x_28_ * x_21_ - 54 x_28_ * x_22_ + 92 x_43_ * x_22_ - 40 x_43_ * x_26_ + 6 x_28_ ^ 2 + 1 x_35_ ^ 2 + 24 x_42_ ^ 2 ] <= -10795
quadratic_ranged_39_ub: 43 x_2_ + 22 x_7_ + 21 x_10_ + 43 x_28_ + 7 x_29_ + [ 44 x_2_ ^ 2 - 54 x_10_ * x_2_ + 84 x_15_ * x_2_ + 64 x_18_ * x_2_ + 20 x_29_ * x_2_ - 68 x_10_ * x_5_ + 10 x_24_ * x_5_ - 42 x_28_ * x_5_ + 26 x_29_ * x_5_ - 32 x_15_ * x_7_ + 60 x_18_ * x_7_ - 8 x_18_ * x_10_ + 68 x_39_ * x_10_ - 10 x_15_ ^ 2 - 48 x_25_ * x_15_ - 6 x_24_ * x_18_ - 38 x_49_ * x_18_ - 58 x_29_ * x_24_ + 2 x_39_ * x_25_ + 24 x_28_ ^ 2 - 86 x_50_ * x_28_ - 2 x_39_ ^ 2 - 36 x_50_ * x_39_ + 30 x_50_ * x_49_ - 41 x_50_ ^ 2 ] <= 11632
quadratic_ranged_40_ub: 47 x_30_ + 20 x_39_ + 46 x_49_ + [ 62 x_3_ * x_26_ - 2 x_39_ * x_26_ + 32 x_49_ * x_26_ + 54 x_32_ * x_30_ + 100 x_49_ * x_30_ + 28 x_50_ * x_49_ ] <= -2772
quadratic_ranged_41_ub: -50 x_10_ + [ -4 x_6_ ^ 2 - 2 x_36_ * x_6_ + 70 x_36_ * x_10_ - 49 x_16_ ^ 2 - 24 x_47_ * x_40_ + 17 x_47_ ^ 2 ] <= -1314
quadratic_ranged_42_ub: -24 x_20_ + 22 x_41_ + [ 49 x_6_ ^ 2 - 8 x_12_ * x_6_ + 34 x_19_ * x_6_ + 28 x_29_ * x_7_ + 16 x_12_ * x_10_ - 90 x_20_ * x_10_ + 62 x_14_ * x_11_ - 72 x_20_ * x_12_ + 32 x_32_ * x_12_ + 58 x_41_ * x_14_ - 62 x_29_ * x_19_ - 34 x_41_ * x_19_ + 96 x_25_ * x_20_ + 34 x_29_ * x_25_ + 43 x_29_ ^ 2 - 42 x_36_ * x_32_ - 38 x_36_ ^ 2 + 24 x_41_ ^ 2 ] <= 2440
quadratic_ranged_43_ub: [ -64 x_14_ * x_1_ - 48 x_26_ * x_1_ - 8 x_43_ * x_1_ - 48 x_50_ * x_1_ + 6 x_11_ * x_4_ - 84 x_24_ * x_4_ + 56 x_43_ * x_4_ + 42 x_50_ * x_4_ + 98 x_14_ * x_11_ - 50 x_24_ * x_11_ + 92 x_50_ * x_11_ - 90 x_16_ * x_14_ + 10 x_24_ * x_14_ - 48 x_26_ * x_14_ + 76 x_43_ * x_14_ - 98 x_50_ * x_14_ - 84 x_18_ * x_16_ - 90 x_43_ * x_16_ - 27 x_18_ ^ 2 + 22 x_24_ * x_18_ - 52 x_26_ * x_18_ + 16 x_33_ * x_18_ - 78 x_50_ * x_18_ + 49 x_24_ ^ 2 - 34 x_33_ * x_24_ + 24 x_26_ ^ 2 - 66 x_50_ * x_26_ - 100 x_46_ * x_43_ - 37 x_50_ ^ 2 ] <= -1080
quadratic_ranged_44_ub: -13 x_38_ + [ -37 x_4_ ^ 2 - 12 x_9_ * x_4_ - 52 x_44_ * x_4_ + 20 x_31_ * x_9_ + 40 x_35_ * x_9_ - 86 x_38_ * x_26_ + 26 x_35_ * x_31_ - 37 x_38_ ^ 2 ] <= 3376
quadratic_ranged_45_ub: 35 x_8_ + [ -50 x_9_ * x_3_ + 18 x_50_ * x_3_ - 34 x_8_ * x_7_ - 82 x_44_ * x_7_ - 88 x_45_ * x_7_ - 4 x_9_ * x_8_ - 84 x_45_ * x_8_ - 12 x_42_ * x_9_ - 72 x_50_ * x_24_ - 39 x_26_ ^ 2 - 8 x_50_ * x_26_ - 25 x_28_ ^ 2 + 54 x_50_ * x_44_ - 2 x_50_ * x_45_ - 21 x_50_ ^ 2 ] <= -9452
quadratic_ranged_46_ub: 27 x_4_ + [ -40 x_19_ * x_10_ + 74 x_34_ * x_19_ + 84 x_41_ * x_27_ - 4 x_50_ * x_27_ + 24 x_41_ * x_31_ + 70 x_50_ * x_31_ - 29 x_33_ ^ 2 - 98 x_39_ * x_34_ + 30 x_50_ * x_34_ - 22 x_41_ ^ 2 ] <= -8931
quadratic_ranged_47_ub: -42 x_17_ + [ 8 x_18_ * x_9_ - 80 x_21_ * x_9_ - 88 x_27_ * x_9_ - 10 x_18_ * x_11_ - 84 x_41_ * x_11_ - 94 x_45_ * x_11_ - 8 x_18_ * x_17_ - 8 x_41_ * x_18_ - 38 x_21_ ^ 2 - 32 x_45_ * x_41_ ] <= -1473
quadratic_ranged_48_ub: 18 x_20_ + [ -1 x_16_ ^ 2 + 12 x_20_ * x_16_ - 20 x_34_ * x_20_ - 21 x_34_ ^ 2 ] <= -112
quadratic_ranged_49_ub: 32 x_29_ + [ -30 x_23_ * x_7_ + 58 x_33_ * x_7_ - 24 x_10_ ^ 2 - 34 x_17_ * x_10_ - 76 x_23_ * x_10_ + 84 x_33_ * x_10_ + 44 x_17_ ^ 2 - 60 x_33_ * x_17_ - 22 x_19_ ^ 2 - 78 x_29_ * x_19_ + 40 x_49_ * x_19_ - 6 x_29_ * x_23_ - 50 x_49_ * x_29_ + 23 x_33_ ^ 2 - 49 x_49_ ^ 2 ] <= -8471
quadratic_ranged_50_ub: 19 x_10_ - 13 x_14_ + 30 x_25_ + 39 x_34_ + 30 x_35_ + 27 x_48_ + [ 14 x_21_ * x_10_ - 80 x_25_ * x_10_ - 64 x_32_ * x_14_ + 66 x_34_ * x_14_ - 3 x_21_ ^ 2 - 6 x_25_ * x_21_ - 70 x_32_ * x_31_ - 96 x_48_ * x_31_ + 22 x_35_ * x_34_ + 14 x_48_ * x_35_ ] <= -6468
quadratic_ranged_51_ub: [ -96 x_12_ * x_7_ - 7 x_12_ ^ 2 - 48 x_14_ * x_12_ - 38 x_17_ * x_12_ - 100 x_34_ * x_12_ + 24 x_16_ * x_13_ + 96 x_16_ * x_14_ - 34 x_34_ * x_16_ ] <= 11515
quadratic_ranged_1_lb: 13 x_39_ + [ 4 x_11_ * x_33_ + 30 x_39_ * x_33_ + 30 x_48_ * x_39_ ] >= 7
quadratic_ranged_2_lb: -13 x_2_ - 20 x_47_ + 30 x_50_ + [ 48 x_2_ ^ 2 - 58 x_3_ * x_2_ - 54 x_15_ * x_2_ + 98 x_37_ * x_2_ + 32 x_40_ * x_2_ + 30 x_49_ * x_2_ + 22 x_47_ * x_3_ - 40 x_49_ * x_3_ + 74 x_26_ * x_9_ + 22 x_27_ * x_9_ + 18 x_28_ * x_9_ - 40 x_40_ * x_9_ - 34 x_44_ * x_9_ - 44 x_47_ * x_9_ + 100 x_18_ * x_15_ - 86 x_25_ * x_15_ - 86 x_26_ * x_15_ + 72 x_44_ * x_15_ - 18 x_28_ * x_18_ + 34 x_40_ * x_18_ - 96 x_37_ * x_25_ + 40 x_40_ * x_25_ - 48 x_27_ * x_26_ + 38 x_37_ * x_26_ - 78 x_44_ * x_26_ + 2 x_47_ * x_26_ + 32 x_49_ * x_26_ - 46 x_28_ ^ 2 - 58 x_37_ * x_28_ + 22 x_40_ * x_28_ + 76 x_47_ * x_28_ - 74 x_50_ * x_37_ - 32 x_50_ * x_40_ - 100 x_44_ * x_42_ ] >= -4023
quadratic_ranged_3_lb: 8 x_19_ + 35 x_28_ + 25 x_48_ + [ -24 x_5_ * x_2_ + 10 x_8_ * x_5_ - 82 x_11_ * x_5_ + 28 x_48_ * x_5_ - 92 x_43_ * x_7_ + 24 x_11_ ^ 2 + 26 x_43_ * x_11_ ] >= 577
quadratic_ranged_4_lb: 44 x_4_ + 29 x_16_ + 28 x_40_ + 23 x_43_ + [ 80 x_20_ * x_4_ + 10 x_22_ * x_9_ + 66 x_39_ * x_9_ - 60 x_40_ * x_9_ + 84 x_43_ * x_9_ + 50 x_47_ * x_9_ - 62 x_13_ * x_10_ - 42 x_43_ * x_10_ - 94 x_16_ * x_13_ - 30 x_40_ * x_13_ + 74 x_42_ * x_13_ + 28 x_16_ ^ 2 + 24 x_22_ * x_16_ + 48 x_38_ * x_16_ + 22 x_43_ * x_16_ - 66 x_40_ * x_21_ + 34 x_38_ * x_22_ - 58 x_43_ * x_22_ + 66 x_50_ * x_22_ - 30 x_50_ * x_38_ - 20 x_47_ * x_39_ - 76 x_43_ * x_40_ + 8 x_42_ ^ 2 ] >= 4389
quadratic_ranged_5_lb: 16 x_15_ + 7 x_43_ + [ 44 x_35_ * x_7_ + 98 x_43_ * x_7_ + 23 x_30_ ^ 2 - 12 x_49_ * x_30_ + 96 x_43_ * x_35_ ] >= -1553
quadratic_ranged_6_lb: 17 x_28_ + [ 32 x_1_ ^ 2 - 82 x_24_ * x_1_ + 20 x_44_ * x_19_ - 22 x_24_ ^ 2 + 96 x_44_ * x_24_ ] >= 2819
quadratic_ranged_7_lb: -38 x_2_ - 46 x_14_ + 15 x_24_ + [ 28 x_39_ * x_2_ - 88 x_43_ * x_2_ - 34 x_34_ * x_5_ + 60 x_39_ * x_5_ + 48 x_12_ ^ 2 - 26 x_13_ ^ 2 + 38 x_14_ * x_13_ + 12 x_34_ * x_14_ + 26 x_39_ * x_14_ + 90 x_34_ * x_17_ - 22 x_43_ * x_17_ - 4 x_34_ * x_31_ + 74 x_39_ * x_34_ ] >= 5018
quadratic_ranged_8_lb: -36 x_25_ - 36 x_47_ + 21 x_50_ + [ -20 x_6_ * x_50_ - 98 x_25_ * x_9_ + 46 x_31_ * x_9_ - 32 x_31_ * x_25_ - 4 x_38_ * x_25_ + 86 x_47_ * x_25_ + 22 x_50_ * x_25_ - 16 x_41_ * x_38_ ] >= -3175
quadratic_ranged_9_lb: -12 x_3_ + 24 x_12_ + [ 43 x_3_ ^ 2 + 38 x_7_ * x_3_ - 88 x_21_ * x_3_ - 40 x_47_ * x_7_ - 68 x_21_ * x_12_ - 14 x_48_ * x_12_ + 16 x_21_ ^ 2 + 22 x_48_ * x_47_ + 10 x_48_ ^ 2 ] >= 2580
quadratic_ranged_10_lb: 16 x_43_ - 25 x_47_ + [ -2 x_3_ ^ 2 + 76 x_33_ * x_3_ + 40 x_47_ * x_3_ ] >= -1223
quadratic_ranged_11_lb: 25 x_14_ + [ 82 x_34_ * x_10_ - 52 x_37_ * x_10_ + 32 x_47_ * x_10_ + 96 x_14_ * x_12_ + 56 x_21_ * x_12_ + 96 x_23_ * x_12_ - 56 x_34_ * x_12_ + 38 x_43_ * x_12_ - 2 x_21_ * x_14_ - 6 x_47_ * x_19_ - 18 x_45_ * x_21_ + 62 x_43_ * x_23_ + 4 x_45_ * x_23_ + 40 x_47_ * x_23_ + 38 x_37_ * x_31_ - 92 x_47_ * x_31_ + 19 x_34_ ^ 2 + 80 x_43_ * x_34_ - 84 x_47_ * x_34_ + 44 x_37_ * x_36_ - 36 x_43_ ^ 2 ] >= -608
quadratic_ranged_12_lb: -45 x_41_ - 47 x_42_ + [ -56 x_37_ * x_1_ + 50 x_39_ * x_1_ + 88 x_43_ * x_1_ + 6 x_27_ * x_9_ + 8 x_38_ * x_9_ + 84 x_43_ * x_9_ + 32 x_25_ * x_14_ + 49 x_22_ ^ 2 + 20 x_39_ * x_22_ - 96 x_41_ * x_22_ + 58 x_27_ * x_25_ - 84 x_39_ * x_25_ + 4 x_42_ * x_27_ + 4 x_38_ * x_37_ + 48 x_38_ ^ 2 + 36 x_39_ * x_38_ - 44 x_39_ ^ 2 ] >= -5496
quadratic_ranged_13_lb: [ -84 x_4_ * x_1_ - 66 x_6_ * x_1_ + 24 x_44_ * x_1_ - 58 x_34_ * x_6_ + 34 x_34_ * x_24_ + 24 x_44_ * x_34_ - 2 x_44_ ^ 2 ] >= -746
quadratic_ranged_14_lb: [ -20 x_3_ * x_41_ - 38 x_12_ * x_5_ - 50 x_14_ * x_5_ - 12 x_41_ * x_5_ + 76 x_16_ * x_12_ + 78 x_26_ * x_14_ - 74 x_41_ * x_14_ + 94 x_21_ * x_16_ + 24 x_41_ * x_16_ + 4 x_43_ * x_16_ - 36 x_50_ * x_16_ + 94 x_21_ * x_17_ + 10 x_26_ * x_17_ + 26 x_30_ * x_17_ + 34 x_34_ * x_17_ + 68 x_21_ * x_19_ + 12 x_30_ * x_19_ + 8 x_43_ * x_19_ - 8 x_30_ * x_21_ + 80 x_39_ * x_21_ - 100 x_34_ * x_26_ - 44 x_39_ * x_29_ + 4 x_40_ * x_29_ + 12 x_43_ * x_34_ + 88 x_50_ * x_34_ - 44 x_41_ * x_40_ ] >= -13512
quadratic_ranged_15_lb: -21 x_13_ + 14 x_15_ + 29 x_45_ + [ -68 x_19_ * x_6_ + 90 x_37_ * x_6_ + 88 x_41_ * x_6_ - 62 x_45_ * x_6_ + 98 x_45_ * x_10_ + 16 x_49_ * x_10_ + 70 x_49_ * x_15_ - 78 x_23_ * x_19_ + 18 x_49_ * x_20_ + 80 x_45_ * x_23_ + 88 x_41_ * x_32_ - 32 x_41_ * x_33_ + 86 x_39_ * x_37_ + 70 x_42_ * x_37_ + 80 x_49_ * x_37_ + 22 x_41_ ^ 2 - 78 x_49_ * x_45_ ] >= 10804
quadratic_ranged_16_lb: 16 x_23_ - 2 x_36_ + [ -47 x_14_ ^ 2 + 2 x_24_ * x_14_ + 40 x_36_ * x_24_ - 58 x_43_ * x_24_ + 28 x_36_ * x_33_ - 24 x_38_ * x_33_ + 38 x_43_ * x_33_ + 84 x_38_ * x_36_ ] >= -3230
quadratic_ranged_17_lb: [ -80 x_4_ * x_2_ + 40 x_5_ * x_2_ - 38 x_5_ * x_4_ - 56 x_45_ * x_4_ - 16 x_5_ ^ 2 + 82 x_44_ * x_6_ - 37 x_45_ ^ 2 ] >= -6342
quadratic_ranged_18_lb: -36 x_42_ + [ -26 x_32_ * x_14_ - 74 x_32_ * x_16_ + 20 x_37_ * x_30_ + 38 x_32_ ^ 2 - 14 x_42_ * x_32_ - 25 x_37_ ^ 2 + 50 x_42_ ^ 2 ] >= -756
quadratic_ranged_19_lb: 41 x_47_ + 35 x_48_ + [ 6 x_4_ * x_48_ - 50 x_48_ * x_13_ + 12 x_32_ * x_20_ + 38 x_38_ * x_21_ + 100 x_47_ * x_32_ + 52 x_48_ * x_38_ ] >= -5119
quadratic_ranged_20_lb: -12 x_50_ + [ 16 x_48_ * x_18_ + 41 x_29_ ^ 2 - 10 x_48_ * x_42_ ] >= -582
quadratic_ranged_21_lb: 9 x_2_ + 27 x_5_ + 27 x_32_ - 6 x_46_ + [ 44 x_5_ * x_2_ + 58 x_23_ * x_6_ + 24 x_28_ * x_6_ + 3 x_16_ ^ 2 - 8 x_28_ * x_23_ - 43 x_32_ ^ 2 ] >= -5468
quadratic_ranged_22_lb: -40 x_17_ - 9 x_35_ + [ -70 x_2_ * x_11_ + 34 x_17_ * x_2_ + 24 x_24_ * x_2_ - 16 x_38_ * x_11_ - 70 x_38_ * x_24_ + 40 x_38_ * x_35_ ] >= 2718
quadratic_ranged_23_lb: -36 x_4_ - 31 x_39_ + [ -26 x_4_ * x_6_ - 10 x_7_ * x_4_ - 94 x_38_ * x_6_ - 90 x_45_ * x_6_ + 78 x_38_ * x_7_ - 64 x_41_ * x_35_ - 34 x_45_ * x_35_ + 24 x_41_ * x_38_ + 22 x_45_ * x_39_ ] >= 10322
quadratic_ranged_24_lb: 28 x_33_ + [ -42 x_4_ * x_3_ - 47 x_6_ ^ 2 + 56 x_20_ * x_6_ - 82 x_20_ * x_12_ + 72 x_33_ * x_12_ + 26 x_30_ * x_16_ - 58 x_33_ * x_16_ - 20 x_20_ ^ 2 ] >= 4249
quadratic_ranged_25_lb: 33 x_14_ - 19 x_15_ - 46 x_29_ + 6 x_31_ + [ 48 x_1_ * x_5_ - 80 x_15_ * x_1_ + 94 x_24_ * x_1_ + 82 x_33_ * x_1_ + 56 x_28_ * x_2_ + 10 x_29_ * x_2_ + 30 x_31_ * x_2_ + 60 x_44_ * x_2_ + 64 x_33_ * x_5_ + 28 x_44_ * x_5_ - 100 x_29_ * x_14_ + 76 x_20_ * x_15_ - 92 x_29_ * x_15_ - 80 x_31_ * x_15_ - 74 x_29_ * x_20_ - 10 x_31_ * x_20_ + 70 x_31_ * x_23_ - 70 x_44_ * x_23_ - 4 x_44_ * x_28_ - 18 x_31_ * x_29_ - 38 x_44_ * x_29_ + 100 x_33_ * x_31_ ] >= 2225
quadratic_ranged_26_lb: 38 x_26_ + 7 x_31_ + 8 x_42_ + [ 98 x_13_ * x_9_ + 16 x_26_ * x_9_ + 62 x_29_ * x_9_ + 10 x_31_ * x_9_ + 21 x_13_ ^ 2 + 14 x_26_ * x_19_ + 16 x_29_ * x_19_ - 76 x_31_ * x_19_ + 24 x_42_ * x_26_ - 28 x_47_ * x_26_ + 54 x_42_ * x_29_ - 36 x_35_ * x_31_ - 5 x_35_ ^ 2 - 70 x_47_ * x_35_ + 47 x_47_ ^ 2 ] >= -6207
quadratic_ranged_27_lb: 4 x_5_ - 10 x_23_ + [ -39 x_1_ ^ 2 - 32 x_33_ * x_1_ + 62 x_34_ * x_1_ - 94 x_21_ * x_5_ + 74 x_34_ * x_5_ - 8 x_40_ * x_5_ + 56 x_48_ * x_5_ - 49 x_7_ ^ 2 + 24 x_21_ * x_7_ - 86 x_32_ * x_7_ + 18 x_41_ * x_7_ - 14 x_16_ * x_15_ - 20 x_23_ * x_15_ + 2 x_29_ * x_15_ + 36 x_29_ * x_16_ - 6 x_34_ * x_16_ - 26 x_23_ * x_21_ + 2 x_33_ * x_23_ - 18 x_41_ * x_29_ - 16 x_48_ * x_29_ + 50 x_41_ * x_31_ - 30 x_48_ * x_32_ - 3 x_33_ ^ 2 - 96 x_41_ * x_34_ - 34 x_48_ * x_34_ + 56 x_48_ * x_41_ ] >= -14983
quadratic_ranged_28_lb: [ 18 x_5_ * x_17_ + 42 x_27_ * x_17_ + 94 x_27_ * x_26_ ] >= 6827
quadratic_ranged_29_lb: -11 x_35_ + [ -12 x_46_ * x_35_ + 96 x_48_ * x_46_ - 3 x_48_ ^ 2 ] >= -224
quadratic_ranged_30_lb: 37 x_14_ + [ 46 x_15_ * x_1_ - 62 x_46_ * x_1_ + 4 x_19_ * x_5_ + 60 x_28_ * x_5_ + 22 x_14_ ^ 2 + 29 x_15_ ^ 2 - 70 x_34_ * x_15_ - 16 x_30_ * x_25_ - 38 x_34_ * x_28_ - 70 x_46_ * x_28_ + 39 x_30_ ^ 2 - 82 x_46_ * x_30_ + 3 x_46_ ^ 2 ] >= -3205
quadratic_ranged_31_lb: -50 x_44_ + [ -88 x_11_ * x_1_ + 90 x_46_ * x_1_ + 8 x_11_ * x_2_ + 2 x_15_ * x_2_ + 64 x_32_ * x_2_ - 68 x_35_ * x_2_ - 44 x_44_ * x_2_ + 19 x_3_ ^ 2 - 44 x_11_ * x_3_ + 17 x_11_ ^ 2 - 92 x_13_ * x_11_ + 68 x_15_ * x_11_ + 24 x_31_ * x_11_ - 84 x_32_ * x_11_ + 88 x_46_ * x_13_ + 46 x_31_ * x_15_ - 74 x_32_ * x_31_ - 36 x_43_ * x_31_ + 44 x_46_ * x_31_ - 5 x_32_ ^ 2 - 12 x_46_ * x_32_ - 42 x_35_ ^ 2 - 20 x_44_ ^ 2 + 26 x_46_ ^ 2 ] >= 16118
quadratic_ranged_32_lb: 13 x_1_ - 5 x_5_ - 32 x_39_ + 45 x_43_ + [ -38 x_40_ * x_1_ - 40 x_24_ * x_3_ - 68 x_37_ * x_3_ + 90 x_39_ * x_3_ - 2 x_43_ * x_3_ - 54 x_50_ * x_3_ + 4 x_37_ * x_4_ + 4 x_26_ * x_5_ - 22 x_6_ ^ 2 - 32 x_10_ * x_6_ - 10 x_31_ * x_6_ + 94 x_43_ * x_6_ - 64 x_47_ * x_6_ - 78 x_50_ * x_6_ - 38 x_31_ * x_10_ + 50 x_43_ * x_10_ + 2 x_12_ ^ 2 + 72 x_40_ * x_12_ - 34 x_50_ * x_12_ - 25 x_24_ ^ 2 - 96 x_26_ * x_24_ + 74 x_39_ * x_24_ + 76 x_47_ * x_24_ - 82 x_43_ * x_31_ - 26 x_47_ * x_31_ + 36 x_50_ * x_43_ ] >= -3243
quadratic_ranged_33_lb: -35 x_1_ - 18 x_11_ + [ 86 x_7_ * x_1_ - 96 x_8_ * x_1_ - 46 x_15_ * x_1_ - 72 x_42_ * x_1_ - 72 x_34_ * x_7_ + 28 x_17_ * x_8_ - 56 x_34_ * x_8_ + 14 x_42_ * x_8_ - 32 x_9_ ^ 2 + 4 x_11_ * x_9_ + 74 x_15_ * x_11_ - 80 x_39_ * x_11_ + 42 x_15_ ^ 2 + 90 x_36_ * x_15_ - 26 x_42_ * x_15_ + 94 x_21_ * x_17_ - 100 x_34_ * x_17_ + 34 x_21_ ^ 2 + 68 x_42_ * x_21_ + 52 x_39_ * x_36_ - 58 x_42_ * x_39_ - 3 x_42_ ^ 2 ] >= -2154
quadratic_ranged_34_lb: -37 x_37_ + [ 18 x_17_ * x_28_ - 22 x_33_ * x_17_ + 16 x_37_ * x_17_ - 40 x_37_ * x_28_ ] >= -2667
quadratic_ranged_35_lb: 20 x_6_ - 24 x_26_ - 22 x_48_ + 10 x_50_ + [ -4 x_8_ * x_2_ - 22 x_10_ * x_2_ + 62 x_17_ * x_2_ + 70 x_20_ * x_2_ + 16 x_38_ * x_2_ + 90 x_27_ * x_4_ + 54 x_47_ * x_4_ - 2 x_8_ * x_6_ - 4 x_13_ * x_6_ - 68 x_23_ * x_6_ + 36 x_26_ * x_6_ + 70 x_27_ * x_6_ + 60 x_29_ * x_6_ - 72 x_48_ * x_6_ - 72 x_10_ * x_8_ - 26 x_29_ * x_8_ + 54 x_47_ * x_8_ + 98 x_48_ * x_8_ + 90 x_17_ * x_10_ - 80 x_25_ * x_10_ + 16 x_29_ * x_10_ - 62 x_50_ * x_10_ + 1 x_13_ ^ 2 + 86 x_23_ * x_13_ + 88 x_27_ * x_13_ - 42 x_47_ * x_13_ + 74 x_30_ * x_17_ + 66 x_23_ * x_18_ + 34 x_27_ * x_18_ - 80 x_50_ * x_18_ + 50 x_20_ ^ 2 + 5 x_25_ ^ 2 - 8 x_26_ * x_25_ + 60 x_38_ * x_25_ - 3 x_26_ ^ 2 + 50 x_29_ * x_26_ - 42 x_30_ * x_29_ + 24 x_50_ * x_38_ + 46 x_50_ * x_47_ ] >= 5275
quadratic_ranged_36_lb: 36 x_15_ + 48 x_22_ + [ 100 x_10_ * x_5_ - 44 x_35_ * x_5_ + 96 x_15_ * x_10_ + 4 x_36_ * x_15_ + 44 x_38_ * x_15_ - 98 x_38_ * x_22_ + 80 x_47_ * x_22_ + 78 x_47_ * x_32_ - 49 x_35_ ^ 2 + 70 x_36_ * x_35_ + 70 x_38_ * x_35_ + 18 x_47_ * x_38_ ] >= -15869
quadratic_ranged_37_lb: 38 x_6_ + [ -8 x_16_ * x_6_ - 70 x_47_ * x_6_ + 80 x_32_ * x_10_ + 8 x_15_ ^ 2 - 34 x_47_ * x_15_ - 62 x_27_ * x_23_ - 74 x_32_ * x_27_ + 13 x_32_ ^ 2 ] >= 3893
quadratic_ranged_38_lb: -31 x_22_ - 1 x_26_ - 7 x_43_ + [ -22 x_43_ * x_14_ + 46 x_28_ * x_21_ - 54 x_28_ * x_22_ + 92 x_43_ * x_22_ - 40 x_43_ * x_26_ + 6 x_28_ ^ 2 + 1 x_35_ ^ 2 + 24 x_42_ ^ 2 ] >= -10796
quadratic_ranged_39_lb: 43 x_2_ + 22 x_7_ + 21 x_10_ + 43 x_28_ + 7 x_29_ + [ 44 x_2_ ^ 2 - 54 x_10_ * x_2_ + 84 x_15_ * x_2_ + 64 x_18_ * x_2_ + 20 x_29_ * x_2_ - 68 x_10_ * x_5_ + 10 x_24_ * x_5_ - 42 x_28_ * x_5_ + 26 x_29_ * x_5_ - 32 x_15_ * x_7_ + 60 x_18_ * x_7_ - 8 x_18_ * x_10_ + 68 x_39_ * x_10_ - 10 x_15_ ^ 2 - 48 x_25_ * x_15_ - 6 x_24_ * x_18_ - 38 x_49_ * x_18_ - 58 x_29_ * x_24_ + 2 x_39_ * x_25_ + 24 x_28_ ^ 2 - 86 x_50_ * x_28_ - 2 x_39_ ^ 2 - 36 x_50_ * x_39_ + 30 x_50_ * x_49_ - 41 x_50_ ^ 2 ] >= 11628
quadratic_ranged_40_lb: 47 x_30_ + 20 x_39_ + 46 x_49_ + [ 62 x_3_ * x_26_ - 2 x_39_ * x_26_ + 32 x_49_ * x_26_ + 54 x_32_ * x_30_ + 100 x_49_ * x_30_ + 28 x_50_ * x_49_ ] >= -2781
quadratic_ranged_41_lb: -50 x_10_ + [ -4 x_6_ ^ 2 - 2 x_36_ * x_6_ + 70 x_36_ * x_10_ - 49 x_16_ ^ 2 - 24 x_47_ * x_40_ + 17 x_47_ ^ 2 ] >= -1318
quadratic_ranged_42_lb: -24 x_20_ + 22 x_41_ + [ 49 x_6_ ^ 2 - 8 x_12_ * x_6_ + 34 x_19_ * x_6_ + 28 x_29_ * x_7_ + 16 x_12_ * x_10_ - 90 x_20_ * x_10_ + 62 x_14_ * x_11_ - 72 x_20_ * x_12_ + 32 x_32_ * x_12_ + 58 x_41_ * x_14_ - 62 x_29_ * x_19_ - 34 x_41_ * x_19_ + 96 x_25_ * x_20_ + 34 x_29_ * x_25_ + 43 x_29_ ^ 2 - 42 x_36_ * x_32_ - 38 x_36_ ^ 2 + 24 x_41_ ^ 2 ] >= 2437
quadratic_ranged_43_lb: [ -64 x_14_ * x_1_ - 48 x_26_ * x_1_ - 8 x_43_ * x_1_ - 48 x_50_ * x_1_ + 6 x_11_ * x_4_ - 84 x_24_ * x_4_ + 56 x_43_ * x_4_ + 42 x_50_ * x_4_ + 98 x_14_ * x_11_ - 50 x_24_ * x_11_ + 92 x_50_ * x_11_ - 90 x_16_ * x_14_ + 10 x_24_ * x_14_ - 48 x_26_ * x_14_ + 76 x_43_ * x_14_ - 98 x_50_ * x_14_ - 84 x_18_ * x_16_ - 90 x_43_ * x_16_ - 27 x_18_ ^ 2 + 22 x_24_ * x_18_ - 52 x_26_ * x_18_ + 16 x_33_ * x_18_ - 78 x_50_ * x_18_ + 49 x_24_ ^ 2 - 34 x_33_ * x_24_ + 24 x_26_ ^ 2 - 66 x_50_ * x_26_ - 100 x_46_ * x_43_ - 37 x_50_ ^ 2 ] >= -1090
quadratic_ranged_44_lb: -13 x_38_ + [ -37 x_4_ ^ 2 - 12 x_9_ * x_4_ - 52 x_44_ * x_4_ + 20 x_31_ * x_9_ + 40 x_35_ * x_9_ - 86 x_38_ * x_26_ + 26 x_35_ * x_31_ - 37 x_38_ ^ 2 ] >= 3373
quadratic_ranged_45_lb: 35 x_8_ + [ -50 x_9_ * x_3_ + 18 x_50_ * x_3_ - 34 x_8_ * x_7_ - 82 x_44_ * x_7_ - 88 x_45_ * x_7_ - 4 x_9_ * x_8_ - 84 x_45_ * x_8_ - 12 x_42_ * x_9_ - 72 x_50_ * x_24_ - 39 x_26_ ^ 2 - 8 x_50_ * x_26_ - 25 x_28_ ^ 2 + 54 x_50_ * x_44_ - 2 x_50_ * x_45_ - 21 x_50_ ^ 2 ] >= -9459
quadratic_ranged_46_lb: 27 x_4_ + [ -40 x_19_ * x_10_ + 74 x_34_ * x_19_ + 84 x_41_ * x_27_ - 4 x_50_ * x_27_ + 24 x_41_ * x_31_ + 70 x_50_ * x_31_ - 29 x_33_ ^ 2 - 98 x_39_ * x_34_ + 30 x_50_ * x_34_ - 22 x_41_ ^ 2 ] >= -8939
quadratic_ranged_47_lb: -42 x_17_ + [ 8 x_18_ * x_9_ - 80 x_21_ * x_9_ - 88 x_27_ * x_9_ - 10 x_18_ * x_11_ - 84 x_41_ * x_11_ - 94 x_45_ * x_11_ - 8 x_18_ * x_17_ - 8 x_41_ * x_18_ - 38 x_21_ ^ 2 - 32 x_45_ * x_41_ ] >= -1478
quadratic_ranged_48_lb: 18 x_20_ + [ -1 x_16_ ^ 2 + 12 x_20_ * x_16_ - 20 x_34_ * x_20_ - 21 x_34_ ^ 2 ] >= -115
quadratic_ranged_49_lb: 32 x_29_ + [ -30 x_23_ * x_7_ + 58 x_33_ * x_7_ - 24 x_10_ ^ 2 - 34 x_17_ * x_10_ - 76 x_23_ * x_10_ + 84 x_33_ * x_10_ + 44 x_17_ ^ 2 - 60 x_33_ * x_17_ - 22 x_19_ ^ 2 - 78 x_29_ * x_19_ + 40 x_49_ * x_19_ - 6 x_29_ * x_23_ - 50 x_49_ * x_29_ + 23 x_33_ ^ 2 - 49 x_49_ ^ 2 ] >= -8476
quadratic_ranged_50_lb: 19 x_10_ - 13 x_14_ + 30 x_25_ + 39 x_34_ + 30 x_35_ + 27 x_48_ + [ 14 x_21_ * x_10_ - 80 x_25_ * x_10_ - 64 x_32_ * x_14_ + 66 x_34_ * x_14_ - 3 x_21_ ^ 2 - 6 x_25_ * x_21_ - 70 x_32_ * x_31_ - 96 x_48_ * x_31_ + 22 x_35_ * x_34_ + 14 x_48_ * x_35_ ] >= -6474
quadratic_ranged_51_lb: [ -96 x_12_ * x_7_ - 7 x_12_ ^ 2 - 48 x_14_ * x_12_ - 38 x_17_ * x_12_ - 100 x_34_ * x_12_ + 24 x_16_ * x_13_ + 96 x_16_ * x_14_ - 34 x_34_ * x_16_ ] >= 11510
c1: -16 x_16_ + [ 28 x_13_ * x_11_ - 52 x_50_ * x_11_ + 8 x_24_ * x_13_ + 24 x_16_ ^ 2 + 98 x_28_ * x_16_ - 8 x_41_ * x_16_ + 88 x_43_ * x_16_ + 54 x_50_ * x_16_ + 66 x_28_ * x_25_ - 40 x_41_ ^ 2 - 52 x_49_ * x_41_ - 34 x_43_ ^ 2 + 8 x_49_ * x_43_ - 60 x_50_ * x_43_ ] = -13072
c2: 15 x_2_ + 27 x_9_ + 48 x_19_ - 11 x_47_ + [ 96 x_33_ * x_2_ + 38 x_36_ * x_2_ - 14 x_9_ * x_7_ - 36 x_20_ * x_7_ + 24 x_44_ * x_7_ - 6 x_19_ * x_9_ - 36 x_31_ * x_9_ + 64 x_33_ * x_9_ + 15 x_14_ ^ 2 - 98 x_17_ * x_14_ - 100 x_31_ * x_14_ + 4 x_47_ * x_14_ + 50 x_20_ * x_17_ + 28 x_33_ * x_17_ + 46 x_44_ * x_20_ + 45 x_31_ ^ 2 + 32 x_33_ * x_31_ - 10 x_47_ * x_33_ + 36 x_47_ * x_36_ ] = -3403
c3: -8 x_5_ + [ -22 x_28_ * x_5_ + 30 x_41_ * x_5_ + 16 x_12_ ^ 2 - 56 x_44_ * x_22_ - 20 x_44_ * x_28_ ] = 3512
c4: 43 x_11_ - 35 x_40_ + [ -56 x_11_ * x_1_ - 60 x_36_ * x_11_ + 26 x_44_ * x_11_ - 8 x_31_ * x_21_ + 90 x_40_ * x_21_ + 84 x_36_ * x_24_ + 13 x_44_ ^ 2 ] = 1268
c5: 50 x_36_ + [ -96 x_8_ * x_5_ + 58 x_27_ * x_5_ - 30 x_44_ * x_7_ - 88 x_44_ * x_8_ - 72 x_27_ * x_11_ + 40 x_40_ * x_11_ - 30 x_42_ * x_34_ - 16 x_36_ ^ 2 + 72 x_44_ * x_42_ ] = -264
c6: 37 x_12_ + [ 7 x_7_ ^ 2 - 39 x_19_ ^ 2 + 42 x_29_ * x_19_ - 17 x_29_ ^ 2 ] = -247
c7: 22 x_10_ - 31 x_24_ + 3 x_40_ - 43 x_41_ + [ -6 x_10_ * x_1_ - 18 x_41_ * x_1_ - 86 x_24_ * x_10_ + 84 x_30_ * x_10_ - 58 x_39_ * x_10_ + 24 x_17_ ^ 2 - 70 x_26_ * x_17_ + 80 x_39_ * x_17_ - 58 x_40_ * x_17_ + 40 x_24_ ^ 2 + 84 x_30_ * x_24_ + 12 x_40_ * x_24_ - 58 x_41_ * x_24_ + 34 x_45_ * x_26_ + 80 x_40_ * x_30_ + 22 x_41_ * x_39_ ] = -968
c8: 26 x_18_ - 17 x_48_ + [ -54 x_45_ * x_3_ + 12 x_37_ * x_18_ - 100 x_44_ * x_28_ + 56 x_44_ * x_37_ + 12 x_41_ ^ 2 + 74 x_45_ * x_41_ - 42 x_48_ * x_41_ ] = 4984
c9: 46 x_22_ + 35 x_49_ + [ -54 x_47_ * x_11_ + 38 x_49_ * x_11_ - 76 x_20_ * x_13_ + 8 x_39_ * x_13_ - 46 x_27_ ^ 2 - 98 x_39_ * x_27_ + 34 x_49_ * x_47_ ] = -8257
c10: -23 x_2_ + [ -42 x_2_ * x_1_ + 68 x_3_ * x_1_ - 30 x_39_ * x_1_ + 16 x_2_ ^ 2 - 54 x_32_ * x_3_ + 68 x_34_ * x_3_ + 18 x_45_ * x_3_ - 19 x_7_ ^ 2 + 92 x_32_ * x_21_ + 88 x_34_ * x_29_ + 60 x_34_ * x_32_ + 19 x_34_ ^ 2 - 66 x_38_ * x_34_ - 50 x_45_ * x_34_ ] = -4167
c11: 23 x_2_ - 16 x_28_ - 37 x_29_ - 31 x_40_ - 13 x_45_ + [ -60 x_2_ * x_1_ - 68 x_18_ * x_1_ + 18 x_27_ * x_1_ - 46 x_45_ * x_1_ + 34 x_17_ * x_2_ + 6 x_27_ * x_2_ + 30 x_17_ * x_5_ + 20 x_20_ * x_5_ + 46 x_23_ * x_5_ - 8 x_32_ * x_5_ + 60 x_32_ * x_7_ - 64 x_37_ * x_7_ + 72 x_27_ * x_10_ + 86 x_40_ * x_10_ + 70 x_20_ * x_17_ + 24 x_24_ * x_17_ - 34 x_48_ * x_17_ + 62 x_40_ * x_18_ + 22 x_37_ * x_20_ - 86 x_40_ * x_20_ + 8 x_45_ * x_20_ + 54 x_48_ * x_20_ - 37 x_23_ ^ 2 + 60 x_32_ * x_23_ + 90 x_40_ * x_23_ - 4 x_29_ * x_24_ + 2 x_32_ * x_24_ - 98 x_40_ * x_27_ + 58 x_48_ * x_27_ + 26 x_45_ * x_28_ - 8 x_40_ * x_29_ + 78 x_48_ * x_29_ - 92 x_48_ * x_40_ ] = -6772
c12: 5 x_14_ + 36 x_16_ - 4 x_33_ + 1 x_40_ + [ -24 x_11_ * x_4_ - 3 x_11_ ^ 2 - 9 x_14_ ^ 2 - 92 x_16_ * x_14_ - 6 x_19_ * x_14_ + 68 x_40_ * x_14_ - 2 x_25_ * x_16_ - 12 x_40_ * x_16_ - 52 x_46_ * x_16_ - 10 x_25_ * x_19_ + 34 x_40_ * x_19_ - 46 x_40_ * x_25_ + 84 x_46_ * x_38_ - 34 x_46_ * x_40_ + 34 x_46_ ^ 2 ] = -5740
c13: 1 x_13_ + [ -86 x_9_ * x_4_ + 12 x_13_ * x_4_ + 60 x_18_ * x_4_ + 14 x_25_ * x_4_ - 58 x_23_ * x_9_ + 86 x_13_ * x_12_ - 10 x_19_ * x_12_ - 94 x_23_ * x_12_ - 22 x_25_ * x_18_ - 100 x_34_ * x_18_ - 42 x_19_ ^ 2 + 78 x_32_ * x_19_ + 36 x_34_ * x_19_ - 40 x_45_ * x_19_ + 40 x_49_ * x_19_ + 22 x_34_ * x_23_ - 86 x_45_ * x_23_ + 56 x_49_ * x_25_ + 94 x_49_ * x_32_ - 32 x_44_ * x_34_ - 82 x_49_ * x_34_ + 4 x_49_ * x_44_ ] = 3997
c14: 1 x_42_ + [ -54 x_11_ * x_42_ + 56 x_23_ * x_16_ - 2 x_36_ * x_16_ - 44 x_50_ * x_20_ + 90 x_50_ * x_23_ + 88 x_34_ * x_28_ + 94 x_50_ * x_36_ ] = 1585
c15: 39 x_5_ + 14 x_9_ - 27 x_13_ + [ -84 x_5_ * x_45_ - 56 x_45_ * x_35_ + 76 x_47_ * x_45_ ] = 4709
c16: -33 x_10_ + 16 x_15_ + [ 98 x_26_ * x_1_ - 20 x_37_ * x_1_ + 50 x_14_ * x_10_ - 20 x_11_ ^ 2 - 30 x_15_ * x_14_ + 50 x_34_ * x_14_ - 60 x_40_ * x_14_ + 52 x_40_ * x_18_ + 88 x_45_ * x_18_ + 74 x_45_ * x_37_ ] = -1458
c17: -39 x_6_ + [ 62 x_16_ * x_6_ - 72 x_46_ * x_6_ - 2 x_22_ ^ 2 + 40 x_43_ * x_22_ - 86 x_44_ * x_22_ + 78 x_42_ * x_37_ + 12 x_44_ * x_42_ + 94 x_46_ * x_42_ - 68 x_44_ * x_43_ + 36 x_46_ * x_43_ - 40 x_46_ ^ 2 ] = 855
c18: -28 x_28_ + [ -8 x_34_ * x_3_ - 28 x_26_ * x_8_ + 24 x_28_ * x_8_ + 92 x_28_ * x_15_ - 50 x_24_ * x_18_ - 44 x_28_ * x_18_ + 66 x_41_ * x_24_ + 12 x_26_ ^ 2 - 92 x_28_ * x_26_ + 15 x_41_ ^ 2 ] = 11261
c19: [ 88 x_20_ * x_2_ - 34 x_33_ * x_2_ + 30 x_43_ * x_20_ - 74 x_23_ * x_21_ + 12 x_31_ * x_21_ - 80 x_33_ * x_21_ + 37 x_43_ ^ 2 ] = 2617
c20: -5 x_32_ + [ 48 x_3_ ^ 2 - 92 x_13_ * x_3_ - 72 x_44_ * x_3_ + 30 x_13_ * x_7_ - 39 x_13_ ^ 2 - 86 x_42_ * x_13_ - 52 x_22_ * x_19_ + 32 x_43_ * x_19_ + 58 x_42_ * x_24_ - 14 x_43_ * x_24_ - 48 x_44_ * x_32_ - 44 x_44_ * x_42_ ] = -7733
c21: 28 x_8_ - 6 x_11_ + 2 x_33_ - 35 x_35_ + [ 98 x_7_ * x_5_ + 54 x_8_ * x_5_ + 42 x_33_ * x_5_ + 24 x_35_ * x_5_ + 64 x_36_ * x_5_ + 80 x_8_ * x_7_ + 6 x_13_ * x_7_ + 62 x_36_ * x_7_ + 90 x_43_ * x_7_ - 40 x_13_ * x_8_ - 16 x_20_ * x_8_ + 66 x_33_ * x_8_ - 40 x_43_ * x_8_ - 56 x_44_ * x_8_ + 88 x_21_ * x_11_ + 46 x_35_ * x_11_ + 60 x_39_ * x_11_ - 33 x_13_ ^ 2 - 44 x_20_ * x_13_ - 39 x_18_ ^ 2 - 90 x_21_ * x_18_ - 35 x_20_ ^ 2 - 40 x_36_ * x_20_ - 90 x_35_ * x_21_ + 10 x_39_ * x_21_ + 52 x_44_ * x_21_ - 22 x_36_ * x_33_ + 86 x_43_ * x_33_ - 27 x_36_ ^ 2 + 14 x_44_ * x_36_ + 38 x_44_ * x_39_ - 20 x_46_ * x_43_ ] = -1810
c22: 22 x_15_ - 12 x_31_ + [ -54 x_12_ * x_6_ + 76 x_37_ * x_6_ - 66 x_15_ * x_12_ - 34 x_21_ * x_12_ - 38 x_18_ * x_15_ + 14 x_21_ * x_15_ + 10 x_31_ * x_15_ + 6 x_21_ * x_18_ - 52 x_39_ * x_30_ - 64 x_46_ * x_30_ + 29 x_31_ ^ 2 - 9 x_39_ ^ 2 ] = -2185
c23: -13 x_16_ - 50 x_32_ - 2 x_40_ - 35 x_42_ + [ -40 x_3_ ^ 2 + 32 x_19_ * x_3_ - 8 x_40_ * x_3_ - 30 x_50_ * x_3_ - 4 x_40_ * x_6_ + 32 x_40_ * x_25_ - 28 x_43_ * x_25_ - 1 x_32_ ^ 2 - 72 x_42_ * x_32_ - 50 x_43_ ^ 2 ] = -1974
c24: 48 x_3_ + 26 x_23_ - 41 x_34_ + [ 44 x_22_ * x_3_ - 30 x_25_ * x_3_ - 20 x_33_ * x_3_ - 2 x_37_ * x_3_ + 13 x_16_ ^ 2 + 80 x_37_ * x_16_ - 92 x_50_ * x_16_ - 4 x_23_ * x_19_ + 52 x_30_ * x_19_ - 80 x_37_ * x_19_ - 12 x_23_ * x_22_ - 40 x_25_ * x_22_ + 50 x_30_ * x_23_ - 28 x_33_ * x_23_ - 74 x_37_ * x_23_ - 94 x_50_ * x_30_ + 82 x_34_ * x_33_ + 18 x_34_ ^ 2 + 6 x_37_ * x_34_ + 28 x_37_ ^ 2 ] = 9292
c25: 27 x_36_ + [ -28 x_15_ * x_13_ - 34 x_25_ * x_13_ - 52 x_44_ * x_13_ + 17 x_15_ ^ 2 - 58 x_44_ * x_15_ - 16 x_50_ * x_22_ + 60 x_44_ * x_23_ - 74 x_36_ * x_25_ - 8 x_44_ * x_28_ + 44 x_41_ * x_36_ ] = 1801
c26: -48 x_42_ + 24 x_46_ - 4 x_50_ + [ 14 x_9_ ^ 2 - 36 x_50_ * x_9_ - 84 x_46_ * x_11_ + 32 x_50_ * x_11_ - 48 x_42_ * x_22_ + 30 x_29_ ^ 2 - 70 x_42_ * x_29_ - 18 x_41_ ^ 2 ] = -3738
c27: -39 x_26_ + 2 x_37_ + [ -86 x_10_ * x_8_ + 74 x_26_ * x_8_ - 96 x_37_ * x_8_ - 48 x_34_ * x_10_ + 72 x_42_ * x_10_ + 44 x_16_ * x_12_ + 94 x_26_ * x_12_ - 44 x_34_ * x_12_ + 52 x_37_ * x_16_ - 20 x_42_ * x_16_ - 12 x_43_ * x_26_ - 92 x_42_ * x_39_ - 78 x_43_ * x_39_ + 38 x_40_ ^ 2 ] = 2240
c28: 28 x_36_ + 3 x_42_ + 43 x_46_ + [ -9 x_11_ ^ 2 - 90 x_35_ * x_12_ + 96 x_44_ * x_12_ - 18 x_17_ ^ 2 + 90 x_21_ * x_17_ + 84 x_36_ * x_35_ - 100 x_46_ * x_35_ - 4 x_44_ * x_42_ ] = 237
c29: 11 x_4_ + 14 x_32_ - 7 x_41_ + 49 x_47_ + [ 90 x_8_ * x_2_ + 64 x_32_ * x_2_ - 14 x_48_ * x_2_ + 94 x_20_ * x_4_ + 48 x_32_ * x_4_ - 54 x_36_ * x_4_ - 52 x_17_ * x_8_ - 2 x_32_ * x_8_ - 14 x_36_ * x_8_ + 38 x_22_ * x_10_ + 48 x_28_ * x_10_ + 44 x_22_ * x_20_ + 32 x_31_ * x_20_ + 30 x_47_ * x_22_ + 14 x_48_ * x_22_ + 49 x_24_ ^ 2 + 100 x_28_ * x_24_ - 72 x_32_ * x_24_ - 92 x_46_ * x_24_ - 84 x_47_ * x_28_ - 54 x_36_ * x_30_ + 42 x_48_ * x_30_ + 18 x_36_ * x_31_ - 36 x_36_ ^ 2 - 10 x_46_ * x_41_ - 56 x_48_ * x_46_ + 27 x_48_ ^ 2 ] = 12854
c30: [ -66 x_31_ * x_29_ - 76 x_49_ * x_29_ + 5 x_31_ ^ 2 ] = 20
c31: [ -34 x_10_ * x_31_ - 78 x_36_ * x_10_ + 56 x_37_ * x_10_ + 90 x_38_ * x_10_ - 82 x_17_ * x_13_ - 50 x_28_ * x_13_ - 32 x_36_ * x_13_ + 44 x_36_ * x_17_ - 36 x_37_ * x_17_ + 32 x_48_ * x_28_ + 66 x_49_ * x_28_ - 52 x_49_ * x_38_ ] = 4926
c32: 1 x_29_ + [ 84 x_20_ * x_1_ - 60 x_17_ * x_5_ - 36 x_26_ * x_5_ - 32 x_50_ * x_5_ + 56 x_14_ * x_9_ + 27 x_14_ ^ 2 - 40 x_15_ * x_14_ + 50 x_17_ * x_14_ - 70 x_26_ * x_14_ - 34 x_29_ * x_14_ - 26 x_50_ * x_15_ - 62 x_43_ * x_17_ ] = -1881
c33: -34 x_5_ - 41 x_21_ - 30 x_30_ - 21 x_37_ + [ -80 x_17_ * x_2_ - 20 x_34_ * x_2_ + 44 x_37_ * x_2_ + 43 x_5_ ^ 2 + 24 x_47_ * x_5_ - 74 x_46_ * x_30_ + 42 x_34_ * x_31_ + 15 x_47_ ^ 2 ] = 8039
c34: 35 x_3_ + 32 x_9_ + [ -76 x_3_ * x_17_ - 56 x_17_ * x_9_ + 50 x_18_ * x_9_ - 96 x_43_ * x_38_ ] = 1166
c35: -25 x_36_ - 23 x_43_ + [ -26 x_34_ * x_6_ + 40 x_36_ * x_6_ + 28 x_36_ * x_8_ + 92 x_46_ * x_10_ - 38 x_43_ * x_14_ - 76 x_46_ * x_14_ - 49 x_46_ ^ 2 ] = 1792
c36: -10 x_15_ - 49 x_25_ + 5 x_30_ + [ -24 x_15_ ^ 2 - 84 x_20_ * x_15_ + 4 x_30_ * x_15_ + 96 x_38_ * x_20_ + 40 x_25_ * x_21_ - 46 x_38_ * x_26_ ] = -791
c37: -4 x_8_ + 7 x_12_ - 6 x_25_ + 20 x_29_ + 22 x_30_ - 6 x_39_ + [ -94 x_30_ * x_1_ - 39 x_8_ ^ 2 - 96 x_12_ * x_8_ - 60 x_30_ * x_8_ - 48 x_37_ * x_8_ - 36 x_12_ ^ 2 - 50 x_20_ * x_12_ + 52 x_37_ * x_12_ - 9 x_20_ ^ 2 - 72 x_39_ * x_22_ + 90 x_37_ * x_25_ - 48 x_30_ * x_29_ - 84 x_39_ * x_29_ + 26 x_39_ * x_37_ + 84 x_39_ * x_38_ ] = 231
c38: 48 x_26_ + 42 x_33_ + 37 x_37_ - 29 x_50_ + [ 94 x_5_ * x_14_ + 14 x_34_ * x_5_ - 48 x_41_ * x_5_ - 76 x_34_ * x_14_ - 28 x_46_ * x_14_ - 28 x_50_ * x_14_ + 56 x_33_ * x_16_ - 64 x_34_ * x_16_ - 14 x_26_ * x_17_ + 28 x_33_ * x_17_ + 94 x_41_ * x_17_ - 22 x_46_ * x_17_ + 70 x_26_ * x_21_ + 36 x_34_ * x_21_ - 48 x_37_ * x_21_ + 36 x_46_ * x_21_ - 12 x_41_ * x_26_ - 78 x_50_ * x_33_ + 14 x_46_ * x_34_ + 32 x_50_ * x_41_ ] = -9048
c39: -3 x_9_ - 21 x_17_ + 4 x_24_ - 40 x_40_ + [ -68 x_9_ * x_2_ - 78 x_12_ * x_2_ + 16 x_7_ ^ 2 + 84 x_12_ * x_7_ + 74 x_34_ * x_7_ - 22 x_35_ * x_7_ - 38 x_40_ * x_7_ + 12 x_41_ * x_7_ + 94 x_17_ * x_9_ - 82 x_34_ * x_9_ + 50 x_35_ * x_9_ - 58 x_40_ * x_12_ - 90 x_24_ * x_14_ + 12 x_34_ * x_14_ - 46 x_27_ * x_17_ - 41 x_33_ ^ 2 - 76 x_35_ * x_33_ - 10 x_34_ ^ 2 + 14 x_35_ * x_34_ - 24 x_41_ * x_35_ ] = 9193
c40: -45 x_9_ - 20 x_13_ - 18 x_17_ + [ 7 x_1_ ^ 2 + 36 x_8_ * x_1_ + 72 x_14_ * x_1_ + 4 x_42_ * x_1_ + 16 x_12_ * x_8_ + 58 x_18_ * x_8_ - 60 x_47_ * x_8_ - 62 x_48_ * x_8_ - 86 x_17_ * x_9_ - 96 x_18_ * x_9_ - 70 x_36_ * x_9_ + 96 x_44_ * x_9_ - 50 x_12_ ^ 2 - 8 x_13_ * x_12_ + 4 x_17_ * x_12_ - 10 x_32_ * x_12_ + 76 x_42_ * x_12_ - 98 x_44_ * x_12_ - 72 x_32_ * x_13_ - 36 x_47_ * x_13_ + 20 x_48_ * x_13_ + 62 x_18_ * x_17_ + 100 x_42_ * x_17_ + 38 x_44_ * x_17_ - 72 x_32_ * x_18_ - 80 x_32_ * x_20_ + 78 x_47_ * x_32_ + 13 x_36_ ^ 2 - 43 x_42_ ^ 2 + 14 x_48_ ^ 2 ] = -4112
c41: -33 x_41_ - 32 x_44_ + [ 16 x_35_ * x_23_ - 94 x_40_ * x_35_ + 50 x_40_ ^ 2 + 84 x_43_ * x_40_ - 27 x_41_ ^ 2 + 80 x_43_ * x_41_ + 48 x_44_ * x_41_ + 34 x_43_ ^ 2 + 46 x_44_ ^ 2 ] = -5638
c42: [ -84 x_30_ * x_5_ + 30 x_32_ * x_5_ - 56 x_35_ * x_5_ + 16 x_12_ ^ 2 - 26 x_25_ * x_12_ - 6 x_43_ * x_12_ + 84 x_44_ * x_15_ - 74 x_27_ * x_25_ + 26 x_43_ * x_25_ - 66 x_30_ * x_27_ + 40 x_30_ ^ 2 - 64 x_44_ * x_32_ + 72 x_43_ * x_35_ + 60 x_43_ * x_41_ - 12 x_45_ * x_44_ ] = 2964
c43: 1 x_3_ - 20 x_12_ + 43 x_13_ - 45 x_35_ + [ -46 x_3_ ^ 2 - 78 x_16_ * x_3_ + 80 x_50_ * x_3_ + 8 x_19_ * x_12_ - 4 x_50_ * x_13_ + 46 x_16_ ^ 2 - 42 x_50_ * x_16_ + 22 x_18_ ^ 2 - 48 x_19_ * x_18_ - 50 x_33_ * x_18_ - 22 x_35_ * x_19_ + 62 x_50_ * x_19_ ] = 1968
c44: -30 x_22_ + [ 14 x_36_ * x_4_ - 84 x_49_ * x_4_ - 12 x_49_ * x_18_ - 70 x_32_ * x_22_ - 80 x_46_ * x_28_ + 6 x_32_ ^ 2 - 46 x_49_ * x_32_ - 10 x_36_ * x_35_ + 27 x_46_ ^ 2 + 25 x_49_ ^ 2 ] = -3233
c45: -8 x_9_ + [ -13 x_6_ ^ 2 + 58 x_14_ * x_7_ - 88 x_41_ * x_9_ ] = 6215
c46: 18 x_4_ + 3 x_14_ - 1 x_32_ - 18 x_39_ + 6 x_47_ + [ -2 x_36_ * x_4_ + 90 x_46_ * x_4_ + 30 x_36_ * x_8_ + 86 x_45_ * x_8_ - 40 x_48_ * x_8_ - 2 x_14_ ^ 2 - 56 x_25_ * x_14_ - 10 x_28_ * x_14_ + 16 x_39_ * x_14_ + 2 x_45_ * x_14_ + 40 x_47_ * x_14_ + 40 x_36_ * x_25_ - 48 x_37_ * x_25_ - 34 x_49_ * x_28_ + 24 x_48_ * x_32_ - 98 x_48_ * x_36_ + 78 x_49_ * x_36_ + 46 x_48_ * x_37_ + 28 x_49_ * x_37_ - 36 x_39_ ^ 2 - 27 x_46_ ^ 2 + 58 x_47_ * x_46_ + 5 x_47_ ^ 2 - 49 x_48_ ^ 2 ] = -9897
c47: -43 x_28_ + [ 48 x_12_ * x_5_ - 20 x_12_ ^ 2 + 2 x_28_ * x_12_ - 92 x_42_ * x_12_ + 88 x_49_ * x_12_ + 46 x_19_ * x_14_ + 4 x_47_ * x_14_ + 16 x_42_ * x_19_ + 76 x_29_ * x_28_ - 52 x_42_ * x_28_ - 62 x_47_ * x_28_ - 88 x_47_ * x_42_ ] = 3019
c48: [ -49 x_8_ ^ 2 - 21 x_35_ ^ 2 + 10 x_44_ * x_35_ - 56 x_38_ * x_36_ - 96 x_44_ * x_36_ ] = 419
c49: 1 x_23_ + 27 x_24_ + 7 x_38_ + [ -48 x_3_ ^ 2 - 26 x_14_ * x_13_ + 84 x_23_ * x_13_ + 12 x_24_ * x_13_ - 34 x_33_ * x_13_ - 76 x_24_ * x_14_ + 62 x_33_ * x_14_ - 84 x_44_ * x_14_ + 42 x_17_ ^ 2 - 32 x_27_ * x_23_ - 30 x_44_ * x_23_ - 6 x_33_ * x_24_ - 90 x_38_ * x_24_ - 72 x_49_ * x_24_ + 10 x_33_ * x_27_ + 88 x_34_ * x_27_ - 76 x_40_ * x_27_ - 26 x_40_ * x_33_ - 33 x_34_ ^ 2 - 94 x_40_ * x_38_ + 32 x_49_ * x_38_ + 16 x_44_ * x_40_ - 48 x_49_ ^ 2 ] = 4728
Bounds
x_1_ = 4
-10 <= x_2_ <= 10
1 <= x_3_ <= 4
-7 <= x_4_ <= 8
-8 <= x_5_ <= -4
-4 <= x_6_ <= -2
-1 <= x_7_ <= 8
-1 <= x_8_ <= 8
-10 <= x_9_ <= 9
-10 <= x_10_ <= 6
-9 <= x_11_ <= -2
-6 <= x_12_ <= 8
7 <= x_13_ <= 9
-5 <= x_14_ <= 10
-6 <= x_15_ <= 8
3 <= x_16_ <= 9
-5 <= x_17_ <= 1
-3 <= x_18_ <= 5
-6 <= x_19_ <= 3
-1 <= x_20_ <= 7
-9 <= x_21_ <= -4
4 <= x_22_ <= 9
3 <= x_23_ <= 10
-8 <= x_24_ <= 0
-4 <= x_25_ <= 10
-10 <= x_26_ <= -3
-7 <= x_27_ <= 4
6 <= x_28_ <= 9
0 <= x_29_ <= 6
-10 <= x_30_ <= 7
2 <= x_31_ <= 9
-8 <= x_32_ <= 4
-7 <= x_33_ <= 4
-6 <= x_34_ <= 7
-10 <= x_35_ <= -2
-8 <= x_36_ <= 5
-7 <= x_37_ <= 6
0 <= x_38_ <= 8
-5 <= x_39_ <= 9
x_40_ = 2
x_41_ = 9
-8 <= x_42_ <= 9
-5 <= x_43_ <= -2
-7 <= x_44_ <= 9
2 <= x_45_ <= 9
-9 <= x_46_ <= 7
-7 <= x_47_ <= 6
-10 <= x_48_ <= 10
-2 <= x_49_ <= 10
-10 <= x_50_ <= 1
General
x_1_
x_2_
x_3_
x_4_
x_5_
x_6_
x_7_
x_8_
x_9_
x_10_
x_11_
x_12_
x_13_
x_14_
x_15_
x_16_
x_17_
x_18_
x_19_
x_20_
x_21_
x_22_
x_23_
x_24_
x_25_
x_26_
x_27_
x_28_
x_29_
x_30_
x_31_
x_32_
x_33_
x_34_
x_35_
x_36_
x_37_
x_38_
x_39_
x_40_
x_41_
x_42_
x_43_
x_44_
x_45_
x_46_
x_47_
x_48_
x_49_
x_50_
End
