minimize
obj: 
subject to
quadratic_ranged_1_ub: [ 26 x_8_ * x_5_ - 2 x_15_ * x_5_ - 44 x_33_ * x_5_ + 22 x_8_ ^ 2 - 30 x_38_ * x_12_ + 92 x_15_ * x_14_ + 12 x_33_ * x_14_ + 36 x_50_ * x_14_ - 44 x_22_ * x_15_ ] <= 984
quadratic_ranged_2_ub: [ -43 x_9_ ^ 2 - 76 x_28_ * x_9_ + 84 x_37_ * x_9_ - 60 x_22_ * x_11_ - 56 x_28_ * x_11_ - 74 x_36_ * x_11_ + 66 x_37_ * x_11_ - 98 x_43_ * x_21_ + 10 x_28_ ^ 2 - 36 x_48_ * x_36_ - 78 x_48_ * x_37_ ] <= -16755
quadratic_ranged_3_ub: [ 34 x_39_ * x_11_ + 8 x_13_ ^ 2 + 40 x_27_ * x_13_ - 2 x_43_ * x_13_ + 36 x_48_ * x_13_ + 30 x_14_ ^ 2 + 23 x_25_ ^ 2 - 84 x_27_ * x_25_ + 12 x_34_ * x_25_ - 38 x_43_ * x_39_ ] <= -2838
quadratic_ranged_4_ub: [ 8 x_8_ * x_7_ + 12 x_20_ * x_7_ - 54 x_29_ * x_7_ - 11 x_8_ ^ 2 - 14 x_24_ * x_8_ - 22 x_26_ * x_8_ + 58 x_29_ * x_8_ + 82 x_42_ * x_8_ - 68 x_38_ * x_10_ - 82 x_40_ * x_10_ + 9 x_11_ ^ 2 + 98 x_24_ * x_11_ + 92 x_29_ * x_11_ + 92 x_27_ * x_19_ + 36 x_30_ * x_19_ + 60 x_26_ * x_24_ + 4 x_30_ * x_24_ - 92 x_30_ * x_26_ - 4 x_40_ * x_26_ + 10 x_42_ * x_26_ + 36 x_42_ * x_29_ - 31 x_40_ ^ 2 + 9 x_42_ ^ 2 ] <= 9330
quadratic_ranged_5_ub: [ -14 x_2_ ^ 2 + 52 x_4_ * x_2_ + 64 x_7_ * x_2_ - 66 x_39_ * x_2_ - 76 x_49_ * x_2_ + 44 x_24_ * x_4_ + 42 x_28_ * x_4_ + 32 x_33_ * x_4_ + 8 x_39_ * x_7_ - 64 x_49_ * x_7_ + 32 x_23_ ^ 2 - 40 x_49_ * x_23_ - 14 x_24_ ^ 2 - 100 x_44_ * x_24_ + 100 x_49_ * x_44_ ] <= -6463
quadratic_ranged_6_ub: [ 12 x_1_ * x_49_ + 100 x_11_ * x_3_ - 8 x_18_ * x_3_ - 72 x_18_ * x_11_ + 20 x_23_ * x_11_ - 58 x_41_ * x_11_ + 48 x_27_ * x_12_ - 30 x_49_ * x_18_ + 24 x_30_ * x_27_ ] <= -2109
quadratic_ranged_7_ub: [ 14 x_14_ * x_1_ + 66 x_42_ * x_4_ - 88 x_43_ * x_4_ + 60 x_23_ * x_6_ + 52 x_22_ * x_9_ - 26 x_42_ * x_14_ + 32 x_15_ ^ 2 + 16 x_23_ * x_22_ + 70 x_33_ * x_22_ - 92 x_34_ * x_22_ - 24 x_47_ * x_22_ + 44 x_34_ * x_23_ - 12 x_33_ ^ 2 + 80 x_43_ * x_34_ - 48 x_47_ * x_34_ + 26 x_42_ ^ 2 ] <= 2179
quadratic_ranged_8_ub: [ 74 x_36_ * x_5_ + 94 x_42_ * x_5_ + 94 x_36_ * x_6_ - 10 x_10_ ^ 2 - 4 x_30_ * x_10_ + 88 x_42_ * x_10_ + 38 x_46_ * x_15_ - 46 x_21_ ^ 2 + 90 x_25_ * x_21_ - 62 x_40_ * x_21_ + 8 x_42_ * x_21_ - 48 x_22_ ^ 2 + 14 x_25_ * x_22_ - 30 x_40_ * x_25_ - 76 x_46_ * x_36_ + 100 x_42_ * x_40_ ] <= 7319
quadratic_ranged_9_ub: [ 96 x_6_ * x_25_ - 8 x_25_ * x_20_ - 44 x_50_ * x_20_ ] <= 3499
quadratic_ranged_10_ub: [ -20 x_33_ * x_6_ - 30 x_34_ * x_6_ + 58 x_13_ * x_10_ - 44 x_17_ * x_10_ + 64 x_17_ * x_13_ + 66 x_34_ * x_13_ + 36 x_17_ ^ 2 - 26 x_47_ * x_33_ + 20 x_47_ * x_34_ + 48 x_35_ ^ 2 ] <= -1900
quadratic_ranged_11_ub: [ 1 x_11_ ^ 2 - 22 x_34_ * x_11_ - 48 x_39_ * x_16_ + 2 x_46_ * x_16_ - 10 x_29_ * x_22_ + 26 x_29_ ^ 2 + 42 x_34_ * x_32_ - 68 x_39_ * x_32_ + 18 x_46_ * x_34_ + 24 x_46_ ^ 2 - 19 x_47_ ^ 2 ] <= -4408
quadratic_ranged_12_ub: [ 16 x_7_ * x_12_ - 70 x_24_ * x_7_ - 48 x_31_ * x_7_ - 64 x_33_ * x_12_ + 14 x_42_ * x_12_ - 70 x_42_ * x_24_ + 100 x_45_ * x_24_ - 4 x_45_ * x_31_ - 30 x_42_ * x_33_ ] <= 5098
quadratic_ranged_13_ub: [ -18 x_30_ * x_12_ + 40 x_43_ * x_12_ + 35 x_13_ ^ 2 + 96 x_28_ * x_26_ - 54 x_30_ * x_28_ - 8 x_34_ * x_28_ - 60 x_34_ * x_29_ + 52 x_34_ * x_30_ + 9 x_43_ ^ 2 ] <= -898
quadratic_ranged_14_ub: [ 4 x_19_ ^ 2 + 62 x_39_ * x_28_ - 84 x_40_ * x_28_ + 20 x_46_ * x_39_ + 23 x_40_ ^ 2 ] <= -8004
quadratic_ranged_15_ub: [ -8 x_8_ * x_1_ + 8 x_26_ * x_1_ - 82 x_34_ * x_1_ + 48 x_26_ * x_4_ - 44 x_8_ ^ 2 - 68 x_13_ * x_8_ - 47 x_13_ ^ 2 ] <= 3710
quadratic_ranged_16_ub: [ 4 x_15_ * x_5_ + 38 x_24_ * x_5_ - 68 x_37_ * x_5_ - 98 x_49_ * x_5_ - 96 x_37_ * x_7_ + 34 x_39_ * x_7_ + 34 x_15_ * x_14_ + 15 x_15_ ^ 2 - 54 x_37_ * x_15_ + 30 x_38_ * x_15_ + 22 x_24_ ^ 2 + 40 x_38_ * x_29_ - 30 x_37_ * x_35_ - 3 x_37_ ^ 2 ] <= 8724
quadratic_ranged_17_ub: [ -13 x_2_ ^ 2 - 92 x_6_ * x_2_ - 48 x_49_ * x_2_ - 88 x_18_ * x_16_ - 38 x_23_ * x_18_ + 54 x_28_ * x_18_ + 14 x_36_ * x_18_ - 13 x_20_ ^ 2 - 72 x_23_ * x_20_ + 90 x_36_ * x_28_ ] <= 6458
quadratic_ranged_18_ub: [ -20 x_35_ * x_3_ + 80 x_41_ * x_3_ + 34 x_50_ * x_3_ + 6 x_13_ * x_4_ - 6 x_16_ * x_4_ + 52 x_35_ * x_4_ - 72 x_50_ * x_4_ - 33 x_13_ ^ 2 - 72 x_35_ * x_13_ + 66 x_35_ * x_19_ - 58 x_41_ * x_19_ - 33 x_31_ ^ 2 + 32 x_50_ * x_31_ - 40 x_41_ ^ 2 - 42 x_49_ * x_41_ ] <= -8989
quadratic_ranged_19_ub: [ 78 x_7_ * x_42_ - 90 x_35_ * x_17_ + 50 x_25_ * x_20_ - 96 x_28_ * x_20_ - 60 x_31_ * x_20_ - 100 x_32_ * x_20_ + 12 x_35_ * x_25_ + 10 x_35_ * x_28_ + 88 x_42_ * x_31_ ] <= 6045
quadratic_ranged_20_ub: [ -96 x_25_ * x_2_ - 56 x_46_ * x_2_ + 12 x_30_ * x_25_ - 6 x_30_ ^ 2 - 42 x_33_ * x_30_ + 18 x_33_ ^ 2 ] <= -4706
quadratic_ranged_21_ub: [ -22 x_8_ * x_5_ - 42 x_29_ * x_5_ + 88 x_30_ * x_5_ - 10 x_7_ ^ 2 - 16 x_29_ * x_7_ + 24 x_8_ ^ 2 - 8 x_29_ * x_8_ + 20 x_30_ * x_8_ - 46 x_38_ * x_8_ + 46 x_29_ * x_18_ - 80 x_38_ * x_18_ + 72 x_30_ * x_20_ ] <= 5346
quadratic_ranged_22_ub: [ 40 x_4_ ^ 2 - 30 x_19_ * x_4_ + 82 x_21_ * x_4_ - 2 x_47_ * x_4_ + 7 x_7_ ^ 2 + 28 x_27_ * x_7_ + 70 x_27_ * x_12_ + 6 x_37_ * x_12_ + 48 x_38_ * x_12_ - 16 x_47_ * x_12_ - 12 x_38_ * x_19_ + 86 x_37_ * x_21_ - 5 x_36_ ^ 2 + 12 x_37_ ^ 2 + 60 x_50_ * x_39_ ] <= 15535
quadratic_ranged_23_ub: [ 78 x_32_ * x_3_ + 90 x_37_ * x_3_ + 18 x_44_ * x_3_ - 12 x_31_ * x_8_ + 44 x_48_ * x_8_ + 6 x_31_ * x_11_ + 12 x_17_ ^ 2 - 2 x_44_ * x_21_ + 41 x_31_ ^ 2 + 32 x_32_ ^ 2 + 82 x_37_ * x_32_ - 36 x_37_ ^ 2 ] <= 6534
quadratic_ranged_24_ub: [ -94 x_47_ * x_2_ - 96 x_17_ * x_6_ + 74 x_38_ * x_6_ - 58 x_39_ * x_6_ - 9 x_12_ ^ 2 + 84 x_25_ * x_12_ + 60 x_36_ * x_12_ - 40 x_25_ * x_17_ + 40 x_33_ * x_25_ + 4 x_36_ * x_25_ + 26 x_37_ * x_25_ + 30 x_39_ * x_25_ - 32 x_33_ ^ 2 + 48 x_37_ * x_36_ - 14 x_39_ ^ 2 ] <= 8346
quadratic_ranged_25_ub: [ -12 x_14_ * x_3_ - 50 x_22_ * x_6_ + 8 x_32_ * x_6_ - 40 x_30_ * x_22_ - 18 x_30_ ^ 2 ] <= -289
quadratic_ranged_26_ub: [ -84 x_11_ * x_10_ + 76 x_12_ * x_10_ + 84 x_22_ * x_10_ - 96 x_32_ * x_10_ + 20 x_16_ * x_11_ - 22 x_32_ * x_11_ + 92 x_36_ * x_11_ + 82 x_39_ * x_11_ - 92 x_16_ * x_12_ + 64 x_32_ * x_12_ + 88 x_36_ * x_12_ - 94 x_39_ * x_12_ - 20 x_39_ * x_16_ - 10 x_21_ * x_18_ + 62 x_32_ * x_18_ + 60 x_40_ * x_20_ + 1 x_22_ ^ 2 + 30 x_32_ * x_22_ + 17 x_32_ ^ 2 - 96 x_40_ * x_32_ - 78 x_40_ * x_36_ ] <= -14920
quadratic_ranged_27_ub: [ -96 x_5_ * x_1_ - 90 x_48_ * x_1_ + 100 x_17_ * x_5_ - 34 x_12_ * x_7_ - 66 x_19_ * x_7_ + 62 x_33_ * x_7_ + 6 x_48_ * x_7_ - 42 x_9_ ^ 2 - 4 x_21_ * x_12_ + 98 x_48_ * x_17_ + 60 x_33_ * x_19_ - 41 x_21_ ^ 2 - 8 x_33_ ^ 2 + 58 x_36_ * x_33_ ] <= -8882
quadratic_ranged_28_ub: [ -70 x_40_ * x_15_ + 72 x_29_ * x_22_ + 36 x_36_ * x_24_ + 92 x_29_ * x_25_ + 40 x_36_ * x_25_ - 78 x_47_ * x_25_ - 100 x_36_ * x_28_ + 24 x_41_ * x_28_ - 88 x_41_ * x_40_ + 4 x_47_ ^ 2 ] <= -13871
quadratic_ranged_29_ub: [ 17 x_10_ ^ 2 + 8 x_30_ * x_10_ - 21 x_23_ ^ 2 - 20 x_41_ * x_30_ - 13 x_41_ ^ 2 + 28 x_49_ ^ 2 ] <= -1386
quadratic_ranged_30_ub: [ -16 x_12_ * x_1_ + 88 x_33_ * x_1_ - 86 x_39_ * x_1_ - 16 x_16_ * x_4_ - 20 x_44_ * x_4_ - 32 x_5_ ^ 2 + 84 x_12_ * x_5_ - 10 x_33_ * x_5_ - 60 x_36_ * x_5_ + 56 x_39_ * x_5_ + 44 x_36_ * x_12_ - 86 x_39_ * x_12_ + 27 x_15_ ^ 2 - 68 x_33_ * x_16_ + 74 x_35_ * x_16_ + 60 x_39_ * x_16_ - 6 x_44_ * x_22_ + 62 x_36_ * x_27_ + 48 x_39_ * x_27_ + 70 x_39_ * x_33_ - 60 x_44_ * x_33_ ] <= -13577
quadratic_ranged_31_ub: [ -7 x_5_ ^ 2 - 2 x_35_ * x_10_ - 2 x_21_ ^ 2 ] <= -461
quadratic_ranged_32_ub: [ 100 x_43_ * x_2_ - 74 x_20_ * x_3_ + 90 x_26_ * x_3_ + 18 x_34_ * x_3_ + 44 x_40_ * x_3_ + 18 x_9_ ^ 2 + 14 x_34_ * x_9_ - 64 x_34_ * x_13_ - 14 x_20_ ^ 2 - 38 x_32_ ^ 2 - 82 x_40_ * x_34_ - 36 x_43_ * x_40_ ] <= 8916
quadratic_ranged_33_ub: [ -20 x_18_ * x_1_ + 98 x_45_ * x_1_ + 30 x_17_ * x_7_ - 5 x_16_ ^ 2 - 10 x_17_ ^ 2 + 84 x_45_ * x_17_ - 48 x_40_ * x_18_ - 21 x_34_ ^ 2 - 26 x_40_ ^ 2 ] <= -7364
quadratic_ranged_34_ub: [ 32 x_11_ * x_4_ + 72 x_14_ * x_4_ - 10 x_33_ * x_4_ + 5 x_8_ ^ 2 + 12 x_11_ * x_8_ + 20 x_14_ * x_8_ - 12 x_33_ * x_8_ - 72 x_12_ * x_11_ - 2 x_14_ ^ 2 + 31 x_42_ ^ 2 ] <= 3908
quadratic_ranged_35_ub: [ -35 x_6_ ^ 2 - 96 x_7_ * x_6_ - 84 x_9_ * x_7_ - 90 x_43_ * x_7_ - 14 x_9_ ^ 2 ] <= -844
quadratic_ranged_36_ub: [ -46 x_38_ * x_7_ + 38 x_40_ * x_7_ - 22 x_47_ * x_7_ - 42 x_17_ * x_11_ + 76 x_17_ * x_16_ - 70 x_35_ * x_16_ + 10 x_38_ * x_16_ - 16 x_17_ ^ 2 + 38 x_18_ * x_17_ - 100 x_35_ * x_17_ + 52 x_38_ * x_17_ + 18 x_33_ ^ 2 - 48 x_35_ * x_33_ - 32 x_38_ * x_35_ - 42 x_40_ * x_35_ ] <= 206
quadratic_ranged_37_ub: [ 46 x_5_ ^ 2 + 50 x_19_ * x_5_ - 18 x_22_ * x_19_ + 12 x_35_ * x_19_ - 50 x_22_ ^ 2 + 2 x_27_ * x_22_ + 76 x_50_ * x_22_ - 49 x_27_ ^ 2 - 76 x_35_ * x_27_ - 28 x_29_ ^ 2 - 10 x_35_ ^ 2 - 84 x_44_ * x_35_ - 52 x_49_ * x_44_ ] <= 2085
quadratic_ranged_38_ub: [ -50 x_24_ * x_3_ - 22 x_7_ * x_4_ + 58 x_13_ * x_4_ - 20 x_24_ * x_4_ - 66 x_43_ * x_4_ + 48 x_7_ ^ 2 + 76 x_24_ * x_7_ + 6 x_30_ * x_7_ + 56 x_44_ * x_7_ + 36 x_27_ * x_11_ - 56 x_33_ * x_27_ + 66 x_43_ * x_30_ ] <= -10256
quadratic_ranged_39_ub: [ -36 x_7_ * x_4_ - 10 x_21_ * x_4_ - 88 x_27_ * x_4_ + 32 x_10_ * x_5_ - 32 x_21_ * x_5_ - 54 x_24_ * x_5_ + 18 x_27_ * x_5_ - 64 x_34_ * x_5_ - 70 x_10_ * x_7_ - 82 x_11_ * x_7_ - 22 x_24_ * x_7_ - 6 x_11_ * x_9_ + 14 x_21_ * x_9_ - 12 x_34_ * x_9_ + 10 x_36_ * x_9_ - 90 x_44_ * x_9_ + 34 x_46_ * x_9_ + 94 x_34_ * x_10_ - 88 x_46_ * x_10_ + 56 x_21_ * x_11_ + 16 x_24_ * x_11_ - 90 x_34_ * x_20_ + 94 x_44_ * x_20_ - 46 x_21_ ^ 2 + 58 x_36_ * x_21_ + 44 x_46_ * x_27_ + 72 x_36_ * x_34_ ] <= 4769
quadratic_ranged_40_ub: [ -52 x_10_ * x_1_ + 14 x_16_ * x_1_ + 78 x_29_ * x_10_ - 12 x_35_ * x_27_ + 45 x_29_ ^ 2 + 96 x_32_ * x_29_ - 74 x_37_ * x_29_ + 32 x_35_ * x_32_ ] <= 1656
quadratic_ranged_41_ub: [ 88 x_10_ * x_6_ + 4 x_13_ * x_6_ - 10 x_23_ * x_6_ - 62 x_35_ * x_6_ + 58 x_47_ * x_6_ + 21 x_10_ ^ 2 - 100 x_13_ * x_10_ - 50 x_23_ * x_10_ + 74 x_35_ * x_10_ + 64 x_47_ * x_10_ + 50 x_35_ * x_23_ - 32 x_28_ ^ 2 - 80 x_35_ * x_28_ - 24 x_35_ ^ 2 ] <= -3818
quadratic_ranged_42_ub: [ 78 x_40_ * x_19_ - 54 x_40_ * x_23_ + 86 x_31_ * x_24_ + 1 x_27_ ^ 2 - 48 x_40_ * x_27_ + 34 x_45_ * x_27_ - 14 x_31_ ^ 2 + 20 x_40_ * x_34_ - 38 x_45_ * x_34_ ] <= -4005
quadratic_ranged_43_ub: [ 14 x_13_ * x_2_ - 20 x_25_ * x_3_ - 46 x_13_ * x_11_ - 37 x_49_ ^ 2 ] <= -3416
quadratic_ranged_44_ub: [ 72 x_6_ * x_5_ - 12 x_7_ * x_5_ + 48 x_11_ * x_6_ + 96 x_24_ * x_6_ + 30 x_7_ ^ 2 - 20 x_24_ * x_7_ + 82 x_32_ * x_7_ + 4 x_10_ ^ 2 + 40 x_11_ * x_10_ + 4 x_27_ * x_10_ + 36 x_36_ * x_11_ - 26 x_43_ * x_11_ + 22 x_32_ * x_24_ + 26 x_43_ * x_24_ - 36 x_32_ * x_27_ + 42 x_43_ * x_27_ + 70 x_44_ * x_32_ + 38 x_47_ ^ 2 ] <= 3669
quadratic_ranged_45_ub: [ -88 x_22_ * x_4_ - 64 x_35_ * x_4_ + 50 x_12_ * x_6_ - 43 x_12_ ^ 2 + 4 x_45_ * x_12_ - 44 x_48_ * x_22_ + 40 x_33_ ^ 2 + 44 x_45_ ^ 2 ] <= 173
quadratic_ranged_46_ub: [ 84 x_33_ * x_18_ - 44 x_37_ * x_18_ - 28 x_45_ * x_18_ - 39 x_19_ ^ 2 - 11 x_35_ ^ 2 + 48 x_37_ ^ 2 ] <= 5101
quadratic_ranged_47_ub: [ -13 x_7_ ^ 2 + 60 x_24_ * x_7_ + 14 x_49_ * x_7_ - 40 x_49_ * x_23_ - 12 x_40_ * x_24_ + 48 x_43_ * x_24_ - 38 x_49_ ^ 2 ] <= -3813
quadratic_ranged_48_ub: [ -8 x_3_ ^ 2 - 22 x_6_ ^ 2 + 84 x_38_ * x_6_ + 16 x_45_ * x_12_ + 14 x_38_ ^ 2 + 70 x_45_ * x_38_ + 30 x_45_ * x_40_ - 98 x_46_ * x_45_ - 64 x_48_ * x_45_ - 1 x_48_ ^ 2 ] <= 10906
quadratic_ranged_49_ub: [ -18 x_25_ * x_2_ - 4 x_31_ * x_2_ - 50 x_37_ * x_2_ - 54 x_50_ * x_2_ - 30 x_34_ * x_6_ - 26 x_34_ * x_18_ - 90 x_35_ * x_18_ + 34 x_37_ * x_18_ - 34 x_50_ * x_18_ - 64 x_31_ * x_19_ + 22 x_35_ * x_19_ + 60 x_48_ * x_19_ + 6 x_25_ * x_24_ - 40 x_34_ * x_24_ - 6 x_45_ * x_24_ + 38 x_35_ * x_25_ - 40 x_36_ * x_25_ - 42 x_48_ * x_25_ + 72 x_37_ * x_31_ - 50 x_48_ * x_35_ - 94 x_50_ * x_35_ + 25 x_36_ ^ 2 - 98 x_42_ * x_36_ - 36 x_50_ * x_36_ + 82 x_38_ * x_37_ + 50 x_42_ ^ 2 + 32 x_50_ * x_42_ - 20 x_50_ * x_45_ ] <= -5704
quadratic_ranged_50_ub: [ -52 x_6_ * x_19_ + 32 x_28_ * x_6_ - 32 x_33_ * x_28_ ] <= 624
quadratic_ranged_51_ub: [ -4 x_46_ * x_3_ + 7 x_4_ ^ 2 + 66 x_44_ * x_4_ + 56 x_38_ * x_22_ - 54 x_46_ * x_22_ - 38 x_46_ * x_38_ - 38 x_47_ * x_39_ - 37 x_40_ ^ 2 + 64 x_47_ * x_46_ ] <= 6940
quadratic_ranged_52_ub: [ 100 x_1_ * x_4_ + 54 x_9_ * x_1_ - 6 x_23_ * x_4_ - 82 x_32_ * x_4_ - 44 x_32_ * x_5_ + 62 x_23_ * x_10_ + 38 x_45_ * x_10_ - 44 x_45_ * x_23_ ] <= -4231
quadratic_ranged_53_ub: [ -2 x_2_ ^ 2 - 20 x_24_ * x_15_ - 34 x_29_ * x_15_ - 84 x_24_ * x_20_ + 78 x_29_ * x_24_ + 34 x_32_ ^ 2 ] <= -616
quadratic_ranged_1_lb: [ 26 x_8_ * x_5_ - 2 x_15_ * x_5_ - 44 x_33_ * x_5_ + 22 x_8_ ^ 2 - 30 x_38_ * x_12_ + 92 x_15_ * x_14_ + 12 x_33_ * x_14_ + 36 x_50_ * x_14_ - 44 x_22_ * x_15_ ] >= 978
quadratic_ranged_2_lb: [ -43 x_9_ ^ 2 - 76 x_28_ * x_9_ + 84 x_37_ * x_9_ - 60 x_22_ * x_11_ - 56 x_28_ * x_11_ - 74 x_36_ * x_11_ + 66 x_37_ * x_11_ - 98 x_43_ * x_21_ + 10 x_28_ ^ 2 - 36 x_48_ * x_36_ - 78 x_48_ * x_37_ ] >= -16760
quadratic_ranged_3_lb: [ 34 x_39_ * x_11_ + 8 x_13_ ^ 2 + 40 x_27_ * x_13_ - 2 x_43_ * x_13_ + 36 x_48_ * x_13_ + 30 x_14_ ^ 2 + 23 x_25_ ^ 2 - 84 x_27_ * x_25_ + 12 x_34_ * x_25_ - 38 x_43_ * x_39_ ] >= -2842
quadratic_ranged_4_lb: [ 8 x_8_ * x_7_ + 12 x_20_ * x_7_ - 54 x_29_ * x_7_ - 11 x_8_ ^ 2 - 14 x_24_ * x_8_ - 22 x_26_ * x_8_ + 58 x_29_ * x_8_ + 82 x_42_ * x_8_ - 68 x_38_ * x_10_ - 82 x_40_ * x_10_ + 9 x_11_ ^ 2 + 98 x_24_ * x_11_ + 92 x_29_ * x_11_ + 92 x_27_ * x_19_ + 36 x_30_ * x_19_ + 60 x_26_ * x_24_ + 4 x_30_ * x_24_ - 92 x_30_ * x_26_ - 4 x_40_ * x_26_ + 10 x_42_ * x_26_ + 36 x_42_ * x_29_ - 31 x_40_ ^ 2 + 9 x_42_ ^ 2 ] >= 9325
quadratic_ranged_5_lb: [ -14 x_2_ ^ 2 + 52 x_4_ * x_2_ + 64 x_7_ * x_2_ - 66 x_39_ * x_2_ - 76 x_49_ * x_2_ + 44 x_24_ * x_4_ + 42 x_28_ * x_4_ + 32 x_33_ * x_4_ + 8 x_39_ * x_7_ - 64 x_49_ * x_7_ + 32 x_23_ ^ 2 - 40 x_49_ * x_23_ - 14 x_24_ ^ 2 - 100 x_44_ * x_24_ + 100 x_49_ * x_44_ ] >= -6466
quadratic_ranged_6_lb: [ 12 x_1_ * x_49_ + 100 x_11_ * x_3_ - 8 x_18_ * x_3_ - 72 x_18_ * x_11_ + 20 x_23_ * x_11_ - 58 x_41_ * x_11_ + 48 x_27_ * x_12_ - 30 x_49_ * x_18_ + 24 x_30_ * x_27_ ] >= -2115
quadratic_ranged_7_lb: [ 14 x_14_ * x_1_ + 66 x_42_ * x_4_ - 88 x_43_ * x_4_ + 60 x_23_ * x_6_ + 52 x_22_ * x_9_ - 26 x_42_ * x_14_ + 32 x_15_ ^ 2 + 16 x_23_ * x_22_ + 70 x_33_ * x_22_ - 92 x_34_ * x_22_ - 24 x_47_ * x_22_ + 44 x_34_ * x_23_ - 12 x_33_ ^ 2 + 80 x_43_ * x_34_ - 48 x_47_ * x_34_ + 26 x_42_ ^ 2 ] >= 2173
quadratic_ranged_8_lb: [ 74 x_36_ * x_5_ + 94 x_42_ * x_5_ + 94 x_36_ * x_6_ - 10 x_10_ ^ 2 - 4 x_30_ * x_10_ + 88 x_42_ * x_10_ + 38 x_46_ * x_15_ - 46 x_21_ ^ 2 + 90 x_25_ * x_21_ - 62 x_40_ * x_21_ + 8 x_42_ * x_21_ - 48 x_22_ ^ 2 + 14 x_25_ * x_22_ - 30 x_40_ * x_25_ - 76 x_46_ * x_36_ + 100 x_42_ * x_40_ ] >= 7316
quadratic_ranged_9_lb: [ 96 x_6_ * x_25_ - 8 x_25_ * x_20_ - 44 x_50_ * x_20_ ] >= 3494
quadratic_ranged_10_lb: [ -20 x_33_ * x_6_ - 30 x_34_ * x_6_ + 58 x_13_ * x_10_ - 44 x_17_ * x_10_ + 64 x_17_ * x_13_ + 66 x_34_ * x_13_ + 36 x_17_ ^ 2 - 26 x_47_ * x_33_ + 20 x_47_ * x_34_ + 48 x_35_ ^ 2 ] >= -1904
quadratic_ranged_11_lb: [ 1 x_11_ ^ 2 - 22 x_34_ * x_11_ - 48 x_39_ * x_16_ + 2 x_46_ * x_16_ - 10 x_29_ * x_22_ + 26 x_29_ ^ 2 + 42 x_34_ * x_32_ - 68 x_39_ * x_32_ + 18 x_46_ * x_34_ + 24 x_46_ ^ 2 - 19 x_47_ ^ 2 ] >= -4416
quadratic_ranged_12_lb: [ 16 x_7_ * x_12_ - 70 x_24_ * x_7_ - 48 x_31_ * x_7_ - 64 x_33_ * x_12_ + 14 x_42_ * x_12_ - 70 x_42_ * x_24_ + 100 x_45_ * x_24_ - 4 x_45_ * x_31_ - 30 x_42_ * x_33_ ] >= 5093
quadratic_ranged_13_lb: [ -18 x_30_ * x_12_ + 40 x_43_ * x_12_ + 35 x_13_ ^ 2 + 96 x_28_ * x_26_ - 54 x_30_ * x_28_ - 8 x_34_ * x_28_ - 60 x_34_ * x_29_ + 52 x_34_ * x_30_ + 9 x_43_ ^ 2 ] >= -903
quadratic_ranged_14_lb: [ 4 x_19_ ^ 2 + 62 x_39_ * x_28_ - 84 x_40_ * x_28_ + 20 x_46_ * x_39_ + 23 x_40_ ^ 2 ] >= -8005
quadratic_ranged_15_lb: [ -8 x_8_ * x_1_ + 8 x_26_ * x_1_ - 82 x_34_ * x_1_ + 48 x_26_ * x_4_ - 44 x_8_ ^ 2 - 68 x_13_ * x_8_ - 47 x_13_ ^ 2 ] >= 3700
quadratic_ranged_16_lb: [ 4 x_15_ * x_5_ + 38 x_24_ * x_5_ - 68 x_37_ * x_5_ - 98 x_49_ * x_5_ - 96 x_37_ * x_7_ + 34 x_39_ * x_7_ + 34 x_15_ * x_14_ + 15 x_15_ ^ 2 - 54 x_37_ * x_15_ + 30 x_38_ * x_15_ + 22 x_24_ ^ 2 + 40 x_38_ * x_29_ - 30 x_37_ * x_35_ - 3 x_37_ ^ 2 ] >= 8719
quadratic_ranged_17_lb: [ -13 x_2_ ^ 2 - 92 x_6_ * x_2_ - 48 x_49_ * x_2_ - 88 x_18_ * x_16_ - 38 x_23_ * x_18_ + 54 x_28_ * x_18_ + 14 x_36_ * x_18_ - 13 x_20_ ^ 2 - 72 x_23_ * x_20_ + 90 x_36_ * x_28_ ] >= 6448
quadratic_ranged_18_lb: [ -20 x_35_ * x_3_ + 80 x_41_ * x_3_ + 34 x_50_ * x_3_ + 6 x_13_ * x_4_ - 6 x_16_ * x_4_ + 52 x_35_ * x_4_ - 72 x_50_ * x_4_ - 33 x_13_ ^ 2 - 72 x_35_ * x_13_ + 66 x_35_ * x_19_ - 58 x_41_ * x_19_ - 33 x_31_ ^ 2 + 32 x_50_ * x_31_ - 40 x_41_ ^ 2 - 42 x_49_ * x_41_ ] >= -8995
quadratic_ranged_19_lb: [ 78 x_7_ * x_42_ - 90 x_35_ * x_17_ + 50 x_25_ * x_20_ - 96 x_28_ * x_20_ - 60 x_31_ * x_20_ - 100 x_32_ * x_20_ + 12 x_35_ * x_25_ + 10 x_35_ * x_28_ + 88 x_42_ * x_31_ ] >= 6042
quadratic_ranged_20_lb: [ -96 x_25_ * x_2_ - 56 x_46_ * x_2_ + 12 x_30_ * x_25_ - 6 x_30_ ^ 2 - 42 x_33_ * x_30_ + 18 x_33_ ^ 2 ] >= -4712
quadratic_ranged_21_lb: [ -22 x_8_ * x_5_ - 42 x_29_ * x_5_ + 88 x_30_ * x_5_ - 10 x_7_ ^ 2 - 16 x_29_ * x_7_ + 24 x_8_ ^ 2 - 8 x_29_ * x_8_ + 20 x_30_ * x_8_ - 46 x_38_ * x_8_ + 46 x_29_ * x_18_ - 80 x_38_ * x_18_ + 72 x_30_ * x_20_ ] >= 5343
quadratic_ranged_22_lb: [ 40 x_4_ ^ 2 - 30 x_19_ * x_4_ + 82 x_21_ * x_4_ - 2 x_47_ * x_4_ + 7 x_7_ ^ 2 + 28 x_27_ * x_7_ + 70 x_27_ * x_12_ + 6 x_37_ * x_12_ + 48 x_38_ * x_12_ - 16 x_47_ * x_12_ - 12 x_38_ * x_19_ + 86 x_37_ * x_21_ - 5 x_36_ ^ 2 + 12 x_37_ ^ 2 + 60 x_50_ * x_39_ ] >= 15525
quadratic_ranged_23_lb: [ 78 x_32_ * x_3_ + 90 x_37_ * x_3_ + 18 x_44_ * x_3_ - 12 x_31_ * x_8_ + 44 x_48_ * x_8_ + 6 x_31_ * x_11_ + 12 x_17_ ^ 2 - 2 x_44_ * x_21_ + 41 x_31_ ^ 2 + 32 x_32_ ^ 2 + 82 x_37_ * x_32_ - 36 x_37_ ^ 2 ] >= 6530
quadratic_ranged_24_lb: [ -94 x_47_ * x_2_ - 96 x_17_ * x_6_ + 74 x_38_ * x_6_ - 58 x_39_ * x_6_ - 9 x_12_ ^ 2 + 84 x_25_ * x_12_ + 60 x_36_ * x_12_ - 40 x_25_ * x_17_ + 40 x_33_ * x_25_ + 4 x_36_ * x_25_ + 26 x_37_ * x_25_ + 30 x_39_ * x_25_ - 32 x_33_ ^ 2 + 48 x_37_ * x_36_ - 14 x_39_ ^ 2 ] >= 8342
quadratic_ranged_25_lb: [ -12 x_14_ * x_3_ - 50 x_22_ * x_6_ + 8 x_32_ * x_6_ - 40 x_30_ * x_22_ - 18 x_30_ ^ 2 ] >= -295
quadratic_ranged_26_lb: [ -84 x_11_ * x_10_ + 76 x_12_ * x_10_ + 84 x_22_ * x_10_ - 96 x_32_ * x_10_ + 20 x_16_ * x_11_ - 22 x_32_ * x_11_ + 92 x_36_ * x_11_ + 82 x_39_ * x_11_ - 92 x_16_ * x_12_ + 64 x_32_ * x_12_ + 88 x_36_ * x_12_ - 94 x_39_ * x_12_ - 20 x_39_ * x_16_ - 10 x_21_ * x_18_ + 62 x_32_ * x_18_ + 60 x_40_ * x_20_ + 1 x_22_ ^ 2 + 30 x_32_ * x_22_ + 17 x_32_ ^ 2 - 96 x_40_ * x_32_ - 78 x_40_ * x_36_ ] >= -14921
quadratic_ranged_27_lb: [ -96 x_5_ * x_1_ - 90 x_48_ * x_1_ + 100 x_17_ * x_5_ - 34 x_12_ * x_7_ - 66 x_19_ * x_7_ + 62 x_33_ * x_7_ + 6 x_48_ * x_7_ - 42 x_9_ ^ 2 - 4 x_21_ * x_12_ + 98 x_48_ * x_17_ + 60 x_33_ * x_19_ - 41 x_21_ ^ 2 - 8 x_33_ ^ 2 + 58 x_36_ * x_33_ ] >= -8890
quadratic_ranged_28_lb: [ -70 x_40_ * x_15_ + 72 x_29_ * x_22_ + 36 x_36_ * x_24_ + 92 x_29_ * x_25_ + 40 x_36_ * x_25_ - 78 x_47_ * x_25_ - 100 x_36_ * x_28_ + 24 x_41_ * x_28_ - 88 x_41_ * x_40_ + 4 x_47_ ^ 2 ] >= -13877
quadratic_ranged_29_lb: [ 17 x_10_ ^ 2 + 8 x_30_ * x_10_ - 21 x_23_ ^ 2 - 20 x_41_ * x_30_ - 13 x_41_ ^ 2 + 28 x_49_ ^ 2 ] >= -1393
quadratic_ranged_30_lb: [ -16 x_12_ * x_1_ + 88 x_33_ * x_1_ - 86 x_39_ * x_1_ - 16 x_16_ * x_4_ - 20 x_44_ * x_4_ - 32 x_5_ ^ 2 + 84 x_12_ * x_5_ - 10 x_33_ * x_5_ - 60 x_36_ * x_5_ + 56 x_39_ * x_5_ + 44 x_36_ * x_12_ - 86 x_39_ * x_12_ + 27 x_15_ ^ 2 - 68 x_33_ * x_16_ + 74 x_35_ * x_16_ + 60 x_39_ * x_16_ - 6 x_44_ * x_22_ + 62 x_36_ * x_27_ + 48 x_39_ * x_27_ + 70 x_39_ * x_33_ - 60 x_44_ * x_33_ ] >= -13585
quadratic_ranged_31_lb: [ -7 x_5_ ^ 2 - 2 x_35_ * x_10_ - 2 x_21_ ^ 2 ] >= -471
quadratic_ranged_32_lb: [ 100 x_43_ * x_2_ - 74 x_20_ * x_3_ + 90 x_26_ * x_3_ + 18 x_34_ * x_3_ + 44 x_40_ * x_3_ + 18 x_9_ ^ 2 + 14 x_34_ * x_9_ - 64 x_34_ * x_13_ - 14 x_20_ ^ 2 - 38 x_32_ ^ 2 - 82 x_40_ * x_34_ - 36 x_43_ * x_40_ ] >= 8908
quadratic_ranged_33_lb: [ -20 x_18_ * x_1_ + 98 x_45_ * x_1_ + 30 x_17_ * x_7_ - 5 x_16_ ^ 2 - 10 x_17_ ^ 2 + 84 x_45_ * x_17_ - 48 x_40_ * x_18_ - 21 x_34_ ^ 2 - 26 x_40_ ^ 2 ] >= -7372
quadratic_ranged_34_lb: [ 32 x_11_ * x_4_ + 72 x_14_ * x_4_ - 10 x_33_ * x_4_ + 5 x_8_ ^ 2 + 12 x_11_ * x_8_ + 20 x_14_ * x_8_ - 12 x_33_ * x_8_ - 72 x_12_ * x_11_ - 2 x_14_ ^ 2 + 31 x_42_ ^ 2 ] >= 3902
quadratic_ranged_35_lb: [ -35 x_6_ ^ 2 - 96 x_7_ * x_6_ - 84 x_9_ * x_7_ - 90 x_43_ * x_7_ - 14 x_9_ ^ 2 ] >= -847
quadratic_ranged_36_lb: [ -46 x_38_ * x_7_ + 38 x_40_ * x_7_ - 22 x_47_ * x_7_ - 42 x_17_ * x_11_ + 76 x_17_ * x_16_ - 70 x_35_ * x_16_ + 10 x_38_ * x_16_ - 16 x_17_ ^ 2 + 38 x_18_ * x_17_ - 100 x_35_ * x_17_ + 52 x_38_ * x_17_ + 18 x_33_ ^ 2 - 48 x_35_ * x_33_ - 32 x_38_ * x_35_ - 42 x_40_ * x_35_ ] >= 204
quadratic_ranged_37_lb: [ 46 x_5_ ^ 2 + 50 x_19_ * x_5_ - 18 x_22_ * x_19_ + 12 x_35_ * x_19_ - 50 x_22_ ^ 2 + 2 x_27_ * x_22_ + 76 x_50_ * x_22_ - 49 x_27_ ^ 2 - 76 x_35_ * x_27_ - 28 x_29_ ^ 2 - 10 x_35_ ^ 2 - 84 x_44_ * x_35_ - 52 x_49_ * x_44_ ] >= 2084
quadratic_ranged_38_lb: [ -50 x_24_ * x_3_ - 22 x_7_ * x_4_ + 58 x_13_ * x_4_ - 20 x_24_ * x_4_ - 66 x_43_ * x_4_ + 48 x_7_ ^ 2 + 76 x_24_ * x_7_ + 6 x_30_ * x_7_ + 56 x_44_ * x_7_ + 36 x_27_ * x_11_ - 56 x_33_ * x_27_ + 66 x_43_ * x_30_ ] >= -10260
quadratic_ranged_39_lb: [ -36 x_7_ * x_4_ - 10 x_21_ * x_4_ - 88 x_27_ * x_4_ + 32 x_10_ * x_5_ - 32 x_21_ * x_5_ - 54 x_24_ * x_5_ + 18 x_27_ * x_5_ - 64 x_34_ * x_5_ - 70 x_10_ * x_7_ - 82 x_11_ * x_7_ - 22 x_24_ * x_7_ - 6 x_11_ * x_9_ + 14 x_21_ * x_9_ - 12 x_34_ * x_9_ + 10 x_36_ * x_9_ - 90 x_44_ * x_9_ + 34 x_46_ * x_9_ + 94 x_34_ * x_10_ - 88 x_46_ * x_10_ + 56 x_21_ * x_11_ + 16 x_24_ * x_11_ - 90 x_34_ * x_20_ + 94 x_44_ * x_20_ - 46 x_21_ ^ 2 + 58 x_36_ * x_21_ + 44 x_46_ * x_27_ + 72 x_36_ * x_34_ ] >= 4761
quadratic_ranged_40_lb: [ -52 x_10_ * x_1_ + 14 x_16_ * x_1_ + 78 x_29_ * x_10_ - 12 x_35_ * x_27_ + 45 x_29_ ^ 2 + 96 x_32_ * x_29_ - 74 x_37_ * x_29_ + 32 x_35_ * x_32_ ] >= 1652
quadratic_ranged_41_lb: [ 88 x_10_ * x_6_ + 4 x_13_ * x_6_ - 10 x_23_ * x_6_ - 62 x_35_ * x_6_ + 58 x_47_ * x_6_ + 21 x_10_ ^ 2 - 100 x_13_ * x_10_ - 50 x_23_ * x_10_ + 74 x_35_ * x_10_ + 64 x_47_ * x_10_ + 50 x_35_ * x_23_ - 32 x_28_ ^ 2 - 80 x_35_ * x_28_ - 24 x_35_ ^ 2 ] >= -3821
quadratic_ranged_42_lb: [ 78 x_40_ * x_19_ - 54 x_40_ * x_23_ + 86 x_31_ * x_24_ + 1 x_27_ ^ 2 - 48 x_40_ * x_27_ + 34 x_45_ * x_27_ - 14 x_31_ ^ 2 + 20 x_40_ * x_34_ - 38 x_45_ * x_34_ ] >= -4010
quadratic_ranged_43_lb: [ 14 x_13_ * x_2_ - 20 x_25_ * x_3_ - 46 x_13_ * x_11_ - 37 x_49_ ^ 2 ] >= -3422
quadratic_ranged_44_lb: [ 72 x_6_ * x_5_ - 12 x_7_ * x_5_ + 48 x_11_ * x_6_ + 96 x_24_ * x_6_ + 30 x_7_ ^ 2 - 20 x_24_ * x_7_ + 82 x_32_ * x_7_ + 4 x_10_ ^ 2 + 40 x_11_ * x_10_ + 4 x_27_ * x_10_ + 36 x_36_ * x_11_ - 26 x_43_ * x_11_ + 22 x_32_ * x_24_ + 26 x_43_ * x_24_ - 36 x_32_ * x_27_ + 42 x_43_ * x_27_ + 70 x_44_ * x_32_ + 38 x_47_ ^ 2 ] >= 3662
quadratic_ranged_45_lb: [ -88 x_22_ * x_4_ - 64 x_35_ * x_4_ + 50 x_12_ * x_6_ - 43 x_12_ ^ 2 + 4 x_45_ * x_12_ - 44 x_48_ * x_22_ + 40 x_33_ ^ 2 + 44 x_45_ ^ 2 ] >= 169
quadratic_ranged_46_lb: [ 84 x_33_ * x_18_ - 44 x_37_ * x_18_ - 28 x_45_ * x_18_ - 39 x_19_ ^ 2 - 11 x_35_ ^ 2 + 48 x_37_ ^ 2 ] >= 5092
quadratic_ranged_47_lb: [ -13 x_7_ ^ 2 + 60 x_24_ * x_7_ + 14 x_49_ * x_7_ - 40 x_49_ * x_23_ - 12 x_40_ * x_24_ + 48 x_43_ * x_24_ - 38 x_49_ ^ 2 ] >= -3819
quadratic_ranged_48_lb: [ -8 x_3_ ^ 2 - 22 x_6_ ^ 2 + 84 x_38_ * x_6_ + 16 x_45_ * x_12_ + 14 x_38_ ^ 2 + 70 x_45_ * x_38_ + 30 x_45_ * x_40_ - 98 x_46_ * x_45_ - 64 x_48_ * x_45_ - 1 x_48_ ^ 2 ] >= 10901
quadratic_ranged_49_lb: [ -18 x_25_ * x_2_ - 4 x_31_ * x_2_ - 50 x_37_ * x_2_ - 54 x_50_ * x_2_ - 30 x_34_ * x_6_ - 26 x_34_ * x_18_ - 90 x_35_ * x_18_ + 34 x_37_ * x_18_ - 34 x_50_ * x_18_ - 64 x_31_ * x_19_ + 22 x_35_ * x_19_ + 60 x_48_ * x_19_ + 6 x_25_ * x_24_ - 40 x_34_ * x_24_ - 6 x_45_ * x_24_ + 38 x_35_ * x_25_ - 40 x_36_ * x_25_ - 42 x_48_ * x_25_ + 72 x_37_ * x_31_ - 50 x_48_ * x_35_ - 94 x_50_ * x_35_ + 25 x_36_ ^ 2 - 98 x_42_ * x_36_ - 36 x_50_ * x_36_ + 82 x_38_ * x_37_ + 50 x_42_ ^ 2 + 32 x_50_ * x_42_ - 20 x_50_ * x_45_ ] >= -5712
quadratic_ranged_50_lb: [ -52 x_6_ * x_19_ + 32 x_28_ * x_6_ - 32 x_33_ * x_28_ ] >= 621
quadratic_ranged_51_lb: [ -4 x_46_ * x_3_ + 7 x_4_ ^ 2 + 66 x_44_ * x_4_ + 56 x_38_ * x_22_ - 54 x_46_ * x_22_ - 38 x_46_ * x_38_ - 38 x_47_ * x_39_ - 37 x_40_ ^ 2 + 64 x_47_ * x_46_ ] >= 6933
quadratic_ranged_52_lb: [ 100 x_1_ * x_4_ + 54 x_9_ * x_1_ - 6 x_23_ * x_4_ - 82 x_32_ * x_4_ - 44 x_32_ * x_5_ + 62 x_23_ * x_10_ + 38 x_45_ * x_10_ - 44 x_45_ * x_23_ ] >= -4235
quadratic_ranged_53_lb: [ -2 x_2_ ^ 2 - 20 x_24_ * x_15_ - 34 x_29_ * x_15_ - 84 x_24_ * x_20_ + 78 x_29_ * x_24_ + 34 x_32_ ^ 2 ] >= -623
c1: [ -4 x_1_ ^ 2 + 6 x_2_ * x_1_ - 92 x_16_ * x_1_ + 36 x_38_ * x_1_ - 54 x_45_ * x_1_ - 96 x_4_ * x_2_ - 48 x_6_ * x_2_ + 26 x_20_ * x_2_ + 92 x_38_ * x_2_ - 66 x_6_ * x_4_ + 94 x_11_ * x_4_ - 76 x_16_ * x_4_ + 46 x_38_ * x_4_ - 66 x_8_ * x_6_ + 98 x_11_ * x_6_ - 8 x_29_ * x_6_ - 82 x_38_ * x_6_ - 20 x_40_ * x_6_ - 19 x_8_ ^ 2 + 20 x_29_ * x_11_ - 8 x_45_ * x_16_ - 18 x_40_ * x_20_ + 64 x_29_ * x_23_ + 31 x_29_ ^ 2 - 28 x_45_ * x_38_ ] = -10020
c2: [ 72 x_37_ * x_6_ - 12 x_7_ ^ 2 - 42 x_12_ * x_7_ + 58 x_15_ * x_7_ + 22 x_16_ * x_7_ - 100 x_29_ * x_7_ + 72 x_31_ * x_7_ + 34 x_42_ * x_7_ - 24 x_31_ * x_15_ - 96 x_29_ * x_16_ + 92 x_29_ * x_22_ + 92 x_37_ * x_24_ - 40 x_47_ * x_24_ + 72 x_47_ * x_31_ ] = 11008
c3: [ 60 x_46_ * x_9_ - 90 x_27_ * x_18_ + 48 x_30_ * x_29_ - 35 x_30_ ^ 2 ] = 2665
c4: [ -38 x_4_ ^ 2 + 42 x_20_ * x_4_ - 88 x_30_ * x_4_ - 28 x_37_ * x_4_ - 48 x_6_ ^ 2 + 16 x_14_ * x_6_ + 50 x_20_ * x_6_ - 60 x_50_ * x_6_ + 24 x_11_ ^ 2 - 52 x_25_ * x_11_ - 70 x_30_ * x_14_ + 58 x_44_ * x_14_ + 22 x_40_ * x_20_ + 90 x_37_ * x_25_ + 56 x_40_ * x_25_ + 80 x_44_ * x_30_ - 1 x_37_ ^ 2 + 42 x_40_ * x_37_ - 90 x_50_ * x_37_ - 34 x_50_ * x_40_ + 3 x_42_ ^ 2 ] = 1118
c5: [ -66 x_39_ * x_5_ - 82 x_46_ * x_5_ + 32 x_15_ * x_9_ - 72 x_27_ * x_9_ - 1 x_19_ ^ 2 - 36 x_29_ * x_19_ + 24 x_46_ * x_27_ - 43 x_38_ ^ 2 ] = 151
c6: [ -76 x_17_ * x_12_ - 88 x_30_ * x_12_ + 43 x_17_ ^ 2 - 38 x_30_ * x_17_ + 52 x_40_ * x_17_ - 6 x_45_ * x_33_ + 52 x_48_ * x_33_ - 46 x_48_ * x_35_ ] = 2881
c7: [ 54 x_8_ * x_1_ + 44 x_28_ * x_1_ + 24 x_29_ * x_1_ - 46 x_43_ * x_1_ + 22 x_46_ * x_1_ - 33 x_3_ ^ 2 - 72 x_8_ * x_3_ + 24 x_43_ * x_5_ + 74 x_45_ * x_5_ - 100 x_10_ * x_8_ + 16 x_28_ * x_8_ - 86 x_31_ * x_8_ + 64 x_27_ * x_10_ + 74 x_29_ * x_10_ + 38 x_30_ * x_10_ + 60 x_38_ * x_10_ - 5 x_27_ ^ 2 - 46 x_30_ * x_27_ + 66 x_45_ * x_27_ + 12 x_46_ * x_27_ - 12 x_46_ * x_29_ + 44 x_31_ * x_30_ + 94 x_46_ * x_38_ - 44 x_46_ * x_45_ ] = -743
c8: [ -32 x_17_ * x_11_ + 24 x_39_ * x_11_ - 48 x_43_ * x_11_ - 52 x_28_ * x_14_ - 2 x_30_ * x_14_ + 40 x_37_ * x_14_ - 64 x_23_ * x_17_ + 22 x_39_ * x_17_ + 98 x_43_ * x_23_ - 6 x_43_ * x_28_ - 25 x_39_ ^ 2 + 52 x_44_ * x_43_ + 14 x_44_ ^ 2 ] = 10996
c9: [ 94 x_36_ * x_4_ + 48 x_21_ * x_20_ + 3 x_21_ ^ 2 + 34 x_42_ * x_21_ ] = -3833
c10: [ 20 x_1_ ^ 2 + 80 x_19_ * x_1_ + 56 x_38_ * x_1_ - 52 x_39_ * x_1_ - 96 x_16_ * x_2_ - 74 x_17_ * x_2_ - 78 x_30_ * x_2_ - 58 x_31_ * x_2_ - 28 x_38_ * x_2_ - 90 x_41_ * x_2_ + 43 x_8_ ^ 2 + 86 x_13_ * x_8_ - 12 x_15_ * x_8_ + 90 x_31_ * x_8_ - 6 x_38_ * x_13_ - 42 x_15_ ^ 2 - 76 x_19_ * x_15_ + 60 x_39_ * x_16_ + 10 x_19_ * x_17_ + 18 x_30_ * x_19_ - 86 x_31_ * x_28_ - 76 x_38_ * x_28_ + 23 x_30_ ^ 2 - 76 x_41_ * x_38_ ] = 16976
c11: [ -62 x_30_ * x_1_ - 50 x_34_ * x_16_ + 74 x_42_ * x_20_ + 24 x_34_ ^ 2 + 20 x_42_ * x_34_ ] = -4942
c12: [ 16 x_36_ * x_22_ + 14 x_23_ ^ 2 + 54 x_24_ * x_23_ + 48 x_36_ * x_23_ - 64 x_42_ * x_24_ + 34 x_49_ ^ 2 ] = 5490
c13: [ 17 x_2_ ^ 2 - 34 x_48_ * x_2_ - 64 x_32_ * x_3_ - 32 x_42_ * x_3_ + 72 x_47_ * x_3_ - 18 x_34_ * x_7_ + 98 x_42_ * x_32_ - 27 x_47_ ^ 2 ] = -2959
c14: [ -32 x_43_ * x_2_ - 29 x_3_ ^ 2 + 88 x_42_ * x_3_ + 90 x_43_ * x_3_ + 88 x_46_ * x_3_ + 20 x_25_ * x_10_ - 98 x_42_ * x_11_ + 11 x_25_ ^ 2 - 48 x_26_ ^ 2 - 6 x_39_ * x_31_ + 94 x_43_ * x_31_ + 62 x_42_ * x_39_ - 70 x_43_ * x_41_ + 72 x_45_ * x_41_ + 4 x_46_ * x_43_ ] = -14187
c15: [ -30 x_22_ * x_2_ + 62 x_37_ * x_2_ - 62 x_50_ * x_2_ - 82 x_22_ * x_6_ - 18 x_36_ * x_6_ + 10 x_37_ * x_6_ + 26 x_35_ ^ 2 - 78 x_50_ * x_37_ - 15 x_50_ ^ 2 ] = -6980
c16: [ -47 x_5_ ^ 2 + 38 x_27_ * x_5_ - 50 x_33_ * x_7_ + 52 x_43_ * x_7_ + 34 x_45_ * x_7_ + 52 x_20_ * x_12_ - 52 x_32_ * x_12_ - 30 x_20_ ^ 2 - 54 x_25_ * x_20_ - 74 x_33_ * x_20_ + 24 x_32_ * x_27_ + 6 x_33_ ^ 2 - 94 x_40_ * x_33_ + 38 x_45_ * x_40_ + 33 x_43_ ^ 2 ] = -3402
c17: [ 32 x_18_ ^ 2 + 20 x_41_ * x_18_ ] = 1800
c18: [ -4 x_39_ * x_2_ + 26 x_37_ * x_16_ + 2 x_40_ * x_16_ + 34 x_48_ * x_25_ + 20 x_37_ * x_27_ + 6 x_48_ * x_27_ + 6 x_37_ ^ 2 - 50 x_40_ * x_37_ ] = 2248
c19: [ -30 x_8_ * x_3_ - 46 x_31_ * x_3_ - 40 x_8_ * x_5_ - 82 x_32_ * x_5_ + 10 x_8_ ^ 2 + 20 x_18_ * x_9_ - 44 x_34_ * x_9_ + 6 x_32_ * x_29_ + 74 x_34_ * x_29_ + 78 x_34_ * x_31_ ] = -1670
c20: [ 15 x_2_ ^ 2 + 32 x_49_ * x_2_ + 58 x_30_ * x_4_ - 50 x_39_ * x_4_ + 64 x_45_ * x_4_ - 94 x_26_ * x_9_ + 62 x_48_ * x_9_ + 60 x_48_ * x_11_ - 98 x_30_ * x_15_ + 82 x_45_ * x_15_ + 94 x_43_ * x_24_ - 66 x_48_ * x_24_ + 40 x_45_ * x_26_ - 26 x_42_ * x_39_ - 74 x_45_ * x_43_ ] = 24612
c21: [ -8 x_47_ * x_1_ + 52 x_42_ * x_2_ + 46 x_11_ ^ 2 + 78 x_43_ * x_11_ + 12 x_30_ * x_28_ - 28 x_38_ * x_30_ + 96 x_48_ * x_32_ - 88 x_48_ * x_34_ - 44 x_48_ * x_42_ + 42 x_43_ ^ 2 - 76 x_48_ * x_43_ ] = 4274
c22: [ -39 x_17_ ^ 2 + 62 x_21_ * x_17_ + 20 x_25_ * x_17_ - 72 x_49_ * x_17_ + 44 x_42_ * x_21_ + 86 x_30_ * x_25_ + 96 x_42_ * x_25_ - 27 x_30_ ^ 2 - 36 x_33_ * x_30_ - 45 x_49_ ^ 2 ] = -15321
c23: [ -100 x_25_ * x_23_ + 88 x_40_ * x_23_ - 36 x_40_ * x_25_ + 84 x_42_ * x_25_ + 35 x_39_ ^ 2 - 6 x_43_ * x_39_ - 18 x_43_ * x_40_ + 9 x_42_ ^ 2 + 9 x_46_ ^ 2 ] = -10995
c24: [ -84 x_28_ * x_12_ + 64 x_49_ * x_19_ - 29 x_46_ ^ 2 ] = 4204
c25: [ 18 x_19_ * x_1_ - 74 x_20_ * x_1_ + 22 x_38_ * x_1_ + 62 x_19_ * x_11_ - 64 x_20_ * x_11_ - 28 x_29_ * x_11_ - 82 x_20_ * x_13_ + 28 x_36_ * x_13_ + 72 x_29_ * x_19_ - 98 x_47_ * x_38_ + 38 x_47_ ^ 2 ] = 3986
c26: [ 52 x_12_ * x_2_ + 54 x_34_ * x_2_ - 78 x_50_ * x_2_ - 72 x_16_ * x_12_ - 90 x_34_ * x_16_ - 48 x_50_ * x_16_ + 44 x_38_ ^ 2 ] = -10392
c27: [ 50 x_1_ ^ 2 - 96 x_40_ * x_1_ - 4 x_23_ * x_4_ - 42 x_48_ * x_4_ - 8 x_7_ ^ 2 + 70 x_23_ * x_7_ + 6 x_48_ * x_7_ - 31 x_11_ ^ 2 - 68 x_23_ * x_11_ + 48 x_42_ * x_11_ - 92 x_42_ * x_20_ + 42 x_48_ ^ 2 ] = 4411
c28: [ 66 x_5_ * x_16_ - 76 x_35_ * x_6_ ] = -4752
c29: [ 2 x_6_ ^ 2 + 70 x_21_ * x_6_ + 10 x_43_ * x_6_ + 16 x_43_ * x_21_ + 56 x_46_ * x_21_ - 86 x_48_ * x_21_ + 35 x_35_ ^ 2 + 46 x_42_ * x_35_ + 36 x_46_ * x_42_ + 25 x_43_ ^ 2 + 88 x_46_ * x_43_ + 58 x_48_ * x_47_ ] = 4820
c30: [ -90 x_13_ * x_2_ - 26 x_21_ * x_2_ + 18 x_31_ * x_2_ - 56 x_40_ * x_6_ - 38 x_10_ ^ 2 + 10 x_13_ * x_10_ + 18 x_18_ * x_13_ + 26 x_39_ * x_18_ - 10 x_37_ * x_26_ + 88 x_39_ * x_26_ + 50 x_39_ * x_31_ - 16 x_39_ * x_37_ + 98 x_40_ * x_39_ ] = -4534
c31: [ 96 x_35_ * x_4_ + 52 x_27_ * x_9_ + 28 x_27_ ^ 2 + 12 x_38_ * x_27_ - 40 x_38_ ^ 2 + 36 x_45_ ^ 2 ] = 900
c32: [ -2 x_8_ ^ 2 - 26 x_23_ * x_8_ - 86 x_49_ * x_8_ - 18 x_41_ * x_12_ + 60 x_49_ * x_12_ - 86 x_23_ * x_21_ + 46 x_41_ * x_23_ + 88 x_49_ * x_41_ ] = -4976
c33: [ 47 x_14_ ^ 2 + 48 x_33_ * x_14_ - 68 x_45_ * x_14_ - 42 x_15_ ^ 2 + 43 x_33_ ^ 2 - 46 x_34_ * x_33_ - 60 x_38_ * x_33_ + 46 x_40_ * x_33_ - 62 x_46_ * x_34_ + 46 x_40_ ^ 2 ] = -6407
c34: [ -22 x_40_ * x_14_ - 52 x_43_ * x_14_ + 44 x_45_ * x_14_ + 26 x_43_ * x_16_ - 32 x_47_ * x_16_ - 88 x_28_ * x_20_ - 92 x_32_ * x_20_ - 16 x_41_ * x_20_ - 22 x_45_ * x_20_ + 22 x_47_ * x_20_ + 22 x_33_ * x_28_ - 45 x_32_ ^ 2 + 56 x_33_ * x_32_ + 30 x_41_ * x_32_ - 62 x_40_ * x_33_ - 28 x_47_ * x_33_ - 46 x_47_ * x_40_ - 24 x_47_ * x_43_ ] = 1684
c35: [ 64 x_12_ * x_20_ - 16 x_32_ * x_20_ - 30 x_49_ * x_20_ - 62 x_42_ * x_32_ + 32 x_48_ * x_32_ - 54 x_48_ * x_42_ ] = -100
c36: [ 4 x_42_ * x_5_ + 34 x_16_ * x_9_ - 10 x_32_ * x_9_ + 68 x_49_ * x_9_ - 38 x_33_ * x_16_ + 56 x_42_ * x_32_ + 66 x_49_ * x_32_ + 50 x_38_ * x_33_ - 20 x_49_ * x_33_ - 54 x_49_ * x_36_ + 4 x_48_ * x_38_ - 4 x_48_ * x_42_ + 43 x_49_ ^ 2 ] = -663
c37: [ 66 x_18_ * x_10_ + 44 x_23_ * x_10_ - 40 x_22_ * x_18_ + 50 x_23_ * x_18_ - 26 x_37_ * x_18_ - 12 x_31_ * x_22_ - 90 x_37_ * x_22_ - 66 x_35_ * x_31_ + 6 x_42_ * x_31_ + 26 x_49_ * x_31_ - 52 x_37_ * x_35_ - 12 x_49_ * x_35_ - 14 x_42_ * x_37_ + 26 x_42_ ^ 2 ] = -4182
c38: [ 41 x_1_ ^ 2 + 16 x_24_ * x_1_ + 92 x_50_ * x_1_ - 24 x_5_ ^ 2 - 6 x_37_ * x_5_ - 92 x_24_ * x_21_ - 78 x_50_ * x_21_ - 8 x_37_ * x_24_ - 82 x_43_ * x_24_ + 78 x_50_ * x_36_ - 4 x_43_ * x_37_ - 25 x_50_ ^ 2 ] = -13820
c39: [ 46 x_30_ * x_1_ + 88 x_47_ * x_1_ - 30 x_43_ * x_20_ - 76 x_49_ * x_20_ + 18 x_43_ * x_30_ + 2 x_47_ * x_30_ - 80 x_47_ * x_43_ + 30 x_49_ ^ 2 ] = 4952
c40: [ 29 x_6_ ^ 2 + 74 x_9_ * x_6_ + 100 x_26_ * x_6_ - 82 x_21_ * x_9_ + 10 x_43_ * x_9_ + 94 x_32_ * x_10_ - 2 x_42_ * x_14_ + 36 x_20_ ^ 2 - 2 x_21_ * x_20_ - 90 x_28_ * x_20_ - 30 x_40_ * x_21_ + 60 x_49_ * x_21_ - 90 x_28_ * x_25_ - 60 x_42_ * x_25_ + 68 x_49_ * x_25_ - 22 x_49_ * x_26_ + 54 x_40_ * x_28_ - 50 x_49_ * x_40_ - 58 x_49_ * x_41_ ] = 30824
c41: [ -86 x_1_ * x_4_ - 34 x_14_ * x_4_ - 46 x_37_ * x_4_ + 46 x_37_ * x_14_ - 52 x_37_ * x_16_ + 52 x_30_ * x_22_ + 70 x_37_ * x_22_ ] = -1214
c42: [ -7 x_3_ ^ 2 + 14 x_13_ * x_3_ - 100 x_50_ * x_3_ - 19 x_6_ ^ 2 + 44 x_13_ * x_6_ - 1 x_7_ ^ 2 + 84 x_36_ * x_7_ - 16 x_50_ * x_7_ - 78 x_13_ * x_9_ + 2 x_25_ * x_9_ + 14 x_21_ * x_13_ - 50 x_50_ * x_13_ + 23 x_21_ ^ 2 - 32 x_24_ * x_21_ - 96 x_49_ * x_21_ - 45 x_36_ ^ 2 - 6 x_50_ * x_36_ + 1 x_49_ ^ 2 ] = -4841
c43: [ -20 x_9_ * x_18_ - 42 x_38_ * x_35_ ] = -800
c44: [ 8 x_9_ * x_10_ - 54 x_32_ * x_9_ + 68 x_17_ * x_10_ - 76 x_24_ * x_12_ - 22 x_32_ * x_12_ - 38 x_24_ * x_21_ + 90 x_32_ * x_21_ + 18 x_27_ * x_24_ + 66 x_44_ * x_24_ + 62 x_50_ * x_32_ + 82 x_50_ * x_44_ ] = 4160
c45: [ -2 x_4_ * x_3_ - 10 x_20_ * x_4_ + 4 x_17_ * x_7_ + 6 x_17_ * x_14_ + 40 x_20_ * x_14_ + 92 x_30_ * x_14_ + 66 x_46_ * x_14_ - 38 x_20_ ^ 2 + 36 x_26_ ^ 2 + 42 x_30_ ^ 2 ] = 554
c46: [ -70 x_49_ * x_4_ - 88 x_15_ * x_12_ + 90 x_50_ * x_12_ - 62 x_49_ * x_15_ + 36 x_19_ ^ 2 + 78 x_20_ * x_19_ + 32 x_50_ * x_19_ - 74 x_45_ * x_20_ - 12 x_45_ * x_22_ + 29 x_29_ ^ 2 ] = -13305
c47: [ 80 x_11_ * x_1_ + 10 x_19_ * x_1_ + 72 x_22_ * x_1_ + 10 x_34_ * x_1_ - 64 x_42_ * x_1_ + 74 x_7_ * x_3_ + 6 x_22_ * x_3_ - 88 x_42_ * x_4_ - 42 x_32_ * x_7_ - 80 x_34_ * x_7_ + 36 x_42_ * x_7_ + 34 x_32_ * x_11_ - 70 x_26_ * x_19_ + 25 x_22_ ^ 2 + 96 x_26_ * x_22_ - 50 x_34_ * x_22_ + 52 x_40_ * x_32_ + 3 x_34_ ^ 2 - 90 x_42_ * x_34_ - 31 x_40_ ^ 2 ] = 9767
Bounds
-9 <= x_1_ <= 5
5 <= x_2_ <= 8
-10 <= x_3_ <= 1
6 <= x_4_ <= 7
-10 <= x_5_ <= 0
2 <= x_6_ <= 10
-6 <= x_7_ <= 4
-3 <= x_8_ <= 4
-10 <= x_9_ <= -3
-1 <= x_10_ <= 4
-9 <= x_11_ <= 0
-9 <= x_12_ <= 9
-4 <= x_13_ <= 8
3 <= x_14_ <= 4
0 <= x_15_ <= 10
7 <= x_16_ <= 10
-9 <= x_17_ <= -1
-10 <= x_18_ <= 7
-5 <= x_19_ <= 3
-8 <= x_20_ <= 5
-2 <= x_21_ <= 9
-6 <= x_22_ <= 9
3 <= x_23_ <= 8
1 <= x_24_ <= 9
-6 <= x_25_ <= 10
2 <= x_26_ <= 8
-10 <= x_27_ <= 9
-10 <= x_28_ <= 2
x_29_ = -7
-10 <= x_30_ <= 2
-8 <= x_31_ <= 7
6 <= x_32_ <= 10
-8 <= x_33_ <= 4
5 <= x_34_ <= 9
-2 <= x_35_ <= 10
-9 <= x_36_ <= -5
-5 <= x_37_ <= 10
6 <= x_38_ <= 7
-5 <= x_39_ <= 10
-8 <= x_40_ <= -3
x_41_ = -10
-9 <= x_42_ <= 8
7 <= x_43_ <= 10
-8 <= x_44_ <= 9
-2 <= x_45_ <= 9
-7 <= x_46_ <= 9
-6 <= x_47_ <= 2
-8 <= x_48_ <= 6
6 <= x_49_ <= 9
-7 <= x_50_ <= 7
General
x_1_
x_2_
x_3_
x_4_
x_5_
x_6_
x_7_
x_8_
x_9_
x_10_
x_11_
x_12_
x_13_
x_14_
x_15_
x_16_
x_17_
x_18_
x_19_
x_20_
x_21_
x_22_
x_23_
x_24_
x_25_
x_26_
x_27_
x_28_
x_29_
x_30_
x_31_
x_32_
x_33_
x_34_
x_35_
x_36_
x_37_
x_38_
x_39_
x_40_
x_41_
x_42_
x_43_
x_44_
x_45_
x_46_
x_47_
x_48_
x_49_
x_50_
End
