minimize
obj: -6 x_1_ - 37 x_17_ - 4 x_20_ + 27 x_39_ + 22 x_45_
subject to
affine_ranged_1_ub: -1 x_21_ - 10 x_38_ <= -89
affine_ranged_2_ub: 25 x_18_ + 7 x_26_ <= 107
affine_ranged_3_ub: 8 x_1_ - 49 x_13_ - 8 x_23_ - 20 x_42_ + 17 x_48_ <= -290
quadratic_ranged_1_ub: 13 x_9_ + 17 x_33_ + [ -5 x_6_ ^ 2 + 7 x_23_ ^ 2 + 32 x_30_ ^ 2 + 46 x_42_ ^ 2 ] <= 2828
quadratic_ranged_2_ub: -46 x_41_ + [ -45 x_7_ ^ 2 ] <= -4081
quadratic_ranged_3_ub: 4 x_13_ + [ -9 x_14_ ^ 2 ] <= -197
quadratic_ranged_4_ub: 34 x_10_ - 13 x_12_ + 34 x_18_ + [ -40 x_10_ ^ 2 - 7 x_15_ ^ 2 - 34 x_37_ ^ 2 + 8 x_45_ ^ 2 ] <= -6751
quadratic_ranged_5_ub: -17 x_32_ + [ -44 x_9_ ^ 2 + 9 x_38_ ^ 2 ] <= -2749
quadratic_ranged_6_ub: -13 x_11_ + [ 34 x_11_ ^ 2 + 4 x_26_ ^ 2 - 25 x_37_ ^ 2 + 13 x_48_ ^ 2 ] <= -1154
quadratic_ranged_7_ub: 11 x_6_ - 2 x_8_ + 8 x_25_ + [ -42 x_8_ ^ 2 + 23 x_39_ ^ 2 ] <= -108
quadratic_ranged_8_ub: -20 x_26_ - 23 x_32_ + [ 33 x_6_ ^ 2 - 29 x_13_ ^ 2 ] <= -692
quadratic_ranged_9_ub: -31 x_14_ + [ 39 x_14_ ^ 2 + 33 x_33_ ^ 2 + 6 x_47_ ^ 2 ] <= 1478
quadratic_ranged_10_ub: [ -11 x_17_ ^ 2 ] <= -889
quadratic_ranged_11_ub: -26 x_11_ + 44 x_19_ + [ 42 x_33_ ^ 2 + 41 x_40_ ^ 2 ] <= 2304
quadratic_ranged_12_ub: 27 x_3_ + 5 x_16_ + 48 x_30_ - 14 x_36_ + [ 10 x_3_ ^ 2 - 23 x_16_ ^ 2 + 22 x_17_ ^ 2 ] <= 1476
quadratic_ranged_13_ub: 49 x_6_ + 20 x_49_ + [ 29 x_3_ ^ 2 + 18 x_41_ ^ 2 ] <= 2655
quadratic_ranged_14_ub: 43 x_39_ - 18 x_49_ + [ -21 x_2_ ^ 2 - 2 x_46_ ^ 2 ] <= 31
quadratic_ranged_15_ub: 3 x_21_ + [ -45 x_10_ ^ 2 ] <= -3634
quadratic_ranged_16_ub: -18 x_32_ + [ 3 x_16_ ^ 2 + 19 x_17_ ^ 2 + 26 x_46_ ^ 2 ] <= 1809
quadratic_ranged_17_ub: 41 x_19_ - 9 x_24_ + [ -35 x_12_ ^ 2 - 40 x_43_ ^ 2 ] <= -466
quadratic_ranged_18_ub: 6 x_40_ - 46 x_45_ + [ -32 x_45_ ^ 2 ] <= -191
quadratic_ranged_19_ub: -1 x_10_ - 5 x_31_ + [ -43 x_20_ ^ 2 + 7 x_41_ ^ 2 ] <= -3731
quadratic_ranged_20_ub: [ -47 x_15_ ^ 2 - 10 x_25_ ^ 2 + 14 x_32_ ^ 2 + 44 x_50_ ^ 2 ] <= -367
quadratic_ranged_21_ub: [ 8 x_10_ ^ 2 + 35 x_33_ ^ 2 - 47 x_49_ ^ 2 ] <= -3017
quadratic_ranged_22_ub: [ -30 x_16_ ^ 2 - 30 x_45_ ^ 2 ] <= -1017
quadratic_ranged_23_ub: -17 x_41_ + 38 x_49_ + [ 5 x_10_ ^ 2 - 22 x_13_ ^ 2 + 42 x_20_ ^ 2 + 46 x_34_ ^ 2 ] <= 5280
quadratic_ranged_24_ub: -41 x_7_ + [ -17 x_38_ ^ 2 ] <= -1785
quadratic_ranged_25_ub: -15 x_11_ - 19 x_15_ - 8 x_33_ - 38 x_49_ + [ -29 x_11_ ^ 2 - 33 x_16_ ^ 2 + 46 x_46_ ^ 2 + 47 x_49_ ^ 2 ] <= 3322
quadratic_ranged_26_ub: 49 x_4_ - 25 x_12_ + 43 x_18_ + 36 x_20_ + [ -18 x_26_ ^ 2 - 11 x_30_ ^ 2 - 31 x_47_ ^ 2 ] <= -2812
quadratic_ranged_27_ub: -25 x_15_ + [ 7 x_39_ ^ 2 ] <= -63
quadratic_ranged_28_ub: 18 x_15_ + [ 30 x_27_ ^ 2 + 38 x_35_ ^ 2 ] <= 2401
quadratic_ranged_29_ub: 44 x_5_ + [ -25 x_2_ ^ 2 + 13 x_4_ ^ 2 ] <= 538
quadratic_ranged_30_ub: -11 x_16_ - 24 x_50_ + [ -24 x_40_ ^ 2 ] <= -1133
quadratic_ranged_31_ub: 13 x_10_ + 16 x_32_ + [ -43 x_32_ ^ 2 + 14 x_37_ ^ 2 ] <= 129
quadratic_ranged_32_ub: -33 x_39_ - 29 x_45_ + [ -15 x_28_ ^ 2 - 9 x_32_ ^ 2 - 42 x_41_ ^ 2 - 50 x_42_ ^ 2 ] <= -4240
quadratic_ranged_33_ub: 7 x_5_ - 44 x_7_ - 11 x_14_ + 35 x_19_ + [ -2 x_29_ ^ 2 - 2 x_39_ ^ 2 ] <= -268
quadratic_ranged_34_ub: -21 x_8_ - 39 x_25_ + 21 x_36_ + [ 36 x_8_ ^ 2 + 36 x_15_ ^ 2 ] <= 817
quadratic_ranged_35_ub: [ 2 x_6_ ^ 2 + 14 x_24_ ^ 2 - 24 x_48_ ^ 2 ] <= -132
quadratic_ranged_36_ub: -22 x_8_ - 27 x_13_ + 23 x_19_ + [ 24 x_3_ ^ 2 - 31 x_15_ ^ 2 ] <= 807
quadratic_ranged_37_ub: [ 33 x_25_ ^ 2 ] <= 3302
quadratic_ranged_38_ub: -16 x_43_ + [ 24 x_41_ ^ 2 ] <= 1914
quadratic_ranged_39_ub: -21 x_12_ + [ -36 x_12_ ^ 2 - 16 x_15_ ^ 2 ] <= -800
quadratic_ranged_40_ub: -36 x_37_ + [ 33 x_4_ ^ 2 - 42 x_18_ ^ 2 - 49 x_40_ ^ 2 ] <= -3270
quadratic_ranged_41_ub: 30 x_5_ - 2 x_46_ + [ 47 x_32_ ^ 2 ] <= 1382
quadratic_ranged_42_ub: -38 x_16_ + 34 x_46_ + [ 26 x_20_ ^ 2 - 42 x_26_ ^ 2 - 11 x_29_ ^ 2 - 50 x_49_ ^ 2 ] <= -6166
quadratic_ranged_43_ub: 11 x_48_ + [ 23 x_10_ ^ 2 + 23 x_25_ ^ 2 ] <= 4252
quadratic_ranged_44_ub: [ 3 x_18_ ^ 2 ] <= 149
quadratic_ranged_45_ub: 38 x_13_ - 33 x_20_ + 3 x_26_ + 35 x_30_ + 18 x_41_ + [ 23 x_13_ ^ 2 ] <= 259
quadratic_ranged_46_ub: 36 x_7_ + [ -28 x_4_ ^ 2 - 10 x_11_ ^ 2 - 50 x_29_ ^ 2 ] <= -2179
affine_ranged_1_lb: -1 x_21_ - 10 x_38_ >= -94
affine_ranged_2_lb: 25 x_18_ + 7 x_26_ >= 104
affine_ranged_3_lb: 8 x_1_ - 49 x_13_ - 8 x_23_ - 20 x_42_ + 17 x_48_ >= -296
quadratic_ranged_1_lb: 13 x_9_ + 17 x_33_ + [ -5 x_6_ ^ 2 + 7 x_23_ ^ 2 + 32 x_30_ ^ 2 + 46 x_42_ ^ 2 ] >= 2822
quadratic_ranged_2_lb: -46 x_41_ + [ -45 x_7_ ^ 2 ] >= -4088
quadratic_ranged_3_lb: 4 x_13_ + [ -9 x_14_ ^ 2 ] >= -206
quadratic_ranged_4_lb: 34 x_10_ - 13 x_12_ + 34 x_18_ + [ -40 x_10_ ^ 2 - 7 x_15_ ^ 2 - 34 x_37_ ^ 2 + 8 x_45_ ^ 2 ] >= -6756
quadratic_ranged_5_lb: -17 x_32_ + [ -44 x_9_ ^ 2 + 9 x_38_ ^ 2 ] >= -2753
quadratic_ranged_6_lb: -13 x_11_ + [ 34 x_11_ ^ 2 + 4 x_26_ ^ 2 - 25 x_37_ ^ 2 + 13 x_48_ ^ 2 ] >= -1163
quadratic_ranged_7_lb: 11 x_6_ - 2 x_8_ + 8 x_25_ + [ -42 x_8_ ^ 2 + 23 x_39_ ^ 2 ] >= -114
quadratic_ranged_8_lb: -20 x_26_ - 23 x_32_ + [ 33 x_6_ ^ 2 - 29 x_13_ ^ 2 ] >= -697
quadratic_ranged_9_lb: -31 x_14_ + [ 39 x_14_ ^ 2 + 33 x_33_ ^ 2 + 6 x_47_ ^ 2 ] >= 1477
quadratic_ranged_10_lb: [ -11 x_17_ ^ 2 ] >= -892
quadratic_ranged_11_lb: -26 x_11_ + 44 x_19_ + [ 42 x_33_ ^ 2 + 41 x_40_ ^ 2 ] >= 2298
quadratic_ranged_12_lb: 27 x_3_ + 5 x_16_ + 48 x_30_ - 14 x_36_ + [ 10 x_3_ ^ 2 - 23 x_16_ ^ 2 + 22 x_17_ ^ 2 ] >= 1466
quadratic_ranged_13_lb: 49 x_6_ + 20 x_49_ + [ 29 x_3_ ^ 2 + 18 x_41_ ^ 2 ] >= 2649
quadratic_ranged_14_lb: 43 x_39_ - 18 x_49_ + [ -21 x_2_ ^ 2 - 2 x_46_ ^ 2 ] >= 27
quadratic_ranged_15_lb: 3 x_21_ + [ -45 x_10_ ^ 2 ] >= -3639
quadratic_ranged_16_lb: -18 x_32_ + [ 3 x_16_ ^ 2 + 19 x_17_ ^ 2 + 26 x_46_ ^ 2 ] >= 1808
quadratic_ranged_17_lb: 41 x_19_ - 9 x_24_ + [ -35 x_12_ ^ 2 - 40 x_43_ ^ 2 ] >= -467
quadratic_ranged_18_lb: 6 x_40_ - 46 x_45_ + [ -32 x_45_ ^ 2 ] >= -197
quadratic_ranged_19_lb: -1 x_10_ - 5 x_31_ + [ -43 x_20_ ^ 2 + 7 x_41_ ^ 2 ] >= -3739
quadratic_ranged_20_lb: [ -47 x_15_ ^ 2 - 10 x_25_ ^ 2 + 14 x_32_ ^ 2 + 44 x_50_ ^ 2 ] >= -374
quadratic_ranged_21_lb: [ 8 x_10_ ^ 2 + 35 x_33_ ^ 2 - 47 x_49_ ^ 2 ] >= -3022
quadratic_ranged_22_lb: [ -30 x_16_ ^ 2 - 30 x_45_ ^ 2 ] >= -1024
quadratic_ranged_23_lb: -17 x_41_ + 38 x_49_ + [ 5 x_10_ ^ 2 - 22 x_13_ ^ 2 + 42 x_20_ ^ 2 + 46 x_34_ ^ 2 ] >= 5277
quadratic_ranged_24_lb: -41 x_7_ + [ -17 x_38_ ^ 2 ] >= -1791
quadratic_ranged_25_lb: -15 x_11_ - 19 x_15_ - 8 x_33_ - 38 x_49_ + [ -29 x_11_ ^ 2 - 33 x_16_ ^ 2 + 46 x_46_ ^ 2 + 47 x_49_ ^ 2 ] >= 3319
quadratic_ranged_26_lb: 49 x_4_ - 25 x_12_ + 43 x_18_ + 36 x_20_ + [ -18 x_26_ ^ 2 - 11 x_30_ ^ 2 - 31 x_47_ ^ 2 ] >= -2816
quadratic_ranged_27_lb: -25 x_15_ + [ 7 x_39_ ^ 2 ] >= -71
quadratic_ranged_28_lb: 18 x_15_ + [ 30 x_27_ ^ 2 + 38 x_35_ ^ 2 ] >= 2392
quadratic_ranged_29_lb: 44 x_5_ + [ -25 x_2_ ^ 2 + 13 x_4_ ^ 2 ] >= 528
quadratic_ranged_30_lb: -11 x_16_ - 24 x_50_ + [ -24 x_40_ ^ 2 ] >= -1136
quadratic_ranged_31_lb: 13 x_10_ + 16 x_32_ + [ -43 x_32_ ^ 2 + 14 x_37_ ^ 2 ] >= 123
quadratic_ranged_32_lb: -33 x_39_ - 29 x_45_ + [ -15 x_28_ ^ 2 - 9 x_32_ ^ 2 - 42 x_41_ ^ 2 - 50 x_42_ ^ 2 ] >= -4246
quadratic_ranged_33_lb: 7 x_5_ - 44 x_7_ - 11 x_14_ + 35 x_19_ + [ -2 x_29_ ^ 2 - 2 x_39_ ^ 2 ] >= -271
quadratic_ranged_34_lb: -21 x_8_ - 39 x_25_ + 21 x_36_ + [ 36 x_8_ ^ 2 + 36 x_15_ ^ 2 ] >= 810
quadratic_ranged_35_lb: [ 2 x_6_ ^ 2 + 14 x_24_ ^ 2 - 24 x_48_ ^ 2 ] >= -135
quadratic_ranged_36_lb: -22 x_8_ - 27 x_13_ + 23 x_19_ + [ 24 x_3_ ^ 2 - 31 x_15_ ^ 2 ] >= 802
quadratic_ranged_37_lb: [ 33 x_25_ ^ 2 ] >= 3295
quadratic_ranged_38_lb: -16 x_43_ + [ 24 x_41_ ^ 2 ] >= 1911
quadratic_ranged_39_lb: -21 x_12_ + [ -36 x_12_ ^ 2 - 16 x_15_ ^ 2 ] >= -808
quadratic_ranged_40_lb: -36 x_37_ + [ 33 x_4_ ^ 2 - 42 x_18_ ^ 2 - 49 x_40_ ^ 2 ] >= -3274
quadratic_ranged_41_lb: 30 x_5_ - 2 x_46_ + [ 47 x_32_ ^ 2 ] >= 1379
quadratic_ranged_42_lb: -38 x_16_ + 34 x_46_ + [ 26 x_20_ ^ 2 - 42 x_26_ ^ 2 - 11 x_29_ ^ 2 - 50 x_49_ ^ 2 ] >= -6168
quadratic_ranged_43_lb: 11 x_48_ + [ 23 x_10_ ^ 2 + 23 x_25_ ^ 2 ] >= 4247
quadratic_ranged_44_lb: [ 3 x_18_ ^ 2 ] >= 143
quadratic_ranged_45_lb: 38 x_13_ - 33 x_20_ + 3 x_26_ + 35 x_30_ + 18 x_41_ + [ 23 x_13_ ^ 2 ] >= 252
quadratic_ranged_46_lb: 36 x_7_ + [ -28 x_4_ ^ 2 - 10 x_11_ ^ 2 - 50 x_29_ ^ 2 ] >= -2181
c1_1: -14 x_2_ + 10 x_9_ + 44 x_36_ = 294
c2_1: 48 x_7_ = 480
c3_1: -47 x_24_ - 32 x_29_ = 662
c4_1: -9 x_2_ + 13 x_25_ - 2 x_30_ = -96
c5_1: 46 x_12_ - 22 x_17_ = -14
c6_1: -47 x_37_ = 470
c7_1: -9 x_8_ + 23 x_10_ - 23 x_32_ = -101
c1: 29 x_7_ + 31 x_26_ - 49 x_41_ + [ -16 x_49_ ^ 2 - 29 x_50_ ^ 2 ] = -1339
c2: 29 x_26_ - 41 x_42_ + [ 28 x_13_ ^ 2 - 38 x_23_ ^ 2 - 32 x_37_ ^ 2 ] = -6282
c3: 39 x_26_ + [ -42 x_11_ ^ 2 - 11 x_17_ ^ 2 + 7 x_47_ ^ 2 ] = -1197
c4: -13 x_34_ + [ 42 x_5_ ^ 2 - 7 x_13_ ^ 2 + 45 x_24_ ^ 2 + 39 x_38_ ^ 2 ] = 9543
c5: -47 x_4_ + [ -31 x_11_ ^ 2 - 32 x_31_ ^ 2 + 24 x_46_ ^ 2 ] = -391
c6: [ 20 x_13_ ^ 2 - 34 x_34_ ^ 2 + 1 x_37_ ^ 2 ] = -404
c7: 35 x_21_ - 3 x_26_ + [ 6 x_23_ ^ 2 - 24 x_48_ ^ 2 ] = -836
c8: [ 28 x_9_ ^ 2 ] = 2268
c9: -15 x_18_ - 7 x_23_ + 40 x_46_ + [ -36 x_2_ ^ 2 + 42 x_24_ ^ 2 + 17 x_37_ ^ 2 ] = 5661
c10: -41 x_15_ - 49 x_35_ + [ 28 x_17_ ^ 2 - 11 x_26_ ^ 2 + 39 x_35_ ^ 2 ] = 3299
c11: 37 x_13_ + [ -22 x_16_ ^ 2 + 43 x_42_ ^ 2 ] = -328
c12: [ -3 x_7_ ^ 2 - 6 x_24_ ^ 2 - 21 x_46_ ^ 2 ] = -984
c13: -50 x_1_ + 6 x_10_ - 45 x_22_ + 22 x_31_ + [ -26 x_8_ ^ 2 + 37 x_43_ ^ 2 ] = 552
c14: -49 x_11_ + [ 37 x_45_ ^ 2 ] = 235
c15: 20 x_26_ - 21 x_41_ + 10 x_45_ + [ 11 x_16_ ^ 2 ] = 234
c16: 50 x_3_ - 40 x_38_ + [ 31 x_13_ ^ 2 + 19 x_19_ ^ 2 + 20 x_22_ ^ 2 - 8 x_30_ ^ 2 + 27 x_38_ ^ 2 ] = 3165
c17: -3 x_5_ + 11 x_10_ + 47 x_37_ + [ -22 x_10_ ^ 2 ] = -2372
c18: 11 x_5_ - 47 x_33_ - 8 x_45_ - 10 x_50_ + [ -9 x_11_ ^ 2 + 38 x_33_ ^ 2 ] = 351
c19: 20 x_3_ + 45 x_33_ + 17 x_48_ + [ -49 x_24_ ^ 2 + 25 x_37_ ^ 2 - 25 x_42_ ^ 2 + 1 x_43_ ^ 2 ] = -2210
c20: 7 x_31_ + 46 x_45_ + [ 6 x_24_ ^ 2 - 50 x_28_ ^ 2 - 44 x_31_ ^ 2 - 48 x_45_ ^ 2 ] = -2582
c21: 48 x_44_ + [ 12 x_3_ ^ 2 - 20 x_10_ ^ 2 + 29 x_17_ ^ 2 ] = 1365
c22: 24 x_42_ + [ 4 x_4_ ^ 2 - 2 x_27_ ^ 2 - 41 x_42_ ^ 2 ] = 68
c23: -11 x_41_ - 46 x_42_ + [ -18 x_13_ ^ 2 - 38 x_19_ ^ 2 + 44 x_28_ ^ 2 + 20 x_41_ ^ 2 + 24 x_46_ ^ 2 - 31 x_47_ ^ 2 ] = 1599
c24: -44 x_2_ - 15 x_12_ + [ 21 x_46_ ^ 2 ] = 112
c25: 24 x_41_ + [ -33 x_9_ ^ 2 + 40 x_26_ ^ 2 + 25 x_31_ ^ 2 - 11 x_35_ ^ 2 + 33 x_43_ ^ 2 ] = 804
c26: 2 x_28_ + 6 x_47_ + [ 37 x_2_ ^ 2 + 33 x_24_ ^ 2 ] = 3470
c27: 5 x_27_ - 22 x_50_ + [ -8 x_35_ ^ 2 - 23 x_45_ ^ 2 + 8 x_49_ ^ 2 ] = 117
c28: -11 x_6_ + 46 x_32_ - 4 x_44_ + [ -22 x_10_ ^ 2 - 11 x_44_ ^ 2 ] = -2016
c29: -31 x_1_ + [ 27 x_49_ ^ 2 ] = 2404
c30: [ 36 x_7_ ^ 2 - 26 x_9_ ^ 2 - 16 x_28_ ^ 2 + 27 x_42_ ^ 2 ] = 710
c31: -1 x_17_ - 46 x_24_ + [ -11 x_16_ ^ 2 - 15 x_34_ ^ 2 + 22 x_47_ ^ 2 ] = 428
c32: -5 x_24_ - 39 x_43_ + [ 45 x_17_ ^ 2 - 14 x_19_ ^ 2 + 25 x_28_ ^ 2 + 39 x_39_ ^ 2 ] = 4657
c33: -14 x_9_ - 24 x_18_ + 50 x_22_ - 31 x_35_ + [ -23 x_18_ ^ 2 ] = -1304
c34: -10 x_14_ - 47 x_25_ + [ -47 x_18_ ^ 2 + 26 x_25_ ^ 2 ] = 817
c35: 19 x_15_ - 10 x_17_ + 7 x_21_ + 16 x_28_ + [ 16 x_1_ ^ 2 + 50 x_15_ ^ 2 + 2 x_17_ ^ 2 ] = 1265
c36: -7 x_31_ + [ -39 x_34_ ^ 2 ] = -1418
c37: 37 x_7_ - 18 x_8_ + 25 x_11_ - 23 x_34_ + [ 29 x_33_ ^ 2 - 15 x_34_ ^ 2 + 42 x_35_ ^ 2 + 1 x_37_ ^ 2 ] = 2274
c38: -17 x_26_ + [ 33 x_26_ ^ 2 + 9 x_30_ ^ 2 ] = 4046
c39: 16 x_6_ + [ 44 x_3_ ^ 2 ] = 2140
c40: -48 x_39_ + 14 x_50_ + [ 5 x_13_ ^ 2 - 23 x_16_ ^ 2 ] = -403
c41: 6 x_39_ + [ 6 x_19_ ^ 2 - 15 x_20_ ^ 2 + 14 x_50_ ^ 2 ] = -1186
c42: 13 x_12_ - 37 x_48_ + [ -22 x_2_ ^ 2 + 19 x_12_ ^ 2 ] = -28
c43: 32 x_3_ + 13 x_23_ + [ 18 x_25_ ^ 2 ] = 2154
c44: 1 x_21_ + 11 x_27_ - 50 x_29_ - 15 x_43_ + [ 35 x_27_ ^ 2 - 37 x_30_ ^ 2 - 8 x_42_ ^ 2 ] = -1580
Bounds
-7 <= x_1_ <= 4
-10 <= x_2_ <= 1
-7 <= x_3_ <= 8
-8 <= x_4_ <= 8
-6 <= x_5_ <= 7
-6 <= x_6_ <= -1
8 <= x_7_ <= 10
1 <= x_8_ <= 9
3 <= x_9_ <= 9
-10 <= x_10_ <= -4
0 <= x_11_ <= 9
-7 <= x_12_ <= 7
-2 <= x_13_ <= 7
-6 <= x_14_ <= -1
-8 <= x_15_ <= 3
-3 <= x_16_ <= 9
5 <= x_17_ <= 10
4 <= x_18_ <= 10
-8 <= x_19_ <= 10
9 <= x_20_ <= 10
-9 <= x_21_ <= 4
-6 <= x_22_ <= 6
-5 <= x_23_ <= 10
x_24_ = -10
-10 <= x_25_ <= 9
-10 <= x_26_ <= -7
-9 <= x_27_ <= 8
-10 <= x_28_ <= 10
-7 <= x_29_ <= 9
-8 <= x_30_ <= 0
-7 <= x_31_ <= 4
-10 <= x_32_ <= 2
-3 <= x_33_ <= 10
-9 <= x_34_ <= 6
-9 <= x_35_ <= -1
-7 <= x_36_ <= 10
-10 <= x_37_ <= 6
-2 <= x_38_ <= 9
-5 <= x_39_ <= 5
-8 <= x_40_ <= 0
-9 <= x_41_ <= -1
-7 <= x_42_ <= 2
-5 <= x_43_ <= 7
-1 <= x_44_ <= 3
-3 <= x_45_ <= 6
0 <= x_46_ <= 8
-9 <= x_47_ <= 6
-8 <= x_48_ <= 9
-10 <= x_49_ <= -4
-4 <= x_50_ <= -2
General
x_1_
x_2_
x_3_
x_4_
x_5_
x_6_
x_7_
x_8_
x_9_
x_10_
x_11_
x_12_
x_13_
x_14_
x_15_
x_16_
x_17_
x_18_
x_19_
x_20_
x_21_
x_22_
x_23_
x_24_
x_25_
x_26_
x_27_
x_28_
x_29_
x_30_
x_31_
x_32_
x_33_
x_34_
x_35_
x_36_
x_37_
x_38_
x_39_
x_40_
x_41_
x_42_
x_43_
x_44_
x_45_
x_46_
x_47_
x_48_
x_49_
x_50_
End
