minimize
obj: -41 x_1_ - 10 x_8_ - 23 x_11_ - 13 x_15_ - 4 x_20_ + 46 x_27_ + 13 x_35_ - 3 x_43_ + 39 x_48_
subject to
quadratic_ranged_1_ub: [ 10 x_44_ ^ 2 ] <= 45
quadratic_ranged_2_ub: -42 x_5_ + 45 x_47_ + [ -29 x_5_ ^ 2 - 17 x_9_ ^ 2 - 32 x_18_ ^ 2 + 35 x_22_ ^ 2 + 38 x_29_ ^ 2 ] <= -3560
quadratic_ranged_3_ub: 46 x_9_ - 46 x_10_ - 12 x_13_ + 21 x_15_ + [ 5 x_4_ ^ 2 ] <= 9
quadratic_ranged_4_ub: -8 x_9_ + 31 x_10_ - 43 x_39_ + [ 23 x_30_ ^ 2 - 38 x_42_ ^ 2 ] <= -342
quadratic_ranged_5_ub: -35 x_12_ + 2 x_22_ - 27 x_42_ + [ -15 x_4_ ^ 2 + 5 x_10_ ^ 2 + 14 x_15_ ^ 2 - 38 x_28_ ^ 2 - 48 x_42_ ^ 2 ] <= -4265
quadratic_ranged_6_ub: -34 x_1_ + 9 x_9_ - 2 x_18_ + 11 x_44_ + [ 38 x_1_ ^ 2 - 8 x_13_ ^ 2 + 41 x_21_ ^ 2 ] <= 5615
quadratic_ranged_7_ub: 43 x_9_ + [ 14 x_6_ ^ 2 + 38 x_19_ ^ 2 + 39 x_33_ ^ 2 ] <= 3124
quadratic_ranged_8_ub: -30 x_20_ - 4 x_23_ - 49 x_24_ + 36 x_27_ + [ 41 x_29_ ^ 2 ] <= -536
quadratic_ranged_9_ub: [ 15 x_29_ ^ 2 - 26 x_49_ ^ 2 ] <= 5
quadratic_ranged_10_ub: 6 x_22_ + 41 x_37_ + [ -40 x_4_ ^ 2 ] <= -1456
quadratic_ranged_11_ub: 1 x_48_ + [ 47 x_43_ ^ 2 + 4 x_45_ ^ 2 ] <= 5097
quadratic_ranged_12_ub: 43 x_16_ + 13 x_38_ + 21 x_44_ + [ -28 x_16_ ^ 2 - 16 x_30_ ^ 2 ] <= -2174
quadratic_ranged_13_ub: [ -48 x_5_ ^ 2 - 2 x_23_ ^ 2 + 34 x_34_ ^ 2 ] <= -666
quadratic_ranged_14_ub: 19 x_7_ + 10 x_13_ - 33 x_31_ + 22 x_45_ + [ 2 x_4_ ^ 2 + 22 x_30_ ^ 2 + 8 x_31_ ^ 2 - 41 x_36_ ^ 2 - 34 x_44_ ^ 2 ] <= 397
quadratic_ranged_15_ub: -41 x_19_ - 38 x_30_ + [ -37 x_33_ ^ 2 - 14 x_50_ ^ 2 ] <= -2491
quadratic_ranged_16_ub: -20 x_16_ + [ 44 x_9_ ^ 2 + 13 x_32_ ^ 2 ] <= 1274
quadratic_ranged_17_ub: 31 x_29_ - 19 x_30_ - 33 x_39_ + [ 41 x_1_ ^ 2 + 24 x_11_ ^ 2 + 49 x_50_ ^ 2 ] <= 8833
quadratic_ranged_18_ub: 20 x_11_ - 42 x_41_ + [ 16 x_1_ ^ 2 + 14 x_10_ ^ 2 + 3 x_31_ ^ 2 ] <= 2359
quadratic_ranged_19_ub: 46 x_4_ + 9 x_14_ + 30 x_19_ - 14 x_50_ + [ -1 x_14_ ^ 2 + 19 x_19_ ^ 2 - 9 x_50_ ^ 2 ] <= -615
quadratic_ranged_20_ub: -42 x_30_ + [ 23 x_42_ ^ 2 ] <= 296
quadratic_ranged_21_ub: -14 x_14_ + 37 x_21_ + 33 x_22_ + [ -33 x_39_ ^ 2 + 5 x_50_ ^ 2 ] <= -1164
quadratic_ranged_22_ub: [ 50 x_4_ ^ 2 + 34 x_44_ ^ 2 ] <= 1940
quadratic_ranged_23_ub: 42 x_14_ - 37 x_33_ - 50 x_36_ + [ 31 x_2_ ^ 2 - 26 x_13_ ^ 2 - 4 x_21_ ^ 2 - 9 x_38_ ^ 2 ] <= -297
quadratic_ranged_24_ub: 50 x_36_ + [ 48 x_10_ ^ 2 - 8 x_18_ ^ 2 ] <= 2476
quadratic_ranged_25_ub: -26 x_14_ + 18 x_20_ - 50 x_45_ + [ 40 x_45_ ^ 2 ] <= 3758
quadratic_ranged_26_ub: -23 x_10_ - 46 x_26_ - 7 x_29_ + [ 47 x_34_ ^ 2 ] <= 1696
quadratic_ranged_27_ub: [ -19 x_1_ ^ 2 + 5 x_31_ ^ 2 + 29 x_43_ ^ 2 + 37 x_47_ ^ 2 ] <= 2894
quadratic_ranged_28_ub: [ 33 x_7_ ^ 2 - 8 x_23_ ^ 2 - 14 x_27_ ^ 2 ] <= -621
quadratic_ranged_1_lb: [ 10 x_44_ ^ 2 ] >= 40
quadratic_ranged_2_lb: -42 x_5_ + 45 x_47_ + [ -29 x_5_ ^ 2 - 17 x_9_ ^ 2 - 32 x_18_ ^ 2 + 35 x_22_ ^ 2 + 38 x_29_ ^ 2 ] >= -3567
quadratic_ranged_3_lb: 46 x_9_ - 46 x_10_ - 12 x_13_ + 21 x_15_ + [ 5 x_4_ ^ 2 ] >= 4
quadratic_ranged_4_lb: -8 x_9_ + 31 x_10_ - 43 x_39_ + [ 23 x_30_ ^ 2 - 38 x_42_ ^ 2 ] >= -347
quadratic_ranged_5_lb: -35 x_12_ + 2 x_22_ - 27 x_42_ + [ -15 x_4_ ^ 2 + 5 x_10_ ^ 2 + 14 x_15_ ^ 2 - 38 x_28_ ^ 2 - 48 x_42_ ^ 2 ] >= -4268
quadratic_ranged_6_lb: -34 x_1_ + 9 x_9_ - 2 x_18_ + 11 x_44_ + [ 38 x_1_ ^ 2 - 8 x_13_ ^ 2 + 41 x_21_ ^ 2 ] >= 5610
quadratic_ranged_7_lb: 43 x_9_ + [ 14 x_6_ ^ 2 + 38 x_19_ ^ 2 + 39 x_33_ ^ 2 ] >= 3121
quadratic_ranged_8_lb: -30 x_20_ - 4 x_23_ - 49 x_24_ + 36 x_27_ + [ 41 x_29_ ^ 2 ] >= -538
quadratic_ranged_9_lb: [ 15 x_29_ ^ 2 - 26 x_49_ ^ 2 ] >= -5
quadratic_ranged_10_lb: 6 x_22_ + 41 x_37_ + [ -40 x_4_ ^ 2 ] >= -1457
quadratic_ranged_11_lb: 1 x_48_ + [ 47 x_43_ ^ 2 + 4 x_45_ ^ 2 ] >= 5090
quadratic_ranged_12_lb: 43 x_16_ + 13 x_38_ + 21 x_44_ + [ -28 x_16_ ^ 2 - 16 x_30_ ^ 2 ] >= -2180
quadratic_ranged_13_lb: [ -48 x_5_ ^ 2 - 2 x_23_ ^ 2 + 34 x_34_ ^ 2 ] >= -669
quadratic_ranged_14_lb: 19 x_7_ + 10 x_13_ - 33 x_31_ + 22 x_45_ + [ 2 x_4_ ^ 2 + 22 x_30_ ^ 2 + 8 x_31_ ^ 2 - 41 x_36_ ^ 2 - 34 x_44_ ^ 2 ] >= 396
quadratic_ranged_15_lb: -41 x_19_ - 38 x_30_ + [ -37 x_33_ ^ 2 - 14 x_50_ ^ 2 ] >= -2492
quadratic_ranged_16_lb: -20 x_16_ + [ 44 x_9_ ^ 2 + 13 x_32_ ^ 2 ] >= 1273
quadratic_ranged_17_lb: 31 x_29_ - 19 x_30_ - 33 x_39_ + [ 41 x_1_ ^ 2 + 24 x_11_ ^ 2 + 49 x_50_ ^ 2 ] >= 8829
quadratic_ranged_18_lb: 20 x_11_ - 42 x_41_ + [ 16 x_1_ ^ 2 + 14 x_10_ ^ 2 + 3 x_31_ ^ 2 ] >= 2351
quadratic_ranged_19_lb: 46 x_4_ + 9 x_14_ + 30 x_19_ - 14 x_50_ + [ -1 x_14_ ^ 2 + 19 x_19_ ^ 2 - 9 x_50_ ^ 2 ] >= -618
quadratic_ranged_20_lb: -42 x_30_ + [ 23 x_42_ ^ 2 ] >= 288
quadratic_ranged_21_lb: -14 x_14_ + 37 x_21_ + 33 x_22_ + [ -33 x_39_ ^ 2 + 5 x_50_ ^ 2 ] >= -1166
quadratic_ranged_22_lb: [ 50 x_4_ ^ 2 + 34 x_44_ ^ 2 ] >= 1935
quadratic_ranged_23_lb: 42 x_14_ - 37 x_33_ - 50 x_36_ + [ 31 x_2_ ^ 2 - 26 x_13_ ^ 2 - 4 x_21_ ^ 2 - 9 x_38_ ^ 2 ] >= -302
quadratic_ranged_24_lb: 50 x_36_ + [ 48 x_10_ ^ 2 - 8 x_18_ ^ 2 ] >= 2469
quadratic_ranged_25_lb: -26 x_14_ + 18 x_20_ - 50 x_45_ + [ 40 x_45_ ^ 2 ] >= 3755
quadratic_ranged_26_lb: -23 x_10_ - 46 x_26_ - 7 x_29_ + [ 47 x_34_ ^ 2 ] >= 1692
quadratic_ranged_27_lb: [ -19 x_1_ ^ 2 + 5 x_31_ ^ 2 + 29 x_43_ ^ 2 + 37 x_47_ ^ 2 ] >= 2893
quadratic_ranged_28_lb: [ 33 x_7_ ^ 2 - 8 x_23_ ^ 2 - 14 x_27_ ^ 2 ] >= -626
c1_1: 10 x_9_ - 25 x_15_ = 75
c1: 16 x_24_ - 17 x_34_ + 6 x_48_ + [ 1 x_3_ ^ 2 + 39 x_11_ ^ 2 + 19 x_13_ ^ 2 + 26 x_16_ ^ 2 - 4 x_23_ ^ 2 - 28 x_46_ ^ 2 ] = 1417
c2: -36 x_1_ + 39 x_28_ + 39 x_38_ + [ -46 x_1_ ^ 2 - 12 x_12_ ^ 2 - 40 x_28_ ^ 2 + 23 x_50_ ^ 2 ] = -5943
c3: 28 x_23_ - 35 x_28_ + [ -2 x_43_ ^ 2 - 50 x_44_ ^ 2 ] = -1002
c4: 48 x_43_ + [ -19 x_5_ ^ 2 - 25 x_29_ ^ 2 - 48 x_35_ ^ 2 - 1 x_43_ ^ 2 ] = -2032
c5: -49 x_28_ + [ -38 x_8_ ^ 2 - 9 x_32_ ^ 2 ] = -3577
c6: 43 x_6_ + 35 x_8_ + [ 50 x_7_ ^ 2 ] = 141
c7: -9 x_34_ + [ 5 x_18_ ^ 2 + 5 x_34_ ^ 2 - 3 x_45_ ^ 2 ] = 231
c8: -46 x_25_ + [ -23 x_20_ ^ 2 ] = -1840
c9: -40 x_4_ - 14 x_8_ + [ -16 x_8_ ^ 2 + 3 x_22_ ^ 2 + 7 x_25_ ^ 2 ] = -662
c10: -45 x_3_ - 15 x_9_ + 15 x_45_ + [ -35 x_23_ ^ 2 ] = -2985
c11: -39 x_5_ + [ 46 x_15_ ^ 2 + 21 x_29_ ^ 2 ] = 280
c12: 15 x_41_ + [ 3 x_12_ ^ 2 - 12 x_25_ ^ 2 ] = -978
c13: 20 x_30_ + 22 x_50_ + [ 35 x_50_ ^ 2 ] = 3680
c14: -3 x_20_ + [ -6 x_49_ ^ 2 ] = -30
c15: 36 x_2_ - 1 x_38_ + [ -47 x_15_ ^ 2 - 43 x_16_ ^ 2 - 18 x_23_ ^ 2 - 2 x_25_ ^ 2 ] = -4318
c16: -26 x_19_ + [ -4 x_19_ ^ 2 ] = 40
c17: 49 x_2_ - 43 x_11_ + 21 x_27_ + 23 x_33_ + [ -3 x_7_ ^ 2 - 43 x_31_ ^ 2 - 28 x_38_ ^ 2 - 41 x_43_ ^ 2 ] = -5119
c18: 10 x_19_ + 40 x_20_ + 20 x_31_ + [ -26 x_17_ ^ 2 ] = 46
c19: 20 x_5_ + 42 x_11_ + 48 x_48_ + [ 14 x_11_ ^ 2 - 44 x_26_ ^ 2 - 7 x_28_ ^ 2 + 8 x_48_ ^ 2 ] = -1468
c20: 48 x_1_ - 19 x_9_ - 43 x_23_ - 13 x_40_ + 29 x_45_ + [ -45 x_9_ ^ 2 ] = -958
c21: -40 x_39_ + [ 30 x_46_ ^ 2 + 19 x_47_ ^ 2 ] = 681
Bounds
-10 <= x_1_ <= 3
-4 <= x_2_ <= 8
1 <= x_3_ <= 9
1 <= x_4_ <= 6
-7 <= x_5_ <= 10
-10 <= x_6_ <= -3
-9 <= x_7_ <= 0
-9 <= x_8_ <= 6
3 <= x_9_ <= 10
-9 <= x_10_ <= 8
1 <= x_11_ <= 3
-8 <= x_12_ <= -1
-9 <= x_13_ <= 10
-5 <= x_14_ <= 7
-2 <= x_15_ <= 3
-10 <= x_16_ <= 6
-2 <= x_17_ <= 5
-7 <= x_18_ <= 10
-7 <= x_19_ <= 1
-4 <= x_20_ <= 10
x_21_ = -6
-1 <= x_22_ <= 8
-10 <= x_23_ <= -1
-2 <= x_24_ <= 10
-10 <= x_25_ <= -3
-6 <= x_26_ <= -3
2 <= x_27_ <= 10
0 <= x_28_ <= 10
0 <= x_29_ <= 4
-2 <= x_30_ <= 1
-8 <= x_31_ <= 2
-10 <= x_32_ <= 5
-9 <= x_33_ <= 9
0 <= x_34_ <= 9
-1 <= x_35_ <= 7
-5 <= x_36_ <= 1
-6 <= x_37_ <= 8
-5 <= x_38_ <= 10
2 <= x_39_ <= 10
-5 <= x_40_ <= 2
-4 <= x_41_ <= 5
-1 <= x_42_ <= 9
x_43_ = -10
-4 <= x_44_ <= 9
3 <= x_45_ <= 10
-7 <= x_46_ <= 5
-7 <= x_47_ <= 0
-6 <= x_48_ <= -1
-6 <= x_49_ <= 3
0 <= x_50_ <= 10
General
x_1_
x_2_
x_3_
x_4_
x_5_
x_6_
x_7_
x_8_
x_9_
x_10_
x_11_
x_12_
x_13_
x_14_
x_15_
x_16_
x_17_
x_18_
x_19_
x_20_
x_21_
x_22_
x_23_
x_24_
x_25_
x_26_
x_27_
x_28_
x_29_
x_30_
x_31_
x_32_
x_33_
x_34_
x_35_
x_36_
x_37_
x_38_
x_39_
x_40_
x_41_
x_42_
x_43_
x_44_
x_45_
x_46_
x_47_
x_48_
x_49_
x_50_
End
