minimize
obj: 
subject to
quadratic_ranged_1_ub: [ -6 x_4_ * x_1_ + 60 x_15_ * x_1_ + 84 x_20_ * x_1_ - 29 x_4_ ^ 2 - 18 x_15_ * x_4_ + 28 x_17_ * x_4_ + 92 x_20_ * x_7_ - 22 x_29_ * x_7_ - 62 x_46_ * x_7_ + 24 x_46_ * x_12_ + 8 x_17_ * x_15_ - 8 x_21_ * x_15_ - 96 x_41_ * x_17_ + 82 x_48_ * x_17_ - 90 x_46_ * x_20_ + 5 x_21_ ^ 2 - 46 x_46_ * x_21_ - 19 x_27_ ^ 2 + 56 x_48_ * x_46_ ] <= -4830
quadratic_ranged_2_ub: [ -44 x_39_ * x_5_ - 6 x_39_ * x_6_ + 50 x_22_ * x_19_ + 44 x_24_ * x_22_ - 58 x_38_ * x_24_ - 16 x_39_ ^ 2 - 34 x_42_ * x_39_ ] <= 7092
quadratic_ranged_3_ub: [ -78 x_6_ * x_2_ + 52 x_11_ * x_2_ - 74 x_26_ * x_2_ - 8 x_38_ * x_2_ - 58 x_11_ * x_6_ - 26 x_15_ * x_6_ + 49 x_11_ ^ 2 + 22 x_38_ * x_11_ - 40 x_17_ ^ 2 + 40 x_26_ * x_17_ - 18 x_29_ * x_17_ - 14 x_42_ * x_17_ - 48 x_42_ * x_26_ - 78 x_38_ * x_29_ + 22 x_42_ * x_38_ ] <= 79
quadratic_ranged_4_ub: [ -76 x_13_ * x_10_ - 18 x_12_ ^ 2 + 88 x_13_ * x_12_ - 8 x_13_ ^ 2 + 14 x_39_ * x_13_ - 11 x_15_ ^ 2 - 88 x_28_ * x_15_ - 39 x_18_ ^ 2 - 48 x_20_ * x_18_ - 16 x_46_ * x_18_ + 43 x_46_ ^ 2 ] <= -1795
quadratic_ranged_5_ub: [ -20 x_3_ ^ 2 + 4 x_8_ * x_3_ - 88 x_14_ * x_4_ - 82 x_31_ * x_4_ - 16 x_23_ * x_8_ - 28 x_28_ * x_8_ - 10 x_11_ ^ 2 - 60 x_31_ * x_11_ - 46 x_23_ * x_21_ + 52 x_28_ * x_21_ + 80 x_31_ * x_23_ ] <= -4462
quadratic_ranged_6_ub: [ 32 x_11_ * x_6_ - 66 x_19_ * x_6_ - 50 x_31_ * x_6_ + 8 x_34_ * x_6_ + 17 x_9_ ^ 2 - 82 x_19_ * x_9_ - 4 x_44_ * x_9_ - 62 x_19_ * x_11_ - 86 x_43_ * x_11_ - 18 x_25_ ^ 2 - 64 x_27_ * x_25_ - 76 x_44_ * x_25_ - 12 x_34_ * x_28_ + 64 x_43_ * x_34_ - 46 x_43_ ^ 2 ] <= 96
quadratic_ranged_7_ub: [ -84 x_24_ * x_3_ - 44 x_8_ ^ 2 + 6 x_18_ * x_8_ + 56 x_18_ * x_10_ + 74 x_21_ * x_10_ - 44 x_50_ * x_21_ + 52 x_50_ * x_24_ + 68 x_44_ * x_34_ ] <= 1845
quadratic_ranged_8_ub: [ -28 x_45_ * x_8_ - 34 x_46_ * x_8_ + 54 x_14_ * x_9_ - 72 x_42_ * x_9_ + 36 x_14_ ^ 2 - 50 x_31_ * x_30_ - 18 x_46_ * x_30_ + 40 x_35_ * x_31_ + 48 x_45_ * x_31_ + 56 x_46_ * x_35_ - 16 x_46_ * x_42_ + 22 x_46_ ^ 2 ] <= 1560
quadratic_ranged_9_ub: [ -40 x_25_ * x_1_ + 88 x_26_ * x_1_ - 4 x_43_ * x_1_ - 54 x_20_ * x_6_ + 10 x_35_ * x_6_ - 14 x_7_ ^ 2 + 50 x_26_ * x_7_ - 96 x_42_ * x_7_ + 8 x_43_ * x_7_ + 84 x_35_ * x_14_ - 6 x_49_ * x_14_ - 34 x_31_ * x_20_ - 84 x_42_ * x_20_ - 40 x_43_ * x_20_ - 94 x_49_ * x_20_ - 80 x_31_ * x_21_ - 33 x_25_ ^ 2 + 6 x_49_ * x_31_ ] <= 3
quadratic_ranged_10_ub: [ -9 x_45_ ^ 2 ] <= -76
quadratic_ranged_11_ub: [ -36 x_2_ ^ 2 - 8 x_9_ * x_2_ + 50 x_18_ * x_2_ - 68 x_40_ * x_2_ + 40 x_24_ * x_9_ + 38 x_20_ * x_15_ - 24 x_43_ * x_15_ + 78 x_24_ * x_18_ + 78 x_40_ * x_18_ - 16 x_36_ * x_20_ + 26 x_47_ * x_20_ - 66 x_43_ * x_21_ + 58 x_36_ * x_24_ + 22 x_25_ ^ 2 - 82 x_27_ * x_25_ - 80 x_36_ * x_25_ - 24 x_37_ * x_25_ + 54 x_36_ * x_27_ + 70 x_40_ * x_30_ + 24 x_47_ * x_30_ - 30 x_40_ * x_36_ + 16 x_43_ * x_40_ + 42 x_47_ * x_43_ ] <= -2416
quadratic_ranged_12_ub: [ -60 x_36_ * x_1_ - 31 x_7_ ^ 2 - 38 x_13_ * x_7_ + 34 x_21_ * x_7_ + 42 x_41_ * x_7_ + 14 x_36_ * x_21_ + 46 x_48_ * x_47_ - 44 x_48_ ^ 2 ] <= -9910
quadratic_ranged_13_ub: [ 2 x_23_ * x_4_ - 90 x_23_ * x_18_ - 44 x_31_ * x_18_ + 28 x_31_ ^ 2 + 41 x_41_ ^ 2 + 66 x_42_ * x_41_ ] <= -483
quadratic_ranged_14_ub: [ 24 x_16_ * x_10_ + 80 x_20_ * x_16_ - 26 x_21_ ^ 2 - 82 x_23_ * x_21_ - 92 x_26_ * x_21_ + 74 x_26_ * x_23_ ] <= 1011
quadratic_ranged_15_ub: [ 56 x_41_ * x_3_ + 8 x_8_ ^ 2 - 28 x_10_ * x_8_ + 46 x_35_ * x_8_ + 64 x_41_ * x_8_ + 100 x_50_ * x_8_ - 17 x_22_ ^ 2 + 6 x_36_ * x_35_ ] <= 26
quadratic_ranged_16_ub: [ 36 x_8_ * x_5_ - 72 x_35_ * x_5_ + 64 x_35_ * x_7_ + 60 x_47_ * x_8_ + 14 x_31_ ^ 2 + 38 x_37_ * x_31_ + 66 x_47_ * x_31_ + 5 x_35_ ^ 2 + 17 x_47_ ^ 2 ] <= -8891
quadratic_ranged_17_ub: [ 21 x_3_ ^ 2 - 40 x_15_ * x_3_ + 32 x_38_ * x_3_ - 2 x_41_ * x_3_ + 46 x_12_ * x_4_ - 14 x_24_ * x_8_ - 52 x_21_ * x_12_ - 40 x_41_ * x_12_ + 80 x_48_ * x_12_ + 8 x_38_ * x_15_ + 80 x_48_ * x_38_ + 15 x_41_ ^ 2 + 39 x_48_ ^ 2 ] <= 5322
quadratic_ranged_18_ub: [ 46 x_30_ * x_3_ - 82 x_47_ * x_3_ - 24 x_43_ * x_15_ + 96 x_47_ * x_30_ + 52 x_41_ * x_32_ + 14 x_43_ * x_32_ - 42 x_41_ ^ 2 ] <= -8880
quadratic_ranged_19_ub: [ 12 x_8_ * x_1_ - 30 x_36_ * x_1_ + 14 x_37_ * x_1_ - 14 x_43_ * x_1_ - 4 x_10_ * x_8_ - 96 x_36_ * x_10_ + 90 x_38_ * x_10_ - 54 x_36_ * x_32_ + 40 x_37_ * x_32_ + 26 x_36_ ^ 2 + 58 x_43_ * x_37_ ] <= 2511
quadratic_ranged_20_ub: [ 32 x_11_ * x_9_ + 22 x_25_ * x_9_ - 10 x_27_ * x_9_ - 38 x_21_ * x_11_ + 8 x_40_ * x_11_ + 50 x_50_ * x_11_ + 72 x_21_ * x_17_ - 38 x_22_ * x_17_ - 82 x_38_ * x_18_ - 70 x_27_ * x_20_ - 52 x_50_ * x_20_ - 58 x_25_ * x_21_ + 56 x_39_ * x_21_ + 90 x_47_ * x_21_ - 80 x_27_ * x_25_ - 22 x_47_ * x_25_ + 94 x_39_ * x_27_ + 94 x_39_ * x_38_ + 38 x_47_ * x_38_ + 15 x_47_ ^ 2 ] <= -1699
quadratic_ranged_21_ub: [ 82 x_28_ * x_3_ - 64 x_29_ * x_3_ - 22 x_42_ * x_3_ + 46 x_45_ * x_3_ - 50 x_29_ * x_10_ + 14 x_32_ * x_10_ + 24 x_36_ * x_10_ - 76 x_45_ * x_10_ - 98 x_16_ * x_15_ + 56 x_45_ * x_15_ + 26 x_38_ * x_16_ + 28 x_36_ * x_28_ - 24 x_38_ * x_28_ + 7 x_29_ ^ 2 - 100 x_44_ * x_29_ - 11 x_32_ ^ 2 + 46 x_42_ * x_32_ - 44 x_46_ * x_32_ - 76 x_38_ * x_36_ - 38 x_49_ * x_36_ - 56 x_46_ * x_38_ - 7 x_42_ ^ 2 + 8 x_44_ * x_42_ - 80 x_49_ * x_45_ ] <= 805
quadratic_ranged_22_ub: [ 4 x_2_ ^ 2 - 54 x_9_ * x_2_ - 20 x_25_ * x_4_ - 36 x_41_ * x_4_ - 2 x_16_ * x_15_ + 94 x_41_ * x_15_ - 46 x_19_ * x_16_ - 14 x_41_ * x_16_ - 46 x_45_ * x_16_ - 54 x_41_ * x_17_ + 94 x_43_ * x_17_ - 78 x_45_ * x_19_ + 36 x_43_ ^ 2 + 70 x_50_ * x_43_ ] <= -9187
quadratic_ranged_23_ub: [ -39 x_1_ ^ 2 + 100 x_13_ * x_1_ + 82 x_13_ * x_5_ + 76 x_13_ * x_8_ - 50 x_44_ * x_8_ - 94 x_49_ * x_13_ - 44 x_47_ * x_18_ - 48 x_48_ * x_18_ + 8 x_49_ * x_18_ - 62 x_37_ * x_19_ - 76 x_40_ * x_19_ + 62 x_35_ * x_30_ - 60 x_49_ * x_35_ + 82 x_44_ * x_37_ + 44 x_48_ * x_37_ - 84 x_44_ * x_40_ - 34 x_47_ * x_40_ ] <= 31
quadratic_ranged_1_lb: [ -6 x_4_ * x_1_ + 60 x_15_ * x_1_ + 84 x_20_ * x_1_ - 29 x_4_ ^ 2 - 18 x_15_ * x_4_ + 28 x_17_ * x_4_ + 92 x_20_ * x_7_ - 22 x_29_ * x_7_ - 62 x_46_ * x_7_ + 24 x_46_ * x_12_ + 8 x_17_ * x_15_ - 8 x_21_ * x_15_ - 96 x_41_ * x_17_ + 82 x_48_ * x_17_ - 90 x_46_ * x_20_ + 5 x_21_ ^ 2 - 46 x_46_ * x_21_ - 19 x_27_ ^ 2 + 56 x_48_ * x_46_ ] >= -4831
quadratic_ranged_2_lb: [ -44 x_39_ * x_5_ - 6 x_39_ * x_6_ + 50 x_22_ * x_19_ + 44 x_24_ * x_22_ - 58 x_38_ * x_24_ - 16 x_39_ ^ 2 - 34 x_42_ * x_39_ ] >= 7088
quadratic_ranged_3_lb: [ -78 x_6_ * x_2_ + 52 x_11_ * x_2_ - 74 x_26_ * x_2_ - 8 x_38_ * x_2_ - 58 x_11_ * x_6_ - 26 x_15_ * x_6_ + 49 x_11_ ^ 2 + 22 x_38_ * x_11_ - 40 x_17_ ^ 2 + 40 x_26_ * x_17_ - 18 x_29_ * x_17_ - 14 x_42_ * x_17_ - 48 x_42_ * x_26_ - 78 x_38_ * x_29_ + 22 x_42_ * x_38_ ] >= 75
quadratic_ranged_4_lb: [ -76 x_13_ * x_10_ - 18 x_12_ ^ 2 + 88 x_13_ * x_12_ - 8 x_13_ ^ 2 + 14 x_39_ * x_13_ - 11 x_15_ ^ 2 - 88 x_28_ * x_15_ - 39 x_18_ ^ 2 - 48 x_20_ * x_18_ - 16 x_46_ * x_18_ + 43 x_46_ ^ 2 ] >= -1801
quadratic_ranged_5_lb: [ -20 x_3_ ^ 2 + 4 x_8_ * x_3_ - 88 x_14_ * x_4_ - 82 x_31_ * x_4_ - 16 x_23_ * x_8_ - 28 x_28_ * x_8_ - 10 x_11_ ^ 2 - 60 x_31_ * x_11_ - 46 x_23_ * x_21_ + 52 x_28_ * x_21_ + 80 x_31_ * x_23_ ] >= -4463
quadratic_ranged_6_lb: [ 32 x_11_ * x_6_ - 66 x_19_ * x_6_ - 50 x_31_ * x_6_ + 8 x_34_ * x_6_ + 17 x_9_ ^ 2 - 82 x_19_ * x_9_ - 4 x_44_ * x_9_ - 62 x_19_ * x_11_ - 86 x_43_ * x_11_ - 18 x_25_ ^ 2 - 64 x_27_ * x_25_ - 76 x_44_ * x_25_ - 12 x_34_ * x_28_ + 64 x_43_ * x_34_ - 46 x_43_ ^ 2 ] >= 93
quadratic_ranged_7_lb: [ -84 x_24_ * x_3_ - 44 x_8_ ^ 2 + 6 x_18_ * x_8_ + 56 x_18_ * x_10_ + 74 x_21_ * x_10_ - 44 x_50_ * x_21_ + 52 x_50_ * x_24_ + 68 x_44_ * x_34_ ] >= 1842
quadratic_ranged_8_lb: [ -28 x_45_ * x_8_ - 34 x_46_ * x_8_ + 54 x_14_ * x_9_ - 72 x_42_ * x_9_ + 36 x_14_ ^ 2 - 50 x_31_ * x_30_ - 18 x_46_ * x_30_ + 40 x_35_ * x_31_ + 48 x_45_ * x_31_ + 56 x_46_ * x_35_ - 16 x_46_ * x_42_ + 22 x_46_ ^ 2 ] >= 1555
quadratic_ranged_9_lb: [ -40 x_25_ * x_1_ + 88 x_26_ * x_1_ - 4 x_43_ * x_1_ - 54 x_20_ * x_6_ + 10 x_35_ * x_6_ - 14 x_7_ ^ 2 + 50 x_26_ * x_7_ - 96 x_42_ * x_7_ + 8 x_43_ * x_7_ + 84 x_35_ * x_14_ - 6 x_49_ * x_14_ - 34 x_31_ * x_20_ - 84 x_42_ * x_20_ - 40 x_43_ * x_20_ - 94 x_49_ * x_20_ - 80 x_31_ * x_21_ - 33 x_25_ ^ 2 + 6 x_49_ * x_31_ ] >= -5
quadratic_ranged_10_lb: [ -9 x_45_ ^ 2 ] >= -81
quadratic_ranged_11_lb: [ -36 x_2_ ^ 2 - 8 x_9_ * x_2_ + 50 x_18_ * x_2_ - 68 x_40_ * x_2_ + 40 x_24_ * x_9_ + 38 x_20_ * x_15_ - 24 x_43_ * x_15_ + 78 x_24_ * x_18_ + 78 x_40_ * x_18_ - 16 x_36_ * x_20_ + 26 x_47_ * x_20_ - 66 x_43_ * x_21_ + 58 x_36_ * x_24_ + 22 x_25_ ^ 2 - 82 x_27_ * x_25_ - 80 x_36_ * x_25_ - 24 x_37_ * x_25_ + 54 x_36_ * x_27_ + 70 x_40_ * x_30_ + 24 x_47_ * x_30_ - 30 x_40_ * x_36_ + 16 x_43_ * x_40_ + 42 x_47_ * x_43_ ] >= -2423
quadratic_ranged_12_lb: [ -60 x_36_ * x_1_ - 31 x_7_ ^ 2 - 38 x_13_ * x_7_ + 34 x_21_ * x_7_ + 42 x_41_ * x_7_ + 14 x_36_ * x_21_ + 46 x_48_ * x_47_ - 44 x_48_ ^ 2 ] >= -9913
quadratic_ranged_13_lb: [ 2 x_23_ * x_4_ - 90 x_23_ * x_18_ - 44 x_31_ * x_18_ + 28 x_31_ ^ 2 + 41 x_41_ ^ 2 + 66 x_42_ * x_41_ ] >= -489
quadratic_ranged_14_lb: [ 24 x_16_ * x_10_ + 80 x_20_ * x_16_ - 26 x_21_ ^ 2 - 82 x_23_ * x_21_ - 92 x_26_ * x_21_ + 74 x_26_ * x_23_ ] >= 1007
quadratic_ranged_15_lb: [ 56 x_41_ * x_3_ + 8 x_8_ ^ 2 - 28 x_10_ * x_8_ + 46 x_35_ * x_8_ + 64 x_41_ * x_8_ + 100 x_50_ * x_8_ - 17 x_22_ ^ 2 + 6 x_36_ * x_35_ ] >= 22
quadratic_ranged_16_lb: [ 36 x_8_ * x_5_ - 72 x_35_ * x_5_ + 64 x_35_ * x_7_ + 60 x_47_ * x_8_ + 14 x_31_ ^ 2 + 38 x_37_ * x_31_ + 66 x_47_ * x_31_ + 5 x_35_ ^ 2 + 17 x_47_ ^ 2 ] >= -8892
quadratic_ranged_17_lb: [ 21 x_3_ ^ 2 - 40 x_15_ * x_3_ + 32 x_38_ * x_3_ - 2 x_41_ * x_3_ + 46 x_12_ * x_4_ - 14 x_24_ * x_8_ - 52 x_21_ * x_12_ - 40 x_41_ * x_12_ + 80 x_48_ * x_12_ + 8 x_38_ * x_15_ + 80 x_48_ * x_38_ + 15 x_41_ ^ 2 + 39 x_48_ ^ 2 ] >= 5318
quadratic_ranged_18_lb: [ 46 x_30_ * x_3_ - 82 x_47_ * x_3_ - 24 x_43_ * x_15_ + 96 x_47_ * x_30_ + 52 x_41_ * x_32_ + 14 x_43_ * x_32_ - 42 x_41_ ^ 2 ] >= -8885
quadratic_ranged_19_lb: [ 12 x_8_ * x_1_ - 30 x_36_ * x_1_ + 14 x_37_ * x_1_ - 14 x_43_ * x_1_ - 4 x_10_ * x_8_ - 96 x_36_ * x_10_ + 90 x_38_ * x_10_ - 54 x_36_ * x_32_ + 40 x_37_ * x_32_ + 26 x_36_ ^ 2 + 58 x_43_ * x_37_ ] >= 2503
quadratic_ranged_20_lb: [ 32 x_11_ * x_9_ + 22 x_25_ * x_9_ - 10 x_27_ * x_9_ - 38 x_21_ * x_11_ + 8 x_40_ * x_11_ + 50 x_50_ * x_11_ + 72 x_21_ * x_17_ - 38 x_22_ * x_17_ - 82 x_38_ * x_18_ - 70 x_27_ * x_20_ - 52 x_50_ * x_20_ - 58 x_25_ * x_21_ + 56 x_39_ * x_21_ + 90 x_47_ * x_21_ - 80 x_27_ * x_25_ - 22 x_47_ * x_25_ + 94 x_39_ * x_27_ + 94 x_39_ * x_38_ + 38 x_47_ * x_38_ + 15 x_47_ ^ 2 ] >= -1702
quadratic_ranged_21_lb: [ 82 x_28_ * x_3_ - 64 x_29_ * x_3_ - 22 x_42_ * x_3_ + 46 x_45_ * x_3_ - 50 x_29_ * x_10_ + 14 x_32_ * x_10_ + 24 x_36_ * x_10_ - 76 x_45_ * x_10_ - 98 x_16_ * x_15_ + 56 x_45_ * x_15_ + 26 x_38_ * x_16_ + 28 x_36_ * x_28_ - 24 x_38_ * x_28_ + 7 x_29_ ^ 2 - 100 x_44_ * x_29_ - 11 x_32_ ^ 2 + 46 x_42_ * x_32_ - 44 x_46_ * x_32_ - 76 x_38_ * x_36_ - 38 x_49_ * x_36_ - 56 x_46_ * x_38_ - 7 x_42_ ^ 2 + 8 x_44_ * x_42_ - 80 x_49_ * x_45_ ] >= 800
quadratic_ranged_22_lb: [ 4 x_2_ ^ 2 - 54 x_9_ * x_2_ - 20 x_25_ * x_4_ - 36 x_41_ * x_4_ - 2 x_16_ * x_15_ + 94 x_41_ * x_15_ - 46 x_19_ * x_16_ - 14 x_41_ * x_16_ - 46 x_45_ * x_16_ - 54 x_41_ * x_17_ + 94 x_43_ * x_17_ - 78 x_45_ * x_19_ + 36 x_43_ ^ 2 + 70 x_50_ * x_43_ ] >= -9193
quadratic_ranged_23_lb: [ -39 x_1_ ^ 2 + 100 x_13_ * x_1_ + 82 x_13_ * x_5_ + 76 x_13_ * x_8_ - 50 x_44_ * x_8_ - 94 x_49_ * x_13_ - 44 x_47_ * x_18_ - 48 x_48_ * x_18_ + 8 x_49_ * x_18_ - 62 x_37_ * x_19_ - 76 x_40_ * x_19_ + 62 x_35_ * x_30_ - 60 x_49_ * x_35_ + 82 x_44_ * x_37_ + 44 x_48_ * x_37_ - 84 x_44_ * x_40_ - 34 x_47_ * x_40_ ] >= 24
c1: [ 22 x_50_ * x_1_ + 36 x_31_ * x_5_ + 60 x_38_ * x_16_ - 74 x_46_ * x_16_ + 1 x_25_ ^ 2 + 100 x_46_ * x_25_ - 4 x_38_ * x_31_ + 40 x_50_ * x_31_ + 7 x_46_ ^ 2 - 3 x_50_ ^ 2 ] = -5224
c2: [ 12 x_18_ * x_11_ - 14 x_31_ * x_16_ - 22 x_49_ * x_16_ + 18 x_49_ * x_18_ - 86 x_46_ * x_21_ + 94 x_46_ * x_45_ - 50 x_46_ ^ 2 ] = -612
c3: [ -54 x_14_ * x_7_ - 4 x_47_ * x_7_ - 96 x_48_ * x_7_ + 37 x_13_ ^ 2 + 2 x_14_ * x_13_ - 50 x_17_ * x_13_ + 58 x_26_ * x_13_ - 84 x_40_ * x_13_ + 50 x_42_ * x_13_ - 60 x_47_ * x_13_ + 12 x_48_ * x_13_ - 26 x_17_ * x_14_ - 12 x_33_ * x_14_ + 58 x_36_ * x_26_ + 64 x_43_ * x_26_ - 34 x_46_ * x_26_ - 26 x_33_ * x_28_ - 20 x_36_ * x_28_ + 12 x_40_ * x_33_ + 46 x_46_ * x_33_ + 96 x_42_ * x_40_ - 54 x_43_ * x_40_ + 84 x_47_ * x_42_ - 60 x_45_ * x_43_ ] = 8103
c4: [ 86 x_35_ * x_4_ + 6 x_50_ * x_4_ - 68 x_21_ * x_14_ - 56 x_31_ * x_14_ - 78 x_45_ * x_14_ - 96 x_35_ * x_19_ - 62 x_31_ * x_21_ + 33 x_31_ ^ 2 - 82 x_37_ * x_35_ + 49 x_37_ ^ 2 - 32 x_50_ * x_37_ ] = 22293
c5: [ -25 x_6_ ^ 2 - 28 x_22_ * x_6_ + 74 x_35_ * x_6_ - 78 x_41_ * x_6_ + 16 x_45_ * x_8_ + 30 x_28_ * x_18_ + 80 x_41_ * x_18_ + 46 x_41_ * x_23_ + 42 x_35_ * x_24_ + 28 x_45_ * x_41_ + 43 x_45_ ^ 2 - 94 x_50_ * x_45_ - 42 x_50_ ^ 2 ] = -12955
c6: [ 26 x_13_ * x_2_ - 42 x_45_ * x_8_ - 30 x_21_ * x_13_ - 7 x_21_ ^ 2 + 40 x_43_ * x_35_ ] = -601
c7: [ 8 x_7_ * x_5_ + 94 x_21_ * x_5_ + 10 x_21_ * x_7_ + 64 x_24_ * x_7_ + 90 x_31_ * x_7_ - 20 x_26_ * x_24_ + 28 x_28_ * x_24_ + 7 x_31_ ^ 2 - 52 x_39_ * x_36_ + 34 x_39_ ^ 2 ] = 4614
c8: [ 8 x_36_ * x_4_ - 48 x_5_ ^ 2 - 68 x_11_ * x_5_ - 36 x_10_ ^ 2 - 84 x_31_ * x_10_ + 12 x_32_ * x_11_ - 36 x_36_ * x_27_ + 45 x_32_ ^ 2 ] = -784
c9: [ -12 x_4_ ^ 2 - 66 x_19_ * x_4_ + 54 x_41_ * x_4_ - 70 x_44_ * x_4_ + 22 x_17_ * x_5_ - 24 x_39_ * x_5_ + 10 x_44_ * x_17_ + 88 x_47_ * x_17_ - 34 x_48_ * x_17_ - 82 x_26_ * x_19_ + 22 x_39_ * x_19_ - 28 x_41_ * x_19_ - 18 x_47_ * x_29_ - 70 x_44_ * x_39_ - 5 x_48_ ^ 2 ] = 2479
c10: [ 80 x_39_ * x_1_ - 29 x_8_ ^ 2 - 100 x_15_ * x_8_ + 12 x_42_ * x_8_ - 16 x_41_ * x_20_ - 36 x_41_ * x_39_ ] = -77
c11: [ 14 x_44_ * x_4_ + 8 x_14_ * x_7_ + 98 x_28_ * x_7_ + 60 x_27_ * x_9_ + 18 x_43_ * x_9_ + 30 x_15_ * x_14_ - 10 x_28_ * x_14_ + 43 x_15_ ^ 2 - 24 x_39_ * x_27_ - 40 x_43_ * x_28_ + 54 x_44_ * x_39_ + 17 x_44_ ^ 2 ] = -2067
c12: [ -38 x_9_ ^ 2 - 72 x_30_ * x_22_ - 28 x_43_ * x_22_ + 26 x_23_ ^ 2 - 8 x_37_ * x_23_ + 56 x_43_ * x_23_ - 48 x_47_ * x_23_ - 28 x_49_ * x_23_ - 90 x_37_ * x_29_ - 2 x_47_ * x_29_ + 22 x_37_ * x_30_ + 22 x_43_ * x_30_ + 76 x_43_ * x_31_ - 56 x_43_ * x_37_ - 44 x_47_ * x_37_ - 46 x_49_ * x_37_ ] = -8488
c13: [ 80 x_12_ * x_2_ + 18 x_3_ ^ 2 - 2 x_7_ * x_3_ - 18 x_12_ * x_3_ + 90 x_42_ * x_3_ - 92 x_26_ * x_7_ - 82 x_47_ * x_7_ - 62 x_42_ * x_12_ + 70 x_26_ * x_18_ + 48 x_34_ * x_18_ + 43 x_34_ ^ 2 + 38 x_38_ * x_34_ - 38 x_41_ * x_38_ - 62 x_47_ * x_41_ - 34 x_47_ ^ 2 ] = -1192
c14: [ 24 x_26_ * x_3_ + 52 x_11_ * x_8_ + 90 x_19_ * x_8_ + 94 x_37_ * x_8_ + 88 x_37_ * x_11_ + 18 x_19_ ^ 2 - 98 x_26_ * x_19_ - 22 x_38_ * x_19_ - 32 x_45_ * x_19_ - 72 x_45_ * x_37_ - 45 x_39_ ^ 2 + 14 x_45_ ^ 2 ] = 5128
c15: [ -82 x_2_ * x_12_ - 94 x_31_ * x_2_ - 66 x_35_ * x_2_ + 90 x_31_ * x_10_ - 40 x_41_ * x_10_ - 24 x_45_ * x_18_ - 74 x_40_ * x_30_ + 14 x_41_ * x_30_ - 44 x_40_ * x_31_ - 44 x_45_ * x_31_ - 96 x_49_ * x_31_ - 94 x_41_ * x_35_ - 26 x_49_ * x_35_ - 100 x_41_ * x_40_ ] = 1262
c16: [ 56 x_10_ * x_3_ - 20 x_44_ * x_3_ - 80 x_19_ * x_4_ - 38 x_44_ * x_4_ - 12 x_10_ ^ 2 + 52 x_19_ * x_10_ - 56 x_44_ * x_10_ + 42 x_42_ * x_16_ + 14 x_44_ * x_16_ - 34 x_47_ * x_16_ + 84 x_27_ * x_19_ - 80 x_45_ * x_19_ - 76 x_47_ * x_19_ + 20 x_44_ * x_27_ - 38 x_31_ ^ 2 + 20 x_45_ * x_31_ + 26 x_42_ * x_37_ - 62 x_44_ * x_42_ - 100 x_47_ * x_42_ - 5 x_47_ ^ 2 ] = -4294
c17: [ 25 x_1_ ^ 2 - 92 x_31_ * x_1_ - 40 x_41_ * x_1_ + 50 x_31_ * x_27_ - 20 x_39_ * x_27_ + 46 x_41_ * x_31_ ] = 121
c18: [ 39 x_2_ ^ 2 - 6 x_22_ * x_10_ - 12 x_24_ * x_10_ + 68 x_26_ * x_10_ - 58 x_39_ * x_10_ + 26 x_29_ * x_11_ - 22 x_39_ * x_22_ + 52 x_39_ * x_24_ - 14 x_26_ ^ 2 - 32 x_37_ ^ 2 - 30 x_39_ * x_37_ - 6 x_50_ * x_37_ + 5 x_39_ ^ 2 ] = -1687
c19: [ -76 x_37_ * x_10_ + 8 x_46_ * x_10_ - 32 x_44_ * x_27_ - 17 x_44_ ^ 2 ] = 1383
c20: [ -84 x_8_ * x_5_ - 60 x_14_ * x_6_ - 10 x_8_ ^ 2 + 20 x_14_ * x_8_ + 80 x_39_ * x_8_ + 94 x_44_ * x_13_ - 17 x_14_ ^ 2 - 90 x_39_ * x_14_ - 36 x_44_ ^ 2 ] = -153
c21: [ 49 x_1_ ^ 2 + 98 x_2_ * x_1_ - 40 x_48_ * x_2_ + 38 x_3_ ^ 2 - 14 x_21_ * x_3_ + 76 x_23_ * x_4_ - 48 x_21_ * x_20_ + 96 x_24_ * x_20_ + 33 x_21_ ^ 2 - 64 x_34_ * x_21_ - 18 x_24_ * x_23_ - 29 x_24_ ^ 2 - 44 x_48_ * x_24_ - 62 x_48_ * x_34_ + 42 x_37_ ^ 2 ] = -7947
c22: [ -32 x_12_ * x_9_ + 94 x_33_ * x_11_ - 42 x_12_ ^ 2 - 10 x_28_ * x_12_ - 12 x_33_ * x_18_ ] = 2400
c23: [ 30 x_11_ * x_9_ + 94 x_14_ * x_9_ + 88 x_19_ * x_11_ + 4 x_23_ * x_11_ + 40 x_44_ * x_11_ - 38 x_46_ * x_11_ + 80 x_47_ * x_11_ + 8 x_19_ * x_14_ - 28 x_23_ * x_19_ + 6 x_44_ * x_19_ - 94 x_46_ * x_19_ - 14 x_28_ * x_23_ - 84 x_30_ * x_28_ + 94 x_47_ * x_28_ + 21 x_44_ ^ 2 - 26 x_46_ * x_44_ ] = 309
c24: [ 80 x_26_ * x_11_ - 68 x_23_ * x_13_ + 12 x_29_ * x_13_ - 76 x_43_ * x_13_ + 30 x_46_ * x_13_ - 4 x_35_ * x_23_ - 98 x_43_ * x_23_ - 74 x_44_ * x_23_ - 48 x_35_ * x_26_ - 74 x_43_ * x_29_ - 68 x_44_ * x_32_ - 18 x_43_ * x_37_ - 22 x_43_ ^ 2 - 2 x_44_ * x_43_ - 6 x_46_ * x_43_ ] = -3004
c25: [ -64 x_24_ * x_11_ + 74 x_28_ * x_11_ + 20 x_29_ * x_11_ + 44 x_13_ ^ 2 + 46 x_24_ * x_13_ - 16 x_33_ * x_13_ + 76 x_33_ * x_24_ - 40 x_46_ * x_24_ - 66 x_29_ * x_28_ - 22 x_33_ * x_28_ + 44 x_29_ ^ 2 + 76 x_33_ * x_29_ ] = 2322
c26: [ 100 x_11_ * x_3_ - 4 x_35_ * x_17_ + 42 x_40_ * x_18_ - 70 x_41_ * x_18_ - 68 x_46_ * x_18_ - 88 x_40_ * x_39_ + 92 x_41_ * x_40_ + 12 x_41_ ^ 2 ] = -1810
c27: [ -70 x_24_ * x_6_ + 70 x_36_ * x_6_ + 36 x_37_ * x_6_ - 48 x_9_ ^ 2 - 80 x_36_ * x_9_ - 94 x_36_ * x_11_ - 38 x_37_ * x_11_ + 8 x_36_ * x_16_ - 14 x_37_ * x_16_ + 94 x_30_ * x_24_ - 12 x_36_ * x_24_ - 30 x_37_ * x_36_ ] = -9894
Bounds
3 <= x_1_ <= 9
x_2_ = -5
-8 <= x_3_ <= 4
-10 <= x_4_ <= -4
-9 <= x_5_ <= -3
-1 <= x_6_ <= 9
-1 <= x_7_ <= 10
-6 <= x_8_ <= 3
-9 <= x_9_ <= -1
-9 <= x_10_ <= 0
2 <= x_11_ <= 5
-10 <= x_12_ <= 5
-6 <= x_13_ <= 5
-9 <= x_14_ <= 3
-7 <= x_15_ <= 10
-1 <= x_16_ <= 9
1 <= x_17_ <= 6
-2 <= x_18_ <= 5
8 <= x_19_ <= 10
-4 <= x_20_ <= 6
-10 <= x_21_ <= 9
0 <= x_22_ <= 7
4 <= x_23_ <= 10
-5 <= x_24_ <= 7
-6 <= x_25_ <= 6
-3 <= x_26_ <= 0
-7 <= x_27_ <= 1
-6 <= x_28_ <= 7
-8 <= x_29_ <= 0
-10 <= x_30_ <= 10
-10 <= x_31_ <= 4
-2 <= x_32_ <= 6
2 <= x_33_ <= 7
-10 <= x_34_ <= -5
-10 <= x_35_ <= 7
-4 <= x_36_ <= 9
-10 <= x_37_ <= 10
-10 <= x_38_ <= 7
-10 <= x_39_ <= 7
-4 <= x_40_ <= -2
2 <= x_41_ <= 6
-9 <= x_42_ <= 1
-3 <= x_43_ <= 7
-1 <= x_44_ <= 9
0 <= x_45_ <= 8
-10 <= x_46_ <= 0
-10 <= x_47_ <= 10
-7 <= x_48_ <= -1
5 <= x_49_ <= 7
-4 <= x_50_ <= 7
General
x_1_
x_2_
x_3_
x_4_
x_5_
x_6_
x_7_
x_8_
x_9_
x_10_
x_11_
x_12_
x_13_
x_14_
x_15_
x_16_
x_17_
x_18_
x_19_
x_20_
x_21_
x_22_
x_23_
x_24_
x_25_
x_26_
x_27_
x_28_
x_29_
x_30_
x_31_
x_32_
x_33_
x_34_
x_35_
x_36_
x_37_
x_38_
x_39_
x_40_
x_41_
x_42_
x_43_
x_44_
x_45_
x_46_
x_47_
x_48_
x_49_
x_50_
End
