minimize
obj: 
subject to
quadratic_ranged_1_ub: [ 94 x_18_ * x_44_ ] <= 379
quadratic_ranged_2_ub: [ -64 x_8_ * x_10_ - 62 x_45_ * x_8_ + 18 x_48_ * x_8_ + 58 x_50_ * x_8_ - 80 x_13_ * x_10_ + 48 x_19_ * x_10_ + 32 x_26_ * x_10_ - 62 x_48_ * x_10_ - 20 x_19_ * x_13_ - 76 x_21_ * x_19_ + 88 x_50_ * x_21_ - 18 x_48_ * x_45_ ] <= -1921
quadratic_ranged_3_ub: [ -52 x_13_ * x_32_ - 24 x_46_ * x_13_ - 84 x_49_ * x_13_ + 22 x_44_ * x_14_ - 80 x_45_ * x_14_ + 32 x_47_ * x_14_ - 60 x_49_ * x_14_ + 72 x_49_ * x_17_ - 82 x_45_ * x_25_ + 4 x_46_ * x_25_ + 46 x_50_ * x_32_ + 10 x_47_ * x_44_ - 94 x_50_ * x_44_ ] <= 19319
quadratic_ranged_4_ub: [ -26 x_4_ * x_18_ + 42 x_50_ * x_20_ - 84 x_50_ * x_26_ ] <= 3124
quadratic_ranged_5_ub: [ 74 x_6_ * x_48_ + 44 x_50_ * x_6_ - 50 x_42_ * x_14_ + 12 x_48_ * x_14_ + 14 x_28_ * x_24_ + 40 x_42_ * x_24_ - 72 x_46_ * x_24_ - 4 x_48_ * x_24_ - 64 x_42_ * x_38_ + 4 x_42_ * x_41_ - 50 x_50_ * x_41_ - 88 x_48_ * x_42_ ] <= -9565
quadratic_ranged_6_ub: [ 18 x_7_ * x_33_ + 32 x_35_ * x_7_ + 76 x_36_ * x_7_ + 10 x_47_ * x_7_ + 76 x_33_ * x_20_ + 96 x_36_ * x_20_ - 74 x_39_ * x_20_ - 32 x_35_ * x_24_ + 38 x_50_ * x_24_ - 64 x_29_ * x_25_ - 52 x_35_ * x_25_ + 12 x_50_ * x_25_ + 2 x_39_ * x_29_ - 94 x_47_ * x_33_ + 48 x_50_ * x_47_ ] <= 69
quadratic_ranged_7_ub: [ 78 x_4_ * x_33_ - 98 x_34_ * x_4_ - 74 x_48_ * x_4_ + 12 x_33_ * x_19_ + 6 x_33_ * x_24_ - 40 x_43_ * x_24_ + 92 x_31_ * x_25_ - 30 x_43_ * x_31_ - 68 x_43_ * x_33_ + 92 x_48_ * x_40_ ] <= -4240
quadratic_ranged_8_ub: [ 50 x_6_ * x_27_ - 46 x_31_ * x_6_ + 38 x_50_ * x_6_ + 66 x_32_ * x_13_ + 86 x_16_ * x_14_ + 2 x_27_ * x_14_ + 12 x_33_ * x_14_ - 96 x_47_ * x_14_ + 10 x_26_ * x_16_ + 28 x_30_ * x_20_ - 92 x_32_ * x_20_ + 96 x_26_ * x_24_ + 12 x_32_ * x_26_ + 72 x_33_ * x_26_ + 14 x_36_ * x_26_ - 84 x_39_ * x_26_ - 78 x_39_ * x_30_ + 2 x_44_ * x_30_ - 42 x_50_ * x_30_ + 16 x_39_ * x_31_ - 86 x_44_ * x_31_ - 70 x_47_ * x_31_ - 10 x_39_ * x_33_ - 94 x_47_ * x_33_ - 98 x_44_ * x_39_ ] <= 7497
quadratic_ranged_9_ub: [ 38 x_2_ * x_4_ + 58 x_9_ * x_4_ - 90 x_22_ * x_4_ + 82 x_48_ * x_4_ + 82 x_14_ * x_9_ - 62 x_16_ * x_9_ + 44 x_35_ * x_9_ + 46 x_35_ * x_10_ + 76 x_50_ * x_10_ - 24 x_22_ * x_16_ + 98 x_50_ * x_16_ + 4 x_35_ * x_20_ - 8 x_48_ * x_43_ ] <= 2646
quadratic_ranged_10_ub: [ 16 x_12_ * x_21_ + 62 x_40_ * x_12_ + 50 x_42_ * x_21_ ] <= 3051
quadratic_ranged_11_ub: [ -50 x_4_ * x_8_ + 48 x_9_ * x_4_ - 14 x_8_ * x_5_ + 90 x_9_ * x_5_ + 52 x_35_ * x_5_ + 4 x_22_ * x_8_ - 54 x_25_ * x_8_ + 96 x_35_ * x_8_ - 16 x_22_ * x_9_ + 38 x_35_ * x_9_ - 56 x_35_ * x_22_ ] <= -500
quadratic_ranged_12_ub: [ -2 x_6_ * x_22_ - 44 x_23_ * x_9_ + 58 x_28_ * x_9_ - 20 x_12_ * x_11_ - 14 x_19_ * x_11_ + 48 x_43_ * x_11_ + 32 x_23_ * x_12_ + 60 x_43_ * x_19_ ] <= 4042
quadratic_ranged_13_ub: [ 52 x_1_ * x_16_ - 18 x_31_ * x_1_ - 90 x_19_ * x_5_ - 14 x_29_ * x_16_ ] <= -1126
quadratic_ranged_14_ub: [ -82 x_3_ * x_30_ + 62 x_12_ * x_5_ + 32 x_19_ * x_5_ + 14 x_30_ * x_5_ + 40 x_24_ * x_18_ - 12 x_30_ * x_19_ + 38 x_26_ * x_24_ + 98 x_50_ * x_24_ - 76 x_40_ * x_30_ + 48 x_50_ * x_30_ - 84 x_50_ * x_40_ ] <= -2233
quadratic_ranged_15_ub: [ -26 x_1_ * x_16_ - 56 x_47_ * x_1_ - 34 x_28_ * x_14_ - 72 x_29_ * x_14_ - 2 x_31_ * x_14_ + 56 x_32_ * x_14_ - 10 x_37_ * x_14_ - 40 x_22_ * x_15_ + 74 x_31_ * x_16_ + 100 x_47_ * x_16_ - 44 x_25_ * x_22_ - 60 x_31_ * x_22_ - 94 x_49_ * x_22_ - 24 x_50_ * x_25_ - 32 x_34_ * x_28_ + 16 x_31_ * x_29_ + 20 x_37_ * x_29_ + 80 x_50_ * x_29_ - 2 x_34_ * x_31_ - 40 x_49_ * x_31_ - 70 x_49_ * x_32_ + 22 x_47_ * x_43_ ] <= 7137
quadratic_ranged_16_ub: [ -94 x_28_ * x_47_ ] <= -2535
quadratic_ranged_17_ub: [ -14 x_2_ * x_17_ - 30 x_17_ * x_5_ + 52 x_48_ * x_5_ + 42 x_38_ * x_17_ + 86 x_39_ * x_17_ - 82 x_47_ * x_17_ - 98 x_45_ * x_19_ - 6 x_38_ * x_36_ + 26 x_47_ * x_36_ - 94 x_48_ * x_36_ + 52 x_47_ * x_38_ - 16 x_43_ * x_39_ + 64 x_45_ * x_39_ + 86 x_48_ * x_45_ - 2 x_48_ * x_47_ ] <= -11138
quadratic_ranged_18_ub: [ -36 x_9_ * x_18_ - 88 x_27_ * x_9_ + 48 x_43_ * x_9_ + 72 x_37_ * x_18_ + 66 x_50_ * x_18_ + 46 x_27_ * x_25_ + 86 x_29_ * x_25_ + 82 x_37_ * x_25_ - 66 x_32_ * x_27_ - 2 x_37_ * x_27_ + 78 x_43_ * x_27_ - 32 x_50_ * x_27_ + 28 x_37_ * x_29_ - 92 x_43_ * x_29_ + 88 x_50_ * x_32_ - 34 x_37_ * x_36_ + 20 x_42_ * x_36_ - 68 x_47_ * x_36_ + 74 x_50_ * x_36_ - 8 x_42_ * x_37_ + 60 x_50_ * x_42_ + 26 x_46_ * x_43_ + 70 x_47_ * x_43_ + 2 x_47_ * x_46_ - 48 x_50_ * x_46_ ] <= 4699
quadratic_ranged_19_ub: [ 12 x_11_ * x_13_ + 80 x_37_ * x_11_ + 84 x_39_ * x_11_ - 38 x_34_ * x_12_ - 6 x_39_ * x_12_ + 60 x_29_ * x_13_ + 74 x_39_ * x_13_ - 60 x_49_ * x_13_ - 18 x_30_ * x_29_ + 44 x_34_ * x_29_ - 74 x_34_ * x_30_ - 12 x_41_ * x_30_ + 60 x_50_ * x_30_ ] <= 1731
quadratic_ranged_20_ub: [ 56 x_3_ * x_30_ - 78 x_13_ * x_6_ + 90 x_30_ * x_6_ + 2 x_40_ * x_6_ + 30 x_40_ * x_13_ - 92 x_30_ * x_20_ + 88 x_40_ * x_20_ ] <= 1334
quadratic_ranged_1_lb: [ 94 x_18_ * x_44_ ] >= 372
quadratic_ranged_2_lb: [ -64 x_8_ * x_10_ - 62 x_45_ * x_8_ + 18 x_48_ * x_8_ + 58 x_50_ * x_8_ - 80 x_13_ * x_10_ + 48 x_19_ * x_10_ + 32 x_26_ * x_10_ - 62 x_48_ * x_10_ - 20 x_19_ * x_13_ - 76 x_21_ * x_19_ + 88 x_50_ * x_21_ - 18 x_48_ * x_45_ ] >= -1930
quadratic_ranged_3_lb: [ -52 x_13_ * x_32_ - 24 x_46_ * x_13_ - 84 x_49_ * x_13_ + 22 x_44_ * x_14_ - 80 x_45_ * x_14_ + 32 x_47_ * x_14_ - 60 x_49_ * x_14_ + 72 x_49_ * x_17_ - 82 x_45_ * x_25_ + 4 x_46_ * x_25_ + 46 x_50_ * x_32_ + 10 x_47_ * x_44_ - 94 x_50_ * x_44_ ] >= 19314
quadratic_ranged_4_lb: [ -26 x_4_ * x_18_ + 42 x_50_ * x_20_ - 84 x_50_ * x_26_ ] >= 3117
quadratic_ranged_5_lb: [ 74 x_6_ * x_48_ + 44 x_50_ * x_6_ - 50 x_42_ * x_14_ + 12 x_48_ * x_14_ + 14 x_28_ * x_24_ + 40 x_42_ * x_24_ - 72 x_46_ * x_24_ - 4 x_48_ * x_24_ - 64 x_42_ * x_38_ + 4 x_42_ * x_41_ - 50 x_50_ * x_41_ - 88 x_48_ * x_42_ ] >= -9571
quadratic_ranged_6_lb: [ 18 x_7_ * x_33_ + 32 x_35_ * x_7_ + 76 x_36_ * x_7_ + 10 x_47_ * x_7_ + 76 x_33_ * x_20_ + 96 x_36_ * x_20_ - 74 x_39_ * x_20_ - 32 x_35_ * x_24_ + 38 x_50_ * x_24_ - 64 x_29_ * x_25_ - 52 x_35_ * x_25_ + 12 x_50_ * x_25_ + 2 x_39_ * x_29_ - 94 x_47_ * x_33_ + 48 x_50_ * x_47_ ] >= 66
quadratic_ranged_7_lb: [ 78 x_4_ * x_33_ - 98 x_34_ * x_4_ - 74 x_48_ * x_4_ + 12 x_33_ * x_19_ + 6 x_33_ * x_24_ - 40 x_43_ * x_24_ + 92 x_31_ * x_25_ - 30 x_43_ * x_31_ - 68 x_43_ * x_33_ + 92 x_48_ * x_40_ ] >= -4243
quadratic_ranged_8_lb: [ 50 x_6_ * x_27_ - 46 x_31_ * x_6_ + 38 x_50_ * x_6_ + 66 x_32_ * x_13_ + 86 x_16_ * x_14_ + 2 x_27_ * x_14_ + 12 x_33_ * x_14_ - 96 x_47_ * x_14_ + 10 x_26_ * x_16_ + 28 x_30_ * x_20_ - 92 x_32_ * x_20_ + 96 x_26_ * x_24_ + 12 x_32_ * x_26_ + 72 x_33_ * x_26_ + 14 x_36_ * x_26_ - 84 x_39_ * x_26_ - 78 x_39_ * x_30_ + 2 x_44_ * x_30_ - 42 x_50_ * x_30_ + 16 x_39_ * x_31_ - 86 x_44_ * x_31_ - 70 x_47_ * x_31_ - 10 x_39_ * x_33_ - 94 x_47_ * x_33_ - 98 x_44_ * x_39_ ] >= 7492
quadratic_ranged_9_lb: [ 38 x_2_ * x_4_ + 58 x_9_ * x_4_ - 90 x_22_ * x_4_ + 82 x_48_ * x_4_ + 82 x_14_ * x_9_ - 62 x_16_ * x_9_ + 44 x_35_ * x_9_ + 46 x_35_ * x_10_ + 76 x_50_ * x_10_ - 24 x_22_ * x_16_ + 98 x_50_ * x_16_ + 4 x_35_ * x_20_ - 8 x_48_ * x_43_ ] >= 2642
quadratic_ranged_10_lb: [ 16 x_12_ * x_21_ + 62 x_40_ * x_12_ + 50 x_42_ * x_21_ ] >= 3043
quadratic_ranged_11_lb: [ -50 x_4_ * x_8_ + 48 x_9_ * x_4_ - 14 x_8_ * x_5_ + 90 x_9_ * x_5_ + 52 x_35_ * x_5_ + 4 x_22_ * x_8_ - 54 x_25_ * x_8_ + 96 x_35_ * x_8_ - 16 x_22_ * x_9_ + 38 x_35_ * x_9_ - 56 x_35_ * x_22_ ] >= -502
quadratic_ranged_12_lb: [ -2 x_6_ * x_22_ - 44 x_23_ * x_9_ + 58 x_28_ * x_9_ - 20 x_12_ * x_11_ - 14 x_19_ * x_11_ + 48 x_43_ * x_11_ + 32 x_23_ * x_12_ + 60 x_43_ * x_19_ ] >= 4038
quadratic_ranged_13_lb: [ 52 x_1_ * x_16_ - 18 x_31_ * x_1_ - 90 x_19_ * x_5_ - 14 x_29_ * x_16_ ] >= -1133
quadratic_ranged_14_lb: [ -82 x_3_ * x_30_ + 62 x_12_ * x_5_ + 32 x_19_ * x_5_ + 14 x_30_ * x_5_ + 40 x_24_ * x_18_ - 12 x_30_ * x_19_ + 38 x_26_ * x_24_ + 98 x_50_ * x_24_ - 76 x_40_ * x_30_ + 48 x_50_ * x_30_ - 84 x_50_ * x_40_ ] >= -2237
quadratic_ranged_15_lb: [ -26 x_1_ * x_16_ - 56 x_47_ * x_1_ - 34 x_28_ * x_14_ - 72 x_29_ * x_14_ - 2 x_31_ * x_14_ + 56 x_32_ * x_14_ - 10 x_37_ * x_14_ - 40 x_22_ * x_15_ + 74 x_31_ * x_16_ + 100 x_47_ * x_16_ - 44 x_25_ * x_22_ - 60 x_31_ * x_22_ - 94 x_49_ * x_22_ - 24 x_50_ * x_25_ - 32 x_34_ * x_28_ + 16 x_31_ * x_29_ + 20 x_37_ * x_29_ + 80 x_50_ * x_29_ - 2 x_34_ * x_31_ - 40 x_49_ * x_31_ - 70 x_49_ * x_32_ + 22 x_47_ * x_43_ ] >= 7131
quadratic_ranged_16_lb: [ -94 x_28_ * x_47_ ] >= -2540
quadratic_ranged_17_lb: [ -14 x_2_ * x_17_ - 30 x_17_ * x_5_ + 52 x_48_ * x_5_ + 42 x_38_ * x_17_ + 86 x_39_ * x_17_ - 82 x_47_ * x_17_ - 98 x_45_ * x_19_ - 6 x_38_ * x_36_ + 26 x_47_ * x_36_ - 94 x_48_ * x_36_ + 52 x_47_ * x_38_ - 16 x_43_ * x_39_ + 64 x_45_ * x_39_ + 86 x_48_ * x_45_ - 2 x_48_ * x_47_ ] >= -11141
quadratic_ranged_18_lb: [ -36 x_9_ * x_18_ - 88 x_27_ * x_9_ + 48 x_43_ * x_9_ + 72 x_37_ * x_18_ + 66 x_50_ * x_18_ + 46 x_27_ * x_25_ + 86 x_29_ * x_25_ + 82 x_37_ * x_25_ - 66 x_32_ * x_27_ - 2 x_37_ * x_27_ + 78 x_43_ * x_27_ - 32 x_50_ * x_27_ + 28 x_37_ * x_29_ - 92 x_43_ * x_29_ + 88 x_50_ * x_32_ - 34 x_37_ * x_36_ + 20 x_42_ * x_36_ - 68 x_47_ * x_36_ + 74 x_50_ * x_36_ - 8 x_42_ * x_37_ + 60 x_50_ * x_42_ + 26 x_46_ * x_43_ + 70 x_47_ * x_43_ + 2 x_47_ * x_46_ - 48 x_50_ * x_46_ ] >= 4691
quadratic_ranged_19_lb: [ 12 x_11_ * x_13_ + 80 x_37_ * x_11_ + 84 x_39_ * x_11_ - 38 x_34_ * x_12_ - 6 x_39_ * x_12_ + 60 x_29_ * x_13_ + 74 x_39_ * x_13_ - 60 x_49_ * x_13_ - 18 x_30_ * x_29_ + 44 x_34_ * x_29_ - 74 x_34_ * x_30_ - 12 x_41_ * x_30_ + 60 x_50_ * x_30_ ] >= 1724
quadratic_ranged_20_lb: [ 56 x_3_ * x_30_ - 78 x_13_ * x_6_ + 90 x_30_ * x_6_ + 2 x_40_ * x_6_ + 30 x_40_ * x_13_ - 92 x_30_ * x_20_ + 88 x_40_ * x_20_ ] >= 1330
c1: [ -2 x_1_ * x_12_ + 68 x_46_ * x_1_ - 54 x_47_ * x_1_ + 8 x_29_ * x_12_ + 32 x_33_ * x_12_ + 6 x_34_ * x_12_ + 62 x_34_ * x_32_ - 78 x_46_ * x_33_ + 6 x_49_ * x_41_ ] = -324
c2: [ -64 x_11_ * x_17_ - 86 x_18_ * x_12_ + 64 x_24_ * x_12_ - 2 x_39_ * x_12_ + 38 x_35_ * x_14_ - 74 x_33_ * x_17_ + 40 x_20_ * x_18_ + 44 x_24_ * x_18_ + 68 x_35_ * x_29_ ] = -2706
c3: [ -30 x_5_ * x_25_ - 16 x_45_ * x_5_ + 26 x_25_ * x_13_ + 26 x_45_ * x_16_ + 30 x_48_ * x_16_ - 72 x_25_ * x_18_ + 60 x_48_ * x_25_ - 50 x_45_ * x_39_ ] = 13008
c4: [ 32 x_2_ * x_15_ - 94 x_16_ * x_15_ - 82 x_22_ * x_15_ + 78 x_36_ * x_15_ - 40 x_43_ * x_15_ + 72 x_22_ * x_16_ + 4 x_40_ * x_16_ + 32 x_43_ * x_16_ + 42 x_40_ * x_36_ ] = 1320
c5: [ -72 x_2_ * x_7_ - 22 x_26_ * x_2_ + 46 x_44_ * x_2_ - 66 x_10_ * x_7_ + 26 x_19_ * x_7_ + 72 x_44_ * x_10_ + 16 x_22_ * x_19_ - 2 x_44_ * x_22_ - 76 x_41_ * x_26_ ] = 5808
c6: [ -82 x_1_ * x_19_ - 78 x_23_ * x_4_ + 78 x_44_ * x_9_ - 98 x_23_ * x_20_ - 30 x_48_ * x_36_ - 54 x_48_ * x_37_ + 62 x_48_ * x_44_ ] = -6416
c7: [ 42 x_9_ * x_14_ - 78 x_19_ * x_9_ - 28 x_20_ * x_9_ + 72 x_20_ * x_14_ + 34 x_40_ * x_14_ + 84 x_19_ * x_18_ + 56 x_41_ * x_32_ + 88 x_50_ * x_32_ - 24 x_41_ * x_40_ ] = 3900
c8: [ 48 x_6_ * x_24_ + 86 x_31_ * x_6_ + 72 x_33_ * x_6_ - 36 x_37_ * x_6_ - 44 x_37_ * x_11_ + 90 x_20_ * x_14_ + 98 x_21_ * x_14_ - 50 x_41_ * x_21_ - 94 x_24_ * x_23_ - 48 x_33_ * x_23_ + 62 x_37_ * x_31_ + 70 x_34_ * x_33_ + 22 x_41_ * x_33_ ] = 11302
c9: [ -52 x_1_ * x_11_ - 48 x_37_ * x_1_ - 56 x_13_ * x_6_ - 96 x_14_ * x_11_ + 18 x_31_ * x_11_ - 78 x_37_ * x_11_ + 94 x_49_ * x_11_ - 20 x_31_ * x_13_ + 62 x_49_ * x_13_ - 6 x_35_ * x_31_ + 70 x_37_ * x_31_ ] = 4694
c10: [ 12 x_16_ * x_19_ - 2 x_41_ * x_16_ - 12 x_28_ * x_19_ + 28 x_25_ * x_21_ - 66 x_33_ * x_28_ ] = 2226
c11: [ -26 x_21_ * x_42_ + 44 x_41_ * x_33_ ] = -1396
c12: [ 28 x_1_ * x_6_ - 52 x_23_ * x_1_ - 88 x_18_ * x_3_ - 66 x_43_ * x_3_ + 18 x_50_ * x_3_ + 24 x_27_ * x_5_ + 16 x_40_ * x_5_ - 82 x_8_ * x_6_ + 94 x_21_ * x_6_ - 70 x_18_ * x_8_ + 82 x_27_ * x_8_ - 28 x_33_ * x_8_ - 22 x_50_ * x_8_ - 70 x_43_ * x_13_ + 100 x_48_ * x_13_ + 44 x_23_ * x_17_ - 50 x_42_ * x_17_ + 84 x_27_ * x_21_ + 58 x_33_ * x_21_ + 32 x_48_ * x_21_ + 54 x_27_ * x_23_ + 12 x_40_ * x_23_ + 32 x_50_ * x_48_ ] = 11844
c13: [ 90 x_3_ * x_8_ + 94 x_14_ * x_3_ + 42 x_14_ * x_8_ + 36 x_20_ * x_8_ + 34 x_30_ * x_8_ + 36 x_36_ * x_8_ + 44 x_30_ * x_12_ - 96 x_20_ * x_14_ - 48 x_24_ * x_14_ - 32 x_30_ * x_15_ + 26 x_36_ * x_24_ ] = -13832
c14: [ 24 x_7_ * x_15_ - 74 x_38_ * x_7_ + 60 x_19_ * x_15_ + 66 x_34_ * x_19_ - 36 x_49_ * x_19_ + 100 x_49_ * x_38_ ] = -6012
c15: [ 12 x_1_ * x_15_ + 100 x_18_ * x_1_ + 80 x_44_ * x_1_ + 8 x_46_ * x_1_ + 74 x_13_ * x_10_ - 72 x_46_ * x_10_ - 84 x_46_ * x_14_ - 98 x_44_ * x_18_ + 70 x_46_ * x_18_ - 94 x_48_ * x_44_ + 22 x_47_ * x_46_ - 34 x_48_ * x_46_ ] = -1332
c16: [ 30 x_2_ * x_38_ ] = -180
c17: [ 24 x_1_ * x_9_ - 48 x_30_ * x_1_ - 40 x_38_ * x_1_ + 28 x_45_ * x_1_ + 96 x_9_ * x_6_ - 22 x_32_ * x_6_ + 22 x_45_ * x_6_ - 32 x_21_ * x_9_ + 6 x_30_ * x_9_ - 68 x_46_ * x_9_ - 96 x_45_ * x_29_ + 88 x_42_ * x_30_ + 100 x_42_ * x_32_ + 88 x_46_ * x_32_ ] = 3422
c18: [ 100 x_14_ * x_26_ + 42 x_22_ * x_15_ - 18 x_37_ * x_15_ - 36 x_50_ * x_15_ + 100 x_21_ * x_19_ + 96 x_29_ * x_19_ + 26 x_50_ * x_19_ + 18 x_37_ * x_21_ - 100 x_25_ * x_22_ + 44 x_44_ * x_26_ + 2 x_44_ * x_29_ ] = -4598
c19: [ -40 x_15_ * x_16_ - 14 x_20_ * x_15_ - 18 x_24_ * x_15_ - 28 x_35_ * x_15_ - 26 x_46_ * x_15_ - 56 x_46_ * x_20_ + 74 x_33_ * x_22_ + 10 x_35_ * x_22_ + 60 x_33_ * x_24_ + 88 x_38_ * x_33_ + 4 x_44_ * x_35_ - 44 x_42_ * x_38_ + 70 x_44_ * x_38_ ] = -996
c20: [ 52 x_6_ * x_26_ + 80 x_39_ * x_6_ + 76 x_42_ * x_6_ - 36 x_21_ * x_8_ - 4 x_39_ * x_8_ + 54 x_20_ * x_11_ - 28 x_39_ * x_11_ - 82 x_32_ * x_14_ - 10 x_44_ * x_14_ + 26 x_36_ * x_20_ - 6 x_48_ * x_20_ + 80 x_48_ * x_21_ + 64 x_34_ * x_26_ + 28 x_44_ * x_26_ + 54 x_34_ * x_32_ + 100 x_40_ * x_32_ + 40 x_39_ * x_34_ + 64 x_48_ * x_39_ + 14 x_42_ * x_40_ ] = 10806
c21: [ -64 x_1_ * x_17_ + 88 x_23_ * x_1_ - 46 x_31_ * x_1_ - 52 x_34_ * x_1_ + 14 x_46_ * x_1_ + 22 x_3_ * x_2_ + 12 x_23_ * x_2_ - 68 x_29_ * x_2_ + 22 x_43_ * x_2_ - 18 x_31_ * x_3_ + 54 x_43_ * x_3_ - 22 x_24_ * x_4_ + 2 x_31_ * x_4_ - 22 x_47_ * x_5_ - 36 x_47_ * x_17_ + 96 x_43_ * x_31_ - 12 x_46_ * x_34_ ] = 1602
c22: [ -66 x_1_ * x_21_ - 10 x_18_ * x_15_ - 82 x_27_ * x_15_ - 66 x_27_ * x_16_ + 32 x_29_ * x_16_ - 78 x_21_ * x_18_ - 26 x_27_ * x_18_ + 46 x_41_ * x_18_ - 88 x_29_ * x_27_ - 74 x_35_ * x_27_ + 2 x_46_ * x_27_ + 30 x_46_ * x_29_ - 36 x_48_ * x_29_ - 30 x_49_ * x_29_ + 60 x_49_ * x_35_ - 40 x_49_ * x_48_ + 12 x_50_ * x_48_ + 2 x_50_ * x_49_ ] = 4554
c23: [ 96 x_4_ * x_50_ ] = 2016
c24: [ 20 x_3_ * x_50_ ] = -240
c25: [ 22 x_1_ * x_7_ - 98 x_19_ * x_1_ - 70 x_32_ * x_1_ + 32 x_10_ * x_7_ + 28 x_20_ * x_7_ + 82 x_31_ * x_7_ + 36 x_32_ * x_7_ + 94 x_23_ * x_12_ - 28 x_20_ * x_19_ + 4 x_32_ * x_20_ + 42 x_32_ * x_23_ + 40 x_38_ * x_32_ - 58 x_48_ * x_32_ ] = 2756
c26: [ -82 x_4_ * x_29_ - 46 x_30_ * x_4_ + 16 x_30_ * x_5_ - 62 x_30_ * x_7_ - 6 x_45_ * x_30_ ] = -2180
c27: [ -56 x_2_ * x_49_ - 72 x_7_ * x_4_ + 18 x_12_ * x_7_ - 62 x_49_ * x_12_ ] = 288
c28: [ -76 x_5_ * x_8_ + 38 x_12_ * x_5_ - 26 x_18_ * x_5_ + 100 x_32_ * x_5_ - 20 x_45_ * x_5_ - 58 x_48_ * x_5_ - 18 x_50_ * x_5_ + 64 x_14_ * x_6_ - 94 x_15_ * x_6_ + 64 x_12_ * x_8_ + 82 x_15_ * x_8_ + 4 x_18_ * x_8_ - 96 x_32_ * x_8_ - 36 x_45_ * x_8_ - 74 x_50_ * x_8_ + 92 x_14_ * x_9_ + 60 x_18_ * x_12_ + 76 x_32_ * x_12_ - 94 x_48_ * x_12_ - 16 x_36_ * x_14_ + 66 x_37_ * x_14_ - 48 x_45_ * x_14_ - 68 x_41_ * x_15_ + 28 x_48_ * x_15_ - 68 x_41_ * x_18_ - 34 x_45_ * x_27_ + 36 x_36_ * x_32_ - 82 x_41_ * x_32_ + 78 x_45_ * x_32_ - 10 x_50_ * x_36_ + 14 x_45_ * x_37_ + 82 x_50_ * x_37_ - 88 x_45_ * x_41_ ] = -3898
c29: [ 68 x_3_ * x_37_ + 48 x_44_ * x_3_ + 94 x_11_ * x_9_ - 64 x_17_ * x_9_ - 22 x_31_ * x_9_ - 92 x_17_ * x_11_ + 44 x_31_ * x_11_ - 72 x_41_ * x_11_ - 68 x_47_ * x_11_ - 46 x_41_ * x_17_ + 24 x_47_ * x_17_ + 28 x_39_ * x_37_ - 52 x_44_ * x_37_ ] = -2228
c30: [ -28 x_5_ * x_9_ + 62 x_27_ * x_5_ - 56 x_33_ * x_5_ - 64 x_46_ * x_5_ - 66 x_16_ * x_9_ - 42 x_18_ * x_9_ + 26 x_22_ * x_9_ - 60 x_33_ * x_9_ + 34 x_44_ * x_10_ + 82 x_19_ * x_14_ - 30 x_19_ * x_16_ + 32 x_27_ * x_16_ - 10 x_32_ * x_16_ - 98 x_33_ * x_16_ - 96 x_18_ * x_17_ - 12 x_27_ * x_17_ + 52 x_32_ * x_18_ + 74 x_27_ * x_19_ - 50 x_33_ * x_19_ - 50 x_32_ * x_22_ + 10 x_32_ * x_27_ + 76 x_46_ * x_33_ ] = -710
Bounds
3 <= x_1_ <= 10
-9 <= x_2_ <= 7
-8 <= x_3_ <= 9
-10 <= x_4_ <= 2
1 <= x_5_ <= 8
-9 <= x_6_ <= 6
-9 <= x_7_ <= 1
-1 <= x_8_ <= 9
-5 <= x_9_ <= 4
-8 <= x_10_ <= 9
-1 <= x_11_ <= 9
-9 <= x_12_ <= -1
-6 <= x_13_ <= 6
-10 <= x_14_ <= -1
-4 <= x_15_ <= 10
-7 <= x_16_ <= 2
-3 <= x_17_ <= 10
-9 <= x_18_ <= 5
-3 <= x_19_ <= -2
-10 <= x_20_ <= 2
-8 <= x_21_ <= -2
-4 <= x_22_ <= 4
-3 <= x_23_ <= 0
-3 <= x_24_ <= 9
-9 <= x_25_ <= 5
-3 <= x_26_ <= 6
-2 <= x_27_ <= 10
-9 <= x_28_ <= -3
-9 <= x_29_ <= -3
0 <= x_30_ <= 8
-7 <= x_31_ <= 9
-1 <= x_32_ <= 8
4 <= x_33_ <= 8
-6 <= x_34_ <= 10
-8 <= x_35_ <= 0
-7 <= x_36_ <= 9
-1 <= x_37_ <= 2
-10 <= x_38_ <= 1
-10 <= x_39_ <= -7
-9 <= x_40_ <= 10
-3 <= x_41_ <= 10
-10 <= x_42_ <= 2
-9 <= x_43_ <= 10
-3 <= x_44_ <= 2
-7 <= x_45_ <= 6
-5 <= x_46_ <= 3
-10 <= x_47_ <= 3
-10 <= x_48_ <= 1
-8 <= x_49_ <= 6
-10 <= x_50_ <= 10
General
x_1_
x_2_
x_3_
x_4_
x_5_
x_6_
x_7_
x_8_
x_9_
x_10_
x_11_
x_12_
x_13_
x_14_
x_15_
x_16_
x_17_
x_18_
x_19_
x_20_
x_21_
x_22_
x_23_
x_24_
x_25_
x_26_
x_27_
x_28_
x_29_
x_30_
x_31_
x_32_
x_33_
x_34_
x_35_
x_36_
x_37_
x_38_
x_39_
x_40_
x_41_
x_42_
x_43_
x_44_
x_45_
x_46_
x_47_
x_48_
x_49_
x_50_
End
