minimize
obj: 
subject to
quadratic_ranged_1_ub: [ 98 x_17_ * x_2_ - 30 x_20_ * x_2_ - 76 x_38_ * x_2_ + 34 x_44_ * x_2_ - 50 x_7_ * x_6_ - 98 x_17_ * x_6_ + 78 x_20_ * x_6_ + 56 x_17_ * x_7_ + 66 x_38_ * x_7_ - 4 x_50_ * x_13_ + 88 x_36_ * x_17_ - 35 x_19_ ^ 2 + 62 x_20_ * x_19_ + 56 x_27_ * x_19_ - 74 x_38_ * x_19_ + 58 x_44_ * x_19_ - 14 x_27_ * x_20_ - 32 x_38_ * x_36_ - 18 x_38_ ^ 2 + 38 x_42_ * x_40_ + 24 x_44_ * x_40_ - 3 x_44_ ^ 2 ] <= -2108
quadratic_ranged_2_ub: [ -6 x_20_ * x_1_ - 68 x_26_ * x_1_ - 48 x_39_ * x_1_ + 46 x_18_ * x_5_ + 10 x_39_ * x_5_ - 42 x_20_ ^ 2 - 92 x_39_ * x_20_ + 66 x_39_ * x_22_ + 70 x_47_ * x_22_ + 36 x_26_ ^ 2 + 96 x_40_ * x_39_ - 88 x_45_ * x_40_ + 40 x_47_ ^ 2 ] <= 1310
quadratic_ranged_3_ub: [ 10 x_7_ ^ 2 - 64 x_12_ * x_7_ - 2 x_22_ * x_7_ + 80 x_39_ * x_7_ + 50 x_39_ * x_18_ + 22 x_39_ * x_22_ - 72 x_46_ * x_22_ + 94 x_36_ * x_23_ - 50 x_46_ * x_23_ + 35 x_46_ ^ 2 ] <= 5318
quadratic_ranged_4_ub: [ 18 x_7_ ^ 2 + 90 x_16_ * x_7_ - 62 x_20_ * x_7_ + 12 x_21_ * x_7_ + 86 x_20_ * x_16_ + 50 x_41_ * x_21_ + 90 x_42_ * x_21_ - 41 x_29_ ^ 2 + 32 x_42_ * x_29_ ] <= 11144
quadratic_ranged_5_ub: [ 74 x_37_ * x_17_ + 40 x_37_ * x_18_ + 28 x_45_ * x_18_ + 16 x_37_ * x_30_ - 18 x_45_ * x_30_ - 52 x_45_ * x_35_ + 2 x_47_ * x_35_ + 64 x_40_ * x_37_ + 26 x_42_ ^ 2 + 84 x_45_ * x_42_ - 10 x_45_ ^ 2 - 18 x_47_ ^ 2 ] <= 12437
quadratic_ranged_6_ub: [ -12 x_1_ ^ 2 - 14 x_30_ * x_1_ - 68 x_40_ * x_8_ - 22 x_43_ * x_8_ - 6 x_30_ * x_11_ - 98 x_30_ * x_12_ + 78 x_40_ * x_12_ + 90 x_42_ * x_29_ - 86 x_42_ * x_40_ ] <= 6933
quadratic_ranged_7_ub: [ 32 x_11_ * x_8_ + 14 x_34_ * x_20_ - 78 x_46_ * x_20_ - 32 x_46_ * x_34_ - 5 x_37_ ^ 2 ] <= -703
quadratic_ranged_8_ub: [ -16 x_44_ * x_20_ + 60 x_44_ * x_23_ - 28 x_44_ ^ 2 - 44 x_47_ ^ 2 ] <= -745
quadratic_ranged_9_ub: [ -16 x_5_ * x_18_ - 14 x_21_ * x_5_ - 96 x_19_ * x_12_ - 44 x_21_ * x_12_ + 58 x_38_ * x_12_ + 68 x_18_ * x_17_ + 94 x_19_ * x_17_ - 88 x_19_ * x_18_ + 20 x_38_ * x_18_ + 8 x_38_ * x_21_ ] <= 14309
quadratic_ranged_10_ub: [ 68 x_44_ * x_2_ + 54 x_15_ * x_13_ - 22 x_15_ ^ 2 - 18 x_25_ * x_15_ - 48 x_26_ * x_15_ + 3 x_19_ ^ 2 + 96 x_27_ * x_19_ + 82 x_28_ * x_25_ - 70 x_27_ * x_26_ + 10 x_27_ ^ 2 ] <= -4728
quadratic_ranged_11_ub: [ 60 x_17_ * x_11_ - 44 x_44_ * x_11_ - 66 x_49_ * x_11_ + 76 x_16_ * x_15_ + 72 x_29_ * x_15_ - 54 x_30_ * x_15_ - 72 x_44_ * x_15_ - 100 x_37_ * x_16_ + 12 x_17_ ^ 2 + 52 x_44_ * x_17_ - 32 x_48_ * x_17_ - 32 x_46_ * x_21_ - 36 x_49_ * x_21_ - 78 x_46_ * x_29_ - 4 x_49_ * x_29_ + 35 x_46_ ^ 2 ] <= 3222
quadratic_ranged_12_ub: [ -74 x_10_ * x_2_ + 66 x_24_ * x_3_ + 16 x_29_ * x_19_ + 36 x_29_ * x_24_ + 29 x_29_ ^ 2 - 62 x_41_ * x_29_ ] <= -3610
quadratic_ranged_13_ub: [ -34 x_1_ ^ 2 + 34 x_4_ * x_1_ ] <= -2446
quadratic_ranged_14_ub: [ 78 x_8_ * x_24_ + 80 x_29_ * x_24_ + 78 x_29_ * x_25_ - 32 x_35_ * x_29_ ] <= 3038
quadratic_ranged_15_ub: [ 27 x_2_ ^ 2 - 56 x_4_ * x_2_ + 86 x_24_ * x_2_ - 60 x_13_ * x_9_ + 30 x_34_ * x_9_ + 26 x_20_ * x_13_ + 48 x_28_ * x_13_ + 78 x_24_ * x_20_ + 92 x_28_ * x_20_ - 46 x_28_ ^ 2 + 94 x_33_ * x_28_ ] <= 3272
quadratic_ranged_16_ub: [ 12 x_25_ * x_3_ + 48 x_24_ * x_17_ + 20 x_48_ * x_21_ + 22 x_24_ ^ 2 + 38 x_36_ * x_24_ - 35 x_33_ ^ 2 + 34 x_37_ * x_33_ - 13 x_36_ ^ 2 - 8 x_37_ ^ 2 ] <= -1101
quadratic_ranged_17_ub: [ -88 x_4_ * x_1_ + 42 x_25_ * x_1_ + 98 x_27_ * x_1_ - 10 x_48_ * x_1_ - 64 x_25_ * x_4_ - 80 x_38_ * x_13_ + 10 x_43_ * x_13_ - 37 x_16_ ^ 2 + 12 x_43_ * x_16_ - 96 x_31_ * x_19_ - 38 x_33_ * x_19_ + 94 x_39_ * x_19_ + 26 x_45_ * x_19_ - 31 x_21_ ^ 2 + 60 x_38_ * x_21_ + 16 x_43_ * x_21_ - 26 x_47_ * x_21_ + 40 x_38_ * x_25_ - 35 x_31_ ^ 2 + 78 x_45_ * x_38_ + 4 x_48_ * x_39_ ] <= -2888
quadratic_ranged_18_ub: [ -30 x_30_ * x_5_ - 12 x_11_ ^ 2 + 6 x_30_ * x_11_ - 50 x_31_ * x_11_ + 10 x_31_ * x_17_ - 30 x_40_ * x_17_ - 52 x_22_ * x_21_ - 74 x_39_ * x_22_ + 66 x_50_ * x_39_ - 66 x_42_ * x_40_ - 74 x_46_ * x_40_ ] <= 13855
quadratic_ranged_19_ub: [ -78 x_43_ * x_2_ + 38 x_9_ ^ 2 + 86 x_44_ * x_9_ - 36 x_44_ * x_18_ + 82 x_48_ * x_18_ + 78 x_48_ * x_23_ - 52 x_49_ * x_23_ + 94 x_49_ * x_29_ - 38 x_44_ * x_40_ - 56 x_44_ * x_43_ + 72 x_48_ * x_44_ - 34 x_49_ * x_48_ ] <= -25291
quadratic_ranged_20_ub: [ -58 x_30_ * x_2_ + 2 x_41_ * x_2_ - 70 x_33_ * x_7_ + 26 x_36_ * x_7_ + 38 x_36_ * x_19_ + 40 x_41_ * x_19_ - 20 x_30_ ^ 2 - 88 x_32_ * x_30_ - 30 x_33_ * x_32_ ] <= 5713
quadratic_ranged_21_ub: [ 58 x_11_ * x_10_ + 16 x_46_ * x_10_ - 37 x_11_ ^ 2 + 4 x_37_ * x_25_ + 56 x_48_ * x_46_ ] <= 3250
quadratic_ranged_22_ub: [ -68 x_43_ * x_7_ - 98 x_46_ * x_7_ - 12 x_48_ * x_7_ - 96 x_50_ * x_7_ - 36 x_11_ * x_8_ + 2 x_27_ * x_8_ - 98 x_33_ * x_8_ + 50 x_24_ * x_11_ + 68 x_43_ * x_11_ + 18 x_14_ ^ 2 + 88 x_24_ * x_14_ + 40 x_27_ * x_14_ + 44 x_41_ * x_14_ - 78 x_27_ * x_22_ + 30 x_27_ * x_24_ - 54 x_30_ * x_24_ - 16 x_33_ * x_24_ - 90 x_46_ * x_27_ - 96 x_48_ * x_27_ - 2 x_41_ * x_30_ - 34 x_33_ ^ 2 - 18 x_41_ * x_33_ + 26 x_43_ * x_33_ ] <= 1878
quadratic_ranged_23_ub: [ -62 x_7_ * x_4_ - 78 x_42_ * x_4_ - 26 x_12_ * x_5_ - 94 x_24_ * x_5_ - 64 x_26_ * x_7_ - 36 x_12_ ^ 2 + 100 x_31_ * x_12_ + 78 x_32_ * x_12_ + 86 x_44_ * x_12_ - 92 x_31_ * x_20_ - 74 x_31_ * x_24_ - 82 x_44_ * x_24_ - 3 x_26_ ^ 2 - 41 x_31_ ^ 2 - 33 x_32_ ^ 2 - 22 x_42_ ^ 2 - 4 x_44_ ^ 2 ] <= -698
quadratic_ranged_24_ub: [ -4 x_19_ * x_1_ + 46 x_35_ * x_1_ + 25 x_8_ ^ 2 - 44 x_13_ * x_8_ + 84 x_23_ * x_8_ - 38 x_36_ * x_8_ + 60 x_23_ * x_13_ - 76 x_35_ * x_13_ + 62 x_36_ * x_13_ - 72 x_39_ * x_13_ - 78 x_39_ * x_19_ - 13 x_32_ ^ 2 - 32 x_35_ * x_32_ + 76 x_39_ * x_32_ - 26 x_35_ ^ 2 + 98 x_39_ * x_36_ - 72 x_49_ * x_36_ - 27 x_49_ ^ 2 ] <= -2414
quadratic_ranged_25_ub: [ 66 x_19_ * x_3_ + 72 x_28_ * x_3_ + 15 x_8_ ^ 2 - 38 x_11_ ^ 2 + 24 x_34_ * x_19_ ] <= -156
quadratic_ranged_26_ub: [ -100 x_7_ * x_1_ + 40 x_24_ * x_1_ + 38 x_33_ * x_1_ - 20 x_5_ ^ 2 + 44 x_30_ * x_5_ + 40 x_48_ * x_7_ - 72 x_28_ * x_24_ - 46 x_47_ * x_24_ - 92 x_38_ * x_28_ + 38 x_45_ * x_28_ - 50 x_48_ * x_30_ + 28 x_33_ ^ 2 + 92 x_38_ * x_33_ + 35 x_38_ ^ 2 - 30 x_47_ * x_38_ - 80 x_47_ * x_45_ ] <= 5765
quadratic_ranged_27_ub: [ 12 x_23_ * x_1_ - 8 x_5_ ^ 2 + 4 x_12_ * x_5_ + 62 x_18_ * x_5_ - 94 x_21_ * x_5_ + 6 x_49_ * x_5_ - 36 x_50_ * x_5_ - 78 x_12_ * x_6_ + 72 x_21_ * x_6_ - 80 x_46_ * x_6_ + 82 x_49_ * x_6_ + 76 x_21_ * x_8_ + 56 x_46_ * x_8_ + 36 x_49_ * x_8_ + 82 x_23_ * x_9_ - 68 x_43_ * x_12_ - 64 x_49_ * x_12_ - 50 x_21_ * x_17_ + 100 x_43_ * x_17_ - 22 x_21_ * x_18_ + 2 x_46_ * x_18_ - 60 x_46_ * x_21_ - 80 x_50_ * x_21_ - 86 x_50_ * x_26_ - 7 x_43_ ^ 2 - 58 x_49_ * x_43_ - 30 x_50_ * x_49_ ] <= 6243
quadratic_ranged_28_ub: [ 28 x_5_ * x_4_ + 40 x_14_ * x_4_ + 70 x_26_ * x_4_ - 24 x_14_ * x_5_ + 26 x_30_ * x_5_ - 2 x_49_ * x_5_ - 62 x_25_ * x_14_ - 80 x_34_ * x_14_ - 6 x_30_ * x_26_ - 98 x_34_ * x_26_ + 30 x_36_ * x_26_ - 52 x_49_ * x_26_ - 14 x_34_ ^ 2 + 34 x_44_ * x_34_ - 70 x_40_ * x_36_ + 60 x_49_ * x_36_ + 38 x_44_ ^ 2 ] <= -1390
quadratic_ranged_29_ub: [ 70 x_4_ * x_2_ - 82 x_10_ * x_2_ - 42 x_17_ * x_2_ - 70 x_41_ * x_2_ - 50 x_27_ * x_4_ - 22 x_50_ * x_10_ - 6 x_14_ ^ 2 - 4 x_28_ * x_14_ + 4 x_43_ * x_14_ - 64 x_23_ * x_17_ + 78 x_28_ * x_17_ - 56 x_41_ * x_17_ + 76 x_50_ * x_17_ + 86 x_43_ * x_23_ + 18 x_25_ ^ 2 - 74 x_41_ * x_25_ + 28 x_43_ * x_25_ + 16 x_43_ * x_41_ - 5 x_50_ ^ 2 ] <= -6956
quadratic_ranged_30_ub: [ 24 x_13_ * x_4_ + 42 x_12_ ^ 2 + 24 x_40_ * x_12_ + 70 x_22_ * x_13_ - 72 x_22_ * x_20_ - 64 x_29_ * x_22_ + 82 x_42_ * x_24_ + 10 x_44_ * x_24_ - 42 x_30_ * x_26_ + 22 x_30_ * x_29_ + 76 x_42_ * x_30_ ] <= 549
quadratic_ranged_31_ub: [ -72 x_5_ * x_17_ - 36 x_28_ * x_5_ + 64 x_23_ * x_17_ - 80 x_50_ * x_17_ - 82 x_49_ * x_20_ + 74 x_28_ * x_21_ - 36 x_50_ * x_21_ - 60 x_50_ * x_49_ ] <= 421
quadratic_ranged_32_ub: [ 100 x_22_ * x_1_ - 100 x_9_ * x_3_ - 70 x_28_ * x_3_ - 34 x_33_ * x_3_ + 68 x_8_ * x_5_ - 28 x_18_ * x_5_ - 42 x_8_ ^ 2 + 78 x_18_ * x_8_ + 16 x_28_ * x_8_ - 34 x_9_ ^ 2 + 48 x_12_ * x_9_ + 74 x_22_ * x_9_ - 20 x_18_ * x_12_ - 18 x_21_ * x_12_ + 2 x_18_ * x_16_ - 34 x_18_ ^ 2 - 62 x_23_ * x_18_ + 94 x_28_ * x_18_ - 86 x_28_ * x_21_ + 80 x_28_ * x_22_ + 20 x_33_ * x_22_ + 40 x_28_ * x_23_ - 26 x_28_ ^ 2 + 16 x_33_ * x_28_ ] <= 1144
quadratic_ranged_33_ub: [ 14 x_33_ * x_24_ - 44 x_44_ * x_24_ - 30 x_42_ * x_25_ + 58 x_44_ * x_25_ + 31 x_42_ ^ 2 ] <= 1606
quadratic_ranged_34_ub: [ 54 x_40_ * x_3_ - 76 x_50_ * x_3_ + 33 x_9_ ^ 2 + 24 x_48_ * x_9_ + 24 x_34_ * x_11_ - 4 x_49_ * x_11_ + 40 x_39_ * x_20_ - 98 x_48_ * x_20_ + 6 x_31_ ^ 2 - 7 x_39_ ^ 2 + 58 x_49_ * x_48_ ] <= 2733
quadratic_ranged_35_ub: [ -66 x_12_ * x_9_ + 76 x_20_ * x_9_ - 8 x_20_ * x_11_ + 10 x_25_ * x_11_ + 24 x_30_ * x_19_ + 43 x_20_ ^ 2 - 43 x_30_ ^ 2 ] <= -399
quadratic_ranged_36_ub: [ 86 x_39_ * x_4_ + 10 x_49_ * x_4_ + 10 x_17_ * x_7_ - 34 x_28_ * x_7_ + 78 x_39_ * x_7_ - 22 x_49_ * x_7_ - 29 x_11_ ^ 2 + 36 x_14_ * x_11_ - 84 x_17_ * x_11_ - 10 x_24_ * x_11_ - 44 x_14_ ^ 2 + 18 x_17_ * x_14_ + 58 x_23_ * x_14_ + 32 x_28_ * x_14_ - 34 x_15_ ^ 2 + 56 x_28_ * x_15_ + 66 x_23_ * x_16_ + 38 x_23_ * x_17_ ] <= 7451
quadratic_ranged_37_ub: [ 60 x_25_ * x_4_ + 35 x_5_ ^ 2 - 92 x_23_ * x_5_ - 60 x_25_ * x_5_ + 78 x_27_ * x_5_ - 44 x_40_ * x_5_ - 8 x_25_ * x_15_ + 94 x_27_ * x_15_ - 34 x_33_ * x_23_ + 4 x_47_ * x_23_ - 58 x_33_ * x_25_ + 36 x_33_ * x_27_ + 16 x_50_ ^ 2 ] <= -3100
quadratic_ranged_38_ub: [ -36 x_20_ * x_6_ + 82 x_38_ * x_6_ + 28 x_14_ ^ 2 - 76 x_43_ * x_19_ - 70 x_30_ * x_20_ - 4 x_43_ * x_20_ + 34 x_44_ * x_20_ + 96 x_43_ * x_26_ + 62 x_38_ * x_30_ + 11 x_38_ ^ 2 - 84 x_43_ * x_38_ ] <= 3646
quadratic_ranged_39_ub: [ -30 x_10_ * x_5_ + 52 x_18_ * x_5_ + 16 x_10_ * x_7_ + 84 x_22_ * x_7_ + 40 x_27_ * x_7_ + 40 x_17_ * x_10_ + 72 x_22_ * x_17_ - 28 x_27_ * x_17_ + 38 x_22_ ^ 2 ] <= 4113
quadratic_ranged_40_ub: [ 34 x_12_ * x_5_ + 84 x_40_ * x_5_ + 22 x_9_ ^ 2 + 4 x_49_ * x_9_ + 66 x_40_ * x_36_ - 38 x_47_ * x_36_ - 42 x_49_ * x_38_ - 76 x_49_ * x_40_ - 80 x_47_ * x_46_ ] <= 6552
quadratic_ranged_41_ub: [ -100 x_2_ * x_3_ + 84 x_10_ * x_2_ + 8 x_30_ * x_2_ + 68 x_20_ * x_3_ - 86 x_30_ * x_3_ + 58 x_17_ * x_6_ - 46 x_30_ * x_6_ + 86 x_31_ * x_6_ - 60 x_36_ * x_6_ - 24 x_31_ * x_10_ - 50 x_20_ * x_17_ - 80 x_36_ * x_17_ + 92 x_36_ * x_31_ ] <= 4311
quadratic_ranged_42_ub: [ 6 x_33_ * x_3_ - 58 x_35_ * x_3_ - 66 x_43_ * x_3_ - 90 x_35_ * x_7_ + 10 x_42_ * x_7_ - 100 x_46_ * x_7_ + 64 x_27_ * x_10_ - 34 x_32_ * x_10_ + 46 x_35_ * x_27_ - 72 x_43_ * x_27_ - 6 x_37_ * x_32_ + 86 x_43_ * x_33_ - 36 x_46_ * x_33_ + 50 x_35_ ^ 2 - 88 x_43_ * x_42_ - 76 x_46_ * x_43_ ] <= 6350
quadratic_ranged_1_lb: [ 98 x_17_ * x_2_ - 30 x_20_ * x_2_ - 76 x_38_ * x_2_ + 34 x_44_ * x_2_ - 50 x_7_ * x_6_ - 98 x_17_ * x_6_ + 78 x_20_ * x_6_ + 56 x_17_ * x_7_ + 66 x_38_ * x_7_ - 4 x_50_ * x_13_ + 88 x_36_ * x_17_ - 35 x_19_ ^ 2 + 62 x_20_ * x_19_ + 56 x_27_ * x_19_ - 74 x_38_ * x_19_ + 58 x_44_ * x_19_ - 14 x_27_ * x_20_ - 32 x_38_ * x_36_ - 18 x_38_ ^ 2 + 38 x_42_ * x_40_ + 24 x_44_ * x_40_ - 3 x_44_ ^ 2 ] >= -2112
quadratic_ranged_2_lb: [ -6 x_20_ * x_1_ - 68 x_26_ * x_1_ - 48 x_39_ * x_1_ + 46 x_18_ * x_5_ + 10 x_39_ * x_5_ - 42 x_20_ ^ 2 - 92 x_39_ * x_20_ + 66 x_39_ * x_22_ + 70 x_47_ * x_22_ + 36 x_26_ ^ 2 + 96 x_40_ * x_39_ - 88 x_45_ * x_40_ + 40 x_47_ ^ 2 ] >= 1305
quadratic_ranged_3_lb: [ 10 x_7_ ^ 2 - 64 x_12_ * x_7_ - 2 x_22_ * x_7_ + 80 x_39_ * x_7_ + 50 x_39_ * x_18_ + 22 x_39_ * x_22_ - 72 x_46_ * x_22_ + 94 x_36_ * x_23_ - 50 x_46_ * x_23_ + 35 x_46_ ^ 2 ] >= 5310
quadratic_ranged_4_lb: [ 18 x_7_ ^ 2 + 90 x_16_ * x_7_ - 62 x_20_ * x_7_ + 12 x_21_ * x_7_ + 86 x_20_ * x_16_ + 50 x_41_ * x_21_ + 90 x_42_ * x_21_ - 41 x_29_ ^ 2 + 32 x_42_ * x_29_ ] >= 11137
quadratic_ranged_5_lb: [ 74 x_37_ * x_17_ + 40 x_37_ * x_18_ + 28 x_45_ * x_18_ + 16 x_37_ * x_30_ - 18 x_45_ * x_30_ - 52 x_45_ * x_35_ + 2 x_47_ * x_35_ + 64 x_40_ * x_37_ + 26 x_42_ ^ 2 + 84 x_45_ * x_42_ - 10 x_45_ ^ 2 - 18 x_47_ ^ 2 ] >= 12430
quadratic_ranged_6_lb: [ -12 x_1_ ^ 2 - 14 x_30_ * x_1_ - 68 x_40_ * x_8_ - 22 x_43_ * x_8_ - 6 x_30_ * x_11_ - 98 x_30_ * x_12_ + 78 x_40_ * x_12_ + 90 x_42_ * x_29_ - 86 x_42_ * x_40_ ] >= 6926
quadratic_ranged_7_lb: [ 32 x_11_ * x_8_ + 14 x_34_ * x_20_ - 78 x_46_ * x_20_ - 32 x_46_ * x_34_ - 5 x_37_ ^ 2 ] >= -707
quadratic_ranged_8_lb: [ -16 x_44_ * x_20_ + 60 x_44_ * x_23_ - 28 x_44_ ^ 2 - 44 x_47_ ^ 2 ] >= -748
quadratic_ranged_9_lb: [ -16 x_5_ * x_18_ - 14 x_21_ * x_5_ - 96 x_19_ * x_12_ - 44 x_21_ * x_12_ + 58 x_38_ * x_12_ + 68 x_18_ * x_17_ + 94 x_19_ * x_17_ - 88 x_19_ * x_18_ + 20 x_38_ * x_18_ + 8 x_38_ * x_21_ ] >= 14302
quadratic_ranged_10_lb: [ 68 x_44_ * x_2_ + 54 x_15_ * x_13_ - 22 x_15_ ^ 2 - 18 x_25_ * x_15_ - 48 x_26_ * x_15_ + 3 x_19_ ^ 2 + 96 x_27_ * x_19_ + 82 x_28_ * x_25_ - 70 x_27_ * x_26_ + 10 x_27_ ^ 2 ] >= -4732
quadratic_ranged_11_lb: [ 60 x_17_ * x_11_ - 44 x_44_ * x_11_ - 66 x_49_ * x_11_ + 76 x_16_ * x_15_ + 72 x_29_ * x_15_ - 54 x_30_ * x_15_ - 72 x_44_ * x_15_ - 100 x_37_ * x_16_ + 12 x_17_ ^ 2 + 52 x_44_ * x_17_ - 32 x_48_ * x_17_ - 32 x_46_ * x_21_ - 36 x_49_ * x_21_ - 78 x_46_ * x_29_ - 4 x_49_ * x_29_ + 35 x_46_ ^ 2 ] >= 3216
quadratic_ranged_12_lb: [ -74 x_10_ * x_2_ + 66 x_24_ * x_3_ + 16 x_29_ * x_19_ + 36 x_29_ * x_24_ + 29 x_29_ ^ 2 - 62 x_41_ * x_29_ ] >= -3612
quadratic_ranged_13_lb: [ -34 x_1_ ^ 2 + 34 x_4_ * x_1_ ] >= -2448
quadratic_ranged_14_lb: [ 78 x_8_ * x_24_ + 80 x_29_ * x_24_ + 78 x_29_ * x_25_ - 32 x_35_ * x_29_ ] >= 3034
quadratic_ranged_15_lb: [ 27 x_2_ ^ 2 - 56 x_4_ * x_2_ + 86 x_24_ * x_2_ - 60 x_13_ * x_9_ + 30 x_34_ * x_9_ + 26 x_20_ * x_13_ + 48 x_28_ * x_13_ + 78 x_24_ * x_20_ + 92 x_28_ * x_20_ - 46 x_28_ ^ 2 + 94 x_33_ * x_28_ ] >= 3266
quadratic_ranged_16_lb: [ 12 x_25_ * x_3_ + 48 x_24_ * x_17_ + 20 x_48_ * x_21_ + 22 x_24_ ^ 2 + 38 x_36_ * x_24_ - 35 x_33_ ^ 2 + 34 x_37_ * x_33_ - 13 x_36_ ^ 2 - 8 x_37_ ^ 2 ] >= -1109
quadratic_ranged_17_lb: [ -88 x_4_ * x_1_ + 42 x_25_ * x_1_ + 98 x_27_ * x_1_ - 10 x_48_ * x_1_ - 64 x_25_ * x_4_ - 80 x_38_ * x_13_ + 10 x_43_ * x_13_ - 37 x_16_ ^ 2 + 12 x_43_ * x_16_ - 96 x_31_ * x_19_ - 38 x_33_ * x_19_ + 94 x_39_ * x_19_ + 26 x_45_ * x_19_ - 31 x_21_ ^ 2 + 60 x_38_ * x_21_ + 16 x_43_ * x_21_ - 26 x_47_ * x_21_ + 40 x_38_ * x_25_ - 35 x_31_ ^ 2 + 78 x_45_ * x_38_ + 4 x_48_ * x_39_ ] >= -2893
quadratic_ranged_18_lb: [ -30 x_30_ * x_5_ - 12 x_11_ ^ 2 + 6 x_30_ * x_11_ - 50 x_31_ * x_11_ + 10 x_31_ * x_17_ - 30 x_40_ * x_17_ - 52 x_22_ * x_21_ - 74 x_39_ * x_22_ + 66 x_50_ * x_39_ - 66 x_42_ * x_40_ - 74 x_46_ * x_40_ ] >= 13848
quadratic_ranged_19_lb: [ -78 x_43_ * x_2_ + 38 x_9_ ^ 2 + 86 x_44_ * x_9_ - 36 x_44_ * x_18_ + 82 x_48_ * x_18_ + 78 x_48_ * x_23_ - 52 x_49_ * x_23_ + 94 x_49_ * x_29_ - 38 x_44_ * x_40_ - 56 x_44_ * x_43_ + 72 x_48_ * x_44_ - 34 x_49_ * x_48_ ] >= -25294
quadratic_ranged_20_lb: [ -58 x_30_ * x_2_ + 2 x_41_ * x_2_ - 70 x_33_ * x_7_ + 26 x_36_ * x_7_ + 38 x_36_ * x_19_ + 40 x_41_ * x_19_ - 20 x_30_ ^ 2 - 88 x_32_ * x_30_ - 30 x_33_ * x_32_ ] >= 5707
quadratic_ranged_21_lb: [ 58 x_11_ * x_10_ + 16 x_46_ * x_10_ - 37 x_11_ ^ 2 + 4 x_37_ * x_25_ + 56 x_48_ * x_46_ ] >= 3245
quadratic_ranged_22_lb: [ -68 x_43_ * x_7_ - 98 x_46_ * x_7_ - 12 x_48_ * x_7_ - 96 x_50_ * x_7_ - 36 x_11_ * x_8_ + 2 x_27_ * x_8_ - 98 x_33_ * x_8_ + 50 x_24_ * x_11_ + 68 x_43_ * x_11_ + 18 x_14_ ^ 2 + 88 x_24_ * x_14_ + 40 x_27_ * x_14_ + 44 x_41_ * x_14_ - 78 x_27_ * x_22_ + 30 x_27_ * x_24_ - 54 x_30_ * x_24_ - 16 x_33_ * x_24_ - 90 x_46_ * x_27_ - 96 x_48_ * x_27_ - 2 x_41_ * x_30_ - 34 x_33_ ^ 2 - 18 x_41_ * x_33_ + 26 x_43_ * x_33_ ] >= 1874
quadratic_ranged_23_lb: [ -62 x_7_ * x_4_ - 78 x_42_ * x_4_ - 26 x_12_ * x_5_ - 94 x_24_ * x_5_ - 64 x_26_ * x_7_ - 36 x_12_ ^ 2 + 100 x_31_ * x_12_ + 78 x_32_ * x_12_ + 86 x_44_ * x_12_ - 92 x_31_ * x_20_ - 74 x_31_ * x_24_ - 82 x_44_ * x_24_ - 3 x_26_ ^ 2 - 41 x_31_ ^ 2 - 33 x_32_ ^ 2 - 22 x_42_ ^ 2 - 4 x_44_ ^ 2 ] >= -704
quadratic_ranged_24_lb: [ -4 x_19_ * x_1_ + 46 x_35_ * x_1_ + 25 x_8_ ^ 2 - 44 x_13_ * x_8_ + 84 x_23_ * x_8_ - 38 x_36_ * x_8_ + 60 x_23_ * x_13_ - 76 x_35_ * x_13_ + 62 x_36_ * x_13_ - 72 x_39_ * x_13_ - 78 x_39_ * x_19_ - 13 x_32_ ^ 2 - 32 x_35_ * x_32_ + 76 x_39_ * x_32_ - 26 x_35_ ^ 2 + 98 x_39_ * x_36_ - 72 x_49_ * x_36_ - 27 x_49_ ^ 2 ] >= -2416
quadratic_ranged_25_lb: [ 66 x_19_ * x_3_ + 72 x_28_ * x_3_ + 15 x_8_ ^ 2 - 38 x_11_ ^ 2 + 24 x_34_ * x_19_ ] >= -163
quadratic_ranged_26_lb: [ -100 x_7_ * x_1_ + 40 x_24_ * x_1_ + 38 x_33_ * x_1_ - 20 x_5_ ^ 2 + 44 x_30_ * x_5_ + 40 x_48_ * x_7_ - 72 x_28_ * x_24_ - 46 x_47_ * x_24_ - 92 x_38_ * x_28_ + 38 x_45_ * x_28_ - 50 x_48_ * x_30_ + 28 x_33_ ^ 2 + 92 x_38_ * x_33_ + 35 x_38_ ^ 2 - 30 x_47_ * x_38_ - 80 x_47_ * x_45_ ] >= 5763
quadratic_ranged_27_lb: [ 12 x_23_ * x_1_ - 8 x_5_ ^ 2 + 4 x_12_ * x_5_ + 62 x_18_ * x_5_ - 94 x_21_ * x_5_ + 6 x_49_ * x_5_ - 36 x_50_ * x_5_ - 78 x_12_ * x_6_ + 72 x_21_ * x_6_ - 80 x_46_ * x_6_ + 82 x_49_ * x_6_ + 76 x_21_ * x_8_ + 56 x_46_ * x_8_ + 36 x_49_ * x_8_ + 82 x_23_ * x_9_ - 68 x_43_ * x_12_ - 64 x_49_ * x_12_ - 50 x_21_ * x_17_ + 100 x_43_ * x_17_ - 22 x_21_ * x_18_ + 2 x_46_ * x_18_ - 60 x_46_ * x_21_ - 80 x_50_ * x_21_ - 86 x_50_ * x_26_ - 7 x_43_ ^ 2 - 58 x_49_ * x_43_ - 30 x_50_ * x_49_ ] >= 6238
quadratic_ranged_28_lb: [ 28 x_5_ * x_4_ + 40 x_14_ * x_4_ + 70 x_26_ * x_4_ - 24 x_14_ * x_5_ + 26 x_30_ * x_5_ - 2 x_49_ * x_5_ - 62 x_25_ * x_14_ - 80 x_34_ * x_14_ - 6 x_30_ * x_26_ - 98 x_34_ * x_26_ + 30 x_36_ * x_26_ - 52 x_49_ * x_26_ - 14 x_34_ ^ 2 + 34 x_44_ * x_34_ - 70 x_40_ * x_36_ + 60 x_49_ * x_36_ + 38 x_44_ ^ 2 ] >= -1394
quadratic_ranged_29_lb: [ 70 x_4_ * x_2_ - 82 x_10_ * x_2_ - 42 x_17_ * x_2_ - 70 x_41_ * x_2_ - 50 x_27_ * x_4_ - 22 x_50_ * x_10_ - 6 x_14_ ^ 2 - 4 x_28_ * x_14_ + 4 x_43_ * x_14_ - 64 x_23_ * x_17_ + 78 x_28_ * x_17_ - 56 x_41_ * x_17_ + 76 x_50_ * x_17_ + 86 x_43_ * x_23_ + 18 x_25_ ^ 2 - 74 x_41_ * x_25_ + 28 x_43_ * x_25_ + 16 x_43_ * x_41_ - 5 x_50_ ^ 2 ] >= -6959
quadratic_ranged_30_lb: [ 24 x_13_ * x_4_ + 42 x_12_ ^ 2 + 24 x_40_ * x_12_ + 70 x_22_ * x_13_ - 72 x_22_ * x_20_ - 64 x_29_ * x_22_ + 82 x_42_ * x_24_ + 10 x_44_ * x_24_ - 42 x_30_ * x_26_ + 22 x_30_ * x_29_ + 76 x_42_ * x_30_ ] >= 541
quadratic_ranged_31_lb: [ -72 x_5_ * x_17_ - 36 x_28_ * x_5_ + 64 x_23_ * x_17_ - 80 x_50_ * x_17_ - 82 x_49_ * x_20_ + 74 x_28_ * x_21_ - 36 x_50_ * x_21_ - 60 x_50_ * x_49_ ] >= 414
quadratic_ranged_32_lb: [ 100 x_22_ * x_1_ - 100 x_9_ * x_3_ - 70 x_28_ * x_3_ - 34 x_33_ * x_3_ + 68 x_8_ * x_5_ - 28 x_18_ * x_5_ - 42 x_8_ ^ 2 + 78 x_18_ * x_8_ + 16 x_28_ * x_8_ - 34 x_9_ ^ 2 + 48 x_12_ * x_9_ + 74 x_22_ * x_9_ - 20 x_18_ * x_12_ - 18 x_21_ * x_12_ + 2 x_18_ * x_16_ - 34 x_18_ ^ 2 - 62 x_23_ * x_18_ + 94 x_28_ * x_18_ - 86 x_28_ * x_21_ + 80 x_28_ * x_22_ + 20 x_33_ * x_22_ + 40 x_28_ * x_23_ - 26 x_28_ ^ 2 + 16 x_33_ * x_28_ ] >= 1138
quadratic_ranged_33_lb: [ 14 x_33_ * x_24_ - 44 x_44_ * x_24_ - 30 x_42_ * x_25_ + 58 x_44_ * x_25_ + 31 x_42_ ^ 2 ] >= 1603
quadratic_ranged_34_lb: [ 54 x_40_ * x_3_ - 76 x_50_ * x_3_ + 33 x_9_ ^ 2 + 24 x_48_ * x_9_ + 24 x_34_ * x_11_ - 4 x_49_ * x_11_ + 40 x_39_ * x_20_ - 98 x_48_ * x_20_ + 6 x_31_ ^ 2 - 7 x_39_ ^ 2 + 58 x_49_ * x_48_ ] >= 2729
quadratic_ranged_35_lb: [ -66 x_12_ * x_9_ + 76 x_20_ * x_9_ - 8 x_20_ * x_11_ + 10 x_25_ * x_11_ + 24 x_30_ * x_19_ + 43 x_20_ ^ 2 - 43 x_30_ ^ 2 ] >= -404
quadratic_ranged_36_lb: [ 86 x_39_ * x_4_ + 10 x_49_ * x_4_ + 10 x_17_ * x_7_ - 34 x_28_ * x_7_ + 78 x_39_ * x_7_ - 22 x_49_ * x_7_ - 29 x_11_ ^ 2 + 36 x_14_ * x_11_ - 84 x_17_ * x_11_ - 10 x_24_ * x_11_ - 44 x_14_ ^ 2 + 18 x_17_ * x_14_ + 58 x_23_ * x_14_ + 32 x_28_ * x_14_ - 34 x_15_ ^ 2 + 56 x_28_ * x_15_ + 66 x_23_ * x_16_ + 38 x_23_ * x_17_ ] >= 7449
quadratic_ranged_37_lb: [ 60 x_25_ * x_4_ + 35 x_5_ ^ 2 - 92 x_23_ * x_5_ - 60 x_25_ * x_5_ + 78 x_27_ * x_5_ - 44 x_40_ * x_5_ - 8 x_25_ * x_15_ + 94 x_27_ * x_15_ - 34 x_33_ * x_23_ + 4 x_47_ * x_23_ - 58 x_33_ * x_25_ + 36 x_33_ * x_27_ + 16 x_50_ ^ 2 ] >= -3107
quadratic_ranged_38_lb: [ -36 x_20_ * x_6_ + 82 x_38_ * x_6_ + 28 x_14_ ^ 2 - 76 x_43_ * x_19_ - 70 x_30_ * x_20_ - 4 x_43_ * x_20_ + 34 x_44_ * x_20_ + 96 x_43_ * x_26_ + 62 x_38_ * x_30_ + 11 x_38_ ^ 2 - 84 x_43_ * x_38_ ] >= 3641
quadratic_ranged_39_lb: [ -30 x_10_ * x_5_ + 52 x_18_ * x_5_ + 16 x_10_ * x_7_ + 84 x_22_ * x_7_ + 40 x_27_ * x_7_ + 40 x_17_ * x_10_ + 72 x_22_ * x_17_ - 28 x_27_ * x_17_ + 38 x_22_ ^ 2 ] >= 4107
quadratic_ranged_40_lb: [ 34 x_12_ * x_5_ + 84 x_40_ * x_5_ + 22 x_9_ ^ 2 + 4 x_49_ * x_9_ + 66 x_40_ * x_36_ - 38 x_47_ * x_36_ - 42 x_49_ * x_38_ - 76 x_49_ * x_40_ - 80 x_47_ * x_46_ ] >= 6549
quadratic_ranged_41_lb: [ -100 x_2_ * x_3_ + 84 x_10_ * x_2_ + 8 x_30_ * x_2_ + 68 x_20_ * x_3_ - 86 x_30_ * x_3_ + 58 x_17_ * x_6_ - 46 x_30_ * x_6_ + 86 x_31_ * x_6_ - 60 x_36_ * x_6_ - 24 x_31_ * x_10_ - 50 x_20_ * x_17_ - 80 x_36_ * x_17_ + 92 x_36_ * x_31_ ] >= 4305
quadratic_ranged_42_lb: [ 6 x_33_ * x_3_ - 58 x_35_ * x_3_ - 66 x_43_ * x_3_ - 90 x_35_ * x_7_ + 10 x_42_ * x_7_ - 100 x_46_ * x_7_ + 64 x_27_ * x_10_ - 34 x_32_ * x_10_ + 46 x_35_ * x_27_ - 72 x_43_ * x_27_ - 6 x_37_ * x_32_ + 86 x_43_ * x_33_ - 36 x_46_ * x_33_ + 50 x_35_ ^ 2 - 88 x_43_ * x_42_ - 76 x_46_ * x_43_ ] >= 6347
c1: [ 40 x_48_ * x_1_ - 62 x_49_ * x_13_ - 32 x_21_ * x_19_ + 78 x_22_ * x_19_ - 6 x_35_ * x_19_ - 100 x_37_ * x_19_ - 4 x_48_ * x_21_ - 41 x_22_ ^ 2 + 80 x_35_ * x_22_ + 27 x_35_ ^ 2 - 66 x_39_ * x_35_ + 58 x_49_ * x_39_ ] = -75
c2: [ 12 x_21_ * x_4_ + 2 x_27_ * x_4_ + 56 x_33_ * x_7_ + 96 x_27_ * x_13_ + 54 x_44_ * x_13_ - 38 x_37_ * x_18_ + 68 x_49_ * x_18_ + 52 x_49_ * x_33_ + 9 x_37_ ^ 2 - 23 x_49_ ^ 2 ] = 2328
c3: [ 56 x_19_ * x_14_ - 26 x_39_ * x_14_ + 54 x_43_ * x_14_ + 70 x_39_ * x_31_ - 2 x_39_ ^ 2 ] = -6284
c4: [ -32 x_30_ * x_7_ - 24 x_47_ * x_7_ - 4 x_20_ * x_8_ + 80 x_30_ * x_8_ + 54 x_29_ * x_22_ - 12 x_37_ * x_22_ + 66 x_47_ * x_22_ + 38 x_47_ * x_29_ + 46 x_48_ * x_37_ + 50 x_47_ ^ 2 ] = -1386
c5: [ -48 x_17_ * x_2_ - 28 x_17_ * x_3_ + 18 x_18_ * x_3_ + 38 x_18_ * x_6_ + 88 x_27_ * x_6_ + 50 x_31_ * x_6_ + 38 x_41_ * x_6_ - 64 x_37_ * x_17_ + 96 x_41_ * x_17_ - 18 x_33_ * x_31_ + 45 x_33_ ^ 2 + 16 x_41_ * x_37_ ] = -7750
c6: [ 52 x_12_ * x_40_ + 86 x_47_ * x_15_ + 30 x_22_ * x_19_ + 94 x_40_ * x_19_ + 48 x_47_ * x_19_ - 74 x_32_ * x_22_ - 30 x_47_ * x_22_ - 66 x_47_ * x_32_ ] = 2530
c7: [ 34 x_30_ * x_3_ + 12 x_49_ * x_8_ - 92 x_30_ * x_9_ - 46 x_49_ * x_9_ + 1 x_19_ ^ 2 + 74 x_38_ * x_19_ + 28 x_30_ * x_28_ + 26 x_49_ * x_30_ + 86 x_42_ * x_38_ - 39 x_49_ ^ 2 ] = -7465
c8: [ 26 x_24_ * x_5_ - 26 x_21_ ^ 2 + 82 x_32_ * x_21_ - 22 x_33_ * x_21_ + 64 x_35_ * x_21_ - 37 x_24_ ^ 2 - 6 x_28_ * x_24_ + 72 x_36_ * x_24_ + 92 x_33_ * x_28_ + 20 x_35_ * x_28_ - 14 x_36_ * x_32_ + 98 x_35_ * x_33_ + 16 x_45_ * x_35_ ] = -2174
c9: [ -50 x_16_ * x_6_ + 40 x_35_ * x_6_ - 64 x_25_ * x_16_ + 82 x_48_ * x_16_ - 24 x_42_ * x_29_ + 44 x_36_ * x_35_ - 56 x_48_ * x_35_ - 31 x_36_ ^ 2 - 94 x_40_ * x_36_ + 36 x_37_ ^ 2 + 82 x_40_ * x_37_ - 1 x_48_ ^ 2 ] = 4901
c10: [ -52 x_11_ * x_5_ + 96 x_11_ * x_8_ - 72 x_29_ * x_8_ - 40 x_40_ * x_8_ + 16 x_41_ * x_8_ - 78 x_49_ * x_8_ + 18 x_11_ ^ 2 + 100 x_15_ * x_12_ + 34 x_16_ * x_12_ + 4 x_29_ * x_12_ - 22 x_40_ * x_12_ + 34 x_41_ * x_12_ - 40 x_44_ * x_15_ - 60 x_49_ * x_15_ - 62 x_29_ * x_16_ - 76 x_40_ * x_16_ - 40 x_18_ ^ 2 - 14 x_29_ * x_18_ + 96 x_44_ * x_18_ - 30 x_42_ * x_29_ - 92 x_44_ * x_41_ + 1 x_42_ ^ 2 ] = 4259
c11: [ 18 x_16_ * x_12_ - 60 x_21_ * x_12_ + 48 x_37_ * x_12_ - 5 x_15_ ^ 2 - 100 x_17_ * x_15_ - 58 x_17_ * x_16_ - 8 x_43_ * x_16_ + 18 x_35_ * x_17_ - 17 x_20_ ^ 2 + 68 x_29_ * x_20_ - 86 x_47_ * x_20_ + 34 x_35_ * x_21_ - 84 x_37_ * x_21_ + 23 x_29_ ^ 2 - 30 x_40_ * x_29_ - 96 x_37_ * x_35_ + 98 x_40_ * x_37_ - 56 x_43_ * x_37_ ] = 8711
c12: [ -6 x_31_ * x_2_ + 18 x_49_ * x_2_ - 24 x_50_ * x_8_ - 32 x_50_ * x_10_ + 16 x_18_ * x_15_ - 35 x_18_ ^ 2 + 76 x_49_ * x_18_ - 44 x_31_ * x_21_ + 78 x_31_ * x_27_ + 38 x_31_ ^ 2 + 38 x_49_ * x_31_ + 11 x_39_ ^ 2 - 16 x_50_ * x_39_ ] = 7802
c13: [ -64 x_7_ * x_37_ - 52 x_31_ * x_11_ + 38 x_37_ * x_12_ ] = 5076
c14: [ 14 x_23_ * x_2_ + 42 x_39_ * x_18_ + 36 x_26_ * x_20_ - 18 x_23_ ^ 2 - 68 x_41_ * x_23_ + 72 x_41_ * x_26_ + 48 x_45_ * x_26_ + 48 x_39_ * x_30_ - 66 x_40_ * x_30_ - 50 x_45_ * x_30_ + 21 x_31_ ^ 2 + 28 x_41_ * x_31_ - 88 x_45_ * x_31_ + 20 x_39_ ^ 2 - 48 x_40_ * x_39_ + 2 x_41_ * x_39_ + 72 x_45_ * x_41_ ] = -4753
c15: [ -46 x_12_ * x_3_ + 10 x_13_ * x_3_ + 10 x_9_ * x_7_ - 4 x_50_ * x_7_ + 84 x_28_ * x_9_ - 86 x_15_ * x_12_ - 22 x_28_ * x_12_ - 82 x_41_ * x_12_ + 32 x_40_ * x_13_ - 82 x_41_ * x_13_ - 88 x_43_ * x_13_ - 100 x_50_ * x_13_ - 16 x_43_ * x_15_ + 40 x_45_ * x_15_ + 58 x_50_ * x_26_ - 94 x_45_ * x_27_ - 12 x_41_ ^ 2 + 38 x_43_ ^ 2 - 8 x_50_ * x_43_ ] = 4694
c16: [ -80 x_28_ * x_10_ - 40 x_27_ * x_18_ - 16 x_37_ * x_18_ - 80 x_40_ * x_27_ - 41 x_28_ ^ 2 + 80 x_44_ * x_37_ ] = 6068
c17: [ 48 x_11_ * x_4_ - 60 x_16_ * x_4_ - 34 x_11_ ^ 2 - 24 x_28_ * x_11_ - 90 x_34_ * x_11_ + 76 x_46_ * x_11_ + 40 x_12_ ^ 2 + 4 x_16_ * x_12_ - 78 x_28_ * x_12_ + 38 x_34_ * x_12_ + 92 x_23_ * x_16_ - 32 x_46_ * x_16_ - 2 x_34_ * x_17_ - 28 x_34_ * x_19_ - 4 x_28_ * x_23_ + 70 x_49_ * x_28_ - 6 x_29_ ^ 2 + 16 x_49_ * x_29_ - 92 x_49_ * x_46_ ] = 318
c18: [ -16 x_1_ ^ 2 + 72 x_39_ * x_4_ + 12 x_5_ ^ 2 + 44 x_40_ * x_5_ + 76 x_47_ * x_5_ - 52 x_35_ * x_7_ + 56 x_40_ * x_7_ + 90 x_34_ * x_16_ - 100 x_40_ * x_16_ + 18 x_35_ * x_18_ - 76 x_40_ * x_27_ - 86 x_44_ * x_27_ - 42 x_39_ * x_34_ + 52 x_40_ * x_34_ - 8 x_41_ * x_34_ - 30 x_35_ ^ 2 - 46 x_40_ * x_39_ - 22 x_44_ * x_40_ + 84 x_47_ * x_44_ ] = 12628
c19: [ 1 x_3_ ^ 2 - 96 x_8_ * x_3_ + 22 x_20_ * x_4_ + 32 x_44_ * x_4_ + 32 x_15_ * x_8_ + 34 x_20_ * x_8_ + 28 x_25_ * x_8_ + 68 x_50_ * x_8_ - 76 x_22_ * x_15_ - 28 x_25_ * x_22_ + 50 x_50_ * x_22_ + 56 x_44_ * x_25_ ] = -6807
c20: [ -70 x_5_ * x_1_ - 72 x_25_ * x_1_ + 34 x_26_ * x_1_ - 18 x_4_ * x_2_ - 28 x_15_ * x_2_ - 72 x_33_ * x_2_ - 94 x_37_ * x_2_ + 18 x_3_ ^ 2 - 92 x_11_ * x_3_ + 38 x_26_ * x_3_ + 6 x_11_ * x_4_ + 8 x_37_ * x_4_ - 98 x_50_ * x_4_ - 46 x_11_ * x_5_ + 42 x_33_ * x_11_ + 70 x_33_ * x_28_ - 84 x_37_ * x_28_ ] = 2710
c21: [ -8 x_1_ ^ 2 - 2 x_23_ * x_1_ - 33 x_7_ ^ 2 - 84 x_15_ * x_7_ - 22 x_38_ * x_7_ + 50 x_31_ * x_15_ + 28 x_33_ * x_23_ + 88 x_48_ * x_23_ - 78 x_38_ * x_31_ - 43 x_33_ ^ 2 - 66 x_49_ * x_33_ ] = -13226
c22: [ 92 x_10_ * x_2_ - 86 x_21_ * x_2_ - 48 x_24_ * x_2_ - 40 x_9_ * x_7_ - 100 x_11_ * x_7_ + 26 x_17_ * x_9_ + 43 x_10_ ^ 2 + 100 x_11_ * x_10_ + 52 x_21_ * x_10_ + 4 x_16_ * x_11_ + 42 x_17_ * x_11_ - 32 x_21_ * x_16_ + 6 x_25_ * x_16_ - 22 x_24_ * x_17_ - 74 x_46_ * x_17_ - 48 x_25_ * x_21_ - 24 x_31_ * x_24_ + 9 x_25_ ^ 2 - 92 x_46_ * x_25_ ] = -1181
c23: [ 66 x_21_ * x_1_ + 41 x_4_ ^ 2 - 62 x_23_ * x_4_ + 88 x_19_ * x_14_ + 92 x_23_ * x_14_ + 96 x_32_ * x_14_ + 22 x_49_ * x_14_ + 50 x_17_ ^ 2 - 16 x_25_ * x_19_ + 10 x_34_ * x_19_ - 28 x_23_ * x_21_ - 40 x_28_ * x_21_ - 24 x_23_ * x_22_ - 10 x_25_ * x_22_ + 58 x_34_ * x_22_ + 22 x_49_ * x_22_ - 37 x_34_ ^ 2 ] = 3405
c24: [ 6 x_30_ * x_2_ + 94 x_49_ * x_2_ + 18 x_31_ * x_3_ + 50 x_36_ * x_3_ + 12 x_31_ * x_23_ - 36 x_38_ * x_30_ - 37 x_31_ ^ 2 - 82 x_41_ * x_31_ + 78 x_47_ * x_38_ + 22 x_49_ * x_38_ ] = 3689
c25: [ -18 x_11_ * x_1_ + 64 x_16_ * x_1_ - 6 x_28_ * x_1_ - 84 x_44_ * x_1_ - 80 x_17_ * x_16_ + 88 x_21_ * x_16_ + 96 x_44_ * x_16_ + 10 x_43_ * x_21_ - 100 x_29_ * x_28_ + 30 x_33_ * x_28_ + 4 x_42_ * x_28_ + 52 x_44_ * x_28_ - 12 x_43_ * x_29_ + 12 x_33_ * x_30_ + 18 x_43_ ^ 2 + 5 x_44_ ^ 2 - 94 x_50_ * x_44_ ] = 5964
c26: [ -8 x_38_ * x_12_ + 74 x_39_ * x_12_ + 24 x_47_ * x_12_ - 8 x_39_ * x_18_ + 30 x_45_ * x_18_ - 32 x_39_ * x_38_ + 11 x_39_ ^ 2 - 52 x_47_ * x_39_ ] = 2913
c27: [ 17 x_4_ ^ 2 + 40 x_5_ * x_4_ - 56 x_40_ * x_4_ - 37 x_5_ ^ 2 + 64 x_7_ * x_5_ + 1 x_7_ ^ 2 + 30 x_18_ * x_7_ - 56 x_40_ * x_7_ - 68 x_40_ * x_26_ ] = -3704
c28: [ -26 x_8_ * x_10_ + 4 x_19_ * x_8_ - 40 x_32_ * x_8_ - 94 x_35_ * x_8_ - 28 x_39_ * x_8_ + 56 x_35_ * x_10_ - 28 x_19_ * x_11_ - 4 x_32_ * x_11_ - 62 x_35_ * x_11_ - 62 x_39_ * x_11_ + 20 x_35_ * x_20_ - 84 x_39_ * x_20_ - 8 x_50_ * x_20_ - 28 x_32_ * x_22_ + 38 x_50_ * x_32_ + 94 x_39_ * x_35_ ] = -340
c29: [ 33 x_5_ ^ 2 + 88 x_15_ * x_5_ - 4 x_15_ * x_13_ - 44 x_37_ * x_13_ + 58 x_39_ * x_13_ - 88 x_37_ * x_15_ + 29 x_23_ ^ 2 + 20 x_42_ * x_23_ - 68 x_42_ * x_37_ ] = 5082
c30: [ 92 x_5_ * x_4_ - 42 x_14_ * x_4_ - 88 x_20_ * x_4_ - 24 x_26_ * x_4_ + 56 x_41_ * x_4_ - 48 x_5_ ^ 2 + 26 x_26_ * x_5_ + 80 x_48_ * x_5_ - 18 x_7_ ^ 2 - 21 x_14_ ^ 2 - 62 x_18_ * x_14_ + 34 x_26_ * x_14_ + 46 x_20_ * x_16_ + 68 x_26_ * x_16_ - 32 x_48_ * x_16_ - 10 x_20_ ^ 2 + 100 x_41_ * x_26_ + 46 x_41_ * x_33_ ] = -11846
c31: [ -58 x_50_ * x_5_ - 84 x_10_ * x_7_ - 44 x_13_ * x_7_ - 36 x_34_ * x_7_ - 90 x_48_ * x_10_ + 36 x_23_ * x_12_ + 70 x_23_ * x_13_ + 2 x_48_ * x_21_ - 25 x_23_ ^ 2 - 2 x_50_ * x_34_ ] = 3014
c32: [ 58 x_44_ * x_13_ + 56 x_46_ * x_13_ - 70 x_37_ * x_18_ + 11 x_35_ ^ 2 + 25 x_41_ ^ 2 ] = -1983
c33: [ -32 x_14_ * x_1_ + 25 x_3_ ^ 2 - 80 x_14_ * x_3_ + 28 x_32_ * x_3_ + 10 x_41_ * x_3_ + 22 x_28_ * x_26_ - 96 x_32_ * x_26_ - 40 x_43_ * x_26_ - 46 x_32_ * x_27_ - 14 x_28_ ^ 2 + 84 x_42_ * x_41_ - 40 x_43_ * x_41_ + 26 x_43_ * x_42_ + 39 x_43_ ^ 2 ] = 8899
c34: [ -48 x_13_ * x_1_ - 44 x_31_ * x_1_ + 100 x_10_ * x_4_ + 49 x_8_ ^ 2 + 66 x_45_ * x_8_ - 39 x_10_ ^ 2 - 48 x_13_ * x_10_ - 62 x_45_ * x_13_ - 10 x_47_ * x_31_ + 64 x_47_ * x_38_ + 46 x_49_ * x_38_ + 34 x_45_ * x_43_ ] = 5582
c35: [ 30 x_18_ * x_5_ - 10 x_18_ * x_10_ - 46 x_48_ ^ 2 ] = -2640
c36: [ -18 x_14_ * x_3_ + 48 x_16_ * x_3_ - 80 x_37_ * x_3_ - 98 x_38_ * x_3_ - 20 x_44_ * x_3_ + 66 x_7_ * x_4_ + 36 x_16_ * x_4_ - 56 x_48_ * x_4_ + 56 x_26_ * x_5_ - 54 x_43_ * x_5_ - 12 x_14_ * x_7_ - 84 x_24_ * x_7_ + 50 x_30_ * x_7_ + 56 x_43_ * x_7_ + 36 x_26_ * x_14_ + 96 x_30_ * x_14_ - 66 x_44_ * x_14_ - 18 x_48_ * x_14_ + 84 x_38_ * x_16_ + 100 x_43_ * x_16_ + 92 x_48_ * x_16_ + 10 x_38_ * x_24_ - 70 x_43_ * x_24_ + 100 x_37_ * x_26_ + 32 x_44_ * x_26_ - 5 x_30_ ^ 2 + 44 x_48_ * x_30_ ] = -1670
c37: [ 10 x_10_ * x_6_ + 40 x_13_ * x_6_ + 40 x_9_ ^ 2 - 76 x_10_ * x_9_ - 34 x_12_ * x_10_ + 36 x_33_ * x_12_ + 16 x_13_ ^ 2 + 22 x_22_ * x_13_ + 35 x_18_ ^ 2 + 86 x_45_ * x_18_ + 45 x_22_ ^ 2 - 98 x_33_ * x_22_ - 20 x_29_ ^ 2 + 20 x_33_ * x_29_ - 22 x_33_ ^ 2 ] = 2549
c38: [ 88 x_20_ * x_3_ - 4 x_44_ * x_3_ - 58 x_20_ * x_11_ - 46 x_36_ * x_12_ + 78 x_43_ * x_12_ - 80 x_49_ * x_12_ - 48 x_29_ * x_20_ + 44 x_43_ * x_20_ - 48 x_49_ * x_20_ - 70 x_33_ * x_29_ + 6 x_43_ * x_29_ - 48 x_43_ * x_33_ - 96 x_49_ * x_33_ + 47 x_43_ ^ 2 - 22 x_49_ ^ 2 ] = -748
c39: [ -18 x_15_ * x_1_ + 76 x_37_ * x_1_ - 22 x_18_ * x_11_ - 22 x_15_ ^ 2 ] = 4570
c40: [ -24 x_4_ * x_45_ + 54 x_21_ * x_19_ + 82 x_45_ * x_24_ ] = 1760
c41: [ -20 x_6_ ^ 2 - 42 x_25_ * x_6_ - 60 x_34_ * x_6_ - 92 x_43_ * x_13_ + 2 x_49_ * x_18_ - 36 x_28_ * x_25_ - 26 x_43_ * x_25_ - 36 x_49_ * x_28_ - 90 x_43_ * x_34_ - 30 x_49_ * x_43_ ] = 1054
c42: [ 36 x_4_ * x_21_ ] = 1944
c43: [ -14 x_25_ * x_9_ + 52 x_33_ * x_9_ - 76 x_40_ * x_9_ + 94 x_48_ * x_10_ + 100 x_33_ * x_19_ + 96 x_31_ * x_25_ - 14 x_35_ * x_26_ - 90 x_37_ * x_26_ + 30 x_40_ * x_26_ - 82 x_48_ * x_26_ - 49 x_31_ ^ 2 + 88 x_35_ * x_31_ - 74 x_40_ * x_35_ + 11 x_48_ ^ 2 ] = 391
c44: [ -88 x_21_ * x_8_ + 50 x_32_ * x_8_ + 5 x_9_ ^ 2 + 2 x_10_ * x_9_ + 76 x_21_ * x_9_ + 24 x_34_ * x_9_ - 54 x_37_ * x_9_ - 14 x_21_ * x_10_ + 18 x_29_ * x_13_ + 16 x_36_ * x_13_ + 42 x_21_ * x_20_ - 78 x_32_ * x_20_ + 24 x_37_ * x_20_ - 29 x_21_ ^ 2 - 28 x_37_ * x_21_ + 18 x_43_ * x_21_ - 76 x_37_ * x_29_ - 94 x_36_ * x_32_ + 32 x_36_ * x_34_ + 32 x_37_ * x_34_ + 21 x_36_ ^ 2 ] = 9638
c45: [ 12 x_3_ ^ 2 - 90 x_14_ * x_3_ - 6 x_34_ * x_3_ - 88 x_47_ * x_3_ + 40 x_24_ * x_5_ - 46 x_11_ ^ 2 - 66 x_45_ * x_11_ - 2 x_48_ * x_11_ - 38 x_47_ * x_14_ - 20 x_47_ * x_17_ + 12 x_45_ * x_24_ - 60 x_47_ * x_24_ + 34 x_34_ ^ 2 - 23 x_48_ ^ 2 ] = -2032
c46: [ -18 x_43_ * x_1_ + 86 x_17_ * x_3_ - 92 x_8_ * x_6_ + 47 x_8_ ^ 2 + 58 x_9_ * x_8_ + 13 x_9_ ^ 2 + 76 x_11_ * x_9_ - 38 x_43_ * x_9_ ] = 1574
c47: [ -48 x_6_ ^ 2 - 84 x_35_ * x_6_ - 49 x_9_ ^ 2 - 32 x_28_ * x_9_ - 52 x_31_ * x_9_ + 30 x_17_ ^ 2 + 88 x_28_ * x_17_ + 66 x_34_ * x_31_ ] = -588
c48: [ 48 x_16_ * x_8_ - 46 x_26_ * x_8_ + 100 x_31_ * x_8_ + 90 x_31_ * x_11_ - 72 x_33_ * x_16_ - 19 x_24_ ^ 2 - 19 x_26_ ^ 2 + 60 x_33_ * x_26_ ] = -1549
c49: [ 98 x_30_ * x_3_ - 84 x_45_ * x_3_ + 96 x_50_ * x_3_ - 56 x_27_ * x_6_ + 20 x_39_ * x_6_ + 94 x_44_ * x_6_ - 94 x_48_ * x_6_ + 88 x_23_ * x_13_ - 38 x_30_ * x_13_ - 42 x_39_ * x_13_ + 42 x_32_ * x_15_ + 54 x_45_ * x_23_ - 64 x_32_ * x_27_ - 16 x_30_ * x_28_ + 2 x_32_ * x_28_ + 58 x_45_ * x_28_ - 26 x_47_ * x_28_ + 94 x_50_ * x_28_ - 36 x_34_ * x_30_ - 16 x_39_ * x_30_ + 42 x_32_ ^ 2 - 16 x_39_ * x_32_ - 4 x_50_ * x_32_ + 20 x_46_ * x_34_ - 94 x_44_ * x_39_ - 30 x_50_ * x_39_ - 90 x_50_ * x_44_ ] = 13786
c50: [ 38 x_30_ * x_11_ - 82 x_31_ * x_11_ + 16 x_45_ * x_11_ - 17 x_15_ ^ 2 + 60 x_26_ * x_15_ + 94 x_45_ * x_15_ + 41 x_26_ ^ 2 + 34 x_28_ * x_26_ + 60 x_38_ * x_26_ - 42 x_45_ * x_28_ - 10 x_30_ ^ 2 - 86 x_45_ * x_30_ + 6 x_40_ * x_38_ ] = 6673
c51: [ -40 x_37_ * x_5_ - 3 x_31_ ^ 2 + 42 x_37_ ^ 2 ] = 279
c52: [ -44 x_35_ * x_24_ + 64 x_37_ * x_24_ - 8 x_35_ * x_29_ + 54 x_49_ * x_35_ + 2 x_38_ ^ 2 ] = 328
c53: [ 98 x_28_ * x_13_ - 96 x_27_ * x_19_ + 32 x_30_ * x_19_ + 34 x_33_ * x_19_ + 34 x_38_ * x_19_ - 62 x_44_ * x_19_ - 36 x_45_ * x_19_ + 30 x_30_ * x_27_ + 50 x_37_ * x_27_ + 84 x_46_ * x_27_ + 46 x_30_ * x_28_ - 46 x_37_ * x_28_ + 32 x_38_ * x_28_ - 8 x_45_ * x_28_ - 28 x_37_ ^ 2 + 90 x_44_ * x_37_ + 52 x_44_ * x_38_ - 82 x_45_ * x_38_ + 7 x_41_ ^ 2 - 58 x_46_ * x_41_ + 44 x_45_ ^ 2 + 44 x_46_ * x_45_ ] = 5312
c54: [ 36 x_5_ ^ 2 + 72 x_12_ * x_5_ + 8 x_22_ * x_12_ - 86 x_35_ * x_12_ - 100 x_38_ * x_12_ + 1 x_29_ ^ 2 - 64 x_38_ * x_35_ - 1 x_38_ ^ 2 - 45 x_49_ ^ 2 ] = -7650
c55: [ -37 x_6_ ^ 2 - 32 x_50_ * x_6_ - 58 x_23_ * x_18_ - 92 x_41_ * x_18_ - 62 x_50_ * x_19_ + 37 x_23_ ^ 2 + 60 x_28_ * x_23_ + 6 x_44_ * x_23_ + 96 x_41_ * x_32_ - 10 x_44_ * x_32_ + 32 x_50_ * x_32_ - 82 x_44_ * x_34_ + 27 x_41_ ^ 2 - 94 x_48_ * x_42_ ] = 6924
c56: [ 36 x_7_ * x_2_ + 74 x_11_ * x_2_ - 92 x_11_ * x_7_ + 30 x_36_ * x_7_ + 60 x_13_ * x_11_ - 70 x_14_ * x_11_ - 52 x_29_ * x_13_ + 18 x_46_ * x_13_ - 80 x_47_ * x_13_ - 94 x_33_ * x_14_ + 74 x_47_ * x_14_ + 36 x_29_ * x_27_ + 24 x_46_ * x_27_ - 26 x_42_ * x_29_ - 36 x_33_ ^ 2 - 22 x_36_ * x_33_ ] = -1464
c57: [ -48 x_12_ ^ 2 + 48 x_37_ * x_29_ - 2 x_43_ * x_37_ ] = -5736
c58: [ 18 x_7_ * x_15_ - 64 x_31_ * x_8_ - 10 x_48_ * x_8_ + 4 x_26_ * x_15_ + 6 x_39_ * x_15_ + 48 x_41_ * x_15_ + 6 x_48_ * x_15_ + 74 x_41_ * x_26_ - 58 x_41_ * x_38_ ] = -1644
Bounds
-9 <= x_1_ <= 7
-9 <= x_2_ <= 1
0 <= x_3_ <= 2
x_4_ = -6
x_5_ = 8
-4 <= x_6_ <= 5
-5 <= x_7_ <= 4
-2 <= x_8_ <= 9
-5 <= x_9_ <= 2
-5 <= x_10_ <= -3
-7 <= x_11_ <= -5
-2 <= x_12_ <= 9
0 <= x_13_ <= 10
-10 <= x_14_ <= -1
-2 <= x_15_ <= 7
-9 <= x_16_ <= 0
-8 <= x_17_ <= 9
5 <= x_18_ <= 7
-7 <= x_19_ <= 5
4 <= x_20_ <= 5
-9 <= x_21_ <= -3
-2 <= x_22_ <= 10
5 <= x_23_ <= 9
-8 <= x_24_ <= 4
-5 <= x_25_ <= 0
-2 <= x_26_ <= 7
-4 <= x_27_ <= 3
-5 <= x_28_ <= 6
-6 <= x_29_ <= 0
2 <= x_30_ <= 8
-7 <= x_31_ <= 10
-9 <= x_32_ <= -1
-8 <= x_33_ <= 8
-9 <= x_34_ <= 0
-1 <= x_35_ <= 6
-6 <= x_36_ <= 10
1 <= x_37_ <= 9
8 <= x_38_ <= 10
-10 <= x_39_ <= -4
4 <= x_40_ <= 9
-9 <= x_41_ <= 5
-9 <= x_42_ <= 0
-2 <= x_43_ <= 10
-9 <= x_44_ <= 8
-8 <= x_45_ <= 1
-8 <= x_46_ <= -4
-9 <= x_47_ <= 10
-10 <= x_48_ <= -7
-7 <= x_49_ <= 9
-10 <= x_50_ <= -3
General
x_1_
x_2_
x_3_
x_4_
x_5_
x_6_
x_7_
x_8_
x_9_
x_10_
x_11_
x_12_
x_13_
x_14_
x_15_
x_16_
x_17_
x_18_
x_19_
x_20_
x_21_
x_22_
x_23_
x_24_
x_25_
x_26_
x_27_
x_28_
x_29_
x_30_
x_31_
x_32_
x_33_
x_34_
x_35_
x_36_
x_37_
x_38_
x_39_
x_40_
x_41_
x_42_
x_43_
x_44_
x_45_
x_46_
x_47_
x_48_
x_49_
x_50_
End
