minimize
obj: -23 x_2_ + 46 x_3_ - 23 x_15_ + 18 x_17_ + 19 x_20_ - 19 x_36_ - 22 x_37_ + 4 x_40_ + 21 x_41_ - 29 x_46_ - 15 x_48_ + 24 x_49_ - 31 x_50_
subject to
quadratic_ranged_1_ub: 10 x_8_ + 47 x_14_ - 35 x_16_ - 5 x_31_ + 9 x_45_ + [ 82 x_14_ * x_5_ - 18 x_15_ * x_5_ + 74 x_16_ * x_8_ - 48 x_21_ * x_8_ + 40 x_14_ ^ 2 - 44 x_16_ * x_15_ - 32 x_27_ * x_15_ + 66 x_37_ * x_15_ + 24 x_37_ * x_16_ + 96 x_45_ * x_19_ - 6 x_45_ * x_21_ + 98 x_31_ * x_27_ + 76 x_45_ * x_31_ ] <= 7747
quadratic_ranged_2_ub: 17 x_4_ - 1 x_30_ - 11 x_49_ + [ -42 x_6_ * x_4_ + 100 x_17_ * x_4_ + 94 x_48_ * x_4_ - 100 x_8_ * x_6_ - 18 x_22_ * x_6_ + 72 x_30_ * x_6_ - 4 x_49_ * x_6_ + 64 x_20_ * x_8_ - 70 x_48_ * x_8_ + 64 x_49_ * x_8_ + 36 x_20_ * x_17_ - 32 x_20_ ^ 2 - 78 x_30_ * x_20_ + 39 x_22_ ^ 2 - 42 x_48_ * x_30_ + 34 x_49_ * x_48_ ] <= 4956
quadratic_ranged_3_ub: 18 x_13_ - 49 x_30_ - 34 x_31_ + 49 x_36_ + [ -26 x_27_ * x_3_ - 48 x_48_ * x_3_ - 19 x_8_ ^ 2 - 14 x_27_ * x_8_ - 80 x_36_ * x_12_ + 76 x_31_ * x_13_ - 96 x_30_ * x_27_ + 45 x_31_ ^ 2 + 94 x_36_ * x_31_ ] <= 5824
quadratic_ranged_4_ub: -4 x_16_ + 21 x_28_ - 40 x_33_ - 1 x_49_ + [ 48 x_6_ ^ 2 + 76 x_13_ * x_6_ - 22 x_22_ * x_6_ - 70 x_32_ * x_6_ + 30 x_28_ * x_9_ + 18 x_49_ * x_9_ - 39 x_13_ ^ 2 + 90 x_22_ * x_13_ + 12 x_23_ * x_16_ + 32 x_20_ ^ 2 - 62 x_28_ * x_20_ - 74 x_32_ * x_20_ + 86 x_42_ * x_20_ + 86 x_23_ * x_22_ + 78 x_33_ * x_22_ + 2 x_49_ * x_22_ - 50 x_23_ ^ 2 + 16 x_45_ * x_23_ + 36 x_49_ * x_27_ + 7 x_28_ ^ 2 + 58 x_32_ * x_28_ - 42 x_42_ * x_28_ - 84 x_42_ * x_32_ - 6 x_45_ * x_33_ + 84 x_49_ * x_33_ ] <= 14368
quadratic_ranged_5_ub: -49 x_6_ - 30 x_27_ + 13 x_43_ + [ -38 x_27_ * x_6_ + 58 x_43_ * x_6_ + 14 x_8_ ^ 2 + 36 x_27_ * x_8_ + 66 x_48_ * x_9_ + 18 x_19_ ^ 2 - 32 x_27_ * x_19_ - 6 x_48_ * x_19_ - 58 x_33_ * x_27_ - 72 x_48_ * x_27_ ] <= 1385
quadratic_ranged_6_ub: -20 x_2_ + 26 x_8_ + 34 x_23_ + [ -32 x_2_ ^ 2 + 100 x_42_ * x_2_ - 18 x_12_ * x_8_ - 14 x_16_ * x_8_ + 56 x_24_ * x_8_ + 2 x_12_ ^ 2 - 88 x_32_ * x_12_ - 34 x_16_ ^ 2 + 72 x_19_ * x_16_ - 24 x_19_ ^ 2 - 66 x_37_ * x_19_ + 78 x_24_ * x_23_ - 70 x_42_ * x_23_ - 76 x_33_ * x_24_ - 34 x_42_ * x_24_ - 84 x_46_ * x_24_ + 24 x_46_ * x_32_ + 30 x_42_ * x_33_ + 46 x_38_ * x_37_ - 39 x_38_ ^ 2 - 2 x_46_ * x_38_ ] <= 12291
quadratic_ranged_7_ub: [ 31 x_17_ ^ 2 + 60 x_30_ * x_27_ ] <= 100
quadratic_ranged_8_ub: 32 x_20_ + [ 26 x_5_ ^ 2 + 22 x_19_ * x_5_ + 90 x_20_ * x_9_ - 98 x_50_ * x_9_ - 11 x_19_ ^ 2 - 100 x_23_ * x_19_ + 34 x_25_ * x_19_ - 82 x_25_ * x_20_ + 80 x_25_ * x_24_ ] <= 8137
quadratic_ranged_9_ub: [ -82 x_27_ * x_16_ - 38 x_47_ * x_27_ + 48 x_44_ ^ 2 ] <= 378
quadratic_ranged_10_ub: -38 x_14_ + [ 76 x_11_ * x_5_ + 30 x_12_ * x_5_ - 74 x_39_ * x_5_ + 50 x_11_ ^ 2 + 32 x_14_ * x_11_ - 14 x_38_ * x_11_ - 80 x_14_ * x_12_ - 90 x_36_ * x_12_ + 66 x_38_ * x_12_ - 21 x_36_ ^ 2 + 66 x_38_ * x_36_ + 24 x_44_ * x_38_ ] <= 7061
quadratic_ranged_11_ub: -2 x_10_ - 25 x_16_ + 8 x_47_ + [ 46 x_10_ ^ 2 + 78 x_18_ * x_10_ - 46 x_38_ * x_10_ + 49 x_16_ ^ 2 + 25 x_18_ ^ 2 - 38 x_47_ * x_18_ - 39 x_25_ ^ 2 + 40 x_47_ * x_25_ + 42 x_47_ * x_38_ + 78 x_47_ * x_44_ ] <= -379
quadratic_ranged_12_ub: -44 x_35_ - 31 x_47_ + [ 82 x_23_ * x_1_ - 82 x_36_ * x_1_ - 84 x_40_ * x_1_ - 78 x_7_ * x_2_ + 22 x_23_ * x_2_ - 16 x_43_ * x_7_ + 43 x_23_ ^ 2 - 22 x_35_ * x_23_ + 4 x_47_ * x_23_ - 96 x_49_ * x_23_ - 46 x_35_ * x_30_ + 52 x_41_ * x_30_ - 20 x_43_ * x_30_ - 38 x_41_ * x_36_ - 50 x_47_ * x_36_ + 30 x_49_ * x_37_ - 38 x_41_ * x_40_ - 16 x_41_ ^ 2 ] <= -5581
quadratic_ranged_13_ub: 15 x_5_ + 26 x_42_ - 33 x_48_ + [ 6 x_20_ * x_5_ + 56 x_22_ * x_5_ + 86 x_46_ * x_5_ - 49 x_22_ ^ 2 - 60 x_43_ * x_22_ + 48 x_46_ * x_22_ - 56 x_25_ * x_23_ + 48 x_25_ ^ 2 - 88 x_43_ * x_41_ + 94 x_48_ * x_41_ + 19 x_46_ ^ 2 - 16 x_48_ ^ 2 ] <= -4085
quadratic_ranged_14_ub: -47 x_3_ + 34 x_12_ + [ -28 x_14_ * x_3_ + 50 x_32_ * x_3_ - 8 x_35_ * x_3_ + 34 x_42_ * x_3_ + 92 x_14_ * x_4_ - 36 x_30_ * x_4_ - 80 x_32_ * x_4_ + 22 x_42_ * x_4_ - 88 x_14_ * x_12_ - 2 x_32_ * x_12_ + 58 x_42_ * x_12_ - 36 x_13_ ^ 2 - 28 x_14_ * x_13_ - 24 x_30_ * x_13_ - 8 x_42_ * x_14_ + 14 x_32_ * x_30_ + 20 x_35_ * x_32_ - 20 x_42_ * x_35_ + 28 x_42_ ^ 2 ] <= 1972
quadratic_ranged_15_ub: 43 x_27_ - 42 x_40_ + [ 84 x_3_ * x_7_ + 46 x_29_ * x_3_ - 30 x_40_ * x_3_ + 20 x_40_ * x_7_ - 84 x_29_ * x_11_ + 86 x_48_ * x_11_ - 32 x_29_ * x_24_ + 78 x_40_ * x_24_ + 62 x_40_ * x_27_ ] <= -2630
quadratic_ranged_16_ub: 7 x_18_ - 46 x_48_ + [ 32 x_10_ * x_2_ + 50 x_48_ * x_4_ - 43 x_10_ ^ 2 + 6 x_18_ * x_10_ + 36 x_19_ * x_10_ + 68 x_18_ * x_12_ + 6 x_18_ ^ 2 - 4 x_31_ * x_18_ ] <= 3591
quadratic_ranged_17_ub: -3 x_13_ + 17 x_17_ - 41 x_40_ + 42 x_48_ + [ 84 x_9_ * x_26_ + 100 x_40_ * x_9_ + 12 x_17_ * x_13_ + 26 x_26_ * x_16_ - 70 x_40_ * x_16_ + 70 x_26_ * x_17_ - 34 x_26_ * x_24_ - 10 x_48_ * x_24_ - 88 x_48_ * x_25_ ] <= -4787
quadratic_ranged_18_ub: [ -86 x_2_ * x_1_ - 14 x_4_ * x_1_ + 4 x_9_ * x_1_ - 60 x_16_ * x_1_ + 4 x_47_ * x_1_ - 48 x_50_ * x_1_ + 64 x_23_ * x_2_ - 32 x_4_ ^ 2 + 98 x_23_ * x_4_ - 24 x_33_ * x_4_ - 88 x_47_ * x_4_ + 50 x_23_ * x_9_ - 21 x_16_ ^ 2 - 60 x_41_ * x_23_ - 78 x_47_ * x_23_ + 2 x_41_ * x_33_ - 38 x_47_ * x_36_ + 20 x_50_ * x_36_ ] <= -3261
quadratic_ranged_19_ub: -26 x_5_ - 41 x_20_ - 34 x_24_ + [ -26 x_5_ ^ 2 + 76 x_25_ * x_5_ + 64 x_30_ * x_5_ - 46 x_38_ * x_5_ + 30 x_20_ * x_8_ + 52 x_34_ * x_8_ + 48 x_38_ * x_8_ + 86 x_44_ * x_8_ - 62 x_24_ * x_20_ - 29 x_24_ ^ 2 - 92 x_25_ * x_24_ - 92 x_38_ * x_24_ - 54 x_46_ * x_25_ - 42 x_28_ ^ 2 + 96 x_30_ * x_28_ + 24 x_38_ * x_28_ - 84 x_44_ * x_28_ + 64 x_46_ * x_28_ - 8 x_48_ * x_30_ + 44 x_34_ ^ 2 - 100 x_40_ * x_34_ + 52 x_46_ * x_34_ - 88 x_44_ * x_40_ + 44 x_46_ * x_40_ + 9 x_44_ ^ 2 ] <= 6907
quadratic_ranged_20_ub: -48 x_14_ - 33 x_24_ + 1 x_26_ + [ -16 x_15_ * x_1_ + 88 x_26_ * x_1_ - 42 x_46_ * x_1_ + 18 x_46_ * x_5_ + 38 x_13_ * x_12_ + 22 x_14_ * x_12_ - 58 x_26_ * x_13_ - 54 x_38_ * x_13_ + 52 x_46_ * x_15_ + 40 x_24_ ^ 2 + 58 x_38_ * x_24_ + 22 x_46_ * x_24_ - 92 x_38_ * x_26_ + 2 x_46_ * x_31_ ] <= -6866
quadratic_ranged_21_ub: -5 x_31_ - 1 x_35_ - 34 x_46_ + [ -42 x_15_ * x_10_ + 36 x_45_ * x_10_ + 74 x_46_ * x_10_ - 36 x_22_ * x_15_ - 6 x_31_ * x_15_ + 78 x_45_ * x_15_ + 38 x_22_ ^ 2 + 38 x_32_ * x_22_ - 35 x_35_ ^ 2 ] <= 2864
quadratic_ranged_22_ub: 6 x_27_ + [ -4 x_9_ ^ 2 - 12 x_21_ * x_9_ - 78 x_30_ * x_9_ - 24 x_34_ * x_9_ - 41 x_20_ ^ 2 - 78 x_28_ * x_20_ + 78 x_33_ * x_20_ + 84 x_27_ * x_21_ + 46 x_37_ * x_21_ - 23 x_28_ ^ 2 - 44 x_46_ * x_28_ + 25 x_30_ ^ 2 - 4 x_37_ * x_34_ - 3 x_37_ ^ 2 - 84 x_46_ * x_37_ - 40 x_50_ * x_37_ ] <= -874
quadratic_ranged_23_ub: 40 x_21_ + 47 x_31_ + 35 x_35_ + [ -72 x_39_ * x_6_ + 48 x_9_ ^ 2 - 46 x_31_ * x_11_ + 26 x_21_ ^ 2 - 42 x_35_ * x_21_ + 42 x_46_ * x_21_ - 100 x_39_ * x_23_ + 48 x_32_ * x_31_ - 24 x_39_ * x_31_ + 96 x_46_ * x_31_ + 10 x_46_ * x_32_ + 54 x_46_ * x_35_ - 8 x_39_ ^ 2 ] <= -532
quadratic_ranged_24_ub: -31 x_17_ + [ -46 x_13_ * x_46_ ] <= 2671
quadratic_ranged_25_ub: 16 x_24_ + 10 x_25_ - 38 x_41_ + [ -7 x_9_ ^ 2 - 34 x_40_ * x_9_ + 49 x_13_ ^ 2 + 32 x_22_ * x_13_ - 22 x_24_ * x_13_ + 18 x_25_ * x_13_ - 14 x_44_ * x_15_ - 78 x_44_ * x_22_ + 74 x_25_ * x_24_ + 60 x_47_ * x_24_ + 64 x_46_ * x_25_ - 30 x_44_ * x_29_ + 3 x_41_ ^ 2 - 38 x_46_ * x_41_ - 36 x_47_ * x_44_ ] <= 9619
quadratic_ranged_26_ub: 38 x_29_ - 5 x_39_ + [ -22 x_29_ * x_2_ - 66 x_29_ * x_13_ + 32 x_33_ * x_13_ + 74 x_43_ * x_13_ + 38 x_16_ ^ 2 - 70 x_43_ * x_18_ - 30 x_32_ ^ 2 + 35 x_43_ ^ 2 ] <= -2425
quadratic_ranged_27_ub: 48 x_30_ + [ 36 x_14_ ^ 2 + 26 x_25_ * x_14_ + 18 x_30_ * x_14_ - 80 x_37_ * x_14_ + 68 x_39_ * x_14_ - 2 x_22_ * x_18_ + 40 x_39_ * x_18_ + 76 x_49_ * x_18_ + 40 x_25_ * x_22_ + 68 x_45_ * x_22_ - 100 x_49_ * x_22_ + 17 x_25_ ^ 2 - 54 x_38_ * x_25_ - 98 x_39_ * x_25_ + 48 x_47_ * x_25_ - 20 x_39_ * x_30_ - 47 x_37_ ^ 2 - 90 x_38_ * x_37_ - 98 x_47_ * x_38_ - 18 x_49_ ^ 2 ] <= 11341
quadratic_ranged_28_ub: 14 x_35_ + [ 2 x_1_ * x_44_ - 38 x_35_ * x_29_ - 36 x_35_ * x_31_ ] <= 1238
quadratic_ranged_29_ub: -29 x_10_ + 33 x_25_ - 37 x_35_ + [ -32 x_24_ * x_1_ + 2 x_30_ * x_1_ + 90 x_48_ * x_1_ + 25 x_3_ ^ 2 + 76 x_10_ * x_3_ - 92 x_25_ * x_3_ - 76 x_27_ * x_3_ - 72 x_50_ * x_3_ - 9 x_10_ ^ 2 + 2 x_31_ * x_10_ - 52 x_40_ * x_10_ - 52 x_50_ * x_11_ + 94 x_27_ * x_24_ - 8 x_27_ * x_25_ + 82 x_35_ * x_25_ + 8 x_27_ ^ 2 - 68 x_40_ * x_27_ + 16 x_48_ * x_27_ - 72 x_36_ * x_30_ + 70 x_48_ * x_30_ + 100 x_35_ * x_31_ + 100 x_48_ * x_36_ - 32 x_48_ ^ 2 - 20 x_50_ * x_48_ ] <= -7710
quadratic_ranged_30_ub: 10 x_2_ - 27 x_23_ - 40 x_31_ - 47 x_50_ + [ -16 x_2_ ^ 2 + 76 x_17_ * x_2_ - 10 x_23_ * x_2_ + 90 x_38_ * x_2_ + 94 x_48_ * x_2_ + 84 x_17_ * x_11_ - 66 x_18_ * x_11_ - 78 x_21_ * x_17_ + 98 x_23_ * x_17_ + 16 x_31_ * x_17_ - 46 x_48_ * x_21_ + 86 x_50_ * x_23_ + 17 x_31_ ^ 2 + 72 x_50_ * x_32_ - 5 x_38_ ^ 2 + 20 x_48_ * x_38_ + 26 x_50_ * x_38_ ] <= -10545
quadratic_ranged_31_ub: [ 72 x_16_ * x_2_ - 98 x_20_ * x_2_ - 6 x_25_ * x_2_ - 14 x_20_ * x_16_ - 76 x_23_ * x_16_ + 24 x_23_ ^ 2 + 100 x_25_ * x_23_ - 42 x_48_ * x_32_ + 54 x_48_ * x_37_ + 22 x_48_ ^ 2 ] <= 8087
quadratic_ranged_32_ub: -1 x_7_ + 46 x_11_ + 49 x_40_ + [ 30 x_11_ * x_7_ + 26 x_40_ * x_7_ - 14 x_32_ * x_29_ + 74 x_47_ * x_32_ - 37 x_35_ ^ 2 + 86 x_47_ * x_35_ ] <= -2366
quadratic_ranged_33_ub: -37 x_2_ - 13 x_35_ - 44 x_38_ + [ -41 x_1_ ^ 2 - 2 x_14_ * x_1_ + 62 x_22_ * x_1_ - 21 x_2_ ^ 2 - 98 x_8_ * x_2_ + 16 x_10_ * x_2_ - 96 x_14_ * x_2_ - 88 x_22_ * x_2_ - 90 x_35_ * x_10_ - 12 x_22_ * x_14_ + 84 x_24_ * x_21_ - 76 x_31_ * x_21_ - 64 x_32_ * x_21_ + 22 x_22_ ^ 2 + 72 x_38_ * x_22_ + 86 x_38_ * x_24_ + 62 x_32_ * x_31_ ] <= -6789
quadratic_ranged_34_ub: [ 62 x_7_ * x_2_ + 42 x_50_ * x_2_ - 20 x_12_ * x_7_ - 70 x_15_ * x_7_ - 12 x_16_ * x_7_ - 18 x_32_ * x_7_ - 8 x_39_ * x_7_ + 6 x_16_ * x_12_ - 58 x_39_ * x_12_ + 8 x_50_ * x_12_ + 3 x_15_ ^ 2 + 10 x_16_ * x_15_ + 88 x_39_ * x_15_ ] <= -11136
quadratic_ranged_35_ub: 10 x_22_ - 24 x_34_ - 47 x_35_ + [ -10 x_41_ * x_13_ - 22 x_49_ * x_13_ + 48 x_36_ * x_34_ - 92 x_41_ * x_34_ + 60 x_42_ * x_34_ - 34 x_36_ * x_35_ + 20 x_42_ * x_35_ + 68 x_41_ * x_36_ + 28 x_42_ * x_36_ + 22 x_42_ * x_37_ + 68 x_49_ * x_41_ - 34 x_42_ ^ 2 - 25 x_49_ ^ 2 ] <= 7584
quadratic_ranged_36_ub: -22 x_3_ - 42 x_39_ + [ 76 x_18_ * x_3_ - 86 x_46_ * x_21_ + 92 x_46_ * x_39_ + 39 x_46_ ^ 2 - 10 x_47_ * x_46_ ] <= 9517
quadratic_ranged_37_ub: 10 x_19_ + [ 70 x_2_ * x_1_ + 74 x_20_ * x_1_ - 2 x_24_ * x_1_ - 34 x_20_ * x_2_ - 92 x_20_ * x_5_ - 86 x_20_ * x_12_ + 86 x_24_ * x_12_ + 33 x_18_ ^ 2 - 88 x_48_ * x_18_ + 50 x_48_ * x_19_ - 19 x_24_ ^ 2 ] <= 10367
quadratic_ranged_38_ub: 5 x_3_ + [ -72 x_1_ * x_23_ + 66 x_24_ * x_3_ - 78 x_23_ * x_9_ - 96 x_38_ * x_9_ + 70 x_39_ * x_9_ + 58 x_13_ * x_11_ - 28 x_23_ * x_13_ - 96 x_24_ * x_13_ + 4 x_42_ * x_13_ - 6 x_29_ * x_23_ + 20 x_39_ * x_23_ + 78 x_42_ * x_39_ ] <= -5878
quadratic_ranged_39_ub: -5 x_25_ + 11 x_29_ - 50 x_46_ + [ -20 x_12_ * x_8_ + 66 x_20_ * x_8_ + 96 x_25_ * x_8_ - 14 x_29_ * x_8_ + 88 x_40_ * x_8_ - 28 x_29_ * x_12_ - 6 x_25_ ^ 2 - 45 x_29_ ^ 2 - 72 x_40_ * x_36_ - 16 x_46_ * x_40_ ] <= -3652
quadratic_ranged_40_ub: [ -47 x_5_ ^ 2 - 4 x_22_ * x_5_ - 42 x_28_ * x_5_ - 88 x_29_ * x_8_ - 24 x_21_ * x_9_ + 96 x_22_ * x_9_ - 74 x_45_ * x_9_ + 43 x_11_ ^ 2 + 94 x_45_ * x_21_ ] <= -5028
quadratic_ranged_41_ub: -25 x_7_ + 4 x_24_ + [ -76 x_2_ * x_1_ + 88 x_10_ * x_1_ + 34 x_24_ * x_1_ - 8 x_48_ * x_1_ + 82 x_10_ * x_2_ + 100 x_23_ * x_2_ + 80 x_16_ * x_7_ - 6 x_45_ * x_7_ + 44 x_10_ ^ 2 + 80 x_19_ * x_10_ - 12 x_45_ * x_10_ - 8 x_14_ ^ 2 + 76 x_45_ * x_14_ + 66 x_23_ * x_19_ + 48 x_48_ * x_19_ + 44 x_24_ * x_20_ + 78 x_48_ * x_20_ + 20 x_45_ * x_23_ - 82 x_45_ * x_24_ - 94 x_48_ * x_24_ - 44 x_48_ ^ 2 ] <= -4044
quadratic_ranged_42_ub: 3 x_48_ + [ -100 x_7_ * x_1_ + 78 x_13_ * x_1_ + 12 x_28_ * x_1_ + 14 x_32_ * x_1_ - 56 x_48_ * x_7_ + 36 x_37_ * x_13_ + 38 x_48_ * x_13_ + 16 x_28_ ^ 2 + 16 x_48_ * x_28_ - 16 x_37_ * x_32_ + 18 x_48_ * x_32_ + 92 x_42_ * x_37_ ] <= 4128
quadratic_ranged_43_ub: 1 x_32_ - 15 x_38_ - 14 x_50_ + [ -46 x_9_ ^ 2 + 40 x_46_ * x_9_ - 32 x_46_ * x_12_ - 22 x_50_ * x_32_ + 27 x_46_ ^ 2 + 6 x_50_ * x_46_ ] <= 6880
quadratic_ranged_44_ub: [ -4 x_2_ * x_1_ + 30 x_6_ * x_2_ + 62 x_27_ * x_2_ - 48 x_36_ * x_2_ - 84 x_39_ * x_2_ + 52 x_36_ * x_6_ + 80 x_39_ * x_6_ - 88 x_43_ * x_27_ + 48 x_49_ * x_27_ + 46 x_43_ * x_36_ + 35 x_43_ ^ 2 + 12 x_49_ ^ 2 ] <= 11968
quadratic_ranged_45_ub: 43 x_47_ + 27 x_48_ + 47 x_49_ + [ 38 x_13_ * x_2_ + 78 x_17_ * x_2_ + 22 x_49_ * x_2_ - 45 x_9_ ^ 2 + 32 x_13_ * x_9_ + 34 x_30_ * x_9_ + 4 x_42_ * x_9_ + 12 x_49_ * x_9_ - 22 x_17_ * x_13_ + 86 x_24_ * x_13_ + 4 x_30_ * x_17_ - 82 x_49_ * x_22_ - 54 x_42_ * x_30_ + 32 x_48_ * x_30_ - 49 x_42_ ^ 2 + 16 x_48_ * x_42_ + 2 x_48_ * x_47_ - 4 x_48_ ^ 2 ] <= 3335
quadratic_ranged_46_ub: 36 x_22_ - 27 x_28_ + [ -22 x_27_ * x_5_ + 26 x_28_ * x_5_ - 7 x_7_ ^ 2 - 2 x_22_ * x_7_ + 22 x_37_ * x_22_ + 90 x_37_ * x_36_ - 2 x_39_ ^ 2 ] <= 2917
quadratic_ranged_47_ub: -20 x_18_ - 50 x_21_ - 13 x_39_ + [ -46 x_2_ ^ 2 + 10 x_39_ * x_2_ + 26 x_38_ * x_18_ + 54 x_44_ * x_18_ ] <= -3379
quadratic_ranged_48_ub: 20 x_16_ + 1 x_50_ + [ 2 x_11_ * x_3_ - 30 x_18_ * x_3_ - 38 x_31_ * x_3_ + 2 x_45_ * x_3_ + 4 x_50_ * x_3_ - 22 x_16_ * x_11_ - 48 x_18_ * x_11_ + 72 x_31_ * x_11_ - 8 x_45_ * x_11_ - 56 x_49_ * x_11_ - 84 x_18_ * x_14_ - 52 x_26_ * x_14_ - 90 x_44_ * x_14_ + 88 x_47_ * x_14_ + 22 x_44_ * x_16_ + 46 x_42_ * x_18_ + 58 x_44_ * x_18_ + 34 x_45_ * x_18_ + 32 x_47_ * x_18_ + 6 x_49_ * x_18_ - 8 x_45_ * x_20_ - 30 x_47_ * x_20_ - 32 x_26_ ^ 2 + 82 x_31_ * x_26_ - 36 x_42_ * x_26_ - 80 x_49_ * x_26_ - 20 x_31_ ^ 2 + 38 x_44_ * x_31_ - 44 x_42_ ^ 2 - 62 x_50_ * x_42_ - 26 x_47_ * x_44_ + 50 x_47_ * x_45_ + 44 x_49_ * x_45_ + 70 x_49_ * x_47_ - 39 x_49_ ^ 2 ] <= 5314
quadratic_ranged_49_ub: 25 x_35_ + 1 x_41_ + [ 66 x_6_ * x_1_ - 38 x_22_ * x_1_ + 84 x_15_ * x_6_ + 82 x_41_ * x_6_ + 34 x_15_ ^ 2 - 22 x_49_ * x_15_ + 100 x_23_ * x_22_ - 26 x_30_ * x_22_ + 10 x_35_ * x_23_ + 62 x_49_ * x_30_ + 58 x_41_ * x_35_ - 22 x_41_ ^ 2 - 70 x_43_ * x_41_ + 45 x_49_ ^ 2 ] <= -4386
quadratic_ranged_1_lb: 10 x_8_ + 47 x_14_ - 35 x_16_ - 5 x_31_ + 9 x_45_ + [ 82 x_14_ * x_5_ - 18 x_15_ * x_5_ + 74 x_16_ * x_8_ - 48 x_21_ * x_8_ + 40 x_14_ ^ 2 - 44 x_16_ * x_15_ - 32 x_27_ * x_15_ + 66 x_37_ * x_15_ + 24 x_37_ * x_16_ + 96 x_45_ * x_19_ - 6 x_45_ * x_21_ + 98 x_31_ * x_27_ + 76 x_45_ * x_31_ ] >= 7738
quadratic_ranged_2_lb: 17 x_4_ - 1 x_30_ - 11 x_49_ + [ -42 x_6_ * x_4_ + 100 x_17_ * x_4_ + 94 x_48_ * x_4_ - 100 x_8_ * x_6_ - 18 x_22_ * x_6_ + 72 x_30_ * x_6_ - 4 x_49_ * x_6_ + 64 x_20_ * x_8_ - 70 x_48_ * x_8_ + 64 x_49_ * x_8_ + 36 x_20_ * x_17_ - 32 x_20_ ^ 2 - 78 x_30_ * x_20_ + 39 x_22_ ^ 2 - 42 x_48_ * x_30_ + 34 x_49_ * x_48_ ] >= 4947
quadratic_ranged_3_lb: 18 x_13_ - 49 x_30_ - 34 x_31_ + 49 x_36_ + [ -26 x_27_ * x_3_ - 48 x_48_ * x_3_ - 19 x_8_ ^ 2 - 14 x_27_ * x_8_ - 80 x_36_ * x_12_ + 76 x_31_ * x_13_ - 96 x_30_ * x_27_ + 45 x_31_ ^ 2 + 94 x_36_ * x_31_ ] >= 5820
quadratic_ranged_4_lb: -4 x_16_ + 21 x_28_ - 40 x_33_ - 1 x_49_ + [ 48 x_6_ ^ 2 + 76 x_13_ * x_6_ - 22 x_22_ * x_6_ - 70 x_32_ * x_6_ + 30 x_28_ * x_9_ + 18 x_49_ * x_9_ - 39 x_13_ ^ 2 + 90 x_22_ * x_13_ + 12 x_23_ * x_16_ + 32 x_20_ ^ 2 - 62 x_28_ * x_20_ - 74 x_32_ * x_20_ + 86 x_42_ * x_20_ + 86 x_23_ * x_22_ + 78 x_33_ * x_22_ + 2 x_49_ * x_22_ - 50 x_23_ ^ 2 + 16 x_45_ * x_23_ + 36 x_49_ * x_27_ + 7 x_28_ ^ 2 + 58 x_32_ * x_28_ - 42 x_42_ * x_28_ - 84 x_42_ * x_32_ - 6 x_45_ * x_33_ + 84 x_49_ * x_33_ ] >= 14358
quadratic_ranged_5_lb: -49 x_6_ - 30 x_27_ + 13 x_43_ + [ -38 x_27_ * x_6_ + 58 x_43_ * x_6_ + 14 x_8_ ^ 2 + 36 x_27_ * x_8_ + 66 x_48_ * x_9_ + 18 x_19_ ^ 2 - 32 x_27_ * x_19_ - 6 x_48_ * x_19_ - 58 x_33_ * x_27_ - 72 x_48_ * x_27_ ] >= 1380
quadratic_ranged_6_lb: -20 x_2_ + 26 x_8_ + 34 x_23_ + [ -32 x_2_ ^ 2 + 100 x_42_ * x_2_ - 18 x_12_ * x_8_ - 14 x_16_ * x_8_ + 56 x_24_ * x_8_ + 2 x_12_ ^ 2 - 88 x_32_ * x_12_ - 34 x_16_ ^ 2 + 72 x_19_ * x_16_ - 24 x_19_ ^ 2 - 66 x_37_ * x_19_ + 78 x_24_ * x_23_ - 70 x_42_ * x_23_ - 76 x_33_ * x_24_ - 34 x_42_ * x_24_ - 84 x_46_ * x_24_ + 24 x_46_ * x_32_ + 30 x_42_ * x_33_ + 46 x_38_ * x_37_ - 39 x_38_ ^ 2 - 2 x_46_ * x_38_ ] >= 12288
quadratic_ranged_7_lb: [ 31 x_17_ ^ 2 + 60 x_30_ * x_27_ ] >= 97
quadratic_ranged_8_lb: 32 x_20_ + [ 26 x_5_ ^ 2 + 22 x_19_ * x_5_ + 90 x_20_ * x_9_ - 98 x_50_ * x_9_ - 11 x_19_ ^ 2 - 100 x_23_ * x_19_ + 34 x_25_ * x_19_ - 82 x_25_ * x_20_ + 80 x_25_ * x_24_ ] >= 8129
quadratic_ranged_9_lb: [ -82 x_27_ * x_16_ - 38 x_47_ * x_27_ + 48 x_44_ ^ 2 ] >= 376
quadratic_ranged_10_lb: -38 x_14_ + [ 76 x_11_ * x_5_ + 30 x_12_ * x_5_ - 74 x_39_ * x_5_ + 50 x_11_ ^ 2 + 32 x_14_ * x_11_ - 14 x_38_ * x_11_ - 80 x_14_ * x_12_ - 90 x_36_ * x_12_ + 66 x_38_ * x_12_ - 21 x_36_ ^ 2 + 66 x_38_ * x_36_ + 24 x_44_ * x_38_ ] >= 7056
quadratic_ranged_11_lb: -2 x_10_ - 25 x_16_ + 8 x_47_ + [ 46 x_10_ ^ 2 + 78 x_18_ * x_10_ - 46 x_38_ * x_10_ + 49 x_16_ ^ 2 + 25 x_18_ ^ 2 - 38 x_47_ * x_18_ - 39 x_25_ ^ 2 + 40 x_47_ * x_25_ + 42 x_47_ * x_38_ + 78 x_47_ * x_44_ ] >= -386
quadratic_ranged_12_lb: -44 x_35_ - 31 x_47_ + [ 82 x_23_ * x_1_ - 82 x_36_ * x_1_ - 84 x_40_ * x_1_ - 78 x_7_ * x_2_ + 22 x_23_ * x_2_ - 16 x_43_ * x_7_ + 43 x_23_ ^ 2 - 22 x_35_ * x_23_ + 4 x_47_ * x_23_ - 96 x_49_ * x_23_ - 46 x_35_ * x_30_ + 52 x_41_ * x_30_ - 20 x_43_ * x_30_ - 38 x_41_ * x_36_ - 50 x_47_ * x_36_ + 30 x_49_ * x_37_ - 38 x_41_ * x_40_ - 16 x_41_ ^ 2 ] >= -5585
quadratic_ranged_13_lb: 15 x_5_ + 26 x_42_ - 33 x_48_ + [ 6 x_20_ * x_5_ + 56 x_22_ * x_5_ + 86 x_46_ * x_5_ - 49 x_22_ ^ 2 - 60 x_43_ * x_22_ + 48 x_46_ * x_22_ - 56 x_25_ * x_23_ + 48 x_25_ ^ 2 - 88 x_43_ * x_41_ + 94 x_48_ * x_41_ + 19 x_46_ ^ 2 - 16 x_48_ ^ 2 ] >= -4093
quadratic_ranged_14_lb: -47 x_3_ + 34 x_12_ + [ -28 x_14_ * x_3_ + 50 x_32_ * x_3_ - 8 x_35_ * x_3_ + 34 x_42_ * x_3_ + 92 x_14_ * x_4_ - 36 x_30_ * x_4_ - 80 x_32_ * x_4_ + 22 x_42_ * x_4_ - 88 x_14_ * x_12_ - 2 x_32_ * x_12_ + 58 x_42_ * x_12_ - 36 x_13_ ^ 2 - 28 x_14_ * x_13_ - 24 x_30_ * x_13_ - 8 x_42_ * x_14_ + 14 x_32_ * x_30_ + 20 x_35_ * x_32_ - 20 x_42_ * x_35_ + 28 x_42_ ^ 2 ] >= 1966
quadratic_ranged_15_lb: 43 x_27_ - 42 x_40_ + [ 84 x_3_ * x_7_ + 46 x_29_ * x_3_ - 30 x_40_ * x_3_ + 20 x_40_ * x_7_ - 84 x_29_ * x_11_ + 86 x_48_ * x_11_ - 32 x_29_ * x_24_ + 78 x_40_ * x_24_ + 62 x_40_ * x_27_ ] >= -2636
quadratic_ranged_16_lb: 7 x_18_ - 46 x_48_ + [ 32 x_10_ * x_2_ + 50 x_48_ * x_4_ - 43 x_10_ ^ 2 + 6 x_18_ * x_10_ + 36 x_19_ * x_10_ + 68 x_18_ * x_12_ + 6 x_18_ ^ 2 - 4 x_31_ * x_18_ ] >= 3584
quadratic_ranged_17_lb: -3 x_13_ + 17 x_17_ - 41 x_40_ + 42 x_48_ + [ 84 x_9_ * x_26_ + 100 x_40_ * x_9_ + 12 x_17_ * x_13_ + 26 x_26_ * x_16_ - 70 x_40_ * x_16_ + 70 x_26_ * x_17_ - 34 x_26_ * x_24_ - 10 x_48_ * x_24_ - 88 x_48_ * x_25_ ] >= -4791
quadratic_ranged_18_lb: [ -86 x_2_ * x_1_ - 14 x_4_ * x_1_ + 4 x_9_ * x_1_ - 60 x_16_ * x_1_ + 4 x_47_ * x_1_ - 48 x_50_ * x_1_ + 64 x_23_ * x_2_ - 32 x_4_ ^ 2 + 98 x_23_ * x_4_ - 24 x_33_ * x_4_ - 88 x_47_ * x_4_ + 50 x_23_ * x_9_ - 21 x_16_ ^ 2 - 60 x_41_ * x_23_ - 78 x_47_ * x_23_ + 2 x_41_ * x_33_ - 38 x_47_ * x_36_ + 20 x_50_ * x_36_ ] >= -3264
quadratic_ranged_19_lb: -26 x_5_ - 41 x_20_ - 34 x_24_ + [ -26 x_5_ ^ 2 + 76 x_25_ * x_5_ + 64 x_30_ * x_5_ - 46 x_38_ * x_5_ + 30 x_20_ * x_8_ + 52 x_34_ * x_8_ + 48 x_38_ * x_8_ + 86 x_44_ * x_8_ - 62 x_24_ * x_20_ - 29 x_24_ ^ 2 - 92 x_25_ * x_24_ - 92 x_38_ * x_24_ - 54 x_46_ * x_25_ - 42 x_28_ ^ 2 + 96 x_30_ * x_28_ + 24 x_38_ * x_28_ - 84 x_44_ * x_28_ + 64 x_46_ * x_28_ - 8 x_48_ * x_30_ + 44 x_34_ ^ 2 - 100 x_40_ * x_34_ + 52 x_46_ * x_34_ - 88 x_44_ * x_40_ + 44 x_46_ * x_40_ + 9 x_44_ ^ 2 ] >= 6902
quadratic_ranged_20_lb: -48 x_14_ - 33 x_24_ + 1 x_26_ + [ -16 x_15_ * x_1_ + 88 x_26_ * x_1_ - 42 x_46_ * x_1_ + 18 x_46_ * x_5_ + 38 x_13_ * x_12_ + 22 x_14_ * x_12_ - 58 x_26_ * x_13_ - 54 x_38_ * x_13_ + 52 x_46_ * x_15_ + 40 x_24_ ^ 2 + 58 x_38_ * x_24_ + 22 x_46_ * x_24_ - 92 x_38_ * x_26_ + 2 x_46_ * x_31_ ] >= -6868
quadratic_ranged_21_lb: -5 x_31_ - 1 x_35_ - 34 x_46_ + [ -42 x_15_ * x_10_ + 36 x_45_ * x_10_ + 74 x_46_ * x_10_ - 36 x_22_ * x_15_ - 6 x_31_ * x_15_ + 78 x_45_ * x_15_ + 38 x_22_ ^ 2 + 38 x_32_ * x_22_ - 35 x_35_ ^ 2 ] >= 2856
quadratic_ranged_22_lb: 6 x_27_ + [ -4 x_9_ ^ 2 - 12 x_21_ * x_9_ - 78 x_30_ * x_9_ - 24 x_34_ * x_9_ - 41 x_20_ ^ 2 - 78 x_28_ * x_20_ + 78 x_33_ * x_20_ + 84 x_27_ * x_21_ + 46 x_37_ * x_21_ - 23 x_28_ ^ 2 - 44 x_46_ * x_28_ + 25 x_30_ ^ 2 - 4 x_37_ * x_34_ - 3 x_37_ ^ 2 - 84 x_46_ * x_37_ - 40 x_50_ * x_37_ ] >= -878
quadratic_ranged_23_lb: 40 x_21_ + 47 x_31_ + 35 x_35_ + [ -72 x_39_ * x_6_ + 48 x_9_ ^ 2 - 46 x_31_ * x_11_ + 26 x_21_ ^ 2 - 42 x_35_ * x_21_ + 42 x_46_ * x_21_ - 100 x_39_ * x_23_ + 48 x_32_ * x_31_ - 24 x_39_ * x_31_ + 96 x_46_ * x_31_ + 10 x_46_ * x_32_ + 54 x_46_ * x_35_ - 8 x_39_ ^ 2 ] >= -538
quadratic_ranged_24_lb: -31 x_17_ + [ -46 x_13_ * x_46_ ] >= 2664
quadratic_ranged_25_lb: 16 x_24_ + 10 x_25_ - 38 x_41_ + [ -7 x_9_ ^ 2 - 34 x_40_ * x_9_ + 49 x_13_ ^ 2 + 32 x_22_ * x_13_ - 22 x_24_ * x_13_ + 18 x_25_ * x_13_ - 14 x_44_ * x_15_ - 78 x_44_ * x_22_ + 74 x_25_ * x_24_ + 60 x_47_ * x_24_ + 64 x_46_ * x_25_ - 30 x_44_ * x_29_ + 3 x_41_ ^ 2 - 38 x_46_ * x_41_ - 36 x_47_ * x_44_ ] >= 9617
quadratic_ranged_26_lb: 38 x_29_ - 5 x_39_ + [ -22 x_29_ * x_2_ - 66 x_29_ * x_13_ + 32 x_33_ * x_13_ + 74 x_43_ * x_13_ + 38 x_16_ ^ 2 - 70 x_43_ * x_18_ - 30 x_32_ ^ 2 + 35 x_43_ ^ 2 ] >= -2428
quadratic_ranged_27_lb: 48 x_30_ + [ 36 x_14_ ^ 2 + 26 x_25_ * x_14_ + 18 x_30_ * x_14_ - 80 x_37_ * x_14_ + 68 x_39_ * x_14_ - 2 x_22_ * x_18_ + 40 x_39_ * x_18_ + 76 x_49_ * x_18_ + 40 x_25_ * x_22_ + 68 x_45_ * x_22_ - 100 x_49_ * x_22_ + 17 x_25_ ^ 2 - 54 x_38_ * x_25_ - 98 x_39_ * x_25_ + 48 x_47_ * x_25_ - 20 x_39_ * x_30_ - 47 x_37_ ^ 2 - 90 x_38_ * x_37_ - 98 x_47_ * x_38_ - 18 x_49_ ^ 2 ] >= 11332
quadratic_ranged_28_lb: 14 x_35_ + [ 2 x_1_ * x_44_ - 38 x_35_ * x_29_ - 36 x_35_ * x_31_ ] >= 1237
quadratic_ranged_29_lb: -29 x_10_ + 33 x_25_ - 37 x_35_ + [ -32 x_24_ * x_1_ + 2 x_30_ * x_1_ + 90 x_48_ * x_1_ + 25 x_3_ ^ 2 + 76 x_10_ * x_3_ - 92 x_25_ * x_3_ - 76 x_27_ * x_3_ - 72 x_50_ * x_3_ - 9 x_10_ ^ 2 + 2 x_31_ * x_10_ - 52 x_40_ * x_10_ - 52 x_50_ * x_11_ + 94 x_27_ * x_24_ - 8 x_27_ * x_25_ + 82 x_35_ * x_25_ + 8 x_27_ ^ 2 - 68 x_40_ * x_27_ + 16 x_48_ * x_27_ - 72 x_36_ * x_30_ + 70 x_48_ * x_30_ + 100 x_35_ * x_31_ + 100 x_48_ * x_36_ - 32 x_48_ ^ 2 - 20 x_50_ * x_48_ ] >= -7717
quadratic_ranged_30_lb: 10 x_2_ - 27 x_23_ - 40 x_31_ - 47 x_50_ + [ -16 x_2_ ^ 2 + 76 x_17_ * x_2_ - 10 x_23_ * x_2_ + 90 x_38_ * x_2_ + 94 x_48_ * x_2_ + 84 x_17_ * x_11_ - 66 x_18_ * x_11_ - 78 x_21_ * x_17_ + 98 x_23_ * x_17_ + 16 x_31_ * x_17_ - 46 x_48_ * x_21_ + 86 x_50_ * x_23_ + 17 x_31_ ^ 2 + 72 x_50_ * x_32_ - 5 x_38_ ^ 2 + 20 x_48_ * x_38_ + 26 x_50_ * x_38_ ] >= -10553
quadratic_ranged_31_lb: [ 72 x_16_ * x_2_ - 98 x_20_ * x_2_ - 6 x_25_ * x_2_ - 14 x_20_ * x_16_ - 76 x_23_ * x_16_ + 24 x_23_ ^ 2 + 100 x_25_ * x_23_ - 42 x_48_ * x_32_ + 54 x_48_ * x_37_ + 22 x_48_ ^ 2 ] >= 8085
quadratic_ranged_32_lb: -1 x_7_ + 46 x_11_ + 49 x_40_ + [ 30 x_11_ * x_7_ + 26 x_40_ * x_7_ - 14 x_32_ * x_29_ + 74 x_47_ * x_32_ - 37 x_35_ ^ 2 + 86 x_47_ * x_35_ ] >= -2371
quadratic_ranged_33_lb: -37 x_2_ - 13 x_35_ - 44 x_38_ + [ -41 x_1_ ^ 2 - 2 x_14_ * x_1_ + 62 x_22_ * x_1_ - 21 x_2_ ^ 2 - 98 x_8_ * x_2_ + 16 x_10_ * x_2_ - 96 x_14_ * x_2_ - 88 x_22_ * x_2_ - 90 x_35_ * x_10_ - 12 x_22_ * x_14_ + 84 x_24_ * x_21_ - 76 x_31_ * x_21_ - 64 x_32_ * x_21_ + 22 x_22_ ^ 2 + 72 x_38_ * x_22_ + 86 x_38_ * x_24_ + 62 x_32_ * x_31_ ] >= -6792
quadratic_ranged_34_lb: [ 62 x_7_ * x_2_ + 42 x_50_ * x_2_ - 20 x_12_ * x_7_ - 70 x_15_ * x_7_ - 12 x_16_ * x_7_ - 18 x_32_ * x_7_ - 8 x_39_ * x_7_ + 6 x_16_ * x_12_ - 58 x_39_ * x_12_ + 8 x_50_ * x_12_ + 3 x_15_ ^ 2 + 10 x_16_ * x_15_ + 88 x_39_ * x_15_ ] >= -11139
quadratic_ranged_35_lb: 10 x_22_ - 24 x_34_ - 47 x_35_ + [ -10 x_41_ * x_13_ - 22 x_49_ * x_13_ + 48 x_36_ * x_34_ - 92 x_41_ * x_34_ + 60 x_42_ * x_34_ - 34 x_36_ * x_35_ + 20 x_42_ * x_35_ + 68 x_41_ * x_36_ + 28 x_42_ * x_36_ + 22 x_42_ * x_37_ + 68 x_49_ * x_41_ - 34 x_42_ ^ 2 - 25 x_49_ ^ 2 ] >= 7578
quadratic_ranged_36_lb: -22 x_3_ - 42 x_39_ + [ 76 x_18_ * x_3_ - 86 x_46_ * x_21_ + 92 x_46_ * x_39_ + 39 x_46_ ^ 2 - 10 x_47_ * x_46_ ] >= 9510
quadratic_ranged_37_lb: 10 x_19_ + [ 70 x_2_ * x_1_ + 74 x_20_ * x_1_ - 2 x_24_ * x_1_ - 34 x_20_ * x_2_ - 92 x_20_ * x_5_ - 86 x_20_ * x_12_ + 86 x_24_ * x_12_ + 33 x_18_ ^ 2 - 88 x_48_ * x_18_ + 50 x_48_ * x_19_ - 19 x_24_ ^ 2 ] >= 10366
quadratic_ranged_38_lb: 5 x_3_ + [ -72 x_1_ * x_23_ + 66 x_24_ * x_3_ - 78 x_23_ * x_9_ - 96 x_38_ * x_9_ + 70 x_39_ * x_9_ + 58 x_13_ * x_11_ - 28 x_23_ * x_13_ - 96 x_24_ * x_13_ + 4 x_42_ * x_13_ - 6 x_29_ * x_23_ + 20 x_39_ * x_23_ + 78 x_42_ * x_39_ ] >= -5886
quadratic_ranged_39_lb: -5 x_25_ + 11 x_29_ - 50 x_46_ + [ -20 x_12_ * x_8_ + 66 x_20_ * x_8_ + 96 x_25_ * x_8_ - 14 x_29_ * x_8_ + 88 x_40_ * x_8_ - 28 x_29_ * x_12_ - 6 x_25_ ^ 2 - 45 x_29_ ^ 2 - 72 x_40_ * x_36_ - 16 x_46_ * x_40_ ] >= -3653
quadratic_ranged_40_lb: [ -47 x_5_ ^ 2 - 4 x_22_ * x_5_ - 42 x_28_ * x_5_ - 88 x_29_ * x_8_ - 24 x_21_ * x_9_ + 96 x_22_ * x_9_ - 74 x_45_ * x_9_ + 43 x_11_ ^ 2 + 94 x_45_ * x_21_ ] >= -5033
quadratic_ranged_41_lb: -25 x_7_ + 4 x_24_ + [ -76 x_2_ * x_1_ + 88 x_10_ * x_1_ + 34 x_24_ * x_1_ - 8 x_48_ * x_1_ + 82 x_10_ * x_2_ + 100 x_23_ * x_2_ + 80 x_16_ * x_7_ - 6 x_45_ * x_7_ + 44 x_10_ ^ 2 + 80 x_19_ * x_10_ - 12 x_45_ * x_10_ - 8 x_14_ ^ 2 + 76 x_45_ * x_14_ + 66 x_23_ * x_19_ + 48 x_48_ * x_19_ + 44 x_24_ * x_20_ + 78 x_48_ * x_20_ + 20 x_45_ * x_23_ - 82 x_45_ * x_24_ - 94 x_48_ * x_24_ - 44 x_48_ ^ 2 ] >= -4051
quadratic_ranged_42_lb: 3 x_48_ + [ -100 x_7_ * x_1_ + 78 x_13_ * x_1_ + 12 x_28_ * x_1_ + 14 x_32_ * x_1_ - 56 x_48_ * x_7_ + 36 x_37_ * x_13_ + 38 x_48_ * x_13_ + 16 x_28_ ^ 2 + 16 x_48_ * x_28_ - 16 x_37_ * x_32_ + 18 x_48_ * x_32_ + 92 x_42_ * x_37_ ] >= 4121
quadratic_ranged_43_lb: 1 x_32_ - 15 x_38_ - 14 x_50_ + [ -46 x_9_ ^ 2 + 40 x_46_ * x_9_ - 32 x_46_ * x_12_ - 22 x_50_ * x_32_ + 27 x_46_ ^ 2 + 6 x_50_ * x_46_ ] >= 6877
quadratic_ranged_44_lb: [ -4 x_2_ * x_1_ + 30 x_6_ * x_2_ + 62 x_27_ * x_2_ - 48 x_36_ * x_2_ - 84 x_39_ * x_2_ + 52 x_36_ * x_6_ + 80 x_39_ * x_6_ - 88 x_43_ * x_27_ + 48 x_49_ * x_27_ + 46 x_43_ * x_36_ + 35 x_43_ ^ 2 + 12 x_49_ ^ 2 ] >= 11964
quadratic_ranged_45_lb: 43 x_47_ + 27 x_48_ + 47 x_49_ + [ 38 x_13_ * x_2_ + 78 x_17_ * x_2_ + 22 x_49_ * x_2_ - 45 x_9_ ^ 2 + 32 x_13_ * x_9_ + 34 x_30_ * x_9_ + 4 x_42_ * x_9_ + 12 x_49_ * x_9_ - 22 x_17_ * x_13_ + 86 x_24_ * x_13_ + 4 x_30_ * x_17_ - 82 x_49_ * x_22_ - 54 x_42_ * x_30_ + 32 x_48_ * x_30_ - 49 x_42_ ^ 2 + 16 x_48_ * x_42_ + 2 x_48_ * x_47_ - 4 x_48_ ^ 2 ] >= 3332
quadratic_ranged_46_lb: 36 x_22_ - 27 x_28_ + [ -22 x_27_ * x_5_ + 26 x_28_ * x_5_ - 7 x_7_ ^ 2 - 2 x_22_ * x_7_ + 22 x_37_ * x_22_ + 90 x_37_ * x_36_ - 2 x_39_ ^ 2 ] >= 2915
quadratic_ranged_47_lb: -20 x_18_ - 50 x_21_ - 13 x_39_ + [ -46 x_2_ ^ 2 + 10 x_39_ * x_2_ + 26 x_38_ * x_18_ + 54 x_44_ * x_18_ ] >= -3383
quadratic_ranged_48_lb: 20 x_16_ + 1 x_50_ + [ 2 x_11_ * x_3_ - 30 x_18_ * x_3_ - 38 x_31_ * x_3_ + 2 x_45_ * x_3_ + 4 x_50_ * x_3_ - 22 x_16_ * x_11_ - 48 x_18_ * x_11_ + 72 x_31_ * x_11_ - 8 x_45_ * x_11_ - 56 x_49_ * x_11_ - 84 x_18_ * x_14_ - 52 x_26_ * x_14_ - 90 x_44_ * x_14_ + 88 x_47_ * x_14_ + 22 x_44_ * x_16_ + 46 x_42_ * x_18_ + 58 x_44_ * x_18_ + 34 x_45_ * x_18_ + 32 x_47_ * x_18_ + 6 x_49_ * x_18_ - 8 x_45_ * x_20_ - 30 x_47_ * x_20_ - 32 x_26_ ^ 2 + 82 x_31_ * x_26_ - 36 x_42_ * x_26_ - 80 x_49_ * x_26_ - 20 x_31_ ^ 2 + 38 x_44_ * x_31_ - 44 x_42_ ^ 2 - 62 x_50_ * x_42_ - 26 x_47_ * x_44_ + 50 x_47_ * x_45_ + 44 x_49_ * x_45_ + 70 x_49_ * x_47_ - 39 x_49_ ^ 2 ] >= 5308
quadratic_ranged_49_lb: 25 x_35_ + 1 x_41_ + [ 66 x_6_ * x_1_ - 38 x_22_ * x_1_ + 84 x_15_ * x_6_ + 82 x_41_ * x_6_ + 34 x_15_ ^ 2 - 22 x_49_ * x_15_ + 100 x_23_ * x_22_ - 26 x_30_ * x_22_ + 10 x_35_ * x_23_ + 62 x_49_ * x_30_ + 58 x_41_ * x_35_ - 22 x_41_ ^ 2 - 70 x_43_ * x_41_ + 45 x_49_ ^ 2 ] >= -4392
c1: 48 x_26_ + [ -92 x_4_ * x_26_ + 84 x_38_ * x_4_ + 12 x_38_ * x_21_ - 46 x_26_ * x_24_ - 96 x_38_ * x_24_ ] = 10992
c2: [ 66 x_26_ * x_6_ - 72 x_17_ * x_9_ + 84 x_22_ * x_9_ - 80 x_26_ * x_17_ - 36 x_40_ * x_17_ - 25 x_22_ ^ 2 + 100 x_26_ * x_22_ - 6 x_50_ * x_26_ + 29 x_50_ ^ 2 ] = -367
c3: 50 x_13_ - 7 x_29_ + 34 x_46_ - 7 x_47_ + [ -38 x_13_ * x_2_ + 14 x_17_ * x_2_ - 40 x_34_ * x_2_ + 48 x_31_ * x_8_ + 10 x_47_ * x_8_ + 92 x_17_ * x_13_ - 64 x_49_ * x_13_ + 46 x_33_ * x_16_ - 44 x_34_ * x_16_ + 82 x_47_ * x_16_ - 18 x_46_ * x_17_ + 56 x_47_ * x_17_ + 68 x_46_ * x_21_ - 24 x_49_ * x_21_ + 4 x_23_ ^ 2 + 94 x_34_ * x_23_ + 28 x_30_ * x_28_ - 24 x_31_ * x_28_ + 18 x_34_ * x_28_ + 82 x_44_ * x_28_ - 4 x_33_ * x_29_ + 58 x_44_ * x_29_ + 34 x_46_ * x_29_ + 46 x_49_ * x_29_ - 72 x_33_ * x_31_ + 18 x_34_ * x_31_ - 100 x_44_ * x_31_ - 34 x_47_ * x_31_ + 78 x_49_ * x_31_ - 26 x_33_ ^ 2 - 64 x_49_ * x_46_ ] = -3438
c4: [ -47 x_1_ ^ 2 + 28 x_20_ * x_1_ - 48 x_27_ * x_1_ - 30 x_27_ * x_16_ + 62 x_36_ * x_16_ + 56 x_38_ * x_16_ - 44 x_22_ * x_20_ + 66 x_27_ * x_21_ - 46 x_38_ * x_21_ + 26 x_27_ * x_22_ - 76 x_31_ * x_22_ + 22 x_49_ * x_22_ + 16 x_36_ * x_27_ + 52 x_38_ * x_31_ - 32 x_49_ * x_31_ - 36 x_49_ ^ 2 ] = -5485
c5: [ -90 x_39_ * x_3_ - 86 x_47_ * x_3_ + 14 x_14_ ^ 2 - 84 x_44_ * x_14_ - 44 x_45_ * x_14_ - 68 x_47_ * x_29_ + 32 x_44_ * x_39_ - 31 x_40_ ^ 2 + 10 x_44_ ^ 2 + 50 x_46_ * x_44_ + 10 x_47_ ^ 2 ] = 2183
c6: 29 x_7_ - 46 x_13_ + 21 x_37_ + 35 x_41_ + [ 48 x_37_ * x_3_ - 88 x_44_ * x_3_ + 16 x_22_ * x_7_ - 82 x_45_ * x_13_ - 22 x_50_ * x_13_ - 72 x_30_ * x_22_ - 62 x_45_ * x_22_ - 37 x_30_ ^ 2 + 22 x_40_ * x_30_ + 30 x_40_ * x_37_ - 40 x_45_ * x_37_ + 32 x_40_ ^ 2 + 16 x_44_ * x_40_ + 98 x_45_ * x_40_ + 90 x_50_ * x_44_ ] = -3462
c7: -25 x_18_ + 33 x_37_ - 34 x_48_ + [ 96 x_25_ * x_1_ - 34 x_5_ * x_2_ - 24 x_48_ * x_2_ - 6 x_5_ ^ 2 + 48 x_25_ * x_16_ + 2 x_42_ * x_18_ + 50 x_24_ ^ 2 + 16 x_42_ * x_24_ + 11 x_25_ ^ 2 - 16 x_26_ * x_25_ - 62 x_48_ * x_25_ + 70 x_48_ * x_26_ - 40 x_48_ * x_37_ ] = -3054
c8: 33 x_11_ + 31 x_12_ - 36 x_32_ + [ -62 x_32_ * x_6_ - 22 x_46_ ^ 2 ] = 2003
c9: -36 x_25_ + 30 x_26_ + 47 x_27_ - 10 x_45_ + [ -28 x_9_ * x_25_ + 84 x_45_ * x_19_ ] = 7531
c10: -25 x_14_ + 35 x_46_ + [ 68 x_16_ * x_46_ ] = 2340
c11: 21 x_3_ + 35 x_25_ - 35 x_44_ + [ -48 x_24_ * x_2_ + 74 x_25_ * x_2_ + 2 x_44_ * x_2_ + 56 x_31_ * x_3_ - 68 x_42_ * x_3_ - 72 x_7_ * x_4_ + 8 x_25_ * x_4_ - 4 x_31_ * x_4_ - 28 x_24_ * x_7_ - 74 x_31_ * x_7_ + 14 x_12_ ^ 2 + 40 x_42_ * x_12_ - 44 x_24_ ^ 2 - 52 x_44_ * x_24_ + 48 x_50_ * x_24_ - 72 x_31_ * x_25_ - 20 x_42_ * x_31_ + 84 x_44_ * x_42_ + 56 x_50_ * x_44_ ] = -14409
c12: 29 x_2_ + 3 x_10_ - 8 x_19_ + 24 x_46_ + [ 5 x_2_ ^ 2 - 18 x_30_ * x_2_ + 66 x_19_ * x_10_ + 6 x_28_ * x_10_ + 40 x_34_ * x_10_ - 52 x_28_ * x_16_ - 98 x_40_ * x_16_ + 64 x_46_ * x_18_ + 14 x_21_ * x_19_ - 16 x_27_ * x_19_ - 96 x_30_ * x_19_ + 54 x_40_ * x_19_ - 37 x_21_ ^ 2 + 26 x_34_ * x_21_ + 98 x_27_ * x_26_ + 10 x_46_ * x_26_ + 34 x_34_ * x_27_ - 28 x_40_ * x_28_ + 94 x_46_ * x_30_ - 48 x_34_ ^ 2 + 56 x_44_ * x_40_ ] = -11066
c13: 34 x_15_ + 33 x_21_ + 11 x_39_ - 49 x_40_ + [ 32 x_21_ * x_9_ + 4 x_39_ * x_9_ + 54 x_37_ * x_15_ - 74 x_37_ * x_21_ + 52 x_40_ * x_32_ - 28 x_42_ * x_32_ + 12 x_49_ * x_32_ - 24 x_40_ * x_33_ + 94 x_48_ * x_33_ + 42 x_49_ * x_33_ - 8 x_39_ ^ 2 - 14 x_42_ * x_39_ + 98 x_49_ * x_39_ - 68 x_42_ * x_40_ + 23 x_42_ ^ 2 ] = -10452
c14: 49 x_18_ + 31 x_32_ - 40 x_43_ + [ -58 x_48_ * x_18_ - 78 x_32_ * x_26_ - 30 x_48_ * x_26_ - 2 x_32_ * x_30_ + 86 x_48_ * x_32_ + 16 x_38_ ^ 2 - 88 x_50_ * x_38_ - 50 x_48_ * x_47_ ] = -9309
c15: 49 x_46_ + [ 14 x_1_ ^ 2 - 26 x_5_ * x_4_ + 90 x_17_ * x_4_ - 40 x_27_ * x_5_ + 56 x_29_ * x_7_ ] = 3940
c16: 23 x_21_ + [ 98 x_42_ * x_2_ - 16 x_8_ * x_5_ - 44 x_42_ * x_18_ - 44 x_29_ * x_22_ + 10 x_32_ * x_22_ - 19 x_28_ ^ 2 + 62 x_32_ * x_28_ - 37 x_29_ ^ 2 + 22 x_32_ * x_29_ - 42 x_42_ * x_29_ - 54 x_44_ * x_29_ - 10 x_32_ ^ 2 ] = 641
c17: -33 x_13_ - 15 x_33_ + [ 48 x_24_ * x_11_ - 82 x_38_ * x_11_ + 2 x_18_ * x_13_ + 30 x_33_ * x_13_ + 92 x_35_ * x_24_ - 28 x_40_ * x_25_ + 20 x_47_ * x_25_ - 16 x_38_ * x_27_ - 31 x_33_ ^ 2 - 4 x_47_ * x_33_ + 34 x_35_ ^ 2 - 13 x_47_ ^ 2 ] = -12016
c18: 3 x_26_ + 17 x_43_ + [ 64 x_3_ * x_47_ + 94 x_29_ * x_8_ - 46 x_43_ * x_26_ + 16 x_37_ * x_29_ - 46 x_47_ * x_29_ ] = 1313
c19: -40 x_5_ + 41 x_29_ + 21 x_33_ + [ -45 x_5_ ^ 2 - 96 x_33_ * x_12_ + 90 x_29_ * x_16_ + 36 x_29_ * x_27_ - 32 x_33_ ^ 2 ] = 505
c20: [ 72 x_14_ * x_6_ + 94 x_43_ * x_6_ + 14 x_44_ * x_6_ - 40 x_14_ ^ 2 + 84 x_16_ * x_14_ - 2 x_47_ * x_14_ + 82 x_47_ * x_15_ - 26 x_44_ * x_19_ + 24 x_35_ ^ 2 - 66 x_44_ * x_43_ ] = 10070
c21: 16 x_35_ + 28 x_46_ + [ -48 x_28_ * x_7_ + 100 x_28_ * x_21_ + 58 x_49_ * x_21_ - 88 x_35_ * x_28_ - 62 x_46_ * x_28_ + 76 x_46_ * x_35_ - 32 x_50_ * x_35_ - 27 x_50_ ^ 2 ] = 580
c22: -16 x_1_ + 22 x_24_ + 2 x_45_ + [ 16 x_24_ * x_38_ - 72 x_45_ * x_24_ ] = -8800
c23: -48 x_13_ - 25 x_33_ - 28 x_41_ + [ -6 x_11_ ^ 2 + 60 x_26_ * x_11_ + 76 x_35_ * x_11_ + 18 x_41_ * x_11_ + 37 x_12_ ^ 2 - 2 x_26_ * x_12_ - 12 x_32_ * x_12_ - 92 x_23_ * x_13_ - 22 x_33_ * x_13_ - 78 x_35_ * x_23_ + 6 x_41_ * x_23_ - 42 x_48_ * x_23_ + 32 x_32_ * x_26_ + 38 x_35_ * x_27_ + 94 x_41_ * x_30_ + 46 x_48_ * x_33_ - 22 x_36_ * x_35_ ] = 2760
c24: [ -40 x_3_ * x_1_ + 50 x_35_ * x_16_ + 92 x_41_ * x_16_ - 14 x_29_ * x_25_ - 32 x_41_ * x_34_ - 28 x_35_ ^ 2 - 20 x_41_ ^ 2 - 20 x_48_ ^ 2 ] = -824
c25: 33 x_7_ - 37 x_23_ + [ -12 x_13_ * x_4_ + 82 x_16_ * x_4_ + 92 x_13_ * x_7_ + 16 x_16_ * x_7_ + 8 x_13_ ^ 2 + 38 x_40_ * x_13_ + 31 x_18_ ^ 2 - 50 x_23_ ^ 2 ] = 5292
c26: 11 x_25_ - 27 x_26_ + 31 x_33_ - 20 x_39_ + [ -72 x_16_ * x_4_ - 60 x_17_ * x_4_ + 56 x_26_ * x_4_ + 26 x_11_ * x_6_ + 60 x_16_ * x_6_ - 60 x_29_ * x_6_ - 2 x_31_ * x_6_ + 6 x_39_ * x_6_ + 86 x_31_ * x_11_ + 82 x_49_ * x_11_ + 10 x_17_ ^ 2 + 2 x_19_ * x_17_ + 26 x_25_ * x_17_ + 16 x_29_ * x_17_ - 40 x_26_ * x_19_ + 92 x_33_ * x_19_ + 64 x_49_ * x_19_ + 48 x_33_ * x_20_ + 50 x_49_ * x_20_ - 54 x_29_ * x_24_ - 76 x_39_ * x_24_ - 22 x_31_ * x_25_ + 17 x_31_ ^ 2 - 28 x_49_ * x_31_ - 1 x_33_ ^ 2 + 28 x_39_ ^ 2 + 6 x_49_ * x_39_ ] = -3150
c27: -5 x_10_ + [ 98 x_5_ * x_1_ - 44 x_24_ * x_1_ - 17 x_5_ ^ 2 + 94 x_13_ * x_5_ + 96 x_22_ * x_5_ + 66 x_24_ * x_5_ - 34 x_24_ * x_10_ + 40 x_35_ * x_10_ - 48 x_41_ * x_10_ - 44 x_22_ * x_13_ - 8 x_41_ * x_22_ - 36 x_35_ * x_24_ ] = 5893
c28: -17 x_30_ - 49 x_31_ + [ 70 x_11_ * x_6_ - 64 x_31_ * x_6_ + 98 x_45_ * x_6_ + 58 x_11_ * x_8_ - 54 x_17_ * x_8_ - 48 x_31_ * x_8_ + 35 x_10_ ^ 2 + 66 x_30_ * x_19_ - 12 x_31_ * x_23_ + 66 x_41_ * x_30_ - 46 x_41_ * x_31_ - 50 x_45_ * x_31_ - 98 x_43_ * x_41_ + 36 x_43_ ^ 2 ] = -3457
c29: 22 x_11_ + [ -14 x_22_ * x_9_ + 34 x_18_ * x_11_ + 16 x_27_ * x_11_ + 14 x_31_ * x_11_ + 36 x_27_ * x_18_ + 62 x_31_ * x_18_ + 74 x_39_ * x_18_ + 22 x_22_ ^ 2 - 52 x_31_ * x_22_ + 34 x_49_ * x_24_ - 13 x_27_ ^ 2 - 62 x_31_ * x_27_ - 48 x_43_ ^ 2 ] = -1955
c30: 19 x_16_ - 2 x_33_ - 47 x_36_ + [ -45 x_1_ ^ 2 - 30 x_16_ * x_1_ - 94 x_33_ * x_1_ + 16 x_2_ ^ 2 - 48 x_17_ * x_2_ + 46 x_34_ * x_2_ - 12 x_14_ * x_11_ + 80 x_23_ * x_11_ + 16 x_36_ * x_11_ - 96 x_25_ * x_14_ + 54 x_34_ * x_14_ + 36 x_36_ * x_14_ + 20 x_38_ * x_23_ ] = -5606
c31: [ -98 x_32_ * x_9_ - 94 x_35_ * x_9_ - 8 x_44_ * x_12_ - 18 x_35_ * x_20_ + 7 x_30_ ^ 2 + 12 x_39_ * x_30_ + 36 x_32_ ^ 2 - 35 x_35_ ^ 2 + 34 x_39_ * x_35_ ] = 3165
c32: -34 x_17_ - 36 x_41_ + [ -21 x_11_ ^ 2 + 92 x_35_ * x_11_ - 36 x_41_ * x_11_ - 34 x_32_ * x_17_ + 76 x_35_ * x_17_ + 36 x_33_ * x_28_ - 15 x_35_ ^ 2 - 12 x_41_ * x_35_ ] = 3335
c33: 35 x_40_ - 24 x_47_ + [ 46 x_12_ * x_5_ + 8 x_28_ * x_5_ + 27 x_8_ ^ 2 + 64 x_28_ * x_8_ + 40 x_47_ * x_8_ - 76 x_27_ * x_12_ + 12 x_30_ * x_22_ - 92 x_47_ * x_22_ + 56 x_30_ * x_26_ + 58 x_40_ * x_29_ - 17 x_30_ ^ 2 + 58 x_47_ * x_32_ + 62 x_40_ * x_38_ ] = 10101
c34: 42 x_34_ + [ 86 x_7_ * x_43_ + 8 x_44_ * x_7_ - 10 x_47_ * x_7_ - 16 x_47_ * x_34_ - 42 x_47_ * x_44_ ] = -2144
c35: 30 x_21_ + 15 x_37_ - 18 x_39_ + [ 54 x_14_ * x_5_ + 25 x_21_ ^ 2 - 40 x_39_ * x_21_ - 94 x_49_ * x_21_ + 36 x_31_ * x_25_ + 96 x_39_ * x_36_ + 43 x_37_ ^ 2 - 68 x_49_ * x_45_ ] = 5140
c36: [ -86 x_15_ * x_21_ - 62 x_21_ * x_19_ - 80 x_24_ * x_19_ + 60 x_42_ * x_20_ - 34 x_24_ * x_21_ + 68 x_42_ * x_21_ ] = 1756
c37: 47 x_25_ - 13 x_26_ - 12 x_30_ + 5 x_37_ + [ -44 x_4_ * x_12_ + 94 x_25_ * x_4_ - 58 x_26_ * x_4_ - 22 x_34_ * x_12_ + 68 x_38_ * x_12_ - 6 x_25_ * x_19_ - 42 x_30_ * x_19_ - 2 x_42_ * x_19_ - 36 x_25_ * x_23_ + 28 x_30_ * x_23_ + 58 x_38_ * x_23_ + 6 x_38_ * x_30_ + 54 x_38_ * x_34_ - 8 x_42_ * x_37_ ] = -741
c38: -11 x_17_ + 26 x_31_ + [ -36 x_15_ * x_12_ - 90 x_17_ * x_12_ - 76 x_44_ * x_12_ + 88 x_36_ * x_15_ + 36 x_44_ * x_15_ + 13 x_17_ ^ 2 - 34 x_31_ * x_17_ - 32 x_44_ * x_17_ + 36 x_31_ ^ 2 + 64 x_36_ * x_31_ - 52 x_44_ * x_32_ + 29 x_44_ ^ 2 ] = -1083
c39: 8 x_41_ + [ -29 x_2_ ^ 2 - 6 x_17_ * x_2_ + 92 x_20_ * x_2_ + 16 x_41_ * x_2_ - 40 x_48_ * x_2_ - 6 x_6_ ^ 2 + 1 x_15_ ^ 2 + 10 x_20_ * x_15_ - 12 x_48_ * x_15_ - 98 x_27_ * x_17_ + 80 x_30_ * x_17_ - 86 x_39_ * x_17_ + 84 x_41_ * x_17_ - 84 x_27_ * x_20_ + 66 x_48_ * x_25_ + 22 x_27_ ^ 2 + 62 x_34_ * x_27_ + 12 x_39_ * x_34_ ] = -7190
c40: -13 x_12_ - 47 x_43_ + 1 x_45_ + [ 94 x_14_ * x_9_ + 82 x_25_ * x_9_ + 46 x_22_ * x_12_ + 18 x_50_ * x_12_ + 30 x_22_ * x_14_ + 64 x_25_ * x_14_ + 10 x_50_ * x_14_ + 78 x_22_ * x_17_ + 98 x_43_ * x_17_ + 72 x_45_ * x_17_ + 14 x_22_ ^ 2 + 40 x_25_ * x_22_ - 41 x_25_ ^ 2 ] = -4959
c41: 14 x_42_ + [ 38 x_3_ * x_10_ + 88 x_15_ * x_3_ + 66 x_18_ * x_3_ + 72 x_22_ * x_3_ + 78 x_21_ * x_7_ + 68 x_45_ * x_10_ - 94 x_22_ * x_15_ - 36 x_46_ * x_15_ + 10 x_46_ * x_18_ - 50 x_21_ * x_19_ - 90 x_39_ * x_21_ - 90 x_46_ * x_21_ - 92 x_45_ * x_22_ - 18 x_46_ * x_22_ - 80 x_42_ * x_33_ - 46 x_48_ * x_33_ ] = -11844
c42: -7 x_29_ + [ -76 x_6_ * x_28_ - 18 x_18_ * x_12_ + 90 x_36_ * x_18_ - 96 x_39_ * x_28_ + 80 x_40_ * x_28_ - 66 x_40_ * x_31_ + 96 x_40_ * x_36_ + 52 x_49_ * x_36_ - 70 x_49_ * x_39_ ] = 12872
c43: 15 x_3_ + 28 x_18_ + 10 x_33_ + [ -17 x_3_ ^ 2 + 50 x_6_ * x_3_ - 92 x_24_ * x_3_ - 100 x_30_ * x_3_ + 16 x_32_ * x_6_ + 44 x_8_ ^ 2 + 28 x_18_ * x_8_ + 48 x_31_ * x_8_ + 24 x_32_ * x_8_ - 66 x_33_ * x_8_ - 10 x_32_ * x_17_ - 13 x_18_ ^ 2 + 64 x_31_ * x_18_ + 30 x_24_ ^ 2 + 18 x_30_ * x_24_ + 16 x_31_ * x_30_ ] = 9342
c44: 21 x_24_ + 32 x_30_ - 30 x_32_ - 42 x_39_ + [ -92 x_36_ * x_6_ - 30 x_50_ * x_6_ + 18 x_20_ * x_11_ - 58 x_30_ * x_20_ - 86 x_31_ * x_20_ - 60 x_36_ * x_20_ + 40 x_39_ * x_20_ + 4 x_30_ * x_24_ - 30 x_31_ * x_24_ - 46 x_39_ * x_24_ - 60 x_39_ * x_30_ + 2 x_31_ ^ 2 - 16 x_32_ * x_31_ - 38 x_39_ * x_31_ - 4 x_50_ * x_32_ - 47 x_39_ ^ 2 - 10 x_50_ * x_39_ - 44 x_41_ ^ 2 ] = -2512
c45: -20 x_21_ + 9 x_34_ + 48 x_43_ + [ -38 x_5_ ^ 2 + 82 x_13_ * x_5_ - 72 x_34_ * x_5_ + 16 x_28_ * x_13_ - 32 x_36_ * x_13_ - 4 x_46_ * x_13_ + 60 x_21_ * x_18_ + 78 x_30_ * x_18_ + 8 x_36_ * x_21_ - 50 x_36_ * x_22_ + 16 x_23_ ^ 2 - 42 x_43_ * x_23_ - 82 x_36_ * x_28_ - 90 x_43_ * x_28_ - 44 x_34_ * x_30_ - 98 x_36_ * x_30_ + 94 x_45_ * x_30_ + 56 x_44_ * x_34_ + 20 x_46_ * x_36_ + 8 x_43_ * x_37_ - 90 x_44_ * x_37_ + 80 x_45_ * x_43_ - 6 x_46_ * x_43_ ] = 13474
c46: -34 x_17_ - 50 x_20_ - 8 x_36_ + [ -64 x_37_ * x_5_ - 86 x_50_ * x_13_ - 98 x_44_ * x_36_ + 34 x_44_ * x_37_ - 9 x_44_ ^ 2 + 13 x_50_ ^ 2 ] = 7169
c47: -36 x_6_ - 4 x_7_ + [ 46 x_4_ ^ 2 + 34 x_24_ * x_4_ + 12 x_38_ * x_4_ + 52 x_50_ * x_4_ - 30 x_7_ * x_5_ + 34 x_38_ * x_5_ + 58 x_24_ * x_6_ + 32 x_29_ * x_6_ - 82 x_38_ * x_6_ + 52 x_14_ * x_7_ - 98 x_31_ * x_7_ + 40 x_9_ ^ 2 - 94 x_24_ * x_9_ + 50 x_38_ * x_9_ - 31 x_14_ ^ 2 + 14 x_29_ * x_14_ - 86 x_31_ * x_14_ + 54 x_38_ * x_14_ - 6 x_50_ * x_14_ - 34 x_38_ * x_24_ + 10 x_29_ ^ 2 - 46 x_50_ * x_29_ - 33 x_50_ ^ 2 ] = -15274
c48: [ 14 x_24_ ^ 2 - 8 x_35_ * x_24_ - 82 x_41_ * x_24_ ] = -3200
c49: -1 x_12_ + 23 x_27_ - 22 x_35_ + [ -80 x_12_ * x_4_ + 18 x_16_ * x_4_ + 60 x_27_ * x_4_ - 24 x_46_ * x_20_ + 20 x_43_ ^ 2 ] = 2677
c50: 37 x_2_ - 32 x_28_ + [ 35 x_2_ ^ 2 - 100 x_32_ * x_2_ - 30 x_34_ * x_2_ - 18 x_7_ ^ 2 - 40 x_16_ * x_7_ + 64 x_28_ * x_7_ - 42 x_30_ * x_7_ + 54 x_31_ * x_7_ - 80 x_24_ * x_12_ + 50 x_28_ * x_12_ + 42 x_31_ * x_21_ + 58 x_26_ * x_24_ - 98 x_28_ * x_24_ + 96 x_30_ * x_24_ + 92 x_30_ * x_26_ + 21 x_28_ ^ 2 + 74 x_34_ * x_28_ + 12 x_30_ * x_29_ + 94 x_34_ * x_32_ ] = -7933
c51: -6 x_42_ + 32 x_50_ + [ -68 x_46_ * x_7_ - 90 x_47_ * x_7_ - 2 x_37_ * x_12_ + 78 x_47_ * x_12_ + 16 x_32_ * x_22_ + 36 x_42_ * x_22_ + 64 x_32_ * x_31_ - 76 x_42_ * x_31_ - 36 x_42_ * x_32_ - 10 x_47_ * x_37_ + 2 x_48_ * x_37_ - 80 x_44_ * x_42_ + 38 x_50_ * x_42_ + 96 x_50_ * x_46_ - 96 x_48_ * x_47_ - 38 x_50_ * x_47_ - 8 x_48_ ^ 2 ] = 23054
Bounds
2 <= x_1_ <= 10
-5 <= x_2_ <= 9
-3 <= x_3_ <= 5
-9 <= x_4_ <= 9
-8 <= x_5_ <= -6
-5 <= x_6_ <= 9
-10 <= x_7_ <= 6
-3 <= x_8_ <= 1
-5 <= x_9_ <= 4
-10 <= x_10_ <= -4
-9 <= x_11_ <= 7
-10 <= x_12_ <= -3
-9 <= x_13_ <= -2
-3 <= x_14_ <= 3
-9 <= x_15_ <= -2
-8 <= x_16_ <= 8
-10 <= x_17_ <= 7
-7 <= x_18_ <= 9
-8 <= x_19_ <= 1
1 <= x_20_ <= 5
-10 <= x_21_ <= 8
-7 <= x_22_ <= -1
-8 <= x_23_ <= 2
-10 <= x_24_ <= 0
-7 <= x_25_ <= 8
-10 <= x_26_ <= -7
-3 <= x_27_ <= 5
-9 <= x_28_ <= 2
-1 <= x_29_ <= 8
-6 <= x_30_ <= 4
-8 <= x_31_ <= 9
-8 <= x_32_ <= -1
-4 <= x_33_ <= 8
6 <= x_34_ <= 10
-8 <= x_35_ <= 4
-10 <= x_36_ <= 8
-10 <= x_37_ <= 7
-8 <= x_38_ <= 8
0 <= x_39_ <= 10
-4 <= x_40_ <= 8
-8 <= x_41_ <= 3
-6 <= x_42_ <= 7
-5 <= x_43_ <= 5
-2 <= x_44_ <= 3
-10 <= x_45_ <= -2
-7 <= x_46_ <= 10
-7 <= x_47_ <= -6
-10 <= x_48_ <= 5
-9 <= x_49_ <= -2
2 <= x_50_ <= 8
General
x_1_
x_2_
x_3_
x_4_
x_5_
x_6_
x_7_
x_8_
x_9_
x_10_
x_11_
x_12_
x_13_
x_14_
x_15_
x_16_
x_17_
x_18_
x_19_
x_20_
x_21_
x_22_
x_23_
x_24_
x_25_
x_26_
x_27_
x_28_
x_29_
x_30_
x_31_
x_32_
x_33_
x_34_
x_35_
x_36_
x_37_
x_38_
x_39_
x_40_
x_41_
x_42_
x_43_
x_44_
x_45_
x_46_
x_47_
x_48_
x_49_
x_50_
End
