minimize
obj: -49 x_3_ - 45 x_19_ + 17 x_23_ + 42 x_28_ - 41 x_30_ - 23 x_35_ + 31 x_38_ - 39 x_40_ + 30 x_43_
subject to
affine_ranged_1_ub: 1 x_37_ + 25 x_39_ <= 50
affine_ranged_2_ub: -14 x_9_ + 42 x_46_ - 14 x_50_ <= 504
quadratic_ranged_1_ub: -20 x_26_ + 21 x_49_ + [ -27 x_19_ ^ 2 + 6 x_25_ ^ 2 - 39 x_47_ ^ 2 ] <= -4818
quadratic_ranged_2_ub: -42 x_18_ + [ 43 x_31_ ^ 2 ] <= -331
quadratic_ranged_3_ub: [ -46 x_2_ ^ 2 - 7 x_17_ ^ 2 + 9 x_18_ ^ 2 - 48 x_27_ ^ 2 ] <= -440
quadratic_ranged_4_ub: 21 x_9_ - 20 x_25_ + [ 40 x_9_ ^ 2 - 16 x_11_ ^ 2 ] <= -735
quadratic_ranged_5_ub: 41 x_38_ + [ -31 x_50_ ^ 2 ] <= -897
quadratic_ranged_6_ub: 18 x_27_ + [ 31 x_12_ ^ 2 - 40 x_27_ ^ 2 ] <= 1420
quadratic_ranged_7_ub: -3 x_44_ + [ 7 x_3_ ^ 2 + 44 x_46_ ^ 2 ] <= 4978
quadratic_ranged_8_ub: 41 x_12_ - 44 x_26_ + 5 x_28_ - 32 x_32_ - 9 x_43_ + [ -32 x_12_ ^ 2 + 37 x_39_ ^ 2 ] <= -1593
quadratic_ranged_9_ub: 28 x_4_ - 25 x_36_ + [ 7 x_45_ ^ 2 ] <= 63
quadratic_ranged_10_ub: -44 x_21_ + 25 x_23_ + [ -3 x_20_ ^ 2 ] <= -86
quadratic_ranged_11_ub: -11 x_21_ + [ -40 x_17_ ^ 2 + 22 x_34_ ^ 2 ] <= 797
quadratic_ranged_12_ub: 48 x_27_ - 1 x_36_ + [ 32 x_27_ ^ 2 ] <= 706
quadratic_ranged_13_ub: -47 x_33_ + [ 21 x_22_ ^ 2 ] <= 1796
quadratic_ranged_14_ub: -34 x_7_ + 19 x_20_ + 8 x_26_ + 42 x_33_ - 17 x_44_ + [ -42 x_23_ ^ 2 ] <= -473
quadratic_ranged_15_ub: -23 x_14_ + 47 x_26_ - 28 x_38_ + 20 x_45_ + [ 10 x_8_ ^ 2 + 50 x_26_ ^ 2 - 1 x_41_ ^ 2 - 50 x_47_ ^ 2 ] <= -3339
quadratic_ranged_16_ub: -40 x_7_ + 6 x_15_ + [ -38 x_39_ ^ 2 + 37 x_44_ ^ 2 + 16 x_46_ ^ 2 ] <= 1935
quadratic_ranged_17_ub: 3 x_26_ + [ 10 x_26_ ^ 2 - 17 x_29_ ^ 2 ] <= 136
quadratic_ranged_18_ub: -6 x_3_ - 19 x_4_ + 36 x_5_ + 34 x_14_ + 2 x_29_ + [ 19 x_45_ ^ 2 ] <= 722
quadratic_ranged_19_ub: -11 x_23_ + [ -19 x_4_ ^ 2 + 42 x_40_ ^ 2 ] <= 193
quadratic_ranged_20_ub: -43 x_8_ - 23 x_37_ + [ 11 x_31_ ^ 2 + 21 x_34_ ^ 2 - 27 x_50_ ^ 2 ] <= 1476
quadratic_ranged_21_ub: -1 x_7_ + 37 x_21_ + [ -24 x_21_ ^ 2 ] <= -321
quadratic_ranged_22_ub: 10 x_16_ - 42 x_18_ + 13 x_30_ + [ 27 x_3_ ^ 2 + 40 x_11_ ^ 2 - 15 x_35_ ^ 2 + 32 x_37_ ^ 2 ] <= 2523
quadratic_ranged_23_ub: -28 x_34_ + [ -50 x_31_ ^ 2 + 3 x_34_ ^ 2 + 9 x_36_ ^ 2 ] <= 584
quadratic_ranged_24_ub: 48 x_32_ + [ -44 x_32_ ^ 2 ] <= -860
affine_ranged_1_lb: 1 x_37_ + 25 x_39_ >= 43
affine_ranged_2_lb: -14 x_9_ + 42 x_46_ - 14 x_50_ >= 500
quadratic_ranged_1_lb: -20 x_26_ + 21 x_49_ + [ -27 x_19_ ^ 2 + 6 x_25_ ^ 2 - 39 x_47_ ^ 2 ] >= -4825
quadratic_ranged_2_lb: -42 x_18_ + [ 43 x_31_ ^ 2 ] >= -336
quadratic_ranged_3_lb: [ -46 x_2_ ^ 2 - 7 x_17_ ^ 2 + 9 x_18_ ^ 2 - 48 x_27_ ^ 2 ] >= -449
quadratic_ranged_4_lb: 21 x_9_ - 20 x_25_ + [ 40 x_9_ ^ 2 - 16 x_11_ ^ 2 ] >= -739
quadratic_ranged_5_lb: 41 x_38_ + [ -31 x_50_ ^ 2 ] >= -903
quadratic_ranged_6_lb: 18 x_27_ + [ 31 x_12_ ^ 2 - 40 x_27_ ^ 2 ] >= 1415
quadratic_ranged_7_lb: -3 x_44_ + [ 7 x_3_ ^ 2 + 44 x_46_ ^ 2 ] >= 4971
quadratic_ranged_8_lb: 41 x_12_ - 44 x_26_ + 5 x_28_ - 32 x_32_ - 9 x_43_ + [ -32 x_12_ ^ 2 + 37 x_39_ ^ 2 ] >= -1597
quadratic_ranged_9_lb: 28 x_4_ - 25 x_36_ + [ 7 x_45_ ^ 2 ] >= 62
quadratic_ranged_10_lb: -44 x_21_ + 25 x_23_ + [ -3 x_20_ ^ 2 ] >= -93
quadratic_ranged_11_lb: -11 x_21_ + [ -40 x_17_ ^ 2 + 22 x_34_ ^ 2 ] >= 791
quadratic_ranged_12_lb: 48 x_27_ - 1 x_36_ + [ 32 x_27_ ^ 2 ] >= 702
quadratic_ranged_13_lb: -47 x_33_ + [ 21 x_22_ ^ 2 ] >= 1795
quadratic_ranged_14_lb: -34 x_7_ + 19 x_20_ + 8 x_26_ + 42 x_33_ - 17 x_44_ + [ -42 x_23_ ^ 2 ] >= -476
quadratic_ranged_15_lb: -23 x_14_ + 47 x_26_ - 28 x_38_ + 20 x_45_ + [ 10 x_8_ ^ 2 + 50 x_26_ ^ 2 - 1 x_41_ ^ 2 - 50 x_47_ ^ 2 ] >= -3342
quadratic_ranged_16_lb: -40 x_7_ + 6 x_15_ + [ -38 x_39_ ^ 2 + 37 x_44_ ^ 2 + 16 x_46_ ^ 2 ] >= 1928
quadratic_ranged_17_lb: 3 x_26_ + [ 10 x_26_ ^ 2 - 17 x_29_ ^ 2 ] >= 129
quadratic_ranged_18_lb: -6 x_3_ - 19 x_4_ + 36 x_5_ + 34 x_14_ + 2 x_29_ + [ 19 x_45_ ^ 2 ] >= 718
quadratic_ranged_19_lb: -11 x_23_ + [ -19 x_4_ ^ 2 + 42 x_40_ ^ 2 ] >= 188
quadratic_ranged_20_lb: -43 x_8_ - 23 x_37_ + [ 11 x_31_ ^ 2 + 21 x_34_ ^ 2 - 27 x_50_ ^ 2 ] >= 1466
quadratic_ranged_21_lb: -1 x_7_ + 37 x_21_ + [ -24 x_21_ ^ 2 ] >= -327
quadratic_ranged_22_lb: 10 x_16_ - 42 x_18_ + 13 x_30_ + [ 27 x_3_ ^ 2 + 40 x_11_ ^ 2 - 15 x_35_ ^ 2 + 32 x_37_ ^ 2 ] >= 2520
quadratic_ranged_23_lb: -28 x_34_ + [ -50 x_31_ ^ 2 + 3 x_34_ ^ 2 + 9 x_36_ ^ 2 ] >= 575
quadratic_ranged_24_lb: 48 x_32_ + [ -44 x_32_ ^ 2 ] >= -861
c1: -26 x_10_ + 36 x_36_ + 39 x_43_ + [ 22 x_19_ ^ 2 - 8 x_27_ ^ 2 ] = 1823
c2: -43 x_38_ + [ 48 x_28_ ^ 2 ] = 3201
c3: 1 x_23_ - 43 x_30_ + [ 21 x_39_ ^ 2 ] = 382
c4: 39 x_25_ + [ -13 x_25_ ^ 2 + 13 x_47_ ^ 2 ] = 351
c5: -31 x_8_ + 50 x_35_ - 14 x_47_ + [ -25 x_14_ ^ 2 + 36 x_35_ ^ 2 - 3 x_47_ ^ 2 ] = 520
c6: 33 x_21_ + 35 x_28_ + [ -16 x_28_ ^ 2 ] = -843
c7: -19 x_22_ + 23 x_30_ - 3 x_49_ + [ 12 x_13_ ^ 2 - 15 x_22_ ^ 2 - 8 x_31_ ^ 2 ] = -1433
c8: -8 x_2_ + 7 x_12_ - 50 x_15_ - 42 x_41_ + [ 26 x_12_ ^ 2 - 8 x_14_ ^ 2 - 46 x_30_ ^ 2 - 3 x_42_ ^ 2 ] = -1062
c9: -47 x_9_ + 19 x_11_ + 29 x_45_ + 1 x_48_ + [ 7 x_8_ ^ 2 + 43 x_13_ ^ 2 - 10 x_45_ ^ 2 + 27 x_48_ ^ 2 ] = -347
c10: -40 x_3_ - 38 x_7_ + 16 x_14_ + 46 x_31_ + 6 x_41_ - 39 x_45_ + [ 42 x_13_ ^ 2 - 22 x_14_ ^ 2 + 20 x_31_ ^ 2 ] = -83
c11: -34 x_27_ - 29 x_44_ + 25 x_45_ + [ -12 x_3_ ^ 2 ] = -1196
c12: -44 x_33_ + 50 x_35_ + [ -29 x_23_ ^ 2 - 10 x_33_ ^ 2 ] = 137
c13: 46 x_30_ + 23 x_45_ + [ 27 x_30_ ^ 2 ] = 840
c14: -5 x_7_ + 18 x_22_ - 48 x_23_ - 19 x_37_ + 29 x_40_ + [ -9 x_7_ ^ 2 + 45 x_10_ ^ 2 - 38 x_33_ ^ 2 - 48 x_36_ ^ 2 - 7 x_40_ ^ 2 ] = 1785
c15: -24 x_19_ + [ 16 x_13_ ^ 2 + 33 x_17_ ^ 2 - 50 x_18_ ^ 2 - 33 x_31_ ^ 2 - 24 x_35_ ^ 2 + 3 x_37_ ^ 2 + 43 x_45_ ^ 2 - 47 x_50_ ^ 2 ] = -2316
c16: -49 x_15_ + 40 x_23_ - 9 x_27_ - 44 x_29_ - 39 x_50_ + [ -22 x_20_ ^ 2 - 7 x_23_ ^ 2 - 50 x_50_ ^ 2 ] = -2553
c17: -16 x_24_ + 24 x_49_ + [ -13 x_3_ ^ 2 ] = -1213
c18: -38 x_29_ + [ -4 x_3_ ^ 2 + 3 x_30_ ^ 2 + 48 x_39_ ^ 2 ] = 53
c19: -3 x_6_ + 13 x_18_ + 20 x_24_ + 22 x_35_ - 9 x_37_ + [ 39 x_6_ ^ 2 + 9 x_13_ ^ 2 - 16 x_40_ ^ 2 ] = -125
c20: [ 35 x_27_ ^ 2 ] = 560
c21: -27 x_6_ + 19 x_12_ + 14 x_19_ + 27 x_41_ + [ -20 x_5_ ^ 2 + 50 x_11_ ^ 2 - 2 x_15_ ^ 2 - 14 x_16_ ^ 2 - 16 x_19_ ^ 2 - 33 x_21_ ^ 2 ] = -998
c22: [ 11 x_14_ ^ 2 ] = 539
c23: -45 x_15_ + 2 x_30_ - 11 x_38_ + [ -19 x_7_ ^ 2 - 24 x_11_ ^ 2 - 39 x_19_ ^ 2 - 44 x_27_ ^ 2 ] = -5104
c24: -44 x_14_ - 27 x_31_ + [ 5 x_3_ ^ 2 + 31 x_20_ ^ 2 - 34 x_31_ ^ 2 ] = 2232
Bounds
-9 <= x_1_ <= -6
-8 <= x_2_ <= 8
-10 <= x_3_ <= -4
-10 <= x_4_ <= 8
-8 <= x_5_ <= 4
-9 <= x_6_ <= 5
-8 <= x_7_ <= 10
-9 <= x_8_ <= 7
-7 <= x_9_ <= 8
1 <= x_10_ <= 9
-10 <= x_11_ <= 5
6 <= x_12_ <= 9
-2 <= x_13_ <= 10
-9 <= x_14_ <= -6
1 <= x_15_ <= 6
-8 <= x_16_ <= 1
-9 <= x_17_ <= 8
-2 <= x_18_ <= 8
-9 <= x_19_ <= 9
-10 <= x_20_ <= 9
-3 <= x_21_ <= 8
6 <= x_22_ <= 9
-3 <= x_23_ <= 0
-7 <= x_24_ <= 8
4 <= x_25_ <= 9
-6 <= x_26_ <= -3
-5 <= x_27_ <= 10
2 <= x_28_ <= 9
-6 <= x_29_ <= 9
-8 <= x_30_ <= 10
-7 <= x_31_ <= 0
2 <= x_32_ <= 8
-10 <= x_33_ <= 3
-10 <= x_34_ <= -7
6 <= x_35_ <= 10
-1 <= x_36_ <= 2
-2 <= x_37_ <= -1
-6 <= x_38_ <= 10
1 <= x_39_ <= 2
-8 <= x_40_ <= 6
-4 <= x_41_ <= 10
-4 <= x_42_ <= 10
5 <= x_43_ <= 9
-4 <= x_44_ <= -3
-10 <= x_45_ <= 3
0 <= x_46_ <= 10
0 <= x_47_ <= 9
-10 <= x_48_ <= 7
-3 <= x_49_ <= 5
-8 <= x_50_ <= -5
General
x_1_
x_2_
x_3_
x_4_
x_5_
x_6_
x_7_
x_8_
x_9_
x_10_
x_11_
x_12_
x_13_
x_14_
x_15_
x_16_
x_17_
x_18_
x_19_
x_20_
x_21_
x_22_
x_23_
x_24_
x_25_
x_26_
x_27_
x_28_
x_29_
x_30_
x_31_
x_32_
x_33_
x_34_
x_35_
x_36_
x_37_
x_38_
x_39_
x_40_
x_41_
x_42_
x_43_
x_44_
x_45_
x_46_
x_47_
x_48_
x_49_
x_50_
End
