minimize
obj: 
subject to
quadratic_ranged_1_ub: [ 18 x_9_ * x_11_ - 96 x_13_ * x_11_ + 72 x_29_ * x_11_ + 82 x_29_ * x_26_ ] <= 11341
quadratic_ranged_2_ub: [ 22 x_25_ * x_4_ - 14 x_49_ * x_4_ - 48 x_45_ ^ 2 - 62 x_49_ * x_45_ ] <= 287
quadratic_ranged_3_ub: [ -15 x_8_ ^ 2 - 32 x_9_ * x_8_ - 86 x_49_ * x_8_ + 42 x_38_ * x_9_ - 94 x_22_ * x_17_ - 50 x_26_ * x_18_ + 26 x_43_ * x_18_ - 41 x_21_ ^ 2 + 88 x_23_ * x_21_ - 38 x_26_ * x_21_ - 38 x_49_ * x_21_ - 36 x_26_ * x_22_ + 90 x_43_ * x_23_ - 20 x_49_ * x_23_ + 26 x_41_ * x_26_ - 26 x_41_ ^ 2 + 96 x_49_ * x_43_ ] <= -2196
quadratic_ranged_4_ub: [ 7 x_7_ ^ 2 + 56 x_28_ * x_7_ + 20 x_38_ * x_7_ - 27 x_15_ ^ 2 - 58 x_38_ * x_15_ + 44 x_50_ * x_28_ + 40 x_50_ * x_38_ - 3 x_44_ ^ 2 ] <= -2131
quadratic_ranged_5_ub: [ 46 x_6_ * x_5_ + 20 x_49_ * x_5_ - 26 x_46_ * x_6_ - 98 x_49_ * x_6_ + 30 x_10_ ^ 2 + 66 x_29_ * x_10_ + 28 x_16_ ^ 2 - 74 x_29_ * x_24_ + 8 x_29_ ^ 2 + 44 x_46_ ^ 2 - 33 x_49_ ^ 2 ] <= -6580
quadratic_ranged_6_ub: [ -2 x_1_ * x_17_ - 78 x_43_ * x_1_ - 8 x_43_ * x_9_ - 52 x_23_ * x_14_ + 64 x_35_ * x_14_ - 34 x_22_ * x_17_ + 84 x_27_ * x_17_ + 14 x_34_ * x_17_ - 68 x_38_ * x_22_ - 34 x_43_ * x_22_ - 40 x_38_ * x_23_ + 34 x_35_ * x_24_ - 18 x_38_ * x_24_ ] <= -6059
quadratic_ranged_7_ub: [ -28 x_8_ * x_2_ + 34 x_30_ * x_2_ - 96 x_34_ * x_2_ - 62 x_39_ * x_2_ - 18 x_8_ ^ 2 + 62 x_17_ * x_8_ + 2 x_20_ * x_8_ - 80 x_21_ * x_8_ - 18 x_34_ * x_20_ - 43 x_30_ ^ 2 + 12 x_34_ * x_30_ + 58 x_39_ * x_30_ ] <= 1289
quadratic_ranged_8_ub: [ -2 x_24_ * x_16_ + 54 x_20_ * x_18_ - 30 x_45_ * x_18_ - 16 x_24_ * x_20_ - 70 x_45_ * x_21_ - 33 x_24_ ^ 2 + 72 x_31_ * x_24_ - 2 x_46_ * x_24_ - 23 x_35_ ^ 2 - 38 x_46_ * x_45_ ] <= 6850
quadratic_ranged_9_ub: [ 52 x_43_ * x_29_ - 15 x_35_ ^ 2 - 37 x_39_ ^ 2 + 16 x_50_ * x_39_ ] <= 1613
quadratic_ranged_10_ub: [ -10 x_21_ ^ 2 + 86 x_46_ * x_38_ + 5 x_49_ ^ 2 ] <= -855
quadratic_ranged_11_ub: [ -52 x_22_ * x_3_ + 76 x_27_ * x_3_ + 88 x_45_ * x_3_ + 6 x_8_ ^ 2 - 6 x_17_ * x_8_ + 82 x_18_ * x_8_ - 34 x_20_ * x_8_ - 46 x_22_ * x_8_ - 86 x_31_ * x_8_ + 72 x_39_ * x_8_ + 12 x_17_ * x_14_ + 96 x_18_ * x_14_ + 4 x_27_ * x_14_ + 62 x_31_ * x_14_ + 98 x_31_ * x_17_ + 90 x_20_ * x_18_ - 34 x_43_ * x_18_ - 46 x_45_ * x_18_ - 21 x_20_ ^ 2 - 14 x_27_ * x_20_ - 24 x_45_ * x_27_ - 37 x_43_ ^ 2 ] <= 7935
quadratic_ranged_12_ub: [ 44 x_3_ * x_10_ - 48 x_45_ * x_10_ ] <= -288
quadratic_ranged_13_ub: [ -18 x_22_ * x_8_ - 54 x_40_ * x_8_ - 38 x_42_ * x_8_ - 1 x_22_ ^ 2 + 10 x_42_ * x_22_ - 50 x_35_ * x_30_ - 90 x_40_ * x_30_ + 68 x_42_ * x_35_ + 31 x_44_ ^ 2 ] <= -5079
quadratic_ranged_14_ub: [ 20 x_1_ * x_30_ ] <= 565
quadratic_ranged_15_ub: [ 84 x_18_ * x_4_ + 68 x_31_ * x_4_ + 7 x_7_ ^ 2 + 96 x_30_ * x_7_ + 70 x_43_ * x_7_ - 78 x_36_ * x_14_ + 70 x_41_ * x_14_ - 70 x_48_ * x_14_ - 12 x_50_ * x_14_ + 18 x_30_ * x_18_ + 40 x_31_ * x_18_ - 74 x_30_ * x_25_ + 32 x_43_ * x_25_ + 66 x_48_ * x_25_ + 18 x_50_ * x_25_ - 20 x_41_ * x_26_ - 40 x_50_ * x_26_ - 22 x_32_ * x_30_ - 44 x_36_ * x_30_ + 78 x_41_ * x_30_ + 70 x_41_ * x_31_ - 84 x_50_ * x_31_ + 13 x_32_ ^ 2 + 80 x_43_ * x_32_ + 28 x_41_ * x_36_ + 74 x_50_ * x_36_ - 3 x_48_ ^ 2 ] <= -9405
quadratic_ranged_16_ub: [ -72 x_9_ * x_7_ - 28 x_12_ * x_7_ + 84 x_17_ * x_7_ + 92 x_47_ * x_7_ - 28 x_50_ * x_7_ + 2 x_17_ * x_14_ + 78 x_38_ * x_14_ - 40 x_17_ ^ 2 - 39 x_36_ ^ 2 ] <= 1222
quadratic_ranged_17_ub: [ 14 x_3_ * x_22_ + 44 x_46_ * x_3_ + 52 x_24_ * x_13_ - 20 x_46_ * x_13_ ] <= -1567
quadratic_ranged_18_ub: [ -17 x_7_ ^ 2 + 34 x_9_ * x_7_ - 2 x_34_ * x_7_ + 96 x_28_ * x_9_ + 20 x_45_ * x_9_ - 19 x_34_ ^ 2 + 98 x_43_ * x_34_ - 42 x_45_ ^ 2 ] <= 6000
quadratic_ranged_19_ub: [ -43 x_3_ ^ 2 - 22 x_30_ * x_3_ - 70 x_15_ * x_6_ - 96 x_17_ * x_6_ - 92 x_32_ * x_6_ - 42 x_39_ * x_6_ + 32 x_41_ * x_6_ - 54 x_48_ * x_6_ + 88 x_49_ * x_6_ - 28 x_30_ * x_12_ + 28 x_32_ * x_12_ + 44 x_22_ * x_13_ + 76 x_39_ * x_13_ + 16 x_48_ * x_13_ + 52 x_17_ * x_15_ + 68 x_25_ * x_15_ - 24 x_32_ * x_15_ + 82 x_50_ * x_15_ + 47 x_17_ ^ 2 - 8 x_22_ ^ 2 - 84 x_28_ * x_22_ + 86 x_32_ * x_22_ + 20 x_39_ * x_22_ - 3 x_25_ ^ 2 - 40 x_39_ * x_25_ - 88 x_41_ * x_25_ + 58 x_28_ * x_26_ + 24 x_32_ * x_26_ + 84 x_37_ * x_26_ + 8 x_48_ * x_26_ + 26 x_49_ * x_26_ - 4 x_37_ * x_28_ + 16 x_39_ * x_28_ + 52 x_41_ * x_28_ + 14 x_41_ * x_30_ + 36 x_49_ * x_30_ + 20 x_41_ * x_32_ - 42 x_48_ * x_32_ - 28 x_39_ * x_37_ + 35 x_39_ ^ 2 + 58 x_49_ * x_48_ + 25 x_50_ ^ 2 ] <= 6914
quadratic_ranged_20_ub: [ -94 x_12_ * x_1_ + 58 x_48_ * x_1_ - 64 x_25_ * x_5_ - 15 x_12_ ^ 2 + 84 x_15_ * x_12_ + 4 x_16_ * x_12_ - 96 x_26_ * x_12_ - 22 x_27_ * x_12_ - 76 x_40_ * x_12_ + 84 x_41_ * x_12_ - 34 x_48_ * x_12_ + 22 x_25_ * x_15_ + 82 x_26_ * x_15_ - 78 x_28_ * x_15_ + 38 x_28_ * x_21_ + 66 x_32_ * x_21_ - 54 x_41_ * x_25_ - 88 x_48_ * x_26_ - 56 x_32_ * x_27_ - 12 x_28_ ^ 2 + 50 x_48_ * x_40_ ] <= 13080
quadratic_ranged_21_ub: [ 18 x_1_ ^ 2 + 72 x_11_ * x_1_ - 100 x_50_ * x_6_ - 36 x_16_ * x_8_ + 12 x_18_ * x_8_ + 34 x_50_ * x_11_ - 12 x_18_ * x_16_ - 54 x_30_ * x_18_ - 78 x_38_ * x_23_ + 21 x_30_ ^ 2 - 25 x_38_ ^ 2 ] <= -1794
quadratic_ranged_22_ub: [ 72 x_4_ * x_17_ + 36 x_19_ * x_4_ - 52 x_31_ * x_4_ + 52 x_20_ * x_17_ + 14 x_19_ * x_18_ + 66 x_31_ * x_24_ + 26 x_50_ * x_24_ + 70 x_50_ * x_31_ ] <= -5356
quadratic_ranged_23_ub: [ -47 x_5_ ^ 2 - 84 x_48_ * x_5_ - 58 x_22_ * x_9_ - 30 x_23_ * x_9_ - 36 x_49_ * x_9_ + 34 x_11_ * x_10_ + 8 x_22_ * x_10_ - 78 x_34_ * x_10_ - 24 x_22_ * x_11_ + 32 x_23_ * x_11_ - 72 x_48_ * x_11_ + 96 x_23_ * x_22_ - 32 x_29_ * x_22_ + 48 x_34_ * x_22_ + 46 x_23_ ^ 2 + 30 x_29_ * x_23_ + 28 x_48_ * x_29_ + 82 x_48_ * x_34_ - 70 x_49_ * x_48_ ] <= -854
quadratic_ranged_24_ub: [ -18 x_41_ * x_2_ + 36 x_19_ * x_13_ + 34 x_41_ * x_13_ - 64 x_30_ * x_19_ - 50 x_41_ * x_27_ + 82 x_38_ * x_30_ + 64 x_46_ * x_30_ - 14 x_38_ * x_32_ + 35 x_41_ ^ 2 - 74 x_46_ * x_41_ ] <= -7581
quadratic_ranged_25_ub: [ 40 x_4_ * x_1_ - 46 x_50_ * x_1_ - 12 x_13_ * x_4_ + 34 x_26_ * x_13_ + 90 x_44_ * x_13_ + 70 x_49_ * x_13_ + 60 x_45_ * x_26_ - 34 x_44_ * x_27_ - 82 x_45_ * x_27_ - 26 x_49_ * x_27_ - 40 x_45_ * x_44_ - 15 x_45_ ^ 2 + 80 x_50_ * x_49_ ] <= -667
quadratic_ranged_26_ub: [ -70 x_10_ * x_1_ + 76 x_17_ * x_1_ + 84 x_47_ * x_1_ + 46 x_10_ ^ 2 - 10 x_17_ * x_12_ - 94 x_47_ * x_17_ - 19 x_38_ ^ 2 - 28 x_44_ * x_39_ - 18 x_47_ * x_39_ - 3 x_47_ ^ 2 ] <= -6035
quadratic_ranged_27_ub: [ 64 x_11_ * x_2_ - 58 x_18_ * x_2_ - 36 x_11_ ^ 2 + 42 x_35_ * x_11_ - 82 x_43_ * x_11_ - 54 x_44_ * x_11_ - 14 x_17_ ^ 2 + 62 x_19_ * x_17_ - 80 x_24_ * x_17_ + 60 x_34_ * x_17_ + 56 x_43_ * x_17_ + 92 x_38_ * x_34_ + 54 x_44_ * x_34_ - 1 x_44_ ^ 2 ] <= -6226
quadratic_ranged_1_lb: [ 18 x_9_ * x_11_ - 96 x_13_ * x_11_ + 72 x_29_ * x_11_ + 82 x_29_ * x_26_ ] >= 11338
quadratic_ranged_2_lb: [ 22 x_25_ * x_4_ - 14 x_49_ * x_4_ - 48 x_45_ ^ 2 - 62 x_49_ * x_45_ ] >= 278
quadratic_ranged_3_lb: [ -15 x_8_ ^ 2 - 32 x_9_ * x_8_ - 86 x_49_ * x_8_ + 42 x_38_ * x_9_ - 94 x_22_ * x_17_ - 50 x_26_ * x_18_ + 26 x_43_ * x_18_ - 41 x_21_ ^ 2 + 88 x_23_ * x_21_ - 38 x_26_ * x_21_ - 38 x_49_ * x_21_ - 36 x_26_ * x_22_ + 90 x_43_ * x_23_ - 20 x_49_ * x_23_ + 26 x_41_ * x_26_ - 26 x_41_ ^ 2 + 96 x_49_ * x_43_ ] >= -2203
quadratic_ranged_4_lb: [ 7 x_7_ ^ 2 + 56 x_28_ * x_7_ + 20 x_38_ * x_7_ - 27 x_15_ ^ 2 - 58 x_38_ * x_15_ + 44 x_50_ * x_28_ + 40 x_50_ * x_38_ - 3 x_44_ ^ 2 ] >= -2138
quadratic_ranged_5_lb: [ 46 x_6_ * x_5_ + 20 x_49_ * x_5_ - 26 x_46_ * x_6_ - 98 x_49_ * x_6_ + 30 x_10_ ^ 2 + 66 x_29_ * x_10_ + 28 x_16_ ^ 2 - 74 x_29_ * x_24_ + 8 x_29_ ^ 2 + 44 x_46_ ^ 2 - 33 x_49_ ^ 2 ] >= -6587
quadratic_ranged_6_lb: [ -2 x_1_ * x_17_ - 78 x_43_ * x_1_ - 8 x_43_ * x_9_ - 52 x_23_ * x_14_ + 64 x_35_ * x_14_ - 34 x_22_ * x_17_ + 84 x_27_ * x_17_ + 14 x_34_ * x_17_ - 68 x_38_ * x_22_ - 34 x_43_ * x_22_ - 40 x_38_ * x_23_ + 34 x_35_ * x_24_ - 18 x_38_ * x_24_ ] >= -6062
quadratic_ranged_7_lb: [ -28 x_8_ * x_2_ + 34 x_30_ * x_2_ - 96 x_34_ * x_2_ - 62 x_39_ * x_2_ - 18 x_8_ ^ 2 + 62 x_17_ * x_8_ + 2 x_20_ * x_8_ - 80 x_21_ * x_8_ - 18 x_34_ * x_20_ - 43 x_30_ ^ 2 + 12 x_34_ * x_30_ + 58 x_39_ * x_30_ ] >= 1282
quadratic_ranged_8_lb: [ -2 x_24_ * x_16_ + 54 x_20_ * x_18_ - 30 x_45_ * x_18_ - 16 x_24_ * x_20_ - 70 x_45_ * x_21_ - 33 x_24_ ^ 2 + 72 x_31_ * x_24_ - 2 x_46_ * x_24_ - 23 x_35_ ^ 2 - 38 x_46_ * x_45_ ] >= 6849
quadratic_ranged_9_lb: [ 52 x_43_ * x_29_ - 15 x_35_ ^ 2 - 37 x_39_ ^ 2 + 16 x_50_ * x_39_ ] >= 1609
quadratic_ranged_10_lb: [ -10 x_21_ ^ 2 + 86 x_46_ * x_38_ + 5 x_49_ ^ 2 ] >= -857
quadratic_ranged_11_lb: [ -52 x_22_ * x_3_ + 76 x_27_ * x_3_ + 88 x_45_ * x_3_ + 6 x_8_ ^ 2 - 6 x_17_ * x_8_ + 82 x_18_ * x_8_ - 34 x_20_ * x_8_ - 46 x_22_ * x_8_ - 86 x_31_ * x_8_ + 72 x_39_ * x_8_ + 12 x_17_ * x_14_ + 96 x_18_ * x_14_ + 4 x_27_ * x_14_ + 62 x_31_ * x_14_ + 98 x_31_ * x_17_ + 90 x_20_ * x_18_ - 34 x_43_ * x_18_ - 46 x_45_ * x_18_ - 21 x_20_ ^ 2 - 14 x_27_ * x_20_ - 24 x_45_ * x_27_ - 37 x_43_ ^ 2 ] >= 7926
quadratic_ranged_12_lb: [ 44 x_3_ * x_10_ - 48 x_45_ * x_10_ ] >= -293
quadratic_ranged_13_lb: [ -18 x_22_ * x_8_ - 54 x_40_ * x_8_ - 38 x_42_ * x_8_ - 1 x_22_ ^ 2 + 10 x_42_ * x_22_ - 50 x_35_ * x_30_ - 90 x_40_ * x_30_ + 68 x_42_ * x_35_ + 31 x_44_ ^ 2 ] >= -5084
quadratic_ranged_14_lb: [ 20 x_1_ * x_30_ ] >= 556
quadratic_ranged_15_lb: [ 84 x_18_ * x_4_ + 68 x_31_ * x_4_ + 7 x_7_ ^ 2 + 96 x_30_ * x_7_ + 70 x_43_ * x_7_ - 78 x_36_ * x_14_ + 70 x_41_ * x_14_ - 70 x_48_ * x_14_ - 12 x_50_ * x_14_ + 18 x_30_ * x_18_ + 40 x_31_ * x_18_ - 74 x_30_ * x_25_ + 32 x_43_ * x_25_ + 66 x_48_ * x_25_ + 18 x_50_ * x_25_ - 20 x_41_ * x_26_ - 40 x_50_ * x_26_ - 22 x_32_ * x_30_ - 44 x_36_ * x_30_ + 78 x_41_ * x_30_ + 70 x_41_ * x_31_ - 84 x_50_ * x_31_ + 13 x_32_ ^ 2 + 80 x_43_ * x_32_ + 28 x_41_ * x_36_ + 74 x_50_ * x_36_ - 3 x_48_ ^ 2 ] >= -9413
quadratic_ranged_16_lb: [ -72 x_9_ * x_7_ - 28 x_12_ * x_7_ + 84 x_17_ * x_7_ + 92 x_47_ * x_7_ - 28 x_50_ * x_7_ + 2 x_17_ * x_14_ + 78 x_38_ * x_14_ - 40 x_17_ ^ 2 - 39 x_36_ ^ 2 ] >= 1220
quadratic_ranged_17_lb: [ 14 x_3_ * x_22_ + 44 x_46_ * x_3_ + 52 x_24_ * x_13_ - 20 x_46_ * x_13_ ] >= -1571
quadratic_ranged_18_lb: [ -17 x_7_ ^ 2 + 34 x_9_ * x_7_ - 2 x_34_ * x_7_ + 96 x_28_ * x_9_ + 20 x_45_ * x_9_ - 19 x_34_ ^ 2 + 98 x_43_ * x_34_ - 42 x_45_ ^ 2 ] >= 5994
quadratic_ranged_19_lb: [ -43 x_3_ ^ 2 - 22 x_30_ * x_3_ - 70 x_15_ * x_6_ - 96 x_17_ * x_6_ - 92 x_32_ * x_6_ - 42 x_39_ * x_6_ + 32 x_41_ * x_6_ - 54 x_48_ * x_6_ + 88 x_49_ * x_6_ - 28 x_30_ * x_12_ + 28 x_32_ * x_12_ + 44 x_22_ * x_13_ + 76 x_39_ * x_13_ + 16 x_48_ * x_13_ + 52 x_17_ * x_15_ + 68 x_25_ * x_15_ - 24 x_32_ * x_15_ + 82 x_50_ * x_15_ + 47 x_17_ ^ 2 - 8 x_22_ ^ 2 - 84 x_28_ * x_22_ + 86 x_32_ * x_22_ + 20 x_39_ * x_22_ - 3 x_25_ ^ 2 - 40 x_39_ * x_25_ - 88 x_41_ * x_25_ + 58 x_28_ * x_26_ + 24 x_32_ * x_26_ + 84 x_37_ * x_26_ + 8 x_48_ * x_26_ + 26 x_49_ * x_26_ - 4 x_37_ * x_28_ + 16 x_39_ * x_28_ + 52 x_41_ * x_28_ + 14 x_41_ * x_30_ + 36 x_49_ * x_30_ + 20 x_41_ * x_32_ - 42 x_48_ * x_32_ - 28 x_39_ * x_37_ + 35 x_39_ ^ 2 + 58 x_49_ * x_48_ + 25 x_50_ ^ 2 ] >= 6909
quadratic_ranged_20_lb: [ -94 x_12_ * x_1_ + 58 x_48_ * x_1_ - 64 x_25_ * x_5_ - 15 x_12_ ^ 2 + 84 x_15_ * x_12_ + 4 x_16_ * x_12_ - 96 x_26_ * x_12_ - 22 x_27_ * x_12_ - 76 x_40_ * x_12_ + 84 x_41_ * x_12_ - 34 x_48_ * x_12_ + 22 x_25_ * x_15_ + 82 x_26_ * x_15_ - 78 x_28_ * x_15_ + 38 x_28_ * x_21_ + 66 x_32_ * x_21_ - 54 x_41_ * x_25_ - 88 x_48_ * x_26_ - 56 x_32_ * x_27_ - 12 x_28_ ^ 2 + 50 x_48_ * x_40_ ] >= 13074
quadratic_ranged_21_lb: [ 18 x_1_ ^ 2 + 72 x_11_ * x_1_ - 100 x_50_ * x_6_ - 36 x_16_ * x_8_ + 12 x_18_ * x_8_ + 34 x_50_ * x_11_ - 12 x_18_ * x_16_ - 54 x_30_ * x_18_ - 78 x_38_ * x_23_ + 21 x_30_ ^ 2 - 25 x_38_ ^ 2 ] >= -1803
quadratic_ranged_22_lb: [ 72 x_4_ * x_17_ + 36 x_19_ * x_4_ - 52 x_31_ * x_4_ + 52 x_20_ * x_17_ + 14 x_19_ * x_18_ + 66 x_31_ * x_24_ + 26 x_50_ * x_24_ + 70 x_50_ * x_31_ ] >= -5361
quadratic_ranged_23_lb: [ -47 x_5_ ^ 2 - 84 x_48_ * x_5_ - 58 x_22_ * x_9_ - 30 x_23_ * x_9_ - 36 x_49_ * x_9_ + 34 x_11_ * x_10_ + 8 x_22_ * x_10_ - 78 x_34_ * x_10_ - 24 x_22_ * x_11_ + 32 x_23_ * x_11_ - 72 x_48_ * x_11_ + 96 x_23_ * x_22_ - 32 x_29_ * x_22_ + 48 x_34_ * x_22_ + 46 x_23_ ^ 2 + 30 x_29_ * x_23_ + 28 x_48_ * x_29_ + 82 x_48_ * x_34_ - 70 x_49_ * x_48_ ] >= -859
quadratic_ranged_24_lb: [ -18 x_41_ * x_2_ + 36 x_19_ * x_13_ + 34 x_41_ * x_13_ - 64 x_30_ * x_19_ - 50 x_41_ * x_27_ + 82 x_38_ * x_30_ + 64 x_46_ * x_30_ - 14 x_38_ * x_32_ + 35 x_41_ ^ 2 - 74 x_46_ * x_41_ ] >= -7583
quadratic_ranged_25_lb: [ 40 x_4_ * x_1_ - 46 x_50_ * x_1_ - 12 x_13_ * x_4_ + 34 x_26_ * x_13_ + 90 x_44_ * x_13_ + 70 x_49_ * x_13_ + 60 x_45_ * x_26_ - 34 x_44_ * x_27_ - 82 x_45_ * x_27_ - 26 x_49_ * x_27_ - 40 x_45_ * x_44_ - 15 x_45_ ^ 2 + 80 x_50_ * x_49_ ] >= -675
quadratic_ranged_26_lb: [ -70 x_10_ * x_1_ + 76 x_17_ * x_1_ + 84 x_47_ * x_1_ + 46 x_10_ ^ 2 - 10 x_17_ * x_12_ - 94 x_47_ * x_17_ - 19 x_38_ ^ 2 - 28 x_44_ * x_39_ - 18 x_47_ * x_39_ - 3 x_47_ ^ 2 ] >= -6038
quadratic_ranged_27_lb: [ 64 x_11_ * x_2_ - 58 x_18_ * x_2_ - 36 x_11_ ^ 2 + 42 x_35_ * x_11_ - 82 x_43_ * x_11_ - 54 x_44_ * x_11_ - 14 x_17_ ^ 2 + 62 x_19_ * x_17_ - 80 x_24_ * x_17_ + 60 x_34_ * x_17_ + 56 x_43_ * x_17_ + 92 x_38_ * x_34_ + 54 x_44_ * x_34_ - 1 x_44_ ^ 2 ] >= -6231
c1: [ 68 x_5_ * x_15_ + 34 x_29_ * x_5_ - 88 x_14_ * x_10_ + 4 x_15_ * x_10_ - 60 x_29_ * x_10_ - 4 x_15_ * x_14_ - 66 x_26_ * x_14_ ] = -7420
c2: [ -4 x_7_ * x_2_ + 6 x_23_ * x_2_ + 10 x_29_ * x_2_ - 70 x_7_ * x_3_ - 46 x_20_ * x_3_ - 74 x_38_ * x_3_ - 36 x_18_ * x_7_ - 54 x_20_ * x_7_ + 98 x_20_ * x_17_ + 90 x_38_ * x_17_ - 76 x_45_ * x_17_ - 48 x_38_ * x_18_ - 90 x_45_ * x_18_ + 78 x_23_ * x_20_ - 76 x_29_ * x_20_ + 12 x_45_ * x_20_ - 4 x_39_ * x_26_ - 28 x_31_ * x_29_ - 22 x_45_ * x_31_ + 36 x_38_ ^ 2 - 76 x_39_ * x_38_ + 90 x_45_ * x_39_ ] = -1026
c3: [ -80 x_13_ * x_17_ - 84 x_36_ * x_13_ - 48 x_40_ * x_13_ - 100 x_40_ * x_17_ - 14 x_31_ * x_27_ - 32 x_32_ * x_31_ ] = 8502
c4: [ 86 x_34_ * x_2_ + 54 x_34_ * x_14_ + 72 x_43_ * x_14_ + 88 x_49_ * x_14_ + 94 x_34_ * x_27_ + 24 x_29_ ^ 2 + 96 x_47_ * x_29_ - 70 x_49_ * x_34_ - 29 x_43_ ^ 2 + 30 x_49_ * x_43_ ] = -3178
c5: [ -14 x_22_ * x_3_ - 70 x_33_ * x_3_ - 6 x_20_ * x_7_ - 62 x_33_ * x_7_ - 50 x_50_ * x_7_ + 52 x_24_ * x_17_ - 82 x_37_ * x_17_ - 16 x_50_ * x_17_ + 52 x_37_ * x_20_ - 88 x_43_ * x_20_ + 80 x_50_ * x_20_ - 27 x_24_ ^ 2 + 26 x_33_ * x_24_ - 98 x_50_ * x_24_ ] = 14007
c6: [ 38 x_34_ * x_1_ - 36 x_25_ * x_11_ + 8 x_29_ * x_11_ + 66 x_19_ * x_14_ - 88 x_29_ * x_25_ - 23 x_34_ ^ 2 ] = -7763
c7: [ -28 x_14_ * x_5_ + 50 x_14_ * x_9_ - 98 x_44_ * x_9_ + 13 x_37_ ^ 2 - 37 x_42_ ^ 2 ] = -704
c8: [ -23 x_16_ ^ 2 + 30 x_40_ * x_20_ + 43 x_31_ ^ 2 - 47 x_32_ ^ 2 + 70 x_46_ * x_32_ ] = 2185
c9: [ 68 x_2_ * x_38_ + 10 x_41_ * x_2_ - 38 x_23_ * x_4_ + 10 x_23_ * x_22_ - 80 x_34_ * x_31_ ] = -1792
c10: [ -84 x_38_ * x_1_ - 2 x_32_ * x_22_ + 62 x_40_ * x_22_ - 64 x_30_ * x_25_ - 18 x_43_ * x_30_ - 30 x_32_ ^ 2 + 30 x_43_ * x_32_ + 94 x_36_ * x_34_ + 16 x_38_ * x_34_ - 62 x_40_ * x_34_ - 35 x_40_ ^ 2 - 76 x_43_ * x_40_ ] = -13792
c11: [ 46 x_35_ * x_25_ - 86 x_35_ * x_34_ - 26 x_41_ * x_35_ + 19 x_41_ ^ 2 ] = 711
c12: [ 62 x_8_ * x_18_ - 40 x_18_ * x_10_ ] = -176
c13: [ 4 x_3_ * x_24_ + 84 x_30_ * x_3_ + 48 x_32_ * x_3_ + 42 x_24_ * x_9_ + 96 x_48_ * x_9_ + 42 x_32_ * x_24_ - 56 x_32_ * x_30_ + 10 x_48_ * x_30_ + 14 x_48_ * x_32_ ] = 4754
c14: [ -100 x_1_ * x_3_ - 76 x_33_ * x_1_ + 28 x_13_ * x_8_ ] = -2512
c15: [ 16 x_27_ * x_3_ - 90 x_38_ * x_3_ - 28 x_9_ * x_5_ - 66 x_27_ * x_5_ + 20 x_36_ * x_5_ - 4 x_32_ * x_7_ + 42 x_18_ * x_9_ - 12 x_27_ * x_9_ + 48 x_36_ * x_9_ + 86 x_38_ * x_20_ - 37 x_36_ ^ 2 ] = -1123
c16: [ 47 x_2_ ^ 2 + 40 x_16_ * x_2_ - 98 x_40_ * x_2_ - 88 x_25_ * x_9_ + 78 x_28_ * x_16_ - 42 x_27_ * x_18_ - 80 x_28_ * x_18_ - 47 x_27_ ^ 2 + 44 x_28_ * x_27_ - 28 x_30_ * x_28_ - 88 x_40_ * x_28_ - 74 x_42_ * x_30_ + 80 x_43_ * x_30_ - 10 x_44_ * x_30_ + 100 x_46_ * x_30_ ] = 10196
c17: [ 94 x_25_ * x_5_ + 13 x_8_ ^ 2 + 20 x_18_ ^ 2 - 50 x_25_ * x_18_ - 30 x_45_ ^ 2 ] = -13187
c18: [ -22 x_37_ * x_7_ + 50 x_38_ * x_7_ + 60 x_46_ * x_7_ - 30 x_9_ ^ 2 + 47 x_13_ ^ 2 - 48 x_24_ * x_13_ - 66 x_44_ * x_23_ - 98 x_46_ * x_23_ + 86 x_38_ * x_37_ - 18 x_38_ ^ 2 + 40 x_41_ * x_38_ ] = 5824
c19: [ -12 x_39_ * x_8_ - 28 x_44_ * x_8_ + 48 x_30_ * x_13_ + 54 x_35_ * x_13_ + 86 x_38_ * x_32_ - 54 x_39_ * x_38_ - 9 x_39_ ^ 2 + 42 x_44_ * x_39_ + 19 x_44_ ^ 2 ] = -3075
c20: [ -66 x_4_ * x_2_ + 42 x_9_ * x_4_ - 36 x_12_ * x_4_ + 54 x_18_ * x_4_ + 68 x_20_ * x_4_ + 44 x_21_ * x_4_ - 8 x_27_ * x_9_ + 22 x_20_ * x_12_ - 30 x_27_ * x_12_ - 72 x_37_ * x_12_ - 24 x_18_ * x_17_ + 38 x_20_ * x_17_ + 92 x_21_ * x_18_ + 22 x_21_ * x_20_ - 14 x_37_ * x_20_ + 28 x_21_ ^ 2 + 50 x_27_ * x_21_ ] = 16170
c21: [ 20 x_22_ * x_3_ + 39 x_6_ ^ 2 + 58 x_26_ * x_6_ + 44 x_40_ * x_6_ - 28 x_43_ * x_17_ + 46 x_26_ ^ 2 ] = 5752
c22: [ -40 x_25_ * x_6_ + 36 x_40_ * x_6_ + 8 x_41_ * x_6_ - 98 x_25_ * x_18_ + 74 x_40_ * x_18_ + 82 x_25_ * x_20_ - 12 x_28_ * x_20_ + 80 x_41_ * x_20_ - 20 x_25_ * x_22_ - 56 x_40_ * x_22_ - 10 x_25_ * x_23_ + 44 x_30_ * x_28_ - 44 x_49_ * x_28_ + 13 x_30_ ^ 2 - 26 x_32_ * x_30_ + 18 x_49_ * x_30_ + 86 x_49_ * x_32_ - 50 x_49_ ^ 2 ] = 10005
c23: [ 84 x_39_ * x_28_ - 36 x_39_ ^ 2 ] = -1656
Bounds
-7 <= x_1_ <= 9
-10 <= x_2_ <= 8
-5 <= x_3_ <= 7
-8 <= x_4_ <= 4
-4 <= x_5_ <= 10
-9 <= x_6_ <= 9
-3 <= x_7_ <= 9
-2 <= x_8_ <= 9
-10 <= x_9_ <= 10
-5 <= x_10_ <= 1
-8 <= x_11_ <= 3
-7 <= x_12_ <= 4
2 <= x_13_ <= 9
-7 <= x_14_ <= 9
-10 <= x_15_ <= 6
1 <= x_16_ <= 8
6 <= x_17_ <= 7
-8 <= x_18_ <= -4
-10 <= x_19_ <= 2
-9 <= x_20_ <= 10
-9 <= x_21_ <= 8
4 <= x_22_ <= 10
x_23_ = -7
-5 <= x_24_ <= 10
-10 <= x_25_ <= 9
-7 <= x_26_ <= 4
x_27_ = -9
3 <= x_28_ <= 9
-8 <= x_29_ <= -1
-9 <= x_30_ <= -6
-8 <= x_31_ <= 7
-4 <= x_32_ <= 6
-9 <= x_33_ <= -3
-3 <= x_34_ <= 5
-10 <= x_35_ <= 2
-10 <= x_36_ <= 8
-6 <= x_37_ <= 7
-7 <= x_38_ <= 5
x_39_ = -2
-9 <= x_40_ <= -8
-8 <= x_41_ <= 2
-3 <= x_42_ <= 0
-7 <= x_43_ <= -4
-2 <= x_44_ <= 3
-9 <= x_45_ <= 8
-3 <= x_46_ <= 9
-7 <= x_47_ <= 9
-2 <= x_48_ <= 10
-7 <= x_49_ <= 10
-10 <= x_50_ <= -9
General
x_1_
x_2_
x_3_
x_4_
x_5_
x_6_
x_7_
x_8_
x_9_
x_10_
x_11_
x_12_
x_13_
x_14_
x_15_
x_16_
x_17_
x_18_
x_19_
x_20_
x_21_
x_22_
x_23_
x_24_
x_25_
x_26_
x_27_
x_28_
x_29_
x_30_
x_31_
x_32_
x_33_
x_34_
x_35_
x_36_
x_37_
x_38_
x_39_
x_40_
x_41_
x_42_
x_43_
x_44_
x_45_
x_46_
x_47_
x_48_
x_49_
x_50_
End
