minimize
obj: 
subject to
quadratic_ranged_1_ub: [ -46 x_5_ * x_14_ + 92 x_15_ * x_5_ - 46 x_16_ * x_8_ + 36 x_21_ * x_8_ + 38 x_16_ * x_15_ - 38 x_27_ * x_15_ - 44 x_37_ * x_15_ + 8 x_37_ * x_16_ + 42 x_45_ * x_19_ - 58 x_45_ * x_21_ - 30 x_31_ * x_27_ + 48 x_45_ * x_31_ ] <= 19607
quadratic_ranged_2_ub: [ 20 x_4_ * x_6_ + 94 x_17_ * x_4_ - 70 x_48_ * x_4_ - 10 x_8_ * x_6_ + 18 x_22_ * x_6_ - 98 x_30_ * x_6_ + 54 x_49_ * x_6_ - 92 x_20_ * x_8_ + 84 x_48_ * x_8_ + 12 x_49_ * x_8_ - 46 x_20_ * x_17_ - 96 x_30_ * x_20_ + 96 x_48_ * x_30_ - 50 x_49_ * x_48_ ] <= 608
quadratic_ranged_3_ub: [ -72 x_3_ * x_27_ + 84 x_48_ * x_3_ - 80 x_27_ * x_8_ - 36 x_36_ * x_12_ + 100 x_31_ * x_13_ - 6 x_30_ * x_27_ - 64 x_36_ * x_31_ ] <= 8571
quadratic_ranged_4_ub: [ -44 x_6_ * x_13_ + 82 x_22_ * x_6_ - 18 x_32_ * x_6_ + 56 x_28_ * x_9_ + 68 x_49_ * x_9_ - 24 x_22_ * x_13_ + 94 x_23_ * x_16_ + 28 x_28_ * x_20_ - 24 x_32_ * x_20_ + 18 x_42_ * x_20_ + 82 x_23_ * x_22_ - 4 x_33_ * x_22_ + 58 x_49_ * x_22_ + 34 x_45_ * x_23_ + 46 x_49_ * x_27_ - 72 x_32_ * x_28_ + 18 x_42_ * x_28_ - 100 x_42_ * x_32_ - 34 x_45_ * x_33_ + 78 x_49_ * x_33_ ] <= -563
quadratic_ranged_5_ub: [ -14 x_6_ * x_27_ + 68 x_43_ * x_6_ - 14 x_27_ * x_8_ - 94 x_48_ * x_9_ - 72 x_27_ * x_19_ + 28 x_48_ * x_19_ - 48 x_33_ * x_27_ - 30 x_48_ * x_27_ ] <= 680
quadratic_ranged_6_ub: [ 52 x_2_ * x_42_ - 32 x_12_ * x_8_ + 96 x_16_ * x_8_ - 78 x_24_ * x_8_ + 64 x_32_ * x_12_ - 100 x_19_ * x_16_ + 14 x_37_ * x_19_ + 76 x_24_ * x_23_ - 22 x_42_ * x_23_ - 70 x_33_ * x_24_ + 30 x_42_ * x_24_ + 18 x_46_ * x_24_ + 90 x_46_ * x_32_ + 12 x_42_ * x_33_ - 62 x_38_ * x_37_ - 74 x_46_ * x_38_ ] <= -10923
quadratic_ranged_7_ub: [ -80 x_27_ * x_30_ ] <= 243
quadratic_ranged_8_ub: [ 36 x_5_ * x_19_ - 38 x_20_ * x_9_ + 58 x_50_ * x_9_ + 36 x_23_ * x_19_ + 66 x_25_ * x_19_ - 32 x_25_ * x_20_ - 6 x_25_ * x_24_ ] <= 8386
quadratic_ranged_9_ub: [ -84 x_16_ * x_27_ - 44 x_47_ * x_27_ ] <= 39
quadratic_ranged_10_ub: [ 50 x_5_ * x_11_ - 64 x_12_ * x_5_ + 4 x_39_ * x_5_ - 68 x_14_ * x_11_ - 48 x_38_ * x_11_ - 78 x_14_ * x_12_ + 100 x_36_ * x_12_ - 18 x_38_ * x_12_ - 14 x_38_ * x_36_ + 56 x_44_ * x_38_ ] <= -8757
quadratic_ranged_11_ub: [ -76 x_10_ * x_18_ - 34 x_38_ * x_10_ - 84 x_47_ * x_18_ + 24 x_47_ * x_25_ + 30 x_47_ * x_38_ + 46 x_47_ * x_44_ ] <= -3403
quadratic_ranged_12_ub: [ 52 x_1_ * x_23_ + 68 x_36_ * x_1_ + 12 x_40_ * x_1_ - 36 x_7_ * x_2_ - 74 x_23_ * x_2_ + 64 x_43_ * x_7_ + 48 x_35_ * x_23_ - 88 x_47_ * x_23_ + 16 x_49_ * x_23_ - 82 x_35_ * x_30_ - 22 x_41_ * x_30_ - 72 x_43_ * x_30_ - 62 x_41_ * x_36_ + 22 x_47_ * x_36_ + 30 x_49_ * x_37_ - 40 x_41_ * x_40_ ] <= -5889
quadratic_ranged_13_ub: [ 80 x_5_ * x_20_ + 64 x_22_ * x_5_ - 82 x_46_ * x_5_ + 32 x_43_ * x_22_ - 12 x_46_ * x_22_ + 100 x_25_ * x_23_ + 22 x_43_ * x_41_ + 96 x_48_ * x_41_ ] <= 4230
quadratic_ranged_14_ub: [ 48 x_3_ * x_14_ + 2 x_32_ * x_3_ + 16 x_35_ * x_3_ - 16 x_42_ * x_3_ - 62 x_14_ * x_4_ + 70 x_30_ * x_4_ - 40 x_32_ * x_4_ - 50 x_42_ * x_4_ + 66 x_14_ * x_12_ - 68 x_32_ * x_12_ - 44 x_42_ * x_12_ - 62 x_14_ * x_13_ + 66 x_30_ * x_13_ + 62 x_42_ * x_14_ - 72 x_32_ * x_30_ + 96 x_35_ * x_32_ - 82 x_42_ * x_35_ ] <= -5739
quadratic_ranged_15_ub: [ -72 x_3_ * x_7_ + 60 x_29_ * x_3_ + 94 x_40_ * x_3_ - 20 x_40_ * x_7_ + 68 x_29_ * x_11_ - 50 x_48_ * x_11_ + 70 x_29_ * x_24_ + 92 x_40_ * x_24_ + 98 x_40_ * x_27_ ] <= -2340
quadratic_ranged_16_ub: [ 82 x_2_ * x_10_ - 82 x_48_ * x_4_ - 84 x_18_ * x_10_ - 78 x_19_ * x_10_ + 22 x_18_ * x_12_ - 16 x_31_ * x_18_ ] <= -3821
quadratic_ranged_17_ub: [ -96 x_9_ * x_26_ - 46 x_40_ * x_9_ + 52 x_17_ * x_13_ - 20 x_26_ * x_16_ - 38 x_40_ * x_16_ - 50 x_26_ * x_17_ + 30 x_26_ * x_24_ - 38 x_48_ * x_24_ - 88 x_48_ * x_25_ ] <= 8974
quadratic_ranged_18_ub: [ 14 x_1_ * x_2_ + 28 x_4_ * x_1_ - 88 x_9_ * x_1_ - 48 x_16_ * x_1_ + 74 x_47_ * x_1_ + 2 x_50_ * x_1_ + 56 x_23_ * x_2_ - 68 x_23_ * x_4_ - 72 x_33_ * x_4_ + 8 x_47_ * x_4_ - 4 x_23_ * x_9_ - 28 x_41_ * x_23_ - 74 x_47_ * x_23_ + 40 x_41_ * x_33_ - 52 x_47_ * x_36_ + 48 x_50_ * x_36_ ] <= -4804
quadratic_ranged_19_ub: [ 38 x_5_ * x_25_ - 32 x_30_ * x_5_ + 6 x_38_ * x_5_ + 56 x_20_ * x_8_ + 86 x_34_ * x_8_ - 60 x_38_ * x_8_ + 48 x_44_ * x_8_ - 56 x_24_ * x_20_ - 88 x_25_ * x_24_ + 94 x_38_ * x_24_ + 30 x_46_ * x_25_ + 52 x_30_ * x_28_ - 66 x_38_ * x_28_ - 28 x_44_ * x_28_ + 86 x_46_ * x_28_ - 72 x_48_ * x_30_ + 56 x_40_ * x_34_ - 28 x_46_ * x_34_ + 50 x_44_ * x_40_ - 8 x_46_ * x_40_ ] <= -14819
quadratic_ranged_20_ub: [ -36 x_1_ * x_15_ - 80 x_26_ * x_1_ + 22 x_46_ * x_1_ - 88 x_46_ * x_5_ - 2 x_13_ * x_12_ + 58 x_14_ * x_12_ - 28 x_26_ * x_13_ - 24 x_38_ * x_13_ - 8 x_46_ * x_15_ + 14 x_38_ * x_24_ + 20 x_46_ * x_24_ - 20 x_38_ * x_26_ - 94 x_46_ * x_31_ ] <= 17914
quadratic_ranged_21_ub: [ 26 x_10_ * x_15_ + 10 x_45_ * x_10_ - 74 x_46_ * x_10_ - 96 x_22_ * x_15_ - 18 x_31_ * x_15_ + 66 x_45_ * x_15_ + 6 x_32_ * x_22_ ] <= 6475
quadratic_ranged_22_ub: [ -98 x_9_ * x_21_ + 64 x_30_ * x_9_ + 14 x_34_ * x_9_ - 16 x_28_ * x_20_ - 96 x_33_ * x_20_ + 54 x_27_ * x_21_ + 26 x_37_ * x_21_ + 98 x_46_ * x_28_ + 10 x_37_ * x_34_ + 34 x_46_ * x_37_ - 28 x_50_ * x_37_ ] <= -7236
quadratic_ranged_23_ub: [ 86 x_6_ * x_39_ - 84 x_31_ * x_11_ - 18 x_35_ * x_21_ + 32 x_46_ * x_21_ - 16 x_39_ * x_23_ + 46 x_32_ * x_31_ + 32 x_39_ * x_31_ + 4 x_46_ * x_31_ + 54 x_46_ * x_32_ - 74 x_46_ * x_35_ ] <= 7034
quadratic_ranged_24_ub: [ 12 x_13_ * x_46_ ] <= -715
quadratic_ranged_25_ub: [ 42 x_9_ * x_40_ - 14 x_22_ * x_13_ + 98 x_24_ * x_13_ - 68 x_25_ * x_13_ + 68 x_44_ * x_15_ + 66 x_44_ * x_22_ + 22 x_25_ * x_24_ - 98 x_47_ * x_24_ - 86 x_46_ * x_25_ + 12 x_44_ * x_29_ + 32 x_46_ * x_41_ + 50 x_47_ * x_44_ ] <= -164
quadratic_ranged_26_ub: [ 68 x_2_ * x_29_ - 4 x_29_ * x_13_ + 14 x_33_ * x_13_ - 92 x_43_ * x_13_ - 50 x_43_ * x_18_ ] <= 2509
quadratic_ranged_27_ub: [ 34 x_14_ * x_25_ - 82 x_30_ * x_14_ + 84 x_37_ * x_14_ + 60 x_39_ * x_14_ + 14 x_22_ * x_18_ - 64 x_39_ * x_18_ - 42 x_49_ * x_18_ - 86 x_25_ * x_22_ - 14 x_45_ * x_22_ + 4 x_49_ * x_22_ - 60 x_38_ * x_25_ + 4 x_39_ * x_25_ - 48 x_47_ * x_25_ + 64 x_39_ * x_30_ + 98 x_38_ * x_37_ - 24 x_47_ * x_38_ ] <= 9166
quadratic_ranged_28_ub: [ 62 x_1_ * x_44_ - 80 x_35_ * x_29_ - 52 x_35_ * x_31_ ] <= 2594
quadratic_ranged_29_ub: [ 48 x_1_ * x_24_ + 86 x_30_ * x_1_ - 62 x_48_ * x_1_ - 92 x_10_ * x_3_ - 92 x_25_ * x_3_ - 54 x_27_ * x_3_ + 96 x_50_ * x_3_ + 24 x_31_ * x_10_ - 84 x_40_ * x_10_ + 64 x_50_ * x_11_ - 8 x_27_ * x_24_ - 100 x_27_ * x_25_ + 52 x_35_ * x_25_ - 88 x_40_ * x_27_ + 44 x_48_ * x_27_ - 52 x_36_ * x_30_ - 82 x_48_ * x_30_ - 68 x_35_ * x_31_ + 72 x_48_ * x_36_ + 68 x_50_ * x_48_ ] <= 9714
quadratic_ranged_30_ub: [ 18 x_2_ * x_17_ + 38 x_23_ * x_2_ + 22 x_38_ * x_2_ - 58 x_48_ * x_2_ - 54 x_17_ * x_11_ + 52 x_18_ * x_11_ + 58 x_21_ * x_17_ + 22 x_23_ * x_17_ - 92 x_31_ * x_17_ + 2 x_48_ * x_21_ - 96 x_50_ * x_23_ - 66 x_50_ * x_32_ + 2 x_48_ * x_38_ + 64 x_50_ * x_38_ ] <= 11785
quadratic_ranged_31_ub: [ -70 x_2_ * x_16_ - 42 x_20_ * x_2_ + 36 x_25_ * x_2_ + 74 x_20_ * x_16_ - 36 x_23_ * x_16_ - 6 x_25_ * x_23_ + 78 x_48_ * x_32_ + 38 x_48_ * x_37_ ] <= 3616
quadratic_ranged_32_ub: [ -68 x_11_ * x_26_ - 62 x_35_ * x_11_ + 56 x_41_ * x_11_ - 8 x_26_ * x_12_ - 82 x_32_ * x_12_ - 46 x_23_ * x_13_ + 50 x_33_ * x_13_ - 6 x_35_ * x_23_ - 12 x_41_ * x_23_ - 78 x_48_ * x_23_ - 24 x_32_ * x_26_ - 78 x_35_ * x_27_ + 78 x_41_ * x_30_ + 84 x_48_ * x_33_ + 46 x_36_ * x_35_ ] <= -4754
quadratic_ranged_33_ub: [ -26 x_7_ * x_11_ + 90 x_40_ * x_7_ - 40 x_32_ * x_29_ + 56 x_47_ * x_32_ + 98 x_47_ * x_35_ ] <= -2680
quadratic_ranged_34_ub: [ 10 x_1_ * x_14_ + 62 x_22_ * x_1_ + 22 x_8_ * x_2_ - 42 x_10_ * x_2_ - 54 x_14_ * x_2_ + 46 x_22_ * x_2_ + 96 x_35_ * x_10_ + 52 x_22_ * x_14_ - 16 x_24_ * x_21_ - 72 x_31_ * x_21_ - 46 x_32_ * x_21_ - 42 x_38_ * x_22_ + 42 x_38_ * x_24_ - 100 x_32_ * x_31_ ] <= -5676
quadratic_ranged_35_ub: [ 96 x_2_ * x_7_ + 10 x_50_ * x_2_ + 54 x_12_ * x_7_ + 80 x_15_ * x_7_ + 94 x_16_ * x_7_ + 70 x_32_ * x_7_ + 30 x_39_ * x_7_ + 54 x_33_ * x_12_ - 46 x_32_ * x_16_ - 62 x_39_ * x_33_ - 28 x_50_ * x_33_ ] <= 7880
quadratic_ranged_36_ub: [ -2 x_9_ * x_35_ + 40 x_21_ * x_12_ + 76 x_39_ * x_21_ + 40 x_42_ * x_21_ + 68 x_50_ * x_21_ - 100 x_47_ * x_35_ - 54 x_43_ * x_39_ - 98 x_45_ * x_39_ ] <= 14754
quadratic_ranged_37_ub: [ -90 x_3_ * x_17_ - 98 x_21_ * x_3_ + 96 x_37_ * x_3_ - 42 x_44_ * x_3_ + 94 x_17_ * x_7_ + 64 x_27_ * x_7_ + 94 x_33_ * x_7_ - 46 x_37_ * x_7_ + 16 x_42_ * x_7_ - 46 x_17_ * x_16_ + 6 x_27_ * x_16_ + 34 x_37_ * x_16_ - 90 x_44_ * x_17_ - 64 x_33_ * x_21_ - 96 x_37_ * x_21_ + 90 x_44_ * x_21_ + 36 x_37_ * x_27_ - 80 x_44_ * x_27_ ] <= -11315
quadratic_ranged_38_ub: [ 42 x_6_ * x_10_ - 80 x_12_ * x_6_ + 48 x_39_ * x_9_ + 72 x_12_ * x_10_ + 94 x_50_ * x_12_ ] <= 1469
quadratic_ranged_39_ub: [ -92 x_9_ * x_47_ - 54 x_47_ * x_25_ - 48 x_47_ * x_40_ ] <= 832
quadratic_ranged_40_ub: [ 100 x_1_ * x_18_ + 100 x_27_ * x_1_ - 20 x_39_ * x_1_ - 58 x_19_ * x_2_ + 66 x_27_ * x_2_ - 74 x_42_ * x_2_ - 76 x_18_ * x_6_ - 28 x_29_ * x_6_ + 16 x_29_ * x_12_ - 72 x_19_ * x_18_ - 32 x_39_ * x_19_ + 44 x_42_ * x_19_ + 4 x_39_ * x_26_ - 32 x_42_ * x_26_ + 34 x_42_ * x_29_ - 10 x_42_ * x_39_ ] <= -1558
quadratic_ranged_41_ub: [ 90 x_1_ * x_29_ + 94 x_22_ * x_4_ + 84 x_30_ * x_4_ - 66 x_40_ * x_4_ - 78 x_40_ * x_13_ + 98 x_40_ * x_22_ + 16 x_43_ * x_29_ ] <= -2605
quadratic_ranged_42_ub: [ -6 x_3_ * x_10_ - 14 x_26_ * x_3_ - 76 x_28_ * x_3_ + 100 x_20_ * x_4_ - 42 x_26_ * x_4_ + 54 x_20_ * x_9_ + 38 x_20_ * x_10_ - 50 x_20_ * x_13_ - 12 x_26_ * x_13_ + 74 x_27_ * x_20_ + 60 x_27_ * x_26_ ] <= 5467
quadratic_ranged_43_ub: [ -22 x_8_ * x_11_ - 96 x_22_ * x_8_ - 50 x_13_ * x_11_ - 56 x_30_ * x_11_ + 84 x_41_ * x_11_ - 88 x_14_ * x_13_ - 56 x_31_ * x_13_ - 40 x_20_ * x_14_ - 40 x_30_ * x_14_ - 40 x_31_ * x_14_ - 6 x_33_ * x_30_ ] <= -2711
quadratic_ranged_44_ub: [ -22 x_6_ * x_21_ - 4 x_36_ * x_8_ - 46 x_39_ * x_10_ - 32 x_35_ * x_20_ - 62 x_36_ * x_20_ + 58 x_26_ * x_21_ - 18 x_36_ * x_35_ + 22 x_39_ * x_35_ ] <= -2276
quadratic_ranged_45_ub: [ 26 x_5_ * x_11_ - 86 x_12_ * x_5_ - 92 x_16_ * x_5_ - 18 x_40_ * x_5_ - 86 x_47_ * x_5_ + 24 x_34_ * x_11_ - 70 x_14_ * x_12_ - 68 x_40_ * x_12_ - 56 x_29_ * x_14_ + 94 x_43_ * x_14_ + 48 x_29_ * x_19_ - 10 x_29_ * x_27_ - 78 x_40_ * x_27_ - 34 x_40_ * x_35_ + 86 x_47_ * x_40_ ] <= -5050
quadratic_ranged_46_ub: [ -6 x_1_ * x_20_ + 4 x_43_ * x_1_ - 46 x_21_ * x_20_ - 64 x_22_ * x_21_ + 70 x_37_ * x_22_ + 20 x_47_ * x_37_ ] <= -2529
quadratic_ranged_47_ub: [ 76 x_5_ * x_21_ + 8 x_29_ * x_5_ + 50 x_37_ * x_5_ - 16 x_42_ * x_5_ - 44 x_17_ * x_10_ + 22 x_42_ * x_10_ + 74 x_45_ * x_16_ + 16 x_42_ * x_17_ + 68 x_29_ * x_21_ + 88 x_45_ * x_21_ + 52 x_45_ * x_29_ + 80 x_46_ * x_29_ + 36 x_46_ * x_37_ ] <= -7053
quadratic_ranged_48_ub: [ -10 x_3_ * x_20_ - 80 x_49_ * x_3_ + 24 x_26_ * x_14_ - 74 x_43_ * x_14_ - 10 x_50_ * x_14_ + 12 x_27_ * x_20_ - 92 x_50_ * x_22_ + 2 x_27_ * x_26_ + 80 x_50_ * x_26_ - 64 x_49_ * x_27_ - 10 x_43_ * x_36_ - 36 x_44_ * x_36_ + 88 x_49_ * x_43_ ] <= -5488
quadratic_ranged_49_ub: [ 58 x_5_ * x_15_ + 50 x_23_ * x_5_ + 36 x_28_ * x_5_ - 78 x_33_ * x_5_ + 84 x_48_ * x_5_ + 10 x_14_ * x_7_ - 58 x_33_ * x_7_ + 58 x_48_ * x_7_ + 54 x_50_ * x_7_ + 10 x_15_ * x_13_ + 26 x_36_ * x_13_ - 46 x_24_ * x_14_ + 68 x_25_ * x_14_ - 54 x_28_ * x_14_ - 78 x_43_ * x_14_ + 80 x_24_ * x_15_ - 42 x_36_ * x_15_ - 70 x_50_ * x_15_ + 30 x_28_ * x_23_ + 66 x_33_ * x_23_ - 26 x_36_ * x_23_ - 68 x_43_ * x_23_ + 44 x_43_ * x_24_ - 20 x_28_ * x_25_ - 92 x_28_ * x_26_ - 78 x_33_ * x_26_ + 90 x_36_ * x_33_ + 56 x_50_ * x_36_ ] <= 18541
quadratic_ranged_50_ub: [ 96 x_2_ * x_11_ + 28 x_16_ * x_2_ + 48 x_29_ * x_2_ - 48 x_34_ * x_2_ + 4 x_37_ * x_6_ + 8 x_48_ * x_11_ - 54 x_34_ * x_16_ + 62 x_37_ * x_34_ + 86 x_37_ * x_35_ ] <= 4228
quadratic_ranged_51_ub: [ -70 x_2_ * x_7_ - 48 x_34_ * x_2_ + 4 x_13_ * x_7_ - 40 x_18_ * x_13_ - 64 x_29_ * x_18_ + 80 x_33_ * x_18_ + 80 x_36_ * x_29_ + 22 x_43_ * x_29_ + 60 x_36_ * x_34_ ] <= -1338
quadratic_ranged_52_ub: [ -78 x_7_ * x_9_ - 22 x_40_ * x_7_ + 76 x_41_ * x_7_ + 42 x_16_ * x_12_ - 34 x_39_ * x_19_ + 84 x_41_ * x_23_ + 14 x_41_ * x_29_ + 22 x_50_ * x_39_ ] <= 13744
quadratic_ranged_53_ub: [ 58 x_9_ * x_26_ + 50 x_31_ * x_9_ + 98 x_48_ * x_9_ - 92 x_31_ * x_22_ + 62 x_31_ * x_23_ + 26 x_33_ * x_31_ ] <= -3057
quadratic_ranged_54_ub: [ 20 x_3_ * x_9_ + 6 x_15_ * x_3_ - 62 x_49_ * x_3_ + 64 x_9_ * x_6_ - 66 x_15_ * x_6_ - 30 x_18_ * x_6_ - 78 x_23_ * x_6_ + 42 x_49_ * x_6_ - 76 x_31_ * x_9_ + 50 x_49_ * x_9_ - 82 x_18_ * x_12_ - 14 x_21_ * x_12_ + 4 x_26_ * x_12_ + 28 x_33_ * x_12_ + 90 x_15_ * x_14_ - 92 x_28_ * x_14_ + 58 x_41_ * x_14_ - 6 x_50_ * x_14_ + 42 x_21_ * x_15_ - 52 x_23_ * x_15_ - 26 x_26_ * x_15_ + 10 x_28_ * x_15_ + 58 x_31_ * x_15_ + 56 x_41_ * x_15_ - 12 x_41_ * x_21_ - 80 x_50_ * x_21_ - 48 x_50_ * x_23_ - 32 x_50_ * x_33_ - 6 x_49_ * x_41_ ] <= 7808
quadratic_ranged_55_ub: [ -86 x_5_ * x_29_ - 76 x_30_ * x_5_ - 44 x_25_ * x_14_ - 42 x_31_ * x_14_ + 56 x_25_ * x_15_ + 88 x_27_ * x_15_ + 46 x_26_ * x_20_ + 94 x_29_ * x_20_ - 76 x_30_ * x_25_ - 78 x_30_ * x_27_ - 26 x_31_ * x_27_ + 12 x_30_ * x_29_ + 84 x_31_ * x_30_ ] <= 840
quadratic_ranged_56_ub: [ -12 x_5_ * x_11_ + 20 x_34_ * x_5_ - 66 x_18_ * x_11_ - 66 x_34_ * x_11_ - 72 x_35_ * x_11_ + 86 x_42_ * x_11_ - 90 x_47_ * x_13_ - 40 x_47_ * x_18_ + 72 x_38_ * x_35_ - 64 x_42_ * x_35_ - 6 x_42_ * x_38_ ] <= -6602
quadratic_ranged_1_lb: [ -46 x_5_ * x_14_ + 92 x_15_ * x_5_ - 46 x_16_ * x_8_ + 36 x_21_ * x_8_ + 38 x_16_ * x_15_ - 38 x_27_ * x_15_ - 44 x_37_ * x_15_ + 8 x_37_ * x_16_ + 42 x_45_ * x_19_ - 58 x_45_ * x_21_ - 30 x_31_ * x_27_ + 48 x_45_ * x_31_ ] >= 19598
quadratic_ranged_2_lb: [ 20 x_4_ * x_6_ + 94 x_17_ * x_4_ - 70 x_48_ * x_4_ - 10 x_8_ * x_6_ + 18 x_22_ * x_6_ - 98 x_30_ * x_6_ + 54 x_49_ * x_6_ - 92 x_20_ * x_8_ + 84 x_48_ * x_8_ + 12 x_49_ * x_8_ - 46 x_20_ * x_17_ - 96 x_30_ * x_20_ + 96 x_48_ * x_30_ - 50 x_49_ * x_48_ ] >= 603
quadratic_ranged_3_lb: [ -72 x_3_ * x_27_ + 84 x_48_ * x_3_ - 80 x_27_ * x_8_ - 36 x_36_ * x_12_ + 100 x_31_ * x_13_ - 6 x_30_ * x_27_ - 64 x_36_ * x_31_ ] >= 8570
quadratic_ranged_4_lb: [ -44 x_6_ * x_13_ + 82 x_22_ * x_6_ - 18 x_32_ * x_6_ + 56 x_28_ * x_9_ + 68 x_49_ * x_9_ - 24 x_22_ * x_13_ + 94 x_23_ * x_16_ + 28 x_28_ * x_20_ - 24 x_32_ * x_20_ + 18 x_42_ * x_20_ + 82 x_23_ * x_22_ - 4 x_33_ * x_22_ + 58 x_49_ * x_22_ + 34 x_45_ * x_23_ + 46 x_49_ * x_27_ - 72 x_32_ * x_28_ + 18 x_42_ * x_28_ - 100 x_42_ * x_32_ - 34 x_45_ * x_33_ + 78 x_49_ * x_33_ ] >= -572
quadratic_ranged_5_lb: [ -14 x_6_ * x_27_ + 68 x_43_ * x_6_ - 14 x_27_ * x_8_ - 94 x_48_ * x_9_ - 72 x_27_ * x_19_ + 28 x_48_ * x_19_ - 48 x_33_ * x_27_ - 30 x_48_ * x_27_ ] >= 675
quadratic_ranged_6_lb: [ 52 x_2_ * x_42_ - 32 x_12_ * x_8_ + 96 x_16_ * x_8_ - 78 x_24_ * x_8_ + 64 x_32_ * x_12_ - 100 x_19_ * x_16_ + 14 x_37_ * x_19_ + 76 x_24_ * x_23_ - 22 x_42_ * x_23_ - 70 x_33_ * x_24_ + 30 x_42_ * x_24_ + 18 x_46_ * x_24_ + 90 x_46_ * x_32_ + 12 x_42_ * x_33_ - 62 x_38_ * x_37_ - 74 x_46_ * x_38_ ] >= -10928
quadratic_ranged_7_lb: [ -80 x_27_ * x_30_ ] >= 240
quadratic_ranged_8_lb: [ 36 x_5_ * x_19_ - 38 x_20_ * x_9_ + 58 x_50_ * x_9_ + 36 x_23_ * x_19_ + 66 x_25_ * x_19_ - 32 x_25_ * x_20_ - 6 x_25_ * x_24_ ] >= 8382
quadratic_ranged_9_lb: [ -84 x_16_ * x_27_ - 44 x_47_ * x_27_ ] >= 31
quadratic_ranged_10_lb: [ 50 x_5_ * x_11_ - 64 x_12_ * x_5_ + 4 x_39_ * x_5_ - 68 x_14_ * x_11_ - 48 x_38_ * x_11_ - 78 x_14_ * x_12_ + 100 x_36_ * x_12_ - 18 x_38_ * x_12_ - 14 x_38_ * x_36_ + 56 x_44_ * x_38_ ] >= -8767
quadratic_ranged_11_lb: [ -76 x_10_ * x_18_ - 34 x_38_ * x_10_ - 84 x_47_ * x_18_ + 24 x_47_ * x_25_ + 30 x_47_ * x_38_ + 46 x_47_ * x_44_ ] >= -3407
quadratic_ranged_12_lb: [ 52 x_1_ * x_23_ + 68 x_36_ * x_1_ + 12 x_40_ * x_1_ - 36 x_7_ * x_2_ - 74 x_23_ * x_2_ + 64 x_43_ * x_7_ + 48 x_35_ * x_23_ - 88 x_47_ * x_23_ + 16 x_49_ * x_23_ - 82 x_35_ * x_30_ - 22 x_41_ * x_30_ - 72 x_43_ * x_30_ - 62 x_41_ * x_36_ + 22 x_47_ * x_36_ + 30 x_49_ * x_37_ - 40 x_41_ * x_40_ ] >= -5896
quadratic_ranged_13_lb: [ 80 x_5_ * x_20_ + 64 x_22_ * x_5_ - 82 x_46_ * x_5_ + 32 x_43_ * x_22_ - 12 x_46_ * x_22_ + 100 x_25_ * x_23_ + 22 x_43_ * x_41_ + 96 x_48_ * x_41_ ] >= 4224
quadratic_ranged_14_lb: [ 48 x_3_ * x_14_ + 2 x_32_ * x_3_ + 16 x_35_ * x_3_ - 16 x_42_ * x_3_ - 62 x_14_ * x_4_ + 70 x_30_ * x_4_ - 40 x_32_ * x_4_ - 50 x_42_ * x_4_ + 66 x_14_ * x_12_ - 68 x_32_ * x_12_ - 44 x_42_ * x_12_ - 62 x_14_ * x_13_ + 66 x_30_ * x_13_ + 62 x_42_ * x_14_ - 72 x_32_ * x_30_ + 96 x_35_ * x_32_ - 82 x_42_ * x_35_ ] >= -5746
quadratic_ranged_15_lb: [ -72 x_3_ * x_7_ + 60 x_29_ * x_3_ + 94 x_40_ * x_3_ - 20 x_40_ * x_7_ + 68 x_29_ * x_11_ - 50 x_48_ * x_11_ + 70 x_29_ * x_24_ + 92 x_40_ * x_24_ + 98 x_40_ * x_27_ ] >= -2341
quadratic_ranged_16_lb: [ 82 x_2_ * x_10_ - 82 x_48_ * x_4_ - 84 x_18_ * x_10_ - 78 x_19_ * x_10_ + 22 x_18_ * x_12_ - 16 x_31_ * x_18_ ] >= -3827
quadratic_ranged_17_lb: [ -96 x_9_ * x_26_ - 46 x_40_ * x_9_ + 52 x_17_ * x_13_ - 20 x_26_ * x_16_ - 38 x_40_ * x_16_ - 50 x_26_ * x_17_ + 30 x_26_ * x_24_ - 38 x_48_ * x_24_ - 88 x_48_ * x_25_ ] >= 8966
quadratic_ranged_18_lb: [ 14 x_1_ * x_2_ + 28 x_4_ * x_1_ - 88 x_9_ * x_1_ - 48 x_16_ * x_1_ + 74 x_47_ * x_1_ + 2 x_50_ * x_1_ + 56 x_23_ * x_2_ - 68 x_23_ * x_4_ - 72 x_33_ * x_4_ + 8 x_47_ * x_4_ - 4 x_23_ * x_9_ - 28 x_41_ * x_23_ - 74 x_47_ * x_23_ + 40 x_41_ * x_33_ - 52 x_47_ * x_36_ + 48 x_50_ * x_36_ ] >= -4811
quadratic_ranged_19_lb: [ 38 x_5_ * x_25_ - 32 x_30_ * x_5_ + 6 x_38_ * x_5_ + 56 x_20_ * x_8_ + 86 x_34_ * x_8_ - 60 x_38_ * x_8_ + 48 x_44_ * x_8_ - 56 x_24_ * x_20_ - 88 x_25_ * x_24_ + 94 x_38_ * x_24_ + 30 x_46_ * x_25_ + 52 x_30_ * x_28_ - 66 x_38_ * x_28_ - 28 x_44_ * x_28_ + 86 x_46_ * x_28_ - 72 x_48_ * x_30_ + 56 x_40_ * x_34_ - 28 x_46_ * x_34_ + 50 x_44_ * x_40_ - 8 x_46_ * x_40_ ] >= -14825
quadratic_ranged_20_lb: [ -36 x_1_ * x_15_ - 80 x_26_ * x_1_ + 22 x_46_ * x_1_ - 88 x_46_ * x_5_ - 2 x_13_ * x_12_ + 58 x_14_ * x_12_ - 28 x_26_ * x_13_ - 24 x_38_ * x_13_ - 8 x_46_ * x_15_ + 14 x_38_ * x_24_ + 20 x_46_ * x_24_ - 20 x_38_ * x_26_ - 94 x_46_ * x_31_ ] >= 17912
quadratic_ranged_21_lb: [ 26 x_10_ * x_15_ + 10 x_45_ * x_10_ - 74 x_46_ * x_10_ - 96 x_22_ * x_15_ - 18 x_31_ * x_15_ + 66 x_45_ * x_15_ + 6 x_32_ * x_22_ ] >= 6473
quadratic_ranged_22_lb: [ -98 x_9_ * x_21_ + 64 x_30_ * x_9_ + 14 x_34_ * x_9_ - 16 x_28_ * x_20_ - 96 x_33_ * x_20_ + 54 x_27_ * x_21_ + 26 x_37_ * x_21_ + 98 x_46_ * x_28_ + 10 x_37_ * x_34_ + 34 x_46_ * x_37_ - 28 x_50_ * x_37_ ] >= -7240
quadratic_ranged_23_lb: [ 86 x_6_ * x_39_ - 84 x_31_ * x_11_ - 18 x_35_ * x_21_ + 32 x_46_ * x_21_ - 16 x_39_ * x_23_ + 46 x_32_ * x_31_ + 32 x_39_ * x_31_ + 4 x_46_ * x_31_ + 54 x_46_ * x_32_ - 74 x_46_ * x_35_ ] >= 7031
quadratic_ranged_24_lb: [ 12 x_13_ * x_46_ ] >= -723
quadratic_ranged_25_lb: [ 42 x_9_ * x_40_ - 14 x_22_ * x_13_ + 98 x_24_ * x_13_ - 68 x_25_ * x_13_ + 68 x_44_ * x_15_ + 66 x_44_ * x_22_ + 22 x_25_ * x_24_ - 98 x_47_ * x_24_ - 86 x_46_ * x_25_ + 12 x_44_ * x_29_ + 32 x_46_ * x_41_ + 50 x_47_ * x_44_ ] >= -170
quadratic_ranged_26_lb: [ 68 x_2_ * x_29_ - 4 x_29_ * x_13_ + 14 x_33_ * x_13_ - 92 x_43_ * x_13_ - 50 x_43_ * x_18_ ] >= 2502
quadratic_ranged_27_lb: [ 34 x_14_ * x_25_ - 82 x_30_ * x_14_ + 84 x_37_ * x_14_ + 60 x_39_ * x_14_ + 14 x_22_ * x_18_ - 64 x_39_ * x_18_ - 42 x_49_ * x_18_ - 86 x_25_ * x_22_ - 14 x_45_ * x_22_ + 4 x_49_ * x_22_ - 60 x_38_ * x_25_ + 4 x_39_ * x_25_ - 48 x_47_ * x_25_ + 64 x_39_ * x_30_ + 98 x_38_ * x_37_ - 24 x_47_ * x_38_ ] >= 9157
quadratic_ranged_28_lb: [ 62 x_1_ * x_44_ - 80 x_35_ * x_29_ - 52 x_35_ * x_31_ ] >= 2590
quadratic_ranged_29_lb: [ 48 x_1_ * x_24_ + 86 x_30_ * x_1_ - 62 x_48_ * x_1_ - 92 x_10_ * x_3_ - 92 x_25_ * x_3_ - 54 x_27_ * x_3_ + 96 x_50_ * x_3_ + 24 x_31_ * x_10_ - 84 x_40_ * x_10_ + 64 x_50_ * x_11_ - 8 x_27_ * x_24_ - 100 x_27_ * x_25_ + 52 x_35_ * x_25_ - 88 x_40_ * x_27_ + 44 x_48_ * x_27_ - 52 x_36_ * x_30_ - 82 x_48_ * x_30_ - 68 x_35_ * x_31_ + 72 x_48_ * x_36_ + 68 x_50_ * x_48_ ] >= 9712
quadratic_ranged_30_lb: [ 18 x_2_ * x_17_ + 38 x_23_ * x_2_ + 22 x_38_ * x_2_ - 58 x_48_ * x_2_ - 54 x_17_ * x_11_ + 52 x_18_ * x_11_ + 58 x_21_ * x_17_ + 22 x_23_ * x_17_ - 92 x_31_ * x_17_ + 2 x_48_ * x_21_ - 96 x_50_ * x_23_ - 66 x_50_ * x_32_ + 2 x_48_ * x_38_ + 64 x_50_ * x_38_ ] >= 11776
quadratic_ranged_31_lb: [ -70 x_2_ * x_16_ - 42 x_20_ * x_2_ + 36 x_25_ * x_2_ + 74 x_20_ * x_16_ - 36 x_23_ * x_16_ - 6 x_25_ * x_23_ + 78 x_48_ * x_32_ + 38 x_48_ * x_37_ ] >= 3611
quadratic_ranged_32_lb: [ -68 x_11_ * x_26_ - 62 x_35_ * x_11_ + 56 x_41_ * x_11_ - 8 x_26_ * x_12_ - 82 x_32_ * x_12_ - 46 x_23_ * x_13_ + 50 x_33_ * x_13_ - 6 x_35_ * x_23_ - 12 x_41_ * x_23_ - 78 x_48_ * x_23_ - 24 x_32_ * x_26_ - 78 x_35_ * x_27_ + 78 x_41_ * x_30_ + 84 x_48_ * x_33_ + 46 x_36_ * x_35_ ] >= -4760
quadratic_ranged_33_lb: [ -26 x_7_ * x_11_ + 90 x_40_ * x_7_ - 40 x_32_ * x_29_ + 56 x_47_ * x_32_ + 98 x_47_ * x_35_ ] >= -2684
quadratic_ranged_34_lb: [ 10 x_1_ * x_14_ + 62 x_22_ * x_1_ + 22 x_8_ * x_2_ - 42 x_10_ * x_2_ - 54 x_14_ * x_2_ + 46 x_22_ * x_2_ + 96 x_35_ * x_10_ + 52 x_22_ * x_14_ - 16 x_24_ * x_21_ - 72 x_31_ * x_21_ - 46 x_32_ * x_21_ - 42 x_38_ * x_22_ + 42 x_38_ * x_24_ - 100 x_32_ * x_31_ ] >= -5679
quadratic_ranged_35_lb: [ 96 x_2_ * x_7_ + 10 x_50_ * x_2_ + 54 x_12_ * x_7_ + 80 x_15_ * x_7_ + 94 x_16_ * x_7_ + 70 x_32_ * x_7_ + 30 x_39_ * x_7_ + 54 x_33_ * x_12_ - 46 x_32_ * x_16_ - 62 x_39_ * x_33_ - 28 x_50_ * x_33_ ] >= 7877
quadratic_ranged_36_lb: [ -2 x_9_ * x_35_ + 40 x_21_ * x_12_ + 76 x_39_ * x_21_ + 40 x_42_ * x_21_ + 68 x_50_ * x_21_ - 100 x_47_ * x_35_ - 54 x_43_ * x_39_ - 98 x_45_ * x_39_ ] >= 14751
quadratic_ranged_37_lb: [ -90 x_3_ * x_17_ - 98 x_21_ * x_3_ + 96 x_37_ * x_3_ - 42 x_44_ * x_3_ + 94 x_17_ * x_7_ + 64 x_27_ * x_7_ + 94 x_33_ * x_7_ - 46 x_37_ * x_7_ + 16 x_42_ * x_7_ - 46 x_17_ * x_16_ + 6 x_27_ * x_16_ + 34 x_37_ * x_16_ - 90 x_44_ * x_17_ - 64 x_33_ * x_21_ - 96 x_37_ * x_21_ + 90 x_44_ * x_21_ + 36 x_37_ * x_27_ - 80 x_44_ * x_27_ ] >= -11322
quadratic_ranged_38_lb: [ 42 x_6_ * x_10_ - 80 x_12_ * x_6_ + 48 x_39_ * x_9_ + 72 x_12_ * x_10_ + 94 x_50_ * x_12_ ] >= 1462
quadratic_ranged_39_lb: [ -92 x_9_ * x_47_ - 54 x_47_ * x_25_ - 48 x_47_ * x_40_ ] >= 828
quadratic_ranged_40_lb: [ 100 x_1_ * x_18_ + 100 x_27_ * x_1_ - 20 x_39_ * x_1_ - 58 x_19_ * x_2_ + 66 x_27_ * x_2_ - 74 x_42_ * x_2_ - 76 x_18_ * x_6_ - 28 x_29_ * x_6_ + 16 x_29_ * x_12_ - 72 x_19_ * x_18_ - 32 x_39_ * x_19_ + 44 x_42_ * x_19_ + 4 x_39_ * x_26_ - 32 x_42_ * x_26_ + 34 x_42_ * x_29_ - 10 x_42_ * x_39_ ] >= -1560
quadratic_ranged_41_lb: [ 90 x_1_ * x_29_ + 94 x_22_ * x_4_ + 84 x_30_ * x_4_ - 66 x_40_ * x_4_ - 78 x_40_ * x_13_ + 98 x_40_ * x_22_ + 16 x_43_ * x_29_ ] >= -2614
quadratic_ranged_42_lb: [ -6 x_3_ * x_10_ - 14 x_26_ * x_3_ - 76 x_28_ * x_3_ + 100 x_20_ * x_4_ - 42 x_26_ * x_4_ + 54 x_20_ * x_9_ + 38 x_20_ * x_10_ - 50 x_20_ * x_13_ - 12 x_26_ * x_13_ + 74 x_27_ * x_20_ + 60 x_27_ * x_26_ ] >= 5464
quadratic_ranged_43_lb: [ -22 x_8_ * x_11_ - 96 x_22_ * x_8_ - 50 x_13_ * x_11_ - 56 x_30_ * x_11_ + 84 x_41_ * x_11_ - 88 x_14_ * x_13_ - 56 x_31_ * x_13_ - 40 x_20_ * x_14_ - 40 x_30_ * x_14_ - 40 x_31_ * x_14_ - 6 x_33_ * x_30_ ] >= -2718
quadratic_ranged_44_lb: [ -22 x_6_ * x_21_ - 4 x_36_ * x_8_ - 46 x_39_ * x_10_ - 32 x_35_ * x_20_ - 62 x_36_ * x_20_ + 58 x_26_ * x_21_ - 18 x_36_ * x_35_ + 22 x_39_ * x_35_ ] >= -2285
quadratic_ranged_45_lb: [ 26 x_5_ * x_11_ - 86 x_12_ * x_5_ - 92 x_16_ * x_5_ - 18 x_40_ * x_5_ - 86 x_47_ * x_5_ + 24 x_34_ * x_11_ - 70 x_14_ * x_12_ - 68 x_40_ * x_12_ - 56 x_29_ * x_14_ + 94 x_43_ * x_14_ + 48 x_29_ * x_19_ - 10 x_29_ * x_27_ - 78 x_40_ * x_27_ - 34 x_40_ * x_35_ + 86 x_47_ * x_40_ ] >= -5059
quadratic_ranged_46_lb: [ -6 x_1_ * x_20_ + 4 x_43_ * x_1_ - 46 x_21_ * x_20_ - 64 x_22_ * x_21_ + 70 x_37_ * x_22_ + 20 x_47_ * x_37_ ] >= -2537
quadratic_ranged_47_lb: [ 76 x_5_ * x_21_ + 8 x_29_ * x_5_ + 50 x_37_ * x_5_ - 16 x_42_ * x_5_ - 44 x_17_ * x_10_ + 22 x_42_ * x_10_ + 74 x_45_ * x_16_ + 16 x_42_ * x_17_ + 68 x_29_ * x_21_ + 88 x_45_ * x_21_ + 52 x_45_ * x_29_ + 80 x_46_ * x_29_ + 36 x_46_ * x_37_ ] >= -7054
quadratic_ranged_48_lb: [ -10 x_3_ * x_20_ - 80 x_49_ * x_3_ + 24 x_26_ * x_14_ - 74 x_43_ * x_14_ - 10 x_50_ * x_14_ + 12 x_27_ * x_20_ - 92 x_50_ * x_22_ + 2 x_27_ * x_26_ + 80 x_50_ * x_26_ - 64 x_49_ * x_27_ - 10 x_43_ * x_36_ - 36 x_44_ * x_36_ + 88 x_49_ * x_43_ ] >= -5493
quadratic_ranged_49_lb: [ 58 x_5_ * x_15_ + 50 x_23_ * x_5_ + 36 x_28_ * x_5_ - 78 x_33_ * x_5_ + 84 x_48_ * x_5_ + 10 x_14_ * x_7_ - 58 x_33_ * x_7_ + 58 x_48_ * x_7_ + 54 x_50_ * x_7_ + 10 x_15_ * x_13_ + 26 x_36_ * x_13_ - 46 x_24_ * x_14_ + 68 x_25_ * x_14_ - 54 x_28_ * x_14_ - 78 x_43_ * x_14_ + 80 x_24_ * x_15_ - 42 x_36_ * x_15_ - 70 x_50_ * x_15_ + 30 x_28_ * x_23_ + 66 x_33_ * x_23_ - 26 x_36_ * x_23_ - 68 x_43_ * x_23_ + 44 x_43_ * x_24_ - 20 x_28_ * x_25_ - 92 x_28_ * x_26_ - 78 x_33_ * x_26_ + 90 x_36_ * x_33_ + 56 x_50_ * x_36_ ] >= 18533
quadratic_ranged_50_lb: [ 96 x_2_ * x_11_ + 28 x_16_ * x_2_ + 48 x_29_ * x_2_ - 48 x_34_ * x_2_ + 4 x_37_ * x_6_ + 8 x_48_ * x_11_ - 54 x_34_ * x_16_ + 62 x_37_ * x_34_ + 86 x_37_ * x_35_ ] >= 4223
quadratic_ranged_51_lb: [ -70 x_2_ * x_7_ - 48 x_34_ * x_2_ + 4 x_13_ * x_7_ - 40 x_18_ * x_13_ - 64 x_29_ * x_18_ + 80 x_33_ * x_18_ + 80 x_36_ * x_29_ + 22 x_43_ * x_29_ + 60 x_36_ * x_34_ ] >= -1341
quadratic_ranged_52_lb: [ -78 x_7_ * x_9_ - 22 x_40_ * x_7_ + 76 x_41_ * x_7_ + 42 x_16_ * x_12_ - 34 x_39_ * x_19_ + 84 x_41_ * x_23_ + 14 x_41_ * x_29_ + 22 x_50_ * x_39_ ] >= 13737
quadratic_ranged_53_lb: [ 58 x_9_ * x_26_ + 50 x_31_ * x_9_ + 98 x_48_ * x_9_ - 92 x_31_ * x_22_ + 62 x_31_ * x_23_ + 26 x_33_ * x_31_ ] >= -3062
quadratic_ranged_54_lb: [ 20 x_3_ * x_9_ + 6 x_15_ * x_3_ - 62 x_49_ * x_3_ + 64 x_9_ * x_6_ - 66 x_15_ * x_6_ - 30 x_18_ * x_6_ - 78 x_23_ * x_6_ + 42 x_49_ * x_6_ - 76 x_31_ * x_9_ + 50 x_49_ * x_9_ - 82 x_18_ * x_12_ - 14 x_21_ * x_12_ + 4 x_26_ * x_12_ + 28 x_33_ * x_12_ + 90 x_15_ * x_14_ - 92 x_28_ * x_14_ + 58 x_41_ * x_14_ - 6 x_50_ * x_14_ + 42 x_21_ * x_15_ - 52 x_23_ * x_15_ - 26 x_26_ * x_15_ + 10 x_28_ * x_15_ + 58 x_31_ * x_15_ + 56 x_41_ * x_15_ - 12 x_41_ * x_21_ - 80 x_50_ * x_21_ - 48 x_50_ * x_23_ - 32 x_50_ * x_33_ - 6 x_49_ * x_41_ ] >= 7806
quadratic_ranged_55_lb: [ -86 x_5_ * x_29_ - 76 x_30_ * x_5_ - 44 x_25_ * x_14_ - 42 x_31_ * x_14_ + 56 x_25_ * x_15_ + 88 x_27_ * x_15_ + 46 x_26_ * x_20_ + 94 x_29_ * x_20_ - 76 x_30_ * x_25_ - 78 x_30_ * x_27_ - 26 x_31_ * x_27_ + 12 x_30_ * x_29_ + 84 x_31_ * x_30_ ] >= 835
quadratic_ranged_56_lb: [ -12 x_5_ * x_11_ + 20 x_34_ * x_5_ - 66 x_18_ * x_11_ - 66 x_34_ * x_11_ - 72 x_35_ * x_11_ + 86 x_42_ * x_11_ - 90 x_47_ * x_13_ - 40 x_47_ * x_18_ + 72 x_38_ * x_35_ - 64 x_42_ * x_35_ - 6 x_42_ * x_38_ ] >= -6603
c1: [ 82 x_4_ * x_26_ - 18 x_38_ * x_4_ + 74 x_38_ * x_21_ - 48 x_26_ * x_24_ - 44 x_38_ * x_24_ ] = -2842
c2: [ -32 x_6_ * x_26_ + 66 x_17_ * x_9_ + 24 x_22_ * x_9_ + 96 x_26_ * x_17_ - 6 x_40_ * x_17_ + 98 x_26_ * x_22_ + 76 x_50_ * x_26_ ] = -2538
c3: [ 100 x_2_ * x_13_ + 94 x_17_ * x_2_ - 100 x_34_ * x_2_ - 18 x_31_ * x_8_ + 72 x_47_ * x_8_ - 4 x_17_ * x_13_ + 64 x_49_ * x_13_ - 70 x_33_ * x_16_ + 64 x_34_ * x_16_ + 36 x_47_ * x_16_ - 78 x_46_ * x_17_ - 42 x_47_ * x_17_ + 34 x_46_ * x_21_ + 34 x_49_ * x_21_ - 2 x_34_ * x_23_ - 22 x_30_ * x_28_ - 78 x_31_ * x_28_ + 58 x_34_ * x_28_ - 38 x_44_ * x_28_ + 90 x_33_ * x_29_ - 26 x_44_ * x_29_ - 48 x_46_ * x_29_ - 14 x_49_ * x_29_ - 80 x_33_ * x_31_ + 76 x_34_ * x_31_ - 96 x_44_ * x_31_ + 94 x_47_ * x_31_ + 36 x_49_ * x_31_ - 98 x_49_ * x_46_ ] = 8734
c4: [ -68 x_1_ * x_20_ + 98 x_27_ * x_1_ + 6 x_27_ * x_16_ - 32 x_36_ * x_16_ + 8 x_38_ * x_16_ - 52 x_22_ * x_20_ - 38 x_27_ * x_21_ + 14 x_38_ * x_21_ - 40 x_27_ * x_22_ + 48 x_31_ * x_22_ + 10 x_49_ * x_22_ + 92 x_36_ * x_27_ - 64 x_38_ * x_31_ + 46 x_49_ * x_31_ ] = 8310
c5: [ -44 x_3_ * x_39_ + 66 x_47_ * x_3_ - 46 x_44_ * x_14_ + 26 x_45_ * x_14_ - 76 x_47_ * x_29_ + 22 x_44_ * x_39_ + 16 x_46_ * x_44_ ] = -492
c6: [ 78 x_3_ * x_37_ + 2 x_44_ * x_3_ + 16 x_22_ * x_7_ + 36 x_45_ * x_13_ + 58 x_50_ * x_13_ - 42 x_30_ * x_22_ - 84 x_45_ * x_22_ - 6 x_40_ * x_30_ + 84 x_40_ * x_37_ - 8 x_45_ * x_37_ + 42 x_44_ * x_40_ - 80 x_45_ * x_40_ - 2 x_50_ * x_44_ ] = 5874
c7: [ -98 x_1_ * x_25_ - 60 x_5_ * x_2_ + 26 x_48_ * x_2_ + 58 x_25_ * x_16_ + 66 x_42_ * x_18_ + 28 x_42_ * x_24_ - 62 x_26_ * x_25_ + 20 x_48_ * x_25_ + 20 x_48_ * x_26_ - 90 x_48_ * x_37_ ] = -9746
c8: [ -86 x_6_ * x_32_ ] = 5418
c9: [ -66 x_9_ * x_25_ + 78 x_45_ * x_19_ ] = 7626
c10: [ -70 x_16_ * x_46_ ] = -2100
c11: [ 90 x_2_ * x_24_ + 58 x_25_ * x_2_ - 92 x_44_ * x_2_ + 42 x_31_ * x_3_ + 70 x_42_ * x_3_ + 62 x_7_ * x_4_ + 60 x_25_ * x_4_ + 22 x_31_ * x_4_ - 64 x_24_ * x_7_ + 52 x_31_ * x_7_ - 22 x_42_ * x_12_ + 22 x_44_ * x_24_ + 90 x_50_ * x_24_ - 98 x_31_ * x_25_ - 100 x_42_ * x_31_ + 34 x_44_ * x_42_ - 82 x_50_ * x_44_ ] = -12750
c12: [ -90 x_2_ * x_30_ + 100 x_19_ * x_10_ - 42 x_28_ * x_10_ + 76 x_34_ * x_10_ + 30 x_28_ * x_16_ - 74 x_40_ * x_16_ + 32 x_46_ * x_18_ - 14 x_21_ * x_19_ - 80 x_27_ * x_19_ - 90 x_30_ * x_19_ + 66 x_40_ * x_19_ + 66 x_34_ * x_21_ + 24 x_27_ * x_26_ - 76 x_46_ * x_26_ + 12 x_34_ * x_27_ + 20 x_40_ * x_28_ - 28 x_46_ * x_30_ + 84 x_44_ * x_40_ ] = 4554
c13: [ 78 x_9_ * x_21_ - 46 x_39_ * x_9_ - 38 x_37_ * x_15_ + 40 x_37_ * x_21_ + 42 x_40_ * x_32_ + 78 x_42_ * x_32_ - 4 x_49_ * x_32_ - 50 x_40_ * x_33_ + 16 x_48_ * x_33_ - 80 x_49_ * x_33_ - 18 x_42_ * x_39_ + 86 x_49_ * x_39_ - 32 x_42_ * x_40_ ] = -3398
c14: [ 84 x_18_ * x_48_ + 56 x_32_ * x_26_ + 42 x_48_ * x_26_ + 70 x_32_ * x_30_ - 70 x_48_ * x_32_ - 98 x_50_ * x_38_ + 96 x_48_ * x_47_ ] = -5454
c15: [ 58 x_4_ * x_5_ + 6 x_17_ * x_4_ - 16 x_27_ * x_5_ + 48 x_29_ * x_7_ ] = -1604
c16: [ 84 x_2_ * x_42_ + 46 x_8_ * x_5_ - 30 x_42_ * x_18_ + 20 x_29_ * x_22_ - 84 x_32_ * x_22_ + 86 x_32_ * x_28_ - 32 x_32_ * x_29_ + 78 x_42_ * x_29_ + 62 x_44_ * x_29_ ] = 2516
c17: [ 100 x_11_ * x_24_ + 12 x_38_ * x_11_ + 26 x_18_ * x_13_ - 70 x_33_ * x_13_ + 70 x_35_ * x_24_ - 34 x_40_ * x_25_ - 10 x_47_ * x_25_ - 88 x_38_ * x_27_ - 6 x_47_ * x_33_ ] = -7110
c18: [ -60 x_3_ * x_47_ - 78 x_29_ * x_8_ + 2 x_43_ * x_26_ - 38 x_37_ * x_29_ + 20 x_47_ * x_29_ ] = 288
c19: [ -4 x_12_ * x_33_ - 88 x_29_ * x_16_ + 32 x_29_ * x_27_ ] = 144
c20: [ -58 x_6_ * x_14_ - 78 x_43_ * x_6_ - 30 x_44_ * x_6_ - 2 x_16_ * x_14_ + 86 x_47_ * x_14_ - 88 x_47_ * x_15_ - 50 x_44_ * x_19_ + 98 x_44_ * x_43_ ] = -8082
c21: [ 88 x_7_ * x_28_ + 18 x_28_ * x_21_ + 76 x_49_ * x_21_ + 64 x_35_ * x_28_ - 46 x_46_ * x_28_ + 30 x_46_ * x_35_ + 52 x_50_ * x_35_ ] = 9036
c22: [ 88 x_24_ * x_38_ - 42 x_45_ * x_24_ ] = -11240
c23: [ -84 x_1_ * x_3_ - 40 x_35_ * x_16_ + 12 x_41_ * x_16_ + 10 x_29_ * x_25_ + 28 x_41_ * x_34_ ] = -2796
c24: [ -20 x_4_ * x_13_ + 98 x_16_ * x_4_ - 16 x_13_ * x_7_ - 44 x_16_ * x_7_ - 44 x_40_ * x_13_ ] = 3750
c25: [ 98 x_2_ * x_47_ + 6 x_50_ * x_2_ - 34 x_34_ * x_3_ + 32 x_49_ * x_3_ - 22 x_25_ * x_20_ + 18 x_27_ * x_20_ - 14 x_34_ * x_20_ - 78 x_38_ * x_20_ + 74 x_47_ * x_20_ + 60 x_49_ * x_20_ + 64 x_25_ * x_21_ - 30 x_37_ * x_34_ - 38 x_47_ * x_34_ - 36 x_50_ * x_34_ + 32 x_47_ * x_37_ + 20 x_49_ * x_37_ - 76 x_47_ * x_38_ + 76 x_50_ * x_45_ - 24 x_49_ * x_47_ ] = -12756
c26: [ 76 x_1_ * x_28_ - 60 x_10_ * x_3_ + 70 x_15_ * x_3_ - 22 x_6_ * x_4_ - 66 x_15_ * x_4_ + 32 x_15_ * x_8_ + 74 x_41_ * x_8_ - 70 x_15_ * x_10_ + 76 x_41_ * x_15_ - 10 x_44_ * x_15_ + 4 x_28_ * x_21_ - 68 x_41_ * x_21_ - 62 x_44_ * x_28_ + 68 x_44_ * x_41_ ] = 4578
c27: [ -26 x_3_ * x_11_ + 48 x_12_ * x_3_ - 82 x_8_ * x_6_ + 2 x_10_ * x_6_ + 30 x_11_ * x_6_ + 92 x_12_ * x_6_ - 28 x_10_ * x_8_ + 20 x_18_ * x_8_ - 16 x_36_ * x_8_ - 4 x_18_ * x_10_ - 66 x_12_ * x_11_ - 30 x_18_ * x_12_ + 72 x_27_ * x_17_ + 34 x_36_ * x_17_ ] = 1734
c28: [ -94 x_6_ * x_36_ - 36 x_38_ * x_6_ + 26 x_50_ * x_18_ + 18 x_50_ * x_24_ - 80 x_36_ * x_30_ + 68 x_44_ * x_30_ ] = -8132
c29: [ -2 x_4_ * x_9_ + 82 x_30_ * x_4_ - 26 x_35_ * x_4_ - 66 x_23_ * x_9_ + 2 x_31_ * x_9_ - 38 x_36_ * x_9_ - 36 x_35_ * x_20_ + 28 x_35_ * x_30_ + 54 x_50_ * x_36_ ] = 224
c30: [ -88 x_2_ * x_13_ - 62 x_24_ * x_2_ + 76 x_22_ * x_16_ - 32 x_23_ * x_16_ + 32 x_24_ * x_16_ + 56 x_40_ * x_16_ ] = -6160
c31: [ 50 x_27_ * x_39_ - 18 x_43_ * x_42_ ] = 1284
c32: [ 16 x_3_ * x_23_ - 64 x_42_ * x_3_ - 32 x_45_ * x_3_ + 2 x_46_ * x_3_ + 90 x_48_ * x_4_ + 76 x_22_ * x_5_ - 92 x_45_ * x_5_ - 76 x_30_ * x_12_ - 72 x_32_ * x_12_ + 2 x_45_ * x_12_ - 52 x_46_ * x_12_ - 52 x_32_ * x_22_ + 94 x_42_ * x_22_ - 8 x_45_ * x_22_ + 82 x_30_ * x_23_ - 68 x_42_ * x_23_ + 16 x_46_ * x_23_ - 72 x_48_ * x_30_ + 70 x_48_ * x_46_ ] = -1786
c33: [ 72 x_5_ * x_7_ + 20 x_18_ * x_5_ + 26 x_18_ * x_7_ + 20 x_24_ * x_7_ - 54 x_24_ * x_18_ - 80 x_46_ * x_42_ - 94 x_50_ * x_46_ ] = -3440
c34: [ -18 x_2_ * x_14_ + 72 x_28_ * x_24_ + 48 x_44_ * x_26_ + 44 x_44_ * x_36_ ] = 4452
c35: [ -2 x_6_ * x_8_ - 12 x_40_ * x_6_ - 92 x_15_ * x_8_ - 22 x_19_ * x_8_ - 78 x_46_ * x_13_ + 6 x_19_ * x_15_ - 42 x_21_ * x_15_ + 32 x_46_ * x_15_ + 38 x_28_ * x_21_ + 94 x_36_ * x_21_ + 46 x_46_ * x_36_ ] = 2526
c36: [ -84 x_6_ * x_9_ - 6 x_17_ * x_6_ - 96 x_29_ * x_9_ + 60 x_46_ * x_9_ - 14 x_46_ * x_17_ + 58 x_36_ * x_29_ ] = -1050
c37: [ 34 x_10_ * x_37_ ] = -952
c38: [ 14 x_10_ * x_33_ - 20 x_42_ * x_19_ + 10 x_34_ * x_33_ ] = 744
c39: [ -82 x_3_ * x_11_ + 62 x_23_ * x_3_ - 32 x_12_ * x_11_ + 6 x_17_ * x_11_ + 6 x_19_ * x_11_ - 82 x_27_ * x_12_ + 80 x_50_ * x_12_ - 96 x_27_ * x_17_ + 70 x_50_ * x_17_ - 56 x_23_ * x_20_ + 72 x_27_ * x_23_ ] = -980
c40: [ -6 x_1_ * x_4_ + 24 x_14_ * x_1_ + 96 x_8_ * x_4_ + 6 x_35_ * x_4_ + 92 x_14_ * x_8_ + 78 x_18_ * x_8_ - 70 x_23_ * x_14_ - 30 x_33_ * x_14_ + 44 x_24_ * x_23_ - 46 x_48_ * x_24_ + 100 x_33_ * x_30_ - 94 x_44_ * x_30_ - 46 x_48_ * x_30_ - 80 x_48_ * x_33_ + 40 x_44_ * x_35_ ] = 1380
c41: [ -28 x_10_ * x_20_ - 60 x_40_ * x_10_ + 86 x_45_ * x_10_ - 36 x_16_ * x_15_ - 26 x_20_ * x_15_ + 30 x_17_ * x_16_ + 46 x_20_ * x_16_ - 72 x_26_ * x_16_ - 72 x_40_ * x_16_ + 38 x_44_ * x_16_ - 4 x_31_ * x_17_ + 64 x_32_ * x_17_ - 10 x_44_ * x_17_ + 4 x_26_ * x_20_ + 66 x_45_ * x_20_ + 10 x_44_ * x_26_ - 94 x_44_ * x_28_ - 6 x_49_ * x_28_ + 14 x_49_ * x_32_ + 52 x_45_ * x_39_ - 42 x_49_ * x_39_ + 90 x_45_ * x_40_ ] = -1878
c42: [ 20 x_9_ * x_29_ - 10 x_31_ * x_9_ ] = 240
c43: [ 46 x_3_ * x_9_ + 28 x_31_ * x_3_ + 100 x_45_ * x_3_ + 58 x_49_ * x_3_ - 40 x_16_ * x_4_ + 26 x_49_ * x_4_ - 48 x_45_ * x_9_ - 32 x_45_ * x_27_ - 2 x_49_ * x_27_ + 90 x_33_ * x_31_ + 50 x_46_ * x_31_ + 52 x_45_ * x_33_ - 50 x_46_ * x_33_ ] = -14272
c44: [ -94 x_1_ * x_20_ - 62 x_22_ * x_1_ - 24 x_45_ * x_3_ - 12 x_46_ * x_3_ - 94 x_42_ * x_20_ - 72 x_46_ * x_22_ - 44 x_46_ * x_42_ - 86 x_48_ * x_46_ ] = -5310
Bounds
2 <= x_1_ <= 10
-5 <= x_2_ <= 9
-3 <= x_3_ <= 5
-9 <= x_4_ <= 9
-8 <= x_5_ <= -6
-5 <= x_6_ <= 9
-10 <= x_7_ <= 6
-3 <= x_8_ <= 1
-5 <= x_9_ <= 4
-10 <= x_10_ <= -4
-9 <= x_11_ <= 7
-10 <= x_12_ <= -3
-9 <= x_13_ <= -2
-3 <= x_14_ <= 3
-9 <= x_15_ <= -2
-8 <= x_16_ <= 8
-10 <= x_17_ <= 7
-7 <= x_18_ <= 9
-8 <= x_19_ <= 1
1 <= x_20_ <= 5
-10 <= x_21_ <= 8
-7 <= x_22_ <= -1
-8 <= x_23_ <= 2
-10 <= x_24_ <= 0
-7 <= x_25_ <= 8
-10 <= x_26_ <= -7
-3 <= x_27_ <= 5
-9 <= x_28_ <= 2
-1 <= x_29_ <= 8
-6 <= x_30_ <= 4
-8 <= x_31_ <= 9
-8 <= x_32_ <= -1
-4 <= x_33_ <= 8
6 <= x_34_ <= 10
-8 <= x_35_ <= 4
-10 <= x_36_ <= 8
-10 <= x_37_ <= 7
-8 <= x_38_ <= 8
0 <= x_39_ <= 10
-4 <= x_40_ <= 8
-8 <= x_41_ <= 3
-6 <= x_42_ <= 7
-5 <= x_43_ <= 5
-2 <= x_44_ <= 3
-10 <= x_45_ <= -2
-7 <= x_46_ <= 10
-7 <= x_47_ <= -6
-10 <= x_48_ <= 5
-9 <= x_49_ <= -2
2 <= x_50_ <= 8
General
x_1_
x_2_
x_3_
x_4_
x_5_
x_6_
x_7_
x_8_
x_9_
x_10_
x_11_
x_12_
x_13_
x_14_
x_15_
x_16_
x_17_
x_18_
x_19_
x_20_
x_21_
x_22_
x_23_
x_24_
x_25_
x_26_
x_27_
x_28_
x_29_
x_30_
x_31_
x_32_
x_33_
x_34_
x_35_
x_36_
x_37_
x_38_
x_39_
x_40_
x_41_
x_42_
x_43_
x_44_
x_45_
x_46_
x_47_
x_48_
x_49_
x_50_
End
