minimize
obj: 
subject to
quadratic_ranged_1_ub: [ -16 x_32_ ^ 2 + 42 x_34_ ^ 2 ] <= -853
quadratic_ranged_2_ub: [ 24 x_20_ * x_17_ - 86 x_26_ * x_17_ - 2 x_31_ * x_17_ - 64 x_28_ * x_20_ + 5 x_29_ ^ 2 - 43 x_34_ ^ 2 - 28 x_39_ * x_34_ ] <= -1541
quadratic_ranged_3_ub: [ 40 x_1_ ^ 2 - 56 x_10_ * x_1_ + 42 x_16_ * x_1_ + 90 x_39_ * x_1_ - 34 x_21_ * x_6_ - 56 x_32_ * x_6_ + 60 x_36_ * x_6_ - 28 x_13_ * x_10_ + 98 x_32_ * x_10_ - 60 x_27_ * x_13_ - 14 x_30_ * x_13_ - 70 x_27_ * x_16_ + 28 x_39_ * x_16_ - 78 x_30_ * x_21_ - 86 x_45_ * x_21_ - 88 x_30_ * x_27_ - 30 x_28_ ^ 2 - 32 x_30_ * x_28_ + 64 x_32_ * x_30_ - 54 x_39_ * x_30_ - 32 x_41_ * x_30_ + 70 x_41_ * x_32_ + 50 x_45_ * x_32_ + 64 x_45_ * x_36_ - 20 x_41_ * x_39_ + 38 x_45_ * x_39_ + 36 x_41_ ^ 2 ] <= -476
quadratic_ranged_4_ub: [ 34 x_15_ * x_8_ + 46 x_21_ * x_8_ + 92 x_27_ * x_8_ - 74 x_10_ * x_9_ - 42 x_42_ * x_9_ - 44 x_27_ * x_10_ + 38 x_38_ * x_10_ + 54 x_31_ * x_15_ + 22 x_38_ * x_15_ + 56 x_49_ * x_15_ - 21 x_21_ ^ 2 - 46 x_38_ * x_21_ - 74 x_49_ * x_21_ - 14 x_38_ * x_31_ + 8 x_46_ * x_31_ + 48 x_46_ ^ 2 + 92 x_49_ * x_46_ ] <= 6714
quadratic_ranged_5_ub: [ 100 x_45_ * x_1_ - 64 x_47_ * x_1_ - 90 x_9_ * x_6_ - 26 x_14_ * x_6_ + 72 x_32_ * x_6_ + 9 x_26_ ^ 2 - 10 x_32_ * x_26_ + 4 x_45_ * x_26_ - 84 x_47_ * x_26_ - 80 x_32_ * x_27_ - 76 x_40_ * x_27_ + 94 x_45_ * x_32_ + 4 x_45_ * x_40_ - 94 x_47_ * x_40_ ] <= -27374
quadratic_ranged_6_ub: [ -35 x_7_ ^ 2 + 74 x_8_ * x_7_ - 24 x_44_ * x_7_ - 94 x_48_ * x_7_ - 18 x_26_ * x_8_ - 80 x_26_ * x_23_ - 16 x_48_ * x_23_ - 2 x_26_ ^ 2 + 74 x_44_ * x_26_ - 86 x_48_ * x_26_ ] <= -4209
quadratic_ranged_7_ub: [ 40 x_44_ * x_4_ - 8 x_5_ ^ 2 + 56 x_44_ * x_5_ - 2 x_12_ ^ 2 - 46 x_24_ * x_12_ + 26 x_44_ * x_12_ - 46 x_43_ * x_32_ ] <= -3244
quadratic_ranged_8_ub: [ -28 x_15_ * x_41_ - 94 x_26_ * x_16_ + 10 x_32_ * x_16_ - 4 x_42_ * x_26_ + 56 x_41_ * x_32_ + 48 x_45_ * x_34_ - 14 x_49_ * x_41_ - 100 x_49_ * x_45_ ] <= 1793
quadratic_ranged_9_ub: [ -54 x_25_ * x_11_ - 94 x_26_ * x_11_ - 46 x_26_ * x_17_ + 94 x_26_ * x_23_ + 28 x_44_ * x_23_ + 40 x_48_ * x_25_ - 34 x_48_ * x_26_ + 27 x_48_ ^ 2 ] <= -3298
quadratic_ranged_10_ub: [ 92 x_42_ * x_3_ + 90 x_43_ * x_3_ - 28 x_47_ * x_3_ + 8 x_20_ * x_5_ - 30 x_37_ * x_5_ + 12 x_8_ ^ 2 + 36 x_22_ * x_8_ - 48 x_20_ ^ 2 - 96 x_22_ * x_20_ + 18 x_37_ * x_20_ + 62 x_47_ * x_20_ + 76 x_42_ * x_22_ - 84 x_43_ * x_35_ + 3 x_37_ ^ 2 + 80 x_42_ * x_37_ - 98 x_43_ * x_37_ + 60 x_43_ * x_42_ ] <= 9301
quadratic_ranged_11_ub: [ 76 x_3_ * x_1_ - 54 x_32_ * x_1_ - 12 x_36_ * x_1_ + 42 x_45_ * x_1_ + 4 x_17_ * x_3_ - 84 x_18_ * x_3_ + 14 x_36_ * x_3_ + 44 x_18_ * x_5_ - 46 x_30_ * x_5_ + 96 x_36_ * x_5_ - 48 x_45_ * x_5_ - 90 x_18_ * x_17_ + 40 x_24_ * x_17_ + 34 x_40_ * x_17_ - 64 x_27_ * x_18_ - 80 x_30_ * x_18_ - 18 x_40_ * x_18_ + 92 x_27_ * x_24_ - 90 x_30_ * x_24_ + 58 x_40_ * x_24_ - 52 x_47_ * x_24_ + 8 x_47_ * x_27_ + 44 x_30_ ^ 2 + 62 x_47_ * x_30_ - 86 x_47_ * x_32_ ] <= 6783
quadratic_ranged_12_ub: [ 10 x_8_ * x_7_ - 82 x_15_ * x_7_ - 34 x_21_ * x_7_ + 52 x_44_ * x_7_ + 72 x_43_ * x_8_ + 8 x_44_ * x_8_ + 52 x_16_ * x_10_ - 2 x_23_ * x_10_ - 2 x_44_ * x_10_ + 8 x_16_ * x_14_ + 90 x_21_ * x_14_ - 94 x_36_ * x_14_ - 4 x_35_ * x_15_ - 58 x_36_ * x_15_ - 48 x_43_ * x_15_ + 96 x_44_ * x_15_ + 26 x_47_ * x_15_ - 2 x_21_ * x_16_ + 12 x_19_ ^ 2 + 64 x_35_ * x_19_ - 26 x_36_ * x_21_ - 45 x_23_ ^ 2 + 64 x_36_ * x_23_ - 16 x_42_ * x_23_ - 24 x_42_ * x_32_ + 11 x_35_ ^ 2 - 74 x_42_ * x_35_ - 38 x_44_ * x_35_ ] <= -8586
quadratic_ranged_13_ub: [ -26 x_2_ ^ 2 + 6 x_8_ * x_2_ - 8 x_24_ * x_2_ + 40 x_3_ ^ 2 - 40 x_9_ * x_3_ - 92 x_10_ * x_3_ + 2 x_13_ * x_3_ - 12 x_17_ * x_3_ + 84 x_9_ * x_6_ - 76 x_13_ * x_6_ + 2 x_46_ * x_6_ - 40 x_8_ ^ 2 + 80 x_13_ * x_8_ + 50 x_29_ * x_8_ + 6 x_40_ * x_8_ - 42 x_13_ * x_9_ + 56 x_44_ * x_9_ + 45 x_10_ ^ 2 - 82 x_40_ * x_10_ + 66 x_46_ * x_13_ + 32 x_25_ * x_17_ + 16 x_30_ * x_17_ + 18 x_24_ ^ 2 - 46 x_25_ * x_24_ - 54 x_46_ * x_24_ - 88 x_30_ * x_25_ - 29 x_30_ ^ 2 - 40 x_46_ * x_30_ - 14 x_43_ * x_40_ + 74 x_46_ * x_40_ - 16 x_43_ ^ 2 ] <= -7963
quadratic_ranged_14_ub: [ -88 x_5_ * x_46_ - 38 x_48_ * x_6_ + 98 x_41_ * x_19_ - 56 x_48_ * x_46_ ] <= 13732
quadratic_ranged_15_ub: [ 56 x_10_ * x_7_ + 92 x_18_ * x_7_ - 36 x_21_ * x_7_ + 4 x_47_ * x_7_ - 20 x_48_ * x_7_ + 96 x_13_ * x_8_ + 20 x_35_ * x_8_ - 74 x_47_ * x_8_ + 4 x_10_ ^ 2 - 62 x_18_ * x_10_ + 54 x_42_ * x_10_ + 36 x_48_ * x_10_ + 4 x_18_ * x_13_ + 30 x_19_ * x_18_ - 42 x_35_ * x_18_ - 18 x_45_ * x_18_ + 10 x_47_ * x_18_ + 48 x_48_ * x_18_ + 6 x_47_ * x_19_ - 64 x_45_ * x_21_ - 22 x_48_ * x_21_ + 80 x_44_ * x_42_ - 92 x_47_ * x_45_ + 23 x_47_ ^ 2 ] <= 3200
quadratic_ranged_16_ub: [ 74 x_18_ * x_9_ + 32 x_28_ * x_9_ + 76 x_31_ * x_9_ - 50 x_43_ * x_9_ + 30 x_23_ * x_18_ - 34 x_28_ * x_18_ - 38 x_31_ * x_23_ + 40 x_37_ * x_23_ + 45 x_43_ ^ 2 ] <= 10304
quadratic_ranged_17_ub: [ 23 x_1_ ^ 2 + 88 x_10_ * x_1_ + 92 x_15_ * x_1_ + 38 x_25_ * x_1_ - 20 x_39_ * x_1_ - 98 x_38_ * x_8_ + 26 x_11_ * x_10_ + 64 x_21_ * x_10_ + 78 x_32_ * x_10_ - 24 x_39_ * x_10_ - 6 x_45_ * x_10_ - 74 x_38_ * x_11_ - 22 x_18_ * x_15_ + 100 x_45_ * x_15_ - 56 x_32_ * x_18_ + 94 x_38_ * x_18_ + 4 x_47_ * x_18_ + 90 x_39_ * x_24_ - 62 x_47_ * x_24_ + 5 x_27_ ^ 2 + 30 x_32_ ^ 2 + 52 x_45_ * x_38_ ] <= -24747
quadratic_ranged_18_ub: [ 48 x_3_ ^ 2 + 84 x_7_ * x_4_ - 56 x_27_ * x_6_ + 18 x_31_ * x_6_ + 40 x_7_ ^ 2 + 30 x_47_ * x_7_ + 82 x_27_ * x_12_ + 4 x_47_ * x_31_ ] <= 3738
quadratic_ranged_19_ub: [ 10 x_20_ * x_2_ + 76 x_32_ * x_2_ + 94 x_22_ * x_5_ - 88 x_22_ * x_6_ - 98 x_20_ * x_9_ - 100 x_25_ * x_9_ + 68 x_32_ * x_18_ + 27 x_20_ ^ 2 + 82 x_22_ * x_20_ + 20 x_32_ * x_22_ + 80 x_37_ * x_25_ ] <= 16354
quadratic_ranged_20_ub: [ 32 x_4_ * x_1_ + 88 x_13_ * x_1_ - 44 x_26_ * x_1_ - 100 x_26_ * x_4_ - 32 x_26_ ^ 2 + 86 x_43_ * x_33_ ] <= -3357
quadratic_ranged_21_ub: [ -64 x_47_ * x_2_ + 13 x_16_ ^ 2 - 64 x_34_ * x_16_ - 66 x_46_ * x_19_ + 64 x_27_ * x_25_ - 86 x_35_ * x_25_ - 38 x_34_ * x_29_ + 92 x_46_ * x_31_ + 13 x_34_ ^ 2 + 16 x_35_ ^ 2 - 22 x_47_ * x_43_ + 31 x_46_ ^ 2 + 26 x_47_ * x_46_ ] <= -1258
quadratic_ranged_22_ub: [ -74 x_4_ * x_2_ + 84 x_20_ * x_2_ + 2 x_45_ * x_2_ - 32 x_4_ ^ 2 - 74 x_6_ * x_4_ - 64 x_38_ * x_6_ + 94 x_50_ * x_6_ + 10 x_21_ * x_14_ - 10 x_20_ ^ 2 - 66 x_45_ * x_20_ + 38 x_25_ * x_21_ + 32 x_50_ * x_21_ - 38 x_25_ ^ 2 - 60 x_34_ * x_25_ - 38 x_45_ * x_25_ + 68 x_50_ * x_36_ - 27 x_38_ ^ 2 - 20 x_45_ * x_38_ - 60 x_50_ * x_38_ + 23 x_45_ ^ 2 ] <= -7427
quadratic_ranged_23_ub: [ -30 x_22_ * x_3_ - 88 x_36_ * x_3_ + 28 x_44_ * x_3_ + 19 x_10_ ^ 2 - 88 x_12_ * x_10_ + 62 x_22_ * x_12_ - 68 x_42_ * x_12_ - 22 x_50_ * x_22_ - 60 x_42_ * x_30_ + 2 x_44_ * x_30_ + 30 x_42_ * x_36_ + 76 x_50_ * x_36_ - 72 x_44_ * x_42_ + 74 x_50_ * x_42_ ] <= 22952
quadratic_ranged_24_ub: [ -49 x_5_ ^ 2 - 20 x_38_ * x_27_ - 16 x_43_ * x_27_ + 38 x_38_ * x_30_ + 8 x_48_ ^ 2 ] <= 1724
quadratic_ranged_25_ub: [ -50 x_19_ * x_3_ + 30 x_10_ * x_7_ + 50 x_34_ * x_7_ + 46 x_38_ * x_7_ + 46 x_46_ * x_7_ - 12 x_21_ * x_10_ + 14 x_32_ * x_10_ - 38 x_13_ * x_12_ + 100 x_34_ * x_12_ + 66 x_46_ * x_12_ - 96 x_48_ * x_12_ - 82 x_21_ * x_19_ + 100 x_46_ * x_19_ - 4 x_21_ ^ 2 + 48 x_34_ * x_21_ - 94 x_48_ * x_21_ + 11 x_32_ ^ 2 - 50 x_48_ * x_32_ + 80 x_48_ * x_46_ ] <= -5463
quadratic_ranged_26_ub: [ -84 x_5_ * x_1_ - 10 x_2_ ^ 2 - 54 x_44_ * x_2_ - 60 x_46_ * x_2_ + 22 x_7_ * x_5_ + 40 x_10_ * x_5_ + 84 x_36_ * x_5_ + 62 x_26_ * x_7_ - 6 x_27_ * x_10_ + 10 x_46_ * x_10_ - 66 x_46_ * x_22_ - 48 x_36_ * x_27_ + 13 x_36_ ^ 2 + 50 x_46_ * x_36_ ] <= -1001
quadratic_ranged_27_ub: [ -8 x_27_ * x_7_ - 30 x_44_ * x_7_ + 2 x_16_ * x_8_ - 86 x_27_ * x_13_ - 82 x_42_ * x_13_ - 24 x_44_ * x_13_ + 11 x_17_ ^ 2 - 14 x_33_ * x_19_ + 16 x_44_ * x_19_ - 54 x_42_ * x_25_ - 74 x_33_ * x_27_ - 8 x_44_ * x_27_ + 4 x_42_ ^ 2 ] <= 1698
quadratic_ranged_28_ub: [ 40 x_22_ * x_6_ - 54 x_43_ * x_6_ - 13 x_10_ ^ 2 - 24 x_22_ * x_10_ - 80 x_43_ * x_12_ + 10 x_22_ ^ 2 + 50 x_43_ * x_22_ ] <= 352
quadratic_ranged_29_ub: [ 35 x_2_ ^ 2 + 6 x_3_ ^ 2 - 20 x_12_ * x_3_ + 64 x_20_ * x_3_ - 14 x_30_ * x_3_ - 66 x_41_ * x_8_ + 64 x_47_ * x_8_ + 8 x_30_ * x_12_ + 100 x_41_ * x_19_ + 76 x_47_ * x_19_ - 56 x_25_ * x_20_ - 84 x_30_ * x_20_ + 49 x_25_ ^ 2 + 16 x_41_ * x_25_ - 64 x_47_ * x_30_ + 13 x_47_ ^ 2 ] <= 3541
quadratic_ranged_30_ub: [ -45 x_3_ ^ 2 + 62 x_39_ * x_8_ - 2 x_46_ * x_8_ - 62 x_12_ * x_11_ - 8 x_39_ * x_12_ + 49 x_26_ ^ 2 - 72 x_39_ * x_26_ + 40 x_46_ * x_33_ + 66 x_37_ * x_36_ - 42 x_39_ * x_36_ + 46 x_46_ * x_39_ ] <= 2102
quadratic_ranged_31_ub: [ 25 x_11_ ^ 2 + 72 x_14_ * x_11_ - 42 x_22_ * x_11_ + 92 x_35_ * x_11_ - 14 x_19_ * x_12_ + 14 x_18_ * x_14_ + 76 x_19_ * x_14_ - 72 x_35_ * x_14_ - 32 x_40_ * x_14_ - 20 x_22_ * x_18_ + 50 x_35_ * x_18_ + 38 x_44_ * x_18_ + 56 x_22_ * x_19_ + 88 x_40_ * x_19_ + 14 x_26_ * x_22_ + 64 x_44_ * x_26_ - 19 x_33_ ^ 2 + 54 x_40_ * x_33_ + 44 x_44_ * x_33_ ] <= -322
quadratic_ranged_32_ub: [ -80 x_8_ * x_4_ + 90 x_26_ * x_4_ + 26 x_33_ * x_4_ - 56 x_48_ * x_7_ - 24 x_26_ * x_8_ - 100 x_30_ * x_8_ - 50 x_38_ * x_26_ - 26 x_30_ ^ 2 - 48 x_48_ * x_30_ - 44 x_38_ * x_32_ + 26 x_33_ ^ 2 + 42 x_38_ * x_33_ - 86 x_40_ * x_33_ - 96 x_47_ * x_33_ - 48 x_48_ * x_40_ ] <= -14182
quadratic_ranged_33_ub: [ 28 x_3_ ^ 2 - 64 x_8_ * x_3_ - 64 x_43_ * x_3_ + 46 x_45_ * x_3_ + 86 x_37_ * x_8_ - 18 x_9_ ^ 2 + 36 x_49_ * x_9_ + 32 x_16_ ^ 2 - 44 x_25_ * x_16_ - 38 x_37_ * x_16_ + 34 x_36_ * x_25_ + 50 x_37_ * x_36_ - 5 x_37_ ^ 2 - 16 x_39_ * x_37_ + 22 x_49_ * x_37_ + 66 x_45_ * x_43_ - 74 x_49_ * x_43_ - 10 x_49_ ^ 2 ] <= 4672
quadratic_ranged_34_ub: [ -46 x_7_ ^ 2 + 88 x_15_ * x_7_ + 88 x_15_ * x_11_ - 34 x_43_ * x_27_ - 30 x_49_ ^ 2 ] <= -199
quadratic_ranged_35_ub: [ 92 x_19_ * x_3_ + 94 x_22_ * x_3_ - 36 x_32_ * x_3_ + 42 x_10_ * x_4_ + 60 x_19_ * x_4_ + 44 x_17_ * x_7_ - 40 x_31_ * x_10_ + 2 x_16_ ^ 2 + 98 x_19_ * x_16_ + 72 x_29_ * x_16_ - 100 x_32_ * x_16_ + 28 x_19_ * x_17_ + 12 x_20_ * x_17_ + 96 x_29_ * x_17_ - 62 x_22_ * x_19_ - 42 x_31_ * x_19_ + 48 x_50_ * x_19_ - 50 x_20_ ^ 2 - 62 x_50_ * x_31_ ] <= 18306
quadratic_ranged_36_ub: [ -50 x_21_ * x_12_ - 62 x_30_ * x_13_ + 20 x_36_ * x_13_ - 16 x_21_ ^ 2 - 54 x_34_ * x_21_ - 70 x_41_ * x_30_ + 48 x_34_ ^ 2 - 64 x_45_ * x_36_ ] <= -10611
quadratic_ranged_37_ub: [ -62 x_4_ * x_17_ + 46 x_20_ * x_4_ - 38 x_32_ * x_4_ - 56 x_17_ * x_6_ - 74 x_20_ * x_14_ + 42 x_47_ * x_17_ + 46 x_32_ * x_29_ - 28 x_39_ * x_29_ ] <= 9763
quadratic_ranged_38_ub: [ -58 x_12_ * x_6_ - 16 x_32_ * x_6_ + 24 x_43_ * x_6_ + 38 x_32_ * x_9_ + 26 x_33_ * x_10_ - 10 x_42_ * x_10_ - 8 x_13_ ^ 2 - 98 x_42_ * x_13_ - 80 x_48_ * x_13_ + 10 x_33_ * x_32_ - 32 x_43_ * x_33_ ] <= 9686
quadratic_ranged_39_ub: [ -52 x_1_ * x_26_ + 8 x_32_ * x_2_ + 98 x_44_ * x_2_ + 22 x_24_ * x_18_ - 94 x_26_ * x_18_ + 66 x_50_ * x_18_ + 70 x_44_ * x_26_ - 78 x_40_ * x_27_ - 14 x_50_ * x_27_ + 60 x_45_ * x_32_ + 24 x_45_ * x_44_ - 18 x_47_ * x_44_ - 100 x_47_ * x_45_ ] <= -2952
quadratic_ranged_40_ub: [ 26 x_35_ * x_17_ - 60 x_35_ * x_19_ - 31 x_35_ ^ 2 ] <= 3085
quadratic_ranged_41_ub: [ -70 x_46_ * x_1_ - 54 x_50_ * x_1_ + 78 x_11_ * x_4_ + 100 x_15_ * x_4_ - 56 x_23_ * x_4_ - 38 x_50_ * x_4_ + 74 x_31_ * x_6_ - 42 x_23_ * x_11_ - 6 x_31_ * x_11_ + 28 x_49_ * x_11_ + 7 x_14_ ^ 2 + 2 x_15_ * x_14_ + 24 x_23_ * x_14_ + 30 x_37_ * x_14_ + 40 x_50_ * x_15_ + 18 x_46_ * x_23_ - 56 x_50_ * x_23_ + 64 x_49_ * x_31_ + 38 x_50_ * x_31_ - 18 x_50_ * x_46_ ] <= 3660
quadratic_ranged_42_ub: [ 82 x_22_ * x_11_ - 80 x_23_ * x_18_ + 14 x_41_ * x_18_ + 72 x_43_ * x_18_ - 56 x_23_ * x_22_ - 18 x_43_ * x_23_ + 26 x_43_ * x_26_ + 16 x_41_ * x_29_ - 19 x_49_ ^ 2 ] <= -3210
quadratic_ranged_43_ub: [ -74 x_35_ * x_4_ - 30 x_5_ ^ 2 - 46 x_10_ * x_5_ - 92 x_17_ * x_5_ - 86 x_35_ * x_5_ + 98 x_12_ * x_6_ - 60 x_30_ * x_6_ + 64 x_35_ * x_10_ - 2 x_45_ * x_10_ + 92 x_20_ * x_12_ - 17 x_13_ ^ 2 + 68 x_20_ * x_13_ + 36 x_20_ * x_14_ - 100 x_20_ * x_17_ - 66 x_35_ * x_17_ - 38 x_35_ ^ 2 ] <= -21056
quadratic_ranged_44_ub: [ -6 x_12_ * x_10_ - 94 x_20_ * x_10_ - 20 x_41_ * x_10_ + 24 x_45_ * x_10_ - 50 x_42_ * x_12_ - 2 x_41_ ^ 2 - 26 x_45_ ^ 2 ] <= -3942
quadratic_ranged_45_ub: [ -78 x_17_ * x_5_ - 4 x_20_ * x_5_ - 92 x_40_ * x_5_ - 66 x_20_ * x_17_ + 32 x_46_ * x_17_ + 34 x_47_ * x_17_ + 36 x_18_ ^ 2 - 46 x_46_ * x_18_ - 22 x_20_ ^ 2 - 52 x_40_ * x_20_ + 32 x_47_ * x_20_ - 66 x_40_ * x_22_ - 6 x_40_ * x_30_ + 22 x_45_ * x_30_ + 72 x_47_ * x_30_ - 40 x_35_ ^ 2 - 28 x_39_ * x_35_ - 28 x_46_ * x_35_ + 42 x_47_ * x_35_ + 78 x_46_ * x_45_ ] <= -7557
quadratic_ranged_46_ub: [ -82 x_36_ * x_14_ - 27 x_16_ ^ 2 - 78 x_42_ * x_16_ - 68 x_45_ * x_36_ + 28 x_42_ ^ 2 - 27 x_44_ ^ 2 ] <= 2193
quadratic_ranged_47_ub: [ -52 x_25_ * x_6_ + 50 x_46_ * x_36_ + 41 x_39_ ^ 2 ] <= 1269
quadratic_ranged_48_ub: [ 52 x_47_ * x_2_ + 100 x_14_ * x_4_ - 34 x_19_ * x_4_ - 24 x_46_ * x_4_ - 22 x_47_ * x_4_ - 86 x_49_ * x_4_ + 80 x_47_ * x_14_ - 60 x_16_ * x_15_ - 6 x_29_ * x_15_ + 49 x_16_ ^ 2 - 44 x_34_ * x_16_ - 82 x_41_ * x_16_ + 34 x_49_ * x_16_ - 78 x_26_ * x_19_ + 49 x_26_ ^ 2 + 72 x_34_ * x_26_ + 68 x_49_ * x_26_ - 6 x_27_ ^ 2 + 34 x_41_ * x_27_ - 84 x_46_ * x_27_ - 68 x_41_ * x_29_ + 98 x_47_ * x_29_ + 56 x_47_ * x_34_ - 92 x_41_ * x_37_ + 56 x_47_ * x_37_ + 76 x_47_ * x_41_ ] <= 10559
quadratic_ranged_49_ub: [ 12 x_41_ * x_22_ - 34 x_42_ * x_22_ + 14 x_36_ * x_26_ + 20 x_38_ * x_26_ - 3 x_35_ ^ 2 - 42 x_38_ * x_35_ - 10 x_42_ * x_36_ - 1 x_41_ ^ 2 + 98 x_50_ * x_42_ ] <= 5226
quadratic_ranged_50_ub: [ -96 x_5_ * x_19_ + 42 x_39_ * x_5_ + 8 x_47_ * x_5_ - 10 x_27_ * x_7_ - 50 x_39_ * x_7_ - 46 x_43_ * x_7_ - 30 x_47_ * x_7_ - 2 x_48_ * x_7_ - 24 x_27_ * x_18_ - 46 x_28_ * x_18_ + 92 x_20_ * x_19_ + 32 x_39_ * x_19_ + 10 x_43_ * x_19_ - 92 x_39_ * x_20_ + 18 x_47_ * x_20_ + 88 x_48_ * x_20_ - 84 x_39_ * x_27_ + 38 x_47_ * x_28_ - 32 x_48_ * x_28_ ] <= 8768
quadratic_ranged_51_ub: [ -76 x_21_ * x_2_ - 22 x_34_ * x_2_ - 100 x_37_ * x_2_ + 96 x_15_ * x_10_ + 64 x_17_ * x_10_ + 38 x_15_ ^ 2 - 42 x_34_ * x_21_ - 33 x_34_ ^ 2 - 42 x_37_ * x_36_ ] <= 74
quadratic_ranged_52_ub: [ 5 x_5_ ^ 2 + 34 x_9_ ^ 2 + 70 x_50_ * x_9_ + 86 x_30_ * x_18_ - 30 x_26_ ^ 2 + 14 x_49_ * x_26_ + 30 x_39_ * x_30_ - 34 x_45_ * x_30_ - 22 x_50_ * x_30_ + 14 x_45_ * x_39_ + 2 x_45_ ^ 2 - 76 x_50_ * x_49_ ] <= 2582
quadratic_ranged_53_ub: [ -70 x_11_ * x_2_ - 54 x_15_ * x_2_ - 74 x_20_ * x_2_ - 32 x_24_ * x_2_ + 46 x_34_ * x_2_ - 40 x_48_ * x_2_ - 40 x_15_ * x_10_ - 62 x_31_ * x_10_ + 68 x_46_ * x_10_ + 82 x_48_ * x_10_ - 14 x_34_ * x_11_ + 16 x_48_ * x_11_ + 82 x_20_ * x_13_ + 82 x_31_ * x_13_ - 12 x_40_ * x_13_ + 8 x_20_ ^ 2 - 16 x_31_ * x_20_ + 96 x_34_ * x_31_ + 26 x_48_ * x_40_ ] <= 1376
quadratic_ranged_54_ub: [ -40 x_6_ ^ 2 + 7 x_17_ ^ 2 - 12 x_42_ * x_20_ - 18 x_41_ * x_28_ - 22 x_41_ * x_30_ - 4 x_42_ * x_40_ ] <= -3045
quadratic_ranged_55_ub: [ 82 x_11_ * x_1_ - 32 x_27_ * x_1_ - 26 x_46_ * x_1_ - 44 x_50_ * x_1_ + 4 x_20_ * x_5_ - 60 x_35_ * x_5_ - 72 x_35_ * x_11_ - 36 x_37_ * x_11_ - 26 x_38_ * x_11_ - 60 x_50_ * x_11_ - 6 x_27_ * x_19_ + 36 x_33_ * x_19_ - 28 x_34_ * x_19_ - 28 x_38_ * x_19_ - 7 x_23_ ^ 2 - 52 x_50_ * x_23_ + 24 x_46_ * x_27_ - 62 x_34_ * x_33_ - 42 x_35_ * x_34_ + 60 x_38_ * x_34_ + 4 x_47_ * x_34_ - 80 x_50_ * x_34_ - 16 x_47_ * x_35_ + 54 x_50_ * x_37_ + 58 x_47_ * x_46_ ] <= -12433
quadratic_ranged_1_lb: [ -16 x_32_ ^ 2 + 42 x_34_ ^ 2 ] >= -861
quadratic_ranged_2_lb: [ 24 x_20_ * x_17_ - 86 x_26_ * x_17_ - 2 x_31_ * x_17_ - 64 x_28_ * x_20_ + 5 x_29_ ^ 2 - 43 x_34_ ^ 2 - 28 x_39_ * x_34_ ] >= -1546
quadratic_ranged_3_lb: [ 40 x_1_ ^ 2 - 56 x_10_ * x_1_ + 42 x_16_ * x_1_ + 90 x_39_ * x_1_ - 34 x_21_ * x_6_ - 56 x_32_ * x_6_ + 60 x_36_ * x_6_ - 28 x_13_ * x_10_ + 98 x_32_ * x_10_ - 60 x_27_ * x_13_ - 14 x_30_ * x_13_ - 70 x_27_ * x_16_ + 28 x_39_ * x_16_ - 78 x_30_ * x_21_ - 86 x_45_ * x_21_ - 88 x_30_ * x_27_ - 30 x_28_ ^ 2 - 32 x_30_ * x_28_ + 64 x_32_ * x_30_ - 54 x_39_ * x_30_ - 32 x_41_ * x_30_ + 70 x_41_ * x_32_ + 50 x_45_ * x_32_ + 64 x_45_ * x_36_ - 20 x_41_ * x_39_ + 38 x_45_ * x_39_ + 36 x_41_ ^ 2 ] >= -481
quadratic_ranged_4_lb: [ 34 x_15_ * x_8_ + 46 x_21_ * x_8_ + 92 x_27_ * x_8_ - 74 x_10_ * x_9_ - 42 x_42_ * x_9_ - 44 x_27_ * x_10_ + 38 x_38_ * x_10_ + 54 x_31_ * x_15_ + 22 x_38_ * x_15_ + 56 x_49_ * x_15_ - 21 x_21_ ^ 2 - 46 x_38_ * x_21_ - 74 x_49_ * x_21_ - 14 x_38_ * x_31_ + 8 x_46_ * x_31_ + 48 x_46_ ^ 2 + 92 x_49_ * x_46_ ] >= 6711
quadratic_ranged_5_lb: [ 100 x_45_ * x_1_ - 64 x_47_ * x_1_ - 90 x_9_ * x_6_ - 26 x_14_ * x_6_ + 72 x_32_ * x_6_ + 9 x_26_ ^ 2 - 10 x_32_ * x_26_ + 4 x_45_ * x_26_ - 84 x_47_ * x_26_ - 80 x_32_ * x_27_ - 76 x_40_ * x_27_ + 94 x_45_ * x_32_ + 4 x_45_ * x_40_ - 94 x_47_ * x_40_ ] >= -27383
quadratic_ranged_6_lb: [ -35 x_7_ ^ 2 + 74 x_8_ * x_7_ - 24 x_44_ * x_7_ - 94 x_48_ * x_7_ - 18 x_26_ * x_8_ - 80 x_26_ * x_23_ - 16 x_48_ * x_23_ - 2 x_26_ ^ 2 + 74 x_44_ * x_26_ - 86 x_48_ * x_26_ ] >= -4218
quadratic_ranged_7_lb: [ 40 x_44_ * x_4_ - 8 x_5_ ^ 2 + 56 x_44_ * x_5_ - 2 x_12_ ^ 2 - 46 x_24_ * x_12_ + 26 x_44_ * x_12_ - 46 x_43_ * x_32_ ] >= -3248
quadratic_ranged_8_lb: [ -28 x_15_ * x_41_ - 94 x_26_ * x_16_ + 10 x_32_ * x_16_ - 4 x_42_ * x_26_ + 56 x_41_ * x_32_ + 48 x_45_ * x_34_ - 14 x_49_ * x_41_ - 100 x_49_ * x_45_ ] >= 1784
quadratic_ranged_9_lb: [ -54 x_25_ * x_11_ - 94 x_26_ * x_11_ - 46 x_26_ * x_17_ + 94 x_26_ * x_23_ + 28 x_44_ * x_23_ + 40 x_48_ * x_25_ - 34 x_48_ * x_26_ + 27 x_48_ ^ 2 ] >= -3300
quadratic_ranged_10_lb: [ 92 x_42_ * x_3_ + 90 x_43_ * x_3_ - 28 x_47_ * x_3_ + 8 x_20_ * x_5_ - 30 x_37_ * x_5_ + 12 x_8_ ^ 2 + 36 x_22_ * x_8_ - 48 x_20_ ^ 2 - 96 x_22_ * x_20_ + 18 x_37_ * x_20_ + 62 x_47_ * x_20_ + 76 x_42_ * x_22_ - 84 x_43_ * x_35_ + 3 x_37_ ^ 2 + 80 x_42_ * x_37_ - 98 x_43_ * x_37_ + 60 x_43_ * x_42_ ] >= 9296
quadratic_ranged_11_lb: [ 76 x_3_ * x_1_ - 54 x_32_ * x_1_ - 12 x_36_ * x_1_ + 42 x_45_ * x_1_ + 4 x_17_ * x_3_ - 84 x_18_ * x_3_ + 14 x_36_ * x_3_ + 44 x_18_ * x_5_ - 46 x_30_ * x_5_ + 96 x_36_ * x_5_ - 48 x_45_ * x_5_ - 90 x_18_ * x_17_ + 40 x_24_ * x_17_ + 34 x_40_ * x_17_ - 64 x_27_ * x_18_ - 80 x_30_ * x_18_ - 18 x_40_ * x_18_ + 92 x_27_ * x_24_ - 90 x_30_ * x_24_ + 58 x_40_ * x_24_ - 52 x_47_ * x_24_ + 8 x_47_ * x_27_ + 44 x_30_ ^ 2 + 62 x_47_ * x_30_ - 86 x_47_ * x_32_ ] >= 6781
quadratic_ranged_12_lb: [ 10 x_8_ * x_7_ - 82 x_15_ * x_7_ - 34 x_21_ * x_7_ + 52 x_44_ * x_7_ + 72 x_43_ * x_8_ + 8 x_44_ * x_8_ + 52 x_16_ * x_10_ - 2 x_23_ * x_10_ - 2 x_44_ * x_10_ + 8 x_16_ * x_14_ + 90 x_21_ * x_14_ - 94 x_36_ * x_14_ - 4 x_35_ * x_15_ - 58 x_36_ * x_15_ - 48 x_43_ * x_15_ + 96 x_44_ * x_15_ + 26 x_47_ * x_15_ - 2 x_21_ * x_16_ + 12 x_19_ ^ 2 + 64 x_35_ * x_19_ - 26 x_36_ * x_21_ - 45 x_23_ ^ 2 + 64 x_36_ * x_23_ - 16 x_42_ * x_23_ - 24 x_42_ * x_32_ + 11 x_35_ ^ 2 - 74 x_42_ * x_35_ - 38 x_44_ * x_35_ ] >= -8594
quadratic_ranged_13_lb: [ -26 x_2_ ^ 2 + 6 x_8_ * x_2_ - 8 x_24_ * x_2_ + 40 x_3_ ^ 2 - 40 x_9_ * x_3_ - 92 x_10_ * x_3_ + 2 x_13_ * x_3_ - 12 x_17_ * x_3_ + 84 x_9_ * x_6_ - 76 x_13_ * x_6_ + 2 x_46_ * x_6_ - 40 x_8_ ^ 2 + 80 x_13_ * x_8_ + 50 x_29_ * x_8_ + 6 x_40_ * x_8_ - 42 x_13_ * x_9_ + 56 x_44_ * x_9_ + 45 x_10_ ^ 2 - 82 x_40_ * x_10_ + 66 x_46_ * x_13_ + 32 x_25_ * x_17_ + 16 x_30_ * x_17_ + 18 x_24_ ^ 2 - 46 x_25_ * x_24_ - 54 x_46_ * x_24_ - 88 x_30_ * x_25_ - 29 x_30_ ^ 2 - 40 x_46_ * x_30_ - 14 x_43_ * x_40_ + 74 x_46_ * x_40_ - 16 x_43_ ^ 2 ] >= -7967
quadratic_ranged_14_lb: [ -88 x_5_ * x_46_ - 38 x_48_ * x_6_ + 98 x_41_ * x_19_ - 56 x_48_ * x_46_ ] >= 13728
quadratic_ranged_15_lb: [ 56 x_10_ * x_7_ + 92 x_18_ * x_7_ - 36 x_21_ * x_7_ + 4 x_47_ * x_7_ - 20 x_48_ * x_7_ + 96 x_13_ * x_8_ + 20 x_35_ * x_8_ - 74 x_47_ * x_8_ + 4 x_10_ ^ 2 - 62 x_18_ * x_10_ + 54 x_42_ * x_10_ + 36 x_48_ * x_10_ + 4 x_18_ * x_13_ + 30 x_19_ * x_18_ - 42 x_35_ * x_18_ - 18 x_45_ * x_18_ + 10 x_47_ * x_18_ + 48 x_48_ * x_18_ + 6 x_47_ * x_19_ - 64 x_45_ * x_21_ - 22 x_48_ * x_21_ + 80 x_44_ * x_42_ - 92 x_47_ * x_45_ + 23 x_47_ ^ 2 ] >= 3199
quadratic_ranged_16_lb: [ 74 x_18_ * x_9_ + 32 x_28_ * x_9_ + 76 x_31_ * x_9_ - 50 x_43_ * x_9_ + 30 x_23_ * x_18_ - 34 x_28_ * x_18_ - 38 x_31_ * x_23_ + 40 x_37_ * x_23_ + 45 x_43_ ^ 2 ] >= 10297
quadratic_ranged_17_lb: [ 23 x_1_ ^ 2 + 88 x_10_ * x_1_ + 92 x_15_ * x_1_ + 38 x_25_ * x_1_ - 20 x_39_ * x_1_ - 98 x_38_ * x_8_ + 26 x_11_ * x_10_ + 64 x_21_ * x_10_ + 78 x_32_ * x_10_ - 24 x_39_ * x_10_ - 6 x_45_ * x_10_ - 74 x_38_ * x_11_ - 22 x_18_ * x_15_ + 100 x_45_ * x_15_ - 56 x_32_ * x_18_ + 94 x_38_ * x_18_ + 4 x_47_ * x_18_ + 90 x_39_ * x_24_ - 62 x_47_ * x_24_ + 5 x_27_ ^ 2 + 30 x_32_ ^ 2 + 52 x_45_ * x_38_ ] >= -24755
quadratic_ranged_18_lb: [ 48 x_3_ ^ 2 + 84 x_7_ * x_4_ - 56 x_27_ * x_6_ + 18 x_31_ * x_6_ + 40 x_7_ ^ 2 + 30 x_47_ * x_7_ + 82 x_27_ * x_12_ + 4 x_47_ * x_31_ ] >= 3732
quadratic_ranged_19_lb: [ 10 x_20_ * x_2_ + 76 x_32_ * x_2_ + 94 x_22_ * x_5_ - 88 x_22_ * x_6_ - 98 x_20_ * x_9_ - 100 x_25_ * x_9_ + 68 x_32_ * x_18_ + 27 x_20_ ^ 2 + 82 x_22_ * x_20_ + 20 x_32_ * x_22_ + 80 x_37_ * x_25_ ] >= 16346
quadratic_ranged_20_lb: [ 32 x_4_ * x_1_ + 88 x_13_ * x_1_ - 44 x_26_ * x_1_ - 100 x_26_ * x_4_ - 32 x_26_ ^ 2 + 86 x_43_ * x_33_ ] >= -3361
quadratic_ranged_21_lb: [ -64 x_47_ * x_2_ + 13 x_16_ ^ 2 - 64 x_34_ * x_16_ - 66 x_46_ * x_19_ + 64 x_27_ * x_25_ - 86 x_35_ * x_25_ - 38 x_34_ * x_29_ + 92 x_46_ * x_31_ + 13 x_34_ ^ 2 + 16 x_35_ ^ 2 - 22 x_47_ * x_43_ + 31 x_46_ ^ 2 + 26 x_47_ * x_46_ ] >= -1264
quadratic_ranged_22_lb: [ -74 x_4_ * x_2_ + 84 x_20_ * x_2_ + 2 x_45_ * x_2_ - 32 x_4_ ^ 2 - 74 x_6_ * x_4_ - 64 x_38_ * x_6_ + 94 x_50_ * x_6_ + 10 x_21_ * x_14_ - 10 x_20_ ^ 2 - 66 x_45_ * x_20_ + 38 x_25_ * x_21_ + 32 x_50_ * x_21_ - 38 x_25_ ^ 2 - 60 x_34_ * x_25_ - 38 x_45_ * x_25_ + 68 x_50_ * x_36_ - 27 x_38_ ^ 2 - 20 x_45_ * x_38_ - 60 x_50_ * x_38_ + 23 x_45_ ^ 2 ] >= -7433
quadratic_ranged_23_lb: [ -30 x_22_ * x_3_ - 88 x_36_ * x_3_ + 28 x_44_ * x_3_ + 19 x_10_ ^ 2 - 88 x_12_ * x_10_ + 62 x_22_ * x_12_ - 68 x_42_ * x_12_ - 22 x_50_ * x_22_ - 60 x_42_ * x_30_ + 2 x_44_ * x_30_ + 30 x_42_ * x_36_ + 76 x_50_ * x_36_ - 72 x_44_ * x_42_ + 74 x_50_ * x_42_ ] >= 22946
quadratic_ranged_24_lb: [ -49 x_5_ ^ 2 - 20 x_38_ * x_27_ - 16 x_43_ * x_27_ + 38 x_38_ * x_30_ + 8 x_48_ ^ 2 ] >= 1719
quadratic_ranged_25_lb: [ -50 x_19_ * x_3_ + 30 x_10_ * x_7_ + 50 x_34_ * x_7_ + 46 x_38_ * x_7_ + 46 x_46_ * x_7_ - 12 x_21_ * x_10_ + 14 x_32_ * x_10_ - 38 x_13_ * x_12_ + 100 x_34_ * x_12_ + 66 x_46_ * x_12_ - 96 x_48_ * x_12_ - 82 x_21_ * x_19_ + 100 x_46_ * x_19_ - 4 x_21_ ^ 2 + 48 x_34_ * x_21_ - 94 x_48_ * x_21_ + 11 x_32_ ^ 2 - 50 x_48_ * x_32_ + 80 x_48_ * x_46_ ] >= -5473
quadratic_ranged_26_lb: [ -84 x_5_ * x_1_ - 10 x_2_ ^ 2 - 54 x_44_ * x_2_ - 60 x_46_ * x_2_ + 22 x_7_ * x_5_ + 40 x_10_ * x_5_ + 84 x_36_ * x_5_ + 62 x_26_ * x_7_ - 6 x_27_ * x_10_ + 10 x_46_ * x_10_ - 66 x_46_ * x_22_ - 48 x_36_ * x_27_ + 13 x_36_ ^ 2 + 50 x_46_ * x_36_ ] >= -1002
quadratic_ranged_27_lb: [ -8 x_27_ * x_7_ - 30 x_44_ * x_7_ + 2 x_16_ * x_8_ - 86 x_27_ * x_13_ - 82 x_42_ * x_13_ - 24 x_44_ * x_13_ + 11 x_17_ ^ 2 - 14 x_33_ * x_19_ + 16 x_44_ * x_19_ - 54 x_42_ * x_25_ - 74 x_33_ * x_27_ - 8 x_44_ * x_27_ + 4 x_42_ ^ 2 ] >= 1695
quadratic_ranged_28_lb: [ 40 x_22_ * x_6_ - 54 x_43_ * x_6_ - 13 x_10_ ^ 2 - 24 x_22_ * x_10_ - 80 x_43_ * x_12_ + 10 x_22_ ^ 2 + 50 x_43_ * x_22_ ] >= 346
quadratic_ranged_29_lb: [ 35 x_2_ ^ 2 + 6 x_3_ ^ 2 - 20 x_12_ * x_3_ + 64 x_20_ * x_3_ - 14 x_30_ * x_3_ - 66 x_41_ * x_8_ + 64 x_47_ * x_8_ + 8 x_30_ * x_12_ + 100 x_41_ * x_19_ + 76 x_47_ * x_19_ - 56 x_25_ * x_20_ - 84 x_30_ * x_20_ + 49 x_25_ ^ 2 + 16 x_41_ * x_25_ - 64 x_47_ * x_30_ + 13 x_47_ ^ 2 ] >= 3539
quadratic_ranged_30_lb: [ -45 x_3_ ^ 2 + 62 x_39_ * x_8_ - 2 x_46_ * x_8_ - 62 x_12_ * x_11_ - 8 x_39_ * x_12_ + 49 x_26_ ^ 2 - 72 x_39_ * x_26_ + 40 x_46_ * x_33_ + 66 x_37_ * x_36_ - 42 x_39_ * x_36_ + 46 x_46_ * x_39_ ] >= 2099
quadratic_ranged_31_lb: [ 25 x_11_ ^ 2 + 72 x_14_ * x_11_ - 42 x_22_ * x_11_ + 92 x_35_ * x_11_ - 14 x_19_ * x_12_ + 14 x_18_ * x_14_ + 76 x_19_ * x_14_ - 72 x_35_ * x_14_ - 32 x_40_ * x_14_ - 20 x_22_ * x_18_ + 50 x_35_ * x_18_ + 38 x_44_ * x_18_ + 56 x_22_ * x_19_ + 88 x_40_ * x_19_ + 14 x_26_ * x_22_ + 64 x_44_ * x_26_ - 19 x_33_ ^ 2 + 54 x_40_ * x_33_ + 44 x_44_ * x_33_ ] >= -323
quadratic_ranged_32_lb: [ -80 x_8_ * x_4_ + 90 x_26_ * x_4_ + 26 x_33_ * x_4_ - 56 x_48_ * x_7_ - 24 x_26_ * x_8_ - 100 x_30_ * x_8_ - 50 x_38_ * x_26_ - 26 x_30_ ^ 2 - 48 x_48_ * x_30_ - 44 x_38_ * x_32_ + 26 x_33_ ^ 2 + 42 x_38_ * x_33_ - 86 x_40_ * x_33_ - 96 x_47_ * x_33_ - 48 x_48_ * x_40_ ] >= -14188
quadratic_ranged_33_lb: [ 28 x_3_ ^ 2 - 64 x_8_ * x_3_ - 64 x_43_ * x_3_ + 46 x_45_ * x_3_ + 86 x_37_ * x_8_ - 18 x_9_ ^ 2 + 36 x_49_ * x_9_ + 32 x_16_ ^ 2 - 44 x_25_ * x_16_ - 38 x_37_ * x_16_ + 34 x_36_ * x_25_ + 50 x_37_ * x_36_ - 5 x_37_ ^ 2 - 16 x_39_ * x_37_ + 22 x_49_ * x_37_ + 66 x_45_ * x_43_ - 74 x_49_ * x_43_ - 10 x_49_ ^ 2 ] >= 4667
quadratic_ranged_34_lb: [ -46 x_7_ ^ 2 + 88 x_15_ * x_7_ + 88 x_15_ * x_11_ - 34 x_43_ * x_27_ - 30 x_49_ ^ 2 ] >= -207
quadratic_ranged_35_lb: [ 92 x_19_ * x_3_ + 94 x_22_ * x_3_ - 36 x_32_ * x_3_ + 42 x_10_ * x_4_ + 60 x_19_ * x_4_ + 44 x_17_ * x_7_ - 40 x_31_ * x_10_ + 2 x_16_ ^ 2 + 98 x_19_ * x_16_ + 72 x_29_ * x_16_ - 100 x_32_ * x_16_ + 28 x_19_ * x_17_ + 12 x_20_ * x_17_ + 96 x_29_ * x_17_ - 62 x_22_ * x_19_ - 42 x_31_ * x_19_ + 48 x_50_ * x_19_ - 50 x_20_ ^ 2 - 62 x_50_ * x_31_ ] >= 18299
quadratic_ranged_36_lb: [ -50 x_21_ * x_12_ - 62 x_30_ * x_13_ + 20 x_36_ * x_13_ - 16 x_21_ ^ 2 - 54 x_34_ * x_21_ - 70 x_41_ * x_30_ + 48 x_34_ ^ 2 - 64 x_45_ * x_36_ ] >= -10618
quadratic_ranged_37_lb: [ -62 x_4_ * x_17_ + 46 x_20_ * x_4_ - 38 x_32_ * x_4_ - 56 x_17_ * x_6_ - 74 x_20_ * x_14_ + 42 x_47_ * x_17_ + 46 x_32_ * x_29_ - 28 x_39_ * x_29_ ] >= 9753
quadratic_ranged_38_lb: [ -58 x_12_ * x_6_ - 16 x_32_ * x_6_ + 24 x_43_ * x_6_ + 38 x_32_ * x_9_ + 26 x_33_ * x_10_ - 10 x_42_ * x_10_ - 8 x_13_ ^ 2 - 98 x_42_ * x_13_ - 80 x_48_ * x_13_ + 10 x_33_ * x_32_ - 32 x_43_ * x_33_ ] >= 9684
quadratic_ranged_39_lb: [ -52 x_1_ * x_26_ + 8 x_32_ * x_2_ + 98 x_44_ * x_2_ + 22 x_24_ * x_18_ - 94 x_26_ * x_18_ + 66 x_50_ * x_18_ + 70 x_44_ * x_26_ - 78 x_40_ * x_27_ - 14 x_50_ * x_27_ + 60 x_45_ * x_32_ + 24 x_45_ * x_44_ - 18 x_47_ * x_44_ - 100 x_47_ * x_45_ ] >= -2958
quadratic_ranged_40_lb: [ 26 x_35_ * x_17_ - 60 x_35_ * x_19_ - 31 x_35_ ^ 2 ] >= 3080
quadratic_ranged_41_lb: [ -70 x_46_ * x_1_ - 54 x_50_ * x_1_ + 78 x_11_ * x_4_ + 100 x_15_ * x_4_ - 56 x_23_ * x_4_ - 38 x_50_ * x_4_ + 74 x_31_ * x_6_ - 42 x_23_ * x_11_ - 6 x_31_ * x_11_ + 28 x_49_ * x_11_ + 7 x_14_ ^ 2 + 2 x_15_ * x_14_ + 24 x_23_ * x_14_ + 30 x_37_ * x_14_ + 40 x_50_ * x_15_ + 18 x_46_ * x_23_ - 56 x_50_ * x_23_ + 64 x_49_ * x_31_ + 38 x_50_ * x_31_ - 18 x_50_ * x_46_ ] >= 3657
quadratic_ranged_42_lb: [ 82 x_22_ * x_11_ - 80 x_23_ * x_18_ + 14 x_41_ * x_18_ + 72 x_43_ * x_18_ - 56 x_23_ * x_22_ - 18 x_43_ * x_23_ + 26 x_43_ * x_26_ + 16 x_41_ * x_29_ - 19 x_49_ ^ 2 ] >= -3219
quadratic_ranged_43_lb: [ -74 x_35_ * x_4_ - 30 x_5_ ^ 2 - 46 x_10_ * x_5_ - 92 x_17_ * x_5_ - 86 x_35_ * x_5_ + 98 x_12_ * x_6_ - 60 x_30_ * x_6_ + 64 x_35_ * x_10_ - 2 x_45_ * x_10_ + 92 x_20_ * x_12_ - 17 x_13_ ^ 2 + 68 x_20_ * x_13_ + 36 x_20_ * x_14_ - 100 x_20_ * x_17_ - 66 x_35_ * x_17_ - 38 x_35_ ^ 2 ] >= -21063
quadratic_ranged_44_lb: [ -6 x_12_ * x_10_ - 94 x_20_ * x_10_ - 20 x_41_ * x_10_ + 24 x_45_ * x_10_ - 50 x_42_ * x_12_ - 2 x_41_ ^ 2 - 26 x_45_ ^ 2 ] >= -3946
quadratic_ranged_45_lb: [ -78 x_17_ * x_5_ - 4 x_20_ * x_5_ - 92 x_40_ * x_5_ - 66 x_20_ * x_17_ + 32 x_46_ * x_17_ + 34 x_47_ * x_17_ + 36 x_18_ ^ 2 - 46 x_46_ * x_18_ - 22 x_20_ ^ 2 - 52 x_40_ * x_20_ + 32 x_47_ * x_20_ - 66 x_40_ * x_22_ - 6 x_40_ * x_30_ + 22 x_45_ * x_30_ + 72 x_47_ * x_30_ - 40 x_35_ ^ 2 - 28 x_39_ * x_35_ - 28 x_46_ * x_35_ + 42 x_47_ * x_35_ + 78 x_46_ * x_45_ ] >= -7559
quadratic_ranged_46_lb: [ -82 x_36_ * x_14_ - 27 x_16_ ^ 2 - 78 x_42_ * x_16_ - 68 x_45_ * x_36_ + 28 x_42_ ^ 2 - 27 x_44_ ^ 2 ] >= 2189
quadratic_ranged_47_lb: [ -52 x_25_ * x_6_ + 50 x_46_ * x_36_ + 41 x_39_ ^ 2 ] >= 1266
quadratic_ranged_48_lb: [ 52 x_47_ * x_2_ + 100 x_14_ * x_4_ - 34 x_19_ * x_4_ - 24 x_46_ * x_4_ - 22 x_47_ * x_4_ - 86 x_49_ * x_4_ + 80 x_47_ * x_14_ - 60 x_16_ * x_15_ - 6 x_29_ * x_15_ + 49 x_16_ ^ 2 - 44 x_34_ * x_16_ - 82 x_41_ * x_16_ + 34 x_49_ * x_16_ - 78 x_26_ * x_19_ + 49 x_26_ ^ 2 + 72 x_34_ * x_26_ + 68 x_49_ * x_26_ - 6 x_27_ ^ 2 + 34 x_41_ * x_27_ - 84 x_46_ * x_27_ - 68 x_41_ * x_29_ + 98 x_47_ * x_29_ + 56 x_47_ * x_34_ - 92 x_41_ * x_37_ + 56 x_47_ * x_37_ + 76 x_47_ * x_41_ ] >= 10556
quadratic_ranged_49_lb: [ 12 x_41_ * x_22_ - 34 x_42_ * x_22_ + 14 x_36_ * x_26_ + 20 x_38_ * x_26_ - 3 x_35_ ^ 2 - 42 x_38_ * x_35_ - 10 x_42_ * x_36_ - 1 x_41_ ^ 2 + 98 x_50_ * x_42_ ] >= 5219
quadratic_ranged_50_lb: [ -96 x_5_ * x_19_ + 42 x_39_ * x_5_ + 8 x_47_ * x_5_ - 10 x_27_ * x_7_ - 50 x_39_ * x_7_ - 46 x_43_ * x_7_ - 30 x_47_ * x_7_ - 2 x_48_ * x_7_ - 24 x_27_ * x_18_ - 46 x_28_ * x_18_ + 92 x_20_ * x_19_ + 32 x_39_ * x_19_ + 10 x_43_ * x_19_ - 92 x_39_ * x_20_ + 18 x_47_ * x_20_ + 88 x_48_ * x_20_ - 84 x_39_ * x_27_ + 38 x_47_ * x_28_ - 32 x_48_ * x_28_ ] >= 8764
quadratic_ranged_51_lb: [ -76 x_21_ * x_2_ - 22 x_34_ * x_2_ - 100 x_37_ * x_2_ + 96 x_15_ * x_10_ + 64 x_17_ * x_10_ + 38 x_15_ ^ 2 - 42 x_34_ * x_21_ - 33 x_34_ ^ 2 - 42 x_37_ * x_36_ ] >= 67
quadratic_ranged_52_lb: [ 5 x_5_ ^ 2 + 34 x_9_ ^ 2 + 70 x_50_ * x_9_ + 86 x_30_ * x_18_ - 30 x_26_ ^ 2 + 14 x_49_ * x_26_ + 30 x_39_ * x_30_ - 34 x_45_ * x_30_ - 22 x_50_ * x_30_ + 14 x_45_ * x_39_ + 2 x_45_ ^ 2 - 76 x_50_ * x_49_ ] >= 2573
quadratic_ranged_53_lb: [ -70 x_11_ * x_2_ - 54 x_15_ * x_2_ - 74 x_20_ * x_2_ - 32 x_24_ * x_2_ + 46 x_34_ * x_2_ - 40 x_48_ * x_2_ - 40 x_15_ * x_10_ - 62 x_31_ * x_10_ + 68 x_46_ * x_10_ + 82 x_48_ * x_10_ - 14 x_34_ * x_11_ + 16 x_48_ * x_11_ + 82 x_20_ * x_13_ + 82 x_31_ * x_13_ - 12 x_40_ * x_13_ + 8 x_20_ ^ 2 - 16 x_31_ * x_20_ + 96 x_34_ * x_31_ + 26 x_48_ * x_40_ ] >= 1373
quadratic_ranged_54_lb: [ -40 x_6_ ^ 2 + 7 x_17_ ^ 2 - 12 x_42_ * x_20_ - 18 x_41_ * x_28_ - 22 x_41_ * x_30_ - 4 x_42_ * x_40_ ] >= -3054
quadratic_ranged_55_lb: [ 82 x_11_ * x_1_ - 32 x_27_ * x_1_ - 26 x_46_ * x_1_ - 44 x_50_ * x_1_ + 4 x_20_ * x_5_ - 60 x_35_ * x_5_ - 72 x_35_ * x_11_ - 36 x_37_ * x_11_ - 26 x_38_ * x_11_ - 60 x_50_ * x_11_ - 6 x_27_ * x_19_ + 36 x_33_ * x_19_ - 28 x_34_ * x_19_ - 28 x_38_ * x_19_ - 7 x_23_ ^ 2 - 52 x_50_ * x_23_ + 24 x_46_ * x_27_ - 62 x_34_ * x_33_ - 42 x_35_ * x_34_ + 60 x_38_ * x_34_ + 4 x_47_ * x_34_ - 80 x_50_ * x_34_ - 16 x_47_ * x_35_ + 54 x_50_ * x_37_ + 58 x_47_ * x_46_ ] >= -12437
c1: [ 80 x_3_ * x_33_ + 2 x_14_ * x_4_ + 92 x_33_ * x_4_ + 46 x_33_ * x_14_ ] = -5400
c2: [ 46 x_16_ ^ 2 ] = 1656
c3: [ 11 x_3_ ^ 2 - 42 x_21_ * x_3_ + 26 x_43_ * x_3_ - 88 x_50_ * x_3_ + 82 x_10_ * x_4_ - 12 x_21_ * x_7_ + 2 x_49_ * x_7_ + 86 x_18_ * x_10_ - 26 x_33_ * x_10_ - 94 x_49_ * x_10_ - 84 x_21_ * x_18_ - 44 x_36_ * x_18_ + 18 x_33_ * x_21_ - 96 x_36_ * x_21_ + 86 x_43_ * x_21_ + 36 x_27_ ^ 2 + 100 x_49_ * x_43_ - 20 x_50_ * x_43_ - 86 x_49_ * x_47_ ] = -976
c4: [ 28 x_11_ * x_3_ - 44 x_39_ * x_3_ + 42 x_9_ * x_4_ - 90 x_19_ * x_4_ - 66 x_39_ * x_4_ - 58 x_48_ * x_4_ + 10 x_29_ * x_9_ - 48 x_47_ * x_9_ + 76 x_13_ * x_11_ + 44 x_39_ * x_11_ + 28 x_43_ * x_13_ + 80 x_47_ * x_13_ + 46 x_29_ * x_19_ + 44 x_26_ ^ 2 - 2 x_27_ * x_26_ - 94 x_48_ * x_26_ + 2 x_39_ * x_27_ + 30 x_48_ * x_27_ + 46 x_43_ * x_29_ - 24 x_34_ ^ 2 + 92 x_47_ * x_39_ - 48 x_47_ * x_43_ ] = -21934
c5: [ 16 x_10_ ^ 2 + 22 x_15_ * x_10_ - 76 x_32_ * x_10_ - 30 x_36_ * x_10_ + 42 x_38_ * x_12_ - 74 x_43_ * x_12_ + 24 x_46_ * x_13_ + 70 x_46_ * x_18_ + 50 x_38_ * x_24_ + 94 x_38_ * x_32_ - 78 x_43_ * x_36_ + 42 x_43_ * x_38_ - 60 x_46_ * x_38_ ] = -6142
c6: [ 68 x_18_ * x_1_ + 32 x_43_ * x_5_ + 8 x_11_ ^ 2 - 76 x_34_ * x_11_ + 46 x_43_ * x_11_ + 72 x_18_ * x_14_ - 84 x_34_ * x_14_ + 82 x_43_ * x_18_ - 38 x_43_ * x_34_ - 10 x_45_ * x_43_ - 22 x_45_ ^ 2 ] = -10150
c7: [ 34 x_11_ ^ 2 - 78 x_31_ * x_11_ + 74 x_39_ * x_11_ + 28 x_47_ * x_11_ - 12 x_28_ * x_17_ + 32 x_47_ * x_17_ - 34 x_38_ * x_19_ - 100 x_39_ * x_19_ - 66 x_38_ * x_28_ - 46 x_43_ * x_38_ - 32 x_48_ * x_38_ + 4 x_43_ ^ 2 - 24 x_48_ ^ 2 ] = -8248
c8: [ -76 x_7_ * x_2_ - 4 x_29_ * x_2_ + 94 x_18_ * x_7_ - 70 x_39_ * x_7_ - 76 x_40_ * x_7_ + 43 x_16_ ^ 2 + 78 x_39_ * x_18_ - 40 x_40_ * x_18_ - 54 x_39_ * x_29_ + 29 x_40_ ^ 2 + 82 x_50_ * x_40_ ] = 6716
c9: [ -19 x_1_ ^ 2 + 90 x_26_ * x_9_ - 4 x_34_ * x_9_ + 92 x_35_ * x_26_ - 24 x_45_ * x_26_ + 68 x_35_ * x_34_ + 7 x_42_ ^ 2 ] = 10165
c10: [ -20 x_11_ * x_1_ - 2 x_17_ * x_1_ - 80 x_23_ * x_11_ + 82 x_20_ * x_12_ + 60 x_38_ * x_12_ - 5 x_17_ ^ 2 + 72 x_23_ * x_17_ + 100 x_47_ * x_17_ - 28 x_23_ * x_20_ + 14 x_23_ ^ 2 + 49 x_24_ ^ 2 - 38 x_38_ ^ 2 + 22 x_39_ ^ 2 + 54 x_47_ * x_39_ ] = -6633
c11: [ 4 x_6_ * x_1_ - 74 x_22_ * x_1_ - 54 x_24_ * x_1_ + 78 x_30_ * x_1_ + 66 x_36_ * x_1_ - 28 x_38_ * x_1_ - 68 x_22_ * x_5_ - 30 x_22_ * x_6_ + 18 x_23_ * x_6_ - 50 x_12_ ^ 2 + 70 x_18_ * x_12_ - 74 x_30_ * x_12_ - 20 x_22_ * x_18_ + 98 x_40_ * x_18_ - 100 x_31_ * x_22_ - 46 x_23_ ^ 2 - 8 x_30_ * x_23_ - 24 x_40_ * x_24_ + 50 x_30_ ^ 2 - 20 x_35_ * x_30_ - 2 x_40_ * x_30_ - 5 x_35_ ^ 2 - 72 x_40_ * x_35_ + 22 x_36_ ^ 2 ] = -4652
c12: [ -84 x_20_ * x_5_ + 4 x_26_ * x_5_ + 92 x_47_ * x_5_ + 46 x_20_ ^ 2 - 12 x_45_ ^ 2 + 28 x_47_ * x_45_ ] = 3298
c13: [ -74 x_23_ * x_18_ + 92 x_46_ * x_18_ + 80 x_30_ * x_23_ - 30 x_24_ ^ 2 + 34 x_46_ * x_30_ ] = -1320
c14: [ 5 x_5_ ^ 2 - 36 x_24_ * x_5_ + 42 x_33_ * x_5_ + 90 x_41_ * x_5_ + 20 x_24_ ^ 2 - 72 x_35_ * x_24_ - 44 x_46_ * x_24_ - 4 x_44_ * x_33_ + 20 x_46_ * x_37_ ] = -7604
c15: [ 6 x_50_ * x_1_ + 34 x_7_ ^ 2 - 8 x_37_ * x_7_ - 74 x_19_ * x_12_ - 90 x_26_ * x_12_ + 38 x_49_ * x_12_ + 68 x_26_ * x_14_ + 2 x_27_ * x_14_ - 84 x_22_ * x_18_ - 38 x_49_ * x_18_ - 48 x_26_ ^ 2 - 36 x_37_ * x_26_ + 80 x_41_ * x_26_ + 48 x_37_ * x_27_ - 22 x_41_ * x_38_ - 94 x_49_ * x_38_ ] = -10440
c16: [ -16 x_13_ * x_1_ - 8 x_23_ * x_1_ - 54 x_30_ * x_1_ + 98 x_31_ * x_13_ - 38 x_49_ * x_13_ - 15 x_14_ ^ 2 + 66 x_23_ * x_14_ - 62 x_42_ * x_30_ ] = 8847
c17: [ 2 x_8_ * x_3_ + 92 x_33_ * x_3_ - 40 x_6_ ^ 2 + 54 x_8_ * x_6_ + 98 x_37_ * x_6_ + 8 x_39_ * x_6_ + 12 x_44_ * x_8_ + 12 x_10_ ^ 2 + 32 x_33_ * x_10_ - 78 x_37_ * x_23_ + 80 x_39_ * x_33_ - 68 x_39_ * x_37_ - 86 x_44_ * x_39_ ] = -4872
c18: [ -38 x_39_ * x_6_ + 96 x_39_ * x_8_ + 18 x_39_ * x_21_ - 80 x_45_ * x_21_ - 9 x_39_ ^ 2 - 8 x_45_ * x_39_ ] = 4312
c19: [ 96 x_12_ * x_44_ ] = -6720
c20: [ -46 x_21_ * x_6_ + 18 x_26_ * x_6_ + 72 x_31_ * x_6_ - 96 x_8_ * x_7_ - 60 x_33_ * x_7_ + 12 x_31_ * x_8_ + 92 x_33_ * x_8_ - 50 x_31_ * x_10_ - 50 x_33_ * x_10_ + 68 x_50_ * x_15_ + 40 x_21_ ^ 2 + 100 x_32_ * x_21_ + 26 x_33_ * x_21_ + 60 x_32_ * x_31_ - 12 x_33_ * x_31_ + 56 x_33_ * x_32_ ] = 11794
c21: [ -16 x_32_ * x_7_ + 76 x_33_ * x_7_ + 52 x_45_ * x_7_ + 82 x_45_ * x_14_ + 54 x_50_ * x_14_ + 20 x_24_ ^ 2 - 74 x_32_ * x_24_ + 76 x_33_ * x_24_ + 60 x_45_ * x_30_ - 28 x_50_ * x_30_ + 28 x_46_ * x_32_ + 44 x_46_ * x_42_ + 8 x_50_ ^ 2 ] = 2718
c22: [ -90 x_12_ * x_1_ + 64 x_41_ * x_1_ + 40 x_9_ * x_7_ - 22 x_12_ * x_7_ + 38 x_33_ * x_7_ - 74 x_35_ * x_7_ - 82 x_41_ * x_7_ + 70 x_50_ * x_7_ + 30 x_12_ * x_9_ + 70 x_25_ * x_9_ + 50 x_42_ * x_9_ + 64 x_43_ * x_9_ - 40 x_49_ * x_9_ + 2 x_18_ ^ 2 - 8 x_25_ * x_18_ - 58 x_41_ * x_18_ - 8 x_43_ * x_18_ - 16 x_42_ * x_35_ + 76 x_43_ * x_35_ - 44 x_47_ * x_42_ + 60 x_50_ * x_42_ + 3 x_49_ ^ 2 ] = -10813
c23: [ -56 x_43_ * x_2_ - 3 x_5_ ^ 2 + 56 x_16_ * x_5_ - 52 x_35_ * x_14_ + 2 x_42_ * x_16_ - 16 x_35_ * x_21_ - 68 x_42_ * x_21_ + 22 x_42_ * x_35_ - 27 x_42_ ^ 2 ] = -4488
c24: [ -20 x_1_ ^ 2 - 10 x_3_ * x_1_ + 92 x_49_ * x_1_ + 30 x_12_ * x_3_ + 34 x_35_ * x_3_ + 23 x_11_ ^ 2 - 16 x_22_ * x_11_ + 2 x_35_ * x_12_ - 86 x_48_ * x_12_ - 22 x_35_ * x_18_ + 1 x_19_ ^ 2 + 16 x_25_ * x_19_ + 40 x_47_ * x_19_ - 4 x_25_ * x_22_ + 72 x_48_ * x_22_ - 50 x_25_ * x_24_ + 88 x_49_ * x_25_ - 66 x_41_ * x_35_ + 80 x_48_ * x_47_ ] = 1040
c25: [ -43 x_6_ ^ 2 + 44 x_9_ * x_6_ + 12 x_26_ ^ 2 - 86 x_27_ * x_26_ - 10 x_30_ * x_27_ - 86 x_50_ * x_27_ ] = -6155
c26: [ 68 x_7_ * x_6_ + 64 x_22_ * x_6_ - 34 x_14_ * x_7_ + 72 x_36_ * x_7_ - 68 x_25_ * x_14_ + 62 x_22_ * x_20_ + 88 x_28_ * x_20_ + 26 x_36_ * x_20_ + 4 x_28_ ^ 2 ] = -2304
c27: [ -8 x_30_ * x_7_ - 44 x_35_ * x_9_ + 10 x_30_ * x_14_ - 40 x_35_ * x_29_ + 16 x_45_ * x_29_ - 48 x_30_ ^ 2 + 62 x_35_ * x_30_ + 17 x_35_ ^ 2 ] = -17016
c28: [ -96 x_22_ * x_1_ + 12 x_27_ * x_1_ + 44 x_48_ * x_1_ + 49 x_9_ ^ 2 - 26 x_15_ * x_9_ + 38 x_15_ * x_12_ - 8 x_22_ * x_12_ - 30 x_48_ * x_12_ - 52 x_27_ * x_14_ + 46 x_31_ * x_14_ - 30 x_45_ * x_14_ - 54 x_31_ * x_15_ + 94 x_48_ * x_22_ + 20 x_27_ ^ 2 + 78 x_45_ * x_27_ - 44 x_43_ * x_29_ - 39 x_31_ ^ 2 - 96 x_45_ * x_43_ + 52 x_46_ * x_43_ + 54 x_48_ * x_46_ ] = -2207
c29: [ 8 x_27_ * x_10_ - 76 x_42_ * x_27_ + 60 x_44_ * x_27_ - 56 x_46_ * x_27_ - 36 x_42_ ^ 2 + 86 x_44_ * x_42_ + 70 x_46_ * x_42_ - 70 x_47_ * x_44_ ] = -9244
c30: [ -20 x_2_ * x_1_ + 66 x_4_ * x_2_ + 22 x_44_ * x_2_ - 84 x_32_ * x_4_ + 22 x_25_ ^ 2 - 16 x_44_ * x_32_ ] = 5472
c31: [ -70 x_20_ * x_6_ - 14 x_50_ * x_6_ + 10 x_17_ * x_8_ - 92 x_26_ * x_8_ - 22 x_46_ * x_8_ + 58 x_20_ * x_18_ + 48 x_46_ * x_18_ + 12 x_20_ ^ 2 + 74 x_26_ * x_20_ - 62 x_38_ * x_20_ + 88 x_46_ * x_20_ - 92 x_27_ * x_26_ + 6 x_47_ * x_26_ + 78 x_38_ * x_27_ + 22 x_50_ * x_27_ + 36 x_47_ * x_38_ ] = -4886
c32: [ 18 x_8_ ^ 2 + 98 x_15_ * x_8_ - 90 x_48_ * x_8_ + 49 x_15_ ^ 2 + 76 x_30_ * x_18_ - 6 x_21_ ^ 2 - 15 x_30_ ^ 2 ] = -4096
c33: [ 15 x_11_ ^ 2 + 96 x_23_ * x_11_ - 72 x_40_ * x_11_ - 2 x_49_ * x_12_ + 80 x_38_ * x_23_ - 38 x_49_ * x_23_ + 9 x_28_ ^ 2 - 26 x_40_ * x_28_ - 54 x_42_ * x_32_ - 64 x_43_ * x_38_ ] = -9603
c34: [ -25 x_4_ ^ 2 + 62 x_6_ * x_4_ - 74 x_39_ * x_4_ + 2 x_43_ * x_4_ + 76 x_10_ * x_6_ - 98 x_39_ * x_6_ - 34 x_22_ * x_13_ + 64 x_23_ * x_21_ + 2 x_39_ * x_21_ ] = -136
c35: [ 20 x_50_ * x_2_ - 20 x_7_ ^ 2 - 98 x_50_ * x_7_ + 48 x_19_ ^ 2 + 40 x_37_ * x_28_ + 20 x_37_ ^ 2 ] = 3264
c36: [ -28 x_17_ * x_16_ - 18 x_25_ * x_16_ + 100 x_29_ * x_17_ + 2 x_46_ * x_17_ - 24 x_18_ ^ 2 + 94 x_22_ * x_18_ + 34 x_19_ ^ 2 - 68 x_46_ * x_25_ ] = 10976
c37: [ -72 x_10_ * x_5_ - 52 x_12_ * x_5_ - 32 x_21_ * x_5_ + 86 x_28_ * x_5_ + 8 x_31_ * x_5_ - 84 x_37_ * x_5_ + 32 x_10_ ^ 2 + 20 x_21_ * x_12_ + 84 x_28_ * x_15_ + 50 x_28_ * x_21_ - 58 x_43_ * x_21_ - 46 x_28_ * x_24_ + 96 x_50_ * x_24_ + 32 x_43_ * x_28_ + 41 x_31_ ^ 2 - 18 x_43_ * x_31_ ] = 10649
c38: [ -42 x_14_ * x_6_ - 96 x_28_ * x_6_ - 100 x_33_ * x_6_ + 10 x_47_ * x_6_ - 42 x_33_ * x_14_ + 10 x_46_ * x_14_ + 90 x_47_ * x_14_ - 84 x_48_ * x_14_ - 68 x_21_ * x_15_ + 48 x_25_ * x_15_ + 56 x_28_ * x_15_ - 84 x_45_ * x_15_ + 84 x_48_ * x_15_ - 84 x_26_ * x_21_ - 72 x_28_ * x_21_ - 86 x_35_ * x_21_ + 18 x_25_ ^ 2 - 10 x_38_ * x_25_ - 32 x_48_ * x_25_ + 48 x_41_ * x_26_ - 13 x_28_ ^ 2 - 92 x_48_ * x_33_ + 58 x_45_ * x_35_ - 60 x_48_ * x_35_ - 17 x_45_ ^ 2 - 44 x_46_ * x_45_ - 35 x_47_ ^ 2 ] = -27555
c39: [ -56 x_18_ * x_16_ - 54 x_30_ * x_16_ + 47 x_18_ ^ 2 - 88 x_22_ * x_18_ + 72 x_43_ * x_18_ - 80 x_47_ * x_18_ + 58 x_34_ * x_22_ + 50 x_35_ * x_22_ - 64 x_47_ * x_22_ - 94 x_50_ * x_22_ + 4 x_30_ * x_29_ - 46 x_42_ * x_29_ - 32 x_30_ ^ 2 + 96 x_50_ * x_30_ - 6 x_32_ ^ 2 - 76 x_35_ * x_32_ + 86 x_42_ * x_32_ + 54 x_43_ * x_32_ - 64 x_47_ * x_32_ - 64 x_42_ * x_35_ - 16 x_43_ * x_42_ + 80 x_50_ * x_42_ + 88 x_47_ * x_43_ ] = -48172
c40: [ 2 x_2_ ^ 2 - 6 x_50_ * x_2_ - 1 x_16_ ^ 2 - 24 x_19_ * x_16_ + 56 x_20_ * x_16_ ] = -1714
c41: [ 52 x_33_ * x_2_ - 96 x_48_ * x_2_ - 56 x_22_ * x_19_ - 22 x_22_ ^ 2 - 54 x_27_ * x_22_ + 58 x_45_ * x_22_ - 46 x_28_ ^ 2 + 1 x_48_ ^ 2 ] = -2911
c42: [ -30 x_2_ ^ 2 + 2 x_29_ * x_2_ + 4 x_43_ * x_12_ - 58 x_26_ * x_21_ - 4 x_40_ * x_26_ + 33 x_29_ ^ 2 + 5 x_43_ ^ 2 ] = -878
c43: [ 48 x_9_ ^ 2 - 70 x_22_ * x_9_ - 92 x_31_ * x_9_ - 58 x_31_ * x_14_ ] = -1686
c44: [ -8 x_25_ * x_19_ + 62 x_40_ * x_25_ + 46 x_38_ ^ 2 ] = 5168
c45: [ 12 x_38_ * x_1_ + 10 x_49_ * x_1_ + 6 x_16_ * x_6_ + 18 x_41_ * x_13_ + 28 x_44_ * x_13_ + 36 x_38_ * x_16_ + 28 x_29_ ^ 2 - 26 x_41_ * x_35_ + 20 x_41_ * x_38_ ] = 7522
Bounds
-6 <= x_1_ <= 8
-6 <= x_2_ <= 6
-7 <= x_3_ <= 2
-10 <= x_4_ <= 7
5 <= x_5_ <= 8
-10 <= x_6_ <= 7
-5 <= x_7_ <= 3
-10 <= x_8_ <= -3
-5 <= x_9_ <= 10
-10 <= x_10_ <= 3
-6 <= x_11_ <= 6
x_12_ = 10
-2 <= x_13_ <= 0
-10 <= x_14_ <= 10
-8 <= x_15_ <= 9
-10 <= x_16_ <= 0
-10 <= x_17_ <= 9
-5 <= x_18_ <= 9
-10 <= x_19_ <= 3
-6 <= x_20_ <= 3
3 <= x_21_ <= 10
-4 <= x_22_ <= 10
-4 <= x_23_ <= 7
0 <= x_24_ <= 8
1 <= x_25_ <= 2
-8 <= x_26_ <= 7
-6 <= x_27_ <= 9
-3 <= x_28_ <= 6
-2 <= x_29_ <= 9
-10 <= x_30_ <= 8
-3 <= x_31_ <= 3
6 <= x_32_ <= 8
0 <= x_33_ <= 9
-7 <= x_34_ <= 2
3 <= x_35_ <= 10
-4 <= x_36_ <= 7
-10 <= x_37_ <= 8
-10 <= x_38_ <= -2
-8 <= x_39_ <= 8
-4 <= x_40_ <= 10
-9 <= x_41_ <= -6
-10 <= x_42_ <= 10
-10 <= x_43_ <= 0
-8 <= x_44_ <= 5
-7 <= x_45_ <= -4
-7 <= x_46_ <= 2
-8 <= x_47_ <= 10
3 <= x_48_ <= 5
2 <= x_49_ <= 10
-2 <= x_50_ <= 10
General
x_1_
x_2_
x_3_
x_4_
x_5_
x_6_
x_7_
x_8_
x_9_
x_10_
x_11_
x_12_
x_13_
x_14_
x_15_
x_16_
x_17_
x_18_
x_19_
x_20_
x_21_
x_22_
x_23_
x_24_
x_25_
x_26_
x_27_
x_28_
x_29_
x_30_
x_31_
x_32_
x_33_
x_34_
x_35_
x_36_
x_37_
x_38_
x_39_
x_40_
x_41_
x_42_
x_43_
x_44_
x_45_
x_46_
x_47_
x_48_
x_49_
x_50_
End
