minimize
obj: 
subject to
quadratic_ranged_1_ub: [ 44 x_41_ * x_13_ + 72 x_44_ * x_13_ + 40 x_38_ ^ 2 + 44 x_48_ * x_41_ + 16 x_50_ * x_41_ + 6 x_43_ ^ 2 - 54 x_48_ * x_43_ ] <= 6576
quadratic_ranged_2_ub: [ 10 x_12_ * x_5_ + 20 x_43_ * x_15_ + 14 x_47_ * x_15_ - 60 x_28_ * x_23_ + 94 x_47_ * x_23_ - 13 x_28_ ^ 2 - 70 x_43_ * x_28_ - 96 x_35_ * x_33_ - 32 x_43_ * x_33_ + 22 x_43_ ^ 2 ] <= 11659
quadratic_ranged_3_ub: [ 52 x_29_ * x_1_ - 80 x_32_ * x_1_ - 46 x_49_ * x_1_ + 56 x_41_ * x_5_ + 22 x_9_ ^ 2 + 23 x_49_ ^ 2 ] <= 4359
quadratic_ranged_4_ub: [ 66 x_36_ * x_2_ - 52 x_50_ * x_2_ + 98 x_34_ * x_31_ + 66 x_45_ * x_31_ + 2 x_50_ * x_31_ + 58 x_38_ * x_34_ - 44 x_38_ * x_36_ - 42 x_45_ * x_36_ - 40 x_50_ * x_45_ - 5 x_50_ ^ 2 ] <= 16900
quadratic_ranged_5_ub: [ -62 x_11_ * x_4_ - 86 x_23_ * x_4_ - 40 x_26_ * x_4_ - 10 x_39_ * x_4_ - 94 x_44_ * x_4_ - 38 x_11_ ^ 2 + 36 x_23_ * x_11_ - 60 x_44_ * x_11_ - 24 x_44_ * x_16_ + 66 x_21_ * x_19_ + 74 x_26_ * x_19_ - 100 x_44_ * x_19_ - 96 x_47_ * x_19_ - 40 x_21_ ^ 2 + 4 x_26_ * x_21_ + 14 x_39_ * x_21_ - 98 x_39_ * x_23_ - 48 x_44_ * x_23_ + 64 x_47_ * x_25_ - 26 x_44_ * x_26_ + 62 x_39_ * x_37_ - 54 x_44_ * x_37_ - 92 x_47_ * x_37_ - 2 x_44_ ^ 2 ] <= -9886
quadratic_ranged_6_ub: [ -50 x_14_ * x_4_ - 60 x_16_ * x_4_ + 36 x_36_ * x_4_ - 42 x_17_ * x_11_ - 86 x_40_ * x_11_ + 8 x_43_ * x_11_ + 26 x_14_ ^ 2 - 66 x_26_ * x_14_ - 54 x_43_ * x_14_ + 78 x_27_ * x_16_ - 52 x_40_ * x_16_ - 28 x_28_ * x_23_ + 76 x_43_ * x_23_ + 42 x_36_ * x_26_ - 94 x_43_ * x_26_ - 80 x_36_ * x_27_ ] <= 6332
quadratic_ranged_7_ub: [ -32 x_1_ ^ 2 - 26 x_45_ * x_1_ - 90 x_47_ * x_1_ + 44 x_9_ * x_2_ + 78 x_50_ * x_2_ + 42 x_18_ * x_9_ - 20 x_45_ * x_9_ + 64 x_50_ * x_9_ + 17 x_10_ ^ 2 - 20 x_50_ * x_10_ - 12 x_45_ * x_18_ + 8 x_45_ ^ 2 ] <= -3607
quadratic_ranged_8_ub: [ 24 x_13_ * x_5_ + 76 x_28_ * x_5_ + 48 x_43_ * x_5_ + 33 x_13_ ^ 2 - 90 x_43_ * x_28_ - 92 x_50_ * x_43_ ] <= 9123
quadratic_ranged_9_ub: [ -18 x_8_ ^ 2 + 66 x_35_ * x_8_ + 2 x_32_ * x_22_ - 10 x_39_ * x_32_ - 2 x_44_ * x_32_ - 60 x_44_ * x_35_ + 92 x_39_ * x_36_ - 52 x_43_ * x_39_ + 34 x_44_ ^ 2 ] <= -4479
quadratic_ranged_10_ub: [ 94 x_27_ * x_1_ + 86 x_37_ * x_1_ - 90 x_3_ * x_2_ - 66 x_20_ * x_2_ + 88 x_21_ * x_2_ - 86 x_23_ * x_2_ + 88 x_39_ * x_2_ - 11 x_3_ ^ 2 + 90 x_22_ * x_3_ - 48 x_32_ * x_3_ + 40 x_50_ * x_3_ - 16 x_18_ ^ 2 - 36 x_21_ * x_18_ + 40 x_22_ * x_18_ - 60 x_24_ * x_18_ + 16 x_32_ * x_18_ + 90 x_27_ * x_20_ - 72 x_39_ * x_20_ + 66 x_27_ * x_21_ + 4 x_32_ * x_21_ + 29 x_22_ ^ 2 + 18 x_23_ ^ 2 - 42 x_27_ * x_23_ + 40 x_39_ * x_24_ - 48 x_37_ * x_32_ - 56 x_49_ * x_37_ + 44 x_50_ * x_49_ ] <= -7607
quadratic_ranged_11_ub: [ -54 x_4_ * x_2_ + 48 x_32_ * x_2_ - 20 x_18_ * x_4_ + 80 x_28_ * x_4_ - 66 x_32_ * x_4_ - 44 x_17_ ^ 2 + 84 x_23_ * x_17_ + 60 x_33_ * x_17_ - 30 x_41_ * x_17_ + 18 x_18_ ^ 2 + 42 x_23_ * x_18_ + 48 x_32_ * x_18_ + 40 x_33_ * x_23_ + 16 x_32_ * x_27_ + 72 x_48_ * x_27_ + 5 x_28_ ^ 2 + 6 x_41_ * x_28_ + 38 x_48_ * x_33_ - 36 x_46_ * x_41_ ] <= -9809
quadratic_ranged_12_ub: [ 98 x_19_ * x_18_ + 36 x_19_ ^ 2 + 98 x_22_ * x_19_ + 40 x_22_ ^ 2 + 22 x_30_ * x_22_ - 56 x_30_ * x_25_ ] <= -2732
quadratic_ranged_13_ub: [ 49 x_2_ ^ 2 - 76 x_11_ * x_2_ - 68 x_14_ * x_2_ + 80 x_13_ * x_4_ + 44 x_31_ * x_7_ - 22 x_44_ * x_7_ - 60 x_14_ * x_9_ + 52 x_19_ * x_9_ + 48 x_31_ * x_9_ + 10 x_44_ * x_9_ + 38 x_43_ * x_11_ - 40 x_47_ * x_11_ + 100 x_32_ * x_12_ + 58 x_28_ * x_13_ + 70 x_31_ * x_14_ - 60 x_47_ * x_14_ - 9 x_28_ ^ 2 + 36 x_32_ * x_31_ + 6 x_44_ * x_32_ + 76 x_44_ * x_34_ - 82 x_47_ * x_43_ ] <= 2795
quadratic_ranged_14_ub: [ 74 x_20_ * x_3_ + 100 x_42_ * x_4_ - 58 x_20_ * x_18_ - 82 x_34_ * x_18_ - 38 x_45_ * x_18_ - 6 x_49_ * x_18_ - 68 x_26_ * x_20_ + 60 x_42_ * x_20_ - 52 x_48_ * x_20_ - 48 x_50_ * x_20_ + 30 x_26_ ^ 2 + 42 x_40_ * x_26_ + 24 x_40_ * x_32_ + 41 x_34_ ^ 2 - 60 x_40_ * x_34_ + 48 x_48_ * x_34_ + 16 x_49_ * x_34_ - 24 x_50_ * x_40_ - 15 x_42_ ^ 2 - 46 x_45_ ^ 2 + 14 x_49_ ^ 2 ] <= 4464
quadratic_ranged_15_ub: [ -66 x_11_ * x_1_ + 48 x_50_ * x_1_ + 94 x_24_ * x_5_ - 48 x_44_ * x_5_ - 19 x_11_ ^ 2 - 6 x_38_ * x_16_ + 4 x_22_ ^ 2 + 66 x_24_ * x_22_ + 4 x_50_ * x_22_ - 26 x_47_ * x_24_ + 96 x_41_ * x_38_ - 38 x_47_ * x_38_ - 80 x_50_ * x_38_ + 32 x_41_ ^ 2 + 52 x_46_ * x_41_ + 30 x_47_ * x_41_ + 10 x_44_ ^ 2 + 88 x_46_ * x_44_ - 6 x_46_ ^ 2 ] <= 8586
quadratic_ranged_16_ub: [ -10 x_42_ * x_49_ + 52 x_50_ * x_49_ ] <= 778
quadratic_ranged_17_ub: [ 42 x_6_ ^ 2 - 28 x_10_ ^ 2 - 8 x_24_ * x_10_ ] <= -298
quadratic_ranged_18_ub: [ -1 x_3_ ^ 2 - 22 x_49_ * x_3_ + 52 x_39_ * x_14_ + 8 x_41_ * x_14_ + 48 x_49_ * x_29_ - 2 x_39_ * x_37_ - 28 x_45_ * x_38_ + 34 x_49_ * x_38_ - 90 x_45_ * x_39_ + 12 x_47_ * x_44_ + 42 x_47_ * x_45_ + 52 x_49_ * x_47_ ] <= -6958
quadratic_ranged_19_ub: [ 20 x_32_ * x_2_ + 18 x_41_ * x_2_ + 26 x_44_ * x_2_ - 42 x_49_ * x_2_ - 10 x_4_ ^ 2 + 28 x_10_ * x_4_ + 24 x_47_ * x_4_ + 7 x_9_ ^ 2 + 54 x_10_ * x_9_ - 24 x_31_ * x_9_ + 46 x_32_ * x_10_ - 80 x_41_ * x_10_ - 12 x_44_ * x_10_ + 56 x_47_ * x_10_ + 80 x_41_ * x_17_ - 40 x_41_ * x_31_ - 100 x_49_ * x_32_ - 76 x_50_ * x_32_ - 80 x_47_ * x_41_ - 50 x_44_ ^ 2 ] <= -2153
quadratic_ranged_20_ub: [ 19 x_4_ ^ 2 - 86 x_35_ * x_4_ + 74 x_41_ * x_4_ - 50 x_20_ ^ 2 + 82 x_43_ * x_20_ - 12 x_35_ * x_26_ - 82 x_42_ * x_26_ - 12 x_31_ ^ 2 ] <= 6964
quadratic_ranged_21_ub: [ -11 x_4_ ^ 2 + 22 x_11_ * x_4_ + 70 x_33_ * x_4_ - 70 x_43_ * x_4_ + 34 x_13_ * x_8_ + 34 x_11_ ^ 2 - 12 x_12_ * x_11_ - 60 x_24_ * x_11_ - 6 x_26_ * x_11_ - 32 x_43_ * x_11_ - 92 x_18_ * x_12_ + 20 x_13_ ^ 2 - 42 x_39_ * x_24_ - 56 x_43_ * x_24_ + 36 x_48_ * x_26_ - 56 x_48_ * x_33_ - 52 x_50_ * x_43_ ] <= 7882
quadratic_ranged_22_ub: [ -62 x_26_ * x_13_ - 78 x_33_ * x_25_ - 78 x_50_ * x_25_ + 90 x_33_ * x_26_ - 82 x_39_ * x_26_ + 78 x_42_ * x_26_ - 30 x_39_ ^ 2 + 34 x_50_ * x_39_ + 36 x_42_ ^ 2 ] <= -37261
quadratic_ranged_23_ub: [ -4 x_6_ * x_3_ - 92 x_23_ * x_3_ + 2 x_23_ * x_9_ - 40 x_38_ * x_9_ - 82 x_38_ * x_16_ + 30 x_35_ * x_17_ - 42 x_38_ * x_17_ - 20 x_35_ ^ 2 + 8 x_48_ * x_38_ ] <= -11333
quadratic_ranged_24_ub: [ 100 x_26_ * x_1_ - 88 x_28_ * x_1_ + 68 x_36_ * x_1_ - 8 x_30_ * x_15_ - 28 x_35_ * x_15_ + 80 x_23_ * x_21_ + 6 x_22_ ^ 2 + 30 x_23_ * x_22_ - 96 x_30_ * x_26_ + 2 x_28_ ^ 2 + 30 x_34_ * x_30_ + 38 x_35_ * x_34_ - 14 x_36_ ^ 2 ] <= 6044
quadratic_ranged_25_ub: [ -19 x_1_ ^ 2 + 92 x_31_ * x_1_ - 42 x_50_ * x_1_ + 86 x_50_ * x_3_ - 9 x_11_ ^ 2 - 46 x_32_ ^ 2 + 50 x_50_ * x_47_ - 50 x_50_ ^ 2 ] <= -13401
quadratic_ranged_26_ub: [ 74 x_40_ * x_4_ - 98 x_12_ * x_8_ + 64 x_25_ * x_8_ - 92 x_50_ * x_8_ + 44 x_9_ ^ 2 - 98 x_25_ * x_9_ - 80 x_33_ * x_9_ - 96 x_34_ * x_9_ - 14 x_29_ * x_12_ + 94 x_38_ * x_12_ - 40 x_29_ * x_25_ - 46 x_34_ * x_25_ - 16 x_40_ * x_25_ - 52 x_41_ * x_25_ - 46 x_36_ * x_29_ + 8 x_38_ * x_29_ + 78 x_41_ * x_29_ - 42 x_33_ * x_30_ - 26 x_40_ * x_30_ - 82 x_41_ * x_30_ + 36 x_41_ * x_33_ + 40 x_50_ * x_34_ + 46 x_38_ ^ 2 - 34 x_50_ ^ 2 ] <= 5912
quadratic_ranged_27_ub: [ -8 x_27_ * x_2_ + 10 x_30_ * x_2_ - 90 x_14_ * x_3_ + 14 x_16_ * x_3_ + 46 x_30_ * x_3_ + 62 x_35_ * x_3_ - 11 x_6_ ^ 2 + 54 x_15_ * x_6_ - 70 x_16_ * x_13_ + 78 x_20_ * x_13_ + 38 x_19_ * x_14_ - 72 x_20_ * x_14_ - 2 x_30_ * x_14_ + 28 x_27_ * x_15_ + 34 x_30_ * x_20_ - 40 x_35_ * x_20_ - 14 x_49_ * x_27_ ] <= -638
quadratic_ranged_28_ub: [ -12 x_40_ * x_1_ + 74 x_36_ * x_7_ - 32 x_35_ * x_27_ - 2 x_40_ * x_27_ + 54 x_35_ * x_28_ - 14 x_36_ * x_28_ - 54 x_48_ * x_28_ + 6 x_35_ ^ 2 - 82 x_40_ * x_35_ ] <= -3438
quadratic_ranged_29_ub: [ 66 x_40_ * x_12_ + 64 x_29_ * x_15_ - 30 x_39_ * x_15_ + 74 x_37_ * x_20_ - 78 x_31_ * x_21_ - 4 x_37_ * x_21_ + 100 x_39_ * x_27_ - 46 x_29_ ^ 2 - 74 x_40_ * x_29_ - 4 x_40_ * x_34_ - 39 x_37_ ^ 2 - 92 x_40_ * x_37_ + 47 x_39_ ^ 2 ] <= -1068
quadratic_ranged_30_ub: [ 54 x_34_ * x_9_ + 7 x_19_ ^ 2 - 22 x_24_ ^ 2 - 84 x_31_ * x_24_ + 4 x_34_ * x_24_ + 88 x_43_ * x_28_ - 46 x_43_ * x_31_ ] <= 1115
quadratic_ranged_31_ub: [ 92 x_9_ * x_4_ - 6 x_38_ * x_4_ + 74 x_48_ * x_4_ + 62 x_11_ * x_7_ + 48 x_31_ * x_7_ + 62 x_34_ * x_7_ + 20 x_31_ * x_9_ - 8 x_48_ * x_10_ + 56 x_31_ * x_14_ - 52 x_48_ * x_14_ + 45 x_32_ ^ 2 - 82 x_38_ * x_32_ - 64 x_48_ * x_37_ + 36 x_40_ * x_38_ - 13 x_40_ ^ 2 - 38 x_48_ * x_40_ - 36 x_48_ ^ 2 ] <= -9115
quadratic_ranged_32_ub: [ -84 x_36_ * x_2_ + 5 x_3_ ^ 2 + 86 x_18_ * x_3_ + 88 x_35_ * x_3_ - 38 x_48_ * x_15_ + 8 x_18_ ^ 2 - 14 x_35_ * x_23_ + 90 x_36_ * x_27_ - 52 x_48_ * x_35_ ] <= -11285
quadratic_ranged_33_ub: [ -32 x_39_ * x_1_ + 12 x_45_ * x_1_ - 54 x_5_ * x_4_ - 10 x_7_ * x_4_ + 3 x_5_ ^ 2 + 70 x_45_ * x_5_ - 100 x_19_ * x_7_ + 38 x_42_ * x_19_ + 14 x_42_ ^ 2 ] <= 8597
quadratic_ranged_34_ub: [ -54 x_13_ * x_2_ - 64 x_18_ * x_2_ - 90 x_20_ * x_2_ - 92 x_48_ * x_2_ - 32 x_31_ * x_10_ - 48 x_49_ * x_10_ - 22 x_18_ ^ 2 - 60 x_29_ * x_18_ + 6 x_31_ * x_18_ - 64 x_49_ * x_18_ - 82 x_29_ * x_20_ - 86 x_48_ * x_20_ + 64 x_48_ * x_31_ + 84 x_49_ * x_31_ - 49 x_49_ ^ 2 ] <= -24591
quadratic_ranged_35_ub: [ 74 x_26_ * x_3_ - 28 x_40_ * x_3_ + 34 x_30_ * x_7_ - 78 x_47_ * x_7_ + 52 x_34_ * x_8_ + 84 x_40_ * x_12_ + 15 x_14_ ^ 2 + 4 x_34_ * x_14_ + 28 x_47_ * x_14_ + 80 x_30_ * x_17_ - 6 x_34_ * x_17_ - 8 x_26_ * x_25_ + 14 x_30_ * x_26_ ] <= -7726
quadratic_ranged_36_ub: [ -42 x_16_ * x_2_ - 90 x_27_ * x_2_ + 54 x_38_ * x_2_ + 37 x_3_ ^ 2 + 66 x_5_ * x_3_ + 26 x_5_ ^ 2 + 47 x_9_ ^ 2 - 52 x_41_ * x_27_ ] <= 12954
quadratic_ranged_37_ub: [ -18 x_36_ * x_3_ + 8 x_42_ * x_3_ - 62 x_23_ * x_4_ - 62 x_31_ * x_4_ + 2 x_36_ * x_4_ + 2 x_36_ * x_9_ - 86 x_27_ * x_23_ + 40 x_31_ * x_23_ + 84 x_36_ * x_23_ + 20 x_31_ * x_27_ - 42 x_42_ * x_27_ + 30 x_50_ * x_27_ + 4 x_31_ ^ 2 - 90 x_42_ * x_31_ - 18 x_36_ ^ 2 - 26 x_50_ * x_36_ ] <= 978
quadratic_ranged_38_ub: [ -48 x_2_ * x_3_ - 12 x_25_ * x_2_ + 4 x_43_ * x_17_ + 42 x_47_ * x_17_ - 82 x_48_ * x_21_ - 38 x_48_ * x_22_ + 10 x_43_ * x_25_ + 50 x_48_ * x_25_ + 28 x_48_ * x_43_ ] <= 1364
quadratic_ranged_39_ub: [ -60 x_7_ * x_4_ - 70 x_8_ * x_4_ - 82 x_42_ * x_4_ + 20 x_21_ * x_8_ - 14 x_37_ * x_8_ - 8 x_13_ ^ 2 - 16 x_21_ * x_13_ - 30 x_37_ * x_21_ - 100 x_24_ * x_23_ + 48 x_37_ * x_24_ - 64 x_42_ * x_33_ - 45 x_37_ ^ 2 + 20 x_42_ ^ 2 ] <= -7891
quadratic_ranged_40_ub: [ -20 x_17_ * x_8_ + 74 x_47_ * x_8_ - 6 x_17_ * x_16_ - 60 x_31_ * x_16_ + 46 x_47_ * x_17_ + 28 x_31_ * x_19_ - 46 x_38_ ^ 2 ] <= -2983
quadratic_ranged_41_ub: [ 86 x_50_ * x_11_ - 60 x_19_ * x_12_ - 10 x_50_ * x_12_ - 18 x_50_ * x_19_ - 38 x_29_ * x_22_ - 40 x_48_ * x_22_ - 16 x_29_ ^ 2 - 14 x_46_ ^ 2 ] <= 4784
quadratic_ranged_42_ub: [ -47 x_4_ ^ 2 - 88 x_5_ * x_4_ - 6 x_5_ ^ 2 + 36 x_37_ * x_13_ + 26 x_43_ * x_13_ + 12 x_31_ * x_17_ + 90 x_31_ * x_19_ - 68 x_37_ * x_31_ + 42 x_43_ * x_37_ - 49 x_43_ ^ 2 ] <= -4252
quadratic_ranged_43_ub: [ 58 x_43_ * x_7_ + 54 x_49_ * x_7_ + 21 x_18_ ^ 2 - 60 x_33_ * x_18_ - 12 x_33_ * x_21_ + 50 x_49_ * x_21_ + 100 x_43_ * x_30_ + 18 x_43_ * x_32_ + 30 x_37_ * x_33_ - 16 x_43_ * x_33_ + 42 x_43_ * x_37_ - 46 x_49_ ^ 2 ] <= -6467
quadratic_ranged_44_ub: [ 32 x_27_ * x_19_ + 12 x_40_ * x_19_ + 36 x_27_ ^ 2 + 42 x_35_ ^ 2 - 47 x_40_ ^ 2 ] <= 1979
quadratic_ranged_45_ub: [ -16 x_35_ * x_4_ + 18 x_45_ * x_4_ + 26 x_35_ * x_6_ - 8 x_36_ * x_6_ - 42 x_39_ * x_6_ - 38 x_45_ * x_6_ - 46 x_20_ ^ 2 + 90 x_45_ * x_20_ + 82 x_39_ * x_28_ + 82 x_35_ * x_29_ + 4 x_36_ * x_35_ - 10 x_45_ * x_35_ - 56 x_48_ * x_35_ + 8 x_39_ ^ 2 - 54 x_48_ * x_45_ ] <= -1438
quadratic_ranged_46_ub: [ 94 x_38_ * x_4_ + 14 x_14_ * x_13_ - 11 x_46_ ^ 2 ] <= -3616
quadratic_ranged_47_ub: [ 46 x_6_ * x_2_ - 100 x_15_ * x_2_ + 42 x_33_ * x_2_ - 44 x_34_ * x_2_ + 64 x_49_ * x_2_ + 64 x_49_ * x_6_ - 23 x_15_ ^ 2 - 18 x_19_ * x_15_ - 16 x_34_ * x_15_ + 90 x_36_ * x_15_ - 26 x_19_ ^ 2 + 36 x_32_ * x_19_ - 62 x_34_ * x_19_ + 11 x_33_ ^ 2 - 2 x_36_ * x_34_ + 15 x_36_ ^ 2 ] <= 7714
quadratic_ranged_48_ub: [ -12 x_4_ * x_17_ + 78 x_25_ * x_4_ + 48 x_26_ * x_4_ - 86 x_31_ * x_4_ - 54 x_26_ * x_6_ - 24 x_17_ * x_9_ + 94 x_26_ * x_9_ + 48 x_27_ * x_9_ + 20 x_29_ * x_9_ - 36 x_43_ * x_9_ + 88 x_26_ * x_25_ - 4 x_27_ * x_25_ - 48 x_30_ * x_25_ + 74 x_29_ * x_26_ + 54 x_30_ * x_26_ - 68 x_31_ * x_26_ - 86 x_30_ * x_27_ + 42 x_43_ * x_27_ - 60 x_30_ * x_29_ ] <= -8238
quadratic_ranged_49_ub: [ 30 x_11_ * x_3_ - 40 x_35_ * x_3_ + 44 x_40_ * x_3_ - 18 x_40_ * x_9_ - 64 x_43_ * x_9_ - 48 x_22_ * x_11_ - 88 x_25_ * x_11_ + 96 x_43_ * x_11_ - 50 x_50_ * x_11_ - 70 x_40_ * x_25_ + 14 x_34_ ^ 2 - 42 x_50_ * x_40_ ] <= -12655
quadratic_ranged_50_ub: [ 18 x_9_ ^ 2 + 23 x_17_ ^ 2 + 76 x_20_ * x_17_ + 36 x_47_ * x_17_ ] <= 2390
quadratic_ranged_51_ub: [ 62 x_17_ * x_5_ - 42 x_30_ * x_5_ + 34 x_31_ * x_5_ - 100 x_27_ * x_11_ - 80 x_31_ * x_11_ + 33 x_12_ ^ 2 - 78 x_27_ * x_12_ + 98 x_30_ * x_12_ - 10 x_27_ * x_13_ + 50 x_30_ * x_13_ + 30 x_27_ * x_17_ - 50 x_31_ * x_27_ ] <= -7083
quadratic_ranged_52_ub: [ 25 x_13_ ^ 2 + 94 x_44_ * x_13_ - 84 x_33_ * x_15_ - 5 x_19_ ^ 2 - 24 x_40_ * x_19_ - 8 x_26_ * x_20_ - 92 x_33_ * x_20_ - 56 x_40_ * x_20_ + 4 x_26_ ^ 2 + 78 x_44_ * x_33_ + 78 x_44_ * x_40_ ] <= 1724
quadratic_ranged_53_ub: [ 30 x_4_ ^ 2 + 25 x_15_ ^ 2 ] <= 1708
quadratic_ranged_54_ub: [ -42 x_39_ * x_16_ + 38 x_39_ * x_23_ + 19 x_39_ ^ 2 ] <= -276
quadratic_ranged_55_ub: [ 20 x_7_ ^ 2 + 50 x_31_ * x_7_ - 98 x_33_ * x_7_ + 76 x_37_ * x_7_ + 8 x_42_ * x_7_ + 20 x_48_ * x_7_ - 18 x_16_ * x_8_ - 60 x_33_ * x_8_ - 20 x_42_ * x_8_ - 45 x_14_ ^ 2 - 84 x_31_ * x_14_ + 66 x_37_ * x_14_ + 66 x_48_ * x_14_ - 14 x_16_ ^ 2 - 34 x_31_ * x_16_ + 92 x_48_ * x_16_ + 20 x_48_ * x_21_ - 98 x_34_ * x_31_ - 40 x_34_ * x_33_ - 66 x_48_ * x_34_ - 38 x_48_ ^ 2 ] <= -3464
quadratic_ranged_56_ub: [ -10 x_10_ * x_4_ - 46 x_5_ ^ 2 - 80 x_47_ * x_5_ - 16 x_30_ * x_10_ + 38 x_20_ * x_15_ - 50 x_26_ * x_15_ - 24 x_20_ ^ 2 + 22 x_30_ * x_20_ - 46 x_38_ * x_30_ ] <= 4109
quadratic_ranged_57_ub: [ -16 x_25_ * x_1_ + 26 x_13_ * x_7_ - 8 x_28_ * x_7_ + 18 x_31_ * x_7_ - 8 x_13_ ^ 2 - 64 x_25_ * x_13_ + 86 x_40_ * x_13_ + 70 x_25_ * x_16_ - 38 x_28_ * x_16_ - 24 x_29_ * x_16_ + 12 x_31_ * x_16_ + 28 x_43_ * x_16_ - 8 x_25_ * x_20_ - 2 x_21_ ^ 2 + 20 x_25_ * x_21_ + 10 x_31_ * x_21_ + 50 x_25_ ^ 2 + 60 x_31_ * x_25_ - 2 x_40_ * x_25_ + 36 x_43_ * x_28_ ] <= 1703
quadratic_ranged_58_ub: [ -26 x_11_ * x_2_ + 12 x_6_ * x_5_ + 18 x_11_ * x_5_ + 64 x_17_ * x_5_ + 20 x_6_ ^ 2 - 22 x_11_ * x_6_ - 98 x_17_ * x_6_ + 2 x_22_ * x_11_ - 90 x_31_ * x_11_ - 60 x_28_ * x_17_ + 50 x_49_ * x_17_ - 58 x_33_ * x_22_ - 22 x_34_ * x_22_ + 74 x_33_ * x_29_ - 46 x_36_ * x_29_ + 56 x_49_ * x_29_ + 26 x_49_ * x_33_ + 24 x_46_ * x_36_ ] <= 11177
quadratic_ranged_59_ub: [ 64 x_22_ * x_10_ + 68 x_31_ * x_10_ + 27 x_11_ ^ 2 - 94 x_49_ * x_11_ - 44 x_22_ ^ 2 + 30 x_42_ * x_22_ - 88 x_42_ * x_24_ + 42 x_47_ * x_24_ - 48 x_50_ * x_24_ - 50 x_42_ * x_31_ - 68 x_37_ * x_34_ - 48 x_44_ * x_34_ + 38 x_49_ * x_37_ - 32 x_50_ * x_37_ + 16 x_47_ * x_44_ + 56 x_50_ * x_44_ - 68 x_49_ * x_47_ + 10 x_50_ * x_47_ ] <= -138
quadratic_ranged_60_ub: [ -45 x_10_ ^ 2 - 36 x_18_ * x_16_ - 6 x_24_ * x_16_ + 60 x_32_ * x_16_ + 88 x_40_ * x_16_ + 92 x_32_ * x_18_ + 72 x_39_ * x_18_ + 48 x_43_ * x_18_ - 84 x_32_ * x_24_ - 14 x_36_ * x_32_ - 88 x_40_ * x_32_ + 24 x_36_ ^ 2 - 48 x_37_ * x_36_ + 26 x_39_ * x_36_ + 8 x_37_ ^ 2 + 18 x_40_ * x_37_ ] <= -10559
quadratic_ranged_61_ub: [ -96 x_26_ * x_1_ + 14 x_21_ * x_2_ - 3 x_16_ ^ 2 + 22 x_42_ * x_16_ - 92 x_44_ * x_16_ - 32 x_21_ * x_17_ + 8 x_44_ * x_17_ - 60 x_49_ * x_17_ + 94 x_26_ * x_21_ + 30 x_42_ * x_24_ - 84 x_44_ * x_24_ - 10 x_26_ ^ 2 - 18 x_44_ * x_26_ ] <= 2141
quadratic_ranged_1_lb: [ 44 x_41_ * x_13_ + 72 x_44_ * x_13_ + 40 x_38_ ^ 2 + 44 x_48_ * x_41_ + 16 x_50_ * x_41_ + 6 x_43_ ^ 2 - 54 x_48_ * x_43_ ] >= 6575
quadratic_ranged_2_lb: [ 10 x_12_ * x_5_ + 20 x_43_ * x_15_ + 14 x_47_ * x_15_ - 60 x_28_ * x_23_ + 94 x_47_ * x_23_ - 13 x_28_ ^ 2 - 70 x_43_ * x_28_ - 96 x_35_ * x_33_ - 32 x_43_ * x_33_ + 22 x_43_ ^ 2 ] >= 11652
quadratic_ranged_3_lb: [ 52 x_29_ * x_1_ - 80 x_32_ * x_1_ - 46 x_49_ * x_1_ + 56 x_41_ * x_5_ + 22 x_9_ ^ 2 + 23 x_49_ ^ 2 ] >= 4357
quadratic_ranged_4_lb: [ 66 x_36_ * x_2_ - 52 x_50_ * x_2_ + 98 x_34_ * x_31_ + 66 x_45_ * x_31_ + 2 x_50_ * x_31_ + 58 x_38_ * x_34_ - 44 x_38_ * x_36_ - 42 x_45_ * x_36_ - 40 x_50_ * x_45_ - 5 x_50_ ^ 2 ] >= 16894
quadratic_ranged_5_lb: [ -62 x_11_ * x_4_ - 86 x_23_ * x_4_ - 40 x_26_ * x_4_ - 10 x_39_ * x_4_ - 94 x_44_ * x_4_ - 38 x_11_ ^ 2 + 36 x_23_ * x_11_ - 60 x_44_ * x_11_ - 24 x_44_ * x_16_ + 66 x_21_ * x_19_ + 74 x_26_ * x_19_ - 100 x_44_ * x_19_ - 96 x_47_ * x_19_ - 40 x_21_ ^ 2 + 4 x_26_ * x_21_ + 14 x_39_ * x_21_ - 98 x_39_ * x_23_ - 48 x_44_ * x_23_ + 64 x_47_ * x_25_ - 26 x_44_ * x_26_ + 62 x_39_ * x_37_ - 54 x_44_ * x_37_ - 92 x_47_ * x_37_ - 2 x_44_ ^ 2 ] >= -9890
quadratic_ranged_6_lb: [ -50 x_14_ * x_4_ - 60 x_16_ * x_4_ + 36 x_36_ * x_4_ - 42 x_17_ * x_11_ - 86 x_40_ * x_11_ + 8 x_43_ * x_11_ + 26 x_14_ ^ 2 - 66 x_26_ * x_14_ - 54 x_43_ * x_14_ + 78 x_27_ * x_16_ - 52 x_40_ * x_16_ - 28 x_28_ * x_23_ + 76 x_43_ * x_23_ + 42 x_36_ * x_26_ - 94 x_43_ * x_26_ - 80 x_36_ * x_27_ ] >= 6329
quadratic_ranged_7_lb: [ -32 x_1_ ^ 2 - 26 x_45_ * x_1_ - 90 x_47_ * x_1_ + 44 x_9_ * x_2_ + 78 x_50_ * x_2_ + 42 x_18_ * x_9_ - 20 x_45_ * x_9_ + 64 x_50_ * x_9_ + 17 x_10_ ^ 2 - 20 x_50_ * x_10_ - 12 x_45_ * x_18_ + 8 x_45_ ^ 2 ] >= -3611
quadratic_ranged_8_lb: [ 24 x_13_ * x_5_ + 76 x_28_ * x_5_ + 48 x_43_ * x_5_ + 33 x_13_ ^ 2 - 90 x_43_ * x_28_ - 92 x_50_ * x_43_ ] >= 9117
quadratic_ranged_9_lb: [ -18 x_8_ ^ 2 + 66 x_35_ * x_8_ + 2 x_32_ * x_22_ - 10 x_39_ * x_32_ - 2 x_44_ * x_32_ - 60 x_44_ * x_35_ + 92 x_39_ * x_36_ - 52 x_43_ * x_39_ + 34 x_44_ ^ 2 ] >= -4489
quadratic_ranged_10_lb: [ 94 x_27_ * x_1_ + 86 x_37_ * x_1_ - 90 x_3_ * x_2_ - 66 x_20_ * x_2_ + 88 x_21_ * x_2_ - 86 x_23_ * x_2_ + 88 x_39_ * x_2_ - 11 x_3_ ^ 2 + 90 x_22_ * x_3_ - 48 x_32_ * x_3_ + 40 x_50_ * x_3_ - 16 x_18_ ^ 2 - 36 x_21_ * x_18_ + 40 x_22_ * x_18_ - 60 x_24_ * x_18_ + 16 x_32_ * x_18_ + 90 x_27_ * x_20_ - 72 x_39_ * x_20_ + 66 x_27_ * x_21_ + 4 x_32_ * x_21_ + 29 x_22_ ^ 2 + 18 x_23_ ^ 2 - 42 x_27_ * x_23_ + 40 x_39_ * x_24_ - 48 x_37_ * x_32_ - 56 x_49_ * x_37_ + 44 x_50_ * x_49_ ] >= -7612
quadratic_ranged_11_lb: [ -54 x_4_ * x_2_ + 48 x_32_ * x_2_ - 20 x_18_ * x_4_ + 80 x_28_ * x_4_ - 66 x_32_ * x_4_ - 44 x_17_ ^ 2 + 84 x_23_ * x_17_ + 60 x_33_ * x_17_ - 30 x_41_ * x_17_ + 18 x_18_ ^ 2 + 42 x_23_ * x_18_ + 48 x_32_ * x_18_ + 40 x_33_ * x_23_ + 16 x_32_ * x_27_ + 72 x_48_ * x_27_ + 5 x_28_ ^ 2 + 6 x_41_ * x_28_ + 38 x_48_ * x_33_ - 36 x_46_ * x_41_ ] >= -9815
quadratic_ranged_12_lb: [ 98 x_19_ * x_18_ + 36 x_19_ ^ 2 + 98 x_22_ * x_19_ + 40 x_22_ ^ 2 + 22 x_30_ * x_22_ - 56 x_30_ * x_25_ ] >= -2737
quadratic_ranged_13_lb: [ 49 x_2_ ^ 2 - 76 x_11_ * x_2_ - 68 x_14_ * x_2_ + 80 x_13_ * x_4_ + 44 x_31_ * x_7_ - 22 x_44_ * x_7_ - 60 x_14_ * x_9_ + 52 x_19_ * x_9_ + 48 x_31_ * x_9_ + 10 x_44_ * x_9_ + 38 x_43_ * x_11_ - 40 x_47_ * x_11_ + 100 x_32_ * x_12_ + 58 x_28_ * x_13_ + 70 x_31_ * x_14_ - 60 x_47_ * x_14_ - 9 x_28_ ^ 2 + 36 x_32_ * x_31_ + 6 x_44_ * x_32_ + 76 x_44_ * x_34_ - 82 x_47_ * x_43_ ] >= 2787
quadratic_ranged_14_lb: [ 74 x_20_ * x_3_ + 100 x_42_ * x_4_ - 58 x_20_ * x_18_ - 82 x_34_ * x_18_ - 38 x_45_ * x_18_ - 6 x_49_ * x_18_ - 68 x_26_ * x_20_ + 60 x_42_ * x_20_ - 52 x_48_ * x_20_ - 48 x_50_ * x_20_ + 30 x_26_ ^ 2 + 42 x_40_ * x_26_ + 24 x_40_ * x_32_ + 41 x_34_ ^ 2 - 60 x_40_ * x_34_ + 48 x_48_ * x_34_ + 16 x_49_ * x_34_ - 24 x_50_ * x_40_ - 15 x_42_ ^ 2 - 46 x_45_ ^ 2 + 14 x_49_ ^ 2 ] >= 4461
quadratic_ranged_15_lb: [ -66 x_11_ * x_1_ + 48 x_50_ * x_1_ + 94 x_24_ * x_5_ - 48 x_44_ * x_5_ - 19 x_11_ ^ 2 - 6 x_38_ * x_16_ + 4 x_22_ ^ 2 + 66 x_24_ * x_22_ + 4 x_50_ * x_22_ - 26 x_47_ * x_24_ + 96 x_41_ * x_38_ - 38 x_47_ * x_38_ - 80 x_50_ * x_38_ + 32 x_41_ ^ 2 + 52 x_46_ * x_41_ + 30 x_47_ * x_41_ + 10 x_44_ ^ 2 + 88 x_46_ * x_44_ - 6 x_46_ ^ 2 ] >= 8577
quadratic_ranged_16_lb: [ -10 x_42_ * x_49_ + 52 x_50_ * x_49_ ] >= 772
quadratic_ranged_17_lb: [ 42 x_6_ ^ 2 - 28 x_10_ ^ 2 - 8 x_24_ * x_10_ ] >= -300
quadratic_ranged_18_lb: [ -1 x_3_ ^ 2 - 22 x_49_ * x_3_ + 52 x_39_ * x_14_ + 8 x_41_ * x_14_ + 48 x_49_ * x_29_ - 2 x_39_ * x_37_ - 28 x_45_ * x_38_ + 34 x_49_ * x_38_ - 90 x_45_ * x_39_ + 12 x_47_ * x_44_ + 42 x_47_ * x_45_ + 52 x_49_ * x_47_ ] >= -6962
quadratic_ranged_19_lb: [ 20 x_32_ * x_2_ + 18 x_41_ * x_2_ + 26 x_44_ * x_2_ - 42 x_49_ * x_2_ - 10 x_4_ ^ 2 + 28 x_10_ * x_4_ + 24 x_47_ * x_4_ + 7 x_9_ ^ 2 + 54 x_10_ * x_9_ - 24 x_31_ * x_9_ + 46 x_32_ * x_10_ - 80 x_41_ * x_10_ - 12 x_44_ * x_10_ + 56 x_47_ * x_10_ + 80 x_41_ * x_17_ - 40 x_41_ * x_31_ - 100 x_49_ * x_32_ - 76 x_50_ * x_32_ - 80 x_47_ * x_41_ - 50 x_44_ ^ 2 ] >= -2160
quadratic_ranged_20_lb: [ 19 x_4_ ^ 2 - 86 x_35_ * x_4_ + 74 x_41_ * x_4_ - 50 x_20_ ^ 2 + 82 x_43_ * x_20_ - 12 x_35_ * x_26_ - 82 x_42_ * x_26_ - 12 x_31_ ^ 2 ] >= 6958
quadratic_ranged_21_lb: [ -11 x_4_ ^ 2 + 22 x_11_ * x_4_ + 70 x_33_ * x_4_ - 70 x_43_ * x_4_ + 34 x_13_ * x_8_ + 34 x_11_ ^ 2 - 12 x_12_ * x_11_ - 60 x_24_ * x_11_ - 6 x_26_ * x_11_ - 32 x_43_ * x_11_ - 92 x_18_ * x_12_ + 20 x_13_ ^ 2 - 42 x_39_ * x_24_ - 56 x_43_ * x_24_ + 36 x_48_ * x_26_ - 56 x_48_ * x_33_ - 52 x_50_ * x_43_ ] >= 7873
quadratic_ranged_22_lb: [ -62 x_26_ * x_13_ - 78 x_33_ * x_25_ - 78 x_50_ * x_25_ + 90 x_33_ * x_26_ - 82 x_39_ * x_26_ + 78 x_42_ * x_26_ - 30 x_39_ ^ 2 + 34 x_50_ * x_39_ + 36 x_42_ ^ 2 ] >= -37267
quadratic_ranged_23_lb: [ -4 x_6_ * x_3_ - 92 x_23_ * x_3_ + 2 x_23_ * x_9_ - 40 x_38_ * x_9_ - 82 x_38_ * x_16_ + 30 x_35_ * x_17_ - 42 x_38_ * x_17_ - 20 x_35_ ^ 2 + 8 x_48_ * x_38_ ] >= -11338
quadratic_ranged_24_lb: [ 100 x_26_ * x_1_ - 88 x_28_ * x_1_ + 68 x_36_ * x_1_ - 8 x_30_ * x_15_ - 28 x_35_ * x_15_ + 80 x_23_ * x_21_ + 6 x_22_ ^ 2 + 30 x_23_ * x_22_ - 96 x_30_ * x_26_ + 2 x_28_ ^ 2 + 30 x_34_ * x_30_ + 38 x_35_ * x_34_ - 14 x_36_ ^ 2 ] >= 6042
quadratic_ranged_25_lb: [ -19 x_1_ ^ 2 + 92 x_31_ * x_1_ - 42 x_50_ * x_1_ + 86 x_50_ * x_3_ - 9 x_11_ ^ 2 - 46 x_32_ ^ 2 + 50 x_50_ * x_47_ - 50 x_50_ ^ 2 ] >= -13406
quadratic_ranged_26_lb: [ 74 x_40_ * x_4_ - 98 x_12_ * x_8_ + 64 x_25_ * x_8_ - 92 x_50_ * x_8_ + 44 x_9_ ^ 2 - 98 x_25_ * x_9_ - 80 x_33_ * x_9_ - 96 x_34_ * x_9_ - 14 x_29_ * x_12_ + 94 x_38_ * x_12_ - 40 x_29_ * x_25_ - 46 x_34_ * x_25_ - 16 x_40_ * x_25_ - 52 x_41_ * x_25_ - 46 x_36_ * x_29_ + 8 x_38_ * x_29_ + 78 x_41_ * x_29_ - 42 x_33_ * x_30_ - 26 x_40_ * x_30_ - 82 x_41_ * x_30_ + 36 x_41_ * x_33_ + 40 x_50_ * x_34_ + 46 x_38_ ^ 2 - 34 x_50_ ^ 2 ] >= 5903
quadratic_ranged_27_lb: [ -8 x_27_ * x_2_ + 10 x_30_ * x_2_ - 90 x_14_ * x_3_ + 14 x_16_ * x_3_ + 46 x_30_ * x_3_ + 62 x_35_ * x_3_ - 11 x_6_ ^ 2 + 54 x_15_ * x_6_ - 70 x_16_ * x_13_ + 78 x_20_ * x_13_ + 38 x_19_ * x_14_ - 72 x_20_ * x_14_ - 2 x_30_ * x_14_ + 28 x_27_ * x_15_ + 34 x_30_ * x_20_ - 40 x_35_ * x_20_ - 14 x_49_ * x_27_ ] >= -644
quadratic_ranged_28_lb: [ -12 x_40_ * x_1_ + 74 x_36_ * x_7_ - 32 x_35_ * x_27_ - 2 x_40_ * x_27_ + 54 x_35_ * x_28_ - 14 x_36_ * x_28_ - 54 x_48_ * x_28_ + 6 x_35_ ^ 2 - 82 x_40_ * x_35_ ] >= -3446
quadratic_ranged_29_lb: [ 66 x_40_ * x_12_ + 64 x_29_ * x_15_ - 30 x_39_ * x_15_ + 74 x_37_ * x_20_ - 78 x_31_ * x_21_ - 4 x_37_ * x_21_ + 100 x_39_ * x_27_ - 46 x_29_ ^ 2 - 74 x_40_ * x_29_ - 4 x_40_ * x_34_ - 39 x_37_ ^ 2 - 92 x_40_ * x_37_ + 47 x_39_ ^ 2 ] >= -1077
quadratic_ranged_30_lb: [ 54 x_34_ * x_9_ + 7 x_19_ ^ 2 - 22 x_24_ ^ 2 - 84 x_31_ * x_24_ + 4 x_34_ * x_24_ + 88 x_43_ * x_28_ - 46 x_43_ * x_31_ ] >= 1108
quadratic_ranged_31_lb: [ 92 x_9_ * x_4_ - 6 x_38_ * x_4_ + 74 x_48_ * x_4_ + 62 x_11_ * x_7_ + 48 x_31_ * x_7_ + 62 x_34_ * x_7_ + 20 x_31_ * x_9_ - 8 x_48_ * x_10_ + 56 x_31_ * x_14_ - 52 x_48_ * x_14_ + 45 x_32_ ^ 2 - 82 x_38_ * x_32_ - 64 x_48_ * x_37_ + 36 x_40_ * x_38_ - 13 x_40_ ^ 2 - 38 x_48_ * x_40_ - 36 x_48_ ^ 2 ] >= -9117
quadratic_ranged_32_lb: [ -84 x_36_ * x_2_ + 5 x_3_ ^ 2 + 86 x_18_ * x_3_ + 88 x_35_ * x_3_ - 38 x_48_ * x_15_ + 8 x_18_ ^ 2 - 14 x_35_ * x_23_ + 90 x_36_ * x_27_ - 52 x_48_ * x_35_ ] >= -11293
quadratic_ranged_33_lb: [ -32 x_39_ * x_1_ + 12 x_45_ * x_1_ - 54 x_5_ * x_4_ - 10 x_7_ * x_4_ + 3 x_5_ ^ 2 + 70 x_45_ * x_5_ - 100 x_19_ * x_7_ + 38 x_42_ * x_19_ + 14 x_42_ ^ 2 ] >= 8593
quadratic_ranged_34_lb: [ -54 x_13_ * x_2_ - 64 x_18_ * x_2_ - 90 x_20_ * x_2_ - 92 x_48_ * x_2_ - 32 x_31_ * x_10_ - 48 x_49_ * x_10_ - 22 x_18_ ^ 2 - 60 x_29_ * x_18_ + 6 x_31_ * x_18_ - 64 x_49_ * x_18_ - 82 x_29_ * x_20_ - 86 x_48_ * x_20_ + 64 x_48_ * x_31_ + 84 x_49_ * x_31_ - 49 x_49_ ^ 2 ] >= -24593
quadratic_ranged_35_lb: [ 74 x_26_ * x_3_ - 28 x_40_ * x_3_ + 34 x_30_ * x_7_ - 78 x_47_ * x_7_ + 52 x_34_ * x_8_ + 84 x_40_ * x_12_ + 15 x_14_ ^ 2 + 4 x_34_ * x_14_ + 28 x_47_ * x_14_ + 80 x_30_ * x_17_ - 6 x_34_ * x_17_ - 8 x_26_ * x_25_ + 14 x_30_ * x_26_ ] >= -7728
quadratic_ranged_36_lb: [ -42 x_16_ * x_2_ - 90 x_27_ * x_2_ + 54 x_38_ * x_2_ + 37 x_3_ ^ 2 + 66 x_5_ * x_3_ + 26 x_5_ ^ 2 + 47 x_9_ ^ 2 - 52 x_41_ * x_27_ ] >= 12946
quadratic_ranged_37_lb: [ -18 x_36_ * x_3_ + 8 x_42_ * x_3_ - 62 x_23_ * x_4_ - 62 x_31_ * x_4_ + 2 x_36_ * x_4_ + 2 x_36_ * x_9_ - 86 x_27_ * x_23_ + 40 x_31_ * x_23_ + 84 x_36_ * x_23_ + 20 x_31_ * x_27_ - 42 x_42_ * x_27_ + 30 x_50_ * x_27_ + 4 x_31_ ^ 2 - 90 x_42_ * x_31_ - 18 x_36_ ^ 2 - 26 x_50_ * x_36_ ] >= 974
quadratic_ranged_38_lb: [ -48 x_2_ * x_3_ - 12 x_25_ * x_2_ + 4 x_43_ * x_17_ + 42 x_47_ * x_17_ - 82 x_48_ * x_21_ - 38 x_48_ * x_22_ + 10 x_43_ * x_25_ + 50 x_48_ * x_25_ + 28 x_48_ * x_43_ ] >= 1355
quadratic_ranged_39_lb: [ -60 x_7_ * x_4_ - 70 x_8_ * x_4_ - 82 x_42_ * x_4_ + 20 x_21_ * x_8_ - 14 x_37_ * x_8_ - 8 x_13_ ^ 2 - 16 x_21_ * x_13_ - 30 x_37_ * x_21_ - 100 x_24_ * x_23_ + 48 x_37_ * x_24_ - 64 x_42_ * x_33_ - 45 x_37_ ^ 2 + 20 x_42_ ^ 2 ] >= -7898
quadratic_ranged_40_lb: [ -20 x_17_ * x_8_ + 74 x_47_ * x_8_ - 6 x_17_ * x_16_ - 60 x_31_ * x_16_ + 46 x_47_ * x_17_ + 28 x_31_ * x_19_ - 46 x_38_ ^ 2 ] >= -2986
quadratic_ranged_41_lb: [ 86 x_50_ * x_11_ - 60 x_19_ * x_12_ - 10 x_50_ * x_12_ - 18 x_50_ * x_19_ - 38 x_29_ * x_22_ - 40 x_48_ * x_22_ - 16 x_29_ ^ 2 - 14 x_46_ ^ 2 ] >= 4779
quadratic_ranged_42_lb: [ -47 x_4_ ^ 2 - 88 x_5_ * x_4_ - 6 x_5_ ^ 2 + 36 x_37_ * x_13_ + 26 x_43_ * x_13_ + 12 x_31_ * x_17_ + 90 x_31_ * x_19_ - 68 x_37_ * x_31_ + 42 x_43_ * x_37_ - 49 x_43_ ^ 2 ] >= -4261
quadratic_ranged_43_lb: [ 58 x_43_ * x_7_ + 54 x_49_ * x_7_ + 21 x_18_ ^ 2 - 60 x_33_ * x_18_ - 12 x_33_ * x_21_ + 50 x_49_ * x_21_ + 100 x_43_ * x_30_ + 18 x_43_ * x_32_ + 30 x_37_ * x_33_ - 16 x_43_ * x_33_ + 42 x_43_ * x_37_ - 46 x_49_ ^ 2 ] >= -6477
quadratic_ranged_44_lb: [ 32 x_27_ * x_19_ + 12 x_40_ * x_19_ + 36 x_27_ ^ 2 + 42 x_35_ ^ 2 - 47 x_40_ ^ 2 ] >= 1976
quadratic_ranged_45_lb: [ -16 x_35_ * x_4_ + 18 x_45_ * x_4_ + 26 x_35_ * x_6_ - 8 x_36_ * x_6_ - 42 x_39_ * x_6_ - 38 x_45_ * x_6_ - 46 x_20_ ^ 2 + 90 x_45_ * x_20_ + 82 x_39_ * x_28_ + 82 x_35_ * x_29_ + 4 x_36_ * x_35_ - 10 x_45_ * x_35_ - 56 x_48_ * x_35_ + 8 x_39_ ^ 2 - 54 x_48_ * x_45_ ] >= -1439
quadratic_ranged_46_lb: [ 94 x_38_ * x_4_ + 14 x_14_ * x_13_ - 11 x_46_ ^ 2 ] >= -3622
quadratic_ranged_47_lb: [ 46 x_6_ * x_2_ - 100 x_15_ * x_2_ + 42 x_33_ * x_2_ - 44 x_34_ * x_2_ + 64 x_49_ * x_2_ + 64 x_49_ * x_6_ - 23 x_15_ ^ 2 - 18 x_19_ * x_15_ - 16 x_34_ * x_15_ + 90 x_36_ * x_15_ - 26 x_19_ ^ 2 + 36 x_32_ * x_19_ - 62 x_34_ * x_19_ + 11 x_33_ ^ 2 - 2 x_36_ * x_34_ + 15 x_36_ ^ 2 ] >= 7707
quadratic_ranged_48_lb: [ -12 x_4_ * x_17_ + 78 x_25_ * x_4_ + 48 x_26_ * x_4_ - 86 x_31_ * x_4_ - 54 x_26_ * x_6_ - 24 x_17_ * x_9_ + 94 x_26_ * x_9_ + 48 x_27_ * x_9_ + 20 x_29_ * x_9_ - 36 x_43_ * x_9_ + 88 x_26_ * x_25_ - 4 x_27_ * x_25_ - 48 x_30_ * x_25_ + 74 x_29_ * x_26_ + 54 x_30_ * x_26_ - 68 x_31_ * x_26_ - 86 x_30_ * x_27_ + 42 x_43_ * x_27_ - 60 x_30_ * x_29_ ] >= -8245
quadratic_ranged_49_lb: [ 30 x_11_ * x_3_ - 40 x_35_ * x_3_ + 44 x_40_ * x_3_ - 18 x_40_ * x_9_ - 64 x_43_ * x_9_ - 48 x_22_ * x_11_ - 88 x_25_ * x_11_ + 96 x_43_ * x_11_ - 50 x_50_ * x_11_ - 70 x_40_ * x_25_ + 14 x_34_ ^ 2 - 42 x_50_ * x_40_ ] >= -12663
quadratic_ranged_50_lb: [ 18 x_9_ ^ 2 + 23 x_17_ ^ 2 + 76 x_20_ * x_17_ + 36 x_47_ * x_17_ ] >= 2383
quadratic_ranged_51_lb: [ 62 x_17_ * x_5_ - 42 x_30_ * x_5_ + 34 x_31_ * x_5_ - 100 x_27_ * x_11_ - 80 x_31_ * x_11_ + 33 x_12_ ^ 2 - 78 x_27_ * x_12_ + 98 x_30_ * x_12_ - 10 x_27_ * x_13_ + 50 x_30_ * x_13_ + 30 x_27_ * x_17_ - 50 x_31_ * x_27_ ] >= -7090
quadratic_ranged_52_lb: [ 25 x_13_ ^ 2 + 94 x_44_ * x_13_ - 84 x_33_ * x_15_ - 5 x_19_ ^ 2 - 24 x_40_ * x_19_ - 8 x_26_ * x_20_ - 92 x_33_ * x_20_ - 56 x_40_ * x_20_ + 4 x_26_ ^ 2 + 78 x_44_ * x_33_ + 78 x_44_ * x_40_ ] >= 1722
quadratic_ranged_53_lb: [ 30 x_4_ ^ 2 + 25 x_15_ ^ 2 ] >= 1703
quadratic_ranged_54_lb: [ -42 x_39_ * x_16_ + 38 x_39_ * x_23_ + 19 x_39_ ^ 2 ] >= -285
quadratic_ranged_55_lb: [ 20 x_7_ ^ 2 + 50 x_31_ * x_7_ - 98 x_33_ * x_7_ + 76 x_37_ * x_7_ + 8 x_42_ * x_7_ + 20 x_48_ * x_7_ - 18 x_16_ * x_8_ - 60 x_33_ * x_8_ - 20 x_42_ * x_8_ - 45 x_14_ ^ 2 - 84 x_31_ * x_14_ + 66 x_37_ * x_14_ + 66 x_48_ * x_14_ - 14 x_16_ ^ 2 - 34 x_31_ * x_16_ + 92 x_48_ * x_16_ + 20 x_48_ * x_21_ - 98 x_34_ * x_31_ - 40 x_34_ * x_33_ - 66 x_48_ * x_34_ - 38 x_48_ ^ 2 ] >= -3472
quadratic_ranged_56_lb: [ -10 x_10_ * x_4_ - 46 x_5_ ^ 2 - 80 x_47_ * x_5_ - 16 x_30_ * x_10_ + 38 x_20_ * x_15_ - 50 x_26_ * x_15_ - 24 x_20_ ^ 2 + 22 x_30_ * x_20_ - 46 x_38_ * x_30_ ] >= 4103
quadratic_ranged_57_lb: [ -16 x_25_ * x_1_ + 26 x_13_ * x_7_ - 8 x_28_ * x_7_ + 18 x_31_ * x_7_ - 8 x_13_ ^ 2 - 64 x_25_ * x_13_ + 86 x_40_ * x_13_ + 70 x_25_ * x_16_ - 38 x_28_ * x_16_ - 24 x_29_ * x_16_ + 12 x_31_ * x_16_ + 28 x_43_ * x_16_ - 8 x_25_ * x_20_ - 2 x_21_ ^ 2 + 20 x_25_ * x_21_ + 10 x_31_ * x_21_ + 50 x_25_ ^ 2 + 60 x_31_ * x_25_ - 2 x_40_ * x_25_ + 36 x_43_ * x_28_ ] >= 1696
quadratic_ranged_58_lb: [ -26 x_11_ * x_2_ + 12 x_6_ * x_5_ + 18 x_11_ * x_5_ + 64 x_17_ * x_5_ + 20 x_6_ ^ 2 - 22 x_11_ * x_6_ - 98 x_17_ * x_6_ + 2 x_22_ * x_11_ - 90 x_31_ * x_11_ - 60 x_28_ * x_17_ + 50 x_49_ * x_17_ - 58 x_33_ * x_22_ - 22 x_34_ * x_22_ + 74 x_33_ * x_29_ - 46 x_36_ * x_29_ + 56 x_49_ * x_29_ + 26 x_49_ * x_33_ + 24 x_46_ * x_36_ ] >= 11168
quadratic_ranged_59_lb: [ 64 x_22_ * x_10_ + 68 x_31_ * x_10_ + 27 x_11_ ^ 2 - 94 x_49_ * x_11_ - 44 x_22_ ^ 2 + 30 x_42_ * x_22_ - 88 x_42_ * x_24_ + 42 x_47_ * x_24_ - 48 x_50_ * x_24_ - 50 x_42_ * x_31_ - 68 x_37_ * x_34_ - 48 x_44_ * x_34_ + 38 x_49_ * x_37_ - 32 x_50_ * x_37_ + 16 x_47_ * x_44_ + 56 x_50_ * x_44_ - 68 x_49_ * x_47_ + 10 x_50_ * x_47_ ] >= -141
quadratic_ranged_60_lb: [ -45 x_10_ ^ 2 - 36 x_18_ * x_16_ - 6 x_24_ * x_16_ + 60 x_32_ * x_16_ + 88 x_40_ * x_16_ + 92 x_32_ * x_18_ + 72 x_39_ * x_18_ + 48 x_43_ * x_18_ - 84 x_32_ * x_24_ - 14 x_36_ * x_32_ - 88 x_40_ * x_32_ + 24 x_36_ ^ 2 - 48 x_37_ * x_36_ + 26 x_39_ * x_36_ + 8 x_37_ ^ 2 + 18 x_40_ * x_37_ ] >= -10562
quadratic_ranged_61_lb: [ -96 x_26_ * x_1_ + 14 x_21_ * x_2_ - 3 x_16_ ^ 2 + 22 x_42_ * x_16_ - 92 x_44_ * x_16_ - 32 x_21_ * x_17_ + 8 x_44_ * x_17_ - 60 x_49_ * x_17_ + 94 x_26_ * x_21_ + 30 x_42_ * x_24_ - 84 x_44_ * x_24_ - 10 x_26_ ^ 2 - 18 x_44_ * x_26_ ] >= 2133
c1: [ -96 x_22_ * x_4_ - 64 x_37_ * x_4_ - 100 x_43_ * x_4_ - 46 x_33_ * x_8_ - 14 x_16_ ^ 2 - 62 x_30_ * x_28_ - 66 x_43_ * x_33_ ] = 9490
c2: [ -9 x_9_ ^ 2 + 16 x_10_ ^ 2 + 96 x_26_ * x_10_ - 12 x_36_ * x_10_ - 70 x_42_ * x_10_ - 42 x_14_ ^ 2 + 98 x_42_ * x_14_ - 33 x_26_ ^ 2 + 50 x_36_ * x_26_ - 50 x_34_ ^ 2 + 2 x_42_ * x_34_ ] = -16224
c3: [ 20 x_45_ * x_2_ + 24 x_49_ * x_2_ - 40 x_7_ ^ 2 - 32 x_17_ * x_7_ - 32 x_36_ * x_7_ - 40 x_34_ * x_20_ - 2 x_36_ * x_34_ + 46 x_45_ * x_36_ ] = -5632
c4: [ -6 x_41_ * x_3_ - 72 x_17_ * x_5_ + 44 x_22_ * x_5_ + 22 x_22_ * x_7_ - 96 x_41_ * x_7_ + 17 x_15_ ^ 2 + 28 x_22_ * x_17_ - 24 x_41_ * x_17_ ] = 3393
c5: [ 14 x_2_ * x_5_ - 12 x_41_ * x_5_ - 6 x_50_ * x_5_ + 46 x_25_ * x_22_ - 68 x_41_ * x_22_ - 14 x_29_ * x_25_ - 54 x_50_ * x_29_ - 58 x_50_ * x_41_ ] = -9268
c6: [ -98 x_6_ * x_22_ + 80 x_26_ * x_6_ - 78 x_22_ * x_18_ + 36 x_26_ * x_18_ ] = 2400
c7: [ -32 x_8_ ^ 2 + 86 x_14_ * x_8_ - 10 x_24_ * x_8_ - 88 x_40_ * x_8_ - 48 x_42_ * x_8_ + 96 x_18_ * x_14_ + 68 x_24_ * x_14_ - 62 x_40_ * x_18_ + 90 x_25_ * x_24_ ] = 790
c8: [ -86 x_42_ * x_3_ - 82 x_46_ * x_4_ - 30 x_41_ * x_19_ + 47 x_21_ ^ 2 - 48 x_25_ * x_21_ + 28 x_47_ * x_22_ + 62 x_34_ * x_25_ - 82 x_46_ * x_25_ + 54 x_47_ * x_25_ - 33 x_34_ ^ 2 - 96 x_42_ * x_34_ ] = -3741
c9: [ -84 x_19_ * x_1_ + 34 x_33_ * x_1_ - 76 x_40_ * x_1_ - 84 x_35_ * x_8_ + 10 x_48_ * x_8_ + 16 x_9_ ^ 2 + 36 x_16_ * x_12_ - 26 x_19_ * x_12_ + 26 x_33_ * x_12_ - 78 x_35_ * x_12_ - 32 x_40_ * x_12_ - 14 x_48_ * x_12_ + 48 x_16_ * x_13_ + 88 x_35_ * x_16_ - 20 x_40_ * x_19_ - 72 x_48_ * x_28_ + 62 x_48_ * x_33_ - 40 x_48_ * x_35_ + 33 x_48_ ^ 2 ] = 8076
c10: [ 78 x_30_ * x_16_ - 22 x_42_ * x_16_ - 96 x_43_ * x_39_ - 18 x_46_ * x_43_ - 16 x_49_ * x_43_ - 39 x_46_ ^ 2 ] = -11361
c11: [ -43 x_1_ ^ 2 - 16 x_14_ ^ 2 + 42 x_24_ * x_14_ + 64 x_29_ * x_17_ + 40 x_47_ * x_17_ + 54 x_24_ * x_21_ - 18 x_37_ * x_21_ + 44 x_48_ * x_21_ + 44 x_25_ * x_23_ - 4 x_50_ * x_23_ + 64 x_42_ * x_24_ + 74 x_39_ * x_25_ + 44 x_47_ * x_37_ + 32 x_48_ * x_37_ - 48 x_39_ ^ 2 ] = -11111
c12: [ -40 x_6_ ^ 2 - 40 x_27_ * x_14_ + 72 x_38_ * x_14_ - 2 x_17_ ^ 2 + 54 x_24_ * x_17_ + 72 x_27_ * x_17_ - 28 x_38_ * x_24_ ] = 3664
c13: [ -2 x_47_ * x_6_ + 44 x_19_ * x_8_ + 56 x_42_ * x_8_ + 36 x_21_ * x_15_ + 36 x_38_ * x_15_ + 64 x_47_ * x_15_ - 76 x_47_ * x_33_ - 11 x_47_ ^ 2 ] = -2180
c14: [ 44 x_12_ * x_4_ + 82 x_16_ * x_4_ - 32 x_31_ * x_4_ - 50 x_42_ * x_4_ + 40 x_12_ * x_6_ + 72 x_16_ * x_6_ + 94 x_21_ * x_6_ + 2 x_46_ * x_6_ - 12 x_10_ ^ 2 + 4 x_12_ * x_10_ + 40 x_48_ * x_10_ + 8 x_12_ ^ 2 + 18 x_21_ * x_12_ + 40 x_31_ * x_12_ + 84 x_46_ * x_12_ + 20 x_48_ * x_12_ + 43 x_16_ ^ 2 - 10 x_31_ * x_16_ - 20 x_35_ * x_16_ + 88 x_37_ * x_16_ + 80 x_23_ * x_21_ - 68 x_48_ * x_21_ + 38 x_31_ * x_30_ + 50 x_37_ * x_30_ - 7 x_31_ ^ 2 - 72 x_39_ * x_31_ - 21 x_37_ ^ 2 - 72 x_48_ * x_39_ - 62 x_46_ * x_42_ ] = -14757
c15: [ 40 x_19_ * x_15_ + 68 x_27_ * x_15_ - 11 x_19_ ^ 2 - 74 x_49_ * x_19_ + 44 x_49_ ^ 2 ] = -4287
c16: [ -15 x_26_ ^ 2 + 50 x_37_ ^ 2 - 22 x_50_ * x_37_ ] = 1805
c17: [ -24 x_15_ * x_9_ + 48 x_19_ * x_14_ - 18 x_34_ * x_19_ + 22 x_26_ ^ 2 + 68 x_41_ * x_26_ + 68 x_49_ * x_34_ - 8 x_41_ ^ 2 ] = 2288
c18: [ -32 x_5_ * x_1_ - 8 x_34_ * x_4_ + 60 x_42_ * x_4_ + 98 x_13_ * x_5_ + 28 x_19_ * x_5_ + 42 x_19_ * x_11_ - 20 x_34_ * x_13_ + 98 x_42_ * x_13_ - 32 x_44_ * x_13_ - 13 x_34_ ^ 2 - 98 x_42_ * x_34_ + 14 x_44_ * x_34_ - 78 x_49_ * x_34_ - 2 x_48_ * x_44_ + 32 x_48_ ^ 2 ] = 9077
c19: [ 76 x_8_ * x_4_ - 48 x_14_ * x_4_ + 46 x_49_ * x_8_ + 28 x_17_ * x_14_ + 66 x_49_ * x_14_ + 9 x_17_ ^ 2 + 76 x_41_ * x_17_ + 44 x_19_ ^ 2 - 6 x_35_ * x_19_ + 62 x_49_ * x_19_ - 20 x_30_ * x_25_ - 12 x_35_ * x_25_ - 40 x_35_ * x_30_ - 6 x_49_ * x_30_ ] = 1218
c20: [ -96 x_9_ * x_8_ + 70 x_19_ * x_8_ + 92 x_44_ * x_9_ - 26 x_15_ ^ 2 + 4 x_27_ * x_19_ + 96 x_46_ * x_19_ - 4 x_21_ ^ 2 - 86 x_46_ * x_21_ - 29 x_35_ ^ 2 + 35 x_44_ ^ 2 ] = -13550
c21: [ 68 x_15_ * x_2_ + 58 x_22_ * x_2_ - 13 x_9_ ^ 2 + 34 x_24_ * x_9_ + 50 x_26_ * x_9_ + 42 x_41_ * x_9_ - 42 x_13_ ^ 2 - 12 x_15_ ^ 2 + 28 x_17_ ^ 2 - 24 x_26_ * x_17_ - 64 x_29_ * x_22_ + 18 x_31_ * x_22_ - 54 x_50_ * x_24_ + 98 x_29_ * x_26_ - 86 x_37_ * x_26_ - 22 x_29_ ^ 2 - 72 x_37_ * x_29_ - 68 x_41_ * x_29_ - 70 x_50_ * x_29_ + 80 x_50_ * x_31_ + 2 x_50_ * x_41_ ] = -13477
c22: [ 28 x_1_ ^ 2 - 76 x_4_ * x_3_ + 42 x_20_ * x_3_ - 34 x_19_ * x_4_ - 38 x_25_ * x_4_ - 14 x_19_ * x_11_ + 46 x_47_ * x_19_ - 30 x_42_ * x_20_ + 70 x_47_ * x_20_ - 98 x_24_ * x_21_ + 23 x_25_ ^ 2 + 78 x_47_ * x_25_ + 28 x_47_ ^ 2 ] = -4252
c23: [ -50 x_46_ * x_11_ + 84 x_23_ * x_20_ - 38 x_50_ * x_20_ - 8 x_46_ * x_21_ + 40 x_23_ ^ 2 + 6 x_24_ ^ 2 - 96 x_25_ * x_24_ - 98 x_48_ * x_24_ - 11 x_25_ ^ 2 + 36 x_48_ * x_25_ - 86 x_50_ * x_29_ + 42 x_46_ * x_32_ ] = -10860
c24: [ 2 x_17_ * x_7_ - 20 x_23_ * x_7_ + 10 x_30_ * x_7_ + 22 x_33_ * x_7_ + 34 x_43_ * x_7_ + 38 x_26_ * x_15_ + 14 x_30_ * x_15_ + 30 x_49_ * x_15_ - 50 x_23_ * x_17_ - 84 x_26_ * x_17_ - 60 x_30_ * x_17_ - 10 x_39_ * x_23_ - 32 x_33_ ^ 2 + 2 x_43_ * x_33_ + 23 x_42_ ^ 2 + 41 x_43_ ^ 2 - 98 x_49_ * x_47_ - 34 x_49_ ^ 2 ] = -1340
c25: [ -44 x_36_ * x_10_ + 2 x_38_ * x_10_ - 58 x_40_ * x_10_ - 76 x_38_ * x_23_ + 4 x_44_ * x_23_ - 50 x_27_ ^ 2 - 60 x_39_ * x_27_ - 32 x_40_ * x_27_ + 16 x_44_ * x_27_ + 98 x_44_ * x_38_ ] = -19528
c26: [ -19 x_1_ ^ 2 - 24 x_24_ * x_1_ - 10 x_31_ * x_1_ + 38 x_20_ * x_18_ - 4 x_25_ * x_18_ + 54 x_35_ * x_18_ + 58 x_25_ * x_20_ - 30 x_27_ * x_20_ - 38 x_31_ * x_20_ - 22 x_28_ * x_22_ - 10 x_29_ * x_24_ - 30 x_31_ * x_24_ - 54 x_27_ * x_25_ + 84 x_31_ * x_25_ + 28 x_29_ * x_28_ ] = 329
c27: [ 36 x_20_ * x_12_ - 96 x_30_ * x_12_ + 34 x_45_ * x_12_ - 18 x_46_ * x_12_ + 24 x_20_ * x_16_ + 72 x_33_ * x_16_ + 96 x_36_ * x_16_ - 36 x_17_ ^ 2 + 4 x_39_ * x_17_ - 33 x_20_ ^ 2 - 62 x_33_ * x_20_ - 6 x_36_ * x_20_ - 58 x_43_ * x_22_ - 42 x_33_ * x_25_ + 38 x_30_ ^ 2 - 48 x_33_ ^ 2 + 96 x_39_ * x_33_ - 62 x_43_ * x_33_ - 15 x_36_ ^ 2 + 92 x_45_ * x_36_ + 46 x_43_ * x_39_ - 27 x_43_ ^ 2 - 76 x_45_ * x_43_ - 36 x_45_ ^ 2 ] = -30080
c28: [ -78 x_45_ * x_6_ - 74 x_22_ * x_17_ - 96 x_28_ * x_17_ + 78 x_48_ * x_17_ + 10 x_22_ ^ 2 - 98 x_27_ * x_22_ + 96 x_28_ * x_22_ + 90 x_45_ * x_22_ + 18 x_36_ * x_27_ + 14 x_36_ * x_35_ ] = -8298
c29: [ -38 x_10_ * x_2_ - 36 x_42_ * x_2_ + 38 x_10_ ^ 2 - 66 x_14_ * x_10_ - 46 x_11_ ^ 2 - 86 x_36_ * x_11_ - 94 x_42_ * x_14_ + 40 x_36_ * x_24_ - 56 x_42_ * x_35_ - 47 x_49_ ^ 2 ] = 2680
c30: [ 12 x_13_ * x_11_ + 26 x_25_ * x_11_ + 96 x_25_ * x_22_ + 90 x_26_ * x_22_ - 84 x_35_ * x_22_ - 6 x_25_ ^ 2 + 50 x_34_ * x_25_ - 4 x_34_ * x_26_ - 50 x_39_ ^ 2 ] = -12804
c31: [ -84 x_34_ * x_6_ + 37 x_8_ ^ 2 - 54 x_34_ * x_8_ + 74 x_38_ * x_8_ - 26 x_43_ * x_8_ + 28 x_45_ * x_8_ - 4 x_46_ * x_8_ + 24 x_34_ * x_18_ - 37 x_21_ ^ 2 + 48 x_27_ * x_21_ + 36 x_47_ * x_21_ - 42 x_27_ ^ 2 + 6 x_38_ * x_27_ - 4 x_43_ * x_27_ - 80 x_47_ * x_45_ ] = -12467
c32: [ -36 x_6_ ^ 2 + 88 x_19_ * x_6_ + 14 x_27_ * x_6_ + 35 x_9_ ^ 2 - 100 x_27_ * x_9_ - 34 x_11_ ^ 2 + 56 x_19_ * x_11_ + 38 x_42_ * x_18_ + 37 x_19_ ^ 2 ] = -3400
c33: [ -50 x_18_ * x_1_ + 8 x_22_ * x_1_ - 10 x_36_ * x_1_ - 42 x_46_ * x_1_ - 72 x_22_ * x_3_ + 6 x_28_ * x_3_ + 48 x_27_ * x_18_ + 56 x_28_ * x_22_ - 31 x_27_ ^ 2 - 32 x_48_ * x_27_ + 90 x_48_ * x_28_ + 44 x_48_ * x_36_ - 14 x_48_ * x_46_ ] = -6516
c34: [ 30 x_4_ ^ 2 - 100 x_13_ * x_4_ - 38 x_35_ * x_4_ + 74 x_40_ * x_4_ + 26 x_20_ * x_13_ - 60 x_24_ * x_13_ + 16 x_44_ * x_13_ - 36 x_48_ * x_13_ - 44 x_48_ * x_17_ + 2 x_20_ ^ 2 - 18 x_22_ * x_20_ - 76 x_44_ * x_20_ - 8 x_48_ * x_20_ + 64 x_24_ * x_22_ - 56 x_37_ * x_29_ - 18 x_40_ * x_32_ - 24 x_44_ * x_32_ - 58 x_44_ * x_37_ - 74 x_48_ * x_37_ ] = -9504
c35: [ 28 x_36_ * x_22_ - 8 x_37_ * x_22_ - 7 x_29_ ^ 2 + 76 x_45_ * x_29_ - 88 x_44_ * x_36_ + 26 x_37_ ^ 2 - 26 x_44_ * x_37_ - 9 x_45_ ^ 2 ] = -12729
c36: [ 42 x_7_ * x_3_ + 10 x_6_ ^ 2 + 80 x_46_ * x_6_ + 42 x_32_ * x_7_ - 96 x_38_ * x_10_ + 78 x_31_ * x_15_ + 50 x_32_ * x_15_ - 54 x_46_ * x_15_ + 3 x_31_ ^ 2 + 92 x_48_ * x_31_ - 98 x_41_ * x_32_ - 84 x_46_ * x_32_ - 62 x_49_ * x_38_ + 28 x_46_ ^ 2 ] = 812
c37: [ 90 x_2_ * x_31_ - 58 x_40_ * x_26_ ] = 576
c38: [ 2 x_29_ * x_8_ - 72 x_32_ * x_8_ - 6 x_18_ * x_10_ + 36 x_25_ * x_10_ + 7 x_13_ ^ 2 + 100 x_25_ * x_13_ - 24 x_27_ * x_13_ + 96 x_29_ * x_13_ - 40 x_29_ * x_15_ - 37 x_18_ ^ 2 + 54 x_28_ * x_18_ + 74 x_35_ * x_18_ + 28 x_45_ * x_18_ - 23 x_25_ ^ 2 - 86 x_29_ * x_25_ + 86 x_35_ * x_25_ - 84 x_45_ * x_25_ - 64 x_28_ * x_26_ - 28 x_29_ * x_26_ + 68 x_35_ * x_27_ + 28 x_37_ * x_27_ - 36 x_35_ * x_30_ - 18 x_37_ * x_35_ - 14 x_45_ * x_37_ + 13 x_45_ ^ 2 ] = -9284
c39: [ -54 x_28_ * x_1_ + 8 x_33_ * x_4_ - 42 x_12_ * x_8_ + 20 x_43_ * x_8_ + 38 x_12_ * x_11_ + 86 x_28_ * x_11_ - 40 x_28_ ^ 2 - 64 x_36_ * x_28_ + 80 x_50_ * x_28_ + 24 x_29_ ^ 2 - 4 x_50_ * x_33_ + 30 x_36_ ^ 2 ] = 3430
Bounds
-8 <= x_1_ <= -1
-10 <= x_2_ <= 9
-5 <= x_3_ <= 10
-9 <= x_4_ <= -1
1 <= x_5_ <= 8
-4 <= x_6_ <= 9
2 <= x_7_ <= 10
-2 <= x_8_ <= 5
0 <= x_9_ <= 10
-8 <= x_10_ <= 2
x_11_ = 0
5 <= x_12_ <= 8
-2 <= x_13_ <= 10
-4 <= x_14_ <= 4
-10 <= x_15_ <= -2
-2 <= x_16_ <= 7
4 <= x_17_ <= 7
-9 <= x_18_ <= 4
-9 <= x_19_ <= 6
-3 <= x_20_ <= 4
-10 <= x_21_ <= 0
-4 <= x_22_ <= 9
-6 <= x_23_ <= 2
-3 <= x_24_ <= 6
-10 <= x_25_ <= 2
9 <= x_26_ <= 10
-6 <= x_27_ <= 10
-8 <= x_28_ <= 3
-10 <= x_29_ <= 0
-10 <= x_30_ <= 7
2 <= x_31_ <= 4
0 <= x_32_ <= 8
-10 <= x_33_ <= -1
-8 <= x_34_ <= 10
-1 <= x_35_ <= 10
-9 <= x_36_ <= -5
-10 <= x_37_ <= 7
-10 <= x_38_ <= 10
-5 <= x_39_ <= 10
-10 <= x_40_ <= -7
-7 <= x_41_ <= 5
-8 <= x_42_ <= -1
-8 <= x_43_ <= 8
-9 <= x_44_ <= 7
-2 <= x_45_ <= 10
-5 <= x_46_ <= -3
-7 <= x_47_ <= 10
-8 <= x_48_ <= 0
-5 <= x_49_ <= -2
-9 <= x_50_ <= -6
General
x_1_
x_2_
x_3_
x_4_
x_5_
x_6_
x_7_
x_8_
x_9_
x_10_
x_11_
x_12_
x_13_
x_14_
x_15_
x_16_
x_17_
x_18_
x_19_
x_20_
x_21_
x_22_
x_23_
x_24_
x_25_
x_26_
x_27_
x_28_
x_29_
x_30_
x_31_
x_32_
x_33_
x_34_
x_35_
x_36_
x_37_
x_38_
x_39_
x_40_
x_41_
x_42_
x_43_
x_44_
x_45_
x_46_
x_47_
x_48_
x_49_
x_50_
End
