minimize
obj: 21 x_4_ + 25 x_14_ + 31 x_23_ - 6 x_28_ + 49 x_29_ + 32 x_35_ - 14 x_37_ - 21 x_40_ + 36 x_42_ - 26 x_45_
subject to
quadratic_ranged_1_ub: 27 x_22_ + [ 26 x_37_ * x_7_ + 74 x_18_ * x_9_ + 78 x_41_ * x_9_ + 48 x_18_ * x_11_ - 50 x_22_ * x_11_ + 86 x_26_ * x_12_ - 28 x_37_ * x_12_ + 6 x_41_ * x_12_ + 6 x_39_ * x_18_ + 38 x_26_ * x_22_ - 36 x_36_ * x_22_ - 7 x_26_ ^ 2 - 2 x_39_ * x_26_ - 18 x_37_ * x_36_ + 34 x_41_ * x_39_ ] <= 2257
quadratic_ranged_2_ub: [ 84 x_42_ * x_2_ - 90 x_48_ * x_2_ + 96 x_25_ * x_3_ - 56 x_28_ * x_3_ + 54 x_14_ * x_13_ + 96 x_34_ * x_13_ + 100 x_41_ * x_13_ + 48 x_47_ * x_13_ - 84 x_28_ * x_14_ + 42 x_42_ * x_14_ - 74 x_37_ * x_25_ - 42 x_47_ * x_28_ - 98 x_48_ * x_28_ - 64 x_42_ * x_32_ - 94 x_48_ * x_32_ + 92 x_41_ * x_34_ - 96 x_42_ * x_34_ - 4 x_37_ ^ 2 + 92 x_42_ * x_37_ + 12 x_48_ * x_41_ ] <= -6714
quadratic_ranged_3_ub: [ 4 x_31_ * x_1_ - 90 x_44_ * x_1_ + 24 x_16_ * x_6_ + 24 x_26_ * x_6_ + 2 x_29_ * x_6_ + 26 x_30_ * x_6_ + 18 x_33_ * x_6_ + 22 x_45_ * x_6_ + 44 x_8_ ^ 2 - 42 x_30_ * x_8_ - 12 x_28_ * x_16_ + 52 x_44_ * x_16_ - 36 x_29_ * x_22_ + 76 x_30_ * x_22_ - 100 x_33_ * x_22_ + 28 x_26_ ^ 2 - 16 x_30_ * x_28_ + 24 x_31_ * x_28_ + 6 x_46_ * x_29_ ] <= 1562
quadratic_ranged_4_ub: 44 x_17_ + 25 x_28_ + [ 94 x_27_ * x_8_ + 52 x_31_ * x_8_ + 24 x_43_ * x_8_ - 84 x_31_ * x_10_ + 16 x_46_ * x_10_ + 98 x_27_ * x_17_ + 21 x_28_ ^ 2 - 82 x_43_ * x_28_ - 32 x_37_ * x_31_ + 24 x_33_ ^ 2 + 42 x_37_ * x_33_ + 18 x_46_ * x_33_ ] <= 1213
quadratic_ranged_5_ub: 7 x_2_ + 37 x_7_ + 22 x_8_ - 16 x_26_ - 3 x_41_ + [ 20 x_8_ * x_1_ + 86 x_12_ * x_1_ + 42 x_21_ * x_1_ + 68 x_28_ * x_1_ + 52 x_24_ * x_2_ - 60 x_32_ * x_2_ + 42 x_50_ * x_2_ + 14 x_21_ * x_7_ + 86 x_28_ * x_7_ - 10 x_50_ * x_7_ - 4 x_20_ * x_8_ - 14 x_20_ * x_12_ + 84 x_21_ * x_12_ - 40 x_28_ * x_12_ - 72 x_36_ * x_12_ - 22 x_32_ * x_21_ - 74 x_28_ * x_22_ - 44 x_32_ * x_22_ - 18 x_41_ * x_22_ - 12 x_47_ * x_22_ - 74 x_26_ * x_24_ + 50 x_50_ * x_26_ - 46 x_28_ ^ 2 + 16 x_32_ ^ 2 + 22 x_34_ ^ 2 - 62 x_36_ * x_34_ + 56 x_47_ * x_41_ - 52 x_50_ * x_41_ ] <= -2866
quadratic_ranged_6_ub: -5 x_15_ - 46 x_21_ + [ -20 x_1_ * x_16_ + 82 x_4_ * x_2_ - 24 x_16_ * x_2_ - 44 x_15_ * x_4_ - 34 x_21_ * x_11_ + 32 x_16_ * x_15_ + 92 x_22_ * x_15_ - 38 x_33_ * x_15_ + 24 x_22_ * x_16_ + 68 x_38_ * x_21_ ] <= 3129
quadratic_ranged_7_ub: -16 x_4_ + 50 x_22_ + 9 x_24_ + [ 30 x_4_ * x_19_ + 36 x_24_ * x_4_ - 24 x_37_ * x_4_ - 74 x_24_ * x_12_ - 10 x_27_ * x_12_ - 40 x_37_ * x_12_ + 60 x_22_ * x_18_ + 88 x_41_ * x_18_ + 20 x_22_ * x_19_ + 94 x_41_ * x_22_ + 40 x_41_ * x_37_ ] <= -4530
quadratic_ranged_8_ub: 50 x_21_ + 1 x_25_ + 22 x_33_ + [ -34 x_25_ * x_2_ - 54 x_37_ * x_2_ - 2 x_41_ * x_2_ - 98 x_33_ * x_21_ + 8 x_35_ * x_21_ - 45 x_25_ ^ 2 - 12 x_37_ * x_25_ - 82 x_35_ * x_33_ ] <= 600
quadratic_ranged_9_ub: -39 x_3_ - 36 x_17_ - 6 x_21_ + [ 26 x_21_ * x_17_ - 52 x_39_ * x_21_ + 38 x_41_ * x_25_ + 36 x_39_ ^ 2 ] <= 6051
quadratic_ranged_10_ub: 3 x_13_ + 31 x_47_ + 1 x_48_ + [ 36 x_12_ * x_5_ - 44 x_26_ * x_5_ + 38 x_47_ * x_5_ + 12 x_43_ * x_12_ + 50 x_13_ ^ 2 - 82 x_14_ * x_13_ - 86 x_39_ * x_13_ - 68 x_43_ * x_13_ + 24 x_47_ * x_13_ - 12 x_48_ * x_18_ - 98 x_43_ * x_26_ + 94 x_47_ * x_26_ + 52 x_48_ * x_39_ - 9 x_47_ ^ 2 ] <= -4202
quadratic_ranged_11_ub: -8 x_20_ + 37 x_21_ - 27 x_24_ + 46 x_25_ + 10 x_50_ + [ 1 x_6_ ^ 2 - 2 x_8_ * x_6_ + 64 x_25_ * x_6_ + 88 x_24_ * x_8_ - 84 x_21_ * x_17_ - 38 x_24_ * x_19_ - 88 x_50_ * x_19_ - 26 x_25_ * x_20_ + 18 x_48_ * x_24_ - 68 x_50_ * x_25_ - 35 x_50_ ^ 2 ] <= -7041
quadratic_ranged_12_ub: 48 x_49_ + [ -40 x_5_ ^ 2 - 82 x_15_ * x_5_ + 92 x_42_ * x_5_ + 22 x_13_ * x_7_ - 44 x_17_ * x_7_ - 4 x_37_ * x_7_ - 74 x_13_ * x_11_ + 24 x_37_ * x_11_ - 50 x_42_ * x_11_ - 58 x_42_ * x_13_ - 80 x_45_ * x_13_ + 84 x_25_ * x_15_ + 80 x_49_ * x_25_ + 43 x_31_ ^ 2 - 82 x_37_ * x_31_ + 24 x_42_ * x_37_ - 24 x_42_ ^ 2 + 66 x_49_ * x_42_ + 2 x_49_ ^ 2 ] <= -8860
quadratic_ranged_13_ub: -37 x_30_ + 18 x_43_ + [ -88 x_11_ * x_8_ - 54 x_14_ * x_8_ + 88 x_16_ * x_8_ - 74 x_35_ * x_8_ - 54 x_42_ * x_8_ + 56 x_14_ * x_11_ - 74 x_30_ * x_11_ - 50 x_42_ * x_11_ + 38 x_43_ * x_11_ + 14 x_30_ * x_13_ - 2 x_43_ * x_13_ + 52 x_44_ * x_14_ + 48 x_43_ * x_16_ + 44 x_46_ * x_16_ - 78 x_35_ * x_30_ - 23 x_35_ ^ 2 - 18 x_43_ * x_42_ - 24 x_46_ * x_42_ ] <= -1149
quadratic_ranged_14_ub: -18 x_24_ + 34 x_40_ + [ 30 x_27_ * x_4_ + 6 x_24_ * x_6_ - 90 x_27_ * x_6_ + 20 x_40_ * x_6_ - 20 x_24_ * x_14_ + 78 x_24_ * x_22_ + 80 x_30_ * x_22_ + 78 x_30_ * x_24_ - 43 x_40_ ^ 2 ] <= -4483
quadratic_ranged_15_ub: 34 x_19_ + 47 x_46_ + 1 x_47_ + [ 82 x_50_ * x_4_ - 72 x_36_ * x_10_ - 98 x_46_ * x_10_ - 42 x_47_ * x_15_ - 48 x_30_ * x_19_ - 36 x_36_ * x_19_ - 50 x_39_ * x_19_ + 38 x_50_ * x_19_ + 14 x_30_ ^ 2 + 100 x_39_ * x_30_ + 60 x_50_ * x_30_ - 78 x_50_ * x_36_ ] <= 1699
quadratic_ranged_16_ub: [ 50 x_35_ * x_11_ - 35 x_25_ ^ 2 - 84 x_35_ * x_25_ - 15 x_33_ ^ 2 - 52 x_35_ * x_33_ - 2 x_35_ ^ 2 ] <= -1759
quadratic_ranged_17_ub: 13 x_1_ - 29 x_22_ + 8 x_38_ - 33 x_42_ + [ -30 x_25_ * x_2_ + 84 x_42_ * x_2_ + 42 x_38_ * x_22_ - 48 x_42_ * x_22_ - 4 x_35_ * x_25_ + 18 x_49_ * x_35_ - 5 x_42_ ^ 2 - 54 x_49_ * x_42_ ] <= 345
quadratic_ranged_18_ub: 29 x_8_ + 45 x_37_ + 7 x_40_ + [ 68 x_15_ * x_5_ + 10 x_40_ * x_5_ + 10 x_37_ * x_8_ + 70 x_46_ * x_8_ + 30 x_34_ * x_13_ + 88 x_40_ * x_13_ + 26 x_46_ * x_13_ + 28 x_26_ * x_15_ - 48 x_40_ * x_15_ + 98 x_34_ * x_25_ + 14 x_46_ * x_25_ - 4 x_30_ ^ 2 - 26 x_35_ * x_30_ + 32 x_40_ * x_30_ + 44 x_35_ * x_32_ + 38 x_34_ ^ 2 - 88 x_46_ * x_40_ + 44 x_46_ ^ 2 ] <= 1850
quadratic_ranged_19_ub: -17 x_10_ + 6 x_18_ - 9 x_47_ + [ 76 x_47_ * x_2_ + 56 x_10_ * x_3_ - 49 x_10_ ^ 2 + 14 x_16_ * x_10_ + 8 x_16_ ^ 2 + 8 x_47_ * x_16_ + 45 x_25_ ^ 2 + 44 x_26_ ^ 2 ] <= -7470
quadratic_ranged_20_ub: -28 x_1_ - 50 x_41_ - 22 x_49_ + [ 28 x_48_ * x_1_ - 18 x_10_ ^ 2 + 34 x_17_ * x_10_ + 20 x_39_ * x_10_ - 14 x_44_ * x_10_ - 24 x_49_ * x_10_ + 3 x_13_ ^ 2 + 96 x_17_ * x_13_ - 40 x_39_ * x_13_ + 80 x_48_ * x_17_ + 32 x_26_ * x_24_ + 46 x_48_ * x_24_ + 76 x_48_ * x_26_ - 27 x_44_ ^ 2 ] <= -1753
quadratic_ranged_21_ub: -7 x_3_ + 36 x_7_ - 11 x_39_ + [ 40 x_33_ * x_1_ - 14 x_36_ * x_1_ + 50 x_44_ * x_1_ - 6 x_7_ * x_3_ + 46 x_14_ * x_3_ + 68 x_15_ * x_3_ - 54 x_33_ * x_3_ - 35 x_7_ ^ 2 - 1 x_14_ ^ 2 - 38 x_15_ ^ 2 - 74 x_33_ * x_15_ - 42 x_36_ * x_18_ - 68 x_39_ * x_23_ + 40 x_33_ ^ 2 + 64 x_45_ * x_33_ - 96 x_39_ * x_36_ ] <= -3935
quadratic_ranged_22_ub: 38 x_30_ + [ 22 x_19_ * x_5_ + 70 x_29_ * x_5_ + 88 x_30_ * x_9_ + 39 x_12_ ^ 2 + 40 x_38_ * x_12_ - 36 x_38_ * x_15_ - 98 x_29_ * x_17_ - 4 x_30_ * x_19_ - 22 x_38_ * x_19_ - 29 x_30_ ^ 2 ] <= -1378
quadratic_ranged_23_ub: -24 x_34_ - 13 x_35_ - 50 x_39_ + [ 80 x_30_ * x_5_ + 82 x_33_ * x_5_ - 14 x_37_ * x_9_ + 50 x_30_ * x_16_ + 64 x_35_ * x_17_ + 98 x_30_ * x_28_ + 50 x_35_ * x_28_ + 14 x_39_ * x_28_ + 23 x_30_ ^ 2 + 72 x_34_ * x_30_ + 38 x_33_ ^ 2 - 22 x_37_ * x_33_ + 39 x_34_ ^ 2 + 22 x_39_ * x_34_ - 32 x_37_ * x_35_ + 26 x_39_ * x_35_ + 36 x_37_ ^ 2 + 10 x_39_ * x_37_ ] <= 6263
quadratic_ranged_24_ub: -22 x_12_ - 25 x_24_ + 5 x_27_ - 26 x_29_ + 38 x_45_ + [ 92 x_10_ * x_3_ - 46 x_12_ * x_3_ - 34 x_21_ * x_3_ - 2 x_27_ * x_4_ + 52 x_10_ * x_7_ - 24 x_10_ ^ 2 + 52 x_21_ * x_10_ - 82 x_24_ * x_10_ + 72 x_39_ * x_10_ - 66 x_21_ * x_12_ - 70 x_45_ * x_12_ - 14 x_21_ ^ 2 + 84 x_24_ * x_21_ + 22 x_45_ * x_21_ + 10 x_48_ * x_21_ + 38 x_48_ * x_24_ + 8 x_48_ * x_26_ + 26 x_39_ * x_27_ - 66 x_45_ * x_33_ - 24 x_48_ * x_39_ ] <= -9069
quadratic_ranged_25_ub: 27 x_2_ + 15 x_16_ - 35 x_47_ + [ -22 x_2_ * x_14_ + 4 x_16_ * x_2_ - 30 x_30_ * x_2_ + 10 x_46_ * x_2_ - 52 x_11_ * x_4_ + 20 x_29_ * x_4_ + 14 x_14_ * x_11_ - 56 x_30_ * x_11_ + 74 x_46_ * x_11_ - 38 x_30_ * x_16_ - 22 x_32_ * x_16_ + 64 x_32_ * x_29_ - 14 x_46_ * x_29_ - 76 x_49_ * x_29_ + 30 x_32_ * x_30_ - 80 x_46_ * x_30_ - 30 x_46_ * x_32_ ] <= -8953
quadratic_ranged_26_ub: -4 x_24_ - 20 x_39_ + [ 46 x_24_ * x_4_ + 96 x_27_ * x_4_ + 14 x_24_ * x_6_ - 2 x_33_ * x_6_ - 4 x_10_ ^ 2 + 54 x_33_ * x_10_ - 16 x_39_ * x_10_ + 4 x_12_ ^ 2 - 96 x_26_ * x_12_ + 8 x_42_ * x_24_ - 26 x_26_ ^ 2 - 80 x_33_ * x_27_ + 82 x_34_ * x_27_ + 22 x_39_ * x_34_ + 41 x_39_ ^ 2 ] <= 1227
quadratic_ranged_27_ub: -28 x_26_ - 6 x_33_ + [ 82 x_7_ * x_26_ - 66 x_33_ * x_7_ + 26 x_43_ * x_7_ - 78 x_26_ * x_20_ - 24 x_33_ * x_20_ - 10 x_37_ * x_26_ + 74 x_43_ * x_26_ - 58 x_43_ * x_33_ + 98 x_43_ * x_37_ ] <= 823
quadratic_ranged_28_ub: 40 x_12_ + [ -70 x_11_ * x_12_ + 84 x_41_ * x_11_ - 62 x_41_ * x_12_ - 96 x_46_ * x_12_ ] <= -986
quadratic_ranged_29_ub: -34 x_24_ + 12 x_27_ + [ 94 x_18_ * x_24_ + 90 x_28_ * x_18_ + 20 x_43_ * x_24_ + 8 x_43_ * x_27_ + 20 x_43_ * x_28_ + 18 x_46_ * x_28_ + 44 x_43_ * x_39_ ] <= -9453
quadratic_ranged_30_ub: 45 x_7_ + 15 x_36_ - 6 x_42_ + 41 x_48_ + [ -24 x_7_ * x_6_ - 30 x_21_ * x_6_ + 90 x_23_ * x_6_ - 18 x_26_ * x_6_ - 100 x_36_ * x_6_ - 96 x_39_ * x_6_ - 78 x_47_ * x_6_ - 12 x_7_ ^ 2 + 82 x_21_ * x_7_ - 34 x_33_ * x_7_ + 23 x_11_ ^ 2 + 28 x_23_ * x_11_ - 48 x_26_ * x_11_ - 54 x_26_ * x_17_ + 10 x_42_ * x_21_ - 48 x_47_ * x_21_ - 92 x_25_ * x_23_ - 31 x_25_ ^ 2 + 76 x_42_ * x_25_ + 8 x_26_ ^ 2 - 90 x_33_ * x_26_ - 42 x_33_ ^ 2 + 74 x_39_ * x_36_ + 88 x_48_ * x_36_ ] <= 11337
quadratic_ranged_1_lb: 27 x_22_ + [ 26 x_37_ * x_7_ + 74 x_18_ * x_9_ + 78 x_41_ * x_9_ + 48 x_18_ * x_11_ - 50 x_22_ * x_11_ + 86 x_26_ * x_12_ - 28 x_37_ * x_12_ + 6 x_41_ * x_12_ + 6 x_39_ * x_18_ + 38 x_26_ * x_22_ - 36 x_36_ * x_22_ - 7 x_26_ ^ 2 - 2 x_39_ * x_26_ - 18 x_37_ * x_36_ + 34 x_41_ * x_39_ ] >= 2250
quadratic_ranged_2_lb: [ 84 x_42_ * x_2_ - 90 x_48_ * x_2_ + 96 x_25_ * x_3_ - 56 x_28_ * x_3_ + 54 x_14_ * x_13_ + 96 x_34_ * x_13_ + 100 x_41_ * x_13_ + 48 x_47_ * x_13_ - 84 x_28_ * x_14_ + 42 x_42_ * x_14_ - 74 x_37_ * x_25_ - 42 x_47_ * x_28_ - 98 x_48_ * x_28_ - 64 x_42_ * x_32_ - 94 x_48_ * x_32_ + 92 x_41_ * x_34_ - 96 x_42_ * x_34_ - 4 x_37_ ^ 2 + 92 x_42_ * x_37_ + 12 x_48_ * x_41_ ] >= -6716
quadratic_ranged_3_lb: [ 4 x_31_ * x_1_ - 90 x_44_ * x_1_ + 24 x_16_ * x_6_ + 24 x_26_ * x_6_ + 2 x_29_ * x_6_ + 26 x_30_ * x_6_ + 18 x_33_ * x_6_ + 22 x_45_ * x_6_ + 44 x_8_ ^ 2 - 42 x_30_ * x_8_ - 12 x_28_ * x_16_ + 52 x_44_ * x_16_ - 36 x_29_ * x_22_ + 76 x_30_ * x_22_ - 100 x_33_ * x_22_ + 28 x_26_ ^ 2 - 16 x_30_ * x_28_ + 24 x_31_ * x_28_ + 6 x_46_ * x_29_ ] >= 1555
quadratic_ranged_4_lb: 44 x_17_ + 25 x_28_ + [ 94 x_27_ * x_8_ + 52 x_31_ * x_8_ + 24 x_43_ * x_8_ - 84 x_31_ * x_10_ + 16 x_46_ * x_10_ + 98 x_27_ * x_17_ + 21 x_28_ ^ 2 - 82 x_43_ * x_28_ - 32 x_37_ * x_31_ + 24 x_33_ ^ 2 + 42 x_37_ * x_33_ + 18 x_46_ * x_33_ ] >= 1206
quadratic_ranged_5_lb: 7 x_2_ + 37 x_7_ + 22 x_8_ - 16 x_26_ - 3 x_41_ + [ 20 x_8_ * x_1_ + 86 x_12_ * x_1_ + 42 x_21_ * x_1_ + 68 x_28_ * x_1_ + 52 x_24_ * x_2_ - 60 x_32_ * x_2_ + 42 x_50_ * x_2_ + 14 x_21_ * x_7_ + 86 x_28_ * x_7_ - 10 x_50_ * x_7_ - 4 x_20_ * x_8_ - 14 x_20_ * x_12_ + 84 x_21_ * x_12_ - 40 x_28_ * x_12_ - 72 x_36_ * x_12_ - 22 x_32_ * x_21_ - 74 x_28_ * x_22_ - 44 x_32_ * x_22_ - 18 x_41_ * x_22_ - 12 x_47_ * x_22_ - 74 x_26_ * x_24_ + 50 x_50_ * x_26_ - 46 x_28_ ^ 2 + 16 x_32_ ^ 2 + 22 x_34_ ^ 2 - 62 x_36_ * x_34_ + 56 x_47_ * x_41_ - 52 x_50_ * x_41_ ] >= -2872
quadratic_ranged_6_lb: -5 x_15_ - 46 x_21_ + [ -20 x_1_ * x_16_ + 82 x_4_ * x_2_ - 24 x_16_ * x_2_ - 44 x_15_ * x_4_ - 34 x_21_ * x_11_ + 32 x_16_ * x_15_ + 92 x_22_ * x_15_ - 38 x_33_ * x_15_ + 24 x_22_ * x_16_ + 68 x_38_ * x_21_ ] >= 3126
quadratic_ranged_7_lb: -16 x_4_ + 50 x_22_ + 9 x_24_ + [ 30 x_4_ * x_19_ + 36 x_24_ * x_4_ - 24 x_37_ * x_4_ - 74 x_24_ * x_12_ - 10 x_27_ * x_12_ - 40 x_37_ * x_12_ + 60 x_22_ * x_18_ + 88 x_41_ * x_18_ + 20 x_22_ * x_19_ + 94 x_41_ * x_22_ + 40 x_41_ * x_37_ ] >= -4533
quadratic_ranged_8_lb: 50 x_21_ + 1 x_25_ + 22 x_33_ + [ -34 x_25_ * x_2_ - 54 x_37_ * x_2_ - 2 x_41_ * x_2_ - 98 x_33_ * x_21_ + 8 x_35_ * x_21_ - 45 x_25_ ^ 2 - 12 x_37_ * x_25_ - 82 x_35_ * x_33_ ] >= 598
quadratic_ranged_9_lb: -39 x_3_ - 36 x_17_ - 6 x_21_ + [ 26 x_21_ * x_17_ - 52 x_39_ * x_21_ + 38 x_41_ * x_25_ + 36 x_39_ ^ 2 ] >= 6043
quadratic_ranged_10_lb: 3 x_13_ + 31 x_47_ + 1 x_48_ + [ 36 x_12_ * x_5_ - 44 x_26_ * x_5_ + 38 x_47_ * x_5_ + 12 x_43_ * x_12_ + 50 x_13_ ^ 2 - 82 x_14_ * x_13_ - 86 x_39_ * x_13_ - 68 x_43_ * x_13_ + 24 x_47_ * x_13_ - 12 x_48_ * x_18_ - 98 x_43_ * x_26_ + 94 x_47_ * x_26_ + 52 x_48_ * x_39_ - 9 x_47_ ^ 2 ] >= -4207
quadratic_ranged_11_lb: -8 x_20_ + 37 x_21_ - 27 x_24_ + 46 x_25_ + 10 x_50_ + [ 1 x_6_ ^ 2 - 2 x_8_ * x_6_ + 64 x_25_ * x_6_ + 88 x_24_ * x_8_ - 84 x_21_ * x_17_ - 38 x_24_ * x_19_ - 88 x_50_ * x_19_ - 26 x_25_ * x_20_ + 18 x_48_ * x_24_ - 68 x_50_ * x_25_ - 35 x_50_ ^ 2 ] >= -7046
quadratic_ranged_12_lb: 48 x_49_ + [ -40 x_5_ ^ 2 - 82 x_15_ * x_5_ + 92 x_42_ * x_5_ + 22 x_13_ * x_7_ - 44 x_17_ * x_7_ - 4 x_37_ * x_7_ - 74 x_13_ * x_11_ + 24 x_37_ * x_11_ - 50 x_42_ * x_11_ - 58 x_42_ * x_13_ - 80 x_45_ * x_13_ + 84 x_25_ * x_15_ + 80 x_49_ * x_25_ + 43 x_31_ ^ 2 - 82 x_37_ * x_31_ + 24 x_42_ * x_37_ - 24 x_42_ ^ 2 + 66 x_49_ * x_42_ + 2 x_49_ ^ 2 ] >= -8865
quadratic_ranged_13_lb: -37 x_30_ + 18 x_43_ + [ -88 x_11_ * x_8_ - 54 x_14_ * x_8_ + 88 x_16_ * x_8_ - 74 x_35_ * x_8_ - 54 x_42_ * x_8_ + 56 x_14_ * x_11_ - 74 x_30_ * x_11_ - 50 x_42_ * x_11_ + 38 x_43_ * x_11_ + 14 x_30_ * x_13_ - 2 x_43_ * x_13_ + 52 x_44_ * x_14_ + 48 x_43_ * x_16_ + 44 x_46_ * x_16_ - 78 x_35_ * x_30_ - 23 x_35_ ^ 2 - 18 x_43_ * x_42_ - 24 x_46_ * x_42_ ] >= -1157
quadratic_ranged_14_lb: -18 x_24_ + 34 x_40_ + [ 30 x_27_ * x_4_ + 6 x_24_ * x_6_ - 90 x_27_ * x_6_ + 20 x_40_ * x_6_ - 20 x_24_ * x_14_ + 78 x_24_ * x_22_ + 80 x_30_ * x_22_ + 78 x_30_ * x_24_ - 43 x_40_ ^ 2 ] >= -4486
quadratic_ranged_15_lb: 34 x_19_ + 47 x_46_ + 1 x_47_ + [ 82 x_50_ * x_4_ - 72 x_36_ * x_10_ - 98 x_46_ * x_10_ - 42 x_47_ * x_15_ - 48 x_30_ * x_19_ - 36 x_36_ * x_19_ - 50 x_39_ * x_19_ + 38 x_50_ * x_19_ + 14 x_30_ ^ 2 + 100 x_39_ * x_30_ + 60 x_50_ * x_30_ - 78 x_50_ * x_36_ ] >= 1694
quadratic_ranged_16_lb: [ 50 x_35_ * x_11_ - 35 x_25_ ^ 2 - 84 x_35_ * x_25_ - 15 x_33_ ^ 2 - 52 x_35_ * x_33_ - 2 x_35_ ^ 2 ] >= -1763
quadratic_ranged_17_lb: 13 x_1_ - 29 x_22_ + 8 x_38_ - 33 x_42_ + [ -30 x_25_ * x_2_ + 84 x_42_ * x_2_ + 42 x_38_ * x_22_ - 48 x_42_ * x_22_ - 4 x_35_ * x_25_ + 18 x_49_ * x_35_ - 5 x_42_ ^ 2 - 54 x_49_ * x_42_ ] >= 344
quadratic_ranged_18_lb: 29 x_8_ + 45 x_37_ + 7 x_40_ + [ 68 x_15_ * x_5_ + 10 x_40_ * x_5_ + 10 x_37_ * x_8_ + 70 x_46_ * x_8_ + 30 x_34_ * x_13_ + 88 x_40_ * x_13_ + 26 x_46_ * x_13_ + 28 x_26_ * x_15_ - 48 x_40_ * x_15_ + 98 x_34_ * x_25_ + 14 x_46_ * x_25_ - 4 x_30_ ^ 2 - 26 x_35_ * x_30_ + 32 x_40_ * x_30_ + 44 x_35_ * x_32_ + 38 x_34_ ^ 2 - 88 x_46_ * x_40_ + 44 x_46_ ^ 2 ] >= 1848
quadratic_ranged_19_lb: -17 x_10_ + 6 x_18_ - 9 x_47_ + [ 76 x_47_ * x_2_ + 56 x_10_ * x_3_ - 49 x_10_ ^ 2 + 14 x_16_ * x_10_ + 8 x_16_ ^ 2 + 8 x_47_ * x_16_ + 45 x_25_ ^ 2 + 44 x_26_ ^ 2 ] >= -7478
quadratic_ranged_20_lb: -28 x_1_ - 50 x_41_ - 22 x_49_ + [ 28 x_48_ * x_1_ - 18 x_10_ ^ 2 + 34 x_17_ * x_10_ + 20 x_39_ * x_10_ - 14 x_44_ * x_10_ - 24 x_49_ * x_10_ + 3 x_13_ ^ 2 + 96 x_17_ * x_13_ - 40 x_39_ * x_13_ + 80 x_48_ * x_17_ + 32 x_26_ * x_24_ + 46 x_48_ * x_24_ + 76 x_48_ * x_26_ - 27 x_44_ ^ 2 ] >= -1755
quadratic_ranged_21_lb: -7 x_3_ + 36 x_7_ - 11 x_39_ + [ 40 x_33_ * x_1_ - 14 x_36_ * x_1_ + 50 x_44_ * x_1_ - 6 x_7_ * x_3_ + 46 x_14_ * x_3_ + 68 x_15_ * x_3_ - 54 x_33_ * x_3_ - 35 x_7_ ^ 2 - 1 x_14_ ^ 2 - 38 x_15_ ^ 2 - 74 x_33_ * x_15_ - 42 x_36_ * x_18_ - 68 x_39_ * x_23_ + 40 x_33_ ^ 2 + 64 x_45_ * x_33_ - 96 x_39_ * x_36_ ] >= -3940
quadratic_ranged_22_lb: 38 x_30_ + [ 22 x_19_ * x_5_ + 70 x_29_ * x_5_ + 88 x_30_ * x_9_ + 39 x_12_ ^ 2 + 40 x_38_ * x_12_ - 36 x_38_ * x_15_ - 98 x_29_ * x_17_ - 4 x_30_ * x_19_ - 22 x_38_ * x_19_ - 29 x_30_ ^ 2 ] >= -1380
quadratic_ranged_23_lb: -24 x_34_ - 13 x_35_ - 50 x_39_ + [ 80 x_30_ * x_5_ + 82 x_33_ * x_5_ - 14 x_37_ * x_9_ + 50 x_30_ * x_16_ + 64 x_35_ * x_17_ + 98 x_30_ * x_28_ + 50 x_35_ * x_28_ + 14 x_39_ * x_28_ + 23 x_30_ ^ 2 + 72 x_34_ * x_30_ + 38 x_33_ ^ 2 - 22 x_37_ * x_33_ + 39 x_34_ ^ 2 + 22 x_39_ * x_34_ - 32 x_37_ * x_35_ + 26 x_39_ * x_35_ + 36 x_37_ ^ 2 + 10 x_39_ * x_37_ ] >= 6259
quadratic_ranged_24_lb: -22 x_12_ - 25 x_24_ + 5 x_27_ - 26 x_29_ + 38 x_45_ + [ 92 x_10_ * x_3_ - 46 x_12_ * x_3_ - 34 x_21_ * x_3_ - 2 x_27_ * x_4_ + 52 x_10_ * x_7_ - 24 x_10_ ^ 2 + 52 x_21_ * x_10_ - 82 x_24_ * x_10_ + 72 x_39_ * x_10_ - 66 x_21_ * x_12_ - 70 x_45_ * x_12_ - 14 x_21_ ^ 2 + 84 x_24_ * x_21_ + 22 x_45_ * x_21_ + 10 x_48_ * x_21_ + 38 x_48_ * x_24_ + 8 x_48_ * x_26_ + 26 x_39_ * x_27_ - 66 x_45_ * x_33_ - 24 x_48_ * x_39_ ] >= -9079
quadratic_ranged_25_lb: 27 x_2_ + 15 x_16_ - 35 x_47_ + [ -22 x_2_ * x_14_ + 4 x_16_ * x_2_ - 30 x_30_ * x_2_ + 10 x_46_ * x_2_ - 52 x_11_ * x_4_ + 20 x_29_ * x_4_ + 14 x_14_ * x_11_ - 56 x_30_ * x_11_ + 74 x_46_ * x_11_ - 38 x_30_ * x_16_ - 22 x_32_ * x_16_ + 64 x_32_ * x_29_ - 14 x_46_ * x_29_ - 76 x_49_ * x_29_ + 30 x_32_ * x_30_ - 80 x_46_ * x_30_ - 30 x_46_ * x_32_ ] >= -8959
quadratic_ranged_26_lb: -4 x_24_ - 20 x_39_ + [ 46 x_24_ * x_4_ + 96 x_27_ * x_4_ + 14 x_24_ * x_6_ - 2 x_33_ * x_6_ - 4 x_10_ ^ 2 + 54 x_33_ * x_10_ - 16 x_39_ * x_10_ + 4 x_12_ ^ 2 - 96 x_26_ * x_12_ + 8 x_42_ * x_24_ - 26 x_26_ ^ 2 - 80 x_33_ * x_27_ + 82 x_34_ * x_27_ + 22 x_39_ * x_34_ + 41 x_39_ ^ 2 ] >= 1223
quadratic_ranged_27_lb: -28 x_26_ - 6 x_33_ + [ 82 x_7_ * x_26_ - 66 x_33_ * x_7_ + 26 x_43_ * x_7_ - 78 x_26_ * x_20_ - 24 x_33_ * x_20_ - 10 x_37_ * x_26_ + 74 x_43_ * x_26_ - 58 x_43_ * x_33_ + 98 x_43_ * x_37_ ] >= 817
quadratic_ranged_28_lb: 40 x_12_ + [ -70 x_11_ * x_12_ + 84 x_41_ * x_11_ - 62 x_41_ * x_12_ - 96 x_46_ * x_12_ ] >= -994
quadratic_ranged_29_lb: -34 x_24_ + 12 x_27_ + [ 94 x_18_ * x_24_ + 90 x_28_ * x_18_ + 20 x_43_ * x_24_ + 8 x_43_ * x_27_ + 20 x_43_ * x_28_ + 18 x_46_ * x_28_ + 44 x_43_ * x_39_ ] >= -9458
quadratic_ranged_30_lb: 45 x_7_ + 15 x_36_ - 6 x_42_ + 41 x_48_ + [ -24 x_7_ * x_6_ - 30 x_21_ * x_6_ + 90 x_23_ * x_6_ - 18 x_26_ * x_6_ - 100 x_36_ * x_6_ - 96 x_39_ * x_6_ - 78 x_47_ * x_6_ - 12 x_7_ ^ 2 + 82 x_21_ * x_7_ - 34 x_33_ * x_7_ + 23 x_11_ ^ 2 + 28 x_23_ * x_11_ - 48 x_26_ * x_11_ - 54 x_26_ * x_17_ + 10 x_42_ * x_21_ - 48 x_47_ * x_21_ - 92 x_25_ * x_23_ - 31 x_25_ ^ 2 + 76 x_42_ * x_25_ + 8 x_26_ ^ 2 - 90 x_33_ * x_26_ - 42 x_33_ ^ 2 + 74 x_39_ * x_36_ + 88 x_48_ * x_36_ ] >= 11331
c1: 32 x_30_ + [ 40 x_20_ * x_14_ - 46 x_38_ * x_14_ - 80 x_37_ * x_30_ + 90 x_37_ * x_35_ - 78 x_43_ * x_35_ - 82 x_44_ * x_37_ + 5 x_38_ ^ 2 + 40 x_44_ * x_38_ + 38 x_50_ * x_43_ ] = 951
c2: -3 x_7_ + [ 44 x_14_ * x_7_ + 66 x_20_ * x_7_ - 76 x_48_ * x_7_ + 49 x_13_ ^ 2 + 46 x_26_ * x_14_ + 100 x_48_ * x_14_ + 14 x_18_ ^ 2 - 96 x_26_ * x_18_ - 58 x_46_ * x_18_ + 28 x_48_ * x_18_ - 18 x_48_ * x_26_ - 24 x_48_ ^ 2 ] = 3042
c3: 8 x_17_ - 27 x_47_ + [ -12 x_39_ * x_17_ + 43 x_27_ ^ 2 - 86 x_39_ * x_27_ - 38 x_29_ * x_28_ - 10 x_41_ * x_28_ ] = 3793
c4: 34 x_1_ + 44 x_3_ - 48 x_10_ + 30 x_17_ - 7 x_29_ + [ -78 x_17_ * x_1_ - 62 x_26_ * x_3_ - 82 x_21_ * x_10_ - 36 x_21_ * x_17_ - 92 x_29_ * x_17_ - 66 x_29_ * x_22_ - 78 x_49_ * x_22_ - 80 x_37_ * x_24_ - 90 x_42_ * x_26_ + 12 x_29_ ^ 2 - 86 x_44_ * x_37_ - 98 x_49_ * x_44_ ] = -16995
c5: 7 x_20_ + [ -18 x_9_ * x_7_ - 86 x_20_ * x_7_ - 52 x_48_ * x_7_ + 70 x_37_ * x_9_ - 80 x_40_ * x_9_ + 96 x_43_ * x_9_ - 84 x_20_ * x_11_ + 6 x_42_ * x_11_ - 42 x_20_ ^ 2 - 15 x_32_ ^ 2 - 82 x_40_ * x_32_ - 10 x_42_ * x_32_ - 10 x_36_ ^ 2 - 36 x_40_ ^ 2 ] = -5940
c6: [ 34 x_6_ ^ 2 + 20 x_21_ * x_6_ + 34 x_48_ * x_6_ - 43 x_17_ ^ 2 + 34 x_21_ * x_17_ - 28 x_21_ * x_20_ + 24 x_21_ ^ 2 - 88 x_24_ * x_21_ + 16 x_24_ ^ 2 - 88 x_25_ * x_24_ - 32 x_48_ * x_24_ - 78 x_34_ * x_33_ + 62 x_48_ * x_33_ - 68 x_36_ * x_34_ - 72 x_48_ * x_36_ ] = 5626
c7: 21 x_3_ + 28 x_26_ - 39 x_35_ - 38 x_38_ + [ -8 x_3_ ^ 2 + 18 x_20_ * x_3_ - 14 x_24_ * x_3_ + 76 x_30_ * x_3_ - 100 x_41_ * x_3_ - 76 x_46_ * x_3_ + 84 x_29_ * x_4_ + 23 x_20_ ^ 2 - 50 x_38_ * x_20_ - 50 x_46_ * x_20_ - 82 x_42_ * x_24_ + 66 x_46_ * x_24_ + 10 x_49_ * x_24_ - 12 x_26_ ^ 2 + 74 x_41_ * x_26_ + 6 x_49_ * x_26_ + 36 x_35_ * x_29_ + 70 x_46_ * x_30_ - 22 x_49_ * x_30_ - 45 x_32_ ^ 2 - 36 x_35_ * x_32_ - 46 x_42_ * x_32_ + 94 x_49_ * x_32_ + 30 x_46_ * x_35_ + 98 x_48_ * x_35_ - 84 x_49_ * x_38_ - 7 x_41_ ^ 2 + 6 x_48_ * x_41_ + 8 x_42_ ^ 2 + 82 x_46_ * x_42_ + 20 x_48_ * x_46_ + 49 x_48_ ^ 2 ] = -13080
c8: -48 x_45_ - 32 x_47_ + [ 98 x_2_ * x_9_ + 68 x_25_ * x_2_ - 4 x_28_ * x_2_ + 88 x_41_ * x_2_ - 32 x_16_ * x_6_ + 94 x_17_ * x_6_ + 10 x_28_ * x_6_ - 90 x_33_ * x_6_ - 64 x_43_ * x_6_ - 78 x_47_ * x_6_ + 18 x_17_ * x_7_ - 96 x_25_ * x_7_ + 56 x_28_ * x_7_ + 86 x_39_ * x_7_ + 92 x_45_ * x_7_ - 10 x_15_ * x_9_ + 56 x_31_ * x_9_ + 54 x_33_ * x_9_ + 44 x_39_ * x_9_ - 66 x_47_ * x_9_ - 6 x_16_ * x_15_ - 74 x_31_ * x_15_ - 28 x_39_ * x_15_ + 32 x_39_ * x_16_ - 82 x_43_ * x_16_ + 80 x_47_ * x_16_ + 50 x_47_ * x_17_ + 50 x_39_ * x_24_ - 54 x_43_ * x_24_ - 42 x_45_ * x_24_ + 62 x_31_ * x_25_ - 20 x_47_ * x_25_ + 28 x_50_ * x_25_ - 78 x_39_ * x_28_ + 80 x_33_ * x_31_ - 60 x_43_ * x_31_ - 26 x_45_ * x_31_ + 80 x_47_ * x_39_ - 34 x_50_ * x_42_ + 38 x_50_ * x_47_ ] = -10224
c9: [ -42 x_26_ ^ 2 - 52 x_40_ * x_26_ - 50 x_34_ ^ 2 - 80 x_40_ * x_34_ ] = -7650
c10: [ -68 x_32_ * x_30_ - 20 x_48_ * x_30_ - 74 x_48_ * x_32_ + 20 x_42_ ^ 2 ] = -1116
c11: -44 x_36_ - 22 x_38_ + [ -58 x_22_ * x_2_ - 84 x_36_ * x_2_ + 72 x_36_ * x_20_ - 29 x_22_ ^ 2 - 88 x_48_ * x_35_ + 27 x_38_ ^ 2 ] = -4084
c12: -30 x_4_ - 41 x_10_ + 21 x_25_ - 15 x_36_ + [ 96 x_13_ * x_1_ + 52 x_26_ * x_1_ - 78 x_28_ * x_1_ - 26 x_49_ * x_1_ + 54 x_4_ * x_3_ + 98 x_20_ * x_3_ + 86 x_40_ * x_3_ - 58 x_49_ * x_3_ + 24 x_26_ * x_4_ - 76 x_13_ * x_10_ - 2 x_25_ * x_10_ + 10 x_25_ * x_13_ - 62 x_36_ * x_13_ - 6 x_40_ * x_13_ + 70 x_26_ * x_20_ + 46 x_26_ * x_25_ + 12 x_36_ * x_25_ + 26 x_50_ * x_26_ - 54 x_49_ * x_40_ - 37 x_49_ ^ 2 ] = -2565
c13: -23 x_28_ - 32 x_46_ + [ -22 x_2_ ^ 2 - 8 x_8_ * x_2_ + 74 x_39_ * x_2_ + 78 x_41_ * x_2_ + 34 x_41_ * x_3_ - 35 x_8_ ^ 2 - 12 x_10_ * x_8_ - 8 x_38_ * x_8_ + 4 x_25_ * x_10_ + 8 x_38_ * x_25_ + 84 x_41_ * x_28_ ] = -4474
c14: -35 x_6_ + 12 x_47_ + [ -82 x_22_ * x_2_ + 76 x_21_ * x_6_ + 24 x_16_ ^ 2 + 66 x_22_ * x_16_ + 82 x_47_ * x_16_ + 20 x_47_ * x_21_ - 38 x_35_ * x_22_ - 31 x_45_ ^ 2 - 82 x_47_ * x_45_ - 38 x_49_ * x_45_ ] = -6846
c15: -9 x_5_ + 4 x_33_ + [ -26 x_11_ * x_1_ + 34 x_15_ * x_1_ + 30 x_41_ * x_1_ + 4 x_11_ * x_5_ + 34 x_23_ * x_5_ + 32 x_24_ * x_5_ - 32 x_9_ * x_7_ - 22 x_24_ * x_7_ - 34 x_23_ * x_11_ + 72 x_30_ * x_15_ + 58 x_41_ * x_15_ + 32 x_33_ * x_24_ + 24 x_41_ * x_33_ + 49 x_41_ ^ 2 ] = -3227
c16: 4 x_29_ + 4 x_50_ + [ -20 x_26_ * x_17_ + 32 x_26_ ^ 2 - 47 x_29_ ^ 2 + 48 x_34_ * x_29_ + 78 x_39_ * x_29_ + 38 x_39_ * x_34_ + 80 x_40_ * x_34_ ] = -5927
c17: 30 x_9_ - 46 x_22_ + [ -6 x_44_ * x_10_ - 12 x_11_ ^ 2 - 42 x_22_ * x_11_ + 14 x_33_ * x_15_ + 94 x_44_ * x_15_ + 8 x_50_ * x_15_ - 86 x_48_ * x_17_ - 58 x_42_ * x_22_ + 96 x_44_ * x_22_ - 86 x_42_ * x_33_ + 16 x_48_ * x_33_ - 46 x_44_ ^ 2 + 24 x_48_ * x_44_ ] = 5378
c18: -10 x_22_ - 17 x_25_ + 32 x_47_ + 44 x_50_ + [ -10 x_21_ * x_1_ - 10 x_47_ * x_1_ - 88 x_21_ * x_4_ - 4 x_46_ * x_4_ + 74 x_47_ * x_4_ + 46 x_50_ * x_4_ - 84 x_24_ * x_5_ + 96 x_25_ * x_5_ + 32 x_35_ * x_5_ + 46 x_40_ * x_5_ - 56 x_46_ * x_5_ - 90 x_22_ * x_21_ - 8 x_40_ * x_21_ - 52 x_44_ * x_21_ + 32 x_24_ * x_22_ + 68 x_35_ * x_24_ + 43 x_25_ ^ 2 + 82 x_41_ * x_25_ + 18 x_47_ * x_25_ - 12 x_50_ * x_25_ + 48 x_35_ * x_28_ - 44 x_46_ * x_28_ - 2 x_40_ ^ 2 + 82 x_44_ * x_40_ - 90 x_47_ * x_41_ - 92 x_46_ * x_44_ - 42 x_50_ * x_44_ ] = -21092
c19: 16 x_29_ - 33 x_36_ + [ -36 x_46_ * x_2_ + 88 x_16_ * x_6_ - 44 x_30_ * x_6_ + 46 x_36_ * x_6_ - 74 x_48_ * x_6_ - 17 x_7_ ^ 2 + 40 x_22_ * x_16_ + 22 x_36_ * x_16_ - 34 x_41_ * x_16_ - 98 x_22_ * x_18_ + 34 x_26_ * x_18_ + 70 x_46_ * x_18_ - 21 x_22_ ^ 2 - 16 x_29_ * x_22_ - 18 x_36_ * x_22_ + 40 x_43_ * x_22_ + 24 x_36_ * x_26_ - 32 x_39_ * x_26_ - 26 x_29_ ^ 2 - 2 x_39_ * x_29_ - 80 x_43_ * x_29_ + 4 x_41_ * x_30_ - 84 x_43_ * x_30_ + 32 x_39_ ^ 2 - 34 x_43_ * x_39_ + 28 x_43_ ^ 2 + 19 x_48_ ^ 2 ] = -4577
c20: 25 x_2_ + 18 x_12_ + [ -20 x_14_ * x_12_ - 72 x_44_ * x_12_ - 14 x_14_ ^ 2 + 100 x_44_ * x_14_ + 27 x_44_ ^ 2 ] = 12250
Bounds
-9 <= x_1_ <= 8
-9 <= x_2_ <= -2
-10 <= x_3_ <= 9
-3 <= x_4_ <= 10
-9 <= x_5_ <= 0
-8 <= x_6_ <= 4
-10 <= x_7_ <= 5
-7 <= x_8_ <= 0
-9 <= x_9_ <= 6
-6 <= x_10_ <= 9
-1 <= x_11_ <= 9
-5 <= x_12_ <= 10
-3 <= x_13_ <= 8
-8 <= x_14_ <= 7
-6 <= x_15_ <= 10
-6 <= x_16_ <= 4
-8 <= x_17_ <= 0
-10 <= x_18_ <= -4
-2 <= x_19_ <= 5
-8 <= x_20_ <= 4
-10 <= x_21_ <= 6
-9 <= x_22_ <= 2
4 <= x_23_ <= 9
-2 <= x_24_ <= 10
-1 <= x_25_ <= 7
-3 <= x_26_ <= 2
-10 <= x_27_ <= 8
0 <= x_28_ <= 10
-10 <= x_29_ <= -4
-1 <= x_30_ <= 5
-7 <= x_31_ <= 8
9 <= x_32_ <= 10
-4 <= x_33_ <= 6
4 <= x_34_ <= 10
-7 <= x_35_ <= -3
-2 <= x_36_ <= 6
-1 <= x_37_ <= 8
-10 <= x_38_ <= 5
-9 <= x_39_ <= 7
-5 <= x_40_ <= 7
-10 <= x_41_ <= 3
-5 <= x_42_ <= 7
-9 <= x_43_ <= 4
-8 <= x_44_ <= 5
0 <= x_45_ <= 5
-6 <= x_46_ <= 8
-10 <= x_47_ <= 9
-4 <= x_48_ <= 3
-10 <= x_49_ <= -6
-1 <= x_50_ <= 9
General
x_1_
x_2_
x_3_
x_4_
x_5_
x_6_
x_7_
x_8_
x_9_
x_10_
x_11_
x_12_
x_13_
x_14_
x_15_
x_16_
x_17_
x_18_
x_19_
x_20_
x_21_
x_22_
x_23_
x_24_
x_25_
x_26_
x_27_
x_28_
x_29_
x_30_
x_31_
x_32_
x_33_
x_34_
x_35_
x_36_
x_37_
x_38_
x_39_
x_40_
x_41_
x_42_
x_43_
x_44_
x_45_
x_46_
x_47_
x_48_
x_49_
x_50_
End
