minimize
obj: -41 x_1_ - 10 x_8_ - 23 x_11_ - 13 x_15_ - 4 x_20_ + 46 x_27_ + 13 x_35_ - 3 x_43_ + 39 x_48_
subject to
quadratic_ranged_1_ub: [ 96 x_42_ * x_12_ + 92 x_37_ * x_18_ - 58 x_44_ * x_37_ - 34 x_44_ * x_42_ + 10 x_44_ ^ 2 ] <= -2711
quadratic_ranged_2_ub: 6 x_5_ + 23 x_47_ + [ 10 x_21_ * x_2_ + 92 x_47_ * x_2_ - 92 x_50_ * x_2_ + 38 x_5_ ^ 2 - 24 x_50_ * x_5_ - 42 x_9_ ^ 2 + 42 x_18_ * x_9_ - 68 x_21_ * x_9_ - 98 x_22_ * x_9_ + 2 x_29_ * x_9_ + 45 x_18_ ^ 2 + 78 x_36_ * x_18_ + 38 x_47_ * x_18_ + 52 x_50_ * x_18_ - 8 x_44_ * x_19_ - 12 x_22_ ^ 2 - 56 x_44_ * x_22_ + 32 x_50_ * x_22_ + 23 x_29_ ^ 2 - 34 x_47_ * x_44_ ] <= 4666
quadratic_ranged_3_ub: -15 x_9_ + 5 x_10_ + 14 x_13_ - 38 x_15_ + [ -86 x_19_ * x_2_ + 31 x_4_ ^ 2 - 62 x_9_ * x_7_ - 58 x_27_ * x_7_ - 92 x_19_ * x_9_ - 24 x_13_ * x_10_ - 80 x_39_ * x_10_ + 46 x_45_ * x_10_ - 72 x_19_ * x_13_ + 78 x_19_ * x_15_ + 78 x_45_ * x_15_ ] <= 5809
quadratic_ranged_4_ub: -18 x_9_ + 41 x_10_ - 30 x_39_ + [ 76 x_10_ * x_6_ + 78 x_50_ * x_6_ + 86 x_39_ * x_9_ + 48 x_30_ ^ 2 + 14 x_42_ ^ 2 + 26 x_50_ * x_42_ ] <= -6968
quadratic_ranged_5_ub: -48 x_3_ - 2 x_9_ + 34 x_28_ - 8 x_41_ + [ -32 x_33_ * x_1_ + 47 x_3_ ^ 2 + 4 x_9_ ^ 2 + 6 x_28_ * x_9_ + 14 x_27_ * x_10_ - 80 x_28_ * x_10_ - 28 x_14_ * x_11_ + 1 x_14_ ^ 2 - 56 x_27_ * x_14_ - 32 x_41_ * x_14_ + 86 x_35_ * x_21_ + 26 x_41_ * x_21_ - 32 x_27_ ^ 2 + 42 x_28_ * x_27_ - 4 x_37_ * x_33_ + 10 x_41_ * x_37_ + 9 x_41_ ^ 2 ] <= -1879
quadratic_ranged_6_ub: -14 x_14_ + 4 x_15_ - 29 x_29_ + 23 x_42_ + [ 28 x_19_ * x_6_ + 6 x_26_ * x_6_ + 40 x_20_ * x_9_ - 84 x_42_ * x_9_ + 22 x_14_ ^ 2 - 28 x_19_ * x_14_ + 86 x_20_ * x_14_ - 2 x_26_ * x_14_ + 38 x_42_ * x_15_ - 18 x_25_ * x_19_ + 92 x_29_ * x_20_ + 18 x_26_ * x_25_ + 60 x_42_ * x_26_ + 16 x_29_ ^ 2 ] <= -1639
quadratic_ranged_7_ub: 42 x_24_ - 37 x_25_ - 50 x_28_ - 42 x_30_ + [ 50 x_21_ * x_2_ - 58 x_34_ * x_2_ + 100 x_30_ * x_14_ + 68 x_34_ * x_14_ + 42 x_31_ * x_21_ + 38 x_42_ * x_21_ - 6 x_30_ * x_24_ - 86 x_33_ * x_24_ - 56 x_47_ * x_24_ - 82 x_33_ * x_25_ + 98 x_30_ * x_28_ - 86 x_31_ * x_28_ + 42 x_33_ * x_28_ + 46 x_34_ * x_30_ + 33 x_31_ ^ 2 + 62 x_33_ * x_31_ - 52 x_47_ * x_31_ - 8 x_42_ * x_33_ - 18 x_42_ * x_34_ ] <= 1851
quadratic_ranged_8_ub: -19 x_9_ - 43 x_29_ - 13 x_37_ + [ -8 x_3_ ^ 2 - 32 x_29_ * x_3_ - 52 x_33_ * x_3_ + 20 x_29_ * x_4_ + 80 x_33_ * x_4_ + 40 x_9_ * x_7_ + 28 x_35_ * x_7_ - 88 x_37_ * x_9_ + 50 x_29_ ^ 2 - 14 x_33_ * x_29_ + 16 x_35_ * x_29_ + 40 x_37_ * x_29_ + 84 x_50_ * x_29_ + 96 x_35_ * x_33_ - 90 x_50_ * x_33_ - 40 x_35_ ^ 2 + 96 x_50_ * x_35_ ] <= 339
quadratic_ranged_9_ub: [ 74 x_2_ * x_39_ + 98 x_44_ * x_2_ - 56 x_14_ * x_4_ + 60 x_30_ * x_4_ + 38 x_36_ * x_4_ - 80 x_36_ * x_14_ + 66 x_30_ * x_23_ - 16 x_39_ * x_23_ - 28 x_36_ * x_30_ + 2 x_39_ * x_30_ + 16 x_44_ * x_39_ ] <= 4046
quadratic_ranged_10_ub: -13 x_21_ - 47 x_26_ + 6 x_39_ + [ 52 x_39_ * x_21_ - 26 x_34_ * x_23_ - 40 x_33_ * x_26_ - 18 x_33_ ^ 2 - 74 x_39_ * x_33_ - 40 x_39_ * x_34_ + 18 x_44_ * x_43_ ] <= -4587
quadratic_ranged_11_ub: 11 x_16_ + [ 14 x_4_ ^ 2 + 94 x_7_ * x_4_ + 60 x_14_ * x_4_ + 30 x_8_ * x_7_ + 44 x_20_ * x_7_ - 84 x_22_ * x_7_ + 98 x_34_ * x_7_ - 40 x_31_ * x_8_ - 56 x_34_ * x_8_ - 46 x_22_ * x_16_ - 25 x_22_ ^ 2 + 44 x_31_ * x_22_ + 26 x_34_ * x_31_ ] <= -3280
quadratic_ranged_12_ub: 23 x_29_ + 34 x_32_ + [ 94 x_15_ * x_8_ + 60 x_44_ * x_8_ - 52 x_32_ * x_12_ + 90 x_44_ * x_12_ + 62 x_36_ * x_15_ - 10 x_44_ * x_15_ + 74 x_29_ * x_18_ + 38 x_32_ * x_18_ + 78 x_36_ * x_18_ - 12 x_44_ * x_18_ - 35 x_26_ ^ 2 - 10 x_39_ * x_26_ + 13 x_29_ ^ 2 + 86 x_39_ * x_36_ - 60 x_44_ * x_39_ + 20 x_44_ ^ 2 ] <= 4529
quadratic_ranged_13_ub: 6 x_25_ + [ -47 x_11_ ^ 2 + 50 x_18_ ^ 2 + 20 x_25_ * x_18_ - 6 x_30_ * x_18_ - 78 x_36_ * x_21_ ] <= 2723
quadratic_ranged_14_ub: -37 x_13_ + 28 x_22_ + 16 x_26_ - 20 x_50_ + [ 4 x_3_ ^ 2 + 30 x_9_ ^ 2 + 16 x_33_ * x_9_ - 8 x_22_ * x_13_ + 66 x_23_ * x_13_ + 4 x_33_ * x_22_ - 10 x_26_ ^ 2 + 43 x_50_ ^ 2 ] <= 4755
quadratic_ranged_15_ub: -7 x_1_ + 43 x_16_ + 35 x_35_ - 36 x_49_ + [ 42 x_45_ * x_1_ + 22 x_49_ * x_1_ - 39 x_3_ ^ 2 - 90 x_5_ * x_3_ - 2 x_17_ * x_5_ - 84 x_49_ * x_5_ + 22 x_15_ * x_14_ - 94 x_43_ * x_14_ - 21 x_15_ ^ 2 - 34 x_35_ * x_15_ + 56 x_39_ * x_15_ - 2 x_16_ ^ 2 + 98 x_39_ * x_17_ - 92 x_43_ * x_39_ + 49 x_43_ ^ 2 ] <= 7668
quadratic_ranged_16_ub: 19 x_24_ - 34 x_42_ + [ 74 x_24_ * x_1_ + 7 x_5_ ^ 2 + 17 x_14_ ^ 2 + 34 x_24_ * x_14_ + 20 x_37_ * x_14_ - 23 x_19_ ^ 2 + 4 x_22_ * x_19_ - 33 x_22_ ^ 2 - 46 x_37_ * x_22_ + 36 x_42_ * x_22_ + 26 x_42_ * x_37_ ] <= -8289
quadratic_ranged_17_ub: 45 x_4_ + [ 100 x_4_ * x_2_ - 4 x_16_ * x_2_ - 62 x_12_ * x_3_ - 82 x_22_ * x_4_ - 34 x_14_ ^ 2 + 14 x_16_ * x_15_ ] <= 2810
quadratic_ranged_18_ub: 32 x_13_ + 36 x_24_ + 16 x_35_ + 21 x_40_ + [ -54 x_35_ * x_3_ + 42 x_47_ * x_3_ - 70 x_49_ * x_3_ + 70 x_9_ * x_4_ + 58 x_13_ * x_4_ - 82 x_15_ * x_4_ + 80 x_24_ * x_4_ - 42 x_39_ * x_4_ + 46 x_41_ * x_4_ + 74 x_48_ * x_4_ + 90 x_28_ * x_9_ + 4 x_35_ * x_9_ + 90 x_41_ * x_9_ + 98 x_45_ * x_9_ - 40 x_15_ * x_13_ + 94 x_35_ * x_13_ + 32 x_41_ * x_13_ + 50 x_45_ * x_13_ - 36 x_49_ * x_13_ + 7 x_15_ ^ 2 - 46 x_47_ * x_15_ - 90 x_49_ * x_15_ - 50 x_33_ * x_24_ + 10 x_40_ * x_24_ - 32 x_40_ * x_28_ - 52 x_45_ * x_28_ + 86 x_48_ * x_28_ + 36 x_41_ * x_29_ - 14 x_48_ * x_33_ - 46 x_45_ * x_35_ + 76 x_49_ * x_35_ - 15 x_39_ ^ 2 + 76 x_40_ * x_39_ + 16 x_41_ * x_39_ + 28 x_45_ * x_39_ + 50 x_47_ * x_39_ + 28 x_41_ * x_40_ - 56 x_45_ * x_40_ + 48 x_49_ * x_41_ + 39 x_45_ ^ 2 - 68 x_49_ * x_45_ + 45 x_48_ ^ 2 ] <= 5683
quadratic_ranged_19_ub: 11 x_22_ + 13 x_38_ - 31 x_45_ + [ 18 x_22_ * x_4_ - 52 x_16_ * x_10_ - 2 x_34_ * x_10_ + 100 x_38_ * x_10_ - 60 x_48_ * x_10_ + 23 x_15_ ^ 2 - 14 x_40_ * x_15_ - 14 x_45_ * x_15_ - 58 x_23_ * x_16_ - 44 x_38_ * x_16_ + 62 x_40_ * x_16_ + 12 x_18_ ^ 2 + 34 x_22_ * x_18_ - 22 x_23_ * x_18_ + 96 x_31_ * x_22_ + 70 x_35_ * x_22_ + 2 x_38_ * x_23_ - 32 x_45_ * x_23_ + 94 x_35_ * x_31_ - 2 x_34_ ^ 2 + 46 x_35_ * x_34_ - 84 x_40_ * x_35_ + 68 x_40_ * x_36_ + 48 x_45_ * x_38_ - 28 x_48_ ^ 2 ] <= 19114
quadratic_ranged_20_ub: -18 x_28_ - 44 x_33_ + 34 x_49_ + [ 68 x_28_ * x_5_ + 54 x_21_ * x_8_ + 14 x_49_ * x_12_ + 50 x_22_ * x_19_ + 56 x_28_ * x_19_ - 70 x_33_ * x_21_ + 13 x_22_ ^ 2 - 12 x_28_ * x_22_ + 34 x_35_ * x_33_ ] <= -1584
quadratic_ranged_21_ub: 10 x_14_ - 46 x_36_ + 48 x_45_ + [ -84 x_7_ * x_4_ - 82 x_14_ * x_4_ + 80 x_9_ * x_7_ + 82 x_22_ * x_14_ - 60 x_45_ * x_14_ - 44 x_31_ * x_22_ - 14 x_45_ * x_22_ - 13 x_31_ ^ 2 + 34 x_45_ * x_34_ ] <= 5090
quadratic_ranged_22_ub: -21 x_5_ - 14 x_27_ + [ 60 x_4_ * x_2_ - 26 x_6_ * x_2_ + 64 x_27_ * x_2_ + 18 x_28_ * x_2_ + 86 x_20_ * x_4_ + 24 x_6_ * x_5_ + 24 x_25_ * x_5_ + 58 x_28_ * x_5_ + 78 x_10_ * x_6_ + 30 x_38_ * x_6_ + 24 x_27_ * x_10_ - 88 x_14_ * x_13_ - 20 x_14_ ^ 2 - 52 x_23_ * x_14_ - 38 x_38_ * x_23_ ] <= 4196
quadratic_ranged_23_ub: [ -13 x_3_ ^ 2 + 32 x_10_ * x_3_ + 28 x_40_ * x_3_ + 29 x_4_ ^ 2 + 28 x_15_ * x_4_ + 86 x_41_ * x_4_ + 38 x_15_ * x_10_ - 50 x_41_ * x_10_ + 78 x_49_ * x_10_ + 31 x_15_ ^ 2 - 66 x_45_ * x_15_ - 3 x_41_ ^ 2 + 40 x_45_ ^ 2 + 42 x_49_ * x_45_ ] <= 6026
quadratic_ranged_1_lb: [ 96 x_42_ * x_12_ + 92 x_37_ * x_18_ - 58 x_44_ * x_37_ - 34 x_44_ * x_42_ + 10 x_44_ ^ 2 ] >= -2720
quadratic_ranged_2_lb: 6 x_5_ + 23 x_47_ + [ 10 x_21_ * x_2_ + 92 x_47_ * x_2_ - 92 x_50_ * x_2_ + 38 x_5_ ^ 2 - 24 x_50_ * x_5_ - 42 x_9_ ^ 2 + 42 x_18_ * x_9_ - 68 x_21_ * x_9_ - 98 x_22_ * x_9_ + 2 x_29_ * x_9_ + 45 x_18_ ^ 2 + 78 x_36_ * x_18_ + 38 x_47_ * x_18_ + 52 x_50_ * x_18_ - 8 x_44_ * x_19_ - 12 x_22_ ^ 2 - 56 x_44_ * x_22_ + 32 x_50_ * x_22_ + 23 x_29_ ^ 2 - 34 x_47_ * x_44_ ] >= 4659
quadratic_ranged_3_lb: -15 x_9_ + 5 x_10_ + 14 x_13_ - 38 x_15_ + [ -86 x_19_ * x_2_ + 31 x_4_ ^ 2 - 62 x_9_ * x_7_ - 58 x_27_ * x_7_ - 92 x_19_ * x_9_ - 24 x_13_ * x_10_ - 80 x_39_ * x_10_ + 46 x_45_ * x_10_ - 72 x_19_ * x_13_ + 78 x_19_ * x_15_ + 78 x_45_ * x_15_ ] >= 5804
quadratic_ranged_4_lb: -18 x_9_ + 41 x_10_ - 30 x_39_ + [ 76 x_10_ * x_6_ + 78 x_50_ * x_6_ + 86 x_39_ * x_9_ + 48 x_30_ ^ 2 + 14 x_42_ ^ 2 + 26 x_50_ * x_42_ ] >= -6971
quadratic_ranged_5_lb: -48 x_3_ - 2 x_9_ + 34 x_28_ - 8 x_41_ + [ -32 x_33_ * x_1_ + 47 x_3_ ^ 2 + 4 x_9_ ^ 2 + 6 x_28_ * x_9_ + 14 x_27_ * x_10_ - 80 x_28_ * x_10_ - 28 x_14_ * x_11_ + 1 x_14_ ^ 2 - 56 x_27_ * x_14_ - 32 x_41_ * x_14_ + 86 x_35_ * x_21_ + 26 x_41_ * x_21_ - 32 x_27_ ^ 2 + 42 x_28_ * x_27_ - 4 x_37_ * x_33_ + 10 x_41_ * x_37_ + 9 x_41_ ^ 2 ] >= -1884
quadratic_ranged_6_lb: -14 x_14_ + 4 x_15_ - 29 x_29_ + 23 x_42_ + [ 28 x_19_ * x_6_ + 6 x_26_ * x_6_ + 40 x_20_ * x_9_ - 84 x_42_ * x_9_ + 22 x_14_ ^ 2 - 28 x_19_ * x_14_ + 86 x_20_ * x_14_ - 2 x_26_ * x_14_ + 38 x_42_ * x_15_ - 18 x_25_ * x_19_ + 92 x_29_ * x_20_ + 18 x_26_ * x_25_ + 60 x_42_ * x_26_ + 16 x_29_ ^ 2 ] >= -1646
quadratic_ranged_7_lb: 42 x_24_ - 37 x_25_ - 50 x_28_ - 42 x_30_ + [ 50 x_21_ * x_2_ - 58 x_34_ * x_2_ + 100 x_30_ * x_14_ + 68 x_34_ * x_14_ + 42 x_31_ * x_21_ + 38 x_42_ * x_21_ - 6 x_30_ * x_24_ - 86 x_33_ * x_24_ - 56 x_47_ * x_24_ - 82 x_33_ * x_25_ + 98 x_30_ * x_28_ - 86 x_31_ * x_28_ + 42 x_33_ * x_28_ + 46 x_34_ * x_30_ + 33 x_31_ ^ 2 + 62 x_33_ * x_31_ - 52 x_47_ * x_31_ - 8 x_42_ * x_33_ - 18 x_42_ * x_34_ ] >= 1841
quadratic_ranged_8_lb: -19 x_9_ - 43 x_29_ - 13 x_37_ + [ -8 x_3_ ^ 2 - 32 x_29_ * x_3_ - 52 x_33_ * x_3_ + 20 x_29_ * x_4_ + 80 x_33_ * x_4_ + 40 x_9_ * x_7_ + 28 x_35_ * x_7_ - 88 x_37_ * x_9_ + 50 x_29_ ^ 2 - 14 x_33_ * x_29_ + 16 x_35_ * x_29_ + 40 x_37_ * x_29_ + 84 x_50_ * x_29_ + 96 x_35_ * x_33_ - 90 x_50_ * x_33_ - 40 x_35_ ^ 2 + 96 x_50_ * x_35_ ] >= 333
quadratic_ranged_9_lb: [ 74 x_2_ * x_39_ + 98 x_44_ * x_2_ - 56 x_14_ * x_4_ + 60 x_30_ * x_4_ + 38 x_36_ * x_4_ - 80 x_36_ * x_14_ + 66 x_30_ * x_23_ - 16 x_39_ * x_23_ - 28 x_36_ * x_30_ + 2 x_39_ * x_30_ + 16 x_44_ * x_39_ ] >= 4044
quadratic_ranged_10_lb: -13 x_21_ - 47 x_26_ + 6 x_39_ + [ 52 x_39_ * x_21_ - 26 x_34_ * x_23_ - 40 x_33_ * x_26_ - 18 x_33_ ^ 2 - 74 x_39_ * x_33_ - 40 x_39_ * x_34_ + 18 x_44_ * x_43_ ] >= -4591
quadratic_ranged_11_lb: 11 x_16_ + [ 14 x_4_ ^ 2 + 94 x_7_ * x_4_ + 60 x_14_ * x_4_ + 30 x_8_ * x_7_ + 44 x_20_ * x_7_ - 84 x_22_ * x_7_ + 98 x_34_ * x_7_ - 40 x_31_ * x_8_ - 56 x_34_ * x_8_ - 46 x_22_ * x_16_ - 25 x_22_ ^ 2 + 44 x_31_ * x_22_ + 26 x_34_ * x_31_ ] >= -3285
quadratic_ranged_12_lb: 23 x_29_ + 34 x_32_ + [ 94 x_15_ * x_8_ + 60 x_44_ * x_8_ - 52 x_32_ * x_12_ + 90 x_44_ * x_12_ + 62 x_36_ * x_15_ - 10 x_44_ * x_15_ + 74 x_29_ * x_18_ + 38 x_32_ * x_18_ + 78 x_36_ * x_18_ - 12 x_44_ * x_18_ - 35 x_26_ ^ 2 - 10 x_39_ * x_26_ + 13 x_29_ ^ 2 + 86 x_39_ * x_36_ - 60 x_44_ * x_39_ + 20 x_44_ ^ 2 ] >= 4519
quadratic_ranged_13_lb: 6 x_25_ + [ -47 x_11_ ^ 2 + 50 x_18_ ^ 2 + 20 x_25_ * x_18_ - 6 x_30_ * x_18_ - 78 x_36_ * x_21_ ] >= 2719
quadratic_ranged_14_lb: -37 x_13_ + 28 x_22_ + 16 x_26_ - 20 x_50_ + [ 4 x_3_ ^ 2 + 30 x_9_ ^ 2 + 16 x_33_ * x_9_ - 8 x_22_ * x_13_ + 66 x_23_ * x_13_ + 4 x_33_ * x_22_ - 10 x_26_ ^ 2 + 43 x_50_ ^ 2 ] >= 4746
quadratic_ranged_15_lb: -7 x_1_ + 43 x_16_ + 35 x_35_ - 36 x_49_ + [ 42 x_45_ * x_1_ + 22 x_49_ * x_1_ - 39 x_3_ ^ 2 - 90 x_5_ * x_3_ - 2 x_17_ * x_5_ - 84 x_49_ * x_5_ + 22 x_15_ * x_14_ - 94 x_43_ * x_14_ - 21 x_15_ ^ 2 - 34 x_35_ * x_15_ + 56 x_39_ * x_15_ - 2 x_16_ ^ 2 + 98 x_39_ * x_17_ - 92 x_43_ * x_39_ + 49 x_43_ ^ 2 ] >= 7665
quadratic_ranged_16_lb: 19 x_24_ - 34 x_42_ + [ 74 x_24_ * x_1_ + 7 x_5_ ^ 2 + 17 x_14_ ^ 2 + 34 x_24_ * x_14_ + 20 x_37_ * x_14_ - 23 x_19_ ^ 2 + 4 x_22_ * x_19_ - 33 x_22_ ^ 2 - 46 x_37_ * x_22_ + 36 x_42_ * x_22_ + 26 x_42_ * x_37_ ] >= -8292
quadratic_ranged_17_lb: 45 x_4_ + [ 100 x_4_ * x_2_ - 4 x_16_ * x_2_ - 62 x_12_ * x_3_ - 82 x_22_ * x_4_ - 34 x_14_ ^ 2 + 14 x_16_ * x_15_ ] >= 2801
quadratic_ranged_18_lb: 32 x_13_ + 36 x_24_ + 16 x_35_ + 21 x_40_ + [ -54 x_35_ * x_3_ + 42 x_47_ * x_3_ - 70 x_49_ * x_3_ + 70 x_9_ * x_4_ + 58 x_13_ * x_4_ - 82 x_15_ * x_4_ + 80 x_24_ * x_4_ - 42 x_39_ * x_4_ + 46 x_41_ * x_4_ + 74 x_48_ * x_4_ + 90 x_28_ * x_9_ + 4 x_35_ * x_9_ + 90 x_41_ * x_9_ + 98 x_45_ * x_9_ - 40 x_15_ * x_13_ + 94 x_35_ * x_13_ + 32 x_41_ * x_13_ + 50 x_45_ * x_13_ - 36 x_49_ * x_13_ + 7 x_15_ ^ 2 - 46 x_47_ * x_15_ - 90 x_49_ * x_15_ - 50 x_33_ * x_24_ + 10 x_40_ * x_24_ - 32 x_40_ * x_28_ - 52 x_45_ * x_28_ + 86 x_48_ * x_28_ + 36 x_41_ * x_29_ - 14 x_48_ * x_33_ - 46 x_45_ * x_35_ + 76 x_49_ * x_35_ - 15 x_39_ ^ 2 + 76 x_40_ * x_39_ + 16 x_41_ * x_39_ + 28 x_45_ * x_39_ + 50 x_47_ * x_39_ + 28 x_41_ * x_40_ - 56 x_45_ * x_40_ + 48 x_49_ * x_41_ + 39 x_45_ ^ 2 - 68 x_49_ * x_45_ + 45 x_48_ ^ 2 ] >= 5681
quadratic_ranged_19_lb: 11 x_22_ + 13 x_38_ - 31 x_45_ + [ 18 x_22_ * x_4_ - 52 x_16_ * x_10_ - 2 x_34_ * x_10_ + 100 x_38_ * x_10_ - 60 x_48_ * x_10_ + 23 x_15_ ^ 2 - 14 x_40_ * x_15_ - 14 x_45_ * x_15_ - 58 x_23_ * x_16_ - 44 x_38_ * x_16_ + 62 x_40_ * x_16_ + 12 x_18_ ^ 2 + 34 x_22_ * x_18_ - 22 x_23_ * x_18_ + 96 x_31_ * x_22_ + 70 x_35_ * x_22_ + 2 x_38_ * x_23_ - 32 x_45_ * x_23_ + 94 x_35_ * x_31_ - 2 x_34_ ^ 2 + 46 x_35_ * x_34_ - 84 x_40_ * x_35_ + 68 x_40_ * x_36_ + 48 x_45_ * x_38_ - 28 x_48_ ^ 2 ] >= 19112
quadratic_ranged_20_lb: -18 x_28_ - 44 x_33_ + 34 x_49_ + [ 68 x_28_ * x_5_ + 54 x_21_ * x_8_ + 14 x_49_ * x_12_ + 50 x_22_ * x_19_ + 56 x_28_ * x_19_ - 70 x_33_ * x_21_ + 13 x_22_ ^ 2 - 12 x_28_ * x_22_ + 34 x_35_ * x_33_ ] >= -1586
quadratic_ranged_21_lb: 10 x_14_ - 46 x_36_ + 48 x_45_ + [ -84 x_7_ * x_4_ - 82 x_14_ * x_4_ + 80 x_9_ * x_7_ + 82 x_22_ * x_14_ - 60 x_45_ * x_14_ - 44 x_31_ * x_22_ - 14 x_45_ * x_22_ - 13 x_31_ ^ 2 + 34 x_45_ * x_34_ ] >= 5086
quadratic_ranged_22_lb: -21 x_5_ - 14 x_27_ + [ 60 x_4_ * x_2_ - 26 x_6_ * x_2_ + 64 x_27_ * x_2_ + 18 x_28_ * x_2_ + 86 x_20_ * x_4_ + 24 x_6_ * x_5_ + 24 x_25_ * x_5_ + 58 x_28_ * x_5_ + 78 x_10_ * x_6_ + 30 x_38_ * x_6_ + 24 x_27_ * x_10_ - 88 x_14_ * x_13_ - 20 x_14_ ^ 2 - 52 x_23_ * x_14_ - 38 x_38_ * x_23_ ] >= 4191
quadratic_ranged_23_lb: [ -13 x_3_ ^ 2 + 32 x_10_ * x_3_ + 28 x_40_ * x_3_ + 29 x_4_ ^ 2 + 28 x_15_ * x_4_ + 86 x_41_ * x_4_ + 38 x_15_ * x_10_ - 50 x_41_ * x_10_ + 78 x_49_ * x_10_ + 31 x_15_ ^ 2 - 66 x_45_ * x_15_ - 3 x_41_ ^ 2 + 40 x_45_ ^ 2 + 42 x_49_ * x_45_ ] >= 6021
c1_1: -30 x_2_ = -120
c1: -25 x_24_ - 48 x_34_ - 1 x_48_ + [ 2 x_3_ ^ 2 + 82 x_8_ * x_3_ - 68 x_11_ * x_3_ + 18 x_24_ * x_3_ - 4 x_8_ * x_5_ + 22 x_13_ * x_8_ - 27 x_11_ ^ 2 - 28 x_16_ * x_11_ - 16 x_29_ * x_11_ - 4 x_46_ * x_11_ + 10 x_13_ ^ 2 - 100 x_46_ * x_13_ - 20 x_16_ ^ 2 + 38 x_23_ ^ 2 + 56 x_46_ * x_23_ - 70 x_48_ * x_23_ - 38 x_34_ * x_24_ - 8 x_46_ ^ 2 ] = -7481
c2: -9 x_1_ + 10 x_28_ - 25 x_38_ + [ 36 x_1_ ^ 2 - 98 x_26_ * x_1_ + 30 x_31_ * x_1_ - 52 x_37_ * x_1_ - 70 x_8_ * x_5_ + 76 x_31_ * x_5_ + 100 x_44_ * x_5_ + 86 x_31_ * x_8_ + 70 x_44_ * x_8_ + 47 x_12_ ^ 2 + 10 x_37_ * x_13_ + 10 x_44_ * x_13_ - 38 x_28_ ^ 2 - 6 x_49_ * x_37_ - 9 x_50_ ^ 2 ] = 1598
c3: [ -80 x_3_ * x_14_ + 12 x_17_ * x_3_ + 82 x_18_ * x_3_ + 90 x_23_ * x_14_ - 50 x_45_ * x_15_ - 46 x_23_ * x_17_ - 92 x_30_ * x_21_ ] = 8138
c4: 44 x_19_ - 29 x_36_ + 41 x_46_ + [ 44 x_16_ * x_5_ + 16 x_26_ * x_5_ - 45 x_7_ ^ 2 - 82 x_24_ * x_7_ - 68 x_33_ * x_7_ + 38 x_36_ * x_7_ + 20 x_40_ * x_7_ - 66 x_50_ * x_7_ + 44 x_19_ * x_14_ + 56 x_33_ * x_14_ - 78 x_42_ * x_19_ + 92 x_42_ * x_24_ + 42 x_46_ * x_24_ - 78 x_34_ * x_26_ - 74 x_36_ * x_26_ - 28 x_50_ * x_26_ - 82 x_36_ * x_28_ - 76 x_44_ * x_28_ - 15 x_33_ ^ 2 + 100 x_40_ * x_34_ - 38 x_44_ * x_34_ + 6 x_38_ * x_36_ - 24 x_40_ * x_36_ + 30 x_46_ * x_36_ + 88 x_44_ * x_38_ + 26 x_42_ * x_40_ + 15 x_42_ ^ 2 - 40 x_44_ * x_42_ + 2 x_46_ ^ 2 ] = 12257
c5: 20 x_38_ + [ 98 x_13_ * x_3_ + 62 x_27_ * x_3_ + 24 x_27_ ^ 2 - 38 x_43_ * x_27_ - 66 x_31_ * x_29_ + 18 x_38_ * x_29_ - 20 x_43_ * x_31_ + 70 x_43_ * x_38_ ] = 1294
c6: 37 x_19_ + [ -6 x_19_ * x_3_ - 94 x_32_ * x_3_ - 86 x_46_ * x_3_ - 36 x_31_ * x_11_ - 4 x_26_ * x_13_ + 41 x_19_ ^ 2 + 72 x_31_ * x_19_ - 2 x_40_ * x_19_ - 8 x_26_ * x_22_ - 52 x_32_ * x_22_ - 66 x_40_ * x_26_ + 10 x_46_ * x_26_ - 6 x_31_ ^ 2 - 28 x_46_ * x_40_ ] = 1620
c7: 5 x_38_ + 29 x_41_ + [ -32 x_25_ * x_6_ - 86 x_33_ * x_6_ + 94 x_33_ * x_15_ - 26 x_18_ ^ 2 - 46 x_33_ * x_18_ - 92 x_41_ * x_18_ + 18 x_25_ ^ 2 - 14 x_38_ * x_33_ + 86 x_41_ * x_33_ + 38 x_45_ * x_38_ - 50 x_41_ ^ 2 - 38 x_45_ * x_41_ ] = -4846
c8: [ 40 x_41_ * x_6_ - 68 x_49_ * x_6_ - 41 x_15_ ^ 2 - 86 x_34_ * x_15_ + 98 x_46_ * x_15_ - 50 x_34_ ^ 2 - 56 x_46_ * x_40_ - 12 x_49_ * x_40_ + 8 x_42_ ^ 2 - 16 x_46_ ^ 2 ] = -3051
c9: 14 x_40_ + [ -70 x_42_ * x_2_ - 40 x_31_ * x_13_ + 50 x_42_ * x_13_ - 7 x_14_ ^ 2 - 80 x_47_ * x_14_ - 52 x_47_ * x_20_ + 7 x_31_ ^ 2 - 48 x_47_ * x_38_ - 50 x_42_ ^ 2 ] = 2639
c10: 40 x_31_ - 27 x_33_ - 22 x_39_ + 35 x_40_ + [ 7 x_31_ ^ 2 - 6 x_39_ * x_33_ + 12 x_39_ * x_36_ + 10 x_42_ * x_36_ ] = -677
c11: 16 x_8_ + 26 x_14_ + 14 x_49_ + [ -1 x_4_ ^ 2 + 78 x_16_ * x_4_ + 66 x_16_ * x_8_ + 100 x_35_ * x_8_ - 92 x_49_ * x_8_ + 44 x_36_ * x_10_ - 76 x_18_ * x_14_ + 90 x_36_ * x_14_ + 4 x_35_ * x_16_ + 18 x_49_ * x_16_ + 42 x_35_ * x_26_ - 62 x_50_ * x_26_ - 74 x_36_ * x_31_ + 78 x_49_ * x_31_ ] = 1260
c12: -29 x_23_ - 39 x_39_ + 17 x_50_ + [ 2 x_38_ * x_3_ + 78 x_39_ * x_3_ + 20 x_23_ * x_17_ - 70 x_33_ * x_17_ + 25 x_23_ ^ 2 + 64 x_44_ * x_23_ + 44 x_38_ * x_33_ - 6 x_44_ ^ 2 ] = 5611
c13: -2 x_24_ + [ 100 x_30_ * x_24_ + 16 x_30_ * x_26_ - 3 x_32_ ^ 2 - 37 x_41_ ^ 2 ] = -2820
c14: -18 x_24_ - 43 x_47_ + [ 86 x_13_ * x_6_ - 68 x_20_ * x_6_ + 92 x_24_ * x_6_ + 72 x_43_ * x_6_ - 49 x_13_ ^ 2 + 14 x_21_ * x_13_ - 98 x_40_ * x_13_ - 44 x_50_ * x_14_ + 32 x_47_ * x_20_ + 52 x_50_ * x_21_ + 49 x_24_ ^ 2 + 34 x_50_ * x_24_ + 82 x_43_ * x_40_ - 34 x_47_ ^ 2 - 9 x_50_ ^ 2 ] = 9424
c15: -35 x_19_ - 9 x_36_ + [ 35 x_2_ ^ 2 + 40 x_23_ * x_2_ + 46 x_39_ * x_2_ + 29 x_12_ ^ 2 - 18 x_23_ * x_12_ + 12 x_44_ * x_12_ + 72 x_45_ * x_12_ - 62 x_38_ * x_19_ + 82 x_44_ * x_19_ - 46 x_38_ * x_23_ + 100 x_39_ * x_23_ + 50 x_43_ * x_23_ - 8 x_38_ * x_25_ - 40 x_35_ ^ 2 + 62 x_38_ * x_35_ + 100 x_39_ * x_35_ - 76 x_43_ * x_35_ - 18 x_45_ * x_35_ - 68 x_43_ * x_36_ - 28 x_38_ ^ 2 - 10 x_39_ ^ 2 + 80 x_44_ * x_39_ + 46 x_44_ * x_43_ ] = 3530
c16: -4 x_15_ + [ -86 x_7_ * x_15_ - 34 x_26_ * x_7_ - 84 x_31_ * x_8_ + 30 x_31_ * x_26_ ] = -3428
c17: [ 84 x_13_ * x_5_ - 62 x_26_ * x_7_ + 74 x_25_ * x_15_ + 1 x_25_ ^ 2 - 52 x_44_ * x_25_ ] = -1696
c18: 18 x_31_ + 45 x_40_ - 2 x_43_ + [ 94 x_10_ * x_4_ - 88 x_18_ * x_4_ + 80 x_18_ * x_9_ - 66 x_39_ * x_9_ + 100 x_40_ * x_9_ - 2 x_49_ * x_9_ + 45 x_19_ ^ 2 + 32 x_39_ * x_31_ - 42 x_43_ ^ 2 + 18 x_49_ * x_43_ + 37 x_49_ ^ 2 ] = -6103
c19: -2 x_45_ + [ 80 x_13_ * x_5_ + 52 x_45_ * x_5_ - 24 x_49_ * x_5_ + 90 x_32_ * x_10_ + 48 x_13_ ^ 2 + 64 x_32_ * x_13_ - 28 x_46_ * x_13_ + 82 x_46_ * x_32_ + 84 x_45_ * x_41_ + 62 x_46_ * x_41_ - 86 x_49_ * x_45_ ] = -356
c20: 20 x_21_ + [ -70 x_10_ * x_33_ + 42 x_48_ * x_10_ - 92 x_33_ * x_28_ ] = -11016
c21: -2 x_49_ + [ -74 x_25_ * x_19_ - 100 x_49_ * x_45_ - 9 x_47_ ^ 2 + 60 x_49_ * x_48_ ] = -3401
c22: 40 x_13_ + 19 x_42_ + [ -80 x_13_ * x_3_ - 28 x_18_ * x_3_ - 3 x_13_ ^ 2 + 72 x_42_ * x_13_ ] = -1350
c23: 22 x_1_ + 28 x_13_ - 7 x_36_ + [ -52 x_21_ * x_1_ + 8 x_33_ * x_1_ + 26 x_49_ * x_1_ - 44 x_20_ * x_13_ + 28 x_33_ * x_13_ - 2 x_36_ * x_20_ - 4 x_47_ * x_20_ + 94 x_33_ * x_24_ + 78 x_38_ * x_33_ - 4 x_38_ * x_36_ + 78 x_47_ * x_36_ - 25 x_38_ ^ 2 - 38 x_49_ * x_47_ + 42 x_49_ ^ 2 ] = 2978
c24: 5 x_4_ + [ -96 x_20_ * x_12_ + 28 x_37_ * x_20_ + 48 x_37_ ^ 2 + 3 x_38_ ^ 2 ] = 6593
c25: -11 x_2_ + 26 x_3_ - 20 x_6_ - 33 x_7_ - 48 x_26_ + [ -62 x_3_ * x_2_ - 68 x_14_ * x_2_ + 82 x_26_ * x_2_ + 34 x_26_ * x_6_ + 6 x_13_ * x_7_ + 82 x_26_ * x_7_ + 45 x_14_ ^ 2 - 16 x_28_ * x_14_ + 20 x_28_ * x_26_ - 96 x_30_ * x_26_ + 19 x_30_ ^ 2 + 19 x_50_ ^ 2 ] = 2503
c26: 50 x_15_ + 17 x_41_ + [ -60 x_6_ * x_1_ - 58 x_7_ * x_6_ - 96 x_22_ * x_6_ + 98 x_24_ * x_7_ - 16 x_15_ ^ 2 + 38 x_41_ * x_15_ + 86 x_47_ * x_15_ + 46 x_26_ * x_18_ - 98 x_24_ * x_22_ - 82 x_41_ * x_22_ - 68 x_41_ * x_24_ + 76 x_47_ * x_24_ + 32 x_45_ * x_41_ - 70 x_47_ * x_45_ + 41 x_47_ ^ 2 ] = -14500
Bounds
-10 <= x_1_ <= 3
-4 <= x_2_ <= 8
1 <= x_3_ <= 9
1 <= x_4_ <= 6
-7 <= x_5_ <= 10
-10 <= x_6_ <= -3
-9 <= x_7_ <= 0
-9 <= x_8_ <= 6
3 <= x_9_ <= 10
-9 <= x_10_ <= 8
1 <= x_11_ <= 3
-8 <= x_12_ <= -1
-9 <= x_13_ <= 10
-5 <= x_14_ <= 7
-2 <= x_15_ <= 3
-10 <= x_16_ <= 6
-2 <= x_17_ <= 5
-7 <= x_18_ <= 10
-7 <= x_19_ <= 1
-4 <= x_20_ <= 10
x_21_ = -6
-1 <= x_22_ <= 8
-10 <= x_23_ <= -1
-2 <= x_24_ <= 10
-10 <= x_25_ <= -3
-6 <= x_26_ <= -3
2 <= x_27_ <= 10
0 <= x_28_ <= 10
0 <= x_29_ <= 4
-2 <= x_30_ <= 1
-8 <= x_31_ <= 2
-10 <= x_32_ <= 5
-9 <= x_33_ <= 9
0 <= x_34_ <= 9
-1 <= x_35_ <= 7
-5 <= x_36_ <= 1
-6 <= x_37_ <= 8
-5 <= x_38_ <= 10
2 <= x_39_ <= 10
-5 <= x_40_ <= 2
-4 <= x_41_ <= 5
-1 <= x_42_ <= 9
x_43_ = -10
-4 <= x_44_ <= 9
3 <= x_45_ <= 10
-7 <= x_46_ <= 5
-7 <= x_47_ <= 0
-6 <= x_48_ <= -1
-6 <= x_49_ <= 3
0 <= x_50_ <= 10
General
x_1_
x_2_
x_3_
x_4_
x_5_
x_6_
x_7_
x_8_
x_9_
x_10_
x_11_
x_12_
x_13_
x_14_
x_15_
x_16_
x_17_
x_18_
x_19_
x_20_
x_21_
x_22_
x_23_
x_24_
x_25_
x_26_
x_27_
x_28_
x_29_
x_30_
x_31_
x_32_
x_33_
x_34_
x_35_
x_36_
x_37_
x_38_
x_39_
x_40_
x_41_
x_42_
x_43_
x_44_
x_45_
x_46_
x_47_
x_48_
x_49_
x_50_
End
