minimize
obj: 46 x_2_ + 49 x_4_ - 12 x_18_ - 36 x_19_ - 17 x_24_ - 32 x_26_ + 18 x_31_ + 5 x_36_ - 6 x_40_
subject to
affine_ranged_1_ub: -3 x_5_ - 24 x_10_ - 20 x_26_ + 37 x_35_ <= 21
affine_ranged_2_ub: 48 x_8_ + 22 x_41_ <= -177
affine_ranged_3_ub: 6 x_38_ <= -15
affine_ranged_4_ub: -22 x_28_ <= 70
quadratic_ranged_1_ub: [ -16 x_29_ ^ 2 - 19 x_47_ ^ 2 ] <= -1023
quadratic_ranged_2_ub: -13 x_2_ - 10 x_33_ + [ 39 x_1_ ^ 2 + 2 x_14_ ^ 2 + 1 x_29_ ^ 2 + 23 x_33_ ^ 2 ] <= 4113
quadratic_ranged_3_ub: 43 x_4_ + [ -25 x_24_ ^ 2 + 33 x_29_ ^ 2 ] <= 1603
quadratic_ranged_4_ub: 18 x_17_ - 21 x_28_ + 2 x_43_ + 10 x_48_ + [ 41 x_7_ ^ 2 - 26 x_11_ ^ 2 + 31 x_17_ ^ 2 + 46 x_18_ ^ 2 ] <= 1704
quadratic_ranged_5_ub: 10 x_1_ + 45 x_3_ - 3 x_14_ + 16 x_25_ + [ -17 x_14_ ^ 2 - 35 x_34_ ^ 2 + 30 x_36_ ^ 2 + 44 x_39_ ^ 2 ] <= -499
quadratic_ranged_6_ub: 25 x_3_ + 26 x_7_ - 41 x_41_ + [ 2 x_3_ ^ 2 ] <= -61
quadratic_ranged_7_ub: [ 35 x_34_ ^ 2 ] <= 2242
quadratic_ranged_8_ub: 2 x_5_ - 11 x_9_ + 25 x_31_ + 28 x_39_ + 20 x_48_ + [ 4 x_9_ ^ 2 + 2 x_48_ ^ 2 ] <= 601
quadratic_ranged_9_ub: -4 x_34_ + 50 x_43_ - 46 x_47_ + [ 6 x_47_ ^ 2 ] <= 471
quadratic_ranged_10_ub: 18 x_45_ - 3 x_47_ + [ 31 x_7_ ^ 2 - 24 x_14_ ^ 2 - 18 x_16_ ^ 2 - 18 x_47_ ^ 2 ] <= -1974
quadratic_ranged_11_ub: -47 x_5_ + [ 33 x_24_ ^ 2 ] <= 1238
quadratic_ranged_12_ub: 46 x_9_ + 45 x_14_ - 46 x_29_ - 43 x_46_ + [ -24 x_1_ ^ 2 + 14 x_14_ ^ 2 - 7 x_37_ ^ 2 - 31 x_40_ ^ 2 ] <= -2395
quadratic_ranged_13_ub: 28 x_41_ + [ 20 x_41_ ^ 2 ] <= 641
quadratic_ranged_14_ub: 18 x_19_ - 1 x_24_ + 30 x_34_ - 36 x_42_ - 17 x_49_ + [ -38 x_28_ ^ 2 ] <= -307
quadratic_ranged_15_ub: 38 x_24_ + [ 20 x_8_ ^ 2 - 25 x_23_ ^ 2 - 10 x_42_ ^ 2 ] <= -1711
quadratic_ranged_16_ub: 8 x_42_ - 48 x_45_ + 39 x_48_ + [ 7 x_43_ ^ 2 ] <= 657
quadratic_ranged_17_ub: -20 x_11_ - 36 x_18_ + [ -47 x_3_ ^ 2 + 13 x_23_ ^ 2 - 16 x_33_ ^ 2 ] <= -959
quadratic_ranged_18_ub: 22 x_5_ + 29 x_45_ + [ -37 x_3_ ^ 2 - 16 x_25_ ^ 2 + 16 x_32_ ^ 2 ] <= -1954
quadratic_ranged_19_ub: -36 x_17_ + 42 x_19_ + 46 x_43_ + [ 17 x_30_ ^ 2 - 12 x_35_ ^ 2 ] <= 1305
quadratic_ranged_20_ub: -45 x_2_ - 48 x_13_ + 28 x_24_ - 47 x_27_ + [ 20 x_1_ ^ 2 - 30 x_26_ ^ 2 - 4 x_46_ ^ 2 ] <= -993
quadratic_ranged_21_ub: 32 x_26_ + 2 x_32_ - 32 x_50_ + [ -28 x_2_ ^ 2 - 49 x_36_ ^ 2 ] <= -1564
affine_ranged_1_lb: -3 x_5_ - 24 x_10_ - 20 x_26_ + 37 x_35_ >= 17
affine_ranged_2_lb: 48 x_8_ + 22 x_41_ >= -178
affine_ranged_3_lb: 6 x_38_ >= -18
affine_ranged_4_lb: -22 x_28_ >= 63
quadratic_ranged_1_lb: [ -16 x_29_ ^ 2 - 19 x_47_ ^ 2 ] >= -1027
quadratic_ranged_2_lb: -13 x_2_ - 10 x_33_ + [ 39 x_1_ ^ 2 + 2 x_14_ ^ 2 + 1 x_29_ ^ 2 + 23 x_33_ ^ 2 ] >= 4112
quadratic_ranged_3_lb: 43 x_4_ + [ -25 x_24_ ^ 2 + 33 x_29_ ^ 2 ] >= 1598
quadratic_ranged_4_lb: 18 x_17_ - 21 x_28_ + 2 x_43_ + 10 x_48_ + [ 41 x_7_ ^ 2 - 26 x_11_ ^ 2 + 31 x_17_ ^ 2 + 46 x_18_ ^ 2 ] >= 1697
quadratic_ranged_5_lb: 10 x_1_ + 45 x_3_ - 3 x_14_ + 16 x_25_ + [ -17 x_14_ ^ 2 - 35 x_34_ ^ 2 + 30 x_36_ ^ 2 + 44 x_39_ ^ 2 ] >= -502
quadratic_ranged_6_lb: 25 x_3_ + 26 x_7_ - 41 x_41_ + [ 2 x_3_ ^ 2 ] >= -63
quadratic_ranged_7_lb: [ 35 x_34_ ^ 2 ] >= 2237
quadratic_ranged_8_lb: 2 x_5_ - 11 x_9_ + 25 x_31_ + 28 x_39_ + 20 x_48_ + [ 4 x_9_ ^ 2 + 2 x_48_ ^ 2 ] >= 594
quadratic_ranged_9_lb: -4 x_34_ + 50 x_43_ - 46 x_47_ + [ 6 x_47_ ^ 2 ] >= 463
quadratic_ranged_10_lb: 18 x_45_ - 3 x_47_ + [ 31 x_7_ ^ 2 - 24 x_14_ ^ 2 - 18 x_16_ ^ 2 - 18 x_47_ ^ 2 ] >= -1979
quadratic_ranged_11_lb: -47 x_5_ + [ 33 x_24_ ^ 2 ] >= 1230
quadratic_ranged_12_lb: 46 x_9_ + 45 x_14_ - 46 x_29_ - 43 x_46_ + [ -24 x_1_ ^ 2 + 14 x_14_ ^ 2 - 7 x_37_ ^ 2 - 31 x_40_ ^ 2 ] >= -2400
quadratic_ranged_13_lb: 28 x_41_ + [ 20 x_41_ ^ 2 ] >= 638
quadratic_ranged_14_lb: 18 x_19_ - 1 x_24_ + 30 x_34_ - 36 x_42_ - 17 x_49_ + [ -38 x_28_ ^ 2 ] >= -312
quadratic_ranged_15_lb: 38 x_24_ + [ 20 x_8_ ^ 2 - 25 x_23_ ^ 2 - 10 x_42_ ^ 2 ] >= -1717
quadratic_ranged_16_lb: 8 x_42_ - 48 x_45_ + 39 x_48_ + [ 7 x_43_ ^ 2 ] >= 653
quadratic_ranged_17_lb: -20 x_11_ - 36 x_18_ + [ -47 x_3_ ^ 2 + 13 x_23_ ^ 2 - 16 x_33_ ^ 2 ] >= -968
quadratic_ranged_18_lb: 22 x_5_ + 29 x_45_ + [ -37 x_3_ ^ 2 - 16 x_25_ ^ 2 + 16 x_32_ ^ 2 ] >= -1964
quadratic_ranged_19_lb: -36 x_17_ + 42 x_19_ + 46 x_43_ + [ 17 x_30_ ^ 2 - 12 x_35_ ^ 2 ] >= 1302
quadratic_ranged_20_lb: -45 x_2_ - 48 x_13_ + 28 x_24_ - 47 x_27_ + [ 20 x_1_ ^ 2 - 30 x_26_ ^ 2 - 4 x_46_ ^ 2 ] >= -1001
quadratic_ranged_21_lb: 32 x_26_ + 2 x_32_ - 32 x_50_ + [ -28 x_2_ ^ 2 - 49 x_36_ ^ 2 ] >= -1567
c1_1: -30 x_15_ + 15 x_21_ + 44 x_43_ - 18 x_44_ = 386
c2_1: 42 x_16_ = -294
c3_1: 22 x_27_ = -44
c1: 17 x_6_ + 30 x_26_ + [ 5 x_31_ ^ 2 - 50 x_44_ ^ 2 ] = -1860
c2: 31 x_3_ + 8 x_44_ - 2 x_48_ - 35 x_49_ + 19 x_50_ + [ -13 x_4_ ^ 2 + 31 x_25_ ^ 2 ] = -154
c3: 14 x_13_ - 47 x_36_ + [ 40 x_10_ ^ 2 + 18 x_17_ ^ 2 ] = 1280
c4: -30 x_9_ - 36 x_39_ + [ 15 x_7_ ^ 2 ] = 309
c5: -41 x_32_ + 1 x_41_ + [ -3 x_28_ ^ 2 - 1 x_29_ ^ 2 + 15 x_41_ ^ 2 - 10 x_43_ ^ 2 ] = -752
c6: -45 x_14_ - 25 x_27_ + [ -24 x_32_ ^ 2 + 23 x_43_ ^ 2 ] = 1921
c7: 17 x_25_ - 32 x_26_ + 43 x_46_ + [ -15 x_30_ ^ 2 + 7 x_36_ ^ 2 ] = -1358
c8: 9 x_39_ - 45 x_42_ + [ 15 x_7_ ^ 2 - 41 x_11_ ^ 2 + 29 x_32_ ^ 2 - 45 x_40_ ^ 2 ] = -3351
c9: 14 x_15_ + [ 2 x_19_ ^ 2 - 41 x_28_ ^ 2 ] = -179
c10: -33 x_13_ + 23 x_36_ + 5 x_43_ - 34 x_48_ + [ -40 x_36_ ^ 2 + 34 x_39_ ^ 2 - 39 x_48_ ^ 2 ] = -745
c11: -37 x_50_ + [ 9 x_44_ ^ 2 ] = 367
c12: -33 x_11_ + 9 x_14_ - 18 x_44_ + [ 40 x_4_ ^ 2 + 24 x_28_ ^ 2 ] = 3432
c13: 32 x_7_ + [ -1 x_37_ ^ 2 + 44 x_43_ ^ 2 ] = 4204
c14: -17 x_41_ + [ -7 x_4_ ^ 2 + 36 x_19_ ^ 2 + 16 x_30_ ^ 2 + 7 x_46_ ^ 2 + 20 x_47_ ^ 2 ] = 3988
c15: 4 x_6_ - 10 x_23_ - 37 x_46_ + [ -17 x_23_ ^ 2 - 44 x_46_ ^ 2 ] = -5830
c16: -14 x_35_ - 21 x_48_ + [ -5 x_48_ ^ 2 ] = -136
c17: [ 45 x_5_ ^ 2 + 47 x_20_ ^ 2 + 26 x_40_ ^ 2 ] = 1028
c18: 26 x_38_ + 41 x_45_ + [ -16 x_22_ ^ 2 + 19 x_43_ ^ 2 ] = 1202
c19: 31 x_3_ + 20 x_5_ + [ -23 x_3_ ^ 2 ] = -930
c20: -35 x_6_ + 32 x_16_ + [ -22 x_34_ ^ 2 ] = -1632
c21: -2 x_14_ + [ -38 x_40_ ^ 2 ] = -1386
c22: -10 x_4_ + [ 35 x_1_ ^ 2 - 18 x_4_ ^ 2 + 19 x_21_ ^ 2 ] = 3168
Bounds
3 <= x_1_ <= 10
-6 <= x_2_ <= 6
-1 <= x_3_ <= 7
9 <= x_4_ <= 10
-5 <= x_5_ <= 2
0 <= x_6_ <= 9
-8 <= x_7_ <= 0
-8 <= x_8_ <= 6
-7 <= x_9_ <= -3
-8 <= x_10_ <= 5
x_11_ = 7
-2 <= x_12_ <= 10
0 <= x_13_ <= 8
-5 <= x_14_ <= 9
0 <= x_15_ <= 10
-10 <= x_16_ <= 1
-8 <= x_17_ <= 4
-8 <= x_18_ <= 1
-10 <= x_19_ <= 6
-1 <= x_20_ <= 1
-10 <= x_21_ <= 2
-3 <= x_22_ <= 7
8 <= x_23_ <= 10
4 <= x_24_ <= 9
-7 <= x_25_ <= 4
-3 <= x_26_ <= 9
-6 <= x_27_ <= 2
-8 <= x_28_ <= 0
2 <= x_29_ <= 10
-9 <= x_30_ <= 10
-8 <= x_31_ <= 9
-10 <= x_32_ <= 3
-1 <= x_33_ <= 5
-3 <= x_34_ <= 8
-3 <= x_35_ <= 10
5 <= x_36_ <= 10
-10 <= x_37_ <= 10
-10 <= x_38_ <= 1
-10 <= x_39_ <= 10
-9 <= x_40_ <= 8
-4 <= x_41_ <= 5
-1 <= x_42_ <= 7
-4 <= x_43_ <= 10
-8 <= x_44_ <= -1
-6 <= x_45_ <= 8
-10 <= x_46_ <= 10
-6 <= x_47_ <= 8
-6 <= x_48_ <= 8
-8 <= x_49_ <= -3
x_50_ = 2
General
x_1_
x_2_
x_3_
x_4_
x_5_
x_6_
x_7_
x_8_
x_9_
x_10_
x_11_
x_12_
x_13_
x_14_
x_15_
x_16_
x_17_
x_18_
x_19_
x_20_
x_21_
x_22_
x_23_
x_24_
x_25_
x_26_
x_27_
x_28_
x_29_
x_30_
x_31_
x_32_
x_33_
x_34_
x_35_
x_36_
x_37_
x_38_
x_39_
x_40_
x_41_
x_42_
x_43_
x_44_
x_45_
x_46_
x_47_
x_48_
x_49_
x_50_
End
