minimize
obj: -5 x_3_ + 24 x_6_ - 33 x_8_ - 15 x_34_ - 29 x_44_ + 14 x_47_ - 3 x_48_
subject to
affine_ranged_1_ub: 2 x_39_ + 27 x_42_ <= 90
affine_ranged_2_ub: -33 x_3_ <= 202
affine_ranged_3_ub: 12 x_25_ - 18 x_33_ <= 67
affine_ranged_4_ub: 38 x_14_ + 35 x_17_ <= 149
affine_ranged_5_ub: -8 x_8_ + 29 x_14_ - 3 x_19_ + 34 x_31_ <= 310
affine_ranged_6_ub: 46 x_36_ <= -226
affine_ranged_7_ub: 17 x_7_ - 50 x_36_ <= 187
affine_ranged_8_ub: 35 x_20_ + 46 x_24_ + 2 x_33_ <= 583
quadratic_ranged_1_ub: -7 x_9_ - 45 x_20_ + 47 x_21_ + [ -3 x_9_ ^ 2 + 46 x_35_ ^ 2 ] <= 238
quadratic_ranged_2_ub: -47 x_34_ + [ -29 x_32_ ^ 2 - 9 x_40_ ^ 2 ] <= -1669
quadratic_ranged_3_ub: 16 x_1_ - 17 x_13_ - 36 x_39_ + [ -28 x_1_ ^ 2 + 49 x_20_ ^ 2 + 35 x_37_ ^ 2 ] <= 5222
quadratic_ranged_4_ub: 10 x_11_ + [ 27 x_12_ ^ 2 + 48 x_32_ ^ 2 - 2 x_35_ ^ 2 ] <= 4317
quadratic_ranged_5_ub: -50 x_8_ + [ -5 x_45_ ^ 2 ] <= -26
quadratic_ranged_6_ub: -48 x_5_ + [ -5 x_35_ ^ 2 + 44 x_40_ ^ 2 ] <= 580
quadratic_ranged_7_ub: 30 x_2_ - 48 x_27_ + [ -23 x_15_ ^ 2 ] <= -860
quadratic_ranged_8_ub: -37 x_27_ + [ 17 x_6_ ^ 2 ] <= -19
quadratic_ranged_9_ub: 34 x_21_ - 41 x_27_ - 17 x_39_ + 25 x_43_ + [ -15 x_47_ ^ 2 ] <= -282
quadratic_ranged_10_ub: 16 x_16_ - 25 x_42_ + [ 50 x_20_ ^ 2 - 10 x_27_ ^ 2 + 7 x_42_ ^ 2 ] <= 4978
quadratic_ranged_11_ub: -7 x_47_ + [ -10 x_41_ ^ 2 ] <= -348
quadratic_ranged_12_ub: -47 x_3_ + 22 x_14_ + 20 x_24_ - 43 x_26_ + 42 x_50_ + [ -34 x_3_ ^ 2 - 27 x_14_ ^ 2 + 10 x_50_ ^ 2 ] <= 301
quadratic_ranged_13_ub: 38 x_48_ + [ 20 x_48_ ^ 2 ] <= 2381
quadratic_ranged_14_ub: -28 x_49_ + [ -15 x_18_ ^ 2 - 20 x_19_ ^ 2 - 17 x_31_ ^ 2 + 2 x_41_ ^ 2 + 11 x_49_ ^ 2 ] <= -1348
quadratic_ranged_15_ub: -10 x_5_ - 14 x_23_ + 45 x_29_ + [ 15 x_25_ ^ 2 + 7 x_30_ ^ 2 ] <= 602
quadratic_ranged_16_ub: -34 x_32_ - 5 x_40_ + [ 39 x_11_ ^ 2 - 45 x_18_ ^ 2 - 16 x_47_ ^ 2 ] <= 447
quadratic_ranged_17_ub: 10 x_17_ + 26 x_38_ - 30 x_40_ + [ 38 x_38_ ^ 2 + 24 x_43_ ^ 2 ] <= 1839
quadratic_ranged_18_ub: -32 x_15_ + 12 x_21_ + 16 x_26_ - 17 x_28_ + 27 x_48_ + [ -38 x_15_ ^ 2 - 29 x_42_ ^ 2 ] <= -1174
quadratic_ranged_19_ub: -25 x_14_ + 16 x_18_ - 40 x_48_ + [ 19 x_7_ ^ 2 - 48 x_46_ ^ 2 - 36 x_48_ ^ 2 ] <= -4504
quadratic_ranged_20_ub: 35 x_3_ - 9 x_7_ + [ 17 x_3_ ^ 2 - 12 x_21_ ^ 2 - 6 x_22_ ^ 2 - 23 x_50_ ^ 2 ] <= -1776
quadratic_ranged_21_ub: 24 x_10_ + 13 x_11_ - 39 x_19_ + [ -6 x_19_ ^ 2 ] <= 11
quadratic_ranged_22_ub: -1 x_1_ - 14 x_11_ - 39 x_23_ + [ -2 x_23_ ^ 2 - 3 x_33_ ^ 2 ] <= 135
quadratic_ranged_23_ub: [ -40 x_15_ ^ 2 - 20 x_22_ ^ 2 + 35 x_34_ ^ 2 ] <= 537
quadratic_ranged_24_ub: 44 x_2_ + 2 x_29_ + 22 x_46_ - 1 x_47_ + 10 x_50_ + [ -8 x_24_ ^ 2 + 33 x_29_ ^ 2 ] <= 151
quadratic_ranged_25_ub: -37 x_1_ + 12 x_5_ + 12 x_14_ - 12 x_30_ + 1 x_33_ + 45 x_35_ + 12 x_45_ + [ -34 x_33_ ^ 2 + 44 x_40_ ^ 2 ] <= 677
quadratic_ranged_26_ub: -6 x_18_ - 11 x_31_ + [ -24 x_5_ ^ 2 - 31 x_31_ ^ 2 ] <= -840
quadratic_ranged_27_ub: -39 x_14_ + 41 x_15_ + 40 x_22_ - 11 x_23_ + [ 5 x_29_ ^ 2 ] <= 85
quadratic_ranged_28_ub: -27 x_44_ + [ -7 x_2_ ^ 2 - 8 x_20_ ^ 2 + 36 x_21_ ^ 2 - 16 x_37_ ^ 2 ] <= -964
quadratic_ranged_29_ub: -21 x_23_ + [ 31 x_4_ ^ 2 - 26 x_12_ ^ 2 + 18 x_33_ ^ 2 ] <= -1065
quadratic_ranged_30_ub: 24 x_37_ + 21 x_48_ + [ 16 x_26_ ^ 2 ] <= 476
quadratic_ranged_31_ub: 19 x_15_ + 7 x_26_ - 42 x_36_ + [ -45 x_4_ ^ 2 - 29 x_41_ ^ 2 ] <= -938
quadratic_ranged_32_ub: 31 x_2_ - 47 x_7_ + [ -28 x_47_ ^ 2 ] <= -85
quadratic_ranged_33_ub: 49 x_11_ + [ -30 x_27_ ^ 2 ] <= -176
quadratic_ranged_34_ub: 21 x_4_ - 19 x_37_ + 1 x_38_ + 32 x_42_ + [ -3 x_4_ ^ 2 + 15 x_6_ ^ 2 + 44 x_38_ ^ 2 + 2 x_40_ ^ 2 - 32 x_42_ ^ 2 - 2 x_47_ ^ 2 ] <= 1938
quadratic_ranged_35_ub: -5 x_1_ + 3 x_28_ + [ 24 x_1_ ^ 2 + 7 x_48_ ^ 2 ] <= 1272
quadratic_ranged_36_ub: -48 x_7_ - 34 x_24_ + 30 x_28_ + [ -45 x_17_ ^ 2 - 3 x_21_ ^ 2 ] <= -158
quadratic_ranged_37_ub: 10 x_16_ + [ -22 x_16_ ^ 2 + 28 x_26_ ^ 2 + 18 x_49_ ^ 2 ] <= 1139
quadratic_ranged_38_ub: 14 x_8_ + 50 x_10_ + [ -9 x_23_ ^ 2 ] <= 127
quadratic_ranged_39_ub: 21 x_10_ - 25 x_13_ + 21 x_14_ - 20 x_16_ + 48 x_19_ - 35 x_25_ - 49 x_27_ + [ -10 x_25_ ^ 2 ] <= -797
quadratic_ranged_40_ub: -34 x_6_ - 16 x_42_ + 6 x_49_ + [ -24 x_5_ ^ 2 + 1 x_21_ ^ 2 ] <= 58
quadratic_ranged_41_ub: [ -35 x_13_ ^ 2 - 45 x_28_ ^ 2 + 44 x_35_ ^ 2 - 15 x_37_ ^ 2 - 31 x_40_ ^ 2 - 20 x_47_ ^ 2 ] <= -2210
quadratic_ranged_42_ub: 21 x_26_ + [ -39 x_49_ ^ 2 ] <= -1972
quadratic_ranged_43_ub: [ -6 x_11_ ^ 2 + 1 x_12_ ^ 2 + 37 x_30_ ^ 2 ] <= -5
quadratic_ranged_44_ub: [ 15 x_10_ ^ 2 + 12 x_42_ ^ 2 ] <= 483
quadratic_ranged_45_ub: [ -39 x_4_ ^ 2 ] <= -154
quadratic_ranged_46_ub: [ 46 x_17_ ^ 2 ] <= 51
quadratic_ranged_47_ub: -5 x_10_ + 16 x_38_ + [ -41 x_14_ ^ 2 - 27 x_36_ ^ 2 ] <= -1181
affine_ranged_1_lb: 2 x_39_ + 27 x_42_ >= 83
affine_ranged_2_lb: -33 x_3_ >= 196
affine_ranged_3_lb: 12 x_25_ - 18 x_33_ >= 66
affine_ranged_4_lb: 38 x_14_ + 35 x_17_ >= 144
affine_ranged_5_lb: -8 x_8_ + 29 x_14_ - 3 x_19_ + 34 x_31_ >= 305
affine_ranged_6_lb: 46 x_36_ >= -233
affine_ranged_7_lb: 17 x_7_ - 50 x_36_ >= 177
affine_ranged_8_lb: 35 x_20_ + 46 x_24_ + 2 x_33_ >= 581
quadratic_ranged_1_lb: -7 x_9_ - 45 x_20_ + 47 x_21_ + [ -3 x_9_ ^ 2 + 46 x_35_ ^ 2 ] >= 230
quadratic_ranged_2_lb: -47 x_34_ + [ -29 x_32_ ^ 2 - 9 x_40_ ^ 2 ] >= -1672
quadratic_ranged_3_lb: 16 x_1_ - 17 x_13_ - 36 x_39_ + [ -28 x_1_ ^ 2 + 49 x_20_ ^ 2 + 35 x_37_ ^ 2 ] >= 5217
quadratic_ranged_4_lb: 10 x_11_ + [ 27 x_12_ ^ 2 + 48 x_32_ ^ 2 - 2 x_35_ ^ 2 ] >= 4311
quadratic_ranged_5_lb: -50 x_8_ + [ -5 x_45_ ^ 2 ] >= -35
quadratic_ranged_6_lb: -48 x_5_ + [ -5 x_35_ ^ 2 + 44 x_40_ ^ 2 ] >= 576
quadratic_ranged_7_lb: 30 x_2_ - 48 x_27_ + [ -23 x_15_ ^ 2 ] >= -864
quadratic_ranged_8_lb: -37 x_27_ + [ 17 x_6_ ^ 2 ] >= -20
quadratic_ranged_9_lb: 34 x_21_ - 41 x_27_ - 17 x_39_ + 25 x_43_ + [ -15 x_47_ ^ 2 ] >= -289
quadratic_ranged_10_lb: 16 x_16_ - 25 x_42_ + [ 50 x_20_ ^ 2 - 10 x_27_ ^ 2 + 7 x_42_ ^ 2 ] >= 4974
quadratic_ranged_11_lb: -7 x_47_ + [ -10 x_41_ ^ 2 ] >= -355
quadratic_ranged_12_lb: -47 x_3_ + 22 x_14_ + 20 x_24_ - 43 x_26_ + 42 x_50_ + [ -34 x_3_ ^ 2 - 27 x_14_ ^ 2 + 10 x_50_ ^ 2 ] >= 293
quadratic_ranged_13_lb: 38 x_48_ + [ 20 x_48_ ^ 2 ] >= 2375
quadratic_ranged_14_lb: -28 x_49_ + [ -15 x_18_ ^ 2 - 20 x_19_ ^ 2 - 17 x_31_ ^ 2 + 2 x_41_ ^ 2 + 11 x_49_ ^ 2 ] >= -1350
quadratic_ranged_15_lb: -10 x_5_ - 14 x_23_ + 45 x_29_ + [ 15 x_25_ ^ 2 + 7 x_30_ ^ 2 ] >= 592
quadratic_ranged_16_lb: -34 x_32_ - 5 x_40_ + [ 39 x_11_ ^ 2 - 45 x_18_ ^ 2 - 16 x_47_ ^ 2 ] >= 444
quadratic_ranged_17_lb: 10 x_17_ + 26 x_38_ - 30 x_40_ + [ 38 x_38_ ^ 2 + 24 x_43_ ^ 2 ] >= 1831
quadratic_ranged_18_lb: -32 x_15_ + 12 x_21_ + 16 x_26_ - 17 x_28_ + 27 x_48_ + [ -38 x_15_ ^ 2 - 29 x_42_ ^ 2 ] >= -1176
quadratic_ranged_19_lb: -25 x_14_ + 16 x_18_ - 40 x_48_ + [ 19 x_7_ ^ 2 - 48 x_46_ ^ 2 - 36 x_48_ ^ 2 ] >= -4507
quadratic_ranged_20_lb: 35 x_3_ - 9 x_7_ + [ 17 x_3_ ^ 2 - 12 x_21_ ^ 2 - 6 x_22_ ^ 2 - 23 x_50_ ^ 2 ] >= -1780
quadratic_ranged_21_lb: 24 x_10_ + 13 x_11_ - 39 x_19_ + [ -6 x_19_ ^ 2 ] >= 5
quadratic_ranged_22_lb: -1 x_1_ - 14 x_11_ - 39 x_23_ + [ -2 x_23_ ^ 2 - 3 x_33_ ^ 2 ] >= 132
quadratic_ranged_23_lb: [ -40 x_15_ ^ 2 - 20 x_22_ ^ 2 + 35 x_34_ ^ 2 ] >= 532
quadratic_ranged_24_lb: 44 x_2_ + 2 x_29_ + 22 x_46_ - 1 x_47_ + 10 x_50_ + [ -8 x_24_ ^ 2 + 33 x_29_ ^ 2 ] >= 146
quadratic_ranged_25_lb: -37 x_1_ + 12 x_5_ + 12 x_14_ - 12 x_30_ + 1 x_33_ + 45 x_35_ + 12 x_45_ + [ -34 x_33_ ^ 2 + 44 x_40_ ^ 2 ] >= 672
quadratic_ranged_26_lb: -6 x_18_ - 11 x_31_ + [ -24 x_5_ ^ 2 - 31 x_31_ ^ 2 ] >= -843
quadratic_ranged_27_lb: -39 x_14_ + 41 x_15_ + 40 x_22_ - 11 x_23_ + [ 5 x_29_ ^ 2 ] >= 76
quadratic_ranged_28_lb: -27 x_44_ + [ -7 x_2_ ^ 2 - 8 x_20_ ^ 2 + 36 x_21_ ^ 2 - 16 x_37_ ^ 2 ] >= -967
quadratic_ranged_29_lb: -21 x_23_ + [ 31 x_4_ ^ 2 - 26 x_12_ ^ 2 + 18 x_33_ ^ 2 ] >= -1069
quadratic_ranged_30_lb: 24 x_37_ + 21 x_48_ + [ 16 x_26_ ^ 2 ] >= 471
quadratic_ranged_31_lb: 19 x_15_ + 7 x_26_ - 42 x_36_ + [ -45 x_4_ ^ 2 - 29 x_41_ ^ 2 ] >= -942
quadratic_ranged_32_lb: 31 x_2_ - 47 x_7_ + [ -28 x_47_ ^ 2 ] >= -90
quadratic_ranged_33_lb: 49 x_11_ + [ -30 x_27_ ^ 2 ] >= -178
quadratic_ranged_34_lb: 21 x_4_ - 19 x_37_ + 1 x_38_ + 32 x_42_ + [ -3 x_4_ ^ 2 + 15 x_6_ ^ 2 + 44 x_38_ ^ 2 + 2 x_40_ ^ 2 - 32 x_42_ ^ 2 - 2 x_47_ ^ 2 ] >= 1937
quadratic_ranged_35_lb: -5 x_1_ + 3 x_28_ + [ 24 x_1_ ^ 2 + 7 x_48_ ^ 2 ] >= 1266
quadratic_ranged_36_lb: -48 x_7_ - 34 x_24_ + 30 x_28_ + [ -45 x_17_ ^ 2 - 3 x_21_ ^ 2 ] >= -161
quadratic_ranged_37_lb: 10 x_16_ + [ -22 x_16_ ^ 2 + 28 x_26_ ^ 2 + 18 x_49_ ^ 2 ] >= 1134
quadratic_ranged_38_lb: 14 x_8_ + 50 x_10_ + [ -9 x_23_ ^ 2 ] >= 123
quadratic_ranged_39_lb: 21 x_10_ - 25 x_13_ + 21 x_14_ - 20 x_16_ + 48 x_19_ - 35 x_25_ - 49 x_27_ + [ -10 x_25_ ^ 2 ] >= -804
quadratic_ranged_40_lb: -34 x_6_ - 16 x_42_ + 6 x_49_ + [ -24 x_5_ ^ 2 + 1 x_21_ ^ 2 ] >= 53
quadratic_ranged_41_lb: [ -35 x_13_ ^ 2 - 45 x_28_ ^ 2 + 44 x_35_ ^ 2 - 15 x_37_ ^ 2 - 31 x_40_ ^ 2 - 20 x_47_ ^ 2 ] >= -2213
quadratic_ranged_42_lb: 21 x_26_ + [ -39 x_49_ ^ 2 ] >= -1974
quadratic_ranged_43_lb: [ -6 x_11_ ^ 2 + 1 x_12_ ^ 2 + 37 x_30_ ^ 2 ] >= -8
quadratic_ranged_44_lb: [ 15 x_10_ ^ 2 + 12 x_42_ ^ 2 ] >= 482
quadratic_ranged_45_lb: [ -39 x_4_ ^ 2 ] >= -160
quadratic_ranged_46_lb: [ 46 x_17_ ^ 2 ] >= 41
quadratic_ranged_47_lb: -5 x_10_ + 16 x_38_ + [ -41 x_14_ ^ 2 - 27 x_36_ ^ 2 ] >= -1186
c1_1: 36 x_23_ + 21 x_38_ = -255
c2_1: -18 x_6_ - 7 x_38_ - 8 x_40_ = 99
c3_1: 1 x_14_ - 31 x_15_ = -152
c4_1: 43 x_22_ = -129
c5_1: -40 x_11_ = 120
c6_1: 34 x_14_ + 36 x_35_ + 15 x_49_ = 387
c1: -27 x_24_ + 26 x_33_ - 37 x_43_ + [ 35 x_20_ ^ 2 - 33 x_24_ ^ 2 ] = 2603
c2: 32 x_8_ + 28 x_10_ - 15 x_19_ + 37 x_20_ + [ -6 x_2_ ^ 2 + 11 x_6_ ^ 2 + 47 x_7_ ^ 2 + 39 x_29_ ^ 2 + 6 x_50_ ^ 2 ] = 2023
c3: -28 x_28_ - 7 x_43_ + [ -48 x_13_ ^ 2 - 17 x_17_ ^ 2 - 8 x_44_ ^ 2 ] = -3538
c4: 24 x_11_ + 46 x_20_ + [ 7 x_5_ ^ 2 ] = 388
c5: [ 10 x_7_ ^ 2 + 5 x_9_ ^ 2 + 32 x_12_ ^ 2 - 30 x_21_ ^ 2 ] = 1478
c6: -35 x_18_ + 45 x_30_ + [ -16 x_30_ ^ 2 - 25 x_42_ ^ 2 ] = -295
c7: -16 x_8_ + [ -23 x_16_ ^ 2 - 38 x_24_ ^ 2 - 28 x_27_ ^ 2 - 12 x_37_ ^ 2 ] = -1230
c8: -48 x_19_ - 16 x_50_ + [ 18 x_24_ ^ 2 ] = 690
c9: 11 x_45_ + [ 39 x_7_ ^ 2 - 27 x_21_ ^ 2 ] = -117
c10: 16 x_8_ + 3 x_30_ + [ 46 x_18_ ^ 2 + 20 x_33_ ^ 2 - 19 x_35_ ^ 2 ] = -319
c11: -11 x_21_ + 19 x_44_ + [ -44 x_15_ ^ 2 ] = -893
c12: [ 30 x_21_ ^ 2 + 40 x_33_ ^ 2 + 2 x_38_ ^ 2 - 46 x_49_ ^ 2 ] = -1366
c13: 20 x_46_ + [ 12 x_20_ ^ 2 + 26 x_24_ ^ 2 - 35 x_28_ ^ 2 + 42 x_46_ ^ 2 ] = 2462
c14: -44 x_22_ + [ 31 x_16_ ^ 2 - 36 x_22_ ^ 2 ] = -192
c15: 20 x_35_ + [ -44 x_35_ ^ 2 ] = -1000
c16: 15 x_16_ + [ -37 x_18_ ^ 2 ] = -148
c17: 29 x_20_ + 28 x_36_ - 30 x_38_ - 41 x_41_ - 39 x_48_ + [ 21 x_41_ ^ 2 + 36 x_47_ ^ 2 ] = 516
c18: [ 23 x_38_ ^ 2 ] = 1127
c19: -48 x_1_ + 33 x_7_ - 39 x_29_ + 21 x_30_ + 10 x_32_ + 32 x_35_ + 38 x_44_ + [ -42 x_7_ ^ 2 - 17 x_35_ ^ 2 - 19 x_50_ ^ 2 ] = -2468
c20: 15 x_14_ + [ 10 x_9_ ^ 2 ] = 1045
c21: 42 x_29_ - 49 x_39_ - 16 x_50_ + [ -43 x_19_ ^ 2 + 33 x_39_ ^ 2 + 13 x_42_ ^ 2 - 21 x_48_ ^ 2 ] = -5013
c22: 46 x_3_ + 13 x_23_ + [ 44 x_12_ ^ 2 ] = 1841
c23: -25 x_17_ + 9 x_26_ + [ 43 x_38_ ^ 2 ] = 2055
c24: -35 x_7_ + 45 x_43_ + 49 x_46_ - 12 x_48_ + [ 14 x_7_ ^ 2 - 43 x_26_ ^ 2 ] = 8
c25: -12 x_21_ - 18 x_27_ - 2 x_48_ + [ -48 x_47_ ^ 2 ] = -26
c26: 14 x_35_ + 26 x_45_ + [ -47 x_10_ ^ 2 + 12 x_32_ ^ 2 ] = -493
c27: 13 x_1_ - 1 x_15_ + 35 x_19_ - 3 x_22_ + [ -10 x_1_ ^ 2 - 43 x_19_ ^ 2 - 44 x_49_ ^ 2 ] = -5369
c28: [ 33 x_2_ ^ 2 - 27 x_8_ ^ 2 - 47 x_29_ ^ 2 ] = 1117
c29: -47 x_3_ + [ -32 x_14_ ^ 2 ] = -6
c30: -47 x_15_ + 19 x_22_ + 34 x_26_ - 35 x_38_ + [ -6 x_14_ ^ 2 - 23 x_20_ ^ 2 + 41 x_23_ ^ 2 ] = -2134
c31: -11 x_32_ - 34 x_47_ + [ -44 x_43_ ^ 2 ] = 78
c32: -10 x_27_ - 38 x_44_ - 12 x_48_ + [ -4 x_8_ ^ 2 - 18 x_48_ ^ 2 ] = -2270
c33: -39 x_22_ + [ 43 x_15_ ^ 2 + 8 x_22_ ^ 2 ] = 1264
c34: 38 x_20_ + 8 x_23_ + 24 x_50_ + [ 50 x_20_ ^ 2 - 27 x_23_ ^ 2 + 32 x_42_ ^ 2 + 13 x_50_ ^ 2 ] = 6670
c35: -20 x_20_ + 47 x_35_ + 29 x_45_ + [ 2 x_36_ ^ 2 ] = -89
c36: -18 x_15_ - 35 x_26_ + 49 x_38_ + [ -19 x_15_ ^ 2 + 35 x_34_ ^ 2 ] = 912
c37: -24 x_31_ - 25 x_35_ - 6 x_45_ + [ 13 x_23_ ^ 2 + 7 x_25_ ^ 2 ] = 251
c38: 20 x_14_ + 22 x_50_ + [ 31 x_41_ ^ 2 ] = 1374
c39: 2 x_6_ + [ 16 x_11_ ^ 2 - 26 x_14_ ^ 2 - 30 x_18_ ^ 2 + 23 x_24_ ^ 2 + 35 x_39_ ^ 2 ] = 503
Bounds
2 <= x_1_ <= 6
-10 <= x_2_ <= 10
-8 <= x_3_ <= 6
-6 <= x_4_ <= 3
-4 <= x_5_ <= 8
-9 <= x_6_ <= 1
-8 <= x_7_ <= 10
-4 <= x_8_ <= 2
-10 <= x_9_ <= -4
2 <= x_10_ <= 9
-9 <= x_11_ <= 8
2 <= x_12_ <= 10
-10 <= x_13_ <= 2
-3 <= x_14_ <= 4
-4 <= x_15_ <= 6
-6 <= x_16_ <= 10
-4 <= x_17_ <= 2
-9 <= x_18_ <= 2
-8 <= x_19_ <= 2
4 <= x_20_ <= 10
-5 <= x_21_ <= 5
-8 <= x_22_ <= 1
-6 <= x_23_ <= 1
-1 <= x_24_ <= 10
3 <= x_25_ <= 7
-7 <= x_26_ <= 6
-9 <= x_27_ <= 8
-9 <= x_28_ <= -2
-6 <= x_29_ <= -4
-8 <= x_30_ <= 0
-6 <= x_31_ <= 10
-8 <= x_32_ <= -4
-5 <= x_33_ <= 4
-10 <= x_34_ <= 0
5 <= x_35_ <= 7
-10 <= x_36_ <= 10
5 <= x_37_ <= 7
-8 <= x_38_ <= 8
0 <= x_39_ <= 3
-9 <= x_40_ <= 4
1 <= x_41_ <= 9
-6 <= x_42_ <= 9
-4 <= x_43_ <= 3
6 <= x_44_ <= 8
-6 <= x_45_ <= 3
4 <= x_46_ <= 6
-3 <= x_47_ <= 1
-2 <= x_48_ <= 10
4 <= x_49_ <= 7
1 <= x_50_ <= 9
General
x_1_
x_2_
x_3_
x_4_
x_5_
x_6_
x_7_
x_8_
x_9_
x_10_
x_11_
x_12_
x_13_
x_14_
x_15_
x_16_
x_17_
x_18_
x_19_
x_20_
x_21_
x_22_
x_23_
x_24_
x_25_
x_26_
x_27_
x_28_
x_29_
x_30_
x_31_
x_32_
x_33_
x_34_
x_35_
x_36_
x_37_
x_38_
x_39_
x_40_
x_41_
x_42_
x_43_
x_44_
x_45_
x_46_
x_47_
x_48_
x_49_
x_50_
End
